Node Numbers,X Locations (inches),Y Locations (inches),Z Locations (inches),Equivalent Elastic Strains (in/in),Equivalent Stress (psi),Max Principal Elastic Strain (in/in),Max Principal Stress (psi),Middle Principal Elastic Strain (in/in),Middle Principal Stress (psi),Min Principal Elastic Strain (in/in),Min Principal Stress (psi),Total Deformation (in)
1,19.1,2.1818,0,0.00040394,4036.6,0.0001808,614.76,0.00010682,58.903,-0.0003896,-3671,1.5834
2,19.1,2.3636,0,0.00031574,3155.2,0.00014026,435.34,8.1066e-05,-9.3934,-0.00030613,-2918.7,1.5838
3,19.1,2.5455,0,0.00027866,2784.7,0.00012179,364.18,7.3335e-05,0.097994,-0.00027067,-2584.6,1.584
4,19.1,2.7273,0,0.00025948,2593,0.00011256,327.85,6.8779e-05,-1.0835,-0.00025235,-2413.9,1.5841
5,19.1,2.9091,0,0.00025132,2511.5,0.00010855,311.98,6.6949e-05,-0.59905,-0.00024456,-2341.1,1.5842
6,19.1,3.0909,0,0.00025132,2511.5,0.00010855,311.98,6.6949e-05,-0.59905,-0.00024456,-2341.1,1.5842
7,19.1,3.2727,0,0.00025948,2593,0.00011256,327.85,6.8779e-05,-1.0835,-0.00025235,-2413.9,1.5841
8,19.1,3.4545,0,0.00027866,2784.7,0.00012179,364.18,7.3335e-05,0.097992,-0.00027067,-2584.6,1.584
9,19.1,3.6364,0,0.00031574,3155.2,0.00014026,435.34,8.1066e-05,-9.3934,-0.00030613,-2918.7,1.5838
10,19.1,3.8182,0,0.00040394,4036.6,0.0001808,614.76,0.00010682,58.903,-0.0003896,-3671,1.5834
11,19.267,2.1818,0,0.0003915,3912.3,0.00016057,377.97,0.00010957,-5.2342,-0.00038375,-3711.8,1.6063
12,19.267,2.3636,0,0.00031149,3112.8,0.000133,361.72,8.3408e-05,-10.927,-0.00030385,-2920.6,1.6066
13,19.267,2.5455,0,0.00027369,2735,0.00011623,315.83,7.4261e-05,0.48009,-0.00026694,-2563.1,1.6068
14,19.267,2.7273,0,0.00025442,2542.4,0.00010788,290.59,6.9056e-05,-1.117,-0.00024824,-2385.1,1.6069
15,19.267,2.9091,0,0.00024618,2460.1,0.00010415,278.6,6.7002e-05,-0.51439,-0.00024025,-2309.1,1.607
16,19.267,3.0909,0,0.00024618,2460.1,0.00010415,278.61,6.7002e-05,-0.51439,-0.00024025,-2309.1,1.607
17,19.267,3.2727,0,0.00025442,2542.4,0.00010788,290.59,6.9056e-05,-1.117,-0.00024824,-2385.1,1.6069
18,19.267,3.4545,0,0.00027369,2735,0.00011623,315.83,7.4261e-05,0.48009,-0.00026694,-2563.1,1.6068
19,19.267,3.6364,0,0.00031149,3112.8,0.000133,361.72,8.3408e-05,-10.927,-0.00030385,-2920.6,1.6066
20,19.267,3.8182,0,0.0003915,3912.3,0.00016057,377.97,0.00010957,-5.2342,-0.00038375,-3711.8,1.6063
21,18.916,5.8182,0,2.3779e-05,237.62,1.1306e-05,39.949,5.3858e-06,-4.5308,-2.2862e-05,-216.77,1.552
22,18.916,5.6364,0,3.524e-05,352.16,1.9499e-05,97.204,6.2955e-06,-2.0037,-3.2556e-05,-293.92,1.5526
23,18.916,5.4545,0,4.9897e-05,498.63,3.0822e-05,181.05,6.516e-06,-1.5773,-4.4268e-05,-383.15,1.5533
24,18.916,5.2727,0,6.6553e-05,665.07,4.3964e-05,280.87,6.3927e-06,-1.4291,-5.7139e-05,-478.78,1.554
25,18.916,5.0909,0,8.5512e-05,854.53,5.9037e-05,396.7,6.0527e-06,-1.4011,-7.1518e-05,-584.24,1.5546
26,18.916,4.9091,0,0.00010762,1075.4,7.6611e-05,532.01,5.5531e-06,-1.8855,-8.8144e-05,-705.88,1.5552
27,18.916,4.7273,0,0.0001344,1343.1,9.7716e-05,694.35,5.16e-06,-1.0821,-0.00010834,-853.88,1.5559
28,18.916,4.5455,0,0.00016879,1686.7,0.00012432,892.81,4.676e-06,-6.1147,-0.00013465,-1052.9,1.5565
29,18.916,4.3636,0,0.00021683,2166.8,0.00016031,1163.2,6.421e-06,7.0086,-0.00017238,-1336.5,1.5571
30,18.916,4.1818,0,0.00028784,2876.4,0.00020393,1394.7,1.3928e-05,-32.897,-0.00023672,-1916.2,1.5576
31,18.916,4,0,0.00033388,3336.5,0.00020286,1088.3,3.7522e-05,-153.94,-0.00030015,-2691.1,1.5581
32,18.916,3.8182,0,0.00030499,3047.8,0.00014676,572.56,7.1715e-05,8.7323,-0.00029116,-2717.8,1.5585
33,18.916,3.6364,0,0.00028243,2822.3,0.00012785,421.31,7.1111e-05,-5.0309,-0.00027292,-2589.9,1.5588
34,18.916,3.4545,0,0.00026237,2621.9,0.00011535,352.15,6.8676e-05,1.4254,-0.00025459,-2427.5,1.559
35,18.916,3.2727,0,0.00025091,2507.4,0.00010932,322.97,6.6198e-05,-1.0066,-0.00024386,-2330.6,1.5592
36,18.916,3.0909,0,0.00024548,2453.1,0.00010641,309.65,6.5162e-05,-0.27197,-0.00023875,-2283.7,1.5593
37,18.916,2.9091,0,0.00024548,2453.1,0.00010641,309.65,6.5162e-05,-0.27197,-0.00023875,-2283.7,1.5593
38,18.916,2.7273,0,0.00025091,2507.4,0.00010932,322.97,6.6198e-05,-1.0066,-0.00024386,-2330.6,1.5592
39,18.916,2.5455,0,0.00026237,2621.9,0.00011535,352.15,6.8676e-05,1.4254,-0.00025459,-2427.5,1.559
40,18.916,2.3636,0,0.00028243,2822.3,0.00012785,421.31,7.1111e-05,-5.0309,-0.00027292,-2589.9,1.5588
41,18.916,2.1818,0,0.00030499,3047.8,0.00014676,572.56,7.1715e-05,8.7323,-0.00029116,-2717.8,1.5585
42,18.916,2,0,0.00033388,3336.5,0.00020286,1088.3,3.7522e-05,-153.94,-0.00030015,-2691.1,1.5581
43,18.916,1.8182,0,0.00028784,2876.4,0.00020393,1394.7,1.3928e-05,-32.897,-0.00023672,-1916.2,1.5576
44,18.916,1.6364,0,0.00021683,2166.8,0.00016031,1163.2,6.421e-06,7.0086,-0.00017238,-1336.5,1.5571
45,18.916,1.4545,0,0.00016879,1686.7,0.00012432,892.81,4.676e-06,-6.1147,-0.00013465,-1052.9,1.5565
46,18.916,1.2727,0,0.0001344,1343.1,9.7716e-05,694.35,5.16e-06,-1.0821,-0.00010834,-853.88,1.5559
47,18.916,1.0909,0,0.00010762,1075.4,7.6611e-05,532.01,5.5531e-06,-1.8855,-8.8144e-05,-705.89,1.5552
48,18.916,0.90909,0,8.5512e-05,854.53,5.9037e-05,396.7,6.0527e-06,-1.4011,-7.1518e-05,-584.24,1.5546
49,18.916,0.72727,0,6.6553e-05,665.07,4.3964e-05,280.87,6.3927e-06,-1.4291,-5.7139e-05,-478.79,1.554
50,18.916,0.54545,0,4.9897e-05,498.63,3.0822e-05,181.05,6.516e-06,-1.5773,-4.4268e-05,-383.15,1.5533
51,18.916,0.36364,0,3.524e-05,352.16,1.9499e-05,97.204,6.2955e-06,-2.0037,-3.2556e-05,-293.92,1.5526
52,18.916,0.18182,0,2.3779e-05,237.62,1.1306e-05,39.949,5.3858e-06,-4.5308,-2.2862e-05,-216.77,1.552
53,18.733,5.8182,0,3.738e-05,373.54,1.4815e-05,29.968,1.0812e-05,-0.11087,-3.6781e-05,-357.7,1.5278
54,18.733,5.6364,0,4.4053e-05,440.22,1.9976e-05,66.715,1.1126e-05,0.2172,-4.2536e-05,-402.98,1.5285
55,18.733,5.4545,0,5.4749e-05,547.11,2.8443e-05,128.91,1.1334e-05,0.3667,-5.1404e-05,-471.02,1.5291
56,18.733,5.2727,0,6.8322e-05,682.75,3.912e-05,208.18,1.1479e-05,0.49168,-6.2359e-05,-554.3,1.5297
57,18.733,5.0909,0,8.448e-05,844.22,5.1651e-05,301.07,1.1653e-05,0.54691,-7.5234e-05,-652.29,1.5303
58,18.733,4.9091,0,0.00010347,1034,6.6049e-05,406.55,1.2027e-05,0.65276,-9.0377e-05,-768.77,1.5309
59,18.733,4.7273,0,0.00012602,1259.4,8.2593e-05,524.53,1.2863e-05,0.60442,-0.00010863,-912.22,1.5315
60,18.733,4.5455,0,0.00015262,1525.1,0.00010088,646.99,1.4847e-05,0.56379,-0.00013095,-1094.9,1.5321
61,18.733,4.3636,0,0.00018429,1841.7,0.0001201,758.29,1.9459e-05,2.1371,-0.00015931,-1341.1,1.5326
62,18.733,4.1818,0,0.0002148,2146.5,0.00013244,782.73,2.8998e-05,5.5102,-0.00019056,-1644.1,1.5331
63,18.733,4,0,0.0002309,2307.4,0.00012545,623.97,4.4793e-05,17.967,-0.00021393,-1925.9,1.5335
64,18.733,3.8182,0,0.00023908,2389.2,0.00011458,444.53,5.6699e-05,9.6559,-0.00022837,-2132.2,1.5338
65,18.733,3.6364,0,0.00023973,2395.6,0.00010744,345.66,6.1242e-05,-1.4467,-0.00023198,-2204.6,1.5341
66,18.733,3.4545,0,0.00023713,2369.6,0.00010332,306,6.2631e-05,0.3076,-0.00023043,-2201.7,1.5343
67,18.733,3.2727,0,0.00023379,2336.3,0.00010066,286.49,6.2516e-05,-0.097957,-0.0002276,-2179.9,1.5344
68,18.733,3.0909,0,0.00023182,2316.6,9.9364e-05,278.54,6.2279e-05,-0.10481,-0.00022582,-2164.8,1.5345
69,18.733,2.9091,0,0.00023182,2316.6,9.9364e-05,278.54,6.2279e-05,-0.10481,-0.00022582,-2164.8,1.5345
70,18.733,2.7273,0,0.00023379,2336.3,0.00010066,286.49,6.2516e-05,-0.097957,-0.0002276,-2179.9,1.5344
71,18.733,2.5455,0,0.00023713,2369.6,0.00010332,306,6.2631e-05,0.3076,-0.00023043,-2201.7,1.5343
72,18.733,2.3636,0,0.00023973,2395.6,0.00010744,345.66,6.1242e-05,-1.4467,-0.00023198,-2204.6,1.5341
73,18.733,2.1818,0,0.00023908,2389.2,0.00011458,444.53,5.6699e-05,9.6559,-0.00022837,-2132.2,1.5338
74,18.733,2,0,0.0002309,2307.4,0.00012545,623.97,4.4793e-05,17.967,-0.00021393,-1925.9,1.5335
75,18.733,1.8182,0,0.0002148,2146.5,0.00013244,782.73,2.8998e-05,5.5102,-0.00019056,-1644.1,1.5331
76,18.733,1.6364,0,0.00018429,1841.7,0.0001201,758.29,1.9459e-05,2.1371,-0.00015931,-1341.1,1.5326
77,18.733,1.4545,0,0.00015262,1525.1,0.00010088,646.99,1.4847e-05,0.56379,-0.00013095,-1094.9,1.5321
78,18.733,1.2727,0,0.00012602,1259.4,8.2593e-05,524.53,1.2863e-05,0.60442,-0.00010863,-912.22,1.5315
79,18.733,1.0909,0,0.00010347,1034,6.6049e-05,406.55,1.2027e-05,0.65276,-9.0377e-05,-768.77,1.5309
80,18.733,0.90909,0,8.448e-05,844.22,5.1651e-05,301.07,1.1653e-05,0.54691,-7.5234e-05,-652.29,1.5303
81,18.733,0.72727,0,6.8322e-05,682.75,3.912e-05,208.18,1.1479e-05,0.49168,-6.2359e-05,-554.3,1.5297
82,18.733,0.54545,0,5.4749e-05,547.11,2.8443e-05,128.91,1.1334e-05,0.3667,-5.1404e-05,-471.02,1.5291
83,18.733,0.36364,0,4.4053e-05,440.23,1.9976e-05,66.715,1.1126e-05,0.2172,-4.2536e-05,-402.98,1.5285
84,18.733,0.18182,0,3.738e-05,373.54,1.4815e-05,29.968,1.0812e-05,-0.11087,-3.6781e-05,-357.7,1.5278
85,18.549,5.8182,0,5.2299e-05,522.63,1.9754e-05,30.235,1.5755e-05,0.18508,-5.1716e-05,-506.77,1.5037
86,18.549,5.6364,0,5.7687e-05,576.47,2.4279e-05,63.795,1.5789e-05,0.0049478,-5.6336e-05,-541.92,1.5043
87,18.549,5.4545,0,6.6164e-05,661.18,3.1081e-05,113.58,1.5966e-05,0.009276,-6.3496e-05,-597.03,1.5049
88,18.549,5.2727,0,7.7408e-05,773.54,3.9823e-05,176.92,1.6272e-05,-0.03817,-7.2864e-05,-669.77,1.5055
89,18.549,5.0909,0,9.1177e-05,911.14,5.0175e-05,250.73,1.6795e-05,-0.082676,-8.4285e-05,-759.55,1.5061
90,18.549,4.9091,0,0.00010738,1073,6.1862e-05,331.65,1.7695e-05,-0.2098,-9.7817e-05,-868.12,1.5067
91,18.549,4.7273,0,0.00012593,1258.4,7.4461e-05,414.32,1.9282e-05,-0.27577,-0.00011365,-999.06,1.5072
92,18.549,4.5455,0,0.00014653,1464.2,8.7157e-05,489.02,2.2043e-05,-0.23081,-0.00013194,-1157.2,1.5077
93,18.549,4.3636,0,0.00016724,1671.3,9.7646e-05,532.55,2.6446e-05,-2.4192,-0.00015167,-1340.7,1.5082
94,18.549,4.1818,0,0.00018514,1850.1,0.00010247,516.32,3.3611e-05,-1.0735,-0.00017086,-1537.4,1.5086
95,18.549,4,0,0.00019773,1975.9,0.00010093,440.04,4.1951e-05,-3.1184,-0.00018653,-1719.9,1.5089
96,18.549,3.8182,0,0.00020566,2055.1,9.6284e-05,347.48,4.9701e-05,-2.5284,-0.00019754,-1860.2,1.5092
97,18.549,3.6364,0,0.00021138,2112.3,9.3123e-05,286.17,5.5214e-05,1.334,-0.00020504,-1954.1,1.5095
98,18.549,3.4545,0,0.00021436,2142.1,9.1777e-05,256.43,5.7667e-05,0.13652,-0.00020884,-2002.3,1.5097
99,18.549,3.2727,0,0.00021548,2153.4,9.1059e-05,242.91,5.875e-05,0.14222,-0.00021032,-2021.5,1.5098
100,18.549,3.0909,0,0.00021576,2156.1,9.0736e-05,237.72,5.9106e-05,0.073232,-0.00021073,-2027.4,1.5098
101,18.549,2.9091,0,0.00021576,2156.1,9.0736e-05,237.72,5.9106e-05,0.073232,-0.00021073,-2027.4,1.5098
102,18.549,2.7273,0,0.00021548,2153.4,9.1059e-05,242.91,5.875e-05,0.14222,-0.00021032,-2021.5,1.5098
103,18.549,2.5455,0,0.00021436,2142.1,9.1777e-05,256.43,5.7667e-05,0.13652,-0.00020884,-2002.3,1.5097
104,18.549,2.3636,0,0.00021138,2112.3,9.3123e-05,286.17,5.5214e-05,1.334,-0.00020504,-1954.1,1.5095
105,18.549,2.1818,0,0.00020566,2055.1,9.6284e-05,347.48,4.9701e-05,-2.5284,-0.00019754,-1860.2,1.5092
106,18.549,2,0,0.00019773,1975.9,0.00010093,440.04,4.1951e-05,-3.1184,-0.00018653,-1719.9,1.5089
107,18.549,1.8182,0,0.00018514,1850.1,0.00010247,516.32,3.3611e-05,-1.0735,-0.00017086,-1537.4,1.5086
108,18.549,1.6364,0,0.00016724,1671.3,9.7646e-05,532.55,2.6446e-05,-2.4192,-0.00015167,-1340.7,1.5082
109,18.549,1.4545,0,0.00014653,1464.3,8.7157e-05,489.01,2.2043e-05,-0.23081,-0.00013194,-1157.2,1.5077
110,18.549,1.2727,0,0.00012593,1258.4,7.4461e-05,414.32,1.9282e-05,-0.27577,-0.00011365,-999.06,1.5072
111,18.549,1.0909,0,0.00010738,1073,6.1862e-05,331.65,1.7695e-05,-0.2098,-9.7817e-05,-868.12,1.5067
112,18.549,0.90909,0,9.1177e-05,911.14,5.0175e-05,250.73,1.6795e-05,-0.082675,-8.4285e-05,-759.56,1.5061
113,18.549,0.72727,0,7.7408e-05,773.54,3.9823e-05,176.92,1.6272e-05,-0.038166,-7.2864e-05,-669.77,1.5055
114,18.549,0.54545,0,6.6164e-05,661.18,3.1081e-05,113.58,1.5966e-05,0.0092757,-6.3496e-05,-597.03,1.5049
115,18.549,0.36364,0,5.7687e-05,576.47,2.4279e-05,63.795,1.5789e-05,0.0049483,-5.6336e-05,-541.92,1.5043
116,18.549,0.18182,0,5.2299e-05,522.63,1.9754e-05,30.235,1.5755e-05,0.18508,-5.1716e-05,-506.77,1.5037
117,18.365,5.8182,0,6.6633e-05,665.87,2.4542e-05,30.989,2.0468e-05,0.37547,-6.6046e-05,-649.66,1.4795
118,18.365,5.6364,0,7.159e-05,715.4,2.8962e-05,64.811,2.0352e-05,0.11958,-7.0265e-05,-680.74,1.4802
119,18.365,5.4545,0,7.876e-05,787.05,3.4774e-05,107.37,2.0501e-05,0.12354,-7.6381e-05,-727.81,1.4808
120,18.365,5.2727,0,8.8151e-05,880.9,4.1963e-05,158.34,2.0897e-05,0.060069,-8.4383e-05,-790.97,1.4813
121,18.365,5.0909,0,9.9639e-05,995.7,5.032e-05,215.7,2.1614e-05,0.010984,-9.42e-05,-870.17,1.4819
122,18.365,4.9091,0,0.00011299,1129.1,5.9482e-05,275.71,2.2783e-05,-0.035316,-0.00010574,-965.74,1.4824
123,18.365,4.7273,0,0.0001278,1277.1,6.8874e-05,332.47,2.4608e-05,-0.12765,-0.00011885,-1078,1.4829
124,18.365,4.5455,0,0.00014331,1432.1,7.7549e-05,376.9,2.7357e-05,-0.22006,-0.00013312,-1206,1.4834
125,18.365,4.3636,0,0.00015823,1581.2,8.4087e-05,396.51,3.1355e-05,0.29786,-0.00014771,-1345.1,1.4838
126,18.365,4.1818,0,0.00017083,1707.1,8.7122e-05,380.69,3.6454e-05,-0.01235,-0.00016114,-1484.6,1.4842
127,18.365,4,0,0.00018055,1804.2,8.6824e-05,335.69,4.2228e-05,0.6224,-0.00017248,-1612.6,1.4845
128,18.365,3.8182,0,0.00018783,1877,8.4988e-05,282.18,4.7566e-05,1.0041,-0.00018142,-1719.5,1.4848
129,18.365,3.6364,0,0.00019336,1932.2,8.3497e-05,240.15,5.1551e-05,0.1134,-0.00018815,-1800.9,1.485
130,18.365,3.4545,0,0.00019742,1972.9,8.2885e-05,215.88,5.4179e-05,0.19775,-0.00019286,-1856,1.4852
131,18.365,3.2727,0,0.00019994,1998,8.2781e-05,204.27,5.5617e-05,0.17809,-0.00019568,-1887.9,1.4853
132,18.365,3.0909,0,0.00020109,2009.6,8.2799e-05,199.76,5.6232e-05,0.14346,-0.00019695,-1902.2,1.4853
133,18.365,2.9091,0,0.00020109,2009.6,8.2799e-05,199.76,5.6232e-05,0.14346,-0.00019695,-1902.2,1.4853
134,18.365,2.7273,0,0.00019994,1998,8.2781e-05,204.27,5.5617e-05,0.17809,-0.00019568,-1887.9,1.4853
135,18.365,2.5455,0,0.00019742,1972.9,8.2885e-05,215.88,5.4179e-05,0.19775,-0.00019286,-1856,1.4852
136,18.365,2.3636,0,0.00019336,1932.2,8.3497e-05,240.15,5.1551e-05,0.1134,-0.00018815,-1800.9,1.485
137,18.365,2.1818,0,0.00018783,1877,8.4988e-05,282.18,4.7566e-05,1.0041,-0.00018142,-1719.5,1.4848
138,18.365,2,0,0.00018055,1804.2,8.6824e-05,335.69,4.2228e-05,0.6224,-0.00017248,-1612.6,1.4845
139,18.365,1.8182,0,0.00017083,1707.1,8.7122e-05,380.69,3.6454e-05,-0.012349,-0.00016114,-1484.6,1.4842
140,18.365,1.6364,0,0.00015823,1581.2,8.4087e-05,396.51,3.1355e-05,0.29786,-0.00014771,-1345.1,1.4838
141,18.365,1.4545,0,0.00014331,1432.1,7.7549e-05,376.9,2.7357e-05,-0.22006,-0.00013312,-1206,1.4834
142,18.365,1.2727,0,0.0001278,1277.1,6.8874e-05,332.47,2.4608e-05,-0.12765,-0.00011885,-1078,1.4829
143,18.365,1.0909,0,0.00011299,1129.1,5.9482e-05,275.71,2.2783e-05,-0.035316,-0.00010574,-965.74,1.4824
144,18.365,0.90909,0,9.9639e-05,995.7,5.032e-05,215.7,2.1614e-05,0.010987,-9.4201e-05,-870.17,1.4819
145,18.365,0.72727,0,8.8151e-05,880.9,4.1963e-05,158.34,2.0897e-05,0.06007,-8.4383e-05,-790.97,1.4813
146,18.365,0.54545,0,7.876e-05,787.05,3.4774e-05,107.37,2.0501e-05,0.12354,-7.6381e-05,-727.81,1.4808
147,18.365,0.36364,0,7.159e-05,715.4,2.8962e-05,64.811,2.0352e-05,0.11958,-7.0265e-05,-680.74,1.4802
148,18.365,0.18182,0,6.6633e-05,665.87,2.4542e-05,30.989,2.0468e-05,0.37547,-6.6046e-05,-649.66,1.4795
149,18.182,5.8182,0,8.0014e-05,799.59,2.8967e-05,30.991,2.4876e-05,0.25285,-7.9438e-05,-783.52,1.4555
150,18.182,5.6364,0,8.4705e-05,846.47,3.3327e-05,65.087,2.467e-05,0.04397,-8.3409e-05,-812.03,1.4561
151,18.182,5.4545,0,9.0964e-05,909.02,3.8461e-05,102.82,2.4788e-05,0.085302,-8.8777e-05,-853.2,1.4567
152,18.182,5.2727,0,9.8881e-05,988.13,4.4449e-05,144.6,2.5207e-05,0.02381,-9.5624e-05,-907.86,1.4572
153,18.182,5.0909,0,0.00010837,1083,5.115e-05,189.07,2.5984e-05,-0.017276,-0.00010391,-975.98,1.4578
154,18.182,4.9091,0,0.00011917,1190.9,5.8237e-05,233.1,2.7205e-05,-0.060018,-0.00011348,-1057.1,1.4583
155,18.182,4.7273,0,0.00013082,1307.3,6.5187e-05,271.9,2.8988e-05,-0.08409,-0.00012405,-1150,1.4587
156,18.182,4.5455,0,0.00014262,1425.2,7.1277e-05,299.09,3.1456e-05,-0.11498,-0.00013516,-1252,1.4592
157,18.182,4.3636,0,0.00015366,1535.6,7.5691e-05,308.1,3.4657e-05,-0.21176,-0.00014608,-1358.2,1.4596
158,18.182,4.1818,0,0.00016318,1630.6,7.7931e-05,296.18,3.8496e-05,-0.11663,-0.00015611,-1462.3,1.4599
159,18.182,4,0,0.00017084,1707.2,7.8227e-05,267.62,4.2583e-05,-0.1849,-0.00016471,-1557.7,1.4602
160,18.182,3.8182,0,0.00017693,1768.1,7.751e-05,233.33,4.643e-05,-0.19152,-0.0001718,-1639.9,1.4605
161,18.182,3.6364,0,0.00018181,1816.9,7.6759e-05,204.04,4.9613e-05,0.072182,-0.00017748,-1706.2,1.4607
162,18.182,3.4545,0,0.00018556,1854.4,7.641e-05,184.39,5.1887e-05,0.13781,-0.00018174,-1755.2,1.4608
163,18.182,3.2727,0,0.00018811,1879.8,7.638e-05,173.62,5.329e-05,0.13647,-0.00018456,-1787,1.4609
164,18.182,3.0909,0,0.00018939,1892.6,7.6436e-05,169.1,5.3949e-05,0.14493,-0.00018595,-1802.3,1.461
165,18.182,2.9091,0,0.00018939,1892.6,7.6436e-05,169.1,5.3949e-05,0.14493,-0.00018595,-1802.3,1.461
166,18.182,2.7273,0,0.00018811,1879.8,7.638e-05,173.62,5.329e-05,0.13647,-0.00018456,-1787,1.4609
167,18.182,2.5455,0,0.00018556,1854.4,7.641e-05,184.39,5.1887e-05,0.13781,-0.00018174,-1755.2,1.4608
168,18.182,2.3636,0,0.00018181,1816.9,7.6759e-05,204.04,4.9613e-05,0.072182,-0.00017748,-1706.2,1.4607
169,18.182,2.1818,0,0.00017693,1768.1,7.751e-05,233.33,4.643e-05,-0.19152,-0.0001718,-1639.9,1.4605
170,18.182,2,0,0.00017084,1707.2,7.8227e-05,267.62,4.2583e-05,-0.1849,-0.00016471,-1557.7,1.4602
171,18.182,1.8182,0,0.00016318,1630.6,7.7931e-05,296.18,3.8496e-05,-0.11663,-0.00015611,-1462.3,1.4599
172,18.182,1.6364,0,0.00015366,1535.6,7.5691e-05,308.1,3.4657e-05,-0.21176,-0.00014608,-1358.2,1.4596
173,18.182,1.4545,0,0.00014262,1425.2,7.1277e-05,299.09,3.1456e-05,-0.11498,-0.00013516,-1252,1.4592
174,18.182,1.2727,0,0.00013082,1307.3,6.5187e-05,271.9,2.8988e-05,-0.08409,-0.00012405,-1150,1.4587
175,18.182,1.0909,0,0.00011917,1190.9,5.8237e-05,233.1,2.7205e-05,-0.060019,-0.00011348,-1057.1,1.4583
176,18.182,0.90909,0,0.00010837,1083,5.115e-05,189.07,2.5984e-05,-0.017275,-0.00010391,-975.98,1.4578
177,18.182,0.72727,0,9.8881e-05,988.13,4.4449e-05,144.6,2.5207e-05,0.023814,-9.5624e-05,-907.86,1.4572
178,18.182,0.54545,0,9.0964e-05,909.02,3.8461e-05,102.82,2.4788e-05,0.085302,-8.8777e-05,-853.2,1.4567
179,18.182,0.36364,0,8.4705e-05,846.47,3.3327e-05,65.087,2.467e-05,0.04397,-8.3409e-05,-812.03,1.4561
180,18.182,0.18182,0,8.0014e-05,799.59,2.8967e-05,30.991,2.4876e-05,0.25285,-7.9438e-05,-783.52,1.4555
181,17.998,5.8182,0,9.2331e-05,922.67,3.2992e-05,30.416,2.8961e-05,0.12501,-9.1774e-05,-907.02,1.4314
182,17.998,5.6364,0,9.673e-05,966.63,3.7211e-05,63.937,2.8701e-05,-0.0084046,-9.5484e-05,-933.08,1.432
183,17.998,5.4545,0,0.00010224,1021.7,4.1798e-05,97.884,2.8779e-05,0.070798,-0.00010022,-969.17,1.4326
184,17.998,5.2727,0,0.00010893,1088.6,4.6838e-05,132.75,2.9174e-05,0.023384,-0.00010607,-1016.1,1.4332
185,17.998,5.0909,0,0.00011674,1166.6,5.2232e-05,167.63,2.9922e-05,-0.00023012,-0.00011298,-1073.7,1.4337
186,17.998,4.9091,0,0.00012541,1253.3,5.7718e-05,200.21,3.1068e-05,-0.024325,-0.0001208,-1141.1,1.4342
187,17.998,4.7273,0,0.00013455,1344.5,6.29e-05,227.09,3.267e-05,-0.04121,-0.00012924,-1216.5,1.4346
188,17.998,4.5455,0,0.00014361,1435.1,6.7294e-05,244.35,3.4766e-05,-0.042448,-0.00013789,-1297.3,1.435
189,17.998,4.3636,0,0.00015203,1519.3,7.0455e-05,248.81,3.7337e-05,-0.025589,-0.00014626,-1379.5,1.4354
190,17.998,4.1818,0,0.00015937,1592.6,7.218e-05,239.8,4.026e-05,-0.035351,-0.00015393,-1459.1,1.4357
191,17.998,4,0,0.00016546,1653.4,7.2664e-05,220.55,4.331e-05,-0.0053071,-0.0001606,-1532.1,1.436
192,17.998,3.8182,0,0.00017042,1703,7.2426e-05,197.15,4.6191e-05,0.029816,-0.0001662,-1595.8,1.4363
193,17.998,3.6364,0,0.00017443,1743.1,7.2023e-05,175.72,4.8639e-05,0.030575,-0.00017077,-1648.5,1.4365
194,17.998,3.4545,0,0.00017755,1774.3,7.1767e-05,159.85,5.0501e-05,0.065736,-0.00017429,-1688.9,1.4366
195,17.998,3.2727,0,0.00017972,1796,7.1692e-05,150.13,5.1724e-05,0.10368,-0.00017669,-1716.1,1.4367
196,17.998,3.0909,0,0.00018083,1807.1,7.1698e-05,145.7,5.2323e-05,0.11774,-0.00017791,-1729.8,1.4367
197,17.998,2.9091,0,0.00018083,1807.1,7.1698e-05,145.7,5.2323e-05,0.11774,-0.00017791,-1729.8,1.4367
198,17.998,2.7273,0,0.00017972,1796,7.1692e-05,150.13,5.1724e-05,0.10368,-0.00017669,-1716.1,1.4367
199,17.998,2.5455,0,0.00017755,1774.3,7.1767e-05,159.85,5.0501e-05,0.065736,-0.00017429,-1688.9,1.4366
200,17.998,2.3636,0,0.00017443,1743.1,7.2023e-05,175.72,4.8639e-05,0.030575,-0.00017077,-1648.5,1.4365
201,17.998,2.1818,0,0.00017042,1703,7.2426e-05,197.15,4.6191e-05,0.029817,-0.0001662,-1595.8,1.4363
202,17.998,2,0,0.00016546,1653.4,7.2664e-05,220.55,4.331e-05,-0.0053062,-0.0001606,-1532.1,1.436
203,17.998,1.8182,0,0.00015937,1592.6,7.218e-05,239.8,4.026e-05,-0.035352,-0.00015393,-1459.1,1.4357
204,17.998,1.6364,0,0.00015203,1519.3,7.0455e-05,248.81,3.7337e-05,-0.025588,-0.00014626,-1379.5,1.4354
205,17.998,1.4545,0,0.00014361,1435.1,6.7294e-05,244.35,3.4766e-05,-0.042447,-0.00013789,-1297.3,1.435
206,17.998,1.2727,0,0.00013455,1344.5,6.29e-05,227.09,3.267e-05,-0.04121,-0.00012924,-1216.5,1.4346
207,17.998,1.0909,0,0.00012541,1253.3,5.7718e-05,200.21,3.1068e-05,-0.024324,-0.0001208,-1141.1,1.4342
208,17.998,0.90909,0,0.00011674,1166.6,5.2232e-05,167.63,2.9922e-05,-0.00022833,-0.00011298,-1073.7,1.4337
209,17.998,0.72727,0,0.00010893,1088.6,4.6838e-05,132.75,2.9174e-05,0.023384,-0.00010607,-1016.1,1.4332
210,17.998,0.54545,0,0.00010224,1021.7,4.1798e-05,97.884,2.8779e-05,0.070797,-0.00010022,-969.17,1.4326
211,17.998,0.36364,0,9.673e-05,966.63,3.7211e-05,63.937,2.8701e-05,-0.008406,-9.5484e-05,-933.08,1.432
212,17.998,0.18182,0,9.2331e-05,922.67,3.2992e-05,30.416,2.8961e-05,0.12501,-9.1774e-05,-907.02,1.4314
213,17.814,5.8182,0,0.00010357,1035,3.6628e-05,29.45,3.271e-05,0.013605,-0.00010304,-1019.9,1.4075
214,17.814,5.6364,0,0.00010762,1075.4,4.0613e-05,61.523,3.2418e-05,-0.052899,-0.00010644,-1043.4,1.4081
215,17.814,5.4545,0,0.00011245,1123.7,4.4711e-05,92.143,3.2454e-05,0.052335,-0.0001106,-1074.8,1.4086
216,17.814,5.2727,0,0.00011811,1180.3,4.8987e-05,121.68,3.2795e-05,0.01961,-0.00011557,-1114.7,1.4092
217,17.814,5.0909,0,0.00012452,1244.4,5.3365e-05,149.55,3.3462e-05,0.0078932,-0.0001213,-1162.8,1.4097
218,17.814,4.9091,0,0.00013148,1313.8,5.7652e-05,174.15,3.4473e-05,-0.0059587,-0.00012764,-1218.1,1.4102
219,17.814,4.7273,0,0.00013866,1385.6,6.1572e-05,193.28,3.5846e-05,-0.014341,-0.00013435,-1278.8,1.4106
220,17.814,4.5455,0,0.00014569,1455.9,6.4823e-05,204.69,3.7577e-05,-0.021198,-0.00014112,-1342.7,1.411
221,17.814,4.3636,0,0.00015219,1520.9,6.716e-05,206.87,3.9624e-05,-0.029277,-0.00014761,-1406.8,1.4114
222,17.814,4.1818,0,0.0001579,1577.9,6.8505e-05,199.99,4.1884e-05,-0.032926,-0.00015355,-1468.4,1.4117
223,17.814,4,0,0.00016273,1626.1,6.9001e-05,186.28,4.4204e-05,-0.038377,-0.00015875,-1525,1.4119
224,17.814,3.8182,0,0.0001667,1665.9,6.896e-05,169.48,4.64e-05,-0.028056,-0.00016317,-1574.7,1.4122
225,17.814,3.6364,0,0.00016992,1698,6.8717e-05,153.38,4.8305e-05,0.0074423,-0.00016679,-1616.1,1.4124
226,17.814,3.4545,0,0.00017241,1722.9,6.8499e-05,140.58,4.9794e-05,0.044239,-0.00016959,-1648.3,1.4125
227,17.814,3.2727,0,0.00017414,1740.2,6.8379e-05,132.14,5.0803e-05,0.072515,-0.00017151,-1670.3,1.4126
228,17.814,3.0909,0,0.00017503,1749.1,6.8338e-05,128.04,5.1308e-05,0.088664,-0.0001725,-1681.5,1.4126
229,17.814,2.9091,0,0.00017503,1749.1,6.8338e-05,128.04,5.1308e-05,0.088665,-0.0001725,-1681.5,1.4126
230,17.814,2.7273,0,0.00017414,1740.2,6.8379e-05,132.14,5.0803e-05,0.072515,-0.00017151,-1670.3,1.4126
231,17.814,2.5455,0,0.00017241,1722.9,6.8499e-05,140.58,4.9794e-05,0.044241,-0.00016959,-1648.3,1.4125
232,17.814,2.3636,0,0.00016992,1698,6.8717e-05,153.38,4.8305e-05,0.0074427,-0.00016679,-1616.1,1.4124
233,17.814,2.1818,0,0.0001667,1665.9,6.896e-05,169.48,4.64e-05,-0.028056,-0.00016317,-1574.7,1.4122
234,17.814,2,0,0.00016273,1626.1,6.9001e-05,186.28,4.4204e-05,-0.038376,-0.00015875,-1525,1.4119
235,17.814,1.8182,0,0.0001579,1577.9,6.8505e-05,199.99,4.1884e-05,-0.032924,-0.00015355,-1468.4,1.4117
236,17.814,1.6364,0,0.00015219,1520.9,6.716e-05,206.87,3.9624e-05,-0.029277,-0.00014761,-1406.8,1.4114
237,17.814,1.4545,0,0.00014569,1455.9,6.4823e-05,204.69,3.7577e-05,-0.021197,-0.00014112,-1342.7,1.411
238,17.814,1.2727,0,0.00013866,1385.6,6.1572e-05,193.28,3.5846e-05,-0.014341,-0.00013435,-1278.8,1.4106
239,17.814,1.0909,0,0.00013148,1313.8,5.7652e-05,174.15,3.4473e-05,-0.0059589,-0.00012764,-1218.1,1.4102
240,17.814,0.90909,0,0.00012452,1244.4,5.3365e-05,149.55,3.3462e-05,0.0078943,-0.0001213,-1162.8,1.4097
241,17.814,0.72727,0,0.00011811,1180.3,4.8987e-05,121.68,3.2795e-05,0.019612,-0.00011557,-1114.7,1.4092
242,17.814,0.54545,0,0.00011245,1123.7,4.4711e-05,92.143,3.2454e-05,0.052336,-0.0001106,-1074.8,1.4086
243,17.814,0.36364,0,0.00010762,1075.4,4.0613e-05,61.523,3.2418e-05,-0.0529,-0.00010644,-1043.4,1.4081
244,17.814,0.18182,0,0.00010357,1035,3.6628e-05,29.45,3.271e-05,0.013606,-0.00010304,-1019.9,1.4075
245,17.631,5.8182,0,0.00011379,1137.1,3.9907e-05,28.276,3.6136e-05,-0.059892,-0.00011328,-1122.7,1.3836
246,17.631,5.6364,0,0.00011744,1173.6,4.3589e-05,58.244,3.5827e-05,-0.07986,-0.00011634,-1143.4,1.3842
247,17.631,5.4545,0,0.00012165,1215.6,4.7235e-05,85.798,3.5821e-05,0.03992,-0.00011996,-1170.4,1.3847
248,17.631,5.2727,0,0.00012642,1263.4,5.0883e-05,111.13,3.6095e-05,0.019199,-0.00012416,-1204.1,1.3853
249,17.631,5.0909,0,0.00013169,1316,5.4473e-05,133.86,3.6659e-05,0.016096,-0.0001289,-1243.9,1.3858
250,17.631,4.9091,0,0.00013727,1371.8,5.7868e-05,152.94,3.7514e-05,0.0080754,-0.00013403,-1288.9,1.3862
251,17.631,4.7273,0,0.00014295,1428.5,6.0887e-05,167.04,3.8656e-05,0.0027948,-0.00013937,-1337.6,1.3867
252,17.631,4.5455,0,0.00014844,1483.4,6.3345e-05,174.93,4.0064e-05,-0.0020852,-0.00014469,-1388.1,1.3871
253,17.631,4.3636,0,0.00015351,1534,6.5112e-05,175.98,4.1689e-05,-0.0071356,-0.00014975,-1438.4,1.3874
254,17.631,4.1818,0,0.00015798,1578.7,6.6162e-05,170.62,4.3452e-05,-0.012931,-0.00015439,-1486.5,1.3877
255,17.631,4,0,0.00016179,1616.8,6.6602e-05,160.47,4.5243e-05,-0.013893,-0.00015846,-1530.6,1.388
256,17.631,3.8182,0,0.00016494,1648.3,6.6629e-05,147.95,4.6937e-05,-0.0073051,-0.00016193,-1569.3,1.3882
257,17.631,3.6364,0,0.00016748,1673.7,6.6462e-05,135.58,4.8418e-05,0.0075767,-0.00016476,-1601.8,1.3884
258,17.631,3.4545,0,0.00016943,1693.2,6.6266e-05,125.29,4.9595e-05,0.030224,-0.00016695,-1627,1.3885
259,17.631,3.2727,0,0.00017077,1706.5,6.6124e-05,118.15,5.0405e-05,0.052229,-0.00016845,-1644.4,1.3886
260,17.631,3.0909,0,0.00017146,1713.4,6.6055e-05,114.56,5.0817e-05,0.065207,-0.00016922,-1653.2,1.3886
261,17.631,2.9091,0,0.00017146,1713.4,6.6055e-05,114.56,5.0817e-05,0.065206,-0.00016922,-1653.2,1.3886
262,17.631,2.7273,0,0.00017077,1706.5,6.6124e-05,118.15,5.0405e-05,0.052229,-0.00016845,-1644.4,1.3886
263,17.631,2.5455,0,0.00016943,1693.2,6.6266e-05,125.29,4.9595e-05,0.030224,-0.00016695,-1627,1.3885
264,17.631,2.3636,0,0.00016748,1673.7,6.6462e-05,135.58,4.8418e-05,0.0075771,-0.00016476,-1601.8,1.3884
265,17.631,2.1818,0,0.00016494,1648.3,6.6629e-05,147.95,4.6937e-05,-0.0073048,-0.00016193,-1569.3,1.3882
266,17.631,2,0,0.00016179,1616.8,6.6602e-05,160.47,4.5243e-05,-0.013893,-0.00015846,-1530.6,1.388
267,17.631,1.8182,0,0.00015798,1578.7,6.6162e-05,170.62,4.3452e-05,-0.01293,-0.00015439,-1486.5,1.3877
268,17.631,1.6364,0,0.00015351,1534,6.5112e-05,175.98,4.1689e-05,-0.007135,-0.00014975,-1438.4,1.3874
269,17.631,1.4545,0,0.00014844,1483.4,6.3345e-05,174.93,4.0064e-05,-0.002086,-0.00014469,-1388.1,1.3871
270,17.631,1.2727,0,0.00014295,1428.5,6.0887e-05,167.04,3.8656e-05,0.002795,-0.00013937,-1337.6,1.3867
271,17.631,1.0909,0,0.00013727,1371.8,5.7868e-05,152.94,3.7514e-05,0.0080752,-0.00013403,-1288.9,1.3862
272,17.631,0.90909,0,0.00013169,1316,5.4473e-05,133.86,3.6659e-05,0.016097,-0.0001289,-1243.9,1.3858
273,17.631,0.72727,0,0.00012642,1263.4,5.0883e-05,111.13,3.6095e-05,0.019199,-0.00012416,-1204.1,1.3853
274,17.631,0.54545,0,0.00012165,1215.6,4.7235e-05,85.798,3.5821e-05,0.039921,-0.00011996,-1170.4,1.3847
275,17.631,0.36364,0,0.00011744,1173.6,4.3589e-05,58.244,3.5827e-05,-0.07986,-0.00011634,-1143.4,1.3842
276,17.631,0.18182,0,0.00011379,1137.1,3.9907e-05,28.276,3.6136e-05,-0.059893,-0.00011328,-1122.7,1.3836
277,17.447,5.8182,0,0.00012308,1229.9,4.2872e-05,27.028,3.9261e-05,-0.10057,-0.0001226,-1216.2,1.3597
278,17.447,5.6364,0,0.00012631,1262.3,4.6211e-05,54.488,3.8947e-05,-0.094422,-0.0001253,-1234.2,1.3603
279,17.447,5.4545,0,0.00012995,1298.6,4.9439e-05,79.184,3.8904e-05,0.030308,-0.00012842,-1257.2,1.3609
280,17.447,5.2727,0,0.00013397,1338.8,5.2564e-05,101.11,3.9109e-05,0.018419,-0.00013196,-1285.4,1.3614
281,17.447,5.0909,0,0.0001383,1382,5.5538e-05,120.02,3.9566e-05,0.020751,-0.00013587,-1318.1,1.3619
282,17.447,4.9091,0,0.0001428,1427,5.8267e-05,135.26,4.0267e-05,0.016354,-0.00014002,-1354.6,1.3624
283,17.447,4.7273,0,0.0001473,1472,6.0634e-05,146.06,4.1197e-05,0.012597,-0.00014427,-1393.5,1.3628
284,17.447,4.5455,0,0.00015162,1515.2,6.2531e-05,151.81,4.2328e-05,0.0078177,-0.00014847,-1433.6,1.3632
285,17.447,4.3636,0,0.0001556,1554.9,6.389e-05,152.33,4.3616e-05,0.002162,-0.00015244,-1473.1,1.3635
286,17.447,4.1818,0,0.00015911,1590,6.4712e-05,148.13,4.4997e-05,-0.0032178,-0.00015607,-1510.7,1.3638
287,17.447,4,0,0.00016211,1620,6.5077e-05,140.41,4.6389e-05,-0.0059625,-0.00015926,-1545.2,1.3641
288,17.447,3.8182,0,0.00016459,1644.8,6.512e-05,130.85,4.7705e-05,-0.0025234,-0.00016198,-1575.5,1.3643
289,17.447,3.6364,0,0.00016658,1664.7,6.4991e-05,121.21,4.886e-05,0.0084755,-0.00016419,-1600.8,1.3645
290,17.447,3.4545,0,0.0001681,1679.8,6.4815e-05,112.96,4.9785e-05,0.024005,-0.00016589,-1620.5,1.3646
291,17.447,3.2727,0,0.00016912,1690.1,6.467e-05,107.05,5.0427e-05,0.039044,-0.00016705,-1634,1.3647
292,17.447,3.0909,0,0.00016964,1695.3,6.4592e-05,104.01,5.0756e-05,0.048276,-0.00016763,-1640.8,1.3647
293,17.447,2.9091,0,0.00016964,1695.3,6.4592e-05,104.01,5.0756e-05,0.048275,-0.00016763,-1640.8,1.3647
294,17.447,2.7273,0,0.00016912,1690.1,6.467e-05,107.05,5.0427e-05,0.039044,-0.00016705,-1634,1.3647
295,17.447,2.5455,0,0.0001681,1679.8,6.4815e-05,112.96,4.9785e-05,0.024005,-0.00016589,-1620.5,1.3646
296,17.447,2.3636,0,0.00016658,1664.7,6.4991e-05,121.21,4.886e-05,0.0084759,-0.00016419,-1600.8,1.3645
297,17.447,2.1818,0,0.00016459,1644.8,6.512e-05,130.85,4.7705e-05,-0.0025214,-0.00016198,-1575.5,1.3643
298,17.447,2,0,0.00016211,1620,6.5077e-05,140.41,4.6389e-05,-0.0059629,-0.00015926,-1545.2,1.3641
299,17.447,1.8182,0,0.00015911,1590,6.4712e-05,148.13,4.4997e-05,-0.0032173,-0.00015607,-1510.7,1.3638
300,17.447,1.6364,0,0.0001556,1554.9,6.389e-05,152.33,4.3617e-05,0.0021622,-0.00015244,-1473.1,1.3635
301,17.447,1.4545,0,0.00015162,1515.2,6.2531e-05,151.81,4.2328e-05,0.0078195,-0.00014847,-1433.6,1.3632
302,17.447,1.2727,0,0.0001473,1472,6.0634e-05,146.06,4.1197e-05,0.012598,-0.00014427,-1393.5,1.3628
303,17.447,1.0909,0,0.0001428,1427,5.8267e-05,135.26,4.0267e-05,0.016354,-0.00014002,-1354.6,1.3624
304,17.447,0.90909,0,0.0001383,1382,5.5538e-05,120.02,3.9566e-05,0.020754,-0.00013587,-1318.1,1.3619
305,17.447,0.72727,0,0.00013397,1338.8,5.2564e-05,101.11,3.9109e-05,0.018419,-0.00013196,-1285.4,1.3614
306,17.447,0.54545,0,0.00012995,1298.6,4.9439e-05,79.184,3.8904e-05,0.030307,-0.00012842,-1257.2,1.3609
307,17.447,0.36364,0,0.00012631,1262.3,4.6211e-05,54.488,3.8947e-05,-0.09442,-0.0001253,-1234.2,1.3603
308,17.447,0.18182,0,0.00012308,1229.9,4.2872e-05,27.028,3.9261e-05,-0.10057,-0.0001226,-1216.2,1.3597
309,17.263,5.8182,0,0.00013155,1314.6,4.5567e-05,25.798,4.2118e-05,-0.11634,-0.0001311,-1301.6,1.336
310,17.263,5.6364,0,0.00013437,1342.8,4.855e-05,50.567,4.1807e-05,-0.099924,-0.00013344,-1316.9,1.3366
311,17.263,5.4545,0,0.0001375,1374.1,5.1393e-05,72.605,4.1733e-05,0.022984,-0.00013612,-1336.3,1.3372
312,17.263,5.2727,0,0.00014088,1407.8,5.4079e-05,91.718,4.1875e-05,0.017332,-0.00013909,-1359.7,1.3377
313,17.263,5.0909,0,0.00014444,1443.4,5.6567e-05,107.73,4.2232e-05,0.02299,-0.00014231,-1386.5,1.3382
314,17.263,4.9091,0,0.00014808,1479.8,5.8792e-05,120.24,4.2792e-05,0.020946,-0.00014567,-1416,1.3387
315,17.263,4.7273,0,0.00015168,1515.7,6.0683e-05,128.85,4.3536e-05,0.018449,-0.00014907,-1447.2,1.3391
316,17.263,4.5455,0,0.00015509,1549.9,6.2175e-05,133.29,4.4437e-05,0.014485,-0.00015239,-1478.9,1.3394
317,17.263,4.3636,0,0.00015822,1581.1,6.3238e-05,133.63,4.5455e-05,0.0097954,-0.00015552,-1510.1,1.3398
318,17.263,4.1818,0,0.00016098,1608.7,6.3885e-05,130.36,4.6537e-05,0.0053381,-0.00015837,-1539.6,1.3401
319,17.263,4,0,0.00016334,1632.3,6.418e-05,124.41,4.7623e-05,0.0030488,-0.00016087,-1566.5,1.3403
320,17.263,3.8182,0,0.00016529,1651.8,6.4221e-05,117.01,4.8649e-05,0.0047131,-0.00016299,-1590.2,1.3405
321,17.263,3.6364,0,0.00016685,1667.3,6.4115e-05,109.44,4.955e-05,0.011006,-0.00016472,-1609.9,1.3407
322,17.263,3.4545,0,0.00016802,1679,6.3959e-05,102.84,5.0275e-05,0.020694,-0.00016603,-1625.2,1.3408
323,17.263,3.2727,0,0.0001688,1686.8,6.3823e-05,98.025,5.0781e-05,0.030495,-0.00016692,-1635.7,1.3409
324,17.263,3.0909,0,0.0001692,1690.8,6.3746e-05,95.505,5.104e-05,0.036624,-0.00016737,-1641,1.341
325,17.263,2.9091,0,0.0001692,1690.8,6.3746e-05,95.505,5.104e-05,0.036625,-0.00016737,-1641,1.341
326,17.263,2.7273,0,0.0001688,1686.8,6.3823e-05,98.025,5.0781e-05,0.030495,-0.00016692,-1635.7,1.3409
327,17.263,2.5455,0,0.00016802,1679,6.3959e-05,102.84,5.0275e-05,0.020694,-0.00016603,-1625.2,1.3408
328,17.263,2.3636,0,0.00016685,1667.3,6.4115e-05,109.44,4.955e-05,0.011006,-0.00016472,-1609.9,1.3407
329,17.263,2.1818,0,0.00016529,1651.8,6.4221e-05,117.01,4.8649e-05,0.004714,-0.00016299,-1590.2,1.3405
330,17.263,2,0,0.00016334,1632.3,6.418e-05,124.41,4.7623e-05,0.0030483,-0.00016087,-1566.5,1.3403
331,17.263,1.8182,0,0.00016098,1608.7,6.3885e-05,130.35,4.6537e-05,0.0053387,-0.00015837,-1539.6,1.3401
332,17.263,1.6364,0,0.00015822,1581.1,6.3238e-05,133.63,4.5455e-05,0.0097952,-0.00015552,-1510.1,1.3398
333,17.263,1.4545,0,0.00015509,1549.9,6.2175e-05,133.29,4.4437e-05,0.014486,-0.00015239,-1478.9,1.3394
334,17.263,1.2727,0,0.00015168,1515.7,6.0683e-05,128.85,4.3536e-05,0.018448,-0.00014907,-1447.2,1.3391
335,17.263,1.0909,0,0.00014808,1479.8,5.8792e-05,120.24,4.2792e-05,0.020948,-0.00014567,-1416,1.3387
336,17.263,0.90909,0,0.00014444,1443.4,5.6567e-05,107.73,4.2232e-05,0.022992,-0.00014231,-1386.5,1.3382
337,17.263,0.72727,0,0.00014088,1407.8,5.4079e-05,91.718,4.1875e-05,0.017333,-0.00013909,-1359.7,1.3377
338,17.263,0.54545,0,0.0001375,1374.1,5.1393e-05,72.605,4.1733e-05,0.022984,-0.00013612,-1336.3,1.3372
339,17.263,0.36364,0,0.00013437,1342.8,4.855e-05,50.567,4.1807e-05,-0.099924,-0.00013344,-1316.9,1.3366
340,17.263,0.18182,0,0.00013155,1314.6,4.5567e-05,25.798,4.2118e-05,-0.11634,-0.0001311,-1301.6,1.336
341,17.08,5.8182,0,0.00013932,1392.3,4.8036e-05,24.639,4.4742e-05,-0.11592,-0.00013889,-1379.9,1.3124
342,17.08,5.6364,0,0.00014176,1416.6,5.0668e-05,46.7,4.4439e-05,-0.09961,-0.00014091,-1392.7,1.313
343,17.08,5.4545,0,0.00014443,1443.3,5.3162e-05,66.286,4.4342e-05,0.017142,-0.00014319,-1409,1.3135
344,17.08,5.2727,0,0.00014727,1471.6,5.5476e-05,83.025,4.4428e-05,0.015752,-0.00014568,-1428.4,1.3141
345,17.08,5.0909,0,0.0001502,1501,5.7575e-05,96.782,4.4698e-05,0.023358,-0.00014832,-1450.2,1.3145
346,17.08,4.9091,0,0.00015316,1530.5,5.9415e-05,107.32,4.5135e-05,0.022961,-0.00015105,-1474,1.315
347,17.08,4.7273,0,0.00015604,1559.3,6.095e-05,114.44,4.5722e-05,0.02147,-0.00015378,-1498.9,1.3154
348,17.08,4.5455,0,0.00015875,1586.5,6.2146e-05,118.08,4.6433e-05,0.018333,-0.00015642,-1524.1,1.3158
349,17.08,4.3636,0,0.00016123,1611.2,6.2992e-05,118.42,4.7233e-05,0.014484,-0.00015889,-1548.7,1.3161
350,17.08,4.1818,0,0.00016341,1632.9,6.3508e-05,115.93,4.8081e-05,0.010814,-0.00016112,-1571.9,1.3164
351,17.08,4,0,0.00016526,1651.5,6.3746e-05,111.34,4.8929e-05,0.0086408,-0.00016309,-1593,1.3167
352,17.08,3.8182,0,0.00016679,1666.8,6.378e-05,105.58,4.9729e-05,0.0091902,-0.00016474,-1611.5,1.3169
353,17.08,3.6364,0,0.000168,1678.9,6.3692e-05,99.63,5.0434e-05,0.01288,-0.00016609,-1626.8,1.3171
354,17.08,3.4545,0,0.00016891,1687.9,6.3558e-05,94.372,5.1e-05,0.018802,-0.0001671,-1638.7,1.3172
355,17.08,3.2727,0,0.00016951,1693.9,6.3437e-05,90.492,5.1397e-05,0.024894,-0.00016779,-1646.8,1.3173
356,17.08,3.0909,0,0.00016981,1696.9,6.3368e-05,88.442,5.1601e-05,0.028752,-0.00016813,-1650.9,1.3173
357,17.08,2.9091,0,0.00016981,1696.9,6.3368e-05,88.442,5.1601e-05,0.028753,-0.00016813,-1650.9,1.3173
358,17.08,2.7273,0,0.00016951,1693.9,6.3437e-05,90.492,5.1397e-05,0.024895,-0.00016779,-1646.8,1.3173
359,17.08,2.5455,0,0.00016891,1687.9,6.3558e-05,94.372,5.1e-05,0.018802,-0.0001671,-1638.7,1.3172
360,17.08,2.3636,0,0.000168,1678.9,6.3692e-05,99.63,5.0434e-05,0.01288,-0.00016609,-1626.8,1.3171
361,17.08,2.1818,0,0.00016679,1666.8,6.378e-05,105.58,4.9729e-05,0.0091896,-0.00016474,-1611.5,1.3169
362,17.08,2,0,0.00016526,1651.5,6.3746e-05,111.34,4.8929e-05,0.008642,-0.00016309,-1593,1.3167
363,17.08,1.8182,0,0.00016341,1632.9,6.3508e-05,115.93,4.8081e-05,0.010814,-0.00016112,-1571.9,1.3164
364,17.08,1.6364,0,0.00016123,1611.2,6.2992e-05,118.42,4.7233e-05,0.014485,-0.00015889,-1548.7,1.3161
365,17.08,1.4545,0,0.00015875,1586.5,6.2146e-05,118.08,4.6433e-05,0.018334,-0.00015642,-1524.1,1.3158
366,17.08,1.2727,0,0.00015604,1559.3,6.095e-05,114.44,4.5722e-05,0.02147,-0.00015378,-1498.9,1.3154
367,17.08,1.0909,0,0.00015316,1530.5,5.9415e-05,107.32,4.5135e-05,0.022962,-0.00015105,-1474,1.315
368,17.08,0.90909,0,0.0001502,1501,5.7575e-05,96.782,4.4698e-05,0.02336,-0.00014832,-1450.2,1.3145
369,17.08,0.72727,0,0.00014727,1471.6,5.5476e-05,83.024,4.4428e-05,0.015754,-0.00014568,-1428.4,1.3141
370,17.08,0.54545,0,0.00014443,1443.3,5.3162e-05,66.286,4.4342e-05,0.017144,-0.00014319,-1409,1.3135
371,17.08,0.36364,0,0.00014176,1416.6,5.0668e-05,46.7,4.4439e-05,-0.099611,-0.00014091,-1392.7,1.313
372,17.08,0.18182,0,0.00013932,1392.3,4.8036e-05,24.639,4.4742e-05,-0.11592,-0.00013889,-1379.9,1.3124
373,16.896,5.8182,0,0.00014651,1464.1,5.0319e-05,23.579,4.7166e-05,-0.10631,-0.0001461,-1452.2,1.2888
374,16.896,5.6364,0,0.00014858,1484.8,5.2617e-05,43.028,4.6877e-05,-0.095787,-0.0001478,-1462.9,1.2894
375,16.896,5.4545,0,0.00015086,1507.5,5.4796e-05,60.373,4.6763e-05,0.012378,-0.00014974,-1476.4,1.29
376,16.896,5.2727,0,0.00015323,1531.3,5.6794e-05,75.081,4.6804e-05,0.013824,-0.00015182,-1492.4,1.2905
377,16.896,5.0909,0,0.00015566,1555.5,5.8579e-05,87.037,4.6998e-05,0.02248,-0.000154,-1510.2,1.291
378,16.896,4.9091,0,0.00015807,1579.6,6.0118e-05,96.094,4.7332e-05,0.023277,-0.00015621,-1529.3,1.2915
379,16.896,4.7273,0,0.00016039,1602.8,6.1384e-05,102.18,4.7788e-05,0.022655,-0.00015841,-1549.2,1.2919
380,16.896,4.5455,0,0.00016256,1624.5,6.236e-05,105.34,4.8344e-05,0.020347,-0.00016051,-1569.2,1.2923
381,16.896,4.3636,0,0.00016452,1644.1,6.3046e-05,105.79,4.8969e-05,0.01734,-0.00016247,-1588.6,1.2926
382,16.896,4.1818,0,0.00016624,1661.3,6.3465e-05,103.96,4.9632e-05,0.014381,-0.00016423,-1606.9,1.2929
383,16.896,4,0,0.00016771,1675.9,6.366e-05,100.44,5.0294e-05,0.012425,-0.00016577,-1623.4,1.2931
384,16.896,3.8182,0,0.00016891,1687.9,6.369e-05,95.973,5.0918e-05,0.012252,-0.00016707,-1637.8,1.2933
385,16.896,3.6364,0,0.00016985,1697.3,6.3618e-05,91.309,5.1468e-05,0.014124,-0.00016811,-1649.8,1.2935
386,16.896,3.4545,0,0.00017055,1704.3,6.3506e-05,87.147,5.191e-05,0.017496,-0.0001689,-1659,1.2936
387,16.896,3.2727,0,0.00017101,1708.9,6.3404e-05,84.05,5.222e-05,0.021095,-0.00016942,-1665.3,1.2937
388,16.896,3.0909,0,0.00017124,1711.2,6.3344e-05,82.404,5.238e-05,0.023405,-0.00016969,-1668.5,1.2938
389,16.896,2.9091,0,0.00017124,1711.2,6.3344e-05,82.404,5.238e-05,0.023405,-0.00016969,-1668.5,1.2938
390,16.896,2.7273,0,0.00017101,1708.9,6.3404e-05,84.05,5.222e-05,0.021095,-0.00016942,-1665.3,1.2937
391,16.896,2.5455,0,0.00017055,1704.3,6.3506e-05,87.147,5.191e-05,0.017497,-0.0001689,-1659,1.2936
392,16.896,2.3636,0,0.00016985,1697.3,6.3618e-05,91.309,5.1468e-05,0.014123,-0.00016811,-1649.8,1.2935
393,16.896,2.1818,0,0.00016891,1687.9,6.369e-05,95.973,5.0918e-05,0.012252,-0.00016707,-1637.8,1.2933
394,16.896,2,0,0.00016771,1675.9,6.366e-05,100.44,5.0294e-05,0.012424,-0.00016577,-1623.4,1.2931
395,16.896,1.8182,0,0.00016624,1661.3,6.3465e-05,103.96,4.9632e-05,0.01438,-0.00016423,-1606.9,1.2929
396,16.896,1.6364,0,0.00016452,1644.1,6.3046e-05,105.79,4.8969e-05,0.017341,-0.00016247,-1588.6,1.2926
397,16.896,1.4545,0,0.00016256,1624.5,6.236e-05,105.34,4.8344e-05,0.020348,-0.00016051,-1569.2,1.2923
398,16.896,1.2727,0,0.00016039,1602.8,6.1384e-05,102.18,4.7788e-05,0.022656,-0.00015841,-1549.2,1.2919
399,16.896,1.0909,0,0.00015807,1579.6,6.0118e-05,96.094,4.7332e-05,0.023278,-0.00015621,-1529.3,1.2915
400,16.896,0.90909,0,0.00015566,1555.5,5.8579e-05,87.036,4.6998e-05,0.022481,-0.000154,-1510.2,1.291
401,16.896,0.72727,0,0.00015323,1531.3,5.6794e-05,75.08,4.6804e-05,0.013824,-0.00015182,-1492.4,1.2905
402,16.896,0.54545,0,0.00015086,1507.5,5.4796e-05,60.372,4.6763e-05,0.012379,-0.00014974,-1476.4,1.29
403,16.896,0.36364,0,0.00014858,1484.8,5.2617e-05,43.028,4.6877e-05,-0.095787,-0.0001478,-1462.9,1.2894
404,16.896,0.18182,0,0.00014651,1464.1,5.0319e-05,23.578,4.7166e-05,-0.10631,-0.0001461,-1452.2,1.2888
405,16.712,5.8182,0,0.0001532,1531,5.2448e-05,22.625,4.9424e-05,-0.092472,-0.00015281,-1519.6,1.2653
406,16.712,5.6364,0,0.00015495,1548.4,5.4437e-05,39.629,4.9151e-05,-0.090042,-0.00015424,-1528.3,1.266
407,16.712,5.4545,0,0.00015688,1567.7,5.6337e-05,54.943,4.9026e-05,0.0084392,-0.00015587,-1539.5,1.2665
408,16.712,5.2727,0,0.00015887,1587.6,5.8065e-05,67.896,4.903e-05,0.011701,-0.00015761,-1552.6,1.2671
409,16.712,5.0909,0,0.00016088,1607.7,5.9592e-05,78.376,4.9163e-05,0.020822,-0.0001594,-1567.1,1.2676
410,16.712,4.9091,0,0.00016285,1627.4,6.0893e-05,86.29,4.9412e-05,0.022489,-0.00016121,-1582.5,1.268
411,16.712,4.7273,0,0.00016473,1646.2,6.1953e-05,91.628,4.9761e-05,0.022584,-0.00016298,-1598.4,1.2684
412,16.712,4.5455,0,0.00016647,1663.5,6.2763e-05,94.487,5.019e-05,0.021013,-0.00016466,-1614.3,1.2688
413,16.712,4.3636,0,0.00016804,1679.2,6.333e-05,95.099,5.0676e-05,0.018723,-0.00016622,-1629.6,1.2692
414,16.712,4.1818,0,0.0001694,1692.8,6.3678e-05,93.836,5.1191e-05,0.016341,-0.00016761,-1644,1.2695
415,16.712,4,0,0.00017056,1704.4,6.3842e-05,91.196,5.1707e-05,0.014575,-0.00016882,-1656.9,1.2697
416,16.712,3.8182,0,0.0001715,1713.8,6.3871e-05,87.76,5.2193e-05,0.013966,-0.00016984,-1668.2,1.2699
417,16.712,3.6364,0,0.00017224,1721.2,6.3816e-05,84.13,5.2621e-05,0.014697,-0.00017065,-1677.6,1.2701
418,16.712,3.4545,0,0.00017278,1726.6,6.3726e-05,80.861,5.2966e-05,0.01644,-0.00017126,-1684.7,1.2702
419,16.712,3.2727,0,0.00017313,1730.1,6.3641e-05,78.413,5.3208e-05,0.018417,-0.00017167,-1689.6,1.2703
420,16.712,3.0909,0,0.00017331,1731.9,6.3592e-05,77.107,5.3332e-05,0.019714,-0.00017187,-1692.1,1.2703
421,16.712,2.9091,0,0.00017331,1731.9,6.3592e-05,77.107,5.3332e-05,0.019715,-0.00017187,-1692.1,1.2703
422,16.712,2.7273,0,0.00017313,1730.1,6.3641e-05,78.413,5.3208e-05,0.018417,-0.00017167,-1689.6,1.2703
423,16.712,2.5455,0,0.00017278,1726.6,6.3726e-05,80.861,5.2966e-05,0.016438,-0.00017126,-1684.7,1.2702
424,16.712,2.3636,0,0.00017224,1721.2,6.3816e-05,84.13,5.2621e-05,0.014698,-0.00017065,-1677.6,1.2701
425,16.712,2.1818,0,0.0001715,1713.8,6.3871e-05,87.76,5.2193e-05,0.013967,-0.00016984,-1668.2,1.2699
426,16.712,2,0,0.00017056,1704.4,6.3842e-05,91.196,5.1707e-05,0.014576,-0.00016882,-1656.9,1.2697
427,16.712,1.8182,0,0.0001694,1692.8,6.3678e-05,93.836,5.1191e-05,0.016341,-0.00016761,-1644,1.2695
428,16.712,1.6364,0,0.00016804,1679.2,6.333e-05,95.099,5.0676e-05,0.018722,-0.00016622,-1629.6,1.2692
429,16.712,1.4545,0,0.00016647,1663.6,6.2763e-05,94.487,5.019e-05,0.021014,-0.00016466,-1614.3,1.2688
430,16.712,1.2727,0,0.00016473,1646.2,6.1953e-05,91.628,4.9761e-05,0.022585,-0.00016298,-1598.4,1.2684
431,16.712,1.0909,0,0.00016285,1627.4,6.0893e-05,86.29,4.9412e-05,0.022489,-0.00016121,-1582.5,1.268
432,16.712,0.90909,0,0.00016088,1607.7,5.9592e-05,78.376,4.9163e-05,0.020825,-0.0001594,-1567.1,1.2676
433,16.712,0.72727,0,0.00015887,1587.6,5.8065e-05,67.896,4.903e-05,0.011701,-0.00015761,-1552.6,1.2671
434,16.712,0.54545,0,0.00015688,1567.7,5.6337e-05,54.943,4.9026e-05,0.00844,-0.00015587,-1539.5,1.2665
435,16.712,0.36364,0,0.00015495,1548.4,5.4437e-05,39.629,4.9151e-05,-0.090043,-0.00015424,-1528.3,1.266
436,16.712,0.18182,0,0.0001532,1531,5.2448e-05,22.625,4.9424e-05,-0.092473,-0.00015281,-1519.6,1.2653
437,16.529,5.8182,0,0.0001595,1593.9,5.4453e-05,21.776,5.1545e-05,-0.077507,-0.00015911,-1582.9,1.242
438,16.529,5.6364,0,0.00016096,1608.5,5.6163e-05,36.539,5.1289e-05,-0.083343,-0.00016031,-1589.9,1.2426
439,16.529,5.4545,0,0.00016259,1624.8,5.7815e-05,50.028,5.1157e-05,0.0052452,-0.00016168,-1599.2,1.2432
440,16.529,5.2727,0,0.00016426,1641.5,5.9311e-05,61.451,5.1134e-05,0.0096056,-0.00016313,-1609.9,1.2437
441,16.529,5.0909,0,0.00016592,1658.1,6.0624e-05,70.695,5.1217e-05,0.018814,-0.00016461,-1621.6,1.2442
442,16.529,4.9091,0,0.00016754,1674.2,6.1734e-05,77.695,5.1397e-05,0.0211,-0.00016608,-1634,1.2447
443,16.529,4.7273,0,0.00016907,1689.5,6.2632e-05,82.472,5.1659e-05,0.021772,-0.00016751,-1646.7,1.2451
444,16.529,4.5455,0,0.00017047,1703.5,6.3316e-05,85.143,5.1986e-05,0.02083,-0.00016886,-1659.3,1.2455
445,16.529,4.3636,0,0.00017172,1716,6.3794e-05,85.927,5.2361e-05,0.019144,-0.0001701,-1671.5,1.2458
446,16.529,4.1818,0,0.00017281,1726.9,6.409e-05,85.151,5.2759e-05,0.017247,-0.0001712,-1682.8,1.2461
447,16.529,4,0,0.00017373,1736.1,6.4234e-05,83.229,5.3159e-05,0.015679,-0.00017216,-1692.9,1.2464
448,16.529,3.8182,0,0.00017447,1743.5,6.4265e-05,80.63,5.3536e-05,0.014832,-0.00017296,-1701.8,1.2466
449,16.529,3.6364,0,0.00017505,1749.3,6.4226e-05,77.836,5.3868e-05,0.014854,-0.00017359,-1709,1.2468
450,16.529,3.4545,0,0.00017547,1753.5,6.4156e-05,75.297,5.4136e-05,0.015569,-0.00017407,-1714.6,1.2469
451,16.529,3.2727,0,0.00017575,1756.2,6.4089e-05,73.382,5.4325e-05,0.016528,-0.00017438,-1718.4,1.247
452,16.529,3.0909,0,0.00017588,1757.6,6.4049e-05,72.357,5.4421e-05,0.017189,-0.00017454,-1720.3,1.247
453,16.529,2.9091,0,0.00017588,1757.6,6.4049e-05,72.357,5.4421e-05,0.017188,-0.00017454,-1720.3,1.247
454,16.529,2.7273,0,0.00017575,1756.2,6.4089e-05,73.382,5.4325e-05,0.016528,-0.00017438,-1718.4,1.247
455,16.529,2.5455,0,0.00017547,1753.5,6.4156e-05,75.297,5.4136e-05,0.01557,-0.00017407,-1714.6,1.2469
456,16.529,2.3636,0,0.00017505,1749.3,6.4226e-05,77.836,5.3868e-05,0.014852,-0.00017359,-1709,1.2468
457,16.529,2.1818,0,0.00017447,1743.5,6.4265e-05,80.63,5.3536e-05,0.014833,-0.00017296,-1701.8,1.2466
458,16.529,2,0,0.00017373,1736.1,6.4234e-05,83.229,5.3159e-05,0.015677,-0.00017216,-1692.9,1.2464
459,16.529,1.8182,0,0.00017281,1726.9,6.409e-05,85.151,5.2759e-05,0.017247,-0.0001712,-1682.8,1.2461
460,16.529,1.6364,0,0.00017172,1716,6.3794e-05,85.927,5.2361e-05,0.019146,-0.0001701,-1671.5,1.2458
461,16.529,1.4545,0,0.00017047,1703.5,6.3316e-05,85.143,5.1986e-05,0.020829,-0.00016886,-1659.3,1.2455
462,16.529,1.2727,0,0.00016907,1689.5,6.2632e-05,82.472,5.1659e-05,0.021772,-0.00016751,-1646.7,1.2451
463,16.529,1.0909,0,0.00016754,1674.2,6.1734e-05,77.695,5.1397e-05,0.0211,-0.00016608,-1634,1.2447
464,16.529,0.90909,0,0.00016592,1658.1,6.0624e-05,70.695,5.1217e-05,0.018814,-0.00016461,-1621.6,1.2442
465,16.529,0.72727,0,0.00016426,1641.5,5.9311e-05,61.451,5.1134e-05,0.0096083,-0.00016313,-1609.9,1.2437
466,16.529,0.54545,0,0.00016259,1624.8,5.7815e-05,50.028,5.1157e-05,0.0052462,-0.00016168,-1599.2,1.2432
467,16.529,0.36364,0,0.00016096,1608.5,5.6163e-05,36.539,5.1289e-05,-0.083342,-0.00016031,-1589.9,1.2426
468,16.529,0.18182,0,0.0001595,1593.9,5.4453e-05,21.776,5.1545e-05,-0.077507,-0.00015912,-1582.9,1.242
469,16.345,5.8182,0,0.00016546,1653.5,5.6359e-05,21.024,5.3552e-05,-0.063295,-0.00016509,-1642.9,1.2187
470,16.345,5.6364,0,0.00016667,1665.6,5.7818e-05,33.764,5.3314e-05,-0.076419,-0.00016607,-1648.5,1.2194
471,16.345,5.4545,0,0.00016805,1679.3,5.9252e-05,45.624,5.3181e-05,0.0026124,-0.00016722,-1656,1.22
472,16.345,5.2727,0,0.00016945,1693.3,6.0549e-05,55.706,5.3136e-05,0.0075724,-0.00016843,-1664.8,1.2205
473,16.345,5.0909,0,0.00017083,1707.1,6.1683e-05,63.896,5.3181e-05,0.016611,-0.00016965,-1674.3,1.221
474,16.345,4.9091,0,0.00017216,1720.4,6.2638e-05,70.143,5.3305e-05,0.019325,-0.00017086,-1684.3,1.2215
475,16.345,4.7273,0,0.00017341,1732.9,6.3407e-05,74.479,5.3497e-05,0.020447,-0.00017202,-1694.4,1.2219
476,16.345,4.5455,0,0.00017454,1744.2,6.3992e-05,77.021,5.3744e-05,0.020021,-0.00017311,-1704.4,1.2223
477,16.345,4.3636,0,0.00017555,1754.3,6.4403e-05,77.969,5.4029e-05,0.018839,-0.0001741,-1714,1.2226
478,16.345,4.1818,0,0.00017642,1763,6.4661e-05,77.604,5.4335e-05,0.017346,-0.00017497,-1722.9,1.2229
479,16.345,4,0,0.00017715,1770.3,6.4791e-05,76.27,5.4642e-05,0.015978,-0.00017573,-1730.9,1.2232
480,16.345,3.8182,0,0.00017774,1776.2,6.4827e-05,74.352,5.4934e-05,0.015036,-0.00017636,-1737.8,1.2234
481,16.345,3.6364,0,0.00017819,1780.7,6.4803e-05,72.239,5.5191e-05,0.014652,-0.00017686,-1743.5,1.2236
482,16.345,3.4545,0,0.00017853,1784,6.4752e-05,70.293,5.5399e-05,0.014756,-0.00017723,-1747.8,1.2237
483,16.345,3.2727,0,0.00017874,1786.2,6.4701e-05,68.815,5.5544e-05,0.015095,-0.00017747,-1750.8,1.2238
484,16.345,3.0909,0,0.00017885,1787.2,6.467e-05,68.02,5.562e-05,0.015367,-0.00017759,-1752.3,1.2238
485,16.345,2.9091,0,0.00017885,1787.2,6.467e-05,68.02,5.562e-05,0.015368,-0.00017759,-1752.3,1.2238
486,16.345,2.7273,0,0.00017874,1786.2,6.4701e-05,68.815,5.5544e-05,0.015095,-0.00017747,-1750.8,1.2238
487,16.345,2.5455,0,0.00017853,1784,6.4752e-05,70.293,5.5399e-05,0.014755,-0.00017723,-1747.8,1.2237
488,16.345,2.3636,0,0.00017819,1780.7,6.4803e-05,72.239,5.5191e-05,0.014653,-0.00017686,-1743.5,1.2236
489,16.345,2.1818,0,0.00017774,1776.2,6.4827e-05,74.352,5.4934e-05,0.015036,-0.00017636,-1737.8,1.2234
490,16.345,2,0,0.00017715,1770.3,6.4791e-05,76.27,5.4642e-05,0.015978,-0.00017573,-1730.9,1.2232
491,16.345,1.8182,0,0.00017642,1763,6.4661e-05,77.604,5.4335e-05,0.017347,-0.00017497,-1722.9,1.2229
492,16.345,1.6364,0,0.00017555,1754.3,6.4403e-05,77.969,5.4029e-05,0.018838,-0.0001741,-1714,1.2226
493,16.345,1.4545,0,0.00017454,1744.2,6.3992e-05,77.021,5.3744e-05,0.02002,-0.00017311,-1704.4,1.2223
494,16.345,1.2727,0,0.00017341,1732.9,6.3407e-05,74.479,5.3497e-05,0.020447,-0.00017202,-1694.4,1.2219
495,16.345,1.0909,0,0.00017216,1720.4,6.2638e-05,70.143,5.3305e-05,0.019324,-0.00017086,-1684.3,1.2215
496,16.345,0.90909,0,0.00017083,1707.1,6.1683e-05,63.896,5.3181e-05,0.016614,-0.00016965,-1674.3,1.221
497,16.345,0.72727,0,0.00016945,1693.3,6.0549e-05,55.706,5.3136e-05,0.0075728,-0.00016843,-1664.8,1.2205
498,16.345,0.54545,0,0.00016805,1679.3,5.9252e-05,45.624,5.3181e-05,0.0026128,-0.00016722,-1656,1.22
499,16.345,0.36364,0,0.00016667,1665.6,5.7818e-05,33.764,5.3314e-05,-0.07642,-0.00016607,-1648.5,1.2194
500,16.345,0.18182,0,0.00016546,1653.5,5.6359e-05,21.024,5.3552e-05,-0.063294,-0.00016509,-1642.9,1.2187
501,16.162,5.8182,0,0.00017116,1710.5,5.8185e-05,20.358,5.5469e-05,-0.050716,-0.00017081,-1700.2,1.1956
502,16.162,5.6364,0,0.00017215,1720.4,5.9422e-05,31.293,5.5248e-05,-0.069664,-0.0001716,-1704.5,1.1962
503,16.162,5.4545,0,0.00017331,1731.9,6.0666e-05,41.705,5.5116e-05,0.00045754,-0.00017257,-1710.7,1.1968
504,16.162,5.2727,0,0.00017449,1743.7,6.1791e-05,50.609,5.5056e-05,0.0056696,-0.00017357,-1717.8,1.1974
505,16.162,5.0909,0,0.00017564,1755.2,6.2773e-05,57.888,5.5071e-05,0.014384,-0.00017458,-1725.5,1.1979
506,16.162,4.9091,0,0.00017674,1766.1,6.3599e-05,63.496,5.5151e-05,0.017371,-0.00017557,-1733.5,1.1984
507,16.162,4.7273,0,0.00017776,1776.4,6.4265e-05,67.468,5.5288e-05,0.018831,-0.00017651,-1741.6,1.1988
508,16.162,4.5455,0,0.00017868,1785.6,6.4772e-05,69.911,5.547e-05,0.018823,-0.00017739,-1749.6,1.1992
509,16.162,4.3636,0,0.0001795,1793.8,6.5132e-05,71,5.5684e-05,0.018058,-0.00017819,-1757.2,1.1995
510,16.162,4.1818,0,0.0001802,1800.7,6.5361e-05,70.975,5.5917e-05,0.016914,-0.00017889,-1764.2,1.1998
511,16.162,4,0,0.00018078,1806.6,6.5483e-05,70.123,5.6152e-05,0.015748,-0.00017949,-1770.5,1.2001
512,16.162,3.8182,0,0.00018125,1811.2,6.5525e-05,68.758,5.6375e-05,0.014808,-0.00017998,-1775.9,1.2003
513,16.162,3.6364,0,0.00018161,1814.9,6.5515e-05,67.197,5.6573e-05,0.014222,-0.00018037,-1780.3,1.2005
514,16.162,3.4545,0,0.00018187,1817.5,6.548e-05,65.734,5.6733e-05,0.013981,-0.00018066,-1783.7,1.2006
515,16.162,3.2727,0,0.00018204,1819.2,6.5443e-05,64.611,5.6846e-05,0.013965,-0.00018086,-1786,1.2007
516,16.162,3.0909,0,0.00018212,1820,6.542e-05,64.004,5.6904e-05,0.014012,-0.00018095,-1787.1,1.2007
517,16.162,2.9091,0,0.00018212,1820,6.542e-05,64.004,5.6904e-05,0.014012,-0.00018095,-1787.1,1.2007
518,16.162,2.7273,0,0.00018204,1819.2,6.5443e-05,64.611,5.6846e-05,0.013964,-0.00018086,-1786,1.2007
519,16.162,2.5455,0,0.00018187,1817.5,6.548e-05,65.734,5.6733e-05,0.013982,-0.00018066,-1783.7,1.2006
520,16.162,2.3636,0,0.00018161,1814.9,6.5515e-05,67.197,5.6573e-05,0.014221,-0.00018037,-1780.3,1.2005
521,16.162,2.1818,0,0.00018125,1811.2,6.5525e-05,68.758,5.6375e-05,0.014808,-0.00017998,-1775.9,1.2003
522,16.162,2,0,0.00018078,1806.6,6.5483e-05,70.123,5.6152e-05,0.015748,-0.00017949,-1770.5,1.2001
523,16.162,1.8182,0,0.0001802,1800.7,6.5361e-05,70.975,5.5917e-05,0.016914,-0.00017889,-1764.2,1.1998
524,16.162,1.6364,0,0.0001795,1793.8,6.5132e-05,71,5.5684e-05,0.018057,-0.00017819,-1757.2,1.1995
525,16.162,1.4545,0,0.00017868,1785.6,6.4772e-05,69.91,5.547e-05,0.018825,-0.00017739,-1749.6,1.1992
526,16.162,1.2727,0,0.00017776,1776.4,6.4265e-05,67.468,5.5288e-05,0.018832,-0.00017651,-1741.6,1.1988
527,16.162,1.0909,0,0.00017674,1766.1,6.3599e-05,63.496,5.5151e-05,0.017372,-0.00017557,-1733.5,1.1984
528,16.162,0.90909,0,0.00017564,1755.2,6.2773e-05,57.888,5.5071e-05,0.014384,-0.00017458,-1725.5,1.1979
529,16.162,0.72727,0,0.00017449,1743.7,6.1791e-05,50.609,5.5056e-05,0.0056726,-0.00017357,-1717.8,1.1974
530,16.162,0.54545,0,0.00017331,1731.9,6.0666e-05,41.705,5.5116e-05,0.00045788,-0.00017257,-1710.7,1.1968
531,16.162,0.36364,0,0.00017215,1720.4,5.9422e-05,31.293,5.5248e-05,-0.069664,-0.0001716,-1704.5,1.1962
532,16.162,0.18182,0,0.00017116,1710.5,5.8185e-05,20.358,5.5469e-05,-0.050717,-0.00017081,-1700.2,1.1956
533,15.978,5.8182,0,0.00017666,1765.4,5.9948e-05,19.766,5.7312e-05,-0.040045,-0.00017631,-1755.4,1.1726
534,15.978,5.6364,0,0.00017746,1773.4,6.099e-05,29.103,5.7109e-05,-0.063268,-0.00017695,-1758.7,1.1732
535,15.978,5.4545,0,0.00017843,1783.1,6.2068e-05,38.234,5.6979e-05,-0.001259,-0.00017775,-1763.7,1.1738
536,15.978,5.2727,0,0.00017942,1792.9,6.3045e-05,46.1,5.691e-05,0.0039735,-0.00017859,-1769.4,1.1744
537,15.978,5.0909,0,0.00018038,1802.5,6.3898e-05,52.582,5.6901e-05,0.012266,-0.00017942,-1775.6,1.1749
538,15.978,4.9091,0,0.00018128,1811.6,6.4616e-05,57.637,5.6947e-05,0.015412,-0.00018023,-1782.1,1.1754
539,15.978,4.7273,0,0.00018212,1820,6.5196e-05,61.294,5.7041e-05,0.017118,-0.000181,-1788.6,1.1758
540,15.978,4.5455,0,0.00018288,1827.5,6.5641e-05,63.649,5.7172e-05,0.017444,-0.00018171,-1794.9,1.1762
541,15.978,4.3636,0,0.00018354,1834.2,6.5959e-05,64.851,5.733e-05,0.017022,-0.00018235,-1800.9,1.1766
542,15.978,4.1818,0,0.00018411,1839.8,6.6167e-05,65.102,5.7504e-05,0.016179,-0.00018292,-1806.4,1.1769
543,15.978,4,0,0.00018458,1844.5,6.6283e-05,64.639,5.7682e-05,0.015217,-0.00018339,-1811.3,1.1771
544,15.978,3.8182,0,0.00018495,1848.3,6.6331e-05,63.721,5.7852e-05,0.014343,-0.00018379,-1815.6,1.1774
545,15.978,3.6364,0,0.00018524,1851.1,6.6334e-05,62.607,5.8003e-05,0.013688,-0.0001841,-1819,1.1775
546,15.978,3.4545,0,0.00018545,1853.2,6.6314e-05,61.533,5.8126e-05,0.013281,-0.00018433,-1821.7,1.1777
547,15.978,3.2727,0,0.00018558,1854.5,6.6289e-05,60.698,5.8212e-05,0.013077,-0.00018448,-1823.4,1.1777
548,15.978,3.0909,0,0.00018565,1855.2,6.6273e-05,60.244,5.8257e-05,0.013001,-0.00018455,-1824.3,1.1778
549,15.978,2.9091,0,0.00018565,1855.2,6.6273e-05,60.244,5.8257e-05,0.013002,-0.00018455,-1824.3,1.1778
550,15.978,2.7273,0,0.00018558,1854.5,6.6289e-05,60.698,5.8212e-05,0.013077,-0.00018448,-1823.4,1.1777
551,15.978,2.5455,0,0.00018545,1853.2,6.6314e-05,61.533,5.8126e-05,0.01328,-0.00018433,-1821.7,1.1777
552,15.978,2.3636,0,0.00018524,1851.1,6.6334e-05,62.607,5.8003e-05,0.013688,-0.0001841,-1819,1.1775
553,15.978,2.1818,0,0.00018495,1848.3,6.6331e-05,63.721,5.7852e-05,0.014344,-0.00018379,-1815.6,1.1774
554,15.978,2,0,0.00018458,1844.5,6.6283e-05,64.639,5.7682e-05,0.015217,-0.00018339,-1811.3,1.1771
555,15.978,1.8182,0,0.00018411,1839.8,6.6167e-05,65.102,5.7504e-05,0.01618,-0.00018292,-1806.4,1.1769
556,15.978,1.6364,0,0.00018354,1834.2,6.5959e-05,64.851,5.733e-05,0.017022,-0.00018235,-1800.9,1.1766
557,15.978,1.4545,0,0.00018288,1827.5,6.5641e-05,63.649,5.7172e-05,0.017444,-0.00018171,-1794.9,1.1762
558,15.978,1.2727,0,0.00018212,1820,6.5196e-05,61.294,5.7041e-05,0.017117,-0.000181,-1788.6,1.1758
559,15.978,1.0909,0,0.00018128,1811.6,6.4616e-05,57.636,5.6947e-05,0.015412,-0.00018023,-1782.1,1.1754
560,15.978,0.90909,0,0.00018038,1802.5,6.3898e-05,52.582,5.6901e-05,0.012266,-0.00017942,-1775.6,1.1749
561,15.978,0.72727,0,0.00017942,1792.9,6.3045e-05,46.1,5.691e-05,0.0039764,-0.00017859,-1769.4,1.1744
562,15.978,0.54545,0,0.00017843,1783.1,6.2068e-05,38.234,5.6979e-05,-0.0012588,-0.00017775,-1763.7,1.1738
563,15.978,0.36364,0,0.00017746,1773.4,6.099e-05,29.103,5.7109e-05,-0.063268,-0.00017695,-1758.7,1.1732
564,15.978,0.18182,0,0.00017666,1765.4,5.9948e-05,19.766,5.7312e-05,-0.040044,-0.00017631,-1755.4,1.1726
565,15.794,5.8182,0,0.00018198,1818.6,6.1661e-05,19.237,5.9097e-05,-0.031289,-0.00018165,-1808.9,1.1497
566,15.794,5.6364,0,0.00018262,1825,6.2534e-05,27.169,5.891e-05,-0.057373,-0.00018215,-1811.3,1.1503
567,15.794,5.4545,0,0.00018344,1833.1,6.3466e-05,35.169,5.8785e-05,-0.0026311,-0.00018282,-1815.3,1.1509
568,15.794,5.2727,0,0.00018426,1841.4,6.4314e-05,42.119,5.8709e-05,0.002468,-0.00018351,-1819.9,1.1515
569,15.794,5.0909,0,0.00018506,1849.4,6.5057e-05,47.897,5.8684e-05,0.010286,-0.0001842,-1824.9,1.152
570,15.794,4.9091,0,0.00018582,1856.9,6.5684e-05,52.462,5.8704e-05,0.013505,-0.00018487,-1830.1,1.1525
571,15.794,4.7273,0,0.00018651,1863.8,6.6193e-05,55.839,5.8763e-05,0.015381,-0.0001855,-1835.3,1.153
572,15.794,4.5455,0,0.00018713,1870,6.6585e-05,58.106,5.8854e-05,0.015972,-0.00018608,-1840.3,1.1534
573,15.794,4.3636,0,0.00018767,1875.4,6.6871e-05,59.389,5.8969e-05,0.015833,-0.00018659,-1845,1.1537
574,15.794,4.1818,0,0.00018813,1880,6.7061e-05,59.856,5.9097e-05,0.015253,-0.00018704,-1849.4,1.154
575,15.794,4,0,0.00018851,1883.8,6.7174e-05,59.704,5.923e-05,0.014489,-0.00018743,-1853.3,1.1543
576,15.794,3.8182,0,0.00018882,1886.9,6.7227e-05,59.145,5.9358e-05,0.013727,-0.00018774,-1856.6,1.1545
577,15.794,3.6364,0,0.00018905,1889.2,6.7241e-05,58.389,5.9472e-05,0.013082,-0.00018799,-1859.3,1.1547
578,15.794,3.4545,0,0.00018921,1890.8,6.7233e-05,57.629,5.9565e-05,0.012617,-0.00018817,-1861.3,1.1548
579,15.794,3.2727,0,0.00018932,1891.9,6.7218e-05,57.025,5.963e-05,0.01233,-0.00018828,-1862.7,1.1549
580,15.794,3.0909,0,0.00018937,1892.4,6.7208e-05,56.694,5.9664e-05,0.012199,-0.00018834,-1863.4,1.155
581,15.794,2.9091,0,0.00018937,1892.4,6.7208e-05,56.694,5.9664e-05,0.012198,-0.00018834,-1863.4,1.155
582,15.794,2.7273,0,0.00018932,1891.9,6.7218e-05,57.025,5.963e-05,0.01233,-0.00018828,-1862.7,1.1549
583,15.794,2.5455,0,0.00018921,1890.8,6.7233e-05,57.628,5.9565e-05,0.012618,-0.00018817,-1861.3,1.1548
584,15.794,2.3636,0,0.00018905,1889.2,6.7241e-05,58.388,5.9472e-05,0.013083,-0.00018799,-1859.3,1.1547
585,15.794,2.1818,0,0.00018882,1886.9,6.7227e-05,59.145,5.9358e-05,0.013725,-0.00018774,-1856.6,1.1545
586,15.794,2,0,0.00018851,1883.8,6.7174e-05,59.704,5.923e-05,0.01449,-0.00018743,-1853.3,1.1543
587,15.794,1.8182,0,0.00018813,1880,6.7061e-05,59.856,5.9097e-05,0.015254,-0.00018704,-1849.4,1.154
588,15.794,1.6364,0,0.00018767,1875.4,6.6871e-05,59.389,5.8969e-05,0.015834,-0.00018659,-1845,1.1537
589,15.794,1.4545,0,0.00018713,1870,6.6585e-05,58.106,5.8854e-05,0.015972,-0.00018608,-1840.3,1.1534
590,15.794,1.2727,0,0.00018651,1863.8,6.6193e-05,55.839,5.8763e-05,0.015381,-0.0001855,-1835.3,1.153
591,15.794,1.0909,0,0.00018582,1856.9,6.5684e-05,52.462,5.8704e-05,0.013505,-0.00018487,-1830.1,1.1525
592,15.794,0.90909,0,0.00018506,1849.4,6.5057e-05,47.897,5.8684e-05,0.010288,-0.0001842,-1824.9,1.152
593,15.794,0.72727,0,0.00018426,1841.4,6.4314e-05,42.119,5.8709e-05,0.00247,-0.00018351,-1819.9,1.1515
594,15.794,0.54545,0,0.00018344,1833.1,6.3466e-05,35.169,5.8785e-05,-0.0026333,-0.00018282,-1815.3,1.1509
595,15.794,0.36364,0,0.00018262,1825,6.2534e-05,27.169,5.891e-05,-0.057373,-0.00018215,-1811.3,1.1503
596,15.794,0.18182,0,0.00018198,1818.6,6.1661e-05,19.237,5.9097e-05,-0.031289,-0.00018165,-1808.9,1.1497
597,15.611,5.8182,0,0.00018718,1870.5,6.3336e-05,18.761,6.0836e-05,-0.024207,-0.00018685,-1861.1,1.1269
598,15.611,5.6364,0,0.00018768,1875.5,6.406e-05,25.461,6.0664e-05,-0.05196,-0.00018723,-1862.7,1.1276
599,15.611,5.4545,0,0.00018836,1882.3,6.4866e-05,32.465,6.0545e-05,-0.0036567,-0.00018779,-1865.9,1.1282
600,15.611,5.2727,0,0.00018905,1889.2,6.5603e-05,38.603,6.0466e-05,0.0012148,-0.00018837,-1869.6,1.1288
601,15.611,5.0909,0,0.00018972,1895.9,6.6251e-05,43.757,6.0428e-05,0.0085403,-0.00018894,-1873.6,1.1293
602,15.611,4.9091,0,0.00019035,1902.1,6.68e-05,47.884,6.0428e-05,0.011765,-0.00018949,-1877.7,1.1298
603,15.611,4.7273,0,0.00019092,1907.9,6.7247e-05,51.002,6.0461e-05,0.013752,-0.00019,-1881.9,1.1302
604,15.611,4.5455,0,0.00019143,1913,6.7596e-05,53.175,6.0521e-05,0.01455,-0.00019047,-1885.8,1.1306
605,15.611,4.3636,0,0.00019188,1917.4,6.7854e-05,54.508,6.0601e-05,0.014647,-0.00019089,-1889.6,1.131
606,15.611,4.1818,0,0.00019225,1921.2,6.803e-05,55.139,6.0693e-05,0.014297,-0.00019125,-1893,1.1313
607,15.611,4,0,0.00019256,1924.3,6.814e-05,55.23,6.0791e-05,0.013721,-0.00019156,-1896.1,1.1316
608,15.611,3.8182,0,0.00019281,1926.7,6.8198e-05,54.954,6.0886e-05,0.013086,-0.00019181,-1898.7,1.1318
609,15.611,3.6364,0,0.00019299,1928.6,6.822e-05,54.483,6.0971e-05,0.012507,-0.00019201,-1900.8,1.132
610,15.611,3.4545,0,0.00019313,1929.9,6.8222e-05,53.973,6.1041e-05,0.012053,-0.00019215,-1902.4,1.1321
611,15.611,3.2727,0,0.00019321,1930.8,6.8216e-05,53.555,6.109e-05,0.011746,-0.00019225,-1903.5,1.1322
612,15.611,3.0909,0,0.00019325,1931.2,6.8211e-05,53.322,6.1115e-05,0.011596,-0.00019229,-1904,1.1323
613,15.611,2.9091,0,0.00019325,1931.2,6.8211e-05,53.322,6.1115e-05,0.011596,-0.00019229,-1904,1.1323
614,15.611,2.7273,0,0.00019321,1930.8,6.8216e-05,53.555,6.109e-05,0.011747,-0.00019225,-1903.5,1.1322
615,15.611,2.5455,0,0.00019313,1929.9,6.8222e-05,53.973,6.1041e-05,0.012052,-0.00019215,-1902.4,1.1321
616,15.611,2.3636,0,0.00019299,1928.6,6.822e-05,54.483,6.0971e-05,0.012508,-0.00019201,-1900.8,1.132
617,15.611,2.1818,0,0.00019281,1926.7,6.8198e-05,54.954,6.0886e-05,0.013087,-0.00019181,-1898.7,1.1318
618,15.611,2,0,0.00019256,1924.3,6.814e-05,55.23,6.0791e-05,0.013721,-0.00019156,-1896.1,1.1316
619,15.611,1.8182,0,0.00019225,1921.2,6.803e-05,55.139,6.0693e-05,0.014296,-0.00019125,-1893,1.1313
620,15.611,1.6364,0,0.00019188,1917.4,6.7854e-05,54.508,6.0601e-05,0.014648,-0.00019089,-1889.6,1.131
621,15.611,1.4545,0,0.00019143,1913,6.7596e-05,53.175,6.0521e-05,0.01455,-0.00019047,-1885.8,1.1306
622,15.611,1.2727,0,0.00019092,1907.9,6.7247e-05,51.002,6.0461e-05,0.013753,-0.00019,-1881.9,1.1302
623,15.611,1.0909,0,0.00019035,1902.1,6.68e-05,47.884,6.0428e-05,0.011765,-0.00018949,-1877.7,1.1298
624,15.611,0.90909,0,0.00018972,1895.9,6.6251e-05,43.757,6.0428e-05,0.0085422,-0.00018894,-1873.6,1.1293
625,15.611,0.72727,0,0.00018905,1889.2,6.5603e-05,38.603,6.0466e-05,0.0012166,-0.00018837,-1869.6,1.1288
626,15.611,0.54545,0,0.00018836,1882.3,6.4866e-05,32.465,6.0545e-05,-0.0036566,-0.00018779,-1865.9,1.1282
627,15.611,0.36364,0,0.00018768,1875.5,6.406e-05,25.461,6.0664e-05,-0.051961,-0.00018723,-1862.7,1.1276
628,15.611,0.18182,0,0.00018718,1870.5,6.3336e-05,18.761,6.0836e-05,-0.024207,-0.00018685,-1861.1,1.1269
629,15.427,5.8182,0,0.00019227,1921.4,6.4981e-05,18.328,6.2539e-05,-0.01862,-0.00019196,-1912.2,1.1042
630,15.427,5.6364,0,0.00019265,1925.2,6.5576e-05,23.952,6.2382e-05,-0.047101,-0.00019224,-1913.2,1.1049
631,15.427,5.4545,0,0.00019322,1930.9,6.6272e-05,30.077,6.2268e-05,-0.004456,-0.0001927,-1915.7,1.1055
632,15.427,5.2727,0,0.0001938,1936.7,6.6912e-05,35.497,6.2188e-05,0.0001305,-0.00019317,-1918.7,1.1061
633,15.427,5.0909,0,0.00019436,1942.2,6.7477e-05,40.092,6.2142e-05,0.0069627,-0.00019364,-1921.9,1.1067
634,15.427,4.9091,0,0.00019488,1947.4,6.7959e-05,43.822,6.2128e-05,0.010149,-0.00019409,-1925.1,1.1072
635,15.427,4.7273,0,0.00019535,1952.2,6.8354e-05,46.698,6.2141e-05,0.012202,-0.00019452,-1928.4,1.1076
636,15.427,4.5455,0,0.00019578,1956.4,6.8665e-05,48.77,6.2176e-05,0.013157,-0.0001949,-1931.6,1.108
637,15.427,4.3636,0,0.00019614,1960.1,6.8899e-05,50.123,6.2229e-05,0.013451,-0.00019524,-1934.5,1.1084
638,15.427,4.1818,0,0.00019645,1963.2,6.9063e-05,50.872,6.2294e-05,0.013298,-0.00019554,-1937.2,1.1087
639,15.427,4,0,0.0001967,1965.7,6.9169e-05,51.148,6.2363e-05,0.012901,-0.00019578,-1939.6,1.109
640,15.427,3.8182,0,0.0001969,1967.7,6.923e-05,51.091,6.2432e-05,0.012403,-0.00019598,-1941.6,1.1092
641,15.427,3.6364,0,0.00019706,1969.2,6.926e-05,50.843,6.2495e-05,0.011914,-0.00019614,-1943.3,1.1094
642,15.427,3.4545,0,0.00019716,1970.3,6.927e-05,50.531,6.2546e-05,0.011507,-0.00019626,-1944.5,1.1095
643,15.427,3.2727,0,0.00019723,1971,6.927e-05,50.259,6.2583e-05,0.01122,-0.00019633,-1945.4,1.1096
644,15.427,3.0909,0,0.00019727,1971.3,6.9269e-05,50.103,6.2602e-05,0.011073,-0.00019637,-1945.8,1.1097
645,15.427,2.9091,0,0.00019727,1971.3,6.9269e-05,50.103,6.2602e-05,0.011073,-0.00019637,-1945.8,1.1097
646,15.427,2.7273,0,0.00019723,1971,6.927e-05,50.259,6.2583e-05,0.01122,-0.00019633,-1945.4,1.1096
647,15.427,2.5455,0,0.00019716,1970.3,6.927e-05,50.531,6.2546e-05,0.011506,-0.00019626,-1944.5,1.1095
648,15.427,2.3636,0,0.00019706,1969.2,6.926e-05,50.843,6.2495e-05,0.011914,-0.00019614,-1943.3,1.1094
649,15.427,2.1818,0,0.0001969,1967.7,6.923e-05,51.091,6.2432e-05,0.012403,-0.00019598,-1941.6,1.1092
650,15.427,2,0,0.0001967,1965.7,6.9169e-05,51.148,6.2363e-05,0.012901,-0.00019578,-1939.6,1.109
651,15.427,1.8182,0,0.00019645,1963.2,6.9063e-05,50.872,6.2294e-05,0.013299,-0.00019554,-1937.2,1.1087
652,15.427,1.6364,0,0.00019614,1960.1,6.8899e-05,50.123,6.2229e-05,0.013451,-0.00019524,-1934.5,1.1084
653,15.427,1.4545,0,0.00019578,1956.4,6.8665e-05,48.77,6.2176e-05,0.013158,-0.0001949,-1931.6,1.108
654,15.427,1.2727,0,0.00019535,1952.2,6.8354e-05,46.698,6.2141e-05,0.012202,-0.00019452,-1928.4,1.1076
655,15.427,1.0909,0,0.00019488,1947.4,6.7959e-05,43.822,6.2128e-05,0.010148,-0.00019409,-1925.1,1.1072
656,15.427,0.90909,0,0.00019436,1942.2,6.7477e-05,40.092,6.2142e-05,0.006964,-0.00019364,-1921.9,1.1067
657,15.427,0.72727,0,0.0001938,1936.7,6.6912e-05,35.497,6.2188e-05,0.00013323,-0.00019317,-1918.7,1.1061
658,15.427,0.54545,0,0.00019322,1930.9,6.6272e-05,30.077,6.2268e-05,-0.0044557,-0.0001927,-1915.7,1.1055
659,15.427,0.36364,0,0.00019265,1925.2,6.5576e-05,23.952,6.2382e-05,-0.047102,-0.00019224,-1913.2,1.1049
660,15.427,0.18182,0,0.00019227,1921.4,6.4981e-05,18.328,6.2539e-05,-0.018621,-0.00019196,-1912.2,1.1042
661,15.243,5.8182,0,0.00019729,1971.5,6.6603e-05,17.931,6.4215e-05,-0.014272,-0.00019698,-1962.5,1.0817
662,15.243,5.6364,0,0.00019757,1974.3,6.7086e-05,22.614,6.4071e-05,-0.042769,-0.00019717,-1962.9,1.0824
663,15.243,5.4545,0,0.00019804,1979.1,6.7686e-05,27.966,6.3963e-05,-0.0050739,-0.00019755,-1964.9,1.083
664,15.243,5.2727,0,0.00019852,1983.8,6.8242e-05,32.747,6.3883e-05,-0.00079405,-0.00019794,-1967.3,1.0836
665,15.243,5.0909,0,0.00019898,1988.5,6.8735e-05,36.84,6.3832e-05,0.0055565,-0.00019833,-1969.8,1.0842
666,15.243,4.9091,0,0.00019942,1992.8,6.9157e-05,40.207,6.3807e-05,0.0086688,-0.0001987,-1972.4,1.0847
667,15.243,4.7273,0,0.00019981,1996.7,6.9507e-05,42.852,6.3805e-05,0.010753,-0.00019905,-1975,1.0852
668,15.243,4.5455,0,0.00020016,2000.2,6.9785e-05,44.814,6.3822e-05,0.011831,-0.00019936,-1977.5,1.0856
669,15.243,4.3636,0,0.00020046,2003.3,6.9997e-05,46.162,6.3855e-05,0.012283,-0.00019964,-1979.8,1.0859
670,15.243,4.1818,0,0.00020072,2005.8,7.0149e-05,46.988,6.3897e-05,0.012304,-0.00019988,-1981.9,1.0863
671,15.243,4,0,0.00020093,2007.9,7.0252e-05,47.399,6.3945e-05,0.012068,-0.00020008,-1983.8,1.0865
672,15.243,3.8182,0,0.00020109,2009.5,7.0315e-05,47.51,6.3994e-05,0.011703,-0.00020024,-1985.3,1.0868
673,15.243,3.6364,0,0.00020122,2010.8,7.035e-05,47.434,6.4039e-05,0.011317,-0.00020037,-1986.6,1.087
674,15.243,3.4545,0,0.0002013,2011.7,7.0366e-05,47.274,6.4076e-05,0.010976,-0.00020046,-1987.6,1.0871
675,15.243,3.2727,0,0.00020136,2012.2,7.0372e-05,47.117,6.4103e-05,0.010728,-0.00020052,-1988.2,1.0872
676,15.243,3.0909,0,0.00020139,2012.5,7.0373e-05,47.022,6.4117e-05,0.010597,-0.00020055,-1988.6,1.0872
677,15.243,2.9091,0,0.00020139,2012.5,7.0373e-05,47.022,6.4117e-05,0.010598,-0.00020055,-1988.6,1.0872
678,15.243,2.7273,0,0.00020136,2012.2,7.0372e-05,47.117,6.4103e-05,0.010728,-0.00020052,-1988.2,1.0872
679,15.243,2.5455,0,0.0002013,2011.7,7.0366e-05,47.274,6.4076e-05,0.010977,-0.00020046,-1987.6,1.0871
680,15.243,2.3636,0,0.00020122,2010.8,7.035e-05,47.434,6.4039e-05,0.011317,-0.00020037,-1986.6,1.087
681,15.243,2.1818,0,0.00020109,2009.5,7.0315e-05,47.51,6.3994e-05,0.011704,-0.00020024,-1985.3,1.0868
682,15.243,2,0,0.00020093,2007.9,7.0252e-05,47.399,6.3945e-05,0.012068,-0.00020008,-1983.8,1.0865
683,15.243,1.8182,0,0.00020072,2005.8,7.0149e-05,46.988,6.3897e-05,0.012304,-0.00019988,-1981.9,1.0863
684,15.243,1.6364,0,0.00020046,2003.3,6.9997e-05,46.162,6.3855e-05,0.012284,-0.00019964,-1979.8,1.0859
685,15.243,1.4545,0,0.00020016,2000.2,6.9785e-05,44.814,6.3822e-05,0.011831,-0.00019936,-1977.5,1.0856
686,15.243,1.2727,0,0.00019981,1996.7,6.9507e-05,42.852,6.3805e-05,0.010754,-0.00019905,-1975,1.0852
687,15.243,1.0909,0,0.00019942,1992.8,6.9157e-05,40.207,6.3807e-05,0.0086697,-0.0001987,-1972.4,1.0847
688,15.243,0.90909,0,0.00019898,1988.5,6.8735e-05,36.84,6.3832e-05,0.005558,-0.00019833,-1969.8,1.0842
689,15.243,0.72727,0,0.00019852,1983.8,6.8242e-05,32.747,6.3883e-05,-0.00079427,-0.00019794,-1967.3,1.0836
690,15.243,0.54545,0,0.00019804,1979.1,6.7686e-05,27.966,6.3963e-05,-0.0050732,-0.00019755,-1964.9,1.083
691,15.243,0.36364,0,0.00019757,1974.3,6.7086e-05,22.614,6.4071e-05,-0.04277,-0.00019717,-1962.9,1.0824
692,15.243,0.18182,0,0.00019729,1971.5,6.6603e-05,17.931,6.4215e-05,-0.014271,-0.00019698,-1962.5,1.0817
693,15.06,5.8182,0,0.00020225,2021.1,6.8208e-05,17.563,6.5869e-05,-0.010858,-0.00020194,-2012.3,1.0593
694,15.06,5.6364,0,0.00020244,2023,6.8594e-05,21.424,6.5737e-05,-0.038848,-0.00020207,-2012.2,1.06
695,15.06,5.4545,0,0.00020283,2026.9,6.911e-05,26.093,6.5636e-05,-0.0054708,-0.00020237,-2013.7,1.0607
696,15.06,5.2727,0,0.00020323,2030.9,6.9592e-05,30.305,6.5558e-05,-0.0015084,-0.00020269,-2015.5,1.0613
697,15.06,5.0909,0,0.00020361,2034.7,7.0021e-05,33.946,6.5504e-05,0.0043851,-0.00020301,-2017.5,1.0618
698,15.06,4.9091,0,0.00020397,2038.3,7.0392e-05,36.978,6.5471e-05,0.0074039,-0.00020332,-2019.6,1.0623
699,15.06,4.7273,0,0.0002043,2041.6,7.0701e-05,39.401,6.5458e-05,0.0094908,-0.0002036,-2021.6,1.0628
700,15.06,4.5455,0,0.00020459,2044.5,7.095e-05,41.246,6.5462e-05,0.01066,-0.00020385,-2023.5,1.0632
701,15.06,4.3636,0,0.00020484,2047,7.1142e-05,42.565,6.5478e-05,0.011243,-0.00020408,-2025.3,1.0636
702,15.06,4.1818,0,0.00020505,2049.1,7.1283e-05,43.434,6.5504e-05,0.011411,-0.00020427,-2027,1.0639
703,15.06,4,0,0.00020522,2050.8,7.1382e-05,43.939,6.5535e-05,0.011318,-0.00020444,-2028.5,1.0642
704,15.06,3.8182,0,0.00020535,2052.1,7.1446e-05,44.171,6.5568e-05,0.011084,-0.00020457,-2029.7,1.0645
705,15.06,3.6364,0,0.00020546,2053.2,7.1484e-05,44.225,6.5599e-05,0.0108,-0.00020467,-2030.7,1.0647
706,15.06,3.4545,0,0.00020553,2053.9,7.1504e-05,44.182,6.5626e-05,0.010535,-0.00020474,-2031.4,1.0648
707,15.06,3.2727,0,0.00020558,2054.3,7.1514e-05,44.112,6.5644e-05,0.010334,-0.00020479,-2031.9,1.0649
708,15.06,3.0909,0,0.0002056,2054.6,7.1517e-05,44.064,6.5654e-05,0.010226,-0.00020481,-2032.2,1.0649
709,15.06,2.9091,0,0.0002056,2054.6,7.1517e-05,44.064,6.5654e-05,0.010226,-0.00020481,-2032.2,1.0649
710,15.06,2.7273,0,0.00020558,2054.3,7.1514e-05,44.112,6.5644e-05,0.010334,-0.00020479,-2031.9,1.0649
711,15.06,2.5455,0,0.00020553,2053.9,7.1504e-05,44.182,6.5626e-05,0.010535,-0.00020474,-2031.4,1.0648
712,15.06,2.3636,0,0.00020546,2053.2,7.1484e-05,44.225,6.5599e-05,0.0108,-0.00020467,-2030.7,1.0647
713,15.06,2.1818,0,0.00020535,2052.1,7.1446e-05,44.171,6.5568e-05,0.011085,-0.00020457,-2029.7,1.0645
714,15.06,2,0,0.00020522,2050.8,7.1382e-05,43.938,6.5535e-05,0.011319,-0.00020444,-2028.5,1.0642
715,15.06,1.8182,0,0.00020505,2049.1,7.1283e-05,43.434,6.5504e-05,0.011411,-0.00020427,-2027,1.0639
716,15.06,1.6364,0,0.00020484,2047,7.1142e-05,42.565,6.5478e-05,0.011243,-0.00020408,-2025.3,1.0636
717,15.06,1.4545,0,0.00020459,2044.5,7.095e-05,41.246,6.5462e-05,0.01066,-0.00020385,-2023.5,1.0632
718,15.06,1.2727,0,0.0002043,2041.6,7.0701e-05,39.401,6.5458e-05,0.0094913,-0.0002036,-2021.6,1.0628
719,15.06,1.0909,0,0.00020397,2038.3,7.0392e-05,36.978,6.5471e-05,0.0074043,-0.00020332,-2019.6,1.0623
720,15.06,0.90909,0,0.00020361,2034.7,7.0021e-05,33.946,6.5504e-05,0.0043864,-0.00020301,-2017.5,1.0618
721,15.06,0.72727,0,0.00020323,2030.9,6.9592e-05,30.305,6.5558e-05,-0.0015061,-0.00020269,-2015.5,1.0613
722,15.06,0.54545,0,0.00020283,2026.9,6.911e-05,26.093,6.5636e-05,-0.00547,-0.00020237,-2013.7,1.0607
723,15.06,0.36364,0,0.00020244,2023,6.8594e-05,21.424,6.5737e-05,-0.038848,-0.00020207,-2012.2,1.06
724,15.06,0.18182,0,0.00020225,2021.1,6.8208e-05,17.563,6.5869e-05,-0.010857,-0.00020194,-2012.3,1.0593
725,14.876,5.8182,0,0.00020716,2070.2,6.9801e-05,17.218,6.7508e-05,-0.0082374,-0.00020686,-2061.5,1.037
726,14.876,5.6364,0,0.00020728,2071.3,7.0102e-05,20.359,6.7387e-05,-0.035355,-0.00020692,-2061.1,1.0378
727,14.876,5.4545,0,0.0002076,2074.5,7.0544e-05,24.423,6.7293e-05,-0.0057425,-0.00020717,-2062.2,1.0384
728,14.876,5.2727,0,0.00020792,2077.8,7.0961e-05,28.127,6.7217e-05,-0.0020889,-0.00020743,-2063.6,1.039
729,14.876,5.0909,0,0.00020824,2081,7.1334e-05,31.358,6.7161e-05,0.0033713,-0.00020769,-2065.1,1.0396
730,14.876,4.9091,0,0.00020854,2084,7.1659e-05,34.08,6.7124e-05,0.0062813,-0.00020794,-2066.7,1.0401
731,14.876,4.7273,0,0.00020881,2086.7,7.1932e-05,36.29,6.7103e-05,0.0083537,-0.00020817,-2068.3,1.0406
732,14.876,4.5455,0,0.00020905,2089.1,7.2154e-05,38.01,6.7096e-05,0.009587,-0.00020838,-2069.8,1.041
733,14.876,4.3636,0,0.00020926,2091.1,7.2327e-05,39.282,6.7101e-05,0.010276,-0.00020856,-2071.2,1.0414
734,14.876,4.1818,0,0.00020943,2092.9,7.2458e-05,40.164,6.7114e-05,0.010569,-0.00020872,-2072.5,1.0418
735,14.876,4,0,0.00020957,2094.3,7.2551e-05,40.727,6.7132e-05,0.010605,-0.00020885,-2073.6,1.042
736,14.876,3.8182,0,0.00020968,2095.4,7.2615e-05,41.045,6.7153e-05,0.010488,-0.00020895,-2074.6,1.0423
737,14.876,3.6364,0,0.00020977,2096.2,7.2655e-05,41.192,6.7174e-05,0.010298,-0.00020904,-2075.3,1.0425
738,14.876,3.4545,0,0.00020983,2096.8,7.2678e-05,41.235,6.7191e-05,0.010111,-0.0002091,-2075.9,1.0426
739,14.876,3.2727,0,0.00020987,2097.2,7.269e-05,41.23,6.7204e-05,0.0099589,-0.00020913,-2076.3,1.0427
740,14.876,3.0909,0,0.00020988,2097.4,7.2695e-05,41.218,6.7211e-05,0.0098763,-0.00020915,-2076.5,1.0428
741,14.876,2.9091,0,0.00020988,2097.4,7.2695e-05,41.218,6.7211e-05,0.009876,-0.00020915,-2076.5,1.0428
742,14.876,2.7273,0,0.00020987,2097.2,7.269e-05,41.23,6.7204e-05,0.0099588,-0.00020913,-2076.3,1.0427
743,14.876,2.5455,0,0.00020983,2096.8,7.2678e-05,41.235,6.7191e-05,0.010111,-0.0002091,-2075.9,1.0426
744,14.876,2.3636,0,0.00020977,2096.2,7.2655e-05,41.192,6.7174e-05,0.010298,-0.00020904,-2075.3,1.0425
745,14.876,2.1818,0,0.00020968,2095.4,7.2615e-05,41.045,6.7153e-05,0.010487,-0.00020895,-2074.6,1.0423
746,14.876,2,0,0.00020957,2094.3,7.2551e-05,40.727,6.7132e-05,0.010604,-0.00020885,-2073.6,1.042
747,14.876,1.8182,0,0.00020943,2092.9,7.2458e-05,40.164,6.7114e-05,0.01057,-0.00020872,-2072.5,1.0418
748,14.876,1.6364,0,0.00020926,2091.1,7.2327e-05,39.282,6.7101e-05,0.010277,-0.00020856,-2071.2,1.0414
749,14.876,1.4545,0,0.00020905,2089.1,7.2154e-05,38.01,6.7096e-05,0.0095871,-0.00020838,-2069.8,1.041
750,14.876,1.2727,0,0.00020881,2086.7,7.1932e-05,36.29,6.7103e-05,0.0083545,-0.00020817,-2068.3,1.0406
751,14.876,1.0909,0,0.00020854,2084,7.1659e-05,34.08,6.7124e-05,0.006282,-0.00020794,-2066.7,1.0401
752,14.876,0.90909,0,0.00020824,2081,7.1334e-05,31.358,6.7161e-05,0.0033721,-0.00020769,-2065.1,1.0396
753,14.876,0.72727,0,0.00020792,2077.8,7.0961e-05,28.127,6.7217e-05,-0.0020881,-0.00020743,-2063.6,1.039
754,14.876,0.54545,0,0.0002076,2074.5,7.0544e-05,24.423,6.7293e-05,-0.0057413,-0.00020717,-2062.2,1.0384
755,14.876,0.36364,0,0.00020728,2071.3,7.0102e-05,20.359,6.7387e-05,-0.035355,-0.00020692,-2061.1,1.0378
756,14.876,0.18182,0,0.00020716,2070.2,6.9801e-05,17.218,6.7508e-05,-0.0082386,-0.00020686,-2061.5,1.037
757,14.692,5.8182,0,0.00021204,2119,7.1384e-05,16.891,6.9135e-05,-0.0062065,-0.00021175,-2110.5,1.0149
758,14.692,5.6364,0,0.00021209,2119.5,7.1611e-05,19.401,6.9025e-05,-0.032205,-0.00021176,-2109.7,1.0156
759,14.692,5.4545,0,0.00021235,2122.1,7.1989e-05,22.928,6.8937e-05,-0.0058743,-0.00021195,-2110.5,1.0163
760,14.692,5.2727,0,0.00021262,2124.7,7.2348e-05,26.175,6.8864e-05,-0.0025196,-0.00021216,-2111.5,1.0169
761,14.692,5.0909,0,0.00021288,2127.4,7.2672e-05,29.032,6.8808e-05,0.0025379,-0.00021237,-2112.7,1.0175
762,14.692,4.9091,0,0.00021313,2129.8,7.2955e-05,31.466,6.8768e-05,0.0053333,-0.00021257,-2113.9,1.0181
763,14.692,4.7273,0,0.00021335,2132,7.3195e-05,33.47,6.8742e-05,0.0073738,-0.00021276,-2115.1,1.0185
764,14.692,4.5455,0,0.00021355,2134,7.3392e-05,35.06,6.8727e-05,0.0086528,-0.00021293,-2116.2,1.019
765,14.692,4.3636,0,0.00021372,2135.7,7.3549e-05,36.268,6.8723e-05,0.009424,-0.00021308,-2117.3,1.0194
766,14.692,4.1818,0,0.00021386,2137.1,7.3669e-05,37.14,6.8727e-05,0.0098228,-0.0002132,-2118.3,1.0197
767,14.692,4,0,0.00021398,2138.3,7.3756e-05,37.732,6.8736e-05,0.0099693,-0.00021331,-2119.2,1.02
768,14.692,3.8182,0,0.00021407,2139.2,7.3817e-05,38.103,6.8747e-05,0.0099564,-0.00021339,-2119.9,1.0203
769,14.692,3.6364,0,0.00021414,2139.9,7.3858e-05,38.314,6.876e-05,0.009861,-0.00021346,-2120.5,1.0204
770,14.692,3.4545,0,0.00021419,2140.4,7.3883e-05,38.419,6.8771e-05,0.0097414,-0.00021351,-2120.9,1.0206
771,14.692,3.2727,0,0.00021422,2140.7,7.3897e-05,38.462,6.8779e-05,0.0096375,-0.00021354,-2121.2,1.0207
772,14.692,3.0909,0,0.00021423,2140.9,7.3903e-05,38.475,6.8783e-05,0.0095788,-0.00021355,-2121.4,1.0207
773,14.692,2.9091,0,0.00021423,2140.9,7.3903e-05,38.475,6.8783e-05,0.0095787,-0.00021355,-2121.4,1.0207
774,14.692,2.7273,0,0.00021422,2140.7,7.3897e-05,38.462,6.8779e-05,0.0096386,-0.00021354,-2121.2,1.0207
775,14.692,2.5455,0,0.00021419,2140.4,7.3883e-05,38.419,6.8771e-05,0.0097407,-0.00021351,-2120.9,1.0206
776,14.692,2.3636,0,0.00021414,2139.9,7.3858e-05,38.314,6.876e-05,0.0098606,-0.00021346,-2120.5,1.0204
777,14.692,2.1818,0,0.00021407,2139.2,7.3817e-05,38.103,6.8747e-05,0.0099568,-0.00021339,-2119.9,1.0203
778,14.692,2,0,0.00021398,2138.3,7.3756e-05,37.732,6.8736e-05,0.0099707,-0.00021331,-2119.2,1.02
779,14.692,1.8182,0,0.00021386,2137.1,7.3669e-05,37.14,6.8727e-05,0.009823,-0.0002132,-2118.3,1.0197
780,14.692,1.6364,0,0.00021372,2135.7,7.3549e-05,36.268,6.8723e-05,0.0094245,-0.00021308,-2117.3,1.0194
781,14.692,1.4545,0,0.00021355,2134,7.3392e-05,35.06,6.8727e-05,0.0086529,-0.00021293,-2116.2,1.019
782,14.692,1.2727,0,0.00021335,2132,7.3195e-05,33.47,6.8742e-05,0.0073743,-0.00021276,-2115.1,1.0185
783,14.692,1.0909,0,0.00021313,2129.8,7.2955e-05,31.466,6.8768e-05,0.005333,-0.00021257,-2113.9,1.0181
784,14.692,0.90909,0,0.00021288,2127.4,7.2672e-05,29.032,6.8808e-05,0.0025401,-0.00021237,-2112.7,1.0175
785,14.692,0.72727,0,0.00021262,2124.7,7.2348e-05,26.175,6.8864e-05,-0.0025189,-0.00021216,-2111.5,1.0169
786,14.692,0.54545,0,0.00021235,2122.1,7.1989e-05,22.928,6.8937e-05,-0.0058744,-0.00021195,-2110.5,1.0163
787,14.692,0.36364,0,0.00021209,2119.5,7.1611e-05,19.401,6.9025e-05,-0.032204,-0.00021176,-2109.7,1.0156
788,14.692,0.18182,0,0.00021204,2119,7.1384e-05,16.891,6.9135e-05,-0.006206,-0.00021175,-2110.5,1.0149
789,14.509,5.8182,0,0.0002169,2167.5,7.2962e-05,16.577,7.0755e-05,-0.0046766,-0.00021662,-2159.2,0.99294
790,14.509,5.6364,0,0.0002169,2167.5,7.3124e-05,18.531,7.0654e-05,-0.029398,-0.00021658,-2158.2,0.99367
791,14.509,5.4545,0,0.0002171,2169.5,7.3445e-05,21.581,7.0572e-05,-0.0059389,-0.00021673,-2158.7,0.99436
792,14.509,5.2727,0,0.00021732,2171.7,7.3753e-05,24.416,7.0503e-05,-0.002865,-0.0002169,-2159.4,0.995
793,14.509,5.0909,0,0.00021753,2173.8,7.4032e-05,26.931,7.0448e-05,0.0018184,-0.00021706,-2160.2,0.99559
794,14.509,4.9091,0,0.00021773,2175.8,7.4278e-05,29.095,7.0406e-05,0.0044929,-0.00021722,-2161.1,0.99613
795,14.509,4.7273,0,0.00021791,2177.6,7.4488e-05,30.9,7.0376e-05,0.006494,-0.00021737,-2162,0.99663
796,14.509,4.5455,0,0.00021808,2179.3,7.4662e-05,32.355,7.0357e-05,0.0077993,-0.00021751,-2162.9,0.99707
797,14.509,4.3636,0,0.00021821,2180.6,7.4802e-05,33.485,7.0347e-05,0.0086382,-0.00021763,-2163.7,0.99747
798,14.509,4.1818,0,0.00021833,2181.8,7.4911e-05,34.327,7.0343e-05,0.0091226,-0.00021773,-2164.4,0.99782
799,14.509,4,0,0.00021843,2182.8,7.4992e-05,34.924,7.0345e-05,0.0093651,-0.00021781,-2165.1,0.99811
800,14.509,3.8182,0,0.0002185,2183.5,7.505e-05,35.324,7.035e-05,0.0094426,-0.00021788,-2165.6,0.99836
801,14.509,3.6364,0,0.00021856,2184.1,7.5089e-05,35.575,7.0356e-05,0.0094268,-0.00021793,-2166.1,0.99856
802,14.509,3.4545,0,0.0002186,2184.5,7.5115e-05,35.72,7.0362e-05,0.0093723,-0.00021797,-2166.4,0.99871
803,14.509,3.2727,0,0.00021862,2184.7,7.5129e-05,35.795,7.0367e-05,0.0093144,-0.00021799,-2166.6,0.99881
804,14.509,3.0909,0,0.00021864,2184.9,7.5136e-05,35.826,7.0369e-05,0.0092778,-0.00021801,-2166.7,0.99886
805,14.509,2.9091,0,0.00021864,2184.9,7.5136e-05,35.826,7.0369e-05,0.0092778,-0.00021801,-2166.7,0.99886
806,14.509,2.7273,0,0.00021862,2184.7,7.5129e-05,35.795,7.0367e-05,0.0093135,-0.00021799,-2166.6,0.99881
807,14.509,2.5455,0,0.0002186,2184.5,7.5115e-05,35.72,7.0362e-05,0.0093725,-0.00021797,-2166.4,0.99871
808,14.509,2.3636,0,0.00021856,2184.1,7.5089e-05,35.575,7.0356e-05,0.0094274,-0.00021793,-2166.1,0.99856
809,14.509,2.1818,0,0.0002185,2183.5,7.505e-05,35.324,7.035e-05,0.0094419,-0.00021788,-2165.6,0.99836
810,14.509,2,0,0.00021843,2182.8,7.4992e-05,34.924,7.0345e-05,0.0093648,-0.00021781,-2165.1,0.99811
811,14.509,1.8182,0,0.00021833,2181.8,7.4911e-05,34.327,7.0343e-05,0.0091232,-0.00021773,-2164.4,0.99782
812,14.509,1.6364,0,0.00021822,2180.6,7.4802e-05,33.485,7.0347e-05,0.0086376,-0.00021763,-2163.7,0.99747
813,14.509,1.4545,0,0.00021808,2179.3,7.4662e-05,32.355,7.0357e-05,0.0078008,-0.00021751,-2162.9,0.99707
814,14.509,1.2727,0,0.00021791,2177.6,7.4488e-05,30.9,7.0376e-05,0.0064942,-0.00021737,-2162,0.99663
815,14.509,1.0909,0,0.00021773,2175.8,7.4278e-05,29.095,7.0406e-05,0.0044932,-0.00021722,-2161.1,0.99613
816,14.509,0.90909,0,0.00021753,2173.8,7.4032e-05,26.931,7.0448e-05,0.0018206,-0.00021706,-2160.2,0.99559
817,14.509,0.72727,0,0.00021732,2171.7,7.3753e-05,24.416,7.0503e-05,-0.0028637,-0.0002169,-2159.4,0.995
818,14.509,0.54545,0,0.0002171,2169.5,7.3445e-05,21.581,7.0572e-05,-0.0059395,-0.00021673,-2158.7,0.99436
819,14.509,0.36364,0,0.0002169,2167.5,7.3124e-05,18.531,7.0654e-05,-0.029398,-0.00021658,-2158.2,0.99367
820,14.509,0.18182,0,0.0002169,2167.5,7.2962e-05,16.577,7.0755e-05,-0.0046764,-0.00021662,-2159.2,0.99294
821,14.325,5.8182,0,0.00022175,2216,7.4536e-05,16.273,7.237e-05,-0.0035454,-0.00022147,-2207.8,0.9711
822,14.325,5.6364,0,0.0002217,2215.4,7.4641e-05,17.736,7.2277e-05,-0.0269,-0.00022139,-2206.5,0.97185
823,14.325,5.4545,0,0.00022186,2217,7.4912e-05,20.357,7.2201e-05,-0.0059581,-0.0002215,-2206.8,0.97255
824,14.325,5.2727,0,0.00022203,2218.8,7.5174e-05,22.819,7.2136e-05,-0.0031431,-0.00022163,-2207.3,0.9732
825,14.325,5.0909,0,0.0002222,2220.5,7.5413e-05,25.02,7.2083e-05,0.0011926,-0.00022176,-2207.8,0.9738
826,14.325,4.9091,0,0.00022236,2222.1,7.5625e-05,26.93,7.2041e-05,0.0037461,-0.00022189,-2208.5,0.97435
827,14.325,4.7273,0,0.00022251,2223.5,7.5807e-05,28.541,7.2009e-05,0.0056966,-0.00022201,-2209.1,0.97485
828,14.325,4.5455,0,0.00022264,2224.8,7.5959e-05,29.859,7.1986e-05,0.0070181,-0.00022211,-2209.7,0.97531
829,14.325,4.3636,0,0.00022275,2225.9,7.6083e-05,30.901,7.1971e-05,0.0079043,-0.00022221,-2210.3,0.97571
830,14.325,4.1818,0,0.00022284,2226.9,7.618e-05,31.696,7.1963e-05,0.008462,-0.00022229,-2210.9,0.97606
831,14.325,4,0,0.00022292,2227.7,7.6254e-05,32.279,7.1959e-05,0.0087818,-0.00022235,-2211.3,0.97637
832,14.325,3.8182,0,0.00022298,2228.3,7.6308e-05,32.686,7.1959e-05,0.0089395,-0.00022241,-2211.7,0.97662
833,14.325,3.6364,0,0.00022303,2228.7,7.6346e-05,32.957,7.1961e-05,0.0089955,-0.00022245,-2212,0.97682
834,14.325,3.4545,0,0.00022306,2229,7.637e-05,33.125,7.1963e-05,0.0089969,-0.00022248,-2212.3,0.97697
835,14.325,3.2727,0,0.00022308,2229.2,7.6385e-05,33.22,7.1965e-05,0.0089776,-0.0002225,-2212.4,0.97707
836,14.325,3.0909,0,0.00022309,2229.4,7.6392e-05,33.262,7.1966e-05,0.0089626,-0.0002225,-2212.5,0.97712
837,14.325,2.9091,0,0.00022309,2229.4,7.6392e-05,33.262,7.1966e-05,0.0089635,-0.0002225,-2212.5,0.97712
838,14.325,2.7273,0,0.00022308,2229.2,7.6385e-05,33.22,7.1965e-05,0.0089785,-0.0002225,-2212.4,0.97707
839,14.325,2.5455,0,0.00022306,2229,7.637e-05,33.125,7.1963e-05,0.008997,-0.00022248,-2212.3,0.97697
840,14.325,2.3636,0,0.00022303,2228.7,7.6346e-05,32.957,7.1961e-05,0.0089961,-0.00022245,-2212.1,0.97682
841,14.325,2.1818,0,0.00022298,2228.3,7.6308e-05,32.686,7.1959e-05,0.0089406,-0.00022241,-2211.7,0.97662
842,14.325,2,0,0.00022292,2227.7,7.6254e-05,32.279,7.1959e-05,0.0087823,-0.00022235,-2211.3,0.97637
843,14.325,1.8182,0,0.00022284,2226.9,7.618e-05,31.696,7.1963e-05,0.0084625,-0.00022229,-2210.9,0.97606
844,14.325,1.6364,0,0.00022275,2225.9,7.6083e-05,30.901,7.1972e-05,0.007906,-0.00022221,-2210.3,0.97571
845,14.325,1.4545,0,0.00022264,2224.8,7.5959e-05,29.859,7.1986e-05,0.0070177,-0.00022211,-2209.7,0.97531
846,14.325,1.2727,0,0.00022251,2223.5,7.5807e-05,28.541,7.2009e-05,0.0056978,-0.00022201,-2209.1,0.97485
847,14.325,1.0909,0,0.00022236,2222.1,7.5625e-05,26.93,7.2041e-05,0.0037462,-0.00022189,-2208.5,0.97435
848,14.325,0.90909,0,0.0002222,2220.5,7.5413e-05,25.02,7.2083e-05,0.0011941,-0.00022176,-2207.8,0.9738
849,14.325,0.72727,0,0.00022203,2218.8,7.5174e-05,22.819,7.2136e-05,-0.003141,-0.00022163,-2207.3,0.9732
850,14.325,0.54545,0,0.00022186,2217,7.4912e-05,20.357,7.2201e-05,-0.0059599,-0.0002215,-2206.8,0.97255
851,14.325,0.36364,0,0.0002217,2215.4,7.4641e-05,17.736,7.2277e-05,-0.026899,-0.00022139,-2206.5,0.97185
852,14.325,0.18182,0,0.00022175,2216,7.4536e-05,16.273,7.237e-05,-0.0035445,-0.00022147,-2207.8,0.9711
853,14.141,5.8182,0,0.00022659,2264.3,7.6108e-05,15.976,7.3981e-05,-0.0026324,-0.00022631,-2256.3,0.94941
854,14.141,5.6364,0,0.00022649,2263.4,7.6163e-05,17.003,7.3897e-05,-0.024563,-0.0002262,-2254.8,0.95017
855,14.141,5.4545,0,0.00022661,2264.6,7.6388e-05,19.237,7.3827e-05,-0.0058447,-0.00022628,-2254.9,0.95088
856,14.141,5.2727,0,0.00022675,2265.9,7.6609e-05,21.359,7.3766e-05,-0.0032668,-0.00022638,-2255.2,0.95155
857,14.141,5.0909,0,0.00022688,2267.2,7.6812e-05,23.269,7.3715e-05,0.00074558,-0.00022648,-2255.5,0.95216
858,14.141,4.9091,0,0.00022701,2268.5,7.6992e-05,24.94,7.3674e-05,0.0031786,-0.00022657,-2255.9,0.95272
859,14.141,4.7273,0,0.00022712,2269.6,7.7149e-05,26.364,7.3641e-05,0.0050753,-0.00022666,-2256.3,0.95323
860,14.141,4.5455,0,0.00022722,2270.7,7.7281e-05,27.541,7.3616e-05,0.0063991,-0.00022674,-2256.8,0.95369
861,14.141,4.3636,0,0.00022731,2271.6,7.7389e-05,28.487,7.3598e-05,0.0073237,-0.00022682,-2257.2,0.9541
862,14.141,4.1818,0,0.00022739,2272.3,7.7475e-05,29.222,7.3587e-05,0.0079384,-0.00022688,-2257.6,0.95446
863,14.141,4,0,0.00022745,2272.9,7.7541e-05,29.774,7.3579e-05,0.0083243,-0.00022693,-2257.9,0.95477
864,14.141,3.8182,0,0.0002275,2273.4,7.759e-05,30.171,7.3575e-05,0.0085492,-0.00022697,-2258.2,0.95502
865,14.141,3.6364,0,0.00022753,2273.8,7.7624e-05,30.445,7.3573e-05,0.0086654,-0.000227,-2258.4,0.95523
866,14.141,3.4545,0,0.00022756,2274,7.7648e-05,30.623,7.3573e-05,0.008717,-0.00022702,-2258.5,0.95538
867,14.141,3.2727,0,0.00022758,2274.2,7.7662e-05,30.728,7.3573e-05,0.0087329,-0.00022704,-2258.7,0.95549
868,14.141,3.0909,0,0.00022758,2274.3,7.7668e-05,30.776,7.3574e-05,0.008736,-0.00022704,-2258.7,0.95554
869,14.141,2.9091,0,0.00022758,2274.3,7.7668e-05,30.776,7.3574e-05,0.0087363,-0.00022704,-2258.7,0.95554
870,14.141,2.7273,0,0.00022758,2274.2,7.7662e-05,30.728,7.3573e-05,0.0087336,-0.00022704,-2258.7,0.95549
871,14.141,2.5455,0,0.00022756,2274,7.7648e-05,30.623,7.3573e-05,0.0087166,-0.00022702,-2258.5,0.95538
872,14.141,2.3636,0,0.00022753,2273.8,7.7624e-05,30.445,7.3573e-05,0.0086653,-0.000227,-2258.4,0.95523
873,14.141,2.1818,0,0.0002275,2273.4,7.759e-05,30.171,7.3575e-05,0.0085482,-0.00022697,-2258.2,0.95502
874,14.141,2,0,0.00022745,2272.9,7.7541e-05,29.774,7.3579e-05,0.0083249,-0.00022693,-2257.9,0.95477
875,14.141,1.8182,0,0.00022739,2272.3,7.7475e-05,29.222,7.3587e-05,0.0079378,-0.00022688,-2257.6,0.95446
876,14.141,1.6364,0,0.00022731,2271.6,7.7389e-05,28.487,7.3598e-05,0.0073238,-0.00022682,-2257.2,0.9541
877,14.141,1.4545,0,0.00022722,2270.7,7.7281e-05,27.541,7.3616e-05,0.0063999,-0.00022674,-2256.8,0.95369
878,14.141,1.2727,0,0.00022712,2269.6,7.7149e-05,26.364,7.3641e-05,0.0050761,-0.00022666,-2256.4,0.95323
879,14.141,1.0909,0,0.00022701,2268.5,7.6992e-05,24.94,7.3674e-05,0.0031798,-0.00022657,-2255.9,0.95272
880,14.141,0.90909,0,0.00022688,2267.2,7.6812e-05,23.269,7.3715e-05,0.00074586,-0.00022648,-2255.5,0.95216
881,14.141,0.72727,0,0.00022675,2265.9,7.6609e-05,21.359,7.3766e-05,-0.0032659,-0.00022638,-2255.2,0.95155
882,14.141,0.54545,0,0.00022661,2264.6,7.6388e-05,19.237,7.3827e-05,-0.0058445,-0.00022628,-2254.9,0.95088
883,14.141,0.36364,0,0.00022649,2263.4,7.6163e-05,17.003,7.3897e-05,-0.024562,-0.0002262,-2254.8,0.95017
884,14.141,0.18182,0,0.00022659,2264.3,7.6108e-05,15.976,7.3981e-05,-0.0026327,-0.00022631,-2256.3,0.94941
885,13.958,5.8182,0,0.00023143,2312.7,7.768e-05,15.684,7.5592e-05,-0.0019734,-0.00023116,-2304.8,0.92787
886,13.958,5.6364,0,0.00023129,2311.3,7.769e-05,16.319,7.5515e-05,-0.02246,-0.00023101,-2303.2,0.92865
887,13.958,5.4545,0,0.00023138,2312.2,7.7874e-05,18.203,7.5451e-05,-0.0057125,-0.00023106,-2303,0.92937
888,13.958,5.2727,0,0.00023148,2313.2,7.8058e-05,20.013,7.5394e-05,-0.0033563,-0.00023113,-2303.1,0.93005
889,13.958,5.0909,0,0.00023158,2314.2,7.8228e-05,21.653,7.5346e-05,0.0003572,-0.0002312,-2303.3,0.93067
890,13.958,4.9091,0,0.00023167,2315.1,7.8379e-05,23.097,7.5306e-05,0.0026718,-0.00023127,-2303.5,0.93124
891,13.958,4.7273,0,0.00023176,2316,7.8512e-05,24.338,7.5273e-05,0.0045105,-0.00023134,-2303.8,0.93176
892,13.958,4.5455,0,0.00023184,2316.8,7.8624e-05,25.375,7.5248e-05,0.0058284,-0.0002314,-2304,0.93223
893,13.958,4.3636,0,0.00023191,2317.5,7.8717e-05,26.217,7.5228e-05,0.0067788,-0.00023145,-2304.3,0.93264
894,13.958,4.1818,0,0.00023197,2318.1,7.8791e-05,26.882,7.5214e-05,0.0074374,-0.0002315,-2304.5,0.93301
895,13.958,4,0,0.00023201,2318.5,7.8848e-05,27.389,7.5204e-05,0.0078789,-0.00023153,-2304.7,0.93332
896,13.958,3.8182,0,0.00023205,2318.9,7.8892e-05,27.763,7.5198e-05,0.0081591,-0.00023156,-2304.9,0.93358
897,13.958,3.6364,0,0.00023208,2319.2,7.8923e-05,28.027,7.5194e-05,0.008328,-0.00023159,-2305,0.93379
898,13.958,3.4545,0,0.0002321,2319.4,7.8944e-05,28.203,7.5191e-05,0.0084222,-0.0002316,-2305.1,0.93395
899,13.958,3.2727,0,0.00023211,2319.5,7.8957e-05,28.309,7.519e-05,0.0084684,-0.00023161,-2305.2,0.93405
900,13.958,3.0909,0,0.00023212,2319.6,7.8963e-05,28.359,7.519e-05,0.0084876,-0.00023162,-2305.2,0.9341
901,13.958,2.9091,0,0.00023212,2319.6,7.8963e-05,28.359,7.519e-05,0.0084874,-0.00023162,-2305.2,0.9341
902,13.958,2.7273,0,0.00023211,2319.5,7.8957e-05,28.309,7.519e-05,0.0084684,-0.00023161,-2305.2,0.93405
903,13.958,2.5455,0,0.0002321,2319.4,7.8944e-05,28.203,7.5191e-05,0.008422,-0.0002316,-2305.1,0.93395
904,13.958,2.3636,0,0.00023208,2319.2,7.8923e-05,28.027,7.5194e-05,0.0083277,-0.00023159,-2305,0.93379
905,13.958,2.1818,0,0.00023205,2318.9,7.8892e-05,27.763,7.5198e-05,0.0081599,-0.00023156,-2304.9,0.93358
906,13.958,2,0,0.00023201,2318.5,7.8848e-05,27.389,7.5204e-05,0.0078795,-0.00023153,-2304.7,0.93332
907,13.958,1.8182,0,0.00023197,2318.1,7.8791e-05,26.882,7.5214e-05,0.0074381,-0.0002315,-2304.5,0.93301
908,13.958,1.6364,0,0.00023191,2317.5,7.8717e-05,26.217,7.5228e-05,0.0067793,-0.00023145,-2304.3,0.93264
909,13.958,1.4545,0,0.00023184,2316.8,7.8624e-05,25.375,7.5248e-05,0.005828,-0.0002314,-2304,0.93223
910,13.958,1.2727,0,0.00023176,2316,7.8512e-05,24.338,7.5273e-05,0.0045106,-0.00023134,-2303.8,0.93176
911,13.958,1.0909,0,0.00023167,2315.1,7.8379e-05,23.097,7.5306e-05,0.0026726,-0.00023127,-2303.5,0.93124
912,13.958,0.90909,0,0.00023158,2314.2,7.8228e-05,21.652,7.5346e-05,0.00035887,-0.0002312,-2303.3,0.93067
913,13.958,0.72727,0,0.00023148,2313.2,7.8058e-05,20.013,7.5394e-05,-0.0033542,-0.00023113,-2303.1,0.93005
914,13.958,0.54545,0,0.00023138,2312.2,7.7874e-05,18.203,7.5451e-05,-0.0057131,-0.00023106,-2303,0.92937
915,13.958,0.36364,0,0.00023129,2311.3,7.769e-05,16.319,7.5515e-05,-0.02246,-0.00023101,-2303.2,0.92865
916,13.958,0.18182,0,0.00023143,2312.7,7.768e-05,15.683,7.5592e-05,-0.0019736,-0.00023116,-2304.8,0.92787
917,13.774,5.8182,0,0.00023627,2361,7.9253e-05,15.392,7.7204e-05,-0.001517,-0.000236,-2353.3,0.90649
918,13.774,5.6364,0,0.0002361,2359.4,7.9223e-05,15.677,7.7134e-05,-0.020554,-0.00023583,-2351.5,0.90728
919,13.774,5.4545,0,0.00023615,2359.9,7.937e-05,17.24,7.7075e-05,-0.0055706,-0.00023586,-2351.2,0.90802
920,13.774,5.2727,0,0.00023622,2360.6,7.9519e-05,18.761,7.7022e-05,-0.0034149,-0.0002359,-2351.2,0.9087
921,13.774,5.0909,0,0.00023629,2361.3,7.9658e-05,20.148,7.6977e-05,2.0635e-05,-0.00023594,-2351.2,0.90933
922,13.774,4.9091,0,0.00023636,2362,7.9783e-05,21.377,7.6939e-05,0.0022191,-0.00023599,-2351.2,0.90992
923,13.774,4.7273,0,0.00023643,2362.6,7.9893e-05,22.439,7.6907e-05,0.0039943,-0.00023604,-2351.3,0.91044
924,13.774,4.5455,0,0.00023648,2363.2,7.9986e-05,23.334,7.6881e-05,0.0052993,-0.00023608,-2351.4,0.91092
925,13.774,4.3636,0,0.00023653,2363.7,8.0064e-05,24.068,7.6861e-05,0.0062662,-0.00023611,-2351.6,0.91134
926,13.774,4.1818,0,0.00023657,2364.1,8.0126e-05,24.654,7.6846e-05,0.0069602,-0.00023615,-2351.7,0.91171
927,13.774,4,0,0.00023661,2364.5,8.0175e-05,25.106,7.6834e-05,0.007446,-0.00023617,-2351.8,0.91203
928,13.774,3.8182,0,0.00023663,2364.7,8.0212e-05,25.445,7.6826e-05,0.0077726,-0.00023619,-2351.9,0.9123
929,13.774,3.6364,0,0.00023665,2364.9,8.0239e-05,25.688,7.6821e-05,0.0079844,-0.00023621,-2352,0.91251
930,13.774,3.4545,0,0.00023667,2365.1,8.0257e-05,25.852,7.6817e-05,0.0081156,-0.00023622,-2352,0.91267
931,13.774,3.2727,0,0.00023668,2365.1,8.0268e-05,25.953,7.6815e-05,0.0081877,-0.00023622,-2352.1,0.91278
932,13.774,3.0909,0,0.00023668,2365.2,8.0274e-05,26.001,7.6814e-05,0.0082201,-0.00023623,-2352.1,0.91283
933,13.774,2.9091,0,0.00023668,2365.2,8.0274e-05,26.001,7.6814e-05,0.0082203,-0.00023623,-2352.1,0.91283
934,13.774,2.7273,0,0.00023668,2365.1,8.0268e-05,25.953,7.6815e-05,0.008188,-0.00023622,-2352.1,0.91278
935,13.774,2.5455,0,0.00023667,2365.1,8.0257e-05,25.852,7.6817e-05,0.0081154,-0.00023622,-2352,0.91267
936,13.774,2.3636,0,0.00023665,2364.9,8.0239e-05,25.688,7.6821e-05,0.0079846,-0.00023621,-2352,0.91251
937,13.774,2.1818,0,0.00023663,2364.7,8.0212e-05,25.445,7.6826e-05,0.0077731,-0.00023619,-2351.9,0.9123
938,13.774,2,0,0.00023661,2364.5,8.0175e-05,25.106,7.6834e-05,0.0074462,-0.00023617,-2351.8,0.91203
939,13.774,1.8182,0,0.00023657,2364.1,8.0126e-05,24.654,7.6846e-05,0.0069606,-0.00023615,-2351.7,0.91171
940,13.774,1.6364,0,0.00023653,2363.7,8.0064e-05,24.068,7.6861e-05,0.0062663,-0.00023611,-2351.6,0.91134
941,13.774,1.4545,0,0.00023648,2363.2,7.9986e-05,23.334,7.6881e-05,0.0053005,-0.00023608,-2351.4,0.91092
942,13.774,1.2727,0,0.00023643,2362.6,7.9893e-05,22.439,7.6907e-05,0.0039949,-0.00023604,-2351.3,0.91044
943,13.774,1.0909,0,0.00023636,2362,7.9783e-05,21.377,7.6939e-05,0.0022193,-0.00023599,-2351.2,0.90992
944,13.774,0.90909,0,0.00023629,2361.3,7.9658e-05,20.148,7.6977e-05,2.1026e-05,-0.00023594,-2351.2,0.90933
945,13.774,0.72727,0,0.00023622,2360.6,7.9519e-05,18.761,7.7022e-05,-0.0034132,-0.0002359,-2351.2,0.9087
946,13.774,0.54545,0,0.00023615,2359.9,7.937e-05,17.24,7.7075e-05,-0.0055705,-0.00023586,-2351.2,0.90802
947,13.774,0.36364,0,0.0002361,2359.4,7.9223e-05,15.677,7.7134e-05,-0.020554,-0.00023583,-2351.5,0.90728
948,13.774,0.18182,0,0.00023627,2361,7.9253e-05,15.392,7.7204e-05,-0.0015163,-0.000236,-2353.3,0.90649
949,13.59,5.8182,0,0.00024111,2409.4,8.0827e-05,15.101,7.8817e-05,-0.0011764,-0.00024085,-2401.9,0.88527
950,13.59,5.6364,0,0.00024092,2407.5,8.0761e-05,15.066,7.8754e-05,-0.018769,-0.00024066,-2399.9,0.88607
951,13.59,5.4545,0,0.00024094,2407.7,8.0874e-05,16.334,7.87e-05,-0.0053749,-0.00024066,-2399.5,0.88682
952,13.59,5.2727,0,0.00024098,2408.2,8.0992e-05,17.587,7.8651e-05,-0.0034048,-0.00024068,-2399.3,0.88752
953,13.59,5.0909,0,0.00024103,2408.6,8.1103e-05,18.735,7.8609e-05,-0.00023223,-0.0002407,-2399.2,0.88816
954,13.59,4.9091,0,0.00024107,2409.1,8.1203e-05,19.757,7.8573e-05,0.0018528,-0.00024073,-2399.1,0.88875
955,13.59,4.7273,0,0.00024111,2409.5,8.129e-05,20.646,7.8543e-05,0.003564,-0.00024076,-2399.1,0.88929
956,13.59,4.5455,0,0.00024115,2409.9,8.1365e-05,21.399,7.8518e-05,0.0048527,-0.00024078,-2399.1,0.88977
957,13.59,4.3636,0,0.00024118,2410.2,8.1428e-05,22.02,7.8498e-05,0.0058267,-0.0002408,-2399.1,0.8902
958,13.59,4.1818,0,0.00024121,2410.4,8.1478e-05,22.52,7.8482e-05,0.006547,-0.00024082,-2399.1,0.89058
959,13.59,4,0,0.00024123,2410.7,8.1518e-05,22.909,7.847e-05,0.0070678,-0.00024084,-2399.1,0.8909
960,13.59,3.8182,0,0.00024125,2410.8,8.1548e-05,23.202,7.8461e-05,0.0074336,-0.00024085,-2399.1,0.89117
961,13.59,3.6364,0,0.00024126,2411,8.157e-05,23.415,7.8455e-05,0.0076823,-0.00024086,-2399.2,0.89139
962,13.59,3.4545,0,0.00024127,2411,8.1585e-05,23.561,7.845e-05,0.0078431,-0.00024086,-2399.2,0.89155
963,13.59,3.2727,0,0.00024128,2411.1,8.1594e-05,23.651,7.8447e-05,0.0079391,-0.00024087,-2399.2,0.89166
964,13.59,3.0909,0,0.00024128,2411.1,8.1599e-05,23.694,7.8446e-05,0.007982,-0.00024087,-2399.2,0.89171
965,13.59,2.9091,0,0.00024128,2411.1,8.1599e-05,23.694,7.8446e-05,0.0079822,-0.00024087,-2399.2,0.89171
966,13.59,2.7273,0,0.00024128,2411.1,8.1594e-05,23.651,7.8447e-05,0.0079382,-0.00024087,-2399.2,0.89166
967,13.59,2.5455,0,0.00024127,2411,8.1585e-05,23.561,7.845e-05,0.0078439,-0.00024086,-2399.2,0.89155
968,13.59,2.3636,0,0.00024126,2411,8.157e-05,23.415,7.8455e-05,0.0076823,-0.00024086,-2399.2,0.89139
969,13.59,2.1818,0,0.00024125,2410.8,8.1548e-05,23.202,7.8461e-05,0.0074335,-0.00024085,-2399.1,0.89117
970,13.59,2,0,0.00024123,2410.7,8.1518e-05,22.909,7.847e-05,0.0070682,-0.00024084,-2399.1,0.8909
971,13.59,1.8182,0,0.00024121,2410.4,8.1478e-05,22.519,7.8482e-05,0.0065475,-0.00024082,-2399.1,0.89058
972,13.59,1.6364,0,0.00024118,2410.2,8.1428e-05,22.02,7.8498e-05,0.0058268,-0.0002408,-2399.1,0.8902
973,13.59,1.4545,0,0.00024115,2409.9,8.1365e-05,21.399,7.8518e-05,0.0048513,-0.00024078,-2399.1,0.88977
974,13.59,1.2727,0,0.00024111,2409.5,8.129e-05,20.646,7.8543e-05,0.0035649,-0.00024076,-2399.1,0.88929
975,13.59,1.0909,0,0.00024107,2409.1,8.1203e-05,19.757,7.8573e-05,0.0018531,-0.00024073,-2399.1,0.88875
976,13.59,0.90909,0,0.00024103,2408.6,8.1103e-05,18.735,7.8609e-05,-0.0002316,-0.0002407,-2399.2,0.88816
977,13.59,0.72727,0,0.00024098,2408.2,8.0992e-05,17.587,7.8651e-05,-0.003403,-0.00024068,-2399.3,0.88752
978,13.59,0.54545,0,0.00024094,2407.7,8.0874e-05,16.334,7.87e-05,-0.0053737,-0.00024066,-2399.5,0.88682
979,13.59,0.36364,0,0.00024092,2407.5,8.0761e-05,15.066,7.8754e-05,-0.018769,-0.00024066,-2399.9,0.88607
980,13.59,0.18182,0,0.00024111,2409.4,8.0827e-05,15.101,7.8817e-05,-0.0011767,-0.00024085,-2401.9,0.88527
981,13.407,5.8182,0,0.00024596,2457.9,8.2404e-05,14.807,8.0433e-05,-0.00096694,-0.00024571,-2450.5,0.8642
982,13.407,5.6364,0,0.00024574,2455.7,8.2305e-05,14.48,8.0376e-05,-0.017125,-0.00024549,-2448.5,0.86502
983,13.407,5.4545,0,0.00024574,2455.7,8.2387e-05,15.473,8.0327e-05,-0.0051765,-0.00024548,-2448,0.86578
984,13.407,5.2727,0,0.00024576,2455.9,8.2476e-05,16.474,8.0283e-05,-0.0033786,-0.00024547,-2447.6,0.86649
985,13.407,5.0909,0,0.00024578,2456.1,8.2559e-05,17.396,8.0244e-05,-0.00045173,-0.00024548,-2447.4,0.86715
986,13.407,4.9091,0,0.0002458,2456.3,8.2635e-05,18.22,8.0211e-05,0.0015198,-0.00024549,-2447.2,0.86775
987,13.407,4.7273,0,0.00024582,2456.5,8.2702e-05,18.938,8.0182e-05,0.0031658,-0.0002455,-2447,0.86829
988,13.407,4.5455,0,0.00024584,2456.7,8.276e-05,19.549,8.0158e-05,0.004429,-0.00024551,-2446.9,0.86879
989,13.407,4.3636,0,0.00024586,2456.9,8.2807e-05,20.054,8.0139e-05,0.0054063,-0.00024551,-2446.8,0.86922
990,13.407,4.1818,0,0.00024587,2457,8.2846e-05,20.461,8.0123e-05,0.0061468,-0.00024552,-2446.8,0.86961
991,13.407,4,0,0.00024589,2457.2,8.2876e-05,20.78,8.0111e-05,0.0066956,-0.00024553,-2446.7,0.86994
992,13.407,3.8182,0,0.00024589,2457.2,8.2899e-05,21.022,8.0102e-05,0.0070935,-0.00024553,-2446.7,0.87021
993,13.407,3.6364,0,0.0002459,2457.3,8.2915e-05,21.197,8.0095e-05,0.0073738,-0.00024553,-2446.6,0.87043
994,13.407,3.4545,0,0.0002459,2457.3,8.2926e-05,21.318,8.009e-05,0.0075609,-0.00024553,-2446.6,0.87059
995,13.407,3.2727,0,0.0002459,2457.3,8.2933e-05,21.393,8.0087e-05,0.0076746,-0.00024553,-2446.6,0.8707
996,13.407,3.0909,0,0.00024591,2457.4,8.2937e-05,21.429,8.0086e-05,0.0077274,-0.00024553,-2446.6,0.87076
997,13.407,2.9091,0,0.00024591,2457.4,8.2937e-05,21.429,8.0086e-05,0.007728,-0.00024553,-2446.6,0.87076
998,13.407,2.7273,0,0.0002459,2457.3,8.2933e-05,21.393,8.0087e-05,0.0076748,-0.00024553,-2446.6,0.8707
999,13.407,2.5455,0,0.0002459,2457.3,8.2926e-05,21.318,8.009e-05,0.0075609,-0.00024553,-2446.6,0.87059
1000,13.407,2.3636,0,0.0002459,2457.3,8.2915e-05,21.197,8.0095e-05,0.0073742,-0.00024553,-2446.6,0.87043
1001,13.407,2.1818,0,0.00024589,2457.2,8.2899e-05,21.022,8.0102e-05,0.0070938,-0.00024553,-2446.7,0.87021
1002,13.407,2,0,0.00024589,2457.2,8.2876e-05,20.78,8.0111e-05,0.0066971,-0.00024553,-2446.7,0.86994
1003,13.407,1.8182,0,0.00024587,2457,8.2846e-05,20.461,8.0123e-05,0.0061465,-0.00024552,-2446.8,0.86961
1004,13.407,1.6364,0,0.00024586,2456.9,8.2807e-05,20.054,8.0139e-05,0.0054068,-0.00024551,-2446.8,0.86922
1005,13.407,1.4545,0,0.00024584,2456.7,8.276e-05,19.549,8.0159e-05,0.0044292,-0.00024551,-2446.9,0.86879
1006,13.407,1.2727,0,0.00024582,2456.5,8.2702e-05,18.938,8.0182e-05,0.0031659,-0.0002455,-2447,0.86829
1007,13.407,1.0909,0,0.0002458,2456.3,8.2635e-05,18.22,8.0211e-05,0.0015205,-0.00024549,-2447.2,0.86775
1008,13.407,0.90909,0,0.00024578,2456.1,8.2559e-05,17.396,8.0244e-05,-0.00045161,-0.00024548,-2447.4,0.86715
1009,13.407,0.72727,0,0.00024576,2455.9,8.2476e-05,16.474,8.0283e-05,-0.0033772,-0.00024547,-2447.6,0.86649
1010,13.407,0.54545,0,0.00024574,2455.7,8.2387e-05,15.473,8.0327e-05,-0.0051755,-0.00024548,-2448,0.86578
1011,13.407,0.36364,0,0.00024574,2455.7,8.2305e-05,14.48,8.0376e-05,-0.017125,-0.00024549,-2448.5,0.86502
1012,13.407,0.18182,0,0.00024596,2457.9,8.2404e-05,14.807,8.0433e-05,-0.00096735,-0.00024571,-2450.5,0.8642
1013,13.223,5.8182,0,0.00025083,2506.5,8.3984e-05,14.51,8.2052e-05,-0.00079072,-0.00025058,-2499.2,0.84331
1014,13.223,5.6364,0,0.00025058,2504.1,8.3855e-05,13.913,8.2001e-05,-0.015516,-0.00025034,-2497.1,0.84414
1015,13.223,5.4545,0,0.00025056,2503.9,8.3907e-05,14.648,8.1957e-05,-0.0048986,-0.00025031,-2496.5,0.84491
1016,13.223,5.2727,0,0.00025055,2503.8,8.3969e-05,15.411,8.1917e-05,-0.0032604,-0.00025029,-2496,0.84563
1017,13.223,5.0909,0,0.00025055,2503.8,8.4027e-05,16.116,8.1882e-05,-0.00057024,-0.00025027,-2495.7,0.8463
1018,13.223,4.9091,0,0.00025055,2503.8,8.408e-05,16.748,8.1852e-05,0.0012902,-0.00025026,-2495.4,0.84691
1019,13.223,4.7273,0,0.00025056,2503.8,8.4127e-05,17.298,8.1825e-05,0.0028677,-0.00025026,-2495.1,0.84746
1020,13.223,4.5455,0,0.00025056,2503.9,8.4167e-05,17.766,8.1803e-05,0.004104,-0.00025025,-2494.9,0.84796
1021,13.223,4.3636,0,0.00025056,2503.9,8.42e-05,18.153,8.1785e-05,0.0050797,-0.00025025,-2494.8,0.84841
1022,13.223,4.1818,0,0.00025056,2503.9,8.4226e-05,18.464,8.177e-05,0.0058315,-0.00025024,-2494.6,0.8488
1023,13.223,4,0,0.00025056,2503.9,8.4247e-05,18.706,8.1758e-05,0.0064054,-0.00025024,-2494.5,0.84913
1024,13.223,3.8182,0,0.00025056,2503.9,8.4262e-05,18.889,8.1749e-05,0.0068305,-0.00025024,-2494.4,0.84941
1025,13.223,3.6364,0,0.00025056,2503.9,8.4272e-05,19.021,8.1742e-05,0.0071356,-0.00025023,-2494.3,0.84963
1026,13.223,3.4545,0,0.00025056,2503.9,8.428e-05,19.112,8.1737e-05,0.0073461,-0.00025023,-2494.3,0.8498
1027,13.223,3.2727,0,0.00025056,2503.9,8.4284e-05,19.167,8.1734e-05,0.0074755,-0.00025023,-2494.2,0.84991
1028,13.223,3.0909,0,0.00025056,2503.9,8.4286e-05,19.194,8.1732e-05,0.007538,-0.00025023,-2494.2,0.84997
1029,13.223,2.9091,0,0.00025056,2503.9,8.4286e-05,19.194,8.1732e-05,0.0075379,-0.00025023,-2494.2,0.84997
1030,13.223,2.7273,0,0.00025056,2503.9,8.4284e-05,19.167,8.1734e-05,0.007476,-0.00025023,-2494.2,0.84991
1031,13.223,2.5455,0,0.00025056,2503.9,8.428e-05,19.112,8.1737e-05,0.0073458,-0.00025023,-2494.3,0.8498
1032,13.223,2.3636,0,0.00025056,2503.9,8.4272e-05,19.021,8.1742e-05,0.0071357,-0.00025023,-2494.3,0.84963
1033,13.223,2.1818,0,0.00025056,2503.9,8.4262e-05,18.889,8.1749e-05,0.0068308,-0.00025024,-2494.4,0.84941
1034,13.223,2,0,0.00025056,2503.9,8.4247e-05,18.706,8.1758e-05,0.0064049,-0.00025024,-2494.5,0.84913
1035,13.223,1.8182,0,0.00025056,2503.9,8.4226e-05,18.464,8.177e-05,0.0058332,-0.00025024,-2494.6,0.8488
1036,13.223,1.6364,0,0.00025056,2503.9,8.42e-05,18.153,8.1785e-05,0.0050791,-0.00025025,-2494.8,0.84841
1037,13.223,1.4545,0,0.00025056,2503.9,8.4167e-05,17.766,8.1803e-05,0.0041047,-0.00025025,-2494.9,0.84796
1038,13.223,1.2727,0,0.00025056,2503.8,8.4127e-05,17.298,8.1825e-05,0.0028687,-0.00025026,-2495.1,0.84746
1039,13.223,1.0909,0,0.00025055,2503.8,8.408e-05,16.747,8.1852e-05,0.001291,-0.00025026,-2495.4,0.84691
1040,13.223,0.90909,0,0.00025055,2503.8,8.4027e-05,16.116,8.1882e-05,-0.00056942,-0.00025027,-2495.7,0.8463
1041,13.223,0.72727,0,0.00025055,2503.8,8.3969e-05,15.411,8.1917e-05,-0.0032591,-0.00025029,-2496,0.84563
1042,13.223,0.54545,0,0.00025056,2503.9,8.3907e-05,14.648,8.1957e-05,-0.0048988,-0.00025031,-2496.5,0.84491
1043,13.223,0.36364,0,0.00025058,2504.1,8.3855e-05,13.913,8.2001e-05,-0.015516,-0.00025034,-2497.1,0.84414
1044,13.223,0.18182,0,0.00025083,2506.5,8.3984e-05,14.51,8.2052e-05,-0.00078969,-0.00025058,-2499.2,0.84331
1045,13.039,5.8182,0,0.0002557,2555.2,8.5567e-05,14.207,8.3676e-05,-0.00072405,-0.00025546,-2548.1,0.82257
1046,13.039,5.6364,0,0.00025544,2552.6,8.541e-05,13.358,8.3631e-05,-0.014025,-0.00025521,-2545.9,0.82342
1047,13.039,5.4545,0,0.00025539,2552.1,8.5435e-05,13.849,8.3591e-05,-0.0046433,-0.00025515,-2545.2,0.82421
1048,13.039,5.2727,0,0.00025536,2551.9,8.5471e-05,14.384,8.3556e-05,-0.0031559,-0.00025511,-2544.6,0.82494
1049,13.039,5.0909,0,0.00025534,2551.6,8.5505e-05,14.881,8.3524e-05,-0.00069341,-0.00025508,-2544.2,0.82562
1050,13.039,4.9091,0,0.00025532,2551.5,8.5536e-05,15.325,8.3497e-05,0.0010551,-0.00025506,-2543.8,0.82624
1051,13.039,4.7273,0,0.00025531,2551.3,8.5563e-05,15.71,8.3473e-05,0.0025625,-0.00025504,-2543.4,0.8268
1052,13.039,4.5455,0,0.0002553,2551.2,8.5586e-05,16.035,8.3453e-05,0.0037682,-0.00025502,-2543.1,0.82731
1053,13.039,4.3636,0,0.00025529,2551.1,8.5605e-05,16.301,8.3436e-05,0.0047354,-0.000255,-2542.9,0.82776
1054,13.039,4.1818,0,0.00025527,2551,8.5619e-05,16.511,8.3422e-05,0.0054991,-0.00025499,-2542.7,0.82816
1055,13.039,4,0,0.00025526,2550.9,8.5629e-05,16.672,8.3411e-05,0.0060919,-0.00025498,-2542.5,0.8285
1056,13.039,3.8182,0,0.00025526,2550.8,8.5636e-05,16.791,8.3402e-05,0.0065387,-0.00025497,-2542.4,0.82878
1057,13.039,3.6364,0,0.00025525,2550.7,8.564e-05,16.875,8.3395e-05,0.0068677,-0.00025496,-2542.2,0.82901
1058,13.039,3.4545,0,0.00025524,2550.7,8.5643e-05,16.931,8.3391e-05,0.0070988,-0.00025495,-2542.2,0.82918
1059,13.039,3.2727,0,0.00025524,2550.6,8.5644e-05,16.964,8.3388e-05,0.0072432,-0.00025495,-2542.1,0.82929
1060,13.039,3.0909,0,0.00025524,2550.6,8.5645e-05,16.98,8.3386e-05,0.0073127,-0.00025494,-2542.1,0.82935
1061,13.039,2.9091,0,0.00025524,2550.6,8.5645e-05,16.98,8.3386e-05,0.0073129,-0.00025494,-2542.1,0.82935
1062,13.039,2.7273,0,0.00025524,2550.6,8.5644e-05,16.964,8.3388e-05,0.0072429,-0.00025495,-2542.1,0.82929
1063,13.039,2.5455,0,0.00025524,2550.7,8.5643e-05,16.931,8.3391e-05,0.007099,-0.00025495,-2542.2,0.82918
1064,13.039,2.3636,0,0.00025525,2550.7,8.564e-05,16.875,8.3395e-05,0.0068683,-0.00025496,-2542.2,0.82901
1065,13.039,2.1818,0,0.00025526,2550.8,8.5636e-05,16.791,8.3402e-05,0.006539,-0.00025497,-2542.4,0.82878
1066,13.039,2,0,0.00025526,2550.9,8.5629e-05,16.672,8.3411e-05,0.0060913,-0.00025498,-2542.5,0.8285
1067,13.039,1.8182,0,0.00025527,2551,8.5619e-05,16.511,8.3422e-05,0.0054988,-0.00025499,-2542.7,0.82816
1068,13.039,1.6364,0,0.00025529,2551.1,8.5605e-05,16.301,8.3436e-05,0.0047362,-0.000255,-2542.9,0.82776
1069,13.039,1.4545,0,0.0002553,2551.2,8.5586e-05,16.035,8.3453e-05,0.0037678,-0.00025502,-2543.1,0.82731
1070,13.039,1.2727,0,0.00025531,2551.3,8.5563e-05,15.71,8.3473e-05,0.0025625,-0.00025504,-2543.4,0.8268
1071,13.039,1.0909,0,0.00025532,2551.5,8.5536e-05,15.325,8.3497e-05,0.0010554,-0.00025506,-2543.8,0.82624
1072,13.039,0.90909,0,0.00025534,2551.6,8.5505e-05,14.881,8.3524e-05,-0.00069293,-0.00025508,-2544.2,0.82562
1073,13.039,0.72727,0,0.00025536,2551.9,8.547e-05,14.384,8.3556e-05,-0.0031542,-0.00025511,-2544.6,0.82494
1074,13.039,0.54545,0,0.00025539,2552.1,8.5435e-05,13.849,8.3591e-05,-0.0046428,-0.00025515,-2545.2,0.82421
1075,13.039,0.36364,0,0.00025544,2552.6,8.541e-05,13.358,8.3631e-05,-0.014024,-0.00025521,-2545.9,0.82342
1076,13.039,0.18182,0,0.0002557,2555.2,8.5567e-05,14.207,8.3676e-05,-0.00072448,-0.00025546,-2548.1,0.82257
1077,12.856,5.8182,0,0.00026059,2604.1,8.7154e-05,13.897,8.5305e-05,-0.00075999,-0.00026035,-2597.1,0.80202
1078,12.856,5.6364,0,0.00026031,2601.3,8.6971e-05,12.81,8.5264e-05,-0.01263,-0.00026009,-2594.8,0.80287
1079,12.856,5.4545,0,0.00026024,2600.6,8.697e-05,13.068,8.523e-05,-0.0044122,-0.00026001,-2594,0.80368
1080,12.856,5.2727,0,0.00026019,2600.1,8.698e-05,13.383,8.5199e-05,-0.0030692,-0.00025996,-2593.4,0.80442
1081,12.856,5.0909,0,0.00026015,2599.7,8.6991e-05,13.678,8.5171e-05,-0.00082984,-0.00025991,-2592.8,0.80511
1082,12.856,4.9091,0,0.00026011,2599.3,8.7001e-05,13.938,8.5146e-05,0.00080539,-0.00025987,-2592.4,0.80574
1083,12.856,4.7273,0,0.00026008,2599,8.701e-05,14.159,8.5125e-05,0.0022392,-0.00025984,-2591.9,0.80631
1084,12.856,4.5455,0,0.00026006,2598.8,8.7016e-05,14.34,8.5107e-05,0.0034092,-0.00025981,-2591.6,0.80683
1085,12.856,4.3636,0,0.00026003,2598.5,8.7019e-05,14.483,8.5092e-05,0.0043684,-0.00025978,-2591.2,0.80729
1086,12.856,4.1818,0,0.00026001,2598.3,8.7021e-05,14.589,8.508e-05,0.0051381,-0.00025976,-2591,0.80769
1087,12.856,4,0,0.00025999,2598.1,8.7021e-05,14.664,8.507e-05,0.0057467,-0.00025974,-2590.7,0.80804
1088,12.856,3.8182,0,0.00025997,2597.9,8.7019e-05,14.715,8.5062e-05,0.0062168,-0.00025972,-2590.5,0.80833
1089,12.856,3.6364,0,0.00025996,2597.8,8.7017e-05,14.746,8.5056e-05,0.0065671,-0.00025971,-2590.4,0.80856
1090,12.856,3.4545,0,0.00025995,2597.7,8.7015e-05,14.763,8.5051e-05,0.0068167,-0.00025969,-2590.3,0.80873
1091,12.856,3.2727,0,0.00025994,2597.6,8.7014e-05,14.772,8.5049e-05,0.0069755,-0.00025969,-2590.2,0.80884
1092,12.856,3.0909,0,0.00025994,2597.6,8.7013e-05,14.775,8.5047e-05,0.0070526,-0.00025968,-2590.2,0.8089
1093,12.856,2.9091,0,0.00025994,2597.6,8.7013e-05,14.775,8.5047e-05,0.0070523,-0.00025968,-2590.2,0.8089
1094,12.856,2.7273,0,0.00025994,2597.6,8.7014e-05,14.772,8.5049e-05,0.0069759,-0.00025969,-2590.2,0.80884
1095,12.856,2.5455,0,0.00025995,2597.7,8.7015e-05,14.763,8.5051e-05,0.0068172,-0.00025969,-2590.3,0.80873
1096,12.856,2.3636,0,0.00025996,2597.8,8.7017e-05,14.746,8.5056e-05,0.0065679,-0.00025971,-2590.4,0.80856
1097,12.856,2.1818,0,0.00025997,2597.9,8.7019e-05,14.715,8.5062e-05,0.006217,-0.00025972,-2590.5,0.80833
1098,12.856,2,0,0.00025999,2598.1,8.7021e-05,14.664,8.507e-05,0.0057475,-0.00025974,-2590.7,0.80804
1099,12.856,1.8182,0,0.00026001,2598.3,8.7021e-05,14.589,8.508e-05,0.0051389,-0.00025976,-2591,0.80769
1100,12.856,1.6364,0,0.00026003,2598.5,8.7019e-05,14.483,8.5092e-05,0.0043677,-0.00025978,-2591.2,0.80729
1101,12.856,1.4545,0,0.00026006,2598.8,8.7016e-05,14.34,8.5107e-05,0.0034103,-0.00025981,-2591.6,0.80683
1102,12.856,1.2727,0,0.00026008,2599,8.701e-05,14.159,8.5125e-05,0.0022394,-0.00025984,-2591.9,0.80631
1103,12.856,1.0909,0,0.00026011,2599.3,8.7001e-05,13.938,8.5146e-05,0.00080572,-0.00025987,-2592.4,0.80574
1104,12.856,0.90909,0,0.00026015,2599.7,8.6991e-05,13.677,8.5171e-05,-0.00082876,-0.00025991,-2592.8,0.80511
1105,12.856,0.72727,0,0.00026019,2600.1,8.698e-05,13.383,8.5199e-05,-0.0030674,-0.00025996,-2593.4,0.80442
1106,12.856,0.54545,0,0.00026024,2600.6,8.697e-05,13.068,8.523e-05,-0.0044113,-0.00026001,-2594,0.80368
1107,12.856,0.36364,0,0.00026031,2601.3,8.6971e-05,12.81,8.5264e-05,-0.01263,-0.00026009,-2594.8,0.80287
1108,12.856,0.18182,0,0.00026059,2604.1,8.7154e-05,13.897,8.5305e-05,-0.000759,-0.00026035,-2597.1,0.80202
1109,12.672,5.8182,0,0.00026549,2653.1,8.8746e-05,13.579,8.6938e-05,-0.00079238,-0.00026526,-2646.3,0.78163
1110,12.672,5.6364,0,0.00026519,2650.1,8.8537e-05,12.265,8.6904e-05,-0.011219,-0.00026498,-2643.9,0.7825
1111,12.672,5.4545,0,0.0002651,2649.2,8.8511e-05,12.297,8.6874e-05,-0.0041069,-0.00026489,-2643,0.78332
1112,12.672,5.2727,0,0.00026504,2648.5,8.8497e-05,12.4,8.6847e-05,-0.002906,-0.00026482,-2642.3,0.78408
1113,12.672,5.0909,0,0.00026498,2647.9,8.8486e-05,12.495,8.6823e-05,-0.00088931,-0.00026476,-2641.7,0.78478
1114,12.672,4.9091,0,0.00026492,2647.4,8.8475e-05,12.574,8.6802e-05,0.00062864,-0.00026471,-2641.1,0.78542
1115,12.672,4.7273,0,0.00026488,2646.9,8.8464e-05,12.632,8.6783e-05,0.0019842,-0.00026466,-2640.6,0.786
1116,12.672,4.5455,0,0.00026484,2646.5,8.8453e-05,12.669,8.6768e-05,0.0031164,-0.00026462,-2640.2,0.78653
1117,12.672,4.3636,0,0.0002648,2646.2,8.8442e-05,12.685,8.6755e-05,0.0040616,-0.00026458,-2639.8,0.78699
1118,12.672,4.1818,0,0.00026477,2645.8,8.8431e-05,12.684,8.6744e-05,0.0048378,-0.00026455,-2639.5,0.7874
1119,12.672,4,0,0.00026474,2645.5,8.8421e-05,12.67,8.6735e-05,0.0054636,-0.00026452,-2639.2,0.78775
1120,12.672,3.8182,0,0.00026471,2645.3,8.8411e-05,12.647,8.6728e-05,0.0059536,-0.00026449,-2638.9,0.78804
1121,12.672,3.6364,0,0.00026469,2645.1,8.8402e-05,12.622,8.6723e-05,0.0063282,-0.00026447,-2638.8,0.78828
1122,12.672,3.4545,0,0.00026468,2644.9,8.8395e-05,12.598,8.6719e-05,0.0065971,-0.00026446,-2638.6,0.78845
1123,12.672,3.2727,0,0.00026467,2644.8,8.839e-05,12.579,8.6717e-05,0.0067705,-0.00026445,-2638.5,0.78857
1124,12.672,3.0909,0,0.00026466,2644.8,8.8387e-05,12.57,8.6715e-05,0.0068549,-0.00026444,-2638.5,0.78863
1125,12.672,2.9091,0,0.00026466,2644.8,8.8387e-05,12.57,8.6715e-05,0.0068555,-0.00026444,-2638.5,0.78863
1126,12.672,2.7273,0,0.00026467,2644.8,8.839e-05,12.579,8.6717e-05,0.0067708,-0.00026445,-2638.5,0.78857
1127,12.672,2.5455,0,0.00026468,2644.9,8.8395e-05,12.598,8.6719e-05,0.0065967,-0.00026446,-2638.6,0.78845
1128,12.672,2.3636,0,0.00026469,2645.1,8.8402e-05,12.622,8.6723e-05,0.0063283,-0.00026447,-2638.8,0.78828
1129,12.672,2.1818,0,0.00026471,2645.3,8.8411e-05,12.647,8.6728e-05,0.0059545,-0.00026449,-2638.9,0.78804
1130,12.672,2,0,0.00026474,2645.5,8.8421e-05,12.67,8.6735e-05,0.0054628,-0.00026452,-2639.2,0.78775
1131,12.672,1.8182,0,0.00026477,2645.8,8.8431e-05,12.684,8.6744e-05,0.0048386,-0.00026455,-2639.5,0.7874
1132,12.672,1.6364,0,0.0002648,2646.2,8.8442e-05,12.685,8.6755e-05,0.0040623,-0.00026458,-2639.8,0.78699
1133,12.672,1.4545,0,0.00026484,2646.5,8.8453e-05,12.669,8.6768e-05,0.0031165,-0.00026462,-2640.2,0.78653
1134,12.672,1.2727,0,0.00026488,2646.9,8.8464e-05,12.632,8.6783e-05,0.0019844,-0.00026466,-2640.6,0.786
1135,12.672,1.0909,0,0.00026492,2647.4,8.8475e-05,12.574,8.6802e-05,0.00062877,-0.00026471,-2641.1,0.78542
1136,12.672,0.90909,0,0.00026498,2647.9,8.8486e-05,12.495,8.6823e-05,-0.00088736,-0.00026476,-2641.7,0.78478
1137,12.672,0.72727,0,0.00026504,2648.5,8.8497e-05,12.4,8.6847e-05,-0.0029048,-0.00026482,-2642.3,0.78408
1138,12.672,0.54545,0,0.0002651,2649.2,8.8511e-05,12.297,8.6874e-05,-0.0041072,-0.00026489,-2643,0.78332
1139,12.672,0.36364,0,0.00026519,2650.1,8.8537e-05,12.265,8.6904e-05,-0.011218,-0.00026498,-2643.9,0.7825
1140,12.672,0.18182,0,0.00026549,2653.1,8.8746e-05,13.579,8.6938e-05,-0.00079151,-0.00026526,-2646.3,0.78163
1141,12.488,5.8182,0,0.00027041,2702.2,9.0341e-05,13.251,8.8578e-05,-0.00089845,-0.00027018,-2695.6,0.76142
1142,12.488,5.6364,0,0.00027009,2699,9.0109e-05,11.719,8.8548e-05,-0.009861,-0.00026989,-2693.2,0.76231
1143,12.488,5.4545,0,0.00026998,2698,9.0058e-05,11.53,8.8523e-05,-0.0038137,-0.00026979,-2692.2,0.76314
1144,12.488,5.2727,0,0.0002699,2697.1,9.0021e-05,11.423,8.85e-05,-0.0027549,-0.0002697,-2691.4,0.76391
1145,12.488,5.0909,0,0.00026982,2696.4,8.9987e-05,11.323,8.848e-05,-0.00096323,-0.00026963,-2690.7,0.76462
1146,12.488,4.9091,0,0.00026975,2695.7,8.9956e-05,11.222,8.8462e-05,0.000427,-0.00026956,-2690.1,0.76527
1147,12.488,4.7273,0,0.00026969,2695.1,8.9926e-05,11.116,8.8447e-05,0.0016978,-0.0002695,-2689.5,0.76586
1148,12.488,4.5455,0,0.00026964,2694.5,8.9899e-05,11.006,8.8434e-05,0.0027856,-0.00026945,-2689,0.7664
1149,12.488,4.3636,0,0.00026959,2694,8.9873e-05,10.894,8.8423e-05,0.0037162,-0.0002694,-2688.5,0.76687
1150,12.488,4.1818,0,0.00026954,2693.6,8.9849e-05,10.782,8.8414e-05,0.0044974,-0.00026936,-2688.1,0.76729
1151,12.488,4,0,0.0002695,2693.2,8.9827e-05,10.675,8.8407e-05,0.0051413,-0.00026932,-2687.8,0.76764
1152,12.488,3.8182,0,0.00026947,2692.9,8.9808e-05,10.576,8.8402e-05,0.0056581,-0.00026929,-2687.5,0.76794
1153,12.488,3.6364,0,0.00026944,2692.6,8.9793e-05,10.49,8.8397e-05,0.0060578,-0.00026926,-2687.3,0.76818
1154,12.488,3.4545,0,0.00026943,2692.4,8.978e-05,10.422,8.8394e-05,0.006352,-0.00026925,-2687.2,0.76836
1155,12.488,3.2727,0,0.00026941,2692.3,8.9772e-05,10.375,8.8392e-05,0.0065421,-0.00026923,-2687.1,0.76847
1156,12.488,3.0909,0,0.00026941,2692.2,8.9768e-05,10.35,8.8391e-05,0.0066366,-0.00026923,-2687,0.76853
1157,12.488,2.9091,0,0.00026941,2692.2,8.9768e-05,10.35,8.8391e-05,0.006636,-0.00026923,-2687,0.76853
1158,12.488,2.7273,0,0.00026941,2692.3,8.9772e-05,10.374,8.8392e-05,0.0065417,-0.00026923,-2687.1,0.76847
1159,12.488,2.5455,0,0.00026943,2692.4,8.978e-05,10.422,8.8394e-05,0.0063519,-0.00026925,-2687.2,0.76836
1160,12.488,2.3636,0,0.00026944,2692.6,8.9793e-05,10.49,8.8397e-05,0.0060584,-0.00026926,-2687.3,0.76818
1161,12.488,2.1818,0,0.00026947,2692.9,8.9808e-05,10.576,8.8402e-05,0.005658,-0.00026929,-2687.5,0.76794
1162,12.488,2,0,0.0002695,2693.2,8.9827e-05,10.675,8.8407e-05,0.0051418,-0.00026932,-2687.8,0.76764
1163,12.488,1.8182,0,0.00026954,2693.6,8.9849e-05,10.782,8.8414e-05,0.0044978,-0.00026936,-2688.1,0.76729
1164,12.488,1.6364,0,0.00026959,2694,8.9873e-05,10.894,8.8423e-05,0.0037165,-0.0002694,-2688.5,0.76687
1165,12.488,1.4545,0,0.00026964,2694.5,8.9899e-05,11.006,8.8434e-05,0.0027859,-0.00026945,-2689,0.7664
1166,12.488,1.2727,0,0.00026969,2695.1,8.9926e-05,11.116,8.8447e-05,0.0016983,-0.0002695,-2689.5,0.76586
1167,12.488,1.0909,0,0.00026975,2695.7,8.9956e-05,11.222,8.8462e-05,0.00042836,-0.00026956,-2690.1,0.76527
1168,12.488,0.90909,0,0.00026982,2696.4,8.9987e-05,11.323,8.848e-05,-0.00096263,-0.00026963,-2690.7,0.76462
1169,12.488,0.72727,0,0.0002699,2697.1,9.0021e-05,11.423,8.85e-05,-0.0027531,-0.0002697,-2691.4,0.76391
1170,12.488,0.54545,0,0.00026998,2698,9.0058e-05,11.53,8.8523e-05,-0.0038139,-0.00026979,-2692.2,0.76314
1171,12.488,0.36364,0,0.00027009,2699,9.0109e-05,11.719,8.8548e-05,-0.0098613,-0.00026989,-2693.2,0.76231
1172,12.488,0.18182,0,0.00027041,2702.2,9.0341e-05,13.251,8.8578e-05,-0.00089657,-0.00027018,-2695.6,0.76142
1173,12.305,5.8182,0,0.00027534,2751.5,9.1942e-05,12.913,9.0223e-05,-0.001027,-0.00027512,-2745.1,0.7414
1174,12.305,5.6364,0,0.00027501,2748.2,9.1686e-05,11.167,9.0199e-05,-0.0084919,-0.00027482,-2742.6,0.7423
1175,12.305,5.4545,0,0.00027488,2746.9,9.1611e-05,10.761,9.0178e-05,-0.0034815,-0.0002747,-2741.6,0.74314
1176,12.305,5.2727,0,0.00027478,2745.9,9.155e-05,10.447,9.016e-05,-0.002568,-0.0002746,-2740.7,0.74392
1177,12.305,5.0909,0,0.00027469,2745,9.1495e-05,10.152,9.0143e-05,-0.0010142,-0.00027451,-2739.9,0.74465
1178,12.305,4.9091,0,0.0002746,2744.1,9.1443e-05,9.8698,9.0129e-05,0.00023684,-0.00027443,-2739.2,0.74531
1179,12.305,4.7273,0,0.00027452,2743.4,9.1395e-05,9.599,9.0117e-05,0.0014091,-0.00027436,-2738.5,0.74591
1180,12.305,4.5455,0,0.00027446,2742.7,9.135e-05,9.3407,9.0107e-05,0.0024437,-0.0002743,-2738,0.74645
1181,12.305,4.3636,0,0.00027439,2742,9.1309e-05,9.097,9.0099e-05,0.0033539,-0.00027424,-2737.5,0.74693
1182,12.305,4.1818,0,0.00027434,2741.5,9.1272e-05,8.8711,9.0092e-05,0.0041412,-0.00027419,-2737,0.74736
1183,12.305,4,0,0.00027429,2741,9.1239e-05,8.6668,9.0087e-05,0.0048104,-0.00027414,-2736.7,0.74772
1184,12.305,3.8182,0,0.00027425,2740.6,9.1211e-05,8.4881,9.0082e-05,0.0053591,-0.0002741,-2736.4,0.74802
1185,12.305,3.6364,0,0.00027422,2740.3,9.1188e-05,8.3392,9.0079e-05,0.0057964,-0.00027407,-2736.1,0.74826
1186,12.305,3.4545,0,0.00027419,2740,9.117e-05,8.2238,9.0077e-05,0.0061219,-0.00027405,-2735.9,0.74844
1187,12.305,3.2727,0,0.00027418,2739.9,9.1158e-05,8.145,9.0075e-05,0.0063383,-0.00027404,-2735.8,0.74856
1188,12.305,3.0909,0,0.00027417,2739.8,9.1152e-05,8.1051,9.0074e-05,0.0064455,-0.00027403,-2735.7,0.74862
1189,12.305,2.9091,0,0.00027417,2739.8,9.1152e-05,8.1051,9.0074e-05,0.0064455,-0.00027403,-2735.7,0.74862
1190,12.305,2.7273,0,0.00027418,2739.9,9.1158e-05,8.145,9.0075e-05,0.0063379,-0.00027404,-2735.8,0.74856
1191,12.305,2.5455,0,0.00027419,2740,9.117e-05,8.2238,9.0077e-05,0.0061222,-0.00027405,-2735.9,0.74844
1192,12.305,2.3636,0,0.00027422,2740.3,9.1188e-05,8.3392,9.0079e-05,0.0057961,-0.00027407,-2736.1,0.74826
1193,12.305,2.1818,0,0.00027425,2740.6,9.1211e-05,8.4881,9.0082e-05,0.0053595,-0.0002741,-2736.4,0.74802
1194,12.305,2,0,0.00027429,2741,9.1239e-05,8.6668,9.0087e-05,0.0048101,-0.00027414,-2736.7,0.74772
1195,12.305,1.8182,0,0.00027434,2741.5,9.1272e-05,8.8711,9.0092e-05,0.0041417,-0.00027419,-2737,0.74736
1196,12.305,1.6364,0,0.00027439,2742,9.1309e-05,9.097,9.0099e-05,0.0033543,-0.00027424,-2737.5,0.74693
1197,12.305,1.4545,0,0.00027446,2742.7,9.135e-05,9.3406,9.0107e-05,0.0024439,-0.0002743,-2738,0.74645
1198,12.305,1.2727,0,0.00027452,2743.4,9.1395e-05,9.5989,9.0117e-05,0.0014092,-0.00027436,-2738.5,0.74591
1199,12.305,1.0909,0,0.0002746,2744.1,9.1443e-05,9.8697,9.0129e-05,0.00023707,-0.00027443,-2739.2,0.74531
1200,12.305,0.90909,0,0.00027469,2745,9.1495e-05,10.152,9.0143e-05,-0.001012,-0.00027451,-2739.9,0.74465
1201,12.305,0.72727,0,0.00027478,2745.9,9.155e-05,10.447,9.016e-05,-0.0025666,-0.0002746,-2740.7,0.74392
1202,12.305,0.54545,0,0.00027488,2746.9,9.1611e-05,10.761,9.0178e-05,-0.0034813,-0.0002747,-2741.6,0.74314
1203,12.305,0.36364,0,0.00027501,2748.2,9.1686e-05,11.167,9.0199e-05,-0.0084916,-0.00027482,-2742.6,0.7423
1204,12.305,0.18182,0,0.00027534,2751.5,9.1942e-05,12.913,9.0223e-05,-0.0010262,-0.00027512,-2745.1,0.7414
1205,12.121,5.8182,0,0.00028029,2801,9.3546e-05,12.562,9.1874e-05,-0.0012385,-0.00028008,-2794.7,0.72156
1206,12.121,5.6364,0,0.00027994,2797.5,9.3268e-05,10.606,9.1855e-05,-0.0071603,-0.00027976,-2792.2,0.72247
1207,12.121,5.4545,0,0.0002798,2796.1,9.3169e-05,9.9836,9.1839e-05,-0.003172,-0.00027963,-2791.1,0.72333
1208,12.121,5.2727,0,0.00027968,2794.9,9.3085e-05,9.4625,9.1825e-05,-0.0024142,-0.00027952,-2790.1,0.72412
1209,12.121,5.0909,0,0.00027957,2793.8,9.3008e-05,8.9721,9.1813e-05,-0.0011162,-0.00027942,-2789.3,0.72486
1210,12.121,4.9091,0,0.00027947,2792.8,9.2935e-05,8.5076,9.1803e-05,-3.1743e-05,-0.00027932,-2788.5,0.72553
1211,12.121,4.7273,0,0.00027938,2791.8,9.2868e-05,8.0695,9.1794e-05,0.0010176,-0.00027924,-2787.8,0.72614
1212,12.121,4.5455,0,0.00027929,2791,9.2806e-05,7.6598,9.1787e-05,0.0019796,-0.00027916,-2787.2,0.72669
1213,12.121,4.3636,0,0.00027922,2790.3,9.275e-05,7.2813,9.1781e-05,0.0028602,-0.00027909,-2786.6,0.72718
1214,12.121,4.1818,0,0.00027915,2789.6,9.27e-05,6.9376,9.1777e-05,0.0036533,-0.00027903,-2786.1,0.72761
1215,12.121,4,0,0.0002791,2789,9.2655e-05,6.6325,9.1773e-05,0.0043539,-0.00027898,-2785.7,0.72798
1216,12.121,3.8182,0,0.00027905,2788.6,9.2618e-05,6.3703,9.177e-05,0.0049548,-0.00027894,-2785.4,0.72828
1217,12.121,3.6364,0,0.00027901,2788.2,9.2587e-05,6.1549,9.1768e-05,0.0054495,-0.0002789,-2785.1,0.72853
1218,12.121,3.4545,0,0.00027898,2787.9,9.2563e-05,5.9898,9.1767e-05,0.005831,-0.00027888,-2784.9,0.72871
1219,12.121,3.2727,0,0.00027896,2787.7,9.2548e-05,5.8781,9.1766e-05,0.0060895,-0.00027886,-2784.7,0.72883
1220,12.121,3.0909,0,0.00027895,2787.6,9.254e-05,5.8217,9.1766e-05,0.0062202,-0.00027885,-2784.7,0.72889
1221,12.121,2.9091,0,0.00027895,2787.6,9.254e-05,5.8217,9.1766e-05,0.0062202,-0.00027885,-2784.7,0.72889
1222,12.121,2.7273,0,0.00027896,2787.7,9.2548e-05,5.8781,9.1766e-05,0.0060896,-0.00027886,-2784.7,0.72883
1223,12.121,2.5455,0,0.00027898,2787.9,9.2563e-05,5.9898,9.1767e-05,0.0058305,-0.00027888,-2784.9,0.72871
1224,12.121,2.3636,0,0.00027901,2788.2,9.2587e-05,6.1549,9.1768e-05,0.0054494,-0.0002789,-2785.1,0.72853
1225,12.121,2.1818,0,0.00027905,2788.6,9.2618e-05,6.3703,9.177e-05,0.0049549,-0.00027894,-2785.4,0.72828
1226,12.121,2,0,0.0002791,2789,9.2655e-05,6.6325,9.1773e-05,0.0043542,-0.00027898,-2785.7,0.72798
1227,12.121,1.8182,0,0.00027915,2789.6,9.27e-05,6.9375,9.1777e-05,0.0036531,-0.00027903,-2786.1,0.72761
1228,12.121,1.6364,0,0.00027922,2790.3,9.275e-05,7.2813,9.1781e-05,0.0028607,-0.00027909,-2786.6,0.72718
1229,12.121,1.4545,0,0.00027929,2791,9.2806e-05,7.6598,9.1787e-05,0.00198,-0.00027916,-2787.2,0.72669
1230,12.121,1.2727,0,0.00027938,2791.8,9.2868e-05,8.0694,9.1794e-05,0.0010188,-0.00027924,-2787.8,0.72614
1231,12.121,1.0909,0,0.00027947,2792.8,9.2935e-05,8.5075,9.1803e-05,-3.0822e-05,-0.00027932,-2788.5,0.72553
1232,12.121,0.90909,0,0.00027957,2793.8,9.3008e-05,8.972,9.1813e-05,-0.0011147,-0.00027942,-2789.3,0.72486
1233,12.121,0.72727,0,0.00027968,2794.9,9.3085e-05,9.4624,9.1825e-05,-0.002413,-0.00027952,-2790.1,0.72412
1234,12.121,0.54545,0,0.0002798,2796.1,9.3169e-05,9.9835,9.1839e-05,-0.0031717,-0.00027963,-2791.1,0.72333
1235,12.121,0.36364,0,0.00027994,2797.5,9.3268e-05,10.606,9.1855e-05,-0.007159,-0.00027976,-2792.2,0.72247
1236,12.121,0.18182,0,0.00028029,2801,9.3546e-05,12.562,9.1874e-05,-0.0012381,-0.00028008,-2794.7,0.72156
1237,11.938,5.8182,0,0.00028526,2850.7,9.5156e-05,12.198,9.3532e-05,-0.0015419,-0.00028505,-2844.6,0.7019
1238,11.938,5.6364,0,0.0002849,2847,9.4854e-05,10.032,9.3519e-05,-0.0058623,-0.00028473,-2842,0.70283
1239,11.938,5.4545,0,0.00028474,2845.4,9.4731e-05,9.192,9.3508e-05,-0.0028914,-0.00028458,-2840.8,0.7037
1240,11.938,5.2727,0,0.0002846,2844,9.4625e-05,8.4623,9.3498e-05,-0.0023058,-0.00028445,-2839.8,0.70451
1241,11.938,5.0909,0,0.00028447,2842.8,9.4525e-05,7.7742,9.349e-05,-0.0012994,-0.00028434,-2838.9,0.70526
1242,11.938,4.9091,0,0.00028435,2841.6,9.4432e-05,7.1249,9.3484e-05,-0.00042689,-0.00028423,-2838,0.70594
1243,11.938,4.7273,0,0.00028425,2840.5,9.4346e-05,6.5164,9.3479e-05,0.00044775,-0.00028414,-2837.2,0.70656
1244,11.938,4.5455,0,0.00028415,2839.5,9.4266e-05,5.9517,9.3474e-05,0.0012882,-0.00028405,-2836.6,0.70712
1245,11.938,4.3636,0,0.00028406,2838.7,9.4194e-05,5.4344,9.3471e-05,0.002103,-0.00028397,-2835.9,0.70761
1246,11.938,4.1818,0,0.00028399,2837.9,9.413e-05,4.9688,9.3469e-05,0.0028843,-0.0002839,-2835.4,0.70805
1247,11.938,4,0,0.00028392,2837.2,9.4074e-05,4.559,9.3468e-05,0.0036253,-0.00028384,-2834.9,0.70842
1248,11.938,3.8182,0,0.00028386,2836.7,9.4026e-05,4.2095,9.3467e-05,0.0043082,-0.00028379,-2834.6,0.70873
1249,11.938,3.6364,0,0.00028382,2836.2,9.3988e-05,3.9243,9.3466e-05,0.0049125,-0.00028375,-2834.3,0.70898
1250,11.938,3.4545,0,0.00028378,2835.9,9.3958e-05,3.707,9.3465e-05,0.0054096,-0.00028372,-2834,0.70917
1251,11.938,3.2727,0,0.00028376,2835.7,9.3938e-05,3.5604,9.3465e-05,0.005765,-0.0002837,-2833.9,0.70929
1252,11.938,3.0909,0,0.00028375,2835.5,9.3928e-05,3.4866,9.3465e-05,0.0059512,-0.00028369,-2833.8,0.70935
1253,11.938,2.9091,0,0.00028375,2835.5,9.3928e-05,3.4866,9.3465e-05,0.0059513,-0.00028369,-2833.8,0.70935
1254,11.938,2.7273,0,0.00028376,2835.7,9.3938e-05,3.5604,9.3465e-05,0.005765,-0.0002837,-2833.9,0.70929
1255,11.938,2.5455,0,0.00028378,2835.9,9.3958e-05,3.707,9.3465e-05,0.00541,-0.00028372,-2834,0.70917
1256,11.938,2.3636,0,0.00028382,2836.2,9.3988e-05,3.9243,9.3466e-05,0.004913,-0.00028375,-2834.3,0.70898
1257,11.938,2.1818,0,0.00028386,2836.7,9.4026e-05,4.2095,9.3467e-05,0.0043085,-0.00028379,-2834.6,0.70873
1258,11.938,2,0,0.00028392,2837.2,9.4074e-05,4.559,9.3468e-05,0.0036253,-0.00028384,-2834.9,0.70842
1259,11.938,1.8182,0,0.00028399,2837.9,9.413e-05,4.9687,9.3469e-05,0.0028851,-0.0002839,-2835.4,0.70805
1260,11.938,1.6364,0,0.00028406,2838.7,9.4194e-05,5.4344,9.3471e-05,0.0021032,-0.00028397,-2835.9,0.70761
1261,11.938,1.4545,0,0.00028415,2839.5,9.4266e-05,5.9516,9.3474e-05,0.0012892,-0.00028405,-2836.6,0.70712
1262,11.938,1.2727,0,0.00028425,2840.5,9.4346e-05,6.5163,9.3479e-05,0.00044828,-0.00028414,-2837.2,0.70656
1263,11.938,1.0909,0,0.00028435,2841.6,9.4432e-05,7.1249,9.3484e-05,-0.00042653,-0.00028423,-2838,0.70594
1264,11.938,0.90909,0,0.00028447,2842.8,9.4525e-05,7.7742,9.349e-05,-0.0012983,-0.00028434,-2838.9,0.70526
1265,11.938,0.72727,0,0.0002846,2844,9.4625e-05,8.4622,9.3498e-05,-0.0023049,-0.00028445,-2839.8,0.70451
1266,11.938,0.54545,0,0.00028474,2845.4,9.4731e-05,9.192,9.3508e-05,-0.002891,-0.00028458,-2840.8,0.7037
1267,11.938,0.36364,0,0.0002849,2847,9.4854e-05,10.031,9.3519e-05,-0.0058611,-0.00028473,-2842,0.70283
1268,11.938,0.18182,0,0.00028526,2850.7,9.5156e-05,12.198,9.3532e-05,-0.0015416,-0.00028505,-2844.6,0.7019
1269,11.754,5.8182,0,0.00029025,2900.5,9.677e-05,11.818,9.5197e-05,-0.0018137,-0.00029005,-2894.6,0.68244
1270,11.754,5.6364,0,0.00028987,2896.7,9.6446e-05,9.4411,9.5189e-05,-0.0044524,-0.00028971,-2892,0.68339
1271,11.754,5.4545,0,0.00028969,2894.9,9.6298e-05,8.3813,9.5183e-05,-0.0025057,-0.00028955,-2890.7,0.68427
1272,11.754,5.2727,0,0.00028954,2893.4,9.6168e-05,7.4397,9.5178e-05,-0.0021219,-0.00028941,-2889.6,0.68509
1273,11.754,5.0909,0,0.00028939,2891.9,9.6046e-05,6.5504,9.5174e-05,-0.0014705,-0.00028928,-2888.6,0.68585
1274,11.754,4.9091,0,0.00028926,2890.6,9.5932e-05,5.7123,9.5172e-05,-0.00090671,-0.00028916,-2887.7,0.68654
1275,11.754,4.7273,0,0.00028913,2889.3,9.5826e-05,4.9291,9.517e-05,-0.00033457,-0.00028905,-2886.9,0.68717
1276,11.754,4.5455,0,0.00028902,2888.2,9.5729e-05,4.205,9.5169e-05,0.0002336,-0.00028895,-2886.1,0.68774
1277,11.754,4.3636,0,0.00028892,2887.2,9.5641e-05,3.5445,9.5169e-05,0.00081426,-0.00028886,-2885.5,0.68824
1278,11.754,4.1818,0,0.00028884,2886.4,9.5562e-05,2.9526,9.5169e-05,0.0014277,-0.00028878,-2884.9,0.68868
1279,11.754,4,0,0.00028876,2885.6,9.5494e-05,2.434,9.517e-05,0.0020943,-0.00028872,-2884.4,0.68906
1280,11.754,3.8182,0,0.00028869,2885,9.5436e-05,1.9933,9.5171e-05,0.0028329,-0.00028866,-2884,0.68938
1281,11.754,3.6364,0,0.00028864,2884.4,9.5389e-05,1.6348,9.5172e-05,0.0036479,-0.00028862,-2883.6,0.68963
1282,11.754,3.4545,0,0.0002886,2884.1,9.5353e-05,1.3623,9.5172e-05,0.0045009,-0.00028858,-2883.4,0.68982
1283,11.754,3.2727,0,0.00028858,2883.8,9.5329e-05,1.1787,9.5173e-05,0.0052675,-0.00028856,-2883.2,0.68994
1284,11.754,3.0909,0,0.00028857,2883.7,9.5317e-05,1.0863,9.5173e-05,0.0057415,-0.00028855,-2883.1,0.69001
1285,11.754,2.9091,0,0.00028857,2883.7,9.5317e-05,1.0863,9.5173e-05,0.005741,-0.00028855,-2883.1,0.69001
1286,11.754,2.7273,0,0.00028858,2883.8,9.5329e-05,1.1787,9.5173e-05,0.0052675,-0.00028856,-2883.2,0.68994
1287,11.754,2.5455,0,0.0002886,2884.1,9.5353e-05,1.3623,9.5172e-05,0.0045013,-0.00028858,-2883.4,0.68982
1288,11.754,2.3636,0,0.00028864,2884.4,9.5389e-05,1.6348,9.5172e-05,0.0036477,-0.00028862,-2883.6,0.68963
1289,11.754,2.1818,0,0.00028869,2885,9.5436e-05,1.9933,9.5171e-05,0.0028323,-0.00028866,-2884,0.68938
1290,11.754,2,0,0.00028876,2885.6,9.5494e-05,2.4339,9.517e-05,0.0020941,-0.00028872,-2884.4,0.68906
1291,11.754,1.8182,0,0.00028884,2886.4,9.5562e-05,2.9525,9.5169e-05,0.0014279,-0.00028878,-2884.9,0.68868
1292,11.754,1.6364,0,0.00028892,2887.2,9.5641e-05,3.5445,9.5169e-05,0.00081496,-0.00028886,-2885.5,0.68824
1293,11.754,1.4545,0,0.00028902,2888.2,9.5729e-05,4.2049,9.5169e-05,0.00023322,-0.00028895,-2886.1,0.68774
1294,11.754,1.2727,0,0.00028913,2889.3,9.5826e-05,4.9291,9.517e-05,-0.00033383,-0.00028905,-2886.9,0.68717
1295,11.754,1.0909,0,0.00028926,2890.6,9.5932e-05,5.7123,9.5172e-05,-0.00090597,-0.00028916,-2887.7,0.68654
1296,11.754,0.90909,0,0.00028939,2891.9,9.6046e-05,6.5503,9.5174e-05,-0.0014696,-0.00028928,-2888.6,0.68585
1297,11.754,0.72727,0,0.00028954,2893.4,9.6168e-05,7.4396,9.5178e-05,-0.0021207,-0.00028941,-2889.6,0.68509
1298,11.754,0.54545,0,0.00028969,2894.9,9.6298e-05,8.3813,9.5183e-05,-0.0025051,-0.00028955,-2890.7,0.68427
1299,11.754,0.36364,0,0.00028987,2896.7,9.6446e-05,9.4411,9.5189e-05,-0.0044525,-0.00028971,-2892,0.68339
1300,11.754,0.18182,0,0.00029025,2900.5,9.677e-05,11.818,9.5197e-05,-0.001814,-0.00029005,-2894.6,0.68244
1301,11.57,5.8182,0,0.00029526,2950.5,9.8389e-05,11.423,9.6869e-05,-0.0021914,-0.00029506,-2944.8,0.66317
1302,11.57,5.6364,0,0.00029486,2946.6,9.8042e-05,8.8306,9.6866e-05,-0.0030547,-0.00029471,-2942.1,0.66413
1303,11.57,5.4545,0,0.00029466,2944.6,9.7869e-05,7.5458,9.6865e-05,-0.0021501,-0.00029453,-2940.8,0.66503
1304,11.57,5.2727,0,0.00029449,2942.9,9.7715e-05,6.3874,9.6865e-05,-0.0020166,-0.00029438,-2939.7,0.66586
1305,11.57,5.0909,0,0.00029433,2941.2,9.757e-05,5.2918,9.6866e-05,-0.0018429,-0.00029424,-2938.6,0.66663
1306,11.57,4.9091,0,0.00029418,2939.7,9.7434e-05,4.2599,9.6867e-05,-0.0018215,-0.0002941,-2937.6,0.66733
1307,11.57,4.7273,0,0.00029404,2938.4,9.7308e-05,3.297,9.6869e-05,-0.0019705,-0.00029398,-2936.7,0.66797
1308,11.57,4.5455,0,0.00029391,2937.1,9.7193e-05,2.4087,9.6872e-05,-0.0024288,-0.00029387,-2935.9,0.66855
1309,11.57,4.3636,0,0.0002938,2936,9.7088e-05,1.6011,9.6875e-05,-0.0035379,-0.00029377,-2935.2,0.66906
1310,11.57,4.1818,0,0.0002937,2935,9.6995e-05,0.88125,9.6877e-05,-0.0065802,-0.00029369,-2934.5,0.66951
1311,11.57,4,0,0.00029362,2934.1,9.6916e-05,0.26605,9.6878e-05,-0.023061,-0.00029361,-2934,0.66989
1312,11.57,3.8182,0,0.00029354,2933.4,9.6886e-05,0.020975,9.6842e-05,-0.31326,-0.00029355,-2933.5,0.67021
1313,11.57,3.6364,0,0.00029348,2932.8,9.6887e-05,0.0095359,9.6788e-05,-0.73609,-0.0002935,-2933.2,0.67047
1314,11.57,3.4545,0,0.00029344,2932.4,9.6889e-05,0.0069762,9.6746e-05,-1.0629,-0.00029346,-2932.9,0.67066
1315,11.57,3.2727,0,0.00029341,2932.1,9.689e-05,0.0060044,9.6718e-05,-1.2832,-0.00029343,-2932.7,0.67079
1316,11.57,3.0909,0,0.0002934,2931.9,9.689e-05,0.0056369,9.6704e-05,-1.3941,-0.00029342,-2932.6,0.67085
1317,11.57,2.9091,0,0.0002934,2931.9,9.689e-05,0.0056367,9.6704e-05,-1.3941,-0.00029342,-2932.6,0.67085
1318,11.57,2.7273,0,0.00029341,2932.1,9.689e-05,0.0060046,9.6718e-05,-1.2832,-0.00029343,-2932.7,0.67079
1319,11.57,2.5455,0,0.00029344,2932.4,9.6889e-05,0.0069761,9.6746e-05,-1.0629,-0.00029346,-2932.9,0.67066
1320,11.57,2.3636,0,0.00029348,2932.8,9.6887e-05,0.0095359,9.6788e-05,-0.73611,-0.0002935,-2933.2,0.67047
1321,11.57,2.1818,0,0.00029354,2933.4,9.6886e-05,0.020974,9.6842e-05,-0.31329,-0.00029355,-2933.5,0.67021
1322,11.57,2,0,0.00029362,2934.1,9.6916e-05,0.26602,9.6878e-05,-0.023063,-0.00029361,-2934,0.66989
1323,11.57,1.8182,0,0.0002937,2935,9.6995e-05,0.88121,9.6877e-05,-0.0065805,-0.00029369,-2934.5,0.66951
1324,11.57,1.6364,0,0.0002938,2936,9.7088e-05,1.6011,9.6875e-05,-0.0035377,-0.00029377,-2935.2,0.66906
1325,11.57,1.4545,0,0.00029391,2937.1,9.7193e-05,2.4087,9.6872e-05,-0.0024283,-0.00029387,-2935.9,0.66855
1326,11.57,1.2727,0,0.00029404,2938.4,9.7308e-05,3.2969,9.6869e-05,-0.0019695,-0.00029398,-2936.7,0.66797
1327,11.57,1.0909,0,0.00029418,2939.7,9.7434e-05,4.2598,9.6867e-05,-0.0018208,-0.0002941,-2937.6,0.66733
1328,11.57,0.90909,0,0.00029433,2941.2,9.757e-05,5.2917,9.6866e-05,-0.0018417,-0.00029424,-2938.6,0.66663
1329,11.57,0.72727,0,0.00029449,2942.9,9.7715e-05,6.3873,9.6865e-05,-0.002016,-0.00029438,-2939.7,0.66586
1330,11.57,0.54545,0,0.00029466,2944.6,9.7869e-05,7.5458,9.6865e-05,-0.0021505,-0.00029453,-2940.8,0.66503
1331,11.57,0.36364,0,0.00029486,2946.6,9.8042e-05,8.8306,9.6866e-05,-0.0030547,-0.00029471,-2942.1,0.66413
1332,11.57,0.18182,0,0.00029526,2950.5,9.8389e-05,11.423,9.6869e-05,-0.002191,-0.00029506,-2944.8,0.66317
1333,11.387,5.8182,0,0.00030028,3000.8,0.00010001,11.009,9.8547e-05,-0.0026841,-0.00030009,-2995.2,0.64411
1334,11.387,5.6364,0,0.00029987,2996.6,9.9642e-05,8.1967,9.855e-05,-0.0016551,-0.00029973,-2992.5,0.64508
1335,11.387,5.4545,0,0.00029965,2994.5,9.9444e-05,6.6803,9.8554e-05,-0.0018213,-0.00029954,-2991.1,0.64599
1336,11.387,5.2727,0,0.00029946,2992.5,9.9265e-05,5.2984,9.8559e-05,-0.0020262,-0.00029937,-2989.9,0.64683
1337,11.387,5.0909,0,0.00029928,2990.7,9.9096e-05,3.9901,9.8565e-05,-0.002604,-0.00029921,-2988.8,0.64761
1338,11.387,4.9091,0,0.00029911,2989.1,9.8938e-05,2.7585,9.8571e-05,-0.0038803,-0.00029907,-2987.7,0.64833
1339,11.387,4.7273,0,0.00029896,2987.5,9.8792e-05,1.6117,9.8577e-05,-0.0071536,-0.00029893,-2986.7,0.64898
1340,11.387,4.5455,0,0.00029882,2986.1,9.8659e-05,0.56661,9.8581e-05,-0.022427,-0.00029881,-2985.9,0.64956
1341,11.387,4.3636,0,0.00029869,2984.9,9.8594e-05,0.031259,9.853e-05,-0.45075,-0.0002987,-2985.1,0.65008
1342,11.387,4.1818,0,0.00029858,2983.8,9.8597e-05,0.012039,9.8424e-05,-1.2919,-0.0002986,-2984.4,0.65053
1343,11.387,4,0,0.00029849,2982.8,9.8602e-05,0.0083322,9.833e-05,-2.0388,-0.00029852,-2983.8,0.65092
1344,11.387,3.8182,0,0.00029841,2982,9.8607e-05,0.0068502,9.825e-05,-2.6726,-0.00029845,-2983.3,0.65125
1345,11.387,3.6364,0,0.00029834,2981.3,9.861e-05,0.0061011,9.8186e-05,-3.1867,-0.00029839,-2982.9,0.65151
1346,11.387,3.4545,0,0.00029829,2980.8,9.8613e-05,0.0056872,9.8137e-05,-3.5762,-0.00029835,-2982.6,0.6517
1347,11.387,3.2727,0,0.00029826,2980.5,9.8615e-05,0.0054608,9.8104e-05,-3.8379,-0.00029832,-2982.4,0.65183
1348,11.387,3.0909,0,0.00029824,2980.4,9.8616e-05,0.0053585,9.8087e-05,-3.9693,-0.00029831,-2982.3,0.6519
1349,11.387,2.9091,0,0.00029824,2980.4,9.8616e-05,0.0053585,9.8087e-05,-3.9693,-0.00029831,-2982.3,0.6519
1350,11.387,2.7273,0,0.00029826,2980.5,9.8615e-05,0.0054609,9.8104e-05,-3.8379,-0.00029832,-2982.4,0.65183
1351,11.387,2.5455,0,0.00029829,2980.8,9.8613e-05,0.0056877,9.8137e-05,-3.5762,-0.00029835,-2982.6,0.6517
1352,11.387,2.3636,0,0.00029834,2981.3,9.861e-05,0.0061012,9.8186e-05,-3.1867,-0.00029839,-2982.9,0.65151
1353,11.387,2.1818,0,0.00029841,2982,9.8607e-05,0.0068499,9.825e-05,-2.6727,-0.00029845,-2983.3,0.65125
1354,11.387,2,0,0.00029849,2982.8,9.8602e-05,0.0083329,9.833e-05,-2.0389,-0.00029852,-2983.8,0.65092
1355,11.387,1.8182,0,0.00029858,2983.8,9.8597e-05,0.012039,9.8424e-05,-1.2919,-0.0002986,-2984.4,0.65053
1356,11.387,1.6364,0,0.00029869,2984.9,9.8594e-05,0.031258,9.853e-05,-0.4508,-0.0002987,-2985.1,0.65008
1357,11.387,1.4545,0,0.00029882,2986.1,9.8659e-05,0.56656,9.8581e-05,-0.022428,-0.00029881,-2985.9,0.64956
1358,11.387,1.2727,0,0.00029896,2987.5,9.8792e-05,1.6116,9.8577e-05,-0.0071537,-0.00029893,-2986.7,0.64898
1359,11.387,1.0909,0,0.00029911,2989.1,9.8938e-05,2.7584,9.8571e-05,-0.0038791,-0.00029907,-2987.7,0.64833
1360,11.387,0.90909,0,0.00029928,2990.7,9.9096e-05,3.99,9.8565e-05,-0.0026034,-0.00029921,-2988.8,0.64761
1361,11.387,0.72727,0,0.00029946,2992.5,9.9265e-05,5.2984,9.8559e-05,-0.0020247,-0.00029937,-2989.9,0.64683
1362,11.387,0.54545,0,0.00029965,2994.5,9.9444e-05,6.6803,9.8554e-05,-0.0018218,-0.00029954,-2991.1,0.64599
1363,11.387,0.36364,0,0.00029987,2996.6,9.9642e-05,8.1967,9.855e-05,-0.0016542,-0.00029973,-2992.5,0.64508
1364,11.387,0.18182,0,0.00030028,3000.8,0.00010001,11.009,9.8547e-05,-0.0026822,-0.00030009,-2995.2,0.64411
1365,11.203,5.8182,0,0.00030533,3051.2,0.00010164,10.576,0.00010023,-0.0032448,-0.00030515,-3045.9,0.62524
1366,11.203,5.6364,0,0.0003049,3046.9,0.00010125,7.536,0.00010024,-0.00018129,-0.00030477,-3043.1,0.62623
1367,11.203,5.4545,0,0.00030466,3044.5,0.00010102,5.7796,0.00010025,-0.001459,-0.00030456,-3041.6,0.62715
1368,11.203,5.2727,0,0.00030445,3042.4,0.00010082,4.1662,0.00010026,-0.0021744,-0.00030438,-3040.3,0.62801
1369,11.203,5.0909,0,0.00030425,3040.4,0.00010062,2.6377,0.00010027,-0.004302,-0.00030421,-3039.1,0.6288
1370,11.203,4.9091,0,0.00030407,3038.6,0.00010044,1.2029,0.00010028,-0.011537,-0.00030405,-3038,0.62952
1371,11.203,4.7273,0,0.0003039,3036.9,0.0001003,0.073476,0.00010026,-0.22704,-0.0003039,-3037,0.63018
1372,11.203,4.5455,0,0.00030374,3035.3,0.00010031,0.013913,0.00010012,-1.4069,-0.00030377,-3036,0.63077
1373,11.203,4.3636,0,0.0003036,3033.9,0.00010031,0.0088683,9.9977e-05,-2.5276,-0.00030365,-3035.2,0.6313
1374,11.203,4.1818,0,0.00030348,3032.7,0.00010032,0.0071114,9.9853e-05,-3.5302,-0.00030354,-3034.5,0.63176
1375,11.203,4,0,0.00030337,3031.6,0.00010033,0.006254,9.9744e-05,-4.4049,-0.00030345,-3033.8,0.63215
1376,11.203,3.8182,0,0.00030328,3030.7,0.00010034,0.0057668,9.9653e-05,-5.1448,-0.00030337,-3033.3,0.63248
1377,11.203,3.6364,0,0.00030321,3030,0.00010034,0.0054697,9.9579e-05,-5.744,-0.00030331,-3032.9,0.63275
1378,11.203,3.4545,0,0.00030315,3029.4,0.00010035,0.0052874,9.9523e-05,-6.1978,-0.00030326,-3032.5,0.63294
1379,11.203,3.2727,0,0.00030312,3029.1,0.00010035,0.0051786,9.9485e-05,-6.5024,-0.00030323,-3032.3,0.63308
1380,11.203,3.0909,0,0.0003031,3028.9,0.00010035,0.0051289,9.9466e-05,-6.6553,-0.00030321,-3032.2,0.63314
1381,11.203,2.9091,0,0.0003031,3028.9,0.00010035,0.0051288,9.9466e-05,-6.6553,-0.00030321,-3032.2,0.63314
1382,11.203,2.7273,0,0.00030312,3029.1,0.00010035,0.0051796,9.9485e-05,-6.5024,-0.00030323,-3032.3,0.63308
1383,11.203,2.5455,0,0.00030315,3029.4,0.00010035,0.0052874,9.9523e-05,-6.1978,-0.00030326,-3032.5,0.63294
1384,11.203,2.3636,0,0.00030321,3030,0.00010034,0.0054701,9.9579e-05,-5.7441,-0.00030331,-3032.9,0.63275
1385,11.203,2.1818,0,0.00030328,3030.7,0.00010034,0.0057671,9.9653e-05,-5.1448,-0.00030337,-3033.3,0.63248
1386,11.203,2,0,0.00030337,3031.6,0.00010033,0.0062542,9.9744e-05,-4.4049,-0.00030345,-3033.8,0.63215
1387,11.203,1.8182,0,0.00030348,3032.7,0.00010032,0.0071116,9.9853e-05,-3.5302,-0.00030354,-3034.5,0.63176
1388,11.203,1.6364,0,0.0003036,3033.9,0.00010031,0.0088689,9.9977e-05,-2.5277,-0.00030365,-3035.2,0.6313
1389,11.203,1.4545,0,0.00030374,3035.3,0.00010031,0.013913,0.00010012,-1.407,-0.00030377,-3036,0.63077
1390,11.203,1.2727,0,0.0003039,3036.9,0.0001003,0.073466,0.00010026,-0.22708,-0.0003039,-3037,0.63018
1391,11.203,1.0909,0,0.00030407,3038.6,0.00010044,1.2029,0.00010028,-0.011538,-0.00030405,-3038,0.62952
1392,11.203,0.90909,0,0.00030425,3040.4,0.00010062,2.6376,0.00010027,-0.0043003,-0.00030421,-3039.1,0.6288
1393,11.203,0.72727,0,0.00030445,3042.4,0.00010082,4.1661,0.00010026,-0.002173,-0.00030438,-3040.3,0.62801
1394,11.203,0.54545,0,0.00030466,3044.5,0.00010102,5.7796,0.00010025,-0.0014596,-0.00030456,-3041.6,0.62715
1395,11.203,0.36364,0,0.0003049,3046.9,0.00010125,7.536,0.00010024,-0.00018079,-0.00030477,-3043.1,0.62623
1396,11.203,0.18182,0,0.00030533,3051.2,0.00010164,10.576,0.00010023,-0.0032434,-0.00030515,-3045.9,0.62524
1397,11.019,5.8182,0,0.00031039,3101.8,0.00010327,10.121,0.00010193,-0.0039529,-0.00031022,-3096.7,0.60657
1398,11.019,5.6364,0,0.00030994,3097.3,0.00010285,6.8446,0.00010194,0.0013198,-0.00030983,-3093.9,0.60758
1399,11.019,5.4545,0,0.00030969,3094.8,0.0001026,4.838,0.00010196,-0.0011279,-0.00030961,-3092.3,0.60851
1400,11.019,5.2727,0,0.00030946,3092.4,0.00010237,2.9834,0.00010197,-0.0027638,-0.00030941,-3091,0.60938
1401,11.019,5.0909,0,0.00030924,3090.3,0.00010215,1.229,0.00010199,-0.01051,-0.00030922,-3089.7,0.61019
1402,11.019,4.9091,0,0.00030904,3088.2,0.00010201,0.036593,0.00010194,-0.4787,-0.00030905,-3088.5,0.61092
1403,11.019,4.7273,0,0.00030885,3086.4,0.00010202,0.011039,0.00010175,-2.0021,-0.00030888,-3087.4,0.61159
1404,11.019,4.5455,0,0.00030868,3084.7,0.00010203,0.0077415,0.00010158,-3.426,-0.00030874,-3086.4,0.61219
1405,11.019,4.3636,0,0.00030853,3083.1,0.00010205,0.0064902,0.00010142,-4.7206,-0.00030861,-3085.5,0.61272
1406,11.019,4.1818,0,0.00030839,3081.8,0.00010206,0.005851,0.00010128,-5.8756,-0.00030849,-3084.7,0.61319
1407,11.019,4,0,0.00030827,3080.6,0.00010207,0.005473,0.00010115,-6.8823,-0.00030839,-3084,0.61359
1408,11.019,3.8182,0,0.00030817,3079.6,0.00010208,0.0052311,0.00010105,-7.7333,-0.0003083,-3083.4,0.61392
1409,11.019,3.6364,0,0.00030809,3078.8,0.00010209,0.005071,0.00010097,-8.4221,-0.00030823,-3083,0.61419
1410,11.019,3.4545,0,0.00030803,3078.2,0.00010209,0.0049665,0.0001009,-8.9435,-0.00030818,-3082.6,0.61439
1411,11.019,3.2727,0,0.00030799,3077.8,0.0001021,0.004902,0.00010086,-9.2933,-0.00030815,-3082.4,0.61452
1412,11.019,3.0909,0,0.00030797,3077.6,0.0001021,0.0048714,0.00010084,-9.469,-0.00030813,-3082.3,0.61459
1413,11.019,2.9091,0,0.00030797,3077.6,0.0001021,0.004871,0.00010084,-9.469,-0.00030813,-3082.3,0.61459
1414,11.019,2.7273,0,0.00030799,3077.8,0.0001021,0.0049019,0.00010086,-9.2933,-0.00030815,-3082.4,0.61452
1415,11.019,2.5455,0,0.00030803,3078.2,0.00010209,0.0049666,0.0001009,-8.9435,-0.00030818,-3082.6,0.61439
1416,11.019,2.3636,0,0.00030809,3078.8,0.00010209,0.0050711,0.00010097,-8.4221,-0.00030823,-3083,0.61419
1417,11.019,2.1818,0,0.00030817,3079.6,0.00010208,0.0052311,0.00010105,-7.7333,-0.0003083,-3083.4,0.61392
1418,11.019,2,0,0.00030827,3080.6,0.00010207,0.005474,0.00010115,-6.8824,-0.00030839,-3084,0.61359
1419,11.019,1.8182,0,0.00030839,3081.8,0.00010206,0.0058511,0.00010128,-5.8756,-0.00030849,-3084.7,0.61319
1420,11.019,1.6364,0,0.00030853,3083.1,0.00010205,0.0064903,0.00010142,-4.7207,-0.00030861,-3085.5,0.61272
1421,11.019,1.4545,0,0.00030868,3084.7,0.00010203,0.0077419,0.00010158,-3.426,-0.00030874,-3086.4,0.61219
1422,11.019,1.2727,0,0.00030885,3086.4,0.00010202,0.01104,0.00010175,-2.0021,-0.00030888,-3087.4,0.61159
1423,11.019,1.0909,0,0.00030904,3088.2,0.00010201,0.03659,0.00010194,-0.47875,-0.00030905,-3088.5,0.61092
1424,11.019,0.90909,0,0.00030924,3090.3,0.00010215,1.2289,0.00010199,-0.010509,-0.00030922,-3089.7,0.61019
1425,11.019,0.72727,0,0.00030946,3092.4,0.00010237,2.9833,0.00010197,-0.0027628,-0.00030941,-3091,0.60938
1426,11.019,0.54545,0,0.00030969,3094.8,0.0001026,4.838,0.00010196,-0.0011281,-0.00030961,-3092.3,0.60851
1427,11.019,0.36364,0,0.00030994,3097.3,0.00010285,6.8445,0.00010194,0.001321,-0.00030983,-3093.9,0.60758
1428,11.019,0.18182,0,0.00031039,3101.8,0.00010327,10.121,0.00010193,-0.0039521,-0.00031022,-3096.7,0.60657
1429,10.836,5.8182,0,0.00031548,3152.6,0.00010491,9.6442,0.00010363,-0.0047397,-0.00031531,-3147.8,0.58812
1430,10.836,5.6364,0,0.00031501,3147.9,0.00010446,6.1191,0.00010365,0.0029561,-0.00031491,-3144.9,0.58914
1431,10.836,5.4545,0,0.00031473,3145.2,0.00010418,3.8504,0.00010367,-0.00074791,-0.00031467,-3143.2,0.59009
1432,10.836,5.2727,0,0.00031448,3142.7,0.00010393,1.7441,0.00010369,-0.004679,-0.00031445,-3141.8,0.59097
1433,10.836,5.0909,0,0.00031425,3140.3,0.00010372,0.048242,0.00010367,-0.31387,-0.00031425,-3140.4,0.59178
1434,10.836,4.9091,0,0.00031402,3138.1,0.00010374,0.010074,0.00010345,-2.1659,-0.00031406,-3139.1,0.59253
1435,10.836,4.7273,0,0.00031382,3136,0.00010376,0.0071669,0.00010323,-3.9263,-0.00031388,-3138,0.59321
1436,10.836,4.5455,0,0.00031363,3134.1,0.00010377,0.0061307,0.00010303,-5.5501,-0.00031372,-3136.9,0.59381
1437,10.836,4.3636,0,0.00031346,3132.5,0.00010379,0.0056013,0.00010285,-7.0248,-0.00031358,-3136,0.59436
1438,10.836,4.1818,0,0.00031331,3131,0.00010381,0.0052834,0.0001027,-8.3397,-0.00031345,-3135.1,0.59483
1439,10.836,4,0,0.00031318,3129.7,0.00010382,0.0050731,0.00010256,-9.4855,-0.00031334,-3134.4,0.59523
1440,10.836,3.8182,0,0.00031307,3128.6,0.00010383,0.0049262,0.00010244,-10.454,-0.00031325,-3133.8,0.59557
1441,10.836,3.6364,0,0.00031298,3127.7,0.00010384,0.0048222,0.00010234,-11.237,-0.00031317,-3133.3,0.59584
1442,10.836,3.4545,0,0.00031292,3127,0.00010385,0.0047514,0.00010227,-11.83,-0.00031312,-3132.9,0.59605
1443,10.836,3.2727,0,0.00031287,3126.6,0.00010385,0.0047061,0.00010223,-12.228,-0.00031308,-3132.7,0.59618
1444,10.836,3.0909,0,0.00031285,3126.3,0.00010386,0.0046832,0.0001022,-12.428,-0.00031306,-3132.5,0.59625
1445,10.836,2.9091,0,0.00031285,3126.3,0.00010386,0.0046834,0.0001022,-12.428,-0.00031306,-3132.5,0.59625
1446,10.836,2.7273,0,0.00031287,3126.6,0.00010385,0.0047065,0.00010223,-12.228,-0.00031308,-3132.7,0.59618
1447,10.836,2.5455,0,0.00031292,3127,0.00010385,0.004752,0.00010227,-11.83,-0.00031312,-3132.9,0.59605
1448,10.836,2.3636,0,0.00031298,3127.7,0.00010384,0.0048216,0.00010234,-11.237,-0.00031317,-3133.3,0.59584
1449,10.836,2.1818,0,0.00031307,3128.6,0.00010383,0.0049265,0.00010244,-10.454,-0.00031325,-3133.8,0.59557
1450,10.836,2,0,0.00031318,3129.7,0.00010382,0.0050738,0.00010256,-9.4855,-0.00031334,-3134.4,0.59523
1451,10.836,1.8182,0,0.00031331,3131,0.00010381,0.0052836,0.0001027,-8.3398,-0.00031345,-3135.1,0.59483
1452,10.836,1.6364,0,0.00031346,3132.5,0.00010379,0.0056014,0.00010285,-7.0248,-0.00031358,-3136,0.59436
1453,10.836,1.4545,0,0.00031363,3134.1,0.00010377,0.0061312,0.00010303,-5.5502,-0.00031372,-3136.9,0.59381
1454,10.836,1.2727,0,0.00031382,3136,0.00010376,0.0071672,0.00010323,-3.9264,-0.00031388,-3138,0.59321
1455,10.836,1.0909,0,0.00031402,3138.1,0.00010374,0.010075,0.00010345,-2.1659,-0.00031406,-3139.1,0.59253
1456,10.836,0.90909,0,0.00031425,3140.3,0.00010372,0.048238,0.00010367,-0.31392,-0.00031425,-3140.4,0.59178
1457,10.836,0.72727,0,0.00031448,3142.7,0.00010393,1.7441,0.00010369,-0.0046792,-0.00031445,-3141.8,0.59097
1458,10.836,0.54545,0,0.00031473,3145.2,0.00010418,3.8504,0.00010367,-0.00074869,-0.00031467,-3143.2,0.59009
1459,10.836,0.36364,0,0.00031501,3147.9,0.00010446,6.1191,0.00010365,0.0029568,-0.00031491,-3144.9,0.58914
1460,10.836,0.18182,0,0.00031548,3152.6,0.00010491,9.6441,0.00010363,-0.0047374,-0.00031531,-3147.8,0.58812
1461,10.652,5.8182,0,0.00032058,3203.6,0.00010656,9.142,0.00010534,-0.0057664,-0.00032042,-3199,0.56988
1462,10.652,5.6364,0,0.0003201,3198.8,0.00010608,5.3555,0.00010537,0.0046069,-0.00032001,-3196.1,0.57091
1463,10.652,5.4545,0,0.0003198,3195.8,0.00010577,2.8107,0.00010539,-0.00050236,-0.00031975,-3194.4,0.57187
1464,10.652,5.2727,0,0.00031952,3193,0.00010548,0.4531,0.00010542,-0.02058,-0.00031952,-3192.8,0.57277
1465,10.652,5.0909,0,0.00031927,3190.5,0.00010545,0.00995,0.0001052,-1.8386,-0.0003193,-3191.4,0.57359
1466,10.652,4.9091,0,0.00031902,3188,0.00010548,0.0067644,0.00010495,-3.9677,-0.00031909,-3190,0.57435
1467,10.652,4.7273,0,0.0003188,3185.8,0.0001055,0.005813,0.00010471,-5.9565,-0.0003189,-3188.8,0.57503
1468,10.652,4.5455,0,0.0003186,3183.8,0.00010552,0.005355,0.00010449,-7.7896,-0.00031873,-3187.6,0.57565
1469,10.652,4.3636,0,0.00031841,3181.9,0.00010554,0.0050758,0.00010428,-9.4541,-0.00031857,-3186.6,0.5762
1470,10.652,4.1818,0,0.00031825,3180.3,0.00010556,0.0048833,0.00010411,-10.938,-0.00031843,-3185.7,0.57668
1471,10.652,4,0,0.0003181,3178.8,0.00010558,0.0047434,0.00010395,-12.231,-0.00031831,-3184.9,0.57709
1472,10.652,3.8182,0,0.00031798,3177.6,0.00010559,0.0046363,0.00010382,-13.323,-0.00031821,-3184.3,0.57743
1473,10.652,3.6364,0,0.00031789,3176.7,0.00010561,0.0045557,0.00010371,-14.207,-0.00031813,-3183.7,0.57771
1474,10.652,3.4545,0,0.00031781,3175.9,0.00010561,0.0044987,0.00010363,-14.876,-0.00031806,-3183.3,0.57791
1475,10.652,3.2727,0,0.00031776,3175.4,0.00010562,0.0044601,0.00010358,-15.325,-0.00031802,-3183.1,0.57805
1476,10.652,3.0909,0,0.00031774,3175.2,0.00010562,0.0044412,0.00010355,-15.55,-0.000318,-3182.9,0.57812
1477,10.652,2.9091,0,0.00031774,3175.2,0.00010562,0.0044414,0.00010355,-15.55,-0.000318,-3182.9,0.57812
1478,10.652,2.7273,0,0.00031776,3175.4,0.00010562,0.0044606,0.00010358,-15.325,-0.00031802,-3183.1,0.57805
1479,10.652,2.5455,0,0.00031781,3175.9,0.00010561,0.004498,0.00010363,-14.876,-0.00031806,-3183.3,0.57791
1480,10.652,2.3636,0,0.00031789,3176.7,0.00010561,0.0045563,0.00010371,-14.207,-0.00031813,-3183.7,0.57771
1481,10.652,2.1818,0,0.00031798,3177.6,0.00010559,0.0046365,0.00010382,-13.323,-0.00031821,-3184.3,0.57743
1482,10.652,2,0,0.0003181,3178.8,0.00010558,0.0047431,0.00010395,-12.231,-0.00031831,-3184.9,0.57709
1483,10.652,1.8182,0,0.00031825,3180.3,0.00010556,0.0048853,0.00010411,-10.938,-0.00031843,-3185.7,0.57668
1484,10.652,1.6364,0,0.00031841,3181.9,0.00010554,0.0050759,0.00010428,-9.4542,-0.00031857,-3186.6,0.5762
1485,10.652,1.4545,0,0.0003186,3183.8,0.00010552,0.005357,0.00010449,-7.7897,-0.00031873,-3187.6,0.57565
1486,10.652,1.2727,0,0.0003188,3185.8,0.0001055,0.0058135,0.00010471,-5.9566,-0.0003189,-3188.8,0.57503
1487,10.652,1.0909,0,0.00031902,3188,0.00010548,0.0067654,0.00010495,-3.9678,-0.00031909,-3190,0.57435
1488,10.652,0.90909,0,0.00031927,3190.5,0.00010545,0.0099506,0.0001052,-1.8386,-0.0003193,-3191.4,0.57359
1489,10.652,0.72727,0,0.00031952,3193,0.00010548,0.45305,0.00010542,-0.020582,-0.00031952,-3192.8,0.57277
1490,10.652,0.54545,0,0.0003198,3195.8,0.00010577,2.8107,0.00010539,-0.00050189,-0.00031975,-3194.4,0.57187
1491,10.652,0.36364,0,0.0003201,3198.8,0.00010608,5.3554,0.00010537,0.0046074,-0.00032001,-3196.1,0.57091
1492,10.652,0.18182,0,0.00032058,3203.6,0.00010656,9.142,0.00010534,-0.005765,-0.00032042,-3199,0.56988
1493,10.468,5.8182,0,0.00032571,3254.8,0.0001082,8.613,0.00010706,-0.0070951,-0.00032556,-3250.5,0.55185
1494,10.468,5.6364,0,0.0003252,3249.8,0.0001077,4.5496,0.00010709,0.0062712,-0.00032512,-3247.5,0.5529
1495,10.468,5.4545,0,0.00032488,3246.6,0.00010735,1.7133,0.00010713,-0.00062617,-0.00032485,-3245.7,0.55387
1496,10.468,5.2727,0,0.00032458,3243.6,0.00010716,0.012249,0.00010703,-0.96029,-0.0003246,-3244.1,0.55478
1497,10.468,5.0909,0,0.0003243,3240.8,0.00010719,0.0064044,0.00010673,-3.4866,-0.00032436,-3242.5,0.55561
1498,10.468,4.9091,0,0.00032404,3238.2,0.00010722,0.0055282,0.00010644,-5.8744,-0.00032414,-3241.1,0.55638
1499,10.468,4.7273,0,0.0003238,3235.7,0.00010725,0.0051092,0.00010618,-8.1035,-0.00032393,-3239.8,0.55708
1500,10.468,4.5455,0,0.00032357,3233.5,0.00010728,0.0048613,0.00010593,-10.158,-0.00032374,-3238.6,0.5577
1501,10.468,4.3636,0,0.00032337,3231.5,0.00010731,0.0046782,0.00010571,-12.024,-0.00032357,-3237.5,0.55826
1502,10.468,4.1818,0,0.00032319,3229.7,0.00010733,0.0045369,0.00010551,-13.687,-0.00032342,-3236.5,0.55874
1503,10.468,4,0,0.00032304,3228.1,0.00010735,0.0044226,0.00010534,-15.136,-0.00032329,-3235.7,0.55916
1504,10.468,3.8182,0,0.0003229,3226.8,0.00010737,0.0043278,0.00010519,-16.361,-0.00032318,-3235,0.55951
1505,10.468,3.6364,0,0.0003228,3225.8,0.00010738,0.0042548,0.00010507,-17.351,-0.00032309,-3234.4,0.55979
1506,10.468,3.4545,0,0.00032272,3225,0.00010739,0.004199,0.00010498,-18.101,-0.00032302,-3234,0.55999
1507,10.468,3.2727,0,0.00032267,3224.4,0.0001074,0.0041626,0.00010492,-18.604,-0.00032298,-3233.7,0.56013
1508,10.468,3.0909,0,0.00032264,3224.2,0.0001074,0.0041436,0.00010489,-18.856,-0.00032295,-3233.5,0.5602
1509,10.468,2.9091,0,0.00032264,3224.2,0.0001074,0.0041433,0.00010489,-18.856,-0.00032295,-3233.5,0.5602
1510,10.468,2.7273,0,0.00032267,3224.4,0.0001074,0.0041624,0.00010492,-18.604,-0.00032298,-3233.7,0.56013
1511,10.468,2.5455,0,0.00032272,3225,0.00010739,0.0042001,0.00010498,-18.101,-0.00032302,-3234,0.55999
1512,10.468,2.3636,0,0.0003228,3225.8,0.00010738,0.0042544,0.00010507,-17.351,-0.00032309,-3234.4,0.55979
1513,10.468,2.1818,0,0.0003229,3226.8,0.00010737,0.0043292,0.00010519,-16.361,-0.00032318,-3235,0.55951
1514,10.468,2,0,0.00032304,3228.1,0.00010735,0.004423,0.00010534,-15.136,-0.00032329,-3235.7,0.55916
1515,10.468,1.8182,0,0.00032319,3229.7,0.00010733,0.0045371,0.00010551,-13.687,-0.00032342,-3236.5,0.55874
1516,10.468,1.6364,0,0.00032337,3231.5,0.00010731,0.0046788,0.00010571,-12.024,-0.00032357,-3237.5,0.55826
1517,10.468,1.4545,0,0.00032357,3233.5,0.00010728,0.0048612,0.00010593,-10.158,-0.00032374,-3238.6,0.5577
1518,10.468,1.2727,0,0.0003238,3235.7,0.00010725,0.0051098,0.00010618,-8.1036,-0.00032393,-3239.8,0.55708
1519,10.468,1.0909,0,0.00032404,3238.2,0.00010722,0.0055294,0.00010644,-5.8745,-0.00032414,-3241.1,0.55638
1520,10.468,0.90909,0,0.0003243,3240.8,0.00010719,0.0064053,0.00010673,-3.4866,-0.00032436,-3242.5,0.55561
1521,10.468,0.72727,0,0.00032458,3243.6,0.00010716,0.01225,0.00010703,-0.96034,-0.0003246,-3244.1,0.55478
1522,10.468,0.54545,0,0.00032488,3246.6,0.00010735,1.7132,0.00010713,-0.00062581,-0.00032485,-3245.7,0.55387
1523,10.468,0.36364,0,0.0003252,3249.8,0.0001077,4.5496,0.00010709,0.0062716,-0.00032512,-3247.5,0.5529
1524,10.468,0.18182,0,0.00032571,3254.8,0.0001082,8.613,0.00010706,-0.0070945,-0.00032556,-3250.5,0.55185
1525,10.285,5.8182,0,0.00033085,3306.3,0.00010986,8.0556,0.00010878,-0.0086872,-0.00033072,-3302.2,0.53404
1526,10.285,5.6364,0,0.00033033,3301,0.00010932,3.6977,0.00010883,0.0080531,-0.00033026,-3299.1,0.5351
1527,10.285,5.4545,0,0.00032998,3297.5,0.00010894,0.55442,0.00010887,-0.0033043,-0.00032997,-3297.3,0.53609
1528,10.285,5.2727,0,0.00032966,3294.3,0.00010891,0.0065483,0.00010859,-2.4165,-0.0003297,-3295.5,0.53701
1529,10.285,5.0909,0,0.00032936,3291.3,0.00010895,0.0053224,0.00010825,-5.2351,-0.00032944,-3293.9,0.53786
1530,10.285,4.9091,0,0.00032907,3288.4,0.00010898,0.0050178,0.00010793,-7.8959,-0.0003292,-3292.4,0.53863
1531,10.285,4.7273,0,0.00032881,3285.8,0.00010902,0.0047775,0.00010764,-10.38,-0.00032898,-3291,0.53934
1532,10.285,4.5455,0,0.00032856,3283.4,0.00010905,0.004604,0.00010737,-12.67,-0.00032878,-3289.7,0.53997
1533,10.285,4.3636,0,0.00032834,3281.2,0.00010908,0.0044535,0.00010712,-14.75,-0.00032859,-3288.5,0.54053
1534,10.285,4.1818,0,0.00032815,3279.2,0.00010911,0.0043233,0.0001069,-16.604,-0.00032843,-3287.5,0.54103
1535,10.285,4,0,0.00032798,3277.5,0.00010913,0.004211,0.00010671,-18.22,-0.00032828,-3286.6,0.54145
1536,10.285,3.8182,0,0.00032783,3276.1,0.00010915,0.004114,0.00010655,-19.585,-0.00032816,-3285.8,0.5418
1537,10.285,3.6364,0,0.00032772,3274.9,0.00010917,0.0040354,0.00010642,-20.689,-0.00032807,-3285.2,0.54208
1538,10.285,3.4545,0,0.00032763,3274.1,0.00010918,0.0039765,0.00010632,-21.524,-0.00032799,-3284.8,0.54229
1539,10.285,3.2727,0,0.00032757,3273.5,0.00010919,0.0039358,0.00010625,-22.085,-0.00032794,-3284.5,0.54243
1540,10.285,3.0909,0,0.00032754,3273.2,0.0001092,0.0039146,0.00010622,-22.366,-0.00032792,-3284.3,0.5425
1541,10.285,2.9091,0,0.00032754,3273.2,0.0001092,0.003915,0.00010622,-22.366,-0.00032792,-3284.3,0.5425
1542,10.285,2.7273,0,0.00032757,3273.5,0.00010919,0.0039359,0.00010625,-22.085,-0.00032794,-3284.5,0.54243
1543,10.285,2.5455,0,0.00032763,3274.1,0.00010918,0.0039768,0.00010632,-21.525,-0.00032799,-3284.8,0.54229
1544,10.285,2.3636,0,0.00032772,3274.9,0.00010917,0.0040359,0.00010642,-20.689,-0.00032807,-3285.2,0.54208
1545,10.285,2.1818,0,0.00032783,3276.1,0.00010915,0.0041139,0.00010655,-19.585,-0.00032816,-3285.8,0.5418
1546,10.285,2,0,0.00032798,3277.5,0.00010913,0.0042112,0.00010671,-18.22,-0.00032828,-3286.6,0.54145
1547,10.285,1.8182,0,0.00032815,3279.2,0.00010911,0.0043237,0.0001069,-16.604,-0.00032843,-3287.5,0.54103
1548,10.285,1.6364,0,0.00032834,3281.2,0.00010908,0.004454,0.00010712,-14.75,-0.00032859,-3288.5,0.54053
1549,10.285,1.4545,0,0.00032856,3283.4,0.00010905,0.0046049,0.00010737,-12.67,-0.00032878,-3289.7,0.53997
1550,10.285,1.2727,0,0.00032881,3285.8,0.00010902,0.0047781,0.00010764,-10.38,-0.00032898,-3291,0.53934
1551,10.285,1.0909,0,0.00032907,3288.4,0.00010898,0.0050184,0.00010793,-7.896,-0.0003292,-3292.4,0.53863
1552,10.285,0.90909,0,0.00032936,3291.3,0.00010895,0.0053233,0.00010825,-5.2352,-0.00032944,-3293.9,0.53786
1553,10.285,0.72727,0,0.00032966,3294.3,0.00010891,0.006549,0.00010859,-2.4165,-0.0003297,-3295.5,0.53701
1554,10.285,0.54545,0,0.00032998,3297.5,0.00010894,0.55438,0.00010887,-0.0033044,-0.00032997,-3297.3,0.53609
1555,10.285,0.36364,0,0.00033033,3301,0.00010932,3.6977,0.00010883,0.0080548,-0.00033026,-3299.1,0.5351
1556,10.285,0.18182,0,0.00033085,3306.3,0.00010986,8.0555,0.00010878,-0.0086865,-0.00033072,-3302.2,0.53404
1557,10.101,5.8182,0,0.00033602,3357.9,0.00011151,7.4671,0.00011052,-0.010768,-0.00033589,-3354.2,0.51645
1558,10.101,5.6364,0,0.00033547,3352.4,0.00011094,2.795,0.00011057,0.009787,-0.00033543,-3351,0.51753
1559,10.101,5.4545,0,0.0003351,3348.7,0.00011062,0.0060382,0.00011053,-0.68745,-0.00033511,-3349,0.51853
1560,10.101,5.2727,0,0.00033475,3345.2,0.00011067,0.0054845,0.00011014,-3.9678,-0.00033482,-3347.2,0.51946
1561,10.101,5.0909,0,0.00033442,3341.9,0.00011071,0.0049105,0.00010977,-7.0936,-0.00033454,-3345.5,0.52032
1562,10.101,4.9091,0,0.00033411,3338.8,0.00011076,0.0047722,0.00010942,-10.045,-0.00033428,-3343.8,0.52111
1563,10.101,4.7273,0,0.00033383,3336,0.0001108,0.0045767,0.00010909,-12.801,-0.00033404,-3342.3,0.52182
1564,10.101,4.5455,0,0.00033356,3333.3,0.00011084,0.0044158,0.00010879,-15.342,-0.00033382,-3341,0.52246
1565,10.101,4.3636,0,0.00033332,3330.9,0.00011087,0.0042583,0.00010852,-17.649,-0.00033362,-3339.7,0.52303
1566,10.101,4.1818,0,0.00033311,3328.8,0.0001109,0.0041182,0.00010828,-19.707,-0.00033344,-3338.6,0.52353
1567,10.101,4,0,0.00033293,3327,0.00011093,0.0039911,0.00010807,-21.501,-0.00033329,-3337.7,0.52396
1568,10.101,3.8182,0,0.00033277,3325.4,0.00011095,0.0038819,0.00010789,-23.016,-0.00033316,-3336.9,0.52431
1569,10.101,3.6364,0,0.00033265,3324.2,0.00011097,0.0037911,0.00010775,-24.242,-0.00033305,-3336.2,0.5246
1570,10.101,3.4545,0,0.00033255,3323.2,0.00011099,0.0037228,0.00010764,-25.169,-0.00033297,-3335.7,0.52481
1571,10.101,3.2727,0,0.00033249,3322.6,0.000111,0.0036749,0.00010756,-25.791,-0.00033292,-3335.4,0.52495
1572,10.101,3.0909,0,0.00033246,3322.3,0.000111,0.0036512,0.00010753,-26.104,-0.00033289,-3335.2,0.52503
1573,10.101,2.9091,0,0.00033246,3322.3,0.000111,0.0036512,0.00010753,-26.104,-0.00033289,-3335.2,0.52503
1574,10.101,2.7273,0,0.00033249,3322.6,0.000111,0.003675,0.00010756,-25.791,-0.00033292,-3335.4,0.52495
1575,10.101,2.5455,0,0.00033255,3323.2,0.00011099,0.0037226,0.00010764,-25.169,-0.00033297,-3335.7,0.52481
1576,10.101,2.3636,0,0.00033265,3324.2,0.00011097,0.0037914,0.00010775,-24.242,-0.00033305,-3336.2,0.5246
1577,10.101,2.1818,0,0.00033277,3325.4,0.00011095,0.0038819,0.00010789,-23.016,-0.00033316,-3336.9,0.52431
1578,10.101,2,0,0.00033293,3327,0.00011093,0.0039922,0.00010807,-21.501,-0.00033329,-3337.7,0.52396
1579,10.101,1.8182,0,0.00033311,3328.8,0.0001109,0.0041179,0.00010828,-19.707,-0.00033344,-3338.6,0.52353
1580,10.101,1.6364,0,0.00033332,3330.9,0.00011087,0.0042591,0.00010852,-17.649,-0.00033362,-3339.7,0.52303
1581,10.101,1.4545,0,0.00033356,3333.3,0.00011084,0.0044153,0.00010879,-15.342,-0.00033382,-3341,0.52246
1582,10.101,1.2727,0,0.00033383,3336,0.0001108,0.0045777,0.00010909,-12.801,-0.00033404,-3342.3,0.52182
1583,10.101,1.0909,0,0.00033411,3338.8,0.00011076,0.0047732,0.00010942,-10.045,-0.00033428,-3343.8,0.52111
1584,10.101,0.90909,0,0.00033442,3341.9,0.00011071,0.0049125,0.00010977,-7.0937,-0.00033454,-3345.5,0.52032
1585,10.101,0.72727,0,0.00033475,3345.2,0.00011067,0.0054859,0.00011014,-3.9679,-0.00033482,-3347.2,0.51946
1586,10.101,0.54545,0,0.0003351,3348.7,0.00011062,0.0060386,0.00011053,-0.68749,-0.00033511,-3349,0.51853
1587,10.101,0.36364,0,0.00033547,3352.4,0.00011094,2.795,0.00011057,0.0097884,-0.00033543,-3351,0.51753
1588,10.101,0.18182,0,0.00033602,3357.9,0.00011151,7.467,0.00011052,-0.010767,-0.00033589,-3354.2,0.51645
1589,9.9173,5.8182,0,0.00034121,3409.8,0.00011317,6.8457,0.00011226,-0.013495,-0.0003411,-3406.3,0.49909
1590,9.9173,5.6364,0,0.00034064,3404,0.00011256,1.8375,0.00011232,0.011257,-0.00034061,-3403.1,0.50018
1591,9.9173,5.4545,0,0.00034024,3400,0.00011238,0.0041602,0.00011211,-1.9957,-0.00034027,-3401,0.5012
1592,9.9173,5.2727,0,0.00033986,3396.3,0.00011243,0.0053386,0.00011168,-5.6194,-0.00033996,-3399.1,0.50214
1593,9.9173,5.0909,0,0.00033951,3392.7,0.00011249,0.0048145,0.00011128,-9.0725,-0.00033966,-3397.2,0.50301
1594,9.9173,4.9091,0,0.00033917,3389.4,0.00011254,0.0046931,0.0001109,-12.334,-0.00033938,-3395.5,0.50381
1595,9.9173,4.7273,0,0.00033886,3386.3,0.00011259,0.0044772,0.00011054,-15.38,-0.00033912,-3393.9,0.50453
1596,9.9173,4.5455,0,0.00033857,3383.4,0.00011263,0.0042906,0.00011021,-18.189,-0.00033888,-3392.5,0.50518
1597,9.9173,4.3636,0,0.00033831,3380.8,0.00011267,0.0041065,0.00010991,-20.741,-0.00033866,-3391.1,0.50576
1598,9.9173,4.1818,0,0.00033808,3378.5,0.00011271,0.0039384,0.00010964,-23.017,-0.00033847,-3390,0.50626
1599,9.9173,4,0,0.00033788,3376.5,0.00011274,0.0037877,0.00010941,-25,-0.0003383,-3388.9,0.50669
1600,9.9173,3.8182,0,0.00033771,3374.8,0.00011276,0.003656,0.00010921,-26.676,-0.00033816,-3388.1,0.50705
1601,9.9173,3.6364,0,0.00033758,3373.5,0.00011279,0.0035479,0.00010906,-28.032,-0.00033805,-3387.4,0.50734
1602,9.9173,3.4545,0,0.00033747,3372.4,0.0001128,0.0034662,0.00010894,-29.058,-0.00033796,-3386.9,0.50756
1603,9.9173,3.2727,0,0.00033741,3371.7,0.00011281,0.0034097,0.00010885,-29.746,-0.0003379,-3386.5,0.5077
1604,9.9173,3.0909,0,0.00033737,3371.4,0.00011282,0.0033808,0.00010881,-30.092,-0.00033787,-3386.3,0.50777
1605,9.9173,2.9091,0,0.00033737,3371.4,0.00011282,0.0033806,0.00010881,-30.092,-0.00033787,-3386.3,0.50777
1606,9.9173,2.7273,0,0.00033741,3371.7,0.00011281,0.0034096,0.00010885,-29.746,-0.0003379,-3386.5,0.5077
1607,9.9173,2.5455,0,0.00033747,3372.4,0.0001128,0.0034662,0.00010894,-29.058,-0.00033796,-3386.9,0.50756
1608,9.9173,2.3636,0,0.00033758,3373.5,0.00011279,0.0035481,0.00010906,-28.032,-0.00033805,-3387.4,0.50734
1609,9.9173,2.1818,0,0.00033771,3374.8,0.00011276,0.003657,0.00010921,-26.676,-0.00033816,-3388.1,0.50705
1610,9.9173,2,0,0.00033788,3376.5,0.00011274,0.0037885,0.00010941,-25,-0.0003383,-3388.9,0.50669
1611,9.9173,1.8182,0,0.00033808,3378.5,0.00011271,0.0039391,0.00010964,-23.017,-0.00033847,-3390,0.50626
1612,9.9173,1.6364,0,0.00033831,3380.8,0.00011267,0.004107,0.00010991,-20.741,-0.00033866,-3391.1,0.50576
1613,9.9173,1.4545,0,0.00033857,3383.4,0.00011263,0.0042911,0.00011021,-18.189,-0.00033888,-3392.5,0.50518
1614,9.9173,1.2727,0,0.00033886,3386.3,0.00011259,0.0044773,0.00011054,-15.38,-0.00033912,-3393.9,0.50453
1615,9.9173,1.0909,0,0.00033917,3389.4,0.00011254,0.0046939,0.0001109,-12.334,-0.00033938,-3395.5,0.50381
1616,9.9173,0.90909,0,0.00033951,3392.7,0.00011249,0.0048156,0.00011128,-9.0726,-0.00033966,-3397.2,0.50301
1617,9.9173,0.72727,0,0.00033986,3396.3,0.00011243,0.0053398,0.00011168,-5.6194,-0.00033996,-3399.1,0.50214
1618,9.9173,0.54545,0,0.00034024,3400,0.00011238,0.0041611,0.00011211,-1.9957,-0.00034027,-3401,0.5012
1619,9.9173,0.36364,0,0.00034064,3404,0.00011256,1.8375,0.00011232,0.011257,-0.00034061,-3403.1,0.50018
1620,9.9173,0.18182,0,0.00034121,3409.8,0.00011317,6.8457,0.00011226,-0.013494,-0.0003411,-3406.3,0.49909
1621,9.7337,5.8182,0,0.00034642,3461.9,0.00011484,6.1892,0.00011401,-0.017174,-0.00034632,-3458.8,0.48196
1622,9.7337,5.6364,0,0.00034582,3455.9,0.00011419,0.82165,0.00011408,0.010822,-0.00034581,-3455.4,0.48306
1623,9.7337,5.4545,0,0.00034539,3451.5,0.00011415,0.0043148,0.0001137,-3.3911,-0.00034545,-3453.2,0.48409
1624,9.7337,5.2727,0,0.00034499,3447.5,0.00011421,0.0055424,0.00011323,-7.3804,-0.00034511,-3451.2,0.48505
1625,9.7337,5.0909,0,0.0003446,3443.6,0.00011427,0.0048847,0.00011278,-11.184,-0.00034479,-3449.2,0.48593
1626,9.7337,4.9091,0,0.00034424,3440,0.00011433,0.0047111,0.00011236,-14.777,-0.00034449,-3447.4,0.48673
1627,9.7337,4.7273,0,0.0003439,3436.7,0.00011439,0.0044354,0.00011197,-18.134,-0.00034421,-3445.7,0.48746
1628,9.7337,4.5455,0,0.00034359,3433.6,0.00011444,0.0041995,0.00011161,-21.23,-0.00034395,-3444.1,0.48812
1629,9.7337,4.3636,0,0.00034331,3430.8,0.00011448,0.003971,0.00011128,-24.043,-0.00034372,-3442.7,0.48871
1630,9.7337,4.1818,0,0.00034306,3428.3,0.00011452,0.0037646,0.00011099,-26.553,-0.00034351,-3441.5,0.48922
1631,9.7337,4,0,0.00034285,3426.1,0.00011456,0.0035806,0.00011073,-28.74,-0.00034333,-3440.4,0.48965
1632,9.7337,3.8182,0,0.00034266,3424.3,0.00011459,0.0034208,0.00011052,-30.588,-0.00034317,-3439.4,0.49002
1633,9.7337,3.6364,0,0.00034251,3422.8,0.00011462,0.00329,0.00011034,-32.084,-0.00034305,-3438.7,0.49031
1634,9.7337,3.4545,0,0.0003424,3421.7,0.00011463,0.0031913,0.00011021,-33.215,-0.00034295,-3438.1,0.49053
1635,9.7337,3.2727,0,0.00034233,3420.9,0.00011465,0.0031234,0.00011012,-33.975,-0.00034289,-3437.8,0.49067
1636,9.7337,3.0909,0,0.00034229,3420.5,0.00011465,0.0030891,0.00011008,-34.356,-0.00034286,-3437.6,0.49075
1637,9.7337,2.9091,0,0.00034229,3420.5,0.00011465,0.003089,0.00011008,-34.356,-0.00034286,-3437.6,0.49075
1638,9.7337,2.7273,0,0.00034233,3420.9,0.00011465,0.0031241,0.00011012,-33.975,-0.00034289,-3437.8,0.49067
1639,9.7337,2.5455,0,0.0003424,3421.7,0.00011463,0.0031917,0.00011021,-33.215,-0.00034295,-3438.1,0.49053
1640,9.7337,2.3636,0,0.00034251,3422.8,0.00011462,0.0032901,0.00011034,-32.084,-0.00034305,-3438.7,0.49031
1641,9.7337,2.1818,0,0.00034266,3424.3,0.00011459,0.0034212,0.00011052,-30.588,-0.00034317,-3439.4,0.49002
1642,9.7337,2,0,0.00034285,3426.1,0.00011456,0.0035803,0.00011073,-28.74,-0.00034333,-3440.4,0.48965
1643,9.7337,1.8182,0,0.00034306,3428.3,0.00011452,0.0037646,0.00011099,-26.553,-0.00034351,-3441.5,0.48922
1644,9.7337,1.6364,0,0.00034331,3430.8,0.00011448,0.0039712,0.00011128,-24.044,-0.00034372,-3442.7,0.48871
1645,9.7337,1.4545,0,0.00034359,3433.6,0.00011444,0.0041999,0.00011161,-21.23,-0.00034395,-3444.1,0.48812
1646,9.7337,1.2727,0,0.0003439,3436.7,0.00011439,0.0044362,0.00011197,-18.134,-0.00034421,-3445.7,0.48746
1647,9.7337,1.0909,0,0.00034424,3440,0.00011433,0.0047114,0.00011236,-14.777,-0.00034449,-3447.4,0.48673
1648,9.7337,0.90909,0,0.0003446,3443.6,0.00011427,0.0048859,0.00011278,-11.184,-0.00034479,-3449.2,0.48593
1649,9.7337,0.72727,0,0.00034499,3447.5,0.00011421,0.0055437,0.00011323,-7.3804,-0.00034511,-3451.2,0.48505
1650,9.7337,0.54545,0,0.00034539,3451.5,0.00011415,0.0043158,0.0001137,-3.3911,-0.00034545,-3453.2,0.48409
1651,9.7337,0.36364,0,0.00034582,3455.9,0.00011419,0.82163,0.00011408,0.010823,-0.00034581,-3455.4,0.48306
1652,9.7337,0.18182,0,0.00034642,3461.9,0.00011484,6.1891,0.00011401,-0.017173,-0.00034632,-3458.8,0.48196
1653,9.55,5.8182,0,0.00035166,3514.2,0.00011651,5.4954,0.00011577,-0.022292,-0.00035157,-3511.4,0.46506
1654,9.55,5.6364,0,0.00035103,3507.9,0.00011586,0.03203,0.00011582,-0.28115,-0.00035104,-3508,0.46618
1655,9.55,5.4545,0,0.00035057,3503.2,0.00011593,0.004821,0.00011528,-4.8795,-0.00035065,-3505.7,0.46722
1656,9.55,5.2727,0,0.00035013,3498.9,0.000116,0.0059318,0.00011477,-9.2607,-0.00035029,-3503.5,0.46819
1657,9.55,5.0909,0,0.00034971,3494.7,0.00011607,0.005059,0.00011428,-13.44,-0.00034994,-3501.4,0.46908
1658,9.55,4.9091,0,0.00034932,3490.8,0.00011614,0.0047919,0.00011382,-17.389,-0.00034961,-3499.5,0.46989
1659,9.55,4.7273,0,0.00034896,3487.2,0.0001162,0.0044308,0.00011339,-21.079,-0.00034931,-3497.7,0.47063
1660,9.55,4.5455,0,0.00034862,3483.8,0.00011626,0.0041284,0.000113,-24.484,-0.00034903,-3496,0.4713
1661,9.55,4.3636,0,0.00034832,3480.8,0.00011631,0.0038424,0.00011264,-27.578,-0.00034878,-3494.5,0.47189
1662,9.55,4.1818,0,0.00034805,3478.1,0.00011636,0.0035872,0.00011232,-30.338,-0.00034855,-3493.1,0.47241
1663,9.55,4,0,0.00034781,3475.7,0.0001164,0.0033624,0.00011204,-32.744,-0.00034836,-3492,0.47285
1664,9.55,3.8182,0,0.00034761,3473.7,0.00011643,0.0031692,0.0001118,-34.778,-0.00034819,-3491,0.47322
1665,9.55,3.6364,0,0.00034745,3472.1,0.00011646,0.0030117,0.00011161,-36.423,-0.00034806,-3490.2,0.47351
1666,9.55,3.4545,0,0.00034733,3470.9,0.00011648,0.0028925,0.00011147,-37.668,-0.00034796,-3489.6,0.47373
1667,9.55,3.2727,0,0.00034725,3470.1,0.00011649,0.0028117,0.00011137,-38.504,-0.00034789,-3489.2,0.47388
1668,9.55,3.0909,0,0.00034721,3469.7,0.0001165,0.0027708,0.00011132,-38.923,-0.00034785,-3489,0.47395
1669,9.55,2.9091,0,0.00034721,3469.7,0.0001165,0.0027704,0.00011132,-38.923,-0.00034785,-3489,0.47395
1670,9.55,2.7273,0,0.00034725,3470.1,0.00011649,0.0028114,0.00011137,-38.504,-0.00034789,-3489.2,0.47388
1671,9.55,2.5455,0,0.00034733,3470.9,0.00011648,0.0028929,0.00011147,-37.668,-0.00034796,-3489.6,0.47373
1672,9.55,2.3636,0,0.00034745,3472.1,0.00011646,0.0030122,0.00011161,-36.423,-0.00034806,-3490.2,0.47351
1673,9.55,2.1818,0,0.00034761,3473.7,0.00011643,0.0031696,0.0001118,-34.778,-0.00034819,-3491,0.47322
1674,9.55,2,0,0.00034781,3475.7,0.0001164,0.0033628,0.00011204,-32.744,-0.00034836,-3492,0.47285
1675,9.55,1.8182,0,0.00034805,3478.1,0.00011636,0.0035876,0.00011232,-30.338,-0.00034855,-3493.1,0.47241
1676,9.55,1.6364,0,0.00034832,3480.8,0.00011631,0.003843,0.00011264,-27.578,-0.00034878,-3494.5,0.47189
1677,9.55,1.4545,0,0.00034862,3483.8,0.00011626,0.0041286,0.000113,-24.484,-0.00034903,-3496,0.4713
1678,9.55,1.2727,0,0.00034896,3487.2,0.0001162,0.0044316,0.00011339,-21.079,-0.00034931,-3497.7,0.47063
1679,9.55,1.0909,0,0.00034932,3490.8,0.00011614,0.0047925,0.00011382,-17.389,-0.00034961,-3499.5,0.46989
1680,9.55,0.90909,0,0.00034971,3494.7,0.00011607,0.0050608,0.00011428,-13.44,-0.00034994,-3501.4,0.46908
1681,9.55,0.72727,0,0.00035013,3498.9,0.000116,0.005932,0.00011477,-9.2608,-0.00035029,-3503.5,0.46819
1682,9.55,0.54545,0,0.00035057,3503.2,0.00011593,0.0048216,0.00011528,-4.8796,-0.00035065,-3505.7,0.46722
1683,9.55,0.36364,0,0.00035103,3507.9,0.00011586,0.03203,0.00011582,-0.28117,-0.00035104,-3508,0.46618
1684,9.55,0.18182,0,0.00035166,3514.2,0.00011651,5.4954,0.00011577,-0.022291,-0.00035157,-3511.4,0.46506
1685,9.3663,5.8182,0,0.00035692,3566.7,0.00011818,4.7625,0.00011754,-0.029664,-0.00035684,-3564.3,0.4484
1686,9.3663,5.6364,0,0.00035626,3560.1,0.00011764,0.024002,0.00011744,-1.4255,-0.00035628,-3560.8,0.44953
1687,9.3663,5.4545,0,0.00035576,3555.1,0.00011772,0.0055074,0.00011686,-6.4691,-0.00035587,-3558.4,0.45058
1688,9.3663,5.2727,0,0.00035529,3550.4,0.0001178,0.0064704,0.0001163,-11.271,-0.00035548,-3556,0.45156
1689,9.3663,5.0909,0,0.00035484,3545.9,0.00011788,0.0053369,0.00011577,-15.854,-0.0003551,-3553.8,0.45246
1690,9.3663,4.9091,0,0.00035442,3541.7,0.00011796,0.0049488,0.00011527,-20.185,-0.00035475,-3551.8,0.45329
1691,9.3663,4.7273,0,0.00035402,3537.8,0.00011803,0.0044818,0.0001148,-24.234,-0.00035443,-3549.8,0.45404
1692,9.3663,4.5455,0,0.00035366,3534.1,0.00011809,0.0040971,0.00011437,-27.971,-0.00035413,-3548,0.45471
1693,9.3663,4.3636,0,0.00035333,3530.9,0.00011815,0.003743,0.00011397,-31.367,-0.00035385,-3546.4,0.45531
1694,9.3663,4.1818,0,0.00035304,3527.9,0.0001182,0.0034308,0.00011362,-34.397,-0.00035361,-3545,0.45583
1695,9.3663,4,0,0.00035278,3525.4,0.00011825,0.0031581,0.00011332,-37.038,-0.0003534,-3543.7,0.45628
1696,9.3663,3.8182,0,0.00035257,3523.2,0.00011829,0.0029262,0.00011306,-39.271,-0.00035322,-3542.7,0.45665
1697,9.3663,3.6364,0,0.00035239,3521.5,0.00011832,0.002738,0.00011285,-41.078,-0.00035307,-3541.8,0.45695
1698,9.3663,3.4545,0,0.00035226,3520.2,0.00011834,0.0025957,0.00011269,-42.445,-0.00035296,-3541.2,0.45717
1699,9.3663,3.2727,0,0.00035217,3519.3,0.00011836,0.0024994,0.00011259,-43.363,-0.00035289,-3540.8,0.45732
1700,9.3663,3.0909,0,0.00035213,3518.8,0.00011837,0.0024503,0.00011253,-43.823,-0.00035285,-3540.5,0.45739
1701,9.3663,2.9091,0,0.00035213,3518.8,0.00011837,0.002451,0.00011253,-43.823,-0.00035285,-3540.5,0.45739
1702,9.3663,2.7273,0,0.00035217,3519.3,0.00011836,0.0024995,0.00011259,-43.363,-0.00035289,-3540.8,0.45732
1703,9.3663,2.5455,0,0.00035226,3520.2,0.00011834,0.0025961,0.00011269,-42.445,-0.00035296,-3541.2,0.45717
1704,9.3663,2.3636,0,0.00035239,3521.5,0.00011832,0.0027376,0.00011285,-41.078,-0.00035307,-3541.8,0.45695
1705,9.3663,2.1818,0,0.00035257,3523.2,0.00011829,0.0029264,0.00011306,-39.271,-0.00035322,-3542.7,0.45665
1706,9.3663,2,0,0.00035278,3525.4,0.00011825,0.0031586,0.00011332,-37.038,-0.0003534,-3543.7,0.45628
1707,9.3663,1.8182,0,0.00035304,3527.9,0.0001182,0.0034312,0.00011362,-34.397,-0.00035361,-3545,0.45583
1708,9.3663,1.6364,0,0.00035333,3530.9,0.00011815,0.0037437,0.00011397,-31.367,-0.00035385,-3546.4,0.45531
1709,9.3663,1.4545,0,0.00035366,3534.1,0.00011809,0.0040985,0.00011437,-27.971,-0.00035413,-3548,0.45471
1710,9.3663,1.2727,0,0.00035402,3537.8,0.00011803,0.0044823,0.0001148,-24.234,-0.00035443,-3549.8,0.45404
1711,9.3663,1.0909,0,0.00035442,3541.7,0.00011796,0.0049496,0.00011527,-20.185,-0.00035475,-3551.8,0.45329
1712,9.3663,0.90909,0,0.00035484,3545.9,0.00011788,0.0053383,0.00011577,-15.854,-0.0003551,-3553.8,0.45246
1713,9.3663,0.72727,0,0.00035529,3550.4,0.0001178,0.0064716,0.0001163,-11.271,-0.00035548,-3556,0.45156
1714,9.3663,0.54545,0,0.00035576,3555.1,0.00011772,0.0055073,0.00011686,-6.4691,-0.00035587,-3558.4,0.45058
1715,9.3663,0.36364,0,0.00035626,3560.1,0.00011764,0.024003,0.00011744,-1.4255,-0.00035628,-3560.8,0.44953
1716,9.3663,0.18182,0,0.00035692,3566.7,0.00011818,4.7625,0.00011754,-0.029663,-0.00035684,-3564.3,0.4484
1717,9.1827,5.8182,0,0.0003622,3619.5,0.00011986,3.9893,0.00011932,-0.040918,-0.00036213,-3617.5,0.43198
1718,9.1827,5.6364,0,0.00036151,3612.6,0.00011943,0.025671,0.00011907,-2.656,-0.00036155,-3613.9,0.43312
1719,9.1827,5.4545,0,0.00036097,3607.2,0.00011952,0.0063053,0.00011844,-8.1684,-0.00036111,-3611.3,0.43419
1720,9.1827,5.2727,0,0.00036046,3602.1,0.00011962,0.0071156,0.00011783,-13.423,-0.00036069,-3608.8,0.43518
1721,9.1827,5.0909,0,0.00035998,3597.3,0.0001197,0.0056867,0.00011725,-18.44,-0.00036029,-3606.5,0.43609
1722,9.1827,4.9091,0,0.00035952,3592.7,0.00011979,0.005156,0.0001167,-23.183,-0.00035991,-3604.2,0.43692
1723,9.1827,4.7273,0,0.00035909,3588.5,0.00011987,0.0045657,0.00011619,-27.618,-0.00035955,-3602.2,0.43768
1724,9.1827,4.5455,0,0.0003587,3584.5,0.00011994,0.0040872,0.00011572,-31.712,-0.00035923,-3600.3,0.43836
1725,9.1827,4.3636,0,0.00035834,3581,0.00012,0.0036534,0.00011529,-35.433,-0.00035893,-3598.6,0.43896
1726,9.1827,4.1818,0,0.00035803,3577.8,0.00012006,0.0032764,0.00011491,-38.754,-0.00035867,-3597,0.43949
1727,9.1827,4,0,0.00035775,3575,0.00012011,0.0029492,0.00011457,-41.649,-0.00035844,-3595.7,0.43994
1728,9.1827,3.8182,0,0.00035752,3572.7,0.00012016,0.0026726,0.00011429,-44.096,-0.00035825,-3594.5,0.44032
1729,9.1827,3.6364,0,0.00035733,3570.8,0.00012019,0.0024493,0.00011406,-46.077,-0.00035809,-3593.6,0.44062
1730,9.1827,3.4545,0,0.00035719,3569.4,0.00012022,0.0022822,0.00011389,-47.577,-0.00035797,-3592.9,0.44085
1731,9.1827,3.2727,0,0.00035709,3568.4,0.00012024,0.0021684,0.00011377,-48.583,-0.00035789,-3592.5,0.441
1732,9.1827,3.0909,0,0.00035704,3568,0.00012025,0.0021108,0.00011371,-49.088,-0.00035785,-3592.2,0.44107
1733,9.1827,2.9091,0,0.00035704,3568,0.00012025,0.0021111,0.00011371,-49.088,-0.00035785,-3592.2,0.44107
1734,9.1827,2.7273,0,0.00035709,3568.4,0.00012024,0.0021686,0.00011377,-48.583,-0.00035789,-3592.5,0.441
1735,9.1827,2.5455,0,0.00035719,3569.4,0.00012022,0.0022819,0.00011389,-47.577,-0.00035797,-3592.9,0.44085
1736,9.1827,2.3636,0,0.00035733,3570.8,0.00012019,0.00245,0.00011406,-46.077,-0.00035809,-3593.6,0.44062
1737,9.1827,2.1818,0,0.00035752,3572.7,0.00012016,0.0026734,0.00011429,-44.096,-0.00035825,-3594.5,0.44032
1738,9.1827,2,0,0.00035775,3575,0.00012011,0.0029494,0.00011457,-41.649,-0.00035844,-3595.7,0.43994
1739,9.1827,1.8182,0,0.00035803,3577.8,0.00012006,0.0032765,0.00011491,-38.754,-0.00035867,-3597,0.43949
1740,9.1827,1.6364,0,0.00035834,3581,0.00012,0.0036542,0.00011529,-35.433,-0.00035893,-3598.6,0.43896
1741,9.1827,1.4545,0,0.0003587,3584.5,0.00011994,0.0040876,0.00011572,-31.712,-0.00035923,-3600.3,0.43836
1742,9.1827,1.2727,0,0.00035909,3588.5,0.00011987,0.0045665,0.00011619,-27.618,-0.00035955,-3602.2,0.43768
1743,9.1827,1.0909,0,0.00035952,3592.7,0.00011979,0.0051564,0.0001167,-23.183,-0.00035991,-3604.2,0.43692
1744,9.1827,0.90909,0,0.00035998,3597.3,0.0001197,0.0056884,0.00011725,-18.44,-0.00036029,-3606.5,0.43609
1745,9.1827,0.72727,0,0.00036046,3602.1,0.00011962,0.0071171,0.00011783,-13.423,-0.00036069,-3608.8,0.43518
1746,9.1827,0.54545,0,0.00036097,3607.2,0.00011952,0.0063055,0.00011844,-8.1684,-0.00036111,-3611.3,0.43419
1747,9.1827,0.36364,0,0.00036151,3612.6,0.00011943,0.025672,0.00011907,-2.656,-0.00036155,-3613.9,0.43312
1748,9.1827,0.18182,0,0.0003622,3619.5,0.00011986,3.9893,0.00011932,-0.040917,-0.00036213,-3617.5,0.43198
1749,8.999,5.8182,0,0.0003675,3672.5,0.00012154,3.1764,0.00012111,-0.059497,-0.00036745,-3670.9,0.4158
1750,8.999,5.6364,0,0.00036678,3665.2,0.00012123,0.028367,0.0001207,-3.9702,-0.00036684,-3667.2,0.41696
1751,8.999,5.4545,0,0.0003662,3659.4,0.00012134,0.0072017,0.00012001,-9.9866,-0.00036637,-3664.4,0.41803
1752,8.999,5.2727,0,0.00036565,3654,0.00012144,0.0078576,0.00011935,-15.73,-0.00036591,-3661.8,0.41903
1753,8.999,5.0909,0,0.00036513,3648.7,0.00012154,0.0061022,0.00011872,-21.214,-0.00036548,-3659.3,0.41996
1754,8.999,4.9091,0,0.00036463,3643.8,0.00012163,0.0054105,0.00011812,-26.401,-0.00036507,-3656.9,0.4208
1755,8.999,4.7273,0,0.00036417,3639.2,0.00012172,0.0046813,0.00011756,-31.252,-0.00036469,-3654.7,0.42156
1756,8.999,4.5455,0,0.00036375,3635,0.0001218,0.0040962,0.00011705,-35.73,-0.00036434,-3652.7,0.42225
1757,8.999,4.3636,0,0.00036336,3631.1,0.00012188,0.003574,0.00011658,-39.802,-0.00036402,-3650.9,0.42286
1758,8.999,4.1818,0,0.00036302,3627.7,0.00012194,0.0031229,0.00011616,-43.436,-0.00036374,-3649.2,0.4234
1759,8.999,4,0,0.00036272,3624.7,0.000122,0.0027352,0.0001158,-46.605,-0.00036349,-3647.8,0.42385
1760,8.999,3.8182,0,0.00036247,3622.2,0.00012205,0.0024099,0.00011549,-49.285,-0.00036328,-3646.6,0.42423
1761,8.999,3.6364,0,0.00036226,3620.1,0.00012209,0.0021478,0.00011524,-51.454,-0.00036311,-3645.6,0.42454
1762,8.999,3.4545,0,0.00036211,3618.6,0.00012212,0.001951,0.00011505,-53.095,-0.00036298,-3644.8,0.42477
1763,8.999,3.2727,0,0.000362,3617.5,0.00012214,0.0018183,0.00011492,-54.197,-0.0003629,-3644.3,0.42492
1764,8.999,3.0909,0,0.00036195,3617,0.00012215,0.0017517,0.00011486,-54.75,-0.00036285,-3644.1,0.42499
1765,8.999,2.9091,0,0.00036195,3617,0.00012215,0.0017517,0.00011486,-54.75,-0.00036285,-3644.1,0.42499
1766,8.999,2.7273,0,0.000362,3617.5,0.00012214,0.0018184,0.00011492,-54.197,-0.0003629,-3644.3,0.42492
1767,8.999,2.5455,0,0.00036211,3618.6,0.00012212,0.0019512,0.00011505,-53.095,-0.00036298,-3644.8,0.42477
1768,8.999,2.3636,0,0.00036226,3620.1,0.00012209,0.0021479,0.00011524,-51.454,-0.00036311,-3645.6,0.42454
1769,8.999,2.1818,0,0.00036247,3622.2,0.00012205,0.0024099,0.00011549,-49.285,-0.00036328,-3646.6,0.42423
1770,8.999,2,0,0.00036272,3624.7,0.000122,0.0027358,0.0001158,-46.605,-0.00036349,-3647.8,0.42385
1771,8.999,1.8182,0,0.00036302,3627.7,0.00012194,0.0031234,0.00011616,-43.436,-0.00036374,-3649.2,0.4234
1772,8.999,1.6364,0,0.00036336,3631.1,0.00012188,0.0035744,0.00011658,-39.802,-0.00036402,-3650.9,0.42286
1773,8.999,1.4545,0,0.00036375,3635,0.0001218,0.004097,0.00011705,-35.73,-0.00036434,-3652.7,0.42225
1774,8.999,1.2727,0,0.00036417,3639.2,0.00012172,0.0046821,0.00011756,-31.252,-0.00036469,-3654.7,0.42156
1775,8.999,1.0909,0,0.00036463,3643.8,0.00012163,0.0054108,0.00011812,-26.401,-0.00036507,-3656.9,0.4208
1776,8.999,0.90909,0,0.00036513,3648.7,0.00012154,0.0061044,0.00011872,-21.214,-0.00036548,-3659.3,0.41996
1777,8.999,0.72727,0,0.00036565,3654,0.00012144,0.0078587,0.00011935,-15.73,-0.00036591,-3661.8,0.41903
1778,8.999,0.54545,0,0.0003662,3659.4,0.00012134,0.0072018,0.00012001,-9.9866,-0.00036637,-3664.4,0.41803
1779,8.999,0.36364,0,0.00036678,3665.2,0.00012123,0.028369,0.0001207,-3.9702,-0.00036684,-3667.2,0.41696
1780,8.999,0.18182,0,0.0003675,3672.5,0.00012154,3.1764,0.00012111,-0.059496,-0.00036745,-3670.9,0.4158
1781,8.8154,5.8182,0,0.00037283,3725.8,0.00012323,2.3294,0.00012291,-0.094143,-0.0003728,-3724.6,0.39987
1782,8.8154,5.6364,0,0.00037207,3718.1,0.00012305,0.03155,0.00012233,-5.3739,-0.00037216,-3720.8,0.40104
1783,8.8154,5.4545,0,0.00037144,3711.9,0.00012317,0.0081877,0.00012158,-11.933,-0.00037164,-3717.8,0.40213
1784,8.8154,5.2727,0,0.00037085,3706,0.00012328,0.0086874,0.00012086,-18.203,-0.00037116,-3715,0.40314
1785,8.8154,5.0909,0,0.00037029,3700.3,0.00012339,0.0065783,0.00012017,-24.192,-0.00037069,-3712.4,0.40407
1786,8.8154,4.9091,0,0.00036976,3695,0.0001235,0.0057066,0.00011952,-29.857,-0.00037025,-3709.8,0.40492
1787,8.8154,4.7273,0,0.00036926,3690,0.00012359,0.0048235,0.00011891,-35.157,-0.00036984,-3707.5,0.4057
1788,8.8154,4.5455,0,0.0003688,3685.5,0.00012368,0.0041191,0.00011835,-40.051,-0.00036946,-3705.3,0.40639
1789,8.8154,4.3636,0,0.00036838,3681.3,0.00012376,0.0034979,0.00011784,-44.501,-0.00036912,-3703.3,0.40701
1790,8.8154,4.1818,0,0.00036801,3677.6,0.00012384,0.0029657,0.00011739,-48.474,-0.00036881,-3701.6,0.40755
1791,8.8154,4,0,0.00036769,3674.3,0.0001239,0.0025108,0.00011699,-51.939,-0.00036854,-3700,0.40801
1792,8.8154,3.8182,0,0.00036741,3671.6,0.00012395,0.0021305,0.00011665,-54.869,-0.00036832,-3698.7,0.40839
1793,8.8154,3.6364,0,0.00036719,3669.4,0.000124,0.0018257,0.00011638,-57.241,-0.00036813,-3697.7,0.4087
1794,8.8154,3.4545,0,0.00036703,3667.7,0.00012403,0.0015973,0.00011617,-59.037,-0.00036799,-3696.9,0.40893
1795,8.8154,3.2727,0,0.00036691,3666.6,0.00012405,0.0014437,0.00011604,-60.242,-0.0003679,-3696.3,0.40908
1796,8.8154,3.0909,0,0.00036686,3666,0.00012406,0.0013659,0.00011597,-60.847,-0.00036785,-3696.1,0.40916
1797,8.8154,2.9091,0,0.00036686,3666,0.00012406,0.0013663,0.00011597,-60.847,-0.00036785,-3696.1,0.40916
1798,8.8154,2.7273,0,0.00036691,3666.6,0.00012405,0.0014438,0.00011604,-60.242,-0.0003679,-3696.3,0.40908
1799,8.8154,2.5455,0,0.00036703,3667.7,0.00012403,0.0015973,0.00011617,-59.037,-0.00036799,-3696.9,0.40893
1800,8.8154,2.3636,0,0.00036719,3669.4,0.000124,0.0018257,0.00011638,-57.241,-0.00036813,-3697.7,0.4087
1801,8.8154,2.1818,0,0.00036741,3671.6,0.00012395,0.0021308,0.00011665,-54.869,-0.00036832,-3698.7,0.40839
1802,8.8154,2,0,0.00036769,3674.3,0.0001239,0.0025112,0.00011699,-51.939,-0.00036854,-3700,0.40801
1803,8.8154,1.8182,0,0.00036801,3677.6,0.00012384,0.0029664,0.00011739,-48.474,-0.00036881,-3701.6,0.40755
1804,8.8154,1.6364,0,0.00036838,3681.3,0.00012376,0.0034989,0.00011784,-44.501,-0.00036912,-3703.3,0.40701
1805,8.8154,1.4545,0,0.0003688,3685.5,0.00012368,0.0041194,0.00011835,-40.051,-0.00036946,-3705.3,0.40639
1806,8.8154,1.2727,0,0.00036926,3690,0.00012359,0.0048242,0.00011891,-35.157,-0.00036984,-3707.5,0.4057
1807,8.8154,1.0909,0,0.00036976,3695,0.0001235,0.0057073,0.00011952,-29.857,-0.00037025,-3709.8,0.40492
1808,8.8154,0.90909,0,0.00037029,3700.3,0.00012339,0.0065798,0.00012017,-24.192,-0.00037069,-3712.4,0.40407
1809,8.8154,0.72727,0,0.00037085,3706,0.00012328,0.0086885,0.00012086,-18.203,-0.00037116,-3715,0.40314
1810,8.8154,0.54545,0,0.00037144,3711.9,0.00012317,0.0081881,0.00012158,-11.934,-0.00037164,-3717.8,0.40213
1811,8.8154,0.36364,0,0.00037207,3718.1,0.00012305,0.031551,0.00012233,-5.374,-0.00037216,-3720.8,0.40104
1812,8.8154,0.18182,0,0.00037283,3725.8,0.00012323,2.3294,0.00012291,-0.094142,-0.0003728,-3724.6,0.39987
1813,8.6317,5.8182,0,0.00037819,3779.3,0.00012493,1.4735,0.00012471,-0.1731,-0.00037817,-3778.6,0.38418
1814,8.6317,5.6364,0,0.00037738,3771.2,0.00012488,0.035116,0.00012396,-6.8739,-0.00037749,-3774.6,0.38537
1815,8.6317,5.4545,0,0.00037671,3764.5,0.00012501,0.0092751,0.00012314,-14.019,-0.00037694,-3771.5,0.38647
1816,8.6317,5.2727,0,0.00037607,3758.1,0.00012514,0.0096139,0.00012236,-20.856,-0.00037642,-3768.5,0.38749
1817,8.6317,5.0909,0,0.00037546,3752,0.00012526,0.0071205,0.00012161,-27.39,-0.00037592,-3765.6,0.38843
1818,8.6317,4.9091,0,0.00037489,3746.3,0.00012537,0.0060519,0.0001209,-33.573,-0.00037545,-3763,0.38929
1819,8.6317,4.7273,0,0.00037435,3740.9,0.00012548,0.0049984,0.00012024,-39.357,-0.000375,-3760.4,0.39008
1820,8.6317,4.5455,0,0.00037385,3736,0.00012558,0.0041634,0.00011963,-44.7,-0.00037459,-3758.1,0.39078
1821,8.6317,4.3636,0,0.0003734,3731.5,0.00012567,0.0034335,0.00011907,-49.56,-0.00037422,-3756,0.3914
1822,8.6317,4.1818,0,0.000373,3727.4,0.00012575,0.0028117,0.00011858,-53.899,-0.00037389,-3754.1,0.39194
1823,8.6317,4,0,0.00037265,3723.9,0.00012582,0.0022824,0.00011814,-57.684,-0.0003736,-3752.4,0.39241
1824,8.6317,3.8182,0,0.00037235,3721,0.00012588,0.0018421,0.00011778,-60.885,-0.00037335,-3751,0.3928
1825,8.6317,3.6364,0,0.00037212,3718.6,0.00012593,0.00149,0.00011748,-63.477,-0.00037315,-3749.9,0.39311
1826,8.6317,3.4545,0,0.00037193,3716.8,0.00012597,0.0012267,0.00011726,-65.439,-0.000373,-3749.1,0.39334
1827,8.6317,3.2727,0,0.00037181,3715.6,0.00012599,0.0010497,0.00011711,-66.756,-0.0003729,-3748.5,0.3935
1828,8.6317,3.0909,0,0.00037175,3714.9,0.000126,0.00096104,0.00011703,-67.417,-0.00037285,-3748.2,0.39357
1829,8.6317,2.9091,0,0.00037175,3714.9,0.000126,0.00096086,0.00011703,-67.417,-0.00037285,-3748.2,0.39357
1830,8.6317,2.7273,0,0.00037181,3715.6,0.00012599,0.0010499,0.00011711,-66.756,-0.0003729,-3748.5,0.3935
1831,8.6317,2.5455,0,0.00037193,3716.8,0.00012597,0.0012268,0.00011726,-65.439,-0.000373,-3749.1,0.39334
1832,8.6317,2.3636,0,0.00037212,3718.6,0.00012593,0.0014901,0.00011748,-63.477,-0.00037315,-3749.9,0.39311
1833,8.6317,2.1818,0,0.00037235,3721,0.00012588,0.0018426,0.00011778,-60.885,-0.00037335,-3751,0.3928
1834,8.6317,2,0,0.00037265,3723.9,0.00012582,0.0022831,0.00011814,-57.684,-0.0003736,-3752.4,0.39241
1835,8.6317,1.8182,0,0.000373,3727.4,0.00012575,0.0028121,0.00011858,-53.899,-0.00037389,-3754.1,0.39194
1836,8.6317,1.6364,0,0.0003734,3731.5,0.00012567,0.0034342,0.00011907,-49.56,-0.00037422,-3756,0.3914
1837,8.6317,1.4545,0,0.00037385,3736,0.00012558,0.004164,0.00011963,-44.7,-0.00037459,-3758.1,0.39078
1838,8.6317,1.2727,0,0.00037435,3740.9,0.00012548,0.0049996,0.00012024,-39.357,-0.000375,-3760.4,0.39008
1839,8.6317,1.0909,0,0.00037489,3746.3,0.00012537,0.0060525,0.0001209,-33.573,-0.00037545,-3763,0.38929
1840,8.6317,0.90909,0,0.00037546,3752,0.00012526,0.0071222,0.00012161,-27.39,-0.00037592,-3765.6,0.38843
1841,8.6317,0.72727,0,0.00037607,3758.1,0.00012514,0.0096152,0.00012236,-20.856,-0.00037642,-3768.5,0.38749
1842,8.6317,0.54545,0,0.00037671,3764.5,0.00012501,0.0092756,0.00012314,-14.02,-0.00037694,-3771.5,0.38647
1843,8.6317,0.36364,0,0.00037738,3771.2,0.00012488,0.035117,0.00012396,-6.8739,-0.00037749,-3774.6,0.38537
1844,8.6317,0.18182,0,0.00037819,3779.3,0.00012493,1.4735,0.00012471,-0.1731,-0.00037817,-3778.6,0.38418
1845,8.4481,5.8182,0,0.00038357,3833,0.00012666,0.72136,0.00012651,-0.41225,-0.00038356,-3832.9,0.36876
1846,8.4481,5.6364,0,0.00038271,3824.5,0.00012672,0.039042,0.00012558,-8.4771,-0.00038286,-3828.7,0.36995
1847,8.4481,5.4545,0,0.00038199,3817.3,0.00012686,0.010466,0.0001247,-16.256,-0.00038227,-3825.4,0.37107
1848,8.4481,5.2727,0,0.0003813,3810.4,0.000127,0.010637,0.00012385,-23.706,-0.0003817,-3822.2,0.3721
1849,8.4481,5.0909,0,0.00038065,3803.8,0.00012714,0.007728,0.00012303,-30.828,-0.00038116,-3819.2,0.37305
1850,8.4481,4.9091,0,0.00038003,3797.6,0.00012727,0.0064444,0.00012226,-37.569,-0.00038065,-3816.3,0.37392
1851,8.4481,4.7273,0,0.00037945,3791.8,0.00012738,0.005205,0.00012154,-43.878,-0.00038017,-3813.6,0.37471
1852,8.4481,4.5455,0,0.00037891,3786.5,0.00012749,0.0042254,0.00012088,-49.707,-0.00037973,-3811.1,0.37542
1853,8.4481,4.3636,0,0.00037842,3781.6,0.00012759,0.0033769,0.00012027,-55.01,-0.00037933,-3808.8,0.37605
1854,8.4481,4.1818,0,0.00037799,3777.3,0.00012768,0.0026564,0.00011973,-59.745,-0.00037897,-3806.8,0.37659
1855,8.4481,4,0,0.00037761,3773.5,0.00012776,0.0020461,0.00011926,-63.877,-0.00037865,-3805,0.37706
1856,8.4481,3.8182,0,0.00037729,3770.3,0.00012783,0.0015399,0.00011886,-67.371,-0.00037839,-3803.5,0.37746
1857,8.4481,3.6364,0,0.00037703,3767.7,0.00012788,0.0011357,0.00011854,-70.201,-0.00037817,-3802.3,0.37777
1858,8.4481,3.4545,0,0.00037683,3765.7,0.00012792,0.00083406,0.00011829,-72.343,-0.00037801,-3801.4,0.378
1859,8.4481,3.2727,0,0.0003767,3764.4,0.00012795,0.00063179,0.00011813,-73.781,-0.0003779,-3800.7,0.37816
1860,8.4481,3.0909,0,0.00037663,3763.7,0.00012796,0.00053036,0.00011805,-74.503,-0.00037785,-3800.4,0.37824
1861,8.4481,2.9091,0,0.00037663,3763.7,0.00012796,0.00053048,0.00011805,-74.503,-0.00037785,-3800.4,0.37824
1862,8.4481,2.7273,0,0.0003767,3764.4,0.00012795,0.00063227,0.00011813,-73.781,-0.0003779,-3800.7,0.37816
1863,8.4481,2.5455,0,0.00037683,3765.7,0.00012792,0.000834,0.00011829,-72.343,-0.00037801,-3801.4,0.378
1864,8.4481,2.3636,0,0.00037703,3767.7,0.00012788,0.0011362,0.00011854,-70.201,-0.00037817,-3802.3,0.37777
1865,8.4481,2.1818,0,0.00037729,3770.3,0.00012783,0.00154,0.00011886,-67.371,-0.00037839,-3803.5,0.37746
1866,8.4481,2,0,0.00037761,3773.5,0.00012776,0.0020463,0.00011926,-63.877,-0.00037865,-3805,0.37706
1867,8.4481,1.8182,0,0.00037799,3777.3,0.00012768,0.0026568,0.00011973,-59.745,-0.00037897,-3806.8,0.37659
1868,8.4481,1.6364,0,0.00037842,3781.6,0.00012759,0.0033773,0.00012027,-55.01,-0.00037933,-3808.8,0.37605
1869,8.4481,1.4545,0,0.00037891,3786.5,0.00012749,0.0042263,0.00012088,-49.707,-0.00037973,-3811.1,0.37542
1870,8.4481,1.2727,0,0.00037945,3791.8,0.00012738,0.0052058,0.00012154,-43.878,-0.00038017,-3813.6,0.37471
1871,8.4481,1.0909,0,0.00038003,3797.6,0.00012727,0.0064448,0.00012226,-37.569,-0.00038065,-3816.3,0.37392
1872,8.4481,0.90909,0,0.00038065,3803.8,0.00012714,0.0077296,0.00012303,-30.828,-0.00038116,-3819.2,0.37305
1873,8.4481,0.72727,0,0.0003813,3810.4,0.000127,0.010638,0.00012385,-23.706,-0.0003817,-3822.2,0.3721
1874,8.4481,0.54545,0,0.00038199,3817.3,0.00012686,0.010466,0.0001247,-16.256,-0.00038227,-3825.4,0.37107
1875,8.4481,0.36364,0,0.00038271,3824.5,0.00012672,0.039043,0.00012558,-8.4771,-0.00038286,-3828.7,0.36995
1876,8.4481,0.18182,0,0.00038357,3833,0.00012666,0.72135,0.00012651,-0.41225,-0.00038356,-3832.9,0.36876
1877,8.2644,5.8182,0,0.00038898,3887.1,0.00012844,0.32565,0.00012826,-1.0675,-0.00038899,-3887.5,0.35359
1878,8.2644,5.6364,0,0.00038807,3878,0.00012857,0.043331,0.00012721,-10.191,-0.00038824,-3883.1,0.3548
1879,8.2644,5.4545,0,0.00038729,3870.3,0.00012873,0.011764,0.00012625,-18.653,-0.00038761,-3879.5,0.35592
1880,8.2644,5.2727,0,0.00038655,3862.8,0.00012889,0.011759,0.00012532,-26.766,-0.000387,-3876.2,0.35697
1881,8.2644,5.0909,0,0.00038584,3855.8,0.00012903,0.0084016,0.00012444,-34.525,-0.00038642,-3872.9,0.35792
1882,8.2644,4.9091,0,0.00038517,3849.1,0.00012918,0.006883,0.0001236,-41.871,-0.00038587,-3869.8,0.3588
1883,8.2644,4.7273,0,0.00038454,3842.8,0.00012931,0.0054406,0.00012282,-48.747,-0.00038535,-3866.9,0.3596
1884,8.2644,4.5455,0,0.00038396,3837,0.00012943,0.0043046,0.00012209,-55.101,-0.00038487,-3864.3,0.36031
1885,8.2644,4.3636,0,0.00038344,3831.7,0.00012954,0.0033248,0.00012144,-60.883,-0.00038444,-3861.8,0.36095
1886,8.2644,4.1818,0,0.00038297,3827,0.00012964,0.0024965,0.00012085,-66.048,-0.00038405,-3859.6,0.3615
1887,8.2644,4,0,0.00038256,3822.9,0.00012972,0.0017976,0.00012033,-70.555,-0.00038371,-3857.7,0.36197
1888,8.2644,3.8182,0,0.00038221,3819.5,0.0001298,0.0012194,0.0001199,-74.367,-0.00038342,-3856.1,0.36237
1889,8.2644,3.6364,0,0.00038193,3816.7,0.00012985,0.000759,0.00011955,-77.455,-0.00038319,-3854.8,0.36268
1890,8.2644,3.4545,0,0.00038172,3814.5,0.0001299,0.00041508,0.00011928,-79.793,-0.00038301,-3853.8,0.36292
1891,8.2644,3.2727,0,0.00038157,3813.1,0.00012993,0.00018511,0.0001191,-81.362,-0.00038289,-3853.1,0.36308
1892,8.2644,3.0909,0,0.0003815,3812.4,0.00012994,7.02e-05,0.00011901,-82.15,-0.00038283,-3852.8,0.36316
1893,8.2644,2.9091,0,0.0003815,3812.4,0.00012994,6.9843e-05,0.00011901,-82.15,-0.00038283,-3852.8,0.36316
1894,8.2644,2.7273,0,0.00038157,3813.1,0.00012993,0.0001854,0.0001191,-81.362,-0.00038289,-3853.1,0.36308
1895,8.2644,2.5455,0,0.00038172,3814.5,0.0001299,0.00041532,0.00011928,-79.793,-0.00038301,-3853.8,0.36292
1896,8.2644,2.3636,0,0.00038193,3816.7,0.00012985,0.00075864,0.00011955,-77.455,-0.00038319,-3854.8,0.36268
1897,8.2644,2.1818,0,0.00038221,3819.5,0.0001298,0.0012195,0.0001199,-74.367,-0.00038342,-3856.1,0.36237
1898,8.2644,2,0,0.00038256,3822.9,0.00012972,0.0017984,0.00012033,-70.555,-0.00038371,-3857.7,0.36197
1899,8.2644,1.8182,0,0.00038297,3827,0.00012964,0.0024969,0.00012085,-66.048,-0.00038405,-3859.6,0.3615
1900,8.2644,1.6364,0,0.00038344,3831.7,0.00012954,0.0033255,0.00012144,-60.883,-0.00038444,-3861.8,0.36095
1901,8.2644,1.4545,0,0.00038396,3837,0.00012943,0.0043048,0.00012209,-55.101,-0.00038487,-3864.3,0.36031
1902,8.2644,1.2727,0,0.00038454,3842.8,0.00012931,0.0054417,0.00012282,-48.747,-0.00038535,-3866.9,0.3596
1903,8.2644,1.0909,0,0.00038517,3849.1,0.00012918,0.0068834,0.0001236,-41.871,-0.00038587,-3869.8,0.3588
1904,8.2644,0.90909,0,0.00038584,3855.8,0.00012903,0.008403,0.00012444,-34.525,-0.00038642,-3872.9,0.35792
1905,8.2644,0.72727,0,0.00038655,3862.8,0.00012889,0.01176,0.00012532,-26.766,-0.000387,-3876.2,0.35697
1906,8.2644,0.54545,0,0.00038729,3870.3,0.00012873,0.011764,0.00012625,-18.653,-0.00038761,-3879.5,0.35592
1907,8.2644,0.36364,0,0.00038807,3878,0.00012857,0.043333,0.00012721,-10.191,-0.00038824,-3883.1,0.3548
1908,8.2644,0.18182,0,0.00038898,3887.1,0.00012844,0.32564,0.00012826,-1.0675,-0.00038899,-3887.5,0.35359
1909,8.0808,5.8182,0,0.00039441,3941.4,0.00013027,0.19834,0.00012997,-2.054,-0.00039444,-3942.3,0.33868
1910,8.0808,5.6364,0,0.00039345,3931.8,0.00013044,0.048005,0.00012883,-12.024,-0.00039365,-3937.8,0.3399
1911,8.0808,5.4545,0,0.00039261,3923.4,0.00013061,0.01318,0.00012779,-21.225,-0.00039297,-3934,0.34104
1912,8.0808,5.2727,0,0.00039181,3915.4,0.00013079,0.012987,0.00012678,-30.055,-0.00039232,-3930.4,0.34209
1913,8.0808,5.0909,0,0.00039105,3907.8,0.00013095,0.0091434,0.00012582,-38.502,-0.00039169,-3926.9,0.34306
1914,8.0808,4.9091,0,0.00039032,3900.5,0.0001311,0.0073704,0.00012491,-46.502,-0.00039109,-3923.6,0.34394
1915,8.0808,4.7273,0,0.00038965,3893.8,0.00013125,0.0057071,0.00012406,-53.992,-0.00039054,-3920.5,0.34475
1916,8.0808,4.5455,0,0.00038902,3887.5,0.00013138,0.0043989,0.00012327,-60.916,-0.00039002,-3917.6,0.34547
1917,8.0808,4.3636,0,0.00038845,3881.8,0.0001315,0.0032774,0.00012256,-67.218,-0.00038955,-3915,0.34611
1918,8.0808,4.1818,0,0.00038794,3876.7,0.00013161,0.0023317,0.00012192,-72.848,-0.00038913,-3912.6,0.34667
1919,8.0808,4,0,0.0003875,3872.3,0.00013171,0.0015358,0.00012136,-77.762,-0.00038876,-3910.6,0.34714
1920,8.0808,3.8182,0,0.00038712,3868.5,0.00013179,0.00087895,0.00012088,-81.919,-0.00038845,-3908.8,0.34754
1921,8.0808,3.6364,0,0.00038682,3865.5,0.00013185,0.00035661,0.0001205,-85.287,-0.0003882,-3907.4,0.34786
1922,8.0808,3.4545,0,0.00038659,3863.2,0.0001319,-3.2951e-05,0.00012021,-87.837,-0.00038801,-3906.4,0.3481
1923,8.0808,3.2727,0,0.00038643,3861.6,0.00013193,-0.0002931,0.00012001,-89.549,-0.00038788,-3905.6,0.34826
1924,8.0808,3.0909,0,0.00038635,3860.9,0.00013195,-0.00042341,0.00011992,-90.408,-0.00038781,-3905.3,0.34833
1925,8.0808,2.9091,0,0.00038635,3860.9,0.00013195,-0.00042305,0.00011992,-90.408,-0.00038781,-3905.3,0.34833
1926,8.0808,2.7273,0,0.00038643,3861.6,0.00013193,-0.00029256,0.00012001,-89.549,-0.00038788,-3905.6,0.34826
1927,8.0808,2.5455,0,0.00038659,3863.2,0.0001319,-3.2713e-05,0.00012021,-87.837,-0.00038801,-3906.4,0.3481
1928,8.0808,2.3636,0,0.00038682,3865.5,0.00013185,0.00035679,0.0001205,-85.287,-0.0003882,-3907.4,0.34786
1929,8.0808,2.1818,0,0.00038712,3868.5,0.00013179,0.00087907,0.00012088,-81.919,-0.00038845,-3908.8,0.34754
1930,8.0808,2,0,0.0003875,3872.3,0.00013171,0.0015361,0.00012136,-77.762,-0.00038876,-3910.6,0.34714
1931,8.0808,1.8182,0,0.00038794,3876.7,0.00013161,0.0023321,0.00012192,-72.848,-0.00038913,-3912.6,0.34667
1932,8.0808,1.6364,0,0.00038845,3881.8,0.0001315,0.0032778,0.00012256,-67.218,-0.00038955,-3915,0.34611
1933,8.0808,1.4545,0,0.00038902,3887.5,0.00013138,0.0044001,0.00012327,-60.916,-0.00039002,-3917.6,0.34547
1934,8.0808,1.2727,0,0.00038965,3893.8,0.00013125,0.0057078,0.00012406,-53.992,-0.00039054,-3920.5,0.34475
1935,8.0808,1.0909,0,0.00039032,3900.5,0.0001311,0.0073708,0.00012491,-46.502,-0.00039109,-3923.6,0.34394
1936,8.0808,0.90909,0,0.00039105,3907.8,0.00013095,0.0091455,0.00012582,-38.502,-0.00039169,-3926.9,0.34306
1937,8.0808,0.72727,0,0.00039181,3915.4,0.00013079,0.012988,0.00012678,-30.055,-0.00039232,-3930.4,0.34209
1938,8.0808,0.54545,0,0.00039261,3923.4,0.00013061,0.01318,0.00012779,-21.226,-0.00039297,-3934,0.34104
1939,8.0808,0.36364,0,0.00039345,3931.8,0.00013044,0.048007,0.00012883,-12.024,-0.00039365,-3937.8,0.3399
1940,8.0808,0.18182,0,0.00039441,3941.4,0.00013027,0.19834,0.00012997,-2.054,-0.00039444,-3942.3,0.33868
1941,7.8971,5.8182,0,0.00039988,3996,0.00013213,0.15024,0.00013169,-3.1858,-0.00039993,-3997.5,0.32404
1942,7.8971,5.6364,0,0.00039885,3985.8,0.00013232,0.053093,0.00013045,-13.983,-0.00039909,-3992.7,0.32527
1943,7.8971,5.4545,0,0.00039795,3976.8,0.00013251,0.014725,0.00012932,-23.985,-0.00039835,-3988.7,0.32642
1944,7.8971,5.2727,0,0.00039709,3968.1,0.0001327,0.014331,0.00012823,-33.59,-0.00039765,-3984.8,0.32748
1945,7.8971,5.0909,0,0.00039626,3959.9,0.00013288,0.0099624,0.00012719,-42.782,-0.00039697,-3981.1,0.32846
1946,7.8971,4.9091,0,0.00039548,3952.1,0.00013305,0.0079124,0.0001262,-51.49,-0.00039633,-3977.6,0.32935
1947,7.8971,4.7273,0,0.00039475,3944.7,0.00013321,0.0060084,0.00012527,-59.646,-0.00039573,-3974.2,0.33016
1948,7.8971,4.5455,0,0.00039407,3938,0.00013336,0.0045146,0.00012441,-67.187,-0.00039517,-3971.1,0.33089
1949,7.8971,4.3636,0,0.00039345,3931.8,0.00013349,0.0032368,0.00012363,-74.052,-0.00039466,-3968.3,0.33153
1950,7.8971,4.1818,0,0.0003929,3926.3,0.00013361,0.0021635,0.00012294,-80.187,-0.0003942,-3965.8,0.33209
1951,7.8971,4,0,0.00039242,3921.5,0.00013371,0.0012617,0.00012233,-85.542,-0.00039381,-3963.6,0.33257
1952,7.8971,3.8182,0,0.00039202,3917.4,0.0001338,0.00051874,0.00012181,-90.074,-0.00039347,-3961.7,0.33297
1953,7.8971,3.6364,0,0.00039169,3914.2,0.00013387,-7.0633e-05,0.0001214,-93.746,-0.0003932,-3960.2,0.3333
1954,7.8971,3.4545,0,0.00039144,3911.7,0.00013393,-0.00050988,0.00012108,-96.526,-0.00039299,-3959,0.33353
1955,7.8971,3.2727,0,0.00039127,3910,0.00013396,-0.00080291,0.00012087,-98.393,-0.00039285,-3958.3,0.33369
1956,7.8971,3.0909,0,0.00039119,3909.2,0.00013398,-0.00094937,0.00012076,-99.33,-0.00039278,-3957.9,0.33377
1957,7.8971,2.9091,0,0.00039119,3909.2,0.00013398,-0.00094943,0.00012076,-99.33,-0.00039278,-3957.9,0.33377
1958,7.8971,2.7273,0,0.00039127,3910,0.00013396,-0.00080267,0.00012087,-98.393,-0.00039285,-3958.3,0.33369
1959,7.8971,2.5455,0,0.00039144,3911.7,0.00013393,-0.00050947,0.00012108,-96.526,-0.00039299,-3959,0.33353
1960,7.8971,2.3636,0,0.00039169,3914.2,0.00013387,-7.0098e-05,0.0001214,-93.746,-0.0003932,-3960.2,0.3333
1961,7.8971,2.1818,0,0.00039202,3917.4,0.0001338,0.00051927,0.00012181,-90.074,-0.00039347,-3961.7,0.33297
1962,7.8971,2,0,0.00039242,3921.5,0.00013371,0.0012623,0.00012233,-85.542,-0.00039381,-3963.6,0.33257
1963,7.8971,1.8182,0,0.0003929,3926.3,0.00013361,0.0021644,0.00012294,-80.187,-0.0003942,-3965.8,0.33209
1964,7.8971,1.6364,0,0.00039345,3931.8,0.00013349,0.0032377,0.00012363,-74.052,-0.00039466,-3968.3,0.33153
1965,7.8971,1.4545,0,0.00039407,3938,0.00013336,0.0045147,0.00012441,-67.187,-0.00039517,-3971.1,0.33089
1966,7.8971,1.2727,0,0.00039475,3944.7,0.00013321,0.0060092,0.00012527,-59.646,-0.00039573,-3974.2,0.33016
1967,7.8971,1.0909,0,0.00039548,3952.1,0.00013305,0.0079126,0.0001262,-51.49,-0.00039633,-3977.6,0.32935
1968,7.8971,0.90909,0,0.00039626,3959.9,0.00013288,0.009964,0.00012719,-42.782,-0.00039697,-3981.1,0.32846
1969,7.8971,0.72727,0,0.00039709,3968.1,0.0001327,0.014332,0.00012823,-33.59,-0.00039765,-3984.8,0.32748
1970,7.8971,0.54545,0,0.00039795,3976.8,0.00013251,0.014725,0.00012932,-23.985,-0.00039835,-3988.7,0.32642
1971,7.8971,0.36364,0,0.00039885,3985.8,0.00013232,0.053095,0.00013045,-13.983,-0.00039909,-3992.7,0.32527
1972,7.8971,0.18182,0,0.00039988,3996,0.00013213,0.15024,0.00013169,-3.1858,-0.00039993,-3997.5,0.32404
1973,7.7135,5.8182,0,0.00040537,4050.9,0.000134,0.12778,0.0001334,-4.4125,-0.00040544,-4053,0.30967
1974,7.7135,5.6364,0,0.00040428,4040,0.00013421,0.058634,0.00013207,-16.079,-0.00040455,-4048,0.31091
1975,7.7135,5.4545,0,0.00040331,4030.3,0.00013443,0.016416,0.00013084,-26.945,-0.00040376,-4043.7,0.31207
1976,7.7135,5.2727,0,0.00040238,4021,0.00013463,0.015804,0.00012966,-37.389,-0.000403,-4039.6,0.31314
1977,7.7135,5.0909,0,0.00040148,4012.1,0.00013483,0.010867,0.00012852,-47.388,-0.00040227,-4035.6,0.31412
1978,7.7135,4.9091,0,0.00040064,4003.6,0.00013502,0.008516,0.00012745,-56.863,-0.00040158,-4031.8,0.31502
1979,7.7135,4.7273,0,0.00039985,3995.7,0.00013519,0.0063514,0.00012644,-65.741,-0.00040092,-4028.2,0.31584
1980,7.7135,4.5455,0,0.00039911,3988.4,0.00013535,0.0046537,0.00012551,-73.951,-0.00040032,-4024.9,0.31657
1981,7.7135,4.3636,0,0.00039845,3981.7,0.0001355,0.0032076,0.00012466,-81.427,-0.00039977,-4021.8,0.31722
1982,7.7135,4.1818,0,0.00039785,3975.8,0.00013563,0.0019948,0.0001239,-88.11,-0.00039928,-4019.1,0.31779
1983,7.7135,4,0,0.00039733,3970.6,0.00013575,0.00097822,0.00012324,-93.945,-0.00039885,-4016.7,0.31827
1984,7.7135,3.8182,0,0.00039689,3966.2,0.00013584,0.00014208,0.00012268,-98.884,-0.00039848,-4014.7,0.31867
1985,7.7135,3.6364,0,0.00039654,3962.6,0.00013592,-0.00052085,0.00012223,-102.89,-0.00039819,-4013.1,0.319
1986,7.7135,3.4545,0,0.00039627,3959.9,0.00013598,-0.0010143,0.00012188,-105.92,-0.00039796,-4011.8,0.31924
1987,7.7135,3.2727,0,0.00039608,3958.1,0.00013602,-0.0013434,0.00012165,-107.95,-0.00039781,-4011,0.3194
1988,7.7135,3.0909,0,0.00039599,3957.2,0.00013604,-0.001508,0.00012154,-108.97,-0.00039773,-4010.6,0.31948
1989,7.7135,2.9091,0,0.00039599,3957.2,0.00013604,-0.0015078,0.00012154,-108.97,-0.00039773,-4010.6,0.31948
1990,7.7135,2.7273,0,0.00039608,3958.1,0.00013602,-0.0013431,0.00012165,-107.95,-0.00039781,-4011,0.3194
1991,7.7135,2.5455,0,0.00039627,3959.9,0.00013598,-0.0010141,0.00012188,-105.92,-0.00039796,-4011.8,0.31924
1992,7.7135,2.3636,0,0.00039654,3962.6,0.00013592,-0.00052049,0.00012223,-102.89,-0.00039819,-4013.1,0.319
1993,7.7135,2.1818,0,0.00039689,3966.2,0.00013584,0.00014255,0.00012268,-98.884,-0.00039848,-4014.7,0.31867
1994,7.7135,2,0,0.00039733,3970.6,0.00013575,0.00097845,0.00012324,-93.945,-0.00039885,-4016.7,0.31827
1995,7.7135,1.8182,0,0.00039785,3975.8,0.00013563,0.0019952,0.0001239,-88.11,-0.00039928,-4019.1,0.31779
1996,7.7135,1.6364,0,0.00039845,3981.7,0.0001355,0.0032086,0.00012466,-81.427,-0.00039977,-4021.8,0.31722
1997,7.7135,1.4545,0,0.00039911,3988.4,0.00013535,0.0046544,0.00012551,-73.951,-0.00040032,-4024.9,0.31657
1998,7.7135,1.2727,0,0.00039985,3995.7,0.00013519,0.0063519,0.00012644,-65.741,-0.00040092,-4028.2,0.31584
1999,7.7135,1.0909,0,0.00040064,4003.6,0.00013502,0.0085166,0.00012745,-56.863,-0.00040158,-4031.8,0.31502
2000,7.7135,0.90909,0,0.00040148,4012.1,0.00013483,0.010869,0.00012852,-47.388,-0.00040227,-4035.6,0.31412
2001,7.7135,0.72727,0,0.00040238,4021,0.00013463,0.015806,0.00012966,-37.389,-0.000403,-4039.6,0.31314
2002,7.7135,0.54545,0,0.00040331,4030.3,0.00013443,0.016417,0.00013084,-26.945,-0.00040376,-4043.7,0.31207
2003,7.7135,0.36364,0,0.00040428,4040,0.00013421,0.058635,0.00013207,-16.079,-0.00040455,-4048,0.31091
2004,7.7135,0.18182,0,0.00040537,4050.9,0.000134,0.12778,0.0001334,-4.4125,-0.00040544,-4053,0.30967
2005,7.5298,5.8182,0,0.00041089,4106.1,0.00013589,0.11635,0.00013511,-5.7226,-0.00041099,-4108.9,0.29557
2006,7.5298,5.6364,0,0.00040973,4094.5,0.00013612,0.064656,0.00013368,-18.318,-0.00041004,-4103.6,0.29683
2007,7.5298,5.4545,0,0.00040869,4084,0.00013636,0.018258,0.00013235,-30.121,-0.00040919,-4099,0.29799
2008,7.5298,5.2727,0,0.00040768,4074,0.00013658,0.017409,0.00013106,-41.474,-0.00040837,-4094.6,0.29907
2009,7.5298,5.0909,0,0.00040672,4064.3,0.0001368,0.011856,0.00012983,-52.346,-0.00040758,-4090.3,0.30006
2010,7.5298,4.9091,0,0.0004058,4055.2,0.00013701,0.0091777,0.00012867,-62.653,-0.00040683,-4086.2,0.30097
2011,7.5298,4.7273,0,0.00040495,4046.7,0.0001372,0.006729,0.00012757,-72.313,-0.00040613,-4082.3,0.30179
2012,7.5298,4.5455,0,0.00040415,4038.7,0.00013738,0.0048105,0.00012656,-81.249,-0.00040547,-4078.8,0.30253
2013,7.5298,4.3636,0,0.00040343,4031.5,0.00013754,0.0031814,0.00012564,-89.389,-0.00040488,-4075.5,0.30318
2014,7.5298,4.1818,0,0.00040279,4025.1,0.00013768,0.0018166,0.00012481,-96.667,-0.00040434,-4072.6,0.30375
2015,7.5298,4,0,0.00040222,4019.5,0.0001378,0.00067438,0.00012409,-103.02,-0.00040388,-4070,0.30424
2016,7.5298,3.8182,0,0.00040175,4014.7,0.00013791,-0.00026323,0.00012348,-108.4,-0.00040348,-4067.8,0.30464
2017,7.5298,3.6364,0,0.00040136,4010.8,0.000138,-0.0010053,0.00012299,-112.76,-0.00040316,-4066,0.30497
2018,7.5298,3.4545,0,0.00040107,4007.9,0.00013806,-0.0015582,0.00012261,-116.07,-0.00040292,-4064.7,0.30521
2019,7.5298,3.2727,0,0.00040087,4006,0.0001381,-0.0019266,0.00012236,-118.29,-0.00040275,-4063.8,0.30537
2020,7.5298,3.0909,0,0.00040077,4005,0.00013813,-0.0021106,0.00012223,-119.4,-0.00040267,-4063.3,0.30545
2021,7.5298,2.9091,0,0.00040077,4005,0.00013813,-0.0021105,0.00012223,-119.4,-0.00040267,-4063.3,0.30545
2022,7.5298,2.7273,0,0.00040087,4006,0.0001381,-0.0019264,0.00012236,-118.29,-0.00040275,-4063.8,0.30537
2023,7.5298,2.5455,0,0.00040107,4007.9,0.00013806,-0.0015583,0.00012261,-116.07,-0.00040292,-4064.7,0.30521
2024,7.5298,2.3636,0,0.00040136,4010.8,0.000138,-0.0010055,0.00012299,-112.76,-0.00040316,-4066,0.30497
2025,7.5298,2.1818,0,0.00040175,4014.7,0.00013791,-0.0002627,0.00012348,-108.4,-0.00040348,-4067.8,0.30464
2026,7.5298,2,0,0.00040222,4019.5,0.0001378,0.00067545,0.00012409,-103.02,-0.00040388,-4070,0.30424
2027,7.5298,1.8182,0,0.00040279,4025.1,0.00013768,0.001817,0.00012481,-96.667,-0.00040434,-4072.6,0.30375
2028,7.5298,1.6364,0,0.00040343,4031.5,0.00013754,0.0031819,0.00012564,-89.389,-0.00040488,-4075.5,0.30318
2029,7.5298,1.4545,0,0.00040415,4038.7,0.00013738,0.0048111,0.00012656,-81.249,-0.00040547,-4078.8,0.30253
2030,7.5298,1.2727,0,0.00040495,4046.7,0.0001372,0.0067299,0.00012757,-72.313,-0.00040613,-4082.3,0.30179
2031,7.5298,1.0909,0,0.0004058,4055.2,0.00013701,0.0091786,0.00012867,-62.653,-0.00040683,-4086.2,0.30097
2032,7.5298,0.90909,0,0.00040672,4064.3,0.0001368,0.011857,0.00012983,-52.346,-0.00040758,-4090.3,0.30006
2033,7.5298,0.72727,0,0.00040768,4074,0.00013658,0.017409,0.00013106,-41.474,-0.00040837,-4094.6,0.29907
2034,7.5298,0.54545,0,0.00040869,4084,0.00013636,0.018259,0.00013235,-30.121,-0.00040919,-4099,0.29799
2035,7.5298,0.36364,0,0.00040973,4094.5,0.00013612,0.064658,0.00013368,-18.318,-0.00041004,-4103.6,0.29683
2036,7.5298,0.18182,0,0.00041089,4106.1,0.00013589,0.11635,0.00013511,-5.7226,-0.00041099,-4108.9,0.29557
2037,7.3462,5.8182,0,0.00041645,4161.6,0.00013779,0.11079,0.00013683,-7.1137,-0.00041657,-4165.1,0.28175
2038,7.3462,5.6364,0,0.00041521,4149.3,0.00013805,0.071207,0.00013528,-20.711,-0.00041556,-4159.5,0.28301
2039,7.3462,5.4545,0,0.00041408,4138,0.00013831,0.020269,0.00013384,-33.527,-0.00041464,-4154.6,0.28419
2040,7.3462,5.2727,0,0.00041299,4127.1,0.00013856,0.019159,0.00013245,-45.864,-0.00041376,-4149.8,0.28527
2041,7.3462,5.0909,0,0.00041195,4116.7,0.00013879,0.012939,0.00013111,-57.684,-0.0004129,-4145.2,0.28627
2042,7.3462,4.9091,0,0.00041097,4106.8,0.00013902,0.009906,0.00012985,-68.892,-0.00041209,-4140.8,0.28719
2043,7.3462,4.7273,0,0.00041004,4097.6,0.00013923,0.0071487,0.00012866,-79.401,-0.00041133,-4136.7,0.28801
2044,7.3462,4.5455,0,0.00040918,4089,0.00013942,0.0049905,0.00012756,-89.125,-0.00041063,-4132.8,0.28875
2045,7.3462,4.3636,0,0.0004084,4081.2,0.0001396,0.0031615,0.00012656,-97.986,-0.00040998,-4129.3,0.28941
2046,7.3462,4.1818,0,0.00040771,4074.2,0.00013976,0.001632,0.00012566,-105.91,-0.0004094,-4126.2,0.28998
2047,7.3462,4,0,0.0004071,4068.1,0.00013989,0.00035379,0.00012487,-112.83,-0.0004089,-4123.4,0.29047
2048,7.3462,3.8182,0,0.00040658,4063,0.00014001,-0.00069457,0.00012421,-118.7,-0.00040847,-4121,0.29088
2049,7.3462,3.6364,0,0.00040616,4058.8,0.0001401,-0.0015242,0.00012367,-123.45,-0.00040812,-4119.1,0.29121
2050,7.3462,3.4545,0,0.00040584,4055.6,0.00014017,-0.0021413,0.00012326,-127.05,-0.00040786,-4117.7,0.29145
2051,7.3462,3.2727,0,0.00040563,4053.5,0.00014022,-0.002552,0.00012299,-129.46,-0.00040768,-4116.7,0.29161
2052,7.3462,3.0909,0,0.00040553,4052.5,0.00014024,-0.0027572,0.00012285,-130.68,-0.00040759,-4116.2,0.2917
2053,7.3462,2.9091,0,0.00040553,4052.5,0.00014024,-0.0027571,0.00012285,-130.68,-0.00040759,-4116.2,0.2917
2054,7.3462,2.7273,0,0.00040563,4053.5,0.00014022,-0.0025517,0.00012299,-129.46,-0.00040768,-4116.7,0.29161
2055,7.3462,2.5455,0,0.00040584,4055.6,0.00014017,-0.002141,0.00012326,-127.05,-0.00040786,-4117.7,0.29145
2056,7.3462,2.3636,0,0.00040616,4058.8,0.0001401,-0.0015239,0.00012367,-123.45,-0.00040812,-4119.1,0.29121
2057,7.3462,2.1818,0,0.00040658,4063,0.00014001,-0.00069409,0.00012421,-118.7,-0.00040847,-4121,0.29088
2058,7.3462,2,0,0.0004071,4068.1,0.00013989,0.00035408,0.00012487,-112.83,-0.0004089,-4123.4,0.29047
2059,7.3462,1.8182,0,0.00040771,4074.2,0.00013976,0.0016325,0.00012566,-105.91,-0.0004094,-4126.2,0.28998
2060,7.3462,1.6364,0,0.0004084,4081.2,0.0001396,0.0031622,0.00012656,-97.986,-0.00040998,-4129.3,0.28941
2061,7.3462,1.4545,0,0.00040918,4089,0.00013942,0.0049916,0.00012756,-89.125,-0.00041063,-4132.8,0.28875
2062,7.3462,1.2727,0,0.00041004,4097.6,0.00013923,0.0071495,0.00012866,-79.401,-0.00041133,-4136.7,0.28801
2063,7.3462,1.0909,0,0.00041097,4106.8,0.00013902,0.0099066,0.00012985,-68.892,-0.00041209,-4140.8,0.28719
2064,7.3462,0.90909,0,0.00041195,4116.7,0.00013879,0.012941,0.00013111,-57.684,-0.0004129,-4145.2,0.28627
2065,7.3462,0.72727,0,0.00041299,4127.1,0.00013856,0.01916,0.00013245,-45.864,-0.00041376,-4149.8,0.28527
2066,7.3462,0.54545,0,0.00041408,4138,0.00013831,0.020269,0.00013384,-33.527,-0.00041464,-4154.6,0.28419
2067,7.3462,0.36364,0,0.00041521,4149.3,0.00013805,0.071209,0.00013528,-20.711,-0.00041556,-4159.5,0.28301
2068,7.3462,0.18182,0,0.00041645,4161.6,0.00013779,0.11079,0.00013683,-7.1137,-0.00041657,-4165.1,0.28175
2069,7.1625,5.8182,0,0.00042204,4217.4,0.00013971,0.10892,0.00013855,-8.5862,-0.00042218,-4221.7,0.26821
2070,7.1625,5.6364,0,0.00042072,4204.3,0.00013999,0.07834,0.00013689,-23.267,-0.00042111,-4215.8,0.26948
2071,7.1625,5.4545,0,0.0004195,4192.1,0.00014027,0.022468,0.00013532,-37.18,-0.00042012,-4210.5,0.27067
2072,7.1625,5.2727,0,0.00041832,4180.3,0.00014055,0.021073,0.00013381,-50.583,-0.00041916,-4205.4,0.27176
2073,7.1625,5.0909,0,0.0004172,4169.1,0.00014081,0.014129,0.00013236,-63.429,-0.00041824,-4200.4,0.27276
2074,7.1625,4.9091,0,0.00041613,4158.4,0.00014105,0.01071,0.00013099,-75.615,-0.00041737,-4195.7,0.27368
2075,7.1625,4.7273,0,0.00041513,4148.4,0.00014128,0.0076183,0.0001297,-87.045,-0.00041654,-4191.3,0.27451
2076,7.1625,4.5455,0,0.0004142,4139.2,0.00014149,0.0051993,0.0001285,-97.626,-0.00041578,-4187.1,0.27526
2077,7.1625,4.3636,0,0.00041336,4130.7,0.00014169,0.0031527,0.00012741,-107.27,-0.00041508,-4183.3,0.27592
2078,7.1625,4.1818,0,0.0004126,4123.2,0.00014186,0.0014441,0.00012643,-115.9,-0.00041445,-4179.9,0.2765
2079,7.1625,4,0,0.00041194,4116.6,0.00014201,1.7379e-05,0.00012558,-123.44,-0.0004139,-4176.9,0.27699
2080,7.1625,3.8182,0,0.00041138,4111,0.00014214,-0.0011511,0.00012486,-129.82,-0.00041344,-4174.4,0.2774
2081,7.1625,3.6364,0,0.00041093,4106.5,0.00014224,-0.0020754,0.00012427,-135,-0.00041306,-4172.3,0.27773
2082,7.1625,3.4545,0,0.00041059,4103.1,0.00014232,-0.0027623,0.00012383,-138.92,-0.00041278,-4170.8,0.27797
2083,7.1625,3.2727,0,0.00041036,4100.7,0.00014237,-0.0032193,0.00012353,-141.56,-0.00041258,-4169.7,0.27813
2084,7.1625,3.0909,0,0.00041024,4099.6,0.0001424,-0.0034478,0.00012338,-142.88,-0.00041249,-4169.2,0.27822
2085,7.1625,2.9091,0,0.00041024,4099.6,0.0001424,-0.0034477,0.00012338,-142.88,-0.00041249,-4169.2,0.27822
2086,7.1625,2.7273,0,0.00041036,4100.7,0.00014237,-0.0032191,0.00012353,-141.56,-0.00041258,-4169.7,0.27813
2087,7.1625,2.5455,0,0.00041059,4103.1,0.00014232,-0.0027621,0.00012383,-138.92,-0.00041278,-4170.8,0.27797
2088,7.1625,2.3636,0,0.00041093,4106.5,0.00014224,-0.0020751,0.00012427,-135,-0.00041306,-4172.3,0.27773
2089,7.1625,2.1818,0,0.00041138,4111,0.00014214,-0.0011508,0.00012486,-129.82,-0.00041344,-4174.4,0.2774
2090,7.1625,2,0,0.00041194,4116.6,0.00014201,1.7737e-05,0.00012558,-123.44,-0.0004139,-4176.9,0.27699
2091,7.1625,1.8182,0,0.0004126,4123.2,0.00014186,0.0014444,0.00012643,-115.9,-0.00041445,-4179.9,0.2765
2092,7.1625,1.6364,0,0.00041336,4130.7,0.00014169,0.0031533,0.00012741,-107.27,-0.00041508,-4183.3,0.27592
2093,7.1625,1.4545,0,0.0004142,4139.2,0.00014149,0.0051997,0.0001285,-97.626,-0.00041578,-4187.1,0.27526
2094,7.1625,1.2727,0,0.00041513,4148.4,0.00014128,0.0076191,0.0001297,-87.045,-0.00041654,-4191.3,0.27451
2095,7.1625,1.0909,0,0.00041613,4158.4,0.00014105,0.010711,0.00013099,-75.615,-0.00041737,-4195.7,0.27368
2096,7.1625,0.90909,0,0.0004172,4169.1,0.00014081,0.014131,0.00013236,-63.429,-0.00041824,-4200.4,0.27276
2097,7.1625,0.72727,0,0.00041832,4180.3,0.00014055,0.021074,0.00013381,-50.583,-0.00041916,-4205.4,0.27176
2098,7.1625,0.54545,0,0.0004195,4192.1,0.00014027,0.022469,0.00013532,-37.18,-0.00042012,-4210.5,0.27067
2099,7.1625,0.36364,0,0.00042072,4204.3,0.00013999,0.078341,0.00013689,-23.267,-0.00042111,-4215.8,0.26948
2100,7.1625,0.18182,0,0.00042204,4217.4,0.00013971,0.10892,0.00013855,-8.5862,-0.00042218,-4221.7,0.26821
2101,6.9788,5.8182,0,0.00042766,4273.6,0.00014164,0.10966,0.00014027,-10.141,-0.00042783,-4278.6,0.25495
2102,6.9788,5.6364,0,0.00042625,4259.5,0.00014195,0.086103,0.00013848,-25.996,-0.00042668,-4272.4,0.25624
2103,6.9788,5.4545,0,0.00042493,4246.4,0.00014226,0.024873,0.00013679,-41.097,-0.00042562,-4266.8,0.25743
2104,6.9788,5.2727,0,0.00042366,4233.7,0.00014256,0.023162,0.00013515,-55.654,-0.00042458,-4261.3,0.25853
2105,6.9788,5.0909,0,0.00042245,4221.6,0.00014284,0.015433,0.00013358,-69.613,-0.00042359,-4255.9,0.25954
2106,6.9788,4.9091,0,0.00042129,4210,0.00014311,0.011594,0.00013208,-82.86,-0.00042264,-4250.9,0.26046
2107,6.9788,4.7273,0,0.00042021,4199.2,0.00014336,0.0081386,0.00013068,-95.29,-0.00042175,-4246.1,0.2613
2108,6.9788,4.5455,0,0.00041921,4189.2,0.0001436,0.0054354,0.00012938,-106.8,-0.00042092,-4241.6,0.26204
2109,6.9788,4.3636,0,0.0004183,4180.1,0.00014381,0.0031534,0.0001282,-117.3,-0.00042017,-4237.5,0.26271
2110,6.9788,4.1818,0,0.00041748,4171.9,0.000144,0.0012492,0.00012713,-126.69,-0.00041949,-4233.8,0.26329
2111,6.9788,4,0,0.00041676,4164.8,0.00014416,-0.0003382,0.00012621,-134.9,-0.00041889,-4230.6,0.26378
2112,6.9788,3.8182,0,0.00041616,4158.7,0.0001443,-0.0016378,0.00012542,-141.86,-0.00041839,-4227.8,0.26419
2113,6.9788,3.6364,0,0.00041567,4153.8,0.00014441,-0.0026644,0.00012478,-147.49,-0.00041798,-4225.6,0.26452
2114,6.9788,3.4545,0,0.0004153,4150.1,0.0001445,-0.0034281,0.0001243,-151.77,-0.00041767,-4223.9,0.26477
2115,6.9788,3.2727,0,0.00041505,4147.6,0.00014455,-0.0039355,0.00012397,-154.64,-0.00041746,-4222.8,0.26493
2116,6.9788,3.0909,0,0.00041492,4146.3,0.00014458,-0.0041889,0.00012381,-156.08,-0.00041736,-4222.2,0.26501
2117,6.9788,2.9091,0,0.00041492,4146.3,0.00014458,-0.004189,0.00012381,-156.08,-0.00041736,-4222.2,0.26501
2118,6.9788,2.7273,0,0.00041505,4147.6,0.00014455,-0.0039352,0.00012397,-154.64,-0.00041746,-4222.8,0.26493
2119,6.9788,2.5455,0,0.0004153,4150.1,0.0001445,-0.0034277,0.0001243,-151.77,-0.00041767,-4223.9,0.26477
2120,6.9788,2.3636,0,0.00041567,4153.8,0.00014441,-0.0026646,0.00012478,-147.49,-0.00041798,-4225.6,0.26452
2121,6.9788,2.1818,0,0.00041616,4158.7,0.0001443,-0.0016374,0.00012542,-141.86,-0.00041839,-4227.8,0.26419
2122,6.9788,2,0,0.00041676,4164.8,0.00014416,-0.00033766,0.00012621,-134.9,-0.00041889,-4230.6,0.26378
2123,6.9788,1.8182,0,0.00041748,4171.9,0.000144,0.00125,0.00012713,-126.69,-0.00041949,-4233.8,0.26329
2124,6.9788,1.6364,0,0.0004183,4180.1,0.00014381,0.0031539,0.0001282,-117.3,-0.00042017,-4237.5,0.26271
2125,6.9788,1.4545,0,0.00041921,4189.2,0.0001436,0.0054363,0.00012938,-106.8,-0.00042092,-4241.6,0.26204
2126,6.9788,1.2727,0,0.00042021,4199.2,0.00014336,0.0081392,0.00013068,-95.29,-0.00042175,-4246.1,0.2613
2127,6.9788,1.0909,0,0.00042129,4210,0.00014311,0.011595,0.00013208,-82.86,-0.00042264,-4250.9,0.26046
2128,6.9788,0.90909,0,0.00042245,4221.6,0.00014284,0.015434,0.00013358,-69.613,-0.00042359,-4255.9,0.25954
2129,6.9788,0.72727,0,0.00042366,4233.7,0.00014256,0.023163,0.00013515,-55.654,-0.00042458,-4261.3,0.25853
2130,6.9788,0.54545,0,0.00042493,4246.4,0.00014226,0.024873,0.00013679,-41.097,-0.00042562,-4266.8,0.25743
2131,6.9788,0.36364,0,0.00042625,4259.5,0.00014195,0.086104,0.00013848,-25.996,-0.00042668,-4272.4,0.25624
2132,6.9788,0.18182,0,0.00042766,4273.6,0.00014164,0.10966,0.00014027,-10.141,-0.00042783,-4278.6,0.25495
2133,6.7952,5.8182,0,0.00043332,4330.2,0.00014359,0.11251,0.000142,-11.78,-0.00043351,-4336,0.24199
2134,6.7952,5.6364,0,0.00043181,4315.1,0.00014393,0.09456,0.00014007,-28.908,-0.00043229,-4329.4,0.24328
2135,6.7952,5.4545,0,0.00043039,4300.9,0.00014427,0.027508,0.00013824,-45.295,-0.00043114,-4323.4,0.24447
2136,6.7952,5.2727,0,0.00042902,4287.2,0.00014459,0.025446,0.00013646,-61.103,-0.00043002,-4317.4,0.24558
2137,6.7952,5.0909,0,0.0004277,4274.1,0.0001449,0.016864,0.00013475,-76.268,-0.00042895,-4311.7,0.2466
2138,6.7952,4.9091,0,0.00042646,4261.6,0.0001452,0.01257,0.00013313,-90.667,-0.00042793,-4306.2,0.24752
2139,6.7952,4.7273,0,0.00042529,4249.9,0.00014547,0.0087184,0.00013161,-104.18,-0.00042696,-4301.1,0.24836
2140,6.7952,4.5455,0,0.0004242,4239.1,0.00014573,0.0057069,0.00013019,-116.71,-0.00042607,-4296.2,0.24911
2141,6.7952,4.3636,0,0.00042321,4229.2,0.00014596,0.0031682,0.00012891,-128.13,-0.00042525,-4291.8,0.24978
2142,6.7952,4.1818,0,0.00042233,4220.4,0.00014617,0.0010522,0.00012775,-138.35,-0.00042451,-4287.8,0.25036
2143,6.7952,4,0,0.00042155,4212.6,0.00014634,-0.00071069,0.00012674,-147.29,-0.00042387,-4284.3,0.25086
2144,6.7952,3.8182,0,0.0004209,4206.1,0.0001465,-0.0021525,0.00012589,-154.87,-0.00042332,-4281.4,0.25127
2145,6.7952,3.6364,0,0.00042037,4200.8,0.00014662,-0.0032915,0.00012519,-161.01,-0.00042287,-4279,0.2516
2146,6.7952,3.4545,0,0.00041996,4196.7,0.00014671,-0.0041375,0.00012466,-165.67,-0.00042254,-4277.1,0.25185
2147,6.7952,3.2727,0,0.00041969,4194,0.00014678,-0.0047,0.00012431,-168.8,-0.00042231,-4275.9,0.25201
2148,6.7952,3.0909,0,0.00041956,4192.7,0.00014681,-0.0049807,0.00012413,-170.37,-0.0004222,-4275.3,0.25209
2149,6.7952,2.9091,0,0.00041956,4192.7,0.00014681,-0.0049806,0.00012413,-170.37,-0.0004222,-4275.3,0.25209
2150,6.7952,2.7273,0,0.00041969,4194,0.00014678,-0.0046997,0.00012431,-168.8,-0.00042231,-4275.9,0.25201
2151,6.7952,2.5455,0,0.00041996,4196.7,0.00014671,-0.0041373,0.00012466,-165.67,-0.00042254,-4277.1,0.25185
2152,6.7952,2.3636,0,0.00042037,4200.8,0.00014662,-0.003291,0.00012519,-161.01,-0.00042287,-4279,0.2516
2153,6.7952,2.1818,0,0.0004209,4206.1,0.0001465,-0.0021524,0.00012589,-154.87,-0.00042332,-4281.4,0.25127
2154,6.7952,2,0,0.00042155,4212.6,0.00014634,-0.00071051,0.00012674,-147.29,-0.00042387,-4284.3,0.25086
2155,6.7952,1.8182,0,0.00042233,4220.4,0.00014617,0.0010525,0.00012775,-138.35,-0.00042451,-4287.8,0.25036
2156,6.7952,1.6364,0,0.00042321,4229.2,0.00014596,0.0031689,0.00012891,-128.13,-0.00042525,-4291.8,0.24978
2157,6.7952,1.4545,0,0.0004242,4239.1,0.00014573,0.0057077,0.00013019,-116.71,-0.00042607,-4296.2,0.24911
2158,6.7952,1.2727,0,0.00042529,4249.9,0.00014547,0.0087192,0.00013161,-104.18,-0.00042696,-4301.1,0.24836
2159,6.7952,1.0909,0,0.00042646,4261.6,0.0001452,0.012571,0.00013313,-90.667,-0.00042793,-4306.2,0.24752
2160,6.7952,0.90909,0,0.0004277,4274.1,0.0001449,0.016866,0.00013475,-76.268,-0.00042895,-4311.7,0.2466
2161,6.7952,0.72727,0,0.00042902,4287.2,0.00014459,0.025447,0.00013646,-61.103,-0.00043002,-4317.4,0.24558
2162,6.7952,0.54545,0,0.00043039,4300.9,0.00014427,0.027508,0.00013824,-45.295,-0.00043114,-4323.4,0.24447
2163,6.7952,0.36364,0,0.00043181,4315.1,0.00014393,0.094562,0.00014007,-28.908,-0.00043229,-4329.4,0.24328
2164,6.7952,0.18182,0,0.00043332,4330.2,0.00014359,0.11252,0.000142,-11.78,-0.00043351,-4336,0.24199
2165,6.6115,5.8182,0,0.00043902,4387.1,0.00014555,0.11722,0.00014374,-13.503,-0.00043924,-4393.8,0.22931
2166,6.6115,5.6364,0,0.0004374,4371,0.00014593,0.10377,0.00014166,-32.012,-0.00043793,-4386.8,0.23061
2167,6.6115,5.4545,0,0.00043586,4355.6,0.0001463,0.030392,0.00013967,-49.791,-0.00043669,-4380.3,0.23181
2168,6.6115,5.2727,0,0.00043438,4340.8,0.00014665,0.027941,0.00013774,-66.955,-0.00043548,-4373.9,0.23292
2169,6.6115,5.0909,0,0.00043296,4326.7,0.00014699,0.018433,0.00013589,-83.429,-0.00043432,-4367.8,0.23394
2170,6.6115,4.9091,0,0.00043162,4313.2,0.00014731,0.013642,0.00013413,-99.077,-0.00043322,-4361.9,0.23487
2171,6.6115,4.7273,0,0.00043035,4300.5,0.00014761,0.0093606,0.00013247,-113.77,-0.00043217,-4356.3,0.23572
2172,6.6115,4.5455,0,0.00042918,4288.8,0.00014789,0.006014,0.00013094,-127.4,-0.0004312,-4351.1,0.23647
2173,6.6115,4.3636,0,0.00042811,4278.1,0.00014814,0.0031962,0.00012953,-139.83,-0.00043031,-4346.3,0.23714
2174,6.6115,4.1818,0,0.00042715,4268.5,0.00014837,0.00084934,0.00012828,-150.96,-0.00042951,-4342,0.23772
2175,6.6115,4,0,0.00042631,4260.2,0.00014857,-0.0011042,0.00012718,-160.69,-0.00042882,-4338.2,0.23822
2176,6.6115,3.8182,0,0.0004256,4253.1,0.00014873,-0.0027007,0.00012625,-168.95,-0.00042822,-4335,0.23863
2177,6.6115,3.6364,0,0.00042502,4247.3,0.00014887,-0.0039609,0.00012549,-175.64,-0.00042774,-4332.4,0.23896
2178,6.6115,3.4545,0,0.00042459,4242.9,0.00014897,-0.0048972,0.00012492,-180.72,-0.00042737,-4330.4,0.23921
2179,6.6115,3.2727,0,0.00042429,4240,0.00014904,-0.0055192,0.00012453,-184.13,-0.00042713,-4329.1,0.23937
2180,6.6115,3.0909,0,0.00042415,4238.5,0.00014907,-0.0058295,0.00012434,-185.84,-0.000427,-4328.4,0.23946
2181,6.6115,2.9091,0,0.00042415,4238.5,0.00014907,-0.0058297,0.00012434,-185.84,-0.000427,-4328.4,0.23946
2182,6.6115,2.7273,0,0.00042429,4240,0.00014904,-0.0055191,0.00012453,-184.13,-0.00042713,-4329.1,0.23937
2183,6.6115,2.5455,0,0.00042459,4242.9,0.00014897,-0.0048971,0.00012492,-180.72,-0.00042737,-4330.4,0.23921
2184,6.6115,2.3636,0,0.00042502,4247.3,0.00014887,-0.0039607,0.00012549,-175.64,-0.00042774,-4332.4,0.23896
2185,6.6115,2.1818,0,0.0004256,4253.1,0.00014873,-0.0027002,0.00012625,-168.95,-0.00042822,-4335,0.23863
2186,6.6115,2,0,0.00042631,4260.2,0.00014857,-0.0011038,0.00012718,-160.69,-0.00042882,-4338.2,0.23822
2187,6.6115,1.8182,0,0.00042715,4268.5,0.00014837,0.00085006,0.00012828,-150.96,-0.00042951,-4342,0.23772
2188,6.6115,1.6364,0,0.00042811,4278.1,0.00014814,0.0031968,0.00012953,-139.83,-0.00043031,-4346.3,0.23714
2189,6.6115,1.4545,0,0.00042918,4288.8,0.00014789,0.0060148,0.00013094,-127.4,-0.0004312,-4351.1,0.23647
2190,6.6115,1.2727,0,0.00043035,4300.5,0.00014761,0.0093614,0.00013247,-113.77,-0.00043217,-4356.3,0.23572
2191,6.6115,1.0909,0,0.00043162,4313.2,0.00014731,0.013643,0.00013413,-99.077,-0.00043322,-4361.9,0.23487
2192,6.6115,0.90909,0,0.00043296,4326.7,0.00014699,0.018434,0.00013589,-83.429,-0.00043432,-4367.8,0.23394
2193,6.6115,0.72727,0,0.00043438,4340.8,0.00014665,0.027942,0.00013774,-66.955,-0.00043548,-4373.9,0.23292
2194,6.6115,0.54545,0,0.00043586,4355.6,0.0001463,0.030393,0.00013967,-49.791,-0.00043669,-4380.3,0.23181
2195,6.6115,0.36364,0,0.0004374,4371,0.00014593,0.10378,0.00014166,-32.012,-0.00043793,-4386.8,0.23061
2196,6.6115,0.18182,0,0.00043902,4387.1,0.00014555,0.11722,0.00014374,-13.503,-0.00043924,-4393.8,0.22931
2197,6.4279,5.8182,0,0.00044475,4444.5,0.00014754,0.12368,0.00014548,-15.312,-0.00044501,-4452,0.21693
2198,6.4279,5.6364,0,0.00044302,4427.1,0.00014795,0.11381,0.00014324,-35.318,-0.0004436,-4444.6,0.21823
2199,6.4279,5.4545,0,0.00044136,4410.6,0.00014835,0.033551,0.00014108,-54.605,-0.00044227,-4437.6,0.21944
2200,6.4279,5.2727,0,0.00043976,4394.6,0.00014874,0.030665,0.00013899,-73.238,-0.00044096,-4430.7,0.22056
2201,6.4279,5.0909,0,0.00043823,4379.3,0.00014911,0.020149,0.00013698,-91.131,-0.00043971,-4424.1,0.22158
2202,6.4279,4.9091,0,0.00043677,4364.7,0.00014946,0.014818,0.00013506,-108.14,-0.00043851,-4417.7,0.22252
2203,6.4279,4.7273,0,0.0004354,4351,0.00014979,0.010069,0.00013327,-124.12,-0.00043738,-4411.7,0.22336
2204,6.4279,4.5455,0,0.00043413,4338.3,0.00015009,0.0063571,0.0001316,-138.93,-0.00043633,-4406.1,0.22412
2205,6.4279,4.3636,0,0.00043297,4326.7,0.00015037,0.0032363,0.00013007,-152.46,-0.00043536,-4400.9,0.22479
2206,6.4279,4.1818,0,0.00043193,4316.4,0.00015061,0.00063869,0.00012871,-164.58,-0.0004345,-4396.3,0.22537
2207,6.4279,4,0,0.00043103,4307.3,0.00015083,-0.0015219,0.00012751,-175.19,-0.00043374,-4392.2,0.22587
2208,6.4279,3.8182,0,0.00043026,4299.6,0.00015101,-0.0032867,0.0001265,-184.18,-0.0004331,-4388.7,0.22628
2209,6.4279,3.6364,0,0.00042964,4293.4,0.00015116,-0.0046791,0.00012567,-191.47,-0.00043257,-4385.9,0.22661
2210,6.4279,3.4545,0,0.00042916,4288.7,0.00015127,-0.0057132,0.00012505,-197.01,-0.00043217,-4383.8,0.22686
2211,6.4279,3.2727,0,0.00042884,4285.5,0.00015134,-0.0063997,0.00012463,-200.72,-0.00043191,-4382.3,0.22703
2212,6.4279,3.0909,0,0.00042869,4283.9,0.00015138,-0.0067424,0.00012442,-202.59,-0.00043177,-4381.6,0.22711
2213,6.4279,2.9091,0,0.00042869,4283.9,0.00015138,-0.0067424,0.00012442,-202.59,-0.00043177,-4381.6,0.22711
2214,6.4279,2.7273,0,0.00042884,4285.5,0.00015134,-0.0063997,0.00012463,-200.72,-0.00043191,-4382.3,0.22703
2215,6.4279,2.5455,0,0.00042916,4288.7,0.00015127,-0.0057129,0.00012505,-197.01,-0.00043217,-4383.8,0.22686
2216,6.4279,2.3636,0,0.00042964,4293.4,0.00015116,-0.0046788,0.00012567,-191.47,-0.00043257,-4385.9,0.22661
2217,6.4279,2.1818,0,0.00043026,4299.6,0.00015101,-0.0032864,0.0001265,-184.18,-0.0004331,-4388.7,0.22628
2218,6.4279,2,0,0.00043103,4307.3,0.00015083,-0.0015217,0.00012751,-175.19,-0.00043374,-4392.2,0.22587
2219,6.4279,1.8182,0,0.00043193,4316.4,0.00015061,0.00063938,0.00012871,-164.58,-0.0004345,-4396.3,0.22537
2220,6.4279,1.6364,0,0.00043297,4326.7,0.00015037,0.0032367,0.00013007,-152.46,-0.00043536,-4400.9,0.22479
2221,6.4279,1.4545,0,0.00043413,4338.3,0.00015009,0.0063581,0.0001316,-138.93,-0.00043633,-4406.1,0.22412
2222,6.4279,1.2727,0,0.0004354,4351,0.00014979,0.010069,0.00013327,-124.12,-0.00043738,-4411.7,0.22336
2223,6.4279,1.0909,0,0.00043677,4364.7,0.00014946,0.014818,0.00013506,-108.14,-0.00043851,-4417.7,0.22252
2224,6.4279,0.90909,0,0.00043823,4379.3,0.00014911,0.02015,0.00013698,-91.131,-0.00043971,-4424.1,0.22158
2225,6.4279,0.72727,0,0.00043976,4394.6,0.00014874,0.030666,0.00013899,-73.238,-0.00044096,-4430.7,0.22056
2226,6.4279,0.54545,0,0.00044136,4410.6,0.00014835,0.033551,0.00014108,-54.605,-0.00044227,-4437.6,0.21944
2227,6.4279,0.36364,0,0.00044302,4427.1,0.00014795,0.11382,0.00014324,-35.318,-0.0004436,-4444.6,0.21823
2228,6.4279,0.18182,0,0.00044475,4444.5,0.00014754,0.12369,0.00014548,-15.312,-0.00044501,-4452,0.21693
2229,6.2442,5.8182,0,0.00045053,4502.2,0.00014954,0.13195,0.00014723,-17.204,-0.00045082,-4510.7,0.20485
2230,6.2442,5.6364,0,0.00044867,4483.6,0.00014999,0.12477,0.0001448,-38.836,-0.00044931,-4502.8,0.20616
2231,6.2442,5.4545,0,0.00044688,4465.7,0.00015042,0.037022,0.00014247,-59.756,-0.00044787,-4495.3,0.20737
2232,6.2442,5.2727,0,0.00044515,4448.5,0.00015085,0.03365,0.0001402,-79.981,-0.00044646,-4487.9,0.20849
2233,6.2442,5.0909,0,0.0004435,4431.9,0.00015125,0.022038,0.00013802,-99.414,-0.0004451,-4480.8,0.20952
2234,6.2442,4.9091,0,0.00044192,4416.1,0.00015164,0.016117,0.00013594,-117.89,-0.00044381,-4473.9,0.21046
2235,6.2442,4.7273,0,0.00044044,4401.3,0.00015199,0.01086,0.00013399,-135.27,-0.00044258,-4467.4,0.2113
2236,6.2442,4.5455,0,0.00043906,4387.6,0.00015233,0.0067521,0.00013218,-151.39,-0.00044144,-4461.3,0.21206
2237,6.2442,4.3636,0,0.00043781,4375.1,0.00015263,0.0033008,0.00013052,-166.11,-0.0004404,-4455.8,0.21273
2238,6.2442,4.1818,0,0.00043669,4363.9,0.0001529,0.00043092,0.00012903,-179.31,-0.00043946,-4450.7,0.21331
2239,6.2442,4,0,0.0004357,4354,0.00015313,-0.001955,0.00012773,-190.86,-0.00043864,-4446.3,0.21381
2240,6.2442,3.8182,0,0.00043487,4345.7,0.00015333,-0.0039022,0.00012663,-200.65,-0.00043794,-4442.6,0.21423
2241,6.2442,3.6364,0,0.0004342,4339,0.00015349,-0.005438,0.00012573,-208.61,-0.00043737,-4439.5,0.21456
2242,6.2442,3.4545,0,0.00043368,4333.9,0.00015362,-0.0065781,0.00012505,-214.64,-0.00043694,-4437.2,0.2148
2243,6.2442,3.2727,0,0.00043334,4330.4,0.0001537,-0.0073352,0.00012459,-218.69,-0.00043665,-4435.6,0.21497
2244,6.2442,3.0909,0,0.00043317,4328.7,0.00015374,-0.0077126,0.00012436,-220.73,-0.0004365,-4434.8,0.21505
2245,6.2442,2.9091,0,0.00043317,4328.7,0.00015374,-0.0077127,0.00012436,-220.73,-0.0004365,-4434.8,0.21505
2246,6.2442,2.7273,0,0.00043334,4330.4,0.0001537,-0.0073348,0.00012459,-218.69,-0.00043665,-4435.6,0.21497
2247,6.2442,2.5455,0,0.00043368,4333.9,0.00015362,-0.0065779,0.00012505,-214.64,-0.00043694,-4437.2,0.2148
2248,6.2442,2.3636,0,0.0004342,4339,0.00015349,-0.0054377,0.00012573,-208.61,-0.00043737,-4439.5,0.21456
2249,6.2442,2.1818,0,0.00043487,4345.7,0.00015333,-0.0039018,0.00012663,-200.65,-0.00043794,-4442.6,0.21423
2250,6.2442,2,0,0.0004357,4354,0.00015313,-0.0019546,0.00012773,-190.86,-0.00043864,-4446.3,0.21381
2251,6.2442,1.8182,0,0.00043669,4363.9,0.0001529,0.00043137,0.00012903,-179.31,-0.00043946,-4450.7,0.21331
2252,6.2442,1.6364,0,0.00043781,4375.1,0.00015263,0.0033015,0.00013052,-166.11,-0.0004404,-4455.8,0.21273
2253,6.2442,1.4545,0,0.00043906,4387.6,0.00015233,0.0067528,0.00013218,-151.39,-0.00044144,-4461.3,0.21206
2254,6.2442,1.2727,0,0.00044044,4401.3,0.00015199,0.010861,0.00013399,-135.27,-0.00044258,-4467.4,0.2113
2255,6.2442,1.0909,0,0.00044192,4416.1,0.00015164,0.016118,0.00013594,-117.89,-0.00044381,-4473.9,0.21046
2256,6.2442,0.90909,0,0.0004435,4431.9,0.00015125,0.02204,0.00013802,-99.414,-0.0004451,-4480.8,0.20952
2257,6.2442,0.72727,0,0.00044515,4448.5,0.00015085,0.033651,0.0001402,-79.981,-0.00044646,-4487.9,0.20849
2258,6.2442,0.54545,0,0.00044688,4465.7,0.00015042,0.037022,0.00014247,-59.756,-0.00044787,-4495.3,0.20737
2259,6.2442,0.36364,0,0.00044867,4483.6,0.00014999,0.12477,0.0001448,-38.836,-0.00044931,-4502.8,0.20616
2260,6.2442,0.18182,0,0.00045053,4502.2,0.00014954,0.13195,0.00014723,-17.204,-0.00045082,-4510.7,0.20485
2261,6.0606,5.8182,0,0.00045636,4560.4,0.00015156,0.14212,0.00014899,-19.178,-0.00045668,-4569.9,0.19307
2262,6.0606,5.6364,0,0.00045435,4540.4,0.00015205,0.13673,0.00014637,-42.576,-0.00045506,-4561.5,0.19439
2263,6.0606,5.4545,0,0.00045242,4521.1,0.00015252,0.040836,0.00014383,-65.264,-0.0004535,-4553.4,0.19561
2264,6.0606,5.2727,0,0.00045056,4502.5,0.00015299,0.036919,0.00014137,-87.214,-0.00045198,-4545.4,0.19673
2265,6.0606,5.0909,0,0.00044877,4484.6,0.00015343,0.024114,0.00013901,-108.32,-0.00045051,-4537.7,0.19776
2266,6.0606,4.9091,0,0.00044706,4467.5,0.00015385,0.017551,0.00013675,-128.4,-0.00044911,-4530.3,0.1987
2267,6.0606,4.7273,0,0.00044546,4451.5,0.00015424,0.01174,0.00013463,-147.29,-0.00044778,-4523.3,0.19954
2268,6.0606,4.5455,0,0.00044397,4436.7,0.0001546,0.0072004,0.00013266,-164.83,-0.00044655,-4516.8,0.2003
2269,6.0606,4.3636,0,0.00044262,4423.1,0.00015493,0.0033907,0.00013086,-180.85,-0.00044541,-4510.7,0.20097
2270,6.0606,4.1818,0,0.0004414,4410.9,0.00015522,0.00022433,0.00012924,-195.22,-0.0004444,-4505.3,0.20155
2271,6.0606,4,0,0.00044034,4400.3,0.00015548,-0.0024058,0.00012783,-207.8,-0.0004435,-4500.5,0.20205
2272,6.0606,3.8182,0,0.00043943,4391.3,0.0001557,-0.0045513,0.00012662,-218.48,-0.00044274,-4496.5,0.20247
2273,6.0606,3.6364,0,0.0004387,4384,0.00015588,-0.0062426,0.00012565,-227.15,-0.00044213,-4493.2,0.2028
2274,6.0606,3.4545,0,0.00043815,4378.5,0.00015601,-0.0074979,0.00012491,-233.73,-0.00044166,-4490.6,0.20304
2275,6.0606,3.2727,0,0.00043778,4374.7,0.0001561,-0.0083307,0.00012441,-238.15,-0.00044134,-4488.9,0.20321
2276,6.0606,3.0909,0,0.00043759,4372.9,0.00015615,-0.0087461,0.00012416,-240.37,-0.00044118,-4488.1,0.20329
2277,6.0606,2.9091,0,0.00043759,4372.9,0.00015615,-0.008746,0.00012416,-240.37,-0.00044118,-4488.1,0.20329
2278,6.0606,2.7273,0,0.00043778,4374.7,0.0001561,-0.0083305,0.00012441,-238.15,-0.00044134,-4488.9,0.20321
2279,6.0606,2.5455,0,0.00043815,4378.5,0.00015601,-0.0074976,0.00012491,-233.73,-0.00044166,-4490.6,0.20304
2280,6.0606,2.3636,0,0.0004387,4384,0.00015588,-0.0062424,0.00012565,-227.15,-0.00044213,-4493.2,0.2028
2281,6.0606,2.1818,0,0.00043943,4391.3,0.0001557,-0.0045509,0.00012662,-218.48,-0.00044274,-4496.5,0.20247
2282,6.0606,2,0,0.00044034,4400.3,0.00015548,-0.0024055,0.00012783,-207.8,-0.0004435,-4500.5,0.20205
2283,6.0606,1.8182,0,0.0004414,4410.9,0.00015522,0.00022496,0.00012924,-195.22,-0.0004444,-4505.3,0.20155
2284,6.0606,1.6364,0,0.00044262,4423.1,0.00015493,0.0033912,0.00013086,-180.85,-0.00044541,-4510.7,0.20097
2285,6.0606,1.4545,0,0.00044397,4436.7,0.0001546,0.007201,0.00013266,-164.83,-0.00044655,-4516.8,0.2003
2286,6.0606,1.2727,0,0.00044546,4451.5,0.00015424,0.011741,0.00013463,-147.29,-0.00044778,-4523.3,0.19954
2287,6.0606,1.0909,0,0.00044706,4467.5,0.00015385,0.017552,0.00013675,-128.4,-0.00044911,-4530.3,0.1987
2288,6.0606,0.90909,0,0.00044877,4484.6,0.00015343,0.024115,0.00013901,-108.32,-0.00045051,-4537.7,0.19776
2289,6.0606,0.72727,0,0.00045056,4502.5,0.00015299,0.03692,0.00014137,-87.214,-0.00045198,-4545.4,0.19673
2290,6.0606,0.54545,0,0.00045242,4521.1,0.00015252,0.040836,0.00014383,-65.264,-0.0004535,-4553.4,0.19561
2291,6.0606,0.36364,0,0.00045435,4540.4,0.00015205,0.13673,0.00014637,-42.576,-0.00045506,-4561.5,0.19439
2292,6.0606,0.18182,0,0.00045636,4560.4,0.00015156,0.14213,0.00014899,-19.178,-0.00045668,-4569.9,0.19307
2293,5.8769,5.8182,0,0.00046223,4619.1,0.0001536,0.15438,0.00015075,-21.232,-0.00046259,-4629.6,0.18161
2294,5.8769,5.6364,0,0.00046007,4597.6,0.00015414,0.14979,0.00014792,-46.545,-0.00046084,-4620.6,0.18292
2295,5.8769,5.4545,0,0.00045799,4576.7,0.00015465,0.045029,0.00014518,-71.147,-0.00045916,-4611.9,0.18414
2296,5.8769,5.2727,0,0.00045597,4556.6,0.00015515,0.040499,0.00014251,-94.967,-0.00045751,-4603.3,0.18527
2297,5.8769,5.0909,0,0.00045404,4537.2,0.00015564,0.026393,0.00013994,-117.89,-0.00045593,-4595,0.1863
2298,5.8769,4.9091,0,0.00045219,4518.8,0.00015609,0.01913,0.0001375,-139.71,-0.00045441,-4587,0.18724
2299,5.8769,4.7273,0,0.00045046,4501.5,0.00015652,0.012716,0.00013519,-160.25,-0.00045297,-4579.5,0.18808
2300,5.8769,4.5455,0,0.00044885,4485.4,0.00015692,0.0077068,0.00013305,-179.33,-0.00045163,-4572.4,0.18884
2301,5.8769,4.3636,0,0.00044739,4470.8,0.00015728,0.0035069,0.00013109,-196.77,-0.00045041,-4565.9,0.18951
2302,5.8769,4.1818,0,0.00044607,4457.6,0.0001576,1.916e-05,0.00012933,-212.42,-0.0004493,-4560,0.19009
2303,5.8769,4,0,0.00044492,4446.1,0.00015788,-0.0028766,0.00012779,-226.13,-0.00044833,-4554.9,0.19059
2304,5.8769,3.8182,0,0.00044394,4436.4,0.00015812,-0.0052368,0.00012648,-237.77,-0.00044751,-4550.5,0.191
2305,5.8769,3.6364,0,0.00044315,4428.4,0.00015831,-0.0070963,0.00012541,-247.22,-0.00044684,-4546.9,0.19133
2306,5.8769,3.4545,0,0.00044255,4422.4,0.00015846,-0.0084759,0.0001246,-254.39,-0.00044633,-4544.2,0.19158
2307,5.8769,3.2727,0,0.00044215,4418.4,0.00015856,-0.009391,0.00012406,-259.21,-0.00044599,-4542.3,0.19174
2308,5.8769,3.0909,0,0.00044194,4416.4,0.00015861,-0.0098473,0.00012379,-261.63,-0.00044581,-4541.4,0.19182
2309,5.8769,2.9091,0,0.00044194,4416.4,0.00015861,-0.0098473,0.00012379,-261.63,-0.00044581,-4541.4,0.19182
2310,5.8769,2.7273,0,0.00044215,4418.4,0.00015856,-0.009391,0.00012406,-259.21,-0.00044599,-4542.3,0.19174
2311,5.8769,2.5455,0,0.00044255,4422.4,0.00015846,-0.0084759,0.0001246,-254.39,-0.00044633,-4544.2,0.19158
2312,5.8769,2.3636,0,0.00044315,4428.4,0.00015831,-0.0070961,0.00012541,-247.22,-0.00044684,-4546.9,0.19133
2313,5.8769,2.1818,0,0.00044394,4436.4,0.00015812,-0.0052364,0.00012648,-237.77,-0.00044751,-4550.5,0.191
2314,5.8769,2,0,0.00044492,4446.1,0.00015788,-0.0028763,0.00012779,-226.13,-0.00044833,-4554.9,0.19059
2315,5.8769,1.8182,0,0.00044607,4457.6,0.0001576,1.958e-05,0.00012933,-212.42,-0.0004493,-4560,0.19009
2316,5.8769,1.6364,0,0.00044739,4470.8,0.00015728,0.0035077,0.00013109,-196.77,-0.00045041,-4565.9,0.18951
2317,5.8769,1.4545,0,0.00044885,4485.4,0.00015692,0.0077076,0.00013305,-179.33,-0.00045163,-4572.4,0.18884
2318,5.8769,1.2727,0,0.00045046,4501.5,0.00015652,0.012717,0.00013519,-160.25,-0.00045297,-4579.5,0.18808
2319,5.8769,1.0909,0,0.00045219,4518.8,0.00015609,0.019131,0.0001375,-139.71,-0.00045441,-4587,0.18724
2320,5.8769,0.90909,0,0.00045404,4537.2,0.00015564,0.026395,0.00013994,-117.89,-0.00045593,-4595,0.1863
2321,5.8769,0.72727,0,0.00045597,4556.6,0.00015515,0.0405,0.00014251,-94.967,-0.00045751,-4603.3,0.18527
2322,5.8769,0.54545,0,0.00045799,4576.7,0.00015465,0.045029,0.00014518,-71.147,-0.00045916,-4611.9,0.18414
2323,5.8769,0.36364,0,0.00046007,4597.6,0.00015414,0.14979,0.00014792,-46.545,-0.00046084,-4620.6,0.18292
2324,5.8769,0.18182,0,0.00046223,4619.1,0.0001536,0.15438,0.00015075,-21.232,-0.00046259,-4629.6,0.18161
2325,5.6933,5.8182,0,0.00046815,4678.3,0.00015566,0.16899,0.00015253,-23.36,-0.00046854,-4689.9,0.17045
2326,5.6933,5.6364,0,0.00046583,4655.1,0.00015624,0.16406,0.00014947,-50.753,-0.00046667,-4680.2,0.17177
2327,5.6933,5.4545,0,0.00046358,4632.6,0.0001568,0.049643,0.00014649,-77.428,-0.00046485,-4670.8,0.17299
2328,5.6933,5.2727,0,0.0004614,4610.8,0.00015735,0.044422,0.0001436,-103.28,-0.00046307,-4661.6,0.17412
2329,5.6933,5.0909,0,0.00045931,4589.9,0.00015788,0.028899,0.00014082,-128.16,-0.00046135,-4652.6,0.17515
2330,5.6933,4.9091,0,0.00045732,4570,0.00015838,0.02087,0.00013816,-151.87,-0.00045971,-4644,0.17609
2331,5.6933,4.7273,0,0.00045544,4551.3,0.00015884,0.0138,0.00013566,-174.21,-0.00045816,-4635.9,0.17693
2332,5.6933,4.5455,0,0.0004537,4533.9,0.00015928,0.0082794,0.00013333,-194.97,-0.00045671,-4628.3,0.17769
2333,5.6933,4.3636,0,0.00045212,4518,0.00015967,0.0036557,0.00013119,-213.96,-0.00045538,-4621.2,0.17835
2334,5.6933,4.1818,0,0.00045069,4503.8,0.00016002,-0.00018159,0.00012928,-231.01,-0.00045418,-4614.9,0.17894
2335,5.6933,4,0,0.00044945,4491.4,0.00016033,-0.0033649,0.0001276,-245.95,-0.00045313,-4609.3,0.17943
2336,5.6933,3.8182,0,0.00044839,4480.8,0.00016059,-0.0059571,0.00012617,-258.63,-0.00045223,-4604.5,0.17984
2337,5.6933,3.6364,0,0.00044753,4472.3,0.00016081,-0.0079988,0.00012501,-268.94,-0.0004515,-4600.7,0.18017
2338,5.6933,3.4545,0,0.00044688,4465.8,0.00016097,-0.0095126,0.00012413,-276.76,-0.00045095,-4597.7,0.18042
2339,5.6933,3.2727,0,0.00044645,4461.4,0.00016108,-0.010516,0.00012354,-282.02,-0.00045058,-4595.7,0.18058
2340,5.6933,3.0909,0,0.00044623,4459.2,0.00016113,-0.011016,0.00012324,-284.67,-0.00045039,-4594.7,0.18066
2341,5.6933,2.9091,0,0.00044623,4459.2,0.00016113,-0.011017,0.00012324,-284.67,-0.00045039,-4594.7,0.18066
2342,5.6933,2.7273,0,0.00044645,4461.4,0.00016108,-0.010516,0.00012354,-282.02,-0.00045058,-4595.7,0.18058
2343,5.6933,2.5455,0,0.00044688,4465.8,0.00016097,-0.0095124,0.00012413,-276.76,-0.00045095,-4597.7,0.18042
2344,5.6933,2.3636,0,0.00044753,4472.3,0.00016081,-0.0079984,0.00012501,-268.94,-0.0004515,-4600.7,0.18017
2345,5.6933,2.1818,0,0.00044839,4480.8,0.00016059,-0.0059569,0.00012617,-258.63,-0.00045223,-4604.5,0.17984
2346,5.6933,2,0,0.00044945,4491.4,0.00016033,-0.0033643,0.0001276,-245.95,-0.00045313,-4609.3,0.17943
2347,5.6933,1.8182,0,0.00045069,4503.8,0.00016002,-0.00018103,0.00012928,-231.01,-0.00045418,-4614.9,0.17894
2348,5.6933,1.6364,0,0.00045212,4518,0.00015967,0.0036563,0.00013119,-213.96,-0.00045538,-4621.2,0.17835
2349,5.6933,1.4545,0,0.0004537,4533.9,0.00015928,0.0082802,0.00013333,-194.97,-0.00045671,-4628.3,0.17769
2350,5.6933,1.2727,0,0.00045544,4551.3,0.00015884,0.0138,0.00013566,-174.21,-0.00045816,-4635.9,0.17693
2351,5.6933,1.0909,0,0.00045732,4570,0.00015838,0.020871,0.00013816,-151.87,-0.00045971,-4644,0.17609
2352,5.6933,0.90909,0,0.00045931,4589.9,0.00015788,0.0289,0.00014082,-128.16,-0.00046135,-4652.6,0.17515
2353,5.6933,0.72727,0,0.0004614,4610.8,0.00015735,0.044422,0.0001436,-103.28,-0.00046307,-4661.6,0.17412
2354,5.6933,0.54545,0,0.00046358,4632.6,0.00015681,0.049643,0.00014649,-77.428,-0.00046485,-4670.8,0.17299
2355,5.6933,0.36364,0,0.00046583,4655.1,0.00015624,0.16406,0.00014947,-50.753,-0.00046667,-4680.2,0.17177
2356,5.6933,0.18182,0,0.00046815,4678.3,0.00015566,0.16899,0.00015253,-23.36,-0.00046854,-4689.9,0.17045
2357,5.5096,5.8182,0,0.00047413,4738,0.00015774,0.18628,0.00015432,-25.555,-0.00047456,-4750.7,0.15961
2358,5.5096,5.6364,0,0.00047162,4713,0.00015838,0.17967,0.00015101,-55.206,-0.00047254,-4740.2,0.16093
2359,5.5096,5.4545,0,0.0004692,4688.7,0.00015899,0.05473,0.00014778,-84.125,-0.00047057,-4730.2,0.16216
2360,5.5096,5.2727,0,0.00046684,4665.2,0.00015959,0.048727,0.00014465,-112.17,-0.00046865,-4720.3,0.16328
2361,5.5096,5.0909,0,0.00046458,4642.6,0.00016016,0.031658,0.00014163,-139.19,-0.00046679,-4710.6,0.16431
2362,5.5096,4.9091,0,0.00046243,4621.1,0.0001607,0.022793,0.00013874,-164.96,-0.00046501,-4701.4,0.16524
2363,5.5096,4.7273,0,0.0004604,4600.9,0.00016121,0.015007,0.00013602,-189.25,-0.00046333,-4692.6,0.16609
2364,5.5096,4.5455,0,0.00045852,4582.1,0.00016169,0.0089302,0.00013349,-211.84,-0.00046176,-4684.3,0.16684
2365,5.5096,4.3636,0,0.00045681,4564.9,0.00016212,0.0038461,0.00013117,-232.52,-0.00046032,-4676.7,0.16751
2366,5.5096,4.1818,0,0.00045527,4549.5,0.0001625,-0.00037018,0.00012909,-251.09,-0.00045902,-4669.9,0.16808
2367,5.5096,4,0,0.00045392,4536.1,0.00016284,-0.0038645,0.00012726,-267.37,-0.00045788,-4663.8,0.16858
2368,5.5096,3.8182,0,0.00045278,4524.7,0.00016313,-0.0067081,0.0001257,-281.21,-0.00045691,-4658.7,0.16899
2369,5.5096,3.6364,0,0.00045185,4515.4,0.00016336,-0.0089452,0.00012444,-292.45,-0.00045611,-4654.5,0.16931
2370,5.5096,3.4545,0,0.00045115,4508.4,0.00016354,-0.010604,0.00012348,-300.98,-0.00045551,-4651.3,0.16956
2371,5.5096,3.2727,0,0.00045068,4503.6,0.00016366,-0.011702,0.00012284,-306.72,-0.00045511,-4649.2,0.16972
2372,5.5096,3.0909,0,0.00045044,4501.3,0.00016372,-0.01225,0.00012251,-309.61,-0.00045491,-4648.1,0.1698
2373,5.5096,2.9091,0,0.00045044,4501.3,0.00016372,-0.01225,0.00012251,-309.61,-0.00045491,-4648.1,0.1698
2374,5.5096,2.7273,0,0.00045068,4503.6,0.00016366,-0.011702,0.00012284,-306.72,-0.00045511,-4649.2,0.16972
2375,5.5096,2.5455,0,0.00045115,4508.4,0.00016354,-0.010603,0.00012348,-300.98,-0.00045551,-4651.3,0.16956
2376,5.5096,2.3636,0,0.00045185,4515.4,0.00016336,-0.0089452,0.00012444,-292.45,-0.00045611,-4654.5,0.16931
2377,5.5096,2.1818,0,0.00045278,4524.7,0.00016313,-0.0067075,0.0001257,-281.21,-0.00045691,-4658.7,0.16899
2378,5.5096,2,0,0.00045392,4536.1,0.00016284,-0.0038642,0.00012726,-267.37,-0.00045788,-4663.8,0.16858
2379,5.5096,1.8182,0,0.00045527,4549.5,0.0001625,-0.00036958,0.00012909,-251.09,-0.00045902,-4669.9,0.16808
2380,5.5096,1.6364,0,0.00045681,4564.9,0.00016212,0.0038465,0.00013117,-232.52,-0.00046032,-4676.7,0.16751
2381,5.5096,1.4545,0,0.00045852,4582.1,0.00016169,0.0089309,0.00013349,-211.84,-0.00046176,-4684.3,0.16684
2382,5.5096,1.2727,0,0.0004604,4600.9,0.00016121,0.015008,0.00013602,-189.25,-0.00046333,-4692.6,0.16609
2383,5.5096,1.0909,0,0.00046243,4621.1,0.0001607,0.022794,0.00013874,-164.96,-0.00046501,-4701.4,0.16524
2384,5.5096,0.90909,0,0.00046458,4642.6,0.00016016,0.031659,0.00014163,-139.19,-0.00046679,-4710.6,0.16431
2385,5.5096,0.72727,0,0.00046684,4665.2,0.00015959,0.048728,0.00014465,-112.17,-0.00046865,-4720.3,0.16328
2386,5.5096,0.54545,0,0.0004692,4688.7,0.00015899,0.054731,0.00014778,-84.125,-0.00047057,-4730.2,0.16216
2387,5.5096,0.36364,0,0.00047162,4713,0.00015838,0.17967,0.00015101,-55.206,-0.00047254,-4740.2,0.16093
2388,5.5096,0.18182,0,0.00047413,4738,0.00015774,0.18628,0.00015432,-25.555,-0.00047456,-4750.7,0.15961
2389,5.326,5.8182,0,0.00048016,4798.3,0.00015985,0.2067,0.00015612,-27.809,-0.00048062,-4812,0.14909
2390,5.326,5.6364,0,0.00047746,4771.3,0.00016054,0.19676,0.00015254,-59.91,-0.00047845,-4800.9,0.15041
2391,5.326,5.4545,0,0.00047484,4745.1,0.0001612,0.060349,0.00014905,-91.259,-0.00047632,-4790,0.15163
2392,5.326,5.2727,0,0.0004723,4719.7,0.00016185,0.05346,0.00014565,-121.69,-0.00047425,-4779.4,0.15276
2393,5.326,5.0909,0,0.00046985,4695.3,0.00016248,0.034703,0.00014237,-151.03,-0.00047224,-4769,0.15378
2394,5.326,4.9091,0,0.00046753,4672,0.00016307,0.024923,0.00013924,-179.04,-0.00047032,-4759,0.15472
2395,5.326,4.7273,0,0.00046534,4650.2,0.00016363,0.016357,0.00013628,-205.45,-0.00046849,-4749.5,0.15556
2396,5.326,4.5455,0,0.00046331,4629.9,0.00016415,0.0096741,0.00013353,-230.03,-0.00046679,-4740.6,0.15631
2397,5.326,4.3636,0,0.00046145,4611.3,0.00016462,0.0040893,0.000131,-252.55,-0.00046523,-4732.4,0.15697
2398,5.326,4.1818,0,0.00045979,4594.7,0.00016504,-0.00053711,0.00012874,-272.79,-0.00046382,-4725,0.15754
2399,5.326,4,0,0.00045833,4580.2,0.00016541,-0.0043676,0.00012674,-290.54,-0.00046258,-4718.5,0.15803
2400,5.326,3.8182,0,0.0004571,4567.8,0.00016573,-0.0074811,0.00012505,-305.63,-0.00046153,-4713,0.15844
2401,5.326,3.6364,0,0.00045609,4557.8,0.00016598,-0.009929,0.00012367,-317.89,-0.00046067,-4708.4,0.15876
2402,5.326,3.4545,0,0.00045533,4550.2,0.00016618,-0.011742,0.00012263,-327.2,-0.00046002,-4705,0.15901
2403,5.326,3.2727,0,0.00045482,4545.1,0.00016631,-0.012942,0.00012193,-333.47,-0.00045958,-4702.7,0.15917
2404,5.326,3.0909,0,0.00045457,4542.5,0.00016637,-0.01354,0.00012157,-336.62,-0.00045936,-4701.5,0.15925
2405,5.326,2.9091,0,0.00045457,4542.5,0.00016637,-0.01354,0.00012157,-336.62,-0.00045936,-4701.5,0.15925
2406,5.326,2.7273,0,0.00045482,4545.1,0.00016631,-0.012942,0.00012193,-333.47,-0.00045958,-4702.7,0.15917
2407,5.326,2.5455,0,0.00045533,4550.2,0.00016618,-0.011742,0.00012263,-327.2,-0.00046002,-4705,0.15901
2408,5.326,2.3636,0,0.00045609,4557.8,0.00016598,-0.0099287,0.00012367,-317.89,-0.00046067,-4708.4,0.15876
2409,5.326,2.1818,0,0.0004571,4567.8,0.00016573,-0.0074809,0.00012505,-305.63,-0.00046153,-4713,0.15844
2410,5.326,2,0,0.00045833,4580.2,0.00016541,-0.0043672,0.00012674,-290.54,-0.00046258,-4718.5,0.15803
2411,5.326,1.8182,0,0.00045979,4594.7,0.00016504,-0.00053651,0.00012874,-272.79,-0.00046382,-4725,0.15754
2412,5.326,1.6364,0,0.00046145,4611.3,0.00016462,0.00409,0.000131,-252.55,-0.00046523,-4732.4,0.15697
2413,5.326,1.4545,0,0.00046331,4629.9,0.00016415,0.0096748,0.00013353,-230.03,-0.00046679,-4740.6,0.15631
2414,5.326,1.2727,0,0.00046534,4650.2,0.00016363,0.016357,0.00013628,-205.45,-0.00046849,-4749.5,0.15556
2415,5.326,1.0909,0,0.00046753,4672,0.00016307,0.024924,0.00013924,-179.04,-0.00047032,-4759,0.15472
2416,5.326,0.90909,0,0.00046985,4695.3,0.00016248,0.034704,0.00014237,-151.03,-0.00047224,-4769,0.15378
2417,5.326,0.72727,0,0.0004723,4719.7,0.00016185,0.053462,0.00014565,-121.69,-0.00047425,-4779.4,0.15276
2418,5.326,0.54545,0,0.00047484,4745.1,0.0001612,0.060349,0.00014905,-91.259,-0.00047632,-4790,0.15163
2419,5.326,0.36364,0,0.00047746,4771.3,0.00016054,0.19676,0.00015254,-59.91,-0.00047845,-4800.9,0.15041
2420,5.326,0.18182,0,0.00048016,4798.3,0.00015985,0.2067,0.00015612,-27.809,-0.00048062,-4812,0.14909
2421,5.1423,5.8182,0,0.00048625,4859.1,0.00016197,0.23077,0.00015793,-30.109,-0.00048675,-4874,0.1389
2422,5.1423,5.6364,0,0.00048333,4830,0.00016272,0.21549,0.00015406,-64.871,-0.0004844,-4862,0.14022
2423,5.1423,5.4545,0,0.0004805,4801.7,0.00016344,0.066552,0.00015028,-98.85,-0.00048211,-4850.4,0.14143
2424,5.1423,5.2727,0,0.00047776,4774.3,0.00016415,0.058657,0.0001466,-131.86,-0.00047987,-4838.9,0.14255
2425,5.1423,5.0909,0,0.00047512,4748,0.00016483,0.038054,0.00014304,-163.73,-0.0004777,-4827.7,0.14358
2426,5.1423,4.9091,0,0.00047261,4722.9,0.00016548,0.027273,0.00013964,-194.16,-0.00047561,-4816.9,0.1445
2427,5.1423,4.7273,0,0.00047025,4699.2,0.00016609,0.017855,0.00013643,-222.89,-0.00047364,-4806.7,0.14534
2428,5.1423,4.5455,0,0.00046805,4677.3,0.00016666,0.010512,0.00013343,-249.65,-0.0004718,-4797.1,0.14609
2429,5.1423,4.3636,0,0.00046605,4657.3,0.00016718,0.0043849,0.00013069,-274.18,-0.00047011,-4788.3,0.14674
2430,5.1423,4.1818,0,0.00046425,4639.3,0.00016764,-0.00068563,0.00012822,-296.23,-0.00046858,-4780.3,0.14731
2431,5.1423,4,0,0.00046268,4623.6,0.00016805,-0.0048779,0.00012605,-315.59,-0.00046724,-4773.3,0.1478
2432,5.1423,3.8182,0,0.00046135,4610.3,0.00016839,-0.0082813,0.0001242,-332.04,-0.0004661,-4767.3,0.1482
2433,5.1423,3.6364,0,0.00046026,4599.5,0.00016867,-0.010954,0.0001227,-345.42,-0.00046516,-4762.4,0.14852
2434,5.1423,3.4545,0,0.00045944,4591.3,0.00016889,-0.012931,0.00012156,-355.58,-0.00046446,-4758.7,0.14876
2435,5.1423,3.2727,0,0.00045889,4585.7,0.00016903,-0.014239,0.0001208,-362.42,-0.00046398,-4756.2,0.14892
2436,5.1423,3.0909,0,0.00045861,4583,0.0001691,-0.01489,0.00012041,-365.86,-0.00046374,-4754.9,0.149
2437,5.1423,2.9091,0,0.00045861,4583,0.0001691,-0.01489,0.00012041,-365.86,-0.00046374,-4754.9,0.149
2438,5.1423,2.7273,0,0.00045889,4585.7,0.00016903,-0.014239,0.0001208,-362.42,-0.00046398,-4756.2,0.14892
2439,5.1423,2.5455,0,0.00045944,4591.3,0.00016889,-0.012931,0.00012156,-355.58,-0.00046446,-4758.7,0.14876
2440,5.1423,2.3636,0,0.00046026,4599.5,0.00016867,-0.010953,0.0001227,-345.42,-0.00046516,-4762.4,0.14852
2441,5.1423,2.1818,0,0.00046135,4610.3,0.00016839,-0.008281,0.0001242,-332.04,-0.0004661,-4767.3,0.1482
2442,5.1423,2,0,0.00046268,4623.6,0.00016805,-0.0048774,0.00012605,-315.59,-0.00046724,-4773.3,0.1478
2443,5.1423,1.8182,0,0.00046425,4639.3,0.00016764,-0.00068488,0.00012822,-296.23,-0.00046858,-4780.3,0.14731
2444,5.1423,1.6364,0,0.00046605,4657.3,0.00016718,0.0043855,0.00013069,-274.18,-0.00047011,-4788.3,0.14674
2445,5.1423,1.4545,0,0.00046805,4677.3,0.00016666,0.010513,0.00013343,-249.65,-0.0004718,-4797.1,0.14609
2446,5.1423,1.2727,0,0.00047025,4699.2,0.00016609,0.017855,0.00013643,-222.89,-0.00047364,-4806.7,0.14534
2447,5.1423,1.0909,0,0.00047261,4722.9,0.00016548,0.027273,0.00013964,-194.16,-0.00047561,-4816.9,0.1445
2448,5.1423,0.90909,0,0.00047512,4748,0.00016483,0.038055,0.00014304,-163.73,-0.0004777,-4827.7,0.14358
2449,5.1423,0.72727,0,0.00047776,4774.3,0.00016415,0.058658,0.0001466,-131.86,-0.00047987,-4838.9,0.14255
2450,5.1423,0.54545,0,0.0004805,4801.7,0.00016344,0.066553,0.00015028,-98.85,-0.00048211,-4850.4,0.14143
2451,5.1423,0.36364,0,0.00048333,4830,0.00016272,0.21549,0.00015406,-64.871,-0.0004844,-4862,0.14022
2452,5.1423,0.18182,0,0.00048625,4859.1,0.00016197,0.23077,0.00015793,-30.109,-0.00048675,-4874,0.1389
2453,4.9587,5.8182,0,0.0004924,4920.6,0.00016412,0.25916,0.00015977,-32.439,-0.00049294,-4936.6,0.12903
2454,4.9587,5.6364,0,0.00048925,4889.1,0.00016493,0.23602,0.00015557,-70.091,-0.0004904,-4923.7,0.13035
2455,4.9587,5.4545,0,0.0004862,4858.6,0.00016572,0.073414,0.00015148,-106.92,-0.00048793,-4911.2,0.13156
2456,4.9587,5.2727,0,0.00048324,4829.1,0.00016649,0.064373,0.00014749,-142.73,-0.00048551,-4898.8,0.13268
2457,4.9587,5.0909,0,0.00048039,4800.6,0.00016724,0.041749,0.00014363,-177.34,-0.00048316,-4886.8,0.13369
2458,4.9587,4.9091,0,0.00047768,4773.5,0.00016794,0.02987,0.00013994,-210.42,-0.00048091,-4875.2,0.13461
2459,4.9587,4.7273,0,0.00047513,4748,0.00016861,0.019523,0.00013645,-241.67,-0.00047878,-4864.2,0.13544
2460,4.9587,4.5455,0,0.00047276,4724.3,0.00016923,0.011463,0.00013319,-270.8,-0.00047678,-4853.9,0.13618
2461,4.9587,4.3636,0,0.00047059,4702.7,0.0001698,0.0047463,0.0001302,-297.52,-0.00047495,-4844.4,0.13684
2462,4.9587,4.1818,0,0.00046866,4683.3,0.00017031,-0.00080261,0.00012751,-321.55,-0.0004733,-4835.8,0.1374
2463,4.9587,4,0,0.00046696,4666.4,0.00017076,-0.0053837,0.00012515,-342.66,-0.00047184,-4828.2,0.13788
2464,4.9587,3.8182,0,0.00046552,4652,0.00017114,-0.0090964,0.00012314,-360.61,-0.0004706,-4821.8,0.13828
2465,4.9587,3.6364,0,0.00046435,4640.3,0.00017144,-0.012008,0.00012151,-375.21,-0.0004696,-4816.5,0.1386
2466,4.9587,3.4545,0,0.00046347,4631.5,0.00017168,-0.014159,0.00012027,-386.3,-0.00046883,-4812.5,0.13884
2467,4.9587,3.2727,0,0.00046287,4625.5,0.00017184,-0.01558,0.00011943,-393.76,-0.00046831,-4809.8,0.13899
2468,4.9587,3.0909,0,0.00046257,4622.5,0.00017191,-0.016287,0.00011901,-397.52,-0.00046805,-4808.5,0.13907
2469,4.9587,2.9091,0,0.00046257,4622.5,0.00017191,-0.016288,0.00011901,-397.52,-0.00046805,-4808.5,0.13907
2470,4.9587,2.7273,0,0.00046287,4625.5,0.00017184,-0.01558,0.00011943,-393.76,-0.00046831,-4809.8,0.13899
2471,4.9587,2.5455,0,0.00046347,4631.5,0.00017168,-0.014158,0.00012027,-386.3,-0.00046883,-4812.5,0.13884
2472,4.9587,2.3636,0,0.00046435,4640.3,0.00017144,-0.012007,0.00012151,-375.21,-0.0004696,-4816.5,0.1386
2473,4.9587,2.1818,0,0.00046552,4652,0.00017114,-0.0090962,0.00012314,-360.61,-0.0004706,-4821.8,0.13828
2474,4.9587,2,0,0.00046696,4666.4,0.00017076,-0.0053833,0.00012515,-342.66,-0.00047184,-4828.2,0.13788
2475,4.9587,1.8182,0,0.00046866,4683.3,0.00017031,-0.00080219,0.00012751,-321.55,-0.0004733,-4835.8,0.1374
2476,4.9587,1.6364,0,0.00047059,4702.7,0.0001698,0.004747,0.0001302,-297.52,-0.00047495,-4844.4,0.13684
2477,4.9587,1.4545,0,0.00047276,4724.3,0.00016923,0.011464,0.00013319,-270.8,-0.00047678,-4853.9,0.13618
2478,4.9587,1.2727,0,0.00047513,4748,0.00016861,0.019524,0.00013645,-241.67,-0.00047878,-4864.2,0.13544
2479,4.9587,1.0909,0,0.00047768,4773.5,0.00016794,0.029871,0.00013994,-210.42,-0.00048091,-4875.2,0.13461
2480,4.9587,0.90909,0,0.00048039,4800.6,0.00016724,0.04175,0.00014363,-177.34,-0.00048316,-4886.8,0.13369
2481,4.9587,0.72727,0,0.00048324,4829.1,0.00016649,0.064374,0.00014749,-142.73,-0.00048551,-4898.8,0.13268
2482,4.9587,0.54545,0,0.0004862,4858.6,0.00016572,0.073414,0.00015148,-106.92,-0.00048793,-4911.2,0.13156
2483,4.9587,0.36364,0,0.00048925,4889.1,0.00016493,0.23602,0.00015557,-70.091,-0.0004904,-4923.7,0.13035
2484,4.9587,0.18182,0,0.0004924,4920.6,0.00016412,0.25917,0.00015977,-32.439,-0.00049294,-4936.6,0.12903
2485,4.775,5.8182,0,0.00049862,4982.7,0.00016629,0.29274,0.00016162,-34.782,-0.0004992,-4999.9,0.11949
2486,4.775,5.6364,0,0.00049521,4948.7,0.00016717,0.25858,0.00015708,-75.572,-0.00049645,-4985.9,0.12081
2487,4.775,5.4545,0,0.00049192,4915.8,0.00016803,0.081019,0.00015265,-115.48,-0.00049378,-4972.5,0.12202
2488,4.775,5.2727,0,0.00048873,4883.9,0.00016887,0.070669,0.00014832,-154.34,-0.00049117,-4959.2,0.12312
2489,4.775,5.0909,0,0.00048565,4853.2,0.00016968,0.045832,0.00014413,-191.91,-0.00048863,-4946.3,0.12413
2490,4.775,4.9091,0,0.00048273,4824,0.00017046,0.032747,0.00014012,-227.87,-0.0004862,-4933.8,0.12505
2491,4.775,4.7273,0,0.00047998,4796.4,0.00017119,0.021385,0.00013633,-261.88,-0.00048389,-4922,0.12587
2492,4.775,4.5455,0,0.00047742,4770.9,0.00017187,0.012543,0.00013279,-293.59,-0.00048174,-4910.9,0.1266
2493,4.775,4.3636,0,0.00047509,4747.6,0.00017249,0.0051898,0.00012954,-322.7,-0.00047975,-4900.7,0.12725
2494,4.775,4.1818,0,0.000473,4726.7,0.00017305,-0.0008745,0.00012662,-348.9,-0.00047796,-4891.5,0.12781
2495,4.775,4,0,0.00047117,4708.4,0.00017354,-0.0058705,0.00012404,-371.92,-0.00047639,-4883.4,0.12828
2496,4.775,3.8182,0,0.00046962,4692.9,0.00017396,-0.0099114,0.00012186,-391.5,-0.00047505,-4876.4,0.12868
2497,4.775,3.6364,0,0.00046836,4680.4,0.0001743,-0.013073,0.00012008,-407.43,-0.00047396,-4870.8,0.12899
2498,4.775,3.4545,0,0.00046741,4670.8,0.00017456,-0.015407,0.00011872,-419.54,-0.00047313,-4866.5,0.12923
2499,4.775,3.2727,0,0.00046677,4664.5,0.00017473,-0.016946,0.00011781,-427.68,-0.00047257,-4863.6,0.12938
2500,4.775,3.0909,0,0.00046645,4661.2,0.00017482,-0.017711,0.00011735,-431.78,-0.00047229,-4862.1,0.12946
2501,4.775,2.9091,0,0.00046645,4661.2,0.00017482,-0.017711,0.00011735,-431.78,-0.00047229,-4862.1,0.12946
2502,4.775,2.7273,0,0.00046677,4664.5,0.00017473,-0.016946,0.00011781,-427.68,-0.00047257,-4863.6,0.12938
2503,4.775,2.5455,0,0.00046741,4670.8,0.00017456,-0.015406,0.00011872,-419.54,-0.00047313,-4866.5,0.12923
2504,4.775,2.3636,0,0.00046836,4680.4,0.0001743,-0.013073,0.00012008,-407.43,-0.00047396,-4870.8,0.12899
2505,4.775,2.1818,0,0.00046962,4692.9,0.00017396,-0.009911,0.00012186,-391.5,-0.00047505,-4876.4,0.12868
2506,4.775,2,0,0.00047117,4708.4,0.00017354,-0.0058703,0.00012404,-371.92,-0.00047639,-4883.4,0.12828
2507,4.775,1.8182,0,0.000473,4726.7,0.00017305,-0.00087404,0.00012662,-348.9,-0.00047796,-4891.5,0.12781
2508,4.775,1.6364,0,0.00047509,4747.6,0.00017249,0.0051903,0.00012954,-322.7,-0.00047975,-4900.7,0.12725
2509,4.775,1.4545,0,0.00047742,4770.9,0.00017187,0.012544,0.00013279,-293.59,-0.00048174,-4910.9,0.1266
2510,4.775,1.2727,0,0.00047998,4796.4,0.00017119,0.021386,0.00013633,-261.88,-0.00048389,-4922,0.12587
2511,4.775,1.0909,0,0.00048273,4824,0.00017046,0.032748,0.00014012,-227.87,-0.0004862,-4933.8,0.12505
2512,4.775,0.90909,0,0.00048565,4853.2,0.00016968,0.045833,0.00014413,-191.91,-0.00048863,-4946.3,0.12413
2513,4.775,0.72727,0,0.00048873,4883.9,0.00016887,0.070669,0.00014832,-154.34,-0.00049117,-4959.2,0.12312
2514,4.775,0.54545,0,0.00049192,4915.8,0.00016803,0.081019,0.00015265,-115.48,-0.00049378,-4972.5,0.12202
2515,4.775,0.36364,0,0.00049521,4948.7,0.00016717,0.25858,0.00015708,-75.572,-0.00049645,-4985.9,0.12081
2516,4.775,0.18182,0,0.00049862,4982.7,0.00016629,0.29274,0.00016162,-34.782,-0.0004992,-4999.9,0.11949
2517,4.5913,5.8182,0,0.0005049,5045.5,0.00016848,0.33254,0.0001635,-37.113,-0.00050552,-5063.8,0.1103
2518,4.5913,5.6364,0,0.00050122,5008.8,0.00016944,0.28338,0.00015858,-81.311,-0.00050255,-5048.8,0.1116
2519,4.5913,5.4545,0,0.00049767,4973.2,0.00017037,0.089456,0.00015378,-124.56,-0.00049967,-5034.3,0.1128
2520,4.5913,5.2727,0,0.00049422,4938.8,0.00017129,0.077605,0.00014909,-166.71,-0.00049685,-5020,0.1139
2521,4.5913,5.0909,0,0.00049091,4905.7,0.00017218,0.050339,0.00014455,-207.53,-0.00049411,-5006.2,0.1149
2522,4.5913,4.9091,0,0.00048776,4874.2,0.00017302,0.03593,0.0001402,-246.62,-0.00049148,-4992.8,0.11581
2523,4.5913,4.7273,0,0.00048479,4844.5,0.00017383,0.023458,0.00013607,-283.62,-0.00048899,-4980.1,0.11662
2524,4.5913,4.5455,0,0.00048204,4817,0.00017457,0.013767,0.00013223,-318.15,-0.00048666,-4968.2,0.11735
2525,4.5913,4.3636,0,0.00047952,4791.9,0.00017526,0.0057247,0.00012869,-349.87,-0.00048451,-4957.3,0.11799
2526,4.5913,4.1818,0,0.00047727,4769.4,0.00017587,-0.00089166,0.00012551,-378.43,-0.00048258,-4947.4,0.11854
2527,4.5913,4,0,0.0004753,4749.8,0.00017641,-0.0063285,0.00012271,-403.53,-0.00048088,-4938.6,0.11901
2528,4.5913,3.8182,0,0.00047364,4733.1,0.00017687,-0.010714,0.00012032,-424.89,-0.00047943,-4931.2,0.11939
2529,4.5913,3.6364,0,0.00047228,4719.6,0.00017725,-0.014138,0.00011838,-442.28,-0.00047825,-4925.2,0.1197
2530,4.5913,3.4545,0,0.00047126,4709.4,0.00017753,-0.016658,0.00011691,-455.49,-0.00047735,-4920.6,0.11993
2531,4.5913,3.2727,0,0.00047057,4702.5,0.00017772,-0.018319,0.00011592,-464.39,-0.00047675,-4917.5,0.12009
2532,4.5913,3.0909,0,0.00047023,4699,0.00017782,-0.019144,0.00011542,-468.86,-0.00047645,-4915.9,0.12016
2533,4.5913,2.9091,0,0.00047023,4699,0.00017782,-0.019144,0.00011542,-468.86,-0.00047645,-4915.9,0.12016
2534,4.5913,2.7273,0,0.00047057,4702.5,0.00017772,-0.018319,0.00011592,-464.39,-0.00047675,-4917.5,0.12009
2535,4.5913,2.5455,0,0.00047126,4709.4,0.00017753,-0.016658,0.00011691,-455.49,-0.00047735,-4920.6,0.11993
2536,4.5913,2.3636,0,0.00047228,4719.6,0.00017725,-0.014138,0.00011838,-442.28,-0.00047825,-4925.2,0.1197
2537,4.5913,2.1818,0,0.00047364,4733.1,0.00017687,-0.010714,0.00012032,-424.89,-0.00047943,-4931.2,0.11939
2538,4.5913,2,0,0.0004753,4749.8,0.00017641,-0.0063281,0.00012271,-403.53,-0.00048088,-4938.6,0.11901
2539,4.5913,1.8182,0,0.00047727,4769.4,0.00017587,-0.00089117,0.00012551,-378.43,-0.00048258,-4947.4,0.11854
2540,4.5913,1.6364,0,0.00047952,4791.9,0.00017526,0.0057253,0.00012869,-349.87,-0.00048451,-4957.3,0.11799
2541,4.5913,1.4545,0,0.00048204,4817,0.00017457,0.013768,0.00013223,-318.15,-0.00048666,-4968.2,0.11735
2542,4.5913,1.2727,0,0.00048479,4844.5,0.00017383,0.023459,0.00013607,-283.62,-0.00048899,-4980.1,0.11662
2543,4.5913,1.0909,0,0.00048776,4874.2,0.00017302,0.035931,0.0001402,-246.62,-0.00049148,-4992.8,0.11581
2544,4.5913,0.90909,0,0.00049091,4905.7,0.00017218,0.050341,0.00014455,-207.53,-0.00049411,-5006.2,0.1149
2545,4.5913,0.72727,0,0.00049422,4938.8,0.00017129,0.077606,0.00014909,-166.71,-0.00049685,-5020,0.1139
2546,4.5913,0.54545,0,0.00049767,4973.2,0.00017037,0.089456,0.00015378,-124.56,-0.00049967,-5034.3,0.1128
2547,4.5913,0.36364,0,0.00050122,5008.8,0.00016944,0.28338,0.00015858,-81.311,-0.00050255,-5048.8,0.1116
2548,4.5913,0.18182,0,0.0005049,5045.5,0.00016848,0.33255,0.0001635,-37.113,-0.00050552,-5063.8,0.1103
2549,4.4077,5.8182,0,0.00051125,5109,0.00017069,0.37992,0.0001654,-39.404,-0.0005119,-5128.4,0.10144
2550,4.4077,5.6364,0,0.00050727,5069.2,0.00017173,0.3107,0.00016007,-87.305,-0.0005087,-5112.1,0.10274
2551,4.4077,5.4545,0,0.00050344,5030.9,0.00017275,0.098834,0.00015487,-134.18,-0.00050559,-5096.6,0.10393
2552,4.4077,5.2727,0,0.00049973,4993.8,0.00017375,0.085259,0.00014979,-179.91,-0.00050254,-5081.3,0.10502
2553,4.4077,5.0909,0,0.00049616,4958.2,0.00017472,0.055324,0.00014487,-224.24,-0.00049959,-5066.4,0.10601
2554,4.4077,4.9091,0,0.00049276,4924.2,0.00017565,0.039455,0.00014014,-266.74,-0.00049675,-5052.1,0.1069
2555,4.4077,4.7273,0,0.00048956,4892.3,0.00017653,0.02577,0.00013566,-307.01,-0.00049406,-5038.5,0.10771
2556,4.4077,4.5455,0,0.0004866,4862.7,0.00017735,0.015155,0.00013148,-344.62,-0.00049155,-5025.8,0.10842
2557,4.4077,4.3636,0,0.0004839,4835.6,0.0001781,0.0063704,0.00012763,-379.18,-0.00048923,-5014.1,0.10905
2558,4.4077,4.1818,0,0.00048148,4811.5,0.00017878,-0.00083461,0.00012417,-410.32,-0.00048714,-5003.5,0.10959
2559,4.4077,4,0,0.00047937,4790.3,0.00017937,-0.0067357,0.00012112,-437.69,-0.00048531,-4994.2,0.11005
2560,4.4077,3.8182,0,0.00047758,4772.5,0.00017988,-0.01148,0.00011853,-460.99,-0.00048375,-4986.2,0.11043
2561,4.4077,3.6364,0,0.00047613,4758,0.00018029,-0.015172,0.00011642,-479.96,-0.00048247,-4979.8,0.11074
2562,4.4077,3.4545,0,0.00047503,4747,0.00018061,-0.017883,0.00011481,-494.38,-0.0004815,-4974.9,0.11096
2563,4.4077,3.2727,0,0.00047429,4739.7,0.00018082,-0.019665,0.00011373,-504.08,-0.00048085,-4971.6,0.11111
2564,4.4077,3.0909,0,0.00047392,4736,0.00018093,-0.020549,0.00011319,-508.96,-0.00048053,-4969.9,0.11119
2565,4.4077,2.9091,0,0.00047392,4736,0.00018093,-0.020548,0.00011319,-508.96,-0.00048053,-4969.9,0.11119
2566,4.4077,2.7273,0,0.00047429,4739.7,0.00018082,-0.019665,0.00011373,-504.08,-0.00048085,-4971.6,0.11111
2567,4.4077,2.5455,0,0.00047503,4747,0.00018061,-0.017883,0.00011481,-494.38,-0.0004815,-4974.9,0.11096
2568,4.4077,2.3636,0,0.00047613,4758,0.00018029,-0.015172,0.00011642,-479.96,-0.00048247,-4979.8,0.11074
2569,4.4077,2.1818,0,0.00047758,4772.5,0.00017988,-0.01148,0.00011853,-460.99,-0.00048375,-4986.2,0.11043
2570,4.4077,2,0,0.00047937,4790.3,0.00017937,-0.0067353,0.00012112,-437.69,-0.00048531,-4994.2,0.11005
2571,4.4077,1.8182,0,0.00048148,4811.5,0.00017878,-0.00083416,0.00012417,-410.32,-0.00048714,-5003.5,0.10959
2572,4.4077,1.6364,0,0.0004839,4835.6,0.0001781,0.006371,0.00012763,-379.18,-0.00048923,-5014.1,0.10905
2573,4.4077,1.4545,0,0.0004866,4862.7,0.00017735,0.015155,0.00013148,-344.62,-0.00049155,-5025.8,0.10842
2574,4.4077,1.2727,0,0.00048956,4892.3,0.00017653,0.025771,0.00013566,-307.01,-0.00049406,-5038.5,0.10771
2575,4.4077,1.0909,0,0.00049276,4924.2,0.00017565,0.039456,0.00014014,-266.74,-0.00049675,-5052.1,0.1069
2576,4.4077,0.90909,0,0.00049616,4958.2,0.00017472,0.055325,0.00014487,-224.24,-0.00049959,-5066.4,0.10601
2577,4.4077,0.72727,0,0.00049973,4993.8,0.00017375,0.08526,0.00014979,-179.91,-0.00050254,-5081.3,0.10502
2578,4.4077,0.54545,0,0.00050344,5030.9,0.00017275,0.098834,0.00015487,-134.18,-0.00050559,-5096.6,0.10393
2579,4.4077,0.36364,0,0.00050727,5069.2,0.00017173,0.3107,0.00016007,-87.305,-0.0005087,-5112.1,0.10274
2580,4.4077,0.18182,0,0.00051125,5109,0.00017069,0.37992,0.0001654,-39.404,-0.00051191,-5128.4,0.10144
2581,4.224,5.8182,0,0.00051767,5173.2,0.00017293,0.43658,0.00016733,-41.623,-0.00051836,-5193.6,0.092927
2582,4.224,5.6364,0,0.00051337,5130.1,0.00017405,0.34083,0.00016156,-93.548,-0.00051489,-5176.1,0.094214
2583,4.224,5.4545,0,0.00050924,5088.9,0.00017516,0.10927,0.00015593,-144.34,-0.00051154,-5159.4,0.095394
2584,4.224,5.2727,0,0.00050524,5048.9,0.00017625,0.093707,0.00015042,-193.97,-0.00050826,-5143,0.096471
2585,4.224,5.0909,0,0.00050139,5010.5,0.00017731,0.060832,0.00014508,-242.13,-0.00050507,-5127.1,0.09745
2586,4.224,4.9091,0,0.00049773,4973.9,0.00017833,0.043354,0.00013995,-288.35,-0.00050201,-5111.8,0.098333
2587,4.224,4.7273,0,0.0004943,4939.6,0.0001793,0.02834,0.00013508,-332.17,-0.00049911,-5097.2,0.099123
2588,4.224,4.5455,0,0.00049111,4907.7,0.0001802,0.016722,0.00013054,-373.14,-0.00049639,-5083.7,0.099825
2589,4.224,4.3636,0,0.00048821,4878.7,0.00018103,0.0071403,0.00012636,-410.8,-0.0004939,-5071.2,0.10044
2590,4.224,4.1818,0,0.00048562,4852.8,0.00018178,-0.00068842,0.00012259,-444.74,-0.00049165,-5059.9,0.10097
2591,4.224,4,0,0.00048335,4830.2,0.00018244,-0.0070735,0.00011927,-474.59,-0.00048967,-5050,0.10143
2592,4.224,3.8182,0,0.00048144,4811.1,0.000183,-0.012185,0.00011645,-500,-0.00048799,-5041.6,0.1018
2593,4.224,3.6364,0,0.00047989,4795.6,0.00018345,-0.016147,0.00011416,-520.68,-0.00048662,-5034.7,0.1021
2594,4.224,3.4545,0,0.00047872,4783.9,0.0001838,-0.019046,0.00011241,-536.41,-0.00048558,-5029.5,0.10232
2595,4.224,3.2727,0,0.00047793,4776,0.00018403,-0.020946,0.00011124,-546.99,-0.00048488,-5026,0.10246
2596,4.224,3.0909,0,0.00047754,4772.1,0.00018415,-0.021887,0.00011064,-552.31,-0.00048453,-5024.2,0.10254
2597,4.224,2.9091,0,0.00047754,4772.1,0.00018415,-0.021887,0.00011064,-552.31,-0.00048453,-5024.2,0.10254
2598,4.224,2.7273,0,0.00047793,4776,0.00018403,-0.020946,0.00011124,-546.99,-0.00048488,-5026,0.10246
2599,4.224,2.5455,0,0.00047872,4783.9,0.0001838,-0.019045,0.00011241,-536.41,-0.00048558,-5029.5,0.10232
2600,4.224,2.3636,0,0.00047989,4795.6,0.00018345,-0.016146,0.00011416,-520.68,-0.00048662,-5034.7,0.1021
2601,4.224,2.1818,0,0.00048144,4811.1,0.000183,-0.012184,0.00011645,-500,-0.00048799,-5041.6,0.1018
2602,4.224,2,0,0.00048335,4830.2,0.00018244,-0.007073,0.00011927,-474.59,-0.00048967,-5050,0.10143
2603,4.224,1.8182,0,0.00048562,4852.8,0.00018178,-0.000688,0.00012259,-444.74,-0.00049165,-5059.9,0.10097
2604,4.224,1.6364,0,0.00048821,4878.7,0.00018103,0.007141,0.00012636,-410.8,-0.0004939,-5071.2,0.10044
2605,4.224,1.4545,0,0.00049111,4907.7,0.0001802,0.016722,0.00013054,-373.14,-0.00049639,-5083.7,0.099825
2606,4.224,1.2727,0,0.0004943,4939.6,0.0001793,0.028341,0.00013508,-332.17,-0.00049911,-5097.2,0.099123
2607,4.224,1.0909,0,0.00049773,4973.9,0.00017833,0.043355,0.00013995,-288.35,-0.00050201,-5111.8,0.098333
2608,4.224,0.90909,0,0.00050139,5010.5,0.00017731,0.060834,0.00014508,-242.13,-0.00050507,-5127.1,0.09745
2609,4.224,0.72727,0,0.00050524,5048.9,0.00017625,0.093708,0.00015042,-193.97,-0.00050826,-5143,0.096471
2610,4.224,0.54545,0,0.00050924,5088.9,0.00017516,0.10927,0.00015593,-144.34,-0.00051154,-5159.4,0.095394
2611,4.224,0.36364,0,0.00051337,5130.1,0.00017405,0.34083,0.00016156,-93.548,-0.00051489,-5176.1,0.094214
2612,4.224,0.18182,0,0.00051767,5173.2,0.00017293,0.43658,0.00016733,-41.623,-0.00051836,-5193.6,0.092927
2613,4.0404,5.8182,0,0.00052416,5238,0.00017518,0.50471,0.00016929,-43.729,-0.00052488,-5259.5,0.084765
2614,4.0404,5.6364,0,0.0005195,5191.4,0.0001764,0.37413,0.00016303,-100.03,-0.00052112,-5240.5,0.086038
2615,4.0404,5.4545,0,0.00051505,5146.9,0.0001776,0.1209,0.00015694,-155.08,-0.00051751,-5222.7,0.087204
2616,4.0404,5.2727,0,0.00051074,5103.9,0.0001788,0.10304,0.00015098,-208.94,-0.00051398,-5205.1,0.088267
2617,4.0404,5.0909,0,0.00050661,5062.6,0.00017996,0.066917,0.00014518,-261.26,-0.00051054,-5188.1,0.089231
2618,4.0404,4.9091,0,0.00050267,5023.3,0.00018108,0.047658,0.00013961,-311.54,-0.00050725,-5171.8,0.090099
2619,4.0404,4.7273,0,0.00049898,4986.4,0.00018214,0.03119,0.00013432,-359.25,-0.00050412,-5156.3,0.090875
2620,4.0404,4.5455,0,0.00049557,4952.3,0.00018314,0.018483,0.00012938,-403.87,-0.0005012,-5141.8,0.091564
2621,4.0404,4.3636,0,0.00049246,4921.2,0.00018405,0.0080495,0.00012484,-444.91,-0.00049852,-5128.6,0.092167
2622,4.0404,4.1818,0,0.00048969,4893.5,0.00018488,-0.00043429,0.00012074,-481.9,-0.0004961,-5116.6,0.092688
2623,4.0404,4,0,0.00048727,4869.3,0.00018561,-0.0073168,0.00011714,-514.44,-0.00049398,-5106.1,0.09313
2624,4.0404,3.8182,0,0.00048523,4848.9,0.00018623,-0.012796,0.00011407,-542.13,-0.00049217,-5097.2,0.093494
2625,4.0404,3.6364,0,0.00048358,4832.4,0.00018673,-0.017022,0.00011158,-564.68,-0.0004907,-5090,0.093783
2626,4.0404,3.4545,0,0.00048233,4820,0.00018711,-0.0201,0.00010968,-581.82,-0.00048959,-5084.5,0.093998
2627,4.0404,3.2727,0,0.00048149,4811.6,0.00018737,-0.022111,0.00010841,-593.35,-0.00048883,-5080.8,0.094141
2628,4.0404,3.0909,0,0.00048107,4807.4,0.0001875,-0.023105,0.00010776,-599.15,-0.00048846,-5078.9,0.094213
2629,4.0404,2.9091,0,0.00048107,4807.4,0.0001875,-0.023105,0.00010776,-599.15,-0.00048846,-5078.9,0.094213
2630,4.0404,2.7273,0,0.00048149,4811.6,0.00018737,-0.022111,0.00010841,-593.35,-0.00048883,-5080.8,0.094141
2631,4.0404,2.5455,0,0.00048233,4820,0.00018711,-0.0201,0.00010968,-581.82,-0.00048959,-5084.5,0.093998
2632,4.0404,2.3636,0,0.00048358,4832.4,0.00018673,-0.017022,0.00011158,-564.68,-0.0004907,-5090,0.093783
2633,4.0404,2.1818,0,0.00048523,4848.9,0.00018623,-0.012796,0.00011407,-542.13,-0.00049217,-5097.2,0.093494
2634,4.0404,2,0,0.00048727,4869.3,0.00018561,-0.0073163,0.00011714,-514.44,-0.00049398,-5106.1,0.09313
2635,4.0404,1.8182,0,0.00048969,4893.5,0.00018488,-0.0004337,0.00012074,-481.9,-0.0004961,-5116.6,0.092688
2636,4.0404,1.6364,0,0.00049246,4921.2,0.00018405,0.00805,0.00012484,-444.91,-0.00049852,-5128.6,0.092167
2637,4.0404,1.4545,0,0.00049557,4952.3,0.00018314,0.018484,0.00012938,-403.87,-0.0005012,-5141.8,0.091564
2638,4.0404,1.2727,0,0.00049898,4986.4,0.00018214,0.031191,0.00013432,-359.25,-0.00050412,-5156.3,0.090875
2639,4.0404,1.0909,0,0.00050267,5023.3,0.00018108,0.047659,0.00013961,-311.54,-0.00050725,-5171.8,0.090099
2640,4.0404,0.90909,0,0.00050661,5062.6,0.00017996,0.066918,0.00014518,-261.26,-0.00051054,-5188.1,0.089231
2641,4.0404,0.72727,0,0.00051074,5103.9,0.0001788,0.10304,0.00015098,-208.94,-0.00051398,-5205.1,0.088267
2642,4.0404,0.54545,0,0.00051505,5146.9,0.0001776,0.1209,0.00015694,-155.08,-0.00051751,-5222.7,0.087204
2643,4.0404,0.36364,0,0.0005195,5191.4,0.0001764,0.37413,0.00016303,-100.03,-0.00052112,-5240.5,0.086038
2644,4.0404,0.18182,0,0.00052416,5238,0.00017518,0.50471,0.00016929,-43.729,-0.00052488,-5259.5,0.084765
2645,3.8567,5.8182,0,0.00053072,5303.5,0.00017744,0.58721,0.00017129,-45.676,-0.00053147,-5325.9,0.076955
2646,3.8567,5.6364,0,0.00052567,5253.1,0.00017877,0.41102,0.0001645,-106.74,-0.00052739,-5305.4,0.078213
2647,3.8567,5.4545,0,0.00052088,5205.2,0.00018008,0.13389,0.00015791,-166.42,-0.00052351,-5286.3,0.079363
2648,3.8567,5.2727,0,0.00051624,5158.9,0.00018139,0.11336,0.00015144,-224.87,-0.0005197,-5267.6,0.080409
2649,3.8567,5.0909,0,0.0005118,5114.4,0.00018266,0.073649,0.00014515,-281.75,-0.000516,-5249.4,0.081355
2650,3.8567,4.9091,0,0.00050757,5072.2,0.00018389,0.052418,0.00013911,-336.45,-0.00051246,-5232.1,0.082207
2651,3.8567,4.7273,0,0.00050362,5032.7,0.00018506,0.034355,0.00013337,-388.39,-0.0005091,-5215.6,0.082967
2652,3.8567,4.5455,0,0.00049996,4996.2,0.00018616,0.02047,0.000128,-436.99,-0.00050596,-5200.3,0.08364
2653,3.8567,4.3636,0,0.00049665,4963,0.00018717,0.0091305,0.00012306,-481.71,-0.00050308,-5186.3,0.084228
2654,3.8567,4.1818,0,0.00049369,4933.5,0.00018809,-3.3319e-05,0.00011861,-522.02,-0.00050049,-5173.7,0.084736
2655,3.8567,4,0,0.00049112,4907.8,0.00018889,-0.0074175,0.0001147,-557.46,-0.00049822,-5162.7,0.085166
2656,3.8567,3.8182,0,0.00048895,4886.1,0.00018958,-0.013256,0.00011137,-587.63,-0.00049628,-5153.3,0.08552
2657,3.8567,3.6364,0,0.0004872,4868.6,0.00019014,-0.017729,0.00010867,-612.19,-0.00049471,-5145.8,0.085801
2658,3.8567,3.4545,0,0.00048588,4855.4,0.00019057,-0.020969,0.00010661,-630.85,-0.00049352,-5140,0.08601
2659,3.8567,3.2727,0,0.00048499,4846.6,0.00019085,-0.023076,0.00010523,-643.41,-0.00049272,-5136.2,0.086149
2660,3.8567,3.0909,0,0.00048455,4842.1,0.000191,-0.024114,0.00010453,-649.72,-0.00049232,-5134.2,0.086218
2661,3.8567,2.9091,0,0.00048455,4842.1,0.000191,-0.024114,0.00010453,-649.72,-0.00049232,-5134.2,0.086218
2662,3.8567,2.7273,0,0.00048499,4846.6,0.00019085,-0.023076,0.00010523,-643.41,-0.00049272,-5136.2,0.086149
2663,3.8567,2.5455,0,0.00048588,4855.4,0.00019057,-0.020969,0.00010661,-630.85,-0.00049352,-5140,0.08601
2664,3.8567,2.3636,0,0.0004872,4868.6,0.00019014,-0.017729,0.00010867,-612.19,-0.00049471,-5145.8,0.085801
2665,3.8567,2.1818,0,0.00048895,4886.1,0.00018958,-0.013256,0.00011137,-587.63,-0.00049628,-5153.3,0.08552
2666,3.8567,2,0,0.00049112,4907.8,0.00018889,-0.0074171,0.0001147,-557.46,-0.00049822,-5162.7,0.085166
2667,3.8567,1.8182,0,0.00049369,4933.5,0.00018809,-3.284e-05,0.00011861,-522.02,-0.00050049,-5173.7,0.084736
2668,3.8567,1.6364,0,0.00049665,4963,0.00018717,0.0091309,0.00012306,-481.71,-0.00050308,-5186.3,0.084228
2669,3.8567,1.4545,0,0.00049996,4996.2,0.00018616,0.020471,0.000128,-436.99,-0.00050596,-5200.3,0.08364
2670,3.8567,1.2727,0,0.00050362,5032.7,0.00018506,0.034356,0.00013337,-388.39,-0.0005091,-5215.6,0.082967
2671,3.8567,1.0909,0,0.00050757,5072.2,0.00018389,0.052419,0.00013911,-336.45,-0.00051246,-5232.1,0.082207
2672,3.8567,0.90909,0,0.0005118,5114.4,0.00018266,0.07365,0.00014515,-281.75,-0.00051601,-5249.4,0.081355
2673,3.8567,0.72727,0,0.00051624,5158.9,0.00018139,0.11336,0.00015144,-224.87,-0.0005197,-5267.6,0.080409
2674,3.8567,0.54545,0,0.00052088,5205.2,0.00018008,0.13389,0.00015791,-166.42,-0.00052351,-5286.3,0.079363
2675,3.8567,0.36364,0,0.00052567,5253.1,0.00017877,0.41102,0.0001645,-106.74,-0.00052739,-5305.4,0.078213
2676,3.8567,0.18182,0,0.00053072,5303.5,0.00017744,0.58721,0.00017129,-45.676,-0.00053147,-5325.9,0.076955
2677,3.6731,5.8182,0,0.00053734,5369.6,0.00017972,0.68788,0.00017332,-47.41,-0.00053811,-5392.8,0.069504
2678,3.6731,5.6364,0,0.00053186,5315,0.00018115,0.45198,0.00016596,-113.67,-0.0005337,-5370.6,0.070743
2679,3.6731,5.4545,0,0.0005267,5263.4,0.00018259,0.14842,0.00015883,-178.37,-0.00052951,-5350.3,0.071874
2680,3.6731,5.2727,0,0.00052173,5213.7,0.00018402,0.12478,0.00015182,-241.84,-0.00052542,-5330.3,0.0729
2681,3.6731,5.0909,0,0.00051695,5165.9,0.00018542,0.081089,0.00014499,-303.68,-0.00052144,-5311,0.073828
2682,3.6731,4.9091,0,0.00051243,5120.7,0.00018678,0.057667,0.00013843,-363.21,-0.00051764,-5292.6,0.07466
2683,3.6731,4.7273,0,0.00050819,5078.4,0.00018807,0.037855,0.0001322,-419.77,-0.00051403,-5275.3,0.075401
2684,3.6731,4.5455,0,0.0005043,5039.5,0.00018928,0.022698,0.00012637,-472.71,-0.00051067,-5259.2,0.076056
2685,3.6731,4.3636,0,0.00050076,5004.2,0.00019041,0.010403,0.00012101,-521.42,-0.00050759,-5244.4,0.076629
2686,3.6731,4.1818,0,0.00049762,4972.8,0.00019142,0.00054437,0.00011618,-565.32,-0.00050482,-5231.3,0.077122
2687,3.6731,4,0,0.0004949,4945.6,0.00019231,-0.0073325,0.00011194,-603.91,-0.0005024,-5219.8,0.077538
2688,3.6731,3.8182,0,0.00049261,4922.7,0.00019308,-0.013506,0.00010833,-636.75,-0.00050034,-5210.1,0.077881
2689,3.6731,3.6364,0,0.00049076,4904.2,0.0001937,-0.018196,0.0001054,-663.46,-0.00049867,-5202.2,0.078153
2690,3.6731,3.4545,0,0.00048937,4890.4,0.00019417,-0.021568,0.00010317,-683.74,-0.0004974,-5196.3,0.078355
2691,3.6731,3.2727,0,0.00048844,4881.1,0.00019449,-0.023749,0.00010168,-697.39,-0.00049655,-5192.3,0.078489
2692,3.6731,3.0909,0,0.00048798,4876.4,0.00019465,-0.024819,0.00010092,-704.25,-0.00049613,-5190.3,0.078556
2693,3.6731,2.9091,0,0.00048798,4876.4,0.00019465,-0.024819,0.00010092,-704.25,-0.00049613,-5190.3,0.078556
2694,3.6731,2.7273,0,0.00048844,4881.1,0.00019449,-0.023749,0.00010168,-697.39,-0.00049655,-5192.3,0.078489
2695,3.6731,2.5455,0,0.00048937,4890.4,0.00019417,-0.021568,0.00010317,-683.74,-0.0004974,-5196.3,0.078355
2696,3.6731,2.3636,0,0.00049076,4904.2,0.0001937,-0.018196,0.0001054,-663.46,-0.00049867,-5202.2,0.078153
2697,3.6731,2.1818,0,0.00049261,4922.7,0.00019308,-0.013506,0.00010833,-636.75,-0.00050034,-5210.1,0.077881
2698,3.6731,2,0,0.0004949,4945.6,0.00019231,-0.007332,0.00011194,-603.91,-0.0005024,-5219.8,0.077538
2699,3.6731,1.8182,0,0.00049762,4972.8,0.00019142,0.00054482,0.00011618,-565.32,-0.00050482,-5231.3,0.077122
2700,3.6731,1.6364,0,0.00050076,5004.2,0.00019041,0.010404,0.00012101,-521.42,-0.00050759,-5244.4,0.076629
2701,3.6731,1.4545,0,0.0005043,5039.5,0.00018928,0.022699,0.00012637,-472.71,-0.00051067,-5259.2,0.076056
2702,3.6731,1.2727,0,0.00050819,5078.4,0.00018807,0.037856,0.0001322,-419.77,-0.00051403,-5275.3,0.075401
2703,3.6731,1.0909,0,0.00051243,5120.7,0.00018678,0.057668,0.00013843,-363.21,-0.00051764,-5292.6,0.07466
2704,3.6731,0.90909,0,0.00051695,5165.9,0.00018542,0.081091,0.00014499,-303.68,-0.00052144,-5311,0.073828
2705,3.6731,0.72727,0,0.00052173,5213.7,0.00018402,0.12478,0.00015182,-241.84,-0.00052542,-5330.3,0.0729
2706,3.6731,0.54545,0,0.0005267,5263.4,0.00018259,0.14842,0.00015883,-178.37,-0.00052951,-5350.3,0.071874
2707,3.6731,0.36364,0,0.00053186,5315,0.00018115,0.45198,0.00016596,-113.67,-0.0005337,-5370.6,0.070743
2708,3.6731,0.18182,0,0.00053734,5369.6,0.00017972,0.68789,0.00017332,-47.41,-0.00053811,-5392.8,0.069504
2709,3.4894,5.8182,0,0.00054401,5436.3,0.000182,0.81187,0.00017539,-48.871,-0.00054481,-5460.2,0.062415
2710,3.4894,5.6364,0,0.00053807,5377,0.00018355,0.4976,0.00016741,-120.79,-0.00054002,-5436.1,0.063633
2711,3.4894,5.4545,0,0.00053252,5321.6,0.00018512,0.1647,0.00015968,-190.97,-0.00053551,-5414.4,0.064741
2712,3.4894,5.2727,0,0.00052717,5268.1,0.0001867,0.13744,0.00015208,-259.93,-0.00053111,-5393.2,0.065746
2713,3.4894,5.0909,0,0.00052205,5216.9,0.00018824,0.089304,0.00014468,-327.19,-0.00052685,-5372.8,0.06665
2714,3.4894,4.9091,0,0.00051722,5168.6,0.00018973,0.06344,0.00013756,-391.99,-0.00052277,-5353.4,0.067461
2715,3.4894,4.7273,0,0.0005127,5123.5,0.00019117,0.04171,0.00013079,-453.59,-0.00051891,-5335.2,0.068182
2716,3.4894,4.5455,0,0.00050855,5082,0.00019251,0.025185,0.00012446,-511.26,-0.00051532,-5318.3,0.068817
2717,3.4894,4.3636,0,0.00050481,5044.6,0.00019376,0.011892,0.00011865,-564.29,-0.00051203,-5303,0.069371
2718,3.4894,4.1818,0,0.00050149,5011.5,0.00019488,0.0013383,0.00011342,-612.07,-0.00050909,-5289.4,0.069847
2719,3.4894,4,0,0.00049862,4982.8,0.00019588,-0.0070034,0.00010883,-654.04,-0.00050652,-5277.5,0.070249
2720,3.4894,3.8182,0,0.00049622,4958.8,0.00019672,-0.013469,0.00010493,-689.73,-0.00050434,-5267.6,0.07058
2721,3.4894,3.6364,0,0.00049429,4939.5,0.00019742,-0.018328,0.00010176,-718.73,-0.00050258,-5259.5,0.070841
2722,3.4894,3.4545,0,0.00049284,4925,0.00019794,-0.021789,9.9358e-05,-740.75,-0.00050124,-5253.4,0.071035
2723,3.4894,3.2727,0,0.00049187,4915.3,0.0001983,-0.02401,9.7742e-05,-755.56,-0.00050035,-5249.4,0.071164
2724,3.4894,3.0909,0,0.00049139,4910.5,0.00019848,-0.025094,9.6931e-05,-763,-0.0004999,-5247.4,0.071228
2725,3.4894,2.9091,0,0.00049139,4910.5,0.00019848,-0.025094,9.6931e-05,-763,-0.0004999,-5247.4,0.071228
2726,3.4894,2.7273,0,0.00049187,4915.3,0.0001983,-0.02401,9.7742e-05,-755.56,-0.00050035,-5249.4,0.071164
2727,3.4894,2.5455,0,0.00049284,4925,0.00019794,-0.021789,9.9358e-05,-740.75,-0.00050124,-5253.4,0.071035
2728,3.4894,2.3636,0,0.00049429,4939.5,0.00019742,-0.018328,0.00010176,-718.73,-0.00050258,-5259.5,0.070841
2729,3.4894,2.1818,0,0.00049622,4958.8,0.00019672,-0.013468,0.00010493,-689.73,-0.00050434,-5267.6,0.07058
2730,3.4894,2,0,0.00049862,4982.8,0.00019588,-0.007003,0.00010883,-654.04,-0.00050652,-5277.5,0.070249
2731,3.4894,1.8182,0,0.00050149,5011.5,0.00019488,0.0013386,0.00011342,-612.07,-0.00050909,-5289.4,0.069847
2732,3.4894,1.6364,0,0.00050481,5044.6,0.00019376,0.011893,0.00011865,-564.29,-0.00051203,-5303,0.069371
2733,3.4894,1.4545,0,0.00050855,5082,0.00019251,0.025186,0.00012446,-511.26,-0.00051532,-5318.3,0.068817
2734,3.4894,1.2727,0,0.0005127,5123.5,0.00019117,0.04171,0.00013079,-453.59,-0.00051891,-5335.2,0.068182
2735,3.4894,1.0909,0,0.00051722,5168.6,0.00018973,0.063441,0.00013756,-391.99,-0.00052277,-5353.4,0.067461
2736,3.4894,0.90909,0,0.00052206,5216.9,0.00018824,0.089305,0.00014468,-327.19,-0.00052685,-5372.8,0.06665
2737,3.4894,0.72727,0,0.00052717,5268.1,0.0001867,0.13744,0.00015208,-259.93,-0.00053111,-5393.2,0.065746
2738,3.4894,0.54545,0,0.00053252,5321.6,0.00018512,0.1647,0.00015968,-190.97,-0.00053551,-5414.4,0.064741
2739,3.4894,0.36364,0,0.00053807,5377,0.00018355,0.4976,0.00016741,-120.79,-0.00054002,-5436.1,0.063633
2740,3.4894,0.18182,0,0.00054401,5436.3,0.000182,0.81187,0.00017539,-48.871,-0.00054481,-5460.2,0.062415
2741,3.3058,5.8182,0,0.00055071,5503.3,0.00018429,0.96622,0.0001775,-49.988,-0.00055153,-5527.7,0.055692
2742,3.3058,5.6364,0,0.00054428,5439,0.00018597,0.54856,0.00016884,-128.1,-0.00054633,-5501.7,0.056885
2743,3.3058,5.4545,0,0.00053831,5379.4,0.00018768,0.18299,0.00016047,-204.27,-0.00054149,-5478.5,0.057969
2744,3.3058,5.2727,0,0.00053257,5322,0.00018941,0.15146,0.00015223,-279.22,-0.00053677,-5456.1,0.058948
2745,3.3058,5.0909,0,0.00052709,5267.3,0.00019111,0.098364,0.0001442,-352.42,-0.0005322,-5434.6,0.059827
2746,3.3058,4.9091,0,0.00052193,5215.7,0.00019277,0.069772,0.00013646,-423,-0.00052783,-5414.3,0.060614
2747,3.3058,4.7273,0,0.00051713,5167.7,0.00019436,0.045936,0.00012912,-490.1,-0.00052372,-5395.3,0.061311
2748,3.3058,4.5455,0,0.00051274,5123.8,0.00019585,0.027949,0.00012226,-552.89,-0.0005199,-5377.8,0.061924
2749,3.3058,4.3636,0,0.00050879,5084.4,0.00019724,0.013631,0.00011597,-610.61,-0.00051641,-5362.1,0.062458
2750,3.3058,4.1818,0,0.00050531,5049.6,0.00019849,0.0024027,0.00011031,-662.56,-0.0005133,-5348.1,0.062915
2751,3.3058,4,0,0.00050231,5019.6,0.0001996,-0.0063515,0.00010535,-708.14,-0.00051059,-5336.1,0.063301
2752,3.3058,3.8182,0,0.00049981,4994.6,0.00020054,-0.01304,0.00010114,-746.85,-0.00050831,-5326,0.063618
2753,3.3058,3.6364,0,0.00049781,4974.7,0.00020131,-0.017998,9.7732e-05,-778.28,-0.00050646,-5317.9,0.063868
2754,3.3058,3.4545,0,0.00049631,4959.7,0.0002019,-0.021487,9.5146e-05,-802.12,-0.00050506,-5311.9,0.064054
2755,3.3058,3.2727,0,0.00049531,4949.7,0.00020229,-0.023703,9.341e-05,-818.13,-0.00050413,-5307.8,0.064177
2756,3.3058,3.0909,0,0.00049481,4944.7,0.00020249,-0.024779,9.2538e-05,-826.18,-0.00050366,-5305.8,0.064238
2757,3.3058,2.9091,0,0.00049481,4944.7,0.00020249,-0.024779,9.2538e-05,-826.18,-0.00050366,-5305.8,0.064238
2758,3.3058,2.7273,0,0.00049531,4949.7,0.00020229,-0.023703,9.341e-05,-818.13,-0.00050413,-5307.8,0.064177
2759,3.3058,2.5455,0,0.00049631,4959.7,0.0002019,-0.021486,9.5146e-05,-802.12,-0.00050506,-5311.9,0.064054
2760,3.3058,2.3636,0,0.00049781,4974.7,0.00020131,-0.017998,9.7732e-05,-778.28,-0.00050646,-5317.9,0.063868
2761,3.3058,2.1818,0,0.00049981,4994.6,0.00020054,-0.01304,0.00010114,-746.85,-0.00050831,-5326,0.063618
2762,3.3058,2,0,0.00050231,5019.6,0.0001996,-0.0063511,0.00010535,-708.14,-0.00051059,-5336.1,0.063301
2763,3.3058,1.8182,0,0.00050531,5049.6,0.00019849,0.002403,0.00011031,-662.56,-0.0005133,-5348.1,0.062915
2764,3.3058,1.6364,0,0.00050879,5084.4,0.00019724,0.013632,0.00011597,-610.61,-0.00051641,-5362.1,0.062458
2765,3.3058,1.4545,0,0.00051274,5123.8,0.00019585,0.02795,0.00012226,-552.89,-0.0005199,-5377.8,0.061924
2766,3.3058,1.2727,0,0.00051713,5167.7,0.00019436,0.045937,0.00012912,-490.1,-0.00052372,-5395.3,0.061311
2767,3.3058,1.0909,0,0.00052193,5215.7,0.00019277,0.069773,0.00013646,-423,-0.00052783,-5414.3,0.060614
2768,3.3058,0.90909,0,0.00052709,5267.3,0.00019111,0.098365,0.0001442,-352.42,-0.0005322,-5434.6,0.059827
2769,3.3058,0.72727,0,0.00053257,5322,0.00018941,0.15146,0.00015223,-279.22,-0.00053677,-5456.1,0.058948
2770,3.3058,0.54545,0,0.00053831,5379.4,0.00018768,0.18299,0.00016047,-204.27,-0.00054149,-5478.5,0.057969
2771,3.3058,0.36364,0,0.00054428,5439,0.00018597,0.54856,0.00016884,-128.1,-0.00054633,-5501.7,0.056885
2772,3.3058,0.18182,0,0.00055071,5503.3,0.00018429,0.96622,0.0001775,-49.988,-0.00055153,-5527.7,0.055692
2773,3.1221,5.8182,0,0.00055744,5570.6,0.00018656,1.1609,0.00017966,-50.684,-0.00055826,-5595.1,0.049339
2774,3.1221,5.6364,0,0.00055046,5500.8,0.00018837,0.6057,0.00017025,-135.57,-0.00055263,-5567,0.050505
2775,3.1221,5.4545,0,0.00054404,5436.7,0.00019026,0.20357,0.00016117,-218.3,-0.00054742,-5542.4,0.05156
2776,3.1221,5.2727,0,0.00053789,5375.2,0.00019216,0.16701,0.00015223,-299.84,-0.00054236,-5518.7,0.05251
2777,3.1221,5.0909,0,0.00053204,5316.7,0.00019405,0.10835,0.00014351,-379.57,-0.00053747,-5496.2,0.053362
2778,3.1221,4.9091,0,0.00052654,5261.8,0.00019588,0.076698,0.00013512,-456.48,-0.00053282,-5475.1,0.054121
2779,3.1221,4.7273,0,0.00052146,5211,0.00019765,0.050554,0.00012716,-529.58,-0.00052844,-5455.5,0.054792
2780,3.1221,4.5455,0,0.00051683,5164.7,0.00019932,0.031016,0.00011973,-597.94,-0.0005244,-5437.7,0.055381
2781,3.1221,4.3636,0,0.00051269,5123.4,0.00020086,0.015665,0.00011292,-660.69,-0.00052073,-5421.7,0.055892
2782,3.1221,4.1818,0,0.00050907,5087.2,0.00020226,0.0038128,0.00010682,-717.09,-0.00051746,-5407.7,0.056329
2783,3.1221,4,0,0.00050597,5056.2,0.00020349,-0.0052688,0.00010148,-766.5,-0.00051463,-5395.7,0.056697
2784,3.1221,3.8182,0,0.00050339,5030.5,0.00020455,-0.012082,9.6957e-05,-808.39,-0.00051225,-5385.7,0.056998
2785,3.1221,3.6364,0,0.00050135,5010,0.0002054,-0.017043,9.3297e-05,-842.35,-0.00051033,-5377.8,0.057236
2786,3.1221,3.4545,0,0.00049982,4994.7,0.00020606,-0.020477,9.0528e-05,-868.07,-0.00050889,-5371.9,0.057412
2787,3.1221,3.2727,0,0.0004988,4984.6,0.0002065,-0.022631,8.8671e-05,-885.34,-0.00050793,-5368,0.057529
2788,3.1221,3.0909,0,0.0004983,4979.6,0.00020672,-0.023667,8.7739e-05,-894,-0.00050745,-5366,0.057587
2789,3.1221,2.9091,0,0.0004983,4979.6,0.00020672,-0.023667,8.7739e-05,-894,-0.00050745,-5366,0.057587
2790,3.1221,2.7273,0,0.0004988,4984.6,0.0002065,-0.022631,8.8671e-05,-885.34,-0.00050793,-5368,0.057529
2791,3.1221,2.5455,0,0.00049982,4994.7,0.00020606,-0.020477,9.0528e-05,-868.07,-0.00050889,-5371.9,0.057412
2792,3.1221,2.3636,0,0.00050135,5010,0.0002054,-0.017043,9.3297e-05,-842.35,-0.00051033,-5377.8,0.057236
2793,3.1221,2.1818,0,0.00050339,5030.5,0.00020455,-0.012082,9.6957e-05,-808.39,-0.00051225,-5385.7,0.056998
2794,3.1221,2,0,0.00050597,5056.2,0.00020349,-0.0052685,0.00010148,-766.5,-0.00051463,-5395.7,0.056697
2795,3.1221,1.8182,0,0.00050907,5087.2,0.00020226,0.0038133,0.00010682,-717.09,-0.00051746,-5407.7,0.056329
2796,3.1221,1.6364,0,0.00051269,5123.4,0.00020086,0.015666,0.00011292,-660.69,-0.00052073,-5421.7,0.055892
2797,3.1221,1.4545,0,0.00051683,5164.7,0.00019932,0.031017,0.00011973,-597.94,-0.0005244,-5437.7,0.055381
2798,3.1221,1.2727,0,0.00052146,5211,0.00019765,0.050555,0.00012716,-529.58,-0.00052844,-5455.5,0.054792
2799,3.1221,1.0909,0,0.00052654,5261.8,0.00019588,0.076698,0.00013512,-456.48,-0.00053282,-5475.1,0.054121
2800,3.1221,0.90909,0,0.00053204,5316.7,0.00019405,0.10835,0.00014351,-379.57,-0.00053747,-5496.2,0.053362
2801,3.1221,0.72727,0,0.00053789,5375.2,0.00019216,0.16701,0.00015223,-299.84,-0.00054236,-5518.7,0.05251
2802,3.1221,0.54545,0,0.00054404,5436.7,0.00019026,0.20357,0.00016117,-218.3,-0.00054742,-5542.4,0.05156
2803,3.1221,0.36364,0,0.00055046,5500.8,0.00018837,0.6057,0.00017025,-135.57,-0.00055263,-5567,0.050505
2804,3.1221,0.18182,0,0.00055744,5570.6,0.00018656,1.1609,0.00017966,-50.684,-0.00055826,-5595.1,0.049339
2805,2.9385,5.8182,0,0.00056416,5637.7,0.0001888,1.4101,0.00018185,-50.87,-0.00056498,-5662.2,0.043361
2806,2.9385,5.6364,0,0.00055657,5561.9,0.00019077,0.67005,0.00017162,-143.21,-0.00055886,-5631.7,0.044495
2807,2.9385,5.4545,0,0.00054968,5493,0.00019284,0.2268,0.00016178,-233.15,-0.00055327,-5605.7,0.045518
2808,2.9385,5.2727,0,0.00054309,5427.2,0.00019495,0.18428,0.00015207,-321.95,-0.00054785,-5580.9,0.046437
2809,2.9385,5.0909,0,0.00053685,5364.8,0.00019704,0.11933,0.00014261,-408.87,-0.00054264,-5557.5,0.047257
2810,2.9385,4.9091,0,0.00053103,5306.6,0.00019908,0.084243,0.0001335,-492.72,-0.00053769,-5535.7,0.047985
2811,2.9385,4.7273,0,0.00052567,5253.1,0.00020105,0.055577,0.00012487,-572.37,-0.00053306,-5515.8,0.048628
2812,2.9385,4.5455,0,0.00052083,5204.7,0.00020291,0.034412,0.00011683,-646.75,-0.0005288,-5497.8,0.049189
2813,2.9385,4.3636,0,0.00051653,5161.7,0.00020464,0.018053,0.00010949,-714.91,-0.00052496,-5481.9,0.049676
2814,2.9385,4.1818,0,0.00051279,5124.4,0.0002062,0.0056678,0.00010292,-776.03,-0.00052157,-5468.2,0.050091
2815,2.9385,4,0,0.00050962,5092.7,0.00020758,-0.0036159,9.7188e-05,-829.45,-0.00051864,-5456.5,0.050439
2816,2.9385,3.8182,0,0.00050701,5066.6,0.00020876,-0.010419,9.2352e-05,-874.64,-0.00051619,-5447,0.050724
2817,2.9385,3.6364,0,0.00050495,5046,0.00020972,-0.015258,8.8446e-05,-911.2,-0.00051424,-5439.5,0.050948
2818,2.9385,3.4545,0,0.00050342,5030.7,0.00021045,-0.018534,8.5497e-05,-938.84,-0.00051277,-5434,0.051114
2819,2.9385,3.2727,0,0.0005024,5020.6,0.00021094,-0.020552,8.3523e-05,-957.36,-0.00051179,-5430.3,0.051224
2820,2.9385,3.0909,0,0.0005019,5015.5,0.00021118,-0.021512,8.2534e-05,-966.65,-0.00051131,-5428.5,0.051279
2821,2.9385,2.9091,0,0.0005019,5015.5,0.00021118,-0.021512,8.2534e-05,-966.65,-0.00051131,-5428.5,0.051279
2822,2.9385,2.7273,0,0.0005024,5020.6,0.00021094,-0.020552,8.3523e-05,-957.36,-0.00051179,-5430.3,0.051224
2823,2.9385,2.5455,0,0.00050342,5030.7,0.00021045,-0.018534,8.5497e-05,-938.84,-0.00051277,-5434,0.051114
2824,2.9385,2.3636,0,0.00050495,5046,0.00020972,-0.015257,8.8446e-05,-911.2,-0.00051424,-5439.5,0.050948
2825,2.9385,2.1818,0,0.00050701,5066.6,0.00020876,-0.010419,9.2352e-05,-874.64,-0.00051619,-5447,0.050724
2826,2.9385,2,0,0.00050962,5092.7,0.00020758,-0.0036154,9.7188e-05,-829.45,-0.00051864,-5456.5,0.050439
2827,2.9385,1.8182,0,0.00051279,5124.4,0.0002062,0.0056682,0.00010292,-776.03,-0.00052157,-5468.2,0.050091
2828,2.9385,1.6364,0,0.00051653,5161.7,0.00020464,0.018054,0.00010949,-714.91,-0.00052496,-5481.9,0.049676
2829,2.9385,1.4545,0,0.00052083,5204.7,0.00020291,0.034413,0.00011683,-646.75,-0.0005288,-5497.8,0.049189
2830,2.9385,1.2727,0,0.00052567,5253.1,0.00020105,0.055577,0.00012487,-572.37,-0.00053306,-5515.8,0.048628
2831,2.9385,1.0909,0,0.00053103,5306.6,0.00019908,0.084244,0.0001335,-492.72,-0.00053769,-5535.7,0.047985
2832,2.9385,0.90909,0,0.00053685,5364.8,0.00019704,0.11933,0.00014261,-408.87,-0.00054264,-5557.5,0.047257
2833,2.9385,0.72727,0,0.00054309,5427.2,0.00019495,0.18428,0.00015207,-321.95,-0.00054785,-5580.9,0.046437
2834,2.9385,0.54545,0,0.00054968,5493,0.00019284,0.2268,0.00016178,-233.15,-0.00055327,-5605.7,0.045518
2835,2.9385,0.36364,0,0.00055657,5561.9,0.00019077,0.67005,0.00017162,-143.21,-0.00055886,-5631.7,0.044495
2836,2.9385,0.18182,0,0.00056416,5637.7,0.0001888,1.4101,0.00018185,-50.87,-0.00056498,-5662.2,0.043361
2837,2.7548,5.8182,0,0.00057082,5704.3,0.00019101,1.735,0.00018406,-50.455,-0.00057163,-5728.4,0.037762
2838,2.7548,5.6364,0,0.00056258,5621.9,0.00019314,0.74284,0.00017295,-151,-0.00056498,-5695.5,0.03886
2839,2.7548,5.4545,0,0.00055517,5547.9,0.00019542,0.25308,0.00016226,-248.93,-0.00055898,-5668,0.039847
2840,2.7548,5.2727,0,0.00054813,5477.6,0.00019776,0.20346,0.00015171,-345.77,-0.00055319,-5642.2,0.04073
2841,2.7548,5.0909,0,0.0005415,5411.3,0.00020009,0.13138,0.00014142,-440.64,-0.00054764,-5618,0.041516
2842,2.7548,4.9091,0,0.00053535,5349.8,0.00020237,0.092423,0.00013154,-532.13,-0.00054241,-5595.9,0.042211
2843,2.7548,4.7273,0,0.00052973,5293.7,0.00020458,0.061009,0.0001222,-618.92,-0.00053754,-5575.9,0.042821
2844,2.7548,4.5455,0,0.00052471,5243.5,0.00020666,0.038172,0.00011352,-699.8,-0.0005331,-5558.2,0.043353
2845,2.7548,4.3636,0,0.0005203,5199.4,0.00020859,0.020875,0.00010562,-773.7,-0.00052912,-5542.9,0.043812
2846,2.7548,4.1818,0,0.0005165,5161.4,0.00021034,0.0081002,9.8574e-05,-839.78,-0.00052563,-5529.8,0.044203
2847,2.7548,4,0,0.00051331,5129.6,0.00021189,-0.0012112,9.2458e-05,-897.34,-0.00052265,-5519,0.04453
2848,2.7548,3.8182,0,0.00051071,5103.6,0.0002132,-0.007829,8.7313e-05,-945.88,-0.00052018,-5510.3,0.044797
2849,2.7548,3.6364,0,0.00050867,5083.2,0.00021427,-0.01239,8.3172e-05,-985.05,-0.00051821,-5503.6,0.045007
2850,2.7548,3.4545,0,0.00050717,5068.2,0.00021509,-0.015387,8.0055e-05,-1014.6,-0.00051675,-5498.7,0.045162
2851,2.7548,3.2727,0,0.00050618,5058.3,0.00021563,-0.017186,7.7972e-05,-1034.4,-0.00051578,-5495.6,0.045265
2852,2.7548,3.0909,0,0.00050569,5053.4,0.00021591,-0.018026,7.6929e-05,-1044.3,-0.00051529,-5494,0.045315
2853,2.7548,2.9091,0,0.00050569,5053.4,0.00021591,-0.018026,7.6929e-05,-1044.3,-0.00051529,-5494,0.045315
2854,2.7548,2.7273,0,0.00050618,5058.3,0.00021563,-0.017186,7.7972e-05,-1034.4,-0.00051578,-5495.6,0.045265
2855,2.7548,2.5455,0,0.00050717,5068.2,0.00021509,-0.015386,8.0055e-05,-1014.6,-0.00051675,-5498.7,0.045162
2856,2.7548,2.3636,0,0.00050867,5083.2,0.00021427,-0.01239,8.3172e-05,-985.05,-0.00051821,-5503.6,0.045007
2857,2.7548,2.1818,0,0.00051071,5103.6,0.0002132,-0.0078288,8.7313e-05,-945.88,-0.00052018,-5510.3,0.044797
2858,2.7548,2,0,0.00051331,5129.6,0.00021189,-0.0012108,9.2458e-05,-897.34,-0.00052265,-5519,0.04453
2859,2.7548,1.8182,0,0.0005165,5161.4,0.00021034,0.0081005,9.8574e-05,-839.78,-0.00052563,-5529.8,0.044203
2860,2.7548,1.6364,0,0.0005203,5199.4,0.00020859,0.020876,0.00010562,-773.7,-0.00052912,-5542.9,0.043812
2861,2.7548,1.4545,0,0.00052471,5243.5,0.00020666,0.038172,0.00011352,-699.8,-0.0005331,-5558.2,0.043353
2862,2.7548,1.2727,0,0.00052973,5293.7,0.00020458,0.06101,0.0001222,-618.92,-0.00053754,-5575.9,0.042821
2863,2.7548,1.0909,0,0.00053535,5349.8,0.00020237,0.092424,0.00013154,-532.13,-0.00054241,-5595.9,0.042211
2864,2.7548,0.90909,0,0.0005415,5411.3,0.00020009,0.13138,0.00014142,-440.64,-0.00054764,-5618,0.041516
2865,2.7548,0.72727,0,0.00054813,5477.6,0.00019776,0.20346,0.00015171,-345.77,-0.00055319,-5642.2,0.04073
2866,2.7548,0.54545,0,0.00055517,5547.9,0.00019542,0.25308,0.00016226,-248.93,-0.00055898,-5668,0.039847
2867,2.7548,0.36364,0,0.00056258,5621.9,0.00019314,0.74285,0.00017295,-151,-0.00056498,-5695.5,0.03886
2868,2.7548,0.18182,0,0.00057082,5704.3,0.00019101,1.735,0.00018406,-50.455,-0.00057163,-5728.4,0.037762
2869,2.5712,5.8182,0,0.00057738,5769.8,0.00019315,2.1682,0.0001863,-49.338,-0.00057816,-5793.2,0.032545
2870,2.5712,5.6364,0,0.0005684,5680.1,0.00019546,0.82562,0.00017419,-158.97,-0.00057092,-5757.5,0.033603
2871,2.5712,5.4545,0,0.00056046,5600.7,0.00019798,0.28288,0.00016257,-265.78,-0.0005645,-5728.7,0.03455
2872,2.5712,5.2727,0,0.00055295,5525.6,0.00020059,0.22475,0.0001511,-371.6,-0.00055832,-5701.9,0.035394
2873,2.5712,5.0909,0,0.00054591,5455.4,0.00020319,0.14454,0.00013992,-475.3,-0.00055244,-5677.4,0.036141
2874,2.5712,4.9091,0,0.00053945,5390.8,0.00020576,0.10122,0.00012919,-575.2,-0.00054693,-5655.3,0.036799
2875,2.5712,4.7273,0,0.00053362,5332.5,0.00020823,0.066842,0.00011908,-669.77,-0.00054185,-5635.7,0.037375
2876,2.5712,4.5455,0,0.00052847,5281,0.00021057,0.042329,0.00010974,-757.6,-0.00053726,-5618.9,0.037875
2877,2.5712,4.3636,0,0.000524,5236.4,0.00021274,0.024231,0.00010127,-837.57,-0.00053319,-5604.6,0.038304
2878,2.5712,4.1818,0,0.00052021,5198.5,0.00021471,0.011273,9.3754e-05,-908.77,-0.00052967,-5592.9,0.038669
2879,2.5712,4,0,0.00051707,5167.1,0.00021643,0.002163,8.7264e-05,-970.53,-0.00052669,-5583.5,0.038973
2880,2.5712,3.8182,0,0.00051454,5141.8,0.0002179,-0.0040555,8.1831e-05,-1022.4,-0.00052424,-5576.2,0.039221
2881,2.5712,3.6364,0,0.00051258,5122.3,0.0002191,-0.0081592,7.7477e-05,-1064.1,-0.00052232,-5570.8,0.039415
2882,2.5712,3.4545,0,0.00051115,5108,0.00022001,-0.010741,7.4211e-05,-1095.5,-0.0005209,-5566.9,0.039558
2883,2.5712,3.2727,0,0.00051022,5098.7,0.00022062,-0.012231,7.2034e-05,-1116.4,-0.00051996,-5564.4,0.039653
2884,2.5712,3.0909,0,0.00050977,5094.1,0.00022093,-0.012909,7.0947e-05,-1126.9,-0.00051949,-5563.2,0.0397
2885,2.5712,2.9091,0,0.00050977,5094.1,0.00022093,-0.012909,7.0947e-05,-1126.9,-0.00051949,-5563.2,0.0397
2886,2.5712,2.7273,0,0.00051022,5098.7,0.00022062,-0.012231,7.2034e-05,-1116.4,-0.00051996,-5564.4,0.039653
2887,2.5712,2.5455,0,0.00051115,5108,0.00022001,-0.010741,7.4211e-05,-1095.5,-0.0005209,-5566.9,0.039558
2888,2.5712,2.3636,0,0.00051258,5122.3,0.0002191,-0.008159,7.7477e-05,-1064.1,-0.00052232,-5570.8,0.039415
2889,2.5712,2.1818,0,0.00051454,5141.8,0.0002179,-0.0040552,8.1831e-05,-1022.4,-0.00052424,-5576.2,0.039221
2890,2.5712,2,0,0.00051707,5167.1,0.00021643,0.0021632,8.7264e-05,-970.53,-0.00052669,-5583.5,0.038973
2891,2.5712,1.8182,0,0.00052021,5198.5,0.00021471,0.011274,9.3754e-05,-908.77,-0.00052967,-5592.9,0.038669
2892,2.5712,1.6364,0,0.000524,5236.4,0.00021274,0.024231,0.00010127,-837.57,-0.00053319,-5604.6,0.038304
2893,2.5712,1.4545,0,0.00052847,5281,0.00021057,0.04233,0.00010974,-757.6,-0.00053726,-5618.9,0.037875
2894,2.5712,1.2727,0,0.00053362,5332.5,0.00020823,0.066842,0.00011908,-669.77,-0.00054185,-5635.7,0.037375
2895,2.5712,1.0909,0,0.00053945,5390.8,0.00020576,0.10122,0.00012919,-575.2,-0.00054693,-5655.3,0.036799
2896,2.5712,0.90909,0,0.00054591,5455.4,0.00020319,0.14454,0.00013992,-475.3,-0.00055244,-5677.4,0.036141
2897,2.5712,0.72727,0,0.00055295,5525.6,0.00020059,0.22475,0.0001511,-371.6,-0.00055832,-5701.9,0.035394
2898,2.5712,0.54545,0,0.00056046,5600.7,0.00019798,0.28288,0.00016257,-265.78,-0.0005645,-5728.7,0.03455
2899,2.5712,0.36364,0,0.0005684,5680.1,0.00019546,0.82562,0.00017419,-158.97,-0.00057092,-5757.5,0.033603
2900,2.5712,0.18182,0,0.00057738,5769.8,0.00019315,2.1682,0.0001863,-49.338,-0.00057816,-5793.2,0.032545
2901,2.3875,5.8182,0,0.00058374,5833.4,0.00019521,2.7614,0.00018853,-47.422,-0.00058449,-5855.6,0.027713
2902,2.3875,5.6364,0,0.00057397,5735.7,0.0001977,0.92039,0.00017534,-167.15,-0.00057661,-5817,0.028728
2903,2.3875,5.4545,0,0.00056544,5650.5,0.00020051,0.31689,0.00016268,-283.95,-0.00056973,-5786.9,0.029631
2904,2.3875,5.2727,0,0.00055744,5570.5,0.00020342,0.24854,0.00015018,-399.84,-0.00056316,-5759.5,0.030431
2905,2.3875,5.0909,0,0.00055002,5496.4,0.00020635,0.15901,0.00013801,-513.39,-0.00055695,-5735,0.031136
2906,2.3875,4.9091,0,0.00054328,5429.1,0.00020924,0.11079,0.00012637,-622.59,-0.00055118,-5713.5,0.031753
2907,2.3875,4.7273,0,0.00053729,5369.2,0.00021203,0.07325,0.00011545,-725.6,-0.00054594,-5695,0.032291
2908,2.3875,4.5455,0,0.00053208,5317.1,0.00021467,0.047139,0.00010542,-820.85,-0.00054126,-5679.8,0.032756
2909,2.3875,4.3636,0,0.00052764,5272.8,0.00021711,0.028463,9.638e-05,-907.12,-0.00053718,-5667.4,0.033154
2910,2.3875,4.1818,0,0.00052395,5235.8,0.00021932,0.015609,8.8419e-05,-983.5,-0.0005337,-5657.8,0.03349
2911,2.3875,4,0,0.00052094,5205.9,0.00022125,0.006983,8.1586e-05,-1049.4,-0.0005308,-5650.6,0.03377
2912,2.3875,3.8182,0,0.00051857,5182.2,0.0002229,0.0014086,7.5902e-05,-1104.5,-0.00052845,-5645.4,0.033997
2913,2.3875,3.6364,0,0.00051677,5164.1,0.00022423,-0.0020473,7.1371e-05,-1148.5,-0.00052663,-5641.7,0.034174
2914,2.3875,3.4545,0,0.00051547,5151.2,0.00022524,-0.0040781,6.7988e-05,-1181.6,-0.0005253,-5639.3,0.034305
2915,2.3875,3.2727,0,0.00051464,5142.8,0.00022592,-0.0051755,6.5741e-05,-1203.6,-0.00052443,-5637.9,0.034392
2916,2.3875,3.0909,0,0.00051423,5138.8,0.00022626,-0.0056493,6.462e-05,-1214.5,-0.00052401,-5637.2,0.034434
2917,2.3875,2.9091,0,0.00051423,5138.8,0.00022626,-0.0056493,6.462e-05,-1214.5,-0.00052401,-5637.2,0.034434
2918,2.3875,2.7273,0,0.00051464,5142.8,0.00022592,-0.0051754,6.5741e-05,-1203.6,-0.00052443,-5637.9,0.034392
2919,2.3875,2.5455,0,0.00051547,5151.2,0.00022524,-0.0040779,6.7988e-05,-1181.6,-0.0005253,-5639.3,0.034305
2920,2.3875,2.3636,0,0.00051677,5164.1,0.00022423,-0.0020472,7.1371e-05,-1148.5,-0.00052663,-5641.7,0.034174
2921,2.3875,2.1818,0,0.00051857,5182.2,0.0002229,0.0014089,7.5902e-05,-1104.5,-0.00052845,-5645.4,0.033997
2922,2.3875,2,0,0.00052094,5205.9,0.00022125,0.0069833,8.1586e-05,-1049.4,-0.0005308,-5650.6,0.03377
2923,2.3875,1.8182,0,0.00052395,5235.8,0.00021932,0.015609,8.8419e-05,-983.5,-0.0005337,-5657.8,0.03349
2924,2.3875,1.6364,0,0.00052764,5272.8,0.00021711,0.028463,9.638e-05,-907.12,-0.00053718,-5667.4,0.033154
2925,2.3875,1.4545,0,0.00053208,5317.1,0.00021467,0.047139,0.00010542,-820.85,-0.00054126,-5679.8,0.032756
2926,2.3875,1.2727,0,0.00053729,5369.2,0.00021203,0.073251,0.00011545,-725.6,-0.00054594,-5695,0.032291
2927,2.3875,1.0909,0,0.00054328,5429.1,0.00020924,0.11079,0.00012637,-622.59,-0.00055118,-5713.5,0.031753
2928,2.3875,0.90909,0,0.00055002,5496.4,0.00020635,0.15901,0.00013801,-513.39,-0.00055695,-5735,0.031136
2929,2.3875,0.72727,0,0.00055744,5570.5,0.00020342,0.24854,0.00015018,-399.84,-0.00056316,-5759.5,0.030431
2930,2.3875,0.54545,0,0.00056544,5650.5,0.00020051,0.31689,0.00016268,-283.95,-0.00056973,-5786.9,0.029631
2931,2.3875,0.36364,0,0.00057397,5735.7,0.0001977,0.92039,0.00017534,-167.15,-0.00057661,-5817,0.028728
2932,2.3875,0.18182,0,0.00058374,5833.4,0.00019521,2.7614,0.00018853,-47.422,-0.00058449,-5855.6,0.027713
2933,2.2038,5.8182,0,0.00058981,5894.1,0.00019714,3.6005,0.00019073,-44.621,-0.0005905,-5914.4,0.023271
2934,2.2038,5.6364,0,0.00057914,5787.4,0.00019984,1.0293,0.00017632,-175.63,-0.00058191,-5872.7,0.024237
2935,2.2038,5.4545,0,0.00056999,5696,0.00020297,0.35547,0.0001625,-303.75,-0.00057454,-5841.6,0.025091
2936,2.2038,5.2727,0,0.00056149,5611.1,0.00020626,0.2747,0.00014885,-431.06,-0.00056758,-5814,0.025843
2937,2.2038,5.0909,0,0.00055371,5533.3,0.00020957,0.17441,0.00013559,-555.68,-0.00056106,-5790.1,0.026502
2938,2.2038,4.9091,0,0.00054675,5463.7,0.00021284,0.12068,0.00012297,-675.15,-0.00055509,-5769.9,0.027075
2939,2.2038,4.7273,0,0.00054068,5403.1,0.000216,0.07984,0.00011121,-787.29,-0.00054975,-5753.5,0.027572
2940,2.2038,4.5455,0,0.00053552,5351.5,0.00021899,0.052305,0.00010048,-890.35,-0.00054508,-5740.8,0.028
2941,2.2038,4.3636,0,0.00053124,5308.7,0.00022174,0.033377,9.0897e-05,-983.04,-0.00054108,-5731.5,0.028363
2942,2.2038,4.1818,0,0.00052776,5274,0.00022421,0.020984,8.2531e-05,-1064.5,-0.00053775,-5725.1,0.02867
2943,2.2038,4,0,0.00052502,5246.6,0.00022638,0.013158,7.5409e-05,-1134.3,-0.00053503,-5721,0.028923
2944,2.2038,3.8182,0,0.00052291,5225.5,0.00022822,0.0084725,6.9532e-05,-1192.3,-0.00053288,-5718.6,0.029129
2945,2.2038,3.6364,0,0.00052135,5209.9,0.00022971,0.0058348,6.4879e-05,-1238.4,-0.00053125,-5717.5,0.029289
2946,2.2038,3.4545,0,0.00052025,5198.9,0.00023083,0.0044621,6.1423e-05,-1272.8,-0.00053008,-5717.1,0.029407
2947,2.2038,3.2727,0,0.00051956,5192,0.00023158,0.0038181,5.9138e-05,-1295.7,-0.00052932,-5717.1,0.029484
2948,2.2038,3.0909,0,0.00051922,5188.6,0.00023196,0.0035742,5.8001e-05,-1307.1,-0.00052895,-5717.2,0.029522
2949,2.2038,2.9091,0,0.00051922,5188.6,0.00023196,0.0035743,5.8001e-05,-1307.1,-0.00052895,-5717.2,0.029522
2950,2.2038,2.7273,0,0.00051956,5192,0.00023158,0.0038182,5.9138e-05,-1295.7,-0.00052932,-5717.1,0.029484
2951,2.2038,2.5455,0,0.00052025,5198.9,0.00023083,0.0044622,6.1423e-05,-1272.8,-0.00053008,-5717.1,0.029407
2952,2.2038,2.3636,0,0.00052135,5209.9,0.00022971,0.0058349,6.4879e-05,-1238.4,-0.00053125,-5717.5,0.029289
2953,2.2038,2.1818,0,0.00052291,5225.5,0.00022822,0.0084728,6.9532e-05,-1192.3,-0.00053288,-5718.6,0.029129
2954,2.2038,2,0,0.00052502,5246.6,0.00022638,0.013158,7.5409e-05,-1134.3,-0.00053503,-5721,0.028923
2955,2.2038,1.8182,0,0.00052776,5274,0.00022421,0.020984,8.2531e-05,-1064.5,-0.00053775,-5725.1,0.02867
2956,2.2038,1.6364,0,0.00053124,5308.7,0.00022174,0.033377,9.0897e-05,-983.04,-0.00054108,-5731.5,0.028363
2957,2.2038,1.4545,0,0.00053552,5351.5,0.00021899,0.052306,0.00010048,-890.35,-0.00054508,-5740.8,0.028
2958,2.2038,1.2727,0,0.00054068,5403.1,0.000216,0.07984,0.00011121,-787.29,-0.00054975,-5753.5,0.027572
2959,2.2038,1.0909,0,0.00054675,5463.7,0.00021284,0.12068,0.00012297,-675.15,-0.00055509,-5769.9,0.027075
2960,2.2038,0.90909,0,0.00055371,5533.3,0.00020957,0.17441,0.00013559,-555.68,-0.00056106,-5790.1,0.026502
2961,2.2038,0.72727,0,0.00056149,5611.1,0.00020626,0.2747,0.00014885,-431.06,-0.00056758,-5814,0.025843
2962,2.2038,0.54545,0,0.00056999,5696,0.00020297,0.35547,0.0001625,-303.75,-0.00057454,-5841.6,0.025091
2963,2.2038,0.36364,0,0.00057914,5787.4,0.00019984,1.0293,0.00017632,-175.63,-0.00058191,-5872.7,0.024237
2964,2.2038,0.18182,0,0.00058981,5894.1,0.00019714,3.6005,0.00019073,-44.62,-0.0005905,-5914.4,0.023271
2965,2.0202,5.8182,0,0.00059544,5950.2,0.00019892,4.8357,0.00019283,-40.885,-0.00059604,-5968.1,0.019222
2966,2.0202,5.6364,0,0.00058376,5833.6,0.00020181,1.1567,0.00017709,-184.55,-0.00058666,-5923.1,0.020133
2967,2.0202,5.4545,0,0.00057395,5735.6,0.00020534,0.40107,0.00016194,-325.69,-0.00057879,-5891.3,0.020933
2968,2.0202,5.2727,0,0.00056496,5645.7,0.00020907,0.30535,0.000147,-466.07,-0.00057143,-5864.1,0.021633
2969,2.0202,5.0909,0,0.00055685,5564.7,0.00021284,0.19273,0.00013254,-603.2,-0.00056465,-5841.6,0.022241
2970,2.0202,4.9091,0,0.00054976,5493.9,0.00021657,0.13297,0.00011886,-734.03,-0.00055856,-5823.9,0.022768
2971,2.0202,4.7273,0,0.00054375,5433.7,0.00022017,0.088879,0.00010623,-855.97,-0.00055322,-5810.9,0.023221
2972,2.0202,4.5455,0,0.00053879,5384.2,0.00022355,0.060305,9.4825e-05,-967.1,-0.00054868,-5802.2,0.023608
2973,2.0202,4.3636,0,0.00053482,5344.5,0.00022665,0.041607,8.475e-05,-1066.1,-0.00054491,-5797.2,0.023935
2974,2.0202,4.1818,0,0.00053173,5313.6,0.00022943,0.030117,7.6053e-05,-1152.4,-0.00054187,-5795.2,0.02421
2975,2.0202,4,0,0.00052939,5290.2,0.00023186,0.023427,6.8728e-05,-1225.7,-0.00053947,-5795.5,0.024436
2976,2.0202,3.8182,0,0.00052767,5273,0.00023391,0.019847,6.2742e-05,-1286,-0.00053764,-5797.1,0.024619
2977,2.0202,3.6364,0,0.00052645,5260.9,0.00023556,0.018148,5.8042e-05,-1333.8,-0.00053629,-5799.4,0.024761
2978,2.0202,3.4545,0,0.00052563,5252.6,0.0002368,0.017486,5.4575e-05,-1369.2,-0.00053535,-5801.6,0.024865
2979,2.0202,3.2727,0,0.00052512,5247.6,0.00023763,0.017312,5.2294e-05,-1392.6,-0.00053476,-5803.4,0.024934
2980,2.0202,3.0909,0,0.00052489,5245.3,0.00023805,0.0173,5.1162e-05,-1404.2,-0.00053447,-5804.4,0.024967
2981,2.0202,2.9091,0,0.00052489,5245.3,0.00023805,0.0173,5.1162e-05,-1404.2,-0.00053447,-5804.4,0.024967
2982,2.0202,2.7273,0,0.00052512,5247.6,0.00023763,0.017312,5.2294e-05,-1392.6,-0.00053476,-5803.4,0.024934
2983,2.0202,2.5455,0,0.00052563,5252.6,0.0002368,0.017486,5.4575e-05,-1369.2,-0.00053535,-5801.6,0.024865
2984,2.0202,2.3636,0,0.00052645,5260.9,0.00023556,0.018148,5.8042e-05,-1333.8,-0.00053629,-5799.4,0.024761
2985,2.0202,2.1818,0,0.00052767,5273,0.00023391,0.019848,6.2742e-05,-1286,-0.00053764,-5797.1,0.024619
2986,2.0202,2,0,0.00052939,5290.2,0.00023186,0.023427,6.8728e-05,-1225.7,-0.00053947,-5795.5,0.024436
2987,2.0202,1.8182,0,0.00053173,5313.6,0.00022943,0.030117,7.6053e-05,-1152.4,-0.00054187,-5795.2,0.02421
2988,2.0202,1.6364,0,0.00053482,5344.5,0.00022665,0.041607,8.475e-05,-1066.1,-0.00054491,-5797.2,0.023935
2989,2.0202,1.4545,0,0.00053879,5384.2,0.00022355,0.060305,9.4825e-05,-967.1,-0.00054868,-5802.2,0.023608
2990,2.0202,1.2727,0,0.00054375,5433.7,0.00022017,0.08888,0.00010623,-855.97,-0.00055322,-5810.9,0.023221
2991,2.0202,1.0909,0,0.00054976,5493.9,0.00021657,0.13297,0.00011886,-734.03,-0.00055856,-5823.9,0.022768
2992,2.0202,0.90909,0,0.00055685,5564.7,0.00021284,0.19273,0.00013254,-603.2,-0.00056465,-5841.6,0.022241
2993,2.0202,0.72727,0,0.00056496,5645.7,0.00020907,0.30535,0.000147,-466.07,-0.00057143,-5864.1,0.021633
2994,2.0202,0.54545,0,0.00057395,5735.6,0.00020534,0.40107,0.00016194,-325.69,-0.00057879,-5891.3,0.020933
2995,2.0202,0.36364,0,0.00058376,5833.6,0.00020181,1.1567,0.00017709,-184.55,-0.00058666,-5923.1,0.020133
2996,2.0202,0.18182,0,0.00059544,5950.2,0.00019892,4.8357,0.00019283,-40.885,-0.00059604,-5968.1,0.019222
2997,1.8365,5.8182,0,0.0006004,5999.9,0.00020049,6.7352,0.00019476,-36.259,-0.00060089,-6014.5,0.015567
2998,1.8365,5.6364,0,0.0005876,5872,0.00020356,1.3022,0.00017754,-194.17,-0.00059064,-5966,0.016418
2999,1.8365,5.4545,0,0.00057709,5766.9,0.00020757,0.44903,0.00016087,-350.51,-0.00058224,-5933.9,0.017159
3000,1.8365,5.2727,0,0.00056761,5672.2,0.00021185,0.33428,0.00014445,-506.03,-0.00057452,-5908.1,0.017802
3001,1.8365,5.0909,0,0.00055927,5588.9,0.00021618,0.20697,0.00012866,-657.39,-0.00056754,-5888.4,0.018356
3002,1.8365,4.9091,0,0.0005522,5518.2,0.00022046,0.14038,0.00011387,-800.74,-0.00056144,-5874.7,0.018831
3003,1.8365,4.7273,0,0.00054642,5460.4,0.00022456,0.093044,0.00010037,-933.05,-0.00055628,-5866.8,0.019238
3004,1.8365,4.5455,0,0.00054188,5415.1,0.0002284,0.063814,8.834e-05,-1052.3,-0.00055205,-5863.9,0.019582
3005,1.8365,4.3636,0,0.00053844,5380.7,0.00023191,0.04578,7.787e-05,-1157.3,-0.0005487,-5865.1,0.019872
3006,1.8365,4.1818,0,0.00053593,5355.6,0.00023503,0.035515,6.8959e-05,-1247.8,-0.00054614,-5869.3,0.020114
3007,1.8365,4,0,0.00053417,5338.1,0.00023774,0.030121,6.1554e-05,-1323.7,-0.00054423,-5875.4,0.020312
3008,1.8365,3.8182,0,0.00053299,5326.3,0.00024001,0.027672,5.5573e-05,-1385.8,-0.00054286,-5882.1,0.020471
3009,1.8365,3.6364,0,0.00053223,5318.7,0.00024183,0.026847,5.0924e-05,-1434.4,-0.00054192,-5888.8,0.020594
3010,1.8365,3.4545,0,0.00053178,5314.1,0.0002432,0.026799,4.7524e-05,-1470.2,-0.0005413,-5894.4,0.020685
3011,1.8365,3.2727,0,0.00053152,5311.5,0.00024412,0.027006,4.5298e-05,-1493.8,-0.00054093,-5898.5,0.020744
3012,1.8365,3.0909,0,0.00053141,5310.4,0.00024457,0.027175,4.4199e-05,-1505.5,-0.00054075,-5900.6,0.020773
3013,1.8365,2.9091,0,0.00053141,5310.4,0.00024457,0.027175,4.4199e-05,-1505.5,-0.00054075,-5900.6,0.020773
3014,1.8365,2.7273,0,0.00053152,5311.5,0.00024412,0.027006,4.5298e-05,-1493.8,-0.00054093,-5898.5,0.020744
3015,1.8365,2.5455,0,0.00053178,5314.1,0.0002432,0.026799,4.7524e-05,-1470.2,-0.0005413,-5894.4,0.020685
3016,1.8365,2.3636,0,0.00053223,5318.7,0.00024183,0.026847,5.0925e-05,-1434.4,-0.00054192,-5888.8,0.020594
3017,1.8365,2.1818,0,0.00053299,5326.3,0.00024001,0.027673,5.5573e-05,-1385.8,-0.00054286,-5882.1,0.020471
3018,1.8365,2,0,0.00053417,5338.1,0.00023774,0.030121,6.1554e-05,-1323.7,-0.00054423,-5875.4,0.020312
3019,1.8365,1.8182,0,0.00053593,5355.6,0.00023503,0.035515,6.8959e-05,-1247.8,-0.00054614,-5869.3,0.020114
3020,1.8365,1.6364,0,0.00053844,5380.7,0.00023191,0.04578,7.787e-05,-1157.3,-0.0005487,-5865.1,0.019872
3021,1.8365,1.4545,0,0.00054188,5415.1,0.0002284,0.063814,8.834e-05,-1052.3,-0.00055205,-5863.9,0.019582
3022,1.8365,1.2727,0,0.00054642,5460.4,0.00022456,0.093044,0.00010037,-933.05,-0.00055628,-5866.8,0.019238
3023,1.8365,1.0909,0,0.0005522,5518.2,0.00022046,0.14038,0.00011387,-800.74,-0.00056144,-5874.7,0.018831
3024,1.8365,0.90909,0,0.00055927,5588.9,0.00021618,0.20697,0.00012866,-657.39,-0.00056754,-5888.4,0.018356
3025,1.8365,0.72727,0,0.00056761,5672.2,0.00021185,0.33428,0.00014445,-506.03,-0.00057452,-5908.1,0.017802
3026,1.8365,0.54545,0,0.00057709,5766.9,0.00020757,0.44903,0.00016087,-350.51,-0.00058224,-5933.9,0.017159
3027,1.8365,0.36364,0,0.0005876,5872,0.00020356,1.3022,0.00017754,-194.17,-0.00059064,-5966,0.016418
3028,1.8365,0.18182,0,0.0006004,5999.9,0.00020049,6.7352,0.00019476,-36.259,-0.00060089,-6014.5,0.015567
3029,1.6529,5.8182,0,0.00060441,6039.9,0.0002018,9.7996,0.00019638,-30.963,-0.00060476,-6050.4,0.012308
3030,1.6529,5.6364,0,0.00059034,5899.3,0.000205,1.4886,0.00017753,-204.92,-0.00059353,-5998.3,0.013093
3031,1.6529,5.4545,0,0.00057909,5786.9,0.00020962,0.52474,0.00015907,-379.31,-0.0005846,-5967,0.01377
3032,1.6529,5.2727,0,0.00056919,5687.9,0.00021457,0.38924,0.00014097,-552.64,-0.00057656,-5943.9,0.014351
3033,1.6529,5.0909,0,0.00056075,5603.7,0.0002196,0.24664,0.0001237,-720.24,-0.00056952,-5928.8,0.014847
3034,1.6529,4.9091,0,0.00055392,5535.4,0.00022453,0.17402,0.00010775,-877.28,-0.0005636,-5921.5,0.015268
3035,1.6529,4.7273,0,0.00054866,5482.8,0.00022924,0.12473,9.343e-05,-1020.3,-0.00055884,-5921.2,0.015625
3036,1.6529,4.5455,0,0.00054482,5444.5,0.00023361,0.096155,8.0903e-05,-1147.3,-0.00055519,-5926.6,0.015925
3037,1.6529,4.3636,0,0.00054219,5418.2,0.00023757,0.079791,7.0197e-05,-1257.5,-0.00055252,-5936.3,0.016176
3038,1.6529,4.1818,0,0.00054052,5401.5,0.00024106,0.071363,6.1244e-05,-1351,-0.00055067,-5948.7,0.016383
3039,1.6529,4,0,0.00053955,5391.8,0.00024407,0.067539,5.3923e-05,-1428.6,-0.00054946,-5962.2,0.016553
3040,1.6529,3.8182,0,0.00053908,5387,0.00024658,0.066259,4.8095e-05,-1491.3,-0.00054872,-5975.5,0.016688
3041,1.6529,3.6364,0,0.0005389,5385.3,0.00024858,0.066218,4.362e-05,-1540,-0.00054831,-5987.5,0.016793
3042,1.6529,3.4545,0,0.00053889,5385.2,0.00025008,0.066651,4.0376e-05,-1575.6,-0.00054811,-5997.2,0.016869
3043,1.6529,3.2727,0,0.00053895,5385.7,0.00025108,0.067122,3.8268e-05,-1598.9,-0.00054803,-6004.1,0.016919
3044,1.6529,3.0909,0,0.00053899,5386.1,0.00025158,0.067405,3.7231e-05,-1610.4,-0.000548,-6007.6,0.016944
3045,1.6529,2.9091,0,0.00053899,5386.1,0.00025158,0.067405,3.7231e-05,-1610.4,-0.000548,-6007.6,0.016944
3046,1.6529,2.7273,0,0.00053895,5385.7,0.00025108,0.067122,3.8268e-05,-1598.9,-0.00054803,-6004.1,0.016919
3047,1.6529,2.5455,0,0.00053889,5385.2,0.00025008,0.066651,4.0376e-05,-1575.6,-0.00054811,-5997.2,0.016869
3048,1.6529,2.3636,0,0.0005389,5385.3,0.00024858,0.066218,4.362e-05,-1540,-0.00054831,-5987.5,0.016793
3049,1.6529,2.1818,0,0.00053908,5387,0.00024658,0.066259,4.8095e-05,-1491.3,-0.00054872,-5975.5,0.016688
3050,1.6529,2,0,0.00053955,5391.8,0.00024407,0.06754,5.3923e-05,-1428.6,-0.00054946,-5962.2,0.016553
3051,1.6529,1.8182,0,0.00054052,5401.5,0.00024106,0.071363,6.1244e-05,-1351,-0.00055067,-5948.7,0.016383
3052,1.6529,1.6364,0,0.00054219,5418.2,0.00023757,0.079791,7.0197e-05,-1257.5,-0.00055252,-5936.3,0.016176
3053,1.6529,1.4545,0,0.00054482,5444.5,0.00023361,0.096155,8.0903e-05,-1147.3,-0.00055519,-5926.6,0.015925
3054,1.6529,1.2727,0,0.00054866,5482.8,0.00022924,0.12473,9.343e-05,-1020.3,-0.00055884,-5921.2,0.015625
3055,1.6529,1.0909,0,0.00055392,5535.4,0.00022453,0.17402,0.00010775,-877.28,-0.0005636,-5921.5,0.015268
3056,1.6529,0.90909,0,0.00056075,5603.7,0.0002196,0.24664,0.0001237,-720.24,-0.00056952,-5928.8,0.014847
3057,1.6529,0.72727,0,0.00056919,5687.9,0.00021457,0.38924,0.00014097,-552.64,-0.00057656,-5943.9,0.014351
3058,1.6529,0.54545,0,0.00057909,5786.9,0.00020962,0.52474,0.00015907,-379.31,-0.0005846,-5967,0.01377
3059,1.6529,0.36364,0,0.00059034,5899.3,0.000205,1.4886,0.00017753,-204.92,-0.00059353,-5998.3,0.013093
3060,1.6529,0.18182,0,0.00060441,6039.9,0.0002018,9.7996,0.00019638,-30.963,-0.00060476,-6050.4,0.012308
3061,1.4692,5.8182,0,0.00060704,6066.2,0.00020282,14.843,0.00019745,-25.549,-0.00060721,-6071.4,0.0094467
3062,1.4692,5.6364,0,0.00059152,5911.1,0.00020601,1.6538,0.00017684,-217.55,-0.00059489,-6016,0.010159
3063,1.4692,5.4545,0,0.00057952,5791.2,0.00021142,0.53747,0.00015626,-413.89,-0.00058543,-5986.7,0.010766
3064,1.4692,5.2727,0,0.0005693,5689.1,0.00021723,0.36577,0.0001362,-608.43,-0.0005772,-5968.6,0.01128
3065,1.4692,5.0909,0,0.00056103,5606.4,0.00022311,0.19923,0.00011734,-794.58,-0.0005703,-5961.2,0.011714
3066,1.4692,4.9091,0,0.00055478,5544,0.00022886,0.11624,0.00010023,-966.31,-0.00056486,-5963.6,0.012079
3067,1.4692,4.7273,0,0.00055043,5500.5,0.00023427,0.062606,8.5223e-05,-1119.8,-0.00056086,-5974.3,0.012384
3068,1.4692,4.5455,0,0.0005477,5473.2,0.00023925,0.033012,7.2401e-05,-1253.6,-0.00055814,-5991.2,0.012638
3069,1.4692,4.3636,0,0.00054623,5458.6,0.0002437,0.016763,6.1697e-05,-1367.5,-0.00055648,-6012.3,0.012849
3070,1.4692,4.1818,0,0.00054568,5453.1,0.0002476,0.0086019,5.2939e-05,-1462.6,-0.00055564,-6035.2,0.013022
3071,1.4692,4,0,0.00054574,5453.6,0.00025092,0.0048093,4.5917e-05,-1540.3,-0.00055536,-6058.1,0.013162
3072,1.4692,3.8182,0,0.00054614,5457.6,0.00025367,0.003292,4.0419e-05,-1602.3,-0.00055545,-6079.4,0.013274
3073,1.4692,3.6364,0,0.00054667,5463,0.00025585,0.0028493,3.6256e-05,-1650,-0.00055571,-6097.8,0.01336
3074,1.4692,3.4545,0,0.0005472,5468.2,0.00025747,0.0028468,3.3271e-05,-1684.6,-0.00055602,-6112.3,0.013423
3075,1.4692,3.2727,0,0.0005476,5472.2,0.00025855,0.0029632,3.1346e-05,-1707.1,-0.00055628,-6122.3,0.013464
3076,1.4692,3.0909,0,0.00054782,5474.4,0.00025909,0.0030501,3.0403e-05,-1718.2,-0.00055642,-6127.4,0.013484
3077,1.4692,2.9091,0,0.00054782,5474.4,0.00025909,0.00305,3.0403e-05,-1718.2,-0.00055642,-6127.4,0.013484
3078,1.4692,2.7273,0,0.0005476,5472.2,0.00025855,0.0029634,3.1346e-05,-1707.1,-0.00055628,-6122.3,0.013464
3079,1.4692,2.5455,0,0.0005472,5468.2,0.00025747,0.002847,3.3271e-05,-1684.6,-0.00055602,-6112.3,0.013423
3080,1.4692,2.3636,0,0.00054667,5463,0.00025585,0.0028493,3.6256e-05,-1650,-0.00055571,-6097.8,0.01336
3081,1.4692,2.1818,0,0.00054614,5457.6,0.00025367,0.0032921,4.0419e-05,-1602.3,-0.00055545,-6079.4,0.013274
3082,1.4692,2,0,0.00054574,5453.6,0.00025092,0.0048093,4.5917e-05,-1540.3,-0.00055536,-6058.1,0.013162
3083,1.4692,1.8182,0,0.00054568,5453.1,0.0002476,0.0086021,5.2939e-05,-1462.6,-0.00055564,-6035.2,0.013022
3084,1.4692,1.6364,0,0.00054623,5458.6,0.0002437,0.016764,6.1697e-05,-1367.5,-0.00055648,-6012.3,0.012849
3085,1.4692,1.4545,0,0.0005477,5473.2,0.00023925,0.033012,7.2401e-05,-1253.6,-0.00055814,-5991.2,0.012638
3086,1.4692,1.2727,0,0.00055043,5500.5,0.00023427,0.062607,8.5223e-05,-1119.8,-0.00056086,-5974.3,0.012384
3087,1.4692,1.0909,0,0.00055478,5544,0.00022886,0.11624,0.00010023,-966.31,-0.00056486,-5963.6,0.012079
3088,1.4692,0.90909,0,0.00056103,5606.4,0.00022311,0.19923,0.00011734,-794.58,-0.0005703,-5961.2,0.011714
3089,1.4692,0.72727,0,0.0005693,5689.1,0.00021723,0.36577,0.0001362,-608.43,-0.0005772,-5968.6,0.01128
3090,1.4692,0.54545,0,0.00057952,5791.2,0.00021142,0.53747,0.00015626,-413.89,-0.00058543,-5986.7,0.010766
3091,1.4692,0.36364,0,0.00059152,5911.1,0.00020601,1.6538,0.00017684,-217.55,-0.00059489,-6016,0.010159
3092,1.4692,0.18182,0,0.00060704,6066.2,0.00020282,14.843,0.00019745,-25.549,-0.00060721,-6071.4,0.0094467
3093,1.2856,5.8182,0,0.00060765,6072.3,0.00020348,23.109,0.00019764,-20.725,-0.0006076,-6071,0.0069816
3094,1.2856,5.6364,0,0.00059048,5900.8,0.00020647,2.0856,0.00017515,-233.21,-0.00059406,-6012.8,0.0076152
3095,1.2856,5.4545,0,0.00057777,5773.7,0.00021292,0.86454,0.00015199,-456.92,-0.00058416,-5988.1,0.0081465
3096,1.2856,5.2727,0,0.0005675,5671.1,0.00021986,0.68849,0.00012966,-677.02,-0.00057596,-5978.8,0.0085895
3097,1.2856,5.0909,0,0.00055983,5594.4,0.00022684,0.52007,0.0001091,-884.15,-0.00056959,-5983.5,0.0089577
3098,1.2856,4.9091,0,0.00055473,5543.5,0.00023356,0.44409,9.0968e-05,-1071,-0.00056511,-6000.5,0.0092627
3099,1.2856,4.7273,0,0.00055186,5514.8,0.00023981,0.39918,7.5537e-05,-1233.9,-0.00056238,-6027,0.0095149
3100,1.2856,4.5455,0,0.00055074,5503.6,0.00024547,0.37809,6.2759e-05,-1372.4,-0.00056108,-6059.7,0.0097229
3101,1.2856,4.3636,0,0.00055086,5504.8,0.00025046,0.36858,5.2398e-05,-1487.8,-0.00056085,-6095.5,0.0098937
3102,1.2856,4.1818,0,0.00055176,5513.8,0.00025477,0.3652,4.4142e-05,-1582.2,-0.00056135,-6131.6,0.010033
3103,1.2856,4,0,0.00055306,5526.8,0.0002584,0.36453,3.7672e-05,-1658.1,-0.00056226,-6165.8,0.010145
3104,1.2856,3.8182,0,0.00055449,5541.1,0.00026138,0.36491,3.2704e-05,-1717.8,-0.00056334,-6196.3,0.010234
3105,1.2856,3.6364,0,0.00055584,5554.6,0.00026373,0.36555,2.9e-05,-1763.3,-0.0005644,-6221.9,0.010302
3106,1.2856,3.4545,0,0.00055696,5565.7,0.00026547,0.36612,2.6375e-05,-1796.1,-0.00056531,-6241.7,0.010351
3107,1.2856,3.2727,0,0.00055775,5573.7,0.00026661,0.36652,2.4697e-05,-1817.3,-0.00056596,-6255.2,0.010384
3108,1.2856,3.0909,0,0.00055816,5577.8,0.00026718,0.36672,2.3879e-05,-1827.7,-0.00056629,-6262.1,0.010399
3109,1.2856,2.9091,0,0.00055816,5577.8,0.00026718,0.36672,2.3879e-05,-1827.7,-0.00056629,-6262.1,0.010399
3110,1.2856,2.7273,0,0.00055775,5573.7,0.00026661,0.36652,2.4697e-05,-1817.3,-0.00056596,-6255.2,0.010384
3111,1.2856,2.5455,0,0.00055696,5565.7,0.00026547,0.36612,2.6375e-05,-1796.1,-0.00056531,-6241.7,0.010351
3112,1.2856,2.3636,0,0.00055584,5554.6,0.00026373,0.36555,2.9e-05,-1763.3,-0.0005644,-6221.9,0.010302
3113,1.2856,2.1818,0,0.00055449,5541.1,0.00026138,0.36491,3.2704e-05,-1717.8,-0.00056334,-6196.3,0.010234
3114,1.2856,2,0,0.00055306,5526.8,0.0002584,0.36453,3.7672e-05,-1658.1,-0.00056226,-6165.8,0.010145
3115,1.2856,1.8182,0,0.00055176,5513.8,0.00025477,0.3652,4.4142e-05,-1582.2,-0.00056135,-6131.6,0.010033
3116,1.2856,1.6364,0,0.00055086,5504.8,0.00025046,0.36858,5.2398e-05,-1487.8,-0.00056085,-6095.5,0.0098937
3117,1.2856,1.4545,0,0.00055074,5503.6,0.00024547,0.37809,6.2759e-05,-1372.4,-0.00056108,-6059.7,0.0097229
3118,1.2856,1.2727,0,0.00055186,5514.8,0.00023981,0.39918,7.5537e-05,-1233.9,-0.00056238,-6027,0.0095149
3119,1.2856,1.0909,0,0.00055473,5543.5,0.00023356,0.44409,9.0968e-05,-1071,-0.00056511,-6000.5,0.0092627
3120,1.2856,0.90909,0,0.00055983,5594.4,0.00022684,0.52007,0.0001091,-884.15,-0.00056959,-5983.5,0.0089577
3121,1.2856,0.72727,0,0.0005675,5671.1,0.00021986,0.68849,0.00012966,-677.02,-0.00057596,-5978.8,0.0085895
3122,1.2856,0.54545,0,0.00057777,5773.7,0.00021292,0.86454,0.00015199,-456.92,-0.00058416,-5988.1,0.0081465
3123,1.2856,0.36364,0,0.00059048,5900.8,0.00020647,2.0856,0.00017515,-233.21,-0.00059406,-6012.8,0.0076152
3124,1.2856,0.18182,0,0.00060765,6072.3,0.00020348,23.109,0.00019764,-20.724,-0.0006076,-6071,0.0069816
3125,1.1019,5.8182,0,0.00060525,6048.3,0.00020354,35.298,0.00019651,-17.528,-0.00060493,-6039.3,0.0049106
3126,1.1019,5.6364,0,0.00058618,5857.8,0.00020606,1.6955,0.00017194,-254.61,-0.00059007,-5980.1,0.0054582
3127,1.1019,5.4545,0,0.0005729,5725,0.00021393,0.039923,0.00014557,-513.6,-0.0005799,-5964.5,0.0059083
3128,1.1019,5.2727,0,0.00056307,5626.8,0.00022238,-0.30043,0.00012064,-764.77,-0.00057218,-5970.3,0.0062761
3129,1.1019,5.0909,0,0.00055677,5563.9,0.00023075,-0.5698,9.8416e-05,-994.91,-0.000567,-5994.6,0.0065761
3130,1.1019,4.9091,0,0.00055367,5532.8,0.00023866,-0.70642,7.9594e-05,-1195.9,-0.00056425,-6033.5,0.0068205
3131,1.1019,4.7273,0,0.00055307,5526.9,0.00024586,-0.79208,6.423e-05,-1365.5,-0.00056352,-6082.2,0.0070197
3132,1.1019,4.5455,0,0.00055419,5538.1,0.00025225,-0.84313,5.2003e-05,-1505.4,-0.00056426,-6135.8,0.0071819
3133,1.1019,4.3636,0,0.00055636,5559.7,0.00025779,-0.87638,4.2438e-05,-1618.9,-0.00056595,-6190.1,0.0073138
3134,1.1019,4.1818,0,0.00055901,5586.2,0.0002625,-0.89915,3.505e-05,-1709.9,-0.00056814,-6242,0.0074204
3135,1.1019,4,0,0.00056176,5613.7,0.00026643,-0.91572,2.941e-05,-1781.8,-0.00057047,-6289,0.0075058
3136,1.1019,3.8182,0,0.00056433,5639.4,0.00026961,-0.9281,2.5169e-05,-1837.6,-0.0005727,-6329.7,0.007573
3137,1.1019,3.6364,0,0.00056655,5661.6,0.0002721,-0.93737,2.206e-05,-1879.7,-0.00057464,-6363,0.0076242
3138,1.1019,3.4545,0,0.00056829,5678.9,0.00027393,-0.94404,1.9885e-05,-1909.8,-0.00057618,-6388.4,0.0076613
3139,1.1019,3.2727,0,0.00056948,5690.9,0.00027514,-0.94838,1.8507e-05,-1929.2,-0.00057725,-6405.4,0.0076854
3140,1.1019,3.0909,0,0.00057009,5696.9,0.00027573,-0.95052,1.7838e-05,-1938.7,-0.00057779,-6414,0.0076972
3141,1.1019,2.9091,0,0.00057009,5696.9,0.00027573,-0.95052,1.7838e-05,-1938.7,-0.00057779,-6414,0.0076972
3142,1.1019,2.7273,0,0.00056948,5690.9,0.00027514,-0.94838,1.8507e-05,-1929.2,-0.00057725,-6405.4,0.0076854
3143,1.1019,2.5455,0,0.00056829,5678.9,0.00027393,-0.94404,1.9885e-05,-1909.8,-0.00057618,-6388.4,0.0076613
3144,1.1019,2.3636,0,0.00056655,5661.6,0.0002721,-0.93737,2.206e-05,-1879.7,-0.00057464,-6363,0.0076242
3145,1.1019,2.1818,0,0.00056433,5639.4,0.00026961,-0.9281,2.5169e-05,-1837.6,-0.0005727,-6329.7,0.007573
3146,1.1019,2,0,0.00056176,5613.7,0.00026643,-0.91572,2.941e-05,-1781.8,-0.00057047,-6289,0.0075058
3147,1.1019,1.8182,0,0.00055901,5586.2,0.0002625,-0.89915,3.505e-05,-1709.9,-0.00056814,-6242,0.0074204
3148,1.1019,1.6364,0,0.00055636,5559.7,0.00025779,-0.87638,4.2438e-05,-1618.9,-0.00056595,-6190.1,0.0073138
3149,1.1019,1.4545,0,0.00055419,5538.1,0.00025225,-0.84313,5.2003e-05,-1505.4,-0.00056426,-6135.8,0.0071819
3150,1.1019,1.2727,0,0.00055307,5526.9,0.00024586,-0.79208,6.423e-05,-1365.5,-0.00056352,-6082.2,0.0070197
3151,1.1019,1.0909,0,0.00055367,5532.8,0.00023866,-0.70642,7.9594e-05,-1195.9,-0.00056425,-6033.5,0.0068205
3152,1.1019,0.90909,0,0.00055677,5563.9,0.00023075,-0.5698,9.8416e-05,-994.91,-0.000567,-5994.6,0.0065761
3153,1.1019,0.72727,0,0.00056307,5626.8,0.00022238,-0.30043,0.00012064,-764.77,-0.00057218,-5970.3,0.0062761
3154,1.1019,0.54545,0,0.0005729,5725,0.00021393,0.039923,0.00014557,-513.6,-0.0005799,-5964.5,0.0059083
3155,1.1019,0.36364,0,0.00058619,5857.8,0.00020606,1.6955,0.00017194,-254.61,-0.00059007,-5980.1,0.0054582
3156,1.1019,0.18182,0,0.00060525,6048.3,0.00020354,35.298,0.00019651,-17.528,-0.00060493,-6039.3,0.0049106
3157,0.91827,5.8182,0,0.00059835,5979.3,0.00020258,52.901,0.00019362,-14.369,-0.00059766,-5959.8,0.0032284
3158,0.91827,5.6364,0,0.00057731,5769.1,0.00020484,4.931,0.00016631,-284.6,-0.00058152,-5903.5,0.0036831
3159,0.91827,5.4545,0,0.00056401,5636.2,0.0002149,3.9613,0.00013586,-589.86,-0.00057163,-5905.7,0.0040468
3160,0.91827,5.2727,0,0.00055574,5553.6,0.00022548,4.0218,0.00010809,-877.98,-0.00056533,-5937.8,0.0043364
3161,0.91827,5.0909,0,0.0005522,5518.2,0.00023567,4.0186,8.4603e-05,-1131.1,-0.00056254,-5993.5,0.004567
3162,0.91827,4.9091,0,0.00055242,5520.4,0.00024502,4.08,6.5827e-05,-1342.3,-0.00056272,-6065,0.0047512
3163,0.91827,4.7273,0,0.00055513,5547.5,0.00025328,4.1416,5.1332e-05,-1513.2,-0.00056501,-6144.2,0.0048988
3164,0.91827,4.5455,0,0.00055923,5588.4,0.00026043,4.2007,4.0357e-05,-1649.4,-0.00056854,-6224.4,0.0050175
3165,0.91827,4.3636,0,0.00056387,5634.9,0.00026651,4.2502,3.2129e-05,-1756.8,-0.00057264,-6300.8,0.0051128
3166,0.91827,4.1818,0,0.00056852,5681.3,0.00027159,4.29,2.5993e-05,-1841,-0.00057682,-6370.3,0.0051893
3167,0.91827,4,0,0.00057283,5724.3,0.00027576,4.3209,2.144e-05,-1906.6,-0.00058073,-6431,0.0052501
3168,0.91827,3.8182,0,0.00057658,5761.8,0.00027911,4.3444,1.8093e-05,-1956.8,-0.00058417,-6482,0.0052976
3169,0.91827,3.6364,0,0.00057965,5792.5,0.0002817,4.3617,1.5681e-05,-1994.4,-0.00058702,-6522.9,0.0053337
3170,0.91827,3.4545,0,0.00058199,5815.9,0.0002836,4.3739,1.4014e-05,-2021.2,-0.0005892,-6553.5,0.0053598
3171,0.91827,3.2727,0,0.00058357,5831.6,0.00028484,4.3816,1.2967e-05,-2038.3,-0.00059067,-6573.8,0.0053766
3172,0.91827,3.0909,0,0.00058436,5839.5,0.00028545,4.3854,1.2462e-05,-2046.7,-0.00059141,-6584,0.0053849
3173,0.91827,2.9091,0,0.00058436,5839.5,0.00028545,4.3854,1.2462e-05,-2046.7,-0.00059141,-6584,0.0053849
3174,0.91827,2.7273,0,0.00058357,5831.6,0.00028484,4.3816,1.2967e-05,-2038.3,-0.00059067,-6573.8,0.0053766
3175,0.91827,2.5455,0,0.00058199,5815.9,0.0002836,4.3739,1.4014e-05,-2021.2,-0.0005892,-6553.5,0.0053598
3176,0.91827,2.3636,0,0.00057965,5792.5,0.0002817,4.3617,1.5681e-05,-1994.4,-0.00058702,-6522.9,0.0053337
3177,0.91827,2.1818,0,0.00057658,5761.8,0.00027911,4.3444,1.8093e-05,-1956.8,-0.00058417,-6482,0.0052976
3178,0.91827,2,0,0.00057283,5724.3,0.00027576,4.3209,2.144e-05,-1906.6,-0.00058073,-6431,0.0052501
3179,0.91827,1.8182,0,0.00056852,5681.3,0.00027159,4.29,2.5993e-05,-1841,-0.00057682,-6370.3,0.0051893
3180,0.91827,1.6364,0,0.00056387,5634.9,0.00026651,4.2502,3.2129e-05,-1756.8,-0.00057264,-6300.8,0.0051128
3181,0.91827,1.4545,0,0.00055923,5588.4,0.00026043,4.2007,4.0357e-05,-1649.4,-0.00056854,-6224.4,0.0050175
3182,0.91827,1.2727,0,0.00055513,5547.5,0.00025328,4.1416,5.1332e-05,-1513.2,-0.00056501,-6144.2,0.0048988
3183,0.91827,1.0909,0,0.00055242,5520.4,0.00024502,4.08,6.5827e-05,-1342.3,-0.00056272,-6065,0.0047512
3184,0.91827,0.90909,0,0.0005522,5518.2,0.00023567,4.0186,8.4603e-05,-1131.1,-0.00056254,-5993.5,0.004567
3185,0.91827,0.72727,0,0.00055574,5553.6,0.00022548,4.0218,0.00010809,-877.98,-0.00056533,-5937.8,0.0043364
3186,0.91827,0.54545,0,0.00056401,5636.2,0.0002149,3.9613,0.00013586,-589.86,-0.00057163,-5905.7,0.0040468
3187,0.91827,0.36364,0,0.00057731,5769.1,0.00020484,4.931,0.00016631,-284.6,-0.00058152,-5903.5,0.0036831
3188,0.91827,0.18182,0,0.00059835,5979.3,0.00020258,52.901,0.00019362,-14.369,-0.00059766,-5959.8,0.0032284
3189,0.73462,5.8182,0,0.00058383,5834.3,0.00019958,72.065,0.00018754,-18.462,-0.00058287,-5807,0.0019261
3190,0.73462,5.6364,0,0.00056039,5600,0.00020097,-5.7407,0.00015669,-338.41,-0.0005655,-5764.6,0.0022812
3191,0.73462,5.4545,0,0.00054807,5476.9,0.00021396,-10.626,0.00012109,-708.38,-0.00055696,-5803,0.0025546
3192,0.73462,5.2727,0,0.00054341,5430.4,0.00022733,-12.431,9.072e-05,-1038.8,-0.00055397,-5882.8,0.0027648
3193,0.73462,5.0909,0,0.00054483,5444.5,0.00023969,-13.675,6.712e-05,-1310.3,-0.00055564,-5989.4,0.0029274
3194,0.73462,4.9091,0,0.00055007,5496.9,0.00025057,-14.465,4.9749e-05,-1523.3,-0.00056046,-6108.2,0.0030542
3195,0.73462,4.7273,0,0.00055716,5567.8,0.00025987,-15.029,3.7278e-05,-1687.5,-0.00056695,-6227.4,0.0031539
3196,0.73462,4.5455,0,0.00056478,5643.9,0.00026768,-15.442,2.8384e-05,-1813.4,-0.00057397,-6339.3,0.0032329
3197,0.73462,4.3636,0,0.00057213,5717.3,0.00027417,-15.756,2.2027e-05,-1910.2,-0.00058083,-6439.9,0.0032957
3198,0.73462,4.1818,0,0.00057879,5783.9,0.00027949,-15.998,1.7461e-05,-1984.8,-0.00058711,-6527.3,0.0033456
3199,0.73462,4,0,0.00058457,5841.6,0.0002838,-16.186,1.4168e-05,-2042.1,-0.00059259,-6601.1,0.003385
3200,0.73462,3.8182,0,0.00058938,5889.7,0.00028722,-16.329,1.1801e-05,-2085.7,-0.00059719,-6661.4,0.0034157
3201,0.73462,3.6364,0,0.0005932,5927.9,0.00028985,-16.437,1.0123e-05,-2118.2,-0.00060085,-6708.8,0.0034388
3202,0.73462,3.4545,0,0.00059604,5956.3,0.00029175,-16.514,8.9774e-06,-2141.2,-0.00060359,-6743.8,0.0034555
3203,0.73462,3.2727,0,0.00059792,5975.1,0.000293,-16.563,8.2636e-06,-2155.9,-0.00060541,-6766.8,0.0034663
3204,0.73462,3.0909,0,0.00059886,5984.4,0.00029361,-16.588,7.9209e-06,-2163.1,-0.00060631,-6778.2,0.0034716
3205,0.73462,2.9091,0,0.00059886,5984.4,0.00029361,-16.588,7.9209e-06,-2163.1,-0.00060631,-6778.2,0.0034716
3206,0.73462,2.7273,0,0.00059792,5975.1,0.000293,-16.563,8.2636e-06,-2155.9,-0.00060541,-6766.8,0.0034663
3207,0.73462,2.5455,0,0.00059604,5956.3,0.00029175,-16.514,8.9774e-06,-2141.2,-0.00060359,-6743.8,0.0034555
3208,0.73462,2.3636,0,0.0005932,5927.9,0.00028985,-16.437,1.0123e-05,-2118.2,-0.00060085,-6708.8,0.0034388
3209,0.73462,2.1818,0,0.00058938,5889.7,0.00028722,-16.329,1.1801e-05,-2085.7,-0.00059719,-6661.4,0.0034157
3210,0.73462,2,0,0.00058457,5841.6,0.0002838,-16.186,1.4168e-05,-2042.1,-0.00059259,-6601.1,0.003385
3211,0.73462,1.8182,0,0.00057879,5783.9,0.00027949,-15.998,1.7461e-05,-1984.8,-0.00058711,-6527.3,0.0033456
3212,0.73462,1.6364,0,0.00057213,5717.3,0.00027417,-15.756,2.2027e-05,-1910.2,-0.00058083,-6439.9,0.0032957
3213,0.73462,1.4545,0,0.00056478,5643.9,0.00026768,-15.442,2.8384e-05,-1813.4,-0.00057397,-6339.3,0.0032329
3214,0.73462,1.2727,0,0.00055716,5567.8,0.00025987,-15.029,3.7278e-05,-1687.5,-0.00056695,-6227.4,0.0031539
3215,0.73462,1.0909,0,0.00055007,5496.9,0.00025057,-14.465,4.9749e-05,-1523.3,-0.00056046,-6108.2,0.0030542
3216,0.73462,0.90909,0,0.00054483,5444.5,0.00023969,-13.675,6.712e-05,-1310.3,-0.00055564,-5989.4,0.0029274
3217,0.73462,0.72727,0,0.00054341,5430.4,0.00022733,-12.431,9.072e-05,-1038.8,-0.00055397,-5882.8,0.0027648
3218,0.73462,0.54545,0,0.00054807,5476.9,0.00021396,-10.626,0.00012109,-708.38,-0.00055696,-5803,0.0025546
3219,0.73462,0.36364,0,0.00056039,5600,0.00020097,-5.7407,0.00015669,-338.41,-0.0005655,-5764.6,0.0022812
3220,0.73462,0.18182,0,0.00058383,5834.3,0.00019958,72.065,0.00018754,-18.462,-0.00058287,-5807,0.0019261
3221,0.55096,5.8182,0,0.00055786,5574.8,0.00019278,103.81,0.00017886,-0.82045,-0.00055604,-5522.5,0.00098843
3222,0.55096,5.6364,0,0.00053501,5346.4,0.00019993,40.526,0.00013955,-413.15,-0.0005399,-5518.2,0.0012386
3223,0.55096,5.4545,0,0.00052878,5284.1,0.00021934,49.242,9.8094e-05,-861.76,-0.00053667,-5631.1,0.0014208
3224,0.55096,5.2727,0,0.0005332,5328.4,0.00023729,53.892,6.7098e-05,-1224.9,-0.00054148,-5797.5,0.0015544
3225,0.55096,5.0909,0,0.00054372,5433.5,0.00025271,57.13,4.6036e-05,-1495.7,-0.00055128,-5983.7,0.001654
3226,0.55096,4.9091,0,0.00055642,5560.3,0.00026549,59.517,3.2201e-05,-1693.3,-0.00056307,-6166,0.0017296
3227,0.55096,4.7273,0,0.00056905,5686.5,0.00027594,61.294,2.3111e-05,-1838.4,-0.00057494,-6331.9,0.001788
3228,0.55096,4.5455,0,0.00058059,5801.9,0.00028442,62.645,1.7042e-05,-1946.3,-0.00058591,-6476.7,0.0018335
3229,0.55096,4.3636,0,0.00059067,5902.6,0.00029129,63.687,1.2911e-05,-2027.9,-0.00059558,-6599.9,0.0018693
3230,0.55096,4.1818,0,0.00059921,5988,0.00029682,64.494,1.0049e-05,-2090.2,-0.00060383,-6702.6,0.0018975
3231,0.55096,4,0,0.00060627,6058.5,0.00030122,65.12,8.0394e-06,-2137.8,-0.00061069,-6786.6,0.0019196
3232,0.55096,3.8182,0,0.00061195,6115.3,0.00030468,65.6,6.6228e-06,-2173.9,-0.00061622,-6853.7,0.0019368
3233,0.55096,3.6364,0,0.00061635,6159.3,0.00030731,65.959,5.633e-06,-2200.7,-0.00062053,-6905.5,0.0019497
3234,0.55096,3.4545,0,0.00061957,6191.4,0.00030921,66.215,4.9644e-06,-2219.8,-0.00062368,-6943.2,0.0019589
3235,0.55096,3.2727,0,0.00062168,6212.5,0.00031044,66.379,4.5505e-06,-2232,-0.00062574,-6967.8,0.0019649
3236,0.55096,3.0909,0,0.00062272,6222.9,0.00031105,66.46,4.3526e-06,-2237.9,-0.00062677,-6979.9,0.0019678
3237,0.55096,2.9091,0,0.00062272,6222.9,0.00031105,66.46,4.3526e-06,-2237.9,-0.00062677,-6979.9,0.0019678
3238,0.55096,2.7273,0,0.00062168,6212.5,0.00031044,66.379,4.5505e-06,-2232,-0.00062574,-6967.8,0.0019649
3239,0.55096,2.5455,0,0.00061957,6191.4,0.00030921,66.215,4.9644e-06,-2219.8,-0.00062368,-6943.2,0.0019589
3240,0.55096,2.3636,0,0.00061635,6159.3,0.00030731,65.959,5.633e-06,-2200.7,-0.00062053,-6905.5,0.0019497
3241,0.55096,2.1818,0,0.00061195,6115.3,0.00030468,65.6,6.6228e-06,-2173.9,-0.00061622,-6853.7,0.0019368
3242,0.55096,2,0,0.00060627,6058.5,0.00030122,65.12,8.0394e-06,-2137.8,-0.00061069,-6786.6,0.0019196
3243,0.55096,1.8182,0,0.00059921,5988,0.00029682,64.494,1.0049e-05,-2090.2,-0.00060383,-6702.6,0.0018975
3244,0.55096,1.6364,0,0.00059067,5902.6,0.00029129,63.687,1.2911e-05,-2027.9,-0.00059558,-6599.9,0.0018693
3245,0.55096,1.4545,0,0.00058059,5801.9,0.00028442,62.645,1.7042e-05,-1946.3,-0.00058591,-6476.7,0.0018335
3246,0.55096,1.2727,0,0.00056905,5686.5,0.00027594,61.294,2.3111e-05,-1838.4,-0.00057494,-6331.9,0.001788
3247,0.55096,1.0909,0,0.00055642,5560.3,0.00026549,59.517,3.2201e-05,-1693.3,-0.00056307,-6166,0.0017296
3248,0.55096,0.90909,0,0.00054372,5433.5,0.00025271,57.13,4.6036e-05,-1495.7,-0.00055128,-5983.7,0.001654
3249,0.55096,0.72727,0,0.0005332,5328.4,0.00023729,53.892,6.7098e-05,-1224.9,-0.00054148,-5797.5,0.0015544
3250,0.55096,0.54545,0,0.00052878,5284.1,0.00021934,49.242,9.8094e-05,-861.76,-0.00053667,-5631.1,0.0014208
3251,0.55096,0.36364,0,0.00053501,5346.4,0.00019993,40.526,0.00013955,-413.15,-0.0005399,-5518.2,0.0012386
3252,0.55096,0.18182,0,0.00055786,5574.8,0.00019278,103.81,0.00017886,-0.82044,-0.00055604,-5522.5,0.00098843
3253,0.36731,5.8182,0,0.0005037,5033.6,0.00017791,92.26,0.00015474,-81.843,-0.0005033,-5026.1,0.00039012
3254,0.36731,5.6364,0,0.00047829,4779.6,0.00017834,-137.96,0.00010871,-661.13,-0.00048973,-5157.6,0.00053415
3255,0.36731,5.4545,0,0.0004838,4834.6,0.00020196,-183.8,6.4033e-05,-1220.1,-0.00049927,-5452.6,0.00063046
3256,0.36731,5.2727,0,0.00050288,5025.4,0.00022276,-206.96,3.8297e-05,-1592.9,-0.00051895,-5779.9,0.00069668
3257,0.36731,5.0909,0,0.00052435,5239.8,0.00023936,-221.86,2.3928e-05,-1840.5,-0.00054032,-6080.1,0.000744
3258,0.36731,4.9091,0,0.00054409,5437.2,0.00025236,-232.33,1.5741e-05,-2010.2,-0.00055997,-6335.9,0.00077896
3259,0.36731,4.7273,0,0.00056101,5606.2,0.00026258,-239.97,1.084e-05,-2131.5,-0.00057687,-6547.3,0.00080544
3260,0.36731,4.5455,0,0.00057509,5746.9,0.00027066,-245.73,7.7694e-06,-2221,-0.00059098,-6719.7,0.00082584
3261,0.36731,4.3636,0,0.00058662,5862.2,0.00027706,-250.15,5.7682e-06,-2288.5,-0.00060258,-6859.4,0.00084172
3262,0.36731,4.1818,0,0.00059598,5955.7,0.00028213,-253.56,4.423e-06,-2340.2,-0.00061201,-6971.8,0.00085414
3263,0.36731,4,0,0.00060347,6030.6,0.00028613,-256.2,3.4991e-06,-2379.8,-0.00061957,-7061.3,0.00086382
3264,0.36731,3.8182,0,0.00060936,6089.4,0.00028924,-258.22,2.8577e-06,-2410,-0.00062552,-7131.4,0.00087129
3265,0.36731,3.6364,0,0.00061385,6134.3,0.00029159,-259.73,2.4147e-06,-2432.5,-0.00063005,-7184.6,0.0008769
3266,0.36731,3.4545,0,0.00061709,6166.6,0.00029328,-260.81,2.1177e-06,-2448.5,-0.00063333,-7223,0.00088091
3267,0.36731,3.2727,0,0.00061919,6187.7,0.00029438,-261.5,1.9349e-06,-2458.8,-0.00063546,-7247.9,0.0008835
3268,0.36731,3.0909,0,0.00062023,6198,0.00029491,-261.84,1.8477e-06,-2463.8,-0.00063651,-7260.2,0.00088477
3269,0.36731,2.9091,0,0.00062023,6198,0.00029491,-261.84,1.8477e-06,-2463.8,-0.00063651,-7260.2,0.00088477
3270,0.36731,2.7273,0,0.00061919,6187.7,0.00029438,-261.5,1.9349e-06,-2458.8,-0.00063546,-7247.9,0.0008835
3271,0.36731,2.5455,0,0.00061709,6166.6,0.00029328,-260.81,2.1177e-06,-2448.5,-0.00063333,-7223,0.00088091
3272,0.36731,2.3636,0,0.00061385,6134.3,0.00029159,-259.73,2.4147e-06,-2432.5,-0.00063005,-7184.6,0.0008769
3273,0.36731,2.1818,0,0.00060936,6089.4,0.00028924,-258.22,2.8577e-06,-2410,-0.00062552,-7131.4,0.00087129
3274,0.36731,2,0,0.00060347,6030.6,0.00028613,-256.2,3.4991e-06,-2379.8,-0.00061957,-7061.3,0.00086382
3275,0.36731,1.8182,0,0.00059598,5955.7,0.00028213,-253.56,4.423e-06,-2340.2,-0.00061201,-6971.8,0.00085414
3276,0.36731,1.6364,0,0.00058662,5862.2,0.00027706,-250.15,5.7682e-06,-2288.5,-0.00060258,-6859.4,0.00084172
3277,0.36731,1.4545,0,0.00057509,5746.9,0.00027066,-245.73,7.7694e-06,-2221,-0.00059098,-6719.7,0.00082584
3278,0.36731,1.2727,0,0.00056101,5606.2,0.00026258,-239.97,1.084e-05,-2131.5,-0.00057687,-6547.3,0.00080544
3279,0.36731,1.0909,0,0.00054409,5437.2,0.00025236,-232.33,1.5741e-05,-2010.2,-0.00055997,-6335.9,0.00077896
3280,0.36731,0.90909,0,0.00052435,5239.8,0.00023936,-221.86,2.3928e-05,-1840.5,-0.00054032,-6080.1,0.000744
3281,0.36731,0.72727,0,0.00050288,5025.4,0.00022276,-206.96,3.8297e-05,-1592.9,-0.00051895,-5779.9,0.00069668
3282,0.36731,0.54545,0,0.0004838,4834.6,0.00020196,-183.8,6.4033e-05,-1220.1,-0.00049927,-5452.6,0.00063046
3283,0.36731,0.36364,0,0.00047829,4779.6,0.00017834,-137.96,0.00010871,-661.13,-0.00048973,-5157.6,0.00053415
3284,0.36731,0.18182,0,0.0005037,5033.6,0.00017791,92.26,0.00015474,-81.843,-0.0005033,-5026.1,0.00039012
3285,0.18365,5.8182,0,0.00040553,4052.5,0.00015982,314.37,0.0001179,-0.56941,-0.00039927,-3886.4,8.8228e-05
3286,0.18365,5.6364,0,0.00045569,4553.8,0.00023643,610.58,4.5746e-05,-822.15,-0.00044205,-4487.2,0.0001388
3287,0.18365,5.4545,0,0.00052239,5220.2,0.00028703,743.3,2.0689e-05,-1257.8,-0.00050151,-5181.4,0.00016823
3288,0.18365,5.2727,0,0.0005745,5741.1,0.00032134,828.77,1.0429e-05,-1507.3,-0.0005492,-5712.1,0.00018689
3289,0.18365,5.0909,0,0.00061354,6131.2,0.00034518,883.58,6.0553e-06,-1664.5,-0.00058571,-6110.8,0.00019971
3290,0.18365,4.9091,0,0.00064298,6425.3,0.00036263,923.16,3.8145e-06,-1772.9,-0.00061348,-6411,0.00020896
3291,0.18365,4.7273,0,0.00066548,6650.2,0.00037573,952.23,2.5701e-06,-1851.5,-0.00063484,-6640.8,0.00021587
3292,0.18365,4.5455,0,0.00068292,6824.5,0.00038577,974.29,1.8183e-06,-1910.6,-0.00065145,-6818.9,0.00022114
3293,0.18365,4.3636,0,0.00069656,6960.8,0.00039356,991.25,1.3401e-06,-1955.7,-0.00066445,-6958.2,0.00022522
3294,0.18365,4.1818,0,0.00070724,7067.5,0.00039963,1004.4,1.0233e-06,-1990.6,-0.00067467,-7067.5,0.00022839
3295,0.18365,4,0,0.00071559,7151,0.00040436,1014.6,8.077e-07,-2017.6,-0.00068266,-7152.9,0.00023085
3296,0.18365,3.8182,0,0.00072204,7215.4,0.00040801,1022.4,6.5893e-07,-2038.3,-0.00068884,-7218.9,0.00023274
3297,0.18365,3.6364,0,0.00072689,7263.9,0.00041074,1028.2,5.5655e-07,-2053.7,-0.00069349,-7268.5,0.00023416
3298,0.18365,3.4545,0,0.00073036,7298.6,0.00041269,1032.4,4.8809e-07,-2064.8,-0.00069682,-7304,0.00023517
3299,0.18365,3.2727,0,0.0007326,7320.9,0.00041395,1035.1,4.4601e-07,-2071.9,-0.00069896,-7326.9,0.00023582
3300,0.18365,3.0909,0,0.0007337,7331.9,0.00041457,1036.4,4.2595e-07,-2075.3,-0.00070001,-7338.2,0.00023614
3301,0.18365,2.9091,0,0.0007337,7331.9,0.00041457,1036.4,4.2595e-07,-2075.3,-0.00070001,-7338.2,0.00023614
3302,0.18365,2.7273,0,0.0007326,7320.9,0.00041395,1035.1,4.4601e-07,-2071.9,-0.00069896,-7326.9,0.00023582
3303,0.18365,2.5455,0,0.00073036,7298.6,0.00041269,1032.4,4.8809e-07,-2064.8,-0.00069682,-7304,0.00023517
3304,0.18365,2.3636,0,0.00072689,7263.9,0.00041074,1028.2,5.5655e-07,-2053.7,-0.00069349,-7268.5,0.00023416
3305,0.18365,2.1818,0,0.00072204,7215.4,0.00040801,1022.4,6.5893e-07,-2038.3,-0.00068884,-7218.9,0.00023274
3306,0.18365,2,0,0.00071559,7151,0.00040436,1014.6,8.077e-07,-2017.6,-0.00068266,-7152.9,0.00023085
3307,0.18365,1.8182,0,0.00070724,7067.5,0.00039963,1004.4,1.0233e-06,-1990.6,-0.00067467,-7067.5,0.00022839
3308,0.18365,1.6364,0,0.00069656,6960.8,0.00039356,991.25,1.3402e-06,-1955.7,-0.00066445,-6958.2,0.00022522
3309,0.18365,1.4545,0,0.00068292,6824.5,0.00038577,974.29,1.8183e-06,-1910.6,-0.00065145,-6818.9,0.00022114
3310,0.18365,1.2727,0,0.00066548,6650.2,0.00037573,952.23,2.5701e-06,-1851.5,-0.00063484,-6640.8,0.00021587
3311,0.18365,1.0909,0,0.00064298,6425.3,0.00036263,923.16,3.8145e-06,-1772.9,-0.00061348,-6411,0.00020896
3312,0.18365,0.90909,0,0.00061354,6131.2,0.00034518,883.58,6.0553e-06,-1664.5,-0.00058571,-6110.8,0.00019971
3313,0.18365,0.72727,0,0.0005745,5741.1,0.00032134,828.77,1.0429e-05,-1507.3,-0.0005492,-5712.1,0.00018689
3314,0.18365,0.54545,0,0.00052239,5220.2,0.00028703,743.3,2.0689e-05,-1257.8,-0.00050151,-5181.4,0.00016823
3315,0.18365,0.36364,0,0.00045569,4553.8,0.00023643,610.58,4.5746e-05,-822.15,-0.00044205,-4487.2,0.0001388
3316,0.18365,0.18182,0,0.00040553,4052.5,0.00015982,314.37,0.0001179,-0.56937,-0.00039927,-3886.4,8.8228e-05
3317,19.449,0.18182,0,1.6502e-05,164.91,7.7033e-06,24.487,3.6916e-06,-5.6544,-1.5974e-05,-153.41,1.6286
3318,19.449,0.36364,0,2.4148e-05,241.31,1.1678e-05,43.967,5.4254e-06,-3.0092,-2.3105e-05,-217.38,1.6288
3319,19.449,0.54545,0,3.3831e-05,338.07,1.7499e-05,77.249,6.9105e-06,-2.3074,-3.1846e-05,-293.51,1.6291
3320,19.449,0.72727,0,4.4844e-05,448.13,2.4284e-05,117.05,8.4293e-06,-2.0799,-4.1684e-05,-378.61,1.6293
3321,19.449,0.90909,0,5.7626e-05,575.86,3.2167e-05,163.26,1.0153e-05,-2.1372,-5.3074e-05,-477.2,1.6295
3322,19.449,1.0909,0,7.3008e-05,729.58,4.1577e-05,217.7,1.2246e-05,-2.6813,-6.6808e-05,-596.67,1.6298
3323,19.449,1.2727,0,9.2436e-05,923.73,5.3269e-05,284.33,1.5073e-05,-2.6515,-8.4236e-05,-748.82,1.63
3324,19.449,1.4545,0,0.00011828,1181.9,6.8349e-05,364.44,1.8938e-05,-6.8103,-0.00010773,-958.56,1.6303
3325,19.449,1.6364,0,0.00015671,1566,9.0235e-05,483.52,2.5873e-05,-0.06708,-0.00014277,-1267.2,1.6306
3326,19.449,1.8182,0,0.00021521,2150.6,0.00011322,499.6,4.0873e-05,-43.991,-0.00020224,-1870.6,1.6308
3327,19.449,2,0,0.00027251,2723.3,0.00011911,277.01,6.391e-05,-137.77,-0.00026776,-2629.8,1.6311
3328,19.449,2.1818,0,0.00028127,2810.8,0.00010785,167.13,8.2312e-05,-24.747,-0.00027836,-2734.7,1.6314
3329,19.449,2.3636,0,0.00026692,2667.3,0.00010589,212.29,7.6865e-05,-5.7537,-0.00026273,-2557.4,1.6317
3330,19.449,2.5455,0,0.00024678,2466.1,9.8677e-05,209.49,7.092e-05,0.92945,-0.00024254,-2354.3,1.6318
3331,19.449,2.7273,0,0.00023498,2348.2,9.4734e-05,208.02,6.6944e-05,-0.78143,-0.00023076,-2237.6,1.632
3332,19.449,2.9091,0,0.0002294,2292.4,9.2676e-05,205.88,6.5271e-05,-0.032685,-0.0002252,-2182.5,1.632
3333,19.449,3.0909,0,0.0002294,2292.4,9.2676e-05,205.88,6.5271e-05,-0.032685,-0.0002252,-2182.5,1.632
3334,19.449,3.2727,0,0.00023498,2348.2,9.4734e-05,208.02,6.6944e-05,-0.78143,-0.00023076,-2237.6,1.632
3335,19.449,3.4545,0,0.00024678,2466.1,9.8677e-05,209.49,7.092e-05,0.92945,-0.00024254,-2354.3,1.6318
3336,19.449,3.6364,0,0.00026692,2667.3,0.00010589,212.29,7.6865e-05,-5.7537,-0.00026273,-2557.4,1.6317
3337,19.449,3.8182,0,0.00028127,2810.8,0.00010785,167.13,8.2312e-05,-24.747,-0.00027836,-2734.7,1.6314
3338,19.449,4,0,0.00027251,2723.3,0.00011911,277.01,6.391e-05,-137.77,-0.00026776,-2629.8,1.6311
3339,19.449,4.1818,0,0.00021521,2150.6,0.00011322,499.6,4.0873e-05,-43.991,-0.00020224,-1870.6,1.6308
3340,19.449,4.3636,0,0.00015671,1566,9.0235e-05,483.52,2.5873e-05,-0.067084,-0.00014277,-1267.2,1.6306
3341,19.449,4.5455,0,0.00011828,1181.9,6.8349e-05,364.44,1.8938e-05,-6.8103,-0.00010773,-958.56,1.6303
3342,19.449,4.7273,0,9.2436e-05,923.73,5.3269e-05,284.33,1.5073e-05,-2.6515,-8.4236e-05,-748.82,1.63
3343,19.449,4.9091,0,7.3008e-05,729.58,4.1577e-05,217.7,1.2246e-05,-2.6813,-6.6808e-05,-596.67,1.6298
3344,19.449,5.0909,0,5.7626e-05,575.86,3.2167e-05,163.26,1.0153e-05,-2.1372,-5.3074e-05,-477.2,1.6295
3345,19.449,5.2727,0,4.4844e-05,448.13,2.4284e-05,117.05,8.4293e-06,-2.0799,-4.1684e-05,-378.61,1.6293
3346,19.449,5.4545,0,3.3831e-05,338.07,1.7499e-05,77.249,6.9105e-06,-2.3074,-3.1846e-05,-293.51,1.6291
3347,19.449,5.6364,0,2.4148e-05,241.31,1.1678e-05,43.967,5.4254e-06,-3.0092,-2.3105e-05,-217.38,1.6288
3348,19.449,5.8182,0,1.6502e-05,164.91,7.7033e-06,24.487,3.6916e-06,-5.6544,-1.5974e-05,-153.41,1.6286
3349,19.631,0.18182,0,2.3987e-05,239.7,9.5778e-06,18.763,6.7651e-06,-2.3701,-2.3638e-05,-230.81,1.6544
3350,19.631,0.36364,0,2.7735e-05,277.15,1.097e-05,20.657,7.9117e-06,-2.3192,-2.7351e-05,-267.27,1.6546
3351,19.631,0.54545,0,3.4514e-05,344.9,1.4484e-05,36.744,9.3868e-06,-1.5552,-3.3755e-05,-325.71,1.6548
3352,19.631,0.72727,0,4.3212e-05,431.82,1.9222e-05,60.03,1.1088e-05,-1.0899,-4.1884e-05,-399.1,1.655
3353,19.631,0.90909,0,5.3702e-05,536.65,2.4878e-05,87.235,1.3141e-05,-0.94839,-5.1688e-05,-488.05,1.6552
3354,19.631,1.0909,0,6.6304e-05,662.58,3.1406e-05,116.56,1.5769e-05,-0.92989,-6.355e-05,-596.91,1.6554
3355,19.631,1.2727,0,8.1694e-05,816.38,3.889e-05,146.06,1.9298e-05,-1.143,-7.8227e-05,-733.9,1.6557
3356,19.631,1.4545,0,0.00010058,1005.1,4.6951e-05,167.9,2.4367e-05,-1.7889,-9.6669e-05,-911.21,1.6559
3357,19.631,1.6364,0,0.00012379,1237,5.4513e-05,165.83,3.2205e-05,-1.7902,-0.00012014,-1146.5,1.6561
3358,19.631,1.8182,0,0.00015221,1521.1,6.0664e-05,125.54,4.3754e-05,-1.5106,-0.0001497,-1455.1,1.6563
3359,19.631,2,0,0.00017831,1781.8,5.9924e-05,23.839,5.9194e-05,18.357,-0.00017759,-1760.7,1.6565
3360,19.631,2.1818,0,0.00020174,2016,6.8809e-05,24.797,6.5061e-05,-3.3662,-0.00020136,-2005.2,1.6567
3361,19.631,2.3636,0,0.00021001,2098.7,7.4509e-05,58.606,6.5816e-05,-6.7137,-0.00020906,-2072,1.6569
3362,19.631,2.5455,0,0.00020974,2096,7.6911e-05,92.278,6.4532e-05,-0.73226,-0.00020803,-2048.7,1.6571
3363,19.631,2.7273,0,0.00020671,2065.7,7.7174e-05,107.97,6.2787e-05,-0.12768,-0.00020467,-2009.7,1.6572
3364,19.631,2.9091,0,0.00020476,2046.2,7.7085e-05,114.83,6.1808e-05,0.043783,-0.00020257,-1986.4,1.6572
3365,19.631,3.0909,0,0.00020476,2046.2,7.7085e-05,114.83,6.1808e-05,0.043783,-0.00020257,-1986.4,1.6572
3366,19.631,3.2727,0,0.00020671,2065.7,7.7174e-05,107.97,6.2787e-05,-0.12768,-0.00020467,-2009.7,1.6572
3367,19.631,3.4545,0,0.00020974,2096,7.6911e-05,92.278,6.4532e-05,-0.73225,-0.00020803,-2048.7,1.6571
3368,19.631,3.6364,0,0.00021001,2098.7,7.4509e-05,58.606,6.5816e-05,-6.7137,-0.00020906,-2072,1.6569
3369,19.631,3.8182,0,0.00020174,2016,6.8809e-05,24.797,6.5061e-05,-3.3662,-0.00020136,-2005.2,1.6567
3370,19.631,4,0,0.00017831,1781.8,5.9924e-05,23.839,5.9194e-05,18.357,-0.00017759,-1760.7,1.6565
3371,19.631,4.1818,0,0.00015221,1521.1,6.0664e-05,125.54,4.3754e-05,-1.5106,-0.0001497,-1455.1,1.6563
3372,19.631,4.3636,0,0.00012379,1237,5.4513e-05,165.83,3.2205e-05,-1.7902,-0.00012014,-1146.5,1.6561
3373,19.631,4.5455,0,0.00010058,1005.1,4.6951e-05,167.9,2.4367e-05,-1.7889,-9.6669e-05,-911.21,1.6559
3374,19.631,4.7273,0,8.1694e-05,816.38,3.889e-05,146.06,1.9298e-05,-1.143,-7.8227e-05,-733.9,1.6557
3375,19.631,4.9091,0,6.6304e-05,662.58,3.1406e-05,116.56,1.5769e-05,-0.92989,-6.355e-05,-596.91,1.6554
3376,19.631,5.0909,0,5.3702e-05,536.65,2.4878e-05,87.235,1.3141e-05,-0.94839,-5.1688e-05,-488.05,1.6552
3377,19.631,5.2727,0,4.3212e-05,431.82,1.9222e-05,60.03,1.1088e-05,-1.0899,-4.1884e-05,-399.1,1.655
3378,19.631,5.4545,0,3.4514e-05,344.9,1.4484e-05,36.744,9.3868e-06,-1.5552,-3.3755e-05,-325.71,1.6548
3379,19.631,5.6364,0,2.7735e-05,277.15,1.097e-05,20.658,7.9117e-06,-2.3192,-2.7351e-05,-267.27,1.6546
3380,19.631,5.8182,0,2.3987e-05,239.7,9.5778e-06,18.763,6.7651e-06,-2.3701,-2.3638e-05,-230.81,1.6544
3381,19.813,0.18182,0,3.158e-05,315.59,1.2124e-05,19.842,9.3164e-06,-1.2547,-3.1211e-05,-305.76,1.6802
3382,19.813,0.36364,0,3.3914e-05,338.9,1.2666e-05,16.741,1.0201e-05,-1.7788,-3.3621e-05,-331.04,1.6804
3383,19.813,0.54545,0,3.8781e-05,387.54,1.4767e-05,22.732,1.1502e-05,-1.7996,-3.8367e-05,-376.49,1.6806
3384,19.813,0.72727,0,4.5573e-05,455.41,1.7895e-05,33.627,1.3205e-05,-1.6142,-4.4926e-05,-438.38,1.6808
3385,19.813,0.90909,0,5.41e-05,540.63,2.1769e-05,46.575,1.5362e-05,-1.5632,-5.3174e-05,-516.52,1.6809
3386,19.813,1.0909,0,6.438e-05,643.36,2.6153e-05,58.543,1.8132e-05,-1.7238,-6.3201e-05,-612.83,1.6811
3387,19.813,1.2727,0,7.6529e-05,764.76,3.0742e-05,65.328,2.1771e-05,-2.0787,-7.523e-05,-730.91,1.6813
3388,19.813,1.4545,0,9.0701e-05,906.38,3.5102e-05,60.916,2.6629e-05,-2.7453,-8.9543e-05,-875.62,1.6815
3389,19.813,1.6364,0,0.00010645,1063.7,3.8439e-05,36.296,3.2801e-05,-6.0693,-0.00010587,-1048,1.6817
3390,19.813,1.8182,0,0.00012361,1235.2,4.2232e-05,4.5882,3.8761e-05,-21.486,-0.00012388,-1243.5,1.6818
3391,19.813,2,0,0.00014148,1413.9,4.9202e-05,-3.2048,4.2092e-05,-56.627,-0.00014243,-1443,1.682
3392,19.813,2.1818,0,0.00015769,1575.8,5.4982e-05,-1.4018,4.6863e-05,-62.405,-0.00015869,-1606.8,1.6822
3393,19.813,2.3636,0,0.00016942,1693,5.805e-05,3.783,5.261e-05,-37.089,-0.00016995,-1709.3,1.6823
3394,19.813,2.5455,0,0.00017518,1750.6,5.8772e-05,6.0845,5.6736e-05,-9.2131,-0.00017523,-1752.1,1.6824
3395,19.813,2.7273,0,0.00017737,1772.5,6.0158e-05,19.1,5.7531e-05,-0.63383,-0.00017705,-1763.2,1.6825
3396,19.813,2.9091,0,0.00017796,1778.4,6.1082e-05,28.398,5.7339e-05,0.27779,-0.00017746,-1763.9,1.6825
3397,19.813,3.0909,0,0.00017796,1778.4,6.1082e-05,28.398,5.7339e-05,0.27779,-0.00017746,-1763.9,1.6825
3398,19.813,3.2727,0,0.00017737,1772.5,6.0158e-05,19.1,5.7531e-05,-0.63382,-0.00017705,-1763.2,1.6825
3399,19.813,3.4545,0,0.00017518,1750.6,5.8772e-05,6.0845,5.6736e-05,-9.213,-0.00017523,-1752.1,1.6824
3400,19.813,3.6364,0,0.00016942,1693,5.805e-05,3.783,5.261e-05,-37.089,-0.00016995,-1709.3,1.6823
3401,19.813,3.8182,0,0.00015769,1575.8,5.4982e-05,-1.4018,4.6863e-05,-62.405,-0.00015869,-1606.8,1.6822
3402,19.813,4,0,0.00014148,1413.9,4.9202e-05,-3.2048,4.2092e-05,-56.627,-0.00014243,-1443,1.682
3403,19.813,4.1818,0,0.00012361,1235.2,4.2232e-05,4.5881,3.8761e-05,-21.486,-0.00012388,-1243.5,1.6818
3404,19.813,4.3636,0,0.00010645,1063.7,3.8439e-05,36.296,3.2801e-05,-6.0693,-0.00010587,-1048,1.6817
3405,19.813,4.5455,0,9.0701e-05,906.38,3.5102e-05,60.916,2.6629e-05,-2.7453,-8.9543e-05,-875.62,1.6815
3406,19.813,4.7273,0,7.6529e-05,764.76,3.0742e-05,65.328,2.1771e-05,-2.0787,-7.523e-05,-730.91,1.6813
3407,19.813,4.9091,0,6.438e-05,643.36,2.6153e-05,58.543,1.8132e-05,-1.7238,-6.3201e-05,-612.83,1.6811
3408,19.813,5.0909,0,5.41e-05,540.63,2.1769e-05,46.575,1.5362e-05,-1.5632,-5.3174e-05,-516.52,1.6809
3409,19.813,5.2727,0,4.5573e-05,455.41,1.7895e-05,33.627,1.3205e-05,-1.6142,-4.4926e-05,-438.38,1.6808
3410,19.813,5.4545,0,3.8781e-05,387.54,1.4767e-05,22.732,1.1502e-05,-1.7996,-3.8367e-05,-376.49,1.6806
3411,19.813,5.6364,0,3.3914e-05,338.9,1.2666e-05,16.741,1.0201e-05,-1.7788,-3.3621e-05,-331.04,1.6804
3412,19.813,5.8182,0,3.158e-05,315.59,1.2124e-05,19.842,9.3164e-06,-1.2547,-3.1211e-05,-305.76,1.6802
3413,19.995,0.18182,0,3.7915e-05,378.89,1.4264e-05,20.815,1.1418e-05,-0.56888,-3.7525e-05,-368.31,1.706
3414,19.995,0.36364,0,3.9652e-05,396.25,1.4514e-05,16.632,1.217e-05,-0.9821,-3.9356e-05,-388.13,1.7062
3415,19.995,0.54545,0,4.3312e-05,432.82,1.5787e-05,17.168,1.3315e-05,-1.4089,-4.3014e-05,-424.64,1.7063
3416,19.995,0.72727,0,4.8551e-05,485.17,1.7733e-05,19.629,1.4898e-05,-1.6682,-4.821e-05,-475.84,1.7065
3417,19.995,0.90909,0,5.5258e-05,552.2,2.0169e-05,22.147,1.6963e-05,-1.9377,-5.4874e-05,-541.7,1.7067
3418,19.995,1.0909,0,6.3347e-05,633.03,2.2875e-05,22.279,1.9584e-05,-2.4519,-6.2973e-05,-622.75,1.7068
3419,19.995,1.2727,0,7.2721e-05,726.71,2.5623e-05,17.232,2.2812e-05,-3.8852,-7.2471e-05,-719.81,1.707
3420,19.995,1.4545,0,8.3236e-05,831.78,2.8587e-05,7.3655,2.6241e-05,-10.257,-8.3271e-05,-833.09,1.7072
3421,19.995,1.6364,0,9.4699e-05,946.33,3.3066e-05,2.4441,2.8368e-05,-32.86,-9.5167e-05,-961.05,1.7073
3422,19.995,1.8182,0,0.0001068,1067.3,3.8541e-05,0.89615,2.9626e-05,-66.091,-0.00010775,-1098.3,1.7074
3423,19.995,2,0,0.00011933,1192.4,4.3958e-05,1.2308,3.1518e-05,-92.238,-0.0001206,-1235.2,1.7076
3424,19.995,2.1818,0,0.00013117,1310.7,4.8174e-05,1.211,3.4893e-05,-98.578,-0.00013254,-1356.6,1.7077
3425,19.995,2.3636,0,0.00014085,1407.5,5.073e-05,0.564,3.9186e-05,-86.177,-0.00014211,-1448.3,1.7078
3426,19.995,2.5455,0,0.00014756,1474.5,5.1998e-05,0.80307,4.3091e-05,-66.119,-0.00014855,-1506.1,1.7079
3427,19.995,2.7273,0,0.00015138,1512.8,5.242e-05,0.64295,4.5805e-05,-49.06,-0.00015215,-1536.4,1.7079
3428,19.995,2.9091,0,0.00015305,1529.5,5.2506e-05,0.45547,4.7142e-05,-39.853,-0.00015368,-1548.8,1.708
3429,19.995,3.0909,0,0.00015305,1529.5,5.2506e-05,0.45547,4.7142e-05,-39.853,-0.00015368,-1548.8,1.708
3430,19.995,3.2727,0,0.00015138,1512.8,5.242e-05,0.64295,4.5805e-05,-49.06,-0.00015215,-1536.4,1.7079
3431,19.995,3.4545,0,0.00014756,1474.5,5.1998e-05,0.80307,4.3091e-05,-66.119,-0.00014855,-1506.1,1.7079
3432,19.995,3.6364,0,0.00014085,1407.5,5.073e-05,0.564,3.9186e-05,-86.177,-0.00014211,-1448.3,1.7078
3433,19.995,3.8182,0,0.00013117,1310.7,4.8174e-05,1.211,3.4893e-05,-98.578,-0.00013254,-1356.6,1.7077
3434,19.995,4,0,0.00011933,1192.4,4.3958e-05,1.2308,3.1518e-05,-92.238,-0.0001206,-1235.2,1.7076
3435,19.995,4.1818,0,0.0001068,1067.3,3.8541e-05,0.89615,2.9626e-05,-66.091,-0.00010775,-1098.3,1.7074
3436,19.995,4.3636,0,9.4699e-05,946.33,3.3066e-05,2.4441,2.8368e-05,-32.86,-9.5167e-05,-961.05,1.7073
3437,19.995,4.5455,0,8.3236e-05,831.78,2.8587e-05,7.3655,2.6241e-05,-10.257,-8.3271e-05,-833.09,1.7072
3438,19.995,4.7273,0,7.2721e-05,726.71,2.5623e-05,17.232,2.2812e-05,-3.8852,-7.2471e-05,-719.81,1.707
3439,19.995,4.9091,0,6.3346e-05,633.03,2.2875e-05,22.279,1.9584e-05,-2.4519,-6.2973e-05,-622.75,1.7068
3440,19.995,5.0909,0,5.5258e-05,552.2,2.0169e-05,22.147,1.6963e-05,-1.9377,-5.4874e-05,-541.7,1.7067
3441,19.995,5.2727,0,4.8551e-05,485.17,1.7733e-05,19.629,1.4898e-05,-1.6682,-4.821e-05,-475.84,1.7065
3442,19.995,5.4545,0,4.3312e-05,432.82,1.5787e-05,17.168,1.3315e-05,-1.4089,-4.3014e-05,-424.64,1.7063
3443,19.995,5.6364,0,3.9652e-05,396.25,1.4514e-05,16.632,1.217e-05,-0.9821,-3.9356e-05,-388.13,1.7062
3444,19.995,5.8182,0,3.7915e-05,378.89,1.4264e-05,20.815,1.1418e-05,-0.56887,-3.7525e-05,-368.31,1.706
3445,20.177,0.18182,0,4.2831e-05,428.01,1.587e-05,20.761,1.3069e-05,-0.29045,-4.2443e-05,-417.39,1.7318
3446,20.177,0.36364,0,4.4236e-05,442.05,1.6023e-05,16.814,1.3708e-05,-0.57773,-4.3934e-05,-433.68,1.732
3447,20.177,0.54545,0,4.7078e-05,470.46,1.6789e-05,14.454,1.4727e-05,-1.0366,-4.6831e-05,-463.56,1.7321
3448,20.177,0.72727,0,5.1115e-05,510.8,1.7946e-05,11.924,1.6128e-05,-1.7335,-5.0928e-05,-505.57,1.7323
3449,20.177,0.90909,0,5.6288e-05,562.49,1.9443e-05,8.5739,1.7888e-05,-3.1086,-5.6186e-05,-559.67,1.7324
3450,20.177,1.0909,0,6.2503e-05,624.6,2.1358e-05,4.6038,1.9805e-05,-7.0674,-6.2536e-05,-625.75,1.7326
3451,20.177,1.2727,0,6.9626e-05,695.78,2.4023e-05,2.1196,2.1386e-05,-17.698,-6.987e-05,-703.36,1.7327
3452,20.177,1.4545,0,7.7493e-05,774.39,2.7446e-05,1.0727,2.245e-05,-36.469,-7.8026e-05,-791.41,1.7329
3453,20.177,1.6364,0,8.5927e-05,858.67,3.1408e-05,0.53162,2.3106e-05,-61.846,-8.68e-05,-887.63,1.733
3454,20.177,1.8182,0,9.4801e-05,947.36,3.5599e-05,0.29315,2.3754e-05,-88.709,-9.5991e-05,-988.42,1.7331
3455,20.177,2,0,0.00010386,1037.9,3.955e-05,0.056022,2.4999e-05,-109.28,-0.00010529,-1088.2,1.7332
3456,20.177,2.1818,0,0.00011261,1125.4,4.2837e-05,0.10535,2.7191e-05,-117.45,-0.00011415,-1179.4,1.7333
3457,20.177,2.3636,0,0.00012026,1201.7,4.5206e-05,0.39314,3.0047e-05,-113.5,-0.00012177,-1254.2,1.7334
3458,20.177,2.5455,0,0.0001261,1260.2,4.6653e-05,0.45571,3.2872e-05,-103.09,-0.00012753,-1308.3,1.7334
3459,20.177,2.7273,0,0.00012991,1298.2,4.7412e-05,0.44295,3.5027e-05,-92.618,-0.00013123,-1341.8,1.7335
3460,20.177,2.9091,0,0.00013175,1316.6,4.7724e-05,0.42172,3.6162e-05,-86.451,-0.000133,-1357.4,1.7335
3461,20.177,3.0909,0,0.00013175,1316.6,4.7724e-05,0.42172,3.6162e-05,-86.451,-0.000133,-1357.4,1.7335
3462,20.177,3.2727,0,0.00012991,1298.2,4.7412e-05,0.44295,3.5027e-05,-92.618,-0.00013123,-1341.8,1.7335
3463,20.177,3.4545,0,0.0001261,1260.2,4.6653e-05,0.45571,3.2872e-05,-103.09,-0.00012753,-1308.3,1.7334
3464,20.177,3.6364,0,0.00012026,1201.7,4.5206e-05,0.39314,3.0047e-05,-113.5,-0.00012177,-1254.2,1.7334
3465,20.177,3.8182,0,0.00011261,1125.4,4.2837e-05,0.10535,2.7191e-05,-117.45,-0.00011415,-1179.4,1.7333
3466,20.177,4,0,0.00010386,1037.9,3.955e-05,0.056023,2.4999e-05,-109.28,-0.00010529,-1088.2,1.7332
3467,20.177,4.1818,0,9.4801e-05,947.36,3.5599e-05,0.29315,2.3754e-05,-88.709,-9.5991e-05,-988.42,1.7331
3468,20.177,4.3636,0,8.5927e-05,858.67,3.1408e-05,0.53161,2.3106e-05,-61.846,-8.68e-05,-887.63,1.733
3469,20.177,4.5455,0,7.7493e-05,774.39,2.7446e-05,1.0727,2.245e-05,-36.469,-7.8026e-05,-791.41,1.7329
3470,20.177,4.7273,0,6.9626e-05,695.78,2.4023e-05,2.1196,2.1386e-05,-17.698,-6.987e-05,-703.36,1.7327
3471,20.177,4.9091,0,6.2503e-05,624.6,2.1358e-05,4.6038,1.9805e-05,-7.0674,-6.2536e-05,-625.75,1.7326
3472,20.177,5.0909,0,5.6288e-05,562.49,1.9443e-05,8.5739,1.7888e-05,-3.1086,-5.6186e-05,-559.67,1.7324
3473,20.177,5.2727,0,5.1115e-05,510.8,1.7946e-05,11.924,1.6128e-05,-1.7335,-5.0928e-05,-505.57,1.7323
3474,20.177,5.4545,0,4.7078e-05,470.46,1.6789e-05,14.454,1.4727e-05,-1.0366,-4.6831e-05,-463.56,1.7321
3475,20.177,5.6364,0,4.4236e-05,442.05,1.6023e-05,16.814,1.3708e-05,-0.57773,-4.3934e-05,-433.68,1.732
3476,20.177,5.8182,0,4.2831e-05,428.01,1.587e-05,20.761,1.3069e-05,-0.29045,-4.2443e-05,-417.39,1.7318
3477,20.359,0.18182,0,4.6374e-05,463.42,1.6966e-05,19.944,1.4292e-05,-0.14664,-4.6004e-05,-453.19,1.7576
3478,20.359,0.36364,0,4.753e-05,474.97,1.7074e-05,16.508,1.483e-05,-0.35289,-4.7232e-05,-466.67,1.7578
3479,20.359,0.54545,0,4.9764e-05,497.29,1.7514e-05,12.695,1.5728e-05,-0.727,-4.9547e-05,-491.17,1.758
3480,20.359,0.72727,0,5.2869e-05,528.32,1.8159e-05,7.521,1.6928e-05,-1.7307,-5.2764e-05,-525.37,1.7581
3481,20.359,0.90909,0,5.6814e-05,567.74,1.9275e-05,2.9163,1.8122e-05,-5.7458,-5.6857e-05,-569.11,1.7582
3482,20.359,1.0909,0,6.1524e-05,614.81,2.1194e-05,1.2643,1.8898e-05,-15.986,-6.1756e-05,-621.99,1.7584
3483,20.359,1.2727,0,6.6888e-05,668.42,2.3673e-05,0.72955,1.9389e-05,-31.457,-6.7353e-05,-683.2,1.7585
3484,20.359,1.4545,0,7.2778e-05,727.28,2.6562e-05,0.4776,1.9644e-05,-51.499,-7.3507e-05,-751.4,1.7586
3485,20.359,1.6364,0,7.9076e-05,790.21,2.9728e-05,0.33176,1.976e-05,-74.562,-8.0072e-05,-824.66,1.7587
3486,20.359,1.8182,0,8.5666e-05,856.07,3.2968e-05,0.23938,1.9997e-05,-97.221,-8.6899e-05,-900.39,1.7588
3487,20.359,2,0,9.2377e-05,923.13,3.6021e-05,0.23178,2.0686e-05,-114.99,-9.3788e-05,-975.1,1.7589
3488,20.359,2.1818,0,9.8875e-05,988.07,3.863e-05,0.24756,2.2001e-05,-124.69,-0.0001004,-1044.3,1.759
3489,20.359,2.3636,0,0.00010469,1046.2,4.0637e-05,0.26291,2.3792e-05,-126.3,-0.00010626,-1103.5,1.759
3490,20.359,2.5455,0,0.00010937,1092.9,4.2021e-05,0.31455,2.5654e-05,-122.66,-0.00011093,-1148.9,1.7591
3491,20.359,2.7273,0,0.00011258,1125,4.2854e-05,0.34937,2.7152e-05,-117.63,-0.00011411,-1179,1.7591
3492,20.359,2.9091,0,0.0001142,1141.2,4.3236e-05,0.35764,2.7974e-05,-114.32,-0.00011571,-1193.9,1.7591
3493,20.359,3.0909,0,0.0001142,1141.2,4.3236e-05,0.35764,2.7974e-05,-114.32,-0.00011571,-1193.9,1.7591
3494,20.359,3.2727,0,0.00011258,1125,4.2854e-05,0.34937,2.7152e-05,-117.63,-0.00011411,-1179,1.7591
3495,20.359,3.4545,0,0.00010937,1092.9,4.2021e-05,0.31455,2.5654e-05,-122.66,-0.00011093,-1148.9,1.7591
3496,20.359,3.6364,0,0.00010469,1046.2,4.0637e-05,0.26291,2.3792e-05,-126.3,-0.00010626,-1103.5,1.759
3497,20.359,3.8182,0,9.8875e-05,988.07,3.863e-05,0.24756,2.2001e-05,-124.69,-0.0001004,-1044.3,1.759
3498,20.359,4,0,9.2377e-05,923.13,3.6021e-05,0.23178,2.0686e-05,-114.99,-9.3788e-05,-975.1,1.7589
3499,20.359,4.1818,0,8.5666e-05,856.07,3.2968e-05,0.23938,1.9997e-05,-97.221,-8.6899e-05,-900.39,1.7588
3500,20.359,4.3636,0,7.9076e-05,790.21,2.9728e-05,0.33176,1.976e-05,-74.562,-8.0072e-05,-824.66,1.7587
3501,20.359,4.5455,0,7.2778e-05,727.28,2.6562e-05,0.4776,1.9644e-05,-51.499,-7.3507e-05,-751.4,1.7586
3502,20.359,4.7273,0,6.6888e-05,668.42,2.3673e-05,0.72955,1.9389e-05,-31.457,-6.7353e-05,-683.2,1.7585
3503,20.359,4.9091,0,6.1524e-05,614.81,2.1194e-05,1.2643,1.8898e-05,-15.986,-6.1756e-05,-621.99,1.7584
3504,20.359,5.0909,0,5.6814e-05,567.74,1.9275e-05,2.9163,1.8122e-05,-5.7458,-5.6857e-05,-569.11,1.7582
3505,20.359,5.2727,0,5.2869e-05,528.32,1.8159e-05,7.521,1.6928e-05,-1.7307,-5.2764e-05,-525.37,1.7581
3506,20.359,5.4545,0,4.9764e-05,497.29,1.7514e-05,12.695,1.5728e-05,-0.727,-4.9547e-05,-491.17,1.758
3507,20.359,5.6364,0,4.753e-05,474.97,1.7074e-05,16.508,1.483e-05,-0.35289,-4.7232e-05,-466.67,1.7578
3508,20.359,5.8182,0,4.6374e-05,463.42,1.6966e-05,19.944,1.4292e-05,-0.14664,-4.6004e-05,-453.19,1.7576
3509,20.541,0.18182,0,4.8659e-05,486.25,1.7612e-05,18.672,1.5117e-05,-0.077636,-4.8315e-05,-476.68,1.7835
3510,20.541,0.36364,0,4.9594e-05,495.6,1.7681e-05,15.675,1.5564e-05,-0.22887,-4.9312e-05,-487.68,1.7837
3511,20.541,0.54545,0,5.1345e-05,513.1,1.7904e-05,11.225,1.6342e-05,-0.5096,-5.1153e-05,-507.64,1.7838
3512,20.541,0.72727,0,5.3722e-05,536.85,1.8219e-05,4.8781,1.7344e-05,-1.697,-5.3665e-05,-535.23,1.7839
3513,20.541,0.90909,0,5.6705e-05,566.66,1.9237e-05,1.2703,1.7938e-05,-8.4914,-5.6821e-05,-570.2,1.7841
3514,20.541,1.0909,0,6.0244e-05,602.02,2.0979e-05,0.61494,1.8057e-05,-21.336,-6.0566e-05,-612.08,1.7842
3515,20.541,1.2727,0,6.4261e-05,642.16,2.3085e-05,0.39857,1.7997e-05,-37.833,-6.4812e-05,-660.03,1.7843
3516,20.541,1.4545,0,6.8666e-05,686.18,2.5458e-05,0.28528,1.7805e-05,-57.214,-6.9453e-05,-712.84,1.7844
3517,20.541,1.6364,0,7.3372e-05,733.22,2.7992e-05,0.21255,1.7579e-05,-78.03,-7.4382e-05,-768.99,1.7845
3518,20.541,1.8182,0,7.8288e-05,782.34,3.0545e-05,0.16631,1.7495e-05,-97.882,-7.9488e-05,-826.58,1.7846
3519,20.541,2,0,8.3276e-05,832.19,3.2948e-05,0.14283,1.7749e-05,-114.06,-8.4624e-05,-883.25,1.7847
3520,20.541,2.1818,0,8.8113e-05,880.52,3.5047e-05,0.15745,1.8431e-05,-124.69,-8.9565e-05,-936.12,1.7847
3521,20.541,2.3636,0,9.249e-05,924.26,3.6732e-05,0.20215,1.9455e-05,-129.61,-9.4005e-05,-982.1,1.7848
3522,20.541,2.5455,0,9.6077e-05,960.11,3.7961e-05,0.24475,2.0582e-05,-130.34,-9.7621e-05,-1018.5,1.7848
3523,20.541,2.7273,0,9.8606e-05,985.38,3.8747e-05,0.27534,2.1527e-05,-129.11,-0.00010016,-1043.4,1.7848
3524,20.541,2.9091,0,9.9908e-05,998.39,3.9126e-05,0.29099,2.2061e-05,-127.93,-0.00010146,-1056,1.7849
3525,20.541,3.0909,0,9.9908e-05,998.39,3.9126e-05,0.29099,2.2061e-05,-127.93,-0.00010146,-1056,1.7849
3526,20.541,3.2727,0,9.8606e-05,985.38,3.8747e-05,0.27534,2.1527e-05,-129.11,-0.00010016,-1043.4,1.7848
3527,20.541,3.4545,0,9.6077e-05,960.11,3.7961e-05,0.24474,2.0582e-05,-130.34,-9.7621e-05,-1018.5,1.7848
3528,20.541,3.6364,0,9.249e-05,924.26,3.6732e-05,0.20215,1.9455e-05,-129.61,-9.4004e-05,-982.1,1.7848
3529,20.541,3.8182,0,8.8113e-05,880.52,3.5047e-05,0.15745,1.8431e-05,-124.69,-8.9565e-05,-936.12,1.7847
3530,20.541,4,0,8.3276e-05,832.19,3.2948e-05,0.14283,1.7749e-05,-114.06,-8.4624e-05,-883.25,1.7847
3531,20.541,4.1818,0,7.8288e-05,782.34,3.0545e-05,0.16631,1.7495e-05,-97.882,-7.9488e-05,-826.58,1.7846
3532,20.541,4.3636,0,7.3372e-05,733.22,2.7992e-05,0.21254,1.7579e-05,-78.03,-7.4382e-05,-768.99,1.7845
3533,20.541,4.5455,0,6.8666e-05,686.18,2.5458e-05,0.28528,1.7805e-05,-57.214,-6.9453e-05,-712.84,1.7844
3534,20.541,4.7273,0,6.4261e-05,642.16,2.3085e-05,0.39857,1.7997e-05,-37.833,-6.4812e-05,-660.03,1.7843
3535,20.541,4.9091,0,6.0244e-05,602.02,2.0979e-05,0.61494,1.8057e-05,-21.336,-6.0566e-05,-612.08,1.7842
3536,20.541,5.0909,0,5.6705e-05,566.66,1.9237e-05,1.2703,1.7938e-05,-8.4913,-5.6821e-05,-570.2,1.7841
3537,20.541,5.2727,0,5.3722e-05,536.85,1.8219e-05,4.8781,1.7344e-05,-1.697,-5.3665e-05,-535.23,1.7839
3538,20.541,5.4545,0,5.1345e-05,513.09,1.7904e-05,11.225,1.6342e-05,-0.5096,-5.1153e-05,-507.64,1.7838
3539,20.541,5.6364,0,4.9594e-05,495.6,1.7681e-05,15.675,1.5564e-05,-0.22886,-4.9312e-05,-487.68,1.7837
3540,20.541,5.8182,0,4.8659e-05,486.25,1.7612e-05,18.672,1.5117e-05,-0.077634,-4.8315e-05,-476.68,1.7835
3541,20.723,0.18182,0,4.9834e-05,498,1.7879e-05,17.225,1.5581e-05,-0.041952,-4.9519e-05,-489.18,1.8094
3542,20.723,0.36364,0,5.0565e-05,505.31,1.7902e-05,14.521,1.5949e-05,-0.15219,-5.0305e-05,-497.96,1.8095
3543,20.723,0.54545,0,5.1924e-05,518.88,1.7977e-05,9.8976,1.6612e-05,-0.35469,-5.1754e-05,-514.03,1.8097
3544,20.723,0.72727,0,5.3729e-05,536.92,1.8082e-05,3.2509,1.7433e-05,-1.6229,-5.3699e-05,-536.09,1.8098
3545,20.723,0.90909,0,5.5968e-05,559.29,1.9019e-05,0.71169,1.7601e-05,-9.9378,-5.6117e-05,-563.83,1.8099
3546,20.723,1.0909,0,5.8609e-05,585.69,2.0514e-05,0.3788,1.7365e-05,-23.281,-5.8963e-05,-596.78,1.8101
3547,20.723,1.2727,0,6.1601e-05,615.59,2.227e-05,0.26419,1.6992e-05,-39.394,-6.2171e-05,-634.19,1.8102
3548,20.723,1.4545,0,6.4884e-05,648.39,2.4211e-05,0.20325,1.6537e-05,-57.452,-6.5665e-05,-675.09,1.8102
3549,20.723,1.6364,0,6.8393e-05,683.46,2.6252e-05,0.16473,1.6088e-05,-76.206,-6.9366e-05,-718.28,1.8103
3550,20.723,1.8182,0,7.2055e-05,720.05,2.8291e-05,0.14178,1.5768e-05,-93.948,-7.3188e-05,-762.33,1.8104
3551,20.723,2,0,7.5761e-05,757.09,3.0212e-05,0.13595,1.5698e-05,-108.92,-7.702e-05,-805.57,1.8105
3552,20.723,2.1818,0,7.935e-05,792.95,3.1911e-05,0.1454,1.5933e-05,-119.91,-8.0702e-05,-845.99,1.8105
3553,20.723,2.3636,0,8.2607e-05,825.5,3.3308e-05,0.1668,1.6422e-05,-126.7,-8.4025e-05,-881.43,1.8106
3554,20.723,2.5455,0,8.53e-05,852.41,3.436e-05,0.1949,1.7025e-05,-130.05,-8.6758e-05,-909.84,1.8106
3555,20.723,2.7273,0,8.7218e-05,871.58,3.5054e-05,0.21911,1.7559e-05,-131.23,-8.87e-05,-929.62,1.8106
3556,20.723,2.9091,0,8.8216e-05,881.55,3.5398e-05,0.23244,1.7871e-05,-131.46,-8.9707e-05,-939.75,1.8106
3557,20.723,3.0909,0,8.8216e-05,881.55,3.5398e-05,0.23244,1.7871e-05,-131.46,-8.9707e-05,-939.75,1.8106
3558,20.723,3.2727,0,8.7218e-05,871.58,3.5054e-05,0.21911,1.7559e-05,-131.23,-8.87e-05,-929.62,1.8106
3559,20.723,3.4545,0,8.53e-05,852.41,3.436e-05,0.1949,1.7025e-05,-130.05,-8.6758e-05,-909.84,1.8106
3560,20.723,3.6364,0,8.2607e-05,825.5,3.3308e-05,0.1668,1.6422e-05,-126.7,-8.4025e-05,-881.43,1.8106
3561,20.723,3.8182,0,7.935e-05,792.95,3.1911e-05,0.1454,1.5933e-05,-119.91,-8.0702e-05,-845.99,1.8105
3562,20.723,4,0,7.5761e-05,757.09,3.0212e-05,0.13595,1.5698e-05,-108.92,-7.702e-05,-805.57,1.8105
3563,20.723,4.1818,0,7.2055e-05,720.05,2.8291e-05,0.14178,1.5768e-05,-93.948,-7.3188e-05,-762.33,1.8104
3564,20.723,4.3636,0,6.8393e-05,683.46,2.6252e-05,0.16473,1.6088e-05,-76.206,-6.9366e-05,-718.28,1.8103
3565,20.723,4.5455,0,6.4884e-05,648.39,2.4211e-05,0.20325,1.6537e-05,-57.452,-6.5665e-05,-675.09,1.8102
3566,20.723,4.7273,0,6.1601e-05,615.59,2.227e-05,0.26419,1.6992e-05,-39.394,-6.2171e-05,-634.19,1.8102
3567,20.723,4.9091,0,5.8609e-05,585.69,2.0514e-05,0.37881,1.7365e-05,-23.281,-5.8963e-05,-596.78,1.8101
3568,20.723,5.0909,0,5.5968e-05,559.29,1.9019e-05,0.71169,1.7601e-05,-9.9378,-5.6117e-05,-563.83,1.8099
3569,20.723,5.2727,0,5.3729e-05,536.92,1.8082e-05,3.2509,1.7433e-05,-1.6229,-5.3699e-05,-536.09,1.8098
3570,20.723,5.4545,0,5.1924e-05,518.88,1.7977e-05,9.8976,1.6612e-05,-0.35469,-5.1754e-05,-514.03,1.8097
3571,20.723,5.6364,0,5.0565e-05,505.31,1.7902e-05,14.521,1.5949e-05,-0.15218,-5.0305e-05,-497.96,1.8095
3572,20.723,5.8182,0,4.9834e-05,498,1.7879e-05,17.225,1.5581e-05,-0.041953,-4.9519e-05,-489.18,1.8094
3573,20.905,0.18182,0,5.0058e-05,500.24,1.7835e-05,15.805,1.5728e-05,-0.023349,-4.9771e-05,-492.16,1.8353
3574,20.905,0.36364,0,5.0604e-05,505.69,1.7809e-05,13.273,1.6029e-05,-0.10146,-5.0366e-05,-498.97,1.8355
3575,20.905,0.54545,0,5.1641e-05,516.06,1.7782e-05,8.7446,1.6586e-05,-0.24157,-5.1491e-05,-511.75,1.8356
3576,20.905,0.72727,0,5.3e-05,529.63,1.7752e-05,2.2639,1.7254e-05,-1.4788,-5.2985e-05,-529.23,1.8357
3577,20.905,0.90909,0,5.4668e-05,546.3,1.8581e-05,0.45937,1.7163e-05,-10.195,-5.4825e-05,-551.09,1.8358
3578,20.905,1.0909,0,5.6626e-05,565.86,1.9838e-05,0.26286,1.6737e-05,-23.036,-5.6977e-05,-576.89,1.8359
3579,20.905,1.2727,0,5.8841e-05,588,2.1289e-05,0.19381,1.6195e-05,-38.085,-5.9392e-05,-606.01,1.836
3580,20.905,1.4545,0,6.1273e-05,612.31,2.2875e-05,0.15691,1.5594e-05,-54.546,-6.2015e-05,-637.67,1.8361
3581,20.905,1.6364,0,6.3875e-05,638.31,2.4526e-05,0.13383,1.5008e-05,-71.381,-6.4786e-05,-670.92,1.8362
3582,20.905,1.8182,0,6.6588e-05,665.42,2.6167e-05,0.12042,1.4528e-05,-87.334,-6.7639e-05,-704.7,1.8363
3583,20.905,2,0,6.9327e-05,692.79,2.7716e-05,0.11686,1.4233e-05,-101.18,-7.0488e-05,-737.75,1.8363
3584,20.905,2.1818,0,7.1974e-05,719.24,2.9096e-05,0.12417,1.4163e-05,-112.07,-7.3219e-05,-768.63,1.8364
3585,20.905,2.3636,0,7.4376e-05,743.25,3.0247e-05,0.14022,1.4291e-05,-119.75,-7.5682e-05,-795.76,1.8364
3586,20.905,2.5455,0,7.6367e-05,763.14,3.1129e-05,0.15945,1.4534e-05,-124.53,-7.7714e-05,-817.65,1.8364
3587,20.905,2.7273,0,7.7791e-05,777.38,3.1722e-05,0.17619,1.4782e-05,-127.1,-7.9164e-05,-832.99,1.8364
3588,20.905,2.9091,0,7.8534e-05,784.8,3.202e-05,0.18582,1.4936e-05,-128.18,-7.992e-05,-840.88,1.8365
3589,20.905,3.0909,0,7.8534e-05,784.8,3.202e-05,0.18582,1.4936e-05,-128.18,-7.992e-05,-840.88,1.8365
3590,20.905,3.2727,0,7.7791e-05,777.38,3.1722e-05,0.17619,1.4782e-05,-127.1,-7.9164e-05,-832.99,1.8364
3591,20.905,3.4545,0,7.6367e-05,763.14,3.1129e-05,0.15944,1.4534e-05,-124.53,-7.7714e-05,-817.65,1.8364
3592,20.905,3.6364,0,7.4376e-05,743.25,3.0247e-05,0.14022,1.4291e-05,-119.75,-7.5682e-05,-795.76,1.8364
3593,20.905,3.8182,0,7.1974e-05,719.24,2.9096e-05,0.12417,1.4163e-05,-112.07,-7.3219e-05,-768.63,1.8364
3594,20.905,4,0,6.9327e-05,692.79,2.7716e-05,0.11686,1.4233e-05,-101.18,-7.0488e-05,-737.75,1.8363
3595,20.905,4.1818,0,6.6588e-05,665.42,2.6167e-05,0.12042,1.4528e-05,-87.334,-6.7639e-05,-704.7,1.8363
3596,20.905,4.3636,0,6.3875e-05,638.31,2.4526e-05,0.13383,1.5008e-05,-71.381,-6.4786e-05,-670.92,1.8362
3597,20.905,4.5455,0,6.1273e-05,612.31,2.2875e-05,0.15691,1.5594e-05,-54.546,-6.2015e-05,-637.67,1.8361
3598,20.905,4.7273,0,5.8841e-05,588,2.1289e-05,0.1938,1.6195e-05,-38.085,-5.9392e-05,-606.01,1.836
3599,20.905,4.9091,0,5.6626e-05,565.86,1.9838e-05,0.26286,1.6737e-05,-23.036,-5.6977e-05,-576.89,1.8359
3600,20.905,5.0909,0,5.4668e-05,546.3,1.8581e-05,0.45937,1.7163e-05,-10.195,-5.4825e-05,-551.09,1.8358
3601,20.905,5.2727,0,5.3e-05,529.63,1.7752e-05,2.264,1.7254e-05,-1.4788,-5.2985e-05,-529.23,1.8357
3602,20.905,5.4545,0,5.1641e-05,516.06,1.7782e-05,8.7446,1.6586e-05,-0.24156,-5.1491e-05,-511.75,1.8356
3603,20.905,5.6364,0,5.0604e-05,505.69,1.7809e-05,13.273,1.6029e-05,-0.10146,-5.0366e-05,-498.97,1.8355
3604,20.905,5.8182,0,5.0058e-05,500.24,1.7835e-05,15.805,1.5728e-05,-0.023348,-4.9771e-05,-492.16,1.8353
3605,21.087,0.18182,0,4.9484e-05,494.49,1.754e-05,14.545,1.5603e-05,-0.013098,-4.922e-05,-487.07,1.8613
3606,21.087,0.36364,0,4.9865e-05,498.31,1.7467e-05,12.115,1.5846e-05,-0.065831,-4.9649e-05,-492.17,1.8614
3607,21.087,0.54545,0,5.0644e-05,506.09,1.7374e-05,7.8449,1.6309e-05,-0.15586,-5.0509e-05,-502.2,1.8616
3608,21.087,0.72727,0,5.1655e-05,516.2,1.725e-05,1.7189,1.6859e-05,-1.2193,-5.1646e-05,-515.94,1.8617
3609,21.087,0.90909,0,5.2887e-05,528.51,1.7952e-05,0.32488,1.6634e-05,-9.5754,-5.3038e-05,-533.06,1.8618
3610,21.087,1.0909,0,5.4328e-05,542.91,1.8995e-05,0.19675,1.6119e-05,-21.413,-5.4657e-05,-553.19,1.8619
3611,21.087,1.2727,0,5.5956e-05,559.18,2.0188e-05,0.15218,1.55e-05,-35.072,-5.6467e-05,-575.81,1.862
3612,21.087,1.4545,0,5.7745e-05,577.05,2.1482e-05,0.12865,1.4832e-05,-49.837,-5.8428e-05,-600.28,1.862
3613,21.087,1.6364,0,5.9659e-05,596.17,2.2821e-05,0.11437,1.4175e-05,-64.851,-6.0494e-05,-625.88,1.8621
3614,21.087,1.8182,0,6.1652e-05,616.09,2.4148e-05,0.10664,1.3599e-05,-79.16,-6.2613e-05,-651.78,1.8622
3615,21.087,2,0,6.366e-05,636.16,2.5402e-05,0.10537,1.3161e-05,-91.864,-6.472e-05,-677.03,1.8622
3616,21.087,2.1818,0,6.5595e-05,655.5,2.6524e-05,0.11041,1.2894e-05,-102.3,-6.6731e-05,-700.57,1.8623
3617,21.087,2.3636,0,6.7349e-05,673.02,2.7469e-05,0.12049,1.2786e-05,-110.2,-6.854e-05,-721.25,1.8623
3618,21.087,2.5455,0,6.8802e-05,687.54,2.82e-05,0.1329,1.2794e-05,-115.62,-7.0031e-05,-737.94,1.8623
3619,21.087,2.7273,0,6.9843e-05,697.94,2.8697e-05,0.14395,1.2852e-05,-118.91,-7.1097e-05,-749.67,1.8623
3620,21.087,2.9091,0,7.0386e-05,703.38,2.8948e-05,0.15039,1.2899e-05,-120.44,-7.1652e-05,-755.72,1.8623
3621,21.087,3.0909,0,7.0386e-05,703.38,2.8948e-05,0.15039,1.2899e-05,-120.44,-7.1652e-05,-755.72,1.8623
3622,21.087,3.2727,0,6.9843e-05,697.94,2.8697e-05,0.14395,1.2852e-05,-118.91,-7.1097e-05,-749.67,1.8623
3623,21.087,3.4545,0,6.8802e-05,687.54,2.82e-05,0.1329,1.2794e-05,-115.62,-7.0031e-05,-737.94,1.8623
3624,21.087,3.6364,0,6.7349e-05,673.02,2.7469e-05,0.12049,1.2786e-05,-110.2,-6.854e-05,-721.25,1.8623
3625,21.087,3.8182,0,6.5595e-05,655.5,2.6524e-05,0.11041,1.2894e-05,-102.3,-6.6731e-05,-700.57,1.8623
3626,21.087,4,0,6.366e-05,636.16,2.5402e-05,0.10537,1.3161e-05,-91.864,-6.472e-05,-677.03,1.8622
3627,21.087,4.1818,0,6.1652e-05,616.09,2.4148e-05,0.10664,1.3599e-05,-79.16,-6.2613e-05,-651.78,1.8622
3628,21.087,4.3636,0,5.9659e-05,596.17,2.2821e-05,0.11437,1.4175e-05,-64.851,-6.0494e-05,-625.88,1.8621
3629,21.087,4.5455,0,5.7745e-05,577.05,2.1482e-05,0.12865,1.4832e-05,-49.837,-5.8428e-05,-600.28,1.862
3630,21.087,4.7273,0,5.5956e-05,559.18,2.0188e-05,0.15218,1.55e-05,-35.072,-5.6467e-05,-575.81,1.862
3631,21.087,4.9091,0,5.4328e-05,542.91,1.8995e-05,0.19676,1.6119e-05,-21.413,-5.4657e-05,-553.19,1.8619
3632,21.087,5.0909,0,5.2887e-05,528.51,1.7952e-05,0.32488,1.6634e-05,-9.5753,-5.3038e-05,-533.06,1.8618
3633,21.087,5.2727,0,5.1655e-05,516.2,1.725e-05,1.7189,1.6859e-05,-1.2193,-5.1646e-05,-515.94,1.8617
3634,21.087,5.4545,0,5.0644e-05,506.09,1.7374e-05,7.8449,1.6309e-05,-0.15586,-5.0509e-05,-502.2,1.8616
3635,21.087,5.6364,0,4.9865e-05,498.31,1.7467e-05,12.115,1.5846e-05,-0.065833,-4.9649e-05,-492.17,1.8614
3636,21.087,5.8182,0,4.9484e-05,494.49,1.754e-05,14.545,1.5603e-05,-0.013099,-4.922e-05,-487.07,1.8613
3637,21.269,0.18182,0,4.825e-05,482.16,1.7048e-05,13.519,1.5247e-05,-0.0072444,-4.8006e-05,-475.27,1.8873
3638,21.269,0.36364,0,4.8491e-05,484.58,1.6935e-05,11.177,1.5442e-05,-0.040331,-4.8292e-05,-478.91,1.8874
3639,21.269,0.54545,0,4.9066e-05,490.32,1.6802e-05,7.2721,1.5823e-05,-0.090322,-4.8939e-05,-486.69,1.8875
3640,21.269,0.72727,0,4.981e-05,497.75,1.6607e-05,1.5365,1.6292e-05,-0.83012,-4.9797e-05,-497.4,1.8877
3641,21.269,0.90909,0,5.0712e-05,506.77,1.7165e-05,0.24775,1.6028e-05,-8.2913,-5.0844e-05,-510.74,1.8878
3642,21.269,1.0909,0,5.1764e-05,517.28,1.8022e-05,0.15602,1.5488e-05,-18.885,-5.2056e-05,-526.38,1.8878
3643,21.269,1.2727,0,5.2951e-05,529.14,1.8998e-05,0.12561,1.4853e-05,-31.022,-5.3408e-05,-543.9,1.8879
3644,21.269,1.4545,0,5.4253e-05,542.16,2.0052e-05,0.10997,1.417e-05,-44.078,-5.4866e-05,-562.79,1.888
3645,21.269,1.6364,0,5.5646e-05,556.08,2.1139e-05,0.10074,1.3492e-05,-57.352,-5.6397e-05,-582.47,1.8881
3646,21.269,1.8182,0,5.7095e-05,570.55,2.2214e-05,0.09592,1.2872e-05,-70.094,-5.7961e-05,-602.31,1.8881
3647,21.269,2,0,5.8551e-05,585.11,2.323e-05,0.09526,1.2356e-05,-81.607,-5.9508e-05,-621.57,1.8882
3648,21.269,2.1818,0,5.9951e-05,599.09,2.4143e-05,0.098639,1.1972e-05,-91.353,-6.0977e-05,-639.46,1.8882
3649,21.269,2.3636,0,6.1216e-05,611.74,2.4916e-05,0.10518,1.1721e-05,-99.036,-6.2293e-05,-655.15,1.8882
3650,21.269,2.5455,0,6.2263e-05,622.2,2.5518e-05,0.11308,1.1582e-05,-104.6,-6.3375e-05,-667.79,1.8883
3651,21.269,2.7273,0,6.3012e-05,629.69,2.593e-05,0.1201,1.1519e-05,-108.16,-6.4147e-05,-676.68,1.8883
3652,21.269,2.9091,0,6.3403e-05,633.6,2.6138e-05,0.12422,1.1498e-05,-109.88,-6.455e-05,-681.27,1.8883
3653,21.269,3.0909,0,6.3403e-05,633.6,2.6138e-05,0.12422,1.1498e-05,-109.88,-6.455e-05,-681.27,1.8883
3654,21.269,3.2727,0,6.3012e-05,629.69,2.593e-05,0.1201,1.1519e-05,-108.16,-6.4147e-05,-676.68,1.8883
3655,21.269,3.4545,0,6.2263e-05,622.2,2.5518e-05,0.11308,1.1582e-05,-104.6,-6.3375e-05,-667.79,1.8883
3656,21.269,3.6364,0,6.1216e-05,611.74,2.4916e-05,0.10518,1.1721e-05,-99.036,-6.2293e-05,-655.15,1.8882
3657,21.269,3.8182,0,5.9951e-05,599.09,2.4143e-05,0.098638,1.1972e-05,-91.353,-6.0977e-05,-639.46,1.8882
3658,21.269,4,0,5.8551e-05,585.11,2.323e-05,0.095263,1.2356e-05,-81.607,-5.9508e-05,-621.57,1.8882
3659,21.269,4.1818,0,5.7095e-05,570.55,2.2214e-05,0.095919,1.2872e-05,-70.094,-5.7961e-05,-602.31,1.8881
3660,21.269,4.3636,0,5.5646e-05,556.08,2.1139e-05,0.10074,1.3492e-05,-57.352,-5.6397e-05,-582.47,1.8881
3661,21.269,4.5455,0,5.4253e-05,542.16,2.0052e-05,0.10997,1.417e-05,-44.078,-5.4866e-05,-562.79,1.888
3662,21.269,4.7273,0,5.2951e-05,529.14,1.8998e-05,0.12561,1.4853e-05,-31.022,-5.3408e-05,-543.9,1.8879
3663,21.269,4.9091,0,5.1764e-05,517.28,1.8022e-05,0.15602,1.5488e-05,-18.885,-5.2056e-05,-526.38,1.8878
3664,21.269,5.0909,0,5.0712e-05,506.77,1.7165e-05,0.24775,1.6028e-05,-8.2913,-5.0844e-05,-510.74,1.8878
3665,21.269,5.2727,0,4.981e-05,497.75,1.6607e-05,1.5365,1.6292e-05,-0.83011,-4.9797e-05,-497.4,1.8877
3666,21.269,5.4545,0,4.9066e-05,490.32,1.6802e-05,7.2721,1.5823e-05,-0.09032,-4.8939e-05,-486.69,1.8875
3667,21.269,5.6364,0,4.8491e-05,484.58,1.6935e-05,11.177,1.5442e-05,-0.040329,-4.8292e-05,-478.91,1.8874
3668,21.269,5.8182,0,4.825e-05,482.16,1.7048e-05,13.519,1.5247e-05,-0.0072447,-4.8006e-05,-475.27,1.8873
3669,21.451,0.18182,0,4.6479e-05,464.47,1.64e-05,12.762,1.4701e-05,-0.0039053,-4.6249e-05,-457.96,1.9133
3670,21.451,0.36364,0,4.6606e-05,465.74,1.6258e-05,10.535,1.4853e-05,-0.022452,-4.6418e-05,-460.39,1.9134
3671,21.451,0.54545,0,4.7022e-05,469.89,1.6109e-05,7.0799,1.5162e-05,-0.041927,-4.6898e-05,-466.33,1.9136
3672,21.451,0.72727,0,4.7564e-05,475.31,1.5866e-05,1.789,1.5573e-05,-0.40916,-4.754e-05,-474.62,1.9137
3673,21.451,0.90909,0,4.8221e-05,481.87,1.6249e-05,0.20556,1.5361e-05,-6.4664,-4.8324e-05,-484.97,1.9138
3674,21.451,1.0909,0,4.8983e-05,489.49,1.6947e-05,0.13052,1.4838e-05,-15.715,-4.9228e-05,-497.09,1.9138
3675,21.451,1.2727,0,4.984e-05,498.05,1.7742e-05,0.10831,1.4227e-05,-26.299,-5.0233e-05,-510.62,1.9139
3676,21.451,1.4545,0,5.0778e-05,507.43,1.8597e-05,0.097446,1.3568e-05,-37.684,-5.1312e-05,-525.17,1.914
3677,21.451,1.6364,0,5.178e-05,517.44,1.9478e-05,0.091227,1.2905e-05,-49.295,-5.2439e-05,-540.27,1.9141
3678,21.451,1.8182,0,5.2818e-05,527.82,2.0349e-05,0.088043,1.2282e-05,-60.528,-5.3585e-05,-555.42,1.9141
3679,21.451,2,0,5.3859e-05,538.22,2.1173e-05,0.087582,1.1736e-05,-70.821,-5.4711e-05,-570.07,1.9141
3680,21.451,2.1818,0,5.4857e-05,548.19,2.1915e-05,0.089633,1.1293e-05,-79.719,-5.5774e-05,-583.63,1.9142
3681,21.451,2.3636,0,5.5757e-05,557.18,2.2544e-05,0.093617,1.0963e-05,-86.926,-5.6722e-05,-595.48,1.9142
3682,21.451,2.5455,0,5.65e-05,564.61,2.3037e-05,0.098458,1.0739e-05,-92.305,-5.7498e-05,-605.01,1.9142
3683,21.451,2.7273,0,5.7031e-05,569.92,2.3375e-05,0.10278,1.0606e-05,-95.845,-5.8051e-05,-611.7,1.9142
3684,21.451,2.9091,0,5.7309e-05,572.69,2.3547e-05,0.10531,1.0544e-05,-97.592,-5.8338e-05,-615.15,1.9143
3685,21.451,3.0909,0,5.7309e-05,572.69,2.3547e-05,0.10531,1.0544e-05,-97.592,-5.8338e-05,-615.15,1.9143
3686,21.451,3.2727,0,5.7031e-05,569.92,2.3375e-05,0.10278,1.0606e-05,-95.845,-5.8051e-05,-611.7,1.9142
3687,21.451,3.4545,0,5.65e-05,564.61,2.3037e-05,0.098457,1.0739e-05,-92.305,-5.7498e-05,-605.01,1.9142
3688,21.451,3.6364,0,5.5757e-05,557.18,2.2544e-05,0.093617,1.0963e-05,-86.926,-5.6722e-05,-595.48,1.9142
3689,21.451,3.8182,0,5.4857e-05,548.19,2.1915e-05,0.089634,1.1293e-05,-79.719,-5.5774e-05,-583.63,1.9142
3690,21.451,4,0,5.3859e-05,538.22,2.1173e-05,0.08758,1.1736e-05,-70.821,-5.4711e-05,-570.07,1.9141
3691,21.451,4.1818,0,5.2818e-05,527.82,2.0349e-05,0.088043,1.2282e-05,-60.528,-5.3585e-05,-555.42,1.9141
3692,21.451,4.3636,0,5.178e-05,517.44,1.9478e-05,0.091227,1.2905e-05,-49.295,-5.2439e-05,-540.27,1.9141
3693,21.451,4.5455,0,5.0778e-05,507.43,1.8597e-05,0.097445,1.3568e-05,-37.684,-5.1312e-05,-525.17,1.914
3694,21.451,4.7273,0,4.984e-05,498.05,1.7741e-05,0.10831,1.4227e-05,-26.299,-5.0233e-05,-510.62,1.9139
3695,21.451,4.9091,0,4.8983e-05,489.49,1.6947e-05,0.13052,1.4838e-05,-15.715,-4.9228e-05,-497.09,1.9138
3696,21.451,5.0909,0,4.8221e-05,481.87,1.6249e-05,0.20556,1.5361e-05,-6.4664,-4.8324e-05,-484.97,1.9138
3697,21.451,5.2727,0,4.7564e-05,475.31,1.5866e-05,1.7891,1.5573e-05,-0.40916,-4.754e-05,-474.62,1.9137
3698,21.451,5.4545,0,4.7022e-05,469.89,1.6109e-05,7.0799,1.5162e-05,-0.041925,-4.6898e-05,-466.33,1.9136
3699,21.451,5.6364,0,4.6606e-05,465.74,1.6258e-05,10.535,1.4853e-05,-0.02245,-4.6418e-05,-460.39,1.9134
3700,21.451,5.8182,0,4.6479e-05,464.47,1.64e-05,12.762,1.4701e-05,-0.0039058,-4.6249e-05,-457.96,1.9133
3701,21.633,0.18182,0,4.4276e-05,442.45,1.5633e-05,12.282,1.3998e-05,-0.0022747,-4.4054e-05,-436.18,1.9394
3702,21.633,0.36364,0,4.4313e-05,442.82,1.5476e-05,10.23,1.4113e-05,-0.010816,-4.413e-05,-437.62,1.9395
3703,21.633,0.54545,0,4.461e-05,445.79,1.533e-05,7.2999,1.4357e-05,-0.0091417,-4.4481e-05,-442.1,1.9396
3704,21.633,0.72727,0,4.5004e-05,449.73,1.5079e-05,2.648,1.4709e-05,-0.13779,-4.4961e-05,-448.47,1.9397
3705,21.633,0.90909,0,4.5481e-05,454.49,1.5231e-05,0.19588,1.465e-05,-4.1728,-4.5547e-05,-456.46,1.9398
3706,21.633,1.0909,0,4.603e-05,459.98,1.5792e-05,0.11597,1.4174e-05,-12.041,-4.6221e-05,-465.83,1.9399
3707,21.633,1.2727,0,4.6644e-05,466.12,1.6434e-05,0.097566,1.3613e-05,-21.096,-4.6965e-05,-476.26,1.94
3708,21.633,1.4545,0,4.7313e-05,472.8,1.7125e-05,0.089363,1.3004e-05,-30.875,-4.776e-05,-487.43,1.94
3709,21.633,1.6364,0,4.8022e-05,479.89,1.7837e-05,0.08483,1.2382e-05,-40.902,-4.8585e-05,-498.99,1.9401
3710,21.633,1.8182,0,4.8755e-05,487.22,1.8541e-05,0.082458,1.1784e-05,-50.686,-4.9417e-05,-510.53,1.9401
3711,21.633,2,0,4.9487e-05,494.52,1.9208e-05,0.081891,1.1243e-05,-59.758,-5.0229e-05,-521.64,1.9402
3712,21.633,2.1818,0,5.0185e-05,501.5,1.9809e-05,0.082934,1.0784e-05,-67.726,-5.0991e-05,-531.88,1.9402
3713,21.633,2.3636,0,5.0813e-05,507.78,2.032e-05,0.085197,1.042e-05,-74.3,-5.1665e-05,-540.79,1.9402
3714,21.633,2.5455,0,5.1331e-05,512.95,2.0722e-05,0.088013,1.0155e-05,-79.304,-5.2215e-05,-547.93,1.9402
3715,21.633,2.7273,0,5.17e-05,516.65,2.0998e-05,0.090548,9.9852e-06,-82.655,-5.2605e-05,-552.93,1.9403
3716,21.633,2.9091,0,5.1893e-05,518.57,2.1139e-05,0.092044,9.9026e-06,-84.33,-5.2808e-05,-555.51,1.9403
3717,21.633,3.0909,0,5.1893e-05,518.57,2.1139e-05,0.092043,9.9026e-06,-84.33,-5.2808e-05,-555.51,1.9403
3718,21.633,3.2727,0,5.17e-05,516.65,2.0998e-05,0.090548,9.9852e-06,-82.655,-5.2605e-05,-552.93,1.9403
3719,21.633,3.4545,0,5.1331e-05,512.95,2.0722e-05,0.088012,1.0155e-05,-79.304,-5.2215e-05,-547.93,1.9402
3720,21.633,3.6364,0,5.0813e-05,507.78,2.032e-05,0.085197,1.042e-05,-74.3,-5.1665e-05,-540.79,1.9402
3721,21.633,3.8182,0,5.0185e-05,501.5,1.9809e-05,0.082932,1.0784e-05,-67.726,-5.0991e-05,-531.88,1.9402
3722,21.633,4,0,4.9487e-05,494.52,1.9208e-05,0.081891,1.1243e-05,-59.758,-5.0229e-05,-521.64,1.9402
3723,21.633,4.1818,0,4.8755e-05,487.22,1.8541e-05,0.082458,1.1784e-05,-50.686,-4.9417e-05,-510.53,1.9401
3724,21.633,4.3636,0,4.8022e-05,479.89,1.7837e-05,0.084829,1.2382e-05,-40.902,-4.8585e-05,-498.99,1.9401
3725,21.633,4.5455,0,4.7313e-05,472.8,1.7125e-05,0.089362,1.3004e-05,-30.875,-4.776e-05,-487.43,1.94
3726,21.633,4.7273,0,4.6644e-05,466.12,1.6434e-05,0.097565,1.3613e-05,-21.096,-4.6965e-05,-476.26,1.94
3727,21.633,4.9091,0,4.603e-05,459.98,1.5792e-05,0.11597,1.4174e-05,-12.041,-4.6221e-05,-465.83,1.9399
3728,21.633,5.0909,0,4.5481e-05,454.49,1.5231e-05,0.19587,1.465e-05,-4.1728,-4.5547e-05,-456.46,1.9398
3729,21.633,5.2727,0,4.5004e-05,449.73,1.5079e-05,2.6481,1.4709e-05,-0.13779,-4.4961e-05,-448.47,1.9397
3730,21.633,5.4545,0,4.461e-05,445.79,1.533e-05,7.2999,1.4357e-05,-0.0091399,-4.4481e-05,-442.1,1.9396
3731,21.633,5.6364,0,4.4313e-05,442.82,1.5476e-05,10.23,1.4113e-05,-0.010814,-4.413e-05,-437.62,1.9395
3732,21.633,5.8182,0,4.4276e-05,442.45,1.5633e-05,12.282,1.3998e-05,-0.0022744,-4.4054e-05,-436.18,1.9394
3733,21.815,0.18182,0,4.1728e-05,416.99,1.4775e-05,12.071,1.3168e-05,-0.0020304,-4.151e-05,-410.83,1.9655
3734,21.815,0.36364,0,4.1699e-05,416.7,1.4616e-05,10.277,1.3248e-05,-0.0043506,-4.1514e-05,-411.47,1.9656
3735,21.815,0.54545,0,4.1912e-05,418.83,1.4492e-05,7.9453,1.3436e-05,0.010505,-4.1771e-05,-414.8,1.9657
3736,21.815,0.72727,0,4.2202e-05,421.73,1.4272e-05,4.1196,1.372e-05,-0.025988,-4.2131e-05,-419.67,1.9658
3737,21.815,0.90909,0,4.2551e-05,425.21,1.4141e-05,0.28944,1.3901e-05,-1.5169,-4.2571e-05,-425.83,1.9659
3738,21.815,1.0909,0,4.2948e-05,429.19,1.4574e-05,0.11285,1.3503e-05,-7.9336,-4.3076e-05,-433.04,1.9659
3739,21.815,1.2727,0,4.3387e-05,433.57,1.5087e-05,0.092615,1.301e-05,-15.508,-4.3628e-05,-441.07,1.966
3740,21.815,1.4545,0,4.3858e-05,438.28,1.5641e-05,0.085128,1.2468e-05,-23.759,-4.4212e-05,-449.63,1.9661
3741,21.815,1.6364,0,4.4353e-05,443.23,1.6214e-05,0.081248,1.1905e-05,-32.29,-4.4812e-05,-458.44,1.9661
3742,21.815,1.8182,0,4.486e-05,448.29,1.678e-05,0.079122,1.1354e-05,-40.692,-4.5412e-05,-467.21,1.9662
3743,21.815,2,0,4.5363e-05,453.31,1.7317e-05,0.078274,1.0843e-05,-48.57,-4.5991e-05,-475.6,1.9662
3744,21.815,2.1818,0,4.584e-05,458.08,1.7803e-05,0.078511,1.0395e-05,-55.578,-4.653e-05,-483.29,1.9663
3745,21.815,2.3636,0,4.6267e-05,462.36,1.8217e-05,0.079557,1.0029e-05,-61.441,-4.7003e-05,-489.96,1.9663
3746,21.815,2.5455,0,4.6619e-05,465.87,1.8542e-05,0.081008,9.752e-06,-65.964,-4.7387e-05,-495.28,1.9663
3747,21.815,2.7273,0,4.6869e-05,468.37,1.8766e-05,0.08237,9.568e-06,-69.03,-4.7658e-05,-499,1.9663
3748,21.815,2.9091,0,4.7e-05,469.67,1.8881e-05,0.083186,9.4765e-06,-70.575,-4.7798e-05,-500.92,1.9663
3749,21.815,3.0909,0,4.7e-05,469.67,1.8881e-05,0.083185,9.4765e-06,-70.575,-4.7798e-05,-500.92,1.9663
3750,21.815,3.2727,0,4.6869e-05,468.37,1.8766e-05,0.082371,9.568e-06,-69.03,-4.7658e-05,-499,1.9663
3751,21.815,3.4545,0,4.6619e-05,465.87,1.8542e-05,0.081009,9.752e-06,-65.964,-4.7387e-05,-495.28,1.9663
3752,21.815,3.6364,0,4.6267e-05,462.36,1.8217e-05,0.079556,1.0029e-05,-61.441,-4.7003e-05,-489.96,1.9663
3753,21.815,3.8182,0,4.584e-05,458.08,1.7803e-05,0.078511,1.0395e-05,-55.578,-4.653e-05,-483.29,1.9663
3754,21.815,4,0,4.5363e-05,453.31,1.7317e-05,0.078274,1.0843e-05,-48.57,-4.5991e-05,-475.6,1.9662
3755,21.815,4.1818,0,4.486e-05,448.29,1.678e-05,0.079121,1.1354e-05,-40.692,-4.5412e-05,-467.21,1.9662
3756,21.815,4.3636,0,4.4353e-05,443.23,1.6214e-05,0.081249,1.1905e-05,-32.29,-4.4812e-05,-458.44,1.9661
3757,21.815,4.5455,0,4.3858e-05,438.28,1.5641e-05,0.085127,1.2468e-05,-23.759,-4.4212e-05,-449.63,1.9661
3758,21.815,4.7273,0,4.3387e-05,433.57,1.5087e-05,0.092617,1.301e-05,-15.508,-4.3628e-05,-441.07,1.966
3759,21.815,4.9091,0,4.2948e-05,429.19,1.4574e-05,0.11285,1.3503e-05,-7.9335,-4.3076e-05,-433.04,1.9659
3760,21.815,5.0909,0,4.2551e-05,425.21,1.4141e-05,0.28944,1.3901e-05,-1.5169,-4.2571e-05,-425.83,1.9659
3761,21.815,5.2727,0,4.2202e-05,421.73,1.4272e-05,4.1196,1.372e-05,-0.025989,-4.2131e-05,-419.67,1.9658
3762,21.815,5.4545,0,4.1912e-05,418.83,1.4492e-05,7.9453,1.3436e-05,0.010506,-4.1771e-05,-414.8,1.9657
3763,21.815,5.6364,0,4.1699e-05,416.7,1.4616e-05,10.277,1.3248e-05,-0.0043467,-4.1514e-05,-411.47,1.9656
3764,21.815,5.8182,0,4.1728e-05,416.99,1.4775e-05,12.071,1.3168e-05,-0.0020311,-4.151e-05,-410.83,1.9655
3765,21.997,0.18182,0,3.8908e-05,388.82,1.3847e-05,12.112,1.2235e-05,-0.0031,-3.8688e-05,-382.62,1.9916
3766,21.997,0.36364,0,3.8835e-05,388.08,1.3704e-05,10.673,1.2283e-05,-0.0019586,-3.8642e-05,-382.64,1.9917
3767,21.997,0.54545,0,3.8994e-05,389.67,1.3618e-05,9.0167,1.2421e-05,0.020766,-3.8833e-05,-385.08,1.9918
3768,21.997,0.72727,0,3.9217e-05,391.9,1.3451e-05,6.1144,1.2639e-05,0.014337,-3.9109e-05,-388.8,1.9919
3769,21.997,0.90909,0,3.948e-05,394.53,1.3202e-05,2.0413,1.2922e-05,-0.067756,-3.9446e-05,-393.54,1.992
3770,21.997,1.0909,0,3.9774e-05,397.46,1.3307e-05,0.14099,1.283e-05,-3.4413,-3.9829e-05,-399.1,1.992
3771,21.997,1.2727,0,4.0089e-05,400.61,1.3709e-05,0.095719,1.2421e-05,-9.5778,-4.0241e-05,-405.27,1.9921
3772,21.997,1.4545,0,4.0419e-05,403.92,1.4149e-05,0.085321,1.1957e-05,-16.384,-4.0671e-05,-411.81,1.9922
3773,21.997,1.6364,0,4.0759e-05,407.31,1.4605e-05,0.080728,1.1465e-05,-23.509,-4.1107e-05,-418.51,1.9922
3774,21.997,1.8182,0,4.1102e-05,410.73,1.5058e-05,0.078192,1.0974e-05,-30.608,-4.1535e-05,-425.14,1.9923
3775,21.997,2,0,4.1437e-05,414.08,1.5488e-05,0.076825,1.0508e-05,-37.341,-4.1943e-05,-431.44,1.9923
3776,21.997,2.1818,0,4.1752e-05,417.23,1.5878e-05,0.076312,1.0092e-05,-43.399,-4.2319e-05,-437.19,1.9923
3777,21.997,2.3636,0,4.2033e-05,420.04,1.6211e-05,0.076435,9.7426e-06,-48.525,-4.2646e-05,-442.15,1.9924
3778,21.997,2.5455,0,4.2263e-05,422.34,1.6474e-05,0.076929,9.4729e-06,-52.523,-4.2909e-05,-446.1,1.9924
3779,21.997,2.7273,0,4.2426e-05,423.97,1.6655e-05,0.077491,9.2902e-06,-55.256,-4.3093e-05,-448.84,1.9924
3780,21.997,2.9091,0,4.2512e-05,424.82,1.6747e-05,0.077852,9.1981e-06,-56.641,-4.3189e-05,-450.25,1.9924
3781,21.997,3.0909,0,4.2512e-05,424.82,1.6747e-05,0.077851,9.1981e-06,-56.641,-4.3189e-05,-450.25,1.9924
3782,21.997,3.2727,0,4.2426e-05,423.97,1.6655e-05,0.07749,9.2902e-06,-55.256,-4.3093e-05,-448.84,1.9924
3783,21.997,3.4545,0,4.2263e-05,422.34,1.6474e-05,0.07693,9.4729e-06,-52.523,-4.2909e-05,-446.1,1.9924
3784,21.997,3.6364,0,4.2033e-05,420.04,1.6211e-05,0.076438,9.7426e-06,-48.525,-4.2646e-05,-442.15,1.9924
3785,21.997,3.8182,0,4.1752e-05,417.23,1.5878e-05,0.076313,1.0092e-05,-43.399,-4.2319e-05,-437.19,1.9923
3786,21.997,4,0,4.1437e-05,414.08,1.5488e-05,0.076824,1.0508e-05,-37.341,-4.1943e-05,-431.44,1.9923
3787,21.997,4.1818,0,4.1101e-05,410.73,1.5058e-05,0.078192,1.0974e-05,-30.608,-4.1535e-05,-425.14,1.9923
3788,21.997,4.3636,0,4.0759e-05,407.31,1.4605e-05,0.080729,1.1465e-05,-23.509,-4.1107e-05,-418.51,1.9922
3789,21.997,4.5455,0,4.0419e-05,403.92,1.4149e-05,0.085321,1.1957e-05,-16.384,-4.0671e-05,-411.81,1.9922
3790,21.997,4.7273,0,4.0089e-05,400.61,1.3709e-05,0.095717,1.2421e-05,-9.5777,-4.0241e-05,-405.27,1.9921
3791,21.997,4.9091,0,3.9774e-05,397.46,1.3307e-05,0.141,1.283e-05,-3.4412,-3.9829e-05,-399.1,1.992
3792,21.997,5.0909,0,3.948e-05,394.53,1.3202e-05,2.0413,1.2922e-05,-0.067755,-3.9446e-05,-393.54,1.992
3793,21.997,5.2727,0,3.9217e-05,391.9,1.3451e-05,6.1145,1.2639e-05,0.014334,-3.9109e-05,-388.8,1.9919
3794,21.997,5.4545,0,3.8994e-05,389.67,1.3618e-05,9.0167,1.2421e-05,0.020769,-3.8833e-05,-385.08,1.9918
3795,21.997,5.6364,0,3.8835e-05,388.08,1.3704e-05,10.673,1.2283e-05,-0.0019566,-3.8642e-05,-382.64,1.9917
3796,21.997,5.8182,0,3.8908e-05,388.82,1.3847e-05,12.112,1.2235e-05,-0.0031012,-3.8688e-05,-382.62,1.9916
3797,22.179,0.18182,0,3.5876e-05,358.51,1.2869e-05,12.38,1.122e-05,-0.0054839,-3.565e-05,-352.17,2.0177
3798,22.179,0.36364,0,3.578e-05,357.55,1.2756e-05,11.409,1.1237e-05,-0.0024867,-3.5572e-05,-351.71,2.0178
3799,22.179,0.54545,0,3.5912e-05,358.87,1.2724e-05,10.51,1.1329e-05,0.02558,-3.5721e-05,-353.49,2.0179
3800,22.179,0.72727,0,3.6097e-05,360.72,1.2626e-05,8.5887,1.1487e-05,0.02953,-3.5943e-05,-356.34,2.018
3801,22.179,0.90909,0,3.631e-05,362.85,1.2448e-05,5.6036,1.1706e-05,0.022791,-3.6211e-05,-360.01,2.0181
3802,22.179,1.0909,0,3.6537e-05,365.12,1.2203e-05,1.7014,1.1967e-05,-0.068966,-3.6509e-05,-364.3,2.0182
3803,22.179,1.2727,0,3.677e-05,367.44,1.231e-05,0.13392,1.1848e-05,-3.3409,-3.6823e-05,-369.04,2.0182
3804,22.179,1.4545,0,3.7003e-05,369.77,1.265e-05,0.094858,1.1471e-05,-8.7661,-3.7142e-05,-374.03,2.0183
3805,22.179,1.6364,0,3.7233e-05,372.07,1.3009e-05,0.085057,1.1057e-05,-14.578,-3.7458e-05,-379.1,2.0183
3806,22.179,1.8182,0,3.7457e-05,374.32,1.3367e-05,0.080546,1.0633e-05,-20.46,-3.7762e-05,-384.08,2.0184
3807,22.179,2,0,3.7672e-05,376.46,1.3709e-05,0.078006,1.0223e-05,-26.113,-3.8046e-05,-388.79,2.0184
3808,22.179,2.1818,0,3.787e-05,378.44,1.402e-05,0.076544,9.8492e-06,-31.26,-3.8303e-05,-393.06,2.0185
3809,22.179,2.3636,0,3.8045e-05,380.19,1.4286e-05,0.075794,9.5295e-06,-35.662,-3.8524e-05,-396.72,2.0185
3810,22.179,2.5455,0,3.8187e-05,381.6,1.4496e-05,0.0755,9.2787e-06,-39.126,-3.87e-05,-399.62,2.0185
3811,22.179,2.7273,0,3.8287e-05,382.61,1.4641e-05,0.075456,9.1065e-06,-41.511,-3.8822e-05,-401.63,2.0185
3812,22.179,2.9091,0,3.834e-05,383.13,1.4715e-05,0.075483,9.019e-06,-42.725,-3.8885e-05,-402.66,2.0185
3813,22.179,3.0909,0,3.834e-05,383.13,1.4715e-05,0.075481,9.019e-06,-42.725,-3.8885e-05,-402.66,2.0185
3814,22.179,3.2727,0,3.8287e-05,382.61,1.4641e-05,0.075456,9.1065e-06,-41.511,-3.8822e-05,-401.63,2.0185
3815,22.179,3.4545,0,3.8187e-05,381.6,1.4496e-05,0.075499,9.2787e-06,-39.126,-3.87e-05,-399.62,2.0185
3816,22.179,3.6364,0,3.8045e-05,380.19,1.4286e-05,0.075793,9.5295e-06,-35.662,-3.8524e-05,-396.72,2.0185
3817,22.179,3.8182,0,3.787e-05,378.44,1.402e-05,0.076545,9.8492e-06,-31.26,-3.8303e-05,-393.06,2.0185
3818,22.179,4,0,3.7672e-05,376.46,1.3709e-05,0.078007,1.0223e-05,-26.113,-3.8046e-05,-388.79,2.0184
3819,22.179,4.1818,0,3.7457e-05,374.32,1.3367e-05,0.080546,1.0633e-05,-20.46,-3.7762e-05,-384.08,2.0184
3820,22.179,4.3636,0,3.7233e-05,372.07,1.3009e-05,0.085056,1.1057e-05,-14.578,-3.7458e-05,-379.1,2.0183
3821,22.179,4.5455,0,3.7003e-05,369.77,1.265e-05,0.094858,1.1471e-05,-8.7661,-3.7142e-05,-374.03,2.0183
3822,22.179,4.7273,0,3.677e-05,367.44,1.231e-05,0.13392,1.1848e-05,-3.3408,-3.6823e-05,-369.04,2.0182
3823,22.179,4.9091,0,3.6537e-05,365.12,1.2203e-05,1.7014,1.1967e-05,-0.068961,-3.6509e-05,-364.3,2.0182
3824,22.179,5.0909,0,3.631e-05,362.85,1.2448e-05,5.6036,1.1706e-05,0.02279,-3.6211e-05,-360.01,2.0181
3825,22.179,5.2727,0,3.6097e-05,360.72,1.2626e-05,8.5887,1.1487e-05,0.029529,-3.5943e-05,-356.34,2.018
3826,22.179,5.4545,0,3.5912e-05,358.87,1.2724e-05,10.51,1.1329e-05,0.025585,-3.5721e-05,-353.49,2.0179
3827,22.179,5.6364,0,3.578e-05,357.55,1.2756e-05,11.409,1.1237e-05,-0.0024846,-3.5572e-05,-351.71,2.0178
3828,22.179,5.8182,0,3.5876e-05,358.51,1.2869e-05,12.38,1.122e-05,-0.0054885,-3.565e-05,-352.17,2.0177
3829,22.362,0.18182,0,3.268e-05,326.57,1.1852e-05,12.851,1.0141e-05,-0.0092523,-3.2442e-05,-319.96,2.0439
3830,22.362,0.36364,0,3.258e-05,325.58,1.1788e-05,12.474,1.0127e-05,-0.0048599,-3.235e-05,-319.16,2.044
3831,22.362,0.54545,0,3.2709e-05,326.87,1.1825e-05,12.423,1.0175e-05,0.028029,-3.248e-05,-320.47,2.0441
3832,22.362,0.72727,0,3.2885e-05,328.62,1.1809e-05,11.534,1.0279e-05,0.036405,-3.2673e-05,-322.68,2.0441
3833,22.362,0.90909,0,3.3075e-05,330.53,1.172e-05,9.7025,1.0434e-05,0.040857,-3.2899e-05,-325.55,2.0442
3834,22.362,1.0909,0,3.3266e-05,332.43,1.1555e-05,6.9536,1.0635e-05,0.036195,-3.3142e-05,-328.88,2.0443
3835,22.362,1.2727,0,3.3448e-05,334.25,1.1322e-05,3.4158,1.0869e-05,0.0056694,-3.3388e-05,-332.52,2.0444
3836,22.362,1.4545,0,3.3617e-05,335.93,1.1167e-05,0.26179,1.0993e-05,-1.0447,-3.363e-05,-336.32,2.0444
3837,22.362,1.6364,0,3.3772e-05,337.48,1.1425e-05,0.10866,1.0678e-05,-5.5046,-3.386e-05,-340.15,2.0445
3838,22.362,1.8182,0,3.3913e-05,338.9,1.1703e-05,0.090667,1.0326e-05,-10.253,-3.4074e-05,-343.86,2.0445
3839,22.362,2,0,3.4042e-05,340.18,1.1971e-05,0.083727,9.9762e-06,-14.903,-3.4269e-05,-347.35,2.0446
3840,22.362,2.1818,0,3.4157e-05,341.33,1.2216e-05,0.080088,9.6502e-06,-19.197,-3.4441e-05,-350.48,2.0446
3841,22.362,2.3636,0,3.4255e-05,342.31,1.2426e-05,0.077974,9.3668e-06,-22.91,-3.4585e-05,-353.15,2.0446
3842,22.362,2.5455,0,3.4334e-05,343.1,1.2593e-05,0.076746,9.1414e-06,-25.859,-3.4699e-05,-355.26,2.0446
3843,22.362,2.7273,0,3.4389e-05,343.65,1.2709e-05,0.076075,8.985e-06,-27.902,-3.4777e-05,-356.71,2.0446
3844,22.362,2.9091,0,3.4418e-05,343.94,1.2768e-05,0.075789,8.9051e-06,-28.946,-3.4817e-05,-357.46,2.0446
3845,22.362,3.0909,0,3.4418e-05,343.94,1.2768e-05,0.075788,8.9051e-06,-28.946,-3.4817e-05,-357.46,2.0446
3846,22.362,3.2727,0,3.4389e-05,343.65,1.2709e-05,0.076078,8.985e-06,-27.902,-3.4777e-05,-356.71,2.0446
3847,22.362,3.4545,0,3.4334e-05,343.1,1.2593e-05,0.076745,9.1414e-06,-25.859,-3.4699e-05,-355.26,2.0446
3848,22.362,3.6364,0,3.4255e-05,342.31,1.2426e-05,0.077976,9.3668e-06,-22.91,-3.4585e-05,-353.15,2.0446
3849,22.362,3.8182,0,3.4157e-05,341.33,1.2216e-05,0.080087,9.6502e-06,-19.197,-3.4441e-05,-350.48,2.0446
3850,22.362,4,0,3.4042e-05,340.18,1.1971e-05,0.083729,9.9762e-06,-14.903,-3.4269e-05,-347.35,2.0446
3851,22.362,4.1818,0,3.3913e-05,338.9,1.1703e-05,0.090666,1.0326e-05,-10.253,-3.4074e-05,-343.86,2.0445
3852,22.362,4.3636,0,3.3772e-05,337.48,1.1425e-05,0.10866,1.0678e-05,-5.5045,-3.386e-05,-340.15,2.0445
3853,22.362,4.5455,0,3.3617e-05,335.93,1.1167e-05,0.26179,1.0993e-05,-1.0447,-3.363e-05,-336.32,2.0444
3854,22.362,4.7273,0,3.3448e-05,334.25,1.1322e-05,3.4159,1.0869e-05,0.0056683,-3.3388e-05,-332.52,2.0444
3855,22.362,4.9091,0,3.3266e-05,332.43,1.1555e-05,6.9536,1.0635e-05,0.036195,-3.3142e-05,-328.88,2.0443
3856,22.362,5.0909,0,3.3075e-05,330.52,1.172e-05,9.7026,1.0434e-05,0.040854,-3.2899e-05,-325.55,2.0442
3857,22.362,5.2727,0,3.2885e-05,328.62,1.1809e-05,11.534,1.0279e-05,0.036404,-3.2673e-05,-322.68,2.0441
3858,22.362,5.4545,0,3.2709e-05,326.87,1.1825e-05,12.423,1.0175e-05,0.028027,-3.248e-05,-320.47,2.0441
3859,22.362,5.6364,0,3.258e-05,325.58,1.1788e-05,12.474,1.0127e-05,-0.0048581,-3.235e-05,-319.16,2.044
3860,22.362,5.8182,0,3.268e-05,326.57,1.1852e-05,12.851,1.0141e-05,-0.0092526,-3.2442e-05,-319.96,2.0439
3861,22.544,0.18182,0,2.9358e-05,293.38,1.0809e-05,13.5,9.0105e-06,-0.014479,-2.9105e-05,-286.4,2.07
3862,22.544,0.36364,0,2.9276e-05,292.56,1.0811e-05,13.86,8.9656e-06,-0.0081232,-2.9016e-05,-285.38,2.0701
3863,22.544,0.54545,0,2.9425e-05,294.05,1.0933e-05,14.764,8.9724e-06,0.030223,-2.9146e-05,-286.38,2.0702
3864,22.544,0.72727,0,2.9614e-05,295.93,1.1012e-05,14.966,9.0254e-06,0.041257,-2.933e-05,-288.15,2.0703
3865,22.544,0.90909,0,2.9806e-05,297.86,1.102e-05,14.3,9.1234e-06,0.049492,-2.9537e-05,-290.43,2.0704
3866,22.544,1.0909,0,2.9985e-05,299.64,1.0951e-05,12.746,9.2613e-06,0.052421,-2.9747e-05,-293.04,2.0705
3867,22.544,1.2727,0,3.014e-05,301.19,1.0806e-05,10.377,9.432e-06,0.051498,-2.9949e-05,-295.84,2.0705
3868,22.544,1.4545,0,3.0269e-05,302.48,1.0598e-05,7.3443,9.6266e-06,0.04496,-3.0137e-05,-298.72,2.0706
3869,22.544,1.6364,0,3.0375e-05,303.54,1.0344e-05,3.8597,9.8337e-06,0.021758,-3.0307e-05,-301.58,2.0706
3870,22.544,1.8182,0,3.046e-05,304.39,1.0111e-05,0.49551,9.997e-06,-0.36124,-3.0457e-05,-304.32,2.0707
3871,22.544,2,0,3.0529e-05,305.08,1.0268e-05,0.1173,9.7563e-06,-3.7311,-3.0588e-05,-306.86,2.0707
3872,22.544,2.1818,0,3.0584e-05,305.63,1.0456e-05,0.093478,9.4822e-06,-7.2262,-3.0699e-05,-309.13,2.0707
3873,22.544,2.3636,0,3.0629e-05,306.08,1.062e-05,0.085444,9.2382e-06,-10.3,-3.0789e-05,-311.05,2.0708
3874,22.544,2.5455,0,3.0663e-05,306.41,1.0751e-05,0.081623,9.0412e-06,-12.766,-3.0858e-05,-312.56,2.0708
3875,22.544,2.7273,0,3.0686e-05,306.65,1.0842e-05,0.079665,8.9033e-06,-14.487,-3.0905e-05,-313.59,2.0708
3876,22.544,2.9091,0,3.0698e-05,306.76,1.0889e-05,0.078819,8.8323e-06,-15.371,-3.0929e-05,-314.12,2.0708
3877,22.544,3.0909,0,3.0698e-05,306.76,1.0889e-05,0.078817,8.8323e-06,-15.371,-3.0929e-05,-314.12,2.0708
3878,22.544,3.2727,0,3.0686e-05,306.65,1.0842e-05,0.079666,8.9033e-06,-14.487,-3.0905e-05,-313.59,2.0708
3879,22.544,3.4545,0,3.0663e-05,306.41,1.0751e-05,0.081621,9.0412e-06,-12.766,-3.0858e-05,-312.56,2.0708
3880,22.544,3.6364,0,3.0629e-05,306.08,1.062e-05,0.085445,9.2382e-06,-10.3,-3.0789e-05,-311.05,2.0708
3881,22.544,3.8182,0,3.0584e-05,305.63,1.0456e-05,0.093477,9.4822e-06,-7.2262,-3.0699e-05,-309.13,2.0707
3882,22.544,4,0,3.0529e-05,305.08,1.0268e-05,0.11729,9.7563e-06,-3.7311,-3.0588e-05,-306.86,2.0707
3883,22.544,4.1818,0,3.046e-05,304.39,1.0111e-05,0.49552,9.997e-06,-0.36122,-3.0457e-05,-304.32,2.0707
3884,22.544,4.3636,0,3.0375e-05,303.54,1.0344e-05,3.8597,9.8337e-06,0.021759,-3.0307e-05,-301.58,2.0706
3885,22.544,4.5455,0,3.0269e-05,302.48,1.0598e-05,7.3443,9.6266e-06,0.04496,-3.0137e-05,-298.72,2.0706
3886,22.544,4.7273,0,3.014e-05,301.19,1.0806e-05,10.377,9.432e-06,0.0515,-2.9949e-05,-295.84,2.0705
3887,22.544,4.9091,0,2.9985e-05,299.64,1.0951e-05,12.746,9.2613e-06,0.052419,-2.9747e-05,-293.04,2.0705
3888,22.544,5.0909,0,2.9806e-05,297.86,1.102e-05,14.3,9.1234e-06,0.049491,-2.9537e-05,-290.43,2.0704
3889,22.544,5.2727,0,2.9614e-05,295.93,1.1012e-05,14.966,9.0254e-06,0.041257,-2.933e-05,-288.15,2.0703
3890,22.544,5.4545,0,2.9425e-05,294.05,1.0933e-05,14.764,8.9724e-06,0.030223,-2.9146e-05,-286.38,2.0702
3891,22.544,5.6364,0,2.9276e-05,292.56,1.0811e-05,13.86,8.9656e-06,-0.0081213,-2.9015e-05,-285.38,2.0701
3892,22.544,5.8182,0,2.9358e-05,293.38,1.0809e-05,13.5,9.0105e-06,-0.014477,-2.9105e-05,-286.4,2.07
3893,22.726,0.18182,0,2.5943e-05,259.25,9.7476e-06,14.303,7.8411e-06,-0.021456,-2.567e-05,-251.81,2.0962
3894,22.726,0.36364,0,2.59e-05,258.82,9.837e-06,15.57,7.7632e-06,-0.011603,-2.56e-05,-250.69,2.0963
3895,22.726,0.54545,0,2.6093e-05,260.75,1.0061e-05,17.555,7.7292e-06,0.033498,-2.5749e-05,-251.51,2.0964
3896,22.726,0.72727,0,2.6317e-05,262.98,1.0246e-05,18.917,7.7346e-06,0.046701,-2.5943e-05,-252.99,2.0965
3897,22.726,0.90909,0,2.6531e-05,265.13,1.0358e-05,19.43,7.78e-06,0.057123,-2.6146e-05,-254.85,2.0966
3898,22.726,1.0909,0,2.6716e-05,266.97,1.0387e-05,19.035,7.8619e-06,0.062406,-2.634e-05,-256.92,2.0967
3899,22.726,1.2727,0,2.6863e-05,268.44,1.0333e-05,17.783,7.9748e-06,0.065189,-2.6515e-05,-259.08,2.0967
3900,22.726,1.4545,0,2.6971e-05,269.53,1.0207e-05,15.81,8.1116e-06,0.066119,-2.6667e-05,-261.24,2.0968
3901,22.726,1.6364,0,2.7046e-05,270.27,1.0025e-05,13.299,8.264e-06,0.065847,-2.6794e-05,-263.35,2.0968
3902,22.726,1.8182,0,2.7094e-05,270.75,9.8073e-06,10.465,8.4231e-06,0.064644,-2.69e-05,-265.34,2.0969
3903,22.726,2,0,2.7122e-05,271.03,9.5738e-06,7.5309,8.5798e-06,0.06246,-2.6985e-05,-267.16,2.0969
3904,22.726,2.1818,0,2.7136e-05,271.18,9.3449e-06,4.7128,8.7254e-06,0.058412,-2.7052e-05,-268.76,2.0969
3905,22.726,2.3636,0,2.7143e-05,271.24,9.1394e-06,2.2114,8.8513e-06,0.047402,-2.7104e-05,-270.11,2.097
3906,22.726,2.5455,0,2.7145e-05,271.26,8.9894e-06,0.3194,8.9339e-06,-0.097162,-2.7141e-05,-271.15,2.097
3907,22.726,2.7273,0,2.7145e-05,271.27,9.0306e-06,0.096017,8.8441e-06,-1.3053,-2.7166e-05,-271.87,2.097
3908,22.726,2.9091,0,2.7145e-05,271.27,9.0656e-06,0.085391,8.7837e-06,-2.0328,-2.7178e-05,-272.23,2.097
3909,22.726,3.0909,0,2.7145e-05,271.27,9.0656e-06,0.085392,8.7837e-06,-2.0328,-2.7178e-05,-272.23,2.097
3910,22.726,3.2727,0,2.7145e-05,271.27,9.0306e-06,0.096018,8.8441e-06,-1.3053,-2.7166e-05,-271.87,2.097
3911,22.726,3.4545,0,2.7145e-05,271.26,8.9894e-06,0.31941,8.9339e-06,-0.097161,-2.7141e-05,-271.15,2.097
3912,22.726,3.6364,0,2.7143e-05,271.24,9.1394e-06,2.2114,8.8513e-06,0.047403,-2.7104e-05,-270.11,2.097
3913,22.726,3.8182,0,2.7136e-05,271.18,9.3449e-06,4.7128,8.7254e-06,0.05841,-2.7052e-05,-268.76,2.0969
3914,22.726,4,0,2.7122e-05,271.03,9.5738e-06,7.5309,8.5798e-06,0.06246,-2.6985e-05,-267.16,2.0969
3915,22.726,4.1818,0,2.7094e-05,270.75,9.8073e-06,10.465,8.423e-06,0.064642,-2.69e-05,-265.34,2.0969
3916,22.726,4.3636,0,2.7046e-05,270.27,1.0025e-05,13.299,8.2639e-06,0.065846,-2.6794e-05,-263.35,2.0968
3917,22.726,4.5455,0,2.6971e-05,269.53,1.0207e-05,15.81,8.1116e-06,0.066119,-2.6667e-05,-261.24,2.0968
3918,22.726,4.7273,0,2.6863e-05,268.44,1.0333e-05,17.783,7.9748e-06,0.065187,-2.6515e-05,-259.08,2.0967
3919,22.726,4.9091,0,2.6716e-05,266.97,1.0387e-05,19.035,7.8619e-06,0.062405,-2.634e-05,-256.92,2.0967
3920,22.726,5.0909,0,2.6531e-05,265.13,1.0358e-05,19.43,7.78e-06,0.057122,-2.6146e-05,-254.85,2.0966
3921,22.726,5.2727,0,2.6317e-05,262.98,1.0246e-05,18.917,7.7346e-06,0.046702,-2.5943e-05,-252.99,2.0965
3922,22.726,5.4545,0,2.6093e-05,260.75,1.0061e-05,17.555,7.7292e-06,0.0335,-2.5749e-05,-251.51,2.0964
3923,22.726,5.6364,0,2.59e-05,258.82,9.837e-06,15.57,7.7632e-06,-0.0116,-2.56e-05,-250.69,2.0963
3924,22.726,5.8182,0,2.5943e-05,259.25,9.7476e-06,14.303,7.8411e-06,-0.021457,-2.567e-05,-251.81,2.0962
3925,22.908,0.18182,0,2.2461e-05,224.46,8.6742e-06,15.24,6.6419e-06,-0.030067,-2.2163e-05,-216.46,2.1225
3926,22.908,0.36364,0,2.2483e-05,224.67,8.8754e-06,17.624,6.528e-06,-0.013901,-2.2131e-05,-215.35,2.1225
3927,22.908,0.54545,0,2.2743e-05,227.27,9.2215e-06,20.846,6.4523e-06,0.039777,-2.2316e-05,-216.12,2.1226
3928,22.908,0.72727,0,2.3024e-05,230.08,9.525e-06,23.45,6.4114e-06,0.055119,-2.2535e-05,-217.43,2.1227
3929,22.908,0.90909,0,2.3278e-05,232.62,9.7462e-06,25.15,6.4079e-06,0.067305,-2.2747e-05,-218.99,2.1228
3930,22.908,1.0909,0,2.3484e-05,234.68,9.8722e-06,25.866,6.4394e-06,0.073849,-2.2936e-05,-220.64,2.1229
3931,22.908,1.2727,0,2.3636e-05,236.2,9.9048e-06,25.649,6.5015e-06,0.077956,-2.3094e-05,-222.29,2.1229
3932,22.908,1.4545,0,2.3737e-05,237.2,9.8559e-06,24.633,6.5882e-06,0.080428,-2.3221e-05,-223.89,2.123
3933,22.908,1.6364,0,2.3794e-05,237.78,9.7427e-06,23.002,6.6922e-06,0.0821,-2.3318e-05,-225.41,2.123
3934,22.908,1.8182,0,2.3818e-05,238.02,9.5849e-06,20.966,6.8057e-06,0.083466,-2.3391e-05,-226.8,2.1231
3935,22.908,2,0,2.3819e-05,238.02,9.4034e-06,18.737,6.921e-06,0.084888,-2.3443e-05,-228.06,2.1231
3936,22.908,2.1818,0,2.3805e-05,237.88,9.2177e-06,16.521,7.0304e-06,0.086607,-2.348e-05,-229.15,2.1231
3937,22.908,2.3636,0,2.3785e-05,237.69,9.0459e-06,14.505,7.1271e-06,0.088699,-2.3504e-05,-230.06,2.1231
3938,22.908,2.5455,0,2.3765e-05,237.49,8.903e-06,12.847,7.2053e-06,0.091012,-2.3519e-05,-230.76,2.1232
3939,22.908,2.7273,0,2.375e-05,237.33,8.8009e-06,11.67,7.2601e-06,0.093128,-2.3528e-05,-231.24,2.1232
3940,22.908,2.9091,0,2.3741e-05,237.25,8.7478e-06,11.06,7.2884e-06,0.094433,-2.3532e-05,-231.48,2.1232
3941,22.908,3.0909,0,2.3741e-05,237.25,8.7478e-06,11.06,7.2884e-06,0.094431,-2.3532e-05,-231.48,2.1232
3942,22.908,3.2727,0,2.375e-05,237.33,8.8009e-06,11.67,7.2601e-06,0.093129,-2.3528e-05,-231.24,2.1232
3943,22.908,3.4545,0,2.3765e-05,237.49,8.903e-06,12.847,7.2053e-06,0.091014,-2.3519e-05,-230.76,2.1232
3944,22.908,3.6364,0,2.3785e-05,237.69,9.0459e-06,14.505,7.1271e-06,0.088694,-2.3504e-05,-230.06,2.1231
3945,22.908,3.8182,0,2.3805e-05,237.88,9.2177e-06,16.521,7.0304e-06,0.086612,-2.348e-05,-229.15,2.1231
3946,22.908,4,0,2.3819e-05,238.02,9.4034e-06,18.737,6.921e-06,0.084888,-2.3443e-05,-228.06,2.1231
3947,22.908,4.1818,0,2.3818e-05,238.02,9.585e-06,20.966,6.8057e-06,0.083467,-2.3391e-05,-226.8,2.1231
3948,22.908,4.3636,0,2.3794e-05,237.78,9.7427e-06,23.002,6.6922e-06,0.0821,-2.3318e-05,-225.41,2.123
3949,22.908,4.5455,0,2.3737e-05,237.2,9.8559e-06,24.633,6.5882e-06,0.080429,-2.3221e-05,-223.89,2.123
3950,22.908,4.7273,0,2.3636e-05,236.2,9.9048e-06,25.649,6.5015e-06,0.077954,-2.3094e-05,-222.29,2.1229
3951,22.908,4.9091,0,2.3484e-05,234.68,9.8722e-06,25.866,6.4394e-06,0.073848,-2.2936e-05,-220.64,2.1229
3952,22.908,5.0909,0,2.3278e-05,232.62,9.7463e-06,25.15,6.4079e-06,0.067305,-2.2747e-05,-218.99,2.1228
3953,22.908,5.2727,0,2.3024e-05,230.08,9.525e-06,23.45,6.4114e-06,0.055118,-2.2535e-05,-217.43,2.1227
3954,22.908,5.4545,0,2.2743e-05,227.27,9.2215e-06,20.846,6.4523e-06,0.039778,-2.2316e-05,-216.12,2.1226
3955,22.908,5.6364,0,2.2483e-05,224.67,8.8754e-06,17.624,6.528e-06,-0.013896,-2.2131e-05,-215.35,2.1225
3956,22.908,5.8182,0,2.2461e-05,224.46,8.6742e-06,15.24,6.6419e-06,-0.030067,-2.2163e-05,-216.46,2.1225
3957,23.09,0.18182,0,1.8935e-05,189.22,7.5946e-06,16.294,5.4203e-06,-0.042402,-1.8605e-05,-180.56,2.1487
3958,23.09,0.36364,0,1.9054e-05,190.41,7.9396e-06,20.074,5.2658e-06,-0.015795,-1.8633e-05,-179.58,2.1488
3959,23.09,0.54545,0,1.9411e-05,193.98,8.4304e-06,24.728,5.1458e-06,0.048624,-1.8871e-05,-180.41,2.1489
3960,23.09,0.72727,0,1.977e-05,197.56,8.8641e-06,28.66,5.0585e-06,0.066146,-1.9125e-05,-181.64,2.1489
3961,23.09,0.90909,0,2.0078e-05,200.64,9.196e-06,31.542,5.0087e-06,0.08004,-1.9354e-05,-182.97,2.149
3962,23.09,1.0909,0,2.0316e-05,203.02,9.4151e-06,33.303,4.9944e-06,0.08751,-1.9543e-05,-184.28,2.1491
3963,23.09,1.2727,0,2.0483e-05,204.69,9.5272e-06,34.017,5.0121e-06,0.092411,-1.9691e-05,-185.51,2.1491
3964,23.09,1.4545,0,2.0585e-05,205.71,9.5471e-06,33.841,5.0559e-06,0.095584,-1.9799e-05,-186.65,2.1492
3965,23.09,1.6364,0,2.0634e-05,206.2,9.4941e-06,32.969,5.1193e-06,0.097877,-1.9874e-05,-187.69,2.1492
3966,23.09,1.8182,0,2.0644e-05,206.3,9.3892e-06,31.613,5.195e-06,0.099736,-1.9923e-05,-188.63,2.1493
3967,23.09,2,0,2.0627e-05,206.12,9.2534e-06,29.986,5.276e-06,0.10144,-1.9951e-05,-189.45,2.1493
3968,23.09,2.1818,0,2.0594e-05,205.8,9.1065e-06,28.287,5.3554e-06,0.10312,-1.9966e-05,-190.15,2.1493
3969,23.09,2.3636,0,2.0556e-05,205.42,8.966e-06,26.695,5.4271e-06,0.10477,-1.997e-05,-190.72,2.1494
3970,23.09,2.5455,0,2.0521e-05,205.06,8.847e-06,25.361,5.4858e-06,0.10629,-1.997e-05,-191.16,2.1494
3971,23.09,2.7273,0,2.0494e-05,204.8,8.761e-06,24.404,5.5273e-06,0.10749,-1.9968e-05,-191.46,2.1494
3972,23.09,2.9091,0,2.048e-05,204.65,8.716e-06,23.905,5.5488e-06,0.10815,-1.9967e-05,-191.61,2.1494
3973,23.09,3.0909,0,2.048e-05,204.65,8.716e-06,23.905,5.5488e-06,0.10815,-1.9967e-05,-191.61,2.1494
3974,23.09,3.2727,0,2.0494e-05,204.8,8.761e-06,24.404,5.5273e-06,0.10749,-1.9968e-05,-191.46,2.1494
3975,23.09,3.4545,0,2.0521e-05,205.06,8.847e-06,25.361,5.4858e-06,0.10629,-1.997e-05,-191.16,2.1494
3976,23.09,3.6364,0,2.0556e-05,205.42,8.966e-06,26.695,5.4271e-06,0.10477,-1.997e-05,-190.72,2.1494
3977,23.09,3.8182,0,2.0594e-05,205.8,9.1065e-06,28.287,5.3554e-06,0.10311,-1.9965e-05,-190.15,2.1493
3978,23.09,4,0,2.0627e-05,206.12,9.2534e-06,29.986,5.276e-06,0.10144,-1.9951e-05,-189.45,2.1493
3979,23.09,4.1818,0,2.0644e-05,206.3,9.3892e-06,31.613,5.195e-06,0.099734,-1.9923e-05,-188.63,2.1493
3980,23.09,4.3636,0,2.0634e-05,206.2,9.4941e-06,32.969,5.1193e-06,0.097877,-1.9874e-05,-187.69,2.1492
3981,23.09,4.5455,0,2.0585e-05,205.71,9.5471e-06,33.841,5.0559e-06,0.095585,-1.9799e-05,-186.65,2.1492
3982,23.09,4.7273,0,2.0483e-05,204.69,9.5272e-06,34.017,5.0121e-06,0.092409,-1.9691e-05,-185.51,2.1491
3983,23.09,4.9091,0,2.0316e-05,203.02,9.4151e-06,33.303,4.9944e-06,0.087509,-1.9543e-05,-184.28,2.1491
3984,23.09,5.0909,0,2.0078e-05,200.64,9.196e-06,31.542,5.0087e-06,0.080039,-1.9354e-05,-182.97,2.149
3985,23.09,5.2727,0,1.977e-05,197.56,8.8641e-06,28.66,5.0585e-06,0.066144,-1.9125e-05,-181.64,2.1489
3986,23.09,5.4545,0,1.9411e-05,193.98,8.4304e-06,24.728,5.1458e-06,0.048621,-1.8871e-05,-180.41,2.1489
3987,23.09,5.6364,0,1.9054e-05,190.41,7.9396e-06,20.074,5.2658e-06,-0.015792,-1.8633e-05,-179.58,2.1488
3988,23.09,5.8182,0,1.8935e-05,189.22,7.5946e-06,16.294,5.4203e-06,-0.0424,-1.8605e-05,-180.56,2.1487
3989,23.272,0.18182,0,1.5387e-05,153.76,6.515e-06,17.466,4.1834e-06,-0.052359,-1.5016e-05,-144.31,2.1749
3990,23.272,0.36364,0,1.5651e-05,156.4,7.0479e-06,23.037,3.981e-06,-0.006622,-1.5131e-05,-143.61,2.175
3991,23.272,0.54545,0,1.6141e-05,161.3,7.7099e-06,29.361,3.8118e-06,0.072525,-1.5439e-05,-144.57,2.1751
3992,23.272,0.72727,0,1.6599e-05,165.88,8.2818e-06,34.692,3.6769e-06,0.092504,-1.5734e-05,-145.76,2.1752
3993,23.272,0.90909,0,1.6973e-05,169.62,8.7208e-06,38.714,3.5827e-06,0.10823,-1.598e-05,-146.88,2.1752
3994,23.272,1.0909,0,1.7251e-05,172.39,9.0241e-06,41.419,3.5271e-06,0.11663,-1.6169e-05,-147.87,2.1753
3995,23.272,1.2727,0,1.7438e-05,174.26,9.2047e-06,42.938,3.5062e-06,0.12225,-1.6307e-05,-148.74,2.1754
3996,23.272,1.4545,0,1.7548e-05,175.36,9.2824e-06,43.467,3.514e-06,0.12597,-1.64e-05,-149.5,2.1754
3997,23.272,1.6364,0,1.7596e-05,175.84,9.2796e-06,43.223,3.544e-06,0.12868,-1.6457e-05,-150.15,2.1755
3998,23.272,1.8182,0,1.7598e-05,175.86,9.2185e-06,42.427,3.5892e-06,0.1308,-1.6488e-05,-150.72,2.1755
3999,23.272,2,0,1.7569e-05,175.57,9.1208e-06,41.292,3.6428e-06,0.1326,-1.6499e-05,-151.2,2.1755
4000,23.272,2.1818,0,1.7524e-05,175.12,9.0062e-06,40.014,3.6985e-06,0.1342,-1.6497e-05,-151.61,2.1756
4001,23.272,2.3636,0,1.7474e-05,174.62,8.8922e-06,38.768,3.7505e-06,0.13563,-1.6488e-05,-151.93,2.1756
4002,23.272,2.5455,0,1.7428e-05,174.16,8.7933e-06,37.7,3.7939e-06,0.13684,-1.6477e-05,-152.17,2.1756
4003,23.272,2.7273,0,1.7393e-05,173.81,8.7209e-06,36.923,3.8251e-06,0.13773,-1.6468e-05,-152.34,2.1756
4004,23.272,2.9091,0,1.7375e-05,173.63,8.6828e-06,36.515,3.8413e-06,0.1382,-1.6463e-05,-152.42,2.1756
4005,23.272,3.0909,0,1.7375e-05,173.63,8.6828e-06,36.515,3.8413e-06,0.1382,-1.6463e-05,-152.42,2.1756
4006,23.272,3.2727,0,1.7393e-05,173.81,8.7209e-06,36.923,3.8251e-06,0.13773,-1.6468e-05,-152.34,2.1756
4007,23.272,3.4545,0,1.7428e-05,174.16,8.7933e-06,37.7,3.7939e-06,0.13684,-1.6477e-05,-152.17,2.1756
4008,23.272,3.6364,0,1.7474e-05,174.62,8.8922e-06,38.768,3.7505e-06,0.13563,-1.6488e-05,-151.93,2.1756
4009,23.272,3.8182,0,1.7524e-05,175.12,9.0062e-06,40.014,3.6985e-06,0.1342,-1.6497e-05,-151.61,2.1756
4010,23.272,4,0,1.7569e-05,175.57,9.1208e-06,41.292,3.6428e-06,0.13259,-1.6499e-05,-151.2,2.1755
4011,23.272,4.1818,0,1.7598e-05,175.86,9.2185e-06,42.427,3.5892e-06,0.13079,-1.6488e-05,-150.72,2.1755
4012,23.272,4.3636,0,1.7596e-05,175.84,9.2796e-06,43.223,3.544e-06,0.12867,-1.6457e-05,-150.15,2.1755
4013,23.272,4.5455,0,1.7548e-05,175.36,9.2824e-06,43.467,3.514e-06,0.12596,-1.64e-05,-149.5,2.1754
4014,23.272,4.7273,0,1.7438e-05,174.26,9.2047e-06,42.938,3.5062e-06,0.12225,-1.6307e-05,-148.74,2.1754
4015,23.272,4.9091,0,1.7251e-05,172.39,9.0241e-06,41.419,3.5271e-06,0.11663,-1.6169e-05,-147.87,2.1753
4016,23.272,5.0909,0,1.6973e-05,169.62,8.7208e-06,38.714,3.5827e-06,0.10823,-1.598e-05,-146.88,2.1752
4017,23.272,5.2727,0,1.6599e-05,165.88,8.2818e-06,34.692,3.6769e-06,0.092503,-1.5734e-05,-145.76,2.1752
4018,23.272,5.4545,0,1.6141e-05,161.3,7.7099e-06,29.361,3.8118e-06,0.072525,-1.5439e-05,-144.57,2.1751
4019,23.272,5.6364,0,1.5651e-05,156.4,7.0479e-06,23.037,3.981e-06,-0.0066201,-1.5131e-05,-143.61,2.175
4020,23.272,5.8182,0,1.5387e-05,153.76,6.515e-06,17.466,4.1834e-06,-0.052358,-1.5016e-05,-144.31,2.1749
4021,23.454,0.18182,0,1.1846e-05,118.38,5.4455e-06,18.785,2.9342e-06,-0.084829,-1.1414e-05,-107.89,2.2012
4022,23.454,0.36364,0,1.2332e-05,123.23,6.2318e-06,26.739,2.6714e-06,-0.012345,-1.1657e-05,-107.67,2.2013
4023,23.454,0.54545,0,1.2998e-05,129.89,7.0912e-06,34.989,2.4453e-06,0.081478,-1.2045e-05,-108.79,2.2013
4024,23.454,0.72727,0,1.3575e-05,135.66,7.7996e-06,41.719,2.2611e-06,0.10539,-1.2376e-05,-109.87,2.2014
4025,23.454,0.90909,0,1.4023e-05,140.13,8.3329e-06,46.769,2.1247e-06,0.12321,-1.263e-05,-110.74,2.2015
4026,23.454,1.0909,0,1.4345e-05,143.35,8.7051e-06,50.267,2.0326e-06,0.13263,-1.2814e-05,-111.42,2.2015
4027,23.454,1.2727,0,1.4557e-05,145.47,8.9397e-06,52.437,1.9793e-06,0.13909,-1.2939e-05,-111.95,2.2016
4028,23.454,1.4545,0,1.4679e-05,146.69,9.0625e-06,53.523,1.9581e-06,0.14343,-1.3018e-05,-112.38,2.2017
4029,23.454,1.6364,0,1.4731e-05,147.21,9.0984e-06,53.769,1.9618e-06,0.1466,-1.3061e-05,-112.73,2.2017
4030,23.454,1.8182,0,1.4731e-05,147.2,9.0714e-06,53.406,1.9833e-06,0.14903,-1.3078e-05,-113.01,2.2017
4031,23.454,2,0,1.4696e-05,146.86,9.0035e-06,52.652,2.016e-06,0.15099,-1.3076e-05,-113.24,2.2018
4032,23.454,2.1818,0,1.4643e-05,146.33,8.9143e-06,51.701,2.0537e-06,0.15264,-1.3063e-05,-113.43,2.2018
4033,23.454,2.3636,0,1.4585e-05,145.75,8.8212e-06,50.723,2.0909e-06,0.15401,-1.3045e-05,-113.57,2.2018
4034,23.454,2.5455,0,1.4531e-05,145.21,8.7384e-06,49.861,2.1229e-06,0.1551,-1.3027e-05,-113.68,2.2018
4035,23.454,2.7273,0,1.4491e-05,144.81,8.677e-06,49.224,2.1464e-06,0.15587,-1.3013e-05,-113.75,2.2019
4036,23.454,2.9091,0,1.447e-05,144.6,8.6443e-06,48.887,2.1587e-06,0.15627,-1.3006e-05,-113.78,2.2019
4037,23.454,3.0909,0,1.447e-05,144.6,8.6443e-06,48.887,2.1587e-06,0.15627,-1.3006e-05,-113.78,2.2019
4038,23.454,3.2727,0,1.4491e-05,144.81,8.677e-06,49.224,2.1464e-06,0.15587,-1.3013e-05,-113.75,2.2019
4039,23.454,3.4545,0,1.4531e-05,145.21,8.7384e-06,49.861,2.1229e-06,0.1551,-1.3027e-05,-113.68,2.2018
4040,23.454,3.6364,0,1.4585e-05,145.75,8.8212e-06,50.723,2.0909e-06,0.15401,-1.3045e-05,-113.57,2.2018
4041,23.454,3.8182,0,1.4643e-05,146.33,8.9143e-06,51.701,2.0537e-06,0.15264,-1.3063e-05,-113.43,2.2018
4042,23.454,4,0,1.4696e-05,146.86,9.0035e-06,52.652,2.016e-06,0.15099,-1.3076e-05,-113.24,2.2018
4043,23.454,4.1818,0,1.4731e-05,147.2,9.0714e-06,53.406,1.9833e-06,0.14902,-1.3078e-05,-113.01,2.2017
4044,23.454,4.3636,0,1.4731e-05,147.21,9.0984e-06,53.769,1.9618e-06,0.1466,-1.3061e-05,-112.73,2.2017
4045,23.454,4.5455,0,1.4679e-05,146.69,9.0625e-06,53.523,1.9581e-06,0.14343,-1.3018e-05,-112.38,2.2017
4046,23.454,4.7273,0,1.4557e-05,145.47,8.9398e-06,52.437,1.9793e-06,0.13909,-1.2939e-05,-111.95,2.2016
4047,23.454,4.9091,0,1.4345e-05,143.35,8.7051e-06,50.267,2.0326e-06,0.13263,-1.2814e-05,-111.42,2.2015
4048,23.454,5.0909,0,1.4023e-05,140.13,8.3329e-06,46.769,2.1247e-06,0.12321,-1.263e-05,-110.74,2.2015
4049,23.454,5.2727,0,1.3575e-05,135.66,7.7996e-06,41.719,2.2611e-06,0.10539,-1.2376e-05,-109.87,2.2014
4050,23.454,5.4545,0,1.2998e-05,129.89,7.0912e-06,34.989,2.4453e-06,0.081481,-1.2045e-05,-108.79,2.2013
4051,23.454,5.6364,0,1.2332e-05,123.23,6.2318e-06,26.739,2.6714e-06,-0.012342,-1.1657e-05,-107.67,2.2013
4052,23.454,5.8182,0,1.1846e-05,118.38,5.4455e-06,18.785,2.9342e-06,-0.084828,-1.1414e-05,-107.89,2.2012
4053,23.636,0.18182,0,8.3738e-06,83.68,4.4099e-06,20.433,1.685e-06,-0.041205,-7.8367e-06,-71.584,2.2274
4054,23.636,0.36364,0,9.2227e-06,92.163,5.553e-06,31.745,1.3427e-06,0.11051,-8.2639e-06,-72.069,2.2275
4055,23.636,0.54545,0,1.011e-05,101.03,6.6162e-06,42.051,1.0522e-06,0.24571,-8.7188e-06,-73.17,2.2276
4056,23.636,0.72727,0,1.0814e-05,108.06,7.4379e-06,50.009,8.1834e-07,0.27238,-9.062e-06,-73.964,2.2277
4057,23.636,0.90909,0,1.1338e-05,113.3,8.0406e-06,55.867,6.4444e-07,0.29512,-9.3086e-06,-74.488,2.2277
4058,23.636,1.0909,0,1.1707e-05,116.99,8.4608e-06,59.954,5.2222e-07,0.30692,-9.479e-06,-74.838,2.2278
4059,23.636,1.2727,0,1.1949e-05,119.41,8.7325e-06,62.593,4.4376e-07,0.31506,-9.5902e-06,-75.076,2.2278
4060,23.636,1.4545,0,1.2088e-05,120.8,8.8861e-06,64.076,4.0075e-07,0.32043,-9.6558e-06,-75.241,2.2279
4061,23.636,1.6364,0,1.2148e-05,121.4,8.9492e-06,64.67,3.8532e-07,0.32423,-9.687e-06,-75.355,2.2279
4062,23.636,1.8182,0,1.2151e-05,121.42,8.9463e-06,64.615,3.9006e-07,0.32696,-9.6934e-06,-75.436,2.228
4063,23.636,2,0,1.2115e-05,121.07,8.8996e-06,64.131,4.0811e-07,0.32902,-9.6831e-06,-75.493,2.228
4064,23.636,2.1818,0,1.2058e-05,120.5,8.829e-06,63.412,4.3332e-07,0.33059,-9.6634e-06,-75.532,2.2281
4065,23.636,2.3636,0,1.1995e-05,119.87,8.7512e-06,62.626,4.603e-07,0.33181,-9.6402e-06,-75.56,2.2281
4066,23.636,2.5455,0,1.1937e-05,119.28,8.6802e-06,61.912,4.8459e-07,0.33271,-9.6185e-06,-75.578,2.2281
4067,23.636,2.7273,0,1.1893e-05,118.85,8.6268e-06,61.375,5.0275e-07,0.33333,-9.6019e-06,-75.589,2.2281
4068,23.636,2.9091,0,1.1869e-05,118.61,8.5983e-06,61.088,5.1243e-07,0.33364,-9.5929e-06,-75.594,2.2281
4069,23.636,3.0909,0,1.1869e-05,118.61,8.5983e-06,61.088,5.1243e-07,0.33364,-9.5929e-06,-75.594,2.2281
4070,23.636,3.2727,0,1.1893e-05,118.85,8.6268e-06,61.375,5.0275e-07,0.33333,-9.6019e-06,-75.589,2.2281
4071,23.636,3.4545,0,1.1937e-05,119.28,8.6802e-06,61.912,4.8459e-07,0.33272,-9.6185e-06,-75.578,2.2281
4072,23.636,3.6364,0,1.1995e-05,119.87,8.7512e-06,62.626,4.603e-07,0.33181,-9.6402e-06,-75.56,2.2281
4073,23.636,3.8182,0,1.2058e-05,120.5,8.829e-06,63.412,4.3332e-07,0.33059,-9.6634e-06,-75.532,2.2281
4074,23.636,4,0,1.2115e-05,121.07,8.8997e-06,64.131,4.0811e-07,0.32902,-9.6831e-06,-75.493,2.228
4075,23.636,4.1818,0,1.2151e-05,121.42,8.9463e-06,64.615,3.9006e-07,0.32696,-9.6934e-06,-75.436,2.228
4076,23.636,4.3636,0,1.2148e-05,121.4,8.9492e-06,64.67,3.8532e-07,0.32422,-9.687e-06,-75.355,2.2279
4077,23.636,4.5455,0,1.2088e-05,120.8,8.8862e-06,64.076,4.0074e-07,0.32043,-9.6558e-06,-75.241,2.2279
4078,23.636,4.7273,0,1.1949e-05,119.41,8.7325e-06,62.593,4.4375e-07,0.31506,-9.5902e-06,-75.076,2.2278
4079,23.636,4.9091,0,1.1707e-05,116.99,8.4608e-06,59.954,5.2222e-07,0.30692,-9.479e-06,-74.838,2.2278
4080,23.636,5.0909,0,1.1338e-05,113.3,8.0406e-06,55.867,6.4444e-07,0.29512,-9.3086e-06,-74.488,2.2277
4081,23.636,5.2727,0,1.0814e-05,108.06,7.4379e-06,50.009,8.1833e-07,0.27238,-9.062e-06,-73.964,2.2277
4082,23.636,5.4545,0,1.011e-05,101.03,6.6162e-06,42.051,1.0522e-06,0.24571,-8.7188e-06,-73.17,2.2276
4083,23.636,5.6364,0,9.2227e-06,92.163,5.553e-06,31.745,1.3427e-06,0.11051,-8.2639e-06,-72.069,2.2275
4084,23.636,5.8182,0,8.3738e-06,83.68,4.4099e-06,20.433,1.685e-06,-0.0412,-7.8367e-06,-71.584,2.2274
4085,23.818,0.18182,0,5.2226e-06,52.19,3.5575e-06,23.396,3.9283e-07,-0.38215,-4.4074e-06,-36.45,2.2537
4086,23.818,0.36364,0,6.61e-06,66.054,5.1329e-06,38.938,-6.4595e-08,-0.11388,-5.0174e-06,-37.327,2.2538
4087,23.818,0.54545,0,7.7113e-06,77.06,6.3339e-06,50.839,-4.2102e-07,0.084484,-5.4675e-06,-37.833,2.2538
4088,23.818,0.72727,0,8.531e-06,85.251,7.2155e-06,59.573,-6.9671e-07,0.12363,-5.784e-06,-38.101,2.2539
4089,23.818,0.90909,0,9.1257e-06,91.194,7.851e-06,65.899,-8.9848e-07,0.15897,-6.0051e-06,-38.21,2.254
4090,23.818,1.0909,0,9.5412e-06,95.346,8.2937e-06,70.318,-1.0413e-06,0.17868,-6.1551e-06,-38.245,2.254
4091,23.818,1.2727,0,9.8132e-06,98.065,8.5835e-06,73.221,-1.1359e-06,0.19281,-6.2508e-06,-38.239,2.2541
4092,23.818,1.4545,0,9.972e-06,99.651,8.7532e-06,74.929,-1.1922e-06,0.20251,-6.3049e-06,-38.212,2.2542
4093,23.818,1.6364,0,1.0044e-05,100.37,8.8311e-06,75.722,-1.2189e-06,0.20948,-6.3276e-06,-38.175,2.2542
4094,23.818,1.8182,0,1.0052e-05,100.45,8.8421e-06,75.846,-1.2239e-06,0.21449,-6.3278e-06,-38.134,2.2542
4095,23.818,2,0,1.0019e-05,100.12,8.8081e-06,75.521,-1.2141e-06,0.21812,-6.3132e-06,-38.095,2.2543
4096,23.818,2.1818,0,9.961e-06,99.541,8.7487e-06,74.94,-1.1958e-06,0.22076,-6.2905e-06,-38.059,2.2543
4097,23.818,2.3636,0,9.8953e-06,98.885,8.6804e-06,74.268,-1.1744e-06,0.22266,-6.2654e-06,-38.028,2.2543
4098,23.818,2.5455,0,9.8344e-06,98.276,8.6169e-06,73.642,-1.1544e-06,0.22398,-6.2423e-06,-38.005,2.2543
4099,23.818,2.7273,0,9.7883e-06,97.815,8.5686e-06,73.165,-1.1391e-06,0.22481,-6.225e-06,-37.989,2.2544
4100,23.818,2.9091,0,9.7635e-06,97.568,8.5427e-06,72.909,-1.1309e-06,0.22522,-6.2157e-06,-37.98,2.2544
4101,23.818,3.0909,0,9.7635e-06,97.568,8.5427e-06,72.909,-1.1309e-06,0.22522,-6.2157e-06,-37.98,2.2544
4102,23.818,3.2727,0,9.7883e-06,97.815,8.5686e-06,73.165,-1.1391e-06,0.22481,-6.225e-06,-37.989,2.2544
4103,23.818,3.4545,0,9.8344e-06,98.276,8.6169e-06,73.642,-1.1544e-06,0.22397,-6.2423e-06,-38.005,2.2543
4104,23.818,3.6364,0,9.8953e-06,98.885,8.6804e-06,74.268,-1.1744e-06,0.22266,-6.2654e-06,-38.028,2.2543
4105,23.818,3.8182,0,9.961e-06,99.541,8.7487e-06,74.94,-1.1958e-06,0.22076,-6.2905e-06,-38.059,2.2543
4106,23.818,4,0,1.0019e-05,100.12,8.8081e-06,75.521,-1.2141e-06,0.21812,-6.3132e-06,-38.095,2.2543
4107,23.818,4.1818,0,1.0052e-05,100.45,8.8421e-06,75.846,-1.2239e-06,0.21449,-6.3278e-06,-38.134,2.2542
4108,23.818,4.3636,0,1.0044e-05,100.37,8.8311e-06,75.722,-1.2189e-06,0.20948,-6.3276e-06,-38.175,2.2542
4109,23.818,4.5455,0,9.972e-06,99.651,8.7533e-06,74.929,-1.1922e-06,0.20251,-6.3049e-06,-38.212,2.2542
4110,23.818,4.7273,0,9.8132e-06,98.065,8.5835e-06,73.221,-1.1359e-06,0.19281,-6.2508e-06,-38.239,2.2541
4111,23.818,4.9091,0,9.5412e-06,95.346,8.2937e-06,70.318,-1.0413e-06,0.17868,-6.1551e-06,-38.245,2.254
4112,23.818,5.0909,0,9.1257e-06,91.194,7.851e-06,65.899,-8.9848e-07,0.15897,-6.0051e-06,-38.21,2.254
4113,23.818,5.2727,0,8.531e-06,85.251,7.2155e-06,59.573,-6.9671e-07,0.12363,-5.784e-06,-38.101,2.2539
4114,23.818,5.4545,0,7.7113e-06,77.06,6.3339e-06,50.839,-4.2103e-07,0.084483,-5.4675e-06,-37.833,2.2538
4115,23.818,5.6364,0,6.61e-06,66.054,5.1329e-06,38.938,-6.4595e-08,-0.11387,-5.0174e-06,-37.327,2.2538
4116,23.818,5.8182,0,5.2226e-06,52.19,3.5575e-06,23.396,3.9283e-07,-0.38215,-4.4074e-06,-36.45,2.2537
4117,23.818,5.8182,0.1,5.2226e-06,52.19,4.4074e-06,36.45,-3.9283e-07,0.38215,-3.5575e-06,-23.396,2.2537
4118,23.818,5.6364,0.1,6.61e-06,66.054,5.0174e-06,37.327,6.4594e-08,0.11388,-5.1329e-06,-38.938,2.2538
4119,23.818,5.4545,0.1,7.7113e-06,77.06,5.4675e-06,37.833,4.2102e-07,-0.08448,-6.3339e-06,-50.839,2.2538
4120,23.818,5.2727,0.1,8.531e-06,85.251,5.784e-06,38.101,6.9671e-07,-0.12363,-7.2155e-06,-59.573,2.2539
4121,23.818,5.0909,0.1,9.1257e-06,91.194,6.0051e-06,38.21,8.9848e-07,-0.15897,-7.851e-06,-65.899,2.254
4122,23.818,4.9091,0.1,9.5412e-06,95.346,6.1551e-06,38.245,1.0413e-06,-0.17868,-8.2937e-06,-70.318,2.254
4123,23.818,4.7273,0.1,9.8132e-06,98.065,6.2509e-06,38.239,1.1359e-06,-0.19281,-8.5835e-06,-73.221,2.2541
4124,23.818,4.5455,0.1,9.972e-06,99.651,6.3049e-06,38.212,1.1922e-06,-0.20251,-8.7533e-06,-74.929,2.2542
4125,23.818,4.3636,0.1,1.0044e-05,100.37,6.3276e-06,38.175,1.2189e-06,-0.20948,-8.8311e-06,-75.722,2.2542
4126,23.818,4.1818,0.1,1.0052e-05,100.45,6.3278e-06,38.135,1.2239e-06,-0.21448,-8.8421e-06,-75.846,2.2542
4127,23.818,4,0.1,1.0019e-05,100.12,6.3132e-06,38.095,1.2141e-06,-0.21812,-8.8081e-06,-75.521,2.2543
4128,23.818,3.8182,0.1,9.961e-06,99.541,6.2905e-06,38.059,1.1958e-06,-0.22076,-8.7487e-06,-74.94,2.2543
4129,23.818,3.6364,0.1,9.8953e-06,98.885,6.2654e-06,38.028,1.1744e-06,-0.22266,-8.6804e-06,-74.268,2.2543
4130,23.818,3.4545,0.1,9.8344e-06,98.276,6.2423e-06,38.005,1.1544e-06,-0.22398,-8.6169e-06,-73.642,2.2543
4131,23.818,3.2727,0.1,9.7883e-06,97.815,6.225e-06,37.989,1.1391e-06,-0.22481,-8.5686e-06,-73.165,2.2544
4132,23.818,3.0909,0.1,9.7635e-06,97.568,6.2157e-06,37.98,1.1309e-06,-0.22521,-8.5427e-06,-72.909,2.2544
4133,23.818,2.9091,0.1,9.7635e-06,97.568,6.2157e-06,37.98,1.1309e-06,-0.22522,-8.5427e-06,-72.909,2.2544
4134,23.818,2.7273,0.1,9.7883e-06,97.815,6.225e-06,37.989,1.1391e-06,-0.22481,-8.5686e-06,-73.165,2.2544
4135,23.818,2.5455,0.1,9.8344e-06,98.276,6.2423e-06,38.005,1.1544e-06,-0.22397,-8.6169e-06,-73.642,2.2543
4136,23.818,2.3636,0.1,9.8953e-06,98.885,6.2654e-06,38.028,1.1744e-06,-0.22266,-8.6804e-06,-74.268,2.2543
4137,23.818,2.1818,0.1,9.961e-06,99.541,6.2905e-06,38.059,1.1958e-06,-0.22076,-8.7487e-06,-74.94,2.2543
4138,23.818,2,0.1,1.0019e-05,100.12,6.3132e-06,38.095,1.2141e-06,-0.21812,-8.8081e-06,-75.521,2.2543
4139,23.818,1.8182,0.1,1.0052e-05,100.45,6.3278e-06,38.135,1.2239e-06,-0.21448,-8.8421e-06,-75.846,2.2542
4140,23.818,1.6364,0.1,1.0044e-05,100.37,6.3276e-06,38.175,1.2189e-06,-0.20948,-8.8311e-06,-75.722,2.2542
4141,23.818,1.4545,0.1,9.972e-06,99.651,6.3049e-06,38.212,1.1922e-06,-0.20251,-8.7532e-06,-74.929,2.2542
4142,23.818,1.2727,0.1,9.8132e-06,98.065,6.2508e-06,38.239,1.1359e-06,-0.19281,-8.5835e-06,-73.221,2.2541
4143,23.818,1.0909,0.1,9.5412e-06,95.346,6.1551e-06,38.245,1.0413e-06,-0.17868,-8.2937e-06,-70.318,2.254
4144,23.818,0.90909,0.1,9.1257e-06,91.194,6.0051e-06,38.21,8.9848e-07,-0.15897,-7.851e-06,-65.899,2.254
4145,23.818,0.72727,0.1,8.531e-06,85.251,5.784e-06,38.101,6.967e-07,-0.12363,-7.2155e-06,-59.573,2.2539
4146,23.818,0.54545,0.1,7.7113e-06,77.06,5.4675e-06,37.833,4.2102e-07,-0.084483,-6.3339e-06,-50.839,2.2538
4147,23.818,0.36364,0.1,6.61e-06,66.054,5.0174e-06,37.327,6.4594e-08,0.11388,-5.1329e-06,-38.938,2.2538
4148,23.818,0.18182,0.1,5.2226e-06,52.19,4.4074e-06,36.45,-3.9283e-07,0.38215,-3.5575e-06,-23.396,2.2537
4149,23.636,5.8182,0.1,8.3738e-06,83.68,7.8367e-06,71.584,-1.685e-06,0.041201,-4.4099e-06,-20.433,2.2274
4150,23.636,5.6364,0.1,9.2227e-06,92.163,8.2639e-06,72.069,-1.3427e-06,-0.11051,-5.553e-06,-31.745,2.2275
4151,23.636,5.4545,0.1,1.011e-05,101.03,8.7188e-06,73.17,-1.0522e-06,-0.24571,-6.6162e-06,-42.051,2.2276
4152,23.636,5.2727,0.1,1.0814e-05,108.06,9.062e-06,73.964,-8.1833e-07,-0.27238,-7.4379e-06,-50.009,2.2277
4153,23.636,5.0909,0.1,1.1338e-05,113.3,9.3086e-06,74.488,-6.4444e-07,-0.29512,-8.0406e-06,-55.867,2.2277
4154,23.636,4.9091,0.1,1.1707e-05,116.99,9.479e-06,74.838,-5.2222e-07,-0.30692,-8.4608e-06,-59.954,2.2278
4155,23.636,4.7273,0.1,1.1949e-05,119.41,9.5902e-06,75.076,-4.4375e-07,-0.31506,-8.7325e-06,-62.593,2.2278
4156,23.636,4.5455,0.1,1.2088e-05,120.8,9.6558e-06,75.241,-4.0074e-07,-0.32043,-8.8862e-06,-64.076,2.2279
4157,23.636,4.3636,0.1,1.2148e-05,121.4,9.687e-06,75.355,-3.8532e-07,-0.32422,-8.9492e-06,-64.67,2.2279
4158,23.636,4.1818,0.1,1.2151e-05,121.42,9.6934e-06,75.436,-3.9006e-07,-0.32696,-8.9463e-06,-64.615,2.228
4159,23.636,4,0.1,1.2115e-05,121.07,9.6831e-06,75.493,-4.0811e-07,-0.32902,-8.8997e-06,-64.131,2.228
4160,23.636,3.8182,0.1,1.2058e-05,120.5,9.6634e-06,75.532,-4.3332e-07,-0.33059,-8.829e-06,-63.412,2.2281
4161,23.636,3.6364,0.1,1.1995e-05,119.87,9.6402e-06,75.56,-4.603e-07,-0.33181,-8.7512e-06,-62.626,2.2281
4162,23.636,3.4545,0.1,1.1937e-05,119.28,9.6185e-06,75.578,-4.8459e-07,-0.33271,-8.6802e-06,-61.912,2.2281
4163,23.636,3.2727,0.1,1.1893e-05,118.85,9.6019e-06,75.589,-5.0275e-07,-0.33333,-8.6268e-06,-61.375,2.2281
4164,23.636,3.0909,0.1,1.1869e-05,118.61,9.5929e-06,75.594,-5.1243e-07,-0.33364,-8.5983e-06,-61.088,2.2281
4165,23.636,2.9091,0.1,1.1869e-05,118.61,9.5929e-06,75.594,-5.1243e-07,-0.33364,-8.5983e-06,-61.088,2.2281
4166,23.636,2.7273,0.1,1.1893e-05,118.85,9.6019e-06,75.589,-5.0275e-07,-0.33333,-8.6268e-06,-61.375,2.2281
4167,23.636,2.5455,0.1,1.1937e-05,119.28,9.6185e-06,75.578,-4.8459e-07,-0.33271,-8.6802e-06,-61.912,2.2281
4168,23.636,2.3636,0.1,1.1995e-05,119.87,9.6402e-06,75.56,-4.603e-07,-0.3318,-8.7512e-06,-62.626,2.2281
4169,23.636,2.1818,0.1,1.2058e-05,120.5,9.6634e-06,75.532,-4.3332e-07,-0.33059,-8.829e-06,-63.412,2.2281
4170,23.636,2,0.1,1.2115e-05,121.07,9.6831e-06,75.493,-4.0811e-07,-0.32902,-8.8996e-06,-64.131,2.228
4171,23.636,1.8182,0.1,1.2151e-05,121.42,9.6934e-06,75.436,-3.9006e-07,-0.32696,-8.9463e-06,-64.615,2.228
4172,23.636,1.6364,0.1,1.2148e-05,121.4,9.687e-06,75.355,-3.8532e-07,-0.32423,-8.9492e-06,-64.67,2.2279
4173,23.636,1.4545,0.1,1.2088e-05,120.8,9.6558e-06,75.241,-4.0075e-07,-0.32043,-8.8861e-06,-64.076,2.2279
4174,23.636,1.2727,0.1,1.1949e-05,119.41,9.5902e-06,75.076,-4.4376e-07,-0.31506,-8.7325e-06,-62.593,2.2278
4175,23.636,1.0909,0.1,1.1707e-05,116.99,9.479e-06,74.838,-5.2222e-07,-0.30692,-8.4608e-06,-59.954,2.2278
4176,23.636,0.90909,0.1,1.1338e-05,113.3,9.3086e-06,74.488,-6.4444e-07,-0.29512,-8.0406e-06,-55.867,2.2277
4177,23.636,0.72727,0.1,1.0814e-05,108.06,9.062e-06,73.964,-8.1834e-07,-0.27238,-7.4379e-06,-50.009,2.2277
4178,23.636,0.54545,0.1,1.011e-05,101.03,8.7188e-06,73.17,-1.0522e-06,-0.24571,-6.6162e-06,-42.051,2.2276
4179,23.636,0.36364,0.1,9.2227e-06,92.163,8.2639e-06,72.069,-1.3427e-06,-0.11051,-5.553e-06,-31.745,2.2275
4180,23.636,0.18182,0.1,8.3738e-06,83.68,7.8367e-06,71.584,-1.685e-06,0.041204,-4.4099e-06,-20.433,2.2274
4181,23.454,5.8182,0.1,1.1846e-05,118.38,1.1414e-05,107.89,-2.9342e-06,0.084827,-5.4455e-06,-18.785,2.2012
4182,23.454,5.6364,0.1,1.2332e-05,123.23,1.1657e-05,107.67,-2.6714e-06,0.012343,-6.2318e-06,-26.739,2.2013
4183,23.454,5.4545,0.1,1.2998e-05,129.89,1.2045e-05,108.79,-2.4453e-06,-0.081481,-7.0912e-06,-34.989,2.2013
4184,23.454,5.2727,0.1,1.3575e-05,135.66,1.2376e-05,109.87,-2.2611e-06,-0.10539,-7.7996e-06,-41.719,2.2014
4185,23.454,5.0909,0.1,1.4023e-05,140.13,1.263e-05,110.74,-2.1247e-06,-0.12321,-8.3329e-06,-46.769,2.2015
4186,23.454,4.9091,0.1,1.4345e-05,143.35,1.2814e-05,111.42,-2.0326e-06,-0.13262,-8.7051e-06,-50.267,2.2015
4187,23.454,4.7273,0.1,1.4557e-05,145.47,1.2939e-05,111.95,-1.9793e-06,-0.13909,-8.9398e-06,-52.437,2.2016
4188,23.454,4.5455,0.1,1.4679e-05,146.69,1.3018e-05,112.38,-1.9581e-06,-0.14343,-9.0625e-06,-53.523,2.2017
4189,23.454,4.3636,0.1,1.4731e-05,147.21,1.3061e-05,112.73,-1.9618e-06,-0.1466,-9.0984e-06,-53.769,2.2017
4190,23.454,4.1818,0.1,1.4731e-05,147.2,1.3078e-05,113.01,-1.9833e-06,-0.14903,-9.0714e-06,-53.406,2.2017
4191,23.454,4,0.1,1.4696e-05,146.86,1.3076e-05,113.24,-2.016e-06,-0.15099,-9.0035e-06,-52.652,2.2018
4192,23.454,3.8182,0.1,1.4643e-05,146.33,1.3063e-05,113.43,-2.0537e-06,-0.15264,-8.9143e-06,-51.701,2.2018
4193,23.454,3.6364,0.1,1.4585e-05,145.75,1.3045e-05,113.57,-2.0909e-06,-0.15401,-8.8212e-06,-50.723,2.2018
4194,23.454,3.4545,0.1,1.4531e-05,145.21,1.3027e-05,113.68,-2.1229e-06,-0.1551,-8.7384e-06,-49.861,2.2018
4195,23.454,3.2727,0.1,1.4491e-05,144.81,1.3013e-05,113.75,-2.1464e-06,-0.15587,-8.677e-06,-49.224,2.2019
4196,23.454,3.0909,0.1,1.447e-05,144.6,1.3006e-05,113.78,-2.1587e-06,-0.15627,-8.6443e-06,-48.887,2.2019
4197,23.454,2.9091,0.1,1.447e-05,144.6,1.3006e-05,113.78,-2.1587e-06,-0.15627,-8.6443e-06,-48.887,2.2019
4198,23.454,2.7273,0.1,1.4491e-05,144.81,1.3013e-05,113.75,-2.1464e-06,-0.15587,-8.677e-06,-49.224,2.2019
4199,23.454,2.5455,0.1,1.4531e-05,145.21,1.3027e-05,113.68,-2.1229e-06,-0.1551,-8.7384e-06,-49.861,2.2018
4200,23.454,2.3636,0.1,1.4585e-05,145.75,1.3045e-05,113.57,-2.0909e-06,-0.15401,-8.8212e-06,-50.723,2.2018
4201,23.454,2.1818,0.1,1.4643e-05,146.33,1.3063e-05,113.43,-2.0537e-06,-0.15264,-8.9143e-06,-51.701,2.2018
4202,23.454,2,0.1,1.4696e-05,146.86,1.3076e-05,113.24,-2.016e-06,-0.15099,-9.0035e-06,-52.652,2.2018
4203,23.454,1.8182,0.1,1.4731e-05,147.2,1.3078e-05,113.01,-1.9833e-06,-0.14903,-9.0714e-06,-53.406,2.2017
4204,23.454,1.6364,0.1,1.4731e-05,147.21,1.3061e-05,112.73,-1.9618e-06,-0.1466,-9.0984e-06,-53.769,2.2017
4205,23.454,1.4545,0.1,1.4679e-05,146.69,1.3018e-05,112.38,-1.9581e-06,-0.14343,-9.0625e-06,-53.523,2.2017
4206,23.454,1.2727,0.1,1.4557e-05,145.47,1.2939e-05,111.95,-1.9793e-06,-0.1391,-8.9397e-06,-52.437,2.2016
4207,23.454,1.0909,0.1,1.4345e-05,143.35,1.2814e-05,111.42,-2.0326e-06,-0.13262,-8.7051e-06,-50.267,2.2015
4208,23.454,0.90909,0.1,1.4023e-05,140.13,1.263e-05,110.74,-2.1247e-06,-0.12321,-8.3329e-06,-46.769,2.2015
4209,23.454,0.72727,0.1,1.3575e-05,135.66,1.2376e-05,109.87,-2.2611e-06,-0.10539,-7.7996e-06,-41.719,2.2014
4210,23.454,0.54545,0.1,1.2998e-05,129.89,1.2045e-05,108.79,-2.4453e-06,-0.081479,-7.0912e-06,-34.989,2.2013
4211,23.454,0.36364,0.1,1.2332e-05,123.23,1.1657e-05,107.67,-2.6714e-06,0.012346,-6.2318e-06,-26.739,2.2013
4212,23.454,0.18182,0.1,1.1846e-05,118.38,1.1414e-05,107.89,-2.9342e-06,0.084828,-5.4455e-06,-18.785,2.2012
4213,23.272,5.8182,0.1,1.5387e-05,153.76,1.5016e-05,144.31,-4.1834e-06,0.052355,-6.515e-06,-17.466,2.1749
4214,23.272,5.6364,0.1,1.5651e-05,156.4,1.5131e-05,143.61,-3.981e-06,0.006619,-7.0479e-06,-23.037,2.175
4215,23.272,5.4545,0.1,1.6141e-05,161.3,1.5439e-05,144.57,-3.8118e-06,-0.072527,-7.7099e-06,-29.361,2.1751
4216,23.272,5.2727,0.1,1.6599e-05,165.88,1.5734e-05,145.76,-3.6769e-06,-0.0925,-8.2818e-06,-34.692,2.1752
4217,23.272,5.0909,0.1,1.6973e-05,169.62,1.598e-05,146.88,-3.5827e-06,-0.10823,-8.7208e-06,-38.714,2.1752
4218,23.272,4.9091,0.1,1.7251e-05,172.39,1.6169e-05,147.87,-3.5271e-06,-0.11664,-9.0241e-06,-41.419,2.1753
4219,23.272,4.7273,0.1,1.7438e-05,174.26,1.6307e-05,148.74,-3.5062e-06,-0.12225,-9.2047e-06,-42.938,2.1754
4220,23.272,4.5455,0.1,1.7548e-05,175.36,1.64e-05,149.5,-3.514e-06,-0.12597,-9.2824e-06,-43.467,2.1754
4221,23.272,4.3636,0.1,1.7596e-05,175.84,1.6457e-05,150.15,-3.544e-06,-0.12867,-9.2796e-06,-43.223,2.1755
4222,23.272,4.1818,0.1,1.7598e-05,175.86,1.6488e-05,150.72,-3.5892e-06,-0.1308,-9.2185e-06,-42.427,2.1755
4223,23.272,4,0.1,1.7569e-05,175.57,1.6499e-05,151.2,-3.6428e-06,-0.13259,-9.1208e-06,-41.292,2.1755
4224,23.272,3.8182,0.1,1.7524e-05,175.12,1.6497e-05,151.61,-3.6985e-06,-0.1342,-9.0062e-06,-40.014,2.1756
4225,23.272,3.6364,0.1,1.7474e-05,174.62,1.6488e-05,151.93,-3.7505e-06,-0.13563,-8.8922e-06,-38.768,2.1756
4226,23.272,3.4545,0.1,1.7428e-05,174.16,1.6477e-05,152.17,-3.7939e-06,-0.13684,-8.7933e-06,-37.7,2.1756
4227,23.272,3.2727,0.1,1.7393e-05,173.81,1.6468e-05,152.34,-3.8251e-06,-0.13773,-8.7209e-06,-36.923,2.1756
4228,23.272,3.0909,0.1,1.7375e-05,173.63,1.6463e-05,152.42,-3.8413e-06,-0.1382,-8.6828e-06,-36.515,2.1756
4229,23.272,2.9091,0.1,1.7375e-05,173.63,1.6463e-05,152.42,-3.8413e-06,-0.1382,-8.6828e-06,-36.515,2.1756
4230,23.272,2.7273,0.1,1.7393e-05,173.81,1.6468e-05,152.34,-3.8251e-06,-0.13773,-8.7209e-06,-36.923,2.1756
4231,23.272,2.5455,0.1,1.7428e-05,174.16,1.6477e-05,152.17,-3.7939e-06,-0.13684,-8.7933e-06,-37.7,2.1756
4232,23.272,2.3636,0.1,1.7474e-05,174.62,1.6488e-05,151.93,-3.7505e-06,-0.13563,-8.8921e-06,-38.768,2.1756
4233,23.272,2.1818,0.1,1.7524e-05,175.12,1.6497e-05,151.61,-3.6985e-06,-0.1342,-9.0062e-06,-40.014,2.1756
4234,23.272,2,0.1,1.7569e-05,175.57,1.6499e-05,151.2,-3.6428e-06,-0.1326,-9.1208e-06,-41.292,2.1755
4235,23.272,1.8182,0.1,1.7598e-05,175.86,1.6488e-05,150.72,-3.5892e-06,-0.1308,-9.2185e-06,-42.427,2.1755
4236,23.272,1.6364,0.1,1.7596e-05,175.84,1.6457e-05,150.15,-3.544e-06,-0.12868,-9.2796e-06,-43.223,2.1755
4237,23.272,1.4545,0.1,1.7548e-05,175.36,1.64e-05,149.5,-3.514e-06,-0.12597,-9.2824e-06,-43.467,2.1754
4238,23.272,1.2727,0.1,1.7438e-05,174.26,1.6307e-05,148.74,-3.5062e-06,-0.12225,-9.2047e-06,-42.938,2.1754
4239,23.272,1.0909,0.1,1.7251e-05,172.39,1.6169e-05,147.87,-3.5271e-06,-0.11664,-9.0241e-06,-41.419,2.1753
4240,23.272,0.90909,0.1,1.6973e-05,169.62,1.598e-05,146.88,-3.5827e-06,-0.10823,-8.7208e-06,-38.714,2.1752
4241,23.272,0.72727,0.1,1.6599e-05,165.88,1.5734e-05,145.76,-3.6769e-06,-0.092505,-8.2818e-06,-34.692,2.1752
4242,23.272,0.54545,0.1,1.6141e-05,161.3,1.5439e-05,144.57,-3.8118e-06,-0.072526,-7.7099e-06,-29.361,2.1751
4243,23.272,0.36364,0.1,1.5651e-05,156.4,1.5131e-05,143.61,-3.981e-06,0.006621,-7.0479e-06,-23.037,2.175
4244,23.272,0.18182,0.1,1.5387e-05,153.76,1.5016e-05,144.31,-4.1834e-06,0.052357,-6.515e-06,-17.466,2.1749
4245,23.09,5.8182,0.1,1.8935e-05,189.22,1.8605e-05,180.56,-5.4203e-06,0.0424,-7.5946e-06,-16.294,2.1487
4246,23.09,5.6364,0.1,1.9054e-05,190.41,1.8633e-05,179.58,-5.2658e-06,0.015791,-7.9396e-06,-20.074,2.1488
4247,23.09,5.4545,0.1,1.9411e-05,193.98,1.8871e-05,180.41,-5.1458e-06,-0.048621,-8.4304e-06,-24.728,2.1489
4248,23.09,5.2727,0.1,1.977e-05,197.56,1.9125e-05,181.64,-5.0585e-06,-0.066145,-8.8641e-06,-28.66,2.1489
4249,23.09,5.0909,0.1,2.0078e-05,200.64,1.9354e-05,182.97,-5.0087e-06,-0.080039,-9.196e-06,-31.542,2.149
4250,23.09,4.9091,0.1,2.0316e-05,203.02,1.9543e-05,184.28,-4.9944e-06,-0.087509,-9.4151e-06,-33.303,2.1491
4251,23.09,4.7273,0.1,2.0483e-05,204.69,1.9691e-05,185.51,-5.0121e-06,-0.092409,-9.5272e-06,-34.017,2.1491
4252,23.09,4.5455,0.1,2.0585e-05,205.71,1.9799e-05,186.65,-5.0559e-06,-0.095584,-9.5471e-06,-33.841,2.1492
4253,23.09,4.3636,0.1,2.0634e-05,206.2,1.9874e-05,187.69,-5.1193e-06,-0.097877,-9.4941e-06,-32.969,2.1492
4254,23.09,4.1818,0.1,2.0644e-05,206.3,1.9923e-05,188.63,-5.195e-06,-0.099733,-9.3892e-06,-31.613,2.1493
4255,23.09,4,0.1,2.0627e-05,206.12,1.9951e-05,189.45,-5.276e-06,-0.10144,-9.2534e-06,-29.986,2.1493
4256,23.09,3.8182,0.1,2.0594e-05,205.8,1.9966e-05,190.15,-5.3554e-06,-0.10311,-9.1065e-06,-28.287,2.1493
4257,23.09,3.6364,0.1,2.0556e-05,205.42,1.997e-05,190.72,-5.4271e-06,-0.10477,-8.966e-06,-26.695,2.1494
4258,23.09,3.4545,0.1,2.0521e-05,205.06,1.997e-05,191.16,-5.4858e-06,-0.10629,-8.847e-06,-25.361,2.1494
4259,23.09,3.2727,0.1,2.0494e-05,204.8,1.9968e-05,191.46,-5.5273e-06,-0.10749,-8.761e-06,-24.404,2.1494
4260,23.09,3.0909,0.1,2.048e-05,204.65,1.9967e-05,191.61,-5.5488e-06,-0.10815,-8.716e-06,-23.905,2.1494
4261,23.09,2.9091,0.1,2.048e-05,204.65,1.9967e-05,191.61,-5.5488e-06,-0.10815,-8.716e-06,-23.905,2.1494
4262,23.09,2.7273,0.1,2.0494e-05,204.8,1.9968e-05,191.46,-5.5273e-06,-0.10749,-8.761e-06,-24.404,2.1494
4263,23.09,2.5455,0.1,2.0521e-05,205.06,1.997e-05,191.16,-5.4858e-06,-0.10629,-8.847e-06,-25.361,2.1494
4264,23.09,2.3636,0.1,2.0556e-05,205.42,1.997e-05,190.72,-5.4271e-06,-0.10477,-8.966e-06,-26.695,2.1494
4265,23.09,2.1818,0.1,2.0594e-05,205.8,1.9966e-05,190.15,-5.3554e-06,-0.10311,-9.1065e-06,-28.287,2.1493
4266,23.09,2,0.1,2.0627e-05,206.12,1.9951e-05,189.45,-5.276e-06,-0.10144,-9.2534e-06,-29.986,2.1493
4267,23.09,1.8182,0.1,2.0644e-05,206.3,1.9923e-05,188.63,-5.195e-06,-0.099734,-9.3892e-06,-31.613,2.1493
4268,23.09,1.6364,0.1,2.0634e-05,206.2,1.9874e-05,187.69,-5.1193e-06,-0.097877,-9.4941e-06,-32.969,2.1492
4269,23.09,1.4545,0.1,2.0585e-05,205.71,1.9799e-05,186.65,-5.0559e-06,-0.095583,-9.5471e-06,-33.841,2.1492
4270,23.09,1.2727,0.1,2.0483e-05,204.69,1.9691e-05,185.51,-5.0121e-06,-0.09241,-9.5272e-06,-34.017,2.1491
4271,23.09,1.0909,0.1,2.0316e-05,203.02,1.9543e-05,184.28,-4.9944e-06,-0.087509,-9.4151e-06,-33.303,2.1491
4272,23.09,0.90909,0.1,2.0078e-05,200.64,1.9354e-05,182.97,-5.0087e-06,-0.080038,-9.196e-06,-31.542,2.149
4273,23.09,0.72727,0.1,1.977e-05,197.56,1.9125e-05,181.64,-5.0585e-06,-0.066148,-8.8641e-06,-28.66,2.1489
4274,23.09,0.54545,0.1,1.9411e-05,193.98,1.8871e-05,180.41,-5.1458e-06,-0.048623,-8.4304e-06,-24.728,2.1489
4275,23.09,0.36364,0.1,1.9054e-05,190.41,1.8633e-05,179.58,-5.2658e-06,0.015797,-7.9396e-06,-20.074,2.1488
4276,23.09,0.18182,0.1,1.8935e-05,189.22,1.8605e-05,180.56,-5.4203e-06,0.042404,-7.5946e-06,-16.294,2.1487
4277,22.908,5.8182,0.1,2.2461e-05,224.46,2.2163e-05,216.46,-6.6419e-06,0.030067,-8.6742e-06,-15.24,2.1225
4278,22.908,5.6364,0.1,2.2483e-05,224.67,2.2131e-05,215.35,-6.528e-06,0.013898,-8.8754e-06,-17.624,2.1225
4279,22.908,5.4545,0.1,2.2743e-05,227.27,2.2316e-05,216.12,-6.4523e-06,-0.039777,-9.2215e-06,-20.846,2.1226
4280,22.908,5.2727,0.1,2.3024e-05,230.08,2.2535e-05,217.43,-6.4114e-06,-0.055118,-9.525e-06,-23.45,2.1227
4281,22.908,5.0909,0.1,2.3278e-05,232.62,2.2747e-05,218.99,-6.4079e-06,-0.067304,-9.7463e-06,-25.15,2.1228
4282,22.908,4.9091,0.1,2.3484e-05,234.68,2.2936e-05,220.64,-6.4394e-06,-0.073847,-9.8722e-06,-25.866,2.1229
4283,22.908,4.7273,0.1,2.3636e-05,236.2,2.3094e-05,222.29,-6.5015e-06,-0.077955,-9.9048e-06,-25.649,2.1229
4284,22.908,4.5455,0.1,2.3737e-05,237.2,2.3221e-05,223.89,-6.5882e-06,-0.080431,-9.8559e-06,-24.633,2.123
4285,22.908,4.3636,0.1,2.3794e-05,237.78,2.3318e-05,225.41,-6.6922e-06,-0.082099,-9.7427e-06,-23.002,2.123
4286,22.908,4.1818,0.1,2.3818e-05,238.02,2.3391e-05,226.8,-6.8057e-06,-0.083464,-9.585e-06,-20.966,2.1231
4287,22.908,4,0.1,2.3819e-05,238.02,2.3443e-05,228.06,-6.921e-06,-0.084888,-9.4034e-06,-18.737,2.1231
4288,22.908,3.8182,0.1,2.3805e-05,237.88,2.348e-05,229.15,-7.0304e-06,-0.086611,-9.2177e-06,-16.521,2.1231
4289,22.908,3.6364,0.1,2.3785e-05,237.69,2.3504e-05,230.06,-7.1271e-06,-0.088696,-9.0459e-06,-14.505,2.1231
4290,22.908,3.4545,0.1,2.3765e-05,237.49,2.3519e-05,230.76,-7.2053e-06,-0.091011,-8.903e-06,-12.847,2.1232
4291,22.908,3.2727,0.1,2.375e-05,237.33,2.3528e-05,231.24,-7.2601e-06,-0.093128,-8.8009e-06,-11.67,2.1232
4292,22.908,3.0909,0.1,2.3741e-05,237.25,2.3532e-05,231.48,-7.2884e-06,-0.094431,-8.7478e-06,-11.06,2.1232
4293,22.908,2.9091,0.1,2.3741e-05,237.25,2.3532e-05,231.48,-7.2884e-06,-0.094431,-8.7478e-06,-11.06,2.1232
4294,22.908,2.7273,0.1,2.375e-05,237.33,2.3528e-05,231.24,-7.2601e-06,-0.093129,-8.8009e-06,-11.67,2.1232
4295,22.908,2.5455,0.1,2.3765e-05,237.49,2.3519e-05,230.76,-7.2053e-06,-0.091011,-8.903e-06,-12.847,2.1232
4296,22.908,2.3636,0.1,2.3785e-05,237.69,2.3504e-05,230.06,-7.1271e-06,-0.088697,-9.0459e-06,-14.505,2.1231
4297,22.908,2.1818,0.1,2.3805e-05,237.88,2.348e-05,229.15,-7.0304e-06,-0.086608,-9.2177e-06,-16.521,2.1231
4298,22.908,2,0.1,2.3819e-05,238.02,2.3443e-05,228.06,-6.921e-06,-0.084888,-9.4034e-06,-18.737,2.1231
4299,22.908,1.8182,0.1,2.3818e-05,238.02,2.3391e-05,226.8,-6.8057e-06,-0.083465,-9.5849e-06,-20.966,2.1231
4300,22.908,1.6364,0.1,2.3794e-05,237.78,2.3318e-05,225.41,-6.6922e-06,-0.0821,-9.7427e-06,-23.002,2.123
4301,22.908,1.4545,0.1,2.3737e-05,237.2,2.3221e-05,223.89,-6.5882e-06,-0.08043,-9.8559e-06,-24.633,2.123
4302,22.908,1.2727,0.1,2.3636e-05,236.2,2.3094e-05,222.29,-6.5015e-06,-0.077956,-9.9048e-06,-25.649,2.1229
4303,22.908,1.0909,0.1,2.3484e-05,234.68,2.2936e-05,220.64,-6.4394e-06,-0.073849,-9.8722e-06,-25.866,2.1229
4304,22.908,0.90909,0.1,2.3278e-05,232.62,2.2747e-05,218.99,-6.4079e-06,-0.067306,-9.7462e-06,-25.15,2.1228
4305,22.908,0.72727,0.1,2.3024e-05,230.08,2.2535e-05,217.43,-6.4114e-06,-0.055118,-9.525e-06,-23.449,2.1227
4306,22.908,0.54545,0.1,2.2743e-05,227.27,2.2316e-05,216.12,-6.4523e-06,-0.039775,-9.2215e-06,-20.846,2.1226
4307,22.908,0.36364,0.1,2.2483e-05,224.67,2.2131e-05,215.35,-6.528e-06,0.013902,-8.8754e-06,-17.624,2.1225
4308,22.908,0.18182,0.1,2.2461e-05,224.46,2.2163e-05,216.46,-6.6419e-06,0.030066,-8.6742e-06,-15.24,2.1225
4309,22.726,5.8182,0.1,2.5943e-05,259.25,2.567e-05,251.81,-7.8411e-06,0.021457,-9.7476e-06,-14.303,2.0962
4310,22.726,5.6364,0.1,2.59e-05,258.82,2.56e-05,250.69,-7.7632e-06,0.011603,-9.837e-06,-15.57,2.0963
4311,22.726,5.4545,0.1,2.6093e-05,260.75,2.5749e-05,251.51,-7.7292e-06,-0.033499,-1.0061e-05,-17.555,2.0964
4312,22.726,5.2727,0.1,2.6317e-05,262.98,2.5943e-05,252.99,-7.7346e-06,-0.0467,-1.0246e-05,-18.917,2.0965
4313,22.726,5.0909,0.1,2.6531e-05,265.13,2.6146e-05,254.85,-7.78e-06,-0.057124,-1.0358e-05,-19.43,2.0966
4314,22.726,4.9091,0.1,2.6716e-05,266.97,2.634e-05,256.92,-7.8619e-06,-0.062404,-1.0387e-05,-19.035,2.0967
4315,22.726,4.7273,0.1,2.6863e-05,268.44,2.6515e-05,259.08,-7.9748e-06,-0.065188,-1.0333e-05,-17.783,2.0967
4316,22.726,4.5455,0.1,2.6971e-05,269.53,2.6667e-05,261.24,-8.1116e-06,-0.066119,-1.0207e-05,-15.81,2.0968
4317,22.726,4.3636,0.1,2.7046e-05,270.27,2.6794e-05,263.35,-8.2639e-06,-0.065846,-1.0025e-05,-13.299,2.0968
4318,22.726,4.1818,0.1,2.7094e-05,270.75,2.69e-05,265.34,-8.423e-06,-0.064642,-9.8073e-06,-10.465,2.0969
4319,22.726,4,0.1,2.7122e-05,271.03,2.6985e-05,267.16,-8.5798e-06,-0.062461,-9.5738e-06,-7.5309,2.0969
4320,22.726,3.8182,0.1,2.7136e-05,271.18,2.7052e-05,268.76,-8.7254e-06,-0.05841,-9.3449e-06,-4.7128,2.0969
4321,22.726,3.6364,0.1,2.7143e-05,271.24,2.7104e-05,270.11,-8.8513e-06,-0.047403,-9.1394e-06,-2.2115,2.097
4322,22.726,3.4545,0.1,2.7145e-05,271.26,2.7141e-05,271.15,-8.9339e-06,0.097157,-8.9894e-06,-0.31941,2.097
4323,22.726,3.2727,0.1,2.7145e-05,271.27,2.7166e-05,271.87,-8.8441e-06,1.3053,-9.0306e-06,-0.096018,2.097
4324,22.726,3.0909,0.1,2.7145e-05,271.27,2.7178e-05,272.23,-8.7837e-06,2.0328,-9.0656e-06,-0.085392,2.097
4325,22.726,2.9091,0.1,2.7145e-05,271.27,2.7178e-05,272.23,-8.7837e-06,2.0328,-9.0656e-06,-0.085392,2.097
4326,22.726,2.7273,0.1,2.7145e-05,271.27,2.7166e-05,271.87,-8.8441e-06,1.3053,-9.0306e-06,-0.096018,2.097
4327,22.726,2.5455,0.1,2.7145e-05,271.26,2.7141e-05,271.15,-8.9339e-06,0.097167,-8.9894e-06,-0.3194,2.097
4328,22.726,2.3636,0.1,2.7143e-05,271.24,2.7104e-05,270.11,-8.8513e-06,-0.047402,-9.1394e-06,-2.2114,2.097
4329,22.726,2.1818,0.1,2.7136e-05,271.18,2.7052e-05,268.76,-8.7254e-06,-0.058412,-9.3449e-06,-4.7127,2.0969
4330,22.726,2,0.1,2.7122e-05,271.03,2.6985e-05,267.16,-8.5798e-06,-0.062461,-9.5738e-06,-7.5309,2.0969
4331,22.726,1.8182,0.1,2.7094e-05,270.75,2.69e-05,265.34,-8.4231e-06,-0.064643,-9.8073e-06,-10.465,2.0969
4332,22.726,1.6364,0.1,2.7046e-05,270.27,2.6794e-05,263.35,-8.264e-06,-0.065846,-1.0025e-05,-13.299,2.0968
4333,22.726,1.4545,0.1,2.6971e-05,269.53,2.6667e-05,261.24,-8.1116e-06,-0.066119,-1.0207e-05,-15.81,2.0968
4334,22.726,1.2727,0.1,2.6863e-05,268.44,2.6515e-05,259.08,-7.9748e-06,-0.065188,-1.0333e-05,-17.783,2.0967
4335,22.726,1.0909,0.1,2.6716e-05,266.97,2.634e-05,256.92,-7.8619e-06,-0.062405,-1.0387e-05,-19.034,2.0967
4336,22.726,0.90909,0.1,2.6531e-05,265.13,2.6146e-05,254.85,-7.78e-06,-0.057124,-1.0358e-05,-19.43,2.0966
4337,22.726,0.72727,0.1,2.6317e-05,262.98,2.5943e-05,252.99,-7.7346e-06,-0.046703,-1.0246e-05,-18.917,2.0965
4338,22.726,0.54545,0.1,2.6093e-05,260.75,2.5749e-05,251.51,-7.7292e-06,-0.033499,-1.0061e-05,-17.555,2.0964
4339,22.726,0.36364,0.1,2.59e-05,258.82,2.56e-05,250.69,-7.7632e-06,0.011604,-9.837e-06,-15.57,2.0963
4340,22.726,0.18182,0.1,2.5943e-05,259.25,2.567e-05,251.81,-7.8411e-06,0.021457,-9.7476e-06,-14.303,2.0962
4341,22.544,5.8182,0.1,2.9358e-05,293.38,2.9105e-05,286.4,-9.0105e-06,0.014475,-1.0809e-05,-13.5,2.07
4342,22.544,5.6364,0.1,2.9276e-05,292.56,2.9015e-05,285.38,-8.9656e-06,0.008121,-1.0811e-05,-13.86,2.0701
4343,22.544,5.4545,0.1,2.9425e-05,294.05,2.9146e-05,286.38,-8.9724e-06,-0.030224,-1.0933e-05,-14.764,2.0702
4344,22.544,5.2727,0.1,2.9614e-05,295.93,2.933e-05,288.15,-9.0254e-06,-0.041257,-1.1012e-05,-14.966,2.0703
4345,22.544,5.0909,0.1,2.9806e-05,297.86,2.9537e-05,290.43,-9.1234e-06,-0.049492,-1.102e-05,-14.3,2.0704
4346,22.544,4.9091,0.1,2.9985e-05,299.64,2.9747e-05,293.04,-9.2613e-06,-0.052419,-1.0951e-05,-12.746,2.0705
4347,22.544,4.7273,0.1,3.014e-05,301.19,2.9949e-05,295.84,-9.432e-06,-0.051501,-1.0806e-05,-10.377,2.0705
4348,22.544,4.5455,0.1,3.0269e-05,302.48,3.0137e-05,298.72,-9.6266e-06,-0.044961,-1.0598e-05,-7.3443,2.0706
4349,22.544,4.3636,0.1,3.0375e-05,303.54,3.0307e-05,301.58,-9.8337e-06,-0.021759,-1.0344e-05,-3.8597,2.0706
4350,22.544,4.1818,0.1,3.046e-05,304.39,3.0457e-05,304.32,-9.997e-06,0.36122,-1.0111e-05,-0.49553,2.0707
4351,22.544,4,0.1,3.0529e-05,305.08,3.0588e-05,306.86,-9.7563e-06,3.7311,-1.0268e-05,-0.1173,2.0707
4352,22.544,3.8182,0.1,3.0584e-05,305.63,3.0699e-05,309.13,-9.4822e-06,7.2262,-1.0456e-05,-0.09348,2.0707
4353,22.544,3.6364,0.1,3.0629e-05,306.08,3.0789e-05,311.05,-9.2382e-06,10.3,-1.062e-05,-0.085445,2.0708
4354,22.544,3.4545,0.1,3.0663e-05,306.41,3.0858e-05,312.56,-9.0412e-06,12.766,-1.0751e-05,-0.081622,2.0708
4355,22.544,3.2727,0.1,3.0686e-05,306.65,3.0905e-05,313.59,-8.9033e-06,14.487,-1.0842e-05,-0.079666,2.0708
4356,22.544,3.0909,0.1,3.0698e-05,306.76,3.0929e-05,314.12,-8.8323e-06,15.371,-1.0889e-05,-0.078817,2.0708
4357,22.544,2.9091,0.1,3.0698e-05,306.76,3.0929e-05,314.12,-8.8323e-06,15.371,-1.0889e-05,-0.078819,2.0708
4358,22.544,2.7273,0.1,3.0686e-05,306.65,3.0905e-05,313.59,-8.9033e-06,14.487,-1.0842e-05,-0.079665,2.0708
4359,22.544,2.5455,0.1,3.0663e-05,306.41,3.0858e-05,312.56,-9.0412e-06,12.766,-1.0751e-05,-0.081623,2.0708
4360,22.544,2.3636,0.1,3.0629e-05,306.08,3.0789e-05,311.05,-9.2382e-06,10.3,-1.062e-05,-0.085445,2.0708
4361,22.544,2.1818,0.1,3.0584e-05,305.63,3.0699e-05,309.13,-9.4822e-06,7.2262,-1.0456e-05,-0.093477,2.0707
4362,22.544,2,0.1,3.0529e-05,305.08,3.0588e-05,306.86,-9.7563e-06,3.7312,-1.0268e-05,-0.11729,2.0707
4363,22.544,1.8182,0.1,3.046e-05,304.39,3.0457e-05,304.32,-9.997e-06,0.36125,-1.0111e-05,-0.4955,2.0707
4364,22.544,1.6364,0.1,3.0375e-05,303.54,3.0307e-05,301.58,-9.8337e-06,-0.021759,-1.0344e-05,-3.8597,2.0706
4365,22.544,1.4545,0.1,3.0269e-05,302.48,3.0137e-05,298.72,-9.6266e-06,-0.044961,-1.0598e-05,-7.3442,2.0706
4366,22.544,1.2727,0.1,3.014e-05,301.19,2.9949e-05,295.84,-9.432e-06,-0.0515,-1.0806e-05,-10.377,2.0705
4367,22.544,1.0909,0.1,2.9985e-05,299.64,2.9747e-05,293.04,-9.2613e-06,-0.052421,-1.0951e-05,-12.746,2.0705
4368,22.544,0.90909,0.1,2.9806e-05,297.86,2.9537e-05,290.43,-9.1234e-06,-0.049492,-1.102e-05,-14.3,2.0704
4369,22.544,0.72727,0.1,2.9614e-05,295.93,2.933e-05,288.15,-9.0254e-06,-0.041256,-1.1012e-05,-14.965,2.0703
4370,22.544,0.54545,0.1,2.9425e-05,294.05,2.9146e-05,286.38,-8.9724e-06,-0.030224,-1.0933e-05,-14.764,2.0702
4371,22.544,0.36364,0.1,2.9276e-05,292.56,2.9016e-05,285.38,-8.9656e-06,0.0081231,-1.0811e-05,-13.86,2.0701
4372,22.544,0.18182,0.1,2.9358e-05,293.38,2.9105e-05,286.4,-9.0105e-06,0.014476,-1.0809e-05,-13.5,2.07
4373,22.362,5.8182,0.1,3.268e-05,326.57,3.2442e-05,319.96,-1.0141e-05,0.0092531,-1.1852e-05,-12.851,2.0439
4374,22.362,5.6364,0.1,3.258e-05,325.58,3.235e-05,319.16,-1.0127e-05,0.0048581,-1.1788e-05,-12.474,2.044
4375,22.362,5.4545,0.1,3.2709e-05,326.87,3.248e-05,320.47,-1.0175e-05,-0.028026,-1.1825e-05,-12.423,2.0441
4376,22.362,5.2727,0.1,3.2885e-05,328.62,3.2673e-05,322.68,-1.0279e-05,-0.036404,-1.1809e-05,-11.534,2.0441
4377,22.362,5.0909,0.1,3.3075e-05,330.52,3.2899e-05,325.55,-1.0434e-05,-0.040855,-1.172e-05,-9.7026,2.0442
4378,22.362,4.9091,0.1,3.3266e-05,332.43,3.3142e-05,328.88,-1.0635e-05,-0.036195,-1.1555e-05,-6.9536,2.0443
4379,22.362,4.7273,0.1,3.3448e-05,334.25,3.3388e-05,332.52,-1.0869e-05,-0.0056682,-1.1322e-05,-3.4159,2.0444
4380,22.362,4.5455,0.1,3.3617e-05,335.93,3.363e-05,336.32,-1.0993e-05,1.0447,-1.1167e-05,-0.2618,2.0444
4381,22.362,4.3636,0.1,3.3772e-05,337.48,3.386e-05,340.15,-1.0678e-05,5.5045,-1.1425e-05,-0.10866,2.0445
4382,22.362,4.1818,0.1,3.3913e-05,338.9,3.4074e-05,343.86,-1.0326e-05,10.253,-1.1703e-05,-0.090666,2.0445
4383,22.362,4,0.1,3.4042e-05,340.18,3.4269e-05,347.35,-9.9762e-06,14.903,-1.1971e-05,-0.083729,2.0446
4384,22.362,3.8182,0.1,3.4157e-05,341.33,3.4441e-05,350.48,-9.6502e-06,19.197,-1.2216e-05,-0.080087,2.0446
4385,22.362,3.6364,0.1,3.4255e-05,342.31,3.4585e-05,353.15,-9.3668e-06,22.91,-1.2426e-05,-0.077975,2.0446
4386,22.362,3.4545,0.1,3.4334e-05,343.1,3.4699e-05,355.26,-9.1414e-06,25.859,-1.2593e-05,-0.076744,2.0446
4387,22.362,3.2727,0.1,3.4389e-05,343.65,3.4777e-05,356.71,-8.985e-06,27.902,-1.2709e-05,-0.076076,2.0446
4388,22.362,3.0909,0.1,3.4418e-05,343.94,3.4817e-05,357.46,-8.9051e-06,28.946,-1.2768e-05,-0.075787,2.0446
4389,22.362,2.9091,0.1,3.4418e-05,343.94,3.4817e-05,357.46,-8.9051e-06,28.946,-1.2768e-05,-0.075787,2.0446
4390,22.362,2.7273,0.1,3.4389e-05,343.65,3.4777e-05,356.71,-8.985e-06,27.902,-1.2709e-05,-0.076077,2.0446
4391,22.362,2.5455,0.1,3.4334e-05,343.1,3.4699e-05,355.26,-9.1414e-06,25.859,-1.2593e-05,-0.076744,2.0446
4392,22.362,2.3636,0.1,3.4255e-05,342.31,3.4585e-05,353.15,-9.3668e-06,22.91,-1.2426e-05,-0.077975,2.0446
4393,22.362,2.1818,0.1,3.4157e-05,341.33,3.4441e-05,350.48,-9.6502e-06,19.197,-1.2216e-05,-0.08009,2.0446
4394,22.362,2,0.1,3.4042e-05,340.18,3.4269e-05,347.35,-9.9762e-06,14.903,-1.1971e-05,-0.083727,2.0446
4395,22.362,1.8182,0.1,3.3913e-05,338.9,3.4074e-05,343.86,-1.0326e-05,10.253,-1.1703e-05,-0.090666,2.0445
4396,22.362,1.6364,0.1,3.3772e-05,337.48,3.386e-05,340.15,-1.0678e-05,5.5046,-1.1425e-05,-0.10866,2.0445
4397,22.362,1.4545,0.1,3.3617e-05,335.93,3.363e-05,336.32,-1.0993e-05,1.0448,-1.1167e-05,-0.26178,2.0444
4398,22.362,1.2727,0.1,3.3448e-05,334.25,3.3388e-05,332.52,-1.0869e-05,-0.0056672,-1.1322e-05,-3.4158,2.0444
4399,22.362,1.0909,0.1,3.3266e-05,332.43,3.3142e-05,328.88,-1.0635e-05,-0.036195,-1.1555e-05,-6.9535,2.0443
4400,22.362,0.90909,0.1,3.3075e-05,330.53,3.2899e-05,325.55,-1.0434e-05,-0.040857,-1.172e-05,-9.7025,2.0442
4401,22.362,0.72727,0.1,3.2885e-05,328.62,3.2673e-05,322.68,-1.0279e-05,-0.036406,-1.1809e-05,-11.534,2.0441
4402,22.362,0.54545,0.1,3.2709e-05,326.87,3.248e-05,320.47,-1.0175e-05,-0.028027,-1.1825e-05,-12.423,2.0441
4403,22.362,0.36364,0.1,3.258e-05,325.58,3.235e-05,319.16,-1.0127e-05,0.0048611,-1.1788e-05,-12.474,2.044
4404,22.362,0.18182,0.1,3.268e-05,326.57,3.2442e-05,319.96,-1.0141e-05,0.0092517,-1.1852e-05,-12.851,2.0439
4405,22.179,5.8182,0.1,3.5876e-05,358.51,3.565e-05,352.17,-1.122e-05,0.0054885,-1.2869e-05,-12.38,2.0177
4406,22.179,5.6364,0.1,3.578e-05,357.55,3.5572e-05,351.71,-1.1237e-05,0.0024847,-1.2756e-05,-11.409,2.0178
4407,22.179,5.4545,0.1,3.5912e-05,358.87,3.5721e-05,353.49,-1.1329e-05,-0.025586,-1.2724e-05,-10.51,2.0179
4408,22.179,5.2727,0.1,3.6097e-05,360.72,3.5943e-05,356.34,-1.1487e-05,-0.029529,-1.2626e-05,-8.5887,2.018
4409,22.179,5.0909,0.1,3.631e-05,362.85,3.6211e-05,360.01,-1.1706e-05,-0.022791,-1.2448e-05,-5.6036,2.0181
4410,22.179,4.9091,0.1,3.6537e-05,365.12,3.6509e-05,364.3,-1.1967e-05,0.068962,-1.2203e-05,-1.7014,2.0182
4411,22.179,4.7273,0.1,3.677e-05,367.44,3.6823e-05,369.04,-1.1848e-05,3.3408,-1.231e-05,-0.13392,2.0182
4412,22.179,4.5455,0.1,3.7003e-05,369.77,3.7142e-05,374.03,-1.1471e-05,8.7661,-1.265e-05,-0.094857,2.0183
4413,22.179,4.3636,0.1,3.7233e-05,372.07,3.7458e-05,379.1,-1.1057e-05,14.578,-1.3009e-05,-0.085057,2.0183
4414,22.179,4.1818,0.1,3.7457e-05,374.32,3.7762e-05,384.08,-1.0633e-05,20.46,-1.3367e-05,-0.080548,2.0184
4415,22.179,4,0.1,3.7672e-05,376.46,3.8046e-05,388.79,-1.0223e-05,26.113,-1.3709e-05,-0.078007,2.0184
4416,22.179,3.8182,0.1,3.787e-05,378.44,3.8303e-05,393.06,-9.8492e-06,31.26,-1.402e-05,-0.076544,2.0185
4417,22.179,3.6364,0.1,3.8045e-05,380.19,3.8524e-05,396.72,-9.5295e-06,35.662,-1.4286e-05,-0.075792,2.0185
4418,22.179,3.4545,0.1,3.8187e-05,381.6,3.87e-05,399.62,-9.2787e-06,39.126,-1.4496e-05,-0.0755,2.0185
4419,22.179,3.2727,0.1,3.8287e-05,382.61,3.8822e-05,401.63,-9.1065e-06,41.511,-1.4641e-05,-0.075455,2.0185
4420,22.179,3.0909,0.1,3.834e-05,383.13,3.8885e-05,402.66,-9.019e-06,42.725,-1.4715e-05,-0.075482,2.0185
4421,22.179,2.9091,0.1,3.834e-05,383.13,3.8885e-05,402.66,-9.019e-06,42.725,-1.4715e-05,-0.075482,2.0185
4422,22.179,2.7273,0.1,3.8287e-05,382.61,3.8822e-05,401.63,-9.1065e-06,41.511,-1.4641e-05,-0.075455,2.0185
4423,22.179,2.5455,0.1,3.8187e-05,381.6,3.87e-05,399.62,-9.2787e-06,39.126,-1.4496e-05,-0.075501,2.0185
4424,22.179,2.3636,0.1,3.8045e-05,380.19,3.8524e-05,396.72,-9.5295e-06,35.662,-1.4286e-05,-0.075793,2.0185
4425,22.179,2.1818,0.1,3.787e-05,378.44,3.8303e-05,393.06,-9.8492e-06,31.26,-1.402e-05,-0.076544,2.0185
4426,22.179,2,0.1,3.7672e-05,376.46,3.8046e-05,388.79,-1.0223e-05,26.113,-1.3709e-05,-0.078006,2.0184
4427,22.179,1.8182,0.1,3.7457e-05,374.32,3.7762e-05,384.08,-1.0633e-05,20.46,-1.3367e-05,-0.080548,2.0184
4428,22.179,1.6364,0.1,3.7233e-05,372.07,3.7458e-05,379.1,-1.1057e-05,14.578,-1.3009e-05,-0.085057,2.0183
4429,22.179,1.4545,0.1,3.7003e-05,369.77,3.7142e-05,374.03,-1.1471e-05,8.7662,-1.265e-05,-0.094859,2.0183
4430,22.179,1.2727,0.1,3.677e-05,367.44,3.6823e-05,369.04,-1.1848e-05,3.3409,-1.231e-05,-0.13392,2.0182
4431,22.179,1.0909,0.1,3.6537e-05,365.12,3.6509e-05,364.3,-1.1967e-05,0.068966,-1.2203e-05,-1.7013,2.0182
4432,22.179,0.90909,0.1,3.631e-05,362.85,3.6211e-05,360.01,-1.1706e-05,-0.02279,-1.2448e-05,-5.6036,2.0181
4433,22.179,0.72727,0.1,3.6097e-05,360.72,3.5943e-05,356.34,-1.1487e-05,-0.029528,-1.2626e-05,-8.5886,2.018
4434,22.179,0.54545,0.1,3.5912e-05,358.87,3.5721e-05,353.49,-1.1329e-05,-0.025582,-1.2724e-05,-10.51,2.0179
4435,22.179,0.36364,0.1,3.578e-05,357.55,3.5572e-05,351.71,-1.1237e-05,0.0024865,-1.2756e-05,-11.409,2.0178
4436,22.179,0.18182,0.1,3.5876e-05,358.51,3.565e-05,352.17,-1.122e-05,0.0054854,-1.2869e-05,-12.38,2.0177
4437,21.997,5.8182,0.1,3.8908e-05,388.82,3.8688e-05,382.62,-1.2235e-05,0.0031011,-1.3847e-05,-12.112,1.9916
4438,21.997,5.6364,0.1,3.8835e-05,388.08,3.8642e-05,382.64,-1.2283e-05,0.0019558,-1.3704e-05,-10.673,1.9917
4439,21.997,5.4545,0.1,3.8994e-05,389.67,3.8833e-05,385.08,-1.2421e-05,-0.020771,-1.3618e-05,-9.0167,1.9918
4440,21.997,5.2727,0.1,3.9217e-05,391.9,3.9109e-05,388.8,-1.2639e-05,-0.014336,-1.3451e-05,-6.1145,1.9919
4441,21.997,5.0909,0.1,3.948e-05,394.53,3.9446e-05,393.54,-1.2922e-05,0.067754,-1.3202e-05,-2.0413,1.992
4442,21.997,4.9091,0.1,3.9774e-05,397.46,3.9829e-05,399.1,-1.283e-05,3.4412,-1.3307e-05,-0.141,1.992
4443,21.997,4.7273,0.1,4.0089e-05,400.61,4.0241e-05,405.27,-1.2421e-05,9.5777,-1.3709e-05,-0.095719,1.9921
4444,21.997,4.5455,0.1,4.0419e-05,403.92,4.0671e-05,411.81,-1.1957e-05,16.384,-1.4149e-05,-0.085321,1.9922
4445,21.997,4.3636,0.1,4.0759e-05,407.31,4.1107e-05,418.51,-1.1465e-05,23.509,-1.4605e-05,-0.080729,1.9922
4446,21.997,4.1818,0.1,4.1102e-05,410.73,4.1535e-05,425.14,-1.0974e-05,30.608,-1.5058e-05,-0.078194,1.9923
4447,21.997,4,0.1,4.1437e-05,414.08,4.1943e-05,431.44,-1.0508e-05,37.341,-1.5488e-05,-0.076824,1.9923
4448,21.997,3.8182,0.1,4.1752e-05,417.23,4.2319e-05,437.19,-1.0092e-05,43.399,-1.5878e-05,-0.076315,1.9923
4449,21.997,3.6364,0.1,4.2033e-05,420.04,4.2646e-05,442.15,-9.7426e-06,48.525,-1.6211e-05,-0.076437,1.9924
4450,21.997,3.4545,0.1,4.2263e-05,422.34,4.2909e-05,446.1,-9.4729e-06,52.523,-1.6474e-05,-0.076931,1.9924
4451,21.997,3.2727,0.1,4.2426e-05,423.97,4.3093e-05,448.84,-9.2902e-06,55.256,-1.6655e-05,-0.077492,1.9924
4452,21.997,3.0909,0.1,4.2512e-05,424.82,4.3189e-05,450.25,-9.1981e-06,56.641,-1.6747e-05,-0.077853,1.9924
4453,21.997,2.9091,0.1,4.2512e-05,424.82,4.3189e-05,450.25,-9.1981e-06,56.641,-1.6747e-05,-0.077853,1.9924
4454,21.997,2.7273,0.1,4.2426e-05,423.97,4.3093e-05,448.84,-9.2902e-06,55.256,-1.6655e-05,-0.077492,1.9924
4455,21.997,2.5455,0.1,4.2263e-05,422.34,4.2909e-05,446.1,-9.4729e-06,52.523,-1.6474e-05,-0.07693,1.9924
4456,21.997,2.3636,0.1,4.2033e-05,420.04,4.2646e-05,442.15,-9.7426e-06,48.525,-1.6211e-05,-0.076436,1.9924
4457,21.997,2.1818,0.1,4.1752e-05,417.23,4.2319e-05,437.19,-1.0092e-05,43.399,-1.5878e-05,-0.076313,1.9923
4458,21.997,2,0.1,4.1437e-05,414.08,4.1943e-05,431.44,-1.0508e-05,37.341,-1.5488e-05,-0.076825,1.9923
4459,21.997,1.8182,0.1,4.1102e-05,410.73,4.1535e-05,425.14,-1.0974e-05,30.608,-1.5058e-05,-0.078194,1.9923
4460,21.997,1.6364,0.1,4.0759e-05,407.31,4.1107e-05,418.51,-1.1465e-05,23.509,-1.4605e-05,-0.080729,1.9922
4461,21.997,1.4545,0.1,4.0419e-05,403.92,4.0671e-05,411.81,-1.1957e-05,16.384,-1.4149e-05,-0.085321,1.9922
4462,21.997,1.2727,0.1,4.0089e-05,400.61,4.0241e-05,405.27,-1.2421e-05,9.5778,-1.3709e-05,-0.095718,1.9921
4463,21.997,1.0909,0.1,3.9774e-05,397.46,3.9829e-05,399.1,-1.283e-05,3.4413,-1.3307e-05,-0.14099,1.992
4464,21.997,0.90909,0.1,3.948e-05,394.53,3.9446e-05,393.54,-1.2922e-05,0.067754,-1.3202e-05,-2.0412,1.992
4465,21.997,0.72727,0.1,3.9217e-05,391.9,3.9109e-05,388.8,-1.2639e-05,-0.014339,-1.3451e-05,-6.1144,1.9919
4466,21.997,0.54545,0.1,3.8994e-05,389.67,3.8833e-05,385.08,-1.2421e-05,-0.020769,-1.3618e-05,-9.0167,1.9918
4467,21.997,0.36364,0.1,3.8835e-05,388.08,3.8642e-05,382.64,-1.2283e-05,0.0019582,-1.3704e-05,-10.673,1.9917
4468,21.997,0.18182,0.1,3.8908e-05,388.82,3.8688e-05,382.62,-1.2235e-05,0.003099,-1.3847e-05,-12.112,1.9916
4469,21.815,5.8182,0.1,4.1728e-05,416.99,4.151e-05,410.83,-1.3168e-05,0.0020313,-1.4775e-05,-12.071,1.9655
4470,21.815,5.6364,0.1,4.1699e-05,416.7,4.1514e-05,411.47,-1.3248e-05,0.0043472,-1.4616e-05,-10.277,1.9656
4471,21.815,5.4545,0.1,4.1912e-05,418.83,4.1771e-05,414.8,-1.3436e-05,-0.010505,-1.4492e-05,-7.9453,1.9657
4472,21.815,5.2727,0.1,4.2202e-05,421.73,4.2131e-05,419.67,-1.372e-05,0.025988,-1.4272e-05,-4.1196,1.9658
4473,21.815,5.0909,0.1,4.2551e-05,425.21,4.2571e-05,425.83,-1.3901e-05,1.5169,-1.4141e-05,-0.28944,1.9659
4474,21.815,4.9091,0.1,4.2948e-05,429.19,4.3076e-05,433.04,-1.3503e-05,7.9335,-1.4574e-05,-0.11285,1.9659
4475,21.815,4.7273,0.1,4.3387e-05,433.57,4.3628e-05,441.07,-1.301e-05,15.508,-1.5087e-05,-0.092615,1.966
4476,21.815,4.5455,0.1,4.3858e-05,438.28,4.4212e-05,449.63,-1.2468e-05,23.759,-1.5641e-05,-0.085127,1.9661
4477,21.815,4.3636,0.1,4.4353e-05,443.23,4.4812e-05,458.44,-1.1905e-05,32.29,-1.6214e-05,-0.081249,1.9661
4478,21.815,4.1818,0.1,4.486e-05,448.29,4.5412e-05,467.21,-1.1354e-05,40.692,-1.678e-05,-0.079121,1.9662
4479,21.815,4,0.1,4.5363e-05,453.31,4.5991e-05,475.6,-1.0843e-05,48.57,-1.7317e-05,-0.078274,1.9662
4480,21.815,3.8182,0.1,4.584e-05,458.08,4.653e-05,483.29,-1.0395e-05,55.578,-1.7803e-05,-0.078509,1.9663
4481,21.815,3.6364,0.1,4.6267e-05,462.36,4.7003e-05,489.96,-1.0029e-05,61.441,-1.8217e-05,-0.079556,1.9663
4482,21.815,3.4545,0.1,4.6619e-05,465.87,4.7387e-05,495.28,-9.752e-06,65.964,-1.8542e-05,-0.081009,1.9663
4483,21.815,3.2727,0.1,4.6869e-05,468.37,4.7658e-05,499,-9.568e-06,69.03,-1.8766e-05,-0.08237,1.9663
4484,21.815,3.0909,0.1,4.7e-05,469.67,4.7798e-05,500.92,-9.4765e-06,70.575,-1.8881e-05,-0.083184,1.9663
4485,21.815,2.9091,0.1,4.7e-05,469.67,4.7798e-05,500.92,-9.4765e-06,70.575,-1.8881e-05,-0.083186,1.9663
4486,21.815,2.7273,0.1,4.6869e-05,468.37,4.7658e-05,499,-9.568e-06,69.03,-1.8766e-05,-0.082369,1.9663
4487,21.815,2.5455,0.1,4.6619e-05,465.87,4.7387e-05,495.28,-9.752e-06,65.964,-1.8542e-05,-0.08101,1.9663
4488,21.815,2.3636,0.1,4.6267e-05,462.36,4.7003e-05,489.96,-1.0029e-05,61.441,-1.8217e-05,-0.079556,1.9663
4489,21.815,2.1818,0.1,4.584e-05,458.08,4.653e-05,483.29,-1.0395e-05,55.578,-1.7803e-05,-0.07851,1.9663
4490,21.815,2,0.1,4.5363e-05,453.31,4.5991e-05,475.6,-1.0843e-05,48.57,-1.7317e-05,-0.078275,1.9662
4491,21.815,1.8182,0.1,4.486e-05,448.29,4.5412e-05,467.21,-1.1354e-05,40.692,-1.678e-05,-0.079121,1.9662
4492,21.815,1.6364,0.1,4.4353e-05,443.23,4.4812e-05,458.44,-1.1905e-05,32.29,-1.6214e-05,-0.081248,1.9661
4493,21.815,1.4545,0.1,4.3858e-05,438.28,4.4212e-05,449.63,-1.2468e-05,23.759,-1.5641e-05,-0.085129,1.9661
4494,21.815,1.2727,0.1,4.3387e-05,433.57,4.3628e-05,441.07,-1.301e-05,15.508,-1.5087e-05,-0.092615,1.966
4495,21.815,1.0909,0.1,4.2948e-05,429.19,4.3076e-05,433.04,-1.3503e-05,7.9336,-1.4574e-05,-0.11285,1.9659
4496,21.815,0.90909,0.1,4.2551e-05,425.21,4.2571e-05,425.83,-1.3901e-05,1.517,-1.4141e-05,-0.28943,1.9659
4497,21.815,0.72727,0.1,4.2202e-05,421.73,4.2131e-05,419.67,-1.372e-05,0.025989,-1.4272e-05,-4.1196,1.9658
4498,21.815,0.54545,0.1,4.1912e-05,418.83,4.1771e-05,414.8,-1.3436e-05,-0.010504,-1.4492e-05,-7.9453,1.9657
4499,21.815,0.36364,0.1,4.1699e-05,416.7,4.1514e-05,411.47,-1.3248e-05,0.0043497,-1.4616e-05,-10.277,1.9656
4500,21.815,0.18182,0.1,4.1728e-05,416.99,4.151e-05,410.83,-1.3168e-05,0.0020316,-1.4775e-05,-12.071,1.9655
4501,21.633,5.8182,0.1,4.4276e-05,442.45,4.4054e-05,436.18,-1.3998e-05,0.0022748,-1.5633e-05,-12.282,1.9394
4502,21.633,5.6364,0.1,4.4313e-05,442.82,4.413e-05,437.62,-1.4113e-05,0.010815,-1.5476e-05,-10.23,1.9395
4503,21.633,5.4545,0.1,4.461e-05,445.79,4.4481e-05,442.1,-1.4357e-05,0.0091408,-1.533e-05,-7.2999,1.9396
4504,21.633,5.2727,0.1,4.5004e-05,449.73,4.4961e-05,448.47,-1.4709e-05,0.13779,-1.5079e-05,-2.6481,1.9397
4505,21.633,5.0909,0.1,4.5481e-05,454.49,4.5547e-05,456.46,-1.465e-05,4.1728,-1.5231e-05,-0.19588,1.9398
4506,21.633,4.9091,0.1,4.603e-05,459.98,4.6221e-05,465.83,-1.4174e-05,12.041,-1.5792e-05,-0.11597,1.9399
4507,21.633,4.7273,0.1,4.6644e-05,466.12,4.6965e-05,476.26,-1.3613e-05,21.096,-1.6434e-05,-0.097564,1.94
4508,21.633,4.5455,0.1,4.7313e-05,472.8,4.776e-05,487.43,-1.3004e-05,30.875,-1.7125e-05,-0.089362,1.94
4509,21.633,4.3636,0.1,4.8022e-05,479.89,4.8585e-05,498.99,-1.2382e-05,40.902,-1.7837e-05,-0.084829,1.9401
4510,21.633,4.1818,0.1,4.8755e-05,487.22,4.9417e-05,510.53,-1.1784e-05,50.686,-1.8541e-05,-0.082459,1.9401
4511,21.633,4,0.1,4.9487e-05,494.52,5.0229e-05,521.64,-1.1243e-05,59.758,-1.9208e-05,-0.081891,1.9402
4512,21.633,3.8182,0.1,5.0185e-05,501.5,5.0991e-05,531.88,-1.0784e-05,67.726,-1.9809e-05,-0.082933,1.9402
4513,21.633,3.6364,0.1,5.0813e-05,507.78,5.1665e-05,540.79,-1.042e-05,74.3,-2.032e-05,-0.085198,1.9402
4514,21.633,3.4545,0.1,5.1331e-05,512.95,5.2215e-05,547.93,-1.0155e-05,79.304,-2.0722e-05,-0.088012,1.9402
4515,21.633,3.2727,0.1,5.17e-05,516.65,5.2605e-05,552.93,-9.9852e-06,82.655,-2.0998e-05,-0.090548,1.9403
4516,21.633,3.0909,0.1,5.1893e-05,518.57,5.2808e-05,555.51,-9.9026e-06,84.33,-2.1139e-05,-0.092044,1.9403
4517,21.633,2.9091,0.1,5.1893e-05,518.57,5.2808e-05,555.51,-9.9026e-06,84.33,-2.1139e-05,-0.092044,1.9403
4518,21.633,2.7273,0.1,5.17e-05,516.65,5.2605e-05,552.93,-9.9852e-06,82.655,-2.0998e-05,-0.090547,1.9403
4519,21.633,2.5455,0.1,5.1331e-05,512.95,5.2215e-05,547.93,-1.0155e-05,79.304,-2.0722e-05,-0.088012,1.9402
4520,21.633,2.3636,0.1,5.0813e-05,507.78,5.1665e-05,540.79,-1.042e-05,74.3,-2.032e-05,-0.085197,1.9402
4521,21.633,2.1818,0.1,5.0185e-05,501.5,5.0991e-05,531.88,-1.0784e-05,67.726,-1.9809e-05,-0.082934,1.9402
4522,21.633,2,0.1,4.9487e-05,494.52,5.0229e-05,521.64,-1.1243e-05,59.758,-1.9208e-05,-0.081891,1.9402
4523,21.633,1.8182,0.1,4.8755e-05,487.22,4.9417e-05,510.53,-1.1784e-05,50.686,-1.8541e-05,-0.082458,1.9401
4524,21.633,1.6364,0.1,4.8022e-05,479.89,4.8585e-05,498.99,-1.2382e-05,40.902,-1.7837e-05,-0.084829,1.9401
4525,21.633,1.4545,0.1,4.7313e-05,472.8,4.776e-05,487.43,-1.3004e-05,30.875,-1.7125e-05,-0.089363,1.94
4526,21.633,1.2727,0.1,4.6644e-05,466.12,4.6965e-05,476.26,-1.3613e-05,21.096,-1.6434e-05,-0.097564,1.94
4527,21.633,1.0909,0.1,4.603e-05,459.98,4.6221e-05,465.83,-1.4174e-05,12.041,-1.5792e-05,-0.11597,1.9399
4528,21.633,0.90909,0.1,4.5481e-05,454.49,4.5547e-05,456.46,-1.465e-05,4.1728,-1.5231e-05,-0.19587,1.9398
4529,21.633,0.72727,0.1,4.5004e-05,449.73,4.4961e-05,448.47,-1.4709e-05,0.13779,-1.5079e-05,-2.648,1.9397
4530,21.633,0.54545,0.1,4.461e-05,445.79,4.4481e-05,442.1,-1.4357e-05,0.0091403,-1.533e-05,-7.2999,1.9396
4531,21.633,0.36364,0.1,4.4313e-05,442.82,4.413e-05,437.62,-1.4113e-05,0.010818,-1.5476e-05,-10.23,1.9395
4532,21.633,0.18182,0.1,4.4276e-05,442.45,4.4054e-05,436.18,-1.3998e-05,0.0022732,-1.5633e-05,-12.282,1.9394
4533,21.451,5.8182,0.1,4.6479e-05,464.47,4.6249e-05,457.96,-1.4701e-05,0.0039064,-1.64e-05,-12.762,1.9133
4534,21.451,5.6364,0.1,4.6606e-05,465.74,4.6418e-05,460.39,-1.4853e-05,0.022449,-1.6258e-05,-10.535,1.9134
4535,21.451,5.4545,0.1,4.7022e-05,469.89,4.6898e-05,466.33,-1.5162e-05,0.041927,-1.6109e-05,-7.0799,1.9136
4536,21.451,5.2727,0.1,4.7564e-05,475.31,4.754e-05,474.62,-1.5573e-05,0.40916,-1.5866e-05,-1.7891,1.9137
4537,21.451,5.0909,0.1,4.8221e-05,481.87,4.8324e-05,484.97,-1.5361e-05,6.4664,-1.6249e-05,-0.20556,1.9138
4538,21.451,4.9091,0.1,4.8983e-05,489.49,4.9228e-05,497.09,-1.4838e-05,15.715,-1.6947e-05,-0.13052,1.9138
4539,21.451,4.7273,0.1,4.984e-05,498.05,5.0233e-05,510.62,-1.4227e-05,26.299,-1.7742e-05,-0.10831,1.9139
4540,21.451,4.5455,0.1,5.0778e-05,507.43,5.1312e-05,525.17,-1.3568e-05,37.684,-1.8597e-05,-0.097445,1.914
4541,21.451,4.3636,0.1,5.178e-05,517.44,5.2439e-05,540.27,-1.2905e-05,49.295,-1.9478e-05,-0.091227,1.9141
4542,21.451,4.1818,0.1,5.2818e-05,527.82,5.3585e-05,555.42,-1.2282e-05,60.528,-2.0349e-05,-0.088043,1.9141
4543,21.451,4,0.1,5.3859e-05,538.22,5.4711e-05,570.07,-1.1736e-05,70.821,-2.1173e-05,-0.087581,1.9141
4544,21.451,3.8182,0.1,5.4857e-05,548.19,5.5774e-05,583.63,-1.1293e-05,79.719,-2.1915e-05,-0.089632,1.9142
4545,21.451,3.6364,0.1,5.5757e-05,557.18,5.6722e-05,595.48,-1.0963e-05,86.926,-2.2544e-05,-0.093617,1.9142
4546,21.451,3.4545,0.1,5.65e-05,564.61,5.7498e-05,605.01,-1.0739e-05,92.305,-2.3037e-05,-0.098457,1.9142
4547,21.451,3.2727,0.1,5.7031e-05,569.92,5.8051e-05,611.7,-1.0606e-05,95.844,-2.3375e-05,-0.10278,1.9142
4548,21.451,3.0909,0.1,5.7309e-05,572.69,5.8338e-05,615.15,-1.0544e-05,97.592,-2.3547e-05,-0.10531,1.9143
4549,21.451,2.9091,0.1,5.7309e-05,572.69,5.8338e-05,615.15,-1.0544e-05,97.592,-2.3547e-05,-0.10531,1.9143
4550,21.451,2.7273,0.1,5.7031e-05,569.92,5.8051e-05,611.7,-1.0606e-05,95.845,-2.3375e-05,-0.10278,1.9142
4551,21.451,2.5455,0.1,5.65e-05,564.61,5.7498e-05,605.01,-1.0739e-05,92.305,-2.3037e-05,-0.098457,1.9142
4552,21.451,2.3636,0.1,5.5757e-05,557.18,5.6722e-05,595.48,-1.0963e-05,86.926,-2.2544e-05,-0.093617,1.9142
4553,21.451,2.1818,0.1,5.4857e-05,548.19,5.5774e-05,583.63,-1.1293e-05,79.72,-2.1915e-05,-0.089632,1.9142
4554,21.451,2,0.1,5.3859e-05,538.22,5.4711e-05,570.07,-1.1736e-05,70.821,-2.1173e-05,-0.08758,1.9141
4555,21.451,1.8182,0.1,5.2818e-05,527.82,5.3585e-05,555.42,-1.2282e-05,60.528,-2.0349e-05,-0.088043,1.9141
4556,21.451,1.6364,0.1,5.178e-05,517.44,5.2439e-05,540.27,-1.2905e-05,49.295,-1.9478e-05,-0.091226,1.9141
4557,21.451,1.4545,0.1,5.0778e-05,507.43,5.1312e-05,525.17,-1.3568e-05,37.684,-1.8597e-05,-0.097447,1.914
4558,21.451,1.2727,0.1,4.984e-05,498.05,5.0233e-05,510.62,-1.4227e-05,26.299,-1.7742e-05,-0.10831,1.9139
4559,21.451,1.0909,0.1,4.8983e-05,489.49,4.9228e-05,497.09,-1.4838e-05,15.715,-1.6947e-05,-0.13052,1.9138
4560,21.451,0.90909,0.1,4.8221e-05,481.87,4.8324e-05,484.97,-1.5361e-05,6.4665,-1.6249e-05,-0.20556,1.9138
4561,21.451,0.72727,0.1,4.7564e-05,475.31,4.754e-05,474.62,-1.5573e-05,0.40917,-1.5866e-05,-1.789,1.9137
4562,21.451,0.54545,0.1,4.7022e-05,469.89,4.6898e-05,466.33,-1.5162e-05,0.041928,-1.6109e-05,-7.0799,1.9136
4563,21.451,0.36364,0.1,4.6606e-05,465.74,4.6418e-05,460.39,-1.4853e-05,0.022451,-1.6258e-05,-10.535,1.9134
4564,21.451,0.18182,0.1,4.6479e-05,464.47,4.6249e-05,457.96,-1.4701e-05,0.003904,-1.64e-05,-12.762,1.9133
4565,21.269,5.8182,0.1,4.825e-05,482.16,4.8006e-05,475.27,-1.5247e-05,0.0072451,-1.7048e-05,-13.519,1.8873
4566,21.269,5.6364,0.1,4.8491e-05,484.58,4.8292e-05,478.91,-1.5442e-05,0.040329,-1.6935e-05,-11.177,1.8874
4567,21.269,5.4545,0.1,4.9066e-05,490.32,4.8939e-05,486.69,-1.5823e-05,0.09032,-1.6802e-05,-7.2721,1.8875
4568,21.269,5.2727,0.1,4.981e-05,497.75,4.9797e-05,497.4,-1.6292e-05,0.83011,-1.6607e-05,-1.5365,1.8877
4569,21.269,5.0909,0.1,5.0712e-05,506.77,5.0844e-05,510.74,-1.6028e-05,8.2913,-1.7165e-05,-0.24775,1.8878
4570,21.269,4.9091,0.1,5.1764e-05,517.28,5.2056e-05,526.38,-1.5488e-05,18.885,-1.8022e-05,-0.15602,1.8878
4571,21.269,4.7273,0.1,5.2951e-05,529.14,5.3408e-05,543.9,-1.4853e-05,31.022,-1.8998e-05,-0.12561,1.8879
4572,21.269,4.5455,0.1,5.4253e-05,542.16,5.4866e-05,562.79,-1.417e-05,44.078,-2.0052e-05,-0.10997,1.888
4573,21.269,4.3636,0.1,5.5646e-05,556.08,5.6397e-05,582.47,-1.3492e-05,57.352,-2.1139e-05,-0.10074,1.8881
4574,21.269,4.1818,0.1,5.7095e-05,570.55,5.7961e-05,602.31,-1.2872e-05,70.094,-2.2214e-05,-0.095919,1.8881
4575,21.269,4,0.1,5.8551e-05,585.11,5.9508e-05,621.57,-1.2356e-05,81.607,-2.323e-05,-0.095261,1.8882
4576,21.269,3.8182,0.1,5.9951e-05,599.09,6.0977e-05,639.46,-1.1972e-05,91.353,-2.4143e-05,-0.098639,1.8882
4577,21.269,3.6364,0.1,6.1216e-05,611.74,6.2293e-05,655.15,-1.1721e-05,99.036,-2.4916e-05,-0.10518,1.8882
4578,21.269,3.4545,0.1,6.2263e-05,622.2,6.3375e-05,667.8,-1.1582e-05,104.6,-2.5518e-05,-0.11308,1.8883
4579,21.269,3.2727,0.1,6.3012e-05,629.69,6.4147e-05,676.68,-1.1519e-05,108.16,-2.593e-05,-0.1201,1.8883
4580,21.269,3.0909,0.1,6.3403e-05,633.6,6.455e-05,681.27,-1.1498e-05,109.88,-2.6138e-05,-0.12422,1.8883
4581,21.269,2.9091,0.1,6.3403e-05,633.6,6.455e-05,681.27,-1.1498e-05,109.88,-2.6138e-05,-0.12421,1.8883
4582,21.269,2.7273,0.1,6.3012e-05,629.69,6.4147e-05,676.68,-1.1519e-05,108.16,-2.593e-05,-0.1201,1.8883
4583,21.269,2.5455,0.1,6.2263e-05,622.2,6.3375e-05,667.8,-1.1582e-05,104.6,-2.5518e-05,-0.11308,1.8883
4584,21.269,2.3636,0.1,6.1216e-05,611.74,6.2293e-05,655.15,-1.1721e-05,99.036,-2.4916e-05,-0.10518,1.8882
4585,21.269,2.1818,0.1,5.9951e-05,599.09,6.0977e-05,639.46,-1.1972e-05,91.353,-2.4143e-05,-0.098639,1.8882
4586,21.269,2,0.1,5.8551e-05,585.11,5.9508e-05,621.57,-1.2356e-05,81.607,-2.323e-05,-0.095261,1.8882
4587,21.269,1.8182,0.1,5.7095e-05,570.55,5.7961e-05,602.31,-1.2872e-05,70.094,-2.2214e-05,-0.095918,1.8881
4588,21.269,1.6364,0.1,5.5646e-05,556.08,5.6397e-05,582.47,-1.3492e-05,57.352,-2.1139e-05,-0.10074,1.8881
4589,21.269,1.4545,0.1,5.4253e-05,542.16,5.4866e-05,562.79,-1.417e-05,44.078,-2.0052e-05,-0.10997,1.888
4590,21.269,1.2727,0.1,5.2951e-05,529.14,5.3408e-05,543.9,-1.4853e-05,31.022,-1.8998e-05,-0.12561,1.8879
4591,21.269,1.0909,0.1,5.1764e-05,517.28,5.2056e-05,526.38,-1.5488e-05,18.885,-1.8022e-05,-0.15603,1.8878
4592,21.269,0.90909,0.1,5.0712e-05,506.77,5.0844e-05,510.74,-1.6028e-05,8.2914,-1.7165e-05,-0.24775,1.8878
4593,21.269,0.72727,0.1,4.981e-05,497.75,4.9797e-05,497.4,-1.6292e-05,0.83013,-1.6607e-05,-1.5365,1.8877
4594,21.269,0.54545,0.1,4.9066e-05,490.32,4.8939e-05,486.69,-1.5823e-05,0.090322,-1.6802e-05,-7.2721,1.8875
4595,21.269,0.36364,0.1,4.8491e-05,484.58,4.8292e-05,478.91,-1.5442e-05,0.040329,-1.6935e-05,-11.177,1.8874
4596,21.269,0.18182,0.1,4.825e-05,482.16,4.8006e-05,475.27,-1.5247e-05,0.0072449,-1.7048e-05,-13.519,1.8873
4597,21.087,5.8182,0.1,4.9484e-05,494.49,4.922e-05,487.07,-1.5603e-05,0.013098,-1.754e-05,-14.545,1.8613
4598,21.087,5.6364,0.1,4.9865e-05,498.31,4.9649e-05,492.17,-1.5846e-05,0.065832,-1.7467e-05,-12.115,1.8614
4599,21.087,5.4545,0.1,5.0644e-05,506.09,5.0509e-05,502.2,-1.6309e-05,0.15586,-1.7374e-05,-7.8449,1.8616
4600,21.087,5.2727,0.1,5.1655e-05,516.2,5.1646e-05,515.94,-1.6859e-05,1.2193,-1.725e-05,-1.7189,1.8617
4601,21.087,5.0909,0.1,5.2887e-05,528.51,5.3038e-05,533.06,-1.6634e-05,9.5753,-1.7952e-05,-0.32488,1.8618
4602,21.087,4.9091,0.1,5.4328e-05,542.91,5.4657e-05,553.19,-1.6119e-05,21.413,-1.8995e-05,-0.19675,1.8619
4603,21.087,4.7273,0.1,5.5956e-05,559.18,5.6467e-05,575.81,-1.55e-05,35.072,-2.0188e-05,-0.15218,1.862
4604,21.087,4.5455,0.1,5.7745e-05,577.05,5.8428e-05,600.28,-1.4832e-05,49.837,-2.1482e-05,-0.12865,1.862
4605,21.087,4.3636,0.1,5.9659e-05,596.17,6.0494e-05,625.88,-1.4175e-05,64.851,-2.2821e-05,-0.11437,1.8621
4606,21.087,4.1818,0.1,6.1652e-05,616.09,6.2613e-05,651.78,-1.3599e-05,79.16,-2.4148e-05,-0.10664,1.8622
4607,21.087,4,0.1,6.366e-05,636.16,6.472e-05,677.03,-1.3161e-05,91.864,-2.5402e-05,-0.10537,1.8622
4608,21.087,3.8182,0.1,6.5595e-05,655.5,6.6731e-05,700.57,-1.2894e-05,102.3,-2.6524e-05,-0.11041,1.8623
4609,21.087,3.6364,0.1,6.7349e-05,673.02,6.854e-05,721.25,-1.2786e-05,110.2,-2.7469e-05,-0.12049,1.8623
4610,21.087,3.4545,0.1,6.8802e-05,687.54,7.0031e-05,737.94,-1.2794e-05,115.62,-2.82e-05,-0.1329,1.8623
4611,21.087,3.2727,0.1,6.9843e-05,697.94,7.1097e-05,749.67,-1.2852e-05,118.91,-2.8697e-05,-0.14395,1.8623
4612,21.087,3.0909,0.1,7.0386e-05,703.38,7.1652e-05,755.72,-1.2899e-05,120.44,-2.8948e-05,-0.15039,1.8623
4613,21.087,2.9091,0.1,7.0386e-05,703.38,7.1652e-05,755.72,-1.2899e-05,120.44,-2.8948e-05,-0.15039,1.8623
4614,21.087,2.7273,0.1,6.9843e-05,697.94,7.1097e-05,749.67,-1.2852e-05,118.91,-2.8697e-05,-0.14395,1.8623
4615,21.087,2.5455,0.1,6.8802e-05,687.54,7.0031e-05,737.94,-1.2794e-05,115.62,-2.82e-05,-0.1329,1.8623
4616,21.087,2.3636,0.1,6.7349e-05,673.02,6.854e-05,721.25,-1.2786e-05,110.2,-2.7469e-05,-0.12049,1.8623
4617,21.087,2.1818,0.1,6.5595e-05,655.5,6.6731e-05,700.57,-1.2894e-05,102.3,-2.6524e-05,-0.11041,1.8623
4618,21.087,2,0.1,6.366e-05,636.16,6.472e-05,677.03,-1.3161e-05,91.864,-2.5402e-05,-0.10537,1.8622
4619,21.087,1.8182,0.1,6.1652e-05,616.09,6.2613e-05,651.78,-1.3599e-05,79.16,-2.4148e-05,-0.10664,1.8622
4620,21.087,1.6364,0.1,5.9659e-05,596.17,6.0494e-05,625.88,-1.4175e-05,64.851,-2.2821e-05,-0.11437,1.8621
4621,21.087,1.4545,0.1,5.7745e-05,577.05,5.8428e-05,600.28,-1.4832e-05,49.837,-2.1482e-05,-0.12865,1.862
4622,21.087,1.2727,0.1,5.5956e-05,559.18,5.6467e-05,575.81,-1.55e-05,35.072,-2.0188e-05,-0.15218,1.862
4623,21.087,1.0909,0.1,5.4328e-05,542.91,5.4657e-05,553.19,-1.6119e-05,21.413,-1.8995e-05,-0.19676,1.8619
4624,21.087,0.90909,0.1,5.2887e-05,528.51,5.3038e-05,533.06,-1.6634e-05,9.5754,-1.7952e-05,-0.32488,1.8618
4625,21.087,0.72727,0.1,5.1655e-05,516.2,5.1646e-05,515.94,-1.6859e-05,1.2193,-1.725e-05,-1.7189,1.8617
4626,21.087,0.54545,0.1,5.0644e-05,506.09,5.0509e-05,502.2,-1.6309e-05,0.15586,-1.7374e-05,-7.8449,1.8616
4627,21.087,0.36364,0.1,4.9865e-05,498.31,4.9649e-05,492.17,-1.5846e-05,0.065832,-1.7467e-05,-12.115,1.8614
4628,21.087,0.18182,0.1,4.9484e-05,494.49,4.922e-05,487.07,-1.5603e-05,0.013097,-1.754e-05,-14.545,1.8613
4629,20.905,5.8182,0.1,5.0058e-05,500.24,4.9771e-05,492.16,-1.5728e-05,0.023351,-1.7835e-05,-15.805,1.8353
4630,20.905,5.6364,0.1,5.0604e-05,505.69,5.0366e-05,498.97,-1.6029e-05,0.10146,-1.7809e-05,-13.272,1.8355
4631,20.905,5.4545,0.1,5.1641e-05,516.06,5.1491e-05,511.75,-1.6586e-05,0.24157,-1.7782e-05,-8.7446,1.8356
4632,20.905,5.2727,0.1,5.3e-05,529.63,5.2985e-05,529.23,-1.7254e-05,1.4788,-1.7752e-05,-2.2639,1.8357
4633,20.905,5.0909,0.1,5.4668e-05,546.3,5.4825e-05,551.09,-1.7163e-05,10.195,-1.8581e-05,-0.45937,1.8358
4634,20.905,4.9091,0.1,5.6626e-05,565.86,5.6977e-05,576.89,-1.6737e-05,23.036,-1.9838e-05,-0.26286,1.8359
4635,20.905,4.7273,0.1,5.8841e-05,588,5.9392e-05,606.01,-1.6195e-05,38.085,-2.1289e-05,-0.1938,1.836
4636,20.905,4.5455,0.1,6.1273e-05,612.31,6.2015e-05,637.67,-1.5594e-05,54.546,-2.2875e-05,-0.15691,1.8361
4637,20.905,4.3636,0.1,6.3875e-05,638.31,6.4786e-05,670.92,-1.5008e-05,71.381,-2.4526e-05,-0.13383,1.8362
4638,20.905,4.1818,0.1,6.6588e-05,665.42,6.7639e-05,704.7,-1.4528e-05,87.334,-2.6167e-05,-0.12042,1.8363
4639,20.905,4,0.1,6.9327e-05,692.79,7.0488e-05,737.75,-1.4233e-05,101.18,-2.7716e-05,-0.11685,1.8363
4640,20.905,3.8182,0.1,7.1974e-05,719.24,7.3219e-05,768.63,-1.4163e-05,112.07,-2.9096e-05,-0.12417,1.8364
4641,20.905,3.6364,0.1,7.4376e-05,743.25,7.5682e-05,795.76,-1.4291e-05,119.75,-3.0247e-05,-0.14022,1.8364
4642,20.905,3.4545,0.1,7.6367e-05,763.14,7.7714e-05,817.65,-1.4534e-05,124.53,-3.1129e-05,-0.15944,1.8364
4643,20.905,3.2727,0.1,7.7791e-05,777.38,7.9165e-05,832.99,-1.4782e-05,127.1,-3.1722e-05,-0.17619,1.8364
4644,20.905,3.0909,0.1,7.8534e-05,784.8,7.992e-05,840.88,-1.4936e-05,128.18,-3.202e-05,-0.18582,1.8365
4645,20.905,2.9091,0.1,7.8534e-05,784.8,7.992e-05,840.88,-1.4936e-05,128.18,-3.202e-05,-0.18582,1.8365
4646,20.905,2.7273,0.1,7.7791e-05,777.38,7.9165e-05,832.99,-1.4782e-05,127.1,-3.1722e-05,-0.17619,1.8364
4647,20.905,2.5455,0.1,7.6367e-05,763.14,7.7714e-05,817.65,-1.4534e-05,124.53,-3.1129e-05,-0.15944,1.8364
4648,20.905,2.3636,0.1,7.4376e-05,743.25,7.5682e-05,795.76,-1.4291e-05,119.75,-3.0247e-05,-0.14022,1.8364
4649,20.905,2.1818,0.1,7.1974e-05,719.24,7.3219e-05,768.63,-1.4163e-05,112.07,-2.9096e-05,-0.12417,1.8364
4650,20.905,2,0.1,6.9327e-05,692.79,7.0488e-05,737.75,-1.4233e-05,101.18,-2.7716e-05,-0.11686,1.8363
4651,20.905,1.8182,0.1,6.6588e-05,665.42,6.7639e-05,704.7,-1.4528e-05,87.334,-2.6167e-05,-0.12042,1.8363
4652,20.905,1.6364,0.1,6.3875e-05,638.31,6.4786e-05,670.92,-1.5008e-05,71.381,-2.4526e-05,-0.13383,1.8362
4653,20.905,1.4545,0.1,6.1273e-05,612.31,6.2015e-05,637.67,-1.5594e-05,54.546,-2.2875e-05,-0.15691,1.8361
4654,20.905,1.2727,0.1,5.8841e-05,588,5.9392e-05,606.01,-1.6195e-05,38.085,-2.1289e-05,-0.1938,1.836
4655,20.905,1.0909,0.1,5.6626e-05,565.86,5.6977e-05,576.89,-1.6737e-05,23.036,-1.9838e-05,-0.26286,1.8359
4656,20.905,0.90909,0.1,5.4668e-05,546.3,5.4825e-05,551.09,-1.7163e-05,10.195,-1.8581e-05,-0.45937,1.8358
4657,20.905,0.72727,0.1,5.3e-05,529.63,5.2985e-05,529.23,-1.7254e-05,1.4788,-1.7752e-05,-2.2639,1.8357
4658,20.905,0.54545,0.1,5.1641e-05,516.06,5.1491e-05,511.75,-1.6586e-05,0.24157,-1.7782e-05,-8.7446,1.8356
4659,20.905,0.36364,0.1,5.0604e-05,505.69,5.0366e-05,498.97,-1.6029e-05,0.10146,-1.7809e-05,-13.272,1.8355
4660,20.905,0.18182,0.1,5.0058e-05,500.24,4.9771e-05,492.16,-1.5728e-05,0.023347,-1.7835e-05,-15.805,1.8353
4661,20.723,5.8182,0.1,4.9834e-05,498,4.9519e-05,489.18,-1.5581e-05,0.041953,-1.7879e-05,-17.225,1.8094
4662,20.723,5.6364,0.1,5.0565e-05,505.3,5.0305e-05,497.96,-1.5949e-05,0.15218,-1.7902e-05,-14.521,1.8095
4663,20.723,5.4545,0.1,5.1924e-05,518.88,5.1754e-05,514.03,-1.6612e-05,0.35469,-1.7977e-05,-9.8976,1.8097
4664,20.723,5.2727,0.1,5.3729e-05,536.92,5.3699e-05,536.09,-1.7433e-05,1.6229,-1.8082e-05,-3.2509,1.8098
4665,20.723,5.0909,0.1,5.5968e-05,559.29,5.6117e-05,563.83,-1.7601e-05,9.9378,-1.9019e-05,-0.71169,1.8099
4666,20.723,4.9091,0.1,5.8609e-05,585.69,5.8963e-05,596.78,-1.7365e-05,23.281,-2.0514e-05,-0.3788,1.8101
4667,20.723,4.7273,0.1,6.1601e-05,615.59,6.2171e-05,634.19,-1.6992e-05,39.394,-2.227e-05,-0.26419,1.8102
4668,20.723,4.5455,0.1,6.4884e-05,648.39,6.5665e-05,675.09,-1.6537e-05,57.452,-2.4211e-05,-0.20325,1.8102
4669,20.723,4.3636,0.1,6.8393e-05,683.46,6.9366e-05,718.28,-1.6088e-05,76.206,-2.6252e-05,-0.16473,1.8103
4670,20.723,4.1818,0.1,7.2055e-05,720.05,7.3188e-05,762.33,-1.5768e-05,93.948,-2.8291e-05,-0.14178,1.8104
4671,20.723,4,0.1,7.5761e-05,757.09,7.702e-05,805.57,-1.5698e-05,108.92,-3.0212e-05,-0.13595,1.8105
4672,20.723,3.8182,0.1,7.935e-05,792.95,8.0702e-05,845.99,-1.5933e-05,119.91,-3.1911e-05,-0.1454,1.8105
4673,20.723,3.6364,0.1,8.2607e-05,825.5,8.4025e-05,881.43,-1.6422e-05,126.7,-3.3308e-05,-0.1668,1.8106
4674,20.723,3.4545,0.1,8.53e-05,852.41,8.6758e-05,909.84,-1.7025e-05,130.05,-3.436e-05,-0.1949,1.8106
4675,20.723,3.2727,0.1,8.7219e-05,871.58,8.87e-05,929.62,-1.7559e-05,131.23,-3.5054e-05,-0.21911,1.8106
4676,20.723,3.0909,0.1,8.8216e-05,881.55,8.9707e-05,939.75,-1.7871e-05,131.46,-3.5398e-05,-0.23244,1.8106
4677,20.723,2.9091,0.1,8.8216e-05,881.55,8.9707e-05,939.75,-1.7871e-05,131.46,-3.5398e-05,-0.23244,1.8106
4678,20.723,2.7273,0.1,8.7219e-05,871.58,8.87e-05,929.62,-1.7559e-05,131.23,-3.5054e-05,-0.21911,1.8106
4679,20.723,2.5455,0.1,8.53e-05,852.41,8.6758e-05,909.84,-1.7025e-05,130.05,-3.436e-05,-0.1949,1.8106
4680,20.723,2.3636,0.1,8.2607e-05,825.5,8.4025e-05,881.43,-1.6422e-05,126.7,-3.3308e-05,-0.1668,1.8106
4681,20.723,2.1818,0.1,7.935e-05,792.95,8.0702e-05,845.99,-1.5933e-05,119.91,-3.1911e-05,-0.1454,1.8105
4682,20.723,2,0.1,7.5761e-05,757.09,7.702e-05,805.57,-1.5698e-05,108.92,-3.0212e-05,-0.13595,1.8105
4683,20.723,1.8182,0.1,7.2055e-05,720.05,7.3188e-05,762.33,-1.5768e-05,93.948,-2.8291e-05,-0.14179,1.8104
4684,20.723,1.6364,0.1,6.8393e-05,683.46,6.9366e-05,718.28,-1.6088e-05,76.206,-2.6252e-05,-0.16473,1.8103
4685,20.723,1.4545,0.1,6.4884e-05,648.39,6.5665e-05,675.09,-1.6537e-05,57.452,-2.4211e-05,-0.20325,1.8102
4686,20.723,1.2727,0.1,6.1601e-05,615.59,6.2171e-05,634.19,-1.6992e-05,39.394,-2.227e-05,-0.26419,1.8102
4687,20.723,1.0909,0.1,5.8609e-05,585.69,5.8963e-05,596.78,-1.7365e-05,23.281,-2.0514e-05,-0.3788,1.8101
4688,20.723,0.90909,0.1,5.5968e-05,559.29,5.6117e-05,563.83,-1.7601e-05,9.9378,-1.9019e-05,-0.71169,1.8099
4689,20.723,0.72727,0.1,5.3729e-05,536.92,5.3699e-05,536.09,-1.7433e-05,1.6229,-1.8082e-05,-3.2509,1.8098
4690,20.723,0.54545,0.1,5.1924e-05,518.88,5.1754e-05,514.03,-1.6612e-05,0.35469,-1.7977e-05,-9.8976,1.8097
4691,20.723,0.36364,0.1,5.0565e-05,505.31,5.0305e-05,497.96,-1.5949e-05,0.15218,-1.7902e-05,-14.521,1.8095
4692,20.723,0.18182,0.1,4.9834e-05,498,4.9519e-05,489.18,-1.5581e-05,0.041952,-1.7879e-05,-17.225,1.8094
4693,20.541,5.8182,0.1,4.8659e-05,486.25,4.8315e-05,476.68,-1.5117e-05,0.077634,-1.7612e-05,-18.672,1.7835
4694,20.541,5.6364,0.1,4.9594e-05,495.6,4.9312e-05,487.68,-1.5564e-05,0.22886,-1.7681e-05,-15.675,1.7837
4695,20.541,5.4545,0.1,5.1345e-05,513.09,5.1153e-05,507.64,-1.6342e-05,0.5096,-1.7904e-05,-11.225,1.7838
4696,20.541,5.2727,0.1,5.3722e-05,536.85,5.3665e-05,535.23,-1.7344e-05,1.697,-1.8219e-05,-4.8781,1.7839
4697,20.541,5.0909,0.1,5.6705e-05,566.66,5.6821e-05,570.2,-1.7938e-05,8.4913,-1.9237e-05,-1.2704,1.7841
4698,20.541,4.9091,0.1,6.0244e-05,602.02,6.0566e-05,612.08,-1.8057e-05,21.336,-2.0979e-05,-0.61494,1.7842
4699,20.541,4.7273,0.1,6.4261e-05,642.16,6.4812e-05,660.03,-1.7997e-05,37.833,-2.3085e-05,-0.39857,1.7843
4700,20.541,4.5455,0.1,6.8666e-05,686.18,6.9453e-05,712.84,-1.7805e-05,57.214,-2.5458e-05,-0.28528,1.7844
4701,20.541,4.3636,0.1,7.3372e-05,733.22,7.4382e-05,768.99,-1.7579e-05,78.03,-2.7992e-05,-0.21255,1.7845
4702,20.541,4.1818,0.1,7.8288e-05,782.34,7.9488e-05,826.58,-1.7495e-05,97.882,-3.0545e-05,-0.16631,1.7846
4703,20.541,4,0.1,8.3276e-05,832.19,8.4624e-05,883.25,-1.7749e-05,114.06,-3.2948e-05,-0.14283,1.7847
4704,20.541,3.8182,0.1,8.8113e-05,880.52,8.9565e-05,936.12,-1.8431e-05,124.69,-3.5047e-05,-0.15746,1.7847
4705,20.541,3.6364,0.1,9.249e-05,924.26,9.4005e-05,982.1,-1.9455e-05,129.61,-3.6732e-05,-0.20215,1.7848
4706,20.541,3.4545,0.1,9.6077e-05,960.11,9.7621e-05,1018.5,-2.0582e-05,130.34,-3.7961e-05,-0.24475,1.7848
4707,20.541,3.2727,0.1,9.8606e-05,985.38,0.00010016,1043.4,-2.1527e-05,129.11,-3.8747e-05,-0.27534,1.7848
4708,20.541,3.0909,0.1,9.9908e-05,998.39,0.00010146,1056,-2.2061e-05,127.93,-3.9126e-05,-0.29099,1.7849
4709,20.541,2.9091,0.1,9.9908e-05,998.39,0.00010146,1056,-2.2061e-05,127.93,-3.9126e-05,-0.29099,1.7849
4710,20.541,2.7273,0.1,9.8606e-05,985.38,0.00010016,1043.4,-2.1527e-05,129.11,-3.8747e-05,-0.27534,1.7848
4711,20.541,2.5455,0.1,9.6077e-05,960.11,9.7621e-05,1018.5,-2.0582e-05,130.34,-3.7961e-05,-0.24475,1.7848
4712,20.541,2.3636,0.1,9.249e-05,924.26,9.4005e-05,982.1,-1.9455e-05,129.61,-3.6732e-05,-0.20215,1.7848
4713,20.541,2.1818,0.1,8.8113e-05,880.52,8.9565e-05,936.12,-1.8431e-05,124.69,-3.5047e-05,-0.15745,1.7847
4714,20.541,2,0.1,8.3276e-05,832.19,8.4624e-05,883.25,-1.7749e-05,114.06,-3.2948e-05,-0.14283,1.7847
4715,20.541,1.8182,0.1,7.8288e-05,782.34,7.9488e-05,826.58,-1.7495e-05,97.882,-3.0545e-05,-0.16631,1.7846
4716,20.541,1.6364,0.1,7.3372e-05,733.22,7.4382e-05,768.99,-1.7579e-05,78.03,-2.7992e-05,-0.21255,1.7845
4717,20.541,1.4545,0.1,6.8666e-05,686.18,6.9453e-05,712.84,-1.7805e-05,57.214,-2.5458e-05,-0.28528,1.7844
4718,20.541,1.2727,0.1,6.4261e-05,642.16,6.4812e-05,660.03,-1.7997e-05,37.833,-2.3085e-05,-0.39857,1.7843
4719,20.541,1.0909,0.1,6.0244e-05,602.02,6.0566e-05,612.08,-1.8057e-05,21.336,-2.0979e-05,-0.61494,1.7842
4720,20.541,0.90909,0.1,5.6705e-05,566.66,5.6821e-05,570.2,-1.7938e-05,8.4914,-1.9237e-05,-1.2703,1.7841
4721,20.541,0.72727,0.1,5.3722e-05,536.85,5.3665e-05,535.23,-1.7344e-05,1.697,-1.8219e-05,-4.8781,1.7839
4722,20.541,0.54545,0.1,5.1345e-05,513.1,5.1153e-05,507.64,-1.6342e-05,0.5096,-1.7904e-05,-11.225,1.7838
4723,20.541,0.36364,0.1,4.9594e-05,495.6,4.9312e-05,487.68,-1.5564e-05,0.22886,-1.7681e-05,-15.675,1.7837
4724,20.541,0.18182,0.1,4.8659e-05,486.25,4.8315e-05,476.68,-1.5117e-05,0.077637,-1.7612e-05,-18.672,1.7835
4725,20.359,5.8182,0.1,4.6374e-05,463.42,4.6004e-05,453.19,-1.4292e-05,0.14664,-1.6966e-05,-19.944,1.7576
4726,20.359,5.6364,0.1,4.753e-05,474.97,4.7232e-05,466.67,-1.483e-05,0.35289,-1.7074e-05,-16.508,1.7578
4727,20.359,5.4545,0.1,4.9764e-05,497.29,4.9547e-05,491.17,-1.5728e-05,0.727,-1.7514e-05,-12.695,1.758
4728,20.359,5.2727,0.1,5.2869e-05,528.32,5.2764e-05,525.37,-1.6928e-05,1.7307,-1.8159e-05,-7.521,1.7581
4729,20.359,5.0909,0.1,5.6814e-05,567.74,5.6857e-05,569.11,-1.8122e-05,5.7458,-1.9275e-05,-2.9163,1.7582
4730,20.359,4.9091,0.1,6.1524e-05,614.81,6.1756e-05,621.99,-1.8898e-05,15.986,-2.1194e-05,-1.2643,1.7584
4731,20.359,4.7273,0.1,6.6888e-05,668.42,6.7353e-05,683.2,-1.9389e-05,31.457,-2.3673e-05,-0.72955,1.7585
4732,20.359,4.5455,0.1,7.2778e-05,727.28,7.3507e-05,751.4,-1.9644e-05,51.499,-2.6562e-05,-0.4776,1.7586
4733,20.359,4.3636,0.1,7.9076e-05,790.21,8.0072e-05,824.66,-1.976e-05,74.562,-2.9728e-05,-0.33176,1.7587
4734,20.359,4.1818,0.1,8.5666e-05,856.07,8.6899e-05,900.39,-1.9997e-05,97.221,-3.2968e-05,-0.23938,1.7588
4735,20.359,4,0.1,9.2377e-05,923.13,9.3788e-05,975.1,-2.0686e-05,114.99,-3.6021e-05,-0.23178,1.7589
4736,20.359,3.8182,0.1,9.8875e-05,988.07,0.0001004,1044.3,-2.2001e-05,124.69,-3.863e-05,-0.24756,1.759
4737,20.359,3.6364,0.1,0.00010469,1046.2,0.00010626,1103.5,-2.3792e-05,126.3,-4.0637e-05,-0.26291,1.759
4738,20.359,3.4545,0.1,0.00010937,1092.9,0.00011093,1148.9,-2.5654e-05,122.66,-4.2021e-05,-0.31455,1.7591
4739,20.359,3.2727,0.1,0.00011258,1125,0.00011411,1179,-2.7152e-05,117.63,-4.2854e-05,-0.34937,1.7591
4740,20.359,3.0909,0.1,0.0001142,1141.2,0.00011571,1193.9,-2.7974e-05,114.32,-4.3236e-05,-0.35764,1.7591
4741,20.359,2.9091,0.1,0.0001142,1141.2,0.00011571,1193.9,-2.7974e-05,114.32,-4.3236e-05,-0.35764,1.7591
4742,20.359,2.7273,0.1,0.00011258,1125,0.00011411,1179,-2.7152e-05,117.63,-4.2854e-05,-0.34937,1.7591
4743,20.359,2.5455,0.1,0.00010937,1092.9,0.00011093,1148.9,-2.5654e-05,122.66,-4.2021e-05,-0.31455,1.7591
4744,20.359,2.3636,0.1,0.00010469,1046.2,0.00010626,1103.5,-2.3792e-05,126.3,-4.0637e-05,-0.26291,1.759
4745,20.359,2.1818,0.1,9.8875e-05,988.07,0.0001004,1044.3,-2.2001e-05,124.69,-3.863e-05,-0.24756,1.759
4746,20.359,2,0.1,9.2377e-05,923.13,9.3788e-05,975.1,-2.0686e-05,114.99,-3.6021e-05,-0.23178,1.7589
4747,20.359,1.8182,0.1,8.5666e-05,856.07,8.6899e-05,900.39,-1.9997e-05,97.221,-3.2968e-05,-0.23938,1.7588
4748,20.359,1.6364,0.1,7.9076e-05,790.21,8.0072e-05,824.66,-1.976e-05,74.562,-2.9728e-05,-0.33176,1.7587
4749,20.359,1.4545,0.1,7.2778e-05,727.28,7.3507e-05,751.4,-1.9644e-05,51.499,-2.6562e-05,-0.4776,1.7586
4750,20.359,1.2727,0.1,6.6888e-05,668.42,6.7353e-05,683.2,-1.9389e-05,31.457,-2.3673e-05,-0.72955,1.7585
4751,20.359,1.0909,0.1,6.1524e-05,614.81,6.1756e-05,621.99,-1.8898e-05,15.986,-2.1194e-05,-1.2643,1.7584
4752,20.359,0.90909,0.1,5.6814e-05,567.74,5.6857e-05,569.11,-1.8122e-05,5.7458,-1.9275e-05,-2.9163,1.7582
4753,20.359,0.72727,0.1,5.2869e-05,528.32,5.2764e-05,525.37,-1.6928e-05,1.7307,-1.8159e-05,-7.521,1.7581
4754,20.359,0.54545,0.1,4.9764e-05,497.29,4.9547e-05,491.17,-1.5728e-05,0.727,-1.7514e-05,-12.695,1.758
4755,20.359,0.36364,0.1,4.753e-05,474.97,4.7232e-05,466.67,-1.483e-05,0.35289,-1.7074e-05,-16.508,1.7578
4756,20.359,0.18182,0.1,4.6374e-05,463.42,4.6004e-05,453.19,-1.4292e-05,0.14664,-1.6966e-05,-19.944,1.7576
4757,20.177,5.8182,0.1,4.2831e-05,428.01,4.2443e-05,417.39,-1.3069e-05,0.29045,-1.587e-05,-20.761,1.7318
4758,20.177,5.6364,0.1,4.4236e-05,442.05,4.3934e-05,433.68,-1.3708e-05,0.57773,-1.6023e-05,-16.814,1.732
4759,20.177,5.4545,0.1,4.7078e-05,470.46,4.6831e-05,463.56,-1.4727e-05,1.0366,-1.6789e-05,-14.454,1.7321
4760,20.177,5.2727,0.1,5.1115e-05,510.8,5.0928e-05,505.57,-1.6128e-05,1.7335,-1.7946e-05,-11.924,1.7323
4761,20.177,5.0909,0.1,5.6288e-05,562.49,5.6186e-05,559.67,-1.7888e-05,3.1086,-1.9443e-05,-8.5739,1.7324
4762,20.177,4.9091,0.1,6.2503e-05,624.6,6.2536e-05,625.75,-1.9805e-05,7.0674,-2.1358e-05,-4.6038,1.7326
4763,20.177,4.7273,0.1,6.9626e-05,695.78,6.987e-05,703.36,-2.1386e-05,17.698,-2.4023e-05,-2.1196,1.7327
4764,20.177,4.5455,0.1,7.7493e-05,774.39,7.8026e-05,791.41,-2.245e-05,36.469,-2.7446e-05,-1.0727,1.7329
4765,20.177,4.3636,0.1,8.5927e-05,858.67,8.68e-05,887.63,-2.3106e-05,61.846,-3.1408e-05,-0.53162,1.733
4766,20.177,4.1818,0.1,9.4801e-05,947.36,9.5991e-05,988.42,-2.3754e-05,88.709,-3.5599e-05,-0.29315,1.7331
4767,20.177,4,0.1,0.00010386,1037.9,0.00010529,1088.2,-2.4999e-05,109.28,-3.955e-05,-0.056022,1.7332
4768,20.177,3.8182,0.1,0.00011261,1125.4,0.00011415,1179.4,-2.7191e-05,117.45,-4.2837e-05,-0.10535,1.7333
4769,20.177,3.6364,0.1,0.00012026,1201.7,0.00012177,1254.2,-3.0047e-05,113.5,-4.5206e-05,-0.39314,1.7334
4770,20.177,3.4545,0.1,0.0001261,1260.2,0.00012753,1308.3,-3.2872e-05,103.09,-4.6653e-05,-0.45571,1.7334
4771,20.177,3.2727,0.1,0.00012991,1298.2,0.00013123,1341.8,-3.5027e-05,92.618,-4.7412e-05,-0.44295,1.7335
4772,20.177,3.0909,0.1,0.00013175,1316.6,0.000133,1357.4,-3.6162e-05,86.451,-4.7724e-05,-0.42172,1.7335
4773,20.177,2.9091,0.1,0.00013175,1316.6,0.000133,1357.4,-3.6162e-05,86.451,-4.7724e-05,-0.42171,1.7335
4774,20.177,2.7273,0.1,0.00012991,1298.2,0.00013123,1341.8,-3.5027e-05,92.618,-4.7412e-05,-0.44295,1.7335
4775,20.177,2.5455,0.1,0.0001261,1260.2,0.00012753,1308.3,-3.2872e-05,103.09,-4.6653e-05,-0.45571,1.7334
4776,20.177,2.3636,0.1,0.00012026,1201.7,0.00012177,1254.2,-3.0047e-05,113.5,-4.5206e-05,-0.39314,1.7334
4777,20.177,2.1818,0.1,0.00011261,1125.4,0.00011415,1179.4,-2.7191e-05,117.45,-4.2837e-05,-0.10535,1.7333
4778,20.177,2,0.1,0.00010386,1037.9,0.00010529,1088.2,-2.4999e-05,109.28,-3.955e-05,-0.056022,1.7332
4779,20.177,1.8182,0.1,9.4801e-05,947.36,9.5991e-05,988.42,-2.3754e-05,88.709,-3.5599e-05,-0.29315,1.7331
4780,20.177,1.6364,0.1,8.5927e-05,858.67,8.68e-05,887.63,-2.3106e-05,61.846,-3.1408e-05,-0.53162,1.733
4781,20.177,1.4545,0.1,7.7493e-05,774.39,7.8026e-05,791.41,-2.245e-05,36.469,-2.7446e-05,-1.0727,1.7329
4782,20.177,1.2727,0.1,6.9626e-05,695.78,6.987e-05,703.36,-2.1386e-05,17.698,-2.4023e-05,-2.1196,1.7327
4783,20.177,1.0909,0.1,6.2503e-05,624.6,6.2536e-05,625.75,-1.9805e-05,7.0674,-2.1358e-05,-4.6038,1.7326
4784,20.177,0.90909,0.1,5.6288e-05,562.49,5.6186e-05,559.67,-1.7888e-05,3.1086,-1.9443e-05,-8.5739,1.7324
4785,20.177,0.72727,0.1,5.1115e-05,510.8,5.0928e-05,505.57,-1.6128e-05,1.7335,-1.7946e-05,-11.924,1.7323
4786,20.177,0.54545,0.1,4.7078e-05,470.46,4.6831e-05,463.56,-1.4727e-05,1.0366,-1.6789e-05,-14.454,1.7321
4787,20.177,0.36364,0.1,4.4236e-05,442.05,4.3934e-05,433.68,-1.3708e-05,0.57773,-1.6023e-05,-16.814,1.732
4788,20.177,0.18182,0.1,4.2831e-05,428.01,4.2443e-05,417.39,-1.3069e-05,0.29045,-1.587e-05,-20.761,1.7318
4789,19.995,5.8182,0.1,3.7915e-05,378.89,3.7525e-05,368.31,-1.1418e-05,0.56887,-1.4264e-05,-20.815,1.706
4790,19.995,5.6364,0.1,3.9652e-05,396.25,3.9356e-05,388.13,-1.217e-05,0.9821,-1.4514e-05,-16.632,1.7062
4791,19.995,5.4545,0.1,4.3312e-05,432.82,4.3014e-05,424.64,-1.3315e-05,1.4089,-1.5787e-05,-17.168,1.7063
4792,19.995,5.2727,0.1,4.8551e-05,485.17,4.821e-05,475.84,-1.4898e-05,1.6682,-1.7733e-05,-19.629,1.7065
4793,19.995,5.0909,0.1,5.5258e-05,552.2,5.4874e-05,541.7,-1.6963e-05,1.9377,-2.0169e-05,-22.147,1.7067
4794,19.995,4.9091,0.1,6.3347e-05,633.03,6.2973e-05,622.75,-1.9584e-05,2.4519,-2.2875e-05,-22.279,1.7068
4795,19.995,4.7273,0.1,7.2721e-05,726.71,7.2471e-05,719.81,-2.2812e-05,3.8852,-2.5623e-05,-17.232,1.707
4796,19.995,4.5455,0.1,8.3236e-05,831.78,8.3271e-05,833.09,-2.6241e-05,10.257,-2.8587e-05,-7.3655,1.7072
4797,19.995,4.3636,0.1,9.4699e-05,946.33,9.5167e-05,961.05,-2.8368e-05,32.86,-3.3066e-05,-2.4441,1.7073
4798,19.995,4.1818,0.1,0.0001068,1067.3,0.00010775,1098.3,-2.9626e-05,66.091,-3.8541e-05,-0.89615,1.7074
4799,19.995,4,0.1,0.00011933,1192.4,0.0001206,1235.2,-3.1518e-05,92.238,-4.3958e-05,-1.2308,1.7076
4800,19.995,3.8182,0.1,0.00013117,1310.7,0.00013254,1356.6,-3.4893e-05,98.578,-4.8174e-05,-1.211,1.7077
4801,19.995,3.6364,0.1,0.00014085,1407.5,0.00014211,1448.3,-3.9186e-05,86.177,-5.073e-05,-0.564,1.7078
4802,19.995,3.4545,0.1,0.00014756,1474.5,0.00014855,1506.1,-4.3091e-05,66.119,-5.1998e-05,-0.80307,1.7079
4803,19.995,3.2727,0.1,0.00015138,1512.8,0.00015215,1536.4,-4.5805e-05,49.06,-5.242e-05,-0.64295,1.7079
4804,19.995,3.0909,0.1,0.00015305,1529.5,0.00015368,1548.8,-4.7142e-05,39.853,-5.2506e-05,-0.45547,1.708
4805,19.995,2.9091,0.1,0.00015305,1529.5,0.00015368,1548.8,-4.7142e-05,39.853,-5.2506e-05,-0.45547,1.708
4806,19.995,2.7273,0.1,0.00015138,1512.8,0.00015215,1536.4,-4.5805e-05,49.06,-5.242e-05,-0.64294,1.7079
4807,19.995,2.5455,0.1,0.00014756,1474.5,0.00014855,1506.1,-4.3091e-05,66.119,-5.1998e-05,-0.80307,1.7079
4808,19.995,2.3636,0.1,0.00014085,1407.5,0.00014211,1448.3,-3.9186e-05,86.177,-5.073e-05,-0.564,1.7078
4809,19.995,2.1818,0.1,0.00013117,1310.7,0.00013254,1356.6,-3.4893e-05,98.578,-4.8174e-05,-1.211,1.7077
4810,19.995,2,0.1,0.00011933,1192.4,0.0001206,1235.2,-3.1518e-05,92.238,-4.3958e-05,-1.2308,1.7076
4811,19.995,1.8182,0.1,0.0001068,1067.3,0.00010775,1098.3,-2.9626e-05,66.091,-3.8541e-05,-0.89616,1.7074
4812,19.995,1.6364,0.1,9.4699e-05,946.33,9.5167e-05,961.05,-2.8368e-05,32.86,-3.3066e-05,-2.4441,1.7073
4813,19.995,1.4545,0.1,8.3236e-05,831.78,8.3271e-05,833.09,-2.6241e-05,10.257,-2.8587e-05,-7.3655,1.7072
4814,19.995,1.2727,0.1,7.2721e-05,726.71,7.2471e-05,719.81,-2.2812e-05,3.8852,-2.5623e-05,-17.232,1.707
4815,19.995,1.0909,0.1,6.3347e-05,633.03,6.2973e-05,622.75,-1.9584e-05,2.4519,-2.2875e-05,-22.279,1.7068
4816,19.995,0.90909,0.1,5.5258e-05,552.2,5.4874e-05,541.7,-1.6963e-05,1.9377,-2.0169e-05,-22.147,1.7067
4817,19.995,0.72727,0.1,4.8551e-05,485.17,4.821e-05,475.84,-1.4898e-05,1.6682,-1.7733e-05,-19.629,1.7065
4818,19.995,0.54545,0.1,4.3312e-05,432.82,4.3014e-05,424.64,-1.3315e-05,1.4089,-1.5787e-05,-17.168,1.7063
4819,19.995,0.36364,0.1,3.9652e-05,396.25,3.9356e-05,388.13,-1.217e-05,0.9821,-1.4514e-05,-16.632,1.7062
4820,19.995,0.18182,0.1,3.7915e-05,378.89,3.7525e-05,368.31,-1.1418e-05,0.56888,-1.4264e-05,-20.815,1.706
4821,19.813,5.8182,0.1,3.158e-05,315.59,3.1211e-05,305.76,-9.3164e-06,1.2547,-1.2124e-05,-19.842,1.6802
4822,19.813,5.6364,0.1,3.3914e-05,338.9,3.3621e-05,331.04,-1.0201e-05,1.7788,-1.2666e-05,-16.741,1.6804
4823,19.813,5.4545,0.1,3.8781e-05,387.54,3.8367e-05,376.49,-1.1502e-05,1.7996,-1.4767e-05,-22.732,1.6806
4824,19.813,5.2727,0.1,4.5573e-05,455.41,4.4926e-05,438.38,-1.3205e-05,1.6142,-1.7895e-05,-33.627,1.6808
4825,19.813,5.0909,0.1,5.41e-05,540.63,5.3174e-05,516.52,-1.5362e-05,1.5632,-2.1769e-05,-46.575,1.6809
4826,19.813,4.9091,0.1,6.438e-05,643.36,6.3201e-05,612.83,-1.8132e-05,1.7238,-2.6153e-05,-58.543,1.6811
4827,19.813,4.7273,0.1,7.6529e-05,764.76,7.523e-05,730.91,-2.1771e-05,2.0787,-3.0742e-05,-65.328,1.6813
4828,19.813,4.5455,0.1,9.0701e-05,906.38,8.9543e-05,875.62,-2.6629e-05,2.7453,-3.5102e-05,-60.916,1.6815
4829,19.813,4.3636,0.1,0.00010645,1063.7,0.00010587,1048,-3.2801e-05,6.0693,-3.8439e-05,-36.296,1.6817
4830,19.813,4.1818,0.1,0.00012361,1235.2,0.00012388,1243.5,-3.8761e-05,21.486,-4.2232e-05,-4.5881,1.6818
4831,19.813,4,0.1,0.00014148,1413.9,0.00014243,1443,-4.2092e-05,56.627,-4.9202e-05,3.2048,1.682
4832,19.813,3.8182,0.1,0.00015769,1575.8,0.00015869,1606.8,-4.6863e-05,62.405,-5.4982e-05,1.4018,1.6822
4833,19.813,3.6364,0.1,0.00016942,1693,0.00016995,1709.3,-5.261e-05,37.089,-5.805e-05,-3.783,1.6823
4834,19.813,3.4545,0.1,0.00017518,1750.6,0.00017523,1752.1,-5.6736e-05,9.2131,-5.8772e-05,-6.0845,1.6824
4835,19.813,3.2727,0.1,0.00017737,1772.5,0.00017705,1763.2,-5.7531e-05,0.63383,-6.0158e-05,-19.1,1.6825
4836,19.813,3.0909,0.1,0.00017796,1778.4,0.00017746,1763.9,-5.7339e-05,-0.27779,-6.1082e-05,-28.398,1.6825
4837,19.813,2.9091,0.1,0.00017796,1778.4,0.00017746,1763.9,-5.7339e-05,-0.27779,-6.1082e-05,-28.398,1.6825
4838,19.813,2.7273,0.1,0.00017737,1772.5,0.00017705,1763.2,-5.7531e-05,0.63383,-6.0158e-05,-19.1,1.6825
4839,19.813,2.5455,0.1,0.00017518,1750.6,0.00017523,1752.1,-5.6736e-05,9.2131,-5.8772e-05,-6.0845,1.6824
4840,19.813,2.3636,0.1,0.00016942,1693,0.00016995,1709.3,-5.261e-05,37.089,-5.805e-05,-3.783,1.6823
4841,19.813,2.1818,0.1,0.00015769,1575.8,0.00015869,1606.8,-4.6863e-05,62.405,-5.4982e-05,1.4018,1.6822
4842,19.813,2,0.1,0.00014148,1413.9,0.00014243,1443,-4.2092e-05,56.627,-4.9202e-05,3.2048,1.682
4843,19.813,1.8182,0.1,0.00012361,1235.2,0.00012388,1243.5,-3.8761e-05,21.486,-4.2232e-05,-4.5882,1.6818
4844,19.813,1.6364,0.1,0.00010645,1063.7,0.00010587,1048,-3.2801e-05,6.0693,-3.8439e-05,-36.296,1.6817
4845,19.813,1.4545,0.1,9.0701e-05,906.38,8.9543e-05,875.62,-2.6629e-05,2.7453,-3.5102e-05,-60.916,1.6815
4846,19.813,1.2727,0.1,7.6529e-05,764.76,7.523e-05,730.91,-2.1771e-05,2.0787,-3.0742e-05,-65.328,1.6813
4847,19.813,1.0909,0.1,6.438e-05,643.36,6.3201e-05,612.83,-1.8132e-05,1.7238,-2.6153e-05,-58.543,1.6811
4848,19.813,0.90909,0.1,5.41e-05,540.63,5.3174e-05,516.52,-1.5362e-05,1.5632,-2.1769e-05,-46.575,1.6809
4849,19.813,0.72727,0.1,4.5573e-05,455.41,4.4926e-05,438.38,-1.3205e-05,1.6142,-1.7895e-05,-33.627,1.6808
4850,19.813,0.54545,0.1,3.8781e-05,387.54,3.8367e-05,376.49,-1.1502e-05,1.7996,-1.4767e-05,-22.732,1.6806
4851,19.813,0.36364,0.1,3.3914e-05,338.9,3.3621e-05,331.04,-1.0201e-05,1.7788,-1.2666e-05,-16.741,1.6804
4852,19.813,0.18182,0.1,3.158e-05,315.59,3.1211e-05,305.76,-9.3164e-06,1.2547,-1.2124e-05,-19.842,1.6802
4853,19.631,5.8182,0.1,2.3987e-05,239.7,2.3638e-05,230.81,-6.7651e-06,2.3701,-9.5778e-06,-18.763,1.6544
4854,19.631,5.6364,0.1,2.7735e-05,277.15,2.7351e-05,267.27,-7.9117e-06,2.3192,-1.097e-05,-20.657,1.6546
4855,19.631,5.4545,0.1,3.4514e-05,344.9,3.3755e-05,325.71,-9.3868e-06,1.5552,-1.4484e-05,-36.744,1.6548
4856,19.631,5.2727,0.1,4.3212e-05,431.82,4.1884e-05,399.1,-1.1088e-05,1.0899,-1.9222e-05,-60.03,1.655
4857,19.631,5.0909,0.1,5.3702e-05,536.65,5.1688e-05,488.05,-1.3141e-05,0.94839,-2.4878e-05,-87.235,1.6552
4858,19.631,4.9091,0.1,6.6304e-05,662.58,6.355e-05,596.91,-1.5769e-05,0.92989,-3.1406e-05,-116.56,1.6554
4859,19.631,4.7273,0.1,8.1694e-05,816.38,7.8227e-05,733.9,-1.9298e-05,1.143,-3.889e-05,-146.06,1.6557
4860,19.631,4.5455,0.1,0.00010058,1005.1,9.6669e-05,911.21,-2.4367e-05,1.7889,-4.6951e-05,-167.9,1.6559
4861,19.631,4.3636,0.1,0.00012379,1237,0.00012014,1146.5,-3.2205e-05,1.7902,-5.4513e-05,-165.83,1.6561
4862,19.631,4.1818,0.1,0.00015221,1521.1,0.0001497,1455.1,-4.3754e-05,1.5106,-6.0664e-05,-125.54,1.6563
4863,19.631,4,0.1,0.00017831,1781.8,0.00017759,1760.7,-5.9194e-05,-18.357,-5.9924e-05,-23.839,1.6565
4864,19.631,3.8182,0.1,0.00020174,2016,0.00020136,2005.2,-6.5061e-05,3.3662,-6.8809e-05,-24.797,1.6567
4865,19.631,3.6364,0.1,0.00021001,2098.7,0.00020906,2072,-6.5816e-05,6.7137,-7.4509e-05,-58.606,1.6569
4866,19.631,3.4545,0.1,0.00020974,2096,0.00020803,2048.7,-6.4532e-05,0.73226,-7.6911e-05,-92.278,1.6571
4867,19.631,3.2727,0.1,0.00020671,2065.7,0.00020467,2009.7,-6.2787e-05,0.12768,-7.7174e-05,-107.97,1.6572
4868,19.631,3.0909,0.1,0.00020476,2046.2,0.00020257,1986.4,-6.1808e-05,-0.043783,-7.7085e-05,-114.83,1.6572
4869,19.631,2.9091,0.1,0.00020476,2046.2,0.00020257,1986.4,-6.1808e-05,-0.043783,-7.7085e-05,-114.83,1.6572
4870,19.631,2.7273,0.1,0.00020671,2065.7,0.00020467,2009.7,-6.2787e-05,0.12768,-7.7174e-05,-107.97,1.6572
4871,19.631,2.5455,0.1,0.00020974,2096,0.00020803,2048.7,-6.4532e-05,0.73226,-7.6911e-05,-92.278,1.6571
4872,19.631,2.3636,0.1,0.00021001,2098.7,0.00020906,2072,-6.5816e-05,6.7137,-7.4509e-05,-58.606,1.6569
4873,19.631,2.1818,0.1,0.00020174,2016,0.00020136,2005.2,-6.5061e-05,3.3662,-6.8809e-05,-24.797,1.6567
4874,19.631,2,0.1,0.00017831,1781.8,0.00017759,1760.7,-5.9194e-05,-18.357,-5.9924e-05,-23.839,1.6565
4875,19.631,1.8182,0.1,0.00015221,1521.1,0.0001497,1455.1,-4.3754e-05,1.5106,-6.0664e-05,-125.54,1.6563
4876,19.631,1.6364,0.1,0.00012379,1237,0.00012014,1146.5,-3.2205e-05,1.7902,-5.4513e-05,-165.83,1.6561
4877,19.631,1.4545,0.1,0.00010058,1005.1,9.6669e-05,911.21,-2.4367e-05,1.7889,-4.6951e-05,-167.9,1.6559
4878,19.631,1.2727,0.1,8.1694e-05,816.38,7.8227e-05,733.9,-1.9298e-05,1.143,-3.889e-05,-146.06,1.6557
4879,19.631,1.0909,0.1,6.6304e-05,662.58,6.355e-05,596.91,-1.5769e-05,0.92989,-3.1406e-05,-116.56,1.6554
4880,19.631,0.90909,0.1,5.3702e-05,536.65,5.1688e-05,488.05,-1.3141e-05,0.94839,-2.4878e-05,-87.235,1.6552
4881,19.631,0.72727,0.1,4.3212e-05,431.82,4.1884e-05,399.1,-1.1088e-05,1.0899,-1.9222e-05,-60.03,1.655
4882,19.631,0.54545,0.1,3.4514e-05,344.9,3.3755e-05,325.71,-9.3868e-06,1.5552,-1.4484e-05,-36.744,1.6548
4883,19.631,0.36364,0.1,2.7735e-05,277.15,2.7351e-05,267.27,-7.9117e-06,2.3192,-1.097e-05,-20.657,1.6546
4884,19.631,0.18182,0.1,2.3987e-05,239.7,2.3638e-05,230.81,-6.7651e-06,2.3701,-9.5778e-06,-18.763,1.6544
4885,19.449,5.8182,0.1,1.6502e-05,164.91,1.5974e-05,153.41,-3.6916e-06,5.6544,-7.7033e-06,-24.487,1.6286
4886,19.449,5.6364,0.1,2.4148e-05,241.31,2.3105e-05,217.38,-5.4254e-06,3.0092,-1.1678e-05,-43.967,1.6288
4887,19.449,5.4545,0.1,3.3831e-05,338.07,3.1846e-05,293.51,-6.9105e-06,2.3074,-1.7499e-05,-77.249,1.6291
4888,19.449,5.2727,0.1,4.4844e-05,448.13,4.1684e-05,378.61,-8.4293e-06,2.0799,-2.4284e-05,-117.05,1.6293
4889,19.449,5.0909,0.1,5.7626e-05,575.86,5.3074e-05,477.2,-1.0153e-05,2.1372,-3.2167e-05,-163.26,1.6295
4890,19.449,4.9091,0.1,7.3008e-05,729.58,6.6808e-05,596.67,-1.2246e-05,2.6813,-4.1577e-05,-217.7,1.6298
4891,19.449,4.7273,0.1,9.2436e-05,923.73,8.4236e-05,748.82,-1.5073e-05,2.6515,-5.3269e-05,-284.33,1.63
4892,19.449,4.5455,0.1,0.00011828,1181.9,0.00010773,958.56,-1.8938e-05,6.8103,-6.8349e-05,-364.44,1.6303
4893,19.449,4.3636,0.1,0.00015671,1566,0.00014277,1267.2,-2.5873e-05,0.067082,-9.0235e-05,-483.52,1.6306
4894,19.449,4.1818,0.1,0.00021521,2150.6,0.00020224,1870.6,-4.0873e-05,43.991,-0.00011322,-499.6,1.6308
4895,19.449,4,0.1,0.00027251,2723.3,0.00026776,2629.8,-6.391e-05,137.77,-0.00011911,-277.01,1.6311
4896,19.449,3.8182,0.1,0.00028127,2810.8,0.00027836,2734.7,-8.2312e-05,24.747,-0.00010785,-167.13,1.6314
4897,19.449,3.6364,0.1,0.00026692,2667.3,0.00026273,2557.4,-7.6865e-05,5.7537,-0.00010589,-212.29,1.6317
4898,19.449,3.4545,0.1,0.00024678,2466.1,0.00024254,2354.3,-7.092e-05,-0.92945,-9.8677e-05,-209.49,1.6318
4899,19.449,3.2727,0.1,0.00023498,2348.2,0.00023076,2237.6,-6.6944e-05,0.78143,-9.4734e-05,-208.02,1.632
4900,19.449,3.0909,0.1,0.0002294,2292.4,0.0002252,2182.5,-6.5271e-05,0.032685,-9.2676e-05,-205.88,1.632
4901,19.449,2.9091,0.1,0.0002294,2292.4,0.0002252,2182.5,-6.5271e-05,0.032686,-9.2676e-05,-205.88,1.632
4902,19.449,2.7273,0.1,0.00023498,2348.2,0.00023076,2237.6,-6.6944e-05,0.78143,-9.4734e-05,-208.02,1.632
4903,19.449,2.5455,0.1,0.00024678,2466.1,0.00024254,2354.3,-7.092e-05,-0.92945,-9.8677e-05,-209.49,1.6318
4904,19.449,2.3636,0.1,0.00026692,2667.3,0.00026273,2557.4,-7.6865e-05,5.7537,-0.00010589,-212.29,1.6317
4905,19.449,2.1818,0.1,0.00028127,2810.8,0.00027836,2734.7,-8.2312e-05,24.747,-0.00010785,-167.13,1.6314
4906,19.449,2,0.1,0.00027251,2723.3,0.00026776,2629.8,-6.391e-05,137.77,-0.00011911,-277.01,1.6311
4907,19.449,1.8182,0.1,0.00021521,2150.6,0.00020224,1870.6,-4.0873e-05,43.991,-0.00011322,-499.6,1.6308
4908,19.449,1.6364,0.1,0.00015671,1566,0.00014277,1267.2,-2.5873e-05,0.067081,-9.0235e-05,-483.52,1.6306
4909,19.449,1.4545,0.1,0.00011828,1181.9,0.00010773,958.56,-1.8938e-05,6.8103,-6.8349e-05,-364.44,1.6303
4910,19.449,1.2727,0.1,9.2436e-05,923.73,8.4236e-05,748.82,-1.5073e-05,2.6515,-5.3269e-05,-284.33,1.63
4911,19.449,1.0909,0.1,7.3008e-05,729.58,6.6808e-05,596.67,-1.2246e-05,2.6813,-4.1577e-05,-217.7,1.6298
4912,19.449,0.90909,0.1,5.7626e-05,575.86,5.3074e-05,477.2,-1.0153e-05,2.1372,-3.2167e-05,-163.26,1.6295
4913,19.449,0.72727,0.1,4.4844e-05,448.13,4.1684e-05,378.61,-8.4293e-06,2.0799,-2.4284e-05,-117.05,1.6293
4914,19.449,0.54545,0.1,3.3831e-05,338.07,3.1846e-05,293.51,-6.9105e-06,2.3074,-1.7499e-05,-77.249,1.6291
4915,19.449,0.36364,0.1,2.4148e-05,241.31,2.3105e-05,217.38,-5.4254e-06,3.0092,-1.1678e-05,-43.967,1.6288
4916,19.449,0.18182,0.1,1.6502e-05,164.91,1.5974e-05,153.41,-3.6916e-06,5.6544,-7.7033e-06,-24.487,1.6286
4917,0.18365,0.18182,0.1,0.00040553,4052.5,0.00039927,3886.4,-0.0001179,0.56933,-0.00015982,-314.37,8.8228e-05
4918,0.18365,0.36364,0.1,0.00045569,4553.8,0.00044205,4487.2,-4.5746e-05,822.15,-0.00023643,-610.58,0.0001388
4919,0.18365,0.54545,0.1,0.00052239,5220.2,0.00050151,5181.4,-2.0689e-05,1257.8,-0.00028703,-743.3,0.00016823
4920,0.18365,0.72727,0.1,0.0005745,5741.1,0.0005492,5712.1,-1.0429e-05,1507.3,-0.00032134,-828.77,0.00018689
4921,0.18365,0.90909,0.1,0.00061354,6131.2,0.00058571,6110.8,-6.0553e-06,1664.5,-0.00034518,-883.58,0.00019971
4922,0.18365,1.0909,0.1,0.00064298,6425.3,0.00061348,6411,-3.8145e-06,1772.9,-0.00036263,-923.16,0.00020896
4923,0.18365,1.2727,0.1,0.00066548,6650.2,0.00063484,6640.8,-2.5701e-06,1851.5,-0.00037573,-952.23,0.00021587
4924,0.18365,1.4545,0.1,0.00068292,6824.5,0.00065145,6818.9,-1.8183e-06,1910.6,-0.00038577,-974.29,0.00022114
4925,0.18365,1.6364,0.1,0.00069656,6960.8,0.00066445,6958.2,-1.3401e-06,1955.7,-0.00039356,-991.25,0.00022522
4926,0.18365,1.8182,0.1,0.00070724,7067.5,0.00067467,7067.5,-1.0233e-06,1990.6,-0.00039963,-1004.4,0.00022839
4927,0.18365,2,0.1,0.00071559,7151,0.00068266,7152.9,-8.077e-07,2017.6,-0.00040436,-1014.6,0.00023085
4928,0.18365,2.1818,0.1,0.00072204,7215.4,0.00068884,7218.9,-6.5893e-07,2038.3,-0.00040801,-1022.4,0.00023274
4929,0.18365,2.3636,0.1,0.00072689,7263.9,0.00069349,7268.5,-5.5655e-07,2053.7,-0.00041074,-1028.2,0.00023416
4930,0.18365,2.5455,0.1,0.00073036,7298.6,0.00069682,7304,-4.8809e-07,2064.8,-0.00041269,-1032.4,0.00023517
4931,0.18365,2.7273,0.1,0.0007326,7320.9,0.00069896,7326.9,-4.4601e-07,2071.9,-0.00041395,-1035.1,0.00023582
4932,0.18365,2.9091,0.1,0.0007337,7331.9,0.00070001,7338.2,-4.2595e-07,2075.3,-0.00041457,-1036.4,0.00023614
4933,0.18365,3.0909,0.1,0.0007337,7331.9,0.00070001,7338.2,-4.2595e-07,2075.3,-0.00041457,-1036.4,0.00023614
4934,0.18365,3.2727,0.1,0.0007326,7320.9,0.00069896,7326.9,-4.4601e-07,2071.9,-0.00041395,-1035.1,0.00023582
4935,0.18365,3.4545,0.1,0.00073036,7298.6,0.00069682,7304,-4.8809e-07,2064.8,-0.00041269,-1032.4,0.00023517
4936,0.18365,3.6364,0.1,0.00072689,7263.9,0.00069349,7268.5,-5.5655e-07,2053.7,-0.00041074,-1028.2,0.00023416
4937,0.18365,3.8182,0.1,0.00072204,7215.4,0.00068884,7218.9,-6.5893e-07,2038.3,-0.00040801,-1022.4,0.00023274
4938,0.18365,4,0.1,0.00071559,7151,0.00068266,7152.9,-8.077e-07,2017.6,-0.00040436,-1014.6,0.00023085
4939,0.18365,4.1818,0.1,0.00070724,7067.6,0.00067467,7067.5,-1.0233e-06,1990.6,-0.00039963,-1004.4,0.00022839
4940,0.18365,4.3636,0.1,0.00069656,6960.8,0.00066445,6958.2,-1.3402e-06,1955.7,-0.00039356,-991.25,0.00022522
4941,0.18365,4.5455,0.1,0.00068292,6824.5,0.00065145,6818.9,-1.8183e-06,1910.6,-0.00038577,-974.29,0.00022114
4942,0.18365,4.7273,0.1,0.00066548,6650.2,0.00063484,6640.8,-2.5701e-06,1851.5,-0.00037573,-952.23,0.00021587
4943,0.18365,4.9091,0.1,0.00064298,6425.3,0.00061348,6411,-3.8145e-06,1772.9,-0.00036263,-923.16,0.00020896
4944,0.18365,5.0909,0.1,0.00061354,6131.2,0.00058571,6110.8,-6.0553e-06,1664.5,-0.00034518,-883.58,0.00019971
4945,0.18365,5.2727,0.1,0.0005745,5741.1,0.0005492,5712.1,-1.0429e-05,1507.3,-0.00032134,-828.77,0.00018689
4946,0.18365,5.4545,0.1,0.00052239,5220.2,0.00050151,5181.5,-2.0689e-05,1257.8,-0.00028703,-743.3,0.00016823
4947,0.18365,5.6364,0.1,0.00045569,4553.8,0.00044205,4487.2,-4.5746e-05,822.15,-0.00023643,-610.58,0.0001388
4948,0.18365,5.8182,0.1,0.00040553,4052.5,0.00039927,3886.4,-0.0001179,0.56947,-0.00015982,-314.37,8.8228e-05
4949,0.36731,0.18182,0.1,0.0005037,5033.6,0.0005033,5026.1,-0.00015474,81.843,-0.00017791,-92.26,0.00039012
4950,0.36731,0.36364,0.1,0.00047829,4779.6,0.00048973,5157.6,-0.00010871,661.13,-0.00017834,137.96,0.00053415
4951,0.36731,0.54545,0.1,0.0004838,4834.6,0.00049927,5452.6,-6.4033e-05,1220.1,-0.00020196,183.8,0.00063046
4952,0.36731,0.72727,0.1,0.00050288,5025.4,0.00051895,5779.9,-3.8297e-05,1592.9,-0.00022276,206.96,0.00069668
4953,0.36731,0.90909,0.1,0.00052435,5239.8,0.00054032,6080.1,-2.3928e-05,1840.5,-0.00023936,221.86,0.000744
4954,0.36731,1.0909,0.1,0.00054409,5437.2,0.00055997,6335.9,-1.5741e-05,2010.2,-0.00025236,232.33,0.00077896
4955,0.36731,1.2727,0.1,0.00056101,5606.2,0.00057687,6547.3,-1.084e-05,2131.5,-0.00026258,239.97,0.00080544
4956,0.36731,1.4545,0.1,0.00057509,5746.9,0.00059098,6719.7,-7.7694e-06,2221,-0.00027066,245.73,0.00082584
4957,0.36731,1.6364,0.1,0.00058662,5862.2,0.00060258,6859.4,-5.7682e-06,2288.5,-0.00027706,250.15,0.00084172
4958,0.36731,1.8182,0.1,0.00059598,5955.7,0.00061201,6971.8,-4.423e-06,2340.2,-0.00028213,253.56,0.00085414
4959,0.36731,2,0.1,0.00060347,6030.6,0.00061957,7061.3,-3.4991e-06,2379.8,-0.00028613,256.2,0.00086382
4960,0.36731,2.1818,0.1,0.00060936,6089.4,0.00062552,7131.4,-2.8577e-06,2410,-0.00028924,258.22,0.00087129
4961,0.36731,2.3636,0.1,0.00061385,6134.3,0.00063005,7184.6,-2.4147e-06,2432.5,-0.00029159,259.73,0.0008769
4962,0.36731,2.5455,0.1,0.00061709,6166.6,0.00063333,7223,-2.1177e-06,2448.5,-0.00029328,260.81,0.00088091
4963,0.36731,2.7273,0.1,0.00061919,6187.7,0.00063546,7247.9,-1.9349e-06,2458.8,-0.00029438,261.5,0.0008835
4964,0.36731,2.9091,0.1,0.00062023,6198,0.00063651,7260.2,-1.8477e-06,2463.8,-0.00029491,261.84,0.00088477
4965,0.36731,3.0909,0.1,0.00062023,6198,0.00063651,7260.2,-1.8477e-06,2463.8,-0.00029491,261.84,0.00088477
4966,0.36731,3.2727,0.1,0.00061919,6187.7,0.00063546,7247.9,-1.9349e-06,2458.8,-0.00029438,261.5,0.0008835
4967,0.36731,3.4545,0.1,0.00061709,6166.6,0.00063333,7223,-2.1177e-06,2448.5,-0.00029328,260.81,0.00088091
4968,0.36731,3.6364,0.1,0.00061385,6134.3,0.00063006,7184.6,-2.4147e-06,2432.5,-0.00029159,259.73,0.0008769
4969,0.36731,3.8182,0.1,0.00060936,6089.4,0.00062552,7131.4,-2.8577e-06,2410,-0.00028924,258.22,0.00087129
4970,0.36731,4,0.1,0.00060347,6030.6,0.00061957,7061.3,-3.4991e-06,2379.8,-0.00028613,256.2,0.00086382
4971,0.36731,4.1818,0.1,0.00059598,5955.7,0.00061201,6971.8,-4.423e-06,2340.2,-0.00028213,253.56,0.00085414
4972,0.36731,4.3636,0.1,0.00058662,5862.2,0.00060258,6859.4,-5.7682e-06,2288.5,-0.00027706,250.15,0.00084172
4973,0.36731,4.5455,0.1,0.00057509,5746.9,0.00059098,6719.7,-7.7694e-06,2221,-0.00027066,245.73,0.00082584
4974,0.36731,4.7273,0.1,0.00056101,5606.2,0.00057687,6547.3,-1.084e-05,2131.5,-0.00026258,239.97,0.00080544
4975,0.36731,4.9091,0.1,0.00054409,5437.2,0.00055997,6335.9,-1.5741e-05,2010.2,-0.00025236,232.33,0.00077896
4976,0.36731,5.0909,0.1,0.00052435,5239.9,0.00054032,6080.1,-2.3928e-05,1840.5,-0.00023936,221.86,0.000744
4977,0.36731,5.2727,0.1,0.00050288,5025.4,0.00051895,5779.9,-3.8297e-05,1592.9,-0.00022276,206.96,0.00069668
4978,0.36731,5.4545,0.1,0.0004838,4834.6,0.00049927,5452.6,-6.4033e-05,1220.1,-0.00020196,183.8,0.00063046
4979,0.36731,5.6364,0.1,0.00047829,4779.6,0.00048973,5157.6,-0.00010871,661.13,-0.00017834,137.96,0.00053415
4980,0.36731,5.8182,0.1,0.0005037,5033.6,0.0005033,5026.1,-0.00015474,81.843,-0.00017791,-92.26,0.00039012
4981,0.55096,0.18182,0.1,0.00055786,5574.8,0.00055604,5522.5,-0.00017886,0.82043,-0.00019278,-103.81,0.00098843
4982,0.55096,0.36364,0.1,0.00053501,5346.4,0.0005399,5518.2,-0.00013955,413.15,-0.00019993,-40.526,0.0012386
4983,0.55096,0.54545,0.1,0.00052878,5284.1,0.00053667,5631.1,-9.8094e-05,861.76,-0.00021934,-49.242,0.0014208
4984,0.55096,0.72727,0.1,0.0005332,5328.4,0.00054148,5797.5,-6.7098e-05,1224.9,-0.00023729,-53.892,0.0015544
4985,0.55096,0.90909,0.1,0.00054372,5433.5,0.00055128,5983.7,-4.6036e-05,1495.7,-0.00025271,-57.13,0.001654
4986,0.55096,1.0909,0.1,0.00055642,5560.3,0.00056307,6166,-3.2201e-05,1693.3,-0.00026549,-59.517,0.0017296
4987,0.55096,1.2727,0.1,0.00056905,5686.5,0.00057494,6331.9,-2.3111e-05,1838.4,-0.00027594,-61.294,0.001788
4988,0.55096,1.4545,0.1,0.00058059,5801.9,0.00058591,6476.7,-1.7042e-05,1946.3,-0.00028442,-62.645,0.0018335
4989,0.55096,1.6364,0.1,0.00059067,5902.6,0.00059558,6599.9,-1.2911e-05,2027.9,-0.00029129,-63.687,0.0018693
4990,0.55096,1.8182,0.1,0.00059921,5988,0.00060383,6702.6,-1.0049e-05,2090.2,-0.00029682,-64.494,0.0018975
4991,0.55096,2,0.1,0.00060627,6058.5,0.00061069,6786.6,-8.0394e-06,2137.8,-0.00030122,-65.12,0.0019196
4992,0.55096,2.1818,0.1,0.00061195,6115.3,0.00061622,6853.7,-6.6228e-06,2173.9,-0.00030468,-65.6,0.0019368
4993,0.55096,2.3636,0.1,0.00061635,6159.3,0.00062053,6905.5,-5.633e-06,2200.7,-0.00030731,-65.959,0.0019497
4994,0.55096,2.5455,0.1,0.00061957,6191.4,0.00062368,6943.2,-4.9644e-06,2219.8,-0.00030921,-66.215,0.0019589
4995,0.55096,2.7273,0.1,0.00062168,6212.5,0.00062574,6967.8,-4.5505e-06,2232,-0.00031044,-66.379,0.0019649
4996,0.55096,2.9091,0.1,0.00062272,6222.9,0.00062677,6979.9,-4.3526e-06,2237.9,-0.00031105,-66.46,0.0019678
4997,0.55096,3.0909,0.1,0.00062272,6222.9,0.00062677,6979.9,-4.3526e-06,2237.9,-0.00031105,-66.46,0.0019678
4998,0.55096,3.2727,0.1,0.00062168,6212.5,0.00062574,6967.8,-4.5505e-06,2232,-0.00031044,-66.379,0.0019649
4999,0.55096,3.4545,0.1,0.00061957,6191.4,0.00062368,6943.2,-4.9644e-06,2219.8,-0.00030921,-66.215,0.0019589
5000,0.55096,3.6364,0.1,0.00061635,6159.3,0.00062053,6905.5,-5.633e-06,2200.7,-0.00030731,-65.959,0.0019497
5001,0.55096,3.8182,0.1,0.00061195,6115.3,0.00061622,6853.7,-6.6228e-06,2173.9,-0.00030468,-65.6,0.0019368
5002,0.55096,4,0.1,0.00060627,6058.5,0.00061069,6786.6,-8.0394e-06,2137.8,-0.00030122,-65.12,0.0019196
5003,0.55096,4.1818,0.1,0.00059921,5988,0.00060383,6702.6,-1.0049e-05,2090.2,-0.00029682,-64.494,0.0018975
5004,0.55096,4.3636,0.1,0.00059067,5902.6,0.00059558,6599.9,-1.2911e-05,2027.9,-0.00029129,-63.687,0.0018693
5005,0.55096,4.5455,0.1,0.00058059,5801.9,0.00058591,6476.7,-1.7042e-05,1946.3,-0.00028442,-62.645,0.0018335
5006,0.55096,4.7273,0.1,0.00056905,5686.5,0.00057494,6331.9,-2.3111e-05,1838.4,-0.00027594,-61.294,0.001788
5007,0.55096,4.9091,0.1,0.00055642,5560.3,0.00056307,6166,-3.2201e-05,1693.4,-0.00026549,-59.517,0.0017296
5008,0.55096,5.0909,0.1,0.00054372,5433.5,0.00055128,5983.7,-4.6036e-05,1495.7,-0.00025271,-57.13,0.001654
5009,0.55096,5.2727,0.1,0.0005332,5328.4,0.00054148,5797.5,-6.7098e-05,1224.9,-0.00023729,-53.892,0.0015544
5010,0.55096,5.4545,0.1,0.00052878,5284.1,0.00053667,5631.1,-9.8094e-05,861.76,-0.00021934,-49.242,0.0014208
5011,0.55096,5.6364,0.1,0.00053501,5346.4,0.0005399,5518.2,-0.00013955,413.15,-0.00019993,-40.526,0.0012386
5012,0.55096,5.8182,0.1,0.00055786,5574.8,0.00055604,5522.5,-0.00017886,0.82045,-0.00019278,-103.81,0.00098843
5013,0.73462,0.18182,0.1,0.00058383,5834.3,0.00058287,5807,-0.00018754,18.462,-0.00019958,-72.065,0.0019261
5014,0.73462,0.36364,0.1,0.00056039,5600,0.0005655,5764.6,-0.00015669,338.41,-0.00020097,5.7407,0.0022812
5015,0.73462,0.54545,0.1,0.00054807,5476.9,0.00055696,5803,-0.00012109,708.38,-0.00021396,10.626,0.0025546
5016,0.73462,0.72727,0.1,0.00054341,5430.4,0.00055397,5882.8,-9.072e-05,1038.8,-0.00022733,12.431,0.0027648
5017,0.73462,0.90909,0.1,0.00054483,5444.5,0.00055564,5989.4,-6.712e-05,1310.3,-0.00023969,13.675,0.0029274
5018,0.73462,1.0909,0.1,0.00055007,5496.9,0.00056046,6108.2,-4.9749e-05,1523.3,-0.00025057,14.465,0.0030542
5019,0.73462,1.2727,0.1,0.00055716,5567.8,0.00056695,6227.4,-3.7278e-05,1687.5,-0.00025987,15.029,0.0031539
5020,0.73462,1.4545,0.1,0.00056478,5643.9,0.00057397,6339.3,-2.8384e-05,1813.4,-0.00026768,15.442,0.0032329
5021,0.73462,1.6364,0.1,0.00057213,5717.3,0.00058083,6439.9,-2.2027e-05,1910.2,-0.00027417,15.756,0.0032957
5022,0.73462,1.8182,0.1,0.00057879,5783.9,0.00058711,6527.3,-1.7461e-05,1984.8,-0.00027949,15.998,0.0033456
5023,0.73462,2,0.1,0.00058457,5841.6,0.00059259,6601.1,-1.4168e-05,2042.1,-0.0002838,16.186,0.003385
5024,0.73462,2.1818,0.1,0.00058938,5889.7,0.00059719,6661.4,-1.1801e-05,2085.7,-0.00028722,16.329,0.0034157
5025,0.73462,2.3636,0.1,0.0005932,5927.9,0.00060085,6708.8,-1.0123e-05,2118.2,-0.00028985,16.437,0.0034388
5026,0.73462,2.5455,0.1,0.00059604,5956.3,0.00060359,6743.8,-8.9774e-06,2141.2,-0.00029175,16.514,0.0034555
5027,0.73462,2.7273,0.1,0.00059792,5975.1,0.00060541,6766.8,-8.2636e-06,2155.9,-0.000293,16.563,0.0034663
5028,0.73462,2.9091,0.1,0.00059886,5984.4,0.00060631,6778.2,-7.9209e-06,2163.1,-0.00029361,16.588,0.0034716
5029,0.73462,3.0909,0.1,0.00059886,5984.4,0.00060631,6778.2,-7.9209e-06,2163.1,-0.00029361,16.588,0.0034716
5030,0.73462,3.2727,0.1,0.00059792,5975.1,0.00060541,6766.8,-8.2636e-06,2155.9,-0.000293,16.563,0.0034663
5031,0.73462,3.4545,0.1,0.00059604,5956.3,0.00060359,6743.8,-8.9774e-06,2141.2,-0.00029175,16.514,0.0034555
5032,0.73462,3.6364,0.1,0.0005932,5927.9,0.00060085,6708.8,-1.0123e-05,2118.2,-0.00028985,16.437,0.0034388
5033,0.73462,3.8182,0.1,0.00058938,5889.7,0.00059719,6661.4,-1.1801e-05,2085.7,-0.00028722,16.329,0.0034157
5034,0.73462,4,0.1,0.00058457,5841.6,0.00059259,6601.1,-1.4168e-05,2042.1,-0.0002838,16.186,0.003385
5035,0.73462,4.1818,0.1,0.00057879,5783.9,0.00058711,6527.3,-1.7461e-05,1984.8,-0.00027949,15.998,0.0033456
5036,0.73462,4.3636,0.1,0.00057213,5717.3,0.00058083,6439.9,-2.2027e-05,1910.2,-0.00027417,15.756,0.0032957
5037,0.73462,4.5455,0.1,0.00056478,5643.9,0.00057397,6339.3,-2.8384e-05,1813.4,-0.00026768,15.442,0.0032329
5038,0.73462,4.7273,0.1,0.00055716,5567.8,0.00056695,6227.4,-3.7278e-05,1687.5,-0.00025987,15.029,0.0031539
5039,0.73462,4.9091,0.1,0.00055007,5496.9,0.00056046,6108.2,-4.9749e-05,1523.3,-0.00025057,14.465,0.0030542
5040,0.73462,5.0909,0.1,0.00054483,5444.5,0.00055564,5989.4,-6.712e-05,1310.3,-0.00023969,13.675,0.0029274
5041,0.73462,5.2727,0.1,0.00054341,5430.4,0.00055397,5882.8,-9.072e-05,1038.8,-0.00022733,12.431,0.0027648
5042,0.73462,5.4545,0.1,0.00054807,5476.9,0.00055696,5803,-0.00012109,708.38,-0.00021396,10.626,0.0025546
5043,0.73462,5.6364,0.1,0.00056039,5600,0.0005655,5764.6,-0.00015669,338.41,-0.00020097,5.7407,0.0022812
5044,0.73462,5.8182,0.1,0.00058383,5834.3,0.00058287,5807,-0.00018754,18.462,-0.00019958,-72.065,0.0019261
5045,0.91827,0.18182,0.1,0.00059835,5979.3,0.00059766,5959.8,-0.00019362,14.369,-0.00020258,-52.901,0.0032284
5046,0.91827,0.36364,0.1,0.00057731,5769.1,0.00058152,5903.5,-0.00016631,284.6,-0.00020484,-4.931,0.0036831
5047,0.91827,0.54545,0.1,0.00056401,5636.2,0.00057163,5905.7,-0.00013586,589.86,-0.0002149,-3.9613,0.0040468
5048,0.91827,0.72727,0.1,0.00055574,5553.6,0.00056533,5937.8,-0.00010809,877.98,-0.00022548,-4.0218,0.0043364
5049,0.91827,0.90909,0.1,0.0005522,5518.2,0.00056254,5993.5,-8.4603e-05,1131.1,-0.00023567,-4.0186,0.004567
5050,0.91827,1.0909,0.1,0.00055242,5520.4,0.00056272,6065,-6.5827e-05,1342.3,-0.00024502,-4.08,0.0047512
5051,0.91827,1.2727,0.1,0.00055513,5547.5,0.00056501,6144.2,-5.1332e-05,1513.2,-0.00025328,-4.1416,0.0048988
5052,0.91827,1.4545,0.1,0.00055923,5588.4,0.00056854,6224.4,-4.0357e-05,1649.4,-0.00026043,-4.2007,0.0050175
5053,0.91827,1.6364,0.1,0.00056387,5634.9,0.00057264,6300.8,-3.2129e-05,1756.8,-0.00026651,-4.2502,0.0051128
5054,0.91827,1.8182,0.1,0.00056852,5681.3,0.00057682,6370.3,-2.5993e-05,1841,-0.00027159,-4.29,0.0051893
5055,0.91827,2,0.1,0.00057283,5724.3,0.00058073,6431,-2.144e-05,1906.6,-0.00027576,-4.3209,0.0052501
5056,0.91827,2.1818,0.1,0.00057658,5761.8,0.00058417,6482,-1.8093e-05,1956.8,-0.00027911,-4.3444,0.0052976
5057,0.91827,2.3636,0.1,0.00057965,5792.5,0.00058702,6522.9,-1.5681e-05,1994.4,-0.0002817,-4.3617,0.0053337
5058,0.91827,2.5455,0.1,0.00058199,5815.9,0.0005892,6553.5,-1.4014e-05,2021.2,-0.0002836,-4.3739,0.0053598
5059,0.91827,2.7273,0.1,0.00058357,5831.6,0.00059067,6573.8,-1.2967e-05,2038.3,-0.00028484,-4.3816,0.0053766
5060,0.91827,2.9091,0.1,0.00058436,5839.5,0.00059141,6584,-1.2462e-05,2046.7,-0.00028545,-4.3854,0.0053849
5061,0.91827,3.0909,0.1,0.00058436,5839.5,0.00059141,6584,-1.2462e-05,2046.7,-0.00028545,-4.3854,0.0053849
5062,0.91827,3.2727,0.1,0.00058357,5831.6,0.00059067,6573.8,-1.2967e-05,2038.3,-0.00028484,-4.3816,0.0053766
5063,0.91827,3.4545,0.1,0.00058199,5815.9,0.0005892,6553.5,-1.4014e-05,2021.2,-0.0002836,-4.3739,0.0053598
5064,0.91827,3.6364,0.1,0.00057965,5792.5,0.00058702,6522.9,-1.5681e-05,1994.4,-0.0002817,-4.3617,0.0053337
5065,0.91827,3.8182,0.1,0.00057658,5761.8,0.00058417,6482,-1.8093e-05,1956.8,-0.00027911,-4.3444,0.0052976
5066,0.91827,4,0.1,0.00057283,5724.3,0.00058073,6431,-2.144e-05,1906.6,-0.00027576,-4.3209,0.0052501
5067,0.91827,4.1818,0.1,0.00056852,5681.3,0.00057682,6370.3,-2.5993e-05,1841,-0.00027159,-4.29,0.0051893
5068,0.91827,4.3636,0.1,0.00056387,5634.9,0.00057264,6300.8,-3.2129e-05,1756.8,-0.00026651,-4.2502,0.0051128
5069,0.91827,4.5455,0.1,0.00055923,5588.4,0.00056854,6224.4,-4.0357e-05,1649.4,-0.00026043,-4.2007,0.0050175
5070,0.91827,4.7273,0.1,0.00055513,5547.5,0.00056501,6144.2,-5.1332e-05,1513.2,-0.00025328,-4.1416,0.0048988
5071,0.91827,4.9091,0.1,0.00055242,5520.4,0.00056272,6065,-6.5827e-05,1342.3,-0.00024502,-4.08,0.0047512
5072,0.91827,5.0909,0.1,0.0005522,5518.2,0.00056254,5993.5,-8.4603e-05,1131.1,-0.00023567,-4.0186,0.004567
5073,0.91827,5.2727,0.1,0.00055574,5553.6,0.00056533,5937.8,-0.00010809,877.98,-0.00022548,-4.0218,0.0043364
5074,0.91827,5.4545,0.1,0.00056401,5636.2,0.00057163,5905.7,-0.00013586,589.86,-0.0002149,-3.9613,0.0040468
5075,0.91827,5.6364,0.1,0.00057731,5769.1,0.00058152,5903.5,-0.00016631,284.6,-0.00020484,-4.931,0.0036831
5076,0.91827,5.8182,0.1,0.00059835,5979.3,0.00059766,5959.8,-0.00019362,14.369,-0.00020258,-52.901,0.0032284
5077,1.1019,0.18182,0.1,0.00060525,6048.3,0.00060493,6039.3,-0.00019651,17.528,-0.00020354,-35.298,0.0049106
5078,1.1019,0.36364,0.1,0.00058618,5857.8,0.00059007,5980.1,-0.00017194,254.61,-0.00020606,-1.6955,0.0054582
5079,1.1019,0.54545,0.1,0.0005729,5725,0.0005799,5964.5,-0.00014557,513.6,-0.00021393,-0.039923,0.0059083
5080,1.1019,0.72727,0.1,0.00056307,5626.8,0.00057218,5970.3,-0.00012064,764.77,-0.00022238,0.30043,0.0062761
5081,1.1019,0.90909,0.1,0.00055677,5563.9,0.000567,5994.6,-9.8416e-05,994.91,-0.00023075,0.5698,0.0065761
5082,1.1019,1.0909,0.1,0.00055367,5532.8,0.00056425,6033.5,-7.9594e-05,1195.9,-0.00023866,0.70642,0.0068205
5083,1.1019,1.2727,0.1,0.00055307,5526.9,0.00056352,6082.2,-6.423e-05,1365.5,-0.00024586,0.79208,0.0070197
5084,1.1019,1.4545,0.1,0.00055419,5538.1,0.00056426,6135.8,-5.2003e-05,1505.4,-0.00025225,0.84313,0.0071819
5085,1.1019,1.6364,0.1,0.00055636,5559.7,0.00056595,6190.1,-4.2438e-05,1618.9,-0.00025779,0.87638,0.0073138
5086,1.1019,1.8182,0.1,0.00055901,5586.2,0.00056814,6242,-3.505e-05,1709.9,-0.0002625,0.89915,0.0074204
5087,1.1019,2,0.1,0.00056176,5613.7,0.00057047,6289,-2.941e-05,1781.8,-0.00026643,0.91572,0.0075058
5088,1.1019,2.1818,0.1,0.00056433,5639.4,0.0005727,6329.7,-2.5169e-05,1837.6,-0.00026961,0.9281,0.007573
5089,1.1019,2.3636,0.1,0.00056655,5661.6,0.00057464,6363,-2.206e-05,1879.7,-0.0002721,0.93737,0.0076242
5090,1.1019,2.5455,0.1,0.00056829,5678.9,0.00057618,6388.4,-1.9885e-05,1909.8,-0.00027393,0.94404,0.0076613
5091,1.1019,2.7273,0.1,0.00056948,5690.9,0.00057725,6405.4,-1.8507e-05,1929.2,-0.00027514,0.94838,0.0076854
5092,1.1019,2.9091,0.1,0.00057009,5696.9,0.00057779,6414,-1.7838e-05,1938.7,-0.00027573,0.95052,0.0076972
5093,1.1019,3.0909,0.1,0.00057009,5696.9,0.00057779,6414,-1.7838e-05,1938.7,-0.00027573,0.95052,0.0076972
5094,1.1019,3.2727,0.1,0.00056948,5690.9,0.00057725,6405.4,-1.8507e-05,1929.2,-0.00027514,0.94838,0.0076854
5095,1.1019,3.4545,0.1,0.00056829,5678.9,0.00057618,6388.4,-1.9885e-05,1909.8,-0.00027393,0.94404,0.0076613
5096,1.1019,3.6364,0.1,0.00056655,5661.6,0.00057464,6363,-2.206e-05,1879.7,-0.0002721,0.93737,0.0076242
5097,1.1019,3.8182,0.1,0.00056433,5639.4,0.0005727,6329.7,-2.5169e-05,1837.6,-0.00026961,0.9281,0.007573
5098,1.1019,4,0.1,0.00056176,5613.7,0.00057047,6289,-2.941e-05,1781.8,-0.00026643,0.91572,0.0075058
5099,1.1019,4.1818,0.1,0.00055901,5586.2,0.00056814,6242,-3.505e-05,1709.9,-0.0002625,0.89915,0.0074204
5100,1.1019,4.3636,0.1,0.00055636,5559.7,0.00056595,6190.1,-4.2438e-05,1618.9,-0.00025779,0.87638,0.0073138
5101,1.1019,4.5455,0.1,0.00055419,5538.1,0.00056426,6135.8,-5.2003e-05,1505.4,-0.00025225,0.84313,0.0071819
5102,1.1019,4.7273,0.1,0.00055307,5526.9,0.00056352,6082.2,-6.423e-05,1365.5,-0.00024586,0.79208,0.0070197
5103,1.1019,4.9091,0.1,0.00055367,5532.8,0.00056425,6033.5,-7.9594e-05,1195.9,-0.00023866,0.70642,0.0068205
5104,1.1019,5.0909,0.1,0.00055677,5563.9,0.000567,5994.6,-9.8416e-05,994.91,-0.00023075,0.5698,0.0065761
5105,1.1019,5.2727,0.1,0.00056307,5626.8,0.00057218,5970.3,-0.00012064,764.77,-0.00022238,0.30043,0.0062761
5106,1.1019,5.4545,0.1,0.0005729,5725,0.0005799,5964.5,-0.00014557,513.6,-0.00021393,-0.039923,0.0059083
5107,1.1019,5.6364,0.1,0.00058619,5857.8,0.00059007,5980.1,-0.00017194,254.61,-0.00020606,-1.6955,0.0054582
5108,1.1019,5.8182,0.1,0.00060525,6048.3,0.00060493,6039.3,-0.00019651,17.528,-0.00020354,-35.298,0.0049106
5109,1.2856,0.18182,0.1,0.00060765,6072.3,0.0006076,6071,-0.00019764,20.724,-0.00020348,-23.109,0.0069816
5110,1.2856,0.36364,0.1,0.00059048,5900.8,0.00059406,6012.8,-0.00017515,233.21,-0.00020647,-2.0856,0.0076152
5111,1.2856,0.54545,0.1,0.00057777,5773.7,0.00058416,5988.1,-0.00015199,456.92,-0.00021292,-0.86454,0.0081465
5112,1.2856,0.72727,0.1,0.0005675,5671.1,0.00057596,5978.8,-0.00012966,677.02,-0.00021986,-0.68849,0.0085895
5113,1.2856,0.90909,0.1,0.00055983,5594.4,0.00056959,5983.5,-0.0001091,884.15,-0.00022684,-0.52007,0.0089577
5114,1.2856,1.0909,0.1,0.00055473,5543.5,0.00056511,6000.5,-9.0968e-05,1071,-0.00023356,-0.44409,0.0092627
5115,1.2856,1.2727,0.1,0.00055186,5514.8,0.00056238,6027,-7.5537e-05,1233.9,-0.00023981,-0.39918,0.0095149
5116,1.2856,1.4545,0.1,0.00055074,5503.6,0.00056108,6059.7,-6.2759e-05,1372.4,-0.00024547,-0.37809,0.0097229
5117,1.2856,1.6364,0.1,0.00055086,5504.8,0.00056085,6095.5,-5.2398e-05,1487.8,-0.00025046,-0.36858,0.0098937
5118,1.2856,1.8182,0.1,0.00055176,5513.8,0.00056135,6131.6,-4.4142e-05,1582.2,-0.00025477,-0.3652,0.010033
5119,1.2856,2,0.1,0.00055306,5526.8,0.00056226,6165.8,-3.7672e-05,1658.1,-0.0002584,-0.36453,0.010145
5120,1.2856,2.1818,0.1,0.00055449,5541.1,0.00056334,6196.3,-3.2704e-05,1717.8,-0.00026138,-0.36491,0.010234
5121,1.2856,2.3636,0.1,0.00055584,5554.6,0.0005644,6221.9,-2.9e-05,1763.3,-0.00026373,-0.36555,0.010302
5122,1.2856,2.5455,0.1,0.00055696,5565.7,0.00056531,6241.7,-2.6375e-05,1796.1,-0.00026547,-0.36612,0.010351
5123,1.2856,2.7273,0.1,0.00055775,5573.7,0.00056596,6255.2,-2.4697e-05,1817.3,-0.00026661,-0.36652,0.010384
5124,1.2856,2.9091,0.1,0.00055816,5577.8,0.00056629,6262.1,-2.3879e-05,1827.7,-0.00026718,-0.36672,0.010399
5125,1.2856,3.0909,0.1,0.00055816,5577.8,0.00056629,6262.1,-2.3879e-05,1827.7,-0.00026718,-0.36672,0.010399
5126,1.2856,3.2727,0.1,0.00055775,5573.7,0.00056596,6255.2,-2.4697e-05,1817.3,-0.00026661,-0.36652,0.010384
5127,1.2856,3.4545,0.1,0.00055696,5565.7,0.00056531,6241.7,-2.6375e-05,1796.1,-0.00026547,-0.36612,0.010351
5128,1.2856,3.6364,0.1,0.00055584,5554.6,0.0005644,6221.9,-2.9e-05,1763.3,-0.00026373,-0.36555,0.010302
5129,1.2856,3.8182,0.1,0.00055449,5541.1,0.00056334,6196.3,-3.2704e-05,1717.8,-0.00026138,-0.36491,0.010234
5130,1.2856,4,0.1,0.00055306,5526.8,0.00056226,6165.8,-3.7672e-05,1658.1,-0.0002584,-0.36453,0.010145
5131,1.2856,4.1818,0.1,0.00055176,5513.8,0.00056135,6131.6,-4.4142e-05,1582.2,-0.00025477,-0.3652,0.010033
5132,1.2856,4.3636,0.1,0.00055086,5504.8,0.00056085,6095.5,-5.2398e-05,1487.8,-0.00025046,-0.36858,0.0098937
5133,1.2856,4.5455,0.1,0.00055074,5503.6,0.00056108,6059.7,-6.2759e-05,1372.4,-0.00024547,-0.37809,0.0097229
5134,1.2856,4.7273,0.1,0.00055186,5514.8,0.00056238,6027,-7.5537e-05,1233.9,-0.00023981,-0.39918,0.0095149
5135,1.2856,4.9091,0.1,0.00055473,5543.5,0.00056511,6000.5,-9.0968e-05,1071,-0.00023356,-0.44409,0.0092627
5136,1.2856,5.0909,0.1,0.00055983,5594.4,0.00056959,5983.5,-0.0001091,884.15,-0.00022684,-0.52007,0.0089577
5137,1.2856,5.2727,0.1,0.0005675,5671.1,0.00057596,5978.8,-0.00012966,677.02,-0.00021986,-0.68849,0.0085895
5138,1.2856,5.4545,0.1,0.00057777,5773.7,0.00058416,5988.1,-0.00015199,456.92,-0.00021292,-0.86454,0.0081465
5139,1.2856,5.6364,0.1,0.00059048,5900.8,0.00059406,6012.8,-0.00017515,233.21,-0.00020647,-2.0856,0.0076152
5140,1.2856,5.8182,0.1,0.00060765,6072.3,0.0006076,6071,-0.00019764,20.725,-0.00020348,-23.109,0.0069816
5141,1.4692,0.18182,0.1,0.00060704,6066.2,0.00060721,6071.4,-0.00019745,25.549,-0.00020282,-14.843,0.0094467
5142,1.4692,0.36364,0.1,0.00059152,5911.1,0.00059489,6016,-0.00017684,217.55,-0.00020601,-1.6538,0.010159
5143,1.4692,0.54545,0.1,0.00057952,5791.2,0.00058543,5986.7,-0.00015626,413.89,-0.00021142,-0.53747,0.010766
5144,1.4692,0.72727,0.1,0.0005693,5689.1,0.0005772,5968.6,-0.0001362,608.43,-0.00021723,-0.36577,0.01128
5145,1.4692,0.90909,0.1,0.00056103,5606.4,0.0005703,5961.2,-0.00011734,794.58,-0.00022311,-0.19923,0.011714
5146,1.4692,1.0909,0.1,0.00055478,5544,0.00056486,5963.6,-0.00010023,966.31,-0.00022886,-0.11624,0.012079
5147,1.4692,1.2727,0.1,0.00055043,5500.5,0.00056086,5974.3,-8.5223e-05,1119.8,-0.00023427,-0.062607,0.012384
5148,1.4692,1.4545,0.1,0.0005477,5473.2,0.00055814,5991.2,-7.2401e-05,1253.6,-0.00023925,-0.033012,0.012638
5149,1.4692,1.6364,0.1,0.00054623,5458.6,0.00055648,6012.3,-6.1697e-05,1367.5,-0.0002437,-0.016764,0.012849
5150,1.4692,1.8182,0.1,0.00054568,5453.1,0.00055564,6035.2,-5.2939e-05,1462.6,-0.0002476,-0.0086021,0.013022
5151,1.4692,2,0.1,0.00054574,5453.6,0.00055536,6058.1,-4.5917e-05,1540.3,-0.00025092,-0.0048093,0.013162
5152,1.4692,2.1818,0.1,0.00054614,5457.6,0.00055545,6079.4,-4.0419e-05,1602.3,-0.00025367,-0.0032921,0.013274
5153,1.4692,2.3636,0.1,0.00054667,5463,0.00055571,6097.8,-3.6256e-05,1650,-0.00025585,-0.0028493,0.01336
5154,1.4692,2.5455,0.1,0.0005472,5468.2,0.00055602,6112.3,-3.3271e-05,1684.6,-0.00025747,-0.002847,0.013423
5155,1.4692,2.7273,0.1,0.0005476,5472.2,0.00055628,6122.3,-3.1346e-05,1707.1,-0.00025855,-0.0029633,0.013464
5156,1.4692,2.9091,0.1,0.00054782,5474.4,0.00055642,6127.4,-3.0403e-05,1718.2,-0.00025909,-0.00305,0.013484
5157,1.4692,3.0909,0.1,0.00054782,5474.4,0.00055642,6127.4,-3.0403e-05,1718.2,-0.00025909,-0.00305,0.013484
5158,1.4692,3.2727,0.1,0.0005476,5472.2,0.00055628,6122.3,-3.1346e-05,1707.1,-0.00025855,-0.0029632,0.013464
5159,1.4692,3.4545,0.1,0.0005472,5468.2,0.00055602,6112.3,-3.3271e-05,1684.6,-0.00025747,-0.0028468,0.013423
5160,1.4692,3.6364,0.1,0.00054667,5463,0.00055571,6097.8,-3.6256e-05,1650,-0.00025585,-0.0028493,0.01336
5161,1.4692,3.8182,0.1,0.00054614,5457.6,0.00055545,6079.4,-4.0419e-05,1602.3,-0.00025367,-0.003292,0.013274
5162,1.4692,4,0.1,0.00054574,5453.6,0.00055536,6058.1,-4.5917e-05,1540.3,-0.00025092,-0.0048093,0.013162
5163,1.4692,4.1818,0.1,0.00054568,5453.1,0.00055564,6035.2,-5.2939e-05,1462.6,-0.0002476,-0.0086019,0.013022
5164,1.4692,4.3636,0.1,0.00054623,5458.6,0.00055648,6012.3,-6.1697e-05,1367.5,-0.0002437,-0.016764,0.012849
5165,1.4692,4.5455,0.1,0.0005477,5473.2,0.00055814,5991.2,-7.2401e-05,1253.6,-0.00023925,-0.033012,0.012638
5166,1.4692,4.7273,0.1,0.00055043,5500.5,0.00056086,5974.3,-8.5223e-05,1119.8,-0.00023427,-0.062606,0.012384
5167,1.4692,4.9091,0.1,0.00055478,5544,0.00056486,5963.6,-0.00010023,966.31,-0.00022886,-0.11624,0.012079
5168,1.4692,5.0909,0.1,0.00056103,5606.4,0.0005703,5961.2,-0.00011734,794.58,-0.00022311,-0.19923,0.011714
5169,1.4692,5.2727,0.1,0.0005693,5689.1,0.0005772,5968.6,-0.0001362,608.43,-0.00021723,-0.36577,0.01128
5170,1.4692,5.4545,0.1,0.00057952,5791.2,0.00058543,5986.7,-0.00015626,413.89,-0.00021142,-0.53747,0.010766
5171,1.4692,5.6364,0.1,0.00059152,5911.1,0.00059489,6016,-0.00017684,217.55,-0.00020601,-1.6538,0.010159
5172,1.4692,5.8182,0.1,0.00060704,6066.2,0.00060721,6071.4,-0.00019745,25.549,-0.00020282,-14.843,0.0094467
5173,1.6529,0.18182,0.1,0.00060441,6039.9,0.00060476,6050.4,-0.00019638,30.963,-0.0002018,-9.7996,0.012308
5174,1.6529,0.36364,0.1,0.00059034,5899.3,0.00059353,5998.3,-0.00017753,204.92,-0.000205,-1.4886,0.013093
5175,1.6529,0.54545,0.1,0.00057909,5786.9,0.0005846,5967,-0.00015907,379.31,-0.00020962,-0.52474,0.01377
5176,1.6529,0.72727,0.1,0.00056919,5687.9,0.00057656,5943.9,-0.00014097,552.64,-0.00021457,-0.38924,0.014351
5177,1.6529,0.90909,0.1,0.00056075,5603.7,0.00056952,5928.8,-0.0001237,720.24,-0.0002196,-0.24664,0.014847
5178,1.6529,1.0909,0.1,0.00055392,5535.4,0.0005636,5921.5,-0.00010775,877.28,-0.00022453,-0.17402,0.015268
5179,1.6529,1.2727,0.1,0.00054866,5482.8,0.00055884,5921.2,-9.343e-05,1020.3,-0.00022924,-0.12473,0.015625
5180,1.6529,1.4545,0.1,0.00054482,5444.5,0.00055519,5926.6,-8.0903e-05,1147.3,-0.00023361,-0.096155,0.015925
5181,1.6529,1.6364,0.1,0.00054219,5418.2,0.00055252,5936.3,-7.0197e-05,1257.5,-0.00023757,-0.079791,0.016176
5182,1.6529,1.8182,0.1,0.00054052,5401.5,0.00055067,5948.7,-6.1244e-05,1351,-0.00024106,-0.071363,0.016383
5183,1.6529,2,0.1,0.00053955,5391.8,0.00054946,5962.2,-5.3923e-05,1428.6,-0.00024407,-0.06754,0.016553
5184,1.6529,2.1818,0.1,0.00053908,5387,0.00054872,5975.5,-4.8095e-05,1491.3,-0.00024658,-0.066259,0.016688
5185,1.6529,2.3636,0.1,0.0005389,5385.3,0.00054831,5987.5,-4.362e-05,1540,-0.00024858,-0.066218,0.016793
5186,1.6529,2.5455,0.1,0.00053889,5385.2,0.00054811,5997.2,-4.0376e-05,1575.6,-0.00025008,-0.066651,0.016869
5187,1.6529,2.7273,0.1,0.00053895,5385.7,0.00054803,6004.1,-3.8268e-05,1598.9,-0.00025108,-0.067122,0.016919
5188,1.6529,2.9091,0.1,0.00053899,5386.1,0.000548,6007.6,-3.7231e-05,1610.4,-0.00025158,-0.067405,0.016944
5189,1.6529,3.0909,0.1,0.00053899,5386.1,0.000548,6007.6,-3.7231e-05,1610.4,-0.00025158,-0.067405,0.016944
5190,1.6529,3.2727,0.1,0.00053895,5385.7,0.00054803,6004.1,-3.8268e-05,1598.9,-0.00025108,-0.067122,0.016919
5191,1.6529,3.4545,0.1,0.00053889,5385.2,0.00054811,5997.2,-4.0376e-05,1575.6,-0.00025008,-0.066651,0.016869
5192,1.6529,3.6364,0.1,0.0005389,5385.3,0.00054831,5987.5,-4.362e-05,1540,-0.00024858,-0.066218,0.016793
5193,1.6529,3.8182,0.1,0.00053908,5387,0.00054872,5975.5,-4.8095e-05,1491.3,-0.00024658,-0.066259,0.016688
5194,1.6529,4,0.1,0.00053955,5391.8,0.00054946,5962.2,-5.3923e-05,1428.6,-0.00024407,-0.067539,0.016553
5195,1.6529,4.1818,0.1,0.00054052,5401.5,0.00055067,5948.7,-6.1244e-05,1351,-0.00024106,-0.071363,0.016383
5196,1.6529,4.3636,0.1,0.00054219,5418.2,0.00055252,5936.3,-7.0197e-05,1257.5,-0.00023757,-0.079791,0.016176
5197,1.6529,4.5455,0.1,0.00054482,5444.5,0.00055519,5926.6,-8.0903e-05,1147.3,-0.00023361,-0.096155,0.015925
5198,1.6529,4.7273,0.1,0.00054866,5482.8,0.00055884,5921.2,-9.343e-05,1020.3,-0.00022924,-0.12473,0.015625
5199,1.6529,4.9091,0.1,0.00055392,5535.4,0.0005636,5921.5,-0.00010775,877.28,-0.00022453,-0.17402,0.015268
5200,1.6529,5.0909,0.1,0.00056075,5603.7,0.00056952,5928.8,-0.0001237,720.24,-0.0002196,-0.24664,0.014847
5201,1.6529,5.2727,0.1,0.00056919,5687.9,0.00057656,5943.9,-0.00014097,552.64,-0.00021457,-0.38924,0.014351
5202,1.6529,5.4545,0.1,0.00057909,5786.9,0.0005846,5967,-0.00015907,379.31,-0.00020962,-0.52474,0.01377
5203,1.6529,5.6364,0.1,0.00059034,5899.3,0.00059353,5998.3,-0.00017753,204.92,-0.000205,-1.4886,0.013093
5204,1.6529,5.8182,0.1,0.00060441,6039.9,0.00060476,6050.4,-0.00019638,30.963,-0.0002018,-9.7996,0.012308
5205,1.8365,0.18182,0.1,0.0006004,5999.9,0.00060089,6014.5,-0.00019476,36.259,-0.00020049,-6.7352,0.015567
5206,1.8365,0.36364,0.1,0.0005876,5872,0.00059064,5966,-0.00017754,194.17,-0.00020356,-1.3022,0.016418
5207,1.8365,0.54545,0.1,0.00057709,5766.9,0.00058224,5933.9,-0.00016087,350.51,-0.00020757,-0.44903,0.017159
5208,1.8365,0.72727,0.1,0.00056761,5672.2,0.00057452,5908.1,-0.00014445,506.03,-0.00021185,-0.33428,0.017802
5209,1.8365,0.90909,0.1,0.00055927,5588.9,0.00056754,5888.4,-0.00012866,657.39,-0.00021618,-0.20697,0.018356
5210,1.8365,1.0909,0.1,0.0005522,5518.2,0.00056144,5874.7,-0.00011387,800.74,-0.00022046,-0.14038,0.018831
5211,1.8365,1.2727,0.1,0.00054642,5460.4,0.00055628,5866.8,-0.00010037,933.05,-0.00022456,-0.093044,0.019238
5212,1.8365,1.4545,0.1,0.00054188,5415.1,0.00055205,5863.9,-8.834e-05,1052.3,-0.0002284,-0.063814,0.019582
5213,1.8365,1.6364,0.1,0.00053844,5380.7,0.0005487,5865.1,-7.787e-05,1157.3,-0.00023191,-0.04578,0.019872
5214,1.8365,1.8182,0.1,0.00053593,5355.6,0.00054614,5869.3,-6.8959e-05,1247.8,-0.00023503,-0.035515,0.020114
5215,1.8365,2,0.1,0.00053417,5338.1,0.00054423,5875.4,-6.1554e-05,1323.7,-0.00023774,-0.030122,0.020312
5216,1.8365,2.1818,0.1,0.00053299,5326.3,0.00054286,5882.1,-5.5573e-05,1385.8,-0.00024001,-0.027673,0.020471
5217,1.8365,2.3636,0.1,0.00053223,5318.7,0.00054192,5888.8,-5.0924e-05,1434.4,-0.00024183,-0.026847,0.020594
5218,1.8365,2.5455,0.1,0.00053178,5314.1,0.0005413,5894.4,-4.7524e-05,1470.2,-0.0002432,-0.026799,0.020685
5219,1.8365,2.7273,0.1,0.00053152,5311.5,0.00054093,5898.5,-4.5298e-05,1493.8,-0.00024412,-0.027006,0.020744
5220,1.8365,2.9091,0.1,0.00053141,5310.4,0.00054075,5900.6,-4.4199e-05,1505.5,-0.00024457,-0.027175,0.020773
5221,1.8365,3.0909,0.1,0.00053141,5310.4,0.00054075,5900.6,-4.4199e-05,1505.5,-0.00024457,-0.027175,0.020773
5222,1.8365,3.2727,0.1,0.00053152,5311.5,0.00054093,5898.5,-4.5298e-05,1493.8,-0.00024412,-0.027006,0.020744
5223,1.8365,3.4545,0.1,0.00053178,5314.1,0.0005413,5894.4,-4.7524e-05,1470.2,-0.0002432,-0.026799,0.020685
5224,1.8365,3.6364,0.1,0.00053223,5318.7,0.00054192,5888.8,-5.0924e-05,1434.4,-0.00024183,-0.026847,0.020594
5225,1.8365,3.8182,0.1,0.00053299,5326.3,0.00054286,5882.1,-5.5573e-05,1385.8,-0.00024001,-0.027672,0.020471
5226,1.8365,4,0.1,0.00053417,5338.1,0.00054423,5875.4,-6.1554e-05,1323.7,-0.00023774,-0.030121,0.020312
5227,1.8365,4.1818,0.1,0.00053593,5355.6,0.00054614,5869.3,-6.8959e-05,1247.8,-0.00023503,-0.035515,0.020114
5228,1.8365,4.3636,0.1,0.00053844,5380.7,0.0005487,5865.1,-7.787e-05,1157.3,-0.00023191,-0.04578,0.019872
5229,1.8365,4.5455,0.1,0.00054188,5415.1,0.00055205,5863.9,-8.834e-05,1052.3,-0.0002284,-0.063814,0.019582
5230,1.8365,4.7273,0.1,0.00054642,5460.4,0.00055628,5866.8,-0.00010037,933.05,-0.00022456,-0.093044,0.019238
5231,1.8365,4.9091,0.1,0.0005522,5518.2,0.00056144,5874.7,-0.00011387,800.74,-0.00022046,-0.14038,0.018831
5232,1.8365,5.0909,0.1,0.00055927,5588.9,0.00056754,5888.4,-0.00012866,657.39,-0.00021618,-0.20697,0.018356
5233,1.8365,5.2727,0.1,0.00056761,5672.2,0.00057452,5908.1,-0.00014445,506.03,-0.00021185,-0.33428,0.017802
5234,1.8365,5.4545,0.1,0.00057709,5766.9,0.00058224,5933.9,-0.00016087,350.51,-0.00020757,-0.44903,0.017159
5235,1.8365,5.6364,0.1,0.0005876,5872,0.00059064,5966,-0.00017754,194.17,-0.00020356,-1.3022,0.016418
5236,1.8365,5.8182,0.1,0.0006004,5999.9,0.00060089,6014.5,-0.00019476,36.259,-0.00020049,-6.7352,0.015567
5237,2.0202,0.18182,0.1,0.00059544,5950.2,0.00059604,5968.1,-0.00019283,40.885,-0.00019892,-4.8357,0.019222
5238,2.0202,0.36364,0.1,0.00058376,5833.6,0.00058666,5923.1,-0.00017709,184.55,-0.00020181,-1.1567,0.020133
5239,2.0202,0.54545,0.1,0.00057395,5735.6,0.00057879,5891.3,-0.00016194,325.69,-0.00020534,-0.40107,0.020933
5240,2.0202,0.72727,0.1,0.00056496,5645.7,0.00057143,5864.1,-0.000147,466.07,-0.00020907,-0.30535,0.021633
5241,2.0202,0.90909,0.1,0.00055685,5564.7,0.00056465,5841.6,-0.00013254,603.2,-0.00021284,-0.19273,0.022241
5242,2.0202,1.0909,0.1,0.00054976,5493.9,0.00055856,5823.9,-0.00011886,734.03,-0.00021657,-0.13297,0.022768
5243,2.0202,1.2727,0.1,0.00054375,5433.7,0.00055322,5810.9,-0.00010623,855.97,-0.00022017,-0.08888,0.023221
5244,2.0202,1.4545,0.1,0.00053879,5384.2,0.00054868,5802.2,-9.4825e-05,967.1,-0.00022355,-0.060305,0.023608
5245,2.0202,1.6364,0.1,0.00053482,5344.5,0.00054491,5797.2,-8.475e-05,1066.1,-0.00022665,-0.041607,0.023935
5246,2.0202,1.8182,0.1,0.00053173,5313.6,0.00054187,5795.2,-7.6053e-05,1152.4,-0.00022943,-0.030117,0.02421
5247,2.0202,2,0.1,0.00052939,5290.2,0.00053947,5795.5,-6.8728e-05,1225.7,-0.00023186,-0.023427,0.024436
5248,2.0202,2.1818,0.1,0.00052767,5273,0.00053764,5797.1,-6.2742e-05,1286,-0.00023391,-0.019848,0.024619
5249,2.0202,2.3636,0.1,0.00052645,5260.9,0.00053629,5799.4,-5.8042e-05,1333.8,-0.00023556,-0.018148,0.024761
5250,2.0202,2.5455,0.1,0.00052563,5252.6,0.00053535,5801.6,-5.4575e-05,1369.2,-0.0002368,-0.017486,0.024865
5251,2.0202,2.7273,0.1,0.00052512,5247.6,0.00053476,5803.4,-5.2294e-05,1392.6,-0.00023763,-0.017312,0.024934
5252,2.0202,2.9091,0.1,0.00052489,5245.3,0.00053447,5804.4,-5.1162e-05,1404.2,-0.00023805,-0.0173,0.024967
5253,2.0202,3.0909,0.1,0.00052489,5245.3,0.00053447,5804.4,-5.1162e-05,1404.2,-0.00023805,-0.0173,0.024967
5254,2.0202,3.2727,0.1,0.00052512,5247.6,0.00053476,5803.4,-5.2294e-05,1392.6,-0.00023763,-0.017312,0.024934
5255,2.0202,3.4545,0.1,0.00052563,5252.6,0.00053535,5801.6,-5.4575e-05,1369.2,-0.0002368,-0.017486,0.024865
5256,2.0202,3.6364,0.1,0.00052645,5260.9,0.00053629,5799.4,-5.8042e-05,1333.8,-0.00023556,-0.018148,0.024761
5257,2.0202,3.8182,0.1,0.00052767,5273,0.00053764,5797.1,-6.2742e-05,1286,-0.00023391,-0.019847,0.024619
5258,2.0202,4,0.1,0.00052939,5290.2,0.00053947,5795.5,-6.8728e-05,1225.7,-0.00023186,-0.023427,0.024436
5259,2.0202,4.1818,0.1,0.00053173,5313.6,0.00054187,5795.2,-7.6053e-05,1152.4,-0.00022943,-0.030117,0.02421
5260,2.0202,4.3636,0.1,0.00053482,5344.5,0.00054491,5797.2,-8.475e-05,1066.1,-0.00022665,-0.041607,0.023935
5261,2.0202,4.5455,0.1,0.00053879,5384.2,0.00054868,5802.2,-9.4825e-05,967.1,-0.00022355,-0.060305,0.023608
5262,2.0202,4.7273,0.1,0.00054375,5433.7,0.00055322,5810.9,-0.00010623,855.97,-0.00022017,-0.088879,0.023221
5263,2.0202,4.9091,0.1,0.00054976,5493.9,0.00055856,5823.9,-0.00011886,734.03,-0.00021657,-0.13297,0.022768
5264,2.0202,5.0909,0.1,0.00055685,5564.7,0.00056465,5841.6,-0.00013254,603.2,-0.00021284,-0.19273,0.022241
5265,2.0202,5.2727,0.1,0.00056496,5645.7,0.00057143,5864.1,-0.000147,466.07,-0.00020907,-0.30535,0.021633
5266,2.0202,5.4545,0.1,0.00057395,5735.6,0.00057879,5891.3,-0.00016194,325.69,-0.00020534,-0.40107,0.020933
5267,2.0202,5.6364,0.1,0.00058376,5833.6,0.00058666,5923.1,-0.00017709,184.55,-0.00020181,-1.1567,0.020133
5268,2.0202,5.8182,0.1,0.00059544,5950.2,0.00059604,5968.1,-0.00019283,40.885,-0.00019892,-4.8357,0.019222
5269,2.2038,0.18182,0.1,0.00058981,5894.1,0.0005905,5914.4,-0.00019073,44.62,-0.00019714,-3.6005,0.023271
5270,2.2038,0.36364,0.1,0.00057914,5787.4,0.00058191,5872.7,-0.00017632,175.63,-0.00019984,-1.0293,0.024237
5271,2.2038,0.54545,0.1,0.00056999,5696,0.00057454,5841.6,-0.0001625,303.75,-0.00020297,-0.35547,0.025091
5272,2.2038,0.72727,0.1,0.00056149,5611.1,0.00056758,5814,-0.00014885,431.06,-0.00020626,-0.2747,0.025843
5273,2.2038,0.90909,0.1,0.00055371,5533.3,0.00056106,5790.1,-0.00013559,555.68,-0.00020957,-0.17441,0.026502
5274,2.2038,1.0909,0.1,0.00054675,5463.7,0.00055509,5769.9,-0.00012297,675.15,-0.00021284,-0.12068,0.027075
5275,2.2038,1.2727,0.1,0.00054068,5403.1,0.00054975,5753.5,-0.00011121,787.29,-0.000216,-0.07984,0.027572
5276,2.2038,1.4545,0.1,0.00053552,5351.5,0.00054508,5740.8,-0.00010048,890.35,-0.00021899,-0.052306,0.028
5277,2.2038,1.6364,0.1,0.00053124,5308.7,0.00054108,5731.5,-9.0897e-05,983.04,-0.00022174,-0.033377,0.028363
5278,2.2038,1.8182,0.1,0.00052776,5274,0.00053775,5725.1,-8.2531e-05,1064.5,-0.00022421,-0.020984,0.02867
5279,2.2038,2,0.1,0.00052502,5246.6,0.00053503,5721,-7.5409e-05,1134.3,-0.00022638,-0.013158,0.028923
5280,2.2038,2.1818,0.1,0.00052291,5225.5,0.00053288,5718.6,-6.9532e-05,1192.3,-0.00022822,-0.0084728,0.029129
5281,2.2038,2.3636,0.1,0.00052135,5209.9,0.00053125,5717.5,-6.4879e-05,1238.4,-0.00022971,-0.0058349,0.029289
5282,2.2038,2.5455,0.1,0.00052025,5198.9,0.00053008,5717.1,-6.1423e-05,1272.8,-0.00023083,-0.0044622,0.029407
5283,2.2038,2.7273,0.1,0.00051956,5192,0.00052932,5717.1,-5.9138e-05,1295.7,-0.00023158,-0.0038182,0.029484
5284,2.2038,2.9091,0.1,0.00051922,5188.6,0.00052895,5717.2,-5.8001e-05,1307.1,-0.00023196,-0.0035744,0.029522
5285,2.2038,3.0909,0.1,0.00051922,5188.6,0.00052895,5717.2,-5.8001e-05,1307.1,-0.00023196,-0.0035742,0.029522
5286,2.2038,3.2727,0.1,0.00051956,5192,0.00052932,5717.1,-5.9138e-05,1295.7,-0.00023158,-0.0038181,0.029484
5287,2.2038,3.4545,0.1,0.00052025,5198.9,0.00053008,5717.1,-6.1423e-05,1272.8,-0.00023083,-0.0044621,0.029407
5288,2.2038,3.6364,0.1,0.00052135,5209.9,0.00053125,5717.5,-6.4879e-05,1238.4,-0.00022971,-0.0058347,0.029289
5289,2.2038,3.8182,0.1,0.00052291,5225.5,0.00053288,5718.6,-6.9532e-05,1192.3,-0.00022822,-0.0084725,0.029129
5290,2.2038,4,0.1,0.00052502,5246.6,0.00053503,5721,-7.5409e-05,1134.3,-0.00022638,-0.013158,0.028923
5291,2.2038,4.1818,0.1,0.00052776,5274,0.00053775,5725.1,-8.2531e-05,1064.5,-0.00022421,-0.020984,0.02867
5292,2.2038,4.3636,0.1,0.00053124,5308.7,0.00054108,5731.5,-9.0897e-05,983.04,-0.00022174,-0.033377,0.028363
5293,2.2038,4.5455,0.1,0.00053552,5351.5,0.00054508,5740.8,-0.00010048,890.35,-0.00021899,-0.052305,0.028
5294,2.2038,4.7273,0.1,0.00054068,5403.1,0.00054975,5753.5,-0.00011121,787.29,-0.000216,-0.07984,0.027572
5295,2.2038,4.9091,0.1,0.00054675,5463.7,0.00055509,5769.9,-0.00012297,675.15,-0.00021284,-0.12068,0.027075
5296,2.2038,5.0909,0.1,0.00055371,5533.3,0.00056106,5790.1,-0.00013559,555.68,-0.00020957,-0.17441,0.026502
5297,2.2038,5.2727,0.1,0.00056149,5611.1,0.00056758,5814,-0.00014885,431.06,-0.00020626,-0.2747,0.025843
5298,2.2038,5.4545,0.1,0.00056999,5696,0.00057454,5841.6,-0.0001625,303.75,-0.00020297,-0.35547,0.025091
5299,2.2038,5.6364,0.1,0.00057914,5787.4,0.00058191,5872.7,-0.00017632,175.63,-0.00019984,-1.0293,0.024237
5300,2.2038,5.8182,0.1,0.00058981,5894.1,0.0005905,5914.4,-0.00019073,44.621,-0.00019714,-3.6005,0.023271
5301,2.3875,0.18182,0.1,0.00058374,5833.4,0.00058449,5855.6,-0.00018853,47.422,-0.00019521,-2.7614,0.027713
5302,2.3875,0.36364,0.1,0.00057397,5735.7,0.00057661,5817,-0.00017534,167.15,-0.0001977,-0.92039,0.028728
5303,2.3875,0.54545,0.1,0.00056544,5650.5,0.00056973,5786.9,-0.00016268,283.95,-0.00020051,-0.31689,0.029631
5304,2.3875,0.72727,0.1,0.00055744,5570.5,0.00056316,5759.5,-0.00015018,399.84,-0.00020342,-0.24854,0.030431
5305,2.3875,0.90909,0.1,0.00055002,5496.4,0.00055695,5735,-0.00013801,513.39,-0.00020635,-0.15901,0.031136
5306,2.3875,1.0909,0.1,0.00054328,5429.1,0.00055118,5713.5,-0.00012637,622.59,-0.00020924,-0.11079,0.031753
5307,2.3875,1.2727,0.1,0.00053729,5369.2,0.00054594,5695,-0.00011545,725.6,-0.00021203,-0.073251,0.032291
5308,2.3875,1.4545,0.1,0.00053208,5317.1,0.00054126,5679.8,-0.00010542,820.85,-0.00021467,-0.047139,0.032756
5309,2.3875,1.6364,0.1,0.00052764,5272.8,0.00053718,5667.4,-9.638e-05,907.12,-0.00021711,-0.028463,0.033154
5310,2.3875,1.8182,0.1,0.00052395,5235.8,0.0005337,5657.8,-8.8419e-05,983.5,-0.00021932,-0.015609,0.03349
5311,2.3875,2,0.1,0.00052094,5205.9,0.0005308,5650.6,-8.1586e-05,1049.4,-0.00022125,-0.0069833,0.03377
5312,2.3875,2.1818,0.1,0.00051857,5182.2,0.00052845,5645.4,-7.5902e-05,1104.5,-0.0002229,-0.0014088,0.033997
5313,2.3875,2.3636,0.1,0.00051677,5164.1,0.00052663,5641.7,-7.1371e-05,1148.5,-0.00022423,0.0020472,0.034174
5314,2.3875,2.5455,0.1,0.00051547,5151.2,0.0005253,5639.3,-6.7988e-05,1181.6,-0.00022524,0.0040779,0.034305
5315,2.3875,2.7273,0.1,0.00051464,5142.8,0.00052443,5637.9,-6.5741e-05,1203.6,-0.00022592,0.0051755,0.034392
5316,2.3875,2.9091,0.1,0.00051423,5138.8,0.00052401,5637.2,-6.462e-05,1214.5,-0.00022626,0.0056494,0.034434
5317,2.3875,3.0909,0.1,0.00051423,5138.8,0.00052401,5637.2,-6.462e-05,1214.5,-0.00022626,0.0056493,0.034434
5318,2.3875,3.2727,0.1,0.00051464,5142.8,0.00052443,5637.9,-6.5741e-05,1203.6,-0.00022592,0.0051755,0.034392
5319,2.3875,3.4545,0.1,0.00051547,5151.2,0.0005253,5639.3,-6.7988e-05,1181.6,-0.00022524,0.0040781,0.034305
5320,2.3875,3.6364,0.1,0.00051677,5164.1,0.00052663,5641.7,-7.1371e-05,1148.5,-0.00022423,0.0020473,0.034174
5321,2.3875,3.8182,0.1,0.00051857,5182.2,0.00052845,5645.4,-7.5902e-05,1104.5,-0.0002229,-0.0014086,0.033997
5322,2.3875,4,0.1,0.00052094,5205.9,0.0005308,5650.6,-8.1586e-05,1049.4,-0.00022125,-0.006983,0.03377
5323,2.3875,4.1818,0.1,0.00052395,5235.8,0.0005337,5657.8,-8.8419e-05,983.5,-0.00021932,-0.015609,0.03349
5324,2.3875,4.3636,0.1,0.00052764,5272.8,0.00053718,5667.4,-9.638e-05,907.12,-0.00021711,-0.028463,0.033154
5325,2.3875,4.5455,0.1,0.00053208,5317.1,0.00054126,5679.8,-0.00010542,820.85,-0.00021467,-0.047139,0.032756
5326,2.3875,4.7273,0.1,0.00053729,5369.2,0.00054594,5695,-0.00011545,725.6,-0.00021203,-0.07325,0.032291
5327,2.3875,4.9091,0.1,0.00054328,5429.1,0.00055118,5713.5,-0.00012637,622.59,-0.00020924,-0.11079,0.031753
5328,2.3875,5.0909,0.1,0.00055002,5496.4,0.00055695,5735,-0.00013801,513.39,-0.00020635,-0.15901,0.031136
5329,2.3875,5.2727,0.1,0.00055744,5570.5,0.00056316,5759.5,-0.00015018,399.84,-0.00020342,-0.24854,0.030431
5330,2.3875,5.4545,0.1,0.00056544,5650.5,0.00056973,5786.9,-0.00016268,283.95,-0.00020051,-0.31689,0.029631
5331,2.3875,5.6364,0.1,0.00057397,5735.7,0.00057661,5817,-0.00017534,167.15,-0.0001977,-0.92039,0.028728
5332,2.3875,5.8182,0.1,0.00058374,5833.4,0.00058449,5855.6,-0.00018853,47.422,-0.00019521,-2.7614,0.027713
5333,2.5712,0.18182,0.1,0.00057738,5769.8,0.00057816,5793.2,-0.0001863,49.338,-0.00019315,-2.1682,0.032545
5334,2.5712,0.36364,0.1,0.0005684,5680.1,0.00057092,5757.5,-0.00017419,158.97,-0.00019546,-0.82562,0.033603
5335,2.5712,0.54545,0.1,0.00056046,5600.7,0.0005645,5728.7,-0.00016257,265.78,-0.00019798,-0.28288,0.03455
5336,2.5712,0.72727,0.1,0.00055295,5525.6,0.00055832,5701.9,-0.0001511,371.6,-0.00020059,-0.22475,0.035394
5337,2.5712,0.90909,0.1,0.00054591,5455.4,0.00055244,5677.4,-0.00013992,475.3,-0.00020319,-0.14454,0.036141
5338,2.5712,1.0909,0.1,0.00053945,5390.8,0.00054693,5655.3,-0.00012919,575.2,-0.00020576,-0.10122,0.036799
5339,2.5712,1.2727,0.1,0.00053362,5332.5,0.00054185,5635.7,-0.00011908,669.77,-0.00020823,-0.066842,0.037375
5340,2.5712,1.4545,0.1,0.00052847,5281,0.00053726,5618.9,-0.00010974,757.6,-0.00021057,-0.04233,0.037875
5341,2.5712,1.6364,0.1,0.000524,5236.4,0.00053319,5604.6,-0.00010127,837.57,-0.00021274,-0.024231,0.038304
5342,2.5712,1.8182,0.1,0.00052021,5198.5,0.00052967,5592.9,-9.3754e-05,908.77,-0.00021471,-0.011274,0.038669
5343,2.5712,2,0.1,0.00051707,5167.1,0.00052669,5583.5,-8.7264e-05,970.53,-0.00021643,-0.0021632,0.038973
5344,2.5712,2.1818,0.1,0.00051454,5141.8,0.00052424,5576.2,-8.1831e-05,1022.4,-0.0002179,0.0040552,0.039221
5345,2.5712,2.3636,0.1,0.00051258,5122.3,0.00052232,5570.8,-7.7477e-05,1064.1,-0.0002191,0.008159,0.039415
5346,2.5712,2.5455,0.1,0.00051115,5108,0.0005209,5566.9,-7.4211e-05,1095.5,-0.00022001,0.01074,0.039558
5347,2.5712,2.7273,0.1,0.00051022,5098.7,0.00051996,5564.4,-7.2034e-05,1116.4,-0.00022062,0.012231,0.039653
5348,2.5712,2.9091,0.1,0.00050977,5094.1,0.00051949,5563.2,-7.0947e-05,1126.9,-0.00022093,0.012909,0.0397
5349,2.5712,3.0909,0.1,0.00050977,5094.1,0.00051949,5563.2,-7.0947e-05,1126.9,-0.00022093,0.012909,0.0397
5350,2.5712,3.2727,0.1,0.00051022,5098.7,0.00051996,5564.4,-7.2034e-05,1116.4,-0.00022062,0.012231,0.039653
5351,2.5712,3.4545,0.1,0.00051115,5108,0.0005209,5566.9,-7.4211e-05,1095.5,-0.00022001,0.010741,0.039558
5352,2.5712,3.6364,0.1,0.00051258,5122.3,0.00052232,5570.8,-7.7477e-05,1064.1,-0.0002191,0.0081592,0.039415
5353,2.5712,3.8182,0.1,0.00051454,5141.8,0.00052424,5576.2,-8.1831e-05,1022.4,-0.0002179,0.0040555,0.039221
5354,2.5712,4,0.1,0.00051707,5167.1,0.00052669,5583.5,-8.7264e-05,970.53,-0.00021643,-0.002163,0.038973
5355,2.5712,4.1818,0.1,0.00052021,5198.5,0.00052967,5592.9,-9.3754e-05,908.77,-0.00021471,-0.011273,0.038669
5356,2.5712,4.3636,0.1,0.000524,5236.4,0.00053319,5604.6,-0.00010127,837.57,-0.00021274,-0.024231,0.038304
5357,2.5712,4.5455,0.1,0.00052847,5281,0.00053726,5618.9,-0.00010974,757.6,-0.00021057,-0.042329,0.037875
5358,2.5712,4.7273,0.1,0.00053362,5332.5,0.00054185,5635.7,-0.00011908,669.77,-0.00020823,-0.066842,0.037375
5359,2.5712,4.9091,0.1,0.00053945,5390.8,0.00054693,5655.3,-0.00012919,575.2,-0.00020576,-0.10122,0.036799
5360,2.5712,5.0909,0.1,0.00054591,5455.4,0.00055244,5677.4,-0.00013992,475.3,-0.00020319,-0.14454,0.036141
5361,2.5712,5.2727,0.1,0.00055295,5525.6,0.00055832,5701.9,-0.0001511,371.6,-0.00020059,-0.22475,0.035394
5362,2.5712,5.4545,0.1,0.00056046,5600.7,0.0005645,5728.7,-0.00016257,265.78,-0.00019798,-0.28288,0.03455
5363,2.5712,5.6364,0.1,0.0005684,5680.1,0.00057092,5757.5,-0.00017419,158.97,-0.00019546,-0.82562,0.033603
5364,2.5712,5.8182,0.1,0.00057738,5769.8,0.00057816,5793.2,-0.0001863,49.338,-0.00019315,-2.1682,0.032545
5365,2.7548,0.18182,0.1,0.00057082,5704.3,0.00057163,5728.4,-0.00018406,50.455,-0.00019101,-1.735,0.037762
5366,2.7548,0.36364,0.1,0.00056258,5621.9,0.00056498,5695.5,-0.00017295,151,-0.00019314,-0.74285,0.03886
5367,2.7548,0.54545,0.1,0.00055517,5547.9,0.00055898,5668,-0.00016226,248.93,-0.00019542,-0.25308,0.039847
5368,2.7548,0.72727,0.1,0.00054813,5477.6,0.00055319,5642.2,-0.00015171,345.77,-0.00019776,-0.20346,0.04073
5369,2.7548,0.90909,0.1,0.0005415,5411.3,0.00054764,5618,-0.00014142,440.64,-0.00020009,-0.13138,0.041516
5370,2.7548,1.0909,0.1,0.00053535,5349.8,0.00054241,5595.9,-0.00013154,532.13,-0.00020237,-0.092424,0.042211
5371,2.7548,1.2727,0.1,0.00052973,5293.7,0.00053754,5575.9,-0.0001222,618.92,-0.00020458,-0.06101,0.042821
5372,2.7548,1.4545,0.1,0.00052471,5243.5,0.0005331,5558.2,-0.00011352,699.8,-0.00020666,-0.038172,0.043353
5373,2.7548,1.6364,0.1,0.0005203,5199.4,0.00052912,5542.9,-0.00010562,773.7,-0.00020859,-0.020876,0.043812
5374,2.7548,1.8182,0.1,0.0005165,5161.4,0.00052563,5529.8,-9.8574e-05,839.78,-0.00021034,-0.0081005,0.044203
5375,2.7548,2,0.1,0.00051331,5129.6,0.00052265,5519,-9.2458e-05,897.34,-0.00021189,0.0012108,0.04453
5376,2.7548,2.1818,0.1,0.00051071,5103.6,0.00052018,5510.3,-8.7313e-05,945.88,-0.0002132,0.0078288,0.044797
5377,2.7548,2.3636,0.1,0.00050867,5083.2,0.00051821,5503.6,-8.3172e-05,985.05,-0.00021427,0.01239,0.045007
5378,2.7548,2.5455,0.1,0.00050717,5068.2,0.00051675,5498.7,-8.0055e-05,1014.6,-0.00021509,0.015386,0.045162
5379,2.7548,2.7273,0.1,0.00050618,5058.3,0.00051578,5495.6,-7.7972e-05,1034.4,-0.00021563,0.017186,0.045265
5380,2.7548,2.9091,0.1,0.00050569,5053.4,0.00051529,5494,-7.6929e-05,1044.3,-0.00021591,0.018027,0.045315
5381,2.7548,3.0909,0.1,0.00050569,5053.4,0.00051529,5494,-7.6929e-05,1044.3,-0.00021591,0.018027,0.045315
5382,2.7548,3.2727,0.1,0.00050618,5058.3,0.00051578,5495.6,-7.7972e-05,1034.4,-0.00021563,0.017186,0.045265
5383,2.7548,3.4545,0.1,0.00050717,5068.2,0.00051675,5498.7,-8.0055e-05,1014.6,-0.00021509,0.015387,0.045162
5384,2.7548,3.6364,0.1,0.00050867,5083.2,0.00051821,5503.6,-8.3172e-05,985.05,-0.00021427,0.01239,0.045007
5385,2.7548,3.8182,0.1,0.00051071,5103.6,0.00052018,5510.3,-8.7313e-05,945.88,-0.0002132,0.007829,0.044797
5386,2.7548,4,0.1,0.00051331,5129.6,0.00052265,5519,-9.2458e-05,897.34,-0.00021189,0.0012112,0.04453
5387,2.7548,4.1818,0.1,0.0005165,5161.4,0.00052563,5529.8,-9.8574e-05,839.78,-0.00021034,-0.0081002,0.044203
5388,2.7548,4.3636,0.1,0.0005203,5199.4,0.00052912,5542.9,-0.00010562,773.7,-0.00020859,-0.020875,0.043812
5389,2.7548,4.5455,0.1,0.00052471,5243.5,0.0005331,5558.2,-0.00011352,699.8,-0.00020666,-0.038172,0.043353
5390,2.7548,4.7273,0.1,0.00052973,5293.7,0.00053754,5575.9,-0.0001222,618.92,-0.00020458,-0.061009,0.042821
5391,2.7548,4.9091,0.1,0.00053535,5349.8,0.00054241,5595.9,-0.00013154,532.13,-0.00020237,-0.092423,0.042211
5392,2.7548,5.0909,0.1,0.0005415,5411.3,0.00054764,5618,-0.00014142,440.64,-0.00020009,-0.13138,0.041516
5393,2.7548,5.2727,0.1,0.00054813,5477.6,0.00055319,5642.2,-0.00015171,345.77,-0.00019776,-0.20346,0.04073
5394,2.7548,5.4545,0.1,0.00055517,5547.9,0.00055898,5668,-0.00016226,248.93,-0.00019542,-0.25308,0.039847
5395,2.7548,5.6364,0.1,0.00056258,5621.9,0.00056498,5695.5,-0.00017295,151,-0.00019314,-0.74284,0.03886
5396,2.7548,5.8182,0.1,0.00057082,5704.3,0.00057163,5728.4,-0.00018406,50.455,-0.00019101,-1.735,0.037762
5397,2.9385,0.18182,0.1,0.00056416,5637.7,0.00056498,5662.2,-0.00018185,50.87,-0.0001888,-1.4101,0.043361
5398,2.9385,0.36364,0.1,0.00055657,5561.9,0.00055886,5631.7,-0.00017162,143.21,-0.00019077,-0.67005,0.044495
5399,2.9385,0.54545,0.1,0.00054968,5493,0.00055327,5605.7,-0.00016178,233.15,-0.00019284,-0.2268,0.045518
5400,2.9385,0.72727,0.1,0.00054309,5427.2,0.00054785,5580.9,-0.00015207,321.95,-0.00019495,-0.18428,0.046437
5401,2.9385,0.90909,0.1,0.00053685,5364.8,0.00054264,5557.5,-0.00014261,408.87,-0.00019704,-0.11933,0.047257
5402,2.9385,1.0909,0.1,0.00053103,5306.6,0.00053769,5535.7,-0.0001335,492.72,-0.00019908,-0.084244,0.047985
5403,2.9385,1.2727,0.1,0.00052567,5253.1,0.00053306,5515.8,-0.00012487,572.37,-0.00020105,-0.055577,0.048628
5404,2.9385,1.4545,0.1,0.00052083,5204.7,0.0005288,5497.8,-0.00011683,646.75,-0.00020291,-0.034413,0.049189
5405,2.9385,1.6364,0.1,0.00051653,5161.7,0.00052496,5481.9,-0.00010949,714.91,-0.00020464,-0.018054,0.049676
5406,2.9385,1.8182,0.1,0.00051279,5124.4,0.00052157,5468.2,-0.00010292,776.03,-0.0002062,-0.0056682,0.050091
5407,2.9385,2,0.1,0.00050962,5092.7,0.00051864,5456.5,-9.7188e-05,829.45,-0.00020758,0.0036154,0.050439
5408,2.9385,2.1818,0.1,0.00050701,5066.6,0.00051619,5447,-9.2352e-05,874.64,-0.00020876,0.010419,0.050724
5409,2.9385,2.3636,0.1,0.00050495,5046,0.00051424,5439.5,-8.8446e-05,911.2,-0.00020972,0.015257,0.050948
5410,2.9385,2.5455,0.1,0.00050342,5030.7,0.00051277,5434,-8.5497e-05,938.84,-0.00021045,0.018534,0.051114
5411,2.9385,2.7273,0.1,0.0005024,5020.6,0.00051179,5430.3,-8.3523e-05,957.36,-0.00021094,0.020552,0.051224
5412,2.9385,2.9091,0.1,0.0005019,5015.5,0.00051131,5428.5,-8.2534e-05,966.65,-0.00021118,0.021512,0.051279
5413,2.9385,3.0909,0.1,0.0005019,5015.5,0.00051131,5428.5,-8.2534e-05,966.65,-0.00021118,0.021512,0.051279
5414,2.9385,3.2727,0.1,0.0005024,5020.6,0.00051179,5430.3,-8.3523e-05,957.36,-0.00021094,0.020552,0.051224
5415,2.9385,3.4545,0.1,0.00050342,5030.7,0.00051277,5434,-8.5497e-05,938.84,-0.00021045,0.018534,0.051114
5416,2.9385,3.6364,0.1,0.00050495,5046,0.00051424,5439.5,-8.8446e-05,911.2,-0.00020972,0.015258,0.050948
5417,2.9385,3.8182,0.1,0.00050701,5066.6,0.00051619,5447,-9.2352e-05,874.64,-0.00020876,0.010419,0.050724
5418,2.9385,4,0.1,0.00050962,5092.7,0.00051864,5456.5,-9.7188e-05,829.45,-0.00020758,0.0036158,0.050439
5419,2.9385,4.1818,0.1,0.00051279,5124.4,0.00052157,5468.2,-0.00010292,776.03,-0.0002062,-0.0056679,0.050091
5420,2.9385,4.3636,0.1,0.00051653,5161.7,0.00052496,5481.9,-0.00010949,714.91,-0.00020464,-0.018053,0.049676
5421,2.9385,4.5455,0.1,0.00052083,5204.7,0.0005288,5497.8,-0.00011683,646.75,-0.00020291,-0.034412,0.049189
5422,2.9385,4.7273,0.1,0.00052567,5253.1,0.00053306,5515.8,-0.00012487,572.37,-0.00020105,-0.055577,0.048628
5423,2.9385,4.9091,0.1,0.00053103,5306.6,0.00053769,5535.7,-0.0001335,492.72,-0.00019908,-0.084243,0.047985
5424,2.9385,5.0909,0.1,0.00053685,5364.8,0.00054264,5557.5,-0.00014261,408.87,-0.00019704,-0.11933,0.047257
5425,2.9385,5.2727,0.1,0.00054309,5427.2,0.00054785,5580.9,-0.00015207,321.95,-0.00019495,-0.18428,0.046437
5426,2.9385,5.4545,0.1,0.00054968,5493,0.00055327,5605.7,-0.00016178,233.15,-0.00019284,-0.2268,0.045518
5427,2.9385,5.6364,0.1,0.00055657,5561.9,0.00055886,5631.7,-0.00017162,143.21,-0.00019077,-0.67005,0.044495
5428,2.9385,5.8182,0.1,0.00056416,5637.7,0.00056498,5662.2,-0.00018185,50.87,-0.0001888,-1.4101,0.043361
5429,3.1221,0.18182,0.1,0.00055744,5570.6,0.00055826,5595.1,-0.00017966,50.684,-0.00018656,-1.1609,0.049339
5430,3.1221,0.36364,0.1,0.00055046,5500.8,0.00055263,5567,-0.00017025,135.57,-0.00018837,-0.6057,0.050505
5431,3.1221,0.54545,0.1,0.00054404,5436.7,0.00054742,5542.4,-0.00016117,218.3,-0.00019026,-0.20357,0.05156
5432,3.1221,0.72727,0.1,0.00053789,5375.2,0.00054236,5518.7,-0.00015223,299.84,-0.00019216,-0.16701,0.05251
5433,3.1221,0.90909,0.1,0.00053204,5316.7,0.00053747,5496.2,-0.00014351,379.57,-0.00019405,-0.10835,0.053362
5434,3.1221,1.0909,0.1,0.00052654,5261.8,0.00053282,5475.1,-0.00013512,456.48,-0.00019588,-0.076698,0.054121
5435,3.1221,1.2727,0.1,0.00052146,5211,0.00052844,5455.5,-0.00012716,529.58,-0.00019765,-0.050555,0.054792
5436,3.1221,1.4545,0.1,0.00051683,5164.7,0.0005244,5437.7,-0.00011973,597.94,-0.00019932,-0.031017,0.055381
5437,3.1221,1.6364,0.1,0.00051269,5123.4,0.00052073,5421.7,-0.00011292,660.69,-0.00020086,-0.015666,0.055892
5438,3.1221,1.8182,0.1,0.00050907,5087.2,0.00051746,5407.7,-0.00010682,717.09,-0.00020226,-0.0038133,0.056329
5439,3.1221,2,0.1,0.00050597,5056.2,0.00051463,5395.7,-0.00010148,766.5,-0.00020349,0.0052685,0.056697
5440,3.1221,2.1818,0.1,0.00050339,5030.5,0.00051225,5385.7,-9.6957e-05,808.39,-0.00020455,0.012082,0.056998
5441,3.1221,2.3636,0.1,0.00050135,5010,0.00051033,5377.8,-9.3297e-05,842.35,-0.0002054,0.017043,0.057236
5442,3.1221,2.5455,0.1,0.00049982,4994.7,0.00050889,5371.9,-9.0528e-05,868.07,-0.00020606,0.020477,0.057412
5443,3.1221,2.7273,0.1,0.0004988,4984.6,0.00050793,5368,-8.8671e-05,885.34,-0.0002065,0.022631,0.057529
5444,3.1221,2.9091,0.1,0.0004983,4979.6,0.00050745,5366,-8.7739e-05,894,-0.00020672,0.023667,0.057587
5445,3.1221,3.0909,0.1,0.0004983,4979.6,0.00050745,5366,-8.7739e-05,894,-0.00020672,0.023667,0.057587
5446,3.1221,3.2727,0.1,0.0004988,4984.6,0.00050793,5368,-8.8671e-05,885.34,-0.0002065,0.022631,0.057529
5447,3.1221,3.4545,0.1,0.00049982,4994.7,0.00050889,5371.9,-9.0528e-05,868.07,-0.00020606,0.020477,0.057412
5448,3.1221,3.6364,0.1,0.00050135,5010,0.00051033,5377.8,-9.3297e-05,842.35,-0.0002054,0.017043,0.057236
5449,3.1221,3.8182,0.1,0.00050339,5030.5,0.00051225,5385.7,-9.6957e-05,808.39,-0.00020455,0.012082,0.056998
5450,3.1221,4,0.1,0.00050597,5056.2,0.00051463,5395.7,-0.00010148,766.5,-0.00020349,0.0052688,0.056697
5451,3.1221,4.1818,0.1,0.00050907,5087.2,0.00051746,5407.7,-0.00010682,717.09,-0.00020226,-0.0038128,0.056329
5452,3.1221,4.3636,0.1,0.00051269,5123.4,0.00052073,5421.7,-0.00011292,660.69,-0.00020086,-0.015665,0.055892
5453,3.1221,4.5455,0.1,0.00051683,5164.7,0.0005244,5437.7,-0.00011973,597.94,-0.00019932,-0.031016,0.055381
5454,3.1221,4.7273,0.1,0.00052146,5211,0.00052844,5455.5,-0.00012716,529.58,-0.00019765,-0.050554,0.054792
5455,3.1221,4.9091,0.1,0.00052654,5261.8,0.00053282,5475.1,-0.00013512,456.48,-0.00019588,-0.076698,0.054121
5456,3.1221,5.0909,0.1,0.00053204,5316.7,0.00053747,5496.2,-0.00014351,379.57,-0.00019405,-0.10835,0.053362
5457,3.1221,5.2727,0.1,0.00053789,5375.2,0.00054236,5518.7,-0.00015223,299.84,-0.00019216,-0.16701,0.05251
5458,3.1221,5.4545,0.1,0.00054404,5436.7,0.00054742,5542.4,-0.00016117,218.3,-0.00019026,-0.20357,0.05156
5459,3.1221,5.6364,0.1,0.00055046,5500.8,0.00055263,5567,-0.00017025,135.57,-0.00018838,-0.6057,0.050505
5460,3.1221,5.8182,0.1,0.00055744,5570.6,0.00055826,5595.1,-0.00017966,50.684,-0.00018656,-1.1609,0.049339
5461,3.3058,0.18182,0.1,0.00055071,5503.3,0.00055153,5527.7,-0.0001775,49.988,-0.00018429,-0.96622,0.055692
5462,3.3058,0.36364,0.1,0.00054428,5439,0.00054633,5501.7,-0.00016884,128.1,-0.00018597,-0.54856,0.056885
5463,3.3058,0.54545,0.1,0.00053831,5379.4,0.00054149,5478.5,-0.00016047,204.27,-0.00018768,-0.18299,0.057969
5464,3.3058,0.72727,0.1,0.00053257,5322,0.00053677,5456.1,-0.00015223,279.22,-0.00018941,-0.15146,0.058948
5465,3.3058,0.90909,0.1,0.00052709,5267.3,0.0005322,5434.6,-0.0001442,352.42,-0.00019111,-0.098365,0.059827
5466,3.3058,1.0909,0.1,0.00052193,5215.7,0.00052783,5414.3,-0.00013646,423,-0.00019277,-0.069773,0.060614
5467,3.3058,1.2727,0.1,0.00051713,5167.7,0.00052372,5395.3,-0.00012912,490.1,-0.00019436,-0.045937,0.061311
5468,3.3058,1.4545,0.1,0.00051274,5123.8,0.0005199,5377.8,-0.00012226,552.89,-0.00019585,-0.02795,0.061924
5469,3.3058,1.6364,0.1,0.00050879,5084.4,0.00051641,5362.1,-0.00011597,610.61,-0.00019724,-0.013632,0.062458
5470,3.3058,1.8182,0.1,0.00050531,5049.6,0.0005133,5348.1,-0.00011031,662.56,-0.00019849,-0.002403,0.062915
5471,3.3058,2,0.1,0.00050231,5019.6,0.00051059,5336.1,-0.00010535,708.14,-0.0001996,0.0063511,0.063301
5472,3.3058,2.1818,0.1,0.00049981,4994.6,0.00050831,5326,-0.00010114,746.85,-0.00020054,0.01304,0.063618
5473,3.3058,2.3636,0.1,0.00049781,4974.7,0.00050646,5317.9,-9.7732e-05,778.28,-0.00020131,0.017998,0.063868
5474,3.3058,2.5455,0.1,0.00049631,4959.7,0.00050506,5311.9,-9.5146e-05,802.12,-0.0002019,0.021486,0.064054
5475,3.3058,2.7273,0.1,0.00049531,4949.7,0.00050413,5307.8,-9.341e-05,818.13,-0.00020229,0.023703,0.064177
5476,3.3058,2.9091,0.1,0.00049481,4944.7,0.00050366,5305.8,-9.2538e-05,826.18,-0.00020249,0.024779,0.064238
5477,3.3058,3.0909,0.1,0.00049481,4944.7,0.00050366,5305.8,-9.2538e-05,826.18,-0.00020249,0.024779,0.064238
5478,3.3058,3.2727,0.1,0.00049531,4949.7,0.00050413,5307.8,-9.341e-05,818.13,-0.00020229,0.023703,0.064177
5479,3.3058,3.4545,0.1,0.00049631,4959.7,0.00050506,5311.9,-9.5146e-05,802.12,-0.0002019,0.021487,0.064054
5480,3.3058,3.6364,0.1,0.00049781,4974.7,0.00050646,5317.9,-9.7732e-05,778.28,-0.00020131,0.017998,0.063868
5481,3.3058,3.8182,0.1,0.00049981,4994.6,0.00050831,5326,-0.00010114,746.85,-0.00020054,0.01304,0.063618
5482,3.3058,4,0.1,0.00050231,5019.6,0.00051059,5336.1,-0.00010535,708.14,-0.0001996,0.0063515,0.063301
5483,3.3058,4.1818,0.1,0.00050531,5049.6,0.0005133,5348.1,-0.00011031,662.56,-0.00019849,-0.0024027,0.062915
5484,3.3058,4.3636,0.1,0.00050879,5084.4,0.00051641,5362.1,-0.00011597,610.61,-0.00019724,-0.013631,0.062458
5485,3.3058,4.5455,0.1,0.00051274,5123.8,0.0005199,5377.8,-0.00012226,552.89,-0.00019585,-0.027949,0.061924
5486,3.3058,4.7273,0.1,0.00051713,5167.7,0.00052372,5395.3,-0.00012912,490.1,-0.00019436,-0.045936,0.061311
5487,3.3058,4.9091,0.1,0.00052193,5215.7,0.00052783,5414.3,-0.00013646,423,-0.00019277,-0.069772,0.060614
5488,3.3058,5.0909,0.1,0.00052709,5267.3,0.0005322,5434.6,-0.0001442,352.42,-0.00019111,-0.098364,0.059827
5489,3.3058,5.2727,0.1,0.00053257,5322,0.00053677,5456.1,-0.00015223,279.22,-0.00018941,-0.15146,0.058948
5490,3.3058,5.4545,0.1,0.00053831,5379.4,0.00054149,5478.5,-0.00016047,204.27,-0.00018768,-0.18299,0.057969
5491,3.3058,5.6364,0.1,0.00054428,5439,0.00054633,5501.7,-0.00016884,128.1,-0.00018597,-0.54856,0.056885
5492,3.3058,5.8182,0.1,0.00055071,5503.3,0.00055153,5527.7,-0.0001775,49.988,-0.00018429,-0.96622,0.055692
5493,3.4894,0.18182,0.1,0.00054401,5436.3,0.00054481,5460.2,-0.00017539,48.871,-0.000182,-0.81187,0.062415
5494,3.4894,0.36364,0.1,0.00053807,5377,0.00054002,5436.1,-0.00016741,120.79,-0.00018355,-0.4976,0.063633
5495,3.4894,0.54545,0.1,0.00053252,5321.6,0.00053551,5414.4,-0.00015968,190.97,-0.00018512,-0.1647,0.064741
5496,3.4894,0.72727,0.1,0.00052717,5268.1,0.00053111,5393.2,-0.00015208,259.93,-0.0001867,-0.13744,0.065746
5497,3.4894,0.90909,0.1,0.00052205,5216.9,0.00052685,5372.8,-0.00014468,327.19,-0.00018824,-0.089305,0.06665
5498,3.4894,1.0909,0.1,0.00051722,5168.6,0.00052277,5353.4,-0.00013756,391.99,-0.00018973,-0.063441,0.067461
5499,3.4894,1.2727,0.1,0.0005127,5123.5,0.00051891,5335.2,-0.00013079,453.59,-0.00019117,-0.04171,0.068182
5500,3.4894,1.4545,0.1,0.00050855,5082,0.00051532,5318.3,-0.00012446,511.26,-0.00019251,-0.025186,0.068817
5501,3.4894,1.6364,0.1,0.00050481,5044.6,0.00051203,5303,-0.00011865,564.29,-0.00019376,-0.011893,0.069371
5502,3.4894,1.8182,0.1,0.00050149,5011.5,0.00050909,5289.4,-0.00011342,612.07,-0.00019488,-0.0013386,0.069847
5503,3.4894,2,0.1,0.00049862,4982.8,0.00050652,5277.5,-0.00010883,654.04,-0.00019588,0.007003,0.070249
5504,3.4894,2.1818,0.1,0.00049622,4958.8,0.00050434,5267.6,-0.00010493,689.73,-0.00019672,0.013468,0.07058
5505,3.4894,2.3636,0.1,0.00049429,4939.5,0.00050258,5259.5,-0.00010176,718.73,-0.00019742,0.018328,0.070841
5506,3.4894,2.5455,0.1,0.00049284,4925,0.00050124,5253.4,-9.9358e-05,740.75,-0.00019794,0.021789,0.071035
5507,3.4894,2.7273,0.1,0.00049187,4915.3,0.00050035,5249.4,-9.7742e-05,755.56,-0.0001983,0.02401,0.071164
5508,3.4894,2.9091,0.1,0.00049139,4910.5,0.0004999,5247.4,-9.6931e-05,763,-0.00019848,0.025095,0.071228
5509,3.4894,3.0909,0.1,0.00049139,4910.5,0.0004999,5247.4,-9.6931e-05,763,-0.00019848,0.025094,0.071228
5510,3.4894,3.2727,0.1,0.00049187,4915.3,0.00050035,5249.4,-9.7742e-05,755.56,-0.0001983,0.02401,0.071164
5511,3.4894,3.4545,0.1,0.00049284,4925,0.00050124,5253.4,-9.9358e-05,740.75,-0.00019794,0.021789,0.071035
5512,3.4894,3.6364,0.1,0.00049429,4939.5,0.00050258,5259.5,-0.00010176,718.73,-0.00019742,0.018328,0.070841
5513,3.4894,3.8182,0.1,0.00049622,4958.8,0.00050434,5267.6,-0.00010493,689.73,-0.00019672,0.013469,0.07058
5514,3.4894,4,0.1,0.00049862,4982.8,0.00050652,5277.5,-0.00010883,654.04,-0.00019588,0.0070034,0.070249
5515,3.4894,4.1818,0.1,0.00050149,5011.5,0.00050909,5289.4,-0.00011342,612.07,-0.00019488,-0.0013383,0.069847
5516,3.4894,4.3636,0.1,0.00050481,5044.6,0.00051203,5303,-0.00011865,564.29,-0.00019376,-0.011892,0.069371
5517,3.4894,4.5455,0.1,0.00050855,5082,0.00051532,5318.3,-0.00012446,511.26,-0.00019251,-0.025185,0.068817
5518,3.4894,4.7273,0.1,0.0005127,5123.5,0.00051891,5335.2,-0.00013079,453.59,-0.00019117,-0.04171,0.068182
5519,3.4894,4.9091,0.1,0.00051722,5168.6,0.00052277,5353.4,-0.00013756,391.99,-0.00018973,-0.06344,0.067461
5520,3.4894,5.0909,0.1,0.00052206,5216.9,0.00052685,5372.8,-0.00014468,327.19,-0.00018824,-0.089304,0.06665
5521,3.4894,5.2727,0.1,0.00052717,5268.1,0.00053111,5393.2,-0.00015208,259.93,-0.0001867,-0.13744,0.065746
5522,3.4894,5.4545,0.1,0.00053252,5321.6,0.00053551,5414.4,-0.00015968,190.97,-0.00018512,-0.1647,0.064741
5523,3.4894,5.6364,0.1,0.00053807,5377,0.00054002,5436.1,-0.00016741,120.79,-0.00018355,-0.4976,0.063633
5524,3.4894,5.8182,0.1,0.00054401,5436.3,0.00054481,5460.2,-0.00017539,48.871,-0.000182,-0.81187,0.062415
5525,3.6731,0.18182,0.1,0.00053734,5369.6,0.00053811,5392.8,-0.00017332,47.41,-0.00017972,-0.68789,0.069504
5526,3.6731,0.36364,0.1,0.00053186,5315,0.0005337,5370.6,-0.00016596,113.67,-0.00018115,-0.45198,0.070743
5527,3.6731,0.54545,0.1,0.0005267,5263.4,0.00052951,5350.3,-0.00015883,178.37,-0.00018259,-0.14842,0.071874
5528,3.6731,0.72727,0.1,0.00052173,5213.7,0.00052542,5330.3,-0.00015182,241.84,-0.00018402,-0.12478,0.0729
5529,3.6731,0.90909,0.1,0.00051695,5165.9,0.00052144,5311,-0.00014499,303.68,-0.00018542,-0.081091,0.073828
5530,3.6731,1.0909,0.1,0.00051243,5120.7,0.00051764,5292.6,-0.00013843,363.21,-0.00018678,-0.057668,0.07466
5531,3.6731,1.2727,0.1,0.00050819,5078.4,0.00051403,5275.3,-0.0001322,419.77,-0.00018807,-0.037856,0.075401
5532,3.6731,1.4545,0.1,0.0005043,5039.5,0.00051067,5259.2,-0.00012637,472.71,-0.00018928,-0.022699,0.076056
5533,3.6731,1.6364,0.1,0.00050076,5004.2,0.00050759,5244.4,-0.00012101,521.42,-0.00019041,-0.010404,0.076629
5534,3.6731,1.8182,0.1,0.00049762,4972.8,0.00050482,5231.3,-0.00011618,565.32,-0.00019142,-0.00054485,0.077122
5535,3.6731,2,0.1,0.0004949,4945.6,0.0005024,5219.8,-0.00011194,603.91,-0.00019231,0.007332,0.077538
5536,3.6731,2.1818,0.1,0.00049261,4922.7,0.00050034,5210.1,-0.00010833,636.75,-0.00019308,0.013506,0.077881
5537,3.6731,2.3636,0.1,0.00049076,4904.2,0.00049867,5202.2,-0.0001054,663.46,-0.0001937,0.018196,0.078153
5538,3.6731,2.5455,0.1,0.00048937,4890.4,0.0004974,5196.3,-0.00010317,683.74,-0.00019417,0.021568,0.078355
5539,3.6731,2.7273,0.1,0.00048844,4881.1,0.00049655,5192.3,-0.00010168,697.39,-0.00019449,0.023749,0.078489
5540,3.6731,2.9091,0.1,0.00048798,4876.4,0.00049613,5190.3,-0.00010092,704.25,-0.00019465,0.024819,0.078556
5541,3.6731,3.0909,0.1,0.00048798,4876.4,0.00049613,5190.3,-0.00010092,704.25,-0.00019465,0.024819,0.078556
5542,3.6731,3.2727,0.1,0.00048844,4881.1,0.00049655,5192.3,-0.00010168,697.39,-0.00019449,0.023749,0.078489
5543,3.6731,3.4545,0.1,0.00048937,4890.4,0.0004974,5196.3,-0.00010317,683.74,-0.00019417,0.021568,0.078355
5544,3.6731,3.6364,0.1,0.00049076,4904.2,0.00049867,5202.2,-0.0001054,663.46,-0.0001937,0.018196,0.078153
5545,3.6731,3.8182,0.1,0.00049261,4922.7,0.00050034,5210.1,-0.00010833,636.75,-0.00019308,0.013506,0.077881
5546,3.6731,4,0.1,0.0004949,4945.6,0.0005024,5219.8,-0.00011194,603.91,-0.00019231,0.0073325,0.077538
5547,3.6731,4.1818,0.1,0.00049762,4972.8,0.00050482,5231.3,-0.00011618,565.32,-0.00019142,-0.00054436,0.077122
5548,3.6731,4.3636,0.1,0.00050076,5004.2,0.00050759,5244.4,-0.00012101,521.42,-0.00019041,-0.010403,0.076629
5549,3.6731,4.5455,0.1,0.0005043,5039.5,0.00051067,5259.2,-0.00012637,472.71,-0.00018928,-0.022698,0.076056
5550,3.6731,4.7273,0.1,0.00050819,5078.4,0.00051403,5275.3,-0.0001322,419.77,-0.00018807,-0.037855,0.075401
5551,3.6731,4.9091,0.1,0.00051243,5120.7,0.00051764,5292.6,-0.00013843,363.21,-0.00018678,-0.057667,0.07466
5552,3.6731,5.0909,0.1,0.00051695,5165.9,0.00052144,5311,-0.00014499,303.68,-0.00018542,-0.081089,0.073828
5553,3.6731,5.2727,0.1,0.00052173,5213.7,0.00052542,5330.3,-0.00015182,241.84,-0.00018402,-0.12478,0.0729
5554,3.6731,5.4545,0.1,0.0005267,5263.4,0.00052951,5350.3,-0.00015883,178.37,-0.00018259,-0.14842,0.071874
5555,3.6731,5.6364,0.1,0.00053186,5315,0.0005337,5370.6,-0.00016596,113.67,-0.00018115,-0.45198,0.070743
5556,3.6731,5.8182,0.1,0.00053734,5369.6,0.00053811,5392.8,-0.00017332,47.41,-0.00017972,-0.68788,0.069504
5557,3.8567,0.18182,0.1,0.00053072,5303.5,0.00053147,5325.9,-0.00017129,45.676,-0.00017744,-0.58721,0.076955
5558,3.8567,0.36364,0.1,0.00052567,5253.1,0.00052739,5305.4,-0.0001645,106.74,-0.00017877,-0.41102,0.078213
5559,3.8567,0.54545,0.1,0.00052088,5205.2,0.00052351,5286.3,-0.00015791,166.42,-0.00018008,-0.13389,0.079363
5560,3.8567,0.72727,0.1,0.00051624,5158.9,0.0005197,5267.6,-0.00015144,224.87,-0.00018139,-0.11336,0.080409
5561,3.8567,0.90909,0.1,0.0005118,5114.4,0.000516,5249.4,-0.00014515,281.75,-0.00018266,-0.07365,0.081355
5562,3.8567,1.0909,0.1,0.00050757,5072.2,0.00051246,5232.1,-0.00013911,336.45,-0.00018389,-0.052419,0.082207
5563,3.8567,1.2727,0.1,0.00050362,5032.7,0.0005091,5215.6,-0.00013337,388.39,-0.00018506,-0.034356,0.082967
5564,3.8567,1.4545,0.1,0.00049996,4996.2,0.00050596,5200.3,-0.000128,436.99,-0.00018616,-0.020471,0.08364
5565,3.8567,1.6364,0.1,0.00049665,4963,0.00050308,5186.3,-0.00012306,481.71,-0.00018717,-0.0091309,0.084228
5566,3.8567,1.8182,0.1,0.00049369,4933.5,0.00050049,5173.7,-0.00011861,522.02,-0.00018809,3.2854e-05,0.084736
5567,3.8567,2,0.1,0.00049112,4907.8,0.00049822,5162.7,-0.0001147,557.46,-0.00018889,0.0074171,0.085166
5568,3.8567,2.1818,0.1,0.00048895,4886.1,0.00049628,5153.3,-0.00011137,587.63,-0.00018958,0.013256,0.08552
5569,3.8567,2.3636,0.1,0.0004872,4868.6,0.00049471,5145.8,-0.00010867,612.19,-0.00019014,0.017729,0.085801
5570,3.8567,2.5455,0.1,0.00048588,4855.4,0.00049352,5140,-0.00010661,630.85,-0.00019057,0.020969,0.08601
5571,3.8567,2.7273,0.1,0.00048499,4846.6,0.00049272,5136.2,-0.00010523,643.41,-0.00019085,0.023076,0.086149
5572,3.8567,2.9091,0.1,0.00048455,4842.1,0.00049232,5134.2,-0.00010453,649.72,-0.000191,0.024114,0.086218
5573,3.8567,3.0909,0.1,0.00048455,4842.1,0.00049232,5134.2,-0.00010453,649.72,-0.000191,0.024114,0.086218
5574,3.8567,3.2727,0.1,0.00048499,4846.6,0.00049272,5136.2,-0.00010523,643.41,-0.00019085,0.023076,0.086149
5575,3.8567,3.4545,0.1,0.00048588,4855.4,0.00049352,5140,-0.00010661,630.85,-0.00019057,0.020969,0.08601
5576,3.8567,3.6364,0.1,0.0004872,4868.6,0.00049471,5145.8,-0.00010867,612.19,-0.00019014,0.017729,0.085801
5577,3.8567,3.8182,0.1,0.00048895,4886.1,0.00049628,5153.3,-0.00011137,587.63,-0.00018958,0.013256,0.08552
5578,3.8567,4,0.1,0.00049112,4907.8,0.00049822,5162.7,-0.0001147,557.46,-0.00018889,0.0074175,0.085166
5579,3.8567,4.1818,0.1,0.00049369,4933.5,0.00050049,5173.7,-0.00011861,522.02,-0.00018809,3.3312e-05,0.084736
5580,3.8567,4.3636,0.1,0.00049665,4963,0.00050308,5186.3,-0.00012306,481.71,-0.00018717,-0.0091306,0.084228
5581,3.8567,4.5455,0.1,0.00049996,4996.2,0.00050596,5200.3,-0.000128,436.99,-0.00018616,-0.02047,0.08364
5582,3.8567,4.7273,0.1,0.00050362,5032.7,0.0005091,5215.6,-0.00013337,388.39,-0.00018506,-0.034355,0.082967
5583,3.8567,4.9091,0.1,0.00050757,5072.2,0.00051246,5232.1,-0.00013911,336.45,-0.00018389,-0.052418,0.082207
5584,3.8567,5.0909,0.1,0.0005118,5114.4,0.00051601,5249.4,-0.00014515,281.75,-0.00018266,-0.073649,0.081355
5585,3.8567,5.2727,0.1,0.00051624,5158.9,0.0005197,5267.6,-0.00015144,224.87,-0.00018139,-0.11336,0.080409
5586,3.8567,5.4545,0.1,0.00052088,5205.2,0.00052351,5286.3,-0.00015791,166.42,-0.00018008,-0.13389,0.079363
5587,3.8567,5.6364,0.1,0.00052567,5253.1,0.00052739,5305.4,-0.0001645,106.74,-0.00017877,-0.41102,0.078213
5588,3.8567,5.8182,0.1,0.00053072,5303.5,0.00053147,5325.9,-0.00017129,45.676,-0.00017744,-0.58721,0.076955
5589,4.0404,0.18182,0.1,0.00052416,5238,0.00052488,5259.5,-0.00016929,43.729,-0.00017518,-0.50471,0.084765
5590,4.0404,0.36364,0.1,0.0005195,5191.4,0.00052112,5240.5,-0.00016303,100.03,-0.0001764,-0.37413,0.086038
5591,4.0404,0.54545,0.1,0.00051505,5146.9,0.00051751,5222.7,-0.00015694,155.08,-0.0001776,-0.1209,0.087204
5592,4.0404,0.72727,0.1,0.00051074,5103.9,0.00051398,5205.1,-0.00015098,208.94,-0.0001788,-0.10304,0.088267
5593,4.0404,0.90909,0.1,0.00050661,5062.6,0.00051054,5188.1,-0.00014518,261.26,-0.00017996,-0.066918,0.089231
5594,4.0404,1.0909,0.1,0.00050267,5023.3,0.00050725,5171.8,-0.00013961,311.54,-0.00018108,-0.047659,0.090099
5595,4.0404,1.2727,0.1,0.00049898,4986.4,0.00050412,5156.3,-0.00013432,359.25,-0.00018214,-0.031191,0.090875
5596,4.0404,1.4545,0.1,0.00049557,4952.3,0.0005012,5141.8,-0.00012938,403.87,-0.00018314,-0.018484,0.091564
5597,4.0404,1.6364,0.1,0.00049246,4921.2,0.00049852,5128.6,-0.00012484,444.91,-0.00018405,-0.00805,0.092167
5598,4.0404,1.8182,0.1,0.00048969,4893.5,0.0004961,5116.6,-0.00012074,481.9,-0.00018488,0.00043369,0.092688
5599,4.0404,2,0.1,0.00048727,4869.3,0.00049398,5106.1,-0.00011714,514.44,-0.00018561,0.0073163,0.09313
5600,4.0404,2.1818,0.1,0.00048523,4848.9,0.00049217,5097.2,-0.00011407,542.13,-0.00018623,0.012796,0.093494
5601,4.0404,2.3636,0.1,0.00048358,4832.4,0.0004907,5090,-0.00011158,564.68,-0.00018673,0.017022,0.093783
5602,4.0404,2.5455,0.1,0.00048233,4820,0.00048959,5084.5,-0.00010968,581.82,-0.00018711,0.0201,0.093998
5603,4.0404,2.7273,0.1,0.00048149,4811.6,0.00048883,5080.8,-0.00010841,593.35,-0.00018737,0.022111,0.094141
5604,4.0404,2.9091,0.1,0.00048107,4807.4,0.00048846,5078.9,-0.00010776,599.15,-0.0001875,0.023105,0.094213
5605,4.0404,3.0909,0.1,0.00048107,4807.4,0.00048846,5078.9,-0.00010776,599.15,-0.0001875,0.023105,0.094213
5606,4.0404,3.2727,0.1,0.00048149,4811.6,0.00048883,5080.8,-0.00010841,593.35,-0.00018737,0.022111,0.094141
5607,4.0404,3.4545,0.1,0.00048233,4820,0.00048959,5084.5,-0.00010968,581.82,-0.00018711,0.0201,0.093998
5608,4.0404,3.6364,0.1,0.00048358,4832.4,0.0004907,5090,-0.00011158,564.68,-0.00018673,0.017022,0.093783
5609,4.0404,3.8182,0.1,0.00048523,4848.9,0.00049217,5097.2,-0.00011407,542.13,-0.00018623,0.012796,0.093494
5610,4.0404,4,0.1,0.00048727,4869.3,0.00049398,5106.1,-0.00011714,514.44,-0.00018561,0.0073167,0.09313
5611,4.0404,4.1818,0.1,0.00048969,4893.5,0.0004961,5116.6,-0.00012074,481.9,-0.00018488,0.00043431,0.092688
5612,4.0404,4.3636,0.1,0.00049246,4921.2,0.00049852,5128.6,-0.00012484,444.91,-0.00018405,-0.0080495,0.092167
5613,4.0404,4.5455,0.1,0.00049557,4952.3,0.0005012,5141.8,-0.00012938,403.87,-0.00018314,-0.018483,0.091564
5614,4.0404,4.7273,0.1,0.00049898,4986.4,0.00050412,5156.3,-0.00013432,359.25,-0.00018214,-0.03119,0.090875
5615,4.0404,4.9091,0.1,0.00050267,5023.3,0.00050725,5171.8,-0.00013961,311.54,-0.00018108,-0.047658,0.090099
5616,4.0404,5.0909,0.1,0.00050661,5062.6,0.00051054,5188.1,-0.00014518,261.26,-0.00017996,-0.066917,0.089231
5617,4.0404,5.2727,0.1,0.00051074,5103.9,0.00051398,5205.1,-0.00015098,208.94,-0.0001788,-0.10304,0.088267
5618,4.0404,5.4545,0.1,0.00051505,5146.9,0.00051751,5222.7,-0.00015694,155.08,-0.0001776,-0.1209,0.087204
5619,4.0404,5.6364,0.1,0.0005195,5191.4,0.00052112,5240.5,-0.00016303,100.03,-0.0001764,-0.37413,0.086038
5620,4.0404,5.8182,0.1,0.00052416,5238,0.00052488,5259.5,-0.00016929,43.729,-0.00017518,-0.50471,0.084765
5621,4.224,0.18182,0.1,0.00051767,5173.2,0.00051836,5193.6,-0.00016733,41.623,-0.00017293,-0.43658,0.092927
5622,4.224,0.36364,0.1,0.00051337,5130.1,0.00051489,5176.1,-0.00016156,93.548,-0.00017405,-0.34083,0.094214
5623,4.224,0.54545,0.1,0.00050924,5088.9,0.00051154,5159.4,-0.00015593,144.34,-0.00017516,-0.10927,0.095394
5624,4.224,0.72727,0.1,0.00050524,5048.9,0.00050826,5143,-0.00015042,193.97,-0.00017625,-0.093708,0.096471
5625,4.224,0.90909,0.1,0.00050139,5010.5,0.00050507,5127.1,-0.00014508,242.13,-0.00017731,-0.060834,0.09745
5626,4.224,1.0909,0.1,0.00049773,4973.9,0.00050201,5111.8,-0.00013995,288.35,-0.00017833,-0.043355,0.098333
5627,4.224,1.2727,0.1,0.0004943,4939.6,0.00049911,5097.2,-0.00013508,332.17,-0.0001793,-0.028341,0.099123
5628,4.224,1.4545,0.1,0.00049111,4907.7,0.00049639,5083.7,-0.00013054,373.14,-0.0001802,-0.016722,0.099825
5629,4.224,1.6364,0.1,0.00048821,4878.7,0.0004939,5071.2,-0.00012636,410.8,-0.00018103,-0.007141,0.10044
5630,4.224,1.8182,0.1,0.00048562,4852.8,0.00049165,5059.9,-0.00012259,444.74,-0.00018178,0.00068796,0.10097
5631,4.224,2,0.1,0.00048335,4830.2,0.00048967,5050,-0.00011927,474.59,-0.00018244,0.007073,0.10143
5632,4.224,2.1818,0.1,0.00048144,4811.1,0.00048799,5041.6,-0.00011645,500,-0.000183,0.012184,0.1018
5633,4.224,2.3636,0.1,0.00047989,4795.6,0.00048662,5034.7,-0.00011416,520.68,-0.00018345,0.016146,0.1021
5634,4.224,2.5455,0.1,0.00047872,4783.9,0.00048558,5029.5,-0.00011241,536.41,-0.0001838,0.019045,0.10232
5635,4.224,2.7273,0.1,0.00047793,4776,0.00048488,5026,-0.00011124,546.99,-0.00018403,0.020946,0.10246
5636,4.224,2.9091,0.1,0.00047754,4772.1,0.00048453,5024.2,-0.00011064,552.31,-0.00018415,0.021887,0.10254
5637,4.224,3.0909,0.1,0.00047754,4772.1,0.00048453,5024.2,-0.00011064,552.31,-0.00018415,0.021887,0.10254
5638,4.224,3.2727,0.1,0.00047793,4776,0.00048488,5026,-0.00011124,546.99,-0.00018403,0.020946,0.10246
5639,4.224,3.4545,0.1,0.00047872,4783.9,0.00048558,5029.5,-0.00011241,536.41,-0.0001838,0.019046,0.10232
5640,4.224,3.6364,0.1,0.00047989,4795.6,0.00048662,5034.7,-0.00011416,520.68,-0.00018345,0.016147,0.1021
5641,4.224,3.8182,0.1,0.00048144,4811.1,0.00048799,5041.6,-0.00011645,500,-0.000183,0.012185,0.1018
5642,4.224,4,0.1,0.00048335,4830.2,0.00048967,5050,-0.00011927,474.59,-0.00018244,0.0070735,0.10143
5643,4.224,4.1818,0.1,0.00048562,4852.8,0.00049165,5059.9,-0.00012259,444.74,-0.00018178,0.0006884,0.10097
5644,4.224,4.3636,0.1,0.00048821,4878.7,0.0004939,5071.2,-0.00012636,410.8,-0.00018103,-0.0071404,0.10044
5645,4.224,4.5455,0.1,0.00049111,4907.7,0.00049639,5083.7,-0.00013054,373.14,-0.0001802,-0.016722,0.099825
5646,4.224,4.7273,0.1,0.0004943,4939.6,0.00049911,5097.2,-0.00013508,332.17,-0.0001793,-0.02834,0.099123
5647,4.224,4.9091,0.1,0.00049773,4973.9,0.00050201,5111.8,-0.00013995,288.35,-0.00017833,-0.043354,0.098333
5648,4.224,5.0909,0.1,0.00050139,5010.5,0.00050507,5127.1,-0.00014508,242.13,-0.00017731,-0.060833,0.09745
5649,4.224,5.2727,0.1,0.00050524,5048.9,0.00050826,5143,-0.00015042,193.97,-0.00017625,-0.093707,0.096471
5650,4.224,5.4545,0.1,0.00050924,5088.9,0.00051154,5159.4,-0.00015593,144.34,-0.00017516,-0.10927,0.095394
5651,4.224,5.6364,0.1,0.00051337,5130.1,0.00051489,5176.1,-0.00016156,93.548,-0.00017405,-0.34083,0.094214
5652,4.224,5.8182,0.1,0.00051767,5173.2,0.00051836,5193.6,-0.00016733,41.623,-0.00017293,-0.43658,0.092927
5653,4.4077,0.18182,0.1,0.00051125,5109,0.0005119,5128.4,-0.0001654,39.404,-0.00017069,-0.37992,0.10144
5654,4.4077,0.36364,0.1,0.00050727,5069.2,0.0005087,5112.1,-0.00016007,87.305,-0.00017173,-0.3107,0.10274
5655,4.4077,0.54545,0.1,0.00050344,5030.9,0.00050559,5096.6,-0.00015487,134.18,-0.00017275,-0.098834,0.10393
5656,4.4077,0.72727,0.1,0.00049973,4993.8,0.00050254,5081.3,-0.00014979,179.91,-0.00017375,-0.08526,0.10502
5657,4.4077,0.90909,0.1,0.00049616,4958.2,0.00049959,5066.4,-0.00014487,224.24,-0.00017472,-0.055325,0.10601
5658,4.4077,1.0909,0.1,0.00049276,4924.2,0.00049675,5052.1,-0.00014014,266.74,-0.00017565,-0.039456,0.1069
5659,4.4077,1.2727,0.1,0.00048956,4892.3,0.00049406,5038.5,-0.00013566,307.01,-0.00017653,-0.025771,0.10771
5660,4.4077,1.4545,0.1,0.0004866,4862.7,0.00049155,5025.8,-0.00013148,344.62,-0.00017735,-0.015155,0.10842
5661,4.4077,1.6364,0.1,0.0004839,4835.6,0.00048923,5014.1,-0.00012763,379.18,-0.0001781,-0.006371,0.10905
5662,4.4077,1.8182,0.1,0.00048148,4811.5,0.00048714,5003.5,-0.00012417,410.32,-0.00017878,0.00083417,0.10959
5663,4.4077,2,0.1,0.00047937,4790.3,0.00048531,4994.2,-0.00012112,437.69,-0.00017937,0.0067353,0.11005
5664,4.4077,2.1818,0.1,0.00047758,4772.5,0.00048375,4986.2,-0.00011853,460.99,-0.00017988,0.01148,0.11043
5665,4.4077,2.3636,0.1,0.00047613,4758,0.00048247,4979.8,-0.00011642,479.96,-0.00018029,0.015172,0.11074
5666,4.4077,2.5455,0.1,0.00047503,4747,0.0004815,4974.9,-0.00011481,494.38,-0.00018061,0.017883,0.11096
5667,4.4077,2.7273,0.1,0.00047429,4739.7,0.00048085,4971.6,-0.00011373,504.08,-0.00018082,0.019665,0.11111
5668,4.4077,2.9091,0.1,0.00047392,4736,0.00048053,4969.9,-0.00011319,508.96,-0.00018093,0.020549,0.11119
5669,4.4077,3.0909,0.1,0.00047392,4736,0.00048053,4969.9,-0.00011319,508.96,-0.00018093,0.020549,0.11119
5670,4.4077,3.2727,0.1,0.00047429,4739.7,0.00048085,4971.6,-0.00011373,504.08,-0.00018082,0.019665,0.11111
5671,4.4077,3.4545,0.1,0.00047503,4747,0.0004815,4974.9,-0.00011481,494.38,-0.00018061,0.017883,0.11096
5672,4.4077,3.6364,0.1,0.00047613,4758,0.00048247,4979.8,-0.00011642,479.96,-0.00018029,0.015172,0.11074
5673,4.4077,3.8182,0.1,0.00047758,4772.5,0.00048375,4986.2,-0.00011853,460.99,-0.00017988,0.01148,0.11043
5674,4.4077,4,0.1,0.00047937,4790.3,0.00048531,4994.2,-0.00012112,437.69,-0.00017937,0.0067356,0.11005
5675,4.4077,4.1818,0.1,0.00048148,4811.5,0.00048714,5003.5,-0.00012417,410.32,-0.00017878,0.00083462,0.10959
5676,4.4077,4.3636,0.1,0.0004839,4835.6,0.00048923,5014.1,-0.00012763,379.18,-0.0001781,-0.0063704,0.10905
5677,4.4077,4.5455,0.1,0.0004866,4862.7,0.00049155,5025.8,-0.00013148,344.62,-0.00017735,-0.015155,0.10842
5678,4.4077,4.7273,0.1,0.00048956,4892.3,0.00049406,5038.5,-0.00013566,307.01,-0.00017653,-0.02577,0.10771
5679,4.4077,4.9091,0.1,0.00049276,4924.2,0.00049675,5052.1,-0.00014014,266.74,-0.00017565,-0.039455,0.1069
5680,4.4077,5.0909,0.1,0.00049616,4958.2,0.00049959,5066.4,-0.00014487,224.24,-0.00017472,-0.055324,0.10601
5681,4.4077,5.2727,0.1,0.00049973,4993.8,0.00050254,5081.3,-0.00014979,179.91,-0.00017375,-0.085259,0.10502
5682,4.4077,5.4545,0.1,0.00050344,5030.9,0.00050559,5096.6,-0.00015487,134.18,-0.00017275,-0.098834,0.10393
5683,4.4077,5.6364,0.1,0.00050727,5069.2,0.0005087,5112.1,-0.00016007,87.305,-0.00017173,-0.3107,0.10274
5684,4.4077,5.8182,0.1,0.00051125,5109,0.00051191,5128.4,-0.0001654,39.404,-0.00017069,-0.37992,0.10144
5685,4.5913,0.18182,0.1,0.0005049,5045.5,0.00050552,5063.8,-0.0001635,37.113,-0.00016848,-0.33255,0.1103
5686,4.5913,0.36364,0.1,0.00050122,5008.8,0.00050255,5048.8,-0.00015858,81.311,-0.00016944,-0.28338,0.1116
5687,4.5913,0.54545,0.1,0.00049767,4973.2,0.00049967,5034.3,-0.00015378,124.56,-0.00017037,-0.089456,0.1128
5688,4.5913,0.72727,0.1,0.00049422,4938.8,0.00049685,5020,-0.00014909,166.71,-0.00017129,-0.077606,0.1139
5689,4.5913,0.90909,0.1,0.00049091,4905.7,0.00049411,5006.2,-0.00014455,207.53,-0.00017218,-0.050341,0.1149
5690,4.5913,1.0909,0.1,0.00048776,4874.2,0.00049148,4992.8,-0.0001402,246.62,-0.00017302,-0.035931,0.11581
5691,4.5913,1.2727,0.1,0.00048479,4844.5,0.00048899,4980.1,-0.00013607,283.62,-0.00017383,-0.023459,0.11662
5692,4.5913,1.4545,0.1,0.00048204,4817,0.00048666,4968.2,-0.00013223,318.15,-0.00017457,-0.013768,0.11735
5693,4.5913,1.6364,0.1,0.00047952,4791.9,0.00048451,4957.3,-0.00012869,349.87,-0.00017526,-0.0057253,0.11799
5694,4.5913,1.8182,0.1,0.00047727,4769.4,0.00048258,4947.4,-0.00012551,378.43,-0.00017587,0.00089118,0.11854
5695,4.5913,2,0.1,0.0004753,4749.8,0.00048088,4938.6,-0.00012271,403.53,-0.00017641,0.0063281,0.11901
5696,4.5913,2.1818,0.1,0.00047364,4733.1,0.00047943,4931.2,-0.00012032,424.89,-0.00017687,0.010714,0.11939
5697,4.5913,2.3636,0.1,0.00047228,4719.6,0.00047825,4925.2,-0.00011838,442.28,-0.00017725,0.014138,0.1197
5698,4.5913,2.5455,0.1,0.00047126,4709.4,0.00047735,4920.6,-0.00011691,455.49,-0.00017753,0.016658,0.11993
5699,4.5913,2.7273,0.1,0.00047057,4702.5,0.00047675,4917.5,-0.00011592,464.39,-0.00017772,0.018319,0.12009
5700,4.5913,2.9091,0.1,0.00047023,4699,0.00047645,4915.9,-0.00011542,468.86,-0.00017782,0.019144,0.12016
5701,4.5913,3.0909,0.1,0.00047023,4699,0.00047645,4915.9,-0.00011542,468.86,-0.00017782,0.019144,0.12016
5702,4.5913,3.2727,0.1,0.00047057,4702.5,0.00047675,4917.5,-0.00011592,464.39,-0.00017772,0.018319,0.12009
5703,4.5913,3.4545,0.1,0.00047126,4709.4,0.00047735,4920.6,-0.00011691,455.49,-0.00017753,0.016658,0.11993
5704,4.5913,3.6364,0.1,0.00047228,4719.6,0.00047825,4925.2,-0.00011838,442.28,-0.00017725,0.014138,0.1197
5705,4.5913,3.8182,0.1,0.00047364,4733.1,0.00047943,4931.2,-0.00012032,424.89,-0.00017687,0.010714,0.11939
5706,4.5913,4,0.1,0.0004753,4749.8,0.00048088,4938.6,-0.00012271,403.53,-0.00017641,0.0063285,0.11901
5707,4.5913,4.1818,0.1,0.00047727,4769.4,0.00048258,4947.4,-0.00012551,378.43,-0.00017587,0.00089175,0.11854
5708,4.5913,4.3636,0.1,0.00047952,4791.9,0.00048451,4957.3,-0.00012869,349.87,-0.00017526,-0.0057248,0.11799
5709,4.5913,4.5455,0.1,0.00048204,4817,0.00048666,4968.2,-0.00013223,318.15,-0.00017457,-0.013767,0.11735
5710,4.5913,4.7273,0.1,0.00048479,4844.5,0.00048899,4980.1,-0.00013607,283.62,-0.00017383,-0.023458,0.11662
5711,4.5913,4.9091,0.1,0.00048776,4874.2,0.00049148,4992.8,-0.0001402,246.62,-0.00017302,-0.03593,0.11581
5712,4.5913,5.0909,0.1,0.00049091,4905.7,0.00049411,5006.2,-0.00014455,207.53,-0.00017218,-0.050339,0.1149
5713,4.5913,5.2727,0.1,0.00049422,4938.8,0.00049685,5020,-0.00014909,166.71,-0.00017129,-0.077605,0.1139
5714,4.5913,5.4545,0.1,0.00049767,4973.2,0.00049967,5034.3,-0.00015378,124.56,-0.00017037,-0.089456,0.1128
5715,4.5913,5.6364,0.1,0.00050122,5008.8,0.00050255,5048.8,-0.00015858,81.311,-0.00016944,-0.28338,0.1116
5716,4.5913,5.8182,0.1,0.0005049,5045.5,0.00050552,5063.8,-0.0001635,37.113,-0.00016848,-0.33254,0.1103
5717,4.775,0.18182,0.1,0.00049862,4982.7,0.0004992,4999.9,-0.00016162,34.782,-0.00016629,-0.29274,0.11949
5718,4.775,0.36364,0.1,0.00049521,4948.7,0.00049645,4985.9,-0.00015708,75.572,-0.00016717,-0.25858,0.12081
5719,4.775,0.54545,0.1,0.00049192,4915.8,0.00049378,4972.5,-0.00015265,115.48,-0.00016803,-0.081019,0.12202
5720,4.775,0.72727,0.1,0.00048873,4883.9,0.00049117,4959.2,-0.00014832,154.34,-0.00016887,-0.070669,0.12312
5721,4.775,0.90909,0.1,0.00048565,4853.2,0.00048863,4946.3,-0.00014413,191.91,-0.00016968,-0.045833,0.12413
5722,4.775,1.0909,0.1,0.00048273,4824,0.0004862,4933.8,-0.00014012,227.87,-0.00017046,-0.032748,0.12505
5723,4.775,1.2727,0.1,0.00047998,4796.4,0.00048389,4922,-0.00013633,261.88,-0.00017119,-0.021386,0.12587
5724,4.775,1.4545,0.1,0.00047742,4770.9,0.00048174,4910.9,-0.00013279,293.59,-0.00017187,-0.012544,0.1266
5725,4.775,1.6364,0.1,0.00047509,4747.6,0.00047975,4900.7,-0.00012954,322.7,-0.00017249,-0.0051905,0.12725
5726,4.775,1.8182,0.1,0.000473,4726.7,0.00047796,4891.5,-0.00012662,348.9,-0.00017305,0.00087402,0.12781
5727,4.775,2,0.1,0.00047117,4708.4,0.00047639,4883.4,-0.00012404,371.92,-0.00017354,0.0058701,0.12828
5728,4.775,2.1818,0.1,0.00046962,4692.9,0.00047505,4876.4,-0.00012186,391.5,-0.00017396,0.009911,0.12868
5729,4.775,2.3636,0.1,0.00046836,4680.4,0.00047396,4870.8,-0.00012008,407.43,-0.0001743,0.013073,0.12899
5730,4.775,2.5455,0.1,0.00046741,4670.8,0.00047313,4866.5,-0.00011872,419.54,-0.00017456,0.015406,0.12923
5731,4.775,2.7273,0.1,0.00046677,4664.5,0.00047257,4863.6,-0.00011781,427.68,-0.00017473,0.016946,0.12938
5732,4.775,2.9091,0.1,0.00046645,4661.2,0.00047229,4862.1,-0.00011735,431.78,-0.00017482,0.017711,0.12946
5733,4.775,3.0909,0.1,0.00046645,4661.2,0.00047229,4862.1,-0.00011735,431.78,-0.00017482,0.017712,0.12946
5734,4.775,3.2727,0.1,0.00046677,4664.5,0.00047257,4863.6,-0.00011781,427.68,-0.00017473,0.016946,0.12938
5735,4.775,3.4545,0.1,0.00046741,4670.8,0.00047313,4866.5,-0.00011872,419.54,-0.00017456,0.015406,0.12923
5736,4.775,3.6364,0.1,0.00046836,4680.4,0.00047396,4870.8,-0.00012008,407.43,-0.0001743,0.013074,0.12899
5737,4.775,3.8182,0.1,0.00046962,4692.9,0.00047505,4876.4,-0.00012186,391.5,-0.00017396,0.0099114,0.12868
5738,4.775,4,0.1,0.00047117,4708.4,0.00047639,4883.4,-0.00012404,371.92,-0.00017354,0.0058705,0.12828
5739,4.775,4.1818,0.1,0.000473,4726.7,0.00047796,4891.5,-0.00012662,348.9,-0.00017305,0.0008745,0.12781
5740,4.775,4.3636,0.1,0.00047509,4747.6,0.00047975,4900.7,-0.00012954,322.7,-0.00017249,-0.0051898,0.12725
5741,4.775,4.5455,0.1,0.00047742,4770.9,0.00048174,4910.9,-0.00013279,293.59,-0.00017187,-0.012543,0.1266
5742,4.775,4.7273,0.1,0.00047998,4796.4,0.00048389,4922,-0.00013633,261.88,-0.00017119,-0.021385,0.12587
5743,4.775,4.9091,0.1,0.00048273,4824,0.0004862,4933.8,-0.00014012,227.87,-0.00017046,-0.032747,0.12505
5744,4.775,5.0909,0.1,0.00048565,4853.2,0.00048863,4946.3,-0.00014413,191.91,-0.00016968,-0.045832,0.12413
5745,4.775,5.2727,0.1,0.00048873,4883.9,0.00049117,4959.2,-0.00014832,154.34,-0.00016887,-0.070669,0.12312
5746,4.775,5.4545,0.1,0.00049192,4915.8,0.00049378,4972.5,-0.00015265,115.48,-0.00016803,-0.081019,0.12202
5747,4.775,5.6364,0.1,0.00049521,4948.7,0.00049645,4985.9,-0.00015708,75.572,-0.00016717,-0.25858,0.12081
5748,4.775,5.8182,0.1,0.00049862,4982.7,0.0004992,4999.9,-0.00016162,34.782,-0.00016629,-0.29274,0.11949
5749,4.9587,0.18182,0.1,0.0004924,4920.6,0.00049294,4936.6,-0.00015977,32.439,-0.00016412,-0.25917,0.12903
5750,4.9587,0.36364,0.1,0.00048925,4889.1,0.0004904,4923.7,-0.00015557,70.091,-0.00016493,-0.23602,0.13035
5751,4.9587,0.54545,0.1,0.0004862,4858.6,0.00048793,4911.2,-0.00015148,106.92,-0.00016572,-0.073414,0.13156
5752,4.9587,0.72727,0.1,0.00048324,4829.1,0.00048551,4898.8,-0.00014749,142.73,-0.00016649,-0.064374,0.13268
5753,4.9587,0.90909,0.1,0.00048039,4800.6,0.00048316,4886.8,-0.00014363,177.34,-0.00016724,-0.04175,0.13369
5754,4.9587,1.0909,0.1,0.00047768,4773.5,0.00048091,4875.2,-0.00013994,210.42,-0.00016794,-0.029871,0.13461
5755,4.9587,1.2727,0.1,0.00047513,4748,0.00047878,4864.2,-0.00013645,241.67,-0.00016861,-0.019523,0.13544
5756,4.9587,1.4545,0.1,0.00047276,4724.3,0.00047678,4853.9,-0.00013319,270.8,-0.00016923,-0.011464,0.13618
5757,4.9587,1.6364,0.1,0.00047059,4702.7,0.00047495,4844.4,-0.0001302,297.52,-0.0001698,-0.0047469,0.13684
5758,4.9587,1.8182,0.1,0.00046866,4683.3,0.0004733,4835.8,-0.00012751,321.55,-0.00017031,0.00080222,0.1374
5759,4.9587,2,0.1,0.00046696,4666.4,0.00047184,4828.2,-0.00012515,342.66,-0.00017076,0.0053833,0.13788
5760,4.9587,2.1818,0.1,0.00046552,4652,0.0004706,4821.8,-0.00012314,360.61,-0.00017114,0.0090963,0.13828
5761,4.9587,2.3636,0.1,0.00046435,4640.3,0.0004696,4816.5,-0.00012151,375.21,-0.00017144,0.012007,0.1386
5762,4.9587,2.5455,0.1,0.00046347,4631.5,0.00046883,4812.5,-0.00012027,386.3,-0.00017168,0.014158,0.13884
5763,4.9587,2.7273,0.1,0.00046287,4625.5,0.00046831,4809.8,-0.00011943,393.76,-0.00017184,0.01558,0.13899
5764,4.9587,2.9091,0.1,0.00046257,4622.5,0.00046805,4808.5,-0.00011901,397.52,-0.00017191,0.016287,0.13907
5765,4.9587,3.0909,0.1,0.00046257,4622.5,0.00046805,4808.5,-0.00011901,397.52,-0.00017191,0.016287,0.13907
5766,4.9587,3.2727,0.1,0.00046287,4625.5,0.00046831,4809.8,-0.00011943,393.76,-0.00017184,0.01558,0.13899
5767,4.9587,3.4545,0.1,0.00046347,4631.5,0.00046883,4812.5,-0.00012027,386.3,-0.00017168,0.014159,0.13884
5768,4.9587,3.6364,0.1,0.00046435,4640.3,0.0004696,4816.5,-0.00012151,375.21,-0.00017144,0.012007,0.1386
5769,4.9587,3.8182,0.1,0.00046552,4652,0.0004706,4821.8,-0.00012314,360.61,-0.00017114,0.0090964,0.13828
5770,4.9587,4,0.1,0.00046696,4666.4,0.00047184,4828.2,-0.00012515,342.66,-0.00017076,0.0053838,0.13788
5771,4.9587,4.1818,0.1,0.00046866,4683.3,0.0004733,4835.8,-0.00012751,321.55,-0.00017031,0.00080258,0.1374
5772,4.9587,4.3636,0.1,0.00047059,4702.7,0.00047495,4844.4,-0.0001302,297.52,-0.0001698,-0.0047464,0.13684
5773,4.9587,4.5455,0.1,0.00047276,4724.3,0.00047678,4853.9,-0.00013319,270.8,-0.00016923,-0.011463,0.13618
5774,4.9587,4.7273,0.1,0.00047513,4748,0.00047878,4864.2,-0.00013645,241.67,-0.00016861,-0.019523,0.13544
5775,4.9587,4.9091,0.1,0.00047768,4773.5,0.00048091,4875.2,-0.00013994,210.42,-0.00016794,-0.02987,0.13461
5776,4.9587,5.0909,0.1,0.00048039,4800.6,0.00048316,4886.8,-0.00014363,177.34,-0.00016724,-0.041749,0.13369
5777,4.9587,5.2727,0.1,0.00048324,4829.1,0.00048551,4898.8,-0.00014749,142.73,-0.00016649,-0.064373,0.13268
5778,4.9587,5.4545,0.1,0.0004862,4858.6,0.00048793,4911.2,-0.00015148,106.92,-0.00016572,-0.073414,0.13156
5779,4.9587,5.6364,0.1,0.00048925,4889.1,0.0004904,4923.7,-0.00015557,70.091,-0.00016493,-0.23602,0.13035
5780,4.9587,5.8182,0.1,0.0004924,4920.6,0.00049294,4936.6,-0.00015977,32.439,-0.00016412,-0.25916,0.12903
5781,5.1423,0.18182,0.1,0.00048625,4859.1,0.00048675,4874,-0.00015793,30.109,-0.00016197,-0.23077,0.1389
5782,5.1423,0.36364,0.1,0.00048333,4830,0.0004844,4862,-0.00015406,64.871,-0.00016272,-0.21549,0.14022
5783,5.1423,0.54545,0.1,0.0004805,4801.7,0.00048211,4850.4,-0.00015028,98.85,-0.00016344,-0.066553,0.14143
5784,5.1423,0.72727,0.1,0.00047776,4774.3,0.00047987,4838.9,-0.0001466,131.86,-0.00016415,-0.058658,0.14255
5785,5.1423,0.90909,0.1,0.00047512,4748,0.0004777,4827.7,-0.00014304,163.73,-0.00016483,-0.038055,0.14358
5786,5.1423,1.0909,0.1,0.00047261,4722.9,0.00047561,4816.9,-0.00013964,194.16,-0.00016548,-0.027273,0.1445
5787,5.1423,1.2727,0.1,0.00047025,4699.2,0.00047364,4806.7,-0.00013643,222.89,-0.00016609,-0.017855,0.14534
5788,5.1423,1.4545,0.1,0.00046805,4677.3,0.0004718,4797.1,-0.00013343,249.65,-0.00016666,-0.010513,0.14609
5789,5.1423,1.6364,0.1,0.00046605,4657.3,0.00047011,4788.3,-0.00013069,274.18,-0.00016718,-0.0043855,0.14674
5790,5.1423,1.8182,0.1,0.00046425,4639.3,0.00046858,4780.3,-0.00012822,296.23,-0.00016764,0.00068491,0.14731
5791,5.1423,2,0.1,0.00046268,4623.6,0.00046724,4773.3,-0.00012605,315.59,-0.00016805,0.0048775,0.1478
5792,5.1423,2.1818,0.1,0.00046135,4610.3,0.0004661,4767.3,-0.0001242,332.04,-0.00016839,0.008281,0.1482
5793,5.1423,2.3636,0.1,0.00046026,4599.5,0.00046516,4762.4,-0.0001227,345.42,-0.00016867,0.010954,0.14852
5794,5.1423,2.5455,0.1,0.00045944,4591.3,0.00046446,4758.7,-0.00012156,355.58,-0.00016889,0.012931,0.14876
5795,5.1423,2.7273,0.1,0.00045889,4585.7,0.00046398,4756.2,-0.0001208,362.42,-0.00016903,0.014239,0.14892
5796,5.1423,2.9091,0.1,0.00045861,4583,0.00046374,4754.9,-0.00012041,365.86,-0.0001691,0.01489,0.149
5797,5.1423,3.0909,0.1,0.00045861,4583,0.00046374,4754.9,-0.00012041,365.86,-0.0001691,0.01489,0.149
5798,5.1423,3.2727,0.1,0.00045889,4585.7,0.00046398,4756.2,-0.0001208,362.42,-0.00016903,0.014239,0.14892
5799,5.1423,3.4545,0.1,0.00045944,4591.3,0.00046446,4758.7,-0.00012156,355.58,-0.00016889,0.012931,0.14876
5800,5.1423,3.6364,0.1,0.00046026,4599.5,0.00046516,4762.4,-0.0001227,345.42,-0.00016867,0.010954,0.14852
5801,5.1423,3.8182,0.1,0.00046135,4610.3,0.0004661,4767.3,-0.0001242,332.04,-0.00016839,0.0082814,0.1482
5802,5.1423,4,0.1,0.00046268,4623.6,0.00046724,4773.3,-0.00012605,315.59,-0.00016805,0.0048779,0.1478
5803,5.1423,4.1818,0.1,0.00046425,4639.3,0.00046858,4780.3,-0.00012822,296.23,-0.00016764,0.00068554,0.14731
5804,5.1423,4.3636,0.1,0.00046605,4657.3,0.00047011,4788.3,-0.00013069,274.18,-0.00016718,-0.0043849,0.14674
5805,5.1423,4.5455,0.1,0.00046805,4677.3,0.0004718,4797.1,-0.00013343,249.65,-0.00016666,-0.010513,0.14609
5806,5.1423,4.7273,0.1,0.00047025,4699.2,0.00047364,4806.7,-0.00013643,222.89,-0.00016609,-0.017855,0.14534
5807,5.1423,4.9091,0.1,0.00047261,4722.9,0.00047561,4816.9,-0.00013964,194.16,-0.00016548,-0.027273,0.1445
5808,5.1423,5.0909,0.1,0.00047512,4748,0.0004777,4827.7,-0.00014304,163.73,-0.00016483,-0.038053,0.14358
5809,5.1423,5.2727,0.1,0.00047776,4774.3,0.00047987,4838.9,-0.0001466,131.86,-0.00016415,-0.058657,0.14255
5810,5.1423,5.4545,0.1,0.0004805,4801.7,0.00048211,4850.4,-0.00015028,98.85,-0.00016344,-0.066552,0.14143
5811,5.1423,5.6364,0.1,0.00048333,4830,0.0004844,4862,-0.00015406,64.871,-0.00016272,-0.21549,0.14022
5812,5.1423,5.8182,0.1,0.00048625,4859.2,0.00048675,4874,-0.00015793,30.109,-0.00016197,-0.23077,0.1389
5813,5.326,0.18182,0.1,0.00048016,4798.3,0.00048062,4812,-0.00015612,27.809,-0.00015985,-0.2067,0.14909
5814,5.326,0.36364,0.1,0.00047746,4771.3,0.00047845,4800.9,-0.00015254,59.91,-0.00016054,-0.19676,0.15041
5815,5.326,0.54545,0.1,0.00047484,4745.1,0.00047632,4790,-0.00014905,91.259,-0.0001612,-0.06035,0.15163
5816,5.326,0.72727,0.1,0.0004723,4719.7,0.00047425,4779.4,-0.00014565,121.69,-0.00016185,-0.053461,0.15276
5817,5.326,0.90909,0.1,0.00046985,4695.3,0.00047224,4769,-0.00014237,151.03,-0.00016248,-0.034704,0.15378
5818,5.326,1.0909,0.1,0.00046753,4672,0.00047032,4759,-0.00013924,179.04,-0.00016307,-0.024924,0.15472
5819,5.326,1.2727,0.1,0.00046534,4650.2,0.00046849,4749.5,-0.00013628,205.45,-0.00016363,-0.016357,0.15556
5820,5.326,1.4545,0.1,0.00046331,4629.9,0.00046679,4740.6,-0.00013353,230.03,-0.00016415,-0.0096748,0.15631
5821,5.326,1.6364,0.1,0.00046145,4611.3,0.00046523,4732.4,-0.000131,252.55,-0.00016462,-0.0040899,0.15697
5822,5.326,1.8182,0.1,0.00045979,4594.7,0.00046382,4725,-0.00012874,272.79,-0.00016504,0.00053642,0.15754
5823,5.326,2,0.1,0.00045833,4580.2,0.00046258,4718.5,-0.00012674,290.54,-0.00016541,0.0043672,0.15803
5824,5.326,2.1818,0.1,0.0004571,4567.8,0.00046153,4713,-0.00012505,305.63,-0.00016573,0.0074807,0.15844
5825,5.326,2.3636,0.1,0.00045609,4557.8,0.00046067,4708.4,-0.00012367,317.89,-0.00016598,0.0099287,0.15876
5826,5.326,2.5455,0.1,0.00045533,4550.2,0.00046002,4705,-0.00012263,327.2,-0.00016618,0.011741,0.15901
5827,5.326,2.7273,0.1,0.00045482,4545.1,0.00045958,4702.7,-0.00012193,333.47,-0.00016631,0.012942,0.15917
5828,5.326,2.9091,0.1,0.00045457,4542.5,0.00045936,4701.5,-0.00012157,336.62,-0.00016637,0.01354,0.15925
5829,5.326,3.0909,0.1,0.00045457,4542.5,0.00045936,4701.5,-0.00012157,336.62,-0.00016637,0.01354,0.15925
5830,5.326,3.2727,0.1,0.00045482,4545.1,0.00045958,4702.7,-0.00012193,333.47,-0.00016631,0.012942,0.15917
5831,5.326,3.4545,0.1,0.00045533,4550.2,0.00046002,4705,-0.00012263,327.2,-0.00016618,0.011742,0.15901
5832,5.326,3.6364,0.1,0.00045609,4557.8,0.00046067,4708.4,-0.00012367,317.89,-0.00016598,0.009929,0.15876
5833,5.326,3.8182,0.1,0.0004571,4567.8,0.00046153,4713,-0.00012505,305.63,-0.00016573,0.0074812,0.15844
5834,5.326,4,0.1,0.00045833,4580.2,0.00046258,4718.5,-0.00012674,290.54,-0.00016541,0.0043677,0.15803
5835,5.326,4.1818,0.1,0.00045979,4594.7,0.00046382,4725,-0.00012874,272.79,-0.00016504,0.00053708,0.15754
5836,5.326,4.3636,0.1,0.00046145,4611.3,0.00046523,4732.4,-0.000131,252.55,-0.00016462,-0.0040894,0.15697
5837,5.326,4.5455,0.1,0.00046331,4629.9,0.00046679,4740.6,-0.00013353,230.03,-0.00016415,-0.0096741,0.15631
5838,5.326,4.7273,0.1,0.00046534,4650.2,0.00046849,4749.5,-0.00013628,205.45,-0.00016363,-0.016357,0.15556
5839,5.326,4.9091,0.1,0.00046753,4672,0.00047032,4759,-0.00013924,179.04,-0.00016307,-0.024923,0.15472
5840,5.326,5.0909,0.1,0.00046985,4695.3,0.00047224,4769,-0.00014237,151.03,-0.00016248,-0.034703,0.15378
5841,5.326,5.2727,0.1,0.0004723,4719.7,0.00047425,4779.4,-0.00014565,121.69,-0.00016185,-0.053461,0.15276
5842,5.326,5.4545,0.1,0.00047484,4745.1,0.00047632,4790,-0.00014905,91.259,-0.0001612,-0.060349,0.15163
5843,5.326,5.6364,0.1,0.00047746,4771.3,0.00047845,4800.9,-0.00015254,59.91,-0.00016054,-0.19676,0.15041
5844,5.326,5.8182,0.1,0.00048016,4798.3,0.00048062,4812,-0.00015612,27.809,-0.00015985,-0.2067,0.14909
5845,5.5096,0.18182,0.1,0.00047413,4738,0.00047456,4750.7,-0.00015432,25.555,-0.00015774,-0.18628,0.15961
5846,5.5096,0.36364,0.1,0.00047162,4713,0.00047254,4740.2,-0.00015101,55.206,-0.00015838,-0.17967,0.16093
5847,5.5096,0.54545,0.1,0.0004692,4688.7,0.00047057,4730.2,-0.00014778,84.125,-0.00015899,-0.054731,0.16216
5848,5.5096,0.72727,0.1,0.00046684,4665.2,0.00046865,4720.3,-0.00014465,112.17,-0.00015959,-0.048728,0.16328
5849,5.5096,0.90909,0.1,0.00046458,4642.6,0.00046679,4710.6,-0.00014163,139.19,-0.00016016,-0.031659,0.16431
5850,5.5096,1.0909,0.1,0.00046243,4621.1,0.00046501,4701.4,-0.00013874,164.96,-0.0001607,-0.022794,0.16524
5851,5.5096,1.2727,0.1,0.0004604,4600.9,0.00046333,4692.6,-0.00013602,189.25,-0.00016121,-0.015008,0.16609
5852,5.5096,1.4545,0.1,0.00045852,4582.1,0.00046176,4684.3,-0.00013349,211.84,-0.00016169,-0.008931,0.16684
5853,5.5096,1.6364,0.1,0.00045681,4564.9,0.00046032,4676.7,-0.00013117,232.52,-0.00016212,-0.0038466,0.16751
5854,5.5096,1.8182,0.1,0.00045527,4549.5,0.00045902,4669.9,-0.00012909,251.09,-0.0001625,0.0003697,0.16808
5855,5.5096,2,0.1,0.00045392,4536.1,0.00045788,4663.8,-0.00012726,267.37,-0.00016284,0.0038641,0.16858
5856,5.5096,2.1818,0.1,0.00045278,4524.7,0.00045691,4658.7,-0.0001257,281.21,-0.00016313,0.0067077,0.16899
5857,5.5096,2.3636,0.1,0.00045185,4515.4,0.00045611,4654.5,-0.00012444,292.45,-0.00016336,0.0089452,0.16931
5858,5.5096,2.5455,0.1,0.00045115,4508.4,0.00045551,4651.3,-0.00012348,300.98,-0.00016354,0.010603,0.16956
5859,5.5096,2.7273,0.1,0.00045068,4503.6,0.00045511,4649.2,-0.00012284,306.72,-0.00016366,0.011702,0.16972
5860,5.5096,2.9091,0.1,0.00045044,4501.3,0.00045491,4648.1,-0.00012251,309.61,-0.00016372,0.01225,0.1698
5861,5.5096,3.0909,0.1,0.00045044,4501.3,0.00045491,4648.1,-0.00012251,309.61,-0.00016372,0.01225,0.1698
5862,5.5096,3.2727,0.1,0.00045068,4503.6,0.00045511,4649.2,-0.00012284,306.72,-0.00016366,0.011702,0.16972
5863,5.5096,3.4545,0.1,0.00045115,4508.4,0.00045551,4651.3,-0.00012348,300.98,-0.00016354,0.010604,0.16956
5864,5.5096,3.6364,0.1,0.00045185,4515.4,0.00045611,4654.5,-0.00012444,292.45,-0.00016336,0.0089454,0.16931
5865,5.5096,3.8182,0.1,0.00045278,4524.7,0.00045691,4658.7,-0.0001257,281.21,-0.00016313,0.006708,0.16899
5866,5.5096,4,0.1,0.00045392,4536.1,0.00045788,4663.8,-0.00012726,267.37,-0.00016284,0.0038645,0.16858
5867,5.5096,4.1818,0.1,0.00045527,4549.5,0.00045902,4669.9,-0.00012909,251.09,-0.0001625,0.00037018,0.16808
5868,5.5096,4.3636,0.1,0.00045681,4564.9,0.00046032,4676.7,-0.00013117,232.52,-0.00016212,-0.0038459,0.16751
5869,5.5096,4.5455,0.1,0.00045852,4582.1,0.00046176,4684.3,-0.00013349,211.84,-0.00016169,-0.0089301,0.16684
5870,5.5096,4.7273,0.1,0.0004604,4600.9,0.00046333,4692.6,-0.00013602,189.25,-0.00016121,-0.015007,0.16609
5871,5.5096,4.9091,0.1,0.00046243,4621.1,0.00046501,4701.4,-0.00013874,164.96,-0.0001607,-0.022793,0.16524
5872,5.5096,5.0909,0.1,0.00046458,4642.6,0.00046679,4710.6,-0.00014163,139.19,-0.00016016,-0.031658,0.16431
5873,5.5096,5.2727,0.1,0.00046684,4665.2,0.00046865,4720.3,-0.00014465,112.17,-0.00015959,-0.048727,0.16328
5874,5.5096,5.4545,0.1,0.0004692,4688.7,0.00047057,4730.2,-0.00014778,84.125,-0.00015899,-0.05473,0.16216
5875,5.5096,5.6364,0.1,0.00047162,4713,0.00047254,4740.2,-0.00015101,55.206,-0.00015838,-0.17967,0.16093
5876,5.5096,5.8182,0.1,0.00047413,4738,0.00047456,4750.7,-0.00015432,25.555,-0.00015774,-0.18628,0.15961
5877,5.6933,0.18182,0.1,0.00046815,4678.3,0.00046854,4689.9,-0.00015253,23.36,-0.00015566,-0.16899,0.17045
5878,5.6933,0.36364,0.1,0.00046583,4655.1,0.00046667,4680.2,-0.00014947,50.753,-0.00015624,-0.16406,0.17177
5879,5.6933,0.54545,0.1,0.00046358,4632.6,0.00046485,4670.8,-0.00014649,77.428,-0.0001568,-0.049644,0.17299
5880,5.6933,0.72727,0.1,0.0004614,4610.8,0.00046307,4661.6,-0.0001436,103.28,-0.00015735,-0.044422,0.17412
5881,5.6933,0.90909,0.1,0.00045931,4589.9,0.00046135,4652.6,-0.00014082,128.16,-0.00015788,-0.0289,0.17515
5882,5.6933,1.0909,0.1,0.00045732,4570,0.00045971,4644,-0.00013816,151.87,-0.00015838,-0.020871,0.17609
5883,5.6933,1.2727,0.1,0.00045544,4551.3,0.00045816,4635.9,-0.00013566,174.21,-0.00015884,-0.0138,0.17693
5884,5.6933,1.4545,0.1,0.0004537,4533.9,0.00045671,4628.3,-0.00013333,194.97,-0.00015928,-0.0082799,0.17769
5885,5.6933,1.6364,0.1,0.00045212,4518,0.00045538,4621.2,-0.00013119,213.96,-0.00015967,-0.0036562,0.17835
5886,5.6933,1.8182,0.1,0.00045069,4503.8,0.00045418,4614.9,-0.00012928,231.01,-0.00016002,0.00018106,0.17894
5887,5.6933,2,0.1,0.00044945,4491.4,0.00045313,4609.3,-0.0001276,245.95,-0.00016033,0.0033644,0.17943
5888,5.6933,2.1818,0.1,0.00044839,4480.8,0.00045223,4604.5,-0.00012617,258.63,-0.00016059,0.0059568,0.17984
5889,5.6933,2.3636,0.1,0.00044753,4472.3,0.0004515,4600.7,-0.00012501,268.94,-0.00016081,0.0079985,0.18017
5890,5.6933,2.5455,0.1,0.00044688,4465.8,0.00045095,4597.7,-0.00012413,276.76,-0.00016097,0.0095125,0.18042
5891,5.6933,2.7273,0.1,0.00044645,4461.4,0.00045058,4595.7,-0.00012354,282.02,-0.00016108,0.010516,0.18058
5892,5.6933,2.9091,0.1,0.00044623,4459.2,0.00045039,4594.7,-0.00012324,284.67,-0.00016113,0.011016,0.18066
5893,5.6933,3.0909,0.1,0.00044623,4459.2,0.00045039,4594.7,-0.00012324,284.67,-0.00016113,0.011016,0.18066
5894,5.6933,3.2727,0.1,0.00044645,4461.4,0.00045058,4595.7,-0.00012354,282.02,-0.00016108,0.010516,0.18058
5895,5.6933,3.4545,0.1,0.00044688,4465.8,0.00045095,4597.7,-0.00012413,276.76,-0.00016097,0.0095126,0.18042
5896,5.6933,3.6364,0.1,0.00044753,4472.3,0.0004515,4600.7,-0.00012501,268.94,-0.00016081,0.0079987,0.18017
5897,5.6933,3.8182,0.1,0.00044839,4480.8,0.00045223,4604.5,-0.00012617,258.63,-0.00016059,0.0059573,0.17984
5898,5.6933,4,0.1,0.00044945,4491.4,0.00045313,4609.3,-0.0001276,245.95,-0.00016033,0.0033648,0.17943
5899,5.6933,4.1818,0.1,0.00045069,4503.8,0.00045418,4614.9,-0.00012928,231.01,-0.00016002,0.00018153,0.17894
5900,5.6933,4.3636,0.1,0.00045212,4518,0.00045538,4621.2,-0.00013119,213.96,-0.00015967,-0.0036557,0.17835
5901,5.6933,4.5455,0.1,0.0004537,4533.9,0.00045671,4628.3,-0.00013333,194.97,-0.00015928,-0.0082793,0.17769
5902,5.6933,4.7273,0.1,0.00045544,4551.3,0.00045816,4635.9,-0.00013566,174.21,-0.00015884,-0.0138,0.17693
5903,5.6933,4.9091,0.1,0.00045732,4570,0.00045971,4644,-0.00013816,151.87,-0.00015838,-0.02087,0.17609
5904,5.6933,5.0909,0.1,0.00045931,4589.9,0.00046135,4652.6,-0.00014082,128.16,-0.00015788,-0.028899,0.17515
5905,5.6933,5.2727,0.1,0.0004614,4610.8,0.00046307,4661.6,-0.0001436,103.28,-0.00015735,-0.044422,0.17412
5906,5.6933,5.4545,0.1,0.00046358,4632.6,0.00046485,4670.8,-0.00014649,77.428,-0.00015681,-0.049643,0.17299
5907,5.6933,5.6364,0.1,0.00046583,4655.1,0.00046667,4680.2,-0.00014947,50.753,-0.00015624,-0.16406,0.17177
5908,5.6933,5.8182,0.1,0.00046815,4678.3,0.00046854,4689.9,-0.00015253,23.36,-0.00015566,-0.16899,0.17045
5909,5.8769,0.18182,0.1,0.00046223,4619.1,0.00046259,4629.6,-0.00015075,21.232,-0.0001536,-0.15438,0.18161
5910,5.8769,0.36364,0.1,0.00046007,4597.6,0.00046084,4620.6,-0.00014792,46.545,-0.00015414,-0.14979,0.18292
5911,5.8769,0.54545,0.1,0.00045799,4576.7,0.00045916,4611.9,-0.00014518,71.147,-0.00015465,-0.045029,0.18414
5912,5.8769,0.72727,0.1,0.00045597,4556.6,0.00045751,4603.3,-0.00014251,94.967,-0.00015515,-0.040499,0.18527
5913,5.8769,0.90909,0.1,0.00045404,4537.2,0.00045593,4595,-0.00013994,117.89,-0.00015564,-0.026395,0.1863
5914,5.8769,1.0909,0.1,0.00045219,4518.8,0.00045441,4587,-0.0001375,139.71,-0.00015609,-0.019131,0.18724
5915,5.8769,1.2727,0.1,0.00045046,4501.5,0.00045297,4579.5,-0.00013519,160.25,-0.00015652,-0.012717,0.18808
5916,5.8769,1.4545,0.1,0.00044885,4485.4,0.00045163,4572.4,-0.00013305,179.33,-0.00015692,-0.0077076,0.18884
5917,5.8769,1.6364,0.1,0.00044739,4470.8,0.00045041,4565.9,-0.00013109,196.77,-0.00015728,-0.0035075,0.18951
5918,5.8769,1.8182,0.1,0.00044607,4457.6,0.0004493,4560,-0.00012933,212.42,-0.0001576,-1.955e-05,0.19009
5919,5.8769,2,0.1,0.00044492,4446.1,0.00044833,4554.9,-0.00012779,226.13,-0.00015788,0.0028762,0.19059
5920,5.8769,2.1818,0.1,0.00044394,4436.4,0.00044751,4550.5,-0.00012648,237.77,-0.00015812,0.0052363,0.191
5921,5.8769,2.3636,0.1,0.00044315,4428.4,0.00044684,4546.9,-0.00012541,247.22,-0.00015831,0.0070961,0.19133
5922,5.8769,2.5455,0.1,0.00044255,4422.4,0.00044633,4544.2,-0.0001246,254.39,-0.00015846,0.0084757,0.19158
5923,5.8769,2.7273,0.1,0.00044215,4418.4,0.00044599,4542.3,-0.00012406,259.21,-0.00015856,0.0093908,0.19174
5924,5.8769,2.9091,0.1,0.00044194,4416.4,0.00044581,4541.4,-0.00012379,261.63,-0.00015861,0.0098473,0.19182
5925,5.8769,3.0909,0.1,0.00044194,4416.4,0.00044581,4541.4,-0.00012379,261.63,-0.00015861,0.0098473,0.19182
5926,5.8769,3.2727,0.1,0.00044215,4418.4,0.00044599,4542.3,-0.00012406,259.21,-0.00015856,0.0093908,0.19174
5927,5.8769,3.4545,0.1,0.00044255,4422.4,0.00044633,4544.2,-0.0001246,254.39,-0.00015846,0.0084759,0.19158
5928,5.8769,3.6364,0.1,0.00044315,4428.4,0.00044684,4546.9,-0.00012541,247.22,-0.00015831,0.0070963,0.19133
5929,5.8769,3.8182,0.1,0.00044394,4436.4,0.00044751,4550.5,-0.00012648,237.77,-0.00015812,0.0052368,0.191
5930,5.8769,4,0.1,0.00044492,4446.1,0.00044833,4554.9,-0.00012779,226.13,-0.00015788,0.0028765,0.19059
5931,5.8769,4.1818,0.1,0.00044607,4457.6,0.0004493,4560,-0.00012933,212.42,-0.0001576,-1.901e-05,0.19009
5932,5.8769,4.3636,0.1,0.00044739,4470.8,0.00045041,4565.9,-0.00013109,196.77,-0.00015728,-0.0035071,0.18951
5933,5.8769,4.5455,0.1,0.00044885,4485.4,0.00045163,4572.4,-0.00013305,179.33,-0.00015692,-0.0077068,0.18884
5934,5.8769,4.7273,0.1,0.00045046,4501.5,0.00045297,4579.5,-0.00013519,160.25,-0.00015652,-0.012716,0.18808
5935,5.8769,4.9091,0.1,0.00045219,4518.8,0.00045441,4587,-0.0001375,139.71,-0.00015609,-0.01913,0.18724
5936,5.8769,5.0909,0.1,0.00045404,4537.2,0.00045593,4595,-0.00013994,117.89,-0.00015564,-0.026393,0.1863
5937,5.8769,5.2727,0.1,0.00045597,4556.6,0.00045751,4603.3,-0.00014251,94.967,-0.00015515,-0.040499,0.18527
5938,5.8769,5.4545,0.1,0.00045799,4576.7,0.00045916,4611.9,-0.00014518,71.147,-0.00015465,-0.045029,0.18414
5939,5.8769,5.6364,0.1,0.00046007,4597.6,0.00046084,4620.6,-0.00014792,46.545,-0.00015414,-0.14979,0.18292
5940,5.8769,5.8182,0.1,0.00046223,4619.1,0.00046259,4629.6,-0.00015075,21.232,-0.0001536,-0.15438,0.18161
5941,6.0606,0.18182,0.1,0.00045636,4560.4,0.00045668,4569.9,-0.00014899,19.178,-0.00015156,-0.14213,0.19307
5942,6.0606,0.36364,0.1,0.00045435,4540.4,0.00045506,4561.5,-0.00014637,42.576,-0.00015205,-0.13673,0.19439
5943,6.0606,0.54545,0.1,0.00045242,4521.1,0.0004535,4553.4,-0.00014383,65.264,-0.00015252,-0.040836,0.19561
5944,6.0606,0.72727,0.1,0.00045056,4502.5,0.00045198,4545.4,-0.00014137,87.214,-0.00015299,-0.03692,0.19673
5945,6.0606,0.90909,0.1,0.00044877,4484.6,0.00045051,4537.7,-0.00013901,108.32,-0.00015343,-0.024115,0.19776
5946,6.0606,1.0909,0.1,0.00044706,4467.5,0.00044911,4530.3,-0.00013675,128.4,-0.00015385,-0.017552,0.1987
5947,6.0606,1.2727,0.1,0.00044546,4451.5,0.00044778,4523.3,-0.00013463,147.29,-0.00015424,-0.01174,0.19954
5948,6.0606,1.4545,0.1,0.00044397,4436.7,0.00044655,4516.8,-0.00013266,164.83,-0.0001546,-0.0072011,0.2003
5949,6.0606,1.6364,0.1,0.00044262,4423.1,0.00044541,4510.7,-0.00013086,180.85,-0.00015493,-0.0033912,0.20097
5950,6.0606,1.8182,0.1,0.0004414,4410.9,0.0004444,4505.3,-0.00012924,195.22,-0.00015522,-0.00022502,0.20155
5951,6.0606,2,0.1,0.00044034,4400.3,0.0004435,4500.5,-0.00012783,207.8,-0.00015548,0.0024056,0.20205
5952,6.0606,2.1818,0.1,0.00043943,4391.3,0.00044274,4496.5,-0.00012662,218.48,-0.0001557,0.004551,0.20247
5953,6.0606,2.3636,0.1,0.0004387,4384,0.00044213,4493.2,-0.00012565,227.15,-0.00015588,0.0062424,0.2028
5954,6.0606,2.5455,0.1,0.00043815,4378.5,0.00044166,4490.6,-0.00012491,233.73,-0.00015601,0.0074977,0.20304
5955,6.0606,2.7273,0.1,0.00043778,4374.7,0.00044134,4488.9,-0.00012441,238.15,-0.0001561,0.0083306,0.20321
5956,6.0606,2.9091,0.1,0.00043759,4372.9,0.00044118,4488.1,-0.00012416,240.37,-0.00015615,0.0087461,0.20329
5957,6.0606,3.0909,0.1,0.00043759,4372.9,0.00044118,4488.1,-0.00012416,240.37,-0.00015615,0.0087461,0.20329
5958,6.0606,3.2727,0.1,0.00043778,4374.7,0.00044134,4489,-0.00012441,238.15,-0.0001561,0.0083307,0.20321
5959,6.0606,3.4545,0.1,0.00043815,4378.5,0.00044166,4490.6,-0.00012491,233.73,-0.00015601,0.0074979,0.20304
5960,6.0606,3.6364,0.1,0.0004387,4384,0.00044213,4493.2,-0.00012565,227.15,-0.00015588,0.0062428,0.2028
5961,6.0606,3.8182,0.1,0.00043943,4391.3,0.00044274,4496.5,-0.00012662,218.48,-0.0001557,0.0045513,0.20247
5962,6.0606,4,0.1,0.00044034,4400.3,0.0004435,4500.5,-0.00012783,207.8,-0.00015548,0.002406,0.20205
5963,6.0606,4.1818,0.1,0.0004414,4410.9,0.0004444,4505.3,-0.00012924,195.22,-0.00015522,-0.0002243,0.20155
5964,6.0606,4.3636,0.1,0.00044262,4423.1,0.00044541,4510.7,-0.00013086,180.85,-0.00015493,-0.0033905,0.20097
5965,6.0606,4.5455,0.1,0.00044397,4436.7,0.00044655,4516.8,-0.00013266,164.83,-0.0001546,-0.0072003,0.2003
5966,6.0606,4.7273,0.1,0.00044546,4451.5,0.00044778,4523.3,-0.00013463,147.29,-0.00015424,-0.01174,0.19954
5967,6.0606,4.9091,0.1,0.00044706,4467.5,0.00044911,4530.3,-0.00013675,128.4,-0.00015385,-0.017551,0.1987
5968,6.0606,5.0909,0.1,0.00044877,4484.6,0.00045051,4537.7,-0.00013901,108.32,-0.00015343,-0.024114,0.19776
5969,6.0606,5.2727,0.1,0.00045056,4502.5,0.00045198,4545.4,-0.00014137,87.214,-0.00015299,-0.036919,0.19673
5970,6.0606,5.4545,0.1,0.00045242,4521.1,0.0004535,4553.4,-0.00014383,65.264,-0.00015252,-0.040836,0.19561
5971,6.0606,5.6364,0.1,0.00045435,4540.4,0.00045506,4561.5,-0.00014637,42.576,-0.00015205,-0.13673,0.19439
5972,6.0606,5.8182,0.1,0.00045636,4560.4,0.00045668,4569.9,-0.00014899,19.178,-0.00015156,-0.14212,0.19307
5973,6.2442,0.18182,0.1,0.00045053,4502.2,0.00045082,4510.7,-0.00014723,17.204,-0.00014954,-0.13195,0.20485
5974,6.2442,0.36364,0.1,0.00044867,4483.6,0.00044931,4502.8,-0.0001448,38.836,-0.00014999,-0.12477,0.20616
5975,6.2442,0.54545,0.1,0.00044688,4465.7,0.00044787,4495.3,-0.00014247,59.756,-0.00015042,-0.037022,0.20737
5976,6.2442,0.72727,0.1,0.00044515,4448.5,0.00044646,4487.9,-0.0001402,79.981,-0.00015085,-0.033651,0.20849
5977,6.2442,0.90909,0.1,0.0004435,4431.9,0.0004451,4480.8,-0.00013802,99.414,-0.00015125,-0.022039,0.20952
5978,6.2442,1.0909,0.1,0.00044192,4416.1,0.00044381,4473.9,-0.00013594,117.89,-0.00015164,-0.016118,0.21046
5979,6.2442,1.2727,0.1,0.00044044,4401.3,0.00044258,4467.4,-0.00013399,135.27,-0.00015199,-0.010861,0.2113
5980,6.2442,1.4545,0.1,0.00043906,4387.6,0.00044144,4461.3,-0.00013218,151.39,-0.00015233,-0.0067528,0.21206
5981,6.2442,1.6364,0.1,0.00043781,4375.1,0.0004404,4455.8,-0.00013052,166.11,-0.00015263,-0.0033015,0.21273
5982,6.2442,1.8182,0.1,0.00043669,4363.9,0.00043946,4450.7,-0.00012903,179.31,-0.0001529,-0.0004314,0.21331
5983,6.2442,2,0.1,0.0004357,4354,0.00043864,4446.3,-0.00012773,190.86,-0.00015313,0.0019545,0.21381
5984,6.2442,2.1818,0.1,0.00043487,4345.7,0.00043794,4442.6,-0.00012663,200.65,-0.00015333,0.0039018,0.21423
5985,6.2442,2.3636,0.1,0.0004342,4339,0.00043737,4439.5,-0.00012573,208.61,-0.00015349,0.0054376,0.21456
5986,6.2442,2.5455,0.1,0.00043368,4333.9,0.00043694,4437.2,-0.00012505,214.64,-0.00015362,0.006578,0.2148
5987,6.2442,2.7273,0.1,0.00043334,4330.4,0.00043665,4435.6,-0.00012459,218.69,-0.0001537,0.0073349,0.21497
5988,6.2442,2.9091,0.1,0.00043317,4328.7,0.0004365,4434.8,-0.00012436,220.73,-0.00015374,0.0077126,0.21505
5989,6.2442,3.0909,0.1,0.00043317,4328.7,0.0004365,4434.8,-0.00012436,220.73,-0.00015374,0.0077126,0.21505
5990,6.2442,3.2727,0.1,0.00043334,4330.4,0.00043665,4435.6,-0.00012459,218.69,-0.0001537,0.0073351,0.21497
5991,6.2442,3.4545,0.1,0.00043368,4333.9,0.00043694,4437.2,-0.00012505,214.64,-0.00015362,0.0065782,0.2148
5992,6.2442,3.6364,0.1,0.0004342,4339,0.00043737,4439.5,-0.00012573,208.61,-0.00015349,0.0054381,0.21456
5993,6.2442,3.8182,0.1,0.00043487,4345.7,0.00043794,4442.6,-0.00012663,200.65,-0.00015333,0.0039022,0.21423
5994,6.2442,4,0.1,0.0004357,4354,0.00043864,4446.3,-0.00012773,190.86,-0.00015313,0.0019549,0.21381
5995,6.2442,4.1818,0.1,0.00043669,4363.9,0.00043946,4450.7,-0.00012903,179.31,-0.0001529,-0.00043095,0.21331
5996,6.2442,4.3636,0.1,0.00043781,4375.1,0.0004404,4455.8,-0.00013052,166.11,-0.00015263,-0.0033009,0.21273
5997,6.2442,4.5455,0.1,0.00043906,4387.6,0.00044144,4461.3,-0.00013218,151.39,-0.00015233,-0.006752,0.21206
5998,6.2442,4.7273,0.1,0.00044044,4401.3,0.00044258,4467.4,-0.00013399,135.27,-0.00015199,-0.01086,0.2113
5999,6.2442,4.9091,0.1,0.00044192,4416.1,0.00044381,4473.9,-0.00013594,117.89,-0.00015164,-0.016118,0.21046
6000,6.2442,5.0909,0.1,0.0004435,4431.9,0.0004451,4480.8,-0.00013802,99.414,-0.00015125,-0.022038,0.20952
6001,6.2442,5.2727,0.1,0.00044515,4448.5,0.00044646,4487.9,-0.0001402,79.981,-0.00015085,-0.03365,0.20849
6002,6.2442,5.4545,0.1,0.00044688,4465.7,0.00044787,4495.3,-0.00014247,59.756,-0.00015042,-0.037022,0.20737
6003,6.2442,5.6364,0.1,0.00044867,4483.6,0.00044931,4502.8,-0.00014481,38.836,-0.00014999,-0.12477,0.20616
6004,6.2442,5.8182,0.1,0.00045053,4502.2,0.00045082,4510.7,-0.00014723,17.204,-0.00014954,-0.13195,0.20485
6005,6.4279,0.18182,0.1,0.00044475,4444.5,0.00044501,4452,-0.00014548,15.312,-0.00014754,-0.12369,0.21693
6006,6.4279,0.36364,0.1,0.00044302,4427.1,0.0004436,4444.6,-0.00014324,35.318,-0.00014795,-0.11382,0.21823
6007,6.4279,0.54545,0.1,0.00044136,4410.6,0.00044227,4437.6,-0.00014108,54.605,-0.00014835,-0.033551,0.21944
6008,6.4279,0.72727,0.1,0.00043976,4394.6,0.00044096,4430.7,-0.00013899,73.238,-0.00014874,-0.030666,0.22056
6009,6.4279,0.90909,0.1,0.00043823,4379.3,0.00043971,4424.1,-0.00013698,91.131,-0.00014911,-0.02015,0.22158
6010,6.4279,1.0909,0.1,0.00043677,4364.7,0.00043851,4417.7,-0.00013506,108.14,-0.00014946,-0.014818,0.22252
6011,6.4279,1.2727,0.1,0.0004354,4351,0.00043738,4411.7,-0.00013327,124.12,-0.00014979,-0.010069,0.22336
6012,6.4279,1.4545,0.1,0.00043413,4338.3,0.00043633,4406.1,-0.0001316,138.93,-0.00015009,-0.0063582,0.22412
6013,6.4279,1.6364,0.1,0.00043297,4326.7,0.00043536,4400.9,-0.00013007,152.46,-0.00015037,-0.0032367,0.22479
6014,6.4279,1.8182,0.1,0.00043193,4316.4,0.0004345,4396.3,-0.00012871,164.58,-0.00015061,-0.00063929,0.22537
6015,6.4279,2,0.1,0.00043103,4307.3,0.00043374,4392.2,-0.00012751,175.19,-0.00015083,0.0015217,0.22587
6016,6.4279,2.1818,0.1,0.00043026,4299.6,0.0004331,4388.7,-0.0001265,184.18,-0.00015101,0.0032864,0.22628
6017,6.4279,2.3636,0.1,0.00042964,4293.4,0.00043257,4385.9,-0.00012567,191.47,-0.00015116,0.0046788,0.22661
6018,6.4279,2.5455,0.1,0.00042916,4288.7,0.00043217,4383.8,-0.00012505,197.01,-0.00015127,0.0057129,0.22686
6019,6.4279,2.7273,0.1,0.00042884,4285.5,0.00043191,4382.3,-0.00012463,200.72,-0.00015134,0.0063996,0.22703
6020,6.4279,2.9091,0.1,0.00042869,4283.9,0.00043177,4381.6,-0.00012442,202.59,-0.00015138,0.0067424,0.22711
6021,6.4279,3.0909,0.1,0.00042869,4283.9,0.00043177,4381.6,-0.00012442,202.59,-0.00015138,0.0067425,0.22711
6022,6.4279,3.2727,0.1,0.00042884,4285.5,0.00043191,4382.3,-0.00012463,200.72,-0.00015134,0.0063996,0.22703
6023,6.4279,3.4545,0.1,0.00042916,4288.7,0.00043217,4383.8,-0.00012505,197.01,-0.00015127,0.0057131,0.22686
6024,6.4279,3.6364,0.1,0.00042964,4293.4,0.00043257,4385.9,-0.00012567,191.47,-0.00015116,0.0046791,0.22661
6025,6.4279,3.8182,0.1,0.00043026,4299.6,0.0004331,4388.7,-0.0001265,184.18,-0.00015101,0.0032865,0.22628
6026,6.4279,4,0.1,0.00043103,4307.3,0.00043374,4392.2,-0.00012751,175.19,-0.00015083,0.0015219,0.22587
6027,6.4279,4.1818,0.1,0.00043193,4316.4,0.0004345,4396.3,-0.00012871,164.58,-0.00015061,-0.00063872,0.22537
6028,6.4279,4.3636,0.1,0.00043297,4326.7,0.00043536,4400.9,-0.00013007,152.46,-0.00015037,-0.0032362,0.22479
6029,6.4279,4.5455,0.1,0.00043413,4338.3,0.00043633,4406.1,-0.0001316,138.93,-0.00015009,-0.0063574,0.22412
6030,6.4279,4.7273,0.1,0.0004354,4351,0.00043738,4411.7,-0.00013327,124.12,-0.00014979,-0.010068,0.22336
6031,6.4279,4.9091,0.1,0.00043677,4364.7,0.00043851,4417.7,-0.00013506,108.14,-0.00014946,-0.014818,0.22252
6032,6.4279,5.0909,0.1,0.00043823,4379.3,0.00043971,4424.1,-0.00013698,91.131,-0.00014911,-0.020149,0.22158
6033,6.4279,5.2727,0.1,0.00043976,4394.6,0.00044096,4430.7,-0.00013899,73.238,-0.00014874,-0.030665,0.22056
6034,6.4279,5.4545,0.1,0.00044136,4410.6,0.00044227,4437.6,-0.00014108,54.605,-0.00014835,-0.033551,0.21944
6035,6.4279,5.6364,0.1,0.00044302,4427.1,0.0004436,4444.6,-0.00014324,35.318,-0.00014795,-0.11381,0.21823
6036,6.4279,5.8182,0.1,0.00044475,4444.5,0.00044501,4452,-0.00014548,15.312,-0.00014754,-0.12368,0.21693
6037,6.6115,0.18182,0.1,0.00043902,4387.1,0.00043924,4393.8,-0.00014374,13.503,-0.00014555,-0.11722,0.22931
6038,6.6115,0.36364,0.1,0.0004374,4371,0.00043793,4386.8,-0.00014166,32.012,-0.00014593,-0.10378,0.23061
6039,6.6115,0.54545,0.1,0.00043586,4355.6,0.00043669,4380.3,-0.00013967,49.791,-0.0001463,-0.030393,0.23181
6040,6.6115,0.72727,0.1,0.00043438,4340.8,0.00043548,4373.9,-0.00013774,66.955,-0.00014665,-0.027942,0.23292
6041,6.6115,0.90909,0.1,0.00043296,4326.7,0.00043432,4367.8,-0.00013589,83.429,-0.00014699,-0.018434,0.23394
6042,6.6115,1.0909,0.1,0.00043162,4313.2,0.00043322,4361.9,-0.00013413,99.077,-0.00014731,-0.013642,0.23487
6043,6.6115,1.2727,0.1,0.00043035,4300.5,0.00043217,4356.3,-0.00013247,113.77,-0.00014761,-0.0093613,0.23572
6044,6.6115,1.4545,0.1,0.00042918,4288.8,0.0004312,4351.1,-0.00013094,127.4,-0.00014789,-0.0060146,0.23647
6045,6.6115,1.6364,0.1,0.00042811,4278.1,0.00043031,4346.3,-0.00012953,139.83,-0.00014814,-0.0031968,0.23714
6046,6.6115,1.8182,0.1,0.00042715,4268.5,0.00042951,4342,-0.00012828,150.96,-0.00014837,-0.00084994,0.23772
6047,6.6115,2,0.1,0.00042631,4260.2,0.00042882,4338.2,-0.00012718,160.69,-0.00014857,0.0011037,0.23822
6048,6.6115,2.1818,0.1,0.0004256,4253.1,0.00042822,4335,-0.00012625,168.95,-0.00014873,0.0027003,0.23863
6049,6.6115,2.3636,0.1,0.00042502,4247.3,0.00042774,4332.4,-0.00012549,175.64,-0.00014887,0.0039609,0.23896
6050,6.6115,2.5455,0.1,0.00042459,4242.9,0.00042737,4330.4,-0.00012492,180.72,-0.00014897,0.004897,0.23921
6051,6.6115,2.7273,0.1,0.00042429,4240,0.00042713,4329.1,-0.00012453,184.13,-0.00014904,0.0055191,0.23937
6052,6.6115,2.9091,0.1,0.00042415,4238.5,0.000427,4328.4,-0.00012434,185.84,-0.00014907,0.0058295,0.23946
6053,6.6115,3.0909,0.1,0.00042415,4238.5,0.000427,4328.4,-0.00012434,185.84,-0.00014907,0.0058296,0.23946
6054,6.6115,3.2727,0.1,0.00042429,4240,0.00042713,4329.1,-0.00012453,184.13,-0.00014904,0.0055192,0.23937
6055,6.6115,3.4545,0.1,0.00042459,4242.9,0.00042737,4330.4,-0.00012492,180.72,-0.00014897,0.0048971,0.23921
6056,6.6115,3.6364,0.1,0.00042502,4247.3,0.00042774,4332.4,-0.00012549,175.64,-0.00014887,0.0039611,0.23896
6057,6.6115,3.8182,0.1,0.0004256,4253.1,0.00042822,4335,-0.00012625,168.95,-0.00014873,0.0027007,0.23863
6058,6.6115,4,0.1,0.00042631,4260.2,0.00042882,4338.2,-0.00012718,160.69,-0.00014857,0.0011043,0.23822
6059,6.6115,4.1818,0.1,0.00042715,4268.5,0.00042951,4342,-0.00012828,150.96,-0.00014837,-0.00084952,0.23772
6060,6.6115,4.3636,0.1,0.00042811,4278.1,0.00043031,4346.3,-0.00012953,139.83,-0.00014814,-0.0031961,0.23714
6061,6.6115,4.5455,0.1,0.00042918,4288.8,0.0004312,4351.1,-0.00013094,127.4,-0.00014789,-0.0060139,0.23647
6062,6.6115,4.7273,0.1,0.00043035,4300.5,0.00043217,4356.3,-0.00013247,113.77,-0.00014761,-0.0093606,0.23572
6063,6.6115,4.9091,0.1,0.00043162,4313.2,0.00043322,4361.9,-0.00013413,99.077,-0.00014731,-0.013642,0.23487
6064,6.6115,5.0909,0.1,0.00043296,4326.7,0.00043432,4367.8,-0.00013589,83.429,-0.00014699,-0.018433,0.23394
6065,6.6115,5.2727,0.1,0.00043438,4340.8,0.00043548,4373.9,-0.00013774,66.955,-0.00014665,-0.027941,0.23292
6066,6.6115,5.4545,0.1,0.00043586,4355.6,0.00043669,4380.3,-0.00013967,49.791,-0.0001463,-0.030392,0.23181
6067,6.6115,5.6364,0.1,0.0004374,4371,0.00043793,4386.8,-0.00014166,32.012,-0.00014593,-0.10377,0.23061
6068,6.6115,5.8182,0.1,0.00043902,4387.1,0.00043924,4393.8,-0.00014374,13.503,-0.00014555,-0.11722,0.22931
6069,6.7952,0.18182,0.1,0.00043332,4330.2,0.00043351,4336,-0.000142,11.78,-0.00014359,-0.11252,0.24199
6070,6.7952,0.36364,0.1,0.00043181,4315.1,0.00043229,4329.4,-0.00014007,28.908,-0.00014393,-0.094562,0.24328
6071,6.7952,0.54545,0.1,0.00043039,4300.9,0.00043114,4323.4,-0.00013824,45.295,-0.00014427,-0.027508,0.24447
6072,6.7952,0.72727,0.1,0.00042902,4287.2,0.00043002,4317.4,-0.00013646,61.103,-0.00014459,-0.025447,0.24558
6073,6.7952,0.90909,0.1,0.0004277,4274.1,0.00042895,4311.7,-0.00013475,76.268,-0.0001449,-0.016866,0.2466
6074,6.7952,1.0909,0.1,0.00042646,4261.6,0.00042793,4306.2,-0.00013313,90.667,-0.0001452,-0.012571,0.24752
6075,6.7952,1.2727,0.1,0.00042529,4249.9,0.00042696,4301.1,-0.00013161,104.18,-0.00014547,-0.0087191,0.24836
6076,6.7952,1.4545,0.1,0.0004242,4239.1,0.00042607,4296.2,-0.00013019,116.71,-0.00014573,-0.0057078,0.24911
6077,6.7952,1.6364,0.1,0.00042321,4229.2,0.00042525,4291.8,-0.00012891,128.13,-0.00014596,-0.0031689,0.24978
6078,6.7952,1.8182,0.1,0.00042233,4220.4,0.00042451,4287.8,-0.00012775,138.35,-0.00014617,-0.0010526,0.25036
6079,6.7952,2,0.1,0.00042155,4212.6,0.00042387,4284.3,-0.00012674,147.29,-0.00014634,0.00071051,0.25086
6080,6.7952,2.1818,0.1,0.0004209,4206.1,0.00042332,4281.4,-0.00012589,154.87,-0.0001465,0.0021523,0.25127
6081,6.7952,2.3636,0.1,0.00042037,4200.8,0.00042287,4279,-0.00012519,161.01,-0.00014662,0.0032911,0.2516
6082,6.7952,2.5455,0.1,0.00041996,4196.7,0.00042254,4277.1,-0.00012466,165.67,-0.00014671,0.0041373,0.25185
6083,6.7952,2.7273,0.1,0.00041969,4194,0.00042231,4275.9,-0.00012431,168.8,-0.00014678,0.0046998,0.25201
6084,6.7952,2.9091,0.1,0.00041956,4192.7,0.0004222,4275.3,-0.00012413,170.37,-0.00014681,0.0049807,0.25209
6085,6.7952,3.0909,0.1,0.00041956,4192.7,0.0004222,4275.3,-0.00012413,170.37,-0.00014681,0.0049806,0.25209
6086,6.7952,3.2727,0.1,0.00041969,4194,0.00042231,4275.9,-0.00012431,168.8,-0.00014678,0.0046998,0.25201
6087,6.7952,3.4545,0.1,0.00041996,4196.7,0.00042254,4277.1,-0.00012466,165.67,-0.00014671,0.0041375,0.25185
6088,6.7952,3.6364,0.1,0.00042037,4200.8,0.00042287,4279,-0.00012519,161.01,-0.00014662,0.0032914,0.2516
6089,6.7952,3.8182,0.1,0.0004209,4206.1,0.00042332,4281.4,-0.00012589,154.87,-0.0001465,0.0021526,0.25127
6090,6.7952,4,0.1,0.00042155,4212.6,0.00042387,4284.3,-0.00012674,147.29,-0.00014634,0.00071081,0.25086
6091,6.7952,4.1818,0.1,0.00042233,4220.4,0.00042451,4287.8,-0.00012775,138.35,-0.00014617,-0.0010521,0.25036
6092,6.7952,4.3636,0.1,0.00042321,4229.2,0.00042525,4291.8,-0.00012891,128.13,-0.00014596,-0.0031682,0.24978
6093,6.7952,4.5455,0.1,0.0004242,4239.1,0.00042607,4296.2,-0.00013019,116.71,-0.00014573,-0.0057072,0.24911
6094,6.7952,4.7273,0.1,0.00042529,4249.9,0.00042696,4301.1,-0.00013161,104.18,-0.00014547,-0.0087184,0.24836
6095,6.7952,4.9091,0.1,0.00042646,4261.6,0.00042793,4306.2,-0.00013313,90.667,-0.0001452,-0.01257,0.24752
6096,6.7952,5.0909,0.1,0.0004277,4274.1,0.00042895,4311.7,-0.00013475,76.268,-0.0001449,-0.016864,0.2466
6097,6.7952,5.2727,0.1,0.00042902,4287.2,0.00043002,4317.4,-0.00013646,61.103,-0.00014459,-0.025446,0.24558
6098,6.7952,5.4545,0.1,0.00043039,4300.9,0.00043114,4323.4,-0.00013824,45.295,-0.00014427,-0.027508,0.24447
6099,6.7952,5.6364,0.1,0.00043181,4315.1,0.00043229,4329.4,-0.00014007,28.908,-0.00014393,-0.09456,0.24328
6100,6.7952,5.8182,0.1,0.00043332,4330.2,0.00043351,4336,-0.000142,11.78,-0.00014359,-0.11251,0.24199
6101,6.9788,0.18182,0.1,0.00042766,4273.6,0.00042783,4278.6,-0.00014027,10.141,-0.00014164,-0.10966,0.25495
6102,6.9788,0.36364,0.1,0.00042625,4259.5,0.00042668,4272.4,-0.00013848,25.996,-0.00014195,-0.086104,0.25624
6103,6.9788,0.54545,0.1,0.00042493,4246.4,0.00042562,4266.8,-0.00013679,41.097,-0.00014226,-0.024873,0.25743
6104,6.9788,0.72727,0.1,0.00042366,4233.7,0.00042458,4261.3,-0.00013515,55.654,-0.00014256,-0.023162,0.25853
6105,6.9788,0.90909,0.1,0.00042245,4221.6,0.00042359,4255.9,-0.00013358,69.613,-0.00014284,-0.015434,0.25954
6106,6.9788,1.0909,0.1,0.00042129,4210,0.00042264,4250.9,-0.00013208,82.86,-0.00014311,-0.011595,0.26046
6107,6.9788,1.2727,0.1,0.00042021,4199.2,0.00042175,4246.1,-0.00013068,95.29,-0.00014336,-0.0081393,0.2613
6108,6.9788,1.4545,0.1,0.00041921,4189.2,0.00042092,4241.6,-0.00012938,106.8,-0.0001436,-0.0054363,0.26204
6109,6.9788,1.6364,0.1,0.0004183,4180.1,0.00042017,4237.5,-0.0001282,117.3,-0.00014381,-0.0031539,0.26271
6110,6.9788,1.8182,0.1,0.00041748,4171.9,0.00041949,4233.8,-0.00012713,126.69,-0.000144,-0.0012501,0.26329
6111,6.9788,2,0.1,0.00041676,4164.8,0.00041889,4230.6,-0.00012621,134.9,-0.00014416,0.0003376,0.26378
6112,6.9788,2.1818,0.1,0.00041616,4158.7,0.00041839,4227.8,-0.00012542,141.86,-0.0001443,0.0016374,0.26419
6113,6.9788,2.3636,0.1,0.00041567,4153.8,0.00041798,4225.6,-0.00012478,147.49,-0.00014441,0.0026645,0.26452
6114,6.9788,2.5455,0.1,0.0004153,4150.1,0.00041767,4223.9,-0.0001243,151.77,-0.0001445,0.0034275,0.26477
6115,6.9788,2.7273,0.1,0.00041505,4147.6,0.00041746,4222.8,-0.00012397,154.64,-0.00014455,0.0039353,0.26493
6116,6.9788,2.9091,0.1,0.00041492,4146.3,0.00041736,4222.2,-0.00012381,156.08,-0.00014458,0.0041889,0.26501
6117,6.9788,3.0909,0.1,0.00041492,4146.3,0.00041736,4222.2,-0.00012381,156.08,-0.00014458,0.004189,0.26501
6118,6.9788,3.2727,0.1,0.00041505,4147.6,0.00041746,4222.8,-0.00012397,154.64,-0.00014455,0.0039355,0.26493
6119,6.9788,3.4545,0.1,0.0004153,4150.1,0.00041767,4223.9,-0.0001243,151.77,-0.0001445,0.0034279,0.26477
6120,6.9788,3.6364,0.1,0.00041567,4153.8,0.00041798,4225.6,-0.00012478,147.49,-0.00014441,0.0026648,0.26452
6121,6.9788,3.8182,0.1,0.00041616,4158.7,0.00041839,4227.8,-0.00012542,141.86,-0.0001443,0.0016379,0.26419
6122,6.9788,4,0.1,0.00041676,4164.8,0.00041889,4230.6,-0.00012621,134.9,-0.00014416,0.00033826,0.26378
6123,6.9788,4.1818,0.1,0.00041748,4171.9,0.00041949,4233.8,-0.00012713,126.69,-0.000144,-0.0012493,0.26329
6124,6.9788,4.3636,0.1,0.0004183,4180.1,0.00042017,4237.5,-0.0001282,117.3,-0.00014381,-0.0031534,0.26271
6125,6.9788,4.5455,0.1,0.00041921,4189.2,0.00042092,4241.6,-0.00012938,106.8,-0.0001436,-0.0054355,0.26204
6126,6.9788,4.7273,0.1,0.00042021,4199.2,0.00042175,4246.1,-0.00013068,95.29,-0.00014336,-0.0081385,0.2613
6127,6.9788,4.9091,0.1,0.00042129,4210,0.00042264,4250.9,-0.00013208,82.86,-0.00014311,-0.011594,0.26046
6128,6.9788,5.0909,0.1,0.00042245,4221.6,0.00042359,4255.9,-0.00013358,69.613,-0.00014284,-0.015433,0.25954
6129,6.9788,5.2727,0.1,0.00042366,4233.7,0.00042458,4261.3,-0.00013515,55.654,-0.00014256,-0.023162,0.25853
6130,6.9788,5.4545,0.1,0.00042493,4246.4,0.00042562,4266.8,-0.00013679,41.097,-0.00014226,-0.024873,0.25743
6131,6.9788,5.6364,0.1,0.00042625,4259.5,0.00042668,4272.4,-0.00013848,25.996,-0.00014195,-0.086103,0.25624
6132,6.9788,5.8182,0.1,0.00042766,4273.6,0.00042783,4278.6,-0.00014027,10.141,-0.00014164,-0.10966,0.25495
6133,7.1625,0.18182,0.1,0.00042204,4217.4,0.00042218,4221.7,-0.00013855,8.5862,-0.00013971,-0.10892,0.26821
6134,7.1625,0.36364,0.1,0.00042072,4204.3,0.00042111,4215.8,-0.00013689,23.267,-0.00013999,-0.078341,0.26948
6135,7.1625,0.54545,0.1,0.0004195,4192.1,0.00042012,4210.5,-0.00013532,37.18,-0.00014027,-0.022469,0.27067
6136,7.1625,0.72727,0.1,0.00041832,4180.3,0.00041916,4205.4,-0.00013381,50.583,-0.00014055,-0.021074,0.27176
6137,7.1625,0.90909,0.1,0.0004172,4169.1,0.00041824,4200.4,-0.00013236,63.429,-0.00014081,-0.014131,0.27276
6138,7.1625,1.0909,0.1,0.00041613,4158.4,0.00041737,4195.7,-0.00013099,75.615,-0.00014105,-0.010711,0.27368
6139,7.1625,1.2727,0.1,0.00041513,4148.4,0.00041654,4191.3,-0.0001297,87.045,-0.00014128,-0.007619,0.27451
6140,7.1625,1.4545,0.1,0.0004142,4139.2,0.00041578,4187.1,-0.0001285,97.626,-0.00014149,-0.0051997,0.27526
6141,7.1625,1.6364,0.1,0.00041336,4130.7,0.00041508,4183.3,-0.00012741,107.27,-0.00014169,-0.0031534,0.27592
6142,7.1625,1.8182,0.1,0.0004126,4123.2,0.00041445,4179.9,-0.00012643,115.9,-0.00014186,-0.0014444,0.2765
6143,7.1625,2,0.1,0.00041194,4116.6,0.0004139,4176.9,-0.00012558,123.44,-0.00014201,-1.7679e-05,0.27699
6144,7.1625,2.1818,0.1,0.00041138,4111,0.00041344,4174.4,-0.00012486,129.82,-0.00014214,0.0011508,0.2774
6145,7.1625,2.3636,0.1,0.00041093,4106.5,0.00041306,4172.3,-0.00012427,135,-0.00014224,0.002075,0.27773
6146,7.1625,2.5455,0.1,0.00041059,4103.1,0.00041278,4170.8,-0.00012383,138.92,-0.00014232,0.0027621,0.27797
6147,7.1625,2.7273,0.1,0.00041036,4100.7,0.00041258,4169.7,-0.00012353,141.56,-0.00014237,0.0032195,0.27813
6148,7.1625,2.9091,0.1,0.00041024,4099.6,0.00041249,4169.2,-0.00012338,142.88,-0.0001424,0.0034478,0.27822
6149,7.1625,3.0909,0.1,0.00041024,4099.6,0.00041249,4169.2,-0.00012338,142.88,-0.0001424,0.0034479,0.27822
6150,7.1625,3.2727,0.1,0.00041036,4100.7,0.00041258,4169.7,-0.00012353,141.56,-0.00014237,0.0032193,0.27813
6151,7.1625,3.4545,0.1,0.00041059,4103.1,0.00041278,4170.8,-0.00012383,138.92,-0.00014232,0.0027622,0.27797
6152,7.1625,3.6364,0.1,0.00041093,4106.5,0.00041306,4172.3,-0.00012427,135,-0.00014224,0.0020753,0.27773
6153,7.1625,3.8182,0.1,0.00041138,4111,0.00041344,4174.4,-0.00012486,129.82,-0.00014214,0.0011511,0.2774
6154,7.1625,4,0.1,0.00041194,4116.6,0.0004139,4176.9,-0.00012558,123.44,-0.00014201,-1.7319e-05,0.27699
6155,7.1625,4.1818,0.1,0.0004126,4123.2,0.00041445,4179.9,-0.00012643,115.9,-0.00014186,-0.0014439,0.2765
6156,7.1625,4.3636,0.1,0.00041336,4130.7,0.00041508,4183.3,-0.00012741,107.27,-0.00014169,-0.0031528,0.27592
6157,7.1625,4.5455,0.1,0.0004142,4139.2,0.00041578,4187.1,-0.0001285,97.626,-0.00014149,-0.0051992,0.27526
6158,7.1625,4.7273,0.1,0.00041513,4148.4,0.00041654,4191.3,-0.0001297,87.045,-0.00014128,-0.0076184,0.27451
6159,7.1625,4.9091,0.1,0.00041613,4158.4,0.00041737,4195.7,-0.00013099,75.615,-0.00014105,-0.01071,0.27368
6160,7.1625,5.0909,0.1,0.0004172,4169.1,0.00041824,4200.4,-0.00013236,63.429,-0.00014081,-0.014129,0.27276
6161,7.1625,5.2727,0.1,0.00041832,4180.3,0.00041916,4205.4,-0.00013381,50.583,-0.00014055,-0.021073,0.27176
6162,7.1625,5.4545,0.1,0.0004195,4192.1,0.00042012,4210.5,-0.00013532,37.18,-0.00014027,-0.022468,0.27067
6163,7.1625,5.6364,0.1,0.00042072,4204.3,0.00042111,4215.8,-0.00013689,23.267,-0.00013999,-0.07834,0.26948
6164,7.1625,5.8182,0.1,0.00042204,4217.4,0.00042218,4221.7,-0.00013855,8.5862,-0.00013971,-0.10892,0.26821
6165,7.3462,0.18182,0.1,0.00041645,4161.6,0.00041657,4165.1,-0.00013683,7.1137,-0.00013779,-0.11079,0.28175
6166,7.3462,0.36364,0.1,0.00041521,4149.3,0.00041556,4159.5,-0.00013528,20.711,-0.00013805,-0.071209,0.28301
6167,7.3462,0.54545,0.1,0.00041408,4138,0.00041464,4154.6,-0.00013384,33.527,-0.00013831,-0.020269,0.28419
6168,7.3462,0.72727,0.1,0.00041299,4127.1,0.00041376,4149.8,-0.00013245,45.864,-0.00013856,-0.01916,0.28527
6169,7.3462,0.90909,0.1,0.00041195,4116.7,0.0004129,4145.2,-0.00013111,57.684,-0.00013879,-0.012941,0.28627
6170,7.3462,1.0909,0.1,0.00041097,4106.8,0.00041209,4140.8,-0.00012985,68.892,-0.00013902,-0.0099065,0.28719
6171,7.3462,1.2727,0.1,0.00041004,4097.6,0.00041133,4136.7,-0.00012866,79.401,-0.00013923,-0.0071497,0.28801
6172,7.3462,1.4545,0.1,0.00040918,4089,0.00041063,4132.8,-0.00012756,89.125,-0.00013942,-0.0049916,0.28875
6173,7.3462,1.6364,0.1,0.0004084,4081.2,0.00040998,4129.3,-0.00012656,97.986,-0.0001396,-0.0031621,0.28941
6174,7.3462,1.8182,0.1,0.00040771,4074.2,0.0004094,4126.2,-0.00012566,105.91,-0.00013976,-0.0016324,0.28998
6175,7.3462,2,0.1,0.0004071,4068.1,0.0004089,4123.4,-0.00012487,112.83,-0.00013989,-0.00035426,0.29047
6176,7.3462,2.1818,0.1,0.00040658,4063,0.00040847,4121,-0.00012421,118.7,-0.00014001,0.00069415,0.29088
6177,7.3462,2.3636,0.1,0.00040616,4058.8,0.00040812,4119.1,-0.00012367,123.45,-0.0001401,0.0015238,0.29121
6178,7.3462,2.5455,0.1,0.00040584,4055.6,0.00040786,4117.7,-0.00012326,127.05,-0.00014017,0.0021408,0.29145
6179,7.3462,2.7273,0.1,0.00040563,4053.5,0.00040768,4116.7,-0.00012299,129.46,-0.00014022,0.0025518,0.29161
6180,7.3462,2.9091,0.1,0.00040553,4052.5,0.00040759,4116.2,-0.00012285,130.68,-0.00014024,0.0027573,0.2917
6181,7.3462,3.0909,0.1,0.00040553,4052.5,0.00040759,4116.2,-0.00012285,130.68,-0.00014024,0.0027572,0.2917
6182,7.3462,3.2727,0.1,0.00040563,4053.5,0.00040768,4116.7,-0.00012299,129.46,-0.00014022,0.0025518,0.29161
6183,7.3462,3.4545,0.1,0.00040584,4055.6,0.00040786,4117.7,-0.00012326,127.05,-0.00014017,0.0021414,0.29145
6184,7.3462,3.6364,0.1,0.00040616,4058.8,0.00040812,4119.1,-0.00012367,123.45,-0.0001401,0.0015242,0.29121
6185,7.3462,3.8182,0.1,0.00040658,4063,0.00040847,4121,-0.00012421,118.7,-0.00014001,0.00069463,0.29088
6186,7.3462,4,0.1,0.0004071,4068.1,0.0004089,4123.4,-0.00012487,112.83,-0.00013989,-0.00035373,0.29047
6187,7.3462,4.1818,0.1,0.00040771,4074.2,0.0004094,4126.2,-0.00012566,105.91,-0.00013976,-0.0016319,0.28998
6188,7.3462,4.3636,0.1,0.0004084,4081.2,0.00040998,4129.3,-0.00012656,97.986,-0.0001396,-0.0031615,0.28941
6189,7.3462,4.5455,0.1,0.00040918,4089,0.00041063,4132.8,-0.00012756,89.125,-0.00013942,-0.0049905,0.28875
6190,7.3462,4.7273,0.1,0.00041004,4097.6,0.00041133,4136.7,-0.00012866,79.401,-0.00013923,-0.007149,0.28801
6191,7.3462,4.9091,0.1,0.00041097,4106.8,0.00041209,4140.8,-0.00012985,68.892,-0.00013902,-0.0099058,0.28719
6192,7.3462,5.0909,0.1,0.00041195,4116.7,0.0004129,4145.2,-0.00013111,57.684,-0.00013879,-0.012939,0.28627
6193,7.3462,5.2727,0.1,0.00041299,4127.1,0.00041376,4149.8,-0.00013245,45.864,-0.00013856,-0.019159,0.28527
6194,7.3462,5.4545,0.1,0.00041408,4138,0.00041464,4154.6,-0.00013384,33.527,-0.00013831,-0.020269,0.28419
6195,7.3462,5.6364,0.1,0.00041521,4149.3,0.00041556,4159.5,-0.00013528,20.711,-0.00013805,-0.071208,0.28301
6196,7.3462,5.8182,0.1,0.00041645,4161.6,0.00041657,4165.1,-0.00013683,7.1137,-0.00013779,-0.11079,0.28175
6197,7.5298,0.18182,0.1,0.00041089,4106.1,0.00041099,4108.9,-0.00013511,5.7226,-0.00013589,-0.11635,0.29557
6198,7.5298,0.36364,0.1,0.00040973,4094.5,0.00041004,4103.6,-0.00013368,18.318,-0.00013612,-0.064658,0.29683
6199,7.5298,0.54545,0.1,0.00040869,4084,0.00040919,4099,-0.00013235,30.121,-0.00013636,-0.018258,0.29799
6200,7.5298,0.72727,0.1,0.00040768,4074,0.00040837,4094.6,-0.00013106,41.474,-0.00013658,-0.01741,0.29907
6201,7.5298,0.90909,0.1,0.00040672,4064.3,0.00040758,4090.3,-0.00012983,52.346,-0.0001368,-0.011857,0.30006
6202,7.5298,1.0909,0.1,0.0004058,4055.2,0.00040683,4086.2,-0.00012867,62.653,-0.00013701,-0.0091787,0.30097
6203,7.5298,1.2727,0.1,0.00040495,4046.7,0.00040613,4082.3,-0.00012757,72.313,-0.0001372,-0.0067299,0.30179
6204,7.5298,1.4545,0.1,0.00040415,4038.7,0.00040547,4078.8,-0.00012656,81.249,-0.00013738,-0.0048113,0.30253
6205,7.5298,1.6364,0.1,0.00040343,4031.5,0.00040488,4075.5,-0.00012564,89.389,-0.00013754,-0.0031817,0.30318
6206,7.5298,1.8182,0.1,0.00040279,4025.1,0.00040434,4072.6,-0.00012481,96.667,-0.00013768,-0.0018172,0.30375
6207,7.5298,2,0.1,0.00040222,4019.5,0.00040388,4070,-0.00012409,103.02,-0.0001378,-0.00067533,0.30424
6208,7.5298,2.1818,0.1,0.00040175,4014.7,0.00040348,4067.8,-0.00012348,108.4,-0.00013791,0.0002627,0.30464
6209,7.5298,2.3636,0.1,0.00040136,4010.8,0.00040316,4066,-0.00012299,112.76,-0.000138,0.0010054,0.30497
6210,7.5298,2.5455,0.1,0.00040107,4007.9,0.00040292,4064.7,-0.00012261,116.07,-0.00013806,0.0015581,0.30521
6211,7.5298,2.7273,0.1,0.00040087,4006,0.00040275,4063.8,-0.00012236,118.29,-0.0001381,0.0019263,0.30537
6212,7.5298,2.9091,0.1,0.00040077,4005,0.00040267,4063.3,-0.00012223,119.4,-0.00013813,0.0021106,0.30545
6213,7.5298,3.0909,0.1,0.00040077,4005,0.00040267,4063.3,-0.00012223,119.4,-0.00013813,0.0021106,0.30545
6214,7.5298,3.2727,0.1,0.00040087,4006,0.00040275,4063.8,-0.00012236,118.29,-0.0001381,0.0019266,0.30537
6215,7.5298,3.4545,0.1,0.00040107,4007.9,0.00040292,4064.7,-0.00012261,116.07,-0.00013806,0.0015583,0.30521
6216,7.5298,3.6364,0.1,0.00040136,4010.8,0.00040316,4066,-0.00012299,112.76,-0.000138,0.0010055,0.30497
6217,7.5298,3.8182,0.1,0.00040175,4014.7,0.00040348,4067.8,-0.00012348,108.4,-0.00013791,0.000263,0.30464
6218,7.5298,4,0.1,0.00040222,4019.5,0.00040388,4070,-0.00012409,103.02,-0.0001378,-0.00067462,0.30424
6219,7.5298,4.1818,0.1,0.00040279,4025.1,0.00040434,4072.6,-0.00012481,96.667,-0.00013768,-0.0018166,0.30375
6220,7.5298,4.3636,0.1,0.00040343,4031.5,0.00040488,4075.5,-0.00012564,89.389,-0.00013754,-0.0031813,0.30318
6221,7.5298,4.5455,0.1,0.00040415,4038.7,0.00040547,4078.8,-0.00012656,81.249,-0.00013738,-0.0048109,0.30253
6222,7.5298,4.7273,0.1,0.00040495,4046.7,0.00040613,4082.3,-0.00012757,72.313,-0.0001372,-0.0067289,0.30179
6223,7.5298,4.9091,0.1,0.0004058,4055.2,0.00040683,4086.2,-0.00012867,62.653,-0.00013701,-0.0091776,0.30097
6224,7.5298,5.0909,0.1,0.00040672,4064.3,0.00040758,4090.3,-0.00012983,52.346,-0.0001368,-0.011856,0.30006
6225,7.5298,5.2727,0.1,0.00040768,4074,0.00040837,4094.6,-0.00013106,41.474,-0.00013658,-0.017408,0.29907
6226,7.5298,5.4545,0.1,0.00040869,4084,0.00040919,4099,-0.00013235,30.121,-0.00013636,-0.018258,0.29799
6227,7.5298,5.6364,0.1,0.00040973,4094.5,0.00041004,4103.6,-0.00013368,18.318,-0.00013612,-0.064656,0.29683
6228,7.5298,5.8182,0.1,0.00041089,4106.1,0.00041099,4108.9,-0.00013511,5.7226,-0.00013589,-0.11635,0.29557
6229,7.7135,0.18182,0.1,0.00040537,4050.9,0.00040544,4053,-0.0001334,4.4125,-0.000134,-0.12778,0.30967
6230,7.7135,0.36364,0.1,0.00040428,4040,0.00040455,4048,-0.00013207,16.079,-0.00013421,-0.058635,0.31091
6231,7.7135,0.54545,0.1,0.00040331,4030.3,0.00040376,4043.7,-0.00013084,26.945,-0.00013443,-0.016417,0.31207
6232,7.7135,0.72727,0.1,0.00040238,4021,0.000403,4039.6,-0.00012966,37.389,-0.00013463,-0.015805,0.31314
6233,7.7135,0.90909,0.1,0.00040148,4012.1,0.00040227,4035.6,-0.00012852,47.388,-0.00013483,-0.010869,0.31412
6234,7.7135,1.0909,0.1,0.00040064,4003.6,0.00040158,4031.8,-0.00012745,56.863,-0.00013502,-0.0085163,0.31502
6235,7.7135,1.2727,0.1,0.00039985,3995.7,0.00040092,4028.2,-0.00012644,65.741,-0.00013519,-0.0063521,0.31584
6236,7.7135,1.4545,0.1,0.00039911,3988.4,0.00040032,4024.9,-0.00012551,73.951,-0.00013535,-0.0046543,0.31657
6237,7.7135,1.6364,0.1,0.00039845,3981.7,0.00039977,4021.8,-0.00012466,81.427,-0.0001355,-0.0032085,0.31722
6238,7.7135,1.8182,0.1,0.00039785,3975.8,0.00039928,4019.1,-0.0001239,88.11,-0.00013563,-0.0019953,0.31779
6239,7.7135,2,0.1,0.00039733,3970.6,0.00039885,4016.7,-0.00012324,93.945,-0.00013575,-0.00097869,0.31827
6240,7.7135,2.1818,0.1,0.00039689,3966.2,0.00039848,4014.7,-0.00012268,98.884,-0.00013584,-0.00014249,0.31867
6241,7.7135,2.3636,0.1,0.00039654,3962.6,0.00039819,4013.1,-0.00012223,102.89,-0.00013592,0.00052049,0.319
6242,7.7135,2.5455,0.1,0.00039627,3959.9,0.00039796,4011.8,-0.00012188,105.92,-0.00013598,0.0010141,0.31924
6243,7.7135,2.7273,0.1,0.00039608,3958.1,0.00039781,4011,-0.00012165,107.95,-0.00013602,0.001343,0.3194
6244,7.7135,2.9091,0.1,0.00039599,3957.2,0.00039773,4010.6,-0.00012154,108.97,-0.00013604,0.0015079,0.31948
6245,7.7135,3.0909,0.1,0.00039599,3957.2,0.00039773,4010.6,-0.00012154,108.97,-0.00013604,0.0015079,0.31948
6246,7.7135,3.2727,0.1,0.00039608,3958.1,0.00039781,4011,-0.00012165,107.95,-0.00013602,0.0013434,0.3194
6247,7.7135,3.4545,0.1,0.00039627,3959.9,0.00039796,4011.8,-0.00012188,105.92,-0.00013598,0.0010142,0.31924
6248,7.7135,3.6364,0.1,0.00039654,3962.6,0.00039819,4013.1,-0.00012223,102.89,-0.00013592,0.00052097,0.319
6249,7.7135,3.8182,0.1,0.00039689,3966.2,0.00039848,4014.7,-0.00012268,98.884,-0.00013584,-0.00014201,0.31867
6250,7.7135,4,0.1,0.00039733,3970.6,0.00039885,4016.7,-0.00012324,93.945,-0.00013575,-0.00097822,0.31827
6251,7.7135,4.1818,0.1,0.00039785,3975.8,0.00039928,4019.1,-0.0001239,88.11,-0.00013563,-0.0019951,0.31779
6252,7.7135,4.3636,0.1,0.00039845,3981.7,0.00039977,4021.8,-0.00012466,81.427,-0.0001355,-0.0032078,0.31722
6253,7.7135,4.5455,0.1,0.00039911,3988.4,0.00040032,4024.9,-0.00012551,73.951,-0.00013535,-0.0046537,0.31657
6254,7.7135,4.7273,0.1,0.00039985,3995.7,0.00040092,4028.2,-0.00012644,65.741,-0.00013519,-0.0063513,0.31584
6255,7.7135,4.9091,0.1,0.00040064,4003.6,0.00040158,4031.8,-0.00012745,56.863,-0.00013502,-0.0085161,0.31502
6256,7.7135,5.0909,0.1,0.00040148,4012.1,0.00040227,4035.6,-0.00012852,47.388,-0.00013483,-0.010867,0.31412
6257,7.7135,5.2727,0.1,0.00040238,4021,0.000403,4039.6,-0.00012966,37.389,-0.00013463,-0.015804,0.31314
6258,7.7135,5.4545,0.1,0.00040331,4030.3,0.00040376,4043.7,-0.00013084,26.945,-0.00013443,-0.016417,0.31207
6259,7.7135,5.6364,0.1,0.00040428,4040,0.00040455,4048,-0.00013207,16.079,-0.00013421,-0.058634,0.31091
6260,7.7135,5.8182,0.1,0.00040537,4050.9,0.00040544,4053,-0.0001334,4.4125,-0.000134,-0.12778,0.30967
6261,7.8971,0.18182,0.1,0.00039988,3996,0.00039993,3997.5,-0.00013169,3.1858,-0.00013213,-0.15024,0.32404
6262,7.8971,0.36364,0.1,0.00039885,3985.8,0.00039909,3992.7,-0.00013045,13.983,-0.00013232,-0.053095,0.32527
6263,7.8971,0.54545,0.1,0.00039795,3976.8,0.00039835,3988.7,-0.00012932,23.985,-0.00013251,-0.014725,0.32642
6264,7.8971,0.72727,0.1,0.00039709,3968.1,0.00039765,3984.8,-0.00012823,33.59,-0.0001327,-0.014332,0.32748
6265,7.8971,0.90909,0.1,0.00039626,3959.9,0.00039697,3981.1,-0.00012719,42.782,-0.00013288,-0.009964,0.32846
6266,7.8971,1.0909,0.1,0.00039548,3952.1,0.00039633,3977.6,-0.0001262,51.49,-0.00013305,-0.0079128,0.32935
6267,7.8971,1.2727,0.1,0.00039475,3944.7,0.00039573,3974.2,-0.00012527,59.646,-0.00013321,-0.0060094,0.33016
6268,7.8971,1.4545,0.1,0.00039407,3938,0.00039517,3971.1,-0.00012441,67.187,-0.00013336,-0.0045147,0.33089
6269,7.8971,1.6364,0.1,0.00039345,3931.8,0.00039466,3968.3,-0.00012363,74.052,-0.00013349,-0.0032377,0.33153
6270,7.8971,1.8182,0.1,0.0003929,3926.3,0.0003942,3965.8,-0.00012294,80.187,-0.00013361,-0.0021641,0.33209
6271,7.8971,2,0.1,0.00039242,3921.5,0.00039381,3963.6,-0.00012233,85.542,-0.00013371,-0.0012623,0.33257
6272,7.8971,2.1818,0.1,0.00039202,3917.4,0.00039347,3961.7,-0.00012181,90.074,-0.0001338,-0.00051927,0.33297
6273,7.8971,2.3636,0.1,0.00039169,3914.2,0.0003932,3960.2,-0.0001214,93.746,-0.00013387,6.9978e-05,0.3333
6274,7.8971,2.5455,0.1,0.00039144,3911.7,0.00039299,3959,-0.00012108,96.526,-0.00013393,0.00050941,0.33353
6275,7.8971,2.7273,0.1,0.00039127,3910,0.00039285,3958.3,-0.00012087,98.393,-0.00013396,0.00080249,0.33369
6276,7.8971,2.9091,0.1,0.00039119,3909.2,0.00039278,3957.9,-0.00012076,99.33,-0.00013398,0.00094949,0.33377
6277,7.8971,3.0909,0.1,0.00039119,3909.2,0.00039278,3957.9,-0.00012076,99.33,-0.00013398,0.00094949,0.33377
6278,7.8971,3.2727,0.1,0.00039127,3910,0.00039285,3958.3,-0.00012087,98.393,-0.00013396,0.00080255,0.33369
6279,7.8971,3.4545,0.1,0.00039144,3911.7,0.00039299,3959,-0.00012108,96.526,-0.00013393,0.00050964,0.33353
6280,7.8971,3.6364,0.1,0.00039169,3914.2,0.0003932,3960.2,-0.0001214,93.746,-0.00013387,7.0515e-05,0.3333
6281,7.8971,3.8182,0.1,0.00039202,3917.4,0.00039347,3961.7,-0.00012181,90.074,-0.0001338,-0.00051903,0.33297
6282,7.8971,4,0.1,0.00039242,3921.5,0.00039381,3963.6,-0.00012233,85.542,-0.00013371,-0.0012617,0.33257
6283,7.8971,4.1818,0.1,0.0003929,3926.3,0.0003942,3965.8,-0.00012294,80.187,-0.00013361,-0.0021635,0.33209
6284,7.8971,4.3636,0.1,0.00039345,3931.8,0.00039466,3968.3,-0.00012363,74.052,-0.00013349,-0.0032368,0.33153
6285,7.8971,4.5455,0.1,0.00039407,3938,0.00039517,3971.1,-0.00012441,67.187,-0.00013336,-0.0045144,0.33089
6286,7.8971,4.7273,0.1,0.00039475,3944.7,0.00039573,3974.2,-0.00012527,59.646,-0.00013321,-0.0060084,0.33016
6287,7.8971,4.9091,0.1,0.00039548,3952.1,0.00039633,3977.6,-0.0001262,51.49,-0.00013305,-0.0079119,0.32935
6288,7.8971,5.0909,0.1,0.00039626,3959.9,0.00039697,3981.1,-0.00012719,42.782,-0.00013288,-0.0099625,0.32846
6289,7.8971,5.2727,0.1,0.00039709,3968.1,0.00039765,3984.8,-0.00012823,33.59,-0.0001327,-0.014331,0.32748
6290,7.8971,5.4545,0.1,0.00039795,3976.8,0.00039835,3988.7,-0.00012932,23.985,-0.00013251,-0.014725,0.32642
6291,7.8971,5.6364,0.1,0.00039885,3985.8,0.00039909,3992.7,-0.00013045,13.983,-0.00013232,-0.053093,0.32527
6292,7.8971,5.8182,0.1,0.00039988,3996,0.00039993,3997.5,-0.00013169,3.1858,-0.00013213,-0.15024,0.32404
6293,8.0808,0.18182,0.1,0.00039441,3941.4,0.00039444,3942.3,-0.00012997,2.054,-0.00013027,-0.19834,0.33868
6294,8.0808,0.36364,0.1,0.00039345,3931.8,0.00039365,3937.8,-0.00012883,12.024,-0.00013044,-0.048006,0.3399
6295,8.0808,0.54545,0.1,0.00039261,3923.4,0.00039297,3934,-0.00012779,21.226,-0.00013061,-0.01318,0.34104
6296,8.0808,0.72727,0.1,0.00039181,3915.4,0.00039232,3930.4,-0.00012678,30.055,-0.00013079,-0.012988,0.34209
6297,8.0808,0.90909,0.1,0.00039105,3907.8,0.00039169,3926.9,-0.00012582,38.502,-0.00013095,-0.009145,0.34306
6298,8.0808,1.0909,0.1,0.00039032,3900.5,0.00039109,3923.6,-0.00012491,46.502,-0.0001311,-0.0073709,0.34394
6299,8.0808,1.2727,0.1,0.00038965,3893.8,0.00039054,3920.5,-0.00012406,53.992,-0.00013125,-0.0057077,0.34475
6300,8.0808,1.4545,0.1,0.00038902,3887.5,0.00039002,3917.6,-0.00012327,60.916,-0.00013138,-0.0043999,0.34547
6301,8.0808,1.6364,0.1,0.00038845,3881.8,0.00038955,3915,-0.00012256,67.218,-0.0001315,-0.0032777,0.34611
6302,8.0808,1.8182,0.1,0.00038794,3876.7,0.00038913,3912.6,-0.00012192,72.848,-0.00013161,-0.0023322,0.34667
6303,8.0808,2,0.1,0.0003875,3872.3,0.00038876,3910.6,-0.00012136,77.762,-0.00013171,-0.0015362,0.34714
6304,8.0808,2.1818,0.1,0.00038712,3868.5,0.00038845,3908.8,-0.00012088,81.919,-0.00013179,-0.00087889,0.34754
6305,8.0808,2.3636,0.1,0.00038682,3865.5,0.0003882,3907.4,-0.0001205,85.287,-0.00013185,-0.00035661,0.34786
6306,8.0808,2.5455,0.1,0.00038659,3863.2,0.00038801,3906.4,-0.00012021,87.837,-0.0001319,3.2773e-05,0.3481
6307,8.0808,2.7273,0.1,0.00038643,3861.6,0.00038788,3905.6,-0.00012001,89.549,-0.00013193,0.00029262,0.34826
6308,8.0808,2.9091,0.1,0.00038635,3860.9,0.00038781,3905.3,-0.00011992,90.408,-0.00013195,0.00042329,0.34833
6309,8.0808,3.0909,0.1,0.00038635,3860.9,0.00038781,3905.3,-0.00011992,90.408,-0.00013195,0.00042341,0.34833
6310,8.0808,3.2727,0.1,0.00038643,3861.6,0.00038788,3905.6,-0.00012001,89.549,-0.00013193,0.00029292,0.34826
6311,8.0808,3.4545,0.1,0.00038659,3863.2,0.00038801,3906.4,-0.00012021,87.837,-0.0001319,3.2832e-05,0.3481
6312,8.0808,3.6364,0.1,0.00038682,3865.5,0.0003882,3907.4,-0.0001205,85.287,-0.00013185,-0.00035637,0.34786
6313,8.0808,3.8182,0.1,0.00038712,3868.5,0.00038845,3908.8,-0.00012088,81.919,-0.00013179,-0.00087866,0.34754
6314,8.0808,4,0.1,0.0003875,3872.3,0.00038876,3910.6,-0.00012136,77.762,-0.00013171,-0.0015357,0.34714
6315,8.0808,4.1818,0.1,0.00038794,3876.7,0.00038913,3912.6,-0.00012192,72.848,-0.00013161,-0.0023316,0.34667
6316,8.0808,4.3636,0.1,0.00038845,3881.8,0.00038955,3915,-0.00012256,67.218,-0.0001315,-0.0032772,0.34611
6317,8.0808,4.5455,0.1,0.00038902,3887.5,0.00039002,3917.6,-0.00012327,60.916,-0.00013138,-0.0043991,0.34547
6318,8.0808,4.7273,0.1,0.00038965,3893.8,0.00039054,3920.5,-0.00012406,53.992,-0.00013125,-0.0057072,0.34475
6319,8.0808,4.9091,0.1,0.00039032,3900.5,0.00039109,3923.6,-0.00012491,46.502,-0.0001311,-0.0073704,0.34394
6320,8.0808,5.0909,0.1,0.00039105,3907.8,0.00039169,3926.9,-0.00012582,38.502,-0.00013095,-0.0091437,0.34306
6321,8.0808,5.2727,0.1,0.00039181,3915.4,0.00039232,3930.4,-0.00012678,30.055,-0.00013079,-0.012987,0.34209
6322,8.0808,5.4545,0.1,0.00039261,3923.4,0.00039297,3934,-0.00012779,21.225,-0.00013061,-0.01318,0.34104
6323,8.0808,5.6364,0.1,0.00039345,3931.8,0.00039365,3937.8,-0.00012883,12.024,-0.00013044,-0.048005,0.3399
6324,8.0808,5.8182,0.1,0.00039441,3941.4,0.00039444,3942.3,-0.00012997,2.054,-0.00013027,-0.19834,0.33868
6325,8.2644,0.18182,0.1,0.00038898,3887.1,0.00038899,3887.5,-0.00012826,1.0675,-0.00012844,-0.32564,0.35359
6326,8.2644,0.36364,0.1,0.00038807,3878,0.00038824,3883.1,-0.00012721,10.191,-0.00012857,-0.043333,0.3548
6327,8.2644,0.54545,0.1,0.00038729,3870.3,0.00038761,3879.5,-0.00012625,18.653,-0.00012873,-0.011764,0.35592
6328,8.2644,0.72727,0.1,0.00038655,3862.8,0.000387,3876.2,-0.00012532,26.766,-0.00012889,-0.01176,0.35697
6329,8.2644,0.90909,0.1,0.00038584,3855.8,0.00038642,3872.9,-0.00012444,34.525,-0.00012903,-0.0084029,0.35792
6330,8.2644,1.0909,0.1,0.00038517,3849.1,0.00038587,3869.8,-0.0001236,41.871,-0.00012918,-0.0068835,0.3588
6331,8.2644,1.2727,0.1,0.00038454,3842.8,0.00038535,3866.9,-0.00012282,48.747,-0.00012931,-0.0054414,0.3596
6332,8.2644,1.4545,0.1,0.00038396,3837,0.00038487,3864.3,-0.00012209,55.101,-0.00012943,-0.004305,0.36031
6333,8.2644,1.6364,0.1,0.00038344,3831.7,0.00038444,3861.8,-0.00012144,60.883,-0.00012954,-0.0033254,0.36095
6334,8.2644,1.8182,0.1,0.00038297,3827,0.00038405,3859.6,-0.00012085,66.048,-0.00012964,-0.0024971,0.3615
6335,8.2644,2,0.1,0.00038256,3822.9,0.00038371,3857.7,-0.00012033,70.555,-0.00012972,-0.0017981,0.36197
6336,8.2644,2.1818,0.1,0.00038221,3819.5,0.00038342,3856.1,-0.0001199,74.367,-0.0001298,-0.0012195,0.36237
6337,8.2644,2.3636,0.1,0.00038193,3816.7,0.00038319,3854.8,-0.00011955,77.455,-0.00012985,-0.00075894,0.36268
6338,8.2644,2.5455,0.1,0.00038172,3814.5,0.00038301,3853.8,-0.00011928,79.793,-0.0001299,-0.0004152,0.36292
6339,8.2644,2.7273,0.1,0.00038157,3813.1,0.00038289,3853.1,-0.0001191,81.362,-0.00012993,-0.00018528,0.36308
6340,8.2644,2.9091,0.1,0.0003815,3812.4,0.00038283,3852.8,-0.00011901,82.15,-0.00012994,-7.02e-05,0.36316
6341,8.2644,3.0909,0.1,0.0003815,3812.4,0.00038283,3852.8,-0.00011901,82.15,-0.00012994,-7.0021e-05,0.36316
6342,8.2644,3.2727,0.1,0.00038157,3813.1,0.00038289,3853.1,-0.0001191,81.362,-0.00012993,-0.00018522,0.36308
6343,8.2644,3.4545,0.1,0.00038172,3814.5,0.00038301,3853.8,-0.00011928,79.793,-0.0001299,-0.00041514,0.36292
6344,8.2644,3.6364,0.1,0.00038193,3816.7,0.00038319,3854.8,-0.00011955,77.455,-0.00012985,-0.00075858,0.36268
6345,8.2644,3.8182,0.1,0.00038221,3819.5,0.00038342,3856.1,-0.0001199,74.367,-0.0001298,-0.0012194,0.36237
6346,8.2644,4,0.1,0.00038256,3822.9,0.00038371,3857.7,-0.00012033,70.555,-0.00012972,-0.0017975,0.36197
6347,8.2644,4.1818,0.1,0.00038297,3827,0.00038405,3859.6,-0.00012085,66.048,-0.00012964,-0.0024966,0.3615
6348,8.2644,4.3636,0.1,0.00038344,3831.7,0.00038444,3861.8,-0.00012144,60.883,-0.00012954,-0.0033248,0.36095
6349,8.2644,4.5455,0.1,0.00038396,3837,0.00038487,3864.3,-0.00012209,55.101,-0.00012943,-0.0043042,0.36031
6350,8.2644,4.7273,0.1,0.00038454,3842.8,0.00038535,3866.9,-0.00012282,48.747,-0.00012931,-0.0054407,0.3596
6351,8.2644,4.9091,0.1,0.00038517,3849.1,0.00038587,3869.8,-0.0001236,41.871,-0.00012918,-0.0068828,0.3588
6352,8.2644,5.0909,0.1,0.00038584,3855.8,0.00038642,3872.9,-0.00012444,34.525,-0.00012903,-0.0084015,0.35792
6353,8.2644,5.2727,0.1,0.00038655,3862.8,0.000387,3876.2,-0.00012532,26.766,-0.00012889,-0.011759,0.35697
6354,8.2644,5.4545,0.1,0.00038729,3870.3,0.00038761,3879.5,-0.00012625,18.653,-0.00012873,-0.011764,0.35592
6355,8.2644,5.6364,0.1,0.00038807,3878,0.00038824,3883.1,-0.00012721,10.191,-0.00012857,-0.043331,0.3548
6356,8.2644,5.8182,0.1,0.00038898,3887.1,0.00038899,3887.5,-0.00012826,1.0675,-0.00012844,-0.32565,0.35359
6357,8.4481,0.18182,0.1,0.00038357,3833,0.00038356,3832.9,-0.00012651,0.41225,-0.00012666,-0.72135,0.36876
6358,8.4481,0.36364,0.1,0.00038271,3824.5,0.00038286,3828.7,-0.00012558,8.4771,-0.00012672,-0.039043,0.36995
6359,8.4481,0.54545,0.1,0.00038199,3817.3,0.00038227,3825.4,-0.0001247,16.256,-0.00012686,-0.010466,0.37107
6360,8.4481,0.72727,0.1,0.0003813,3810.4,0.0003817,3822.2,-0.00012385,23.706,-0.000127,-0.010638,0.3721
6361,8.4481,0.90909,0.1,0.00038065,3803.8,0.00038116,3819.2,-0.00012303,30.828,-0.00012714,-0.0077294,0.37305
6362,8.4481,1.0909,0.1,0.00038003,3797.6,0.00038065,3816.3,-0.00012226,37.569,-0.00012727,-0.0064447,0.37392
6363,8.4481,1.2727,0.1,0.00037945,3791.8,0.00038017,3813.6,-0.00012154,43.878,-0.00012738,-0.0052058,0.37471
6364,8.4481,1.4545,0.1,0.00037891,3786.5,0.00037973,3811.1,-0.00012088,49.707,-0.00012749,-0.0042266,0.37542
6365,8.4481,1.6364,0.1,0.00037842,3781.6,0.00037933,3808.8,-0.00012027,55.01,-0.00012759,-0.0033772,0.37605
6366,8.4481,1.8182,0.1,0.00037799,3777.3,0.00037897,3806.8,-0.00011973,59.745,-0.00012768,-0.0026567,0.37659
6367,8.4481,2,0.1,0.00037761,3773.5,0.00037865,3805,-0.00011926,63.877,-0.00012776,-0.0020464,0.37706
6368,8.4481,2.1818,0.1,0.00037729,3770.3,0.00037839,3803.5,-0.00011886,67.371,-0.00012783,-0.00154,0.37746
6369,8.4481,2.3636,0.1,0.00037703,3767.7,0.00037817,3802.3,-0.00011854,70.201,-0.00012788,-0.001136,0.37777
6370,8.4481,2.5455,0.1,0.00037683,3765.7,0.00037801,3801.4,-0.00011829,72.343,-0.00012792,-0.00083424,0.378
6371,8.4481,2.7273,0.1,0.0003767,3764.4,0.0003779,3800.7,-0.00011813,73.781,-0.00012795,-0.00063215,0.37816
6372,8.4481,2.9091,0.1,0.00037663,3763.7,0.00037785,3800.4,-0.00011805,74.503,-0.00012796,-0.00053036,0.37824
6373,8.4481,3.0909,0.1,0.00037663,3763.7,0.00037785,3800.4,-0.00011805,74.503,-0.00012796,-0.00053048,0.37824
6374,8.4481,3.2727,0.1,0.0003767,3764.4,0.0003779,3800.7,-0.00011813,73.781,-0.00012795,-0.00063203,0.37816
6375,8.4481,3.4545,0.1,0.00037683,3765.7,0.00037801,3801.4,-0.00011829,72.343,-0.00012792,-0.00083394,0.378
6376,8.4481,3.6364,0.1,0.00037703,3767.7,0.00037817,3802.3,-0.00011854,70.201,-0.00012788,-0.0011356,0.37777
6377,8.4481,3.8182,0.1,0.00037729,3770.3,0.00037839,3803.5,-0.00011886,67.371,-0.00012783,-0.0015395,0.37746
6378,8.4481,4,0.1,0.00037761,3773.5,0.00037865,3805,-0.00011926,63.877,-0.00012776,-0.0020459,0.37706
6379,8.4481,4.1818,0.1,0.00037799,3777.3,0.00037897,3806.8,-0.00011973,59.745,-0.00012768,-0.0026563,0.37659
6380,8.4481,4.3636,0.1,0.00037842,3781.6,0.00037933,3808.8,-0.00012027,55.01,-0.00012759,-0.0033767,0.37605
6381,8.4481,4.5455,0.1,0.00037891,3786.5,0.00037973,3811.1,-0.00012088,49.707,-0.00012749,-0.0042258,0.37542
6382,8.4481,4.7273,0.1,0.00037945,3791.8,0.00038017,3813.6,-0.00012154,43.878,-0.00012738,-0.0052052,0.37471
6383,8.4481,4.9091,0.1,0.00038003,3797.6,0.00038065,3816.3,-0.00012226,37.569,-0.00012727,-0.0064443,0.37392
6384,8.4481,5.0909,0.1,0.00038065,3803.8,0.00038116,3819.2,-0.00012303,30.828,-0.00012714,-0.0077281,0.37305
6385,8.4481,5.2727,0.1,0.0003813,3810.4,0.0003817,3822.2,-0.00012385,23.706,-0.000127,-0.010637,0.3721
6386,8.4481,5.4545,0.1,0.00038199,3817.3,0.00038227,3825.4,-0.0001247,16.256,-0.00012686,-0.010466,0.37107
6387,8.4481,5.6364,0.1,0.00038271,3824.5,0.00038286,3828.7,-0.00012558,8.4771,-0.00012672,-0.039042,0.36995
6388,8.4481,5.8182,0.1,0.00038357,3833,0.00038356,3832.9,-0.00012651,0.41225,-0.00012666,-0.72136,0.36876
6389,8.6317,0.18182,0.1,0.00037819,3779.3,0.00037817,3778.6,-0.00012471,0.1731,-0.00012493,-1.4735,0.38418
6390,8.6317,0.36364,0.1,0.00037738,3771.2,0.00037749,3774.6,-0.00012396,6.8739,-0.00012488,-0.035117,0.38537
6391,8.6317,0.54545,0.1,0.00037671,3764.5,0.00037694,3771.5,-0.00012314,14.02,-0.00012501,-0.0092754,0.38647
6392,8.6317,0.72727,0.1,0.00037607,3758.1,0.00037642,3768.5,-0.00012236,20.856,-0.00012514,-0.009615,0.38749
6393,8.6317,0.90909,0.1,0.00037546,3752,0.00037592,3765.6,-0.00012161,27.39,-0.00012526,-0.007122,0.38843
6394,8.6317,1.0909,0.1,0.00037489,3746.3,0.00037545,3763,-0.0001209,33.573,-0.00012537,-0.0060527,0.38929
6395,8.6317,1.2727,0.1,0.00037435,3740.9,0.000375,3760.4,-0.00012024,39.357,-0.00012548,-0.0049998,0.39008
6396,8.6317,1.4545,0.1,0.00037385,3736,0.00037459,3758.1,-0.00011963,44.7,-0.00012558,-0.004164,0.39078
6397,8.6317,1.6364,0.1,0.0003734,3731.5,0.00037422,3756,-0.00011907,49.56,-0.00012567,-0.0034342,0.3914
6398,8.6317,1.8182,0.1,0.000373,3727.4,0.00037389,3754.1,-0.00011858,53.899,-0.00012575,-0.0028123,0.39194
6399,8.6317,2,0.1,0.00037265,3723.9,0.0003736,3752.4,-0.00011814,57.684,-0.00012582,-0.0022831,0.39241
6400,8.6317,2.1818,0.1,0.00037235,3721,0.00037335,3751,-0.00011778,60.885,-0.00012588,-0.0018426,0.3928
6401,8.6317,2.3636,0.1,0.00037212,3718.6,0.00037315,3749.9,-0.00011748,63.477,-0.00012593,-0.0014903,0.39311
6402,8.6317,2.5455,0.1,0.00037193,3716.8,0.000373,3749.1,-0.00011726,65.439,-0.00012597,-0.0012267,0.39334
6403,8.6317,2.7273,0.1,0.00037181,3715.6,0.0003729,3748.5,-0.00011711,66.756,-0.00012599,-0.00105,0.3935
6404,8.6317,2.9091,0.1,0.00037175,3714.9,0.00037285,3748.2,-0.00011703,67.417,-0.000126,-0.00096104,0.39357
6405,8.6317,3.0909,0.1,0.00037175,3714.9,0.00037285,3748.2,-0.00011703,67.417,-0.000126,-0.00096098,0.39357
6406,8.6317,3.2727,0.1,0.00037181,3715.6,0.0003729,3748.5,-0.00011711,66.756,-0.00012599,-0.0010497,0.3935
6407,8.6317,3.4545,0.1,0.00037193,3716.8,0.000373,3749.1,-0.00011726,65.439,-0.00012597,-0.0012266,0.39334
6408,8.6317,3.6364,0.1,0.00037212,3718.6,0.00037315,3749.9,-0.00011748,63.477,-0.00012593,-0.0014899,0.39311
6409,8.6317,3.8182,0.1,0.00037235,3721,0.00037335,3751,-0.00011778,60.885,-0.00012588,-0.0018422,0.3928
6410,8.6317,4,0.1,0.00037265,3723.9,0.0003736,3752.4,-0.00011814,57.684,-0.00012582,-0.0022826,0.39241
6411,8.6317,4.1818,0.1,0.000373,3727.4,0.00037389,3754.1,-0.00011858,53.899,-0.00012575,-0.0028117,0.39194
6412,8.6317,4.3636,0.1,0.0003734,3731.5,0.00037422,3756,-0.00011907,49.56,-0.00012567,-0.0034337,0.3914
6413,8.6317,4.5455,0.1,0.00037385,3736,0.00037459,3758.1,-0.00011963,44.7,-0.00012558,-0.0041634,0.39078
6414,8.6317,4.7273,0.1,0.00037435,3740.9,0.000375,3760.4,-0.00012024,39.357,-0.00012548,-0.0049988,0.39008
6415,8.6317,4.9091,0.1,0.00037489,3746.3,0.00037545,3763,-0.0001209,33.573,-0.00012537,-0.0060521,0.38929
6416,8.6317,5.0909,0.1,0.00037546,3752,0.00037592,3765.6,-0.00012161,27.39,-0.00012526,-0.0071204,0.38843
6417,8.6317,5.2727,0.1,0.00037607,3758.1,0.00037642,3768.5,-0.00012236,20.856,-0.00012514,-0.009614,0.38749
6418,8.6317,5.4545,0.1,0.00037671,3764.5,0.00037694,3771.5,-0.00012314,14.019,-0.00012501,-0.0092752,0.38647
6419,8.6317,5.6364,0.1,0.00037738,3771.2,0.00037749,3774.6,-0.00012396,6.8739,-0.00012488,-0.035116,0.38537
6420,8.6317,5.8182,0.1,0.00037819,3779.3,0.00037817,3778.6,-0.00012471,0.1731,-0.00012493,-1.4735,0.38418
6421,8.8154,0.18182,0.1,0.00037283,3725.8,0.0003728,3724.6,-0.00012291,0.094142,-0.00012323,-2.3294,0.39987
6422,8.8154,0.36364,0.1,0.00037207,3718.1,0.00037216,3720.8,-0.00012233,5.374,-0.00012305,-0.031551,0.40104
6423,8.8154,0.54545,0.1,0.00037144,3711.9,0.00037164,3717.8,-0.00012158,11.934,-0.00012317,-0.0081881,0.40213
6424,8.8154,0.72727,0.1,0.00037085,3706,0.00037116,3715,-0.00012086,18.203,-0.00012328,-0.0086885,0.40314
6425,8.8154,0.90909,0.1,0.00037029,3700.3,0.00037069,3712.4,-0.00012017,24.192,-0.00012339,-0.0065797,0.40407
6426,8.8154,1.0909,0.1,0.00036976,3695,0.00037025,3709.8,-0.00011952,29.857,-0.0001235,-0.0057071,0.40492
6427,8.8154,1.2727,0.1,0.00036926,3690,0.00036984,3707.5,-0.00011891,35.157,-0.00012359,-0.0048241,0.4057
6428,8.8154,1.4545,0.1,0.0003688,3685.5,0.00036946,3705.3,-0.00011835,40.051,-0.00012368,-0.0041197,0.40639
6429,8.8154,1.6364,0.1,0.00036838,3681.3,0.00036912,3703.3,-0.00011784,44.501,-0.00012376,-0.0034985,0.40701
6430,8.8154,1.8182,0.1,0.00036801,3677.6,0.00036881,3701.6,-0.00011739,48.474,-0.00012384,-0.0029661,0.40755
6431,8.8154,2,0.1,0.00036769,3674.3,0.00036854,3700,-0.00011699,51.939,-0.0001239,-0.0025112,0.40801
6432,8.8154,2.1818,0.1,0.00036741,3671.6,0.00036832,3698.7,-0.00011665,54.869,-0.00012395,-0.0021306,0.40839
6433,8.8154,2.3636,0.1,0.00036719,3669.4,0.00036813,3697.7,-0.00011638,57.241,-0.000124,-0.0018257,0.4087
6434,8.8154,2.5455,0.1,0.00036703,3667.7,0.00036799,3696.9,-0.00011617,59.037,-0.00012403,-0.0015974,0.40893
6435,8.8154,2.7273,0.1,0.00036691,3666.6,0.0003679,3696.3,-0.00011604,60.242,-0.00012405,-0.0014434,0.40908
6436,8.8154,2.9091,0.1,0.00036686,3666,0.00036785,3696.1,-0.00011597,60.847,-0.00012406,-0.0013662,0.40916
6437,8.8154,3.0909,0.1,0.00036686,3666,0.00036785,3696.1,-0.00011597,60.847,-0.00012406,-0.0013664,0.40916
6438,8.8154,3.2727,0.1,0.00036691,3666.6,0.0003679,3696.3,-0.00011604,60.242,-0.00012405,-0.0014434,0.40908
6439,8.8154,3.4545,0.1,0.00036703,3667.7,0.00036799,3696.9,-0.00011617,59.037,-0.00012403,-0.0015971,0.40893
6440,8.8154,3.6364,0.1,0.00036719,3669.4,0.00036813,3697.7,-0.00011638,57.241,-0.000124,-0.0018254,0.4087
6441,8.8154,3.8182,0.1,0.00036741,3671.6,0.00036832,3698.7,-0.00011665,54.869,-0.00012395,-0.0021303,0.40839
6442,8.8154,4,0.1,0.00036769,3674.3,0.00036854,3700,-0.00011699,51.939,-0.0001239,-0.0025107,0.40801
6443,8.8154,4.1818,0.1,0.00036801,3677.6,0.00036881,3701.6,-0.00011739,48.474,-0.00012384,-0.0029657,0.40755
6444,8.8154,4.3636,0.1,0.00036838,3681.3,0.00036912,3703.3,-0.00011784,44.501,-0.00012376,-0.003498,0.40701
6445,8.8154,4.5455,0.1,0.0003688,3685.5,0.00036946,3705.3,-0.00011835,40.051,-0.00012368,-0.004119,0.40639
6446,8.8154,4.7273,0.1,0.00036926,3690,0.00036984,3707.5,-0.00011891,35.157,-0.00012359,-0.0048232,0.4057
6447,8.8154,4.9091,0.1,0.00036976,3695,0.00037025,3709.8,-0.00011952,29.857,-0.0001235,-0.0057066,0.40492
6448,8.8154,5.0909,0.1,0.00037029,3700.3,0.00037069,3712.4,-0.00012017,24.192,-0.00012339,-0.0065782,0.40407
6449,8.8154,5.2727,0.1,0.00037085,3706,0.00037116,3715,-0.00012086,18.203,-0.00012328,-0.0086875,0.40314
6450,8.8154,5.4545,0.1,0.00037144,3711.9,0.00037164,3717.8,-0.00012158,11.934,-0.00012317,-0.0081877,0.40213
6451,8.8154,5.6364,0.1,0.00037207,3718.1,0.00037216,3720.8,-0.00012233,5.3739,-0.00012305,-0.03155,0.40104
6452,8.8154,5.8182,0.1,0.00037283,3725.8,0.0003728,3724.6,-0.00012291,0.094143,-0.00012323,-2.3294,0.39987
6453,8.999,0.18182,0.1,0.0003675,3672.5,0.00036745,3670.9,-0.00012111,0.059496,-0.00012154,-3.1764,0.4158
6454,8.999,0.36364,0.1,0.00036678,3665.2,0.00036684,3667.2,-0.0001207,3.9702,-0.00012123,-0.028369,0.41696
6455,8.999,0.54545,0.1,0.0003662,3659.4,0.00036637,3664.4,-0.00012001,9.9866,-0.00012134,-0.0072019,0.41803
6456,8.999,0.72727,0.1,0.00036565,3654,0.00036591,3661.8,-0.00011935,15.73,-0.00012144,-0.0078584,0.41903
6457,8.999,0.90909,0.1,0.00036513,3648.7,0.00036548,3659.3,-0.00011872,21.214,-0.00012154,-0.0061044,0.41996
6458,8.999,1.0909,0.1,0.00036463,3643.8,0.00036507,3656.9,-0.00011812,26.401,-0.00012163,-0.0054111,0.4208
6459,8.999,1.2727,0.1,0.00036417,3639.2,0.00036469,3654.7,-0.00011756,31.252,-0.00012172,-0.0046826,0.42156
6460,8.999,1.4545,0.1,0.00036375,3635,0.00036434,3652.7,-0.00011705,35.73,-0.0001218,-0.0040966,0.42225
6461,8.999,1.6364,0.1,0.00036336,3631.1,0.00036402,3650.9,-0.00011658,39.802,-0.00012188,-0.0035744,0.42286
6462,8.999,1.8182,0.1,0.00036302,3627.7,0.00036374,3649.2,-0.00011616,43.436,-0.00012194,-0.0031237,0.4234
6463,8.999,2,0.1,0.00036272,3624.7,0.00036349,3647.8,-0.0001158,46.605,-0.000122,-0.0027356,0.42385
6464,8.999,2.1818,0.1,0.00036247,3622.2,0.00036328,3646.6,-0.00011549,49.285,-0.00012205,-0.00241,0.42423
6465,8.999,2.3636,0.1,0.00036226,3620.1,0.00036311,3645.6,-0.00011524,51.454,-0.00012209,-0.0021478,0.42454
6466,8.999,2.5455,0.1,0.00036211,3618.6,0.00036298,3644.8,-0.00011505,53.095,-0.00012212,-0.0019512,0.42477
6467,8.999,2.7273,0.1,0.000362,3617.5,0.0003629,3644.3,-0.00011492,54.197,-0.00012214,-0.0018186,0.42492
6468,8.999,2.9091,0.1,0.00036195,3617,0.00036285,3644.1,-0.00011486,54.75,-0.00012215,-0.0017518,0.42499
6469,8.999,3.0909,0.1,0.00036195,3617,0.00036285,3644.1,-0.00011486,54.75,-0.00012215,-0.0017519,0.42499
6470,8.999,3.2727,0.1,0.000362,3617.5,0.0003629,3644.3,-0.00011492,54.197,-0.00012214,-0.0018187,0.42492
6471,8.999,3.4545,0.1,0.00036211,3618.6,0.00036298,3644.8,-0.00011505,53.095,-0.00012212,-0.001951,0.42477
6472,8.999,3.6364,0.1,0.00036226,3620.1,0.00036311,3645.6,-0.00011524,51.454,-0.00012209,-0.0021474,0.42454
6473,8.999,3.8182,0.1,0.00036247,3622.2,0.00036328,3646.6,-0.00011549,49.285,-0.00012205,-0.0024098,0.42423
6474,8.999,4,0.1,0.00036272,3624.7,0.00036349,3647.8,-0.0001158,46.605,-0.000122,-0.0027356,0.42385
6475,8.999,4.1818,0.1,0.00036302,3627.7,0.00036374,3649.2,-0.00011616,43.436,-0.00012194,-0.003123,0.4234
6476,8.999,4.3636,0.1,0.00036336,3631.1,0.00036402,3650.9,-0.00011658,39.802,-0.00012188,-0.0035738,0.42286
6477,8.999,4.5455,0.1,0.00036375,3635,0.00036434,3652.7,-0.00011705,35.73,-0.0001218,-0.0040961,0.42225
6478,8.999,4.7273,0.1,0.00036417,3639.2,0.00036469,3654.7,-0.00011756,31.252,-0.00012172,-0.0046814,0.42156
6479,8.999,4.9091,0.1,0.00036463,3643.8,0.00036507,3656.9,-0.00011812,26.401,-0.00012163,-0.0054106,0.4208
6480,8.999,5.0909,0.1,0.00036513,3648.7,0.00036548,3659.3,-0.00011872,21.214,-0.00012154,-0.0061026,0.41996
6481,8.999,5.2727,0.1,0.00036565,3654,0.00036591,3661.8,-0.00011935,15.73,-0.00012144,-0.0078574,0.41903
6482,8.999,5.4545,0.1,0.0003662,3659.4,0.00036637,3664.4,-0.00012001,9.9866,-0.00012134,-0.0072019,0.41803
6483,8.999,5.6364,0.1,0.00036678,3665.2,0.00036684,3667.2,-0.0001207,3.9702,-0.00012123,-0.028367,0.41696
6484,8.999,5.8182,0.1,0.0003675,3672.5,0.00036745,3670.9,-0.00012111,0.059497,-0.00012154,-3.1764,0.4158
6485,9.1827,0.18182,0.1,0.0003622,3619.5,0.00036213,3617.5,-0.00011932,0.040917,-0.00011986,-3.9893,0.43198
6486,9.1827,0.36364,0.1,0.00036151,3612.6,0.00036155,3613.9,-0.00011907,2.656,-0.00011943,-0.025672,0.43312
6487,9.1827,0.54545,0.1,0.00036097,3607.2,0.00036111,3611.3,-0.00011844,8.1684,-0.00011952,-0.0063056,0.43419
6488,9.1827,0.72727,0.1,0.00036046,3602.1,0.00036069,3608.8,-0.00011783,13.423,-0.00011962,-0.0071168,0.43518
6489,9.1827,0.90909,0.1,0.00035998,3597.3,0.00036029,3606.5,-0.00011725,18.44,-0.0001197,-0.0056881,0.43609
6490,9.1827,1.0909,0.1,0.00035952,3592.7,0.00035991,3604.2,-0.0001167,23.183,-0.00011979,-0.0051563,0.43692
6491,9.1827,1.2727,0.1,0.00035909,3588.5,0.00035955,3602.2,-0.00011619,27.618,-0.00011987,-0.0045667,0.43768
6492,9.1827,1.4545,0.1,0.0003587,3584.5,0.00035923,3600.3,-0.00011572,31.712,-0.00011994,-0.0040879,0.43836
6493,9.1827,1.6364,0.1,0.00035834,3581,0.00035893,3598.6,-0.00011529,35.433,-0.00012,-0.0036542,0.43896
6494,9.1827,1.8182,0.1,0.00035803,3577.8,0.00035867,3597,-0.00011491,38.754,-0.00012006,-0.0032767,0.43949
6495,9.1827,2,0.1,0.00035775,3575,0.00035844,3595.7,-0.00011457,41.649,-0.00012011,-0.0029498,0.43994
6496,9.1827,2.1818,0.1,0.00035752,3572.7,0.00035825,3594.5,-0.00011429,44.096,-0.00012016,-0.002673,0.44032
6497,9.1827,2.3636,0.1,0.00035733,3570.8,0.00035809,3593.6,-0.00011406,46.077,-0.00012019,-0.0024498,0.44062
6498,9.1827,2.5455,0.1,0.00035719,3569.4,0.00035797,3592.9,-0.00011389,47.577,-0.00012022,-0.0022819,0.44085
6499,9.1827,2.7273,0.1,0.00035709,3568.4,0.00035789,3592.5,-0.00011377,48.583,-0.00012024,-0.0021684,0.441
6500,9.1827,2.9091,0.1,0.00035704,3568,0.00035785,3592.2,-0.00011371,49.088,-0.00012025,-0.0021111,0.44107
6501,9.1827,3.0909,0.1,0.00035704,3568,0.00035785,3592.2,-0.00011371,49.088,-0.00012025,-0.0021109,0.44107
6502,9.1827,3.2727,0.1,0.00035709,3568.4,0.00035789,3592.5,-0.00011377,48.583,-0.00012024,-0.0021684,0.441
6503,9.1827,3.4545,0.1,0.00035719,3569.4,0.00035797,3592.9,-0.00011389,47.577,-0.00012022,-0.002282,0.44085
6504,9.1827,3.6364,0.1,0.00035733,3570.8,0.00035809,3593.6,-0.00011406,46.077,-0.00012019,-0.0024496,0.44062
6505,9.1827,3.8182,0.1,0.00035752,3572.7,0.00035825,3594.5,-0.00011429,44.096,-0.00012016,-0.0026728,0.44032
6506,9.1827,4,0.1,0.00035775,3575,0.00035844,3595.7,-0.00011457,41.649,-0.00012011,-0.0029492,0.43994
6507,9.1827,4.1818,0.1,0.00035803,3577.8,0.00035867,3597,-0.00011491,38.754,-0.00012006,-0.0032762,0.43949
6508,9.1827,4.3636,0.1,0.00035834,3581,0.00035893,3598.6,-0.00011529,35.433,-0.00012,-0.0036535,0.43896
6509,9.1827,4.5455,0.1,0.0003587,3584.5,0.00035923,3600.3,-0.00011572,31.712,-0.00011994,-0.0040873,0.43836
6510,9.1827,4.7273,0.1,0.00035909,3588.5,0.00035955,3602.2,-0.00011619,27.618,-0.00011987,-0.0045656,0.43768
6511,9.1827,4.9091,0.1,0.00035952,3592.7,0.00035991,3604.2,-0.0001167,23.183,-0.00011979,-0.0051557,0.43692
6512,9.1827,5.0909,0.1,0.00035998,3597.3,0.00036029,3606.5,-0.00011725,18.44,-0.0001197,-0.0056865,0.43609
6513,9.1827,5.2727,0.1,0.00036046,3602.1,0.00036069,3608.8,-0.00011783,13.423,-0.00011962,-0.007116,0.43518
6514,9.1827,5.4545,0.1,0.00036097,3607.2,0.00036111,3611.3,-0.00011844,8.1684,-0.00011952,-0.0063053,0.43419
6515,9.1827,5.6364,0.1,0.00036151,3612.6,0.00036155,3613.9,-0.00011907,2.656,-0.00011943,-0.025671,0.43312
6516,9.1827,5.8182,0.1,0.0003622,3619.5,0.00036213,3617.5,-0.00011932,0.040917,-0.00011986,-3.9893,0.43198
6517,9.3663,0.18182,0.1,0.00035692,3566.7,0.00035684,3564.3,-0.00011754,0.029663,-0.00011818,-4.7625,0.4484
6518,9.3663,0.36364,0.1,0.00035626,3560.1,0.00035628,3560.8,-0.00011744,1.4255,-0.00011764,-0.024003,0.44953
6519,9.3663,0.54545,0.1,0.00035576,3555.1,0.00035587,3558.4,-0.00011686,6.4691,-0.00011772,-0.0055075,0.45058
6520,9.3663,0.72727,0.1,0.00035529,3550.4,0.00035548,3556,-0.0001163,11.271,-0.0001178,-0.0064716,0.45156
6521,9.3663,0.90909,0.1,0.00035484,3545.9,0.0003551,3553.8,-0.00011577,15.854,-0.00011788,-0.0053385,0.45246
6522,9.3663,1.0909,0.1,0.00035442,3541.7,0.00035475,3551.8,-0.00011527,20.185,-0.00011796,-0.0049495,0.45329
6523,9.3663,1.2727,0.1,0.00035402,3537.8,0.00035443,3549.8,-0.0001148,24.234,-0.00011803,-0.0044823,0.45404
6524,9.3663,1.4545,0.1,0.00035366,3534.1,0.00035413,3548,-0.00011437,27.971,-0.00011809,-0.0040985,0.45471
6525,9.3663,1.6364,0.1,0.00035333,3530.9,0.00035385,3546.4,-0.00011397,31.367,-0.00011815,-0.0037437,0.45531
6526,9.3663,1.8182,0.1,0.00035304,3527.9,0.00035361,3545,-0.00011362,34.397,-0.0001182,-0.0034313,0.45583
6527,9.3663,2,0.1,0.00035278,3525.4,0.0003534,3543.7,-0.00011332,37.038,-0.00011825,-0.0031586,0.45628
6528,9.3663,2.1818,0.1,0.00035257,3523.2,0.00035322,3542.7,-0.00011306,39.271,-0.00011829,-0.0029266,0.45665
6529,9.3663,2.3636,0.1,0.00035239,3521.5,0.00035307,3541.8,-0.00011285,41.078,-0.00011832,-0.0027378,0.45695
6530,9.3663,2.5455,0.1,0.00035226,3520.2,0.00035296,3541.2,-0.00011269,42.445,-0.00011834,-0.002596,0.45717
6531,9.3663,2.7273,0.1,0.00035217,3519.3,0.00035289,3540.8,-0.00011259,43.363,-0.00011836,-0.0024998,0.45732
6532,9.3663,2.9091,0.1,0.00035213,3518.8,0.00035285,3540.5,-0.00011253,43.823,-0.00011837,-0.0024507,0.45739
6533,9.3663,3.0909,0.1,0.00035213,3518.8,0.00035285,3540.5,-0.00011253,43.823,-0.00011837,-0.0024506,0.45739
6534,9.3663,3.2727,0.1,0.00035217,3519.3,0.00035289,3540.8,-0.00011259,43.363,-0.00011836,-0.0024997,0.45732
6535,9.3663,3.4545,0.1,0.00035226,3520.2,0.00035296,3541.2,-0.00011269,42.445,-0.00011834,-0.0025958,0.45717
6536,9.3663,3.6364,0.1,0.00035239,3521.5,0.00035307,3541.8,-0.00011285,41.078,-0.00011832,-0.0027375,0.45695
6537,9.3663,3.8182,0.1,0.00035257,3523.2,0.00035322,3542.7,-0.00011306,39.271,-0.00011829,-0.0029262,0.45665
6538,9.3663,4,0.1,0.00035278,3525.4,0.0003534,3543.7,-0.00011332,37.038,-0.00011825,-0.0031583,0.45628
6539,9.3663,4.1818,0.1,0.00035304,3527.9,0.00035361,3545,-0.00011362,34.397,-0.0001182,-0.003431,0.45583
6540,9.3663,4.3636,0.1,0.00035333,3530.9,0.00035385,3546.4,-0.00011397,31.367,-0.00011815,-0.0037434,0.45531
6541,9.3663,4.5455,0.1,0.00035366,3534.1,0.00035413,3548,-0.00011437,27.971,-0.00011809,-0.0040973,0.45471
6542,9.3663,4.7273,0.1,0.00035402,3537.8,0.00035443,3549.8,-0.0001148,24.234,-0.00011803,-0.0044819,0.45404
6543,9.3663,4.9091,0.1,0.00035442,3541.7,0.00035475,3551.8,-0.00011527,20.185,-0.00011796,-0.0049486,0.45329
6544,9.3663,5.0909,0.1,0.00035484,3545.9,0.0003551,3553.8,-0.00011577,15.854,-0.00011788,-0.0053369,0.45246
6545,9.3663,5.2727,0.1,0.00035529,3550.4,0.00035548,3556,-0.0001163,11.271,-0.0001178,-0.0064704,0.45156
6546,9.3663,5.4545,0.1,0.00035576,3555.1,0.00035587,3558.4,-0.00011686,6.4691,-0.00011772,-0.0055074,0.45058
6547,9.3663,5.6364,0.1,0.00035626,3560.1,0.00035628,3560.8,-0.00011744,1.4255,-0.00011764,-0.024002,0.44953
6548,9.3663,5.8182,0.1,0.00035692,3566.7,0.00035684,3564.3,-0.00011754,0.029664,-0.00011818,-4.7625,0.4484
6549,9.55,0.18182,0.1,0.00035166,3514.2,0.00035157,3511.4,-0.00011577,0.022291,-0.00011651,-5.4954,0.46506
6550,9.55,0.36364,0.1,0.00035103,3507.9,0.00035104,3508,-0.00011582,0.28117,-0.00011586,-0.032029,0.46618
6551,9.55,0.54545,0.1,0.00035057,3503.2,0.00035065,3505.7,-0.00011528,4.8796,-0.00011593,-0.0048217,0.46722
6552,9.55,0.72727,0.1,0.00035013,3498.9,0.00035029,3503.5,-0.00011477,9.2608,-0.000116,-0.0059323,0.46819
6553,9.55,0.90909,0.1,0.00034971,3494.7,0.00034994,3501.4,-0.00011428,13.44,-0.00011607,-0.0050606,0.46908
6554,9.55,1.0909,0.1,0.00034932,3490.8,0.00034961,3499.5,-0.00011382,17.389,-0.00011614,-0.0047925,0.46989
6555,9.55,1.2727,0.1,0.00034896,3487.2,0.00034931,3497.7,-0.00011339,21.079,-0.0001162,-0.0044314,0.47063
6556,9.55,1.4545,0.1,0.00034862,3483.8,0.00034903,3496,-0.000113,24.484,-0.00011626,-0.0041288,0.4713
6557,9.55,1.6364,0.1,0.00034832,3480.8,0.00034878,3494.5,-0.00011264,27.578,-0.00011631,-0.0038428,0.47189
6558,9.55,1.8182,0.1,0.00034805,3478.1,0.00034855,3493.1,-0.00011232,30.338,-0.00011636,-0.0035875,0.47241
6559,9.55,2,0.1,0.00034781,3475.7,0.00034836,3492,-0.00011204,32.744,-0.0001164,-0.0033627,0.47285
6560,9.55,2.1818,0.1,0.00034761,3473.7,0.00034819,3491,-0.0001118,34.778,-0.00011643,-0.0031694,0.47322
6561,9.55,2.3636,0.1,0.00034745,3472.1,0.00034806,3490.2,-0.00011161,36.423,-0.00011646,-0.0030121,0.47351
6562,9.55,2.5455,0.1,0.00034733,3470.9,0.00034796,3489.6,-0.00011147,37.668,-0.00011648,-0.0028927,0.47373
6563,9.55,2.7273,0.1,0.00034725,3470.1,0.00034789,3489.2,-0.00011137,38.504,-0.00011649,-0.0028116,0.47388
6564,9.55,2.9091,0.1,0.00034721,3469.7,0.00034785,3489,-0.00011132,38.923,-0.0001165,-0.0027703,0.47395
6565,9.55,3.0909,0.1,0.00034721,3469.7,0.00034785,3489,-0.00011132,38.923,-0.0001165,-0.0027706,0.47395
6566,9.55,3.2727,0.1,0.00034725,3470.1,0.00034789,3489.2,-0.00011137,38.504,-0.00011649,-0.0028116,0.47388
6567,9.55,3.4545,0.1,0.00034733,3470.9,0.00034796,3489.6,-0.00011147,37.668,-0.00011648,-0.0028927,0.47373
6568,9.55,3.6364,0.1,0.00034745,3472.1,0.00034806,3490.2,-0.00011161,36.423,-0.00011646,-0.0030115,0.47351
6569,9.55,3.8182,0.1,0.00034761,3473.7,0.00034819,3491,-0.0001118,34.778,-0.00011643,-0.0031693,0.47322
6570,9.55,4,0.1,0.00034781,3475.7,0.00034836,3492,-0.00011204,32.744,-0.0001164,-0.0033621,0.47285
6571,9.55,4.1818,0.1,0.00034805,3478.1,0.00034855,3493.1,-0.00011232,30.338,-0.00011636,-0.0035873,0.47241
6572,9.55,4.3636,0.1,0.00034832,3480.8,0.00034878,3494.5,-0.00011264,27.578,-0.00011631,-0.0038423,0.47189
6573,9.55,4.5455,0.1,0.00034862,3483.8,0.00034903,3496,-0.000113,24.484,-0.00011626,-0.0041284,0.4713
6574,9.55,4.7273,0.1,0.00034896,3487.2,0.00034931,3497.7,-0.00011339,21.079,-0.0001162,-0.0044309,0.47063
6575,9.55,4.9091,0.1,0.00034932,3490.8,0.00034961,3499.5,-0.00011382,17.389,-0.00011614,-0.0047921,0.46989
6576,9.55,5.0909,0.1,0.00034971,3494.7,0.00034994,3501.4,-0.00011428,13.44,-0.00011607,-0.0050592,0.46908
6577,9.55,5.2727,0.1,0.00035013,3498.9,0.00035029,3503.5,-0.00011477,9.2607,-0.000116,-0.0059314,0.46819
6578,9.55,5.4545,0.1,0.00035057,3503.2,0.00035065,3505.7,-0.00011528,4.8795,-0.00011593,-0.0048209,0.46722
6579,9.55,5.6364,0.1,0.00035103,3507.9,0.00035104,3508,-0.00011582,0.28116,-0.00011586,-0.03203,0.46618
6580,9.55,5.8182,0.1,0.00035166,3514.2,0.00035157,3511.4,-0.00011577,0.022292,-0.00011651,-5.4954,0.46506
6581,9.7337,0.18182,0.1,0.00034642,3461.9,0.00034632,3458.8,-0.00011401,0.017173,-0.00011484,-6.1891,0.48196
6582,9.7337,0.36364,0.1,0.00034582,3455.9,0.00034581,3455.4,-0.00011408,-0.010823,-0.00011419,-0.82163,0.48306
6583,9.7337,0.54545,0.1,0.00034539,3451.5,0.00034545,3453.2,-0.0001137,3.3911,-0.00011415,-0.0043154,0.48409
6584,9.7337,0.72727,0.1,0.00034499,3447.5,0.00034511,3451.2,-0.00011323,7.3804,-0.00011421,-0.0055435,0.48505
6585,9.7337,0.90909,0.1,0.0003446,3443.6,0.00034479,3449.2,-0.00011278,11.184,-0.00011427,-0.0048859,0.48593
6586,9.7337,1.0909,0.1,0.00034424,3440,0.00034449,3447.4,-0.00011236,14.777,-0.00011433,-0.0047115,0.48673
6587,9.7337,1.2727,0.1,0.0003439,3436.7,0.00034421,3445.7,-0.00011197,18.134,-0.00011439,-0.0044364,0.48746
6588,9.7337,1.4545,0.1,0.00034359,3433.6,0.00034395,3444.1,-0.00011161,21.23,-0.00011444,-0.0041998,0.48812
6589,9.7337,1.6364,0.1,0.00034331,3430.8,0.00034372,3442.7,-0.00011128,24.044,-0.00011448,-0.0039715,0.48871
6590,9.7337,1.8182,0.1,0.00034306,3428.3,0.00034351,3441.5,-0.00011099,26.553,-0.00011452,-0.0037653,0.48922
6591,9.7337,2,0.1,0.00034285,3426.1,0.00034333,3440.4,-0.00011073,28.74,-0.00011456,-0.0035803,0.48965
6592,9.7337,2.1818,0.1,0.00034266,3424.3,0.00034317,3439.4,-0.00011052,30.588,-0.00011459,-0.003421,0.49002
6593,9.7337,2.3636,0.1,0.00034251,3422.8,0.00034305,3438.7,-0.00011034,32.084,-0.00011462,-0.0032903,0.49031
6594,9.7337,2.5455,0.1,0.0003424,3421.7,0.00034295,3438.1,-0.00011021,33.215,-0.00011463,-0.0031917,0.49053
6595,9.7337,2.7273,0.1,0.00034233,3420.9,0.00034289,3437.8,-0.00011012,33.975,-0.00011465,-0.0031237,0.49067
6596,9.7337,2.9091,0.1,0.00034229,3420.5,0.00034286,3437.6,-0.00011008,34.356,-0.00011465,-0.0030892,0.49075
6597,9.7337,3.0909,0.1,0.00034229,3420.5,0.00034286,3437.6,-0.00011008,34.356,-0.00011465,-0.0030892,0.49075
6598,9.7337,3.2727,0.1,0.00034233,3420.9,0.00034289,3437.8,-0.00011012,33.975,-0.00011465,-0.0031233,0.49067
6599,9.7337,3.4545,0.1,0.0003424,3421.7,0.00034295,3438.1,-0.00011021,33.215,-0.00011463,-0.0031915,0.49053
6600,9.7337,3.6364,0.1,0.00034251,3422.8,0.00034305,3438.7,-0.00011034,32.084,-0.00011462,-0.00329,0.49031
6601,9.7337,3.8182,0.1,0.00034266,3424.3,0.00034317,3439.4,-0.00011052,30.588,-0.00011459,-0.0034209,0.49002
6602,9.7337,4,0.1,0.00034285,3426.1,0.00034333,3440.4,-0.00011073,28.74,-0.00011456,-0.0035803,0.48965
6603,9.7337,4.1818,0.1,0.00034306,3428.3,0.00034351,3441.5,-0.00011099,26.553,-0.00011452,-0.0037646,0.48922
6604,9.7337,4.3636,0.1,0.00034331,3430.8,0.00034372,3442.7,-0.00011128,24.043,-0.00011448,-0.0039709,0.48871
6605,9.7337,4.5455,0.1,0.00034359,3433.6,0.00034395,3444.1,-0.00011161,21.23,-0.00011444,-0.0041995,0.48812
6606,9.7337,4.7273,0.1,0.0003439,3436.7,0.00034421,3445.7,-0.00011197,18.134,-0.00011439,-0.0044354,0.48746
6607,9.7337,4.9091,0.1,0.00034424,3440,0.00034449,3447.4,-0.00011236,14.777,-0.00011433,-0.0047108,0.48673
6608,9.7337,5.0909,0.1,0.0003446,3443.6,0.00034479,3449.2,-0.00011278,11.184,-0.00011427,-0.0048846,0.48593
6609,9.7337,5.2727,0.1,0.00034499,3447.5,0.00034511,3451.2,-0.00011323,7.3804,-0.00011421,-0.0055425,0.48505
6610,9.7337,5.4545,0.1,0.00034539,3451.5,0.00034545,3453.2,-0.0001137,3.3911,-0.00011415,-0.0043147,0.48409
6611,9.7337,5.6364,0.1,0.00034582,3455.9,0.00034581,3455.4,-0.00011408,-0.010822,-0.00011419,-0.82165,0.48306
6612,9.7337,5.8182,0.1,0.00034642,3461.9,0.00034632,3458.8,-0.00011401,0.017174,-0.00011484,-6.1891,0.48196
6613,9.9173,0.18182,0.1,0.00034121,3409.8,0.0003411,3406.3,-0.00011226,0.013494,-0.00011317,-6.8457,0.49909
6614,9.9173,0.36364,0.1,0.00034064,3404,0.00034061,3403.1,-0.00011232,-0.011257,-0.00011256,-1.8375,0.50018
6615,9.9173,0.54545,0.1,0.00034024,3400,0.00034027,3401,-0.00011211,1.9957,-0.00011238,-0.0041614,0.5012
6616,9.9173,0.72727,0.1,0.00033986,3396.3,0.00033996,3399.1,-0.00011168,5.6194,-0.00011243,-0.0053394,0.50214
6617,9.9173,0.90909,0.1,0.00033951,3392.7,0.00033966,3397.2,-0.00011128,9.0726,-0.00011249,-0.0048159,0.50301
6618,9.9173,1.0909,0.1,0.00033917,3389.4,0.00033938,3395.5,-0.0001109,12.334,-0.00011254,-0.0046936,0.50381
6619,9.9173,1.2727,0.1,0.00033886,3386.3,0.00033912,3393.9,-0.00011054,15.38,-0.00011259,-0.0044774,0.50453
6620,9.9173,1.4545,0.1,0.00033857,3383.4,0.00033888,3392.5,-0.00011021,18.189,-0.00011263,-0.0042909,0.50518
6621,9.9173,1.6364,0.1,0.00033831,3380.8,0.00033866,3391.1,-0.00010991,20.741,-0.00011267,-0.0041069,0.50576
6622,9.9173,1.8182,0.1,0.00033808,3378.5,0.00033847,3390,-0.00010964,23.017,-0.00011271,-0.0039387,0.50626
6623,9.9173,2,0.1,0.00033788,3376.5,0.0003383,3388.9,-0.00010941,25,-0.00011274,-0.003788,0.50669
6624,9.9173,2.1818,0.1,0.00033771,3374.8,0.00033816,3388.1,-0.00010921,26.676,-0.00011276,-0.0036569,0.50705
6625,9.9173,2.3636,0.1,0.00033758,3373.5,0.00033805,3387.4,-0.00010906,28.032,-0.00011279,-0.003548,0.50734
6626,9.9173,2.5455,0.1,0.00033747,3372.4,0.00033796,3386.9,-0.00010894,29.058,-0.0001128,-0.003466,0.50756
6627,9.9173,2.7273,0.1,0.00033741,3371.7,0.0003379,3386.5,-0.00010885,29.746,-0.00011281,-0.0034095,0.5077
6628,9.9173,2.9091,0.1,0.00033737,3371.4,0.00033787,3386.3,-0.00010881,30.092,-0.00011282,-0.0033807,0.50777
6629,9.9173,3.0909,0.1,0.00033737,3371.4,0.00033787,3386.3,-0.00010881,30.092,-0.00011282,-0.0033805,0.50777
6630,9.9173,3.2727,0.1,0.00033741,3371.7,0.0003379,3386.5,-0.00010885,29.746,-0.00011281,-0.0034096,0.5077
6631,9.9173,3.4545,0.1,0.00033747,3372.4,0.00033796,3386.9,-0.00010894,29.058,-0.0001128,-0.003466,0.50756
6632,9.9173,3.6364,0.1,0.00033758,3373.5,0.00033805,3387.4,-0.00010906,28.032,-0.00011279,-0.0035476,0.50734
6633,9.9173,3.8182,0.1,0.00033771,3374.8,0.00033816,3388.1,-0.00010921,26.676,-0.00011276,-0.003656,0.50705
6634,9.9173,4,0.1,0.00033788,3376.5,0.0003383,3388.9,-0.00010941,25,-0.00011274,-0.0037874,0.50669
6635,9.9173,4.1818,0.1,0.00033808,3378.5,0.00033847,3390,-0.00010964,23.017,-0.00011271,-0.0039383,0.50626
6636,9.9173,4.3636,0.1,0.00033831,3380.8,0.00033866,3391.1,-0.00010991,20.741,-0.00011267,-0.0041062,0.50576
6637,9.9173,4.5455,0.1,0.00033857,3383.4,0.00033888,3392.5,-0.00011021,18.189,-0.00011263,-0.0042905,0.50518
6638,9.9173,4.7273,0.1,0.00033886,3386.3,0.00033912,3393.9,-0.00011054,15.38,-0.00011259,-0.0044772,0.50453
6639,9.9173,4.9091,0.1,0.00033917,3389.4,0.00033938,3395.5,-0.0001109,12.334,-0.00011254,-0.0046933,0.50381
6640,9.9173,5.0909,0.1,0.00033951,3392.7,0.00033966,3397.2,-0.00011128,9.0726,-0.00011249,-0.0048146,0.50301
6641,9.9173,5.2727,0.1,0.00033986,3396.3,0.00033996,3399.1,-0.00011168,5.6194,-0.00011243,-0.0053379,0.50214
6642,9.9173,5.4545,0.1,0.00034024,3400,0.00034027,3401,-0.00011211,1.9957,-0.00011238,-0.0041605,0.5012
6643,9.9173,5.6364,0.1,0.00034064,3404,0.00034061,3403.1,-0.00011232,-0.011257,-0.00011256,-1.8375,0.50018
6644,9.9173,5.8182,0.1,0.00034121,3409.8,0.0003411,3406.3,-0.00011226,0.013495,-0.00011317,-6.8457,0.49909
6645,10.101,0.18182,0.1,0.00033602,3357.9,0.00033589,3354.2,-0.00011052,0.010767,-0.00011151,-7.467,0.51645
6646,10.101,0.36364,0.1,0.00033547,3352.4,0.00033543,3351,-0.00011057,-0.0097881,-0.00011094,-2.795,0.51753
6647,10.101,0.54545,0.1,0.0003351,3348.7,0.00033511,3349,-0.00011053,0.6875,-0.00011062,-0.0060386,0.51853
6648,10.101,0.72727,0.1,0.00033475,3345.2,0.00033482,3347.2,-0.00011014,3.9679,-0.00011067,-0.0054856,0.51946
6649,10.101,0.90909,0.1,0.00033442,3341.9,0.00033454,3345.5,-0.00010977,7.0937,-0.00011071,-0.0049123,0.52032
6650,10.101,1.0909,0.1,0.00033411,3338.8,0.00033428,3343.8,-0.00010942,10.045,-0.00011076,-0.0047732,0.52111
6651,10.101,1.2727,0.1,0.00033383,3336,0.00033404,3342.3,-0.00010909,12.801,-0.0001108,-0.0045774,0.52182
6652,10.101,1.4545,0.1,0.00033356,3333.3,0.00033382,3341,-0.00010879,15.342,-0.00011084,-0.0044155,0.52246
6653,10.101,1.6364,0.1,0.00033332,3330.9,0.00033362,3339.7,-0.00010852,17.649,-0.00011087,-0.0042591,0.52303
6654,10.101,1.8182,0.1,0.00033311,3328.8,0.00033344,3338.6,-0.00010828,19.707,-0.0001109,-0.0041181,0.52353
6655,10.101,2,0.1,0.00033293,3327,0.00033329,3337.7,-0.00010807,21.501,-0.00011093,-0.0039922,0.52396
6656,10.101,2.1818,0.1,0.00033277,3325.4,0.00033316,3336.9,-0.00010789,23.016,-0.00011095,-0.0038817,0.52431
6657,10.101,2.3636,0.1,0.00033265,3324.2,0.00033305,3336.2,-0.00010775,24.242,-0.00011097,-0.0037913,0.5246
6658,10.101,2.5455,0.1,0.00033255,3323.2,0.00033297,3335.7,-0.00010764,25.169,-0.00011099,-0.0037228,0.52481
6659,10.101,2.7273,0.1,0.00033249,3322.6,0.00033292,3335.4,-0.00010756,25.791,-0.000111,-0.0036753,0.52495
6660,10.101,2.9091,0.1,0.00033246,3322.3,0.00033289,3335.2,-0.00010753,26.104,-0.000111,-0.003651,0.52503
6661,10.101,3.0909,0.1,0.00033246,3322.3,0.00033289,3335.2,-0.00010753,26.104,-0.000111,-0.0036509,0.52503
6662,10.101,3.2727,0.1,0.00033249,3322.6,0.00033292,3335.4,-0.00010756,25.791,-0.000111,-0.0036751,0.52495
6663,10.101,3.4545,0.1,0.00033255,3323.2,0.00033297,3335.7,-0.00010764,25.169,-0.00011099,-0.0037226,0.52481
6664,10.101,3.6364,0.1,0.00033265,3324.2,0.00033305,3336.2,-0.00010775,24.242,-0.00011097,-0.0037909,0.5246
6665,10.101,3.8182,0.1,0.00033277,3325.4,0.00033316,3336.9,-0.00010789,23.016,-0.00011095,-0.0038816,0.52431
6666,10.101,4,0.1,0.00033293,3327,0.00033329,3337.7,-0.00010807,21.501,-0.00011093,-0.0039915,0.52396
6667,10.101,4.1818,0.1,0.00033311,3328.8,0.00033344,3338.6,-0.00010828,19.707,-0.0001109,-0.0041177,0.52353
6668,10.101,4.3636,0.1,0.00033332,3330.9,0.00033362,3339.7,-0.00010852,17.649,-0.00011087,-0.0042586,0.52303
6669,10.101,4.5455,0.1,0.00033356,3333.3,0.00033382,3341,-0.00010879,15.342,-0.00011084,-0.0044154,0.52246
6670,10.101,4.7273,0.1,0.00033383,3336,0.00033404,3342.3,-0.00010909,12.801,-0.0001108,-0.0045765,0.52182
6671,10.101,4.9091,0.1,0.00033411,3338.8,0.00033428,3343.8,-0.00010942,10.045,-0.00011076,-0.0047724,0.52111
6672,10.101,5.0909,0.1,0.00033442,3341.9,0.00033454,3345.5,-0.00010977,7.0936,-0.00011071,-0.0049105,0.52032
6673,10.101,5.2727,0.1,0.00033475,3345.2,0.00033482,3347.2,-0.00011014,3.9678,-0.00011067,-0.0054843,0.51946
6674,10.101,5.4545,0.1,0.0003351,3348.7,0.00033511,3349,-0.00011053,0.68746,-0.00011062,-0.0060382,0.51853
6675,10.101,5.6364,0.1,0.00033547,3352.4,0.00033543,3351,-0.00011057,-0.0097871,-0.00011094,-2.795,0.51753
6676,10.101,5.8182,0.1,0.00033602,3357.9,0.00033589,3354.2,-0.00011052,0.010768,-0.00011151,-7.4671,0.51645
6677,10.285,0.18182,0.1,0.00033085,3306.3,0.00033072,3302.2,-0.00010878,0.0086864,-0.00010986,-8.0555,0.53404
6678,10.285,0.36364,0.1,0.00033033,3301,0.00033026,3299.1,-0.00010883,-0.0080545,-0.00010932,-3.6977,0.5351
6679,10.285,0.54545,0.1,0.00032998,3297.5,0.00032997,3297.3,-0.00010887,0.0033044,-0.00010894,-0.55438,0.53609
6680,10.285,0.72727,0.1,0.00032966,3294.3,0.0003297,3295.5,-0.00010859,2.4165,-0.00010891,-0.0065488,0.53701
6681,10.285,0.90909,0.1,0.00032936,3291.3,0.00032944,3293.9,-0.00010825,5.2352,-0.00010895,-0.0053235,0.53786
6682,10.285,1.0909,0.1,0.00032907,3288.4,0.0003292,3292.4,-0.00010793,7.896,-0.00010898,-0.0050183,0.53863
6683,10.285,1.2727,0.1,0.00032881,3285.8,0.00032898,3291,-0.00010764,10.38,-0.00010902,-0.0047779,0.53934
6684,10.285,1.4545,0.1,0.00032856,3283.4,0.00032878,3289.7,-0.00010737,12.67,-0.00010905,-0.0046054,0.53997
6685,10.285,1.6364,0.1,0.00032834,3281.2,0.00032859,3288.5,-0.00010712,14.75,-0.00010908,-0.0044537,0.54053
6686,10.285,1.8182,0.1,0.00032815,3279.2,0.00032843,3287.5,-0.0001069,16.604,-0.00010911,-0.0043239,0.54103
6687,10.285,2,0.1,0.00032798,3277.5,0.00032828,3286.6,-0.00010671,18.22,-0.00010913,-0.0042111,0.54145
6688,10.285,2.1818,0.1,0.00032783,3276.1,0.00032816,3285.8,-0.00010655,19.585,-0.00010915,-0.0041144,0.5418
6689,10.285,2.3636,0.1,0.00032772,3274.9,0.00032807,3285.2,-0.00010642,20.689,-0.00010917,-0.0040356,0.54208
6690,10.285,2.5455,0.1,0.00032763,3274.1,0.00032799,3284.8,-0.00010632,21.525,-0.00010918,-0.0039766,0.54229
6691,10.285,2.7273,0.1,0.00032757,3273.5,0.00032794,3284.5,-0.00010625,22.085,-0.00010919,-0.0039361,0.54243
6692,10.285,2.9091,0.1,0.00032754,3273.2,0.00032792,3284.3,-0.00010622,22.366,-0.0001092,-0.0039149,0.5425
6693,10.285,3.0909,0.1,0.00032754,3273.2,0.00032792,3284.3,-0.00010622,22.366,-0.0001092,-0.0039152,0.5425
6694,10.285,3.2727,0.1,0.00032757,3273.5,0.00032794,3284.5,-0.00010625,22.085,-0.00010919,-0.0039356,0.54243
6695,10.285,3.4545,0.1,0.00032763,3274.1,0.00032799,3284.8,-0.00010632,21.524,-0.00010918,-0.0039766,0.54229
6696,10.285,3.6364,0.1,0.00032772,3274.9,0.00032807,3285.2,-0.00010642,20.689,-0.00010917,-0.0040354,0.54208
6697,10.285,3.8182,0.1,0.00032783,3276.1,0.00032816,3285.8,-0.00010655,19.585,-0.00010915,-0.0041141,0.5418
6698,10.285,4,0.1,0.00032798,3277.5,0.00032828,3286.6,-0.00010671,18.22,-0.00010913,-0.0042108,0.54145
6699,10.285,4.1818,0.1,0.00032815,3279.2,0.00032843,3287.5,-0.0001069,16.604,-0.00010911,-0.0043233,0.54103
6700,10.285,4.3636,0.1,0.00032834,3281.2,0.00032859,3288.5,-0.00010712,14.75,-0.00010908,-0.0044533,0.54053
6701,10.285,4.5455,0.1,0.00032856,3283.4,0.00032878,3289.7,-0.00010737,12.67,-0.00010905,-0.0046041,0.53997
6702,10.285,4.7273,0.1,0.00032881,3285.8,0.00032898,3291,-0.00010764,10.38,-0.00010902,-0.0047777,0.53934
6703,10.285,4.9091,0.1,0.00032907,3288.4,0.0003292,3292.4,-0.00010793,7.8959,-0.00010898,-0.0050173,0.53863
6704,10.285,5.0909,0.1,0.00032936,3291.3,0.00032944,3293.9,-0.00010825,5.2352,-0.00010895,-0.0053221,0.53786
6705,10.285,5.2727,0.1,0.00032966,3294.3,0.0003297,3295.5,-0.00010859,2.4165,-0.00010891,-0.0065482,0.53701
6706,10.285,5.4545,0.1,0.00032998,3297.5,0.00032997,3297.3,-0.00010887,0.0033042,-0.00010894,-0.55442,0.53609
6707,10.285,5.6364,0.1,0.00033033,3301,0.00033026,3299.1,-0.00010883,-0.0080533,-0.00010932,-3.6977,0.5351
6708,10.285,5.8182,0.1,0.00033085,3306.3,0.00033072,3302.2,-0.00010878,0.0086871,-0.00010986,-8.0555,0.53404
6709,10.468,0.18182,0.1,0.00032571,3254.8,0.00032556,3250.5,-0.00010706,0.0070944,-0.0001082,-8.613,0.55185
6710,10.468,0.36364,0.1,0.0003252,3249.8,0.00032512,3247.5,-0.00010709,-0.0062715,-0.0001077,-4.5496,0.5529
6711,10.468,0.54545,0.1,0.00032488,3246.6,0.00032485,3245.7,-0.00010713,0.0006255,-0.00010735,-1.7132,0.55387
6712,10.468,0.72727,0.1,0.00032458,3243.6,0.0003246,3244.1,-0.00010703,0.96034,-0.00010716,-0.01225,0.55478
6713,10.468,0.90909,0.1,0.0003243,3240.8,0.00032436,3242.5,-0.00010673,3.4866,-0.00010719,-0.0064052,0.55561
6714,10.468,1.0909,0.1,0.00032404,3238.2,0.00032414,3241.1,-0.00010644,5.8745,-0.00010722,-0.0055291,0.55638
6715,10.468,1.2727,0.1,0.0003238,3235.7,0.00032393,3239.8,-0.00010618,8.1036,-0.00010725,-0.0051097,0.55708
6716,10.468,1.4545,0.1,0.00032357,3233.5,0.00032374,3238.6,-0.00010593,10.158,-0.00010728,-0.0048614,0.5577
6717,10.468,1.6364,0.1,0.00032337,3231.5,0.00032357,3237.5,-0.00010571,12.024,-0.00010731,-0.0046792,0.55826
6718,10.468,1.8182,0.1,0.00032319,3229.7,0.00032342,3236.5,-0.00010551,13.687,-0.00010733,-0.0045373,0.55874
6719,10.468,2,0.1,0.00032304,3228.1,0.00032329,3235.7,-0.00010534,15.136,-0.00010735,-0.0044229,0.55916
6720,10.468,2.1818,0.1,0.0003229,3226.8,0.00032318,3235,-0.00010519,16.361,-0.00010737,-0.0043291,0.55951
6721,10.468,2.3636,0.1,0.0003228,3225.8,0.00032309,3234.4,-0.00010507,17.351,-0.00010738,-0.0042542,0.55979
6722,10.468,2.5455,0.1,0.00032272,3225,0.00032302,3234,-0.00010498,18.101,-0.00010739,-0.0042,0.55999
6723,10.468,2.7273,0.1,0.00032267,3224.4,0.00032298,3233.7,-0.00010492,18.604,-0.0001074,-0.0041625,0.56013
6724,10.468,2.9091,0.1,0.00032264,3224.2,0.00032295,3233.5,-0.00010489,18.856,-0.0001074,-0.0041438,0.5602
6725,10.468,3.0909,0.1,0.00032264,3224.2,0.00032295,3233.5,-0.00010489,18.856,-0.0001074,-0.0041438,0.5602
6726,10.468,3.2727,0.1,0.00032267,3224.4,0.00032298,3233.7,-0.00010492,18.604,-0.0001074,-0.0041629,0.56013
6727,10.468,3.4545,0.1,0.00032272,3225,0.00032302,3234,-0.00010498,18.101,-0.00010739,-0.0041996,0.55999
6728,10.468,3.6364,0.1,0.0003228,3225.8,0.00032309,3234.4,-0.00010507,17.351,-0.00010738,-0.0042545,0.55979
6729,10.468,3.8182,0.1,0.0003229,3226.8,0.00032318,3235,-0.00010519,16.361,-0.00010737,-0.0043281,0.55951
6730,10.468,4,0.1,0.00032304,3228.1,0.00032329,3235.7,-0.00010534,15.136,-0.00010735,-0.0044227,0.55916
6731,10.468,4.1818,0.1,0.00032319,3229.7,0.00032342,3236.5,-0.00010551,13.687,-0.00010733,-0.0045369,0.55874
6732,10.468,4.3636,0.1,0.00032337,3231.5,0.00032357,3237.5,-0.00010571,12.024,-0.00010731,-0.0046784,0.55826
6733,10.468,4.5455,0.1,0.00032357,3233.5,0.00032374,3238.6,-0.00010593,10.158,-0.00010728,-0.0048614,0.5577
6734,10.468,4.7273,0.1,0.0003238,3235.7,0.00032393,3239.8,-0.00010618,8.1035,-0.00010725,-0.0051095,0.55708
6735,10.468,4.9091,0.1,0.00032404,3238.2,0.00032414,3241.1,-0.00010644,5.8744,-0.00010722,-0.0055283,0.55638
6736,10.468,5.0909,0.1,0.0003243,3240.8,0.00032436,3242.5,-0.00010673,3.4866,-0.00010719,-0.0064045,0.55561
6737,10.468,5.2727,0.1,0.00032458,3243.6,0.0003246,3244.1,-0.00010703,0.96029,-0.00010716,-0.012249,0.55478
6738,10.468,5.4545,0.1,0.00032488,3246.6,0.00032485,3245.7,-0.00010713,0.00062632,-0.00010735,-1.7133,0.55387
6739,10.468,5.6364,0.1,0.0003252,3249.8,0.00032512,3247.5,-0.00010709,-0.0062705,-0.0001077,-4.5496,0.5529
6740,10.468,5.8182,0.1,0.00032571,3254.8,0.00032556,3250.5,-0.00010706,0.0070951,-0.0001082,-8.613,0.55185
6741,10.652,0.18182,0.1,0.00032058,3203.6,0.00032042,3199,-0.00010534,0.0057651,-0.00010656,-9.142,0.56988
6742,10.652,0.36364,0.1,0.0003201,3198.8,0.00032001,3196.1,-0.00010537,-0.0046077,-0.00010608,-5.3554,0.57091
6743,10.652,0.54545,0.1,0.0003198,3195.8,0.00031975,3194.4,-0.00010539,0.00050208,-0.00010577,-2.8107,0.57187
6744,10.652,0.72727,0.1,0.00031952,3193,0.00031952,3192.8,-0.00010542,0.020581,-0.00010548,-0.45305,0.57277
6745,10.652,0.90909,0.1,0.00031927,3190.5,0.0003193,3191.4,-0.0001052,1.8386,-0.00010545,-0.0099512,0.57359
6746,10.652,1.0909,0.1,0.00031902,3188,0.00031909,3190,-0.00010495,3.9678,-0.00010548,-0.0067652,0.57435
6747,10.652,1.2727,0.1,0.0003188,3185.8,0.0003189,3188.8,-0.00010471,5.9566,-0.0001055,-0.0058139,0.57503
6748,10.652,1.4545,0.1,0.0003186,3183.8,0.00031873,3187.6,-0.00010449,7.7897,-0.00010552,-0.005357,0.57565
6749,10.652,1.6364,0.1,0.00031841,3181.9,0.00031857,3186.6,-0.00010428,9.4542,-0.00010554,-0.0050762,0.5762
6750,10.652,1.8182,0.1,0.00031825,3180.3,0.00031843,3185.7,-0.00010411,10.938,-0.00010556,-0.0048844,0.57668
6751,10.652,2,0.1,0.0003181,3178.8,0.00031831,3184.9,-0.00010395,12.231,-0.00010558,-0.0047436,0.57709
6752,10.652,2.1818,0.1,0.00031798,3177.6,0.00031821,3184.3,-0.00010382,13.323,-0.00010559,-0.0046366,0.57743
6753,10.652,2.3636,0.1,0.00031789,3176.7,0.00031813,3183.7,-0.00010371,14.207,-0.00010561,-0.0045563,0.57771
6754,10.652,2.5455,0.1,0.00031781,3175.9,0.00031806,3183.3,-0.00010363,14.876,-0.00010561,-0.0044986,0.57791
6755,10.652,2.7273,0.1,0.00031776,3175.4,0.00031802,3183.1,-0.00010358,15.325,-0.00010562,-0.0044605,0.57805
6756,10.652,2.9091,0.1,0.00031774,3175.2,0.000318,3182.9,-0.00010355,15.55,-0.00010562,-0.0044414,0.57812
6757,10.652,3.0909,0.1,0.00031774,3175.2,0.000318,3182.9,-0.00010355,15.55,-0.00010562,-0.0044412,0.57812
6758,10.652,3.2727,0.1,0.00031776,3175.4,0.00031802,3183.1,-0.00010358,15.325,-0.00010562,-0.0044603,0.57805
6759,10.652,3.4545,0.1,0.00031781,3175.9,0.00031806,3183.3,-0.00010363,14.876,-0.00010561,-0.0044987,0.57791
6760,10.652,3.6364,0.1,0.00031789,3176.7,0.00031813,3183.7,-0.00010371,14.207,-0.00010561,-0.0045558,0.57771
6761,10.652,3.8182,0.1,0.00031798,3177.6,0.00031821,3184.3,-0.00010382,13.323,-0.00010559,-0.004636,0.57743
6762,10.652,4,0.1,0.0003181,3178.8,0.00031831,3184.9,-0.00010395,12.231,-0.00010558,-0.0047433,0.57709
6763,10.652,4.1818,0.1,0.00031825,3180.3,0.00031843,3185.7,-0.00010411,10.938,-0.00010556,-0.0048835,0.57668
6764,10.652,4.3636,0.1,0.00031841,3181.9,0.00031857,3186.6,-0.00010428,9.4541,-0.00010554,-0.005075,0.5762
6765,10.652,4.5455,0.1,0.0003186,3183.8,0.00031873,3187.6,-0.00010449,7.7896,-0.00010552,-0.0053556,0.57565
6766,10.652,4.7273,0.1,0.0003188,3185.8,0.0003189,3188.8,-0.00010471,5.9565,-0.0001055,-0.0058133,0.57503
6767,10.652,4.9091,0.1,0.00031902,3188,0.00031909,3190,-0.00010495,3.9677,-0.00010548,-0.006764,0.57435
6768,10.652,5.0909,0.1,0.00031927,3190.5,0.0003193,3191.4,-0.0001052,1.8386,-0.00010545,-0.0099499,0.57359
6769,10.652,5.2727,0.1,0.00031952,3193,0.00031952,3192.8,-0.00010542,0.02058,-0.00010548,-0.4531,0.57277
6770,10.652,5.4545,0.1,0.0003198,3195.8,0.00031975,3194.4,-0.00010539,0.00050224,-0.00010577,-2.8107,0.57187
6771,10.652,5.6364,0.1,0.0003201,3198.8,0.00032001,3196.1,-0.00010537,-0.0046071,-0.00010608,-5.3554,0.57091
6772,10.652,5.8182,0.1,0.00032058,3203.6,0.00032042,3199,-0.00010534,0.0057664,-0.00010656,-9.142,0.56988
6773,10.836,0.18182,0.1,0.00031548,3152.6,0.00031531,3147.8,-0.00010363,0.0047372,-0.00010491,-9.6441,0.58812
6774,10.836,0.36364,0.1,0.00031501,3147.9,0.00031491,3144.9,-0.00010365,-0.0029567,-0.00010446,-6.1191,0.58914
6775,10.836,0.54545,0.1,0.00031473,3145.2,0.00031467,3143.2,-0.00010367,0.00074854,-0.00010418,-3.8504,0.59009
6776,10.836,0.72727,0.1,0.00031448,3142.7,0.00031445,3141.8,-0.00010369,0.0046786,-0.00010393,-1.7441,0.59097
6777,10.836,0.90909,0.1,0.00031425,3140.3,0.00031425,3140.4,-0.00010367,0.31391,-0.00010372,-0.048237,0.59178
6778,10.836,1.0909,0.1,0.00031402,3138.1,0.00031406,3139.1,-0.00010345,2.1659,-0.00010374,-0.010075,0.59253
6779,10.836,1.2727,0.1,0.00031382,3136,0.00031388,3138,-0.00010323,3.9264,-0.00010376,-0.0071671,0.59321
6780,10.836,1.4545,0.1,0.00031363,3134.1,0.00031372,3136.9,-0.00010303,5.5502,-0.00010377,-0.0061315,0.59381
6781,10.836,1.6364,0.1,0.00031346,3132.5,0.00031358,3136,-0.00010285,7.0248,-0.00010379,-0.0056018,0.59436
6782,10.836,1.8182,0.1,0.00031331,3131,0.00031345,3135.1,-0.0001027,8.3398,-0.00010381,-0.0052839,0.59483
6783,10.836,2,0.1,0.00031318,3129.7,0.00031334,3134.4,-0.00010256,9.4855,-0.00010382,-0.0050739,0.59523
6784,10.836,2.1818,0.1,0.00031307,3128.6,0.00031325,3133.8,-0.00010244,10.454,-0.00010383,-0.0049262,0.59557
6785,10.836,2.3636,0.1,0.00031298,3127.7,0.00031317,3133.3,-0.00010234,11.237,-0.00010384,-0.0048221,0.59584
6786,10.836,2.5455,0.1,0.00031292,3127,0.00031312,3132.9,-0.00010227,11.83,-0.00010385,-0.004752,0.59605
6787,10.836,2.7273,0.1,0.00031287,3126.6,0.00031308,3132.7,-0.00010223,12.228,-0.00010385,-0.0047059,0.59618
6788,10.836,2.9091,0.1,0.00031285,3126.3,0.00031306,3132.5,-0.0001022,12.428,-0.00010386,-0.0046835,0.59625
6789,10.836,3.0909,0.1,0.00031285,3126.3,0.00031306,3132.5,-0.0001022,12.428,-0.00010386,-0.0046835,0.59625
6790,10.836,3.2727,0.1,0.00031287,3126.6,0.00031308,3132.7,-0.00010223,12.228,-0.00010385,-0.0047061,0.59618
6791,10.836,3.4545,0.1,0.00031292,3127,0.00031312,3132.9,-0.00010227,11.83,-0.00010385,-0.0047515,0.59605
6792,10.836,3.6364,0.1,0.00031298,3127.7,0.00031317,3133.3,-0.00010234,11.237,-0.00010384,-0.0048221,0.59584
6793,10.836,3.8182,0.1,0.00031307,3128.6,0.00031325,3133.8,-0.00010244,10.454,-0.00010383,-0.0049259,0.59557
6794,10.836,4,0.1,0.00031318,3129.7,0.00031334,3134.4,-0.00010256,9.4855,-0.00010382,-0.0050735,0.59523
6795,10.836,4.1818,0.1,0.00031331,3131,0.00031345,3135.1,-0.0001027,8.3397,-0.00010381,-0.0052836,0.59483
6796,10.836,4.3636,0.1,0.00031346,3132.5,0.00031358,3136,-0.00010285,7.0248,-0.00010379,-0.0056013,0.59436
6797,10.836,4.5455,0.1,0.00031363,3134.1,0.00031372,3136.9,-0.00010303,5.5501,-0.00010377,-0.0061306,0.59381
6798,10.836,4.7273,0.1,0.00031382,3136,0.00031388,3138,-0.00010323,3.9263,-0.00010376,-0.0071668,0.59321
6799,10.836,4.9091,0.1,0.00031402,3138.1,0.00031406,3139.1,-0.00010345,2.1659,-0.00010374,-0.010075,0.59253
6800,10.836,5.0909,0.1,0.00031425,3140.3,0.00031425,3140.4,-0.00010367,0.31387,-0.00010372,-0.048243,0.59178
6801,10.836,5.2727,0.1,0.00031448,3142.7,0.00031445,3141.8,-0.00010369,0.0046791,-0.00010393,-1.7441,0.59097
6802,10.836,5.4545,0.1,0.00031473,3145.2,0.00031467,3143.2,-0.00010367,0.00074824,-0.00010418,-3.8504,0.59009
6803,10.836,5.6364,0.1,0.00031501,3147.9,0.00031491,3144.9,-0.00010365,-0.0029559,-0.00010446,-6.1191,0.58914
6804,10.836,5.8182,0.1,0.00031548,3152.6,0.00031531,3147.8,-0.00010363,0.0047393,-0.00010491,-9.6442,0.58812
6805,11.019,0.18182,0.1,0.00031039,3101.8,0.00031022,3096.7,-0.00010193,0.0039516,-0.00010327,-10.121,0.60657
6806,11.019,0.36364,0.1,0.00030994,3097.3,0.00030983,3093.9,-0.00010194,-0.0013209,-0.00010285,-6.8445,0.60758
6807,11.019,0.54545,0.1,0.00030969,3094.8,0.00030961,3092.3,-0.00010196,0.0011282,-0.0001026,-4.838,0.60851
6808,11.019,0.72727,0.1,0.00030946,3092.4,0.00030941,3091,-0.00010197,0.0027627,-0.00010237,-2.9833,0.60938
6809,11.019,0.90909,0.1,0.00030924,3090.3,0.00030922,3089.7,-0.00010199,0.01051,-0.00010215,-1.2289,0.61019
6810,11.019,1.0909,0.1,0.00030904,3088.2,0.00030905,3088.5,-0.00010194,0.47875,-0.00010201,-0.036591,0.61092
6811,11.019,1.2727,0.1,0.00030885,3086.4,0.00030888,3087.4,-0.00010175,2.0021,-0.00010202,-0.01104,0.61159
6812,11.019,1.4545,0.1,0.00030868,3084.7,0.00030874,3086.4,-0.00010158,3.426,-0.00010203,-0.007742,0.61219
6813,11.019,1.6364,0.1,0.00030853,3083.1,0.00030861,3085.5,-0.00010142,4.7207,-0.00010205,-0.0064908,0.61272
6814,11.019,1.8182,0.1,0.00030839,3081.8,0.00030849,3084.7,-0.00010128,5.8756,-0.00010206,-0.0058516,0.61319
6815,11.019,2,0.1,0.00030827,3080.6,0.00030839,3084,-0.00010115,6.8824,-0.00010207,-0.0054738,0.61359
6816,11.019,2.1818,0.1,0.00030817,3079.6,0.0003083,3083.4,-0.00010105,7.7333,-0.00010208,-0.0052317,0.61392
6817,11.019,2.3636,0.1,0.00030809,3078.8,0.00030823,3083,-0.00010097,8.4221,-0.00010209,-0.0050713,0.61419
6818,11.019,2.5455,0.1,0.00030803,3078.2,0.00030818,3082.6,-0.0001009,8.9435,-0.00010209,-0.0049671,0.61439
6819,11.019,2.7273,0.1,0.00030799,3077.8,0.00030815,3082.4,-0.00010086,9.2933,-0.0001021,-0.0049018,0.61452
6820,11.019,2.9091,0.1,0.00030797,3077.6,0.00030813,3082.3,-0.00010084,9.469,-0.0001021,-0.0048714,0.61459
6821,11.019,3.0909,0.1,0.00030797,3077.6,0.00030813,3082.3,-0.00010084,9.469,-0.0001021,-0.0048712,0.61459
6822,11.019,3.2727,0.1,0.00030799,3077.8,0.00030815,3082.4,-0.00010086,9.2933,-0.0001021,-0.0049022,0.61452
6823,11.019,3.4545,0.1,0.00030803,3078.2,0.00030818,3082.6,-0.0001009,8.9435,-0.00010209,-0.0049666,0.61439
6824,11.019,3.6364,0.1,0.00030809,3078.8,0.00030823,3083,-0.00010097,8.4221,-0.00010209,-0.0050709,0.61419
6825,11.019,3.8182,0.1,0.00030817,3079.6,0.0003083,3083.4,-0.00010105,7.7333,-0.00010208,-0.005231,0.61392
6826,11.019,4,0.1,0.00030827,3080.6,0.00030839,3084,-0.00010115,6.8823,-0.00010207,-0.0054731,0.61359
6827,11.019,4.1818,0.1,0.00030839,3081.8,0.00030849,3084.7,-0.00010128,5.8756,-0.00010206,-0.005851,0.61319
6828,11.019,4.3636,0.1,0.00030853,3083.1,0.00030861,3085.5,-0.00010142,4.7206,-0.00010205,-0.0064905,0.61272
6829,11.019,4.5455,0.1,0.00030868,3084.7,0.00030874,3086.4,-0.00010158,3.426,-0.00010203,-0.0077412,0.61219
6830,11.019,4.7273,0.1,0.00030885,3086.4,0.00030888,3087.4,-0.00010175,2.0021,-0.00010202,-0.01104,0.61159
6831,11.019,4.9091,0.1,0.00030904,3088.2,0.00030905,3088.5,-0.00010194,0.4787,-0.00010201,-0.036593,0.61092
6832,11.019,5.0909,0.1,0.00030924,3090.3,0.00030922,3089.7,-0.00010199,0.01051,-0.00010215,-1.229,0.61019
6833,11.019,5.2727,0.1,0.00030946,3092.4,0.00030941,3091,-0.00010197,0.0027636,-0.00010237,-2.9833,0.60938
6834,11.019,5.4545,0.1,0.00030969,3094.8,0.00030961,3092.3,-0.00010196,0.0011279,-0.0001026,-4.838,0.60851
6835,11.019,5.6364,0.1,0.00030994,3097.3,0.00030983,3093.9,-0.00010194,-0.0013203,-0.00010285,-6.8445,0.60758
6836,11.019,5.8182,0.1,0.00031039,3101.8,0.00031022,3096.7,-0.00010193,0.0039529,-0.00010327,-10.121,0.60657
6837,11.203,0.18182,0.1,0.00030533,3051.2,0.00030515,3045.9,-0.00010023,0.0032438,-0.00010164,-10.576,0.62524
6838,11.203,0.36364,0.1,0.0003049,3046.9,0.00030477,3043.1,-0.00010024,0.00018037,-0.00010125,-7.536,0.62623
6839,11.203,0.54545,0.1,0.00030466,3044.5,0.00030456,3041.6,-0.00010025,0.0014595,-0.00010102,-5.7796,0.62715
6840,11.203,0.72727,0.1,0.00030445,3042.4,0.00030438,3040.3,-0.00010026,0.0021733,-0.00010082,-4.1661,0.62801
6841,11.203,0.90909,0.1,0.00030425,3040.4,0.00030421,3039.1,-0.00010027,0.0043004,-0.00010062,-2.6376,0.6288
6842,11.203,1.0909,0.1,0.00030407,3038.6,0.00030405,3038,-0.00010028,0.011538,-0.00010044,-1.2029,0.62952
6843,11.203,1.2727,0.1,0.0003039,3036.9,0.0003039,3037,-0.00010026,0.22708,-0.0001003,-0.073465,0.63018
6844,11.203,1.4545,0.1,0.00030374,3035.3,0.00030377,3036,-0.00010012,1.407,-0.00010031,-0.013913,0.63077
6845,11.203,1.6364,0.1,0.0003036,3033.9,0.00030365,3035.2,-9.9977e-05,2.5277,-0.00010031,-0.0088689,0.6313
6846,11.203,1.8182,0.1,0.00030348,3032.7,0.00030354,3034.5,-9.9853e-05,3.5302,-0.00010032,-0.0071118,0.63176
6847,11.203,2,0.1,0.00030337,3031.6,0.00030345,3033.8,-9.9744e-05,4.4049,-0.00010033,-0.0062543,0.63215
6848,11.203,2.1818,0.1,0.00030328,3030.7,0.00030337,3033.3,-9.9653e-05,5.1448,-0.00010034,-0.0057669,0.63248
6849,11.203,2.3636,0.1,0.00030321,3030,0.00030331,3032.9,-9.9579e-05,5.7441,-0.00010034,-0.0054699,0.63275
6850,11.203,2.5455,0.1,0.00030315,3029.4,0.00030326,3032.5,-9.9523e-05,6.1978,-0.00010035,-0.0052874,0.63294
6851,11.203,2.7273,0.1,0.00030312,3029.1,0.00030323,3032.3,-9.9485e-05,6.5024,-0.00010035,-0.0051795,0.63308
6852,11.203,2.9091,0.1,0.0003031,3028.9,0.00030321,3032.2,-9.9466e-05,6.6553,-0.00010035,-0.0051289,0.63314
6853,11.203,3.0909,0.1,0.0003031,3028.9,0.00030321,3032.2,-9.9466e-05,6.6553,-0.00010035,-0.0051288,0.63314
6854,11.203,3.2727,0.1,0.00030312,3029.1,0.00030323,3032.3,-9.9485e-05,6.5024,-0.00010035,-0.0051793,0.63308
6855,11.203,3.4545,0.1,0.00030315,3029.4,0.00030326,3032.5,-9.9523e-05,6.1978,-0.00010035,-0.0052871,0.63294
6856,11.203,3.6364,0.1,0.00030321,3030,0.00030331,3032.9,-9.9579e-05,5.744,-0.00010034,-0.0054699,0.63275
6857,11.203,3.8182,0.1,0.00030328,3030.7,0.00030337,3033.3,-9.9653e-05,5.1448,-0.00010034,-0.0057668,0.63248
6858,11.203,4,0.1,0.00030337,3031.6,0.00030345,3033.8,-9.9744e-05,4.4049,-0.00010033,-0.0062537,0.63215
6859,11.203,4.1818,0.1,0.00030348,3032.7,0.00030354,3034.5,-9.9853e-05,3.5302,-0.00010032,-0.0071116,0.63176
6860,11.203,4.3636,0.1,0.0003036,3033.9,0.00030365,3035.2,-9.9977e-05,2.5276,-0.00010031,-0.0088682,0.6313
6861,11.203,4.5455,0.1,0.00030374,3035.3,0.00030377,3036,-0.00010012,1.4069,-0.00010031,-0.013912,0.63077
6862,11.203,4.7273,0.1,0.0003039,3036.9,0.0003039,3037,-0.00010026,0.22704,-0.0001003,-0.073477,0.63018
6863,11.203,4.9091,0.1,0.00030407,3038.6,0.00030405,3038,-0.00010028,0.011538,-0.00010044,-1.2029,0.62952
6864,11.203,5.0909,0.1,0.00030425,3040.4,0.00030421,3039.1,-0.00010027,0.0043014,-0.00010062,-2.6377,0.6288
6865,11.203,5.2727,0.1,0.00030445,3042.4,0.00030438,3040.3,-0.00010026,0.0021746,-0.00010082,-4.1661,0.62801
6866,11.203,5.4545,0.1,0.00030466,3044.5,0.00030456,3041.6,-0.00010025,0.0014591,-0.00010102,-5.7796,0.62715
6867,11.203,5.6364,0.1,0.0003049,3046.9,0.00030477,3043.1,-0.00010024,0.0001812,-0.00010125,-7.536,0.62623
6868,11.203,5.8182,0.1,0.00030533,3051.2,0.00030515,3045.9,-0.00010023,0.0032454,-0.00010164,-10.576,0.62524
6869,11.387,0.18182,0.1,0.00030028,3000.8,0.00030009,2995.2,-9.8547e-05,0.0026819,-0.00010001,-11.009,0.64411
6870,11.387,0.36364,0.1,0.00029987,2996.6,0.00029973,2992.5,-9.855e-05,0.0016541,-9.9642e-05,-8.1967,0.64508
6871,11.387,0.54545,0.1,0.00029965,2994.5,0.00029954,2991.1,-9.8554e-05,0.0018218,-9.9444e-05,-6.6803,0.64599
6872,11.387,0.72727,0.1,0.00029946,2992.5,0.00029937,2989.9,-9.8559e-05,0.0020244,-9.9265e-05,-5.2984,0.64683
6873,11.387,0.90909,0.1,0.00029928,2990.7,0.00029921,2988.8,-9.8565e-05,0.0026032,-9.9096e-05,-3.99,0.64761
6874,11.387,1.0909,0.1,0.00029911,2989.1,0.00029907,2987.7,-9.8571e-05,0.0038792,-9.8938e-05,-2.7584,0.64833
6875,11.387,1.2727,0.1,0.00029896,2987.5,0.00029893,2986.7,-9.8577e-05,0.0071534,-9.8792e-05,-1.6116,0.64898
6876,11.387,1.4545,0.1,0.00029882,2986.1,0.00029881,2985.9,-9.8581e-05,0.022428,-9.8659e-05,-0.56656,0.64956
6877,11.387,1.6364,0.1,0.00029869,2984.9,0.0002987,2985.1,-9.853e-05,0.4508,-9.8594e-05,-0.031257,0.65008
6878,11.387,1.8182,0.1,0.00029858,2983.8,0.0002986,2984.4,-9.8424e-05,1.2919,-9.8597e-05,-0.012039,0.65053
6879,11.387,2,0.1,0.00029849,2982.8,0.00029852,2983.8,-9.833e-05,2.0389,-9.8602e-05,-0.0083329,0.65092
6880,11.387,2.1818,0.1,0.00029841,2982,0.00029845,2983.3,-9.825e-05,2.6727,-9.8607e-05,-0.0068507,0.65125
6881,11.387,2.3636,0.1,0.00029834,2981.3,0.00029839,2982.9,-9.8186e-05,3.1867,-9.861e-05,-0.006101,0.65151
6882,11.387,2.5455,0.1,0.00029829,2980.8,0.00029835,2982.6,-9.8137e-05,3.5762,-9.8613e-05,-0.0056877,0.6517
6883,11.387,2.7273,0.1,0.00029826,2980.5,0.00029832,2982.4,-9.8104e-05,3.8379,-9.8615e-05,-0.0054606,0.65183
6884,11.387,2.9091,0.1,0.00029824,2980.4,0.00029831,2982.3,-9.8087e-05,3.9693,-9.8616e-05,-0.0053587,0.6519
6885,11.387,3.0909,0.1,0.00029824,2980.4,0.00029831,2982.3,-9.8087e-05,3.9693,-9.8616e-05,-0.0053587,0.6519
6886,11.387,3.2727,0.1,0.00029826,2980.5,0.00029832,2982.4,-9.8104e-05,3.8379,-9.8615e-05,-0.0054606,0.65183
6887,11.387,3.4545,0.1,0.00029829,2980.8,0.00029835,2982.6,-9.8137e-05,3.5762,-9.8613e-05,-0.0056873,0.6517
6888,11.387,3.6364,0.1,0.00029834,2981.3,0.00029839,2982.9,-9.8186e-05,3.1867,-9.861e-05,-0.0061008,0.65151
6889,11.387,3.8182,0.1,0.00029841,2982,0.00029845,2983.3,-9.825e-05,2.6726,-9.8607e-05,-0.0068504,0.65125
6890,11.387,4,0.1,0.00029849,2982.8,0.00029852,2983.8,-9.833e-05,2.0388,-9.8602e-05,-0.0083326,0.65092
6891,11.387,4.1818,0.1,0.00029858,2983.8,0.0002986,2984.4,-9.8424e-05,1.2919,-9.8597e-05,-0.012039,0.65053
6892,11.387,4.3636,0.1,0.00029869,2984.9,0.0002987,2985.1,-9.853e-05,0.45075,-9.8594e-05,-0.03126,0.65008
6893,11.387,4.5455,0.1,0.00029882,2986.1,0.00029881,2985.9,-9.8581e-05,0.022427,-9.8659e-05,-0.56661,0.64956
6894,11.387,4.7273,0.1,0.00029896,2987.5,0.00029893,2986.7,-9.8577e-05,0.0071537,-9.8792e-05,-1.6117,0.64898
6895,11.387,4.9091,0.1,0.00029911,2989.1,0.00029907,2987.7,-9.8571e-05,0.0038799,-9.8938e-05,-2.7585,0.64833
6896,11.387,5.0909,0.1,0.00029928,2990.7,0.00029921,2988.8,-9.8565e-05,0.0026043,-9.9096e-05,-3.9901,0.64761
6897,11.387,5.2727,0.1,0.00029946,2992.5,0.00029937,2989.9,-9.8559e-05,0.0020257,-9.9265e-05,-5.2984,0.64683
6898,11.387,5.4545,0.1,0.00029965,2994.5,0.00029954,2991.1,-9.8554e-05,0.0018217,-9.9444e-05,-6.6803,0.64599
6899,11.387,5.6364,0.1,0.00029987,2996.6,0.00029973,2992.5,-9.855e-05,0.0016547,-9.9642e-05,-8.1967,0.64508
6900,11.387,5.8182,0.1,0.00030028,3000.8,0.00030009,2995.2,-9.8547e-05,0.002684,-0.00010001,-11.009,0.64411
6901,11.57,0.18182,0.1,0.00029526,2950.5,0.00029506,2944.8,-9.6869e-05,0.0021913,-9.8389e-05,-11.423,0.66317
6902,11.57,0.36364,0.1,0.00029486,2946.6,0.00029471,2942.1,-9.6866e-05,0.0030541,-9.8042e-05,-8.8306,0.66413
6903,11.57,0.54545,0.1,0.00029466,2944.6,0.00029453,2940.8,-9.6865e-05,0.0021502,-9.7869e-05,-7.5458,0.66503
6904,11.57,0.72727,0.1,0.00029449,2942.9,0.00029438,2939.7,-9.6865e-05,0.0020165,-9.7715e-05,-6.3873,0.66586
6905,11.57,0.90909,0.1,0.00029433,2941.2,0.00029424,2938.6,-9.6866e-05,0.0018421,-9.757e-05,-5.2917,0.66663
6906,11.57,1.0909,0.1,0.00029418,2939.7,0.0002941,2937.6,-9.6867e-05,0.0018209,-9.7434e-05,-4.2598,0.66733
6907,11.57,1.2727,0.1,0.00029404,2938.4,0.00029398,2936.7,-9.6869e-05,0.0019696,-9.7308e-05,-3.2969,0.66797
6908,11.57,1.4545,0.1,0.00029391,2937.1,0.00029387,2935.9,-9.6872e-05,0.0024287,-9.7193e-05,-2.4087,0.66855
6909,11.57,1.6364,0.1,0.0002938,2936,0.00029377,2935.2,-9.6875e-05,0.0035379,-9.7088e-05,-1.6011,0.66906
6910,11.57,1.8182,0.1,0.0002937,2935,0.00029369,2934.5,-9.6877e-05,0.0065806,-9.6995e-05,-0.88121,0.66951
6911,11.57,2,0.1,0.00029362,2934.1,0.00029361,2934,-9.6878e-05,0.023063,-9.6916e-05,-0.26602,0.66989
6912,11.57,2.1818,0.1,0.00029354,2933.4,0.00029355,2933.5,-9.6842e-05,0.31329,-9.6886e-05,-0.020974,0.67021
6913,11.57,2.3636,0.1,0.00029348,2932.8,0.0002935,2933.2,-9.6788e-05,0.73611,-9.6887e-05,-0.0095355,0.67047
6914,11.57,2.5455,0.1,0.00029344,2932.4,0.00029346,2932.9,-9.6746e-05,1.0629,-9.6889e-05,-0.0069766,0.67066
6915,11.57,2.7273,0.1,0.00029341,2932.1,0.00029343,2932.7,-9.6718e-05,1.2832,-9.689e-05,-0.0060044,0.67079
6916,11.57,2.9091,0.1,0.0002934,2931.9,0.00029342,2932.6,-9.6704e-05,1.3941,-9.689e-05,-0.0056367,0.67085
6917,11.57,3.0909,0.1,0.0002934,2931.9,0.00029342,2932.6,-9.6704e-05,1.3941,-9.689e-05,-0.005637,0.67085
6918,11.57,3.2727,0.1,0.00029341,2932.1,0.00029343,2932.7,-9.6718e-05,1.2832,-9.689e-05,-0.0060044,0.67079
6919,11.57,3.4545,0.1,0.00029344,2932.4,0.00029346,2932.9,-9.6746e-05,1.0629,-9.6889e-05,-0.0069759,0.67066
6920,11.57,3.6364,0.1,0.00029348,2932.8,0.0002935,2933.2,-9.6788e-05,0.73609,-9.6887e-05,-0.0095357,0.67047
6921,11.57,3.8182,0.1,0.00029354,2933.4,0.00029355,2933.5,-9.6842e-05,0.31326,-9.6886e-05,-0.020975,0.67021
6922,11.57,4,0.1,0.00029362,2934.1,0.00029361,2934,-9.6878e-05,0.02306,-9.6916e-05,-0.26605,0.66989
6923,11.57,4.1818,0.1,0.0002937,2935,0.00029369,2934.5,-9.6877e-05,0.0065802,-9.6995e-05,-0.88125,0.66951
6924,11.57,4.3636,0.1,0.0002938,2936,0.00029377,2935.2,-9.6875e-05,0.0035377,-9.7088e-05,-1.6011,0.66906
6925,11.57,4.5455,0.1,0.00029391,2937.1,0.00029387,2935.9,-9.6872e-05,0.0024286,-9.7193e-05,-2.4087,0.66855
6926,11.57,4.7273,0.1,0.00029404,2938.4,0.00029398,2936.7,-9.6869e-05,0.0019699,-9.7308e-05,-3.297,0.66797
6927,11.57,4.9091,0.1,0.00029418,2939.7,0.0002941,2937.6,-9.6867e-05,0.0018214,-9.7434e-05,-4.2599,0.66733
6928,11.57,5.0909,0.1,0.00029433,2941.2,0.00029424,2938.6,-9.6866e-05,0.001843,-9.757e-05,-5.2918,0.66663
6929,11.57,5.2727,0.1,0.00029449,2942.9,0.00029438,2939.7,-9.6865e-05,0.0020168,-9.7715e-05,-6.3874,0.66586
6930,11.57,5.4545,0.1,0.00029466,2944.6,0.00029453,2940.8,-9.6865e-05,0.0021502,-9.7869e-05,-7.5458,0.66503
6931,11.57,5.6364,0.1,0.00029486,2946.6,0.00029471,2942.1,-9.6866e-05,0.0030548,-9.8042e-05,-8.8306,0.66413
6932,11.57,5.8182,0.1,0.00029526,2950.5,0.00029506,2944.8,-9.6869e-05,0.0021917,-9.8389e-05,-11.423,0.66317
6933,11.754,0.18182,0.1,0.00029025,2900.5,0.00029005,2894.6,-9.5197e-05,0.0018132,-9.677e-05,-11.818,0.68244
6934,11.754,0.36364,0.1,0.00028987,2896.7,0.00028971,2892,-9.5189e-05,0.0044523,-9.6446e-05,-9.4411,0.68339
6935,11.754,0.54545,0.1,0.00028969,2894.9,0.00028955,2890.7,-9.5183e-05,0.0025047,-9.6298e-05,-8.3813,0.68427
6936,11.754,0.72727,0.1,0.00028954,2893.4,0.00028941,2889.6,-9.5178e-05,0.0021205,-9.6168e-05,-7.4396,0.68509
6937,11.754,0.90909,0.1,0.00028939,2891.9,0.00028928,2888.6,-9.5174e-05,0.0014692,-9.6046e-05,-6.5503,0.68585
6938,11.754,1.0909,0.1,0.00028926,2890.6,0.00028916,2887.7,-9.5172e-05,0.00090571,-9.5932e-05,-5.7123,0.68654
6939,11.754,1.2727,0.1,0.00028913,2889.3,0.00028905,2886.9,-9.517e-05,0.00033321,-9.5826e-05,-4.9291,0.68717
6940,11.754,1.4545,0.1,0.00028902,2888.2,0.00028895,2886.1,-9.5169e-05,-0.00023376,-9.5729e-05,-4.2049,0.68774
6941,11.754,1.6364,0.1,0.00028892,2887.2,0.00028886,2885.5,-9.5169e-05,-0.00081461,-9.5641e-05,-3.5445,0.68824
6942,11.754,1.8182,0.1,0.00028884,2886.4,0.00028878,2884.9,-9.5169e-05,-0.0014284,-9.5562e-05,-2.9525,0.68868
6943,11.754,2,0.1,0.00028876,2885.6,0.00028872,2884.4,-9.517e-05,-0.0020947,-9.5494e-05,-2.4339,0.68906
6944,11.754,2.1818,0.1,0.00028869,2885,0.00028866,2884,-9.5171e-05,-0.0028325,-9.5436e-05,-1.9933,0.68938
6945,11.754,2.3636,0.1,0.00028864,2884.4,0.00028862,2883.6,-9.5172e-05,-0.0036481,-9.5389e-05,-1.6348,0.68963
6946,11.754,2.5455,0.1,0.0002886,2884.1,0.00028858,2883.4,-9.5172e-05,-0.0045016,-9.5353e-05,-1.3623,0.68982
6947,11.754,2.7273,0.1,0.00028858,2883.8,0.00028856,2883.2,-9.5173e-05,-0.0052674,-9.5329e-05,-1.1787,0.68994
6948,11.754,2.9091,0.1,0.00028857,2883.7,0.00028855,2883.1,-9.5173e-05,-0.0057415,-9.5317e-05,-1.0863,0.69001
6949,11.754,3.0909,0.1,0.00028857,2883.7,0.00028855,2883.1,-9.5173e-05,-0.0057414,-9.5317e-05,-1.0863,0.69001
6950,11.754,3.2727,0.1,0.00028858,2883.8,0.00028856,2883.2,-9.5173e-05,-0.0052675,-9.5329e-05,-1.1787,0.68994
6951,11.754,3.4545,0.1,0.0002886,2884.1,0.00028858,2883.4,-9.5172e-05,-0.0045017,-9.5353e-05,-1.3623,0.68982
6952,11.754,3.6364,0.1,0.00028864,2884.4,0.00028862,2883.6,-9.5172e-05,-0.003648,-9.5389e-05,-1.6348,0.68963
6953,11.754,3.8182,0.1,0.00028869,2885,0.00028866,2884,-9.5171e-05,-0.0028329,-9.5436e-05,-1.9933,0.68938
6954,11.754,4,0.1,0.00028876,2885.6,0.00028872,2884.4,-9.517e-05,-0.0020944,-9.5494e-05,-2.434,0.68906
6955,11.754,4.1818,0.1,0.00028884,2886.4,0.00028878,2884.9,-9.5169e-05,-0.0014283,-9.5562e-05,-2.9526,0.68868
6956,11.754,4.3636,0.1,0.00028892,2887.2,0.00028886,2885.5,-9.5169e-05,-0.00081423,-9.5641e-05,-3.5445,0.68824
6957,11.754,4.5455,0.1,0.00028902,2888.2,0.00028895,2886.1,-9.5169e-05,-0.00023336,-9.5729e-05,-4.205,0.68774
6958,11.754,4.7273,0.1,0.00028913,2889.3,0.00028905,2886.9,-9.517e-05,0.00033411,-9.5826e-05,-4.9291,0.68717
6959,11.754,4.9091,0.1,0.00028926,2890.6,0.00028916,2887.7,-9.5172e-05,0.00090609,-9.5932e-05,-5.7123,0.68654
6960,11.754,5.0909,0.1,0.00028939,2891.9,0.00028928,2888.6,-9.5174e-05,0.0014702,-9.6046e-05,-6.5504,0.68585
6961,11.754,5.2727,0.1,0.00028954,2893.4,0.00028941,2889.6,-9.5178e-05,0.0021216,-9.6168e-05,-7.4397,0.68509
6962,11.754,5.4545,0.1,0.00028969,2894.9,0.00028955,2890.7,-9.5183e-05,0.0025058,-9.6298e-05,-8.3813,0.68427
6963,11.754,5.6364,0.1,0.00028987,2896.7,0.00028971,2892,-9.5189e-05,0.0044523,-9.6446e-05,-9.4411,0.68339
6964,11.754,5.8182,0.1,0.00029025,2900.5,0.00029005,2894.6,-9.5197e-05,0.0018136,-9.677e-05,-11.818,0.68244
6965,11.938,0.18182,0.1,0.00028526,2850.7,0.00028505,2844.6,-9.3532e-05,0.0015422,-9.5156e-05,-12.198,0.7019
6966,11.938,0.36364,0.1,0.0002849,2847,0.00028473,2842,-9.3519e-05,0.005861,-9.4854e-05,-10.031,0.70283
6967,11.938,0.54545,0.1,0.00028474,2845.4,0.00028458,2840.8,-9.3508e-05,0.0028907,-9.4731e-05,-9.192,0.7037
6968,11.938,0.72727,0.1,0.0002846,2844,0.00028445,2839.8,-9.3498e-05,0.0023049,-9.4625e-05,-8.4622,0.70451
6969,11.938,0.90909,0.1,0.00028447,2842.8,0.00028434,2838.9,-9.349e-05,0.0012986,-9.4525e-05,-7.7742,0.70526
6970,11.938,1.0909,0.1,0.00028435,2841.6,0.00028423,2838,-9.3484e-05,0.00042623,-9.4432e-05,-7.1249,0.70594
6971,11.938,1.2727,0.1,0.00028425,2840.5,0.00028414,2837.2,-9.3479e-05,-0.00044825,-9.4346e-05,-6.5163,0.70656
6972,11.938,1.4545,0.1,0.00028415,2839.5,0.00028405,2836.6,-9.3474e-05,-0.0012892,-9.4266e-05,-5.9516,0.70712
6973,11.938,1.6364,0.1,0.00028406,2838.7,0.00028397,2835.9,-9.3471e-05,-0.0021034,-9.4194e-05,-5.4344,0.70761
6974,11.938,1.8182,0.1,0.00028399,2837.9,0.0002839,2835.4,-9.3469e-05,-0.0028849,-9.413e-05,-4.9687,0.70805
6975,11.938,2,0.1,0.00028392,2837.2,0.00028384,2834.9,-9.3468e-05,-0.0036255,-9.4074e-05,-4.559,0.70842
6976,11.938,2.1818,0.1,0.00028386,2836.7,0.00028379,2834.6,-9.3467e-05,-0.0043081,-9.4026e-05,-4.2095,0.70873
6977,11.938,2.3636,0.1,0.00028382,2836.2,0.00028375,2834.3,-9.3466e-05,-0.0049127,-9.3988e-05,-3.9243,0.70898
6978,11.938,2.5455,0.1,0.00028378,2835.9,0.00028372,2834,-9.3465e-05,-0.0054096,-9.3958e-05,-3.707,0.70917
6979,11.938,2.7273,0.1,0.00028376,2835.7,0.0002837,2833.9,-9.3465e-05,-0.0057657,-9.3938e-05,-3.5604,0.70929
6980,11.938,2.9091,0.1,0.00028375,2835.5,0.00028369,2833.8,-9.3465e-05,-0.0059511,-9.3928e-05,-3.4866,0.70935
6981,11.938,3.0909,0.1,0.00028375,2835.5,0.00028369,2833.8,-9.3465e-05,-0.0059513,-9.3928e-05,-3.4866,0.70935
6982,11.938,3.2727,0.1,0.00028376,2835.7,0.0002837,2833.9,-9.3465e-05,-0.0057653,-9.3938e-05,-3.5604,0.70929
6983,11.938,3.4545,0.1,0.00028378,2835.9,0.00028372,2834,-9.3465e-05,-0.0054095,-9.3958e-05,-3.707,0.70917
6984,11.938,3.6364,0.1,0.00028382,2836.2,0.00028375,2834.3,-9.3466e-05,-0.0049122,-9.3988e-05,-3.9243,0.70898
6985,11.938,3.8182,0.1,0.00028386,2836.7,0.00028379,2834.6,-9.3467e-05,-0.0043082,-9.4026e-05,-4.2095,0.70873
6986,11.938,4,0.1,0.00028392,2837.2,0.00028384,2834.9,-9.3468e-05,-0.0036249,-9.4074e-05,-4.559,0.70842
6987,11.938,4.1818,0.1,0.00028399,2837.9,0.0002839,2835.4,-9.3469e-05,-0.0028844,-9.413e-05,-4.9688,0.70805
6988,11.938,4.3636,0.1,0.00028406,2838.7,0.00028397,2835.9,-9.3471e-05,-0.0021028,-9.4194e-05,-5.4344,0.70761
6989,11.938,4.5455,0.1,0.00028415,2839.5,0.00028405,2836.6,-9.3474e-05,-0.0012884,-9.4266e-05,-5.9517,0.70712
6990,11.938,4.7273,0.1,0.00028425,2840.5,0.00028414,2837.2,-9.3479e-05,-0.00044759,-9.4346e-05,-6.5164,0.70656
6991,11.938,4.9091,0.1,0.00028435,2841.6,0.00028423,2838,-9.3484e-05,0.00042677,-9.4432e-05,-7.1249,0.70594
6992,11.938,5.0909,0.1,0.00028447,2842.8,0.00028434,2838.9,-9.349e-05,0.0012998,-9.4525e-05,-7.7742,0.70526
6993,11.938,5.2727,0.1,0.0002846,2844,0.00028445,2839.8,-9.3498e-05,0.0023058,-9.4625e-05,-8.4623,0.70451
6994,11.938,5.4545,0.1,0.00028474,2845.4,0.00028458,2840.8,-9.3508e-05,0.0028917,-9.4731e-05,-9.192,0.7037
6995,11.938,5.6364,0.1,0.0002849,2847,0.00028473,2842,-9.3519e-05,0.0058621,-9.4854e-05,-10.032,0.70283
6996,11.938,5.8182,0.1,0.00028526,2850.7,0.00028505,2844.6,-9.3532e-05,0.0015423,-9.5156e-05,-12.198,0.7019
6997,12.121,0.18182,0.1,0.00028029,2801,0.00028008,2794.7,-9.1874e-05,0.0012382,-9.3546e-05,-12.562,0.72156
6998,12.121,0.36364,0.1,0.00027994,2797.5,0.00027976,2792.2,-9.1855e-05,0.0071592,-9.3268e-05,-10.606,0.72247
6999,12.121,0.54545,0.1,0.0002798,2796.1,0.00027963,2791.1,-9.1839e-05,0.0031721,-9.3169e-05,-9.9835,0.72333
7000,12.121,0.72727,0.1,0.00027968,2794.9,0.00027952,2790.1,-9.1825e-05,0.0024131,-9.3085e-05,-9.4624,0.72412
7001,12.121,0.90909,0.1,0.00027957,2793.8,0.00027942,2789.3,-9.1813e-05,0.0011149,-9.3008e-05,-8.972,0.72486
7002,12.121,1.0909,0.1,0.00027947,2792.8,0.00027932,2788.5,-9.1803e-05,3.1064e-05,-9.2935e-05,-8.5075,0.72553
7003,12.121,1.2727,0.1,0.00027938,2791.8,0.00027924,2787.8,-9.1794e-05,-0.0010174,-9.2868e-05,-8.0694,0.72614
7004,12.121,1.4545,0.1,0.00027929,2791,0.00027916,2787.2,-9.1787e-05,-0.0019798,-9.2806e-05,-7.6598,0.72669
7005,12.121,1.6364,0.1,0.00027922,2790.3,0.00027909,2786.6,-9.1781e-05,-0.0028603,-9.275e-05,-7.2813,0.72718
7006,12.121,1.8182,0.1,0.00027915,2789.6,0.00027903,2786.1,-9.1777e-05,-0.0036536,-9.27e-05,-6.9375,0.72761
7007,12.121,2,0.1,0.0002791,2789,0.00027898,2785.7,-9.1773e-05,-0.0043543,-9.2655e-05,-6.6325,0.72798
7008,12.121,2.1818,0.1,0.00027905,2788.6,0.00027894,2785.4,-9.177e-05,-0.004955,-9.2618e-05,-6.3703,0.72828
7009,12.121,2.3636,0.1,0.00027901,2788.2,0.0002789,2785.1,-9.1768e-05,-0.0054494,-9.2587e-05,-6.1549,0.72853
7010,12.121,2.5455,0.1,0.00027898,2787.9,0.00027888,2784.9,-9.1767e-05,-0.0058309,-9.2563e-05,-5.9898,0.72871
7011,12.121,2.7273,0.1,0.00027896,2787.7,0.00027886,2784.7,-9.1766e-05,-0.0060892,-9.2548e-05,-5.8781,0.72883
7012,12.121,2.9091,0.1,0.00027895,2787.6,0.00027885,2784.7,-9.1766e-05,-0.0062198,-9.254e-05,-5.8217,0.72889
7013,12.121,3.0909,0.1,0.00027895,2787.6,0.00027885,2784.7,-9.1766e-05,-0.0062201,-9.254e-05,-5.8217,0.72889
7014,12.121,3.2727,0.1,0.00027896,2787.7,0.00027886,2784.7,-9.1766e-05,-0.0060893,-9.2548e-05,-5.8781,0.72883
7015,12.121,3.4545,0.1,0.00027898,2787.9,0.00027888,2784.9,-9.1767e-05,-0.0058307,-9.2563e-05,-5.9898,0.72871
7016,12.121,3.6364,0.1,0.00027901,2788.2,0.0002789,2785.1,-9.1768e-05,-0.0054491,-9.2587e-05,-6.1549,0.72853
7017,12.121,3.8182,0.1,0.00027905,2788.6,0.00027894,2785.4,-9.177e-05,-0.0049546,-9.2618e-05,-6.3703,0.72828
7018,12.121,4,0.1,0.0002791,2789,0.00027898,2785.7,-9.1773e-05,-0.0043541,-9.2655e-05,-6.6325,0.72798
7019,12.121,4.1818,0.1,0.00027915,2789.6,0.00027903,2786.1,-9.1777e-05,-0.0036532,-9.27e-05,-6.9376,0.72761
7020,12.121,4.3636,0.1,0.00027922,2790.3,0.00027909,2786.6,-9.1781e-05,-0.0028599,-9.275e-05,-7.2813,0.72718
7021,12.121,4.5455,0.1,0.00027929,2791,0.00027916,2787.2,-9.1787e-05,-0.0019797,-9.2806e-05,-7.6598,0.72669
7022,12.121,4.7273,0.1,0.00027938,2791.8,0.00027924,2787.8,-9.1794e-05,-0.0010178,-9.2868e-05,-8.0695,0.72614
7023,12.121,4.9091,0.1,0.00027947,2792.8,0.00027932,2788.5,-9.1803e-05,3.1585e-05,-9.2935e-05,-8.5075,0.72553
7024,12.121,5.0909,0.1,0.00027957,2793.8,0.00027942,2789.3,-9.1813e-05,0.0011164,-9.3008e-05,-8.9721,0.72486
7025,12.121,5.2727,0.1,0.00027968,2794.9,0.00027952,2790.1,-9.1825e-05,0.0024141,-9.3085e-05,-9.4625,0.72412
7026,12.121,5.4545,0.1,0.0002798,2796.1,0.00027963,2791.1,-9.1839e-05,0.0031722,-9.3169e-05,-9.9836,0.72333
7027,12.121,5.6364,0.1,0.00027994,2797.5,0.00027976,2792.2,-9.1855e-05,0.0071611,-9.3268e-05,-10.606,0.72247
7028,12.121,5.8182,0.1,0.00028029,2801,0.00028008,2794.7,-9.1874e-05,0.0012389,-9.3546e-05,-12.562,0.72156
7029,12.305,0.18182,0.1,0.00027534,2751.5,0.00027512,2745.1,-9.0223e-05,0.0010261,-9.1942e-05,-12.913,0.7414
7030,12.305,0.36364,0.1,0.00027501,2748.2,0.00027482,2742.6,-9.0199e-05,0.0084918,-9.1686e-05,-11.167,0.7423
7031,12.305,0.54545,0.1,0.00027488,2746.9,0.0002747,2741.6,-9.0178e-05,0.0034807,-9.1611e-05,-10.761,0.74314
7032,12.305,0.72727,0.1,0.00027478,2745.9,0.0002746,2740.7,-9.016e-05,0.0025671,-9.155e-05,-10.447,0.74392
7033,12.305,0.90909,0.1,0.00027469,2745,0.00027451,2739.9,-9.0143e-05,0.0010119,-9.1495e-05,-10.152,0.74465
7034,12.305,1.0909,0.1,0.0002746,2744.1,0.00027443,2739.2,-9.0129e-05,-0.00023739,-9.1443e-05,-9.8697,0.74531
7035,12.305,1.2727,0.1,0.00027452,2743.4,0.00027436,2738.5,-9.0117e-05,-0.0014092,-9.1395e-05,-9.5989,0.74591
7036,12.305,1.4545,0.1,0.00027446,2742.7,0.0002743,2738,-9.0107e-05,-0.002444,-9.135e-05,-9.3406,0.74645
7037,12.305,1.6364,0.1,0.00027439,2742,0.00027424,2737.5,-9.0099e-05,-0.0033546,-9.1309e-05,-9.097,0.74693
7038,12.305,1.8182,0.1,0.00027434,2741.5,0.00027419,2737,-9.0092e-05,-0.0041419,-9.1272e-05,-8.8711,0.74736
7039,12.305,2,0.1,0.00027429,2741,0.00027414,2736.7,-9.0087e-05,-0.0048101,-9.1239e-05,-8.6668,0.74772
7040,12.305,2.1818,0.1,0.00027425,2740.6,0.0002741,2736.4,-9.0082e-05,-0.0053594,-9.1211e-05,-8.4881,0.74802
7041,12.305,2.3636,0.1,0.00027422,2740.3,0.00027407,2736.1,-9.0079e-05,-0.005796,-9.1188e-05,-8.3392,0.74826
7042,12.305,2.5455,0.1,0.00027419,2740,0.00027405,2735.9,-9.0077e-05,-0.0061225,-9.117e-05,-8.2238,0.74844
7043,12.305,2.7273,0.1,0.00027418,2739.9,0.00027404,2735.8,-9.0075e-05,-0.0063385,-9.1158e-05,-8.145,0.74856
7044,12.305,2.9091,0.1,0.00027417,2739.8,0.00027403,2735.7,-9.0074e-05,-0.0064454,-9.1152e-05,-8.1051,0.74862
7045,12.305,3.0909,0.1,0.00027417,2739.8,0.00027403,2735.7,-9.0074e-05,-0.0064457,-9.1152e-05,-8.1051,0.74862
7046,12.305,3.2727,0.1,0.00027418,2739.9,0.00027404,2735.8,-9.0075e-05,-0.0063377,-9.1158e-05,-8.145,0.74856
7047,12.305,3.4545,0.1,0.00027419,2740,0.00027405,2735.9,-9.0077e-05,-0.0061226,-9.117e-05,-8.2238,0.74844
7048,12.305,3.6364,0.1,0.00027422,2740.3,0.00027407,2736.1,-9.0079e-05,-0.0057963,-9.1188e-05,-8.3392,0.74826
7049,12.305,3.8182,0.1,0.00027425,2740.6,0.0002741,2736.4,-9.0082e-05,-0.0053594,-9.1211e-05,-8.4881,0.74802
7050,12.305,4,0.1,0.00027429,2741,0.00027414,2736.7,-9.0087e-05,-0.0048099,-9.1239e-05,-8.6668,0.74772
7051,12.305,4.1818,0.1,0.00027434,2741.5,0.00027419,2737,-9.0092e-05,-0.004142,-9.1272e-05,-8.8711,0.74736
7052,12.305,4.3636,0.1,0.00027439,2742,0.00027424,2737.5,-9.0099e-05,-0.003354,-9.1309e-05,-9.097,0.74693
7053,12.305,4.5455,0.1,0.00027446,2742.7,0.0002743,2738,-9.0107e-05,-0.0024431,-9.135e-05,-9.3407,0.74645
7054,12.305,4.7273,0.1,0.00027452,2743.4,0.00027436,2738.5,-9.0117e-05,-0.0014087,-9.1395e-05,-9.599,0.74591
7055,12.305,4.9091,0.1,0.0002746,2744.1,0.00027443,2739.2,-9.0129e-05,-0.00023702,-9.1443e-05,-9.8698,0.74531
7056,12.305,5.0909,0.1,0.00027469,2745,0.00027451,2739.9,-9.0143e-05,0.0010138,-9.1495e-05,-10.152,0.74465
7057,12.305,5.2727,0.1,0.00027478,2745.9,0.0002746,2740.7,-9.016e-05,0.0025679,-9.155e-05,-10.447,0.74392
7058,12.305,5.4545,0.1,0.00027488,2746.9,0.0002747,2741.6,-9.0178e-05,0.0034813,-9.1611e-05,-10.761,0.74314
7059,12.305,5.6364,0.1,0.00027501,2748.2,0.00027482,2742.6,-9.0199e-05,0.0084919,-9.1686e-05,-11.167,0.7423
7060,12.305,5.8182,0.1,0.00027534,2751.5,0.00027512,2745.1,-9.0223e-05,0.0010267,-9.1942e-05,-12.913,0.7414
7061,12.488,0.18182,0.1,0.00027041,2702.2,0.00027018,2695.6,-8.8578e-05,0.00089644,-9.0341e-05,-13.251,0.76142
7062,12.488,0.36364,0.1,0.00027009,2699,0.00026989,2693.2,-8.8548e-05,0.0098612,-9.0109e-05,-11.719,0.76231
7063,12.488,0.54545,0.1,0.00026998,2698,0.00026979,2692.2,-8.8523e-05,0.0038137,-9.0058e-05,-11.53,0.76314
7064,12.488,0.72727,0.1,0.0002699,2697.1,0.0002697,2691.4,-8.85e-05,0.0027532,-9.0021e-05,-11.423,0.76391
7065,12.488,0.90909,0.1,0.00026982,2696.4,0.00026963,2690.7,-8.848e-05,0.0009621,-8.9987e-05,-11.323,0.76462
7066,12.488,1.0909,0.1,0.00026975,2695.7,0.00026956,2690.1,-8.8462e-05,-0.00042869,-8.9956e-05,-11.222,0.76527
7067,12.488,1.2727,0.1,0.00026969,2695.1,0.0002695,2689.5,-8.8447e-05,-0.0016984,-8.9926e-05,-11.116,0.76586
7068,12.488,1.4545,0.1,0.00026964,2694.5,0.00026945,2689,-8.8434e-05,-0.0027863,-8.9899e-05,-11.006,0.7664
7069,12.488,1.6364,0.1,0.00026959,2694,0.0002694,2688.5,-8.8423e-05,-0.0037166,-8.9873e-05,-10.894,0.76687
7070,12.488,1.8182,0.1,0.00026954,2693.6,0.00026936,2688.1,-8.8414e-05,-0.0044981,-8.9849e-05,-10.782,0.76729
7071,12.488,2,0.1,0.0002695,2693.2,0.00026932,2687.8,-8.8407e-05,-0.0051421,-8.9827e-05,-10.675,0.76764
7072,12.488,2.1818,0.1,0.00026947,2692.9,0.00026929,2687.5,-8.8402e-05,-0.0056582,-8.9808e-05,-10.576,0.76794
7073,12.488,2.3636,0.1,0.00026944,2692.6,0.00026926,2687.3,-8.8397e-05,-0.0060584,-8.9793e-05,-10.49,0.76818
7074,12.488,2.5455,0.1,0.00026943,2692.4,0.00026925,2687.2,-8.8394e-05,-0.0063518,-8.978e-05,-10.422,0.76836
7075,12.488,2.7273,0.1,0.00026941,2692.3,0.00026923,2687.1,-8.8392e-05,-0.0065422,-8.9772e-05,-10.374,0.76847
7076,12.488,2.9091,0.1,0.00026941,2692.2,0.00026923,2687,-8.8391e-05,-0.0066366,-8.9768e-05,-10.35,0.76853
7077,12.488,3.0909,0.1,0.00026941,2692.2,0.00026923,2687,-8.8391e-05,-0.0066363,-8.9768e-05,-10.35,0.76853
7078,12.488,3.2727,0.1,0.00026941,2692.3,0.00026923,2687.1,-8.8392e-05,-0.0065426,-8.9772e-05,-10.375,0.76847
7079,12.488,3.4545,0.1,0.00026943,2692.4,0.00026925,2687.2,-8.8394e-05,-0.0063515,-8.978e-05,-10.422,0.76836
7080,12.488,3.6364,0.1,0.00026944,2692.6,0.00026926,2687.3,-8.8397e-05,-0.0060579,-8.9793e-05,-10.49,0.76818
7081,12.488,3.8182,0.1,0.00026947,2692.9,0.00026929,2687.5,-8.8402e-05,-0.0056579,-8.9808e-05,-10.576,0.76794
7082,12.488,4,0.1,0.0002695,2693.2,0.00026932,2687.8,-8.8407e-05,-0.0051418,-8.9827e-05,-10.675,0.76764
7083,12.488,4.1818,0.1,0.00026954,2693.6,0.00026936,2688.1,-8.8414e-05,-0.0044976,-8.9849e-05,-10.782,0.76729
7084,12.488,4.3636,0.1,0.00026959,2694,0.0002694,2688.5,-8.8423e-05,-0.0037166,-8.9873e-05,-10.894,0.76687
7085,12.488,4.5455,0.1,0.00026964,2694.5,0.00026945,2689,-8.8434e-05,-0.0027863,-8.9899e-05,-11.006,0.7664
7086,12.488,4.7273,0.1,0.00026969,2695.1,0.0002695,2689.5,-8.8447e-05,-0.0016978,-8.9926e-05,-11.116,0.76586
7087,12.488,4.9091,0.1,0.00026975,2695.7,0.00026956,2690.1,-8.8462e-05,-0.00042758,-8.9956e-05,-11.222,0.76527
7088,12.488,5.0909,0.1,0.00026982,2696.4,0.00026963,2690.7,-8.848e-05,0.0009631,-8.9987e-05,-11.323,0.76462
7089,12.488,5.2727,0.1,0.0002699,2697.1,0.0002697,2691.4,-8.85e-05,0.0027545,-9.0021e-05,-11.423,0.76391
7090,12.488,5.4545,0.1,0.00026998,2698,0.00026979,2692.2,-8.8523e-05,0.0038136,-9.0058e-05,-11.53,0.76314
7091,12.488,5.6364,0.1,0.00027009,2699,0.00026989,2693.2,-8.8548e-05,0.0098609,-9.0109e-05,-11.719,0.76231
7092,12.488,5.8182,0.1,0.00027041,2702.2,0.00027018,2695.6,-8.8578e-05,0.00089748,-9.0341e-05,-13.251,0.76142
7093,12.672,0.18182,0.1,0.00026549,2653.1,0.00026526,2646.3,-8.6938e-05,0.00079047,-8.8746e-05,-13.579,0.78163
7094,12.672,0.36364,0.1,0.00026519,2650.1,0.00026498,2643.9,-8.6904e-05,0.011219,-8.8537e-05,-12.265,0.7825
7095,12.672,0.54545,0.1,0.0002651,2649.2,0.00026489,2643,-8.6874e-05,0.0041075,-8.8511e-05,-12.297,0.78332
7096,12.672,0.72727,0.1,0.00026504,2648.5,0.00026482,2642.3,-8.6847e-05,0.0029047,-8.8497e-05,-12.4,0.78408
7097,12.672,0.90909,0.1,0.00026498,2647.9,0.00026476,2641.7,-8.6823e-05,0.00088743,-8.8486e-05,-12.495,0.78478
7098,12.672,1.0909,0.1,0.00026492,2647.4,0.00026471,2641.1,-8.6802e-05,-0.00062862,-8.8475e-05,-12.574,0.78542
7099,12.672,1.2727,0.1,0.00026488,2646.9,0.00026466,2640.6,-8.6783e-05,-0.0019844,-8.8464e-05,-12.632,0.786
7100,12.672,1.4545,0.1,0.00026484,2646.5,0.00026462,2640.2,-8.6768e-05,-0.0031167,-8.8453e-05,-12.669,0.78653
7101,12.672,1.6364,0.1,0.0002648,2646.2,0.00026458,2639.8,-8.6755e-05,-0.0040625,-8.8442e-05,-12.685,0.78699
7102,12.672,1.8182,0.1,0.00026477,2645.8,0.00026455,2639.5,-8.6744e-05,-0.0048381,-8.8431e-05,-12.684,0.7874
7103,12.672,2,0.1,0.00026474,2645.5,0.00026452,2639.2,-8.6735e-05,-0.0054635,-8.8421e-05,-12.67,0.78775
7104,12.672,2.1818,0.1,0.00026471,2645.3,0.00026449,2638.9,-8.6728e-05,-0.0059545,-8.8411e-05,-12.647,0.78804
7105,12.672,2.3636,0.1,0.00026469,2645.1,0.00026447,2638.8,-8.6723e-05,-0.006328,-8.8402e-05,-12.622,0.78828
7106,12.672,2.5455,0.1,0.00026468,2644.9,0.00026446,2638.6,-8.6719e-05,-0.0065973,-8.8395e-05,-12.598,0.78845
7107,12.672,2.7273,0.1,0.00026467,2644.8,0.00026445,2638.5,-8.6717e-05,-0.0067707,-8.839e-05,-12.579,0.78857
7108,12.672,2.9091,0.1,0.00026466,2644.8,0.00026444,2638.5,-8.6715e-05,-0.0068553,-8.8387e-05,-12.57,0.78863
7109,12.672,3.0909,0.1,0.00026466,2644.8,0.00026444,2638.5,-8.6715e-05,-0.0068554,-8.8387e-05,-12.57,0.78863
7110,12.672,3.2727,0.1,0.00026467,2644.8,0.00026445,2638.5,-8.6717e-05,-0.0067704,-8.839e-05,-12.579,0.78857
7111,12.672,3.4545,0.1,0.00026468,2644.9,0.00026446,2638.6,-8.6719e-05,-0.0065971,-8.8395e-05,-12.598,0.78845
7112,12.672,3.6364,0.1,0.00026469,2645.1,0.00026447,2638.8,-8.6723e-05,-0.0063281,-8.8402e-05,-12.622,0.78828
7113,12.672,3.8182,0.1,0.00026471,2645.3,0.00026449,2638.9,-8.6728e-05,-0.0059542,-8.8411e-05,-12.647,0.78804
7114,12.672,4,0.1,0.00026474,2645.5,0.00026452,2639.2,-8.6735e-05,-0.0054629,-8.8421e-05,-12.67,0.78775
7115,12.672,4.1818,0.1,0.00026477,2645.8,0.00026455,2639.5,-8.6744e-05,-0.0048379,-8.8431e-05,-12.684,0.7874
7116,12.672,4.3636,0.1,0.0002648,2646.2,0.00026458,2639.8,-8.6755e-05,-0.0040621,-8.8442e-05,-12.685,0.78699
7117,12.672,4.5455,0.1,0.00026484,2646.5,0.00026462,2640.2,-8.6768e-05,-0.0031158,-8.8453e-05,-12.669,0.78653
7118,12.672,4.7273,0.1,0.00026488,2646.9,0.00026466,2640.6,-8.6783e-05,-0.0019846,-8.8464e-05,-12.632,0.786
7119,12.672,4.9091,0.1,0.00026492,2647.4,0.00026471,2641.1,-8.6802e-05,-0.00062852,-8.8475e-05,-12.574,0.78542
7120,12.672,5.0909,0.1,0.00026498,2647.9,0.00026476,2641.7,-8.6823e-05,0.00088904,-8.8486e-05,-12.495,0.78478
7121,12.672,5.2727,0.1,0.00026504,2648.5,0.00026482,2642.3,-8.6847e-05,0.0029059,-8.8497e-05,-12.4,0.78408
7122,12.672,5.4545,0.1,0.0002651,2649.2,0.00026489,2643,-8.6874e-05,0.004107,-8.8511e-05,-12.297,0.78332
7123,12.672,5.6364,0.1,0.00026519,2650.1,0.00026498,2643.9,-8.6904e-05,0.01122,-8.8537e-05,-12.265,0.7825
7124,12.672,5.8182,0.1,0.00026549,2653.1,0.00026526,2646.3,-8.6938e-05,0.00079167,-8.8746e-05,-13.579,0.78163
7125,12.856,0.18182,0.1,0.00026059,2604.1,0.00026035,2597.1,-8.5305e-05,0.0007592,-8.7154e-05,-13.897,0.80202
7126,12.856,0.36364,0.1,0.00026031,2601.3,0.00026009,2594.8,-8.5264e-05,0.01263,-8.6971e-05,-12.81,0.80287
7127,12.856,0.54545,0.1,0.00026024,2600.6,0.00026001,2594,-8.523e-05,0.0044112,-8.697e-05,-13.068,0.80368
7128,12.856,0.72727,0.1,0.00026019,2600.1,0.00025996,2593.4,-8.5199e-05,0.0030673,-8.698e-05,-13.383,0.80442
7129,12.856,0.90909,0.1,0.00026015,2599.7,0.00025991,2592.8,-8.5171e-05,0.00082834,-8.6991e-05,-13.677,0.80511
7130,12.856,1.0909,0.1,0.00026011,2599.3,0.00025987,2592.4,-8.5146e-05,-0.00080602,-8.7001e-05,-13.938,0.80574
7131,12.856,1.2727,0.1,0.00026008,2599,0.00025984,2591.9,-8.5125e-05,-0.0022395,-8.701e-05,-14.159,0.80631
7132,12.856,1.4545,0.1,0.00026006,2598.8,0.00025981,2591.6,-8.5107e-05,-0.0034104,-8.7016e-05,-14.34,0.80683
7133,12.856,1.6364,0.1,0.00026003,2598.5,0.00025978,2591.2,-8.5092e-05,-0.0043681,-8.7019e-05,-14.483,0.80729
7134,12.856,1.8182,0.1,0.00026001,2598.3,0.00025976,2591,-8.508e-05,-0.0051386,-8.7021e-05,-14.589,0.80769
7135,12.856,2,0.1,0.00025999,2598.1,0.00025974,2590.7,-8.507e-05,-0.0057474,-8.7021e-05,-14.664,0.80804
7136,12.856,2.1818,0.1,0.00025997,2597.9,0.00025972,2590.5,-8.5062e-05,-0.0062172,-8.7019e-05,-14.715,0.80833
7137,12.856,2.3636,0.1,0.00025996,2597.8,0.00025971,2590.4,-8.5056e-05,-0.0065674,-8.7017e-05,-14.746,0.80856
7138,12.856,2.5455,0.1,0.00025995,2597.7,0.00025969,2590.3,-8.5051e-05,-0.0068175,-8.7015e-05,-14.763,0.80873
7139,12.856,2.7273,0.1,0.00025994,2597.6,0.00025969,2590.2,-8.5049e-05,-0.0069755,-8.7014e-05,-14.772,0.80884
7140,12.856,2.9091,0.1,0.00025994,2597.6,0.00025968,2590.2,-8.5047e-05,-0.0070525,-8.7013e-05,-14.775,0.8089
7141,12.856,3.0909,0.1,0.00025994,2597.6,0.00025968,2590.2,-8.5047e-05,-0.0070524,-8.7013e-05,-14.775,0.8089
7142,12.856,3.2727,0.1,0.00025994,2597.6,0.00025969,2590.2,-8.5049e-05,-0.0069753,-8.7014e-05,-14.772,0.80884
7143,12.856,3.4545,0.1,0.00025995,2597.7,0.00025969,2590.3,-8.5051e-05,-0.0068171,-8.7015e-05,-14.763,0.80873
7144,12.856,3.6364,0.1,0.00025996,2597.8,0.00025971,2590.4,-8.5056e-05,-0.0065671,-8.7017e-05,-14.746,0.80856
7145,12.856,3.8182,0.1,0.00025997,2597.9,0.00025972,2590.5,-8.5062e-05,-0.006217,-8.7019e-05,-14.715,0.80833
7146,12.856,4,0.1,0.00025999,2598.1,0.00025974,2590.7,-8.507e-05,-0.0057475,-8.7021e-05,-14.664,0.80804
7147,12.856,4.1818,0.1,0.00026001,2598.3,0.00025976,2591,-8.508e-05,-0.005138,-8.7021e-05,-14.589,0.80769
7148,12.856,4.3636,0.1,0.00026003,2598.5,0.00025978,2591.2,-8.5092e-05,-0.0043684,-8.7019e-05,-14.483,0.80729
7149,12.856,4.5455,0.1,0.00026006,2598.8,0.00025981,2591.6,-8.5107e-05,-0.0034097,-8.7016e-05,-14.34,0.80683
7150,12.856,4.7273,0.1,0.00026008,2599,0.00025984,2591.9,-8.5125e-05,-0.0022393,-8.701e-05,-14.159,0.80631
7151,12.856,4.9091,0.1,0.00026011,2599.3,0.00025987,2592.4,-8.5146e-05,-0.00080553,-8.7001e-05,-13.938,0.80574
7152,12.856,5.0909,0.1,0.00026015,2599.7,0.00025991,2592.8,-8.5171e-05,0.00083009,-8.6991e-05,-13.678,0.80511
7153,12.856,5.2727,0.1,0.00026019,2600.1,0.00025996,2593.4,-8.5199e-05,0.0030691,-8.698e-05,-13.383,0.80442
7154,12.856,5.4545,0.1,0.00026024,2600.6,0.00026001,2594,-8.523e-05,0.0044118,-8.697e-05,-13.068,0.80368
7155,12.856,5.6364,0.1,0.00026031,2601.3,0.00026009,2594.8,-8.5264e-05,0.01263,-8.6971e-05,-12.81,0.80287
7156,12.856,5.8182,0.1,0.00026059,2604.1,0.00026035,2597.1,-8.5305e-05,0.0007596,-8.7154e-05,-13.897,0.80202
7157,13.039,0.18182,0.1,0.0002557,2555.2,0.00025546,2548.1,-8.3676e-05,0.00072394,-8.5567e-05,-14.207,0.82257
7158,13.039,0.36364,0.1,0.00025544,2552.6,0.00025521,2545.9,-8.3631e-05,0.014024,-8.541e-05,-13.358,0.82342
7159,13.039,0.54545,0.1,0.00025539,2552.1,0.00025515,2545.2,-8.3591e-05,0.0046422,-8.5435e-05,-13.849,0.82421
7160,13.039,0.72727,0.1,0.00025536,2551.9,0.00025511,2544.6,-8.3556e-05,0.0031544,-8.547e-05,-14.384,0.82494
7161,13.039,0.90909,0.1,0.00025534,2551.6,0.00025508,2544.2,-8.3524e-05,0.00069254,-8.5505e-05,-14.881,0.82562
7162,13.039,1.0909,0.1,0.00025532,2551.5,0.00025506,2543.8,-8.3497e-05,-0.0010558,-8.5536e-05,-15.325,0.82624
7163,13.039,1.2727,0.1,0.00025531,2551.3,0.00025504,2543.4,-8.3473e-05,-0.0025628,-8.5563e-05,-15.71,0.8268
7164,13.039,1.4545,0.1,0.0002553,2551.2,0.00025502,2543.1,-8.3453e-05,-0.0037685,-8.5586e-05,-16.035,0.82731
7165,13.039,1.6364,0.1,0.00025529,2551.1,0.000255,2542.9,-8.3436e-05,-0.0047363,-8.5605e-05,-16.301,0.82776
7166,13.039,1.8182,0.1,0.00025527,2551,0.00025499,2542.7,-8.3422e-05,-0.0054997,-8.5619e-05,-16.511,0.82816
7167,13.039,2,0.1,0.00025526,2550.9,0.00025498,2542.5,-8.3411e-05,-0.0060916,-8.5629e-05,-16.672,0.8285
7168,13.039,2.1818,0.1,0.00025526,2550.8,0.00025497,2542.4,-8.3402e-05,-0.0065391,-8.5636e-05,-16.791,0.82878
7169,13.039,2.3636,0.1,0.00025525,2550.7,0.00025496,2542.2,-8.3395e-05,-0.0068687,-8.564e-05,-16.875,0.82901
7170,13.039,2.5455,0.1,0.00025524,2550.7,0.00025495,2542.2,-8.3391e-05,-0.0070988,-8.5643e-05,-16.931,0.82918
7171,13.039,2.7273,0.1,0.00025524,2550.6,0.00025495,2542.1,-8.3388e-05,-0.0072432,-8.5644e-05,-16.964,0.82929
7172,13.039,2.9091,0.1,0.00025524,2550.6,0.00025494,2542.1,-8.3386e-05,-0.0073127,-8.5645e-05,-16.98,0.82935
7173,13.039,3.0909,0.1,0.00025524,2550.6,0.00025494,2542.1,-8.3386e-05,-0.007313,-8.5645e-05,-16.98,0.82935
7174,13.039,3.2727,0.1,0.00025524,2550.6,0.00025495,2542.1,-8.3388e-05,-0.0072433,-8.5644e-05,-16.964,0.82929
7175,13.039,3.4545,0.1,0.00025524,2550.7,0.00025495,2542.2,-8.3391e-05,-0.0070989,-8.5643e-05,-16.931,0.82918
7176,13.039,3.6364,0.1,0.00025525,2550.7,0.00025496,2542.2,-8.3395e-05,-0.006868,-8.564e-05,-16.875,0.82901
7177,13.039,3.8182,0.1,0.00025526,2550.8,0.00025497,2542.4,-8.3402e-05,-0.0065391,-8.5636e-05,-16.791,0.82878
7178,13.039,4,0.1,0.00025526,2550.9,0.00025498,2542.5,-8.3411e-05,-0.0060913,-8.5629e-05,-16.672,0.8285
7179,13.039,4.1818,0.1,0.00025527,2551,0.00025499,2542.7,-8.3422e-05,-0.0054996,-8.5619e-05,-16.511,0.82816
7180,13.039,4.3636,0.1,0.00025529,2551.1,0.000255,2542.9,-8.3436e-05,-0.0047358,-8.5605e-05,-16.301,0.82776
7181,13.039,4.5455,0.1,0.0002553,2551.2,0.00025502,2543.1,-8.3453e-05,-0.0037677,-8.5586e-05,-16.035,0.82731
7182,13.039,4.7273,0.1,0.00025531,2551.3,0.00025504,2543.4,-8.3473e-05,-0.0025627,-8.5563e-05,-15.71,0.8268
7183,13.039,4.9091,0.1,0.00025532,2551.5,0.00025506,2543.8,-8.3497e-05,-0.0010557,-8.5536e-05,-15.325,0.82624
7184,13.039,5.0909,0.1,0.00025534,2551.6,0.00025508,2544.2,-8.3524e-05,0.00069341,-8.5505e-05,-14.881,0.82562
7185,13.039,5.2727,0.1,0.00025536,2551.9,0.00025511,2544.6,-8.3556e-05,0.003156,-8.5471e-05,-14.384,0.82494
7186,13.039,5.4545,0.1,0.00025539,2552.1,0.00025515,2545.2,-8.3591e-05,0.004643,-8.5435e-05,-13.849,0.82421
7187,13.039,5.6364,0.1,0.00025544,2552.6,0.00025521,2545.9,-8.3631e-05,0.014024,-8.541e-05,-13.358,0.82342
7188,13.039,5.8182,0.1,0.0002557,2555.2,0.00025546,2548.1,-8.3676e-05,0.00072494,-8.5567e-05,-14.207,0.82257
7189,13.223,0.18182,0.1,0.00025083,2506.5,0.00025058,2499.2,-8.2052e-05,0.00079018,-8.3984e-05,-14.51,0.84331
7190,13.223,0.36364,0.1,0.00025058,2504.1,0.00025034,2497.1,-8.2001e-05,0.015517,-8.3855e-05,-13.913,0.84414
7191,13.223,0.54545,0.1,0.00025056,2503.9,0.00025031,2496.5,-8.1957e-05,0.0048988,-8.3907e-05,-14.648,0.84491
7192,13.223,0.72727,0.1,0.00025055,2503.8,0.00025029,2496,-8.1917e-05,0.0032598,-8.3969e-05,-15.411,0.84563
7193,13.223,0.90909,0.1,0.00025055,2503.8,0.00025027,2495.7,-8.1882e-05,0.00056882,-8.4027e-05,-16.116,0.8463
7194,13.223,1.0909,0.1,0.00025055,2503.8,0.00025026,2495.4,-8.1852e-05,-0.0012907,-8.408e-05,-16.747,0.84691
7195,13.223,1.2727,0.1,0.00025056,2503.8,0.00025026,2495.1,-8.1825e-05,-0.0028679,-8.4127e-05,-17.298,0.84746
7196,13.223,1.4545,0.1,0.00025056,2503.9,0.00025025,2494.9,-8.1803e-05,-0.0041043,-8.4167e-05,-17.766,0.84796
7197,13.223,1.6364,0.1,0.00025056,2503.9,0.00025025,2494.8,-8.1785e-05,-0.0050793,-8.42e-05,-18.153,0.84841
7198,13.223,1.8182,0.1,0.00025056,2503.9,0.00025024,2494.6,-8.177e-05,-0.0058327,-8.4226e-05,-18.464,0.8488
7199,13.223,2,0.1,0.00025056,2503.9,0.00025024,2494.5,-8.1758e-05,-0.0064056,-8.4247e-05,-18.706,0.84913
7200,13.223,2.1818,0.1,0.00025056,2503.9,0.00025024,2494.4,-8.1749e-05,-0.0068298,-8.4262e-05,-18.889,0.84941
7201,13.223,2.3636,0.1,0.00025056,2503.9,0.00025023,2494.3,-8.1742e-05,-0.0071359,-8.4272e-05,-19.021,0.84963
7202,13.223,2.5455,0.1,0.00025056,2503.9,0.00025023,2494.3,-8.1737e-05,-0.0073458,-8.428e-05,-19.112,0.8498
7203,13.223,2.7273,0.1,0.00025056,2503.9,0.00025023,2494.2,-8.1734e-05,-0.007476,-8.4284e-05,-19.167,0.84991
7204,13.223,2.9091,0.1,0.00025056,2503.9,0.00025023,2494.2,-8.1732e-05,-0.0075379,-8.4286e-05,-19.194,0.84997
7205,13.223,3.0909,0.1,0.00025056,2503.9,0.00025023,2494.2,-8.1732e-05,-0.0075378,-8.4286e-05,-19.194,0.84997
7206,13.223,3.2727,0.1,0.00025056,2503.9,0.00025023,2494.2,-8.1734e-05,-0.0074761,-8.4284e-05,-19.167,0.84991
7207,13.223,3.4545,0.1,0.00025056,2503.9,0.00025023,2494.3,-8.1737e-05,-0.0073463,-8.428e-05,-19.112,0.8498
7208,13.223,3.6364,0.1,0.00025056,2503.9,0.00025023,2494.3,-8.1742e-05,-0.0071353,-8.4272e-05,-19.021,0.84963
7209,13.223,3.8182,0.1,0.00025056,2503.9,0.00025024,2494.4,-8.1749e-05,-0.0068306,-8.4262e-05,-18.889,0.84941
7210,13.223,4,0.1,0.00025056,2503.9,0.00025024,2494.5,-8.1758e-05,-0.0064051,-8.4247e-05,-18.706,0.84913
7211,13.223,4.1818,0.1,0.00025056,2503.9,0.00025024,2494.6,-8.177e-05,-0.0058323,-8.4226e-05,-18.464,0.8488
7212,13.223,4.3636,0.1,0.00025056,2503.9,0.00025025,2494.8,-8.1785e-05,-0.0050789,-8.42e-05,-18.153,0.84841
7213,13.223,4.5455,0.1,0.00025056,2503.9,0.00025025,2494.9,-8.1803e-05,-0.0041039,-8.4167e-05,-17.766,0.84796
7214,13.223,4.7273,0.1,0.00025056,2503.8,0.00025026,2495.1,-8.1825e-05,-0.0028675,-8.4127e-05,-17.298,0.84746
7215,13.223,4.9091,0.1,0.00025055,2503.8,0.00025026,2495.4,-8.1852e-05,-0.0012899,-8.408e-05,-16.748,0.84691
7216,13.223,5.0909,0.1,0.00025055,2503.8,0.00025027,2495.7,-8.1882e-05,0.00057006,-8.4027e-05,-16.116,0.8463
7217,13.223,5.2727,0.1,0.00025055,2503.8,0.00025029,2496,-8.1917e-05,0.0032604,-8.3969e-05,-15.411,0.84563
7218,13.223,5.4545,0.1,0.00025056,2503.9,0.00025031,2496.5,-8.1957e-05,0.0048994,-8.3907e-05,-14.648,0.84491
7219,13.223,5.6364,0.1,0.00025058,2504.1,0.00025034,2497.1,-8.2001e-05,0.015517,-8.3855e-05,-13.913,0.84414
7220,13.223,5.8182,0.1,0.00025083,2506.5,0.00025058,2499.2,-8.2052e-05,0.00078999,-8.3984e-05,-14.51,0.84331
7221,13.407,0.18182,0.1,0.00024596,2457.9,0.00024571,2450.5,-8.0433e-05,0.00096733,-8.2404e-05,-14.807,0.8642
7222,13.407,0.36364,0.1,0.00024574,2455.7,0.00024549,2448.5,-8.0376e-05,0.017125,-8.2305e-05,-14.48,0.86502
7223,13.407,0.54545,0.1,0.00024574,2455.7,0.00024548,2448,-8.0327e-05,0.0051761,-8.2387e-05,-15.473,0.86578
7224,13.407,0.72727,0.1,0.00024576,2455.9,0.00024547,2447.6,-8.0283e-05,0.0033769,-8.2476e-05,-16.474,0.86649
7225,13.407,0.90909,0.1,0.00024578,2456.1,0.00024548,2447.4,-8.0244e-05,0.00045151,-8.2559e-05,-17.396,0.86715
7226,13.407,1.0909,0.1,0.0002458,2456.3,0.00024549,2447.2,-8.0211e-05,-0.0015206,-8.2635e-05,-18.22,0.86775
7227,13.407,1.2727,0.1,0.00024582,2456.5,0.0002455,2447,-8.0182e-05,-0.0031659,-8.2702e-05,-18.938,0.86829
7228,13.407,1.4545,0.1,0.00024584,2456.7,0.00024551,2446.9,-8.0159e-05,-0.0044291,-8.276e-05,-19.549,0.86879
7229,13.407,1.6364,0.1,0.00024586,2456.9,0.00024551,2446.8,-8.0139e-05,-0.0054072,-8.2807e-05,-20.054,0.86922
7230,13.407,1.8182,0.1,0.00024587,2457,0.00024552,2446.8,-8.0123e-05,-0.0061464,-8.2846e-05,-20.461,0.86961
7231,13.407,2,0.1,0.00024589,2457.2,0.00024553,2446.7,-8.0111e-05,-0.0066968,-8.2876e-05,-20.78,0.86994
7232,13.407,2.1818,0.1,0.00024589,2457.2,0.00024553,2446.7,-8.0102e-05,-0.0070936,-8.2899e-05,-21.022,0.87021
7233,13.407,2.3636,0.1,0.0002459,2457.3,0.00024553,2446.6,-8.0095e-05,-0.0073736,-8.2915e-05,-21.197,0.87043
7234,13.407,2.5455,0.1,0.0002459,2457.3,0.00024553,2446.6,-8.009e-05,-0.0075611,-8.2926e-05,-21.318,0.87059
7235,13.407,2.7273,0.1,0.0002459,2457.3,0.00024553,2446.6,-8.0087e-05,-0.0076743,-8.2933e-05,-21.393,0.8707
7236,13.407,2.9091,0.1,0.00024591,2457.4,0.00024553,2446.6,-8.0086e-05,-0.0077276,-8.2937e-05,-21.429,0.87076
7237,13.407,3.0909,0.1,0.00024591,2457.4,0.00024553,2446.6,-8.0086e-05,-0.0077275,-8.2937e-05,-21.429,0.87076
7238,13.407,3.2727,0.1,0.0002459,2457.3,0.00024553,2446.6,-8.0087e-05,-0.0076752,-8.2933e-05,-21.393,0.8707
7239,13.407,3.4545,0.1,0.0002459,2457.3,0.00024553,2446.6,-8.009e-05,-0.0075607,-8.2926e-05,-21.318,0.87059
7240,13.407,3.6364,0.1,0.0002459,2457.3,0.00024553,2446.6,-8.0095e-05,-0.0073733,-8.2915e-05,-21.197,0.87043
7241,13.407,3.8182,0.1,0.00024589,2457.2,0.00024553,2446.7,-8.0102e-05,-0.007094,-8.2899e-05,-21.022,0.87021
7242,13.407,4,0.1,0.00024589,2457.2,0.00024553,2446.7,-8.0111e-05,-0.0066961,-8.2876e-05,-20.78,0.86994
7243,13.407,4.1818,0.1,0.00024587,2457,0.00024552,2446.8,-8.0123e-05,-0.0061465,-8.2846e-05,-20.461,0.86961
7244,13.407,4.3636,0.1,0.00024586,2456.9,0.00024551,2446.8,-8.0139e-05,-0.0054066,-8.2807e-05,-20.054,0.86922
7245,13.407,4.5455,0.1,0.00024584,2456.7,0.00024551,2446.9,-8.0159e-05,-0.0044286,-8.276e-05,-19.549,0.86879
7246,13.407,4.7273,0.1,0.00024582,2456.5,0.0002455,2447,-8.0182e-05,-0.0031656,-8.2702e-05,-18.938,0.86829
7247,13.407,4.9091,0.1,0.0002458,2456.3,0.00024549,2447.2,-8.0211e-05,-0.0015201,-8.2635e-05,-18.22,0.86775
7248,13.407,5.0909,0.1,0.00024578,2456.1,0.00024548,2447.4,-8.0244e-05,0.00045224,-8.2559e-05,-17.396,0.86715
7249,13.407,5.2727,0.1,0.00024576,2455.9,0.00024547,2447.6,-8.0283e-05,0.0033779,-8.2476e-05,-16.474,0.86649
7250,13.407,5.4545,0.1,0.00024574,2455.7,0.00024548,2448,-8.0327e-05,0.0051767,-8.2387e-05,-15.473,0.86578
7251,13.407,5.6364,0.1,0.00024574,2455.7,0.00024549,2448.5,-8.0376e-05,0.017125,-8.2305e-05,-14.48,0.86502
7252,13.407,5.8182,0.1,0.00024596,2457.9,0.00024571,2450.5,-8.0433e-05,0.00096697,-8.2404e-05,-14.807,0.8642
7253,13.59,0.18182,0.1,0.00024111,2409.4,0.00024085,2401.9,-7.8817e-05,0.0011763,-8.0827e-05,-15.101,0.88527
7254,13.59,0.36364,0.1,0.00024092,2407.5,0.00024066,2399.9,-7.8754e-05,0.01877,-8.0761e-05,-15.066,0.88607
7255,13.59,0.54545,0.1,0.00024094,2407.7,0.00024066,2399.5,-7.87e-05,0.0053736,-8.0874e-05,-16.334,0.88682
7256,13.59,0.72727,0.1,0.00024098,2408.2,0.00024068,2399.3,-7.8651e-05,0.0034034,-8.0992e-05,-17.587,0.88752
7257,13.59,0.90909,0.1,0.00024103,2408.6,0.0002407,2399.2,-7.8609e-05,0.00023141,-8.1103e-05,-18.735,0.88816
7258,13.59,1.0909,0.1,0.00024107,2409.1,0.00024073,2399.1,-7.8573e-05,-0.0018531,-8.1203e-05,-19.757,0.88875
7259,13.59,1.2727,0.1,0.00024111,2409.5,0.00024076,2399.1,-7.8543e-05,-0.0035646,-8.129e-05,-20.646,0.88929
7260,13.59,1.4545,0.1,0.00024115,2409.9,0.00024078,2399.1,-7.8518e-05,-0.0048518,-8.1365e-05,-21.399,0.88977
7261,13.59,1.6364,0.1,0.00024118,2410.2,0.0002408,2399.1,-7.8498e-05,-0.0058268,-8.1428e-05,-22.02,0.8902
7262,13.59,1.8182,0.1,0.00024121,2410.4,0.00024082,2399.1,-7.8482e-05,-0.0065465,-8.1478e-05,-22.519,0.89058
7263,13.59,2,0.1,0.00024123,2410.7,0.00024084,2399.1,-7.847e-05,-0.0070683,-8.1518e-05,-22.909,0.8909
7264,13.59,2.1818,0.1,0.00024125,2410.8,0.00024085,2399.1,-7.8461e-05,-0.0074334,-8.1548e-05,-23.202,0.89117
7265,13.59,2.3636,0.1,0.00024126,2411,0.00024086,2399.2,-7.8455e-05,-0.0076821,-8.157e-05,-23.415,0.89139
7266,13.59,2.5455,0.1,0.00024127,2411,0.00024086,2399.2,-7.845e-05,-0.0078436,-8.1585e-05,-23.561,0.89155
7267,13.59,2.7273,0.1,0.00024128,2411.1,0.00024087,2399.2,-7.8447e-05,-0.0079388,-8.1594e-05,-23.651,0.89166
7268,13.59,2.9091,0.1,0.00024128,2411.1,0.00024087,2399.2,-7.8446e-05,-0.007982,-8.1599e-05,-23.694,0.89171
7269,13.59,3.0909,0.1,0.00024128,2411.1,0.00024087,2399.2,-7.8446e-05,-0.007982,-8.1599e-05,-23.694,0.89171
7270,13.59,3.2727,0.1,0.00024128,2411.1,0.00024087,2399.2,-7.8447e-05,-0.0079385,-8.1594e-05,-23.651,0.89166
7271,13.59,3.4545,0.1,0.00024127,2411,0.00024086,2399.2,-7.845e-05,-0.0078432,-8.1585e-05,-23.561,0.89155
7272,13.59,3.6364,0.1,0.00024126,2411,0.00024086,2399.2,-7.8455e-05,-0.0076823,-8.157e-05,-23.415,0.89139
7273,13.59,3.8182,0.1,0.00024125,2410.8,0.00024085,2399.1,-7.8461e-05,-0.0074329,-8.1548e-05,-23.202,0.89117
7274,13.59,4,0.1,0.00024123,2410.7,0.00024084,2399.1,-7.847e-05,-0.007068,-8.1518e-05,-22.909,0.8909
7275,13.59,4.1818,0.1,0.00024121,2410.4,0.00024082,2399.1,-7.8482e-05,-0.0065466,-8.1478e-05,-22.52,0.89058
7276,13.59,4.3636,0.1,0.00024118,2410.2,0.0002408,2399.1,-7.8498e-05,-0.0058266,-8.1428e-05,-22.02,0.8902
7277,13.59,4.5455,0.1,0.00024115,2409.9,0.00024078,2399.1,-7.8518e-05,-0.0048515,-8.1365e-05,-21.399,0.88977
7278,13.59,4.7273,0.1,0.00024111,2409.5,0.00024076,2399.1,-7.8543e-05,-0.0035645,-8.129e-05,-20.646,0.88929
7279,13.59,4.9091,0.1,0.00024107,2409.1,0.00024073,2399.1,-7.8573e-05,-0.0018525,-8.1203e-05,-19.757,0.88875
7280,13.59,5.0909,0.1,0.00024103,2408.6,0.0002407,2399.2,-7.8609e-05,0.00023252,-8.1103e-05,-18.735,0.88816
7281,13.59,5.2727,0.1,0.00024098,2408.2,0.00024068,2399.3,-7.8651e-05,0.003405,-8.0992e-05,-17.587,0.88752
7282,13.59,5.4545,0.1,0.00024094,2407.7,0.00024066,2399.5,-7.87e-05,0.0053751,-8.0874e-05,-16.334,0.88682
7283,13.59,5.6364,0.1,0.00024092,2407.5,0.00024066,2399.9,-7.8754e-05,0.01877,-8.0761e-05,-15.066,0.88607
7284,13.59,5.8182,0.1,0.00024111,2409.4,0.00024085,2401.9,-7.8817e-05,0.0011766,-8.0827e-05,-15.101,0.88527
7285,13.774,0.18182,0.1,0.00023627,2361,0.000236,2353.3,-7.7204e-05,0.001516,-7.9253e-05,-15.392,0.90649
7286,13.774,0.36364,0.1,0.0002361,2359.4,0.00023583,2351.5,-7.7134e-05,0.020554,-7.9223e-05,-15.677,0.90728
7287,13.774,0.54545,0.1,0.00023615,2359.9,0.00023586,2351.2,-7.7075e-05,0.0055699,-7.937e-05,-17.24,0.90802
7288,13.774,0.72727,0.1,0.00023622,2360.6,0.0002359,2351.2,-7.7022e-05,0.0034133,-7.9519e-05,-18.761,0.9087
7289,13.774,0.90909,0.1,0.00023629,2361.3,0.00023594,2351.2,-7.6977e-05,-2.1415e-05,-7.9658e-05,-20.148,0.90933
7290,13.774,1.0909,0.1,0.00023636,2362,0.00023599,2351.2,-7.6939e-05,-0.0022191,-7.9783e-05,-21.377,0.90992
7291,13.774,1.2727,0.1,0.00023643,2362.6,0.00023604,2351.3,-7.6907e-05,-0.0039949,-7.9893e-05,-22.439,0.91044
7292,13.774,1.4545,0.1,0.00023648,2363.2,0.00023608,2351.4,-7.6881e-05,-0.0053007,-7.9986e-05,-23.334,0.91092
7293,13.774,1.6364,0.1,0.00023653,2363.7,0.00023611,2351.6,-7.6861e-05,-0.0062669,-8.0064e-05,-24.068,0.91134
7294,13.774,1.8182,0.1,0.00023657,2364.1,0.00023615,2351.7,-7.6846e-05,-0.0069608,-8.0126e-05,-24.654,0.91171
7295,13.774,2,0.1,0.00023661,2364.5,0.00023617,2351.8,-7.6834e-05,-0.007446,-8.0175e-05,-25.106,0.91203
7296,13.774,2.1818,0.1,0.00023663,2364.7,0.00023619,2351.9,-7.6826e-05,-0.007773,-8.0212e-05,-25.445,0.9123
7297,13.774,2.3636,0.1,0.00023665,2364.9,0.00023621,2352,-7.6821e-05,-0.007985,-8.0239e-05,-25.688,0.91251
7298,13.774,2.5455,0.1,0.00023667,2365.1,0.00023622,2352,-7.6817e-05,-0.0081158,-8.0257e-05,-25.852,0.91267
7299,13.774,2.7273,0.1,0.00023668,2365.1,0.00023622,2352.1,-7.6815e-05,-0.0081882,-8.0268e-05,-25.953,0.91278
7300,13.774,2.9091,0.1,0.00023668,2365.2,0.00023623,2352.1,-7.6814e-05,-0.0082203,-8.0274e-05,-26.001,0.91283
7301,13.774,3.0909,0.1,0.00023668,2365.2,0.00023623,2352.1,-7.6814e-05,-0.0082204,-8.0274e-05,-26.001,0.91283
7302,13.774,3.2727,0.1,0.00023668,2365.1,0.00023622,2352.1,-7.6815e-05,-0.0081882,-8.0268e-05,-25.953,0.91278
7303,13.774,3.4545,0.1,0.00023667,2365.1,0.00023622,2352,-7.6817e-05,-0.0081161,-8.0257e-05,-25.852,0.91267
7304,13.774,3.6364,0.1,0.00023665,2364.9,0.00023621,2352,-7.6821e-05,-0.0079847,-8.0239e-05,-25.688,0.91251
7305,13.774,3.8182,0.1,0.00023663,2364.7,0.00023619,2351.9,-7.6826e-05,-0.0077734,-8.0212e-05,-25.445,0.9123
7306,13.774,4,0.1,0.00023661,2364.5,0.00023617,2351.8,-7.6834e-05,-0.0074458,-8.0175e-05,-25.106,0.91203
7307,13.774,4.1818,0.1,0.00023657,2364.1,0.00023615,2351.7,-7.6846e-05,-0.0069604,-8.0126e-05,-24.654,0.91171
7308,13.774,4.3636,0.1,0.00023653,2363.7,0.00023611,2351.6,-7.6861e-05,-0.0062669,-8.0064e-05,-24.068,0.91134
7309,13.774,4.5455,0.1,0.00023648,2363.2,0.00023608,2351.4,-7.6881e-05,-0.0052996,-7.9986e-05,-23.334,0.91092
7310,13.774,4.7273,0.1,0.00023643,2362.6,0.00023604,2351.3,-7.6907e-05,-0.0039941,-7.9893e-05,-22.439,0.91044
7311,13.774,4.9091,0.1,0.00023636,2362,0.00023599,2351.2,-7.6939e-05,-0.0022193,-7.9783e-05,-21.377,0.90992
7312,13.774,5.0909,0.1,0.00023629,2361.3,0.00023594,2351.2,-7.6977e-05,-2.0608e-05,-7.9658e-05,-20.148,0.90933
7313,13.774,5.2727,0.1,0.00023622,2360.6,0.0002359,2351.2,-7.7022e-05,0.0034147,-7.9519e-05,-18.761,0.9087
7314,13.774,5.4545,0.1,0.00023615,2359.9,0.00023586,2351.2,-7.7075e-05,0.0055702,-7.937e-05,-17.24,0.90802
7315,13.774,5.6364,0.1,0.0002361,2359.4,0.00023583,2351.5,-7.7134e-05,0.020554,-7.9223e-05,-15.677,0.90728
7316,13.774,5.8182,0.1,0.00023627,2361,0.000236,2353.3,-7.7204e-05,0.0015162,-7.9253e-05,-15.392,0.90649
7317,13.958,0.18182,0.1,0.00023143,2312.7,0.00023116,2304.8,-7.5592e-05,0.0019731,-7.768e-05,-15.683,0.92787
7318,13.958,0.36364,0.1,0.00023129,2311.3,0.00023101,2303.2,-7.5515e-05,0.022459,-7.769e-05,-16.319,0.92865
7319,13.958,0.54545,0.1,0.00023138,2312.2,0.00023106,2303,-7.5451e-05,0.005713,-7.7874e-05,-18.203,0.92937
7320,13.958,0.72727,0.1,0.00023148,2313.2,0.00023113,2303.1,-7.5394e-05,0.0033545,-7.8058e-05,-20.013,0.93005
7321,13.958,0.90909,0.1,0.00023158,2314.2,0.0002312,2303.3,-7.5346e-05,-0.00035909,-7.8228e-05,-21.652,0.93067
7322,13.958,1.0909,0.1,0.00023167,2315.1,0.00023127,2303.5,-7.5306e-05,-0.0026736,-7.8379e-05,-23.097,0.93124
7323,13.958,1.2727,0.1,0.00023176,2316,0.00023134,2303.8,-7.5273e-05,-0.0045112,-7.8512e-05,-24.338,0.93176
7324,13.958,1.4545,0.1,0.00023184,2316.8,0.0002314,2304,-7.5248e-05,-0.0058283,-7.8624e-05,-25.375,0.93223
7325,13.958,1.6364,0.1,0.00023191,2317.5,0.00023145,2304.3,-7.5228e-05,-0.0067799,-7.8717e-05,-26.217,0.93264
7326,13.958,1.8182,0.1,0.00023197,2318.1,0.0002315,2304.5,-7.5214e-05,-0.0074382,-7.8791e-05,-26.882,0.93301
7327,13.958,2,0.1,0.00023201,2318.5,0.00023153,2304.7,-7.5204e-05,-0.0078798,-7.8848e-05,-27.389,0.93332
7328,13.958,2.1818,0.1,0.00023205,2318.9,0.00023156,2304.9,-7.5198e-05,-0.00816,-7.8892e-05,-27.763,0.93358
7329,13.958,2.3636,0.1,0.00023208,2319.2,0.00023159,2305,-7.5194e-05,-0.0083282,-7.8923e-05,-28.027,0.93379
7330,13.958,2.5455,0.1,0.0002321,2319.4,0.0002316,2305.1,-7.5191e-05,-0.0084224,-7.8944e-05,-28.203,0.93395
7331,13.958,2.7273,0.1,0.00023211,2319.5,0.00023161,2305.2,-7.519e-05,-0.0084692,-7.8957e-05,-28.309,0.93405
7332,13.958,2.9091,0.1,0.00023212,2319.6,0.00023162,2305.2,-7.519e-05,-0.0084876,-7.8963e-05,-28.359,0.9341
7333,13.958,3.0909,0.1,0.00023212,2319.6,0.00023162,2305.2,-7.519e-05,-0.0084873,-7.8963e-05,-28.359,0.9341
7334,13.958,3.2727,0.1,0.00023211,2319.5,0.00023161,2305.2,-7.519e-05,-0.008469,-7.8957e-05,-28.309,0.93405
7335,13.958,3.4545,0.1,0.0002321,2319.4,0.0002316,2305.1,-7.5191e-05,-0.0084223,-7.8944e-05,-28.203,0.93395
7336,13.958,3.6364,0.1,0.00023208,2319.2,0.00023159,2305,-7.5194e-05,-0.0083281,-7.8923e-05,-28.027,0.93379
7337,13.958,3.8182,0.1,0.00023205,2318.9,0.00023156,2304.9,-7.5198e-05,-0.0081591,-7.8892e-05,-27.763,0.93358
7338,13.958,4,0.1,0.00023201,2318.5,0.00023153,2304.7,-7.5204e-05,-0.0078795,-7.8848e-05,-27.389,0.93332
7339,13.958,4.1818,0.1,0.00023197,2318.1,0.0002315,2304.5,-7.5214e-05,-0.0074376,-7.8791e-05,-26.882,0.93301
7340,13.958,4.3636,0.1,0.00023191,2317.5,0.00023145,2304.3,-7.5228e-05,-0.0067795,-7.8717e-05,-26.217,0.93264
7341,13.958,4.5455,0.1,0.00023184,2316.8,0.0002314,2304,-7.5248e-05,-0.0058291,-7.8624e-05,-25.375,0.93223
7342,13.958,4.7273,0.1,0.00023176,2316,0.00023134,2303.8,-7.5273e-05,-0.0045109,-7.8512e-05,-24.338,0.93176
7343,13.958,4.9091,0.1,0.00023167,2315.1,0.00023127,2303.5,-7.5306e-05,-0.0026731,-7.8379e-05,-23.097,0.93124
7344,13.958,5.0909,0.1,0.00023158,2314.2,0.0002312,2303.3,-7.5346e-05,-0.00035781,-7.8228e-05,-21.653,0.93067
7345,13.958,5.2727,0.1,0.00023148,2313.2,0.00023113,2303.1,-7.5394e-05,0.0033555,-7.8058e-05,-20.013,0.93005
7346,13.958,5.4545,0.1,0.00023138,2312.2,0.00023106,2303,-7.5451e-05,0.0057129,-7.7874e-05,-18.203,0.92937
7347,13.958,5.6364,0.1,0.00023129,2311.3,0.00023101,2303.2,-7.5515e-05,0.02246,-7.769e-05,-16.319,0.92865
7348,13.958,5.8182,0.1,0.00023143,2312.7,0.00023116,2304.8,-7.5592e-05,0.0019735,-7.768e-05,-15.684,0.92787
7349,14.141,0.18182,0.1,0.00022659,2264.3,0.00022631,2256.3,-7.3981e-05,0.0026324,-7.6108e-05,-15.976,0.94941
7350,14.141,0.36364,0.1,0.00022649,2263.4,0.0002262,2254.8,-7.3897e-05,0.024562,-7.6163e-05,-17.003,0.95017
7351,14.141,0.54545,0.1,0.00022661,2264.6,0.00022628,2254.9,-7.3827e-05,0.0058449,-7.6388e-05,-19.237,0.95088
7352,14.141,0.72727,0.1,0.00022675,2265.9,0.00022638,2255.2,-7.3766e-05,0.0032659,-7.6609e-05,-21.359,0.95155
7353,14.141,0.90909,0.1,0.00022688,2267.2,0.00022648,2255.5,-7.3715e-05,-0.00074689,-7.6812e-05,-23.269,0.95216
7354,14.141,1.0909,0.1,0.00022701,2268.5,0.00022657,2255.9,-7.3674e-05,-0.0031794,-7.6992e-05,-24.94,0.95272
7355,14.141,1.2727,0.1,0.00022712,2269.6,0.00022666,2256.4,-7.3641e-05,-0.0050759,-7.7149e-05,-26.364,0.95323
7356,14.141,1.4545,0.1,0.00022722,2270.7,0.00022674,2256.8,-7.3616e-05,-0.0063997,-7.7281e-05,-27.541,0.95369
7357,14.141,1.6364,0.1,0.00022731,2271.6,0.00022682,2257.2,-7.3598e-05,-0.0073237,-7.7389e-05,-28.487,0.9541
7358,14.141,1.8182,0.1,0.00022739,2272.3,0.00022688,2257.6,-7.3587e-05,-0.0079376,-7.7475e-05,-29.222,0.95446
7359,14.141,2,0.1,0.00022745,2272.9,0.00022693,2257.9,-7.3579e-05,-0.0083245,-7.7541e-05,-29.774,0.95477
7360,14.141,2.1818,0.1,0.0002275,2273.4,0.00022697,2258.2,-7.3575e-05,-0.0085484,-7.759e-05,-30.171,0.95502
7361,14.141,2.3636,0.1,0.00022753,2273.8,0.000227,2258.4,-7.3573e-05,-0.0086654,-7.7624e-05,-30.445,0.95523
7362,14.141,2.5455,0.1,0.00022756,2274,0.00022702,2258.5,-7.3573e-05,-0.0087166,-7.7648e-05,-30.623,0.95538
7363,14.141,2.7273,0.1,0.00022758,2274.2,0.00022704,2258.7,-7.3573e-05,-0.008733,-7.7662e-05,-30.728,0.95549
7364,14.141,2.9091,0.1,0.00022758,2274.3,0.00022704,2258.7,-7.3574e-05,-0.0087359,-7.7668e-05,-30.776,0.95554
7365,14.141,3.0909,0.1,0.00022758,2274.3,0.00022704,2258.7,-7.3574e-05,-0.0087362,-7.7668e-05,-30.776,0.95554
7366,14.141,3.2727,0.1,0.00022758,2274.2,0.00022704,2258.7,-7.3573e-05,-0.0087333,-7.7662e-05,-30.728,0.95549
7367,14.141,3.4545,0.1,0.00022756,2274,0.00022702,2258.5,-7.3573e-05,-0.0087163,-7.7648e-05,-30.623,0.95538
7368,14.141,3.6364,0.1,0.00022753,2273.8,0.000227,2258.4,-7.3573e-05,-0.0086649,-7.7624e-05,-30.445,0.95523
7369,14.141,3.8182,0.1,0.0002275,2273.4,0.00022697,2258.2,-7.3575e-05,-0.0085489,-7.759e-05,-30.171,0.95502
7370,14.141,4,0.1,0.00022745,2272.9,0.00022693,2257.9,-7.3579e-05,-0.0083245,-7.7541e-05,-29.774,0.95477
7371,14.141,4.1818,0.1,0.00022739,2272.3,0.00022688,2257.6,-7.3587e-05,-0.0079374,-7.7475e-05,-29.222,0.95446
7372,14.141,4.3636,0.1,0.00022731,2271.6,0.00022682,2257.2,-7.3598e-05,-0.0073241,-7.7389e-05,-28.487,0.9541
7373,14.141,4.5455,0.1,0.00022722,2270.7,0.00022674,2256.8,-7.3616e-05,-0.006399,-7.7281e-05,-27.541,0.95369
7374,14.141,4.7273,0.1,0.00022712,2269.6,0.00022666,2256.4,-7.3641e-05,-0.0050753,-7.7149e-05,-26.364,0.95323
7375,14.141,4.9091,0.1,0.00022701,2268.5,0.00022657,2255.9,-7.3674e-05,-0.0031792,-7.6992e-05,-24.94,0.95272
7376,14.141,5.0909,0.1,0.00022688,2267.2,0.00022648,2255.5,-7.3715e-05,-0.00074551,-7.6812e-05,-23.269,0.95216
7377,14.141,5.2727,0.1,0.00022675,2265.9,0.00022638,2255.2,-7.3766e-05,0.0032677,-7.6609e-05,-21.359,0.95155
7378,14.141,5.4545,0.1,0.00022661,2264.6,0.00022628,2254.9,-7.3827e-05,0.0058446,-7.6388e-05,-19.237,0.95088
7379,14.141,5.6364,0.1,0.00022649,2263.4,0.0002262,2254.8,-7.3897e-05,0.024563,-7.6163e-05,-17.003,0.95017
7380,14.141,5.8182,0.1,0.00022659,2264.3,0.00022631,2256.3,-7.3981e-05,0.0026329,-7.6108e-05,-15.976,0.94941
7381,14.325,0.18182,0.1,0.00022175,2216,0.00022147,2207.8,-7.237e-05,0.0035435,-7.4536e-05,-16.273,0.9711
7382,14.325,0.36364,0.1,0.0002217,2215.4,0.00022139,2206.5,-7.2277e-05,0.0269,-7.4641e-05,-17.736,0.97185
7383,14.325,0.54545,0.1,0.00022186,2217,0.0002215,2206.8,-7.2201e-05,0.0059603,-7.4911e-05,-20.357,0.97255
7384,14.325,0.72727,0.1,0.00022203,2218.8,0.00022163,2207.3,-7.2136e-05,0.0031412,-7.5174e-05,-22.819,0.9732
7385,14.325,0.90909,0.1,0.0002222,2220.5,0.00022176,2207.8,-7.2083e-05,-0.001194,-7.5413e-05,-25.02,0.9738
7386,14.325,1.0909,0.1,0.00022236,2222.1,0.00022189,2208.5,-7.2041e-05,-0.0037467,-7.5625e-05,-26.93,0.97435
7387,14.325,1.2727,0.1,0.00022251,2223.5,0.00022201,2209.1,-7.2009e-05,-0.0056976,-7.5807e-05,-28.541,0.97485
7388,14.325,1.4545,0.1,0.00022264,2224.8,0.00022211,2209.7,-7.1986e-05,-0.0070182,-7.5959e-05,-29.859,0.97531
7389,14.325,1.6364,0.1,0.00022275,2225.9,0.00022221,2210.3,-7.1972e-05,-0.0079058,-7.6083e-05,-30.901,0.97571
7390,14.325,1.8182,0.1,0.00022284,2226.9,0.00022229,2210.9,-7.1963e-05,-0.008462,-7.618e-05,-31.696,0.97606
7391,14.325,2,0.1,0.00022292,2227.7,0.00022235,2211.3,-7.1959e-05,-0.008783,-7.6254e-05,-32.279,0.97637
7392,14.325,2.1818,0.1,0.00022298,2228.3,0.00022241,2211.7,-7.1959e-05,-0.0089399,-7.6308e-05,-32.686,0.97662
7393,14.325,2.3636,0.1,0.00022303,2228.7,0.00022245,2212.1,-7.1961e-05,-0.0089958,-7.6346e-05,-32.957,0.97682
7394,14.325,2.5455,0.1,0.00022306,2229,0.00022248,2212.3,-7.1963e-05,-0.0089975,-7.637e-05,-33.125,0.97697
7395,14.325,2.7273,0.1,0.00022308,2229.2,0.0002225,2212.4,-7.1965e-05,-0.0089791,-7.6385e-05,-33.22,0.97707
7396,14.325,2.9091,0.1,0.00022309,2229.4,0.0002225,2212.5,-7.1966e-05,-0.0089636,-7.6392e-05,-33.262,0.97712
7397,14.325,3.0909,0.1,0.00022309,2229.4,0.0002225,2212.5,-7.1966e-05,-0.0089631,-7.6392e-05,-33.262,0.97712
7398,14.325,3.2727,0.1,0.00022308,2229.2,0.0002225,2212.4,-7.1965e-05,-0.0089781,-7.6385e-05,-33.22,0.97707
7399,14.325,3.4545,0.1,0.00022306,2229,0.00022248,2212.3,-7.1963e-05,-0.0089976,-7.637e-05,-33.125,0.97697
7400,14.325,3.6364,0.1,0.00022303,2228.7,0.00022245,2212.1,-7.1961e-05,-0.0089955,-7.6346e-05,-32.957,0.97682
7401,14.325,3.8182,0.1,0.00022298,2228.3,0.00022241,2211.7,-7.1959e-05,-0.00894,-7.6308e-05,-32.686,0.97662
7402,14.325,4,0.1,0.00022292,2227.7,0.00022235,2211.3,-7.1959e-05,-0.0087826,-7.6254e-05,-32.279,0.97637
7403,14.325,4.1818,0.1,0.00022284,2226.9,0.00022229,2210.9,-7.1963e-05,-0.0084619,-7.618e-05,-31.696,0.97606
7404,14.325,4.3636,0.1,0.00022275,2225.9,0.00022221,2210.3,-7.1972e-05,-0.0079051,-7.6083e-05,-30.901,0.97571
7405,14.325,4.5455,0.1,0.00022264,2224.8,0.00022211,2209.7,-7.1986e-05,-0.0070178,-7.5959e-05,-29.859,0.97531
7406,14.325,4.7273,0.1,0.00022251,2223.5,0.00022201,2209.1,-7.2009e-05,-0.0056975,-7.5807e-05,-28.541,0.97485
7407,14.325,4.9091,0.1,0.00022236,2222.1,0.00022189,2208.5,-7.2041e-05,-0.003746,-7.5625e-05,-26.93,0.97435
7408,14.325,5.0909,0.1,0.0002222,2220.5,0.00022176,2207.8,-7.2083e-05,-0.0011923,-7.5413e-05,-25.02,0.9738
7409,14.325,5.2727,0.1,0.00022203,2218.8,0.00022163,2207.3,-7.2136e-05,0.003143,-7.5174e-05,-22.819,0.9732
7410,14.325,5.4545,0.1,0.00022186,2217,0.0002215,2206.8,-7.2201e-05,0.0059585,-7.4912e-05,-20.357,0.97255
7411,14.325,5.6364,0.1,0.0002217,2215.4,0.00022139,2206.5,-7.2277e-05,0.0269,-7.4641e-05,-17.736,0.97185
7412,14.325,5.8182,0.1,0.00022175,2216,0.00022147,2207.8,-7.237e-05,0.0035455,-7.4536e-05,-16.273,0.9711
7413,14.509,0.18182,0.1,0.0002169,2167.5,0.00021662,2159.2,-7.0755e-05,0.0046754,-7.2962e-05,-16.577,0.99294
7414,14.509,0.36364,0.1,0.0002169,2167.5,0.00021658,2158.2,-7.0654e-05,0.029398,-7.3124e-05,-18.531,0.99367
7415,14.509,0.54545,0.1,0.0002171,2169.5,0.00021673,2158.7,-7.0572e-05,0.0059391,-7.3445e-05,-21.581,0.99436
7416,14.509,0.72727,0.1,0.00021732,2171.7,0.0002169,2159.4,-7.0503e-05,0.0028636,-7.3753e-05,-24.416,0.995
7417,14.509,0.90909,0.1,0.00021753,2173.8,0.00021706,2160.2,-7.0448e-05,-0.0018207,-7.4032e-05,-26.931,0.99559
7418,14.509,1.0909,0.1,0.00021773,2175.8,0.00021722,2161.1,-7.0406e-05,-0.0044937,-7.4278e-05,-29.095,0.99613
7419,14.509,1.2727,0.1,0.00021791,2177.6,0.00021737,2162,-7.0376e-05,-0.0064943,-7.4488e-05,-30.9,0.99663
7420,14.509,1.4545,0.1,0.00021808,2179.3,0.00021751,2162.9,-7.0357e-05,-0.0078007,-7.4662e-05,-32.355,0.99707
7421,14.509,1.6364,0.1,0.00021821,2180.6,0.00021763,2163.7,-7.0347e-05,-0.0086381,-7.4802e-05,-33.485,0.99747
7422,14.509,1.8182,0.1,0.00021833,2181.8,0.00021773,2164.4,-7.0343e-05,-0.0091231,-7.4911e-05,-34.327,0.99782
7423,14.509,2,0.1,0.00021843,2182.8,0.00021781,2165.1,-7.0345e-05,-0.0093646,-7.4992e-05,-34.924,0.99811
7424,14.509,2.1818,0.1,0.0002185,2183.5,0.00021788,2165.6,-7.035e-05,-0.0094431,-7.505e-05,-35.324,0.99836
7425,14.509,2.3636,0.1,0.00021856,2184.1,0.00021793,2166.1,-7.0356e-05,-0.0094275,-7.5089e-05,-35.575,0.99856
7426,14.509,2.5455,0.1,0.0002186,2184.5,0.00021797,2166.4,-7.0362e-05,-0.0093725,-7.5115e-05,-35.72,0.99871
7427,14.509,2.7273,0.1,0.00021862,2184.7,0.00021799,2166.6,-7.0367e-05,-0.0093137,-7.5129e-05,-35.795,0.99881
7428,14.509,2.9091,0.1,0.00021864,2184.9,0.00021801,2166.7,-7.0369e-05,-0.0092781,-7.5136e-05,-35.826,0.99886
7429,14.509,3.0909,0.1,0.00021864,2184.9,0.00021801,2166.7,-7.0369e-05,-0.0092785,-7.5136e-05,-35.826,0.99886
7430,14.509,3.2727,0.1,0.00021862,2184.7,0.00021799,2166.6,-7.0367e-05,-0.009314,-7.5129e-05,-35.795,0.99881
7431,14.509,3.4545,0.1,0.0002186,2184.5,0.00021797,2166.4,-7.0362e-05,-0.0093721,-7.5115e-05,-35.72,0.99871
7432,14.509,3.6364,0.1,0.00021856,2184.1,0.00021793,2166.1,-7.0356e-05,-0.0094272,-7.5089e-05,-35.575,0.99856
7433,14.509,3.8182,0.1,0.0002185,2183.5,0.00021788,2165.6,-7.035e-05,-0.0094427,-7.505e-05,-35.324,0.99836
7434,14.509,4,0.1,0.00021843,2182.8,0.00021781,2165.1,-7.0345e-05,-0.0093647,-7.4992e-05,-34.924,0.99811
7435,14.509,4.1818,0.1,0.00021833,2181.8,0.00021773,2164.4,-7.0343e-05,-0.009123,-7.4911e-05,-34.327,0.99782
7436,14.509,4.3636,0.1,0.00021822,2180.6,0.00021763,2163.7,-7.0347e-05,-0.0086377,-7.4802e-05,-33.485,0.99747
7437,14.509,4.5455,0.1,0.00021808,2179.3,0.00021751,2162.9,-7.0357e-05,-0.0077997,-7.4662e-05,-32.355,0.99707
7438,14.509,4.7273,0.1,0.00021791,2177.6,0.00021737,2162,-7.0376e-05,-0.0064939,-7.4488e-05,-30.9,0.99663
7439,14.509,4.9091,0.1,0.00021773,2175.8,0.00021722,2161.1,-7.0406e-05,-0.0044934,-7.4278e-05,-29.095,0.99613
7440,14.509,5.0909,0.1,0.00021753,2173.8,0.00021706,2160.2,-7.0448e-05,-0.0018188,-7.4032e-05,-26.931,0.99559
7441,14.509,5.2727,0.1,0.00021732,2171.7,0.0002169,2159.4,-7.0503e-05,0.0028639,-7.3753e-05,-24.416,0.995
7442,14.509,5.4545,0.1,0.0002171,2169.5,0.00021673,2158.7,-7.0572e-05,0.0059388,-7.3445e-05,-21.581,0.99436
7443,14.509,5.6364,0.1,0.0002169,2167.5,0.00021658,2158.2,-7.0654e-05,0.029399,-7.3124e-05,-18.531,0.99367
7444,14.509,5.8182,0.1,0.0002169,2167.5,0.00021662,2159.2,-7.0755e-05,0.0046764,-7.2962e-05,-16.577,0.99294
7445,14.692,0.18182,0.1,0.00021204,2119,0.00021175,2110.5,-6.9135e-05,0.0062059,-7.1384e-05,-16.891,1.0149
7446,14.692,0.36364,0.1,0.00021209,2119.5,0.00021176,2109.7,-6.9025e-05,0.032204,-7.1611e-05,-19.401,1.0156
7447,14.692,0.54545,0.1,0.00021235,2122.1,0.00021195,2110.5,-6.8937e-05,0.0058749,-7.1989e-05,-22.928,1.0163
7448,14.692,0.72727,0.1,0.00021262,2124.7,0.00021216,2111.5,-6.8864e-05,0.0025192,-7.2348e-05,-26.175,1.0169
7449,14.692,0.90909,0.1,0.00021288,2127.4,0.00021237,2112.7,-6.8808e-05,-0.0025397,-7.2672e-05,-29.032,1.0175
7450,14.692,1.0909,0.1,0.00021313,2129.8,0.00021257,2113.9,-6.8768e-05,-0.0053325,-7.2955e-05,-31.466,1.0181
7451,14.692,1.2727,0.1,0.00021335,2132,0.00021276,2115.1,-6.8742e-05,-0.0073743,-7.3195e-05,-33.47,1.0185
7452,14.692,1.4545,0.1,0.00021355,2134,0.00021293,2116.2,-6.8727e-05,-0.0086526,-7.3392e-05,-35.06,1.019
7453,14.692,1.6364,0.1,0.00021372,2135.7,0.00021308,2117.3,-6.8723e-05,-0.009424,-7.3549e-05,-36.268,1.0194
7454,14.692,1.8182,0.1,0.00021386,2137.1,0.0002132,2118.3,-6.8727e-05,-0.0098227,-7.3669e-05,-37.14,1.0197
7455,14.692,2,0.1,0.00021398,2138.3,0.00021331,2119.2,-6.8736e-05,-0.0099696,-7.3756e-05,-37.732,1.02
7456,14.692,2.1818,0.1,0.00021407,2139.2,0.00021339,2119.9,-6.8747e-05,-0.0099569,-7.3817e-05,-38.103,1.0203
7457,14.692,2.3636,0.1,0.00021414,2139.9,0.00021346,2120.5,-6.876e-05,-0.0098603,-7.3858e-05,-38.314,1.0204
7458,14.692,2.5455,0.1,0.00021419,2140.4,0.00021351,2120.9,-6.8771e-05,-0.0097416,-7.3883e-05,-38.419,1.0206
7459,14.692,2.7273,0.1,0.00021422,2140.7,0.00021354,2121.2,-6.8779e-05,-0.0096373,-7.3897e-05,-38.462,1.0207
7460,14.692,2.9091,0.1,0.00021423,2140.9,0.00021355,2121.4,-6.8783e-05,-0.0095788,-7.3903e-05,-38.475,1.0207
7461,14.692,3.0909,0.1,0.00021423,2140.9,0.00021355,2121.4,-6.8783e-05,-0.0095787,-7.3903e-05,-38.475,1.0207
7462,14.692,3.2727,0.1,0.00021422,2140.7,0.00021354,2121.2,-6.8779e-05,-0.0096374,-7.3897e-05,-38.462,1.0207
7463,14.692,3.4545,0.1,0.00021419,2140.4,0.00021351,2120.9,-6.8771e-05,-0.0097404,-7.3883e-05,-38.419,1.0206
7464,14.692,3.6364,0.1,0.00021414,2139.9,0.00021346,2120.5,-6.876e-05,-0.0098601,-7.3858e-05,-38.314,1.0204
7465,14.692,3.8182,0.1,0.00021407,2139.2,0.00021339,2119.9,-6.8747e-05,-0.0099562,-7.3817e-05,-38.103,1.0203
7466,14.692,4,0.1,0.00021398,2138.3,0.00021331,2119.2,-6.8736e-05,-0.0099695,-7.3756e-05,-37.732,1.02
7467,14.692,4.1818,0.1,0.00021386,2137.1,0.0002132,2118.3,-6.8727e-05,-0.0098233,-7.3669e-05,-37.14,1.0197
7468,14.692,4.3636,0.1,0.00021372,2135.7,0.00021308,2117.3,-6.8723e-05,-0.0094242,-7.3549e-05,-36.268,1.0194
7469,14.692,4.5455,0.1,0.00021355,2134,0.00021293,2116.2,-6.8727e-05,-0.008652,-7.3392e-05,-35.06,1.019
7470,14.692,4.7273,0.1,0.00021335,2132,0.00021276,2115.1,-6.8742e-05,-0.0073734,-7.3195e-05,-33.47,1.0185
7471,14.692,4.9091,0.1,0.00021313,2129.8,0.00021257,2113.9,-6.8768e-05,-0.0053322,-7.2955e-05,-31.466,1.0181
7472,14.692,5.0909,0.1,0.00021288,2127.4,0.00021237,2112.7,-6.8808e-05,-0.0025379,-7.2672e-05,-29.032,1.0175
7473,14.692,5.2727,0.1,0.00021262,2124.7,0.00021216,2111.5,-6.8864e-05,0.0025204,-7.2348e-05,-26.175,1.0169
7474,14.692,5.4545,0.1,0.00021235,2122.1,0.00021195,2110.5,-6.8937e-05,0.0058746,-7.1989e-05,-22.928,1.0163
7475,14.692,5.6364,0.1,0.00021209,2119.5,0.00021176,2109.7,-6.9025e-05,0.032205,-7.1611e-05,-19.401,1.0156
7476,14.692,5.8182,0.1,0.00021204,2119,0.00021175,2110.5,-6.9135e-05,0.0062066,-7.1384e-05,-16.891,1.0149
7477,14.876,0.18182,0.1,0.00020716,2070.2,0.00020686,2061.5,-6.7508e-05,0.0082386,-6.9801e-05,-17.218,1.037
7478,14.876,0.36364,0.1,0.00020728,2071.3,0.00020692,2061.1,-6.7387e-05,0.035355,-7.0102e-05,-20.359,1.0378
7479,14.876,0.54545,0.1,0.0002076,2074.5,0.00020717,2062.2,-6.7293e-05,0.0057406,-7.0544e-05,-24.423,1.0384
7480,14.876,0.72727,0.1,0.00020792,2077.8,0.00020743,2063.6,-6.7217e-05,0.0020884,-7.0961e-05,-28.127,1.039
7481,14.876,0.90909,0.1,0.00020824,2081,0.00020769,2065.1,-6.7161e-05,-0.0033731,-7.1334e-05,-31.358,1.0396
7482,14.876,1.0909,0.1,0.00020854,2084,0.00020794,2066.7,-6.7124e-05,-0.0062825,-7.1659e-05,-34.08,1.0401
7483,14.876,1.2727,0.1,0.00020881,2086.7,0.00020817,2068.3,-6.7103e-05,-0.0083546,-7.1932e-05,-36.29,1.0406
7484,14.876,1.4545,0.1,0.00020905,2089.1,0.00020838,2069.8,-6.7096e-05,-0.0095871,-7.2154e-05,-38.01,1.041
7485,14.876,1.6364,0.1,0.00020926,2091.1,0.00020856,2071.2,-6.7101e-05,-0.010277,-7.2327e-05,-39.282,1.0414
7486,14.876,1.8182,0.1,0.00020943,2092.9,0.00020872,2072.5,-6.7114e-05,-0.01057,-7.2458e-05,-40.164,1.0418
7487,14.876,2,0.1,0.00020957,2094.3,0.00020885,2073.6,-6.7132e-05,-0.010605,-7.2551e-05,-40.727,1.042
7488,14.876,2.1818,0.1,0.00020968,2095.4,0.00020895,2074.6,-6.7153e-05,-0.010488,-7.2615e-05,-41.045,1.0423
7489,14.876,2.3636,0.1,0.00020977,2096.2,0.00020904,2075.3,-6.7174e-05,-0.010298,-7.2655e-05,-41.192,1.0425
7490,14.876,2.5455,0.1,0.00020983,2096.8,0.0002091,2075.9,-6.7191e-05,-0.010111,-7.2678e-05,-41.235,1.0426
7491,14.876,2.7273,0.1,0.00020987,2097.2,0.00020913,2076.3,-6.7204e-05,-0.0099591,-7.269e-05,-41.23,1.0427
7492,14.876,2.9091,0.1,0.00020988,2097.4,0.00020915,2076.5,-6.7211e-05,-0.0098769,-7.2695e-05,-41.218,1.0428
7493,14.876,3.0909,0.1,0.00020988,2097.4,0.00020915,2076.5,-6.7211e-05,-0.0098762,-7.2695e-05,-41.218,1.0428
7494,14.876,3.2727,0.1,0.00020987,2097.2,0.00020913,2076.3,-6.7204e-05,-0.0099595,-7.269e-05,-41.23,1.0427
7495,14.876,3.4545,0.1,0.00020983,2096.8,0.0002091,2075.9,-6.7191e-05,-0.010111,-7.2678e-05,-41.235,1.0426
7496,14.876,3.6364,0.1,0.00020977,2096.2,0.00020904,2075.3,-6.7174e-05,-0.010298,-7.2655e-05,-41.192,1.0425
7497,14.876,3.8182,0.1,0.00020968,2095.4,0.00020895,2074.6,-6.7153e-05,-0.010488,-7.2615e-05,-41.045,1.0423
7498,14.876,4,0.1,0.00020957,2094.3,0.00020885,2073.6,-6.7132e-05,-0.010605,-7.2551e-05,-40.727,1.042
7499,14.876,4.1818,0.1,0.00020943,2092.9,0.00020872,2072.5,-6.7114e-05,-0.010569,-7.2458e-05,-40.164,1.0418
7500,14.876,4.3636,0.1,0.00020926,2091.1,0.00020856,2071.2,-6.7101e-05,-0.010276,-7.2327e-05,-39.282,1.0414
7501,14.876,4.5455,0.1,0.00020905,2089.1,0.00020838,2069.8,-6.7096e-05,-0.0095872,-7.2154e-05,-38.01,1.041
7502,14.876,4.7273,0.1,0.00020881,2086.7,0.00020817,2068.3,-6.7103e-05,-0.0083547,-7.1932e-05,-36.29,1.0406
7503,14.876,4.9091,0.1,0.00020854,2084,0.00020794,2066.7,-6.7124e-05,-0.0062817,-7.1659e-05,-34.08,1.0401
7504,14.876,5.0909,0.1,0.00020824,2081,0.00020769,2065.1,-6.7161e-05,-0.0033719,-7.1334e-05,-31.358,1.0396
7505,14.876,5.2727,0.1,0.00020792,2077.8,0.00020743,2063.6,-6.7217e-05,0.0020899,-7.0961e-05,-28.127,1.039
7506,14.876,5.4545,0.1,0.0002076,2074.5,0.00020717,2062.2,-6.7293e-05,0.0057418,-7.0544e-05,-24.423,1.0384
7507,14.876,5.6364,0.1,0.00020728,2071.3,0.00020692,2061.1,-6.7387e-05,0.035355,-7.0102e-05,-20.359,1.0378
7508,14.876,5.8182,0.1,0.00020716,2070.2,0.00020686,2061.5,-6.7508e-05,0.0082373,-6.9801e-05,-17.218,1.037
7509,15.06,0.18182,0.1,0.00020225,2021.1,0.00020194,2012.3,-6.5869e-05,0.010857,-6.8208e-05,-17.563,1.0593
7510,15.06,0.36364,0.1,0.00020244,2023,0.00020207,2012.2,-6.5737e-05,0.038848,-6.8594e-05,-21.424,1.06
7511,15.06,0.54545,0.1,0.00020283,2026.9,0.00020237,2013.7,-6.5636e-05,0.0054699,-6.911e-05,-26.093,1.0607
7512,15.06,0.72727,0.1,0.00020323,2030.9,0.00020269,2015.5,-6.5558e-05,0.0015066,-6.9592e-05,-30.305,1.0613
7513,15.06,0.90909,0.1,0.00020361,2034.7,0.00020301,2017.5,-6.5504e-05,-0.0043861,-7.0021e-05,-33.946,1.0618
7514,15.06,1.0909,0.1,0.00020397,2038.3,0.00020332,2019.6,-6.5471e-05,-0.0074042,-7.0392e-05,-36.978,1.0623
7515,15.06,1.2727,0.1,0.0002043,2041.6,0.0002036,2021.6,-6.5458e-05,-0.0094921,-7.0701e-05,-39.401,1.0628
7516,15.06,1.4545,0.1,0.00020459,2044.5,0.00020385,2023.5,-6.5462e-05,-0.01066,-7.095e-05,-41.246,1.0632
7517,15.06,1.6364,0.1,0.00020484,2047,0.00020408,2025.3,-6.5478e-05,-0.011244,-7.1142e-05,-42.565,1.0636
7518,15.06,1.8182,0.1,0.00020505,2049.1,0.00020427,2027,-6.5504e-05,-0.011412,-7.1283e-05,-43.434,1.0639
7519,15.06,2,0.1,0.00020522,2050.8,0.00020444,2028.5,-6.5535e-05,-0.011319,-7.1382e-05,-43.938,1.0642
7520,15.06,2.1818,0.1,0.00020535,2052.1,0.00020457,2029.7,-6.5568e-05,-0.011085,-7.1446e-05,-44.171,1.0645
7521,15.06,2.3636,0.1,0.00020546,2053.2,0.00020467,2030.7,-6.5599e-05,-0.010801,-7.1484e-05,-44.225,1.0647
7522,15.06,2.5455,0.1,0.00020553,2053.9,0.00020474,2031.4,-6.5626e-05,-0.010535,-7.1504e-05,-44.182,1.0648
7523,15.06,2.7273,0.1,0.00020558,2054.3,0.00020479,2031.9,-6.5644e-05,-0.010333,-7.1514e-05,-44.112,1.0649
7524,15.06,2.9091,0.1,0.0002056,2054.6,0.00020481,2032.2,-6.5654e-05,-0.010226,-7.1517e-05,-44.064,1.0649
7525,15.06,3.0909,0.1,0.0002056,2054.6,0.00020481,2032.2,-6.5654e-05,-0.010226,-7.1517e-05,-44.064,1.0649
7526,15.06,3.2727,0.1,0.00020558,2054.3,0.00020479,2031.9,-6.5644e-05,-0.010333,-7.1514e-05,-44.112,1.0649
7527,15.06,3.4545,0.1,0.00020553,2053.9,0.00020474,2031.4,-6.5626e-05,-0.010535,-7.1504e-05,-44.182,1.0648
7528,15.06,3.6364,0.1,0.00020546,2053.2,0.00020467,2030.7,-6.5599e-05,-0.0108,-7.1484e-05,-44.225,1.0647
7529,15.06,3.8182,0.1,0.00020535,2052.1,0.00020457,2029.7,-6.5568e-05,-0.011085,-7.1446e-05,-44.171,1.0645
7530,15.06,4,0.1,0.00020522,2050.8,0.00020444,2028.5,-6.5535e-05,-0.011319,-7.1382e-05,-43.939,1.0642
7531,15.06,4.1818,0.1,0.00020505,2049.1,0.00020427,2027,-6.5504e-05,-0.011411,-7.1283e-05,-43.434,1.0639
7532,15.06,4.3636,0.1,0.00020484,2047,0.00020408,2025.3,-6.5478e-05,-0.011243,-7.1142e-05,-42.565,1.0636
7533,15.06,4.5455,0.1,0.00020459,2044.5,0.00020385,2023.5,-6.5462e-05,-0.01066,-7.095e-05,-41.246,1.0632
7534,15.06,4.7273,0.1,0.0002043,2041.6,0.0002036,2021.6,-6.5458e-05,-0.0094917,-7.0701e-05,-39.401,1.0628
7535,15.06,4.9091,0.1,0.00020397,2038.3,0.00020332,2019.6,-6.5471e-05,-0.007404,-7.0392e-05,-36.978,1.0623
7536,15.06,5.0909,0.1,0.00020361,2034.7,0.00020301,2017.5,-6.5504e-05,-0.0043853,-7.0021e-05,-33.946,1.0618
7537,15.06,5.2727,0.1,0.00020323,2030.9,0.00020269,2015.5,-6.5558e-05,0.001508,-6.9592e-05,-30.305,1.0613
7538,15.06,5.4545,0.1,0.00020283,2026.9,0.00020237,2013.7,-6.5636e-05,0.0054704,-6.911e-05,-26.093,1.0607
7539,15.06,5.6364,0.1,0.00020244,2023,0.00020207,2012.2,-6.5737e-05,0.038848,-6.8594e-05,-21.424,1.06
7540,15.06,5.8182,0.1,0.00020225,2021.1,0.00020194,2012.3,-6.5869e-05,0.010858,-6.8208e-05,-17.563,1.0593
7541,15.243,0.18182,0.1,0.00019729,1971.5,0.00019698,1962.5,-6.4215e-05,0.014272,-6.6603e-05,-17.931,1.0817
7542,15.243,0.36364,0.1,0.00019757,1974.3,0.00019717,1962.9,-6.4071e-05,0.04277,-6.7086e-05,-22.614,1.0824
7543,15.243,0.54545,0.1,0.00019804,1979.1,0.00019755,1964.9,-6.3963e-05,0.0050724,-6.7686e-05,-27.966,1.083
7544,15.243,0.72727,0.1,0.00019852,1983.8,0.00019794,1967.3,-6.3883e-05,0.00079451,-6.8242e-05,-32.747,1.0836
7545,15.243,0.90909,0.1,0.00019898,1988.5,0.00019833,1969.8,-6.3832e-05,-0.0055574,-6.8735e-05,-36.84,1.0842
7546,15.243,1.0909,0.1,0.00019942,1992.8,0.0001987,1972.4,-6.3807e-05,-0.0086696,-6.9157e-05,-40.207,1.0847
7547,15.243,1.2727,0.1,0.00019981,1996.7,0.00019905,1975,-6.3805e-05,-0.010753,-6.9507e-05,-42.852,1.0852
7548,15.243,1.4545,0.1,0.00020016,2000.2,0.00019936,1977.5,-6.3822e-05,-0.011832,-6.9785e-05,-44.814,1.0856
7549,15.243,1.6364,0.1,0.00020046,2003.3,0.00019964,1979.8,-6.3855e-05,-0.012284,-6.9997e-05,-46.162,1.0859
7550,15.243,1.8182,0.1,0.00020072,2005.8,0.00019988,1981.9,-6.3897e-05,-0.012304,-7.0149e-05,-46.988,1.0863
7551,15.243,2,0.1,0.00020093,2007.9,0.00020008,1983.8,-6.3945e-05,-0.012067,-7.0252e-05,-47.399,1.0865
7552,15.243,2.1818,0.1,0.00020109,2009.5,0.00020024,1985.3,-6.3994e-05,-0.011705,-7.0315e-05,-47.51,1.0868
7553,15.243,2.3636,0.1,0.00020122,2010.8,0.00020037,1986.6,-6.4039e-05,-0.011317,-7.035e-05,-47.434,1.087
7554,15.243,2.5455,0.1,0.0002013,2011.7,0.00020046,1987.6,-6.4076e-05,-0.010978,-7.0366e-05,-47.274,1.0871
7555,15.243,2.7273,0.1,0.00020136,2012.2,0.00020052,1988.2,-6.4103e-05,-0.010729,-7.0372e-05,-47.117,1.0872
7556,15.243,2.9091,0.1,0.00020139,2012.5,0.00020055,1988.6,-6.4117e-05,-0.010598,-7.0373e-05,-47.022,1.0872
7557,15.243,3.0909,0.1,0.00020139,2012.5,0.00020055,1988.6,-6.4117e-05,-0.010598,-7.0373e-05,-47.022,1.0872
7558,15.243,3.2727,0.1,0.00020136,2012.2,0.00020052,1988.2,-6.4103e-05,-0.010728,-7.0372e-05,-47.117,1.0872
7559,15.243,3.4545,0.1,0.0002013,2011.7,0.00020046,1987.6,-6.4076e-05,-0.010976,-7.0366e-05,-47.274,1.0871
7560,15.243,3.6364,0.1,0.00020122,2010.8,0.00020037,1986.6,-6.4039e-05,-0.011317,-7.035e-05,-47.434,1.087
7561,15.243,3.8182,0.1,0.00020109,2009.5,0.00020024,1985.3,-6.3994e-05,-0.011704,-7.0315e-05,-47.51,1.0868
7562,15.243,4,0.1,0.00020093,2007.9,0.00020008,1983.8,-6.3945e-05,-0.012067,-7.0252e-05,-47.399,1.0865
7563,15.243,4.1818,0.1,0.00020072,2005.8,0.00019988,1981.9,-6.3897e-05,-0.012304,-7.0149e-05,-46.988,1.0863
7564,15.243,4.3636,0.1,0.00020046,2003.3,0.00019964,1979.8,-6.3855e-05,-0.012283,-6.9997e-05,-46.162,1.0859
7565,15.243,4.5455,0.1,0.00020016,2000.2,0.00019936,1977.5,-6.3822e-05,-0.011831,-6.9785e-05,-44.814,1.0856
7566,15.243,4.7273,0.1,0.00019981,1996.7,0.00019905,1975,-6.3805e-05,-0.010752,-6.9507e-05,-42.852,1.0852
7567,15.243,4.9091,0.1,0.00019942,1992.8,0.0001987,1972.4,-6.3807e-05,-0.0086692,-6.9157e-05,-40.207,1.0847
7568,15.243,5.0909,0.1,0.00019898,1988.5,0.00019833,1969.8,-6.3832e-05,-0.0055571,-6.8735e-05,-36.84,1.0842
7569,15.243,5.2727,0.1,0.00019852,1983.8,0.00019794,1967.3,-6.3883e-05,0.00079488,-6.8242e-05,-32.747,1.0836
7570,15.243,5.4545,0.1,0.00019804,1979.1,0.00019755,1964.9,-6.3963e-05,0.0050736,-6.7686e-05,-27.966,1.083
7571,15.243,5.6364,0.1,0.00019757,1974.3,0.00019717,1962.9,-6.4071e-05,0.042769,-6.7086e-05,-22.614,1.0824
7572,15.243,5.8182,0.1,0.00019729,1971.5,0.00019698,1962.5,-6.4215e-05,0.014271,-6.6603e-05,-17.931,1.0817
7573,15.427,0.18182,0.1,0.00019227,1921.4,0.00019196,1912.2,-6.2539e-05,0.01862,-6.4981e-05,-18.328,1.1042
7574,15.427,0.36364,0.1,0.00019265,1925.2,0.00019224,1913.2,-6.2382e-05,0.047102,-6.5576e-05,-23.952,1.1049
7575,15.427,0.54545,0.1,0.00019322,1930.9,0.0001927,1915.7,-6.2268e-05,0.0044558,-6.6272e-05,-30.077,1.1055
7576,15.427,0.72727,0.1,0.0001938,1936.7,0.00019317,1918.7,-6.2188e-05,-0.00013271,-6.6912e-05,-35.497,1.1061
7577,15.427,0.90909,0.1,0.00019436,1942.2,0.00019364,1921.9,-6.2142e-05,-0.0069647,-6.7477e-05,-40.092,1.1067
7578,15.427,1.0909,0.1,0.00019488,1947.4,0.00019409,1925.1,-6.2128e-05,-0.010148,-6.7959e-05,-43.822,1.1072
7579,15.427,1.2727,0.1,0.00019535,1952.2,0.00019452,1928.4,-6.2141e-05,-0.012202,-6.8354e-05,-46.698,1.1076
7580,15.427,1.4545,0.1,0.00019578,1956.4,0.0001949,1931.6,-6.2176e-05,-0.013159,-6.8665e-05,-48.77,1.108
7581,15.427,1.6364,0.1,0.00019614,1960.1,0.00019524,1934.5,-6.2229e-05,-0.013451,-6.8899e-05,-50.123,1.1084
7582,15.427,1.8182,0.1,0.00019645,1963.2,0.00019554,1937.2,-6.2294e-05,-0.013299,-6.9063e-05,-50.872,1.1087
7583,15.427,2,0.1,0.0001967,1965.7,0.00019578,1939.6,-6.2363e-05,-0.012901,-6.9169e-05,-51.147,1.109
7584,15.427,2.1818,0.1,0.0001969,1967.7,0.00019598,1941.6,-6.2432e-05,-0.012403,-6.923e-05,-51.091,1.1092
7585,15.427,2.3636,0.1,0.00019706,1969.2,0.00019614,1943.3,-6.2495e-05,-0.011914,-6.926e-05,-50.843,1.1094
7586,15.427,2.5455,0.1,0.00019716,1970.3,0.00019626,1944.5,-6.2546e-05,-0.011507,-6.927e-05,-50.531,1.1095
7587,15.427,2.7273,0.1,0.00019723,1971,0.00019633,1945.4,-6.2583e-05,-0.01122,-6.927e-05,-50.259,1.1096
7588,15.427,2.9091,0.1,0.00019727,1971.3,0.00019637,1945.8,-6.2602e-05,-0.011072,-6.9269e-05,-50.103,1.1097
7589,15.427,3.0909,0.1,0.00019727,1971.3,0.00019637,1945.8,-6.2602e-05,-0.011073,-6.9269e-05,-50.103,1.1097
7590,15.427,3.2727,0.1,0.00019723,1971,0.00019633,1945.4,-6.2583e-05,-0.01122,-6.927e-05,-50.259,1.1096
7591,15.427,3.4545,0.1,0.00019716,1970.3,0.00019626,1944.5,-6.2546e-05,-0.011507,-6.927e-05,-50.531,1.1095
7592,15.427,3.6364,0.1,0.00019706,1969.2,0.00019614,1943.3,-6.2495e-05,-0.011914,-6.926e-05,-50.843,1.1094
7593,15.427,3.8182,0.1,0.0001969,1967.7,0.00019598,1941.6,-6.2432e-05,-0.012404,-6.923e-05,-51.091,1.1092
7594,15.427,4,0.1,0.0001967,1965.7,0.00019578,1939.6,-6.2363e-05,-0.012901,-6.9169e-05,-51.148,1.109
7595,15.427,4.1818,0.1,0.00019645,1963.2,0.00019554,1937.2,-6.2294e-05,-0.013299,-6.9063e-05,-50.872,1.1087
7596,15.427,4.3636,0.1,0.00019614,1960.1,0.00019524,1934.5,-6.2229e-05,-0.013451,-6.8899e-05,-50.123,1.1084
7597,15.427,4.5455,0.1,0.00019578,1956.4,0.0001949,1931.6,-6.2176e-05,-0.013157,-6.8665e-05,-48.77,1.108
7598,15.427,4.7273,0.1,0.00019535,1952.2,0.00019452,1928.4,-6.2141e-05,-0.012201,-6.8354e-05,-46.698,1.1076
7599,15.427,4.9091,0.1,0.00019488,1947.4,0.00019409,1925.1,-6.2128e-05,-0.010148,-6.7959e-05,-43.822,1.1072
7600,15.427,5.0909,0.1,0.00019436,1942.2,0.00019364,1921.9,-6.2142e-05,-0.0069633,-6.7477e-05,-40.092,1.1067
7601,15.427,5.2727,0.1,0.0001938,1936.7,0.00019317,1918.7,-6.2188e-05,-0.00013107,-6.6912e-05,-35.497,1.1061
7602,15.427,5.4545,0.1,0.00019322,1930.9,0.0001927,1915.7,-6.2268e-05,0.0044568,-6.6272e-05,-30.077,1.1055
7603,15.427,5.6364,0.1,0.00019265,1925.2,0.00019224,1913.2,-6.2382e-05,0.047102,-6.5576e-05,-23.952,1.1049
7604,15.427,5.8182,0.1,0.00019227,1921.4,0.00019196,1912.2,-6.2539e-05,0.018619,-6.4981e-05,-18.328,1.1042
7605,15.611,0.18182,0.1,0.00018718,1870.5,0.00018685,1861.1,-6.0836e-05,0.024207,-6.3336e-05,-18.761,1.1269
7606,15.611,0.36364,0.1,0.00018768,1875.5,0.00018723,1862.7,-6.0664e-05,0.051961,-6.406e-05,-25.461,1.1276
7607,15.611,0.54545,0.1,0.00018836,1882.3,0.00018779,1865.9,-6.0545e-05,0.0036567,-6.4866e-05,-32.465,1.1282
7608,15.611,0.72727,0.1,0.00018905,1889.2,0.00018837,1869.6,-6.0466e-05,-0.0012166,-6.5603e-05,-38.603,1.1288
7609,15.611,0.90909,0.1,0.00018972,1895.9,0.00018894,1873.6,-6.0428e-05,-0.008542,-6.6251e-05,-43.757,1.1293
7610,15.611,1.0909,0.1,0.00019035,1902.1,0.00018949,1877.7,-6.0428e-05,-0.011765,-6.68e-05,-47.884,1.1298
7611,15.611,1.2727,0.1,0.00019092,1907.9,0.00019,1881.9,-6.0461e-05,-0.013753,-6.7247e-05,-51.002,1.1302
7612,15.611,1.4545,0.1,0.00019143,1913,0.00019047,1885.8,-6.0521e-05,-0.01455,-6.7596e-05,-53.175,1.1306
7613,15.611,1.6364,0.1,0.00019188,1917.4,0.00019089,1889.6,-6.0601e-05,-0.014648,-6.7854e-05,-54.508,1.131
7614,15.611,1.8182,0.1,0.00019225,1921.2,0.00019125,1893,-6.0693e-05,-0.014297,-6.803e-05,-55.139,1.1313
7615,15.611,2,0.1,0.00019256,1924.3,0.00019156,1896.1,-6.0791e-05,-0.013722,-6.814e-05,-55.23,1.1316
7616,15.611,2.1818,0.1,0.00019281,1926.7,0.00019181,1898.7,-6.0886e-05,-0.013087,-6.8198e-05,-54.954,1.1318
7617,15.611,2.3636,0.1,0.00019299,1928.6,0.00019201,1900.8,-6.0971e-05,-0.012508,-6.822e-05,-54.483,1.132
7618,15.611,2.5455,0.1,0.00019313,1929.9,0.00019215,1902.4,-6.1041e-05,-0.012052,-6.8222e-05,-53.973,1.1321
7619,15.611,2.7273,0.1,0.00019321,1930.8,0.00019225,1903.5,-6.109e-05,-0.011747,-6.8216e-05,-53.555,1.1322
7620,15.611,2.9091,0.1,0.00019325,1931.2,0.00019229,1904,-6.1115e-05,-0.011596,-6.8211e-05,-53.322,1.1323
7621,15.611,3.0909,0.1,0.00019325,1931.2,0.00019229,1904,-6.1115e-05,-0.011596,-6.8211e-05,-53.322,1.1323
7622,15.611,3.2727,0.1,0.00019321,1930.8,0.00019225,1903.5,-6.109e-05,-0.011748,-6.8216e-05,-53.555,1.1322
7623,15.611,3.4545,0.1,0.00019313,1929.9,0.00019215,1902.4,-6.1041e-05,-0.012053,-6.8222e-05,-53.973,1.1321
7624,15.611,3.6364,0.1,0.00019299,1928.6,0.00019201,1900.8,-6.0971e-05,-0.012507,-6.822e-05,-54.483,1.132
7625,15.611,3.8182,0.1,0.00019281,1926.7,0.00019181,1898.7,-6.0886e-05,-0.013086,-6.8198e-05,-54.954,1.1318
7626,15.611,4,0.1,0.00019256,1924.3,0.00019156,1896.1,-6.0791e-05,-0.013722,-6.814e-05,-55.23,1.1316
7627,15.611,4.1818,0.1,0.00019225,1921.2,0.00019125,1893,-6.0693e-05,-0.014297,-6.803e-05,-55.139,1.1313
7628,15.611,4.3636,0.1,0.00019188,1917.4,0.00019089,1889.6,-6.0601e-05,-0.014648,-6.7854e-05,-54.508,1.131
7629,15.611,4.5455,0.1,0.00019143,1913,0.00019047,1885.8,-6.0521e-05,-0.01455,-6.7596e-05,-53.175,1.1306
7630,15.611,4.7273,0.1,0.00019092,1907.9,0.00019,1881.9,-6.0461e-05,-0.013752,-6.7247e-05,-51.002,1.1302
7631,15.611,4.9091,0.1,0.00019035,1902.1,0.00018949,1877.7,-6.0428e-05,-0.011765,-6.68e-05,-47.884,1.1298
7632,15.611,5.0909,0.1,0.00018972,1895.9,0.00018894,1873.6,-6.0428e-05,-0.0085403,-6.6251e-05,-43.757,1.1293
7633,15.611,5.2727,0.1,0.00018905,1889.2,0.00018837,1869.6,-6.0466e-05,-0.0012153,-6.5603e-05,-38.603,1.1288
7634,15.611,5.4545,0.1,0.00018836,1882.3,0.00018779,1865.9,-6.0545e-05,0.0036567,-6.4866e-05,-32.465,1.1282
7635,15.611,5.6364,0.1,0.00018768,1875.5,0.00018723,1862.7,-6.0664e-05,0.051961,-6.406e-05,-25.461,1.1276
7636,15.611,5.8182,0.1,0.00018718,1870.5,0.00018685,1861.1,-6.0836e-05,0.024207,-6.3336e-05,-18.761,1.1269
7637,15.794,0.18182,0.1,0.00018198,1818.6,0.00018165,1808.9,-5.9097e-05,0.031289,-6.1661e-05,-19.237,1.1497
7638,15.794,0.36364,0.1,0.00018262,1825,0.00018215,1811.3,-5.891e-05,0.057373,-6.2534e-05,-27.169,1.1503
7639,15.794,0.54545,0.1,0.00018344,1833.1,0.00018282,1815.3,-5.8785e-05,0.002632,-6.3466e-05,-35.169,1.1509
7640,15.794,0.72727,0.1,0.00018426,1841.4,0.00018351,1819.9,-5.8709e-05,-0.0024701,-6.4314e-05,-42.119,1.1515
7641,15.794,0.90909,0.1,0.00018506,1849.4,0.0001842,1824.9,-5.8684e-05,-0.010288,-6.5057e-05,-47.897,1.152
7642,15.794,1.0909,0.1,0.00018582,1856.9,0.00018487,1830.1,-5.8704e-05,-0.013505,-6.5684e-05,-52.462,1.1525
7643,15.794,1.2727,0.1,0.00018651,1863.8,0.0001855,1835.3,-5.8763e-05,-0.015381,-6.6193e-05,-55.839,1.153
7644,15.794,1.4545,0.1,0.00018713,1870,0.00018608,1840.3,-5.8854e-05,-0.015972,-6.6585e-05,-58.106,1.1534
7645,15.794,1.6364,0.1,0.00018767,1875.4,0.00018659,1845,-5.8969e-05,-0.015834,-6.6871e-05,-59.389,1.1537
7646,15.794,1.8182,0.1,0.00018813,1880,0.00018704,1849.4,-5.9097e-05,-0.015254,-6.7061e-05,-59.856,1.154
7647,15.794,2,0.1,0.00018851,1883.8,0.00018743,1853.3,-5.923e-05,-0.014489,-6.7174e-05,-59.704,1.1543
7648,15.794,2.1818,0.1,0.00018882,1886.9,0.00018774,1856.6,-5.9358e-05,-0.013726,-6.7227e-05,-59.145,1.1545
7649,15.794,2.3636,0.1,0.00018905,1889.2,0.00018799,1859.3,-5.9472e-05,-0.013083,-6.7241e-05,-58.388,1.1547
7650,15.794,2.5455,0.1,0.00018921,1890.8,0.00018817,1861.3,-5.9565e-05,-0.012618,-6.7233e-05,-57.628,1.1548
7651,15.794,2.7273,0.1,0.00018932,1891.9,0.00018828,1862.7,-5.963e-05,-0.01233,-6.7218e-05,-57.025,1.1549
7652,15.794,2.9091,0.1,0.00018937,1892.4,0.00018834,1863.4,-5.9664e-05,-0.012198,-6.7208e-05,-56.694,1.155
7653,15.794,3.0909,0.1,0.00018937,1892.4,0.00018834,1863.4,-5.9664e-05,-0.012199,-6.7208e-05,-56.694,1.155
7654,15.794,3.2727,0.1,0.00018932,1891.9,0.00018828,1862.7,-5.963e-05,-0.01233,-6.7218e-05,-57.025,1.1549
7655,15.794,3.4545,0.1,0.00018921,1890.8,0.00018817,1861.3,-5.9565e-05,-0.012617,-6.7233e-05,-57.629,1.1548
7656,15.794,3.6364,0.1,0.00018905,1889.2,0.00018799,1859.3,-5.9472e-05,-0.013082,-6.7241e-05,-58.389,1.1547
7657,15.794,3.8182,0.1,0.00018882,1886.9,0.00018774,1856.6,-5.9358e-05,-0.013725,-6.7227e-05,-59.145,1.1545
7658,15.794,4,0.1,0.00018851,1883.8,0.00018743,1853.3,-5.923e-05,-0.014489,-6.7174e-05,-59.704,1.1543
7659,15.794,4.1818,0.1,0.00018813,1880,0.00018704,1849.4,-5.9097e-05,-0.015254,-6.7061e-05,-59.856,1.154
7660,15.794,4.3636,0.1,0.00018767,1875.4,0.00018659,1845,-5.8969e-05,-0.015834,-6.6871e-05,-59.389,1.1537
7661,15.794,4.5455,0.1,0.00018713,1870,0.00018608,1840.3,-5.8854e-05,-0.015972,-6.6585e-05,-58.106,1.1534
7662,15.794,4.7273,0.1,0.00018651,1863.8,0.0001855,1835.3,-5.8763e-05,-0.01538,-6.6193e-05,-55.839,1.153
7663,15.794,4.9091,0.1,0.00018582,1856.9,0.00018487,1830.1,-5.8704e-05,-0.013505,-6.5684e-05,-52.462,1.1525
7664,15.794,5.0909,0.1,0.00018506,1849.4,0.0001842,1824.9,-5.8684e-05,-0.010286,-6.5057e-05,-47.897,1.152
7665,15.794,5.2727,0.1,0.00018426,1841.4,0.00018351,1819.9,-5.8709e-05,-0.0024684,-6.4314e-05,-42.119,1.1515
7666,15.794,5.4545,0.1,0.00018344,1833.1,0.00018282,1815.3,-5.8785e-05,0.0026311,-6.3466e-05,-35.169,1.1509
7667,15.794,5.6364,0.1,0.00018262,1825,0.00018215,1811.3,-5.891e-05,0.057372,-6.2534e-05,-27.169,1.1503
7668,15.794,5.8182,0.1,0.00018198,1818.6,0.00018165,1808.9,-5.9097e-05,0.03129,-6.1661e-05,-19.237,1.1497
7669,15.978,0.18182,0.1,0.00017666,1765.4,0.00017631,1755.4,-5.7312e-05,0.040044,-5.9948e-05,-19.766,1.1726
7670,15.978,0.36364,0.1,0.00017746,1773.4,0.00017695,1758.7,-5.7109e-05,0.063267,-6.099e-05,-29.103,1.1732
7671,15.978,0.54545,0.1,0.00017843,1783.1,0.00017775,1763.7,-5.6979e-05,0.0012587,-6.2068e-05,-38.234,1.1738
7672,15.978,0.72727,0.1,0.00017942,1792.9,0.00017859,1769.4,-5.691e-05,-0.0039755,-6.3045e-05,-46.1,1.1744
7673,15.978,0.90909,0.1,0.00018038,1802.5,0.00017942,1775.6,-5.6901e-05,-0.012266,-6.3898e-05,-52.582,1.1749
7674,15.978,1.0909,0.1,0.00018128,1811.6,0.00018023,1782.1,-5.6947e-05,-0.015413,-6.4616e-05,-57.636,1.1754
7675,15.978,1.2727,0.1,0.00018212,1820,0.000181,1788.6,-5.7041e-05,-0.017117,-6.5196e-05,-61.294,1.1758
7676,15.978,1.4545,0.1,0.00018288,1827.5,0.00018171,1794.9,-5.7172e-05,-0.017445,-6.5641e-05,-63.649,1.1762
7677,15.978,1.6364,0.1,0.00018354,1834.2,0.00018235,1800.9,-5.733e-05,-0.017022,-6.5959e-05,-64.851,1.1766
7678,15.978,1.8182,0.1,0.00018411,1839.8,0.00018292,1806.4,-5.7504e-05,-0.01618,-6.6167e-05,-65.102,1.1769
7679,15.978,2,0.1,0.00018458,1844.5,0.00018339,1811.3,-5.7682e-05,-0.015217,-6.6283e-05,-64.639,1.1771
7680,15.978,2.1818,0.1,0.00018495,1848.3,0.00018379,1815.6,-5.7852e-05,-0.014345,-6.6331e-05,-63.721,1.1774
7681,15.978,2.3636,0.1,0.00018524,1851.1,0.0001841,1819,-5.8003e-05,-0.013688,-6.6334e-05,-62.607,1.1775
7682,15.978,2.5455,0.1,0.00018545,1853.2,0.00018433,1821.7,-5.8126e-05,-0.013281,-6.6314e-05,-61.533,1.1777
7683,15.978,2.7273,0.1,0.00018558,1854.5,0.00018448,1823.4,-5.8212e-05,-0.013077,-6.6289e-05,-60.698,1.1777
7684,15.978,2.9091,0.1,0.00018565,1855.2,0.00018455,1824.3,-5.8257e-05,-0.013002,-6.6273e-05,-60.244,1.1778
7685,15.978,3.0909,0.1,0.00018565,1855.2,0.00018455,1824.3,-5.8257e-05,-0.013001,-6.6273e-05,-60.244,1.1778
7686,15.978,3.2727,0.1,0.00018558,1854.5,0.00018448,1823.4,-5.8212e-05,-0.013077,-6.6289e-05,-60.698,1.1777
7687,15.978,3.4545,0.1,0.00018545,1853.2,0.00018433,1821.7,-5.8126e-05,-0.013281,-6.6314e-05,-61.533,1.1777
7688,15.978,3.6364,0.1,0.00018524,1851.1,0.0001841,1819,-5.8003e-05,-0.013688,-6.6334e-05,-62.607,1.1775
7689,15.978,3.8182,0.1,0.00018495,1848.3,0.00018379,1815.6,-5.7852e-05,-0.014344,-6.6331e-05,-63.721,1.1774
7690,15.978,4,0.1,0.00018458,1844.5,0.00018339,1811.3,-5.7682e-05,-0.015217,-6.6283e-05,-64.639,1.1771
7691,15.978,4.1818,0.1,0.00018411,1839.8,0.00018292,1806.4,-5.7504e-05,-0.01618,-6.6167e-05,-65.102,1.1769
7692,15.978,4.3636,0.1,0.00018354,1834.2,0.00018235,1800.9,-5.733e-05,-0.017022,-6.5959e-05,-64.851,1.1766
7693,15.978,4.5455,0.1,0.00018288,1827.5,0.00018171,1794.9,-5.7172e-05,-0.017444,-6.5641e-05,-63.649,1.1762
7694,15.978,4.7273,0.1,0.00018212,1820,0.000181,1788.6,-5.7041e-05,-0.017118,-6.5196e-05,-61.294,1.1758
7695,15.978,4.9091,0.1,0.00018128,1811.6,0.00018023,1782.1,-5.6947e-05,-0.015412,-6.4616e-05,-57.637,1.1754
7696,15.978,5.0909,0.1,0.00018038,1802.5,0.00017942,1775.6,-5.6901e-05,-0.012265,-6.3898e-05,-52.582,1.1749
7697,15.978,5.2727,0.1,0.00017942,1792.9,0.00017859,1769.4,-5.691e-05,-0.0039744,-6.3045e-05,-46.1,1.1744
7698,15.978,5.4545,0.1,0.00017843,1783.1,0.00017775,1763.7,-5.6979e-05,0.0012588,-6.2068e-05,-38.234,1.1738
7699,15.978,5.6364,0.1,0.00017746,1773.4,0.00017695,1758.7,-5.7109e-05,0.063268,-6.099e-05,-29.103,1.1732
7700,15.978,5.8182,0.1,0.00017666,1765.4,0.00017631,1755.4,-5.7312e-05,0.040045,-5.9948e-05,-19.766,1.1726
7701,16.162,0.18182,0.1,0.00017116,1710.5,0.00017081,1700.2,-5.5469e-05,0.050717,-5.8185e-05,-20.358,1.1956
7702,16.162,0.36364,0.1,0.00017215,1720.4,0.0001716,1704.5,-5.5248e-05,0.069664,-5.9422e-05,-31.293,1.1962
7703,16.162,0.54545,0.1,0.00017331,1731.9,0.00017257,1710.7,-5.5116e-05,-0.00045769,-6.0666e-05,-41.705,1.1968
7704,16.162,0.72727,0.1,0.00017449,1743.7,0.00017357,1717.8,-5.5056e-05,-0.0056721,-6.1791e-05,-50.609,1.1974
7705,16.162,0.90909,0.1,0.00017564,1755.2,0.00017458,1725.5,-5.5071e-05,-0.014384,-6.2773e-05,-57.888,1.1979
7706,16.162,1.0909,0.1,0.00017674,1766.1,0.00017557,1733.5,-5.5151e-05,-0.017371,-6.3599e-05,-63.496,1.1984
7707,16.162,1.2727,0.1,0.00017776,1776.3,0.00017651,1741.6,-5.5288e-05,-0.018831,-6.4265e-05,-67.468,1.1988
7708,16.162,1.4545,0.1,0.00017868,1785.6,0.00017739,1749.6,-5.547e-05,-0.018824,-6.4772e-05,-69.91,1.1992
7709,16.162,1.6364,0.1,0.0001795,1793.8,0.00017819,1757.2,-5.5684e-05,-0.018058,-6.5132e-05,-71,1.1995
7710,16.162,1.8182,0.1,0.0001802,1800.7,0.00017889,1764.2,-5.5917e-05,-0.016914,-6.5361e-05,-70.975,1.1998
7711,16.162,2,0.1,0.00018078,1806.6,0.00017949,1770.5,-5.6152e-05,-0.015748,-6.5483e-05,-70.123,1.2001
7712,16.162,2.1818,0.1,0.00018125,1811.2,0.00017998,1775.9,-5.6375e-05,-0.014807,-6.5525e-05,-68.758,1.2003
7713,16.162,2.3636,0.1,0.00018161,1814.9,0.00018037,1780.3,-5.6573e-05,-0.014222,-6.5515e-05,-67.197,1.2005
7714,16.162,2.5455,0.1,0.00018187,1817.5,0.00018066,1783.7,-5.6733e-05,-0.013981,-6.548e-05,-65.734,1.2006
7715,16.162,2.7273,0.1,0.00018204,1819.2,0.00018086,1786,-5.6846e-05,-0.013965,-6.5443e-05,-64.611,1.2007
7716,16.162,2.9091,0.1,0.00018212,1820,0.00018095,1787.1,-5.6904e-05,-0.014012,-6.542e-05,-64.004,1.2007
7717,16.162,3.0909,0.1,0.00018212,1820,0.00018095,1787.1,-5.6904e-05,-0.014012,-6.542e-05,-64.004,1.2007
7718,16.162,3.2727,0.1,0.00018204,1819.2,0.00018086,1786,-5.6846e-05,-0.013964,-6.5443e-05,-64.611,1.2007
7719,16.162,3.4545,0.1,0.00018187,1817.5,0.00018066,1783.7,-5.6733e-05,-0.013981,-6.548e-05,-65.734,1.2006
7720,16.162,3.6364,0.1,0.00018161,1814.9,0.00018037,1780.3,-5.6573e-05,-0.014222,-6.5515e-05,-67.197,1.2005
7721,16.162,3.8182,0.1,0.00018125,1811.2,0.00017998,1775.9,-5.6375e-05,-0.014807,-6.5525e-05,-68.758,1.2003
7722,16.162,4,0.1,0.00018078,1806.6,0.00017949,1770.5,-5.6152e-05,-0.015748,-6.5483e-05,-70.123,1.2001
7723,16.162,4.1818,0.1,0.0001802,1800.7,0.00017889,1764.2,-5.5917e-05,-0.016913,-6.5361e-05,-70.976,1.1998
7724,16.162,4.3636,0.1,0.0001795,1793.8,0.00017819,1757.2,-5.5684e-05,-0.018058,-6.5132e-05,-71,1.1995
7725,16.162,4.5455,0.1,0.00017868,1785.6,0.00017739,1749.6,-5.547e-05,-0.018823,-6.4772e-05,-69.911,1.1992
7726,16.162,4.7273,0.1,0.00017776,1776.4,0.00017651,1741.6,-5.5288e-05,-0.018831,-6.4265e-05,-67.468,1.1988
7727,16.162,4.9091,0.1,0.00017674,1766.1,0.00017557,1733.5,-5.5151e-05,-0.017371,-6.3599e-05,-63.496,1.1984
7728,16.162,5.0909,0.1,0.00017564,1755.2,0.00017458,1725.5,-5.5071e-05,-0.014383,-6.2773e-05,-57.888,1.1979
7729,16.162,5.2727,0.1,0.00017449,1743.7,0.00017357,1717.8,-5.5056e-05,-0.0056696,-6.1791e-05,-50.609,1.1974
7730,16.162,5.4545,0.1,0.00017331,1731.9,0.00017257,1710.7,-5.5116e-05,-0.00045721,-6.0666e-05,-41.705,1.1968
7731,16.162,5.6364,0.1,0.00017215,1720.4,0.0001716,1704.5,-5.5248e-05,0.069664,-5.9422e-05,-31.293,1.1962
7732,16.162,5.8182,0.1,0.00017116,1710.5,0.00017081,1700.2,-5.5469e-05,0.050717,-5.8185e-05,-20.358,1.1956
7733,16.345,0.18182,0.1,0.00016546,1653.5,0.00016509,1642.9,-5.3552e-05,0.063294,-5.6359e-05,-21.024,1.2187
7734,16.345,0.36364,0.1,0.00016667,1665.6,0.00016607,1648.5,-5.3314e-05,0.07642,-5.7818e-05,-33.764,1.2194
7735,16.345,0.54545,0.1,0.00016805,1679.3,0.00016722,1656,-5.3181e-05,-0.0026124,-5.9252e-05,-45.624,1.22
7736,16.345,0.72727,0.1,0.00016945,1693.3,0.00016843,1664.8,-5.3136e-05,-0.0075737,-6.0549e-05,-55.706,1.2205
7737,16.345,0.90909,0.1,0.00017083,1707.1,0.00016965,1674.3,-5.3181e-05,-0.016614,-6.1683e-05,-63.896,1.221
7738,16.345,1.0909,0.1,0.00017216,1720.4,0.00017086,1684.3,-5.3305e-05,-0.019325,-6.2638e-05,-70.143,1.2215
7739,16.345,1.2727,0.1,0.00017341,1732.9,0.00017202,1694.4,-5.3497e-05,-0.020447,-6.3407e-05,-74.479,1.2219
7740,16.345,1.4545,0.1,0.00017454,1744.2,0.00017311,1704.4,-5.3744e-05,-0.02002,-6.3992e-05,-77.021,1.2223
7741,16.345,1.6364,0.1,0.00017555,1754.3,0.0001741,1714,-5.4029e-05,-0.018838,-6.4403e-05,-77.969,1.2226
7742,16.345,1.8182,0.1,0.00017642,1763,0.00017497,1722.9,-5.4335e-05,-0.017348,-6.4661e-05,-77.604,1.2229
7743,16.345,2,0.1,0.00017715,1770.3,0.00017573,1730.9,-5.4642e-05,-0.015978,-6.4791e-05,-76.27,1.2232
7744,16.345,2.1818,0.1,0.00017774,1776.2,0.00017636,1737.8,-5.4934e-05,-0.015035,-6.4827e-05,-74.352,1.2234
7745,16.345,2.3636,0.1,0.00017819,1780.7,0.00017686,1743.5,-5.5191e-05,-0.014652,-6.4803e-05,-72.239,1.2236
7746,16.345,2.5455,0.1,0.00017853,1784,0.00017723,1747.8,-5.5399e-05,-0.014755,-6.4752e-05,-70.293,1.2237
7747,16.345,2.7273,0.1,0.00017874,1786.2,0.00017747,1750.8,-5.5544e-05,-0.015094,-6.4701e-05,-68.815,1.2238
7748,16.345,2.9091,0.1,0.00017885,1787.2,0.00017759,1752.3,-5.562e-05,-0.015368,-6.467e-05,-68.02,1.2238
7749,16.345,3.0909,0.1,0.00017885,1787.2,0.00017759,1752.3,-5.562e-05,-0.015368,-6.467e-05,-68.02,1.2238
7750,16.345,3.2727,0.1,0.00017874,1786.2,0.00017747,1750.8,-5.5544e-05,-0.015095,-6.4701e-05,-68.815,1.2238
7751,16.345,3.4545,0.1,0.00017853,1784,0.00017723,1747.8,-5.5399e-05,-0.014756,-6.4752e-05,-70.293,1.2237
7752,16.345,3.6364,0.1,0.00017819,1780.7,0.00017686,1743.5,-5.5191e-05,-0.014652,-6.4803e-05,-72.239,1.2236
7753,16.345,3.8182,0.1,0.00017774,1776.2,0.00017636,1737.8,-5.4934e-05,-0.015036,-6.4827e-05,-74.352,1.2234
7754,16.345,4,0.1,0.00017715,1770.3,0.00017573,1730.9,-5.4642e-05,-0.015977,-6.4791e-05,-76.27,1.2232
7755,16.345,4.1818,0.1,0.00017642,1763,0.00017497,1722.9,-5.4335e-05,-0.017347,-6.4661e-05,-77.604,1.2229
7756,16.345,4.3636,0.1,0.00017555,1754.3,0.0001741,1714,-5.4029e-05,-0.018839,-6.4403e-05,-77.969,1.2226
7757,16.345,4.5455,0.1,0.00017454,1744.2,0.00017311,1704.4,-5.3744e-05,-0.020021,-6.3992e-05,-77.021,1.2223
7758,16.345,4.7273,0.1,0.00017341,1732.9,0.00017202,1694.4,-5.3497e-05,-0.020446,-6.3407e-05,-74.479,1.2219
7759,16.345,4.9091,0.1,0.00017216,1720.4,0.00017086,1684.3,-5.3305e-05,-0.019324,-6.2638e-05,-70.143,1.2215
7760,16.345,5.0909,0.1,0.00017083,1707.1,0.00016965,1674.3,-5.3181e-05,-0.016611,-6.1683e-05,-63.896,1.221
7761,16.345,5.2727,0.1,0.00016945,1693.3,0.00016843,1664.8,-5.3136e-05,-0.0075736,-6.0549e-05,-55.706,1.2205
7762,16.345,5.4545,0.1,0.00016805,1679.3,0.00016722,1656,-5.3181e-05,-0.0026128,-5.9252e-05,-45.624,1.22
7763,16.345,5.6364,0.1,0.00016667,1665.6,0.00016607,1648.5,-5.3314e-05,0.07642,-5.7818e-05,-33.764,1.2194
7764,16.345,5.8182,0.1,0.00016546,1653.5,0.00016509,1642.9,-5.3552e-05,0.063294,-5.6359e-05,-21.024,1.2187
7765,16.529,0.18182,0.1,0.0001595,1593.9,0.00015911,1582.9,-5.1545e-05,0.077507,-5.4453e-05,-21.776,1.242
7766,16.529,0.36364,0.1,0.00016096,1608.5,0.00016031,1589.9,-5.1289e-05,0.083344,-5.6163e-05,-36.539,1.2426
7767,16.529,0.54545,0.1,0.00016259,1624.8,0.00016168,1599.2,-5.1157e-05,-0.0052468,-5.7815e-05,-50.028,1.2432
7768,16.529,0.72727,0.1,0.00016426,1641.5,0.00016313,1609.9,-5.1134e-05,-0.0096075,-5.9311e-05,-61.451,1.2437
7769,16.529,0.90909,0.1,0.00016592,1658.1,0.00016461,1621.6,-5.1217e-05,-0.018815,-6.0624e-05,-70.695,1.2442
7770,16.529,1.0909,0.1,0.00016754,1674.2,0.00016608,1634,-5.1397e-05,-0.0211,-6.1734e-05,-77.695,1.2447
7771,16.529,1.2727,0.1,0.00016907,1689.5,0.00016751,1646.7,-5.1659e-05,-0.021773,-6.2632e-05,-82.472,1.2451
7772,16.529,1.4545,0.1,0.00017047,1703.5,0.00016886,1659.3,-5.1986e-05,-0.020829,-6.3316e-05,-85.143,1.2455
7773,16.529,1.6364,0.1,0.00017172,1716,0.0001701,1671.5,-5.2361e-05,-0.019145,-6.3794e-05,-85.927,1.2458
7774,16.529,1.8182,0.1,0.00017281,1726.9,0.0001712,1682.8,-5.2759e-05,-0.017247,-6.409e-05,-85.151,1.2461
7775,16.529,2,0.1,0.00017373,1736.1,0.00017216,1692.9,-5.3159e-05,-0.015678,-6.4234e-05,-83.229,1.2464
7776,16.529,2.1818,0.1,0.00017447,1743.5,0.00017296,1701.8,-5.3536e-05,-0.014832,-6.4265e-05,-80.63,1.2466
7777,16.529,2.3636,0.1,0.00017505,1749.3,0.00017359,1709,-5.3868e-05,-0.014854,-6.4226e-05,-77.836,1.2468
7778,16.529,2.5455,0.1,0.00017547,1753.5,0.00017407,1714.6,-5.4136e-05,-0.01557,-6.4156e-05,-75.297,1.2469
7779,16.529,2.7273,0.1,0.00017575,1756.2,0.00017438,1718.4,-5.4325e-05,-0.016528,-6.4089e-05,-73.382,1.247
7780,16.529,2.9091,0.1,0.00017588,1757.6,0.00017454,1720.3,-5.4421e-05,-0.017189,-6.4049e-05,-72.357,1.247
7781,16.529,3.0909,0.1,0.00017588,1757.6,0.00017454,1720.3,-5.4421e-05,-0.017189,-6.4049e-05,-72.357,1.247
7782,16.529,3.2727,0.1,0.00017575,1756.2,0.00017438,1718.4,-5.4325e-05,-0.016527,-6.4089e-05,-73.382,1.247
7783,16.529,3.4545,0.1,0.00017547,1753.5,0.00017407,1714.6,-5.4136e-05,-0.01557,-6.4156e-05,-75.297,1.2469
7784,16.529,3.6364,0.1,0.00017505,1749.3,0.00017359,1709,-5.3868e-05,-0.014854,-6.4226e-05,-77.836,1.2468
7785,16.529,3.8182,0.1,0.00017447,1743.5,0.00017296,1701.8,-5.3536e-05,-0.014831,-6.4265e-05,-80.63,1.2466
7786,16.529,4,0.1,0.00017373,1736.1,0.00017216,1692.9,-5.3159e-05,-0.015679,-6.4234e-05,-83.229,1.2464
7787,16.529,4.1818,0.1,0.00017281,1726.9,0.0001712,1682.8,-5.2759e-05,-0.017247,-6.409e-05,-85.151,1.2461
7788,16.529,4.3636,0.1,0.00017172,1716,0.0001701,1671.5,-5.2361e-05,-0.019144,-6.3794e-05,-85.927,1.2458
7789,16.529,4.5455,0.1,0.00017047,1703.5,0.00016886,1659.3,-5.1986e-05,-0.02083,-6.3316e-05,-85.143,1.2455
7790,16.529,4.7273,0.1,0.00016907,1689.5,0.00016751,1646.7,-5.1659e-05,-0.021773,-6.2632e-05,-82.472,1.2451
7791,16.529,4.9091,0.1,0.00016754,1674.2,0.00016608,1634,-5.1397e-05,-0.021099,-6.1734e-05,-77.695,1.2447
7792,16.529,5.0909,0.1,0.00016592,1658.1,0.00016461,1621.6,-5.1217e-05,-0.018813,-6.0624e-05,-70.695,1.2442
7793,16.529,5.2727,0.1,0.00016426,1641.5,0.00016313,1609.9,-5.1134e-05,-0.0096064,-5.9311e-05,-61.451,1.2437
7794,16.529,5.4545,0.1,0.00016259,1624.8,0.00016168,1599.2,-5.1157e-05,-0.0052442,-5.7815e-05,-50.028,1.2432
7795,16.529,5.6364,0.1,0.00016096,1608.5,0.00016031,1589.9,-5.1289e-05,0.083343,-5.6163e-05,-36.539,1.2426
7796,16.529,5.8182,0.1,0.0001595,1593.9,0.00015912,1582.9,-5.1545e-05,0.077507,-5.4453e-05,-21.776,1.242
7797,16.712,0.18182,0.1,0.0001532,1531,0.00015281,1519.6,-4.9424e-05,0.092473,-5.2448e-05,-22.625,1.2653
7798,16.712,0.36364,0.1,0.00015495,1548.4,0.00015424,1528.3,-4.9151e-05,0.090042,-5.4437e-05,-39.629,1.266
7799,16.712,0.54545,0.1,0.00015688,1567.7,0.00015587,1539.5,-4.9026e-05,-0.0084397,-5.6337e-05,-54.943,1.2665
7800,16.712,0.72727,0.1,0.00015887,1587.6,0.00015761,1552.6,-4.903e-05,-0.011702,-5.8065e-05,-67.896,1.2671
7801,16.712,0.90909,0.1,0.00016088,1607.7,0.0001594,1567.1,-4.9163e-05,-0.020825,-5.9592e-05,-78.376,1.2676
7802,16.712,1.0909,0.1,0.00016285,1627.4,0.00016121,1582.5,-4.9412e-05,-0.02249,-6.0893e-05,-86.29,1.268
7803,16.712,1.2727,0.1,0.00016473,1646.2,0.00016298,1598.4,-4.9761e-05,-0.022585,-6.1953e-05,-91.628,1.2684
7804,16.712,1.4545,0.1,0.00016647,1663.6,0.00016466,1614.3,-5.019e-05,-0.021014,-6.2763e-05,-94.487,1.2688
7805,16.712,1.6364,0.1,0.00016804,1679.2,0.00016622,1629.6,-5.0676e-05,-0.018723,-6.333e-05,-95.099,1.2692
7806,16.712,1.8182,0.1,0.0001694,1692.8,0.00016761,1644,-5.1191e-05,-0.016341,-6.3678e-05,-93.836,1.2695
7807,16.712,2,0.1,0.00017056,1704.4,0.00016882,1656.9,-5.1707e-05,-0.014576,-6.3842e-05,-91.196,1.2697
7808,16.712,2.1818,0.1,0.0001715,1713.8,0.00016984,1668.2,-5.2193e-05,-0.013967,-6.3871e-05,-87.76,1.2699
7809,16.712,2.3636,0.1,0.00017224,1721.2,0.00017065,1677.6,-5.2621e-05,-0.014697,-6.3816e-05,-84.13,1.2701
7810,16.712,2.5455,0.1,0.00017278,1726.6,0.00017126,1684.7,-5.2966e-05,-0.016439,-6.3726e-05,-80.861,1.2702
7811,16.712,2.7273,0.1,0.00017313,1730.1,0.00017167,1689.6,-5.3208e-05,-0.018417,-6.3641e-05,-78.413,1.2703
7812,16.712,2.9091,0.1,0.00017331,1731.9,0.00017187,1692.1,-5.3332e-05,-0.019715,-6.3592e-05,-77.107,1.2703
7813,16.712,3.0909,0.1,0.00017331,1731.9,0.00017187,1692.1,-5.3332e-05,-0.019714,-6.3592e-05,-77.107,1.2703
7814,16.712,3.2727,0.1,0.00017313,1730.1,0.00017167,1689.6,-5.3208e-05,-0.018416,-6.3641e-05,-78.413,1.2703
7815,16.712,3.4545,0.1,0.00017278,1726.6,0.00017126,1684.7,-5.2966e-05,-0.016439,-6.3726e-05,-80.861,1.2702
7816,16.712,3.6364,0.1,0.00017224,1721.2,0.00017065,1677.6,-5.2621e-05,-0.014696,-6.3816e-05,-84.13,1.2701
7817,16.712,3.8182,0.1,0.0001715,1713.8,0.00016984,1668.2,-5.2193e-05,-0.013967,-6.3871e-05,-87.76,1.2699
7818,16.712,4,0.1,0.00017056,1704.4,0.00016882,1656.9,-5.1707e-05,-0.014576,-6.3842e-05,-91.196,1.2697
7819,16.712,4.1818,0.1,0.0001694,1692.8,0.00016761,1644,-5.1191e-05,-0.016342,-6.3678e-05,-93.836,1.2695
7820,16.712,4.3636,0.1,0.00016804,1679.2,0.00016622,1629.6,-5.0676e-05,-0.018723,-6.333e-05,-95.099,1.2692
7821,16.712,4.5455,0.1,0.00016647,1663.6,0.00016466,1614.3,-5.019e-05,-0.021014,-6.2763e-05,-94.487,1.2688
7822,16.712,4.7273,0.1,0.00016473,1646.2,0.00016298,1598.4,-4.9761e-05,-0.022584,-6.1953e-05,-91.628,1.2684
7823,16.712,4.9091,0.1,0.00016285,1627.4,0.00016121,1582.5,-4.9412e-05,-0.022489,-6.0893e-05,-86.29,1.268
7824,16.712,5.0909,0.1,0.00016088,1607.7,0.0001594,1567.1,-4.9163e-05,-0.020823,-5.9592e-05,-78.376,1.2676
7825,16.712,5.2727,0.1,0.00015887,1587.6,0.00015761,1552.6,-4.903e-05,-0.011699,-5.8065e-05,-67.896,1.2671
7826,16.712,5.4545,0.1,0.00015688,1567.7,0.00015587,1539.5,-4.9026e-05,-0.0084385,-5.6337e-05,-54.943,1.2665
7827,16.712,5.6364,0.1,0.00015495,1548.4,0.00015424,1528.3,-4.9151e-05,0.090043,-5.4437e-05,-39.629,1.266
7828,16.712,5.8182,0.1,0.0001532,1531,0.00015281,1519.6,-4.9424e-05,0.092472,-5.2448e-05,-22.625,1.2653
7829,16.896,0.18182,0.1,0.00014651,1464.1,0.0001461,1452.2,-4.7166e-05,0.10631,-5.0319e-05,-23.578,1.2888
7830,16.896,0.36364,0.1,0.00014858,1484.8,0.0001478,1462.9,-4.6877e-05,0.095787,-5.2617e-05,-43.028,1.2894
7831,16.896,0.54545,0.1,0.00015086,1507.5,0.00014974,1476.4,-4.6763e-05,-0.012379,-5.4796e-05,-60.372,1.29
7832,16.896,0.72727,0.1,0.00015323,1531.3,0.00015182,1492.4,-4.6804e-05,-0.013824,-5.6794e-05,-75.08,1.2905
7833,16.896,0.90909,0.1,0.00015566,1555.5,0.000154,1510.2,-4.6998e-05,-0.022481,-5.8579e-05,-87.036,1.291
7834,16.896,1.0909,0.1,0.00015807,1579.6,0.00015621,1529.3,-4.7332e-05,-0.023278,-6.0118e-05,-96.094,1.2915
7835,16.896,1.2727,0.1,0.00016039,1602.8,0.00015841,1549.2,-4.7788e-05,-0.022656,-6.1384e-05,-102.18,1.2919
7836,16.896,1.4545,0.1,0.00016256,1624.5,0.00016051,1569.2,-4.8344e-05,-0.020348,-6.236e-05,-105.34,1.2923
7837,16.896,1.6364,0.1,0.00016452,1644.1,0.00016247,1588.6,-4.8969e-05,-0.017341,-6.3046e-05,-105.79,1.2926
7838,16.896,1.8182,0.1,0.00016624,1661.3,0.00016423,1606.9,-4.9632e-05,-0.01438,-6.3465e-05,-103.96,1.2929
7839,16.896,2,0.1,0.00016771,1675.9,0.00016577,1623.4,-5.0294e-05,-0.012424,-6.366e-05,-100.44,1.2931
7840,16.896,2.1818,0.1,0.00016891,1687.9,0.00016707,1637.8,-5.0918e-05,-0.012252,-6.369e-05,-95.973,1.2933
7841,16.896,2.3636,0.1,0.00016985,1697.3,0.00016811,1649.8,-5.1468e-05,-0.014123,-6.3618e-05,-91.309,1.2935
7842,16.896,2.5455,0.1,0.00017055,1704.3,0.0001689,1659,-5.191e-05,-0.017496,-6.3506e-05,-87.147,1.2936
7843,16.896,2.7273,0.1,0.00017101,1708.9,0.00016942,1665.3,-5.222e-05,-0.021095,-6.3404e-05,-84.05,1.2937
7844,16.896,2.9091,0.1,0.00017124,1711.2,0.00016969,1668.5,-5.238e-05,-0.023404,-6.3344e-05,-82.404,1.2938
7845,16.896,3.0909,0.1,0.00017124,1711.2,0.00016969,1668.5,-5.238e-05,-0.023404,-6.3344e-05,-82.404,1.2938
7846,16.896,3.2727,0.1,0.00017101,1708.9,0.00016942,1665.3,-5.222e-05,-0.021095,-6.3404e-05,-84.05,1.2937
7847,16.896,3.4545,0.1,0.00017055,1704.3,0.0001689,1659,-5.191e-05,-0.017496,-6.3506e-05,-87.147,1.2936
7848,16.896,3.6364,0.1,0.00016985,1697.3,0.00016811,1649.8,-5.1468e-05,-0.014122,-6.3618e-05,-91.309,1.2935
7849,16.896,3.8182,0.1,0.00016891,1687.9,0.00016707,1637.8,-5.0918e-05,-0.012252,-6.369e-05,-95.973,1.2933
7850,16.896,4,0.1,0.00016771,1675.9,0.00016577,1623.4,-5.0294e-05,-0.012425,-6.366e-05,-100.44,1.2931
7851,16.896,4.1818,0.1,0.00016624,1661.3,0.00016423,1606.9,-4.9632e-05,-0.01438,-6.3465e-05,-103.96,1.2929
7852,16.896,4.3636,0.1,0.00016452,1644.1,0.00016247,1588.6,-4.8969e-05,-0.01734,-6.3046e-05,-105.79,1.2926
7853,16.896,4.5455,0.1,0.00016256,1624.5,0.00016051,1569.2,-4.8344e-05,-0.020348,-6.236e-05,-105.34,1.2923
7854,16.896,4.7273,0.1,0.00016039,1602.8,0.00015841,1549.2,-4.7788e-05,-0.022655,-6.1384e-05,-102.18,1.2919
7855,16.896,4.9091,0.1,0.00015807,1579.6,0.00015621,1529.3,-4.7332e-05,-0.023278,-6.0118e-05,-96.094,1.2915
7856,16.896,5.0909,0.1,0.00015566,1555.5,0.000154,1510.2,-4.6998e-05,-0.02248,-5.8579e-05,-87.037,1.291
7857,16.896,5.2727,0.1,0.00015323,1531.3,0.00015182,1492.4,-4.6804e-05,-0.013823,-5.6794e-05,-75.081,1.2905
7858,16.896,5.4545,0.1,0.00015086,1507.5,0.00014974,1476.4,-4.6763e-05,-0.012377,-5.4796e-05,-60.373,1.29
7859,16.896,5.6364,0.1,0.00014858,1484.8,0.0001478,1462.9,-4.6877e-05,0.095787,-5.2617e-05,-43.028,1.2894
7860,16.896,5.8182,0.1,0.00014651,1464.1,0.0001461,1452.2,-4.7166e-05,0.10631,-5.0319e-05,-23.579,1.2888
7861,17.08,0.18182,0.1,0.00013932,1392.3,0.00013889,1379.9,-4.4742e-05,0.11592,-4.8036e-05,-24.639,1.3124
7862,17.08,0.36364,0.1,0.00014176,1416.6,0.00014091,1392.7,-4.4439e-05,0.099612,-5.0668e-05,-46.7,1.313
7863,17.08,0.54545,0.1,0.00014443,1443.3,0.00014319,1409,-4.4342e-05,-0.017142,-5.3162e-05,-66.286,1.3135
7864,17.08,0.72727,0.1,0.00014727,1471.6,0.00014568,1428.4,-4.4428e-05,-0.015754,-5.5476e-05,-83.024,1.3141
7865,17.08,0.90909,0.1,0.0001502,1501,0.00014832,1450.2,-4.4698e-05,-0.023359,-5.7575e-05,-96.782,1.3145
7866,17.08,1.0909,0.1,0.00015316,1530.5,0.00015105,1474,-4.5135e-05,-0.022962,-5.9415e-05,-107.32,1.315
7867,17.08,1.2727,0.1,0.00015604,1559.3,0.00015378,1498.9,-4.5722e-05,-0.021471,-6.095e-05,-114.44,1.3154
7868,17.08,1.4545,0.1,0.00015875,1586.5,0.00015642,1524.1,-4.6433e-05,-0.018334,-6.2146e-05,-118.08,1.3158
7869,17.08,1.6364,0.1,0.00016123,1611.2,0.00015889,1548.7,-4.7233e-05,-0.014485,-6.2992e-05,-118.42,1.3161
7870,17.08,1.8182,0.1,0.00016341,1632.9,0.00016112,1571.9,-4.8081e-05,-0.010816,-6.3508e-05,-115.93,1.3164
7871,17.08,2,0.1,0.00016526,1651.5,0.00016309,1593,-4.8929e-05,-0.0086416,-6.3746e-05,-111.34,1.3167
7872,17.08,2.1818,0.1,0.00016679,1666.8,0.00016474,1611.5,-4.9729e-05,-0.009189,-6.378e-05,-105.58,1.3169
7873,17.08,2.3636,0.1,0.000168,1678.9,0.00016609,1626.8,-5.0434e-05,-0.012881,-6.3692e-05,-99.63,1.3171
7874,17.08,2.5455,0.1,0.00016891,1687.9,0.0001671,1638.7,-5.1e-05,-0.018802,-6.3558e-05,-94.372,1.3172
7875,17.08,2.7273,0.1,0.00016951,1693.9,0.00016779,1646.8,-5.1397e-05,-0.024895,-6.3437e-05,-90.492,1.3173
7876,17.08,2.9091,0.1,0.00016981,1696.9,0.00016813,1650.9,-5.1601e-05,-0.028753,-6.3368e-05,-88.442,1.3173
7877,17.08,3.0909,0.1,0.00016981,1696.9,0.00016813,1650.9,-5.1601e-05,-0.028753,-6.3368e-05,-88.442,1.3173
7878,17.08,3.2727,0.1,0.00016951,1693.9,0.00016779,1646.8,-5.1397e-05,-0.024894,-6.3437e-05,-90.492,1.3173
7879,17.08,3.4545,0.1,0.00016891,1687.9,0.0001671,1638.7,-5.1e-05,-0.018802,-6.3558e-05,-94.372,1.3172
7880,17.08,3.6364,0.1,0.000168,1678.9,0.00016609,1626.8,-5.0434e-05,-0.01288,-6.3692e-05,-99.63,1.3171
7881,17.08,3.8182,0.1,0.00016679,1666.8,0.00016474,1611.5,-4.9729e-05,-0.0091898,-6.378e-05,-105.58,1.3169
7882,17.08,4,0.1,0.00016526,1651.5,0.00016309,1593,-4.8929e-05,-0.0086413,-6.3746e-05,-111.34,1.3167
7883,17.08,4.1818,0.1,0.00016341,1632.9,0.00016112,1571.9,-4.8081e-05,-0.010816,-6.3508e-05,-115.93,1.3164
7884,17.08,4.3636,0.1,0.00016123,1611.2,0.00015889,1548.7,-4.7233e-05,-0.014485,-6.2992e-05,-118.42,1.3161
7885,17.08,4.5455,0.1,0.00015875,1586.5,0.00015642,1524.1,-4.6433e-05,-0.018333,-6.2146e-05,-118.08,1.3158
7886,17.08,4.7273,0.1,0.00015604,1559.3,0.00015378,1498.9,-4.5722e-05,-0.021471,-6.095e-05,-114.44,1.3154
7887,17.08,4.9091,0.1,0.00015316,1530.5,0.00015105,1474,-4.5135e-05,-0.022962,-5.9415e-05,-107.32,1.315
7888,17.08,5.0909,0.1,0.0001502,1501,0.00014832,1450.2,-4.4698e-05,-0.023358,-5.7575e-05,-96.782,1.3145
7889,17.08,5.2727,0.1,0.00014727,1471.6,0.00014568,1428.4,-4.4428e-05,-0.015752,-5.5476e-05,-83.025,1.3141
7890,17.08,5.4545,0.1,0.00014443,1443.3,0.00014319,1409,-4.4342e-05,-0.017142,-5.3162e-05,-66.286,1.3135
7891,17.08,5.6364,0.1,0.00014176,1416.6,0.00014091,1392.7,-4.4439e-05,0.099612,-5.0668e-05,-46.7,1.313
7892,17.08,5.8182,0.1,0.00013932,1392.3,0.00013889,1379.9,-4.4742e-05,0.11592,-4.8036e-05,-24.639,1.3124
7893,17.263,0.18182,0.1,0.00013155,1314.6,0.0001311,1301.6,-4.2118e-05,0.11634,-4.5567e-05,-25.798,1.336
7894,17.263,0.36364,0.1,0.00013437,1342.8,0.00013344,1316.9,-4.1807e-05,0.099924,-4.855e-05,-50.567,1.3366
7895,17.263,0.54545,0.1,0.0001375,1374.1,0.00013612,1336.3,-4.1733e-05,-0.022984,-5.1393e-05,-72.605,1.3372
7896,17.263,0.72727,0.1,0.00014088,1407.8,0.00013909,1359.7,-4.1875e-05,-0.017333,-5.4079e-05,-91.718,1.3377
7897,17.263,0.90909,0.1,0.00014444,1443.4,0.00014231,1386.5,-4.2232e-05,-0.022992,-5.6567e-05,-107.73,1.3382
7898,17.263,1.0909,0.1,0.00014808,1479.8,0.00014567,1416,-4.2792e-05,-0.020948,-5.8792e-05,-120.24,1.3387
7899,17.263,1.2727,0.1,0.00015168,1515.7,0.00014907,1447.2,-4.3536e-05,-0.018448,-6.0683e-05,-128.85,1.3391
7900,17.263,1.4545,0.1,0.00015509,1549.9,0.00015239,1478.9,-4.4437e-05,-0.014486,-6.2175e-05,-133.29,1.3394
7901,17.263,1.6364,0.1,0.00015822,1581.1,0.00015552,1510.1,-4.5455e-05,-0.0097953,-6.3238e-05,-133.63,1.3398
7902,17.263,1.8182,0.1,0.00016098,1608.7,0.00015837,1539.6,-4.6537e-05,-0.0053385,-6.3885e-05,-130.35,1.3401
7903,17.263,2,0.1,0.00016334,1632.3,0.00016087,1566.5,-4.7623e-05,-0.0030497,-6.418e-05,-124.41,1.3403
7904,17.263,2.1818,0.1,0.00016529,1651.8,0.00016299,1590.2,-4.8649e-05,-0.0047136,-6.4221e-05,-117.01,1.3405
7905,17.263,2.3636,0.1,0.00016685,1667.3,0.00016472,1609.9,-4.955e-05,-0.011007,-6.4115e-05,-109.44,1.3407
7906,17.263,2.5455,0.1,0.00016802,1679,0.00016603,1625.2,-5.0275e-05,-0.020694,-6.3959e-05,-102.84,1.3408
7907,17.263,2.7273,0.1,0.0001688,1686.8,0.00016692,1635.7,-5.0781e-05,-0.030495,-6.3823e-05,-98.025,1.3409
7908,17.263,2.9091,0.1,0.0001692,1690.8,0.00016737,1641,-5.104e-05,-0.036626,-6.3746e-05,-95.505,1.341
7909,17.263,3.0909,0.1,0.0001692,1690.8,0.00016737,1641,-5.104e-05,-0.036625,-6.3746e-05,-95.505,1.341
7910,17.263,3.2727,0.1,0.0001688,1686.8,0.00016692,1635.7,-5.0781e-05,-0.030496,-6.3823e-05,-98.025,1.3409
7911,17.263,3.4545,0.1,0.00016802,1679,0.00016603,1625.2,-5.0275e-05,-0.020694,-6.3959e-05,-102.84,1.3408
7912,17.263,3.6364,0.1,0.00016685,1667.3,0.00016472,1609.9,-4.955e-05,-0.011006,-6.4115e-05,-109.44,1.3407
7913,17.263,3.8182,0.1,0.00016529,1651.8,0.00016299,1590.2,-4.8649e-05,-0.0047147,-6.4221e-05,-117.01,1.3405
7914,17.263,4,0.1,0.00016334,1632.3,0.00016087,1566.5,-4.7623e-05,-0.0030488,-6.418e-05,-124.41,1.3403
7915,17.263,4.1818,0.1,0.00016098,1608.7,0.00015837,1539.6,-4.6537e-05,-0.0053385,-6.3885e-05,-130.36,1.3401
7916,17.263,4.3636,0.1,0.00015822,1581.1,0.00015552,1510.1,-4.5455e-05,-0.0097959,-6.3238e-05,-133.63,1.3398
7917,17.263,4.5455,0.1,0.00015509,1549.9,0.00015239,1478.9,-4.4437e-05,-0.014485,-6.2175e-05,-133.29,1.3394
7918,17.263,4.7273,0.1,0.00015168,1515.7,0.00014907,1447.2,-4.3536e-05,-0.018449,-6.0683e-05,-128.85,1.3391
7919,17.263,4.9091,0.1,0.00014808,1479.8,0.00014567,1416,-4.2792e-05,-0.020947,-5.8792e-05,-120.24,1.3387
7920,17.263,5.0909,0.1,0.00014444,1443.4,0.00014231,1386.5,-4.2232e-05,-0.02299,-5.6567e-05,-107.73,1.3382
7921,17.263,5.2727,0.1,0.00014088,1407.8,0.00013909,1359.7,-4.1875e-05,-0.017332,-5.4079e-05,-91.718,1.3377
7922,17.263,5.4545,0.1,0.0001375,1374.1,0.00013612,1336.3,-4.1733e-05,-0.022983,-5.1393e-05,-72.605,1.3372
7923,17.263,5.6364,0.1,0.00013437,1342.8,0.00013344,1316.9,-4.1807e-05,0.099923,-4.855e-05,-50.567,1.3366
7924,17.263,5.8182,0.1,0.00013155,1314.6,0.0001311,1301.6,-4.2118e-05,0.11634,-4.5567e-05,-25.798,1.336
7925,17.447,0.18182,0.1,0.00012308,1229.9,0.0001226,1216.2,-3.9261e-05,0.10057,-4.2872e-05,-27.028,1.3597
7926,17.447,0.36364,0.1,0.00012631,1262.3,0.0001253,1234.2,-3.8947e-05,0.09442,-4.6211e-05,-54.488,1.3603
7927,17.447,0.54545,0.1,0.00012995,1298.6,0.00012842,1257.2,-3.8904e-05,-0.030307,-4.9439e-05,-79.184,1.3609
7928,17.447,0.72727,0.1,0.00013397,1338.8,0.00013196,1285.4,-3.9109e-05,-0.018419,-5.2564e-05,-101.11,1.3614
7929,17.447,0.90909,0.1,0.0001383,1382,0.00013587,1318.1,-3.9566e-05,-0.020754,-5.5538e-05,-120.02,1.3619
7930,17.447,1.0909,0.1,0.0001428,1427,0.00014002,1354.6,-4.0267e-05,-0.016354,-5.8267e-05,-135.26,1.3624
7931,17.447,1.2727,0.1,0.0001473,1472,0.00014427,1393.5,-4.1197e-05,-0.012598,-6.0634e-05,-146.06,1.3628
7932,17.447,1.4545,0.1,0.00015162,1515.2,0.00014847,1433.6,-4.2328e-05,-0.0078192,-6.2531e-05,-151.81,1.3632
7933,17.447,1.6364,0.1,0.0001556,1554.9,0.00015244,1473.1,-4.3617e-05,-0.0021616,-6.389e-05,-152.33,1.3635
7934,17.447,1.8182,0.1,0.00015911,1590,0.00015607,1510.7,-4.4997e-05,0.0032168,-6.4712e-05,-148.13,1.3638
7935,17.447,2,0.1,0.00016211,1620,0.00015926,1545.2,-4.6389e-05,0.0059638,-6.5077e-05,-140.41,1.3641
7936,17.447,2.1818,0.1,0.00016459,1644.8,0.00016198,1575.5,-4.7705e-05,0.0025224,-6.512e-05,-130.85,1.3643
7937,17.447,2.3636,0.1,0.00016658,1664.7,0.00016419,1600.8,-4.886e-05,-0.0084764,-6.4991e-05,-121.21,1.3645
7938,17.447,2.5455,0.1,0.0001681,1679.8,0.00016589,1620.5,-4.9785e-05,-0.024005,-6.4815e-05,-112.96,1.3646
7939,17.447,2.7273,0.1,0.00016912,1690.1,0.00016705,1634,-5.0427e-05,-0.039044,-6.467e-05,-107.05,1.3647
7940,17.447,2.9091,0.1,0.00016964,1695.3,0.00016763,1640.8,-5.0756e-05,-0.048275,-6.4592e-05,-104.01,1.3647
7941,17.447,3.0909,0.1,0.00016964,1695.3,0.00016763,1640.8,-5.0756e-05,-0.048275,-6.4592e-05,-104.01,1.3647
7942,17.447,3.2727,0.1,0.00016912,1690.1,0.00016705,1634,-5.0427e-05,-0.039045,-6.467e-05,-107.05,1.3647
7943,17.447,3.4545,0.1,0.0001681,1679.8,0.00016589,1620.5,-4.9785e-05,-0.024004,-6.4815e-05,-112.96,1.3646
7944,17.447,3.6364,0.1,0.00016658,1664.7,0.00016419,1600.8,-4.886e-05,-0.0084768,-6.4991e-05,-121.21,1.3645
7945,17.447,3.8182,0.1,0.00016459,1644.8,0.00016198,1575.5,-4.7705e-05,0.0025233,-6.512e-05,-130.85,1.3643
7946,17.447,4,0.1,0.00016211,1620,0.00015926,1545.2,-4.6389e-05,0.0059639,-6.5077e-05,-140.41,1.3641
7947,17.447,4.1818,0.1,0.00015911,1590,0.00015607,1510.7,-4.4997e-05,0.0032178,-6.4712e-05,-148.13,1.3638
7948,17.447,4.3636,0.1,0.0001556,1554.9,0.00015244,1473.1,-4.3617e-05,-0.0021618,-6.389e-05,-152.33,1.3635
7949,17.447,4.5455,0.1,0.00015162,1515.2,0.00014847,1433.6,-4.2328e-05,-0.0078177,-6.2531e-05,-151.81,1.3632
7950,17.447,4.7273,0.1,0.0001473,1472,0.00014427,1393.5,-4.1197e-05,-0.012597,-6.0634e-05,-146.06,1.3628
7951,17.447,4.9091,0.1,0.0001428,1427,0.00014002,1354.6,-4.0267e-05,-0.016353,-5.8267e-05,-135.26,1.3624
7952,17.447,5.0909,0.1,0.0001383,1382,0.00013587,1318.1,-3.9566e-05,-0.020751,-5.5538e-05,-120.02,1.3619
7953,17.447,5.2727,0.1,0.00013397,1338.8,0.00013196,1285.4,-3.9109e-05,-0.018419,-5.2564e-05,-101.11,1.3614
7954,17.447,5.4545,0.1,0.00012995,1298.6,0.00012842,1257.2,-3.8904e-05,-0.030308,-4.9439e-05,-79.184,1.3609
7955,17.447,5.6364,0.1,0.00012631,1262.3,0.0001253,1234.2,-3.8947e-05,0.094422,-4.6211e-05,-54.488,1.3603
7956,17.447,5.8182,0.1,0.00012308,1229.9,0.0001226,1216.2,-3.9261e-05,0.10057,-4.2872e-05,-27.028,1.3597
7957,17.631,0.18182,0.1,0.00011379,1137.1,0.00011328,1122.7,-3.6136e-05,0.059892,-3.9907e-05,-28.276,1.3836
7958,17.631,0.36364,0.1,0.00011744,1173.6,0.00011634,1143.4,-3.5827e-05,0.07986,-4.3589e-05,-58.244,1.3842
7959,17.631,0.54545,0.1,0.00012165,1215.6,0.00011996,1170.4,-3.5821e-05,-0.039921,-4.7235e-05,-85.798,1.3847
7960,17.631,0.72727,0.1,0.00012642,1263.4,0.00012416,1204.1,-3.6095e-05,-0.019199,-5.0883e-05,-111.13,1.3853
7961,17.631,0.90909,0.1,0.00013169,1316,0.0001289,1243.9,-3.6659e-05,-0.016098,-5.4473e-05,-133.86,1.3858
7962,17.631,1.0909,0.1,0.00013727,1371.8,0.00013403,1288.9,-3.7514e-05,-0.008075,-5.7868e-05,-152.94,1.3862
7963,17.631,1.2727,0.1,0.00014295,1428.5,0.00013937,1337.6,-3.8656e-05,-0.0027965,-6.0887e-05,-167.04,1.3867
7964,17.631,1.4545,0.1,0.00014844,1483.4,0.00014469,1388.1,-4.0064e-05,0.0020847,-6.3345e-05,-174.93,1.3871
7965,17.631,1.6364,0.1,0.00015351,1534,0.00014975,1438.4,-4.1689e-05,0.0071346,-6.5112e-05,-175.98,1.3874
7966,17.631,1.8182,0.1,0.00015798,1578.7,0.00015439,1486.5,-4.3452e-05,0.01293,-6.6162e-05,-170.62,1.3877
7967,17.631,2,0.1,0.00016179,1616.8,0.00015846,1530.6,-4.5243e-05,0.013892,-6.6602e-05,-160.47,1.388
7968,17.631,2.1818,0.1,0.00016494,1648.3,0.00016193,1569.3,-4.6937e-05,0.0073037,-6.6629e-05,-147.95,1.3882
7969,17.631,2.3636,0.1,0.00016748,1673.7,0.00016476,1601.8,-4.8418e-05,-0.0075771,-6.6462e-05,-135.58,1.3884
7970,17.631,2.5455,0.1,0.00016943,1693.2,0.00016695,1627,-4.9595e-05,-0.030225,-6.6266e-05,-125.29,1.3885
7971,17.631,2.7273,0.1,0.00017077,1706.5,0.00016845,1644.4,-5.0405e-05,-0.05223,-6.6124e-05,-118.15,1.3886
7972,17.631,2.9091,0.1,0.00017146,1713.4,0.00016922,1653.2,-5.0817e-05,-0.065207,-6.6055e-05,-114.56,1.3886
7973,17.631,3.0909,0.1,0.00017146,1713.4,0.00016922,1653.2,-5.0817e-05,-0.065206,-6.6055e-05,-114.56,1.3886
7974,17.631,3.2727,0.1,0.00017077,1706.5,0.00016845,1644.4,-5.0405e-05,-0.05223,-6.6124e-05,-118.15,1.3886
7975,17.631,3.4545,0.1,0.00016943,1693.2,0.00016695,1627,-4.9595e-05,-0.030224,-6.6266e-05,-125.29,1.3885
7976,17.631,3.6364,0.1,0.00016748,1673.7,0.00016476,1601.8,-4.8418e-05,-0.0075769,-6.6462e-05,-135.58,1.3884
7977,17.631,3.8182,0.1,0.00016494,1648.3,0.00016193,1569.3,-4.6937e-05,0.0073043,-6.6629e-05,-147.95,1.3882
7978,17.631,4,0.1,0.00016179,1616.8,0.00015846,1530.6,-4.5243e-05,0.013893,-6.6602e-05,-160.47,1.388
7979,17.631,4.1818,0.1,0.00015798,1578.7,0.00015439,1486.5,-4.3452e-05,0.01293,-6.6162e-05,-170.62,1.3877
7980,17.631,4.3636,0.1,0.00015351,1534,0.00014975,1438.4,-4.1689e-05,0.0071354,-6.5112e-05,-175.98,1.3874
7981,17.631,4.5455,0.1,0.00014844,1483.4,0.00014469,1388.1,-4.0064e-05,0.0020844,-6.3345e-05,-174.93,1.3871
7982,17.631,4.7273,0.1,0.00014295,1428.5,0.00013937,1337.6,-3.8656e-05,-0.0027958,-6.0887e-05,-167.04,1.3867
7983,17.631,4.9091,0.1,0.00013727,1371.8,0.00013403,1288.9,-3.7514e-05,-0.0080762,-5.7868e-05,-152.94,1.3862
7984,17.631,5.0909,0.1,0.00013169,1316,0.0001289,1243.9,-3.6659e-05,-0.016096,-5.4473e-05,-133.86,1.3858
7985,17.631,5.2727,0.1,0.00012642,1263.4,0.00012416,1204.1,-3.6095e-05,-0.019197,-5.0883e-05,-111.13,1.3853
7986,17.631,5.4545,0.1,0.00012165,1215.6,0.00011996,1170.4,-3.5821e-05,-0.039919,-4.7235e-05,-85.798,1.3847
7987,17.631,5.6364,0.1,0.00011744,1173.6,0.00011634,1143.4,-3.5827e-05,0.079859,-4.3589e-05,-58.244,1.3842
7988,17.631,5.8182,0.1,0.00011379,1137.1,0.00011328,1122.7,-3.6136e-05,0.059892,-3.9907e-05,-28.276,1.3836
7989,17.814,0.18182,0.1,0.00010357,1035,0.00010304,1019.9,-3.271e-05,-0.013608,-3.6628e-05,-29.45,1.4075
7990,17.814,0.36364,0.1,0.00010762,1075.4,0.00010644,1043.4,-3.2418e-05,0.0529,-4.0613e-05,-61.523,1.4081
7991,17.814,0.54545,0.1,0.00011245,1123.7,0.0001106,1074.8,-3.2454e-05,-0.052336,-4.4711e-05,-92.142,1.4086
7992,17.814,0.72727,0.1,0.00011811,1180.3,0.00011557,1114.7,-3.2795e-05,-0.019612,-4.8987e-05,-121.68,1.4092
7993,17.814,0.90909,0.1,0.00012452,1244.4,0.0001213,1162.8,-3.3462e-05,-0.0078948,-5.3365e-05,-149.55,1.4097
7994,17.814,1.0909,0.1,0.00013148,1313.8,0.00012764,1218.1,-3.4473e-05,0.0059578,-5.7652e-05,-174.15,1.4102
7995,17.814,1.2727,0.1,0.00013866,1385.6,0.00013435,1278.8,-3.5846e-05,0.014342,-6.1572e-05,-193.28,1.4106
7996,17.814,1.4545,0.1,0.00014569,1455.9,0.00014112,1342.7,-3.7577e-05,0.021197,-6.4823e-05,-204.69,1.411
7997,17.814,1.6364,0.1,0.00015219,1520.9,0.00014761,1406.8,-3.9624e-05,0.029276,-6.716e-05,-206.87,1.4114
7998,17.814,1.8182,0.1,0.0001579,1577.9,0.00015355,1468.4,-4.1884e-05,0.032925,-6.8505e-05,-199.99,1.4117
7999,17.814,2,0.1,0.00016273,1626.1,0.00015875,1525,-4.4204e-05,0.038376,-6.9001e-05,-186.28,1.4119
8000,17.814,2.1818,0.1,0.0001667,1665.9,0.00016317,1574.7,-4.64e-05,0.028055,-6.896e-05,-169.48,1.4122
8001,17.814,2.3636,0.1,0.00016992,1698,0.00016679,1616.1,-4.8305e-05,-0.0074433,-6.8717e-05,-153.38,1.4124
8002,17.814,2.5455,0.1,0.00017241,1722.9,0.00016959,1648.3,-4.9794e-05,-0.044239,-6.8499e-05,-140.58,1.4125
8003,17.814,2.7273,0.1,0.00017414,1740.2,0.00017151,1670.3,-5.0803e-05,-0.072515,-6.8379e-05,-132.14,1.4126
8004,17.814,2.9091,0.1,0.00017503,1749.1,0.0001725,1681.5,-5.1308e-05,-0.088665,-6.8338e-05,-128.04,1.4126
8005,17.814,3.0909,0.1,0.00017503,1749.1,0.0001725,1681.5,-5.1308e-05,-0.088665,-6.8338e-05,-128.04,1.4126
8006,17.814,3.2727,0.1,0.00017414,1740.2,0.00017151,1670.3,-5.0803e-05,-0.072515,-6.8379e-05,-132.14,1.4126
8007,17.814,3.4545,0.1,0.00017241,1722.9,0.00016959,1648.3,-4.9794e-05,-0.04424,-6.8499e-05,-140.58,1.4125
8008,17.814,3.6364,0.1,0.00016992,1698,0.00016679,1616.1,-4.8305e-05,-0.0074418,-6.8717e-05,-153.38,1.4124
8009,17.814,3.8182,0.1,0.0001667,1665.9,0.00016317,1574.7,-4.64e-05,0.028055,-6.896e-05,-169.48,1.4122
8010,17.814,4,0.1,0.00016273,1626.1,0.00015875,1525,-4.4204e-05,0.038377,-6.9001e-05,-186.28,1.4119
8011,17.814,4.1818,0.1,0.0001579,1577.9,0.00015355,1468.4,-4.1884e-05,0.032924,-6.8505e-05,-199.99,1.4117
8012,17.814,4.3636,0.1,0.00015219,1520.9,0.00014761,1406.8,-3.9624e-05,0.029275,-6.716e-05,-206.87,1.4114
8013,17.814,4.5455,0.1,0.00014569,1455.9,0.00014112,1342.7,-3.7577e-05,0.021198,-6.4823e-05,-204.69,1.411
8014,17.814,4.7273,0.1,0.00013866,1385.6,0.00013435,1278.8,-3.5846e-05,0.014342,-6.1572e-05,-193.28,1.4106
8015,17.814,4.9091,0.1,0.00013148,1313.8,0.00012764,1218.1,-3.4473e-05,0.0059591,-5.7652e-05,-174.15,1.4102
8016,17.814,5.0909,0.1,0.00012452,1244.4,0.0001213,1162.8,-3.3462e-05,-0.0078952,-5.3365e-05,-149.55,1.4097
8017,17.814,5.2727,0.1,0.00011811,1180.3,0.00011557,1114.7,-3.2795e-05,-0.01961,-4.8987e-05,-121.68,1.4092
8018,17.814,5.4545,0.1,0.00011245,1123.7,0.0001106,1074.8,-3.2454e-05,-0.052336,-4.4711e-05,-92.143,1.4086
8019,17.814,5.6364,0.1,0.00010762,1075.4,0.00010644,1043.4,-3.2418e-05,0.052899,-4.0613e-05,-61.523,1.4081
8020,17.814,5.8182,0.1,0.00010357,1035,0.00010304,1019.9,-3.271e-05,-0.013606,-3.6628e-05,-29.45,1.4075
8021,17.998,0.18182,0.1,9.2331e-05,922.67,9.1774e-05,907.02,-2.8961e-05,-0.12501,-3.2992e-05,-30.416,1.4314
8022,17.998,0.36364,0.1,9.673e-05,966.63,9.5484e-05,933.08,-2.8701e-05,0.0084062,-3.7211e-05,-63.937,1.432
8023,17.998,0.54545,0.1,0.00010224,1021.7,0.00010022,969.17,-2.8779e-05,-0.070798,-4.1798e-05,-97.884,1.4326
8024,17.998,0.72727,0.1,0.00010893,1088.6,0.00010607,1016.1,-2.9174e-05,-0.023384,-4.6838e-05,-132.75,1.4332
8025,17.998,0.90909,0.1,0.00011674,1166.6,0.00011298,1073.7,-2.9922e-05,0.00022881,-5.2232e-05,-167.63,1.4337
8026,17.998,1.0909,0.1,0.00012541,1253.3,0.0001208,1141.1,-3.1068e-05,0.024325,-5.7718e-05,-200.21,1.4342
8027,17.998,1.2727,0.1,0.00013455,1344.5,0.00012924,1216.5,-3.267e-05,0.041211,-6.29e-05,-227.09,1.4346
8028,17.998,1.4545,0.1,0.00014361,1435.1,0.00013789,1297.3,-3.4766e-05,0.042448,-6.7294e-05,-244.35,1.435
8029,17.998,1.6364,0.1,0.00015203,1519.3,0.00014626,1379.5,-3.7337e-05,0.025589,-7.0455e-05,-248.81,1.4354
8030,17.998,1.8182,0.1,0.00015937,1592.6,0.00015393,1459.1,-4.026e-05,0.035351,-7.218e-05,-239.8,1.4357
8031,17.998,2,0.1,0.00016546,1653.4,0.0001606,1532.1,-4.331e-05,0.0053073,-7.2664e-05,-220.55,1.436
8032,17.998,2.1818,0.1,0.00017042,1703,0.0001662,1595.8,-4.6191e-05,-0.029816,-7.2426e-05,-197.15,1.4363
8033,17.998,2.3636,0.1,0.00017443,1743.1,0.00017077,1648.5,-4.8639e-05,-0.030574,-7.2023e-05,-175.72,1.4365
8034,17.998,2.5455,0.1,0.00017755,1774.3,0.00017429,1688.9,-5.0501e-05,-0.065736,-7.1767e-05,-159.85,1.4366
8035,17.998,2.7273,0.1,0.00017972,1796,0.00017669,1716.1,-5.1724e-05,-0.10368,-7.1692e-05,-150.13,1.4367
8036,17.998,2.9091,0.1,0.00018083,1807.1,0.00017791,1729.8,-5.2323e-05,-0.11774,-7.1698e-05,-145.7,1.4367
8037,17.998,3.0909,0.1,0.00018083,1807.1,0.00017791,1729.8,-5.2323e-05,-0.11774,-7.1698e-05,-145.7,1.4367
8038,17.998,3.2727,0.1,0.00017972,1796,0.00017669,1716.1,-5.1724e-05,-0.10368,-7.1692e-05,-150.13,1.4367
8039,17.998,3.4545,0.1,0.00017755,1774.3,0.00017429,1688.9,-5.0501e-05,-0.065735,-7.1767e-05,-159.85,1.4366
8040,17.998,3.6364,0.1,0.00017443,1743.1,0.00017077,1648.5,-4.8639e-05,-0.030574,-7.2023e-05,-175.72,1.4365
8041,17.998,3.8182,0.1,0.00017042,1703,0.0001662,1595.8,-4.6191e-05,-0.029816,-7.2426e-05,-197.15,1.4363
8042,17.998,4,0.1,0.00016546,1653.4,0.0001606,1532.1,-4.331e-05,0.0053071,-7.2664e-05,-220.55,1.436
8043,17.998,4.1818,0.1,0.00015937,1592.6,0.00015393,1459.1,-4.026e-05,0.035351,-7.218e-05,-239.8,1.4357
8044,17.998,4.3636,0.1,0.00015203,1519.3,0.00014626,1379.5,-3.7337e-05,0.025589,-7.0455e-05,-248.81,1.4354
8045,17.998,4.5455,0.1,0.00014361,1435.1,0.00013789,1297.3,-3.4766e-05,0.04245,-6.7294e-05,-244.35,1.435
8046,17.998,4.7273,0.1,0.00013455,1344.5,0.00012924,1216.5,-3.267e-05,0.04121,-6.29e-05,-227.09,1.4346
8047,17.998,4.9091,0.1,0.00012541,1253.3,0.0001208,1141.1,-3.1068e-05,0.024325,-5.7718e-05,-200.21,1.4342
8048,17.998,5.0909,0.1,0.00011674,1166.6,0.00011298,1073.7,-2.9922e-05,0.0002305,-5.2232e-05,-167.63,1.4337
8049,17.998,5.2727,0.1,0.00010893,1088.6,0.00010607,1016.1,-2.9174e-05,-0.023382,-4.6838e-05,-132.75,1.4332
8050,17.998,5.4545,0.1,0.00010224,1021.7,0.00010022,969.17,-2.8779e-05,-0.070798,-4.1798e-05,-97.884,1.4326
8051,17.998,5.6364,0.1,9.673e-05,966.63,9.5484e-05,933.08,-2.8701e-05,0.0084054,-3.7211e-05,-63.937,1.432
8052,17.998,5.8182,0.1,9.2331e-05,922.67,9.1774e-05,907.02,-2.8961e-05,-0.12501,-3.2992e-05,-30.416,1.4314
8053,18.182,0.18182,0.1,8.0014e-05,799.59,7.9438e-05,783.52,-2.4876e-05,-0.25285,-2.8967e-05,-30.991,1.4555
8054,18.182,0.36364,0.1,8.4705e-05,846.47,8.3409e-05,812.03,-2.467e-05,-0.04397,-3.3327e-05,-65.087,1.4561
8055,18.182,0.54545,0.1,9.0964e-05,909.02,8.8777e-05,853.2,-2.4788e-05,-0.085301,-3.8461e-05,-102.82,1.4567
8056,18.182,0.72727,0.1,9.8881e-05,988.13,9.5624e-05,907.86,-2.5207e-05,-0.023814,-4.4449e-05,-144.6,1.4572
8057,18.182,0.90909,0.1,0.00010837,1083,0.00010391,975.98,-2.5984e-05,0.017274,-5.115e-05,-189.07,1.4578
8058,18.182,1.0909,0.1,0.00011917,1190.9,0.00011348,1057.1,-2.7205e-05,0.060018,-5.8237e-05,-233.1,1.4583
8059,18.182,1.2727,0.1,0.00013082,1307.3,0.00012405,1150,-2.8988e-05,0.08409,-6.5187e-05,-271.9,1.4587
8060,18.182,1.4545,0.1,0.00014262,1425.2,0.00013516,1252,-3.1456e-05,0.11498,-7.1277e-05,-299.09,1.4592
8061,18.182,1.6364,0.1,0.00015366,1535.6,0.00014608,1358.2,-3.4657e-05,0.21176,-7.5691e-05,-308.1,1.4596
8062,18.182,1.8182,0.1,0.00016318,1630.6,0.00015611,1462.3,-3.8496e-05,0.11663,-7.7931e-05,-296.18,1.4599
8063,18.182,2,0.1,0.00017084,1707.2,0.00016471,1557.7,-4.2583e-05,0.1849,-7.8227e-05,-267.62,1.4602
8064,18.182,2.1818,0.1,0.00017693,1768.1,0.0001718,1639.9,-4.643e-05,0.19152,-7.751e-05,-233.33,1.4605
8065,18.182,2.3636,0.1,0.00018181,1816.9,0.00017748,1706.2,-4.9613e-05,-0.072182,-7.6759e-05,-204.04,1.4607
8066,18.182,2.5455,0.1,0.00018556,1854.4,0.00018174,1755.2,-5.1887e-05,-0.13781,-7.641e-05,-184.39,1.4608
8067,18.182,2.7273,0.1,0.00018811,1879.8,0.00018456,1787,-5.329e-05,-0.13647,-7.638e-05,-173.62,1.4609
8068,18.182,2.9091,0.1,0.00018939,1892.6,0.00018595,1802.3,-5.3949e-05,-0.14493,-7.6436e-05,-169.1,1.461
8069,18.182,3.0909,0.1,0.00018939,1892.6,0.00018595,1802.3,-5.3949e-05,-0.14493,-7.6436e-05,-169.1,1.461
8070,18.182,3.2727,0.1,0.00018811,1879.8,0.00018456,1787,-5.329e-05,-0.13647,-7.638e-05,-173.62,1.4609
8071,18.182,3.4545,0.1,0.00018556,1854.4,0.00018174,1755.2,-5.1887e-05,-0.13781,-7.641e-05,-184.39,1.4608
8072,18.182,3.6364,0.1,0.00018181,1816.9,0.00017748,1706.2,-4.9613e-05,-0.072182,-7.6759e-05,-204.04,1.4607
8073,18.182,3.8182,0.1,0.00017693,1768.1,0.0001718,1639.9,-4.643e-05,0.19152,-7.751e-05,-233.33,1.4605
8074,18.182,4,0.1,0.00017084,1707.2,0.00016471,1557.7,-4.2583e-05,0.1849,-7.8227e-05,-267.62,1.4602
8075,18.182,4.1818,0.1,0.00016318,1630.6,0.00015611,1462.3,-3.8496e-05,0.11663,-7.7931e-05,-296.18,1.4599
8076,18.182,4.3636,0.1,0.00015366,1535.6,0.00014608,1358.2,-3.4657e-05,0.21176,-7.5691e-05,-308.1,1.4596
8077,18.182,4.5455,0.1,0.00014262,1425.2,0.00013516,1252,-3.1456e-05,0.11498,-7.1277e-05,-299.09,1.4592
8078,18.182,4.7273,0.1,0.00013082,1307.3,0.00012405,1150,-2.8988e-05,0.08409,-6.5187e-05,-271.9,1.4587
8079,18.182,4.9091,0.1,0.00011917,1190.9,0.00011348,1057.1,-2.7205e-05,0.060018,-5.8237e-05,-233.1,1.4583
8080,18.182,5.0909,0.1,0.00010837,1083,0.00010391,975.98,-2.5984e-05,0.017276,-5.115e-05,-189.07,1.4578
8081,18.182,5.2727,0.1,9.8881e-05,988.13,9.5624e-05,907.86,-2.5207e-05,-0.023811,-4.4449e-05,-144.6,1.4572
8082,18.182,5.4545,0.1,9.0964e-05,909.02,8.8777e-05,853.2,-2.4788e-05,-0.085302,-3.8461e-05,-102.82,1.4567
8083,18.182,5.6364,0.1,8.4705e-05,846.47,8.3409e-05,812.03,-2.467e-05,-0.043971,-3.3327e-05,-65.087,1.4561
8084,18.182,5.8182,0.1,8.0014e-05,799.59,7.9438e-05,783.52,-2.4876e-05,-0.25285,-2.8967e-05,-30.991,1.4555
8085,18.365,0.18182,0.1,6.6633e-05,665.87,6.6046e-05,649.66,-2.0468e-05,-0.37547,-2.4542e-05,-30.989,1.4795
8086,18.365,0.36364,0.1,7.159e-05,715.4,7.0265e-05,680.74,-2.0352e-05,-0.11958,-2.8962e-05,-64.811,1.4802
8087,18.365,0.54545,0.1,7.876e-05,787.05,7.6381e-05,727.81,-2.0501e-05,-0.12354,-3.4774e-05,-107.37,1.4808
8088,18.365,0.72727,0.1,8.8151e-05,880.9,8.4383e-05,790.97,-2.0897e-05,-0.060072,-4.1963e-05,-158.34,1.4813
8089,18.365,0.90909,0.1,9.9639e-05,995.7,9.4201e-05,870.17,-2.1614e-05,-0.010986,-5.032e-05,-215.7,1.4819
8090,18.365,1.0909,0.1,0.00011299,1129.1,0.00010574,965.74,-2.2783e-05,0.035316,-5.9482e-05,-275.71,1.4824
8091,18.365,1.2727,0.1,0.0001278,1277.1,0.00011885,1078,-2.4608e-05,0.12765,-6.8874e-05,-332.47,1.4829
8092,18.365,1.4545,0.1,0.00014331,1432.1,0.00013312,1206,-2.7357e-05,0.22006,-7.7549e-05,-376.9,1.4834
8093,18.365,1.6364,0.1,0.00015823,1581.2,0.00014771,1345.1,-3.1355e-05,-0.29786,-8.4087e-05,-396.51,1.4838
8094,18.365,1.8182,0.1,0.00017083,1707.1,0.00016114,1484.6,-3.6454e-05,0.012349,-8.7122e-05,-380.69,1.4842
8095,18.365,2,0.1,0.00018055,1804.2,0.00017248,1612.6,-4.2228e-05,-0.6224,-8.6824e-05,-335.69,1.4845
8096,18.365,2.1818,0.1,0.00018783,1877,0.00018142,1719.5,-4.7566e-05,-1.0041,-8.4988e-05,-282.18,1.4848
8097,18.365,2.3636,0.1,0.00019336,1932.2,0.00018815,1800.9,-5.1551e-05,-0.1134,-8.3497e-05,-240.15,1.485
8098,18.365,2.5455,0.1,0.00019742,1972.9,0.00019286,1856,-5.4179e-05,-0.19775,-8.2885e-05,-215.88,1.4852
8099,18.365,2.7273,0.1,0.00019994,1998,0.00019568,1887.9,-5.5617e-05,-0.17809,-8.2781e-05,-204.27,1.4853
8100,18.365,2.9091,0.1,0.00020109,2009.6,0.00019695,1902.2,-5.6232e-05,-0.14346,-8.2799e-05,-199.76,1.4853
8101,18.365,3.0909,0.1,0.00020109,2009.6,0.00019695,1902.2,-5.6232e-05,-0.14346,-8.2799e-05,-199.76,1.4853
8102,18.365,3.2727,0.1,0.00019994,1998,0.00019568,1887.9,-5.5617e-05,-0.17809,-8.2781e-05,-204.27,1.4853
8103,18.365,3.4545,0.1,0.00019742,1972.9,0.00019286,1856,-5.4179e-05,-0.19775,-8.2885e-05,-215.88,1.4852
8104,18.365,3.6364,0.1,0.00019336,1932.2,0.00018815,1800.9,-5.1551e-05,-0.1134,-8.3498e-05,-240.15,1.485
8105,18.365,3.8182,0.1,0.00018783,1877,0.00018142,1719.5,-4.7566e-05,-1.0041,-8.4988e-05,-282.18,1.4848
8106,18.365,4,0.1,0.00018055,1804.2,0.00017248,1612.6,-4.2228e-05,-0.6224,-8.6824e-05,-335.69,1.4845
8107,18.365,4.1818,0.1,0.00017083,1707.1,0.00016114,1484.6,-3.6454e-05,0.01235,-8.7122e-05,-380.69,1.4842
8108,18.365,4.3636,0.1,0.00015823,1581.2,0.00014771,1345.1,-3.1355e-05,-0.29786,-8.4087e-05,-396.51,1.4838
8109,18.365,4.5455,0.1,0.00014331,1432.1,0.00013312,1206,-2.7357e-05,0.22006,-7.7549e-05,-376.9,1.4834
8110,18.365,4.7273,0.1,0.0001278,1277.1,0.00011885,1078,-2.4608e-05,0.12765,-6.8874e-05,-332.47,1.4829
8111,18.365,4.9091,0.1,0.00011299,1129.1,0.00010574,965.74,-2.2783e-05,0.035316,-5.9482e-05,-275.71,1.4824
8112,18.365,5.0909,0.1,9.9639e-05,995.7,9.4201e-05,870.17,-2.1614e-05,-0.010985,-5.032e-05,-215.7,1.4819
8113,18.365,5.2727,0.1,8.8151e-05,880.9,8.4383e-05,790.97,-2.0897e-05,-0.060069,-4.1963e-05,-158.34,1.4813
8114,18.365,5.4545,0.1,7.876e-05,787.05,7.6381e-05,727.81,-2.0501e-05,-0.12354,-3.4774e-05,-107.37,1.4808
8115,18.365,5.6364,0.1,7.159e-05,715.4,7.0265e-05,680.74,-2.0352e-05,-0.11958,-2.8962e-05,-64.811,1.4802
8116,18.365,5.8182,0.1,6.6633e-05,665.87,6.6046e-05,649.66,-2.0468e-05,-0.37547,-2.4542e-05,-30.989,1.4795
8117,18.549,0.18182,0.1,5.2299e-05,522.63,5.1716e-05,506.77,-1.5755e-05,-0.18508,-1.9754e-05,-30.235,1.5037
8118,18.549,0.36364,0.1,5.7687e-05,576.47,5.6336e-05,541.92,-1.5789e-05,-0.0049477,-2.4279e-05,-63.795,1.5043
8119,18.549,0.54545,0.1,6.6164e-05,661.18,6.3496e-05,597.03,-1.5966e-05,-0.0092753,-3.1081e-05,-113.58,1.5049
8120,18.549,0.72727,0.1,7.7408e-05,773.54,7.2864e-05,669.77,-1.6272e-05,0.038167,-3.9823e-05,-176.92,1.5055
8121,18.549,0.90909,0.1,9.1177e-05,911.14,8.4285e-05,759.55,-1.6795e-05,0.082675,-5.0175e-05,-250.73,1.5061
8122,18.549,1.0909,0.1,0.00010738,1073,9.7817e-05,868.12,-1.7695e-05,0.2098,-6.1862e-05,-331.65,1.5067
8123,18.549,1.2727,0.1,0.00012593,1258.4,0.00011365,999.06,-1.9282e-05,0.27577,-7.4461e-05,-414.32,1.5072
8124,18.549,1.4545,0.1,0.00014653,1464.2,0.00013194,1157.2,-2.2043e-05,0.23081,-8.7157e-05,-489.01,1.5077
8125,18.549,1.6364,0.1,0.00016724,1671.3,0.00015167,1340.7,-2.6446e-05,2.4192,-9.7646e-05,-532.55,1.5082
8126,18.549,1.8182,0.1,0.00018514,1850.1,0.00017086,1537.4,-3.3611e-05,1.0735,-0.00010247,-516.32,1.5086
8127,18.549,2,0.1,0.00019773,1975.9,0.00018653,1719.9,-4.1951e-05,3.1184,-0.00010093,-440.04,1.5089
8128,18.549,2.1818,0.1,0.00020566,2055.1,0.00019754,1860.2,-4.9701e-05,2.5284,-9.6284e-05,-347.48,1.5092
8129,18.549,2.3636,0.1,0.00021138,2112.3,0.00020504,1954.1,-5.5214e-05,-1.334,-9.3123e-05,-286.17,1.5095
8130,18.549,2.5455,0.1,0.00021436,2142.1,0.00020884,2002.3,-5.7667e-05,-0.13652,-9.1777e-05,-256.43,1.5097
8131,18.549,2.7273,0.1,0.00021548,2153.4,0.00021032,2021.5,-5.875e-05,-0.14222,-9.1059e-05,-242.91,1.5098
8132,18.549,2.9091,0.1,0.00021576,2156.1,0.00021073,2027.4,-5.9106e-05,-0.073231,-9.0736e-05,-237.72,1.5098
8133,18.549,3.0909,0.1,0.00021576,2156.1,0.00021073,2027.4,-5.9106e-05,-0.073232,-9.0736e-05,-237.72,1.5098
8134,18.549,3.2727,0.1,0.00021548,2153.4,0.00021032,2021.5,-5.875e-05,-0.14221,-9.1059e-05,-242.91,1.5098
8135,18.549,3.4545,0.1,0.00021436,2142.1,0.00020884,2002.3,-5.7667e-05,-0.13652,-9.1777e-05,-256.43,1.5097
8136,18.549,3.6364,0.1,0.00021138,2112.3,0.00020504,1954.1,-5.5214e-05,-1.334,-9.3123e-05,-286.17,1.5095
8137,18.549,3.8182,0.1,0.00020566,2055.1,0.00019754,1860.2,-4.9701e-05,2.5284,-9.6284e-05,-347.48,1.5092
8138,18.549,4,0.1,0.00019773,1975.9,0.00018653,1719.9,-4.1951e-05,3.1184,-0.00010093,-440.04,1.5089
8139,18.549,4.1818,0.1,0.00018514,1850.1,0.00017086,1537.4,-3.3611e-05,1.0735,-0.00010247,-516.32,1.5086
8140,18.549,4.3636,0.1,0.00016724,1671.3,0.00015167,1340.7,-2.6446e-05,2.4192,-9.7646e-05,-532.55,1.5082
8141,18.549,4.5455,0.1,0.00014653,1464.3,0.00013194,1157.2,-2.2043e-05,0.23081,-8.7157e-05,-489.02,1.5077
8142,18.549,4.7273,0.1,0.00012593,1258.4,0.00011365,999.06,-1.9282e-05,0.27577,-7.4461e-05,-414.32,1.5072
8143,18.549,4.9091,0.1,0.00010738,1073,9.7817e-05,868.12,-1.7695e-05,0.2098,-6.1862e-05,-331.65,1.5067
8144,18.549,5.0909,0.1,9.1177e-05,911.14,8.4285e-05,759.55,-1.6795e-05,0.082677,-5.0175e-05,-250.73,1.5061
8145,18.549,5.2727,0.1,7.7408e-05,773.54,7.2864e-05,669.77,-1.6272e-05,0.038169,-3.9823e-05,-176.92,1.5055
8146,18.549,5.4545,0.1,6.6164e-05,661.18,6.3496e-05,597.03,-1.5966e-05,-0.0092751,-3.1081e-05,-113.58,1.5049
8147,18.549,5.6364,0.1,5.7687e-05,576.47,5.6336e-05,541.92,-1.5789e-05,-0.0049482,-2.4279e-05,-63.795,1.5043
8148,18.549,5.8182,0.1,5.2299e-05,522.63,5.1716e-05,506.77,-1.5755e-05,-0.18508,-1.9754e-05,-30.235,1.5037
8149,18.733,0.18182,0.1,3.738e-05,373.54,3.6781e-05,357.7,-1.0812e-05,0.11087,-1.4815e-05,-29.968,1.5278
8150,18.733,0.36364,0.1,4.4053e-05,440.22,4.2536e-05,402.98,-1.1126e-05,-0.2172,-1.9976e-05,-66.715,1.5285
8151,18.733,0.54545,0.1,5.4749e-05,547.11,5.1404e-05,471.02,-1.1334e-05,-0.3667,-2.8443e-05,-128.91,1.5291
8152,18.733,0.72727,0.1,6.8322e-05,682.75,6.2359e-05,554.3,-1.1479e-05,-0.49168,-3.912e-05,-208.18,1.5297
8153,18.733,0.90909,0.1,8.448e-05,844.22,7.5234e-05,652.29,-1.1653e-05,-0.54691,-5.1651e-05,-301.07,1.5303
8154,18.733,1.0909,0.1,0.00010347,1034,9.0377e-05,768.77,-1.2027e-05,-0.65276,-6.6049e-05,-406.55,1.5309
8155,18.733,1.2727,0.1,0.00012602,1259.4,0.00010863,912.22,-1.2863e-05,-0.60442,-8.2593e-05,-524.53,1.5315
8156,18.733,1.4545,0.1,0.00015262,1525.1,0.00013095,1094.9,-1.4847e-05,-0.56379,-0.00010088,-646.99,1.5321
8157,18.733,1.6364,0.1,0.00018429,1841.7,0.00015931,1341.1,-1.9459e-05,-2.1371,-0.0001201,-758.29,1.5326
8158,18.733,1.8182,0.1,0.0002148,2146.5,0.00019056,1644.1,-2.8998e-05,-5.5102,-0.00013244,-782.73,1.5331
8159,18.733,2,0.1,0.0002309,2307.4,0.00021393,1925.9,-4.4793e-05,-17.967,-0.00012545,-623.97,1.5335
8160,18.733,2.1818,0.1,0.00023908,2389.2,0.00022837,2132.2,-5.6699e-05,-9.6559,-0.00011458,-444.53,1.5338
8161,18.733,2.3636,0.1,0.00023973,2395.6,0.00023198,2204.6,-6.1242e-05,1.4467,-0.00010744,-345.66,1.5341
8162,18.733,2.5455,0.1,0.00023713,2369.6,0.00023043,2201.7,-6.2631e-05,-0.3076,-0.00010332,-306,1.5343
8163,18.733,2.7273,0.1,0.00023379,2336.3,0.0002276,2179.9,-6.2516e-05,0.097957,-0.00010066,-286.49,1.5344
8164,18.733,2.9091,0.1,0.00023182,2316.6,0.00022582,2164.8,-6.2279e-05,0.10481,-9.9364e-05,-278.54,1.5345
8165,18.733,3.0909,0.1,0.00023182,2316.6,0.00022582,2164.8,-6.2279e-05,0.10481,-9.9364e-05,-278.54,1.5345
8166,18.733,3.2727,0.1,0.00023379,2336.3,0.0002276,2179.9,-6.2516e-05,0.097957,-0.00010066,-286.49,1.5344
8167,18.733,3.4545,0.1,0.00023713,2369.6,0.00023043,2201.7,-6.2631e-05,-0.3076,-0.00010332,-306,1.5343
8168,18.733,3.6364,0.1,0.00023973,2395.6,0.00023198,2204.6,-6.1242e-05,1.4467,-0.00010744,-345.66,1.5341
8169,18.733,3.8182,0.1,0.00023908,2389.2,0.00022837,2132.2,-5.6699e-05,-9.6559,-0.00011458,-444.53,1.5338
8170,18.733,4,0.1,0.0002309,2307.4,0.00021393,1925.9,-4.4793e-05,-17.967,-0.00012545,-623.97,1.5335
8171,18.733,4.1818,0.1,0.0002148,2146.5,0.00019056,1644.1,-2.8998e-05,-5.5102,-0.00013244,-782.73,1.5331
8172,18.733,4.3636,0.1,0.00018429,1841.7,0.00015931,1341.1,-1.9459e-05,-2.1371,-0.0001201,-758.29,1.5326
8173,18.733,4.5455,0.1,0.00015262,1525.1,0.00013095,1094.9,-1.4847e-05,-0.56379,-0.00010088,-646.99,1.5321
8174,18.733,4.7273,0.1,0.00012602,1259.4,0.00010863,912.22,-1.2863e-05,-0.60442,-8.2593e-05,-524.53,1.5315
8175,18.733,4.9091,0.1,0.00010347,1034,9.0377e-05,768.77,-1.2027e-05,-0.65276,-6.6049e-05,-406.55,1.5309
8176,18.733,5.0909,0.1,8.448e-05,844.22,7.5234e-05,652.29,-1.1653e-05,-0.54691,-5.1651e-05,-301.07,1.5303
8177,18.733,5.2727,0.1,6.8322e-05,682.75,6.2359e-05,554.3,-1.1479e-05,-0.49168,-3.912e-05,-208.18,1.5297
8178,18.733,5.4545,0.1,5.4749e-05,547.11,5.1404e-05,471.02,-1.1334e-05,-0.3667,-2.8443e-05,-128.91,1.5291
8179,18.733,5.6364,0.1,4.4053e-05,440.22,4.2536e-05,402.98,-1.1126e-05,-0.2172,-1.9976e-05,-66.715,1.5285
8180,18.733,5.8182,0.1,3.738e-05,373.54,3.6781e-05,357.7,-1.0812e-05,0.11087,-1.4815e-05,-29.968,1.5278
8181,18.916,0.18182,0.1,2.3779e-05,237.62,2.2862e-05,216.77,-5.3858e-06,4.5308,-1.1306e-05,-39.949,1.552
8182,18.916,0.36364,0.1,3.524e-05,352.16,3.2556e-05,293.92,-6.2955e-06,2.0037,-1.9499e-05,-97.204,1.5526
8183,18.916,0.54545,0.1,4.9897e-05,498.63,4.4268e-05,383.15,-6.516e-06,1.5773,-3.0822e-05,-181.05,1.5533
8184,18.916,0.72727,0.1,6.6553e-05,665.07,5.7139e-05,478.79,-6.3927e-06,1.4291,-4.3964e-05,-280.87,1.554
8185,18.916,0.90909,0.1,8.5512e-05,854.53,7.1518e-05,584.24,-6.0527e-06,1.4011,-5.9037e-05,-396.7,1.5546
8186,18.916,1.0909,0.1,0.00010762,1075.4,8.8144e-05,705.89,-5.5531e-06,1.8855,-7.6611e-05,-532.01,1.5552
8187,18.916,1.2727,0.1,0.0001344,1343.1,0.00010834,853.88,-5.16e-06,1.0821,-9.7716e-05,-694.35,1.5559
8188,18.916,1.4545,0.1,0.00016879,1686.7,0.00013465,1052.9,-4.676e-06,6.1147,-0.00012432,-892.81,1.5565
8189,18.916,1.6364,0.1,0.00021683,2166.8,0.00017238,1336.5,-6.421e-06,-7.0086,-0.00016031,-1163.2,1.5571
8190,18.916,1.8182,0.1,0.00028784,2876.4,0.00023672,1916.2,-1.3928e-05,32.897,-0.00020393,-1394.7,1.5576
8191,18.916,2,0.1,0.00033388,3336.5,0.00030015,2691.1,-3.7522e-05,153.94,-0.00020286,-1088.3,1.5581
8192,18.916,2.1818,0.1,0.00030499,3047.8,0.00029116,2717.8,-7.1715e-05,-8.7323,-0.00014676,-572.56,1.5585
8193,18.916,2.3636,0.1,0.00028243,2822.3,0.00027292,2589.9,-7.1111e-05,5.0309,-0.00012785,-421.31,1.5588
8194,18.916,2.5455,0.1,0.00026237,2621.9,0.00025459,2427.5,-6.8676e-05,-1.4254,-0.00011535,-352.15,1.559
8195,18.916,2.7273,0.1,0.00025091,2507.4,0.00024386,2330.6,-6.6198e-05,1.0066,-0.00010932,-322.97,1.5592
8196,18.916,2.9091,0.1,0.00024548,2453.1,0.00023875,2283.7,-6.5162e-05,0.27197,-0.00010641,-309.65,1.5593
8197,18.916,3.0909,0.1,0.00024548,2453.1,0.00023875,2283.7,-6.5162e-05,0.27197,-0.00010641,-309.65,1.5593
8198,18.916,3.2727,0.1,0.00025091,2507.4,0.00024386,2330.6,-6.6198e-05,1.0066,-0.00010932,-322.97,1.5592
8199,18.916,3.4545,0.1,0.00026237,2621.9,0.00025459,2427.5,-6.8676e-05,-1.4254,-0.00011535,-352.15,1.559
8200,18.916,3.6364,0.1,0.00028243,2822.3,0.00027292,2589.9,-7.1111e-05,5.0309,-0.00012785,-421.31,1.5588
8201,18.916,3.8182,0.1,0.00030499,3047.8,0.00029116,2717.8,-7.1715e-05,-8.7323,-0.00014676,-572.56,1.5585
8202,18.916,4,0.1,0.00033388,3336.5,0.00030015,2691.1,-3.7522e-05,153.94,-0.00020286,-1088.3,1.5581
8203,18.916,4.1818,0.1,0.00028784,2876.4,0.00023672,1916.2,-1.3928e-05,32.897,-0.00020393,-1394.7,1.5576
8204,18.916,4.3636,0.1,0.00021683,2166.8,0.00017238,1336.5,-6.421e-06,-7.0086,-0.00016031,-1163.2,1.5571
8205,18.916,4.5455,0.1,0.00016879,1686.7,0.00013465,1052.9,-4.676e-06,6.1147,-0.00012432,-892.81,1.5565
8206,18.916,4.7273,0.1,0.0001344,1343.1,0.00010834,853.88,-5.16e-06,1.0821,-9.7716e-05,-694.35,1.5559
8207,18.916,4.9091,0.1,0.00010762,1075.4,8.8144e-05,705.88,-5.5531e-06,1.8855,-7.6611e-05,-532.01,1.5552
8208,18.916,5.0909,0.1,8.5512e-05,854.53,7.1518e-05,584.24,-6.0527e-06,1.4011,-5.9037e-05,-396.7,1.5546
8209,18.916,5.2727,0.1,6.6553e-05,665.07,5.7139e-05,478.78,-6.3927e-06,1.4291,-4.3964e-05,-280.87,1.554
8210,18.916,5.4545,0.1,4.9897e-05,498.63,4.4268e-05,383.15,-6.516e-06,1.5773,-3.0822e-05,-181.05,1.5533
8211,18.916,5.6364,0.1,3.524e-05,352.16,3.2556e-05,293.92,-6.2955e-06,2.0037,-1.9499e-05,-97.204,1.5526
8212,18.916,5.8182,0.1,2.3779e-05,237.62,2.2862e-05,216.77,-5.3858e-06,4.5308,-1.1306e-05,-39.949,1.552
8213,19.267,3.8182,0.1,0.0003915,3912.3,0.00038375,3711.8,-0.00010957,5.2343,-0.00016057,-377.97,1.6063
8214,19.267,3.6364,0.1,0.00031149,3112.8,0.00030385,2920.6,-8.3408e-05,10.927,-0.000133,-361.72,1.6066
8215,19.267,3.4545,0.1,0.00027369,2735,0.00026694,2563.1,-7.4261e-05,-0.48009,-0.00011623,-315.83,1.6068
8216,19.267,3.2727,0.1,0.00025442,2542.4,0.00024824,2385.1,-6.9056e-05,1.117,-0.00010788,-290.59,1.6069
8217,19.267,3.0909,0.1,0.00024618,2460.1,0.00024025,2309.1,-6.7002e-05,0.51439,-0.00010415,-278.6,1.607
8218,19.267,2.9091,0.1,0.00024618,2460.1,0.00024025,2309.1,-6.7002e-05,0.51439,-0.00010415,-278.6,1.607
8219,19.267,2.7273,0.1,0.00025442,2542.4,0.00024824,2385.1,-6.9056e-05,1.117,-0.00010788,-290.59,1.6069
8220,19.267,2.5455,0.1,0.00027369,2735,0.00026694,2563.1,-7.4261e-05,-0.48009,-0.00011623,-315.83,1.6068
8221,19.267,2.3636,0.1,0.00031149,3112.8,0.00030385,2920.6,-8.3408e-05,10.927,-0.000133,-361.72,1.6066
8222,19.267,2.1818,0.1,0.0003915,3912.3,0.00038375,3711.8,-0.00010957,5.2342,-0.00016057,-377.97,1.6063
8223,19.1,3.8182,0.1,0.00040394,4036.6,0.0003896,3671,-0.00010682,-58.903,-0.0001808,-614.76,1.5834
8224,19.1,3.6364,0.1,0.00031574,3155.2,0.00030613,2918.7,-8.1066e-05,9.3934,-0.00014026,-435.34,1.5838
8225,19.1,3.4545,0.1,0.00027866,2784.7,0.00027067,2584.6,-7.3335e-05,-0.097994,-0.00012179,-364.18,1.584
8226,19.1,3.2727,0.1,0.00025948,2593,0.00025235,2413.9,-6.8779e-05,1.0835,-0.00011256,-327.85,1.5841
8227,19.1,3.0909,0.1,0.00025132,2511.5,0.00024456,2341.1,-6.6949e-05,0.59905,-0.00010855,-311.98,1.5842
8228,19.1,2.9091,0.1,0.00025132,2511.5,0.00024456,2341.1,-6.6949e-05,0.59905,-0.00010855,-311.98,1.5842
8229,19.1,2.7273,0.1,0.00025948,2593,0.00025235,2413.9,-6.8779e-05,1.0835,-0.00011256,-327.85,1.5841
8230,19.1,2.5455,0.1,0.00027866,2784.7,0.00027067,2584.6,-7.3335e-05,-0.097993,-0.00012179,-364.18,1.584
8231,19.1,2.3636,0.1,0.00031574,3155.2,0.00030613,2918.7,-8.1066e-05,9.3934,-0.00014026,-435.34,1.5838
8232,19.1,2.1818,0.1,0.00040394,4036.6,0.0003896,3671,-0.00010682,-58.903,-0.0001808,-614.76,1.5834
8233,19.267,5.8182,0.1,9.3498e-06,93.433,9.0268e-06,85.033,-2.5466e-06,-1.9251,-4.1203e-06,-13.749,1.6029
8234,19.267,5.6364,0.1,1.729e-05,172.78,1.648e-05,152.77,-4.2615e-06,-3.0697,-8.2484e-06,-33.025,1.6031
8235,19.267,5.4545,0.1,2.487e-05,248.53,2.3456e-05,215.06,-5.5846e-06,-3.1402,-1.2548e-05,-55.463,1.6033
8236,19.267,5.2727,0.1,3.2987e-05,329.65,3.084e-05,280.1,-6.9134e-06,-3.5665,-1.7292e-05,-81.55,1.6036
8237,19.267,5.0909,0.1,4.2219e-05,421.9,3.9175e-05,352.93,-8.3634e-06,-4.2543,-2.2778e-05,-112.56,1.6038
8238,19.267,4.9091,0.1,5.3301e-05,532.64,4.9129e-05,439.55,-1.0024e-05,-4.9058,-2.9449e-05,-150.86,1.6041
8239,19.267,4.7273,0.1,6.7379e-05,673.33,6.1738e-05,548.42,-1.2234e-05,-7.3745,-3.7912e-05,-200.31,1.6044
8240,19.267,4.5455,0.1,8.7222e-05,871.62,7.926e-05,698.94,-1.4668e-05,-6.7972,-5.0411e-05,-275.36,1.6047
8241,19.267,4.3636,0.1,0.0001123,1122.2,0.00010285,907.63,-2.1575e-05,-27.248,-6.2781e-05,-336.85,1.605
8242,19.267,4.1818,0.1,0.00019613,1959.9,0.0001672,1392.8,-1.7217e-05,7.2306,-0.00013125,-849.56,1.6054
8243,19.267,4,0.1,0.0005523,5519.2,0.00054495,5424.4,-0.00011767,445.74,-0.00024492,-510.35,1.6059
8244,19.1,4,0.1,0.00061276,6123.3,0.00056746,5180.9,-0.00010147,154.81,-0.00034022,-1639,1.583
8245,19.1,4.1818,0.1,0.00025679,2566.1,0.00017545,1170.4,2.0371e-05,5.1784,-0.0002161,-1771.6,1.5823
8246,19.1,4.3636,0.1,0.00014952,1494.2,0.00011042,781.19,2.0148e-06,-33.359,-0.00011909,-943.29,1.5816
8247,19.1,4.5455,0.1,0.0001169,1168.2,8.6962e-05,628.74,2.1379e-06,-8.5984,-9.2482e-05,-719.54,1.581
8248,19.1,4.7273,0.1,9.1322e-05,912.59,6.9775e-05,516.61,-3.527e-07,-10.306,-7.0472e-05,-537.16,1.5803
8249,19.1,4.9091,0.1,7.2622e-05,725.72,5.696e-05,433.46,-1.6886e-06,-7.1993,-5.4519e-05,-404.15,1.5796
8250,19.1,5.0909,0.1,5.7514e-05,574.75,4.6449e-05,363.42,-2.7957e-06,-6.585,-4.1676e-05,-298.71,1.5789
8251,19.1,5.2727,0.1,4.4715e-05,446.84,3.7288e-05,300.79,-3.513e-06,-5.7772,-3.0948e-05,-211.91,1.5782
8252,19.1,5.4545,0.1,3.3415e-05,333.91,2.8871e-05,240.79,-3.8804e-06,-5.2877,-2.1718e-05,-139.31,1.5775
8253,19.1,5.6364,0.1,2.3013e-05,229.97,2.0681e-05,178.95,-3.8239e-06,-5.1715,-1.3626e-05,-78.824,1.5768
8254,19.1,5.8182,0.1,1.2471e-05,124.63,1.1691e-05,105.62,-2.9089e-06,-4.0802,-6.3445e-06,-29.894,1.5762
8255,19.267,0.18182,0.1,9.3498e-06,93.433,9.0268e-06,85.033,-2.5466e-06,-1.9251,-4.1203e-06,-13.749,1.6029
8256,19.267,0.36364,0.1,1.729e-05,172.78,1.648e-05,152.77,-4.2615e-06,-3.0697,-8.2484e-06,-33.025,1.6031
8257,19.267,0.54545,0.1,2.487e-05,248.53,2.3456e-05,215.06,-5.5846e-06,-3.1402,-1.2548e-05,-55.463,1.6033
8258,19.267,0.72727,0.1,3.2987e-05,329.65,3.084e-05,280.1,-6.9134e-06,-3.5665,-1.7292e-05,-81.55,1.6036
8259,19.267,0.90909,0.1,4.2219e-05,421.9,3.9175e-05,352.93,-8.3634e-06,-4.2543,-2.2778e-05,-112.56,1.6038
8260,19.267,1.0909,0.1,5.3301e-05,532.64,4.9129e-05,439.55,-1.0024e-05,-4.9058,-2.9449e-05,-150.86,1.6041
8261,19.267,1.2727,0.1,6.7379e-05,673.33,6.1738e-05,548.42,-1.2234e-05,-7.3745,-3.7912e-05,-200.31,1.6044
8262,19.267,1.4545,0.1,8.7222e-05,871.62,7.926e-05,698.94,-1.4668e-05,-6.7972,-5.0411e-05,-275.36,1.6047
8263,19.267,1.6364,0.1,0.0001123,1122.2,0.00010285,907.63,-2.1575e-05,-27.248,-6.2781e-05,-336.85,1.605
8264,19.267,1.8182,0.1,0.00019613,1959.9,0.0001672,1392.8,-1.7217e-05,7.2306,-0.00013125,-849.56,1.6054
8265,19.267,2,0.1,0.0005523,5519.2,0.00054495,5424.4,-0.00011767,445.73,-0.00024492,-510.35,1.6059
8266,19.1,2,0.1,0.00061276,6123.3,0.00056746,5180.9,-0.00010147,154.81,-0.00034022,-1639,1.583
8267,19.1,1.8182,0.1,0.00025679,2566.1,0.00017545,1170.4,2.0371e-05,5.1785,-0.0002161,-1771.6,1.5823
8268,19.1,1.6364,0.1,0.00014952,1494.2,0.00011042,781.19,2.0148e-06,-33.359,-0.00011909,-943.29,1.5816
8269,19.1,1.4545,0.1,0.0001169,1168.2,8.6962e-05,628.74,2.1379e-06,-8.5984,-9.2482e-05,-719.54,1.581
8270,19.1,1.2727,0.1,9.1322e-05,912.59,6.9775e-05,516.61,-3.5271e-07,-10.306,-7.0472e-05,-537.16,1.5803
8271,19.1,1.0909,0.1,7.2622e-05,725.72,5.696e-05,433.46,-1.6886e-06,-7.1993,-5.4519e-05,-404.15,1.5796
8272,19.1,0.90909,0.1,5.7514e-05,574.75,4.6449e-05,363.42,-2.7957e-06,-6.585,-4.1676e-05,-298.71,1.5789
8273,19.1,0.72727,0.1,4.4715e-05,446.84,3.7288e-05,300.79,-3.513e-06,-5.7772,-3.0948e-05,-211.91,1.5782
8274,19.1,0.54545,0.1,3.3415e-05,333.91,2.8871e-05,240.79,-3.8804e-06,-5.2877,-2.1718e-05,-139.31,1.5775
8275,19.1,0.36364,0.1,2.3013e-05,229.97,2.0681e-05,178.95,-3.824e-06,-5.1715,-1.3626e-05,-78.824,1.5768
8276,19.1,0.18182,0.1,1.2471e-05,124.63,1.1691e-05,105.62,-2.9089e-06,-4.0802,-6.3445e-06,-29.894,1.5762
8277,19.267,6,0.1,1.1457e-06,11.449,8.7714e-07,10.302,4.472e-07,7.0718,-8.1537e-07,-2.4146,1.6027
8278,19.449,6,0.1,1.0676e-05,106.69,1.0596e-05,104.52,-3.2423e-06,0.54264,-3.9385e-06,-4.6886,1.6284
8279,19.631,6,0.1,2.0347e-05,203.33,2.0219e-05,199.69,-6.4716e-06,-0.85351,-7.1971e-06,-6.3042,1.6542
8280,19.813,6,0.1,2.8367e-05,283.47,2.8227e-05,279.48,-9.02e-06,-0.37519,-9.9646e-06,-7.4719,1.68
8281,19.995,6,0.1,3.4972e-05,349.48,3.4827e-05,345.32,-1.1166e-05,-0.24427,-1.219e-05,-7.9398,1.7058
8282,20.177,6,0.1,4.0163e-05,401.35,4.0021e-05,397.29,-1.2867e-05,-0.086319,-1.3908e-05,-7.9071,1.7316
8283,20.359,6,0.1,4.3996e-05,439.65,4.3861e-05,435.79,-1.4139e-05,0.0036439,-1.5155e-05,-7.6288,1.7574
8284,20.541,6,0.1,4.6568e-05,465.36,4.6442e-05,461.73,-1.5002e-05,0.058737,-1.5974e-05,-7.2433,1.7833
8285,20.723,6,0.1,4.8014e-05,479.8,4.7895e-05,476.39,-1.5497e-05,0.084868,-1.6419e-05,-6.8451,1.8092
8286,20.905,6,0.1,4.8478e-05,484.44,4.8365e-05,481.21,-1.5667e-05,0.093809,-1.6543e-05,-6.4879,1.8352
8287,21.087,6,0.1,4.8107e-05,480.74,4.8001e-05,477.66,-1.556e-05,0.093264,-1.6397e-05,-6.2004,1.8611
8288,21.269,6,0.1,4.7041e-05,470.09,4.6938e-05,467.1,-1.5218e-05,0.089017,-1.6028e-05,-5.995,1.8871
8289,21.451,6,0.1,4.5402e-05,453.71,4.5301e-05,450.78,-1.4684e-05,0.084816,-1.5477e-05,-5.8742,1.9132
8290,21.633,6,0.1,4.3298e-05,432.68,4.3197e-05,429.77,-1.3991e-05,0.083007,-1.4779e-05,-5.835,1.9392
8291,21.815,6,0.1,4.082e-05,407.91,4.0718e-05,404.99,-1.3171e-05,0.084947,-1.3964e-05,-5.871,1.9653
8292,21.997,6,0.1,3.8044e-05,380.17,3.794e-05,377.19,-1.225e-05,0.091406,-1.3057e-05,-5.9748,1.9914
8293,22.179,6,0.1,3.5033e-05,350.09,3.4926e-05,347.03,-1.1247e-05,0.10281,-1.2077e-05,-6.1378,2.0176
8294,22.362,6,0.1,3.184e-05,318.18,3.1729e-05,315.02,-1.0181e-05,0.11944,-1.1042e-05,-6.3513,2.0438
8295,22.544,6,0.1,2.8507e-05,284.88,2.8391e-05,281.59,-9.0664e-06,0.14159,-9.9645e-06,-6.6063,2.0699
8296,22.726,6,0.1,2.507e-05,250.53,2.4948e-05,247.09,-7.9151e-06,0.16983,-8.8551e-06,-6.8932,2.0961
8297,22.908,6,0.1,2.1558e-05,215.43,2.143e-05,211.84,-6.7373e-06,0.20469,-7.7229e-06,-7.2014,2.1224
8298,23.09,6,0.1,1.7997e-05,179.85,1.7861e-05,176.09,-5.5417e-06,0.24867,-6.5753e-06,-7.5174,2.1486
8299,23.272,6,0.1,1.4412e-05,144.02,1.4266e-05,140.08,-4.3373e-06,0.29942,-5.4191e-06,-7.8285,2.1748
8300,23.454,6,0.1,1.0827e-05,108.2,1.0671e-05,104.1,-3.1324e-06,0.38203,-4.2593e-06,-8.0853,2.2011
8301,23.636,6,0.1,7.295e-06,72.9,7.1201e-06,68.536,-1.9433e-06,0.43667,-3.1148e-06,-8.3654,2.2273
8302,23.818,6,0.1,3.8458e-06,38.431,3.6584e-06,34.297,-7.9854e-07,0.80903,-1.9262e-06,-7.6637,2.2536
8303,24,6,0.1,9.4767e-07,9.4702,7.7736e-07,5.7138,-1.3371e-07,-1.1316,-6.6106e-07,-5.0939,2.2799
8304,24,5.8182,0.1,3.1329e-06,31.307,1.6715e-06,6.6555,4.8016e-07,-2.2957,-2.9612e-06,-28.153,2.2799
8305,24,5.6364,0.1,4.9813e-06,49.778,2.3089e-06,6.8368,1.0905e-06,-2.3176,-4.8408e-06,-46.884,2.28
8306,24,5.4545,0.1,6.2408e-06,62.365,2.7391e-06,6.8795,1.4952e-06,-2.4668,-6.113e-06,-59.631,2.2801
8307,24,5.2727,0.1,7.1535e-06,71.486,3.0435e-06,6.8826,1.797e-06,-2.4833,-7.0325e-06,-68.824,2.2802
8308,24,5.0909,0.1,7.8103e-06,78.049,3.2603e-06,6.8548,2.0147e-06,-2.5039,-7.6941e-06,-75.452,2.2802
8309,24,4.9091,0.1,8.2704e-06,82.647,3.4106e-06,6.8212,2.1683e-06,-2.5133,-8.1574e-06,-80.097,2.2803
8310,24,4.7273,0.1,8.575e-06,85.69,3.5089e-06,6.7847,2.2706e-06,-2.5198,-8.4644e-06,-83.178,2.2804
8311,24,4.5455,0.1,8.7577e-06,87.516,3.5668e-06,6.749,2.3327e-06,-2.5235,-8.6488e-06,-85.034,2.2804
8312,24,4.3636,0.1,8.847e-06,88.408,3.5937e-06,6.7154,2.3638e-06,-2.5256,-8.7394e-06,-85.951,2.2805
8313,24,4.1818,0.1,8.8679e-06,88.618,3.5982e-06,6.6848,2.3723e-06,-2.5266,-8.7612e-06,-86.179,2.2805
8314,24,4,0.1,8.8426e-06,88.365,3.5877e-06,6.6579,2.3653e-06,-2.5269,-8.7364e-06,-85.941,2.2805
8315,24,3.8182,0.1,8.7905e-06,87.844,3.5686e-06,6.635,2.3492e-06,-2.5268,-8.6847e-06,-85.431,2.2806
8316,24,3.6364,0.1,8.7281e-06,87.221,3.5464e-06,6.6164,2.3295e-06,-2.5266,-8.6225e-06,-84.816,2.2806
8317,24,3.4545,0.1,8.6691e-06,86.631,3.5257e-06,6.6023,2.3107e-06,-2.5262,-8.5636e-06,-84.231,2.2806
8318,24,3.2727,0.1,8.6238e-06,86.179,3.5099e-06,6.5928,2.2963e-06,-2.526,-8.5183e-06,-83.783,2.2806
8319,24,3.0909,0.1,8.5994e-06,85.935,3.5014e-06,6.588,2.2884e-06,-2.5259,-8.494e-06,-83.54,2.2806
8320,24,2.9091,0.1,8.5994e-06,85.935,3.5014e-06,6.588,2.2884e-06,-2.5259,-8.494e-06,-83.54,2.2806
8321,24,2.7273,0.1,8.6238e-06,86.179,3.5099e-06,6.5928,2.2963e-06,-2.526,-8.5183e-06,-83.783,2.2806
8322,24,2.5455,0.1,8.6691e-06,86.631,3.5257e-06,6.6023,2.3107e-06,-2.5262,-8.5636e-06,-84.231,2.2806
8323,24,2.3636,0.1,8.7281e-06,87.221,3.5464e-06,6.6164,2.3295e-06,-2.5265,-8.6225e-06,-84.816,2.2806
8324,24,2.1818,0.1,8.7905e-06,87.844,3.5686e-06,6.635,2.3492e-06,-2.5268,-8.6847e-06,-85.431,2.2806
8325,24,2,0.1,8.8426e-06,88.365,3.5877e-06,6.6579,2.3653e-06,-2.5269,-8.7364e-06,-85.941,2.2805
8326,24,1.8182,0.1,8.8679e-06,88.618,3.5982e-06,6.6848,2.3723e-06,-2.5266,-8.7611e-06,-86.179,2.2805
8327,24,1.6364,0.1,8.8469e-06,88.408,3.5937e-06,6.7154,2.3638e-06,-2.5256,-8.7393e-06,-85.951,2.2805
8328,24,1.4545,0.1,8.7576e-06,87.516,3.5668e-06,6.749,2.3327e-06,-2.5235,-8.6488e-06,-85.034,2.2804
8329,24,1.2727,0.1,8.575e-06,85.69,3.5089e-06,6.7847,2.2706e-06,-2.5198,-8.4644e-06,-83.178,2.2804
8330,24,1.0909,0.1,8.2704e-06,82.647,3.4106e-06,6.8212,2.1682e-06,-2.5133,-8.1574e-06,-80.096,2.2803
8331,24,0.90909,0.1,7.8103e-06,78.049,3.2603e-06,6.8548,2.0147e-06,-2.5039,-7.6941e-06,-75.452,2.2802
8332,24,0.72727,0.1,7.1535e-06,71.485,3.0435e-06,6.8826,1.797e-06,-2.4833,-7.0324e-06,-68.824,2.2802
8333,24,0.54545,0.1,6.2408e-06,62.365,2.7391e-06,6.8795,1.4952e-06,-2.4668,-6.113e-06,-59.631,2.2801
8334,24,0.36364,0.1,4.9813e-06,49.778,2.3089e-06,6.8368,1.0905e-06,-2.3175,-4.8408e-06,-46.884,2.28
8335,24,0.18182,0.1,3.1329e-06,31.307,1.6715e-06,6.6554,4.8016e-07,-2.2957,-2.9612e-06,-28.153,2.2799
8336,1.5894e-15,0.18182,0.1,0.00013758,1374.9,0.00017545,2497.2,1.9445e-06,1193.6,-1.5728e-05,1060.8,0
8337,3.1789e-15,0.36364,0.1,0.00023641,2362.4,0.00031373,4636.3,3.77e-06,2307.4,-4.9808e-06,2241.6,0
8338,4.7683e-15,0.54545,0.1,0.00028835,2881.5,0.00038375,5685.7,2.8706e-06,2824,-2.3421e-06,2784.8,0
8339,6.3578e-15,0.72727,0.1,0.00032122,3210,0.00042741,6331,1.7857e-06,3133,-1.4121e-06,3109,0
8340,7.9472e-15,0.90909,0.1,0.00034318,3429.4,0.00045655,6761.6,1.2015e-06,3340.3,-9.4966e-07,3324.1,0
8341,9.5366e-15,1.0909,0.1,0.00035884,3585.9,0.00047735,7069,8.5872e-07,3488.9,-6.7921e-07,3477.3,0
8342,1.1126e-14,1.2727,0.1,0.00037043,3701.8,0.00049274,7296.5,6.3358e-07,3599.1,-5.0405e-07,3590.5,0
8343,1.2716e-14,1.4545,0.1,0.00037922,3789.6,0.00050441,7469.2,4.7929e-07,3682.8,-3.8235e-07,3676.3,0
8344,1.4305e-14,1.6364,0.1,0.00038599,3857.2,0.0005134,7602.1,3.6824e-07,3747.4,-2.9341e-07,3742.4,0
8345,1.5894e-14,1.8182,0.1,0.00039123,3909.6,0.00052037,7705.2,2.852e-07,3797.4,-2.2574e-07,3793.6,0
8346,1.7484e-14,2,0.1,0.0003953,3950.3,0.00052577,7785,2.2098e-07,3836.3,-1.7239e-07,3833.3,0
8347,1.9073e-14,2.1818,0.1,0.00039842,3981.4,0.00052991,7846.3,1.6975e-07,3866,-1.289e-07,3863.8,0
8348,2.0663e-14,2.3636,0.1,0.00040075,4004.7,0.00053301,7892.2,1.2764e-07,3888.3,-9.2242e-08,3886.6,0
8349,2.2252e-14,2.5455,0.1,0.00040241,4021.3,0.00053522,7924.9,9.2023e-08,3904.1,-6.0348e-08,3903,0
8350,2.3842e-14,2.7273,0.1,0.00040348,4032,0.00053664,7945.9,6.1348e-08,3914.2,-3.1989e-08,3913.5,0
8351,2.5431e-14,2.9091,0.1,0.000404,4037.3,0.00053734,7956.2,3.6862e-08,3919.1,-8.6162e-09,3918.8,0
8352,2.702e-14,3.0909,0.1,0.000404,4037.3,0.00053734,7956.2,3.6861e-08,3919.1,-8.6161e-09,3918.8,0
8353,2.861e-14,3.2727,0.1,0.00040348,4032,0.00053664,7945.9,6.1348e-08,3914.2,-3.1989e-08,3913.5,0
8354,3.0199e-14,3.4545,0.1,0.00040241,4021.3,0.00053522,7924.9,9.2023e-08,3904.1,-6.0348e-08,3903,0
8355,3.1789e-14,3.6364,0.1,0.00040075,4004.7,0.00053301,7892.2,1.2764e-07,3888.3,-9.2242e-08,3886.6,0
8356,3.3378e-14,3.8182,0.1,0.00039842,3981.4,0.00052991,7846.3,1.6975e-07,3866,-1.289e-07,3863.8,0
8357,3.4968e-14,4,0.1,0.0003953,3950.3,0.00052577,7785,2.2098e-07,3836.3,-1.7239e-07,3833.3,0
8358,3.6557e-14,4.1818,0.1,0.00039123,3909.6,0.00052037,7705.2,2.852e-07,3797.4,-2.2574e-07,3793.6,0
8359,3.8147e-14,4.3636,0.1,0.00038599,3857.2,0.0005134,7602.1,3.6824e-07,3747.4,-2.9341e-07,3742.4,0
8360,3.9736e-14,4.5455,0.1,0.00037922,3789.6,0.00050441,7469.2,4.7929e-07,3682.8,-3.8235e-07,3676.3,0
8361,4.1325e-14,4.7273,0.1,0.00037043,3701.8,0.00049274,7296.5,6.3358e-07,3599.1,-5.0405e-07,3590.5,0
8362,4.2915e-14,4.9091,0.1,0.00035884,3585.9,0.00047735,7069,8.5872e-07,3488.9,-6.7921e-07,3477.3,0
8363,4.4504e-14,5.0909,0.1,0.00034318,3429.4,0.00045655,6761.6,1.2015e-06,3340.3,-9.4966e-07,3324.1,0
8364,4.6094e-14,5.2727,0.1,0.00032122,3210,0.00042741,6331,1.7857e-06,3133,-1.4121e-06,3109,0
8365,4.7683e-14,5.4545,0.1,0.00028835,2881.5,0.00038375,5685.7,2.8706e-06,2824,-2.3421e-06,2784.8,0
8366,4.9273e-14,5.6364,0.1,0.00023641,2362.4,0.00031373,4636.3,3.77e-06,2307.4,-4.9808e-06,2241.6,0
8367,5.0862e-14,5.8182,0.1,0.00013758,1374.9,0.00017545,2497.2,1.9445e-06,1193.6,-1.5728e-05,1060.8,0
8368,24,0,0.1,9.4767e-07,9.4702,7.7736e-07,5.7138,-1.3371e-07,-1.1316,-6.6106e-07,-5.094,2.2799
8369,23.818,0,0.1,3.8458e-06,38.431,3.6584e-06,34.297,-7.9854e-07,0.80902,-1.9262e-06,-7.6637,2.2536
8370,23.636,0,0.1,7.295e-06,72.9,7.1201e-06,68.536,-1.9433e-06,0.43667,-3.1148e-06,-8.3654,2.2273
8371,23.454,0,0.1,1.0827e-05,108.2,1.0671e-05,104.1,-3.1324e-06,0.38203,-4.2593e-06,-8.0853,2.2011
8372,23.272,0,0.1,1.4412e-05,144.02,1.4266e-05,140.08,-4.3373e-06,0.29943,-5.4191e-06,-7.8285,2.1748
8373,23.09,0,0.1,1.7997e-05,179.85,1.7861e-05,176.09,-5.5417e-06,0.24867,-6.5753e-06,-7.5173,2.1486
8374,22.908,0,0.1,2.1558e-05,215.43,2.143e-05,211.84,-6.7373e-06,0.20468,-7.723e-06,-7.2014,2.1224
8375,22.726,0,0.1,2.507e-05,250.53,2.4948e-05,247.09,-7.9151e-06,0.16983,-8.8551e-06,-6.8931,2.0961
8376,22.544,0,0.1,2.8507e-05,284.88,2.8391e-05,281.59,-9.0664e-06,0.1416,-9.9645e-06,-6.6063,2.0699
8377,22.362,0,0.1,3.184e-05,318.18,3.1729e-05,315.02,-1.0181e-05,0.11944,-1.1042e-05,-6.3513,2.0438
8378,22.179,0,0.1,3.5033e-05,350.09,3.4926e-05,347.03,-1.1247e-05,0.1028,-1.2077e-05,-6.1378,2.0176
8379,21.997,0,0.1,3.8044e-05,380.17,3.794e-05,377.2,-1.225e-05,0.091406,-1.3057e-05,-5.9748,1.9914
8380,21.815,0,0.1,4.082e-05,407.91,4.0718e-05,404.99,-1.3171e-05,0.084952,-1.3964e-05,-5.871,1.9653
8381,21.633,0,0.1,4.3298e-05,432.68,4.3197e-05,429.77,-1.3991e-05,0.083007,-1.4779e-05,-5.8349,1.9392
8382,21.451,0,0.1,4.5402e-05,453.71,4.5301e-05,450.78,-1.4684e-05,0.084817,-1.5477e-05,-5.8742,1.9132
8383,21.269,0,0.1,4.7041e-05,470.09,4.6938e-05,467.1,-1.5218e-05,0.08902,-1.6028e-05,-5.995,1.8871
8384,21.087,0,0.1,4.8108e-05,480.74,4.8001e-05,477.66,-1.556e-05,0.093266,-1.6397e-05,-6.2004,1.8611
8385,20.905,0,0.1,4.8478e-05,484.44,4.8365e-05,481.21,-1.5667e-05,0.093806,-1.6543e-05,-6.4879,1.8352
8386,20.723,0,0.1,4.8014e-05,479.8,4.7895e-05,476.39,-1.5497e-05,0.084874,-1.6419e-05,-6.8451,1.8092
8387,20.541,0,0.1,4.6568e-05,465.36,4.6442e-05,461.73,-1.5002e-05,0.058737,-1.5974e-05,-7.2433,1.7833
8388,20.359,0,0.1,4.3996e-05,439.65,4.3861e-05,435.79,-1.4139e-05,0.0036464,-1.5155e-05,-7.6288,1.7574
8389,20.177,0,0.1,4.0163e-05,401.35,4.0021e-05,397.29,-1.2867e-05,-0.086317,-1.3908e-05,-7.9071,1.7316
8390,19.995,0,0.1,3.4972e-05,349.48,3.4827e-05,345.32,-1.1166e-05,-0.24428,-1.219e-05,-7.9398,1.7058
8391,19.813,0,0.1,2.8367e-05,283.47,2.8227e-05,279.48,-9.02e-06,-0.37519,-9.9646e-06,-7.4719,1.68
8392,19.631,0,0.1,2.0347e-05,203.33,2.0219e-05,199.69,-6.4716e-06,-0.8535,-7.1971e-06,-6.3042,1.6542
8393,19.449,0,0.1,1.0676e-05,106.69,1.0596e-05,104.52,-3.2423e-06,0.54264,-3.9385e-06,-4.6886,1.6284
8394,19.267,0,0.1,1.1457e-06,11.449,8.7714e-07,10.302,4.472e-07,7.0718,-8.1537e-07,-2.4146,1.6027
8395,19.1,0,0.1,1.6167e-06,16.156,1.2645e-06,14.635,5.8337e-07,9.5172,-1.1438e-06,-3.4602,1.5755
8396,18.916,-9.1315e-30,0.1,1.6142e-05,161.31,1.6095e-05,160.05,-5.0303e-06,1.3163,-5.7017e-06,-3.7284,1.5513
8397,18.733,-9.0429e-30,0.1,3.278e-05,327.58,3.2714e-05,325.65,-1.0681e-05,-0.40434,-1.1085e-05,-3.4409,1.5272
8398,18.549,-8.9542e-30,0.1,4.8389e-05,483.56,4.8336e-05,482.01,-1.5775e-05,0.30352,-1.6266e-05,-3.3845,1.503
8399,18.365,-8.8656e-30,0.1,6.3117e-05,630.73,6.3069e-05,629.35,-2.0625e-05,0.50564,-2.1125e-05,-3.2522,1.4789
8400,18.182,-8.7769e-30,0.1,7.6816e-05,767.63,7.6775e-05,766.45,-2.5133e-05,0.74988,-2.5646e-05,-3.1062,1.4548
8401,17.998,-8.6883e-30,0.1,8.9416e-05,893.54,8.9378e-05,892.44,-2.9281e-05,0.88013,-2.9808e-05,-3.0752,1.4308
8402,17.814,-8.5996e-30,0.1,0.00010091,1008.4,0.00010087,1007.3,-3.3064e-05,0.94205,-3.361e-05,-3.1638,1.4068
8403,17.631,-8.511e-30,0.1,0.00011135,1112.7,0.00011131,1111.5,-3.6499e-05,0.94415,-3.7072e-05,-3.36,1.3829
8404,17.447,-8.4223e-30,0.1,0.00012083,1207.5,0.00012078,1206.1,-3.9618e-05,0.90692,-4.0222e-05,-3.6352,1.3591
8405,17.263,-8.3336e-30,0.1,0.00012947,1293.8,0.00012941,1292.2,-4.2457e-05,0.84592,-4.3097e-05,-3.9601,1.3354
8406,17.08,-8.245e-30,0.1,0.00013738,1372.9,0.00013732,1371.1,-4.5057e-05,0.77336,-4.5734e-05,-4.3083,1.3117
8407,16.896,-8.1563e-30,0.1,0.00014468,1445.8,0.00014461,1443.8,-4.7455e-05,0.69751,-4.8168e-05,-4.6586,1.2882
8408,16.712,-8.0677e-30,0.1,0.00015147,1513.7,0.0001514,1511.5,-4.9686e-05,0.62352,-5.0434e-05,-4.9955,1.2647
8409,16.529,-7.979e-30,0.1,0.00015785,1577.4,0.00015777,1575,-5.178e-05,0.55423,-5.2561e-05,-5.3087,1.2413
8410,16.345,-7.8904e-30,0.1,0.00016388,1637.7,0.0001638,1635.1,-5.3763e-05,0.4911,-5.4573e-05,-5.5919,1.2181
8411,16.162,-7.8017e-30,0.1,0.00016965,1695.3,0.00016955,1692.6,-5.5657e-05,0.43459,-5.6492e-05,-5.8422,1.1949
8412,15.978,-7.7131e-30,0.1,0.00017519,1750.7,0.00017509,1747.8,-5.748e-05,0.38457,-5.8338e-05,-6.0591,1.1719
8413,15.794,-7.6244e-30,0.1,0.00018056,1804.4,0.00018046,1801.4,-5.9247e-05,0.34067,-6.0123e-05,-6.2435,1.149
8414,15.611,-7.5357e-30,0.1,0.0001858,1856.7,0.00018569,1853.6,-6.097e-05,0.30225,-6.1862e-05,-6.3972,1.1262
8415,15.427,-7.4471e-30,0.1,0.00019092,1907.9,0.00019082,1904.8,-6.2659e-05,0.26877,-6.3563e-05,-6.5226,1.1035
8416,15.243,-7.3584e-30,0.1,0.00019597,1958.4,0.00019586,1955.2,-6.4322e-05,0.23962,-6.5235e-05,-6.6223,1.081
8417,15.06,-7.2698e-30,0.1,0.00020096,2008.2,0.00020085,2004.9,-6.5966e-05,0.21415,-6.6886e-05,-6.6988,1.0586
8418,14.876,-7.1811e-30,0.1,0.0002059,2057.5,0.00020578,2054.2,-6.7595e-05,0.19188,-6.8519e-05,-6.7547,1.0363
8419,14.692,-7.0925e-30,0.1,0.0002108,2106.6,0.00021069,2103.3,-6.9214e-05,0.17233,-7.0141e-05,-6.7922,1.0142
8420,14.509,-7.0038e-30,0.1,0.00021569,2155.4,0.00021557,2152,-7.0826e-05,0.1551,-7.1753e-05,-6.8132,0.99215
8421,14.325,-6.9152e-30,0.1,0.00022056,2204,0.00022044,2200.7,-7.2434e-05,0.13984,-7.336e-05,-6.8197,0.9703
8422,14.141,-6.8265e-30,0.1,0.00022542,2252.6,0.0002253,2249.3,-7.4039e-05,0.12616,-7.4963e-05,-6.8134,0.9486
8423,13.958,-6.7378e-30,0.1,0.00023028,2301.2,0.00023016,2297.8,-7.5645e-05,0.11388,-7.6564e-05,-6.7954,0.92705
8424,13.774,-6.6492e-30,0.1,0.00023514,2349.7,0.00023502,2346.4,-7.7251e-05,0.10275,-7.8165e-05,-6.767,0.90565
8425,13.59,-6.5605e-30,0.1,0.00024,2398.4,0.00023989,2395,-7.886e-05,0.092546,-7.9768e-05,-6.7292,0.88441
8426,13.407,-6.4719e-30,0.1,0.00024488,2447.1,0.00024476,2443.8,-8.0471e-05,0.083127,-8.1372e-05,-6.6828,0.86333
8427,13.223,-6.3832e-30,0.1,0.00024976,2495.9,0.00024965,2492.6,-8.2087e-05,0.074281,-8.2979e-05,-6.6287,0.84242
8428,13.039,-6.2946e-30,0.1,0.00025466,2544.8,0.00025455,2541.6,-8.3707e-05,0.065959,-8.459e-05,-6.5671,0.82168
8429,12.856,-6.2059e-30,0.1,0.00025957,2593.9,0.00025946,2590.7,-8.5332e-05,0.058048,-8.6204e-05,-6.4987,0.8011
8430,12.672,-6.1172e-30,0.1,0.0002645,2643.2,0.00026439,2640,-8.6962e-05,0.050367,-8.7823e-05,-6.4238,0.7807
8431,12.488,-6.0286e-30,0.1,0.00026944,2692.5,0.00026933,2689.4,-8.8598e-05,0.042898,-8.9447e-05,-6.3427,0.76048
8432,12.305,-5.9399e-30,0.1,0.0002744,2742.1,0.00027429,2739,-9.0239e-05,0.035517,-9.1077e-05,-6.2556,0.74044
8433,12.121,-5.8513e-30,0.1,0.00027938,2791.9,0.00027927,2788.8,-9.1887e-05,0.028207,-9.2711e-05,-6.1625,0.72058
8434,11.938,-5.7626e-30,0.1,0.00028438,2841.8,0.00028427,2838.8,-9.3542e-05,0.020895,-9.4352e-05,-6.0635,0.70091
8435,11.754,-5.674e-30,0.1,0.00028939,2891.9,0.00028929,2889,-9.5203e-05,0.013411,-9.5998e-05,-5.9588,0.68143
8436,11.57,-5.5853e-30,0.1,0.00029443,2942.3,0.00029433,2939.3,-9.6871e-05,0.00581,-9.765e-05,-5.8482,0.66215
8437,11.387,-5.4967e-30,0.1,0.00029949,2992.8,0.00029939,2989.9,-9.8546e-05,-0.0019766,-9.9309e-05,-5.7314,0.64307
8438,11.203,-5.408e-30,0.1,0.00030456,3043.5,0.00030447,3040.7,-0.00010023,-0.010065,-0.00010097,-5.6086,0.62418
8439,11.019,-5.3193e-30,0.1,0.00030966,3094.5,0.00030957,3091.7,-0.00010192,-0.018461,-0.00010265,-5.4794,0.6055
8440,10.836,-5.2307e-30,0.1,0.00031478,3145.7,0.00031469,3143,-0.00010362,-0.027313,-0.00010432,-5.3437,0.58703
8441,10.652,-5.142e-30,0.1,0.00031993,3197.1,0.00031984,3194.4,-0.00010532,-0.036577,-0.00010601,-5.2012,0.56877
8442,10.468,-5.0534e-30,0.1,0.00032509,3248.7,0.00032501,3246.1,-0.00010703,-0.046318,-0.0001077,-5.0515,0.55073
8443,10.285,-4.9647e-30,0.1,0.00033028,3300.6,0.0003302,3298.1,-0.00010876,-0.056709,-0.0001094,-4.8946,0.53291
8444,10.101,-4.8761e-30,0.1,0.0003355,3352.7,0.00033542,3350.3,-0.00011049,-0.067725,-0.00011111,-4.7298,0.5153
8445,9.9173,-4.7874e-30,0.1,0.00034074,3405,0.00034066,3402.7,-0.00011222,-0.079474,-0.00011282,-4.557,0.49793
8446,9.7337,-4.6988e-30,0.1,0.000346,3457.6,0.00034592,3455.4,-0.00011397,-0.092012,-0.00011454,-4.3757,0.48078
8447,9.55,-4.6101e-30,0.1,0.00035129,3510.5,0.00035121,3508.3,-0.00011573,-0.10542,-0.00011627,-4.1855,0.46387
8448,9.3663,-4.5214e-30,0.1,0.0003566,3563.6,0.00035653,3561.5,-0.00011749,-0.11981,-0.00011801,-3.9862,0.44719
8449,9.1827,-4.4328e-30,0.1,0.00036194,3616.9,0.00036188,3615,-0.00011927,-0.13526,-0.00011975,-3.7772,0.43075
8450,8.999,-4.3441e-30,0.1,0.00036731,3670.6,0.00036725,3668.7,-0.00012105,-0.15186,-0.0001215,-3.5582,0.41456
8451,8.8154,-4.2555e-30,0.1,0.00037271,3724.5,0.00037265,3722.8,-0.00012284,-0.16973,-0.00012326,-3.3288,0.39861
8452,8.6317,-4.1668e-30,0.1,0.00037814,3778.8,0.00037808,3777.1,-0.00012465,-0.18898,-0.00012503,-3.0887,0.38292
8453,8.4481,-4.0782e-30,0.1,0.0003836,3833.3,0.00038354,3831.8,-0.00012646,-0.20972,-0.00012681,-2.8377,0.36748
8454,8.2644,-3.9895e-30,0.1,0.00038908,3888.2,0.00038904,3886.8,-0.00012829,-0.2321,-0.0001286,-2.5754,0.3523
8455,8.0808,-3.9009e-30,0.1,0.00039461,3943.3,0.00039456,3942.1,-0.00013013,-0.25624,-0.0001304,-2.3017,0.33738
8456,7.8971,-3.8122e-30,0.1,0.00040016,3998.8,0.00040012,3997.7,-0.00013198,-0.2823,-0.00013221,-2.0166,0.32272
8457,7.7135,-3.7235e-30,0.1,0.00040575,4054.7,0.00040571,4053.7,-0.00013384,-0.31045,-0.00013403,-1.7201,0.30834
8458,7.5298,-3.6349e-30,0.1,0.00041137,4110.9,0.00041134,4110,-0.00013571,-0.34084,-0.00013585,-1.4125,0.29423
8459,7.3462,-3.5462e-30,0.1,0.00041703,4167.5,0.00041701,4166.7,-0.0001376,-0.37366,-0.00013769,-1.0942,0.2804
8460,7.1625,-3.4576e-30,0.1,0.00042273,4224.4,0.00042271,4223.8,-0.0001395,-0.40904,-0.00013955,-0.76595,0.26685
8461,6.9788,-3.3689e-30,0.1,0.00042848,4281.8,0.00042846,4281.4,-0.00014141,-0.42398,-0.00014141,-0.45185,0.25358
8462,6.7952,-3.2803e-30,0.1,0.00043426,4339.6,0.00043425,4339.3,-0.00014329,-0.08247,-0.00014334,-0.48945,0.2406
8463,6.6115,-3.1916e-30,0.1,0.00044009,4397.8,0.00044008,4397.7,-0.00014518,0.26897,-0.00014529,-0.53419,0.22792
8464,6.4279,-3.103e-30,0.1,0.00044596,4456.5,0.00044596,4456.5,-0.00014709,0.62447,-0.00014725,-0.58264,0.21553
8465,6.2442,-3.0143e-30,0.1,0.00045188,4515.7,0.00045189,4515.9,-0.00014901,0.98119,-0.00014922,-0.63505,0.20344
8466,6.0606,-2.9256e-30,0.1,0.00045785,4575.4,0.00045786,4575.7,-0.00015095,1.3357,-0.00015122,-0.69171,0.19166
8467,5.8769,-2.837e-30,0.1,0.00046388,4635.6,0.00046389,4636,-0.0001529,1.6837,-0.00015323,-0.75297,0.18019
8468,5.6933,-2.7483e-30,0.1,0.00046996,4696.3,0.00046998,4696.9,-0.00015488,2.0201,-0.00015525,-0.8192,0.16903
8469,5.5096,-2.6597e-30,0.1,0.00047609,4757.6,0.00047612,4758.3,-0.00015687,2.3384,-0.0001573,-0.89082,0.15819
8470,5.326,-2.571e-30,0.1,0.00048228,4819.5,0.00048231,4820.3,-0.00015889,2.6313,-0.00015936,-0.96828,0.14767
8471,5.1423,-2.4824e-30,0.1,0.00048854,4882,0.00048857,4882.9,-0.00016092,2.8895,-0.00016145,-1.0521,0.13747
8472,4.9587,-2.3937e-30,0.1,0.00049485,4945.1,0.00049488,4946.1,-0.00016299,3.1024,-0.00016355,-1.1428,0.12761
8473,4.775,-2.3051e-30,0.1,0.00050123,5008.8,0.00050126,5009.8,-0.00016507,3.2572,-0.00016567,-1.241,0.11808
8474,4.5913,-2.2164e-30,0.1,0.00050767,5073.2,0.0005077,5074.2,-0.00016718,3.3389,-0.00016781,-1.3476,0.10888
8475,4.4077,-2.1277e-30,0.1,0.00051417,5138.1,0.0005142,5139,-0.00016932,3.33,-0.00016996,-1.4635,0.10003
8476,4.224,-2.0391e-30,0.1,0.00052072,5203.6,0.00052075,5204.5,-0.00017149,3.2101,-0.00017213,-1.59,0.091531
8477,4.0404,-1.9504e-30,0.1,0.00052734,5269.7,0.00052736,5270.3,-0.00017369,2.9554,-0.00017431,-1.7288,0.08338
8478,3.8567,-1.8618e-30,0.1,0.000534,5336.3,0.00053401,5336.6,-0.00017591,2.5391,-0.0001765,-1.8827,0.075585
8479,3.6731,-1.7731e-30,0.1,0.00054069,5403.2,0.00054069,5403.1,-0.00017816,1.9317,-0.0001787,-2.0569,0.068151
8480,3.4894,-1.6845e-30,0.1,0.00054741,5470.3,0.00054739,5469.7,-0.00018044,1.1038,-0.00018089,-2.2627,0.061082
8481,3.3058,-1.5958e-30,0.1,0.00055413,5537.5,0.00055409,5536.2,-0.00018273,0.040622,-0.00018308,-2.533,0.054383
8482,3.1221,-1.5071e-30,0.1,0.00056082,5604.3,0.00056075,5602.2,-0.00018502,-1.1778,-0.00018526,-3.0039,0.048057
8483,2.9385,-1.4185e-30,0.1,0.00056744,5670.5,0.00056734,5667.4,-0.00018723,-2.1239,-0.0001875,-4.1696,0.04211
8484,2.7548,-1.3298e-30,0.1,0.00057395,5735.5,0.0005738,5731.1,-0.00018931,-2.6054,-0.0001898,-6.3017,0.036545
8485,2.5712,-1.2412e-30,0.1,0.00058027,5798.7,0.00058006,5792.6,-0.00019128,-2.9394,-0.00019211,-9.1791,0.031367
8486,2.3875,-1.1525e-30,0.1,0.00058631,5859.1,0.00058604,5851,-0.00019312,-3.2473,-0.00019439,-12.798,0.026579
8487,2.2038,-1.0639e-30,0.1,0.00059195,5915.4,0.00059159,5904.9,-0.00019478,-3.5627,-0.00019661,-17.269,0.022186
8488,2.0202,-9.7521e-31,0.1,0.00059701,5966,0.00059655,5952.6,-0.00019621,-3.9011,-0.00019872,-22.765,0.018191
8489,1.8365,-8.8656e-31,0.1,0.00060126,6008.5,0.00060068,5991.5,-0.00019731,-4.2722,-0.00020067,-29.514,0.014596
8490,1.6529,-7.979e-31,0.1,0.00060439,6039.7,0.00060366,6018.4,-0.00019796,-4.6907,-0.00020238,-37.832,0.011404
8491,1.4692,-7.0925e-31,0.1,0.00060593,6055.1,0.00060501,6028.3,-0.000198,-5.1568,-0.00020372,-48.152,0.0086163
8492,1.2856,-6.2059e-31,0.1,0.0006052,6047.9,0.00060405,6014.2,-0.00019716,-5.7336,-0.00020454,-61.147,0.0062323
8493,1.1019,-5.3193e-31,0.1,0.00060119,6007.7,0.00059973,5965.4,-0.00019506,-6.2915,-0.00020456,-77.718,0.0042506
8494,0.91827,-4.4328e-31,0.1,0.00059224,5918.4,0.00059037,5864.2,-0.00019109,-7.3595,-0.0002034,-99.867,0.0026666
8495,0.73462,-3.5462e-31,0.1,0.00057555,5751.5,0.00057311,5681.8,-0.00018409,-7.5223,-0.00020038,-129.88,0.0014722
8496,0.55096,-2.6597e-31,0.1,0.00054556,5451.9,0.0005422,5356.6,-0.00017209,-10.259,-0.00019421,-176.43,0.00065358
8497,0.36731,-1.7731e-31,0.1,0.00049245,4921.1,0.00048736,4780,-0.00015102,-16.505,-0.000183,-256.75,0.00018923
8498,0.18365,-8.8656e-32,0.1,0.00037891,3786.5,0.00036983,3566.7,-9.7975e-05,51.829,-0.0001638,-442.76,4.9283e-05
8499,0,0,0.1,0.00022459,2244.4,0.000148,760.4,-3.7059e-07,-354.4,-0.00019585,-1823.1,0
8500,3.937e-14,6,0.1,0.00022459,2244.4,0.000148,760.4,-3.7059e-07,-354.4,-0.00019585,-1823.1,0
8501,0.18365,6,0.1,0.00037891,3786.5,0.00036983,3566.7,-9.7975e-05,51.829,-0.0001638,-442.76,4.9283e-05
8502,0.36731,6,0.1,0.00049245,4921.1,0.00048736,4780,-0.00015102,-16.505,-0.000183,-256.75,0.00018923
8503,0.55096,6,0.1,0.00054556,5451.9,0.0005422,5356.6,-0.00017209,-10.259,-0.00019421,-176.43,0.00065358
8504,0.73462,6,0.1,0.00057555,5751.5,0.00057311,5681.8,-0.00018409,-7.5223,-0.00020038,-129.88,0.0014722
8505,0.91827,6,0.1,0.00059224,5918.4,0.00059037,5864.2,-0.00019109,-7.3595,-0.0002034,-99.867,0.0026666
8506,1.1019,6,0.1,0.00060119,6007.7,0.00059973,5965.4,-0.00019506,-6.2915,-0.00020456,-77.718,0.0042506
8507,1.2856,6,0.1,0.0006052,6047.9,0.00060405,6014.2,-0.00019716,-5.7336,-0.00020454,-61.147,0.0062323
8508,1.4692,6,0.1,0.00060593,6055.1,0.00060501,6028.3,-0.000198,-5.1568,-0.00020372,-48.152,0.0086163
8509,1.6529,6,0.1,0.00060439,6039.7,0.00060366,6018.4,-0.00019796,-4.6907,-0.00020238,-37.832,0.011404
8510,1.8365,6,0.1,0.00060126,6008.5,0.00060068,5991.5,-0.00019731,-4.2722,-0.00020067,-29.514,0.014596
8511,2.0202,6,0.1,0.00059701,5966,0.00059655,5952.6,-0.00019621,-3.9011,-0.00019872,-22.765,0.018191
8512,2.2038,6,0.1,0.00059195,5915.4,0.00059159,5904.9,-0.00019478,-3.5627,-0.00019661,-17.269,0.022186
8513,2.3875,6,0.1,0.00058631,5859.1,0.00058604,5851,-0.00019312,-3.2473,-0.00019439,-12.798,0.026579
8514,2.5712,6,0.1,0.00058027,5798.7,0.00058006,5792.6,-0.00019128,-2.9394,-0.00019211,-9.1791,0.031367
8515,2.7548,6,0.1,0.00057395,5735.5,0.0005738,5731.1,-0.00018931,-2.6054,-0.0001898,-6.3017,0.036545
8516,2.9385,6,0.1,0.00056744,5670.5,0.00056734,5667.4,-0.00018723,-2.1239,-0.0001875,-4.1695,0.04211
8517,3.1221,6,0.1,0.00056082,5604.3,0.00056075,5602.2,-0.00018502,-1.1778,-0.00018526,-3.0039,0.048057
8518,3.3058,6,0.1,0.00055413,5537.5,0.00055409,5536.2,-0.00018273,0.040631,-0.00018308,-2.533,0.054383
8519,3.4894,6,0.1,0.00054741,5470.3,0.00054739,5469.7,-0.00018044,1.1038,-0.00018089,-2.2627,0.061082
8520,3.6731,6,0.1,0.00054069,5403.2,0.00054069,5403.1,-0.00017816,1.9317,-0.0001787,-2.0569,0.068151
8521,3.8567,6,0.1,0.000534,5336.3,0.00053401,5336.6,-0.00017591,2.5391,-0.0001765,-1.8827,0.075585
8522,4.0404,6,0.1,0.00052734,5269.7,0.00052736,5270.3,-0.00017369,2.9554,-0.00017431,-1.7288,0.08338
8523,4.224,6,0.1,0.00052072,5203.7,0.00052075,5204.5,-0.00017149,3.2101,-0.00017213,-1.59,0.091531
8524,4.4077,6,0.1,0.00051417,5138.1,0.0005142,5139,-0.00016932,3.33,-0.00016996,-1.4635,0.10003
8525,4.5913,6,0.1,0.00050767,5073.2,0.0005077,5074.2,-0.00016718,3.3389,-0.00016781,-1.3476,0.10888
8526,4.775,6,0.1,0.00050123,5008.8,0.00050126,5009.8,-0.00016507,3.2572,-0.00016567,-1.241,0.11808
8527,4.9587,6,0.1,0.00049485,4945.1,0.00049488,4946.1,-0.00016299,3.1024,-0.00016355,-1.1428,0.12761
8528,5.1423,6,0.1,0.00048854,4882,0.00048857,4882.9,-0.00016092,2.8895,-0.00016145,-1.0521,0.13747
8529,5.326,6,0.1,0.00048228,4819.5,0.00048231,4820.3,-0.00015889,2.6313,-0.00015936,-0.96828,0.14767
8530,5.5096,6,0.1,0.00047609,4757.6,0.00047612,4758.3,-0.00015687,2.3384,-0.0001573,-0.89082,0.15819
8531,5.6933,6,0.1,0.00046996,4696.3,0.00046998,4696.9,-0.00015488,2.02,-0.00015525,-0.8192,0.16903
8532,5.8769,6,0.1,0.00046388,4635.6,0.00046389,4636,-0.0001529,1.6837,-0.00015323,-0.75297,0.18019
8533,6.0606,6,0.1,0.00045785,4575.4,0.00045786,4575.7,-0.00015095,1.3357,-0.00015122,-0.69171,0.19166
8534,6.2442,6,0.1,0.00045188,4515.7,0.00045189,4515.9,-0.00014901,0.98119,-0.00014922,-0.63504,0.20344
8535,6.4279,6,0.1,0.00044596,4456.5,0.00044596,4456.5,-0.00014709,0.62447,-0.00014725,-0.58264,0.21553
8536,6.6115,6,0.1,0.00044009,4397.8,0.00044008,4397.7,-0.00014518,0.26897,-0.00014529,-0.53419,0.22792
8537,6.7952,6,0.1,0.00043426,4339.6,0.00043425,4339.3,-0.00014329,-0.082475,-0.00014334,-0.48945,0.2406
8538,6.9788,6,0.1,0.00042848,4281.8,0.00042846,4281.4,-0.00014141,-0.42398,-0.00014141,-0.45185,0.25358
8539,7.1625,6,0.1,0.00042273,4224.4,0.00042271,4223.8,-0.0001395,-0.40904,-0.00013955,-0.76595,0.26685
8540,7.3462,6,0.1,0.00041703,4167.5,0.00041701,4166.7,-0.0001376,-0.37366,-0.00013769,-1.0942,0.2804
8541,7.5298,6,0.1,0.00041137,4110.9,0.00041134,4110,-0.00013571,-0.34084,-0.00013585,-1.4125,0.29423
8542,7.7135,6,0.1,0.00040575,4054.7,0.00040571,4053.7,-0.00013384,-0.31045,-0.00013403,-1.7201,0.30834
8543,7.8971,6,0.1,0.00040016,3998.8,0.00040012,3997.7,-0.00013198,-0.2823,-0.00013221,-2.0166,0.32272
8544,8.0808,6,0.1,0.00039461,3943.3,0.00039456,3942.1,-0.00013013,-0.25624,-0.0001304,-2.3017,0.33738
8545,8.2644,6,0.1,0.00038908,3888.2,0.00038904,3886.8,-0.00012829,-0.23209,-0.0001286,-2.5754,0.3523
8546,8.4481,6,0.1,0.0003836,3833.3,0.00038354,3831.8,-0.00012646,-0.20972,-0.00012681,-2.8377,0.36748
8547,8.6317,6,0.1,0.00037814,3778.8,0.00037808,3777.1,-0.00012465,-0.18897,-0.00012503,-3.0887,0.38292
8548,8.8154,6,0.1,0.00037271,3724.5,0.00037265,3722.8,-0.00012284,-0.16973,-0.00012326,-3.3288,0.39861
8549,8.999,6,0.1,0.00036731,3670.6,0.00036725,3668.7,-0.00012105,-0.15186,-0.0001215,-3.5582,0.41456
8550,9.1827,6,0.1,0.00036194,3616.9,0.00036188,3615,-0.00011927,-0.13526,-0.00011975,-3.7772,0.43075
8551,9.3663,6,0.1,0.0003566,3563.6,0.00035653,3561.5,-0.00011749,-0.11981,-0.00011801,-3.9862,0.44719
8552,9.55,6,0.1,0.00035129,3510.5,0.00035121,3508.3,-0.00011573,-0.10542,-0.00011627,-4.1856,0.46387
8553,9.7337,6,0.1,0.000346,3457.6,0.00034592,3455.4,-0.00011397,-0.092011,-0.00011454,-4.3757,0.48078
8554,9.9173,6,0.1,0.00034074,3405,0.00034066,3402.7,-0.00011222,-0.079473,-0.00011282,-4.557,0.49793
8555,10.101,6,0.1,0.0003355,3352.7,0.00033542,3350.3,-0.00011049,-0.067725,-0.00011111,-4.7298,0.5153
8556,10.285,6,0.1,0.00033028,3300.6,0.0003302,3298.1,-0.00010876,-0.056708,-0.0001094,-4.8946,0.53291
8557,10.468,6,0.1,0.00032509,3248.7,0.00032501,3246.1,-0.00010703,-0.046318,-0.0001077,-5.0515,0.55073
8558,10.652,6,0.1,0.00031993,3197.1,0.00031984,3194.4,-0.00010532,-0.036577,-0.00010601,-5.2012,0.56877
8559,10.836,6,0.1,0.00031478,3145.7,0.00031469,3143,-0.00010362,-0.027312,-0.00010432,-5.3437,0.58703
8560,11.019,6,0.1,0.00030966,3094.5,0.00030957,3091.7,-0.00010192,-0.01846,-0.00010265,-5.4794,0.6055
8561,11.203,6,0.1,0.00030456,3043.5,0.00030447,3040.7,-0.00010023,-0.010065,-0.00010097,-5.6086,0.62418
8562,11.387,6,0.1,0.00029949,2992.8,0.00029939,2989.9,-9.8546e-05,-0.0019767,-9.9309e-05,-5.7314,0.64307
8563,11.57,6,0.1,0.00029443,2942.3,0.00029433,2939.3,-9.6871e-05,0.0058112,-9.765e-05,-5.8482,0.66215
8564,11.754,6,0.1,0.00028939,2891.9,0.00028929,2889,-9.5203e-05,0.013414,-9.5998e-05,-5.9588,0.68143
8565,11.938,6,0.1,0.00028438,2841.8,0.00028427,2838.8,-9.3542e-05,0.020895,-9.4352e-05,-6.0636,0.70091
8566,12.121,6,0.1,0.00027938,2791.9,0.00027927,2788.8,-9.1887e-05,0.028205,-9.2711e-05,-6.1625,0.72058
8567,12.305,6,0.1,0.0002744,2742.1,0.00027429,2739,-9.0239e-05,0.035518,-9.1077e-05,-6.2556,0.74044
8568,12.488,6,0.1,0.00026944,2692.5,0.00026933,2689.4,-8.8598e-05,0.042899,-8.9447e-05,-6.3427,0.76048
8569,12.672,6,0.1,0.0002645,2643.2,0.00026439,2640,-8.6962e-05,0.050366,-8.7823e-05,-6.4239,0.7807
8570,12.856,6,0.1,0.00025957,2593.9,0.00025946,2590.7,-8.5332e-05,0.058048,-8.6204e-05,-6.4987,0.8011
8571,13.039,6,0.1,0.00025466,2544.8,0.00025455,2541.6,-8.3707e-05,0.065958,-8.459e-05,-6.5671,0.82168
8572,13.223,6,0.1,0.00024976,2495.9,0.00024965,2492.6,-8.2087e-05,0.074281,-8.2979e-05,-6.6287,0.84242
8573,13.407,6,0.1,0.00024488,2447.1,0.00024476,2443.8,-8.0471e-05,0.083129,-8.1372e-05,-6.6828,0.86333
8574,13.59,6,0.1,0.00024,2398.4,0.00023989,2395,-7.886e-05,0.092546,-7.9768e-05,-6.7292,0.88441
8575,13.774,6,0.1,0.00023514,2349.7,0.00023502,2346.4,-7.7251e-05,0.10275,-7.8165e-05,-6.767,0.90565
8576,13.958,6,0.1,0.00023028,2301.2,0.00023016,2297.8,-7.5645e-05,0.11388,-7.6564e-05,-6.7954,0.92705
8577,14.141,6,0.1,0.00022542,2252.6,0.0002253,2249.3,-7.4039e-05,0.12616,-7.4963e-05,-6.8134,0.9486
8578,14.325,6,0.1,0.00022056,2204,0.00022044,2200.7,-7.2434e-05,0.13984,-7.336e-05,-6.8197,0.9703
8579,14.509,6,0.1,0.00021569,2155.4,0.00021557,2152,-7.0826e-05,0.1551,-7.1753e-05,-6.8132,0.99215
8580,14.692,6,0.1,0.0002108,2106.6,0.00021069,2103.3,-6.9214e-05,0.17233,-7.0141e-05,-6.7922,1.0142
8581,14.876,6,0.1,0.0002059,2057.5,0.00020578,2054.2,-6.7595e-05,0.19189,-6.8519e-05,-6.7547,1.0363
8582,15.06,6,0.1,0.00020096,2008.2,0.00020085,2004.9,-6.5966e-05,0.21415,-6.6886e-05,-6.6989,1.0586
8583,15.243,6,0.1,0.00019597,1958.4,0.00019586,1955.2,-6.4322e-05,0.23962,-6.5235e-05,-6.6223,1.081
8584,15.427,6,0.1,0.00019092,1907.9,0.00019082,1904.8,-6.2659e-05,0.26877,-6.3563e-05,-6.5226,1.1035
8585,15.611,6,0.1,0.0001858,1856.7,0.00018569,1853.6,-6.097e-05,0.30225,-6.1862e-05,-6.3972,1.1262
8586,15.794,6,0.1,0.00018056,1804.4,0.00018046,1801.4,-5.9247e-05,0.34067,-6.0123e-05,-6.2435,1.149
8587,15.978,6,0.1,0.00017519,1750.7,0.00017509,1747.8,-5.748e-05,0.38457,-5.8338e-05,-6.0592,1.1719
8588,16.162,6,0.1,0.00016965,1695.3,0.00016955,1692.6,-5.5657e-05,0.43459,-5.6492e-05,-5.8422,1.1949
8589,16.345,6,0.1,0.00016388,1637.7,0.0001638,1635.1,-5.3763e-05,0.4911,-5.4573e-05,-5.5919,1.2181
8590,16.529,6,0.1,0.00015785,1577.4,0.00015777,1575,-5.178e-05,0.55423,-5.2561e-05,-5.3087,1.2413
8591,16.712,6,0.1,0.00015147,1513.7,0.0001514,1511.5,-4.9686e-05,0.62352,-5.0434e-05,-4.9955,1.2647
8592,16.896,6,0.1,0.00014468,1445.8,0.00014461,1443.8,-4.7455e-05,0.69751,-4.8168e-05,-4.6586,1.2882
8593,17.08,6,0.1,0.00013738,1372.9,0.00013732,1371.1,-4.5057e-05,0.77336,-4.5734e-05,-4.3083,1.3117
8594,17.263,6,0.1,0.00012947,1293.8,0.00012941,1292.2,-4.2457e-05,0.84592,-4.3097e-05,-3.9601,1.3354
8595,17.447,6,0.1,0.00012083,1207.5,0.00012078,1206.1,-3.9618e-05,0.90692,-4.0222e-05,-3.6352,1.3591
8596,17.631,6,0.1,0.00011135,1112.7,0.00011131,1111.5,-3.6499e-05,0.94415,-3.7072e-05,-3.36,1.3829
8597,17.814,6,0.1,0.00010091,1008.4,0.00010087,1007.3,-3.3064e-05,0.94205,-3.361e-05,-3.1638,1.4068
8598,17.998,6,0.1,8.9416e-05,893.54,8.9378e-05,892.44,-2.9281e-05,0.88013,-2.9808e-05,-3.0752,1.4308
8599,18.182,6,0.1,7.6816e-05,767.63,7.6775e-05,766.45,-2.5133e-05,0.74988,-2.5646e-05,-3.1062,1.4548
8600,18.365,6,0.1,6.3117e-05,630.73,6.3069e-05,629.35,-2.0625e-05,0.50564,-2.1125e-05,-3.2522,1.4789
8601,18.549,6,0.1,4.8389e-05,483.56,4.8336e-05,482.01,-1.5775e-05,0.30352,-1.6266e-05,-3.3845,1.503
8602,18.733,6,0.1,3.278e-05,327.58,3.2714e-05,325.65,-1.0681e-05,-0.40433,-1.1085e-05,-3.4409,1.5272
8603,18.916,6,0.1,1.6142e-05,161.31,1.6095e-05,160.05,-5.0303e-06,1.3163,-5.7017e-06,-3.7284,1.5513
8604,19.1,6,0.1,1.6167e-06,16.156,1.2645e-06,14.635,5.8336e-07,9.5172,-1.1438e-06,-3.4602,1.5755
8605,18.916,6,0,1.6142e-05,161.31,5.7017e-06,3.7284,5.0303e-06,-1.3163,-1.6095e-05,-160.05,1.5513
8606,18.733,6,0,3.278e-05,327.58,1.1085e-05,3.4409,1.0681e-05,0.40433,-3.2714e-05,-325.65,1.5272
8607,18.549,6,0,4.8389e-05,483.56,1.6266e-05,3.3845,1.5775e-05,-0.30352,-4.8336e-05,-482.01,1.503
8608,18.365,6,0,6.3117e-05,630.73,2.1125e-05,3.2522,2.0625e-05,-0.50564,-6.3069e-05,-629.35,1.4789
8609,18.182,6,0,7.6816e-05,767.63,2.5646e-05,3.1062,2.5133e-05,-0.74988,-7.6775e-05,-766.45,1.4548
8610,17.998,6,0,8.9416e-05,893.54,2.9808e-05,3.0753,2.9281e-05,-0.88013,-8.9378e-05,-892.44,1.4308
8611,17.814,6,0,0.00010091,1008.4,3.361e-05,3.1638,3.3064e-05,-0.94205,-0.00010087,-1007.3,1.4068
8612,17.631,6,0,0.00011135,1112.7,3.7072e-05,3.36,3.6499e-05,-0.94415,-0.00011131,-1111.5,1.3829
8613,17.447,6,0,0.00012083,1207.5,4.0222e-05,3.6352,3.9618e-05,-0.90692,-0.00012078,-1206.1,1.3591
8614,17.263,6,0,0.00012947,1293.8,4.3097e-05,3.9601,4.2457e-05,-0.84592,-0.00012941,-1292.2,1.3354
8615,17.08,6,0,0.00013738,1372.9,4.5734e-05,4.3083,4.5057e-05,-0.77336,-0.00013732,-1371.1,1.3117
8616,16.896,6,0,0.00014468,1445.8,4.8168e-05,4.6586,4.7455e-05,-0.69751,-0.00014461,-1443.8,1.2882
8617,16.712,6,0,0.00015147,1513.7,5.0434e-05,4.9955,4.9686e-05,-0.62352,-0.0001514,-1511.5,1.2647
8618,16.529,6,0,0.00015785,1577.4,5.2561e-05,5.3087,5.178e-05,-0.55423,-0.00015777,-1575,1.2413
8619,16.345,6,0,0.00016388,1637.7,5.4573e-05,5.5919,5.3763e-05,-0.4911,-0.0001638,-1635.1,1.2181
8620,16.162,6,0,0.00016965,1695.3,5.6492e-05,5.8422,5.5657e-05,-0.43459,-0.00016955,-1692.6,1.1949
8621,15.978,6,0,0.00017519,1750.7,5.8338e-05,6.0592,5.748e-05,-0.38457,-0.00017509,-1747.8,1.1719
8622,15.794,6,0,0.00018056,1804.4,6.0123e-05,6.2435,5.9247e-05,-0.34067,-0.00018046,-1801.4,1.149
8623,15.611,6,0,0.0001858,1856.7,6.1862e-05,6.3973,6.097e-05,-0.30225,-0.00018569,-1853.6,1.1262
8624,15.427,6,0,0.00019092,1907.9,6.3563e-05,6.5227,6.2659e-05,-0.26877,-0.00019082,-1904.8,1.1035
8625,15.243,6,0,0.00019597,1958.4,6.5235e-05,6.6223,6.4322e-05,-0.23962,-0.00019586,-1955.2,1.081
8626,15.06,6,0,0.00020096,2008.2,6.6886e-05,6.6989,6.5966e-05,-0.21415,-0.00020085,-2004.9,1.0586
8627,14.876,6,0,0.0002059,2057.5,6.8519e-05,6.7547,6.7595e-05,-0.19188,-0.00020578,-2054.2,1.0363
8628,14.692,6,0,0.0002108,2106.6,7.0141e-05,6.7922,6.9214e-05,-0.17232,-0.00021069,-2103.3,1.0142
8629,14.509,6,0,0.00021569,2155.4,7.1753e-05,6.8133,7.0826e-05,-0.1551,-0.00021557,-2152,0.99215
8630,14.325,6,0,0.00022056,2204,7.336e-05,6.8198,7.2434e-05,-0.13984,-0.00022044,-2200.7,0.9703
8631,14.141,6,0,0.00022542,2252.6,7.4963e-05,6.8134,7.4039e-05,-0.12616,-0.0002253,-2249.3,0.9486
8632,13.958,6,0,0.00023028,2301.2,7.6564e-05,6.7954,7.5645e-05,-0.11388,-0.00023016,-2297.8,0.92705
8633,13.774,6,0,0.00023514,2349.7,7.8165e-05,6.767,7.7251e-05,-0.10275,-0.00023502,-2346.4,0.90565
8634,13.59,6,0,0.00024,2398.4,7.9768e-05,6.7292,7.886e-05,-0.092545,-0.00023989,-2395,0.88441
8635,13.407,6,0,0.00024488,2447.1,8.1372e-05,6.6829,8.0471e-05,-0.083128,-0.00024476,-2443.8,0.86333
8636,13.223,6,0,0.00024976,2495.9,8.2979e-05,6.6287,8.2087e-05,-0.07428,-0.00024965,-2492.6,0.84242
8637,13.039,6,0,0.00025466,2544.8,8.459e-05,6.5671,8.3707e-05,-0.065958,-0.00025455,-2541.6,0.82168
8638,12.856,6,0,0.00025957,2593.9,8.6204e-05,6.4987,8.5332e-05,-0.058048,-0.00025946,-2590.7,0.8011
8639,12.672,6,0,0.0002645,2643.2,8.7823e-05,6.4239,8.6962e-05,-0.050366,-0.00026439,-2640,0.7807
8640,12.488,6,0,0.00026944,2692.5,8.9447e-05,6.3427,8.8598e-05,-0.042898,-0.00026933,-2689.4,0.76048
8641,12.305,6,0,0.0002744,2742.1,9.1077e-05,6.2556,9.0239e-05,-0.035517,-0.00027429,-2739,0.74044
8642,12.121,6,0,0.00027938,2791.9,9.2711e-05,6.1625,9.1887e-05,-0.028205,-0.00027927,-2788.8,0.72058
8643,11.938,6,0,0.00028438,2841.8,9.4352e-05,6.0636,9.3542e-05,-0.020895,-0.00028427,-2838.8,0.70091
8644,11.754,6,0,0.00028939,2891.9,9.5998e-05,5.9589,9.5203e-05,-0.013413,-0.00028929,-2889,0.68143
8645,11.57,6,0,0.00029443,2942.3,9.765e-05,5.8482,9.6871e-05,-0.0058115,-0.00029433,-2939.3,0.66215
8646,11.387,6,0,0.00029949,2992.8,9.9309e-05,5.7314,9.8546e-05,0.0019769,-0.00029939,-2989.9,0.64307
8647,11.203,6,0,0.00030456,3043.5,0.00010097,5.6086,0.00010023,0.010065,-0.00030447,-3040.7,0.62418
8648,11.019,6,0,0.00030966,3094.5,0.00010265,5.4794,0.00010192,0.01846,-0.00030957,-3091.7,0.6055
8649,10.836,6,0,0.00031478,3145.7,0.00010432,5.3437,0.00010362,0.027312,-0.00031469,-3143,0.58703
8650,10.652,6,0,0.00031993,3197.1,0.00010601,5.2012,0.00010532,0.036577,-0.00031984,-3194.4,0.56877
8651,10.468,6,0,0.00032509,3248.7,0.0001077,5.0515,0.00010703,0.046318,-0.00032501,-3246.1,0.55073
8652,10.285,6,0,0.00033028,3300.6,0.0001094,4.8946,0.00010876,0.056708,-0.0003302,-3298.1,0.53291
8653,10.101,6,0,0.0003355,3352.7,0.00011111,4.7298,0.00011049,0.067725,-0.00033542,-3350.3,0.5153
8654,9.9173,6,0,0.00034074,3405,0.00011282,4.557,0.00011222,0.079474,-0.00034066,-3402.7,0.49793
8655,9.7337,6,0,0.000346,3457.6,0.00011454,4.3757,0.00011397,0.092012,-0.00034592,-3455.4,0.48078
8656,9.55,6,0,0.00035129,3510.5,0.00011627,4.1856,0.00011573,0.10542,-0.00035121,-3508.3,0.46387
8657,9.3663,6,0,0.0003566,3563.6,0.00011801,3.9862,0.00011749,0.11981,-0.00035653,-3561.5,0.44719
8658,9.1827,6,0,0.00036194,3616.9,0.00011975,3.7772,0.00011927,0.13526,-0.00036188,-3615,0.43075
8659,8.999,6,0,0.00036731,3670.6,0.0001215,3.5582,0.00012105,0.15186,-0.00036725,-3668.7,0.41456
8660,8.8154,6,0,0.00037271,3724.5,0.00012326,3.3288,0.00012284,0.16973,-0.00037265,-3722.8,0.39861
8661,8.6317,6,0,0.00037814,3778.8,0.00012503,3.0887,0.00012465,0.18898,-0.00037808,-3777.1,0.38292
8662,8.4481,6,0,0.0003836,3833.3,0.00012681,2.8377,0.00012646,0.20972,-0.00038354,-3831.8,0.36748
8663,8.2644,6,0,0.00038908,3888.2,0.0001286,2.5754,0.00012829,0.23209,-0.00038904,-3886.8,0.3523
8664,8.0808,6,0,0.00039461,3943.3,0.0001304,2.3017,0.00013013,0.25624,-0.00039456,-3942.1,0.33738
8665,7.8971,6,0,0.00040016,3998.8,0.00013221,2.0166,0.00013198,0.2823,-0.00040012,-3997.7,0.32272
8666,7.7135,6,0,0.00040575,4054.7,0.00013403,1.7202,0.00013384,0.31045,-0.00040571,-4053.7,0.30834
8667,7.5298,6,0,0.00041137,4110.9,0.00013585,1.4125,0.00013571,0.34084,-0.00041134,-4110,0.29423
8668,7.3462,6,0,0.00041703,4167.5,0.00013769,1.0942,0.0001376,0.37366,-0.00041701,-4166.7,0.2804
8669,7.1625,6,0,0.00042273,4224.4,0.00013955,0.76595,0.0001395,0.40904,-0.00042271,-4223.8,0.26685
8670,6.9788,6,0,0.00042848,4281.8,0.00014141,0.45185,0.00014141,0.42398,-0.00042846,-4281.4,0.25358
8671,6.7952,6,0,0.00043426,4339.6,0.00014334,0.48945,0.00014329,0.082476,-0.00043425,-4339.3,0.2406
8672,6.6115,6,0,0.00044009,4397.8,0.00014529,0.53419,0.00014518,-0.26896,-0.00044008,-4397.7,0.22792
8673,6.4279,6,0,0.00044596,4456.5,0.00014725,0.58264,0.00014709,-0.62446,-0.00044596,-4456.5,0.21553
8674,6.2442,6,0,0.00045188,4515.7,0.00014922,0.63504,0.00014901,-0.98119,-0.00045189,-4515.9,0.20344
8675,6.0606,6,0,0.00045785,4575.4,0.00015122,0.69171,0.00015095,-1.3357,-0.00045786,-4575.7,0.19166
8676,5.8769,6,0,0.00046388,4635.6,0.00015323,0.75297,0.0001529,-1.6837,-0.00046389,-4636,0.18019
8677,5.6933,6,0,0.00046996,4696.3,0.00015525,0.8192,0.00015488,-2.02,-0.00046998,-4696.9,0.16903
8678,5.5096,6,0,0.00047609,4757.6,0.0001573,0.89082,0.00015687,-2.3384,-0.00047612,-4758.3,0.15819
8679,5.326,6,0,0.00048228,4819.5,0.00015936,0.96828,0.00015889,-2.6313,-0.00048231,-4820.3,0.14767
8680,5.1423,6,0,0.00048854,4882,0.00016145,1.0521,0.00016092,-2.8895,-0.00048857,-4882.9,0.13747
8681,4.9587,6,0,0.00049485,4945.1,0.00016355,1.1428,0.00016299,-3.1024,-0.00049488,-4946.1,0.12761
8682,4.775,6,0,0.00050123,5008.8,0.00016567,1.241,0.00016507,-3.2572,-0.00050126,-5009.8,0.11808
8683,4.5913,6,0,0.00050767,5073.2,0.00016781,1.3476,0.00016718,-3.3389,-0.0005077,-5074.2,0.10888
8684,4.4077,6,0,0.00051417,5138.1,0.00016996,1.4635,0.00016932,-3.33,-0.0005142,-5139,0.10003
8685,4.224,6,0,0.00052072,5203.6,0.00017213,1.59,0.00017149,-3.2101,-0.00052075,-5204.5,0.091531
8686,4.0404,6,0,0.00052734,5269.7,0.00017431,1.7288,0.00017369,-2.9554,-0.00052736,-5270.3,0.08338
8687,3.8567,6,0,0.000534,5336.3,0.0001765,1.8827,0.00017591,-2.5391,-0.00053401,-5336.6,0.075585
8688,3.6731,6,0,0.00054069,5403.2,0.0001787,2.0569,0.00017816,-1.9317,-0.00054069,-5403.1,0.068151
8689,3.4894,6,0,0.00054741,5470.3,0.00018089,2.2627,0.00018044,-1.1038,-0.00054739,-5469.7,0.061082
8690,3.3058,6,0,0.00055413,5537.5,0.00018308,2.533,0.00018273,-0.04063,-0.00055409,-5536.2,0.054383
8691,3.1221,6,0,0.00056082,5604.3,0.00018526,3.0039,0.00018502,1.1778,-0.00056075,-5602.2,0.048057
8692,2.9385,6,0,0.00056744,5670.5,0.0001875,4.1695,0.00018723,2.1239,-0.00056734,-5667.4,0.04211
8693,2.7548,6,0,0.00057395,5735.5,0.0001898,6.3017,0.00018931,2.6054,-0.0005738,-5731.1,0.036545
8694,2.5712,6,0,0.00058027,5798.7,0.00019211,9.1791,0.00019128,2.9394,-0.00058006,-5792.6,0.031367
8695,2.3875,6,0,0.00058631,5859.1,0.00019439,12.798,0.00019312,3.2473,-0.00058604,-5851,0.026579
8696,2.2038,6,0,0.00059195,5915.4,0.00019661,17.269,0.00019478,3.5627,-0.00059159,-5904.9,0.022186
8697,2.0202,6,0,0.00059701,5966,0.00019872,22.765,0.00019621,3.9011,-0.00059655,-5952.6,0.018191
8698,1.8365,6,0,0.00060126,6008.5,0.00020067,29.514,0.00019731,4.2722,-0.00060068,-5991.5,0.014596
8699,1.6529,6,0,0.00060439,6039.7,0.00020238,37.832,0.00019796,4.6907,-0.00060366,-6018.4,0.011404
8700,1.4692,6,0,0.00060593,6055.1,0.00020372,48.152,0.000198,5.1568,-0.00060501,-6028.3,0.0086163
8701,1.2856,6,0,0.0006052,6047.9,0.00020454,61.147,0.00019716,5.7336,-0.00060405,-6014.2,0.0062323
8702,1.1019,6,0,0.00060119,6007.7,0.00020456,77.718,0.00019506,6.2915,-0.00059973,-5965.4,0.0042506
8703,0.91827,6,0,0.00059224,5918.4,0.0002034,99.867,0.00019109,7.3595,-0.00059037,-5864.2,0.0026666
8704,0.73462,6,0,0.00057555,5751.5,0.00020038,129.88,0.00018409,7.5223,-0.00057311,-5681.8,0.0014722
8705,0.55096,6,0,0.00054556,5451.9,0.00019421,176.43,0.00017209,10.259,-0.0005422,-5356.6,0.00065358
8706,0.36731,6,0,0.00049245,4921.1,0.000183,256.75,0.00015102,16.505,-0.00048736,-4780,0.00018923
8707,0.18365,6,0,0.00037891,3786.5,0.0001638,442.76,9.7975e-05,-51.829,-0.00036983,-3566.7,4.9283e-05
8708,19.1,6,0,1.6167e-06,16.156,1.1438e-06,3.4602,-5.8336e-07,-9.5172,-1.2645e-06,-14.635,1.5755
8709,3.937e-14,6,0,0.00022459,2244.4,0.00019585,1823.1,3.7059e-07,354.4,-0.000148,-760.4,0
8710,0.18365,-8.8656e-32,0,0.00037891,3786.5,0.0001638,442.76,9.7975e-05,-51.829,-0.00036983,-3566.7,4.9283e-05
8711,0.36731,-1.7731e-31,0,0.00049245,4921.1,0.000183,256.75,0.00015102,16.505,-0.00048736,-4780,0.00018923
8712,0.55096,-2.6597e-31,0,0.00054556,5451.9,0.00019421,176.43,0.00017209,10.259,-0.0005422,-5356.6,0.00065358
8713,0.73462,-3.5462e-31,0,0.00057555,5751.5,0.00020038,129.88,0.00018409,7.5223,-0.00057311,-5681.8,0.0014722
8714,0.91827,-4.4328e-31,0,0.00059224,5918.4,0.0002034,99.867,0.00019109,7.3595,-0.00059037,-5864.2,0.0026666
8715,1.1019,-5.3193e-31,0,0.00060119,6007.7,0.00020456,77.718,0.00019506,6.2915,-0.00059973,-5965.4,0.0042506
8716,1.2856,-6.2059e-31,0,0.0006052,6047.9,0.00020454,61.147,0.00019716,5.7336,-0.00060405,-6014.2,0.0062323
8717,1.4692,-7.0925e-31,0,0.00060593,6055.1,0.00020372,48.152,0.000198,5.1568,-0.00060501,-6028.3,0.0086163
8718,1.6529,-7.979e-31,0,0.00060439,6039.7,0.00020238,37.832,0.00019796,4.6907,-0.00060366,-6018.4,0.011404
8719,1.8365,-8.8656e-31,0,0.00060126,6008.5,0.00020067,29.514,0.00019731,4.2722,-0.00060068,-5991.5,0.014596
8720,2.0202,-9.7521e-31,0,0.00059701,5966,0.00019872,22.765,0.00019621,3.9011,-0.00059655,-5952.6,0.018191
8721,2.2038,-1.0639e-30,0,0.00059195,5915.4,0.00019661,17.269,0.00019478,3.5627,-0.00059159,-5904.9,0.022186
8722,2.3875,-1.1525e-30,0,0.00058631,5859.1,0.00019439,12.798,0.00019312,3.2473,-0.00058604,-5851,0.026579
8723,2.5712,-1.2412e-30,0,0.00058027,5798.7,0.00019211,9.1791,0.00019128,2.9394,-0.00058006,-5792.6,0.031367
8724,2.7548,-1.3298e-30,0,0.00057395,5735.5,0.0001898,6.3017,0.00018931,2.6054,-0.0005738,-5731.1,0.036545
8725,2.9385,-1.4185e-30,0,0.00056744,5670.5,0.0001875,4.1696,0.00018723,2.1239,-0.00056734,-5667.4,0.04211
8726,3.1221,-1.5071e-30,0,0.00056082,5604.3,0.00018526,3.0039,0.00018502,1.1778,-0.00056075,-5602.2,0.048057
8727,3.3058,-1.5958e-30,0,0.00055413,5537.5,0.00018308,2.533,0.00018273,-0.040622,-0.00055409,-5536.2,0.054383
8728,3.4894,-1.6845e-30,0,0.00054741,5470.3,0.00018089,2.2627,0.00018044,-1.1038,-0.00054739,-5469.7,0.061082
8729,3.6731,-1.7731e-30,0,0.00054069,5403.2,0.0001787,2.0569,0.00017816,-1.9317,-0.00054069,-5403.1,0.068151
8730,3.8567,-1.8618e-30,0,0.000534,5336.3,0.0001765,1.8827,0.00017591,-2.5391,-0.00053401,-5336.6,0.075585
8731,4.0404,-1.9504e-30,0,0.00052734,5269.7,0.00017431,1.7288,0.00017369,-2.9554,-0.00052736,-5270.3,0.08338
8732,4.224,-2.0391e-30,0,0.00052072,5203.7,0.00017213,1.59,0.00017149,-3.2101,-0.00052075,-5204.5,0.091531
8733,4.4077,-2.1277e-30,0,0.00051417,5138.1,0.00016996,1.4635,0.00016932,-3.33,-0.0005142,-5139,0.10003
8734,4.5913,-2.2164e-30,0,0.00050767,5073.2,0.00016781,1.3476,0.00016718,-3.3389,-0.0005077,-5074.2,0.10888
8735,4.775,-2.3051e-30,0,0.00050123,5008.8,0.00016567,1.241,0.00016507,-3.2572,-0.00050126,-5009.8,0.11808
8736,4.9587,-2.3937e-30,0,0.00049485,4945.1,0.00016355,1.1428,0.00016299,-3.1024,-0.00049488,-4946.1,0.12761
8737,5.1423,-2.4824e-30,0,0.00048854,4882,0.00016145,1.0521,0.00016092,-2.8895,-0.00048857,-4882.9,0.13747
8738,5.326,-2.571e-30,0,0.00048228,4819.5,0.00015936,0.96828,0.00015889,-2.6313,-0.00048231,-4820.3,0.14767
8739,5.5096,-2.6597e-30,0,0.00047609,4757.6,0.0001573,0.89082,0.00015687,-2.3384,-0.00047612,-4758.3,0.15819
8740,5.6933,-2.7483e-30,0,0.00046996,4696.3,0.00015525,0.8192,0.00015488,-2.02,-0.00046998,-4696.9,0.16903
8741,5.8769,-2.837e-30,0,0.00046388,4635.6,0.00015323,0.75297,0.0001529,-1.6837,-0.00046389,-4636,0.18019
8742,6.0606,-2.9256e-30,0,0.00045785,4575.4,0.00015122,0.69171,0.00015095,-1.3357,-0.00045786,-4575.7,0.19166
8743,6.2442,-3.0143e-30,0,0.00045188,4515.7,0.00014922,0.63505,0.00014901,-0.98119,-0.00045189,-4515.9,0.20344
8744,6.4279,-3.103e-30,0,0.00044596,4456.5,0.00014725,0.58264,0.00014709,-0.62447,-0.00044596,-4456.5,0.21553
8745,6.6115,-3.1916e-30,0,0.00044009,4397.8,0.00014529,0.53419,0.00014518,-0.26897,-0.00044008,-4397.7,0.22792
8746,6.7952,-3.2803e-30,0,0.00043426,4339.6,0.00014334,0.48945,0.00014329,0.082472,-0.00043425,-4339.3,0.2406
8747,6.9788,-3.3689e-30,0,0.00042848,4281.8,0.00014141,0.45185,0.00014141,0.42398,-0.00042846,-4281.4,0.25358
8748,7.1625,-3.4576e-30,0,0.00042273,4224.4,0.00013955,0.76595,0.0001395,0.40904,-0.00042271,-4223.8,0.26685
8749,7.3462,-3.5462e-30,0,0.00041703,4167.5,0.00013769,1.0942,0.0001376,0.37366,-0.00041701,-4166.7,0.2804
8750,7.5298,-3.6349e-30,0,0.00041137,4110.9,0.00013585,1.4125,0.00013571,0.34084,-0.00041134,-4110,0.29423
8751,7.7135,-3.7235e-30,0,0.00040575,4054.7,0.00013403,1.7201,0.00013384,0.31045,-0.00040571,-4053.7,0.30834
8752,7.8971,-3.8122e-30,0,0.00040016,3998.8,0.00013221,2.0166,0.00013198,0.2823,-0.00040012,-3997.7,0.32272
8753,8.0808,-3.9009e-30,0,0.00039461,3943.3,0.0001304,2.3017,0.00013013,0.25624,-0.00039456,-3942.1,0.33738
8754,8.2644,-3.9895e-30,0,0.00038908,3888.2,0.0001286,2.5754,0.00012829,0.2321,-0.00038904,-3886.8,0.3523
8755,8.4481,-4.0782e-30,0,0.0003836,3833.3,0.00012681,2.8377,0.00012646,0.20972,-0.00038354,-3831.8,0.36748
8756,8.6317,-4.1668e-30,0,0.00037814,3778.8,0.00012503,3.0887,0.00012465,0.18898,-0.00037808,-3777.1,0.38292
8757,8.8154,-4.2555e-30,0,0.00037271,3724.5,0.00012326,3.3288,0.00012284,0.16973,-0.00037265,-3722.8,0.39861
8758,8.999,-4.3441e-30,0,0.00036731,3670.6,0.0001215,3.5582,0.00012105,0.15186,-0.00036725,-3668.7,0.41456
8759,9.1827,-4.4328e-30,0,0.00036194,3616.9,0.00011975,3.7772,0.00011927,0.13526,-0.00036188,-3615,0.43075
8760,9.3663,-4.5214e-30,0,0.0003566,3563.6,0.00011801,3.9862,0.00011749,0.11981,-0.00035653,-3561.5,0.44719
8761,9.55,-4.6101e-30,0,0.00035129,3510.5,0.00011627,4.1855,0.00011573,0.10542,-0.00035121,-3508.3,0.46387
8762,9.7337,-4.6988e-30,0,0.000346,3457.6,0.00011454,4.3757,0.00011397,0.092012,-0.00034592,-3455.4,0.48078
8763,9.9173,-4.7874e-30,0,0.00034074,3405,0.00011282,4.557,0.00011222,0.079474,-0.00034066,-3402.7,0.49793
8764,10.101,-4.8761e-30,0,0.0003355,3352.7,0.00011111,4.7298,0.00011049,0.067725,-0.00033542,-3350.3,0.5153
8765,10.285,-4.9647e-30,0,0.00033028,3300.6,0.0001094,4.8946,0.00010876,0.056709,-0.0003302,-3298.1,0.53291
8766,10.468,-5.0534e-30,0,0.00032509,3248.7,0.0001077,5.0515,0.00010703,0.046318,-0.00032501,-3246.1,0.55073
8767,10.652,-5.142e-30,0,0.00031993,3197.1,0.00010601,5.2012,0.00010532,0.036577,-0.00031984,-3194.4,0.56877
8768,10.836,-5.2307e-30,0,0.00031478,3145.7,0.00010432,5.3437,0.00010362,0.027313,-0.00031469,-3143,0.58703
8769,11.019,-5.3193e-30,0,0.00030966,3094.5,0.00010265,5.4794,0.00010192,0.018461,-0.00030957,-3091.7,0.6055
8770,11.203,-5.408e-30,0,0.00030456,3043.5,0.00010097,5.6086,0.00010023,0.010065,-0.00030447,-3040.7,0.62418
8771,11.387,-5.4967e-30,0,0.00029949,2992.8,9.9309e-05,5.7314,9.8546e-05,0.0019777,-0.00029939,-2989.9,0.64307
8772,11.57,-5.5853e-30,0,0.00029443,2942.3,9.765e-05,5.8482,9.6871e-05,-0.0058097,-0.00029433,-2939.3,0.66215
8773,11.754,-5.674e-30,0,0.00028939,2891.9,9.5998e-05,5.9588,9.5203e-05,-0.01341,-0.00028929,-2889,0.68143
8774,11.938,-5.7626e-30,0,0.00028438,2841.8,9.4352e-05,6.0635,9.3542e-05,-0.020894,-0.00028427,-2838.8,0.70091
8775,12.121,-5.8513e-30,0,0.00027938,2791.9,9.2711e-05,6.1625,9.1887e-05,-0.028206,-0.00027927,-2788.8,0.72058
8776,12.305,-5.9399e-30,0,0.0002744,2742.1,9.1077e-05,6.2556,9.0239e-05,-0.035516,-0.00027429,-2739,0.74044
8777,12.488,-6.0286e-30,0,0.00026944,2692.5,8.9447e-05,6.3427,8.8598e-05,-0.042898,-0.00026933,-2689.4,0.76048
8778,12.672,-6.1172e-30,0,0.0002645,2643.2,8.7823e-05,6.4239,8.6962e-05,-0.050367,-0.00026439,-2640,0.7807
8779,12.856,-6.2059e-30,0,0.00025957,2593.9,8.6204e-05,6.4987,8.5332e-05,-0.058048,-0.00025946,-2590.7,0.8011
8780,13.039,-6.2946e-30,0,0.00025466,2544.8,8.459e-05,6.5671,8.3707e-05,-0.065958,-0.00025455,-2541.6,0.82168
8781,13.223,-6.3832e-30,0,0.00024976,2495.9,8.2979e-05,6.6287,8.2087e-05,-0.07428,-0.00024965,-2492.6,0.84242
8782,13.407,-6.4719e-30,0,0.00024488,2447.1,8.1372e-05,6.6828,8.0471e-05,-0.083127,-0.00024476,-2443.8,0.86333
8783,13.59,-6.5605e-30,0,0.00024,2398.4,7.9768e-05,6.7292,7.886e-05,-0.092546,-0.00023989,-2395,0.88441
8784,13.774,-6.6492e-30,0,0.00023514,2349.7,7.8165e-05,6.767,7.7251e-05,-0.10275,-0.00023502,-2346.4,0.90565
8785,13.958,-6.7378e-30,0,0.00023028,2301.2,7.6564e-05,6.7954,7.5645e-05,-0.11388,-0.00023016,-2297.8,0.92705
8786,14.141,-6.8265e-30,0,0.00022542,2252.6,7.4963e-05,6.8134,7.4039e-05,-0.12616,-0.0002253,-2249.3,0.9486
8787,14.325,-6.9152e-30,0,0.00022056,2204,7.336e-05,6.8197,7.2434e-05,-0.13984,-0.00022044,-2200.7,0.9703
8788,14.509,-7.0038e-30,0,0.00021569,2155.4,7.1753e-05,6.8132,7.0826e-05,-0.1551,-0.00021557,-2152,0.99215
8789,14.692,-7.0925e-30,0,0.0002108,2106.6,7.0141e-05,6.7922,6.9214e-05,-0.17233,-0.00021069,-2103.3,1.0142
8790,14.876,-7.1811e-30,0,0.0002059,2057.5,6.8519e-05,6.7547,6.7595e-05,-0.19188,-0.00020578,-2054.2,1.0363
8791,15.06,-7.2698e-30,0,0.00020096,2008.2,6.6886e-05,6.6988,6.5966e-05,-0.21415,-0.00020085,-2004.9,1.0586
8792,15.243,-7.3584e-30,0,0.00019597,1958.4,6.5235e-05,6.6223,6.4322e-05,-0.23962,-0.00019586,-1955.2,1.081
8793,15.427,-7.4471e-30,0,0.00019092,1907.9,6.3563e-05,6.5226,6.2659e-05,-0.26877,-0.00019082,-1904.8,1.1035
8794,15.611,-7.5357e-30,0,0.0001858,1856.7,6.1862e-05,6.3972,6.097e-05,-0.30225,-0.00018569,-1853.6,1.1262
8795,15.794,-7.6244e-30,0,0.00018056,1804.4,6.0123e-05,6.2435,5.9247e-05,-0.34067,-0.00018046,-1801.4,1.149
8796,15.978,-7.7131e-30,0,0.00017519,1750.7,5.8338e-05,6.0591,5.748e-05,-0.38457,-0.00017509,-1747.8,1.1719
8797,16.162,-7.8017e-30,0,0.00016965,1695.3,5.6492e-05,5.8422,5.5657e-05,-0.43459,-0.00016955,-1692.6,1.1949
8798,16.345,-7.8904e-30,0,0.00016388,1637.7,5.4573e-05,5.5919,5.3763e-05,-0.4911,-0.0001638,-1635.1,1.2181
8799,16.529,-7.979e-30,0,0.00015785,1577.4,5.2561e-05,5.3087,5.178e-05,-0.55423,-0.00015777,-1575,1.2413
8800,16.712,-8.0677e-30,0,0.00015147,1513.7,5.0434e-05,4.9955,4.9686e-05,-0.62352,-0.0001514,-1511.5,1.2647
8801,16.896,-8.1563e-30,0,0.00014468,1445.8,4.8168e-05,4.6586,4.7455e-05,-0.69751,-0.00014461,-1443.8,1.2882
8802,17.08,-8.245e-30,0,0.00013738,1372.9,4.5734e-05,4.3083,4.5057e-05,-0.77336,-0.00013732,-1371.1,1.3117
8803,17.263,-8.3336e-30,0,0.00012947,1293.8,4.3097e-05,3.9601,4.2457e-05,-0.84592,-0.00012941,-1292.2,1.3354
8804,17.447,-8.4223e-30,0,0.00012083,1207.5,4.0222e-05,3.6352,3.9618e-05,-0.90692,-0.00012078,-1206.1,1.3591
8805,17.631,-8.511e-30,0,0.00011135,1112.7,3.7072e-05,3.36,3.6499e-05,-0.94415,-0.00011131,-1111.5,1.3829
8806,17.814,-8.5996e-30,0,0.00010091,1008.4,3.361e-05,3.1638,3.3064e-05,-0.94205,-0.00010087,-1007.3,1.4068
8807,17.998,-8.6883e-30,0,8.9416e-05,893.54,2.9808e-05,3.0753,2.9281e-05,-0.88013,-8.9378e-05,-892.44,1.4308
8808,18.182,-8.7769e-30,0,7.6816e-05,767.63,2.5646e-05,3.1062,2.5133e-05,-0.74988,-7.6775e-05,-766.45,1.4548
8809,18.365,-8.8656e-30,0,6.3117e-05,630.73,2.1125e-05,3.2522,2.0625e-05,-0.50563,-6.3069e-05,-629.35,1.4789
8810,18.549,-8.9542e-30,0,4.8389e-05,483.56,1.6266e-05,3.3845,1.5775e-05,-0.30352,-4.8336e-05,-482.01,1.503
8811,18.733,-9.0429e-30,0,3.278e-05,327.58,1.1085e-05,3.4409,1.0681e-05,0.40433,-3.2714e-05,-325.65,1.5272
8812,18.916,-9.1315e-30,0,1.6142e-05,161.31,5.7017e-06,3.7284,5.0303e-06,-1.3163,-1.6095e-05,-160.05,1.5513
8813,19.1,0,0,1.6167e-06,16.156,1.1438e-06,3.4602,-5.8336e-07,-9.5172,-1.2645e-06,-14.635,1.5755
8814,0,0,0,0.00022459,2244.4,0.00019585,1823.1,3.7059e-07,354.4,-0.000148,-760.4,0
8815,19.449,0,0,1.0676e-05,106.69,3.9385e-06,4.6886,3.2423e-06,-0.54264,-1.0596e-05,-104.52,1.6284
8816,19.631,0,0,2.0347e-05,203.33,7.1971e-06,6.3042,6.4716e-06,0.85351,-2.0219e-05,-199.69,1.6542
8817,19.813,0,0,2.8367e-05,283.47,9.9646e-06,7.4719,9.02e-06,0.37519,-2.8227e-05,-279.48,1.68
8818,19.995,0,0,3.4972e-05,349.48,1.219e-05,7.9398,1.1166e-05,0.24427,-3.4827e-05,-345.32,1.7058
8819,20.177,0,0,4.0163e-05,401.35,1.3908e-05,7.9071,1.2867e-05,0.086318,-4.0021e-05,-397.29,1.7316
8820,20.359,0,0,4.3996e-05,439.65,1.5155e-05,7.6288,1.4139e-05,-0.003645,-4.3861e-05,-435.79,1.7574
8821,20.541,0,0,4.6568e-05,465.36,1.5974e-05,7.2433,1.5002e-05,-0.058736,-4.6442e-05,-461.73,1.7833
8822,20.723,0,0,4.8014e-05,479.8,1.6419e-05,6.8451,1.5497e-05,-0.08487,-4.7895e-05,-476.39,1.8092
8823,20.905,0,0,4.8478e-05,484.44,1.6543e-05,6.4879,1.5667e-05,-0.093807,-4.8365e-05,-481.21,1.8352
8824,21.087,0,0,4.8108e-05,480.74,1.6397e-05,6.2004,1.556e-05,-0.093265,-4.8001e-05,-477.66,1.8611
8825,21.269,0,0,4.7041e-05,470.09,1.6028e-05,5.995,1.5218e-05,-0.089016,-4.6938e-05,-467.1,1.8871
8826,21.451,0,0,4.5402e-05,453.71,1.5477e-05,5.8742,1.4684e-05,-0.084816,-4.5301e-05,-450.78,1.9132
8827,21.633,0,0,4.3298e-05,432.68,1.4779e-05,5.835,1.3991e-05,-0.083006,-4.3197e-05,-429.77,1.9392
8828,21.815,0,0,4.082e-05,407.91,1.3964e-05,5.871,1.3171e-05,-0.084946,-4.0718e-05,-404.99,1.9653
8829,21.997,0,0,3.8044e-05,380.17,1.3057e-05,5.9748,1.225e-05,-0.091407,-3.794e-05,-377.2,1.9914
8830,22.179,0,0,3.5033e-05,350.09,1.2077e-05,6.1378,1.1247e-05,-0.1028,-3.4926e-05,-347.03,2.0176
8831,22.362,0,0,3.184e-05,318.18,1.1042e-05,6.3513,1.0181e-05,-0.11944,-3.1729e-05,-315.02,2.0438
8832,22.544,0,0,2.8507e-05,284.88,9.9645e-06,6.6063,9.0664e-06,-0.1416,-2.8391e-05,-281.59,2.0699
8833,22.726,0,0,2.507e-05,250.53,8.8551e-06,6.8932,7.9151e-06,-0.16983,-2.4948e-05,-247.09,2.0961
8834,22.908,0,0,2.1558e-05,215.43,7.723e-06,7.2014,6.7373e-06,-0.20468,-2.143e-05,-211.84,2.1224
8835,23.09,0,0,1.7997e-05,179.85,6.5753e-06,7.5174,5.5417e-06,-0.24867,-1.7861e-05,-176.09,2.1486
8836,23.272,0,0,1.4412e-05,144.02,5.4191e-06,7.8285,4.3373e-06,-0.29943,-1.4266e-05,-140.08,2.1748
8837,23.454,0,0,1.0827e-05,108.2,4.2593e-06,8.0853,3.1324e-06,-0.38203,-1.0671e-05,-104.1,2.2011
8838,23.636,0,0,7.295e-06,72.9,3.1148e-06,8.3654,1.9433e-06,-0.43666,-7.1201e-06,-68.536,2.2273
8839,23.818,0,0,3.8458e-06,38.431,1.9262e-06,7.6637,7.9854e-07,-0.80902,-3.6584e-06,-34.297,2.2536
8840,19.267,0,0,1.1457e-06,11.449,8.1537e-07,2.4146,-4.472e-07,-7.0718,-8.7713e-07,-10.302,1.6027
8841,24,0,0,9.4767e-07,9.4701,6.6106e-07,5.094,1.3371e-07,1.1317,-7.7736e-07,-5.7138,2.2799
8842,5.0862e-14,5.8182,0,0.00013758,1374.9,1.5728e-05,-1060.8,-1.9445e-06,-1193.6,-0.00017545,-2497.2,0
8843,4.9273e-14,5.6364,0,0.00023641,2362.4,4.9808e-06,-2241.6,-3.77e-06,-2307.4,-0.00031373,-4636.3,0
8844,4.7683e-14,5.4545,0,0.00028835,2881.5,2.3421e-06,-2784.8,-2.8706e-06,-2824,-0.00038375,-5685.7,0
8845,4.6094e-14,5.2727,0,0.00032122,3210,1.4121e-06,-3109,-1.7857e-06,-3133,-0.00042741,-6331,0
8846,4.4504e-14,5.0909,0,0.00034318,3429.4,9.4966e-07,-3324.1,-1.2015e-06,-3340.3,-0.00045655,-6761.6,0
8847,4.2915e-14,4.9091,0,0.00035884,3585.9,6.7921e-07,-3477.3,-8.5872e-07,-3488.9,-0.00047735,-7069,0
8848,4.1325e-14,4.7273,0,0.00037043,3701.8,5.0405e-07,-3590.5,-6.3358e-07,-3599.1,-0.00049274,-7296.5,0
8849,3.9736e-14,4.5455,0,0.00037922,3789.6,3.8235e-07,-3676.3,-4.7929e-07,-3682.8,-0.00050441,-7469.2,0
8850,3.8147e-14,4.3636,0,0.00038599,3857.2,2.9341e-07,-3742.4,-3.6824e-07,-3747.4,-0.0005134,-7602.1,0
8851,3.6557e-14,4.1818,0,0.00039123,3909.6,2.2574e-07,-3793.6,-2.852e-07,-3797.4,-0.00052037,-7705.2,0
8852,3.4968e-14,4,0,0.0003953,3950.3,1.7239e-07,-3833.3,-2.2098e-07,-3836.3,-0.00052577,-7785,0
8853,3.3378e-14,3.8182,0,0.00039842,3981.4,1.289e-07,-3863.8,-1.6975e-07,-3866,-0.00052991,-7846.3,0
8854,3.1789e-14,3.6364,0,0.00040075,4004.7,9.2242e-08,-3886.6,-1.2764e-07,-3888.3,-0.00053301,-7892.2,0
8855,3.0199e-14,3.4545,0,0.00040241,4021.3,6.0348e-08,-3903,-9.2023e-08,-3904.1,-0.00053522,-7924.9,0
8856,2.861e-14,3.2727,0,0.00040348,4032,3.1989e-08,-3913.5,-6.1347e-08,-3914.2,-0.00053664,-7945.9,0
8857,2.702e-14,3.0909,0,0.000404,4037.3,8.6161e-09,-3918.8,-3.6861e-08,-3919.1,-0.00053734,-7956.2,0
8858,2.5431e-14,2.9091,0,0.000404,4037.3,8.6162e-09,-3918.8,-3.6862e-08,-3919.1,-0.00053734,-7956.2,0
8859,2.3842e-14,2.7273,0,0.00040348,4032,3.1989e-08,-3913.5,-6.1348e-08,-3914.2,-0.00053664,-7945.9,0
8860,2.2252e-14,2.5455,0,0.00040241,4021.3,6.0348e-08,-3903,-9.2023e-08,-3904.1,-0.00053522,-7924.9,0
8861,2.0663e-14,2.3636,0,0.00040075,4004.7,9.2242e-08,-3886.6,-1.2764e-07,-3888.3,-0.00053301,-7892.2,0
8862,1.9073e-14,2.1818,0,0.00039842,3981.4,1.289e-07,-3863.8,-1.6975e-07,-3866,-0.00052991,-7846.3,0
8863,1.7484e-14,2,0,0.0003953,3950.3,1.7239e-07,-3833.3,-2.2098e-07,-3836.3,-0.00052577,-7785,0
8864,1.5894e-14,1.8182,0,0.00039123,3909.6,2.2574e-07,-3793.6,-2.852e-07,-3797.4,-0.00052037,-7705.2,0
8865,1.4305e-14,1.6364,0,0.00038599,3857.2,2.9341e-07,-3742.4,-3.6824e-07,-3747.4,-0.0005134,-7602.1,0
8866,1.2716e-14,1.4545,0,0.00037922,3789.6,3.8235e-07,-3676.3,-4.7929e-07,-3682.8,-0.00050441,-7469.2,0
8867,1.1126e-14,1.2727,0,0.00037043,3701.8,5.0405e-07,-3590.5,-6.3359e-07,-3599.1,-0.00049274,-7296.5,0
8868,9.5366e-15,1.0909,0,0.00035884,3585.9,6.7922e-07,-3477.3,-8.5872e-07,-3488.9,-0.00047735,-7069,0
8869,7.9472e-15,0.90909,0,0.00034318,3429.4,9.4966e-07,-3324.1,-1.2015e-06,-3340.3,-0.00045655,-6761.6,0
8870,6.3578e-15,0.72727,0,0.00032122,3210,1.4121e-06,-3109,-1.7857e-06,-3133,-0.00042741,-6331,0
8871,4.7683e-15,0.54545,0,0.00028835,2881.5,2.3421e-06,-2784.8,-2.8706e-06,-2824,-0.00038375,-5685.7,0
8872,3.1789e-15,0.36364,0,0.00023641,2362.4,4.9808e-06,-2241.6,-3.77e-06,-2307.4,-0.00031373,-4636.3,0
8873,1.5894e-15,0.18182,0,0.00013758,1374.9,1.5728e-05,-1060.8,-1.9445e-06,-1193.6,-0.00017545,-2497.2,0
8874,24,0.18182,0,3.1329e-06,31.307,2.9612e-06,28.153,-4.8016e-07,2.2957,-1.6715e-06,-6.6555,2.2799
8875,24,0.36364,0,4.9813e-06,49.778,4.8408e-06,46.884,-1.0905e-06,2.3176,-2.3089e-06,-6.8367,2.28
8876,24,0.54545,0,6.2408e-06,62.365,6.113e-06,59.631,-1.4952e-06,2.4668,-2.7391e-06,-6.8795,2.2801
8877,24,0.72727,0,7.1535e-06,71.485,7.0324e-06,68.824,-1.797e-06,2.4834,-3.0435e-06,-6.8826,2.2802
8878,24,0.90909,0,7.8103e-06,78.049,7.6941e-06,75.452,-2.0147e-06,2.504,-3.2603e-06,-6.8548,2.2802
8879,24,1.0909,0,8.2704e-06,82.647,8.1574e-06,80.096,-2.1682e-06,2.5133,-3.4106e-06,-6.8212,2.2803
8880,24,1.2727,0,8.575e-06,85.69,8.4644e-06,83.178,-2.2706e-06,2.5198,-3.5089e-06,-6.7847,2.2804
8881,24,1.4545,0,8.7576e-06,87.516,8.6488e-06,85.034,-2.3327e-06,2.5235,-3.5668e-06,-6.749,2.2804
8882,24,1.6364,0,8.8469e-06,88.408,8.7393e-06,85.951,-2.3638e-06,2.5256,-3.5937e-06,-6.7154,2.2805
8883,24,1.8182,0,8.8679e-06,88.618,8.7611e-06,86.179,-2.3723e-06,2.5266,-3.5982e-06,-6.6848,2.2805
8884,24,2,0,8.8426e-06,88.365,8.7364e-06,85.941,-2.3653e-06,2.5269,-3.5877e-06,-6.6579,2.2805
8885,24,2.1818,0,8.7905e-06,87.844,8.6847e-06,85.431,-2.3492e-06,2.5268,-3.5686e-06,-6.635,2.2806
8886,24,2.3636,0,8.7281e-06,87.221,8.6225e-06,84.816,-2.3295e-06,2.5266,-3.5464e-06,-6.6164,2.2806
8887,24,2.5455,0,8.6691e-06,86.631,8.5636e-06,84.231,-2.3107e-06,2.5262,-3.5257e-06,-6.6023,2.2806
8888,24,2.7273,0,8.6238e-06,86.179,8.5183e-06,83.783,-2.2963e-06,2.526,-3.5099e-06,-6.5928,2.2806
8889,24,2.9091,0,8.5994e-06,85.935,8.494e-06,83.54,-2.2884e-06,2.5259,-3.5014e-06,-6.588,2.2806
8890,24,3.0909,0,8.5994e-06,85.935,8.494e-06,83.54,-2.2884e-06,2.5259,-3.5014e-06,-6.588,2.2806
8891,24,3.2727,0,8.6238e-06,86.179,8.5183e-06,83.783,-2.2963e-06,2.526,-3.5099e-06,-6.5928,2.2806
8892,24,3.4545,0,8.6691e-06,86.631,8.5636e-06,84.231,-2.3107e-06,2.5263,-3.5257e-06,-6.6023,2.2806
8893,24,3.6364,0,8.7281e-06,87.221,8.6225e-06,84.816,-2.3295e-06,2.5266,-3.5464e-06,-6.6164,2.2806
8894,24,3.8182,0,8.7905e-06,87.844,8.6847e-06,85.431,-2.3492e-06,2.5268,-3.5686e-06,-6.635,2.2806
8895,24,4,0,8.8426e-06,88.365,8.7364e-06,85.941,-2.3653e-06,2.5269,-3.5877e-06,-6.6579,2.2805
8896,24,4.1818,0,8.8679e-06,88.618,8.7611e-06,86.179,-2.3723e-06,2.5266,-3.5982e-06,-6.6848,2.2805
8897,24,4.3636,0,8.847e-06,88.408,8.7394e-06,85.951,-2.3638e-06,2.5256,-3.5937e-06,-6.7154,2.2805
8898,24,4.5455,0,8.7577e-06,87.516,8.6488e-06,85.034,-2.3327e-06,2.5235,-3.5668e-06,-6.749,2.2804
8899,24,4.7273,0,8.575e-06,85.69,8.4644e-06,83.178,-2.2706e-06,2.5198,-3.5089e-06,-6.7847,2.2804
8900,24,4.9091,0,8.2704e-06,82.647,8.1574e-06,80.097,-2.1683e-06,2.5133,-3.4106e-06,-6.8212,2.2803
8901,24,5.0909,0,7.8103e-06,78.049,7.6941e-06,75.452,-2.0147e-06,2.504,-3.2603e-06,-6.8548,2.2802
8902,24,5.2727,0,7.1535e-06,71.486,7.0325e-06,68.824,-1.797e-06,2.4834,-3.0435e-06,-6.8826,2.2802
8903,24,5.4545,0,6.2408e-06,62.365,6.113e-06,59.631,-1.4952e-06,2.4668,-2.7391e-06,-6.8795,2.2801
8904,24,5.6364,0,4.9813e-06,49.778,4.8408e-06,46.884,-1.0905e-06,2.3176,-2.3089e-06,-6.8367,2.28
8905,24,5.8182,0,3.1329e-06,31.307,2.9612e-06,28.153,-4.8016e-07,2.2957,-1.6715e-06,-6.6555,2.2799
8906,24,6,0,9.4767e-07,9.4701,6.6106e-07,5.094,1.3371e-07,1.1317,-7.7736e-07,-5.7138,2.2799
8907,23.818,6,0,3.8458e-06,38.431,1.9262e-06,7.6637,7.9854e-07,-0.80902,-3.6584e-06,-34.297,2.2536
8908,23.636,6,0,7.295e-06,72.9,3.1148e-06,8.3654,1.9433e-06,-0.43666,-7.1201e-06,-68.536,2.2273
8909,23.454,6,0,1.0827e-05,108.2,4.2593e-06,8.0853,3.1324e-06,-0.38203,-1.0671e-05,-104.1,2.2011
8910,23.272,6,0,1.4412e-05,144.02,5.4191e-06,7.8285,4.3373e-06,-0.29942,-1.4266e-05,-140.08,2.1748
8911,23.09,6,0,1.7997e-05,179.85,6.5753e-06,7.5174,5.5417e-06,-0.24867,-1.7861e-05,-176.09,2.1486
8912,22.908,6,0,2.1558e-05,215.43,7.723e-06,7.2014,6.7373e-06,-0.20469,-2.143e-05,-211.84,2.1224
8913,22.726,6,0,2.507e-05,250.53,8.8551e-06,6.8932,7.9151e-06,-0.16983,-2.4948e-05,-247.09,2.0961
8914,22.544,6,0,2.8507e-05,284.88,9.9645e-06,6.6063,9.0664e-06,-0.14159,-2.8391e-05,-281.59,2.0699
8915,22.362,6,0,3.184e-05,318.18,1.1042e-05,6.3513,1.0181e-05,-0.11944,-3.1729e-05,-315.02,2.0438
8916,22.179,6,0,3.5033e-05,350.09,1.2077e-05,6.1378,1.1247e-05,-0.1028,-3.4926e-05,-347.03,2.0176
8917,21.997,6,0,3.8044e-05,380.17,1.3057e-05,5.9748,1.225e-05,-0.091406,-3.794e-05,-377.19,1.9914
8918,21.815,6,0,4.082e-05,407.91,1.3964e-05,5.8711,1.3171e-05,-0.084945,-4.0718e-05,-404.99,1.9653
8919,21.633,6,0,4.3298e-05,432.68,1.4779e-05,5.835,1.3991e-05,-0.083006,-4.3197e-05,-429.77,1.9392
8920,21.451,6,0,4.5402e-05,453.71,1.5477e-05,5.8742,1.4684e-05,-0.084815,-4.5301e-05,-450.78,1.9132
8921,21.269,6,0,4.7041e-05,470.09,1.6028e-05,5.995,1.5218e-05,-0.089018,-4.6938e-05,-467.1,1.8871
8922,21.087,6,0,4.8107e-05,480.74,1.6397e-05,6.2004,1.556e-05,-0.093264,-4.8001e-05,-477.66,1.8611
8923,20.905,6,0,4.8478e-05,484.44,1.6543e-05,6.4879,1.5667e-05,-0.093806,-4.8365e-05,-481.21,1.8352
8924,20.723,6,0,4.8014e-05,479.8,1.6419e-05,6.8451,1.5497e-05,-0.084869,-4.7895e-05,-476.39,1.8092
8925,20.541,6,0,4.6568e-05,465.36,1.5974e-05,7.2433,1.5002e-05,-0.058737,-4.6442e-05,-461.73,1.7833
8926,20.359,6,0,4.3996e-05,439.65,1.5155e-05,7.6288,1.4139e-05,-0.0036423,-4.3861e-05,-435.79,1.7574
8927,20.177,6,0,4.0163e-05,401.35,1.3908e-05,7.9071,1.2867e-05,0.086317,-4.0021e-05,-397.29,1.7316
8928,19.995,6,0,3.4972e-05,349.48,1.219e-05,7.9398,1.1166e-05,0.24427,-3.4827e-05,-345.32,1.7058
8929,19.813,6,0,2.8367e-05,283.47,9.9646e-06,7.4719,9.02e-06,0.37519,-2.8227e-05,-279.48,1.68
8930,19.631,6,0,2.0347e-05,203.33,7.1971e-06,6.3042,6.4716e-06,0.85351,-2.0219e-05,-199.69,1.6542
8931,19.449,6,0,1.0676e-05,106.69,3.9385e-06,4.6886,3.2423e-06,-0.54264,-1.0596e-05,-104.52,1.6284
8932,19.267,6,0,1.1457e-06,11.449,8.1537e-07,2.4146,-4.472e-07,-7.0718,-8.7713e-07,-10.302,1.6027
8933,19.1,1.8182,0,0.00025679,2566.1,0.0002161,1771.6,-2.0371e-05,-5.1785,-0.00017545,-1170.4,1.5823
8934,19.1,1.6364,0,0.00014952,1494.2,0.00011909,943.29,-2.0148e-06,33.359,-0.00011042,-781.19,1.5816
8935,19.1,1.4545,0,0.0001169,1168.2,9.2482e-05,719.54,-2.1379e-06,8.5984,-8.6962e-05,-628.74,1.581
8936,19.1,1.2727,0,9.1322e-05,912.59,7.0472e-05,537.16,3.5271e-07,10.306,-6.9775e-05,-516.61,1.5803
8937,19.1,1.0909,0,7.2622e-05,725.72,5.4519e-05,404.15,1.6886e-06,7.1993,-5.696e-05,-433.46,1.5796
8938,19.1,0.90909,0,5.7514e-05,574.75,4.1676e-05,298.71,2.7957e-06,6.585,-4.6449e-05,-363.42,1.5789
8939,19.1,0.72727,0,4.4715e-05,446.84,3.0948e-05,211.91,3.513e-06,5.7772,-3.7288e-05,-300.79,1.5782
8940,19.1,0.54545,0,3.3415e-05,333.91,2.1718e-05,139.31,3.8804e-06,5.2877,-2.8871e-05,-240.79,1.5775
8941,19.1,0.36364,0,2.3013e-05,229.97,1.3626e-05,78.824,3.824e-06,5.1715,-2.0681e-05,-178.95,1.5768
8942,19.1,0.18182,0,1.2471e-05,124.63,6.3445e-06,29.894,2.9089e-06,4.0802,-1.1691e-05,-105.62,1.5762
8943,19.1,2,0,0.00061276,6123.3,0.00034022,1639,0.00010147,-154.81,-0.00056746,-5180.9,1.583
8944,19.267,0.18182,0,9.3498e-06,93.433,4.1203e-06,13.749,2.5466e-06,1.9251,-9.0268e-06,-85.033,1.6029
8945,19.267,0.36364,0,1.729e-05,172.78,8.2484e-06,33.025,4.2615e-06,3.0697,-1.648e-05,-152.77,1.6031
8946,19.267,0.54545,0,2.487e-05,248.53,1.2548e-05,55.463,5.5846e-06,3.1402,-2.3456e-05,-215.06,1.6033
8947,19.267,0.72727,0,3.2987e-05,329.65,1.7292e-05,81.55,6.9134e-06,3.5665,-3.084e-05,-280.1,1.6036
8948,19.267,0.90909,0,4.2219e-05,421.9,2.2778e-05,112.56,8.3634e-06,4.2543,-3.9175e-05,-352.93,1.6038
8949,19.267,1.0909,0,5.3301e-05,532.64,2.9449e-05,150.86,1.0024e-05,4.9058,-4.9129e-05,-439.55,1.6041
8950,19.267,1.2727,0,6.7379e-05,673.33,3.7912e-05,200.31,1.2234e-05,7.3745,-6.1738e-05,-548.42,1.6044
8951,19.267,1.4545,0,8.7222e-05,871.62,5.0411e-05,275.36,1.4668e-05,6.7972,-7.926e-05,-698.94,1.6047
8952,19.267,1.6364,0,0.0001123,1122.2,6.2781e-05,336.85,2.1575e-05,27.248,-0.00010285,-907.63,1.605
8953,19.267,1.8182,0,0.00019613,1959.9,0.00013125,849.56,1.7217e-05,-7.2306,-0.0001672,-1392.8,1.6054
8954,19.267,2,0,0.0005523,5519.2,0.00024492,510.35,0.00011767,-445.73,-0.00054495,-5424.4,1.6059
8955,19.1,4.1818,0,0.00025679,2566.1,0.0002161,1771.6,-2.0371e-05,-5.1785,-0.00017545,-1170.4,1.5823
8956,19.1,4.3636,0,0.00014952,1494.2,0.00011909,943.29,-2.0148e-06,33.359,-0.00011042,-781.19,1.5816
8957,19.1,4.5455,0,0.0001169,1168.2,9.2482e-05,719.54,-2.1379e-06,8.5984,-8.6962e-05,-628.74,1.581
8958,19.1,4.7273,0,9.1322e-05,912.59,7.0472e-05,537.16,3.527e-07,10.306,-6.9775e-05,-516.61,1.5803
8959,19.1,4.9091,0,7.2622e-05,725.72,5.4519e-05,404.15,1.6886e-06,7.1993,-5.696e-05,-433.46,1.5796
8960,19.1,5.0909,0,5.7514e-05,574.75,4.1676e-05,298.71,2.7957e-06,6.585,-4.6449e-05,-363.42,1.5789
8961,19.1,5.2727,0,4.4715e-05,446.84,3.0948e-05,211.91,3.513e-06,5.7772,-3.7288e-05,-300.79,1.5782
8962,19.1,5.4545,0,3.3415e-05,333.91,2.1718e-05,139.31,3.8804e-06,5.2877,-2.8871e-05,-240.79,1.5775
8963,19.1,5.6364,0,2.3013e-05,229.97,1.3626e-05,78.824,3.8239e-06,5.1715,-2.0681e-05,-178.95,1.5768
8964,19.1,5.8182,0,1.2471e-05,124.63,6.3445e-06,29.894,2.9089e-06,4.0802,-1.1691e-05,-105.62,1.5762
8965,19.1,4,0,0.00061276,6123.3,0.00034022,1639,0.00010147,-154.81,-0.00056746,-5180.9,1.583
8966,19.267,5.8182,0,9.3498e-06,93.433,4.1203e-06,13.749,2.5466e-06,1.9251,-9.0268e-06,-85.033,1.6029
8967,19.267,5.6364,0,1.729e-05,172.78,8.2484e-06,33.025,4.2615e-06,3.0697,-1.648e-05,-152.77,1.6031
8968,19.267,5.4545,0,2.487e-05,248.53,1.2548e-05,55.463,5.5846e-06,3.1402,-2.3456e-05,-215.06,1.6033
8969,19.267,5.2727,0,3.2987e-05,329.65,1.7292e-05,81.55,6.9134e-06,3.5665,-3.084e-05,-280.1,1.6036
8970,19.267,5.0909,0,4.2219e-05,421.9,2.2778e-05,112.56,8.3634e-06,4.2543,-3.9175e-05,-352.93,1.6038
8971,19.267,4.9091,0,5.3301e-05,532.64,2.9449e-05,150.86,1.0024e-05,4.9058,-4.9129e-05,-439.55,1.6041
8972,19.267,4.7273,0,6.7379e-05,673.33,3.7912e-05,200.31,1.2234e-05,7.3745,-6.1738e-05,-548.42,1.6044
8973,19.267,4.5455,0,8.7222e-05,871.62,5.0411e-05,275.36,1.4668e-05,6.7972,-7.926e-05,-698.94,1.6047
8974,19.267,4.3636,0,0.0001123,1122.2,6.2781e-05,336.85,2.1575e-05,27.248,-0.00010285,-907.63,1.605
8975,19.267,4.1818,0,0.00019613,1959.9,0.00013125,849.56,1.7217e-05,-7.2306,-0.0001672,-1392.8,1.6054
8976,19.267,4,0,0.0005523,5519.2,0.00024492,510.35,0.00011767,-445.74,-0.00054495,-5424.4,1.6059
8977,19.1,2.2727,0,0.00035967,3594.2,0.00016047,524.62,9.3843e-05,24.01,-0.00034771,-3293.6,1.5836
8978,19.183,2.1818,0,0.00039177,3915,0.00016485,452.54,0.00010916,34.126,-0.00038181,-3654.9,1.5948
8979,19.008,2.1818,0,0.00035002,3497.8,0.00016013,566.23,8.9293e-05,34.018,-0.00033675,-3167.1,1.571
8980,19.1,2.1818,0.05,2.6868e-05,268.5,2.0631e-05,155.02,-7.3679e-12,-0.00014541,-2.0631e-05,-155.02,1.5834
8981,19.1,2.0909,0,0.0004948,4944.5,0.0002515,1059.2,0.00010283,-57.858,-0.0004682,-4348.3,1.5832
8982,19.1,2.4545,0,0.00029719,2969.9,0.00013102,399.69,7.7206e-05,-4.6085,-0.0002884,-2751.6,1.5839
8983,19.183,2.3636,0,0.0003119,3116.8,0.00013519,387.68,8.2255e-05,-10.027,-0.00030356,-2908.9,1.5951
8984,19.008,2.3636,0,0.00029806,2978.6,0.0001332,421.91,7.6094e-05,-7.1701,-0.00028868,-2747.9,1.5713
8985,19.1,2.3636,0.05,3.9075e-06,39.048,3.0005e-06,22.544,-4.5619e-12,-8.1827e-05,-3.0005e-06,-22.545,1.5837
8986,19.1,2.6364,0,0.00026907,2688.8,0.00011717,346.01,7.1057e-05,-0.49411,-0.00026151,-2499.3,1.5841
8987,19.183,2.5455,0,0.00027572,2755.3,0.00011864,337.19,7.3798e-05,0.29105,-0.00026843,-2571.1,1.5954
8988,19.008,2.5455,0,0.00027018,2699.9,0.00011829,356.04,7.1005e-05,0.75463,-0.00026235,-2503.9,1.5715
8989,19.1,2.5455,0.05,1.8193e-06,18.18,1.397e-06,10.496,-2.6444e-12,-3.2948e-05,-1.397e-06,-10.496,1.584
8990,19.1,2.8182,0,0.0002554,2552.2,0.00011055,319.9,6.7865e-05,-0.83757,-0.00024845,-2377.5,1.5842
8991,19.183,2.7273,0,0.00025683,2566.5,0.00011012,308.49,6.8917e-05,-1.1045,-0.00025019,-2398.8,1.5955
8992,19.008,2.7273,0,0.0002551,2549.3,0.00011086,324.84,6.7488e-05,-1.0487,-0.00024803,-2371.7,1.5716
8993,19.1,2.7273,0.05,8.7344e-07,8.7283,6.7069e-07,5.0393,-2.1085e-12,-1.3978e-05,-6.7069e-07,-5.0393,1.5841
8994,19.1,3,0,0.00025132,2511.5,0.00010855,311.97,6.6949e-05,-0.59632,-0.00024456,-2341.1,1.5842
8995,19.183,2.9091,0,0.00024873,2485.6,0.00010634,295.22,6.6975e-05,-0.56184,-0.0002424,-2325.1,1.5956
8996,19.008,2.9091,0,0.00024839,2482.2,0.00010747,310.76,6.6055e-05,-0.43937,-0.00024164,-2312.4,1.5717
8997,19.1,2.9091,0.05,4.1724e-07,4.1695,3.2039e-07,2.4073,4.1039e-13,1.4117e-05,-3.2039e-07,-2.4073,1.5842
8998,19.1,3.1818,0,0.0002554,2552.2,0.00011055,319.9,6.7865e-05,-0.83757,-0.00024845,-2377.5,1.5842
8999,19.183,3.0909,0,0.00024873,2485.6,0.00010634,295.22,6.6975e-05,-0.56184,-0.0002424,-2325.1,1.5956
9000,19.008,3.0909,0,0.00024839,2482.2,0.00010747,310.76,6.6055e-05,-0.43937,-0.00024164,-2312.4,1.5717
9001,19.1,3.0909,0.05,4.1724e-07,4.1695,3.2039e-07,2.4073,4.7051e-12,5.944e-05,-3.2039e-07,-2.4072,1.5842
9002,19.1,3.3636,0,0.00026907,2688.8,0.00011717,346.01,7.1057e-05,-0.49411,-0.00026151,-2499.3,1.5841
9003,19.183,3.2727,0,0.00025683,2566.5,0.00011012,308.49,6.8917e-05,-1.1045,-0.00025019,-2398.8,1.5955
9004,19.008,3.2727,0,0.0002551,2549.3,0.00011086,324.84,6.7488e-05,-1.0487,-0.00024803,-2371.7,1.5716
9005,19.1,3.2727,0.05,8.7344e-07,8.7283,6.7069e-07,5.0394,8.088e-12,0.00010818,-6.7069e-07,-5.0393,1.5841
9006,19.1,3.5455,0,0.00029719,2969.9,0.00013102,399.69,7.7206e-05,-4.6085,-0.0002884,-2751.6,1.5839
9007,19.183,3.4545,0,0.00027572,2755.3,0.00011864,337.19,7.3798e-05,0.29105,-0.00026843,-2571.1,1.5954
9008,19.008,3.4545,0,0.00027018,2699.9,0.00011829,356.04,7.1005e-05,0.75463,-0.00026235,-2503.9,1.5715
9009,19.1,3.4545,0.05,1.8193e-06,18.18,1.397e-06,10.496,7.4343e-12,0.0001227,-1.397e-06,-10.496,1.584
9010,19.1,3.7273,0,0.00035967,3594.2,0.00016047,524.62,9.3843e-05,24.01,-0.00034771,-3293.6,1.5836
9011,19.183,3.6364,0,0.0003119,3116.8,0.00013519,387.68,8.2255e-05,-10.027,-0.00030356,-2908.9,1.5951
9012,19.008,3.6364,0,0.00029806,2978.6,0.0001332,421.91,7.6094e-05,-7.1701,-0.00028868,-2747.9,1.5713
9013,19.1,3.6364,0.05,3.9075e-06,39.048,3.0005e-06,22.545,1.1371e-11,0.00018296,-3.0005e-06,-22.544,1.5837
9014,19.183,3.8182,0,0.00039177,3915,0.00016485,452.54,0.00010916,34.126,-0.00038181,-3654.9,1.5948
9015,19.008,3.8182,0,0.00035002,3497.8,0.00016013,566.23,8.9293e-05,34.018,-0.00033675,-3167.1,1.571
9016,19.1,3.8182,0.05,2.6868e-05,268.5,2.0631e-05,155.02,1.6737e-11,0.00025827,-2.0631e-05,-155.02,1.5834
9017,19.1,3.9091,0,0.0004948,4944.5,0.0002515,1059.2,0.00010283,-57.858,-0.0004682,-4348.3,1.5832
9018,19.267,2.2727,0,0.00035055,3503.1,0.00014555,360.53,9.6991e-05,-4.3084,-0.00034306,-3310.7,1.6064
9019,19.358,2.1818,0,0.0003332,3329.7,0.0001315,252.18,9.5958e-05,-14.861,-0.00032836,-3203,1.6188
9020,19.267,2.1818,0.05,2.1075e-05,210.61,1.6183e-05,121.59,1.1556e-12,-4.7158e-05,-1.6183e-05,-121.59,1.6062
9021,19.267,2.0909,0,0.00045992,4596,0.00019308,371.54,0.00011346,-226.7,-0.00045452,-4494.3,1.6061
9022,19.267,2.4545,0,0.00029233,2921.2,0.00012438,336.99,7.8852e-05,-5.0902,-0.00028517,-2740.2,1.6067
9023,19.358,2.3636,0,0.00028804,2878.4,0.00011846,279.62,8.0169e-05,-8.1002,-0.00028234,-2731.9,1.6191
9024,19.267,2.3636,0.05,4.6264e-06,46.233,3.5525e-06,26.692,2.7781e-12,-3.3737e-05,-3.5525e-06,-26.692,1.6065
9025,19.267,2.6364,0,0.00026395,2637.7,0.00011197,302.56,7.166e-05,-0.30437,-0.0002575,-2473.5,1.6069
9026,19.358,2.5455,0,0.00025981,2596.3,0.0001071,260.01,7.2605e-05,0.81576,-0.0002544,-2456.2,1.6193
9027,19.267,2.5455,0.05,2.1807e-06,21.792,1.6745e-06,12.582,4.2862e-12,7.6187e-06,-1.6745e-06,-12.582,1.6068
9028,19.267,2.8182,0,0.00025023,2500.6,0.00010596,284.16,6.803e-05,-0.80643,-0.00024419,-2346.7,1.607
9029,19.358,2.7273,0,0.00024458,2444.1,0.00010122,248.62,6.8e-05,-0.94532,-0.00023941,-2310.7,1.6194
9030,19.267,2.7273,0.05,1.254e-06,12.532,9.6294e-07,7.2351,6.2923e-12,3.6264e-05,-9.6294e-07,-7.2352,1.6069
9031,19.267,3,0,0.00024612,2459.5,0.0001041,278.23,6.7002e-05,-0.50778,-0.0002402,-2308.7,1.607
9032,19.358,2.9091,0,0.00023776,2376,9.8404e-05,242.17,6.6136e-05,-0.27862,-0.00023272,-2245.7,1.6195
9033,19.267,2.9091,0.05,8.8455e-07,8.8394,6.7923e-07,5.1035,3.4514e-12,4.8388e-05,-6.7923e-07,-5.1034,1.607
9034,19.267,3.1818,0,0.00025023,2500.6,0.00010596,284.16,6.803e-05,-0.80643,-0.00024419,-2346.7,1.607
9035,19.358,3.0909,0,0.00023776,2376,9.8404e-05,242.17,6.6136e-05,-0.27862,-0.00023272,-2245.7,1.6195
9036,19.267,3.0909,0.05,8.8455e-07,8.8394,6.7923e-07,5.1035,-3.426e-13,3.4294e-05,-6.7923e-07,-5.1034,1.607
9037,19.267,3.3636,0,0.00026395,2637.7,0.00011197,302.56,7.166e-05,-0.30437,-0.0002575,-2473.5,1.6069
9038,19.358,3.2727,0,0.00024458,2444.1,0.00010122,248.62,6.8e-05,-0.94532,-0.00023941,-2310.7,1.6194
9039,19.267,3.2727,0.05,1.254e-06,12.532,9.6294e-07,7.2352,-4.6002e-14,5.5045e-05,-9.6294e-07,-7.2351,1.6069
9040,19.267,3.5455,0,0.00029233,2921.2,0.00012438,336.99,7.8852e-05,-5.0902,-0.00028517,-2740.2,1.6067
9041,19.358,3.4545,0,0.00025981,2596.3,0.0001071,260.01,7.2605e-05,0.81576,-0.0002544,-2456.2,1.6193
9042,19.267,3.4545,0.05,2.1807e-06,21.792,1.6745e-06,12.582,-1.1138e-12,7.0404e-05,-1.6745e-06,-12.582,1.6068
9043,19.267,3.7273,0,0.00035055,3503.1,0.00014555,360.53,9.6991e-05,-4.3084,-0.00034306,-3310.7,1.6064
9044,19.358,3.6364,0,0.00028804,2878.4,0.00011846,279.62,8.0169e-05,-8.1002,-0.00028234,-2731.9,1.6191
9045,19.267,3.6364,0.05,4.6264e-06,46.233,3.5525e-06,26.692,9.7582e-12,0.0001728,-3.5525e-06,-26.692,1.6065
9046,19.358,3.8182,0,0.0003332,3329.7,0.0001315,252.18,9.5958e-05,-14.861,-0.00032836,-3203,1.6188
9047,19.267,3.8182,0.05,2.1075e-05,210.61,1.6183e-05,121.59,6.7684e-12,0.00019459,-1.6183e-05,-121.59,1.6062
9048,19.267,3.9091,0,0.00045992,4596,0.00019308,371.54,0.00011346,-226.7,-0.00045452,-4494.3,1.6061
9049,18.916,5.7273,0,2.9317e-05,292.96,1.5228e-05,67.267,5.8902e-06,-2.8949,-2.7584e-05,-254.41,1.5523
9050,18.825,5.8182,0,2.988e-05,298.59,1.2503e-05,30.769,8.0933e-06,-2.3613,-2.9258e-05,-283,1.5399
9051,18.916,5.8182,0.05,3.1881e-06,31.859,2.4481e-06,18.394,4.5691e-13,5.8178e-06,-2.4481e-06,-18.394,1.552
9052,18.916,5.9091,0,1.8896e-05,188.83,7.6644e-06,15.533,5.1844e-06,-3.1015,-1.8616e-05,-181.92,1.5517
9053,19.008,5.8182,0,1.6224e-05,162.12,7.1268e-06,22.161,4.2956e-06,0.88882,-1.5726e-05,-149.55,1.5641
9054,18.916,5.5455,0,4.2515e-05,424.86,2.5133e-05,138.92,6.4182e-06,-1.6975,-3.8397e-05,-338.42,1.553
9055,18.825,5.6364,0,3.8542e-05,385.15,1.8895e-05,75.624,8.7038e-06,-0.94587,-3.6696e-05,-342.06,1.5406
9056,18.916,5.6364,0.05,2.8939e-06,28.919,2.2222e-06,16.697,-6.2584e-14,1.8227e-06,-2.2222e-06,-16.697,1.5526
9057,19.008,5.6364,0,2.7012e-05,269.93,1.4949e-05,75.887,4.9674e-06,0.89001,-2.4912e-05,-223.61,1.5647
9058,18.916,5.3636,0,5.8202e-05,581.62,3.7389e-05,230.93,6.4578e-06,-1.4775,-5.0703e-05,-430.96,1.5536
9059,18.825,5.4545,0,5.1157e-05,511.22,2.8778e-05,148.56,8.9236e-06,-0.61617,-4.698e-05,-420.65,1.5412
9060,18.916,5.4545,0.05,3.0371e-06,30.35,2.3321e-06,17.523,3.1522e-13,5.0302e-07,-2.3321e-06,-17.523,1.5533
9061,19.008,5.4545,0,3.923e-05,392.03,2.4488e-05,146.79,5.0307e-06,0.5967,-3.462e-05,-297.33,1.5654
9062,18.916,5.1818,0,7.6016e-05,759.64,5.1498e-05,338.77,6.224e-06,-1.4054,-6.4328e-05,-531.5,1.5543
9063,18.825,5.2727,0,6.6264e-05,662.18,4.0701e-05,238.2,8.9369e-06,-0.46081,-5.8909e-05,-510.23,1.5418
9064,18.916,5.2727,0.05,3.3382e-06,33.359,2.5633e-06,19.26,6.0256e-13,1.4789e-06,-2.5633e-06,-19.26,1.5539
9065,19.008,5.2727,0,5.2763e-05,527.26,3.5368e-05,230.7,4.7414e-06,0.58493,-4.4914e-05,-372.51,1.5661
9066,18.916,5,0,9.6547e-05,964.8,6.7818e-05,464.31,5.8035e-06,-1.6389,-7.9826e-05,-645.02,1.5549
9067,18.825,5.0909,0,8.3768e-05,837.1,5.4473e-05,342.34,8.8556e-06,-0.40607,-7.2508e-05,-611.74,1.5425
9068,18.916,5.0909,0.05,3.7979e-06,37.953,2.9164e-06,21.912,4.1368e-13,4.4824e-06,-2.9164e-06,-21.912,1.5546
9069,19.008,5.0909,0,6.8075e-05,680.28,4.7862e-05,328.97,4.1725e-06,0.70036,-5.6238e-05,-453.2,1.5667
9070,18.916,4.8182,0,0.00012099,1209,8.715e-05,613.08,5.3566e-06,-1.483,-9.8229e-05,-779.78,1.5556
9071,18.825,4.9091,0,0.00010417,1041,7.0362e-05,462.02,8.7944e-06,-0.58229,-8.8298e-05,-730.09,1.5431
9072,18.916,4.9091,0.05,4.4569e-06,44.539,3.4224e-06,25.714,1.5858e-12,2.1091e-05,-3.4224e-06,-25.714,1.5552
9073,19.008,4.9091,0,8.5972e-05,859.13,6.2573e-05,445.6,3.2973e-06,0.22624,-6.9236e-05,-544.76,1.5674
9074,18.916,4.6364,0,0.00015154,1514.3,0.00011098,793.27,4.918e-06,-3.5986,-0.00012145,-953.1,1.5562
9075,18.825,4.7273,0,0.00012854,1284.5,8.8976e-05,600.59,9.0197e-06,-0.17682,-0.00010731,-874.26,1.5437
9076,18.916,4.7273,0.05,5.4944e-06,54.906,4.219e-06,31.7,3.038e-12,1.6543e-05,-4.219e-06,-31.7,1.5559
9077,19.008,4.7273,0,0.0001078,1077.3,8.0428e-05,588.21,2.4033e-06,1.9591,-8.5039e-05,-655.05,1.5681
9078,18.916,4.4545,0,0.00019271,1925.8,0.00014223,1027.4,5.5491e-06,0.45124,-0.00015344,-1194.1,1.5568
9079,18.825,4.5455,0,0.0001585,1583.9,0.00011107,758.38,9.7691e-06,-2.718,-0.00013127,-1062.4,1.5443
9080,18.916,4.5455,0.05,6.8038e-06,67.991,5.2245e-06,39.255,4.6651e-12,4.7466e-05,-5.2245e-06,-39.255,1.5565
9081,19.008,4.5455,0,0.00013651,1364.1,0.00010404,773.45,4.1416e-07,-5.1814,-0.00010559,-801.69,1.5687
9082,18.916,4.2727,0,0.00025085,2506.8,0.00018103,1270.8,1.014e-05,-13.206,-0.00020342,-1617.8,1.5574
9083,18.825,4.3636,0,0.00019695,1968.2,0.00013767,941.72,1.296e-05,4.7252,-0.00016333,-1319.9,1.5448
9084,18.916,4.3636,0.05,1.0317e-05,103.1,7.9221e-06,59.524,1.185e-11,0.00010133,-7.9221e-06,-59.524,1.5571
9085,19.008,4.3636,0,0.00017468,1745.6,0.00013321,1004.5,2.304e-06,20.942,-0.00013502,-1010.9,1.5694
9086,18.916,4.0909,0,0.0003059,3056.9,0.00020014,1217.1,2.5421e-05,-95.701,-0.00026488,-2276.9,1.5579
9087,18.825,4.1818,0,0.00024811,2479.4,0.00016611,1073.1,2.1416e-05,-14.048,-0.00021151,-1764.2,1.5453
9088,18.916,4.1818,0.05,2.0288e-05,202.74,1.5578e-05,117.05,1.9974e-11,0.00021178,-1.5578e-05,-117.05,1.5576
9089,19.008,4.1818,0,0.000251,2508.3,0.00019923,1502.1,-1.2961e-05,-92.213,-0.00018556,-1389.1,1.57
9090,18.916,3.9091,0,0.00031391,3136.9,0.00017097,801.64,5.5037e-05,-69.46,-0.00029224,-2678.8,1.5583
9091,18.825,4,0,0.00028083,2806.3,0.00016318,848.83,4.1162e-05,-67.952,-0.00025607,-2301.2,1.5458
9092,18.916,4,0.05,3.6522e-05,364.97,2.8044e-05,210.71,1.4535e-11,0.00017381,-2.8044e-05,-210.71,1.5581
9093,19.008,4,0,0.0004642,4638.8,0.00025797,1261.7,7.8519e-05,-86.574,-0.00042926,-3901.8,1.5705
9094,18.916,3.7273,0,0.00029303,2928.3,0.00013678,493,7.1401e-05,1.7639,-0.00028151,-2649.8,1.5587
9095,18.825,3.8182,0,0.000272,2718.1,0.0001306,508.06,6.4247e-05,9.4942,-0.00025974,-2424.8,1.5461
9096,18.916,3.8182,0.05,1.4291e-05,142.81,1.0974e-05,82.452,-2.0012e-12,7.9218e-05,-1.0974e-05,-82.451,1.5585
9097,18.916,3.5455,0,0.0002722,2720.2,0.00012145,385.56,6.9891e-05,-1.8206,-0.0002636,-2507.5,1.5589
9098,18.825,3.6364,0,0.000261,2608.2,0.00011758,382.98,6.6179e-05,-3.2237,-0.00025238,-2396.8,1.5464
9099,18.916,3.6364,0.05,6.2796e-06,62.752,4.8219e-06,36.23,3.5996e-12,9.8933e-05,-4.8219e-06,-36.23,1.5588
9100,18.916,3.3636,0,0.00025658,2564,0.00011228,337.15,6.7437e-05,0.21099,-0.00024917,-2378.7,1.5591
9101,18.825,3.4545,0,0.00024969,2495.2,0.00010928,328.68,6.5655e-05,0.87712,-0.00024246,-2314.2,1.5466
9102,18.916,3.4545,0.05,3.3601e-06,33.577,2.5801e-06,19.386,3.2576e-12,7.7527e-05,-2.5801e-06,-19.386,1.559
9103,18.916,3.1818,0,0.00024817,2479.9,0.00010784,316.12,6.568e-05,-0.63876,-0.00024128,-2307,1.5592
9104,18.825,3.2727,0,0.00024232,2421.6,0.00010497,304.58,6.4357e-05,-0.55298,-0.00023571,-2255.1,1.5468
9105,18.916,3.2727,0.05,1.9232e-06,19.219,1.4768e-06,11.096,3.083e-12,5.666e-05,-1.4768e-06,-11.096,1.5592
9106,18.916,3,0,0.00024546,2452.9,0.00010639,309.51,6.5162e-05,-0.27053,-0.00023873,-2283.6,1.5593
9107,18.825,3.0909,0,0.00023865,2384.8,0.00010288,294.08,6.372e-05,-0.18966,-0.00023228,-2224.2,1.5468
9108,18.916,3.0909,0.05,1.4187e-06,14.177,1.0894e-06,8.1851,2.4815e-12,4.3872e-05,-1.0894e-06,-8.1851,1.5592
9109,18.916,2.8182,0,0.00024817,2479.9,0.00010784,316.12,6.568e-05,-0.63876,-0.00024128,-2307,1.5592
9110,18.825,2.9091,0,0.00023865,2384.8,0.00010288,294.08,6.372e-05,-0.18966,-0.00023228,-2224.2,1.5468
9111,18.916,2.9091,0.05,1.4187e-06,14.177,1.0894e-06,8.1851,1.1511e-12,2.4835e-05,-1.0894e-06,-8.1851,1.5592
9112,18.916,2.6364,0,0.00025658,2564,0.00011228,337.15,6.7437e-05,0.21099,-0.00024917,-2378.7,1.5591
9113,18.825,2.7273,0,0.00024232,2421.6,0.00010497,304.58,6.4357e-05,-0.55298,-0.00023571,-2255.1,1.5468
9114,18.916,2.7273,0.05,1.9232e-06,19.219,1.4768e-06,11.096,4.6825e-13,3.928e-06,-1.4768e-06,-11.096,1.5592
9115,18.916,2.4545,0,0.0002722,2720.2,0.00012145,385.56,6.9891e-05,-1.8206,-0.0002636,-2507.5,1.5589
9116,18.825,2.5455,0,0.00024969,2495.2,0.00010928,328.68,6.5655e-05,0.87712,-0.00024246,-2314.2,1.5466
9117,18.916,2.5455,0.05,3.3601e-06,33.577,2.5801e-06,19.386,7.2888e-14,-1.8282e-05,-2.5801e-06,-19.386,1.559
9118,18.916,2.2727,0,0.00029303,2928.3,0.00013678,493,7.1401e-05,1.7639,-0.00028151,-2649.8,1.5587
9119,18.825,2.3636,0,0.000261,2608.2,0.00011758,382.98,6.6179e-05,-3.2237,-0.00025238,-2396.8,1.5464
9120,18.916,2.3636,0.05,6.2796e-06,62.752,4.8219e-06,36.23,-3.6125e-12,-3.795e-05,-4.8219e-06,-36.23,1.5588
9121,18.916,2.0909,0,0.00031391,3136.9,0.00017097,801.64,5.5037e-05,-69.46,-0.00029224,-2678.8,1.5583
9122,18.825,2.1818,0,0.000272,2718.1,0.0001306,508.06,6.4247e-05,9.4942,-0.00025974,-2424.8,1.5461
9123,18.916,2.1818,0.05,1.4291e-05,142.81,1.0974e-05,82.451,1.9108e-12,-2.9119e-05,-1.0974e-05,-82.452,1.5585
9124,18.916,1.9091,0,0.0003059,3056.9,0.00020014,1217.1,2.5421e-05,-95.701,-0.00026488,-2276.9,1.5579
9125,18.825,2,0,0.00028083,2806.3,0.00016318,848.83,4.1162e-05,-67.952,-0.00025607,-2301.2,1.5458
9126,18.916,2,0.05,3.6522e-05,364.97,2.8044e-05,210.71,-6.3101e-12,-0.00012679,-2.8044e-05,-210.71,1.5581
9127,19.008,2,0,0.0004642,4638.8,0.00025797,1261.7,7.852e-05,-86.574,-0.00042926,-3901.8,1.5705
9128,18.916,1.7273,0,0.00025085,2506.8,0.00018103,1270.8,1.014e-05,-13.206,-0.00020342,-1617.8,1.5574
9129,18.825,1.8182,0,0.00024811,2479.4,0.00016611,1073.1,2.1416e-05,-14.048,-0.00021151,-1764.2,1.5453
9130,18.916,1.8182,0.05,2.0288e-05,202.74,1.5578e-05,117.05,-1.1871e-11,-0.00012617,-1.5578e-05,-117.05,1.5576
9131,19.008,1.8182,0,0.000251,2508.3,0.00019923,1502.1,-1.2961e-05,-92.213,-0.00018556,-1389.1,1.57
9132,18.916,1.5455,0,0.00019271,1925.8,0.00014223,1027.4,5.5491e-06,0.45123,-0.00015344,-1194.1,1.5568
9133,18.825,1.6364,0,0.00019695,1968.2,0.00013767,941.72,1.296e-05,4.7252,-0.00016333,-1319.9,1.5448
9134,18.916,1.6364,0.05,1.0317e-05,103.1,7.9221e-06,59.524,-8.8927e-12,-6.4827e-05,-7.9221e-06,-59.524,1.5571
9135,19.008,1.6364,0,0.00017468,1745.6,0.00013321,1004.5,2.304e-06,20.942,-0.00013502,-1010.9,1.5694
9136,18.916,1.3636,0,0.00015154,1514.3,0.00011098,793.27,4.918e-06,-3.5986,-0.00012145,-953.11,1.5562
9137,18.825,1.4545,0,0.0001585,1583.9,0.00011107,758.38,9.7691e-06,-2.718,-0.00013127,-1062.4,1.5443
9138,18.916,1.4545,0.05,6.8038e-06,67.991,5.2245e-06,39.255,-2.3923e-12,-3.8132e-05,-5.2245e-06,-39.255,1.5565
9139,19.008,1.4545,0,0.00013651,1364.1,0.00010404,773.45,4.1417e-07,-5.1814,-0.0001056,-801.69,1.5687
9140,18.916,1.1818,0,0.00012099,1209,8.715e-05,613.08,5.3566e-06,-1.483,-9.8229e-05,-779.78,1.5556
9141,18.825,1.2727,0,0.00012854,1284.5,8.8976e-05,600.59,9.0197e-06,-0.17682,-0.00010731,-874.26,1.5437
9142,18.916,1.2727,0.05,5.4944e-06,54.906,4.219e-06,31.7,-1.7704e-12,-1.4342e-05,-4.219e-06,-31.7,1.5559
9143,19.008,1.2727,0,0.0001078,1077.3,8.0428e-05,588.21,2.4033e-06,1.9591,-8.5039e-05,-655.05,1.5681
9144,18.916,1,0,9.6547e-05,964.8,6.7818e-05,464.31,5.8035e-06,-1.6389,-7.9826e-05,-645.02,1.5549
9145,18.825,1.0909,0,0.00010417,1041,7.0362e-05,462.02,8.7944e-06,-0.58229,-8.8298e-05,-730.09,1.5431
9146,18.916,1.0909,0.05,4.4569e-06,44.539,3.4224e-06,25.714,-5.8123e-13,-1.3749e-05,-3.4224e-06,-25.714,1.5552
9147,19.008,1.0909,0,8.5972e-05,859.13,6.2573e-05,445.6,3.2974e-06,0.22624,-6.9236e-05,-544.76,1.5674
9148,18.916,0.81818,0,7.6016e-05,759.64,5.1498e-05,338.77,6.224e-06,-1.4054,-6.4328e-05,-531.5,1.5543
9149,18.825,0.90909,0,8.3768e-05,837.1,5.4473e-05,342.34,8.8556e-06,-0.40607,-7.2508e-05,-611.74,1.5425
9150,18.916,0.90909,0.05,3.7979e-06,37.953,2.9164e-06,21.912,-1.0373e-12,-7.0499e-06,-2.9164e-06,-21.912,1.5546
9151,19.008,0.90909,0,6.8075e-05,680.28,4.7862e-05,328.97,4.1725e-06,0.70036,-5.6238e-05,-453.2,1.5667
9152,18.916,0.63636,0,5.8202e-05,581.62,3.7389e-05,230.93,6.4578e-06,-1.4775,-5.0703e-05,-430.96,1.5536
9153,18.825,0.72727,0,6.6264e-05,662.18,4.0701e-05,238.2,8.9369e-06,-0.46081,-5.8909e-05,-510.23,1.5418
9154,18.916,0.72727,0.05,3.3382e-06,33.359,2.5633e-06,19.26,-8.1335e-13,-2.7064e-06,-2.5633e-06,-19.26,1.5539
9155,19.008,0.72727,0,5.2763e-05,527.26,3.5368e-05,230.7,4.7414e-06,0.58493,-4.4914e-05,-372.51,1.5661
9156,18.916,0.45455,0,4.2515e-05,424.86,2.5133e-05,138.92,6.4182e-06,-1.6975,-3.8397e-05,-338.42,1.553
9157,18.825,0.54545,0,5.1157e-05,511.22,2.8778e-05,148.56,8.9237e-06,-0.61617,-4.698e-05,-420.65,1.5412
9158,18.916,0.54545,0.05,3.0371e-06,30.35,2.3321e-06,17.523,5.5021e-13,-3.7562e-07,-2.3321e-06,-17.523,1.5533
9159,19.008,0.54545,0,3.923e-05,392.03,2.4488e-05,146.79,5.0307e-06,0.5967,-3.462e-05,-297.33,1.5654
9160,18.916,0.27273,0,2.9317e-05,292.96,1.5228e-05,67.267,5.8902e-06,-2.8949,-2.7584e-05,-254.41,1.5523
9161,18.825,0.36364,0,3.8542e-05,385.15,1.8895e-05,75.624,8.7038e-06,-0.94587,-3.6696e-05,-342.06,1.5406
9162,18.916,0.36364,0.05,2.8939e-06,28.919,2.2222e-06,16.697,4.3257e-13,3.5148e-06,-2.2222e-06,-16.697,1.5526
9163,19.008,0.36364,0,2.7012e-05,269.93,1.4949e-05,75.887,4.9674e-06,0.89001,-2.4912e-05,-223.61,1.5647
9164,18.825,0.18182,0,2.988e-05,298.59,1.2503e-05,30.769,8.0933e-06,-2.3613,-2.9258e-05,-283,1.5399
9165,18.916,0.18182,0.05,3.1881e-06,31.859,2.4481e-06,18.394,6.5862e-13,5.5568e-06,-2.4481e-06,-18.394,1.552
9166,18.916,0.090909,0,1.8896e-05,188.83,7.6644e-06,15.533,5.1844e-06,-3.1015,-1.8616e-05,-181.92,1.5517
9167,19.008,0.18182,0,1.6224e-05,162.12,7.1268e-06,22.161,4.2956e-06,0.88882,-1.5726e-05,-149.55,1.5641
9168,18.733,5.7273,0,4.053e-05,405.02,1.7248e-05,47.236,1.0976e-05,0.10712,-3.9518e-05,-379.29,1.5281
9169,18.641,5.8182,0,4.4643e-05,446.12,1.7104e-05,28.748,1.3297e-05,0.14114,-4.4082e-05,-430.98,1.5157
9170,18.733,5.8182,0.05,3.0121e-06,30.1,2.3129e-06,17.379,4.0309e-13,4.7469e-06,-2.3129e-06,-17.379,1.5278
9171,18.733,5.9091,0,3.4486e-05,344.62,1.2446e-05,12.92,1.0748e-05,0.16232,-3.4246e-05,-337.9,1.5275
9172,18.733,5.5455,0,4.9275e-05,492.41,2.4131e-05,97.221,1.1234e-05,0.31985,-4.6895e-05,-436.44,1.5288
9173,18.641,5.6364,0,5.0465e-05,504.3,2.179e-05,62.719,1.3463e-05,0.14859,-4.9103e-05,-469.95,1.5164
9174,18.733,5.6364,0.05,2.7179e-06,27.16,2.087e-06,15.681,5.4675e-13,6.9649e-06,-2.087e-06,-15.681,1.5284
9175,18.733,5.3636,0,6.1475e-05,614.33,3.3755e-05,168.35,1.1408e-05,0.43903,-5.6857e-05,-512.47,1.5294
9176,18.641,5.4545,0,5.9875e-05,598.33,2.9303e-05,117.8,1.3652e-05,0.20278,-5.6993e-05,-530.6,1.517
9177,18.733,5.4545,0.05,2.7652e-06,27.633,2.1233e-06,15.954,1.023e-12,1.1451e-05,-2.1233e-06,-15.954,1.5291
9178,18.733,5.1818,0,7.6375e-05,763.22,4.538e-05,254.59,1.1566e-05,0.52333,-6.8792e-05,-603.26,1.53
9179,18.641,5.2727,0,7.2166e-05,721.16,3.8943e-05,188.57,1.3876e-05,0.23499,-6.7084e-05,-608.07,1.5176
9180,18.733,5.2727,0.05,2.9225e-06,29.205,2.2441e-06,16.862,8.6898e-13,1.1349e-05,-2.2441e-06,-16.862,1.5297
9181,18.733,5,0,9.396e-05,938.95,5.8849e-05,353.81,1.184e-05,0.60162,-8.2805e-05,-710.53,1.5306
9182,18.641,5.0909,0,8.7036e-05,869.76,5.033e-05,271.52,1.4224e-05,0.2377,-7.9177e-05,-701.55,1.5182
9183,18.733,5.0909,0.05,3.183e-06,31.808,2.4442e-06,18.365,1.3078e-12,1.8099e-05,-2.4442e-06,-18.365,1.5303
9184,18.733,4.8182,0,0.00011472,1146.5,7.431e-05,465.46,1.2445e-05,0.62973,-9.9491e-05,-840.41,1.5312
9185,18.641,4.9091,0,0.00010452,1044.5,6.3309e-05,364.24,1.4861e-05,0.22542,-9.345e-05,-813.59,1.5188
9186,18.733,4.9091,0.05,3.562e-06,35.596,2.7352e-06,20.551,1.9276e-12,2.6628e-05,-2.7352e-06,-20.551,1.5309
9187,18.733,4.6364,0,0.00013925,1391.6,9.1687e-05,585.38,1.3855e-05,0.58413,-0.00011974,-1003.2,1.5318
9188,18.641,4.7273,0,0.00012494,1248.6,7.7798e-05,463.95,1.6072e-05,0.16405,-0.00011041,-950.16,1.5193
9189,18.733,4.7273,0.05,4.05e-06,40.472,3.1099e-06,23.366,1.8854e-12,3.1817e-05,-3.1099e-06,-23.366,1.5315
9190,18.733,4.4545,0,0.00016819,1680.7,0.00011029,701.12,1.7151e-05,1.3365,-0.00014493,-1216.4,1.5323
9191,18.641,4.5455,0,0.0001484,1483,9.3203e-05,561.87,1.8444e-05,0.15829,-0.00013063,-1119.9,1.5199
9192,18.733,4.5455,0.05,4.9258e-06,49.224,3.7824e-06,28.419,4.7708e-12,5.1473e-05,-3.7824e-06,-28.419,1.5321
9193,18.733,4.2727,0,0.00019896,1988.3,0.00012585,767.33,2.4237e-05,3.8921,-0.00017452,-1489.5,1.5328
9194,18.641,4.3636,0,0.00017466,1745.4,0.00010812,639.78,2.2952e-05,-0.14168,-0.00015474,-1335.3,1.5204
9195,18.733,4.3636,0.05,4.5724e-06,45.693,3.5111e-06,26.381,9.8835e-12,0.00010457,-3.5111e-06,-26.381,1.5326
9196,18.733,4.0909,0,0.00022162,2214.7,0.00012815,697.39,3.6891e-05,11.711,-0.00020144,-1779.1,1.5333
9197,18.641,4.1818,0,0.00019909,1989.6,0.00011687,645.11,3.1311e-05,2.2692,-0.00018013,-1586.4,1.5208
9198,18.733,4.1818,0.05,6.259e-06,62.547,4.8062e-06,36.112,2.1507e-11,0.00022884,-4.8062e-06,-36.112,1.533
9199,18.733,3.9091,0,0.00023436,2342,0.00011962,531.34,5.0744e-05,13.801,-0.00022076,-2026.2,1.5336
9200,18.641,4,0,0.00021409,2139.4,0.00011303,530.83,4.3369e-05,7.4047,-0.00020007,-1821.7,1.5212
9201,18.733,4,0.05,5.1045e-06,51.009,3.9196e-06,29.45,4.3461e-12,6.7486e-05,-3.9196e-06,-29.45,1.5335
9202,18.733,3.7273,0,0.00023905,2388.9,0.00011074,393.09,5.8973e-05,4.1274,-0.00022991,-2166.4,1.5339
9203,18.641,3.8182,0,0.00022231,2221.5,0.00010539,395.68,5.3193e-05,3.5115,-0.0002129,-1995.8,1.5215
9204,18.733,3.8182,0.05,6.9984e-06,69.935,5.3739e-06,40.377,-8.4827e-13,5.8677e-05,-5.3739e-06,-40.377,1.5338
9205,18.733,3.5455,0,0.00023824,2380.7,0.00010522,324.68,6.1936e-05,-0.57055,-0.00023105,-2202,1.5342
9206,18.641,3.6364,0,0.00022555,2253.9,0.00010028,315.88,5.8229e-05,-0.050834,-0.00021851,-2079.3,1.5218
9207,18.733,3.6364,0.05,4.6302e-06,46.27,3.5554e-06,26.714,3.0299e-14,5.3383e-05,-3.5554e-06,-26.714,1.5341
9208,18.733,3.3636,0,0.00023535,2351.9,0.0001019,295.57,6.2573e-05,0.10128,-0.00022892,-2190.1,1.5343
9209,18.641,3.4545,0,0.00022574,2255.8,9.7545e-05,281.2,6.015e-05,0.2275,-0.00021964,-2102,1.5219
9210,18.733,3.4545,0.05,3.3886e-06,33.863,2.602e-06,19.551,3.2958e-13,5.1956e-05,-2.602e-06,-19.551,1.5343
9211,18.733,3.1818,0,0.00023273,2325.7,9.9951e-05,282.06,6.2397e-05,-0.10161,-0.00022665,-2171.9,1.5344
9212,18.641,3.2727,0,0.00022464,2244.8,9.5858e-05,264.69,6.0633e-05,0.023945,-0.00021896,-2100.7,1.5221
9213,18.733,3.2727,0.05,2.3605e-06,23.589,1.8126e-06,13.619,6.7784e-13,4.4049e-05,-1.8126e-06,-13.619,1.5344
9214,18.733,3,0,0.00023176,2316,9.9312e-05,278.15,6.2279e-05,-0.10444,-0.00022577,-2164.4,1.5345
9215,18.641,3.0909,0,0.00022379,2236.3,9.505e-05,258.13,6.0693e-05,-0.015736,-0.00021828,-2096.1,1.5221
9216,18.733,3.0909,0.05,1.9275e-06,19.261,1.4801e-06,11.121,7.8795e-13,2.9599e-05,-1.48e-06,-11.12,1.5345
9217,18.733,2.8182,0,0.00023273,2325.7,9.9951e-05,282.06,6.2397e-05,-0.10161,-0.00022665,-2171.9,1.5344
9218,18.641,2.9091,0,0.00022379,2236.3,9.505e-05,258.13,6.0693e-05,-0.015736,-0.00021828,-2096.1,1.5221
9219,18.733,2.9091,0.05,1.9275e-06,19.261,1.4801e-06,11.121,1.9339e-12,1.9938e-05,-1.48e-06,-11.121,1.5345
9220,18.733,2.6364,0,0.00023535,2351.9,0.0001019,295.57,6.2573e-05,0.10128,-0.00022892,-2190.1,1.5343
9221,18.641,2.7273,0,0.00022464,2244.8,9.5858e-05,264.69,6.0633e-05,0.023945,-0.00021896,-2100.7,1.5221
9222,18.733,2.7273,0.05,2.3605e-06,23.589,1.8126e-06,13.619,1.1216e-12,5.4396e-06,-1.8126e-06,-13.619,1.5344
9223,18.733,2.4545,0,0.00023824,2380.7,0.00010522,324.68,6.1936e-05,-0.57055,-0.00023105,-2202,1.5342
9224,18.641,2.5455,0,0.00022574,2255.8,9.7545e-05,281.2,6.015e-05,0.2275,-0.00021964,-2102,1.5219
9225,18.733,2.5455,0.05,3.3886e-06,33.863,2.602e-06,19.551,6.504e-13,-2.0142e-06,-2.602e-06,-19.551,1.5343
9226,18.733,2.2727,0,0.00023905,2388.9,0.00011074,393.09,5.8973e-05,4.1274,-0.00022991,-2166.4,1.5339
9227,18.641,2.3636,0,0.00022555,2253.9,0.00010028,315.88,5.8229e-05,-0.050834,-0.00021851,-2079.3,1.5218
9228,18.733,2.3636,0.05,4.6302e-06,46.27,3.5554e-06,26.714,4.6937e-13,-1.9227e-05,-3.5554e-06,-26.714,1.5341
9229,18.733,2.0909,0,0.00023436,2342,0.00011962,531.34,5.0744e-05,13.801,-0.00022076,-2026.2,1.5336
9230,18.641,2.1818,0,0.00022231,2221.5,0.00010539,395.68,5.3193e-05,3.5115,-0.0002129,-1995.8,1.5215
9231,18.733,2.1818,0.05,6.9984e-06,69.935,5.3739e-06,40.377,8.2716e-13,-2.7139e-05,-5.3739e-06,-40.377,1.5338
9232,18.733,1.9091,0,0.00022162,2214.7,0.00012815,697.39,3.6891e-05,11.711,-0.00020144,-1779.1,1.5333
9233,18.641,2,0,0.00021409,2139.4,0.00011303,530.83,4.3369e-05,7.4047,-0.00020007,-1821.7,1.5212
9234,18.733,2,0.05,5.1045e-06,51.009,3.9196e-06,29.45,-2.5578e-12,-3.4533e-05,-3.9196e-06,-29.45,1.5335
9235,18.733,1.7273,0,0.00019896,1988.3,0.00012585,767.33,2.4238e-05,3.8921,-0.00017452,-1489.5,1.5328
9236,18.641,1.8182,0,0.00019909,1989.6,0.00011687,645.11,3.1311e-05,2.2692,-0.00018013,-1586.4,1.5208
9237,18.733,1.8182,0.05,6.259e-06,62.547,4.8062e-06,36.112,-1.1312e-11,-9.2599e-05,-4.8062e-06,-36.112,1.533
9238,18.733,1.5455,0,0.00016819,1680.7,0.00011029,701.12,1.7151e-05,1.3365,-0.00014493,-1216.4,1.5323
9239,18.641,1.6364,0,0.00017466,1745.4,0.00010812,639.78,2.2952e-05,-0.14168,-0.00015474,-1335.3,1.5204
9240,18.733,1.6364,0.05,4.5724e-06,45.693,3.5111e-06,26.381,-4.542e-12,-5.2965e-05,-3.5111e-06,-26.381,1.5326
9241,18.733,1.3636,0,0.00013925,1391.6,9.1687e-05,585.38,1.3855e-05,0.58413,-0.00011974,-1003.2,1.5318
9242,18.641,1.4545,0,0.0001484,1483,9.3203e-05,561.87,1.8444e-05,0.15829,-0.00013063,-1119.9,1.5199
9243,18.733,1.4545,0.05,4.9258e-06,49.224,3.7824e-06,28.419,-1.9309e-12,-3.1771e-05,-3.7824e-06,-28.419,1.5321
9244,18.733,1.1818,0,0.00011472,1146.5,7.431e-05,465.46,1.2445e-05,0.62973,-9.9491e-05,-840.41,1.5312
9245,18.641,1.2727,0,0.00012494,1248.6,7.7798e-05,463.95,1.6072e-05,0.16405,-0.00011041,-950.16,1.5193
9246,18.733,1.2727,0.05,4.05e-06,40.472,3.1099e-06,23.366,-1.5255e-12,-1.2797e-05,-3.1099e-06,-23.366,1.5315
9247,18.733,1,0,9.396e-05,938.95,5.8849e-05,353.81,1.184e-05,0.60162,-8.2805e-05,-710.53,1.5306
9248,18.641,1.0909,0,0.00010452,1044.5,6.3309e-05,364.24,1.4861e-05,0.22542,-9.345e-05,-813.59,1.5188
9249,18.733,1.0909,0.05,3.562e-06,35.596,2.7352e-06,20.551,-6.8109e-13,-7.6281e-06,-2.7352e-06,-20.551,1.5309
9250,18.733,0.81818,0,7.6375e-05,763.22,4.538e-05,254.59,1.1566e-05,0.52333,-6.8792e-05,-603.26,1.53
9251,18.641,0.90909,0,8.7036e-05,869.76,5.033e-05,271.52,1.4224e-05,0.2377,-7.9177e-05,-701.55,1.5182
9252,18.733,0.90909,0.05,3.183e-06,31.808,2.4442e-06,18.365,-2.2655e-13,-6.6653e-06,-2.4442e-06,-18.365,1.5303
9253,18.733,0.63636,0,6.1475e-05,614.33,3.3755e-05,168.35,1.1408e-05,0.43903,-5.6857e-05,-512.47,1.5294
9254,18.641,0.72727,0,7.2166e-05,721.16,3.8943e-05,188.57,1.3876e-05,0.23499,-6.7084e-05,-608.07,1.5176
9255,18.733,0.72727,0.05,2.9225e-06,29.205,2.2441e-06,16.862,-2.6273e-13,-2.6178e-06,-2.2441e-06,-16.862,1.5297
9256,18.733,0.45455,0,4.9275e-05,492.41,2.4131e-05,97.221,1.1234e-05,0.31985,-4.6895e-05,-436.44,1.5288
9257,18.641,0.54545,0,5.9875e-05,598.33,2.9303e-05,117.8,1.3652e-05,0.20278,-5.6993e-05,-530.6,1.517
9258,18.733,0.54545,0.05,2.7652e-06,27.633,2.1233e-06,15.954,1.1367e-13,-9.1245e-15,-2.1233e-06,-15.954,1.5291
9259,18.733,0.27273,0,4.053e-05,405.02,1.7248e-05,47.236,1.0976e-05,0.10712,-3.9518e-05,-379.29,1.5281
9260,18.641,0.36364,0,5.0465e-05,504.3,2.179e-05,62.719,1.3463e-05,0.14859,-4.9103e-05,-469.95,1.5164
9261,18.733,0.36364,0.05,2.7179e-06,27.16,2.087e-06,15.681,1.2456e-13,6.8264e-07,-2.087e-06,-15.681,1.5284
9262,18.641,0.18182,0,4.4643e-05,446.12,1.7104e-05,28.748,1.3297e-05,0.14114,-4.4082e-05,-430.98,1.5157
9263,18.733,0.18182,0.05,3.0121e-06,30.1,2.3129e-06,17.379,1.1251e-13,2.6251e-06,-2.3129e-06,-17.379,1.5278
9264,18.733,0.090909,0,3.4486e-05,344.62,1.2446e-05,12.92,1.0748e-05,0.16232,-3.4246e-05,-337.9,1.5275
9265,18.549,5.7273,0,5.4879e-05,548.41,2.1932e-05,46.38,1.5772e-05,0.09436,-5.3942e-05,-523.71,1.504
9266,18.457,5.8182,0,5.9365e-05,593.24,2.2057e-05,29.929,1.8116e-05,0.31482,-5.8795e-05,-577.57,1.4916
9267,18.549,5.8182,0.05,2.8918e-06,28.898,2.2205e-06,16.684,4.707e-13,5.7303e-06,-2.2205e-06,-16.684,1.5036
9268,18.549,5.9091,0,4.9974e-05,499.39,1.769e-05,14.403,1.5773e-05,-0.0026363,-4.9713e-05,-492.04,1.5033
9269,18.549,5.5455,0,6.1817e-05,617.74,2.7608e-05,88.143,1.5878e-05,0.0089143,-5.9844e-05,-568.93,1.5046
9270,18.457,5.6364,0,6.4446e-05,644.01,2.6457e-05,63.078,1.8073e-05,0.077767,-6.314e-05,-610.12,1.4922
9271,18.549,5.6364,0.05,2.638e-06,26.362,2.0257e-06,15.22,4.7154e-13,8.1976e-06,-2.0257e-06,-15.22,1.5043
9272,18.549,5.3636,0,7.1718e-05,716.69,3.5415e-05,144.97,1.6119e-05,-0.01319,-6.8143e-05,-633.12,1.5052
9273,18.457,5.4545,0,7.2154e-05,721.05,3.2679e-05,108.6,1.8235e-05,0.073516,-6.969e-05,-660.56,1.4928
9274,18.549,5.4545,0.05,2.6652e-06,26.634,2.0465e-06,15.377,8.3902e-13,1.3415e-05,-2.0466e-06,-15.377,1.5049
9275,18.549,5.1818,0,8.426e-05,842.02,4.4987e-05,213.73,1.6533e-05,-0.059837,-7.8563e-05,-714.58,1.5058
9276,18.457,5.2727,0,8.2366e-05,823.09,4.0571e-05,165.21,1.8585e-05,0.014085,-7.8302e-05,-727.95,1.4934
9277,18.549,5.2727,0.05,2.7603e-06,27.584,2.1196e-06,15.926,9.5979e-13,1.3337e-05,-2.1196e-06,-15.926,1.5055
9278,18.549,5,0,9.9266e-05,991.97,5.6018e-05,291.18,1.7245e-05,-0.14611,-9.105e-05,-813.83,1.5064
9279,18.457,5.0909,0,9.4906e-05,948.41,4.9868e-05,230.36,1.9204e-05,-0.034882,-8.8864e-05,-812.01,1.494
9280,18.549,5.0909,0.05,2.9028e-06,29.008,2.229e-06,16.748,1.5142e-12,2.0829e-05,-2.229e-06,-16.748,1.5061
9281,18.549,4.8182,0,0.00011664,1165.6,6.8156e-05,372.94,1.8488e-05,-0.2435,-0.00010573,-933.54,1.5069
9282,18.457,4.9091,0,0.00010961,1095.3,6.0249e-05,300.5,2.0239e-05,-0.1234,-0.00010136,-913.75,1.4945
9283,18.549,4.9091,0.05,3.0783e-06,30.762,2.3638e-06,17.761,1.9929e-12,2.2076e-05,-2.3638e-06,-17.76,1.5066
9284,18.549,4.6364,0,0.00013618,1360.8,8.0772e-05,451.39,2.0662e-05,-0.25541,-0.00012276,-1077.9,1.5075
9285,18.457,4.7273,0,0.00012624,1261.5,7.1217e-05,370.01,2.1945e-05,-0.20366,-0.0001158,-1035.2,1.4951
9286,18.549,4.7273,0.05,3.2222e-06,32.2,2.4743e-06,18.591,3.284e-12,3.5107e-05,-2.4743e-06,-18.591,1.5072
9287,18.549,4.4545,0,0.00015675,1566.4,9.2294e-05,509.97,2.4244e-05,-1.3265,-0.0001417,-1248.2,1.5079
9288,18.457,4.5455,0,0.00014429,1441.9,8.1911e-05,429.63,2.47e-05,-0.22772,-0.00013209,-1178.3,1.4955
9289,18.549,4.5455,0.05,3.1664e-06,31.642,2.4314e-06,18.269,4.2471e-12,5.491e-05,-2.4314e-06,-18.269,1.5077
9290,18.549,4.2727,0,0.0001759,1757.8,9.9856e-05,522.91,3.0026e-05,-1.7617,-0.00016106,-1437.5,1.5084
9291,18.457,4.3636,0,0.00016219,1620.8,9.0496e-05,461.75,2.89e-05,-1.0634,-0.00014932,-1340.1,1.496
9292,18.549,4.3636,0.05,3.052e-06,30.499,2.3436e-06,17.609,7.7033e-12,9.6243e-05,-2.3436e-06,-17.609,1.5081
9293,18.549,4.0909,0,0.00019112,1909.9,0.0001015,476.65,3.778e-05,-2.1018,-0.00017849,-1627.1,1.5088
9294,18.457,4.1818,0,0.00017764,1775.2,9.4567e-05,446.78,3.5032e-05,-0.54411,-0.00016577,-1509.3,1.4964
9295,18.549,4.1818,0.05,2.5206e-06,25.189,1.9355e-06,14.543,1.9121e-11,0.00017395,-1.9355e-06,-14.543,1.5086
9296,18.549,3.9091,0,0.00020145,2013.1,9.8454e-05,392.6,4.5826e-05,-2.8237,-0.00019188,-1788.9,1.5091
9297,18.457,4,0,0.00018896,1888.3,9.3758e-05,386.97,4.2089e-05,-1.2568,-0.00017938,-1665.3,1.4967
9298,18.549,4,0.05,3.1326e-06,31.305,2.4055e-06,18.074,9.3353e-12,0.00010684,-2.4055e-06,-18.074,1.5089
9299,18.549,3.7273,0,0.00020836,2082.2,9.4593e-05,316,5.246e-05,-0.57723,-0.00020118,-1906.3,1.5094
9300,18.457,3.8182,0,0.00019667,1965.3,9.0582e-05,314.42,4.8632e-05,-0.76905,-0.00018943,-1789.4,1.497
9301,18.549,3.8182,0.05,3.3344e-06,33.321,2.5604e-06,19.238,2.9535e-12,6.9743e-05,-2.5604e-06,-19.238,1.5092
9302,18.549,3.5455,0,0.00021276,2126.1,9.236e-05,270.62,5.6441e-05,0.74025,-0.00020685,-1977.5,1.5096
9303,18.457,3.6364,0,0.00020234,2022,8.8288e-05,262.99,5.3382e-05,0.71936,-0.00019657,-1877.3,1.4972
9304,18.549,3.6364,0.05,3.1435e-06,31.413,2.4138e-06,18.136,8.4767e-13,4.8866e-05,-2.4138e-06,-18.136,1.5095
9305,18.549,3.3636,0,0.00021483,2146.8,9.1344e-05,249.11,5.8208e-05,0.13997,-0.00020951,-2011.4,1.5097
9306,18.457,3.4545,0,0.00020588,2057.4,8.7324e-05,236.1,5.5923e-05,0.16776,-0.00020084,-1929.1,1.4974
9307,18.549,3.4545,0.05,2.5922e-06,25.904,1.9905e-06,14.956,-6.4169e-13,3.7367e-05,-1.9905e-06,-14.956,1.5096
9308,18.549,3.1818,0,0.00021555,2154,9.0835e-05,239.84,5.8928e-05,0.10761,-0.00021046,-2024,1.5098
9309,18.457,3.2727,0,0.00020771,2075.6,8.6918e-05,223.58,5.7183e-05,0.16078,-0.000203,-1954.7,1.4975
9310,18.549,3.2727,0.05,2.1712e-06,21.697,1.6672e-06,12.527,8.643e-13,2.7561e-05,-1.6672e-06,-12.527,1.5098
9311,18.549,3,0,0.00021569,2155.4,9.0677e-05,237.28,5.9106e-05,0.073245,-0.00021067,-2026.9,1.5098
9312,18.457,3.0909,0,0.00020842,2082.8,8.6767e-05,218.74,5.7669e-05,0.10834,-0.00020384,-1964.8,1.4976
9313,18.549,3.0909,0.05,1.9354e-06,19.34,1.4861e-06,11.166,2.1602e-13,2.2558e-05,-1.4861e-06,-11.166,1.5098
9314,18.549,2.8182,0,0.00021555,2154,9.0835e-05,239.84,5.8928e-05,0.10762,-0.00021046,-2024,1.5098
9315,18.457,2.9091,0,0.00020842,2082.8,8.6767e-05,218.74,5.7669e-05,0.10834,-0.00020384,-1964.8,1.4976
9316,18.549,2.9091,0.05,1.9354e-06,19.34,1.4861e-06,11.166,7.0474e-13,1.9467e-05,-1.4861e-06,-11.166,1.5098
9317,18.549,2.6364,0,0.00021483,2146.8,9.1344e-05,249.11,5.8208e-05,0.13997,-0.00020951,-2011.4,1.5097
9318,18.457,2.7273,0,0.00020771,2075.6,8.6918e-05,223.58,5.7183e-05,0.16078,-0.000203,-1954.7,1.4975
9319,18.549,2.7273,0.05,2.1712e-06,21.697,1.6672e-06,12.527,1.0548e-12,7.5848e-06,-1.6672e-06,-12.527,1.5098
9320,18.549,2.4545,0,0.00021276,2126.1,9.236e-05,270.62,5.6441e-05,0.74025,-0.00020685,-1977.5,1.5096
9321,18.457,2.5455,0,0.00020588,2057.4,8.7324e-05,236.1,5.5923e-05,0.16776,-0.00020084,-1929.1,1.4974
9322,18.549,2.5455,0.05,2.5922e-06,25.904,1.9905e-06,14.956,9.6351e-13,-1.4346e-06,-1.9905e-06,-14.956,1.5096
9323,18.549,2.2727,0,0.00020836,2082.2,9.4593e-05,316,5.246e-05,-0.57723,-0.00020118,-1906.3,1.5094
9324,18.457,2.3636,0,0.00020234,2022,8.8288e-05,262.99,5.3382e-05,0.71937,-0.00019657,-1877.3,1.4972
9325,18.549,2.3636,0.05,3.1435e-06,31.413,2.4138e-06,18.136,-1.7432e-13,-1.213e-05,-2.4138e-06,-18.136,1.5095
9326,18.549,2.0909,0,0.00020145,2013.1,9.8454e-05,392.6,4.5826e-05,-2.8237,-0.00019188,-1788.9,1.5091
9327,18.457,2.1818,0,0.00019667,1965.3,9.0582e-05,314.42,4.8632e-05,-0.76905,-0.00018943,-1789.4,1.497
9328,18.549,2.1818,0.05,3.3344e-06,33.321,2.5604e-06,19.238,-2.1084e-12,-3.253e-05,-2.5604e-06,-19.238,1.5092
9329,18.549,1.9091,0,0.00019112,1909.9,0.0001015,476.64,3.778e-05,-2.1018,-0.00017849,-1627.1,1.5088
9330,18.457,2,0,0.00018896,1888.3,9.3758e-05,386.97,4.2089e-05,-1.2568,-0.00017938,-1665.3,1.4967
9331,18.549,2,0.05,3.1326e-06,31.305,2.4055e-06,18.074,-4.9806e-12,-6.3396e-05,-2.4055e-06,-18.074,1.5089
9332,18.549,1.7273,0,0.0001759,1757.8,9.9856e-05,522.91,3.0026e-05,-1.7617,-0.00016106,-1437.5,1.5084
9333,18.457,1.8182,0,0.00017764,1775.2,9.4567e-05,446.78,3.5032e-05,-0.54411,-0.00016577,-1509.3,1.4964
9334,18.549,1.8182,0.05,2.5206e-06,25.189,1.9355e-06,14.543,-9.9744e-12,-7.9106e-05,-1.9355e-06,-14.543,1.5086
9335,18.549,1.5455,0,0.00015675,1566.4,9.2294e-05,509.97,2.4244e-05,-1.3265,-0.0001417,-1248.2,1.5079
9336,18.457,1.6364,0,0.00016219,1620.8,9.0496e-05,461.75,2.89e-05,-1.0634,-0.00014932,-1340.1,1.496
9337,18.549,1.6364,0.05,3.052e-06,30.499,2.3436e-06,17.609,-4.7247e-12,-5.2595e-05,-2.3436e-06,-17.609,1.5081
9338,18.549,1.3636,0,0.00013618,1360.8,8.0772e-05,451.39,2.0662e-05,-0.25541,-0.00012276,-1077.9,1.5075
9339,18.457,1.4545,0,0.00014429,1441.9,8.1911e-05,429.63,2.47e-05,-0.22772,-0.00013209,-1178.3,1.4955
9340,18.549,1.4545,0.05,3.1664e-06,31.642,2.4314e-06,18.269,-2.3634e-12,-2.357e-05,-2.4314e-06,-18.269,1.5077
9341,18.549,1.1818,0,0.00011664,1165.6,6.8156e-05,372.94,1.8488e-05,-0.2435,-0.00010573,-933.54,1.5069
9342,18.457,1.2727,0,0.00012624,1261.5,7.1217e-05,370.01,2.1945e-05,-0.20366,-0.0001158,-1035.2,1.4951
9343,18.549,1.2727,0.05,3.2222e-06,32.2,2.4743e-06,18.591,-1.4145e-12,-1.1726e-05,-2.4743e-06,-18.591,1.5072
9344,18.549,1,0,9.9266e-05,991.97,5.6018e-05,291.18,1.7245e-05,-0.14611,-9.105e-05,-813.83,1.5064
9345,18.457,1.0909,0,0.00010961,1095.3,6.0249e-05,300.5,2.0239e-05,-0.1234,-0.00010136,-913.75,1.4945
9346,18.549,1.0909,0.05,3.0783e-06,30.762,2.3638e-06,17.761,1.8018e-13,-6.0586e-06,-2.3638e-06,-17.761,1.5066
9347,18.549,0.81818,0,8.426e-05,842.02,4.4987e-05,213.73,1.6533e-05,-0.059835,-7.8563e-05,-714.58,1.5058
9348,18.457,0.90909,0,9.4906e-05,948.41,4.9868e-05,230.36,1.9204e-05,-0.03488,-8.8864e-05,-812.01,1.494
9349,18.549,0.90909,0.05,2.9028e-06,29.008,2.229e-06,16.748,2.3373e-13,-2.82e-06,-2.229e-06,-16.748,1.5061
9350,18.549,0.63636,0,7.1718e-05,716.69,3.5415e-05,144.97,1.6119e-05,-0.013189,-6.8143e-05,-633.12,1.5052
9351,18.457,0.72727,0,8.2366e-05,823.09,4.0571e-05,165.21,1.8585e-05,0.014087,-7.8302e-05,-727.95,1.4934
9352,18.549,0.72727,0.05,2.7603e-06,27.584,2.1196e-06,15.926,1.1318e-13,4.9728e-07,-2.1196e-06,-15.926,1.5055
9353,18.549,0.45455,0,6.1817e-05,617.74,2.7608e-05,88.143,1.5878e-05,0.0089144,-5.9844e-05,-568.93,1.5046
9354,18.457,0.54545,0,7.2154e-05,721.05,3.2679e-05,108.6,1.8235e-05,0.073515,-6.969e-05,-660.56,1.4928
9355,18.549,0.54545,0.05,2.6652e-06,26.634,2.0465e-06,15.377,2.7181e-13,1.9377e-07,-2.0466e-06,-15.377,1.5049
9356,18.549,0.27273,0,5.4879e-05,548.41,2.1932e-05,46.38,1.5772e-05,0.09436,-5.3942e-05,-523.71,1.504
9357,18.457,0.36364,0,6.4446e-05,644.01,2.6457e-05,63.078,1.8073e-05,0.077767,-6.314e-05,-610.12,1.4922
9358,18.549,0.36364,0.05,2.638e-06,26.362,2.0257e-06,15.22,4.7092e-13,3.4419e-06,-2.0257e-06,-15.22,1.5043
9359,18.457,0.18182,0,5.9365e-05,593.24,2.2057e-05,29.929,1.8116e-05,0.31482,-5.8795e-05,-577.57,1.4916
9360,18.549,0.18182,0.05,2.8918e-06,28.898,2.2205e-06,16.684,4.3682e-13,6.1958e-06,-2.2205e-06,-16.684,1.5036
9361,18.549,0.090909,0,4.9974e-05,499.39,1.769e-05,14.403,1.5773e-05,-0.0026378,-4.9713e-05,-492.04,1.5033
9362,18.365,5.7273,0,6.9037e-05,689.9,2.67e-05,47.508,2.0409e-05,0.24488,-6.8103e-05,-664.81,1.4798
9363,18.274,5.8182,0,7.3261e-05,732.1,2.6699e-05,30.575,2.2673e-05,0.3234,-7.2688e-05,-716.18,1.4675
9364,18.365,5.8182,0.05,2.6985e-06,26.967,2.0721e-06,15.569,4.0843e-13,6.144e-06,-2.0721e-06,-15.569,1.4795
9365,18.365,5.9091,0,6.4649e-05,646.04,2.2621e-05,15.525,2.057e-05,0.11362,-6.4369e-05,-638.09,1.4792
9366,18.365,5.5455,0,7.51e-05,750.48,3.1817e-05,85.708,2.0426e-05,0.12053,-7.3272e-05,-703.89,1.4805
9367,18.274,5.6364,0,7.8039e-05,779.85,3.1052e-05,64.258,2.2512e-05,0.085906,-7.6746e-05,-745.7,1.4681
9368,18.365,5.6364,0.05,2.4798e-06,24.781,1.9042e-06,14.307,5.8836e-13,8.4514e-06,-1.9042e-06,-14.307,1.4801
9369,18.365,5.3636,0,8.3403e-05,833.45,3.8338e-05,132.62,2.0699e-05,0.091146,-8.0351e-05,-759.16,1.4811
9370,18.274,5.4545,0,8.4688e-05,846.3,3.6475e-05,104.02,2.2645e-05,0.10654,-8.2436e-05,-789.43,1.4687
9371,18.365,5.4545,0.05,2.4818e-06,24.801,1.9057e-06,14.319,7.4018e-13,1.2361e-05,-1.9057e-06,-14.319,1.4807
9372,18.365,5.1818,0,9.3868e-05,938.03,4.6129e-05,186.93,2.1255e-05,0.03497,-8.9279e-05,-830.48,1.4816
9373,18.274,5.2727,0,9.3273e-05,932.09,4.3013e-05,150.02,2.3052e-05,0.042655,-8.9811e-05,-847.97,1.4693
9374,18.365,5.2727,0.05,2.5144e-06,25.127,1.9307e-06,14.507,7.1345e-13,1.1462e-05,-1.9307e-06,-14.507,1.4813
9375,18.365,5,0,0.0001063,1062.3,5.49e-05,245.69,2.2198e-05,-0.012877,-9.9971e-05,-917.95,1.4822
9376,18.274,5.0909,0,0.0001037,1036.3,5.0501e-05,200.62,2.3799e-05,-0.0033586,-9.882e-05,-921.32,1.4698
9377,18.365,5.0909,0.05,2.5522e-06,25.505,1.9598e-06,14.725,7.1975e-13,1.6515e-05,-1.9598e-06,-14.725,1.4819
9378,18.365,4.8182,0,0.00012039,1203.1,6.4176e-05,304.07,2.3695e-05,-0.082563,-0.0001123,-1021.9,1.4827
9379,18.274,4.9091,0,0.00011573,1156.5,5.8598e-05,252.44,2.4994e-05,-0.048429,-0.00010935,-1009.5,1.4703
9380,18.365,4.9091,0.05,2.5649e-06,25.631,1.9695e-06,14.798,1.875e-12,2.3358e-05,-1.9695e-06,-14.798,1.4824
9381,18.365,4.6364,0,0.00013553,1354.3,7.3192e-05,354.54,2.5982e-05,-0.17543,-0.00012597,-1141.9,1.4832
9382,18.274,4.7273,0,0.00012894,1288.5,6.6761e-05,300.16,2.6798e-05,-0.1068,-0.00012118,-1112,1.4708
9383,18.365,4.7273,0.05,2.5016e-06,24.998,1.9209e-06,14.433,2.3465e-12,3.299e-05,-1.9209e-06,-14.433,1.4829
9384,18.365,4.4545,0,0.0001507,1506,8.0766e-05,386.31,2.9356e-05,0.036626,-0.00014036,-1275.2,1.4836
9385,18.274,4.5455,0,0.00014262,1425.2,7.4164e-05,336.12,2.9406e-05,-0.16802,-0.00013389,-1227.1,1.4713
9386,18.365,4.5455,0.05,2.3122e-06,23.106,1.7755e-06,13.34,6.7609e-12,6.2416e-05,-1.7755e-06,-13.34,1.4834
9387,18.365,4.2727,0,0.00016441,1643,8.5524e-05,387.99,3.3904e-05,0.14116,-0.00015434,-1414.2,1.484
9388,18.274,4.3636,0,0.00015566,1555.5,7.969e-05,350.81,3.3006e-05,0.043133,-0.0001467,-1350.2,1.4717
9389,18.365,4.3636,0.05,1.9758e-06,19.745,1.5172e-06,11.4,1.0372e-11,9.4984e-05,-1.5172e-06,-11.4,1.4838
9390,18.365,4.0909,0,0.00017556,1754.4,8.6889e-05,357.56,3.9341e-05,0.30405,-0.00016672,-1548,1.4844
9391,18.274,4.1818,0,0.00016681,1667,8.2393e-05,337.43,3.7475e-05,-0.065087,-0.00015849,-1472.4,1.472
9392,18.365,4.1818,0.05,1.7929e-06,17.917,1.3767e-06,10.344,1.5805e-11,0.0001511,-1.3767e-06,-10.344,1.4842
9393,18.365,3.9091,0,0.00018408,1839.6,8.5839e-05,308.43,4.4897e-05,0.81258,-0.00017688,-1665.5,1.4847
9394,18.274,4,0,0.00017558,1754.6,8.2446e-05,301.06,4.2406e-05,0.21658,-0.00016851,-1584.5,1.4724
9395,18.365,4,0.05,1.9131e-06,19.118,1.469e-06,11.038,1.1768e-11,0.00012965,-1.469e-06,-11.038,1.4845
9396,18.365,3.7273,0,0.00019052,1903.9,8.419e-05,260.77,4.9559e-05,0.56127,-0.00018473,-1759.8,1.4849
9397,18.274,3.8182,0,0.00018232,1821.9,8.1204e-05,257.42,4.6997e-05,0.40248,-0.00017657,-1679.4,1.4726
9398,18.365,3.8182,0.05,2.0076e-06,20.063,1.5416e-06,11.583,5.0174e-12,8.0208e-05,-1.5416e-06,-11.583,1.4848
9399,18.365,3.5455,0,0.00019533,1951.9,8.3142e-05,227.64,5.2866e-05,0.16041,-0.00019045,-1828.1,1.4851
9400,18.274,3.6364,0,0.00018755,1874.2,8.0104e-05,221.91,5.0581e-05,0.089843,-0.00018279,-1753.4,1.4728
9401,18.365,3.6364,0.05,1.9924e-06,19.91,1.5299e-06,11.495,1.8593e-12,5.9606e-05,-1.5299e-06,-11.495,1.485
9402,18.365,3.3636,0,0.00019862,1984.9,8.2785e-05,209.72,5.4899e-05,0.19032,-0.00019422,-1871.6,1.4852
9403,18.274,3.4545,0,0.00019148,1913.5,7.9636e-05,200.05,5.3033e-05,0.16666,-0.00018729,-1805.5,1.473
9404,18.365,3.4545,0.05,1.8688e-06,18.675,1.435e-06,10.782,1.8754e-13,2.7992e-05,-1.435e-06,-10.782,1.4852
9405,18.365,3.1818,0,0.00020046,2003.2,8.2744e-05,201.67,5.5925e-05,0.16173,-0.00019627,-1894.7,1.4853
9406,18.274,3.2727,0,0.00019402,1938.9,7.9577e-05,188.92,5.4454e-05,0.1569,-0.00019011,-1837.4,1.4731
9407,18.365,3.2727,0.05,1.7316e-06,17.304,1.3296e-06,9.9903,-9.0181e-13,1.8941e-05,-1.3296e-06,-9.9902,1.4853
9408,18.365,3,0,0.00020104,2009,8.2754e-05,199.42,5.6232e-05,0.14409,-0.0001969,-1901.8,1.4853
9409,18.274,3.0909,0,0.00019524,1951.1,7.9617e-05,184.43,5.5091e-05,0.14379,-0.00019145,-1852.2,1.4731
9410,18.365,3.0909,0.05,1.6441e-06,16.429,1.2624e-06,9.4855,-1.29e-12,1.7265e-05,-1.2624e-06,-9.4854,1.4853
9411,18.365,2.8182,0,0.00020046,2003.2,8.2744e-05,201.67,5.5925e-05,0.16173,-0.00019627,-1894.7,1.4853
9412,18.274,2.9091,0,0.00019524,1951.1,7.9617e-05,184.43,5.5091e-05,0.14379,-0.00019145,-1852.2,1.4731
9413,18.365,2.9091,0.05,1.6441e-06,16.429,1.2624e-06,9.4855,-5.0899e-13,1.1478e-05,-1.2624e-06,-9.4854,1.4853
9414,18.365,2.6364,0,0.00019862,1984.9,8.2785e-05,209.72,5.4899e-05,0.19032,-0.00019422,-1871.6,1.4852
9415,18.274,2.7273,0,0.00019402,1938.9,7.9577e-05,188.92,5.4454e-05,0.1569,-0.00019011,-1837.4,1.4731
9416,18.365,2.7273,0.05,1.7316e-06,17.304,1.3296e-06,9.9903,-7.3064e-13,3.4393e-06,-1.3296e-06,-9.9902,1.4853
9417,18.365,2.4545,0,0.00019533,1951.9,8.3142e-05,227.64,5.2866e-05,0.16041,-0.00019045,-1828.1,1.4851
9418,18.274,2.5455,0,0.00019148,1913.5,7.9636e-05,200.05,5.3033e-05,0.16666,-0.00018729,-1805.5,1.473
9419,18.365,2.5455,0.05,1.8688e-06,18.675,1.435e-06,10.782,-1.423e-12,-4.9428e-06,-1.435e-06,-10.782,1.4852
9420,18.365,2.2727,0,0.00019052,1903.9,8.419e-05,260.77,4.9559e-05,0.56127,-0.00018473,-1759.8,1.4849
9421,18.274,2.3636,0,0.00018755,1874.2,8.0104e-05,221.91,5.0582e-05,0.089843,-0.00018279,-1753.4,1.4728
9422,18.365,2.3636,0.05,1.9924e-06,19.91,1.5299e-06,11.495,-1.5323e-12,-2.3264e-05,-1.5299e-06,-11.495,1.485
9423,18.365,2.0909,0,0.00018408,1839.6,8.5839e-05,308.43,4.4897e-05,0.81258,-0.00017688,-1665.5,1.4847
9424,18.274,2.1818,0,0.00018232,1821.9,8.1204e-05,257.42,4.6997e-05,0.40248,-0.00017657,-1679.4,1.4726
9425,18.365,2.1818,0.05,2.0076e-06,20.063,1.5416e-06,11.583,-3.6583e-12,-3.168e-05,-1.5416e-06,-11.583,1.4848
9426,18.365,1.9091,0,0.00017556,1754.4,8.6889e-05,357.56,3.9341e-05,0.30405,-0.00016672,-1548,1.4844
9427,18.274,2,0,0.00017558,1754.6,8.2446e-05,301.06,4.2406e-05,0.21658,-0.00016851,-1584.5,1.4724
9428,18.365,2,0.05,1.9131e-06,19.118,1.469e-06,11.038,-6.1256e-12,-6.7343e-05,-1.469e-06,-11.038,1.4845
9429,18.365,1.7273,0,0.00016441,1643,8.5524e-05,387.99,3.3904e-05,0.14116,-0.00015434,-1414.2,1.484
9430,18.274,1.8182,0,0.00016681,1667,8.2393e-05,337.43,3.7475e-05,-0.065087,-0.00015849,-1472.4,1.472
9431,18.365,1.8182,0.05,1.7929e-06,17.917,1.3767e-06,10.344,-6.3862e-12,-5.6835e-05,-1.3767e-06,-10.344,1.4842
9432,18.365,1.5455,0,0.0001507,1506,8.0766e-05,386.31,2.9356e-05,0.036626,-0.00014036,-1275.2,1.4836
9433,18.274,1.6364,0,0.00015566,1555.5,7.969e-05,350.81,3.3006e-05,0.043133,-0.0001467,-1350.2,1.4717
9434,18.365,1.6364,0.05,1.9758e-06,19.745,1.5172e-06,11.4,-6.8988e-12,-5.6703e-05,-1.5172e-06,-11.4,1.4838
9435,18.365,1.3636,0,0.00013553,1354.3,7.3192e-05,354.54,2.5982e-05,-0.17543,-0.00012597,-1141.9,1.4832
9436,18.274,1.4545,0,0.00014262,1425.2,7.4164e-05,336.12,2.9406e-05,-0.16802,-0.00013389,-1227.1,1.4713
9437,18.365,1.4545,0.05,2.3122e-06,23.106,1.7755e-06,13.34,-2.2559e-12,-2.0025e-05,-1.7755e-06,-13.34,1.4834
9438,18.365,1.1818,0,0.00012039,1203.1,6.4176e-05,304.07,2.3695e-05,-0.082563,-0.0001123,-1021.9,1.4827
9439,18.274,1.2727,0,0.00012894,1288.5,6.6761e-05,300.16,2.6798e-05,-0.1068,-0.00012118,-1112,1.4708
9440,18.365,1.2727,0.05,2.5016e-06,24.998,1.9209e-06,14.433,-6.5485e-13,-1.2383e-05,-1.9209e-06,-14.433,1.4829
9441,18.365,1,0,0.0001063,1062.3,5.49e-05,245.69,2.2198e-05,-0.012875,-9.9971e-05,-917.95,1.4822
9442,18.274,1.0909,0,0.00011573,1156.5,5.8598e-05,252.44,2.4994e-05,-0.04843,-0.00010935,-1009.5,1.4703
9443,18.365,1.0909,0.05,2.5649e-06,25.631,1.9695e-06,14.798,-3.7379e-14,-4.1288e-06,-1.9695e-06,-14.798,1.4824
9444,18.365,0.81818,0,9.3868e-05,938.03,4.6129e-05,186.93,2.1255e-05,0.034972,-8.9279e-05,-830.48,1.4816
9445,18.274,0.90909,0,0.0001037,1036.3,5.0501e-05,200.62,2.3799e-05,-0.0033566,-9.882e-05,-921.32,1.4698
9446,18.365,0.90909,0.05,2.5522e-06,25.505,1.9598e-06,14.725,1.2501e-13,-1.542e-06,-1.9598e-06,-14.725,1.4819
9447,18.365,0.63636,0,8.3403e-05,833.45,3.8338e-05,132.62,2.0699e-05,0.091146,-8.0351e-05,-759.16,1.4811
9448,18.274,0.72727,0,9.3273e-05,932.09,4.3013e-05,150.02,2.3052e-05,0.042658,-8.9811e-05,-847.97,1.4693
9449,18.365,0.72727,0.05,2.5144e-06,25.127,1.9307e-06,14.507,1.9339e-13,4.436e-07,-1.9307e-06,-14.507,1.4813
9450,18.365,0.45455,0,7.51e-05,750.48,3.1817e-05,85.708,2.0426e-05,0.12053,-7.3272e-05,-703.89,1.4805
9451,18.274,0.54545,0,8.4688e-05,846.3,3.6475e-05,104.02,2.2645e-05,0.10653,-8.2436e-05,-789.43,1.4687
9452,18.365,0.54545,0.05,2.4818e-06,24.801,1.9057e-06,14.319,1.0138e-12,5.1492e-06,-1.9057e-06,-14.319,1.4807
9453,18.365,0.27273,0,6.9037e-05,689.9,2.67e-05,47.508,2.0409e-05,0.24488,-6.8103e-05,-664.81,1.4798
9454,18.274,0.36364,0,7.8039e-05,779.85,3.1052e-05,64.258,2.2512e-05,0.085905,-7.6746e-05,-745.7,1.4681
9455,18.365,0.36364,0.05,2.4798e-06,24.781,1.9042e-06,14.307,1.1209e-12,4.3116e-06,-1.9042e-06,-14.307,1.4801
9456,18.274,0.18182,0,7.3261e-05,732.1,2.6699e-05,30.575,2.2673e-05,0.3234,-7.2688e-05,-716.18,1.4675
9457,18.365,0.18182,0.05,2.6985e-06,26.967,2.0721e-06,15.569,2.8094e-13,3.7153e-06,-2.0721e-06,-15.569,1.4795
9458,18.365,0.090909,0,6.4649e-05,646.04,2.2621e-05,15.525,2.057e-05,0.11362,-6.4369e-05,-638.09,1.4792
9459,18.182,5.7273,0,8.2307e-05,822.51,3.1111e-05,47.768,2.4774e-05,0.15634,-8.1389e-05,-797.51,1.4558
9460,18.09,5.8182,0,8.613e-05,860.71,3.0943e-05,30.431,2.6918e-05,0.18878,-8.557e-05,-845,1.4434
9461,18.182,5.8182,0.05,2.4577e-06,24.56,1.8872e-06,14.18,1.6073e-13,4.9457e-06,-1.8872e-06,-14.18,1.4554
9462,18.182,5.9091,0,7.8286e-05,782.32,2.7159e-05,15.94,2.5046e-05,0.068319,-7.8001e-05,-774.19,1.4551
9463,18.182,5.5455,0,8.7785e-05,877.24,3.5861e-05,83.705,2.4729e-05,0.065211,-8.606e-05,-832.36,1.4564
9464,18.09,5.6364,0,9.0651e-05,905.88,3.5213e-05,64.087,2.6686e-05,0.018014,-8.939e-05,-872.13,1.444
9465,18.182,5.6364,0.05,2.2886e-06,22.87,1.7573e-06,13.204,2.5243e-13,6.1998e-06,-1.7573e-06,-13.204,1.4561
9466,18.182,5.3636,0,9.4887e-05,948.22,4.1433e-05,123.55,2.4998e-05,0.054266,-9.2179e-05,-880.36,1.4569
9467,18.09,5.4545,0,9.6497e-05,964.3,4.0044e-05,99.71,2.6784e-05,0.078118,-9.4412e-05,-910.54,1.4446
9468,18.182,5.4545,0.05,2.2673e-06,22.658,1.741e-06,13.081,1.0992e-12,1.045e-05,-1.741e-06,-13.081,1.4566
9469,18.182,5.1818,0,0.00010361,1035.4,4.779e-05,166.76,2.5596e-05,0.0027705,-9.9757e-05,-941.85,1.4575
9470,18.09,5.2727,0,0.00010376,1036.9,4.5528e-05,137.8,2.7191e-05,0.023394,-0.00010073,-961.12,1.4452
9471,18.182,5.2727,0.05,2.2521e-06,22.505,1.7293e-06,12.994,6.8704e-13,1.2755e-05,-1.7293e-06,-12.994,1.4572
9472,18.182,5,0,0.00011376,1136.8,5.4692e-05,211.08,2.6594e-05,-0.039292,-0.00010869,-1016.5,1.458
9473,18.09,5.0909,0,0.00011238,1123,5.155e-05,177.29,2.7953e-05,-0.0091578,-0.0001083,-1023.8,1.4457
9474,18.182,5.0909,0.05,2.2199e-06,22.184,1.7046e-06,12.808,1.3129e-12,1.4855e-05,-1.7046e-06,-12.808,1.4577
9475,18.182,4.8182,0,0.00012499,1249,6.1711e-05,252.49,2.8096e-05,-0.072873,-0.00011877,-1103.5,1.4585
9476,18.09,4.9091,0,0.00012208,1220,5.7821e-05,215.48,2.9137e-05,-0.042612,-0.00011698,-1097.9,1.4462
9477,18.182,4.9091,0.05,2.1464e-06,21.449,1.6482e-06,12.384,1.5103e-12,2.1391e-05,-1.6482e-06,-12.384,1.4583
9478,18.182,4.6364,0,0.00013671,1366.1,6.8223e-05,285.42,3.0222e-05,-0.10049,-0.0001296,-1200.9,1.459
9479,18.09,4.7273,0,0.00013247,1323.8,6.3885e-05,248.31,3.0829e-05,-0.062935,-0.00012649,-1182.1,1.4467
9480,18.182,4.7273,0.05,2.0053e-06,20.039,1.5398e-06,11.57,2.4348e-12,3.2025e-05,-1.5398e-06,-11.57,1.4587
9481,18.182,4.4545,0,0.00014811,1480.1,7.3461e-05,303.42,3.3056e-05,-0.16417,-0.0001406,-1304.9,1.4594
9482,18.09,4.5455,0,0.00014292,1428.2,6.9143e-05,270.65,3.3111e-05,-0.078753,-0.00013638,-1273.6,1.4471
9483,18.182,4.5455,0.05,1.7819e-06,17.807,1.3683e-06,10.281,4.7151e-12,5.2367e-05,-1.3683e-06,-10.281,1.4592
9484,18.182,4.2727,0,0.00015837,1582.6,7.6776e-05,301.88,3.6577e-05,-0.16463,-0.00015106,-1410,1.4598
9485,18.09,4.3636,0,0.00015269,1525.8,7.2959e-05,277.59,3.5997e-05,-0.11867,-0.00014606,-1368,1.4475
9486,18.182,4.3636,0.05,1.5255e-06,15.245,1.1714e-06,8.8017,8.1531e-12,8.1977e-05,-1.1714e-06,-8.8017,1.4596
9487,18.182,4.0909,0,0.00016696,1668.4,7.8042e-05,281.63,4.054e-05,-0.1512,-0.00016037,-1509.7,1.4601
9488,18.09,4.1818,0,0.00016116,1610.5,7.4975e-05,267.38,3.9378e-05,-0.076371,-0.00015494,-1460.1,1.4478
9489,18.182,4.1818,0.05,1.3589e-06,13.58,1.0435e-06,7.8403,1.2818e-11,0.00011096,-1.0435e-06,-7.8403,1.4599
9490,18.182,3.9091,0,0.00017384,1737.2,7.7836e-05,250.24,4.4507e-05,-0.18863,-0.00016822,-1598.6,1.4604
9491,18.09,4,0,0.00016808,1679.6,7.5392e-05,243.69,4.2946e-05,-0.096108,-0.0001626,-1544.5,1.4481
9492,18.182,4,0.05,1.3284e-06,13.275,1.0201e-06,7.6644,1.2326e-11,0.00011912,-1.0201e-06,-7.6644,1.4602
9493,18.182,3.7273,0,0.00017933,1792.1,7.7107e-05,218.48,4.8021e-05,-0.058751,-0.00017461,-1672.8,1.4606
9494,18.09,3.8182,0,0.00017363,1735.1,7.4935e-05,214.99,4.631e-05,-0.082323,-0.00016897,-1617.6,1.4484
9495,18.182,3.8182,0.05,1.3363e-06,13.353,1.0261e-06,7.7096,9.0098e-12,0.0001064,-1.0261e-06,-7.7096,1.4605
9496,18.182,3.5455,0,0.00018365,1835.3,7.6558e-05,194.02,5.075e-05,0.10745,-0.00017958,-1730.5,1.4608
9497,18.09,3.6364,0,0.00017809,1779.7,7.4371e-05,189.73,4.9126e-05,0.049815,-0.0001741,-1677.2,1.4486
9498,18.182,3.6364,0.05,1.321e-06,13.201,1.0143e-06,7.6214,3.5952e-12,5.4742e-05,-1.0143e-06,-7.6214,1.4607
9499,18.182,3.3636,0,0.00018681,1866.8,7.6368e-05,178.8,5.2589e-05,0.13951,-0.00018312,-1770.9,1.4609
9500,18.09,3.4545,0,0.00018154,1814.2,7.4078e-05,172.05,5.1194e-05,0.10065,-0.000178,-1722,1.4487
9501,18.182,3.4545,0.05,1.2967e-06,12.958,9.9569e-07,7.4812,1.7558e-12,2.7252e-05,-9.9568e-07,-7.4812,1.4608
9502,18.182,3.1818,0,0.00018872,1885.9,7.638e-05,171.15,5.362e-05,0.14241,-0.00018522,-1794.4,1.461
9503,18.09,3.2727,0,0.00018391,1837.9,7.4033e-05,161.85,5.2507e-05,0.11938,-0.00018062,-1751.5,1.4488
9504,18.182,3.2727,0.05,1.2681e-06,12.672,9.7375e-07,7.3164,-1.976e-13,1.884e-05,-9.7375e-07,-7.3163,1.4609
9505,18.182,3,0,0.00018936,1892.3,7.6407e-05,168.89,5.3949e-05,0.14637,-0.00018592,-1802.1,1.461
9506,18.09,3.0909,0,0.00018511,1849.8,7.4067e-05,157.4,5.3136e-05,0.13077,-0.00018193,-1766.1,1.4488
9507,18.182,3.0909,0.05,1.2492e-06,12.483,9.5921e-07,7.2071,-1.0679e-12,9.4846e-06,-9.5921e-07,-7.2071,1.461
9508,18.182,2.8182,0,0.00018872,1885.9,7.638e-05,171.15,5.362e-05,0.14241,-0.00018522,-1794.4,1.461
9509,18.09,2.9091,0,0.00018511,1849.8,7.4067e-05,157.4,5.3136e-05,0.13077,-0.00018193,-1766.1,1.4488
9510,18.182,2.9091,0.05,1.2492e-06,12.483,9.5921e-07,7.2071,-7.2489e-13,6.2638e-06,-9.5921e-07,-7.2071,1.461
9511,18.182,2.6364,0,0.00018681,1866.8,7.6368e-05,178.8,5.2589e-05,0.13951,-0.00018312,-1770.9,1.4609
9512,18.09,2.7273,0,0.00018391,1837.9,7.4033e-05,161.85,5.2507e-05,0.11938,-0.00018062,-1751.5,1.4488
9513,18.182,2.7273,0.05,1.2681e-06,12.672,9.7375e-07,7.3164,-4.0753e-13,-3.4951e-07,-9.7375e-07,-7.3163,1.4609
9514,18.182,2.4545,0,0.00018365,1835.3,7.6558e-05,194.02,5.075e-05,0.10745,-0.00017958,-1730.5,1.4608
9515,18.09,2.5455,0,0.00018154,1814.2,7.4078e-05,172.05,5.1194e-05,0.10065,-0.000178,-1722,1.4487
9516,18.182,2.5455,0.05,1.2967e-06,12.958,9.9569e-07,7.4812,-1.1028e-12,-1.387e-05,-9.9568e-07,-7.4812,1.4608
9517,18.182,2.2727,0,0.00017933,1792.1,7.7107e-05,218.48,4.8021e-05,-0.058751,-0.00017461,-1672.8,1.4606
9518,18.09,2.3636,0,0.00017809,1779.7,7.4371e-05,189.73,4.9126e-05,0.049815,-0.0001741,-1677.2,1.4486
9519,18.182,2.3636,0.05,1.321e-06,13.201,1.0143e-06,7.6214,-3.2573e-12,-3.2764e-05,-1.0143e-06,-7.6214,1.4607
9520,18.182,2.0909,0,0.00017384,1737.2,7.7836e-05,250.24,4.4507e-05,-0.18863,-0.00016822,-1598.6,1.4604
9521,18.09,2.1818,0,0.00017363,1735.1,7.4935e-05,214.99,4.631e-05,-0.082323,-0.00016897,-1617.6,1.4484
9522,18.182,2.1818,0.05,1.3363e-06,13.353,1.0261e-06,7.7096,-2.4448e-12,-4.8205e-05,-1.0261e-06,-7.7096,1.4605
9523,18.182,1.9091,0,0.00016696,1668.4,7.8042e-05,281.63,4.054e-05,-0.1512,-0.00016037,-1509.7,1.4601
9524,18.09,2,0,0.00016808,1679.6,7.5392e-05,243.69,4.2946e-05,-0.096107,-0.0001626,-1544.5,1.4481
9525,18.182,2,0.05,1.3284e-06,13.275,1.0201e-06,7.6644,-5.3397e-12,-6.0046e-05,-1.0201e-06,-7.6644,1.4602
9526,18.182,1.7273,0,0.00015837,1582.6,7.6776e-05,301.88,3.6577e-05,-0.16463,-0.00015106,-1410,1.4598
9527,18.09,1.8182,0,0.00016116,1610.5,7.4975e-05,267.38,3.9378e-05,-0.076372,-0.00015494,-1460.1,1.4478
9528,18.182,1.8182,0.05,1.3589e-06,13.58,1.0435e-06,7.8403,-5.194e-12,-6.3964e-05,-1.0435e-06,-7.8403,1.4599
9529,18.182,1.5455,0,0.00014811,1480.1,7.3461e-05,303.42,3.3056e-05,-0.16417,-0.0001406,-1304.9,1.4594
9530,18.09,1.6364,0,0.00015269,1525.8,7.2959e-05,277.59,3.5997e-05,-0.11867,-0.00014606,-1368,1.4475
9531,18.182,1.6364,0.05,1.5255e-06,15.245,1.1714e-06,8.8017,-4.4886e-12,-4.0013e-05,-1.1714e-06,-8.8017,1.4596
9532,18.182,1.3636,0,0.00013671,1366.1,6.8223e-05,285.42,3.0222e-05,-0.10049,-0.0001296,-1200.9,1.459
9533,18.09,1.4545,0,0.00014292,1428.2,6.9143e-05,270.65,3.3111e-05,-0.078752,-0.00013638,-1273.6,1.4471
9534,18.182,1.4545,0.05,1.7819e-06,17.807,1.3683e-06,10.281,2.4897e-13,-2.3196e-05,-1.3683e-06,-10.281,1.4592
9535,18.182,1.1818,0,0.00012499,1249,6.1711e-05,252.49,2.8096e-05,-0.072873,-0.00011877,-1103.5,1.4585
9536,18.09,1.2727,0,0.00013247,1323.8,6.3885e-05,248.31,3.0829e-05,-0.062935,-0.00012649,-1182.1,1.4467
9537,18.182,1.2727,0.05,2.0053e-06,20.039,1.5398e-06,11.57,-3.4833e-13,-6.4415e-06,-1.5398e-06,-11.57,1.4587
9538,18.182,1,0,0.00011376,1136.8,5.4692e-05,211.08,2.6594e-05,-0.039292,-0.00010869,-1016.5,1.458
9539,18.09,1.0909,0,0.00012208,1220,5.7821e-05,215.48,2.9137e-05,-0.042612,-0.00011698,-1097.9,1.4462
9540,18.182,1.0909,0.05,2.1464e-06,21.449,1.6482e-06,12.384,5.5677e-13,-2.3346e-06,-1.6482e-06,-12.384,1.4583
9541,18.182,0.81818,0,0.00010361,1035.4,4.779e-05,166.76,2.5596e-05,0.0027728,-9.9757e-05,-941.85,1.4575
9542,18.09,0.90909,0,0.00011238,1123,5.155e-05,177.29,2.7953e-05,-0.0091565,-0.0001083,-1023.8,1.4457
9543,18.182,0.90909,0.05,2.2199e-06,22.184,1.7046e-06,12.808,4.8992e-13,2.4208e-07,-1.7046e-06,-12.808,1.4577
9544,18.182,0.63636,0,9.4887e-05,948.22,4.1433e-05,123.55,2.4998e-05,0.054268,-9.2179e-05,-880.36,1.4569
9545,18.09,0.72727,0,0.00010376,1036.9,4.5528e-05,137.8,2.7191e-05,0.023396,-0.00010073,-961.12,1.4452
9546,18.182,0.72727,0.05,2.2521e-06,22.505,1.7293e-06,12.994,1.046e-12,4.0001e-06,-1.7293e-06,-12.994,1.4572
9547,18.182,0.45455,0,8.7785e-05,877.24,3.5861e-05,83.705,2.4729e-05,0.06521,-8.606e-05,-832.36,1.4564
9548,18.09,0.54545,0,9.6497e-05,964.3,4.0044e-05,99.71,2.6784e-05,0.078117,-9.4412e-05,-910.54,1.4446
9549,18.182,0.54545,0.05,2.2673e-06,22.658,1.741e-06,13.081,6.145e-13,8.1563e-06,-1.741e-06,-13.081,1.4566
9550,18.182,0.27273,0,8.2307e-05,822.51,3.1111e-05,47.768,2.4774e-05,0.15634,-8.1389e-05,-797.51,1.4558
9551,18.09,0.36364,0,9.0651e-05,905.88,3.5213e-05,64.087,2.6686e-05,0.018013,-8.939e-05,-872.13,1.444
9552,18.182,0.36364,0.05,2.2886e-06,22.87,1.7573e-06,13.204,1.1437e-12,7.2346e-06,-1.7573e-06,-13.204,1.4561
9553,18.09,0.18182,0,8.613e-05,860.71,3.0943e-05,30.431,2.6918e-05,0.18878,-8.557e-05,-845,1.4434
9554,18.182,0.18182,0.05,2.4577e-06,24.56,1.8872e-06,14.18,5.6698e-13,4.436e-06,-1.8872e-06,-14.18,1.4554
9555,18.182,0.090909,0,7.8286e-05,782.32,2.7159e-05,15.94,2.5046e-05,0.068318,-7.8001e-05,-774.19,1.4551
9556,17.998,5.7273,0,9.4492e-05,944.26,3.5074e-05,46.97,2.8833e-05,0.07813,-9.3604e-05,-919.87,1.4317
9557,17.906,5.8182,0,9.7922e-05,978.54,3.4785e-05,29.749,3.0835e-05,0.066251,-9.7381e-05,-963.3,1.4194
9558,17.998,5.8182,0.05,2.1939e-06,21.924,1.6846e-06,12.658,-1.5183e-13,3.5676e-06,-1.6846e-06,-12.658,1.4314
9559,17.998,5.9091,0,9.0806e-05,907.43,3.1291e-05,15.927,2.9178e-05,0.048999,-9.0523e-05,-899.34,1.4311
9560,17.998,5.5455,0,9.945e-05,993.81,3.9482e-05,80.745,2.874e-05,0.033606,-9.783e-05,-950.96,1.4323
9561,17.906,5.6364,0,0.00010213,1020.6,3.8876e-05,62.457,3.0559e-05,-0.031481,-0.00010093,-987.95,1.42
9562,17.998,5.6364,0.05,2.0867e-06,20.853,1.6023e-06,12.039,-3.2312e-13,5.5067e-06,-1.6023e-06,-12.039,1.432
9563,17.998,5.3636,0,0.00010556,1054.9,4.4304e-05,115.21,2.8977e-05,0.04755,-0.00010313,-992.54,1.4329
9564,17.906,5.4545,0,0.00010728,1072,4.3201e-05,94.615,3.0617e-05,0.061067,-0.00010535,-1021.6,1.4206
9565,17.998,5.4545,0.05,2.0497e-06,20.483,1.5739e-06,11.826,6.2086e-14,9.6244e-06,-1.5739e-06,-11.826,1.4326
9566,17.998,5.1818,0,0.00011283,1127.5,4.9529e-05,150.14,2.9548e-05,0.011495,-0.00010952,-1044.9,1.4334
9567,17.906,5.2727,0,0.00011344,1133.6,4.7842e-05,126.69,3.0984e-05,0.021104,-0.00011075,-1064.9,1.4212
9568,17.998,5.2727,0.05,2.0045e-06,20.031,1.5392e-06,11.565,-2.3422e-13,9.4855e-06,-1.5392e-06,-11.565,1.4331
9569,17.998,5,0,0.00012107,1209.9,5.4974e-05,183.91,3.0495e-05,-0.012575,-0.00011689,-1107.4,1.4339
9570,17.906,5.0909,0,0.00012052,1204.4,5.2714e-05,157.95,3.1692e-05,0.003513,-0.00011706,-1117.6,1.4217
9571,17.998,5.0909,0.05,1.935e-06,19.336,1.4858e-06,11.164,9.2887e-14,1.4086e-05,-1.4858e-06,-11.164,1.4337
9572,17.998,4.8182,0,0.00012998,1298.9,6.0309e-05,213.65,3.1869e-05,-0.033172,-0.00012502,-1178.8,1.4344
9573,17.906,4.9091,0,0.00012832,1282.3,5.7592e-05,186.48,3.2771e-05,-0.01535,-0.00012413,-1178.9,1.4222
9574,17.998,4.9091,0.05,1.8269e-06,18.257,1.4029e-06,10.541,9.0921e-13,2.216e-05,-1.4029e-06,-10.541,1.4342
9575,17.998,4.6364,0,0.00013907,1389.8,6.5093e-05,235.7,3.3718e-05,-0.042224,-0.00013356,-1256.9,1.4348
9576,17.906,4.7273,0,0.00013648,1363.8,6.2144e-05,209.49,3.4258e-05,-0.027834,-0.0001317,-1247,1.4226
9577,17.998,4.7273,0.05,1.6698e-06,16.687,1.2822e-06,9.634,1.5038e-12,2.8197e-05,-1.2822e-06,-9.6339,1.4346
9578,17.998,4.4545,0,0.00014781,1477.1,6.8864e-05,246.51,3.6052e-05,-0.034293,-0.00014207,-1338.3,1.4352
9579,17.906,4.5455,0,0.00014454,1444.4,6.5975e-05,223.9,3.6172e-05,-0.031764,-0.00013942,-1319.4,1.423
9580,17.998,4.5455,0.05,1.4695e-06,14.685,1.1284e-06,8.4786,3.6099e-12,5.0269e-05,-1.1284e-06,-8.4785,1.435
9581,17.998,4.2727,0,0.00015568,1555.7,7.1302e-05,244.19,3.8799e-05,-0.030623,-0.00015008,-1419.2,1.4356
9582,17.906,4.3636,0,0.00015202,1519.2,6.874e-05,227.33,3.8481e-05,-0.027391,-0.00014687,-1392.7,1.4234
9583,17.998,4.3636,0.05,1.2606e-06,12.597,9.6795e-07,7.2728,7.1986e-12,7.2293e-05,-9.6796e-07,-7.2728,1.4354
9584,17.998,4.0909,0,0.00016239,1622.7,7.2405e-05,230.05,4.1785e-05,-0.020569,-0.00015724,-1495.4,1.4359
9585,17.906,4.1818,0,0.00015857,1584.6,7.0293e-05,219.52,4.1072e-05,-0.034263,-0.00015369,-1463.4,1.4237
9586,17.998,4.1818,0.05,1.097e-06,10.962,8.4233e-07,6.329,1.1411e-11,0.00012152,-8.4234e-07,-6.329,1.4357
9587,17.998,3.9091,0,0.00016791,1678,7.2529e-05,208.73,4.475e-05,0.011964,-0.00016338,-1563.8,1.4362
9588,17.906,4,0,0.00016404,1639.3,7.0798e-05,203.16,4.3757e-05,-0.022208,-0.00015964,-1528.3,1.424
9589,17.998,4,0.05,9.9746e-07,9.9677,7.6592e-07,5.7549,1.3654e-11,0.00011517,-7.6593e-07,-5.7549,1.436
9590,17.998,3.7273,0,0.0001724,1722.8,7.221e-05,186.33,4.7415e-05,0.030481,-0.00016847,-1622.1,1.4364
9591,17.906,3.8182,0,0.00016853,1684.1,7.0671e-05,183.15,4.6296e-05,0.00026236,-0.00016466,-1585.1,1.4242
9592,17.998,3.8182,0.05,9.3548e-07,9.3484,7.1833e-07,5.3973,1.0643e-11,0.00010696,-7.1834e-07,-5.3973,1.4363
9593,17.998,3.5455,0,0.00017597,1758.5,7.1881e-05,167.68,4.957e-05,0.049413,-0.00017252,-1668.6,1.4365
9594,17.906,3.6364,0,0.00017216,1720.4,7.0356e-05,164.45,4.8472e-05,0.018229,-0.00016877,-1632.2,1.4244
9595,17.998,3.6364,0.05,8.9212e-07,8.9151,6.8504e-07,5.1471,3.8124e-12,6.4948e-05,-6.8504e-07,-5.1471,1.4364
9596,17.998,3.3636,0,0.00017862,1785,7.1715e-05,154.88,5.1113e-05,0.086542,-0.00017548,-1702.4,1.4367
9597,17.906,3.4545,0,0.00017497,1748.5,7.0126e-05,150.16,5.0148e-05,0.054248,-0.00017193,-1668.6,1.4245
9598,17.998,3.4545,0.05,8.6938e-07,8.6878,6.6758e-07,5.0159,1.7845e-12,4.3341e-05,-6.6758e-07,-5.0159,1.4366
9599,17.998,3.1818,0,0.00018026,1801.4,7.168e-05,147.8,5.2024e-05,0.11258,-0.00017729,-1722.9,1.4367
9600,17.906,3.2727,0,0.00017693,1768,7.0033e-05,141.12,5.1263e-05,0.087501,-0.0001741,-1693.2,1.4246
9601,17.998,3.2727,0.05,8.6192e-07,8.6132,6.6185e-07,4.9729,-2.738e-13,1.7991e-05,-6.6184e-07,-4.9728,1.4367
9602,17.998,3,0,0.00018082,1806.9,7.1682e-05,145.58,5.2323e-05,0.11955,-0.0001779,-1729.7,1.4367
9603,17.906,3.0909,0,0.00017793,1778.1,7.0018e-05,136.87,5.1816e-05,0.1027,-0.00017521,-1705.6,1.4247
9604,17.998,3.0909,0.05,8.6069e-07,8.601,6.6091e-07,4.9658,-2.7144e-15,1.0369e-05,-6.609e-07,-4.9657,1.4367
9605,17.998,2.8182,0,0.00018026,1801.4,7.168e-05,147.8,5.2024e-05,0.11258,-0.00017729,-1722.9,1.4367
9606,17.906,2.9091,0,0.00017793,1778.1,7.0018e-05,136.87,5.1816e-05,0.1027,-0.00017521,-1705.6,1.4247
9607,17.998,2.9091,0.05,8.6069e-07,8.601,6.609e-07,4.9658,-1.7235e-12,3.3747e-06,-6.609e-07,-4.9658,1.4367
9608,17.998,2.6364,0,0.00017862,1785,7.1715e-05,154.88,5.1113e-05,0.086542,-0.00017548,-1702.4,1.4367
9609,17.906,2.7273,0,0.00017693,1768,7.0033e-05,141.12,5.1263e-05,0.087501,-0.0001741,-1693.2,1.4246
9610,17.998,2.7273,0.05,8.6192e-07,8.6132,6.6185e-07,4.9729,-2.2858e-12,-1.7513e-06,-6.6184e-07,-4.9728,1.4367
9611,17.998,2.4545,0,0.00017597,1758.5,7.1881e-05,167.68,4.9571e-05,0.049413,-0.00017252,-1668.6,1.4365
9612,17.906,2.5455,0,0.00017497,1748.5,7.0126e-05,150.16,5.0148e-05,0.054249,-0.00017193,-1668.6,1.4245
9613,17.998,2.5455,0.05,8.6938e-07,8.6878,6.6758e-07,5.0159,-2.8214e-12,-1.3083e-05,-6.6757e-07,-5.0159,1.4366
9614,17.998,2.2727,0,0.0001724,1722.8,7.221e-05,186.33,4.7415e-05,0.030481,-0.00016847,-1622.1,1.4364
9615,17.906,2.3636,0,0.00017216,1720.4,7.0356e-05,164.45,4.8472e-05,0.018229,-0.00016877,-1632.2,1.4244
9616,17.998,2.3636,0.05,8.9212e-07,8.9151,6.8504e-07,5.1471,-3.1863e-12,-1.6091e-05,-6.8504e-07,-5.1471,1.4364
9617,17.998,2.0909,0,0.00016791,1678,7.2529e-05,208.73,4.475e-05,0.011965,-0.00016338,-1563.8,1.4362
9618,17.906,2.1818,0,0.00016853,1684.1,7.0671e-05,183.15,4.6296e-05,0.00026249,-0.00016466,-1585.1,1.4242
9619,17.998,2.1818,0.05,9.3548e-07,9.3484,7.1834e-07,5.3973,-5.1775e-12,-5.8386e-05,-7.1833e-07,-5.3973,1.4363
9620,17.998,1.9091,0,0.00016239,1622.7,7.2405e-05,230.05,4.1785e-05,-0.020569,-0.00015724,-1495.4,1.4359
9621,17.906,2,0,0.00016404,1639.3,7.0798e-05,203.16,4.3757e-05,-0.022207,-0.00015964,-1528.3,1.424
9622,17.998,2,0.05,9.9746e-07,9.9677,7.6593e-07,5.7549,-5.512e-12,-3.1659e-05,-7.6592e-07,-5.7549,1.436
9623,17.998,1.7273,0,0.00015568,1555.7,7.1302e-05,244.19,3.8799e-05,-0.030623,-0.00015008,-1419.2,1.4356
9624,17.906,1.8182,0,0.00015857,1584.6,7.0293e-05,219.52,4.1072e-05,-0.034263,-0.00015369,-1463.4,1.4237
9625,17.998,1.8182,0.05,1.097e-06,10.962,8.4234e-07,6.329,-3.6834e-12,-1.9844e-05,-8.4234e-07,-6.329,1.4357
9626,17.998,1.5455,0,0.00014781,1477.1,6.8864e-05,246.51,3.6052e-05,-0.034292,-0.00014207,-1338.3,1.4352
9627,17.906,1.6364,0,0.00015202,1519.2,6.874e-05,227.33,3.8481e-05,-0.027391,-0.00014687,-1392.7,1.4234
9628,17.998,1.6364,0.05,1.2606e-06,12.597,9.6796e-07,7.2728,-3.3995e-12,-2.9893e-05,-9.6795e-07,-7.2728,1.4354
9629,17.998,1.3636,0,0.00013907,1389.8,6.5093e-05,235.7,3.3718e-05,-0.042224,-0.00013356,-1256.9,1.4348
9630,17.906,1.4545,0,0.00014454,1444.4,6.5975e-05,223.9,3.6172e-05,-0.031763,-0.00013942,-1319.4,1.423
9631,17.998,1.4545,0.05,1.4695e-06,14.685,1.1284e-06,8.4786,-1.0531e-12,-1.1432e-05,-1.1284e-06,-8.4786,1.435
9632,17.998,1.1818,0,0.00012998,1298.9,6.0309e-05,213.65,3.1869e-05,-0.033172,-0.00012502,-1178.8,1.4344
9633,17.906,1.2727,0,0.00013648,1363.8,6.2144e-05,209.49,3.4258e-05,-0.027834,-0.0001317,-1247,1.4226
9634,17.998,1.2727,0.05,1.6698e-06,16.687,1.2822e-06,9.634,4.8822e-13,-6.7505e-06,-1.2822e-06,-9.634,1.4346
9635,17.998,1,0,0.00012107,1209.9,5.4974e-05,183.91,3.0495e-05,-0.012574,-0.00011689,-1107.4,1.4339
9636,17.906,1.0909,0,0.00012832,1282.3,5.7592e-05,186.48,3.2771e-05,-0.01535,-0.00012413,-1178.9,1.4222
9637,17.998,1.0909,0.05,1.8269e-06,18.257,1.4029e-06,10.541,8.559e-13,4.0025e-06,-1.4029e-06,-10.541,1.4342
9638,17.998,0.81818,0,0.00011283,1127.5,4.9529e-05,150.14,2.9548e-05,0.011497,-0.00010952,-1044.9,1.4334
9639,17.906,0.90909,0,0.00012052,1204.4,5.2714e-05,157.95,3.1692e-05,0.0035145,-0.00011706,-1117.6,1.4217
9640,17.998,0.90909,0.05,1.935e-06,19.336,1.4858e-06,11.164,8.3957e-13,3.322e-06,-1.4858e-06,-11.164,1.4337
9641,17.998,0.63636,0,0.00010556,1054.9,4.4304e-05,115.21,2.8977e-05,0.04755,-0.00010313,-992.54,1.4329
9642,17.906,0.72727,0,0.00011344,1133.6,4.7842e-05,126.69,3.0984e-05,0.021106,-0.00011075,-1064.9,1.4212
9643,17.998,0.72727,0.05,2.0045e-06,20.031,1.5392e-06,11.565,1.0693e-12,5.7827e-06,-1.5392e-06,-11.565,1.4331
9644,17.998,0.45455,0,9.945e-05,993.81,3.9482e-05,80.745,2.874e-05,0.033605,-9.783e-05,-950.96,1.4323
9645,17.906,0.54545,0,0.00010728,1072,4.3201e-05,94.615,3.0617e-05,0.061067,-0.00010535,-1021.6,1.4206
9646,17.998,0.54545,0.05,2.0497e-06,20.483,1.5739e-06,11.826,2.0703e-12,7.527e-06,-1.5739e-06,-11.826,1.4326
9647,17.998,0.27273,0,9.4492e-05,944.26,3.5074e-05,46.97,2.8833e-05,0.078129,-9.3604e-05,-919.87,1.4317
9648,17.906,0.36364,0,0.00010213,1020.6,3.8876e-05,62.457,3.0559e-05,-0.031482,-0.00010093,-987.95,1.42
9649,17.998,0.36364,0.05,2.0867e-06,20.853,1.6023e-06,12.039,1.0638e-12,7.7549e-06,-1.6023e-06,-12.039,1.432
9650,17.906,0.18182,0,9.7922e-05,978.54,3.4785e-05,29.749,3.0835e-05,0.066252,-9.7381e-05,-963.3,1.4194
9651,17.998,0.18182,0.05,2.1939e-06,21.924,1.6846e-06,12.658,1.6878e-13,5.9048e-06,-1.6846e-06,-12.658,1.4314
9652,17.998,0.090909,0,9.0806e-05,907.43,3.1291e-05,15.927,2.9178e-05,0.049,-9.0523e-05,-899.34,1.4311
9653,17.814,5.7273,0,0.00010556,1054.9,3.8598e-05,45.317,3.2568e-05,0.0084625,-0.00010472,-1031.5,1.4078
9654,17.723,5.8182,0,0.00010866,1085.8,3.8251e-05,28.737,3.4422e-05,-0.026549,-0.00010814,-1071.2,1.3955
9655,17.814,5.8182,0.05,1.9275e-06,19.261,1.48e-06,11.121,-2.9222e-13,3.0082e-06,-1.48e-06,-11.12,1.4074
9656,17.814,5.9091,0,0.00010221,1021.4,3.5032e-05,15.65,3.2953e-05,0.027825,-0.00010193,-1013.4,1.4072
9657,17.814,5.5455,0,0.00011001,1099.3,4.2647e-05,76.72,3.2437e-05,0.0034307,-0.0001085,-1059,1.4083
9658,17.723,5.6364,0,0.0001125,1124.2,4.2078e-05,59.705,3.4122e-05,-0.067325,-0.00011137,-1093.2,1.3961
9659,17.814,5.6364,0.05,1.8904e-06,18.891,1.4516e-06,10.907,-4.2471e-13,2.737e-06,-1.4516e-06,-10.907,1.408
9660,17.814,5.3636,0,0.00011526,1151.8,4.6839e-05,106.84,3.2625e-05,0.037032,-0.00011307,-1094.7,1.4089
9661,17.723,5.4545,0,0.00011701,1169.3,4.5939e-05,88.72,3.4138e-05,0.045588,-0.00011524,-1122.3,1.3967
9662,17.814,5.4545,0.05,1.8466e-06,18.453,1.418e-06,10.654,-4.288e-13,5.0035e-06,-1.418e-06,-10.654,1.4086
9663,17.814,5.1818,0,0.00012131,1212.2,5.1171e-05,135.58,3.3128e-05,0.014057,-0.00011843,-1138.7,1.4094
9664,17.723,5.2727,0,0.00012221,1221.3,4.9892e-05,116.08,3.4445e-05,0.01906,-0.00011982,-1159.1,1.3972
9665,17.814,5.2727,0.05,1.7866e-06,17.853,1.3719e-06,10.308,-2.5502e-13,4.6988e-06,-1.3719e-06,-10.308,1.4092
9666,17.814,5,0,0.000128,1279.1,5.5507e-05,161.84,3.3968e-05,0.00099135,-0.00012447,-1190.4,1.4099
9667,17.723,5.0909,0,0.00012804,1279.5,5.3868e-05,141.32,3.506e-05,0.011789,-0.00012505,-1203,1.3977
9668,17.814,5.0909,0.05,1.7026e-06,17.014,1.3074e-06,9.8231,-2.6297e-13,5.3474e-06,-1.3074e-06,-9.8231,1.4097
9669,17.814,4.8182,0,0.00013506,1349.7,5.9612e-05,183.72,3.516e-05,-0.010238,-0.000131,-1248.5,1.4104
9670,17.723,4.9091,0,0.0001343,1342.1,5.7705e-05,163.13,3.5994e-05,0.00097696,-0.00013078,-1253.1,1.3982
9671,17.814,4.9091,0.05,1.5879e-06,15.868,1.2193e-06,9.1614,6.4998e-13,1.1809e-05,-1.2193e-06,-9.1614,1.4101
9672,17.814,4.6364,0,0.00014217,1420.7,6.3196e-05,198.98,3.6712e-05,-0.017875,-0.00013773,-1310.7,1.4108
9673,17.723,4.7273,0,0.00014073,1406.3,6.1175e-05,179.75,3.7251e-05,-0.0057466,-0.00013681,-1307.8,1.3986
9674,17.814,4.7273,0.05,1.4407e-06,14.397,1.1063e-06,8.312,5.6195e-13,1.979e-05,-1.1063e-06,-8.312,1.4106
9675,17.814,4.4545,0,0.00014893,1488.3,6.5988e-05,205.75,3.86e-05,-0.025307,-0.00014436,-1374.7,1.4112
9676,17.723,4.5455,0,0.000147,1469,6.4035e-05,189.44,3.8821e-05,-0.011551,-0.00014285,-1365,1.399
9677,17.814,4.5455,0.05,1.2689e-06,12.681,9.7438e-07,7.3211,2.4456e-12,3.5817e-05,-9.7438e-07,-7.3211,1.411
9678,17.814,4.2727,0,0.00015504,1549.3,6.7826e-05,203.38,4.0754e-05,-0.031175,-0.00015057,-1437.6,1.4115
9679,17.723,4.3636,0,0.00015279,1526.9,6.6096e-05,191.12,4.0656e-05,-0.01812,-0.00014864,-1422.3,1.3994
9680,17.814,4.3636,0.05,1.0932e-06,10.925,8.3946e-07,6.3074,5.095e-12,5.3077e-05,-8.3947e-07,-6.3074,1.4113
9681,17.814,4.0909,0,0.0001603,1601.9,6.8746e-05,193.08,4.3044e-05,-0.035815,-0.00015614,-1496.7,1.4118
9682,17.723,4.1818,0,0.0001579,1577.9,6.7304e-05,185.08,4.2668e-05,-0.022907,-0.00015394,-1477.2,1.3997
9683,17.814,4.1818,0.05,9.3631e-07,9.3567,7.1897e-07,5.4021,7.6983e-12,7.4203e-05,-7.1897e-07,-5.4021,1.4117
9684,17.814,3.9091,0,0.0001647,1645.9,6.8973e-05,177.82,4.5302e-05,-0.033415,-0.00016095,-1549.8,1.4121
9685,17.723,4,0,0.00016223,1621.2,6.778e-05,173.21,4.4723e-05,-0.026218,-0.00015859,-1527.6,1.3999
9686,17.814,4,0.05,8.0749e-07,8.0693,6.2005e-07,4.6588,9.7549e-12,9.4721e-05,-6.2006e-07,-4.6588,1.4119
9687,17.814,3.7273,0,0.0001683,1681.8,6.8831e-05,161.37,4.7353e-05,-0.010216,-0.00016497,-1595.3,1.4123
9688,17.723,3.8182,0,0.0001658,1656.9,6.778e-05,158.6,4.6669e-05,-0.017896,-0.00016253,-1571.9,1.4002
9689,17.814,3.8182,0.05,7.0151e-07,7.0102,5.3866e-07,4.0473,9.2282e-12,7.7317e-05,-5.3867e-07,-4.0474,1.4122
9690,17.814,3.5455,0,0.00017116,1710.4,6.8601e-05,146.93,4.905e-05,0.026555,-0.00016818,-1632.2,1.4124
9691,17.723,3.6364,0,0.00016869,1685.7,6.7581e-05,144.41,4.8362e-05,0.0071673,-0.00016577,-1608.9,1.4003
9692,17.814,3.6364,0.05,6.1707e-07,6.1664,4.7383e-07,3.5602,5.7684e-12,9.2606e-05,-4.7383e-07,-3.5602,1.4123
9693,17.814,3.3636,0,0.00017327,1731.5,6.8432e-05,136.3,5.0299e-05,0.0597,-0.00017054,-1659.3,1.4125
9694,17.723,3.4545,0,0.00017092,1708,6.7378e-05,132.9,4.9694e-05,0.036824,-0.00016827,-1637.6,1.4005
9695,17.814,3.4545,0.05,5.6046e-07,5.6007,4.3036e-07,3.2336,3.7358e-12,4.6777e-05,-4.3037e-07,-3.2336,1.4125
9696,17.814,3.1818,0,0.00017457,1744.5,6.8351e-05,130.03,5.1056e-05,0.082248,-0.000172,-1675.9,1.4126
9697,17.723,3.2727,0,0.00017245,1723.3,6.725e-05,125.13,5.0604e-05,0.061972,-0.00016998,-1657.3,1.4006
9698,17.814,3.2727,0.05,5.3258e-07,5.3221,4.0895e-07,3.0727,7.2655e-13,2.0381e-05,-4.0895e-07,-3.0727,1.4126
9699,17.814,3,0,0.00017502,1749,6.8329e-05,127.98,5.1309e-05,0.090413,-0.00017249,-1681.4,1.4126
9700,17.723,3.0909,0,0.00017324,1731.2,6.7196e-05,121.3,5.1063e-05,0.076561,-0.00017086,-1667.4,1.4006
9701,17.814,3.0909,0.05,5.2334e-07,5.2298,4.0186e-07,3.0195,1.0755e-12,4.4277e-06,-4.0186e-07,-3.0194,1.4126
9702,17.814,2.8182,0,0.00017457,1744.5,6.8351e-05,130.03,5.1056e-05,0.082249,-0.000172,-1675.9,1.4126
9703,17.723,2.9091,0,0.00017324,1731.2,6.7196e-05,121.3,5.1063e-05,0.07656,-0.00017086,-1667.4,1.4006
9704,17.814,2.9091,0.05,5.2334e-07,5.2298,4.0186e-07,3.0195,-9.0764e-13,-1.6052e-06,-4.0186e-07,-3.0194,1.4126
9705,17.814,2.6364,0,0.00017327,1731.5,6.8432e-05,136.3,5.0299e-05,0.0597,-0.00017054,-1659.3,1.4125
9706,17.723,2.7273,0,0.00017245,1723.3,6.725e-05,125.13,5.0604e-05,0.061972,-0.00016998,-1657.3,1.4006
9707,17.814,2.7273,0.05,5.3258e-07,5.3221,4.0895e-07,3.0727,-2.4498e-12,-2.8556e-06,-4.0895e-07,-3.0727,1.4126
9708,17.814,2.4545,0,0.00017116,1710.4,6.8601e-05,146.93,4.905e-05,0.026556,-0.00016818,-1632.2,1.4124
9709,17.723,2.5455,0,0.00017092,1708,6.7378e-05,132.9,4.9695e-05,0.036825,-0.00016827,-1637.6,1.4005
9710,17.814,2.5455,0.05,5.6046e-07,5.6007,4.3037e-07,3.2336,-3.0359e-12,-1.2627e-05,-4.3036e-07,-3.2336,1.4125
9711,17.814,2.2727,0,0.0001683,1681.8,6.8831e-05,161.37,4.7353e-05,-0.010216,-0.00016497,-1595.3,1.4123
9712,17.723,2.3636,0,0.00016869,1685.7,6.7581e-05,144.41,4.8362e-05,0.0071677,-0.00016577,-1608.9,1.4003
9713,17.814,2.3636,0.05,6.1707e-07,6.1664,4.7383e-07,3.5602,-4.0446e-12,-1.9073e-05,-4.7383e-07,-3.5602,1.4123
9714,17.814,2.0909,0,0.0001647,1645.9,6.8973e-05,177.82,4.5302e-05,-0.033415,-0.00016095,-1549.8,1.4121
9715,17.723,2.1818,0,0.0001658,1656.9,6.778e-05,158.6,4.6669e-05,-0.017896,-0.00016253,-1571.9,1.4002
9716,17.814,2.1818,0.05,7.0151e-07,7.0102,5.3867e-07,4.0474,-3.6015e-12,-6.0629e-05,-5.3867e-07,-4.0473,1.4122
9717,17.814,1.9091,0,0.0001603,1601.9,6.8746e-05,193.08,4.3044e-05,-0.035814,-0.00015614,-1496.7,1.4118
9718,17.723,2,0,0.00016223,1621.2,6.778e-05,173.21,4.4723e-05,-0.026217,-0.00015859,-1527.6,1.3999
9719,17.814,2,0.05,8.0749e-07,8.0693,6.2005e-07,4.6588,-4.6745e-12,-4.0394e-05,-6.2005e-07,-4.6588,1.4119
9720,17.814,1.7273,0,0.00015504,1549.3,6.7826e-05,203.38,4.0754e-05,-0.031174,-0.00015057,-1437.6,1.4115
9721,17.723,1.8182,0,0.0001579,1577.9,6.7304e-05,185.08,4.2668e-05,-0.022906,-0.00015394,-1477.2,1.3997
9722,17.814,1.8182,0.05,9.3631e-07,9.3567,7.1897e-07,5.4021,-2.4271e-12,-4.0039e-05,-7.1897e-07,-5.4021,1.4117
9723,17.814,1.5455,0,0.00014893,1488.3,6.5988e-05,205.75,3.8601e-05,-0.025307,-0.00014436,-1374.7,1.4112
9724,17.723,1.6364,0,0.00015279,1526.9,6.6096e-05,191.12,4.0657e-05,-0.018119,-0.00014864,-1422.3,1.3994
9725,17.814,1.6364,0.05,1.0932e-06,10.925,8.3947e-07,6.3074,-9.8608e-13,-2.082e-05,-8.3946e-07,-6.3074,1.4113
9726,17.814,1.3636,0,0.00014217,1420.7,6.3196e-05,198.98,3.6712e-05,-0.017874,-0.00013773,-1310.7,1.4108
9727,17.723,1.4545,0,0.000147,1469,6.4035e-05,189.44,3.8821e-05,-0.011551,-0.00014285,-1365,1.399
9728,17.814,1.4545,0.05,1.2689e-06,12.681,9.7438e-07,7.3211,2.355e-13,-1.0665e-05,-9.7438e-07,-7.3211,1.411
9729,17.814,1.1818,0,0.00013506,1349.7,5.9612e-05,183.72,3.516e-05,-0.010238,-0.000131,-1248.5,1.4104
9730,17.723,1.2727,0,0.00014073,1406.3,6.1175e-05,179.75,3.7251e-05,-0.0057463,-0.00013681,-1307.8,1.3986
9731,17.814,1.2727,0.05,1.4407e-06,14.397,1.1063e-06,8.312,4.0999e-13,-4.7533e-06,-1.1063e-06,-8.312,1.4106
9732,17.814,1,0,0.000128,1279.1,5.5507e-05,161.84,3.3968e-05,0.0009918,-0.00012447,-1190.4,1.4099
9733,17.723,1.0909,0,0.0001343,1342.1,5.7705e-05,163.13,3.5994e-05,0.00097675,-0.00013078,-1253.1,1.3982
9734,17.814,1.0909,0.05,1.5879e-06,15.868,1.2193e-06,9.1614,1.0776e-12,-1.0899e-06,-1.2193e-06,-9.1614,1.4101
9735,17.814,0.81818,0,0.00012131,1212.2,5.1171e-05,135.58,3.3128e-05,0.014058,-0.00011843,-1138.7,1.4094
9736,17.723,0.90909,0,0.00012804,1279.5,5.3868e-05,141.32,3.506e-05,0.01179,-0.00012505,-1203,1.3977
9737,17.814,0.90909,0.05,1.7026e-06,17.014,1.3074e-06,9.8231,1.2357e-12,1.0342e-06,-1.3074e-06,-9.8231,1.4097
9738,17.814,0.63636,0,0.00011526,1151.8,4.6839e-05,106.84,3.2625e-05,0.037034,-0.00011307,-1094.7,1.4089
9739,17.723,0.72727,0,0.00012221,1221.3,4.9892e-05,116.08,3.4445e-05,0.019061,-0.00011982,-1159.1,1.3972
9740,17.814,0.72727,0.05,1.7866e-06,17.853,1.3719e-06,10.308,1.5358e-12,5.0532e-06,-1.3719e-06,-10.308,1.4092
9741,17.814,0.45455,0,0.00011001,1099.3,4.2647e-05,76.72,3.2437e-05,0.0034312,-0.0001085,-1059,1.4083
9742,17.723,0.54545,0,0.00011701,1169.3,4.5939e-05,88.719,3.4138e-05,0.04559,-0.00011524,-1122.3,1.3967
9743,17.814,0.54545,0.05,1.8466e-06,18.453,1.418e-06,10.654,1.2547e-12,5.427e-06,-1.418e-06,-10.654,1.4086
9744,17.814,0.27273,0,0.00010556,1054.9,3.8598e-05,45.317,3.2568e-05,0.0084624,-0.00010472,-1031.5,1.4078
9745,17.723,0.36364,0,0.0001125,1124.2,4.2078e-05,59.705,3.4122e-05,-0.067326,-0.00011137,-1093.2,1.3961
9746,17.814,0.36364,0.05,1.8904e-06,18.891,1.4516e-06,10.907,8.913e-13,4.134e-06,-1.4516e-06,-10.907,1.408
9747,17.723,0.18182,0,0.00010866,1085.8,3.8251e-05,28.737,3.4422e-05,-0.026549,-0.00010814,-1071.2,1.3955
9748,17.814,0.18182,0.05,1.9275e-06,19.261,1.48e-06,11.121,1.1339e-12,4.649e-06,-1.48e-06,-11.121,1.4074
9749,17.814,0.090909,0,0.00010221,1021.4,3.5032e-05,15.65,3.2953e-05,0.027825,-0.00010193,-1013.4,1.4072
9750,17.631,5.7273,0,0.00011559,1155.1,4.1729e-05,43.115,3.5986e-05,-0.038408,-0.0001148,-1132.9,1.3839
9751,17.539,5.8182,0,0.00011842,1183.4,4.1378e-05,27.565,3.7698e-05,-0.083067,-0.00011793,-1169.4,1.3716
9752,17.631,5.8182,0.05,1.6728e-06,16.717,1.2845e-06,9.6515,-2.5289e-13,2.7029e-06,-1.2845e-06,-9.6515,1.3835
9753,17.631,5.9091,0,0.00011255,1124.7,3.8412e-05,15.238,3.6386e-05,0.0144,-0.00011229,-1117,1.3833
9754,17.631,5.5455,0,0.00011953,1194.4,4.5402e-05,71.941,3.5825e-05,-0.015546,-0.00011814,-1156.8,1.3844
9755,17.539,5.6364,0,0.00012186,1217.7,4.4885e-05,56.248,3.7387e-05,-0.087934,-0.0001208,-1188.7,1.3722
9756,17.631,5.6364,0.05,1.7095e-06,17.083,1.3127e-06,9.863,-4.8126e-13,2.0934e-06,-1.3127e-06,-9.8629,1.3841
9757,17.631,5.3636,0,0.00012402,1239.4,4.9053e-05,98.416,3.5958e-05,0.030983,-0.00012205,-1187.2,1.385
9758,17.539,5.4545,0,0.00012577,1256.8,4.8316e-05,82.331,3.7363e-05,0.034679,-0.00012417,-1213.6,1.3728
9759,17.631,5.4545,0.05,1.6661e-06,16.65,1.2794e-06,9.6126,-4.8643e-13,2.6769e-06,-1.2794e-06,-9.6126,1.3847
9760,17.631,5.1818,0,0.00012905,1289.6,5.2675e-05,122.47,3.6377e-05,0.018207,-0.00012653,-1224,1.3855
9761,17.539,5.2727,0,0.00013016,1300.7,5.1697e-05,105.92,3.7602e-05,0.018557,-0.00012804,-1244.5,1.3733
9762,17.631,5.2727,0.05,1.602e-06,16.009,1.2301e-06,9.2426,-2.5316e-13,1.8703e-06,-1.2301e-06,-9.2426,1.3852
9763,17.631,5,0,0.00013448,1343.9,5.6169e-05,143.39,3.7087e-05,0.012321,-0.00013146,-1266.4,1.386
9764,17.539,5.0909,0,0.00013496,1348.6,5.4974e-05,126.71,3.8113e-05,0.018302,-0.00013235,-1280.8,1.3738
9765,17.631,5.0909,0.05,1.5171e-06,15.16,1.1649e-06,8.7527,-7.1295e-13,4.4263e-06,-1.1649e-06,-8.7527,1.3858
9766,17.631,4.8182,0,0.00014011,1400.1,5.9377e-05,159.99,3.8085e-05,0.0055313,-0.0001367,-1313.3,1.3865
9767,17.539,4.9091,0,0.00014,1399,5.8034e-05,143.85,3.889e-05,0.012197,-0.00013699,-1321.5,1.3743
9768,17.631,4.9091,0.05,1.4091e-06,14.081,1.082e-06,8.1297,-4.0643e-13,9.3261e-06,-1.082e-06,-8.1297,1.3862
9769,17.631,4.6364,0,0.00014569,1455.9,6.2116e-05,170.98,3.936e-05,0.0003945,-0.00014203,-1362.9,1.3869
9770,17.539,4.7273,0,0.00014508,1449.8,6.0728e-05,156.31,3.9926e-05,0.0077566,-0.00014179,-1365.3,1.3747
9771,17.631,4.7273,0.05,1.2793e-06,12.784,9.8231e-07,7.3807,-2.9455e-13,1.4812e-05,-9.8231e-07,-7.3807,1.3866
9772,17.631,4.4545,0,0.00015097,1508.7,6.4227e-05,175.44,4.0877e-05,-0.0046002,-0.00014722,-1413.3,1.3872
9773,17.539,4.5455,0,0.00014999,1498.9,6.2909e-05,163.15,4.1196e-05,0.0029729,-0.00014655,-1410.6,1.3751
9774,17.631,4.5455,0.05,1.1342e-06,11.335,8.7095e-07,6.544,2.2573e-12,2.4281e-05,-8.7095e-07,-6.544,1.387
9775,17.631,4.2727,0,0.00015574,1556.3,6.5634e-05,173.28,4.2571e-05,-0.010073,-0.00015207,-1462.4,1.3876
9776,17.539,4.3636,0,0.00015452,1544.1,6.4477e-05,163.97,4.2653e-05,-0.0023701,-0.00015108,-1455.6,1.3755
9777,17.631,4.3636,0.05,9.8481e-07,9.8413,7.5621e-07,5.6819,3.9877e-12,3.7925e-05,-7.5622e-07,-5.6819,1.3874
9778,17.631,4.0909,0,0.00015988,1597.7,6.6379e-05,165.52,4.4347e-05,-0.013529,-0.00015642,-1508.5,1.3878
9779,17.539,4.1818,0,0.00015852,1584.1,6.5419e-05,159.24,4.4225e-05,-0.0079783,-0.00015521,-1498.5,1.3758
9780,17.631,4.1818,0.05,8.4103e-07,8.4045,6.458e-07,4.8523,5.4896e-12,4.9582e-05,-6.4581e-07,-4.8523,1.3877
9781,17.631,3.9091,0,0.00016336,1632.5,6.6612e-05,154.18,4.609e-05,-0.010738,-0.00016019,-1549.9,1.3881
9782,17.539,4,0,0.00016193,1618.2,6.5826e-05,150.34,4.5816e-05,-0.009878,-0.00015885,-1537.8,1.376
9783,17.631,4,0.05,7.0664e-07,7.0615,5.4261e-07,4.077,9.1357e-12,5.8425e-05,-5.4261e-07,-4.077,1.388
9784,17.631,3.7273,0,0.00016621,1660.9,6.6542e-05,141.74,4.7678e-05,0.00016761,-0.00016334,-1585.5,1.3883
9785,17.539,3.8182,0,0.00016475,1646.4,6.5865e-05,139.33,4.7321e-05,-0.0049379,-0.00016194,-1572.3,1.3762
9786,17.631,3.8182,0.05,5.8044e-07,5.8004,4.457e-07,3.3489,8.7987e-12,7.4922e-05,-4.4571e-07,-3.3489,1.3882
9787,17.631,3.5455,0,0.00016845,1683.4,6.636e-05,130.41,4.9007e-05,0.019338,-0.00016586,-1614.4,1.3884
9788,17.539,3.6364,0,0.00016703,1669.1,6.5721e-05,128.35,4.8639e-05,0.0079119,-0.00016447,-1601.2,1.3764
9789,17.631,3.6364,0.05,4.6331e-07,4.6299,3.5576e-07,2.6731,7.3084e-12,6.1318e-05,-3.5577e-07,-2.6731,1.3883
9790,17.631,3.3636,0,0.0001701,1699.8,6.6191e-05,121.69,5e-05,0.04216,-0.0001677,-1635.7,1.3885
9791,17.539,3.4545,0,0.00016876,1686.4,6.5537e-05,119.1,4.969e-05,0.026922,-0.00016642,-1623.7,1.3765
9792,17.631,3.4545,0.05,3.6231e-07,3.6206,2.7821e-07,2.0904,6.6718e-12,5.6989e-05,-2.7821e-07,-2.0904,1.3885
9793,17.631,3.1818,0,0.00017111,1709.9,6.6086e-05,116.33,5.0611e-05,0.060028,-0.00016883,-1648.8,1.3886
9794,17.539,3.2727,0,0.00016995,1698.3,6.5396e-05,112.59,5.0416e-05,0.045401,-0.00016775,-1639.2,1.3766
9795,17.631,3.2727,0.05,2.8778e-07,2.8758,2.2098e-07,1.6604,2.8891e-12,3.0791e-05,-2.2098e-07,-1.6604,1.3886
9796,17.631,3,0,0.00017145,1713.3,6.6051e-05,114.53,5.0817e-05,0.066651,-0.00016922,-1653.2,1.3886
9797,17.539,3.0909,0,0.00017055,1704.3,6.5323e-05,109.28,5.0786e-05,0.056492,-0.00016843,-1647,1.3767
9798,17.631,3.0909,0.05,2.4834e-07,2.4817,1.9069e-07,1.4328,-9.9834e-13,8.8461e-06,-1.9069e-07,-1.4328,1.3886
9799,17.631,2.8182,0,0.00017111,1709.9,6.6086e-05,116.33,5.0611e-05,0.060028,-0.00016883,-1648.8,1.3886
9800,17.539,2.9091,0,0.00017055,1704.3,6.5323e-05,109.28,5.0786e-05,0.056491,-0.00016843,-1647,1.3767
9801,17.631,2.9091,0.05,2.4834e-07,2.4817,1.9069e-07,1.4328,-1.193e-12,-4.1239e-06,-1.9069e-07,-1.4328,1.3886
9802,17.631,2.6364,0,0.0001701,1699.8,6.6191e-05,121.69,5e-05,0.042161,-0.0001677,-1635.7,1.3885
9803,17.539,2.7273,0,0.00016995,1698.3,6.5396e-05,112.59,5.0416e-05,0.045401,-0.00016775,-1639.2,1.3766
9804,17.631,2.7273,0.05,2.8778e-07,2.8758,2.2098e-07,1.6604,-2.3488e-12,-6.5899e-06,-2.2098e-07,-1.6603,1.3886
9805,17.631,2.4545,0,0.00016845,1683.4,6.636e-05,130.41,4.9007e-05,0.019338,-0.00016586,-1614.4,1.3884
9806,17.539,2.5455,0,0.00016876,1686.4,6.5537e-05,119.1,4.969e-05,0.026922,-0.00016642,-1623.7,1.3765
9807,17.631,2.5455,0.05,3.6231e-07,3.6206,2.7821e-07,2.0904,-8.89e-13,-2.0933e-05,-2.7821e-07,-2.0904,1.3885
9808,17.631,2.2727,0,0.00016621,1660.9,6.6542e-05,141.74,4.7678e-05,0.00016795,-0.00016334,-1585.5,1.3883
9809,17.539,2.3636,0,0.00016703,1669.1,6.5721e-05,128.35,4.8639e-05,0.0079123,-0.00016447,-1601.2,1.3764
9810,17.631,2.3636,0.05,4.6331e-07,4.6299,3.5576e-07,2.6731,1.4727e-13,-1.4089e-05,-3.5576e-07,-2.6731,1.3883
9811,17.631,2.0909,0,0.00016336,1632.5,6.6612e-05,154.18,4.609e-05,-0.010738,-0.00016019,-1549.9,1.3881
9812,17.539,2.1818,0,0.00016475,1646.4,6.5865e-05,139.33,4.7321e-05,-0.0049367,-0.00016194,-1572.3,1.3762
9813,17.631,2.1818,0.05,5.8044e-07,5.8004,4.4571e-07,3.3489,-2.8427e-12,-2.3765e-05,-4.4571e-07,-3.3489,1.3882
9814,17.631,1.9091,0,0.00015988,1597.7,6.6379e-05,165.52,4.4347e-05,-0.013528,-0.00015642,-1508.5,1.3878
9815,17.539,2,0,0.00016193,1618.2,6.5826e-05,150.34,4.5816e-05,-0.0098783,-0.00015885,-1537.8,1.376
9816,17.631,2,0.05,7.0664e-07,7.0615,5.4261e-07,4.077,-3.6075e-12,-3.9357e-05,-5.4261e-07,-4.077,1.388
9817,17.631,1.7273,0,0.00015574,1556.3,6.5634e-05,173.28,4.2571e-05,-0.010072,-0.00015207,-1462.4,1.3876
9818,17.539,1.8182,0,0.00015852,1584.1,6.5419e-05,159.24,4.4225e-05,-0.0079775,-0.00015521,-1498.5,1.3758
9819,17.631,1.8182,0.05,8.4103e-07,8.4045,6.458e-07,4.8523,-1.7471e-12,-3.0259e-05,-6.458e-07,-4.8523,1.3877
9820,17.631,1.5455,0,0.00015097,1508.7,6.4227e-05,175.44,4.0877e-05,-0.0046002,-0.00014722,-1413.3,1.3872
9821,17.539,1.6364,0,0.00015452,1544.1,6.4477e-05,163.97,4.2653e-05,-0.0023697,-0.00015108,-1455.6,1.3755
9822,17.631,1.6364,0.05,9.8481e-07,9.8413,7.5621e-07,5.6819,-9.7931e-13,-1.8135e-05,-7.5621e-07,-5.6819,1.3874
9823,17.631,1.3636,0,0.00014569,1455.9,6.2116e-05,170.98,3.936e-05,0.0003942,-0.00014203,-1362.9,1.3869
9824,17.539,1.4545,0,0.00014999,1498.9,6.2909e-05,163.15,4.1196e-05,0.0029735,-0.00014655,-1410.6,1.3751
9825,17.631,1.4545,0.05,1.1342e-06,11.335,8.7095e-07,6.544,-1.3028e-12,-5.5007e-06,-8.7095e-07,-6.544,1.387
9826,17.631,1.1818,0,0.00014011,1400.1,5.9377e-05,159.99,3.8085e-05,0.0055312,-0.0001367,-1313.3,1.3865
9827,17.539,1.2727,0,0.00014508,1449.8,6.0728e-05,156.31,3.9926e-05,0.0077571,-0.00014179,-1365.3,1.3747
9828,17.631,1.2727,0.05,1.2793e-06,12.784,9.8231e-07,7.3806,1.0568e-12,-6.5761e-06,-9.8231e-07,-7.3807,1.3866
9829,17.631,1,0,0.00013448,1343.9,5.6169e-05,143.39,3.7087e-05,0.012322,-0.00013146,-1266.4,1.386
9830,17.539,1.0909,0,0.00014,1399,5.8034e-05,143.85,3.889e-05,0.012197,-0.00013699,-1321.5,1.3743
9831,17.631,1.0909,0.05,1.4091e-06,14.081,1.082e-06,8.1297,7.943e-13,3.7057e-06,-1.082e-06,-8.1297,1.3862
9832,17.631,0.81818,0,0.00012905,1289.6,5.2675e-05,122.47,3.6377e-05,0.018208,-0.00012653,-1224,1.3855
9833,17.539,0.90909,0,0.00013496,1348.6,5.4974e-05,126.71,3.8113e-05,0.018304,-0.00013235,-1280.8,1.3738
9834,17.631,0.90909,0.05,1.5171e-06,15.16,1.1649e-06,8.7527,1.2522e-12,2.9277e-06,-1.1649e-06,-8.7527,1.3858
9835,17.631,0.63636,0,0.00012402,1239.4,4.9053e-05,98.416,3.5958e-05,0.030984,-0.00012205,-1187.2,1.385
9836,17.539,0.72727,0,0.00013016,1300.7,5.1697e-05,105.92,3.7602e-05,0.018558,-0.00012804,-1244.5,1.3733
9837,17.631,0.72727,0.05,1.602e-06,16.009,1.2301e-06,9.2425,1.9898e-12,4.0237e-06,-1.2301e-06,-9.2426,1.3852
9838,17.631,0.45455,0,0.00011953,1194.4,4.5402e-05,71.941,3.5825e-05,-0.015545,-0.00011814,-1156.8,1.3844
9839,17.539,0.54545,0,0.00012577,1256.8,4.8316e-05,82.331,3.7363e-05,0.034679,-0.00012417,-1213.6,1.3728
9840,17.631,0.54545,0.05,1.6661e-06,16.65,1.2794e-06,9.6126,1.6446e-12,4.857e-06,-1.2794e-06,-9.6127,1.3847
9841,17.631,0.27273,0,0.00011559,1155.1,4.1729e-05,43.115,3.5986e-05,-0.038409,-0.0001148,-1132.9,1.3839
9842,17.539,0.36364,0,0.00012186,1217.7,4.4885e-05,56.248,3.7387e-05,-0.087933,-0.0001208,-1188.7,1.3722
9843,17.631,0.36364,0.05,1.7095e-06,17.083,1.3127e-06,9.8629,1.5674e-12,3.2356e-06,-1.3127e-06,-9.863,1.3841
9844,17.539,0.18182,0,0.00011842,1183.4,4.1378e-05,27.565,3.7698e-05,-0.083067,-0.00011793,-1169.4,1.3716
9845,17.631,0.18182,0.05,1.6728e-06,16.717,1.2845e-06,9.6515,9.849e-13,4.3458e-06,-1.2845e-06,-9.6515,1.3835
9846,17.631,0.090909,0,0.00011255,1124.7,3.8412e-05,15.238,3.6386e-05,0.014401,-0.00011229,-1117,1.3833
9847,17.447,5.7273,0,0.00012468,1245.9,4.4525e-05,40.633,3.9108e-05,-0.066914,-0.00012394,-1225.1,1.36
9848,17.355,5.8182,0,0.00012731,1272.2,4.4211e-05,26.354,4.0689e-05,-0.11051,-0.00012684,-1258.8,1.3479
9849,17.447,5.8182,0.05,1.4388e-06,14.378,1.1048e-06,8.3011,-1.5212e-12,5.3283e-06,-1.1048e-06,-8.3011,1.3597
9850,17.447,5.9091,0,0.00012194,1218.6,4.1473e-05,14.774,3.9507e-05,0.0053067,-0.00012168,-1211.1,1.3594
9851,17.447,5.5455,0,0.00012812,1280.3,4.7817e-05,66.776,3.8926e-05,-0.027404,-0.00012685,-1245.6,1.3606
9852,17.355,5.6364,0,0.00013033,1302.4,4.737e-05,52.45,4.0377e-05,-0.09777,-0.00012936,-1275.4,1.3485
9853,17.447,5.6364,0.05,1.5487e-06,15.476,1.1892e-06,8.9352,-5.1346e-13,3.1288e-06,-1.1892e-06,-8.9352,1.3603
9854,17.447,5.3636,0,0.00013195,1318.6,5.0997e-05,90.113,3.9007e-05,0.025952,-0.00013019,-1271.2,1.3612
9855,17.355,5.4545,0,0.00013371,1336.2,5.0402e-05,75.792,4.0318e-05,0.026329,-0.00013226,-1296.6,1.349
9856,17.447,5.4545,0.05,1.5107e-06,15.097,1.16e-06,8.716,-9.883e-13,2.3073e-06,-1.16e-06,-8.716,1.3609
9857,17.447,5.1818,0,0.00013613,1360.4,5.4048e-05,110.55,3.9338e-05,0.020276,-0.00013391,-1301.7,1.3617
9858,17.355,5.2727,0,0.00013741,1373.1,5.3305e-05,96.291,4.0492e-05,0.017706,-0.00013551,-1322.4,1.3496
9859,17.447,5.2727,0.05,1.449e-06,14.48,1.1127e-06,8.3602,-1.2102e-12,1.5813e-06,-1.1127e-06,-8.3602,1.3614
9860,17.447,5,0,0.00014055,1404.5,5.6901e-05,127.63,3.9917e-05,0.018899,-0.00013794,-1336.3,1.3622
9861,17.355,5.0909,0,0.00014135,1412.5,5.6033e-05,113.73,4.0899e-05,0.021805,-0.00013907,-1352.2,1.3501
9862,17.447,5.0909,0.05,1.3701e-06,13.692,1.0521e-06,7.905,-1.6607e-12,2.1759e-06,-1.0521e-06,-7.905,1.3619
9863,17.447,4.8182,0,0.00014505,1449.5,5.945e-05,140.66,4.0732e-05,0.014662,-0.00014215,-1374.1,1.3626
9864,17.355,4.9091,0,0.00014542,1453.2,5.851e-05,127.6,4.1529e-05,0.018663,-0.00014282,-1385.1,1.3505
9865,17.447,4.9091,0.05,1.2741e-06,12.732,9.7836e-07,7.351,-9.3216e-13,6.7784e-06,-9.7836e-07,-7.351,1.3624
9866,17.447,4.6364,0,0.00014946,1493.6,6.1583e-05,148.93,4.1763e-05,0.01031,-0.00014637,-1413.6,1.363
9867,17.355,4.7273,0,0.00014946,1493.6,6.0639e-05,137.31,4.2367e-05,0.015595,-0.00014665,-1420.2,1.3509
9868,17.447,4.7273,0.05,1.1629e-06,11.621,8.9299e-07,6.7096,-6.9936e-13,1.0688e-05,-8.9299e-07,-6.7096,1.3628
9869,17.447,4.4545,0,0.00015361,1535,6.321e-05,152.06,4.2972e-05,0.0050329,-0.00015046,-1453.3,1.3634
9870,17.355,4.5455,0,0.00015334,1532.3,6.2336e-05,142.42,4.3383e-05,0.01126,-0.00015041,-1456.1,1.3513
9871,17.447,4.5455,0.05,1.0412e-06,10.405,7.9951e-07,6.0072,-1.7203e-13,2.0269e-05,-7.9951e-07,-6.0072,1.3632
9872,17.447,4.2727,0,0.00015735,1572.4,6.43e-05,150.22,4.4307e-05,-0.0005477,-0.00015426,-1491.9,1.3637
9873,17.355,4.3636,0,0.00015689,1567.8,6.355e-05,142.87,4.4536e-05,0.0061046,-0.00015397,-1491.5,1.3517
9874,17.447,4.3636,0.05,9.1475e-07,9.1412,7.0241e-07,5.2777,1.7362e-12,2.684e-05,-7.0241e-07,-5.2776,1.3635
9875,17.447,4.0909,0,0.00016061,1604.9,6.4893e-05,144.26,4.5693e-05,-0.0046732,-0.00015766,-1528,1.364
9876,17.355,4.1818,0,0.00016003,1599.2,6.4288e-05,139.16,4.5767e-05,0.0011843,-0.00015721,-1525.1,1.3519
9877,17.447,4.1818,0.05,7.8822e-07,7.8767,6.0525e-07,4.5476,2.5357e-12,3.5299e-05,-6.0525e-07,-4.5476,1.3638
9878,17.447,3.9091,0,0.00016335,1632.3,6.5097e-05,135.62,4.7047e-05,-0.0043404,-0.00016062,-1560.3,1.3642
9879,17.355,4,0,0.00016271,1626,6.4621e-05,132.35,4.7006e-05,-0.0013534,-0.00016006,-1555.8,1.3522
9880,17.447,4,0.05,6.6313e-07,6.6267,5.092e-07,3.8259,5.2119e-12,3.9934e-05,-5.092e-07,-3.8259,1.3641
9881,17.447,3.7273,0,0.00016559,1654.7,6.5054e-05,126.02,4.8282e-05,0.0029894,-0.00016308,-1588.1,1.3644
9882,17.355,3.8182,0,0.00016494,1648.2,6.4665e-05,123.89,4.8177e-05,0.0011552,-0.00016248,-1582.8,1.3524
9883,17.447,3.8182,0.05,5.3873e-07,5.3836,4.1368e-07,3.1082,6.1828e-12,5.5242e-05,-4.1368e-07,-3.1082,1.3643
9884,17.447,3.5455,0,0.00016734,1672.2,6.4902e-05,117.08,4.9322e-05,0.016525,-0.00016504,-1610.6,1.3646
9885,17.355,3.6364,0,0.00016671,1666,6.455e-05,115.3,4.9205e-05,0.0097379,-0.00016445,-1605.3,1.3526
9886,17.447,3.6364,0.05,4.1466e-07,4.1437,3.184e-07,2.3924,6.7994e-12,7.3006e-05,-3.1841e-07,-2.3924,1.3645
9887,17.447,3.3636,0,0.00016861,1684.9,6.4741e-05,110,5.0106e-05,0.032176,-0.00016647,-1627.2,1.3647
9888,17.355,3.4545,0,0.00016805,1679.4,6.4385e-05,107.88,5.003e-05,0.022277,-0.00016596,-1622.8,1.3527
9889,17.447,3.4545,0.05,2.9227e-07,2.9206,2.2442e-07,1.6862,6.1287e-12,5.2943e-05,-2.2443e-07,-1.6862,1.3646
9890,17.447,3.1818,0,0.00016938,1692.6,6.4629e-05,105.52,5.0591e-05,0.044625,-0.00016734,-1637.4,1.3647
9891,17.355,3.2727,0,0.00016896,1688.4,6.4246e-05,102.53,5.0604e-05,0.034643,-0.00016698,-1634.8,1.3528
9892,17.447,3.2727,0.05,1.7355e-07,1.7343,1.3326e-07,1.0013,5.1442e-12,2.8281e-05,-1.3326e-07,-1.0013,1.3647
9893,17.447,3,0,0.00016964,1695.3,6.459e-05,103.99,5.0756e-05,0.049363,-0.00016763,-1640.8,1.3647
9894,17.355,3.0909,0,0.00016942,1693,6.4169e-05,99.755,5.0898e-05,0.042294,-0.0001675,-1640.9,1.3528
9895,17.447,3.0909,0.05,6.0173e-08,0.60131,4.6204e-08,0.34717,5.6479e-12,4.774e-05,-4.6207e-08,-0.34717,1.3647
9896,17.447,2.8182,0,0.00016938,1692.6,6.4629e-05,105.52,5.0591e-05,0.044625,-0.00016734,-1637.4,1.3647
9897,17.355,2.9091,0,0.00016942,1693,6.4169e-05,99.755,5.0898e-05,0.042294,-0.0001675,-1640.9,1.3528
9898,17.447,2.9091,0.05,6.0173e-08,0.60131,4.6205e-08,0.34717,2.554e-12,2.2604e-05,-4.6205e-08,-0.34716,1.3647
9899,17.447,2.6364,0,0.00016861,1684.9,6.4741e-05,110,5.0106e-05,0.032176,-0.00016647,-1627.2,1.3647
9900,17.355,2.7273,0,0.00016896,1688.4,6.4246e-05,102.53,5.0604e-05,0.034643,-0.00016698,-1634.8,1.3528
9901,17.447,2.7273,0.05,1.7355e-07,1.7343,1.3326e-07,1.0013,3.9367e-13,1.8042e-05,-1.3326e-07,-1.0013,1.3647
9902,17.447,2.4545,0,0.00016734,1672.2,6.4902e-05,117.08,4.9322e-05,0.016526,-0.00016504,-1610.6,1.3646
9903,17.355,2.5455,0,0.00016805,1679.4,6.4385e-05,107.88,5.003e-05,0.022277,-0.00016596,-1622.8,1.3527
9904,17.447,2.5455,0.05,2.9227e-07,2.9206,2.2442e-07,1.6862,8.03e-13,6.929e-06,-2.2442e-07,-1.6862,1.3646
9905,17.447,2.2727,0,0.00016559,1654.7,6.5054e-05,126.02,4.8282e-05,0.0029906,-0.00016308,-1588.1,1.3644
9906,17.355,2.3636,0,0.00016671,1666,6.455e-05,115.3,4.9205e-05,0.0097378,-0.00016445,-1605.3,1.3526
9907,17.447,2.3636,0.05,4.1466e-07,4.1437,3.184e-07,2.3924,8.7073e-13,-4.2468e-06,-3.184e-07,-2.3924,1.3645
9908,17.447,2.0909,0,0.00016335,1632.3,6.5097e-05,135.62,4.7047e-05,-0.0043397,-0.00016062,-1560.3,1.3642
9909,17.355,2.1818,0,0.00016494,1648.2,6.4665e-05,123.89,4.8177e-05,0.0011566,-0.00016248,-1582.8,1.3524
9910,17.447,2.1818,0.05,5.3873e-07,5.3836,4.1368e-07,3.1082,-1.7091e-12,5.2236e-06,-4.1368e-07,-3.1082,1.3643
9911,17.447,1.9091,0,0.00016061,1605,6.4893e-05,144.26,4.5693e-05,-0.0046732,-0.00015766,-1528,1.364
9912,17.355,2,0,0.00016271,1626,6.4621e-05,132.35,4.7006e-05,-0.0013538,-0.00016006,-1555.8,1.3522
9913,17.447,2,0.05,6.6313e-07,6.6267,5.092e-07,3.8259,-1.5758e-12,-2.4932e-05,-5.092e-07,-3.8259,1.3641
9914,17.447,1.7273,0,0.00015735,1572.4,6.43e-05,150.22,4.4307e-05,-0.00054734,-0.00015426,-1491.9,1.3637
9915,17.355,1.8182,0,0.00016003,1599.2,6.4288e-05,139.16,4.5767e-05,0.0011849,-0.00015721,-1525.1,1.3519
9916,17.447,1.8182,0.05,7.8822e-07,7.8767,6.0525e-07,4.5476,3.3073e-13,-1.7649e-05,-6.0525e-07,-4.5477,1.3638
9917,17.447,1.5455,0,0.00015361,1535,6.321e-05,152.06,4.2972e-05,0.005034,-0.00015046,-1453.3,1.3634
9918,17.355,1.6364,0,0.00015689,1567.8,6.355e-05,142.87,4.4536e-05,0.0061046,-0.00015397,-1491.5,1.3517
9919,17.447,1.6364,0.05,9.1475e-07,9.1412,7.0241e-07,5.2776,1.036e-12,-8.5451e-06,-7.0241e-07,-5.2777,1.3635
9920,17.447,1.3636,0,0.00014946,1493.6,6.1583e-05,148.93,4.1763e-05,0.010311,-0.00014637,-1413.6,1.363
9921,17.355,1.4545,0,0.00015334,1532.3,6.2336e-05,142.42,4.3383e-05,0.011262,-0.00015041,-1456.1,1.3513
9922,17.447,1.4545,0.05,1.0412e-06,10.405,7.995e-07,6.0072,-1.5538e-12,-1.5665e-06,-7.9951e-07,-6.0072,1.3632
9923,17.447,1.1818,0,0.00014505,1449.5,5.945e-05,140.66,4.0732e-05,0.014663,-0.00014215,-1374.1,1.3626
9924,17.355,1.2727,0,0.00014946,1493.6,6.0639e-05,137.31,4.2367e-05,0.015595,-0.00014665,-1420.2,1.3509
9925,17.447,1.2727,0.05,1.1629e-06,11.621,8.9299e-07,6.7096,1.1913e-12,-1.1997e-07,-8.9299e-07,-6.7096,1.3628
9926,17.447,1,0,0.00014055,1404.5,5.6901e-05,127.63,3.9917e-05,0.018901,-0.00013794,-1336.3,1.3622
9927,17.355,1.0909,0,0.00014542,1453.2,5.851e-05,127.6,4.1529e-05,0.018664,-0.00014282,-1385.1,1.3505
9928,17.447,1.0909,0.05,1.2741e-06,12.732,9.7836e-07,7.351,1.3328e-12,3.5511e-06,-9.7836e-07,-7.351,1.3624
9929,17.447,0.81818,0,0.00013613,1360.4,5.4048e-05,110.55,3.9338e-05,0.020277,-0.00013391,-1301.7,1.3617
9930,17.355,0.90909,0,0.00014135,1412.5,5.6033e-05,113.73,4.0899e-05,0.021807,-0.00013907,-1352.2,1.3501
9931,17.447,0.90909,0.05,1.3701e-06,13.692,1.0521e-06,7.905,1.7289e-12,5.0229e-06,-1.0521e-06,-7.9051,1.3619
9932,17.447,0.63636,0,0.00013195,1318.6,5.0997e-05,90.113,3.9007e-05,0.025952,-0.00013019,-1271.2,1.3612
9933,17.355,0.72727,0,0.00013741,1373.1,5.3305e-05,96.291,4.0492e-05,0.017706,-0.00013551,-1322.4,1.3496
9934,17.447,0.72727,0.05,1.449e-06,14.48,1.1127e-06,8.3602,1.9623e-12,6.8892e-06,-1.1127e-06,-8.3602,1.3614
9935,17.447,0.45455,0,0.00012812,1280.3,4.7817e-05,66.776,3.8926e-05,-0.027403,-0.00012685,-1245.6,1.3606
9936,17.355,0.54545,0,0.00013371,1336.2,5.0402e-05,75.792,4.0318e-05,0.026328,-0.00013226,-1296.6,1.349
9937,17.447,0.54545,0.05,1.5107e-06,15.097,1.16e-06,8.716,2.1269e-12,4.8667e-06,-1.16e-06,-8.716,1.3609
9938,17.447,0.27273,0,0.00012468,1245.9,4.4525e-05,40.633,3.9108e-05,-0.066913,-0.00012394,-1225.1,1.36
9939,17.355,0.36364,0,0.00013033,1302.4,4.737e-05,52.45,4.0377e-05,-0.097769,-0.00012936,-1275.4,1.3485
9940,17.447,0.36364,0.05,1.5487e-06,15.476,1.1892e-06,8.9352,1.6804e-12,4.4062e-06,-1.1892e-06,-8.9352,1.3603
9941,17.355,0.18182,0,0.00012731,1272.2,4.4211e-05,26.354,4.0689e-05,-0.11051,-0.00012684,-1258.8,1.3479
9942,17.447,0.18182,0.05,1.4388e-06,14.378,1.1048e-06,8.3011,1.7724e-12,4.6534e-06,-1.1048e-06,-8.3011,1.3597
9943,17.447,0.090909,0,0.00012194,1218.6,4.1473e-05,14.774,3.9507e-05,0.0053046,-0.00012168,-1211.1,1.3594
9944,17.263,5.7273,0,0.00013295,1328.5,4.7044e-05,38.073,4.1966e-05,-0.081248,-0.00013226,-1309.1,1.3363
9945,17.172,5.8182,0,0.00013543,1353.4,4.6796e-05,25.178,4.343e-05,-0.11748,-0.00013499,-1340.7,1.3242
9946,17.263,5.8182,0.05,1.2295e-06,12.287,9.4413e-07,7.0938,-1.3695e-12,1.4614e-06,-9.4413e-07,-7.0938,1.336
9947,17.263,5.9091,0,0.00013049,1304,4.4256e-05,14.309,4.2352e-05,-0.00035675,-0.00013024,-1296.8,1.3357
9948,17.263,5.5455,0,0.00013593,1358.3,4.9965e-05,61.539,4.1771e-05,-0.033929,-0.00013478,-1326.5,1.3369
9949,17.172,5.6364,0,0.00013806,1379.6,4.9602e-05,48.582,4.3123e-05,-0.10019,-0.00013717,-1354.7,1.3248
9950,17.263,5.6364,0.05,1.4095e-06,14.085,1.0823e-06,8.1319,-8.9234e-13,3.5018e-07,-1.0823e-06,-8.1319,1.3366
9951,17.263,5.3636,0,0.00013918,1390.9,5.2732e-05,82.133,4.1804e-05,0.02177,-0.0001376,-1348,1.3374
9952,17.172,5.4545,0,0.00014095,1408.6,5.2269e-05,69.38,4.3037e-05,0.019842,-0.00013965,-1372.6,1.3253
9953,17.263,5.4545,0.05,1.3796e-06,13.787,1.0594e-06,7.9599,-2.2728e-12,1.729e-06,-1.0594e-06,-7.9599,1.3372
9954,17.263,5.1818,0,0.00014266,1425.6,5.5321e-05,99.708,4.2053e-05,0.020895,-0.0001407,-1373.1,1.338
9955,17.172,5.2727,0,0.00014406,1439.6,5.4767e-05,87.293,4.3151e-05,0.016432,-0.00014238,-1394,1.3259
9956,17.263,5.2727,0.05,1.3239e-06,13.23,1.0166e-06,7.6385,-1.2404e-12,-2.3673e-06,-1.0166e-06,-7.6384,1.3377
9957,17.263,5,0,0.00014626,1461.6,5.7679e-05,113.98,4.2512e-05,0.022357,-0.00014399,-1401.3,1.3384
9958,17.172,5.0909,0,0.00014731,1472.1,5.706e-05,102.17,4.3465e-05,0.023142,-0.0001453,-1418.3,1.3264
9959,17.263,5.0909,0.05,1.2541e-06,12.532,9.6297e-07,7.2354,-1.28e-12,-3.1468e-07,-9.6296e-07,-7.2353,1.3382
9960,17.263,4.8182,0,0.00014988,1497.8,5.9737e-05,124.54,4.3164e-05,0.019919,-0.00014737,-1431.6,1.3389
9961,17.172,4.9091,0,0.0001506,1505,5.9092e-05,113.69,4.3963e-05,0.021981,-0.00014835,-1444.9,1.3268
9962,17.263,4.9091,0.05,1.1713e-06,11.705,8.9945e-07,6.7581,-1.0985e-12,-4.9254e-07,-8.9944e-07,-6.758,1.3386
9963,17.263,4.6364,0,0.00015338,1532.8,6.1429e-05,131.07,4.3987e-05,0.016592,-0.00015073,-1463,1.3393
9964,17.172,4.7273,0,0.00015384,1537.4,6.0805e-05,121.56,4.4629e-05,0.020031,-0.00015141,-1473,1.3272
9965,17.263,4.7273,0.05,1.0777e-06,10.769,8.2752e-07,6.2177,-1.6426e-12,3.9298e-06,-8.2752e-07,-6.2176,1.3391
9966,17.263,4.4545,0,0.00015666,1565.5,6.2706e-05,133.46,4.4946e-05,0.012195,-0.00015396,-1494.5,1.3396
9967,17.172,4.5455,0,0.00015691,1568,6.215e-05,125.61,4.5435e-05,0.016511,-0.00015439,-1501.4,1.3276
9968,17.263,4.5455,0.05,9.7618e-07,9.7551,7.4959e-07,5.6321,1.0451e-14,7.0838e-06,-7.4958e-07,-5.6321,1.3394
9969,17.263,4.2727,0,0.0001596,1594.9,6.3561e-05,131.99,4.5996e-05,0.0075597,-0.00015695,-1524.8,1.3399
9970,17.172,4.3636,0,0.00015971,1596,6.3106e-05,125.96,4.6344e-05,0.01226,-0.0001572,-1529.3,1.3279
9971,17.263,4.3636,0.05,8.7026e-07,8.6966,6.6825e-07,5.021,1.1374e-12,1.3676e-05,-6.6825e-07,-5.021,1.3398
9972,17.263,4.0909,0,0.00016216,1620.5,6.4033e-05,127.38,4.708e-05,0.0041356,-0.00015962,-1553,1.3402
9973,17.172,4.1818,0,0.00016219,1620.7,6.369e-05,123.09,4.7309e-05,0.0082021,-0.00015974,-1555.7,1.3282
9974,17.263,4.1818,0.05,7.6246e-07,7.6193,5.8547e-07,4.399,1.3582e-12,1.99e-05,-5.8547e-07,-4.399,1.3401
9975,17.263,3.9091,0,0.00016432,1642,6.42e-05,120.7,4.8136e-05,0.0038135,-0.00016193,-1578.3,1.3404
9976,17.172,4,0,0.0001643,1641.8,6.3958e-05,117.84,4.8276e-05,0.0059614,-0.00016197,-1579.7,1.3285
9977,17.263,4,0.05,6.5384e-07,6.5339,5.0207e-07,3.7724,2.0206e-12,2.2218e-05,-5.0207e-07,-3.7724,1.3403
9978,17.263,3.7273,0,0.00016607,1659.5,6.4167e-05,113.22,4.91e-05,0.0078677,-0.00016385,-1600,1.3406
9979,17.172,3.8182,0,0.00016604,1659.2,6.3997e-05,111.27,4.9189e-05,0.0070411,-0.00016386,-1600.8,1.3287
9980,17.263,3.8182,0.05,5.4469e-07,5.4431,4.1825e-07,3.1426,2.316e-12,2.5206e-05,-4.1826e-07,-3.1426,1.3405
9981,17.263,3.5455,0,0.00016743,1673.2,6.4037e-05,106.14,4.9913e-05,0.016042,-0.00016537,-1617.6,1.3408
9982,17.172,3.6364,0,0.00016742,1673.1,6.3901e-05,104.52,4.9992e-05,0.011987,-0.0001654,-1618.3,1.3289
9983,17.263,3.6364,0.05,4.3587e-07,4.3557,3.3469e-07,2.5148,1.4086e-12,1.8612e-05,-3.3469e-07,-2.5147,1.3407
9984,17.263,3.3636,0,0.00016841,1682.9,6.3891e-05,100.43,5.0528e-05,0.026042,-0.00016647,-1630.4,1.3409
9985,17.172,3.4545,0,0.00016846,1683.4,6.3758e-05,98.598,5.0638e-05,0.019736,-0.00016656,-1632,1.329
9986,17.263,3.4545,0.05,3.3023e-07,3.3001,2.5358e-07,1.9053,6.6071e-13,2.0564e-05,-2.5358e-07,-1.9053,1.3408
9987,17.263,3.1818,0,0.000169,1688.8,6.3784e-05,96.761,5.0911e-05,0.034237,-0.00016714,-1638.3,1.341
9988,17.172,3.2727,0,0.00016915,1690.4,6.363e-05,94.256,5.1089e-05,0.027632,-0.00016735,-1641.2,1.3291
9989,17.263,3.2727,0.05,2.3472e-07,2.3456,1.8024e-07,1.3543,-8.7816e-13,4.8119e-06,-1.8024e-07,-1.3542,1.3409
9990,17.263,3,0,0.0001692,1690.8,6.3746e-05,95.501,5.104e-05,0.037394,-0.00016737,-1641,1.341
9991,17.172,3.0909,0,0.0001695,1693.8,6.3557e-05,91.973,5.1321e-05,0.032596,-0.00016775,-1646,1.3291
9992,17.263,3.0909,0.05,1.6814e-07,1.6802,1.2911e-07,0.97011,-2.564e-12,-5.8518e-06,-1.2911e-07,-0.97005,1.341
9993,17.263,2.8182,0,0.000169,1688.8,6.3784e-05,96.761,5.0911e-05,0.034238,-0.00016714,-1638.3,1.341
9994,17.172,2.9091,0,0.0001695,1693.8,6.3557e-05,91.973,5.1321e-05,0.032596,-0.00016775,-1646,1.3291
9995,17.263,2.9091,0.05,1.6814e-07,1.6802,1.2911e-07,0.97009,3.4698e-14,4.1809e-06,-1.2911e-07,-0.97007,1.341
9996,17.263,2.6364,0,0.00016841,1682.9,6.3891e-05,100.43,5.0528e-05,0.026043,-0.00016647,-1630.4,1.3409
9997,17.172,2.7273,0,0.00016915,1690.4,6.363e-05,94.256,5.1089e-05,0.027633,-0.00016735,-1641.2,1.3291
9998,17.263,2.7273,0.05,2.3472e-07,2.3456,1.8024e-07,1.3542,1.6641e-12,1.4932e-05,-1.8024e-07,-1.3542,1.3409
9999,17.263,2.4545,0,0.00016743,1673.2,6.4037e-05,106.14,4.9913e-05,0.016042,-0.00016537,-1617.6,1.3408
10000,17.172,2.5455,0,0.00016846,1683.4,6.3758e-05,98.598,5.0638e-05,0.019736,-0.00016656,-1632,1.329
10001,17.263,2.5455,0.05,3.3023e-07,3.3001,2.5358e-07,1.9053,9.036e-13,8.7566e-06,-2.5358e-07,-1.9053,1.3408
10002,17.263,2.2727,0,0.00016607,1659.5,6.4167e-05,113.22,4.91e-05,0.0078678,-0.00016385,-1600,1.3406
10003,17.172,2.3636,0,0.00016742,1673.1,6.3901e-05,104.52,4.9992e-05,0.011987,-0.0001654,-1618.3,1.3289
10004,17.263,2.3636,0.05,4.3587e-07,4.3557,3.3469e-07,2.5147,-2.5427e-13,1.5939e-06,-3.3469e-07,-2.5148,1.3407
10005,17.263,2.0909,0,0.00016432,1642,6.42e-05,120.7,4.8136e-05,0.0038137,-0.00016193,-1578.3,1.3404
10006,17.172,2.1818,0,0.00016604,1659.2,6.3997e-05,111.27,4.9189e-05,0.0070412,-0.00016386,-1600.8,1.3287
10007,17.263,2.1818,0.05,5.4469e-07,5.4431,4.1825e-07,3.1426,1.1659e-12,2.8538e-08,-4.1825e-07,-3.1426,1.3405
10008,17.263,1.9091,0,0.00016216,1620.5,6.4033e-05,127.38,4.708e-05,0.0041357,-0.00015962,-1553,1.3402
10009,17.172,2,0,0.0001643,1641.8,6.3958e-05,117.83,4.8276e-05,0.0059618,-0.00016197,-1579.7,1.3285
10010,17.263,2,0.05,6.5384e-07,6.5339,5.0207e-07,3.7724,-2.0963e-13,-6.9489e-06,-5.0207e-07,-3.7724,1.3403
10011,17.263,1.7273,0,0.0001596,1594.9,6.3561e-05,131.99,4.5996e-05,0.00756,-0.00015695,-1524.8,1.3399
10012,17.172,1.8182,0,0.00016219,1620.7,6.369e-05,123.09,4.7309e-05,0.0082024,-0.00015974,-1555.7,1.3282
10013,17.263,1.8182,0.05,7.6246e-07,7.6193,5.8547e-07,4.399,-1.19e-12,-1.195e-05,-5.8547e-07,-4.399,1.3401
10014,17.263,1.5455,0,0.00015666,1565.5,6.2706e-05,133.46,4.4946e-05,0.012196,-0.00015396,-1494.5,1.3396
10015,17.172,1.6364,0,0.00015971,1596,6.3106e-05,125.96,4.6344e-05,0.012261,-0.0001572,-1529.3,1.3279
10016,17.263,1.6364,0.05,8.7026e-07,8.6966,6.6825e-07,5.021,1.1359e-12,-2.7967e-06,-6.6825e-07,-5.021,1.3398
10017,17.263,1.3636,0,0.00015338,1532.8,6.1429e-05,131.07,4.3987e-05,0.016592,-0.00015073,-1463,1.3393
10018,17.172,1.4545,0,0.00015691,1568,6.215e-05,125.61,4.5435e-05,0.016512,-0.00015439,-1501.4,1.3276
10019,17.263,1.4545,0.05,9.7618e-07,9.755,7.4958e-07,5.6321,6.036e-13,-3.2446e-07,-7.4959e-07,-5.6321,1.3394
10020,17.263,1.1818,0,0.00014988,1497.8,5.9737e-05,124.54,4.3164e-05,0.019919,-0.00014737,-1431.6,1.3389
10021,17.172,1.2727,0,0.00015384,1537.4,6.0805e-05,121.56,4.4629e-05,0.020031,-0.00015141,-1473,1.3272
10022,17.263,1.2727,0.05,1.0777e-06,10.769,8.2752e-07,6.2176,1.0289e-12,-1.6709e-07,-8.2752e-07,-6.2177,1.3391
10023,17.263,1,0,0.00014626,1461.6,5.7679e-05,113.98,4.2512e-05,0.022359,-0.00014399,-1401.3,1.3384
10024,17.172,1.0909,0,0.0001506,1505,5.9092e-05,113.69,4.3963e-05,0.021982,-0.00014835,-1444.9,1.3268
10025,17.263,1.0909,0.05,1.1713e-06,11.705,8.9944e-07,6.758,1.415e-12,9.8183e-07,-8.9944e-07,-6.7581,1.3386
10026,17.263,0.81818,0,0.00014266,1425.6,5.5321e-05,99.708,4.2053e-05,0.020896,-0.0001407,-1373.1,1.338
10027,17.172,0.90909,0,0.00014731,1472.1,5.706e-05,102.17,4.3465e-05,0.023144,-0.0001453,-1418.3,1.3264
10028,17.263,0.90909,0.05,1.2541e-06,12.532,9.6296e-07,7.2353,1.7668e-12,3.4203e-06,-9.6297e-07,-7.2354,1.3382
10029,17.263,0.63636,0,0.00013918,1390.9,5.2732e-05,82.133,4.1804e-05,0.02177,-0.0001376,-1348,1.3374
10030,17.172,0.72727,0,0.00014406,1439.6,5.4767e-05,87.293,4.3151e-05,0.016433,-0.00014238,-1394,1.3259
10031,17.263,0.72727,0.05,1.3239e-06,13.23,1.0166e-06,7.6384,2.0327e-12,6.354e-06,-1.0166e-06,-7.6385,1.3377
10032,17.263,0.45455,0,0.00013593,1358.3,4.9965e-05,61.539,4.1771e-05,-0.033929,-0.00013478,-1326.5,1.3369
10033,17.172,0.54545,0,0.00014095,1408.6,5.2269e-05,69.379,4.3037e-05,0.019843,-0.00013965,-1372.6,1.3253
10034,17.263,0.54545,0.05,1.3796e-06,13.787,1.0594e-06,7.9599,2.0431e-12,5.9524e-06,-1.0594e-06,-7.9599,1.3372
10035,17.263,0.27273,0,0.00013295,1328.5,4.7044e-05,38.073,4.1966e-05,-0.081248,-0.00013226,-1309.1,1.3363
10036,17.172,0.36364,0,0.00013806,1379.6,4.9602e-05,48.582,4.3123e-05,-0.1002,-0.00013717,-1354.7,1.3248
10037,17.263,0.36364,0.05,1.4095e-06,14.085,1.0823e-06,8.1319,1.5146e-12,2.375e-06,-1.0823e-06,-8.1319,1.3366
10038,17.172,0.18182,0,0.00013543,1353.4,4.6796e-05,25.178,4.343e-05,-0.11748,-0.00013499,-1340.7,1.3242
10039,17.263,0.18182,0.05,1.2295e-06,12.287,9.4413e-07,7.0938,1.3173e-12,-1.5626e-06,-9.4413e-07,-7.0939,1.336
10040,17.263,0.090909,0,0.00013049,1304,4.4256e-05,14.309,4.2352e-05,-0.0003577,-0.00013024,-1296.8,1.3357
10041,17.08,5.7273,0,0.00014053,1404.3,4.9339e-05,35.573,4.4593e-05,-0.085957,-0.00013989,-1386.2,1.3127
10042,16.988,5.8182,0,0.00014291,1428.1,4.9174e-05,24.082,4.5954e-05,-0.11193,-0.00014249,-1416,1.3006
10043,17.08,5.8182,0.05,1.0462e-06,10.455,8.0336e-07,6.0361,-2.7978e-13,3.926e-06,-8.0335e-07,-6.0361,1.3123
10044,17.08,5.9091,0,0.00013832,1382.3,4.6805e-05,13.87,4.4958e-05,-0.0038428,-0.00013808,-1375.3,1.312
10045,17.08,5.5455,0,0.00014309,1429.9,5.191e-05,56.455,4.4391e-05,-0.03702,-0.00014204,-1400.8,1.3132
10046,16.988,5.6364,0,0.00014516,1450.6,5.1638e-05,44.83,4.5658e-05,-0.097997,-0.00014435,-1427.8,1.3012
10047,17.08,5.6364,0.05,1.2912e-06,12.903,9.9147e-07,7.4495,-1.2267e-12,1.5822e-06,-9.9146e-07,-7.4495,1.3129
10048,17.08,5.3636,0,0.00014584,1457.4,5.4316e-05,74.632,4.4385e-05,0.017993,-0.00014443,-1418.7,1.3138
10049,16.988,5.4545,0,0.00014764,1475.3,5.3973e-05,63.287,4.5552e-05,0.014609,-0.00014646,-1442.7,1.3017
10050,17.08,5.4545,0.05,1.2707e-06,12.698,9.7575e-07,7.3314,-8.6029e-13,1.831e-06,-9.7575e-07,-7.3314,1.3135
10051,17.08,5.1818,0,0.00014873,1486.3,5.6524e-05,89.89,4.4563e-05,0.020276,-0.000147,-1439.3,1.3143
10052,16.988,5.2727,0,0.00015024,1501.4,5.6129e-05,79.003,4.5616e-05,0.014719,-0.00014874,-1460.3,1.3023
10053,17.08,5.2727,0.05,1.2224e-06,12.216,9.3867e-07,7.0528,-2.1232e-12,-1.3382e-06,-9.3867e-07,-7.0528,1.314
10054,17.08,5,0,0.00015168,1515.7,5.8494e-05,102.04,4.4916e-05,0.02355,-0.00014968,-1462.1,1.3148
10055,16.988,5.0909,0,0.00015292,1528.2,5.807e-05,91.856,4.5848e-05,0.022908,-0.00015115,-1480.2,1.3028
10056,17.08,5.0909,0.05,1.1624e-06,11.616,8.9258e-07,6.7065,-1.8157e-12,-9.289e-07,-8.9258e-07,-6.7065,1.3145
10057,17.08,4.8182,0,0.0001546,1544.9,6.0182e-05,110.88,4.5429e-05,0.022442,-0.00015241,-1486.5,1.3152
10058,16.988,4.9091,0,0.0001556,1555,5.976e-05,101.65,4.6234e-05,0.023152,-0.00015362,-1501.6,1.3032
10059,17.08,4.9091,0.05,1.0925e-06,10.918,8.3894e-07,6.3035,-1.3452e-12,-1.1024e-06,-8.3893e-07,-6.3034,1.315
10060,17.08,4.6364,0,0.0001574,1572.9,6.1548e-05,116.26,4.6077e-05,0.02003,-0.0001551,-1511.5,1.3156
10061,16.988,4.7273,0,0.0001582,1581,6.116e-05,108.26,4.6755e-05,0.022129,-0.00015608,-1524,1.3036
10062,17.08,4.7273,0.05,1.0145e-06,10.138,7.7902e-07,5.8533,-2.0233e-12,-3.3777e-07,-7.7902e-07,-5.8532,1.3154
10063,17.08,4.4545,0,0.00015999,1598.8,6.2569e-05,118.25,4.6833e-05,0.016467,-0.00015765,-1536.4,1.316
10064,16.988,4.5455,0,0.00016065,1605.4,6.2247e-05,111.66,4.7388e-05,0.019431,-0.00015846,-1546.6,1.304
10065,17.08,4.5455,0.05,9.3052e-07,9.2988,7.1453e-07,5.3687,-1.6847e-12,3.65e-06,-7.1452e-07,-5.3686,1.3158
10066,17.08,4.2727,0,0.00016232,1622.1,6.325e-05,117.18,4.7657e-05,0.012651,-0.00016001,-1560.3,1.3163
10067,16.988,4.3636,0,0.00016287,1627.6,6.3014e-05,112.07,4.8101e-05,0.01602,-0.00016067,-1568.6,1.3043
10068,17.08,4.3636,0.05,8.4279e-07,8.4221,6.4716e-07,4.8625,-9.0281e-13,5.7214e-06,-6.4716e-07,-4.8625,1.3161
10069,17.08,4.0909,0,0.00016433,1642.2,6.3627e-05,113.63,4.8505e-05,0.0096885,-0.00016211,-1582.4,1.3166
10070,16.988,4.1818,0,0.00016482,1647.1,6.3483e-05,109.91,4.8856e-05,0.012712,-0.00016267,-1589.3,1.3046
10071,17.08,4.1818,0.05,7.531e-07,7.5258,5.7829e-07,4.345,-4.9999e-13,6.6584e-06,-5.7829e-07,-4.345,1.3164
10072,17.08,3.9091,0,0.00016603,1659.1,6.3763e-05,108.46,4.9329e-05,0.0088694,-0.00016392,-1602.2,1.3168
10073,16.988,4,0,0.00016648,1663.6,6.37e-05,105.87,4.9612e-05,0.010643,-0.00016443,-1608.2,1.3049
10074,17.08,4,0.05,6.6269e-07,6.6223,5.0886e-07,3.8234,4.7926e-14,9.0291e-06,-5.0886e-07,-3.8234,1.3167
10075,17.08,3.7273,0,0.0001674,1672.8,6.3736e-05,102.6,5.0081e-05,0.011041,-0.00016541,-1619.1,1.317
10076,16.988,3.8182,0,0.00016785,1677.3,6.3733e-05,100.76,5.0324e-05,0.010812,-0.0001659,-1624.6,1.3051
10077,17.08,3.8182,0.05,5.7279e-07,5.724,4.3983e-07,3.3047,1.0228e-14,1.0221e-05,-4.3983e-07,-3.3047,1.3169
10078,17.08,3.5455,0,0.00016845,1683.4,6.3625e-05,97.001,5.0717e-05,0.01597,-0.00016659,-1632.8,1.3171
10079,16.988,3.6364,0,0.00016892,1688.1,6.3654e-05,95.461,5.0951e-05,0.013559,-0.0001671,-1638.3,1.3053
10080,17.08,3.6364,0.05,4.8565e-07,4.8532,3.7292e-07,2.802,-4.5687e-13,-3.2564e-06,-3.7292e-07,-2.802,1.317
10081,17.08,3.3636,0,0.00016921,1690.9,6.3498e-05,92.432,5.1199e-05,0.02215,-0.00016744,-1642.8,1.3172
10082,16.988,3.4545,0,0.00016973,1696.1,6.3532e-05,90.755,5.1455e-05,0.018163,-0.000168,-1648.9,1.3054
10083,17.08,3.4545,0.05,4.0568e-07,4.054,3.1151e-07,2.3406,-1.7058e-12,-1.3098e-06,-3.1151e-07,-2.3406,1.3172
10084,17.08,3.1818,0,0.00016966,1695.4,6.3402e-05,89.466,5.1499e-05,0.027282,-0.00016796,-1648.9,1.3173
10085,16.988,3.2727,0,0.00017026,1701.4,6.342e-05,87.269,5.1809e-05,0.022967,-0.0001686,-1656.1,1.3055
10086,17.08,3.2727,0.05,3.4074e-07,3.405,2.6165e-07,1.9659,-3.0107e-12,-9.735e-06,-2.6164e-07,-1.9659,1.3173
10087,17.08,3,0,0.00016981,1696.9,6.3368e-05,88.441,5.1601e-05,0.029275,-0.00016813,-1650.9,1.3173
10088,16.988,3.0909,0,0.00017052,1704.1,6.3356e-05,85.423,5.199e-05,0.026026,-0.00016891,-1659.7,1.3055
10089,17.08,3.0909,0.05,3.0268e-07,3.0247,2.3242e-07,1.7463,-9.6141e-13,-6.9967e-06,-2.3241e-07,-1.7463,1.3173
10090,17.08,2.8182,0,0.00016966,1695.4,6.3402e-05,89.466,5.1499e-05,0.027283,-0.00016796,-1648.9,1.3173
10091,16.988,2.9091,0,0.00017052,1704.1,6.3356e-05,85.423,5.199e-05,0.026026,-0.00016891,-1659.7,1.3055
10092,17.08,2.9091,0.05,3.0268e-07,3.0247,2.3242e-07,1.7463,2.5278e-13,-8.698e-07,-2.3242e-07,-1.7463,1.3173
10093,17.08,2.6364,0,0.00016921,1690.9,6.3498e-05,92.432,5.1199e-05,0.022151,-0.00016744,-1642.8,1.3172
10094,16.988,2.7273,0,0.00017026,1701.4,6.342e-05,87.269,5.1809e-05,0.022968,-0.0001686,-1656.1,1.3055
10095,17.08,2.7273,0.05,3.4074e-07,3.405,2.6164e-07,1.9659,6.9381e-13,5.3868e-06,-2.6164e-07,-1.9659,1.3173
10096,17.08,2.4545,0,0.00016845,1683.4,6.3625e-05,97.001,5.0717e-05,0.015971,-0.00016659,-1632.8,1.3171
10097,16.988,2.5455,0,0.00016973,1696.1,6.3532e-05,90.755,5.1455e-05,0.018164,-0.000168,-1648.9,1.3054
10098,17.08,2.5455,0.05,4.0568e-07,4.054,3.1151e-07,2.3406,5.5447e-13,6.5064e-06,-3.1151e-07,-2.3406,1.3172
10099,17.08,2.2727,0,0.0001674,1672.8,6.3736e-05,102.6,5.0081e-05,0.011041,-0.00016541,-1619.1,1.317
10100,16.988,2.3636,0,0.00016892,1688.1,6.3654e-05,95.461,5.0951e-05,0.013559,-0.0001671,-1638.3,1.3053
10101,17.08,2.3636,0.05,4.8565e-07,4.8532,3.7292e-07,2.802,-2.9667e-14,7.2829e-06,-3.7292e-07,-2.802,1.317
10102,17.08,2.0909,0,0.00016603,1659.1,6.3763e-05,108.46,4.9329e-05,0.0088697,-0.00016392,-1602.2,1.3168
10103,16.988,2.1818,0,0.00016785,1677.3,6.3733e-05,100.76,5.0324e-05,0.010812,-0.0001659,-1624.6,1.3051
10104,17.08,2.1818,0.05,5.7279e-07,5.724,4.3983e-07,3.3047,7.7872e-13,2.5677e-06,-4.3983e-07,-3.3047,1.3169
10105,17.08,1.9091,0,0.00016433,1642.2,6.3627e-05,113.63,4.8505e-05,0.0096892,-0.00016211,-1582.4,1.3166
10106,16.988,2,0,0.00016648,1663.6,6.37e-05,105.87,4.9612e-05,0.010643,-0.00016443,-1608.2,1.3049
10107,17.08,2,0.05,6.6269e-07,6.6223,5.0886e-07,3.8234,-1.3607e-13,-7.806e-07,-5.0886e-07,-3.8234,1.3167
10108,17.08,1.7273,0,0.00016232,1622.1,6.325e-05,117.18,4.7657e-05,0.012651,-0.00016001,-1560.3,1.3163
10109,16.988,1.8182,0,0.00016482,1647.1,6.3483e-05,109.91,4.8856e-05,0.012711,-0.00016267,-1589.3,1.3046
10110,17.08,1.8182,0.05,7.531e-07,7.5258,5.7829e-07,4.345,-3.8906e-13,-1.0429e-06,-5.7829e-07,-4.345,1.3164
10111,17.08,1.5455,0,0.00015999,1598.8,6.2569e-05,118.25,4.6833e-05,0.016468,-0.00015765,-1536.4,1.316
10112,16.988,1.6364,0,0.00016287,1627.6,6.3014e-05,112.07,4.8101e-05,0.016021,-0.00016067,-1568.6,1.3043
10113,17.08,1.6364,0.05,8.4279e-07,8.4221,6.4716e-07,4.8625,2.5758e-12,-2.2617e-06,-6.4716e-07,-4.8625,1.3161
10114,17.08,1.3636,0,0.0001574,1572.9,6.1548e-05,116.26,4.6077e-05,0.02003,-0.0001551,-1511.5,1.3156
10115,16.988,1.4545,0,0.00016065,1605.4,6.2247e-05,111.66,4.7388e-05,0.019432,-0.00015846,-1546.6,1.304
10116,17.08,1.4545,0.05,9.3052e-07,9.2988,7.1452e-07,5.3687,1.0048e-12,1.4208e-06,-7.1453e-07,-5.3687,1.3158
10117,17.08,1.1818,0,0.0001546,1544.9,6.0182e-05,110.88,4.5429e-05,0.022442,-0.00015241,-1486.5,1.3152
10118,16.988,1.2727,0,0.0001582,1581,6.116e-05,108.26,4.6755e-05,0.022129,-0.00015608,-1524,1.3036
10119,17.08,1.2727,0.05,1.0145e-06,10.138,7.7902e-07,5.8532,1.2564e-12,2.2527e-06,-7.7902e-07,-5.8533,1.3154
10120,17.08,1,0,0.00015168,1515.7,5.8494e-05,102.04,4.4916e-05,0.023551,-0.00014968,-1462.1,1.3148
10121,16.988,1.0909,0,0.0001556,1555,5.976e-05,101.65,4.6234e-05,0.023153,-0.00015362,-1501.6,1.3032
10122,17.08,1.0909,0.05,1.0925e-06,10.918,8.3893e-07,6.3034,1.129e-12,3.0848e-06,-8.3894e-07,-6.3034,1.315
10123,17.08,0.81818,0,0.00014873,1486.3,5.6524e-05,89.89,4.4563e-05,0.020278,-0.000147,-1439.3,1.3143
10124,16.988,0.90909,0,0.00015292,1528.2,5.807e-05,91.856,4.5848e-05,0.022909,-0.00015115,-1480.2,1.3028
10125,17.08,0.90909,0.05,1.1624e-06,11.616,8.9258e-07,6.7065,1.8174e-12,3.8029e-06,-8.9258e-07,-6.7065,1.3145
10126,17.08,0.63636,0,0.00014584,1457.4,5.4316e-05,74.632,4.4385e-05,0.017995,-0.00014443,-1418.7,1.3138
10127,16.988,0.72727,0,0.00015024,1501.4,5.6129e-05,79.003,4.5616e-05,0.01472,-0.00014874,-1460.3,1.3023
10128,17.08,0.72727,0.05,1.2224e-06,12.216,9.3867e-07,7.0528,1.9538e-12,5.8069e-06,-9.3867e-07,-7.0528,1.314
10129,17.08,0.45455,0,0.00014309,1429.9,5.191e-05,56.455,4.4391e-05,-0.037019,-0.00014204,-1400.8,1.3132
10130,16.988,0.54545,0,0.00014764,1475.3,5.3973e-05,63.287,4.5552e-05,0.014611,-0.00014646,-1442.7,1.3017
10131,17.08,0.54545,0.05,1.2707e-06,12.698,9.7575e-07,7.3314,1.9794e-12,6.2044e-06,-9.7575e-07,-7.3314,1.3135
10132,17.08,0.27273,0,0.00014053,1404.3,4.9339e-05,35.573,4.4593e-05,-0.085958,-0.00013989,-1386.2,1.3127
10133,16.988,0.36364,0,0.00014516,1450.6,5.1638e-05,44.83,4.5658e-05,-0.097997,-0.00014435,-1427.8,1.3012
10134,17.08,0.36364,0.05,1.2912e-06,12.903,9.9146e-07,7.4495,1.9455e-12,5.2354e-06,-9.9147e-07,-7.4495,1.3129
10135,16.988,0.18182,0,0.00014291,1428.1,4.9174e-05,24.082,4.5954e-05,-0.11193,-0.00014249,-1416,1.3006
10136,17.08,0.18182,0.05,1.0462e-06,10.455,8.0335e-07,6.0361,2.1269e-12,8.9372e-07,-8.0336e-07,-6.0361,1.3123
10137,17.08,0.090909,0,0.00013832,1382.3,4.6805e-05,13.87,4.4958e-05,-0.003842,-0.00013808,-1375.3,1.312
10138,16.896,5.7273,0,0.00014753,1474.3,5.1456e-05,33.217,4.7024e-05,-0.084585,-0.00014694,-1457.5,1.2891
10139,16.804,5.8182,0,0.00014985,1497.5,5.1381e-05,23.084,4.8295e-05,-0.099824,-0.00014945,-1485.9,1.2771
10140,16.896,5.8182,0.05,8.8788e-07,8.8727,6.8179e-07,5.1227,-1.3686e-12,6.6328e-06,-6.8178e-07,-5.1226,1.2888
10141,16.896,5.9091,0,0.00014555,1454.5,4.9157e-05,13.47,4.7364e-05,-0.0059553,-0.00014532,-1447.8,1.2885
10142,16.896,5.5455,0,0.00014971,1496.1,5.3702e-05,51.668,4.6821e-05,-0.037931,-0.00014877,-1469.6,1.2897
10143,16.804,5.6364,0,0.00015176,1516.6,5.3524e-05,41.306,4.8014e-05,-0.093119,-0.00015102,-1495.6,1.2777
10144,16.896,5.6364,0.05,1.1921e-06,11.913,9.154e-07,6.878,-1.6657e-12,3.0464e-06,-9.1539e-07,-6.8779,1.2894
10145,16.896,5.3636,0,0.00015204,1519.4,5.5793e-05,67.707,4.6783e-05,0.014532,-0.00015078,-1484.4,1.2902
10146,16.804,5.4545,0,0.00015386,1537.6,5.5563e-05,57.631,4.7894e-05,0.010308,-0.0001528,-1507.9,1.2782
10147,16.896,5.4545,0.05,1.1811e-06,11.803,9.0694e-07,6.8144,-8.2591e-13,2.6974e-06,-9.0693e-07,-6.8143,1.29
10148,16.896,5.1818,0,0.00015444,1543.4,5.7685e-05,81.046,4.6901e-05,0.01883,-0.00015291,-1501.3,1.2908
10149,16.804,5.2727,0,0.00015605,1559.4,5.7426e-05,71.457,4.7917e-05,0.01272,-0.00015471,-1522.4,1.2788
10150,16.896,5.2727,0.05,1.1405e-06,11.397,8.7575e-07,6.5801,-1.6501e-12,-2.9916e-07,-8.7575e-07,-6.58,1.2905
10151,16.896,5,0,0.00015686,1567.5,5.9348e-05,91.559,4.7165e-05,0.02325,-0.0001551,-1519.7,1.2912
10152,16.804,5.0909,0,0.00015827,1581.6,5.9081e-05,82.673,4.8081e-05,0.021652,-0.0001567,-1538.6,1.2793
10153,16.896,5.0909,0.05,1.09e-06,10.892,8.3698e-07,6.2887,-1.8786e-12,-1.4065e-06,-8.3697e-07,-6.2887,1.291
10154,16.896,4.8182,0,0.00015923,1591.2,6.0751e-05,99.133,4.756e-05,0.023182,-0.00015731,-1539.3,1.2917
10155,16.804,4.9091,0,0.00016045,1603.4,6.0501e-05,91.159,4.8372e-05,0.022916,-0.00015871,-1555.9,1.2797
10156,16.896,4.9091,0.05,1.0318e-06,10.311,7.9231e-07,5.9531,-1.9786e-12,-1.5432e-06,-7.9231e-07,-5.9531,1.2914
10157,16.896,4.6364,0,0.00016147,1613.6,6.1872e-05,103.76,4.8066e-05,0.021624,-0.00015946,-1559.2,1.2921
10158,16.804,4.7273,0,0.00016255,1624.4,6.1664e-05,96.872,4.8774e-05,0.022678,-0.00016069,-1573.8,1.2801
10159,16.896,4.7273,0.05,9.6741e-07,9.6674,7.4285e-07,5.5815,-1.5135e-13,-2.8311e-06,-7.4285e-07,-5.5814,1.2919
10160,16.896,4.4545,0,0.00016354,1634.3,6.2703e-05,105.56,4.8656e-05,0.018901,-0.00016149,-1578.9,1.2924
10161,16.804,4.5455,0,0.00016451,1644,6.2558e-05,99.884,4.9267e-05,0.020758,-0.00016258,-1591.7,1.2805
10162,16.896,4.5455,0.05,8.9841e-07,8.9779,6.8987e-07,5.1834,-5.3444e-13,2.0487e-06,-6.8986e-07,-5.1834,1.2922
10163,16.896,4.2727,0,0.00016538,1652.7,6.3256e-05,104.87,4.93e-05,0.015868,-0.00016335,-1597.7,1.2927
10164,16.804,4.3636,0,0.00016627,1661.6,6.3185e-05,100.42,4.9823e-05,0.018123,-0.00016434,-1609.1,1.2809
10165,16.896,4.3636,0.05,8.2647e-07,8.259,6.3463e-07,4.7684,-1.7865e-12,2.0409e-06,-6.3462e-07,-4.7683,1.2926
10166,16.896,4.0909,0,0.00016697,1668.6,6.3563e-05,102.2,4.9963e-05,0.013378,-0.000165,-1615.1,1.293
10167,16.804,4.1818,0,0.00016782,1677,6.3569e-05,98.878,5.0411e-05,0.015458,-0.00016592,-1625.4,1.2812
10168,16.896,4.1818,0.05,7.5309e-07,7.5257,5.7828e-07,4.345,-1.4138e-12,1.038e-06,-5.7827e-07,-4.3449,1.2929
10169,16.896,3.9091,0,0.00016831,1681.9,6.3675e-05,98.207,5.0606e-05,0.012307,-0.00016642,-1630.6,1.2932
10170,16.804,4,0,0.00016913,1690.1,6.375e-05,95.806,5.1e-05,0.013595,-0.00016729,-1640.2,1.2814
10171,16.896,4,0.05,6.7964e-07,6.7918,5.2188e-07,3.9213,-1.2775e-12,3.4337e-06,-5.2188e-07,-3.9212,1.2931
10172,16.896,3.7273,0,0.00016938,1692.6,6.3654e-05,93.641,5.1193e-05,0.013192,-0.00016759,-1643.8,1.2934
10173,16.804,3.8182,0,0.0001702,1700.8,6.3779e-05,91.858,5.1555e-05,0.01319,-0.00016845,-1653,1.2816
10174,16.896,3.8182,0.05,6.0785e-07,6.0743,4.6675e-07,3.507,-1.4117e-12,8.0504e-07,-4.6675e-07,-3.507,1.2933
10175,16.896,3.5455,0,0.0001702,1700.8,6.3562e-05,89.228,5.1689e-05,0.015896,-0.0001685,-1654.4,1.2936
10176,16.804,3.6364,0,0.00017104,1709.2,6.3716e-05,87.714,5.2044e-05,0.014466,-0.00016938,-1663.7,1.2818
10177,16.896,3.6364,0.05,5.4029e-07,5.3991,4.1487e-07,3.1172,-6.1054e-13,-2.3433e-06,-4.1487e-07,-3.1172,1.2935
10178,16.896,3.3636,0,0.00017078,1706.6,6.3455e-05,85.598,5.2065e-05,0.019495,-0.00016916,-1662.2,1.2937
10179,16.804,3.4545,0,0.00017166,1715.4,6.3616e-05,84.001,5.2438e-05,0.016991,-0.00017008,-1671.9,1.2819
10180,16.896,3.4545,0.05,4.8101e-07,4.8068,3.6936e-07,2.7752,-2.6507e-12,-4.0199e-06,-3.6936e-07,-2.7752,1.2936
10181,16.896,3.1818,0,0.00017112,1710.1,6.3374e-05,83.226,5.23e-05,0.022551,-0.00016956,-1666.9,1.2937
10182,16.804,3.2727,0,0.00017207,1719.5,6.3522e-05,81.23,5.2714e-05,0.019747,-0.00017054,-1677.5,1.282
10183,16.896,3.2727,0.05,4.3569e-07,4.3538,3.3455e-07,2.5137,-2.3279e-12,-9.1334e-06,-3.3455e-07,-2.5137,1.2937
10184,16.896,3,0,0.00017124,1711.2,6.3344e-05,82.403,5.238e-05,0.023748,-0.00016969,-1668.5,1.2938
10185,16.804,3.0909,0,0.00017227,1721.6,6.3468e-05,79.755,5.2856e-05,0.02153,-0.00017078,-1680.3,1.282
10186,16.896,3.0909,0.05,4.1071e-07,4.1042,3.1537e-07,2.3696,-2.7424e-12,-5.9628e-06,-3.1537e-07,-2.3696,1.2937
10187,16.896,2.8182,0,0.00017112,1710.1,6.3374e-05,83.226,5.23e-05,0.022551,-0.00016956,-1666.9,1.2937
10188,16.804,2.9091,0,0.00017227,1721.6,6.3468e-05,79.755,5.2856e-05,0.021531,-0.00017078,-1680.3,1.282
10189,16.896,2.9091,0.05,4.1071e-07,4.1042,3.1537e-07,2.3696,-2.6229e-12,-3.9743e-07,-3.1537e-07,-2.3696,1.2937
10190,16.896,2.6364,0,0.00017078,1706.6,6.3455e-05,85.598,5.2065e-05,0.019495,-0.00016916,-1662.2,1.2937
10191,16.804,2.7273,0,0.00017207,1719.5,6.3522e-05,81.23,5.2714e-05,0.019747,-0.00017054,-1677.5,1.282
10192,16.896,2.7273,0.05,4.3569e-07,4.3538,3.3455e-07,2.5137,2.1442e-13,2.7893e-06,-3.3455e-07,-2.5137,1.2937
10193,16.896,2.4545,0,0.0001702,1700.8,6.3562e-05,89.228,5.1689e-05,0.015896,-0.0001685,-1654.4,1.2936
10194,16.804,2.5455,0,0.00017166,1715.4,6.3616e-05,84.001,5.2438e-05,0.01699,-0.00017008,-1671.9,1.2819
10195,16.896,2.5455,0.05,4.8101e-07,4.8068,3.6936e-07,2.7752,2.6593e-13,5.4981e-06,-3.6936e-07,-2.7752,1.2936
10196,16.896,2.2727,0,0.00016938,1692.6,6.3654e-05,93.641,5.1193e-05,0.013192,-0.00016759,-1643.8,1.2934
10197,16.804,2.3636,0,0.00017104,1709.2,6.3716e-05,87.714,5.2044e-05,0.014466,-0.00016938,-1663.7,1.2818
10198,16.896,2.3636,0.05,5.4029e-07,5.3991,4.1487e-07,3.1172,9.9893e-13,4.8059e-06,-4.1487e-07,-3.1172,1.2935
10199,16.896,2.0909,0,0.00016831,1681.9,6.3675e-05,98.207,5.0606e-05,0.012307,-0.00016642,-1630.6,1.2932
10200,16.804,2.1818,0,0.0001702,1700.8,6.3779e-05,91.858,5.1555e-05,0.013191,-0.00016845,-1653,1.2816
10201,16.896,2.1818,0.05,6.0785e-07,6.0743,4.6675e-07,3.507,2.2408e-14,5.1975e-06,-4.6675e-07,-3.507,1.2933
10202,16.896,1.9091,0,0.00016697,1668.6,6.3563e-05,102.2,4.9963e-05,0.013377,-0.000165,-1615.1,1.293
10203,16.804,2,0,0.00016913,1690.1,6.375e-05,95.806,5.1e-05,0.013595,-0.00016729,-1640.2,1.2814
10204,16.896,2,0.05,6.7964e-07,6.7918,5.2188e-07,3.9212,4.6641e-13,2.5667e-06,-5.2188e-07,-3.9212,1.2931
10205,16.896,1.7273,0,0.00016538,1652.7,6.3256e-05,104.87,4.93e-05,0.015868,-0.00016335,-1597.7,1.2927
10206,16.804,1.8182,0,0.00016782,1677,6.3569e-05,98.878,5.0411e-05,0.015458,-0.00016592,-1625.4,1.2812
10207,16.896,1.8182,0.05,7.5309e-07,7.5257,5.7827e-07,4.3449,1.0114e-13,6.1382e-06,-5.7828e-07,-4.3449,1.2929
10208,16.896,1.5455,0,0.00016354,1634.3,6.2703e-05,105.56,4.8656e-05,0.018902,-0.00016149,-1578.9,1.2924
10209,16.804,1.6364,0,0.00016627,1661.6,6.3185e-05,100.42,4.9823e-05,0.018123,-0.00016434,-1609.1,1.2809
10210,16.896,1.6364,0.05,8.2647e-07,8.259,6.3463e-07,4.7683,1.2428e-12,2.7439e-06,-6.3463e-07,-4.7684,1.2926
10211,16.896,1.3636,0,0.00016147,1613.6,6.1872e-05,103.76,4.8066e-05,0.021624,-0.00015946,-1559.2,1.2921
10212,16.804,1.4545,0,0.00016451,1644,6.2558e-05,99.884,4.9267e-05,0.020759,-0.00016258,-1591.7,1.2805
10213,16.896,1.4545,0.05,8.9841e-07,8.9779,6.8986e-07,5.1834,4.6707e-13,4.2372e-06,-6.8987e-07,-5.1834,1.2922
10214,16.896,1.1818,0,0.00015923,1591.2,6.0751e-05,99.133,4.756e-05,0.023183,-0.00015731,-1539.3,1.2917
10215,16.804,1.2727,0,0.00016255,1624.4,6.1664e-05,96.872,4.8774e-05,0.022679,-0.00016069,-1573.8,1.2801
10216,16.896,1.2727,0.05,9.6741e-07,9.6674,7.4285e-07,5.5815,-3.0757e-13,4.2229e-06,-7.4285e-07,-5.5815,1.2919
10217,16.896,1,0,0.00015686,1567.5,5.9348e-05,91.558,4.7165e-05,0.02325,-0.0001551,-1519.7,1.2912
10218,16.804,1.0909,0,0.00016045,1603.4,6.0501e-05,91.159,4.8372e-05,0.022917,-0.00015871,-1555.9,1.2797
10219,16.896,1.0909,0.05,1.0318e-06,10.311,7.9231e-07,5.9531,1.6924e-12,3.798e-06,-7.9231e-07,-5.9531,1.2914
10220,16.896,0.81818,0,0.00015444,1543.4,5.7685e-05,81.046,4.6901e-05,0.01883,-0.00015291,-1501.3,1.2908
10221,16.804,0.90909,0,0.00015827,1581.6,5.9081e-05,82.673,4.8081e-05,0.021653,-0.0001567,-1538.6,1.2793
10222,16.896,0.90909,0.05,1.09e-06,10.892,8.3697e-07,6.2887,1.8482e-12,4.9895e-06,-8.3697e-07,-6.2887,1.291
10223,16.896,0.63636,0,0.00015204,1519.4,5.5793e-05,67.707,4.6783e-05,0.014533,-0.00015078,-1484.4,1.2902
10224,16.804,0.72727,0,0.00015605,1559.4,5.7426e-05,71.457,4.7917e-05,0.012721,-0.00015471,-1522.4,1.2788
10225,16.896,0.72727,0.05,1.1405e-06,11.397,8.7575e-07,6.58,1.0793e-12,5.0227e-06,-8.7575e-07,-6.5801,1.2905
10226,16.896,0.45455,0,0.00014971,1496.1,5.3702e-05,51.668,4.6821e-05,-0.03793,-0.00014877,-1469.6,1.2897
10227,16.804,0.54545,0,0.00015386,1537.6,5.5563e-05,57.631,4.7894e-05,0.010309,-0.0001528,-1507.9,1.2782
10228,16.896,0.54545,0.05,1.1811e-06,11.803,9.0694e-07,6.8143,2.0011e-12,7.5117e-06,-9.0694e-07,-6.8144,1.29
10229,16.896,0.27273,0,0.00014753,1474.3,5.1456e-05,33.217,4.7024e-05,-0.084585,-0.00014694,-1457.5,1.2891
10230,16.804,0.36364,0,0.00015176,1516.6,5.3524e-05,41.306,4.8014e-05,-0.093119,-0.00015102,-1495.6,1.2777
10231,16.896,0.36364,0.05,1.1921e-06,11.913,9.1539e-07,6.8779,1.8642e-12,5.5179e-06,-9.154e-07,-6.8779,1.2894
10232,16.804,0.18182,0,0.00014985,1497.5,5.1381e-05,23.084,4.8295e-05,-0.099825,-0.00014945,-1485.9,1.2771
10233,16.896,0.18182,0.05,8.8788e-07,8.8727,6.8178e-07,5.1227,1.4193e-12,4.4254e-06,-6.8179e-07,-5.1227,1.2888
10234,16.896,0.090909,0,0.00014555,1454.5,4.9157e-05,13.47,4.7364e-05,-0.0059555,-0.00014532,-1447.8,1.2885
10235,16.712,5.7273,0,0.00015407,1539.6,5.3432e-05,31.049,4.9289e-05,-0.079713,-0.00015352,-1523.9,1.2657
10236,16.621,5.8182,0,0.00015635,1562.4,5.3449e-05,22.189,5.0484e-05,-0.085182,-0.00015596,-1551.2,1.2537
10237,16.712,5.8182,0.05,7.526e-07,7.5208,5.779e-07,4.3421,-5.5185e-13,5.8608e-06,-5.779e-07,-4.3421,1.2653
10238,16.712,5.9091,0,0.00015228,1521.8,5.1348e-05,13.112,4.9602e-05,-0.0072305,-0.00015206,-1515.2,1.265
10239,16.712,5.5455,0,0.00015591,1558,5.5383e-05,47.258,4.9089e-05,-0.037512,-0.00015505,-1533.9,1.2662
10240,16.621,5.6364,0,0.00015795,1578.4,5.5298e-05,38.07,5.022e-05,-0.086831,-0.00015727,-1559.1,1.2543
10241,16.712,5.6364,0.05,1.1101e-06,11.093,8.524e-07,6.4046,-1.9684e-12,3.1482e-06,-8.524e-07,-6.4046,1.2659
10242,16.712,5.3636,0,0.00015787,1577.6,5.7199e-05,61.402,4.9028e-05,0.011362,-0.00015674,-1546,1.2668
10243,16.621,5.4545,0,0.00015973,1596.2,5.7074e-05,52.469,5.0091e-05,0.0067752,-0.00015877,-1569.3,1.2548
10244,16.712,5.4545,0.05,1.108e-06,11.072,8.5079e-07,6.3925,-1.2622e-12,2.3297e-06,-8.5079e-07,-6.3925,1.2665
10245,16.712,5.1818,0,0.00015988,1597.7,5.8827e-05,73.124,4.9097e-05,0.016882,-0.00015851,-1559.8,1.2673
10246,16.621,5.2727,0,0.00016156,1614.5,5.8686e-05,64.654,5.0082e-05,0.010629,-0.00016037,-1581.2,1.2554
10247,16.712,5.2727,0.05,1.0746e-06,10.739,8.2518e-07,6.2001,-2.1093e-12,-2.3074e-06,-8.2518e-07,-6.2001,1.267
10248,16.712,5,0,0.00016187,1617.5,6.0241e-05,82.325,4.9288e-05,0.021997,-0.00016031,-1574.8,1.2678
10249,16.621,5.0909,0,0.0001634,1632.9,6.0105e-05,74.515,5.019e-05,0.019825,-0.000162,-1594.3,1.2559
10250,16.712,5.0909,0.05,1.0328e-06,10.321,7.9306e-07,5.9588,-2.3809e-12,-3.6951e-06,-7.9306e-07,-5.9587,1.2675
10251,16.712,4.8182,0,0.00016379,1636.8,6.1422e-05,88.954,4.9586e-05,0.022735,-0.00016209,-1590.5,1.2682
10252,16.621,4.9091,0,0.00016519,1650.8,6.1311e-05,81.972,5.0404e-05,0.021825,-0.00016364,-1608.3,1.2563
10253,16.712,4.9091,0.05,9.8489e-07,9.8421,7.5627e-07,5.6823,-2.1094e-12,-3.5157e-06,-7.5627e-07,-5.6823,1.268
10254,16.712,4.6364,0,0.0001656,1654.8,6.2357e-05,93.055,4.9975e-05,0.021911,-0.00016382,-1606.3,1.2686
10255,16.621,4.7273,0,0.00016689,1667.8,6.229e-05,87.031,5.071e-05,0.022228,-0.00016524,-1622.6,1.2568
10256,16.712,4.7273,0.05,9.3213e-07,9.3148,7.1576e-07,5.3779,-3.9402e-13,-4.7793e-06,-7.1575e-07,-5.3779,1.2684
10257,16.712,4.4545,0,0.00016725,1671.4,6.3046e-05,94.792,5.0433e-05,0.019922,-0.00016544,-1621.9,1.269
10258,16.621,4.5455,0,0.00016847,1683.5,6.3037e-05,89.799,5.1088e-05,0.020986,-0.00016676,-1636.8,1.2571
10259,16.712,4.5455,0.05,8.7583e-07,8.7523,6.7253e-07,5.0531,-2.703e-12,-1.7999e-06,-6.7253e-07,-5.0531,1.2688
10260,16.712,4.2727,0,0.00016872,1686,6.3504e-05,94.466,5.0934e-05,0.017544,-0.00016691,-1636.8,1.2693
10261,16.621,4.3636,0,0.00016988,1697.6,6.3561e-05,90.5,5.1518e-05,0.019009,-0.00016816,-1650.5,1.2575
10262,16.712,4.3636,0.05,8.1734e-07,8.1678,6.2762e-07,4.7157,-2.3707e-12,-2.9932e-06,-6.2761e-07,-4.7156,1.2691
10263,16.712,4.0909,0,0.00016998,1698.6,6.376e-05,92.515,5.1449e-05,0.015443,-0.00016822,-1650.5,1.2696
10264,16.621,4.1818,0,0.0001711,1709.9,6.3882e-05,89.483,5.1975e-05,0.016874,-0.00016941,-1663.4,1.2578
10265,16.712,4.1818,0.05,7.5798e-07,7.5745,5.8203e-07,4.3732,-1.3251e-12,-3.2228e-06,-5.8203e-07,-4.3731,1.2694
10266,16.712,3.9091,0,0.00017103,1709.1,6.3857e-05,89.478,5.195e-05,0.01425,-0.00016933,-1662.6,1.2698
10267,16.621,4,0,0.00017214,1720.2,6.4037e-05,87.205,5.2433e-05,0.015205,-0.00017049,-1674.9,1.258
10268,16.712,4,0.05,6.9914e-07,6.9866,5.3686e-07,4.0337,-2.0603e-12,-2.8712e-06,-5.3685e-07,-4.0337,1.2697
10269,16.712,3.7273,0,0.00017187,1717.5,6.3843e-05,85.944,5.2407e-05,0.014334,-0.00017024,-1672.9,1.27
10270,16.621,3.8182,0,0.00017298,1728.6,6.4067e-05,84.19,5.2864e-05,0.014466,-0.0001714,-1685,1.2582
10271,16.712,3.8182,0.05,6.4257e-07,6.4213,4.9342e-07,3.7073,-2.1852e-12,-3.838e-06,-4.9341e-07,-3.7073,1.2699
10272,16.712,3.5455,0,0.00017251,1723.9,6.3771e-05,82.495,5.2793e-05,0.015624,-0.00017095,-1681.1,1.2702
10273,16.621,3.6364,0,0.00017364,1735.2,6.402e-05,80.98,5.3245e-05,0.014823,-0.00017212,-1693.3,1.2584
10274,16.712,3.6364,0.05,5.9062e-07,5.9021,4.5352e-07,3.4076,-2.7109e-12,-4.3591e-06,-4.5352e-07,-3.4076,1.2701
10275,16.712,3.3636,0,0.00017296,1728.4,6.3683e-05,79.636,5.3087e-05,0.017557,-0.00017146,-1687.2,1.2703
10276,16.621,3.4545,0,0.00017412,1740,6.394e-05,78.077,5.3551e-05,0.016028,-0.00017266,-1699.7,1.2585
10277,16.712,3.4545,0.05,5.4643e-07,5.4606,4.1959e-07,3.1527,-2.2092e-12,-6.8294e-06,-4.1959e-07,-3.1526,1.2702
10278,16.712,3.1818,0,0.00017322,1731,6.3616e-05,77.759,5.327e-05,0.019258,-0.00017177,-1690.8,1.2703
10279,16.621,3.2727,0,0.00017444,1743.2,6.3865e-05,75.897,5.3766e-05,0.017472,-0.00017302,-1704,1.2586
10280,16.712,3.2727,0.05,5.1377e-07,5.1342,3.9451e-07,2.9642,-2.5228e-12,-9.9981e-06,-3.9451e-07,-2.9642,1.2703
10281,16.712,3,0,0.00017331,1731.9,6.3592e-05,77.105,5.3332e-05,0.019933,-0.00017187,-1692.1,1.2703
10282,16.621,3.0909,0,0.0001746,1744.8,6.382e-05,74.731,5.3877e-05,0.018436,-0.0001732,-1706.2,1.2587
10283,16.712,3.0909,0.05,4.9627e-07,4.9593,3.8108e-07,2.8633,-2.7129e-12,-6.5851e-06,-3.8108e-07,-2.8633,1.2703
10284,16.712,2.8182,0,0.00017322,1731,6.3616e-05,77.759,5.327e-05,0.019259,-0.00017177,-1690.8,1.2703
10285,16.621,2.9091,0,0.0001746,1744.8,6.382e-05,74.731,5.3877e-05,0.018436,-0.0001732,-1706.2,1.2587
10286,16.712,2.9091,0.05,4.9627e-07,4.9593,3.8108e-07,2.8633,-1.8009e-12,-1.7939e-06,-3.8108e-07,-2.8633,1.2703
10287,16.712,2.6364,0,0.00017296,1728.4,6.3683e-05,79.636,5.3087e-05,0.017556,-0.00017146,-1687.2,1.2703
10288,16.621,2.7273,0,0.00017444,1743.2,6.3865e-05,75.897,5.3766e-05,0.017472,-0.00017302,-1704,1.2586
10289,16.712,2.7273,0.05,5.1377e-07,5.1342,3.9451e-07,2.9642,1.0415e-13,3.3913e-07,-3.9451e-07,-2.9642,1.2703
10290,16.712,2.4545,0,0.00017251,1723.9,6.3771e-05,82.495,5.2793e-05,0.015624,-0.00017095,-1681.1,1.2702
10291,16.621,2.5455,0,0.00017412,1740,6.394e-05,78.077,5.3551e-05,0.016028,-0.00017266,-1699.7,1.2585
10292,16.712,2.5455,0.05,5.4643e-07,5.4606,4.1959e-07,3.1527,5.146e-14,1.3266e-06,-4.1959e-07,-3.1527,1.2702
10293,16.712,2.2727,0,0.00017187,1717.5,6.3843e-05,85.944,5.2407e-05,0.014335,-0.00017024,-1672.9,1.27
10294,16.621,2.3636,0,0.00017364,1735.2,6.402e-05,80.98,5.3245e-05,0.014823,-0.00017212,-1693.3,1.2584
10295,16.712,2.3636,0.05,5.9062e-07,5.9021,4.5352e-07,3.4076,6.4283e-15,4.5105e-06,-4.5352e-07,-3.4076,1.2701
10296,16.712,2.0909,0,0.00017103,1709.1,6.3857e-05,89.478,5.195e-05,0.014251,-0.00016933,-1662.6,1.2698
10297,16.621,2.1818,0,0.00017298,1728.6,6.4067e-05,84.19,5.2864e-05,0.014467,-0.0001714,-1685,1.2582
10298,16.712,2.1818,0.05,6.4257e-07,6.4213,4.9341e-07,3.7073,-8.1299e-14,2.9588e-06,-4.9341e-07,-3.7073,1.2699
10299,16.712,1.9091,0,0.00016998,1698.6,6.376e-05,92.515,5.1449e-05,0.015444,-0.00016822,-1650.5,1.2696
10300,16.621,2,0,0.00017214,1720.2,6.4037e-05,87.205,5.2433e-05,0.015205,-0.00017049,-1674.9,1.258
10301,16.712,2,0.05,6.9914e-07,6.9866,5.3685e-07,4.0337,3.5825e-13,4.8644e-06,-5.3686e-07,-4.0337,1.2697
10302,16.712,1.7273,0,0.00016872,1686,6.3504e-05,94.466,5.0934e-05,0.017543,-0.00016691,-1636.8,1.2693
10303,16.621,1.8182,0,0.0001711,1709.9,6.3882e-05,89.483,5.1975e-05,0.016874,-0.00016941,-1663.4,1.2578
10304,16.712,1.8182,0.05,7.5798e-07,7.5745,5.8203e-07,4.3731,-3.553e-13,4.5998e-06,-5.8203e-07,-4.3732,1.2694
10305,16.712,1.5455,0,0.00016725,1671.4,6.3046e-05,94.792,5.0433e-05,0.019922,-0.00016544,-1621.9,1.269
10306,16.621,1.6364,0,0.00016988,1697.6,6.3561e-05,90.5,5.1518e-05,0.019009,-0.00016816,-1650.5,1.2575
10307,16.712,1.6364,0.05,8.1734e-07,8.1678,6.2761e-07,4.7156,1.4097e-12,3.758e-06,-6.2762e-07,-4.7157,1.2691
10308,16.712,1.3636,0,0.0001656,1654.8,6.2357e-05,93.055,4.9975e-05,0.021912,-0.00016382,-1606.3,1.2686
10309,16.621,1.4545,0,0.00016847,1683.5,6.3037e-05,89.799,5.1088e-05,0.020986,-0.00016676,-1636.8,1.2571
10310,16.712,1.4545,0.05,8.7583e-07,8.7523,6.7253e-07,5.0531,1.4901e-12,4.5133e-06,-6.7253e-07,-5.0531,1.2688
10311,16.712,1.1818,0,0.00016379,1636.8,6.1422e-05,88.954,4.9586e-05,0.022735,-0.00016209,-1590.5,1.2682
10312,16.621,1.2727,0,0.00016689,1667.8,6.229e-05,87.031,5.071e-05,0.022229,-0.00016524,-1622.6,1.2568
10313,16.712,1.2727,0.05,9.3213e-07,9.3148,7.1575e-07,5.3779,6.7075e-13,5.0364e-06,-7.1576e-07,-5.3779,1.2684
10314,16.712,1,0,0.00016187,1617.5,6.0241e-05,82.325,4.9288e-05,0.021998,-0.00016031,-1574.8,1.2678
10315,16.621,1.0909,0,0.00016519,1650.8,6.1311e-05,81.972,5.0404e-05,0.021825,-0.00016364,-1608.3,1.2563
10316,16.712,1.0909,0.05,9.8489e-07,9.8421,7.5627e-07,5.6823,1.2879e-12,5.1702e-06,-7.5627e-07,-5.6823,1.268
10317,16.712,0.81818,0,0.00015988,1597.7,5.8827e-05,73.124,4.9097e-05,0.016884,-0.00015851,-1559.8,1.2673
10318,16.621,0.90909,0,0.0001634,1632.9,6.0105e-05,74.515,5.019e-05,0.019826,-0.000162,-1594.3,1.2559
10319,16.712,0.90909,0.05,1.0328e-06,10.321,7.9306e-07,5.9587,1.4124e-12,4.1517e-06,-7.9306e-07,-5.9587,1.2675
10320,16.712,0.63636,0,0.00015787,1577.6,5.7199e-05,61.402,4.9028e-05,0.011363,-0.00015674,-1546,1.2668
10321,16.621,0.72727,0,0.00016156,1614.5,5.8686e-05,64.654,5.0082e-05,0.010631,-0.00016037,-1581.2,1.2554
10322,16.712,0.72727,0.05,1.0746e-06,10.739,8.2518e-07,6.2,1.4631e-12,4.3893e-06,-8.2518e-07,-6.2001,1.267
10323,16.712,0.45455,0,0.00015591,1558,5.5383e-05,47.258,4.9089e-05,-0.037512,-0.00015505,-1533.9,1.2662
10324,16.621,0.54545,0,0.00015973,1596.2,5.7074e-05,52.469,5.0091e-05,0.0067761,-0.00015877,-1569.3,1.2548
10325,16.712,0.54545,0.05,1.108e-06,11.072,8.5079e-07,6.3925,2.0165e-12,4.2267e-06,-8.5079e-07,-6.3925,1.2665
10326,16.712,0.27273,0,0.00015407,1539.6,5.3432e-05,31.049,4.9289e-05,-0.079714,-0.00015352,-1523.9,1.2657
10327,16.621,0.36364,0,0.00015795,1578.4,5.5298e-05,38.07,5.022e-05,-0.086831,-0.00015727,-1559.1,1.2543
10328,16.712,0.36364,0.05,1.1101e-06,11.093,8.524e-07,6.4046,1.5424e-12,2.8339e-06,-8.524e-07,-6.4046,1.2659
10329,16.621,0.18182,0,0.00015635,1562.4,5.3449e-05,22.189,5.0484e-05,-0.085183,-0.00015596,-1551.2,1.2537
10330,16.712,0.18182,0.05,7.526e-07,7.5208,5.779e-07,4.3421,1.4257e-12,1.353e-06,-5.779e-07,-4.3421,1.2653
10331,16.712,0.090909,0,0.00015228,1521.8,5.1348e-05,13.112,4.9602e-05,-0.0072319,-0.00015206,-1515.2,1.265
10332,16.529,5.7273,0,0.00016022,1601,5.5298e-05,29.087,5.1418e-05,-0.073024,-0.0001597,-1586.3,1.2423
10333,16.437,5.8182,0,0.00016248,1623.7,5.5405e-05,21.393,5.2548e-05,-0.07045,-0.0001621,-1612.9,1.2303
10334,16.529,5.8182,0.05,6.3783e-07,6.3739,4.8978e-07,3.68,-9.4543e-13,8.813e-06,-4.8977e-07,-3.68,1.242
10335,16.529,5.9091,0,0.0001586,1584.9,5.3407e-05,12.794,5.1703e-05,-0.0079332,-0.00015838,-1578.5,1.2417
10336,16.529,5.5455,0,0.00016177,1616.6,5.6985e-05,43.258,5.1223e-05,-0.036243,-0.00016099,-1594.5,1.2429
10337,16.437,5.6364,0,0.00016381,1637,5.6989e-05,35.142,5.2301e-05,-0.079975,-0.00016319,-1619.2,1.231
10338,16.529,5.6364,0.05,1.0428e-06,10.42,8.0071e-07,6.0162,-2.0434e-12,3.2037e-06,-8.0071e-07,-6.0162,1.2426
10339,16.529,5.3636,0,0.00016342,1633.1,5.8561e-05,55.723,5.1146e-05,0.0085718,-0.0001624,-1604.5,1.2435
10340,16.437,5.4545,0,0.00016532,1652,5.8532e-05,47.815,5.2169e-05,0.0038844,-0.00016445,-1627.6,1.2316
10341,16.529,5.4545,0.05,1.0487e-06,10.48,8.0528e-07,6.0506,-1.624e-12,1.8669e-06,-8.0528e-07,-6.0505,1.2432
10342,16.529,5.1818,0,0.00016509,1649.8,5.9966e-05,66.062,5.1176e-05,0.014768,-0.00016387,-1615.7,1.244
10343,16.437,5.2727,0,0.00016685,1667.4,5.9929e-05,58.566,5.2135e-05,0.008576,-0.00016578,-1637.3,1.2321
10344,16.529,5.2727,0.05,1.0219e-06,10.212,7.8468e-07,5.8958,-2.093e-12,-2.0186e-06,-7.8467e-07,-5.8957,1.2437
10345,16.529,5,0,0.00016673,1666.2,6.1178e-05,74.187,5.1307e-05,0.020265,-0.00016534,-1627.8,1.2445
10346,16.437,5.0909,0,0.00016837,1682.6,6.1152e-05,67.283,5.2199e-05,0.017722,-0.00016713,-1647.9,1.2326
10347,16.529,5.0909,0.05,9.8766e-07,9.8697,7.584e-07,5.6983,-2.4237e-12,-3.0273e-06,-7.5839e-07,-5.6983,1.2442
10348,16.529,4.8182,0,0.0001683,1681.9,6.2183e-05,80.078,5.1528e-05,0.021615,-0.0001668,-1640.4,1.2449
10349,16.437,4.9091,0,0.00016985,1697.3,6.2184e-05,73.907,5.2351e-05,0.02024,-0.00016847,-1659.1,1.2331
10350,16.529,4.9091,0.05,9.4854e-07,9.4789,7.2837e-07,5.4727,-2.6627e-12,-3.3024e-06,-7.2836e-07,-5.4726,1.2447
10351,16.529,4.6364,0,0.00016977,1696.5,6.2973e-05,83.804,5.1823e-05,0.021403,-0.00016819,-1653,1.2453
10352,16.437,4.7273,0,0.00017123,1711.2,6.3018e-05,78.464,5.2578e-05,0.021151,-0.00016976,-1670.6,1.2335
10353,16.529,4.7273,0.05,9.0562e-07,9.0499,6.9541e-07,5.225,-3.3053e-12,-5.1296e-06,-6.954e-07,-5.225,1.2451
10354,16.529,4.4545,0,0.0001711,1709.8,6.3555e-05,85.533,5.2174e-05,0.020037,-0.00016948,-1665.4,1.2457
10355,16.437,4.5455,0,0.0001725,1723.9,6.3652e-05,81.072,5.2865e-05,0.020478,-0.00017098,-1681.9,1.2339
10356,16.529,4.5455,0.05,8.5997e-07,8.5938,6.6036e-07,4.9617,-2.1119e-12,-3.0212e-06,-6.6035e-07,-4.9616,1.2455
10357,16.529,4.2727,0,0.00017227,1721.5,6.3942e-05,85.537,5.256e-05,0.01821,-0.00017065,-1677.1,1.246
10358,16.437,4.3636,0,0.00017364,1735.2,6.4098e-05,81.94,5.3195e-05,0.019052,-0.0001721,-1692.7,1.2342
10359,16.529,4.3636,0.05,8.1274e-07,8.1218,6.2408e-07,4.6891,-2.7511e-12,-4.0388e-06,-6.2408e-07,-4.6891,1.2458
10360,16.529,4.0909,0,0.00017327,1731.5,6.4162e-05,84.188,5.2959e-05,0.016455,-0.00017168,-1687.8,1.2463
10361,16.437,4.1818,0,0.00017462,1745,6.4375e-05,81.371,5.3547e-05,0.01736,-0.00017309,-1702.8,1.2345
10362,16.529,4.1818,0.05,7.6508e-07,7.6456,5.8749e-07,4.4142,-2.6801e-12,-3.6426e-06,-5.8749e-07,-4.4141,1.2461
10363,16.529,3.9091,0,0.0001741,1739.8,6.4249e-05,81.927,5.3347e-05,0.015242,-0.00017256,-1697.4,1.2465
10364,16.437,4,0,0.00017544,1753.2,6.4512e-05,79.745,5.3901e-05,0.01589,-0.00017394,-1711.9,1.2348
10365,16.529,4,0.05,7.1831e-07,7.1782,5.5158e-07,4.1443,-1.6651e-12,-5.0443e-06,-5.5157e-07,-4.1443,1.2464
10366,16.529,3.7273,0,0.00017476,1746.4,6.4245e-05,79.231,5.3702e-05,0.014843,-0.00017327,-1705.4,1.2467
10367,16.437,3.8182,0,0.0001761,1759.8,6.4546e-05,77.488,5.4235e-05,0.014987,-0.00017466,-1719.8,1.235
10368,16.529,3.8182,0.05,6.7398e-07,6.7352,5.1754e-07,3.8886,-1.774e-12,-6.1658e-06,-5.1753e-07,-3.8885,1.2466
10369,16.529,3.5455,0,0.00017526,1751.4,6.419e-05,76.565,5.4002e-05,0.015246,-0.00017383,-1711.8,1.2468
10370,16.437,3.6364,0,0.00017662,1765,6.4514e-05,75.036,5.453e-05,0.014792,-0.00017522,-1726.3,1.2352
10371,16.529,3.6364,0.05,6.3402e-07,6.3359,4.8685e-07,3.658,-1.1028e-12,-6.4455e-06,-4.8685e-07,-3.658,1.2467
10372,16.529,3.3636,0,0.00017561,1754.9,6.4122e-05,74.337,5.4231e-05,0.016128,-0.00017422,-1716.5,1.2469
10373,16.437,3.4545,0,0.000177,1768.8,6.4454e-05,72.794,5.4768e-05,0.015183,-0.00017565,-1731.2,1.2353
10374,16.529,3.4545,0.05,6.0076e-07,6.0034,4.6131e-07,3.4661,-2.2586e-12,-6.6786e-06,-4.613e-07,-3.4661,1.2469
10375,16.529,3.1818,0,0.00017581,1756.9,6.4069e-05,72.867,5.4373e-05,0.016978,-0.00017446,-1719.3,1.247
10376,16.437,3.2727,0,0.00017724,1771.2,6.4395e-05,71.098,5.4934e-05,0.015814,-0.00017593,-1734.6,1.2354
10377,16.529,3.2727,0.05,5.7667e-07,5.7627,4.4281e-07,3.3272,-7.4075e-13,-7.0395e-06,-4.4281e-07,-3.3271,1.247
10378,16.529,3,0,0.00017588,1757.6,6.4049e-05,72.354,5.4422e-05,0.017324,-0.00017454,-1720.3,1.247
10379,16.437,3.0909,0,0.00017736,1772.4,6.436e-05,70.188,5.5021e-05,0.01627,-0.00017607,-1736.3,1.2354
10380,16.529,3.0909,0.05,5.6397e-07,5.6358,4.3306e-07,3.2539,-1.7828e-12,-4.4997e-06,-4.3306e-07,-3.2538,1.247
10381,16.529,2.8182,0,0.00017581,1756.9,6.4069e-05,72.867,5.4373e-05,0.016977,-0.00017446,-1719.3,1.247
10382,16.437,2.9091,0,0.00017736,1772.4,6.436e-05,70.188,5.5021e-05,0.016271,-0.00017607,-1736.3,1.2354
10383,16.529,2.9091,0.05,5.6397e-07,5.6358,4.3306e-07,3.2539,-9.2447e-13,-2.0047e-06,-4.3306e-07,-3.2538,1.247
10384,16.529,2.6364,0,0.00017561,1754.9,6.4122e-05,74.337,5.4231e-05,0.016129,-0.00017422,-1716.5,1.2469
10385,16.437,2.7273,0,0.00017724,1771.2,6.4395e-05,71.098,5.4934e-05,0.015815,-0.00017593,-1734.6,1.2354
10386,16.529,2.7273,0.05,5.7667e-07,5.7627,4.4281e-07,3.3271,-2.7343e-14,-2.0793e-07,-4.4281e-07,-3.3271,1.247
10387,16.529,2.4545,0,0.00017526,1751.4,6.419e-05,76.564,5.4002e-05,0.015246,-0.00017383,-1711.8,1.2468
10388,16.437,2.5455,0,0.000177,1768.8,6.4454e-05,72.794,5.4768e-05,0.015183,-0.00017565,-1731.2,1.2353
10389,16.529,2.5455,0.05,6.0076e-07,6.0034,4.6131e-07,3.4661,-6.5628e-14,4.4998e-07,-4.6131e-07,-3.4661,1.2469
10390,16.529,2.2727,0,0.00017476,1746.4,6.4245e-05,79.231,5.3702e-05,0.014843,-0.00017327,-1705.4,1.2467
10391,16.437,2.3636,0,0.00017662,1765,6.4514e-05,75.036,5.453e-05,0.014791,-0.00017522,-1726.3,1.2352
10392,16.529,2.3636,0.05,6.3402e-07,6.3359,4.8685e-07,3.658,-4.752e-14,2.9192e-06,-4.8685e-07,-3.658,1.2467
10393,16.529,2.0909,0,0.0001741,1739.8,6.4249e-05,81.927,5.3347e-05,0.015241,-0.00017256,-1697.4,1.2465
10394,16.437,2.1818,0,0.0001761,1759.8,6.4546e-05,77.488,5.4235e-05,0.014987,-0.00017466,-1719.8,1.235
10395,16.529,2.1818,0.05,6.7398e-07,6.7352,5.1753e-07,3.8886,7.1791e-13,4.347e-06,-5.1753e-07,-3.8885,1.2466
10396,16.529,1.9091,0,0.00017327,1731.5,6.4162e-05,84.188,5.2959e-05,0.016454,-0.00017168,-1687.8,1.2463
10397,16.437,2,0,0.00017544,1753.2,6.4512e-05,79.745,5.3901e-05,0.015889,-0.00017394,-1711.9,1.2348
10398,16.529,2,0.05,7.1831e-07,7.1782,5.5158e-07,4.1443,6.7165e-13,3.9113e-06,-5.5158e-07,-4.1443,1.2464
10399,16.529,1.7273,0,0.00017227,1721.5,6.3942e-05,85.537,5.256e-05,0.018211,-0.00017065,-1677.1,1.246
10400,16.437,1.8182,0,0.00017462,1745,6.4375e-05,81.371,5.3547e-05,0.017361,-0.00017309,-1702.8,1.2345
10401,16.529,1.8182,0.05,7.6508e-07,7.6456,5.8749e-07,4.4142,6.4166e-13,5.2137e-06,-5.8749e-07,-4.4142,1.2461
10402,16.529,1.5455,0,0.0001711,1709.8,6.3555e-05,85.533,5.2174e-05,0.020038,-0.00016948,-1665.4,1.2457
10403,16.437,1.6364,0,0.00017364,1735.2,6.4098e-05,81.94,5.3195e-05,0.019052,-0.0001721,-1692.7,1.2342
10404,16.529,1.6364,0.05,8.1274e-07,8.1218,6.2408e-07,4.6891,6.3745e-13,1.9794e-06,-6.2408e-07,-4.6891,1.2458
10405,16.529,1.3636,0,0.00016977,1696.5,6.2973e-05,83.804,5.1823e-05,0.021403,-0.00016819,-1653,1.2453
10406,16.437,1.4545,0,0.0001725,1723.9,6.3652e-05,81.072,5.2865e-05,0.020478,-0.00017098,-1681.9,1.2339
10407,16.529,1.4545,0.05,8.5997e-07,8.5938,6.6035e-07,4.9616,-1.8834e-13,3.0894e-06,-6.6035e-07,-4.9616,1.2455
10408,16.529,1.1818,0,0.0001683,1681.9,6.2182e-05,80.078,5.1528e-05,0.021616,-0.0001668,-1640.4,1.2449
10409,16.437,1.2727,0,0.00017123,1711.2,6.3018e-05,78.464,5.2578e-05,0.021152,-0.00016976,-1670.6,1.2335
10410,16.529,1.2727,0.05,9.0562e-07,9.0499,6.954e-07,5.225,1.6715e-12,3.678e-06,-6.954e-07,-5.225,1.2451
10411,16.529,1,0,0.00016673,1666.2,6.1178e-05,74.187,5.1307e-05,0.020266,-0.00016534,-1627.8,1.2445
10412,16.437,1.0909,0,0.00016985,1697.3,6.2184e-05,73.906,5.2351e-05,0.02024,-0.00016847,-1659.1,1.2331
10413,16.529,1.0909,0.05,9.4854e-07,9.4789,7.2836e-07,5.4726,8.7812e-13,3.5791e-06,-7.2837e-07,-5.4727,1.2447
10414,16.529,0.81818,0,0.00016509,1649.8,5.9966e-05,66.062,5.1176e-05,0.01477,-0.00016387,-1615.7,1.244
10415,16.437,0.90909,0,0.00016837,1682.6,6.1152e-05,67.283,5.2199e-05,0.017724,-0.00016713,-1647.9,1.2326
10416,16.529,0.90909,0.05,9.8766e-07,9.8697,7.5839e-07,5.6983,1.4426e-12,5.3719e-06,-7.584e-07,-5.6983,1.2442
10417,16.529,0.63636,0,0.00016342,1633.1,5.8561e-05,55.723,5.1146e-05,0.0085737,-0.0001624,-1604.5,1.2435
10418,16.437,0.72727,0,0.00016685,1667.4,5.9929e-05,58.566,5.2135e-05,0.0085776,-0.00016578,-1637.3,1.2321
10419,16.529,0.72727,0.05,1.0219e-06,10.212,7.8468e-07,5.8957,1.1004e-12,5.3094e-06,-7.8468e-07,-5.8958,1.2437
10420,16.529,0.45455,0,0.00016177,1616.6,5.6985e-05,43.258,5.1223e-05,-0.036242,-0.00016099,-1594.5,1.2429
10421,16.437,0.54545,0,0.00016532,1652,5.8532e-05,47.815,5.2169e-05,0.0038851,-0.00016445,-1627.6,1.2316
10422,16.529,0.54545,0.05,1.0487e-06,10.48,8.0528e-07,6.0505,1.8745e-12,3.9898e-06,-8.0528e-07,-6.0506,1.2432
10423,16.529,0.27273,0,0.00016022,1601,5.5298e-05,29.087,5.1418e-05,-0.073024,-0.0001597,-1586.3,1.2423
10424,16.437,0.36364,0,0.00016381,1637,5.6989e-05,35.142,5.2301e-05,-0.079974,-0.00016319,-1619.2,1.231
10425,16.529,0.36364,0.05,1.0428e-06,10.42,8.0071e-07,6.0162,1.3687e-12,1.2136e-06,-8.0071e-07,-6.0162,1.2426
10426,16.437,0.18182,0,0.00016248,1623.7,5.5405e-05,21.393,5.2548e-05,-0.07045,-0.0001621,-1612.9,1.2303
10427,16.529,0.18182,0.05,6.3783e-07,6.3739,4.8977e-07,3.68,7.2801e-13,8.8875e-07,-4.8978e-07,-3.68,1.242
10428,16.529,0.090909,0,0.0001586,1584.9,5.3407e-05,12.794,5.1703e-05,-0.0079337,-0.00015838,-1578.5,1.2417
10429,16.345,5.7273,0,0.00016606,1659.4,5.708e-05,27.328,5.3434e-05,-0.065722,-0.00016558,-1645.6,1.2191
10430,16.253,5.8182,0,0.00016831,1682,5.7271e-05,20.686,5.451e-05,-0.056977,-0.00016795,-1671.6,1.2072
10431,16.345,5.8182,0.05,5.4096e-07,5.4058,4.1539e-07,3.1211,-7.0439e-13,8.6338e-06,-4.1539e-07,-3.121,1.2187
10432,16.345,5.9091,0,0.00016459,1644.8,5.536e-05,12.511,5.3693e-05,-0.0083299,-0.00016437,-1638.5,1.2184
10433,16.345,5.5455,0,0.00016736,1672.4,5.8532e-05,39.67,5.3248e-05,-0.034549,-0.00016665,-1652.2,1.2197
10434,16.253,5.6364,0,0.00016941,1692.9,5.8619e-05,32.523,5.4281e-05,-0.073104,-0.00016884,-1676.5,1.2078
10435,16.345,5.6364,0.05,9.8794e-07,9.8725,7.5861e-07,5.6999,-1.9394e-12,1.8068e-06,-7.5861e-07,-5.6999,1.2193
10436,16.345,5.3636,0,0.00016874,1686.3,5.9899e-05,50.649,5.3159e-05,0.0060972,-0.00016783,-1660.4,1.2202
10437,16.253,5.4545,0,0.00017068,1705.6,5.9958e-05,43.658,5.4148e-05,0.0015057,-0.00016989,-1683.4,1.2084
10438,16.345,5.4545,0.05,1.001e-06,10.003,7.6862e-07,5.7751,-2.0143e-12,1.8887e-06,-7.6861e-07,-5.7751,1.2199
10439,16.345,5.1818,0,0.00017014,1700.2,6.1115e-05,59.79,5.3159e-05,0.012589,-0.00016904,-1669.5,1.2208
10440,16.253,5.2727,0,0.00017197,1718.5,6.1169e-05,53.15,5.4096e-05,0.0066149,-0.000171,-1691.3,1.2089
10441,16.345,5.2727,0.05,9.7979e-07,9.7911,7.5236e-07,5.653,-3.4338e-12,-2.5101e-06,-7.5235e-07,-5.6529,1.2205
10442,16.345,5,0,0.00017149,1713.8,6.2159e-05,67.011,5.3243e-05,0.018244,-0.00017026,-1679.3,1.2212
10443,16.253,5.0909,0,0.00017323,1731.1,6.2227e-05,60.884,5.4126e-05,0.015509,-0.00017212,-1699.9,1.2094
10444,16.345,5.0909,0.05,9.5207e-07,9.5142,7.3108e-07,5.493,-1.0856e-12,-2.181e-06,-7.3107e-07,-5.493,1.221
10445,16.345,4.8182,0,0.00017278,1726.6,6.3021e-05,72.305,5.3401e-05,0.020047,-0.00017144,-1689.3,1.2217
10446,16.253,4.9091,0,0.00017445,1743.3,6.3118e-05,66.812,5.4228e-05,0.018372,-0.00017321,-1708.9,1.2099
10447,16.345,4.9091,0.05,9.2038e-07,9.1975,7.0674e-07,5.3102,-2.7356e-12,-3.869e-06,-7.0674e-07,-5.3101,1.2215
10448,16.345,4.6364,0,0.00017397,1738.5,6.3699e-05,75.745,5.362e-05,0.020326,-0.00017256,-1699.4,1.2221
10449,16.253,4.7273,0,0.00017558,1754.6,6.3835e-05,70.967,5.4392e-05,0.019674,-0.00017427,-1718,1.2103
10450,16.345,4.7273,0.05,8.8568e-07,8.8506,6.8009e-07,5.11,-2.5423e-12,-4.3e-06,-6.8009e-07,-5.1099,1.2219
10451,16.345,4.4545,0,0.00017505,1749.3,6.4197e-05,77.491,5.3886e-05,0.019477,-0.0001736,-1709.2,1.2225
10452,16.253,4.5455,0,0.00017661,1764.9,6.4381e-05,73.46,5.4607e-05,0.019465,-0.00017525,-1727,1.2107
10453,16.345,4.5455,0.05,8.4887e-07,8.4828,6.5183e-07,4.8976,-3.2281e-12,-4.7017e-06,-6.5182e-07,-4.8975,1.2223
10454,16.345,4.2727,0,0.00017599,1758.7,6.4532e-05,77.783,5.4182e-05,0.018109,-0.00017453,-1718.5,1.2228
10455,16.253,4.3636,0,0.00017752,1774,6.4767e-05,74.48,5.4857e-05,0.018497,-0.00017614,-1735.6,1.2111
10456,16.345,4.3636,0.05,8.1093e-07,8.1037,6.2269e-07,4.6787,-2.1411e-12,-4.1685e-06,-6.2269e-07,-4.6786,1.2226
10457,16.345,4.0909,0,0.00017679,1766.6,6.4726e-05,76.934,5.4489e-05,0.01666,-0.00017535,-1726.9,1.2231
10458,16.253,4.1818,0,0.00017831,1781.9,6.501e-05,74.286,5.5126e-05,0.01718,-0.00017693,-1743.6,1.2114
10459,16.345,4.1818,0.05,7.7288e-07,7.7234,5.9348e-07,4.4592,-2.9528e-12,-6.5376e-06,-5.9347e-07,-4.4591,1.2229
10460,16.345,3.9091,0,0.00017744,1773.2,6.4809e-05,75.308,5.4788e-05,0.015498,-0.00017604,-1734.4,1.2233
10461,16.253,4,0,0.00017897,1788.4,6.5137e-05,73.194,5.5397e-05,0.015911,-0.00017761,-1750.7,1.2116
10462,16.345,4,0.05,7.3586e-07,7.3535,5.6505e-07,4.2456,-2.913e-12,-6.3961e-06,-5.6504e-07,-4.2455,1.2232
10463,16.345,3.7273,0,0.00017797,1778.4,6.4815e-05,73.292,5.5062e-05,0.014843,-0.00017661,-1740.7,1.2235
10464,16.253,3.8182,0,0.00017949,1793.7,6.5176e-05,71.554,5.5655e-05,0.014963,-0.00017817,-1756.8,1.2118
10465,16.345,3.8182,0.05,7.0118e-07,7.0069,5.3842e-07,4.0455,-1.2261e-12,-6.0408e-06,-5.3841e-07,-4.0454,1.2234
10466,16.345,3.5455,0,0.00017836,1782.4,6.4777e-05,71.263,5.5295e-05,0.014724,-0.00017704,-1745.7,1.2236
10467,16.253,3.6364,0,0.0001799,1797.8,6.5159e-05,69.717,5.5882e-05,0.014467,-0.00017861,-1761.9,1.212
10468,16.345,3.6364,0.05,6.7036e-07,6.6989,5.1475e-07,3.8677,-1.3538e-12,-4.8995e-06,-5.1475e-07,-3.8676,1.2235
10469,16.345,3.3636,0,0.00017863,1785.1,6.4726e-05,69.55,5.5472e-05,0.014973,-0.00017735,-1749.3,1.2237
10470,16.253,3.4545,0,0.0001802,1800.7,6.5116e-05,68.013,5.6066e-05,0.014385,-0.00017895,-1765.8,1.2121
10471,16.345,3.4545,0.05,6.4508e-07,6.4464,4.9534e-07,3.7218,-2.4388e-12,-5.262e-06,-4.9534e-07,-3.7218,1.2237
10472,16.345,3.1818,0,0.00017879,1786.7,6.4685e-05,68.414,5.5582e-05,0.015302,-0.00017753,-1751.5,1.2238
10473,16.253,3.2727,0,0.00018039,1802.7,6.5072e-05,66.713,5.6195e-05,0.014534,-0.00017916,-1768.4,1.2122
10474,16.345,3.2727,0.05,6.2703e-07,6.266,4.8148e-07,3.6177,-1.6635e-12,-5.576e-06,-4.8148e-07,-3.6176,1.2238
10475,16.345,3,0,0.00017885,1787.2,6.467e-05,68.016,5.562e-05,0.015448,-0.00017759,-1752.2,1.2238
10476,16.253,3.0909,0,0.00018049,1803.6,6.5045e-05,66.012,5.6262e-05,0.014687,-0.00017927,-1769.7,1.2123
10477,16.345,3.0909,0.05,6.176e-07,6.1718,4.7424e-07,3.5633,-8.7655e-13,-4.5351e-06,-4.7424e-07,-3.5633,1.2238
10478,16.345,2.8182,0,0.00017879,1786.7,6.4685e-05,68.414,5.5582e-05,0.015303,-0.00017753,-1751.5,1.2238
10479,16.253,2.9091,0,0.00018049,1803.6,6.5045e-05,66.012,5.6262e-05,0.014687,-0.00017927,-1769.7,1.2123
10480,16.345,2.9091,0.05,6.176e-07,6.1718,4.7424e-07,3.5633,-9.316e-13,-2.0895e-06,-4.7424e-07,-3.5633,1.2238
10481,16.345,2.6364,0,0.00017863,1785.1,6.4726e-05,69.55,5.5472e-05,0.014973,-0.00017735,-1749.3,1.2237
10482,16.253,2.7273,0,0.00018039,1802.7,6.5072e-05,66.713,5.6195e-05,0.014534,-0.00017916,-1768.4,1.2122
10483,16.345,2.7273,0.05,6.2703e-07,6.266,4.8148e-07,3.6177,-9.4697e-13,-3.4734e-07,-4.8148e-07,-3.6177,1.2238
10484,16.345,2.4545,0,0.00017836,1782.4,6.4777e-05,71.263,5.5295e-05,0.014724,-0.00017704,-1745.7,1.2236
10485,16.253,2.5455,0,0.0001802,1800.7,6.5116e-05,68.013,5.6066e-05,0.014385,-0.00017895,-1765.8,1.2121
10486,16.345,2.5455,0.05,6.4508e-07,6.4464,4.9534e-07,3.7218,-8.9009e-14,5.6294e-07,-4.9534e-07,-3.7218,1.2237
10487,16.345,2.2727,0,0.00017797,1778.4,6.4815e-05,73.292,5.5062e-05,0.014843,-0.00017661,-1740.7,1.2235
10488,16.253,2.3636,0,0.0001799,1797.8,6.5159e-05,69.717,5.5882e-05,0.014467,-0.00017861,-1761.9,1.212
10489,16.345,2.3636,0.05,6.7036e-07,6.6989,5.1475e-07,3.8676,-1.168e-13,2.836e-06,-5.1475e-07,-3.8676,1.2235
10490,16.345,2.0909,0,0.00017744,1773.2,6.4809e-05,75.308,5.4788e-05,0.015498,-0.00017604,-1734.4,1.2233
10491,16.253,2.1818,0,0.00017949,1793.7,6.5176e-05,71.553,5.5655e-05,0.014963,-0.00017817,-1756.8,1.2118
10492,16.345,2.1818,0.05,7.0118e-07,7.0069,5.3842e-07,4.0455,7.3615e-13,2.5536e-06,-5.3842e-07,-4.0454,1.2234
10493,16.345,1.9091,0,0.00017679,1766.6,6.4726e-05,76.934,5.4489e-05,0.01666,-0.00017535,-1726.9,1.2231
10494,16.253,2,0,0.00017897,1788.4,6.5137e-05,73.194,5.5397e-05,0.015911,-0.00017761,-1750.7,1.2116
10495,16.345,2,0.05,7.3586e-07,7.3535,5.6505e-07,4.2455,-1.7837e-13,3.3761e-06,-5.6505e-07,-4.2455,1.2232
10496,16.345,1.7273,0,0.00017599,1758.7,6.4532e-05,77.783,5.4182e-05,0.018109,-0.00017453,-1718.5,1.2228
10497,16.253,1.8182,0,0.00017831,1781.9,6.501e-05,74.286,5.5126e-05,0.017181,-0.00017693,-1743.6,1.2114
10498,16.345,1.8182,0.05,7.7288e-07,7.7234,5.9347e-07,4.4591,-2.1549e-13,4.0024e-06,-5.9347e-07,-4.4591,1.2229
10499,16.345,1.5455,0,0.00017505,1749.3,6.4197e-05,77.491,5.3886e-05,0.019476,-0.0001736,-1709.2,1.2225
10500,16.253,1.6364,0,0.00017752,1774,6.4767e-05,74.48,5.4857e-05,0.018496,-0.00017614,-1735.6,1.2111
10501,16.345,1.6364,0.05,8.1093e-07,8.1037,6.2269e-07,4.6787,-1.6715e-13,4.3578e-06,-6.2269e-07,-4.6787,1.2226
10502,16.345,1.3636,0,0.00017397,1738.5,6.3699e-05,75.745,5.362e-05,0.020326,-0.00017256,-1699.4,1.2221
10503,16.253,1.4545,0,0.00017661,1764.9,6.4381e-05,73.46,5.4607e-05,0.019465,-0.00017525,-1727,1.2107
10504,16.345,1.4545,0.05,8.4887e-07,8.4828,6.5183e-07,4.8976,1.6675e-12,2.658e-06,-6.5182e-07,-4.8976,1.2223
10505,16.345,1.1818,0,0.00017278,1726.6,6.3021e-05,72.305,5.3401e-05,0.020047,-0.00017144,-1689.3,1.2217
10506,16.253,1.2727,0,0.00017558,1754.6,6.3835e-05,70.967,5.4392e-05,0.019674,-0.00017427,-1718,1.2103
10507,16.345,1.2727,0.05,8.8568e-07,8.8506,6.8009e-07,5.1099,2.645e-12,4.1551e-06,-6.8009e-07,-5.1099,1.2219
10508,16.345,1,0,0.00017149,1713.8,6.2159e-05,67.011,5.3243e-05,0.018246,-0.00017026,-1679.3,1.2212
10509,16.253,1.0909,0,0.00017445,1743.3,6.3118e-05,66.812,5.4228e-05,0.018372,-0.00017321,-1708.9,1.2099
10510,16.345,1.0909,0.05,9.2038e-07,9.1975,7.0674e-07,5.3102,9.1264e-13,4.7933e-06,-7.0674e-07,-5.3102,1.2215
10511,16.345,0.81818,0,0.00017014,1700.2,6.1115e-05,59.79,5.3159e-05,0.01259,-0.00016904,-1669.5,1.2208
10512,16.253,0.90909,0,0.00017323,1731.1,6.2227e-05,60.884,5.4126e-05,0.01551,-0.00017212,-1699.9,1.2094
10513,16.345,0.90909,0.05,9.5207e-07,9.5142,7.3107e-07,5.493,9.7027e-13,2.3495e-06,-7.3107e-07,-5.493,1.221
10514,16.345,0.63636,0,0.00016874,1686.3,5.9899e-05,50.649,5.3159e-05,0.0060976,-0.00016783,-1660.4,1.2202
10515,16.253,0.72727,0,0.00017197,1718.5,6.1169e-05,53.15,5.4096e-05,0.0066166,-0.000171,-1691.3,1.2089
10516,16.345,0.72727,0.05,9.7979e-07,9.7911,7.5235e-07,5.6529,1.9306e-12,4.2523e-06,-7.5236e-07,-5.6529,1.2205
10517,16.345,0.45455,0,0.00016736,1672.4,5.8532e-05,39.67,5.3248e-05,-0.034549,-0.00016665,-1652.2,1.2197
10518,16.253,0.54545,0,0.00017068,1705.6,5.9958e-05,43.657,5.4148e-05,0.001506,-0.0001699,-1683.4,1.2084
10519,16.345,0.54545,0.05,1.001e-06,10.003,7.6861e-07,5.7751,1.8756e-12,4.4567e-06,-7.6862e-07,-5.7751,1.2199
10520,16.345,0.27273,0,0.00016606,1659.4,5.708e-05,27.328,5.3434e-05,-0.065722,-0.00016558,-1645.6,1.2191
10521,16.253,0.36364,0,0.00016941,1692.9,5.8619e-05,32.522,5.4281e-05,-0.073105,-0.00016884,-1676.5,1.2078
10522,16.345,0.36364,0.05,9.8794e-07,9.8725,7.5861e-07,5.6999,1.8162e-12,3.5656e-06,-7.5861e-07,-5.6999,1.2193
10523,16.253,0.18182,0,0.00016831,1682,5.7271e-05,20.686,5.451e-05,-0.056978,-0.00016795,-1671.6,1.2072
10524,16.345,0.18182,0.05,5.4096e-07,5.4058,4.1538e-07,3.121,7.044e-13,3.5703e-06,-4.1539e-07,-3.1211,1.2187
10525,16.345,0.090909,0,0.00016459,1644.8,5.536e-05,12.511,5.3693e-05,-0.0083292,-0.00016437,-1638.5,1.2184
10526,16.162,5.7273,0,0.00017165,1715.3,5.8795e-05,25.763,5.5359e-05,-0.058491,-0.0001712,-1702.3,1.1959
10527,16.07,5.8182,0,0.00017391,1737.9,5.9066e-05,20.059,5.639e-05,-0.045316,-0.00017356,-1727.8,1.1841
10528,16.162,5.8182,0.05,4.5946e-07,4.5914,3.5281e-07,2.6509,-8.2545e-13,1.6635e-05,-3.528e-07,-2.6508,1.1956
10529,16.162,5.9091,0,0.00017031,1701.9,5.7227e-05,12.258,5.5594e-05,-0.0085347,-0.0001701,-1695.8,1.1953
10530,16.162,5.5455,0,0.00017273,1726.1,6.0041e-05,36.477,5.5182e-05,-0.032655,-0.00017208,-1707.6,1.1965
10531,16.07,5.6364,0,0.00017481,1746.9,6.0206e-05,30.194,5.6178e-05,-0.066507,-0.00017427,-1731.6,1.1847
10532,16.162,5.6364,0.05,9.4363e-07,9.4297,7.2459e-07,5.4443,-2.3175e-12,2.867e-06,-7.2459e-07,-5.4442,1.1962
10533,16.162,5.3636,0,0.0001739,1737.8,6.1227e-05,46.142,5.5086e-05,0.0039361,-0.00017307,-1714.3,1.1971
10534,16.07,5.4545,0,0.00017587,1757.5,6.1366e-05,39.965,5.6047e-05,-0.00042006,-0.00017516,-1737.2,1.1853
10535,16.162,5.4545,0.05,9.6274e-07,9.6208,7.3927e-07,5.5546,-2.0395e-12,2.136e-06,-7.3926e-07,-5.5545,1.1968
10536,16.162,5.1818,0,0.00017506,1749.4,6.2281e-05,54.237,5.5064e-05,0.010466,-0.00017408,-1721.7,1.1976
10537,16.07,5.2727,0,0.00017695,1768.3,6.2417e-05,48.35,5.5983e-05,0.0048196,-0.00017608,-1743.6,1.1859
10538,16.162,5.2727,0.05,9.4636e-07,9.457,7.2669e-07,5.4601,-2.076e-12,-8.9368e-07,-7.2668e-07,-5.46,1.1974
10539,16.162,5,0,0.00017619,1760.6,6.3185e-05,60.683,5.5111e-05,0.016124,-0.00017507,-1729.5,1.1981
10540,16.07,5.0909,0,0.00017801,1778.8,6.3335e-05,55.23,5.5986e-05,0.013336,-0.000177,-1750.6,1.1864
10541,16.162,5.0909,0.05,9.2411e-07,9.2347,7.096e-07,5.3317,-1.9821e-12,-2.2294e-06,-7.096e-07,-5.3316,1.1979
10542,16.162,4.8182,0,0.00017725,1771.2,6.3931e-05,65.475,5.5219e-05,0.018245,-0.00017604,-1737.6,1.1986
10543,16.07,4.9091,0,0.00017901,1788.9,6.4107e-05,60.562,5.6049e-05,0.016412,-0.0001779,-1757.8,1.1869
10544,16.162,4.9091,0.05,8.9861e-07,8.9799,6.9002e-07,5.1846,-3.6974e-12,-2.8306e-06,-6.9002e-07,-5.1845,1.1984
10545,16.162,4.6364,0,0.00017822,1781,6.4518e-05,68.684,5.5379e-05,0.01891,-0.00017695,-1745.6,1.199
10546,16.07,4.7273,0,0.00017994,1798.2,6.473e-05,64.377,5.6164e-05,0.018003,-0.00017876,-1765.1,1.1873
10547,16.162,4.7273,0.05,8.707e-07,8.701,6.6859e-07,5.0235,-2.637e-12,-6.4958e-06,-6.6859e-07,-5.0235,1.1988
10548,16.162,4.4545,0,0.00017909,1789.7,6.4951e-05,70.451,5.5577e-05,0.018485,-0.00017779,-1753.4,1.1994
10549,16.07,4.5455,0,0.00018078,1806.6,6.5206e-05,66.776,5.6321e-05,0.018168,-0.00017955,-1772.2,1.1877
10550,16.162,4.5455,0.05,8.4116e-07,8.4058,6.4591e-07,4.8531,-3.3962e-12,-2.0235e-06,-6.4591e-07,-4.8531,1.1992
10551,16.162,4.2727,0,0.00017985,1797.2,6.5246e-05,70.983,5.5801e-05,0.017504,-0.00017854,-1760.7,1.1997
10552,16.07,4.3636,0,0.00018152,1814,6.5545e-05,67.923,5.6507e-05,0.017578,-0.00018027,-1779,1.188
10553,16.162,4.3636,0.05,8.1082e-07,8.1026,6.2261e-07,4.6781,-2.3448e-12,-4.7451e-06,-6.2261e-07,-4.678,1.1995
10554,16.162,4.0909,0,0.00018049,1803.7,6.5421e-05,70.545,5.6034e-05,0.016332,-0.00017919,-1767.3,1.2
10555,16.07,4.1818,0,0.00018215,1820.3,6.5763e-05,68.036,5.6711e-05,0.016585,-0.0001809,-1785.3,1.1883
10556,16.162,4.1818,0.05,7.8056e-07,7.8002,5.9937e-07,4.5035,-3.1598e-12,-6.0992e-06,-5.9937e-07,-4.5034,1.1998
10557,16.162,3.9091,0,0.00018102,1808.9,6.5503e-05,69.437,5.6264e-05,0.015273,-0.00017973,-1773.2,1.2002
10558,16.07,4,0,0.00018268,1825.5,6.5883e-05,67.38,5.6917e-05,0.015519,-0.00018144,-1790.9,1.1886
10559,16.162,4,0.05,7.5133e-07,7.5081,5.7693e-07,4.3348,-3.1429e-12,-4.1984e-06,-5.7692e-07,-4.3348,1.2001
10560,16.162,3.7273,0,0.00018143,1813,6.5519e-05,67.974,5.6474e-05,0.014513,-0.00018018,-1778.1,1.2004
10561,16.07,3.8182,0,0.0001831,1829.8,6.5928e-05,66.239,5.7114e-05,0.014606,-0.00018188,-1795.7,1.1888
10562,16.162,3.8182,0.05,7.242e-07,7.237,5.561e-07,4.1783,-3.1887e-12,-4.4971e-06,-5.5609e-07,-4.1783,1.2003
10563,16.162,3.5455,0,0.00018174,1816.2,6.5497e-05,66.461,5.6653e-05,0.014112,-0.00018052,-1782,1.2006
10564,16.07,3.6364,0,0.00018343,1833,6.5924e-05,64.902,5.7288e-05,0.013978,-0.00018224,-1799.7,1.189
10565,16.162,3.6364,0.05,7.0035e-07,6.9987,5.3779e-07,4.0407,-2.3743e-12,-4.1619e-06,-5.3778e-07,-4.0407,1.2005
10566,16.162,3.3636,0,0.00018196,1818.3,6.5461e-05,65.168,5.679e-05,0.013999,-0.00018076,-1784.8,1.2007
10567,16.07,3.4545,0,0.00018366,1835.3,6.5897e-05,63.633,5.743e-05,0.013644,-0.00018249,-1802.7,1.1891
10568,16.162,3.4545,0.05,6.8101e-07,6.8054,5.2293e-07,3.9291,-2.5019e-12,-4.0429e-06,-5.2293e-07,-3.9291,1.2006
10569,16.162,3.1818,0,0.00018208,1819.6,6.5431e-05,64.303,5.6875e-05,0.014029,-0.0001809,-1786.6,1.2007
10570,16.07,3.2727,0,0.00018381,1836.8,6.5866e-05,62.655,5.7529e-05,0.013525,-0.00018267,-1804.7,1.1892
10571,16.162,3.2727,0.05,6.6732e-07,6.6686,5.1242e-07,3.8501,-1.7068e-12,-3.8719e-06,-5.1242e-07,-3.8501,1.2007
10572,16.162,3,0,0.00018212,1820,6.542e-05,63.999,5.6904e-05,0.014058,-0.00018095,-1787.1,1.2008
10573,16.07,3.0909,0,0.00018389,1837.6,6.5847e-05,62.124,5.758e-05,0.013505,-0.00018275,-1805.7,1.1893
10574,16.162,3.0909,0.05,6.6022e-07,6.5976,5.0697e-07,3.8092,-2.6981e-12,-3.5854e-06,-5.0697e-07,-3.8091,1.2007
10575,16.162,2.8182,0,0.00018208,1819.6,6.5431e-05,64.303,5.6875e-05,0.014029,-0.0001809,-1786.6,1.2007
10576,16.07,2.9091,0,0.00018389,1837.6,6.5847e-05,62.124,5.758e-05,0.013506,-0.00018275,-1805.7,1.1893
10577,16.162,2.9091,0.05,6.6022e-07,6.5976,5.0697e-07,3.8092,-2.7522e-12,-1.6067e-06,-5.0697e-07,-3.8091,1.2007
10578,16.162,2.6364,0,0.00018196,1818.3,6.5461e-05,65.168,5.679e-05,0.014,-0.00018076,-1784.8,1.2007
10579,16.07,2.7273,0,0.00018381,1836.8,6.5866e-05,62.654,5.7529e-05,0.013525,-0.00018267,-1804.7,1.1892
10580,16.162,2.7273,0.05,6.6732e-07,6.6686,5.1242e-07,3.8501,-9.6906e-13,-3.8539e-07,-5.1242e-07,-3.8501,1.2007
10581,16.162,2.4545,0,0.00018174,1816.2,6.5497e-05,66.461,5.6653e-05,0.014112,-0.00018052,-1782,1.2006
10582,16.07,2.5455,0,0.00018366,1835.3,6.5897e-05,63.633,5.743e-05,0.013644,-0.00018249,-1802.7,1.1891
10583,16.162,2.5455,0.05,6.8101e-07,6.8054,5.2293e-07,3.9291,-8.3466e-14,2.137e-06,-5.2293e-07,-3.9291,1.2006
10584,16.162,2.2727,0,0.00018143,1813,6.5519e-05,67.974,5.6474e-05,0.014513,-0.00018018,-1778.1,1.2004
10585,16.07,2.3636,0,0.00018343,1833,6.5924e-05,64.901,5.7288e-05,0.013977,-0.00018224,-1799.7,1.189
10586,16.162,2.3636,0.05,7.0035e-07,6.9987,5.3779e-07,4.0407,-8.1769e-14,2.9017e-06,-5.3778e-07,-4.0407,1.2005
10587,16.162,2.0909,0,0.00018102,1808.9,6.5503e-05,69.437,5.6264e-05,0.015273,-0.00017973,-1773.2,1.2002
10588,16.07,2.1818,0,0.0001831,1829.8,6.5928e-05,66.239,5.7114e-05,0.014607,-0.00018188,-1795.7,1.1888
10589,16.162,2.1818,0.05,7.242e-07,7.237,5.561e-07,4.1783,-1.3741e-13,2.7643e-06,-5.561e-07,-4.1783,1.2003
10590,16.162,1.9091,0,0.00018049,1803.7,6.5421e-05,70.545,5.6034e-05,0.016333,-0.00017919,-1767.3,1.2
10591,16.07,2,0,0.00018268,1825.5,6.5883e-05,67.38,5.6917e-05,0.015519,-0.00018144,-1790.9,1.1886
10592,16.162,2,0.05,7.5133e-07,7.5081,5.7693e-07,4.3348,-1.4204e-13,2.6792e-06,-5.7693e-07,-4.3348,1.2001
10593,16.162,1.7273,0,0.00017985,1797.2,6.5246e-05,70.983,5.5801e-05,0.017503,-0.00017854,-1760.7,1.1997
10594,16.07,1.8182,0,0.00018215,1820.3,6.5763e-05,68.036,5.6711e-05,0.016586,-0.0001809,-1785.3,1.1883
10595,16.162,1.8182,0.05,7.8056e-07,7.8002,5.9937e-07,4.5034,7.5439e-13,3.4225e-06,-5.9937e-07,-4.5035,1.1998
10596,16.162,1.5455,0,0.00017909,1789.7,6.4951e-05,70.45,5.5577e-05,0.018485,-0.00017779,-1753.4,1.1994
10597,16.07,1.6364,0,0.00018152,1814,6.5545e-05,67.923,5.6507e-05,0.017577,-0.00018027,-1779,1.188
10598,16.162,1.6364,0.05,8.1082e-07,8.1026,6.2261e-07,4.6781,1.6657e-12,4.6922e-06,-6.2261e-07,-4.6781,1.1995
10599,16.162,1.3636,0,0.00017822,1781,6.4518e-05,68.684,5.5379e-05,0.018912,-0.00017695,-1745.6,1.199
10600,16.07,1.4545,0,0.00018078,1806.6,6.5206e-05,66.776,5.6321e-05,0.018169,-0.00017955,-1772.2,1.1877
10601,16.162,1.4545,0.05,8.4116e-07,8.4058,6.4591e-07,4.8531,2.6189e-12,4.0559e-06,-6.4591e-07,-4.8531,1.1992
10602,16.162,1.1818,0,0.00017725,1771.2,6.3931e-05,65.475,5.5219e-05,0.018246,-0.00017604,-1737.6,1.1986
10603,16.07,1.2727,0,0.00017994,1798.2,6.473e-05,64.377,5.6164e-05,0.018003,-0.00017876,-1765.1,1.1873
10604,16.162,1.2727,0.05,8.707e-07,8.701,6.6859e-07,5.0235,8.7352e-13,5.9224e-06,-6.6859e-07,-5.0235,1.1988
10605,16.162,1,0,0.00017619,1760.6,6.3185e-05,60.683,5.5111e-05,0.016124,-0.00017507,-1729.5,1.1981
10606,16.07,1.0909,0,0.00017901,1788.9,6.4107e-05,60.562,5.6049e-05,0.016413,-0.0001779,-1757.8,1.1869
10607,16.162,1.0909,0.05,8.9861e-07,8.9799,6.9002e-07,5.1845,1.8421e-12,4.4772e-06,-6.9002e-07,-5.1846,1.1984
10608,16.162,0.81818,0,0.00017506,1749.4,6.2281e-05,54.237,5.5064e-05,0.010468,-0.00017408,-1721.7,1.1976
10609,16.07,0.90909,0,0.00017801,1778.8,6.3335e-05,55.23,5.5986e-05,0.013336,-0.000177,-1750.6,1.1864
10610,16.162,0.90909,0.05,9.2411e-07,9.2347,7.096e-07,5.3316,1.8972e-12,4.3716e-06,-7.096e-07,-5.3317,1.1979
10611,16.162,0.63636,0,0.0001739,1737.8,6.1227e-05,46.142,5.5086e-05,0.0039378,-0.00017307,-1714.3,1.1971
10612,16.07,0.72727,0,0.00017695,1768.3,6.2417e-05,48.35,5.5983e-05,0.0048225,-0.00017608,-1743.6,1.1859
10613,16.162,0.72727,0.05,9.4635e-07,9.457,7.2668e-07,5.46,1.8817e-12,4.0512e-06,-7.2668e-07,-5.46,1.1974
10614,16.162,0.45455,0,0.00017273,1726.1,6.0041e-05,36.477,5.5182e-05,-0.032655,-0.00017208,-1707.6,1.1965
10615,16.07,0.54545,0,0.00017587,1757.5,6.1366e-05,39.965,5.6047e-05,-0.00041982,-0.00017516,-1737.2,1.1853
10616,16.162,0.54545,0.05,9.6274e-07,9.6208,7.3926e-07,5.5545,1.4019e-12,3.732e-06,-7.3927e-07,-5.5546,1.1968
10617,16.162,0.27273,0,0.00017165,1715.3,5.8795e-05,25.763,5.5359e-05,-0.058492,-0.0001712,-1702.3,1.1959
10618,16.07,0.36364,0,0.00017481,1746.9,6.0206e-05,30.194,5.6178e-05,-0.066508,-0.00017427,-1731.6,1.1847
10619,16.162,0.36364,0.05,9.4363e-07,9.4297,7.2459e-07,5.4442,1.7416e-12,4.0757e-06,-7.2459e-07,-5.4443,1.1962
10620,16.07,0.18182,0,0.00017391,1737.9,5.9066e-05,20.059,5.639e-05,-0.045317,-0.00017356,-1727.8,1.1841
10621,16.162,0.18182,0.05,4.5946e-07,4.5914,3.5281e-07,2.6508,1.0324e-12,-2.521e-06,-3.5281e-07,-2.6509,1.1956
10622,16.162,0.090909,0,0.00017031,1701.9,5.7227e-05,12.258,5.5594e-05,-0.0085356,-0.0001701,-1695.8,1.1953
10623,15.978,5.7273,0,0.00017705,1769.3,6.0461e-05,24.375,5.721e-05,-0.051685,-0.00017662,-1757,1.1729
10624,15.886,5.8182,0,0.00017932,1792,6.0804e-05,19.5,5.8204e-05,-0.035591,-0.00017898,-1782.2,1.1611
10625,15.978,5.8182,0.05,3.9102e-07,3.9075,3.0026e-07,2.256,-1.3399e-12,1.397e-05,-3.0025e-07,-2.256,1.1726
10626,15.978,5.9091,0,0.00017582,1757,5.9025e-05,12.03,5.7423e-05,-0.0085857,-0.00017561,-1750.9,1.1722
10627,15.978,5.5455,0,0.00017794,1778.2,6.1526e-05,33.648,5.7044e-05,-0.030671,-0.00017735,-1761.2,1.1735
10628,15.886,5.6364,0,0.00018004,1799.2,6.1762e-05,28.134,5.8009e-05,-0.060348,-0.00017955,-1785,1.1618
10629,15.978,5.6364,0.05,9.0805e-07,9.0742,6.9727e-07,5.239,-1.8838e-12,2.1409e-06,-6.9727e-07,-5.239,1.1732
10630,15.978,5.3636,0,0.00017892,1788,6.2554e-05,42.153,5.6944e-05,0.0021098,-0.00017817,-1766.5,1.1741
10631,15.886,5.4545,0,0.00018094,1808.1,6.2766e-05,36.699,5.7882e-05,-0.0019578,-0.00018028,-1789.5,1.1624
10632,15.978,5.4545,0.05,9.3233e-07,9.3169,7.1592e-07,5.3792,-2.9594e-12,1.6726e-06,-7.1592e-07,-5.3791,1.1738
10633,15.978,5.1818,0,0.00017989,1797.7,6.347e-05,49.33,5.6906e-05,0.0085062,-0.000179,-1772.5,1.1747
10634,15.886,5.2727,0,0.00018184,1817.1,6.3679e-05,44.107,5.7809e-05,0.0032211,-0.00018105,-1794.7,1.1629
10635,15.978,5.2727,0.05,9.1993e-07,9.193,7.064e-07,5.3076,-2.9729e-12,-1.209e-06,-7.0639e-07,-5.3075,1.1744
10636,15.978,5,0,0.00018083,1807,6.4256e-05,55.1,5.6924e-05,0.014058,-0.00017983,-1778.8,1.1752
10637,15.886,5.0909,0,0.00018272,1825.9,6.4477e-05,50.237,5.7793e-05,0.011286,-0.00018181,-1800.3,1.1635
10638,15.978,5.0909,0.05,9.0222e-07,9.016,6.928e-07,5.2054,-2.9197e-12,-1.9014e-06,-6.9279e-07,-5.2053,1.1749
10639,15.978,4.8182,0,0.0001817,1815.8,6.4905e-05,59.458,5.6994e-05,0.016394,-0.00018062,-1785.3,1.1756
10640,15.886,4.9091,0,0.00018355,1834.2,6.515e-05,55.047,5.7826e-05,0.014476,-0.00018255,-1806.1,1.1639
10641,15.978,4.9091,0.05,8.8183e-07,8.8122,6.7714e-07,5.0878,-2.8219e-12,-4.5135e-06,-6.7713e-07,-5.0877,1.1754
10642,15.978,4.6364,0,0.0001825,1823.8,6.5418e-05,62.465,5.7106e-05,0.017357,-0.00018136,-1791.7,1.176
10643,15.886,4.7273,0,0.00018432,1841.9,6.5694e-05,58.564,5.7902e-05,0.016272,-0.00018325,-1811.9,1.1644
10644,15.978,4.7273,0.05,8.595e-07,8.589,6.5999e-07,4.9589,-1.7993e-12,-5.5772e-06,-6.5998e-07,-4.9589,1.1758
10645,15.978,4.4545,0,0.00018321,1830.9,6.5799e-05,64.244,5.7251e-05,0.017275,-0.00018203,-1797.9,1.1764
10646,15.886,4.5455,0,0.00018501,1848.8,6.6113e-05,60.875,5.8013e-05,0.016735,-0.00018389,-1817.6,1.1648
10647,15.978,4.5455,0.05,8.359e-07,8.3532,6.4187e-07,4.8228,-1.6852e-12,-4.2264e-06,-6.4187e-07,-4.8227,1.1762
10648,15.978,4.2727,0,0.00018383,1837,6.6062e-05,64.971,5.7417e-05,0.016619,-0.00018263,-1803.6,1.1767
10649,15.886,4.3636,0,0.00018561,1854.8,6.6415e-05,62.118,5.8149e-05,0.016457,-0.00018447,-1823,1.1651
10650,15.978,4.3636,0.05,8.1173e-07,8.1117,6.2331e-07,4.6833,-1.582e-12,-7.1769e-06,-6.2331e-07,-4.6833,1.1765
10651,15.978,4.0909,0,0.00018434,1842.2,6.6224e-05,64.865,5.7593e-05,0.015702,-0.00018315,-1808.9,1.177
10652,15.886,4.1818,0,0.00018612,1859.9,6.6614e-05,62.478,5.8301e-05,0.015746,-0.00018498,-1827.9,1.1654
10653,15.978,4.1818,0.05,7.8773e-07,7.8719,6.0488e-07,4.5448,-2.4105e-12,-7.2138e-06,-6.0488e-07,-4.5448,1.1769
10654,15.978,3.9091,0,0.00018477,1846.4,6.6307e-05,64.175,5.7767e-05,0.014778,-0.00018359,-1813.4,1.1772
10655,15.886,4,0,0.00018655,1864.2,6.6728e-05,62.171,5.8456e-05,0.01488,-0.00018541,-1832.3,1.1657
10656,15.978,4,0.05,7.6469e-07,7.6416,5.8719e-07,4.4119,-3.3196e-12,-5.6604e-06,-5.8719e-07,-4.4119,1.1771
10657,15.978,3.7273,0,0.0001851,1849.7,6.6332e-05,63.159,5.7928e-05,0.014014,-0.00018394,-1817.3,1.1774
10658,15.886,3.8182,0,0.00018688,1867.6,6.6779e-05,61.433,5.8605e-05,0.014058,-0.00018576,-1836.1,1.1659
10659,15.978,3.8182,0.05,7.4346e-07,7.4295,5.7089e-07,4.2895,-3.3223e-12,-5.7608e-06,-5.7089e-07,-4.2894,1.1773
10660,15.978,3.5455,0,0.00018534,1852.2,6.6323e-05,62.064,5.8065e-05,0.013489,-0.00018421,-1820.3,1.1776
10661,15.886,3.6364,0,0.00018714,1870.1,6.6788e-05,60.497,5.8738e-05,0.013402,-0.00018604,-1839.2,1.1661
10662,15.978,3.6364,0.05,7.2496e-07,7.2446,5.5668e-07,4.1827,-3.3902e-12,-4.7524e-06,-5.5667e-07,-4.1826,1.1775
10663,15.978,3.3636,0,0.00018551,1853.9,6.6301e-05,61.11,5.8169e-05,0.013193,-0.0001844,-1822.6,1.1777
10664,15.886,3.4545,0,0.00018733,1872,6.6773e-05,59.581,5.8845e-05,0.012959,-0.00018625,-1841.5,1.1662
10665,15.978,3.4545,0.05,7.1006e-07,7.0957,5.4524e-07,4.0967,-7.384e-13,-4.4541e-06,-5.4524e-07,-4.0967,1.1776
10666,15.978,3.1818,0,0.00018561,1854.9,6.628e-05,60.465,5.8234e-05,0.01306,-0.00018451,-1823.9,1.1778
10667,15.886,3.2727,0,0.00018745,1873.2,6.6754e-05,58.862,5.8921e-05,0.012707,-0.00018638,-1843.1,1.1663
10668,15.978,3.2727,0.05,6.996e-07,6.9911,5.372e-07,4.0364,-1.7235e-12,-5.0015e-06,-5.372e-07,-4.0363,1.1777
10669,15.978,3,0,0.00018565,1855.2,6.6272e-05,60.238,5.8257e-05,0.013026,-0.00018455,-1824.3,1.1778
10670,15.886,3.0909,0,0.00018751,1873.8,6.6741e-05,58.469,5.896e-05,0.0126,-0.00018645,-1843.9,1.1664
10671,15.978,3.0909,0.05,6.9419e-07,6.9371,5.3306e-07,4.0052,-1.7916e-12,-3.6106e-06,-5.3305e-07,-4.0051,1.1778
10672,15.978,2.8182,0,0.00018561,1854.9,6.628e-05,60.465,5.8234e-05,0.013061,-0.00018451,-1823.9,1.1778
10673,15.886,2.9091,0,0.00018751,1873.8,6.6741e-05,58.469,5.896e-05,0.0126,-0.00018645,-1843.9,1.1664
10674,15.978,2.9091,0.05,6.9419e-07,6.9371,5.3306e-07,4.0052,-9.3254e-13,-1.6048e-06,-5.3305e-07,-4.0051,1.1778
10675,15.978,2.6364,0,0.00018551,1853.9,6.6301e-05,61.11,5.8169e-05,0.013192,-0.0001844,-1822.6,1.1777
10676,15.886,2.7273,0,0.00018745,1873.2,6.6754e-05,58.862,5.8921e-05,0.012707,-0.00018638,-1843.1,1.1663
10677,15.978,2.7273,0.05,6.996e-07,6.9911,5.372e-07,4.0364,-9.7056e-13,-9.0806e-07,-5.372e-07,-4.0363,1.1777
10678,15.978,2.4545,0,0.00018534,1852.2,6.6323e-05,62.064,5.8065e-05,0.013488,-0.00018421,-1820.3,1.1776
10679,15.886,2.5455,0,0.00018733,1872,6.6773e-05,59.581,5.8845e-05,0.012959,-0.00018625,-1841.5,1.1662
10680,15.978,2.5455,0.05,7.1006e-07,7.0957,5.4524e-07,4.0967,-1.0032e-12,-6.037e-07,-5.4524e-07,-4.0967,1.1776
10681,15.978,2.2727,0,0.0001851,1849.7,6.6332e-05,63.159,5.7928e-05,0.014014,-0.00018394,-1817.3,1.1774
10682,15.886,2.3636,0,0.00018714,1870.1,6.6788e-05,60.497,5.8738e-05,0.013402,-0.00018604,-1839.2,1.1661
10683,15.978,2.3636,0.05,7.2496e-07,7.2446,5.5668e-07,4.1827,-1.1262e-13,6.0347e-07,-5.5668e-07,-4.1826,1.1775
10684,15.978,2.0909,0,0.00018477,1846.4,6.6307e-05,64.175,5.7767e-05,0.014778,-0.00018359,-1813.4,1.1772
10685,15.886,2.1818,0,0.00018688,1867.6,6.6779e-05,61.433,5.8605e-05,0.014058,-0.00018576,-1836.1,1.1659
10686,15.978,2.1818,0.05,7.4346e-07,7.4295,5.7089e-07,4.2894,-1.1947e-13,5.9674e-07,-5.7089e-07,-4.2894,1.1773
10687,15.978,1.9091,0,0.00018434,1842.2,6.6224e-05,64.865,5.7593e-05,0.015703,-0.00018315,-1808.9,1.177
10688,15.886,2,0,0.00018655,1864.2,6.6728e-05,62.171,5.8456e-05,0.01488,-0.00018541,-1832.3,1.1657
10689,15.978,2,0.05,7.6469e-07,7.6416,5.8719e-07,4.4119,-1.4167e-13,2.3974e-06,-5.8719e-07,-4.4119,1.1771
10690,15.978,1.7273,0,0.00018383,1837,6.6062e-05,64.971,5.7417e-05,0.01662,-0.00018263,-1803.6,1.1767
10691,15.886,1.8182,0,0.00018612,1859.9,6.6614e-05,62.478,5.8301e-05,0.015747,-0.00018498,-1827.9,1.1654
10692,15.978,1.8182,0.05,7.8773e-07,7.8719,6.0488e-07,4.5448,-1.1888e-13,2.861e-06,-6.0488e-07,-4.5448,1.1769
10693,15.978,1.5455,0,0.00018321,1830.9,6.5799e-05,64.244,5.7251e-05,0.017274,-0.00018203,-1797.9,1.1764
10694,15.886,1.6364,0,0.00018561,1854.8,6.6415e-05,62.118,5.8149e-05,0.016457,-0.00018447,-1823,1.1651
10695,15.978,1.6364,0.05,8.1173e-07,8.1117,6.2331e-07,4.6833,8.0183e-13,3.0455e-06,-6.2331e-07,-4.6833,1.1765
10696,15.978,1.3636,0,0.0001825,1823.8,6.5418e-05,62.465,5.7106e-05,0.017357,-0.00018136,-1791.7,1.176
10697,15.886,1.4545,0,0.00018501,1848.8,6.6113e-05,60.875,5.8013e-05,0.016735,-0.00018389,-1817.6,1.1648
10698,15.978,1.4545,0.05,8.359e-07,8.3532,6.4187e-07,4.8227,-5.7595e-14,2.8963e-06,-6.4187e-07,-4.8228,1.1762
10699,15.978,1.1818,0,0.0001817,1815.8,6.4905e-05,59.458,5.6994e-05,0.016394,-0.00018062,-1785.3,1.1756
10700,15.886,1.2727,0,0.00018432,1841.9,6.5694e-05,58.564,5.7902e-05,0.016272,-0.00018325,-1811.9,1.1644
10701,15.978,1.2727,0.05,8.595e-07,8.589,6.5999e-07,4.9589,-9.7851e-15,4.2252e-06,-6.5999e-07,-4.9589,1.1758
10702,15.978,1,0,0.00018083,1807,6.4256e-05,55.1,5.6924e-05,0.014058,-0.00017983,-1778.8,1.1752
10703,15.886,1.0909,0,0.00018355,1834.2,6.515e-05,55.047,5.7826e-05,0.014476,-0.00018255,-1806.1,1.1639
10704,15.978,1.0909,0.05,8.8183e-07,8.8122,6.7713e-07,5.0877,9.5481e-13,3.1565e-06,-6.7713e-07,-5.0877,1.1754
10705,15.978,0.81818,0,0.00017989,1797.7,6.347e-05,49.33,5.6906e-05,0.0085078,-0.000179,-1772.5,1.1747
10706,15.886,0.90909,0,0.00018272,1825.9,6.4477e-05,50.236,5.7793e-05,0.011287,-0.00018181,-1800.3,1.1635
10707,15.978,0.90909,0.05,9.0222e-07,9.016,6.9279e-07,5.2054,1.0019e-12,3.4249e-06,-6.9279e-07,-5.2054,1.1749
10708,15.978,0.63636,0,0.00017892,1788,6.2554e-05,42.153,5.6944e-05,0.0021113,-0.00017817,-1766.5,1.1741
10709,15.886,0.72727,0,0.00018184,1817.1,6.3679e-05,44.107,5.7809e-05,0.0032235,-0.00018105,-1794.7,1.1629
10710,15.978,0.72727,0.05,9.1993e-07,9.193,7.064e-07,5.3076,1.9067e-12,2.9988e-06,-7.064e-07,-5.3076,1.1744
10711,15.978,0.45455,0,0.00017794,1778.2,6.1526e-05,33.648,5.7044e-05,-0.030671,-0.00017735,-1761.2,1.1735
10712,15.886,0.54545,0,0.00018094,1808.1,6.2766e-05,36.699,5.7882e-05,-0.0019588,-0.00018028,-1789.5,1.1624
10713,15.978,0.54545,0.05,9.3233e-07,9.3169,7.1592e-07,5.3791,1.005e-12,2.8008e-06,-7.1592e-07,-5.3791,1.1738
10714,15.978,0.27273,0,0.00017705,1769.3,6.0461e-05,24.375,5.721e-05,-0.051685,-0.00017662,-1757,1.1729
10715,15.886,0.36364,0,0.00018004,1799.2,6.1762e-05,28.134,5.8009e-05,-0.060348,-0.00017955,-1785,1.1618
10716,15.978,0.36364,0.05,9.0805e-07,9.0742,6.9727e-07,5.239,1.9395e-12,4.6892e-06,-6.9727e-07,-5.239,1.1732
10717,15.886,0.18182,0,0.00017932,1792,6.0804e-05,19.5,5.8204e-05,-0.035591,-0.00017898,-1782.2,1.1611
10718,15.978,0.18182,0.05,3.9102e-07,3.9075,3.0025e-07,2.256,8.5338e-13,-6.5321e-06,-3.0026e-07,-2.256,1.1726
10719,15.978,0.090909,0,0.00017582,1757,5.9025e-05,12.03,5.7423e-05,-0.0085848,-0.00017561,-1750.9,1.1722
10720,15.794,5.7273,0,0.00018229,1821.7,6.209e-05,23.146,5.9003e-05,-0.045521,-0.00018189,-1810,1.15
10721,15.702,5.8182,0,0.00018458,1844.6,6.2499e-05,18.998,5.9966e-05,-0.027673,-0.00018425,-1835,1.1383
10722,15.794,5.8182,0.05,3.336e-07,3.3337,2.5616e-07,1.9247,-8.0809e-13,1.7585e-05,-2.5616e-07,-1.9247,1.1497
10723,15.794,5.9091,0,0.00018116,1810.3,6.077e-05,11.823,5.9195e-05,-0.0085522,-0.00018096,-1804.4,1.1493
10724,15.794,5.5455,0,0.00018303,1829,6.2997e-05,31.149,5.8848e-05,-0.028713,-0.00018248,-1813.3,1.1506
10725,15.702,5.6364,0,0.00018515,1850.2,6.3297e-05,26.314,5.9787e-05,-0.054685,-0.00018469,-1837,1.1389
10726,15.794,5.6364,0.05,8.7969e-07,8.7909,6.755e-07,5.0754,-2.8154e-12,2.1897e-06,-6.7549e-07,-5.0754,1.1503
10727,15.794,5.3636,0,0.00018385,1837.2,6.3888e-05,38.629,5.8747e-05,0.00056412,-0.00018316,-1817.6,1.1512
10728,15.702,5.4545,0,0.0001859,1857.7,6.4166e-05,33.815,5.9665e-05,-0.0031524,-0.0001853,-1840.6,1.1395
10729,15.794,5.4545,0.05,9.0833e-07,9.077,6.9748e-07,5.2407,-3.8532e-12,2.377e-06,-6.9748e-07,-5.2406,1.1509
10730,15.794,5.1818,0,0.00018466,1845.3,6.4684e-05,44.996,5.8697e-05,0.0067161,-0.00018386,-1822.4,1.1518
10731,15.702,5.2727,0,0.00018666,1865.3,6.4959e-05,40.359,5.9587e-05,0.0018429,-0.00018594,-1844.8,1.1401
10732,15.794,5.2727,0.05,8.992e-07,8.9858,6.9047e-07,5.188,-2.0361e-12,-1.9233e-06,-6.9047e-07,-5.1879,1.1515
10733,15.794,5,0,0.00018544,1853.1,6.5369e-05,50.17,5.8694e-05,0.01209,-0.00018453,-1827.5,1.1523
10734,15.702,5.0909,0,0.00018739,1872.6,6.5654e-05,45.825,5.9556e-05,0.009422,-0.00018657,-1849.3,1.1406
10735,15.794,5.0909,0.05,8.852e-07,8.8459,6.7972e-07,5.1072,-2.9113e-12,-2.924e-06,-6.7972e-07,-5.1071,1.152
10736,15.794,4.8182,0,0.00018616,1860.3,6.5937e-05,54.142,5.8733e-05,0.014559,-0.00018518,-1832.7,1.1527
10737,15.702,4.9091,0,0.00018808,1879.5,6.6242e-05,50.172,5.9566e-05,0.012649,-0.00018718,-1853.9,1.1411
10738,15.794,4.9091,0.05,8.6898e-07,8.6838,6.6727e-07,5.0136,-2.8559e-12,-3.7766e-06,-6.6727e-07,-5.0136,1.1525
10739,15.794,4.6364,0,0.00018682,1866.9,6.6388e-05,56.965,5.8809e-05,0.015746,-0.00018579,-1837.8,1.1532
10740,15.702,4.7273,0,0.00018871,1885.8,6.672e-05,53.419,5.9612e-05,0.014585,-0.00018775,-1858.6,1.1416
10741,15.794,4.7273,0.05,8.512e-07,8.5061,6.5362e-07,4.9111,-2.7593e-12,-5.9411e-06,-6.5362e-07,-4.911,1.1529
10742,15.794,4.4545,0,0.0001874,1872.7,6.6727e-05,58.74,5.8911e-05,0.015942,-0.00018633,-1842.7,1.1535
10743,15.702,4.5455,0,0.00018928,1891.5,6.7091e-05,55.639,5.9688e-05,0.015282,-0.00018827,-1863.1,1.142
10744,15.794,4.5455,0.05,8.3243e-07,8.3185,6.392e-07,4.8027,-2.6628e-12,-4.2817e-06,-6.392e-07,-4.8027,1.1533
10745,15.794,4.2727,0,0.0001879,1877.7,6.6965e-05,59.616,5.9033e-05,0.015562,-0.00018682,-1847.2,1.1539
10746,15.702,4.3636,0,0.00018977,1896.4,6.7362e-05,56.948,5.9785e-05,0.015263,-0.00018874,-1867.3,1.1423
10747,15.794,4.3636,0.05,8.1324e-07,8.1268,6.2447e-07,4.692,-1.6751e-12,-5.5633e-06,-6.2446e-07,-4.692,1.1537
10748,15.794,4.0909,0,0.00018832,1881.9,6.7117e-05,59.774,5.9163e-05,0.014877,-0.00018723,-1851.3,1.1542
10749,15.702,4.1818,0,0.00019019,1900.6,6.7546e-05,57.497,5.9895e-05,0.014797,-0.00018915,-1871.2,1.1427
10750,15.794,4.1818,0.05,7.9425e-07,7.937,6.0989e-07,4.5825,-2.5214e-12,-7.0302e-06,-6.0988e-07,-4.5824,1.154
10751,15.794,3.9091,0,0.00018866,1885.3,6.72e-05,59.418,5.9294e-05,0.014108,-0.00018758,-1854.9,1.1544
10752,15.702,4,0,0.00019054,1904.1,6.7657e-05,57.467,6.001e-05,0.014126,-0.00018949,-1874.7,1.1429
10753,15.794,4,0.05,7.7611e-07,7.7558,5.9596e-07,4.4778,-2.5011e-12,-5.8044e-06,-5.9596e-07,-4.4778,1.1543
10754,15.794,3.7273,0,0.00018893,1888,6.7233e-05,58.76,5.9415e-05,0.013403,-0.00018786,-1857.9,1.1546
10755,15.702,3.8182,0,0.00019081,1906.8,6.7713e-05,57.049,6.0122e-05,0.013423,-0.00018978,-1877.6,1.1431
10756,15.794,3.8182,0.05,7.595e-07,7.5898,5.832e-07,4.382,-3.4117e-12,-5.9164e-06,-5.832e-07,-4.3819,1.1545
10757,15.794,3.5455,0,0.00018913,1890,6.7236e-05,58.002,5.9518e-05,0.012851,-0.00018807,-1860.3,1.1548
10758,15.702,3.6364,0,0.00019102,1908.9,6.7731e-05,56.435,6.0221e-05,0.012807,-0.00019,-1880,1.1433
10759,15.794,3.6364,0.05,7.451e-07,7.4459,5.7215e-07,4.2989,-2.5463e-12,-3.8208e-06,-5.7214e-07,-4.2988,1.1547
10760,15.794,3.3636,0,0.00018926,1891.3,6.7225e-05,57.32,5.9598e-05,0.01248,-0.00018822,-1862,1.1549
10761,15.702,3.4545,0,0.00019117,1910.4,6.7728e-05,55.801,6.0303e-05,0.012342,-0.00019016,-1881.9,1.1435
10762,15.794,3.4545,0.05,7.3358e-07,7.3308,5.6331e-07,4.2325,-7.7321e-13,-4.1927e-06,-5.633e-07,-4.2324,1.1548
10763,15.794,3.1818,0,0.00018934,1892.1,6.7212e-05,56.853,5.9647e-05,0.012275,-0.00018831,-1863.1,1.1549
10764,15.702,3.2727,0,0.00019127,1911.3,6.7717e-05,55.29,6.036e-05,0.012041,-0.00019026,-1883.1,1.1435
10765,15.794,3.2727,0.05,7.2553e-07,7.2503,5.5712e-07,4.186,-1.7406e-12,-4.1788e-06,-5.5712e-07,-4.186,1.1549
10766,15.794,3,0,0.00018937,1892.4,6.7207e-05,56.687,5.9664e-05,0.012211,-0.00018834,-1863.4,1.155
10767,15.702,3.0909,0,0.00019131,1911.8,6.7709e-05,55.008,6.039e-05,0.011898,-0.00019032,-1883.7,1.1436
10768,15.794,3.0909,0.05,7.2139e-07,7.2089,5.5394e-07,4.1621,-2.705e-12,-3.1621e-06,-5.5394e-07,-4.1621,1.1549
10769,15.794,2.8182,0,0.00018934,1892.1,6.7212e-05,56.853,5.9647e-05,0.012274,-0.00018831,-1863.1,1.1549
10770,15.702,2.9091,0,0.00019131,1911.8,6.7709e-05,55.008,6.039e-05,0.011897,-0.00019032,-1883.7,1.1436
10771,15.794,2.9091,0.05,7.2139e-07,7.2089,5.5394e-07,4.1621,-1.8401e-12,-1.1154e-06,-5.5394e-07,-4.1621,1.1549
10772,15.794,2.6364,0,0.00018926,1891.3,6.7225e-05,57.32,5.9598e-05,0.01248,-0.00018822,-1862,1.1549
10773,15.702,2.7273,0,0.00019127,1911.3,6.7717e-05,55.29,6.036e-05,0.012041,-0.00019026,-1883.1,1.1435
10774,15.794,2.7273,0.05,7.2553e-07,7.2503,5.5712e-07,4.186,-5.7745e-14,-9.0996e-07,-5.5712e-07,-4.186,1.1549
10775,15.794,2.4545,0,0.00018913,1890,6.7236e-05,58.002,5.9518e-05,0.012852,-0.00018807,-1860.3,1.1548
10776,15.702,2.5455,0,0.00019117,1910.4,6.7728e-05,55.801,6.0303e-05,0.012342,-0.00019016,-1881.9,1.1435
10777,15.794,2.5455,0.05,7.3358e-07,7.3308,5.633e-07,4.2324,-9.9102e-13,-6.0663e-07,-5.633e-07,-4.2324,1.1548
10778,15.794,2.2727,0,0.00018893,1888,6.7233e-05,58.76,5.9415e-05,0.013403,-0.00018786,-1857.9,1.1546
10779,15.702,2.3636,0,0.00019102,1908.9,6.7731e-05,56.435,6.0221e-05,0.012807,-0.00019,-1880,1.1433
10780,15.794,2.3636,0.05,7.451e-07,7.4459,5.7215e-07,4.2989,-1.0391e-13,-2.4476e-07,-5.7215e-07,-4.2989,1.1547
10781,15.794,2.0909,0,0.00018866,1885.3,6.72e-05,59.418,5.9294e-05,0.014107,-0.00018758,-1854.9,1.1544
10782,15.702,2.1818,0,0.00019081,1906.8,6.7713e-05,57.049,6.0122e-05,0.013423,-0.00018978,-1877.6,1.1431
10783,15.794,2.1818,0.05,7.595e-07,7.5897,5.832e-07,4.382,-1.1316e-13,1.1099e-06,-5.832e-07,-4.3819,1.1545
10784,15.794,1.9091,0,0.00018832,1881.9,6.7117e-05,59.774,5.9163e-05,0.014878,-0.00018723,-1851.3,1.1542
10785,15.702,2,0,0.00019054,1904.1,6.7657e-05,57.467,6.001e-05,0.014126,-0.00018949,-1874.7,1.1429
10786,15.794,2,0.05,7.7611e-07,7.7558,5.9596e-07,4.4778,-1.1016e-13,2.0791e-06,-5.9596e-07,-4.4778,1.1543
10787,15.794,1.7273,0,0.0001879,1877.7,6.6965e-05,59.616,5.9033e-05,0.015563,-0.00018682,-1847.2,1.1539
10788,15.702,1.8182,0,0.00019019,1900.6,6.7546e-05,57.497,5.9895e-05,0.014798,-0.00018915,-1871.2,1.1427
10789,15.794,1.8182,0.05,7.9425e-07,7.937,6.0989e-07,4.5824,8.0993e-13,1.6642e-06,-6.0989e-07,-4.5824,1.154
10790,15.794,1.5455,0,0.0001874,1872.7,6.6727e-05,58.74,5.8911e-05,0.015942,-0.00018633,-1842.7,1.1535
10791,15.702,1.6364,0,0.00018977,1896.4,6.7362e-05,56.948,5.9785e-05,0.015263,-0.00018874,-1867.3,1.1423
10792,15.794,1.6364,0.05,8.1324e-07,8.1268,6.2446e-07,4.692,1.748e-12,3.271e-06,-6.2447e-07,-4.692,1.1537
10793,15.794,1.3636,0,0.00018682,1866.9,6.6388e-05,56.965,5.8809e-05,0.015746,-0.00018579,-1837.8,1.1532
10794,15.702,1.4545,0,0.00018928,1891.5,6.7091e-05,55.639,5.9688e-05,0.015282,-0.00018827,-1863.1,1.142
10795,15.794,1.4545,0.05,8.3243e-07,8.3185,6.392e-07,4.8027,2.6972e-12,3.5788e-06,-6.392e-07,-4.8027,1.1533
10796,15.794,1.1818,0,0.00018616,1860.3,6.5937e-05,54.142,5.8733e-05,0.014559,-0.00018518,-1832.7,1.1527
10797,15.702,1.2727,0,0.00018871,1885.8,6.672e-05,53.419,5.9612e-05,0.014586,-0.00018775,-1858.6,1.1416
10798,15.794,1.2727,0.05,8.512e-07,8.5061,6.5362e-07,4.911,1.8328e-12,2.9778e-06,-6.5362e-07,-4.911,1.1529
10799,15.794,1,0,0.00018544,1853.1,6.5369e-05,50.17,5.8694e-05,0.012091,-0.00018453,-1827.5,1.1523
10800,15.702,1.0909,0,0.00018808,1879.5,6.6242e-05,50.172,5.9566e-05,0.012649,-0.00018718,-1853.9,1.1411
10801,15.794,1.0909,0.05,8.6898e-07,8.6838,6.6727e-07,5.0136,1.8771e-12,2.7987e-06,-6.6727e-07,-5.0136,1.1525
10802,15.794,0.81818,0,0.00018466,1845.3,6.4684e-05,44.996,5.8697e-05,0.0067183,-0.00018386,-1822.4,1.1518
10803,15.702,0.90909,0,0.00018739,1872.6,6.5654e-05,45.825,5.9556e-05,0.0094243,-0.00018657,-1849.3,1.1406
10804,15.794,0.90909,0.05,8.852e-07,8.8459,6.7972e-07,5.1072,2.822e-12,2.6505e-06,-6.7972e-07,-5.1072,1.152
10805,15.794,0.63636,0,0.00018385,1837.2,6.3888e-05,38.629,5.8747e-05,0.000564,-0.00018316,-1817.6,1.1512
10806,15.702,0.72727,0,0.00018666,1865.3,6.4959e-05,40.359,5.9587e-05,0.0018447,-0.00018594,-1844.8,1.1401
10807,15.794,0.72727,0.05,8.992e-07,8.9858,6.9047e-07,5.1879,1.0273e-12,3.3542e-06,-6.9047e-07,-5.1879,1.1515
10808,15.794,0.45455,0,0.00018303,1829,6.2997e-05,31.149,5.8848e-05,-0.028714,-0.00018248,-1813.3,1.1506
10809,15.702,0.54545,0,0.0001859,1857.7,6.4166e-05,33.815,5.9665e-05,-0.0031534,-0.0001853,-1840.6,1.1395
10810,15.794,0.54545,0.05,9.0833e-07,9.077,6.9748e-07,5.2406,6.1359e-14,1.7215e-06,-6.9748e-07,-5.2406,1.1509
10811,15.794,0.27273,0,0.00018229,1821.7,6.209e-05,23.146,5.9003e-05,-0.045521,-0.00018189,-1810,1.15
10812,15.702,0.36364,0,0.00018515,1850.2,6.3297e-05,26.314,5.9787e-05,-0.054686,-0.00018469,-1837,1.1389
10813,15.794,0.36364,0.05,8.7969e-07,8.7909,6.7549e-07,5.0754,1.7742e-12,2.3278e-06,-6.755e-07,-5.0754,1.1503
10814,15.702,0.18182,0,0.00018458,1844.6,6.2499e-05,18.998,5.9966e-05,-0.027673,-0.00018425,-1835,1.1383
10815,15.794,0.18182,0.05,3.336e-07,3.3337,2.5616e-07,1.9247,2.7759e-13,-7.7542e-06,-2.5616e-07,-1.9247,1.1497
10816,15.794,0.090909,0,0.00018116,1810.3,6.077e-05,11.823,5.9195e-05,-0.0085522,-0.00018096,-1804.4,1.1493
10817,15.611,5.7273,0,0.00018742,1872.9,6.3691e-05,22.055,6.075e-05,-0.040005,-0.00018704,-1861.8,1.1272
10818,15.519,5.8182,0,0.00018973,1896,6.4158e-05,18.544,6.1688e-05,-0.021346,-0.00018941,-1886.6,1.1155
10819,15.611,5.8182,0.05,2.8541e-07,2.8522,2.1916e-07,1.6467,-1.4975e-12,2.0017e-05,-2.1916e-07,-1.6467,1.1269
10820,15.611,5.9091,0,0.00018637,1862.4,6.2473e-05,11.631,6.0924e-05,-0.0084048,-0.00018617,-1856.6,1.1265
10821,15.611,5.5455,0,0.00018802,1878.9,6.446e-05,28.944,6.0605e-05,-0.026775,-0.00018751,-1864.3,1.1279
10822,15.519,5.6364,0,0.00019017,1900.4,6.4818e-05,24.706,6.1523e-05,-0.049543,-0.00018974,-1887.9,1.1162
10823,15.611,5.6364,0.05,8.5726e-07,8.5667,6.5827e-07,4.946,-1.8991e-12,2.2292e-06,-6.5827e-07,-4.9459,1.1275
10824,15.611,5.3636,0,0.00018871,1885.8,6.5233e-05,35.52,6.0505e-05,-0.00066922,-0.00018808,-1867.7,1.1285
10825,15.519,5.4545,0,0.00019079,1906.6,6.5569e-05,31.27,6.1406e-05,-0.0040621,-0.00019024,-1890.8,1.1168
10826,15.611,5.4545,0.05,8.8953e-07,8.8892,6.8305e-07,5.1322,-2.8786e-12,2.3529e-06,-6.8305e-07,-5.1321,1.1282
10827,15.611,5.1818,0,0.00018938,1892.5,6.5925e-05,41.168,6.0447e-05,0.0051746,-0.00018865,-1871.6,1.129
10828,15.519,5.2727,0,0.00019143,1912.9,6.6258e-05,37.049,6.1327e-05,0.00067458,-0.00019077,-1894.1,1.1174
10829,15.611,5.2727,0.05,8.8305e-07,8.8244,6.7808e-07,5.0948,-1.9844e-12,-1.4732e-06,-6.7807e-07,-5.0948,1.1287
10830,15.611,5,0,0.00019003,1899,6.6524e-05,45.81,6.0428e-05,0.010326,-0.00018921,-1875.7,1.1295
10831,15.519,5.0909,0,0.00019204,1919.1,6.6864e-05,41.923,6.1285e-05,0.0077592,-0.00019129,-1897.7,1.118
10832,15.611,5.0909,0.05,8.7208e-07,8.7147,6.6965e-07,5.0315,-2.9027e-12,-2.6954e-06,-6.6964e-07,-5.0314,1.1293
10833,15.611,4.8182,0,0.00019063,1905,6.7022e-05,49.434,6.0445e-05,0.012863,-0.00018974,-1879.8,1.13
10834,15.519,4.9091,0,0.00019261,1924.8,6.7379e-05,45.852,6.1278e-05,0.010969,-0.00019179,-1901.4,1.1185
10835,15.611,4.9091,0.05,8.5925e-07,8.5866,6.598e-07,4.9575,-2.8544e-12,-4.2651e-06,-6.598e-07,-4.9574,1.1298
10836,15.611,4.6364,0,0.00019117,1910.4,6.7421e-05,52.081,6.0491e-05,0.014215,-0.00019023,-1883.8,1.1304
10837,15.519,4.7273,0,0.00019314,1930,6.7801e-05,48.849,6.1301e-05,0.012992,-0.00019226,-1905.1,1.1189
10838,15.611,4.7273,0.05,8.4516e-07,8.4458,6.4898e-07,4.8762,-2.7926e-12,-5.6993e-06,-6.4897e-07,-4.8761,1.1302
10839,15.611,4.4545,0,0.00019165,1915.2,6.7724e-05,53.834,6.0561e-05,0.014636,-0.00019068,-1887.7,1.1308
10840,15.519,4.5455,0,0.0001936,1934.7,6.8131e-05,50.972,6.1349e-05,0.01387,-0.00019269,-1908.7,1.1193
10841,15.611,4.5455,0.05,8.3028e-07,8.2971,6.3755e-07,4.7903,-2.7199e-12,-4.7088e-06,-6.3755e-07,-4.7903,1.1306
10842,15.611,4.2727,0,0.00019206,1919.3,6.7941e-05,54.817,6.0647e-05,0.014492,-0.00019107,-1891.3,1.1312
10843,15.519,4.3636,0,0.00019401,1938.7,6.8376e-05,52.315,6.1415e-05,0.014066,-0.00019307,-1912.1,1.1197
10844,15.611,4.3636,0.05,8.1509e-07,8.1453,6.2589e-07,4.7027,-1.7464e-12,-6.6024e-06,-6.2589e-07,-4.7027,1.131
10845,15.611,4.0909,0,0.00019241,1922.7,6.8084e-05,55.178,6.0742e-05,0.014018,-0.00019141,-1894.5,1.1315
10846,15.519,4.1818,0,0.00019435,1942.2,6.8546e-05,53.005,6.1494e-05,0.013815,-0.0001934,-1915.1,1.12
10847,15.611,4.1818,0.05,8.0011e-07,7.9956,6.1439e-07,4.6162,-3.5139e-12,-6.726e-06,-6.1438e-07,-4.6162,1.1313
10848,15.611,3.9091,0,0.00019268,1925.5,6.8168e-05,55.085,6.0838e-05,0.013405,-0.00019169,-1897.4,1.1317
10849,15.519,4,0,0.00019463,1945,6.8654e-05,53.189,6.1577e-05,0.013326,-0.00019367,-1917.8,1.1203
10850,15.611,4,0.05,7.8584e-07,7.853,6.0343e-07,4.534,-3.4902e-12,-6.5523e-06,-6.0343e-07,-4.5339,1.1316
10851,15.611,3.7273,0,0.0001929,1927.7,6.8208e-05,54.711,6.0928e-05,0.012796,-0.00019191,-1899.7,1.1319
10852,15.519,3.8182,0,0.00019485,1947.2,6.8714e-05,53.023,6.1659e-05,0.012757,-0.0001939,-1920.1,1.1205
10853,15.611,3.8182,0.05,7.7284e-07,7.7231,5.9345e-07,4.4589,-2.5725e-12,-6.5023e-06,-5.9344e-07,-4.4589,1.1318
10854,15.611,3.5455,0,0.00019306,1929.3,6.822e-05,54.221,6.1006e-05,0.01228,-0.00019208,-1901.6,1.1321
10855,15.519,3.6364,0,0.00019502,1948.9,6.874e-05,52.663,6.1733e-05,0.012219,-0.00019407,-1922,1.1207
10856,15.611,3.6364,0.05,7.6162e-07,7.611,5.8483e-07,4.3942,-1.6899e-12,-4.7703e-06,-5.8483e-07,-4.3942,1.132
10857,15.611,3.3636,0,0.00019317,1930.4,6.8218e-05,53.757,6.1065e-05,0.011901,-0.0001922,-1902.9,1.1322
10858,15.519,3.4545,0,0.00019515,1950.1,6.8746e-05,52.252,6.1793e-05,0.011785,-0.0001942,-1923.5,1.1208
10859,15.611,3.4545,0.05,7.5269e-07,7.5217,5.7797e-07,4.3427,-2.6345e-12,-5.0194e-06,-5.7797e-07,-4.3426,1.1321
10860,15.611,3.1818,0,0.00019323,1931,6.8212e-05,53.431,6.1103e-05,0.011675,-0.00019227,-1903.7,1.1322
10861,15.519,3.2727,0,0.00019522,1950.9,6.8743e-05,51.907,6.1836e-05,0.011485,-0.00019429,-1924.4,1.1209
10862,15.611,3.2727,0.05,7.4647e-07,7.4595,5.732e-07,4.3068,-1.763e-12,-5.2988e-06,-5.7319e-07,-4.3067,1.1322
10863,15.611,3,0,0.00019325,1931.2,6.821e-05,53.314,6.1115e-05,0.011601,-0.00019229,-1904,1.1323
10864,15.519,3.0909,0,0.00019526,1951.3,6.874e-05,51.713,6.1859e-05,0.011335,-0.00019433,-1924.9,1.121
10865,15.611,3.0909,0.05,7.4327e-07,7.4276,5.7075e-07,4.2884,-1.8013e-12,-3.2057e-06,-5.7074e-07,-4.2883,1.1322
10866,15.611,2.8182,0,0.00019323,1931,6.8212e-05,53.431,6.1103e-05,0.011676,-0.00019227,-1903.7,1.1322
10867,15.519,2.9091,0,0.00019526,1951.3,6.874e-05,51.713,6.1859e-05,0.011335,-0.00019433,-1924.9,1.121
10868,15.611,2.9091,0.05,7.4327e-07,7.4276,5.7074e-07,4.2884,-9.2573e-13,-2.0288e-06,-5.7074e-07,-4.2883,1.1322
10869,15.611,2.6364,0,0.00019317,1930.4,6.8218e-05,53.756,6.1065e-05,0.011902,-0.0001922,-1902.9,1.1322
10870,15.519,2.7273,0,0.00019522,1950.9,6.8743e-05,51.907,6.1836e-05,0.011485,-0.00019429,-1924.4,1.1209
10871,15.611,2.7273,0.05,7.4647e-07,7.4595,5.732e-07,4.3068,-9.5414e-13,-2.2351e-06,-5.732e-07,-4.3068,1.1322
10872,15.611,2.4545,0,0.00019306,1929.3,6.822e-05,54.221,6.1006e-05,0.01228,-0.00019208,-1901.6,1.1321
10873,15.519,2.5455,0,0.00019515,1950.1,6.8746e-05,52.252,6.1793e-05,0.011784,-0.0001942,-1923.5,1.1208
10874,15.611,2.5455,0.05,7.5269e-07,7.5217,5.7797e-07,4.3427,-9.7505e-13,-9.3499e-07,-5.7797e-07,-4.3427,1.1321
10875,15.611,2.2727,0,0.0001929,1927.7,6.8208e-05,54.711,6.0928e-05,0.012797,-0.00019191,-1899.7,1.1319
10876,15.519,2.3636,0,0.00019502,1948.9,6.874e-05,52.663,6.1733e-05,0.01222,-0.00019407,-1922,1.1207
10877,15.611,2.3636,0.05,7.6162e-07,7.611,5.8483e-07,4.3942,-7.9906e-14,-5.9413e-07,-5.8483e-07,-4.3942,1.132
10878,15.611,2.0909,0,0.00019268,1925.5,6.8168e-05,55.085,6.0838e-05,0.013406,-0.00019169,-1897.4,1.1317
10879,15.519,2.1818,0,0.00019485,1947.2,6.8714e-05,53.023,6.1659e-05,0.012757,-0.0001939,-1920.1,1.1205
10880,15.611,2.1818,0.05,7.7284e-07,7.7231,5.9345e-07,4.4589,-7.7956e-14,3.967e-07,-5.9344e-07,-4.4589,1.1318
10881,15.611,1.9091,0,0.00019241,1922.7,6.8084e-05,55.178,6.0742e-05,0.014017,-0.00019141,-1894.5,1.1315
10882,15.519,2,0,0.00019463,1945,6.8654e-05,53.189,6.1577e-05,0.013326,-0.00019367,-1917.8,1.1203
10883,15.611,2,0.05,7.8584e-07,7.853,6.0343e-07,4.5339,-7.0063e-14,-1.114e-07,-6.0343e-07,-4.5339,1.1316
10884,15.611,1.7273,0,0.00019206,1919.3,6.7941e-05,54.817,6.0647e-05,0.014492,-0.00019107,-1891.3,1.1312
10885,15.519,1.8182,0,0.00019435,1942.2,6.8546e-05,53.005,6.1494e-05,0.013815,-0.0001934,-1915.1,1.12
10886,15.611,1.8182,0.05,8.0011e-07,7.9956,6.1438e-07,4.6162,-6.2257e-14,1.455e-06,-6.1438e-07,-4.6162,1.1313
10887,15.611,1.5455,0,0.00019165,1915.2,6.7724e-05,53.834,6.0561e-05,0.014636,-0.00019068,-1887.7,1.1308
10888,15.519,1.6364,0,0.00019401,1938.7,6.8376e-05,52.315,6.1415e-05,0.014067,-0.00019307,-1912.1,1.1197
10889,15.611,1.6364,0.05,8.1509e-07,8.1453,6.2589e-07,4.7027,8.7297e-13,2.117e-06,-6.2589e-07,-4.7027,1.131
10890,15.611,1.3636,0,0.00019117,1910.4,6.7421e-05,52.081,6.0491e-05,0.014215,-0.00019023,-1883.8,1.1304
10891,15.519,1.4545,0,0.0001936,1934.7,6.8131e-05,50.972,6.1349e-05,0.013871,-0.00019269,-1908.7,1.1193
10892,15.611,1.4545,0.05,8.3028e-07,8.2971,6.3755e-07,4.7903,1.8151e-12,1.8766e-06,-6.3755e-07,-4.7903,1.1306
10893,15.611,1.1818,0,0.00019063,1905,6.7022e-05,49.434,6.0445e-05,0.012864,-0.00018974,-1879.8,1.13
10894,15.519,1.2727,0,0.00019314,1930,6.7801e-05,48.849,6.1301e-05,0.012992,-0.00019226,-1905.1,1.1189
10895,15.611,1.2727,0.05,8.4516e-07,8.4458,6.4898e-07,4.8761,3.1075e-14,2.164e-06,-6.4898e-07,-4.8762,1.1302
10896,15.611,1,0,0.00019003,1899,6.6524e-05,45.81,6.0428e-05,0.010327,-0.00018921,-1875.7,1.1295
10897,15.519,1.0909,0,0.00019261,1924.8,6.7379e-05,45.852,6.1278e-05,0.010968,-0.00019179,-1901.4,1.1185
10898,15.611,1.0909,0.05,8.5925e-07,8.5866,6.598e-07,4.9575,1.8785e-12,2.4232e-06,-6.598e-07,-4.9575,1.1298
10899,15.611,0.81818,0,0.00018938,1892.5,6.5925e-05,41.168,6.0447e-05,0.0051765,-0.00018865,-1871.6,1.129
10900,15.519,0.90909,0,0.00019204,1919.1,6.6864e-05,41.923,6.1285e-05,0.0077609,-0.00019129,-1897.7,1.118
10901,15.611,0.90909,0.05,8.7208e-07,8.7147,6.6964e-07,5.0314,9.9105e-13,1.61e-06,-6.6965e-07,-5.0315,1.1293
10902,15.611,0.63636,0,0.00018871,1885.8,6.5233e-05,35.52,6.0505e-05,-0.00066827,-0.00018808,-1867.7,1.1285
10903,15.519,0.72727,0,0.00019143,1912.9,6.6258e-05,37.049,6.1327e-05,0.00067683,-0.00019077,-1894.1,1.1174
10904,15.611,0.72727,0.05,8.8305e-07,8.8244,6.7807e-07,5.0948,1.8927e-12,1.7368e-06,-6.7808e-07,-5.0948,1.1287
10905,15.611,0.45455,0,0.00018802,1878.9,6.446e-05,28.944,6.0605e-05,-0.026775,-0.00018751,-1864.3,1.1279
10906,15.519,0.54545,0,0.00019079,1906.6,6.5569e-05,31.27,6.1406e-05,-0.0040618,-0.00019024,-1890.8,1.1168
10907,15.611,0.54545,0.05,8.8953e-07,8.8892,6.8305e-07,5.1321,9.584e-13,2.2162e-06,-6.8305e-07,-5.1322,1.1282
10908,15.611,0.27273,0,0.00018742,1872.9,6.3691e-05,22.055,6.075e-05,-0.040006,-0.00018704,-1861.8,1.1272
10909,15.519,0.36364,0,0.00019017,1900.4,6.4818e-05,24.706,6.1523e-05,-0.049544,-0.00018974,-1887.9,1.1162
10910,15.611,0.36364,0.05,8.5726e-07,8.5667,6.5827e-07,4.9459,1.8712e-12,8.799e-07,-6.5827e-07,-4.946,1.1275
10911,15.519,0.18182,0,0.00018973,1896,6.4158e-05,18.544,6.1688e-05,-0.021346,-0.00018941,-1886.6,1.1155
10912,15.611,0.18182,0.05,2.8541e-07,2.8522,2.1916e-07,1.6467,8.3555e-13,-6.7072e-06,-2.1916e-07,-1.6467,1.1269
10913,15.611,0.090909,0,0.00018637,1862.4,6.2473e-05,11.631,6.0924e-05,-0.008405,-0.00018617,-1856.6,1.1265
10914,15.427,5.7273,0,0.00019246,1923.2,6.5271e-05,21.085,6.246e-05,-0.035201,-0.00019209,-1912.6,1.1046
10915,15.335,5.8182,0,0.00019478,1946.5,6.5792e-05,18.13,6.3377e-05,-0.016388,-0.00019447,-1937.4,1.093
10916,15.427,5.8182,0.05,2.4494e-07,2.4477,1.8808e-07,1.4132,-1.4832e-12,2.6337e-05,-1.8808e-07,-1.4131,1.1042
10917,15.427,5.9091,0,0.00019147,1913.4,6.4142e-05,11.452,6.2617e-05,-0.0082289,-0.00019128,-1907.7,1.1039
10918,15.427,5.5455,0,0.00019294,1928,6.5921e-05,26.996,6.2325e-05,-0.024957,-0.00019246,-1914.4,1.1052
10919,15.335,5.6364,0,0.00019511,1949.8,6.6331e-05,23.283,6.3226e-05,-0.044943,-0.00019471,-1938,1.0936
10920,15.427,5.6364,0.05,8.3965e-07,8.3907,6.4475e-07,4.8444,-2.8002e-12,3.3725e-06,-6.4474e-07,-4.8443,1.1049
10921,15.427,5.3636,0,0.00019351,1933.8,6.659e-05,32.773,6.2228e-05,-0.0016928,-0.00019293,-1917.2,1.1058
10922,15.335,5.4545,0,0.00019563,1955,6.6979e-05,29.021,6.3116e-05,-0.0047688,-0.00019512,-1940.3,1.0943
10923,15.427,5.4545,0.05,8.7496e-07,8.7435,6.7186e-07,5.0481,-1.0958e-12,2.983e-06,-6.7186e-07,-5.048,1.1055
10924,15.427,5.1818,0,0.00019408,1939.4,6.7193e-05,37.783,6.2165e-05,0.0038066,-0.00019341,-1920.3,1.1064
10925,15.335,5.2727,0,0.00019616,1960.3,6.7577e-05,34.122,6.3036e-05,-0.00032973,-0.00019556,-1943,1.0949
10926,15.427,5.2727,0.05,8.7062e-07,8.7002,6.6853e-07,5.0231,-2.9132e-12,-4.4645e-07,-6.6853e-07,-5.023,1.1061
10927,15.427,5,0,0.00019462,1944.8,6.7716e-05,41.947,6.2135e-05,0.00871,-0.00019387,-1923.5,1.1069
10928,15.335,5.0909,0,0.00019667,1965.3,6.8106e-05,38.466,6.2987e-05,0.0062662,-0.00019599,-1945.8,1.0954
10929,15.427,5.0909,0.05,8.6208e-07,8.6148,6.6197e-07,4.9738,-2.8907e-12,-2.1184e-06,-6.6196e-07,-4.9737,1.1067
10930,15.427,4.8182,0,0.00019511,1949.8,6.8155e-05,45.25,6.2134e-05,0.01127,-0.0001943,-1926.8,1.1074
10931,15.335,4.9091,0,0.00019715,1970.1,6.8558e-05,42.014,6.2967e-05,0.0094186,-0.0001964,-1948.8,1.0959
10932,15.427,4.9091,0.05,8.5199e-07,8.514,6.5423e-07,4.9156,-2.8455e-12,-2.8973e-06,-6.5422e-07,-4.9155,1.1072
10933,15.427,4.6364,0,0.00019556,1954.3,6.8509e-05,47.725,6.2158e-05,0.012738,-0.00019471,-1930,1.1078
10934,15.335,4.7273,0,0.00019758,1974.5,6.893e-05,44.774,6.2973e-05,0.011489,-0.00019678,-1951.7,1.0964
10935,15.427,4.7273,0.05,8.4087e-07,8.4029,6.4569e-07,4.8515,-3.7168e-12,-5.3931e-06,-6.4568e-07,-4.8514,1.1076
10936,15.427,4.4545,0,0.00019596,1958.2,6.8781e-05,49.438,6.2203e-05,0.013339,-0.00019507,-1933,1.1082
10937,15.335,4.5455,0,0.00019797,1978.3,6.9225e-05,46.792,6.2999e-05,0.012507,-0.00019713,-1954.5,1.0968
10938,15.427,4.5455,0.05,8.2912e-07,8.2855,6.3667e-07,4.7837,-2.7578e-12,-4.0208e-06,-6.3666e-07,-4.7836,1.108
10939,15.427,4.2727,0,0.0001963,1961.6,6.8979e-05,50.49,6.2262e-05,0.013394,-0.00019539,-1935.9,1.1086
10940,15.335,4.3636,0,0.0001983,1981.7,6.9448e-05,48.142,6.3042e-05,0.01288,-0.00019744,-1957.1,1.0972
10941,15.427,4.3636,0.05,8.1714e-07,8.1658,6.2747e-07,4.7146,-8.8635e-13,-5.0764e-06,-6.2746e-07,-4.7145,1.1084
10942,15.427,4.0909,0,0.00019658,1964.4,6.9115e-05,51.002,6.2328e-05,0.013109,-0.00019566,-1938.4,1.1089
10943,15.335,4.1818,0,0.00019858,1984.5,6.9606e-05,48.93,6.3095e-05,0.012814,-0.00019771,-1959.6,1.0975
10944,15.427,4.1818,0.05,8.0534e-07,8.0479,6.1841e-07,4.6465,-3.5751e-12,-6.1947e-06,-6.184e-07,-4.6464,1.1087
10945,15.427,3.9091,0,0.0001968,1966.7,6.9199e-05,51.112,6.2398e-05,0.012656,-0.00019588,-1940.6,1.1091
10946,15.335,4,0,0.00019882,1986.8,6.971e-05,49.273,6.3154e-05,0.012496,-0.00019793,-1961.7,1.0978
10947,15.427,4,0.05,7.9414e-07,7.936,6.0981e-07,4.5819,-1.7282e-12,-6.001e-06,-6.098e-07,-4.5818,1.109
10948,15.427,3.7273,0,0.00019698,1968.4,6.9244e-05,50.96,6.2463e-05,0.012159,-0.00019606,-1942.4,1.1093
10949,15.335,3.8182,0,0.000199,1988.6,6.9773e-05,49.3,6.3213e-05,0.012062,-0.00019811,-1963.5,1.098
10950,15.427,3.8182,0.05,7.8397e-07,7.8343,6.0199e-07,4.5231,-2.634e-12,-5.4575e-06,-6.0199e-07,-4.5231,1.1092
10951,15.427,3.5455,0,0.00019711,1969.7,6.9264e-05,50.679,6.252e-05,0.01171,-0.0001962,-1943.9,1.1095
10952,15.335,3.6364,0,0.00019914,1990,6.9805e-05,49.138,6.3267e-05,0.011622,-0.00019825,-1965,1.0982
10953,15.427,3.6364,0.05,7.7522e-07,7.7468,5.9527e-07,4.4727,-1.7324e-12,-3.1757e-06,-5.9527e-07,-4.4726,1.1094
10954,15.427,3.3636,0,0.0001972,1970.6,6.9269e-05,50.387,6.2565e-05,0.011364,-0.00019629,-1944.9,1.1096
10955,15.335,3.4545,0,0.00019923,1991,6.9818e-05,48.902,6.3311e-05,0.011245,-0.00019836,-1966.1,1.0983
10956,15.427,3.4545,0.05,7.6828e-07,7.6775,5.8994e-07,4.4326,-1.7523e-12,-3.7997e-06,-5.8994e-07,-4.4326,1.1095
10957,15.427,3.1818,0,0.00019725,1971.1,6.9268e-05,50.173,6.2592e-05,0.011147,-0.00019635,-1945.6,1.1097
10958,15.335,3.2727,0,0.0001993,1991.6,6.9821e-05,48.688,6.3343e-05,0.010975,-0.00019842,-1966.8,1.0984
10959,15.427,3.2727,0.05,7.6346e-07,7.6293,5.8624e-07,4.4048,-8.6969e-13,-3.9906e-06,-5.8624e-07,-4.4048,1.1096
10960,15.427,3,0,0.00019727,1971.3,6.9268e-05,50.095,6.2602e-05,0.011074,-0.00019637,-1945.8,1.1097
10961,15.335,3.0909,0,0.00019933,1991.9,6.9821e-05,48.563,6.3359e-05,0.010835,-0.00019846,-1967.2,1.0984
10962,15.427,3.0909,0.05,7.6098e-07,7.6046,5.8434e-07,4.3905,-1.8062e-12,-3.242e-06,-5.8434e-07,-4.3905,1.1097
10963,15.427,2.8182,0,0.00019725,1971.1,6.9268e-05,50.173,6.2592e-05,0.011147,-0.00019635,-1945.6,1.1097
10964,15.335,2.9091,0,0.00019933,1991.9,6.9821e-05,48.563,6.3359e-05,0.010836,-0.00019846,-1967.2,1.0984
10965,15.427,2.9091,0.05,7.6098e-07,7.6046,5.8434e-07,4.3905,-1.8308e-12,-1.0432e-06,-5.8434e-07,-4.3905,1.1097
10966,15.427,2.6364,0,0.0001972,1970.6,6.9269e-05,50.387,6.2565e-05,0.011363,-0.00019629,-1944.9,1.1096
10967,15.335,2.7273,0,0.0001993,1991.6,6.9821e-05,48.688,6.3343e-05,0.010976,-0.00019842,-1966.8,1.0984
10968,15.427,2.7273,0.05,7.6346e-07,7.6293,5.8624e-07,4.4048,-9.4206e-13,-7.2539e-07,-5.8624e-07,-4.4048,1.1096
10969,15.427,2.4545,0,0.00019711,1969.7,6.9264e-05,50.679,6.252e-05,0.01171,-0.0001962,-1943.9,1.1095
10970,15.335,2.5455,0,0.00019923,1991,6.9818e-05,48.902,6.3311e-05,0.011245,-0.00019836,-1966.1,1.0983
10971,15.427,2.5455,0.05,7.6828e-07,7.6775,5.8994e-07,4.4326,-9.5748e-13,-3.4477e-07,-5.8994e-07,-4.4326,1.1095
10972,15.427,2.2727,0,0.00019698,1968.4,6.9244e-05,50.96,6.2463e-05,0.012159,-0.00019606,-1942.4,1.1093
10973,15.335,2.3636,0,0.00019914,1990,6.9805e-05,49.138,6.3267e-05,0.011622,-0.00019825,-1965,1.0982
10974,15.427,2.3636,0.05,7.7522e-07,7.7468,5.9527e-07,4.4727,-9.6452e-13,8.3325e-08,-5.9527e-07,-4.4726,1.1094
10975,15.427,2.0909,0,0.0001968,1966.7,6.9199e-05,51.112,6.2398e-05,0.012656,-0.00019588,-1940.6,1.1091
10976,15.335,2.1818,0,0.000199,1988.6,6.9773e-05,49.3,6.3213e-05,0.012063,-0.00019811,-1963.5,1.098
10977,15.427,2.1818,0.05,7.8397e-07,7.8343,6.0199e-07,4.5231,-5.2743e-14,6.9316e-08,-6.0199e-07,-4.5231,1.1092
10978,15.427,1.9091,0,0.00019658,1964.4,6.9115e-05,51.002,6.2328e-05,0.01311,-0.00019566,-1938.4,1.1089
10979,15.335,2,0,0.00019882,1986.8,6.971e-05,49.273,6.3154e-05,0.012496,-0.00019793,-1961.7,1.0978
10980,15.427,2,0.05,7.9414e-07,7.936,6.098e-07,4.5818,-4.8108e-14,1.0586e-06,-6.098e-07,-4.5818,1.109
10981,15.427,1.7273,0,0.0001963,1961.6,6.8979e-05,50.49,6.2262e-05,0.013395,-0.00019539,-1935.9,1.1086
10982,15.335,1.8182,0,0.00019858,1984.5,6.9606e-05,48.93,6.3095e-05,0.012814,-0.00019771,-1959.6,1.0975
10983,15.427,1.8182,0.05,8.0534e-07,8.0479,6.1841e-07,4.6464,-3.2745e-14,1.6735e-06,-6.184e-07,-4.6464,1.1087
10984,15.427,1.5455,0,0.00019596,1958.2,6.8781e-05,49.438,6.2203e-05,0.01334,-0.00019507,-1933,1.1082
10985,15.335,1.6364,0,0.0001983,1981.7,6.9448e-05,48.142,6.3042e-05,0.012881,-0.00019744,-1957.1,1.0972
10986,15.427,1.6364,0.05,8.1714e-07,8.1658,6.2746e-07,4.7145,2.7175e-12,1.8163e-06,-6.2747e-07,-4.7145,1.1084
10987,15.427,1.3636,0,0.00019556,1954.3,6.8509e-05,47.725,6.2158e-05,0.012739,-0.00019471,-1930,1.1078
10988,15.335,1.4545,0,0.00019797,1978.3,6.9225e-05,46.791,6.2999e-05,0.012508,-0.00019713,-1954.5,1.0968
10989,15.427,1.4545,0.05,8.2912e-07,8.2855,6.3666e-07,4.7836,1.8313e-12,2.0232e-06,-6.3667e-07,-4.7837,1.108
10990,15.427,1.1818,0,0.00019511,1949.8,6.8155e-05,45.25,6.2134e-05,0.01127,-0.0001943,-1926.8,1.1074
10991,15.335,1.2727,0,0.00019758,1974.5,6.893e-05,44.774,6.2973e-05,0.01149,-0.00019678,-1951.7,1.0964
10992,15.427,1.2727,0.05,8.4087e-07,8.4029,6.4568e-07,4.8514,1.8609e-12,2.6731e-06,-6.4569e-07,-4.8514,1.1076
10993,15.427,1,0,0.00019462,1944.8,6.7716e-05,41.947,6.2135e-05,0.0087102,-0.00019387,-1923.5,1.1069
10994,15.335,1.0909,0,0.00019715,1970.1,6.8558e-05,42.014,6.2967e-05,0.0094186,-0.0001964,-1948.8,1.0959
10995,15.427,1.0909,0.05,8.5199e-07,8.514,6.5422e-07,4.9156,1.8751e-12,2.9483e-06,-6.5422e-07,-4.9156,1.1072
10996,15.427,0.81818,0,0.00019408,1939.4,6.7193e-05,37.783,6.2165e-05,0.0038086,-0.00019341,-1920.3,1.1064
10997,15.335,0.90909,0,0.00019667,1965.3,6.8106e-05,38.466,6.2987e-05,0.0062676,-0.00019599,-1945.8,1.0954
10998,15.427,0.90909,0.05,8.6208e-07,8.6148,6.6197e-07,4.9737,9.9158e-13,2.5145e-06,-6.6197e-07,-4.9738,1.1067
10999,15.427,0.63636,0,0.00019351,1933.8,6.659e-05,32.773,6.2228e-05,-0.0016913,-0.00019293,-1917.2,1.1058
11000,15.335,0.72727,0,0.00019616,1960.3,6.7577e-05,34.122,6.3036e-05,-0.00032847,-0.00019556,-1943,1.0949
11001,15.427,0.72727,0.05,8.7062e-07,8.7002,6.6853e-07,5.023,9.6972e-13,2.3003e-06,-6.6853e-07,-5.0231,1.1061
11002,15.427,0.45455,0,0.00019294,1928,6.5921e-05,26.996,6.2325e-05,-0.024957,-0.00019246,-1914.4,1.1052
11003,15.335,0.54545,0,0.00019563,1955,6.6979e-05,29.021,6.3116e-05,-0.0047683,-0.00019512,-1940.3,1.0943
11004,15.427,0.54545,0.05,8.7496e-07,8.7435,6.7186e-07,5.0481,1.8603e-12,1.1579e-06,-6.7186e-07,-5.0481,1.1055
11005,15.427,0.27273,0,0.00019246,1923.2,6.5271e-05,21.085,6.246e-05,-0.035202,-0.00019209,-1912.6,1.1046
11006,15.335,0.36364,0,0.00019511,1949.8,6.6331e-05,23.283,6.3226e-05,-0.044944,-0.00019471,-1938,1.0936
11007,15.427,0.36364,0.05,8.3965e-07,8.3907,6.4474e-07,4.8444,1.7396e-12,1.4092e-06,-6.4475e-07,-4.8444,1.1049
11008,15.335,0.18182,0,0.00019478,1946.5,6.5792e-05,18.13,6.3377e-05,-0.016387,-0.00019447,-1937.4,1.093
11009,15.427,0.18182,0.05,2.4494e-07,2.4477,1.8808e-07,1.4132,4.0792e-13,-1.4631e-05,-1.8808e-07,-1.4132,1.1042
11010,15.427,0.090909,0,0.00019147,1913.4,6.4142e-05,11.452,6.2617e-05,-0.0082293,-0.00019128,-1907.7,1.1039
11011,15.243,5.7273,0,0.00019742,1972.8,6.6837e-05,20.218,6.4142e-05,-0.031061,-0.00019707,-1962.7,1.0821
11012,15.151,5.8182,0,0.00019977,1996.3,6.7406e-05,17.747,6.5042e-05,-0.012516,-0.00019946,-1987.4,1.0705
11013,15.243,5.8182,0.05,2.1091e-07,2.1077,1.6196e-07,1.2169,-6.0443e-13,1.7598e-05,-1.6195e-07,-1.2168,1.0817
11014,15.243,5.9091,0,0.0001965,1963.6,6.5787e-05,11.282,6.4284e-05,-0.0080357,-0.0001963,-1958,1.0813
11015,15.243,5.5455,0,0.0001978,1976.7,6.7384e-05,25.272,6.4017e-05,-0.023274,-0.00019736,-1963.9,1.0827
11016,15.151,5.6364,0,0.0002,1998.7,6.784e-05,22.019,6.4904e-05,-0.040814,-0.00019962,-1987.6,1.0712
11017,15.243,5.6364,0.05,8.2599e-07,8.2542,6.3426e-07,4.7656,-9.6348e-13,2.1791e-06,-6.3426e-07,-4.7655,1.0824
11018,15.243,5.3636,0,0.00019828,1981.4,6.7962e-05,30.342,6.3923e-05,-0.0025348,-0.00019775,-1966.1,1.0833
11019,15.151,5.4545,0,0.00020044,2003,6.8398e-05,27.029,6.48e-05,-0.005275,-0.00019996,-1989.3,1.0718
11020,15.243,5.4545,0.05,8.6384e-07,8.6324,6.6332e-07,4.984,-3.7125e-12,2.3876e-06,-6.6332e-07,-4.9839,1.083
11021,15.243,5.1818,0,0.00019875,1986.1,6.8487e-05,34.781,6.3858e-05,0.0026086,-0.00019814,-1968.5,1.0839
11022,15.151,5.2727,0,0.00020087,2007.4,6.8917e-05,31.526,6.4721e-05,-0.0011493,-0.00020032,-1991.4,1.0724
11023,15.243,5.2727,0.05,8.6121e-07,8.6061,6.613e-07,4.9688,-1.0652e-12,-5.6858e-07,-6.613e-07,-4.9687,1.0836
11024,15.243,5,0,0.0001992,1990.6,6.8944e-05,38.513,6.382e-05,0.0072503,-0.00019852,-1971.1,1.0844
11025,15.151,5.0909,0,0.0002013,2011.6,6.9378e-05,35.393,6.4668e-05,0.0049763,-0.00020067,-1993.7,1.073
11026,15.243,5.0909,0.05,8.5461e-07,8.5402,6.5624e-07,4.9307,-1.9701e-12,-1.8132e-06,-6.5624e-07,-4.9307,1.0842
11027,15.243,4.8182,0,0.00019961,1994.8,6.9331e-05,41.52,6.3806e-05,0.0097973,-0.00019887,-1973.7,1.0849
11028,15.151,4.9091,0,0.00020169,2015.6,6.9774e-05,38.592,6.4639e-05,0.0080444,-0.00020101,-1996,1.0735
11029,15.243,4.9091,0.05,8.4673e-07,8.4614,6.5018e-07,4.8852,-2.8417e-12,-3.3949e-06,-6.5018e-07,-4.8852,1.0847
11030,15.243,4.6364,0,0.00019999,1998.5,6.9645e-05,43.824,6.3814e-05,0.011347,-0.0001992,-1976.2,1.0854
11031,15.151,4.7273,0,0.00020206,2019.2,7.0104e-05,41.126,6.4632e-05,0.010131,-0.00020132,-1998.3,1.074
11032,15.243,4.7273,0.05,8.38e-07,8.3742,6.4348e-07,4.8349,-3.7258e-12,-4.5701e-06,-6.4348e-07,-4.8348,1.0851
11033,15.243,4.4545,0,0.00020031,2001.7,6.989e-05,45.479,6.3838e-05,0.012091,-0.0001995,-1978.6,1.0858
11034,15.151,4.5455,0,0.00020238,2022.4,7.0367e-05,43.03,6.4642e-05,0.011256,-0.00020161,-2000.5,1.0744
11035,15.243,4.5455,0.05,8.2876e-07,8.2819,6.3639e-07,4.7816,-3.6878e-12,-3.7578e-06,-6.3638e-07,-4.7815,1.0856
11036,15.243,4.2727,0,0.00020059,2004.5,7.0072e-05,46.567,6.3876e-05,0.012314,-0.00019976,-1980.8,1.0861
11037,15.151,4.3636,0,0.00020265,2025.1,7.0569e-05,44.364,6.4666e-05,0.011773,-0.00020186,-2002.6,1.0748
11038,15.243,4.3636,0.05,8.1934e-07,8.1877,6.2915e-07,4.7272,-2.7403e-12,-5.3316e-06,-6.2915e-07,-4.7272,1.0859
11039,15.243,4.0909,0,0.00020082,2006.8,7.02e-05,47.185,6.3921e-05,0.012197,-0.00019998,-1982.8,1.0864
11040,15.151,4.1818,0,0.00020288,2027.4,7.0716e-05,45.211,6.4701e-05,0.011867,-0.00020208,-2004.4,1.0751
11041,15.243,4.1818,0.05,8.1007e-07,8.0951,6.2203e-07,4.6737,-2.7057e-12,-6.0282e-06,-6.2203e-07,-4.6737,1.0862
11042,15.243,3.9091,0,0.00020101,2008.7,7.0283e-05,47.446,6.397e-05,0.011891,-0.00020016,-1984.5,1.0867
11043,15.151,4,0,0.00020307,2029.3,7.0817e-05,45.669,6.474e-05,0.011701,-0.00020226,-2006.1,1.0754
11044,15.243,4,0.05,8.0129e-07,8.0074,6.1529e-07,4.6231,-3.5901e-12,-5.8532e-06,-6.1529e-07,-4.623,1.0865
11045,15.243,3.7273,0,0.00020115,2010.1,7.0332e-05,47.463,6.4016e-05,0.011512,-0.0002003,-1986,1.0869
11046,15.151,3.8182,0,0.00020322,2030.8,7.0881e-05,45.841,6.4781e-05,0.0114,-0.0002024,-2007.5,1.0756
11047,15.243,3.8182,0.05,7.9333e-07,7.9278,6.0918e-07,4.5772,-1.764e-12,-4.373e-06,-6.0918e-07,-4.5771,1.0868
11048,15.243,3.5455,0,0.00020126,2011.2,7.0357e-05,47.345,6.4057e-05,0.011147,-0.00020041,-1987.1,1.087
11049,15.151,3.6364,0,0.00020334,2032,7.0917e-05,45.829,6.4819e-05,0.011063,-0.00020252,-2008.7,1.0758
11050,15.243,3.6364,0.05,7.8651e-07,7.8597,6.0394e-07,4.5378,-8.5528e-13,-3.895e-06,-6.0394e-07,-4.5378,1.0869
11051,15.243,3.3636,0,0.00020133,2011.9,7.0368e-05,47.187,6.4089e-05,0.010852,-0.00020049,-1987.9,1.0872
11052,15.151,3.4545,0,0.00020342,2032.8,7.0935e-05,45.728,6.4851e-05,0.010758,-0.0002026,-2009.5,1.0759
11053,15.243,3.4545,0.05,7.8111e-07,7.8057,5.9979e-07,4.5066,-8.6568e-13,-3.4916e-06,-5.9979e-07,-4.5066,1.0871
11054,15.243,3.1818,0,0.00020137,2012.4,7.0372e-05,47.061,6.411e-05,0.010663,-0.00020053,-1988.4,1.0872
11055,15.151,3.2727,0,0.00020347,2033.3,7.0943e-05,45.614,6.4874e-05,0.010532,-0.00020265,-2010.1,1.076
11056,15.243,3.2727,0.05,7.7736e-07,7.7683,5.9692e-07,4.485,-1.7918e-12,-4.0851e-06,-5.9692e-07,-4.485,1.0872
11057,15.243,3,0,0.00020139,2012.5,7.0372e-05,47.013,6.4117e-05,0.010598,-0.00020055,-1988.6,1.0872
11058,15.151,3.0909,0,0.00020349,2033.5,7.0945e-05,45.543,6.4885e-05,0.010412,-0.00020268,-2010.4,1.0761
11059,15.243,3.0909,0.05,7.7545e-07,7.7491,5.9545e-07,4.474,-2.7195e-12,-2.7936e-06,-5.9545e-07,-4.4739,1.0872
11060,15.243,2.8182,0,0.00020137,2012.4,7.0372e-05,47.061,6.411e-05,0.010663,-0.00020053,-1988.4,1.0872
11061,15.151,2.9091,0,0.00020349,2033.5,7.0945e-05,45.543,6.4885e-05,0.010412,-0.00020268,-2010.4,1.0761
11062,15.243,2.9091,0.05,7.7545e-07,7.7491,5.9545e-07,4.474,-2.737e-12,-1.494e-06,-5.9545e-07,-4.4739,1.0872
11063,15.243,2.6364,0,0.00020133,2011.9,7.0368e-05,47.187,6.4089e-05,0.010853,-0.00020049,-1987.9,1.0872
11064,15.151,2.7273,0,0.00020347,2033.3,7.0943e-05,45.614,6.4874e-05,0.010532,-0.00020265,-2010.1,1.076
11065,15.243,2.7273,0.05,7.7736e-07,7.7683,5.9692e-07,4.485,-9.325e-13,-1.1316e-06,-5.9692e-07,-4.485,1.0872
11066,15.243,2.4545,0,0.00020126,2011.2,7.0357e-05,47.345,6.4057e-05,0.011148,-0.00020041,-1987.1,1.087
11067,15.151,2.5455,0,0.00020342,2032.8,7.0935e-05,45.728,6.4851e-05,0.010759,-0.0002026,-2009.5,1.0759
11068,15.243,2.5455,0.05,7.8111e-07,7.8057,5.9979e-07,4.5066,-9.4253e-13,-2.4861e-07,-5.9979e-07,-4.5066,1.0871
11069,15.243,2.2727,0,0.00020115,2010.1,7.0332e-05,47.463,6.4016e-05,0.011512,-0.0002003,-1986,1.0869
11070,15.151,2.3636,0,0.00020334,2032,7.0917e-05,45.829,6.4819e-05,0.011063,-0.00020252,-2008.7,1.0758
11071,15.243,2.3636,0.05,7.8651e-07,7.8597,6.0394e-07,4.5378,-9.4584e-13,-2.8318e-07,-6.0394e-07,-4.5378,1.0869
11072,15.243,2.0909,0,0.00020101,2008.7,7.0283e-05,47.446,6.397e-05,0.011891,-0.00020016,-1984.5,1.0867
11073,15.151,2.1818,0,0.00020322,2030.8,7.0881e-05,45.84,6.4781e-05,0.011401,-0.0002024,-2007.5,1.0756
11074,15.243,2.1818,0.05,7.9333e-07,7.9278,6.0918e-07,4.5771,-3.3761e-14,1.9633e-07,-6.0918e-07,-4.5771,1.0868
11075,15.243,1.9091,0,0.00020082,2006.8,7.02e-05,47.185,6.3921e-05,0.012197,-0.00019998,-1982.8,1.0864
11076,15.151,2,0,0.00020307,2029.3,7.0817e-05,45.669,6.474e-05,0.011702,-0.00020226,-2006.1,1.0754
11077,15.243,2,0.05,8.0129e-07,8.0074,6.1529e-07,4.6231,-2.6988e-14,-2.0581e-07,-6.1529e-07,-4.6231,1.0865
11078,15.243,1.7273,0,0.00020059,2004.5,7.0072e-05,46.567,6.3876e-05,0.012314,-0.00019976,-1980.8,1.0861
11079,15.151,1.8182,0,0.00020288,2027.4,7.0716e-05,45.211,6.4701e-05,0.011867,-0.00020208,-2004.4,1.0751
11080,15.243,1.8182,0.05,8.1007e-07,8.0951,6.2203e-07,4.6737,-1.3462e-14,8.565e-07,-6.2203e-07,-4.6737,1.0862
11081,15.243,1.5455,0,0.00020031,2001.7,6.989e-05,45.479,6.3838e-05,0.012092,-0.0001995,-1978.6,1.0858
11082,15.151,1.6364,0,0.00020265,2025.1,7.0569e-05,44.364,6.4666e-05,0.011774,-0.00020186,-2002.6,1.0748
11083,15.243,1.6364,0.05,8.1934e-07,8.1877,6.2915e-07,4.7272,6.2778e-15,2.4316e-06,-6.2915e-07,-4.7272,1.0859
11084,15.243,1.3636,0,0.00019999,1998.5,6.9645e-05,43.824,6.3814e-05,0.011347,-0.0001992,-1976.2,1.0854
11085,15.151,1.4545,0,0.00020238,2022.4,7.0367e-05,43.03,6.4642e-05,0.011256,-0.00020161,-2000.5,1.0744
11086,15.243,1.4545,0.05,8.2876e-07,8.2819,6.3638e-07,4.7815,2.6752e-14,2.1086e-06,-6.3639e-07,-4.7815,1.0856
11087,15.243,1.1818,0,0.00019961,1994.8,6.9331e-05,41.52,6.3806e-05,0.0097979,-0.00019887,-1973.7,1.0849
11088,15.151,1.2727,0,0.00020206,2019.2,7.0104e-05,41.126,6.4632e-05,0.010132,-0.00020132,-1998.3,1.074
11089,15.243,1.2727,0.05,8.38e-07,8.3742,6.4348e-07,4.8348,9.6722e-13,3.2881e-06,-6.4348e-07,-4.8349,1.0851
11090,15.243,1,0,0.0001992,1990.6,6.8944e-05,38.513,6.382e-05,0.0072515,-0.00019852,-1971.1,1.0844
11091,15.151,1.0909,0,0.00020169,2015.6,6.9774e-05,38.592,6.4639e-05,0.008045,-0.00020101,-1996,1.0735
11092,15.243,1.0909,0.05,8.4673e-07,8.4614,6.5018e-07,4.8852,9.731e-13,2.8995e-06,-6.5018e-07,-4.8852,1.0847
11093,15.243,0.81818,0,0.00019875,1986.1,6.8487e-05,34.781,6.3858e-05,0.0026092,-0.00019814,-1968.5,1.0839
11094,15.151,0.90909,0,0.0002013,2011.6,6.9378e-05,35.393,6.4668e-05,0.0049777,-0.00020067,-1993.7,1.073
11095,15.243,0.90909,0.05,8.5461e-07,8.5402,6.5624e-07,4.9307,9.7917e-13,2.5594e-06,-6.5624e-07,-4.9307,1.0842
11096,15.243,0.63636,0,0.00019828,1981.4,6.7962e-05,30.342,6.3923e-05,-0.0025346,-0.00019775,-1966.1,1.0833
11097,15.151,0.72727,0,0.00020087,2007.4,6.8917e-05,31.526,6.4721e-05,-0.0011482,-0.00020032,-1991.4,1.0724
11098,15.243,0.72727,0.05,8.6121e-07,8.6061,6.613e-07,4.9687,6.0675e-14,1.0655e-06,-6.613e-07,-4.9688,1.0836
11099,15.243,0.45455,0,0.0001978,1976.7,6.7384e-05,25.272,6.4017e-05,-0.023274,-0.00019736,-1963.9,1.0827
11100,15.151,0.54545,0,0.00020044,2003,6.8398e-05,27.029,6.48e-05,-0.0052742,-0.00019996,-1989.3,1.0718
11101,15.243,0.54545,0.05,8.6384e-07,8.6324,6.6332e-07,4.9839,5.2216e-14,-6.9749e-07,-6.6332e-07,-4.9839,1.083
11102,15.243,0.27273,0,0.00019742,1972.8,6.6837e-05,20.218,6.4142e-05,-0.03106,-0.00019707,-1962.7,1.0821
11103,15.151,0.36364,0,0.0002,1998.7,6.784e-05,22.019,6.4904e-05,-0.040814,-0.00019962,-1987.6,1.0712
11104,15.243,0.36364,0.05,8.2599e-07,8.2542,6.3426e-07,4.7656,9.5365e-13,2.4218e-06,-6.3426e-07,-4.7656,1.0824
11105,15.151,0.18182,0,0.00019977,1996.3,6.7406e-05,17.747,6.5042e-05,-0.012515,-0.00019946,-1987.4,1.0705
11106,15.243,0.18182,0.05,2.1091e-07,2.1077,1.6195e-07,1.2168,4.0185e-13,-1.1717e-05,-1.6196e-07,-1.2169,1.0817
11107,15.243,0.090909,0,0.0001965,1963.6,6.5787e-05,11.282,6.4284e-05,-0.0080336,-0.0001963,-1958,1.0813
11108,15.06,5.7273,0,0.00020233,2021.9,6.8394e-05,19.439,6.5803e-05,-0.027445,-0.000202,-2012.2,1.0597
11109,14.968,5.8182,0,0.0002047,2045.6,6.9004e-05,17.391,6.6688e-05,-0.0095077,-0.0002044,-2036.9,1.0482
11110,15.06,5.8182,0.05,1.8225e-07,1.8212,1.3995e-07,1.0515,3.4855e-13,2.7924e-05,-1.3994e-07,-1.0515,1.0593
11111,15.06,5.9091,0,0.00020147,2013.3,6.7412e-05,11.12,6.5931e-05,-0.0077647,-0.00020127,-2007.7,1.0589
11112,15.06,5.5455,0,0.00020263,2024.9,6.8849e-05,23.741,6.5687e-05,-0.021654,-0.00020222,-2012.9,1.0603
11113,14.968,5.6364,0,0.00020486,2047.2,6.9348e-05,20.891,6.6562e-05,-0.037105,-0.00020449,-2036.7,1.0489
11114,15.06,5.6364,0.05,8.1553e-07,8.1497,6.2623e-07,4.7053,-2.7892e-12,2.6381e-06,-6.2623e-07,-4.7052,1.06
11115,15.06,5.3636,0,0.00020303,2028.9,6.9349e-05,28.185,6.5597e-05,-0.0031513,-0.00020253,-2014.6,1.061
11116,14.968,5.4545,0,0.00020521,2050.7,6.9827e-05,25.258,6.6465e-05,-0.0056084,-0.00020477,-2038,1.0495
11117,15.06,5.4545,0.05,8.555e-07,8.5491,6.5692e-07,4.9358,-2.7713e-12,3.0381e-06,-6.5691e-07,-4.9358,1.0606
11118,15.06,5.1818,0,0.00020342,2032.8,6.9805e-05,32.113,6.5531e-05,0.001637,-0.00020285,-2016.5,1.0616
11119,14.968,5.2727,0,0.00020558,2054.3,7.0276e-05,29.216,6.6388e-05,-0.0017969,-0.00020506,-2039.6,1.0501
11120,15.06,5.2727,0.05,8.5423e-07,8.5364,6.5594e-07,4.9285,-3.7747e-12,-1.1129e-07,-6.5594e-07,-4.9285,1.0612
11121,15.06,5,0,0.00020379,2036.5,7.0205e-05,35.451,6.5487e-05,0.0060174,-0.00020316,-2018.5,1.0621
11122,14.968,5.0909,0,0.00020593,2057.9,7.0678e-05,32.652,6.6332e-05,0.0038828,-0.00020535,-2041.3,1.0507
11123,15.06,5.0909,0.05,8.4919e-07,8.486,6.5207e-07,4.8994,-2.8488e-12,-1.3437e-06,-6.5207e-07,-4.8994,1.0618
11124,15.06,4.8182,0,0.00020413,2039.9,7.0545e-05,38.179,6.5465e-05,0.0085259,-0.00020346,-2020.6,1.0626
11125,14.968,4.9091,0,0.00020626,2061.1,7.1025e-05,35.529,6.6297e-05,0.0068491,-0.00020563,-2043.1,1.0512
11126,15.06,4.9091,0.05,8.4306e-07,8.4248,6.4737e-07,4.8641,-2.8344e-12,-2.7532e-06,-6.4736e-07,-4.864,1.0623
11127,15.06,4.6364,0,0.00020444,2043,7.0824e-05,40.314,6.546e-05,0.010126,-0.00020373,-2022.5,1.063
11128,14.968,4.7273,0,0.00020655,2064.1,7.1316e-05,37.846,6.628e-05,0.0089299,-0.00020588,-2044.9,1.0517
11129,15.06,4.7273,0.05,8.3624e-07,8.3566,6.4213e-07,4.8247,-2.8129e-12,-4.5816e-06,-6.4212e-07,-4.8247,1.0628
11130,15.06,4.4545,0,0.00020471,2045.7,7.1044e-05,41.896,6.547e-05,0.010984,-0.00020397,-2024.4,1.0634
11131,14.968,4.5455,0,0.00020682,2066.8,7.1552e-05,39.628,6.6279e-05,0.010132,-0.00020612,-2046.7,1.0521
11132,15.06,4.5455,0.05,8.2901e-07,8.2843,6.3658e-07,4.783,-2.7951e-12,-2.3693e-06,-6.3657e-07,-4.7829,1.0632
11133,15.06,4.2727,0,0.00020494,2048,7.1211e-05,42.991,6.5491e-05,0.011348,-0.00020418,-2026.2,1.0638
11134,14.968,4.3636,0,0.00020705,2069,7.1735e-05,40.924,6.6289e-05,0.010767,-0.00020632,-2048.3,1.0525
11135,15.06,4.3636,0.05,8.2162e-07,8.2106,6.3091e-07,4.7404,-2.7595e-12,-5.0298e-06,-6.309e-07,-4.7403,1.0636
11136,15.06,4.0909,0,0.00020513,2049.9,7.1331e-05,43.677,6.552e-05,0.011377,-0.00020435,-2027.7,1.0641
11137,14.968,4.1818,0,0.00020724,2071,7.1871e-05,41.799,6.6309e-05,0.010997,-0.0002065,-2049.7,1.0528
11138,15.06,4.1818,0.05,8.1436e-07,8.138,6.2533e-07,4.6985,-2.7343e-12,-5.7652e-06,-6.2533e-07,-4.6985,1.0639
11139,15.06,3.9091,0,0.00020529,2051.4,7.1412e-05,44.046,6.5552e-05,0.011208,-0.0002045,-2029.1,1.0644
11140,14.968,4,0,0.0002074,2072.5,7.1966e-05,42.333,6.6334e-05,0.010968,-0.00020664,-2051,1.0531
11141,15.06,4,0.05,8.075e-07,8.0694,6.2006e-07,4.6589,-2.7144e-12,-5.1376e-06,-6.2006e-07,-4.6588,1.0642
11142,15.06,3.7273,0,0.0002054,2052.6,7.1464e-05,44.189,6.5584e-05,0.010945,-0.00020462,-2030.2,1.0646
11143,14.968,3.8182,0,0.00020752,2073.8,7.203e-05,42.608,6.6361e-05,0.010791,-0.00020676,-2052.1,1.0534
11144,15.06,3.8182,0.05,8.0128e-07,8.0073,6.1529e-07,4.623,-2.7029e-12,-4.1029e-06,-6.1528e-07,-4.623,1.0644
11145,15.06,3.5455,0,0.00020549,2053.5,7.1493e-05,44.194,6.5612e-05,0.010669,-0.0002047,-2031,1.0647
11146,14.968,3.6364,0,0.00020761,2074.7,7.2069e-05,42.708,6.6386e-05,0.010554,-0.00020685,-2053,1.0535
11147,15.06,3.6364,0.05,7.9596e-07,7.9541,6.112e-07,4.5923,-3.6094e-12,-3.5924e-06,-6.112e-07,-4.5923,1.0646
11148,15.06,3.3636,0,0.00020555,2054.1,7.1508e-05,44.138,6.5635e-05,0.010435,-0.00020477,-2031.7,1.0648
11149,14.968,3.4545,0,0.00020768,2075.4,7.2091e-05,42.708,6.6408e-05,0.010325,-0.00020692,-2053.7,1.0537
11150,15.06,3.4545,0.05,7.9176e-07,7.9121,6.0798e-07,4.5681,-2.703e-12,-3.1523e-06,-6.0797e-07,-4.568,1.0648
11151,15.06,3.1818,0,0.00020559,2054.4,7.1514e-05,44.079,6.5649e-05,0.01028,-0.0002048,-2032,1.0649
11152,14.968,3.2727,0,0.00020772,2075.8,7.2102e-05,42.671,6.6424e-05,0.010147,-0.00020696,-2054.1,1.0538
11153,15.06,3.2727,0.05,7.8885e-07,7.8831,6.0574e-07,4.5513,-1.803e-12,-3.6923e-06,-6.0574e-07,-4.5513,1.0649
11154,15.06,3,0,0.0002056,2054.6,7.1516e-05,44.055,6.5654e-05,0.010226,-0.00020481,-2032.2,1.0649
11155,14.968,3.0909,0,0.00020774,2076,7.2106e-05,42.641,6.6433e-05,0.010051,-0.00020698,-2054.3,1.0538
11156,15.06,3.0909,0.05,7.8736e-07,7.8682,6.046e-07,4.5427,-1.8136e-12,-2.3434e-06,-6.046e-07,-4.5427,1.0649
11157,15.06,2.8182,0,0.00020559,2054.4,7.1514e-05,44.079,6.5649e-05,0.01028,-0.0002048,-2032,1.0649
11158,14.968,2.9091,0,0.00020774,2076,7.2106e-05,42.641,6.6433e-05,0.010051,-0.00020698,-2054.3,1.0538
11159,15.06,2.9091,0.05,7.8736e-07,7.8682,6.046e-07,4.5427,-1.8242e-12,-1.469e-06,-6.046e-07,-4.5427,1.0649
11160,15.06,2.6364,0,0.00020555,2054.1,7.1508e-05,44.138,6.5635e-05,0.010435,-0.00020477,-2031.7,1.0648
11161,14.968,2.7273,0,0.00020772,2075.8,7.2102e-05,42.671,6.6424e-05,0.010147,-0.00020696,-2054.1,1.0538
11162,15.06,2.7273,0.05,7.8885e-07,7.8831,6.0574e-07,4.5513,-9.2336e-13,-5.8055e-07,-6.0574e-07,-4.5513,1.0649
11163,15.06,2.4545,0,0.00020549,2053.5,7.1493e-05,44.194,6.5612e-05,0.010669,-0.0002047,-2031,1.0647
11164,14.968,2.5455,0,0.00020768,2075.4,7.2091e-05,42.708,6.6408e-05,0.010324,-0.00020692,-2053.7,1.0537
11165,15.06,2.5455,0.05,7.9176e-07,7.9121,6.0797e-07,4.5681,-9.2878e-13,-1.0969e-06,-6.0797e-07,-4.5681,1.0648
11166,15.06,2.2727,0,0.0002054,2052.6,7.1464e-05,44.189,6.5584e-05,0.010946,-0.00020462,-2030.2,1.0646
11167,14.968,2.3636,0,0.00020761,2074.7,7.2069e-05,42.708,6.6386e-05,0.010554,-0.00020685,-2053,1.0535
11168,15.06,2.3636,0.05,7.9596e-07,7.9541,6.112e-07,4.5923,-2.0815e-14,-1.5357e-07,-6.112e-07,-4.5923,1.0646
11169,15.06,2.0909,0,0.00020529,2051.4,7.1412e-05,44.046,6.5552e-05,0.011209,-0.0002045,-2029.1,1.0644
11170,14.968,2.1818,0,0.00020752,2073.8,7.203e-05,42.608,6.6361e-05,0.010791,-0.00020676,-2052.1,1.0534
11171,15.06,2.1818,0.05,8.0128e-07,8.0073,6.1528e-07,4.623,-1.6794e-14,3.4875e-07,-6.1528e-07,-4.623,1.0644
11172,15.06,1.9091,0,0.00020513,2049.9,7.1331e-05,43.677,6.552e-05,0.011377,-0.00020435,-2027.7,1.0641
11173,14.968,2,0,0.0002074,2072.5,7.1966e-05,42.333,6.6334e-05,0.010968,-0.00020664,-2051,1.0531
11174,15.06,2,0.05,8.075e-07,8.0694,6.2006e-07,4.6589,-8.9051e-15,8.8942e-07,-6.2006e-07,-4.6589,1.0642
11175,15.06,1.7273,0,0.00020494,2048,7.1211e-05,42.991,6.5491e-05,0.011347,-0.00020418,-2026.2,1.0638
11176,14.968,1.8182,0,0.00020724,2071,7.1871e-05,41.799,6.6309e-05,0.010998,-0.0002065,-2049.7,1.0528
11177,15.06,1.8182,0.05,8.1436e-07,8.138,6.2533e-07,4.6985,9.1288e-13,1.4562e-06,-6.2533e-07,-4.6985,1.0639
11178,15.06,1.5455,0,0.00020471,2045.7,7.1044e-05,41.896,6.547e-05,0.010984,-0.00020397,-2024.4,1.0634
11179,14.968,1.6364,0,0.00020705,2069,7.1735e-05,40.924,6.6289e-05,0.010768,-0.00020632,-2048.3,1.0525
11180,15.06,1.6364,0.05,8.2162e-07,8.2106,6.3091e-07,4.7404,9.2729e-13,1.5636e-06,-6.3091e-07,-4.7404,1.0636
11181,15.06,1.3636,0,0.00020444,2043,7.0824e-05,40.314,6.546e-05,0.010126,-0.00020373,-2022.5,1.063
11182,14.968,1.4545,0,0.00020682,2066.8,7.1552e-05,39.628,6.6279e-05,0.010132,-0.00020612,-2046.7,1.0521
11183,15.06,1.4545,0.05,8.2901e-07,8.2843,6.3657e-07,4.7829,9.4207e-13,1.2486e-06,-6.3657e-07,-4.783,1.0632
11184,15.06,1.1818,0,0.00020413,2039.9,7.0545e-05,38.179,6.5465e-05,0.0085264,-0.00020346,-2020.6,1.0626
11185,14.968,1.2727,0,0.00020655,2064.1,7.1316e-05,37.846,6.628e-05,0.0089306,-0.00020588,-2044.9,1.0517
11186,15.06,1.2727,0.05,8.3624e-07,8.3566,6.4213e-07,4.8247,9.6691e-13,2.3381e-06,-6.4213e-07,-4.8247,1.0628
11187,15.06,1,0,0.00020379,2036.5,7.0205e-05,35.45,6.5487e-05,0.0060183,-0.00020316,-2018.5,1.0621
11188,14.968,1.0909,0,0.00020626,2061.1,7.1025e-05,35.529,6.6297e-05,0.0068497,-0.00020563,-2043.1,1.0512
11189,15.06,1.0909,0.05,8.4306e-07,8.4248,6.4736e-07,4.864,9.6802e-13,2.3816e-06,-6.4736e-07,-4.8641,1.0623
11190,15.06,0.81818,0,0.00020342,2032.8,6.9805e-05,32.113,6.5531e-05,0.0016389,-0.00020285,-2016.5,1.0616
11191,14.968,0.90909,0,0.00020593,2057.9,7.0678e-05,32.652,6.6332e-05,0.0038839,-0.00020535,-2041.3,1.0507
11192,15.06,0.90909,0.05,8.4919e-07,8.486,6.5207e-07,4.8994,1.9085e-12,2.4882e-06,-6.5207e-07,-4.8994,1.0618
11193,15.06,0.63636,0,0.00020303,2028.9,6.9349e-05,28.185,6.5597e-05,-0.0031498,-0.00020253,-2014.6,1.061
11194,14.968,0.72727,0,0.00020558,2054.3,7.0276e-05,29.216,6.6388e-05,-0.0017953,-0.00020506,-2039.6,1.0501
11195,15.06,0.72727,0.05,8.5423e-07,8.5364,6.5594e-07,4.9285,9.5949e-13,1.048e-06,-6.5594e-07,-4.9285,1.0612
11196,15.06,0.45455,0,0.00020263,2024.9,6.8849e-05,23.741,6.5687e-05,-0.021654,-0.00020222,-2012.9,1.0603
11197,14.968,0.54545,0,0.00020521,2050.7,6.9827e-05,25.258,6.6465e-05,-0.0056074,-0.00020477,-2038,1.0495
11198,15.06,0.54545,0.05,8.555e-07,8.5491,6.5691e-07,4.9358,1.8313e-12,-5.5512e-07,-6.5692e-07,-4.9358,1.0606
11199,15.06,0.27273,0,0.00020233,2021.9,6.8394e-05,19.439,6.5803e-05,-0.027445,-0.000202,-2012.2,1.0597
11200,14.968,0.36364,0,0.00020486,2047.2,6.9348e-05,20.891,6.6562e-05,-0.037105,-0.00020449,-2036.7,1.0489
11201,15.06,0.36364,0.05,8.1553e-07,8.1497,6.2623e-07,4.7052,1.7414e-12,6.5319e-07,-6.2623e-07,-4.7053,1.06
11202,14.968,0.18182,0,0.0002047,2045.6,6.9004e-05,17.391,6.6688e-05,-0.0095078,-0.0002044,-2036.9,1.0482
11203,15.06,0.18182,0.05,1.8225e-07,1.8212,1.3995e-07,1.0515,-1.8771e-14,-1.4207e-05,-1.3995e-07,-1.0515,1.0593
11204,15.06,0.090909,0,0.00020147,2013.3,6.7412e-05,11.12,6.5931e-05,-0.007765,-0.00020127,-2007.7,1.0589
11205,14.876,5.7273,0,0.00020721,2070.7,6.9944e-05,18.735,6.7447e-05,-0.024344,-0.00020689,-2061.3,1.0374
11206,14.784,5.8182,0,0.0002096,2094.6,7.0592e-05,17.054,6.8322e-05,-0.0071894,-0.00020931,-2086,1.026
11207,14.876,5.8182,0.05,1.5805e-07,1.5795,1.2137e-07,0.91194,-3.7551e-13,3.4561e-05,-1.2137e-07,-0.91186,1.037
11208,14.876,5.9091,0,0.00020639,2062.5,6.9024e-05,10.962,6.7564e-05,-0.0074847,-0.0002062,-2057,1.0367
11209,14.876,5.5455,0,0.00020743,2072.9,7.0321e-05,22.374,6.734e-05,-0.020158,-0.00020704,-2061.6,1.0381
11210,14.784,5.6364,0,0.00020968,2095.4,7.0856e-05,19.88,6.8206e-05,-0.033782,-0.00020934,-2085.4,1.0267
11211,14.876,5.6364,0.05,8.0767e-07,8.0711,6.2019e-07,4.6599,-1.7208e-12,3.6856e-06,-6.2018e-07,-4.6598,1.0377
11212,14.876,5.3636,0,0.00020776,2076.1,7.0751e-05,26.261,6.7255e-05,-0.0036426,-0.0002073,-2062.9,1.0387
11213,14.784,5.4545,0,0.00020997,2098.3,7.1267e-05,23.676,6.8115e-05,-0.0058096,-0.00020956,-2086.4,1.0273
11214,14.876,5.4545,0.05,8.494e-07,8.4882,6.5224e-07,4.9007,-9.6581e-13,3.2225e-06,-6.5224e-07,-4.9006,1.0384
11215,14.876,5.1818,0,0.00020808,2079.4,7.1146e-05,29.73,6.7189e-05,0.00081464,-0.00020756,-2064.4,1.0393
11216,14.784,5.2727,0,0.00021027,2101.3,7.1655e-05,27.151,6.8041e-05,-0.0023027,-0.0002098,-2087.6,1.028
11217,14.876,5.2727,0.05,8.4922e-07,8.4863,6.521e-07,4.8996,-2.8038e-12,8.6803e-08,-6.5209e-07,-4.8995,1.039
11218,14.876,5,0,0.00020839,2082.5,7.1495e-05,32.707,6.7143e-05,0.0049362,-0.00020781,-2065.9,1.0399
11219,14.784,5.0909,0,0.00021056,2104.2,7.2003e-05,30.195,6.7985e-05,0.0029584,-0.00021003,-2088.9,1.0285
11220,14.876,5.0909,0.05,8.4541e-07,8.4483,6.4917e-07,4.8777,-1.9267e-12,-9.9539e-07,-6.4917e-07,-4.8776,1.0396
11221,14.876,4.8182,0,0.00020867,2085.3,7.1794e-05,35.174,6.7113e-05,0.0073892,-0.00020805,-2067.5,1.0404
11222,14.784,4.9091,0,0.00021083,2106.9,7.2307e-05,32.773,6.7946e-05,0.0058127,-0.00021026,-2090.3,1.0291
11223,14.876,4.9091,0.05,8.4068e-07,8.401,6.4554e-07,4.8504,-1.9171e-12,-2.7007e-06,-6.4553e-07,-4.8503,1.0401
11224,14.876,4.6364,0,0.00020893,2087.8,7.2041e-05,37.14,6.7099e-05,0.0090179,-0.00020827,-2069,1.0408
11225,14.784,4.7273,0,0.00021108,2109.3,7.2563e-05,34.88,6.7922e-05,0.0078699,-0.00021046,-2091.7,1.0296
11226,14.876,4.7273,0.05,8.3538e-07,8.3481,6.4147e-07,4.8198,-1.9088e-12,-3.8645e-06,-6.4147e-07,-4.8197,1.0406
11227,14.876,4.4545,0,0.00020915,2090.1,7.2239e-05,38.636,6.7098e-05,0.0099628,-0.00020847,-2070.5,1.0412
11228,14.784,4.5455,0,0.0002113,2111.5,7.2773e-05,36.535,6.7912e-05,0.0091263,-0.00021065,-2093,1.03
11229,14.876,4.5455,0.05,8.2974e-07,8.2917,6.3714e-07,4.7873,-1.8931e-12,-3.4405e-06,-6.3714e-07,-4.7872,1.041
11230,14.876,4.2727,0,0.00020934,2092,7.2391e-05,39.714,6.7107e-05,0.010443,-0.00020864,-2071.8,1.0416
11231,14.784,4.3636,0,0.00021149,2113.4,7.2938e-05,37.775,6.7912e-05,0.009856,-0.00021082,-2094.3,1.0304
11232,14.876,4.3636,0.05,8.2398e-07,8.2341,6.3272e-07,4.754,-9.525e-13,-4.6229e-06,-6.3271e-07,-4.7539,1.0414
11233,14.876,4.0909,0,0.0002095,2093.5,7.2503e-05,40.436,6.7123e-05,0.0106,-0.00020878,-2073,1.0419
11234,14.784,4.1818,0,0.00021164,2115,7.3063e-05,38.652,6.792e-05,0.010201,-0.00021096,-2095.4,1.0307
11235,14.876,4.1818,0.05,8.1832e-07,8.1775,6.2836e-07,4.7213,-2.753e-12,-4.9427e-06,-6.2836e-07,-4.7213,1.0417
11236,14.876,3.9091,0,0.00020963,2094.8,7.2582e-05,40.877,6.7143e-05,0.010555,-0.0002089,-2074.1,1.0422
11237,14.784,4,0,0.00021177,2116.3,7.3154e-05,39.229,6.7934e-05,0.010292,-0.00021108,-2096.4,1.031
11238,14.876,4,0.05,8.1296e-07,8.1239,6.2425e-07,4.6904,-1.8247e-12,-4.8101e-06,-6.2425e-07,-4.6903,1.042
11239,14.876,3.7273,0,0.00020972,2095.8,7.2633e-05,41.109,6.7163e-05,0.010399,-0.00020899,-2074.9,1.0424
11240,14.784,3.8182,0,0.00021188,2117.3,7.3216e-05,39.574,6.795e-05,0.010236,-0.00021117,-2097.2,1.0313
11241,14.876,3.8182,0.05,8.0811e-07,8.0755,6.2053e-07,4.6624,-2.7219e-12,-4.2444e-06,-6.2053e-07,-4.6624,1.0423
11242,14.876,3.5455,0,0.0002098,2096.5,7.2665e-05,41.204,6.7182e-05,0.010209,-0.00020906,-2075.6,1.0426
11243,14.784,3.6364,0,0.00021195,2118.1,7.3256e-05,39.753,6.7967e-05,0.010084,-0.00021125,-2097.9,1.0314
11244,14.876,3.6364,0.05,8.0397e-07,8.0341,6.1735e-07,4.6385,-8.9745e-13,-2.2939e-06,-6.1735e-07,-4.6385,1.0425
11245,14.876,3.3636,0,0.00020985,2097,7.2683e-05,41.223,6.7198e-05,0.010036,-0.00020911,-2076.1,1.0427
11246,14.784,3.4545,0,0.00021201,2118.6,7.328e-05,39.827,6.7981e-05,0.0099272,-0.0002113,-2098.4,1.0316
11247,14.876,3.4545,0.05,8.007e-07,8.0015,6.1484e-07,4.6197,-8.9757e-13,-2.7723e-06,-6.1484e-07,-4.6196,1.0426
11248,14.876,3.1818,0,0.00020987,2097.3,7.2692e-05,41.215,6.7208e-05,0.0099185,-0.00020914,-2076.4,1.0427
11249,14.784,3.2727,0,0.00021204,2119,7.3294e-05,39.846,6.7992e-05,0.0097984,-0.00021134,-2098.7,1.0317
11250,14.876,3.2727,0.05,7.9844e-07,7.9789,6.1311e-07,4.6067,-1.8104e-12,-3.2738e-06,-6.131e-07,-4.6066,1.0427
11251,14.876,3,0,0.00020988,2097.4,7.2694e-05,41.209,6.7211e-05,0.0098769,-0.00020915,-2076.5,1.0428
11252,14.784,3.0909,0,0.00021206,2119.1,7.3299e-05,39.846,6.7997e-05,0.0097273,-0.00021135,-2098.9,1.0317
11253,14.876,3.0909,0.05,7.9729e-07,7.9674,6.1222e-07,4.6,-9.0655e-13,-1.8854e-06,-6.1222e-07,-4.6,1.0427
11254,14.876,2.8182,0,0.00020987,2097.3,7.2692e-05,41.215,6.7208e-05,0.0099184,-0.00020914,-2076.4,1.0427
11255,14.784,2.9091,0,0.00021206,2119.1,7.3299e-05,39.846,6.7997e-05,0.0097271,-0.00021135,-2098.9,1.0317
11256,14.876,2.9091,0.05,7.9729e-07,7.9674,6.1222e-07,4.6,-9.1231e-13,-1.9286e-06,-6.1222e-07,-4.6,1.0427
11257,14.876,2.6364,0,0.00020985,2097,7.2683e-05,41.223,6.7198e-05,0.010036,-0.00020911,-2076.1,1.0427
11258,14.784,2.7273,0,0.00021204,2119,7.3294e-05,39.846,6.7992e-05,0.0097989,-0.00021134,-2098.7,1.0317
11259,14.876,2.7273,0.05,7.9844e-07,7.9789,6.1311e-07,4.6067,-9.169e-13,-5.3242e-07,-6.131e-07,-4.6066,1.0427
11260,14.876,2.4545,0,0.0002098,2096.5,7.2665e-05,41.204,6.7182e-05,0.010209,-0.00020906,-2075.6,1.0426
11261,14.784,2.5455,0,0.00021201,2118.6,7.328e-05,39.827,6.7981e-05,0.0099268,-0.0002113,-2098.4,1.0316
11262,14.876,2.5455,0.05,8.007e-07,8.0015,6.1484e-07,4.6197,-9.1902e-13,-5.475e-07,-6.1484e-07,-4.6197,1.0426
11263,14.876,2.2727,0,0.00020972,2095.8,7.2633e-05,41.109,6.7163e-05,0.010399,-0.00020899,-2074.9,1.0424
11264,14.784,2.3636,0,0.00021195,2118.1,7.3256e-05,39.753,6.7967e-05,0.010083,-0.00021125,-2097.9,1.0314
11265,14.876,2.3636,0.05,8.0397e-07,8.0341,6.1735e-07,4.6385,-7.9999e-15,4.1309e-07,-6.1735e-07,-4.6385,1.0425
11266,14.876,2.0909,0,0.00020963,2094.8,7.2582e-05,40.877,6.7143e-05,0.010554,-0.0002089,-2074.1,1.0422
11267,14.784,2.1818,0,0.00021188,2117.3,7.3216e-05,39.574,6.795e-05,0.010236,-0.00021117,-2097.2,1.0313
11268,14.876,2.1818,0.05,8.0811e-07,8.0755,6.2053e-07,4.6624,-4.2988e-15,-5.0819e-07,-6.2053e-07,-4.6624,1.0423
11269,14.876,1.9091,0,0.0002095,2093.5,7.2503e-05,40.436,6.7123e-05,0.0106,-0.00020878,-2073,1.0419
11270,14.784,2,0,0.00021177,2116.3,7.3154e-05,39.229,6.7934e-05,0.010292,-0.00021108,-2096.4,1.031
11271,14.876,2,0.05,8.1296e-07,8.1239,6.2425e-07,4.6903,3.795e-15,5.0281e-07,-6.2425e-07,-4.6904,1.042
11272,14.876,1.7273,0,0.00020934,2092,7.2391e-05,39.714,6.7107e-05,0.010444,-0.00020864,-2071.8,1.0416
11273,14.784,1.8182,0,0.00021164,2115,7.3063e-05,38.652,6.792e-05,0.010202,-0.00021096,-2095.4,1.0307
11274,14.876,1.8182,0.05,8.1832e-07,8.1775,6.2836e-07,4.7213,1.4556e-14,1.0623e-06,-6.2836e-07,-4.7213,1.0417
11275,14.876,1.5455,0,0.00020915,2090.1,7.2239e-05,38.636,6.7098e-05,0.0099634,-0.00020847,-2070.5,1.0412
11276,14.784,1.6364,0,0.00021149,2113.4,7.2938e-05,37.775,6.7912e-05,0.0098568,-0.00021082,-2094.3,1.0304
11277,14.876,1.6364,0.05,8.2398e-07,8.2341,6.3272e-07,4.754,9.3863e-13,1.6537e-06,-6.3272e-07,-4.754,1.0414
11278,14.876,1.3636,0,0.00020893,2087.8,7.2041e-05,37.14,6.7099e-05,0.0090183,-0.00020827,-2069,1.0408
11279,14.784,1.4545,0,0.0002113,2111.5,7.2773e-05,36.535,6.7912e-05,0.0091264,-0.00021065,-2093,1.03
11280,14.876,1.4545,0.05,8.2974e-07,8.2917,6.3714e-07,4.7872,9.5095e-13,1.7543e-06,-6.3714e-07,-4.7872,1.041
11281,14.876,1.1818,0,0.00020867,2085.3,7.1794e-05,35.174,6.7113e-05,0.00739,-0.00020805,-2067.5,1.0404
11282,14.784,1.2727,0,0.00021108,2109.3,7.2563e-05,34.88,6.7922e-05,0.0078706,-0.00021046,-2091.7,1.0296
11283,14.876,1.2727,0.05,8.3538e-07,8.3481,6.4147e-07,4.8197,9.6144e-13,1.8131e-06,-6.4147e-07,-4.8198,1.0406
11284,14.876,1,0,0.00020839,2082.5,7.1495e-05,32.707,6.7143e-05,0.0049369,-0.00020781,-2065.9,1.0399
11285,14.784,1.0909,0,0.00021083,2106.9,7.2307e-05,32.773,6.7946e-05,0.0058129,-0.00021026,-2090.3,1.0291
11286,14.876,1.0909,0.05,8.4068e-07,8.401,6.4554e-07,4.8503,9.8077e-13,2.6205e-06,-6.4554e-07,-4.8503,1.0401
11287,14.876,0.81818,0,0.00020808,2079.4,7.1146e-05,29.73,6.7189e-05,0.00081549,-0.00020756,-2064.4,1.0393
11288,14.784,0.90909,0,0.00021056,2104.2,7.2003e-05,30.195,6.7985e-05,0.0029599,-0.00021003,-2088.9,1.0285
11289,14.876,0.90909,0.05,8.4541e-07,8.4483,6.4917e-07,4.8776,9.8682e-13,2.0868e-06,-6.4917e-07,-4.8776,1.0396
11290,14.876,0.63636,0,0.00020776,2076.1,7.0751e-05,26.261,6.7255e-05,-0.0036427,-0.0002073,-2062.9,1.0387
11291,14.784,0.72727,0,0.00021027,2101.3,7.1655e-05,27.151,6.8041e-05,-0.0023019,-0.0002098,-2087.6,1.028
11292,14.876,0.72727,0.05,8.4922e-07,8.4863,6.5209e-07,4.8995,1.8849e-12,2.274e-06,-6.521e-07,-4.8996,1.039
11293,14.876,0.45455,0,0.00020743,2072.9,7.0321e-05,22.374,6.734e-05,-0.020158,-0.00020704,-2061.6,1.0381
11294,14.784,0.54545,0,0.00020997,2098.3,7.1267e-05,23.676,6.8115e-05,-0.0058091,-0.00020956,-2086.4,1.0273
11295,14.876,0.54545,0.05,8.494e-07,8.4882,6.5223e-07,4.9006,2.7848e-12,1.5855e-06,-6.5224e-07,-4.9007,1.0384
11296,14.876,0.27273,0,0.00020721,2070.7,6.9944e-05,18.735,6.7447e-05,-0.024345,-0.00020689,-2061.3,1.0374
11297,14.784,0.36364,0,0.00020968,2095.4,7.0856e-05,19.88,6.8206e-05,-0.033781,-0.00020934,-2085.4,1.0267
11298,14.876,0.36364,0.05,8.0767e-07,8.0711,6.2018e-07,4.6598,1.7535e-12,5.0659e-07,-6.2019e-07,-4.6599,1.0377
11299,14.784,0.18182,0,0.0002096,2094.6,7.0592e-05,17.054,6.8322e-05,-0.0071898,-0.00020931,-2086,1.026
11300,14.876,0.18182,0.05,1.5806e-07,1.5795,1.2136e-07,0.91188,5.8738e-13,-2.017e-05,-1.2137e-07,-0.91192,1.037
11301,14.876,0.090909,0,0.00020639,2062.5,6.9024e-05,10.962,6.7564e-05,-0.0074853,-0.0002062,-2057,1.0367
11302,14.692,5.7273,0,0.00021206,2119.1,7.1491e-05,18.092,6.908e-05,-0.02165,-0.00021175,-2110,1.0153
11303,14.6,5.8182,0,0.00021447,2143.3,7.2173e-05,16.734,6.9945e-05,-0.0054151,-0.00021418,-2134.8,1.0039
11304,14.692,5.8182,0.05,1.3759e-07,1.3749,1.0565e-07,0.79382,1.9109e-12,2.0884e-05,-1.0565e-07,-0.79378,1.0149
11305,14.692,5.9091,0,0.00021128,2111.3,7.0625e-05,10.807,6.9185e-05,-0.0071641,-0.00021109,-2105.9,1.0145
11306,14.692,5.5455,0,0.00021222,2120.7,7.1798e-05,21.148,6.8981e-05,-0.018742,-0.00021185,-2110.1,1.016
11307,14.6,5.6364,0,0.0002145,2143.5,7.2368e-05,18.966,6.9839e-05,-0.030803,-0.00021417,-2133.9,1.0046
11308,14.692,5.6364,0.05,8.019e-07,8.0134,6.1576e-07,4.6266,-9.3829e-13,2.3933e-06,-6.1575e-07,-4.6265,1.0156
11309,14.692,5.3636,0,0.00021248,2123.4,7.2167e-05,24.538,6.8901e-05,-0.0039559,-0.00021206,-2111,1.0166
11310,14.6,5.4545,0,0.00021473,2145.8,7.2717e-05,22.255,6.9754e-05,-0.0059074,-0.00021434,-2134.6,1.0053
11311,14.692,5.4545,0.05,8.4513e-07,8.4455,6.4896e-07,4.876,-9.8844e-13,3.8808e-06,-6.4895e-07,-4.876,1.0163
11312,14.692,5.1818,0,0.00021275,2126,7.2509e-05,27.591,6.8836e-05,0.00016044,-0.00021227,-2112.1,1.0172
11313,14.6,5.2727,0,0.00021497,2148.2,7.3051e-05,25.295,6.9684e-05,-0.0026909,-0.00021453,-2135.5,1.006
11314,14.692,5.2727,0.05,8.458e-07,8.4521,6.4947e-07,4.8799,-9.7652e-13,1.1924e-06,-6.4946e-07,-4.8798,1.0169
11315,14.692,5,0,0.000213,2128.6,7.2812e-05,30.238,6.8788e-05,0.0040338,-0.00021247,-2113.3,1.0178
11316,14.6,5.0909,0,0.00021521,2150.6,7.3352e-05,27.982,6.9628e-05,0.0021814,-0.00021472,-2136.5,1.0065
11317,14.692,5.0909,0.05,8.4297e-07,8.4238,6.473e-07,4.8636,-2.7905e-12,3.1279e-07,-6.4729e-07,-4.8635,1.0175
11318,14.692,4.8182,0,0.00021324,2130.9,7.3074e-05,32.457,6.8755e-05,0.0064191,-0.00021267,-2114.5,1.0183
11319,14.6,4.9091,0,0.00021543,2152.8,7.3617e-05,30.281,6.9587e-05,0.0049175,-0.0002149,-2137.5,1.0071
11320,14.692,4.9091,0.05,8.3934e-07,8.3876,6.4451e-07,4.8427,-2.8238e-12,-6.5627e-07,-6.4451e-07,-4.8425,1.018
11321,14.692,4.6364,0,0.00021345,2133,7.3292e-05,34.255,6.8735e-05,0.0080578,-0.00021284,-2115.7,1.0188
11322,14.6,4.7273,0,0.00021563,2154.8,7.3842e-05,32.185,6.9559e-05,0.0069389,-0.00021507,-2138.6,1.0076
11323,14.692,4.7273,0.05,8.3526e-07,8.3468,6.4138e-07,4.819,-3.7208e-12,-2.5714e-06,-6.4137e-07,-4.819,1.0185
11324,14.692,4.4545,0,0.00021363,2134.8,7.3469e-05,35.654,6.8725e-05,0.0090687,-0.000213,-2116.8,1.0192
11325,14.6,4.5455,0,0.00021581,2156.6,7.4027e-05,33.707,6.9542e-05,0.0082312,-0.00021522,-2139.6,1.008
11326,14.692,4.5455,0.05,8.3089e-07,8.3032,6.3802e-07,4.7939,-2.7971e-12,-1.2701e-06,-6.3802e-07,-4.7938,1.019
11327,14.692,4.2727,0,0.00021379,2136.4,7.3607e-05,36.694,6.8725e-05,0.0096439,-0.00021314,-2117.8,1.0196
11328,14.6,4.3636,0,0.00021597,2158.2,7.4176e-05,34.876,6.9535e-05,0.0090359,-0.00021535,-2140.5,1.0084
11329,14.692,4.3636,0.05,8.2641e-07,8.2584,6.3458e-07,4.7681,-9.5914e-13,-2.548e-06,-6.3458e-07,-4.768,1.0194
11330,14.692,4.0909,0,0.00021392,2137.7,7.3711e-05,37.426,6.8731e-05,0.0099044,-0.00021325,-2118.7,1.0199
11331,14.6,4.1818,0,0.0002161,2159.5,7.429e-05,35.733,6.9535e-05,0.0094769,-0.00021547,-2141.4,1.0087
11332,14.692,4.1818,0.05,8.2201e-07,8.2144,6.312e-07,4.7426,-9.4752e-13,-4.0711e-06,-6.312e-07,-4.7425,1.0197
11333,14.692,3.9091,0,0.00021402,2138.7,7.3785e-05,37.908,6.8742e-05,0.0099719,-0.00021335,-2119.5,1.0201
11334,14.6,4,0,0.0002162,2160.5,7.4374e-05,36.328,6.954e-05,0.0096706,-0.00021556,-2142.1,1.009
11335,14.692,4,0.05,8.1784e-07,8.1727,6.28e-07,4.7186,-2.7483e-12,-3.4827e-06,-6.2799e-07,-4.7185,1.02
11336,14.692,3.7273,0,0.0002141,2139.5,7.3836e-05,38.199,6.8754e-05,0.0099146,-0.00021343,-2120.2,1.0204
11337,14.6,3.8182,0,0.00021628,2161.4,7.4433e-05,36.714,6.9548e-05,0.009702,-0.00021564,-2142.8,1.0093
11338,14.692,3.8182,0.05,8.1407e-07,8.1351,6.2511e-07,4.6968,-1.8263e-12,-2.4398e-06,-6.251e-07,-4.6968,1.0202
11339,14.692,3.5455,0,0.00021416,2140.1,7.3869e-05,38.357,6.8765e-05,0.0098051,-0.00021348,-2120.7,1.0205
11340,14.6,3.6364,0,0.00021635,2162,7.4473e-05,36.945,6.9558e-05,0.0096454,-0.0002157,-2143.3,1.0095
11341,14.692,3.6364,0.05,8.1085e-07,8.1029,6.2264e-07,4.6782,-2.7289e-12,-1.4334e-06,-6.2263e-07,-4.6782,1.0204
11342,14.692,3.3636,0,0.0002142,2140.5,7.3888e-05,38.431,6.8775e-05,0.0096921,-0.00021352,-2121.1,1.0206
11343,14.6,3.4545,0,0.00021639,2162.4,7.4499e-05,37.069,6.9566e-05,0.0095575,-0.00021574,-2143.7,1.0096
11344,14.692,3.4545,0.05,8.0832e-07,8.0776,6.2069e-07,4.6636,-2.7258e-12,-4.5686e-07,-6.2069e-07,-4.6636,1.0206
11345,14.692,3.1818,0,0.00021422,2140.8,7.3899e-05,38.459,6.8781e-05,0.0096102,-0.00021354,-2121.3,1.0207
11346,14.6,3.2727,0,0.00021642,2162.7,7.4513e-05,37.128,6.9573e-05,0.009476,-0.00021577,-2143.9,1.0097
11347,14.692,3.2727,0.05,8.0656e-07,8.0601,6.1934e-07,4.6535,-1.8162e-12,-1.8866e-06,-6.1934e-07,-4.6535,1.0207
11348,14.692,3,0,0.00021423,2140.8,7.3902e-05,38.465,6.8783e-05,0.0095806,-0.00021355,-2121.3,1.0207
11349,14.6,3.0909,0,0.00021644,2162.9,7.4519e-05,37.15,6.9576e-05,0.009428,-0.00021578,-2144,1.0098
11350,14.692,3.0909,0.05,8.0567e-07,8.0511,6.1865e-07,4.6483,-9.0842e-13,-4.6881e-07,-6.1865e-07,-4.6483,1.0207
11351,14.692,2.8182,0,0.00021422,2140.8,7.3899e-05,38.459,6.8781e-05,0.0096107,-0.00021354,-2121.3,1.0207
11352,14.6,2.9091,0,0.00021644,2162.9,7.4519e-05,37.15,6.9576e-05,0.0094279,-0.00021578,-2144,1.0098
11353,14.692,2.9091,0.05,8.0567e-07,8.0511,6.1865e-07,4.6483,-1.0362e-15,4.6906e-07,-6.1865e-07,-4.6483,1.0207
11354,14.692,2.6364,0,0.0002142,2140.5,7.3888e-05,38.431,6.8775e-05,0.0096923,-0.00021352,-2121.1,1.0206
11355,14.6,2.7273,0,0.00021642,2162.7,7.4513e-05,37.128,6.9573e-05,0.0094761,-0.00021577,-2143.9,1.0097
11356,14.692,2.7273,0.05,8.0656e-07,8.0601,6.1934e-07,4.6535,-9.1193e-13,9.3515e-07,-6.1934e-07,-4.6535,1.0207
11357,14.692,2.4545,0,0.00021416,2140.1,7.3869e-05,38.357,6.8765e-05,0.0098045,-0.00021348,-2120.7,1.0205
11358,14.6,2.5455,0,0.00021639,2162.4,7.4499e-05,37.069,6.9566e-05,0.0095573,-0.00021574,-2143.7,1.0096
11359,14.692,2.5455,0.05,8.0832e-07,8.0776,6.2068e-07,4.6636,-1.8211e-12,1.4139e-06,-6.2069e-07,-4.6636,1.0206
11360,14.692,2.2727,0,0.0002141,2139.5,7.3836e-05,38.199,6.8754e-05,0.0099146,-0.00021343,-2120.2,1.0204
11361,14.6,2.3636,0,0.00021635,2162,7.4473e-05,36.945,6.9558e-05,0.0096456,-0.0002157,-2143.3,1.0095
11362,14.692,2.3636,0.05,8.1085e-07,8.1029,6.2263e-07,4.6782,2.7943e-16,1.9095e-06,-6.2263e-07,-4.6782,1.0204
11363,14.692,2.0909,0,0.00021402,2138.7,7.3785e-05,37.908,6.8742e-05,0.0099728,-0.00021335,-2119.5,1.0201
11364,14.6,2.1818,0,0.00021628,2161.4,7.4433e-05,36.714,6.9548e-05,0.0097019,-0.00021564,-2142.8,1.0093
11365,14.692,2.1818,0.05,8.1407e-07,8.1351,6.251e-07,4.6968,5.4472e-15,1.9471e-06,-6.251e-07,-4.6968,1.0202
11366,14.692,1.9091,0,0.00021392,2137.7,7.3711e-05,37.426,6.8731e-05,0.0099044,-0.00021325,-2118.7,1.0199
11367,14.6,2,0,0.0002162,2160.5,7.4374e-05,36.328,6.954e-05,0.0096712,-0.00021556,-2142.1,1.009
11368,14.692,2,0.05,8.1784e-07,8.1727,6.28e-07,4.7185,1.2733e-14,2.4808e-06,-6.28e-07,-4.7185,1.02
11369,14.692,1.7273,0,0.00021379,2136.4,7.3607e-05,36.694,6.8725e-05,0.0096443,-0.00021314,-2117.8,1.0196
11370,14.6,1.8182,0,0.0002161,2159.5,7.429e-05,35.733,6.9535e-05,0.0094774,-0.00021547,-2141.4,1.0087
11371,14.692,1.8182,0.05,8.2201e-07,8.2144,6.312e-07,4.7426,9.3204e-13,2.078e-06,-6.312e-07,-4.7426,1.0197
11372,14.692,1.5455,0,0.00021363,2134.8,7.3469e-05,35.654,6.8725e-05,0.009069,-0.000213,-2116.8,1.0192
11373,14.6,1.6364,0,0.00021597,2158.2,7.4176e-05,34.876,6.9535e-05,0.0090359,-0.00021535,-2140.5,1.0084
11374,14.692,1.6364,0.05,8.2641e-07,8.2584,6.3458e-07,4.768,9.4555e-13,2.3887e-06,-6.3458e-07,-4.768,1.0194
11375,14.692,1.3636,0,0.00021345,2133,7.3292e-05,34.255,6.8735e-05,0.0080581,-0.00021284,-2115.7,1.0188
11376,14.6,1.4545,0,0.00021581,2156.6,7.4027e-05,33.707,6.9542e-05,0.008232,-0.00021522,-2139.6,1.008
11377,14.692,1.4545,0.05,8.3089e-07,8.3031,6.3802e-07,4.7938,9.5133e-13,3.1536e-06,-6.3802e-07,-4.7938,1.019
11378,14.692,1.1818,0,0.00021324,2130.9,7.3074e-05,32.457,6.8755e-05,0.0064192,-0.00021267,-2114.5,1.0183
11379,14.6,1.2727,0,0.00021563,2154.8,7.3842e-05,32.185,6.9559e-05,0.0069393,-0.00021507,-2138.6,1.0076
11380,14.692,1.2727,0.05,8.3526e-07,8.3468,6.4137e-07,4.819,4.1467e-14,3.9965e-06,-6.4137e-07,-4.819,1.0185
11381,14.692,1,0,0.000213,2128.6,7.2812e-05,30.238,6.8788e-05,0.0040348,-0.00021247,-2113.3,1.0178
11382,14.6,1.0909,0,0.00021543,2152.8,7.3617e-05,30.28,6.9587e-05,0.0049175,-0.0002149,-2137.5,1.0071
11383,14.692,1.0909,0.05,8.3934e-07,8.3876,6.4451e-07,4.8426,5.6134e-14,3.2753e-06,-6.4451e-07,-4.8426,1.018
11384,14.692,0.81818,0,0.00021275,2126,7.2509e-05,27.591,6.8836e-05,0.00016189,-0.00021227,-2112.1,1.0172
11385,14.6,0.90909,0,0.00021521,2150.6,7.3352e-05,27.982,6.9628e-05,0.0021836,-0.00021472,-2136.5,1.0065
11386,14.692,0.90909,0.05,8.4297e-07,8.4238,6.473e-07,4.8635,5.8222e-14,2.8838e-06,-6.4729e-07,-4.8635,1.0175
11387,14.692,0.63636,0,0.00021248,2123.4,7.2167e-05,24.538,6.8901e-05,-0.0039556,-0.00021206,-2111,1.0166
11388,14.6,0.72727,0,0.00021497,2148.2,7.3051e-05,25.295,6.9684e-05,-0.0026899,-0.00021453,-2135.5,1.006
11389,14.692,0.72727,0.05,8.458e-07,8.4521,6.4947e-07,4.8798,3.6102e-12,3.5614e-06,-6.4947e-07,-4.8799,1.0169
11390,14.692,0.45455,0,0.00021222,2120.7,7.1798e-05,21.148,6.8981e-05,-0.018741,-0.00021185,-2110.1,1.016
11391,14.6,0.54545,0,0.00021473,2145.8,7.2717e-05,22.255,6.9754e-05,-0.0059078,-0.00021434,-2134.6,1.0053
11392,14.692,0.54545,0.05,8.4513e-07,8.4455,6.4896e-07,4.876,2.7703e-12,3.5737e-06,-6.4896e-07,-4.876,1.0163
11393,14.692,0.27273,0,0.00021206,2119.1,7.1491e-05,18.092,6.908e-05,-0.021649,-0.00021175,-2110,1.0153
11394,14.6,0.36364,0,0.0002145,2143.5,7.2368e-05,18.966,6.9839e-05,-0.030802,-0.00021417,-2133.9,1.0046
11395,14.692,0.36364,0.05,8.019e-07,8.0134,6.1576e-07,4.6265,9.6764e-13,2.7431e-06,-6.1576e-07,-4.6266,1.0156
11396,14.6,0.18182,0,0.00021447,2143.3,7.2173e-05,16.734,6.9945e-05,-0.0054148,-0.00021418,-2134.8,1.0039
11397,14.692,0.18182,0.05,1.3759e-07,1.3749,1.0565e-07,0.7938,-1.0276e-12,2.0402e-06,-1.0565e-07,-0.7938,1.0149
11398,14.692,0.090909,0,0.00021128,2111.3,7.0625e-05,10.807,6.9185e-05,-0.0071642,-0.00021109,-2105.9,1.0145
11399,14.509,5.7273,0,0.00021689,2167.4,7.3036e-05,17.501,7.0704e-05,-0.019344,-0.00021659,-2158.6,0.99331
11400,14.417,5.8182,0,0.00021933,2191.8,7.3749e-05,16.425,7.1562e-05,-0.0040896,-0.00021904,-2183.5,0.982
11401,14.509,5.8182,0.05,1.2022e-07,1.2014,9.2313e-08,0.69364,3.5497e-13,4.4822e-05,-9.2312e-08,-0.69356,0.99292
11402,14.509,5.9091,0,0.00021615,2160,7.2219e-05,10.654,7.08e-05,-0.006853,-0.00021597,-2154.7,0.99255
11403,14.509,5.5455,0,0.000217,2168.5,7.3282e-05,20.04,7.0613e-05,-0.017445,-0.00021665,-2158.4,0.99402
11404,14.417,5.6364,0,0.0002193,2191.5,7.3883e-05,18.134,7.1466e-05,-0.028149,-0.00021898,-2182.3,0.98274
11405,14.509,5.6364,0.05,7.9782e-07,7.9727,6.1263e-07,4.6031,-2.7258e-12,2.8765e-06,-6.1263e-07,-4.603,0.99365
11406,14.509,5.3636,0,0.00021721,2170.6,7.3597e-05,22.984,7.0538e-05,-0.0041993,-0.00021681,-2159,0.99469
11407,14.417,5.4545,0,0.00021948,2193.3,7.4178e-05,20.969,7.1387e-05,-0.0059491,-0.00021912,-2182.7,0.98343
11408,14.509,5.4545,0.05,8.4232e-07,8.4174,6.468e-07,4.8598,-9.4764e-13,2.3403e-06,-6.468e-07,-4.8598,0.99434
11409,14.509,5.1818,0,0.00021743,2172.8,7.3891e-05,25.661,7.0476e-05,-0.00039158,-0.00021698,-2159.8,0.9953
11410,14.417,5.2727,0,0.00021968,2195.2,7.4463e-05,23.617,7.132e-05,-0.0030029,-0.00021926,-2183.3,0.98408
11411,14.509,5.2727,0.05,8.4366e-07,8.4308,6.4783e-07,4.8676,-3.7265e-12,-3.1897e-07,-6.4783e-07,-4.8675,0.99498
11412,14.509,5,0,0.00021763,2174.8,7.4154e-05,28.001,7.0427e-05,0.0032434,-0.00021714,-2160.7,0.99587
11413,14.417,5.0909,0,0.00021987,2197.1,7.4723e-05,25.975,7.1266e-05,0.0015083,-0.00021941,-2184,0.98468
11414,14.509,5.0909,0.05,8.416e-07,8.4102,6.4625e-07,4.8556,-2.8264e-12,-5.244e-07,-6.4624e-07,-4.8556,0.99557
11415,14.509,4.8182,0,0.00021782,2176.7,7.4382e-05,29.986,7.0391e-05,0.0055534,-0.0002173,-2161.6,0.99639
11416,14.417,4.9091,0,0.00022005,2198.9,7.4951e-05,28.013,7.1224e-05,0.0041233,-0.00021956,-2184.8,0.98522
11417,14.509,4.9091,0.05,8.3885e-07,8.3828,6.4414e-07,4.8398,-1.9134e-12,-1.9518e-06,-6.4413e-07,-4.8398,0.99611
11418,14.509,4.6364,0,0.00021799,2178.4,7.4574e-05,31.616,7.0367e-05,0.0071883,-0.00021744,-2162.4,0.99686
11419,14.417,4.7273,0,0.00022021,2200.6,7.5147e-05,29.72,7.1193e-05,0.0060995,-0.00021969,-2185.6,0.98572
11420,14.509,4.7273,0.05,8.3573e-07,8.3515,6.4174e-07,4.8218,-2.805e-12,-3.2247e-06,-6.4173e-07,-4.8217,0.99661
11421,14.509,4.4545,0,0.00021814,2179.9,7.4731e-05,32.91,7.0352e-05,0.0082479,-0.00021757,-2163.3,0.99728
11422,14.417,4.5455,0,0.00022036,2202,7.5311e-05,31.107,7.1172e-05,0.0074129,-0.00021981,-2186.3,0.98617
11423,14.509,4.5455,0.05,8.3236e-07,8.3179,6.3915e-07,4.8024,-1.8977e-12,-2.2918e-06,-6.3915e-07,-4.8023,0.99705
11424,14.509,4.2727,0,0.00021827,2181.2,7.4855e-05,33.896,7.0345e-05,0.0089008,-0.00021768,-2164.1,0.99765
11425,14.417,4.3636,0,0.00022048,2203.3,7.5443e-05,32.193,7.1159e-05,0.0082751,-0.00021992,-2187,0.98657
11426,14.509,4.3636,0.05,8.2891e-07,8.2833,6.365e-07,4.7824,-3.6913e-12,-4.2799e-06,-6.365e-07,-4.7824,0.99745
11427,14.509,4.0909,0,0.00021838,2182.3,7.495e-05,34.616,7.0344e-05,0.0092582,-0.00021777,-2164.8,0.99797
11428,14.417,4.1818,0,0.00022059,2204.3,7.5545e-05,33.012,7.1153e-05,0.0087957,-0.00022001,-2187.7,0.98692
11429,14.509,4.1818,0.05,8.255e-07,8.2493,6.3388e-07,4.7628,-9.5072e-13,-4.1423e-06,-6.3388e-07,-4.7627,0.9978
11430,14.509,3.9091,0,0.00021846,2183.1,7.5019e-05,35.114,7.0347e-05,0.0094139,-0.00021784,-2165.3,0.99824
11431,14.417,4,0,0.00022067,2205.2,7.5623e-05,33.601,7.1152e-05,0.0090761,-0.00022008,-2188.2,0.98722
11432,14.509,4,0.05,8.2227e-07,8.217,6.314e-07,4.7441,-1.8468e-12,-4.0189e-06,-6.314e-07,-4.7441,0.99809
11433,14.509,3.7273,0,0.00021853,2183.8,7.5068e-05,35.44,7.0353e-05,0.0094418,-0.0002179,-2165.8,0.99847
11434,14.417,3.8182,0,0.00022074,2205.9,7.5679e-05,34.005,7.1154e-05,0.0091929,-0.00022014,-2188.7,0.98747
11435,14.509,3.8182,0.05,8.1935e-07,8.1878,6.2916e-07,4.7273,-2.7456e-12,-3.4686e-06,-6.2916e-07,-4.7272,0.99834
11436,14.509,3.5455,0,0.00021858,2184.3,7.5101e-05,35.638,7.0359e-05,0.0094047,-0.00021795,-2166.2,0.99864
11437,14.417,3.6364,0,0.00022079,2206.4,7.5717e-05,34.266,7.1158e-05,0.0092122,-0.00022019,-2189.1,0.98767
11438,14.509,3.6364,0.05,8.1686e-07,8.1629,6.2724e-07,4.7129,-1.8281e-12,-1.9761e-06,-6.2724e-07,-4.7128,0.99854
11439,14.509,3.3636,0,0.00021861,2184.6,7.5121e-05,35.748,7.0364e-05,0.0093472,-0.00021798,-2166.5,0.99877
11440,14.417,3.4545,0,0.00022083,2206.8,7.5743e-05,34.422,7.1162e-05,0.0091849,-0.00022022,-2189.3,0.98782
11441,14.509,3.4545,0.05,8.1489e-07,8.1433,6.2574e-07,4.7015,-4.1049e-15,-2.4139e-06,-6.2573e-07,-4.7015,0.99869
11442,14.509,3.1818,0,0.00021863,2184.8,7.5131e-05,35.8,7.0368e-05,0.0092993,-0.000218,-2166.7,0.99884
11443,14.417,3.2727,0,0.00022085,2207,7.5757e-05,34.507,7.1166e-05,0.0091459,-0.00022024,-2189.5,0.98792
11444,14.509,3.2727,0.05,8.1353e-07,8.1297,6.247e-07,4.6937,-9.1087e-13,-2.3945e-06,-6.2469e-07,-4.6937,0.99879
11445,14.509,3,0,0.00021864,2184.8,7.5135e-05,35.816,7.0369e-05,0.0092808,-0.000218,-2166.7,0.99886
11446,14.417,3.0909,0,0.00022086,2207.1,7.5764e-05,34.544,7.1168e-05,0.0091198,-0.00022026,-2189.6,0.98797
11447,14.509,3.0909,0.05,8.1284e-07,8.1228,6.2416e-07,4.6897,-2.8222e-16,-1.4326e-06,-6.2416e-07,-4.6897,0.99884
11448,14.509,2.8182,0,0.00021863,2184.8,7.5131e-05,35.8,7.0368e-05,0.0092989,-0.000218,-2166.7,0.99884
11449,14.417,2.9091,0,0.00022086,2207.1,7.5764e-05,34.544,7.1168e-05,0.0091202,-0.00022026,-2189.6,0.98797
11450,14.509,2.9091,0.05,8.1284e-07,8.1228,6.2416e-07,4.6897,2.7476e-16,2.0688e-09,-6.2416e-07,-4.6897,0.99884
11451,14.509,2.6364,0,0.00021861,2184.6,7.5121e-05,35.748,7.0364e-05,0.0093469,-0.00021798,-2166.5,0.99877
11452,14.417,2.7273,0,0.00022085,2207,7.5757e-05,34.507,7.1166e-05,0.0091459,-0.00022024,-2189.5,0.98792
11453,14.509,2.7273,0.05,8.1353e-07,8.1297,6.2469e-07,4.6937,-9.0824e-13,-4.6736e-07,-6.2469e-07,-4.6937,0.99879
11454,14.509,2.4545,0,0.00021858,2184.3,7.5101e-05,35.638,7.0359e-05,0.0094051,-0.00021795,-2166.2,0.99864
11455,14.417,2.5455,0,0.00022083,2206.8,7.5743e-05,34.422,7.1162e-05,0.0091851,-0.00022022,-2189.3,0.98782
11456,14.509,2.5455,0.05,8.1489e-07,8.1433,6.2574e-07,4.7015,3.484e-15,2.5489e-08,-6.2573e-07,-4.7015,0.99869
11457,14.509,2.2727,0,0.00021853,2183.8,7.5068e-05,35.44,7.0353e-05,0.0094418,-0.0002179,-2165.8,0.99847
11458,14.417,2.3636,0,0.00022079,2206.4,7.5717e-05,34.266,7.1158e-05,0.0092129,-0.00022019,-2189.1,0.98767
11459,14.509,2.3636,0.05,8.1686e-07,8.1629,6.2724e-07,4.7129,7.1082e-15,5.3446e-07,-6.2724e-07,-4.7128,0.99854
11460,14.509,2.0909,0,0.00021846,2183.1,7.5019e-05,35.114,7.0347e-05,0.0094135,-0.00021784,-2165.3,0.99824
11461,14.417,2.1818,0,0.00022074,2205.9,7.5679e-05,34.005,7.1154e-05,0.0091932,-0.00022014,-2188.7,0.98747
11462,14.509,2.1818,0.05,8.1935e-07,8.1878,6.2916e-07,4.7272,1.3512e-14,9.9744e-08,-6.2916e-07,-4.7272,0.99834
11463,14.509,1.9091,0,0.00021838,2182.3,7.495e-05,34.615,7.0344e-05,0.0092584,-0.00021777,-2164.8,0.99797
11464,14.417,2,0,0.00022067,2205.2,7.5623e-05,33.601,7.1152e-05,0.0090762,-0.00022008,-2188.2,0.98722
11465,14.509,2,0.05,8.2227e-07,8.217,6.314e-07,4.7441,9.304e-13,1.1218e-06,-6.314e-07,-4.7441,0.99809
11466,14.509,1.7273,0,0.00021827,2181.2,7.4855e-05,33.896,7.0345e-05,0.0089009,-0.00021768,-2164.1,0.99765
11467,14.417,1.8182,0,0.00022059,2204.3,7.5545e-05,33.012,7.1153e-05,0.0087962,-0.00022001,-2187.7,0.98692
11468,14.509,1.8182,0.05,8.255e-07,8.2493,6.3388e-07,4.7627,2.7576e-14,1.6545e-06,-6.3388e-07,-4.7627,0.9978
11469,14.509,1.5455,0,0.00021814,2179.9,7.4731e-05,32.91,7.0352e-05,0.0082483,-0.00021757,-2163.3,0.99728
11470,14.417,1.6364,0,0.00022048,2203.3,7.5443e-05,32.193,7.1159e-05,0.0082757,-0.00021992,-2187,0.98657
11471,14.509,1.6364,0.05,8.2891e-07,8.2833,6.365e-07,4.7824,3.9385e-14,1.9745e-06,-6.365e-07,-4.7824,0.99745
11472,14.509,1.3636,0,0.00021799,2178.4,7.4574e-05,31.616,7.0367e-05,0.0071891,-0.00021744,-2162.4,0.99686
11473,14.417,1.4545,0,0.00022036,2202,7.5311e-05,31.107,7.1172e-05,0.0074135,-0.00021981,-2186.3,0.98617
11474,14.509,1.4545,0.05,8.3236e-07,8.3179,6.3915e-07,4.8023,1.8611e-12,2.3239e-06,-6.3915e-07,-4.8023,0.99705
11475,14.509,1.1818,0,0.00021782,2176.7,7.4382e-05,29.986,7.0391e-05,0.0055536,-0.0002173,-2161.6,0.99639
11476,14.417,1.2727,0,0.00022021,2200.6,7.5147e-05,29.72,7.1193e-05,0.0061002,-0.00021969,-2185.6,0.98572
11477,14.509,1.2727,0.05,8.3573e-07,8.3515,6.4173e-07,4.8217,9.5729e-13,1.9999e-06,-6.4173e-07,-4.8217,0.99661
11478,14.509,1,0,0.00021763,2174.8,7.4154e-05,28.001,7.0427e-05,0.0032447,-0.00021714,-2160.7,0.99587
11479,14.417,1.0909,0,0.00022005,2198.9,7.4951e-05,28.013,7.1224e-05,0.0041234,-0.00021956,-2184.8,0.98522
11480,14.509,1.0909,0.05,8.3885e-07,8.3828,6.4413e-07,4.8398,1.8709e-12,2.2851e-06,-6.4414e-07,-4.8398,0.99611
11481,14.509,0.81818,0,0.00021743,2172.8,7.3891e-05,25.661,7.0476e-05,-0.00038984,-0.00021698,-2159.8,0.9953
11482,14.417,0.90909,0,0.00021987,2197.1,7.4723e-05,25.975,7.1266e-05,0.0015101,-0.00021941,-2184,0.98468
11483,14.509,0.90909,0.05,8.416e-07,8.4102,6.4624e-07,4.8556,9.761e-13,2.7495e-06,-6.4625e-07,-4.8556,0.99557
11484,14.509,0.63636,0,0.00021721,2170.6,7.3597e-05,22.984,7.0538e-05,-0.004199,-0.00021681,-2159,0.99469
11485,14.417,0.72727,0,0.00021968,2195.2,7.4463e-05,23.617,7.132e-05,-0.0030012,-0.00021926,-2183.3,0.98408
11486,14.509,0.72727,0.05,8.4366e-07,8.4308,6.4783e-07,4.8675,4.0257e-14,3.1802e-06,-6.4783e-07,-4.8675,0.99498
11487,14.509,0.45455,0,0.000217,2168.5,7.3282e-05,20.039,7.0613e-05,-0.017445,-0.00021665,-2158.4,0.99402
11488,14.417,0.54545,0,0.00021948,2193.3,7.4178e-05,20.969,7.1387e-05,-0.0059503,-0.00021912,-2182.7,0.98343
11489,14.509,0.54545,0.05,8.4232e-07,8.4174,6.468e-07,4.8598,3.6136e-12,3.9157e-06,-6.468e-07,-4.8598,0.99434
11490,14.509,0.27273,0,0.00021689,2167.4,7.3036e-05,17.501,7.0704e-05,-0.019344,-0.00021659,-2158.6,0.99331
11491,14.417,0.36364,0,0.0002193,2191.5,7.3883e-05,18.134,7.1466e-05,-0.028149,-0.00021898,-2182.3,0.98274
11492,14.509,0.36364,0.05,7.9782e-07,7.9727,6.1263e-07,4.603,2.6882e-12,1.0945e-06,-6.1263e-07,-4.6031,0.99365
11493,14.417,0.18182,0,0.00021933,2191.8,7.3749e-05,16.425,7.1562e-05,-0.004089,-0.00021904,-2183.5,0.982
11494,14.509,0.18182,0.05,1.2022e-07,1.2014,9.2314e-08,0.69359,1.8466e-13,-2.1787e-05,-9.2312e-08,-0.69362,0.99292
11495,14.509,0.090909,0,0.00021615,2160,7.2219e-05,10.654,7.08e-05,-0.0068532,-0.00021597,-2154.7,0.99255
11496,14.325,5.7273,0,0.00022171,2215.6,7.4582e-05,16.952,7.2323e-05,-0.017374,-0.00022142,-2207.1,0.97148
11497,14.233,5.8182,0,0.00022417,2240.1,7.5322e-05,16.125,7.3175e-05,-0.0030714,-0.00022389,-2232,0.96024
11498,14.325,5.8182,0.05,1.0546e-07,1.0539,8.0983e-08,0.6085,3.4182e-12,4.925e-05,-8.0979e-08,-0.60842,0.97108
11499,14.325,5.9091,0,0.000221,2208.5,7.3809e-05,10.501,7.241e-05,-0.0065604,-0.00022082,-2203.3,0.97071
11500,14.325,5.5455,0,0.00022177,2216.2,7.4774e-05,19.03,7.2239e-05,-0.016265,-0.00022144,-2206.6,0.9722
11501,14.233,5.6364,0,0.0002241,2239.4,7.5402e-05,17.369,7.3087e-05,-0.025731,-0.00022379,-2230.7,0.96099
11502,14.325,5.6364,0.05,7.9514e-07,7.9459,6.1057e-07,4.5876,-1.8273e-12,2.9542e-06,-6.1056e-07,-4.5875,0.97183
11503,14.325,5.3636,0,0.00022194,2217.9,7.5041e-05,21.574,7.2169e-05,-0.0043811,-0.00022157,-2207,0.97288
11504,14.233,5.4545,0,0.00022423,2240.8,7.565e-05,19.797,7.3014e-05,-0.0059018,-0.00022389,-2230.8,0.9617
11505,14.325,5.4545,0.05,8.4072e-07,8.4014,6.4557e-07,4.8506,-2.7954e-12,3.5628e-06,-6.4556e-07,-4.8505,0.97253
11506,14.325,5.1818,0,0.00022211,2219.6,7.5292e-05,23.907,7.211e-05,-0.00086096,-0.0002217,-2207.5,0.9735
11507,14.233,5.2727,0,0.00022439,2242.3,7.5891e-05,22.089,7.2951e-05,-0.0032039,-0.000224,-2231.2,0.96235
11508,14.325,5.2727,0.05,8.4259e-07,8.4201,6.47e-07,4.8614,-1.8902e-12,5.3065e-07,-6.47e-07,-4.8613,0.97318
11509,14.325,5,0,0.00022228,2221.2,7.5517e-05,25.963,7.2062e-05,0.0025476,-0.00022182,-2208.1,0.97408
11510,14.233,5.0909,0,0.00022454,2243.8,7.6112e-05,24.144,7.2899e-05,0.00097147,-0.00022412,-2231.7,0.96296
11511,14.325,5.0909,0.05,8.4113e-07,8.4055,6.4589e-07,4.853,-3.7296e-12,3.2578e-08,-6.4588e-07,-4.8529,0.97378
11512,14.325,4.8182,0,0.00022243,2222.8,7.5714e-05,27.724,7.2025e-05,0.0047761,-0.00022195,-2208.8,0.97461
11513,14.233,4.9091,0,0.00022468,2245.3,7.6309e-05,25.935,7.2857e-05,0.0034656,-0.00022423,-2232.2,0.96352
11514,14.325,4.9091,0.05,8.3908e-07,8.385,6.4431e-07,4.8411,-2.7955e-12,-7.6094e-07,-6.443e-07,-4.841,0.97433
11515,14.325,4.6364,0,0.00022257,2224.2,7.5882e-05,29.189,7.1998e-05,0.0063963,-0.00022206,-2209.4,0.97509
11516,14.233,4.7273,0,0.00022481,2246.6,7.6478e-05,27.452,7.2825e-05,0.0053895,-0.00022433,-2232.7,0.96402
11517,14.325,4.7273,0.05,8.367e-07,8.3613,6.4249e-07,4.8274,-2.8038e-12,-2.7384e-06,-6.4248e-07,-4.8274,0.97483
11518,14.325,4.4545,0,0.00022269,2225.4,7.602e-05,30.37,7.1979e-05,0.0074892,-0.00022216,-2210,0.97552
11519,14.233,4.5455,0,0.00022493,2247.7,7.662e-05,28.7,7.2801e-05,0.0067121,-0.00022443,-2233.3,0.96448
11520,14.325,4.5455,0.05,8.3414e-07,8.3356,6.4052e-07,4.8126,-3.6986e-12,-1.2703e-06,-6.4051e-07,-4.8125,0.97529
11521,14.325,4.2727,0,0.00022279,2226.4,7.613e-05,31.288,7.1967e-05,0.0082035,-0.00022224,-2210.6,0.97589
11522,14.233,4.3636,0,0.00022503,2248.8,7.6736e-05,29.694,7.2785e-05,0.0076172,-0.00022451,-2233.8,0.96489
11523,14.325,4.3636,0.05,8.3149e-07,8.3091,6.3848e-07,4.7973,-3.6954e-12,-3.7933e-06,-6.3848e-07,-4.7973,0.97569
11524,14.325,4.0909,0,0.00022288,2227.3,7.6216e-05,31.977,7.1961e-05,0.0086368,-0.00022232,-2211.1,0.97622
11525,14.233,4.1818,0,0.00022512,2249.6,7.6828e-05,30.459,7.2775e-05,0.0082029,-0.00022458,-2234.2,0.96524
11526,14.325,4.1818,0.05,8.2886e-07,8.2829,6.3647e-07,4.7822,-2.7746e-12,-3.6831e-06,-6.3647e-07,-4.7821,0.97604
11527,14.325,3.9091,0,0.00022295,2227.9,7.628e-05,32.472,7.1959e-05,0.0088716,-0.00022238,-2211.5,0.9765
11528,14.233,4,0,0.00022518,2250.3,7.6897e-05,31.026,7.2769e-05,0.0085551,-0.00022464,-2234.6,0.96555
11529,14.325,4,0.05,8.2638e-07,8.2581,6.3456e-07,4.7678,-1.8529e-12,-3.5871e-06,-6.3455e-07,-4.7678,0.97635
11530,14.325,3.7273,0,0.000223,2228.5,7.6326e-05,32.811,7.196e-05,0.0089757,-0.00022242,-2211.9,0.97673
11531,14.233,3.8182,0,0.00022524,2250.8,7.6949e-05,31.429,7.2767e-05,0.0087458,-0.00022469,-2234.9,0.9658
11532,14.325,3.8182,0.05,8.2413e-07,8.2356,6.3283e-07,4.7548,-9.3245e-13,-3.5263e-06,-6.3282e-07,-4.7548,0.9766
11533,14.325,3.5455,0,0.00022304,2228.9,7.6357e-05,33.031,7.1962e-05,0.0090025,-0.00022246,-2212.2,0.9769
11534,14.233,3.6364,0,0.00022528,2251.2,7.6985e-05,31.701,7.2767e-05,0.0088312,-0.00022472,-2235.2,0.96601
11535,14.325,3.6364,0.05,8.222e-07,8.2164,6.3135e-07,4.7438,-1.4188e-14,-1.5405e-06,-6.3135e-07,-4.7437,0.9768
11536,14.325,3.3636,0,0.00022307,2229.1,7.6377e-05,33.163,7.1964e-05,0.0089924,-0.00022248,-2212.4,0.97703
11537,14.233,3.4545,0,0.00022531,2251.5,7.7009e-05,31.874,7.2768e-05,0.0088571,-0.00022475,-2235.4,0.96616
11538,14.325,3.4545,0.05,8.2069e-07,8.2012,6.3019e-07,4.735,-3.6463e-12,-1.7342e-06,-6.3018e-07,-4.735,0.97695
11539,14.325,3.1818,0,0.00022308,2229.3,7.6387e-05,33.231,7.1966e-05,0.0089746,-0.0002225,-2212.5,0.9771
11540,14.233,3.2727,0,0.00022533,2251.7,7.7024e-05,31.974,7.2769e-05,0.008855,-0.00022477,-2235.6,0.96626
11541,14.325,3.2727,0.05,8.1964e-07,8.1908,6.2939e-07,4.7289,-2.7327e-12,-2.178e-06,-6.2938e-07,-4.7289,0.97705
11542,14.325,3,0,0.00022309,2229.3,7.6391e-05,33.252,7.1966e-05,0.0089673,-0.0002225,-2212.5,0.97713
11543,14.233,3.0909,0,0.00022534,2251.8,7.703e-05,32.019,7.277e-05,0.0088488,-0.00022477,-2235.6,0.96631
11544,14.325,3.0909,0.05,8.1911e-07,8.1854,6.2897e-07,4.7259,-1.8203e-12,-7.2476e-07,-6.2897e-07,-4.7259,0.9771
11545,14.325,2.8182,0,0.00022308,2229.3,7.6387e-05,33.231,7.1966e-05,0.0089754,-0.0002225,-2212.5,0.9771
11546,14.233,2.9091,0,0.00022534,2251.8,7.703e-05,32.019,7.277e-05,0.0088495,-0.00022477,-2235.6,0.96631
11547,14.325,2.9091,0.05,8.1911e-07,8.1854,6.2897e-07,4.7259,-9.0825e-13,9.3196e-09,-6.2897e-07,-4.7259,0.9771
11548,14.325,2.6364,0,0.00022307,2229.1,7.6377e-05,33.163,7.1964e-05,0.0089928,-0.00022248,-2212.4,0.97703
11549,14.233,2.7273,0,0.00022533,2251.7,7.7024e-05,31.974,7.2769e-05,0.0088558,-0.00022477,-2235.6,0.96626
11550,14.325,2.7273,0.05,8.1964e-07,8.1908,6.2938e-07,4.7289,-1.815e-12,2.953e-08,-6.2938e-07,-4.7289,0.97705
11551,14.325,2.4545,0,0.00022304,2228.9,7.6357e-05,33.031,7.1962e-05,0.0090029,-0.00022246,-2212.2,0.9769
11552,14.233,2.5455,0,0.00022531,2251.5,7.7009e-05,31.874,7.2768e-05,0.008857,-0.00022475,-2235.4,0.96616
11553,14.325,2.5455,0.05,8.2069e-07,8.2012,6.3019e-07,4.735,-9.0209e-13,-1.8211e-07,-6.3019e-07,-4.735,0.97695
11554,14.325,2.2727,0,0.000223,2228.5,7.6326e-05,32.811,7.196e-05,0.0089766,-0.00022242,-2211.9,0.97673
11555,14.233,2.3636,0,0.00022528,2251.2,7.6985e-05,31.701,7.2767e-05,0.0088315,-0.00022472,-2235.2,0.96601
11556,14.325,2.3636,0.05,8.222e-07,8.2164,6.3135e-07,4.7437,1.1401e-14,5.7247e-07,-6.3135e-07,-4.7437,0.9768
11557,14.325,2.0909,0,0.00022295,2227.9,7.628e-05,32.472,7.1959e-05,0.0088724,-0.00022238,-2211.5,0.9765
11558,14.233,2.1818,0,0.00022524,2250.8,7.6949e-05,31.429,7.2767e-05,0.0087458,-0.00022469,-2234.9,0.9658
11559,14.325,2.1818,0.05,8.2413e-07,8.2356,6.3283e-07,4.7548,1.8735e-14,6.0254e-07,-6.3283e-07,-4.7548,0.9766
11560,14.325,1.9091,0,0.00022288,2227.3,7.6216e-05,31.977,7.1961e-05,0.0086372,-0.00022232,-2211.1,0.97622
11561,14.233,2,0,0.00022518,2250.3,7.6897e-05,31.026,7.2769e-05,0.0085557,-0.00022464,-2234.6,0.96555
11562,14.325,2,0.05,8.2638e-07,8.2581,6.3456e-07,4.7678,2.5645e-14,1.3697e-06,-6.3456e-07,-4.7678,0.97635
11563,14.325,1.7273,0,0.00022279,2226.4,7.613e-05,31.288,7.1967e-05,0.0082046,-0.00022224,-2210.6,0.97589
11564,14.233,1.8182,0,0.00022512,2249.6,7.6828e-05,30.459,7.2775e-05,0.0082029,-0.00022458,-2234.2,0.96524
11565,14.325,1.8182,0.05,8.2886e-07,8.2829,6.3646e-07,4.7822,3.4393e-14,1.6555e-06,-6.3647e-07,-4.7822,0.97604
11566,14.325,1.5455,0,0.00022269,2225.4,7.602e-05,30.369,7.1979e-05,0.0074899,-0.00022216,-2210,0.97552
11567,14.233,1.6364,0,0.00022503,2248.8,7.6736e-05,29.694,7.2785e-05,0.0076181,-0.00022451,-2233.8,0.96489
11568,14.325,1.6364,0.05,8.3149e-07,8.3091,6.3848e-07,4.7973,3.8581e-14,1.992e-06,-6.3848e-07,-4.7973,0.97569
11569,14.325,1.3636,0,0.00022257,2224.2,7.5882e-05,29.189,7.1998e-05,0.0063967,-0.00022206,-2209.4,0.97509
11570,14.233,1.4545,0,0.00022493,2247.7,7.662e-05,28.7,7.2801e-05,0.0067124,-0.00022443,-2233.3,0.96448
11571,14.325,1.4545,0.05,8.3414e-07,8.3356,6.4052e-07,4.8126,5.0438e-14,2.502e-06,-6.4051e-07,-4.8126,0.97529
11572,14.325,1.1818,0,0.00022243,2222.8,7.5714e-05,27.724,7.2025e-05,0.0047767,-0.00022195,-2208.8,0.97461
11573,14.233,1.2727,0,0.00022481,2246.6,7.6478e-05,27.452,7.2825e-05,0.0053905,-0.00022433,-2232.7,0.96402
11574,14.325,1.2727,0.05,8.367e-07,8.3613,6.4248e-07,4.8274,9.5646e-13,2.8279e-06,-6.4249e-07,-4.8274,0.97483
11575,14.325,1,0,0.00022228,2221.2,7.5517e-05,25.963,7.2062e-05,0.0025484,-0.00022182,-2208.1,0.97408
11576,14.233,1.0909,0,0.00022468,2245.3,7.6309e-05,25.935,7.2857e-05,0.0034662,-0.00022423,-2232.2,0.96352
11577,14.325,1.0909,0.05,8.3908e-07,8.385,6.4431e-07,4.841,6.6978e-14,2.9391e-06,-6.4431e-07,-4.8411,0.97433
11578,14.325,0.81818,0,0.00022211,2219.6,7.5292e-05,23.907,7.211e-05,-0.00085918,-0.0002217,-2207.5,0.9735
11579,14.233,0.90909,0,0.00022454,2243.8,7.6112e-05,24.144,7.2899e-05,0.00097235,-0.00022412,-2231.7,0.96296
11580,14.325,0.90909,0.05,8.4113e-07,8.4055,6.4588e-07,4.8529,1.8738e-12,3.0539e-06,-6.4588e-07,-4.8529,0.97378
11581,14.325,0.63636,0,0.00022194,2217.9,7.5041e-05,21.574,7.2169e-05,-0.004381,-0.00022157,-2207,0.97288
11582,14.233,0.72727,0,0.00022439,2242.3,7.5891e-05,22.089,7.2951e-05,-0.0032024,-0.000224,-2231.2,0.96235
11583,14.325,0.72727,0.05,8.4259e-07,8.4201,6.47e-07,4.8613,1.8763e-12,4.1724e-06,-6.47e-07,-4.8614,0.97318
11584,14.325,0.45455,0,0.00022177,2216.2,7.4774e-05,19.03,7.2239e-05,-0.016266,-0.00022144,-2206.6,0.9722
11585,14.233,0.54545,0,0.00022423,2240.8,7.565e-05,19.797,7.3014e-05,-0.0059026,-0.00022389,-2230.8,0.9617
11586,14.325,0.54545,0.05,8.4072e-07,8.4014,6.4557e-07,4.8505,2.7254e-12,4.8723e-06,-6.4557e-07,-4.8506,0.97253
11587,14.325,0.27273,0,0.00022171,2215.6,7.4582e-05,16.952,7.2323e-05,-0.017374,-0.00022142,-2207.1,0.97148
11588,14.233,0.36364,0,0.0002241,2239.4,7.5402e-05,17.369,7.3087e-05,-0.025731,-0.00022379,-2230.7,0.96099
11589,14.325,0.36364,0.05,7.9514e-07,7.9459,6.1056e-07,4.5875,8.7589e-13,1.2418e-06,-6.1057e-07,-4.5876,0.97183
11590,14.233,0.18182,0,0.00022417,2240.1,7.5322e-05,16.125,7.3175e-05,-0.0030711,-0.00022389,-2232,0.96024
11591,14.325,0.18182,0.05,1.0546e-07,1.0539,8.098e-08,0.60842,2.5889e-13,-4.7183e-05,-8.0982e-08,-0.6085,0.97108
11592,14.325,0.090909,0,0.000221,2208.5,7.3809e-05,10.501,7.241e-05,-0.0065591,-0.00022082,-2203.3,0.97071
11593,14.141,5.7273,0,0.00022653,2263.8,7.6129e-05,16.437,7.3939e-05,-0.015588,-0.00022625,-2255.5,0.9498
11594,14.05,5.8182,0,0.00022901,2288.5,7.6894e-05,15.83,7.4787e-05,-0.0022885,-0.00022873,-2280.5,0.93862
11595,14.141,5.8182,0.05,9.288e-08,0.92816,7.1321e-08,0.53591,1.3487e-12,4.9559e-05,-7.132e-08,-0.53584,0.94939
11596,14.141,5.9091,0,0.00022585,2257,7.5396e-05,10.348,7.4018e-05,-0.0061926,-0.00022568,-2251.8,0.94901
11597,14.141,5.5455,0,0.00022655,2263.9,7.6274e-05,18.104,7.3862e-05,-0.015088,-0.00022624,-2254.8,0.95053
11598,14.05,5.6364,0,0.00022889,2287.4,7.6927e-05,16.661,7.4706e-05,-0.023511,-0.00022861,-2279,0.93939
11599,14.141,5.6364,0.05,7.9357e-07,7.9302,6.0937e-07,4.5786,-3.6042e-12,2.6718e-06,-6.0936e-07,-4.5785,0.95015
11600,14.141,5.3636,0,0.00022668,2265.2,7.6497e-05,20.284,7.3797e-05,-0.0044147,-0.00022633,-2255,0.95122
11601,14.05,5.4545,0,0.000229,2288.4,7.7131e-05,18.72,7.4639e-05,-0.0057789,-0.00022867,-2279,0.94011
11602,14.141,5.4545,0.05,8.4008e-07,8.395,6.4508e-07,4.8469,-2.7223e-12,3.3316e-06,-6.4507e-07,-4.8468,0.95086
11603,14.141,5.1818,0,0.00022681,2266.6,7.6709e-05,22.301,7.3741e-05,-0.0011618,-0.00022642,-2255.3,0.95186
11604,14.05,5.2727,0,0.00022911,2289.5,7.7334e-05,20.686,7.458e-05,-0.0033106,-0.00022875,-2279.1,0.94078
11605,14.141,5.2727,0.05,8.4236e-07,8.4178,6.4683e-07,4.8601,-9.7943e-13,9.4197e-07,-6.4683e-07,-4.86,0.95153
11606,14.141,5,0,0.00022694,2267.8,7.6901e-05,24.093,7.3694e-05,0.0020317,-0.00022652,-2255.7,0.95245
11607,14.05,5.0909,0,0.00022923,2290.7,7.752e-05,22.461,7.453e-05,0.00055349,-0.00022884,-2279.4,0.94139
11608,14.141,5.0909,0.05,8.4138e-07,8.408,6.4608e-07,4.8544,-2.7978e-12,1.351e-07,-6.4607e-07,-4.8543,0.95214
11609,14.141,4.8182,0,0.00022706,2269.1,7.7069e-05,25.641,7.3657e-05,0.0041769,-0.00022662,-2256.1,0.95298
11610,14.05,4.9091,0,0.00022934,2291.8,7.7686e-05,24.019,7.449e-05,0.002928,-0.00022892,-2279.7,0.94196
11611,14.141,4.9091,0.05,8.3987e-07,8.3929,6.4492e-07,4.8457,-2.8037e-12,-1.2284e-06,-6.4491e-07,-4.8456,0.9527
11612,14.141,4.6364,0,0.00022717,2270.1,7.7213e-05,26.941,7.3629e-05,0.0057736,-0.0002267,-2256.6,0.95347
11613,14.05,4.7273,0,0.00022944,2292.8,7.783e-05,25.351,7.4457e-05,0.004796,-0.000229,-2280.1,0.94248
11614,14.141,4.7273,0.05,8.381e-07,8.3752,6.4356e-07,4.8355,-2.7947e-12,-2.4247e-06,-6.4355e-07,-4.8354,0.95321
11615,14.141,4.4545,0,0.00022727,2271.1,7.7333e-05,28.004,7.3607e-05,0.0068883,-0.00022678,-2257,0.9539
11616,14.05,4.5455,0,0.00022953,2293.7,7.7952e-05,26.458,7.4432e-05,0.0061168,-0.00022907,-2280.4,0.94294
11617,14.141,4.5455,0.05,8.3616e-07,8.3558,6.4207e-07,4.8243,-2.7946e-12,-1.1616e-06,-6.4207e-07,-4.8242,0.95367
11618,14.141,4.2727,0,0.00022735,2271.9,7.743e-05,28.844,7.3592e-05,0.0076511,-0.00022684,-2257.4,0.95429
11619,14.05,4.3636,0,0.00022961,2294.5,7.8053e-05,27.352,7.4413e-05,0.007054,-0.00022913,-2280.7,0.94335
11620,14.141,4.3636,0.05,8.3415e-07,8.3357,6.4052e-07,4.8126,-1.8818e-12,-2.8229e-06,-6.4052e-07,-4.8126,0.95408
11621,14.141,4.0909,0,0.00022742,2272.6,7.7506e-05,29.488,7.3583e-05,0.0081465,-0.0002269,-2257.7,0.95462
11622,14.05,4.1818,0,0.00022968,2295.2,7.8133e-05,28.052,7.44e-05,0.0076902,-0.00022919,-2281,0.94372
11623,14.141,4.1818,0.05,8.3215e-07,8.3157,6.3899e-07,4.8011,-1.8642e-12,-3.436e-06,-6.3898e-07,-4.8011,0.95444
11624,14.141,3.9091,0,0.00022747,2273.1,7.7564e-05,29.962,7.3577e-05,0.0084484,-0.00022695,-2258,0.9549
11625,14.05,4,0,0.00022973,2295.7,7.8195e-05,28.581,7.4392e-05,0.0081033,-0.00022923,-2281.3,0.94403
11626,14.141,4,0.05,8.3024e-07,8.2967,6.3753e-07,4.7901,-2.7649e-12,-2.6643e-06,-6.3752e-07,-4.7901,0.95475
11627,14.141,3.7273,0,0.00022751,2273.6,7.7606e-05,30.298,7.3574e-05,0.0086164,-0.00022698,-2258.3,0.95513
11628,14.05,3.8182,0,0.00022977,2296.1,7.8241e-05,28.967,7.4386e-05,0.0083553,-0.00022927,-2281.5,0.94428
11629,14.141,3.8182,0.05,8.2852e-07,8.2795,6.362e-07,4.7802,-9.3584e-13,-2.3513e-06,-6.362e-07,-4.7801,0.955
11630,14.141,3.5455,0,0.00022754,2273.9,7.7635e-05,30.524,7.3573e-05,0.0086986,-0.00022701,-2258.5,0.95531
11631,14.05,3.6364,0,0.0002298,2296.5,7.8274e-05,29.236,7.4384e-05,0.0084972,-0.00022929,-2281.7,0.94449
11632,14.141,3.6364,0.05,8.2704e-07,8.2647,6.3507e-07,4.7717,-1.8374e-12,-1.0941e-06,-6.3507e-07,-4.7716,0.95521
11633,14.141,3.3636,0,0.00022757,2274.1,7.7653e-05,30.666,7.3573e-05,0.0087312,-0.00022703,-2258.6,0.95544
11634,14.05,3.4545,0,0.00022983,2296.7,7.8296e-05,29.413,7.4382e-05,0.0085696,-0.00022931,-2281.8,0.94465
11635,14.141,3.4545,0.05,8.2588e-07,8.2531,6.3418e-07,4.765,-9.2087e-13,-5.6099e-07,-6.3417e-07,-4.7649,0.95536
11636,14.141,3.1818,0,0.00022758,2274.2,7.7664e-05,30.742,7.3573e-05,0.00874,-0.00022704,-2258.7,0.95552
11637,14.05,3.2727,0,0.00022984,2296.8,7.8309e-05,29.518,7.4382e-05,0.0086003,-0.00022933,-2281.9,0.94475
11638,14.141,3.2727,0.05,8.2508e-07,8.2451,6.3356e-07,4.7603,-9.1576e-13,-7.6165e-07,-6.3356e-07,-4.7603,0.95547
11639,14.141,3,0,0.00022758,2274.2,7.7667e-05,30.766,7.3574e-05,0.0087415,-0.00022704,-2258.7,0.95554
11640,14.05,3.0909,0,0.00022985,2296.9,7.8316e-05,29.567,7.4382e-05,0.0086113,-0.00022933,-2282,0.9448
11641,14.141,3.0909,0.05,8.2467e-07,8.241,6.3324e-07,4.758,-3.6399e-12,-7.2948e-07,-6.3324e-07,-4.7579,0.95552
11642,14.141,2.8182,0,0.00022758,2274.2,7.7664e-05,30.742,7.3573e-05,0.0087406,-0.00022704,-2258.7,0.95552
11643,14.05,2.9091,0,0.00022985,2296.9,7.8316e-05,29.567,7.4382e-05,0.0086114,-0.00022933,-2282,0.9448
11644,14.141,2.9091,0.05,8.2467e-07,8.241,6.3324e-07,4.758,-2.7266e-12,2.5243e-07,-6.3324e-07,-4.7579,0.95552
11645,14.141,2.6364,0,0.00022757,2274.1,7.7653e-05,30.666,7.3573e-05,0.0087313,-0.00022703,-2258.6,0.95544
11646,14.05,2.7273,0,0.00022984,2296.8,7.8309e-05,29.518,7.4382e-05,0.0086007,-0.00022933,-2281.9,0.94475
11647,14.141,2.7273,0.05,8.2508e-07,8.2451,6.3356e-07,4.7603,5.6542e-15,4.3096e-08,-6.3356e-07,-4.7603,0.95547
11648,14.141,2.4545,0,0.00022754,2273.9,7.7635e-05,30.524,7.3573e-05,0.0086983,-0.00022701,-2258.5,0.95531
11649,14.05,2.5455,0,0.00022983,2296.7,7.8296e-05,29.413,7.4382e-05,0.0085694,-0.00022931,-2281.8,0.94465
11650,14.141,2.5455,0.05,8.2588e-07,8.2531,6.3418e-07,4.7649,1.0156e-14,5.5242e-07,-6.3417e-07,-4.7649,0.95536
11651,14.141,2.2727,0,0.00022751,2273.6,7.7606e-05,30.298,7.3574e-05,0.0086158,-0.00022698,-2258.3,0.95513
11652,14.05,2.3636,0,0.0002298,2296.5,7.8274e-05,29.236,7.4384e-05,0.008497,-0.00022929,-2281.7,0.94449
11653,14.141,2.3636,0.05,8.2704e-07,8.2647,6.3507e-07,4.7716,-8.9443e-13,1.0697e-06,-6.3507e-07,-4.7716,0.95521
11654,14.141,2.0909,0,0.00022747,2273.1,7.7564e-05,29.962,7.3577e-05,0.0084482,-0.00022695,-2258,0.9549
11655,14.05,2.1818,0,0.00022977,2296.1,7.8241e-05,28.967,7.4386e-05,0.0083552,-0.00022927,-2281.5,0.94428
11656,14.141,2.1818,0.05,8.2852e-07,8.2795,6.362e-07,4.7802,2.0322e-14,1.1093e-06,-6.362e-07,-4.7802,0.955
11657,14.141,1.9091,0,0.00022742,2272.6,7.7506e-05,29.488,7.3583e-05,0.0081465,-0.0002269,-2257.7,0.95462
11658,14.05,2,0,0.00022973,2295.7,7.8195e-05,28.581,7.4392e-05,0.0081039,-0.00022923,-2281.3,0.94403
11659,14.141,2,0.05,8.3024e-07,8.2967,6.3752e-07,4.7901,2.7237e-14,1.3997e-06,-6.3752e-07,-4.7901,0.95475
11660,14.141,1.7273,0,0.00022735,2271.9,7.743e-05,28.844,7.3593e-05,0.0076509,-0.00022684,-2257.4,0.95429
11661,14.05,1.8182,0,0.00022968,2295.2,7.8133e-05,28.052,7.44e-05,0.0076902,-0.00022919,-2281,0.94372
11662,14.141,1.8182,0.05,8.3215e-07,8.3157,6.3898e-07,4.8011,3.3421e-14,2.4116e-06,-6.3898e-07,-4.8011,0.95444
11663,14.141,1.5455,0,0.00022727,2271.1,7.7333e-05,28.004,7.3607e-05,0.0068888,-0.00022678,-2257,0.9539
11664,14.05,1.6364,0,0.00022961,2294.5,7.8053e-05,27.352,7.4413e-05,0.0070543,-0.00022913,-2280.7,0.94335
11665,14.141,1.6364,0.05,8.3415e-07,8.3357,6.4052e-07,4.8126,1.8576e-12,2.1997e-06,-6.4052e-07,-4.8126,0.95408
11666,14.141,1.3636,0,0.00022717,2270.1,7.7213e-05,26.941,7.3629e-05,0.0057744,-0.0002267,-2256.6,0.95347
11667,14.05,1.4545,0,0.00022953,2293.7,7.7952e-05,26.458,7.4432e-05,0.006117,-0.00022907,-2280.4,0.94294
11668,14.141,1.4545,0.05,8.3616e-07,8.3558,6.4207e-07,4.8242,9.5221e-13,2.2316e-06,-6.4207e-07,-4.8242,0.95367
11669,14.141,1.1818,0,0.00022706,2269.1,7.7069e-05,25.64,7.3657e-05,0.0041778,-0.00022662,-2256.1,0.95298
11670,14.05,1.2727,0,0.00022944,2292.8,7.783e-05,25.351,7.4457e-05,0.0047964,-0.000229,-2280.1,0.94248
11671,14.141,1.2727,0.05,8.381e-07,8.3752,6.4356e-07,4.8354,9.6866e-13,2.6693e-06,-6.4355e-07,-4.8354,0.95321
11672,14.141,1,0,0.00022694,2267.8,7.6901e-05,24.093,7.3694e-05,0.0020324,-0.00022652,-2255.7,0.95245
11673,14.05,1.0909,0,0.00022934,2291.8,7.7686e-05,24.019,7.449e-05,0.002929,-0.00022892,-2279.7,0.94196
11674,14.141,1.0909,0.05,8.3987e-07,8.3929,6.4492e-07,4.8457,1.8579e-12,3.2038e-06,-6.4492e-07,-4.8457,0.9527
11675,14.141,0.81818,0,0.00022681,2266.6,7.6709e-05,22.301,7.3741e-05,-0.0011612,-0.00022642,-2255.3,0.95186
11676,14.05,0.90909,0,0.00022923,2290.7,7.752e-05,22.461,7.453e-05,0.00055447,-0.00022884,-2279.4,0.94139
11677,14.141,0.90909,0.05,8.4138e-07,8.408,6.4607e-07,4.8543,1.8543e-12,3.1521e-06,-6.4608e-07,-4.8544,0.95214
11678,14.141,0.63636,0,0.00022668,2265.2,7.6497e-05,20.284,7.3797e-05,-0.0044141,-0.00022633,-2255,0.95122
11679,14.05,0.72727,0,0.00022911,2289.5,7.7334e-05,20.686,7.458e-05,-0.0033091,-0.00022875,-2279.1,0.94078
11680,14.141,0.72727,0.05,8.4236e-07,8.4178,6.4683e-07,4.86,3.6607e-12,4.2514e-06,-6.4683e-07,-4.8601,0.95153
11681,14.141,0.45455,0,0.00022655,2263.9,7.6274e-05,18.104,7.3862e-05,-0.015087,-0.00022624,-2254.8,0.95053
11682,14.05,0.54545,0,0.000229,2288.4,7.7131e-05,18.72,7.4639e-05,-0.0057791,-0.00022867,-2279,0.94011
11683,14.141,0.54545,0.05,8.4008e-07,8.395,6.4507e-07,4.8468,9.6607e-13,4.134e-06,-6.4508e-07,-4.8469,0.95086
11684,14.141,0.27273,0,0.00022653,2263.8,7.6129e-05,16.437,7.3939e-05,-0.015588,-0.00022625,-2255.5,0.9498
11685,14.05,0.36364,0,0.00022889,2287.4,7.6927e-05,16.661,7.4706e-05,-0.023511,-0.00022861,-2279,0.93939
11686,14.141,0.36364,0.05,7.9357e-07,7.9302,6.0936e-07,4.5785,9.1163e-13,1.6169e-06,-6.0937e-07,-4.5785,0.95015
11687,14.05,0.18182,0,0.00022901,2288.5,7.6894e-05,15.83,7.4787e-05,-0.0022887,-0.00022873,-2280.5,0.93862
11688,14.141,0.18182,0.05,9.2881e-08,0.92817,7.1321e-08,0.53586,-2.1262e-12,-2.0033e-05,-7.1321e-08,-0.5359,0.94939
11689,14.141,0.090909,0,0.00022585,2257,7.5396e-05,10.348,7.4018e-05,-0.0061939,-0.00022568,-2251.8,0.94901
11690,13.958,5.7273,0,0.00023135,2311.9,7.7678e-05,15.949,7.5554e-05,-0.014045,-0.00023108,-2303.9,0.92827
11691,13.866,5.8182,0,0.00023385,2336.8,7.8466e-05,15.538,7.6398e-05,-0.0017332,-0.00023358,-2329,0.91716
11692,13.958,5.8182,0.05,8.2118e-08,0.82061,6.3057e-08,0.47382,2.3667e-12,5.3797e-05,-6.3056e-08,-0.47375,0.92785
11693,13.958,5.9091,0,0.0002307,2305.4,7.6983e-05,10.193,7.5625e-05,-0.0058517,-0.00023053,-2300.3,0.92747
11694,13.958,5.5455,0,0.00023133,2311.7,7.778e-05,17.245,7.5483e-05,-0.014008,-0.00023104,-2303.1,0.92902
11695,13.866,5.6364,0,0.0002337,2335.4,7.8457e-05,15.998,7.6325e-05,-0.021507,-0.00023342,-2327.3,0.91794
11696,13.958,5.6364,0.05,7.929e-07,7.9235,6.0885e-07,4.5747,-3.6465e-12,2.3892e-06,-6.0885e-07,-4.5746,0.92863
11697,13.958,5.3636,0,0.00023143,2312.7,7.7964e-05,19.094,7.5423e-05,-0.0044179,-0.0002311,-2303.1,0.92972
11698,13.866,5.4545,0,0.00023377,2336,7.8622e-05,17.721,7.6263e-05,-0.0056417,-0.00023346,-2327.1,0.91867
11699,13.958,5.4545,0.05,8.402e-07,8.3962,6.4517e-07,4.8476,-2.7439e-12,2.9417e-06,-6.4517e-07,-4.8475,0.92935
11700,13.958,5.1818,0,0.00023153,2313.7,7.8141e-05,20.82,7.537e-05,-0.0014146,-0.00023117,-2303.2,0.93036
11701,13.866,5.2727,0,0.00023385,2336.9,7.8789e-05,19.387,7.6208e-05,-0.0033847,-0.00023351,-2327.1,0.91935
11702,13.958,5.2727,0.05,8.4282e-07,8.4224,6.4718e-07,4.8627,-3.6944e-12,-6.1527e-09,-6.4718e-07,-4.8626,0.93003
11703,13.958,5,0,0.00023162,2314.6,7.8302e-05,22.363,7.5326e-05,0.0015761,-0.00023124,-2303.4,0.93096
11704,13.866,5.0909,0,0.00023394,2337.7,7.8943e-05,20.9,7.6161e-05,0.00019085,-0.00023357,-2327.2,0.91998
11705,13.958,5.0909,0.05,8.4221e-07,8.4163,6.4671e-07,4.8592,-3.684e-12,-3.8621e-07,-6.4671e-07,-4.8591,0.93065
11706,13.958,4.8182,0,0.00023172,2315.6,7.8444e-05,23.706,7.5289e-05,0.0036365,-0.0002313,-2303.6,0.93151
11707,13.866,4.9091,0,0.00023402,2338.6,7.9081e-05,22.237,7.6122e-05,0.002448,-0.00023363,-2327.4,0.92056
11708,13.958,4.9091,0.05,8.4113e-07,8.4055,6.4588e-07,4.8529,-3.7106e-12,-1.3728e-06,-6.4588e-07,-4.8529,0.93122
11709,13.958,4.6364,0,0.0002318,2316.4,7.8566e-05,24.845,7.526e-05,0.0052034,-0.00023137,-2303.9,0.932
11710,13.866,4.7273,0,0.00023409,2339.3,7.9202e-05,23.389,7.609e-05,0.0042552,-0.00023369,-2327.5,0.92108
11711,13.958,4.7273,0.05,8.3983e-07,8.3925,6.4489e-07,4.8454,-1.8898e-12,-2.8543e-06,-6.4488e-07,-4.8454,0.93174
11712,13.958,4.4545,0,0.00023187,2317.1,7.8669e-05,25.785,7.5238e-05,0.0063293,-0.00023142,-2304.1,0.93244
11713,13.866,4.5455,0,0.00023416,2340,7.9305e-05,24.355,7.6064e-05,0.0055666,-0.00023374,-2327.7,0.92155
11714,13.958,4.5455,0.05,8.3839e-07,8.3781,6.4378e-07,4.8371,-2.7981e-12,-2.0677e-06,-6.4377e-07,-4.837,0.93221
11715,13.958,4.2727,0,0.00023194,2317.8,7.8752e-05,26.539,7.5221e-05,0.0071278,-0.00023147,-2304.4,0.93283
11716,13.866,4.3636,0,0.00023422,2340.6,7.939e-05,25.143,7.6045e-05,0.006525,-0.00023378,-2327.9,0.92197
11717,13.958,4.3636,0.05,8.3687e-07,8.363,6.4262e-07,4.8284,-3.6946e-12,-3.5481e-06,-6.4261e-07,-4.8283,0.93262
11718,13.958,4.0909,0,0.00023199,2318.3,7.8818e-05,27.125,7.5209e-05,0.0076735,-0.00023151,-2304.6,0.93317
11719,13.866,4.1818,0,0.00023427,2341.1,7.9458e-05,25.768,7.603e-05,0.0072008,-0.00023382,-2328.1,0.92234
11720,13.958,4.1818,0.05,8.3536e-07,8.3479,6.4146e-07,4.8197,-1.8645e-12,-3.7008e-06,-6.4145e-07,-4.8196,0.93299
11721,13.958,3.9091,0,0.00023203,2318.7,7.8869e-05,27.566,7.5201e-05,0.0080312,-0.00023155,-2304.8,0.93346
11722,13.866,4,0,0.00023431,2341.5,7.9512e-05,26.248,7.6019e-05,0.0076639,-0.00023385,-2328.3,0.92266
11723,13.958,4,0.05,8.3392e-07,8.3335,6.4035e-07,4.8114,-1.8572e-12,-3.6342e-06,-6.4035e-07,-4.8113,0.9333
11724,13.958,3.7273,0,0.00023206,2319,7.8906e-05,27.885,7.5196e-05,0.0082534,-0.00023157,-2304.9,0.93369
11725,13.866,3.8182,0,0.00023434,2341.8,7.9552e-05,26.604,7.6012e-05,0.0079668,-0.00023388,-2328.4,0.92292
11726,13.958,3.8182,0.05,8.3261e-07,8.3204,6.3934e-07,4.8038,-1.8482e-12,-3.0634e-06,-6.3934e-07,-4.8037,0.93356
11727,13.958,3.5455,0,0.00023209,2319.3,7.8932e-05,28.105,7.5193e-05,0.0083834,-0.00023159,-2305.1,0.93388
11728,13.866,3.6364,0,0.00023437,2342,7.9581e-05,26.857,7.6007e-05,0.0081566,-0.0002339,-2328.5,0.92313
11729,13.958,3.6364,0.05,8.3149e-07,8.3092,6.3848e-07,4.7973,-2.7485e-12,-1.5874e-06,-6.3848e-07,-4.7973,0.93377
11730,13.958,3.3636,0,0.0002321,2319.4,7.8949e-05,28.246,7.5191e-05,0.0084525,-0.00023161,-2305.2,0.93401
11731,13.866,3.4545,0,0.00023438,2342.2,7.96e-05,27.027,7.6004e-05,0.0082689,-0.00023391,-2328.6,0.92329
11732,13.958,3.4545,0.05,8.306e-07,8.3003,6.378e-07,4.7922,-1.3345e-14,-2.0041e-06,-6.378e-07,-4.7922,0.93393
11733,13.958,3.1818,0,0.00023211,2319.5,7.8958e-05,28.324,7.519e-05,0.0084846,-0.00023162,-2305.2,0.93409
11734,13.866,3.2727,0,0.00023439,2342.3,7.9612e-05,27.131,7.6003e-05,0.0083277,-0.00023392,-2328.6,0.92339
11735,13.958,3.2727,0.05,8.2999e-07,8.2942,6.3733e-07,4.7887,-9.1702e-13,-2.4416e-06,-6.3733e-07,-4.7886,0.93403
11736,13.958,3,0,0.00023211,2319.5,7.8962e-05,28.349,7.519e-05,0.0084939,-0.00023162,-2305.2,0.93411
11737,13.866,3.0909,0,0.0002344,2342.4,7.9618e-05,27.18,7.6002e-05,0.0083533,-0.00023392,-2328.7,0.92345
11738,13.958,3.0909,0.05,8.2968e-07,8.291,6.3709e-07,4.7868,-2.3941e-15,-9.7173e-07,-6.3709e-07,-4.7868,0.93408
11739,13.958,2.8182,0,0.00023211,2319.5,7.8958e-05,28.324,7.519e-05,0.0084845,-0.00023162,-2305.2,0.93409
11740,13.866,2.9091,0,0.0002344,2342.4,7.9618e-05,27.18,7.6002e-05,0.0083533,-0.00023392,-2328.7,0.92345
11741,13.958,2.9091,0.05,8.2968e-07,8.291,6.3709e-07,4.7868,2.3467e-15,-4.5913e-07,-6.3709e-07,-4.7868,0.93408
11742,13.958,2.6364,0,0.0002321,2319.4,7.8949e-05,28.246,7.5191e-05,0.0084524,-0.00023161,-2305.2,0.93401
11743,13.866,2.7273,0,0.00023439,2342.3,7.9612e-05,27.131,7.6003e-05,0.0083279,-0.00023392,-2328.6,0.92339
11744,13.958,2.7273,0.05,8.2999e-07,8.2942,6.3733e-07,4.7887,-9.0243e-13,-1.8496e-07,-6.3733e-07,-4.7886,0.93403
11745,13.958,2.4545,0,0.00023209,2319.3,7.8932e-05,28.105,7.5193e-05,0.0083831,-0.00023159,-2305.1,0.93388
11746,13.866,2.5455,0,0.00023438,2342.2,7.96e-05,27.027,7.6004e-05,0.0082687,-0.00023391,-2328.6,0.92329
11747,13.958,2.5455,0.05,8.306e-07,8.3003,6.378e-07,4.7922,1.2036e-14,8.9745e-08,-6.378e-07,-4.7922,0.93393
11748,13.958,2.2727,0,0.00023206,2319,7.8906e-05,27.885,7.5196e-05,0.0082537,-0.00023157,-2304.9,0.93369
11749,13.866,2.3636,0,0.00023437,2342,7.9581e-05,26.857,7.6007e-05,0.0081565,-0.0002339,-2328.5,0.92313
11750,13.958,2.3636,0.05,8.3149e-07,8.3092,6.3848e-07,4.7973,1.6939e-14,1.3641e-07,-6.3848e-07,-4.7973,0.93377
11751,13.958,2.0909,0,0.00023203,2318.7,7.8869e-05,27.566,7.5201e-05,0.0080319,-0.00023155,-2304.8,0.93346
11752,13.866,2.1818,0,0.00023434,2341.8,7.9552e-05,26.604,7.6012e-05,0.0079674,-0.00023388,-2328.4,0.92292
11753,13.958,2.1818,0.05,8.3261e-07,8.3204,6.3934e-07,4.8038,2.3008e-14,6.6176e-07,-6.3934e-07,-4.8038,0.93356
11754,13.958,1.9091,0,0.00023199,2318.3,7.8818e-05,27.125,7.5209e-05,0.0076741,-0.00023151,-2304.6,0.93317
11755,13.866,2,0,0.00023431,2341.5,7.9512e-05,26.248,7.6019e-05,0.0076643,-0.00023385,-2328.3,0.92266
11756,13.958,2,0.05,8.3392e-07,8.3335,6.4035e-07,4.8113,3.114e-14,4.7784e-07,-6.4035e-07,-4.8113,0.9333
11757,13.958,1.7273,0,0.00023194,2317.8,7.8752e-05,26.539,7.5221e-05,0.0071284,-0.00023147,-2304.4,0.93283
11758,13.866,1.8182,0,0.00023427,2341.1,7.9458e-05,25.768,7.603e-05,0.0072013,-0.00023382,-2328.1,0.92234
11759,13.958,1.8182,0.05,8.3536e-07,8.3479,6.4145e-07,4.8196,3.3164e-14,1.7295e-06,-6.4146e-07,-4.8196,0.93299
11760,13.958,1.5455,0,0.00023187,2317.1,7.8669e-05,25.785,7.5238e-05,0.0063293,-0.00023142,-2304.1,0.93244
11761,13.866,1.6364,0,0.00023422,2340.6,7.939e-05,25.143,7.6045e-05,0.0065253,-0.00023378,-2327.9,0.92197
11762,13.958,1.6364,0.05,8.3687e-07,8.363,6.4262e-07,4.8283,4.6936e-14,1.2689e-06,-6.4261e-07,-4.8284,0.93262
11763,13.958,1.3636,0,0.0002318,2316.4,7.8566e-05,24.845,7.526e-05,0.0052032,-0.00023137,-2303.9,0.932
11764,13.866,1.4545,0,0.00023416,2340,7.9305e-05,24.354,7.6064e-05,0.005567,-0.00023374,-2327.7,0.92155
11765,13.958,1.4545,0.05,8.3839e-07,8.3781,6.4377e-07,4.8371,9.4995e-13,1.7734e-06,-6.4378e-07,-4.8371,0.93221
11766,13.958,1.1818,0,0.00023172,2315.6,7.8444e-05,23.706,7.5289e-05,0.003637,-0.0002313,-2303.6,0.93151
11767,13.866,1.2727,0,0.00023409,2339.3,7.9202e-05,23.389,7.609e-05,0.0042556,-0.00023369,-2327.5,0.92108
11768,13.958,1.2727,0.05,8.3983e-07,8.3925,6.4488e-07,4.8454,1.8667e-12,2.2388e-06,-6.4489e-07,-4.8454,0.93174
11769,13.958,1,0,0.00023162,2314.6,7.8302e-05,22.363,7.5326e-05,0.0015774,-0.00023124,-2303.4,0.93096
11770,13.866,1.0909,0,0.00023402,2338.6,7.9081e-05,22.237,7.6122e-05,0.0024485,-0.00023363,-2327.4,0.92056
11771,13.958,1.0909,0.05,8.4113e-07,8.4055,6.4588e-07,4.8529,9.6065e-13,2.307e-06,-6.4588e-07,-4.8529,0.93122
11772,13.958,0.81818,0,0.00023153,2313.7,7.8141e-05,20.82,7.537e-05,-0.0014127,-0.00023117,-2303.2,0.93036
11773,13.866,0.90909,0,0.00023394,2337.7,7.8943e-05,20.9,7.6161e-05,0.00019188,-0.00023357,-2327.2,0.91998
11774,13.958,0.90909,0.05,8.4221e-07,8.4163,6.4671e-07,4.8591,5.1426e-14,1.7816e-06,-6.4671e-07,-4.8592,0.93065
11775,13.958,0.63636,0,0.00023143,2312.7,7.7964e-05,19.094,7.5423e-05,-0.0044171,-0.0002311,-2303.1,0.92972
11776,13.866,0.72727,0,0.00023385,2336.9,7.8789e-05,19.387,7.6208e-05,-0.0033828,-0.00023351,-2327.1,0.91935
11777,13.958,0.72727,0.05,8.4282e-07,8.4224,6.4718e-07,4.8626,5.0815e-14,2.7188e-06,-6.4718e-07,-4.8627,0.93003
11778,13.958,0.45455,0,0.00023133,2311.7,7.778e-05,17.245,7.5483e-05,-0.014009,-0.00023104,-2303.1,0.92902
11779,13.866,0.54545,0,0.00023377,2336,7.8622e-05,17.721,7.6263e-05,-0.005642,-0.00023346,-2327.1,0.91867
11780,13.958,0.54545,0.05,8.402e-07,8.3962,6.4517e-07,4.8475,1.8465e-12,2.9056e-06,-6.4517e-07,-4.8476,0.92935
11781,13.958,0.27273,0,0.00023135,2311.9,7.7678e-05,15.949,7.5554e-05,-0.014045,-0.00023108,-2303.9,0.92827
11782,13.866,0.36364,0,0.0002337,2335.4,7.8457e-05,15.998,7.6325e-05,-0.021507,-0.00023342,-2327.3,0.91794
11783,13.958,0.36364,0.05,7.929e-07,7.9235,6.0885e-07,4.5746,3.5984e-12,2.7562e-06,-6.0885e-07,-4.5747,0.92863
11784,13.866,0.18182,0,0.00023385,2336.8,7.8466e-05,15.538,7.6398e-05,-0.0017329,-0.00023358,-2329,0.91716
11785,13.958,0.18182,0.05,8.2118e-08,0.82062,6.3057e-08,0.47376,-1.3293e-12,-3.7459e-05,-6.3056e-08,-0.47381,0.92785
11786,13.958,0.090909,0,0.0002307,2305.4,7.6983e-05,10.193,7.5625e-05,-0.0058507,-0.00023053,-2300.3,0.92747
11787,13.774,5.7273,0,0.00023618,2360.1,7.9231e-05,15.482,7.7169e-05,-0.012706,-0.00023591,-2352.3,0.90689
11788,13.682,5.8182,0,0.00023869,2385.2,8.004e-05,15.246,7.801e-05,-0.0013365,-0.00023842,-2377.6,0.89586
11789,13.774,5.8182,0.05,7.2904e-08,0.72854,5.5981e-08,0.42065,9.7292e-13,3.9996e-05,-5.5982e-08,-0.4206,0.90647
11790,13.774,5.9091,0,0.00023555,2353.9,7.857e-05,10.035,7.7234e-05,-0.0055351,-0.00023538,-2348.9,0.90608
11791,13.774,5.5455,0,0.00023613,2359.6,7.9294e-05,16.443,7.7104e-05,-0.013015,-0.00023584,-2351.4,0.90765
11792,13.682,5.6364,0,0.00023851,2383.4,7.9992e-05,15.371,7.7944e-05,-0.019661,-0.00023824,-2375.7,0.89665
11793,13.774,5.6364,0.05,7.9298e-07,7.9244,6.0892e-07,4.5752,-3.6442e-12,2.3545e-06,-6.0891e-07,-4.5751,0.90726
11794,13.774,5.3636,0,0.00023619,2360.2,7.9443e-05,17.987,7.7048e-05,-0.0043976,-0.00023588,-2351.2,0.90837
11795,13.682,5.4545,0,0.00023855,2383.8,8.0122e-05,16.787,7.7887e-05,-0.0054728,-0.00023826,-2375.4,0.8974
11796,13.774,5.4545,0.05,8.4098e-07,8.404,6.4577e-07,4.8521,-2.7238e-12,2.6987e-06,-6.4576e-07,-4.852,0.908
11797,13.774,5.1818,0,0.00023626,2360.9,7.9587e-05,19.442,7.6999e-05,-0.0016248,-0.00023592,-2351.2,0.90902
11798,13.682,5.2727,0,0.0002386,2384.4,8.0256e-05,18.174,7.7837e-05,-0.003409,-0.00023829,-2375.2,0.89809
11799,13.774,5.2727,0.05,8.4385e-07,8.4327,6.4798e-07,4.8687,-2.7616e-12,4.0998e-07,-6.4797e-07,-4.8686,0.90868
11800,13.774,5,0,0.00023633,2361.6,7.9719e-05,20.75,7.6958e-05,0.001174,-0.00023597,-2351.2,0.90963
11801,13.682,5.0909,0,0.00023866,2385,8.0381e-05,19.441,7.7793e-05,-0.00010396,-0.00023832,-2375.2,0.89873
11802,13.774,5.0909,0.05,8.4353e-07,8.4295,6.4773e-07,4.8668,-3.7043e-12,-1.986e-07,-6.4772e-07,-4.8667,0.90931
11803,13.774,4.8182,0,0.00023639,2362.3,7.9837e-05,21.897,7.6923e-05,0.0031477,-0.00023601,-2351.3,0.91019
11804,13.682,4.9091,0,0.00023872,2385.5,8.0493e-05,20.567,7.7756e-05,0.0020384,-0.00023836,-2375.2,0.89931
11805,13.774,4.9091,0.05,8.4279e-07,8.4221,6.4716e-07,4.8625,-2.7979e-12,-1.0484e-06,-6.4716e-07,-4.8624,0.9099
11806,13.774,4.6364,0,0.00023645,2362.9,7.9938e-05,22.876,7.6894e-05,0.0046782,-0.00023606,-2351.4,0.91069
11807,13.682,4.7273,0,0.00023877,2386.1,8.0592e-05,21.543,7.7725e-05,0.0037818,-0.0002384,-2375.2,0.89985
11808,13.774,4.7273,0.05,8.4186e-07,8.4128,6.4645e-07,4.8572,-2.7888e-12,-2.4283e-06,-6.4644e-07,-4.8571,0.91042
11809,13.774,4.4545,0,0.00023651,2363.4,8.0023e-05,23.69,7.6871e-05,0.0058072,-0.00023609,-2351.5,0.91114
11810,13.682,4.5455,0,0.00023882,2386.5,8.0676e-05,22.367,7.77e-05,0.0050786,-0.00023843,-2375.3,0.90033
11811,13.774,4.5455,0.05,8.4081e-07,8.4023,6.4564e-07,4.8511,-6.8073e-14,-1.4072e-06,-6.4563e-07,-4.851,0.9109
11812,13.774,4.2727,0,0.00023655,2363.9,8.0093e-05,24.35,7.6854e-05,0.0066325,-0.00023613,-2351.6,0.91154
11813,13.682,4.3636,0,0.00023886,2386.9,8.0746e-05,23.044,7.768e-05,0.0060488,-0.00023846,-2375.3,0.90075
11814,13.774,4.3636,0.05,8.3969e-07,8.3912,6.4478e-07,4.8446,-3.6971e-12,-2.795e-06,-6.4478e-07,-4.8446,0.91132
11815,13.774,4.0909,0,0.00023659,2364.3,8.0149e-05,24.87,7.684e-05,0.0072185,-0.00023616,-2351.7,0.91188
11816,13.682,4.1818,0,0.00023889,2387.3,8.0802e-05,23.587,7.7664e-05,0.0067555,-0.00023848,-2375.4,0.90113
11817,13.774,4.1818,0.05,8.3857e-07,8.3799,6.4392e-07,4.8382,-3.693e-12,-2.981e-06,-6.4392e-07,-4.8381,0.91169
11818,13.774,3.9091,0,0.00023662,2364.6,8.0192e-05,25.265,7.683e-05,0.0076219,-0.00023618,-2351.8,0.91217
11819,13.682,4,0,0.00023892,2387.6,8.0846e-05,24.008,7.7652e-05,0.0072582,-0.0002385,-2375.5,0.90145
11820,13.774,4,0.05,8.3749e-07,8.3691,6.4309e-07,4.832,-9.4916e-13,-2.9101e-06,-6.4309e-07,-4.8319,0.91201
11821,13.774,3.7273,0,0.00023664,2364.8,8.0224e-05,25.556,7.6824e-05,0.007889,-0.0002362,-2351.9,0.91241
11822,13.682,3.8182,0,0.00023894,2387.8,8.088e-05,24.324,7.7644e-05,0.0076039,-0.00023852,-2375.5,0.90172
11823,13.774,3.8182,0.05,8.3651e-07,8.3593,6.4234e-07,4.8262,-1.85e-12,-2.8542e-06,-6.4233e-07,-4.8262,0.91228
11824,13.774,3.5455,0,0.00023666,2365,8.0246e-05,25.76,7.6819e-05,0.0080591,-0.00023621,-2352,0.9126
11825,13.682,3.6364,0,0.00023896,2387.9,8.0904e-05,24.551,7.7638e-05,0.0078337,-0.00023853,-2375.6,0.90193
11826,13.774,3.6364,0.05,8.3566e-07,8.3509,6.4169e-07,4.8214,-2.19e-14,-8.8637e-07,-6.4168e-07,-4.8213,0.91249
11827,13.774,3.3636,0,0.00023667,2365.1,8.0261e-05,25.893,7.6816e-05,0.0081597,-0.00023622,-2352,0.91273
11828,13.682,3.4545,0,0.00023897,2388,8.0921e-05,24.707,7.7634e-05,0.0079793,-0.00023854,-2375.6,0.90209
11829,13.774,3.4545,0.05,8.3499e-07,8.3442,6.4117e-07,4.8175,-1.8345e-12,-1.3041e-06,-6.4117e-07,-4.8175,0.91265
11830,13.774,3.1818,0,0.00023668,2365.1,8.027e-05,25.967,7.6815e-05,0.0082114,-0.00023623,-2352.1,0.91281
11831,13.682,3.2727,0,0.00023898,2388.1,8.0931e-05,24.802,7.7631e-05,0.0080631,-0.00023855,-2375.6,0.9022
11832,13.774,3.2727,0.05,8.3453e-07,8.3396,6.4082e-07,4.8149,-9.184e-13,-1.733e-06,-6.4081e-07,-4.8148,0.91276
11833,13.774,3,0,0.00023668,2365.2,8.0272e-05,25.991,7.6814e-05,0.0082275,-0.00023623,-2352.1,0.91284
11834,13.682,3.0909,0,0.00023898,2388.2,8.0936e-05,24.848,7.763e-05,0.0081005,-0.00023855,-2375.6,0.90225
11835,13.774,3.0909,0.05,8.3429e-07,8.3372,6.4064e-07,4.8135,-2.783e-15,-7.3597e-07,-6.4063e-07,-4.8135,0.91281
11836,13.774,2.8182,0,0.00023668,2365.1,8.027e-05,25.967,7.6815e-05,0.0082117,-0.00023623,-2352.1,0.91281
11837,13.682,2.9091,0,0.00023898,2388.2,8.0936e-05,24.848,7.763e-05,0.0081007,-0.00023855,-2375.6,0.90225
11838,13.774,2.9091,0.05,8.3429e-07,8.3372,6.4064e-07,4.8135,2.7321e-15,2.589e-07,-6.4063e-07,-4.8135,0.91281
11839,13.774,2.6364,0,0.00023667,2365.1,8.0261e-05,25.893,7.6816e-05,0.0081598,-0.00023622,-2352,0.91273
11840,13.682,2.7273,0,0.00023898,2388.1,8.0931e-05,24.802,7.7631e-05,0.0080628,-0.00023855,-2375.6,0.9022
11841,13.774,2.7273,0.05,8.3453e-07,8.3396,6.4082e-07,4.8149,8.3848e-15,7.773e-07,-6.4082e-07,-4.8148,0.91276
11842,13.774,2.4545,0,0.00023666,2365,8.0246e-05,25.76,7.6819e-05,0.008059,-0.00023621,-2352,0.9126
11843,13.682,2.5455,0,0.00023897,2388,8.0921e-05,24.707,7.7634e-05,0.0079796,-0.00023854,-2375.6,0.90209
11844,13.774,2.5455,0.05,8.3499e-07,8.3442,6.4117e-07,4.8175,1.372e-14,1.0249e-07,-6.4117e-07,-4.8175,0.91265
11845,13.774,2.2727,0,0.00023664,2364.8,8.0224e-05,25.556,7.6824e-05,0.0078893,-0.0002362,-2351.9,0.91241
11846,13.682,2.3636,0,0.00023896,2387.9,8.0904e-05,24.551,7.7638e-05,0.0078338,-0.00023853,-2375.6,0.90193
11847,13.774,2.3636,0.05,8.3566e-07,8.3509,6.4169e-07,4.8214,1.9975e-14,1.0973e-06,-6.4169e-07,-4.8214,0.91249
11848,13.774,2.0909,0,0.00023662,2364.6,8.0192e-05,25.265,7.683e-05,0.0076222,-0.00023618,-2351.8,0.91217
11849,13.682,2.1818,0,0.00023894,2387.8,8.088e-05,24.324,7.7644e-05,0.0076041,-0.00023852,-2375.5,0.90172
11850,13.774,2.1818,0.05,8.3651e-07,8.3593,6.4233e-07,4.8262,2.6649e-14,9.1391e-07,-6.4233e-07,-4.8263,0.91228
11851,13.774,1.9091,0,0.00023659,2364.3,8.0149e-05,24.87,7.684e-05,0.0072188,-0.00023616,-2351.7,0.91188
11852,13.682,2,0,0.00023892,2387.6,8.0846e-05,24.008,7.7652e-05,0.0072585,-0.0002385,-2375.5,0.90145
11853,13.774,2,0.05,8.3749e-07,8.3691,6.4309e-07,4.8319,3.2667e-14,1.1907e-06,-6.4309e-07,-4.8319,0.91201
11854,13.774,1.7273,0,0.00023655,2363.9,8.0093e-05,24.35,7.6854e-05,0.0066327,-0.00023613,-2351.6,0.91154
11855,13.682,1.8182,0,0.00023889,2387.3,8.0802e-05,23.587,7.7664e-05,0.0067559,-0.00023848,-2375.4,0.90113
11856,13.774,1.8182,0.05,8.3857e-07,8.3799,6.4392e-07,4.8382,3.6876e-14,1.9498e-06,-6.4392e-07,-4.8382,0.91169
11857,13.774,1.5455,0,0.00023651,2363.4,8.0023e-05,23.69,7.6871e-05,0.0058078,-0.00023609,-2351.5,0.91114
11858,13.682,1.6364,0,0.00023886,2386.9,8.0746e-05,23.044,7.768e-05,0.0060489,-0.00023846,-2375.3,0.90075
11859,13.774,1.6364,0.05,8.3969e-07,8.3912,6.4478e-07,4.8446,4.0684e-14,1.7817e-06,-6.4478e-07,-4.8446,0.91132
11860,13.774,1.3636,0,0.00023645,2362.9,7.9938e-05,22.876,7.6894e-05,0.0046791,-0.00023606,-2351.4,0.91069
11861,13.682,1.4545,0,0.00023882,2386.5,8.0676e-05,22.367,7.77e-05,0.0050785,-0.00023843,-2375.3,0.90033
11862,13.774,1.4545,0.05,8.4081e-07,8.4023,6.4564e-07,4.8511,2.7826e-12,2.5592e-06,-6.4564e-07,-4.8511,0.9109
11863,13.774,1.1818,0,0.00023639,2362.3,7.9837e-05,21.896,7.6923e-05,0.0031481,-0.00023601,-2351.3,0.91019
11864,13.682,1.2727,0,0.00023877,2386.1,8.0592e-05,21.543,7.7725e-05,0.0037826,-0.0002384,-2375.2,0.89985
11865,13.774,1.2727,0.05,8.4186e-07,8.4128,6.4644e-07,4.8571,9.4652e-13,2.9431e-06,-6.4645e-07,-4.8571,0.91042
11866,13.774,1,0,0.00023633,2361.6,7.9719e-05,20.75,7.6958e-05,0.0011744,-0.00023597,-2351.2,0.90963
11867,13.682,1.0909,0,0.00023872,2385.5,8.0493e-05,20.567,7.7756e-05,0.0020387,-0.00023836,-2375.2,0.89931
11868,13.774,1.0909,0.05,8.4279e-07,8.4221,6.4716e-07,4.8625,1.8622e-12,3.191e-06,-6.4716e-07,-4.8625,0.9099
11869,13.774,0.81818,0,0.00023626,2360.9,7.9587e-05,19.442,7.6999e-05,-0.0016237,-0.00023592,-2351.2,0.90902
11870,13.682,0.90909,0,0.00023866,2385,8.0381e-05,19.441,7.7793e-05,-0.00010345,-0.00023832,-2375.2,0.89873
11871,13.774,0.90909,0.05,8.4353e-07,8.4295,6.4773e-07,4.8668,9.7015e-13,2.9981e-06,-6.4773e-07,-4.8668,0.90931
11872,13.774,0.63636,0,0.00023619,2360.2,7.9443e-05,17.987,7.7048e-05,-0.0043967,-0.00023588,-2351.2,0.90837
11873,13.682,0.72727,0,0.0002386,2384.4,8.0256e-05,18.174,7.7837e-05,-0.0034072,-0.00023829,-2375.2,0.89809
11874,13.774,0.72727,0.05,8.4385e-07,8.4327,6.4798e-07,4.8686,2.7553e-12,2.8299e-06,-6.4798e-07,-4.8687,0.90868
11875,13.774,0.45455,0,0.00023613,2359.6,7.9294e-05,16.443,7.7104e-05,-0.013015,-0.00023584,-2351.4,0.90765
11876,13.682,0.54545,0,0.00023855,2383.8,8.0122e-05,16.787,7.7887e-05,-0.0054722,-0.00023826,-2375.4,0.8974
11877,13.774,0.54545,0.05,8.4098e-07,8.404,6.4576e-07,4.852,1.8629e-12,2.7735e-06,-6.4577e-07,-4.8521,0.908
11878,13.774,0.27273,0,0.00023618,2360.1,7.9231e-05,15.482,7.7169e-05,-0.012706,-0.00023591,-2352.3,0.90689
11879,13.682,0.36364,0,0.00023851,2383.4,7.9992e-05,15.371,7.7944e-05,-0.019661,-0.00023824,-2375.7,0.89665
11880,13.774,0.36364,0.05,7.9298e-07,7.9244,6.0891e-07,4.5751,3.6109e-12,2.8802e-06,-6.0891e-07,-4.5751,0.90726
11881,13.682,0.18182,0,0.00023869,2385.2,8.004e-05,15.246,7.801e-05,-0.0013363,-0.00023842,-2377.6,0.89586
11882,13.774,0.18182,0.05,7.2905e-08,0.72854,5.5982e-08,0.42062,-2.2662e-12,3.2329e-06,-5.5982e-08,-0.42063,0.90647
11883,13.774,0.090909,0,0.00023555,2353.9,7.857e-05,10.035,7.7234e-05,-0.0055348,-0.00023538,-2348.9,0.90608
11884,13.59,5.7273,0,0.00024101,2408.4,8.0787e-05,15.032,7.8785e-05,-0.011491,-0.00024075,-2400.8,0.88567
11885,13.499,5.8182,0,0.00024354,2433.7,8.1615e-05,14.954,7.9625e-05,-0.0010629,-0.00024328,-2426.2,0.87471
11886,13.59,5.8182,0.05,6.4998e-08,0.64954,4.9911e-08,0.37504,2.5004e-12,4.3068e-05,-4.991e-08,-0.37498,0.88525
11887,13.59,5.9091,0,0.00024041,2402.4,8.0159e-05,9.875,7.8844e-05,-0.0051982,-0.00024024,-2397.5,0.88485
11888,13.59,5.5455,0,0.00024093,2407.6,8.0816e-05,15.685,7.8727e-05,-0.012049,-0.00024066,-2399.7,0.88645
11889,13.499,5.6364,0,0.00024333,2431.6,8.1533e-05,14.773,7.9565e-05,-0.017947,-0.00024308,-2424.2,0.87552
11890,13.59,5.6364,0.05,7.9368e-07,7.9313,6.0945e-07,4.5792,-3.6474e-12,3.3199e-06,-6.0944e-07,-4.5791,0.88605
11891,13.59,5.3636,0,0.00024096,2407.9,8.0932e-05,16.947,7.8675e-05,-0.0043133,-0.00024067,-2399.4,0.88717
11892,13.499,5.4545,0,0.00024334,2431.7,8.1631e-05,15.903,7.9513e-05,-0.0052757,-0.00024307,-2423.7,0.87628
11893,13.59,5.4545,0.05,8.4227e-07,8.4169,6.4676e-07,4.8595,-3.6663e-12,3.3299e-06,-6.4675e-07,-4.8595,0.8868
11894,13.59,5.1818,0,0.000241,2408.4,8.1046e-05,18.148,7.863e-05,-0.0017575,-0.00024069,-2399.2,0.88784
11895,13.499,5.2727,0,0.00024337,2432,8.1734e-05,17.03,7.9467e-05,-0.0033908,-0.00024308,-2423.5,0.87698
11896,13.59,5.2727,0.05,8.4536e-07,8.4477,6.4913e-07,4.8773,-2.7831e-12,1.5556e-06,-6.4912e-07,-4.8772,0.88749
11897,13.59,5,0,0.00024105,2408.8,8.1151e-05,19.234,7.8591e-05,0.00085748,-0.00024071,-2399.1,0.88846
11898,13.499,5.0909,0,0.0002434,2432.4,8.1831e-05,18.065,7.9427e-05,-0.00034016,-0.00024309,-2423.3,0.87763
11899,13.59,5.0909,0.05,8.4526e-07,8.4468,6.4906e-07,4.8768,-9.5726e-13,9.8511e-07,-6.4905e-07,-4.8767,0.88814
11900,13.59,4.8182,0,0.00024109,2409.2,8.1245e-05,20.19,7.8558e-05,0.0027452,-0.00024074,-2399.1,0.88903
11901,13.499,4.9091,0,0.00024344,2432.7,8.1919e-05,18.989,7.9392e-05,0.0016888,-0.00024311,-2423.1,0.87823
11902,13.59,4.9091,0.05,8.4478e-07,8.442,6.4869e-07,4.8741,-3.7019e-12,1.3428e-07,-6.4869e-07,-4.8739,0.88873
11903,13.59,4.6364,0,0.00024113,2409.6,8.1326e-05,21.011,7.8531e-05,0.0042373,-0.00024077,-2399.1,0.88954
11904,13.499,4.7273,0,0.00024347,2433,8.1996e-05,19.792,7.9363e-05,0.0033676,-0.00024313,-2423,0.87877
11905,13.59,4.7273,0.05,8.4415e-07,8.4356,6.482e-07,4.8704,-3.6939e-12,-9.2652e-07,-6.482e-07,-4.8703,0.88927
11906,13.59,4.4545,0,0.00024117,2410,8.1395e-05,21.699,7.8508e-05,0.0053628,-0.00024079,-2399.1,0.88999
11907,13.499,4.5455,0,0.0002435,2433.3,8.2063e-05,20.474,7.9338e-05,0.0046435,-0.00024314,-2423,0.87926
11908,13.59,4.5455,0.05,8.434e-07,8.4282,6.4763e-07,4.866,-1.8823e-12,1.6521e-07,-6.4763e-07,-4.866,0.88975
11909,13.59,4.2727,0,0.0002412,2410.3,8.1452e-05,22.259,7.849e-05,0.0062055,-0.00024081,-2399.1,0.8904
11910,13.499,4.3636,0,0.00024352,2433.5,8.2118e-05,21.037,7.9319e-05,0.0056188,-0.00024316,-2423,0.87969
11911,13.59,4.3636,0.05,8.426e-07,8.4202,6.4701e-07,4.8614,-2.7891e-12,-1.3356e-06,-6.4701e-07,-4.8614,0.89018
11912,13.59,4.0909,0,0.00024122,2410.5,8.1497e-05,22.704,7.8476e-05,0.0068228,-0.00024083,-2399.1,0.89075
11913,13.499,4.1818,0,0.00024354,2433.7,8.2162e-05,21.49,7.9303e-05,0.0063488,-0.00024317,-2422.9,0.88007
11914,13.59,4.1818,0.05,8.4178e-07,8.412,6.4639e-07,4.8567,-9.5625e-13,-2.0353e-06,-6.4638e-07,-4.8566,0.89056
11915,13.59,3.9091,0,0.00024124,2410.7,8.1532e-05,23.045,7.8466e-05,0.0072636,-0.00024084,-2399.1,0.89104
11916,13.499,4,0,0.00024356,2433.9,8.2197e-05,21.844,7.9291e-05,0.0068831,-0.00024318,-2422.9,0.8804
11917,13.59,4,0.05,8.4099e-07,8.4041,6.4578e-07,4.8522,-1.8574e-12,-1.4801e-06,-6.4577e-07,-4.8521,0.89088
11918,13.59,3.7273,0,0.00024125,2410.9,8.1558e-05,23.299,7.8458e-05,0.007569,-0.00024085,-2399.1,0.89129
11919,13.499,3.8182,0,0.00024357,2434,8.2223e-05,22.112,7.9281e-05,0.0072644,-0.00024319,-2422.9,0.88067
11920,13.59,3.8182,0.05,8.4026e-07,8.3968,6.4522e-07,4.848,-3.0902e-14,-9.4642e-07,-6.4522e-07,-4.8479,0.89115
11921,13.59,3.5455,0,0.00024127,2411,8.1576e-05,23.478,7.8452e-05,0.0077724,-0.00024086,-2399.2,0.89148
11922,13.499,3.6364,0,0.00024358,2434.1,8.2243e-05,22.306,7.9275e-05,0.0075284,-0.00024319,-2422.9,0.88089
11923,13.59,3.6364,0.05,8.3964e-07,8.3906,6.4474e-07,4.8443,-2.7518e-12,5.3589e-07,-6.4474e-07,-4.8443,0.89137
11924,13.59,3.3636,0,0.00024127,2411.1,8.1588e-05,23.596,7.8449e-05,0.0079,-0.00024086,-2399.2,0.89161
11925,13.499,3.4545,0,0.00024359,2434.2,8.2256e-05,22.44,7.927e-05,0.0077019,-0.0002432,-2422.9,0.88105
11926,13.59,3.4545,0.05,8.3914e-07,8.3856,6.4435e-07,4.8414,-9.2549e-13,3.566e-07,-6.4435e-07,-4.8414,0.89153
11927,13.59,3.1818,0,0.00024128,2411.1,8.1595e-05,23.663,7.8447e-05,0.0079689,-0.00024086,-2399.2,0.89169
11928,13.499,3.2727,0,0.00024359,2434.2,8.2264e-05,22.522,7.9267e-05,0.0078065,-0.0002432,-2422.9,0.88116
11929,13.59,3.2727,0.05,8.3879e-07,8.3821,6.4409e-07,4.8394,-2.7378e-12,-7.0984e-08,-6.4409e-07,-4.8394,0.89164
11930,13.59,3,0,0.00024128,2411.1,8.1597e-05,23.684,7.8446e-05,0.0079903,-0.00024087,-2399.2,0.89172
11931,13.499,3.0909,0,0.00024359,2434.2,8.2268e-05,22.562,7.9266e-05,0.0078542,-0.0002432,-2422.9,0.88121
11932,13.59,3.0909,0.05,8.3862e-07,8.3804,6.4395e-07,4.8384,-1.822e-12,9.3118e-07,-6.4395e-07,-4.8384,0.89169
11933,13.59,2.8182,0,0.00024128,2411.1,8.1595e-05,23.663,7.8447e-05,0.0079686,-0.00024086,-2399.2,0.89169
11934,13.499,2.9091,0,0.00024359,2434.2,8.2268e-05,22.562,7.9266e-05,0.0078546,-0.0002432,-2422.9,0.88121
11935,13.59,2.9091,0.05,8.3862e-07,8.3804,6.4395e-07,4.8384,-1.8161e-12,1.6912e-06,-6.4395e-07,-4.8384,0.89169
11936,13.59,2.6364,0,0.00024127,2411.1,8.1588e-05,23.596,7.8449e-05,0.0078999,-0.00024086,-2399.2,0.89161
11937,13.499,2.7273,0,0.00024359,2434.2,8.2264e-05,22.522,7.9267e-05,0.0078061,-0.0002432,-2422.9,0.88116
11938,13.59,2.7273,0.05,8.3879e-07,8.3821,6.4409e-07,4.8394,-9.0057e-13,1.7355e-06,-6.4409e-07,-4.8394,0.89164
11939,13.59,2.4545,0,0.00024127,2411,8.1576e-05,23.478,7.8452e-05,0.0077728,-0.00024086,-2399.2,0.89148
11940,13.499,2.5455,0,0.00024359,2434.2,8.2256e-05,22.44,7.927e-05,0.0077024,-0.0002432,-2422.9,0.88105
11941,13.59,2.5455,0.05,8.3914e-07,8.3856,6.4435e-07,4.8414,1.4921e-14,2.0179e-06,-6.4435e-07,-4.8414,0.89153
11942,13.59,2.2727,0,0.00024125,2410.9,8.1558e-05,23.299,7.8458e-05,0.0075689,-0.00024085,-2399.1,0.89129
11943,13.499,2.3636,0,0.00024358,2434.1,8.2243e-05,22.306,7.9275e-05,0.0075286,-0.00024319,-2422.9,0.88089
11944,13.59,2.3636,0.05,8.3964e-07,8.3906,6.4474e-07,4.8443,2.0879e-14,1.8253e-06,-6.4474e-07,-4.8443,0.89137
11945,13.59,2.0909,0,0.00024124,2410.7,8.1532e-05,23.045,7.8466e-05,0.0072637,-0.00024084,-2399.1,0.89104
11946,13.499,2.1818,0,0.00024357,2434,8.2223e-05,22.112,7.9281e-05,0.0072645,-0.00024319,-2422.9,0.88067
11947,13.59,2.1818,0.05,8.4026e-07,8.3968,6.4522e-07,4.8479,2.5436e-14,2.3426e-06,-6.4522e-07,-4.8479,0.89115
11948,13.59,1.9091,0,0.00024122,2410.5,8.1497e-05,22.704,7.8476e-05,0.0068232,-0.00024083,-2399.1,0.89075
11949,13.499,2,0,0.00024356,2433.9,8.2197e-05,21.844,7.9291e-05,0.006884,-0.00024318,-2422.9,0.8804
11950,13.59,2,0.05,8.4099e-07,8.4041,6.4578e-07,4.8521,3.2947e-14,2.4024e-06,-6.4578e-07,-4.8521,0.89088
11951,13.59,1.7273,0,0.0002412,2410.3,8.1452e-05,22.259,7.849e-05,0.0062059,-0.00024081,-2399.1,0.8904
11952,13.499,1.8182,0,0.00024354,2433.7,8.2162e-05,21.49,7.9303e-05,0.0063489,-0.00024317,-2422.9,0.88007
11953,13.59,1.8182,0.05,8.4178e-07,8.412,6.4638e-07,4.8567,3.836e-14,3.1312e-06,-6.4639e-07,-4.8567,0.89056
11954,13.59,1.5455,0,0.00024117,2410,8.1395e-05,21.699,7.8508e-05,0.0053622,-0.00024079,-2399.1,0.88999
11955,13.499,1.6364,0,0.00024352,2433.5,8.2118e-05,21.037,7.9319e-05,0.0056192,-0.00024316,-2423,0.87969
11956,13.59,1.6364,0.05,8.426e-07,8.4202,6.4701e-07,4.8614,9.5534e-13,3.4326e-06,-6.4702e-07,-4.8614,0.89018
11957,13.59,1.3636,0,0.00024113,2409.6,8.1326e-05,21.011,7.8531e-05,0.0042371,-0.00024077,-2399.1,0.88954
11958,13.499,1.4545,0,0.0002435,2433.3,8.2063e-05,20.474,7.9338e-05,0.0046429,-0.00024314,-2423,0.87926
11959,13.59,1.4545,0.05,8.434e-07,8.4282,6.4763e-07,4.866,1.8639e-12,3.4615e-06,-6.4763e-07,-4.866,0.88975
11960,13.59,1.1818,0,0.00024109,2409.2,8.1245e-05,20.19,7.8558e-05,0.0027458,-0.00024074,-2399.1,0.88903
11961,13.499,1.2727,0,0.00024347,2433,8.1996e-05,19.792,7.9363e-05,0.0033681,-0.00024313,-2423,0.87877
11962,13.59,1.2727,0.05,8.4415e-07,8.4356,6.482e-07,4.8703,5.0259e-14,3.6093e-06,-6.482e-07,-4.8703,0.88927
11963,13.59,1,0,0.00024105,2408.8,8.1151e-05,19.234,7.8591e-05,0.00085798,-0.00024071,-2399.1,0.88846
11964,13.499,1.0909,0,0.00024344,2432.7,8.1919e-05,18.989,7.9392e-05,0.0016893,-0.00024311,-2423.1,0.87823
11965,13.59,1.0909,0.05,8.4478e-07,8.442,6.4869e-07,4.874,1.8676e-12,4.1393e-06,-6.4869e-07,-4.874,0.88873
11966,13.59,0.81818,0,0.000241,2408.4,8.1046e-05,18.148,7.863e-05,-0.0017563,-0.00024069,-2399.2,0.88784
11967,13.499,0.90909,0,0.0002434,2432.4,8.1831e-05,18.065,7.9427e-05,-0.00033979,-0.00024309,-2423.3,0.87763
11968,13.59,0.90909,0.05,8.4526e-07,8.4468,6.4905e-07,4.8767,3.6909e-12,4.4972e-06,-6.4906e-07,-4.8767,0.88814
11969,13.59,0.63636,0,0.00024096,2407.9,8.0932e-05,16.947,7.8675e-05,-0.0043119,-0.00024067,-2399.4,0.88717
11970,13.499,0.72727,0,0.00024337,2432,8.1734e-05,17.03,7.9467e-05,-0.0033892,-0.00024308,-2423.5,0.87698
11971,13.59,0.72727,0.05,8.4536e-07,8.4477,6.4913e-07,4.8773,9.521e-13,4.3161e-06,-6.4913e-07,-4.8773,0.88749
11972,13.59,0.45455,0,0.00024093,2407.6,8.0816e-05,15.685,7.8727e-05,-0.012049,-0.00024066,-2399.7,0.88645
11973,13.499,0.54545,0,0.00024334,2431.7,8.1631e-05,15.903,7.9513e-05,-0.0052746,-0.00024307,-2423.7,0.87628
11974,13.59,0.54545,0.05,8.4227e-07,8.4169,6.4676e-07,4.8595,3.2031e-14,2.2609e-06,-6.4676e-07,-4.8595,0.8868
11975,13.59,0.27273,0,0.00024101,2408.4,8.0787e-05,15.031,7.8785e-05,-0.011491,-0.00024075,-2400.8,0.88567
11976,13.499,0.36364,0,0.00024333,2431.6,8.1533e-05,14.773,7.9565e-05,-0.017947,-0.00024308,-2424.2,0.87552
11977,13.59,0.36364,0.05,7.9368e-07,7.9313,6.0944e-07,4.5791,3.6159e-12,3.1799e-06,-6.0945e-07,-4.5792,0.88605
11978,13.499,0.18182,0,0.00024354,2433.7,8.1615e-05,14.954,7.9625e-05,-0.0010633,-0.00024328,-2426.2,0.87471
11979,13.59,0.18182,0.05,6.4999e-08,0.64954,4.991e-08,0.375,-1.2502e-12,-2.5788e-05,-4.9912e-08,-0.37503,0.88525
11980,13.59,0.090909,0,0.00024041,2402.4,8.0159e-05,9.875,7.8844e-05,-0.0051985,-0.00024024,-2397.5,0.88485
11981,13.407,5.7273,0,0.00024585,2456.8,8.2348e-05,14.592,8.0404e-05,-0.010418,-0.00024559,-2449.4,0.86462
11982,13.315,5.8182,0,0.00024839,2482.2,8.3194e-05,14.658,8.1243e-05,-0.00087114,-0.00024814,-2474.9,0.85373
11983,13.407,5.8182,0.05,5.8215e-08,0.58175,4.4703e-08,0.33591,3.5921e-12,5.7101e-05,-4.4701e-08,-0.33584,0.86418
11984,13.407,5.9091,0,0.00024527,2451,8.175e-05,9.7106,8.0457e-05,-0.004885,-0.0002451,-2446.1,0.86378
11985,13.407,5.5455,0,0.00024574,2455.7,8.2344e-05,14.962,8.0351e-05,-0.011147,-0.00024548,-2448.2,0.86541
11986,13.315,5.6364,0,0.00024816,2479.9,8.308e-05,14.196,8.1188e-05,-0.01632,-0.00024792,-2472.8,0.85456
11987,13.407,5.6364,0.05,7.9488e-07,7.9433,6.1037e-07,4.5861,-3.6698e-12,2.261e-06,-6.1036e-07,-4.586,0.865
11988,13.407,5.3636,0,0.00024575,2455.8,8.243e-05,15.961,8.0305e-05,-0.0042174,-0.00024547,-2447.8,0.86614
11989,13.315,5.4545,0,0.00024815,2479.8,8.3147e-05,15.06,8.1142e-05,-0.0050375,-0.00024789,-2472.2,0.85533
11990,13.407,5.4545,0.05,8.4399e-07,8.4341,6.4809e-07,4.8695,-2.778e-12,3.2082e-06,-6.4808e-07,-4.8694,0.86576
11991,13.407,5.1818,0,0.00024577,2456,8.2516e-05,16.923,8.0263e-05,-0.0018647,-0.00024548,-2447.5,0.86683
11992,13.315,5.2727,0,0.00024816,2479.8,8.3222e-05,15.942,8.11e-05,-0.0033186,-0.00024788,-2471.8,0.85604
11993,13.407,5.2727,0.05,8.4725e-07,8.4666,6.5058e-07,4.8883,-2.7834e-12,1.2155e-06,-6.5058e-07,-4.8882,0.86647
11994,13.407,5,0,0.00024579,2456.2,8.2596e-05,17.796,8.0227e-05,0.00057461,-0.00024548,-2447.2,0.86745
11995,13.315,5.0909,0,0.00024817,2479.9,8.3293e-05,16.756,8.1063e-05,-0.00050911,-0.00024788,-2471.5,0.8567
11996,13.407,5.0909,0.05,8.4733e-07,8.4675,6.5065e-07,4.8887,-3.6799e-12,9.3009e-07,-6.5064e-07,-4.8886,0.86713
11997,13.407,4.8182,0,0.00024581,2456.4,8.2667e-05,18.567,8.0196e-05,0.0023754,-0.00024549,-2447.1,0.86803
11998,13.315,4.9091,0,0.00024818,2480.1,8.3358e-05,17.484,8.1031e-05,0.0014075,-0.00024788,-2471.3,0.85731
11999,13.407,4.9091,0.05,8.4706e-07,8.4648,6.5044e-07,4.8872,-3.6909e-12,-3.583e-08,-6.5044e-07,-4.8871,0.86773
12000,13.407,4.6364,0,0.00024583,2456.6,8.2729e-05,19.232,8.017e-05,0.0038239,-0.0002455,-2446.9,0.86855
12001,13.315,4.7273,0,0.00024819,2480.2,8.3415e-05,18.118,8.1004e-05,0.0030196,-0.00024788,-2471.1,0.85786
12002,13.407,4.7273,0.05,8.4666e-07,8.4607,6.5013e-07,4.8848,-1.8771e-12,-1.0748e-06,-6.5012e-07,-4.8847,0.86827
12003,13.407,4.4545,0,0.00024585,2456.8,8.2782e-05,19.79,8.0149e-05,0.0049394,-0.00024551,-2446.9,0.86901
12004,13.315,4.5455,0,0.0002482,2480.3,8.3463e-05,18.657,8.0981e-05,0.0042693,-0.00024788,-2470.9,0.85835
12005,13.407,4.5455,0.05,8.4616e-07,8.4557,6.4974e-07,4.8819,-9.7008e-13,-3.4297e-07,-6.4974e-07,-4.8819,0.86877
12006,13.407,4.2727,0,0.00024587,2457,8.2825e-05,20.247,8.0131e-05,0.0057946,-0.00024552,-2446.8,0.86942
12007,13.315,4.3636,0,0.00024821,2480.4,8.3504e-05,19.103,8.0962e-05,0.0052455,-0.00024788,-2470.8,0.8588
12008,13.407,4.3636,0.05,8.456e-07,8.4502,6.4932e-07,4.8787,-2.7815e-12,-1.6118e-06,-6.4931e-07,-4.8787,0.8692
12009,13.407,4.0909,0,0.00024588,2457.1,8.286e-05,20.61,8.0117e-05,0.0064364,-0.00024552,-2446.7,0.86978
12010,13.315,4.1818,0,0.00024822,2480.5,8.3536e-05,19.463,8.0947e-05,0.0059912,-0.00024788,-2470.7,0.85918
12011,13.407,4.1818,0.05,8.4502e-07,8.4444,6.4887e-07,4.8754,-3.6853e-12,-1.5433e-06,-6.4887e-07,-4.8754,0.86959
12012,13.407,3.9091,0,0.00024589,2457.2,8.2886e-05,20.891,8.0107e-05,0.0069076,-0.00024553,-2446.7,0.87008
12013,13.315,4,0,0.00024822,2480.5,8.3561e-05,19.743,8.0935e-05,0.006552,-0.00024788,-2470.6,0.85951
12014,13.407,4,0.05,8.4446e-07,8.4387,6.4844e-07,4.8721,-2.7658e-12,-1.4736e-06,-6.4843e-07,-4.8721,0.86991
12015,13.407,3.7273,0,0.00024589,2457.2,8.2906e-05,21.099,8.0098e-05,0.0072451,-0.00024553,-2446.6,0.87033
12016,13.315,3.8182,0,0.00024823,2480.6,8.358e-05,19.955,8.0925e-05,0.0069629,-0.00024788,-2470.5,0.85979
12017,13.407,3.8182,0.05,8.4393e-07,8.4335,6.4804e-07,4.8691,-9.409e-13,-1.1782e-06,-6.4803e-07,-4.869,0.87019
12018,13.407,3.5455,0,0.0002459,2457.3,8.2919e-05,21.247,8.0093e-05,0.0074777,-0.00024553,-2446.6,0.87052
12019,13.315,3.6364,0,0.00024823,2480.6,8.3594e-05,20.109,8.0918e-05,0.0072551,-0.00024788,-2470.5,0.86001
12020,13.407,3.6364,0.05,8.4348e-07,8.4289,6.4768e-07,4.8665,-9.33e-13,3.1441e-07,-6.4768e-07,-4.8664,0.87041
12021,13.407,3.3636,0,0.0002459,2457.3,8.2928e-05,21.345,8.0089e-05,0.0076273,-0.00024553,-2446.6,0.87065
12022,13.315,3.4545,0,0.00024823,2480.6,8.3603e-05,20.215,8.0914e-05,0.0074535,-0.00024788,-2470.4,0.86018
12023,13.407,3.4545,0.05,8.4311e-07,8.4253,6.4741e-07,4.8644,-2.7444e-12,3.5513e-07,-6.474e-07,-4.8643,0.87057
12024,13.407,3.1818,0,0.0002459,2457.3,8.2934e-05,21.401,8.0086e-05,0.0077101,-0.00024553,-2446.6,0.87074
12025,13.315,3.2727,0,0.00024823,2480.6,8.3609e-05,20.28,8.091e-05,0.0075747,-0.00024788,-2470.4,0.86029
12026,13.407,3.2727,0.05,8.4286e-07,8.4228,6.4721e-07,4.8629,-9.1896e-13,-7.109e-08,-6.4721e-07,-4.8629,0.87068
12027,13.407,3,0,0.0002459,2457.3,8.2935e-05,21.418,8.0086e-05,0.0077366,-0.00024553,-2446.6,0.87076
12028,13.315,3.0909,0,0.00024823,2480.6,8.3611e-05,20.311,8.0909e-05,0.0076322,-0.00024788,-2470.4,0.86034
12029,13.407,3.0909,0.05,8.4273e-07,8.4215,6.4711e-07,4.8622,-1.8221e-12,6.9223e-07,-6.4711e-07,-4.8622,0.87074
12030,13.407,2.8182,0,0.0002459,2457.3,8.2934e-05,21.401,8.0086e-05,0.0077105,-0.00024553,-2446.6,0.87074
12031,13.315,2.9091,0,0.00024823,2480.6,8.3611e-05,20.311,8.0909e-05,0.0076325,-0.00024788,-2470.4,0.86034
12032,13.407,2.9091,0.05,8.4273e-07,8.4215,6.4711e-07,4.8622,-9.0647e-13,1.6917e-06,-6.4711e-07,-4.8622,0.87074
12033,13.407,2.6364,0,0.0002459,2457.3,8.2928e-05,21.345,8.0089e-05,0.0076274,-0.00024553,-2446.6,0.87065
12034,13.315,2.7273,0,0.00024823,2480.6,8.3609e-05,20.28,8.091e-05,0.007575,-0.00024788,-2470.4,0.86029
12035,13.407,2.7273,0.05,8.4286e-07,8.4228,6.4721e-07,4.8629,-9.0043e-13,1.9757e-06,-6.4721e-07,-4.8629,0.87068
12036,13.407,2.4545,0,0.0002459,2457.3,8.2919e-05,21.247,8.0093e-05,0.0074779,-0.00024553,-2446.6,0.87052
12037,13.315,2.5455,0,0.00024823,2480.6,8.3603e-05,20.215,8.0914e-05,0.0074534,-0.00024788,-2470.4,0.86018
12038,13.407,2.5455,0.05,8.4311e-07,8.4253,6.4741e-07,4.8644,-1.8039e-12,1.5453e-06,-6.4741e-07,-4.8643,0.87057
12039,13.407,2.2727,0,0.00024589,2457.2,8.2906e-05,21.099,8.0098e-05,0.0072455,-0.00024553,-2446.6,0.87033
12040,13.315,2.3636,0,0.00024823,2480.6,8.3594e-05,20.109,8.0918e-05,0.0072554,-0.00024788,-2470.5,0.86001
12041,13.407,2.3636,0.05,8.4348e-07,8.4289,6.4768e-07,4.8664,2.089e-14,1.8324e-06,-6.4769e-07,-4.8664,0.87041
12042,13.407,2.0909,0,0.00024589,2457.2,8.2886e-05,20.89,8.0107e-05,0.0069085,-0.00024553,-2446.7,0.87008
12043,13.315,2.1818,0,0.00024823,2480.6,8.358e-05,19.955,8.0925e-05,0.0069632,-0.00024788,-2470.5,0.85979
12044,13.407,2.1818,0.05,8.4393e-07,8.4335,6.4803e-07,4.8691,2.9147e-14,2.1281e-06,-6.4803e-07,-4.8691,0.87019
12045,13.407,1.9091,0,0.00024588,2457.1,8.286e-05,20.61,8.0117e-05,0.006437,-0.00024552,-2446.7,0.86978
12046,13.315,2,0,0.00024822,2480.5,8.3561e-05,19.743,8.0935e-05,0.0065525,-0.00024788,-2470.6,0.85951
12047,13.407,2,0.05,8.4446e-07,8.4387,6.4844e-07,4.8721,3.3986e-14,2.4001e-06,-6.4844e-07,-4.8721,0.86991
12048,13.407,1.7273,0,0.00024587,2457,8.2825e-05,20.247,8.0131e-05,0.0057947,-0.00024552,-2446.8,0.86942
12049,13.315,1.8182,0,0.00024822,2480.5,8.3536e-05,19.463,8.0947e-05,0.0059919,-0.00024788,-2470.7,0.85918
12050,13.407,1.8182,0.05,8.4502e-07,8.4444,6.4887e-07,4.8754,9.4884e-13,2.6897e-06,-6.4887e-07,-4.8754,0.86959
12051,13.407,1.5455,0,0.00024585,2456.8,8.2782e-05,19.79,8.0149e-05,0.0049397,-0.00024551,-2446.9,0.86901
12052,13.315,1.6364,0,0.00024821,2480.4,8.3504e-05,19.103,8.0962e-05,0.0052455,-0.00024788,-2470.8,0.8588
12053,13.407,1.6364,0.05,8.456e-07,8.4502,6.4932e-07,4.8787,9.5383e-13,2.8144e-06,-6.4932e-07,-4.8787,0.8692
12054,13.407,1.3636,0,0.00024583,2456.6,8.2729e-05,19.232,8.017e-05,0.003824,-0.0002455,-2446.9,0.86855
12055,13.315,1.4545,0,0.0002482,2480.3,8.3463e-05,18.657,8.0981e-05,0.0042698,-0.00024788,-2470.9,0.85835
12056,13.407,1.4545,0.05,8.4616e-07,8.4557,6.4974e-07,4.8819,1.8717e-12,3.2334e-06,-6.4974e-07,-4.8819,0.86877
12057,13.407,1.1818,0,0.00024581,2456.4,8.2667e-05,18.567,8.0196e-05,0.0023758,-0.00024549,-2447.1,0.86803
12058,13.315,1.2727,0,0.00024819,2480.2,8.3415e-05,18.118,8.1004e-05,0.0030201,-0.00024788,-2471.1,0.85786
12059,13.407,1.2727,0.05,8.4666e-07,8.4607,6.5012e-07,4.8848,9.595e-13,3.4172e-06,-6.5013e-07,-4.8848,0.86827
12060,13.407,1,0,0.00024579,2456.2,8.2596e-05,17.796,8.0227e-05,0.00057499,-0.00024548,-2447.2,0.86745
12061,13.315,1.0909,0,0.00024818,2480.1,8.3358e-05,17.484,8.1031e-05,0.0014083,-0.00024788,-2471.3,0.85731
12062,13.407,1.0909,0.05,8.4706e-07,8.4648,6.5044e-07,4.8871,2.7812e-12,4.0787e-06,-6.5044e-07,-4.8872,0.86773
12063,13.407,0.81818,0,0.00024577,2456,8.2516e-05,16.923,8.0263e-05,-0.0018639,-0.00024548,-2447.5,0.86683
12064,13.315,0.90909,0,0.00024817,2479.9,8.3293e-05,16.756,8.1063e-05,-0.00050864,-0.00024788,-2471.5,0.8567
12065,13.407,0.90909,0.05,8.4733e-07,8.4675,6.5064e-07,4.8887,4.5298e-14,3.2086e-06,-6.5065e-07,-4.8887,0.86713
12066,13.407,0.63636,0,0.00024575,2455.8,8.243e-05,15.961,8.0305e-05,-0.0042162,-0.00024547,-2447.8,0.86614
12067,13.315,0.72727,0,0.00024816,2479.8,8.3222e-05,15.942,8.11e-05,-0.0033172,-0.00024788,-2471.8,0.85604
12068,13.407,0.72727,0.05,8.4725e-07,8.4666,6.5058e-07,4.8882,9.6651e-13,3.6662e-06,-6.5058e-07,-4.8882,0.86647
12069,13.407,0.45455,0,0.00024574,2455.7,8.2344e-05,14.961,8.0351e-05,-0.011147,-0.00024548,-2448.2,0.86541
12070,13.315,0.54545,0,0.00024815,2479.8,8.3147e-05,15.06,8.1142e-05,-0.0050371,-0.00024789,-2472.2,0.85533
12071,13.407,0.54545,0.05,8.4399e-07,8.4341,6.4808e-07,4.8694,9.4965e-13,2.7615e-06,-6.4809e-07,-4.8695,0.86576
12072,13.407,0.27273,0,0.00024585,2456.8,8.2348e-05,14.592,8.0404e-05,-0.010419,-0.00024559,-2449.4,0.86462
12073,13.315,0.36364,0,0.00024816,2479.9,8.308e-05,14.196,8.1188e-05,-0.01632,-0.00024792,-2472.8,0.85456
12074,13.407,0.36364,0.05,7.9488e-07,7.9433,6.1036e-07,4.586,2.7491e-12,2.0818e-06,-6.1037e-07,-4.5861,0.865
12075,13.315,0.18182,0,0.00024839,2482.2,8.3194e-05,14.658,8.1243e-05,-0.00087083,-0.00024814,-2474.9,0.85373
12076,13.407,0.18182,0.05,5.8216e-08,0.58176,4.47e-08,0.33586,-3.5275e-12,-2.6124e-05,-4.4705e-08,-0.33589,0.86418
12077,13.407,0.090909,0,0.00024527,2451,8.175e-05,9.7106,8.0457e-05,-0.0048839,-0.0002451,-2446.1,0.86378
12078,13.223,5.7273,0,0.0002507,2505.2,8.3912e-05,14.16,8.2027e-05,-0.0093863,-0.00025045,-2498.1,0.84373
12079,13.131,5.8182,0,0.00025326,2530.9,8.4775e-05,14.358,8.2864e-05,-0.00075048,-0.00025302,-2523.7,0.83292
12080,13.223,5.8182,0.05,5.2406e-08,0.5237,4.0243e-08,0.30239,4.5239e-12,5.4531e-05,-4.024e-08,-0.30232,0.84328
12081,13.223,5.9091,0,0.00025014,2499.7,8.3345e-05,9.5419,8.2074e-05,-0.0045184,-0.00024998,-2494.9,0.84287
12082,13.223,5.5455,0,0.00025057,2504,8.3879e-05,14.265,8.1979e-05,-0.010219,-0.00025032,-2496.8,0.84453
12083,13.131,5.6364,0,0.00025301,2528.4,8.4632e-05,13.635,8.2816e-05,-0.01477,-0.00025278,-2521.5,0.83376
12084,13.223,5.6364,0.05,7.965e-07,7.9595,6.1161e-07,4.5954,-3.6568e-12,3.5052e-06,-6.1161e-07,-4.5954,0.84411
12085,13.223,5.3636,0,0.00025055,2503.8,8.3936e-05,15.016,8.1937e-05,-0.0040337,-0.00025029,-2496.3,0.84528
12086,13.131,5.4545,0,0.00025297,2528,8.4671e-05,14.248,8.2774e-05,-0.0047709,-0.00025273,-2520.8,0.83454
12087,13.223,5.4545,0.05,8.4607e-07,8.4549,6.4968e-07,4.8815,-1.8507e-12,3.7407e-06,-6.4968e-07,-4.8814,0.84489
12088,13.223,5.1818,0,0.00025055,2503.8,8.3996e-05,15.751,8.19e-05,-0.0018746,-0.00025028,-2495.9,0.84597
12089,13.131,5.2727,0,0.00025296,2527.8,8.472e-05,14.897,8.2736e-05,-0.0032072,-0.0002527,-2520.3,0.83527
12090,13.223,5.2727,0.05,8.4946e-07,8.4887,6.5228e-07,4.901,-2.7749e-12,1.5831e-06,-6.5228e-07,-4.9009,0.84561
12091,13.223,5,0,0.00025055,2503.8,8.4052e-05,16.42,8.1867e-05,0.00039409,-0.00025027,-2495.5,0.84661
12092,13.131,5.0909,0,0.00025295,2527.7,8.4766e-05,15.498,8.2703e-05,-0.00062981,-0.00025268,-2519.9,0.83594
12093,13.223,5.0909,0.05,8.4968e-07,8.491,6.5246e-07,4.9023,-1.8841e-12,1.2959e-06,-6.5245e-07,-4.9022,0.84628
12094,13.223,4.8182,0,0.00025055,2503.8,8.4102e-05,17.011,8.1838e-05,0.0021074,-0.00025026,-2495.2,0.84719
12095,13.131,4.9091,0,0.00025294,2527.6,8.4808e-05,16.036,8.2674e-05,0.0011754,-0.00025266,-2519.6,0.83655
12096,13.223,4.9091,0.05,8.4958e-07,8.4899,6.5238e-07,4.9017,-2.7698e-12,7.8539e-07,-6.5237e-07,-4.9016,0.84689
12097,13.223,4.6364,0,0.00025056,2503.8,8.4146e-05,17.521,8.1814e-05,0.0035097,-0.00025025,-2495,0.84772
12098,13.131,4.7273,0,0.00025293,2527.6,8.4845e-05,16.504,8.2649e-05,0.0027183,-0.00025265,-2519.3,0.83711
12099,13.223,4.7273,0.05,8.4936e-07,8.4877,6.522e-07,4.9004,-2.7811e-12,-2.788e-07,-6.522e-07,-4.9003,0.84744
12100,13.223,4.4545,0,0.00025056,2503.9,8.4182e-05,17.949,8.1794e-05,0.004612,-0.00025025,-2494.8,0.84819
12101,13.131,4.5455,0,0.00025293,2527.5,8.4877e-05,16.901,8.2628e-05,0.0039392,-0.00025264,-2519,0.83762
12102,13.223,4.5455,0.05,8.4905e-07,8.4846,6.5197e-07,4.8986,-3.6912e-12,5.3096e-07,-6.5196e-07,-4.8986,0.84794
12103,13.223,4.2727,0,0.00025056,2503.9,8.4212e-05,18.298,8.1777e-05,0.0054729,-0.00025024,-2494.7,0.84861
12104,13.131,4.3636,0,0.00025292,2527.5,8.4902e-05,17.227,8.261e-05,0.0049104,-0.00025263,-2518.8,0.83807
12105,13.223,4.3636,0.05,8.4869e-07,8.481,6.5169e-07,4.8965,-3.6857e-12,-7.4329e-07,-6.5168e-07,-4.8965,0.84839
12106,13.223,4.0909,0,0.00025056,2503.9,8.4235e-05,18.574,8.1764e-05,0.0061334,-0.00025024,-2494.5,0.84897
12107,13.131,4.1818,0,0.00025292,2527.4,8.4923e-05,17.487,8.2596e-05,0.0056677,-0.00025262,-2518.6,0.83846
12108,13.223,4.1818,0.05,8.483e-07,8.4771,6.5139e-07,4.8943,-2.7695e-12,-1.0977e-06,-6.5139e-07,-4.8942,0.84878
12109,13.223,3.9091,0,0.00025056,2503.9,8.4253e-05,18.787,8.1753e-05,0.0066311,-0.00025024,-2494.4,0.84928
12110,13.131,4,0,0.00025291,2527.4,8.4938e-05,17.689,8.2584e-05,0.0062504,-0.00025261,-2518.5,0.8388
12111,13.223,4,0.05,8.4791e-07,8.4733,6.5109e-07,4.8921,-9.4622e-13,-7.6071e-07,-6.5109e-07,-4.892,0.84911
12112,13.223,3.7273,0,0.00025056,2503.9,8.4266e-05,18.945,8.1745e-05,0.0069949,-0.00025023,-2494.3,0.84953
12113,13.131,3.8182,0,0.00025291,2527.3,8.4949e-05,17.84,8.2575e-05,0.0066857,-0.0002526,-2518.4,0.83908
12114,13.223,3.8182,0.05,8.4755e-07,8.4696,6.5081e-07,4.89,-9.391e-13,-5.7508e-07,-6.5081e-07,-4.8899,0.84939
12115,13.223,3.5455,0,0.00025056,2503.9,8.4275e-05,19.056,8.1739e-05,0.0072517,-0.00025023,-2494.3,0.84973
12116,13.131,3.6364,0,0.0002529,2527.3,8.4956e-05,17.948,8.2569e-05,0.0070022,-0.00025259,-2518.3,0.8393
12117,13.223,3.6364,0.05,8.4723e-07,8.4664,6.5057e-07,4.8881,-1.8416e-12,9.0902e-07,-6.5056e-07,-4.8881,0.84961
12118,13.223,3.3636,0,0.00025056,2503.9,8.428e-05,19.129,8.1735e-05,0.007421,-0.00025023,-2494.2,0.84986
12119,13.131,3.4545,0,0.0002529,2527.3,8.4961e-05,18.021,8.2564e-05,0.0072225,-0.00025259,-2518.2,0.83947
12120,13.223,3.4545,0.05,8.4697e-07,8.4639,6.5037e-07,4.8866,-1.5026e-14,8.3709e-07,-6.5036e-07,-4.8866,0.84978
12121,13.223,3.1818,0,0.00025056,2503.8,8.4284e-05,19.171,8.1733e-05,0.0075165,-0.00025023,-2494.2,0.84995
12122,13.131,3.2727,0,0.0002529,2527.2,8.4964e-05,18.066,8.2561e-05,0.0073591,-0.00025259,-2518.2,0.83958
12123,13.223,3.2727,0.05,8.4679e-07,8.4621,6.5023e-07,4.8856,-9.1873e-13,1.6976e-07,-6.5023e-07,-4.8856,0.84989
12124,13.223,3,0,0.00025056,2503.8,8.4285e-05,19.184,8.1732e-05,0.0075476,-0.00025022,-2494.2,0.84998
12125,13.131,3.0909,0,0.0002529,2527.2,8.4965e-05,18.087,8.2559e-05,0.0074249,-0.00025258,-2518.1,0.83964
12126,13.223,3.0909,0.05,8.467e-07,8.4611,6.5016e-07,4.8851,-9.1245e-13,1.4084e-06,-6.5016e-07,-4.885,0.84995
12127,13.223,2.8182,0,0.00025056,2503.8,8.4284e-05,19.171,8.1733e-05,0.0075167,-0.00025023,-2494.2,0.84995
12128,13.131,2.9091,0,0.0002529,2527.2,8.4965e-05,18.087,8.2559e-05,0.0074249,-0.00025258,-2518.1,0.83964
12129,13.223,2.9091,0.05,8.467e-07,8.4611,6.5016e-07,4.8851,-9.0656e-13,2.4063e-06,-6.5016e-07,-4.885,0.84995
12130,13.223,2.6364,0,0.00025056,2503.9,8.428e-05,19.129,8.1735e-05,0.0074211,-0.00025023,-2494.2,0.84986
12131,13.131,2.7273,0,0.0002529,2527.2,8.4964e-05,18.066,8.2561e-05,0.0073591,-0.00025259,-2518.2,0.83958
12132,13.223,2.7273,0.05,8.4679e-07,8.4621,6.5023e-07,4.8856,8.8658e-15,2.2124e-06,-6.5023e-07,-4.8856,0.84989
12133,13.223,2.4545,0,0.00025056,2503.9,8.4275e-05,19.056,8.1739e-05,0.0072516,-0.00025023,-2494.3,0.84973
12134,13.131,2.5455,0,0.0002529,2527.3,8.4961e-05,18.021,8.2564e-05,0.0072225,-0.00025259,-2518.2,0.83947
12135,13.223,2.5455,0.05,8.4697e-07,8.4639,6.5037e-07,4.8866,1.5031e-14,2.0192e-06,-6.5036e-07,-4.8866,0.84978
12136,13.223,2.2727,0,0.00025056,2503.9,8.4266e-05,18.945,8.1745e-05,0.0069951,-0.00025023,-2494.3,0.84953
12137,13.131,2.3636,0,0.0002529,2527.3,8.4956e-05,17.948,8.2569e-05,0.0070025,-0.00025259,-2518.3,0.8393
12138,13.223,2.3636,0.05,8.4723e-07,8.4664,6.5056e-07,4.8881,2.0961e-14,2.0666e-06,-6.5056e-07,-4.8881,0.84961
12139,13.223,2.0909,0,0.00025056,2503.9,8.4253e-05,18.787,8.1753e-05,0.0066311,-0.00025024,-2494.4,0.84928
12140,13.131,2.1818,0,0.00025291,2527.3,8.4949e-05,17.84,8.2575e-05,0.0066861,-0.0002526,-2518.4,0.83908
12141,13.223,2.1818,0.05,8.4755e-07,8.4696,6.5081e-07,4.8899,2.7238e-14,2.352e-06,-6.5081e-07,-4.8899,0.84939
12142,13.223,1.9091,0,0.00025056,2503.9,8.4235e-05,18.574,8.1764e-05,0.006134,-0.00025024,-2494.5,0.84897
12143,13.131,2,0,0.00025291,2527.4,8.4938e-05,17.689,8.2584e-05,0.0062499,-0.00025261,-2518.5,0.8388
12144,13.223,2,0.05,8.4791e-07,8.4733,6.5109e-07,4.892,2.7598e-12,2.7299e-06,-6.5109e-07,-4.892,0.84911
12145,13.223,1.7273,0,0.00025056,2503.9,8.4212e-05,18.298,8.1777e-05,0.0054733,-0.00025024,-2494.7,0.84861
12146,13.131,1.8182,0,0.00025292,2527.4,8.4923e-05,17.487,8.2596e-05,0.0056683,-0.00025262,-2518.6,0.83846
12147,13.223,1.8182,0.05,8.483e-07,8.4771,6.5139e-07,4.8942,9.4521e-13,3.014e-06,-6.5139e-07,-4.8943,0.84878
12148,13.223,1.5455,0,0.00025056,2503.9,8.4182e-05,17.949,8.1794e-05,0.0046121,-0.00025025,-2494.8,0.84819
12149,13.131,1.6364,0,0.00025292,2527.5,8.4902e-05,17.227,8.261e-05,0.0049105,-0.00025263,-2518.8,0.83807
12150,13.223,1.6364,0.05,8.4869e-07,8.481,6.5169e-07,4.8965,4.0811e-14,3.5032e-06,-6.5169e-07,-4.8965,0.84839
12151,13.223,1.3636,0,0.00025056,2503.8,8.4146e-05,17.521,8.1814e-05,0.0035106,-0.00025025,-2495,0.84772
12152,13.131,1.4545,0,0.00025293,2527.5,8.4877e-05,16.9,8.2628e-05,0.0039394,-0.00025264,-2519,0.83762
12153,13.223,1.4545,0.05,8.4905e-07,8.4846,6.5196e-07,4.8986,5.1511e-14,3.6912e-06,-6.5197e-07,-4.8986,0.84794
12154,13.223,1.1818,0,0.00025055,2503.8,8.4102e-05,17.011,8.1838e-05,0.0021083,-0.00025026,-2495.2,0.84719
12155,13.131,1.2727,0,0.00025293,2527.6,8.4845e-05,16.504,8.2649e-05,0.0027188,-0.00025265,-2519.3,0.83711
12156,13.223,1.2727,0.05,8.4936e-07,8.4877,6.522e-07,4.9004,1.8593e-12,4.0786e-06,-6.522e-07,-4.9004,0.84744
12157,13.223,1,0,0.00025055,2503.8,8.4052e-05,16.42,8.1867e-05,0.0003949,-0.00025027,-2495.5,0.84661
12158,13.131,1.0909,0,0.00025294,2527.6,8.4808e-05,16.036,8.2674e-05,0.001176,-0.00025266,-2519.6,0.83655
12159,13.223,1.0909,0.05,8.4958e-07,8.4899,6.5237e-07,4.9016,9.54e-13,4.0252e-06,-6.5238e-07,-4.9017,0.84689
12160,13.223,0.81818,0,0.00025055,2503.8,8.3996e-05,15.751,8.19e-05,-0.0018735,-0.00025028,-2495.9,0.84597
12161,13.131,0.90909,0,0.00025295,2527.7,8.4766e-05,15.498,8.2703e-05,-0.00062916,-0.00025268,-2519.9,0.83594
12162,13.223,0.90909,0.05,8.4968e-07,8.491,6.5245e-07,4.9023,2.7832e-12,3.4991e-06,-6.5245e-07,-4.9023,0.84628
12163,13.223,0.63636,0,0.00025055,2503.8,8.3936e-05,15.016,8.1937e-05,-0.0040332,-0.00025029,-2496.3,0.84528
12164,13.131,0.72727,0,0.00025296,2527.8,8.472e-05,14.897,8.2736e-05,-0.0032057,-0.0002527,-2520.3,0.83527
12165,13.223,0.72727,0.05,8.4946e-07,8.4887,6.5228e-07,4.901,1.8557e-12,3.3635e-06,-6.5228e-07,-4.901,0.84561
12166,13.223,0.45455,0,0.00025057,2504,8.3879e-05,14.265,8.1979e-05,-0.010219,-0.00025032,-2496.8,0.84453
12167,13.131,0.54545,0,0.00025297,2528,8.4671e-05,14.248,8.2774e-05,-0.0047707,-0.00025273,-2520.8,0.83454
12168,13.223,0.54545,0.05,8.4607e-07,8.4549,6.4968e-07,4.8814,2.7323e-12,4.1114e-06,-6.4968e-07,-4.8814,0.84489
12169,13.223,0.27273,0,0.0002507,2505.2,8.3912e-05,14.16,8.2027e-05,-0.0093858,-0.00025045,-2498.1,0.84373
12170,13.131,0.36364,0,0.00025301,2528.4,8.4632e-05,13.635,8.2816e-05,-0.01477,-0.00025278,-2521.5,0.83376
12171,13.223,0.36364,0.05,7.965e-07,7.9595,6.1161e-07,4.5954,1.8407e-12,3.4094e-06,-6.1161e-07,-4.5954,0.84411
12172,13.131,0.18182,0,0.00025326,2530.9,8.4775e-05,14.358,8.2864e-05,-0.00075018,-0.00025302,-2523.7,0.83292
12173,13.223,0.18182,0.05,5.2407e-08,0.5237,4.0238e-08,0.30234,-5.5265e-12,-2.5817e-05,-4.0245e-08,-0.30238,0.84328
12174,13.223,0.090909,0,0.00025014,2499.7,8.3345e-05,9.5419,8.2074e-05,-0.0045174,-0.00024998,-2494.9,0.84287
12175,13.039,5.7273,0,0.00025556,2553.8,8.5482e-05,13.731,8.3653e-05,-0.0084734,-0.00025532,-2547,0.823
12176,12.948,5.8182,0,0.00025814,2579.7,8.6361e-05,14.051,8.449e-05,-0.00073566,-0.0002579,-2572.6,0.81227
12177,13.039,5.8182,0.05,4.7454e-08,0.47421,3.6439e-08,0.27382,2.1759e-12,5.2178e-05,-3.6438e-08,-0.27375,0.82255
12178,13.039,5.9091,0,0.00025503,2548.5,8.4943e-05,9.3682,8.3695e-05,-0.0041932,-0.00025487,-2543.9,0.82213
12179,13.039,5.5455,0,0.00025541,2552.3,8.5421e-05,13.589,8.3611e-05,-0.0093578,-0.00025518,-2545.5,0.82382
12180,12.948,5.6364,0,0.00025787,2576.9,8.6191e-05,13.083,8.4447e-05,-0.013327,-0.00025765,-2570.4,0.81313
12181,13.039,5.6364,0.05,7.9845e-07,7.979,6.1312e-07,4.6067,-3.652e-12,2.0704e-06,-6.1311e-07,-4.6067,0.8234
12182,13.039,5.3636,0,0.00025537,2552,8.5451e-05,14.104,8.3574e-05,-0.0038666,-0.00025513,-2544.9,0.82458
12183,12.948,5.4545,0,0.00025781,2576.4,8.6202e-05,13.458,8.4411e-05,-0.0045276,-0.00025758,-2569.6,0.81392
12184,13.039,5.4545,0.05,8.4843e-07,8.4785,6.515e-07,4.8951,-2.7709e-12,2.8308e-06,-6.5149e-07,-4.895,0.82419
12185,13.039,5.1818,0,0.00025535,2551.7,8.5486e-05,14.62,8.354e-05,-0.001893,-0.0002551,-2544.4,0.82529
12186,12.948,5.2727,0,0.00025778,2576,8.6225e-05,13.883,8.4377e-05,-0.0031115,-0.00025754,-2569,0.81466
12187,13.039,5.2727,0.05,8.5193e-07,8.5134,6.5418e-07,4.9153,-2.7705e-12,3.6793e-07,-6.5417e-07,-4.9152,0.82492
12188,13.039,5,0,0.00025533,2551.5,8.5519e-05,15.091,8.351e-05,0.00020869,-0.00025507,-2544,0.82594
12189,12.948,5.0909,0,0.00025775,2575.7,8.6248e-05,14.279,8.4348e-05,-0.00075934,-0.0002575,-2568.5,0.81534
12190,13.039,5.0909,0.05,8.5226e-07,8.5168,6.5443e-07,4.9172,-3.6757e-12,3.3915e-07,-6.5443e-07,-4.9171,0.8256
12191,13.039,4.8182,0,0.00025531,2551.4,8.5548e-05,15.506,8.3485e-05,0.001833,-0.00025505,-2543.6,0.82653
12192,12.948,4.9091,0,0.00025772,2575.4,8.6269e-05,14.631,8.4322e-05,0.00093348,-0.00025747,-2568.1,0.81597
12193,13.039,4.9091,0.05,8.5229e-07,8.517,6.5445e-07,4.9174,-1.8748e-12,-5.1177e-07,-6.5445e-07,-4.9172,0.82622
12194,13.039,4.6364,0,0.0002553,2551.3,8.5573e-05,15.861,8.3463e-05,0.0031864,-0.00025503,-2543.3,0.82707
12195,12.948,4.7273,0,0.0002577,2575.2,8.6286e-05,14.935,8.4299e-05,0.0024046,-0.00025744,-2567.7,0.81654
12196,13.039,4.7273,0.05,8.5221e-07,8.5162,6.5439e-07,4.9169,-3.6879e-12,-1.6585e-06,-6.5439e-07,-4.9168,0.82678
12197,13.039,4.4545,0,0.00025529,2551.1,8.5594e-05,16.157,8.3444e-05,0.0042702,-0.00025501,-2543,0.82755
12198,12.948,4.5455,0,0.00025768,2575,8.6301e-05,15.188,8.428e-05,0.0035925,-0.00025741,-2567.4,0.81705
12199,13.039,4.5455,0.05,8.5205e-07,8.5147,6.5427e-07,4.916,-2.7766e-12,-5.1325e-07,-6.5427e-07,-4.9159,0.82729
12200,13.039,4.2727,0,0.00025528,2551,8.561e-05,16.395,8.3429e-05,0.0051335,-0.000255,-2542.8,0.82797
12201,12.948,4.3636,0,0.00025766,2574.8,8.6312e-05,15.392,8.4264e-05,0.0045554,-0.00025739,-2567.1,0.81751
12202,13.039,4.3636,0.05,8.5185e-07,8.5126,6.5411e-07,4.9148,-2.7724e-12,-1.7719e-06,-6.5411e-07,-4.9147,0.82774
12203,13.039,4.0909,0,0.00025527,2550.9,8.5622e-05,16.581,8.3416e-05,0.0058101,-0.00025498,-2542.6,0.82834
12204,12.948,4.1818,0,0.00025764,2574.6,8.632e-05,15.55,8.4251e-05,0.0053216,-0.00025737,-2566.8,0.81791
12205,13.039,4.1818,0.05,8.5161e-07,8.5102,6.5394e-07,4.9134,-2.7722e-12,-2.0841e-06,-6.5393e-07,-4.9134,0.82814
12206,13.039,3.9091,0,0.00025526,2550.8,8.5631e-05,16.721,8.3406e-05,0.0063285,-0.00025497,-2542.4,0.82865
12207,12.948,4,0,0.00025763,2574.5,8.6325e-05,15.668,8.424e-05,0.0059216,-0.00025736,-2566.6,0.81825
12208,13.039,4,0.05,8.5136e-07,8.5078,6.5374e-07,4.912,-9.4347e-13,-1.699e-06,-6.5374e-07,-4.9119,0.82848
12209,13.039,3.7273,0,0.00025525,2550.7,8.5637e-05,16.823,8.3399e-05,0.0067153,-0.00025496,-2542.3,0.8289
12210,12.948,3.8182,0,0.00025761,2574.4,8.6328e-05,15.753,8.4232e-05,0.0063793,-0.00025734,-2566.5,0.81853
12211,13.039,3.8182,0.05,8.5112e-07,8.5054,6.5356e-07,4.9106,-1.8475e-12,-1.3966e-06,-6.5356e-07,-4.9105,0.82876
12212,13.039,3.5455,0,0.00025524,2550.7,8.564e-05,16.892,8.3393e-05,0.0069946,-0.00025495,-2542.2,0.8291
12213,12.948,3.6364,0,0.0002576,2574.3,8.6329e-05,15.81,8.4226e-05,0.0067182,-0.00025733,-2566.3,0.81876
12214,13.039,3.6364,0.05,8.5091e-07,8.5032,6.534e-07,4.9094,-2.7498e-12,-4.5371e-08,-6.5339e-07,-4.9093,0.82899
12215,13.039,3.3636,0,0.00025524,2550.6,8.5642e-05,16.937,8.3389e-05,0.0071818,-0.00025495,-2542.1,0.82924
12216,12.948,3.4545,0,0.0002576,2574.2,8.6329e-05,15.847,8.4221e-05,0.006958,-0.00025732,-2566.2,0.81893
12217,13.039,3.4545,0.05,8.5074e-07,8.5015,6.5326e-07,4.9084,-1.8338e-12,1.2641e-07,-6.5326e-07,-4.9083,0.82916
12218,13.039,3.1818,0,0.00025524,2550.6,8.5643e-05,16.962,8.3387e-05,0.0072884,-0.00025494,-2542.1,0.82933
12219,12.948,3.2727,0,0.00025759,2574.1,8.6329e-05,15.868,8.4218e-05,0.0071091,-0.00025732,-2566.1,0.81905
12220,13.039,3.2727,0.05,8.5062e-07,8.5003,6.5317e-07,4.9077,-8.8495e-15,-3.0538e-07,-6.5317e-07,-4.9076,0.82927
12221,13.039,3,0,0.00025523,2550.6,8.5644e-05,16.97,8.3386e-05,0.0073232,-0.00025494,-2542.1,0.82936
12222,12.948,3.0909,0,0.00025759,2574.1,8.6329e-05,15.878,8.4217e-05,0.0071822,-0.00025731,-2566.1,0.8191
12223,13.039,3.0909,0.05,8.5056e-07,8.4997,6.5312e-07,4.9073,-1.8219e-12,9.7469e-08,-6.5312e-07,-4.9073,0.82933
12224,13.039,2.8182,0,0.00025524,2550.6,8.5643e-05,16.962,8.3387e-05,0.0072884,-0.00025494,-2542.1,0.82933
12225,12.948,2.9091,0,0.00025759,2574.1,8.6329e-05,15.878,8.4217e-05,0.0071822,-0.00025731,-2566.1,0.8191
12226,13.039,2.9091,0.05,8.5056e-07,8.4997,6.5312e-07,4.9073,-1.8161e-12,1.3329e-06,-6.5312e-07,-4.9073,0.82933
12227,13.039,2.6364,0,0.00025524,2550.6,8.5642e-05,16.937,8.3389e-05,0.0071817,-0.00025495,-2542.1,0.82924
12228,12.948,2.7273,0,0.00025759,2574.1,8.6329e-05,15.868,8.4218e-05,0.0071092,-0.00025732,-2566.1,0.81905
12229,13.039,2.7273,0.05,8.5062e-07,8.5003,6.5317e-07,4.9077,8.6237e-15,1.018e-06,-6.5317e-07,-4.9076,0.82927
12230,13.039,2.4545,0,0.00025524,2550.7,8.564e-05,16.892,8.3393e-05,0.006995,-0.00025495,-2542.2,0.8291
12231,12.948,2.5455,0,0.0002576,2574.2,8.6329e-05,15.847,8.4221e-05,0.0069583,-0.00025732,-2566.2,0.81893
12232,13.039,2.5455,0.05,8.5074e-07,8.5015,6.5326e-07,4.9084,1.4483e-14,1.0613e-06,-6.5326e-07,-4.9084,0.82916
12233,13.039,2.2727,0,0.00025525,2550.7,8.5637e-05,16.823,8.3399e-05,0.0067157,-0.00025496,-2542.3,0.8289
12234,12.948,2.3636,0,0.0002576,2574.3,8.6329e-05,15.81,8.4226e-05,0.0067189,-0.00025733,-2566.3,0.81876
12235,13.039,2.3636,0.05,8.5091e-07,8.5032,6.5339e-07,4.9094,9.2919e-13,1.2333e-06,-6.5339e-07,-4.9094,0.82899
12236,13.039,2.0909,0,0.00025526,2550.8,8.5631e-05,16.721,8.3406e-05,0.0063283,-0.00025497,-2542.4,0.82865
12237,12.948,2.1818,0,0.00025761,2574.4,8.6328e-05,15.753,8.4232e-05,0.0063795,-0.00025734,-2566.5,0.81853
12238,13.039,2.1818,0.05,8.5112e-07,8.5054,6.5356e-07,4.9106,2.5544e-14,1.267e-06,-6.5356e-07,-4.9106,0.82876
12239,13.039,1.9091,0,0.00025527,2550.9,8.5622e-05,16.581,8.3416e-05,0.0058096,-0.00025498,-2542.6,0.82834
12240,12.948,2,0,0.00025763,2574.5,8.6325e-05,15.668,8.424e-05,0.0059217,-0.00025736,-2566.6,0.81825
12241,13.039,2,0.05,8.5136e-07,8.5078,6.5374e-07,4.9119,3.1581e-14,1.1904e-06,-6.5374e-07,-4.912,0.82848
12242,13.039,1.7273,0,0.00025528,2551,8.561e-05,16.395,8.3429e-05,0.0051338,-0.000255,-2542.8,0.82797
12243,12.948,1.8182,0,0.00025764,2574.6,8.632e-05,15.55,8.4251e-05,0.0053218,-0.00025737,-2566.8,0.81791
12244,13.039,1.8182,0.05,8.5161e-07,8.5102,6.5393e-07,4.9134,3.5302e-14,2.0629e-06,-6.5393e-07,-4.9134,0.82814
12245,13.039,1.5455,0,0.00025529,2551.1,8.5594e-05,16.157,8.3444e-05,0.0042705,-0.00025501,-2543,0.82755
12246,12.948,1.6364,0,0.00025766,2574.8,8.6312e-05,15.392,8.4264e-05,0.0045555,-0.00025739,-2567.1,0.81751
12247,13.039,1.6364,0.05,8.5185e-07,8.5126,6.5411e-07,4.9147,4.2693e-14,2.2341e-06,-6.5411e-07,-4.9148,0.82774
12248,13.039,1.3636,0,0.0002553,2551.3,8.5573e-05,15.861,8.3463e-05,0.0031862,-0.00025503,-2543.3,0.82707
12249,12.948,1.4545,0,0.00025768,2575,8.6301e-05,15.188,8.428e-05,0.0035929,-0.00025741,-2567.4,0.81705
12250,13.039,1.4545,0.05,8.5205e-07,8.5147,6.5427e-07,4.9159,9.5539e-13,2.1288e-06,-6.5427e-07,-4.916,0.82729
12251,13.039,1.1818,0,0.00025531,2551.4,8.5548e-05,15.506,8.3485e-05,0.0018331,-0.00025505,-2543.6,0.82653
12252,12.948,1.2727,0,0.0002577,2575.2,8.6286e-05,14.935,8.4299e-05,0.0024047,-0.00025744,-2567.7,0.81654
12253,13.039,1.2727,0.05,8.5221e-07,8.5162,6.5439e-07,4.9168,4.3959e-14,2.4994e-06,-6.5439e-07,-4.9168,0.82678
12254,13.039,1,0,0.00025533,2551.5,8.5519e-05,15.091,8.351e-05,0.00020907,-0.00025507,-2544,0.82594
12255,12.948,1.0909,0,0.00025772,2575.4,8.6269e-05,14.631,8.4322e-05,0.00093378,-0.00025747,-2568.1,0.81597
12256,13.039,1.0909,0.05,8.5229e-07,8.517,6.5445e-07,4.9173,1.8651e-12,2.6904e-06,-6.5445e-07,-4.9173,0.82622
12257,13.039,0.81818,0,0.00025535,2551.7,8.5486e-05,14.62,8.354e-05,-0.0018919,-0.0002551,-2544.4,0.82529
12258,12.948,0.90909,0,0.00025775,2575.7,8.6248e-05,14.279,8.4348e-05,-0.00075856,-0.0002575,-2568.5,0.81534
12259,13.039,0.90909,0.05,8.5226e-07,8.5168,6.5443e-07,4.9171,5.299e-14,2.8493e-06,-6.5443e-07,-4.9172,0.8256
12260,13.039,0.63636,0,0.00025537,2552,8.5451e-05,14.104,8.3574e-05,-0.0038655,-0.00025513,-2544.9,0.82458
12261,12.948,0.72727,0,0.00025778,2576,8.6225e-05,13.883,8.4377e-05,-0.0031097,-0.00025754,-2569,0.81466
12262,13.039,0.72727,0.05,8.5193e-07,8.5134,6.5417e-07,4.9152,1.8644e-12,2.448e-06,-6.5417e-07,-4.9152,0.82492
12263,13.039,0.45455,0,0.00025541,2552.3,8.5421e-05,13.588,8.3611e-05,-0.009357,-0.00025518,-2545.5,0.82382
12264,12.948,0.54545,0,0.00025781,2576.4,8.6202e-05,13.458,8.4411e-05,-0.004527,-0.00025758,-2569.6,0.81392
12265,13.039,0.54545,0.05,8.4843e-07,8.4785,6.5149e-07,4.895,1.8519e-12,1.9908e-06,-6.5149e-07,-4.8951,0.82419
12266,13.039,0.27273,0,0.00025556,2553.8,8.5482e-05,13.731,8.3653e-05,-0.0084732,-0.00025532,-2547,0.823
12267,12.948,0.36364,0,0.00025787,2576.9,8.6191e-05,13.083,8.4448e-05,-0.013327,-0.00025765,-2570.4,0.81313
12268,13.039,0.36364,0.05,7.9845e-07,7.979,6.1311e-07,4.6067,3.6564e-12,2.0365e-06,-6.1312e-07,-4.6067,0.8234
12269,12.948,0.18182,0,0.00025814,2579.7,8.6361e-05,14.051,8.449e-05,-0.00073538,-0.0002579,-2572.6,0.81227
12270,13.039,0.18182,0.05,4.7454e-08,0.47422,3.644e-08,0.27377,1.1815e-12,-2.305e-05,-3.6438e-08,-0.27381,0.82255
12271,13.039,0.090909,0,0.00025503,2548.5,8.4943e-05,9.3682,8.3695e-05,-0.0041933,-0.00025487,-2543.9,0.82213
12272,12.856,5.7273,0,0.00026044,2602.6,8.7056e-05,13.303,8.5284e-05,-0.0076647,-0.00026021,-2595.9,0.80245
12273,12.764,5.8182,0,0.00026304,2628.6,8.795e-05,13.737,8.6122e-05,-0.00077017,-0.0002628,-2621.7,0.7918
12274,12.856,5.8182,0.05,4.3317e-08,0.43287,3.3263e-08,0.24995,1.7095e-12,5.0126e-05,-3.3261e-08,-0.24988,0.80199
12275,12.856,5.9091,0,0.00025993,2597.5,8.6545e-05,9.1888,8.5322e-05,-0.0039097,-0.00025977,-2592.9,0.80157
12276,12.856,5.5455,0,0.00026027,2600.9,8.6968e-05,12.924,8.5247e-05,-0.0085533,-0.00026005,-2594.4,0.80328
12277,12.764,5.6364,0,0.00026275,2625.7,8.7754e-05,12.537,8.6084e-05,-0.011924,-0.00026253,-2619.4,0.79267
12278,12.856,5.6364,0.05,8.0073e-07,8.0017,6.1486e-07,4.6199,-3.6349e-12,2.422e-06,-6.1485e-07,-4.6198,0.80285
12279,12.856,5.3636,0,0.00026021,2600.3,8.6973e-05,13.213,8.5214e-05,-0.0037191,-0.00025998,-2593.7,0.80406
12280,12.764,5.4545,0,0.00026267,2624.9,8.774e-05,12.682,8.6052e-05,-0.0042594,-0.00026245,-2618.5,0.79348
12281,12.856,5.4545,0.05,8.5106e-07,8.5047,6.5351e-07,4.9103,-3.6732e-12,2.7914e-06,-6.535e-07,-4.9101,0.80365
12282,12.856,5.1818,0,0.00026017,2599.9,8.6984e-05,13.518,8.5185e-05,-0.0019264,-0.00025994,-2593.1,0.80477
12283,12.764,5.2727,0,0.00026261,2624.3,8.7739e-05,12.891,8.6023e-05,-0.0029863,-0.00026239,-2617.8,0.79423
12284,12.856,5.2727,0.05,8.5464e-07,8.5405,6.5626e-07,4.9309,-3.6964e-12,6.008e-07,-6.5626e-07,-4.9308,0.8044
12285,12.856,5,0,0.00026013,2599.5,8.6995e-05,13.796,8.5159e-05,9.3565e-06,-0.00025989,-2592.6,0.80543
12286,12.764,5.0909,0,0.00026256,2623.8,8.7739e-05,13.086,8.5997e-05,-0.00085688,-0.00026234,-2617.3,0.79492
12287,12.856,5.0909,0.05,8.5507e-07,8.5448,6.5659e-07,4.9334,-3.6811e-12,6.9099e-07,-6.5658e-07,-4.9333,0.80509
12288,12.856,4.8182,0,0.0002601,2599.2,8.7004e-05,14.037,8.5136e-05,0.0015421,-0.00025986,-2592.1,0.80603
12289,12.764,4.9091,0,0.00026252,2623.4,8.7738e-05,13.256,8.5974e-05,0.00072095,-0.00026229,-2616.7,0.79556
12290,12.856,4.9091,0.05,8.552e-07,8.5461,6.5669e-07,4.9341,-2.7758e-12,-2.9951e-07,-6.5668e-07,-4.934,0.80572
12291,12.856,4.6364,0,0.00026007,2598.9,8.7011e-05,14.239,8.5116e-05,0.0028423,-0.00025982,-2591.7,0.80658
12292,12.764,4.7273,0,0.00026248,2623,8.7737e-05,13.396,8.5954e-05,0.0021164,-0.00026225,-2616.3,0.79614
12293,12.856,4.7273,0.05,8.5523e-07,8.5464,6.5671e-07,4.9343,-1.8682e-12,-1.502e-06,-6.5671e-07,-4.9342,0.80629
12294,12.856,4.4545,0,0.00026004,2598.6,8.7016e-05,14.401,8.51e-05,0.0039053,-0.00025979,-2591.4,0.80707
12295,12.764,4.5455,0,0.00026245,2622.6,8.7734e-05,13.504,8.5938e-05,0.0032677,-0.00026221,-2615.9,0.79666
12296,12.856,4.5455,0.05,8.552e-07,8.5461,6.5669e-07,4.9341,-1.8608e-12,-5.7126e-07,-6.5668e-07,-4.934,0.80681
12297,12.856,4.2727,0,0.00026002,2598.4,8.7019e-05,14.525,8.5086e-05,0.0047684,-0.00025977,-2591.1,0.8075
12298,12.764,4.3636,0,0.00026241,2622.3,8.7731e-05,13.584,8.5923e-05,0.0042197,-0.00026218,-2615.5,0.79712
12299,12.856,4.3636,0.05,8.5511e-07,8.5452,6.5662e-07,4.9336,-1.8604e-12,-1.8726e-06,-6.5662e-07,-4.9335,0.80727
12300,12.856,4.0909,0,0.00026,2598.2,8.7019e-05,14.616,8.5075e-05,0.0054564,-0.00025975,-2590.8,0.80787
12301,12.764,4.1818,0,0.00026239,2622.1,8.7726e-05,13.636,8.5912e-05,0.004992,-0.00026215,-2615.2,0.79753
12302,12.856,4.1818,0.05,8.5499e-07,8.544,6.5653e-07,4.9329,-1.8557e-12,-1.9654e-06,-6.5653e-07,-4.9329,0.80767
12303,12.856,3.9091,0,0.00025998,2598,8.7019e-05,14.679,8.5066e-05,0.0059948,-0.00025973,-2590.6,0.80819
12304,12.764,4,0,0.00026236,2621.8,8.7721e-05,13.667,8.5902e-05,0.0056084,-0.00026213,-2615,0.79787
12305,12.856,4,0.05,8.5486e-07,8.5427,6.5643e-07,4.9322,-1.8506e-12,-1.5401e-06,-6.5642e-07,-4.9321,0.80802
12306,12.856,3.7273,0,0.00025996,2597.9,8.7017e-05,14.72,8.5059e-05,0.0064043,-0.00025971,-2590.5,0.80845
12307,12.764,3.8182,0,0.00026234,2621.6,8.7715e-05,13.681,8.5895e-05,0.0060875,-0.00026211,-2614.7,0.79816
12308,12.856,3.8182,0.05,8.5472e-07,8.5413,6.5632e-07,4.9314,-9.3531e-13,-1.5022e-06,-6.5632e-07,-4.9313,0.8083
12309,12.856,3.5455,0,0.00025995,2597.7,8.7015e-05,14.744,8.5053e-05,0.0067037,-0.0002597,-2590.3,0.80865
12310,12.764,3.6364,0,0.00026233,2621.4,8.771e-05,13.684,8.5889e-05,0.006449,-0.00026209,-2614.6,0.79839
12311,12.856,3.6364,0.05,8.5459e-07,8.54,6.5622e-07,4.9306,-1.8384e-12,-2.9116e-08,-6.5622e-07,-4.9305,0.80853
12312,12.856,3.3636,0,0.00025994,2597.6,8.7013e-05,14.758,8.505e-05,0.0069074,-0.00025969,-2590.2,0.80879
12313,12.764,3.4545,0,0.00026231,2621.3,8.7705e-05,13.681,8.5885e-05,0.0067074,-0.00026208,-2614.4,0.79857
12314,12.856,3.4545,0.05,8.5449e-07,8.539,6.5614e-07,4.93,-9.2352e-13,-2.2008e-07,-6.5614e-07,-4.93,0.80871
12315,12.856,3.1818,0,0.00025994,2597.6,8.7012e-05,14.764,8.5048e-05,0.0070251,-0.00025968,-2590.2,0.80888
12316,12.764,3.2727,0,0.0002623,2621.2,8.7702e-05,13.676,8.5883e-05,0.0068729,-0.00026207,-2614.4,0.79868
12317,12.856,3.2727,0.05,8.5441e-07,8.5382,6.5608e-07,4.9295,-1.8272e-12,-5.3676e-07,-6.5608e-07,-4.9295,0.80882
12318,12.856,3,0,0.00025994,2597.6,8.7011e-05,14.765,8.5047e-05,0.0070635,-0.00025968,-2590.2,0.80891
12319,12.764,3.0909,0,0.0002623,2621.2,8.77e-05,13.672,8.5881e-05,0.0069533,-0.00026206,-2614.3,0.79874
12320,12.856,3.0909,0.05,8.5437e-07,8.5378,6.5605e-07,4.9293,-2.6302e-15,2.1867e-07,-6.5605e-07,-4.9293,0.80888
12321,12.856,2.8182,0,0.00025994,2597.6,8.7012e-05,14.764,8.5048e-05,0.0070252,-0.00025968,-2590.2,0.80888
12322,12.764,2.9091,0,0.0002623,2621.2,8.77e-05,13.672,8.5881e-05,0.0069535,-0.00026206,-2614.3,0.79874
12323,12.856,2.9091,0.05,8.5437e-07,8.5378,6.5605e-07,4.9293,2.622e-15,9.733e-07,-6.5605e-07,-4.9293,0.80888
12324,12.856,2.6364,0,0.00025994,2597.6,8.7013e-05,14.758,8.505e-05,0.0069079,-0.00025969,-2590.2,0.80879
12325,12.764,2.7273,0,0.0002623,2621.2,8.7702e-05,13.676,8.5883e-05,0.0068732,-0.00026207,-2614.4,0.79868
12326,12.856,2.7273,0.05,8.5441e-07,8.5382,6.5608e-07,4.9295,-9.0165e-13,1.2507e-06,-6.5608e-07,-4.9295,0.80882
12327,12.856,2.4545,0,0.00025995,2597.7,8.7015e-05,14.744,8.5053e-05,0.0067043,-0.0002597,-2590.3,0.80865
12328,12.764,2.5455,0,0.00026231,2621.3,8.7705e-05,13.68,8.5885e-05,0.0067074,-0.00026208,-2614.4,0.79857
12329,12.856,2.5455,0.05,8.5449e-07,8.539,6.5614e-07,4.93,1.2977e-14,8.1337e-07,-6.5614e-07,-4.93,0.80871
12330,12.856,2.2727,0,0.00025996,2597.9,8.7017e-05,14.72,8.5059e-05,0.0064048,-0.00025971,-2590.5,0.80845
12331,12.764,2.3636,0,0.00026233,2621.4,8.771e-05,13.684,8.5889e-05,0.0064494,-0.00026209,-2614.6,0.79839
12332,12.856,2.3636,0.05,8.5459e-07,8.54,6.5622e-07,4.9306,1.7917e-14,1.2055e-06,-6.5622e-07,-4.9306,0.80853
12333,12.856,2.0909,0,0.00025998,2598,8.7019e-05,14.679,8.5066e-05,0.0059953,-0.00025973,-2590.6,0.80819
12334,12.764,2.1818,0,0.00026234,2621.6,8.7715e-05,13.681,8.5895e-05,0.006088,-0.00026211,-2614.7,0.79816
12335,12.856,2.1818,0.05,8.5472e-07,8.5413,6.5632e-07,4.9313,2.4588e-14,1.2485e-06,-6.5632e-07,-4.9313,0.8083
12336,12.856,1.9091,0,0.00026,2598.2,8.7019e-05,14.616,8.5075e-05,0.0054571,-0.00025975,-2590.8,0.80787
12337,12.764,2,0,0.00026236,2621.8,8.7721e-05,13.667,8.5902e-05,0.0056084,-0.00026213,-2615,0.79787
12338,12.856,2,0.05,8.5486e-07,8.5427,6.5643e-07,4.9321,2.8629e-14,9.2535e-07,-6.5643e-07,-4.9321,0.80802
12339,12.856,1.7273,0,0.00026002,2598.4,8.7019e-05,14.525,8.5086e-05,0.0047684,-0.00025977,-2591.1,0.8075
12340,12.764,1.8182,0,0.00026239,2622.1,8.7726e-05,13.636,8.5912e-05,0.0049928,-0.00026215,-2615.2,0.79753
12341,12.856,1.8182,0.05,8.5499e-07,8.544,6.5653e-07,4.9329,3.3148e-14,1.9283e-06,-6.5653e-07,-4.9329,0.80767
12342,12.856,1.5455,0,0.00026004,2598.6,8.7016e-05,14.401,8.51e-05,0.0039055,-0.00025979,-2591.4,0.80707
12343,12.764,1.6364,0,0.00026241,2622.3,8.7731e-05,13.584,8.5923e-05,0.0042197,-0.00026218,-2615.5,0.79712
12344,12.856,1.6364,0.05,8.5511e-07,8.5452,6.5662e-07,4.9336,3.2011e-14,1.8096e-06,-6.5662e-07,-4.9336,0.80727
12345,12.856,1.3636,0,0.00026007,2598.9,8.7011e-05,14.239,8.5116e-05,0.0028429,-0.00025982,-2591.7,0.80658
12346,12.764,1.4545,0,0.00026245,2622.6,8.7734e-05,13.504,8.5938e-05,0.0032683,-0.00026221,-2615.9,0.79666
12347,12.856,1.4545,0.05,8.552e-07,8.5461,6.5669e-07,4.9341,9.5603e-13,1.8882e-06,-6.5669e-07,-4.9341,0.80681
12348,12.856,1.1818,0,0.0002601,2599.2,8.7004e-05,14.037,8.5136e-05,0.0015424,-0.00025986,-2592.1,0.80603
12349,12.764,1.2727,0,0.00026248,2623,8.7737e-05,13.395,8.5954e-05,0.0021166,-0.00026225,-2616.3,0.79614
12350,12.856,1.2727,0.05,8.5523e-07,8.5464,6.5671e-07,4.9343,2.771e-12,2.3294e-06,-6.5671e-07,-4.9343,0.80629
12351,12.856,1,0,0.00026013,2599.5,8.6995e-05,13.796,8.5159e-05,1.0067e-05,-0.00025989,-2592.6,0.80543
12352,12.764,1.0909,0,0.00026252,2623.4,8.7738e-05,13.256,8.5974e-05,0.00072118,-0.00026229,-2616.7,0.79556
12353,12.856,1.0909,0.05,8.552e-07,8.5461,6.5669e-07,4.9341,1.8692e-12,2.3812e-06,-6.5668e-07,-4.9341,0.80572
12354,12.856,0.81818,0,0.00026017,2599.9,8.6984e-05,13.518,8.5185e-05,-0.001925,-0.00025994,-2593.1,0.80477
12355,12.764,0.90909,0,0.00026256,2623.8,8.7739e-05,13.086,8.5997e-05,-0.00085536,-0.00026234,-2617.3,0.79492
12356,12.856,0.90909,0.05,8.5507e-07,8.5448,6.5659e-07,4.9333,1.8646e-12,2.6783e-06,-6.5659e-07,-4.9334,0.80509
12357,12.856,0.63636,0,0.00026021,2600.3,8.6973e-05,13.213,8.5214e-05,-0.0037178,-0.00025998,-2593.7,0.80406
12358,12.764,0.72727,0,0.00026261,2624.3,8.7739e-05,12.891,8.6023e-05,-0.0029848,-0.00026239,-2617.8,0.79423
12359,12.856,0.72727,0.05,8.5464e-07,8.5405,6.5626e-07,4.9308,2.7659e-12,3.1132e-06,-6.5626e-07,-4.9309,0.8044
12360,12.856,0.45455,0,0.00026027,2600.9,8.6968e-05,12.924,8.5247e-05,-0.0085531,-0.00026005,-2594.4,0.80328
12361,12.764,0.54545,0,0.00026267,2624.9,8.774e-05,12.682,8.6052e-05,-0.0042591,-0.00026245,-2618.5,0.79348
12362,12.856,0.54545,0.05,8.5106e-07,8.5047,6.535e-07,4.9101,4.283e-14,2.639e-06,-6.5351e-07,-4.9102,0.80365
12363,12.856,0.27273,0,0.00026044,2602.6,8.7056e-05,13.303,8.5284e-05,-0.0076644,-0.00026021,-2595.9,0.80245
12364,12.764,0.36364,0,0.00026275,2625.7,8.7754e-05,12.537,8.6084e-05,-0.011924,-0.00026253,-2619.4,0.79267
12365,12.856,0.36364,0.05,8.0073e-07,8.0017,6.1486e-07,4.6198,2.7158e-12,2.5923e-06,-6.1486e-07,-4.6198,0.80285
12366,12.764,0.18182,0,0.00026304,2628.6,8.795e-05,13.737,8.6122e-05,-0.00076924,-0.0002628,-2621.7,0.7918
12367,12.856,0.18182,0.05,4.3317e-08,0.43288,3.3264e-08,0.24988,1.9427e-13,-4.6931e-05,-3.3261e-08,-0.24996,0.80199
12368,12.856,0.090909,0,0.00025993,2597.5,8.6545e-05,9.1888,8.5322e-05,-0.0039092,-0.00025977,-2592.9,0.80157
12369,12.672,5.7273,0,0.00026533,2651.5,8.8635e-05,12.872,8.6921e-05,-0.0068507,-0.00026511,-2645,0.78207
12370,12.58,5.8182,0,0.00026795,2677.6,8.9543e-05,13.414,8.7758e-05,-0.00083956,-0.00026772,-2670.9,0.77151
12371,12.672,5.8182,0.05,3.9963e-08,0.39935,3.0687e-08,0.23061,2.2972e-12,4.2026e-05,-3.0686e-08,-0.23052,0.78161
12372,12.672,5.9091,0,0.00026485,2646.6,8.8152e-05,9.0034,8.6953e-05,-0.0035738,-0.00026469,-2642.1,0.78117
12373,12.672,5.5455,0,0.00026514,2649.6,8.8522e-05,12.267,8.6889e-05,-0.0077015,-0.00026493,-2643.5,0.78292
12374,12.58,5.6364,0,0.00026764,2674.6,8.9323e-05,11.992,8.7726e-05,-0.01054,-0.00026743,-2668.5,0.77239
12375,12.672,5.6364,0.05,8.0326e-07,8.027,6.1681e-07,4.6345,-3.6757e-12,2.0096e-06,-6.168e-07,-4.6344,0.78248
12376,12.672,5.3636,0,0.00026507,2648.8,8.8502e-05,12.336,8.686e-05,-0.0034949,-0.00026486,-2642.7,0.7837
12377,12.58,5.4545,0,0.00026754,2673.6,8.9284e-05,11.913,8.7698e-05,-0.0039601,-0.00026734,-2667.6,0.77321
12378,12.672,5.4545,0.05,8.539e-07,8.5331,6.5569e-07,4.9266,-2.7523e-12,2.8086e-06,-6.5568e-07,-4.9265,0.7833
12379,12.672,5.1818,0,0.000265,2648.2,8.849e-05,12.435,8.6835e-05,-0.0018827,-0.00026479,-2642,0.78443
12380,12.58,5.2727,0,0.00026747,2672.8,8.9259e-05,11.911,8.7673e-05,-0.0028289,-0.00026726,-2666.9,0.77397
12381,12.672,5.2727,0.05,8.5755e-07,8.5696,6.585e-07,4.9477,-1.8506e-12,6.9463e-07,-6.5849e-07,-4.9476,0.78405
12382,12.672,5,0,0.00026495,2647.7,8.8479e-05,12.523,8.6812e-05,-0.00011506,-0.00026473,-2641.4,0.7851
12383,12.58,5.0909,0,0.0002674,2672.2,8.9236e-05,11.909,8.7651e-05,-0.0009229,-0.0002672,-2666.2,0.77468
12384,12.672,5.0909,0.05,8.5805e-07,8.5746,6.5888e-07,4.9506,-2.772e-12,1.0325e-07,-6.5887e-07,-4.9505,0.78475
12385,12.672,4.8182,0,0.0002649,2647.2,8.8468e-05,12.592,8.6792e-05,0.0013215,-0.00026468,-2640.8,0.78572
12386,12.58,4.9091,0,0.00026734,2671.5,8.9215e-05,11.898,8.7632e-05,0.00053291,-0.00026713,-2665.6,0.77532
12387,12.672,4.9091,0.05,8.5827e-07,8.5767,6.5905e-07,4.9518,-1.8554e-12,-3.5423e-07,-6.5904e-07,-4.9518,0.7854
12388,12.672,4.6364,0,0.00026486,2646.7,8.8457e-05,12.639,8.6776e-05,0.0025649,-0.00026464,-2640.4,0.78627
12389,12.58,4.7273,0,0.00026728,2671,8.9195e-05,11.874,8.7615e-05,0.0018473,-0.00026708,-2665,0.77591
12390,12.672,4.7273,0.05,8.5839e-07,8.578,6.5914e-07,4.9526,-2.7704e-12,-1.6159e-06,-6.5913e-07,-4.9525,0.78598
12391,12.672,4.4545,0,0.00026482,2646.3,8.8446e-05,12.666,8.6761e-05,0.0036031,-0.0002646,-2640,0.78677
12392,12.58,4.5455,0,0.00026724,2670.5,8.9176e-05,11.837,8.7601e-05,0.0029579,-0.00026703,-2664.6,0.77644
12393,12.672,4.5455,0.05,8.5845e-07,8.5786,6.5919e-07,4.9529,-3.674e-12,-5.4476e-07,-6.5918e-07,-4.9528,0.7865
12394,12.672,4.2727,0,0.00026478,2646,8.8435e-05,12.674,8.6749e-05,0.0044633,-0.00026456,-2639.6,0.7872
12395,12.58,4.3636,0,0.00026719,2670.1,8.9158e-05,11.789,8.7589e-05,0.0038957,-0.00026699,-2664.2,0.77691
12396,12.672,4.3636,0.05,8.5847e-07,8.5788,6.592e-07,4.953,-2.764e-12,-1.7714e-06,-6.592e-07,-4.9529,0.78697
12397,12.672,4.0909,0,0.00026475,2645.7,8.8425e-05,12.666,8.6739e-05,0.0051638,-0.00026453,-2639.3,0.78758
12398,12.58,4.1818,0,0.00026715,2669.7,8.914e-05,11.733,8.7579e-05,0.0046737,-0.00026695,-2663.8,0.77732
12399,12.672,4.1818,0.05,8.5845e-07,8.5785,6.5918e-07,4.9528,-9.4099e-13,-2.0214e-06,-6.5918e-07,-4.9528,0.78738
12400,12.672,3.9091,0,0.00026472,2645.4,8.8414e-05,12.648,8.6732e-05,0.0057214,-0.0002645,-2639,0.78791
12401,12.58,4,0,0.00026712,2669.4,8.9124e-05,11.672,8.7571e-05,0.0053074,-0.00026692,-2663.5,0.77768
12402,12.672,4,0.05,8.584e-07,8.5781,6.5914e-07,4.9526,-1.8437e-12,-1.6119e-06,-6.5914e-07,-4.9525,0.78773
12403,12.672,3.7273,0,0.0002647,2645.2,8.8405e-05,12.624,8.6725e-05,0.0061534,-0.00026448,-2638.8,0.78817
12404,12.58,3.8182,0,0.00026709,2669.1,8.9109e-05,11.612,8.7565e-05,0.0058095,-0.00026689,-2663.2,0.77797
12405,12.672,3.8182,0.05,8.5834e-07,8.5775,6.591e-07,4.9522,-9.3076e-13,-1.3499e-06,-6.591e-07,-4.9522,0.78802
12406,12.672,3.5455,0,0.00026468,2645,8.8397e-05,12.6,8.6721e-05,0.0064749,-0.00026447,-2638.7,0.78837
12407,12.58,3.6364,0,0.00026707,2668.8,8.9097e-05,11.556,8.756e-05,0.0061953,-0.00026687,-2663,0.77821
12408,12.672,3.6364,0.05,8.5828e-07,8.5769,6.5905e-07,4.9519,-9.2591e-13,-1.1958e-07,-6.5905e-07,-4.9519,0.78826
12409,12.672,3.3636,0,0.00026467,2644.9,8.8391e-05,12.579,8.6718e-05,0.0066959,-0.00026445,-2638.6,0.78852
12410,12.58,3.4545,0,0.00026705,2668.7,8.9088e-05,11.51,8.7557e-05,0.0064756,-0.00026685,-2662.9,0.77838
12411,12.672,3.4545,0.05,8.5823e-07,8.5763,6.5901e-07,4.9516,-1.1277e-14,-2.0451e-07,-6.5901e-07,-4.9515,0.78843
12412,12.672,3.1818,0,0.00026466,2644.8,8.8387e-05,12.565,8.6716e-05,0.0068246,-0.00026445,-2638.5,0.78861
12413,12.58,3.2727,0,0.00026704,2668.5,8.9081e-05,11.477,8.7554e-05,0.0066564,-0.00026684,-2662.8,0.7785
12414,12.672,3.2727,0.05,8.5819e-07,8.576,6.5898e-07,4.9514,-6.8e-15,-6.4692e-07,-6.5898e-07,-4.9513,0.78855
12415,12.672,3,0,0.00026466,2644.8,8.8386e-05,12.56,8.6715e-05,0.0068671,-0.00026444,-2638.5,0.78864
12416,12.58,3.0909,0,0.00026703,2668.5,8.9078e-05,11.46,8.7553e-05,0.0067454,-0.00026684,-2662.7,0.77856
12417,12.672,3.0909,0.05,8.5817e-07,8.5757,6.5897e-07,4.9512,-9.117e-13,-1.6433e-08,-6.5897e-07,-4.9512,0.78861
12418,12.672,2.8182,0,0.00026466,2644.8,8.8387e-05,12.565,8.6716e-05,0.0068251,-0.00026445,-2638.5,0.78861
12419,12.58,2.9091,0,0.00026703,2668.5,8.9078e-05,11.46,8.7553e-05,0.0067454,-0.00026684,-2662.7,0.77856
12420,12.672,2.9091,0.05,8.5817e-07,8.5757,6.5897e-07,4.9512,-9.0731e-13,8.5092e-07,-6.5897e-07,-4.9512,0.78861
12421,12.672,2.6364,0,0.00026467,2644.9,8.8391e-05,12.579,8.6718e-05,0.0066957,-0.00026445,-2638.6,0.78852
12422,12.58,2.7273,0,0.00026704,2668.5,8.9081e-05,11.477,8.7554e-05,0.0066563,-0.00026684,-2662.8,0.7785
12423,12.672,2.7273,0.05,8.5819e-07,8.576,6.5898e-07,4.9514,6.5373e-15,8.8336e-07,-6.5898e-07,-4.9513,0.78855
12424,12.672,2.4545,0,0.00026468,2645,8.8397e-05,12.6,8.6721e-05,0.0064747,-0.00026447,-2638.7,0.78837
12425,12.58,2.5455,0,0.00026705,2668.7,8.9088e-05,11.51,8.7557e-05,0.0064753,-0.00026685,-2662.9,0.77838
12426,12.672,2.5455,0.05,8.5823e-07,8.5763,6.5901e-07,4.9516,1.0814e-14,6.7898e-07,-6.5901e-07,-4.9516,0.78843
12427,12.672,2.2727,0,0.0002647,2645.2,8.8405e-05,12.624,8.6725e-05,0.0061538,-0.00026448,-2638.8,0.78817
12428,12.58,2.3636,0,0.00026707,2668.8,8.9097e-05,11.556,8.756e-05,0.0061956,-0.00026687,-2663,0.77821
12429,12.672,2.3636,0.05,8.5828e-07,8.5769,6.5905e-07,4.9519,1.5592e-14,9.503e-07,-6.5905e-07,-4.9519,0.78826
12430,12.672,2.0909,0,0.00026472,2645.4,8.8414e-05,12.648,8.6732e-05,0.0057214,-0.0002645,-2639,0.78791
12431,12.58,2.1818,0,0.00026709,2669.1,8.9109e-05,11.612,8.7565e-05,0.0058099,-0.00026689,-2663.2,0.77797
12432,12.672,2.1818,0.05,8.5834e-07,8.5775,6.591e-07,4.9522,9.2907e-13,8.6889e-07,-6.591e-07,-4.9522,0.78802
12433,12.672,1.9091,0,0.00026475,2645.7,8.8425e-05,12.666,8.6739e-05,0.0051639,-0.00026453,-2639.3,0.78758
12434,12.58,2,0,0.00026712,2669.4,8.9124e-05,11.672,8.7571e-05,0.0053073,-0.00026692,-2663.5,0.77768
12435,12.672,2,0.05,8.584e-07,8.5781,6.5915e-07,4.9525,2.4222e-14,8.9801e-07,-6.5914e-07,-4.9526,0.78773
12436,12.672,1.7273,0,0.00026478,2646,8.8435e-05,12.674,8.6749e-05,0.0044641,-0.00026456,-2639.6,0.7872
12437,12.58,1.8182,0,0.00026715,2669.7,8.914e-05,11.733,8.7579e-05,0.0046743,-0.00026695,-2663.8,0.77732
12438,12.672,1.8182,0.05,8.5845e-07,8.5785,6.5918e-07,4.9528,9.375e-13,1.6324e-06,-6.5918e-07,-4.9528,0.78738
12439,12.672,1.5455,0,0.00026482,2646.3,8.8446e-05,12.666,8.6761e-05,0.0036036,-0.0002646,-2640,0.78677
12440,12.58,1.6364,0,0.00026719,2670.1,8.9158e-05,11.789,8.7589e-05,0.0038962,-0.00026699,-2664.2,0.77691
12441,12.672,1.6364,0.05,8.5847e-07,8.5788,6.592e-07,4.9529,1.8478e-12,1.3003e-06,-6.592e-07,-4.9529,0.78697
12442,12.672,1.3636,0,0.00026486,2646.7,8.8457e-05,12.639,8.6776e-05,0.0025651,-0.00026464,-2640.4,0.78627
12443,12.58,1.4545,0,0.00026724,2670.5,8.9176e-05,11.837,8.7601e-05,0.0029581,-0.00026703,-2664.6,0.77644
12444,12.672,1.4545,0.05,8.5845e-07,8.5786,6.5919e-07,4.9529,3.4347e-14,1.5068e-06,-6.5919e-07,-4.9529,0.7865
12445,12.672,1.1818,0,0.0002649,2647.2,8.8468e-05,12.592,8.6792e-05,0.0013216,-0.00026468,-2640.8,0.78572
12446,12.58,1.2727,0,0.00026728,2671,8.9195e-05,11.874,8.7615e-05,0.0018476,-0.00026708,-2665,0.77591
12447,12.672,1.2727,0.05,8.5839e-07,8.578,6.5914e-07,4.9525,9.4689e-13,1.4634e-06,-6.5914e-07,-4.9526,0.78598
12448,12.672,1,0,0.00026495,2647.7,8.8479e-05,12.523,8.6812e-05,-0.00011402,-0.00026473,-2641.4,0.7851
12449,12.58,1.0909,0,0.00026734,2671.5,8.9215e-05,11.898,8.7632e-05,0.00053366,-0.00026713,-2665.6,0.77532
12450,12.672,1.0909,0.05,8.5827e-07,8.5767,6.5904e-07,4.9518,1.8563e-12,1.6426e-06,-6.5905e-07,-4.9518,0.7854
12451,12.672,0.81818,0,0.000265,2648.2,8.849e-05,12.435,8.6835e-05,-0.0018812,-0.00026479,-2642,0.78443
12452,12.58,0.90909,0,0.0002674,2672.2,8.9236e-05,11.909,8.7651e-05,-0.00092163,-0.0002672,-2666.2,0.77468
12453,12.672,0.90909,0.05,8.5805e-07,8.5746,6.5888e-07,4.9505,1.857e-12,1.8829e-06,-6.5888e-07,-4.9506,0.78475
12454,12.672,0.63636,0,0.00026507,2648.8,8.8502e-05,12.336,8.686e-05,-0.0034945,-0.00026486,-2642.7,0.7837
12455,12.58,0.72727,0,0.00026747,2672.8,8.9259e-05,11.911,8.7673e-05,-0.0028274,-0.00026726,-2666.9,0.77397
12456,12.672,0.72727,0.05,8.5755e-07,8.5696,6.5849e-07,4.9476,2.7704e-12,3.8534e-06,-6.585e-07,-4.9477,0.78405
12457,12.672,0.45455,0,0.00026514,2649.6,8.8522e-05,12.267,8.6889e-05,-0.0077012,-0.00026493,-2643.5,0.78292
12458,12.58,0.54545,0,0.00026754,2673.6,8.9284e-05,11.913,8.7698e-05,-0.0039603,-0.00026734,-2667.6,0.77321
12459,12.672,0.54545,0.05,8.539e-07,8.5331,6.5569e-07,4.9265,2.7663e-12,4.7871e-06,-6.5569e-07,-4.9266,0.7833
12460,12.672,0.27273,0,0.00026533,2651.5,8.8635e-05,12.872,8.6921e-05,-0.0068498,-0.00026511,-2645,0.78207
12461,12.58,0.36364,0,0.00026764,2674.6,8.9323e-05,11.992,8.7726e-05,-0.010539,-0.00026743,-2668.5,0.77239
12462,12.672,0.36364,0.05,8.0326e-07,8.027,6.168e-07,4.6344,2.7191e-12,4.1446e-06,-6.1681e-07,-4.6345,0.78248
12463,12.58,0.18182,0,0.00026795,2677.6,8.9543e-05,13.414,8.7758e-05,-0.00083819,-0.00026772,-2670.9,0.77151
12464,12.672,0.18182,0.05,3.9963e-08,0.39936,3.0684e-08,0.23054,-1.8312e-12,-2.8473e-05,-3.069e-08,-0.2306,0.78161
12465,12.672,0.090909,0,0.00026485,2646.6,8.8152e-05,9.0034,8.6953e-05,-0.0035732,-0.00026469,-2642.1,0.78117
12466,12.488,5.7273,0,0.00027024,2700.6,9.0219e-05,12.435,8.8563e-05,-0.0061029,-0.00027003,-2694.3,0.76188
12467,12.397,5.8182,0,0.00027288,2726.9,9.1141e-05,13.081,8.94e-05,-0.00095684,-0.00027265,-2720.3,0.75139
12468,12.488,5.8182,0.05,3.7407e-08,0.37382,2.8726e-08,0.21587,5.4047e-13,3.4792e-05,-2.8723e-08,-0.21578,0.7614
12469,12.488,5.9091,0,0.00026978,2695.9,8.9763e-05,8.8112,8.859e-05,-0.0032683,-0.00026963,-2691.5,0.76096
12470,12.488,5.5455,0,0.00027004,2698.5,9.0082e-05,11.61,8.8535e-05,-0.0068795,-0.00026984,-2692.7,0.76273
12471,12.397,5.6364,0,0.00027255,2723.6,9.0897e-05,11.442,8.9373e-05,-0.009176,-0.00027235,-2717.9,0.75228
12472,12.488,5.6364,0.05,8.0601e-07,8.0546,6.1892e-07,4.6503,-3.6592e-12,1.6505e-06,-6.1891e-07,-4.6503,0.76229
12473,12.488,5.3636,0,0.00026994,2697.5,9.0038e-05,11.464,8.8512e-05,-0.0032815,-0.00026974,-2691.8,0.76353
12474,12.397,5.4545,0,0.00027243,2722.5,9.0834e-05,11.145,8.935e-05,-0.0036473,-0.00027224,-2716.9,0.75312
12475,12.488,5.4545,0.05,8.5691e-07,8.5632,6.5801e-07,4.944,-3.6671e-12,2.4319e-06,-6.58e-07,-4.9439,0.76312
12476,12.488,5.1818,0,0.00026986,2696.7,9.0002e-05,11.362,8.849e-05,-0.0018519,-0.00026966,-2691,0.76427
12477,12.397,5.2727,0,0.00027234,2721.5,9.0786e-05,10.935,8.933e-05,-0.0026595,-0.00027215,-2716,0.75389
12478,12.488,5.2727,0.05,8.6063e-07,8.6004,6.6086e-07,4.9655,-2.7552e-12,2.7603e-07,-6.6085e-07,-4.9654,0.76389
12479,12.488,5,0,0.00026979,2696,8.997e-05,11.261,8.8471e-05,-0.00025929,-0.00026959,-2690.4,0.76495
12480,12.397,5.0909,0,0.00027226,2720.7,9.0741e-05,10.738,8.9312e-05,-0.0009843,-0.00027207,-2715.3,0.75461
12481,12.488,5.0909,0.05,8.6119e-07,8.606,6.6129e-07,4.9687,-3.6702e-12,2.9974e-07,-6.6129e-07,-4.9686,0.7646
12482,12.488,4.8182,0,0.00026972,2695.4,8.994e-05,11.158,8.8455e-05,0.0010723,-0.00026953,-2689.8,0.76558
12483,12.397,4.9091,0,0.00027218,2719.9,9.0699e-05,10.545,8.9296e-05,0.00033895,-0.000272,-2714.6,0.75527
12484,12.488,4.9091,0.05,8.6147e-07,8.6088,6.6151e-07,4.9704,-2.7588e-12,-4.7109e-07,-6.615e-07,-4.9702,0.76525
12485,12.488,4.6364,0,0.00026966,2694.8,8.9911e-05,11.05,8.8441e-05,0.0022524,-0.00026947,-2689.2,0.76614
12486,12.397,4.7273,0,0.00027211,2719.2,9.0661e-05,10.357,8.9282e-05,0.0015626,-0.00027193,-2714,0.75586
12487,12.488,4.7273,0.05,8.6168e-07,8.6108,6.6166e-07,4.9715,-2.7579e-12,-1.4762e-06,-6.6166e-07,-4.9714,0.76584
12488,12.488,4.4545,0,0.00026961,2694.2,8.9884e-05,10.939,8.8429e-05,0.0032622,-0.00026942,-2688.7,0.76664
12489,12.397,4.5455,0,0.00027205,2718.6,9.0624e-05,10.173,8.9271e-05,0.0026252,-0.00027187,-2713.5,0.7564
12490,12.488,4.5455,0.05,8.6182e-07,8.6122,6.6177e-07,4.9723,-2.7584e-12,-4.0832e-07,-6.6177e-07,-4.9722,0.76638
12491,12.488,4.2727,0,0.00026956,2693.8,8.9859e-05,10.828,8.8419e-05,0.0041185,-0.00026938,-2688.3,0.76709
12492,12.397,4.3636,0,0.00027199,2718,9.0591e-05,9.9954,8.9261e-05,0.0035459,-0.00027182,-2713,0.75688
12493,12.488,4.3636,0.05,8.6191e-07,8.6131,6.6184e-07,4.9728,-2.7571e-12,-1.9375e-06,-6.6184e-07,-4.9728,0.76685
12494,12.488,4.0909,0,0.00026952,2693.3,8.9837e-05,10.718,8.8411e-05,0.0048314,-0.00026934,-2688,0.76747
12495,12.397,4.1818,0,0.00027194,2717.5,9.0561e-05,9.8266,8.9253e-05,0.0043295,-0.00027177,-2712.6,0.7573
12496,12.488,4.1818,0.05,8.6196e-07,8.6137,6.6188e-07,4.9731,-3.6633e-12,-2.0474e-06,-6.6188e-07,-4.9731,0.76727
12497,12.488,3.9091,0,0.00026949,2693,8.9816e-05,10.615,8.8404e-05,0.005412,-0.0002693,-2687.7,0.7678
12498,12.397,4,0,0.0002719,2717.1,9.0533e-05,9.6707,8.9247e-05,0.0049845,-0.00027173,-2712.2,0.75766
12499,12.488,4,0.05,8.6199e-07,8.6139,6.619e-07,4.9733,-2.7496e-12,-1.815e-06,-6.619e-07,-4.9732,0.76762
12500,12.488,3.7273,0,0.00026946,2692.7,8.9799e-05,10.523,8.8399e-05,0.0058705,-0.00026928,-2687.4,0.76807
12501,12.397,3.8182,0,0.00027186,2716.7,9.051e-05,9.532,8.9242e-05,0.0055153,-0.0002717,-2711.9,0.75796
12502,12.488,3.8182,0.05,8.6199e-07,8.614,6.619e-07,4.9733,-9.2604e-13,-1.4337e-06,-6.619e-07,-4.9733,0.76792
12503,12.488,3.5455,0,0.00026943,2692.5,8.9785e-05,10.446,8.8396e-05,0.0062176,-0.00026925,-2687.2,0.76827
12504,12.397,3.6364,0,0.00027183,2716.4,9.049e-05,9.4148,8.9238e-05,0.0059315,-0.00027167,-2711.7,0.7582
12505,12.488,3.6364,0.05,8.6199e-07,8.6139,6.619e-07,4.9733,-9.2219e-13,-2.7378e-07,-6.619e-07,-4.9732,0.76816
12506,12.488,3.3636,0,0.00026942,2692.3,8.9775e-05,10.388,8.8393e-05,0.0064599,-0.00026924,-2687.1,0.76842
12507,12.397,3.4545,0,0.00027181,2716.2,9.0475e-05,9.323,8.9235e-05,0.0062392,-0.00027165,-2711.5,0.75838
12508,12.488,3.4545,0.05,8.6198e-07,8.6138,6.6189e-07,4.9732,-1.8279e-12,-3.0504e-07,-6.6189e-07,-4.9732,0.76833
12509,12.488,3.1818,0,0.00026941,2692.2,8.9769e-05,10.352,8.8392e-05,0.0066023,-0.00026923,-2687,0.76851
12510,12.397,3.2727,0,0.00027179,2716.1,9.0465e-05,9.2598,8.9234e-05,0.0064408,-0.00027164,-2711.4,0.75849
12511,12.488,3.2727,0.05,8.6197e-07,8.6137,6.6189e-07,4.9732,-9.1481e-13,-9.9373e-07,-6.6188e-07,-4.9731,0.76845
12512,12.488,3,0,0.0002694,2692.2,8.9766e-05,10.34,8.8391e-05,0.0066493,-0.00026923,-2687,0.76854
12513,12.397,3.0909,0,0.00027179,2716,9.046e-05,9.2276,8.9233e-05,0.0065407,-0.00027163,-2711.4,0.75855
12514,12.488,3.0909,0.05,8.6196e-07,8.6136,6.6188e-07,4.9731,-1.7354e-15,-1.3071e-08,-6.6187e-07,-4.9731,0.76851
12515,12.488,2.8182,0,0.00026941,2692.2,8.9769e-05,10.352,8.8392e-05,0.0066018,-0.00026923,-2687,0.76851
12516,12.397,2.9091,0,0.00027179,2716,9.046e-05,9.2275,8.9233e-05,0.0065404,-0.00027163,-2711.4,0.75855
12517,12.488,2.9091,0.05,8.6196e-07,8.6136,6.6188e-07,4.9731,1.7384e-15,3.7071e-07,-6.6187e-07,-4.9731,0.76851
12518,12.488,2.6364,0,0.00026942,2692.3,8.9775e-05,10.388,8.8393e-05,0.0064596,-0.00026924,-2687.1,0.76842
12519,12.397,2.7273,0,0.00027179,2716.1,9.0465e-05,9.2597,8.9234e-05,0.0064404,-0.00027164,-2711.4,0.75849
12520,12.488,2.7273,0.05,8.6197e-07,8.6137,6.6188e-07,4.9731,5.3267e-15,4.5653e-07,-6.6188e-07,-4.9731,0.76845
12521,12.488,2.4545,0,0.00026943,2692.5,8.9785e-05,10.446,8.8396e-05,0.0062179,-0.00026925,-2687.2,0.76827
12522,12.397,2.5455,0,0.00027181,2716.2,9.0475e-05,9.3229,8.9235e-05,0.0062393,-0.00027165,-2711.5,0.75838
12523,12.488,2.5455,0.05,8.6198e-07,8.6138,6.6189e-07,4.9732,8.7131e-15,5.4169e-07,-6.6189e-07,-4.9732,0.76833
12524,12.488,2.2727,0,0.00026946,2692.7,8.9799e-05,10.523,8.8399e-05,0.0058708,-0.00026928,-2687.4,0.76807
12525,12.397,2.3636,0,0.00027183,2716.4,9.049e-05,9.4148,8.9238e-05,0.0059316,-0.00027167,-2711.7,0.7582
12526,12.488,2.3636,0.05,8.6199e-07,8.6139,6.619e-07,4.9733,1.2032e-14,6.8536e-07,-6.619e-07,-4.9733,0.76816
12527,12.488,2.0909,0,0.00026949,2693,8.9816e-05,10.615,8.8404e-05,0.0054122,-0.0002693,-2687.7,0.7678
12528,12.397,2.1818,0,0.00027186,2716.7,9.051e-05,9.532,8.9242e-05,0.0055154,-0.0002717,-2711.9,0.75796
12529,12.488,2.1818,0.05,8.6199e-07,8.614,6.619e-07,4.9733,9.2563e-13,4.1755e-07,-6.619e-07,-4.9733,0.76792
12530,12.488,1.9091,0,0.00026952,2693.3,8.9837e-05,10.718,8.8411e-05,0.0048318,-0.00026934,-2688,0.76747
12531,12.397,2,0,0.0002719,2717.1,9.0533e-05,9.6707,8.9247e-05,0.0049846,-0.00027173,-2712.2,0.75766
12532,12.488,2,0.05,8.6199e-07,8.6139,6.619e-07,4.9732,9.283e-13,4.9946e-07,-6.619e-07,-4.9733,0.76762
12533,12.488,1.7273,0,0.00026956,2693.8,8.9859e-05,10.828,8.8419e-05,0.0041189,-0.00026938,-2688.3,0.76709
12534,12.397,1.8182,0,0.00027194,2717.5,9.0561e-05,9.8265,8.9253e-05,0.0043299,-0.00027177,-2712.6,0.7573
12535,12.488,1.8182,0.05,8.6196e-07,8.6137,6.6188e-07,4.9731,2.2466e-14,8.9238e-07,-6.6188e-07,-4.9731,0.76727
12536,12.488,1.5455,0,0.00026961,2694.2,8.9884e-05,10.939,8.8429e-05,0.0032625,-0.00026942,-2688.7,0.76664
12537,12.397,1.6364,0,0.00027199,2718,9.0591e-05,9.9953,8.9261e-05,0.0035462,-0.00027182,-2713,0.75688
12538,12.488,1.6364,0.05,8.6191e-07,8.6131,6.6184e-07,4.9728,2.197e-14,9.1091e-07,-6.6184e-07,-4.9728,0.76685
12539,12.488,1.3636,0,0.00026966,2694.8,8.9911e-05,11.05,8.8441e-05,0.0022528,-0.00026947,-2689.2,0.76614
12540,12.397,1.4545,0,0.00027205,2718.6,9.0624e-05,10.173,8.9271e-05,0.0026254,-0.00027187,-2713.5,0.7564
12541,12.488,1.4545,0.05,8.6182e-07,8.6122,6.6177e-07,4.9723,9.356e-13,9.3203e-07,-6.6177e-07,-4.9723,0.76638
12542,12.488,1.1818,0,0.00026972,2695.4,8.994e-05,11.158,8.8455e-05,0.0010732,-0.00026953,-2689.8,0.76558
12543,12.397,1.2727,0,0.00027211,2719.2,9.0661e-05,10.357,8.9282e-05,0.0015629,-0.00027193,-2714,0.75586
12544,12.488,1.2727,0.05,8.6168e-07,8.6108,6.6166e-07,4.9714,9.3708e-13,1.0453e-06,-6.6166e-07,-4.9715,0.76584
12545,12.488,1,0,0.00026979,2696,8.997e-05,11.261,8.8471e-05,-0.00025831,-0.00026959,-2690.4,0.76495
12546,12.397,1.0909,0,0.00027218,2719.9,9.0699e-05,10.545,8.9296e-05,0.00033975,-0.000272,-2714.6,0.75527
12547,12.488,1.0909,0.05,8.6147e-07,8.6088,6.615e-07,4.9703,1.853e-12,7.2007e-07,-6.6151e-07,-4.9703,0.76525
12548,12.488,0.81818,0,0.00026986,2696.7,9.0002e-05,11.362,8.849e-05,-0.0018507,-0.00026966,-2691,0.76427
12549,12.397,0.90909,0,0.00027226,2720.7,9.0741e-05,10.738,8.9312e-05,-0.00098289,-0.00027207,-2715.3,0.75461
12550,12.488,0.90909,0.05,8.6119e-07,8.606,6.6129e-07,4.9686,1.8524e-12,1.4054e-06,-6.6129e-07,-4.9687,0.7646
12551,12.488,0.63636,0,0.00026994,2697.5,9.0038e-05,11.464,8.8512e-05,-0.0032808,-0.00026974,-2691.8,0.76353
12552,12.397,0.72727,0,0.00027234,2721.5,9.0786e-05,10.935,8.933e-05,-0.002658,-0.00027215,-2716,0.75389
12553,12.488,0.72727,0.05,8.6063e-07,8.6004,6.6085e-07,4.9654,2.7552e-12,3.2054e-06,-6.6086e-07,-4.9655,0.76389
12554,12.488,0.45455,0,0.00027004,2698.5,9.0082e-05,11.61,8.8535e-05,-0.0068797,-0.00026984,-2692.7,0.76273
12555,12.397,0.54545,0,0.00027243,2722.5,9.0834e-05,11.145,8.935e-05,-0.0036473,-0.00027224,-2716.9,0.75312
12556,12.488,0.54545,0.05,8.5691e-07,8.5632,6.58e-07,4.944,2.7519e-12,4.9612e-06,-6.58e-07,-4.944,0.76312
12557,12.488,0.27273,0,0.00027024,2700.6,9.0219e-05,12.435,8.8563e-05,-0.0061021,-0.00027003,-2694.3,0.76188
12558,12.397,0.36364,0,0.00027255,2723.6,9.0897e-05,11.442,8.9373e-05,-0.0091761,-0.00027235,-2717.9,0.75228
12559,12.488,0.36364,0.05,8.0601e-07,8.0546,6.1892e-07,4.6503,2.7537e-12,3.689e-06,-6.1892e-07,-4.6503,0.76229
12560,12.397,0.18182,0,0.00027288,2726.9,9.1141e-05,13.081,8.94e-05,-0.00095552,-0.00027265,-2720.3,0.75139
12561,12.488,0.18182,0.05,3.7408e-08,0.37382,2.8725e-08,0.21579,1.312e-12,-2.4789e-05,-2.8724e-08,-0.21586,0.7614
12562,12.488,0.090909,0,0.00026978,2695.9,8.9763e-05,8.8112,8.859e-05,-0.0032668,-0.00026963,-2691.5,0.76096
12563,12.305,5.7273,0,0.00027517,2749.8,9.1807e-05,11.991,9.0211e-05,-0.0053631,-0.00027496,-2743.8,0.74186
12564,12.213,5.8182,0,0.00027782,2776.3,9.2744e-05,12.737,9.1049e-05,-0.0011267,-0.0002776,-2769.9,0.73145
12565,12.305,5.8182,0.05,3.5713e-08,0.35689,2.7424e-08,0.2061,-1.3116e-12,2.5607e-05,-2.7423e-08,-0.206,0.74138
12566,12.305,5.9091,0,0.00027473,2745.4,9.138e-05,8.6117,9.0233e-05,-0.0029434,-0.00027458,-2741.1,0.74093
12567,12.305,5.5455,0,0.00027494,2747.5,9.1646e-05,10.95,9.0188e-05,-0.0060299,-0.00027476,-2742.1,0.74273
12568,12.213,5.6364,0,0.00027748,2772.9,9.2477e-05,10.886,9.1027e-05,-0.0078257,-0.00027729,-2767.4,0.73236
12569,12.305,5.6364,0.05,8.0897e-07,8.0841,6.2119e-07,4.6674,-3.6426e-12,1.7415e-06,-6.2119e-07,-4.6673,0.74228
12570,12.305,5.3636,0,0.00027483,2746.4,9.1579e-05,10.592,9.0169e-05,-0.0030295,-0.00027465,-2741.1,0.74354
12571,12.213,5.4545,0,0.00027734,2771.5,9.239e-05,10.372,9.1009e-05,-0.0033265,-0.00027717,-2766.3,0.73321
12572,12.305,5.4545,0.05,8.6009e-07,8.595,6.6045e-07,4.9624,-2.7391e-12,2.3241e-06,-6.6044e-07,-4.9623,0.74312
12573,12.305,5.1818,0,0.00027473,2745.4,9.1521e-05,10.288,9.0152e-05,-0.0017912,-0.00027456,-2740.3,0.74429
12574,12.213,5.2727,0,0.00027723,2770.4,9.2318e-05,9.9544,9.0993e-05,-0.0024886,-0.00027706,-2765.4,0.734
12575,12.305,5.2727,0.05,8.6387e-07,8.6327,6.6334e-07,4.9841,-2.7517e-12,6.0829e-07,-6.6334e-07,-4.984,0.7439
12576,12.305,5,0,0.00027464,2744.5,9.1467e-05,9.9995,9.0136e-05,-0.00038648,-0.00027447,-2739.5,0.74498
12577,12.213,5.0909,0,0.00027713,2769.4,9.2251e-05,9.5618,9.0978e-05,-0.001059,-0.00027697,-2764.6,0.73473
12578,12.305,5.0909,0.05,8.6448e-07,8.6388,6.6381e-07,4.9877,-9.4036e-13,2.955e-07,-6.6381e-07,-4.9876,0.74462
12579,12.305,4.8182,0,0.00027456,2743.7,9.1417e-05,9.7232,9.0123e-05,0.00082714,-0.0002744,-2738.9,0.74562
12580,12.213,4.9091,0,0.00027704,2768.4,9.2189e-05,9.1884,9.0966e-05,0.00011303,-0.00027688,-2763.8,0.7354
12581,12.305,4.9091,0.05,8.6482e-07,8.6422,6.6407e-07,4.9896,-3.6623e-12,-1.6811e-07,-6.6407e-07,-4.9896,0.74529
12582,12.305,4.6364,0,0.00027449,2743,9.1371e-05,9.459,9.0112e-05,0.0019323,-0.00027433,-2738.2,0.74619
12583,12.213,4.7273,0,0.00027695,2767.6,9.2132e-05,8.834,9.0956e-05,0.001228,-0.0002768,-2763.2,0.736
12584,12.305,4.7273,0.05,8.6508e-07,8.6448,6.6428e-07,4.9911,-3.6626e-12,-1.2349e-06,-6.6427e-07,-4.9911,0.74589
12585,12.305,4.4545,0,0.00027442,2742.3,9.1328e-05,9.2083,9.0103e-05,0.0029062,-0.00027426,-2737.7,0.7467
12586,12.213,4.5455,0,0.00027687,2766.8,9.2078e-05,8.5001,9.0947e-05,0.0022295,-0.00027673,-2762.6,0.73655
12587,12.305,4.5455,0.05,8.6529e-07,8.6469,6.6443e-07,4.9923,-1.8403e-12,-1.9228e-07,-6.6443e-07,-4.9923,0.74643
12588,12.305,4.2727,0,0.00027436,2741.7,9.1289e-05,8.9737,9.0095e-05,0.0037565,-0.00027421,-2737.2,0.74715
12589,12.213,4.3636,0,0.00027681,2766.1,9.203e-05,8.189,9.094e-05,0.0031267,-0.00027667,-2762,0.73703
12590,12.305,4.3636,0.05,8.6544e-07,8.6484,6.6456e-07,4.9932,-2.7502e-12,-1.6721e-06,-6.6455e-07,-4.9931,0.74691
12591,12.305,4.0909,0,0.00027431,2741.2,9.1254e-05,8.7588,9.0089e-05,0.0044861,-0.00027416,-2736.8,0.74754
12592,12.213,4.1818,0,0.00027675,2765.5,9.1986e-05,7.9042,9.0934e-05,0.0039169,-0.00027661,-2761.6,0.73746
12593,12.305,4.1818,0.05,8.6556e-07,8.6496,6.6464e-07,4.9939,-3.6558e-12,-2.099e-06,-6.6464e-07,-4.9939,0.74733
12594,12.305,3.9091,0,0.00027427,2740.8,9.1224e-05,8.5674,9.0084e-05,0.0050962,-0.00027412,-2736.5,0.74788
12595,12.213,4,0,0.00027669,2765,9.1947e-05,7.6496,9.093e-05,0.0045999,-0.00027656,-2761.2,0.73782
12596,12.305,4,0.05,8.6564e-07,8.6504,6.6471e-07,4.9944,-9.2455e-13,-1.5386e-06,-6.647e-07,-4.9943,0.7477
12597,12.305,3.7273,0,0.00027423,2740.4,9.1198e-05,8.4037,9.0081e-05,0.0055903,-0.00027409,-2736.2,0.74815
12598,12.213,3.8182,0,0.00027665,2764.6,9.1914e-05,7.4291,9.0926e-05,0.0051713,-0.00027652,-2760.9,0.73813
12599,12.305,3.8182,0.05,8.657e-07,8.651,6.6475e-07,4.9947,-9.2224e-13,-1.3439e-06,-6.6474e-07,-4.9946,0.748
12600,12.305,3.5455,0,0.0002742,2740.1,9.1178e-05,8.2717,9.0078e-05,0.0059726,-0.00027406,-2736,0.74836
12601,12.213,3.6364,0,0.00027661,2764.2,9.1887e-05,7.247,9.0924e-05,0.005633,-0.00027649,-2760.6,0.73837
12602,12.305,3.6364,0.05,8.6573e-07,8.6514,6.6478e-07,4.9949,-9.1922e-13,-1.8773e-07,-6.6477e-07,-4.9948,0.74824
12603,12.305,3.3636,0,0.00027418,2739.9,9.1163e-05,8.1747,9.0076e-05,0.0062442,-0.00027404,-2735.8,0.74851
12604,12.213,3.4545,0,0.00027659,2764,9.1867e-05,7.1068,9.0922e-05,0.005982,-0.00027646,-2760.4,0.73855
12605,12.305,3.4545,0.05,8.6576e-07,8.6516,6.6479e-07,4.995,-6.42e-15,-4.0698e-07,-6.648e-07,-4.995,0.74842
12606,12.305,3.1818,0,0.00027417,2739.8,9.1154e-05,8.1153,9.0075e-05,0.0064064,-0.00027403,-2735.8,0.7486
12607,12.213,3.2727,0,0.00027657,2763.8,9.1853e-05,7.0115,9.0921e-05,0.0062158,-0.00027645,-2760.3,0.73867
12608,12.305,3.2727,0.05,8.6577e-07,8.6517,6.6481e-07,4.9951,-3.7922e-15,-6.2466e-07,-6.648e-07,-4.9951,0.74854
12609,12.305,3,0,0.00027417,2739.8,9.1151e-05,8.0954,9.0074e-05,0.0064601,-0.00027403,-2735.7,0.74863
12610,12.213,3.0909,0,0.00027656,2763.7,9.1846e-05,6.9634,9.092e-05,0.0063327,-0.00027644,-2760.2,0.73873
12611,12.305,3.0909,0.05,8.6578e-07,8.6518,6.6481e-07,4.9951,-1.2326e-15,-6.8893e-08,-6.648e-07,-4.9951,0.7486
12612,12.305,2.8182,0,0.00027417,2739.8,9.1154e-05,8.1153,9.0075e-05,0.0064062,-0.00027403,-2735.8,0.7486
12613,12.213,2.9091,0,0.00027656,2763.7,9.1846e-05,6.9634,9.092e-05,0.0063327,-0.00027644,-2760.2,0.73873
12614,12.305,2.9091,0.05,8.6578e-07,8.6518,6.6481e-07,4.9951,1.2352e-15,6.0538e-07,-6.648e-07,-4.9951,0.7486
12615,12.305,2.6364,0,0.00027418,2739.9,9.1163e-05,8.1747,9.0076e-05,0.0062442,-0.00027404,-2735.8,0.74851
12616,12.213,2.7273,0,0.00027657,2763.8,9.1853e-05,7.0115,9.0921e-05,0.0062157,-0.00027645,-2760.3,0.73867
12617,12.305,2.7273,0.05,8.6577e-07,8.6517,6.648e-07,4.9951,3.7446e-15,5.6441e-07,-6.648e-07,-4.9951,0.74854
12618,12.305,2.4545,0,0.0002742,2740.1,9.1178e-05,8.2717,9.0078e-05,0.0059726,-0.00027406,-2736,0.74836
12619,12.213,2.5455,0,0.00027659,2764,9.1867e-05,7.1068,9.0922e-05,0.005982,-0.00027646,-2760.4,0.73855
12620,12.305,2.5455,0.05,8.6576e-07,8.6516,6.6479e-07,4.995,6.3329e-15,4.0559e-07,-6.6479e-07,-4.995,0.74842
12621,12.305,2.2727,0,0.00027423,2740.4,9.1198e-05,8.4037,9.0081e-05,0.0055903,-0.00027409,-2736.2,0.74815
12622,12.213,2.3636,0,0.00027661,2764.2,9.1887e-05,7.247,9.0924e-05,0.0056328,-0.00027649,-2760.6,0.73837
12623,12.305,2.3636,0.05,8.6573e-07,8.6514,6.6478e-07,4.9949,8.4624e-15,7.2233e-07,-6.6478e-07,-4.9949,0.74824
12624,12.305,2.0909,0,0.00027427,2740.8,9.1224e-05,8.5674,9.0084e-05,0.0050963,-0.00027412,-2736.5,0.74788
12625,12.213,2.1818,0,0.00027665,2764.6,9.1914e-05,7.4291,9.0926e-05,0.0051716,-0.00027652,-2760.9,0.73813
12626,12.305,2.1818,0.05,8.657e-07,8.651,6.6475e-07,4.9947,1.1749e-14,5.6405e-07,-6.6475e-07,-4.9947,0.748
12627,12.305,1.9091,0,0.00027431,2741.2,9.1254e-05,8.7587,9.0089e-05,0.0044862,-0.00027416,-2736.8,0.74754
12628,12.213,2,0,0.00027669,2765,9.1947e-05,7.6495,9.093e-05,0.0045999,-0.00027656,-2761.2,0.73782
12629,12.305,2,0.05,8.6564e-07,8.6504,6.647e-07,4.9943,1.4789e-14,7.0458e-07,-6.647e-07,-4.9943,0.7477
12630,12.305,1.7273,0,0.00027436,2741.7,9.1289e-05,8.9737,9.0095e-05,0.0037569,-0.00027421,-2737.2,0.74715
12631,12.213,1.8182,0,0.00027675,2765.5,9.1986e-05,7.9042,9.0934e-05,0.0039171,-0.00027661,-2761.6,0.73746
12632,12.305,1.8182,0.05,8.6556e-07,8.6496,6.6464e-07,4.9939,1.5753e-14,1.0168e-06,-6.6464e-07,-4.9939,0.74733
12633,12.305,1.5455,0,0.00027442,2742.3,9.1328e-05,9.2082,9.0103e-05,0.0029066,-0.00027426,-2737.7,0.7467
12634,12.213,1.6364,0,0.00027681,2766.1,9.203e-05,8.189,9.094e-05,0.0031271,-0.00027667,-2762,0.73703
12635,12.305,1.6364,0.05,8.6544e-07,8.6485,6.6455e-07,4.9932,9.288e-13,8.6475e-07,-6.6455e-07,-4.9932,0.74691
12636,12.305,1.3636,0,0.00027449,2743,9.1371e-05,9.4589,9.0112e-05,0.0019325,-0.00027433,-2738.2,0.74619
12637,12.213,1.4545,0,0.00027687,2766.8,9.2078e-05,8.5,9.0947e-05,0.0022298,-0.00027673,-2762.6,0.73655
12638,12.305,1.4545,0.05,8.6529e-07,8.6469,6.6443e-07,4.9923,1.8387e-12,1.1196e-06,-6.6443e-07,-4.9923,0.74643
12639,12.305,1.1818,0,0.00027456,2743.7,9.1417e-05,9.7232,9.0123e-05,0.00082731,-0.0002744,-2738.9,0.74562
12640,12.213,1.2727,0,0.00027695,2767.6,9.2132e-05,8.834,9.0956e-05,0.0012286,-0.0002768,-2763.2,0.736
12641,12.305,1.2727,0.05,8.6508e-07,8.6448,6.6427e-07,4.9911,2.1181e-14,1.1502e-06,-6.6428e-07,-4.9911,0.74589
12642,12.305,1,0,0.00027464,2744.5,9.1467e-05,9.9995,9.0136e-05,-0.00038525,-0.00027447,-2739.5,0.74498
12643,12.213,1.0909,0,0.00027704,2768.4,9.2189e-05,9.1883,9.0966e-05,0.00011361,-0.00027688,-2763.8,0.7354
12644,12.305,1.0909,0.05,8.6482e-07,8.6422,6.6407e-07,4.9896,1.8458e-12,9.7123e-07,-6.6408e-07,-4.9896,0.74529
12645,12.305,0.81818,0,0.00027473,2745.4,9.1521e-05,10.288,9.0152e-05,-0.0017894,-0.00027456,-2740.3,0.74429
12646,12.213,0.90909,0,0.00027713,2769.4,9.2251e-05,9.5618,9.0978e-05,-0.0010572,-0.00027697,-2764.6,0.73473
12647,12.305,0.90909,0.05,8.6448e-07,8.6388,6.6381e-07,4.9876,2.7494e-12,1.571e-06,-6.6381e-07,-4.9876,0.74462
12648,12.305,0.63636,0,0.00027483,2746.4,9.1579e-05,10.592,9.0169e-05,-0.0030286,-0.00027465,-2741.1,0.74354
12649,12.213,0.72727,0,0.00027723,2770.4,9.2318e-05,9.9544,9.0993e-05,-0.0024873,-0.00027706,-2765.4,0.734
12650,12.305,0.72727,0.05,8.6387e-07,8.6327,6.6334e-07,4.9841,1.8423e-12,2.4279e-06,-6.6334e-07,-4.9841,0.7439
12651,12.305,0.45455,0,0.00027494,2747.5,9.1646e-05,10.95,9.0188e-05,-0.0060297,-0.00027476,-2742.1,0.74273
12652,12.213,0.54545,0,0.00027734,2771.5,9.239e-05,10.372,9.1009e-05,-0.0033262,-0.00027717,-2766.3,0.73321
12653,12.305,0.54545,0.05,8.6009e-07,8.595,6.6044e-07,4.9623,3.6622e-12,2.5186e-06,-6.6045e-07,-4.9623,0.74312
12654,12.305,0.27273,0,0.00027517,2749.8,9.1807e-05,11.991,9.0211e-05,-0.0053626,-0.00027496,-2743.8,0.74186
12655,12.213,0.36364,0,0.00027748,2772.9,9.2477e-05,10.886,9.1027e-05,-0.0078249,-0.00027729,-2767.4,0.73236
12656,12.305,0.36364,0.05,8.0897e-07,8.0841,6.2118e-07,4.6673,2.7508e-12,2.6254e-06,-6.2119e-07,-4.6674,0.74228
12657,12.213,0.18182,0,0.00027782,2776.3,9.2744e-05,12.737,9.1049e-05,-0.0011261,-0.0002776,-2769.9,0.73145
12658,12.305,0.18182,0.05,3.5714e-08,0.3569,2.7423e-08,0.20603,2.4596e-12,-8.0557e-06,-2.7425e-08,-0.20608,0.74138
12659,12.305,0.090909,0,0.00027473,2745.4,9.138e-05,8.6117,9.0233e-05,-0.0029426,-0.00027458,-2741.1,0.74093
12660,12.121,5.7273,0,0.00028011,2799.2,9.3401e-05,11.535,9.1865e-05,-0.0046851,-0.00027991,-2793.4,0.72202
12661,12.029,5.8182,0,0.00028278,2825.8,9.4351e-05,12.379,9.2703e-05,-0.0013838,-0.00028257,-2819.6,0.71171
12662,12.121,5.8182,0.05,3.4954e-08,0.3493,2.6844e-08,0.20172,-2.0849e-12,1.5091e-05,-2.6836e-08,-0.20161,0.72153
12663,12.121,5.9091,0,0.00027969,2795,9.3001e-05,8.4041,9.1882e-05,-0.0026618,-0.00027955,-2790.8,0.72108
12664,12.121,5.5455,0,0.00027987,2796.8,9.3216e-05,10.281,9.1847e-05,-0.0052078,-0.0002797,-2791.6,0.72291
12665,12.029,5.6364,0,0.00028242,2822.3,9.4061e-05,10.318,9.2687e-05,-0.0065109,-0.00028224,-2817.1,0.71263
12666,12.121,5.6364,0.05,8.1209e-07,8.1153,6.2359e-07,4.6855,-3.6408e-12,2.2424e-06,-6.2358e-07,-4.6853,0.72245
12667,12.121,5.3636,0,0.00027974,2795.5,9.3125e-05,9.7109,9.1832e-05,-0.0028036,-0.00027957,-2790.6,0.72373
12668,12.029,5.4545,0,0.00028227,2820.8,9.395e-05,9.5873,9.2673e-05,-0.0030313,-0.00028211,-2815.9,0.71349
12669,12.121,5.4545,0.05,8.6341e-07,8.6281,6.6299e-07,4.9815,-2.7423e-12,3.1676e-06,-6.6299e-07,-4.9814,0.72331
12670,12.121,5.1818,0,0.00027962,2794.3,9.3045e-05,9.2056,9.1819e-05,-0.0017718,-0.00027947,-2789.7,0.7245
12671,12.029,5.2727,0,0.00028214,2819.5,9.3855e-05,8.962,9.2662e-05,-0.0023565,-0.00028199,-2815,0.71429
12672,12.121,5.2727,0.05,8.6723e-07,8.6663,6.6593e-07,5.0035,-2.7452e-12,1.545e-06,-6.6592e-07,-5.0034,0.7241
12673,12.121,5,0,0.00027952,2793.3,9.297e-05,8.7285,9.1808e-05,-0.00057838,-0.00027937,-2788.9,0.7252
12674,12.029,5.0909,0,0.00028202,2818.3,9.3766e-05,8.3728,9.2652e-05,-0.0011985,-0.00028188,-2814.1,0.71503
12675,12.121,5.0909,0.05,8.6788e-07,8.6729,6.6643e-07,5.0073,-2.743e-12,1.4285e-06,-6.6642e-07,-5.0072,0.72483
12676,12.121,4.8182,0,0.00027942,2792.3,9.29e-05,8.2775,9.1799e-05,0.00049067,-0.00027928,-2788.1,0.72584
12677,12.029,4.9091,0,0.00028191,2817.2,9.3684e-05,7.816,9.2643e-05,-0.00021209,-0.00028178,-2813.3,0.71571
12678,12.121,4.9091,0.05,8.6827e-07,8.6767,6.6673e-07,5.0096,-2.7473e-12,6.6973e-07,-6.6672e-07,-5.0095,0.72551
12679,12.121,4.6364,0,0.00027933,2791.4,9.2836e-05,7.8539,9.1791e-05,0.0014985,-0.0002792,-2787.5,0.72642
12680,12.029,4.7273,0,0.00028181,2816.2,9.3607e-05,7.2927,9.2636e-05,0.00075903,-0.00028169,-2812.5,0.71633
12681,12.121,4.7273,0.05,8.6859e-07,8.6799,6.6697e-07,5.0114,-1.8352e-12,-3.3105e-07,-6.6697e-07,-5.0113,0.72612
12682,12.121,4.4545,0,0.00027925,2790.6,9.2777e-05,7.4601,9.1784e-05,0.0024221,-0.00027913,-2786.9,0.72694
12683,12.029,4.5455,0,0.00028172,2815.3,9.3536e-05,6.8055,9.2631e-05,0.0016693,-0.0002816,-2811.9,0.71688
12684,12.121,4.5455,0.05,8.6885e-07,8.6825,6.6717e-07,5.0129,-3.6535e-12,6.3348e-07,-6.6717e-07,-5.0128,0.72667
12685,12.121,4.2727,0,0.00027918,2789.9,9.2724e-05,7.0992,9.1779e-05,0.0032613,-0.00027906,-2786.4,0.7274
12686,12.029,4.3636,0,0.00028164,2814.5,9.3472e-05,6.3577,9.2626e-05,0.0025246,-0.00028153,-2811.3,0.71737
12687,12.121,4.3636,0.05,8.6906e-07,8.6846,6.6733e-07,5.0141,-1.8345e-12,-4.8552e-07,-6.6733e-07,-5.014,0.72716
12688,12.121,4.0909,0,0.00027912,2789.3,9.2676e-05,6.775,9.1775e-05,0.0040107,-0.00027901,-2785.9,0.7278
12689,12.029,4.1818,0,0.00028157,2813.7,9.3415e-05,5.953,9.2623e-05,0.0033162,-0.00028147,-2810.8,0.71781
12690,12.121,4.1818,0.05,8.6922e-07,8.6862,6.6746e-07,5.0151,-1.8304e-12,-7.4565e-07,-6.6745e-07,-5.015,0.72759
12691,12.121,3.9091,0,0.00027907,2788.8,9.2635e-05,6.4915,9.1772e-05,0.0046639,-0.00027896,-2785.5,0.72814
12692,12.029,4,0,0.00028151,2813.1,9.3365e-05,5.5957,9.262e-05,0.0040369,-0.00028141,-2810.3,0.71818
12693,12.121,4,0.05,8.6935e-07,8.6875,6.6756e-07,5.0158,-2.7379e-12,-6.3637e-07,-6.6755e-07,-5.0157,0.72795
12694,12.121,3.7273,0,0.00027903,2788.3,9.2601e-05,6.2528,9.1769e-05,0.0052142,-0.00027892,-2785.2,0.72841
12695,12.029,3.8182,0,0.00028146,2812.6,9.3322e-05,5.2898,9.2619e-05,0.0046735,-0.00028136,-2810,0.71848
12696,12.121,3.8182,0.05,8.6945e-07,8.6885,6.6764e-07,5.0164,-1.8263e-12,-4.4166e-07,-6.6763e-07,-5.0163,0.72826
12697,12.121,3.5455,0,0.00027899,2788,9.2574e-05,6.0627,9.1768e-05,0.0056545,-0.00027889,-2785,0.72863
12698,12.029,3.6364,0,0.00028141,2812.2,9.3287e-05,5.0395,9.2617e-05,0.005213,-0.00028133,-2809.7,0.71873
12699,12.121,3.6364,0.05,8.6953e-07,8.6893,6.6769e-07,5.0168,-1.8243e-12,8.8089e-07,-6.6769e-07,-5.0167,0.7285
12700,12.121,3.3636,0,0.00027897,2787.8,9.2554e-05,5.9243,9.1767e-05,0.0059763,-0.00027887,-2784.8,0.72878
12701,12.029,3.4545,0,0.00028138,2811.9,9.3261e-05,4.8484,9.2616e-05,0.0056397,-0.0002813,-2809.4,0.71891
12702,12.121,3.4545,0.05,8.6958e-07,8.6898,6.6773e-07,5.017,-9.1313e-13,7.4734e-07,-6.6773e-07,-5.017,0.72869
12703,12.121,3.1818,0,0.00027895,2787.6,9.2542e-05,5.8403,9.1766e-05,0.0061721,-0.00027885,-2784.7,0.72887
12704,12.029,3.2727,0,0.00028136,2811.7,9.3243e-05,4.7192,9.2616e-05,0.0059349,-0.00028128,-2809.3,0.71904
12705,12.121,3.2727,0.05,8.6961e-07,8.6901,6.6775e-07,5.0172,-2.1114e-15,1.926e-07,-6.6775e-07,-5.0172,0.72881
12706,12.121,3,0,0.00027895,2787.6,9.2538e-05,5.8121,9.1766e-05,0.0062379,-0.00027885,-2784.7,0.7289
12707,12.029,3.0909,0,0.00028135,2811.6,9.3234e-05,4.6541,9.2615e-05,0.0060863,-0.00028127,-2809.2,0.7191
12708,12.121,3.0909,0.05,8.6962e-07,8.6902,6.6776e-07,5.0173,-9.1018e-13,8.5912e-07,-6.6776e-07,-5.0173,0.72887
12709,12.121,2.8182,0,0.00027895,2787.6,9.2542e-05,5.8403,9.1766e-05,0.0061722,-0.00027885,-2784.7,0.72887
12710,12.029,2.9091,0,0.00028135,2811.6,9.3234e-05,4.6541,9.2615e-05,0.0060864,-0.00028127,-2809.2,0.7191
12711,12.121,2.9091,0.05,8.6962e-07,8.6902,6.6776e-07,5.0173,6.8752e-16,1.5847e-06,-6.6776e-07,-5.0173,0.72887
12712,12.121,2.6364,0,0.00027897,2787.8,9.2554e-05,5.9243,9.1767e-05,0.0059761,-0.00027887,-2784.8,0.72878
12713,12.029,2.7273,0,0.00028136,2811.7,9.3243e-05,4.7192,9.2616e-05,0.005935,-0.00028128,-2809.3,0.71904
12714,12.121,2.7273,0.05,8.6961e-07,8.6901,6.6775e-07,5.0172,2.1129e-15,1.5951e-06,-6.6775e-07,-5.0172,0.72881
12715,12.121,2.4545,0,0.00027899,2788,9.2574e-05,6.0627,9.1768e-05,0.0056542,-0.00027889,-2785,0.72863
12716,12.029,2.5455,0,0.00028138,2811.9,9.3261e-05,4.8484,9.2616e-05,0.0056397,-0.0002813,-2809.4,0.71891
12717,12.121,2.5455,0.05,8.6958e-07,8.6898,6.6773e-07,5.017,3.5366e-15,1.189e-06,-6.6773e-07,-5.017,0.72869
12718,12.121,2.2727,0,0.00027903,2788.3,9.2601e-05,6.2528,9.1769e-05,0.0052142,-0.00027892,-2785.2,0.72841
12719,12.029,2.3636,0,0.00028141,2812.2,9.3287e-05,5.0395,9.2617e-05,0.0052132,-0.00028133,-2809.7,0.71873
12720,12.121,2.3636,0.05,8.6953e-07,8.6893,6.6769e-07,5.0167,5.2818e-15,1.4399e-06,-6.6769e-07,-5.0167,0.7285
12721,12.121,2.0909,0,0.00027907,2788.8,9.2635e-05,6.4915,9.1772e-05,0.0046641,-0.00027896,-2785.5,0.72814
12722,12.029,2.1818,0,0.00028146,2812.6,9.3322e-05,5.2898,9.2619e-05,0.0046737,-0.00028136,-2810,0.71848
12723,12.121,2.1818,0.05,8.6945e-07,8.6885,6.6763e-07,5.0163,6.9215e-15,1.3641e-06,-6.6763e-07,-5.0163,0.72826
12724,12.121,1.9091,0,0.00027912,2789.3,9.2676e-05,6.775,9.1775e-05,0.0040107,-0.00027901,-2785.9,0.7278
12725,12.029,2,0,0.00028151,2813.1,9.3365e-05,5.5956,9.262e-05,0.0040371,-0.00028141,-2810.3,0.71818
12726,12.121,2,0.05,8.6935e-07,8.6875,6.6755e-07,5.0158,9.1869e-13,1.4365e-06,-6.6756e-07,-5.0158,0.72795
12727,12.121,1.7273,0,0.00027918,2789.9,9.2724e-05,7.0992,9.1779e-05,0.0032615,-0.00027906,-2786.4,0.7274
12728,12.029,1.8182,0,0.00028157,2813.7,9.3415e-05,5.953,9.2623e-05,0.0033165,-0.00028147,-2810.8,0.71781
12729,12.121,1.8182,0.05,8.6922e-07,8.6862,6.6745e-07,5.015,1.0804e-14,1.7231e-06,-6.6746e-07,-5.0151,0.72759
12730,12.121,1.5455,0,0.00027925,2790.6,9.2777e-05,7.4601,9.1784e-05,0.0024225,-0.00027913,-2786.9,0.72694
12731,12.029,1.6364,0,0.00028164,2814.5,9.3472e-05,6.3576,9.2626e-05,0.0025249,-0.00028153,-2811.3,0.71737
12732,12.121,1.6364,0.05,8.6906e-07,8.6846,6.6733e-07,5.014,2.7412e-12,1.8426e-06,-6.6733e-07,-5.014,0.72716
12733,12.121,1.3636,0,0.00027933,2791.4,9.2836e-05,7.8539,9.1791e-05,0.0014993,-0.0002792,-2787.5,0.72642
12734,12.029,1.4545,0,0.00028172,2815.3,9.3536e-05,6.8055,9.2631e-05,0.00167,-0.0002816,-2811.9,0.71688
12735,12.121,1.4545,0.05,8.6885e-07,8.6825,6.6717e-07,5.0128,1.5831e-14,1.9513e-06,-6.6717e-07,-5.0128,0.72667
12736,12.121,1.1818,0,0.00027942,2792.3,9.29e-05,8.2775,9.1799e-05,0.00049171,-0.00027928,-2788.1,0.72584
12737,12.029,1.2727,0,0.00028181,2816.2,9.3607e-05,7.2926,9.2636e-05,0.00075987,-0.00028169,-2812.5,0.71633
12738,12.121,1.2727,0.05,8.6859e-07,8.6799,6.6697e-07,5.0113,1.8367e-12,2.2875e-06,-6.6697e-07,-5.0113,0.72612
12739,12.121,1,0,0.00027952,2793.3,9.297e-05,8.7285,9.1808e-05,-0.00057719,-0.00027937,-2788.9,0.7252
12740,12.029,1.0909,0,0.00028191,2817.2,9.3684e-05,7.8159,9.2643e-05,-0.00021145,-0.00028178,-2813.3,0.71571
12741,12.121,1.0909,0.05,8.6827e-07,8.6767,6.6672e-07,5.0095,1.835e-12,2.3417e-06,-6.6673e-07,-5.0095,0.72551
12742,12.121,0.81818,0,0.00027962,2794.3,9.3045e-05,9.2056,9.1819e-05,-0.0017705,-0.00027947,-2789.7,0.7245
12743,12.029,0.90909,0,0.00028202,2818.3,9.3766e-05,8.3728,9.2652e-05,-0.0011972,-0.00028188,-2814.1,0.71503
12744,12.121,0.90909,0.05,8.6788e-07,8.6729,6.6643e-07,5.0073,1.8339e-12,1.9033e-06,-6.6643e-07,-5.0073,0.72483
12745,12.121,0.63636,0,0.00027974,2795.5,9.3125e-05,9.7109,9.1832e-05,-0.0028028,-0.00027957,-2790.6,0.72373
12746,12.029,0.72727,0,0.00028214,2819.5,9.3855e-05,8.9619,9.2662e-05,-0.0023554,-0.00028199,-2815,0.71429
12747,12.121,0.72727,0.05,8.6723e-07,8.6663,6.6592e-07,5.0035,9.2223e-13,2.1271e-06,-6.6593e-07,-5.0035,0.7241
12748,12.121,0.45455,0,0.00027987,2796.8,9.3216e-05,10.281,9.1847e-05,-0.005207,-0.0002797,-2791.6,0.72291
12749,12.029,0.54545,0,0.00028227,2820.8,9.395e-05,9.5873,9.2673e-05,-0.0030309,-0.00028211,-2815.9,0.71349
12750,12.121,0.54545,0.05,8.6341e-07,8.6281,6.6298e-07,4.9814,2.7423e-12,2.5859e-06,-6.6299e-07,-4.9815,0.72331
12751,12.121,0.27273,0,0.00028011,2799.2,9.3401e-05,11.535,9.1865e-05,-0.0046842,-0.00027991,-2793.4,0.72202
12752,12.029,0.36364,0,0.00028242,2822.3,9.4061e-05,10.318,9.2687e-05,-0.0065096,-0.00028224,-2817.1,0.71263
12753,12.121,0.36364,0.05,8.1209e-07,8.1153,6.2359e-07,4.6853,3.6616e-12,2.2553e-06,-6.2359e-07,-4.6854,0.72245
12754,12.029,0.18182,0,0.00028278,2825.8,9.4351e-05,12.379,9.2703e-05,-0.0013834,-0.00028257,-2819.6,0.71171
12755,12.121,0.18182,0.05,3.4954e-08,0.3493,2.6839e-08,0.20163,7.2833e-13,-9.4413e-06,-2.6842e-08,-0.20171,0.72153
12756,12.121,0.090909,0,0.00027969,2795,9.3001e-05,8.4041,9.1882e-05,-0.0026622,-0.00027955,-2790.8,0.72108
12757,11.938,5.7273,0,0.00028507,2848.8,9.4999e-05,11.066,9.3525e-05,-0.0040707,-0.00028488,-2843.2,0.70238
12758,11.846,5.8182,0,0.00028776,2875.6,9.5963e-05,12.007,9.4365e-05,-0.0016708,-0.00028755,-2869.6,0.69215
12759,11.938,5.8182,0.05,3.5236e-08,0.35212,2.706e-08,0.20335,-3.5689e-12,9.828e-06,-2.7054e-08,-0.20324,0.70188
12760,11.938,5.9091,0,0.00028468,2844.8,9.4628e-05,8.1878,9.3538e-05,-0.0024297,-0.00028454,-2840.7,0.70142
12761,11.938,5.5455,0,0.00028482,2846.2,9.4791e-05,9.598,9.3513e-05,-0.0044136,-0.00028465,-2841.4,0.70328
12762,11.846,5.6364,0,0.00028738,2871.9,9.565e-05,9.7357,9.4354e-05,-0.0051568,-0.00028722,-2867,0.69309
12763,11.938,5.6364,0.05,8.1541e-07,8.1485,6.2614e-07,4.7046,-3.6541e-12,2.7162e-06,-6.2613e-07,-4.7045,0.70281
12764,11.938,5.3636,0,0.00028467,2844.7,9.4676e-05,8.8152,9.3503e-05,-0.0026124,-0.00028452,-2840.3,0.70411
12765,11.846,5.4545,0,0.00028721,2870.2,9.5515e-05,8.7862,9.4345e-05,-0.002698,-0.00028706,-2865.8,0.69396
12766,11.938,5.4545,0.05,8.6687e-07,8.6628,6.6565e-07,5.0015,-3.6477e-12,3.7222e-06,-6.6565e-07,-5.0014,0.70368
12767,11.938,5.1818,0,0.00028453,2843.4,9.4573e-05,8.1068,9.3494e-05,-0.001814,-0.00028439,-2839.3,0.70489
12768,11.846,5.2727,0,0.00028707,2868.7,9.5396e-05,7.9506,9.4338e-05,-0.0022086,-0.00028693,-2864.7,0.69478
12769,11.938,5.2727,0.05,8.7074e-07,8.7014,6.6862e-07,5.0238,-2.7398e-12,1.999e-06,-6.6862e-07,-5.0237,0.70449
12770,11.938,5,0,0.00028441,2842.1,9.4477e-05,7.4384,9.3487e-05,-0.00087343,-0.00028428,-2838.4,0.7056
12771,11.846,5.0909,0,0.00028693,2867.3,9.5285e-05,7.162,9.4332e-05,-0.0013696,-0.00028681,-2863.7,0.69553
12772,11.938,5.0909,0.05,8.7143e-07,8.7083,6.6916e-07,5.0278,-2.7425e-12,1.9074e-06,-6.6915e-07,-5.0277,0.70523
12773,11.938,4.8182,0,0.0002843,2841,9.4387e-05,6.8098,9.3481e-05,1.4137e-06,-0.00028418,-2837.6,0.70626
12774,11.846,4.9091,0,0.00028681,2866.1,9.5182e-05,6.4183,9.4328e-05,-0.00063469,-0.0002867,-2862.9,0.69621
12775,11.938,4.9091,0.05,8.7187e-07,8.7126,6.6949e-07,5.0303,-3.6484e-12,1.1768e-06,-6.6948e-07,-5.0302,0.70592
12776,11.938,4.6364,0,0.0002842,2840,9.4305e-05,6.2235,9.3477e-05,0.0008605,-0.00028409,-2836.9,0.70685
12777,11.846,4.7273,0,0.00028669,2864.9,9.5086e-05,5.7225,9.4324e-05,0.00011313,-0.00028659,-2862.1,0.69684
12778,11.938,4.7273,0.05,8.7223e-07,8.7162,6.6976e-07,5.0324,-2.7375e-12,3.0121e-07,-6.6976e-07,-5.0323,0.70654
12779,11.938,4.4545,0,0.0002841,2839.1,9.4229e-05,5.6827,9.3473e-05,0.0016901,-0.00028401,-2836.2,0.70737
12780,11.846,4.5455,0,0.00028659,2863.9,9.4998e-05,5.078,9.4322e-05,0.00085006,-0.0002865,-2861.3,0.6974
12781,11.938,4.5455,0.05,8.7253e-07,8.7193,6.7e-07,5.0341,-1.8265e-12,1.1266e-06,-6.6999e-07,-5.0341,0.7071
12782,11.938,4.2727,0,0.00028402,2838.3,9.4161e-05,5.1915,9.347e-05,0.0024906,-0.00028393,-2835.7,0.70784
12783,11.846,4.3636,0,0.00028649,2863,9.4918e-05,4.4892,9.432e-05,0.0015879,-0.00028642,-2860.7,0.6979
12784,11.938,4.3636,0.05,8.7278e-07,8.7218,6.7019e-07,5.0356,-9.1546e-13,-4.6252e-08,-6.7019e-07,-5.0355,0.70759
12785,11.938,4.0909,0,0.00028395,2837.5,9.4101e-05,4.754,9.3468e-05,0.003255,-0.00028387,-2835.2,0.70824
12786,11.846,4.1818,0,0.00028641,2862.1,9.4846e-05,3.9604,9.4319e-05,0.0023297,-0.00028634,-2860.1,0.69834
12787,11.938,4.1818,0.05,8.7299e-07,8.7239,6.7035e-07,5.0368,-2.7336e-12,-1.8686e-07,-6.7035e-07,-5.0367,0.70803
12788,11.938,3.9091,0,0.00028389,2836.9,9.4049e-05,4.3745,9.3467e-05,0.0039711,-0.00028381,-2834.7,0.70859
12789,11.846,4,0,0.00028634,2861.4,9.4784e-05,3.4962,9.4319e-05,0.0030746,-0.00028628,-2859.7,0.69872
12790,11.938,4,0.05,8.7316e-07,8.7256,6.7048e-07,5.0378,-1.8224e-12,-2.5593e-08,-6.7048e-07,-5.0377,0.7084
12791,11.938,3.7273,0,0.00028384,2836.4,9.4006e-05,4.0573,9.3466e-05,0.0046197,-0.00028377,-2834.4,0.70886
12792,11.846,3.8182,0,0.00028628,2860.8,9.4731e-05,3.1011,9.4319e-05,0.00381,-0.00028623,-2859.3,0.69903
12793,11.938,3.8182,0.05,8.733e-07,8.7269,6.7058e-07,5.0385,-9.1171e-13,1.3211e-07,-6.7058e-07,-5.0385,0.70871
12794,11.938,3.5455,0,0.0002838,2836,9.3972e-05,3.8061,9.3466e-05,0.0051758,-0.00028373,-2834.1,0.70908
12795,11.846,3.6364,0,0.00028623,2860.3,9.4688e-05,2.7793,9.4319e-05,0.0045099,-0.00028618,-2858.9,0.69928
12796,11.938,3.6364,0.05,8.734e-07,8.728,6.7066e-07,5.0391,-1.3198e-15,1.204e-06,-6.7066e-07,-5.0391,0.70896
12797,11.938,3.3636,0,0.00028377,2835.8,9.3947e-05,3.6242,9.3465e-05,0.0056071,-0.00028371,-2833.9,0.70924
12798,11.846,3.4545,0,0.00028619,2860,9.4656e-05,2.5345,9.4319e-05,0.0051286,-0.00028615,-2858.7,0.69947
12799,11.938,3.4545,0.05,8.7347e-07,8.7287,6.7072e-07,5.0395,-7.5439e-16,1.097e-06,-6.7072e-07,-5.0395,0.70915
12800,11.938,3.1818,0,0.00028375,2835.6,9.3932e-05,3.514,9.3465e-05,0.0058817,-0.00028369,-2833.8,0.70933
12801,11.846,3.2727,0,0.00028617,2859.7,9.4634e-05,2.3695,9.4319e-05,0.0055996,-0.00028613,-2858.5,0.69959
12802,11.938,3.2727,0.05,8.7352e-07,8.7292,6.7076e-07,5.0398,-3.647e-16,6.0074e-07,-6.7075e-07,-5.0397,0.70927
12803,11.938,3,0,0.00028375,2835.5,9.3927e-05,3.4771,9.3465e-05,0.0059762,-0.00028369,-2833.8,0.70936
12804,11.846,3.0909,0,0.00028616,2859.6,9.4623e-05,2.2864,9.4319e-05,0.0058569,-0.00028612,-2858.5,0.69966
12805,11.938,3.0909,0.05,8.7354e-07,8.7294,6.7077e-07,5.0399,-1.0512e-16,1.236e-06,-6.7077e-07,-5.0399,0.70933
12806,11.938,2.8182,0,0.00028375,2835.6,9.3932e-05,3.514,9.3465e-05,0.0058818,-0.00028369,-2833.8,0.70933
12807,11.846,2.9091,0,0.00028616,2859.6,9.4623e-05,2.2864,9.4319e-05,0.0058567,-0.00028612,-2858.5,0.69966
12808,11.938,2.9091,0.05,8.7354e-07,8.7294,6.7077e-07,5.0399,1.0535e-16,1.8113e-06,-6.7077e-07,-5.0399,0.70933
12809,11.938,2.6364,0,0.00028377,2835.8,9.3947e-05,3.6242,9.3465e-05,0.0056074,-0.00028371,-2833.9,0.70924
12810,11.846,2.7273,0,0.00028617,2859.7,9.4634e-05,2.3695,9.4319e-05,0.0055996,-0.00028613,-2858.5,0.69959
12811,11.938,2.7273,0.05,8.7352e-07,8.7292,6.7076e-07,5.0398,3.65e-16,1.7238e-06,-6.7075e-07,-5.0398,0.70927
12812,11.938,2.4545,0,0.0002838,2836,9.3972e-05,3.8061,9.3466e-05,0.0051763,-0.00028373,-2834.1,0.70908
12813,11.846,2.5455,0,0.00028619,2860,9.4656e-05,2.5344,9.4319e-05,0.005129,-0.00028615,-2858.7,0.69947
12814,11.938,2.5455,0.05,8.7347e-07,8.7287,6.7072e-07,5.0395,7.4434e-16,1.7043e-06,-6.7072e-07,-5.0395,0.70915
12815,11.938,2.2727,0,0.00028384,2836.4,9.4006e-05,4.0573,9.3466e-05,0.0046201,-0.00028377,-2834.4,0.70886
12816,11.846,2.3636,0,0.00028623,2860.3,9.4688e-05,2.7793,9.4319e-05,0.0045101,-0.00028618,-2858.9,0.69928
12817,11.938,2.3636,0.05,8.734e-07,8.728,6.7066e-07,5.0391,1.3205e-15,1.8501e-06,-6.7066e-07,-5.0391,0.70896
12818,11.938,2.0909,0,0.00028389,2836.9,9.4049e-05,4.3745,9.3467e-05,0.0039713,-0.00028381,-2834.7,0.70859
12819,11.846,2.1818,0,0.00028628,2860.8,9.4731e-05,3.1011,9.4319e-05,0.0038099,-0.00028623,-2859.3,0.69903
12820,11.938,2.1818,0.05,8.733e-07,8.7269,6.7058e-07,5.0385,2.0829e-15,1.7965e-06,-6.7058e-07,-5.0385,0.70871
12821,11.938,1.9091,0,0.00028395,2837.5,9.4101e-05,4.7539,9.3468e-05,0.0032554,-0.00028387,-2835.2,0.70824
12822,11.846,2,0,0.00028634,2861.4,9.4784e-05,3.4962,9.4319e-05,0.0030746,-0.00028628,-2859.7,0.69872
12823,11.938,2,0.05,8.7316e-07,8.7256,6.7048e-07,5.0377,9.1286e-13,1.7376e-06,-6.7048e-07,-5.0377,0.7084
12824,11.938,1.7273,0,0.00028402,2838.3,9.4161e-05,5.1914,9.347e-05,0.0024911,-0.00028393,-2835.7,0.70784
12825,11.846,1.8182,0,0.00028641,2862.1,9.4846e-05,3.9604,9.4319e-05,0.0023301,-0.00028634,-2860.1,0.69834
12826,11.938,1.8182,0.05,8.7299e-07,8.7239,6.7035e-07,5.0368,3.9218e-15,2.0942e-06,-6.7035e-07,-5.0368,0.70803
12827,11.938,1.5455,0,0.0002841,2839.1,9.4229e-05,5.6827,9.3473e-05,0.0016907,-0.00028401,-2836.2,0.70737
12828,11.846,1.6364,0,0.00028649,2863,9.4918e-05,4.4891,9.432e-05,0.0015883,-0.00028642,-2860.7,0.6979
12829,11.938,1.6364,0.05,8.7278e-07,8.7218,6.7019e-07,5.0355,1.8254e-12,2.1922e-06,-6.7019e-07,-5.0355,0.70759
12830,11.938,1.3636,0,0.0002842,2840,9.4305e-05,6.2234,9.3477e-05,0.00086126,-0.00028409,-2836.9,0.70685
12831,11.846,1.4545,0,0.00028659,2863.9,9.4998e-05,5.078,9.4322e-05,0.00085037,-0.0002865,-2861.3,0.6974
12832,11.938,1.4545,0.05,8.7253e-07,8.7193,6.7e-07,5.0341,9.1701e-13,2.3602e-06,-6.7e-07,-5.0341,0.7071
12833,11.938,1.1818,0,0.0002843,2841,9.4387e-05,6.8098,9.3481e-05,1.8561e-06,-0.00028418,-2837.6,0.70626
12834,11.846,1.2727,0,0.00028669,2864.9,9.5086e-05,5.7224,9.4324e-05,0.00011376,-0.00028659,-2862.1,0.69684
12835,11.938,1.2727,0.05,8.7223e-07,8.7162,6.6976e-07,5.0323,1.8273e-12,2.4933e-06,-6.6976e-07,-5.0323,0.70654
12836,11.938,1,0,0.00028441,2842.1,9.4477e-05,7.4384,9.3487e-05,-0.00087268,-0.00028428,-2838.4,0.7056
12837,11.846,1.0909,0,0.00028681,2866.1,9.5182e-05,6.4183,9.4328e-05,-0.00063414,-0.0002867,-2862.9,0.69621
12838,11.938,1.0909,0.05,8.7187e-07,8.7126,6.6949e-07,5.0302,1.8286e-12,2.5377e-06,-6.6948e-07,-5.0303,0.70592
12839,11.938,0.81818,0,0.00028453,2843.4,9.4573e-05,8.1067,9.3494e-05,-0.001813,-0.00028439,-2839.3,0.70489
12840,11.846,0.90909,0,0.00028693,2867.3,9.5285e-05,7.1619,9.4332e-05,-0.0013686,-0.00028681,-2863.7,0.69553
12841,11.938,0.90909,0.05,8.7143e-07,8.7083,6.6915e-07,5.0278,2.7378e-12,2.1035e-06,-6.6916e-07,-5.0278,0.70523
12842,11.938,0.63636,0,0.00028467,2844.7,9.4676e-05,8.8152,9.3503e-05,-0.0026117,-0.00028452,-2840.3,0.70411
12843,11.846,0.72727,0,0.00028707,2868.7,9.5396e-05,7.9505,9.4338e-05,-0.0022076,-0.00028693,-2864.7,0.69478
12844,11.938,0.72727,0.05,8.7074e-07,8.7014,6.6862e-07,5.0237,9.2103e-13,1.4917e-06,-6.6862e-07,-5.0238,0.70449
12845,11.938,0.45455,0,0.00028482,2846.2,9.4791e-05,9.598,9.3513e-05,-0.0044128,-0.00028465,-2841.4,0.70328
12846,11.846,0.54545,0,0.00028721,2870.2,9.5515e-05,8.7861,9.4345e-05,-0.0026975,-0.00028706,-2865.8,0.69396
12847,11.938,0.54545,0.05,8.6687e-07,8.6628,6.6565e-07,5.0014,2.7419e-12,1.3333e-06,-6.6565e-07,-5.0014,0.70368
12848,11.938,0.27273,0,0.00028507,2848.8,9.4999e-05,11.066,9.3525e-05,-0.0040699,-0.00028488,-2843.2,0.70238
12849,11.846,0.36364,0,0.00028738,2871.9,9.565e-05,9.7357,9.4354e-05,-0.0051563,-0.00028722,-2867,0.69309
12850,11.938,0.36364,0.05,8.1541e-07,8.1485,6.2613e-07,4.7045,1.8225e-12,1.8339e-06,-6.2613e-07,-4.7045,0.70281
12851,11.846,0.18182,0,0.00028776,2875.6,9.5963e-05,12.007,9.4365e-05,-0.0016707,-0.00028755,-2869.6,0.69215
12852,11.938,0.18182,0.05,3.5237e-08,0.35212,2.7054e-08,0.20327,1.7622e-12,-2.3846e-06,-2.7061e-08,-0.20333,0.70188
12853,11.938,0.090909,0,0.00028468,2844.8,9.4628e-05,8.1878,9.3538e-05,-0.0024287,-0.00028454,-2840.7,0.70142
12854,11.754,5.7273,0,0.00029005,2898.5,9.6602e-05,10.582,9.5193e-05,-0.0033852,-0.00028987,-2893.2,0.68292
12855,11.662,5.8182,0,0.00029275,2925.5,9.758e-05,11.62,9.6033e-05,-0.0019946,-0.00029256,-2919.7,0.67278
12856,11.754,5.8182,0.05,3.6602e-08,0.36577,2.8109e-08,0.21124,-3.2773e-12,5.4554e-06,-2.8102e-08,-0.21112,0.68242
12857,11.754,5.9091,0,0.00028968,2894.8,9.6261e-05,7.9623,9.5201e-05,-0.0021249,-0.00028955,-2890.8,0.68195
12858,11.754,5.5455,0,0.00028978,2895.8,9.637e-05,8.8976,9.5186e-05,-0.0035069,-0.00028963,-2891.3,0.68384
12859,11.662,5.6364,0,0.00029237,2921.6,9.7244e-05,9.1353,9.6027e-05,-0.0037529,-0.00029221,-2917.1,0.67374
12860,11.754,5.6364,0.05,8.1888e-07,8.1832,6.2881e-07,4.7246,-3.64e-12,2.4803e-06,-6.288e-07,-4.7245,0.68336
12861,11.754,5.3636,0,0.00028961,2894.1,9.6232e-05,7.8987,9.518e-05,-0.0023271,-0.00028948,-2890.2,0.68469
12862,11.662,5.4545,0,0.00029218,2919.8,9.7084e-05,7.9631,9.6024e-05,-0.0023271,-0.00029204,-2915.8,0.67463
12863,11.754,5.4545,0.05,8.7047e-07,8.6986,6.6841e-07,5.0222,-2.7354e-12,2.7581e-06,-6.684e-07,-5.0221,0.68425
12864,11.754,5.1818,0,0.00028946,2892.6,9.6106e-05,6.9837,9.5176e-05,-0.0018086,-0.00028934,-2889.1,0.68548
12865,11.662,5.2727,0,0.00029201,2918.1,9.6942e-05,6.9131,9.6021e-05,-0.0020609,-0.00029189,-2914.6,0.67545
12866,11.754,5.2727,0.05,8.7437e-07,8.7377,6.7141e-07,5.0447,-2.7323e-12,9.2501e-07,-6.714e-07,-5.0446,0.68507
12867,11.754,5,0,0.00028932,2891.2,9.5988e-05,6.1204,9.5173e-05,-0.001201,-0.00028922,-2888.2,0.6862
12868,11.662,5.0909,0,0.00029186,2916.6,9.6808e-05,5.9207,9.602e-05,-0.0016281,-0.00029176,-2913.6,0.67621
12869,11.754,5.0909,0.05,8.751e-07,8.745,6.7197e-07,5.049,-3.6425e-12,7.5981e-07,-6.7197e-07,-5.0489,0.68582
12870,11.754,4.8182,0,0.00028919,2889.9,9.5878e-05,5.31,9.5171e-05,-0.00063327,-0.0002891,-2887.3,0.68686
12871,11.662,4.9091,0,0.00029172,2915.2,9.6683e-05,4.9857,9.6019e-05,-0.0012918,-0.00029163,-2912.7,0.67691
12872,11.754,4.9091,0.05,8.7557e-07,8.7497,6.7234e-07,5.0517,-1.822e-12,4.9479e-08,-6.7233e-07,-5.0516,0.68652
12873,11.754,4.6364,0,0.00028908,2888.8,9.5776e-05,4.5566,9.517e-05,-6.3537e-05,-0.000289,-2886.5,0.68746
12874,11.662,4.7273,0,0.00029159,2913.9,9.6567e-05,4.1126,9.602e-05,-0.00098966,-0.00029152,-2911.8,0.67755
12875,11.754,4.7273,0.05,8.7597e-07,8.7537,6.7264e-07,5.054,-2.7299e-12,-8.8958e-07,-6.7264e-07,-5.0539,0.68715
12876,11.754,4.4545,0,0.00028897,2887.7,9.5684e-05,3.8646,9.5169e-05,0.00051023,-0.00028891,-2885.8,0.688
12877,11.662,4.5455,0,0.00029147,2912.7,9.6461e-05,3.3063,9.6021e-05,-0.00074276,-0.00029141,-2911,0.67812
12878,11.754,4.5455,0.05,8.7632e-07,8.7571,6.729e-07,5.056,-2.7286e-12,8.8702e-08,-6.729e-07,-5.0559,0.68771
12879,11.754,4.2727,0,0.00028888,2886.8,9.56e-05,3.2386,9.5169e-05,0.0011064,-0.00028882,-2885.2,0.68847
12880,11.662,4.3636,0,0.00029136,2911.6,9.6364e-05,2.5719,9.6022e-05,-0.00055754,-0.00029132,-2910.3,0.67863
12881,11.754,4.3636,0.05,8.7661e-07,8.7601,6.7313e-07,5.0576,-1.8178e-12,-1.0919e-06,-6.7313e-07,-5.0576,0.68822
12882,11.754,4.0909,0,0.0002888,2886,9.5527e-05,2.6835,9.517e-05,0.0017457,-0.00028875,-2884.6,0.68888
12883,11.662,4.1818,0,0.00029127,2910.7,9.6279e-05,1.9147,9.6024e-05,-0.00044765,-0.00029124,-2909.7,0.67907
12884,11.754,4.1818,0.05,8.7686e-07,8.7625,6.7331e-07,5.0591,-3.6356e-12,-1.4441e-06,-6.7332e-07,-5.059,0.68866
12885,11.754,3.9091,0,0.00028873,2885.3,9.5463e-05,2.204,9.517e-05,0.0024485,-0.00028869,-2884.2,0.68923
12886,11.662,4,0,0.00029119,2909.9,9.6204e-05,1.3399,9.6025e-05,-0.00044985,-0.00029116,-2909.2,0.67945
12887,11.754,4,0.05,8.7706e-07,8.7645,6.7348e-07,5.0602,-2.7259e-12,-1.2447e-06,-6.7346e-07,-5.0602,0.68904
12888,11.754,3.7273,0,0.00028867,2884.7,9.5411e-05,1.8046,9.5171e-05,0.003229,-0.00028864,-2883.8,0.68951
12889,11.662,3.8182,0,0.00029112,2909.2,9.614e-05,0.85252,9.6027e-05,-0.0006585,-0.0002911,-2908.8,0.67977
12890,11.754,3.8182,0.05,8.7722e-07,8.7662,6.736e-07,5.0612,-1.816e-12,-1.0062e-06,-6.7359e-07,-5.0611,0.68935
12891,11.754,3.5455,0,0.00028862,2884.2,9.537e-05,1.4892,9.5172e-05,0.0040744,-0.0002886,-2883.5,0.68973
12892,11.662,3.6364,0,0.00029106,2908.6,9.6089e-05,0.45733,9.6028e-05,-0.001398,-0.00029106,-2908.4,0.68002
12893,11.754,3.6364,0.05,8.7735e-07,8.7674,6.7369e-07,5.0619,2.784e-15,7.9655e-08,-6.7369e-07,-5.0618,0.6896
12894,11.754,3.3636,0,0.00028859,2883.9,9.534e-05,1.2612,9.5173e-05,0.0049072,-0.00028857,-2883.3,0.68989
12895,11.662,3.4545,0,0.00029102,2908.2,9.6051e-05,0.1602,9.6029e-05,-0.0047588,-0.00029102,-2908.1,0.68021
12896,11.754,3.4545,0.05,8.7744e-07,8.7683,6.7377e-07,5.0624,-9.0728e-13,-1.77e-07,-6.7376e-07,-5.0624,0.68979
12897,11.754,3.1818,0,0.00028857,2883.7,9.5322e-05,1.1232,9.5173e-05,0.0055563,-0.00028855,-2883.1,0.68998
12898,11.662,3.2727,0,0.00029099,2907.9,9.6032e-05,0.014356,9.6022e-05,-0.060979,-0.000291,-2908,0.68034
12899,11.754,3.2727,0.05,8.775e-07,8.7689,6.7381e-07,5.0628,-1.8176e-12,-6.1497e-07,-6.7381e-07,-5.0627,0.68992
12900,11.754,3,0,0.00028856,2883.6,9.5316e-05,1.077,9.5173e-05,0.0058072,-0.00028855,-2883.1,0.69001
12901,11.662,3.0909,0,0.00029098,2907.8,9.6032e-05,0.0060996,9.601e-05,-0.15429,-0.00029098,-2907.9,0.6804
12902,11.754,3.0909,0.05,8.7753e-07,8.7692,6.7383e-07,5.0629,-1.8185e-12,6.3334e-08,-6.7383e-07,-5.0629,0.68998
12903,11.754,2.8182,0,0.00028857,2883.7,9.5322e-05,1.1232,9.5173e-05,0.0055561,-0.00028855,-2883.1,0.68998
12904,11.662,2.9091,0,0.00029098,2907.8,9.6032e-05,0.0060992,9.601e-05,-0.15429,-0.00029098,-2907.9,0.6804
12905,11.754,2.9091,0.05,8.7753e-07,8.7692,6.7383e-07,5.0629,-4.9279e-16,5.3275e-07,-6.7383e-07,-5.0629,0.68998
12906,11.754,2.6364,0,0.00028859,2883.9,9.534e-05,1.2612,9.5173e-05,0.0049074,-0.00028857,-2883.3,0.68989
12907,11.662,2.7273,0,0.00029099,2907.9,9.6032e-05,0.014355,9.6022e-05,-0.060987,-0.000291,-2908,0.68034
12908,11.754,2.7273,0.05,8.775e-07,8.7689,6.7381e-07,5.0627,-1.3969e-15,5.2583e-07,-6.7381e-07,-5.0627,0.68992
12909,11.754,2.4545,0,0.00028862,2884.2,9.537e-05,1.4892,9.5172e-05,0.0040745,-0.0002886,-2883.5,0.68973
12910,11.662,2.5455,0,0.00029102,2908.2,9.6051e-05,0.16019,9.6029e-05,-0.0047594,-0.00029102,-2908.1,0.68021
12911,11.754,2.5455,0.05,8.7744e-07,8.7683,6.7377e-07,5.0624,-2.1784e-15,2.965e-07,-6.7376e-07,-5.0624,0.68979
12912,11.754,2.2727,0,0.00028867,2884.7,9.5411e-05,1.8046,9.5171e-05,0.0032286,-0.00028864,-2883.8,0.68951
12913,11.662,2.3636,0,0.00029106,2908.6,9.6089e-05,0.45731,9.6028e-05,-0.0013983,-0.00029106,-2908.4,0.68002
12914,11.754,2.3636,0.05,8.7735e-07,8.7674,6.7369e-07,5.0619,-2.7022e-15,4.426e-07,-6.7369e-07,-5.0619,0.6896
12915,11.754,2.0909,0,0.00028873,2885.3,9.5463e-05,2.204,9.517e-05,0.0024482,-0.00028869,-2884.2,0.68923
12916,11.662,2.1818,0,0.00029112,2909.2,9.614e-05,0.85249,9.6027e-05,-0.00065886,-0.0002911,-2908.8,0.67977
12917,11.754,2.1818,0.05,8.7722e-07,8.7662,6.736e-07,5.0611,-2.8775e-15,3.059e-07,-6.736e-07,-5.0611,0.68935
12918,11.754,1.9091,0,0.0002888,2886,9.5527e-05,2.6835,9.517e-05,0.0017457,-0.00028875,-2884.6,0.68888
12919,11.662,2,0,0.00029119,2909.9,9.6204e-05,1.3399,9.6025e-05,-0.00044983,-0.00029116,-2909.2,0.67945
12920,11.754,2,0.05,8.7706e-07,8.7645,6.7347e-07,5.0602,9.0688e-13,3.2294e-07,-6.7347e-07,-5.0602,0.68904
12921,11.754,1.7273,0,0.00028888,2886.8,9.56e-05,3.2386,9.5169e-05,0.0011069,-0.00028882,-2885.2,0.68847
12922,11.662,1.8182,0,0.00029127,2910.7,9.6279e-05,1.9146,9.6024e-05,-0.00044752,-0.00029124,-2909.7,0.67907
12923,11.754,1.8182,0.05,8.7686e-07,8.7625,6.7332e-07,5.059,-2.0677e-15,7.2999e-07,-6.7332e-07,-5.0591,0.68866
12924,11.754,1.5455,0,0.00028897,2887.7,9.5684e-05,3.8645,9.5169e-05,0.00051038,-0.00028891,-2885.8,0.688
12925,11.662,1.6364,0,0.00029136,2911.6,9.6364e-05,2.5718,9.6022e-05,-0.00055704,-0.00029132,-2910.3,0.67863
12926,11.754,1.6364,0.05,8.7661e-07,8.7601,6.7313e-07,5.0576,1.8179e-12,9.0024e-07,-6.7313e-07,-5.0576,0.68822
12927,11.754,1.3636,0,0.00028908,2888.8,9.5776e-05,4.5566,9.517e-05,-6.3358e-05,-0.000289,-2886.5,0.68746
12928,11.662,1.4545,0,0.00029147,2912.7,9.6461e-05,3.3062,9.6021e-05,-0.00074267,-0.00029141,-2911,0.67812
12929,11.754,1.4545,0.05,8.7632e-07,8.7571,6.729e-07,5.0559,1.8191e-12,1.0885e-06,-6.729e-07,-5.0559,0.68771
12930,11.754,1.1818,0,0.00028919,2889.9,9.5878e-05,5.31,9.5171e-05,-0.00063252,-0.0002891,-2887.3,0.68686
12931,11.662,1.2727,0,0.00029159,2913.9,9.6567e-05,4.1126,9.602e-05,-0.00098879,-0.00029152,-2911.8,0.67755
12932,11.754,1.2727,0.05,8.7597e-07,8.7537,6.7264e-07,5.0539,1.8205e-12,1.4707e-06,-6.7264e-07,-5.054,0.68715
12933,11.754,1,0,0.00028932,2891.2,9.5988e-05,6.1203,9.5173e-05,-0.0012002,-0.00028922,-2888.2,0.6862
12934,11.662,1.0909,0,0.00029172,2915.2,9.6683e-05,4.9857,9.6019e-05,-0.001291,-0.00029163,-2912.7,0.67691
12935,11.754,1.0909,0.05,8.7557e-07,8.7497,6.7233e-07,5.0516,1.8212e-12,1.4063e-06,-6.7233e-07,-5.0517,0.68652
12936,11.754,0.81818,0,0.00028946,2892.6,9.6106e-05,6.9837,9.5176e-05,-0.0018075,-0.00028934,-2889.1,0.68548
12937,11.662,0.90909,0,0.00029186,2916.6,9.6808e-05,5.9206,9.602e-05,-0.0016271,-0.00029176,-2913.6,0.67621
12938,11.754,0.90909,0.05,8.751e-07,8.745,6.7197e-07,5.0489,9.149e-13,1.1365e-06,-6.7197e-07,-5.049,0.68582
12939,11.754,0.63636,0,0.00028961,2894.1,9.6232e-05,7.8987,9.518e-05,-0.0023262,-0.00028948,-2890.2,0.68469
12940,11.662,0.72727,0,0.00029201,2918.1,9.6942e-05,6.913,9.6021e-05,-0.00206,-0.00029189,-2914.6,0.67545
12941,11.754,0.72727,0.05,8.7437e-07,8.7377,6.7141e-07,5.0446,2.7351e-12,5.5401e-07,-6.7141e-07,-5.0447,0.68507
12942,11.754,0.45455,0,0.00028978,2895.8,9.637e-05,8.8976,9.5186e-05,-0.0035067,-0.00028963,-2891.3,0.68384
12943,11.662,0.54545,0,0.00029218,2919.8,9.7084e-05,7.963,9.6024e-05,-0.002327,-0.00029204,-2915.8,0.67463
12944,11.754,0.54545,0.05,8.7047e-07,8.6986,6.6841e-07,5.0221,2.7302e-12,-9.2506e-07,-6.6841e-07,-5.0222,0.68425
12945,11.754,0.27273,0,0.00029005,2898.5,9.6602e-05,10.582,9.5193e-05,-0.0033854,-0.00028987,-2893.2,0.68292
12946,11.662,0.36364,0,0.00029237,2921.6,9.7244e-05,9.1352,9.6027e-05,-0.003753,-0.00029221,-2917.1,0.67374
12947,11.754,0.36364,0.05,8.1888e-07,8.1832,6.288e-07,4.7245,2.7306e-12,-6.408e-07,-6.2881e-07,-4.7246,0.68336
12948,11.662,0.18182,0,0.00029275,2925.5,9.758e-05,11.62,9.6033e-05,-0.0019946,-0.00029256,-2919.7,0.67278
12949,11.754,0.18182,0.05,3.6603e-08,0.36578,2.8105e-08,0.21114,3.3869e-12,-1.939e-08,-2.8108e-08,-0.21123,0.68242
12950,11.754,0.090909,0,0.00028968,2894.8,9.6261e-05,7.9623,9.5201e-05,-0.002123,-0.00028955,-2890.8,0.68195
12951,11.57,5.7273,0,0.00029505,2948.5,9.8209e-05,10.08,9.6867e-05,-0.0027597,-0.00029488,-2943.4,0.66366
12952,11.478,5.8182,0,0.00029777,2975.6,9.9201e-05,11.215,9.7708e-05,-0.0024286,-0.00029758,-2970,0.65361
12953,11.57,5.8182,0.05,3.9051e-08,0.39024,2.9991e-08,0.22536,-3.611e-12,3.7006e-06,-2.9981e-08,-0.22524,0.66315
12954,11.57,5.9091,0,0.00029471,2945,9.7899e-05,7.7267,9.687e-05,-0.0018806,-0.00029457,-2941.2,0.66267
12955,11.57,5.5455,0,0.00029476,2945.6,9.7954e-05,8.1748,9.6865e-05,-0.0026161,-0.00029462,-2941.5,0.66459
12956,11.478,5.6364,0,0.00029736,2971.6,9.8841e-05,8.513,9.7708e-05,-0.0023542,-0.00029722,-2967.3,0.65458
12957,11.57,5.6364,0.05,8.225e-07,8.2193,6.3158e-07,4.7455,-3.639e-12,3.0354e-06,-6.3157e-07,-4.7454,0.66411
12958,11.57,5.3636,0,0.00029457,2943.7,9.7791e-05,6.955,9.6865e-05,-0.0020891,-0.00029446,-2940.2,0.66545
12959,11.478,5.4545,0,0.00029716,2969.5,9.8656e-05,7.1125,9.771e-05,-0.0019844,-0.00029704,-2966,0.65548
12960,11.57,5.4545,0.05,8.7416e-07,8.7356,6.7125e-07,5.0435,-3.638e-12,3.4262e-06,-6.7124e-07,-5.0434,0.66501
12961,11.57,5.1818,0,0.00029441,2942,9.7641e-05,5.8284,9.6865e-05,-0.0019324,-0.00029431,-2939.1,0.66625
12962,11.478,5.2727,0,0.00029697,2967.7,9.849e-05,5.8424,9.7712e-05,-0.0020066,-0.00029688,-2964.8,0.65632
12963,11.57,5.2727,0.05,8.781e-07,8.775,6.7428e-07,5.0663,-1.8177e-12,1.65e-06,-6.7427e-07,-5.0662,0.66584
12964,11.57,5,0,0.00029425,2940.5,9.7501e-05,4.765,9.6866e-05,-0.0018298,-0.00029417,-2938.1,0.66699
12965,11.478,5.0909,0,0.0002968,2966,9.8333e-05,4.6405,9.7715e-05,-0.0021598,-0.00029672,-2963.7,0.6571
12966,11.57,5.0909,0.05,8.7887e-07,8.7827,6.7487e-07,5.0707,-3.6348e-12,1.5713e-06,-6.7486e-07,-5.0706,0.66661
12967,11.57,4.8182,0,0.00029411,2939,9.737e-05,3.7679,9.6868e-05,-0.0018833,-0.00029404,-2937.2,0.66766
12968,11.478,4.9091,0,0.00029665,2964.4,9.8186e-05,3.5086,9.7719e-05,-0.0026247,-0.00029659,-2962.7,0.65781
12969,11.57,4.9091,0.05,8.7938e-07,8.7877,6.7526e-07,5.0736,-3.6331e-12,8.1961e-07,-6.7525e-07,-5.0736,0.66731
12970,11.57,4.6364,0,0.00029397,2937.7,9.7249e-05,2.8425,9.6871e-05,-0.0021629,-0.00029393,-2936.3,0.66827
12971,11.478,4.7273,0,0.0002965,2963,9.805e-05,2.4532,9.7723e-05,-0.0036765,-0.00029646,-2961.7,0.65845
12972,11.57,4.7273,0.05,8.7981e-07,8.7921,6.7559e-07,5.0761,-2.7221e-12,-2.1892e-07,-6.7559e-07,-5.0761,0.66795
12973,11.57,4.4545,0,0.00029386,2936.5,9.7139e-05,1.9948,9.6873e-05,-0.0028763,-0.00029382,-2935.5,0.66881
12974,11.478,4.5455,0,0.00029637,2961.6,9.7925e-05,1.4813,9.7727e-05,-0.006287,-0.00029634,-2960.9,0.65903
12975,11.57,4.5455,0.05,8.8019e-07,8.7959,6.7588e-07,5.0783,-2.7208e-12,7.1513e-07,-6.7588e-07,-5.0782,0.66853
12976,11.57,4.2727,0,0.00029375,2935.5,9.704e-05,1.231,9.6876e-05,-0.0046434,-0.00029373,-2934.9,0.66929
12977,11.478,4.3636,0,0.00029625,2960.4,9.7813e-05,0.60529,9.773e-05,-0.016417,-0.00029624,-2960.1,0.65955
12978,11.57,4.3636,0.05,8.8052e-07,8.7991,6.7613e-07,5.0802,-2.7193e-12,-4.0498e-07,-6.7613e-07,-5.0801,0.66904
12979,11.57,4.0909,0,0.00029366,2934.5,9.6954e-05,0.55987,9.6878e-05,-0.010636,-0.00029365,-2934.3,0.66971
12980,11.478,4.1818,0,0.00029614,2959.4,9.7743e-05,0.043668,9.7704e-05,-0.24638,-0.00029615,-2959.5,0.66
12981,11.57,4.1818,0.05,8.808e-07,8.8019,6.7634e-07,5.0818,-8.9994e-13,-5.8997e-07,-6.7634e-07,-5.0817,0.66949
12982,11.57,3.9091,0,0.00029358,2933.7,9.6891e-05,0.064407,9.6869e-05,-0.098484,-0.00029358,-2933.8,0.67006
12983,11.478,4,0,0.00029605,2958.5,9.7743e-05,0.012866,9.762e-05,-0.90672,-0.00029607,-2958.9,0.66038
12984,11.57,4,0.05,8.8103e-07,8.8042,6.7652e-07,5.0831,-1.81e-12,-6.4701e-07,-6.7652e-07,-5.0831,0.66987
12985,11.57,3.7273,0,0.00029351,2933.1,9.6886e-05,0.012769,9.6814e-05,-0.53148,-0.00029352,-2933.4,0.67035
12986,11.478,3.8182,0,0.00029597,2957.7,9.7746e-05,0.0084442,9.7547e-05,-1.4875,-0.000296,-2958.4,0.6607
12987,11.57,3.8182,0.05,8.8121e-07,8.8061,6.7666e-07,5.0842,-9.0081e-13,-2.6331e-07,-6.7666e-07,-5.0842,0.67019
12988,11.57,3.5455,0,0.00029346,2932.6,9.6888e-05,0.0079374,9.6766e-05,-0.90834,-0.00029348,-2933,0.67057
12989,11.478,3.6364,0,0.00029591,2957.1,9.7749e-05,0.0068186,9.7487e-05,-1.9604,-0.00029595,-2958.1,0.66096
12990,11.57,3.6364,0.05,8.8136e-07,8.8075,6.7677e-07,5.085,-1.812e-12,6.641e-07,-6.7678e-07,-5.085,0.67045
12991,11.57,3.3636,0,0.00029342,2932.2,9.6889e-05,0.0063902,9.6731e-05,-1.1821,-0.00029344,-2932.8,0.67073
12992,11.478,3.4545,0,0.00029587,2956.6,9.7751e-05,0.006047,9.7441e-05,-2.3193,-0.0002959,-2957.8,0.66116
12993,11.57,3.4545,0.05,8.8147e-07,8.8086,6.7686e-07,5.0856,-9.0416e-13,6.5181e-07,-6.7686e-07,-5.0856,0.67064
12994,11.57,3.1818,0,0.0002934,2932,9.689e-05,0.0057698,9.671e-05,-1.3477,-0.00029342,-2932.7,0.67083
12995,11.478,3.2727,0,0.00029583,2956.3,9.7753e-05,0.0056577,9.7411e-05,-2.5605,-0.00029588,-2957.6,0.66128
12996,11.57,3.2727,0.05,8.8154e-07,8.8093,6.7691e-07,5.0861,3.4322e-15,8.5046e-08,-6.7691e-07,-5.086,0.67076
12997,11.57,3,0,0.00029339,2931.9,9.689e-05,0.0055964,9.6703e-05,-1.4031,-0.00029342,-2932.6,0.67086
12998,11.478,3.0909,0,0.00029582,2956.1,9.7753e-05,0.0054902,9.7396e-05,-2.6817,-0.00029586,-2957.5,0.66135
12999,11.57,3.0909,0.05,8.8157e-07,8.8097,6.7694e-07,5.0863,-1.8178e-12,5.5994e-07,-6.7694e-07,-5.0863,0.67083
13000,11.57,2.8182,0,0.0002934,2932,9.689e-05,0.0057697,9.671e-05,-1.3477,-0.00029342,-2932.7,0.67083
13001,11.478,2.9091,0,0.00029582,2956.1,9.7753e-05,0.0054901,9.7396e-05,-2.6817,-0.00029586,-2957.5,0.66135
13002,11.57,2.9091,0.05,8.8157e-07,8.8097,6.7694e-07,5.0863,-9.1064e-13,1.1388e-06,-6.7694e-07,-5.0863,0.67083
13003,11.57,2.6364,0,0.00029342,2932.2,9.6889e-05,0.0063903,9.6731e-05,-1.1821,-0.00029344,-2932.8,0.67073
13004,11.478,2.7273,0,0.00029583,2956.3,9.7753e-05,0.0056578,9.7411e-05,-2.5605,-0.00029588,-2957.6,0.66128
13005,11.57,2.7273,0.05,8.8154e-07,8.8093,6.7691e-07,5.0861,-3.3822e-15,1.122e-06,-6.7691e-07,-5.0861,0.67076
13006,11.57,2.4545,0,0.00029346,2932.6,9.6888e-05,0.0079374,9.6766e-05,-0.90836,-0.00029348,-2933,0.67057
13007,11.478,2.5455,0,0.00029587,2956.6,9.7751e-05,0.0060472,9.7441e-05,-2.3193,-0.0002959,-2957.8,0.66116
13008,11.57,2.5455,0.05,8.8147e-07,8.8086,6.7686e-07,5.0856,-5.4039e-15,8.8429e-07,-6.7686e-07,-5.0856,0.67064
13009,11.57,2.2727,0,0.00029351,2933.1,9.6886e-05,0.012769,9.6814e-05,-0.53151,-0.00029352,-2933.4,0.67035
13010,11.478,2.3636,0,0.00029591,2957.1,9.7749e-05,0.0068187,9.7487e-05,-1.9604,-0.00029595,-2958.1,0.66096
13011,11.57,2.3636,0.05,8.8136e-07,8.8075,6.7678e-07,5.085,-7.3442e-15,1.096e-06,-6.7678e-07,-5.085,0.67045
13012,11.57,2.0909,0,0.00029358,2933.7,9.6891e-05,0.064397,9.6869e-05,-0.098503,-0.00029358,-2933.8,0.67006
13013,11.478,2.1818,0,0.00029597,2957.7,9.7746e-05,0.0084442,9.7547e-05,-1.4876,-0.000296,-2958.4,0.6607
13014,11.57,2.1818,0.05,8.8121e-07,8.8061,6.7666e-07,5.0842,-7.9025e-15,8.6172e-07,-6.7666e-07,-5.0842,0.67019
13015,11.57,1.9091,0,0.00029366,2934.5,9.6954e-05,0.55984,9.6878e-05,-0.010636,-0.00029365,-2934.3,0.66971
13016,11.478,2,0,0.00029605,2958.5,9.7743e-05,0.012866,9.762e-05,-0.90675,-0.00029607,-2958.9,0.66038
13017,11.57,2,0.05,8.8103e-07,8.8042,6.7652e-07,5.0831,-8.9277e-15,8.411e-07,-6.7652e-07,-5.0831,0.66987
13018,11.57,1.7273,0,0.00029375,2935.5,9.704e-05,1.2309,9.6876e-05,-0.0046434,-0.00029373,-2934.9,0.66929
13019,11.478,1.8182,0,0.00029614,2959.4,9.7743e-05,0.043663,9.7704e-05,-0.24641,-0.00029615,-2959.5,0.66
13020,11.57,1.8182,0.05,8.808e-07,8.8019,6.7634e-07,5.0818,9.0054e-13,1.2907e-06,-6.7634e-07,-5.0818,0.66949
13021,11.57,1.5455,0,0.00029386,2936.5,9.7139e-05,1.9948,9.6873e-05,-0.0028759,-0.00029382,-2935.5,0.66881
13022,11.478,1.6364,0,0.00029625,2960.4,9.7813e-05,0.60525,9.773e-05,-0.016418,-0.00029624,-2960.1,0.65955
13023,11.57,1.6364,0.05,8.8052e-07,8.7991,6.7613e-07,5.0802,9.0098e-13,1.4187e-06,-6.7613e-07,-5.0802,0.66904
13024,11.57,1.3636,0,0.00029397,2937.7,9.7249e-05,2.8425,9.6871e-05,-0.0021621,-0.00029393,-2936.3,0.66827
13025,11.478,1.4545,0,0.00029637,2961.6,9.7925e-05,1.4812,9.7727e-05,-0.0062863,-0.00029634,-2960.9,0.65903
13026,11.57,1.4545,0.05,8.8019e-07,8.7959,6.7588e-07,5.0783,1.8108e-12,1.6992e-06,-6.7588e-07,-5.0783,0.66853
13027,11.57,1.1818,0,0.00029411,2939,9.737e-05,3.7678,9.6868e-05,-0.0018825,-0.00029404,-2937.2,0.66766
13028,11.478,1.2727,0,0.0002965,2963,9.805e-05,2.4531,9.7723e-05,-0.003676,-0.00029646,-2961.7,0.65845
13029,11.57,1.2727,0.05,8.7981e-07,8.7921,6.7559e-07,5.0761,9.0312e-13,2.0624e-06,-6.7559e-07,-5.0761,0.66795
13030,11.57,1,0,0.00029425,2940.5,9.7501e-05,4.7649,9.6866e-05,-0.0018289,-0.00029417,-2938.1,0.66699
13031,11.478,1.0909,0,0.00029665,2964.4,9.8186e-05,3.5086,9.7719e-05,-0.0026237,-0.00029659,-2962.7,0.65781
13032,11.57,1.0909,0.05,8.7938e-07,8.7877,6.7525e-07,5.0736,2.7236e-12,2.1346e-06,-6.7526e-07,-5.0736,0.66731
13033,11.57,0.81818,0,0.00029441,2942,9.7641e-05,5.8283,9.6865e-05,-0.0019315,-0.00029431,-2939.1,0.66625
13034,11.478,0.90909,0,0.0002968,2966,9.8333e-05,4.6404,9.7715e-05,-0.0021589,-0.00029672,-2963.7,0.6571
13035,11.57,0.90909,0.05,8.7887e-07,8.7827,6.7486e-07,5.0706,2.7259e-12,1.5851e-06,-6.7487e-07,-5.0707,0.66661
13036,11.57,0.63636,0,0.00029457,2943.7,9.7791e-05,6.9549,9.6865e-05,-0.002089,-0.00029446,-2940.2,0.66545
13037,11.478,0.72727,0,0.00029697,2967.7,9.849e-05,5.8424,9.7712e-05,-0.0020055,-0.00029688,-2964.8,0.65632
13038,11.57,0.72727,0.05,8.781e-07,8.775,6.7427e-07,5.0662,2.7272e-12,1.2111e-06,-6.7428e-07,-5.0662,0.66584
13039,11.57,0.45455,0,0.00029476,2945.6,9.7954e-05,8.1748,9.6865e-05,-0.0026163,-0.00029462,-2941.5,0.66459
13040,11.478,0.54545,0,0.00029716,2969.5,9.8656e-05,7.1125,9.771e-05,-0.0019849,-0.00029704,-2966,0.65548
13041,11.57,0.54545,0.05,8.7416e-07,8.7356,6.7124e-07,5.0434,3.6382e-12,2.1333e-09,-6.7125e-07,-5.0435,0.66501
13042,11.57,0.27273,0,0.00029505,2948.5,9.8209e-05,10.08,9.6867e-05,-0.0027595,-0.00029488,-2943.4,0.66366
13043,11.478,0.36364,0,0.00029736,2971.6,9.8841e-05,8.513,9.7708e-05,-0.0023537,-0.00029722,-2967.3,0.65458
13044,11.57,0.36364,0.05,8.225e-07,8.2193,6.3157e-07,4.7454,2.7301e-12,-7.5765e-08,-6.3158e-07,-4.7455,0.66411
13045,11.478,0.18182,0,0.00029777,2975.6,9.9201e-05,11.215,9.7708e-05,-0.0024275,-0.00029758,-2970,0.65361
13046,11.57,0.18182,0.05,3.9051e-08,0.39025,2.9983e-08,0.22526,3.6693e-12,1.6453e-06,-2.999e-08,-0.22535,0.66315
13047,11.57,0.090909,0,0.00029471,2945,9.7899e-05,7.7266,9.687e-05,-0.0018792,-0.00029457,-2941.2,0.66267
13048,11.387,5.7273,0,0.00030007,2998.6,9.9821e-05,9.5563,9.8549e-05,-0.0021923,-0.00029991,-2993.8,0.6446
13049,11.295,5.8182,0,0.00030281,3026,0.00010083,10.792,9.939e-05,-0.0029536,-0.00030262,-3020.6,0.63465
13050,11.387,5.8182,0.05,4.2589e-08,0.4256,3.2707e-08,0.24578,-3.6139e-12,2.1427e-06,-3.2699e-08,-0.24566,0.64408
13051,11.387,5.9091,0,0.00029975,2995.4,9.9542e-05,7.48,9.8547e-05,-0.0016976,-0.00029962,-2991.7,0.64359
13052,11.387,5.5455,0,0.00029976,2995.5,9.9541e-05,7.4252,9.8552e-05,-0.0017302,-0.00029963,-2991.8,0.64554
13053,11.295,5.6364,0,0.00030238,3021.7,0.00010044,7.8657,9.9397e-05,-0.00091724,-0.00030225,-3017.8,0.63563
13054,11.387,5.6364,0.05,8.2628e-07,8.2571,6.3448e-07,4.7673,-3.6364e-12,2.3794e-06,-6.3447e-07,-4.7672,0.64506
13055,11.387,5.3636,0,0.00029956,2993.5,9.9353e-05,5.9779,9.8557e-05,-0.0019076,-0.00029945,-2990.5,0.64642
13056,11.295,5.4545,0,0.00030216,3019.5,0.00010023,6.2294,9.9403e-05,-0.001638,-0.00030205,-3016.4,0.63654
13057,11.387,5.4545,0.05,8.7798e-07,8.7738,6.7419e-07,5.0656,-3.6309e-12,3.2204e-06,-6.7418e-07,-5.0655,0.64597
13058,11.387,5.1818,0,0.00029937,2991.6,9.9179e-05,4.6332,9.8562e-05,-0.0022745,-0.00029929,-2989.3,0.64723
13059,11.295,5.2727,0,0.00030196,3017.5,0.00010004,4.7318,9.9411e-05,-0.0020699,-0.00030187,-3015.1,0.63739
13060,11.387,5.2727,0.05,8.8196e-07,8.8135,6.7724e-07,5.0885,-3.6316e-12,1.5444e-06,-6.7723e-07,-5.0885,0.64681
13061,11.387,5,0,0.0002992,2989.9,9.9016e-05,3.3635,9.8568e-05,-0.0031302,-0.00029914,-2988.2,0.64798
13062,11.295,5.0909,0,0.00030177,3015.6,9.986e-05,3.3133,9.9419e-05,-0.0032606,-0.00030171,-3013.9,0.63818
13063,11.387,5.0909,0.05,8.8277e-07,8.8216,6.7786e-07,5.0932,-3.6286e-12,1.5066e-06,-6.7785e-07,-5.0931,0.64759
13064,11.387,4.8182,0,0.00029904,2988.3,9.8864e-05,2.1743,9.8574e-05,-0.005107,-0.000299,-2987.2,0.64866
13065,11.295,4.9091,0,0.00030159,3013.8,9.9691e-05,1.9788,9.9426e-05,-0.0061908,-0.00030156,-3012.8,0.6389
13066,11.387,4.9091,0.05,8.8331e-07,8.827,6.7827e-07,5.0963,-2.7151e-12,7.472e-07,-6.7827e-07,-5.0962,0.6483
13067,11.387,4.6364,0,0.00029889,2986.8,9.8724e-05,1.0755,9.8579e-05,-0.011261,-0.00029887,-2986.3,0.64928
13068,11.295,4.7273,0,0.00030143,3012.2,9.9535e-05,0.74412,9.9433e-05,-0.018942,-0.00030142,-3011.8,0.63955
13069,11.387,4.7273,0.05,8.8378e-07,8.8317,6.7863e-07,5.099,-1.8041e-12,-1.2428e-07,-6.7863e-07,-5.0989,0.64895
13070,11.387,4.4545,0,0.00029876,2985.5,9.8606e-05,0.14494,9.8575e-05,-0.092425,-0.00029875,-2985.5,0.64983
13071,11.295,4.5455,0,0.00030128,3010.7,9.9449e-05,0.03514,9.9383e-05,-0.45979,-0.00030129,-3010.9,0.64014
13072,11.387,4.5455,0.05,8.8419e-07,8.8358,6.7895e-07,5.1014,-2.7137e-12,6.0841e-07,-6.7894e-07,-5.1013,0.64954
13073,11.387,4.2727,0,0.00029864,2984.3,9.8595e-05,0.016916,9.8476e-05,-0.87618,-0.00029865,-2984.7,0.65031
13074,11.295,4.3636,0,0.00030115,3009.4,9.9453e-05,0.012348,9.9255e-05,-1.4817,-0.00030117,-3010.1,0.64066
13075,11.387,4.3636,0.05,8.8455e-07,8.8394,6.7922e-07,5.1035,-2.7109e-12,-3.7353e-07,-6.7922e-07,-5.1033,0.65006
13076,11.387,4.0909,0,0.00029853,2983.3,9.86e-05,0.0097191,9.8376e-05,-1.6743,-0.00029856,-2984.1,0.65074
13077,11.295,4.1818,0,0.00030103,3008.2,9.946e-05,0.008463,9.9138e-05,-2.41,-0.00030107,-3009.4,0.64112
13078,11.387,4.1818,0.05,8.8485e-07,8.8424,6.7946e-07,5.1052,-2.711e-12,-6.9838e-07,-6.7945e-07,-5.1051,0.65051
13079,11.387,3.9091,0,0.00029844,2982.4,9.8604e-05,0.0074642,9.8289e-05,-2.3648,-0.00029848,-2983.6,0.65109
13080,11.295,4,0,0.00030093,3007.2,9.9467e-05,0.0069398,9.9037e-05,-3.2216,-0.00030098,-3008.8,0.64151
13081,11.387,4,0.05,8.8511e-07,8.845,6.7965e-07,5.1067,-2.7134e-12,-4.8897e-07,-6.7965e-07,-5.1066,0.6509
13082,11.387,3.7273,0,0.00029837,2981.7,9.8609e-05,0.0064244,9.8217e-05,-2.9387,-0.00029842,-2983.1,0.65138
13083,11.295,3.8182,0,0.00030084,3006.4,9.9472e-05,0.0061651,9.8951e-05,-3.9086,-0.00030091,-3008.3,0.64184
13084,11.387,3.8182,0.05,8.8531e-07,8.847,6.7982e-07,5.1079,-8.9612e-13,-3.1953e-07,-6.7981e-07,-5.1078,0.65122
13085,11.387,3.5455,0,0.00029831,2981.1,9.8612e-05,0.005868,9.816e-05,-3.3904,-0.00029837,-2982.8,0.65161
13086,11.295,3.6364,0,0.00030077,3005.7,9.9477e-05,0.0057229,9.8882e-05,-4.4653,-0.00030085,-3007.9,0.6421
13087,11.387,3.6364,0.05,8.8548e-07,8.8487,6.7994e-07,5.1088,-1.8076e-12,8.373e-07,-6.7994e-07,-5.1088,0.65148
13088,11.387,3.3636,0,0.00029827,2980.7,9.8614e-05,0.0055579,9.8119e-05,-3.716,-0.00029834,-2982.5,0.65177
13089,11.295,3.4545,0,0.00030072,3005.1,9.9481e-05,0.0054615,9.883e-05,-4.887,-0.0003008,-3007.6,0.6423
13090,11.387,3.4545,0.05,8.856e-07,8.8499,6.8003e-07,5.1095,-1.8105e-12,5.7191e-07,-6.8003e-07,-5.1095,0.65168
13091,11.387,3.1818,0,0.00029825,2980.4,9.8616e-05,0.0053978,9.8095e-05,-3.9125,-0.00029831,-2982.4,0.65187
13092,11.295,3.2727,0,0.00030069,3004.8,9.9483e-05,0.0053114,9.8794e-05,-5.1701,-0.00030077,-3007.4,0.64243
13093,11.387,3.2727,0.05,8.8568e-07,8.8507,6.8009e-07,5.11,-9.0415e-13,3.9817e-08,-6.8009e-07,-5.1099,0.65181
13094,11.387,3,0,0.00029824,2980.3,9.8616e-05,0.0053478,9.8086e-05,-3.9782,-0.00029831,-2982.3,0.6519
13095,11.295,3.0909,0,0.00030067,3004.6,9.9484e-05,0.0052426,9.8777e-05,-5.3123,-0.00030076,-3007.3,0.64249
13096,11.387,3.0909,0.05,8.8572e-07,8.8511,6.8012e-07,5.1102,-9.0771e-13,6.0946e-07,-6.8012e-07,-5.1102,0.65187
13097,11.387,2.8182,0,0.00029825,2980.4,9.8616e-05,0.0053978,9.8095e-05,-3.9125,-0.00029831,-2982.4,0.65187
13098,11.295,2.9091,0,0.00030067,3004.6,9.9484e-05,0.0052425,9.8777e-05,-5.3123,-0.00030076,-3007.3,0.64249
13099,11.387,2.9091,0.05,8.8572e-07,8.8511,6.8012e-07,5.1102,-9.1129e-13,1.119e-06,-6.8012e-07,-5.1102,0.65187
13100,11.387,2.6364,0,0.00029827,2980.7,9.8614e-05,0.0055582,9.8119e-05,-3.716,-0.00029834,-2982.5,0.65177
13101,11.295,2.7273,0,0.00030069,3004.8,9.9483e-05,0.0053119,9.8794e-05,-5.1701,-0.00030077,-3007.4,0.64243
13102,11.387,2.7273,0.05,8.8568e-07,8.8507,6.8009e-07,5.11,-5.3281e-15,1.123e-06,-6.8009e-07,-5.1099,0.65181
13103,11.387,2.4545,0,0.00029831,2981.1,9.8612e-05,0.0058683,9.816e-05,-3.3904,-0.00029837,-2982.8,0.65161
13104,11.295,2.5455,0,0.00030072,3005.1,9.9481e-05,0.0054618,9.883e-05,-4.887,-0.0003008,-3007.6,0.6423
13105,11.387,2.5455,0.05,8.856e-07,8.8499,6.8003e-07,5.1095,-8.4846e-15,8.0134e-07,-6.8003e-07,-5.1095,0.65168
13106,11.387,2.2727,0,0.00029837,2981.7,9.8609e-05,0.0064243,9.8217e-05,-2.9387,-0.00029842,-2983.1,0.65138
13107,11.295,2.3636,0,0.00030077,3005.7,9.9477e-05,0.0057232,9.8882e-05,-4.4653,-0.00030085,-3007.9,0.6421
13108,11.387,2.3636,0.05,8.8548e-07,8.8487,6.7994e-07,5.1088,-1.1385e-14,9.737e-07,-6.7994e-07,-5.1088,0.65148
13109,11.387,2.0909,0,0.00029844,2982.4,9.8604e-05,0.0074644,9.8289e-05,-2.3649,-0.00029848,-2983.6,0.65109
13110,11.295,2.1818,0,0.00030084,3006.4,9.9472e-05,0.0061651,9.8951e-05,-3.9087,-0.00030091,-3008.3,0.64184
13111,11.387,2.1818,0.05,8.8531e-07,8.847,6.7981e-07,5.1078,8.9622e-13,7.0728e-07,-6.7981e-07,-5.1078,0.65122
13112,11.387,1.9091,0,0.00029853,2983.3,9.86e-05,0.0097197,9.8376e-05,-1.6743,-0.00029856,-2984.1,0.65074
13113,11.295,2,0,0.00030093,3007.2,9.9467e-05,0.0069403,9.9037e-05,-3.2216,-0.00030098,-3008.8,0.64151
13114,11.387,2,0.05,8.8511e-07,8.845,6.7965e-07,5.1066,-1.5034e-14,7.5084e-07,-6.7965e-07,-5.1066,0.6509
13115,11.387,1.7273,0,0.00029864,2984.3,9.8595e-05,0.016916,9.8476e-05,-0.87622,-0.00029865,-2984.7,0.65031
13116,11.295,1.8182,0,0.00030103,3008.2,9.946e-05,0.0084633,9.9138e-05,-2.4101,-0.00030107,-3009.4,0.64112
13117,11.387,1.8182,0.05,8.8485e-07,8.8424,6.7945e-07,5.1051,8.9326e-13,1.0775e-06,-6.7946e-07,-5.1052,0.65051
13118,11.387,1.5455,0,0.00029876,2985.5,9.8606e-05,0.14491,9.8575e-05,-0.092445,-0.00029875,-2985.5,0.64983
13119,11.295,1.6364,0,0.00030115,3009.4,9.9453e-05,0.012349,9.9255e-05,-1.4817,-0.00030117,-3010.1,0.64066
13120,11.387,1.6364,0.05,8.8455e-07,8.8394,6.7922e-07,5.1034,-1.5097e-14,1.0929e-06,-6.7922e-07,-5.1034,0.65006
13121,11.387,1.3636,0,0.00029889,2986.8,9.8724e-05,1.0755,9.8579e-05,-0.011261,-0.00029887,-2986.3,0.64928
13122,11.295,1.4545,0,0.00030128,3010.7,9.9449e-05,0.035138,9.9383e-05,-0.45984,-0.00030129,-3010.9,0.64014
13123,11.387,1.4545,0.05,8.8419e-07,8.8358,6.7895e-07,5.1013,1.8033e-12,1.4123e-06,-6.7895e-07,-5.1014,0.64954
13124,11.387,1.1818,0,0.00029904,2988.3,9.8864e-05,2.1742,9.8574e-05,-0.0051064,-0.000299,-2987.2,0.64866
13125,11.295,1.2727,0,0.00030143,3012.2,9.9535e-05,0.74407,9.9433e-05,-0.018943,-0.00030142,-3011.8,0.63955
13126,11.387,1.2727,0.05,8.8378e-07,8.8317,6.7863e-07,5.0989,1.8042e-12,1.3965e-06,-6.7863e-07,-5.099,0.64895
13127,11.387,1,0,0.0002992,2989.9,9.9016e-05,3.3634,9.8568e-05,-0.0031292,-0.00029914,-2988.2,0.64798
13128,11.295,1.0909,0,0.00030159,3013.8,9.9691e-05,1.9788,9.9426e-05,-0.0061904,-0.00030156,-3012.8,0.6389
13129,11.387,1.0909,0.05,8.8331e-07,8.827,6.7827e-07,5.0962,1.8047e-12,1.5194e-06,-6.7827e-07,-5.0963,0.6483
13130,11.387,0.81818,0,0.00029937,2991.6,9.9179e-05,4.6331,9.8562e-05,-0.0022734,-0.00029929,-2989.3,0.64723
13131,11.295,0.90909,0,0.00030177,3015.6,9.986e-05,3.3132,9.9419e-05,-0.0032594,-0.00030171,-3013.9,0.63818
13132,11.387,0.90909,0.05,8.8277e-07,8.8216,6.7785e-07,5.0931,1.8054e-12,1.0712e-06,-6.7786e-07,-5.0932,0.64759
13133,11.387,0.63636,0,0.00029956,2993.5,9.9353e-05,5.9778,9.8557e-05,-0.0019071,-0.00029945,-2990.5,0.64642
13134,11.295,0.72727,0,0.00030196,3017.5,0.00010004,4.7317,9.9411e-05,-0.0020685,-0.00030187,-3015.1,0.63739
13135,11.387,0.72727,0.05,8.8196e-07,8.8135,6.7724e-07,5.0885,3.6298e-12,1.023e-06,-6.7724e-07,-5.0885,0.64681
13136,11.387,0.45455,0,0.00029976,2995.5,9.9541e-05,7.4252,9.8552e-05,-0.00173,-0.00029963,-2991.8,0.64554
13137,11.295,0.54545,0,0.00030216,3019.5,0.00010023,6.2293,9.9403e-05,-0.0016386,-0.00030205,-3016.4,0.63654
13138,11.387,0.54545,0.05,8.7798e-07,8.7738,6.7418e-07,5.0655,1.8136e-12,1.0138e-06,-6.7419e-07,-5.0656,0.64597
13139,11.387,0.27273,0,0.00030007,2998.6,9.9821e-05,9.5563,9.8549e-05,-0.0021909,-0.00029991,-2993.8,0.6446
13140,11.295,0.36364,0,0.00030238,3021.7,0.00010044,7.8657,9.9397e-05,-0.00091653,-0.00030225,-3017.8,0.63563
13141,11.387,0.36364,0.05,8.2628e-07,8.2571,6.3447e-07,4.7672,2.7227e-12,7.683e-07,-6.3448e-07,-4.7672,0.64506
13142,11.295,0.18182,0,0.00030281,3026,0.00010083,10.792,9.939e-05,-0.0029519,-0.00030262,-3020.6,0.63465
13143,11.387,0.18182,0.05,4.259e-08,0.42561,3.2702e-08,0.24568,2.6934e-12,1.2699e-06,-3.2706e-08,-0.24577,0.64408
13144,11.387,0.090909,0,0.00029975,2995.4,9.9542e-05,7.48,9.8547e-05,-0.0016962,-0.00029962,-2991.7,0.64359
13145,11.203,5.7273,0,0.00030511,3049,0.00010144,9.0099,0.00010024,-0.0016255,-0.00030495,-3044.4,0.62574
13146,11.111,5.8182,0,0.00030786,3076.5,0.00010246,10.348,0.00010108,-0.0035856,-0.00030768,-3071.3,0.61588
13147,11.203,5.8182,0.05,4.7166e-08,0.47134,3.6223e-08,0.27219,-3.3207e-12,5.2457e-06,-3.6212e-08,-0.27207,0.62521
13148,11.203,5.9091,0,0.00030481,3046,0.00010119,7.2218,0.00010023,-0.0015236,-0.00030469,-3042.4,0.62472
13149,11.203,5.5455,0,0.00030478,3045.7,0.00010113,6.6447,0.00010025,-0.00077918,-0.00030466,-3042.3,0.6267
13150,11.111,5.6364,0,0.00030742,3072.1,0.00010205,7.1896,0.00010109,0.00057059,-0.0003073,-3068.5,0.61688
13151,11.203,5.6364,0.05,8.3021e-07,8.2964,6.375e-07,4.79,-3.6268e-12,3.0317e-06,-6.3749e-07,-4.7898,0.6262
13152,11.203,5.3636,0,0.00030455,3043.4,0.00010092,4.9615,0.00010026,-0.001745,-0.00030447,-3041,0.62759
13153,11.111,5.4545,0,0.00030718,3069.6,0.00010181,5.3082,0.0001011,-0.0012897,-0.00030709,-3067,0.61781
13154,11.203,5.4545,0.05,8.8193e-07,8.8132,6.7721e-07,5.0883,-3.6266e-12,3.5091e-06,-6.7721e-07,-5.0882,0.62713
13155,11.203,5.1818,0,0.00030435,3041.4,0.00010072,3.3908,0.00010027,-0.0030121,-0.00030429,-3039.7,0.62841
13156,11.111,5.2727,0,0.00030695,3067.4,0.00010159,3.5741,0.00010112,-0.0023911,-0.00030689,-3065.6,0.61867
13157,11.203,5.2727,0.05,8.8594e-07,8.8533,6.803e-07,5.1115,-3.6217e-12,1.9797e-06,-6.8029e-07,-5.1114,0.62798
13158,11.203,5,0,0.00030416,3039.5,0.00010053,1.9085,0.00010028,-0.0066083,-0.00030413,-3038.5,0.62917
13159,11.111,5.0909,0,0.00030675,3065.3,0.00010139,1.9317,0.00010113,-0.0062463,-0.00030671,-3064.4,0.61947
13160,11.203,5.0909,0.05,8.8678e-07,8.8617,6.8094e-07,5.1163,-3.6212e-12,1.7232e-06,-6.8093e-07,-5.1162,0.62877
13161,11.203,4.8182,0,0.00030398,3037.7,0.00010036,0.53718,0.00010028,-0.028462,-0.00030397,-3037.5,0.62986
13162,11.111,4.9091,0,0.00030655,3063.4,0.0001012,0.41225,0.00010114,-0.03799,-0.00030655,-3063.2,0.6202
13163,11.203,4.9091,0.05,8.8735e-07,8.8674,6.8138e-07,5.1197,-1.7983e-12,1.2644e-06,-6.8137e-07,-5.1195,0.6295
13164,11.203,4.6364,0,0.00030382,3036.1,0.0001003,0.022514,0.00010019,-0.8057,-0.00030383,-3036.5,0.63048
13165,11.111,4.7273,0,0.00030637,3061.6,0.00010116,0.01778,0.00010101,-1.0904,-0.00030639,-3062.2,0.62086
13166,11.203,4.7273,0.05,8.8785e-07,8.8724,6.8177e-07,5.1225,-1.7951e-12,2.7239e-07,-6.8176e-07,-5.1224,0.63016
13167,11.203,4.4545,0,0.00030367,3034.6,0.00010031,0.010632,0.00010005,-1.9762,-0.0003037,-3035.6,0.63104
13168,11.111,4.5455,0,0.00030621,3060,0.00010117,0.009553,0.00010085,-2.4154,-0.00030625,-3061.2,0.62146
13169,11.203,4.5455,0.05,8.883e-07,8.8768,6.821e-07,5.1251,-1.7961e-12,1.1442e-06,-6.821e-07,-5.125,0.63075
13170,11.203,4.2727,0,0.00030354,3033.3,0.00010032,0.0078259,9.9914e-05,-3.0381,-0.00030359,-3034.8,0.63154
13171,11.111,4.3636,0,0.00030606,3058.5,0.00010118,0.0073354,0.0001007,-3.624,-0.00030613,-3060.3,0.62199
13172,11.203,4.3636,0.05,8.8868e-07,8.8807,6.8239e-07,5.1273,-2.7059e-12,-6.2955e-08,-6.824e-07,-5.1272,0.63128
13173,11.203,4.0909,0,0.00030342,3032.1,0.00010033,0.0066244,9.9797e-05,-3.9767,-0.00030349,-3034.1,0.63197
13174,11.111,4.1818,0,0.00030593,3057.2,0.00010119,0.006342,0.00010056,-4.7029,-0.00030601,-3059.6,0.62245
13175,11.203,4.1818,0.05,8.8901e-07,8.884,6.8265e-07,5.1292,-1.7935e-12,-2.708e-07,-6.8265e-07,-5.1291,0.63174
13176,11.203,3.9091,0,0.00030333,3031.2,0.00010033,0.0059838,9.9697e-05,-4.7839,-0.00030341,-3033.5,0.63233
13177,11.111,4,0,0.00030582,3056.1,0.0001012,0.0057972,0.00010045,-5.6437,-0.00030592,-3058.9,0.62285
13178,11.203,4,0.05,8.8929e-07,8.8868,6.8286e-07,5.1308,-2.7067e-12,4.1945e-08,-6.8286e-07,-5.1307,0.63213
13179,11.203,3.7273,0,0.00030324,3030.3,0.00010034,0.0056039,9.9614e-05,-5.4533,-0.00030334,-3033.1,0.63262
13180,11.111,3.8182,0,0.00030573,3055.2,0.00010121,0.0054655,0.00010035,-6.4391,-0.00030583,-3058.4,0.62318
13181,11.203,3.8182,0.05,8.8952e-07,8.889,6.8304e-07,5.1321,-8.8999e-13,2.6366e-07,-6.8304e-07,-5.1321,0.63246
13182,11.203,3.5455,0,0.00030318,3029.7,0.00010035,0.0053698,9.9549e-05,-5.9797,-0.00030328,-3032.7,0.63285
13183,11.111,3.6364,0,0.00030565,3054.4,0.00010122,0.0052537,0.00010027,-7.0831,-0.00030577,-3057.9,0.62344
13184,11.203,3.6364,0.05,8.897e-07,8.8908,6.8318e-07,5.1332,-8.9377e-13,9.2457e-07,-6.8317e-07,-5.1331,0.63272
13185,11.203,3.3636,0,0.00030313,3029.3,0.00010035,0.0052269,9.9503e-05,-6.3588,-0.00030324,-3032.4,0.63302
13186,11.111,3.4545,0,0.00030559,3053.8,0.00010122,0.0051193,0.00010021,-7.5706,-0.00030572,-3057.6,0.62364
13187,11.203,3.4545,0.05,8.8983e-07,8.8922,6.8328e-07,5.1339,-2.7167e-12,9.5412e-07,-6.8328e-07,-5.1339,0.63292
13188,11.203,3.1818,0,0.00030311,3029,0.00010035,0.0051489,9.9474e-05,-6.5875,-0.00030322,-3032.3,0.63312
13189,11.111,3.2727,0,0.00030555,3053.4,0.00010122,0.0050376,0.00010017,-7.8979,-0.00030569,-3057.4,0.62377
13190,11.203,3.2727,0.05,8.8992e-07,8.893,6.8335e-07,5.1344,7.2417e-15,4.1212e-07,-6.8334e-07,-5.1344,0.63305
13191,11.203,3,0,0.0003031,3028.9,0.00010035,0.0051243,9.9465e-05,-6.6639,-0.00030321,-3032.2,0.63315
13192,11.111,3.0909,0,0.00030553,3053.2,0.00010123,0.0049996,0.00010015,-8.0621,-0.00030567,-3057.2,0.62384
13193,11.203,3.0909,0.05,8.8996e-07,8.8935,6.8338e-07,5.1347,2.444e-15,7.9315e-07,-6.8338e-07,-5.1347,0.63312
13194,11.203,2.8182,0,0.00030311,3029,0.00010035,0.0051493,9.9474e-05,-6.5875,-0.00030322,-3032.3,0.63312
13195,11.111,2.9091,0,0.00030553,3053.2,0.00010123,0.0049993,0.00010015,-8.0621,-0.00030567,-3057.2,0.62384
13196,11.203,2.9091,0.05,8.8996e-07,8.8935,6.8338e-07,5.1347,-2.4347e-15,1.2929e-06,-6.8338e-07,-5.1347,0.63312
13197,11.203,2.6364,0,0.00030313,3029.3,0.00010035,0.0052274,9.9503e-05,-6.3588,-0.00030324,-3032.4,0.63302
13198,11.111,2.7273,0,0.00030555,3053.4,0.00010122,0.005038,0.00010017,-7.8979,-0.00030569,-3057.4,0.62377
13199,11.203,2.7273,0.05,8.8992e-07,8.893,6.8335e-07,5.1344,-7.1239e-15,1.3467e-06,-6.8335e-07,-5.1344,0.63305
13200,11.203,2.4545,0,0.00030318,3029.7,0.00010035,0.00537,9.9549e-05,-5.9797,-0.00030328,-3032.7,0.63285
13201,11.111,2.5455,0,0.00030559,3053.8,0.00010122,0.0051194,0.00010021,-7.5706,-0.00030572,-3057.6,0.62364
13202,11.203,2.5455,0.05,8.8983e-07,8.8922,6.8328e-07,5.1339,-1.1712e-14,1.0744e-06,-6.8328e-07,-5.1339,0.63292
13203,11.203,2.2727,0,0.00030324,3030.3,0.00010034,0.0056043,9.9614e-05,-5.4533,-0.00030334,-3033.1,0.63262
13204,11.111,2.3636,0,0.00030565,3054.4,0.00010122,0.0052539,0.00010027,-7.0831,-0.00030577,-3057.9,0.62344
13205,11.203,2.3636,0.05,8.897e-07,8.8908,6.8318e-07,5.1331,-1.5114e-14,1.1328e-06,-6.8318e-07,-5.1331,0.63272
13206,11.203,2.0909,0,0.00030333,3031.2,0.00010033,0.005984,9.9697e-05,-4.7839,-0.00030341,-3033.5,0.63233
13207,11.111,2.1818,0,0.00030573,3055.2,0.00010121,0.0054657,0.00010035,-6.4391,-0.00030583,-3058.4,0.62318
13208,11.203,2.1818,0.05,8.8952e-07,8.889,6.8304e-07,5.1321,8.9058e-13,1.0186e-06,-6.8304e-07,-5.1321,0.63246
13209,11.203,1.9091,0,0.00030342,3032.1,0.00010033,0.0066246,9.9797e-05,-3.9767,-0.00030349,-3034.1,0.63197
13210,11.111,2,0,0.00030582,3056.1,0.0001012,0.0057978,0.00010045,-5.6437,-0.00030592,-3058.9,0.62285
13211,11.203,2,0.05,8.8929e-07,8.8868,6.8286e-07,5.1308,-2.089e-14,8.3043e-07,-6.8286e-07,-5.1308,0.63213
13212,11.203,1.7273,0,0.00030354,3033.3,0.00010032,0.0078264,9.9914e-05,-3.0382,-0.00030359,-3034.8,0.63154
13213,11.111,1.8182,0,0.00030593,3057.2,0.00010119,0.0063421,0.00010056,-4.7029,-0.00030601,-3059.6,0.62245
13214,11.203,1.8182,0.05,8.8901e-07,8.884,6.8265e-07,5.1292,8.8582e-13,1.1976e-06,-6.8265e-07,-5.1292,0.63174
13215,11.203,1.5455,0,0.00030367,3034.6,0.00010031,0.010632,0.00010005,-1.9762,-0.0003037,-3035.6,0.63104
13216,11.111,1.6364,0,0.00030606,3058.5,0.00010118,0.0073357,0.0001007,-3.624,-0.00030613,-3060.3,0.62199
13217,11.203,1.6364,0.05,8.8868e-07,8.8807,6.824e-07,5.1272,8.8874e-13,1.2405e-06,-6.824e-07,-5.1273,0.63128
13218,11.203,1.3636,0,0.00030382,3036.1,0.0001003,0.022514,0.00010019,-0.80575,-0.00030383,-3036.5,0.63048
13219,11.111,1.4545,0,0.00030621,3060,0.00010117,0.0095534,0.00010085,-2.4155,-0.00030625,-3061.2,0.62146
13220,11.203,1.4545,0.05,8.883e-07,8.8768,6.821e-07,5.125,1.7929e-12,1.3198e-06,-6.821e-07,-5.125,0.63075
13221,11.203,1.1818,0,0.00030398,3037.7,0.00010036,0.53713,0.00010028,-0.028465,-0.00030397,-3037.5,0.62986
13222,11.111,1.2727,0,0.00030637,3061.6,0.00010116,0.01778,0.00010101,-1.0905,-0.00030639,-3062.2,0.62086
13223,11.203,1.2727,0.05,8.8785e-07,8.8724,6.8176e-07,5.1225,1.7956e-12,1.3423e-06,-6.8176e-07,-5.1225,0.63016
13224,11.203,1,0,0.00030416,3039.5,0.00010053,1.9084,0.00010028,-0.0066076,-0.00030413,-3038.5,0.62917
13225,11.111,1.0909,0,0.00030655,3063.4,0.0001012,0.4122,0.00010114,-0.037994,-0.00030655,-3063.2,0.6202
13226,11.203,1.0909,0.05,8.8735e-07,8.8674,6.8137e-07,5.1196,1.7983e-12,1.3074e-06,-6.8138e-07,-5.1196,0.6295
13227,11.203,0.81818,0,0.00030435,3041.4,0.00010072,3.3908,0.00010027,-0.0030106,-0.00030429,-3039.7,0.62841
13228,11.111,0.90909,0,0.00030675,3065.3,0.00010139,1.9316,0.00010113,-0.0062451,-0.00030671,-3064.4,0.61947
13229,11.203,0.90909,0.05,8.8678e-07,8.8617,6.8093e-07,5.1163,2.712e-12,1.6673e-06,-6.8094e-07,-5.1163,0.62877
13230,11.203,0.63636,0,0.00030455,3043.4,0.00010092,4.9614,0.00010026,-0.0017446,-0.00030447,-3041,0.62759
13231,11.111,0.72727,0,0.00030695,3067.4,0.00010159,3.5741,0.00010112,-0.0023899,-0.00030689,-3065.6,0.61867
13232,11.203,0.72727,0.05,8.8594e-07,8.8533,6.8029e-07,5.1114,2.7163e-12,1.7226e-06,-6.8029e-07,-5.1115,0.62798
13233,11.203,0.45455,0,0.00030478,3045.7,0.00010113,6.6446,0.00010025,-0.00077923,-0.00030466,-3042.3,0.6267
13234,11.111,0.54545,0,0.00030718,3069.6,0.00010181,5.3082,0.0001011,-0.0012901,-0.00030709,-3067,0.61781
13235,11.203,0.54545,0.05,8.8193e-07,8.8132,6.7721e-07,5.0883,8.9499e-13,1.4415e-06,-6.7721e-07,-5.0883,0.62713
13236,11.203,0.27273,0,0.00030511,3049,0.00010144,9.0099,0.00010024,-0.0016245,-0.00030495,-3044.4,0.62574
13237,11.111,0.36364,0,0.00030742,3072.1,0.00010205,7.1895,0.00010109,0.00057146,-0.0003073,-3068.5,0.61688
13238,11.203,0.36364,0.05,8.3021e-07,8.2964,6.3749e-07,4.7899,2.721e-12,1.8013e-06,-6.375e-07,-4.7899,0.6262
13239,11.111,0.18182,0,0.00030786,3076.5,0.00010246,10.348,0.00010108,-0.0035845,-0.00030768,-3071.3,0.61588
13240,11.203,0.18182,0.05,4.7167e-08,0.47134,3.6211e-08,0.27212,2.37e-12,1.7028e-06,-3.6225e-08,-0.27215,0.62521
13241,11.203,0.090909,0,0.00030481,3046,0.00010119,7.2217,0.00010023,-0.0015225,-0.00030469,-3042.4,0.62472
13242,11.019,5.7273,0,0.00031016,3099.5,0.00010306,8.4376,0.00010193,-0.0011261,-0.00031002,-3095.2,0.60708
13243,10.927,5.8182,0,0.00031293,3127.2,0.00010409,9.8818,0.00010278,-0.0043297,-0.00031276,-3122.2,0.59732
13244,11.019,5.8182,0.05,5.2749e-08,0.52712,4.0509e-08,0.30439,-3.809e-12,7.5618e-06,-4.0499e-08,-0.30428,0.60655
13245,11.019,5.9091,0,0.0003099,3096.8,0.00010285,6.9507,0.00010192,-0.0014283,-0.00030978,-3093.4,0.60605
13246,11.019,5.5455,0,0.00030982,3096,0.00010273,5.8283,0.00010195,0.0001881,-0.00030972,-3093.1,0.60805
13247,10.927,5.6364,0,0.00031248,3122.6,0.00010366,6.4811,0.0001028,0.0021399,-0.00031237,-3119.4,0.59833
13248,11.019,5.6364,0.05,8.343e-07,8.3373,6.4064e-07,4.8136,-3.6353e-12,2.897e-06,-6.4064e-07,-4.8135,0.60755
13249,11.019,5.3636,0,0.00030957,3093.6,0.00010248,3.8993,0.00010197,-0.0017198,-0.00030951,-3091.6,0.60896
13250,10.927,5.4545,0,0.00031221,3120,0.00010339,4.3436,0.00010281,-0.00093016,-0.00031214,-3117.8,0.59927
13251,11.019,5.4545,0.05,8.8599e-07,8.8538,6.8034e-07,5.1118,-2.7151e-12,3.2592e-06,-6.8033e-07,-5.1117,0.60849
13252,11.019,5.1818,0,0.00030935,3091.3,0.00010226,2.0939,0.00010198,-0.0050775,-0.00030931,-3090.3,0.60979
13253,10.927,5.2727,0,0.00031197,3117.5,0.00010315,2.3629,0.00010283,-0.0034116,-0.00031193,-3116.4,0.60015
13254,11.019,5.2727,0.05,8.9004e-07,8.8942,6.8344e-07,5.1352,-3.6186e-12,1.771e-06,-6.8343e-07,-5.135,0.60936
13255,11.019,5,0,0.00030914,3089.2,0.00010205,0.41459,0.00010199,-0.036745,-0.00030913,-3089.1,0.61056
13256,10.927,5.0909,0,0.00031174,3115.3,0.00010292,0.50359,0.00010285,-0.027655,-0.00031173,-3115,0.60096
13257,11.019,5.0909,0.05,8.9091e-07,8.903,6.8411e-07,5.1402,-2.7047e-12,1.7873e-06,-6.8411e-07,-5.1401,0.61016
13258,11.019,4.8182,0,0.00030894,3087.3,0.00010201,0.015967,0.00010185,-1.2425,-0.00030896,-3087.9,0.61126
13259,10.927,4.9091,0,0.00031153,3113.2,0.00010287,0.014907,0.00010269,-1.3143,-0.00031155,-3113.8,0.6017
13260,11.019,4.9091,0.05,8.9152e-07,8.9091,6.8458e-07,5.1437,-2.6986e-12,1.0968e-06,-6.8457e-07,-5.1436,0.6109
13261,11.019,4.6364,0,0.00030876,3085.5,0.00010203,0.0089386,0.00010166,-2.7233,-0.00030881,-3086.9,0.6119
13262,10.927,4.7273,0,0.00031133,3111.2,0.00010289,0.0084599,0.00010249,-2.9639,-0.00031138,-3112.7,0.60237
13263,11.019,4.7273,0.05,8.9206e-07,8.9144,6.8499e-07,5.1468,-1.7887e-12,3.057e-07,-6.8499e-07,-5.1467,0.61157
13264,11.019,4.4545,0,0.0003086,3083.9,0.00010204,0.0070084,0.0001015,-4.0826,-0.00030867,-3085.9,0.61246
13265,10.927,4.5455,0,0.00031116,3109.4,0.0001029,0.0067419,0.00010231,-4.4881,-0.00031123,-3111.6,0.60298
13266,11.019,4.5455,0.05,8.9253e-07,8.9191,6.8535e-07,5.1495,-8.7386e-13,1.0717e-06,-6.8535e-07,-5.1494,0.61217
13267,11.019,4.2727,0,0.00030846,3082.4,0.00010205,0.0061312,0.00010135,-5.3073,-0.00030855,-3085.1,0.61297
13268,10.927,4.3636,0,0.00031099,3107.8,0.00010292,0.0059607,0.00010214,-5.8728,-0.00031109,-3110.7,0.60351
13269,11.019,4.3636,0.05,8.9294e-07,8.9232,6.8567e-07,5.1518,-1.7875e-12,-1.2061e-07,-6.8566e-07,-5.1518,0.6127
13270,11.019,4.0909,0,0.00030833,3081.2,0.00010207,0.005644,0.00010121,-6.3879,-0.00030844,-3084.3,0.6134
13271,10.927,4.1818,0,0.00031085,3106.4,0.00010293,0.0055237,0.00010199,-7.1078,-0.00031097,-3109.9,0.60398
13272,11.019,4.1818,0.05,8.9329e-07,8.9268,6.8594e-07,5.1539,-1.7867e-12,-6.3863e-08,-6.8593e-07,-5.1538,0.61317
13273,11.019,3.9091,0,0.00030822,3080.1,0.00010207,0.0053426,0.0001011,-7.3166,-0.00030834,-3083.7,0.61377
13274,10.927,4,0,0.00031073,3105.1,0.00010295,0.0052493,0.00010186,-8.184,-0.00031086,-3109.2,0.60439
13275,11.019,4,0.05,8.9359e-07,8.9297,6.8617e-07,5.1556,-1.7901e-12,-8.572e-09,-6.8617e-07,-5.1555,0.61357
13276,11.019,3.7273,0,0.00030813,3079.2,0.00010208,0.0051455,0.00010101,-8.0864,-0.00030827,-3083.2,0.61407
13277,10.927,3.8182,0,0.00031062,3104.1,0.00010296,0.0050655,0.00010174,-9.0936,-0.00031077,-3108.6,0.60472
13278,11.019,3.8182,0.05,8.9384e-07,8.9322,6.8636e-07,5.157,-1.7938e-12,2.5605e-07,-6.8635e-07,-5.157,0.6139
13279,11.019,3.5455,0,0.00030806,3078.5,0.00010209,0.0050151,0.00010093,-8.6913,-0.00030821,-3082.8,0.6143
13280,10.927,3.6364,0,0.00031054,3103.2,0.00010296,0.0049396,0.00010166,-9.8297,-0.0003107,-3108.1,0.60499
13281,11.019,3.6364,0.05,8.9403e-07,8.9341,6.8651e-07,5.1581,-2.7065e-12,9.3702e-07,-6.865e-07,-5.1581,0.61417
13282,11.019,3.3636,0,0.00030801,3078,0.00010209,0.0049316,0.00010088,-9.1269,-0.00030816,-3082.5,0.61447
13283,10.927,3.4545,0,0.00031047,3102.6,0.00010297,0.0048556,0.00010159,-10.387,-0.00031065,-3107.8,0.60519
13284,11.019,3.4545,0.05,8.9417e-07,8.9356,6.8662e-07,5.159,-1.8034e-12,8.9233e-07,-6.8661e-07,-5.1589,0.61437
13285,11.019,3.1818,0,0.00030798,3077.7,0.0001021,0.0048845,0.00010085,-9.3896,-0.00030814,-3082.3,0.61457
13286,10.927,3.2727,0,0.00031043,3102.2,0.00010297,0.0048027,0.00010154,-10.761,-0.00031061,-3107.5,0.60533
13287,11.019,3.2727,0.05,8.9427e-07,8.9365,6.8669e-07,5.1595,9.5584e-15,3.7079e-07,-6.8668e-07,-5.1595,0.6145
13288,11.019,3,0,0.00030797,3077.5,0.0001021,0.0048692,0.00010084,-9.4774,-0.00030813,-3082.3,0.6146
13289,10.927,3.0909,0,0.00031041,3101.9,0.00010298,0.0047769,0.00010152,-10.948,-0.00031059,-3107.4,0.60539
13290,11.019,3.0909,0.05,8.9432e-07,8.937,6.8672e-07,5.1598,3.2017e-15,9.1825e-07,-6.8673e-07,-5.1598,0.61457
13291,11.019,2.8182,0,0.00030798,3077.7,0.0001021,0.0048843,0.00010085,-9.3896,-0.00030814,-3082.3,0.61457
13292,10.927,2.9091,0,0.00031041,3101.9,0.00010298,0.0047768,0.00010152,-10.948,-0.00031059,-3107.4,0.60539
13293,11.019,2.9091,0.05,8.9432e-07,8.937,6.8672e-07,5.1598,-3.2127e-15,1.3467e-06,-6.8673e-07,-5.1598,0.61457
13294,11.019,2.6364,0,0.00030801,3078,0.00010209,0.0049316,0.00010088,-9.1269,-0.00030816,-3082.5,0.61447
13295,10.927,2.7273,0,0.00031043,3102.2,0.00010297,0.0048029,0.00010154,-10.761,-0.00031061,-3107.5,0.60533
13296,11.019,2.7273,0.05,8.9427e-07,8.9365,6.8669e-07,5.1595,-9.5163e-15,1.2991e-06,-6.8669e-07,-5.1595,0.6145
13297,11.019,2.4545,0,0.00030806,3078.5,0.00010209,0.0050152,0.00010093,-8.6914,-0.00030821,-3082.8,0.6143
13298,10.927,2.5455,0,0.00031047,3102.6,0.00010297,0.0048559,0.00010159,-10.387,-0.00031065,-3107.8,0.60519
13299,11.019,2.5455,0.05,8.9417e-07,8.9356,6.8661e-07,5.1589,-1.5459e-14,8.9862e-07,-6.8661e-07,-5.1589,0.61437
13300,11.019,2.2727,0,0.00030813,3079.2,0.00010208,0.0051455,0.00010101,-8.0864,-0.00030827,-3083.2,0.61407
13301,10.927,2.3636,0,0.00031054,3103.2,0.00010296,0.0049393,0.00010166,-9.8297,-0.0003107,-3108.1,0.60499
13302,11.019,2.3636,0.05,8.9403e-07,8.9341,6.865e-07,5.1581,8.8912e-13,9.8242e-07,-6.865e-07,-5.1581,0.61417
13303,11.019,2.0909,0,0.00030822,3080.1,0.00010207,0.005343,0.0001011,-7.3167,-0.00030834,-3083.7,0.61377
13304,10.927,2.1818,0,0.00031062,3104.1,0.00010296,0.0050657,0.00010174,-9.0936,-0.00031077,-3108.6,0.60472
13305,11.019,2.1818,0.05,8.9384e-07,8.9322,6.8635e-07,5.157,1.793e-12,8.7781e-07,-6.8636e-07,-5.157,0.6139
13306,11.019,1.9091,0,0.00030833,3081.2,0.00010207,0.0056445,0.00010121,-6.388,-0.00030844,-3084.3,0.6134
13307,10.927,2,0,0.00031073,3105.1,0.00010295,0.0052501,0.00010186,-8.184,-0.00031086,-3109.2,0.60439
13308,11.019,2,0.05,8.9359e-07,8.9297,6.8617e-07,5.1556,-2.8523e-14,9.143e-07,-6.8617e-07,-5.1556,0.61357
13309,11.019,1.7273,0,0.00030846,3082.4,0.00010205,0.0061313,0.00010135,-5.3073,-0.00030855,-3085.1,0.61297
13310,10.927,1.8182,0,0.00031085,3106.4,0.00010293,0.0055238,0.00010199,-7.1078,-0.00031097,-3109.9,0.60398
13311,11.019,1.8182,0.05,8.9329e-07,8.9268,6.8594e-07,5.1538,1.787e-12,1.0024e-06,-6.8594e-07,-5.1539,0.61317
13312,11.019,1.5455,0,0.0003086,3083.9,0.00010204,0.0070087,0.0001015,-4.0827,-0.00030867,-3085.9,0.61246
13313,10.927,1.6364,0,0.00031099,3107.8,0.00010292,0.0059609,0.00010214,-5.8729,-0.00031109,-3110.7,0.60351
13314,11.019,1.6364,0.05,8.9294e-07,8.9232,6.8566e-07,5.1518,1.7809e-12,1.0476e-06,-6.8567e-07,-5.1518,0.6127
13315,11.019,1.3636,0,0.00030876,3085.5,0.00010203,0.0089391,0.00010166,-2.7233,-0.00030881,-3086.9,0.6119
13316,10.927,1.4545,0,0.00031116,3109.4,0.0001029,0.0067424,0.00010231,-4.4882,-0.00031123,-3111.6,0.60298
13317,11.019,1.4545,0.05,8.9253e-07,8.9191,6.8535e-07,5.1494,2.6956e-12,7.7821e-07,-6.8535e-07,-5.1495,0.61217
13318,11.019,1.1818,0,0.00030894,3087.3,0.00010201,0.015967,0.00010185,-1.2426,-0.00030896,-3087.9,0.61126
13319,10.927,1.2727,0,0.00031133,3111.2,0.00010289,0.0084604,0.00010249,-2.964,-0.00031138,-3112.7,0.60237
13320,11.019,1.2727,0.05,8.9206e-07,8.9144,6.8499e-07,5.1467,3.6057e-12,8.9164e-07,-6.8499e-07,-5.1467,0.61157
13321,11.019,1,0,0.00030914,3089.2,0.00010205,0.41454,0.00010199,-0.036749,-0.00030913,-3089.1,0.61056
13322,10.927,1.0909,0,0.00031153,3113.2,0.00010287,0.014907,0.00010269,-1.3143,-0.00031155,-3113.8,0.6017
13323,11.019,1.0909,0.05,8.9152e-07,8.9091,6.8458e-07,5.1436,1.7881e-12,7.4228e-07,-6.8458e-07,-5.1437,0.6109
13324,11.019,0.81818,0,0.00030935,3091.3,0.00010226,2.0939,0.00010198,-0.0050765,-0.00030931,-3090.3,0.60979
13325,10.927,0.90909,0,0.00031174,3115.3,0.00010292,0.50354,0.00010285,-0.027657,-0.00031173,-3115,0.60096
13326,11.019,0.90909,0.05,8.9091e-07,8.903,6.8411e-07,5.1401,2.6997e-12,1.0713e-06,-6.8411e-07,-5.1402,0.61016
13327,11.019,0.63636,0,0.00030957,3093.6,0.00010248,3.8993,0.00010197,-0.0017195,-0.00030951,-3091.6,0.60896
13328,10.927,0.72727,0,0.00031197,3117.5,0.00010315,2.3628,0.00010283,-0.0034111,-0.00031193,-3116.4,0.60015
13329,11.019,0.72727,0.05,8.9004e-07,8.8942,6.8343e-07,5.1351,2.7042e-12,1.6932e-06,-6.8344e-07,-5.1351,0.60936
13330,11.019,0.45455,0,0.00030982,3096,0.00010273,5.8283,0.00010195,0.00018862,-0.00030972,-3093.1,0.60805
13331,10.927,0.54545,0,0.00031221,3120,0.00010339,4.3435,0.00010281,-0.00093065,-0.00031214,-3117.8,0.59927
13332,11.019,0.54545,0.05,8.8599e-07,8.8538,6.8033e-07,5.1117,1.8062e-12,2.7145e-06,-6.8034e-07,-5.1118,0.60849
13333,11.019,0.27273,0,0.00031016,3099.5,0.00010306,8.4375,0.00010193,-0.0011251,-0.00031002,-3095.2,0.60708
13334,10.927,0.36364,0,0.00031248,3122.6,0.00010366,6.4811,0.0001028,0.0021409,-0.00031237,-3119.4,0.59833
13335,11.019,0.36364,0.05,8.343e-07,8.3373,6.4063e-07,4.8135,2.7209e-12,2.2179e-06,-6.4065e-07,-4.8136,0.60755
13336,10.927,0.18182,0,0.00031293,3127.2,0.00010409,9.8818,0.00010278,-0.0043282,-0.00031276,-3122.2,0.59732
13337,11.019,0.18182,0.05,5.2749e-08,0.52713,4.0502e-08,0.30431,1.2991e-12,-8.8656e-07,-4.0508e-08,-0.30437,0.60655
13338,11.019,0.090909,0,0.0003099,3096.8,0.00010285,6.9507,0.00010192,-0.0014277,-0.00030978,-3093.4,0.60605
13339,10.836,5.7273,0,0.00031524,3150.2,0.00010468,7.8369,0.00010364,-0.00061303,-0.0003151,-3146.3,0.58864
13340,10.744,5.8182,0,0.00031803,3178.1,0.00010573,9.3921,0.00010448,-0.0052319,-0.00031787,-3173.4,0.57897
13341,10.836,5.8182,0.05,5.9302e-08,0.59261,4.554e-08,0.3422,-4.5357e-12,1.0371e-05,-4.5533e-08,-0.34209,0.5881
13342,10.836,5.9091,0,0.000315,3147.9,0.00010451,6.6663,0.00010362,-0.0013286,-0.00031489,-3144.5,0.58758
13343,10.836,5.5455,0,0.00031487,3146.5,0.00010432,4.9719,0.00010366,0.0012799,-0.00031479,-3144,0.58962
13344,10.744,5.6364,0,0.00031755,3173.3,0.00010527,5.7365,0.00010451,0.0037846,-0.00031746,-3170.5,0.58
13345,10.836,5.6364,0.05,8.3856e-07,8.3798,6.4391e-07,4.8381,-3.6272e-12,2.4607e-06,-6.439e-07,-4.838,0.58911
13346,10.836,5.3636,0,0.00031461,3143.9,0.00010405,2.7855,0.00010368,-0.0019024,-0.00031456,-3142.5,0.59054
13347,10.744,5.4545,0,0.00031727,3170.5,0.00010498,3.3299,0.00010453,-0.00060552,-0.00031721,-3168.8,0.58095
13348,10.836,5.4545,0.05,8.9018e-07,8.8957,6.8355e-07,5.136,-3.6192e-12,3.194e-06,-6.8354e-07,-5.1358,0.59006
13349,10.836,5.1818,0,0.00031436,3141.5,0.0001038,0.74223,0.0001037,-0.015833,-0.00031435,-3141.1,0.59138
13350,10.744,5.2727,0,0.000317,3167.8,0.0001047,1.0932,0.00010456,-0.0078669,-0.00031698,-3167.3,0.58184
13351,10.836,5.2727,0.05,8.9426e-07,8.9364,6.8669e-07,5.1595,-3.6034e-12,1.7282e-06,-6.8667e-07,-5.1594,0.59095
13352,10.836,5,0,0.00031413,3139.2,0.00010373,0.014983,0.00010356,-1.2358,-0.00031415,-3139.8,0.59216
13353,10.744,5.0909,0,0.00031676,3165.4,0.00010458,0.015632,0.00010444,-1.0633,-0.00031677,-3165.9,0.58266
13354,10.836,5.0909,0.05,8.9517e-07,8.9455,6.8738e-07,5.1648,-3.6048e-12,1.7381e-06,-6.8738e-07,-5.1646,0.59176
13355,10.836,4.8182,0,0.00031392,3137,0.00010375,0.0081929,0.00010334,-3.0555,-0.00031397,-3138.6,0.59287
13356,10.744,4.9091,0,0.00031652,3163.1,0.00010461,0.0079117,0.0001042,-3.0667,-0.00031658,-3164.6,0.58341
13357,10.836,4.9091,0.05,8.9582e-07,8.952,6.8788e-07,5.1685,-2.6823e-12,1.0367e-06,-6.8787e-07,-5.1684,0.5925
13358,10.836,4.6364,0,0.00031372,3135.1,0.00010376,0.0065577,0.00010313,-4.7476,-0.0003138,-3137.4,0.59352
13359,10.744,4.7273,0,0.00031631,3160.9,0.00010463,0.0063447,0.00010397,-4.9416,-0.00031639,-3163.4,0.58409
13360,10.836,4.7273,0.05,8.9638e-07,8.9576,6.8831e-07,5.1717,-2.6913e-12,4.8561e-07,-6.8831e-07,-5.1716,0.59318
13361,10.836,4.4545,0,0.00031354,3133.3,0.00010378,0.0058345,0.00010294,-6.2966,-0.00031365,-3136.4,0.59409
13362,10.744,4.5455,0,0.00031611,3158.9,0.00010465,0.0056785,0.00010376,-6.6701,-0.00031623,-3162.3,0.58471
13363,10.836,4.5455,0.05,8.9688e-07,8.9626,6.8869e-07,5.1746,-2.6848e-12,1.2673e-06,-6.8869e-07,-5.1745,0.59379
13364,10.836,4.2727,0,0.00031339,3131.7,0.0001038,0.0054286,0.00010277,-7.6912,-0.00031352,-3135.5,0.5946
13365,10.744,4.3636,0,0.00031594,3157.2,0.00010467,0.0053046,0.00010357,-8.2397,-0.00031608,-3161.3,0.58525
13366,10.836,4.3636,0.05,8.9732e-07,8.967,6.8903e-07,5.1771,-2.6885e-12,1.8782e-07,-6.8903e-07,-5.1771,0.59433
13367,10.836,4.0909,0,0.00031324,3130.3,0.00010381,0.0051713,0.00010262,-8.9214,-0.0003134,-3134.7,0.59504
13368,10.744,4.1818,0,0.00031578,3155.6,0.00010468,0.005064,0.0001034,-9.6391,-0.00031594,-3160.4,0.58573
13369,10.836,4.1818,0.05,8.9769e-07,8.9707,6.8931e-07,5.1793,-2.6884e-12,1.0315e-07,-6.8932e-07,-5.1792,0.59481
13370,10.836,3.9091,0,0.00031313,3129.1,0.00010383,0.0049959,0.0001025,-9.9782,-0.00031329,-3134.1,0.59541
13371,10.744,4,0,0.00031564,3154.2,0.0001047,0.0048968,0.00010325,-10.858,-0.00031583,-3159.7,0.58614
13372,10.836,4,0.05,8.9801e-07,8.9739,6.8956e-07,5.1811,-8.7131e-13,2.3213e-08,-6.8956e-07,-5.1811,0.59521
13373,10.836,3.7273,0,0.00031303,3128.1,0.00010384,0.0048719,0.00010239,-10.854,-0.00031321,-3133.5,0.59572
13374,10.744,3.8182,0,0.00031553,3153.1,0.00010471,0.0047746,0.00010313,-11.889,-0.00031573,-3159,0.58648
13375,10.836,3.8182,0.05,8.9827e-07,8.9765,6.8976e-07,5.1826,-1.7876e-12,4.7263e-07,-6.8976e-07,-5.1825,0.59555
13376,10.836,3.5455,0,0.00031295,3127.3,0.00010384,0.0047853,0.00010231,-11.542,-0.00031314,-3133.1,0.59595
13377,10.744,3.6364,0,0.00031543,3152.2,0.00010472,0.0046853,0.00010303,-12.722,-0.00031565,-3158.5,0.58675
13378,10.836,3.6364,0.05,8.9848e-07,8.9786,6.8992e-07,5.1838,-8.8469e-13,1.2755e-06,-6.8992e-07,-5.1838,0.59582
13379,10.836,3.3636,0,0.00031289,3126.8,0.00010385,0.0047277,0.00010225,-12.037,-0.0003131,-3132.8,0.59612
13380,10.744,3.4545,0,0.00031536,3151.5,0.00010473,0.0046232,0.00010295,-13.353,-0.00031559,-3158.1,0.58695
13381,10.836,3.4545,0.05,8.9863e-07,8.9801,6.9004e-07,5.1847,1.9398e-14,1.0977e-06,-6.9004e-07,-5.1846,0.59602
13382,10.836,3.1818,0,0.00031286,3126.4,0.00010385,0.0046937,0.00010221,-12.336,-0.00031307,-3132.6,0.59622
13383,10.744,3.2727,0,0.00031532,3151,0.00010474,0.0045823,0.0001029,-13.776,-0.00031555,-3157.9,0.58709
13384,10.836,3.2727,0.05,8.9873e-07,8.9811,6.9011e-07,5.1853,-8.9801e-13,6.8481e-07,-6.9012e-07,-5.1852,0.59616
13385,10.836,3,0,0.00031285,3126.3,0.00010386,0.0046824,0.0001022,-12.436,-0.00031306,-3132.5,0.59626
13386,10.744,3.0909,0,0.00031529,3150.8,0.00010474,0.0045619,0.00010288,-13.989,-0.00031553,-3157.7,0.58716
13387,10.836,3.0909,0.05,8.9878e-07,8.9816,6.9015e-07,5.1856,3.9049e-15,1.1023e-06,-6.9015e-07,-5.1855,0.59623
13388,10.836,2.8182,0,0.00031286,3126.4,0.00010385,0.004694,0.00010221,-12.336,-0.00031307,-3132.6,0.59622
13389,10.744,2.9091,0,0.00031529,3150.8,0.00010474,0.0045621,0.00010288,-13.989,-0.00031553,-3157.7,0.58716
13390,10.836,2.9091,0.05,8.9878e-07,8.9816,6.9015e-07,5.1855,-3.8972e-15,1.5202e-06,-6.9015e-07,-5.1855,0.59623
13391,10.836,2.6364,0,0.00031289,3126.8,0.00010385,0.0047281,0.00010225,-12.037,-0.0003131,-3132.8,0.59612
13392,10.744,2.7273,0,0.00031532,3151,0.00010474,0.0045827,0.0001029,-13.776,-0.00031555,-3157.9,0.58709
13393,10.836,2.7273,0.05,8.9873e-07,8.9811,6.9011e-07,5.1853,-1.1646e-14,1.343e-06,-6.9011e-07,-5.1852,0.59616
13394,10.836,2.4545,0,0.00031295,3127.3,0.00010384,0.0047853,0.00010231,-11.542,-0.00031314,-3133.1,0.59595
13395,10.744,2.5455,0,0.00031536,3151.5,0.00010473,0.0046231,0.00010295,-13.353,-0.00031559,-3158.1,0.58695
13396,10.836,2.5455,0.05,8.9863e-07,8.9801,6.9004e-07,5.1847,-1.8857e-14,1.1687e-06,-6.9004e-07,-5.1847,0.59602
13397,10.836,2.2727,0,0.00031303,3128.1,0.00010384,0.0048718,0.00010239,-10.854,-0.00031321,-3133.5,0.59572
13398,10.744,2.3636,0,0.00031543,3152.2,0.00010472,0.0046852,0.00010303,-12.722,-0.00031565,-3158.5,0.58675
13399,10.836,2.3636,0.05,8.9848e-07,8.9786,6.8992e-07,5.1838,-2.4597e-14,9.9215e-07,-6.8992e-07,-5.1838,0.59582
13400,10.836,2.0909,0,0.00031313,3129.1,0.00010383,0.0049963,0.0001025,-9.9782,-0.00031329,-3134.1,0.59541
13401,10.744,2.1818,0,0.00031553,3153.1,0.00010471,0.0047748,0.00010313,-11.889,-0.00031573,-3159,0.58648
13402,10.836,2.1818,0.05,8.9827e-07,8.9765,6.8976e-07,5.1826,8.7816e-13,1.0733e-06,-6.8976e-07,-5.1826,0.59555
13403,10.836,1.9091,0,0.00031324,3130.3,0.00010381,0.0051718,0.00010262,-8.9214,-0.0003134,-3134.7,0.59504
13404,10.744,2,0,0.00031564,3154.2,0.0001047,0.0048971,0.00010325,-10.858,-0.00031583,-3159.7,0.58614
13405,10.836,2,0.05,8.9801e-07,8.9739,6.8956e-07,5.1811,8.7322e-13,8.6108e-07,-6.8956e-07,-5.1811,0.59521
13406,10.836,1.7273,0,0.00031339,3131.7,0.0001038,0.0054288,0.00010277,-7.6913,-0.00031352,-3135.5,0.5946
13407,10.744,1.8182,0,0.00031578,3155.6,0.00010468,0.0050651,0.0001034,-9.6391,-0.00031594,-3160.4,0.58573
13408,10.836,1.8182,0.05,8.9769e-07,8.9707,6.8932e-07,5.1793,1.7764e-12,9.6271e-07,-6.8931e-07,-5.1793,0.59481
13409,10.836,1.5455,0,0.00031354,3133.3,0.00010378,0.0058348,0.00010294,-6.2967,-0.00031365,-3136.4,0.59409
13410,10.744,1.6364,0,0.00031594,3157.2,0.00010467,0.0053047,0.00010357,-8.2397,-0.00031608,-3161.3,0.58525
13411,10.836,1.6364,0.05,8.9732e-07,8.967,6.8903e-07,5.1771,1.7774e-12,8.9515e-07,-6.8903e-07,-5.1771,0.59433
13412,10.836,1.3636,0,0.00031372,3135.1,0.00010376,0.0065581,0.00010313,-4.7477,-0.0003138,-3137.4,0.59352
13413,10.744,1.4545,0,0.00031611,3158.9,0.00010465,0.0056798,0.00010376,-6.6702,-0.00031623,-3162.3,0.58471
13414,10.836,1.4545,0.05,8.9688e-07,8.9626,6.8869e-07,5.1745,8.7087e-13,1.0033e-06,-6.8869e-07,-5.1746,0.59379
13415,10.836,1.1818,0,0.00031392,3137,0.00010375,0.0081936,0.00010334,-3.0555,-0.00031397,-3138.6,0.59287
13416,10.744,1.2727,0,0.00031631,3160.9,0.00010463,0.0063451,0.00010397,-4.9417,-0.00031639,-3163.4,0.58409
13417,10.836,1.2727,0.05,8.9638e-07,8.9576,6.8831e-07,5.1717,1.7802e-12,7.7956e-07,-6.8831e-07,-5.1717,0.59318
13418,10.836,1,0,0.00031413,3139.2,0.00010373,0.014984,0.00010356,-1.2359,-0.00031415,-3139.8,0.59216
13419,10.744,1.0909,0,0.00031652,3163.1,0.00010461,0.0079128,0.0001042,-3.0668,-0.00031658,-3164.6,0.58341
13420,10.836,1.0909,0.05,8.9582e-07,8.952,6.8787e-07,5.1684,2.6966e-12,4.6042e-07,-6.8788e-07,-5.1685,0.5925
13421,10.836,0.81818,0,0.00031436,3141.5,0.0001038,0.74218,0.0001037,-0.015834,-0.00031435,-3141.1,0.59138
13422,10.744,0.90909,0,0.00031676,3165.4,0.00010458,0.015632,0.00010444,-1.0633,-0.00031677,-3165.9,0.58266
13423,10.836,0.90909,0.05,8.9517e-07,8.9455,6.8738e-07,5.1647,8.7705e-13,4.3099e-07,-6.8738e-07,-5.1647,0.59176
13424,10.836,0.63636,0,0.00031461,3143.9,0.00010405,2.7854,0.00010368,-0.0019028,-0.00031456,-3142.5,0.59054
13425,10.744,0.72727,0,0.000317,3167.8,0.0001047,1.0932,0.00010456,-0.0078671,-0.00031698,-3167.3,0.58184
13426,10.836,0.72727,0.05,8.9426e-07,8.9364,6.8667e-07,5.1594,3.6118e-12,1.6195e-06,-6.8669e-07,-5.1595,0.59095
13427,10.836,0.45455,0,0.00031487,3146.5,0.00010432,4.9718,0.00010366,0.0012799,-0.00031479,-3144,0.58962
13428,10.744,0.54545,0,0.00031727,3170.5,0.00010498,3.3298,0.00010453,-0.00060567,-0.00031721,-3168.8,0.58095
13429,10.836,0.54545,0.05,8.9018e-07,8.8957,6.8355e-07,5.1358,2.6961e-12,2.6101e-06,-6.8355e-07,-5.136,0.59006
13430,10.836,0.27273,0,0.00031524,3150.2,0.00010468,7.8368,0.00010364,-0.00061149,-0.0003151,-3146.3,0.58864
13431,10.744,0.36364,0,0.00031755,3173.3,0.00010527,5.7365,0.00010451,0.0037852,-0.00031746,-3170.5,0.58
13432,10.836,0.36364,0.05,8.3856e-07,8.3798,6.4391e-07,4.838,2.7046e-12,2.3511e-06,-6.439e-07,-4.8381,0.58911
13433,10.744,0.18182,0,0.00031803,3178.1,0.00010573,9.3921,0.00010448,-0.0052301,-0.00031787,-3173.4,0.57897
13434,10.836,0.18182,0.05,5.9303e-08,0.59262,4.5536e-08,0.34211,1.2024e-12,-4.7587e-06,-4.5539e-08,-0.34219,0.5881
13435,10.836,0.090909,0,0.000315,3147.9,0.00010451,6.6663,0.00010362,-0.0013271,-0.00031489,-3144.5,0.58758
13436,10.652,5.7273,0,0.00032033,3201.1,0.00010631,7.2046,0.00010535,-0.00023927,-0.00032021,-3197.5,0.5704
13437,10.56,5.8182,0,0.00032314,3229.2,0.00010738,8.8765,0.0001062,-0.006403,-0.00032299,-3224.8,0.56084
13438,10.652,5.8182,0.05,6.68e-08,0.66753,5.1295e-08,0.38547,-3.1077e-12,1.3831e-05,-5.1293e-08,-0.38533,0.56985
13439,10.652,5.9091,0,0.00032013,3199.1,0.00010618,6.3671,0.00010533,-0.0013665,-0.00032002,-3195.9,0.56933
13440,10.652,5.5455,0,0.00031995,3197.3,0.00010592,4.0702,0.00010538,0.0023799,-0.00031988,-3195.2,0.5714
13441,10.56,5.6364,0,0.00032265,3224.3,0.00010689,4.9517,0.00010623,0.0054445,-0.00032257,-3221.8,0.56188
13442,10.652,5.6364,0.05,8.4296e-07,8.4238,6.4729e-07,4.8635,-3.6193e-12,2.0673e-06,-6.4728e-07,-4.8634,0.57089
13443,10.652,5.3636,0,0.00031966,3194.4,0.00010562,1.6137,0.00010541,-0.0031282,-0.00031963,-3193.6,0.57233
13444,10.56,5.4545,0,0.00032234,3221.2,0.00010656,2.2612,0.00010626,-0.00049097,-0.0003223,-3220,0.56285
13445,10.652,5.4545,0.05,8.9448e-07,8.9386,6.8685e-07,5.1608,-5.4134e-12,2.7767e-06,-6.8684e-07,-5.1606,0.57185
13446,10.652,5.1818,0,0.00031939,3191.7,0.00010544,0.019195,0.00010534,-0.72758,-0.00031941,-3192.1,0.57319
13447,10.56,5.2727,0,0.00032205,3218.3,0.0001063,0.035398,0.00010625,-0.2938,-0.00032206,-3218.4,0.56375
13448,10.652,5.2727,0.05,8.9859e-07,8.9797,6.9001e-07,5.1845,-3.6036e-12,1.5694e-06,-6.9e-07,-5.1844,0.57274
13449,10.652,5,0,0.00031914,3189.2,0.00010546,0.0077673,0.00010507,-2.9125,-0.00031919,-3190.7,0.57398
13450,10.56,5.0909,0,0.00032178,3215.6,0.00010632,0.0075944,0.00010597,-2.6626,-0.00032183,-3217,0.56458
13451,10.652,5.0909,0.05,8.9954e-07,8.9892,6.9073e-07,5.19,-3.5982e-12,1.6692e-06,-6.9073e-07,-5.1898,0.57357
13452,10.652,4.8182,0,0.00031891,3186.9,0.00010549,0.0061975,0.00010482,-4.9716,-0.000319,-3189.4,0.5747
13453,10.56,4.9091,0,0.00032153,3213.1,0.00010635,0.0060152,0.00010569,-4.9214,-0.00032162,-3215.6,0.56534
13454,10.652,4.9091,0.05,9.0022e-07,8.996,6.9126e-07,5.1939,-3.5881e-12,1.2039e-06,-6.9125e-07,-5.1938,0.57432
13455,10.652,4.6364,0,0.0003187,3184.8,0.00010551,0.0055565,0.00010459,-6.8823,-0.00031881,-3188.2,0.57535
13456,10.56,4.7273,0,0.0003213,3210.8,0.00010638,0.0054055,0.00010544,-7.0304,-0.00032142,-3214.3,0.56603
13457,10.652,4.7273,0.05,9.0081e-07,9.0019,6.9172e-07,5.1973,-3.5812e-12,2.0559e-07,-6.9171e-07,-5.1972,0.57501
13458,10.652,4.4545,0,0.0003185,3182.8,0.00010553,0.0052045,0.00010438,-8.6309,-0.00031865,-3187.1,0.57593
13459,10.56,4.5455,0,0.00032108,3208.6,0.0001064,0.0050788,0.00010521,-8.9742,-0.00032124,-3213.1,0.56665
13460,10.652,4.5455,0.05,9.0134e-07,9.0072,6.9212e-07,5.2003,-2.6783e-12,1.1891e-06,-6.9212e-07,-5.2003,0.57563
13461,10.652,4.2727,0,0.00031833,3181.1,0.00010555,0.0049745,0.00010419,-10.205,-0.0003185,-3186.2,0.57645
13462,10.56,4.3636,0,0.00032089,3206.7,0.00010643,0.0048598,0.000105,-10.739,-0.00032107,-3212,0.5672
13463,10.652,4.3636,0.05,9.018e-07,9.0118,6.9248e-07,5.203,-1.7617e-12,4.0074e-07,-6.9247e-07,-5.203,0.57618
13464,10.652,4.0909,0,0.00031817,3179.5,0.00010557,0.0048108,0.00010403,-11.593,-0.00031837,-3185.3,0.57689
13465,10.56,4.1818,0,0.00032072,3205,0.00010645,0.0046996,0.00010481,-12.313,-0.00032093,-3211.1,0.56768
13466,10.652,4.1818,0.05,9.022e-07,9.0158,6.9278e-07,5.2053,-8.6093e-13,-1.2747e-07,-6.9278e-07,-5.2052,0.57666
13467,10.652,3.9091,0,0.00031804,3178.2,0.00010559,0.0046884,0.00010388,-12.786,-0.00031826,-3184.6,0.57727
13468,10.56,4,0,0.00032057,3203.5,0.00010647,0.0045765,0.00010464,-13.684,-0.0003208,-3210.3,0.5681
13469,10.652,4,0.05,9.0254e-07,9.0191,6.9304e-07,5.2073,-2.6846e-12,2.2871e-07,-6.9304e-07,-5.2071,0.57707
13470,10.652,3.7273,0,0.00031793,3177.1,0.0001056,0.0045952,0.00010377,-13.774,-0.00031817,-3184,0.57758
13471,10.56,3.8182,0,0.00032044,3202.2,0.00010648,0.0044781,0.00010451,-14.842,-0.00032069,-3209.6,0.56844
13472,10.652,3.8182,0.05,9.0281e-07,9.0219,6.9325e-07,5.2088,-2.6891e-12,2.9512e-07,-6.9325e-07,-5.2088,0.57741
13473,10.652,3.5455,0,0.00031785,3176.3,0.00010561,0.0045267,0.00010367,-14.55,-0.00031809,-3183.5,0.57782
13474,10.56,3.6364,0,0.00032034,3201.2,0.00010649,0.004403,0.00010439,-15.779,-0.00032061,-3209.1,0.56872
13475,10.652,3.6364,0.05,9.0303e-07,9.0241,6.9342e-07,5.2101,-2.6972e-12,1.0759e-06,-6.9341e-07,-5.2101,0.57768
13476,10.652,3.3636,0,0.00031779,3175.7,0.00010562,0.0044791,0.00010361,-15.108,-0.00031804,-3183.2,0.57799
13477,10.56,3.4545,0,0.00032027,3200.5,0.0001065,0.0043477,0.00010431,-16.489,-0.00032054,-3208.7,0.56893
13478,10.652,3.4545,0.05,9.0319e-07,9.0257,6.9354e-07,5.211,-2.7047e-12,1.0114e-06,-6.9354e-07,-5.211,0.57789
13479,10.652,3.1818,0,0.00031775,3175.3,0.00010562,0.0044504,0.00010357,-15.445,-0.00031801,-3183,0.57809
13480,10.56,3.2727,0,0.00032021,3199.9,0.00010651,0.0043108,0.00010425,-16.964,-0.0003205,-3208.4,0.56906
13481,10.652,3.2727,0.05,9.033e-07,9.0268,6.9362e-07,5.2116,-1.8047e-12,8.2267e-07,-6.9362e-07,-5.2116,0.57803
13482,10.652,3,0,0.00031774,3175.2,0.00010562,0.004441,0.00010355,-15.558,-0.000318,-3182.9,0.57813
13483,10.56,3.0909,0,0.00032019,3199.7,0.00010651,0.0042921,0.00010422,-17.203,-0.00032048,-3208.2,0.56913
13484,10.652,3.0909,0.05,9.0335e-07,9.0273,6.9366e-07,5.2119,4.7553e-15,1.1084e-06,-6.9366e-07,-5.2119,0.57809
13485,10.652,2.8182,0,0.00031775,3175.3,0.00010562,0.0044507,0.00010357,-15.445,-0.00031801,-3183,0.57809
13486,10.56,2.9091,0,0.00032019,3199.7,0.00010651,0.0042921,0.00010422,-17.203,-0.00032048,-3208.2,0.56913
13487,10.652,2.9091,0.05,9.0335e-07,9.0273,6.9366e-07,5.2119,-4.7666e-15,1.1562e-06,-6.9367e-07,-5.2119,0.57809
13488,10.652,2.6364,0,0.00031779,3175.7,0.00010562,0.004479,0.00010361,-15.108,-0.00031804,-3183.2,0.57799
13489,10.56,2.7273,0,0.00032021,3199.9,0.00010651,0.0043109,0.00010425,-16.964,-0.0003205,-3208.4,0.56906
13490,10.652,2.7273,0.05,9.033e-07,9.0268,6.9362e-07,5.2116,-1.4192e-14,1.2046e-06,-6.9362e-07,-5.2116,0.57803
13491,10.652,2.4545,0,0.00031785,3176.3,0.00010561,0.0045267,0.00010367,-14.55,-0.00031809,-3183.5,0.57782
13492,10.56,2.5455,0,0.00032027,3200.5,0.0001065,0.0043478,0.00010431,-16.489,-0.00032054,-3208.7,0.56893
13493,10.652,2.5455,0.05,9.0319e-07,9.0257,6.9354e-07,5.211,-2.3189e-14,8.9806e-07,-6.9354e-07,-5.211,0.57789
13494,10.652,2.2727,0,0.00031793,3177.1,0.0001056,0.0045956,0.00010377,-13.774,-0.00031817,-3184,0.57758
13495,10.56,2.3636,0,0.00032034,3201.2,0.00010649,0.0044031,0.00010439,-15.779,-0.00032061,-3209.1,0.56872
13496,10.652,2.3636,0.05,9.0303e-07,9.0241,6.9342e-07,5.2101,-3.0647e-14,1.0697e-06,-6.9342e-07,-5.2101,0.57768
13497,10.652,2.0909,0,0.00031804,3178.2,0.00010559,0.0046884,0.00010388,-12.786,-0.00031826,-3184.6,0.57727
13498,10.56,2.1818,0,0.00032044,3202.2,0.00010648,0.0044789,0.00010451,-14.842,-0.00032069,-3209.6,0.56844
13499,10.652,2.1818,0.05,9.0281e-07,9.0219,6.9325e-07,5.2088,8.7069e-13,5.49e-07,-6.9325e-07,-5.2088,0.57741
13500,10.652,1.9091,0,0.00031817,3179.5,0.00010557,0.0048117,0.00010403,-11.593,-0.00031837,-3185.3,0.57689
13501,10.56,2,0,0.00032057,3203.5,0.00010647,0.0045766,0.00010464,-13.684,-0.0003208,-3210.3,0.5681
13502,10.652,2,0.05,9.0254e-07,9.0191,6.9304e-07,5.2072,-4.3466e-14,3.8117e-07,-6.9304e-07,-5.2072,0.57707
13503,10.652,1.7273,0,0.00031833,3181.1,0.00010555,0.0049755,0.00010419,-10.205,-0.0003185,-3186.2,0.57645
13504,10.56,1.8182,0,0.00032072,3205,0.00010645,0.0047007,0.00010481,-12.313,-0.00032093,-3211.1,0.56768
13505,10.652,1.8182,0.05,9.022e-07,9.0158,6.9278e-07,5.2053,8.6093e-13,7.5278e-07,-6.9278e-07,-5.2053,0.57666
13506,10.652,1.5455,0,0.0003185,3182.8,0.00010553,0.0052055,0.00010438,-8.6309,-0.00031865,-3187.1,0.57593
13507,10.56,1.6364,0,0.00032089,3206.7,0.00010643,0.0048602,0.000105,-10.739,-0.00032107,-3212,0.5672
13508,10.652,1.6364,0.05,9.018e-07,9.0118,6.9247e-07,5.203,1.7708e-12,8.2896e-07,-6.9247e-07,-5.203,0.57618
13509,10.652,1.3636,0,0.0003187,3184.8,0.00010551,0.0055577,0.00010459,-6.8824,-0.00031881,-3188.2,0.57535
13510,10.56,1.4545,0,0.00032108,3208.6,0.0001064,0.0050797,0.00010521,-8.9743,-0.00032124,-3213.1,0.56665
13511,10.652,1.4545,0.05,9.0134e-07,9.0072,6.9212e-07,5.2003,8.5588e-13,6.0767e-07,-6.9212e-07,-5.2003,0.57563
13512,10.652,1.1818,0,0.00031891,3186.9,0.00010549,0.0061982,0.00010482,-4.9717,-0.000319,-3189.4,0.5747
13513,10.56,1.2727,0,0.0003213,3210.8,0.00010638,0.0054061,0.00010544,-7.0304,-0.00032142,-3214.3,0.56603
13514,10.652,1.2727,0.05,9.0081e-07,9.0019,6.9171e-07,5.1972,8.5611e-13,4.4857e-07,-6.9172e-07,-5.1973,0.57501
13515,10.652,1,0,0.00031914,3189.2,0.00010546,0.0077681,0.00010507,-2.9126,-0.00031919,-3190.7,0.57398
13516,10.56,1.0909,0,0.00032153,3213.1,0.00010635,0.0060163,0.00010569,-4.9215,-0.00032162,-3215.6,0.56534
13517,10.652,1.0909,0.05,9.0022e-07,8.996,6.9126e-07,5.1938,8.6479e-13,5.5794e-07,-6.9126e-07,-5.1939,0.57432
13518,10.652,0.81818,0,0.00031939,3191.7,0.00010544,0.019195,0.00010534,-0.72762,-0.00031941,-3192.1,0.57319
13519,10.56,0.90909,0,0.00032178,3215.6,0.00010632,0.0075952,0.00010597,-2.6626,-0.00032183,-3217,0.56458
13520,10.652,0.90909,0.05,8.9954e-07,8.9892,6.9073e-07,5.1899,8.6315e-13,1.7292e-07,-6.9073e-07,-5.1899,0.57357
13521,10.652,0.63636,0,0.00031966,3194.4,0.00010562,1.6136,0.00010541,-0.0031277,-0.00031963,-3193.6,0.57233
13522,10.56,0.72727,0,0.00032205,3218.3,0.0001063,0.035394,0.00010625,-0.29384,-0.00032206,-3218.4,0.56375
13523,10.652,0.72727,0.05,8.9859e-07,8.9797,6.9e-07,5.1844,2.6882e-12,9.6954e-07,-6.9001e-07,-5.1845,0.57274
13524,10.652,0.45455,0,0.00031995,3197.3,0.00010592,4.0702,0.00010538,0.0023804,-0.00031988,-3195.2,0.5714
13525,10.56,0.54545,0,0.00032234,3221.2,0.00010656,2.2612,0.00010626,-0.00049054,-0.0003223,-3220,0.56285
13526,10.652,0.54545,0.05,8.9448e-07,8.9386,6.8684e-07,5.1607,3.5952e-12,1.1048e-06,-6.8685e-07,-5.1607,0.57185
13527,10.652,0.27273,0,0.00032033,3201.1,0.00010631,7.2046,0.00010535,-0.00023826,-0.00032021,-3197.5,0.5704
13528,10.56,0.36364,0,0.00032265,3224.3,0.00010689,4.9517,0.00010623,0.0054449,-0.00032257,-3221.8,0.56188
13529,10.652,0.36364,0.05,8.4296e-07,8.4238,6.4729e-07,4.8634,2.6938e-12,1.5655e-06,-6.4729e-07,-4.8635,0.57089
13530,10.56,0.18182,0,0.00032314,3229.2,0.00010738,8.8764,0.0001062,-0.006402,-0.00032299,-3224.8,0.56084
13531,10.652,0.18182,0.05,6.68e-08,0.66754,5.1293e-08,0.38536,1.8326e-12,-5.9884e-06,-5.1296e-08,-0.38545,0.56985
13532,10.652,0.090909,0,0.00032013,3199.1,0.00010618,6.3671,0.00010533,-0.0013649,-0.00032002,-3195.9,0.56933
13533,10.468,5.7273,0,0.00032545,3252.2,0.00010794,6.538,0.00010707,-5.8244e-05,-0.00032534,-3249,0.55238
13534,10.376,5.8182,0,0.00032828,3280.5,0.00010903,8.3332,0.00010792,-0.0078537,-0.00032814,-3276.4,0.54292
13535,10.468,5.8182,0.05,7.5286e-08,0.75234,5.7813e-08,0.43443,-2.9256e-12,1.7572e-05,-5.7807e-08,-0.43429,0.55182
13536,10.468,5.9091,0,0.00032528,3250.6,0.00010785,6.0523,0.00010704,-0.0015745,-0.00032518,-3247.5,0.5513
13537,10.468,5.5455,0,0.00032504,3248.2,0.00010752,3.1184,0.00010711,0.0034965,-0.00032499,-3246.6,0.55339
13538,10.376,5.6364,0,0.00032777,3275.4,0.00010851,4.1228,0.00010796,0.0071728,-0.00032769,-3273.3,0.54397
13539,10.468,5.6364,0.05,8.4756e-07,8.4697,6.5082e-07,4.8901,-4.4992e-12,2.5339e-06,-6.5081e-07,-4.8899,0.55287
13540,10.468,5.3636,0,0.00032473,3245.1,0.00010719,0.38709,0.00010714,-0.015426,-0.00032472,-3244.9,0.55433
13541,10.376,5.4545,0,0.00032743,3272,0.00010815,1.1322,0.000108,-0.0011303,-0.00032741,-3271.5,0.54495
13542,10.468,5.4545,0.05,8.9892e-07,8.983,6.9027e-07,5.1864,-3.5911e-12,2.9775e-06,-6.9026e-07,-5.1863,0.55385
13543,10.468,5.1818,0,0.00032444,3242.2,0.00010718,0.0077367,0.00010688,-2.232,-0.00032448,-3243.3,0.55521
13544,10.376,5.2727,0,0.00032712,3269,0.00010803,0.0080585,0.00010781,-1.6877,-0.00032715,-3269.8,0.54587
13545,10.468,5.2727,0.05,9.0307e-07,9.0245,6.9345e-07,5.2103,-3.583e-12,1.7124e-06,-6.9344e-07,-5.2102,0.55475
13546,10.468,5,0,0.00032417,3239.5,0.00010721,0.0058586,0.00010658,-4.6901,-0.00032425,-3241.8,0.55601
13547,10.376,5.0909,0,0.00032683,3266,0.00010807,0.0057222,0.00010749,-4.3613,-0.0003269,-3268.2,0.54671
13548,10.468,5.0909,0.05,9.0406e-07,9.0344,6.9421e-07,5.2161,-3.5847e-12,1.8172e-06,-6.942e-07,-5.2159,0.55559
13549,10.468,4.8182,0,0.00032392,3236.9,0.00010724,0.0052933,0.00010631,-6.9983,-0.00032404,-3240.4,0.55674
13550,10.376,4.9091,0,0.00032656,3263.3,0.0001081,0.0052199,0.00010719,-6.8856,-0.00032667,-3266.7,0.54748
13551,10.468,4.9091,0.05,9.0478e-07,9.0415,6.9476e-07,5.2202,-3.5765e-12,1.2287e-06,-6.9475e-07,-5.2201,0.55636
13552,10.468,4.6364,0,0.00032368,3234.6,0.00010727,0.0049765,0.00010605,-9.1399,-0.00032384,-3239.2,0.5574
13553,10.376,4.7273,0,0.0003263,3260.8,0.00010814,0.0049159,0.00010691,-9.2422,-0.00032646,-3265.4,0.54818
13554,10.468,4.7273,0.05,9.0541e-07,9.0478,6.9524e-07,5.2238,-2.6661e-12,6.3807e-07,-6.9524e-07,-5.2237,0.55705
13555,10.468,4.4545,0,0.00032347,3232.5,0.0001073,0.0047662,0.00010582,-11.1,-0.00032366,-3238,0.55799
13556,10.376,4.5455,0,0.00032607,3258.4,0.00010817,0.0047165,0.00010665,-11.414,-0.00032626,-3264.1,0.54881
13557,10.468,4.5455,0.05,9.0596e-07,9.0534,6.9567e-07,5.227,-2.6552e-12,1.4791e-06,-6.9567e-07,-5.2269,0.55768
13558,10.468,4.2727,0,0.00032328,3230.6,0.00010732,0.0046059,0.00010561,-12.864,-0.0003235,-3237,0.55851
13559,10.376,4.3636,0,0.00032586,3256.3,0.0001082,0.0045558,0.00010641,-13.387,-0.00032608,-3263,0.54937
13560,10.468,4.3636,0.05,9.0645e-07,9.0582,6.9604e-07,5.2298,-1.7612e-12,4.6502e-07,-6.9604e-07,-5.2297,0.55823
13561,10.468,4.0909,0,0.00032311,3228.9,0.00010734,0.004479,0.00010542,-14.42,-0.00032336,-3236.1,0.55896
13562,10.376,4.1818,0,0.00032567,3254.4,0.00010822,0.0044237,0.0001062,-15.146,-0.00032592,-3262,0.54986
13563,10.468,4.1818,0.05,9.0687e-07,9.0624,6.9636e-07,5.2322,6.2364e-14,3.2486e-07,-6.9636e-07,-5.2321,0.55872
13564,10.468,3.9091,0,0.00032297,3227.5,0.00010736,0.0043749,0.00010526,-15.757,-0.00032323,-3235.3,0.55934
13565,10.376,4,0,0.00032551,3252.8,0.00010824,0.0043127,0.00010602,-16.678,-0.00032579,-3261.1,0.55028
13566,10.468,4,0.05,9.0722e-07,9.0659,6.9663e-07,5.2343,-3.5824e-12,1.7169e-07,-6.9663e-07,-5.2342,0.55914
13567,10.468,3.7273,0,0.00032285,3226.3,0.00010738,0.0042912,0.00010513,-16.864,-0.00032313,-3234.7,0.55965
13568,10.376,3.8182,0,0.00032537,3251.5,0.00010826,0.0042184,0.00010587,-17.973,-0.00032567,-3260.4,0.55063
13569,10.468,3.8182,0.05,9.0751e-07,9.0688,6.9685e-07,5.2359,-1.7724e-12,7.2315e-07,-6.9685e-07,-5.2359,0.55948
13570,10.468,3.5455,0,0.00032276,3225.3,0.00010739,0.0042268,0.00010503,-17.734,-0.00032306,-3234.2,0.5599
13571,10.376,3.6364,0,0.00032526,3250.3,0.00010828,0.0041436,0.00010574,-19.02,-0.00032558,-3259.8,0.55091
13572,10.468,3.6364,0.05,9.0774e-07,9.0711,6.9703e-07,5.2372,-8.7176e-13,1.6115e-06,-6.9703e-07,-5.2372,0.55976
13573,10.468,3.3636,0,0.00032269,3224.7,0.0001074,0.0041808,0.00010495,-18.36,-0.000323,-3233.8,0.56007
13574,10.376,3.4545,0,0.00032518,3249.5,0.00010829,0.0040869,0.00010565,-19.813,-0.00032551,-3259.4,0.55112
13575,10.468,3.4545,0.05,9.0791e-07,9.0728,6.9716e-07,5.2382,2.8125e-14,1.398e-06,-6.9716e-07,-5.2382,0.55997
13576,10.468,3.1818,0,0.00032265,3224.3,0.0001074,0.0041531,0.00010491,-18.738,-0.00032297,-3233.6,0.56018
13577,10.376,3.2727,0,0.00032512,3248.9,0.0001083,0.0040488,0.00010559,-20.344,-0.00032546,-3259.1,0.55125
13578,10.468,3.2727,0.05,9.0802e-07,9.0739,6.9725e-07,5.2389,-8.9238e-13,4.8598e-07,-6.9725e-07,-5.2388,0.56011
13579,10.468,3,0,0.00032264,3224.1,0.0001074,0.0041435,0.00010489,-18.864,-0.00032295,-3233.5,0.56021
13580,10.376,3.0909,0,0.00032509,3248.7,0.0001083,0.0040289,0.00010556,-20.611,-0.00032544,-3258.9,0.55132
13581,10.468,3.0909,0.05,9.0808e-07,9.0745,6.9729e-07,5.2392,5.6616e-15,1.4728e-06,-6.9729e-07,-5.2391,0.56018
13582,10.468,2.8182,0,0.00032265,3224.3,0.0001074,0.0041528,0.00010491,-18.738,-0.00032297,-3233.6,0.56018
13583,10.376,2.9091,0,0.00032509,3248.7,0.0001083,0.0040289,0.00010556,-20.611,-0.00032544,-3258.9,0.55132
13584,10.468,2.9091,0.05,9.0808e-07,9.0745,6.9729e-07,5.2392,-5.681e-15,1.8653e-06,-6.9729e-07,-5.2391,0.56018
13585,10.468,2.6364,0,0.00032269,3224.7,0.0001074,0.0041812,0.00010495,-18.36,-0.000323,-3233.8,0.56007
13586,10.376,2.7273,0,0.00032512,3248.9,0.0001083,0.0040487,0.00010559,-20.344,-0.00032546,-3259.1,0.55125
13587,10.468,2.7273,0.05,9.0802e-07,9.0739,6.9725e-07,5.2388,-1.6796e-14,1.4239e-06,-6.9725e-07,-5.2388,0.56011
13588,10.468,2.4545,0,0.00032276,3225.3,0.00010739,0.0042272,0.00010503,-17.734,-0.00032306,-3234.2,0.5599
13589,10.376,2.5455,0,0.00032518,3249.5,0.00010829,0.0040876,0.00010565,-19.813,-0.00032551,-3259.4,0.55112
13590,10.468,2.5455,0.05,9.0791e-07,9.0728,6.9716e-07,5.2382,-2.7374e-14,1.2308e-06,-6.9716e-07,-5.2382,0.55997
13591,10.468,2.2727,0,0.00032285,3226.3,0.00010738,0.0042916,0.00010513,-16.864,-0.00032313,-3234.7,0.55965
13592,10.376,2.3636,0,0.00032526,3250.3,0.00010828,0.0041436,0.00010574,-19.02,-0.00032558,-3259.8,0.55091
13593,10.468,2.3636,0.05,9.0774e-07,9.0711,6.9703e-07,5.2372,-3.8411e-14,1.5118e-06,-6.9703e-07,-5.2372,0.55976
13594,10.468,2.0909,0,0.00032297,3227.5,0.00010736,0.0043757,0.00010526,-15.757,-0.00032323,-3235.3,0.55934
13595,10.376,2.1818,0,0.00032537,3251.5,0.00010826,0.004219,0.00010587,-17.973,-0.00032567,-3260.4,0.55063
13596,10.468,2.1818,0.05,9.0751e-07,9.0688,6.9685e-07,5.2359,8.6216e-13,7.4664e-07,-6.9685e-07,-5.2359,0.55948
13597,10.468,1.9091,0,0.00032311,3228.9,0.00010734,0.0044793,0.00010542,-14.42,-0.00032336,-3236.1,0.55896
13598,10.376,2,0,0.00032551,3252.8,0.00010824,0.004313,0.00010602,-16.678,-0.00032579,-3261.1,0.55028
13599,10.468,2,0.05,9.0722e-07,9.0659,6.9663e-07,5.2342,-5.0651e-14,6.8307e-07,-6.9663e-07,-5.2342,0.55914
13600,10.468,1.7273,0,0.00032328,3230.6,0.00010732,0.0046063,0.00010561,-12.864,-0.0003235,-3237,0.55851
13601,10.376,1.8182,0,0.00032567,3254.4,0.00010822,0.004424,0.0001062,-15.146,-0.00032592,-3262,0.54986
13602,10.468,1.8182,0.05,9.0687e-07,9.0624,6.9636e-07,5.2322,-4.983e-14,7.9722e-07,-6.9636e-07,-5.2322,0.55872
13603,10.468,1.5455,0,0.00032347,3232.5,0.0001073,0.0047664,0.00010582,-11.1,-0.00032366,-3238,0.55799
13604,10.376,1.6364,0,0.00032586,3256.3,0.0001082,0.0045564,0.00010641,-13.387,-0.00032608,-3263,0.54937
13605,10.468,1.6364,0.05,9.0645e-07,9.0582,6.9604e-07,5.2297,2.6618e-12,8.676e-07,-6.9604e-07,-5.2298,0.55823
13606,10.468,1.3636,0,0.00032368,3234.6,0.00010727,0.0049767,0.00010605,-9.14,-0.00032384,-3239.2,0.5574
13607,10.376,1.4545,0,0.00032607,3258.4,0.00010817,0.0047169,0.00010665,-11.415,-0.00032626,-3264.1,0.54881
13608,10.468,1.4545,0.05,9.0596e-07,9.0534,6.9566e-07,5.2269,8.5109e-13,4.5354e-07,-6.9567e-07,-5.227,0.55768
13609,10.468,1.1818,0,0.00032392,3236.9,0.00010724,0.0052942,0.00010631,-6.9984,-0.00032404,-3240.4,0.55674
13610,10.376,1.2727,0,0.0003263,3260.8,0.00010814,0.0049166,0.00010691,-9.2423,-0.00032646,-3265.4,0.54818
13611,10.468,1.2727,0.05,9.0541e-07,9.0478,6.9524e-07,5.2237,2.6647e-12,6.9468e-07,-6.9524e-07,-5.2238,0.55705
13612,10.468,1,0,0.00032417,3239.5,0.00010721,0.0058597,0.00010658,-4.6902,-0.00032425,-3241.8,0.55601
13613,10.376,1.0909,0,0.00032656,3263.3,0.0001081,0.0052208,0.00010719,-6.8857,-0.00032667,-3266.7,0.54748
13614,10.468,1.0909,0.05,9.0478e-07,9.0415,6.9476e-07,5.2201,1.7592e-12,9.4961e-07,-6.9475e-07,-5.2201,0.55636
13615,10.468,0.81818,0,0.00032444,3242.2,0.00010718,0.0077379,0.00010688,-2.232,-0.00032448,-3243.3,0.55521
13616,10.376,0.90909,0,0.00032683,3266,0.00010807,0.0057231,0.00010749,-4.3614,-0.0003269,-3268.2,0.54671
13617,10.468,0.90909,0.05,9.0406e-07,9.0344,6.942e-07,5.216,8.4888e-13,1.0192e-06,-6.9421e-07,-5.216,0.55559
13618,10.468,0.63636,0,0.00032473,3245.1,0.00010719,0.38705,0.00010714,-0.015427,-0.00032472,-3244.9,0.55433
13619,10.376,0.72727,0,0.00032712,3269,0.00010803,0.0080595,0.00010781,-1.6878,-0.00032715,-3269.8,0.54587
13620,10.468,0.72727,0.05,9.0307e-07,9.0245,6.9344e-07,5.2102,3.6082e-12,9.9416e-07,-6.9345e-07,-5.2103,0.55475
13621,10.468,0.45455,0,0.00032504,3248.2,0.00010752,3.1184,0.00010711,0.0034969,-0.00032499,-3246.6,0.55339
13622,10.376,0.54545,0,0.00032743,3272,0.00010815,1.1322,0.000108,-0.00113,-0.00032741,-3271.5,0.54495
13623,10.468,0.54545,0.05,8.9892e-07,8.983,6.9026e-07,5.1863,3.5935e-12,6.8387e-07,-6.9027e-07,-5.1864,0.55385
13624,10.468,0.27273,0,0.00032545,3252.2,0.00010794,6.5379,0.00010707,-5.7705e-05,-0.00032534,-3249,0.55238
13625,10.376,0.36364,0,0.00032777,3275.4,0.00010851,4.1227,0.00010796,0.0071738,-0.00032769,-3273.3,0.54397
13626,10.468,0.36364,0.05,8.4756e-07,8.4697,6.5081e-07,4.89,2.6939e-12,1.2474e-06,-6.5082e-07,-4.89,0.55287
13627,10.376,0.18182,0,0.00032828,3280.5,0.00010903,8.3331,0.00010792,-0.007853,-0.00032814,-3276.4,0.54292
13628,10.468,0.18182,0.05,7.5287e-08,0.75235,5.7809e-08,0.43434,2.6697e-12,-5.5433e-06,-5.7812e-08,-0.43439,0.55182
13629,10.468,0.090909,0,0.00032528,3250.6,0.00010785,6.0523,0.00010704,-0.0015741,-0.00032518,-3247.5,0.5513
13630,10.285,5.7273,0,0.00033058,3303.6,0.00010958,5.8342,0.0001088,-3.7598e-05,-0.00033048,-3300.6,0.53458
13631,10.193,5.8182,0,0.00033344,3332.1,0.00011068,7.7601,0.00010965,-0.0096752,-0.00033331,-3328.2,0.52522
13632,10.285,5.8182,0.05,8.4767e-08,0.84709,6.5095e-08,0.48912,-1.4517e-12,1.7738e-05,-6.5086e-08,-0.48901,0.53402
13633,10.285,5.9091,0,0.00033045,3302.2,0.00010953,5.7208,0.00010877,-0.0018769,-0.00033035,-3299.4,0.53348
13634,10.285,5.5455,0,0.00033015,3299.2,0.00010913,2.1115,0.00010885,0.0047614,-0.00033012,-3298.2,0.53561
13635,10.193,5.6364,0,0.0003329,3326.7,0.00011013,3.2454,0.0001097,0.0089448,-0.00033285,-3325.1,0.52629
13636,10.285,5.6364,0.05,8.5234e-07,8.5175,6.545e-07,4.9177,-3.6039e-12,2.29e-06,-6.5449e-07,-4.9175,0.53508
13637,10.285,5.3636,0,0.00032982,3295.9,0.00010889,0.0086717,0.00010876,-0.94854,-0.00032983,-3296.4,0.53656
13638,10.193,5.4545,0,0.00033254,3323.1,0.00010975,0.029399,0.00010973,-0.09538,-0.00033254,-3323.1,0.52728
13639,10.285,5.4545,0.05,9.0352e-07,9.0289,6.9379e-07,5.2129,-4.5017e-12,2.8169e-06,-6.9378e-07,-5.2128,0.53607
13640,10.285,5.1818,0,0.00032951,3292.8,0.00010893,0.0057733,0.00010842,-3.8356,-0.00032957,-3294.7,0.53744
13641,10.193,5.2727,0,0.00033221,3319.8,0.00010979,0.0058208,0.00010936,-3.1927,-0.00033226,-3321.4,0.52821
13642,10.285,5.2727,0.05,9.0769e-07,9.0707,6.97e-07,5.237,-3.5809e-12,1.4368e-06,-6.9699e-07,-5.2369,0.53699
13643,10.285,5,0,0.00032921,3289.8,0.00010897,0.0051464,0.00010809,-6.575,-0.00032932,-3293.1,0.53825
13644,10.193,5.0909,0,0.00033189,3316.6,0.00010983,0.0050609,0.00010901,-6.165,-0.00033199,-3319.7,0.52906
13645,10.285,5.0909,0.05,9.0873e-07,9.081,6.9779e-07,5.243,-3.5761e-12,1.8552e-06,-6.9779e-07,-5.2429,0.53783
13646,10.285,4.8182,0,0.00032894,3287.1,0.000109,0.0048912,0.00010778,-9.1472,-0.00032909,-3291.7,0.53899
13647,10.193,4.9091,0,0.00033159,3313.6,0.00010987,0.004868,0.00010868,-8.9709,-0.00033174,-3318.1,0.52984
13648,10.285,4.9091,0.05,9.0948e-07,9.0885,6.9837e-07,5.2473,-3.5665e-12,1.2317e-06,-6.9837e-07,-5.2472,0.53861
13649,10.285,4.6364,0,0.00032868,3284.6,0.00010904,0.0046885,0.0001075,-11.534,-0.00032888,-3290.3,0.53966
13650,10.193,4.7273,0,0.00033132,3310.9,0.00010991,0.0046614,0.00010836,-11.591,-0.00033151,-3316.7,0.53055
13651,10.285,4.7273,0.05,9.1014e-07,9.0951,6.9888e-07,5.2511,-3.5676e-12,5.4035e-07,-6.9887e-07,-5.2511,0.53931
13652,10.285,4.4545,0,0.00032845,3282.2,0.00010907,0.0045279,0.00010724,-13.718,-0.00032868,-3289.1,0.54026
13653,10.193,4.5455,0,0.00033106,3308.3,0.00010994,0.0045,0.00010808,-14.006,-0.0003313,-3315.3,0.53119
13654,10.285,4.5455,0.05,9.1073e-07,9.101,6.9933e-07,5.2545,-2.6509e-12,1.1868e-06,-6.9932e-07,-5.2544,0.53995
13655,10.285,4.2727,0,0.00032824,3280.2,0.0001091,0.0043881,0.00010701,-15.685,-0.00032851,-3288,0.54079
13656,10.193,4.3636,0,0.00033083,3306,0.00010998,0.0043494,0.00010782,-16.2,-0.00033111,-3314.1,0.53176
13657,10.285,4.3636,0.05,9.1124e-07,9.1061,6.9972e-07,5.2574,-3.5641e-12,7.1161e-07,-6.9972e-07,-5.2573,0.54051
13658,10.285,4.0909,0,0.00032806,3278.3,0.00010912,0.0042671,0.0001068,-17.42,-0.00032835,-3287,0.54125
13659,10.193,4.1818,0,0.00033063,3304,0.00011001,0.0042165,0.00010759,-18.156,-0.00033093,-3313.1,0.53225
13660,10.285,4.1818,0.05,9.1167e-07,9.1105,7.0005e-07,5.26,-1.7439e-12,5.2336e-07,-7.0005e-07,-5.2599,0.541
13661,10.285,3.9091,0,0.0003279,3276.8,0.00010914,0.0041625,0.00010663,-18.91,-0.00032822,-3286.2,0.54163
13662,10.193,4,0,0.00033045,3302.2,0.00011003,0.0040982,0.00010739,-19.86,-0.00033079,-3312.1,0.53268
13663,10.285,4,0.05,9.1204e-07,9.1141,7.0034e-07,5.2621,-1.7574e-12,4.8899e-07,-7.0033e-07,-5.262,0.54142
13664,10.285,3.7273,0,0.00032778,3275.5,0.00010916,0.0040747,0.00010648,-20.144,-0.00032811,-3285.5,0.54195
13665,10.193,3.8182,0,0.0003303,3300.8,0.00011005,0.0039961,0.00010722,-21.3,-0.00033066,-3311.3,0.53303
13666,10.285,3.8182,0.05,9.1235e-07,9.1172,7.0057e-07,5.2638,-1.7655e-12,6.5727e-07,-7.0057e-07,-5.2638,0.54178
13667,10.285,3.5455,0,0.00032767,3274.5,0.00010918,0.004006,0.00010637,-21.114,-0.00032803,-3285,0.5422
13668,10.193,3.6364,0,0.00033018,3299.5,0.00011007,0.0039121,0.00010708,-22.465,-0.00033056,-3310.7,0.53331
13669,10.285,3.6364,0.05,9.1259e-07,9.1196,7.0075e-07,5.2652,4.3834e-14,1.2892e-06,-7.0075e-07,-5.2652,0.54206
13670,10.285,3.3636,0,0.0003276,3273.8,0.00010919,0.0039561,0.00010628,-21.812,-0.00032797,-3284.6,0.54237
13671,10.193,3.4545,0,0.00033009,3298.6,0.00011008,0.003849,0.00010698,-23.347,-0.00033048,-3310.2,0.53352
13672,10.285,3.4545,0.05,9.1276e-07,9.1213,7.0089e-07,5.2662,3.3196e-14,9.6275e-07,-7.0089e-07,-5.2662,0.54227
13673,10.285,3.1818,0,0.00032756,3273.3,0.00010919,0.0039252,0.00010623,-22.233,-0.00032793,-3284.4,0.54248
13674,10.193,3.2727,0,0.00033003,3298,0.00011009,0.003805,0.00010691,-23.938,-0.00033043,-3309.9,0.53367
13675,10.285,3.2727,0.05,9.1288e-07,9.1225,7.0098e-07,5.2669,-8.8952e-13,6.2521e-07,-7.0098e-07,-5.2669,0.54241
13676,10.285,3,0,0.00032754,3273.2,0.0001092,0.0039148,0.00010622,-22.374,-0.00032792,-3284.3,0.54251
13677,10.193,3.0909,0,0.00033,3297.7,0.0001101,0.0037827,0.00010687,-24.235,-0.00033041,-3309.8,0.53374
13678,10.285,3.0909,0.05,9.1294e-07,9.1231,7.0102e-07,5.2673,-9.0287e-13,1.2419e-06,-7.0102e-07,-5.2672,0.54248
13679,10.285,2.8182,0,0.00032756,3273.3,0.00010919,0.0039254,0.00010623,-22.233,-0.00032793,-3284.4,0.54248
13680,10.193,2.9091,0,0.00033,3297.7,0.0001101,0.0037829,0.00010687,-24.235,-0.00033041,-3309.8,0.53374
13681,10.285,2.9091,0.05,9.1294e-07,9.1231,7.0102e-07,5.2673,-6.6171e-15,1.3806e-06,-7.0102e-07,-5.2672,0.54248
13682,10.285,2.6364,0,0.0003276,3273.8,0.00010919,0.0039563,0.00010628,-21.812,-0.00032797,-3284.6,0.54237
13683,10.193,2.7273,0,0.00033003,3298,0.00011009,0.0038051,0.00010691,-23.938,-0.00033043,-3309.9,0.53367
13684,10.285,2.7273,0.05,9.1288e-07,9.1225,7.0098e-07,5.2669,-2.0056e-14,1.0425e-06,-7.0098e-07,-5.2669,0.54241
13685,10.285,2.4545,0,0.00032767,3274.5,0.00010918,0.0040064,0.00010637,-21.114,-0.00032803,-3285,0.5422
13686,10.193,2.5455,0,0.00033009,3298.6,0.00011008,0.0038491,0.00010698,-23.347,-0.00033048,-3310.2,0.53352
13687,10.285,2.5455,0.05,9.1276e-07,9.1213,7.0089e-07,5.2662,-3.1796e-14,1.1946e-06,-7.0089e-07,-5.2662,0.54227
13688,10.285,2.2727,0,0.00032778,3275.5,0.00010916,0.0040749,0.00010648,-20.144,-0.00032811,-3285.5,0.54195
13689,10.193,2.3636,0,0.00033018,3299.5,0.00011007,0.0039125,0.00010708,-22.465,-0.00033056,-3310.7,0.53331
13690,10.285,2.3636,0.05,9.1259e-07,9.1196,7.0075e-07,5.2652,-4.3376e-14,6.218e-07,-7.0075e-07,-5.2652,0.54206
13691,10.285,2.0909,0,0.0003279,3276.8,0.00010914,0.0041625,0.00010663,-18.91,-0.00032822,-3286.2,0.54163
13692,10.193,2.1818,0,0.0003303,3300.8,0.00011005,0.0039961,0.00010722,-21.3,-0.00033066,-3311.3,0.53303
13693,10.285,2.1818,0.05,9.1235e-07,9.1172,7.0057e-07,5.2638,8.56e-13,7.7174e-07,-7.0057e-07,-5.2638,0.54178
13694,10.285,1.9091,0,0.00032806,3278.3,0.00010912,0.0042674,0.0001068,-17.42,-0.00032835,-3287,0.54125
13695,10.193,2,0,0.00033045,3302.2,0.00011003,0.0040989,0.00010739,-19.86,-0.00033079,-3312.1,0.53268
13696,10.285,2,0.05,9.1204e-07,9.1141,7.0034e-07,5.2621,8.4724e-13,7.3674e-07,-7.0034e-07,-5.2621,0.54142
13697,10.285,1.7273,0,0.00032824,3280.2,0.0001091,0.0043886,0.00010701,-15.685,-0.00032851,-3288,0.54079
13698,10.193,1.8182,0,0.00033063,3304,0.00011001,0.0042165,0.00010759,-18.156,-0.00033093,-3313.1,0.53225
13699,10.285,1.8182,0.05,9.1167e-07,9.1105,7.0005e-07,5.2599,-6.8519e-14,6.801e-07,-7.0005e-07,-5.26,0.541
13700,10.285,1.5455,0,0.00032845,3282.2,0.00010907,0.0045286,0.00010724,-13.719,-0.00032868,-3289.1,0.54026
13701,10.193,1.6364,0,0.00033083,3306,0.00010998,0.0043501,0.00010782,-16.2,-0.00033111,-3314.1,0.53176
13702,10.285,1.6364,0.05,9.1124e-07,9.1061,6.9972e-07,5.2574,8.2868e-13,5.6674e-07,-6.9972e-07,-5.2574,0.54051
13703,10.285,1.3636,0,0.00032868,3284.6,0.00010904,0.0046893,0.0001075,-11.534,-0.00032888,-3290.3,0.53966
13704,10.193,1.4545,0,0.00033106,3308.3,0.00010994,0.0045002,0.00010808,-14.006,-0.0003313,-3315.3,0.53119
13705,10.285,1.4545,0.05,9.1073e-07,9.101,6.9933e-07,5.2545,1.7407e-12,3.9797e-07,-6.9932e-07,-5.2545,0.53995
13706,10.285,1.1818,0,0.00032894,3287.1,0.000109,0.0048918,0.00010778,-9.1472,-0.00032909,-3291.7,0.53899
13707,10.193,1.2727,0,0.00033132,3310.9,0.00010991,0.0046622,0.00010836,-11.591,-0.00033151,-3316.7,0.53055
13708,10.285,1.2727,0.05,9.1014e-07,9.0951,6.9888e-07,5.2511,-7.1327e-14,6.0107e-07,-6.9888e-07,-5.2511,0.53931
13709,10.285,1,0,0.00032921,3289.8,0.00010897,0.0051472,0.00010809,-6.5751,-0.00032932,-3293.1,0.53825
13710,10.193,1.0909,0,0.00033159,3313.6,0.00010987,0.0048688,0.00010868,-8.9709,-0.00033174,-3318.1,0.52984
13711,10.285,1.0909,0.05,9.0948e-07,9.0885,6.9837e-07,5.2472,8.4295e-13,4.4336e-07,-6.9837e-07,-5.2473,0.53861
13712,10.285,0.81818,0,0.00032951,3292.8,0.00010893,0.0057741,0.00010842,-3.8356,-0.00032957,-3294.7,0.53744
13713,10.193,0.90909,0,0.00033189,3316.6,0.00010983,0.0050624,0.00010901,-6.165,-0.00033199,-3319.7,0.52906
13714,10.285,0.90909,0.05,9.0873e-07,9.081,6.9779e-07,5.2429,8.3975e-13,1.1225e-06,-6.9779e-07,-5.243,0.53783
13715,10.285,0.63636,0,0.00032982,3295.9,0.00010889,0.0086722,0.00010876,-0.94858,-0.00032983,-3296.4,0.53656
13716,10.193,0.72727,0,0.00033221,3319.8,0.00010979,0.0058218,0.00010936,-3.1928,-0.00033226,-3321.4,0.52821
13717,10.285,0.72727,0.05,9.0769e-07,9.0707,6.97e-07,5.2369,2.6716e-12,1.1513e-06,-6.9699e-07,-5.237,0.53699
13718,10.285,0.45455,0,0.00033015,3299.2,0.00010913,2.1115,0.00010885,0.0047625,-0.00033012,-3298.2,0.53561
13719,10.193,0.54545,0,0.00033254,3323.1,0.00010975,0.029391,0.00010973,-0.095414,-0.00033254,-3323.1,0.52728
13720,10.285,0.54545,0.05,9.0351e-07,9.0289,6.9379e-07,5.2128,3.586e-12,5.1551e-07,-6.9379e-07,-5.2129,0.53607
13721,10.285,0.27273,0,0.00033058,3303.6,0.00010958,5.8341,0.0001088,-3.6394e-05,-0.00033048,-3300.6,0.53458
13722,10.193,0.36364,0,0.0003329,3326.7,0.00011013,3.2454,0.0001097,0.0089464,-0.00033285,-3325.1,0.52629
13723,10.285,0.36364,0.05,8.5234e-07,8.5175,6.5449e-07,4.9176,3.5821e-12,8.3844e-07,-6.5449e-07,-4.9177,0.53508
13724,10.193,0.18182,0,0.00033344,3332.1,0.00011068,7.7601,0.00010965,-0.0096746,-0.00033331,-3328.2,0.52522
13725,10.285,0.18182,0.05,8.4768e-08,0.84709,6.5087e-08,0.48902,1.5953e-12,-1.2372e-05,-6.5096e-08,-0.48912,0.53402
13726,10.285,0.090909,0,0.00033045,3302.2,0.00010953,5.7208,0.00010877,-0.0018762,-0.00033035,-3299.4,0.53348
13727,10.101,5.7273,0,0.00033574,3355.1,0.00011122,5.0896,0.00011054,-0.00044055,-0.00033565,-3352.6,0.517
13728,10.009,5.8182,0,0.00033862,3383.8,0.00011234,7.1551,0.00011139,-0.012056,-0.00033849,-3380.3,0.50774
13729,10.101,5.8182,0.05,9.5276e-08,0.95211,7.3165e-08,0.54975,-1.9962e-12,1.8105e-05,-7.3156e-08,-0.54965,0.51643
13730,10.101,5.9091,0,0.00033565,3354.1,0.00011121,5.3714,0.0001105,-0.0024403,-0.00033555,-3351.5,0.51589
13731,10.101,5.5455,0,0.00033528,3350.5,0.00011073,1.0437,0.00011059,0.0060763,-0.00033527,-3350,0.51804
13732,10.009,5.6364,0,0.00033806,3378.2,0.00011175,2.3152,0.00011144,0.010602,-0.00033802,-3377.1,0.50883
13733,10.101,5.6364,0.05,8.5732e-07,8.5673,6.5832e-07,4.9464,-4.45e-12,2.1964e-06,-6.5831e-07,-4.9463,0.5175
13734,10.101,5.3636,0,0.00033492,3346.9,0.00011064,0.0052031,0.00011033,-2.3374,-0.00033496,-3348.1,0.51901
13735,10.009,5.4545,0,0.00033767,3374.4,0.0001115,0.0044802,0.00011132,-1.3418,-0.00033769,-3375,0.50984
13736,10.101,5.4545,0.05,9.0825e-07,9.0762,6.9743e-07,5.2402,-4.4623e-12,2.8295e-06,-6.9742e-07,-5.2401,0.51851
13737,10.101,5.1818,0,0.00033459,3343.6,0.00011069,0.0051782,0.00010995,-5.5405,-0.00033468,-3346.3,0.5199
13738,10.009,5.2727,0,0.00033731,3370.7,0.00011155,0.005348,0.00011091,-4.7943,-0.00033739,-3373.1,0.51077
13739,10.101,5.2727,0.05,9.1246e-07,9.1183,7.0066e-07,5.2645,-5.3735e-12,1.6656e-06,-7.0065e-07,-5.2644,0.51944
13740,10.101,5,0,0.00033427,3340.4,0.00011073,0.0048379,0.00010959,-8.5785,-0.00033441,-3344.6,0.52072
13741,10.009,5.0909,0,0.00033696,3367.3,0.0001116,0.0048348,0.00011052,-8.0838,-0.0003371,-3371.3,0.51164
13742,10.101,5.0909,0.05,9.1354e-07,9.1291,7.0149e-07,5.2707,-3.5601e-12,1.6063e-06,-7.0148e-07,-5.2706,0.5203
13743,10.101,4.8182,0,0.00033397,3337.4,0.00011078,0.0046736,0.00010925,-11.432,-0.00033416,-3343.1,0.52147
13744,10.009,4.9091,0,0.00033664,3364.1,0.00011165,0.0047169,0.00011016,-11.19,-0.00033683,-3369.7,0.51243
13745,10.101,4.9091,0.05,9.1433e-07,9.137,7.021e-07,5.2753,-3.5533e-12,1.155e-06,-7.0209e-07,-5.2752,0.52108
13746,10.101,4.6364,0,0.00033369,3334.6,0.00011082,0.004496,0.00010894,-14.08,-0.00033393,-3341.6,0.52215
13747,10.009,4.7273,0,0.00033634,3361.1,0.00011169,0.004517,0.00010981,-14.091,-0.00033658,-3368.1,0.51315
13748,10.101,4.7273,0.05,9.1503e-07,9.144,7.0263e-07,5.2793,-2.637e-12,6.89e-07,-7.0262e-07,-5.2792,0.5218
13749,10.101,4.4545,0,0.00033344,3332.1,0.00011085,0.004337,0.00010866,-16.504,-0.00033372,-3340.3,0.52276
13750,10.009,4.5455,0,0.00033607,3358.4,0.00011173,0.0043466,0.0001095,-16.766,-0.00033635,-3366.7,0.51379
13751,10.101,4.5455,0.05,9.1564e-07,9.1501,7.031e-07,5.2828,-3.5466e-12,1.0171e-06,-7.031e-07,-5.2828,0.52244
13752,10.101,4.2727,0,0.00033322,3329.9,0.00011089,0.0041882,0.0001084,-18.686,-0.00033353,-3339.2,0.52329
13753,10.009,4.3636,0,0.00033582,3355.9,0.00011177,0.0041779,0.00010921,-19.195,-0.00033614,-3365.4,0.51437
13754,10.101,4.3636,0.05,9.1617e-07,9.1554,7.0351e-07,5.2859,-3.5417e-12,6.4248e-07,-7.035e-07,-5.2858,0.52301
13755,10.101,4.0909,0,0.00033302,3327.9,0.00011092,0.0040546,0.00010817,-20.612,-0.00033336,-3338.1,0.52375
13756,10.009,4.1818,0,0.0003356,3353.7,0.0001118,0.0040252,0.00010896,-21.362,-0.00033596,-3364.3,0.51487
13757,10.101,4.1818,0.05,9.1663e-07,9.16,7.0386e-07,5.2885,-1.73e-12,3.8234e-07,-7.0386e-07,-5.2885,0.52351
13758,10.101,3.9091,0,0.00033285,3326.2,0.00011094,0.0039364,0.00010798,-22.266,-0.00033322,-3337.3,0.52414
13759,10.009,4,0,0.00033541,3351.7,0.00011183,0.0038874,0.00010874,-23.25,-0.00033579,-3363.3,0.5153
13760,10.101,4,0.05,9.1702e-07,9.1638,7.0416e-07,5.2908,-1.7442e-12,5.7013e-07,-7.0415e-07,-5.2907,0.52393
13761,10.101,3.7273,0,0.00033271,3324.8,0.00011096,0.0038363,0.00010782,-23.636,-0.0003331,-3336.5,0.52447
13762,10.009,3.8182,0,0.00033524,3350.1,0.00011186,0.0037676,0.00010855,-24.846,-0.00033566,-3362.5,0.51565
13763,10.101,3.8182,0.05,9.1733e-07,9.167,7.044e-07,5.2926,-3.5758e-12,9.5261e-07,-7.044e-07,-5.2925,0.52429
13764,10.101,3.5455,0,0.0003326,3323.7,0.00011098,0.0037568,0.00010769,-24.713,-0.00033301,-3336,0.52471
13765,10.009,3.6364,0,0.00033511,3348.8,0.00011188,0.0036687,0.0001084,-26.137,-0.00033555,-3361.8,0.51594
13766,10.101,3.6364,0.05,9.1758e-07,9.1695,7.0459e-07,5.294,5.0394e-14,1.3372e-06,-7.0459e-07,-5.294,0.52457
13767,10.101,3.3636,0,0.00033252,3322.9,0.00011099,0.0036986,0.0001076,-25.487,-0.00033294,-3335.6,0.52489
13768,10.009,3.4545,0,0.00033501,3347.8,0.00011189,0.003594,0.00010829,-27.113,-0.00033547,-3361.3,0.51616
13769,10.101,3.4545,0.05,9.1777e-07,9.1713,7.0473e-07,5.2951,-8.721e-13,1.2338e-06,-7.0473e-07,-5.295,0.52479
13770,10.101,3.1818,0,0.00033247,3322.4,0.000111,0.0036628,0.00010754,-25.955,-0.0003329,-3335.3,0.525
13771,10.009,3.2727,0,0.00033495,3347.2,0.00011191,0.003542,0.00010821,-27.769,-0.00033541,-3360.9,0.5163
13772,10.101,3.2727,0.05,9.1789e-07,9.1725,7.0483e-07,5.2958,-8.8699e-13,8.8674e-07,-7.0482e-07,-5.2958,0.52493
13773,10.101,3,0,0.00033245,3322.2,0.000111,0.003651,0.00010753,-26.111,-0.00033289,-3335.2,0.52503
13774,10.009,3.0909,0,0.00033491,3346.8,0.00011191,0.0035158,0.00010817,-28.098,-0.00033538,-3360.8,0.51637
13775,10.101,3.0909,0.05,9.1795e-07,9.1731,7.0487e-07,5.2961,-9.0189e-13,1.0106e-06,-7.0487e-07,-5.2961,0.525
13776,10.101,2.8182,0,0.00033247,3322.4,0.000111,0.0036629,0.00010754,-25.955,-0.0003329,-3335.3,0.525
13777,10.009,2.9091,0,0.00033491,3346.8,0.00011191,0.0035157,0.00010817,-28.098,-0.00033538,-3360.8,0.51637
13778,10.101,2.9091,0.05,9.1795e-07,9.1731,7.0487e-07,5.2961,-7.5602e-15,1.6122e-06,-7.0487e-07,-5.2961,0.525
13779,10.101,2.6364,0,0.00033252,3322.9,0.00011099,0.0036986,0.0001076,-25.487,-0.00033294,-3335.6,0.52489
13780,10.009,2.7273,0,0.00033495,3347.2,0.00011191,0.003542,0.00010821,-27.769,-0.00033541,-3360.9,0.5163
13781,10.101,2.7273,0.05,9.1789e-07,9.1725,7.0482e-07,5.2958,-2.2361e-14,1.0219e-06,-7.0482e-07,-5.2958,0.52493
13782,10.101,2.4545,0,0.0003326,3323.7,0.00011098,0.0037569,0.00010769,-24.713,-0.00033301,-3336,0.52471
13783,10.009,2.5455,0,0.00033501,3347.8,0.00011189,0.0035939,0.00010829,-27.113,-0.00033547,-3361.3,0.51616
13784,10.101,2.5455,0.05,9.1777e-07,9.1713,7.0473e-07,5.2951,-9.4695e-13,6.7421e-07,-7.0473e-07,-5.2951,0.52479
13785,10.101,2.2727,0,0.00033271,3324.8,0.00011096,0.0038365,0.00010782,-23.636,-0.0003331,-3336.5,0.52447
13786,10.009,2.3636,0,0.00033511,3348.8,0.00011188,0.0036689,0.0001084,-26.137,-0.00033555,-3361.8,0.51594
13787,10.101,2.3636,0.05,9.1758e-07,9.1695,7.0459e-07,5.294,-4.979e-14,1.3124e-06,-7.0459e-07,-5.294,0.52457
13788,10.101,2.0909,0,0.00033285,3326.2,0.00011094,0.003937,0.00010798,-22.266,-0.00033322,-3337.3,0.52414
13789,10.009,2.1818,0,0.00033524,3350.1,0.00011186,0.0037681,0.00010855,-24.846,-0.00033566,-3362.5,0.51565
13790,10.101,2.1818,0.05,9.1733e-07,9.167,7.044e-07,5.2925,8.4801e-13,4.9379e-07,-7.044e-07,-5.2926,0.52429
13791,10.101,1.9091,0,0.00033302,3327.9,0.00011092,0.004055,0.00010817,-20.612,-0.00033336,-3338.1,0.52375
13792,10.009,2,0,0.00033541,3351.7,0.00011183,0.0038883,0.00010874,-23.25,-0.00033579,-3363.3,0.5153
13793,10.101,2,0.05,9.1702e-07,9.1638,7.0415e-07,5.2907,-7.2683e-14,4.1835e-07,-7.0416e-07,-5.2908,0.52393
13794,10.101,1.7273,0,0.00033322,3329.9,0.00011089,0.0041885,0.0001084,-18.686,-0.00033353,-3339.2,0.52329
13795,10.009,1.8182,0,0.0003356,3353.7,0.0001118,0.0040255,0.00010896,-21.362,-0.00033596,-3364.3,0.51487
13796,10.101,1.8182,0.05,9.1663e-07,9.16,7.0386e-07,5.2885,1.7389e-12,6.5727e-07,-7.0386e-07,-5.2885,0.52351
13797,10.101,1.5455,0,0.00033344,3332.1,0.00011085,0.0043371,0.00010866,-16.504,-0.00033372,-3340.3,0.52276
13798,10.009,1.6364,0,0.00033582,3355.9,0.00011177,0.0041786,0.00010921,-19.196,-0.00033614,-3365.4,0.51437
13799,10.101,1.6364,0.05,9.1617e-07,9.1554,7.0351e-07,5.2858,8.1966e-13,5.6866e-07,-7.0351e-07,-5.2859,0.52301
13800,10.101,1.3636,0,0.00033369,3334.6,0.00011082,0.0044963,0.00010894,-14.08,-0.00033393,-3341.6,0.52215
13801,10.009,1.4545,0,0.00033607,3358.4,0.00011173,0.0043466,0.0001095,-16.766,-0.00033635,-3366.7,0.51379
13802,10.101,1.4545,0.05,9.1564e-07,9.1501,7.031e-07,5.2828,8.1037e-13,5.2592e-07,-7.031e-07,-5.2828,0.52244
13803,10.101,1.1818,0,0.00033397,3337.4,0.00011078,0.0046746,0.00010925,-11.432,-0.00033416,-3343.1,0.52147
13804,10.009,1.2727,0,0.00033634,3361.1,0.00011169,0.0045176,0.00010981,-14.091,-0.00033658,-3368.1,0.51315
13805,10.101,1.2727,0.05,9.1503e-07,9.144,7.0263e-07,5.2792,8.2965e-13,3.1973e-07,-7.0263e-07,-5.2793,0.5218
13806,10.101,1,0,0.00033427,3340.4,0.00011073,0.0048394,0.00010959,-8.5786,-0.00033441,-3344.6,0.52072
13807,10.009,1.0909,0,0.00033664,3364.1,0.00011165,0.0047178,0.00011016,-11.19,-0.00033683,-3369.7,0.51243
13808,10.101,1.0909,0.05,9.1433e-07,9.137,7.0209e-07,5.2752,1.7327e-12,4.563e-07,-7.021e-07,-5.2753,0.52108
13809,10.101,0.81818,0,0.00033459,3343.6,0.00011069,0.0051799,0.00010995,-5.5405,-0.00033468,-3346.3,0.5199
13810,10.009,0.90909,0,0.00033696,3367.3,0.0001116,0.0048363,0.00011052,-8.0838,-0.0003371,-3371.3,0.51164
13811,10.101,0.90909,0.05,9.1354e-07,9.1291,7.0148e-07,5.2706,2.6445e-12,2.4933e-07,-7.0149e-07,-5.2707,0.5203
13812,10.101,0.63636,0,0.00033492,3346.9,0.00011064,0.0052041,0.00011033,-2.3374,-0.00033496,-3348.1,0.51901
13813,10.009,0.72727,0,0.00033731,3370.7,0.00011155,0.0053493,0.00011091,-4.7944,-0.00033739,-3373.1,0.51077
13814,10.101,0.72727,0.05,9.1246e-07,9.1183,7.0065e-07,5.2644,3.5611e-12,1.0818e-06,-7.0066e-07,-5.2645,0.51944
13815,10.101,0.45455,0,0.00033528,3350.5,0.00011073,1.0436,0.00011059,0.0060772,-0.00033527,-3350,0.51804
13816,10.009,0.54545,0,0.00033767,3374.4,0.0001115,0.004481,0.00011132,-1.3419,-0.00033769,-3375,0.50984
13817,10.101,0.54545,0.05,9.0825e-07,9.0762,6.9742e-07,5.2401,2.6993e-12,1.5376e-06,-6.9743e-07,-5.2402,0.51851
13818,10.101,0.27273,0,0.00033574,3355.1,0.00011122,5.0896,0.00011054,-0.00043951,-0.00033565,-3352.6,0.517
13819,10.009,0.36364,0,0.00033806,3378.2,0.00011175,2.3152,0.00011144,0.010602,-0.00033802,-3377.1,0.50883
13820,10.101,0.36364,0.05,8.5732e-07,8.5673,6.5831e-07,4.9463,2.7085e-12,1.4491e-06,-6.5832e-07,-4.9464,0.5175
13821,10.009,0.18182,0,0.00033862,3383.8,0.00011234,7.1551,0.00011139,-0.012055,-0.00033849,-3380.3,0.50774
13822,10.101,0.18182,0.05,9.5277e-08,0.95212,7.3159e-08,0.54965,1.3568e-12,-1.6393e-05,-7.3164e-08,-0.54976,0.51643
13823,10.101,0.090909,0,0.00033565,3354.1,0.00011121,5.3713,0.0001105,-0.0024395,-0.00033555,-3351.5,0.51589
13824,9.9173,5.7273,0,0.00034092,3406.8,0.00011286,4.3015,0.00011229,-0.0015515,-0.00034085,-3404.7,0.49965
13825,9.8255,5.8182,0,0.00034382,3435.8,0.00011401,6.516,0.00011314,-0.015222,-0.00034371,-3432.6,0.4905
13826,9.9173,5.8182,0.05,1.0687e-07,1.068,8.207e-08,0.61667,-8.4078e-13,1.8081e-05,-8.2062e-08,-0.61656,0.49907
13827,9.9173,5.9091,0,0.00034086,3406.3,0.0001129,5.0029,0.00011224,-0.0033251,-0.00034078,-3403.8,0.49852
13828,9.9173,5.5455,0,0.00034044,3402,0.00011235,0.0077366,0.00011234,-0.09089,-0.00034044,-3402.1,0.5007
13829,9.8255,5.6364,0,0.00034323,3429.9,0.00011338,1.328,0.0001132,0.011583,-0.00034321,-3429.3,0.49159
13830,9.9173,5.6364,0.05,8.6252e-07,8.6192,6.6231e-07,4.9764,-3.5491e-12,2.164e-06,-6.623e-07,-4.9762,0.50016
13831,9.9173,5.3636,0,0.00034005,3398.1,0.00011241,0.0047468,0.0001119,-3.8176,-0.00034011,-3400,0.50168
13832,9.8255,5.4545,0,0.00034281,3425.8,0.00011326,0.0041661,0.0001129,-2.6943,-0.00034286,-3427.1,0.49262
13833,9.9173,5.4545,0.05,9.1315e-07,9.1252,7.0119e-07,5.2685,-3.5315e-12,2.8254e-06,-7.0118e-07,-5.2684,0.50117
13834,9.9173,5.1818,0,0.00033968,3394.5,0.00011246,0.0050763,0.00011148,-7.3555,-0.00033981,-3398.1,0.50258
13835,9.8255,5.2727,0,0.00034242,3421.9,0.00011332,0.0054118,0.00011246,-6.5007,-0.00034253,-3425.1,0.49356
13836,9.9173,5.2727,0.05,9.1739e-07,9.1676,7.0445e-07,5.293,-3.5413e-12,1.7883e-06,-7.0444e-07,-5.2929,0.50212
13837,9.9173,5,0,0.00033934,3391,0.00011251,0.0047537,0.00011109,-10.712,-0.00033952,-3396.4,0.50342
13838,9.8255,5.0909,0,0.00034205,3418.2,0.00011338,0.0048337,0.00011203,-10.129,-0.00034222,-3423.2,0.49444
13839,9.9173,5.0909,0.05,9.1852e-07,9.1788,7.0531e-07,5.2995,-3.528e-12,1.8909e-06,-7.053e-07,-5.2993,0.50298
13840,9.9173,4.8182,0,0.00033901,3387.8,0.00011256,0.004585,0.00011072,-13.865,-0.00033925,-3394.7,0.50418
13841,9.8255,4.9091,0,0.00034171,3414.7,0.00011343,0.0046921,0.00011163,-13.556,-0.00034193,-3421.5,0.49524
13842,9.9173,4.9091,0.05,9.1935e-07,9.1872,7.0595e-07,5.3043,-3.5561e-12,9.6673e-07,-7.0595e-07,-5.3042,0.50378
13843,9.9173,4.6364,0,0.00033872,3384.8,0.00011261,0.0043836,0.00011037,-16.793,-0.000339,-3393.2,0.50486
13844,9.8255,4.7273,0,0.00034138,3411.5,0.00011349,0.0044495,0.00011125,-16.757,-0.00034166,-3419.8,0.49597
13845,9.9173,4.7273,0.05,9.2008e-07,9.1945,7.0651e-07,5.3084,-3.5261e-12,5.9413e-07,-7.065e-07,-5.3084,0.5045
13846,9.9173,4.4545,0,0.00033844,3382.1,0.00011265,0.0041982,0.00011006,-19.473,-0.00033877,-3391.8,0.50548
13847,9.8255,4.5455,0,0.00034108,3408.5,0.00011353,0.0042404,0.00011091,-19.71,-0.00034141,-3418.3,0.49662
13848,9.9173,4.5455,0.05,9.2072e-07,9.2009,7.07e-07,5.3122,-3.5432e-12,1.4484e-06,-7.07e-07,-5.3121,0.50515
13849,9.9173,4.2727,0,0.0003382,3379.6,0.00011269,0.0040221,0.00010977,-21.886,-0.00033856,-3390.5,0.50602
13850,9.8255,4.3636,0,0.00034081,3405.8,0.00011358,0.0040355,0.0001106,-22.393,-0.00034119,-3416.9,0.4972
13851,9.9173,4.3636,0.05,9.2128e-07,9.2064,7.0743e-07,5.3154,-3.549e-12,7.9769e-07,-7.0743e-07,-5.3153,0.50573
13852,9.9173,4.0909,0,0.00033798,3377.5,0.00011272,0.0038627,0.00010953,-24.016,-0.00033838,-3389.4,0.50649
13853,9.8255,4.1818,0,0.00034057,3403.4,0.00011362,0.0038493,0.00011032,-24.785,-0.00034099,-3415.7,0.49771
13854,9.9173,4.1818,0.05,9.2176e-07,9.2112,7.078e-07,5.3182,-1.7259e-12,7.4591e-07,-7.0779e-07,-5.318,0.50624
13855,9.9173,3.9091,0,0.0003378,3375.6,0.00011275,0.0037214,0.00010931,-25.845,-0.00033823,-3388.5,0.50688
13856,9.8255,4,0,0.00034036,3401.3,0.00011365,0.0036826,0.00011007,-26.87,-0.00034081,-3414.7,0.49814
13857,9.9173,4,0.05,9.2216e-07,9.2152,7.0811e-07,5.3204,-2.6482e-12,6.3195e-07,-7.081e-07,-5.3204,0.50667
13858,9.9173,3.7273,0,0.00033765,3374.1,0.00011278,0.0036015,0.00010913,-27.361,-0.0003381,-3387.7,0.50721
13859,9.8255,3.8182,0,0.00034019,3399.5,0.00011368,0.0035374,0.00010987,-28.632,-0.00034067,-3413.8,0.49851
13860,9.9173,3.8182,0.05,9.2248e-07,9.2185,7.0836e-07,5.3223,7.2158e-14,7.8334e-07,-7.0835e-07,-5.3222,0.50703
13861,9.9173,3.5455,0,0.00033753,3372.9,0.00011279,0.0035066,0.00010899,-28.552,-0.000338,-3387.1,0.50746
13862,9.8255,3.6364,0,0.00034005,3398.1,0.0001137,0.0034183,0.0001097,-30.058,-0.00034055,-3413,0.4988
13863,9.9173,3.6364,0.05,9.2274e-07,9.221,7.0855e-07,5.3238,-8.5027e-13,1.8556e-06,-7.0855e-07,-5.3238,0.50732
13864,9.9173,3.3636,0,0.00033744,3372.1,0.00011281,0.0034375,0.00010889,-29.409,-0.00033793,-3386.7,0.50764
13865,9.8255,3.4545,0,0.00033994,3397,0.00011372,0.0033283,0.00010957,-31.137,-0.00034046,-3412.5,0.49901
13866,9.9173,3.4545,0.05,9.2293e-07,9.2229,7.087e-07,5.3249,-2.6863e-12,1.5077e-06,-7.087e-07,-5.3249,0.50753
13867,9.9173,3.1818,0,0.00033739,3371.5,0.00011282,0.0033947,0.00010883,-29.926,-0.00033789,-3386.4,0.50775
13868,9.8255,3.2727,0,0.00033987,3396.3,0.00011373,0.0032663,0.00010949,-31.86,-0.0003404,-3412.1,0.49916
13869,9.9173,3.2727,0.05,9.2306e-07,9.2242,7.0879e-07,5.3256,-8.8406e-13,1.1466e-06,-7.088e-07,-5.3256,0.50768
13870,9.9173,3,0,0.00033737,3371.4,0.00011282,0.0033802,0.00010881,-30.098,-0.00033787,-3386.3,0.50778
13871,9.8255,3.0909,0,0.00033983,3396,0.00011374,0.0032347,0.00010945,-32.224,-0.00034037,-3411.9,0.49923
13872,9.9173,3.0909,0.05,9.2312e-07,9.2248,7.0884e-07,5.326,8.5271e-15,1.0182e-06,-7.0884e-07,-5.3259,0.50775
13873,9.9173,2.8182,0,0.00033739,3371.5,0.00011282,0.0033946,0.00010883,-29.926,-0.00033789,-3386.4,0.50775
13874,9.8255,2.9091,0,0.00033983,3396,0.00011374,0.0032346,0.00010945,-32.224,-0.00034037,-3411.9,0.49923
13875,9.9173,2.9091,0.05,9.2312e-07,9.2248,7.0884e-07,5.326,-8.477e-15,1.367e-06,-7.0884e-07,-5.3259,0.50775
13876,9.9173,2.6364,0,0.00033744,3372.1,0.00011281,0.0034374,0.00010889,-29.409,-0.00033793,-3386.7,0.50764
13877,9.8255,2.7273,0,0.00033987,3396.3,0.00011373,0.0032666,0.00010949,-31.86,-0.0003404,-3412.1,0.49916
13878,9.9173,2.7273,0.05,9.2306e-07,9.2242,7.0879e-07,5.3256,-2.5576e-14,1.2415e-06,-7.0879e-07,-5.3256,0.50768
13879,9.9173,2.4545,0,0.00033753,3372.9,0.00011279,0.0035067,0.00010899,-28.552,-0.000338,-3387.1,0.50746
13880,9.8255,2.5455,0,0.00033994,3397,0.00011372,0.0033285,0.00010957,-31.137,-0.00034046,-3412.5,0.49901
13881,9.9173,2.5455,0.05,9.2293e-07,9.2229,7.087e-07,5.3249,-4.0837e-14,6.4123e-07,-7.087e-07,-5.3249,0.50753
13882,9.9173,2.2727,0,0.00033765,3374.1,0.00011278,0.0036021,0.00010913,-27.361,-0.0003381,-3387.7,0.50721
13883,9.8255,2.3636,0,0.00034005,3398.1,0.0001137,0.0034185,0.0001097,-30.058,-0.00034055,-3413,0.4988
13884,9.9173,2.3636,0.05,9.2274e-07,9.221,7.0855e-07,5.3238,-5.3258e-14,7.73e-07,-7.0855e-07,-5.3238,0.50732
13885,9.9173,2.0909,0,0.0003378,3375.6,0.00011275,0.0037223,0.00010931,-25.845,-0.00033823,-3388.5,0.50688
13886,9.8255,2.1818,0,0.00034019,3399.5,0.00011368,0.003538,0.00010987,-28.632,-0.00034067,-3413.8,0.49851
13887,9.9173,2.1818,0.05,9.2248e-07,9.2185,7.0835e-07,5.3223,-7.3014e-14,6.7824e-07,-7.0835e-07,-5.3223,0.50703
13888,9.9173,1.9091,0,0.00033798,3377.5,0.00011272,0.0038634,0.00010953,-24.016,-0.00033838,-3389.4,0.50649
13889,9.8255,2,0,0.00034036,3401.3,0.00011365,0.0036829,0.00011007,-26.87,-0.00034081,-3414.7,0.49814
13890,9.9173,2,0.05,9.2216e-07,9.2152,7.081e-07,5.3204,1.737e-12,5.9601e-07,-7.081e-07,-5.3204,0.50667
13891,9.9173,1.7273,0,0.0003382,3379.6,0.00011269,0.0040227,0.00010977,-21.886,-0.00033856,-3390.5,0.50602
13892,9.8255,1.8182,0,0.00034057,3403.4,0.00011362,0.0038496,0.00011032,-24.785,-0.00034099,-3415.7,0.49771
13893,9.9173,1.8182,0.05,9.2176e-07,9.2112,7.0779e-07,5.3181,1.7283e-12,7.2433e-07,-7.078e-07,-5.3181,0.50624
13894,9.9173,1.5455,0,0.00033844,3382.1,0.00011265,0.0041987,0.00011006,-19.473,-0.00033877,-3391.8,0.50548
13895,9.8255,1.6364,0,0.00034081,3405.8,0.00011358,0.0040359,0.0001106,-22.393,-0.00034119,-3416.9,0.4972
13896,9.9173,1.6364,0.05,9.2128e-07,9.2064,7.0743e-07,5.3153,8.2285e-13,7.1281e-07,-7.0743e-07,-5.3154,0.50573
13897,9.9173,1.3636,0,0.00033872,3384.8,0.00011261,0.0043839,0.00011037,-16.793,-0.000339,-3393.2,0.50486
13898,9.8255,1.4545,0,0.00034108,3408.5,0.00011353,0.0042409,0.00011091,-19.71,-0.00034141,-3418.3,0.49662
13899,9.9173,1.4545,0.05,9.2072e-07,9.2009,7.07e-07,5.3121,8.1399e-13,9.6464e-07,-7.07e-07,-5.3121,0.50515
13900,9.9173,1.1818,0,0.00033901,3387.8,0.00011256,0.0045854,0.00011072,-13.865,-0.00033925,-3394.7,0.50418
13901,9.8255,1.2727,0,0.00034138,3411.5,0.00011349,0.00445,0.00011125,-16.757,-0.00034166,-3419.8,0.49597
13902,9.9173,1.2727,0.05,9.2008e-07,9.1945,7.0651e-07,5.3084,-9.4434e-14,8.3467e-07,-7.0651e-07,-5.3084,0.5045
13903,9.9173,1,0,0.00033934,3391,0.00011251,0.0047546,0.00011109,-10.712,-0.00033952,-3396.4,0.50342
13904,9.8255,1.0909,0,0.00034171,3414.7,0.00011343,0.0046926,0.00011163,-13.556,-0.00034193,-3421.5,0.49524
13905,9.9173,1.0909,0.05,9.1935e-07,9.1872,7.0595e-07,5.3042,1.7327e-12,5.1611e-07,-7.0595e-07,-5.3042,0.50378
13906,9.9173,0.81818,0,0.00033968,3394.5,0.00011246,0.0050775,0.00011148,-7.3555,-0.00033981,-3398.1,0.50258
13907,9.8255,0.90909,0,0.00034205,3418.2,0.00011338,0.0048348,0.00011203,-10.129,-0.00034223,-3423.2,0.49444
13908,9.9173,0.90909,0.05,9.1852e-07,9.1788,7.053e-07,5.2994,2.6375e-12,5.8073e-07,-7.0531e-07,-5.2994,0.50298
13909,9.9173,0.63636,0,0.00034005,3398.1,0.00011241,0.0047478,0.0001119,-3.8176,-0.00034011,-3400,0.50168
13910,9.8255,0.72727,0,0.00034242,3421.9,0.00011332,0.0054131,0.00011246,-6.5007,-0.00034253,-3425.1,0.49356
13911,9.9173,0.72727,0.05,9.1739e-07,9.1676,7.0444e-07,5.2929,1.7553e-12,1.0086e-06,-7.0444e-07,-5.293,0.50212
13912,9.9173,0.45455,0,0.00034044,3402,0.00011235,0.0077367,0.00011234,-0.090921,-0.00034044,-3402.1,0.5007
13913,9.8255,0.54545,0,0.00034281,3425.8,0.00011326,0.004167,0.0001129,-2.6943,-0.00034286,-3427.1,0.49262
13914,9.9173,0.54545,0.05,9.1315e-07,9.1252,7.0118e-07,5.2684,2.6423e-12,1.7286e-06,-7.0119e-07,-5.2685,0.50117
13915,9.9173,0.27273,0,0.00034092,3406.8,0.00011286,4.3015,0.00011229,-0.0015509,-0.00034085,-3404.7,0.49965
13916,9.8255,0.36364,0,0.00034323,3429.9,0.00011338,1.328,0.0001132,0.011584,-0.00034321,-3429.3,0.49159
13917,9.9173,0.36364,0.05,8.6252e-07,8.6192,6.623e-07,4.9763,3.6094e-12,1.5801e-06,-6.6231e-07,-4.9763,0.50016
13918,9.8255,0.18182,0,0.00034382,3435.8,0.00011401,6.516,0.00011314,-0.015221,-0.00034371,-3432.6,0.4905
13919,9.9173,0.18182,0.05,1.0688e-07,1.068,8.2066e-08,0.61657,1.8347e-12,-1.6516e-05,-8.2068e-08,-0.61667,0.49907
13920,9.9173,0.090909,0,0.00034086,3406.3,0.0001129,5.0028,0.00011224,-0.0033239,-0.00034078,-3403.8,0.49852
13921,9.7337,5.7273,0,0.00034612,3458.8,0.00011451,3.4666,0.00011405,-0.0040571,-0.00034606,-3457.1,0.48252
13922,9.6418,5.8182,0,0.00034904,3488,0.00011567,5.8407,0.00011489,-0.019557,-0.00034894,-3485.1,0.47348
13923,9.7337,5.8182,0.05,1.1962e-07,1.1954,9.1854e-08,0.6902,-8.3262e-13,2.3535e-05,-9.185e-08,-0.69007,0.48193
13924,9.7337,5.9091,0,0.0003461,3458.7,0.0001146,4.614,0.00011399,-0.0046876,-0.00034603,-3456.4,0.48138
13925,9.7337,5.5455,0,0.00034561,3453.7,0.00011412,0.0090454,0.00011394,-1.2978,-0.00034563,-3454.3,0.48359
13926,9.6418,5.6364,0,0.00034843,3481.9,0.00011501,0.28839,0.00011497,0.0021365,-0.00034842,-3481.7,0.47459
13927,9.7337,5.6364,0.05,8.6794e-07,8.6734,6.6647e-07,5.0077,-3.5452e-12,2.7692e-06,-6.6646e-07,-5.0075,0.48304
13928,9.7337,5.3636,0,0.00034519,3449.5,0.00011418,0.0049029,0.00011346,-5.3956,-0.00034528,-3452.2,0.48458
13929,9.6418,5.4545,0,0.00034798,3477.4,0.00011504,0.0045462,0.00011449,-4.1363,-0.00034805,-3479.5,0.47563
13930,9.7337,5.4545,0.05,9.1822e-07,9.1759,7.0508e-07,5.2978,-5.3344e-12,2.7152e-06,-7.0508e-07,-5.2976,0.48407
13931,9.7337,5.1818,0,0.00034479,3445.6,0.00011424,0.0052083,0.000113,-9.2914,-0.00034495,-3450.2,0.4855
13932,9.6418,5.2727,0,0.00034756,3473.2,0.00011511,0.0057216,0.000114,-8.3215,-0.0003477,-3477.3,0.47659
13933,9.7337,5.2727,0.05,9.225e-07,9.2186,7.0837e-07,5.3224,-3.5658e-12,1.6448e-06,-7.0836e-07,-5.3223,0.48502
13934,9.7337,5,0,0.00034442,3441.8,0.0001143,0.0047953,0.00011257,-12.989,-0.00034464,-3448.3,0.48634
13935,9.6418,5.0909,0,0.00034716,3469.2,0.00011517,0.0049618,0.00011353,-12.313,-0.00034737,-3475.3,0.47747
13936,9.7337,5.0909,0.05,9.2367e-07,9.2303,7.0927e-07,5.3292,-3.5226e-12,1.7418e-06,-7.0926e-07,-5.3291,0.4859
13937,9.7337,4.8182,0,0.00034407,3438.3,0.00011436,0.0045715,0.00011217,-16.464,-0.00034435,-3446.5,0.48711
13938,9.6418,4.9091,0,0.00034678,3465.4,0.00011523,0.0047446,0.00011309,-16.083,-0.00034705,-3473.4,0.47828
13939,9.7337,4.9091,0.05,9.2455e-07,9.2391,7.0994e-07,5.3342,-3.5142e-12,1.3809e-06,-7.0994e-07,-5.3342,0.48671
13940,9.7337,4.6364,0,0.00034375,3435.1,0.00011441,0.004316,0.00011179,-19.69,-0.00034408,-3444.9,0.4878
13941,9.6418,4.7273,0,0.00034643,3461.9,0.00011529,0.0044283,0.00011268,-19.607,-0.00034676,-3471.7,0.47902
13942,9.7337,4.7273,0.05,9.2531e-07,9.2467,7.1052e-07,5.3386,-2.6206e-12,7.2584e-07,-7.1052e-07,-5.3386,0.48744
13943,9.7337,4.4545,0,0.00034345,3432.2,0.00011446,0.004084,0.00011145,-22.645,-0.00034383,-3443.4,0.48842
13944,9.6418,4.5455,0,0.00034611,3458.7,0.00011535,0.0041605,0.0001123,-22.858,-0.00034649,-3470.1,0.47968
13945,9.7337,4.5455,0.05,9.2598e-07,9.2534,7.1104e-07,5.3425,-1.6788e-12,1.3161e-06,-7.1104e-07,-5.3424,0.4881
13946,9.7337,4.2727,0,0.00034319,3429.5,0.0001145,0.0038667,0.00011113,-25.306,-0.00034361,-3442.1,0.48897
13947,9.6418,4.3636,0,0.00034582,3455.8,0.0001154,0.0039043,0.00011196,-25.811,-0.00034625,-3468.6,0.48027
13948,9.7337,4.3636,0.05,9.2656e-07,9.2592,7.1148e-07,5.3458,-2.6171e-12,8.803e-07,-7.1148e-07,-5.3458,0.48868
13949,9.7337,4.0909,0,0.00034295,3427.2,0.00011454,0.0036716,0.00011086,-27.654,-0.00034342,-3440.9,0.48945
13950,9.6418,4.1818,0,0.00034556,3453.2,0.00011544,0.0036742,0.00011165,-28.446,-0.00034603,-3467.3,0.48078
13951,9.7337,4.1818,0.05,9.2706e-07,9.2642,7.1187e-07,5.3487,-1.7087e-12,5.9028e-07,-7.1186e-07,-5.3486,0.48919
13952,9.7337,3.9091,0,0.00034275,3425.2,0.00011458,0.0034997,0.00011063,-29.671,-0.00034325,-3439.9,0.48985
13953,9.6418,4,0,0.00034533,3450.9,0.00011548,0.0034703,0.00011139,-30.742,-0.00034584,-3466.2,0.48122
13954,9.7337,4,0.05,9.2747e-07,9.2683,7.1218e-07,5.3511,-1.7217e-12,7.5417e-07,-7.1218e-07,-5.351,0.48963
13955,9.7337,3.7273,0,0.00034259,3423.5,0.0001146,0.0033544,0.00011043,-31.343,-0.00034311,-3439.1,0.49017
13956,9.6418,3.8182,0,0.00034514,3449,0.00011551,0.0032942,0.00011116,-32.683,-0.00034568,-3465.2,0.48159
13957,9.7337,3.8182,0.05,9.2781e-07,9.2717,7.1244e-07,5.353,-3.5546e-12,5.9255e-07,-7.1244e-07,-5.353,0.48999
13958,9.7337,3.5455,0,0.00034246,3422.2,0.00011462,0.0032397,0.00011028,-32.656,-0.000343,-3438.4,0.49043
13959,9.6418,3.6364,0,0.00034498,3447.4,0.00011554,0.0031503,0.00011098,-34.253,-0.00034555,-3464.4,0.48188
13960,9.7337,3.6364,0.05,9.2807e-07,9.2743,7.1265e-07,5.3546,-8.4247e-13,9.8963e-07,-7.1264e-07,-5.3545,0.49029
13961,9.7337,3.3636,0,0.00034236,3421.3,0.00011464,0.0031564,0.00011017,-33.601,-0.00034292,-3437.9,0.49061
13962,9.6418,3.4545,0,0.00034487,3446.3,0.00011556,0.0030416,0.00011084,-35.442,-0.00034546,-3463.9,0.4821
13963,9.7337,3.4545,0.05,9.2827e-07,9.2763,7.128e-07,5.3557,-1.771e-12,6.0042e-07,-7.1279e-07,-5.3556,0.4905
13964,9.7337,3.1818,0,0.00034231,3420.7,0.00011465,0.0031053,0.0001101,-34.171,-0.00034288,-3437.7,0.49072
13965,9.6418,3.2727,0,0.00034479,3445.5,0.00011557,0.0029673,0.00011075,-36.239,-0.00034539,-3463.5,0.48225
13966,9.7337,3.2727,0.05,9.284e-07,9.2776,7.1289e-07,5.3564,2.9024e-14,2.1919e-07,-7.129e-07,-5.3564,0.49065
13967,9.7337,3,0,0.00034229,3420.5,0.00011465,0.0030881,0.00011008,-34.362,-0.00034286,-3437.6,0.49076
13968,9.6418,3.0909,0,0.00034475,3445.1,0.00011558,0.0029298,0.0001107,-36.639,-0.00034536,-3463.3,0.48232
13969,9.7337,3.0909,0.05,9.2846e-07,9.2782,7.1294e-07,5.3568,-8.9982e-13,7.8797e-07,-7.1294e-07,-5.3568,0.49072
13970,9.7337,2.8182,0,0.00034231,3420.7,0.00011465,0.0031057,0.0001101,-34.171,-0.00034288,-3437.7,0.49072
13971,9.6418,2.9091,0,0.00034475,3445.1,0.00011558,0.0029295,0.0001107,-36.639,-0.00034536,-3463.3,0.48232
13972,9.7337,2.9091,0.05,9.2846e-07,9.2782,7.1294e-07,5.3568,-9.192e-13,1.1194e-06,-7.1294e-07,-5.3568,0.49072
13973,9.7337,2.6364,0,0.00034236,3421.3,0.00011464,0.003157,0.00011017,-33.601,-0.00034292,-3437.9,0.49061
13974,9.6418,2.7273,0,0.00034479,3445.5,0.00011557,0.0029676,0.00011075,-36.239,-0.00034539,-3463.5,0.48225
13975,9.7337,2.7273,0.05,9.284e-07,9.2776,7.1289e-07,5.3564,-2.8615e-14,1.216e-06,-7.1289e-07,-5.3564,0.49065
13976,9.7337,2.4545,0,0.00034246,3422.2,0.00011462,0.00324,0.00011028,-32.656,-0.000343,-3438.4,0.49043
13977,9.6418,2.5455,0,0.00034487,3446.3,0.00011556,0.003042,0.00011084,-35.442,-0.00034546,-3463.9,0.4821
13978,9.7337,2.5455,0.05,9.2827e-07,9.2763,7.128e-07,5.3557,-4.6702e-14,6.0152e-07,-7.128e-07,-5.3557,0.4905
13979,9.7337,2.2727,0,0.00034259,3423.5,0.0001146,0.0033547,0.00011043,-31.343,-0.00034311,-3439.1,0.49017
13980,9.6418,2.3636,0,0.00034498,3447.4,0.00011554,0.0031506,0.00011098,-34.253,-0.00034555,-3464.4,0.48188
13981,9.7337,2.3636,0.05,9.2807e-07,9.2743,7.1264e-07,5.3545,-6.5676e-14,1.212e-06,-7.1264e-07,-5.3545,0.49029
13982,9.7337,2.0909,0,0.00034275,3425.2,0.00011458,0.0034998,0.00011063,-29.671,-0.00034325,-3439.9,0.48985
13983,9.6418,2.1818,0,0.00034514,3449,0.00011551,0.0032946,0.00011116,-32.683,-0.00034568,-3465.2,0.48159
13984,9.7337,2.1818,0.05,9.2781e-07,9.2717,7.1244e-07,5.353,1.7396e-12,3.3416e-07,-7.1244e-07,-5.353,0.48999
13985,9.7337,1.9091,0,0.00034295,3427.2,0.00011454,0.0036714,0.00011086,-27.654,-0.00034342,-3440.9,0.48945
13986,9.6418,2,0,0.00034533,3450.9,0.00011548,0.0034704,0.00011139,-30.742,-0.00034584,-3466.2,0.48122
13987,9.7337,2,0.05,9.2747e-07,9.2683,7.1218e-07,5.351,1.7297e-12,7.3814e-07,-7.1218e-07,-5.3511,0.48963
13988,9.7337,1.7273,0,0.00034319,3429.5,0.0001145,0.0038668,0.00011113,-25.306,-0.00034361,-3442.1,0.48897
13989,9.6418,1.8182,0,0.00034556,3453.2,0.00011544,0.0036744,0.00011165,-28.446,-0.00034603,-3467.3,0.48078
13990,9.7337,1.8182,0.05,9.2706e-07,9.2642,7.1186e-07,5.3487,-1.1224e-13,4.145e-07,-7.1187e-07,-5.3487,0.48919
13991,9.7337,1.5455,0,0.00034345,3432.2,0.00011446,0.0040844,0.00011145,-22.645,-0.00034383,-3443.4,0.48842
13992,9.6418,1.6364,0,0.00034582,3455.8,0.0001154,0.0039047,0.00011196,-25.811,-0.00034625,-3468.6,0.48027
13993,9.7337,1.6364,0.05,9.2656e-07,9.2592,7.1148e-07,5.3458,7.9649e-13,3.1051e-07,-7.1148e-07,-5.3458,0.48868
13994,9.7337,1.3636,0,0.00034375,3435.1,0.00011441,0.0043167,0.00011179,-19.69,-0.00034408,-3444.9,0.4878
13995,9.6418,1.4545,0,0.00034611,3458.7,0.00011535,0.0041609,0.0001123,-22.858,-0.00034649,-3470.1,0.47968
13996,9.7337,1.4545,0.05,9.2598e-07,9.2534,7.1104e-07,5.3425,2.6001e-12,4.9985e-07,-7.1104e-07,-5.3425,0.4881
13997,9.7337,1.1818,0,0.00034407,3438.3,0.00011436,0.004572,0.00011217,-16.464,-0.00034435,-3446.5,0.48711
13998,9.6418,1.2727,0,0.00034643,3461.9,0.00011529,0.0044291,0.00011268,-19.607,-0.00034676,-3471.7,0.47902
13999,9.7337,1.2727,0.05,9.2531e-07,9.2467,7.1052e-07,5.3386,1.7181e-12,3.952e-07,-7.1052e-07,-5.3386,0.48744
14000,9.7337,1,0,0.00034442,3441.8,0.0001143,0.004796,0.00011257,-12.989,-0.00034464,-3448.3,0.48634
14001,9.6418,1.0909,0,0.00034678,3465.4,0.00011523,0.0047451,0.00011309,-16.084,-0.00034705,-3473.4,0.47828
14002,9.7337,1.0909,0.05,9.2455e-07,9.2391,7.0994e-07,5.3342,3.527e-12,1.2685e-07,-7.0994e-07,-5.3342,0.48671
14003,9.7337,0.81818,0,0.00034479,3445.6,0.00011424,0.0052096,0.000113,-9.2914,-0.00034495,-3450.2,0.4855
14004,9.6418,0.90909,0,0.00034716,3469.2,0.00011517,0.0049632,0.00011353,-12.313,-0.00034737,-3475.3,0.47747
14005,9.7337,0.90909,0.05,9.2367e-07,9.2303,7.0926e-07,5.3291,2.6219e-12,5.7804e-07,-7.0927e-07,-5.3292,0.4859
14006,9.7337,0.63636,0,0.00034519,3449.5,0.00011418,0.0049041,0.00011346,-5.3956,-0.00034528,-3452.2,0.48458
14007,9.6418,0.72727,0,0.00034756,3473.2,0.00011511,0.0057224,0.000114,-8.3215,-0.0003477,-3477.3,0.47659
14008,9.7337,0.72727,0.05,9.225e-07,9.2186,7.0836e-07,5.3223,3.5394e-12,7.7529e-07,-7.0836e-07,-5.3224,0.48502
14009,9.7337,0.45455,0,0.00034561,3453.7,0.00011412,0.0090466,0.00011394,-1.2978,-0.00034563,-3454.3,0.48359
14010,9.6418,0.54545,0,0.00034798,3477.4,0.00011504,0.004547,0.00011449,-4.1364,-0.00034805,-3479.5,0.47563
14011,9.7337,0.54545,0.05,9.1822e-07,9.1759,7.0508e-07,5.2977,1.7557e-12,1.0422e-06,-7.0508e-07,-5.2978,0.48407
14012,9.7337,0.27273,0,0.00034612,3458.8,0.00011451,3.4666,0.00011405,-0.0040557,-0.00034606,-3457.1,0.48252
14013,9.6418,0.36364,0,0.00034843,3481.9,0.00011501,0.28837,0.00011497,0.0021373,-0.00034842,-3481.7,0.47459
14014,9.7337,0.36364,0.05,8.6794e-07,8.6734,6.6647e-07,5.0076,3.5776e-12,6.3149e-07,-6.6647e-07,-5.0076,0.48304
14015,9.6418,0.18182,0,0.00034904,3488,0.00011567,5.8406,0.00011489,-0.019556,-0.00034894,-3485.1,0.47348
14016,9.7337,0.18182,0.05,1.1962e-07,1.1954,9.185e-08,0.69011,1.522e-12,-1.3486e-05,-9.1855e-08,-0.69018,0.48193
14017,9.7337,0.090909,0,0.0003461,3458.7,0.0001146,4.614,0.00011399,-0.0046869,-0.00034603,-3456.4,0.48138
14018,9.55,5.7273,0,0.00035134,3511,0.00011616,2.5829,0.00011581,-0.0096758,-0.0003513,-3509.7,0.46563
14019,9.4582,5.8182,0,0.00035429,3540.4,0.00011734,5.1271,0.00011666,-0.025683,-0.0003542,-3537.9,0.4567
14020,9.55,5.8182,0.05,1.3359e-07,1.335,1.0259e-07,0.77083,-3.0146e-12,2.6043e-05,-1.0258e-07,-0.7707,0.46504
14021,9.55,5.9091,0,0.00035137,3511.3,0.0001163,4.2036,0.00011574,-0.0067441,-0.0003513,-3509.2,0.46447
14022,9.55,5.5455,0,0.0003508,3505.5,0.00011589,0.010648,0.00011555,-2.584,-0.00035084,-3506.8,0.46671
14023,9.4582,5.6364,0,0.00035364,3534,0.00011675,0.024483,0.00011663,-0.85102,-0.00035366,-3534.4,0.45782
14024,9.55,5.6364,0.05,8.7362e-07,8.7302,6.7084e-07,5.0404,-5.3128e-12,2.018e-06,-6.7083e-07,-5.0403,0.46615
14025,9.55,5.3636,0,0.00035035,3501,0.00011597,0.0053067,0.00011502,-7.0798,-0.00035047,-3504.6,0.46771
14026,9.4582,5.4545,0,0.00035316,3529.2,0.00011682,0.0051546,0.00011607,-5.6754,-0.00035326,-3532,0.45887
14027,9.55,5.4545,0.05,9.2349e-07,9.2286,7.0913e-07,5.3282,-3.5129e-12,2.7447e-06,-7.0913e-07,-5.3281,0.4672
14028,9.55,5.1818,0,0.00034992,3496.8,0.00011604,0.0054788,0.00011452,-11.359,-0.00035011,-3502.4,0.46864
14029,9.4582,5.2727,0,0.00035271,3524.6,0.0001169,0.0061917,0.00011553,-10.267,-0.00035288,-3529.8,0.45984
14030,9.55,5.2727,0.05,9.278e-07,9.2716,7.1244e-07,5.353,-3.5187e-12,1.612e-06,-7.1243e-07,-5.3529,0.46816
14031,9.55,5,0,0.00034952,3492.8,0.0001161,0.0049179,0.00011405,-15.423,-0.00034978,-3500.4,0.46949
14032,9.4582,5.0909,0,0.00035228,3520.3,0.00011698,0.0051911,0.00011503,-14.648,-0.00035252,-3527.6,0.46074
14033,9.55,5.0909,0.05,9.2902e-07,9.2838,7.1338e-07,5.3601,-3.5027e-12,1.7968e-06,-7.1337e-07,-5.36,0.46905
14034,9.55,4.8182,0,0.00034914,3489,0.00011617,0.0046068,0.00011361,-19.242,-0.00034946,-3498.6,0.47027
14035,9.4582,4.9091,0,0.00035187,3516.3,0.00011705,0.0048654,0.00011455,-18.788,-0.00035218,-3525.6,0.46156
14036,9.55,4.9091,0.05,9.2994e-07,9.293,7.1409e-07,5.3654,-3.5011e-12,1.4976e-06,-7.1408e-07,-5.3653,0.46987
14037,9.55,4.6364,0,0.00034879,3485.5,0.00011623,0.0042764,0.00011319,-22.789,-0.00034917,-3496.8,0.47097
14038,9.4582,4.7273,0,0.00035149,3512.5,0.00011711,0.0044528,0.0001141,-22.657,-0.00035187,-3523.7,0.46231
14039,9.55,4.7273,0.05,9.3074e-07,9.301,7.147e-07,5.37,-3.4922e-12,7.7155e-07,-7.1469e-07,-5.3699,0.47061
14040,9.55,4.4545,0,0.00034847,3482.3,0.00011628,0.0039829,0.00011282,-26.038,-0.0003489,-3495.2,0.4716
14041,9.4582,4.5455,0,0.00035114,3509,0.00011717,0.0041101,0.00011368,-26.228,-0.00035158,-3522,0.46297
14042,9.55,4.5455,0.05,9.3144e-07,9.308,7.1523e-07,5.374,-3.4904e-12,1.321e-06,-7.1523e-07,-5.3739,0.47127
14043,9.55,4.2727,0,0.00034818,3479.4,0.00011633,0.0037127,0.00011248,-28.965,-0.00034867,-3493.8,0.47216
14044,9.4582,4.3636,0,0.00035082,3505.8,0.00011723,0.0037909,0.00011331,-29.473,-0.00035132,-3520.5,0.46357
14045,9.55,4.3636,0.05,9.3204e-07,9.314,7.1569e-07,5.3775,-2.6025e-12,1.0803e-06,-7.1569e-07,-5.3774,0.47186
14046,9.55,4.0909,0,0.00034793,3476.9,0.00011638,0.0034729,0.00011218,-31.548,-0.00034845,-3492.5,0.47264
14047,9.4582,4.1818,0,0.00035054,3503,0.00011728,0.0035077,0.00011297,-32.368,-0.00035108,-3519.1,0.46409
14048,9.55,4.1818,0.05,9.3256e-07,9.3191,7.1609e-07,5.3804,-3.5073e-12,9.0733e-07,-7.1609e-07,-5.3804,0.47238
14049,9.55,3.9091,0,0.00034771,3474.7,0.00011641,0.0032641,0.00011192,-33.767,-0.00034827,-3491.5,0.47304
14050,9.4582,4,0,0.0003503,3500.5,0.00011732,0.0032593,0.00011268,-34.891,-0.00035088,-3517.9,0.46453
14051,9.55,4,0.05,9.3298e-07,9.3234,7.1642e-07,5.3829,-3.5295e-12,8.2645e-07,-7.1641e-07,-5.3828,0.47282
14052,9.55,3.7273,0,0.00034753,3472.9,0.00011644,0.0030889,0.00011171,-35.607,-0.00034812,-3490.6,0.47337
14053,9.4582,3.8182,0,0.00035009,3498.5,0.00011736,0.0030471,0.00011243,-37.024,-0.0003507,-3516.8,0.4649
14054,9.55,3.8182,0.05,9.3333e-07,9.3269,7.1669e-07,5.3849,-1.7239e-12,1.8364e-07,-7.1668e-07,-5.3848,0.47319
14055,9.55,3.5455,0,0.00034739,3471.5,0.00011647,0.0029506,0.00011154,-37.052,-0.00034801,-3489.9,0.47363
14056,9.4582,3.6364,0,0.00034992,3496.8,0.00011739,0.0028744,0.00011223,-38.751,-0.00035056,-3516,0.4652
14057,9.55,3.6364,0.05,9.336e-07,9.3296,7.1689e-07,5.3865,7.1849e-14,1.0369e-06,-7.1689e-07,-5.3864,0.47349
14058,9.55,3.3636,0,0.00034729,3470.5,0.00011649,0.0028506,0.00011142,-38.092,-0.00034792,-3489.4,0.47382
14059,9.4582,3.4545,0,0.00034979,3495.5,0.00011741,0.0027438,0.00011208,-40.057,-0.00035046,-3515.4,0.46542
14060,9.55,3.4545,0.05,9.338e-07,9.3316,7.1704e-07,5.3876,-1.7634e-12,1.3595e-06,-7.1704e-07,-5.3876,0.47371
14061,9.55,3.1818,0,0.00034723,3469.9,0.0001165,0.0027898,0.00011134,-38.72,-0.00034787,-3489.1,0.47393
14062,9.4582,3.2727,0,0.00034971,3494.7,0.00011743,0.0026553,0.00011198,-40.933,-0.00035039,-3515,0.46557
14063,9.55,3.2727,0.05,9.3393e-07,9.3329,7.1715e-07,5.3884,-8.7624e-13,7.2066e-07,-7.1714e-07,-5.3883,0.47386
14064,9.55,3,0,0.00034721,3469.7,0.0001165,0.0027692,0.00011132,-38.929,-0.00034785,-3489,0.47396
14065,9.4582,3.0909,0,0.00034967,3494.3,0.00011743,0.0026104,0.00011193,-41.373,-0.00035035,-3514.8,0.46564
14066,9.55,3.0909,0.05,9.34e-07,9.3335,7.172e-07,5.3887,1.0931e-14,1.0361e-06,-7.1719e-07,-5.3887,0.47393
14067,9.55,2.8182,0,0.00034723,3469.9,0.0001165,0.0027895,0.00011134,-38.72,-0.00034787,-3489.1,0.47393
14068,9.4582,2.9091,0,0.00034967,3494.3,0.00011743,0.0026105,0.00011193,-41.373,-0.00035035,-3514.8,0.46564
14069,9.55,2.9091,0.05,9.34e-07,9.3335,7.172e-07,5.3887,-1.0878e-14,8.7204e-07,-7.1719e-07,-5.3887,0.47393
14070,9.55,2.6364,0,0.00034729,3470.5,0.00011649,0.0028507,0.00011142,-38.092,-0.00034792,-3489.4,0.47382
14071,9.4582,2.7273,0,0.00034971,3494.7,0.00011743,0.0026553,0.00011198,-40.933,-0.00035039,-3515,0.46557
14072,9.55,2.7273,0.05,9.3393e-07,9.3329,7.1715e-07,5.3883,-3.2488e-14,1.1847e-06,-7.1714e-07,-5.3883,0.47386
14073,9.55,2.4545,0,0.00034739,3471.5,0.00011647,0.0029511,0.00011154,-37.052,-0.00034801,-3489.9,0.47363
14074,9.4582,2.5455,0,0.00034979,3495.5,0.00011741,0.0027442,0.00011208,-40.057,-0.00035046,-3515.4,0.46542
14075,9.55,2.5455,0.05,9.338e-07,9.3316,7.1704e-07,5.3876,-5.2297e-14,7.6198e-08,-7.1704e-07,-5.3876,0.47371
14076,9.55,2.2727,0,0.00034753,3472.9,0.00011644,0.0030893,0.00011171,-35.607,-0.00034812,-3490.6,0.47337
14077,9.4582,2.3636,0,0.00034992,3496.8,0.00011739,0.0028745,0.00011223,-38.751,-0.00035056,-3516,0.4652
14078,9.55,2.3636,0.05,9.336e-07,9.3296,7.1689e-07,5.3864,-7.1463e-14,-5.2272e-08,-7.1689e-07,-5.3864,0.47349
14079,9.55,2.0909,0,0.00034771,3474.7,0.00011641,0.0032645,0.00011192,-33.767,-0.00034827,-3491.5,0.47304
14080,9.4582,2.1818,0,0.00035009,3498.5,0.00011736,0.0030474,0.00011243,-37.024,-0.0003507,-3516.8,0.4649
14081,9.55,2.1818,0.05,9.3333e-07,9.3269,7.1668e-07,5.3849,8.1563e-13,2.5943e-07,-7.1668e-07,-5.3849,0.47319
14082,9.55,1.9091,0,0.00034793,3476.9,0.00011638,0.0034734,0.00011218,-31.548,-0.00034845,-3492.5,0.47264
14083,9.4582,2,0,0.0003503,3500.5,0.00011732,0.0032598,0.00011268,-34.891,-0.00035088,-3517.9,0.46453
14084,9.55,2,0.05,9.3298e-07,9.3234,7.1641e-07,5.3828,8.0322e-13,-6.3127e-08,-7.1642e-07,-5.3829,0.47282
14085,9.55,1.7273,0,0.00034818,3479.4,0.00011633,0.0037132,0.00011248,-28.965,-0.00034867,-3493.8,0.47216
14086,9.4582,1.8182,0,0.00035054,3503,0.00011728,0.0035081,0.00011297,-32.368,-0.00035108,-3519.1,0.46409
14087,9.55,1.8182,0.05,9.3256e-07,9.3191,7.1609e-07,5.3804,-1.1542e-13,1.4184e-07,-7.1609e-07,-5.3804,0.47238
14088,9.55,1.5455,0,0.00034847,3482.3,0.00011628,0.0039833,0.00011282,-26.038,-0.0003489,-3495.2,0.4716
14089,9.4582,1.6364,0,0.00035082,3505.8,0.00011723,0.0037915,0.00011331,-29.473,-0.00035132,-3520.5,0.46357
14090,9.55,1.6364,0.05,9.3204e-07,9.314,7.157e-07,5.3774,-1.1736e-13,1.0852e-07,-7.1569e-07,-5.3774,0.47186
14091,9.55,1.3636,0,0.00034879,3485.5,0.00011623,0.0042769,0.00011319,-22.789,-0.00034917,-3496.8,0.47097
14092,9.4582,1.4545,0,0.00035114,3509,0.00011717,0.004111,0.00011368,-26.228,-0.00035158,-3522,0.46297
14093,9.55,1.4545,0.05,9.3144e-07,9.308,7.1523e-07,5.3739,1.6957e-12,-2.6627e-09,-7.1523e-07,-5.374,0.47127
14094,9.55,1.1818,0,0.00034914,3489,0.00011617,0.0046075,0.00011361,-19.242,-0.00034946,-3498.6,0.47027
14095,9.4582,1.2727,0,0.00035149,3512.5,0.00011711,0.0044534,0.0001141,-22.657,-0.00035187,-3523.7,0.46231
14096,9.55,1.2727,0.05,9.3074e-07,9.301,7.1469e-07,5.3699,1.6809e-12,-9.2543e-08,-7.147e-07,-5.37,0.47061
14097,9.55,1,0,0.00034952,3492.8,0.0001161,0.0049191,0.00011405,-15.423,-0.00034978,-3500.4,0.46949
14098,9.4582,1.0909,0,0.00035187,3516.3,0.00011705,0.0048661,0.00011455,-18.788,-0.00035218,-3525.6,0.46156
14099,9.55,1.0909,0.05,9.2994e-07,9.293,7.1408e-07,5.3653,1.705e-12,-9.2248e-08,-7.1408e-07,-5.3654,0.46987
14100,9.55,0.81818,0,0.00034992,3496.8,0.00011604,0.0054798,0.00011452,-11.359,-0.00035011,-3502.4,0.46864
14101,9.4582,0.90909,0,0.00035228,3520.3,0.00011698,0.0051927,0.00011503,-14.648,-0.00035252,-3527.6,0.46074
14102,9.55,0.90909,0.05,9.2902e-07,9.2838,7.1337e-07,5.36,3.5004e-12,4.24e-07,-7.1338e-07,-5.36,0.46905
14103,9.55,0.63636,0,0.00035035,3501,0.00011597,0.0053071,0.00011502,-7.0798,-0.00035047,-3504.6,0.46771
14104,9.4582,0.72727,0,0.00035271,3524.6,0.0001169,0.0061924,0.00011553,-10.267,-0.00035288,-3529.8,0.45984
14105,9.55,0.72727,0.05,9.278e-07,9.2716,7.1243e-07,5.3529,3.4952e-12,4.5383e-07,-7.1244e-07,-5.353,0.46816
14106,9.55,0.45455,0,0.0003508,3505.5,0.00011589,0.010649,0.00011555,-2.584,-0.00035084,-3506.8,0.46671
14107,9.4582,0.54545,0,0.00035316,3529.2,0.00011682,0.0051549,0.00011607,-5.6755,-0.00035326,-3532,0.45887
14108,9.55,0.54545,0.05,9.2349e-07,9.2286,7.0913e-07,5.3281,2.6165e-12,8.2535e-08,-7.0913e-07,-5.3282,0.4672
14109,9.55,0.27273,0,0.00035134,3511,0.00011616,2.5829,0.00011581,-0.0096749,-0.0003513,-3509.7,0.46563
14110,9.4582,0.36364,0,0.00035364,3534,0.00011675,0.024484,0.00011663,-0.85104,-0.00035366,-3534.4,0.45782
14111,9.55,0.36364,0.05,8.7362e-07,8.7302,6.7083e-07,5.0403,2.6173e-12,3.8954e-07,-6.7083e-07,-5.0404,0.46615
14112,9.4582,0.18182,0,0.00035429,3540.4,0.00011734,5.1271,0.00011666,-0.025682,-0.0003542,-3537.9,0.4567
14113,9.55,0.18182,0.05,1.3359e-07,1.335,1.0258e-07,0.77072,5.3857e-13,-2.0189e-05,-1.0259e-07,-0.77082,0.46504
14114,9.55,0.090909,0,0.00035137,3511.3,0.0001163,4.2036,0.00011574,-0.006743,-0.0003513,-3509.2,0.46447
14115,9.3663,5.7273,0,0.00035658,3563.4,0.00011781,1.6521,0.00011759,-0.024267,-0.00035655,-3562.5,0.44897
14116,9.2745,5.8182,0,0.00035956,3593.1,0.00011902,4.3738,0.00011843,-0.034755,-0.00035948,-3590.9,0.44016
14117,9.3663,5.8182,0.05,1.4888e-07,1.4877,1.1432e-07,0.85899,-2.6723e-13,2.3034e-05,-1.1431e-07,-0.85889,0.44837
14118,9.3663,5.9091,0,0.00035666,3564.1,0.00011801,3.7705,0.00011751,-0.0098125,-0.0003566,-3562.3,0.4478
14119,9.3663,5.5455,0,0.00035601,3557.6,0.00011768,0.012393,0.00011715,-3.9561,-0.00035607,-3559.6,0.45007
14120,9.2745,5.6364,0,0.00035888,3586.3,0.00011853,0.02464,0.00011826,-2.0419,-0.00035892,-3587.4,0.4413
14121,9.3663,5.6364,0.05,8.7958e-07,8.7897,6.7541e-07,5.0748,-4.4386e-12,1.942e-06,-6.754e-07,-5.0747,0.4495
14122,9.3663,5.3636,0,0.00035552,3552.8,0.00011776,0.0058796,0.00011658,-8.8796,-0.00035567,-3557.2,0.45108
14123,9.2745,5.4545,0,0.00035836,3581.2,0.00011862,0.0059012,0.00011765,-7.3199,-0.00035849,-3584.8,0.44236
14124,9.3663,5.4545,0.05,9.2898e-07,9.2834,7.1335e-07,5.3598,-4.3965e-12,3.0206e-06,-7.1333e-07,-5.3597,0.45056
14125,9.3663,5.1818,0,0.00035506,3548.2,0.00011784,0.0058738,0.00011604,-13.571,-0.00035529,-3554.9,0.45202
14126,9.2745,5.2727,0,0.00035787,3576.3,0.00011871,0.0067868,0.00011707,-12.348,-0.00035808,-3582.4,0.44334
14127,9.3663,5.2727,0.05,9.3331e-07,9.3267,7.1667e-07,5.3848,-5.2963e-12,2.0176e-06,-7.1667e-07,-5.3847,0.45154
14128,9.3663,5,0,0.00035463,3543.8,0.00011792,0.0051292,0.00011552,-18.028,-0.00035493,-3552.8,0.45288
14129,9.2745,5.0909,0,0.00035741,3571.6,0.00011879,0.0055069,0.00011651,-17.148,-0.0003577,-3580.1,0.44425
14130,9.3663,5.0909,0.05,9.3459e-07,9.3394,7.1765e-07,5.3922,-3.5143e-12,1.8453e-06,-7.1765e-07,-5.3921,0.45244
14131,9.3663,4.8182,0,0.00035422,3539.7,0.00011799,0.0047073,0.00011503,-22.218,-0.00035459,-3550.8,0.45367
14132,9.2745,4.9091,0,0.00035697,3567.2,0.00011887,0.0050487,0.00011599,-21.685,-0.00035733,-3578,0.44507
14133,9.3663,4.9091,0.05,9.3555e-07,9.3491,7.1839e-07,5.3977,-3.4896e-12,1.175e-06,-7.1838e-07,-5.3977,0.45326
14134,9.3663,4.6364,0,0.00035384,3535.9,0.00011806,0.0042839,0.00011458,-26.11,-0.00035428,-3548.9,0.45438
14135,9.2745,4.7273,0,0.00035656,3563.1,0.00011895,0.004521,0.00011549,-25.927,-0.00035699,-3576,0.44583
14136,9.3663,4.7273,0.05,9.3639e-07,9.3574,7.1903e-07,5.4026,-2.5696e-12,1.0194e-06,-7.1903e-07,-5.4025,0.45401
14137,9.3663,4.4545,0,0.00035349,3532.5,0.00011812,0.0039159,0.00011417,-29.676,-0.00035399,-3547.2,0.45502
14138,9.2745,4.5455,0,0.00035618,3559.3,0.00011901,0.0040901,0.00011504,-29.842,-0.00035668,-3574.2,0.4465
14139,9.3663,4.5455,0.05,9.3711e-07,9.3647,7.1959e-07,5.4067,-2.5688e-12,1.2292e-06,-7.1958e-07,-5.4067,0.45468
14140,9.3663,4.2727,0,0.00035318,3529.4,0.00011818,0.0035836,0.0001138,-32.888,-0.00035373,-3545.7,0.45558
14141,9.2745,4.3636,0,0.00035584,3555.9,0.00011908,0.0036967,0.00011463,-33.4,-0.00035639,-3572.5,0.44711
14142,9.3663,4.3636,0.05,9.3774e-07,9.3709,7.2007e-07,5.4103,-7.4912e-13,1.1754e-06,-7.2006e-07,-5.4103,0.45528
14143,9.3663,4.0909,0,0.00035291,3526.6,0.00011822,0.0032916,0.00011347,-35.724,-0.0003535,-3544.4,0.45606
14144,9.2745,4.1818,0,0.00035553,3552.9,0.00011913,0.0033525,0.00011426,-36.575,-0.00035614,-3571,0.44763
14145,9.3663,4.1818,0.05,9.3827e-07,9.3762,7.2047e-07,5.4134,-2.5825e-12,5.7898e-07,-7.2047e-07,-5.4133,0.45581
14146,9.3663,3.9091,0,0.00035267,3524.3,0.00011827,0.0030396,0.00011319,-38.161,-0.00035331,-3543.2,0.45647
14147,9.2745,4,0,0.00035527,3550.2,0.00011918,0.0030529,0.00011394,-39.344,-0.00035592,-3569.7,0.44808
14148,9.3663,4,0.05,9.387e-07,9.3806,7.2081e-07,5.4159,-1.6955e-12,9.9046e-07,-7.2081e-07,-5.4158,0.45625
14149,9.3663,3.7273,0,0.00035248,3522.3,0.0001183,0.0028298,0.00011295,-40.18,-0.00035314,-3542.3,0.45681
14150,9.2745,3.8182,0,0.00035504,3548,0.00011922,0.0027989,0.00011367,-41.684,-0.00035573,-3568.6,0.44846
14151,9.3663,3.8182,0.05,9.3906e-07,9.3841,7.2108e-07,5.4179,9.762e-14,7.4408e-07,-7.2108e-07,-5.4179,0.45663
14152,9.3663,3.5455,0,0.00035232,3520.8,0.00011833,0.0026647,0.00011277,-41.767,-0.00035302,-3541.5,0.45707
14153,9.2745,3.6364,0,0.00035486,3546.1,0.00011926,0.0025933,0.00011346,-43.578,-0.00035558,-3567.7,0.44876
14154,9.3663,3.6364,0.05,9.3933e-07,9.3869,7.2129e-07,5.4195,7.8816e-14,2.042e-06,-7.2129e-07,-5.4195,0.45692
14155,9.3663,3.3636,0,0.00035221,3519.7,0.00011835,0.0025454,0.00011264,-42.91,-0.00035292,-3541,0.45726
14156,9.2745,3.4545,0,0.00035472,3544.8,0.00011928,0.0024387,0.00011329,-45.011,-0.00035547,-3567.1,0.44898
14157,9.3663,3.4545,0.05,9.3954e-07,9.3889,7.2145e-07,5.4207,-1.7578e-12,9.3669e-07,-7.2145e-07,-5.4207,0.45715
14158,9.3663,3.1818,0,0.00035215,3519,0.00011836,0.0024728,0.00011256,-43.599,-0.00035287,-3540.6,0.45737
14159,9.2745,3.2727,0,0.00035463,3543.9,0.0001193,0.0023337,0.00011318,-45.973,-0.00035539,-3566.6,0.44913
14160,9.3663,3.2727,0.05,9.3967e-07,9.3902,7.2155e-07,5.4215,3.6698e-14,2.7855e-07,-7.2155e-07,-5.4214,0.4573
14161,9.3663,3,0,0.00035213,3518.8,0.00011837,0.0024486,0.00011253,-43.829,-0.00035285,-3540.5,0.4574
14162,9.2745,3.0909,0,0.00035458,3543.4,0.00011931,0.0022804,0.00011312,-46.456,-0.00035535,-3566.4,0.4492
14163,9.3663,3.0909,0.05,9.3974e-07,9.3909,7.216e-07,5.4218,-8.971e-13,1.0459e-06,-7.216e-07,-5.4218,0.45737
14164,9.3663,2.8182,0,0.00035215,3519,0.00011836,0.0024732,0.00011256,-43.599,-0.00035287,-3540.6,0.45737
14165,9.2745,2.9091,0,0.00035458,3543.4,0.00011931,0.0022809,0.00011312,-46.456,-0.00035535,-3566.4,0.4492
14166,9.3663,2.9091,0.05,9.3974e-07,9.3909,7.216e-07,5.4218,-9.2176e-13,1.8151e-06,-7.216e-07,-5.4218,0.45737
14167,9.3663,2.6364,0,0.00035221,3519.7,0.00011835,0.0025457,0.00011264,-42.91,-0.00035292,-3541,0.45726
14168,9.2745,2.7273,0,0.00035463,3543.9,0.0001193,0.0023339,0.00011318,-45.973,-0.00035539,-3566.6,0.44913
14169,9.3663,2.7273,0.05,9.3967e-07,9.3902,7.2155e-07,5.4214,-3.6698e-14,1.9888e-07,-7.2155e-07,-5.4214,0.4573
14170,9.3663,2.4545,0,0.00035232,3520.8,0.00011833,0.0026647,0.00011277,-41.767,-0.00035302,-3541.5,0.45707
14171,9.2745,2.5455,0,0.00035472,3544.8,0.00011928,0.0024387,0.00011329,-45.011,-0.00035547,-3567.1,0.44898
14172,9.3663,2.5455,0.05,9.3954e-07,9.3889,7.2145e-07,5.4207,-6.0782e-14,1.4537e-06,-7.2145e-07,-5.4207,0.45715
14173,9.3663,2.2727,0,0.00035248,3522.3,0.0001183,0.0028297,0.00011295,-40.18,-0.00035314,-3542.3,0.45681
14174,9.2745,2.3636,0,0.00035486,3546.1,0.00011926,0.0025934,0.00011346,-43.578,-0.00035558,-3567.7,0.44876
14175,9.3663,2.3636,0.05,9.3933e-07,9.3869,7.2129e-07,5.4195,-8.1955e-14,-1.2246e-07,-7.2129e-07,-5.4195,0.45692
14176,9.3663,2.0909,0,0.00035267,3524.3,0.00011827,0.0030399,0.00011319,-38.161,-0.00035331,-3543.2,0.45647
14177,9.2745,2.1818,0,0.00035504,3548,0.00011922,0.0027993,0.00011367,-41.684,-0.00035573,-3568.6,0.44846
14178,9.3663,2.1818,0.05,9.3906e-07,9.3841,7.2108e-07,5.4179,-1.0108e-13,-7.7307e-07,-7.2108e-07,-5.4179,0.45663
14179,9.3663,1.9091,0,0.00035291,3526.6,0.00011822,0.003292,0.00011347,-35.724,-0.0003535,-3544.4,0.45606
14180,9.2745,2,0,0.00035527,3550.2,0.00011918,0.0030532,0.00011394,-39.344,-0.00035592,-3569.7,0.44808
14181,9.3663,2,0.05,9.387e-07,9.3806,7.2081e-07,5.4158,1.6991e-12,-4.2409e-07,-7.2081e-07,-5.4159,0.45625
14182,9.3663,1.7273,0,0.00035318,3529.4,0.00011818,0.0035841,0.0001138,-32.888,-0.00035373,-3545.7,0.45558
14183,9.2745,1.8182,0,0.00035553,3552.9,0.00011913,0.0033528,0.00011426,-36.575,-0.00035614,-3571,0.44763
14184,9.3663,1.8182,0.05,9.3827e-07,9.3762,7.2047e-07,5.4133,1.6825e-12,-6.2134e-08,-7.2047e-07,-5.4134,0.45581
14185,9.3663,1.5455,0,0.00035349,3532.5,0.00011812,0.003917,0.00011417,-29.676,-0.00035399,-3547.2,0.45502
14186,9.2745,1.6364,0,0.00035584,3555.9,0.00011908,0.0036974,0.00011463,-33.4,-0.00035639,-3572.5,0.44711
14187,9.3663,1.6364,0.05,9.3774e-07,9.3709,7.2007e-07,5.4103,1.6849e-12,-2.5011e-07,-7.2007e-07,-5.4103,0.45528
14188,9.3663,1.3636,0,0.00035384,3535.9,0.00011806,0.0042849,0.00011458,-26.11,-0.00035428,-3548.9,0.45438
14189,9.2745,1.4545,0,0.00035618,3559.3,0.00011901,0.004091,0.00011504,-29.842,-0.00035668,-3574.2,0.4465
14190,9.3663,1.4545,0.05,9.3711e-07,9.3647,7.1958e-07,5.4067,1.6762e-12,2.6144e-07,-7.1959e-07,-5.4067,0.45468
14191,9.3663,1.1818,0,0.00035422,3539.7,0.00011799,0.0047079,0.00011503,-22.218,-0.00035459,-3550.8,0.45367
14192,9.2745,1.2727,0,0.00035656,3563.1,0.00011895,0.0045217,0.00011549,-25.927,-0.00035699,-3576,0.44583
14193,9.3663,1.2727,0.05,9.3639e-07,9.3574,7.1903e-07,5.4025,1.6801e-12,-3.0592e-07,-7.1903e-07,-5.4026,0.45401
14194,9.3663,1,0,0.00035463,3543.8,0.00011792,0.0051303,0.00011552,-18.028,-0.00035493,-3552.8,0.45288
14195,9.2745,1.0909,0,0.00035697,3567.2,0.00011887,0.0050493,0.00011599,-21.685,-0.00035733,-3578,0.44507
14196,9.3663,1.0909,0.05,9.3555e-07,9.3491,7.1838e-07,5.3977,1.6739e-12,1.9923e-07,-7.1839e-07,-5.3977,0.45326
14197,9.3663,0.81818,0,0.00035506,3548.2,0.00011784,0.0058751,0.00011604,-13.571,-0.00035529,-3554.9,0.45202
14198,9.2745,0.90909,0,0.00035741,3571.6,0.00011879,0.0055084,0.00011651,-17.148,-0.0003577,-3580.1,0.44425
14199,9.3663,0.90909,0.05,9.3459e-07,9.3394,7.1765e-07,5.3921,2.595e-12,1.3935e-07,-7.1765e-07,-5.3921,0.45244
14200,9.3663,0.63636,0,0.00035552,3552.8,0.00011776,0.0058801,0.00011658,-8.8796,-0.00035567,-3557.2,0.45108
14201,9.2745,0.72727,0,0.00035787,3576.3,0.00011871,0.0067882,0.00011707,-12.348,-0.00035808,-3582.4,0.44334
14202,9.3663,0.72727,0.05,9.3331e-07,9.3267,7.1667e-07,5.3847,3.508e-12,9.7411e-08,-7.1667e-07,-5.3848,0.45154
14203,9.3663,0.45455,0,0.00035601,3557.6,0.00011768,0.012394,0.00011715,-3.9561,-0.00035607,-3559.6,0.45007
14204,9.2745,0.54545,0,0.00035836,3581.2,0.00011862,0.0059012,0.00011765,-7.32,-0.00035849,-3584.8,0.44236
14205,9.3663,0.54545,0.05,9.2898e-07,9.2834,7.1334e-07,5.3597,3.5439e-12,-2.8872e-07,-7.1334e-07,-5.3598,0.45056
14206,9.3663,0.27273,0,0.00035658,3563.4,0.00011781,1.6521,0.00011759,-0.024265,-0.00035655,-3562.5,0.44897
14207,9.2745,0.36364,0,0.00035888,3586.3,0.00011853,0.024641,0.00011826,-2.0419,-0.00035892,-3587.4,0.4413
14208,9.3663,0.36364,0.05,8.7958e-07,8.7897,6.754e-07,5.0747,3.5339e-12,-9.3252e-08,-6.7541e-07,-5.0748,0.4495
14209,9.2745,0.18182,0,0.00035956,3593.1,0.00011902,4.3737,0.00011843,-0.034753,-0.00035948,-3590.9,0.44016
14210,9.3663,0.18182,0.05,1.4888e-07,1.4877,1.1432e-07,0.8589,1.1736e-12,-1.8568e-05,-1.1432e-07,-0.859,0.44837
14211,9.3663,0.090909,0,0.00035666,3564.1,0.00011801,3.7705,0.00011751,-0.0098118,-0.0003566,-3562.3,0.4478
14212,9.1827,5.7273,0,0.00036185,3616,0.00011947,0.70736,0.00011937,-0.085204,-0.00036184,-3615.7,0.43256
14213,9.0909,5.8182,0,0.00036485,3646,0.0001207,3.58,0.00012022,-0.04911,-0.00036479,-3644.2,0.42386
14214,9.1827,5.8182,0.05,1.6556e-07,1.6545,1.2714e-07,0.95529,-1.4478e-12,2.8616e-05,-1.2713e-07,-0.95516,0.43195
14215,9.1827,5.9091,0,0.00036198,3617.3,0.00011973,3.3139,0.00011929,-0.014488,-0.00036192,-3615.6,0.43137
14216,9.1827,5.5455,0,0.00036124,3609.9,0.00011948,0.014272,0.00011875,-5.4215,-0.00036133,-3612.6,0.43366
14217,9.0909,5.6364,0,0.00036414,3638.9,0.00012033,0.026968,0.00011989,-3.3145,-0.0003642,-3640.5,0.42501
14218,9.1827,5.6364,0.05,8.8584e-07,8.8523,6.8022e-07,5.1109,-5.3528e-12,3.0407e-06,-6.8021e-07,-5.1108,0.4331
14219,9.1827,5.3636,0,0.00036071,3604.6,0.00011957,0.0065658,0.00011813,-10.805,-0.0003609,-3610,0.43469
14220,9.0909,5.4545,0,0.00036358,3633.3,0.00012043,0.0067503,0.00011922,-9.0788,-0.00036374,-3637.8,0.42608
14221,9.1827,5.4545,0.05,9.3469e-07,9.3405,7.1773e-07,5.3928,-3.4949e-12,3.1169e-06,-7.1772e-07,-5.3927,0.43416
14222,9.1827,5.1818,0,0.00036022,3599.7,0.00011966,0.0063573,0.00011754,-15.94,-0.00036048,-3607.6,0.43564
14223,9.0909,5.2727,0,0.00036305,3628,0.00012053,0.0074823,0.00011859,-14.578,-0.0003633,-3635.3,0.42707
14224,9.1827,5.2727,0.05,9.3906e-07,9.3841,7.2108e-07,5.418,-3.4593e-12,1.7362e-06,-7.2108e-07,-5.4179,0.43515
14225,9.1827,5,0,0.00035975,3595,0.00011975,0.0054008,0.00011697,-20.82,-0.0003601,-3605.3,0.43651
14226,9.0909,5.0909,0,0.00036255,3623,0.00012062,0.0058908,0.00011798,-19.828,-0.00036288,-3632.9,0.42799
14227,9.1827,5.0909,0.05,9.4038e-07,9.3974,7.221e-07,5.4256,-4.4033e-12,2.1273e-06,-7.221e-07,-5.4255,0.43606
14228,9.1827,4.8182,0,0.0003593,3590.6,0.00011983,0.0048488,0.00011645,-25.408,-0.00035973,-3603.2,0.43731
14229,9.0909,4.9091,0,0.00036208,3618.3,0.00012071,0.0052804,0.00011741,-24.793,-0.00036249,-3630.6,0.42883
14230,9.1827,4.9091,0.05,9.4139e-07,9.4074,7.2287e-07,5.4315,-3.4929e-12,2.1405e-06,-7.2287e-07,-5.4313,0.4369
14231,9.1827,4.6364,0,0.0003589,3586.5,0.0001199,0.0043183,0.00011595,-29.672,-0.00035939,-3601.2,0.43803
14232,9.0909,4.7273,0,0.00036163,3613.8,0.00012079,0.0046214,0.00011688,-29.436,-0.00036212,-3628.5,0.42959
14233,9.1827,4.7273,0.05,9.4227e-07,9.4162,7.2355e-07,5.4365,-3.457e-12,1.3213e-06,-7.2354e-07,-5.4364,0.43765
14234,9.1827,4.4545,0,0.00035852,3582.7,0.00011997,0.0038643,0.0001155,-33.579,-0.00035908,-3599.4,0.43867
14235,9.0909,4.5455,0,0.00036122,3609.8,0.00012087,0.0040901,0.00011638,-33.722,-0.00036179,-3626.5,0.43028
14236,9.1827,4.5455,0.05,9.4302e-07,9.4237,7.2412e-07,5.4408,-2.5537e-12,1.3114e-06,-7.2412e-07,-5.4407,0.43833
14237,9.1827,4.2727,0,0.00035818,3579.4,0.00012003,0.0034601,0.0001151,-37.1,-0.0003588,-3597.8,0.43924
14238,9.0909,4.3636,0,0.00036085,3606,0.00012094,0.0036125,0.00011593,-37.618,-0.00036148,-3624.7,0.43088
14239,9.1827,4.3636,0.05,9.4366e-07,9.4301,7.2462e-07,5.4445,-2.5649e-12,1.3883e-06,-7.2461e-07,-5.4444,0.43894
14240,9.1827,4.0909,0,0.00035789,3576.4,0.00012009,0.0031087,0.00011474,-40.207,-0.00035855,-3596.3,0.43973
14241,9.0909,4.1818,0,0.00036052,3602.7,0.000121,0.0031987,0.00011553,-41.095,-0.0003612,-3623.1,0.43141
14242,9.1827,4.1818,0.05,9.442e-07,9.4355,7.2503e-07,5.4476,-1.6568e-12,2.406e-07,-7.2503e-07,-5.4476,0.43947
14243,9.1827,3.9091,0,0.00035763,3573.9,0.00012014,0.0028074,0.00011443,-42.878,-0.00035834,-3595.1,0.44014
14244,9.0909,4,0,0.00036024,3599.9,0.00012106,0.0028416,0.00011518,-44.127,-0.00036097,-3621.7,0.43187
14245,9.1827,4,0.05,9.4465e-07,9.44,7.2538e-07,5.4502,-3.4977e-12,4.8909e-07,-7.2537e-07,-5.4502,0.43992
14246,9.1827,3.7273,0,0.00035742,3571.8,0.00012018,0.0025578,0.00011417,-45.092,-0.00035817,-3594.1,0.44048
14247,9.0909,3.8182,0,0.00035999,3597.4,0.0001211,0.0025408,0.00011489,-46.691,-0.00036076,-3620.6,0.43225
14248,9.1827,3.8182,0.05,9.4501e-07,9.4436,7.2565e-07,5.4523,-1.7056e-12,-5.757e-07,-7.2565e-07,-5.4522,0.4403
14249,9.1827,3.5455,0,0.00035726,3570.1,0.00012021,0.0023628,0.00011397,-46.832,-0.00035803,-3593.3,0.44074
14250,9.0909,3.6364,0,0.0003598,3595.5,0.00012114,0.0022982,0.00011465,-48.766,-0.0003606,-3619.6,0.43255
14251,9.1827,3.6364,0.05,9.4529e-07,9.4464,7.2587e-07,5.4539,-1.7285e-12,1.6386e-06,-7.2586e-07,-5.4538,0.4406
14252,9.1827,3.3636,0,0.00035714,3568.9,0.00012023,0.0022225,0.00011383,-48.085,-0.00035793,-3592.7,0.44093
14253,9.0909,3.4545,0,0.00035965,3594,0.00012117,0.0021164,0.00011447,-50.336,-0.00036048,-3618.9,0.43278
14254,9.1827,3.4545,0.05,9.4549e-07,9.4484,7.2603e-07,5.4551,-8.3983e-13,1.4651e-06,-7.2602e-07,-5.455,0.44082
14255,9.1827,3.1818,0,0.00035706,3568.2,0.00012024,0.0021368,0.00011374,-48.841,-0.00035787,-3592.4,0.44105
14256,9.0909,3.2727,0,0.00035955,3593,0.00012119,0.0019932,0.00011435,-51.39,-0.00036039,-3618.4,0.43293
14257,9.1827,3.2727,0.05,9.4563e-07,9.4497,7.2612e-07,5.4558,-8.69e-13,7.8018e-07,-7.2612e-07,-5.4558,0.44097
14258,9.1827,3,0,0.00035704,3567.9,0.00012025,0.0021083,0.00011371,-49.093,-0.00035785,-3592.2,0.44108
14259,9.0909,3.0909,0,0.0003595,3592.5,0.0001212,0.0019311,0.00011429,-51.919,-0.00036035,-3618.2,0.433
14260,9.1827,3.0909,0.05,9.4569e-07,9.4504,7.2618e-07,5.4562,-1.8053e-12,1.0184e-07,-7.2618e-07,-5.4562,0.44105
14261,9.1827,2.8182,0,0.00035706,3568.2,0.00012024,0.0021371,0.00011374,-48.841,-0.00035787,-3592.4,0.44105
14262,9.0909,2.9091,0,0.0003595,3592.5,0.0001212,0.0019313,0.00011429,-51.919,-0.00036035,-3618.2,0.433
14263,9.1827,2.9091,0.05,9.4569e-07,9.4504,7.2618e-07,5.4562,-1.3469e-14,8.5143e-07,-7.2617e-07,-5.4562,0.44105
14264,9.1827,2.6364,0,0.00035714,3568.9,0.00012023,0.0022224,0.00011383,-48.085,-0.00035793,-3592.7,0.44093
14265,9.0909,2.7273,0,0.00035955,3593,0.00012119,0.0019934,0.00011435,-51.39,-0.00036039,-3618.4,0.43293
14266,9.1827,2.7273,0.05,9.4563e-07,9.4497,7.2612e-07,5.4558,-4.0122e-14,6.502e-07,-7.2612e-07,-5.4558,0.44097
14267,9.1827,2.4545,0,0.00035726,3570.1,0.00012021,0.002363,0.00011397,-46.832,-0.00035803,-3593.3,0.44074
14268,9.0909,2.5455,0,0.00035965,3594,0.00012117,0.0021164,0.00011447,-50.336,-0.00036048,-3618.9,0.43278
14269,9.1827,2.5455,0.05,9.4549e-07,9.4484,7.2602e-07,5.455,-6.7397e-14,-1.0133e-08,-7.2602e-07,-5.455,0.44082
14270,9.1827,2.2727,0,0.00035742,3571.8,0.00012018,0.0025585,0.00011417,-45.092,-0.00035817,-3594.1,0.44048
14271,9.0909,2.3636,0,0.0003598,3595.5,0.00012114,0.0022986,0.00011465,-48.766,-0.0003606,-3619.6,0.43255
14272,9.1827,2.3636,0.05,9.4529e-07,9.4464,7.2586e-07,5.4539,8.1813e-13,-6.5351e-07,-7.2586e-07,-5.4539,0.4406
14273,9.1827,2.0909,0,0.00035763,3573.9,0.00012014,0.0028078,0.00011443,-42.878,-0.00035834,-3595.1,0.44014
14274,9.0909,2.1818,0,0.00035999,3597.4,0.0001211,0.0025412,0.00011489,-46.691,-0.00036076,-3620.6,0.43225
14275,9.1827,2.1818,0.05,9.4501e-07,9.4436,7.2565e-07,5.4522,-1.1848e-13,-8.8127e-07,-7.2565e-07,-5.4523,0.4403
14276,9.1827,1.9091,0,0.00035789,3576.4,0.00012009,0.0031089,0.00011474,-40.207,-0.00035855,-3596.3,0.43973
14277,9.0909,2,0,0.00036024,3599.9,0.00012106,0.002842,0.00011518,-44.127,-0.00036097,-3621.7,0.43187
14278,9.1827,2,0.05,9.4465e-07,9.44,7.2537e-07,5.4502,7.7253e-13,4.9671e-07,-7.2538e-07,-5.4502,0.43992
14279,9.1827,1.7273,0,0.00035818,3579.4,0.00012003,0.0034606,0.0001151,-37.1,-0.0003588,-3597.8,0.43924
14280,9.0909,1.8182,0,0.00036052,3602.7,0.000121,0.0031991,0.00011553,-41.095,-0.0003612,-3623.1,0.43141
14281,9.1827,1.8182,0.05,9.442e-07,9.4355,7.2503e-07,5.4476,7.7316e-13,2.9704e-07,-7.2503e-07,-5.4476,0.43947
14282,9.1827,1.5455,0,0.00035852,3582.7,0.00011997,0.0038649,0.0001155,-33.579,-0.00035908,-3599.4,0.43867
14283,9.0909,1.6364,0,0.00036085,3606,0.00012094,0.0036131,0.00011593,-37.618,-0.00036148,-3624.7,0.43088
14284,9.1827,1.6364,0.05,9.4366e-07,9.4301,7.2461e-07,5.4444,-1.5306e-13,-2.218e-07,-7.2462e-07,-5.4445,0.43894
14285,9.1827,1.3636,0,0.0003589,3586.5,0.0001199,0.004319,0.00011595,-29.672,-0.00035939,-3601.2,0.43803
14286,9.0909,1.4545,0,0.00036122,3609.8,0.00012087,0.0040907,0.00011638,-33.722,-0.00036179,-3626.5,0.43028
14287,9.1827,1.4545,0.05,9.4302e-07,9.4237,7.2412e-07,5.4407,2.5652e-12,-2.6024e-08,-7.2412e-07,-5.4408,0.43833
14288,9.1827,1.1818,0,0.0003593,3590.6,0.00011983,0.0048494,0.00011645,-25.409,-0.00035973,-3603.2,0.43731
14289,9.0909,1.2727,0,0.00036163,3613.8,0.00012079,0.0046222,0.00011688,-29.436,-0.00036212,-3628.5,0.42959
14290,9.1827,1.2727,0.05,9.4227e-07,9.4162,7.2354e-07,5.4364,1.642e-12,-3.7046e-07,-7.2355e-07,-5.4365,0.43765
14291,9.1827,1,0,0.00035975,3595,0.00011975,0.0054018,0.00011697,-20.82,-0.0003601,-3605.3,0.43651
14292,9.0909,1.0909,0,0.00036208,3618.3,0.00012071,0.0052808,0.00011741,-24.793,-0.00036249,-3630.6,0.42883
14293,9.1827,1.0909,0.05,9.4139e-07,9.4074,7.2287e-07,5.4313,1.6535e-12,-4.8384e-07,-7.2288e-07,-5.4314,0.4369
14294,9.1827,0.81818,0,0.00036022,3599.7,0.00011966,0.0063589,0.00011754,-15.94,-0.00036048,-3607.6,0.43564
14295,9.0909,0.90909,0,0.00036255,3623,0.00012062,0.0058928,0.00011798,-19.828,-0.00036288,-3632.9,0.42799
14296,9.1827,0.90909,0.05,9.4038e-07,9.3974,7.221e-07,5.4255,3.4692e-12,-3.4729e-07,-7.221e-07,-5.4256,0.43606
14297,9.1827,0.63636,0,0.00036071,3604.6,0.00011957,0.0065666,0.00011813,-10.805,-0.0003609,-3610,0.43469
14298,9.0909,0.72727,0,0.00036305,3628,0.00012053,0.0074835,0.00011859,-14.578,-0.0003633,-3635.3,0.42707
14299,9.1827,0.72727,0.05,9.3906e-07,9.3841,7.2108e-07,5.4179,3.4898e-12,4.2388e-07,-7.2108e-07,-5.4179,0.43515
14300,9.1827,0.45455,0,0.00036124,3609.9,0.00011948,0.014272,0.00011875,-5.4215,-0.00036133,-3612.6,0.43366
14301,9.0909,0.54545,0,0.00036358,3633.3,0.00012043,0.0067504,0.00011922,-9.0788,-0.00036374,-3637.8,0.42608
14302,9.1827,0.54545,0.05,9.3469e-07,9.3405,7.1773e-07,5.3927,2.5943e-12,1.4432e-07,-7.1773e-07,-5.3928,0.43416
14303,9.1827,0.27273,0,0.00036185,3616,0.00011947,0.70735,0.00011937,-0.085205,-0.00036184,-3615.7,0.43256
14304,9.0909,0.36364,0,0.00036414,3638.9,0.00012033,0.026969,0.00011989,-3.3145,-0.0003642,-3640.5,0.42501
14305,9.1827,0.36364,0.05,8.8584e-07,8.8523,6.8021e-07,5.1108,3.4779e-12,-4.3254e-07,-6.8022e-07,-5.1109,0.4331
14306,9.0909,0.18182,0,0.00036485,3646,0.0001207,3.58,0.00012022,-0.049109,-0.00036479,-3644.2,0.42386
14307,9.1827,0.18182,0.05,1.6556e-07,1.6545,1.2713e-07,0.95519,2.2895e-12,-1.4006e-05,-1.2713e-07,-0.95527,0.43195
14308,9.1827,0.090909,0,0.00036198,3617.3,0.00011973,3.3139,0.00011929,-0.014487,-0.00036192,-3615.6,0.43137
14309,8.999,5.7273,0,0.00036713,3668.8,0.0001212,0.14569,0.0001211,-0.59404,-0.00036714,-3669,0.41639
14310,8.9072,5.8182,0,0.00037017,3699.1,0.00012239,2.7483,0.00012201,-0.07415,-0.00037012,-3697.8,0.4078
14311,8.999,5.8182,0.05,1.8376e-07,1.8363,1.4111e-07,1.0603,-9.3725e-13,2.9231e-05,-1.411e-07,-1.0601,0.41577
14312,8.999,5.9091,0,0.00036732,3670.6,0.00012145,2.833,0.00012107,-0.021815,-0.00036727,-3669.2,0.41519
14313,8.999,5.5455,0,0.00036648,3662.3,0.00012129,0.016298,0.00012035,-6.9877,-0.0003666,-3665.8,0.4175
14314,8.9072,5.6364,0,0.00036942,3691.7,0.00012214,0.029937,0.00012152,-4.6736,-0.0003695,-3694,0.40896
14315,8.999,5.6364,0.05,8.9242e-07,8.9181,6.8528e-07,5.1489,-6.1956e-12,2.7567e-06,-6.8527e-07,-5.1488,0.41693
14316,8.999,5.3636,0,0.00036592,3656.7,0.00012139,0.0073522,0.00011968,-12.867,-0.00036614,-3663.1,0.41854
14317,8.9072,5.4545,0,0.00036882,3685.7,0.00012225,0.0076924,0.00012079,-10.961,-0.000369,-3691.1,0.41005
14318,8.999,5.4545,0.05,9.4067e-07,9.4002,7.2232e-07,5.4273,-4.3395e-12,2.6284e-06,-7.2231e-07,-5.4271,0.41801
14319,8.999,5.1818,0,0.00036539,3651.3,0.00012149,0.0069217,0.00011903,-18.48,-0.0003657,-3660.5,0.4195
14320,8.9072,5.2727,0,0.00036825,3680,0.00012236,0.0082693,0.0001201,-16.967,-0.00036854,-3688.4,0.41106
14321,8.999,5.2727,0.05,9.4505e-07,9.444,7.2568e-07,5.4526,-3.4511e-12,2.401e-06,-7.2568e-07,-5.4524,0.41901
14322,8.999,5,0,0.00036488,3646.3,0.00012159,0.0057284,0.00011842,-23.815,-0.00036528,-3658.1,0.42039
14323,8.9072,5.0909,0,0.00036771,3674.5,0.00012247,0.0063375,0.00011944,-22.704,-0.00036809,-3685.8,0.41198
14324,8.999,5.0909,0.05,9.4644e-07,9.4578,7.2675e-07,5.4605,-3.427e-12,2.1e-06,-7.2674e-07,-5.4604,0.41993
14325,8.999,4.8182,0,0.0003644,3641.5,0.00012168,0.0050294,0.00011784,-28.834,-0.00036488,-3655.8,0.42119
14326,8.9072,4.9091,0,0.00036719,3669.4,0.00012257,0.0055563,0.00011882,-28.13,-0.00036766,-3683.4,0.41283
14327,8.999,4.9091,0.05,9.4749e-07,9.4684,7.2756e-07,5.4666,-3.4139e-12,2.2254e-06,-7.2755e-07,-5.4665,0.42077
14328,8.999,4.6364,0,0.00036396,3637.1,0.00012176,0.0043777,0.0001173,-33.498,-0.00036452,-3653.7,0.42192
14329,8.9072,4.7273,0,0.00036672,3664.6,0.00012266,0.0047507,0.00011824,-33.205,-0.00036727,-3681.1,0.4136
14330,8.999,4.7273,0.05,9.484e-07,9.4774,7.2825e-07,5.4719,-3.4187e-12,1.6083e-06,-7.2825e-07,-5.4717,0.42154
14331,8.999,4.4545,0,0.00036355,3633,0.00012184,0.0038269,0.00011681,-37.772,-0.00036418,-3651.8,0.42257
14332,8.9072,4.5455,0,0.00036627,3660.2,0.00012274,0.0041064,0.0001177,-37.891,-0.0003669,-3679,0.41429
14333,8.999,4.5455,0.05,9.4917e-07,9.4852,7.2885e-07,5.4763,-1.6141e-12,2.611e-06,-7.2884e-07,-5.4762,0.42223
14334,8.999,4.2727,0,0.00036319,3629.4,0.00012191,0.003342,0.00011637,-41.625,-0.00036388,-3650,0.42314
14335,8.9072,4.3636,0,0.00036587,3656.2,0.00012282,0.003535,0.00011721,-42.152,-0.00036657,-3677.1,0.4149
14336,8.999,4.3636,0.05,9.4984e-07,9.4918,7.2936e-07,5.4801,-7.1838e-13,4.3968e-07,-7.2935e-07,-5.48,0.42284
14337,8.999,4.0909,0,0.00036287,3626.2,0.00012197,0.0029237,0.00011598,-45.027,-0.00036361,-3648.5,0.42363
14338,8.9072,4.1818,0,0.00036552,3652.6,0.00012289,0.0030435,0.00011677,-45.956,-0.00036628,-3675.4,0.41544
14339,8.999,4.1818,0.05,9.5039e-07,9.4973,7.2978e-07,5.4833,-7.4042e-13,1.3362e-06,-7.2978e-07,-5.4832,0.42337
14340,8.999,3.9091,0,0.00036259,3623.4,0.00012202,0.0025679,0.00011564,-47.951,-0.00036338,-3647.2,0.42405
14341,8.9072,4,0,0.0003652,3649.5,0.00012295,0.0026225,0.00011639,-49.273,-0.00036602,-3673.9,0.4159
14342,8.999,4,0.05,9.5084e-07,9.5018,7.3013e-07,5.4859,-1.6553e-12,1.1579e-06,-7.3012e-07,-5.4859,0.42383
14343,8.999,3.7273,0,0.00036236,3621.1,0.00012207,0.0022747,0.00011536,-50.375,-0.0003632,-3646.1,0.4244
14344,8.9072,3.8182,0,0.00036494,3646.9,0.000123,0.0022698,0.00011607,-52.077,-0.0003658,-3672.6,0.41628
14345,8.999,3.8182,0.05,9.512e-07,9.5055,7.3041e-07,5.488,-1.6858e-12,1.0119e-06,-7.304e-07,-5.4879,0.42421
14346,8.999,3.5455,0,0.00036218,3619.3,0.0001221,0.0020455,0.00011514,-52.28,-0.00036305,-3645.2,0.42466
14347,8.9072,3.6364,0,0.00036473,3644.8,0.00012304,0.0019865,0.00011581,-54.348,-0.00036562,-3671.6,0.41659
14348,8.999,3.6364,0.05,9.5148e-07,9.5083,7.3062e-07,5.4896,-1.7174e-12,1.7695e-06,-7.3062e-07,-5.4896,0.42451
14349,8.999,3.3636,0,0.00036206,3618.1,0.00012213,0.001881,0.00011499,-53.651,-0.00036294,-3644.6,0.42485
14350,8.9072,3.4545,0,0.00036457,3643.2,0.00012307,0.0017739,0.00011561,-56.066,-0.00036549,-3670.9,0.41682
14351,8.999,3.4545,0.05,9.5169e-07,9.5103,7.3078e-07,5.4908,-2.653e-12,5.6522e-07,-7.3078e-07,-5.4908,0.42474
14352,8.999,3.1818,0,0.00036198,3617.3,0.00012214,0.0017815,0.00011489,-54.478,-0.00036287,-3644.2,0.42497
14353,8.9072,3.2727,0,0.00036446,3642.1,0.00012309,0.0016309,0.00011548,-57.219,-0.0003654,-3670.3,0.41697
14354,8.999,3.2727,0.05,9.5182e-07,9.5116,7.3088e-07,5.4916,-8.6432e-13,1.3039e-06,-7.3088e-07,-5.4915,0.42489
14355,8.999,3,0,0.00036195,3617,0.00012215,0.0017482,0.00011486,-54.755,-0.00036285,-3644.1,0.425
14356,8.9072,3.0909,0,0.0003644,3641.5,0.00012311,0.0015587,0.00011541,-57.798,-0.00036535,-3670.1,0.41705
14357,8.999,3.0909,0.05,9.5189e-07,9.5123,7.3093e-07,5.4919,1.5179e-14,1.0679e-06,-7.3093e-07,-5.4919,0.42497
14358,8.999,2.8182,0,0.00036198,3617.3,0.00012214,0.0017815,0.00011489,-54.478,-0.00036287,-3644.2,0.42497
14359,8.9072,2.9091,0,0.0003644,3641.5,0.00012311,0.0015589,0.00011541,-57.798,-0.00036535,-3670.1,0.41705
14360,8.999,2.9091,0.05,9.5189e-07,9.5123,7.3093e-07,5.4919,-1.5028e-14,8.3944e-07,-7.3093e-07,-5.4919,0.42497
14361,8.999,2.6364,0,0.00036206,3618.1,0.00012213,0.0018812,0.00011499,-53.651,-0.00036294,-3644.6,0.42485
14362,8.9072,2.7273,0,0.00036446,3642.1,0.00012309,0.001631,0.00011548,-57.219,-0.0003654,-3670.3,0.41697
14363,8.999,2.7273,0.05,9.5182e-07,9.5116,7.3088e-07,5.4916,-4.4501e-14,6.1691e-07,-7.3088e-07,-5.4915,0.42489
14364,8.999,2.4545,0,0.00036218,3619.3,0.0001221,0.0020457,0.00011514,-52.28,-0.00036305,-3645.2,0.42466
14365,8.9072,2.5455,0,0.00036457,3643.2,0.00012307,0.0017741,0.00011561,-56.066,-0.00036549,-3670.9,0.41682
14366,8.999,2.5455,0.05,9.5169e-07,9.5103,7.3078e-07,5.4908,-7.4446e-14,4.0692e-07,-7.3078e-07,-5.4908,0.42474
14367,8.999,2.2727,0,0.00036236,3621.1,0.00012207,0.0022747,0.00011536,-50.375,-0.0003632,-3646.1,0.4244
14368,8.9072,2.3636,0,0.00036473,3644.8,0.00012304,0.0019866,0.00011581,-54.348,-0.00036562,-3671.6,0.41659
14369,8.999,2.3636,0.05,9.5148e-07,9.5083,7.3062e-07,5.4896,-1.0328e-13,6.5951e-07,-7.3062e-07,-5.4896,0.42451
14370,8.999,2.0909,0,0.00036259,3623.4,0.00012202,0.0025682,0.00011564,-47.951,-0.00036338,-3647.2,0.42405
14371,8.9072,2.1818,0,0.00036494,3646.9,0.000123,0.00227,0.00011607,-52.077,-0.0003658,-3672.6,0.41628
14372,8.999,2.1818,0.05,9.512e-07,9.5055,7.304e-07,5.488,-1.2763e-13,-9.7891e-07,-7.3041e-07,-5.488,0.42421
14373,8.999,1.9091,0,0.00036287,3626.2,0.00012197,0.0029243,0.00011598,-45.027,-0.00036361,-3648.5,0.42363
14374,8.9072,2,0,0.0003652,3649.5,0.00012295,0.002623,0.00011639,-49.273,-0.00036602,-3673.9,0.4159
14375,8.999,2,0.05,9.5084e-07,9.5018,7.3013e-07,5.4859,-1.5557e-13,-1.6012e-07,-7.3013e-07,-5.4859,0.42383
14376,8.999,1.7273,0,0.00036319,3629.4,0.00012191,0.0033424,0.00011637,-41.625,-0.00036388,-3650,0.42314
14377,8.9072,1.8182,0,0.00036552,3652.6,0.00012289,0.0030442,0.00011677,-45.956,-0.00036628,-3675.4,0.41544
14378,8.999,1.8182,0.05,9.5039e-07,9.4973,7.2978e-07,5.4833,2.5653e-12,-8.417e-07,-7.2978e-07,-5.4833,0.42337
14379,8.999,1.5455,0,0.00036355,3633,0.00012184,0.0038275,0.00011681,-37.773,-0.00036418,-3651.8,0.42257
14380,8.9072,1.6364,0,0.00036587,3656.2,0.00012282,0.0035356,0.00011721,-42.152,-0.00036657,-3677.1,0.4149
14381,8.999,1.6364,0.05,9.4984e-07,9.4918,7.2935e-07,5.48,1.6557e-12,3.5937e-08,-7.2936e-07,-5.4801,0.42284
14382,8.999,1.3636,0,0.00036396,3637.1,0.00012176,0.0043784,0.0001173,-33.498,-0.00036452,-3653.7,0.42192
14383,8.9072,1.4545,0,0.00036627,3660.2,0.00012274,0.0041069,0.0001177,-37.891,-0.0003669,-3679,0.41429
14384,8.999,1.4545,0.05,9.4917e-07,9.4852,7.2884e-07,5.4762,1.6254e-12,-1.3881e-07,-7.2885e-07,-5.4763,0.42223
14385,8.999,1.1818,0,0.0003644,3641.5,0.00012168,0.00503,0.00011784,-28.834,-0.00036488,-3655.8,0.42119
14386,8.9072,1.2727,0,0.00036672,3664.6,0.00012266,0.0047514,0.00011824,-33.205,-0.00036727,-3681.1,0.4136
14387,8.999,1.2727,0.05,9.484e-07,9.4774,7.2825e-07,5.4718,7.137e-13,-4.3262e-07,-7.2825e-07,-5.4718,0.42154
14388,8.999,1,0,0.00036488,3646.3,0.00012159,0.0057296,0.00011842,-23.815,-0.00036528,-3658.1,0.42039
14389,8.9072,1.0909,0,0.00036719,3669.4,0.00012257,0.0055568,0.00011882,-28.13,-0.00036766,-3683.4,0.41283
14390,8.999,1.0909,0.05,9.4749e-07,9.4684,7.2755e-07,5.4665,7.2778e-13,-7.2942e-08,-7.2756e-07,-5.4666,0.42077
14391,8.999,0.81818,0,0.00036539,3651.3,0.00012149,0.0069233,0.00011903,-18.48,-0.0003657,-3660.5,0.4195
14392,8.9072,0.90909,0,0.00036771,3674.5,0.00012247,0.0063393,0.00011944,-22.704,-0.00036809,-3685.8,0.41198
14393,8.999,0.90909,0.05,9.4644e-07,9.4578,7.2674e-07,5.4604,1.6182e-12,-1.4996e-07,-7.2675e-07,-5.4605,0.41993
14394,8.999,0.63636,0,0.00036592,3656.7,0.00012139,0.0073528,0.00011968,-12.867,-0.00036614,-3663.1,0.41854
14395,8.9072,0.72727,0,0.00036825,3680,0.00012236,0.0082704,0.0001201,-16.967,-0.00036854,-3688.4,0.41106
14396,8.999,0.72727,0.05,9.4505e-07,9.444,7.2568e-07,5.4525,2.5463e-12,-7.1969e-07,-7.2569e-07,-5.4525,0.41901
14397,8.999,0.45455,0,0.00036648,3662.3,0.00012129,0.016299,0.00012035,-6.9877,-0.0003666,-3665.8,0.4175
14398,8.9072,0.54545,0,0.00036882,3685.7,0.00012225,0.0076926,0.00012079,-10.962,-0.00036901,-3691.1,0.41005
14399,8.999,0.54545,0.05,9.4067e-07,9.4002,7.2231e-07,5.4271,3.4892e-12,5.0991e-07,-7.2232e-07,-5.4272,0.41801
14400,8.999,0.27273,0,0.00036713,3668.8,0.0001212,0.14569,0.0001211,-0.59405,-0.00036714,-3669,0.41639
14401,8.9072,0.36364,0,0.00036942,3691.7,0.00012214,0.029938,0.00012152,-4.6736,-0.0003695,-3694,0.40896
14402,8.999,0.36364,0.05,8.9242e-07,8.9181,6.8527e-07,5.1488,3.4717e-12,-6.423e-07,-6.8528e-07,-5.1489,0.41693
14403,8.9072,0.18182,0,0.00037017,3699.1,0.00012239,2.7483,0.00012201,-0.07415,-0.00037012,-3697.8,0.4078
14404,8.999,0.18182,0.05,1.8376e-07,1.8363,1.411e-07,1.0602,2.2637e-12,-1.6926e-05,-1.411e-07,-1.0602,0.41577
14405,8.999,0.090909,0,0.00036732,3670.6,0.00012145,2.833,0.00012107,-0.021814,-0.00036727,-3669.2,0.41519
14406,8.8154,5.7273,0,0.00037244,3721.9,0.00012299,0.072342,0.00012276,-1.6608,-0.00037247,-3722.7,0.40046
14407,8.7236,5.8182,0,0.00037551,3752.5,0.00012408,1.8909,0.00012381,-0.1252,-0.00037548,-3751.6,0.39199
14408,8.8154,5.8182,0.05,2.0357e-07,2.0343,1.5632e-07,1.1746,-3.4339e-12,2.6871e-05,-1.5632e-07,-1.1745,0.39984
14409,8.8154,5.9091,0,0.00037269,3724.3,0.00012318,2.3284,0.00012287,-0.033878,-0.00037265,-3723.1,0.39925
14410,8.8154,5.5455,0,0.00037175,3715,0.00012311,0.018483,0.00012195,-8.6629,-0.0003719,-3719.3,0.40159
14411,8.7236,5.6364,0,0.00037472,3744.6,0.00012396,0.033321,0.00012314,-6.1256,-0.00037483,-3747.7,0.39317
14412,8.8154,5.6364,0.05,8.9938e-07,8.9876,6.9061e-07,5.1891,-4.357e-12,3.1975e-06,-6.9061e-07,-5.1889,0.40101
14413,8.8154,5.3636,0,0.00037115,3708.9,0.00012323,0.0082282,0.00012122,-15.077,-0.0003714,-3716.4,0.40264
14414,8.7236,5.4545,0,0.00037408,3738.2,0.00012409,0.0087296,0.00012236,-12.978,-0.00037429,-3744.6,0.39427
14415,8.8154,5.4545,0.05,9.4692e-07,9.4626,7.2712e-07,5.4633,-4.3423e-12,3.602e-06,-7.2711e-07,-5.4632,0.4021
14416,8.8154,5.1818,0,0.00037057,3703.1,0.00012334,0.0075597,0.00012051,-21.205,-0.00037092,-3713.7,0.40361
14417,8.7236,5.2727,0,0.00037346,3732,0.00012421,0.0091482,0.00012161,-19.531,-0.00037379,-3741.8,0.39528
14418,8.8154,5.2727,0.05,9.5133e-07,9.5067,7.3051e-07,5.4888,-3.3788e-12,2.3895e-06,-7.305e-07,-5.4887,0.40311
14419,8.8154,5,0,0.00037002,3697.7,0.00012344,0.0061065,0.00011985,-27.032,-0.00037047,-3711.1,0.40451
14420,8.7236,5.0909,0,0.00037287,3726.2,0.00012432,0.0068472,0.00012089,-25.792,-0.00037331,-3739,0.39622
14421,8.8154,5.0909,0.05,9.5277e-07,9.5211,7.3161e-07,5.4971,-3.3988e-12,2.5729e-06,-7.316e-07,-5.4969,0.40404
14422,8.8154,4.8182,0,0.00036951,3692.5,0.00012354,0.0052437,0.00011922,-32.514,-0.00037005,-3708.7,0.40532
14423,8.7236,4.9091,0,0.00037232,3720.6,0.00012443,0.0058774,0.00012021,-31.716,-0.00037285,-3736.4,0.39708
14424,8.8154,4.9091,0.05,9.5387e-07,9.5321,7.3245e-07,5.5034,-3.3648e-12,2.4715e-06,-7.3245e-07,-5.5033,0.4049
14425,8.8154,4.6364,0,0.00036903,3687.7,0.00012364,0.004457,0.00011863,-37.61,-0.00036965,-3706.4,0.40605
14426,8.7236,4.7273,0,0.0003718,3715.5,0.00012454,0.0049096,0.00011958,-37.258,-0.00037242,-3734,0.39785
14427,8.8154,4.7273,0.05,9.5481e-07,9.5415,7.3318e-07,5.5088,-3.3747e-12,1.9529e-06,-7.3317e-07,-5.5087,0.40567
14428,8.8154,4.4545,0,0.00036859,3683.4,0.00012372,0.003798,0.0001181,-42.282,-0.00036929,-3704.3,0.40671
14429,8.7236,4.5455,0,0.00037133,3710.7,0.00012463,0.0041402,0.00011899,-42.376,-0.00037203,-3731.7,0.39855
14430,8.8154,4.5455,0.05,9.5561e-07,9.5495,7.3379e-07,5.5135,-2.4944e-12,2.8238e-06,-7.3378e-07,-5.5133,0.40636
14431,8.8154,4.2727,0,0.0003682,3679.4,0.0001238,0.0032235,0.00011761,-46.494,-0.00036897,-3702.4,0.40729
14432,8.7236,4.3636,0,0.00037089,3706.4,0.00012472,0.0034649,0.00011846,-47.031,-0.00037167,-3729.7,0.39917
14433,8.8154,4.3636,0.05,9.5628e-07,9.5562,7.3431e-07,5.5173,-1.5768e-12,1.8135e-06,-7.343e-07,-5.5172,0.40698
14434,8.8154,4.0909,0,0.00036785,3675.9,0.00012387,0.0027314,0.00011719,-50.212,-0.00036868,-3700.8,0.40779
14435,8.7236,4.1818,0,0.00037051,3702.5,0.00012479,0.0028881,0.00011798,-51.187,-0.00037135,-3727.8,0.39971
14436,8.8154,4.1818,0.05,9.5684e-07,9.5618,7.3474e-07,5.5206,-2.5359e-12,1.5671e-06,-7.3474e-07,-5.5205,0.40752
14437,8.8154,3.9091,0,0.00036755,3673,0.00012393,0.0023148,0.00011682,-53.409,-0.00036843,-3699.4,0.40821
14438,8.7236,4,0,0.00037017,3699.1,0.00012486,0.0023962,0.00011757,-54.812,-0.00037107,-3726.2,0.40018
14439,8.8154,4,0.05,9.573e-07,9.5664,7.3509e-07,5.5232,-2.5347e-12,1.3812e-06,-7.3508e-07,-5.5231,0.40798
14440,8.8154,3.7273,0,0.0003673,3670.5,0.00012398,0.0019728,0.00011651,-56.06,-0.00036822,-3698.2,0.40855
14441,8.7236,3.8182,0,0.00036988,3696.3,0.00012492,0.001986,0.00011721,-57.878,-0.00037083,-3724.9,0.40056
14442,8.8154,3.8182,0.05,9.5766e-07,9.57,7.3537e-07,5.5253,-1.6712e-12,1.1196e-06,-7.3536e-07,-5.5252,0.40837
14443,8.8154,3.5455,0,0.00036711,3668.5,0.00012401,0.0017066,0.00011628,-58.144,-0.00036806,-3697.3,0.40882
14444,8.7236,3.6364,0,0.00036965,3694,0.00012496,0.0016576,0.00011693,-60.359,-0.00037064,-3723.8,0.40087
14445,8.8154,3.6364,0.05,9.5794e-07,9.5728,7.3558e-07,5.5269,-1.7042e-12,1.4055e-06,-7.3558e-07,-5.5268,0.40867
14446,8.8154,3.3636,0,0.00036697,3667.1,0.00012404,0.0015159,0.0001161,-59.644,-0.00036795,-3696.6,0.40902
14447,8.7236,3.4545,0,0.00036948,3692.2,0.000125,0.0014118,0.00011671,-62.238,-0.0003705,-3723,0.4011
14448,8.8154,3.4545,0.05,9.5814e-07,9.5748,7.3573e-07,5.528,-8.2716e-13,1.1123e-06,-7.3573e-07,-5.528,0.4089
14449,8.8154,3.1818,0,0.00036688,3666.3,0.00012406,0.0014004,0.000116,-60.549,-0.00036788,-3696.2,0.40913
14450,8.7236,3.2727,0,0.00036936,3691.1,0.00012502,0.0012466,0.00011657,-63.499,-0.0003704,-3722.4,0.40126
14451,8.8154,3.2727,0.05,9.5827e-07,9.5761,7.3584e-07,5.5288,-8.5901e-13,8.6037e-07,-7.3583e-07,-5.5287,0.40906
14452,8.8154,3,0,0.00036686,3666,0.00012406,0.0013617,0.00011597,-60.851,-0.00036785,-3696.1,0.40917
14453,8.7236,3.0909,0,0.0003693,3690.5,0.00012503,0.0011634,0.0001165,-64.132,-0.00037035,-3722.1,0.40133
14454,8.8154,3.0909,0.05,9.5834e-07,9.5767,7.3588e-07,5.5292,1.6771e-14,6.0358e-07,-7.3588e-07,-5.5291,0.40913
14455,8.8154,2.8182,0,0.00036688,3666.3,0.00012406,0.0014006,0.000116,-60.549,-0.00036788,-3696.2,0.40913
14456,8.7236,2.9091,0,0.0003693,3690.5,0.00012503,0.0011635,0.0001165,-64.132,-0.00037035,-3722.1,0.40133
14457,8.8154,2.9091,0.05,9.5834e-07,9.5767,7.3588e-07,5.5292,-1.6771e-14,8.289e-07,-7.3588e-07,-5.5291,0.40913
14458,8.8154,2.6364,0,0.00036697,3667.1,0.00012404,0.001516,0.0001161,-59.644,-0.00036795,-3696.6,0.40902
14459,8.7236,2.7273,0,0.00036936,3691.1,0.00012502,0.0012467,0.00011657,-63.499,-0.0003704,-3722.4,0.40126
14460,8.8154,2.7273,0.05,9.5827e-07,9.5761,7.3584e-07,5.5288,-9.5865e-13,1.0674e-06,-7.3583e-07,-5.5287,0.40906
14461,8.8154,2.4545,0,0.00036711,3668.5,0.00012401,0.0017067,0.00011628,-58.144,-0.00036806,-3697.3,0.40882
14462,8.7236,2.5455,0,0.00036948,3692.2,0.000125,0.0014119,0.00011671,-62.238,-0.0003705,-3723,0.4011
14463,8.8154,2.5455,0.05,9.5814e-07,9.5748,7.3573e-07,5.528,-8.1966e-14,-1.3454e-07,-7.3573e-07,-5.528,0.4089
14464,8.8154,2.2727,0,0.0003673,3670.5,0.00012398,0.001973,0.00011651,-56.06,-0.00036822,-3698.2,0.40855
14465,8.7236,2.3636,0,0.00036965,3694,0.00012496,0.0016577,0.00011693,-60.359,-0.00037064,-3723.8,0.40087
14466,8.8154,2.3636,0.05,9.5794e-07,9.5728,7.3558e-07,5.5268,-1.1056e-13,5.8145e-07,-7.3558e-07,-5.5268,0.40867
14467,8.8154,2.0909,0,0.00036755,3673,0.00012393,0.0023151,0.00011682,-53.409,-0.00036843,-3699.4,0.40821
14468,8.7236,2.1818,0,0.00036988,3696.3,0.00012492,0.0019864,0.00011721,-57.878,-0.00037083,-3724.9,0.40056
14469,8.8154,2.1818,0.05,9.5766e-07,9.57,7.3536e-07,5.5252,-1.455e-13,4.5259e-07,-7.3537e-07,-5.5252,0.40837
14470,8.8154,1.9091,0,0.00036785,3675.9,0.00012387,0.002732,0.00011719,-50.212,-0.00036868,-3700.8,0.40779
14471,8.7236,2,0,0.00037017,3699.1,0.00012486,0.0023967,0.00011757,-54.812,-0.00037107,-3726.2,0.40018
14472,8.8154,2,0.05,9.573e-07,9.5664,7.3508e-07,5.5231,7.4495e-13,-2.9303e-07,-7.3509e-07,-5.5232,0.40798
14473,8.8154,1.7273,0,0.0003682,3679.4,0.0001238,0.0032244,0.00011761,-46.494,-0.00036897,-3702.4,0.40729
14474,8.7236,1.8182,0,0.00037051,3702.5,0.00012479,0.0028886,0.00011798,-51.187,-0.00037135,-3727.8,0.39971
14475,8.8154,1.8182,0.05,9.5684e-07,9.5618,7.3474e-07,5.5205,1.6352e-12,1.1043e-07,-7.3473e-07,-5.5205,0.40752
14476,8.8154,1.5455,0,0.00036859,3683.4,0.00012372,0.0037986,0.0001181,-42.282,-0.00036929,-3704.3,0.40671
14477,8.7236,1.6364,0,0.00037089,3706.4,0.00012472,0.0034657,0.00011846,-47.031,-0.00037167,-3729.7,0.39917
14478,8.8154,1.6364,0.05,9.5628e-07,9.5562,7.343e-07,5.5173,2.5188e-12,-4.7181e-07,-7.3431e-07,-5.5173,0.40698
14479,8.8154,1.3636,0,0.00036903,3687.7,0.00012364,0.0044574,0.00011863,-37.61,-0.00036965,-3706.4,0.40605
14480,8.7236,1.4545,0,0.00037133,3710.7,0.00012463,0.0041406,0.00011899,-42.376,-0.00037203,-3731.7,0.39855
14481,8.8154,1.4545,0.05,9.5561e-07,9.5495,7.3379e-07,5.5133,1.6022e-12,-8.0755e-07,-7.3379e-07,-5.5134,0.40636
14482,8.8154,1.1818,0,0.00036951,3692.5,0.00012354,0.0052444,0.00011922,-32.514,-0.00037005,-3708.7,0.40532
14483,8.7236,1.2727,0,0.0003718,3715.5,0.00012454,0.0049105,0.00011958,-37.258,-0.00037242,-3734,0.39785
14484,8.8154,1.2727,0.05,9.5481e-07,9.5415,7.3317e-07,5.5087,2.5009e-12,-5.1919e-07,-7.3318e-07,-5.5088,0.40567
14485,8.8154,1,0,0.00037002,3697.7,0.00012344,0.0061075,0.00011985,-27.032,-0.00037047,-3711.1,0.40451
14486,8.7236,1.0909,0,0.00037232,3720.6,0.00012443,0.0058781,0.00012021,-31.716,-0.00037285,-3736.4,0.39708
14487,8.8154,1.0909,0.05,9.5387e-07,9.5321,7.3245e-07,5.5033,1.574e-12,-4.2579e-08,-7.3246e-07,-5.5034,0.4049
14488,8.8154,0.81818,0,0.00037057,3703.1,0.00012334,0.007561,0.00012051,-21.205,-0.00037092,-3713.7,0.40361
14489,8.7236,0.90909,0,0.00037287,3726.2,0.00012432,0.0068488,0.00012089,-25.792,-0.00037331,-3739,0.39622
14490,8.8154,0.90909,0.05,9.5277e-07,9.5211,7.316e-07,5.4969,2.4601e-12,-6.7655e-07,-7.3161e-07,-5.4971,0.40404
14491,8.8154,0.63636,0,0.00037115,3708.9,0.00012323,0.008229,0.00012122,-15.077,-0.0003714,-3716.4,0.40264
14492,8.7236,0.72727,0,0.00037346,3732,0.00012421,0.0091494,0.00012161,-19.531,-0.00037379,-3741.8,0.39528
14493,8.8154,0.72727,0.05,9.5133e-07,9.5067,7.305e-07,5.4887,2.4751e-12,-1.0834e-07,-7.3051e-07,-5.4887,0.40311
14494,8.8154,0.45455,0,0.00037175,3715,0.00012311,0.018483,0.00012195,-8.6629,-0.0003719,-3719.3,0.40159
14495,8.7236,0.54545,0,0.00037408,3738.2,0.00012409,0.0087301,0.00012236,-12.978,-0.00037429,-3744.6,0.39427
14496,8.8154,0.54545,0.05,9.4692e-07,9.4626,7.2711e-07,5.4632,3.389e-12,-2.257e-07,-7.2712e-07,-5.4633,0.4021
14497,8.8154,0.27273,0,0.00037244,3721.9,0.00012299,0.072342,0.00012276,-1.6608,-0.00037247,-3722.7,0.40046
14498,8.7236,0.36364,0,0.00037472,3744.6,0.00012396,0.033322,0.00012314,-6.1256,-0.00037483,-3747.7,0.39317
14499,8.8154,0.36364,0.05,8.9938e-07,8.9876,6.9061e-07,5.1889,2.5006e-12,2.6467e-07,-6.9061e-07,-5.189,0.40101
14500,8.7236,0.18182,0,0.00037551,3752.5,0.00012408,1.8909,0.00012381,-0.1252,-0.00037548,-3751.6,0.39199
14501,8.8154,0.18182,0.05,2.0357e-07,2.0343,1.5632e-07,1.1745,1.7508e-12,-2.2484e-05,-1.5632e-07,-1.1746,0.39984
14502,8.8154,0.090909,0,0.00037269,3724.3,0.00012318,2.3284,0.00012287,-0.033877,-0.00037265,-3723.1,0.39925
14503,8.6317,5.7273,0,0.00037778,3775.2,0.00012481,0.056829,0.00012443,-2.8598,-0.00037783,-3776.6,0.38479
14504,8.5399,5.8182,0,0.00038088,3806.2,0.00012579,1.0621,0.00012562,-0.25959,-0.00038086,-3805.8,0.37644
14505,8.6317,5.8182,0.05,2.2513e-07,2.2498,1.7288e-07,1.299,-1.8811e-12,3.5189e-05,-1.7287e-07,-1.2988,0.38416
14506,8.6317,5.9091,0,0.00037808,3778.2,0.00012492,1.8031,0.00012467,-0.055348,-0.00037805,-3777.3,0.38356
14507,8.6317,5.5455,0,0.00037704,3767.8,0.00012494,0.020849,0.00012355,-10.456,-0.00037722,-3773,0.38593
14508,8.5399,5.6364,0,0.00038005,3797.8,0.0001258,0.037071,0.00012477,-7.6774,-0.00038017,-3801.6,0.37763
14509,8.6317,5.6364,0.05,9.0673e-07,9.061,6.9626e-07,5.2314,-3.3756e-12,3.9893e-06,-6.9625e-07,-5.2313,0.38534
14510,8.6317,5.3636,0,0.00037639,3761.3,0.00012507,0.0092033,0.00012275,-17.446,-0.00037668,-3770,0.38699
14511,8.5399,5.4545,0,0.00037935,3790.9,0.00012594,0.0098689,0.00012392,-15.139,-0.0003796,-3798.4,0.37874
14512,8.6317,5.4545,0.05,9.5348e-07,9.5282,7.3216e-07,5.5012,-5.2086e-12,4.1019e-06,-7.3215e-07,-5.501,0.38644
14513,8.6317,5.1818,0,0.00037577,3755.1,0.0001252,0.0082785,0.00012198,-24.131,-0.00037617,-3767.1,0.38797
14514,8.5399,5.2727,0,0.00037869,3784.3,0.00012607,0.010123,0.0001231,-22.283,-0.00037906,-3795.3,0.37976
14515,8.6317,5.2727,0.05,9.5791e-07,9.5725,7.3556e-07,5.5268,-4.2422e-12,2.9779e-06,-7.3555e-07,-5.5266,0.38747
14516,8.6317,5,0,0.00037517,3749.1,0.00012531,0.0065417,0.00012126,-30.489,-0.00037568,-3764.3,0.38887
14517,8.5399,5.0909,0,0.00037805,3777.9,0.0001262,0.0074224,0.00012232,-29.11,-0.00037854,-3792.4,0.38071
14518,8.6317,5.0909,0.05,9.594e-07,9.5874,7.3671e-07,5.5354,-3.3654e-12,3.5478e-06,-7.367e-07,-5.5352,0.38841
14519,8.6317,4.8182,0,0.00037462,3743.6,0.00012543,0.0054985,0.00012057,-36.472,-0.00037522,-3761.7,0.38969
14520,8.5399,4.9091,0,0.00037746,3772,0.00012632,0.0062467,0.00012158,-35.572,-0.00037805,-3789.6,0.38158
14521,8.6317,4.9091,0.05,9.6055e-07,9.5989,7.3758e-07,5.5419,-3.4133e-12,1.9251e-06,-7.3758e-07,-5.5419,0.38927
14522,8.6317,4.6364,0,0.0003741,3738.4,0.00012553,0.004563,0.00011993,-42.035,-0.0003748,-3759.3,0.39044
14523,8.5399,4.7273,0,0.0003769,3766.4,0.00012643,0.0051006,0.00012089,-41.619,-0.00037759,-3787,0.38236
14524,8.6317,4.7273,0.05,9.6152e-07,9.6086,7.3833e-07,5.5475,-3.3581e-12,2.1815e-06,-7.3832e-07,-5.5475,0.39005
14525,8.6317,4.4545,0,0.00037363,3733.7,0.00012562,0.0037854,0.00011935,-47.136,-0.00037441,-3757,0.3911
14526,8.5399,4.5455,0,0.00037638,3761.2,0.00012654,0.0041935,0.00012025,-47.204,-0.00037716,-3784.6,0.38307
14527,8.6317,4.5455,0.05,9.6234e-07,9.6168,7.3896e-07,5.5523,-2.4838e-12,4.0085e-06,-7.3896e-07,-5.5522,0.39075
14528,8.6317,4.2727,0,0.0003732,3729.4,0.00012571,0.0031124,0.00011882,-51.735,-0.00037405,-3755,0.39168
14529,8.5399,4.3636,0,0.00037591,3756.5,0.00012663,0.0034045,0.00011967,-52.286,-0.00037677,-3782.4,0.38369
14530,8.6317,4.3636,0.05,9.6303e-07,9.6236,7.3948e-07,5.5563,-2.4957e-12,2.0337e-06,-7.3949e-07,-5.5561,0.39137
14531,8.6317,4.0909,0,0.00037283,3725.7,0.00012579,0.0025386,0.00011836,-55.797,-0.00037374,-3753.3,0.39219
14532,8.5399,4.1818,0,0.00037549,3752.4,0.00012672,0.0027335,0.00011915,-56.823,-0.00037643,-3780.4,0.38424
14533,8.6317,4.1818,0.05,9.6359e-07,9.6293,7.3993e-07,5.5595,-2.4806e-12,1.8052e-06,-7.3991e-07,-5.5594,0.39192
14534,8.6317,3.9091,0,0.0003725,3722.5,0.00012585,0.002055,0.00011796,-59.289,-0.00037348,-3751.7,0.39261
14535,8.5399,4,0,0.00037513,3748.7,0.00012679,0.0021639,0.0001187,-60.781,-0.00037613,-3778.7,0.38471
14536,8.6317,4,0.05,9.6405e-07,9.6338,7.4026e-07,5.5621,-2.5528e-12,1.5348e-06,-7.4027e-07,-5.562,0.39238
14537,8.6317,3.7273,0,0.00037223,3719.8,0.0001259,0.0016596,0.00011763,-62.186,-0.00037325,-3750.5,0.39296
14538,8.5399,3.8182,0,0.00037482,3745.6,0.00012685,0.0016907,0.00011832,-64.128,-0.00037587,-3777.3,0.3851
14539,8.6317,3.8182,0.05,9.644e-07,9.6374,7.4054e-07,5.5642,-7.3309e-13,1.1637e-06,-7.4054e-07,-5.5641,0.39277
14540,8.6317,3.5455,0,0.00037202,3717.7,0.00012595,0.0013524,0.00011737,-64.462,-0.00037308,-3749.5,0.39323
14541,8.5399,3.6364,0,0.00037457,3743.1,0.0001269,0.0013127,0.00011801,-66.839,-0.00037566,-3776.1,0.38541
14542,8.6317,3.6364,0.05,9.6468e-07,9.6401,7.4076e-07,5.5658,-1.6875e-12,1.0157e-06,-7.4075e-07,-5.5657,0.39308
14543,8.6317,3.3636,0,0.00037187,3716.2,0.00012598,0.0011326,0.00011718,-66.102,-0.00037295,-3748.8,0.39343
14544,8.5399,3.4545,0,0.00037438,3741.2,0.00012694,0.0010302,0.00011777,-68.891,-0.00037551,-3775.2,0.38564
14545,8.6317,3.4545,0.05,9.6487e-07,9.6421,7.409e-07,5.5669,-1.7294e-12,1.639e-06,-7.409e-07,-5.5668,0.39331
14546,8.6317,3.1818,0,0.00037178,3715.2,0.000126,0.001,0.00011707,-67.09,-0.00037288,-3748.3,0.39354
14547,8.5399,3.2727,0,0.00037426,3740,0.00012697,0.00084066,0.00011762,-70.268,-0.0003754,-3774.6,0.3858
14548,8.6317,3.2727,0.05,9.65e-07,9.6433,7.41e-07,5.5676,-8.5438e-13,3.2763e-06,-7.41e-07,-5.5676,0.39347
14549,8.6317,3,0,0.00037175,3714.9,0.000126,0.00095562,0.00011703,-67.421,-0.00037285,-3748.2,0.39358
14550,8.5399,3.0909,0,0.00037419,3739.3,0.00012698,0.00074561,0.00011754,-70.96,-0.00037535,-3774.3,0.38587
14551,8.6317,3.0909,0.05,9.6506e-07,9.644,7.4105e-07,5.5679,-1.8007e-12,1.0907e-06,-7.4105e-07,-5.5679,0.39355
14552,8.6317,2.8182,0,0.00037178,3715.2,0.000126,0.00099997,0.00011707,-67.09,-0.00037288,-3748.3,0.39354
14553,8.5399,2.9091,0,0.00037419,3739.3,0.00012698,0.00074558,0.00011754,-70.96,-0.00037535,-3774.3,0.38587
14554,8.6317,2.9091,0.05,9.6506e-07,9.644,7.4105e-07,5.5679,-1.8151e-14,-1.3779e-07,-7.4105e-07,-5.5679,0.39355
14555,8.6317,2.6364,0,0.00037187,3716.2,0.00012598,0.0011327,0.00011718,-66.102,-0.00037295,-3748.8,0.39343
14556,8.5399,2.7273,0,0.00037426,3740,0.00012697,0.00084096,0.00011762,-70.268,-0.0003754,-3774.6,0.3858
14557,8.6317,2.7273,0.05,9.65e-07,9.6433,7.41e-07,5.5676,-9.6403e-13,5.507e-07,-7.41e-07,-5.5676,0.39347
14558,8.6317,2.4545,0,0.00037202,3717.7,0.00012595,0.0013525,0.00011737,-64.462,-0.00037308,-3749.5,0.39323
14559,8.5399,2.5455,0,0.00037438,3741.2,0.00012694,0.0010302,0.00011777,-68.891,-0.00037551,-3775.2,0.38564
14560,8.6317,2.5455,0.05,9.6487e-07,9.6421,7.409e-07,5.5669,-8.7491e-14,1.2354e-06,-7.409e-07,-5.5669,0.39331
14561,8.6317,2.2727,0,0.00037223,3719.8,0.0001259,0.0016599,0.00011763,-62.186,-0.00037325,-3750.5,0.39296
14562,8.5399,2.3636,0,0.00037457,3743.1,0.0001269,0.0013129,0.00011801,-66.839,-0.00037566,-3776.1,0.38541
14563,8.6317,2.3636,0.05,9.6468e-07,9.6401,7.4075e-07,5.5657,7.8899e-13,-4.9695e-07,-7.4075e-07,-5.5658,0.39308
14564,8.6317,2.0909,0,0.0003725,3722.5,0.00012585,0.0020556,0.00011796,-59.289,-0.00037348,-3751.7,0.39261
14565,8.5399,2.1818,0,0.00037482,3745.6,0.00012685,0.0016911,0.00011832,-64.128,-0.00037587,-3777.3,0.3851
14566,8.6317,2.1818,0.05,9.644e-07,9.6374,7.4054e-07,5.5642,-1.454e-13,-5.5878e-07,-7.4054e-07,-5.5642,0.39277
14567,8.6317,1.9091,0,0.00037283,3725.7,0.00012579,0.0025391,0.00011836,-55.797,-0.00037374,-3753.3,0.39219
14568,8.5399,2,0,0.00037513,3748.7,0.00012679,0.0021643,0.0001187,-60.781,-0.00037613,-3778.7,0.38471
14569,8.6317,2,0.05,9.6405e-07,9.6338,7.4027e-07,5.5621,7.3776e-13,1.148e-07,-7.4027e-07,-5.5621,0.39238
14570,8.6317,1.7273,0,0.0003732,3729.4,0.00012571,0.0031129,0.00011882,-51.735,-0.00037405,-3755,0.39168
14571,8.5399,1.8182,0,0.00037549,3752.4,0.00012672,0.0027339,0.00011915,-56.823,-0.00037643,-3780.4,0.38424
14572,8.6317,1.8182,0.05,9.6359e-07,9.6293,7.3992e-07,5.5594,7.1596e-13,-5.3335e-07,-7.3992e-07,-5.5595,0.39192
14573,8.6317,1.5455,0,0.00037363,3733.7,0.00012562,0.003786,0.00011935,-47.136,-0.00037441,-3757,0.3911
14574,8.5399,1.6364,0,0.00037591,3756.5,0.00012663,0.0034051,0.00011967,-52.286,-0.00037677,-3782.4,0.38369
14575,8.6317,1.6364,0.05,9.6303e-07,9.6236,7.3949e-07,5.5562,6.9744e-13,-6.8136e-07,-7.3948e-07,-5.5562,0.39137
14576,8.6317,1.3636,0,0.0003741,3738.4,0.00012553,0.0045639,0.00011993,-42.035,-0.0003748,-3759.3,0.39044
14577,8.5399,1.4545,0,0.00037638,3761.2,0.00012654,0.0041943,0.00012025,-47.204,-0.00037716,-3784.6,0.38307
14578,8.6317,1.4545,0.05,9.6234e-07,9.6168,7.3896e-07,5.5522,1.5939e-12,6.9347e-08,-7.3896e-07,-5.5523,0.39075
14579,8.6317,1.1818,0,0.00037462,3743.6,0.00012543,0.0054995,0.00012057,-36.472,-0.00037522,-3761.7,0.38969
14580,8.5399,1.2727,0,0.0003769,3766.4,0.00012643,0.0051015,0.00012089,-41.619,-0.00037759,-3787,0.38236
14581,8.6317,1.2727,0.05,9.6152e-07,9.6086,7.3832e-07,5.5475,6.6428e-13,-6.2043e-07,-7.3833e-07,-5.5475,0.39005
14582,8.6317,1,0,0.00037517,3749.1,0.00012531,0.0065428,0.00012126,-30.489,-0.00037568,-3764.3,0.38887
14583,8.5399,1.0909,0,0.00037746,3772,0.00012632,0.0062472,0.00012158,-35.572,-0.00037805,-3789.6,0.38158
14584,8.6317,1.0909,0.05,9.6055e-07,9.5989,7.3758e-07,5.5419,1.5926e-12,-1.33e-06,-7.3758e-07,-5.5419,0.38927
14585,8.6317,0.81818,0,0.00037577,3755.1,0.0001252,0.00828,0.00012198,-24.131,-0.00037617,-3767.1,0.38797
14586,8.5399,0.90909,0,0.00037805,3777.9,0.0001262,0.0074241,0.00012232,-29.11,-0.00037854,-3792.4,0.38071
14587,8.6317,0.90909,0.05,9.594e-07,9.5874,7.367e-07,5.5353,2.4878e-12,-1.3854e-06,-7.367e-07,-5.5353,0.38841
14588,8.6317,0.63636,0,0.00037639,3761.3,0.00012507,0.0092042,0.00012275,-17.446,-0.00037668,-3770,0.38699
14589,8.5399,0.72727,0,0.00037869,3784.3,0.00012607,0.010125,0.0001231,-22.283,-0.00037906,-3795.3,0.37976
14590,8.6317,0.72727,0.05,9.5791e-07,9.5725,7.3555e-07,5.5266,3.3676e-12,-9.2118e-07,-7.3556e-07,-5.5267,0.38747
14591,8.6317,0.45455,0,0.00037704,3767.8,0.00012494,0.02085,0.00012355,-10.456,-0.00037722,-3773,0.38593
14592,8.5399,0.54545,0,0.00037935,3790.9,0.00012594,0.0098694,0.00012392,-15.139,-0.0003796,-3798.4,0.37874
14593,8.6317,0.54545,0.05,9.5348e-07,9.5282,7.3215e-07,5.5011,5.1975e-12,-2.9833e-07,-7.3216e-07,-5.5012,0.38644
14594,8.6317,0.27273,0,0.00037778,3775.2,0.00012481,0.05683,0.00012443,-2.8598,-0.00037783,-3776.6,0.38479
14595,8.5399,0.36364,0,0.00038005,3797.8,0.0001258,0.037072,0.00012477,-7.6774,-0.00038017,-3801.6,0.37763
14596,8.6317,0.36364,0.05,9.0673e-07,9.061,6.9625e-07,5.2313,3.4894e-12,-8.2983e-07,-6.9625e-07,-5.2314,0.38534
14597,8.5399,0.18182,0,0.00038088,3806.2,0.00012579,1.0621,0.00012562,-0.25959,-0.00038087,-3805.8,0.37644
14598,8.6317,0.18182,0.05,2.2514e-07,2.2498,1.7287e-07,1.2989,2.5002e-12,-2.0068e-05,-1.7288e-07,-1.299,0.38416
14599,8.6317,0.090909,0,0.00037808,3778.2,0.00012492,1.8031,0.00012467,-0.055347,-0.00037805,-3777.3,0.38356
14600,8.4481,5.7273,0,0.00038314,3828.7,0.00012664,0.05192,0.00012609,-4.1491,-0.00038321,-3830.8,0.36937
14601,8.3562,5.8182,0,0.00038627,3860.1,0.00012754,0.46838,0.00012739,-0.68722,-0.00038628,-3860.2,0.36114
14602,8.4481,5.8182,0.05,2.4858e-07,2.484,1.9088e-07,1.4342,-1.7336e-13,2.3375e-05,-1.9087e-07,-1.4341,0.36873
14603,8.4481,5.9091,0,0.00038351,3832.4,0.00012667,1.2679,0.00012649,-0.098772,-0.00038349,-3831.8,0.36813
14604,8.4481,5.5455,0,0.00038235,3820.9,0.00012679,0.023411,0.00012514,-12.375,-0.00038256,-3827,0.37052
14605,8.3562,5.6364,0,0.00038539,3851.3,0.00012764,0.04118,0.0001264,-9.3362,-0.00038555,-3855.9,0.36234
14606,8.4481,5.6364,0.05,9.1451e-07,9.1388,7.0224e-07,5.2764,-3.3796e-12,3.5188e-06,-7.0223e-07,-5.2762,0.36993
14607,8.4481,5.3636,0,0.00038165,3813.8,0.00012693,0.010277,0.00012427,-19.989,-0.00038198,-3823.8,0.37159
14608,8.3562,5.4545,0,0.00038464,3843.8,0.0001278,0.011114,0.00012547,-17.456,-0.00038494,-3852.5,0.36346
14609,8.4481,5.4545,0.05,9.6039e-07,9.5973,7.3746e-07,5.5411,-5.166e-12,4.9316e-06,-7.3746e-07,-5.5409,0.37104
14610,8.4481,5.1818,0,0.00038097,3807.1,0.00012707,0.0090775,0.00012344,-27.274,-0.00038143,-3820.7,0.37259
14611,8.3562,5.2727,0,0.00038393,3836.6,0.00012794,0.011196,0.00012458,-25.238,-0.00038435,-3849.2,0.3645
14612,8.4481,5.2727,0.05,9.6483e-07,9.6417,7.4088e-07,5.5667,-5.1193e-12,3.0636e-06,-7.4087e-07,-5.5666,0.37207
14613,8.4481,5,0,0.00038034,3800.7,0.0001272,0.0070325,0.00012265,-34.206,-0.00038091,-3817.7,0.3735
14614,8.3562,5.0909,0,0.00038324,3829.8,0.00012809,0.0080632,0.00012374,-32.678,-0.00038379,-3846,0.36546
14615,8.4481,5.0909,0.05,9.6638e-07,9.6571,7.4206e-07,5.5756,-3.3181e-12,2.8986e-06,-7.4206e-07,-5.5755,0.37302
14616,8.4481,4.8182,0,0.00037973,3794.7,0.00012733,0.0057924,0.0001219,-40.73,-0.00038041,-3814.9,0.37432
14617,8.3562,4.9091,0,0.0003826,3823.3,0.00012822,0.0066625,0.00012293,-39.721,-0.00038326,-3843,0.36633
14618,8.4481,4.9091,0.05,9.6757e-07,9.669,7.4298e-07,5.5825,-3.3124e-12,2.875e-06,-7.4297e-07,-5.5823,0.37389
14619,8.4481,4.6364,0,0.00037918,3789.1,0.00012744,0.0046934,0.00012121,-46.798,-0.00037995,-3812.3,0.37507
14620,8.3562,4.7273,0,0.00038199,3817.3,0.00012835,0.0053218,0.00012218,-46.314,-0.00038276,-3840.3,0.36712
14621,8.4481,4.7273,0.05,9.6857e-07,9.679,7.4374e-07,5.5882,-3.3466e-12,2.3364e-06,-7.4374e-07,-5.5881,0.37468
14622,8.4481,4.4545,0,0.00037866,3784,0.00012754,0.0037852,0.00012057,-52.364,-0.00037953,-3809.9,0.37574
14623,8.3562,4.5455,0,0.00038144,3811.7,0.00012846,0.0042642,0.00012149,-52.405,-0.0003823,-3837.7,0.36783
14624,8.4481,4.5455,0.05,9.694e-07,9.6873,7.4438e-07,5.593,-3.3754e-12,3.2928e-06,-7.4438e-07,-5.5929,0.37539
14625,8.4481,4.2727,0,0.0003782,3779.4,0.00012764,0.0030042,0.00012,-57.382,-0.00037915,-3807.8,0.37633
14626,8.3562,4.3636,0,0.00038093,3806.7,0.00012857,0.0033502,0.00012085,-57.947,-0.00038188,-3835.3,0.36846
14627,8.4481,4.3636,0.05,9.701e-07,9.6943,7.4491e-07,5.597,-2.4688e-12,2.2028e-06,-7.4491e-07,-5.5969,0.37602
14628,8.4481,4.0909,0,0.0003778,3775.4,0.00012772,0.002341,0.0001195,-61.815,-0.00037881,-3805.9,0.37684
14629,8.3562,4.1818,0,0.00038048,3802.1,0.00012866,0.002576,0.00012029,-62.897,-0.00038151,-3833.2,0.36902
14630,8.4481,4.1818,0.05,9.7066e-07,9.6999,7.4535e-07,5.6003,-3.3775e-12,1.7997e-06,-7.4534e-07,-5.6002,0.37657
14631,8.4481,3.9091,0,0.00037745,3771.9,0.00012779,0.0017842,0.00011906,-65.628,-0.00037852,-3804.3,0.37727
14632,8.3562,4,0,0.00038008,3798.2,0.00012874,0.0019215,0.0001198,-67.216,-0.00038118,-3831.4,0.36949
14633,8.4481,4,0.05,9.7111e-07,9.7044,7.4569e-07,5.6028,-1.6034e-12,1.4935e-06,-7.4569e-07,-5.6028,0.37704
14634,8.4481,3.7273,0,0.00037716,3769,0.00012785,0.00133,0.0001187,-68.79,-0.00037828,-3802.9,0.37762
14635,8.3562,3.8182,0,0.00037975,3794.9,0.00012881,0.0013794,0.00011938,-70.87,-0.0003809,-3829.8,0.36988
14636,8.4481,3.8182,0.05,9.7146e-07,9.7079,7.4596e-07,5.6049,-2.5415e-12,1.3652e-06,-7.4596e-07,-5.6048,0.37743
14637,8.4481,3.5455,0,0.00037693,3766.7,0.0001279,0.00097776,0.00011841,-71.276,-0.00037809,-3801.8,0.3779
14638,8.3562,3.6364,0,0.00037948,3792.2,0.00012887,0.00094718,0.00011904,-73.828,-0.00038068,-3828.5,0.37019
14639,8.4481,3.6364,0.05,9.7172e-07,9.7105,7.4616e-07,5.6064,-2.5944e-12,1.0379e-06,-7.4616e-07,-5.6063,0.37774
14640,8.4481,3.3636,0,0.00037677,3765.1,0.00012793,0.00072622,0.00011821,-73.066,-0.00037795,-3801.1,0.37809
14641,8.3562,3.4545,0,0.00037927,3790.1,0.00012891,0.00062445,0.00011879,-76.068,-0.00038051,-3827.6,0.37043
14642,8.4481,3.4545,0.05,9.7191e-07,9.7124,7.463e-07,5.6075,-1.7186e-12,7.2966e-07,-7.4631e-07,-5.6074,0.37798
14643,8.4481,3.1818,0,0.00037667,3764.1,0.00012795,0.00057461,0.00011809,-74.146,-0.00037787,-3800.6,0.37821
14644,8.3562,3.2727,0,0.00037914,3788.8,0.00012894,0.00040835,0.00011861,-77.572,-0.0003804,-3826.9,0.37059
14645,8.4481,3.2727,0.05,9.7203e-07,9.7136,7.464e-07,5.6082,-1.7579e-12,4.5696e-07,-7.464e-07,-5.6081,0.37813
14646,8.4481,3,0,0.00037663,3763.7,0.00012796,0.00052403,0.00011805,-74.506,-0.00037785,-3800.4,0.37825
14647,8.3562,3.0909,0,0.00037907,3788.1,0.00012895,0.0003002,0.00011853,-78.326,-0.00038034,-3826.6,0.37066
14648,8.4481,3.0909,0.05,9.7209e-07,9.7142,7.4645e-07,5.6085,-8.8927e-13,1.5033e-07,-7.4644e-07,-5.6085,0.37821
14649,8.4481,2.8182,0,0.00037667,3764.1,0.00012795,0.00057491,0.00011809,-74.146,-0.00037787,-3800.6,0.37821
14650,8.3562,2.9091,0,0.00037907,3788.1,0.00012895,0.00030008,0.00011853,-78.326,-0.00038034,-3826.6,0.37066
14651,8.4481,2.9091,0.05,9.7209e-07,9.7142,7.4645e-07,5.6085,-9.2933e-13,-1.5033e-07,-7.4644e-07,-5.6085,0.37821
14652,8.4481,2.6364,0,0.00037677,3765.1,0.00012793,0.00072643,0.00011821,-73.066,-0.00037795,-3801.1,0.37809
14653,8.3562,2.7273,0,0.00037914,3788.8,0.00012894,0.00040874,0.00011861,-77.572,-0.0003804,-3826.9,0.37059
14654,8.4481,2.7273,0.05,9.7203e-07,9.7136,7.464e-07,5.6081,-5.9902e-14,1.4599e-06,-7.464e-07,-5.6081,0.37813
14655,8.4481,2.4545,0,0.00037693,3766.7,0.0001279,0.00097796,0.00011841,-71.276,-0.00037809,-3801.8,0.3779
14656,8.3562,2.5455,0,0.00037927,3790.1,0.00012891,0.00062454,0.00011879,-76.068,-0.00038051,-3827.6,0.37043
14657,8.4481,2.5455,0.05,9.7191e-07,9.7124,7.4631e-07,5.6074,-9.5822e-14,1.1713e-06,-7.4631e-07,-5.6074,0.37798
14658,8.4481,2.2727,0,0.00037716,3769,0.00012785,0.0013303,0.0001187,-68.79,-0.00037828,-3802.9,0.37762
14659,8.3562,2.3636,0,0.00037948,3792.2,0.00012887,0.00094724,0.00011904,-73.828,-0.00038068,-3828.5,0.37019
14660,8.4481,2.3636,0.05,9.7172e-07,9.7105,7.4616e-07,5.6063,7.7552e-13,8.8327e-07,-7.4616e-07,-5.6064,0.37774
14661,8.4481,2.0909,0,0.00037745,3771.9,0.00012779,0.0017844,0.00011906,-65.628,-0.00037852,-3804.3,0.37727
14662,8.3562,2.1818,0,0.00037975,3794.9,0.00012881,0.0013795,0.00011938,-70.87,-0.0003809,-3829.8,0.36988
14663,8.4481,2.1818,0.05,9.7146e-07,9.7079,7.4596e-07,5.6048,1.6499e-12,-3.1763e-07,-7.4596e-07,-5.6049,0.37743
14664,8.4481,1.9091,0,0.0003778,3775.4,0.00012772,0.0023413,0.0001195,-61.815,-0.00037881,-3805.9,0.37684
14665,8.3562,2,0,0.00038008,3798.2,0.00012874,0.001922,0.0001198,-67.216,-0.00038118,-3831.4,0.36949
14666,8.4481,2,0.05,9.7111e-07,9.7044,7.4569e-07,5.6028,7.0211e-13,-4.6239e-07,-7.4569e-07,-5.6028,0.37704
14667,8.4481,1.7273,0,0.0003782,3779.4,0.00012764,0.0030046,0.00012,-57.382,-0.00037915,-3807.8,0.37633
14668,8.3562,1.8182,0,0.00038048,3802.1,0.00012866,0.0025764,0.00012029,-62.897,-0.00038151,-3833.2,0.36902
14669,8.4481,1.8182,0.05,9.7066e-07,9.6999,7.4535e-07,5.6002,1.6035e-12,-6.3386e-07,-7.4535e-07,-5.6002,0.37657
14670,8.4481,1.5455,0,0.00037866,3784,0.00012754,0.0037858,0.00012057,-52.364,-0.00037953,-3809.9,0.37574
14671,8.3562,1.6364,0,0.00038093,3806.7,0.00012857,0.0033508,0.00012085,-57.947,-0.00038188,-3835.3,0.36846
14672,8.4481,1.6364,0.05,9.701e-07,9.6943,7.4491e-07,5.597,2.4852e-12,-9.1412e-07,-7.4492e-07,-5.597,0.37602
14673,8.4481,1.3636,0,0.00037918,3789.1,0.00012744,0.0046942,0.00012121,-46.798,-0.00037995,-3812.3,0.37507
14674,8.3562,1.4545,0,0.00038144,3811.7,0.00012846,0.0042648,0.00012149,-52.405,-0.0003823,-3837.7,0.36783
14675,8.4481,1.4545,0.05,9.694e-07,9.6873,7.4438e-07,5.5929,-2.3926e-13,-1.1132e-06,-7.4438e-07,-5.593,0.37539
14676,8.4481,1.1818,0,0.00037973,3794.7,0.00012733,0.005793,0.0001219,-40.73,-0.00038041,-3814.9,0.37432
14677,8.3562,1.2727,0,0.00038199,3817.3,0.00012835,0.0053227,0.00012218,-46.314,-0.00038276,-3840.3,0.36712
14678,8.4481,1.2727,0.05,9.6857e-07,9.679,7.4374e-07,5.5881,2.4485e-12,-8.2345e-07,-7.4374e-07,-5.5882,0.37468
14679,8.4481,1,0,0.00038034,3800.7,0.0001272,0.0070336,0.00012265,-34.206,-0.00038091,-3817.7,0.3735
14680,8.3562,1.0909,0,0.0003826,3823.3,0.00012822,0.0066629,0.00012293,-39.721,-0.00038326,-3843,0.36633
14681,8.4481,1.0909,0.05,9.6757e-07,9.669,7.4297e-07,5.5824,6.1213e-13,-2.0286e-06,-7.4298e-07,-5.5824,0.37389
14682,8.4481,0.81818,0,0.00038097,3807.1,0.00012707,0.0090789,0.00012344,-27.274,-0.00038143,-3820.7,0.37259
14683,8.3562,0.90909,0,0.00038324,3829.8,0.00012809,0.0080648,0.00012374,-32.678,-0.00038379,-3846,0.36546
14684,8.4481,0.90909,0.05,9.6638e-07,9.6571,7.4206e-07,5.5755,1.5244e-12,-9.6512e-07,-7.4207e-07,-5.5756,0.37302
14685,8.4481,0.63636,0,0.00038165,3813.8,0.00012693,0.010278,0.00012427,-19.989,-0.00038198,-3823.8,0.37159
14686,8.3562,0.72727,0,0.00038393,3836.6,0.00012794,0.011198,0.00012458,-25.238,-0.00038435,-3849.2,0.3645
14687,8.4481,0.72727,0.05,9.6483e-07,9.6417,7.4087e-07,5.5666,1.5269e-12,-4.7984e-07,-7.4087e-07,-5.5667,0.37207
14688,8.4481,0.45455,0,0.00038235,3820.9,0.00012679,0.023412,0.00012514,-12.375,-0.00038256,-3827,0.37052
14689,8.3562,0.54545,0,0.00038464,3843.8,0.0001278,0.011114,0.00012547,-17.456,-0.00038494,-3852.5,0.36346
14690,8.4481,0.54545,0.05,9.6039e-07,9.5973,7.3746e-07,5.541,3.3928e-12,-7.5209e-08,-7.3746e-07,-5.541,0.37104
14691,8.4481,0.27273,0,0.00038314,3828.7,0.00012664,0.051921,0.00012609,-4.1491,-0.00038321,-3830.8,0.36937
14692,8.3562,0.36364,0,0.00038539,3851.3,0.00012764,0.041182,0.0001264,-9.3362,-0.00038555,-3855.9,0.36234
14693,8.4481,0.36364,0.05,9.1451e-07,9.1388,7.0223e-07,5.2762,3.3796e-12,-8.0857e-07,-7.0224e-07,-5.2764,0.36993
14694,8.3562,0.18182,0,0.00038627,3860.1,0.00012754,0.46837,0.00012739,-0.68723,-0.00038628,-3860.2,0.36114
14695,8.4481,0.18182,0.05,2.4858e-07,2.4841,1.9087e-07,1.4341,1.765e-12,-2.1326e-05,-1.9088e-07,-1.4342,0.36873
14696,8.4481,0.090909,0,0.00038351,3832.4,0.00012667,1.2679,0.00012649,-0.098771,-0.00038349,-3831.8,0.36813
14697,8.2644,5.7273,0,0.00038852,3882.5,0.00012849,0.050822,0.00012775,-5.5272,-0.00038861,-3885.2,0.3542
14698,8.1726,5.8182,0,0.00039169,3914.2,0.00012936,0.24381,0.00012912,-1.5453,-0.00039172,-3914.9,0.3461
14699,8.2644,5.8182,0.05,2.7404e-07,2.7386,2.1044e-07,1.5812,-1.5348e-13,3.7773e-05,-2.1043e-07,-1.581,0.35356
14700,8.2644,5.9091,0,0.00038896,3886.9,0.00012843,0.76168,0.0001283,-0.20475,-0.00038895,-3886.6,0.35295
14701,8.2644,5.5455,0,0.00038768,3874.1,0.00012865,0.026184,0.00012673,-14.431,-0.00038792,-3881.3,0.35537
14702,8.1726,5.6364,0,0.00039076,3904.9,0.0001295,0.045663,0.00012802,-11.11,-0.00039095,-3910.4,0.34732
14703,8.2644,5.6364,0.05,9.2278e-07,9.2215,7.0859e-07,5.3241,-5.1271e-12,4.1771e-06,-7.0858e-07,-5.3239,0.35477
14704,8.2644,5.3636,0,0.00038692,3866.5,0.00012881,0.011453,0.00012578,-22.718,-0.0003873,-3877.8,0.35645
14705,8.1726,5.4545,0,0.00038995,3896.8,0.00012967,0.012471,0.00012702,-19.942,-0.00039029,-3906.8,0.34845
14706,8.2644,5.4545,0.05,9.6768e-07,9.6701,7.4306e-07,5.5831,-1.5229e-12,4.6007e-06,-7.4305e-07,-5.583,0.3559
14707,8.2644,5.1818,0,0.0003862,3859.3,0.00012896,0.0099581,0.00012488,-30.653,-0.00038671,-3874.5,0.35746
14708,8.1726,5.2727,0,0.00038918,3889.1,0.00012984,0.012372,0.00012605,-28.413,-0.00038966,-3903.3,0.3495
14709,8.2644,5.2727,0.05,9.7213e-07,9.7146,7.4648e-07,5.6088,-6.8833e-12,4.1337e-06,-7.4647e-07,-5.6087,0.35694
14710,8.2644,5,0,0.00038551,3852.4,0.00012911,0.0075789,0.00012402,-38.204,-0.00038614,-3871.4,0.35837
14711,8.1726,5.0909,0,0.00038844,3881.8,0.00012999,0.0087712,0.00012513,-36.515,-0.00038905,-3899.9,0.35046
14712,8.2644,5.0909,0.05,9.7373e-07,9.7306,7.4771e-07,5.618,-3.2037e-12,3.733e-06,-7.477e-07,-5.6179,0.3579
14713,8.2644,4.8182,0,0.00038486,3845.9,0.00012924,0.0061233,0.00012321,-45.315,-0.00038561,-3868.4,0.35921
14714,8.1726,4.9091,0,0.00038775,3874.8,0.00013014,0.0071256,0.00012426,-44.188,-0.00038848,-3896.7,0.35134
14715,8.2644,4.9091,0.05,9.7496e-07,9.7428,7.4865e-07,5.6251,-1.4894e-12,2.6274e-06,-7.4864e-07,-5.625,0.35878
14716,8.2644,4.6364,0,0.00038425,3839.9,0.00012937,0.0048466,0.00012246,-51.929,-0.00038511,-3865.6,0.35997
14717,8.1726,4.7273,0,0.00038709,3868.3,0.00013028,0.005573,0.00012344,-51.371,-0.00038794,-3893.7,0.35214
14718,8.2644,4.7273,0.05,9.7598e-07,9.7531,7.4944e-07,5.631,-1.4587e-12,2.8052e-06,-7.4943e-07,-5.6309,0.35957
14719,8.2644,4.4545,0,0.0003837,3834.4,0.00012948,0.0037956,0.00012176,-57.997,-0.00038465,-3863,0.36064
14720,8.1726,4.5455,0,0.00038649,3862.2,0.00013041,0.0043511,0.00012268,-58.01,-0.00038745,-3890.9,0.35286
14721,8.2644,4.5455,0.05,9.7683e-07,9.7615,7.5008e-07,5.6359,-2.4653e-12,2.6621e-06,-7.5008e-07,-5.6358,0.36029
14722,8.2644,4.2727,0,0.0003832,3829.4,0.00012959,0.0028957,0.00012114,-63.47,-0.00038424,-3860.7,0.36123
14723,8.1726,4.3636,0,0.00038594,3856.8,0.00013052,0.0033006,0.000122,-64.052,-0.00038699,-3888.4,0.35349
14724,8.2644,4.3636,0.05,9.7752e-07,9.7685,7.5062e-07,5.6399,-1.5564e-12,1.9309e-06,-7.5061e-07,-5.6398,0.36092
14725,8.2644,4.0909,0,0.00038276,3825,0.00012968,0.0021348,0.00012059,-68.306,-0.00038388,-3858.7,0.36175
14726,8.1726,4.1818,0,0.00038545,3851.9,0.00013062,0.0024137,0.00012138,-69.449,-0.00038659,-3886.1,0.35405
14727,8.2644,4.1818,0.05,9.7808e-07,9.774,7.5104e-07,5.6431,-6.8452e-13,1.6431e-06,-7.5104e-07,-5.643,0.36147
14728,8.2644,3.9091,0,0.00038238,3821.2,0.00012976,0.001498,0.00012011,-72.465,-0.00038356,-3856.9,0.36218
14729,8.1726,4,0,0.00038503,3847.6,0.00013071,0.0016664,0.00012084,-74.159,-0.00038623,-3884.1,0.35453
14730,8.2644,4,0.05,9.7851e-07,9.7784,7.5138e-07,5.6456,-2.499e-12,1.8314e-06,-7.5138e-07,-5.6455,0.36195
14731,8.2644,3.7273,0,0.00038207,3818.1,0.00012982,0.00097994,0.00011972,-75.915,-0.0003833,-3855.4,0.36254
14732,8.1726,3.8182,0,0.00038467,3844,0.00013079,0.001049,0.00012039,-78.144,-0.00038593,-3882.5,0.35492
14733,8.2644,3.8182,0.05,9.7885e-07,9.7817,7.5164e-07,5.6475,-3.4351e-12,1.5032e-06,-7.5164e-07,-5.6475,0.36234
14734,8.2644,3.5455,0,0.00038182,3815.6,0.00012988,0.0005786,0.00011941,-78.628,-0.0003831,-3854.3,0.36281
14735,8.1726,3.6364,0,0.00038437,3841.1,0.00013085,0.00055766,0.00012002,-81.371,-0.00038569,-3881.1,0.35524
14736,8.2644,3.6364,0.05,9.791e-07,9.7842,7.5183e-07,5.649,-1.6546e-12,2.1309e-06,-7.5182e-07,-5.6489,0.36266
14737,8.2644,3.3636,0,0.00038164,3813.8,0.00012991,0.00029216,0.00011919,-80.581,-0.00038295,-3853.5,0.36301
14738,8.1726,3.4545,0,0.00038415,3838.9,0.0001309,0.00019096,0.00011974,-83.815,-0.00038551,-3880.1,0.35548
14739,8.2644,3.4545,0.05,9.7927e-07,9.786,7.5196e-07,5.65,1.0874e-13,8.4547e-07,-7.5196e-07,-5.6499,0.36289
14740,8.2644,3.1818,0,0.00038154,3812.7,0.00012994,0.00012001,0.00011905,-81.759,-0.00038286,-3853,0.36313
14741,8.1726,3.2727,0,0.000384,3837.4,0.00013093,-5.4079e-05,0.00011956,-85.456,-0.00038538,-3879.4,0.35563
14742,8.2644,3.2727,0.05,9.7938e-07,9.7871,7.5204e-07,5.6506,-8.4288e-13,1.4765e-06,-7.5205e-07,-5.6505,0.36305
14743,8.2644,3,0,0.0003815,3812.4,0.00012994,6.2469e-05,0.00011901,-82.153,-0.00038283,-3852.8,0.36317
14744,8.1726,3.0909,0,0.00038393,3836.6,0.00013095,-0.00017667,0.00011946,-86.279,-0.00038532,-3879,0.35571
14745,8.2644,3.0909,0.05,9.7944e-07,9.7876,7.5208e-07,5.6509,-2.7062e-12,1.6642e-07,-7.5209e-07,-5.6509,0.36313
14746,8.2644,2.8182,0,0.00038154,3812.7,0.00012994,0.00011998,0.00011905,-81.759,-0.00038286,-3853,0.36313
14747,8.1726,2.9091,0,0.00038393,3836.6,0.00013095,-0.00017667,0.00011946,-86.279,-0.00038532,-3879,0.35571
14748,8.2644,2.9091,0.05,9.7944e-07,9.7876,7.5209e-07,5.6509,-1.841e-12,7.8777e-07,-7.5208e-07,-5.6509,0.36313
14749,8.2644,2.6364,0,0.00038164,3813.8,0.00012991,0.00029243,0.00011919,-80.581,-0.00038295,-3853.5,0.36301
14750,8.1726,2.7273,0,0.000384,3837.4,0.00013093,-5.3661e-05,0.00011956,-85.456,-0.00038538,-3879.4,0.35563
14751,8.2644,2.7273,0.05,9.7938e-07,9.7871,7.5205e-07,5.6506,-6.4999e-14,1.426e-06,-7.5204e-07,-5.6506,0.36305
14752,8.2644,2.4545,0,0.00038182,3815.6,0.00012988,0.00057854,0.00011941,-78.628,-0.0003831,-3854.3,0.36281
14753,8.1726,2.5455,0,0.00038415,3838.9,0.0001309,0.0001912,0.00011974,-83.815,-0.00038551,-3880.1,0.35548
14754,8.2644,2.5455,0.05,9.7927e-07,9.786,7.5196e-07,5.6499,-1.0771e-13,-8.0316e-07,-7.5196e-07,-5.6499,0.36289
14755,8.2644,2.2727,0,0.00038207,3818.1,0.00012982,0.00097985,0.00011972,-75.915,-0.0003833,-3855.4,0.36254
14756,8.1726,2.3636,0,0.00038437,3841.1,0.00013085,0.00055757,0.00012002,-81.371,-0.00038569,-3881.1,0.35524
14757,8.2644,2.3636,0.05,9.791e-07,9.7842,7.5183e-07,5.6489,-1.4738e-13,-1.9126e-07,-7.5183e-07,-5.649,0.36266
14758,8.2644,2.0909,0,0.00038238,3821.2,0.00012976,0.0014985,0.00012011,-72.465,-0.00038356,-3856.9,0.36218
14759,8.1726,2.1818,0,0.00038467,3844,0.00013079,0.0010491,0.00012039,-78.144,-0.00038593,-3882.5,0.35492
14760,8.2644,2.1818,0.05,9.7885e-07,9.7817,7.5164e-07,5.6475,-1.8717e-13,-4.8573e-07,-7.5163e-07,-5.6475,0.36234
14761,8.2644,1.9091,0,0.00038276,3825,0.00012968,0.0021354,0.00012059,-68.306,-0.00038388,-3858.7,0.36175
14762,8.1726,2,0,0.00038503,3847.6,0.00013071,0.001667,0.00012084,-74.159,-0.00038623,-3884.1,0.35453
14763,8.2644,2,0.05,9.7851e-07,9.7784,7.5138e-07,5.6456,3.417e-12,-1.5449e-06,-7.5138e-07,-5.6456,0.36195
14764,8.2644,1.7273,0,0.0003832,3829.4,0.00012959,0.0028963,0.00012114,-63.47,-0.00038424,-3860.7,0.36123
14765,8.1726,1.8182,0,0.00038545,3851.9,0.00013062,0.0024141,0.00012138,-69.449,-0.00038659,-3886.1,0.35405
14766,8.2644,1.8182,0.05,9.7808e-07,9.774,7.5104e-07,5.643,-2.2851e-13,-1.5194e-06,-7.5104e-07,-5.6431,0.36147
14767,8.2644,1.5455,0,0.0003837,3834.4,0.00012948,0.0037961,0.00012176,-57.997,-0.00038465,-3863,0.36064
14768,8.1726,1.6364,0,0.00038594,3856.8,0.00013052,0.0033012,0.000122,-64.052,-0.00038699,-3888.4,0.35349
14769,8.2644,1.6364,0.05,9.7752e-07,9.7685,7.5061e-07,5.6398,6.3511e-13,-1.1972e-06,-7.5062e-07,-5.6399,0.36092
14770,8.2644,1.3636,0,0.00038425,3839.9,0.00012937,0.0048472,0.00012246,-51.93,-0.00038511,-3865.6,0.35997
14771,8.1726,1.4545,0,0.00038649,3862.2,0.00013041,0.0043518,0.00012268,-58.01,-0.00038745,-3890.9,0.35286
14772,8.2644,1.4545,0.05,9.7683e-07,9.7615,7.5008e-07,5.6358,3.3191e-12,-8.3749e-07,-7.5008e-07,-5.6359,0.36029
14773,8.2644,1.1818,0,0.00038486,3845.9,0.00012924,0.0061241,0.00012321,-45.315,-0.00038561,-3868.4,0.35921
14774,8.1726,1.2727,0,0.00038709,3868.3,0.00013028,0.0055739,0.00012344,-51.371,-0.00038794,-3893.7,0.35214
14775,8.2644,1.2727,0.05,9.7598e-07,9.7531,7.4943e-07,5.6309,-2.6899e-13,-1.8542e-06,-7.4943e-07,-5.631,0.35957
14776,8.2644,1,0,0.00038551,3852.4,0.00012911,0.0075798,0.00012402,-38.204,-0.00038614,-3871.4,0.35837
14777,8.1726,1.0909,0,0.00038775,3874.8,0.00013014,0.007126,0.00012426,-44.188,-0.00038848,-3896.7,0.35134
14778,8.2644,1.0909,0.05,9.7496e-07,9.7428,7.4864e-07,5.625,1.5007e-12,-4.6223e-07,-7.4865e-07,-5.6251,0.35878
14779,8.2644,0.81818,0,0.0003862,3859.3,0.00012896,0.0099595,0.00012488,-30.653,-0.00038671,-3874.5,0.35746
14780,8.1726,0.90909,0,0.00038844,3881.8,0.00012999,0.0087729,0.00012513,-36.515,-0.00038905,-3899.9,0.35046
14781,8.2644,0.90909,0.05,9.7373e-07,9.7306,7.477e-07,5.6179,1.4714e-12,-1.5088e-06,-7.4771e-07,-5.618,0.3579
14782,8.2644,0.63636,0,0.00038692,3866.5,0.00012881,0.011454,0.00012578,-22.718,-0.0003873,-3877.8,0.35645
14783,8.1726,0.72727,0,0.00038918,3889.1,0.00012984,0.012373,0.00012605,-28.413,-0.00038966,-3903.3,0.3495
14784,8.2644,0.72727,0.05,9.7213e-07,9.7146,7.4648e-07,5.6087,3.3665e-12,-1.5697e-06,-7.4647e-07,-5.6088,0.35694
14785,8.2644,0.45455,0,0.00038768,3874.1,0.00012865,0.026185,0.00012673,-14.431,-0.00038792,-3881.3,0.35537
14786,8.1726,0.54545,0,0.00038995,3896.8,0.00012967,0.012471,0.00012702,-19.942,-0.00039029,-3906.8,0.34845
14787,8.2644,0.54545,0.05,9.6768e-07,9.6701,7.4306e-07,5.583,1.5171e-12,-1.7741e-06,-7.4306e-07,-5.5831,0.3559
14788,8.2644,0.27273,0,0.00038852,3882.5,0.00012849,0.050824,0.00012775,-5.5272,-0.00038861,-3885.2,0.3542
14789,8.1726,0.36364,0,0.00039076,3904.9,0.0001295,0.045664,0.00012802,-11.11,-0.00039095,-3910.4,0.34732
14790,8.2644,0.36364,0.05,9.2278e-07,9.2215,7.0858e-07,5.324,3.3864e-12,-1.7317e-06,-7.0859e-07,-5.3241,0.35477
14791,8.1726,0.18182,0,0.00039169,3914.2,0.00012936,0.2438,0.00012912,-1.5453,-0.00039172,-3914.9,0.3461
14792,8.2644,0.18182,0.05,2.7405e-07,2.7386,2.1043e-07,1.5811,3.2538e-13,-1.6362e-05,-2.1044e-07,-1.5811,0.35356
14793,8.2644,0.090909,0,0.00038896,3886.9,0.00012843,0.76167,0.0001283,-0.20475,-0.00038895,-3886.6,0.35295
14794,8.0808,5.7273,0,0.00039393,3936.5,0.00013035,0.051649,0.00012941,-6.9978,-0.00039404,-3940,0.3393
14795,7.9889,5.8182,0,0.00039714,3968.7,0.0001312,0.1689,0.00013083,-2.6175,-0.00039718,-3969.9,0.33133
14796,8.0808,5.8182,0.05,3.017e-07,3.0149,2.3167e-07,1.7407,-1.8153e-12,3.4155e-05,-2.3167e-07,-1.7406,0.33866
14797,8.0808,5.9091,0,0.00039444,3941.7,0.00013022,0.39623,0.00013011,-0.48674,-0.00039444,-3941.7,0.33804
14798,8.0808,5.5455,0,0.00039303,3927.6,0.00013053,0.029189,0.00012831,-16.633,-0.00039331,-3935.9,0.34048
14799,7.9889,5.6364,0,0.00039615,3958.8,0.00013138,0.050544,0.00012964,-13.006,-0.00039637,-3965.2,0.33256
14800,8.0808,5.6364,0.05,9.3159e-07,9.3094,7.1535e-07,5.3749,-4.9531e-12,4.0322e-06,-7.1534e-07,-5.3747,0.33988
14801,8.0808,5.3636,0,0.00039221,3919.4,0.0001307,0.012739,0.00012728,-25.648,-0.00039264,-3932.2,0.34158
14802,7.9889,5.4545,0,0.00039528,3950.1,0.00013156,0.013951,0.00012855,-22.607,-0.00039566,-3961.3,0.3337
14803,8.0808,5.4545,0.05,9.7539e-07,9.7472,7.4898e-07,5.6276,-3.214e-12,4.2925e-06,-7.4897e-07,-5.6275,0.34101
14804,8.0808,5.1818,0,0.00039143,3911.6,0.00013087,0.010925,0.0001263,-34.286,-0.000392,-3928.6,0.34259
14805,7.9889,5.2727,0,0.00039445,3941.8,0.00013174,0.013658,0.00012751,-31.825,-0.00039498,-3957.6,0.33475
14806,8.0808,5.2727,0.05,9.7984e-07,9.7916,7.524e-07,5.6533,-4.9835e-12,2.9281e-06,-7.5239e-07,-5.6532,0.34206
14807,8.0808,5,0,0.00039068,3904.1,0.00013103,0.008183,0.00012537,-42.508,-0.00039139,-3925.2,0.34351
14808,7.9889,5.0909,0,0.00039365,3933.8,0.00013191,0.0095517,0.0001265,-40.644,-0.00039433,-3954,0.33573
14809,8.0808,5.0909,0.05,9.8149e-07,9.8082,7.5367e-07,5.6628,-3.2199e-12,4.0813e-06,-7.5366e-07,-5.6627,0.34303
14810,8.0808,4.8182,0,0.00038998,3897.1,0.00013118,0.0064936,0.00012449,-50.253,-0.00039081,-3922,0.34436
14811,7.9889,4.9091,0,0.0003929,3926.3,0.00013208,0.0076404,0.00012556,-48.997,-0.00039371,-3950.6,0.33661
14812,8.0808,4.9091,0.05,9.8276e-07,9.8208,7.5464e-07,5.6701,-3.1613e-12,3.4745e-06,-7.5463e-07,-5.67,0.34392
14813,8.0808,4.6364,0,0.00038933,3890.6,0.00013132,0.0050224,0.00012367,-57.459,-0.00039028,-3919,0.34512
14814,7.9889,4.7273,0,0.0003922,3919.2,0.00013223,0.005857,0.00012467,-56.821,-0.00039313,-3947.3,0.33742
14815,8.0808,4.7273,0.05,9.838e-07,9.8312,7.5544e-07,5.6761,-6.8778e-12,2.395e-06,-7.5543e-07,-5.676,0.34472
14816,8.0808,4.4545,0,0.00038873,3884.6,0.00013144,0.0038157,0.00012291,-64.071,-0.00038978,-3916.3,0.3458
14817,7.9889,4.5455,0,0.00039154,3912.7,0.00013237,0.0044562,0.00012384,-64.052,-0.00039259,-3944.4,0.33814
14818,8.0808,4.5455,0.05,9.8465e-07,9.8397,7.5609e-07,5.681,-5.0466e-12,2.9847e-06,-7.5609e-07,-5.6809,0.34544
14819,8.0808,4.2727,0,0.00038819,3879.3,0.00013156,0.002787,0.00012224,-70.037,-0.00038934,-3913.8,0.3464
14820,7.9889,4.3636,0,0.00039095,3906.8,0.0001325,0.0032567,0.0001231,-70.636,-0.0003921,-3941.6,0.33879
14821,8.0808,4.3636,0.05,9.8534e-07,9.8466,7.5662e-07,5.6849,-5.0793e-12,2.5257e-06,-7.5661e-07,-5.6849,0.34608
14822,8.0808,4.0909,0,0.00038772,3874.5,0.00013166,0.0019194,0.00012164,-75.309,-0.00038894,-3911.6,0.34691
14823,7.9889,4.1818,0,0.00039042,3901.5,0.00013261,0.0022472,0.00012243,-76.518,-0.00039167,-3939.2,0.33935
14824,8.0808,4.1818,0.05,9.8588e-07,9.852,7.5704e-07,5.6881,-2.4209e-12,2.5019e-06,-7.5703e-07,-5.688,0.34664
14825,8.0808,3.9091,0,0.00038731,3870.4,0.00013175,0.0011951,0.00012112,-79.844,-0.0003886,-3909.7,0.34735
14826,7.9889,4,0,0.00038996,3896.9,0.00013271,0.0013985,0.00012184,-81.653,-0.00039128,-3937.1,0.33983
14827,8.0808,4,0.05,9.863e-07,9.8562,7.5735e-07,5.6905,-2.4488e-12,2.0286e-06,-7.5735e-07,-5.6904,0.34712
14828,8.0808,3.7273,0,0.00038697,3867,0.00013182,0.00060696,0.00012069,-83.606,-0.00038832,-3908.1,0.34771
14829,7.9889,3.8182,0,0.00038957,3893,0.00013279,0.00069867,0.00012135,-85.997,-0.00039096,-3935.3,0.34023
14830,8.0808,3.8182,0.05,9.8661e-07,9.8593,7.576e-07,5.6923,-2.477e-12,1.6526e-06,-7.5759e-07,-5.6922,0.34751
14831,8.0808,3.5455,0,0.0003867,3864.3,0.00013188,0.00015195,0.00012035,-86.565,-0.0003881,-3906.9,0.34799
14832,7.9889,3.6364,0,0.00038925,3889.8,0.00013286,0.00014286,0.00012095,-89.516,-0.0003907,-3933.8,0.34054
14833,8.0808,3.6364,0.05,9.8684e-07,9.8616,7.5777e-07,5.6936,-7.3925e-13,1.342e-06,-7.5777e-07,-5.6935,0.34783
14834,8.0808,3.3636,0,0.00038651,3862.4,0.00013192,-0.0001723,0.00012011,-88.696,-0.00038794,-3906,0.34819
14835,7.9889,3.4545,0,0.00038901,3887.4,0.00013291,-0.00027151,0.00012064,-92.182,-0.0003905,-3932.7,0.34078
14836,8.0808,3.4545,0.05,9.87e-07,9.8632,7.579e-07,5.6945,1.2649e-13,2.8322e-06,-7.5789e-07,-5.6945,0.34807
14837,8.0808,3.1818,0,0.00038639,3861.3,0.00013194,-0.00036719,0.00011996,-89.981,-0.00038784,-3905.5,0.34831
14838,7.9889,3.2727,0,0.00038885,3885.8,0.00013295,-0.00054807,0.00012044,-93.971,-0.00039036,-3932,0.34094
14839,8.0808,3.2727,0.05,9.8709e-07,9.8641,7.5797e-07,5.6951,-1.7465e-12,5.412e-07,-7.5797e-07,-5.6951,0.34823
14840,8.0808,3,0,0.00038635,3860.9,0.00013195,-0.00043206,0.00011992,-90.411,-0.00038781,-3905.3,0.34834
14841,7.9889,3.0909,0,0.00038877,3885,0.00013296,-0.00068645,0.00012034,-94.869,-0.0003903,-3931.6,0.34102
14842,8.0808,3.0909,0.05,9.8714e-07,9.8646,7.58e-07,5.6954,-2.7041e-12,1.138e-06,-7.58e-07,-5.6953,0.34831
14843,8.0808,2.8182,0,0.00038639,3861.3,0.00013194,-0.00036674,0.00011996,-89.981,-0.00038784,-3905.5,0.34831
14844,7.9889,2.9091,0,0.00038877,3885,0.00013296,-0.0006863,0.00012034,-94.869,-0.0003903,-3931.6,0.34102
14845,8.0808,2.9091,0.05,9.8714e-07,9.8646,7.58e-07,5.6953,-2.4287e-14,7.7165e-07,-7.58e-07,-5.6953,0.34831
14846,8.0808,2.6364,0,0.00038651,3862.4,0.00013192,-0.00017191,0.00012011,-88.696,-0.00038794,-3906,0.34819
14847,7.9889,2.7273,0,0.00038885,3885.8,0.00013295,-0.00054768,0.00012044,-93.971,-0.00039036,-3932,0.34094
14848,8.0808,2.7273,0.05,9.8709e-07,9.8641,7.5797e-07,5.6951,-7.2396e-14,-5.4533e-07,-7.5797e-07,-5.6951,0.34823
14849,8.0808,2.4545,0,0.0003867,3864.3,0.00013188,0.00015216,0.00012035,-86.565,-0.0003881,-3906.9,0.34799
14850,7.9889,2.5455,0,0.00038901,3887.4,0.00013291,-0.00027118,0.00012064,-92.182,-0.0003905,-3932.7,0.34078
14851,8.0808,2.5455,0.05,9.87e-07,9.8632,7.5789e-07,5.6945,-1.1912e-13,1.9689e-06,-7.5789e-07,-5.6945,0.34807
14852,8.0808,2.2727,0,0.00038697,3867,0.00013182,0.00060711,0.00012069,-83.606,-0.00038832,-3908.1,0.34771
14853,7.9889,2.3636,0,0.00038925,3889.8,0.00013286,0.00014322,0.00012095,-89.516,-0.0003907,-3933.8,0.34054
14854,8.0808,2.3636,0.05,9.8684e-07,9.8616,7.5777e-07,5.6936,-1.6075e-13,-2.2539e-07,-7.5777e-07,-5.6936,0.34783
14855,8.0808,2.0909,0,0.00038731,3870.4,0.00013175,0.0011953,0.00012112,-79.844,-0.0003886,-3909.7,0.34735
14856,7.9889,2.1818,0,0.00038957,3893,0.00013279,0.000699,0.00012135,-85.997,-0.00039096,-3935.3,0.34023
14857,8.0808,2.1818,0.05,9.8661e-07,9.8593,7.5759e-07,5.6923,-2.1643e-13,-6.2305e-07,-7.576e-07,-5.6923,0.34751
14858,8.0808,1.9091,0,0.00038772,3874.5,0.00013166,0.0019198,0.00012164,-75.309,-0.00038894,-3911.6,0.34691
14859,7.9889,2,0,0.00038996,3896.9,0.00013271,0.0013989,0.00012184,-81.653,-0.00039128,-3937.1,0.33983
14860,8.0808,2,0.05,9.863e-07,9.8562,7.5735e-07,5.6905,1.5698e-12,1.1073e-06,-7.5735e-07,-5.6905,0.34712
14861,8.0808,1.7273,0,0.00038819,3879.3,0.00013156,0.0027874,0.00012224,-70.037,-0.00038934,-3913.8,0.3464
14862,7.9889,1.8182,0,0.00039042,3901.5,0.00013261,0.0022479,0.00012243,-76.518,-0.00039167,-3939.2,0.33935
14863,8.0808,1.8182,0.05,9.8588e-07,9.852,7.5703e-07,5.688,-2.6751e-13,8.0491e-07,-7.5703e-07,-5.6881,0.34664
14864,8.0808,1.5455,0,0.00038873,3884.6,0.00013144,0.0038165,0.00012291,-64.071,-0.00038978,-3916.3,0.3458
14865,7.9889,1.6364,0,0.00039095,3906.8,0.0001325,0.0032573,0.0001231,-70.636,-0.0003921,-3941.6,0.33879
14866,8.0808,1.6364,0.05,9.8534e-07,9.8466,7.5661e-07,5.6849,1.4971e-12,-1.4257e-06,-7.5662e-07,-5.6849,0.34608
14867,8.0808,1.3636,0,0.00038933,3890.6,0.00013132,0.0050233,0.00012367,-57.459,-0.00039028,-3919,0.34512
14868,7.9889,1.4545,0,0.00039154,3912.7,0.00013237,0.0044568,0.00012384,-64.052,-0.00039259,-3944.4,0.33814
14869,8.0808,1.4545,0.05,9.8465e-07,9.8397,7.5609e-07,5.6809,1.5635e-12,-2.5959e-06,-7.5609e-07,-5.681,0.34544
14870,8.0808,1.1818,0,0.00038998,3897.1,0.00013118,0.0064942,0.00012449,-50.253,-0.00039081,-3922,0.34436
14871,7.9889,1.2727,0,0.0003922,3919.2,0.00013223,0.0058577,0.00012467,-56.821,-0.00039313,-3947.3,0.33742
14872,8.0808,1.2727,0.05,9.838e-07,9.8312,7.5543e-07,5.676,5.054e-12,-6.9727e-07,-7.5544e-07,-5.6761,0.34472
14873,8.0808,1,0,0.00039068,3904.1,0.00013103,0.0081842,0.00012537,-42.508,-0.00039139,-3925.2,0.34351
14874,7.9889,1.0909,0,0.0003929,3926.3,0.00013208,0.0076408,0.00012556,-48.997,-0.00039371,-3950.6,0.33661
14875,8.0808,1.0909,0.05,9.8276e-07,9.8208,7.5464e-07,5.67,3.2863e-12,-3.0812e-06,-7.5463e-07,-5.6701,0.34392
14876,8.0808,0.81818,0,0.00039143,3911.6,0.00013087,0.010926,0.0001263,-34.286,-0.000392,-3928.6,0.34259
14877,7.9889,0.90909,0,0.00039365,3933.8,0.00013191,0.0095535,0.0001265,-40.644,-0.00039433,-3954,0.33573
14878,8.0808,0.90909,0.05,9.8149e-07,9.8082,7.5367e-07,5.6627,3.258e-12,-8.2935e-07,-7.5367e-07,-5.6628,0.34303
14879,8.0808,0.63636,0,0.00039221,3919.4,0.0001307,0.01274,0.00012728,-25.648,-0.00039264,-3932.2,0.34158
14880,7.9889,0.72727,0,0.00039445,3941.8,0.00013174,0.013659,0.00012751,-31.825,-0.00039498,-3957.6,0.33475
14881,8.0808,0.72727,0.05,9.7984e-07,9.7916,7.5239e-07,5.6532,3.2852e-12,-2.8939e-06,-7.524e-07,-5.6533,0.34206
14882,8.0808,0.45455,0,0.00039303,3927.6,0.00013053,0.02919,0.00012831,-16.633,-0.00039331,-3935.9,0.34048
14883,7.9889,0.54545,0,0.00039528,3950.1,0.00013156,0.013951,0.00012855,-22.607,-0.00039566,-3961.3,0.3337
14884,8.0808,0.54545,0.05,9.7539e-07,9.7472,7.4897e-07,5.6275,1.4464e-12,-1.2767e-06,-7.4898e-07,-5.6276,0.34101
14885,8.0808,0.27273,0,0.00039393,3936.5,0.00013035,0.051651,0.00012941,-6.9978,-0.00039404,-3940,0.3393
14886,7.9889,0.36364,0,0.00039615,3958.8,0.00013138,0.050546,0.00012964,-13.006,-0.00039637,-3965.2,0.33256
14887,8.0808,0.36364,0.05,9.3159e-07,9.3094,7.1534e-07,5.3747,-2.9588e-13,-1.813e-06,-7.1534e-07,-5.3749,0.33988
14888,7.9889,0.18182,0,0.00039714,3968.7,0.0001312,0.1689,0.00013083,-2.6175,-0.00039718,-3969.9,0.33133
14889,8.0808,0.18182,0.05,3.017e-07,3.0149,2.3167e-07,1.7406,1.471e-12,-1.9468e-05,-2.3167e-07,-1.7407,0.33866
14890,8.0808,0.090909,0,0.00039444,3941.7,0.00013022,0.39623,0.00013011,-0.48675,-0.00039444,-3941.7,0.33804
14891,7.8971,5.7273,0,0.00039936,3990.8,0.00013222,0.053694,0.00013107,-8.5658,-0.0003995,-3995.1,0.32467
14892,7.8053,5.8182,0,0.00040262,4023.4,0.00013306,0.13686,0.00013254,-3.8004,-0.00040268,-4025.3,0.31682
14893,7.8971,5.8182,0.05,3.3171e-07,3.3148,2.5472e-07,1.9139,-1.9778e-12,3.4121e-05,-2.5471e-07,-1.9137,0.32401
14894,7.8971,5.9091,0,0.00039996,3996.8,0.00013206,0.23472,0.00013189,-1.0096,-0.00039997,-3997.2,0.32339
14895,7.8971,5.5455,0,0.0003984,3981.3,0.00013241,0.03245,0.00012988,-18.992,-0.00039872,-3990.7,0.32586
14896,7.8053,5.6364,0,0.00040157,4012.9,0.00013327,0.055859,0.00013126,-15.034,-0.00040182,-4020.4,0.31806
14897,7.8971,5.6364,0.05,9.4098e-07,9.4033,7.2256e-07,5.4291,-4.9392e-12,5.5768e-06,-7.2255e-07,-5.4289,0.32525
14898,7.8971,5.3636,0,0.00039752,3972.4,0.00013261,0.014145,0.00012877,-28.795,-0.000398,-3986.8,0.32696
14899,7.8053,5.4545,0,0.00040063,4003.5,0.00013347,0.015569,0.00013008,-25.467,-0.00040106,-4016.2,0.31921
14900,7.8971,5.4545,0.05,9.8357e-07,9.8289,7.5526e-07,5.6748,-4.9673e-12,4.9911e-06,-7.5525e-07,-5.6746,0.32639
14901,7.8971,5.1818,0,0.00039667,3964,0.00013279,0.011987,0.00012771,-38.192,-0.00039731,-3983,0.32798
14902,7.8053,5.2727,0,0.00039973,3994.6,0.00013367,0.015067,0.00012894,-35.492,-0.00040032,-4012.2,0.32028
14903,7.8971,5.2727,0.05,9.8801e-07,9.8733,7.5867e-07,5.7004,-4.9149e-12,4.5267e-06,-7.5867e-07,-5.7003,0.32745
14904,7.8971,5,0,0.00039587,3956,0.00013297,0.0088522,0.00012669,-47.142,-0.00039665,-3979.3,0.32891
14905,7.8053,5.0909,0,0.00039887,3986,0.00013386,0.010414,0.00012785,-45.087,-0.00039962,-4008.3,0.32126
14906,7.8971,5.0909,0.05,9.8971e-07,9.8903,7.5998e-07,5.7102,-4.8728e-12,3.7909e-06,-7.5997e-07,-5.7101,0.32843
14907,7.8971,4.8182,0,0.00039511,3948.4,0.00013313,0.0069081,0.00012573,-55.573,-0.00039603,-3975.9,0.32977
14908,7.8053,4.9091,0,0.00039806,3977.8,0.00013403,0.0082133,0.00012682,-54.178,-0.00039895,-4004.6,0.32215
14909,7.8971,4.9091,0.05,9.9101e-07,9.9032,7.6098e-07,5.7177,-1.3503e-12,4.6395e-06,-7.6097e-07,-5.7176,0.32932
14910,7.8971,4.6364,0,0.00039441,3941.3,0.00013328,0.0052259,0.00012484,-63.421,-0.00039545,-3972.7,0.33053
14911,7.8053,4.7273,0,0.0003973,3970.2,0.0001342,0.0061793,0.00012586,-62.695,-0.00039833,-4001.2,0.32297
14912,7.8971,4.7273,0.05,9.9206e-07,9.9138,7.6179e-07,5.7238,-4.9663e-12,3.4096e-06,-7.6178e-07,-5.7237,0.33013
14913,7.8971,4.4545,0,0.00039376,3934.9,0.00013342,0.0038496,0.00012402,-70.623,-0.00039491,-3969.7,0.33122
14914,7.8053,4.5455,0,0.00039659,3963.2,0.00013436,0.0045836,0.00012496,-70.57,-0.00039774,-3998,0.32369
14915,7.8971,4.5455,0.05,9.9291e-07,9.9223,7.6244e-07,5.7287,4.083e-13,3.3432e-06,-7.6243e-07,-5.7286,0.33086
14916,7.8971,4.2727,0,0.00039318,3929.1,0.00013355,0.0026798,0.00012329,-77.123,-0.00039443,-3967,0.33182
14917,7.8053,4.3636,0,0.00039595,3956.8,0.0001345,0.0032218,0.00012415,-77.741,-0.00039722,-3995.1,0.32434
14918,7.8971,4.3636,0.05,9.9358e-07,9.929,7.6295e-07,5.7325,-3.2859e-12,2.9374e-06,-7.6295e-07,-5.7325,0.3315
14919,7.8971,4.0909,0,0.00039266,3923.9,0.00013366,0.0016959,0.00012263,-82.868,-0.00039401,-3964.7,0.33234
14920,7.8053,4.1818,0,0.00039538,3951,0.00013462,0.0020789,0.00012342,-84.15,-0.00039674,-3992.4,0.32491
14921,7.8971,4.1818,0.05,9.941e-07,9.9342,7.6335e-07,5.7355,-1.4935e-12,1.545e-06,-7.6334e-07,-5.7355,0.33207
14922,7.8971,3.9091,0,0.00039222,3919.5,0.00013376,0.00087602,0.00012207,-87.811,-0.00039364,-3962.6,0.33278
14923,7.8053,4,0,0.00039488,3946,0.00013473,0.0011198,0.00012279,-89.744,-0.00039633,-3990.1,0.32539
14924,7.8971,4,0.05,9.9449e-07,9.938,7.6365e-07,5.7378,-3.3248e-12,2.1041e-06,-7.6364e-07,-5.7377,0.33255
14925,7.8971,3.7273,0,0.00039185,3915.8,0.00013384,0.00021149,0.0001216,-91.913,-0.00039333,-3960.9,0.33315
14926,7.8053,3.8182,0,0.00039445,3941.8,0.00013482,0.00033025,0.00012225,-94.48,-0.00039598,-3988.2,0.32579
14927,7.8971,3.8182,0.05,9.9478e-07,9.9409,7.6387e-07,5.7394,-1.5721e-12,1.7883e-06,-7.6386e-07,-5.7394,0.33295
14928,7.8971,3.5455,0,0.00039156,3912.9,0.0001339,-0.00030171,0.00012124,-95.138,-0.00039309,-3959.6,0.33342
14929,7.8053,3.6364,0,0.00039411,3938.4,0.0001349,-0.00029585,0.00012181,-98.316,-0.00039569,-3986.6,0.32611
14930,7.8971,3.6364,0.05,9.9498e-07,9.9429,7.6402e-07,5.7406,-2.539e-12,1.4179e-06,-7.6402e-07,-5.7405,0.33327
14931,7.8971,3.3636,0,0.00039135,3910.8,0.00013394,-0.00066714,0.00012097,-97.462,-0.00039292,-3958.6,0.33362
14932,7.8053,3.4545,0,0.00039385,3935.8,0.00013495,-0.00076217,0.00012148,-101.22,-0.00039548,-3985.4,0.32635
14933,7.8971,3.4545,0.05,9.9511e-07,9.9442,7.6412e-07,5.7413,-2.5943e-12,1.959e-06,-7.6412e-07,-5.7413,0.33351
14934,7.8971,3.1818,0,0.00039123,3909.6,0.00013397,-0.00088648,0.00012081,-98.864,-0.00039281,-3958.1,0.33374
14935,7.8053,3.2727,0,0.00039368,3934,0.00013499,-0.0010732,0.00012126,-103.17,-0.00039533,-3984.6,0.32651
14936,7.8971,3.2727,0.05,9.9519e-07,9.9451,7.6419e-07,5.7418,-8.2461e-13,1.5734e-06,-7.6418e-07,-5.7418,0.33367
14937,7.8971,3,0,0.00039118,3909.1,0.00013398,-0.00095962,0.00012076,-99.332,-0.00039278,-3957.9,0.33378
14938,7.8053,3.0909,0,0.00039359,3933.2,0.00013501,-0.0012287,0.00012115,-104.15,-0.00039526,-3984.2,0.32659
14939,7.8971,3.0909,0.05,9.9523e-07,9.9454,7.6422e-07,5.742,-8.8254e-13,2.0203e-07,-7.6421e-07,-5.742,0.33375
14940,7.8971,2.8182,0,0.00039123,3909.6,0.00013397,-0.0008864,0.00012081,-98.864,-0.00039281,-3958.1,0.33374
14941,7.8053,2.9091,0,0.00039359,3933.2,0.00013501,-0.0012287,0.00012115,-104.15,-0.00039526,-3984.2,0.32659
14942,7.8971,2.9091,0.05,9.9523e-07,9.9454,7.6422e-07,5.742,-9.3594e-13,-2.0043e-07,-7.6421e-07,-5.742,0.33375
14943,7.8971,2.6364,0,0.00039135,3910.8,0.00013394,-0.00066681,0.00012097,-97.462,-0.00039292,-3958.6,0.33362
14944,7.8053,2.7273,0,0.00039368,3934,0.00013499,-0.0010729,0.00012126,-103.17,-0.00039533,-3984.6,0.32651
14945,7.8971,2.7273,0.05,9.9519e-07,9.9451,7.6419e-07,5.7418,-9.8542e-13,3.5497e-07,-7.6418e-07,-5.7418,0.33367
14946,7.8971,2.4545,0,0.00039156,3912.9,0.0001339,-0.00030124,0.00012124,-95.138,-0.00039309,-3959.6,0.33342
14947,7.8053,2.5455,0,0.00039385,3935.8,0.00013495,-0.00076187,0.00012148,-101.22,-0.00039548,-3985.4,0.32635
14948,7.8971,2.5455,0.05,9.9511e-07,9.9442,7.6412e-07,5.7413,-1.2794e-13,-8.7201e-09,-7.6412e-07,-5.7413,0.33351
14949,7.8971,2.2727,0,0.00039185,3915.8,0.00013384,0.00021202,0.0001216,-91.913,-0.00039333,-3960.9,0.33315
14950,7.8053,2.3636,0,0.00039411,3938.4,0.0001349,-0.0002954,0.00012181,-98.316,-0.00039569,-3986.6,0.32611
14951,7.8971,2.3636,0.05,9.9498e-07,9.9429,7.6402e-07,5.7405,1.6381e-12,-4.292e-07,-7.6402e-07,-5.7406,0.33327
14952,7.8971,2.0909,0,0.00039222,3919.5,0.00013376,0.00087656,0.00012207,-87.811,-0.00039364,-3962.6,0.33278
14953,7.8053,2.1818,0,0.00039445,3941.8,0.00013482,0.00033076,0.00012225,-94.48,-0.00039598,-3988.2,0.32579
14954,7.8971,2.1818,0.05,9.9478e-07,9.9409,7.6386e-07,5.7394,6.8751e-13,-7.9718e-07,-7.6386e-07,-5.7394,0.33295
14955,7.8971,1.9091,0,0.00039266,3923.9,0.00013366,0.0016966,0.00012263,-82.868,-0.00039401,-3964.7,0.33234
14956,7.8053,2,0,0.00039488,3946,0.00013473,0.0011202,0.00012279,-89.744,-0.00039633,-3990.1,0.32539
14957,7.8971,2,0.05,9.9449e-07,9.938,7.6364e-07,5.7377,-2.5738e-13,-1.0115e-06,-7.6365e-07,-5.7377,0.33255
14958,7.8971,1.7273,0,0.00039318,3929.1,0.00013355,0.0026807,0.00012329,-77.123,-0.00039443,-3967,0.33182
14959,7.8053,1.8182,0,0.00039538,3951,0.00013462,0.0020795,0.00012342,-84.15,-0.00039674,-3992.4,0.32491
14960,7.8971,1.8182,0.05,9.941e-07,9.9342,7.6335e-07,5.7355,1.5368e-12,-1.2897e-06,-7.6335e-07,-5.7355,0.33207
14961,7.8971,1.5455,0,0.00039376,3934.9,0.00013342,0.0038501,0.00012402,-70.623,-0.00039491,-3969.7,0.33122
14962,7.8053,1.6364,0,0.00039595,3956.8,0.0001345,0.0032228,0.00012415,-77.741,-0.00039722,-3995.1,0.32434
14963,7.8971,1.6364,0.05,9.9358e-07,9.929,7.6295e-07,5.7325,1.4906e-12,-1.4428e-06,-7.6295e-07,-5.7325,0.3315
14964,7.8971,1.3636,0,0.00039441,3941.3,0.00013328,0.0052263,0.00012484,-63.421,-0.00039545,-3972.7,0.33053
14965,7.8053,1.4545,0,0.00039659,3963.2,0.00013436,0.004584,0.00012496,-70.57,-0.00039774,-3998,0.32369
14966,7.8971,1.4545,0.05,9.9291e-07,9.9223,7.6243e-07,5.7286,-3.743e-13,-3.058e-06,-7.6244e-07,-5.7287,0.33086
14967,7.8971,1.1818,0,0.00039511,3948.4,0.00013313,0.0069086,0.00012573,-55.573,-0.00039603,-3975.9,0.32977
14968,7.8053,1.2727,0,0.0003973,3970.2,0.0001342,0.0061799,0.00012586,-62.695,-0.00039833,-4001.2,0.32297
14969,7.8971,1.2727,0.05,9.9206e-07,9.9138,7.6178e-07,5.7237,3.2315e-12,-2.7384e-06,-7.6178e-07,-5.7238,0.33013
14970,7.8971,1,0,0.00039587,3956,0.00013297,0.0088531,0.00012669,-47.142,-0.00039665,-3979.3,0.32891
14971,7.8053,1.0909,0,0.00039806,3977.8,0.00013403,0.0082137,0.00012682,-54.178,-0.00039895,-4004.6,0.32215
14972,7.8971,1.0909,0.05,9.9101e-07,9.9032,7.6097e-07,5.7176,1.4223e-12,-1.5884e-06,-7.6097e-07,-5.7177,0.32932
14973,7.8971,0.81818,0,0.00039667,3964,0.00013279,0.011988,0.00012771,-38.192,-0.00039731,-3983,0.32798
14974,7.8053,0.90909,0,0.00039887,3986,0.00013386,0.010415,0.00012785,-45.087,-0.00039962,-4008.3,0.32126
14975,7.8971,0.90909,0.05,9.8971e-07,9.8903,7.5998e-07,5.7101,1.4183e-12,-1.4733e-06,-7.5998e-07,-5.7102,0.32843
14976,7.8971,0.63636,0,0.00039752,3972.4,0.00013261,0.014146,0.00012877,-28.795,-0.000398,-3986.8,0.32696
14977,7.8053,0.72727,0,0.00039973,3994.6,0.00013367,0.015068,0.00012894,-35.492,-0.00040032,-4012.2,0.32028
14978,7.8971,0.72727,0.05,9.8801e-07,9.8733,7.5867e-07,5.7003,1.3916e-12,-1.2058e-06,-7.5868e-07,-5.7004,0.32745
14979,7.8971,0.45455,0,0.0003984,3981.3,0.00013241,0.032451,0.00012988,-18.992,-0.00039872,-3990.7,0.32586
14980,7.8053,0.54545,0,0.00040063,4003.5,0.00013347,0.01557,0.00013008,-25.467,-0.00040106,-4016.2,0.31921
14981,7.8971,0.54545,0.05,9.8357e-07,9.8289,7.5525e-07,5.6747,5e-12,-1.8653e-06,-7.5526e-07,-5.6747,0.32639
14982,7.8971,0.27273,0,0.00039936,3990.8,0.00013222,0.053695,0.00013107,-8.5658,-0.0003995,-3995.1,0.32467
14983,7.8053,0.36364,0,0.00040157,4012.9,0.00013327,0.05586,0.00013126,-15.034,-0.00040182,-4020.4,0.31806
14984,7.8971,0.36364,0.05,9.4098e-07,9.4033,7.2255e-07,5.4289,3.2983e-12,-2.1481e-06,-7.2256e-07,-5.429,0.32525
14985,7.8053,0.18182,0,0.00040262,4023.4,0.00013306,0.13686,0.00013254,-3.8004,-0.00040268,-4025.3,0.31682
14986,7.8971,0.18182,0.05,3.3171e-07,3.3148,2.5471e-07,1.9138,1.9779e-12,-1.5033e-05,-2.5472e-07,-1.9139,0.32401
14987,7.8971,0.090909,0,0.00039996,3996.8,0.00013206,0.23472,0.00013189,-1.0096,-0.00039997,-3997.2,0.32339
14988,7.7135,5.7273,0,0.00040482,4045.4,0.0001341,0.05665,0.00013273,-10.237,-0.00040499,-4050.5,0.3103
14989,7.6216,5.8182,0,0.00040813,4078.5,0.00013494,0.121,0.00013425,-5.0702,-0.00040821,-4080.9,0.30259
14990,7.7135,5.8182,0.05,3.6427e-07,3.6401,2.7971e-07,2.1017,-1.972e-12,2.2821e-05,-2.7971e-07,-2.1016,0.30964
14991,7.7135,5.9091,0,0.0004055,4052.2,0.00013391,0.17324,0.00013367,-1.6709,-0.00040553,-4053,0.30902
14992,7.7135,5.5455,0,0.00040379,4035.2,0.00013432,0.035995,0.00013145,-21.519,-0.00040416,-4045.9,0.3115
14993,7.6216,5.6364,0,0.00040701,4067.3,0.00013517,0.06164,0.00013287,-17.201,-0.0004073,-4075.8,0.30384
14994,7.7135,5.6364,0.05,9.5101e-07,9.5036,7.3027e-07,5.487,-4.8575e-12,5.6078e-06,-7.3025e-07,-5.4868,0.31089
14995,7.7135,5.3636,0,0.00040284,4025.6,0.00013453,0.015685,0.00013025,-32.174,-0.00040338,-4041.6,0.31262
14996,7.6216,5.4545,0,0.000406,4057.2,0.00013539,0.017336,0.00013159,-28.536,-0.00040648,-4071.4,0.305
14997,7.7135,5.4545,0.05,9.9226e-07,9.9158,7.6194e-07,5.725,-3.013e-12,5.8732e-06,-7.6193e-07,-5.7248,0.31204
14998,7.7135,5.1818,0,0.00040193,4016.5,0.00013473,0.013155,0.00012909,-42.395,-0.00040263,-4037.5,0.31364
14999,7.6216,5.2727,0,0.00040503,4047.5,0.00013561,0.016605,0.00013036,-39.434,-0.00040568,-4067,0.30607
15000,7.7135,5.2727,0.05,9.9669e-07,9.96,7.6534e-07,5.7505,-4.8371e-12,5.9525e-06,-7.6533e-07,-5.7503,0.31311
15001,7.7135,5,0,0.00040106,4007.8,0.00013492,0.0095944,0.00012799,-52.131,-0.00040192,-4033.6,0.31458
15002,7.6216,5.0909,0,0.0004041,4038.2,0.00013582,0.011361,0.00012918,-49.87,-0.00040492,-4062.9,0.30706
15003,7.7135,5.0909,0.05,9.9844e-07,9.9775,7.6668e-07,5.7606,-4.8531e-12,5.2753e-06,-7.6667e-07,-5.7604,0.3141
15004,7.7135,4.8182,0,0.00040024,3999.7,0.00013511,0.0073736,0.00012695,-61.307,-0.00040125,-4030,0.31544
15005,7.6216,4.9091,0,0.00040322,4029.4,0.00013601,0.0088461,0.00012806,-59.76,-0.0004042,-4059,0.30796
15006,7.7135,4.9091,0.05,9.9976e-07,9.9907,7.6769e-07,5.7682,-6.6687e-12,3.9356e-06,-7.6769e-07,-5.7681,0.315
15007,7.7135,4.6364,0,0.00039948,3992,0.00013527,0.0054615,0.00012598,-69.85,-0.00040062,-4026.5,0.31622
15008,7.6216,4.7273,0,0.0004024,4021.2,0.0001362,0.0065396,0.00012701,-69.029,-0.00040353,-4055.2,0.30878
15009,7.7135,4.7273,0.05,1.0008e-06,10.001,7.6851e-07,5.7743,-6.7016e-12,4.0933e-06,-7.685e-07,-5.7742,0.31581
15010,7.7135,4.4545,0,0.00039878,3985.1,0.00013543,0.0039005,0.00012509,-77.693,-0.00040005,-4023.3,0.31691
15011,7.6216,4.5455,0,0.00040163,4013.6,0.00013636,0.0047316,0.00012604,-77.601,-0.0004029,-4051.8,0.30951
15012,7.7135,4.5455,0.05,1.0017e-06,10.01,7.6915e-07,5.7791,-3.1964e-12,3.4047e-06,-7.6915e-07,-5.779,0.31654
15013,7.7135,4.2727,0,0.00039815,3978.7,0.00013557,0.0025777,0.00012428,-84.772,-0.00039952,-4020.5,0.31751
15014,7.6216,4.3636,0,0.00040094,4006.6,0.00013652,0.0031941,0.00012515,-85.41,-0.00040232,-4048.7,0.31017
15015,7.7135,4.3636,0.05,1.0023e-06,10.016,7.6965e-07,5.7828,-5.0306e-12,3.5337e-06,-7.6964e-07,-5.7827,0.31719
15016,7.7135,4.0909,0,0.00039759,3973.2,0.00013569,0.0014673,0.00012357,-91.031,-0.00039906,-4017.9,0.31804
15017,7.6216,4.1818,0,0.00040032,4000.4,0.00013666,0.0019055,0.00012436,-92.39,-0.00040181,-4045.8,0.31073
15018,7.7135,4.1818,0.05,1.0028e-06,10.021,7.7002e-07,5.7856,-1.4249e-12,2.9592e-06,-7.7001e-07,-5.7855,0.31776
15019,7.7135,3.9091,0,0.00039711,3968.4,0.00013579,0.00054377,0.00012296,-96.417,-0.00039866,-4015.7,0.31848
15020,7.6216,4,0,0.00039978,3995,0.00013678,0.00082611,0.00012367,-98.485,-0.00040136,-4043.4,0.31122
15021,7.7135,4,0.05,1.0031e-06,10.024,7.7029e-07,5.7876,-1.5118e-12,2.1533e-06,-7.7028e-07,-5.7876,0.31824
15022,7.7135,3.7273,0,0.00039671,3964.4,0.00013588,-0.00020385,0.00012245,-100.89,-0.00039833,-4013.9,0.31885
15023,7.6216,3.8182,0,0.00039932,3990.4,0.00013688,-6.0709e-05,0.00012308,-103.64,-0.00040098,-4041.3,0.31162
15024,7.7135,3.8182,0.05,1.0034e-06,10.027,7.7047e-07,5.789,-1.5741e-12,1.9375e-06,-7.7048e-07,-5.789,0.31865
15025,7.7135,3.5455,0,0.0003964,3961.3,0.00013595,-0.00078075,0.00012205,-104.4,-0.00039807,-4012.4,0.31913
15026,7.6216,3.6364,0,0.00039895,3986.7,0.00013696,-0.00076316,0.00012261,-107.83,-0.00040067,-4039.6,0.31195
15027,7.7135,3.6364,0.05,1.0035e-06,10.029,7.706e-07,5.79,-3.4288e-12,1.5975e-06,-7.706e-07,-5.79,0.31897
15028,7.7135,3.3636,0,0.00039617,3959,0.000136,-0.0011912,0.00012177,-106.94,-0.00039789,-4011.4,0.31933
15029,7.6216,3.4545,0,0.00039867,3983.9,0.00013702,-0.0012863,0.00012225,-110.99,-0.00040044,-4038.3,0.31219
15030,7.7135,3.4545,0.05,1.0037e-06,10.03,7.7068e-07,5.7906,-1.6674e-12,1.105e-06,-7.7068e-07,-5.7906,0.31921
15031,7.7135,3.1818,0,0.00039604,3957.7,0.00013603,-0.0014376,0.00012159,-108.46,-0.00039777,-4010.8,0.31945
15032,7.6216,3.2727,0,0.00039848,3982,0.00013706,-0.001635,0.00012201,-113.12,-0.00040028,-4037.4,0.31235
15033,7.7135,3.2727,0.05,1.0037e-06,10.03,7.7073e-07,5.791,-2.6404e-12,6.6839e-07,-7.7073e-07,-5.7909,0.31937
15034,7.7135,3,0,0.00039599,3957.2,0.00013604,-0.0015196,0.00012153,-108.98,-0.00039773,-4010.6,0.31949
15035,7.6216,3.0909,0,0.00039838,3981.1,0.00013708,-0.0018093,0.00012188,-114.19,-0.0004002,-4037,0.31243
15036,7.7135,3.0909,0.05,1.0037e-06,10.03,7.7075e-07,5.7911,-8.803e-13,2.2165e-07,-7.7075e-07,-5.7911,0.31945
15037,7.7135,2.8182,0,0.00039604,3957.7,0.00013603,-0.0014374,0.00012159,-108.46,-0.00039777,-4010.8,0.31945
15038,7.6216,2.9091,0,0.00039838,3981.1,0.00013708,-0.0018092,0.00012188,-114.19,-0.0004002,-4037,0.31243
15039,7.7135,2.9091,0.05,1.0037e-06,10.03,7.7075e-07,5.7911,-2.9199e-14,1.6895e-06,-7.7075e-07,-5.7911,0.31945
15040,7.7135,2.6364,0,0.00039617,3959,0.000136,-0.001191,0.00012177,-106.94,-0.00039789,-4011.4,0.31933
15041,7.6216,2.7273,0,0.00039848,3982,0.00013706,-0.0016348,0.00012201,-113.12,-0.00040028,-4037.4,0.31235
15042,7.7135,2.7273,0.05,1.0037e-06,10.03,7.7073e-07,5.791,-8.631e-14,-6.4268e-07,-7.7073e-07,-5.7909,0.31937
15043,7.7135,2.4545,0,0.0003964,3961.3,0.00013595,-0.00078048,0.00012205,-104.4,-0.00039807,-4012.4,0.31913
15044,7.6216,2.5455,0,0.00039867,3983.9,0.00013702,-0.0012863,0.00012225,-110.99,-0.00040044,-4038.3,0.31219
15045,7.7135,2.5455,0.05,1.0037e-06,10.03,7.7068e-07,5.7906,-1.4201e-13,-1.0535e-06,-7.7068e-07,-5.7906,0.31921
15046,7.7135,2.2727,0,0.00039671,3964.4,0.00013588,-0.00020343,0.00012245,-100.89,-0.00039833,-4013.9,0.31885
15047,7.6216,2.3636,0,0.00039895,3986.7,0.00013696,-0.00076307,0.00012261,-107.83,-0.00040067,-4039.6,0.31195
15048,7.7135,2.3636,0.05,1.0035e-06,10.029,7.706e-07,5.79,-1.9298e-13,-1.439e-06,-7.706e-07,-5.79,0.31897
15049,7.7135,2.0909,0,0.00039711,3968.4,0.00013579,0.00054413,0.00012296,-96.417,-0.00039866,-4015.7,0.31848
15050,7.6216,2.1818,0,0.00039932,3990.4,0.00013688,-6.0203e-05,0.00012308,-103.64,-0.00040098,-4041.3,0.31162
15051,7.7135,2.1818,0.05,1.0034e-06,10.027,7.7047e-07,5.789,-2.349e-13,-1.742e-06,-7.7047e-07,-5.789,0.31865
15052,7.7135,1.9091,0,0.00039759,3973.2,0.00013569,0.0014676,0.00012357,-91.031,-0.00039906,-4017.9,0.31804
15053,7.6216,2,0,0.00039978,3995,0.00013678,0.00082677,0.00012367,-98.485,-0.00040136,-4043.4,0.31122
15054,7.7135,2,0.05,1.0031e-06,10.024,7.7028e-07,5.7876,1.5308e-12,-1.1139e-06,-7.7028e-07,-5.7876,0.31824
15055,7.7135,1.7273,0,0.00039815,3978.7,0.00013557,0.0025784,0.00012428,-84.772,-0.00039952,-4020.5,0.31751
15056,7.6216,1.8182,0,0.00040032,4000.4,0.00013666,0.0019059,0.00012436,-92.39,-0.00040181,-4045.8,0.31073
15057,7.7135,1.8182,0.05,1.0028e-06,10.021,7.7002e-07,5.7856,1.4762e-12,-2.7441e-06,-7.7001e-07,-5.7856,0.31776
15058,7.7135,1.5455,0,0.00039878,3985.1,0.00013543,0.0039014,0.00012509,-77.693,-0.00040005,-4023.3,0.31691
15059,7.6216,1.6364,0,0.00040094,4006.6,0.00013652,0.0031949,0.00012515,-85.41,-0.00040232,-4048.7,0.31017
15060,7.7135,1.6364,0.05,1.0023e-06,10.016,7.6964e-07,5.7828,-3.1158e-13,-1.9484e-06,-7.6964e-07,-5.7828,0.31719
15061,7.7135,1.3636,0,0.00039948,3992,0.00013527,0.0054621,0.00012598,-69.85,-0.00040062,-4026.5,0.31622
15062,7.6216,1.4545,0,0.00040163,4013.6,0.00013636,0.0047323,0.00012604,-77.601,-0.0004029,-4051.8,0.30951
15063,7.7135,1.4545,0.05,1.0017e-06,10.01,7.6914e-07,5.779,3.1964e-12,-2.4616e-06,-7.6915e-07,-5.7791,0.31654
15064,7.7135,1.1818,0,0.00040024,3999.7,0.00013511,0.0073741,0.00012695,-61.307,-0.00040125,-4030,0.31544
15065,7.6216,1.2727,0,0.0004024,4021.2,0.0001362,0.0065403,0.00012701,-69.029,-0.00040353,-4055.2,0.30878
15066,7.7135,1.2727,0.05,1.0008e-06,10.001,7.685e-07,5.7742,3.1589e-12,-3.5851e-06,-7.6851e-07,-5.7743,0.31581
15067,7.7135,1,0,0.00040106,4007.8,0.00013492,0.0095954,0.00012799,-52.131,-0.00040192,-4033.6,0.31458
15068,7.6216,1.0909,0,0.00040322,4029.4,0.00013601,0.0088468,0.00012806,-59.76,-0.0004042,-4059,0.30796
15069,7.7135,1.0909,0.05,9.9976e-07,9.9907,7.6769e-07,5.7681,6.7785e-12,-2.5401e-06,-7.6769e-07,-5.7682,0.315
15070,7.7135,0.81818,0,0.00040193,4016.5,0.00013473,0.013156,0.00012909,-42.395,-0.00040263,-4037.5,0.31364
15071,7.6216,0.90909,0,0.0004041,4038.2,0.00013582,0.011362,0.00012918,-49.87,-0.00040492,-4062.9,0.30706
15072,7.7135,0.90909,0.05,9.9844e-07,9.9775,7.6667e-07,5.7605,1.2181e-12,-2.6109e-06,-7.6668e-07,-5.7606,0.3141
15073,7.7135,0.63636,0,0.00040284,4025.6,0.00013453,0.015686,0.00013025,-32.174,-0.00040338,-4041.6,0.31262
15074,7.6216,0.72727,0,0.00040503,4047.5,0.00013561,0.016606,0.00013036,-39.434,-0.00040568,-4067,0.30607
15075,7.7135,0.72727,0.05,9.9669e-07,9.96,7.6533e-07,5.7504,3.188e-12,-6.1328e-07,-7.6534e-07,-5.7504,0.31311
15076,7.7135,0.45455,0,0.00040379,4035.2,0.00013432,0.035996,0.00013145,-21.519,-0.00040416,-4045.9,0.3115
15077,7.6216,0.54545,0,0.000406,4057.2,0.00013539,0.017336,0.00013159,-28.536,-0.00040648,-4071.4,0.305
15078,7.7135,0.54545,0.05,9.9226e-07,9.9158,7.6193e-07,5.7248,3.013e-12,-2.3003e-06,-7.6194e-07,-5.7249,0.31204
15079,7.7135,0.27273,0,0.00040482,4045.4,0.0001341,0.056652,0.00013273,-10.237,-0.00040499,-4050.5,0.3103
15080,7.6216,0.36364,0,0.00040701,4067.3,0.00013517,0.061642,0.00013287,-17.201,-0.0004073,-4075.8,0.30384
15081,7.7135,0.36364,0.05,9.5101e-07,9.5036,7.3026e-07,5.4868,3.2488e-12,-3.1551e-06,-7.3026e-07,-5.4869,0.31089
15082,7.6216,0.18182,0,0.00040813,4078.5,0.00013494,0.121,0.00013425,-5.0702,-0.00040821,-4081,0.30259
15083,7.7135,0.18182,0.05,3.6427e-07,3.6401,2.7971e-07,2.1016,2.9742e-13,-2.1197e-05,-2.7971e-07,-2.1017,0.30964
15084,7.7135,0.090909,0,0.0004055,4052.2,0.00013391,0.17324,0.00013367,-1.6709,-0.00040553,-4053,0.30902
15085,7.5298,5.7273,0,0.00041031,4100.3,0.000136,0.06037,0.00013439,-12.017,-0.00041051,-4106.2,0.29621
15086,7.438,5.8182,0,0.00041367,4133.8,0.00013684,0.11295,0.00013597,-6.4217,-0.00041378,-4137,0.28863
15087,7.5298,5.8182,0.05,3.9956e-07,3.9928,3.0682e-07,2.3053,3.3936e-13,2.4236e-05,-3.0681e-07,-2.3052,0.29554
15088,7.5298,5.9091,0,0.00041108,4108,0.00013579,0.14613,0.00013545,-2.4066,-0.00041112,-4109.1,0.29491
15089,7.5298,5.5455,0,0.00040921,4089.3,0.00013624,0.039842,0.00013301,-24.227,-0.00040961,-4101.3,0.29742
15090,7.438,5.6364,0,0.00041247,4121.9,0.00013709,0.067926,0.00013448,-19.518,-0.0004128,-4131.6,0.28989
15091,7.5298,5.6364,0.05,9.6176e-07,9.611,7.3852e-07,5.549,-2.995e-12,8.2923e-06,-7.3851e-07,-5.5488,0.2968
15092,7.5298,5.3636,0,0.00040818,4079,0.00013647,0.017363,0.0001317,-35.804,-0.00040878,-4096.8,0.29854
15093,7.438,5.4545,0,0.00041138,4111,0.00013733,0.019262,0.00013309,-31.827,-0.00041192,-4126.8,0.29106
15094,7.5298,5.4545,0.05,1.0015e-06,10.008,7.6906e-07,5.7785,-2.9596e-12,7.79e-06,-7.6905e-07,-5.7783,0.29796
15095,7.5298,5.1818,0,0.0004072,4069.2,0.00013669,0.014428,0.00013045,-46.916,-0.00040797,-4092.4,0.29958
15096,7.438,5.2727,0,0.00041034,4100.5,0.00013757,0.018282,0.00013176,-43.672,-0.00041106,-4122.2,0.29214
15097,7.5298,5.2727,0.05,1.0059e-06,10.052,7.7244e-07,5.8038,-4.7157e-12,6.068e-06,-7.7243e-07,-5.8037,0.29904
15098,7.5298,5,0,0.00040626,4059.8,0.0001369,0.010406,0.00012925,-57.505,-0.0004072,-4088.2,0.30053
15099,7.438,5.0909,0,0.00040933,4090.5,0.0001378,0.012396,0.00013047,-55.018,-0.00041024,-4117.7,0.29313
15100,7.5298,5.0909,0.05,1.0077e-06,10.07,7.7381e-07,5.8141,-4.8427e-12,5.782e-06,-7.738e-07,-5.814,0.30003
15101,7.5298,4.8182,0,0.00040537,4050.9,0.0001371,0.0078848,0.00012812,-67.487,-0.00040648,-4084.2,0.30139
15102,7.438,4.9091,0,0.00040838,4081,0.00013801,0.0095411,0.00012926,-65.775,-0.00040946,-4113.5,0.29404
15103,7.5298,4.9091,0.05,1.0091e-06,10.084,7.7484e-07,5.8218,-3.0136e-12,4.4422e-06,-7.7483e-07,-5.8217,0.30094
15104,7.5298,4.6364,0,0.00040455,4042.7,0.00013729,0.0057229,0.00012707,-76.785,-0.0004058,-4080.5,0.30217
15105,7.438,4.7273,0,0.00040749,4072.1,0.00013821,0.0069383,0.00012812,-75.859,-0.00040873,-4109.5,0.29487
15106,7.5298,4.7273,0.05,1.0101e-06,10.094,7.7565e-07,5.8279,-4.9239e-12,4.0012e-06,-7.7564e-07,-5.8278,0.30176
15107,7.5298,4.4545,0,0.00040379,4035.1,0.00013746,0.0039615,0.0001261,-85.322,-0.00040518,-4077.1,0.30286
15108,7.438,4.5455,0,0.00040667,4063.9,0.0001384,0.0049001,0.00012706,-85.189,-0.00040805,-4105.8,0.29561
15109,7.5298,4.5455,0.05,1.0109e-06,10.102,7.7627e-07,5.8326,-4.8956e-12,4.1858e-06,-7.7626e-07,-5.8325,0.3025
15110,7.5298,4.2727,0,0.00040311,4028.3,0.00013761,0.0024721,0.00012523,-93.031,-0.00040461,-4074,0.30347
15111,7.438,4.3636,0,0.00040592,4056.4,0.00013857,0.0031711,0.0001261,-93.689,-0.00040743,-4102.4,0.29626
15112,7.5298,4.3636,0.05,1.0115e-06,10.108,7.7674e-07,5.8361,-1.3224e-12,3.6126e-06,-7.7673e-07,-5.836,0.30315
15113,7.5298,4.0909,0,0.00040251,4022.3,0.00013774,0.0012235,0.00012445,-99.848,-0.00040411,-4071.3,0.304
15114,7.438,4.1818,0,0.00040525,4049.7,0.00013872,0.0017241,0.00012524,-101.29,-0.00040687,-4099.4,0.29683
15115,7.5298,4.1818,0.05,1.012e-06,10.113,7.7708e-07,5.8386,4.5118e-13,3.358e-06,-7.7706e-07,-5.8386,0.30372
15116,7.5298,3.9091,0,0.00040199,4017.1,0.00013786,0.00018684,0.00012379,-105.72,-0.00040368,-4068.9,0.30445
15117,7.438,4,0,0.00040466,4043.8,0.00013885,0.00051392,0.00012448,-107.93,-0.00040639,-4096.7,0.29732
15118,7.5298,4,0.05,1.0123e-06,10.116,7.7731e-07,5.8404,3.6965e-13,1.8919e-06,-7.773e-07,-5.8403,0.30421
15119,7.5298,3.7273,0,0.00040155,4012.8,0.00013795,-0.00065079,0.00012323,-110.59,-0.00040332,-4066.9,0.30481
15120,7.438,3.8182,0,0.00040416,4038.8,0.00013896,-0.00047901,0.00012385,-113.55,-0.00040598,-4094.4,0.29773
15121,7.5298,3.8182,0.05,1.0125e-06,10.118,7.7745e-07,5.8415,-3.3521e-12,2.3415e-06,-7.7745e-07,-5.8414,0.30462
15122,7.5298,3.5455,0,0.00040122,4009.4,0.00013803,-0.0012968,0.0001228,-114.42,-0.00040304,-4065.4,0.3051
15123,7.438,3.6364,0,0.00040376,4034.8,0.00013905,-0.0012648,0.00012333,-118.11,-0.00040564,-4092.6,0.29805
15124,7.5298,3.6364,0.05,1.0126e-06,10.119,7.7755e-07,5.8422,-1.5856e-12,1.6424e-06,-7.7754e-07,-5.8422,0.30494
15125,7.5298,3.3636,0,0.00040097,4006.9,0.00013808,-0.0017565,0.00012249,-117.18,-0.00040284,-4064.2,0.3053
15126,7.438,3.4545,0,0.00040346,4031.8,0.00013912,-0.0018498,0.00012294,-121.56,-0.00040539,-4091.2,0.2983
15127,7.5298,3.4545,0.05,1.0127e-06,10.12,7.776e-07,5.8426,1.6803e-13,1.1943e-06,-7.7759e-07,-5.8425,0.30518
15128,7.5298,3.1818,0,0.00040082,4005.5,0.00013811,-0.0020322,0.0001223,-118.84,-0.00040271,-4063.6,0.30542
15129,7.438,3.2727,0,0.00040325,4029.7,0.00013916,-0.0022393,0.00012268,-123.88,-0.00040522,-4090.3,0.29846
15130,7.5298,3.2727,0.05,1.0127e-06,10.12,7.7762e-07,5.8428,9.6165e-14,7.4482e-07,-7.7762e-07,-5.8427,0.30534
15131,7.5298,3,0,0.00040077,4005,0.00013813,-0.0021239,0.00012223,-119.4,-0.00040267,-4063.3,0.30546
15132,7.438,3.0909,0,0.00040315,4028.7,0.00013918,-0.0024339,0.00012254,-125.04,-0.00040513,-4089.8,0.29854
15133,7.5298,3.0909,0.05,1.0127e-06,10.12,7.7764e-07,5.8429,-3.6058e-12,2.15e-06,-7.7763e-07,-5.8428,0.30542
15134,7.5298,2.8182,0,0.00040082,4005.5,0.00013811,-0.002032,0.0001223,-118.84,-0.00040271,-4063.6,0.30542
15135,7.438,2.9091,0,0.00040315,4028.7,0.00013918,-0.0024338,0.00012254,-125.04,-0.00040513,-4089.8,0.29854
15136,7.5298,2.9091,0.05,1.0127e-06,10.12,7.7763e-07,5.8429,-1.8507e-12,-2.3596e-07,-7.7763e-07,-5.8428,0.30542
15137,7.5298,2.6364,0,0.00040097,4006.9,0.00013808,-0.0017565,0.00012249,-117.18,-0.00040284,-4064.2,0.3053
15138,7.438,2.7273,0,0.00040325,4029.7,0.00013916,-0.0022391,0.00012268,-123.88,-0.00040522,-4090.3,0.29846
15139,7.5298,2.7273,0.05,1.0127e-06,10.12,7.7762e-07,5.8428,-9.4357e-14,-6.9403e-07,-7.7762e-07,-5.8427,0.30534
15140,7.5298,2.4545,0,0.00040122,4009.4,0.00013803,-0.0012969,0.0001228,-114.42,-0.00040304,-4065.4,0.3051
15141,7.438,2.5455,0,0.00040346,4031.8,0.00013912,-0.0018497,0.00012294,-121.56,-0.00040539,-4091.2,0.2983
15142,7.5298,2.5455,0.05,1.0127e-06,10.12,7.776e-07,5.8426,-1.5419e-13,-1.1615e-06,-7.776e-07,-5.8426,0.30518
15143,7.5298,2.2727,0,0.00040155,4012.8,0.00013795,-0.00065061,0.00012323,-110.59,-0.00040332,-4066.9,0.30481
15144,7.438,2.3636,0,0.00040376,4034.8,0.00013905,-0.0012648,0.00012333,-118.11,-0.00040564,-4092.6,0.29805
15145,7.5298,2.3636,0.05,1.0126e-06,10.119,7.7755e-07,5.8422,-2.0951e-13,-6.1105e-07,-7.7754e-07,-5.8422,0.30494
15146,7.5298,2.0909,0,0.00040199,4017.1,0.00013786,0.00018765,0.00012379,-105.72,-0.00040368,-4068.9,0.30445
15147,7.438,2.1818,0,0.00040416,4038.8,0.00013896,-0.00047851,0.00012385,-113.55,-0.00040598,-4094.4,0.29773
15148,7.5298,2.1818,0.05,1.0125e-06,10.118,7.7745e-07,5.8415,-2.7041e-13,-1.0033e-06,-7.7745e-07,-5.8415,0.30462
15149,7.5298,1.9091,0,0.00040251,4022.3,0.00013774,0.0012242,0.00012445,-99.848,-0.00040411,-4071.3,0.304
15150,7.438,2,0,0.00040466,4043.8,0.00013885,0.0005146,0.00012448,-107.93,-0.00040639,-4096.7,0.29732
15151,7.5298,2,0.05,1.0123e-06,10.116,7.773e-07,5.8403,-2.9353e-13,-2.2385e-06,-7.773e-07,-5.8403,0.30421
15152,7.5298,1.7273,0,0.00040311,4028.3,0.00013761,0.0024726,0.00012523,-93.031,-0.00040461,-4074,0.30347
15153,7.438,1.8182,0,0.00040525,4049.7,0.00013872,0.0017245,0.00012524,-101.29,-0.00040687,-4099.4,0.29683
15154,7.5298,1.8182,0.05,1.012e-06,10.113,7.7707e-07,5.8386,-3.5016e-13,-2.9313e-06,-7.7707e-07,-5.8386,0.30372
15155,7.5298,1.5455,0,0.00040379,4035.1,0.00013746,0.003962,0.0001261,-85.322,-0.00040518,-4077.1,0.30286
15156,7.438,1.6364,0,0.00040592,4056.4,0.00013857,0.0031717,0.0001261,-93.689,-0.00040743,-4102.4,0.29626
15157,7.5298,1.6364,0.05,1.0115e-06,10.108,7.7673e-07,5.836,1.4113e-12,-2.3449e-06,-7.7674e-07,-5.8361,0.30315
15158,7.5298,1.3636,0,0.00040455,4042.7,0.00013729,0.0057236,0.00012707,-76.785,-0.0004058,-4080.5,0.30217
15159,7.438,1.4545,0,0.00040667,4063.9,0.0001384,0.0049009,0.00012706,-85.189,-0.00040805,-4105.8,0.29561
15160,7.5298,1.4545,0.05,1.0109e-06,10.102,7.7626e-07,5.8325,3.1477e-12,-2.9551e-06,-7.7627e-07,-5.8326,0.3025
15161,7.5298,1.1818,0,0.00040537,4050.9,0.0001371,0.0078857,0.00012812,-67.487,-0.00040648,-4084.2,0.30139
15162,7.438,1.2727,0,0.00040749,4072.1,0.00013821,0.0069391,0.00012812,-75.859,-0.00040873,-4109.5,0.29487
15163,7.5298,1.2727,0.05,1.0101e-06,10.094,7.7564e-07,5.8278,-4.2068e-13,-2.7085e-06,-7.7564e-07,-5.8279,0.30176
15164,7.5298,1,0,0.00040626,4059.8,0.0001369,0.010408,0.00012925,-57.505,-0.0004072,-4088.2,0.30053
15165,7.438,1.0909,0,0.00040838,4081,0.00013801,0.0095418,0.00012926,-65.775,-0.00040946,-4113.5,0.29404
15166,7.5298,1.0909,0.05,1.0091e-06,10.084,7.7483e-07,5.8218,3.0483e-12,-2.6714e-06,-7.7484e-07,-5.8218,0.30094
15167,7.5298,0.81818,0,0.0004072,4069.2,0.00013669,0.014429,0.00013045,-46.916,-0.00040797,-4092.4,0.29958
15168,7.438,0.90909,0,0.00040933,4090.5,0.0001378,0.012398,0.00013047,-55.018,-0.00041024,-4117.7,0.29313
15169,7.5298,0.90909,0.05,1.0077e-06,10.07,7.738e-07,5.814,4.9474e-12,-2.6912e-06,-7.7381e-07,-5.8141,0.30003
15170,7.5298,0.63636,0,0.00040818,4079,0.00013647,0.017364,0.0001317,-35.804,-0.00040878,-4096.8,0.29854
15171,7.438,0.72727,0,0.00041034,4100.5,0.00013757,0.018283,0.00013176,-43.672,-0.00041106,-4122.2,0.29214
15172,7.5298,0.72727,0.05,1.0059e-06,10.052,7.7243e-07,5.8037,3.0504e-12,-4.2569e-06,-7.7244e-07,-5.8038,0.29904
15173,7.5298,0.45455,0,0.00040921,4089.3,0.00013624,0.039843,0.00013301,-24.227,-0.00040961,-4101.3,0.29742
15174,7.438,0.54545,0,0.00041138,4111,0.00013733,0.019262,0.00013309,-31.827,-0.00041192,-4126.8,0.29106
15175,7.5298,0.54545,0.05,1.0015e-06,10.008,7.6905e-07,5.7783,3.1684e-12,-1.4624e-06,-7.6906e-07,-5.7784,0.29796
15176,7.5298,0.27273,0,0.00041031,4100.3,0.000136,0.060371,0.00013439,-12.017,-0.00041051,-4106.2,0.29621
15177,7.438,0.36364,0,0.00041247,4121.9,0.00013709,0.067928,0.00013448,-19.518,-0.0004128,-4131.6,0.28989
15178,7.5298,0.36364,0.05,9.6176e-07,9.611,7.3851e-07,5.5489,1.4235e-12,-3.2466e-06,-7.3852e-07,-5.549,0.2968
15179,7.438,0.18182,0,0.00041367,4133.8,0.00013684,0.11296,0.00013597,-6.4217,-0.00041378,-4137,0.28863
15180,7.5298,0.18182,0.05,3.9956e-07,3.9929,3.0681e-07,2.3052,-1.9024e-12,-2.2711e-05,-3.0682e-07,-2.3053,0.29554
15181,7.5298,0.090909,0,0.00041108,4108,0.00013579,0.14613,0.00013545,-2.4066,-0.00041112,-4109.1,0.29491
15182,7.3462,5.7273,0,0.00041583,4155.4,0.00013792,0.064797,0.00013606,-13.912,-0.00041606,-4162.3,0.28239
15183,7.2543,5.8182,0,0.00041924,4189.5,0.00013875,0.10946,0.00013769,-7.8542,-0.00041937,-4193.4,0.27494
15184,7.3462,5.8182,0.05,4.3781e-07,4.3751,3.3619e-07,2.526,-1.857e-12,3.488e-05,-3.3618e-07,-2.5259,0.28172
15185,7.3462,5.9091,0,0.0004167,4164.1,0.00013768,0.13296,0.00013724,-3.1975,-0.00041675,-4165.6,0.28109
15186,7.3462,5.5455,0,0.00041465,4143.6,0.00013818,0.044023,0.00013456,-27.126,-0.0004151,-4157.1,0.28361
15187,7.2543,5.6364,0,0.00041796,4176.8,0.00013902,0.074767,0.00013609,-21.993,-0.00041833,-4187.7,0.27621
15188,7.3462,5.6364,0.05,9.7331e-07,9.7263,7.4738e-07,5.6156,-4.6192e-12,8.1022e-06,-7.4737e-07,-5.6154,0.28299
15189,7.3462,5.3636,0,0.00041354,4132.5,0.00013843,0.019194,0.00013314,-39.702,-0.0004142,-4152.2,0.28474
15190,7.2543,5.4545,0,0.00041679,4165,0.00013929,0.021366,0.00013458,-35.357,-0.00041738,-4182.6,0.27739
15191,7.3462,5.4545,0.05,1.0114e-06,10.107,7.7667e-07,5.8356,-4.706e-12,5.7066e-06,-7.7666e-07,-5.8355,0.28416
15192,7.3462,5.1818,0,0.00041247,4121.9,0.00013867,0.01582,0.00013178,-51.779,-0.00041333,-4147.5,0.28579
15193,7.2543,5.2727,0,0.00041566,4153.7,0.00013955,0.020114,0.00013313,-48.227,-0.00041646,-4177.6,0.27848
15194,7.3462,5.2727,0.05,1.0158e-06,10.151,7.8002e-07,5.8608,-6.4576e-12,6.2125e-06,-7.8001e-07,-5.8607,0.28525
15195,7.3462,5,0,0.00041146,4111.7,0.00013891,0.011298,0.00013048,-63.293,-0.0004125,-4143,0.28674
15196,7.2543,5.0909,0,0.00041458,4142.9,0.0001398,0.013533,0.00013174,-60.559,-0.00041557,-4172.8,0.27948
15197,7.3462,5.0909,0.05,1.0176e-06,10.169,7.8141e-07,5.8712,6.0144e-13,4.0381e-06,-7.8141e-07,-5.8712,0.28625
15198,7.3462,4.8182,0,0.0004105,4102.2,0.00013912,0.0084496,0.00012925,-74.15,-0.00041171,-4138.8,0.28761
15199,7.2543,4.9091,0,0.00041355,4132.6,0.00014004,0.010307,0.00013042,-72.256,-0.00041473,-4168.3,0.2804
15200,7.3462,4.9091,0.05,1.019e-06,10.183,7.8245e-07,5.879,-4.6805e-12,3.8699e-06,-7.8244e-07,-5.879,0.28716
15201,7.3462,4.6364,0,0.00040961,4093.3,0.00013932,0.0060164,0.00012811,-84.266,-0.00041098,-4134.8,0.28839
15202,7.2543,4.7273,0,0.00041258,4123,0.00014026,0.007383,0.00012918,-83.225,-0.00041394,-4164,0.28123
15203,7.3462,4.7273,0.05,1.02e-06,10.193,7.8324e-07,5.8851,-4.75e-12,6.1247e-06,-7.8324e-07,-5.8849,0.28798
15204,7.3462,4.4545,0,0.00040879,4085.1,0.00013951,0.0040368,0.00012706,-93.558,-0.0004103,-4131.1,0.28909
15205,7.2543,4.5455,0,0.00041169,4114.1,0.00014046,0.0050945,0.00012803,-93.377,-0.0004132,-4160,0.28197
15206,7.3462,4.5455,0.05,1.0208e-06,10.201,7.8384e-07,5.8895,-1.2331e-12,3.7451e-06,-7.8383e-07,-5.8894,0.28873
15207,7.3462,4.2727,0,0.00040805,4077.7,0.00013968,0.0023662,0.00012611,-101.95,-0.00040969,-4127.7,0.28971
15208,7.2543,4.3636,0,0.00041088,4106,0.00014064,0.0031568,0.00012698,-102.63,-0.00041253,-4156.3,0.28263
15209,7.3462,4.3636,0.05,1.0213e-06,10.206,7.8427e-07,5.8927,-4.8611e-12,3.5158e-06,-7.8426e-07,-5.8926,0.28938
15210,7.3462,4.0909,0,0.0004074,4071.2,0.00013982,0.00096787,0.00012527,-109.37,-0.00040915,-4124.8,0.29024
15211,7.2543,4.1818,0,0.00041015,4098.7,0.00014081,0.0015378,0.00012605,-110.91,-0.00041193,-4153,0.28321
15212,7.3462,4.1818,0.05,1.0217e-06,10.21,7.8456e-07,5.8949,-3.1025e-12,2.2783e-06,-7.8455e-07,-5.8948,0.28996
15213,7.3462,3.9091,0,0.00040684,4065.6,0.00013995,-0.00019169,0.00012454,-115.77,-0.00040868,-4122.2,0.29069
15214,7.2543,4,0,0.00040952,4092.4,0.00014095,0.00018543,0.00012523,-118.14,-0.0004114,-4150.2,0.2837
15215,7.3462,4,0.05,1.022e-06,10.213,7.8474e-07,5.8962,3.9716e-13,1.8808e-06,-7.8473e-07,-5.8962,0.29045
15216,7.3462,3.7273,0,0.00040637,4060.9,0.00014005,-0.0011282,0.00012394,-121.07,-0.00040829,-4120.1,0.29106
15217,7.2543,3.8182,0,0.00040898,4087,0.00014107,-0.00092293,0.00012453,-124.26,-0.00041095,-4147.7,0.28411
15218,7.3462,3.8182,0.05,1.0221e-06,10.214,7.8484e-07,5.897,-1.5073e-12,2.388e-06,-7.8484e-07,-5.897,0.29086
15219,7.3462,3.5455,0,0.000406,4057.2,0.00014014,-0.0018499,0.00012347,-125.25,-0.00040799,-4118.4,0.29134
15220,7.2543,3.6364,0,0.00040855,4082.6,0.00014117,-0.0017999,0.00012397,-129.22,-0.00041059,-4145.7,0.28443
15221,7.3462,3.6364,0.05,1.0222e-06,10.215,7.8489e-07,5.8974,2.4964e-13,3.9857e-06,-7.8489e-07,-5.8973,0.29118
15222,7.3462,3.3636,0,0.00040574,4054.6,0.0001402,-0.0023627,0.00012313,-128.26,-0.00040777,-4117.2,0.29154
15223,7.2543,3.4545,0,0.00040822,4079.3,0.00014124,-0.0024518,0.00012355,-132.98,-0.00041032,-4144.2,0.28468
15224,7.3462,3.4545,0.05,1.0222e-06,10.215,7.8491e-07,5.8975,-1.6477e-12,1.2405e-06,-7.8491e-07,-5.8975,0.29143
15225,7.3462,3.1818,0,0.00040558,4053,0.00014023,-0.00267,0.00012292,-130.07,-0.00040763,-4116.5,0.29167
15226,7.2543,3.2727,0,0.00040799,4077.1,0.00014129,-0.0028857,0.00012326,-135.51,-0.00041013,-4143.2,0.28484
15227,7.3462,3.2727,0.05,1.0222e-06,10.215,7.8491e-07,5.8975,-3.5335e-12,7.6916e-07,-7.8491e-07,-5.8975,0.29159
15228,7.3462,3,0,0.00040553,4052.5,0.00014024,-0.0027724,0.00012285,-130.68,-0.00040759,-4116.2,0.29171
15229,7.2543,3.0909,0,0.00040788,4076,0.00014132,-0.0031025,0.00012312,-136.78,-0.00041004,-4142.7,0.28492
15230,7.3462,3.0909,0.05,1.0222e-06,10.215,7.8491e-07,5.8975,-1.7845e-12,2.6215e-07,-7.8491e-07,-5.8974,0.29167
15231,7.3462,2.8182,0,0.00040558,4053,0.00014023,-0.0026698,0.00012292,-130.07,-0.00040763,-4116.5,0.29167
15232,7.2543,2.9091,0,0.00040788,4076,0.00014132,-0.0031024,0.00012312,-136.78,-0.00041004,-4142.7,0.28492
15233,7.3462,2.9091,0.05,1.0222e-06,10.215,7.8491e-07,5.8975,-1.8534e-12,-2.5466e-07,-7.8491e-07,-5.8974,0.29167
15234,7.3462,2.6364,0,0.00040574,4054.6,0.0001402,-0.0023624,0.00012313,-128.26,-0.00040777,-4117.2,0.29154
15235,7.2543,2.7273,0,0.00040799,4077.1,0.00014129,-0.0028854,0.00012326,-135.51,-0.00041013,-4143.2,0.28484
15236,7.3462,2.7273,0.05,1.0222e-06,10.215,7.8491e-07,5.8975,-1.0234e-13,-7.6916e-07,-7.8491e-07,-5.8975,0.29159
15237,7.3462,2.4545,0,0.000406,4057.2,0.00014014,-0.0018496,0.00012347,-125.25,-0.00040799,-4118.4,0.29134
15238,7.2543,2.5455,0,0.00040822,4079.3,0.00014124,-0.0024516,0.00012355,-132.98,-0.00041032,-4144.2,0.28468
15239,7.3462,2.5455,0.05,1.0222e-06,10.215,7.8491e-07,5.8975,-1.6494e-13,-2.9786e-07,-7.8491e-07,-5.8975,0.29143
15240,7.3462,2.2727,0,0.00040637,4060.9,0.00014005,-0.0011278,0.00012394,-121.07,-0.00040829,-4120.1,0.29106
15241,7.2543,2.3636,0,0.00040855,4082.6,0.00014117,-0.0017996,0.00012397,-129.22,-0.00041059,-4145.7,0.28443
15242,7.3462,2.3636,0.05,1.0222e-06,10.215,7.8489e-07,5.8974,-2.2716e-13,-7.431e-07,-7.8489e-07,-5.8974,0.29118
15243,7.3462,2.0909,0,0.00040684,4065.6,0.00013995,-0.0001913,0.00012454,-115.77,-0.00040868,-4122.2,0.29069
15244,7.2543,2.1818,0,0.00040898,4087,0.00014107,-0.00092254,0.00012453,-124.26,-0.00041095,-4147.7,0.28411
15245,7.3462,2.1818,0.05,1.0221e-06,10.214,7.8484e-07,5.897,-2.764e-13,-2.1914e-07,-7.8484e-07,-5.897,0.29086
15246,7.3462,1.9091,0,0.0004074,4071.2,0.00013982,0.00096829,0.00012527,-109.37,-0.00040915,-4124.8,0.29024
15247,7.2543,2,0,0.00040952,4092.4,0.00014095,0.00018576,0.00012523,-118.14,-0.0004114,-4150.2,0.2837
15248,7.3462,2,0.05,1.022e-06,10.213,7.8474e-07,5.8962,-3.2294e-13,-2.426e-06,-7.8474e-07,-5.8962,0.29045
15249,7.3462,1.7273,0,0.00040805,4077.7,0.00013968,0.0023668,0.00012611,-101.95,-0.00040969,-4127.7,0.28971
15250,7.2543,1.8182,0,0.00041015,4098.7,0.00014081,0.0015382,0.00012605,-110.91,-0.00041193,-4153,0.28321
15251,7.3462,1.8182,0.05,1.0217e-06,10.21,7.8455e-07,5.8948,-4.6444e-13,-2.2783e-06,-7.8456e-07,-5.8949,0.28996
15252,7.3462,1.5455,0,0.00040879,4085.1,0.00013951,0.0040377,0.00012706,-93.558,-0.0004103,-4131.1,0.28909
15253,7.2543,1.6364,0,0.00041088,4106,0.00014064,0.0031574,0.00012698,-102.63,-0.00041253,-4156.3,0.28263
15254,7.3462,1.6364,0.05,1.0213e-06,10.206,7.8426e-07,5.8926,1.3721e-12,-2.5741e-06,-7.8427e-07,-5.8927,0.28938
15255,7.3462,1.3636,0,0.00040961,4093.3,0.00013932,0.0060173,0.00012811,-84.266,-0.00041098,-4134.8,0.28839
15256,7.2543,1.4545,0,0.00041169,4114.1,0.00014046,0.0050953,0.00012803,-93.377,-0.0004132,-4160,0.28197
15257,7.3462,1.4545,0.05,1.0208e-06,10.201,7.8384e-07,5.8894,1.3445e-12,-3.0403e-06,-7.8384e-07,-5.8895,0.28873
15258,7.3462,1.1818,0,0.0004105,4102.2,0.00013912,0.0084503,0.00012925,-74.15,-0.00041171,-4138.8,0.28761
15259,7.2543,1.2727,0,0.00041258,4123,0.00014026,0.0073837,0.00012918,-83.225,-0.00041394,-4164,0.28123
15260,7.3462,1.2727,0.05,1.02e-06,10.193,7.8324e-07,5.8849,4.8616e-12,-5.0168e-06,-7.8324e-07,-5.885,0.28798
15261,7.3462,1,0,0.00041146,4111.7,0.00013891,0.011299,0.00013048,-63.293,-0.0004125,-4143,0.28674
15262,7.2543,1.0909,0,0.00041355,4132.6,0.00014004,0.010308,0.00013042,-72.256,-0.00041473,-4168.3,0.2804
15263,7.3462,1.0909,0.05,1.019e-06,10.183,7.8244e-07,5.879,2.9756e-12,-4.0064e-06,-7.8245e-07,-5.879,0.28716
15264,7.3462,0.81818,0,0.00041247,4121.9,0.00013867,0.015821,0.00013178,-51.779,-0.00041333,-4147.5,0.28579
15265,7.2543,0.90909,0,0.00041458,4142.9,0.0001398,0.013535,0.00013174,-60.559,-0.00041557,-4172.8,0.27948
15266,7.3462,0.90909,0.05,1.0176e-06,10.169,7.8141e-07,5.8712,-5.1584e-13,-4.0381e-06,-7.8141e-07,-5.8712,0.28625
15267,7.3462,0.63636,0,0.00041354,4132.5,0.00013843,0.019195,0.00013314,-39.702,-0.0004142,-4152.2,0.28474
15268,7.2543,0.72727,0,0.00041566,4153.7,0.00013955,0.020115,0.00013313,-48.227,-0.00041646,-4177.6,0.27848
15269,7.3462,0.72727,0.05,1.0158e-06,10.151,7.8001e-07,5.8607,4.8381e-12,-4.3546e-06,-7.8002e-07,-5.8608,0.28525
15270,7.3462,0.45455,0,0.00041465,4143.6,0.00013818,0.044024,0.00013456,-27.126,-0.0004151,-4157.1,0.28361
15271,7.2543,0.54545,0,0.00041679,4165,0.00013929,0.021366,0.00013458,-35.357,-0.00041738,-4182.6,0.27739
15272,7.3462,0.54545,0.05,1.0114e-06,10.107,7.7666e-07,5.8355,3.0406e-12,-2.9145e-06,-7.7667e-07,-5.8356,0.28416
15273,7.3462,0.27273,0,0.00041583,4155.4,0.00013792,0.064798,0.00013606,-13.912,-0.00041606,-4162.3,0.28239
15274,7.2543,0.36364,0,0.00041796,4176.8,0.00013902,0.074769,0.00013609,-21.993,-0.00041833,-4187.7,0.27621
15275,7.3462,0.36364,0.05,9.7331e-07,9.7263,7.4737e-07,5.6154,4.6592e-12,-6.0248e-06,-7.4738e-07,-5.6156,0.28299
15276,7.2543,0.18182,0,0.00041924,4189.5,0.00013875,0.10946,0.00013769,-7.8542,-0.00041937,-4193.4,0.27494
15277,7.3462,0.18182,0.05,4.3781e-07,4.3751,3.3618e-07,2.5259,4.394e-12,-3.2631e-05,-3.3619e-07,-2.526,0.28172
15278,7.3462,0.090909,0,0.0004167,4164.1,0.00013768,0.13296,0.00013724,-3.1975,-0.00041675,-4165.6,0.28109
15279,7.1625,5.7273,0,0.00042137,4210.8,0.00013985,0.069925,0.00013772,-15.927,-0.00042164,-4218.7,0.26886
15280,7.0707,5.8182,0,0.00042485,4245.5,0.00014067,0.10901,0.00013941,-9.3686,-0.000425,-4250.1,0.26155
15281,7.1625,5.8182,0.05,4.7925e-07,4.7892,3.6801e-07,2.7651,3.387e-13,2.5729e-05,-3.68e-07,-2.765,0.26818
15282,7.1625,5.9091,0,0.00042235,4220.5,0.00013958,0.12671,0.00013903,-4.0377,-0.00042241,-4222.5,0.26754
15283,7.1625,5.5455,0,0.00042011,4198.2,0.00014013,0.048574,0.0001361,-30.23,-0.00042061,-4213.2,0.27009
15284,7.0707,5.6364,0,0.00042348,4231.9,0.00014097,0.082214,0.00013768,-24.636,-0.00042389,-4244.1,0.26282
15285,7.1625,5.6364,0.05,9.8572e-07,9.8504,7.5691e-07,5.6872,-4.3616e-12,1.145e-05,-7.569e-07,-5.687,0.26945
15286,7.1625,5.3636,0,0.00041891,4186.2,0.00014041,0.021198,0.00013457,-43.888,-0.00041964,-4208,0.27122
15287,7.0707,5.4545,0,0.00042221,4219.2,0.00014127,0.023668,0.00013605,-39.143,-0.00042287,-4238.7,0.26401
15288,7.1625,5.4545,0.05,1.0221e-06,10.214,7.8483e-07,5.8969,-1.0355e-12,7.6727e-06,-7.8482e-07,-5.8968,0.27064
15289,7.1625,5.1818,0,0.00041776,4174.7,0.00014068,0.017345,0.00013309,-57.011,-0.0004187,-4202.9,0.27227
15290,7.0707,5.2727,0,0.00042099,4207,0.00014155,0.022116,0.00013448,-53.122,-0.00042187,-4233.3,0.26511
15291,7.1625,5.2727,0.05,1.0264e-06,10.257,7.8813e-07,5.9218,7.5401e-13,8.1784e-06,-7.8813e-07,-5.9216,0.27173
15292,7.1625,5,0,0.00041666,4163.8,0.00014093,0.012279,0.00013167,-69.527,-0.0004178,-4198.1,0.27323
15293,7.0707,5.0909,0,0.00041982,4195.3,0.00014182,0.01478,0.00013297,-66.524,-0.00042091,-4228.2,0.26612
15294,7.1625,5.0909,0.05,1.0282e-06,10.275,7.8955e-07,5.9324,-1.0956e-12,8.0112e-06,-7.8954e-07,-5.9322,0.27274
15295,7.1625,4.8182,0,0.00041563,4153.4,0.00014117,0.0090766,0.00013034,-81.334,-0.00041695,-4193.5,0.27411
15296,7.0707,4.9091,0,0.00041871,4184.2,0.00014208,0.011152,0.00013153,-79.241,-0.00042,-4223.3,0.26704
15297,7.1625,4.9091,0.05,1.0296e-06,10.289,7.9058e-07,5.9401,-4.6865e-12,4.2983e-06,-7.9057e-07,-5.9401,0.27365
15298,7.1625,4.6364,0,0.00041467,4143.8,0.00014139,0.0063486,0.0001291,-92.338,-0.00041616,-4189.2,0.2749
15299,7.0707,4.7273,0,0.00041767,4173.8,0.00014232,0.0078779,0.00013019,-91.17,-0.00041915,-4218.7,0.26787
15300,7.1625,4.7273,0.05,1.0306e-06,10.299,7.9136e-07,5.946,-4.6212e-12,8.2212e-06,-7.9135e-07,-5.9458,0.27449
15301,7.1625,4.4545,0,0.00041378,4134.9,0.00014159,0.0041316,0.00012796,-102.45,-0.00041543,-4185.2,0.2756
15302,7.0707,4.5455,0,0.00041671,4164.2,0.00014255,0.0053169,0.00012894,-102.22,-0.00041835,-4214.3,0.26862
15303,7.1625,4.5455,0.05,1.0313e-06,10.306,7.9191e-07,5.9501,-4.7556e-12,4.2608e-06,-7.919e-07,-5.9501,0.27523
15304,7.1625,4.2727,0,0.00041298,4127,0.00014177,0.0022638,0.00012692,-111.59,-0.00041477,-4181.6,0.27622
15305,7.0707,4.3636,0,0.00041583,4155.4,0.00014275,0.0031528,0.0001278,-112.29,-0.00041762,-4210.4,0.26928
15306,7.1625,4.3636,0.05,1.0318e-06,10.311,7.9229e-07,5.953,5.0253e-13,5.6591e-06,-7.9228e-07,-5.9528,0.27589
15307,7.1625,4.0909,0,0.00041227,4119.9,0.00014193,0.00070241,0.00012601,-119.67,-0.00041418,-4178.4,0.27675
15308,7.0707,4.1818,0,0.00041504,4147.5,0.00014293,0.0013464,0.00012678,-121.3,-0.00041697,-4206.9,0.26986
15309,7.1625,4.1818,0.05,1.0321e-06,10.314,7.9252e-07,5.9547,5.0007e-13,4.3415e-06,-7.9251e-07,-5.9546,0.27647
15310,7.1625,3.9091,0,0.00041166,4113.8,0.00014207,-0.00059096,0.00012522,-126.63,-0.00041367,-4175.6,0.2772
15311,7.0707,4,0,0.00041435,4140.7,0.00014308,-0.00016055,0.00012589,-129.17,-0.0004164,-4203.7,0.27035
15312,7.1625,4,0.05,1.0322e-06,10.315,7.9264e-07,5.9556,-3.1905e-12,3.6626e-06,-7.9264e-07,-5.9555,0.27696
15313,7.1625,3.7273,0,0.00041116,4108.7,0.00014219,-0.0016345,0.00012457,-132.41,-0.00041325,-4173.3,0.27757
15314,7.0707,3.8182,0,0.00041377,4134.9,0.00014322,-0.0013945,0.00012514,-135.84,-0.00041591,-4201.1,0.27076
15315,7.1625,3.8182,0.05,1.0323e-06,10.316,7.9268e-07,5.9559,3.6749e-13,2.292e-06,-7.9267e-07,-5.9559,0.27737
15316,7.1625,3.5455,0,0.00041076,4104.8,0.00014228,-0.0024382,0.00012405,-136.96,-0.00041292,-4171.5,0.27786
15317,7.0707,3.6364,0,0.0004133,4130.1,0.00014333,-0.00237,0.00012453,-141.25,-0.00041552,-4199,0.27109
15318,7.1625,3.6364,0.05,1.0323e-06,10.316,7.9268e-07,5.9559,-1.5234e-12,2.07e-06,-7.9267e-07,-5.9558,0.2777
15319,7.1625,3.3636,0,0.00041047,4101.9,0.00014234,-0.0030089,0.00012368,-140.24,-0.00041268,-4170.2,0.27806
15320,7.0707,3.4545,0,0.00041294,4126.6,0.00014341,-0.0030952,0.00012406,-145.35,-0.00041522,-4197.3,0.27133
15321,7.1625,3.4545,0.05,1.0323e-06,10.315,7.9265e-07,5.9557,-3.4444e-12,1.4792e-06,-7.9265e-07,-5.9556,0.27794
15322,7.1625,3.1818,0,0.0004103,4100.2,0.00014238,-0.003351,0.00012345,-142.22,-0.00041253,-4169.4,0.27818
15323,7.0707,3.2727,0,0.0004127,4124.2,0.00014346,-0.0035774,0.00012375,-148.1,-0.00041502,-4196.2,0.2715
15324,7.1625,3.2727,0.05,1.0322e-06,10.315,7.9262e-07,5.9554,-1.7048e-12,8.3326e-07,-7.9262e-07,-5.9554,0.27811
15325,7.1625,3,0,0.00041024,4099.6,0.0001424,-0.003465,0.00012338,-142.88,-0.00041249,-4169.2,0.27823
15326,7.0707,3.0909,0,0.00041258,4123,0.00014349,-0.0038184,0.00012359,-149.48,-0.00041492,-4195.7,0.27158
15327,7.1625,3.0909,0.05,1.0322e-06,10.315,7.926e-07,5.9553,-1.7811e-12,2.8412e-07,-7.926e-07,-5.9553,0.27819
15328,7.1625,2.8182,0,0.0004103,4100.2,0.00014238,-0.0033509,0.00012345,-142.22,-0.00041253,-4169.4,0.27818
15329,7.0707,2.9091,0,0.00041258,4123,0.00014349,-0.0038184,0.00012359,-149.48,-0.00041492,-4195.7,0.27158
15330,7.1625,2.9091,0.05,1.0322e-06,10.315,7.926e-07,5.9553,-3.6704e-14,-2.7996e-07,-7.926e-07,-5.9553,0.27819
15331,7.1625,2.6364,0,0.00041047,4101.9,0.00014234,-0.0030088,0.00012368,-140.24,-0.00041268,-4170.2,0.27806
15332,7.0707,2.7273,0,0.0004127,4124.2,0.00014346,-0.0035772,0.00012375,-148.1,-0.00041502,-4196.2,0.2715
15333,7.1625,2.7273,0.05,1.0322e-06,10.315,7.9262e-07,5.9554,-1.1049e-13,1.0759e-06,-7.9262e-07,-5.9554,0.27811
15334,7.1625,2.4545,0,0.00041076,4104.8,0.00014228,-0.002438,0.00012405,-136.96,-0.00041292,-4171.5,0.27786
15335,7.0707,2.5455,0,0.00041294,4126.6,0.00014341,-0.003095,0.00012406,-145.35,-0.00041522,-4197.3,0.27133
15336,7.1625,2.5455,0.05,1.0323e-06,10.315,7.9265e-07,5.9557,-1.7989e-13,-1.3643e-06,-7.9265e-07,-5.9556,0.27794
15337,7.1625,2.2727,0,0.00041116,4108.7,0.00014219,-0.0016342,0.00012457,-132.41,-0.00041325,-4173.3,0.27757
15338,7.0707,2.3636,0,0.0004133,4130.1,0.00014333,-0.0023699,0.00012453,-141.25,-0.00041552,-4199,0.27109
15339,7.1625,2.3636,0.05,1.0323e-06,10.316,7.9267e-07,5.9559,-2.7068e-13,-1.8487e-06,-7.9268e-07,-5.9559,0.2777
15340,7.1625,2.0909,0,0.00041166,4113.8,0.00014207,-0.00059063,0.00012522,-126.63,-0.00041367,-4175.7,0.2772
15341,7.0707,2.1818,0,0.00041377,4134.9,0.00014322,-0.0013942,0.00012514,-135.84,-0.00041591,-4201.1,0.27076
15342,7.1625,2.1818,0.05,1.0323e-06,10.316,7.9268e-07,5.9559,-3.2055e-13,-1.3075e-06,-7.9268e-07,-5.9559,0.27737
15343,7.1625,1.9091,0,0.00041227,4119.9,0.00014193,0.00070273,0.00012601,-119.67,-0.00041418,-4178.4,0.27675
15344,7.0707,2,0,0.00041435,4140.7,0.00014308,-0.0001601,0.00012589,-129.17,-0.0004164,-4203.7,0.27035
15345,7.1625,2,0.05,1.0322e-06,10.315,7.9263e-07,5.9555,-4.0611e-13,-1.684e-06,-7.9264e-07,-5.9556,0.27696
15346,7.1625,1.7273,0,0.00041298,4127,0.00014177,0.0022642,0.00012692,-111.59,-0.00041477,-4181.6,0.27622
15347,7.0707,1.8182,0,0.00041504,4147.5,0.00014293,0.001347,0.00012678,-121.3,-0.00041697,-4206.9,0.26986
15348,7.1625,1.8182,0.05,1.0321e-06,10.314,7.9252e-07,5.9547,-4.2277e-13,-2.7909e-06,-7.9251e-07,-5.9547,0.27647
15349,7.1625,1.5455,0,0.00041378,4134.9,0.00014159,0.0041322,0.00012796,-102.45,-0.00041543,-4185.2,0.2756
15350,7.0707,1.6364,0,0.00041583,4155.4,0.00014275,0.0031533,0.0001278,-112.29,-0.00041762,-4210.4,0.26928
15351,7.1625,1.6364,0.05,1.0318e-06,10.311,7.9229e-07,5.9529,-3.96e-13,-3.9403e-06,-7.9228e-07,-5.953,0.27589
15352,7.1625,1.3636,0,0.00041467,4143.8,0.00014139,0.0063492,0.0001291,-92.338,-0.00041616,-4189.2,0.2749
15353,7.0707,1.4545,0,0.00041671,4164.2,0.00014255,0.0053176,0.00012894,-102.22,-0.00041835,-4214.3,0.26862
15354,7.1625,1.4545,0.05,1.0313e-06,10.306,7.9191e-07,5.9501,4.8862e-12,-4.2608e-06,-7.9191e-07,-5.9501,0.27523
15355,7.1625,1.1818,0,0.00041563,4153.4,0.00014117,0.0090773,0.00013034,-81.334,-0.00041695,-4193.5,0.27411
15356,7.0707,1.2727,0,0.00041767,4173.8,0.00014232,0.0078786,0.00013019,-91.17,-0.00041915,-4218.7,0.26787
15357,7.1625,1.2727,0.05,1.0306e-06,10.299,7.9135e-07,5.9459,2.9957e-12,-5.6243e-06,-7.9136e-07,-5.946,0.27449
15358,7.1625,1,0,0.00041666,4163.8,0.00014093,0.012281,0.00013167,-69.527,-0.0004178,-4198.1,0.27323
15359,7.0707,1.0909,0,0.00041871,4184.2,0.00014208,0.011152,0.00013153,-79.241,-0.00042,-4223.3,0.26704
15360,7.1625,1.0909,0.05,1.0296e-06,10.289,7.9057e-07,5.9401,2.9837e-12,-4.4457e-06,-7.9058e-07,-5.9401,0.27365
15361,7.1625,0.81818,0,0.00041776,4174.7,0.00014068,0.017347,0.00013309,-57.011,-0.0004187,-4202.9,0.27227
15362,7.0707,0.90909,0,0.00041982,4195.3,0.00014182,0.014781,0.00013297,-66.524,-0.00042091,-4228.2,0.26612
15363,7.1625,0.90909,0.05,1.0282e-06,10.275,7.8954e-07,5.9323,-6.7326e-13,-1.5712e-06,-7.8955e-07,-5.9323,0.27274
15364,7.1625,0.63636,0,0.00041891,4186.2,0.00014041,0.021198,0.00013457,-43.888,-0.00041964,-4208,0.27122
15365,7.0707,0.72727,0,0.00042099,4207,0.00014155,0.022117,0.00013448,-53.122,-0.00042187,-4233.3,0.26511
15366,7.1625,0.72727,0.05,1.0264e-06,10.257,7.8813e-07,5.9216,-6.4354e-13,-5.4003e-06,-7.8813e-07,-5.9218,0.27173
15367,7.1625,0.45455,0,0.00042011,4198.2,0.00014013,0.048575,0.0001361,-30.23,-0.00042061,-4213.2,0.27009
15368,7.0707,0.54545,0,0.00042221,4219.2,0.00014127,0.023668,0.00013605,-39.143,-0.00042287,-4238.7,0.26401
15369,7.1625,0.54545,0.05,1.0221e-06,10.214,7.8482e-07,5.8968,1.2348e-12,-5.9488e-06,-7.8482e-07,-5.8969,0.27064
15370,7.1625,0.27273,0,0.00042137,4210.8,0.00013985,0.069927,0.00013772,-15.927,-0.00042164,-4218.7,0.26886
15371,7.0707,0.36364,0,0.00042348,4231.9,0.00014097,0.082216,0.00013768,-24.636,-0.00042389,-4244.1,0.26282
15372,7.1625,0.36364,0.05,9.8572e-07,9.8504,7.5691e-07,5.6871,4.6755e-12,-5.5287e-06,-7.5691e-07,-5.6872,0.26945
15373,7.0707,0.18182,0,0.00042485,4245.5,0.00014067,0.10901,0.00013941,-9.3686,-0.000425,-4250.1,0.26155
15374,7.1625,0.18182,0.05,4.7925e-07,4.7892,3.68e-07,2.765,8.4311e-13,-9.8497e-06,-3.6801e-07,-2.7651,0.26818
15375,7.1625,0.090909,0,0.00042235,4220.5,0.00013958,0.12671,0.00013903,-4.0378,-0.00042241,-4222.5,0.26754
15376,6.9788,5.7273,0,0.00042695,4266.5,0.00014179,0.07577,0.00013938,-18.069,-0.00042725,-4275.5,0.25561
15377,6.887,5.8182,0,0.00043049,4301.9,0.00014261,0.11087,0.00014114,-10.966,-0.00043067,-4307.3,0.24843
15378,6.9788,5.8182,0.05,5.2412e-07,5.2376,4.0246e-07,3.024,-2.6683e-12,2.3972e-05,-4.0245e-07,-3.0239,0.25492
15379,6.9788,5.9091,0,0.00042803,4277.4,0.00014151,0.12447,0.00014083,-4.9253,-0.00042811,-4279.8,0.25428
15380,6.9788,5.5455,0,0.00042559,4252.9,0.00014211,0.053526,0.00013763,-33.553,-0.00042615,-4269.6,0.25684
15381,6.887,5.6364,0,0.00042903,4287.3,0.00014294,0.090324,0.00013928,-27.457,-0.00042949,-4300.9,0.24972
15382,6.9788,5.6364,0.05,9.9909e-07,9.984,7.6718e-07,5.7643,-6.0534e-12,7.5213e-06,-7.6717e-07,-5.7642,0.25621
15383,6.9788,5.3636,0,0.0004243,4240,0.00014241,0.023386,0.00013597,-48.381,-0.0004251,-4264,0.25799
15384,6.887,5.4545,0,0.00042766,4273.6,0.00014326,0.026187,0.00013751,-43.2,-0.00042838,-4295.1,0.25091
15385,6.9788,5.4545,0.05,1.0335e-06,10.328,7.9359e-07,5.9627,-2.5344e-12,5.0127e-06,-7.9358e-07,-5.9626,0.2574
15386,6.9788,5.1818,0,0.00042306,4227.6,0.0001427,0.019012,0.00013436,-62.638,-0.00042409,-4258.6,0.25904
15387,6.887,5.2727,0,0.00042634,4260.5,0.00014358,0.024302,0.0001358,-58.383,-0.0004273,-4289.3,0.25202
15388,6.9788,5.2727,0.05,1.0377e-06,10.37,7.9684e-07,5.9872,-2.6561e-12,9.3197e-06,-7.9683e-07,-5.987,0.2585
15389,6.9788,5,0,0.00042187,4215.8,0.00014298,0.013356,0.00013283,-76.241,-0.00042312,-4253.4,0.26001
15390,6.887,5.0909,0,0.00042508,4247.8,0.00014387,0.016147,0.00013416,-72.944,-0.00042627,-4283.8,0.25303
15391,6.9788,5.0909,0.05,1.0396e-06,10.389,7.9827e-07,5.9979,-6.1712e-12,4.8293e-06,-7.9826e-07,-5.9978,0.25951
15392,6.9788,4.8182,0,0.00042075,4204.6,0.00014324,0.0097679,0.00013138,-89.078,-0.0004222,-4248.4,0.26089
15393,6.887,4.9091,0,0.00042388,4235.8,0.00014416,0.012081,0.00013261,-86.767,-0.00042528,-4278.5,0.25396
15394,6.9788,4.9091,0.05,1.0409e-06,10.402,7.9929e-07,6.0056,-2.7849e-12,9.8573e-06,-7.9928e-07,-6.0054,0.26043
15395,6.9788,4.6364,0,0.00041971,4194.2,0.00014348,0.0067192,0.00013003,-101.05,-0.00042134,-4243.8,0.26168
15396,6.887,4.7273,0,0.00042275,4224.6,0.00014442,0.0084279,0.00013114,-99.74,-0.00042436,-4273.5,0.25479
15397,6.9788,4.7273,0.05,1.0419e-06,10.412,8.0003e-07,6.0111,-9.6937e-13,3.267e-06,-8.0002e-07,-6.0111,0.26127
15398,6.9788,4.4545,0,0.00041875,4184.6,0.0001437,0.0042444,0.00012879,-112.05,-0.00042055,-4239.5,0.26239
15399,6.887,4.5455,0,0.0004217,4214.1,0.00014466,0.0055707,0.00012979,-111.76,-0.00042349,-4268.9,0.25554
15400,6.9788,4.5455,0.05,1.0425e-06,10.418,8.0054e-07,6.0149,-1.0355e-12,4.8347e-06,-8.0052e-07,-6.0148,0.26202
15401,6.9788,4.2727,0,0.00041789,4176,0.0001439,0.0021623,0.00012766,-122,-0.00041983,-4235.6,0.26301
15402,6.887,4.3636,0,0.00042075,4204.6,0.00014488,0.0031605,0.00012855,-122.71,-0.00042271,-4264.6,0.25621
15403,6.9788,4.3636,0.05,1.0429e-06,10.422,8.0085e-07,6.0173,-4.7195e-12,4.4932e-06,-8.0084e-07,-6.0171,0.26268
15404,6.9788,4.0909,0,0.00041712,4168.3,0.00014408,0.00042359,0.00012667,-130.8,-0.00041919,-4232.2,0.26354
15405,6.887,4.1818,0,0.0004199,4196.1,0.00014508,0.0011505,0.00012744,-132.52,-0.000422,-4260.8,0.25679
15406,6.9788,4.1818,0.05,1.0431e-06,10.424,8.01e-07,6.0184,-3.0669e-12,4.7064e-06,-8.0099e-07,-6.0183,0.26326
15407,6.9788,3.9091,0,0.00041646,4161.7,0.00014423,-0.0010152,0.00012581,-138.38,-0.00041864,-4229.2,0.264
15408,6.887,4,0,0.00041916,4188.7,0.00014525,-0.00052458,0.00012647,-141.1,-0.00042138,-4257.5,0.25728
15409,6.9788,4,0.05,1.0432e-06,10.425,8.0105e-07,6.0188,-1.3508e-12,2.1634e-06,-8.0104e-07,-6.0187,0.26375
15410,6.9788,3.7273,0,0.00041591,4156.3,0.00014436,-0.0021751,0.0001251,-144.68,-0.00041819,-4226.7,0.26437
15411,6.887,3.8182,0,0.00041853,4182.4,0.0001454,-0.0018952,0.00012565,-148.36,-0.00042085,-4254.6,0.2577
15412,6.9788,3.8182,0.05,1.0432e-06,10.424,8.0102e-07,6.0186,-1.4034e-12,3.2955e-06,-8.0101e-07,-6.0184,0.26417
15413,6.9788,3.5455,0,0.00041548,4152,0.00014445,-0.003068,0.00012454,-149.63,-0.00041783,-4224.7,0.26465
15414,6.887,3.6364,0,0.00041802,4177.3,0.00014552,-0.002978,0.00012499,-154.26,-0.00042043,-4252.3,0.25802
15415,6.9788,3.6364,0.05,1.0431e-06,10.423,8.0095e-07,6.018,-3.3391e-12,2.5181e-06,-8.0094e-07,-6.0179,0.26449
15416,6.9788,3.3636,0,0.00041517,4148.8,0.00014453,-0.0037022,0.00012414,-153.21,-0.00041757,-4223.3,0.26486
15417,6.887,3.4545,0,0.00041763,4173.4,0.0001456,-0.0037828,0.00012448,-158.72,-0.0004201,-4250.5,0.25827
15418,6.9788,3.4545,0.05,1.043e-06,10.422,8.0087e-07,6.0174,2.04e-13,1.6108e-06,-8.0086e-07,-6.0174,0.26474
15419,6.9788,3.1818,0,0.00041498,4147,0.00014457,-0.0040819,0.00012389,-155.36,-0.00041741,-4222.5,0.26498
15420,6.887,3.2727,0,0.00041737,4170.8,0.00014566,-0.0043178,0.00012414,-161.72,-0.00041989,-4249.3,0.25844
15421,6.9788,3.2727,0.05,1.0429e-06,10.422,8.008e-07,6.0169,-3.5122e-12,9.5417e-07,-8.008e-07,-6.0169,0.2649
15422,6.9788,3,0,0.00041492,4146.3,0.00014458,-0.0042083,0.00012381,-156.08,-0.00041736,-4222.2,0.26502
15423,6.887,3.0909,0,0.00041724,4169.5,0.00014569,-0.0045848,0.00012397,-163.23,-0.00041978,-4248.7,0.25852
15424,6.9788,3.0909,0.05,1.0428e-06,10.421,8.0077e-07,6.0166,-1.7777e-12,3.0441e-07,-8.0076e-07,-6.0166,0.26499
15425,6.9788,2.8182,0,0.00041498,4147,0.00014457,-0.0040817,0.00012389,-155.36,-0.00041741,-4222.5,0.26498
15426,6.887,2.9091,0,0.00041724,4169.5,0.00014569,-0.0045848,0.00012397,-163.23,-0.00041978,-4248.7,0.25852
15427,6.9788,2.9091,0.05,1.0428e-06,10.421,8.0077e-07,6.0166,-3.9843e-14,-3.047e-07,-8.0076e-07,-6.0166,0.26499
15428,6.9788,2.6364,0,0.00041517,4148.8,0.00014453,-0.0037019,0.00012414,-153.21,-0.00041757,-4223.3,0.26486
15429,6.887,2.7273,0,0.00041737,4170.8,0.00014566,-0.0043175,0.00012414,-161.72,-0.00041989,-4249.3,0.25844
15430,6.9788,2.7273,0.05,1.0429e-06,10.422,8.008e-07,6.0169,-1.9379e-12,-9.0514e-07,-8.008e-07,-6.0169,0.2649
15431,6.9788,2.4545,0,0.00041548,4152,0.00014445,-0.0030679,0.00012454,-149.63,-0.00041783,-4224.7,0.26465
15432,6.887,2.5455,0,0.00041763,4173.4,0.0001456,-0.0037826,0.00012448,-158.72,-0.0004201,-4250.5,0.25827
15433,6.9788,2.5455,0.05,1.043e-06,10.422,8.0086e-07,6.0174,-2.04e-13,-1.4762e-06,-8.0087e-07,-6.0174,0.26474
15434,6.9788,2.2727,0,0.00041591,4156.3,0.00014436,-0.002175,0.0001251,-144.68,-0.00041819,-4226.7,0.26437
15435,6.887,2.3636,0,0.00041802,4177.3,0.00014552,-0.0029778,0.00012499,-154.26,-0.00042043,-4252.3,0.25802
15436,6.9788,2.3636,0.05,1.0431e-06,10.423,8.0094e-07,6.018,1.5297e-12,-2.2589e-06,-8.0095e-07,-6.018,0.26449
15437,6.9788,2.0909,0,0.00041646,4161.7,0.00014423,-0.0010147,0.00012581,-138.38,-0.00041864,-4229.2,0.264
15438,6.887,2.1818,0,0.00041853,4182.4,0.0001454,-0.001895,0.00012565,-148.36,-0.00042085,-4254.6,0.2577
15439,6.9788,2.1818,0.05,1.0432e-06,10.424,8.0101e-07,6.0185,-3.2829e-13,-2.4785e-06,-8.0101e-07,-6.0185,0.26417
15440,6.9788,1.9091,0,0.00041712,4168.3,0.00014408,0.00042428,0.00012667,-130.8,-0.00041919,-4232.2,0.26354
15441,6.887,2,0,0.00041916,4188.7,0.00014525,-0.00052422,0.00012647,-141.1,-0.00042138,-4257.5,0.25728
15442,6.9788,2,0.05,1.0432e-06,10.425,8.0104e-07,6.0187,-4.0835e-13,-3.445e-06,-8.0104e-07,-6.0187,0.26375
15443,6.9788,1.7273,0,0.00041789,4176,0.0001439,0.002163,0.00012766,-122,-0.00041983,-4235.6,0.26301
15444,6.887,1.8182,0,0.0004199,4196.1,0.00014508,0.0011511,0.00012744,-132.52,-0.000422,-4260.8,0.25679
15445,6.9788,1.8182,0.05,1.0431e-06,10.424,8.01e-07,6.0183,1.3275e-12,-4.7612e-06,-8.01e-07,-6.0184,0.26326
15446,6.9788,1.5455,0,0.00041875,4184.6,0.0001437,0.0042452,0.00012879,-112.05,-0.00042055,-4239.5,0.26239
15447,6.887,1.6364,0,0.00042075,4204.6,0.00014488,0.0031611,0.00012855,-122.71,-0.00042271,-4264.6,0.25621
15448,6.9788,1.6364,0.05,1.0429e-06,10.422,8.0084e-07,6.0172,4.8039e-12,-3.2167e-06,-8.0084e-07,-6.0172,0.26268
15449,6.9788,1.3636,0,0.00041971,4194.2,0.00014348,0.00672,0.00013003,-101.05,-0.00042134,-4243.8,0.26168
15450,6.887,1.4545,0,0.0004217,4214.1,0.00014466,0.0055716,0.00012979,-111.76,-0.00042349,-4268.9,0.25554
15451,6.9788,1.4545,0.05,1.0425e-06,10.418,8.0053e-07,6.0149,-6.0893e-13,-3.2806e-06,-8.0053e-07,-6.0149,0.26202
15452,6.9788,1.1818,0,0.00042075,4204.6,0.00014324,0.0097686,0.00013138,-89.078,-0.0004222,-4248.4,0.26089
15453,6.887,1.2727,0,0.00042275,4224.6,0.00014442,0.0084286,0.00013114,-99.74,-0.00042436,-4273.5,0.25479
15454,6.9788,1.2727,0.05,1.0419e-06,10.412,8.0003e-07,6.0111,-6.0577e-13,-2.634e-06,-8.0003e-07,-6.0111,0.26127
15455,6.9788,1,0,0.00042187,4215.8,0.00014298,0.013357,0.00013283,-76.241,-0.00042312,-4253.4,0.26001
15456,6.887,1.0909,0,0.00042388,4235.8,0.00014416,0.012082,0.00013261,-86.767,-0.00042528,-4278.5,0.25396
15457,6.9788,1.0909,0.05,1.0409e-06,10.402,7.9929e-07,6.0054,3.0123e-12,-8.4271e-06,-7.9928e-07,-6.0056,0.26043
15458,6.9788,0.81818,0,0.00042306,4227.6,0.0001427,0.019013,0.00013436,-62.639,-0.00042409,-4258.6,0.25904
15459,6.887,0.90909,0,0.00042508,4247.8,0.00014387,0.016149,0.00013416,-72.944,-0.00042627,-4283.8,0.25303
15460,6.9788,0.90909,0.05,1.0396e-06,10.389,7.9826e-07,5.9978,4.451e-12,-2.8628e-06,-7.9827e-07,-5.9978,0.25951
15461,6.9788,0.63636,0,0.0004243,4240,0.00014241,0.023386,0.00013597,-48.381,-0.0004251,-4264,0.25799
15462,6.887,0.72727,0,0.00042634,4260.5,0.00014358,0.024303,0.0001358,-58.383,-0.0004273,-4289.3,0.25202
15463,6.9788,0.72727,0.05,1.0377e-06,10.37,7.9684e-07,5.9871,2.9142e-12,-5.8814e-06,-7.9684e-07,-5.9872,0.2585
15464,6.9788,0.45455,0,0.00042559,4252.9,0.00014211,0.053527,0.00013763,-33.553,-0.00042615,-4269.6,0.25684
15465,6.887,0.54545,0,0.00042766,4273.6,0.00014326,0.026188,0.00013751,-43.2,-0.00042838,-4295.1,0.25091
15466,6.9788,0.54545,0.05,1.0335e-06,10.328,7.9358e-07,5.9626,1.2935e-12,-3.3616e-06,-7.9358e-07,-5.9627,0.2574
15467,6.9788,0.27273,0,0.00042695,4266.5,0.00014179,0.075772,0.00013938,-18.069,-0.00042725,-4275.5,0.25561
15468,6.887,0.36364,0,0.00042903,4287.3,0.00014294,0.090325,0.00013928,-27.457,-0.00042949,-4300.9,0.24972
15469,6.9788,0.36364,0.05,9.9909e-07,9.984,7.6717e-07,5.7642,4.4057e-12,-3.2824e-06,-7.6718e-07,-5.7643,0.25621
15470,6.887,0.18182,0,0.00043049,4301.9,0.00014261,0.11087,0.00014114,-10.966,-0.00043067,-4307.3,0.24843
15471,6.9788,0.18182,0.05,5.2412e-07,5.2376,4.0246e-07,3.0239,2.2608e-12,-2.2116e-05,-4.0246e-07,-3.024,0.25492
15472,6.9788,0.090909,0,0.00042803,4277.4,0.00014151,0.12447,0.00014083,-4.9253,-0.00042811,-4279.8,0.25428
15473,6.7952,5.7273,0,0.00043256,4322.6,0.00014376,0.082377,0.00014104,-20.344,-0.0004329,-4332.7,0.24264
15474,6.7034,5.8182,0,0.00043617,4358.6,0.00014457,0.11469,0.00014287,-12.648,-0.00043638,-4364.9,0.23561
15475,6.7952,5.8182,0.05,5.7268e-07,5.7229,4.3975e-07,3.3042,-1.8029e-12,2.4198e-05,-4.3975e-07,-3.3041,0.24196
15476,6.7952,5.9091,0,0.00043376,4334.6,0.00014344,0.12488,0.00014264,-5.8592,-0.00043386,-4337.5,0.24131
15477,6.7952,5.5455,0,0.0004311,4308,0.0001441,0.058923,0.00013915,-37.107,-0.00043171,-4326.4,0.24389
15478,6.7034,5.6364,0,0.0004346,4343,0.00014493,0.099158,0.00014087,-30.465,-0.00043511,-4358.1,0.2369
15479,6.7952,5.6364,0.05,1.0135e-06,10.128,7.7825e-07,5.8476,-5.9327e-12,1.4593e-05,-7.7825e-07,-5.8474,0.24325
15480,6.7952,5.3636,0,0.0004297,4294.1,0.00014443,0.025781,0.00013735,-53.204,-0.00043058,-4320.4,0.24504
15481,6.7034,5.4545,0,0.00043313,4328.3,0.00014528,0.028946,0.00013895,-47.548,-0.00043391,-4351.8,0.23811
15482,6.7952,5.4545,0.05,1.0458e-06,10.45,8.0302e-07,6.0336,-2.4922e-12,1.2013e-05,-8.0301e-07,-6.0335,0.24444
15483,6.7952,5.1818,0,0.00042836,4280.6,0.00014475,0.020838,0.0001356,-68.69,-0.00042949,-4314.6,0.2461
15484,6.7034,5.2727,0,0.0004317,4314,0.00014562,0.026692,0.0001371,-64.034,-0.00043275,-4345.7,0.23921
15485,6.7952,5.2727,0.05,1.0499e-06,10.492,8.062e-07,6.0575,-4.4182e-12,7.971e-06,-8.062e-07,-6.0574,0.24555
15486,6.7952,5,0,0.00042708,4267.8,0.00014505,0.014541,0.00013394,-83.471,-0.00042844,-4309,0.24707
15487,6.7034,5.0909,0,0.00043033,4300.4,0.00014595,0.017647,0.00013532,-79.853,-0.00043164,-4339.7,0.24023
15488,6.7952,5.0909,0.05,1.0518e-06,10.51,8.0764e-07,6.0683,-2.5662e-12,8.582e-06,-8.0763e-07,-6.0682,0.24657
15489,6.7952,4.8182,0,0.00042587,4255.8,0.00014534,0.010534,0.00013237,-97.428,-0.00042744,-4303.6,0.24795
15490,6.7034,4.9091,0,0.00042904,4287.4,0.00014626,0.013105,0.00013363,-94.876,-0.00043057,-4334,0.24116
15491,6.7952,4.9091,0.05,1.0531e-06,10.524,8.0863e-07,6.0758,-2.6824e-12,7.3303e-06,-8.0863e-07,-6.0757,0.24749
15492,6.7952,4.6364,0,0.00042474,4244.5,0.0001456,0.0071366,0.0001309,-110.45,-0.00042651,-4298.6,0.24875
15493,6.7034,4.7273,0,0.00042782,4275.2,0.00014654,0.0090389,0.00013204,-108.98,-0.00042957,-4328.7,0.242
15494,6.7952,4.7273,0.05,1.054e-06,10.533,8.0933e-07,6.081,-2.7012e-12,5.2891e-06,-8.0933e-07,-6.0809,0.24833
15495,6.7952,4.4545,0,0.00042371,4234.1,0.00014584,0.0043814,0.00012955,-122.42,-0.00042566,-4294,0.24946
15496,6.7034,4.5455,0,0.00042669,4263.9,0.00014681,0.00586,0.00013056,-122.05,-0.00042863,-4323.6,0.24276
15497,6.7952,4.5455,0.05,1.0546e-06,10.538,8.0977e-07,6.0843,-9.2653e-13,6.5973e-06,-8.0976e-07,-6.0842,0.24909
15498,6.7952,4.2727,0,0.00042277,4224.8,0.00014606,0.0020663,0.00012833,-133.24,-0.00042488,-4289.8,0.25008
15499,6.7034,4.3636,0,0.00042566,4253.6,0.00014705,0.0031819,0.00012922,-133.98,-0.00042778,-4319.1,0.24342
15500,6.7952,4.3636,0.05,1.0548e-06,10.541,8.1e-07,6.086,-2.8621e-12,3.8875e-06,-8.0999e-07,-6.0859,0.24975
15501,6.7952,4.0909,0,0.00042194,4216.5,0.00014625,0.00013488,0.00012725,-142.82,-0.00042419,-4286.1,0.25062
15502,6.7034,4.1818,0,0.00042474,4244.4,0.00014727,0.00095055,0.00012801,-144.66,-0.00042701,-4314.9,0.244
15503,6.7952,4.1818,0.05,1.0549e-06,10.542,8.1006e-07,6.0865,6.7905e-13,6.296e-06,-8.1005e-07,-6.0864,0.25033
15504,6.7952,3.9091,0,0.00042123,4209.3,0.00014642,-0.0014621,0.00012631,-151.08,-0.00042359,-4282.9,0.25107
15505,6.7034,4,0,0.00042393,4236.4,0.00014746,-0.00090758,0.00012696,-154,-0.00042634,-4311.3,0.2445
15506,6.7952,4,0.05,1.0549e-06,10.541,8.1001e-07,6.0861,-3.1395e-12,3.0645e-06,-8.1001e-07,-6.0861,0.25083
15507,6.7952,3.7273,0,0.00042063,4203.4,0.00014656,-0.0027489,0.00012554,-157.94,-0.0004231,-4280.2,0.25144
15508,6.7034,3.8182,0,0.00042325,4229.6,0.00014762,-0.0024267,0.00012607,-161.91,-0.00042577,-4308.2,0.24492
15509,6.7952,3.8182,0.05,1.0547e-06,10.54,8.099e-07,6.0852,-1.4182e-12,2.6985e-06,-8.0989e-07,-6.0852,0.25124
15510,6.7952,3.5455,0,0.00042017,4198.8,0.00014667,-0.003739,0.00012493,-163.34,-0.00042271,-4278,0.25173
15511,6.7034,3.6364,0,0.00042269,4224,0.00014774,-0.0036263,0.00012534,-168.33,-0.00042531,-4305.7,0.24525
15512,6.7952,3.6364,0.05,1.0545e-06,10.538,8.0975e-07,6.0842,-1.4663e-12,2.4889e-06,-8.0974e-07,-6.0841,0.25157
15513,6.7952,3.3636,0,0.00041983,4195.4,0.00014674,-0.0044416,0.00012449,-167.24,-0.00042242,-4276.5,0.25194
15514,6.7034,3.4545,0,0.00042228,4219.8,0.00014784,-0.0045174,0.00012479,-173.2,-0.00042495,-4303.8,0.24549
15515,6.7952,3.4545,0.05,1.0543e-06,10.536,8.0961e-07,6.0831,-5.2203e-12,1.6078e-06,-8.096e-07,-6.0831,0.25182
15516,6.7952,3.1818,0,0.00041963,4193.4,0.00014679,-0.0048624,0.00012422,-169.59,-0.00042225,-4275.6,0.25206
15517,6.7034,3.2727,0,0.00042199,4217,0.00014791,-0.0051096,0.00012442,-176.47,-0.00042472,-4302.5,0.24566
15518,6.7952,3.2727,0.05,1.0542e-06,10.535,8.0949e-07,6.0822,1.3102e-13,9.8407e-07,-8.0949e-07,-6.0822,0.25198
15519,6.7952,3,0,0.00041956,4192.7,0.00014681,-0.0050025,0.00012413,-170.37,-0.0004222,-4275.3,0.2521
15520,6.7034,3.0909,0,0.00042185,4215.6,0.00014794,-0.0054051,0.00012424,-178.11,-0.0004246,-4301.8,0.24574
15521,6.7952,3.0909,0.05,1.0541e-06,10.534,8.0944e-07,6.0818,-1.7743e-12,3.3739e-07,-8.0943e-07,-6.0817,0.25206
15522,6.7952,2.8182,0,0.00041963,4193.4,0.00014679,-0.0048622,0.00012422,-169.59,-0.00042225,-4275.6,0.25206
15523,6.7034,2.9091,0,0.00042185,4215.6,0.00014794,-0.0054052,0.00012424,-178.11,-0.0004246,-4301.8,0.24574
15524,6.7952,2.9091,0.05,1.0541e-06,10.534,8.0943e-07,6.0818,-1.8629e-12,-3.3129e-07,-8.0943e-07,-6.0818,0.25206
15525,6.7952,2.6364,0,0.00041983,4195.4,0.00014674,-0.0044415,0.00012449,-167.24,-0.00042242,-4276.5,0.25194
15526,6.7034,2.7273,0,0.00042199,4217,0.00014791,-0.0051094,0.00012442,-176.47,-0.00042472,-4302.5,0.24566
15527,6.7952,2.7273,0.05,1.0542e-06,10.535,8.0949e-07,6.0822,-1.3102e-13,-9.8589e-07,-8.0949e-07,-6.0822,0.25198
15528,6.7952,2.4545,0,0.00042017,4198.8,0.00014667,-0.0037387,0.00012493,-163.34,-0.00042271,-4278,0.25173
15529,6.7034,2.5455,0,0.00042228,4219.8,0.00014784,-0.0045172,0.00012479,-173.2,-0.00042495,-4303.8,0.24549
15530,6.7952,2.5455,0.05,1.0543e-06,10.536,8.0961e-07,6.0831,1.6003e-12,2.9467e-07,-8.096e-07,-6.0831,0.25182
15531,6.7952,2.2727,0,0.00042063,4203.4,0.00014656,-0.0027486,0.00012554,-157.94,-0.0004231,-4280.2,0.25144
15532,6.7034,2.3636,0,0.00042269,4224,0.00014774,-0.0036259,0.00012534,-168.33,-0.00042531,-4305.7,0.24525
15533,6.7952,2.3636,0.05,1.0545e-06,10.538,8.0975e-07,6.0841,-3.0561e-13,-2.1777e-06,-8.0975e-07,-6.0841,0.25157
15534,6.7952,2.0909,0,0.00042123,4209.3,0.00014642,-0.001462,0.00012631,-151.08,-0.00042359,-4282.9,0.25107
15535,6.7034,2.1818,0,0.00042325,4229.6,0.00014762,-0.0024264,0.00012607,-161.91,-0.00042577,-4308.2,0.24492
15536,6.7952,2.1818,0.05,1.0547e-06,10.54,8.0989e-07,6.0852,-3.5461e-13,-2.656e-06,-8.0989e-07,-6.0852,0.25124
15537,6.7952,1.9091,0,0.00042194,4216.5,0.00014625,0.00013515,0.00012725,-142.82,-0.00042419,-4286.1,0.25062
15538,6.7034,2,0,0.00042393,4236.4,0.00014746,-0.00090731,0.00012696,-154,-0.00042634,-4311.3,0.2445
15539,6.7952,2,0.05,1.0549e-06,10.541,8.1001e-07,6.0861,1.3839e-12,-1.1793e-06,-8.1001e-07,-6.0861,0.25083
15540,6.7952,1.7273,0,0.00042277,4224.8,0.00014606,0.0020669,0.00012833,-133.24,-0.00042488,-4289.8,0.25008
15541,6.7034,1.8182,0,0.00042474,4244.4,0.00014727,0.00095108,0.00012801,-144.66,-0.00042701,-4314.9,0.244
15542,6.7952,1.8182,0.05,1.0549e-06,10.542,8.1005e-07,6.0864,-6.2215e-13,-6.2369e-06,-8.1006e-07,-6.0865,0.25033
15543,6.7952,1.5455,0,0.00042371,4234.1,0.00014584,0.0043822,0.00012955,-122.42,-0.00042566,-4294,0.24946
15544,6.7034,1.6364,0,0.00042566,4253.6,0.00014705,0.0031826,0.00012922,-133.98,-0.00042778,-4319.1,0.24342
15545,6.7952,1.6364,0.05,1.0548e-06,10.541,8.0999e-07,6.0859,1.2328e-12,-4.8221e-06,-8.0999e-07,-6.086,0.24975
15546,6.7952,1.3636,0,0.00042474,4244.5,0.0001456,0.0071374,0.0001309,-110.45,-0.00042651,-4298.6,0.24875
15547,6.7034,1.4545,0,0.00042669,4263.9,0.00014681,0.0058608,0.00013056,-122.05,-0.00042863,-4323.6,0.24276
15548,6.7952,1.4545,0.05,1.0546e-06,10.538,8.0977e-07,6.0842,1.2024e-12,-4.3207e-06,-8.0976e-07,-6.0843,0.24909
15549,6.7952,1.1818,0,0.00042587,4255.8,0.00014534,0.010534,0.00013237,-97.428,-0.00042744,-4303.6,0.24795
15550,6.7034,1.2727,0,0.00042782,4275.2,0.00014654,0.0090397,0.00013204,-108.98,-0.00042957,-4328.7,0.242
15551,6.7952,1.2727,0.05,1.054e-06,10.533,8.0933e-07,6.081,2.7393e-12,-2.9139e-06,-8.0933e-07,-6.081,0.24833
15552,6.7952,1,0,0.00042708,4267.8,0.00014505,0.014542,0.00013394,-83.471,-0.00042844,-4309,0.24707
15553,6.7034,1.0909,0,0.00042904,4287.4,0.00014626,0.013106,0.00013363,-94.876,-0.00043057,-4334,0.24116
15554,6.7952,1.0909,0.05,1.0531e-06,10.524,8.0863e-07,6.0757,2.8039e-12,-7.5017e-06,-8.0863e-07,-6.0758,0.24749
15555,6.7952,0.81818,0,0.00042836,4280.6,0.00014475,0.020839,0.0001356,-68.69,-0.00042949,-4314.6,0.2461
15556,6.7034,0.90909,0,0.00043033,4300.4,0.00014595,0.017649,0.00013532,-79.853,-0.00043164,-4339.7,0.24023
15557,6.7952,0.90909,0.05,1.0518e-06,10.51,8.0763e-07,6.0682,7.9385e-13,-7.6641e-06,-8.0764e-07,-6.0683,0.24657
15558,6.7952,0.63636,0,0.0004297,4294.1,0.00014443,0.025781,0.00013735,-53.204,-0.00043058,-4320.4,0.24504
15559,6.7034,0.72727,0,0.0004317,4314,0.00014562,0.026692,0.0001371,-64.034,-0.00043275,-4345.7,0.23921
15560,6.7952,0.72727,0.05,1.0499e-06,10.492,8.062e-07,6.0574,4.5685e-12,-6.8669e-06,-8.062e-07,-6.0575,0.24555
15561,6.7952,0.45455,0,0.0004311,4308,0.0001441,0.058924,0.00013915,-37.107,-0.00043171,-4326.4,0.24389
15562,6.7034,0.54545,0,0.00043313,4328.3,0.00014528,0.028947,0.00013895,-47.548,-0.00043391,-4351.8,0.23811
15563,6.7952,0.54545,0.05,1.0458e-06,10.45,8.0301e-07,6.0335,2.96e-12,-1.007e-05,-8.0302e-07,-6.0336,0.24444
15564,6.7952,0.27273,0,0.00043256,4322.6,0.00014376,0.082379,0.00014104,-20.344,-0.0004329,-4332.7,0.24264
15565,6.7034,0.36364,0,0.0004346,4343,0.00014493,0.09916,0.00014087,-30.465,-0.00043511,-4358.1,0.2369
15566,6.7952,0.36364,0.05,1.0135e-06,10.128,7.7825e-07,5.8474,4.2546e-12,-6.6572e-06,-7.7825e-07,-5.8475,0.24325
15567,6.7034,0.18182,0,0.00043617,4358.6,0.00014457,0.11469,0.00014287,-12.648,-0.00043638,-4364.9,0.23561
15568,6.7952,0.18182,0.05,5.7268e-07,5.7229,4.3975e-07,3.3041,1.7167e-12,-2.1998e-05,-4.3975e-07,-3.3042,0.24196
15569,6.7952,0.090909,0,0.00043376,4334.6,0.00014344,0.12488,0.00014264,-5.8592,-0.00043386,-4337.5,0.24131
15570,6.6115,5.7273,0,0.0004382,4379,0.00014574,0.089803,0.0001427,-22.757,-0.00043858,-4390.3,0.22997
15571,6.5197,5.8182,0,0.00044188,4415.8,0.00014654,0.12029,0.00014461,-14.415,-0.00044212,-4422.9,0.22308
15572,6.6115,5.8182,0.05,6.2522e-07,6.2479,4.801e-07,3.6073,-3.3954e-12,3.3045e-05,-4.8009e-07,-3.6072,0.22928
15573,6.6115,5.9091,0,0.00043953,4392.2,0.00014539,0.12721,0.00014447,-6.8389,-0.00043964,-4395.6,0.22863
15574,6.6115,5.5455,0,0.00043663,4363.3,0.00014611,0.064803,0.00014066,-40.907,-0.00043731,-4383.6,0.23122
15575,6.5197,5.6364,0,0.00044021,4399,0.00014694,0.10878,0.00014245,-33.671,-0.00044077,-4415.7,0.22438
15576,6.6115,5.6364,0.05,1.0291e-06,10.284,7.9022e-07,5.9374,-2.1609e-12,6.8908e-06,-7.9021e-07,-5.9374,0.23058
15577,6.6115,5.3636,0,0.00043512,4348.2,0.00014647,0.0284,0.0001387,-58.378,-0.00043609,-4377.1,0.23238
15578,6.5197,5.4545,0,0.00043861,4383.1,0.00014732,0.031967,0.00014037,-52.204,-0.00043948,-4408.9,0.22559
15579,6.6115,5.4545,0.05,1.059e-06,10.583,8.132e-07,6.1101,-5.646e-12,9.8072e-06,-8.1318e-07,-6.1099,0.23178
15580,6.6115,5.1818,0,0.00043367,4333.7,0.00014682,0.022835,0.00013681,-75.196,-0.0004349,-4370.8,0.23344
15581,6.5197,5.2727,0,0.00043707,4367.7,0.0001477,0.029301,0.00013836,-70.102,-0.00043822,-4402.3,0.2267
15582,6.6115,5.2727,0.05,1.0631e-06,10.623,8.163e-07,6.1333,-5.8876e-12,6.2391e-06,-8.1629e-07,-6.1333,0.23289
15583,6.6115,5,0,0.00043229,4319.9,0.00014715,0.015841,0.00013501,-91.256,-0.00043377,-4364.8,0.23442
15584,6.5197,5.0909,0,0.0004356,4353,0.00014805,0.01929,0.00013643,-87.285,-0.00043701,-4395.9,0.22773
15585,6.6115,5.0909,0.05,1.0649e-06,10.642,8.1772e-07,6.1441,-2.7208e-12,5.7787e-06,-8.1772e-07,-6.144,0.23391
15586,6.6115,4.8182,0,0.00043098,4306.8,0.00014746,0.011378,0.0001333,-106.43,-0.00043269,-4359.1,0.23531
15587,6.5197,4.9091,0,0.00043419,4338.9,0.00014839,0.014229,0.00013459,-103.61,-0.00043586,-4389.8,0.22866
15588,6.6115,4.9091,0.05,1.0662e-06,10.654,8.1869e-07,6.1514,-2.7095e-12,1.0789e-05,-8.1869e-07,-6.1512,0.23485
15589,6.6115,4.6364,0,0.00042976,4294.7,0.00014775,0.0076023,0.0001317,-120.59,-0.00043169,-4353.7,0.2361
15590,6.5197,4.7273,0,0.00043287,4325.8,0.0001487,0.009714,0.00013287,-118.95,-0.00043477,-4384,0.2295
15591,6.6115,4.7273,0.05,1.067e-06,10.663,8.1932e-07,6.1561,-4.5148e-12,5.0083e-06,-8.1932e-07,-6.156,0.23569
15592,6.6115,4.4545,0,0.00042864,4283.4,0.00014802,0.0045423,0.00013024,-133.61,-0.00043076,-4348.7,0.23682
15593,6.5197,4.5455,0,0.00043165,4313.5,0.00014899,0.0061851,0.00013127,-133.17,-0.00043376,-4378.6,0.23026
15594,6.6115,4.5455,0.05,1.0675e-06,10.667,8.1968e-07,6.1587,-2.7884e-12,5.703e-06,-8.1967e-07,-6.1587,0.23644
15595,6.6115,4.2727,0,0.00042763,4273.3,0.00014826,0.0019737,0.00012891,-145.39,-0.00042991,-4344.1,0.23744
15596,6.5197,4.3636,0,0.00043054,4302.4,0.00014926,0.0032159,0.0001298,-146.15,-0.00043284,-4373.6,0.23093
15597,6.6115,4.3636,0.05,1.0676e-06,10.669,8.198e-07,6.1597,-1.0003e-12,5.3719e-06,-8.198e-07,-6.1596,0.23711
15598,6.6115,4.0909,0,0.00042673,4264.3,0.00014847,-0.0001676,0.00012773,-155.83,-0.00042917,-4340.1,0.23798
15599,6.5197,4.1818,0,0.00042954,4292.4,0.00014949,0.0007438,0.00012849,-157.77,-0.00043201,-4369.1,0.23151
15600,6.6115,4.1818,0.05,1.0676e-06,10.668,8.1976e-07,6.1593,-1.0304e-12,3.6988e-06,-8.1975e-07,-6.1593,0.23769
15601,6.6115,3.9091,0,0.00042595,4256.6,0.00014865,-0.0019366,0.00012671,-164.82,-0.00042852,-4336.6,0.23844
15602,6.5197,4,0,0.00042867,4283.7,0.0001497,-0.0013132,0.00012735,-167.94,-0.00043128,-4365.2,0.23201
15603,6.6115,4,0.05,1.0674e-06,10.666,8.196e-07,6.1582,4.4322e-13,2.304e-06,-8.196e-07,-6.1581,0.23819
15604,6.6115,3.7273,0,0.00042531,4250.2,0.0001488,-0.0033609,0.00012587,-172.3,-0.00042798,-4333.7,0.23881
15605,6.5197,3.8182,0,0.00042793,4276.3,0.00014987,-0.0029938,0.00012637,-176.56,-0.00043066,-4361.9,0.23242
15606,6.6115,3.8182,0.05,1.0671e-06,10.663,8.1938e-07,6.1565,-1.2794e-12,2.9232e-06,-8.1938e-07,-6.1565,0.2386
15607,6.6115,3.5455,0,0.00042481,4245.1,0.00014892,-0.0044565,0.0001252,-178.18,-0.00042756,-4331.4,0.2391
15608,6.5197,3.6364,0,0.00042733,4270.3,0.00015001,-0.00432,0.00012558,-183.56,-0.00043016,-4359.2,0.23275
15609,6.6115,3.6364,0.05,1.0668e-06,10.66,8.1914e-07,6.1547,-1.4716e-12,2.7221e-06,-8.1914e-07,-6.1547,0.23893
15610,6.6115,3.3636,0,0.00042444,4241.5,0.000149,-0.0052339,0.00012473,-182.42,-0.00042725,-4329.8,0.2393
15611,6.5197,3.4545,0,0.00042687,4265.8,0.00015012,-0.0053053,0.00012498,-188.86,-0.00042977,-4357.1,0.233
15612,6.6115,3.4545,0.05,1.0665e-06,10.657,8.1892e-07,6.1531,2.5336e-13,2.1033e-06,-8.1892e-07,-6.153,0.23918
15613,6.6115,3.1818,0,0.00042422,4239.3,0.00014906,-0.0056991,0.00012444,-184.99,-0.00042706,-4328.7,0.23943
15614,6.5197,3.2727,0,0.00042657,4262.7,0.00015019,-0.0059595,0.00012458,-192.43,-0.00042952,-4355.7,0.23316
15615,6.6115,3.2727,0.05,1.0663e-06,10.655,8.1876e-07,6.1519,1.461e-13,1.0679e-06,-8.1876e-07,-6.1519,0.23935
15616,6.6115,3,0,0.00042415,4238.5,0.00014907,-0.005854,0.00012434,-185.84,-0.000427,-4328.4,0.23947
15617,6.5197,3.0909,0,0.00042642,4261.2,0.00015023,-0.0062859,0.00012438,-194.22,-0.00042939,-4355,0.23325
15618,6.6115,3.0909,0.05,1.0662e-06,10.654,8.1867e-07,6.1512,-1.7709e-12,3.5954e-07,-8.1868e-07,-6.1512,0.23943
15619,6.6115,2.8182,0,0.00042422,4239.3,0.00014906,-0.0056991,0.00012444,-184.99,-0.00042706,-4328.7,0.23943
15620,6.5197,2.9091,0,0.00042642,4261.2,0.00015023,-0.0062861,0.00012438,-194.22,-0.00042939,-4355,0.23325
15621,6.6115,2.9091,0.05,1.0662e-06,10.654,8.1867e-07,6.1512,-1.8666e-12,-3.5954e-07,-8.1867e-07,-6.1512,0.23943
15622,6.6115,2.6364,0,0.00042444,4241.5,0.000149,-0.0052337,0.00012473,-182.42,-0.00042725,-4329.8,0.2393
15623,6.5197,2.7273,0,0.00042657,4262.7,0.00015019,-0.0059594,0.00012458,-192.43,-0.00042952,-4355.7,0.23316
15624,6.6115,2.7273,0.05,1.0663e-06,10.655,8.1876e-07,6.1519,-1.4223e-13,-1.0679e-06,-8.1876e-07,-6.1519,0.23935
15625,6.6115,2.4545,0,0.00042481,4245.1,0.00014892,-0.0044563,0.0001252,-178.18,-0.00042756,-4331.4,0.2391
15626,6.5197,2.5455,0,0.00042687,4265.8,0.00015012,-0.005305,0.00012498,-188.86,-0.00042977,-4357.1,0.233
15627,6.6115,2.5455,0.05,1.0665e-06,10.657,8.1892e-07,6.1531,-2.3148e-13,1.5562e-07,-8.1892e-07,-6.1531,0.23918
15628,6.6115,2.2727,0,0.00042531,4250.2,0.0001488,-0.0033606,0.00012587,-172.3,-0.00042798,-4333.7,0.23881
15629,6.5197,2.3636,0,0.00042733,4270.3,0.00015001,-0.0043198,0.00012558,-183.56,-0.00043016,-4359.2,0.23275
15630,6.6115,2.3636,0.05,1.0668e-06,10.66,8.1914e-07,6.1547,-3.3471e-13,-2.3599e-06,-8.1914e-07,-6.1547,0.23893
15631,6.6115,2.0909,0,0.00042595,4256.6,0.00014865,-0.0019362,0.00012671,-164.82,-0.00042852,-4336.6,0.23844
15632,6.5197,2.1818,0,0.00042793,4276.3,0.00014987,-0.0029934,0.00012637,-176.56,-0.00043066,-4361.9,0.23242
15633,6.6115,2.1818,0.05,1.0671e-06,10.663,8.1938e-07,6.1565,1.38e-12,-2.9002e-06,-8.1938e-07,-6.1565,0.2386
15634,6.6115,1.9091,0,0.00042673,4264.3,0.00014847,-0.00016706,0.00012773,-155.83,-0.00042917,-4340.1,0.23798
15635,6.5197,2,0,0.00042867,4283.7,0.0001497,-0.0013129,0.00012735,-167.94,-0.00043128,-4365.2,0.23201
15636,6.6115,2,0.05,1.0674e-06,10.666,8.196e-07,6.1582,-4.4322e-13,-3.3324e-06,-8.196e-07,-6.1582,0.23819
15637,6.6115,1.7273,0,0.00042763,4273.3,0.00014826,0.0019744,0.00012891,-145.39,-0.00042991,-4344.1,0.23744
15638,6.5197,1.8182,0,0.00042954,4292.4,0.00014949,0.0007445,0.00012849,-157.77,-0.00043201,-4369.1,0.23151
15639,6.6115,1.8182,0.05,1.0676e-06,10.668,8.1976e-07,6.1593,1.1629e-12,-3.6669e-06,-8.1976e-07,-6.1593,0.23769
15640,6.6115,1.5455,0,0.00042864,4283.4,0.00014802,0.004543,0.00013024,-133.61,-0.00043076,-4348.7,0.23682
15641,6.5197,1.6364,0,0.00043054,4302.4,0.00014926,0.0032165,0.0001298,-146.15,-0.00043284,-4373.6,0.23093
15642,6.6115,1.6364,0.05,1.0676e-06,10.669,8.198e-07,6.1597,-7.7638e-13,-3.9525e-06,-8.1981e-07,-6.1597,0.23711
15643,6.6115,1.3636,0,0.00042976,4294.7,0.00014775,0.0076031,0.0001317,-120.59,-0.00043169,-4353.7,0.2361
15644,6.5197,1.4545,0,0.00043165,4313.5,0.00014899,0.006186,0.00013127,-133.17,-0.00043376,-4378.6,0.23026
15645,6.6115,1.4545,0.05,1.0675e-06,10.667,8.1967e-07,6.1587,1.1342e-12,-5.703e-06,-8.1967e-07,-6.1587,0.23644
15646,6.6115,1.1818,0,0.00043098,4306.8,0.00014746,0.011379,0.0001333,-106.43,-0.00043269,-4359.1,0.23531
15647,6.5197,1.2727,0,0.00043287,4325.8,0.0001487,0.0097147,0.00013287,-118.95,-0.00043477,-4384,0.2295
15648,6.6115,1.2727,0.05,1.067e-06,10.663,8.1932e-07,6.156,1.1221e-12,-6.0159e-06,-8.1932e-07,-6.1561,0.23569
15649,6.6115,1,0,0.00043229,4319.9,0.00014715,0.015843,0.00013501,-91.256,-0.00043377,-4364.8,0.23442
15650,6.5197,1.0909,0,0.00043419,4338.9,0.00014839,0.014229,0.00013459,-103.61,-0.00043586,-4389.8,0.22866
15651,6.6115,1.0909,0.05,1.0662e-06,10.654,8.1869e-07,6.1513,9.3912e-13,-6.052e-06,-8.1869e-07,-6.1513,0.23485
15652,6.6115,0.81818,0,0.00043367,4333.7,0.00014682,0.022836,0.00013681,-75.196,-0.0004349,-4370.8,0.23344
15653,6.5197,0.90909,0,0.0004356,4353,0.00014805,0.019291,0.00013643,-87.285,-0.00043701,-4395.9,0.22773
15654,6.6115,0.90909,0.05,1.0649e-06,10.642,8.1772e-07,6.144,2.6976e-12,-5.2562e-06,-8.1772e-07,-6.1441,0.23391
15655,6.6115,0.63636,0,0.00043512,4348.2,0.00014647,0.028401,0.0001387,-58.378,-0.00043609,-4377.1,0.23238
15656,6.5197,0.72727,0,0.00043707,4367.7,0.0001477,0.029302,0.00013836,-70.102,-0.00043822,-4402.3,0.2267
15657,6.6115,0.72727,0.05,1.0631e-06,10.623,8.1629e-07,6.1333,6.164e-12,-6.1929e-06,-8.1629e-07,-6.1333,0.23289
15658,6.6115,0.45455,0,0.00043663,4363.3,0.00014611,0.064804,0.00014066,-40.907,-0.00043731,-4383.6,0.23122
15659,6.5197,0.54545,0,0.00043861,4383.1,0.00014732,0.031968,0.00014037,-52.204,-0.00043948,-4408.9,0.22559
15660,6.6115,0.54545,0.05,1.059e-06,10.583,8.1319e-07,6.11,2.6272e-12,-4.3954e-06,-8.132e-07,-6.11,0.23178
15661,6.6115,0.27273,0,0.0004382,4379,0.00014574,0.089804,0.0001427,-22.757,-0.00043858,-4390.3,0.22997
15662,6.5197,0.36364,0,0.00044021,4399,0.00014694,0.10879,0.00014245,-33.671,-0.00044077,-4415.7,0.22438
15663,6.6115,0.36364,0.05,1.0291e-06,10.284,7.9022e-07,5.9374,8.6882e-13,-5.0939e-06,-7.9022e-07,-5.9374,0.23058
15664,6.5197,0.18182,0,0.00044188,4415.8,0.00014654,0.12029,0.00014461,-14.415,-0.00044212,-4422.9,0.22308
15665,6.6115,0.18182,0.05,6.2522e-07,6.2479,4.8009e-07,3.6072,1.8065e-12,-2.145e-05,-4.801e-07,-3.6073,0.22928
15666,6.6115,0.090909,0,0.00043953,4392.2,0.00014539,0.12721,0.00014447,-6.8389,-0.00043964,-4395.6,0.22863
15667,6.4279,5.7273,0,0.00044388,4435.7,0.00014774,0.09812,0.00014436,-25.312,-0.0004443,-4448.3,0.21759
15668,6.3361,5.8182,0,0.00044764,4473.3,0.00014854,0.12767,0.00014636,-16.266,-0.00044791,-4481.4,0.21085
15669,6.4279,5.8182,0.05,6.8204e-07,6.8157,5.2373e-07,3.9351,-5.468e-13,3.4456e-05,-5.2372e-07,-3.935,0.2169
15670,6.4279,5.9091,0,0.00044534,4450.3,0.00014736,0.13107,0.0001463,-7.8635,-0.00044547,-4454.2,0.21624
15671,6.4279,5.5455,0,0.00044219,4418.8,0.00014815,0.071211,0.00014216,-44.967,-0.00044293,-4441.1,0.21885
15672,6.3361,5.6364,0,0.00044584,4455.3,0.00014897,0.11928,0.00014402,-37.084,-0.00044646,-4473.7,0.21216
15673,6.4279,5.6364,0.05,1.046e-06,10.452,8.0317e-07,6.0347,-3.896e-12,1.1155e-05,-8.0316e-07,-6.0346,0.2182
15674,6.4279,5.3636,0,0.00044056,4402.6,0.00014854,0.031263,0.00014003,-63.926,-0.00044161,-4434.2,0.22001
15675,6.3361,5.4545,0,0.00044412,4438.1,0.00014939,0.035282,0.00014177,-57.187,-0.00044507,-4466.4,0.21337
15676,6.4279,5.4545,0.05,1.0733e-06,10.726,8.2419e-07,6.1927,-2.2162e-12,1.3761e-05,-8.2419e-07,-6.1926,0.21941
15677,6.4279,5.1818,0,0.00043899,4386.9,0.00014892,0.025017,0.00013798,-82.188,-0.00044033,-4427.4,0.22108
15678,6.3361,5.2727,0,0.00044246,4421.5,0.00014979,0.032155,0.00013959,-76.615,-0.00044371,-4459.3,0.21449
15679,6.4279,5.2727,0.05,1.0773e-06,10.765,8.272e-07,6.2153,-5.6451e-12,1.0286e-05,-8.2719e-07,-6.2152,0.22053
15680,6.4279,5,0,0.0004375,4372,0.00014928,0.017265,0.00013602,-99.637,-0.00043911,-4420.9,0.22206
15681,6.3361,5.0909,0,0.00044086,4405.6,0.00015018,0.021092,0.0001375,-95.278,-0.0004424,-4452.4,0.21551
15682,6.4279,5.0909,0.05,1.0791e-06,10.783,8.2861e-07,6.2259,1.0497e-12,1.3224e-05,-8.286e-07,-6.2257,0.22155
15683,6.4279,4.8182,0,0.00043608,4357.8,0.00014962,0.012306,0.00013417,-116.13,-0.00043794,-4414.7,0.22295
15684,6.3361,4.9091,0,0.00043934,4390.4,0.00015055,0.015466,0.0001355,-113.02,-0.00044116,-4445.8,0.21645
15685,6.4279,4.9091,0.05,1.0803e-06,10.795,8.2953e-07,6.2328,-2.4531e-12,6.6004e-06,-8.2953e-07,-6.2327,0.22249
15686,6.4279,4.6364,0,0.00043476,4344.6,0.00014994,0.008118,0.00013243,-131.53,-0.00043685,-4408.9,0.22375
15687,6.3361,4.7273,0,0.00043792,4376.2,0.00015089,0.010463,0.00013363,-129.7,-0.00043998,-4439.6,0.2173
15688,6.4279,4.7273,0.05,1.081e-06,10.803,8.3009e-07,6.237,-6.39e-13,1.031e-05,-8.3008e-07,-6.2368,0.22333
15689,6.4279,4.4545,0,0.00043355,4332.5,0.00015023,0.0047265,0.00013084,-145.7,-0.00043585,-4403.5,0.22446
15690,6.3361,4.5455,0,0.0004366,4363,0.00015121,0.0065541,0.00013189,-145.16,-0.00043888,-4433.7,0.21805
15691,6.4279,4.5455,0.05,1.0813e-06,10.806,8.3034e-07,6.2389,-4.3469e-12,8.3388e-06,-8.3033e-07,-6.2388,0.22409
15692,6.4279,4.2727,0,0.00043245,4321.5,0.00015049,0.0018826,0.00012939,-158.52,-0.00043493,-4398.6,0.22509
15693,6.3361,4.3636,0,0.00043539,4350.9,0.0001515,0.0032682,0.0001303,-159.29,-0.00043788,-4428.4,0.21872
15694,6.4279,4.3636,0.05,1.0813e-06,10.806,8.3034e-07,6.2389,-9.1296e-13,4.1743e-06,-8.3034e-07,-6.2389,0.22476
15695,6.4279,4.0909,0,0.00043148,4311.8,0.00015072,-0.0004865,0.00012811,-169.88,-0.00043412,-4394.3,0.22563
15696,6.3361,4.1818,0,0.00043431,4340.1,0.00015176,0.00053457,0.00012887,-171.95,-0.00043698,-4423.5,0.21931
15697,6.4279,4.1818,0.05,1.0811e-06,10.804,8.3017e-07,6.2376,-4.5014e-12,5.274e-06,-8.3017e-07,-6.2375,0.22534
15698,6.4279,3.9091,0,0.00043064,4303.5,0.00015092,-0.0024425,0.00012701,-179.68,-0.00043342,-4390.5,0.22609
15699,6.3361,4,0,0.00043337,4330.7,0.00015198,-0.0017386,0.00012762,-183.02,-0.00043619,-4419.3,0.2198
15700,6.4279,4,0.05,1.0808e-06,10.8,8.2989e-07,6.2355,-1.0805e-12,5.5396e-06,-8.2988e-07,-6.2354,0.22584
15701,6.4279,3.7273,0,0.00042995,4296.5,0.00015108,-0.0040166,0.00012609,-187.83,-0.00043283,-4387.3,0.22646
15702,6.3361,3.8182,0,0.00043256,4322.7,0.00015217,-0.0035945,0.00012656,-192.42,-0.00043552,-4415.7,0.22022
15703,6.4279,3.8182,0.05,1.0803e-06,10.796,8.2954e-07,6.2329,-1.3414e-12,3.8014e-06,-8.2954e-07,-6.2328,0.22626
15704,6.4279,3.5455,0,0.0004294,4291,0.00015121,-0.0052268,0.00012536,-194.24,-0.00043237,-4384.8,0.22675
15705,6.3361,3.6364,0,0.00043192,4316.2,0.00015233,-0.0050586,0.0001257,-200.04,-0.00043497,-4412.7,0.22055
15706,6.4279,3.6364,0.05,1.0798e-06,10.791,8.2919e-07,6.2302,-3.225e-12,2.5523e-06,-8.2919e-07,-6.2302,0.22659
15707,6.4279,3.3636,0,0.000429,4287.1,0.00015131,-0.0060852,0.00012484,-198.87,-0.00043204,-4383.1,0.22695
15708,6.3361,3.4545,0,0.00043142,4311.3,0.00015244,-0.0061457,0.00012505,-205.82,-0.00043456,-4410.5,0.2208
15709,6.4279,3.4545,0.05,1.0795e-06,10.787,8.2888e-07,6.228,2.5069e-13,2.0966e-06,-8.2889e-07,-6.2279,0.22683
15710,6.4279,3.1818,0,0.00042877,4284.7,0.00015136,-0.0065987,0.00012453,-201.66,-0.00043184,-4382,0.22708
15711,6.3361,3.2727,0,0.00043109,4307.9,0.00015252,-0.0068675,0.00012461,-209.71,-0.00043428,-4409,0.22096
15712,6.4279,3.2727,0.05,1.0792e-06,10.784,8.2867e-07,6.2262,-1.6535e-12,-7.4861e-07,-8.2866e-07,-6.2262,0.227
15713,6.4279,3,0,0.00042869,4283.9,0.00015138,-0.0067697,0.00012442,-202.59,-0.00043177,-4381.6,0.22712
15714,6.3361,3.0909,0,0.00043093,4306.3,0.00015256,-0.0072275,0.00012439,-211.66,-0.00043414,-4408.2,0.22104
15715,6.4279,3.0909,0.05,1.079e-06,10.783,8.2854e-07,6.2254,-1.767e-12,3.8906e-07,-8.2854e-07,-6.2254,0.22708
15716,6.4279,2.8182,0,0.00042877,4284.7,0.00015136,-0.0065987,0.00012453,-201.66,-0.00043184,-4382,0.22708
15717,6.3361,2.9091,0,0.00043093,4306.3,0.00015256,-0.0072276,0.00012439,-211.66,-0.00043414,-4408.2,0.22104
15718,6.4279,2.9091,0.05,1.079e-06,10.783,8.2854e-07,6.2254,-1.8706e-12,-3.8937e-07,-8.2854e-07,-6.2254,0.22708
15719,6.4279,2.6364,0,0.000429,4287.1,0.00015131,-0.006085,0.00012484,-198.87,-0.00043204,-4383.1,0.22695
15720,6.3361,2.7273,0,0.00043109,4307.9,0.00015252,-0.0068673,0.00012461,-209.71,-0.00043428,-4409,0.22096
15721,6.4279,2.7273,0.05,1.0792e-06,10.784,8.2866e-07,6.2262,-1.4932e-13,-1.1566e-06,-8.2866e-07,-6.2262,0.227
15722,6.4279,2.4545,0,0.0004294,4291,0.00015121,-0.0052265,0.00012536,-194.24,-0.00043237,-4384.8,0.22675
15723,6.3361,2.5455,0,0.00043142,4311.3,0.00015244,-0.0061454,0.00012505,-205.82,-0.00043456,-4410.5,0.2208
15724,6.4279,2.5455,0.05,1.0795e-06,10.787,8.2889e-07,6.2279,-2.5058e-13,-1.8829e-06,-8.2889e-07,-6.2279,0.22683
15725,6.4279,2.2727,0,0.00042995,4296.5,0.00015108,-0.0040163,0.00012609,-187.83,-0.00043283,-4387.3,0.22646
15726,6.3361,2.3636,0,0.00043192,4316.2,0.00015233,-0.0050583,0.0001257,-200.04,-0.00043497,-4412.7,0.22055
15727,6.4279,2.3636,0.05,1.0798e-06,10.791,8.2919e-07,6.2302,1.4434e-12,-2.5474e-06,-8.2919e-07,-6.2302,0.22659
15728,6.4279,2.0909,0,0.00043064,4303.5,0.00015092,-0.0024423,0.00012701,-179.68,-0.00043342,-4390.5,0.22609
15729,6.3361,2.1818,0,0.00043256,4322.7,0.00015217,-0.0035942,0.00012656,-192.42,-0.00043552,-4415.7,0.22022
15730,6.4279,2.1818,0.05,1.0803e-06,10.796,8.2954e-07,6.2328,-4.5636e-13,-1.2456e-06,-8.2954e-07,-6.2328,0.22626
15731,6.4279,1.9091,0,0.00043148,4311.8,0.00015072,-0.00048604,0.00012811,-169.88,-0.00043412,-4394.3,0.22563
15732,6.3361,2,0,0.00043337,4330.7,0.00015198,-0.0017383,0.00012762,-183.02,-0.00043619,-4419.3,0.2198
15733,6.4279,2,0.05,1.0808e-06,10.8,8.2988e-07,6.2354,1.1377e-12,-3.6045e-06,-8.2989e-07,-6.2354,0.22584
15734,6.4279,1.7273,0,0.00043245,4321.5,0.00015049,0.0018832,0.00012939,-158.52,-0.00043493,-4398.6,0.22509
15735,6.3361,1.8182,0,0.00043431,4340.1,0.00015176,0.00053514,0.00012887,-171.95,-0.00043698,-4423.5,0.21931
15736,6.4279,1.8182,0.05,1.0811e-06,10.804,8.3017e-07,6.2376,2.877e-12,-3.9473e-06,-8.3017e-07,-6.2376,0.22534
15737,6.4279,1.5455,0,0.00043355,4332.5,0.00015023,0.0047272,0.00013084,-145.7,-0.00043585,-4403.5,0.22446
15738,6.3361,1.6364,0,0.00043539,4350.9,0.0001515,0.0032687,0.0001303,-159.29,-0.00043788,-4428.4,0.21872
15739,6.4279,1.6364,0.05,1.0813e-06,10.806,8.3034e-07,6.2389,9.1296e-13,-4.1743e-06,-8.3034e-07,-6.2389,0.22476
15740,6.4279,1.3636,0,0.00043476,4344.6,0.00014994,0.0081188,0.00013243,-131.53,-0.00043685,-4408.9,0.22375
15741,6.3361,1.4545,0,0.0004366,4363,0.00015121,0.0065549,0.00013189,-145.16,-0.00043888,-4433.7,0.21805
15742,6.4279,1.4545,0.05,1.0813e-06,10.806,8.3033e-07,6.2388,2.8285e-12,-8.3388e-06,-8.3034e-07,-6.2389,0.22409
15743,6.4279,1.1818,0,0.00043608,4357.8,0.00014962,0.012306,0.00013417,-116.13,-0.00043794,-4414.7,0.22295
15744,6.3361,1.2727,0,0.00043792,4376.2,0.00015089,0.010464,0.00013363,-129.7,-0.00043998,-4439.6,0.2173
15745,6.4279,1.2727,0.05,1.081e-06,10.803,8.3008e-07,6.2369,7.4819e-13,-9.0246e-06,-8.3009e-07,-6.237,0.22333
15746,6.4279,1,0,0.0004375,4372,0.00014928,0.017266,0.00013602,-99.637,-0.00043911,-4420.9,0.22206
15747,6.3361,1.0909,0,0.00043934,4390.4,0.00015055,0.015467,0.0001355,-113.02,-0.00044116,-4445.8,0.21645
15748,6.4279,1.0909,0.05,1.0803e-06,10.795,8.2953e-07,6.2327,8.6786e-13,-5.7884e-06,-8.2953e-07,-6.2328,0.22249
15749,6.4279,0.81818,0,0.00043899,4386.9,0.00014892,0.025018,0.00013798,-82.188,-0.00044033,-4427.4,0.22108
15750,6.3361,0.90909,0,0.00044086,4405.6,0.00015018,0.021093,0.0001375,-95.278,-0.0004424,-4452.4,0.21551
15751,6.4279,0.90909,0.05,1.0791e-06,10.783,8.286e-07,6.2258,-1.0497e-12,-6.8452e-06,-8.2861e-07,-6.2258,0.22155
15752,6.4279,0.63636,0,0.00044056,4402.6,0.00014854,0.031263,0.00014003,-63.926,-0.00044161,-4434.2,0.22001
15753,6.3361,0.72727,0,0.00044246,4421.5,0.00014979,0.032156,0.00013959,-76.615,-0.00044371,-4459.3,0.21449
15754,6.4279,0.72727,0.05,1.0773e-06,10.765,8.2719e-07,6.2152,4.4561e-12,-9.8487e-06,-8.272e-07,-6.2153,0.22053
15755,6.4279,0.45455,0,0.00044219,4418.8,0.00014815,0.071212,0.00014216,-44.967,-0.00044293,-4441.1,0.21885
15756,6.3361,0.54545,0,0.00044412,4438.1,0.00014939,0.035282,0.00014177,-57.187,-0.00044507,-4466.4,0.21337
15757,6.4279,0.54545,0.05,1.0733e-06,10.726,8.2419e-07,6.1926,2.1891e-12,-8.9632e-06,-8.2419e-07,-6.1927,0.21941
15758,6.4279,0.27273,0,0.00044388,4435.7,0.00014774,0.098122,0.00014436,-25.312,-0.0004443,-4448.3,0.21759
15759,6.3361,0.36364,0,0.00044584,4455.3,0.00014897,0.11928,0.00014402,-37.084,-0.00044646,-4473.7,0.21216
15760,6.4279,0.36364,0.05,1.046e-06,10.452,8.0316e-07,6.0346,2.3841e-12,-5.0672e-06,-8.0317e-07,-6.0347,0.2182
15761,6.3361,0.18182,0,0.00044764,4473.3,0.00014854,0.12767,0.00014636,-16.266,-0.00044791,-4481.4,0.21085
15762,6.4279,0.18182,0.05,6.8204e-07,6.8157,5.2372e-07,3.935,2.3558e-12,-2.0704e-05,-5.2372e-07,-3.9351,0.2169
15763,6.4279,0.090909,0,0.00044534,4450.3,0.00014736,0.13107,0.0001463,-7.8635,-0.00044547,-4454.2,0.21624
15764,6.2442,5.7273,0,0.0004496,4492.9,0.00014976,0.10743,0.00014602,-28.016,-0.00045007,-4506.8,0.20552
15765,6.1524,5.8182,0,0.00045344,4531.3,0.00015055,0.13689,0.00014811,-18.2,-0.00045375,-4540.3,0.19892
15766,6.2442,5.8182,0.05,7.4345e-07,7.4294,5.7088e-07,4.2894,3.2063e-13,2.3112e-05,-5.7088e-07,-4.2893,0.20482
15767,6.2442,5.9091,0,0.00045119,4508.8,0.00014935,0.13624,0.00014814,-8.9317,-0.00045134,-4513.2,0.20416
15768,6.2442,5.5455,0,0.00044777,4474.6,0.00015021,0.078209,0.00014363,-49.301,-0.00044859,-4499,0.20678
15769,6.1524,5.6364,0,0.00045151,4512,0.00015102,0.13074,0.00014559,-40.714,-0.00045219,-4532.1,0.20024
15770,6.2442,5.6364,0.05,1.0642e-06,10.635,8.1719e-07,6.1401,-1.7272e-12,1.1108e-05,-8.1718e-07,-6.14,0.20613
15771,6.2442,5.3636,0,0.00044602,4457.1,0.00015064,0.034405,0.00014133,-69.873,-0.00044716,-4491.6,0.20795
15772,6.1524,5.4545,0,0.00044965,4493.4,0.00015147,0.038923,0.00014315,-62.517,-0.00045068,-4524.3,0.20145
15773,6.2442,5.4545,0.05,1.0888e-06,10.881,8.361e-07,6.2822,-5.3806e-12,1.5171e-05,-8.361e-07,-6.282,0.20734
15774,6.2442,5.1818,0,0.00044432,4440.2,0.00015105,0.027412,0.00013911,-89.701,-0.00044578,-4484.3,0.20902
15775,6.1524,5.2727,0,0.00044786,4475.5,0.00015192,0.035281,0.00014079,-83.604,-0.00044922,-4516.7,0.20257
15776,6.2442,5.2727,0.05,1.0926e-06,10.919,8.39e-07,6.3039,-3.7258e-12,1.1348e-05,-8.3898e-07,-6.3038,0.20846
15777,6.2442,5,0,0.00044271,4424,0.00015144,0.018836,0.00013698,-108.66,-0.00044445,-4477.3,0.21
15778,6.1524,5.0909,0,0.00044613,4458.2,0.00015234,0.023074,0.00013851,-103.87,-0.00044781,-4509.2,0.2036
15779,6.2442,5.0909,0.05,1.0944e-06,10.937,8.4038e-07,6.3143,-2.0557e-12,7.4786e-06,-8.4037e-07,-6.3142,0.20949
15780,6.2442,4.8182,0,0.00044118,4408.7,0.00015181,0.013336,0.00013497,-126.58,-0.00044319,-4470.6,0.21089
15781,6.1524,4.9091,0,0.00044449,4441.8,0.00015274,0.016833,0.00013635,-123.15,-0.00044646,-4502.1,0.20454
15782,6.2442,4.9091,0.05,1.0955e-06,10.948,8.4125e-07,6.3209,-2.1237e-12,1.3761e-05,-8.4124e-07,-6.3207,0.21043
15783,6.2442,4.6364,0,0.00043975,4394.5,0.00015216,0.0087002,0.00013308,-143.33,-0.00044201,-4464.4,0.21169
15784,6.1524,4.7273,0,0.00044295,4426.4,0.00015312,0.011299,0.00013431,-141.28,-0.00044518,-4495.4,0.20538
15785,6.2442,4.7273,0.05,1.0961e-06,10.954,8.417e-07,6.3243,9.3176e-13,7.2711e-06,-8.417e-07,-6.3242,0.21127
15786,6.2442,4.4545,0,0.00043844,4381.3,0.00015248,0.0049482,0.00013135,-158.75,-0.00044092,-4458.5,0.21241
15787,6.1524,4.5455,0,0.00044152,4412.1,0.00015346,0.0069756,0.00013242,-158.11,-0.00044399,-4489,0.20614
15788,6.2442,4.5455,0.05,1.0963e-06,10.956,8.4184e-07,6.3253,-2.4731e-12,1.1582e-05,-8.4183e-07,-6.3251,0.21203
15789,6.2442,4.2727,0,0.00043725,4369.5,0.00015276,0.0018047,0.00012978,-172.71,-0.00043993,-4453.3,0.21303
15790,6.1524,4.3636,0,0.00044021,4399.1,0.00015378,0.0033453,0.00013069,-173.48,-0.00044291,-4483.3,0.20681
15791,6.2442,4.3636,0.05,1.0961e-06,10.954,8.417e-07,6.3242,-5.9925e-12,4.5151e-06,-8.4169e-07,-6.3242,0.2127
15792,6.2442,4.0909,0,0.0004362,4358.9,0.00015301,-0.00081211,0.00012838,-185.08,-0.00043905,-4448.5,0.21357
15793,6.1524,4.1818,0,0.00043904,4387.4,0.00015406,0.00032735,0.00012914,-187.27,-0.00044193,-4478,0.2074
15794,6.2442,4.1818,0.05,1.0957e-06,10.95,8.4137e-07,6.3218,-1.1151e-12,7.2798e-06,-8.4138e-07,-6.3217,0.21329
15795,6.2442,3.9091,0,0.00043529,4349.9,0.00015323,-0.0029712,0.00012718,-195.76,-0.00043829,-4444.4,0.21403
15796,6.1524,4,0,0.00043802,4377.2,0.00015431,-0.0021806,0.00012778,-199.33,-0.00044107,-4473.4,0.2079
15797,6.2442,4,0.05,1.0951e-06,10.944,8.4093e-07,6.3185,-1.1335e-12,5.0167e-06,-8.4093e-07,-6.3184,0.21378
15798,6.2442,3.7273,0,0.00043453,4342.3,0.00015341,-0.0047077,0.00012618,-204.63,-0.00043765,-4441,0.2144
15799,6.1524,3.8182,0,0.00043715,4368.5,0.00015452,-0.0042269,0.00012662,-209.57,-0.00044034,-4469.5,0.20831
15800,6.2442,3.8182,0.05,1.0945e-06,10.938,8.4044e-07,6.3148,-3.0491e-12,3.3793e-06,-8.4045e-07,-6.3148,0.2142
15801,6.2442,3.5455,0,0.00043394,4336.4,0.00015355,-0.0060422,0.00012539,-211.62,-0.00043715,-4438.3,0.21469
15802,6.1524,3.6364,0,0.00043645,4361.5,0.00015469,-0.0058404,0.00012569,-217.88,-0.00043975,-4466.3,0.20864
15803,6.2442,3.6364,0.05,1.0939e-06,10.931,8.3998e-07,6.3112,-3.1571e-12,2.7525e-06,-8.3997e-07,-6.3112,0.21453
15804,6.2442,3.3636,0,0.00043351,4332.1,0.00015366,-0.0069886,0.00012482,-216.66,-0.00043679,-4436.4,0.2149
15805,6.1524,3.4545,0,0.00043592,4356.1,0.00015481,-0.007038,0.00012498,-224.18,-0.0004393,-4463.9,0.20889
15806,6.2442,3.4545,0.05,1.0934e-06,10.926,8.3957e-07,6.3082,-1.5262e-12,2.0381e-06,-8.3956e-07,-6.3082,0.21478
15807,6.2442,3.1818,0,0.00043325,4329.5,0.00015372,-0.0075547,0.00012448,-219.71,-0.00043657,-4435.2,0.21502
15808,6.1524,3.2727,0,0.00043556,4352.6,0.0001549,-0.0078329,0.0001245,-228.42,-0.00043899,-4462.3,0.20905
15809,6.2442,3.2727,0.05,1.093e-06,10.922,8.3927e-07,6.306,-1.65e-12,1.3401e-06,-8.3927e-07,-6.3059,0.21494
15810,6.2442,3,0,0.00043317,4328.7,0.00015374,-0.007743,0.00012436,-220.73,-0.0004365,-4434.8,0.21506
15811,6.1524,3.0909,0,0.00043538,4350.8,0.00015494,-0.0082294,0.00012426,-230.55,-0.00043884,-4461.5,0.20913
15812,6.2442,3.0909,0.05,1.0928e-06,10.92,8.3912e-07,6.3048,5.6605e-14,4.2081e-07,-8.3911e-07,-6.3048,0.21502
15813,6.2442,2.8182,0,0.00043325,4329.5,0.00015372,-0.0075545,0.00012448,-219.71,-0.00043657,-4435.2,0.21502
15814,6.1524,2.9091,0,0.00043538,4350.8,0.00015494,-0.0082293,0.00012426,-230.55,-0.00043884,-4461.5,0.20913
15815,6.2442,2.9091,0.05,1.0928e-06,10.92,8.3912e-07,6.3048,-5.5443e-14,-4.212e-07,-8.3911e-07,-6.3048,0.21502
15816,6.2442,2.6364,0,0.00043351,4332.1,0.00015366,-0.0069884,0.00012482,-216.66,-0.00043679,-4436.4,0.2149
15817,6.1524,2.7273,0,0.00043556,4352.6,0.0001549,-0.0078327,0.0001245,-228.42,-0.00043899,-4462.3,0.20905
15818,6.2442,2.7273,0.05,1.093e-06,10.922,8.3927e-07,6.3059,-1.6633e-13,-1.2507e-06,-8.3927e-07,-6.3059,0.21494
15819,6.2442,2.4545,0,0.00043394,4336.4,0.00015355,-0.006042,0.00012539,-211.62,-0.00043715,-4438.3,0.21469
15820,6.1524,2.5455,0,0.00043592,4356.1,0.00015481,-0.0070378,0.00012498,-224.18,-0.0004393,-4463.9,0.20889
15821,6.2442,2.5455,0.05,1.0934e-06,10.926,8.3956e-07,6.3082,-2.7101e-13,-2.0419e-06,-8.3956e-07,-6.3082,0.21478
15822,6.2442,2.2727,0,0.00043453,4342.3,0.00015341,-0.0047074,0.00012618,-204.63,-0.00043765,-4441,0.2144
15823,6.1524,2.3636,0,0.00043645,4361.5,0.00015469,-0.0058401,0.00012569,-217.88,-0.00043975,-4466.3,0.20864
15824,6.2442,2.3636,0.05,1.0939e-06,10.931,8.3997e-07,6.3112,-4.239e-13,-2.7525e-06,-8.3997e-07,-6.3112,0.21453
15825,6.2442,2.0909,0,0.00043529,4349.9,0.00015323,-0.0029708,0.00012718,-195.76,-0.00043829,-4444.4,0.21403
15826,6.1524,2.1818,0,0.00043715,4368.5,0.00015452,-0.0042265,0.00012662,-209.57,-0.00044034,-4469.5,0.20831
15827,6.2442,2.1818,0.05,1.0945e-06,10.938,8.4044e-07,6.3148,1.2997e-12,-1.5093e-06,-8.4045e-07,-6.3148,0.2142
15828,6.2442,1.9091,0,0.0004362,4358.9,0.00015301,-0.00081169,0.00012838,-185.08,-0.00043905,-4448.5,0.21357
15829,6.1524,2,0,0.00043802,4377.2,0.00015431,-0.0021802,0.00012778,-199.33,-0.00044107,-4473.4,0.2079
15830,6.2442,2,0.05,1.0951e-06,10.944,8.4094e-07,6.3184,-5.8489e-13,-5.0087e-06,-8.4093e-07,-6.3185,0.21378
15831,6.2442,1.7273,0,0.00043725,4369.5,0.00015276,0.0018053,0.00012978,-172.71,-0.00043993,-4453.3,0.21303
15832,6.1524,1.8182,0,0.00043904,4387.4,0.00015406,0.00032789,0.00012914,-187.27,-0.00044193,-4478,0.2074
15833,6.2442,1.8182,0.05,1.0957e-06,10.95,8.4138e-07,6.3217,1.2045e-12,-3.9197e-06,-8.4137e-07,-6.3218,0.21329
15834,6.2442,1.5455,0,0.00043844,4381.3,0.00015248,0.0049489,0.00013135,-158.75,-0.00044092,-4458.5,0.21241
15835,6.1524,1.6364,0,0.00044021,4399.1,0.00015378,0.0033459,0.00013069,-173.48,-0.00044291,-4483.3,0.20681
15836,6.2442,1.6364,0.05,1.0961e-06,10.954,8.4169e-07,6.3242,4.3431e-12,-4.5255e-06,-8.417e-07,-6.3242,0.2127
15837,6.2442,1.3636,0,0.00043975,4394.5,0.00015216,0.008701,0.00013308,-143.33,-0.00044201,-4464.4,0.21169
15838,6.1524,1.4545,0,0.00044152,4412.1,0.00015346,0.0069763,0.00013242,-158.11,-0.00044399,-4489,0.20614
15839,6.2442,1.4545,0.05,1.0963e-06,10.956,8.4183e-07,6.3251,9.9397e-13,-9.2918e-06,-8.4183e-07,-6.3253,0.21203
15840,6.2442,1.1818,0,0.00044118,4408.7,0.00015181,0.013336,0.00013497,-126.58,-0.00044319,-4470.6,0.21089
15841,6.1524,1.2727,0,0.00044295,4426.4,0.00015312,0.0113,0.00013431,-141.28,-0.00044518,-4495.4,0.20538
15842,6.2442,1.2727,0.05,1.0961e-06,10.954,8.417e-07,6.3242,-9.4357e-13,-7.4197e-06,-8.417e-07,-6.3243,0.21127
15843,6.2442,1,0,0.00044271,4424,0.00015144,0.018837,0.00013698,-108.66,-0.00044445,-4477.3,0.21
15844,6.1524,1.0909,0,0.00044449,4441.8,0.00015274,0.016834,0.00013635,-123.15,-0.00044646,-4502.1,0.20454
15845,6.2442,1.0909,0.05,1.0955e-06,10.948,8.4124e-07,6.3208,2.4769e-12,-4.4474e-06,-8.4125e-07,-6.3208,0.21043
15846,6.2442,0.81818,0,0.00044432,4440.2,0.00015105,0.027413,0.00013911,-89.701,-0.00044578,-4484.3,0.20902
15847,6.1524,0.90909,0,0.00044613,4458.2,0.00015234,0.023075,0.00013851,-103.87,-0.00044781,-4509.2,0.2036
15848,6.2442,0.90909,0.05,1.0944e-06,10.937,8.4037e-07,6.3142,3.2963e-13,-7.3668e-06,-8.4038e-07,-6.3143,0.20949
15849,6.2442,0.63636,0,0.00044602,4457.1,0.00015064,0.034405,0.00014133,-69.873,-0.00044716,-4491.6,0.20795
15850,6.1524,0.72727,0,0.00044786,4475.5,0.00015192,0.035282,0.00014079,-83.604,-0.00044922,-4516.7,0.20257
15851,6.2442,0.72727,0.05,1.0926e-06,10.919,8.3899e-07,6.3038,9.6678e-13,-1.1114e-05,-8.3899e-07,-6.3039,0.20846
15852,6.2442,0.45455,0,0.00044777,4474.6,0.00015021,0.07821,0.00014364,-49.301,-0.00044859,-4499,0.20678
15853,6.1524,0.54545,0,0.00044965,4493.4,0.00015147,0.038924,0.00014315,-62.517,-0.00045068,-4524.3,0.20145
15854,6.2442,0.54545,0.05,1.0888e-06,10.881,8.3609e-07,6.2821,3.0347e-13,-6.4739e-06,-8.3611e-07,-6.2822,0.20734
15855,6.2442,0.27273,0,0.0004496,4492.9,0.00014976,0.10743,0.00014602,-28.016,-0.00045007,-4506.8,0.20552
15856,6.1524,0.36364,0,0.00045151,4512,0.00015102,0.13074,0.00014559,-40.714,-0.00045219,-4532.1,0.20024
15857,6.2442,0.36364,0.05,1.0642e-06,10.635,8.1718e-07,6.14,1.9751e-12,-6.2543e-06,-8.1719e-07,-6.14,0.20613
15858,6.1524,0.18182,0,0.00045344,4531.3,0.00015055,0.13689,0.00014811,-18.2,-0.00045375,-4540.3,0.19892
15859,6.2442,0.18182,0.05,7.4346e-07,7.4294,5.7088e-07,4.2893,-1.193e-12,-2.2127e-05,-5.7088e-07,-4.2894,0.20482
15860,6.2442,0.090909,0,0.00045119,4508.8,0.00014935,0.13625,0.00014814,-8.9317,-0.00045134,-4513.2,0.20416
15861,6.0606,5.7273,0,0.00045535,4550.4,0.0001518,0.11785,0.00014768,-30.871,-0.00045587,-4565.7,0.19374
15862,5.9688,5.8182,0,0.00045929,4589.8,0.00015258,0.1481,0.00014987,-20.215,-0.00045963,-4599.8,0.1873
15863,6.0606,5.8182,0.05,8.098e-07,8.0924,6.2183e-07,4.6722,-1.1867e-12,2.237e-05,-6.2182e-07,-4.6721,0.19304
15864,6.0606,5.9091,0,0.0004571,4567.8,0.00015135,0.14261,0.00015,-10.041,-0.00045726,-4572.8,0.19238
15865,6.0606,5.5455,0,0.00045339,4530.7,0.00015229,0.085853,0.0001451,-53.923,-0.00045428,-4557.4,0.19501
15866,5.9688,5.6364,0,0.00045721,4569,0.00015309,0.14324,0.00014714,-44.569,-0.00045795,-4591,0.18862
15867,6.0606,5.6364,0.05,1.084e-06,10.833,8.3239e-07,6.2542,-4.7935e-12,1.2989e-05,-8.3237e-07,-6.2541,0.19436
15868,6.0606,5.3636,0,0.00045149,4511.8,0.00015276,0.037851,0.0001426,-76.242,-0.00045274,-4549.4,0.19618
15869,5.9688,5.4545,0,0.00045521,4548.9,0.00015359,0.042926,0.0001445,-68.214,-0.00045633,-4582.6,0.18984
15870,6.0606,5.4545,0.05,1.1057e-06,11.049,8.4902e-07,6.3792,-4.8664e-12,1.9704e-05,-8.4901e-07,-6.3791,0.19558
15871,6.0606,5.1818,0,0.00044966,4493.5,0.00015321,0.030038,0.00014019,-97.769,-0.00045124,-4541.6,0.19726
15872,5.9688,5.2727,0,0.00045327,4529.5,0.00015407,0.038705,0.00014194,-91.098,-0.00045475,-4574.4,0.19096
15873,6.0606,5.2727,0.05,1.1093e-06,11.085,8.5178e-07,6.4,-3.5156e-12,1.2525e-05,-8.5177e-07,-6.3998,0.1967
15874,6.0606,5,0,0.00044791,4476,0.00015364,0.020564,0.00013788,-118.36,-0.00044981,-4534,0.19824
15875,5.9688,5.0909,0,0.0004514,4510.9,0.00015453,0.025251,0.00013947,-113.11,-0.00045322,-4566.4,0.19199
15876,6.0606,5.0909,0.05,1.111e-06,11.103,8.5313e-07,6.4102,-1.8723e-12,1.6447e-05,-8.5313e-07,-6.41,0.19773
15877,6.0606,4.8182,0,0.00044626,4459.5,0.00015404,0.014475,0.00013569,-137.85,-0.00044844,-4526.8,0.19913
15878,5.9688,4.9091,0,0.00044963,4493.2,0.00015497,0.018339,0.00013712,-134.06,-0.00045176,-4558.7,0.19293
15879,6.0606,4.9091,0.05,1.1121e-06,11.113,8.5393e-07,6.4161,-3.6557e-12,1.5545e-05,-8.5392e-07,-6.416,0.19867
15880,6.0606,4.6364,0,0.00044471,4444.1,0.00015442,0.0093524,0.00013365,-156.06,-0.00044716,-4520,0.19993
15881,5.9688,4.7273,0,0.00044796,4476.5,0.00015538,0.012227,0.00013491,-153.77,-0.00045038,-4551.4,0.19378
15882,6.0606,4.7273,0.05,1.1125e-06,11.117,8.5427e-07,6.4188,-5.6879e-12,1.2531e-05,-8.5427e-07,-6.4186,0.19951
15883,6.0606,4.4545,0,0.00044329,4429.9,0.00015476,0.0052085,0.00013176,-172.84,-0.00044598,-4513.8,0.20065
15884,5.9688,4.5455,0,0.00044641,4461,0.00015576,0.0074529,0.00013285,-172.08,-0.00044909,-4544.6,0.19453
15885,6.0606,4.5455,0.05,1.1125e-06,11.117,8.5426e-07,6.4186,-2.3415e-12,1.03e-05,-8.5426e-07,-6.4185,0.20027
15886,6.0606,4.2727,0,0.00044201,4417,0.00015508,0.0017394,0.00013005,-188.04,-0.00044491,-4508,0.20127
15887,5.9688,4.3636,0,0.000445,4446.9,0.0001561,0.0034483,0.00013097,-188.81,-0.00044791,-4538.3,0.1952
15888,6.0606,4.3636,0.05,1.1121e-06,11.113,8.5396e-07,6.4164,-4.2219e-12,7.4133e-06,-8.5396e-07,-6.4162,0.20094
15889,6.0606,4.0909,0,0.00044087,4405.6,0.00015535,-0.0011465,0.00012853,-201.51,-0.00044395,-4502.9,0.20181
15890,5.9688,4.1818,0,0.00044373,4434.3,0.00015641,0.00012143,0.00012928,-203.82,-0.00044685,-4532.7,0.19579
15891,6.0606,4.1818,0.05,1.1115e-06,11.107,8.5346e-07,6.4126,-6.1448e-12,8.027e-06,-8.5346e-07,-6.4125,0.20153
15892,6.0606,3.9091,0,0.00043988,4395.8,0.00015559,-0.0035261,0.00012722,-213.14,-0.00044312,-4498.5,0.20227
15893,5.9688,4,0,0.00044263,4423.2,0.00015668,-0.0026414,0.00012781,-216.97,-0.00044592,-4527.7,0.19628
15894,6.0606,4,0.05,1.1106e-06,11.099,8.5284e-07,6.4079,-9.9347e-13,4.1854e-06,-8.5284e-07,-6.4079,0.20202
15895,6.0606,3.7273,0,0.00043907,4387.7,0.00015579,-0.0054389,0.00012613,-222.81,-0.00044243,-4494.8,0.20264
15896,5.9688,3.8182,0,0.00044169,4413.8,0.00015691,-0.0048942,0.00012655,-228.13,-0.00044513,-4523.5,0.1967
15897,6.0606,3.8182,0.05,1.1098e-06,11.09,8.5219e-07,6.403,-1.1483e-12,3.6492e-06,-8.5218e-07,-6.403,0.20244
15898,6.0606,3.5455,0,0.00043843,4381.2,0.00015594,-0.0069083,0.00012528,-230.44,-0.00044189,-4491.9,0.20293
15899,5.9688,3.6364,0,0.00044093,4406.2,0.0001571,-0.0066695,0.00012553,-237.18,-0.00044448,-4520,0.19703
15900,6.0606,3.6364,0.05,1.109e-06,11.082,8.5157e-07,6.3984,4.2531e-13,4.0711e-06,-8.5156e-07,-6.3983,0.20277
15901,6.0606,3.3636,0,0.00043796,4376.6,0.00015606,-0.0079499,0.00012466,-235.94,-0.0004415,-4489.8,0.20314
15902,5.9688,3.4545,0,0.00044035,4400.4,0.00015724,-0.0079869,0.00012475,-244.06,-0.00044399,-4517.4,0.19727
15903,6.0606,3.4545,0.05,1.1083e-06,11.075,8.5104e-07,6.3944,3.2478e-13,2.1827e-06,-8.5104e-07,-6.3944,0.20301
15904,6.0606,3.1818,0,0.00043768,4373.8,0.00015612,-0.0085727,0.00012428,-239.26,-0.00044126,-4488.5,0.20326
15905,5.9688,3.2727,0,0.00043996,4396.6,0.00015733,-0.0088608,0.00012423,-248.68,-0.00044366,-4515.6,0.19744
15906,6.0606,3.2727,0.05,1.1078e-06,11.07,8.5066e-07,6.3916,1.8546e-13,1.5578e-06,-8.5066e-07,-6.3915,0.20318
15907,6.0606,3,0,0.00043759,4372.9,0.00015615,-0.00878,0.00012416,-240.37,-0.00044118,-4488.1,0.2033
15908,5.9688,3.0909,0,0.00043977,4394.6,0.00015738,-0.0092967,0.00012397,-251,-0.0004435,-4514.7,0.19752
15909,6.0606,3.0909,0.05,1.1076e-06,11.068,8.5046e-07,6.3901,-3.5769e-12,4.6522e-07,-8.5046e-07,-6.39,0.20326
15910,6.0606,2.8182,0,0.00043768,4373.8,0.00015612,-0.0085726,0.00012428,-239.26,-0.00044126,-4488.5,0.20326
15911,5.9688,2.9091,0,0.00043977,4394.6,0.00015738,-0.0092967,0.00012397,-251,-0.0004435,-4514.7,0.19752
15912,6.0606,2.9091,0.05,1.1076e-06,11.068,8.5046e-07,6.3901,-6.0467e-14,-4.4251e-07,-8.5046e-07,-6.39,0.20326
15913,6.0606,2.6364,0,0.00043796,4376.6,0.00015606,-0.0079498,0.00012466,-235.94,-0.0004415,-4489.8,0.20314
15914,5.9688,2.7273,0,0.00043996,4396.6,0.00015733,-0.0088608,0.00012423,-248.68,-0.00044366,-4515.6,0.19744
15915,6.0606,2.7273,0.05,1.1078e-06,11.07,8.5066e-07,6.3915,-1.7292e-13,-1.3474e-06,-8.5066e-07,-6.3915,0.20318
15916,6.0606,2.4545,0,0.00043843,4381.2,0.00015594,-0.0069081,0.00012528,-230.44,-0.00044189,-4491.9,0.20293
15917,5.9688,2.5455,0,0.00044035,4400.4,0.00015724,-0.0079868,0.00012475,-244.06,-0.00044399,-4517.4,0.19727
15918,6.0606,2.5455,0.05,1.1083e-06,11.075,8.5104e-07,6.3944,-2.9235e-13,-3.0068e-07,-8.5104e-07,-6.3944,0.20301
15919,6.0606,2.2727,0,0.00043907,4387.7,0.00015579,-0.0054385,0.00012613,-222.81,-0.00044243,-4494.8,0.20264
15920,5.9688,2.3636,0,0.00044093,4406.2,0.0001571,-0.0066693,0.00012553,-237.18,-0.00044448,-4520,0.19703
15921,6.0606,2.3636,0.05,1.109e-06,11.082,8.5156e-07,6.3983,-4.2665e-13,-1.084e-06,-8.5157e-07,-6.3983,0.20277
15922,6.0606,2.0909,0,0.00043988,4395.8,0.00015559,-0.0035257,0.00012722,-213.14,-0.00044312,-4498.5,0.20227
15923,5.9688,2.1818,0,0.00044169,4413.8,0.00015691,-0.0048938,0.00012655,-228.13,-0.00044513,-4523.5,0.1967
15924,6.0606,2.1818,0.05,1.1098e-06,11.09,8.5219e-07,6.403,1.2513e-12,-3.6492e-06,-8.5218e-07,-6.403,0.20244
15925,6.0606,1.9091,0,0.00044087,4405.6,0.00015535,-0.001146,0.00012853,-201.51,-0.00044395,-4502.9,0.20181
15926,5.9688,2,0,0.00044263,4423.2,0.00015668,-0.0026411,0.00012781,-216.97,-0.00044592,-4527.7,0.19628
15927,6.0606,2,0.05,1.1106e-06,11.099,8.5284e-07,6.4079,-7.1009e-13,-4.1854e-06,-8.5284e-07,-6.4079,0.20202
15928,6.0606,1.7273,0,0.00044201,4417,0.00015508,0.00174,0.00013005,-188.04,-0.00044491,-4508,0.20127
15929,5.9688,1.8182,0,0.00044373,4434.3,0.00015641,0.00012195,0.00012928,-203.82,-0.00044685,-4532.7,0.19579
15930,6.0606,1.8182,0.05,1.1115e-06,11.107,8.5346e-07,6.4125,8.4295e-13,-6.3513e-06,-8.5346e-07,-6.4126,0.20153
15931,6.0606,1.5455,0,0.00044329,4429.9,0.00015476,0.0052091,0.00013176,-172.84,-0.00044598,-4513.8,0.20065
15932,5.9688,1.6364,0,0.000445,4446.9,0.0001561,0.003449,0.00013097,-188.81,-0.00044791,-4538.3,0.1952
15933,6.0606,1.6364,0.05,1.1121e-06,11.113,8.5395e-07,6.4162,2.4661e-12,-7.4578e-06,-8.5396e-07,-6.4164,0.20094
15934,6.0606,1.3636,0,0.00044471,4444.1,0.00015442,0.0093532,0.00013365,-156.06,-0.00044716,-4520,0.19993
15935,5.9688,1.4545,0,0.00044641,4461,0.00015576,0.0074536,0.00013285,-172.08,-0.00044909,-4544.6,0.19453
15936,6.0606,1.4545,0.05,1.1125e-06,11.117,8.5426e-07,6.4185,9.2031e-13,-7.6498e-06,-8.5425e-07,-6.4186,0.20027
15937,6.0606,1.1818,0,0.00044626,4459.5,0.00015404,0.014476,0.00013569,-137.85,-0.00044844,-4526.8,0.19913
15938,5.9688,1.2727,0,0.00044796,4476.5,0.00015538,0.012228,0.00013491,-153.77,-0.00045038,-4551.4,0.19378
15939,6.0606,1.2727,0.05,1.1125e-06,11.117,8.5427e-07,6.4186,4.1421e-12,-1.4438e-05,-8.5428e-07,-6.4188,0.19951
15940,6.0606,1,0,0.00044791,4476,0.00015364,0.020565,0.00013788,-118.36,-0.00044981,-4534,0.19824
15941,5.9688,1.0909,0,0.00044963,4493.2,0.00015497,0.01834,0.00013712,-134.06,-0.00045176,-4558.7,0.19293
15942,6.0606,1.0909,0.05,1.1121e-06,11.113,8.5392e-07,6.416,1.9289e-12,-4.6713e-06,-8.5393e-07,-6.416,0.19867
15943,6.0606,0.81818,0,0.00044966,4493.5,0.00015321,0.030039,0.00014019,-97.769,-0.00045124,-4541.6,0.19726
15944,5.9688,0.90909,0,0.0004514,4510.9,0.00015453,0.025253,0.00013947,-113.11,-0.00045322,-4566.4,0.19199
15945,6.0606,0.90909,0.05,1.111e-06,11.103,8.5312e-07,6.41,2.1101e-12,-1.2399e-05,-8.5313e-07,-6.4101,0.19773
15946,6.0606,0.63636,0,0.00045149,4511.8,0.00015276,0.037852,0.0001426,-76.242,-0.00045274,-4549.4,0.19618
15947,5.9688,0.72727,0,0.00045327,4529.5,0.00015407,0.038706,0.00014194,-91.098,-0.00045475,-4574.4,0.19096
15948,6.0606,0.72727,0.05,1.1093e-06,11.085,8.5177e-07,6.3999,2.1003e-12,-8.0096e-06,-8.5178e-07,-6.3999,0.1967
15949,6.0606,0.45455,0,0.00045339,4530.7,0.00015229,0.085854,0.0001451,-53.923,-0.00045428,-4557.4,0.19501
15950,5.9688,0.54545,0,0.00045521,4548.9,0.00015359,0.042926,0.0001445,-68.214,-0.00045633,-4582.6,0.18984
15951,6.0606,0.54545,0.05,1.1057e-06,11.049,8.4901e-07,6.3791,4.0362e-12,-1.0868e-05,-8.4901e-07,-6.3792,0.19558
15952,6.0606,0.27273,0,0.00045535,4550.4,0.0001518,0.11785,0.00014768,-30.871,-0.00045587,-4565.7,0.19374
15953,5.9688,0.36364,0,0.00045721,4569,0.00015309,0.14324,0.00014714,-44.569,-0.00045795,-4591,0.18862
15954,6.0606,0.36364,0.05,1.084e-06,10.833,8.3238e-07,6.2541,7.6727e-13,-1.2119e-05,-8.3238e-07,-6.2542,0.19436
15955,5.9688,0.18182,0,0.00045929,4589.8,0.00015258,0.1481,0.00014987,-20.215,-0.00045963,-4599.8,0.1873
15956,6.0606,0.18182,0.05,8.098e-07,8.0924,6.2182e-07,4.6721,1.7311e-12,-2.1811e-05,-6.2183e-07,-4.6722,0.19304
15957,6.0606,0.090909,0,0.0004571,4567.8,0.00015135,0.14261,0.00015,-10.041,-0.00045726,-4572.8,0.19238
15958,5.8769,5.7273,0,0.00046115,4608.3,0.00015386,0.1295,0.00014934,-33.88,-0.00046171,-4625.1,0.18228
15959,5.7851,5.8182,0,0.00046519,4648.7,0.00015463,0.16152,0.00015164,-22.307,-0.00046556,-4659.7,0.17599
15960,5.8769,5.8182,0.05,8.8142e-07,8.8081,6.7683e-07,5.0854,-2.0637e-12,3.3252e-05,-6.7681e-07,-5.0853,0.18158
15961,5.8769,5.9091,0,0.00046305,4627.3,0.00015337,0.1501,0.00015186,-11.189,-0.00046323,-4632.8,0.18091
15962,5.8769,5.5455,0,0.00045903,4587.1,0.00015439,0.094204,0.00014655,-58.85,-0.00046,-4616.2,0.18355
15963,5.7851,5.6364,0,0.00046295,4626.3,0.00015519,0.15691,0.00014869,-48.659,-0.00046376,-4650.4,0.17731
15964,5.8769,5.6364,0.05,1.1055e-06,11.047,8.4886e-07,6.378,-1.4869e-12,1.4293e-05,-8.4885e-07,-6.3779,0.18289
15965,5.8769,5.3636,0,0.00045698,4566.7,0.0001549,0.041632,0.00014384,-83.061,-0.00045834,-4607.6,0.18472
15966,5.7851,5.4545,0,0.00046078,4604.7,0.00015573,0.047328,0.00014583,-74.297,-0.000462,-4641.3,0.17853
15967,5.8769,5.4545,0.05,1.1239e-06,11.231,8.6304e-07,6.4846,-4.8768e-12,2.0716e-05,-8.6303e-07,-6.4844,0.18411
15968,5.8769,5.1818,0,0.000455,4546.9,0.0001554,0.032917,0.00014123,-106.43,-0.00045672,-4599.2,0.1858
15969,5.7851,5.2727,0,0.00045869,4583.7,0.00015625,0.042456,0.00014306,-99.13,-0.00046029,-4632.4,0.17965
15970,5.8769,5.2727,0.05,1.1273e-06,11.266,8.6565e-07,6.5042,-3.25e-12,1.9344e-05,-8.6565e-07,-6.5041,0.18524
15971,5.8769,5,0,0.00045311,4528,0.00015586,0.022464,0.00013872,-128.8,-0.00045517,-4591,0.18678
15972,5.7851,5.0909,0,0.00045667,4563.6,0.00015676,0.027643,0.00014038,-123.03,-0.00045864,-4623.8,0.18069
15973,5.8769,5.0909,0.05,1.129e-06,11.283,8.6697e-07,6.5142,-1.6488e-12,2.4156e-05,-8.6696e-07,-6.5139,0.18627
15974,5.8769,4.8182,0,0.00045133,4510.1,0.00015631,0.015734,0.00013634,-149.98,-0.00045369,-4583.3,0.18767
15975,5.7851,4.9091,0,0.00045475,4544.4,0.00015723,0.019999,0.00013783,-145.8,-0.00045706,-4615.5,0.18162
15976,5.8769,4.9091,0.05,1.13e-06,11.292,8.6768e-07,6.5194,-3.682e-12,1.3262e-05,-8.6767e-07,-6.5193,0.18721
15977,5.8769,4.6364,0,0.00044966,4493.5,0.00015672,0.010081,0.00013412,-169.79,-0.0004523,-4575.9,0.18847
15978,5.7851,4.7273,0,0.00045295,4526.4,0.00015768,0.013257,0.00013542,-167.24,-0.00045556,-4607.7,0.18247
15979,5.8769,4.7273,0.05,1.1303e-06,11.295,8.679e-07,6.5211,-2.2989e-12,1.9788e-05,-8.679e-07,-6.5209,0.18805
15980,5.8769,4.4545,0,0.00044812,4478.1,0.0001571,0.0055101,0.00013207,-188.05,-0.00045102,-4569.2,0.18919
15981,5.7851,4.5455,0,0.00045128,4509.7,0.0001581,0.0079923,0.00013319,-187.15,-0.00045417,-4600.3,0.18323
15982,5.8769,4.5455,0.05,1.13e-06,11.292,8.6772e-07,6.5197,-2.2022e-12,1.1468e-05,-8.6772e-07,-6.5196,0.18881
15983,5.8769,4.2727,0,0.00044673,4464.2,0.00015744,0.0016873,0.00013021,-204.6,-0.00044986,-4563,0.18981
15984,5.7851,4.3636,0,0.00044975,4494.4,0.00015847,0.0035808,0.00013114,-205.37,-0.00045289,-4593.6,0.18389
15985,5.8769,4.3636,0.05,1.1294e-06,11.286,8.6723e-07,6.5161,-2.3419e-12,1.285e-05,-8.6722e-07,-6.5159,0.18948
15986,5.8769,4.0909,0,0.00044549,4451.9,0.00015774,-0.0014907,0.00012856,-219.28,-0.00044882,-4557.4,0.19035
15987,5.7851,4.1818,0,0.00044838,4480.7,0.00015881,-8.1599e-05,0.0001293,-221.72,-0.00045174,-4587.5,0.18448
15988,5.8769,4.1818,0.05,1.1285e-06,11.277,8.6653e-07,6.5108,-2.5117e-12,8.9802e-06,-8.6652e-07,-6.5107,0.19006
15989,5.8769,3.9091,0,0.00044443,4441.2,0.000158,-0.0041095,0.00012713,-231.95,-0.00044792,-4552.7,0.19081
15990,5.7851,4,0,0.00044718,4468.7,0.00015911,-0.003121,0.00012769,-236.04,-0.00045073,-4582.1,0.18497
15991,5.8769,4,0.05,1.1274e-06,11.266,8.657e-07,6.5046,-9.9511e-13,5.9856e-06,-8.6571e-07,-6.5045,0.19056
15992,5.8769,3.7273,0,0.00044355,4432.4,0.00015822,-0.0062132,0.00012594,-242.49,-0.00044717,-4548.7,0.19118
15993,5.7851,3.8182,0,0.00044617,4458.6,0.00015936,-0.0055971,0.00012632,-248.2,-0.00044987,-4577.5,0.18539
15994,5.8769,3.8182,0.05,1.1263e-06,11.255,8.6486e-07,6.4983,-1.2024e-12,7.0043e-06,-8.6486e-07,-6.4981,0.19097
15995,5.8769,3.5455,0,0.00044285,4425.4,0.00015839,-0.0078285,0.00012501,-250.8,-0.00044658,-4545.5,0.19147
15996,5.7851,3.6364,0,0.00044534,4450.3,0.00015956,-0.0075477,0.00012521,-258.08,-0.00044917,-4573.8,0.18571
15997,5.8769,3.6364,0.05,1.1253e-06,11.245,8.6407e-07,6.4923,-1.3354e-12,3.8033e-06,-8.6407e-07,-6.4922,0.1913
15998,5.8769,3.3636,0,0.00044235,4420.4,0.00015851,-0.0089731,0.00012433,-256.8,-0.00044616,-4543.2,0.19167
15999,5.7851,3.4545,0,0.00044472,4444.1,0.00015971,-0.0089943,0.00012437,-265.58,-0.00044864,-4570.9,0.18596
16000,5.8769,3.4545,0.05,1.1244e-06,11.236,8.6341e-07,6.4873,-1.4725e-12,2.3397e-06,-8.6341e-07,-6.4873,0.19155
16001,5.8769,3.1818,0,0.00044205,4417.4,0.00015858,-0.0096573,0.00012392,-260.42,-0.0004459,-4541.9,0.19179
16002,5.7851,3.2727,0,0.0004443,4439.9,0.00015982,-0.0099536,0.0001238,-270.62,-0.00044828,-4569,0.18612
16003,5.8769,3.2727,0.05,1.1238e-06,11.23,8.6294e-07,6.4838,-5.2453e-12,1.4531e-06,-8.6293e-07,-6.4838,0.19171
16004,5.8769,3,0,0.00044194,4416.4,0.00015861,-0.009885,0.00012379,-261.64,-0.00044581,-4541.4,0.19183
16005,5.7851,3.0909,0,0.00044409,4437.8,0.00015987,-0.010432,0.00012352,-273.15,-0.0004481,-4568.1,0.1862
16006,5.8769,3.0909,0.05,1.1235e-06,11.227,8.6269e-07,6.4819,6.5969e-14,4.9e-07,-8.6269e-07,-6.4819,0.1918
16007,5.8769,2.8182,0,0.00044205,4417.4,0.00015858,-0.0096574,0.00012392,-260.42,-0.0004459,-4541.9,0.19179
16008,5.7851,2.9091,0,0.00044409,4437.8,0.00015987,-0.010432,0.00012352,-273.15,-0.0004481,-4568.1,0.1862
16009,5.8769,2.9091,0.05,1.1235e-06,11.227,8.6269e-07,6.4819,-6.4396e-14,-4.9e-07,-8.6269e-07,-6.4819,0.1918
16010,5.8769,2.6364,0,0.00044235,4420.4,0.00015851,-0.0089731,0.00012433,-256.8,-0.00044616,-4543.2,0.19167
16011,5.7851,2.7273,0,0.0004443,4439.9,0.00015982,-0.0099535,0.0001238,-270.62,-0.00044828,-4569,0.18612
16012,5.8769,2.7273,0.05,1.1238e-06,11.23,8.6294e-07,6.4838,-2.0095e-12,-1.4477e-06,-8.6294e-07,-6.4838,0.19171
16013,5.8769,2.4545,0,0.00044285,4425.4,0.00015839,-0.0078284,0.00012501,-250.8,-0.00044658,-4545.5,0.19147
16014,5.7851,2.5455,0,0.00044472,4444.1,0.00015971,-0.0089942,0.00012437,-265.58,-0.00044864,-4570.9,0.18596
16015,5.8769,2.5455,0.05,1.1244e-06,11.236,8.6341e-07,6.4873,-3.1666e-13,-2.3397e-06,-8.6341e-07,-6.4873,0.19155
16016,5.8769,2.2727,0,0.00044355,4432.4,0.00015822,-0.0062128,0.00012594,-242.49,-0.00044717,-4548.7,0.19118
16017,5.7851,2.3636,0,0.00044534,4450.3,0.00015956,-0.0075473,0.00012521,-258.08,-0.00044917,-4573.8,0.18571
16018,5.8769,2.3636,0.05,1.1253e-06,11.245,8.6407e-07,6.4922,-4.2617e-13,-1.9646e-06,-8.6407e-07,-6.4923,0.1913
16019,5.8769,2.0909,0,0.00044443,4441.2,0.000158,-0.0041092,0.00012713,-231.95,-0.00044792,-4552.7,0.19081
16020,5.7851,2.1818,0,0.00044617,4458.6,0.00015936,-0.0055968,0.00012632,-248.2,-0.00044987,-4577.5,0.18539
16021,5.8769,2.1818,0.05,1.1263e-06,11.255,8.6486e-07,6.4982,1.2676e-12,-4.9692e-06,-8.6486e-07,-6.4982,0.19097
16022,5.8769,1.9091,0,0.00044549,4451.9,0.00015774,-0.0014904,0.00012856,-219.28,-0.00044882,-4557.4,0.19035
16023,5.7851,2,0,0.00044718,4468.7,0.00015911,-0.0031206,0.00012769,-236.04,-0.00045073,-4582.1,0.18497
16024,5.8769,2,0.05,1.1274e-06,11.266,8.6571e-07,6.5046,-5.9705e-13,-4.4929e-06,-8.657e-07,-6.5046,0.19056
16025,5.8769,1.7273,0,0.00044673,4464.2,0.00015744,0.0016879,0.00013021,-204.6,-0.00044986,-4563,0.18981
16026,5.7851,1.8182,0,0.00044838,4480.7,0.00015881,-8.1105e-05,0.0001293,-221.72,-0.00045174,-4587.5,0.18448
16027,5.8769,1.8182,0.05,1.1285e-06,11.277,8.6652e-07,6.5107,9.9142e-13,-3.0842e-06,-8.6653e-07,-6.5107,0.19006
16028,5.8769,1.5455,0,0.00044812,4478.1,0.0001571,0.0055109,0.00013207,-188.05,-0.00045102,-4569.2,0.18919
16029,5.7851,1.6364,0,0.00044975,4494.4,0.00015847,0.0035815,0.00013114,-205.37,-0.00045289,-4593.6,0.18389
16030,5.8769,1.6364,0.05,1.1294e-06,11.286,8.6723e-07,6.516,8.972e-13,-5.1998e-06,-8.6723e-07,-6.516,0.18948
16031,5.8769,1.3636,0,0.00044966,4493.5,0.00015672,0.010081,0.00013412,-169.79,-0.0004523,-4575.9,0.18847
16032,5.7851,1.4545,0,0.00045128,4509.7,0.0001581,0.0079931,0.00013319,-187.15,-0.00045417,-4600.3,0.18323
16033,5.8769,1.4545,0.05,1.13e-06,11.292,8.6772e-07,6.5196,2.3689e-12,-1.1573e-05,-8.6772e-07,-6.5197,0.18881
16034,5.8769,1.1818,0,0.00045133,4510.1,0.00015631,0.015735,0.00013634,-149.98,-0.00045369,-4583.3,0.18767
16035,5.7851,1.2727,0,0.00045295,4526.4,0.00015768,0.013257,0.00013542,-167.24,-0.00045556,-4607.7,0.18247
16036,5.8769,1.2727,0.05,1.1303e-06,11.295,8.679e-07,6.521,-1.1405e-12,-1.6287e-05,-8.679e-07,-6.5211,0.18805
16037,5.8769,1,0,0.00045311,4528,0.00015586,0.022465,0.00013872,-128.8,-0.00045517,-4591,0.18678
16038,5.7851,1.0909,0,0.00045475,4544.4,0.00015723,0.019999,0.00013783,-145.8,-0.00045706,-4615.5,0.18162
16039,5.8769,1.0909,0.05,1.13e-06,11.292,8.6767e-07,6.5193,3.9151e-12,-1.1607e-05,-8.6768e-07,-6.5194,0.18721
16040,5.8769,0.81818,0,0.000455,4546.9,0.0001554,0.032918,0.00014123,-106.43,-0.00045672,-4599.2,0.1858
16041,5.7851,0.90909,0,0.00045667,4563.6,0.00015676,0.027645,0.00014038,-123.03,-0.00045864,-4623.8,0.18069
16042,5.8769,0.90909,0.05,1.129e-06,11.283,8.6697e-07,6.514,5.0784e-13,-1.3127e-05,-8.6697e-07,-6.5141,0.18627
16043,5.8769,0.63636,0,0.00045698,4566.7,0.0001549,0.041633,0.00014384,-83.061,-0.00045834,-4607.6,0.18472
16044,5.7851,0.72727,0,0.00045869,4583.7,0.00015625,0.042457,0.00014306,-99.13,-0.00046029,-4632.4,0.17965
16045,5.8769,0.72727,0.05,1.1273e-06,11.266,8.6565e-07,6.5041,1.8708e-12,-1.3486e-05,-8.6566e-07,-6.5042,0.18524
16046,5.8769,0.45455,0,0.00045903,4587.1,0.00015439,0.094205,0.00014655,-58.85,-0.00046,-4616.2,0.18355
16047,5.7851,0.54545,0,0.00046078,4604.7,0.00015573,0.047329,0.00014583,-74.297,-0.000462,-4641.3,0.17853
16048,5.8769,0.54545,0.05,1.1239e-06,11.231,8.6303e-07,6.4844,3.5427e-12,-1.4243e-05,-8.6304e-07,-6.4846,0.18411
16049,5.8769,0.27273,0,0.00046115,4608.3,0.00015386,0.1295,0.00014934,-33.88,-0.00046171,-4625.1,0.18228
16050,5.7851,0.36364,0,0.00046295,4626.3,0.00015519,0.15691,0.00014869,-48.659,-0.00046376,-4650.4,0.17731
16051,5.8769,0.36364,0.05,1.1055e-06,11.047,8.4885e-07,6.3779,-1.7208e-12,-7.9305e-06,-8.4886e-07,-6.378,0.18289
16052,5.7851,0.18182,0,0.00046519,4648.7,0.00015463,0.16152,0.00015164,-22.307,-0.00046556,-4659.7,0.17599
16053,5.8769,0.18182,0.05,8.8142e-07,8.8081,6.7682e-07,5.0853,3.9108e-12,-3.2824e-05,-6.7683e-07,-5.0855,0.18158
16054,5.8769,0.090909,0,0.00046305,4627.3,0.00015337,0.1501,0.00015186,-11.189,-0.00046324,-4632.8,0.18091
16055,5.6933,5.7273,0,0.00046699,4666.7,0.00015595,0.14254,0.000151,-37.044,-0.0004676,-4685,0.17112
16056,5.6014,5.8182,0,0.00047114,4708.1,0.0001567,0.17745,0.00015342,-24.471,-0.00047155,-4720.2,0.16499
16057,5.6933,5.8182,0.05,9.587e-07,9.5804,7.3616e-07,5.5313,-2.6314e-12,3.4107e-05,-7.3616e-07,-5.5312,0.17042
16058,5.6933,5.9091,0,0.00046905,4687.3,0.00015541,0.15871,0.00015374,-12.372,-0.00046926,-4693.4,0.16975
16059,5.6933,5.5455,0,0.0004647,4643.8,0.00015652,0.10334,0.00014798,-64.093,-0.00046576,-4675.5,0.17239
16060,5.6014,5.6364,0,0.00046872,4684,0.00015731,0.17184,0.00015024,-52.991,-0.0004696,-4710.2,0.16631
16061,5.6933,5.6364,0.05,1.1287e-06,11.28,8.6673e-07,6.5123,-2.4432e-12,1.6978e-05,-8.6672e-07,-6.5122,0.17174
16062,5.6933,5.3636,0,0.00046249,4621.7,0.00015708,0.045783,0.00014505,-90.354,-0.00046396,-4666.2,0.17357
16063,5.6014,5.4545,0,0.00046639,4660.6,0.0001579,0.052178,0.00014714,-80.787,-0.00046771,-4700.5,0.16753
16064,5.6933,5.4545,0.05,1.1438e-06,11.43,8.7827e-07,6.599,-2.928e-12,9.6282e-06,-8.7827e-07,-6.599,0.17296
16065,5.6933,5.1818,0,0.00046035,4600.4,0.00015762,0.036075,0.00014221,-115.72,-0.00046221,-4657.1,0.17464
16066,5.6014,5.2727,0,0.00046412,4638,0.00015847,0.046569,0.00014412,-107.73,-0.00046586,-4690.9,0.16866
16067,5.6933,5.2727,0.05,1.147e-06,11.462,8.8074e-07,6.6176,3.0838e-13,2.7759e-05,-8.8073e-07,-6.6174,0.17409
16068,5.6933,5,0,0.00045831,4580,0.00015813,0.024555,0.00013949,-140.02,-0.00046053,-4648.3,0.17563
16069,5.6014,5.0909,0,0.00046194,4616.3,0.00015902,0.030275,0.00014122,-133.69,-0.00046407,-4681.6,0.16969
16070,5.6933,5.0909,0.05,1.1486e-06,11.478,8.8201e-07,6.6271,-1.4026e-12,1.5503e-05,-8.82e-07,-6.627,0.17512
16071,5.6933,4.8182,0,0.00045638,4560.6,0.00015861,0.017126,0.00013691,-163.04,-0.00045893,-4640,0.17652
16072,5.6014,4.9091,0,0.00045987,4595.5,0.00015954,0.02183,0.00013845,-158.43,-0.00046236,-4672.7,0.17063
16073,5.6933,4.9091,0.05,1.1494e-06,11.486,8.8262e-07,6.6317,-1.7944e-12,9.9863e-06,-8.8261e-07,-6.6316,0.17606
16074,5.6933,4.6364,0,0.00045457,4542.6,0.00015906,0.010894,0.00013449,-184.59,-0.00045743,-4632.1,0.17732
16075,5.6014,4.7273,0,0.00045792,4576.1,0.00016003,0.014402,0.00013584,-181.74,-0.00046074,-4664.2,0.17147
16076,5.6933,4.7273,0.05,1.1495e-06,11.487,8.827e-07,6.6323,-1.66e-12,1.1982e-05,-8.8269e-07,-6.6322,0.1769
16077,5.6933,4.4545,0,0.00045291,4526,0.00015947,0.0058601,0.00013226,-204.46,-0.00045604,-4624.7,0.17803
16078,5.6014,4.5455,0,0.00045611,4558,0.00016048,0.0086038,0.00013341,-203.41,-0.00045923,-4656.3,0.17223
16079,5.6933,4.5455,0.05,1.1491e-06,11.483,8.8233e-07,6.6295,-2.0501e-12,1.276e-05,-8.8233e-07,-6.6294,0.17766
16080,5.6933,4.2727,0,0.0004514,4510.9,0.00015985,0.001653,0.00013024,-222.48,-0.00045478,-4618.1,0.17866
16081,5.6014,4.3636,0,0.00045446,4541.5,0.00016089,0.0037502,0.00013118,-223.24,-0.00045785,-4649,0.17289
16082,5.6933,4.3636,0.05,1.1481e-06,11.473,8.8163e-07,6.6243,-2.208e-12,1.432e-05,-8.8162e-07,-6.6241,0.17833
16083,5.6933,4.0909,0,0.00045007,4497.6,0.00016018,-0.0018421,0.00012844,-238.48,-0.00045365,-4612.1,0.17919
16084,5.6014,4.1818,0,0.00045298,4526.7,0.00016126,-0.00027635,0.00012918,-241.05,-0.0004566,-4642.4,0.17347
16085,5.6933,4.1818,0.05,1.1469e-06,11.461,8.807e-07,6.6172,-2.371e-12,7.5891e-06,-8.8069e-07,-6.6172,0.17891
16086,5.6933,3.9091,0,0.00044892,4486.1,0.00016046,-0.0047197,0.00012689,-252.29,-0.00045268,-4606.9,0.17965
16087,5.6014,4,0,0.00045168,4513.7,0.00016159,-0.003615,0.00012743,-256.66,-0.0004555,-4636.6,0.17397
16088,5.6933,4,0.05,1.1456e-06,11.448,8.7964e-07,6.6093,-9.2216e-13,6.3298e-06,-8.7964e-07,-6.6092,0.1794
16089,5.6933,3.7273,0,0.00044796,4476.5,0.0001607,-0.0070298,0.00012559,-263.79,-0.00045187,-4602.6,0.18002
16090,5.6014,3.8182,0,0.00045058,4502.7,0.00016186,-0.0063328,0.00012594,-269.92,-0.00045457,-4631.6,0.17438
16091,5.6933,3.8182,0.05,1.1442e-06,11.434,8.7858e-07,6.6013,-4.6494e-12,6.5449e-06,-8.7857e-07,-6.6012,0.17981
16092,5.6933,3.5455,0,0.00044721,4469,0.00016089,-0.0088028,0.00012457,-272.85,-0.00045123,-4599.2,0.1803
16093,5.6014,3.6364,0,0.00044969,4493.8,0.00016208,-0.0084722,0.00012473,-280.69,-0.00045381,-4627.6,0.1747
16094,5.6933,3.6364,0.05,1.1429e-06,11.421,8.776e-07,6.5939,-1.2538e-12,3.4485e-06,-8.776e-07,-6.5939,0.18014
16095,5.6933,3.3636,0,0.00044667,4463.6,0.00016102,-0.010059,0.00012384,-279.39,-0.00045076,-4596.7,0.18051
16096,5.6014,3.4545,0,0.00044902,4487.1,0.00016225,-0.010058,0.00012381,-288.87,-0.00045323,-4624.5,0.17495
16097,5.6933,3.4545,0.05,1.1418e-06,11.41,8.7678e-07,6.5879,-1.4463e-12,3.3069e-06,-8.7678e-07,-6.5877,0.18039
16098,5.6933,3.1818,0,0.00044634,4460.3,0.0001611,-0.010809,0.00012339,-283.35,-0.00045048,-4595.2,0.18063
16099,5.6014,3.2727,0,0.00044856,4482.5,0.00016237,-0.011109,0.00012319,-294.37,-0.00045284,-4622.4,0.17511
16100,5.6933,3.2727,0.05,1.1411e-06,11.403,8.762e-07,6.5835,-1.606e-12,1.986e-06,-8.762e-07,-6.5833,0.18055
16101,5.6933,3,0,0.00044623,4459.2,0.00016113,-0.011058,0.00012324,-284.67,-0.00045039,-4594.7,0.18067
16102,5.6014,3.0909,0,0.00044833,4480.2,0.00016242,-0.011633,0.00012288,-297.14,-0.00045265,-4621.4,0.17519
16103,5.6933,3.0909,0.05,1.1407e-06,11.399,8.759e-07,6.5812,7.109e-14,5.2712e-07,-8.759e-07,-6.5812,0.18063
16104,5.6933,2.8182,0,0.00044634,4460.3,0.0001611,-0.010809,0.00012339,-283.35,-0.00045048,-4595.2,0.18063
16105,5.6014,2.9091,0,0.00044833,4480.2,0.00016242,-0.011633,0.00012288,-297.14,-0.00045265,-4621.4,0.17519
16106,5.6933,2.9091,0.05,1.1407e-06,11.399,8.759e-07,6.5812,-6.9208e-14,-5.2903e-07,-8.759e-07,-6.5812,0.18063
16107,5.6933,2.6364,0,0.00044667,4463.6,0.00016102,-0.010058,0.00012384,-279.39,-0.00045076,-4596.7,0.18051
16108,5.6014,2.7273,0,0.00044856,4482.5,0.00016237,-0.011109,0.00012319,-294.37,-0.00045284,-4622.4,0.17511
16109,5.6933,2.7273,0.05,1.1411e-06,11.403,8.762e-07,6.5834,-2.095e-13,-1.5628e-06,-8.762e-07,-6.5834,0.18055
16110,5.6933,2.4545,0,0.00044721,4469,0.00016089,-0.0088026,0.00012457,-272.85,-0.00045123,-4599.2,0.1803
16111,5.6014,2.5455,0,0.00044902,4487.1,0.00016225,-0.010058,0.00012381,-288.87,-0.00045323,-4624.5,0.17495
16112,5.6933,2.5455,0.05,1.1418e-06,11.41,8.7678e-07,6.5878,1.4671e-12,-2.553e-06,-8.7678e-07,-6.5878,0.18039
16113,5.6933,2.2727,0,0.00044796,4476.5,0.0001607,-0.0070295,0.00012559,-263.79,-0.00045187,-4602.6,0.18002
16114,5.6014,2.3636,0,0.00044969,4493.8,0.00016208,-0.008472,0.00012473,-280.69,-0.00045381,-4627.6,0.1747
16115,5.6933,2.3636,0.05,1.1429e-06,11.421,8.776e-07,6.5939,-4.9891e-13,-3.4485e-06,-8.776e-07,-6.5939,0.18014
16116,5.6933,2.0909,0,0.00044892,4486.1,0.00016046,-0.0047193,0.00012689,-252.29,-0.00045268,-4606.9,0.17965
16117,5.6014,2.1818,0,0.00045058,4502.7,0.00016186,-0.0063324,0.00012594,-269.92,-0.00045457,-4631.6,0.17438
16118,5.6933,2.1818,0.05,1.1442e-06,11.434,8.7858e-07,6.6013,3.0003e-12,-4.1588e-06,-8.7858e-07,-6.6013,0.17981
16119,5.6933,1.9091,0,0.00045007,4497.6,0.00016018,-0.0018416,0.00012844,-238.48,-0.00045365,-4612.1,0.17919
16120,5.6014,2,0,0.00045168,4513.7,0.00016159,-0.0036146,0.00012743,-256.66,-0.0004555,-4636.6,0.17397
16121,5.6933,2,0.05,1.1456e-06,11.448,8.7965e-07,6.6093,-6.4014e-13,-4.8171e-06,-8.7964e-07,-6.6093,0.1794
16122,5.6933,1.7273,0,0.0004514,4510.9,0.00015985,0.0016536,0.00013024,-222.48,-0.00045478,-4618.1,0.17866
16123,5.6014,1.8182,0,0.00045298,4526.7,0.00016126,-0.00027577,0.00012918,-241.05,-0.0004566,-4642.4,0.17347
16124,5.6933,1.8182,0.05,1.1469e-06,11.461,8.8069e-07,6.6172,2.3819e-12,-5.845e-06,-8.807e-07,-6.6172,0.17891
16125,5.6933,1.5455,0,0.00045291,4526,0.00015947,0.0058608,0.00013226,-204.46,-0.00045604,-4624.7,0.17803
16126,5.6014,1.6364,0,0.00045446,4541.5,0.00016089,0.0037508,0.00013118,-223.24,-0.00045785,-4649,0.17289
16127,5.6933,1.6364,0.05,1.1481e-06,11.473,8.8162e-07,6.6241,2.5337e-12,-1.1486e-05,-8.8163e-07,-6.6242,0.17833
16128,5.6933,1.3636,0,0.00045457,4542.6,0.00015906,0.010895,0.00013449,-184.59,-0.00045743,-4632.1,0.17732
16129,5.6014,1.4545,0,0.00045611,4558,0.00016048,0.0086046,0.00013341,-203.41,-0.00045923,-4656.3,0.17223
16130,5.6933,1.4545,0.05,1.1491e-06,11.483,8.8232e-07,6.6295,5.2441e-13,-5.7137e-06,-8.8233e-07,-6.6295,0.17766
16131,5.6933,1.1818,0,0.00045638,4560.6,0.00015861,0.017126,0.00013691,-163.04,-0.00045893,-4640,0.17652
16132,5.6014,1.2727,0,0.00045792,4576.1,0.00016003,0.014403,0.00013584,-181.74,-0.00046074,-4664.2,0.17147
16133,5.6933,1.2727,0.05,1.1495e-06,11.487,8.8269e-07,6.6322,1.8929e-13,-1.3758e-05,-8.827e-07,-6.6323,0.1769
16134,5.6933,1,0,0.00045831,4580,0.00015813,0.024556,0.00013949,-140.02,-0.00046053,-4648.3,0.17563
16135,5.6014,1.0909,0,0.00045987,4595.5,0.00015954,0.02183,0.00013845,-158.43,-0.00046236,-4672.7,0.17063
16136,5.6933,1.0909,0.05,1.1494e-06,11.486,8.8261e-07,6.6317,1.779e-12,-5.2801e-06,-8.8262e-07,-6.6317,0.17606
16137,5.6933,0.81818,0,0.00046035,4600.4,0.00015762,0.036076,0.00014221,-115.72,-0.00046221,-4657.1,0.17464
16138,5.6014,0.90909,0,0.00046194,4616.3,0.00015902,0.030277,0.00014122,-133.69,-0.00046407,-4681.6,0.16969
16139,5.6933,0.90909,0.05,1.1486e-06,11.478,8.82e-07,6.627,4.3354e-14,-1.0225e-05,-8.82e-07,-6.6271,0.17512
16140,5.6933,0.63636,0,0.00046249,4621.7,0.00015708,0.045784,0.00014505,-90.354,-0.00046396,-4666.2,0.17357
16141,5.6014,0.72727,0,0.00046412,4638,0.00015847,0.04657,0.00014412,-107.73,-0.00046586,-4690.9,0.16866
16142,5.6933,0.72727,0.05,1.147e-06,11.462,8.8073e-07,6.6174,-3.2522e-13,-2.7918e-05,-8.8074e-07,-6.6176,0.17409
16143,5.6933,0.45455,0,0.0004647,4643.8,0.00015652,0.10334,0.00014798,-64.093,-0.00046576,-4675.5,0.17239
16144,5.6014,0.54545,0,0.00046639,4660.6,0.0001579,0.052178,0.00014714,-80.787,-0.00046771,-4700.5,0.16753
16145,5.6933,0.54545,0.05,1.1438e-06,11.43,8.7827e-07,6.599,1.2784e-12,-8.9575e-06,-8.7827e-07,-6.599,0.17296
16146,5.6933,0.27273,0,0.00046699,4666.7,0.00015595,0.14254,0.000151,-37.044,-0.0004676,-4685,0.17112
16147,5.6014,0.36364,0,0.00046872,4684,0.00015731,0.17184,0.00015024,-52.991,-0.0004696,-4710.2,0.16631
16148,5.6933,0.36364,0.05,1.1287e-06,11.28,8.6672e-07,6.5122,1.2768e-12,-1.6208e-05,-8.6673e-07,-6.5123,0.17174
16149,5.6014,0.18182,0,0.00047114,4708.1,0.0001567,0.17745,0.00015342,-24.471,-0.00047155,-4720.2,0.16499
16150,5.6933,0.18182,0.05,9.587e-07,9.5804,7.3616e-07,5.5312,3.3257e-12,-2.2162e-05,-7.3617e-07,-5.5313,0.17042
16151,5.6933,0.090909,0,0.00046905,4687.3,0.00015541,0.15871,0.00015374,-12.372,-0.00046926,-4693.4,0.16975
16152,5.5096,5.7273,0,0.00047287,4725.5,0.00015806,0.15716,0.00015266,-40.365,-0.00047354,-4745.4,0.16028
16153,5.4178,5.8182,0,0.00047714,4768.1,0.00015879,0.19627,0.00015521,-26.697,-0.00047759,-4781.3,0.15431
16154,5.5096,5.8182,0.05,1.042e-06,10.413,8.0014e-07,6.012,-1.1603e-12,4.4286e-05,-8.0014e-07,-6.0118,0.15958
16155,5.5096,5.9091,0,0.00047511,4747.8,0.00015747,0.16845,0.00015564,-13.584,-0.00047533,-4754.5,0.15891
16156,5.5096,5.5455,0,0.00047041,4700.8,0.00015868,0.11333,0.00014939,-69.667,-0.00047155,-4735.2,0.16156
16157,5.4178,5.6364,0,0.00047454,4742.1,0.00015946,0.18819,0.00015177,-57.571,-0.00047549,-4770.5,0.15563
16158,5.5096,5.6364,0.05,1.154e-06,11.532,8.8612e-07,6.6579,-3.695e-12,1.108e-05,-8.861e-07,-6.6579,0.1609
16159,5.5096,5.3636,0,0.00046802,4676.9,0.00015929,0.050349,0.00014622,-98.15,-0.00046961,-4725.2,0.16273
16160,5.4178,5.4545,0,0.00047201,4716.9,0.00016009,0.057529,0.00014841,-87.704,-0.00047344,-4760.1,0.15685
16161,5.5096,5.4545,0.05,1.1654e-06,11.646,8.9485e-07,6.7236,-3.7647e-12,1.8865e-05,-8.9484e-07,-6.7235,0.16212
16162,5.5096,5.1818,0,0.00046571,4653.9,0.00015987,0.039545,0.00014314,-125.68,-0.00046772,-4715.4,0.16381
16163,5.4178,5.2727,0,0.00046957,4692.4,0.00016072,0.051088,0.00014515,-116.94,-0.00047145,-4749.8,0.15798
16164,5.5096,5.2727,0.05,1.1684e-06,11.675,8.9715e-07,6.7409,-1.046e-12,2.4683e-05,-8.9715e-07,-6.7408,0.16325
16165,5.5096,5,0,0.0004635,4631.8,0.00016043,0.02686,0.00014019,-152.08,-0.0004659,-4706,0.16479
16166,5.4178,5.0909,0,0.00046722,4668.9,0.00016132,0.033177,0.000142,-145.12,-0.00046951,-4739.8,0.15901
16167,5.5096,5.0909,0.05,1.1699e-06,11.691,8.9837e-07,6.7501,-1.1247e-12,1.7269e-05,-8.9837e-07,-6.75,0.16428
16168,5.5096,4.8182,0,0.00046141,4611,0.00016096,0.018668,0.00013738,-177.11,-0.00046417,-4697,0.16568
16169,5.4178,4.9091,0,0.00046498,4646.6,0.00016189,0.023856,0.00013899,-172.01,-0.00046766,-4730.2,0.15994
16170,5.5096,4.9091,0.05,1.1706e-06,11.698,8.9889e-07,6.7539,-1.2706e-12,1.1011e-05,-8.9888e-07,-6.7538,0.16521
16171,5.5096,4.6364,0,0.00045946,4591.5,0.00016145,0.011808,0.00013476,-200.55,-0.00046254,-4688.4,0.16647
16172,5.4178,4.7273,0,0.00046287,4625.5,0.00016242,0.01568,0.00013615,-197.36,-0.00046591,-4721,0.16078
16173,5.5096,4.7273,0.05,1.1705e-06,11.697,8.988e-07,6.7533,-1.6872e-12,1.1951e-05,-8.9879e-07,-6.7532,0.16606
16174,5.5096,4.4545,0,0.00045766,4573.5,0.0001619,0.0062689,0.00013233,-222.18,-0.00046104,-4680.5,0.16718
16175,5.4178,4.5455,0,0.00046091,4606,0.00016292,0.009301,0.00013351,-220.94,-0.00046427,-4712.5,0.16153
16176,5.5096,4.5455,0.05,1.1698e-06,11.689,8.9823e-07,6.7489,-1.6468e-13,1.0558e-05,-8.9822e-07,-6.7489,0.16681
16177,5.5096,4.2727,0,0.00045604,4557.2,0.00016231,0.0016446,0.00013013,-241.8,-0.00045967,-4673.3,0.16781
16178,5.4178,4.3636,0,0.00045913,4588.1,0.00016337,0.0039669,0.00013109,-242.54,-0.00046277,-4704.6,0.1622
16179,5.5096,4.3636,0.05,1.1685e-06,11.677,8.9728e-07,6.7419,1.4087e-12,9.4765e-06,-8.9728e-07,-6.7418,0.16748
16180,5.5096,4.0909,0,0.00045459,4542.8,0.00016267,-0.0021939,0.00012817,-259.23,-0.00045845,-4666.9,0.16834
16181,5.4178,4.1818,0,0.00045753,4572.1,0.00016377,-0.00045421,0.00012891,-261.95,-0.00046142,-4697.4,0.16278
16182,5.5096,4.1818,0.05,1.167e-06,11.662,8.9609e-07,6.733,-2.5786e-12,1.0961e-05,-8.961e-07,-6.7328,0.16806
16183,5.5096,3.9091,0,0.00045335,4530.4,0.00016299,-0.0053515,0.00012648,-274.29,-0.00045739,-4661.3,0.16879
16184,5.4178,4,0,0.00045612,4558.1,0.00016413,-0.0041165,0.000127,-278.96,-0.00046023,-4691.2,0.16327
16185,5.5096,4,0.05,1.1653e-06,11.645,8.9479e-07,6.7231,-2.5978e-12,3.5358e-06,-8.9478e-07,-6.723,0.16855
16186,5.5096,3.7273,0,0.00045231,4520,0.00016325,-0.0078842,0.00012507,-286.83,-0.00045651,-4656.6,0.16916
16187,5.4178,3.8182,0,0.00045494,4546.2,0.00016443,-0.0070949,0.00012538,-293.42,-0.00045922,-4685.8,0.16367
16188,5.5096,3.8182,0.05,1.1636e-06,11.628,8.9348e-07,6.7133,-2.7931e-12,8.6552e-06,-8.9347e-07,-6.7131,0.16896
16189,5.5096,3.5455,0,0.0004515,4511.9,0.00016345,-0.0098268,0.00012396,-296.72,-0.00045581,-4652.9,0.16945
16190,5.4178,3.6364,0,0.00045397,4536.6,0.00016467,-0.0094373,0.00012406,-305.17,-0.00045839,-4681.5,0.164
16191,5.5096,3.6364,0.05,1.162e-06,11.612,8.9228e-07,6.7043,5.8996e-13,4.5565e-06,-8.9227e-07,-6.7042,0.16928
16192,5.5096,3.3636,0,0.00045091,4506,0.0001636,-0.011202,0.00012316,-303.85,-0.00045531,-4650.2,0.16965
16193,5.4178,3.4545,0,0.00045324,4529.3,0.00016486,-0.011173,0.00012305,-314.09,-0.00045777,-4678.2,0.16424
16194,5.5096,3.4545,0.05,1.1607e-06,11.599,8.9129e-07,6.6968,-1.3579e-12,2.7417e-06,-8.9128e-07,-6.6968,0.16953
16195,5.5096,3.1818,0,0.00045056,4502.5,0.00016369,-0.012023,0.00012267,-308.17,-0.00045501,-4648.6,0.16977
16196,5.4178,3.2727,0,0.00045275,4524.4,0.00016498,-0.012322,0.00012238,-320.09,-0.00045734,-4675.9,0.1644
16197,5.5096,3.2727,0.05,1.1598e-06,11.59,8.9059e-07,6.6915,-1.5703e-12,1.6854e-06,-8.9058e-07,-6.6915,0.16969
16198,5.5096,3,0,0.00045044,4501.3,0.00016372,-0.012296,0.00012251,-309.61,-0.00045491,-4648.1,0.16981
16199,5.4178,3.0909,0,0.0004525,4521.9,0.00016504,-0.012895,0.00012204,-323.11,-0.00045713,-4674.8,0.16449
16200,5.5096,3.0909,0.05,1.1593e-06,11.585,8.9022e-07,6.6888,-1.7405e-12,5.6963e-07,-8.9022e-07,-6.6888,0.16977
16201,5.5096,2.8182,0,0.00045056,4502.5,0.00016369,-0.012023,0.00012267,-308.17,-0.00045501,-4648.6,0.16977
16202,5.4178,2.9091,0,0.0004525,4521.9,0.00016504,-0.012895,0.00012204,-323.11,-0.00045713,-4674.8,0.16449
16203,5.5096,2.9091,0.05,1.1593e-06,11.585,8.9022e-07,6.6888,-1.8922e-12,-5.7066e-07,-8.9022e-07,-6.6888,0.16977
16204,5.5096,2.6364,0,0.00045091,4506,0.0001636,-0.011202,0.00012316,-303.85,-0.00045531,-4650.2,0.16965
16205,5.4178,2.7273,0,0.00045275,4524.4,0.00016498,-0.012322,0.00012238,-320.09,-0.00045734,-4675.9,0.1644
16206,5.5096,2.7273,0.05,1.1598e-06,11.59,8.9059e-07,6.6915,-2.0385e-12,-1.6977e-06,-8.9059e-07,-6.6915,0.16969
16207,5.5096,2.4545,0,0.0004515,4511.9,0.00016345,-0.0098267,0.00012396,-296.72,-0.00045581,-4652.9,0.16945
16208,5.4178,2.5455,0,0.00045324,4529.3,0.00016486,-0.011173,0.00012305,-314.09,-0.00045777,-4678.2,0.16424
16209,5.5096,2.5455,0.05,1.1607e-06,11.599,8.9129e-07,6.6968,-3.9459e-13,-2.762e-06,-8.9129e-07,-6.6968,0.16953
16210,5.5096,2.2727,0,0.00045231,4520,0.00016325,-0.0078839,0.00012507,-286.83,-0.00045651,-4656.6,0.16916
16211,5.4178,2.3636,0,0.00045397,4536.6,0.00016467,-0.0094372,0.00012406,-305.17,-0.00045839,-4681.5,0.164
16212,5.5096,2.3636,0.05,1.162e-06,11.612,8.9228e-07,6.7042,-4.8793e-13,-3.7566e-06,-8.9228e-07,-6.7042,0.16928
16213,5.5096,2.0909,0,0.00045335,4530.4,0.00016299,-0.0053511,0.00012648,-274.29,-0.00045739,-4661.3,0.16879
16214,5.4178,2.1818,0,0.00045494,4546.2,0.00016443,-0.0070945,0.00012538,-293.42,-0.00045922,-4685.8,0.16367
16215,5.5096,2.1818,0.05,1.1636e-06,11.628,8.9347e-07,6.7131,1.0886e-12,-8.726e-06,-8.9348e-07,-6.7133,0.16896
16216,5.5096,1.9091,0,0.00045459,4542.8,0.00016267,-0.0021934,0.00012817,-259.23,-0.00045845,-4666.9,0.16834
16217,5.4178,2,0,0.00045612,4558.1,0.00016413,-0.0041161,0.000127,-278.96,-0.00046023,-4691.2,0.16327
16218,5.5096,2,0.05,1.1653e-06,11.645,8.9478e-07,6.723,9.36e-13,-7.142e-06,-8.9479e-07,-6.7231,0.16855
16219,5.5096,1.7273,0,0.00045604,4557.2,0.00016231,0.0016451,0.00013013,-241.8,-0.00045967,-4673.3,0.16781
16220,5.4178,1.8182,0,0.00045753,4572.1,0.00016377,-0.00045361,0.00012891,-261.95,-0.00046142,-4697.4,0.16278
16221,5.5096,1.8182,0.05,1.167e-06,11.662,8.961e-07,6.7328,-9.2415e-13,-1.1058e-05,-8.9609e-07,-6.733,0.16806
16222,5.5096,1.5455,0,0.00045766,4573.5,0.0001619,0.0062695,0.00013233,-222.18,-0.00046104,-4680.5,0.16718
16223,5.4178,1.6364,0,0.00045913,4588.1,0.00016337,0.0039675,0.00013109,-242.54,-0.00046277,-4704.6,0.1622
16224,5.5096,1.6364,0.05,1.1685e-06,11.677,8.9728e-07,6.7418,-1.1816e-12,-9.4765e-06,-8.9729e-07,-6.7419,0.16748
16225,5.5096,1.3636,0,0.00045946,4591.5,0.00016145,0.011809,0.00013476,-200.55,-0.00046254,-4688.4,0.16647
16226,5.4178,1.4545,0,0.00046091,4606,0.00016292,0.0093017,0.00013351,-220.94,-0.00046427,-4712.5,0.16153
16227,5.5096,1.4545,0.05,1.1698e-06,11.689,8.9822e-07,6.7489,4.0949e-13,-5.7341e-06,-8.9823e-07,-6.7489,0.16681
16228,5.5096,1.1818,0,0.00046141,4611,0.00016096,0.018669,0.00013738,-177.11,-0.00046417,-4697,0.16568
16229,5.4178,1.2727,0,0.00046287,4625.5,0.00016242,0.015681,0.00013615,-197.36,-0.00046591,-4721,0.16078
16230,5.5096,1.2727,0.05,1.1705e-06,11.697,8.9879e-07,6.7532,1.6872e-12,-1.0887e-05,-8.988e-07,-6.7532,0.16606
16231,5.5096,1,0,0.0004635,4631.8,0.00016043,0.026861,0.00014019,-152.08,-0.0004659,-4706,0.16479
16232,5.4178,1.0909,0,0.00046498,4646.6,0.00016189,0.023857,0.00013899,-172.01,-0.00046766,-4730.2,0.15994
16233,5.5096,1.0909,0.05,1.1706e-06,11.698,8.9888e-07,6.7538,1.5678e-12,-9.5501e-06,-8.9888e-07,-6.7539,0.16521
16234,5.5096,0.81818,0,0.00046571,4653.9,0.00015987,0.039546,0.00014314,-125.68,-0.00046772,-4715.4,0.16381
16235,5.4178,0.90909,0,0.00046722,4668.9,0.00016132,0.033178,0.000142,-145.12,-0.00046951,-4739.8,0.15901
16236,5.5096,0.90909,0.05,1.1699e-06,11.691,8.9837e-07,6.75,1.8109e-12,-1.1513e-05,-8.9837e-07,-6.75,0.16428
16237,5.5096,0.63636,0,0.00046802,4676.9,0.00015929,0.05035,0.00014622,-98.15,-0.00046961,-4725.2,0.16273
16238,5.4178,0.72727,0,0.00046957,4692.4,0.00016072,0.051089,0.00014515,-116.94,-0.00047145,-4749.8,0.15798
16239,5.5096,0.72727,0.05,1.1684e-06,11.675,8.9715e-07,6.7408,1.4323e-12,-2.4983e-05,-8.9715e-07,-6.7409,0.16325
16240,5.5096,0.45455,0,0.00047041,4700.8,0.00015868,0.11333,0.00014939,-69.667,-0.00047155,-4735.2,0.16156
16241,5.4178,0.54545,0,0.00047201,4716.9,0.00016009,0.057529,0.00014841,-87.704,-0.00047344,-4760.1,0.15685
16242,5.5096,0.54545,0.05,1.1654e-06,11.646,8.9485e-07,6.7235,1.851e-12,-1.6656e-05,-8.9485e-07,-6.7236,0.16212
16243,5.5096,0.27273,0,0.00047287,4725.5,0.00015806,0.15716,0.00015266,-40.365,-0.00047354,-4745.4,0.16028
16244,5.4178,0.36364,0,0.00047454,4742.1,0.00015946,0.18819,0.00015177,-57.571,-0.00047549,-4770.5,0.15563
16245,5.5096,0.36364,0.05,1.154e-06,11.532,8.8611e-07,6.6579,1.4389e-12,-1.0338e-05,-8.8611e-07,-6.6579,0.1609
16246,5.4178,0.18182,0,0.00047714,4768.1,0.00015879,0.19627,0.00015521,-26.697,-0.00047759,-4781.3,0.15431
16247,5.5096,0.18182,0.05,1.042e-06,10.413,8.0014e-07,6.0119,1.8006e-12,-3.2935e-05,-8.0015e-07,-6.012,0.15958
16248,5.5096,0.090909,0,0.00047511,4747.8,0.00015747,0.16845,0.00015564,-13.584,-0.00047533,-4754.5,0.15891
16249,5.326,5.7273,0,0.00047881,4784.8,0.00016019,0.17357,0.00015433,-43.841,-0.00047953,-4806.4,0.14977
16250,5.2341,5.8182,0,0.0004832,4828.7,0.00016091,0.21848,0.00015702,-28.975,-0.00048369,-4843,0.14395
16251,5.326,5.8182,0.05,1.1318e-06,11.31,8.6907e-07,6.5299,-1.4279e-12,3.3673e-05,-8.6906e-07,-6.5297,0.14906
16252,5.326,5.9091,0,0.00048122,4808.9,0.00015955,0.17938,0.00015756,-14.817,-0.00048147,-4816.2,0.14839
16253,5.326,5.5455,0,0.00047614,4758.2,0.00016087,0.12429,0.00015079,-75.586,-0.00047738,-4795.4,0.15104
16254,5.2341,5.6364,0,0.00048039,4800.6,0.00016163,0.20609,0.0001533,-62.406,-0.00048142,-4831.4,0.14527
16255,5.326,5.6364,0.05,1.1814e-06,11.805,9.0714e-07,6.8159,3.7042e-13,2.8893e-05,-9.0712e-07,-6.8157,0.15038
16256,5.326,5.3636,0,0.00047356,4732.4,0.00016153,0.05538,0.00014735,-106.48,-0.00047529,-4784.7,0.15221
16257,5.2341,5.4545,0,0.00047767,4773.4,0.00016232,0.063438,0.00014966,-95.069,-0.00047921,-4820.2,0.14649
16258,5.326,5.4545,0.05,1.1888e-06,11.88,9.1289e-07,6.8592,-3.8176e-12,3.6828e-05,-9.1289e-07,-6.859,0.1516
16259,5.326,5.1818,0,0.00047107,4707.5,0.00016216,0.043365,0.00014401,-136.36,-0.00047324,-4774.2,0.15328
16260,5.2341,5.2727,0,0.00047503,4747,0.000163,0.056052,0.00014612,-126.79,-0.00047706,-4809.1,0.14762
16261,5.326,5.2727,0.05,1.1916e-06,11.908,9.1503e-07,6.8752,-2.3601e-12,2.0507e-05,-9.1503e-07,-6.8751,0.15273
16262,5.326,5,0,0.00046869,4683.7,0.00016277,0.029408,0.0001408,-165.03,-0.00047128,-4764,0.15426
16263,5.2341,5.0909,0,0.00047249,4721.6,0.00016365,0.036374,0.0001427,-157.39,-0.00047497,-4798.3,0.14864
16264,5.326,5.0909,0.05,1.1932e-06,11.923,9.1621e-07,6.8841,-2.4176e-12,1.8986e-05,-9.162e-07,-6.884,0.15375
16265,5.326,4.8182,0,0.00046643,4661.1,0.00016335,0.020383,0.00013776,-192.24,-0.0004694,-4754.2,0.15515
16266,5.2341,4.9091,0,0.00047007,4697.4,0.00016428,0.026095,0.00013944,-186.61,-0.00047296,-4787.9,0.14957
16267,5.326,4.9091,0.05,1.1937e-06,11.929,9.1662e-07,6.8871,2.2617e-13,2.4762e-05,-9.1661e-07,-6.887,0.15469
16268,5.326,4.6364,0,0.00046432,4640,0.00016389,0.012837,0.0001349,-217.74,-0.00046764,-4745,0.15594
16269,5.2341,4.7273,0,0.00046779,4674.7,0.00016486,0.017104,0.00013635,-214.18,-0.00047107,-4778.1,0.15041
16270,5.326,4.7273,0.05,1.1934e-06,11.925,9.1636e-07,6.8852,-3.1264e-12,2.2874e-05,-9.1635e-07,-6.8851,0.15553
16271,5.326,4.4545,0,0.00046238,4620.6,0.00016438,0.0067495,0.00013227,-241.29,-0.00046601,-4736.5,0.15665
16272,5.2341,4.5455,0,0.00046568,4653.6,0.0001654,0.010092,0.00013348,-239.85,-0.00046929,-4768.9,0.15116
16273,5.326,4.5455,0.05,1.1923e-06,11.915,9.1556e-07,6.8792,-3.347e-12,1.5507e-05,-9.1556e-07,-6.8791,0.15628
16274,5.326,4.2727,0,0.00046062,4603,0.00016483,0.0016725,0.00012987,-262.67,-0.00046452,-4728.7,0.15727
16275,5.2341,4.3636,0,0.00046375,4634.3,0.0001659,0.0042361,0.00013084,-263.37,-0.00046767,-4760.4,0.15182
16276,5.326,4.3636,0.05,1.1908e-06,11.899,9.1435e-07,6.8701,-1.9125e-12,1.0374e-05,-9.1435e-07,-6.8701,0.15694
16277,5.326,4.0909,0,0.00045906,4587.4,0.00016523,-0.0025373,0.00012774,-281.67,-0.0004632,-4721.8,0.1578
16278,5.2341,4.1818,0,0.00046202,4617,0.00016634,-0.00061206,0.00012848,-284.52,-0.0004662,-4752.7,0.15239
16279,5.326,4.1818,0.05,1.1888e-06,11.88,9.1288e-07,6.859,-3.8457e-12,8.8708e-06,-9.1287e-07,-6.859,0.15751
16280,5.326,3.9091,0,0.00045771,4574,0.00016557,-0.0059968,0.0001259,-298.08,-0.00046206,-4715.7,0.15825
16281,5.2341,4,0,0.0004605,4601.9,0.00016673,-0.0046233,0.0001264,-303.07,-0.00046491,-4745.9,0.15288
16282,5.326,4,0.05,1.1868e-06,11.859,9.1128e-07,6.847,-7.247e-13,7.8862e-06,-9.1128e-07,-6.847,0.158
16283,5.326,3.7273,0,0.0004566,4562.8,0.00016585,-0.0087689,0.00012436,-311.76,-0.0004611,-4710.7,0.15861
16284,5.2341,3.8182,0,0.00045922,4589,0.00016706,-0.0078816,0.00012463,-318.84,-0.00046381,-4740.1,0.15328
16285,5.326,3.8182,0.05,1.1847e-06,11.839,9.0971e-07,6.8352,-4.3822e-12,8.0141e-06,-9.097e-07,-6.8351,0.15841
16286,5.326,3.5455,0,0.00045571,4554,0.00016608,-0.010894,0.00012315,-322.55,-0.00046034,-4706.7,0.15889
16287,5.2341,3.6364,0,0.00045818,4578.6,0.00016733,-0.010442,0.00012319,-331.66,-0.00046292,-4735.4,0.15361
16288,5.326,3.6364,0.05,1.1828e-06,11.82,9.0827e-07,6.8244,-1.142e-12,5.9377e-06,-9.0826e-07,-6.8243,0.15873
16289,5.326,3.3636,0,0.00045508,4547.7,0.00016624,-0.012396,0.00012228,-330.34,-0.0004598,-4703.8,0.1591
16290,5.2341,3.4545,0,0.00045739,4570.7,0.00016753,-0.012337,0.0001221,-341.39,-0.00046224,-4731.8,0.15385
16291,5.326,3.4545,0.05,1.1813e-06,11.805,9.0708e-07,6.8155,-1.317e-12,3.4772e-06,-9.0707e-07,-6.8154,0.15898
16292,5.326,3.1818,0,0.0004547,4543.8,0.00016634,-0.013293,0.00012175,-335.04,-0.00045947,-4702.1,0.15922
16293,5.2341,3.2727,0,0.00045686,4565.4,0.00016767,-0.013591,0.00012136,-347.94,-0.00046178,-4729.4,0.15401
16294,5.326,3.2727,0.05,1.1802e-06,11.794,9.0624e-07,6.8091,-1.5725e-12,1.8356e-06,-9.0624e-07,-6.8091,0.15914
16295,5.326,3,0,0.00045457,4542.5,0.00016637,-0.013591,0.00012157,-336.62,-0.00045936,-4701.5,0.15926
16296,5.2341,3.0909,0,0.00045659,4562.7,0.00016774,-0.014215,0.00012099,-351.24,-0.00046155,-4728.2,0.15409
16297,5.326,3.0909,0.05,1.1796e-06,11.788,9.058e-07,6.8058,-1.7366e-12,6.1166e-07,-9.058e-07,-6.8058,0.15922
16298,5.326,2.8182,0,0.0004547,4543.8,0.00016634,-0.013293,0.00012175,-335.04,-0.00045947,-4702.1,0.15922
16299,5.2341,2.9091,0,0.00045659,4562.7,0.00016774,-0.014215,0.00012099,-351.24,-0.00046155,-4728.2,0.15409
16300,5.326,2.9091,0.05,1.1796e-06,11.788,9.058e-07,6.8058,-1.9006e-12,-6.1387e-07,-9.058e-07,-6.8058,0.15922
16301,5.326,2.6364,0,0.00045508,4547.7,0.00016624,-0.012396,0.00012228,-330.34,-0.0004598,-4703.8,0.1591
16302,5.2341,2.7273,0,0.00045686,4565.4,0.00016767,-0.013591,0.00012136,-347.94,-0.00046178,-4729.4,0.15401
16303,5.326,2.7273,0.05,1.1802e-06,11.794,9.0624e-07,6.8091,-2.4243e-13,-1.8488e-06,-9.0624e-07,-6.8091,0.15914
16304,5.326,2.4545,0,0.00045571,4554,0.00016608,-0.010893,0.00012315,-322.55,-0.00046034,-4706.7,0.15889
16305,5.2341,2.5455,0,0.00045739,4570.7,0.00016753,-0.012337,0.0001221,-341.39,-0.00046224,-4731.8,0.15385
16306,5.326,2.5455,0.05,1.1813e-06,11.805,9.0708e-07,6.8154,-4.2024e-13,-2.9632e-06,-9.0708e-07,-6.8154,0.15898
16307,5.326,2.2727,0,0.0004566,4562.8,0.00016585,-0.0087687,0.00012436,-311.76,-0.0004611,-4710.7,0.15861
16308,5.2341,2.3636,0,0.00045818,4578.6,0.00016733,-0.010441,0.00012319,-331.66,-0.00046292,-4735.4,0.15361
16309,5.326,2.3636,0.05,1.1828e-06,11.82,9.0826e-07,6.8243,1.2007e-12,-3.9667e-06,-9.0826e-07,-6.8243,0.15873
16310,5.326,2.0909,0,0.00045771,4574,0.00016557,-0.0059964,0.0001259,-298.08,-0.00046206,-4715.7,0.15825
16311,5.2341,2.1818,0,0.00045922,4589,0.00016706,-0.0078813,0.00012463,-318.84,-0.00046381,-4740.1,0.15328
16312,5.326,2.1818,0.05,1.1847e-06,11.839,9.097e-07,6.8351,2.8933e-12,-6.4318e-06,-9.097e-07,-6.8352,0.15841
16313,5.326,1.9091,0,0.00045906,4587.4,0.00016523,-0.0025368,0.00012774,-281.67,-0.0004632,-4721.8,0.1578
16314,5.2341,2,0,0.0004605,4601.9,0.00016673,-0.0046228,0.0001264,-303.07,-0.00046491,-4745.9,0.15288
16315,5.326,2,0.05,1.1868e-06,11.859,9.1128e-07,6.847,9.0372e-13,-5.4254e-06,-9.1128e-07,-6.847,0.158
16316,5.326,1.7273,0,0.00046062,4603,0.00016483,0.0016732,0.00012987,-262.67,-0.00046452,-4728.7,0.15727
16317,5.2341,1.8182,0,0.00046202,4617,0.00016634,-0.00061139,0.00012848,-284.52,-0.0004662,-4752.7,0.15239
16318,5.326,1.8182,0.05,1.1888e-06,11.88,9.1288e-07,6.859,7.0379e-13,-6.2351e-06,-9.1288e-07,-6.859,0.15751
16319,5.326,1.5455,0,0.00046238,4620.6,0.00016438,0.0067502,0.00013227,-241.29,-0.00046601,-4736.5,0.15665
16320,5.2341,1.6364,0,0.00046375,4634.3,0.0001659,0.0042368,0.00013084,-263.37,-0.00046767,-4760.4,0.15182
16321,5.326,1.6364,0.05,1.1908e-06,11.899,9.1435e-07,6.8701,4.3936e-13,-4.7193e-06,-9.1435e-07,-6.8701,0.15694
16322,5.326,1.3636,0,0.00046432,4640,0.00016389,0.012838,0.0001349,-217.74,-0.00046764,-4745,0.15594
16323,5.2341,1.4545,0,0.00046568,4653.6,0.0001654,0.010093,0.00013348,-239.85,-0.00046929,-4768.9,0.15116
16324,5.326,1.4545,0.05,1.1923e-06,11.915,9.1556e-07,6.8791,1.6681e-12,-1.4001e-05,-9.1556e-07,-6.8792,0.15628
16325,5.326,1.1818,0,0.00046643,4661.1,0.00016335,0.020384,0.00013776,-192.24,-0.0004694,-4754.2,0.15515
16326,5.2341,1.2727,0,0.00046779,4674.7,0.00016486,0.017105,0.00013635,-214.18,-0.00047107,-4778.1,0.15041
16327,5.326,1.2727,0.05,1.1934e-06,11.925,9.1635e-07,6.8851,1.7689e-12,-2.2874e-05,-9.1636e-07,-6.8852,0.15553
16328,5.326,1,0,0.00046869,4683.7,0.00016277,0.029409,0.0001408,-165.03,-0.00047128,-4764,0.15426
16329,5.2341,1.0909,0,0.00047007,4697.4,0.00016428,0.026096,0.00013944,-186.61,-0.00047296,-4787.9,0.14957
16330,5.326,1.0909,0.05,1.1937e-06,11.929,9.1661e-07,6.887,-1.2077e-12,-2.5053e-05,-9.1661e-07,-6.8871,0.15469
16331,5.326,0.81818,0,0.00047107,4707.5,0.00016216,0.043366,0.00014401,-136.36,-0.00047324,-4774.2,0.15328
16332,5.2341,0.90909,0,0.00047249,4721.6,0.00016365,0.036375,0.0001427,-157.39,-0.00047497,-4798.3,0.14864
16333,5.326,0.90909,0.05,1.1932e-06,11.923,9.162e-07,6.884,-3.7953e-13,-1.3152e-05,-9.1621e-07,-6.884,0.15375
16334,5.326,0.63636,0,0.00047356,4732.4,0.00016153,0.055381,0.00014735,-106.48,-0.00047529,-4784.7,0.15221
16335,5.2341,0.72727,0,0.00047503,4747,0.000163,0.056053,0.00014612,-126.79,-0.00047706,-4809.1,0.14762
16336,5.326,0.72727,0.05,1.1916e-06,11.908,9.1502e-07,6.8751,7.3332e-13,-1.8524e-05,-9.1503e-07,-6.8752,0.15273
16337,5.326,0.45455,0,0.00047614,4758.2,0.00016087,0.12429,0.00015079,-75.586,-0.00047738,-4795.4,0.15104
16338,5.2341,0.54545,0,0.00047767,4773.4,0.00016232,0.063438,0.00014966,-95.069,-0.00047921,-4820.2,0.14649
16339,5.326,0.54545,0.05,1.1888e-06,11.88,9.1289e-07,6.859,1.1505e-12,-3.6168e-05,-9.1289e-07,-6.8592,0.1516
16340,5.326,0.27273,0,0.00047881,4784.8,0.00016019,0.17357,0.00015433,-43.841,-0.00047953,-4806.4,0.14977
16341,5.2341,0.36364,0,0.00048039,4800.6,0.00016163,0.20609,0.0001533,-62.406,-0.00048142,-4831.4,0.14527
16342,5.326,0.36364,0.05,1.1813e-06,11.805,9.0713e-07,6.8157,1.1821e-12,-2.8244e-05,-9.0713e-07,-6.8159,0.15038
16343,5.2341,0.18182,0,0.0004832,4828.7,0.00016091,0.21848,0.00015702,-28.975,-0.00048369,-4843,0.14395
16344,5.326,0.18182,0.05,1.1318e-06,11.31,8.6907e-07,6.5298,3.2863e-12,-2.2125e-05,-8.6907e-07,-6.5299,0.14906
16345,5.326,0.090909,0,0.00048122,4808.9,0.00015955,0.17938,0.00015756,-14.817,-0.00048147,-4816.2,0.14839
16346,5.1423,5.7273,0,0.00048479,4844.5,0.00016234,0.19201,0.000156,-47.467,-0.00048558,-4868,0.13957
16347,5.0505,5.8182,0,0.00048932,4889.9,0.00016304,0.24466,0.00015885,-31.293,-0.00048984,-4905.3,0.13392
16348,5.1423,5.8182,0.05,1.2284e-06,12.275,9.4326e-07,7.0873,-2.0622e-12,4.4131e-05,-9.4325e-07,-7.0871,0.13886
16349,5.1423,5.9091,0,0.00048739,4870.5,0.00016165,0.19154,0.00015949,-16.064,-0.00048766,-4878.5,0.1382
16350,5.1423,5.5455,0,0.00048192,4815.8,0.00016308,0.1363,0.00015217,-81.862,-0.00048325,-4856.2,0.14084
16351,5.0505,5.6364,0,0.00048629,4859.5,0.00016383,0.22572,0.00015481,-67.498,-0.0004874,-4892.8,0.13524
16352,5.1423,5.6364,0.05,1.211e-06,12.102,9.2992e-07,6.9871,-2.2301e-12,2.2393e-05,-9.2991e-07,-6.987,0.14019
16353,5.1423,5.3636,0,0.00047913,4788,0.0001638,0.060918,0.00014844,-115.36,-0.00048099,-4844.6,0.14201
16354,5.0505,5.4545,0,0.00048335,4830.2,0.00016458,0.069968,0.00015088,-102.9,-0.00048502,-4880.8,0.13646
16355,5.1423,5.4545,0.05,1.2144e-06,12.136,9.3253e-07,7.0068,-3.3349e-12,4.0751e-05,-9.3253e-07,-7.0066,0.1414
16356,5.1423,5.1818,0,0.00047644,4761.1,0.00016449,0.047562,0.00014482,-147.8,-0.00047878,-4833.3,0.14308
16357,5.0505,5.2727,0,0.0004805,4801.7,0.00016532,0.061507,0.00014704,-137.31,-0.00048269,-4868.8,0.13757
16358,5.1423,5.2727,0.05,1.217e-06,12.162,9.3452e-07,7.0216,-1.9472e-12,3.0963e-05,-9.3451e-07,-7.0215,0.14252
16359,5.1423,5,0,0.00047387,4735.4,0.00016516,0.032215,0.00014134,-178.95,-0.00047666,-4822.3,0.14405
16360,5.0505,5.0909,0,0.00047776,4774.3,0.00016603,0.039896,0.00014333,-170.55,-0.00048043,-4857.2,0.13859
16361,5.1423,5.0909,0.05,1.2185e-06,12.177,9.3567e-07,7.0303,-4.8001e-13,2.9856e-05,-9.3566e-07,-7.0301,0.14355
16362,5.1423,4.8182,0,0.00047143,4711,0.00016579,0.022279,0.00013803,-208.53,-0.00047463,-4811.8,0.14493
16363,5.0505,4.9091,0,0.00047514,4748.2,0.00016671,0.028568,0.00013979,-202.3,-0.00047826,-4846.1,0.13952
16364,5.1423,4.9091,0.05,1.2189e-06,12.181,9.3597e-07,7.0325,-1.19e-12,2.0535e-05,-9.3596e-07,-7.0324,0.14447
16365,5.1423,4.6364,0,0.00046915,4688.3,0.00016638,0.013986,0.00013493,-236.27,-0.00047272,-4801.9,0.14572
16366,5.0505,4.7273,0,0.00047269,4723.6,0.00016735,0.018687,0.00013643,-232.29,-0.00047621,-4835.4,0.14035
16367,5.1423,4.7273,0.05,1.2183e-06,12.175,9.3554e-07,7.0293,-1.1669e-12,2.558e-05,-9.3553e-07,-7.0292,0.14531
16368,5.1423,4.4545,0,0.00046705,4667.3,0.00016692,0.0073021,0.00013206,-261.92,-0.00047095,-4792.7,0.14643
16369,5.0505,4.5455,0,0.0004704,4700.8,0.00016795,0.010986,0.00013331,-260.24,-0.00047429,-4825.5,0.1411
16370,5.1423,4.5455,0.05,1.217e-06,12.161,9.345e-07,7.0215,-3.115e-12,1.7223e-05,-9.3449e-07,-7.0214,0.14606
16371,5.1423,4.2727,0,0.00046515,4648.3,0.00016741,0.0017348,0.00012945,-285.21,-0.00046934,-4784.3,0.14704
16372,5.0505,4.3636,0,0.00046832,4680,0.00016849,0.0045645,0.00013044,-285.86,-0.00047253,-4816.3,0.14175
16373,5.1423,4.3636,0.05,1.215e-06,12.142,9.3301e-07,7.0103,-3.3861e-12,1.5772e-05,-9.3301e-07,-7.0102,0.14671
16374,5.1423,4.0909,0,0.00046346,4631.4,0.00016785,-0.002876,0.00012713,-305.91,-0.00046791,-4776.8,0.14757
16375,5.0505,4.1818,0,0.00046645,4661.3,0.00016898,-0.00074497,0.00012786,-308.9,-0.00047094,-4808.1,0.14232
16376,5.1423,4.1818,0.05,1.2127e-06,12.119,9.3122e-07,6.9969,-2.1414e-12,9.6986e-06,-9.3122e-07,-6.9968,0.14728
16377,5.1423,3.9091,0,0.00046201,4616.9,0.00016822,-0.00666,0.00012513,-323.81,-0.00046667,-4770.3,0.14801
16378,5.0505,4,0,0.00046482,4645,0.0001694,-0.0051314,0.0001256,-329.13,-0.00046954,-4800.8,0.1428
16379,5.1423,4,0.05,1.2102e-06,12.094,9.2931e-07,6.9825,1.0944e-12,8.7939e-06,-9.2931e-07,-6.9825,0.14777
16380,5.1423,3.7273,0,0.0004608,4604.9,0.00016853,-0.0096885,0.00012345,-338.73,-0.00046563,-4764.9,0.14837
16381,5.0505,3.8182,0,0.00046343,4631.1,0.00016977,-0.0086893,0.00012367,-346.33,-0.00046835,-4794.6,0.1432
16382,5.1423,3.8182,0.05,1.2078e-06,12.07,9.2743e-07,6.9684,-2.7453e-12,1.0635e-05,-9.2743e-07,-6.9683,0.14817
16383,5.1423,3.5455,0,0.00045985,4595.3,0.00016878,-0.012007,0.00012213,-350.5,-0.00046481,-4760.6,0.14865
16384,5.0505,3.6364,0,0.00046231,4619.9,0.00017006,-0.011481,0.00012211,-360.31,-0.00046738,-4789.5,0.14352
16385,5.1423,3.6364,0.05,1.2056e-06,12.047,9.2573e-07,6.9555,6.1978e-13,4.3111e-06,-9.2572e-07,-6.9555,0.1485
16386,5.1423,3.3636,0,0.00045917,4588.5,0.00016896,-0.013646,0.00012118,-359.01,-0.00046422,-4757.5,0.14885
16387,5.0505,3.4545,0,0.00046145,4611.3,0.00017028,-0.013545,0.00012092,-370.94,-0.00046664,-4785.6,0.14376
16388,5.1423,3.4545,0.05,1.2037e-06,12.029,9.2433e-07,6.9451,-4.4238e-13,3.7665e-06,-9.2432e-07,-6.945,0.14874
16389,5.1423,3.1818,0,0.00045875,4584.4,0.00016907,-0.014623,0.0001206,-364.14,-0.00046386,-4755.6,0.14897
16390,5.0505,3.2727,0,0.00046088,4605.6,0.00017043,-0.01491,0.00012011,-378.09,-0.00046615,-4783,0.14392
16391,5.1423,3.2727,0.05,1.2025e-06,12.016,9.2333e-07,6.9376,2.5996e-13,1.9258e-06,-9.2334e-07,-6.9376,0.14889
16392,5.1423,3,0,0.00045861,4583,0.0001691,-0.014948,0.00012041,-365.86,-0.00046374,-4754.9,0.14901
16393,5.0505,3.0909,0,0.00046059,4602.7,0.00017051,-0.015589,0.00011971,-381.69,-0.0004659,-4781.7,0.144
16394,5.1423,3.0909,0.05,1.2018e-06,12.01,9.2282e-07,6.9337,8.7974e-14,6.8386e-07,-9.2282e-07,-6.9337,0.14897
16395,5.1423,2.8182,0,0.00045875,4584.4,0.00016907,-0.014623,0.0001206,-364.14,-0.00046386,-4755.6,0.14897
16396,5.0505,2.9091,0,0.00046059,4602.7,0.00017051,-0.015589,0.00011971,-381.69,-0.0004659,-4781.7,0.144
16397,5.1423,2.9091,0.05,1.2018e-06,12.01,9.2282e-07,6.9337,-8.7691e-14,-6.5967e-07,-9.2282e-07,-6.9337,0.14897
16398,5.1423,2.6364,0,0.00045917,4588.5,0.00016896,-0.013645,0.00012118,-359.01,-0.00046422,-4757.5,0.14885
16399,5.0505,2.7273,0,0.00046088,4605.6,0.00017043,-0.01491,0.00012011,-378.09,-0.00046615,-4783,0.14392
16400,5.1423,2.7273,0.05,1.2025e-06,12.016,9.2333e-07,6.9376,-2.5827e-13,-1.9542e-06,-9.2333e-07,-6.9376,0.14889
16401,5.1423,2.4545,0,0.00045985,4595.3,0.00016878,-0.012007,0.00012213,-350.5,-0.00046481,-4760.6,0.14865
16402,5.0505,2.5455,0,0.00046145,4611.3,0.00017028,-0.013545,0.00012092,-370.94,-0.00046664,-4785.6,0.14376
16403,5.1423,2.5455,0.05,1.2037e-06,12.029,9.2432e-07,6.945,-4.583e-13,-3.1754e-06,-9.2433e-07,-6.945,0.14874
16404,5.1423,2.2727,0,0.0004608,4604.9,0.00016853,-0.0096882,0.00012345,-338.73,-0.00046563,-4764.9,0.14837
16405,5.0505,2.3636,0,0.00046231,4619.9,0.00017006,-0.011481,0.00012211,-360.31,-0.00046738,-4789.5,0.14352
16406,5.1423,2.3636,0.05,1.2056e-06,12.047,9.2573e-07,6.9555,-5.8296e-13,-4.2468e-06,-9.2572e-07,-6.9555,0.1485
16407,5.1423,2.0909,0,0.00046201,4616.9,0.00016822,-0.0066596,0.00012513,-323.81,-0.00046667,-4770.3,0.14801
16408,5.0505,2.1818,0,0.00046343,4631.1,0.00016977,-0.0086891,0.00012367,-346.33,-0.00046835,-4794.6,0.1432
16409,5.1423,2.1818,0.05,1.2078e-06,12.07,9.2743e-07,6.9683,1.0694e-12,-7.0022e-06,-9.2743e-07,-6.9684,0.14817
16410,5.1423,1.9091,0,0.00046346,4631.4,0.00016785,-0.0028754,0.00012713,-305.91,-0.00046791,-4776.8,0.14757
16411,5.0505,2,0,0.00046482,4645,0.0001694,-0.005131,0.0001256,-329.13,-0.00046954,-4800.8,0.1428
16412,5.1423,2,0.05,1.2102e-06,12.094,9.2931e-07,6.9825,-7.8268e-13,-6.1794e-06,-9.2931e-07,-6.9825,0.14777
16413,5.1423,1.7273,0,0.00046515,4648.3,0.00016741,0.0017354,0.00012945,-285.21,-0.00046934,-4784.3,0.14704
16414,5.0505,1.8182,0,0.00046645,4661.3,0.00016898,-0.00074439,0.00012786,-308.9,-0.00047094,-4808.1,0.14232
16415,5.1423,1.8182,0.05,1.2127e-06,12.119,9.3122e-07,6.9968,4.2661e-13,-9.9202e-06,-9.3123e-07,-6.9969,0.14728
16416,5.1423,1.5455,0,0.00046705,4667.3,0.00016692,0.0073028,0.00013206,-261.92,-0.00047095,-4792.7,0.14643
16417,5.0505,1.6364,0,0.00046832,4680,0.00016849,0.0045651,0.00013044,-285.86,-0.00047253,-4816.3,0.14175
16418,5.1423,1.6364,0.05,1.215e-06,12.142,9.3301e-07,7.0102,1.9036e-12,-6.6764e-06,-9.3301e-07,-7.0102,0.14671
16419,5.1423,1.3636,0,0.00046915,4688.3,0.00016638,0.013987,0.00013493,-236.27,-0.00047272,-4801.9,0.14572
16420,5.0505,1.4545,0,0.0004704,4700.8,0.00016795,0.010987,0.00013331,-260.24,-0.00047429,-4825.5,0.1411
16421,5.1423,1.4545,0.05,1.217e-06,12.161,9.345e-07,7.0214,2.0962e-12,-1.2393e-05,-9.345e-07,-7.0215,0.14606
16422,5.1423,1.1818,0,0.00047143,4711,0.00016579,0.02228,0.00013803,-208.53,-0.00047463,-4811.8,0.14493
16423,5.0505,1.2727,0,0.00047269,4723.6,0.00016735,0.018687,0.00013643,-232.29,-0.00047621,-4835.4,0.14035
16424,5.1423,1.2727,0.05,1.2183e-06,12.175,9.3553e-07,7.0292,1.2361e-12,-2.587e-05,-9.3554e-07,-7.0293,0.14531
16425,5.1423,1,0,0.00047387,4735.4,0.00016516,0.032216,0.00014134,-178.95,-0.00047666,-4822.3,0.14405
16426,5.0505,1.0909,0,0.00047514,4748.2,0.00016671,0.028569,0.00013979,-202.3,-0.00047826,-4846.1,0.13952
16427,5.1423,1.0909,0.05,1.2189e-06,12.181,9.3596e-07,7.0325,1.1167e-12,-1.3342e-05,-9.3597e-07,-7.0325,0.14447
16428,5.1423,0.81818,0,0.00047644,4761.1,0.00016449,0.047563,0.00014482,-147.8,-0.00047878,-4833.3,0.14308
16429,5.0505,0.90909,0,0.00047776,4774.3,0.00016603,0.039898,0.00014333,-170.55,-0.00048043,-4857.2,0.13859
16430,5.1423,0.90909,0.05,1.2185e-06,12.177,9.3566e-07,7.0302,-1.8246e-13,-1.3818e-05,-9.3566e-07,-7.0302,0.14355
16431,5.1423,0.63636,0,0.00047913,4788,0.0001638,0.060919,0.00014844,-115.36,-0.00048099,-4844.6,0.14201
16432,5.0505,0.72727,0,0.0004805,4801.7,0.00016532,0.061508,0.00014704,-137.31,-0.00048269,-4868.8,0.13757
16433,5.1423,0.72727,0.05,1.217e-06,12.162,9.3451e-07,7.0215,9.115e-13,-3.1298e-05,-9.3451e-07,-7.0216,0.14252
16434,5.1423,0.45455,0,0.00048192,4815.8,0.00016308,0.1363,0.00015217,-81.862,-0.00048325,-4856.2,0.14084
16435,5.0505,0.54545,0,0.00048335,4830.2,0.00016458,0.069969,0.00015088,-102.9,-0.00048502,-4880.8,0.13646
16436,5.1423,0.54545,0.05,1.2144e-06,12.136,9.3253e-07,7.0066,3.8959e-12,-3.2027e-05,-9.3253e-07,-7.0067,0.1414
16437,5.1423,0.27273,0,0.00048479,4844.5,0.00016234,0.19201,0.000156,-47.467,-0.00048558,-4868,0.13957
16438,5.0505,0.36364,0,0.00048629,4859.5,0.00016383,0.22572,0.00015481,-67.498,-0.0004874,-4892.8,0.13524
16439,5.1423,0.36364,0.05,1.211e-06,12.102,9.2991e-07,6.987,1.8414e-12,-1.189e-05,-9.2992e-07,-6.987,0.14019
16440,5.0505,0.18182,0,0.00048932,4889.9,0.00016304,0.24466,0.00015885,-31.293,-0.00048984,-4905.3,0.13392
16441,5.1423,0.18182,0.05,1.2284e-06,12.275,9.4325e-07,7.0872,3.3011e-12,-3.2572e-05,-9.4326e-07,-7.0873,0.13886
16442,5.1423,0.090909,0,0.00048739,4870.5,0.00016165,0.19155,0.00015949,-16.064,-0.00048766,-4878.5,0.1382
16443,4.9587,5.7273,0,0.00049082,4904.8,0.00016452,0.21279,0.00015767,-51.237,-0.00049167,-4930.2,0.1297
16444,4.8668,5.8182,0,0.00049551,4951.7,0.0001652,0.27558,0.00016069,-33.632,-0.00049607,-4968.2,0.12422
16445,4.9587,5.8182,0.05,1.3323e-06,13.314,1.023e-06,7.6867,-2.6748e-13,3.4192e-05,-1.023e-06,-7.6866,0.129
16446,4.9587,5.9091,0,0.00049362,4932.8,0.00016377,0.20505,0.00016144,-17.312,-0.00049391,-4941.3,0.12833
16447,4.9587,5.5455,0,0.00048772,4873.9,0.00016532,0.14948,0.00015353,-88.505,-0.00048916,-4917.4,0.13097
16448,4.8668,5.6364,0,0.00049223,4918.9,0.00016605,0.24726,0.00015632,-72.85,-0.00049342,-4954.8,0.12553
16449,4.9587,5.6364,0.05,1.2432e-06,12.423,9.546e-07,7.1725,-1.6151e-13,4.7187e-05,-9.5459e-07,-7.1723,0.13031
16450,4.9587,5.3636,0,0.00048472,4843.8,0.00016611,0.067025,0.00014948,-124.83,-0.00048672,-4905,0.13213
16451,4.8668,5.4545,0,0.00048906,4887.2,0.00016687,0.077199,0.00015206,-111.22,-0.00049085,-4941.8,0.12675
16452,4.9587,5.4545,0.05,1.2423e-06,12.414,9.5392e-07,7.1675,-1.6027e-12,4.7654e-05,-9.5391e-07,-7.1673,0.13153
16453,4.9587,5.1818,0,0.00048181,4814.8,0.00016686,0.052183,0.00014556,-160.03,-0.00048433,-4892.8,0.1332
16454,4.8668,5.2727,0,0.00048598,4856.5,0.00016768,0.067512,0.0001479,-148.55,-0.00048834,-4929,0.12786
16455,4.9587,5.2727,0.05,1.2447e-06,12.438,9.5577e-07,7.1813,-3.0591e-12,3.467e-05,-9.5577e-07,-7.1812,0.13264
16456,4.9587,5,0,0.00047903,4787,0.00016759,0.035314,0.00014178,-193.88,-0.00048204,-4881,0.13417
16457,4.8668,5.0909,0,0.00048302,4826.9,0.00016846,0.043785,0.00014388,-184.64,-0.0004859,-4916.5,0.12887
16458,4.9587,5.0909,0.05,1.2462e-06,12.453,9.5691e-07,7.1899,-1.6674e-12,3.3383e-05,-9.5691e-07,-7.1898,0.13366
16459,4.9587,4.8182,0,0.0004764,4760.7,0.00016828,0.024381,0.00013819,-226.04,-0.00047984,-4869.7,0.13504
16460,4.8668,4.9091,0,0.0004802,4798.7,0.0001692,0.031305,0.00014003,-219.16,-0.00048355,-4904.5,0.12979
16461,4.9587,4.9091,0.05,1.2465e-06,12.456,9.5713e-07,7.1915,-8.3934e-13,7.1428e-06,-9.5712e-07,-7.1915,0.13458
16462,4.9587,4.6364,0,0.00047394,4736.1,0.00016892,0.015274,0.00013482,-256.23,-0.00047778,-4859,0.13583
16463,4.8668,4.7273,0,0.00047755,4772.2,0.0001699,0.020451,0.00013639,-251.79,-0.00048133,-4893.1,0.13062
16464,4.9587,4.7273,0.05,1.2457e-06,12.448,9.5652e-07,7.1869,-6.2363e-13,1.3307e-05,-9.5652e-07,-7.1869,0.13541
16465,4.9587,4.4545,0,0.00047168,4713.5,0.00016952,0.007942,0.0001317,-284.16,-0.00047587,-4849.1,0.13652
16466,4.8668,4.5455,0,0.00047509,4747.6,0.00017055,0.012001,0.00013299,-282.21,-0.00047926,-4882.4,0.13135
16467,4.9587,4.5455,0.05,1.244e-06,12.431,9.5524e-07,7.1773,-2.564e-12,1.968e-05,-9.5523e-07,-7.1772,0.13615
16468,4.9587,4.2727,0,0.00046962,4693,0.00017006,0.0018444,0.00012886,-309.54,-0.00047412,-4840.1,0.13713
16469,4.8668,4.3636,0,0.00047284,4725.1,0.00017115,0.0049667,0.00012987,-310.12,-0.00047735,-4872.5,0.132
16470,4.9587,4.3636,0.05,1.2417e-06,12.408,9.5344e-07,7.1639,-1.4327e-12,2.1971e-05,-9.5344e-07,-7.1637,0.13681
16471,4.9587,4.0909,0,0.00046781,4674.8,0.00017053,-0.0031978,0.00012633,-332.11,-0.00047257,-4832,0.13765
16472,4.8668,4.1818,0,0.00047082,4705,0.00017168,-0.00083961,0.00012706,-335.23,-0.00047563,-4863.6,0.13256
16473,4.9587,4.1818,0.05,1.2389e-06,12.381,9.5133e-07,7.1479,1.6135e-12,1.0595e-05,-9.5132e-07,-7.1479,0.13737
16474,4.9587,3.9091,0,0.00046624,4659.2,0.00017095,-0.0073293,0.00012415,-351.63,-0.00047122,-4825,0.13809
16475,4.8668,4,0,0.00046906,4687.4,0.00017215,-0.0056279,0.0001246,-357.29,-0.00047412,-4855.8,0.13304
16476,4.9587,4,0.05,1.236e-06,12.351,9.4907e-07,7.131,-7.1714e-13,9.1673e-06,-9.4907e-07,-7.1309,0.13785
16477,4.9587,3.7273,0,0.00046493,4646.1,0.00017129,-0.010631,0.00012233,-367.91,-0.0004701,-4819.2,0.13845
16478,4.8668,3.8182,0,0.00046757,4672.4,0.00017255,-0.0095045,0.0001225,-376.05,-0.00047283,-4849.1,0.13344
16479,4.9587,3.8182,0.05,1.2331e-06,12.322,9.4687e-07,7.1144,-8.9038e-13,7.6177e-06,-9.4686e-07,-7.1144,0.13825
16480,4.9587,3.5455,0,0.00046391,4635.9,0.00017156,-0.013155,0.00012089,-380.76,-0.00046921,-4814.5,0.13873
16481,4.8668,3.6364,0,0.00046635,4660.3,0.00017287,-0.012541,0.00012079,-391.32,-0.00047178,-4843.7,0.13376
16482,4.9587,3.6364,0.05,1.2305e-06,12.297,9.4488e-07,7.0994,-1.9252e-12,4.5407e-06,-9.4487e-07,-7.0994,0.13857
16483,4.9587,3.3636,0,0.00046317,4628.5,0.00017176,-0.014937,0.00011985,-390.04,-0.00046857,-4811.2,0.13893
16484,4.8668,3.4545,0,0.00046544,4651.1,0.00017312,-0.014783,0.00011949,-402.92,-0.00047098,-4839.5,0.13399
16485,4.9587,3.4545,0.05,1.2284e-06,12.275,9.4325e-07,7.0872,-3.0295e-12,4.0767e-06,-9.4323e-07,-7.0871,0.13881
16486,4.9587,3.1818,0,0.00046272,4624,0.00017188,-0.015998,0.00011922,-395.65,-0.00046818,-4809.2,0.13904
16487,4.8668,3.2727,0,0.00046482,4645,0.00017328,-0.016264,0.00011862,-410.72,-0.00047044,-4836.7,0.13415
16488,4.9587,3.2727,0.05,1.2269e-06,12.26,9.4209e-07,7.0784,-2.4278e-12,2.0627e-06,-9.4208e-07,-7.0784,0.13896
16489,4.9587,3,0,0.00046257,4622.5,0.00017191,-0.016351,0.00011901,-397.52,-0.00046805,-4808.5,0.13908
16490,4.8668,3.0909,0,0.00046451,4641.9,0.00017337,-0.017,0.00011818,-414.65,-0.00047017,-4835.3,0.13423
16491,4.9587,3.0909,0.05,1.2261e-06,12.252,9.4149e-07,7.0739,9.6963e-14,7.0934e-07,-9.4148e-07,-7.0739,0.13904
16492,4.9587,2.8182,0,0.00046272,4624,0.00017188,-0.015998,0.00011922,-395.65,-0.00046818,-4809.2,0.13904
16493,4.8668,2.9091,0,0.00046451,4641.9,0.00017337,-0.017,0.00011818,-414.65,-0.00047017,-4835.3,0.13423
16494,4.9587,2.9091,0.05,1.2261e-06,12.252,9.4149e-07,7.0739,-9.2603e-14,-7.0934e-07,-9.4148e-07,-7.0739,0.13904
16495,4.9587,2.6364,0,0.00046317,4628.5,0.00017176,-0.014936,0.00011985,-390.04,-0.00046857,-4811.2,0.13893
16496,4.8668,2.7273,0,0.00046482,4645,0.00017328,-0.016263,0.00011862,-410.72,-0.00047044,-4836.7,0.13415
16497,4.9587,2.7273,0.05,1.2269e-06,12.26,9.4208e-07,7.0784,-2.8205e-13,-2.0627e-06,-9.4208e-07,-7.0784,0.13896
16498,4.9587,2.4545,0,0.00046391,4635.9,0.00017156,-0.013155,0.00012089,-380.76,-0.00046921,-4814.5,0.13873
16499,4.8668,2.5455,0,0.00046544,4651.1,0.00017312,-0.014783,0.00011949,-402.92,-0.00047098,-4839.5,0.13399
16500,4.9587,2.5455,0.05,1.2284e-06,12.275,9.4324e-07,7.0871,-4.9323e-13,-3.3987e-06,-9.4324e-07,-7.0871,0.13881
16501,4.9587,2.2727,0,0.00046493,4646.1,0.00017129,-0.010631,0.00012233,-367.91,-0.0004701,-4819.2,0.13845
16502,4.8668,2.3636,0,0.00046635,4660.3,0.00017287,-0.012541,0.00012079,-391.32,-0.00047178,-4843.7,0.13376
16503,4.9587,2.3636,0.05,1.2305e-06,12.297,9.4487e-07,7.0994,-6.5611e-13,-4.6783e-06,-9.4487e-07,-7.0994,0.13857
16504,4.9587,2.0909,0,0.00046624,4659.2,0.00017095,-0.007329,0.00012415,-351.63,-0.00047122,-4825,0.13809
16505,4.8668,2.1818,0,0.00046757,4672.4,0.00017255,-0.0095042,0.0001225,-376.05,-0.00047283,-4849.1,0.13344
16506,4.9587,2.1818,0.05,1.2331e-06,12.322,9.4686e-07,7.1144,8.9038e-13,-5.5373e-06,-9.4687e-07,-7.1144,0.13825
16507,4.9587,1.9091,0,0.00046781,4674.8,0.00017053,-0.0031973,0.00012633,-332.11,-0.00047257,-4832,0.13765
16508,4.8668,2,0,0.00046906,4687.4,0.00017215,-0.0056276,0.0001246,-357.29,-0.00047412,-4855.8,0.13304
16509,4.9587,2,0.05,1.236e-06,12.351,9.4907e-07,7.131,-8.5898e-13,-6.1763e-06,-9.4907e-07,-7.131,0.13785
16510,4.9587,1.7273,0,0.00046962,4693,0.00017006,0.0018449,0.00012886,-309.54,-0.00047412,-4840.1,0.13713
16511,4.8668,1.8182,0,0.00047082,4705,0.00017168,-0.00083917,0.00012706,-335.23,-0.00047563,-4863.6,0.13256
16512,4.9587,1.8182,0.05,1.2389e-06,12.381,9.5132e-07,7.1479,-1.4879e-12,-1.1303e-05,-9.5133e-07,-7.1479,0.13737
16513,4.9587,1.5455,0,0.00047168,4713.5,0.00016952,0.0079427,0.0001317,-284.16,-0.00047587,-4849.1,0.13652
16514,4.8668,1.6364,0,0.00047284,4725.1,0.00017115,0.0049672,0.00012987,-310.12,-0.00047735,-4872.5,0.132
16515,4.9587,1.6364,0.05,1.2417e-06,12.408,9.5344e-07,7.1637,2.0343e-12,-1.4475e-05,-9.5344e-07,-7.1638,0.13681
16516,4.9587,1.3636,0,0.00047394,4736.1,0.00016892,0.015275,0.00013482,-256.23,-0.00047778,-4859.1,0.13583
16517,4.8668,1.4545,0,0.00047509,4747.6,0.00017055,0.012002,0.00013299,-282.21,-0.00047926,-4882.4,0.13135
16518,4.9587,1.4545,0.05,1.244e-06,12.431,9.5523e-07,7.1772,1.1554e-12,-1.968e-05,-9.5524e-07,-7.1773,0.13615
16519,4.9587,1.1818,0,0.0004764,4760.7,0.00016828,0.024382,0.00013819,-226.04,-0.00047984,-4869.7,0.13504
16520,4.8668,1.2727,0,0.00047755,4772.2,0.0001699,0.020452,0.00013639,-251.79,-0.00048133,-4893.1,0.13062
16521,4.9587,1.2727,0.05,1.2457e-06,12.448,9.5652e-07,7.1869,1.9052e-12,-1.4535e-05,-9.5652e-07,-7.1869,0.13541
16522,4.9587,1,0,0.00047903,4787,0.00016759,0.035314,0.00014178,-193.88,-0.00048204,-4881,0.13417
16523,4.8668,1.0909,0,0.0004802,4798.7,0.0001692,0.031306,0.00014003,-219.16,-0.00048355,-4904.5,0.12979
16524,4.9587,1.0909,0.05,1.2465e-06,12.456,9.5712e-07,7.1915,8.3934e-13,-7.7922e-06,-9.5713e-07,-7.1915,0.13458
16525,4.9587,0.81818,0,0.00048181,4814.8,0.00016686,0.052184,0.00014556,-160.03,-0.00048433,-4892.8,0.1332
16526,4.8668,0.90909,0,0.00048302,4826.9,0.00016846,0.043786,0.00014388,-184.64,-0.0004859,-4916.5,0.12887
16527,4.9587,0.90909,0.05,1.2462e-06,12.453,9.5691e-07,7.1898,-2.516e-12,-2.3613e-05,-9.5691e-07,-7.1899,0.13366
16528,4.9587,0.63636,0,0.00048472,4843.8,0.00016611,0.067026,0.00014948,-124.83,-0.00048672,-4905,0.13213
16529,4.8668,0.72727,0,0.00048598,4856.5,0.00016768,0.067512,0.0001479,-148.55,-0.00048834,-4929,0.12786
16530,4.9587,0.72727,0.05,1.2447e-06,12.438,9.5577e-07,7.1812,3.4823e-12,-3.3967e-05,-9.5577e-07,-7.1813,0.13264
16531,4.9587,0.45455,0,0.00048772,4873.9,0.00016532,0.14948,0.00015353,-88.505,-0.00048916,-4917.4,0.13097
16532,4.8668,0.54545,0,0.00048906,4887.2,0.00016687,0.077199,0.00015206,-111.22,-0.00049085,-4941.8,0.12675
16533,4.9587,0.54545,0.05,1.2423e-06,12.414,9.5392e-07,7.1673,2.8701e-12,-4.6505e-05,-9.5392e-07,-7.1675,0.13153
16534,4.9587,0.27273,0,0.00049082,4904.8,0.00016452,0.21279,0.00015767,-51.237,-0.00049167,-4930.2,0.1297
16535,4.8668,0.36364,0,0.00049223,4918.9,0.00016605,0.24726,0.00015632,-72.85,-0.00049342,-4954.8,0.12553
16536,4.9587,0.36364,0.05,1.2432e-06,12.423,9.5459e-07,7.1724,-4.3502e-12,-3.4954e-05,-9.546e-07,-7.1725,0.13031
16537,4.8668,0.18182,0,0.00049551,4951.7,0.0001652,0.27558,0.00016069,-33.632,-0.00049607,-4968.2,0.12422
16538,4.9587,0.18182,0.05,1.3323e-06,13.314,1.023e-06,7.6866,1.5726e-12,-2.2422e-05,-1.023e-06,-7.6867,0.129
16539,4.9587,0.090909,0,0.00049362,4932.8,0.00016377,0.20505,0.00016144,-17.312,-0.00049391,-4941.3,0.12833
16540,4.775,5.7273,0,0.00049691,4965.7,0.00016672,0.23625,0.00015935,-55.142,-0.00049782,-4992.9,0.12016
16541,4.6832,5.8182,0,0.00050176,5014.1,0.00016738,0.31218,0.00016256,-35.971,-0.00050235,-5031.8,0.11485
16542,4.775,5.8182,0.05,1.4439e-06,14.429,1.1087e-06,8.3305,8.089e-13,3.3831e-05,-1.1087e-06,-8.3303,0.11946
16543,4.775,5.9091,0,0.00049991,4995.6,0.00016591,0.22001,0.00016341,-18.549,-0.00050022,-5004.8,0.1188
16544,4.775,5.5455,0,0.00049356,4932.2,0.0001676,0.16397,0.00015486,-95.526,-0.00049512,-4979.2,0.12142
16545,4.6832,5.6364,0,0.00049821,4978.7,0.0001683,0.27093,0.00015783,-78.463,-0.0004995,-5017.3,0.11616
16546,4.775,5.6364,0.05,1.2779e-06,12.771,9.813e-07,7.3732,1.8991e-12,5.3208e-05,-9.8129e-07,-7.373,0.12078
16547,4.775,5.3636,0,0.00049032,4899.8,0.00016845,0.073772,0.00015048,-134.91,-0.00049247,-4965.8,0.12258
16548,4.6832,5.4545,0,0.00049479,4944.5,0.0001692,0.085217,0.00015321,-120.04,-0.00049672,-5003.4,0.11737
16549,4.775,5.4545,0.05,1.2726e-06,12.717,9.7721e-07,7.3424,-8.4534e-13,5.3962e-05,-9.772e-07,-7.3422,0.12198
16550,4.775,5.1818,0,0.00048719,4868.5,0.00016928,0.057277,0.00014623,-173.13,-0.0004899,-4952.7,0.12364
16551,4.6832,5.2727,0,0.00049147,4911.3,0.00017008,0.074126,0.0001487,-160.54,-0.00049401,-4989.6,0.11847
16552,4.775,5.2727,0.05,1.2749e-06,12.74,9.7896e-07,7.3557,5.5206e-13,4.9183e-05,-9.7897e-07,-7.3555,0.12309
16553,4.775,5,0,0.00048419,4838.5,0.00017007,0.03874,0.00014213,-209.89,-0.00048742,-4940.1,0.1246
16554,4.6832,5.0909,0,0.00048828,4879.4,0.00017093,0.048079,0.00014434,-199.74,-0.00049137,-4976.2,0.11948
16555,4.775,5.0909,0.05,1.2764e-06,12.756,9.8015e-07,7.3645,-1.8264e-13,3.7965e-05,-9.8014e-07,-7.3643,0.1241
16556,4.775,4.8182,0,0.00048135,4810.2,0.00017082,0.026716,0.00013823,-244.87,-0.00048505,-4927.9,0.12547
16557,4.6832,4.9091,0,0.00048524,4849,0.00017174,0.034334,0.00014016,-237.26,-0.00048884,-4963.3,0.12039
16558,4.775,4.9091,0.05,1.2766e-06,12.758,9.803e-07,7.3656,1.6398e-12,3.3899e-05,-9.8029e-07,-7.3655,0.12502
16559,4.775,4.6364,0,0.0004787,4783.7,0.00017153,0.016721,0.00013456,-277.73,-0.00048281,-4916.5,0.12625
16560,4.6832,4.7273,0,0.00048238,4820.5,0.00017251,0.022418,0.0001362,-272.76,-0.00048644,-4951,0.12121
16561,4.775,4.7273,0.05,1.2756e-06,12.747,9.7952e-07,7.3598,-2.8806e-13,3.2166e-05,-9.7952e-07,-7.3597,0.12584
16562,4.775,4.4545,0,0.00047625,4759.2,0.00017218,0.0086864,0.00013117,-308.15,-0.00048074,-4905.8,0.12694
16563,4.6832,4.5455,0,0.00047973,4793.9,0.00017322,0.013153,0.00013251,-305.89,-0.0004842,-4939.6,0.12194
16564,4.775,4.5455,0.05,1.2736e-06,12.727,9.7799e-07,7.3483,-6.2782e-13,2.1776e-05,-9.7798e-07,-7.3482,0.12657
16565,4.775,4.2727,0,0.00047404,4737.1,0.00017277,0.0020162,0.00012808,-335.8,-0.00047886,-4896.1,0.12754
16566,4.6832,4.3636,0,0.0004773,4769.7,0.00017387,0.0054556,0.00012912,-336.3,-0.00048213,-4929,0.12258
16567,4.775,4.3636,0.05,1.2709e-06,12.7,9.7589e-07,7.3324,-2.5783e-12,1.2983e-05,-9.7588e-07,-7.3324,0.12722
16568,4.775,4.0909,0,0.00047208,4717.5,0.0001733,-0.0034886,0.00012533,-360.41,-0.00047718,-4887.4,0.12806
16569,4.6832,4.1818,0,0.00047513,4748,0.00017446,-0.00088438,0.00012606,-363.67,-0.00048027,-4919.4,0.12313
16570,4.775,4.1818,0.05,1.2677e-06,12.668,9.7342e-07,7.3139,-1.8688e-12,1.2065e-05,-9.7342e-07,-7.3139,0.12778
16571,4.775,3.9091,0,0.00047039,4700.7,0.00017375,-0.00799,0.00012295,-381.71,-0.00047572,-4879.9,0.12849
16572,4.6832,4,0,0.00047323,4729.1,0.00017498,-0.0061005,0.00012338,-387.73,-0.00047863,-4911,0.1236
16573,4.775,4,0.05,1.2643e-06,12.634,9.708e-07,7.2943,-2.4942e-12,9.9865e-06,-9.708e-07,-7.2942,0.12825
16574,4.775,3.7273,0,0.00046899,4686.6,0.00017413,-0.01158,0.00012097,-399.47,-0.0004745,-4873.6,0.12884
16575,4.6832,3.8182,0,0.00047162,4713,0.00017542,-0.010314,0.00012109,-408.2,-0.00047724,-4903.8,0.124
16576,4.775,3.8182,0.05,1.2609e-06,12.601,9.6825e-07,7.2751,-1.6889e-12,8.28e-06,-9.6825e-07,-7.275,0.12865
16577,4.775,3.5455,0,0.00046788,4675.6,0.00017443,-0.01432,0.0001194,-413.49,-0.00047354,-4868.6,0.12912
16578,4.6832,3.6364,0,0.00047032,4700,0.00017577,-0.013606,0.00011923,-424.86,-0.0004761,-4898,0.12431
16579,4.775,3.6364,0.05,1.2579e-06,12.571,9.6595e-07,7.2578,6.1019e-14,6.3321e-06,-9.6594e-07,-7.2577,0.12896
16580,4.775,3.3636,0,0.00046709,4667.6,0.00017464,-0.016251,0.00011827,-423.62,-0.00047285,-4865,0.12931
16581,4.6832,3.4545,0,0.00046933,4690.1,0.00017604,-0.016033,0.00011782,-437.52,-0.00047524,-4893.5,0.12454
16582,4.775,3.4545,0.05,1.2555e-06,12.546,9.6407e-07,7.2436,-2.0838e-12,5.1843e-06,-9.6406e-07,-7.2435,0.1292
16583,4.775,3.1818,0,0.0004666,4662.8,0.00017477,-0.017401,0.00011758,-429.74,-0.00047243,-4862.8,0.12943
16584,4.6832,3.2727,0,0.00046867,4683.4,0.00017623,-0.017633,0.00011686,-446.04,-0.00047466,-4890.5,0.12469
16585,4.775,3.2727,0.05,1.2538e-06,12.529,9.6273e-07,7.2336,-5.9439e-13,2.4902e-06,-9.6273e-07,-7.2335,0.12935
16586,4.775,3,0,0.00046644,4661.2,0.00017482,-0.017782,0.00011735,-431.79,-0.00047229,-4862.1,0.12947
16587,4.6832,3.0909,0,0.00046833,4680.1,0.00017632,-0.018428,0.00011639,-450.32,-0.00047437,-4889,0.12477
16588,4.775,3.0909,0.05,1.2529e-06,12.52,9.6204e-07,7.2284,1.04e-13,7.5902e-07,-9.6204e-07,-7.2284,0.12943
16589,4.775,2.8182,0,0.0004666,4662.8,0.00017477,-0.0174,0.00011758,-429.74,-0.00047243,-4862.8,0.12943
16590,4.6832,2.9091,0,0.00046833,4680.1,0.00017632,-0.018428,0.00011639,-450.32,-0.00047437,-4889,0.12477
16591,4.775,2.9091,0.05,1.2529e-06,12.52,9.6204e-07,7.2284,-9.7393e-14,-7.5902e-07,-9.6204e-07,-7.2284,0.12943
16592,4.775,2.6364,0,0.00046709,4667.6,0.00017464,-0.016251,0.00011827,-423.62,-0.00047285,-4865,0.12931
16593,4.6832,2.7273,0,0.00046867,4683.4,0.00017623,-0.017633,0.00011686,-446.04,-0.00047466,-4890.5,0.12469
16594,4.775,2.7273,0.05,1.2538e-06,12.529,9.6273e-07,7.2336,-2.9395e-13,-1.9873e-06,-9.6273e-07,-7.2335,0.12935
16595,4.775,2.4545,0,0.00046788,4675.6,0.00017443,-0.014319,0.0001194,-413.49,-0.00047354,-4868.6,0.12912
16596,4.6832,2.5455,0,0.00046933,4690.1,0.00017604,-0.016033,0.00011782,-437.52,-0.00047524,-4893.5,0.12454
16597,4.775,2.5455,0.05,1.2555e-06,12.546,9.6406e-07,7.2436,-4.7124e-13,-3.6326e-06,-9.6406e-07,-7.2436,0.1292
16598,4.775,2.2727,0,0.00046899,4686.6,0.00017413,-0.01158,0.00012097,-399.47,-0.0004745,-4873.6,0.12884
16599,4.6832,2.3636,0,0.00047032,4700,0.00017577,-0.013606,0.00011923,-424.86,-0.0004761,-4898,0.12431
16600,4.775,2.3636,0.05,1.2579e-06,12.571,9.6595e-07,7.2577,-6.4795e-13,-6.3321e-06,-9.6595e-07,-7.2578,0.12896
16601,4.775,2.0909,0,0.00047039,4700.7,0.00017375,-0.0079897,0.00012295,-381.71,-0.00047572,-4879.9,0.12849
16602,4.6832,2.1818,0,0.00047162,4713,0.00017542,-0.010313,0.00012109,-408.2,-0.00047724,-4903.8,0.124
16603,4.775,2.1818,0.05,1.2609e-06,12.601,9.6825e-07,7.275,1.8305e-12,-8.28e-06,-9.6825e-07,-7.2751,0.12865
16604,4.775,1.9091,0,0.00047208,4717.5,0.0001733,-0.0034882,0.00012533,-360.41,-0.00047718,-4887.4,0.12806
16605,4.6832,2,0,0.00047323,4729.1,0.00017498,-0.0061002,0.00012338,-387.73,-0.00047863,-4911,0.1236
16606,4.775,2,0.05,1.2643e-06,12.634,9.708e-07,7.2942,-8.8811e-13,-1.0425e-05,-9.708e-07,-7.2943,0.12825
16607,4.775,1.7273,0,0.00047404,4737.1,0.00017277,0.0020167,0.00012808,-335.8,-0.00047886,-4896.1,0.12754
16608,4.6832,1.8182,0,0.00047513,4748,0.00017446,-0.0008839,0.00012606,-363.67,-0.00048027,-4919.4,0.12313
16609,4.775,1.8182,0.05,1.2677e-06,12.668,9.7342e-07,7.3139,7.2783e-13,-1.2065e-05,-9.7342e-07,-7.3139,0.12778
16610,4.775,1.5455,0,0.00047625,4759.2,0.00017218,0.008687,0.00013117,-308.15,-0.00048074,-4905.8,0.12694
16611,4.6832,1.6364,0,0.0004773,4769.7,0.00017387,0.0054561,0.00012912,-336.3,-0.00048213,-4929,0.12258
16612,4.775,1.6364,0.05,1.2709e-06,12.7,9.7588e-07,7.3324,9.305e-13,-8.9102e-06,-9.7589e-07,-7.3324,0.12722
16613,4.775,1.3636,0,0.0004787,4783.7,0.00017153,0.016722,0.00013456,-277.73,-0.00048281,-4916.5,0.12625
16614,4.6832,1.4545,0,0.00047973,4793.9,0.00017322,0.013154,0.00013251,-305.89,-0.0004842,-4939.6,0.12194
16615,4.775,1.4545,0.05,1.2736e-06,12.727,9.7798e-07,7.3482,-2.1817e-12,-1.1446e-05,-9.7799e-07,-7.3482,0.12657
16616,4.775,1.1818,0,0.00048135,4810.2,0.00017082,0.026717,0.00013823,-244.87,-0.00048505,-4927.9,0.12547
16617,4.6832,1.2727,0,0.00048238,4820.5,0.00017251,0.022419,0.0001362,-272.76,-0.00048644,-4951,0.12121
16618,4.775,1.2727,0.05,1.2756e-06,12.747,9.7952e-07,7.3597,-1.3659e-12,-1.5907e-05,-9.7952e-07,-7.3598,0.12584
16619,4.775,1,0,0.00048419,4838.5,0.00017007,0.038741,0.00014213,-209.89,-0.00048742,-4940.1,0.1246
16620,4.6832,1.0909,0,0.00048524,4849,0.00017174,0.034335,0.00014016,-237.26,-0.00048884,-4963.3,0.12039
16621,4.775,1.0909,0.05,1.2766e-06,12.758,9.8029e-07,7.3655,-2.0807e-12,-2.4651e-05,-9.803e-07,-7.3656,0.12502
16622,4.775,0.81818,0,0.00048719,4868.5,0.00016928,0.057278,0.00014623,-173.13,-0.0004899,-4952.7,0.12364
16623,4.6832,0.90909,0,0.00048828,4879.4,0.00017093,0.04808,0.00014434,-199.74,-0.00049137,-4976.2,0.11948
16624,4.775,0.90909,0.05,1.2764e-06,12.756,9.8013e-07,7.3644,9.7562e-14,-2.7689e-05,-9.8015e-07,-7.3645,0.1241
16625,4.775,0.63636,0,0.00049032,4899.8,0.00016845,0.073772,0.00015048,-134.91,-0.00049247,-4965.8,0.12258
16626,4.6832,0.72727,0,0.00049147,4911.3,0.00017008,0.074127,0.0001487,-160.54,-0.00049401,-4989.6,0.11847
16627,4.775,0.72727,0.05,1.2749e-06,12.74,9.7897e-07,7.3555,-6.4004e-13,-2.7543e-05,-9.7896e-07,-7.3556,0.12309
16628,4.775,0.45455,0,0.00049356,4932.2,0.0001676,0.16397,0.00015486,-95.526,-0.00049512,-4979.2,0.12142
16629,4.6832,0.54545,0,0.00049479,4944.5,0.0001692,0.085217,0.00015321,-120.04,-0.00049672,-5003.4,0.11737
16630,4.775,0.54545,0.05,1.2726e-06,12.717,9.772e-07,7.3423,-1.9888e-12,-2.9244e-05,-9.7721e-07,-7.3424,0.12198
16631,4.775,0.27273,0,0.00049691,4965.7,0.00016672,0.23625,0.00015935,-55.142,-0.00049782,-4992.9,0.12016
16632,4.6832,0.36364,0,0.00049821,4978.7,0.0001683,0.27093,0.00015783,-78.463,-0.0004995,-5017.3,0.11616
16633,4.775,0.36364,0.05,1.2779e-06,12.771,9.8129e-07,7.373,-1.8784e-12,-3.9341e-05,-9.8131e-07,-7.3732,0.12078
16634,4.6832,0.18182,0,0.00050176,5014.1,0.00016738,0.31219,0.00016256,-35.971,-0.00050235,-5031.8,0.11485
16635,4.775,0.18182,0.05,1.4439e-06,14.429,1.1087e-06,8.3304,4.5582e-13,-3.2715e-05,-1.1087e-06,-8.3305,0.11946
16636,4.775,0.090909,0,0.00049991,4995.6,0.00016591,0.22001,0.00016341,-18.549,-0.00050022,-5004.8,0.1188
16637,4.5913,5.7273,0,0.00050306,5027.1,0.00016895,0.26282,0.00016104,-59.171,-0.00050403,-5056.3,0.11096
16638,4.4995,5.8182,0,0.00050807,5077.2,0.00016959,0.35566,0.00016444,-38.286,-0.00050871,-5096.1,0.10582
16639,4.5913,5.8182,0.05,1.5636e-06,15.625,1.2006e-06,9.0211,-3.2981e-12,1.2348e-05,-1.2006e-06,-9.021,0.11026
16640,4.5913,5.9091,0,0.00050626,5059.1,0.00016806,0.23657,0.0001654,-19.758,-0.00050659,-5068.9,0.1096
16641,4.5913,5.5455,0,0.00049944,4991,0.0001699,0.17991,0.00015618,-102.94,-0.00050111,-5041.5,0.11222
16642,4.4995,5.6364,0,0.00050424,5038.9,0.00017058,0.29697,0.00015932,-84.333,-0.00050562,-5080.4,0.10713
16643,4.5913,5.6364,0.05,1.3155e-06,13.146,1.0102e-06,7.5901,2.4726e-12,5.8127e-05,-1.0102e-06,-7.5899,0.11157
16644,4.5913,5.3636,0,0.00049594,4956,0.00017083,0.081228,0.00015143,-145.64,-0.00049826,-5027.2,0.11337
16645,4.4995,5.4545,0,0.00050055,5002.1,0.00017156,0.094121,0.00015432,-129.39,-0.00050262,-5065.4,0.10832
16646,4.5913,5.4545,0.05,1.3056e-06,13.047,1.0026e-06,7.5329,4.2307e-12,4.5012e-05,-1.0026e-06,-7.5328,0.11277
16647,4.5913,5.1818,0,0.00049256,4922.2,0.00017173,0.062892,0.00014682,-187.12,-0.00049548,-5013.1,0.11442
16648,4.4995,5.2727,0,0.00049697,4966.3,0.00017252,0.081419,0.00014944,-173.33,-0.00049969,-5050.7,0.10942
16649,4.5913,5.2727,0.05,1.3079e-06,13.07,1.0043e-06,7.5459,-2.1298e-12,4.3169e-05,-1.0043e-06,-7.5458,0.11387
16650,4.5913,5,0,0.00048933,4889.9,0.0001726,0.042525,0.00014237,-227.07,-0.0004928,-4999.5,0.11537
16651,4.4995,5.0909,0,0.00049353,4931.9,0.00017345,0.052824,0.0001447,-215.9,-0.00049685,-5036.3,0.11042
16652,4.5913,5.0909,0.05,1.3095e-06,13.086,1.0056e-06,7.5555,1.9081e-12,4.0733e-05,-1.0056e-06,-7.5553,0.11487
16653,4.5913,4.8182,0,0.00048627,4859.3,0.00017342,0.029307,0.00013814,-265.12,-0.00049024,-4986.5,0.11623
16654,4.4995,4.9091,0,0.00049025,4899.2,0.00017434,0.037687,0.00014017,-256.7,-0.00049412,-5022.4,0.11132
16655,4.5913,4.9091,0.05,1.3097e-06,13.088,1.0057e-06,7.5564,-2.5994e-12,2.8069e-05,-1.0057e-06,-7.5563,0.11578
16656,4.5913,4.6364,0,0.00048341,4830.8,0.0001742,0.018344,0.00013415,-300.89,-0.00048782,-4974.2,0.117
16657,4.4995,4.7273,0,0.00048717,4868.4,0.00017518,0.02461,0.00013587,-295.33,-0.00049152,-5009.3,0.11212
16658,4.5913,4.7273,0.05,1.3085e-06,13.076,1.0048e-06,7.5496,7.714e-13,3.5094e-05,-1.0048e-06,-7.5495,0.11659
16659,4.5913,4.4545,0,0.00048078,4804.4,0.00017491,0.0095458,0.00013046,-334.01,-0.00048559,-4962.7,0.11768
16660,4.4995,4.5455,0,0.00048431,4839.8,0.00017596,0.014458,0.00013185,-331.4,-0.0004891,-4997,0.11284
16661,4.5913,4.5455,0.05,1.3062e-06,13.053,1.003e-06,7.5362,1.284e-12,2.3422e-05,-1.003e-06,-7.5362,0.11732
16662,4.5913,4.2727,0,0.00047839,4780.6,0.00017556,0.0022596,0.0001271,-364.15,-0.00048355,-4952.3,0.11827
16663,4.4995,4.3636,0,0.00048171,4813.7,0.00017668,0.0060455,0.00012816,-364.54,-0.00048687,-4985.6,0.11348
16664,4.5913,4.3636,0.05,1.3031e-06,13.022,1.0006e-06,7.5181,-1.4894e-12,2.0694e-05,-1.0006e-06,-7.518,0.11795
16665,4.5913,4.0909,0,0.00047629,4759.6,0.00017614,-0.003739,0.00012411,-390.99,-0.00048173,-4943,0.11878
16666,4.4995,4.1818,0,0.00047937,4790.4,0.00017733,-0.00086473,0.00012484,-394.38,-0.00048486,-4975.4,0.11402
16667,4.5913,4.1818,0.05,1.2994e-06,12.985,9.9777e-07,7.4968,-1.7003e-12,6.6859e-06,-9.9776e-07,-7.4968,0.11851
16668,4.5913,3.9091,0,0.00047447,4741.4,0.00017664,-0.0086314,0.00012151,-414.22,-0.00048015,-4934.9,0.11921
16669,4.4995,4,0,0.00047733,4770,0.00017789,-0.0065334,0.00012191,-420.62,-0.00048309,-4966.4,0.11449
16670,4.5913,4,0.05,1.2955e-06,12.946,9.9477e-07,7.4743,-5.2306e-12,7.4489e-06,-9.9477e-07,-7.4743,0.11898
16671,4.5913,3.7273,0,0.00047296,4726.3,0.00017706,-0.012523,0.00011935,-433.59,-0.00047884,-4928.2,0.11956
16672,4.4995,3.8182,0,0.0004756,4752.8,0.00017838,-0.011098,0.00011943,-442.95,-0.00048159,-4958.7,0.11487
16673,4.5913,3.8182,0.05,1.2917e-06,12.908,9.9186e-07,7.4524,-5.2619e-13,8.99e-06,-9.9185e-07,-7.4524,0.11936
16674,4.5913,3.5455,0,0.00047177,4714.5,0.00017739,-0.015487,0.00011765,-448.9,-0.0004778,-4922.9,0.11983
16675,4.4995,3.6364,0,0.0004742,4738.8,0.00017877,-0.014656,0.0001174,-461.12,-0.00048036,-4952.5,0.11518
16676,4.5913,3.6364,0.05,1.2883e-06,12.874,9.8923e-07,7.4327,1.0897e-13,7.0161e-06,-9.8923e-07,-7.4326,0.11967
16677,4.5913,3.3636,0,0.00047092,4705.9,0.00017763,-0.017572,0.00011641,-459.95,-0.00047705,-4919,0.12002
16678,4.4995,3.4545,0,0.00047314,4728.2,0.00017907,-0.017271,0.00011586,-474.94,-0.00047943,-4947.7,0.11541
16679,4.5913,3.4545,0.05,1.2855e-06,12.846,9.8708e-07,7.4166,-1.1842e-12,5.5328e-06,-9.8708e-07,-7.4165,0.1199
16680,4.5913,3.1818,0,0.0004704,4700.7,0.00017777,-0.018811,0.00011567,-466.63,-0.0004766,-4916.7,0.12013
16681,4.4995,3.2727,0,0.00047243,4721,0.00017927,-0.018993,0.00011483,-484.23,-0.0004788,-4944.5,0.11556
16682,4.5913,3.2727,0.05,1.2835e-06,12.826,9.8556e-07,7.4051,-1.4871e-12,2.3563e-06,-9.8556e-07,-7.4051,0.12006
16683,4.5913,3,0,0.00047023,4699,0.00017782,-0.019222,0.00011542,-468.87,-0.00047644,-4915.9,0.12017
16684,4.4995,3.0909,0,0.00047207,4717.5,0.00017937,-0.019847,0.0001143,-488.91,-0.00047849,-4942.9,0.11563
16685,4.5913,3.0909,0.05,1.2825e-06,12.816,9.8478e-07,7.3993,-7.9652e-13,8.865e-07,-9.8477e-07,-7.3992,0.12013
16686,4.5913,2.8182,0,0.0004704,4700.7,0.00017777,-0.018811,0.00011567,-466.63,-0.0004766,-4916.7,0.12013
16687,4.4995,2.9091,0,0.00047207,4717.5,0.00017937,-0.019847,0.0001143,-488.91,-0.00047849,-4942.9,0.11563
16688,4.5913,2.9091,0.05,1.2825e-06,12.816,9.8478e-07,7.3993,-1.0595e-13,-7.3544e-07,-9.8478e-07,-7.3992,0.12013
16689,4.5913,2.6364,0,0.00047092,4705.9,0.00017763,-0.017571,0.00011641,-459.95,-0.00047705,-4919,0.12002
16690,4.4995,2.7273,0,0.00047243,4721,0.00017927,-0.018992,0.00011483,-484.23,-0.0004788,-4944.5,0.11556
16691,4.5913,2.7273,0.05,1.2835e-06,12.826,9.8556e-07,7.4051,-3.1394e-13,-2.4256e-06,-9.8556e-07,-7.4051,0.12006
16692,4.5913,2.4545,0,0.00047177,4714.5,0.00017739,-0.015486,0.00011765,-448.9,-0.0004778,-4922.9,0.11983
16693,4.4995,2.5455,0,0.00047314,4728.2,0.00017907,-0.017271,0.00011586,-474.94,-0.00047943,-4947.7,0.11541
16694,4.5913,2.5455,0.05,1.2855e-06,12.846,9.8708e-07,7.4165,-5.3007e-13,-3.7625e-06,-9.8708e-07,-7.4165,0.1199
16695,4.5913,2.2727,0,0.00047296,4726.3,0.00017706,-0.012523,0.00011935,-433.59,-0.00047884,-4928.2,0.11956
16696,4.4995,2.3636,0,0.0004742,4738.8,0.00017877,-0.014655,0.0001174,-461.12,-0.00048036,-4952.5,0.11518
16697,4.5913,2.3636,0.05,1.2883e-06,12.874,9.8923e-07,7.4327,-8.1018e-13,-5.1672e-06,-9.8923e-07,-7.4327,0.11967
16698,4.5913,2.0909,0,0.00047447,4741.4,0.00017664,-0.008631,0.00012151,-414.22,-0.00048015,-4934.9,0.11921
16699,4.4995,2.1818,0,0.0004756,4752.8,0.00017838,-0.011098,0.00011943,-442.95,-0.00048159,-4958.7,0.11487
16700,4.5913,2.1818,0.05,1.2917e-06,12.908,9.9185e-07,7.4524,-2.0255e-14,-6.2829e-06,-9.9185e-07,-7.4524,0.11936
16701,4.5913,1.9091,0,0.00047629,4759.6,0.00017614,-0.0037386,0.00012411,-390.99,-0.00048173,-4943,0.11878
16702,4.4995,2,0,0.00047733,4770,0.00017789,-0.006533,0.00012191,-420.62,-0.00048309,-4966.4,0.11449
16703,4.5913,2,0.05,1.2955e-06,12.946,9.9477e-07,7.4743,5.283e-13,-7.4489e-06,-9.9477e-07,-7.4743,0.11898
16704,4.5913,1.7273,0,0.00047839,4780.6,0.00017556,0.0022601,0.0001271,-364.15,-0.00048355,-4952.3,0.11827
16705,4.4995,1.8182,0,0.00047937,4790.4,0.00017733,-0.00086426,0.00012484,-394.38,-0.00048486,-4975.4,0.11402
16706,4.5913,1.8182,0.05,1.2994e-06,12.985,9.9776e-07,7.4968,3.5418e-14,-1.3138e-05,-9.9777e-07,-7.4968,0.11851
16707,4.5913,1.5455,0,0.00048078,4804.4,0.00017491,0.0095464,0.00013046,-334.01,-0.00048559,-4962.7,0.11768
16708,4.4995,1.6364,0,0.00048171,4813.7,0.00017668,0.0060461,0.00012816,-364.54,-0.00048687,-4985.6,0.11348
16709,4.5913,1.6364,0.05,1.3031e-06,13.022,1.0006e-06,7.518,1.8076e-12,-1.4765e-05,-1.0006e-06,-7.5181,0.11795
16710,4.5913,1.3636,0,0.00048341,4830.8,0.0001742,0.018344,0.00013415,-300.89,-0.00048782,-4974.2,0.117
16711,4.4995,1.4545,0,0.00048431,4839.8,0.00017596,0.014459,0.00013185,-331.4,-0.0004891,-4997,0.11284
16712,4.5913,1.4545,0.05,1.3062e-06,13.053,1.003e-06,7.5362,-8.1466e-13,-1.2225e-05,-1.003e-06,-7.5362,0.11732
16713,4.5913,1.1818,0,0.00048627,4859.3,0.00017342,0.029307,0.00013814,-265.12,-0.00049024,-4986.5,0.11623
16714,4.4995,1.2727,0,0.00048717,4868.4,0.00017518,0.024611,0.00013587,-295.33,-0.00049152,-5009.3,0.11212
16715,4.5913,1.2727,0.05,1.3085e-06,13.076,1.0048e-06,7.5495,5.6887e-13,-2.5898e-05,-1.0048e-06,-7.5496,0.11659
16716,4.5913,1,0,0.00048933,4889.9,0.0001726,0.042526,0.00014237,-227.07,-0.0004928,-4999.5,0.11537
16717,4.4995,1.0909,0,0.00049025,4899.2,0.00017434,0.037688,0.00014017,-256.7,-0.00049412,-5022.4,0.11132
16718,4.5913,1.0909,0.05,1.3097e-06,13.088,1.0057e-06,7.5564,7.431e-13,-1.6908e-05,-1.0057e-06,-7.5564,0.11578
16719,4.5913,0.81818,0,0.00049256,4922.2,0.00017173,0.062894,0.00014682,-187.12,-0.00049548,-5013.1,0.11442
16720,4.4995,0.90909,0,0.00049353,4931.9,0.00017345,0.052825,0.0001447,-215.9,-0.00049685,-5036.3,0.11042
16721,4.5913,0.90909,0.05,1.3095e-06,13.086,1.0056e-06,7.5554,-2.1794e-12,-1.8314e-05,-1.0056e-06,-7.5554,0.11487
16722,4.5913,0.63636,0,0.00049594,4956,0.00017083,0.081229,0.00015143,-145.64,-0.00049826,-5027.2,0.11337
16723,4.4995,0.72727,0,0.00049697,4966.3,0.00017252,0.08142,0.00014944,-173.33,-0.00049969,-5050.7,0.10942
16724,4.5913,0.72727,0.05,1.3079e-06,13.07,1.0043e-06,7.5458,2.0947e-12,-3.1352e-05,-1.0043e-06,-7.5459,0.11387
16725,4.5913,0.45455,0,0.00049944,4991,0.0001699,0.17991,0.00015618,-102.94,-0.00050111,-5041.5,0.11222
16726,4.4995,0.54545,0,0.00050055,5002.1,0.00017156,0.094121,0.00015432,-129.39,-0.00050262,-5065.4,0.10832
16727,4.5913,0.54545,0.05,1.3056e-06,13.047,1.0026e-06,7.5328,-4.0422e-12,-3.0086e-05,-1.0026e-06,-7.5329,0.11277
16728,4.5913,0.27273,0,0.00050306,5027.1,0.00016895,0.26283,0.00016104,-59.171,-0.00050403,-5056.3,0.11096
16729,4.4995,0.36364,0,0.00050424,5038.9,0.00017058,0.29698,0.00015932,-84.333,-0.00050562,-5080.4,0.10713
16730,4.5913,0.36364,0.05,1.3155e-06,13.146,1.0102e-06,7.5899,-2.4726e-12,-4.4392e-05,-1.0102e-06,-7.59,0.11157
16731,4.4995,0.18182,0,0.00050807,5077.2,0.00016959,0.35567,0.00016444,-38.286,-0.00050871,-5096.1,0.10582
16732,4.5913,0.18182,0.05,1.5636e-06,15.625,1.2006e-06,9.021,3.2982e-12,-1.2418e-05,-1.2006e-06,-9.0211,0.11026
16733,4.5913,0.090909,0,0.00050626,5059.1,0.00016806,0.23657,0.0001654,-19.758,-0.00050659,-5068.9,0.1096
16734,4.4077,5.7273,0,0.00050926,5089.1,0.00017121,0.293,0.00016274,-63.305,-0.0005103,-5120.3,0.1021
16735,4.3159,5.8182,0,0.00051446,5141,0.00017181,0.40753,0.00016636,-40.545,-0.00051513,-5161,0.09714
16736,4.4077,5.8182,0.05,1.6918e-06,16.906,1.2991e-06,9.7609,-2.0956e-12,4.3456e-05,-1.2991e-06,-9.7607,0.10141
16737,4.4077,5.9091,0,0.00051267,5123.2,0.00017024,0.25491,0.00016742,-20.918,-0.00051302,-5133.5,0.10075
16738,4.4077,5.5455,0,0.00050535,5050,0.00017224,0.19748,0.00015747,-110.74,-0.00050714,-5104.4,0.10335
16739,4.3159,5.6364,0,0.00051031,5099.6,0.00017289,0.32569,0.00016081,-90.455,-0.00051179,-5144.1,0.098432
16740,4.4077,5.6364,0.05,1.3561e-06,13.552,1.0413e-06,7.8241,-1.4337e-12,3.3773e-05,-1.0413e-06,-7.824,0.1027
16741,4.4077,5.3636,0,0.00050158,5012.3,0.00017325,0.089485,0.00015233,-157.04,-0.00050407,-5089,0.10449
16742,4.3159,5.4545,0,0.00050633,5059.9,0.00017395,0.10402,0.0001554,-139.29,-0.00050856,-5128,0.099618
16743,4.4077,5.4545,0.05,1.3416e-06,13.406,1.0302e-06,7.7403,-1.9271e-12,3.3371e-05,-1.0302e-06,-7.7402,0.1039
16744,4.4077,5.1818,0,0.00049794,4976,0.00017423,0.069092,0.00014733,-202.07,-0.00050107,-5073.9,0.10553
16745,4.3159,5.2727,0,0.00050248,5021.3,0.000175,0.089468,0.00015011,-186.96,-0.0005054,-5112.1,0.1007
16746,4.4077,5.2727,0.05,1.3439e-06,13.43,1.032e-06,7.7538,1.624e-12,4.8806e-05,-1.0319e-06,-7.7536,0.10499
16747,4.4077,5,0,0.00049445,4941.1,0.00017518,0.046713,0.0001425,-245.49,-0.00049817,-5059.3,0.10647
16748,4.3159,5.0909,0,0.00049877,4984.3,0.00017602,0.058069,0.00014497,-233.21,-0.00050233,-5096.7,0.10169
16749,4.4077,5.0909,0.05,1.3458e-06,13.449,1.0334e-06,7.7646,-3.5478e-12,3.229e-05,-1.0334e-06,-7.7646,0.10598
16750,4.4077,4.8182,0,0.00049116,4908.2,0.00017609,0.032183,0.0001379,-286.88,-0.00049541,-5045.3,0.10732
16751,4.3159,4.9091,0,0.00049524,4949,0.00017699,0.041398,0.00014004,-277.57,-0.00049938,-5081.9,0.10258
16752,4.4077,4.9091,0.05,1.346e-06,13.451,1.0336e-06,7.766,-1.9277e-12,5.3055e-05,-1.0336e-06,-7.7658,0.10687
16753,4.4077,4.6364,0,0.00048808,4877.4,0.00017694,0.020164,0.00013357,-325.81,-0.0004928,-5032.1,0.10808
16754,4.3159,4.7273,0,0.00049193,4915.9,0.00017791,0.027051,0.00013537,-319.61,-0.00049658,-5067.9,0.10337
16755,4.4077,4.7273,0.05,1.3447e-06,13.438,1.0326e-06,7.7583,-3.6755e-12,2.9343e-05,-1.0326e-06,-7.7582,0.10768
16756,4.4077,4.4545,0,0.00048525,4849.1,0.00017772,0.01054,0.00012956,-361.9,-0.00049039,-5019.9,0.10875
16757,4.3159,4.5455,0,0.00048885,4885.2,0.00017877,0.015935,0.00013101,-358.89,-0.00049397,-5054.7,0.10408
16758,4.4077,4.5455,0.05,1.3421e-06,13.412,1.0306e-06,7.7434,2.258e-12,1.6974e-05,-1.0306e-06,-7.7433,0.10839
16759,4.4077,4.2727,0,0.00048269,4823.5,0.00017844,0.0025935,0.0001259,-394.75,-0.00048819,-5008.8,0.10933
16760,4.3159,4.3636,0,0.00048605,4857.2,0.00017957,0.0067528,0.00012699,-395,-0.00049156,-5042.6,0.1047
16761,4.4077,4.3636,0.05,1.3386e-06,13.376,1.0279e-06,7.7229,-1.9276e-12,1.4835e-05,-1.0279e-06,-7.7229,0.10902
16762,4.4077,4.0909,0,0.00048042,4800.9,0.00017908,-0.0039284,0.00012264,-424.01,-0.00048623,-4998.8,0.10983
16763,4.3159,4.1818,0,0.00048354,4832.1,0.00018028,-0.00076348,0.00012338,-427.54,-0.0004894,-5031.7,0.10524
16764,4.4077,4.1818,0.05,1.3344e-06,13.335,1.0247e-06,7.699,-1.1695e-12,1.6697e-05,-1.0247e-06,-7.6989,0.10956
16765,4.4077,3.9091,0,0.00047847,4781.4,0.00017963,-0.0092301,0.00011982,-449.35,-0.00048453,-4990.2,0.11025
16766,4.3159,4,0,0.00048136,4810.2,0.00018091,-0.0069062,0.0001202,-456.15,-0.00048749,-5022.1,0.1057
16767,4.4077,4,0.05,1.33e-06,13.291,1.0213e-06,7.6736,-1.0062e-12,1.2302e-05,-1.0213e-06,-7.6736,0.11002
16768,4.4077,3.7273,0,0.00047685,4765.2,0.00018009,-0.013434,0.00011747,-470.49,-0.00048311,-4983,0.11059
16769,4.3159,3.8182,0,0.0004795,4791.7,0.00018144,-0.011834,0.00011749,-480.5,-0.00048587,-5013.9,0.10608
16770,4.4077,3.8182,0.05,1.3257e-06,13.248,1.018e-06,7.6489,-5.1566e-13,9.7475e-06,-1.018e-06,-7.6489,0.1104
16771,4.4077,3.5455,0,0.00047558,4752.5,0.00018045,-0.016626,0.00011561,-487.18,-0.00048199,-4977.3,0.11086
16772,4.3159,3.6364,0,0.00047801,4776.8,0.00018187,-0.01566,0.00011529,-500.32,-0.00048455,-5007.2,0.10638
16773,4.4077,3.6364,0.05,1.3219e-06,13.21,1.0151e-06,7.6267,-2.6938e-12,7.4205e-06,-1.015e-06,-7.6267,0.11071
16774,4.4077,3.3636,0,0.00047466,4743.3,0.00018071,-0.018866,0.00011427,-499.24,-0.00048118,-4973.2,0.11105
16775,4.3159,3.4545,0,0.00047687,4765.4,0.0001822,-0.018465,0.00011361,-515.39,-0.00048354,-5002.2,0.1066
16776,4.4077,3.4545,0.05,1.3187e-06,13.178,1.0126e-06,7.6086,-3.4433e-13,5.1358e-06,-1.0126e-06,-7.6085,0.11093
16777,4.4077,3.1818,0,0.00047411,4737.8,0.00018087,-0.020195,0.00011346,-506.54,-0.00048069,-4970.7,0.11116
16778,4.3159,3.2727,0,0.00047611,4757.8,0.00018243,-0.020306,0.00011248,-525.54,-0.00048287,-4998.8,0.10675
16779,4.4077,3.2727,0.05,1.3165e-06,13.156,1.0109e-06,7.5958,-1.4689e-12,2.9546e-06,-1.0109e-06,-7.5957,0.11108
16780,4.4077,3,0,0.00047392,4735.9,0.00018093,-0.020636,0.00011319,-508.98,-0.00048052,-4969.9,0.1112
16781,4.3159,3.0909,0,0.00047573,4754,0.00018254,-0.021219,0.00011192,-530.64,-0.00048253,-4997.1,0.10682
16782,4.4077,3.0909,0.05,1.3154e-06,13.145,1.01e-06,7.5891,1.1531e-13,8.6807e-07,-1.01e-06,-7.5891,0.11116
16783,4.4077,2.8182,0,0.00047411,4737.8,0.00018087,-0.020195,0.00011346,-506.54,-0.00048069,-4970.7,0.11116
16784,4.3159,2.9091,0,0.00047573,4754,0.00018254,-0.021219,0.00011192,-530.64,-0.00048253,-4997.1,0.10682
16785,4.4077,2.9091,0.05,1.3154e-06,13.145,1.01e-06,7.5891,-1.1531e-13,-8.6807e-07,-1.01e-06,-7.5891,0.11116
16786,4.4077,2.6364,0,0.00047466,4743.3,0.00018071,-0.018866,0.00011427,-499.24,-0.00048118,-4973.2,0.11105
16787,4.3159,2.7273,0,0.00047611,4757.8,0.00018243,-0.020306,0.00011248,-525.54,-0.00048287,-4998.8,0.10675
16788,4.4077,2.7273,0.05,1.3165e-06,13.156,1.0109e-06,7.5957,-3.3911e-13,-2.5491e-06,-1.0109e-06,-7.5957,0.11108
16789,4.4077,2.4545,0,0.00047558,4752.5,0.00018045,-0.016625,0.00011561,-487.18,-0.00048199,-4977.3,0.11086
16790,4.3159,2.5455,0,0.00047687,4765.4,0.0001822,-0.018465,0.00011361,-515.39,-0.00048354,-5002.2,0.1066
16791,4.4077,2.5455,0.05,1.3187e-06,13.178,1.0126e-06,7.6085,3.2985e-13,-4.1293e-06,-1.0126e-06,-7.6085,0.11093
16792,4.4077,2.2727,0,0.00047685,4765.2,0.00018009,-0.013434,0.00011747,-470.49,-0.00048311,-4983,0.11059
16793,4.3159,2.3636,0,0.00047801,4776.8,0.00018187,-0.01566,0.00011529,-500.32,-0.00048455,-5007.2,0.10638
16794,4.4077,2.3636,0.05,1.3219e-06,13.21,1.0151e-06,7.6267,1.6591e-13,-7.2539e-06,-1.015e-06,-7.6267,0.11071
16795,4.4077,2.0909,0,0.00047847,4781.4,0.00017963,-0.0092297,0.00011982,-449.35,-0.00048453,-4990.2,0.11025
16796,4.3159,2.1818,0,0.0004795,4791.7,0.00018144,-0.011833,0.00011749,-480.5,-0.00048587,-5013.9,0.10608
16797,4.4077,2.1818,0.05,1.3257e-06,13.248,1.018e-06,7.6489,-2.1454e-13,-9.7475e-06,-1.018e-06,-7.6489,0.1104
16798,4.4077,1.9091,0,0.00048042,4800.9,0.00017908,-0.003928,0.00012264,-424.01,-0.00048623,-4998.8,0.10983
16799,4.3159,2,0,0.00048136,4810.2,0.00018091,-0.0069057,0.0001202,-456.15,-0.00048749,-5022.1,0.1057
16800,4.4077,2,0.05,1.33e-06,13.291,1.0213e-06,7.6736,-4.7781e-13,-7.8972e-06,-1.0213e-06,-7.6736,0.11002
16801,4.4077,1.7273,0,0.00048269,4823.5,0.00017844,0.002594,0.0001259,-394.75,-0.00048819,-5008.8,0.10933
16802,4.3159,1.8182,0,0.00048354,4832.1,0.00018028,-0.00076304,0.00012338,-427.54,-0.0004894,-5031.7,0.10524
16803,4.4077,1.8182,0.05,1.3344e-06,13.335,1.0247e-06,7.6989,-4.7489e-13,-1.4287e-05,-1.0247e-06,-7.699,0.10956
16804,4.4077,1.5455,0,0.00048525,4849.1,0.00017772,0.010541,0.00012956,-361.9,-0.00049039,-5019.9,0.10875
16805,4.3159,1.6364,0,0.00048605,4857.2,0.00017957,0.0067535,0.00012699,-395,-0.00049156,-5042.6,0.1047
16806,4.4077,1.6364,0.05,1.3386e-06,13.376,1.0279e-06,7.7229,1.8535e-12,-8.0816e-06,-1.0279e-06,-7.7229,0.10902
16807,4.4077,1.3636,0,0.00048808,4877.4,0.00017694,0.020164,0.00013357,-325.81,-0.0004928,-5032.1,0.10808
16808,4.3159,1.4545,0,0.00048885,4885.2,0.00017877,0.015936,0.00013101,-358.89,-0.00049397,-5054.7,0.10408
16809,4.4077,1.4545,0.05,1.3421e-06,13.412,1.0306e-06,7.7433,-1.3682e-13,-1.6974e-05,-1.0306e-06,-7.7434,0.10839
16810,4.4077,1.1818,0,0.00049116,4908.2,0.00017609,0.032183,0.0001379,-286.88,-0.00049541,-5045.3,0.10732
16811,4.3159,1.2727,0,0.00049193,4915.9,0.00017791,0.027051,0.00013537,-319.61,-0.00049658,-5067.9,0.10337
16812,4.4077,1.2727,0.05,1.3447e-06,13.438,1.0326e-06,7.7582,3.3339e-12,-2.9343e-05,-1.0326e-06,-7.7583,0.10768
16813,4.4077,1,0,0.00049445,4941.1,0.00017518,0.046714,0.0001425,-245.49,-0.00049817,-5059.3,0.10647
16814,4.3159,1.0909,0,0.00049524,4949,0.00017699,0.041399,0.00014004,-277.57,-0.00049938,-5081.9,0.10258
16815,4.4077,1.0909,0.05,1.346e-06,13.451,1.0336e-06,7.7658,-6.5069e-13,-5.456e-05,-1.0336e-06,-7.766,0.10687
16816,4.4077,0.81818,0,0.00049794,4976,0.00017423,0.069093,0.00014733,-202.07,-0.00050107,-5073.9,0.10553
16817,4.3159,0.90909,0,0.00049877,4984.3,0.00017602,0.05807,0.00014497,-233.21,-0.00050233,-5096.7,0.10169
16818,4.4077,0.90909,0.05,1.3458e-06,13.449,1.0334e-06,7.7646,1.9305e-12,-3.3853e-05,-1.0334e-06,-7.7646,0.10598
16819,4.4077,0.63636,0,0.00050158,5012.3,0.00017325,0.089485,0.00015233,-157.04,-0.00050407,-5089,0.10449
16820,4.3159,0.72727,0,0.00050248,5021.3,0.000175,0.089469,0.00015011,-186.96,-0.0005054,-5112.1,0.1007
16821,4.4077,0.72727,0.05,1.3439e-06,13.43,1.0319e-06,7.7537,-1.624e-12,-2.0559e-05,-1.032e-06,-7.7537,0.10499
16822,4.4077,0.45455,0,0.00050535,5050,0.00017224,0.19748,0.00015747,-110.74,-0.00050714,-5104.4,0.10335
16823,4.3159,0.54545,0,0.00050633,5059.9,0.00017395,0.10402,0.0001554,-139.29,-0.00050856,-5128,0.099618
16824,4.4077,0.54545,0.05,1.3416e-06,13.406,1.0302e-06,7.7402,1.7312e-12,-3.4193e-05,-1.0302e-06,-7.7403,0.1039
16825,4.4077,0.27273,0,0.00050926,5089.1,0.00017121,0.29301,0.00016274,-63.305,-0.0005103,-5120.3,0.1021
16826,4.3159,0.36364,0,0.00051031,5099.6,0.00017289,0.32569,0.00016081,-90.455,-0.00051179,-5144.1,0.098432
16827,4.4077,0.36364,0.05,1.3561e-06,13.552,1.0413e-06,7.8241,1.2369e-12,-1.8537e-05,-1.0413e-06,-7.8241,0.1027
16828,4.3159,0.18182,0,0.00051446,5141,0.00017181,0.40754,0.00016636,-40.545,-0.00051513,-5161,0.09714
16829,4.4077,0.18182,0.05,1.6918e-06,16.906,1.2991e-06,9.7608,4.2219e-13,-3.3498e-05,-1.2991e-06,-9.7609,0.10141
16830,4.4077,0.090909,0,0.00051267,5123.2,0.00017024,0.25491,0.00016742,-20.918,-0.00051302,-5133.5,0.10075
16831,4.224,5.7273,0,0.00051551,5151.6,0.00017348,0.32739,0.00016445,-67.526,-0.00051662,-5184.8,0.093584
16832,4.1322,5.8182,0,0.00052091,5205.5,0.00017405,0.46973,0.0001683,-42.711,-0.00052162,-5226.5,0.088802
16833,4.224,5.8182,0.05,1.8289e-06,18.277,1.4044e-06,10.552,-1.8089e-12,3.3336e-05,-1.4044e-06,-10.552,0.092894
16834,4.224,5.9091,0,0.00051915,5187.9,0.00017243,0.27526,0.00016946,-22.007,-0.00051951,-5198.7,0.092243
16835,4.224,5.5455,0,0.0005113,5109.4,0.0001746,0.21686,0.00015874,-118.94,-0.00051321,-5167.7,0.094817
16836,4.1322,5.6364,0,0.00051643,5160.7,0.00017522,0.35739,0.00016229,-96.822,-0.000518,-5208.3,0.090082
16837,4.224,5.6364,0.05,1.3998e-06,13.989,1.0749e-06,8.0765,2.4833e-12,3.7116e-05,-1.0749e-06,-8.0764,0.094181
16838,4.224,5.3636,0,0.00050723,5068.8,0.0001757,0.098633,0.00015318,-169.15,-0.0005099,-5151.2,0.095945
16839,4.1322,5.4545,0,0.00051214,5117.9,0.00017638,0.11505,0.00015643,-149.75,-0.00051452,-5191,0.091256
16840,4.224,5.4545,0.05,1.3807e-06,13.797,1.0602e-06,7.966,1.9741e-12,3.8684e-05,-1.0602e-06,-7.9659,0.095362
16841,4.224,5.1818,0,0.00050331,5029.6,0.00017678,0.075936,0.00014775,-218.04,-0.00050666,-5135.1,0.096973
16842,4.1322,5.2727,0,0.00050799,5076.4,0.00017752,0.098354,0.0001507,-201.48,-0.00051111,-5174,0.092326
16843,4.224,5.2727,0.05,1.3833e-06,13.823,1.0622e-06,7.981,-3.2475e-12,5.4087e-05,-1.0622e-06,-7.9808,0.096439
16844,4.224,5,0,0.00049956,4992.1,0.00017782,0.051342,0.00014251,-265.24,-0.00050354,-5119.4,0.097903
16845,4.1322,5.0909,0,0.00050399,5036.5,0.00017864,0.063864,0.00014513,-251.72,-0.0005078,-5157.6,0.093297
16846,4.224,5.0909,0.05,1.3856e-06,13.846,1.0639e-06,7.9941,-3.3763e-12,6.8137e-05,-1.0639e-06,-7.9939,0.097418
16847,4.224,4.8182,0,0.00049601,4956.7,0.00017881,0.035369,0.00013752,-310.26,-0.00050056,-5104.5,0.098739
16848,4.1322,4.9091,0,0.0005002,4998.5,0.00017971,0.045499,0.00013978,-299.97,-0.00050463,-5141.7,0.094173
16849,4.224,4.9091,0.05,1.3859e-06,13.85,1.0642e-06,7.9962,1.5692e-12,6.2828e-06,-1.0642e-06,-7.9962,0.098301
16850,4.224,4.6364,0,0.0004927,4923.6,0.00017975,0.022199,0.00013281,-352.66,-0.00049775,-5090.4,0.099485
16851,4.1322,4.7273,0,0.00049664,4962.9,0.00018072,0.02976,0.0001347,-345.73,-0.00050161,-5126.7,0.094957
16852,4.224,4.7273,0.05,1.3846e-06,13.836,1.0632e-06,7.9884,3.774e-12,3.2334e-05,-1.0632e-06,-7.9883,0.099092
16853,4.224,4.4545,0,0.00048966,4893.2,0.00018062,0.011684,0.00012845,-391.97,-0.00049515,-5077.4,0.10014
16854,4.1322,4.5455,0,0.00049334,4930,0.00018167,0.017598,0.00012996,-388.52,-0.0004988,-5112.7,0.095652
16855,4.224,4.5455,0.05,1.3818e-06,13.808,1.061e-06,7.9721,1.7227e-12,9.8922e-06,-1.061e-06,-7.9721,0.099794
16856,4.224,4.2727,0,0.00048691,4865.8,0.0001814,0.003032,0.00012447,-427.78,-0.00049277,-5065.5,0.10072
16857,4.1322,4.3636,0,0.00049033,4899.9,0.00018254,0.0075919,0.00012559,-427.87,-0.00049621,-5099.8,0.096262
16858,4.224,4.3636,0.05,1.3778e-06,13.769,1.058e-06,7.9495,-1.4817e-12,1.0471e-05,-1.058e-06,-7.9495,0.10041
16859,4.224,4.0909,0,0.00048448,4841.5,0.00018211,-0.0040403,0.00012093,-459.67,-0.00049066,-5054.9,0.10121
16860,4.1322,4.1818,0,0.00048765,4873.1,0.00018333,-0.00056376,0.00012166,-463.34,-0.00049387,-5088.2,0.096789
16861,4.224,4.1818,0.05,1.3732e-06,13.723,1.0545e-06,7.923,-1.1826e-12,2.0941e-05,-1.0545e-06,-7.9229,0.10094
16862,4.224,3.9091,0,0.00048239,4820.6,0.00018272,-0.0097651,0.00011786,-487.31,-0.00048883,-5045.8,0.10162
16863,4.1322,4,0,0.00048531,4849.7,0.00018402,-0.0071971,0.00011821,-494.52,-0.00049182,-5078,0.097236
16864,4.224,4,0.05,1.3684e-06,13.674,1.0507e-06,7.8949,-2.3453e-12,1.7791e-05,-1.0507e-06,-7.8948,0.1014
16865,4.224,3.7273,0,0.00048066,4803.3,0.00018322,-0.014286,0.0001153,-510.36,-0.0004873,-5038.1,0.10196
16866,4.1322,3.8182,0,0.00048333,4830,0.00018461,-0.012492,0.00011526,-521.07,-0.00049008,-5069.4,0.097605
16867,4.224,3.8182,0.05,1.3636e-06,13.627,1.0471e-06,7.8674,-1.2098e-12,1.0551e-05,-1.0471e-06,-7.8674,0.10177
16868,4.224,3.5455,0,0.0004793,4789.7,0.00018363,-0.017705,0.00011328,-528.56,-0.0004861,-5032.1,0.10222
16869,4.1322,3.6364,0,0.00048173,4814,0.00018509,-0.016586,0.00011287,-542.69,-0.00048866,-5062.3,0.097898
16870,4.224,3.6364,0.05,1.3593e-06,13.584,1.0438e-06,7.8428,-1.6126e-12,1.2544e-05,-1.0438e-06,-7.8426,0.10206
16871,4.224,3.3636,0,0.00047832,4779.9,0.00018392,-0.020098,0.00011182,-541.72,-0.00048523,-5027.7,0.1024
16872,4.1322,3.4545,0,0.00048052,4801.9,0.00018546,-0.019574,0.00011105,-559.12,-0.00048758,-5057,0.098116
16873,4.224,3.4545,0.05,1.3559e-06,13.549,1.0411e-06,7.8226,6.8996e-13,5.5295e-06,-1.0411e-06,-7.8226,0.10229
16874,4.224,3.1818,0,0.00047773,4774,0.00018409,-0.021515,0.00011094,-549.68,-0.0004847,-5025.1,0.10251
16875,4.1322,3.2727,0,0.00047971,4793.8,0.0001857,-0.02153,0.00010982,-570.17,-0.00048686,-5053.4,0.098261
16876,4.224,3.2727,0.05,1.3534e-06,13.525,1.0392e-06,7.8084,-1.4411e-12,3.1297e-06,-1.0392e-06,-7.8084,0.10243
16877,4.224,3,0,0.00047753,4772,0.00018415,-0.021984,0.00011064,-552.34,-0.00048452,-5024.2,0.10255
16878,4.1322,3.0909,0,0.0004793,4789.7,0.00018583,-0.022497,0.0001092,-575.73,-0.00048649,-5051.6,0.098334
16879,4.224,3.0909,0.05,1.3521e-06,13.512,1.0383e-06,7.8011,1.2274e-13,9.3058e-07,-1.0383e-06,-7.8011,0.10251
16880,4.224,2.8182,0,0.00047773,4774,0.00018409,-0.021515,0.00011094,-549.68,-0.0004847,-5025.1,0.10251
16881,4.1322,2.9091,0,0.0004793,4789.7,0.00018583,-0.022497,0.0001092,-575.73,-0.00048649,-5051.6,0.098334
16882,4.224,2.9091,0.05,1.3521e-06,13.512,1.0383e-06,7.8011,-1.2352e-13,-9.2398e-07,-1.0383e-06,-7.8011,0.10251
16883,4.224,2.6364,0,0.00047832,4779.9,0.00018392,-0.020098,0.00011182,-541.72,-0.00048523,-5027.7,0.1024
16884,4.1322,2.7273,0,0.00047971,4793.8,0.0001857,-0.02153,0.00010982,-570.17,-0.00048686,-5053.4,0.098261
16885,4.224,2.7273,0.05,1.3534e-06,13.525,1.0392e-06,7.8084,-3.6548e-13,-2.7121e-06,-1.0392e-06,-7.8084,0.10243
16886,4.224,2.4545,0,0.0004793,4789.7,0.00018363,-0.017705,0.00011328,-528.56,-0.0004861,-5032.1,0.10222
16887,4.1322,2.5455,0,0.00048052,4801.9,0.00018546,-0.019574,0.00011105,-559.12,-0.00048758,-5057,0.098116
16888,4.224,2.5455,0.05,1.3559e-06,13.549,1.0411e-06,7.8226,-6.0024e-13,-4.3896e-06,-1.0411e-06,-7.8226,0.10229
16889,4.224,2.2727,0,0.00048066,4803.3,0.00018322,-0.014285,0.0001153,-510.36,-0.0004873,-5038.1,0.10196
16890,4.1322,2.3636,0,0.00048173,4814,0.00018509,-0.016585,0.00011287,-542.69,-0.00048866,-5062.3,0.097898
16891,4.224,2.3636,0.05,1.3593e-06,13.584,1.0438e-06,7.8427,-9.7313e-13,-1.0721e-05,-1.0438e-06,-7.8428,0.10206
16892,4.224,2.0909,0,0.00048239,4820.6,0.00018272,-0.0097647,0.00011786,-487.31,-0.00048883,-5045.8,0.10162
16893,4.1322,2.1818,0,0.00048333,4830,0.00018461,-0.012492,0.00011526,-521.07,-0.00049008,-5069.4,0.097605
16894,4.224,2.1818,0.05,1.3636e-06,13.627,1.0471e-06,7.8674,1.2625e-12,-7.0737e-06,-1.0471e-06,-7.8674,0.10177
16895,4.224,1.9091,0,0.00048448,4841.5,0.00018211,-0.0040398,0.00012093,-459.67,-0.00049066,-5054.9,0.10121
16896,4.1322,2,0,0.00048531,4849.7,0.00018402,-0.0071966,0.00011821,-494.52,-0.00049182,-5078,0.097236
16897,4.224,2,0.05,1.3684e-06,13.674,1.0507e-06,7.8948,1.4478e-12,-1.2811e-05,-1.0507e-06,-7.8948,0.1014
16898,4.224,1.7273,0,0.00048691,4865.8,0.0001814,0.0030326,0.00012447,-427.78,-0.00049277,-5065.5,0.10072
16899,4.1322,1.8182,0,0.00048765,4873.1,0.00018333,-0.00056326,0.00012166,-463.34,-0.00049387,-5088.2,0.096789
16900,4.224,1.8182,0.05,1.3732e-06,13.723,1.0545e-06,7.9229,1.1604e-12,-2.0941e-05,-1.0545e-06,-7.923,0.10094
16901,4.224,1.5455,0,0.00048966,4893.2,0.00018062,0.011685,0.00012845,-391.97,-0.00049515,-5077.4,0.10014
16902,4.1322,1.6364,0,0.00049033,4899.9,0.00018254,0.0075925,0.00012559,-427.87,-0.00049621,-5099.8,0.096262
16903,4.224,1.6364,0.05,1.3778e-06,13.769,1.058e-06,7.9495,9.0231e-13,-1.0471e-05,-1.058e-06,-7.9495,0.10041
16904,4.224,1.3636,0,0.0004927,4923.6,0.00017975,0.0222,0.00013281,-352.66,-0.00049775,-5090.4,0.099485
16905,4.1322,1.4545,0,0.00049334,4930,0.00018167,0.017599,0.00012996,-388.52,-0.0004988,-5112.7,0.095652
16906,4.224,1.4545,0.05,1.3818e-06,13.808,1.061e-06,7.9721,-3.4115e-12,-6.7039e-06,-1.061e-06,-7.9721,0.099794
16907,4.224,1.1818,0,0.00049601,4956.7,0.00017881,0.03537,0.00013752,-310.26,-0.00050056,-5104.5,0.098739
16908,4.1322,1.2727,0,0.00049664,4962.9,0.00018072,0.029761,0.0001347,-345.73,-0.00050161,-5126.7,0.094957
16909,4.224,1.2727,0.05,1.3846e-06,13.836,1.0632e-06,7.9883,-2.3832e-12,-2.2167e-05,-1.0632e-06,-7.9884,0.099092
16910,4.224,1,0,0.00049956,4992.1,0.00017782,0.051343,0.00014251,-265.24,-0.00050354,-5119.4,0.097903
16911,4.1322,1.0909,0,0.0005002,4998.5,0.00017971,0.045499,0.00013978,-299.97,-0.00050463,-5141.7,0.094173
16912,4.224,1.0909,0.05,1.3859e-06,13.85,1.0642e-06,7.9962,-2.8074e-12,-9.4241e-06,-1.0642e-06,-7.9962,0.098301
16913,4.224,0.81818,0,0.00050331,5029.6,0.00017678,0.075937,0.00014775,-218.04,-0.00050666,-5135.1,0.096973
16914,4.1322,0.90909,0,0.00050399,5036.5,0.00017864,0.063865,0.00014513,-251.72,-0.0005078,-5157.6,0.093297
16915,4.224,0.90909,0.05,1.3856e-06,13.846,1.0639e-06,7.9939,3.3763e-12,-3.7322e-05,-1.0639e-06,-7.994,0.097418
16916,4.224,0.63636,0,0.00050723,5068.8,0.0001757,0.098633,0.00015318,-169.15,-0.0005099,-5151.2,0.095945
16917,4.1322,0.72727,0,0.00050799,5076.4,0.00017752,0.098354,0.0001507,-201.48,-0.00051111,-5174,0.092326
16918,4.224,0.72727,0.05,1.3833e-06,13.823,1.0622e-06,7.9809,3.2475e-12,-5.2701e-06,-1.0622e-06,-7.9809,0.096439
16919,4.224,0.45455,0,0.0005113,5109.4,0.0001746,0.21686,0.00015874,-118.94,-0.00051321,-5167.7,0.094817
16920,4.1322,0.54545,0,0.00051214,5117.9,0.00017638,0.11505,0.00015643,-149.75,-0.00051452,-5191,0.091256
16921,4.224,0.54545,0.05,1.3807e-06,13.797,1.0602e-06,7.9659,-2.1772e-12,-3.8684e-05,-1.0602e-06,-7.966,0.095362
16922,4.224,0.27273,0,0.00051551,5151.6,0.00017348,0.32739,0.00016445,-67.526,-0.00051662,-5184.8,0.093584
16923,4.1322,0.36364,0,0.00051643,5160.7,0.00017522,0.35739,0.00016229,-96.822,-0.000518,-5208.3,0.090082
16924,4.224,0.36364,0.05,1.3998e-06,13.989,1.0749e-06,8.0764,2.0236e-12,-3.7116e-05,-1.0749e-06,-8.0765,0.094181
16925,4.1322,0.18182,0,0.00052091,5205.5,0.00017405,0.46973,0.0001683,-42.711,-0.00052162,-5226.5,0.088802
16926,4.224,0.18182,0.05,1.8289e-06,18.277,1.4044e-06,10.552,4.8314e-13,-3.3276e-05,-1.4044e-06,-10.552,0.092894
16927,4.224,0.090909,0,0.00051915,5187.9,0.00017243,0.27526,0.00016946,-22.007,-0.00051951,-5198.7,0.092243
16928,4.0404,5.7273,0,0.00052182,5214.6,0.00017578,0.36671,0.00016617,-71.809,-0.000523,-5250,0.085415
16929,3.9486,5.8182,0,0.00052743,5270.7,0.00017631,0.54478,0.00017028,-44.742,-0.00052817,-5292.7,0.080816
16930,4.0404,5.8182,0.05,1.9753e-06,19.739,1.5168e-06,11.397,-4.1774e-12,3.2827e-05,-1.5168e-06,-11.396,0.084732
16931,4.0404,5.9091,0,0.00052568,5253.1,0.00017464,0.2979,0.00017154,-22.995,-0.00052606,-5264.4,0.084086
16932,4.0404,5.5455,0,0.00051727,5169.1,0.000177,0.23827,0.00015999,-127.55,-0.00051932,-5231.6,0.086634
16933,3.9486,5.6364,0,0.00052258,5222.2,0.00017758,0.39246,0.00016376,-103.42,-0.00052425,-5272.9,0.082081
16934,4.0404,5.6364,0.05,1.4469e-06,14.459,1.1111e-06,8.3482,-2.0763e-13,6.1049e-05,-1.1111e-06,-8.348,0.086005
16935,4.0404,5.3636,0,0.00051289,5125.4,0.0001782,0.10878,0.00015396,-182.01,-0.00051574,-5213.9,0.087748
16936,3.9486,5.4545,0,0.00051796,5176,0.00017884,0.12735,0.00015742,-160.79,-0.0005205,-5254.5,0.08324
16937,4.0404,5.4545,0.05,1.4233e-06,14.223,1.0929e-06,8.2117,5.9612e-12,4.5724e-05,-1.0929e-06,-8.2116,0.087172
16938,4.0404,5.1818,0,0.00050867,5083.2,0.00017938,0.083492,0.00014808,-235.1,-0.00051226,-5196.6,0.088761
16939,3.9486,5.2727,0,0.00051349,5131.3,0.00018009,0.10818,0.00015121,-216.94,-0.00051683,-5236.3,0.084294
16940,4.0404,5.2727,0.05,1.4264e-06,14.254,1.0953e-06,8.2295,3.2485e-12,5.9804e-05,-1.0953e-06,-8.2293,0.088235
16941,4.0404,5,0,0.00050464,5042.9,0.00018052,0.056452,0.00014239,-286.4,-0.0005089,-5179.9,0.089676
16942,3.9486,5.0909,0,0.0005092,5088.5,0.00018131,0.07027,0.00014516,-271.54,-0.00051327,-5218.7,0.08525
16943,4.0404,5.0909,0.05,1.4292e-06,14.282,1.0975e-06,8.2459,2.8506e-13,5.5689e-05,-1.0975e-06,-8.2458,0.089199
16944,4.0404,4.8182,0,0.00050082,5004.8,0.00018161,0.038893,0.00013697,-335.4,-0.00050568,-5164,0.090498
16945,3.9486,4.9091,0,0.00050512,5047.7,0.00018249,0.05003,0.00013935,-324.02,-0.00050985,-5201.9,0.08611
16946,4.0404,4.9091,0.05,1.4299e-06,14.289,1.098e-06,8.25,7.5341e-13,3.774e-05,-1.098e-06,-8.2499,0.090067
16947,4.0404,4.6364,0,0.00049727,4969.3,0.00018264,0.024467,0.00013185,-381.56,-0.00050266,-5149.1,0.09123
16948,3.9486,4.7273,0,0.0005013,5009.5,0.0001836,0.032766,0.00013384,-373.84,-0.00050661,-5185.9,0.086879
16949,4.0404,4.7273,0.05,1.4286e-06,14.276,1.097e-06,8.2424,-3.6552e-13,2.2475e-05,-1.097e-06,-8.2424,0.090844
16950,4.0404,4.4545,0,0.00049401,4936.7,0.00018359,0.012991,0.00012711,-424.39,-0.00049986,-5135.2,0.091876
16951,3.9486,4.5455,0,0.00049776,4974.2,0.00018465,0.019472,0.00012869,-420.45,-0.00050358,-5171.1,0.087559
16952,4.0404,4.5455,0.05,1.4256e-06,14.247,1.0947e-06,8.2253,-4.7001e-12,3.2861e-05,-1.0947e-06,-8.2252,0.091532
16953,4.0404,4.2727,0,0.00049107,4907.3,0.00018447,0.0035918,0.00012279,-463.41,-0.00049731,-5122.6,0.092438
16954,3.9486,4.3636,0,0.00049455,4942.1,0.00018561,0.0085864,0.00012395,-463.32,-0.0005008,-5157.4,0.088155
16955,4.0404,4.3636,0.05,1.4214e-06,14.204,1.0915e-06,8.2008,2.9545e-13,1.8969e-05,-1.0915e-06,-8.2008,0.092136
16956,4.0404,4.0909,0,0.00048847,4881.4,0.00018524,-0.0040529,0.00011894,-498.18,-0.00049504,-5111.4,0.092919
16957,3.9486,4.1818,0,0.00049168,4913.4,0.00018648,-0.00023675,0.00011968,-501.97,-0.00049829,-5145.2,0.08867
16958,4.0404,4.1818,0.05,1.4164e-06,14.154,1.0876e-06,8.1719,-2.2888e-13,1.6183e-05,-1.0876e-06,-8.1719,0.092657
16959,4.0404,3.9091,0,0.00048624,4859.1,0.00018592,-0.010208,0.0001156,-528.3,-0.00049307,-5101.7,0.093321
16960,3.9486,4,0,0.00048919,4888.5,0.00018725,-0.0073696,0.00011592,-535.96,-0.0004961,-5134.4,0.089106
16961,4.0404,4,0.05,1.4111e-06,14.101,1.0835e-06,8.1412,1.0246e-12,8.8146e-06,-1.0835e-06,-8.1412,0.093098
16962,4.0404,3.7273,0,0.0004844,4840.6,0.00018648,-0.015043,0.00011282,-553.43,-0.00049143,-5093.6,0.093648
16963,3.9486,3.8182,0,0.00048708,4867.5,0.0001879,-0.013028,0.00011272,-564.89,-0.00049423,-5125.3,0.089465
16964,4.0404,3.8182,0.05,1.4059e-06,14.049,1.0795e-06,8.1112,-9.7178e-13,1.1397e-05,-1.0795e-06,-8.1112,0.093463
16965,4.0404,3.5455,0,0.00048295,4826.2,0.00018692,-0.018683,0.00011063,-573.27,-0.00049014,-5087.2,0.0939
16966,3.9486,3.6364,0,0.00048538,4850.5,0.00018844,-0.017377,0.00011012,-588.44,-0.00049271,-5117.9,0.089751
16967,4.0404,3.6364,0.05,1.4012e-06,14.002,1.076e-06,8.0843,-2.1475e-12,6.3692e-06,-1.0759e-06,-8.0843,0.093752
16968,4.0404,3.3636,0,0.00048191,4815.7,0.00018724,-0.02122,0.00010904,-587.61,-0.00048921,-5082.6,0.094079
16969,3.9486,3.4545,0,0.0004841,4837.6,0.00018884,-0.020536,0.00010815,-606.34,-0.00049155,-5112.2,0.089963
16970,4.0404,3.4545,0.05,1.3974e-06,13.964,1.073e-06,8.0623,-1.1605e-12,4.929e-06,-1.073e-06,-8.0623,0.093967
16971,4.0404,3.1818,0,0.00048128,4809.5,0.00018744,-0.022717,0.00010808,-596.28,-0.00048864,-5079.8,0.094186
16972,3.9486,3.2727,0,0.00048324,4829,0.00018911,-0.022595,0.00010682,-618.38,-0.00049078,-5108.5,0.090104
16973,4.0404,3.2727,0.05,1.3947e-06,13.938,1.071e-06,8.0469,4.4405e-13,2.8369e-06,-1.071e-06,-8.0469,0.09411
16974,4.0404,3,0,0.00048107,4807.4,0.0001875,-0.023213,0.00010776,-599.18,-0.00048845,-5078.9,0.094221
16975,3.9486,3.0909,0,0.00048281,4824.7,0.00018925,-0.023611,0.00010615,-624.44,-0.00049039,-5106.6,0.090174
16976,4.0404,3.0909,0.05,1.3933e-06,13.924,1.0699e-06,8.0389,-7.744e-13,1.0269e-06,-1.0699e-06,-8.0389,0.094182
16977,4.0404,2.8182,0,0.00048128,4809.5,0.00018744,-0.022717,0.00010808,-596.28,-0.00048864,-5079.8,0.094186
16978,3.9486,2.9091,0,0.00048281,4824.7,0.00018925,-0.023611,0.00010615,-624.44,-0.00049039,-5106.6,0.090174
16979,4.0404,2.9091,0.05,1.3933e-06,13.924,1.0699e-06,8.0389,-1.0359e-12,-9.2836e-07,-1.0699e-06,-8.0389,0.094182
16980,4.0404,2.6364,0,0.00048191,4815.7,0.00018724,-0.021219,0.00010904,-587.61,-0.00048921,-5082.6,0.094079
16981,3.9486,2.7273,0,0.00048324,4829,0.00018911,-0.022595,0.00010682,-618.38,-0.00049078,-5108.5,0.090104
16982,4.0404,2.7273,0.05,1.3947e-06,13.938,1.071e-06,8.0469,-3.7798e-13,-3.0038e-06,-1.071e-06,-8.0469,0.09411
16983,4.0404,2.4545,0,0.00048295,4826.2,0.00018692,-0.018682,0.00011063,-573.27,-0.00049014,-5087.2,0.0939
16984,3.9486,2.5455,0,0.0004841,4837.6,0.00018884,-0.020536,0.00010815,-606.34,-0.00049155,-5112.2,0.089963
16985,4.0404,2.5455,0.05,1.3974e-06,13.964,1.073e-06,8.0623,2.3747e-13,-4.5183e-06,-1.073e-06,-8.0623,0.093967
16986,4.0404,2.2727,0,0.0004844,4840.6,0.00018648,-0.015042,0.00011282,-553.43,-0.00049143,-5093.6,0.093648
16987,3.9486,2.3636,0,0.00048538,4850.5,0.00018844,-0.017377,0.00011012,-588.44,-0.00049271,-5117.9,0.089751
16988,4.0404,2.3636,0.05,1.4012e-06,14.002,1.0759e-06,8.0843,-1.1411e-12,-6.3692e-06,-1.076e-06,-8.0843,0.093752
16989,4.0404,2.0909,0,0.00048624,4859.1,0.00018592,-0.010208,0.0001156,-528.3,-0.00049307,-5101.7,0.093321
16990,3.9486,2.1818,0,0.00048708,4867.5,0.0001879,-0.013028,0.00011272,-564.89,-0.00049423,-5125.3,0.089465
16991,4.0404,2.1818,0.05,1.4059e-06,14.049,1.0795e-06,8.1112,1.0832e-12,-7.947e-06,-1.0795e-06,-8.1112,0.093463
16992,4.0404,1.9091,0,0.00048847,4881.4,0.00018524,-0.0040523,0.00011894,-498.18,-0.00049504,-5111.4,0.092919
16993,3.9486,2,0,0.00048919,4888.5,0.00018725,-0.0073691,0.00011592,-535.96,-0.0004961,-5134.4,0.089106
16994,4.0404,2,0.05,1.4111e-06,14.101,1.0835e-06,8.1412,-1.1821e-12,-8.8146e-06,-1.0835e-06,-8.1412,0.093098
16995,4.0404,1.7273,0,0.00049107,4907.3,0.00018447,0.0035923,0.00012279,-463.41,-0.00049731,-5122.6,0.092438
16996,3.9486,1.8182,0,0.00049168,4913.4,0.00018648,-0.00023622,0.00011968,-501.97,-0.00049829,-5145.2,0.08867
16997,4.0404,1.8182,0.05,1.4164e-06,14.154,1.0876e-06,8.1719,1.6893e-13,-1.6183e-05,-1.0876e-06,-8.1719,0.092657
16998,4.0404,1.5455,0,0.00049401,4936.7,0.00018359,0.012992,0.00012711,-424.39,-0.00049986,-5135.2,0.091876
16999,3.9486,1.6364,0,0.00049455,4942.1,0.00018561,0.0085868,0.00012395,-463.32,-0.0005008,-5157.4,0.088155
17000,4.0404,1.6364,0.05,1.4214e-06,14.204,1.0915e-06,8.2008,-4.5924e-13,-1.8969e-05,-1.0915e-06,-8.2008,0.092136
17001,4.0404,1.3636,0,0.00049727,4969.3,0.00018264,0.024468,0.00013185,-381.56,-0.00050266,-5149.1,0.09123
17002,3.9486,1.4545,0,0.00049776,4974.2,0.00018465,0.019472,0.00012869,-420.45,-0.00050358,-5171.1,0.087559
17003,4.0404,1.4545,0.05,1.4256e-06,14.246,1.0947e-06,8.2252,3.0401e-12,-2.0129e-05,-1.0947e-06,-8.2252,0.091532
17004,4.0404,1.1818,0,0.00050082,5004.8,0.00018161,0.038894,0.00013697,-335.4,-0.00050569,-5164,0.090498
17005,3.9486,1.2727,0,0.0005013,5009.5,0.0001836,0.032767,0.00013384,-373.84,-0.00050661,-5185.9,0.086879
17006,4.0404,1.2727,0.05,1.4286e-06,14.276,1.097e-06,8.2424,-7.7059e-15,-2.2475e-05,-1.097e-06,-8.2424,0.090844
17007,4.0404,1,0,0.00050464,5042.9,0.00018052,0.056453,0.00014239,-286.4,-0.0005089,-5179.9,0.089676
17008,3.9486,1.0909,0,0.00050512,5047.7,0.00018249,0.05003,0.00013935,-324.02,-0.00050985,-5201.9,0.08611
17009,4.0404,1.0909,0.05,1.4299e-06,14.289,1.098e-06,8.25,-3.5102e-12,-8.1716e-06,-1.098e-06,-8.2499,0.090067
17010,4.0404,0.81818,0,0.00050867,5083.2,0.00017938,0.083492,0.00014808,-235.1,-0.00051226,-5196.6,0.088761
17011,3.9486,0.90909,0,0.0005092,5088.5,0.00018131,0.070271,0.00014516,-271.54,-0.00051327,-5218.7,0.08525
17012,4.0404,0.90909,0.05,1.4292e-06,14.282,1.0975e-06,8.2458,-2.8506e-13,-5.7377e-05,-1.0975e-06,-8.2459,0.089199
17013,4.0404,0.63636,0,0.00051289,5125.4,0.0001782,0.10878,0.00015396,-182.01,-0.00051574,-5213.9,0.087748
17014,3.9486,0.72727,0,0.00051349,5131.3,0.00018009,0.10818,0.00015121,-216.94,-0.00051683,-5236.3,0.084294
17015,4.0404,0.72727,0.05,1.4264e-06,14.254,1.0953e-06,8.2294,-1.1469e-12,-2.4545e-05,-1.0953e-06,-8.2294,0.088235
17016,4.0404,0.45455,0,0.00051727,5169.1,0.000177,0.23827,0.00015999,-127.55,-0.00051932,-5231.6,0.086634
17017,3.9486,0.54545,0,0.00051796,5176,0.00017884,0.12735,0.00015742,-160.79,-0.0005205,-5254.5,0.08324
17018,4.0404,0.54545,0.05,1.4233e-06,14.223,1.0929e-06,8.2117,-3.7338e-12,-2.3959e-05,-1.0929e-06,-8.2117,0.087172
17019,4.0404,0.27273,0,0.00052182,5214.6,0.00017578,0.36671,0.00016617,-71.809,-0.000523,-5250,0.085415
17020,3.9486,0.36364,0,0.00052258,5222.2,0.00017758,0.39246,0.00016376,-103.42,-0.00052425,-5272.9,0.082081
17021,4.0404,0.36364,0.05,1.4469e-06,14.459,1.1111e-06,8.3481,9.5006e-13,-2.035e-05,-1.1111e-06,-8.3481,0.086005
17022,3.9486,0.18182,0,0.00052743,5270.7,0.00017631,0.54479,0.00017028,-44.742,-0.00052817,-5292.7,0.080816
17023,4.0404,0.18182,0.05,1.9753e-06,19.739,1.5168e-06,11.396,1.3575e-12,-3.3499e-05,-1.5168e-06,-11.397,0.084732
17024,4.0404,0.090909,0,0.00052568,5253.1,0.00017464,0.2979,0.00017154,-22.995,-0.00052606,-5264.4,0.084086
17025,3.8567,5.7273,0,0.00052819,5278.2,0.00017809,0.41186,0.00016791,-76.123,-0.00052943,-5315.7,0.077598
17026,3.7649,5.8182,0,0.00053402,5336.5,0.00017858,0.63601,0.0001723,-46.589,-0.00053479,-5359.3,0.073185
17027,3.8567,5.8182,0.05,2.1312e-06,21.298,1.6365e-06,12.296,-4.6761e-12,3.3497e-05,-1.6365e-06,-12.296,0.076922
17028,3.8567,5.9091,0,0.00053226,5318.9,0.00017685,0.32322,0.00017363,-23.851,-0.00053265,-5330.6,0.076285
17029,3.8567,5.5455,0,0.00052326,5229,0.00017942,0.26198,0.00016121,-136.57,-0.00052545,-5295.9,0.078801
17030,3.7649,5.6364,0,0.00052876,5283.9,0.00017996,0.43137,0.00016523,-110.25,-0.00053054,-5338,0.074434
17031,3.8567,5.6364,0.05,1.4975e-06,14.965,1.1499e-06,8.6402,4.3377e-12,6.5011e-05,-1.1499e-06,-8.6401,0.07818
17032,3.8567,5.3636,0,0.00051855,5182,0.00018073,0.12005,0.00015468,-195.64,-0.0005216,-5276.9,0.079898
17033,3.7649,5.4545,0,0.00052378,5234.2,0.00018133,0.1411,0.00015836,-172.44,-0.0005265,-5318.2,0.075574
17034,3.8567,5.4545,0.05,1.4697e-06,14.686,1.1285e-06,8.4793,2.2044e-12,6.7647e-05,-1.1285e-06,-8.4792,0.07933
17035,3.8567,5.1818,0,0.00051401,5136.6,0.00018202,0.091847,0.0001483,-253.31,-0.00051785,-5258.5,0.080894
17036,3.7649,5.2727,0,0.00051898,5186.2,0.0001827,0.11905,0.00015162,-233.4,-0.00052255,-5298.9,0.076611
17037,3.8567,5.2727,0.05,1.4735e-06,14.725,1.1315e-06,8.5016,5.8938e-13,4.6362e-05,-1.1315e-06,-8.5015,0.080377
17038,3.8567,5,0,0.00050968,5093.3,0.00018328,0.062102,0.00014213,-309.1,-0.00051423,-5240.8,0.081793
17039,3.7649,5.0909,0,0.00051437,5140.1,0.00018404,0.077354,0.00014507,-292.75,-0.00051872,-5280.2,0.077548
17040,3.8567,5.0909,0.05,1.4772e-06,14.762,1.1343e-06,8.5229,3.5035e-12,4.3345e-05,-1.1343e-06,-8.5228,0.081323
17041,3.8567,4.8182,0,0.00050559,5052.4,0.00018448,0.042795,0.00013624,-362.42,-0.00051078,-5223.9,0.082598
17042,3.7649,4.9091,0,0.00050999,5096.4,0.00018534,0.055033,0.00013876,-349.86,-0.00051504,-5262.3,0.07839
17043,3.8567,4.9091,0.05,1.4784e-06,14.774,1.1353e-06,8.53,5.2528e-13,7.4492e-05,-1.1353e-06,-8.5298,0.082175
17044,3.8567,4.6364,0,0.00050179,5014.4,0.00018561,0.027001,0.00013068,-412.69,-0.00050753,-5208,0.083314
17045,3.7649,4.7273,0,0.0005059,5055.5,0.00018657,0.036098,0.00013278,-404.11,-0.00051156,-5245.4,0.079141
17046,3.8567,4.7273,0.05,1.4773e-06,14.763,1.1344e-06,8.5236,-3.1789e-12,6.8269e-05,-1.1344e-06,-8.5235,0.082935
17047,3.8567,4.4545,0,0.0004983,4979.6,0.00018667,0.014494,0.00012553,-459.36,-0.00050452,-5193.3,0.083944
17048,3.7649,4.5455,0,0.00050212,5017.8,0.00018772,0.021579,0.00012718,-454.88,-0.00050831,-5229.7,0.079805
17049,3.8567,4.5455,0.05,1.4743e-06,14.733,1.1321e-06,8.5061,8.591e-14,4.3953e-05,-1.1321e-06,-8.506,0.083608
17050,3.8567,4.2727,0,0.00049516,4948.2,0.00018763,0.004308,0.00012084,-501.87,-0.00050178,-5180,0.084492
17051,3.7649,4.3636,0,0.0004987,4983.5,0.00018879,0.0097625,0.00012203,-501.58,-0.00050533,-5215.4,0.080386
17052,3.8567,4.3636,0.05,1.4698e-06,14.688,1.1287e-06,8.4803,-5.651e-13,2.0541e-05,-1.1287e-06,-8.4803,0.084197
17053,3.8567,4.0909,0,0.0004924,4920.6,0.00018849,-0.003923,0.00011666,-539.76,-0.00049935,-5168.2,0.084961
17054,3.7649,4.1818,0,0.00049565,4953.1,0.00018975,0.00025193,0.00011739,-543.69,-0.00050265,-5202.5,0.080887
17055,3.8567,4.1818,0.05,1.4645e-06,14.635,1.1245e-06,8.4494,-8.9656e-13,2.5857e-05,-1.1245e-06,-8.4493,0.084705
17056,3.8567,3.9091,0,0.00049003,4896.9,0.00018924,-0.010505,0.00011304,-572.57,-0.00049725,-5158,0.085353
17057,3.7649,4,0,0.000493,4926.6,0.0001906,-0.007378,0.00011332,-580.7,-0.00050031,-5191.2,0.08131
17058,3.8567,4,0.05,1.4588e-06,14.578,1.1202e-06,8.4164,-1.4082e-12,2.1847e-05,-1.1201e-06,-8.4163,0.085135
17059,3.8567,3.7273,0,0.00048807,4877.3,0.00018986,-0.015641,0.00011002,-599.94,-0.0004955,-5149.5,0.08567
17060,3.7649,3.8182,0,0.00049077,4904.3,0.00019133,-0.013384,0.00010985,-612.2,-0.00049831,-5181.7,0.081659
17061,3.8567,3.8182,0.05,1.4532e-06,14.522,1.1159e-06,8.3842,-5.7156e-13,1.228e-05,-1.1159e-06,-8.3842,0.085489
17062,3.8567,3.5455,0,0.00048653,4862,0.00019035,-0.019484,0.00010763,-621.55,-0.00049411,-5142.9,0.085915
17063,3.7649,3.6364,0,0.00048898,4886.4,0.00019192,-0.017965,0.00010703,-637.83,-0.00049669,-5174,0.081935
17064,3.8567,3.6364,0.05,1.4482e-06,14.472,1.112e-06,8.3554,-1.7563e-12,9.0831e-06,-1.112e-06,-8.3553,0.08577
17065,3.8567,3.3636,0,0.00048543,4850.9,0.00019071,-0.022149,0.00010591,-637.16,-0.00049312,-5138,0.086088
17066,3.7649,3.4545,0,0.00048762,4872.8,0.00019237,-0.021271,0.00010489,-657.3,-0.00049546,-5168.1,0.082141
17067,3.8567,3.4545,0.05,1.4441e-06,14.431,1.1089e-06,8.3319,8.6224e-13,4.6336e-06,-1.1089e-06,-8.3319,0.085979
17068,3.8567,3.1818,0,0.00048477,4844.3,0.00019093,-0.023717,0.00010487,-646.6,-0.00049252,-5135.1,0.086192
17069,3.7649,3.2727,0,0.00048671,4863.8,0.00019267,-0.023415,0.00010345,-670.4,-0.00049464,-5164.2,0.082277
17070,3.8567,3.2727,0.05,1.4413e-06,14.403,1.1067e-06,8.3155,4.8405e-13,4.1469e-06,-1.1067e-06,-8.3154,0.086118
17071,3.8567,3,0,0.00048454,4842.1,0.000191,-0.024234,0.00010453,-649.76,-0.00049231,-5134.2,0.086227
17072,3.7649,3.0909,0,0.00048626,4859.2,0.00019283,-0.024469,0.00010273,-676.99,-0.00049422,-5162.2,0.082345
17073,3.8567,3.0909,0.05,1.4398e-06,14.388,1.1056e-06,8.3069,1.38e-13,1.0389e-06,-1.1056e-06,-8.3069,0.086187
17074,3.8567,2.8182,0,0.00048477,4844.3,0.00019093,-0.023716,0.00010487,-646.6,-0.00049252,-5135.1,0.086192
17075,3.7649,2.9091,0,0.00048626,4859.2,0.00019283,-0.024468,0.00010273,-676.99,-0.00049422,-5162.2,0.082345
17076,3.8567,2.9091,0.05,1.4398e-06,14.388,1.1056e-06,8.3069,-1.3977e-13,-1.0463e-06,-1.1056e-06,-8.3069,0.086187
17077,3.8567,2.6364,0,0.00048543,4850.9,0.00019071,-0.022149,0.00010591,-637.16,-0.00049312,-5138,0.086088
17078,3.7649,2.7273,0,0.00048671,4863.8,0.00019267,-0.023415,0.00010345,-670.4,-0.00049464,-5164.2,0.082277
17079,3.8567,2.7273,0.05,1.4413e-06,14.403,1.1067e-06,8.3154,-4.1059e-13,-3.091e-06,-1.1067e-06,-8.3154,0.086118
17080,3.8567,2.4545,0,0.00048653,4862,0.00019035,-0.019484,0.00010763,-621.55,-0.00049411,-5142.9,0.085915
17081,3.7649,2.5455,0,0.00048762,4872.8,0.00019237,-0.021271,0.00010489,-657.3,-0.00049546,-5168.1,0.082141
17082,3.8567,2.5455,0.05,1.4441e-06,14.431,1.1089e-06,8.3319,-8.2772e-13,-4.9232e-06,-1.1089e-06,-8.3319,0.085979
17083,3.8567,2.2727,0,0.00048807,4877.3,0.00018986,-0.015641,0.00011002,-599.94,-0.0004955,-5149.5,0.08567
17084,3.7649,2.3636,0,0.00048898,4886.4,0.00019192,-0.017965,0.00010703,-637.83,-0.00049669,-5174,0.081935
17085,3.8567,2.3636,0.05,1.4482e-06,14.472,1.112e-06,8.3554,1.9348e-14,-6.7274e-06,-1.112e-06,-8.3553,0.08577
17086,3.8567,2.0909,0,0.00049003,4896.9,0.00018924,-0.010505,0.00011304,-572.57,-0.00049725,-5158,0.085353
17087,3.7649,2.1818,0,0.00049077,4904.3,0.00019133,-0.013383,0.00010985,-612.2,-0.00049831,-5181.7,0.081659
17088,3.8567,2.1818,0.05,1.4532e-06,14.522,1.1159e-06,8.3842,-2.7247e-13,-8.3801e-06,-1.1159e-06,-8.3842,0.085489
17089,3.8567,1.9091,0,0.0004924,4920.6,0.00018849,-0.0039226,0.00011666,-539.76,-0.00049935,-5168.2,0.084961
17090,3.7649,2,0,0.000493,4926.6,0.0001906,-0.0073776,0.00011332,-580.7,-0.00050031,-5191.2,0.08131
17091,3.8567,2,0.05,1.4588e-06,14.578,1.1201e-06,8.4163,-1.8551e-12,-2.1847e-05,-1.1202e-06,-8.4164,0.085135
17092,3.8567,1.7273,0,0.00049516,4948.2,0.00018763,0.0043084,0.00012084,-501.87,-0.00050178,-5180,0.084492
17093,3.7649,1.8182,0,0.00049565,4953.1,0.00018975,0.0002524,0.00011739,-543.69,-0.00050265,-5202.5,0.080887
17094,3.8567,1.8182,0.05,1.4645e-06,14.635,1.1245e-06,8.4493,3.2068e-13,-1.8825e-05,-1.1245e-06,-8.4494,0.084705
17095,3.8567,1.5455,0,0.0004983,4979.6,0.00018667,0.014495,0.00012553,-459.36,-0.00050452,-5193.3,0.083944
17096,3.7649,1.6364,0,0.0004987,4983.5,0.00018879,0.009763,0.00012203,-501.58,-0.00050533,-5215.4,0.080386
17097,3.8567,1.6364,0.05,1.4698e-06,14.688,1.1287e-06,8.4803,-1.8667e-12,-1.9102e-05,-1.1287e-06,-8.4803,0.084197
17098,3.8567,1.3636,0,0.00050179,5014.4,0.00018561,0.027002,0.00013068,-412.69,-0.00050753,-5208,0.083314
17099,3.7649,1.4545,0,0.00050212,5017.8,0.00018772,0.021579,0.00012718,-454.88,-0.00050831,-5229.7,0.079805
17100,3.8567,1.4545,0.05,1.4743e-06,14.733,1.1321e-06,8.506,-1.5296e-12,-2.4942e-05,-1.1321e-06,-8.5061,0.083608
17101,3.8567,1.1818,0,0.00050559,5052.4,0.00018448,0.042795,0.00013624,-362.42,-0.00051078,-5223.9,0.082598
17102,3.7649,1.2727,0,0.0005059,5055.5,0.00018657,0.036099,0.00013278,-404.11,-0.00051156,-5245.4,0.079141
17103,3.8567,1.2727,0.05,1.4773e-06,14.763,1.1344e-06,8.5235,1.6016e-12,-3.9019e-05,-1.1344e-06,-8.5236,0.082935
17104,3.8567,1,0,0.00050968,5093.3,0.00018328,0.062103,0.00014213,-309.1,-0.00051423,-5240.8,0.081793
17105,3.7649,1.0909,0,0.00050999,5096.4,0.00018534,0.055033,0.00013876,-349.86,-0.00051504,-5262.3,0.07839
17106,3.8567,1.0909,0.05,1.4784e-06,14.774,1.1353e-06,8.5299,-3.233e-13,-5.5204e-05,-1.1353e-06,-8.53,0.082175
17107,3.8567,0.81818,0,0.00051401,5136.6,0.00018202,0.091848,0.0001483,-253.31,-0.00051785,-5258.5,0.080894
17108,3.7649,0.90909,0,0.00051437,5140.1,0.00018404,0.077355,0.00014507,-292.75,-0.00051872,-5280.2,0.077548
17109,3.8567,0.90909,0.05,1.4772e-06,14.762,1.1343e-06,8.5229,-1.3359e-12,-2.6907e-05,-1.1343e-06,-8.5229,0.081323
17110,3.8567,0.63636,0,0.00051855,5182,0.00018073,0.12005,0.00015468,-195.64,-0.0005216,-5276.9,0.079898
17111,3.7649,0.72727,0,0.00051898,5186.2,0.0001827,0.11905,0.00015162,-233.4,-0.00052255,-5298.9,0.076611
17112,3.8567,0.72727,0.05,1.4735e-06,14.725,1.1315e-06,8.5015,-5.8938e-13,-4.458e-05,-1.1315e-06,-8.5016,0.080377
17113,3.8567,0.45455,0,0.00052326,5229,0.00017942,0.26198,0.00016121,-136.57,-0.00052545,-5295.9,0.078801
17114,3.7649,0.54545,0,0.00052378,5234.2,0.00018133,0.1411,0.00015836,-172.44,-0.0005265,-5318.2,0.075574
17115,3.8567,0.54545,0.05,1.4697e-06,14.686,1.1285e-06,8.4792,-1.989e-12,-6.6388e-05,-1.1285e-06,-8.4793,0.07933
17116,3.8567,0.27273,0,0.00052819,5278.2,0.00017809,0.41187,0.00016791,-76.123,-0.00052943,-5315.7,0.077598
17117,3.7649,0.36364,0,0.00052876,5283.9,0.00017996,0.43137,0.00016523,-110.25,-0.00053054,-5338,0.074434
17118,3.8567,0.36364,0.05,1.4975e-06,14.965,1.1499e-06,8.6401,-4.3377e-12,-4.4541e-05,-1.1499e-06,-8.6402,0.07818
17119,3.7649,0.18182,0,0.00053402,5336.5,0.00017858,0.63601,0.0001723,-46.589,-0.00053479,-5359.3,0.073185
17120,3.8567,0.18182,0.05,2.1312e-06,21.298,1.6365e-06,12.296,3.1821e-12,-3.5245e-05,-1.6365e-06,-12.296,0.076922
17121,3.8567,0.090909,0,0.00053226,5318.9,0.00017685,0.32322,0.00017363,-23.851,-0.00053265,-5330.6,0.076285
17122,3.6731,5.7273,0,0.00053459,5342.2,0.00018042,0.46395,0.00016966,-80.434,-0.00053591,-5381.7,0.070138
17123,3.5812,5.8182,0,0.00054066,5402.9,0.00018086,0.74783,0.00017435,-48.192,-0.00054145,-5426.4,0.065914
17124,3.6731,5.8182,0.05,2.2969e-06,22.953,1.7638e-06,13.252,-1.845e-12,3.3459e-05,-1.7638e-06,-13.252,0.069471
17125,3.6731,5.9091,0,0.00053888,5385.1,0.00017907,0.35171,0.00017576,-24.535,-0.00053928,-5397.1,0.068842
17126,3.6731,5.5455,0,0.00052928,5289.1,0.00018187,0.28829,0.0001624,-146.01,-0.0005316,-5360.4,0.071322
17127,3.5812,5.6364,0,0.00053496,5345.9,0.00018235,0.47463,0.00016668,-117.28,-0.00053685,-5403.3,0.067143
17128,3.6731,5.6364,0.05,1.5519e-06,15.508,1.1917e-06,8.9537,4.5976e-12,5.0504e-05,-1.1917e-06,-8.9537,0.07071
17129,3.6731,5.3636,0,0.00052421,5238.5,0.0001833,0.13259,0.00015532,-210.11,-0.00052746,-5340.3,0.0724
17130,3.5812,5.4545,0,0.00052961,5292.4,0.00018385,0.1565,0.00015925,-184.72,-0.0005325,-5382.3,0.068263
17131,3.6731,5.4545,0.05,1.5202e-06,15.192,1.1673e-06,8.771,5.6935e-12,9.928e-05,-1.1673e-06,-8.7708,0.071841
17132,3.6731,5.1818,0,0.00051933,5189.7,0.00018472,0.10108,0.00014841,-272.76,-0.00052343,-5320.7,0.073376
17133,3.5812,5.2727,0,0.00052444,5240.8,0.00018536,0.13108,0.00015194,-250.93,-0.00052826,-5361.7,0.069279
17134,3.6731,5.2727,0.05,1.5253e-06,15.242,1.1712e-06,8.8002,2.2542e-12,2.9085e-05,-1.1712e-06,-8.8002,0.072868
17135,3.6731,5,0,0.00051468,5143.3,0.0001861,0.068339,0.00014171,-333.44,-0.00051954,-5301.8,0.074255
17136,3.5812,5.0909,0,0.0005195,5191.4,0.00018683,0.085179,0.00014483,-315.47,-0.00052414,-5341.9,0.070195
17137,3.6731,5.0909,0.05,1.5301e-06,15.291,1.175e-06,8.8283,4.0473e-13,8.804e-05,-1.175e-06,-8.8281,0.073795
17138,3.6731,4.8182,0,0.0005103,5099.5,0.00018742,0.047101,0.00013531,-391.49,-0.00051583,-5283.9,0.075042
17139,3.5812,4.9091,0,0.00051481,5144.6,0.00018826,0.060542,0.00013799,-377.64,-0.0005202,-5323,0.071017
17140,3.6731,4.9091,0.05,1.5321e-06,15.311,1.1765e-06,8.8397,-1.6441e-12,4.3744e-05,-1.1765e-06,-8.8396,0.074628
17141,3.6731,4.6364,0,0.00050624,5058.9,0.00018868,0.029817,0.00012928,-446.25,-0.00051235,-5267.2,0.07574
17142,3.5812,4.7273,0,0.00051044,5100.9,0.00018962,0.039774,0.00013149,-436.71,-0.00051647,-5305.2,0.071748
17143,3.6731,4.7273,0.05,1.5314e-06,15.303,1.1759e-06,8.8354,-8.5043e-13,2.6421e-05,-1.1759e-06,-8.8354,0.07537
17144,3.6731,4.4545,0,0.00050252,5021.8,0.00018985,0.016209,0.00012369,-497.07,-0.00050913,-5251.8,0.076353
17145,3.5812,4.5455,0,0.00050642,5060.7,0.0001909,0.023935,0.00012541,-492.01,-0.00051299,-5288.7,0.072394
17146,3.6731,4.5455,0.05,1.5284e-06,15.274,1.1736e-06,8.8183,2.1245e-13,3.6109e-05,-1.1736e-06,-8.8182,0.076025
17147,3.6731,4.2727,0,0.00049919,4988.4,0.00019091,0.0052052,0.00011859,-543.38,-0.0005062,-5237.8,0.076885
17148,3.5812,4.3636,0,0.00050278,5024.3,0.00019208,0.011143,0.00011983,-542.88,-0.00050981,-5273.7,0.072957
17149,3.6731,4.3636,0.05,1.5238e-06,15.228,1.1701e-06,8.7918,-1.1783e-13,4.7053e-05,-1.1701e-06,-8.7917,0.076597
17150,3.6731,4.0909,0,0.00049625,4959.1,0.00019187,-0.0036146,0.00011406,-584.64,-0.00050361,-5225.5,0.077339
17151,3.5812,4.1818,0,0.00049955,4992.1,0.00019315,0.00093696,0.0001148,-588.71,-0.00050695,-5260.3,0.073442
17152,3.6731,4.1818,0.05,1.5182e-06,15.172,1.1658e-06,8.7594,4.4344e-13,3.8891e-05,-1.1658e-06,-8.7593,0.07709
17153,3.6731,3.9091,0,0.00049375,4934.1,0.0001927,-0.010607,0.00011013,-620.36,-0.00050136,-5214.9,0.077719
17154,3.5812,4,0,0.00049676,4964.1,0.0001941,-0.0071717,0.00011038,-628.99,-0.00050446,-5248.6,0.073851
17155,3.6731,4,0.05,1.5122e-06,15.112,1.1612e-06,8.7247,-1.77e-12,1.6743e-05,-1.1612e-06,-8.7247,0.077507
17156,3.6731,3.7273,0,0.00049168,4913.4,0.00019339,-0.016017,0.00010686,-650.13,-0.0004995,-5206.1,0.078026
17157,3.5812,3.8182,0,0.00049441,4940.7,0.0001949,-0.013491,0.00010663,-663.24,-0.00050234,-5238.8,0.074188
17158,3.6731,3.8182,0.05,1.5064e-06,15.053,1.1567e-06,8.691,-5.61e-13,1.8089e-05,-1.1567e-06,-8.6909,0.07785
17159,3.6731,3.5455,0,0.00049006,4897.2,0.00019394,-0.020033,0.00010428,-673.64,-0.00049803,-5199.2,0.078263
17160,3.5812,3.6364,0,0.00049252,4921.8,0.00019556,-0.018265,0.00010358,-691.1,-0.00050062,-5230.9,0.074455
17161,3.6731,3.6364,0.05,1.5011e-06,15.001,1.1527e-06,8.6608,1.3094e-12,9.7341e-06,-1.1527e-06,-8.6607,0.078122
17162,3.6731,3.3636,0,0.0004889,4885.7,0.00019433,-0.022799,0.00010242,-690.61,-0.00049697,-5194.2,0.078431
17163,3.5812,3.4545,0,0.0004911,4907.6,0.00019606,-0.021682,0.00010127,-712.25,-0.00049932,-5224.8,0.074653
17164,3.6731,3.4545,0.05,1.4969e-06,14.959,1.1494e-06,8.6364,-1.0797e-12,6.4904e-06,-1.1494e-06,-8.6363,0.078324
17165,3.6731,3.1818,0,0.00048821,4878.7,0.00019457,-0.024419,0.00010129,-700.87,-0.00049634,-5191.2,0.078531
17166,3.5812,3.2727,0,0.00049015,4898.1,0.00019639,-0.023882,9.9709e-05,-726.48,-0.00049845,-5220.8,0.074785
17167,3.6731,3.2727,0.05,1.4939e-06,14.929,1.1472e-06,8.6193,-2.1878e-12,3.354e-06,-1.1471e-06,-8.6193,0.078458
17168,3.6731,3,0,0.00048797,4876.4,0.00019465,-0.024952,0.00010092,-704.3,-0.00049612,-5190.2,0.078564
17169,3.5812,3.0909,0,0.00048968,4893.4,0.00019656,-0.02496,9.8927e-05,-733.63,-0.00049801,-5218.8,0.07485
17170,3.6731,3.0909,0.05,1.4924e-06,14.914,1.146e-06,8.6105,1.475e-13,1.2517e-06,-1.146e-06,-8.6104,0.078525
17171,3.6731,2.8182,0,0.00048821,4878.7,0.00019457,-0.024419,0.00010129,-700.87,-0.00049634,-5191.2,0.078531
17172,3.5812,2.9091,0,0.00048968,4893.4,0.00019656,-0.02496,9.8927e-05,-733.63,-0.00049801,-5218.8,0.07485
17173,3.6731,2.9091,0.05,1.4924e-06,14.914,1.146e-06,8.6105,-1.475e-13,6.641e-06,-1.146e-06,-8.6104,0.078525
17174,3.6731,2.6364,0,0.0004889,4885.7,0.00019433,-0.022799,0.00010242,-690.61,-0.00049697,-5194.2,0.078431
17175,3.5812,2.7273,0,0.00049015,4898.1,0.00019639,-0.023882,9.9709e-05,-726.48,-0.00049845,-5220.8,0.074785
17176,3.6731,2.7273,0.05,1.4939e-06,14.929,1.1472e-06,8.6193,-4.4425e-13,-3.354e-06,-1.1472e-06,-8.6193,0.078458
17177,3.6731,2.4545,0,0.00049006,4897.2,0.00019394,-0.020032,0.00010428,-673.64,-0.00049803,-5199.2,0.078263
17178,3.5812,2.5455,0,0.0004911,4907.6,0.00019606,-0.021682,0.00010127,-712.25,-0.00049932,-5224.8,0.074653
17179,3.6731,2.5455,0.05,1.4969e-06,14.959,1.1494e-06,8.6364,-6.9146e-13,-5.1898e-06,-1.1494e-06,-8.6364,0.078324
17180,3.6731,2.2727,0,0.00049168,4913.4,0.00019339,-0.016016,0.00010686,-650.13,-0.0004995,-5206.1,0.078026
17181,3.5812,2.3636,0,0.00049252,4921.8,0.00019556,-0.018265,0.00010358,-691.1,-0.00050062,-5230.9,0.074455
17182,3.6731,2.3636,0.05,1.5011e-06,15.001,1.1527e-06,8.6608,-9.9346e-13,-7.0837e-06,-1.1527e-06,-8.6608,0.078122
17183,3.6731,2.0909,0,0.00049375,4934.1,0.0001927,-0.010607,0.00011013,-620.36,-0.00050136,-5214.9,0.077719
17184,3.5812,2.1818,0,0.00049441,4940.7,0.0001949,-0.01349,0.00010663,-663.24,-0.00050234,-5238.8,0.074188
17185,3.6731,2.1818,0.05,1.5064e-06,15.053,1.1567e-06,8.6909,-2.7549e-13,-1.319e-05,-1.1567e-06,-8.691,0.07785
17186,3.6731,1.9091,0,0.00049625,4959.1,0.00019187,-0.0036141,0.00011406,-584.64,-0.00050361,-5225.5,0.077339
17187,3.5812,2,0,0.00049676,4964.1,0.0001941,-0.0071713,0.00011038,-628.99,-0.00050446,-5248.6,0.073851
17188,3.6731,2,0.05,1.5122e-06,15.112,1.1612e-06,8.7247,-6.4507e-13,-9.7313e-06,-1.1612e-06,-8.7247,0.077507
17189,3.6731,1.7273,0,0.00049919,4988.4,0.00019091,0.0052058,0.00011859,-543.38,-0.0005062,-5237.8,0.076885
17190,3.5812,1.8182,0,0.00049955,4992.1,0.00019315,0.00093736,0.0001148,-588.71,-0.00050695,-5260.3,0.073442
17191,3.6731,1.8182,0.05,1.5182e-06,15.172,1.1658e-06,8.7593,-1.4713e-12,-3.8891e-05,-1.1658e-06,-8.7594,0.07709
17192,3.6731,1.5455,0,0.00050252,5021.8,0.00018985,0.01621,0.00012369,-497.07,-0.00050913,-5251.8,0.076353
17193,3.5812,1.6364,0,0.00050278,5024.3,0.00019208,0.011143,0.00011983,-542.88,-0.00050981,-5273.7,0.072957
17194,3.6731,1.6364,0.05,1.5238e-06,15.228,1.1701e-06,8.7917,3.9633e-14,-3.387e-05,-1.1701e-06,-8.7918,0.076597
17195,3.6731,1.3636,0,0.00050624,5058.9,0.00018868,0.029818,0.00012928,-446.25,-0.00051235,-5267.2,0.07574
17196,3.5812,1.4545,0,0.00050642,5060.7,0.0001909,0.023936,0.00012541,-492.01,-0.00051299,-5288.7,0.072394
17197,3.6731,1.4545,0.05,1.5284e-06,15.274,1.1736e-06,8.8183,-2.1062e-14,-2.5279e-05,-1.1736e-06,-8.8183,0.076025
17198,3.6731,1.1818,0,0.0005103,5099.5,0.00018742,0.047101,0.00013531,-391.49,-0.00051583,-5283.9,0.075042
17199,3.5812,1.2727,0,0.00051044,5100.9,0.00018962,0.039775,0.00013149,-436.71,-0.00051647,-5305.2,0.071748
17200,3.6731,1.2727,0.05,1.5314e-06,15.303,1.1759e-06,8.8354,4.4809e-13,-2.6421e-05,-1.1759e-06,-8.8354,0.07537
17201,3.6731,1,0,0.00051468,5143.3,0.0001861,0.06834,0.00014171,-333.44,-0.00051954,-5301.8,0.074255
17202,3.5812,1.0909,0,0.00051481,5144.6,0.00018826,0.060543,0.00013799,-377.64,-0.0005202,-5323,0.071017
17203,3.6731,1.0909,0.05,1.5321e-06,15.311,1.1765e-06,8.8396,1.6406e-13,-2.4455e-05,-1.1765e-06,-8.8396,0.074628
17204,3.6731,0.81818,0,0.00051933,5189.7,0.00018472,0.10109,0.00014841,-272.76,-0.00052343,-5320.7,0.073376
17205,3.5812,0.90909,0,0.0005195,5191.4,0.00018683,0.08518,0.00014483,-315.47,-0.00052414,-5341.9,0.070195
17206,3.6731,0.90909,0.05,1.5301e-06,15.291,1.175e-06,8.8282,-1.6889e-12,-6.9621e-05,-1.175e-06,-8.8283,0.073795
17207,3.6731,0.63636,0,0.00052421,5238.5,0.0001833,0.13259,0.00015532,-210.11,-0.00052746,-5340.3,0.0724
17208,3.5812,0.72727,0,0.00052444,5240.8,0.00018536,0.13108,0.00015194,-250.93,-0.00052826,-5361.7,0.069279
17209,3.6731,0.72727,0.05,1.5253e-06,15.242,1.1712e-06,8.8002,-9.471e-13,-2.9085e-05,-1.1712e-06,-8.8002,0.072868
17210,3.6731,0.45455,0,0.00052928,5289.1,0.00018187,0.28829,0.0001624,-146.01,-0.0005316,-5360.4,0.071322
17211,3.5812,0.54545,0,0.00052961,5292.4,0.00018385,0.1565,0.00015925,-184.72,-0.0005325,-5382.3,0.068263
17212,3.6731,0.54545,0.05,1.5202e-06,15.192,1.1673e-06,8.7709,-9.1034e-13,-5.1488e-05,-1.1673e-06,-8.7709,0.071841
17213,3.6731,0.27273,0,0.00053459,5342.2,0.00018042,0.46395,0.00016966,-80.434,-0.00053591,-5381.7,0.070138
17214,3.5812,0.36364,0,0.00053496,5345.9,0.00018235,0.47463,0.00016668,-117.28,-0.00053685,-5403.3,0.067143
17215,3.6731,0.36364,0.05,1.5519e-06,15.508,1.1917e-06,8.9537,-3.5038e-12,-2.4332e-05,-1.1917e-06,-8.9537,0.07071
17216,3.5812,0.18182,0,0.00054066,5402.9,0.00018086,0.74783,0.00017435,-48.192,-0.00054145,-5426.4,0.065914
17217,3.6731,0.18182,0.05,2.2969e-06,22.953,1.7638e-06,13.252,1.7805e-13,-3.1896e-05,-1.7638e-06,-13.252,0.069471
17218,3.6731,0.090909,0,0.00053888,5385.1,0.00017907,0.35171,0.00017576,-24.535,-0.00053928,-5397.1,0.068842
17219,3.4894,5.7273,0,0.00054103,5406.6,0.00018276,0.52432,0.00017142,-84.702,-0.00054241,-5448.1,0.063038
17220,3.3976,5.8182,0,0.00054735,5469.7,0.00018315,0.88627,0.00017644,-49.488,-0.00054816,-5493.9,0.059007
17221,3.4894,5.8182,0.05,2.4725e-06,24.708,1.8986e-06,14.265,-1.443e-12,2.5293e-05,-1.8986e-06,-14.265,0.062381
17222,3.4894,5.9091,0,0.00054553,5451.5,0.00018129,0.38402,0.00017791,-25.002,-0.00054594,-5463.8,0.061763
17223,3.4894,5.5455,0,0.00053529,5349.2,0.00018434,0.31754,0.00016355,-155.87,-0.00053776,-5425.3,0.0642
17224,3.3976,5.6364,0,0.00054117,5407.9,0.00018476,0.52288,0.00016812,-124.5,-0.00054317,-5468.8,0.060213
17225,3.4894,5.6364,0.05,1.6102e-06,16.091,1.2365e-06,9.2903,7.8783e-12,0.00010245,-1.2365e-06,-9.2902,0.0636
17226,3.4894,5.3636,0,0.00052984,5294.7,0.00018591,0.14656,0.00015588,-225.45,-0.00053331,-5403.8,0.065256
17227,3.3976,5.4545,0,0.00053541,5350.4,0.0001864,0.17378,0.00016007,-197.67,-0.00053849,-5446.4,0.06131
17228,3.4894,5.4545,0.05,1.5754e-06,15.743,1.2097e-06,9.0895,3.7615e-12,8.3676e-05,-1.2097e-06,-9.0894,0.064708
17229,3.4894,5.1818,0,0.00052461,5242.4,0.00018747,0.11129,0.00014838,-293.55,-0.00052898,-5383,0.06621
17230,3.3976,5.2727,0,0.00052987,5295,0.00018805,0.14441,0.00015215,-269.62,-0.00053393,-5424.6,0.062302
17231,3.4894,5.2727,0.05,1.5822e-06,15.811,1.215e-06,9.1287,7.3112e-12,7.9793e-05,-1.215e-06,-9.1286,0.065713
17232,3.4894,5,0,0.00051963,5192.7,0.00018899,0.075209,0.00014112,-359.59,-0.00052481,-5363.1,0.067067
17233,3.3976,5.0909,0,0.00052457,5242,0.00018968,0.093813,0.00014443,-339.85,-0.00052952,-5403.6,0.063194
17234,3.4894,5.0909,0.05,1.5886e-06,15.876,1.2199e-06,9.1658,9.262e-12,7.4594e-05,-1.2199e-06,-9.1657,0.066618
17235,3.4894,4.8182,0,0.00051495,5145.9,0.00019045,0.051836,0.00013417,-422.8,-0.00052084,-5344.3,0.067832
17236,3.3976,4.9091,0,0.00051956,5192.1,0.00019125,0.066593,0.000137,-407.54,-0.00052529,-5383.8,0.063993
17237,3.4894,4.9091,0.05,1.5917e-06,15.906,1.2222e-06,9.1832,2.0852e-12,7.1964e-05,-1.2222e-06,-9.1831,0.067429
17238,3.4894,4.6364,0,0.00051062,5102.7,0.00019184,0.032933,0.00012763,-482.43,-0.00051711,-5326.7,0.06851
17239,3.3976,4.7273,0,0.00051491,5145.5,0.00019276,0.043813,0.00012995,-471.88,-0.00052131,-5365.2,0.064702
17240,3.4894,4.7273,0.05,1.5915e-06,15.904,1.2221e-06,9.1823,-1.3133e-12,6.4739e-05,-1.2221e-06,-9.1821,0.06815
17241,3.4894,4.4545,0,0.00050667,5063.2,0.00019313,0.018156,0.00012156,-537.79,-0.00051367,-5310.7,0.069104
17242,3.3976,4.5455,0,0.00051064,5102.9,0.00019418,0.026559,0.00012336,-532.11,-0.0005176,-5348,0.065327
17243,3.4894,4.5455,0.05,1.5888e-06,15.877,1.22e-06,9.1664,2.5964e-12,4.45e-05,-1.22e-06,-9.1663,0.068785
17244,3.4894,4.2727,0,0.00050314,5028,0.00019432,0.006315,0.00011603,-588.2,-0.00051056,-5296.2,0.069619
17245,3.3976,4.3636,0,0.00050679,5064.4,0.0001955,0.012756,0.00011731,-587.48,-0.00051422,-5332.5,0.065871
17246,3.4894,4.3636,0.05,1.5842e-06,15.831,1.2164e-06,9.1398,-1.5869e-14,3.531e-05,-1.2164e-06,-9.1397,0.069339
17247,3.4894,4.0909,0,0.00050005,4997.1,0.00019538,-0.003079,0.00011112,-633.08,-0.0005078,-5283.4,0.070057
17248,3.3976,4.1818,0,0.00050339,5030.4,0.00019669,0.0018652,0.00011186,-637.33,-0.00051119,-5318.7,0.066338
17249,3.4894,4.1818,0.05,1.5784e-06,15.773,1.212e-06,9.1067,9.7531e-13,2.0343e-05,-1.212e-06,-9.1067,0.069815
17250,3.4894,3.9091,0,0.00049742,4970.7,0.0001963,-0.010446,0.00010688,-671.92,-0.00050543,-5272.5,0.070423
17251,3.3976,4,0,0.00050046,5001.1,0.00019774,-0.0066822,0.00010709,-681.1,-0.00050855,-5306.8,0.066732
17252,3.4894,4,0.05,1.5723e-06,15.712,1.2073e-06,9.0712,-5.794e-13,1.0176e-05,-1.2073e-06,-9.0712,0.070217
17253,3.4894,3.7273,0,0.00049525,4949.1,0.00019707,-0.016083,0.00010334,-704.27,-0.00050346,-5263.5,0.070719
17254,3.3976,3.8182,0,0.00049801,4976.6,0.00019863,-0.013259,0.00010304,-718.3,-0.00050632,-5296.8,0.067056
17255,3.4894,3.8182,0.05,1.5663e-06,15.652,1.2027e-06,9.0368,-5.4418e-13,2.063e-05,-1.2027e-06,-9.0367,0.070548
17256,3.4894,3.5455,0,0.00049356,4932.2,0.00019768,-0.020226,0.00010055,-729.79,-0.00050191,-5256.4,0.070947
17257,3.3976,3.6364,0,0.00049604,4957,0.00019936,-0.018167,9.9746e-05,-748.51,-0.00050452,-5288.7,0.067312
17258,3.4894,3.6364,0.05,1.561e-06,15.599,1.1986e-06,9.0061,-7.7688e-13,7.8694e-06,-1.1986e-06,-9.0061,0.070809
17259,3.4894,3.3636,0,0.00049235,4920.1,0.00019812,-0.023056,9.8543e-05,-748.2,-0.00050079,-5251.4,0.071108
17260,3.3976,3.4545,0,0.00049457,4942.3,0.00019992,-0.021642,9.7252e-05,-771.44,-0.00050315,-5282.6,0.067502
17261,3.4894,3.4545,0.05,1.5567e-06,15.556,1.1954e-06,8.9816,-1.5683e-13,7.5474e-06,-1.1954e-06,-8.9815,0.071004
17262,3.4894,3.1818,0,0.00049162,4912.8,0.00019839,-0.024702,9.7329e-05,-759.33,-0.00050012,-5248.3,0.071204
17263,3.3976,3.2727,0,0.00049359,4932.5,0.0002003,-0.023861,9.5576e-05,-786.84,-0.00050224,-5278.6,0.067628
17264,3.4894,3.2727,0.05,1.5538e-06,15.527,1.1931e-06,8.9644,-2.2442e-12,3.4267e-06,-1.1931e-06,-8.9644,0.071132
17265,3.4894,3,0,0.00049138,4910.4,0.00019848,-0.025242,9.6924e-05,-763.05,-0.00049989,-5247.3,0.071236
17266,3.3976,3.0909,0,0.0004931,4927.6,0.00020048,-0.024941,9.4735e-05,-794.59,-0.00050178,-5276.6,0.067691
17267,3.4894,3.0909,0.05,1.5522e-06,15.512,1.1919e-06,8.9556,-1.6618e-12,1.1854e-06,-1.1919e-06,-8.9556,0.071197
17268,3.4894,2.8182,0,0.00049162,4912.8,0.00019839,-0.024702,9.7329e-05,-759.33,-0.00050012,-5248.3,0.071204
17269,3.3976,2.9091,0,0.0004931,4927.6,0.00020048,-0.024941,9.4735e-05,-794.59,-0.00050178,-5276.6,0.067691
17270,3.4894,2.9091,0.05,1.5522e-06,15.512,1.1919e-06,8.9556,-1.9719e-12,-1.1854e-06,-1.1919e-06,-8.9556,0.071197
17271,3.4894,2.6364,0,0.00049235,4920.1,0.00019812,-0.023056,9.8543e-05,-748.2,-0.00050079,-5251.4,0.071108
17272,3.3976,2.7273,0,0.00049359,4932.5,0.0002003,-0.023861,9.5576e-05,-786.84,-0.00050224,-5278.6,0.067628
17273,3.4894,2.7273,0.05,1.5538e-06,15.527,1.1931e-06,8.9644,-4.6685e-13,-3.5246e-06,-1.1931e-06,-8.9644,0.071132
17274,3.4894,2.4545,0,0.00049356,4932.2,0.00019768,-0.020226,0.00010055,-729.79,-0.00050191,-5256.4,0.070947
17275,3.3976,2.5455,0,0.00049457,4942.3,0.00019992,-0.021642,9.7252e-05,-771.44,-0.00050315,-5282.7,0.067502
17276,3.4894,2.5455,0.05,1.5567e-06,15.556,1.1954e-06,8.9815,-7.6441e-13,-5.7711e-06,-1.1954e-06,-8.9815,0.071004
17277,3.4894,2.2727,0,0.00049525,4949.1,0.00019707,-0.016082,0.00010334,-704.27,-0.00050346,-5263.5,0.070719
17278,3.3976,2.3636,0,0.00049604,4957,0.00019936,-0.018167,9.9746e-05,-748.51,-0.00050452,-5288.7,0.067312
17279,3.4894,2.3636,0.05,1.561e-06,15.599,1.1986e-06,9.0061,7.2757e-13,-7.8694e-06,-1.1986e-06,-9.0061,0.070809
17280,3.4894,2.0909,0,0.00049742,4970.7,0.0001963,-0.010445,0.00010688,-671.92,-0.00050543,-5272.5,0.070423
17281,3.3976,2.1818,0,0.00049801,4976.6,0.00019863,-0.013258,0.00010304,-718.3,-0.00050632,-5296.8,0.067056
17282,3.4894,2.1818,0.05,1.5663e-06,15.652,1.2027e-06,9.0367,-2.8443e-13,-1.4116e-05,-1.2027e-06,-9.0367,0.070548
17283,3.4894,1.9091,0,0.00050005,4997.1,0.00019538,-0.0030786,0.00011112,-633.08,-0.0005078,-5283.4,0.070057
17284,3.3976,2,0,0.00050046,5001.1,0.00019774,-0.0066817,0.00010709,-681.1,-0.00050855,-5306.8,0.066732
17285,3.4894,2,0.05,1.5723e-06,15.712,1.2073e-06,9.0712,3.7417e-13,-3.5185e-06,-1.2073e-06,-9.0712,0.070217
17286,3.4894,1.7273,0,0.00050314,5028,0.00019432,0.0063155,0.00011603,-588.2,-0.00051056,-5296.2,0.069619
17287,3.3976,1.8182,0,0.00050339,5030.4,0.00019669,0.0018655,0.00011186,-637.33,-0.00051119,-5318.7,0.066338
17288,3.4894,1.8182,0.05,1.5784e-06,15.773,1.212e-06,9.1067,-2.4864e-12,-1.1443e-05,-1.212e-06,-9.1067,0.069815
17289,3.4894,1.5455,0,0.00050667,5063.2,0.00019313,0.018157,0.00012156,-537.79,-0.00051367,-5310.7,0.069104
17290,3.3976,1.6364,0,0.00050679,5064.4,0.0001955,0.012756,0.00011731,-587.48,-0.00051422,-5332.5,0.065871
17291,3.4894,1.6364,0.05,1.5842e-06,15.831,1.2164e-06,9.1398,1.3764e-12,-9.3639e-06,-1.2164e-06,-9.1398,0.069339
17292,3.4894,1.3636,0,0.00051062,5102.7,0.00019184,0.032934,0.00012763,-482.43,-0.00051711,-5326.7,0.06851
17293,3.3976,1.4545,0,0.00051064,5102.9,0.00019418,0.02656,0.00012336,-532.11,-0.0005176,-5348,0.065327
17294,3.4894,1.4545,0.05,1.5888e-06,15.877,1.22e-06,9.1664,-3.554e-12,-2.5578e-05,-1.22e-06,-9.1664,0.068785
17295,3.4894,1.1818,0,0.00051495,5145.9,0.00019045,0.051837,0.00013417,-422.8,-0.00052084,-5344.3,0.067832
17296,3.3976,1.2727,0,0.00051491,5145.5,0.00019276,0.043814,0.00012995,-471.88,-0.00052131,-5365.2,0.064702
17297,3.4894,1.2727,0.05,1.5915e-06,15.904,1.2221e-06,9.1822,-3.8177e-13,-4.6644e-05,-1.2221e-06,-9.1822,0.06815
17298,3.4894,1,0,0.00051963,5192.7,0.00018899,0.07521,0.00014112,-359.59,-0.00052481,-5363.1,0.067067
17299,3.3976,1.0909,0,0.00051956,5192.1,0.00019125,0.066593,0.000137,-407.54,-0.00052529,-5383.8,0.063993
17300,3.4894,1.0909,0.05,1.5917e-06,15.906,1.2222e-06,9.1831,-4.1545e-12,-2.7587e-05,-1.2222e-06,-9.1831,0.067429
17301,3.4894,0.81818,0,0.00052461,5242.4,0.00018747,0.1113,0.00014838,-293.55,-0.00052898,-5383,0.06621
17302,3.3976,0.90909,0,0.00052457,5242,0.00018968,0.093815,0.00014443,-339.85,-0.00052952,-5403.6,0.063194
17303,3.4894,0.90909,0.05,1.5886e-06,15.876,1.2199e-06,9.1657,-6.1518e-12,-7.4594e-05,-1.2199e-06,-9.1658,0.066618
17304,3.4894,0.63636,0,0.00052984,5294.7,0.00018591,0.14656,0.00015588,-225.45,-0.00053331,-5403.8,0.065256
17305,3.3976,0.72727,0,0.00052987,5295,0.00018805,0.14441,0.00015215,-269.62,-0.00053393,-5424.6,0.062302
17306,3.4894,0.72727,0.05,1.5822e-06,15.811,1.215e-06,9.1286,-3.3189e-12,-5.5682e-05,-1.215e-06,-9.1287,0.065713
17307,3.4894,0.45455,0,0.00053529,5349.2,0.00018434,0.31754,0.00016355,-155.87,-0.00053776,-5425.3,0.0642
17308,3.3976,0.54545,0,0.00053541,5350.4,0.0001864,0.17378,0.00016007,-197.67,-0.00053849,-5446.4,0.06131
17309,3.4894,0.54545,0.05,1.5754e-06,15.743,1.2097e-06,9.0894,1.612e-13,-7.9916e-05,-1.2097e-06,-9.0895,0.064708
17310,3.4894,0.27273,0,0.00054103,5406.6,0.00018276,0.52432,0.00017142,-84.702,-0.00054241,-5448.1,0.063038
17311,3.3976,0.36364,0,0.00054117,5407.9,0.00018476,0.52289,0.00016812,-124.5,-0.00054317,-5468.8,0.060213
17312,3.4894,0.36364,0.05,1.6102e-06,16.091,1.2365e-06,9.2902,-7.5503e-12,-7.7772e-05,-1.2365e-06,-9.2903,0.0636
17313,3.3976,0.18182,0,0.00054735,5469.7,0.00018315,0.88628,0.00017644,-49.488,-0.00054816,-5493.9,0.059007
17314,3.4894,0.18182,0.05,2.4725e-06,24.708,1.8986e-06,14.265,1.7947e-12,-2.1953e-05,-1.8986e-06,-14.265,0.062381
17315,3.4894,0.090909,0,0.00054553,5451.5,0.00018129,0.38402,0.00017791,-25.002,-0.00054594,-5463.8,0.061763
17316,3.3058,5.7273,0,0.00054748,5471.1,0.0001851,0.59467,0.0001732,-88.883,-0.00054893,-5514.7,0.056303
17317,3.2139,5.8182,0,0.00055407,5536.8,0.00018542,1.0597,0.00017857,-50.401,-0.00055489,-5561.3,0.052469
17318,3.3058,5.8182,0.05,2.6579e-06,26.561,2.041e-06,15.335,-1.5058e-12,3.4075e-05,-2.041e-06,-15.335,0.055658
17319,3.3058,5.9091,0,0.00055219,5518.1,0.0001835,0.4211,0.00018009,-25.2,-0.00055261,-5530.4,0.055052
17320,3.3058,5.5455,0,0.00054128,5409.1,0.00018682,0.35014,0.00016466,-166.17,-0.00054391,-5490.1,0.05744
17321,3.2139,5.6364,0,0.00054736,5469.8,0.00018717,0.57689,0.00016954,-131.9,-0.00054947,-5534.3,0.053649
17322,3.3058,5.6364,0.05,1.6729e-06,16.717,1.2846e-06,9.6517,1.0307e-11,6.1663e-05,-1.2846e-06,-9.6516,0.056852
17323,3.3058,5.3636,0,0.00053543,5350.6,0.00018854,0.16213,0.00015635,-241.74,-0.00053913,-5467.3,0.058471
17324,3.2139,5.4545,0,0.00054117,5407.9,0.00018897,0.1932,0.00016081,-211.34,-0.00054445,-5510.4,0.054719
17325,3.3058,5.4545,0.05,1.6359e-06,16.348,1.2562e-06,9.4384,9.4103e-12,3.1797e-05,-1.2562e-06,-9.4384,0.057936
17326,3.3058,5.1818,0,0.00052982,5294.6,0.00019026,0.12258,0.00014821,-315.81,-0.00053448,-5445.3,0.0594
17327,3.2139,5.2727,0,0.00053522,5348.5,0.00019079,0.15919,0.00015222,-289.58,-0.00053956,-5487.4,0.055684
17328,3.3058,5.2727,0.05,1.6451e-06,16.44,1.2632e-06,9.4915,2.7007e-12,0.00011033,-1.2632e-06,-9.4914,0.058915
17329,3.3058,5,0,0.0005245,5241.4,0.00019194,0.082763,0.00014033,-387.71,-0.00053002,-5424.4,0.060232
17330,3.2139,5.0909,0,0.00052956,5291.9,0.00019258,0.10333,0.00014385,-366.04,-0.00053483,-5465.4,0.05655
17331,3.3058,5.0909,0.05,1.6536e-06,16.524,1.2697e-06,9.5403,3.1144e-12,8.1844e-05,-1.2697e-06,-9.5402,0.059795
17332,3.3058,4.8182,0,0.00051952,5191.6,0.00019356,0.057025,0.00013279,-456.56,-0.00052577,-5404.8,0.060973
17333,3.2139,4.9091,0,0.00052423,5238.6,0.00019433,0.073219,0.00013579,-439.78,-0.00053032,-5444.6,0.057323
17334,3.3058,4.9091,0.05,1.6579e-06,16.568,1.2731e-06,9.5656,5.9445e-12,7.5041e-05,-1.2731e-06,-9.5655,0.060581
17335,3.3058,4.6364,0,0.00051492,5145.7,0.0001951,0.036366,0.00012569,-521.51,-0.00052181,-5386.5,0.061628
17336,3.2139,4.7273,0,0.00051928,5189.3,0.000196,0.048234,0.00012814,-509.88,-0.00052607,-5425.3,0.058007
17337,3.3058,4.7273,0.05,1.6586e-06,16.574,1.2736e-06,9.5692,1.5923e-12,7.4393e-05,-1.2736e-06,-9.5691,0.061279
17338,3.3058,4.4545,0,0.00051075,5104,0.00019654,0.020361,0.00011911,-581.77,-0.00051815,-5369.9,0.0622
17339,3.2139,4.5455,0,0.00051477,5144.2,0.00019758,0.029474,0.00012099,-575.45,-0.00052214,-5407.7,0.058608
17340,3.3058,4.5455,0.05,1.6562e-06,16.551,1.2718e-06,9.5555,3.1405e-12,4.652e-05,-1.2718e-06,-9.5555,0.061892
17341,3.3058,4.2727,0,0.00050704,5066.9,0.00019786,0.0076805,0.00011313,-636.61,-0.00051486,-5355.1,0.062696
17342,3.2139,4.3636,0,0.00051073,5103.8,0.00019905,0.014641,0.00011444,-635.68,-0.00051857,-5391.9,0.059131
17343,3.3058,4.3636,0.05,1.6517e-06,16.506,1.2683e-06,9.5297,4.899e-12,1.2937e-05,-1.2683e-06,-9.5297,0.062426
17344,3.3058,4.0909,0,0.0005038,5034.5,0.00019904,-0.00225,0.00010783,-685.38,-0.00051194,-5342.1,0.063117
17345,3.2139,4.1818,0,0.00050718,5068.3,0.00020037,0.0031014,0.00010856,-689.85,-0.00051538,-5377.9,0.059579
17346,3.3058,4.1818,0.05,1.646e-06,16.449,1.264e-06,9.4969,4.6356e-12,3.4696e-05,-1.2639e-06,-9.4968,0.062883
17347,3.3058,3.9091,0,0.00050105,5007,0.00020007,-0.00993,0.00010324,-727.53,-0.00050944,-5331,0.063468
17348,3.2139,4,0,0.00050413,5037.8,0.00020154,-0.005816,0.00010341,-737.33,-0.00051261,-5365.9,0.059956
17349,3.3058,4,0.05,1.6399e-06,16.388,1.2593e-06,9.4617,1.1197e-12,3.6312e-05,-1.2593e-06,-9.4615,0.063269
17350,3.3058,3.7273,0,0.0004988,4984.6,0.00020093,-0.015725,9.9431e-05,-762.61,-0.00050738,-5321.9,0.063751
17351,3.2139,3.8182,0,0.00050159,5012.5,0.00020254,-0.012567,9.9049e-05,-777.63,-0.00051028,-5355.9,0.060265
17352,3.3058,3.8182,0.05,1.6341e-06,16.329,1.2548e-06,9.4277,2.8689e-13,9.067e-06,-1.2547e-06,-9.4277,0.063586
17353,3.3058,3.5455,0,0.00049705,4967.1,0.00020161,-0.019929,9.6432e-05,-790.25,-0.00050575,-5314.8,0.063969
17354,3.2139,3.6364,0,0.00049957,4992.3,0.00020336,-0.017526,9.5514e-05,-810.32,-0.0005084,-5347.9,0.060509
17355,3.3058,3.6364,0.05,1.6289e-06,16.278,1.2508e-06,9.3979,-1.7408e-13,8.2232e-06,-1.2508e-06,-9.3979,0.063836
17356,3.3058,3.3636,0,0.0004958,4954.6,0.0002021,-0.022768,9.427e-05,-810.18,-0.00050459,-5309.8,0.064123
17357,3.2139,3.4545,0,0.00049806,4977.1,0.00020398,-0.020987,9.2837e-05,-835.1,-0.00050698,-5341.9,0.06069
17358,3.3058,3.4545,0.05,1.6248e-06,16.237,1.2476e-06,9.3743,-8.1108e-14,7.3125e-06,-1.2476e-06,-9.3743,0.064022
17359,3.3058,3.1818,0,0.00049505,4947.1,0.00020239,-0.024407,9.2966e-05,-822.22,-0.00050389,-5306.7,0.064215
17360,3.2139,3.2727,0,0.00049705,4967.1,0.0002044,-0.023173,9.104e-05,-851.73,-0.00050603,-5337.9,0.06081
17361,3.3058,3.2727,0.05,1.622e-06,16.209,1.2455e-06,9.3581,-3.1071e-12,4.3995e-06,-1.2455e-06,-9.358,0.064145
17362,3.3058,3,0,0.00049481,4944.6,0.00020249,-0.024943,9.253e-05,-826.24,-0.00050365,-5305.7,0.064245
17363,3.2139,3.0909,0,0.00049655,4962.1,0.00020461,-0.024228,9.0139e-05,-860.09,-0.00050556,-5335.9,0.06087
17364,3.3058,3.0909,0.05,1.6205e-06,16.194,1.2444e-06,9.3497,-7.4403e-13,1.2403e-06,-1.2444e-06,-9.3497,0.064206
17365,3.3058,2.8182,0,0.00049505,4947.1,0.00020239,-0.024407,9.2966e-05,-822.22,-0.00050389,-5306.7,0.064215
17366,3.2139,2.9091,0,0.00049655,4962.1,0.00020461,-0.024228,9.0139e-05,-860.09,-0.00050556,-5335.9,0.06087
17367,3.3058,2.9091,0.05,1.6205e-06,16.194,1.2444e-06,9.3497,-1.6223e-13,-1.2403e-06,-1.2444e-06,-9.3497,0.064206
17368,3.3058,2.6364,0,0.0004958,4954.6,0.0002021,-0.022768,9.427e-05,-810.18,-0.00050459,-5309.8,0.064123
17369,3.2139,2.7273,0,0.00049705,4967.1,0.0002044,-0.023172,9.104e-05,-851.73,-0.00050603,-5337.9,0.06081
17370,3.3058,2.7273,0.05,1.622e-06,16.209,1.2455e-06,9.358,-4.8839e-13,-3.5848e-06,-1.2455e-06,-9.358,0.064145
17371,3.3058,2.4545,0,0.00049705,4967.1,0.00020161,-0.019929,9.6432e-05,-790.25,-0.00050575,-5314.8,0.063969
17372,3.2139,2.5455,0,0.00049806,4977.1,0.00020398,-0.020987,9.2837e-05,-835.1,-0.00050698,-5341.9,0.06069
17373,3.3058,2.5455,0.05,1.6248e-06,16.237,1.2476e-06,9.3743,-7.9936e-13,-6.035e-06,-1.2476e-06,-9.3743,0.064022
17374,3.3058,2.2727,0,0.0004988,4984.6,0.00020093,-0.015725,9.9431e-05,-762.61,-0.00050738,-5321.9,0.063751
17375,3.2139,2.3636,0,0.00049957,4992.3,0.00020336,-0.017526,9.5514e-05,-810.32,-0.0005084,-5347.9,0.060509
17376,3.3058,2.3636,0.05,1.6289e-06,16.278,1.2508e-06,9.3979,-1.2635e-13,-7.7663e-06,-1.2508e-06,-9.3979,0.063836
17377,3.3058,2.0909,0,0.00050105,5007,0.00020007,-0.0099297,0.00010324,-727.53,-0.00050944,-5331,0.063468
17378,3.2139,2.1818,0,0.00050159,5012.5,0.00020254,-0.012566,9.9049e-05,-777.63,-0.00051028,-5355.9,0.060265
17379,3.3058,2.1818,0.05,1.6341e-06,16.329,1.2547e-06,9.4277,-1.2425e-12,-9.067e-06,-1.2548e-06,-9.4277,0.063586
17380,3.3058,1.9091,0,0.0005038,5034.5,0.00019904,-0.0022497,0.00010783,-685.38,-0.00051194,-5342.1,0.063117
17381,3.2139,2,0,0.00050413,5037.8,0.00020154,-0.0058156,0.00010341,-737.33,-0.00051261,-5365.9,0.059956
17382,3.3058,2,0.05,1.6399e-06,16.388,1.2593e-06,9.4615,-4.8209e-13,-3.6312e-05,-1.2593e-06,-9.4617,0.063269
17383,3.3058,1.7273,0,0.00050704,5066.9,0.00019786,0.007681,0.00011313,-636.61,-0.00051486,-5355.1,0.062696
17384,3.2139,1.8182,0,0.00050718,5068.3,0.00020037,0.0031018,0.00010856,-689.85,-0.00051538,-5377.9,0.059579
17385,3.3058,1.8182,0.05,1.646e-06,16.449,1.2639e-06,9.4969,-4.1933e-12,-2.1809e-05,-1.264e-06,-9.4969,0.062883
17386,3.3058,1.5455,0,0.00051075,5104,0.00019654,0.020362,0.00011911,-581.77,-0.00051815,-5369.9,0.0622
17387,3.2139,1.6364,0,0.00051073,5103.8,0.00019905,0.014641,0.00011444,-635.68,-0.00051857,-5391.9,0.059131
17388,3.3058,1.6364,0.05,1.6517e-06,16.506,1.2683e-06,9.5297,-2.8727e-12,-1.132e-05,-1.2683e-06,-9.5297,0.062426
17389,3.3058,1.3636,0,0.00051492,5145.7,0.0001951,0.036367,0.00012569,-521.51,-0.00052181,-5386.5,0.061628
17390,3.2139,1.4545,0,0.00051477,5144.2,0.00019758,0.029474,0.00012099,-575.45,-0.00052214,-5407.7,0.058608
17391,3.3058,1.4545,0.05,1.6562e-06,16.551,1.2718e-06,9.5555,-4.0359e-12,-4.8238e-05,-1.2718e-06,-9.5555,0.061892
17392,3.3058,1.1818,0,0.00051952,5191.6,0.00019356,0.057026,0.00013279,-456.56,-0.00052577,-5404.8,0.060973
17393,3.2139,1.2727,0,0.00051928,5189.3,0.000196,0.048234,0.00012814,-509.88,-0.00052607,-5425.3,0.058007
17394,3.3058,1.2727,0.05,1.6586e-06,16.574,1.2736e-06,9.5691,-2.4455e-12,-4.7207e-05,-1.2736e-06,-9.5692,0.061279
17395,3.3058,1,0,0.0005245,5241.4,0.00019194,0.082764,0.00014033,-387.71,-0.00053002,-5424.4,0.060232
17396,3.2139,1.0909,0,0.00052423,5238.6,0.00019433,0.07322,0.00013579,-439.78,-0.00053032,-5444.6,0.057323
17397,3.3058,1.0909,0.05,1.6579e-06,16.568,1.2731e-06,9.5655,-5.0665e-12,-5.6165e-05,-1.2731e-06,-9.5655,0.060581
17398,3.3058,0.81818,0,0.00052982,5294.6,0.00019026,0.12258,0.00014821,-315.81,-0.00053448,-5445.3,0.0594
17399,3.2139,0.90909,0,0.00052956,5291.9,0.00019258,0.10333,0.00014385,-366.04,-0.00053483,-5465.4,0.05655
17400,3.3058,0.90909,0.05,1.6536e-06,16.524,1.2697e-06,9.5402,-3.214e-12,-8.1844e-05,-1.2697e-06,-9.5403,0.059795
17401,3.3058,0.63636,0,0.00053543,5350.6,0.00018854,0.16213,0.00015635,-241.74,-0.00053913,-5467.3,0.058471
17402,3.2139,0.72727,0,0.00053522,5348.5,0.00019079,0.1592,0.00015222,-289.58,-0.00053956,-5487.4,0.055684
17403,3.3058,0.72727,0.05,1.6451e-06,16.44,1.2632e-06,9.4914,-4.177e-12,-8.7474e-05,-1.2632e-06,-9.4915,0.058915
17404,3.3058,0.45455,0,0.00054128,5409.1,0.00018682,0.35015,0.00016466,-166.17,-0.00054391,-5490.1,0.05744
17405,3.2139,0.54545,0,0.00054117,5407.9,0.00018897,0.1932,0.00016081,-211.34,-0.00054445,-5510.4,0.054719
17406,3.3058,0.54545,0.05,1.6359e-06,16.348,1.2562e-06,9.4384,-1.0848e-11,-3.3533e-05,-1.2562e-06,-9.4384,0.057936
17407,3.3058,0.27273,0,0.00054748,5471.1,0.0001851,0.59468,0.0001732,-88.883,-0.00054893,-5514.7,0.056303
17408,3.2139,0.36364,0,0.00054736,5469.8,0.00018717,0.5769,0.00016954,-131.9,-0.00054947,-5534.3,0.053649
17409,3.3058,0.36364,0.05,1.6729e-06,16.717,1.2846e-06,9.6516,-1.0307e-11,-2.7042e-05,-1.2846e-06,-9.6517,0.056852
17410,3.2139,0.18182,0,0.00055407,5536.8,0.00018542,1.0597,0.00017857,-50.401,-0.00055489,-5561.3,0.052469
17411,3.3058,0.18182,0.05,2.6579e-06,26.561,2.041e-06,15.335,-1.4551e-12,-1.1358e-05,-2.041e-06,-15.335,0.055658
17412,3.3058,0.090909,0,0.00055219,5518.1,0.0001835,0.4211,0.00018009,-25.2,-0.00055261,-5530.4,0.055052
17413,3.1221,5.7273,0,0.00055393,5535.5,0.00018744,0.67718,0.00017498,-92.926,-0.00055544,-5581.1,0.049936
17414,3.0303,5.8182,0,0.00056079,5604,0.00018768,1.2801,0.00018074,-50.851,-0.00056161,-5628.6,0.046303
17415,3.1221,5.8182,0.05,2.853e-06,28.51,2.1907e-06,16.46,-3.6551e-13,4.9368e-05,-2.1907e-06,-16.46,0.049305
17416,3.1221,5.9091,0,0.00055883,5584.5,0.00018569,0.46432,0.0001823,-25.069,-0.00055925,-5596.7,0.048713
17417,3.1221,5.5455,0,0.00054724,5468.6,0.00018931,0.38659,0.00016571,-176.92,-0.00055002,-5554.7,0.051046
17418,3.0303,5.6364,0,0.0005535,5531.2,0.00018957,0.63759,0.00017093,-139.46,-0.00055573,-5599.3,0.047453
17419,3.1221,5.6364,0.05,1.7403e-06,17.391,1.3363e-06,10.04,1.0829e-11,9.2649e-05,-1.3363e-06,-10.04,0.050471
17420,3.1221,5.3636,0,0.00054095,5405.8,0.00019121,0.17952,0.0001567,-259.06,-0.00054489,-5530.6,0.052048
17421,3.0303,5.4545,0,0.00054685,5464.7,0.00019155,0.2151,0.00016147,-225.79,-0.00055034,-5574,0.048493
17422,3.1221,5.4545,0.05,1.7025e-06,17.014,1.3073e-06,9.8228,1.3801e-11,6.1627e-05,-1.3073e-06,-9.8227,0.051526
17423,3.1221,5.1818,0,0.00053495,5345.8,0.0001931,0.13505,0.00014787,-339.7,-0.00053992,-5507.5,0.052948
17424,3.0303,5.2727,0,0.00054048,5401.1,0.00019355,0.1756,0.00015215,-310.96,-0.0005451,-5549.8,0.049428
17425,3.1221,5.2727,0.05,1.7149e-06,17.137,1.3168e-06,9.8942,5.0756e-12,9.5692e-05,-1.3168e-06,-9.8941,0.052477
17426,3.1221,5,0,0.00052928,5289.1,0.00019497,0.091054,0.00013932,-418.02,-0.00053514,-5485.7,0.053753
17427,3.0303,5.0909,0,0.00053444,5340.7,0.00019554,0.11381,0.00014305,-394.28,-0.00054005,-5526.8,0.050264
17428,3.1221,5.0909,0.05,1.726e-06,17.248,1.3253e-06,9.958,8.1173e-12,8.9578e-05,-1.3253e-06,-9.9579,0.053329
17429,3.1221,4.8182,0,0.00052399,5236.2,0.00019677,0.062694,0.00013114,-493.03,-0.00053063,-5465.3,0.054467
17430,3.0303,4.9091,0,0.00052877,5284.1,0.00019748,0.080452,0.0001343,-474.65,-0.00053524,-5505.4,0.051008
17431,3.1221,4.9091,0.05,1.732e-06,17.308,1.33e-06,9.993,-8.1446e-13,0.00011076,-1.33e-06,-9.9929,0.054088
17432,3.1221,4.6364,0,0.00051913,5187.7,0.00019848,0.040137,0.00012344,-563.77,-0.00052642,-5446.6,0.055096
17433,3.0303,4.7273,0,0.00052355,5231.9,0.00019935,0.053052,0.00012601,-551.02,-0.00053074,-5485.6,0.051665
17434,3.1221,4.7273,0.05,1.7336e-06,17.325,1.3312e-06,10.002,-7.0379e-13,7.7199e-05,-1.3312e-06,-10.002,0.054759
17435,3.1221,4.4545,0,0.00051475,5143.9,0.00020009,0.022859,0.00011632,-629.34,-0.00052256,-5429.6,0.055646
17436,3.0303,4.5455,0,0.00051882,5184.6,0.00020111,0.032704,0.00011828,-622.38,-0.00052659,-5467.7,0.052241
17437,3.1221,4.5455,0.05,1.7318e-06,17.306,1.3298e-06,9.9918,4.9214e-12,7.1095e-05,-1.3298e-06,-9.9917,0.055348
17438,3.1221,4.2727,0,0.00051087,5105.2,0.00020156,0.0093613,0.00010987,-688.92,-0.00051909,-5414.6,0.056119
17439,3.0303,4.3636,0,0.0005146,5142.5,0.00020275,0.016851,0.0001112,-687.83,-0.00052284,-5451.8,0.05274
17440,3.1221,4.3636,0.05,1.7276e-06,17.265,1.3266e-06,9.9677,4.5279e-12,2.7441e-05,-1.3266e-06,-9.9676,0.055859
17441,3.1221,4.0909,0,0.00050751,5071.6,0.00020287,-0.0010368,0.00010414,-741.84,-0.00051604,-5401.6,0.056521
17442,3.0303,4.1818,0,0.00051092,5105.7,0.00020423,0.0047327,0.00010486,-746.59,-0.00051951,-5437.9,0.053166
17443,3.1221,4.1818,0.05,1.7222e-06,17.21,1.3224e-06,9.9363,2.1842e-14,3.7321e-05,-1.3224e-06,-9.9362,0.056297
17444,3.1221,3.9091,0,0.00050467,5043.2,0.00020402,-0.0089373,9.9211e-05,-787.49,-0.00051343,-5390.6,0.056856
17445,3.0303,4,0,0.00050779,5074.4,0.00020554,-0.0044495,9.9331e-05,-797.99,-0.00051663,-5426.1,0.053525
17446,3.1221,4,0.05,1.7164e-06,17.152,1.318e-06,9.9028,6.3129e-13,3.9125e-05,-1.318e-06,-9.9026,0.056665
17447,3.1221,3.7273,0,0.00050236,5020.1,0.00020498,-0.014792,9.5119e-05,-825.43,-0.00051128,-5381.7,0.057125
17448,3.0303,3.8182,0,0.0005052,5048.5,0.00020665,-0.011258,9.4653e-05,-841.52,-0.00051422,-5416.4,0.053818
17449,3.1221,3.8182,0.05,1.7109e-06,17.097,1.3138e-06,9.8711,-5.0148e-13,1.7116e-05,-1.3138e-06,-9.871,0.056966
17450,3.1221,3.5455,0,0.00050057,5002.3,0.00020573,-0.018967,9.1904e-05,-855.28,-0.0005096,-5374.8,0.057332
17451,3.0303,3.6364,0,0.00050314,5027.9,0.00020756,-0.016158,9.0871e-05,-876.78,-0.00051228,-5408.7,0.054049
17452,3.1221,3.6364,0.05,1.7062e-06,17.05,1.3101e-06,9.8439,-1.7794e-12,1.9258e-05,-1.3101e-06,-9.8438,0.057204
17453,3.1221,3.3636,0,0.0004993,4989.6,0.00020628,-0.021746,8.959e-05,-876.78,-0.0005084,-5369.9,0.057478
17454,3.0303,3.4545,0,0.00050161,5012.6,0.00020825,-0.019513,8.8012e-05,-903.46,-0.00051083,-5402.9,0.05422
17455,3.1221,3.4545,0.05,1.7025e-06,17.013,1.3073e-06,9.8228,-4.6215e-14,8.0459e-06,-1.3073e-06,-9.8227,0.05738
17456,3.1221,3.1818,0,0.00049854,4982,0.00020661,-0.023333,8.8195e-05,-889.74,-0.00050768,-5366.9,0.057565
17457,3.0303,3.2727,0,0.0005006,5002.5,0.00020872,-0.021599,8.6097e-05,-921.35,-0.00050986,-5399.1,0.054334
17458,3.1221,3.2727,0.05,1.7e-06,16.989,1.3054e-06,9.8085,5.0825e-13,3.624e-06,-1.3054e-06,-9.8085,0.057497
17459,3.1221,3,0,0.00049829,4979.4,0.00020672,-0.023848,8.7729e-05,-894.08,-0.00050744,-5365.9,0.057594
17460,3.0303,3.0909,0,0.00050009,4997.5,0.00020895,-0.022597,8.5137e-05,-930.33,-0.00050938,-5397.3,0.05439
17461,3.1221,3.0909,0.05,1.6988e-06,16.976,1.3045e-06,9.8013,-7.3724e-13,1.2728e-06,-1.3045e-06,-9.8013,0.057555
17462,3.1221,2.8182,0,0.00049854,4982,0.00020661,-0.023333,8.8195e-05,-889.74,-0.00050768,-5366.9,0.057565
17463,3.0303,2.9091,0,0.00050009,4997.5,0.00020895,-0.022597,8.5137e-05,-930.33,-0.00050938,-5397.3,0.05439
17464,3.1221,2.9091,0.05,1.6988e-06,16.976,1.3045e-06,9.8013,-1.7097e-13,-1.2908e-06,-1.3045e-06,-9.8013,0.057555
17465,3.1221,2.6364,0,0.0004993,4989.6,0.00020628,-0.021746,8.959e-05,-876.78,-0.0005084,-5369.9,0.057478
17466,3.0303,2.7273,0,0.0005006,5002.5,0.00020872,-0.021599,8.6097e-05,-921.35,-0.00050986,-5399.1,0.054334
17467,3.1221,2.7273,0.05,1.7e-06,16.989,1.3054e-06,9.8085,-5.0825e-13,-3.8372e-06,-1.3054e-06,-9.8085,0.057497
17468,3.1221,2.4545,0,0.00050057,5002.3,0.00020573,-0.018967,9.1904e-05,-855.28,-0.0005096,-5374.8,0.057332
17469,3.0303,2.5455,0,0.00050161,5012.6,0.00020825,-0.019513,8.8012e-05,-903.46,-0.00051083,-5402.9,0.05422
17470,3.1221,2.5455,0.05,1.7025e-06,17.013,1.3073e-06,9.8227,-8.3176e-13,-6.6285e-06,-1.3073e-06,-9.8227,0.05738
17471,3.1221,2.2727,0,0.00050236,5020.1,0.00020498,-0.014792,9.5119e-05,-825.43,-0.00051128,-5381.7,0.057125
17472,3.0303,2.3636,0,0.00050314,5027.9,0.00020756,-0.016157,9.0871e-05,-876.78,-0.00051228,-5408.7,0.054049
17473,3.1221,2.3636,0.05,1.7062e-06,17.05,1.3101e-06,9.8439,-5.7312e-14,-8.0781e-06,-1.3101e-06,-9.8439,0.057204
17474,3.1221,2.0909,0,0.00050467,5043.2,0.00020402,-0.008937,9.9211e-05,-787.49,-0.00051343,-5390.6,0.056856
17475,3.0303,2.1818,0,0.0005052,5048.5,0.00020665,-0.011257,9.4653e-05,-841.52,-0.00051422,-5416.4,0.053818
17476,3.1221,2.1818,0.05,1.7109e-06,17.097,1.3138e-06,9.871,-1.685e-12,-1.7116e-05,-1.3138e-06,-9.8711,0.056966
17477,3.1221,1.9091,0,0.00050751,5071.6,0.00020287,-0.0010364,0.00010414,-741.84,-0.00051604,-5401.6,0.056521
17478,3.0303,2,0,0.00050779,5074.4,0.00020554,-0.0044492,9.9331e-05,-797.99,-0.00051663,-5426.1,0.053525
17479,3.1221,2,0.05,1.7164e-06,17.152,1.318e-06,9.9027,-2.8365e-13,-1.9002e-05,-1.318e-06,-9.9027,0.056665
17480,3.1221,1.7273,0,0.00051087,5105.2,0.00020156,0.0093617,0.00010987,-688.92,-0.00051909,-5414.6,0.056119
17481,3.0303,1.8182,0,0.00051092,5105.7,0.00020423,0.0047331,0.00010486,-746.59,-0.00051951,-5437.9,0.053166
17482,3.1221,1.8182,0.05,1.7222e-06,17.21,1.3224e-06,9.9362,-7.4504e-13,-3.5782e-05,-1.3224e-06,-9.9363,0.056297
17483,3.1221,1.5455,0,0.00051475,5143.9,0.00020009,0.022859,0.00011632,-629.34,-0.00052256,-5429.6,0.055646
17484,3.0303,1.6364,0,0.0005146,5142.5,0.00020275,0.016851,0.0001112,-687.83,-0.00052284,-5451.8,0.05274
17485,3.1221,1.6364,0.05,1.7276e-06,17.265,1.3266e-06,9.9676,-5.2026e-12,-2.7441e-05,-1.3266e-06,-9.9677,0.055859
17486,3.1221,1.3636,0,0.00051913,5187.7,0.00019848,0.040137,0.00012344,-563.77,-0.00052642,-5446.6,0.055096
17487,3.0303,1.4545,0,0.00051882,5184.6,0.00020111,0.032704,0.00011828,-622.38,-0.00052659,-5467.7,0.052241
17488,3.1221,1.4545,0.05,1.7318e-06,17.306,1.3298e-06,9.9917,-2.0683e-12,-5.2106e-05,-1.3298e-06,-9.9918,0.055348
17489,3.1221,1.1818,0,0.00052399,5236.2,0.00019677,0.062694,0.00013114,-493.03,-0.00053063,-5465.3,0.054467
17490,3.0303,1.2727,0,0.00052355,5231.9,0.00019935,0.053053,0.00012601,-551.02,-0.00053074,-5485.6,0.051665
17491,3.1221,1.2727,0.05,1.7336e-06,17.325,1.3312e-06,10.002,2.6683e-13,-7.7199e-05,-1.3312e-06,-10.002,0.054759
17492,3.1221,1,0,0.00052928,5289.1,0.00019497,0.091054,0.00013932,-418.02,-0.00053514,-5485.7,0.053753
17493,3.0303,1.0909,0,0.00052877,5284.1,0.00019748,0.080453,0.0001343,-474.65,-0.00053524,-5505.4,0.051008
17494,3.1221,1.0909,0.05,1.732e-06,17.308,1.33e-06,9.9929,-2.6314e-13,-8.5878e-05,-1.33e-06,-9.993,0.054088
17495,3.1221,0.81818,0,0.00053495,5345.8,0.0001931,0.13505,0.00014787,-339.7,-0.00053992,-5507.5,0.052948
17496,3.0303,0.90909,0,0.00053444,5340.7,0.00019554,0.11381,0.00014305,-394.28,-0.00054005,-5526.8,0.050264
17497,3.1221,0.90909,0.05,1.726e-06,17.248,1.3253e-06,9.9579,-4.4071e-12,-6.2248e-05,-1.3253e-06,-9.9579,0.053329
17498,3.1221,0.63636,0,0.00054095,5405.8,0.00019121,0.17952,0.0001567,-259.06,-0.00054489,-5530.6,0.052048
17499,3.0303,0.72727,0,0.00054048,5401.1,0.00019355,0.1756,0.00015215,-310.96,-0.0005451,-5549.8,0.049428
17500,3.1221,0.72727,0.05,1.7149e-06,17.137,1.3168e-06,9.8942,-9.0295e-12,-6.6336e-05,-1.3168e-06,-9.8942,0.052477
17501,3.1221,0.45455,0,0.00054724,5468.6,0.00018931,0.38659,0.00016571,-176.92,-0.00055002,-5554.7,0.051046
17502,3.0303,0.54545,0,0.00054685,5464.7,0.00019155,0.2151,0.00016147,-225.79,-0.00055034,-5574,0.048493
17503,3.1221,0.54545,0.05,1.7025e-06,17.014,1.3073e-06,9.8227,-5.0992e-12,-9.6255e-05,-1.3073e-06,-9.8228,0.051526
17504,3.1221,0.27273,0,0.00055393,5535.5,0.00018744,0.67718,0.00017498,-92.926,-0.00055544,-5581.1,0.049936
17505,3.0303,0.36364,0,0.0005535,5531.2,0.00018957,0.63759,0.00017093,-139.46,-0.00055573,-5599.3,0.047453
17506,3.1221,0.36364,0.05,1.7403e-06,17.391,1.3363e-06,10.04,-4.2232e-12,-9.6462e-05,-1.3363e-06,-10.04,0.050471
17507,3.0303,0.18182,0,0.00056079,5604,0.00018768,1.2801,0.00018074,-50.851,-0.00056161,-5628.6,0.046303
17508,3.1221,0.18182,0.05,2.853e-06,28.51,2.1907e-06,16.46,1.7476e-12,-4.9368e-05,-2.1907e-06,-16.46,0.049305
17509,3.1221,0.090909,0,0.00055883,5584.5,0.00018569,0.46433,0.0001823,-25.069,-0.00055925,-5596.7,0.048713
17510,2.9385,5.7273,0,0.00056035,5599.6,0.00018975,0.7746,0.00017677,-96.779,-0.00056192,-5647,0.043943
17511,2.8466,5.8182,0,0.00056747,5670.8,0.0001899,1.5647,0.00018294,-50.745,-0.00056829,-5695.2,0.040514
17512,2.9385,5.8182,0.05,3.0572e-06,30.551,2.3475e-06,17.639,-1.559e-12,2.3781e-05,-2.3475e-06,-17.638,0.043327
17513,2.9385,5.9091,0,0.00056543,5650.4,0.00018785,0.51578,0.00018451,-24.539,-0.00056583,-5662.4,0.042751
17514,2.9385,5.5455,0,0.00055311,5527.3,0.0001918,0.42746,0.0001667,-188.16,-0.00055606,-5618.7,0.04502
17515,2.8466,5.6364,0,0.00055956,5591.8,0.00019196,0.70609,0.00017227,-147.18,-0.00056191,-5663.5,0.041631
17516,2.9385,5.6364,0.05,1.8131e-06,18.118,1.3922e-06,10.46,9.0582e-13,0.00010105,-1.3922e-06,-10.46,0.044461
17517,2.9385,5.3636,0,0.00054637,5459.9,0.00019389,0.19897,0.00015693,-277.54,-0.00055056,-5593.3,0.04599
17518,2.8466,5.4545,0,0.00055241,5520.3,0.00019413,0.23984,0.00016201,-241.11,-0.00055612,-5636.8,0.042636
17519,2.9385,5.4545,0.05,1.7764e-06,17.752,1.3641e-06,10.249,6.5444e-12,0.0001392,-1.3641e-06,-10.249,0.045485
17520,2.9385,5.1818,0,0.00053996,5395.9,0.00019599,0.14883,0.00014734,-365.41,-0.00054524,-5569.2,0.046859
17521,2.8466,5.2727,0,0.0005456,5452.3,0.00019635,0.19382,0.00015188,-333.93,-0.00055051,-5611.5,0.043537
17522,2.9385,5.2727,0.05,1.793e-06,17.917,1.3768e-06,10.345,9.0229e-12,0.00010445,-1.3768e-06,-10.345,0.046403
17523,2.9385,5,0,0.00053393,5335.6,0.00019806,0.10013,0.00013805,-450.8,-0.00054016,-5546.6,0.047632
17524,2.8466,5.0909,0,0.00053917,5387.9,0.00019856,0.12532,0.00014201,-424.82,-0.00054513,-5587.7,0.044341
17525,2.9385,5.0909,0.05,1.8072e-06,18.06,1.3877e-06,10.427,4.3807e-12,0.00012402,-1.3877e-06,-10.427,0.047224
17526,2.9385,4.8182,0,0.00052833,5279.7,0.00020007,0.068857,0.00012918,-532.56,-0.00053537,-5525.7,0.048317
17527,2.8466,4.9091,0,0.00053318,5328.1,0.00020073,0.088313,0.00013251,-512.48,-0.00054004,-5565.7,0.045053
17528,2.9385,4.9091,0.05,1.8153e-06,18.14,1.3939e-06,10.473,3.8579e-12,6.6059e-05,-1.3939e-06,-10.473,0.047953
17529,2.9385,4.6364,0,0.00052323,5228.7,0.00020198,0.044263,0.00012085,-609.58,-0.00053093,-5506.8,0.048918
17530,2.8466,4.7273,0,0.00052769,5273.3,0.00020281,0.058278,0.00012352,-595.7,-0.00053529,-5545.8,0.04568
17531,2.9385,4.7273,0.05,1.8181e-06,18.168,1.396e-06,10.489,3.7141e-12,9.6879e-05,-1.396e-06,-10.489,0.048595
17532,2.9385,4.4545,0,0.00051866,5183.1,0.00020378,0.025689,0.00011316,-680.86,-0.00052688,-5489.8,0.049442
17533,2.8466,4.5455,0,0.00052276,5224,0.00020479,0.03628,0.00011517,-673.31,-0.00053094,-5528,0.046227
17534,2.9385,4.5455,0.05,1.8169e-06,18.156,1.3951e-06,10.482,9.2436e-12,4.5213e-05,-1.3951e-06,-10.482,0.049157
17535,2.9385,4.2727,0,0.00051465,5142.9,0.00020542,0.011436,0.0001062,-745.51,-0.00052326,-5475,0.049892
17536,2.8466,4.3636,0,0.0005184,5180.5,0.00020662,0.019454,0.00010755,-744.34,-0.00052704,-5512.4,0.0467
17537,2.9385,4.3636,0.05,1.8131e-06,18.119,1.3923e-06,10.461,1.0763e-12,4.8151e-05,-1.3923e-06,-10.461,0.049643
17538,2.9385,4.0909,0,0.0005112,5108.4,0.00020689,0.00067963,0.00010005,-802.79,-0.0005201,-5462.3,0.050273
17539,2.8466,4.1818,0,0.00051464,5142.8,0.00020827,0.0068749,0.00010074,-807.93,-0.0005236,-5499,0.047103
17540,2.9385,4.1818,0.05,1.8082e-06,18.069,1.3884e-06,10.432,3.1004e-13,3.8336e-05,-1.3884e-06,-10.432,0.050058
17541,2.9385,3.9091,0,0.00050831,5079.5,0.00020817,-0.0073099,9.4762e-05,-852.11,-0.00051741,-5451.7,0.050589
17542,2.8466,4,0,0.00051146,5111,0.00020973,-0.0024224,9.4821e-05,-863.41,-0.00052064,-5487.8,0.047441
17543,2.9385,4,0.05,1.803e-06,18.017,1.3845e-06,10.402,1.5053e-12,4.187e-05,-1.3845e-06,-10.402,0.050407
17544,2.9385,3.7273,0,0.00050597,5056.2,0.00020924,-0.013093,9.0389e-05,-892.99,-0.00051521,-5443.2,0.050843
17545,2.8466,3.8182,0,0.00050885,5085,0.00021098,-0.0091331,8.9831e-05,-910.27,-0.00051818,-5478.7,0.047717
17546,2.9385,3.8182,0.05,1.7982e-06,17.97,1.3808e-06,10.375,8.2763e-13,1.6786e-05,-1.3808e-06,-10.375,0.050691
17547,2.9385,3.5455,0,0.00050417,5038.2,0.00021008,-0.017125,8.6961e-05,-925.1,-0.00051349,-5436.7,0.051038
17548,2.8466,3.6364,0,0.0005068,5064.5,0.00021199,-0.013833,8.5808e-05,-948.13,-0.00051622,-5471.6,0.047934
17549,2.9385,3.6364,0.05,1.7944e-06,17.931,1.3779e-06,10.353,4.2616e-15,2.0973e-05,-1.3779e-06,-10.353,0.050916
17550,2.9385,3.3636,0,0.0005029,5025.5,0.00021069,-0.019756,8.4499e-05,-948.18,-0.00051227,-5432.1,0.051176
17551,2.8466,3.4545,0,0.00050528,5049.3,0.00021277,-0.01697,8.2776e-05,-976.72,-0.00051476,-5466.4,0.048095
17552,2.9385,3.4545,0.05,1.7915e-06,17.903,1.3757e-06,10.336,-6.6316e-13,8.4064e-06,-1.3756e-06,-10.336,0.051082
17553,2.9385,3.1818,0,0.00050214,5017.9,0.00021106,-0.021235,8.3017e-05,-962.1,-0.00051154,-5429.3,0.051258
17554,2.8466,3.2727,0,0.00050428,5039.4,0.00021329,-0.018879,8.0747e-05,-995.86,-0.00051379,-5462.9,0.048201
17555,2.9385,3.2727,0.05,1.7896e-06,17.884,1.3742e-06,10.325,-3.7144e-13,4.6859e-06,-1.3742e-06,-10.325,0.051192
17556,2.9385,3,0,0.00050189,5015.4,0.00021118,-0.021712,8.2522e-05,-966.74,-0.00051129,-5428.4,0.051286
17557,2.8466,3.0909,0,0.00050379,5034.4,0.00021355,-0.019779,7.9732e-05,-1005.5,-0.0005133,-5461.3,0.048254
17558,2.9385,3.0909,0.05,1.7887e-06,17.875,1.3735e-06,10.32,-7.313e-13,1.3349e-06,-1.3735e-06,-10.32,0.051246
17559,2.9385,2.8182,0,0.00050214,5017.9,0.00021106,-0.021235,8.3017e-05,-962.1,-0.00051154,-5429.3,0.051258
17560,2.8466,2.9091,0,0.00050379,5034.4,0.00021355,-0.019779,7.9732e-05,-1005.5,-0.0005133,-5461.3,0.048254
17561,2.9385,2.9091,0.05,1.7887e-06,17.875,1.3735e-06,10.32,-1.0849e-12,-1.3164e-06,-1.3735e-06,-10.32,0.051246
17562,2.9385,2.6364,0,0.0005029,5025.5,0.00021069,-0.019756,8.4499e-05,-948.18,-0.00051227,-5432.1,0.051176
17563,2.8466,2.7273,0,0.00050428,5039.4,0.00021329,-0.018879,8.0747e-05,-995.86,-0.00051379,-5462.9,0.048201
17564,2.9385,2.7273,0.05,1.7896e-06,17.884,1.3742e-06,10.325,-4.9945e-13,-3.8589e-06,-1.3742e-06,-10.325,0.051192
17565,2.9385,2.4545,0,0.00050417,5038.2,0.00021008,-0.017125,8.6961e-05,-925.1,-0.00051349,-5436.7,0.051038
17566,2.8466,2.5455,0,0.00050528,5049.3,0.00021277,-0.01697,8.2776e-05,-976.72,-0.00051476,-5466.4,0.048095
17567,2.9385,2.5455,0.05,1.7915e-06,17.903,1.3757e-06,10.336,-8.6057e-13,-6.1361e-06,-1.3757e-06,-10.336,0.051082
17568,2.9385,2.2727,0,0.00050597,5056.2,0.00020924,-0.013093,9.0389e-05,-892.99,-0.00051521,-5443.2,0.050843
17569,2.8466,2.3636,0,0.0005068,5064.5,0.00021199,-0.013833,8.5808e-05,-948.13,-0.00051622,-5471.6,0.047934
17570,2.9385,2.3636,0.05,1.7944e-06,17.931,1.3779e-06,10.353,6.3375e-13,-7.867e-06,-1.3779e-06,-10.353,0.050916
17571,2.9385,2.0909,0,0.00050831,5079.5,0.00020817,-0.0073096,9.4762e-05,-852.11,-0.00051741,-5451.7,0.050589
17572,2.8466,2.1818,0,0.00050885,5085,0.00021098,-0.0091328,8.9831e-05,-910.27,-0.00051818,-5478.7,0.047717
17573,2.9385,2.1818,0.05,1.7982e-06,17.97,1.3808e-06,10.375,-6.4791e-13,-9.7477e-06,-1.3808e-06,-10.375,0.050691
17574,2.9385,1.9091,0,0.0005112,5108.4,0.00020689,0.00068006,0.00010005,-802.79,-0.0005201,-5462.3,0.050273
17575,2.8466,2,0,0.00051146,5111,0.00020973,-0.002422,9.4821e-05,-863.41,-0.00052064,-5487.8,0.047441
17576,2.9385,2,0.05,1.803e-06,18.017,1.3845e-06,10.402,-1.9788e-12,-2.1537e-05,-1.3845e-06,-10.402,0.050407
17577,2.9385,1.7273,0,0.00051465,5142.9,0.00020542,0.011436,0.0001062,-745.51,-0.00052326,-5475,0.049892
17578,2.8466,1.8182,0,0.00051464,5142.8,0.00020827,0.0068753,0.00010074,-807.93,-0.0005236,-5499,0.047103
17579,2.9385,1.8182,0.05,1.8082e-06,18.069,1.3884e-06,10.432,-2.4301e-12,-3.8336e-05,-1.3884e-06,-10.432,0.050058
17580,2.9385,1.5455,0,0.00051866,5183.1,0.00020378,0.02569,0.00011316,-680.86,-0.00052688,-5489.8,0.049442
17581,2.8466,1.6364,0,0.0005184,5180.5,0.00020662,0.019455,0.00010755,-744.34,-0.00052704,-5512.4,0.0467
17582,2.9385,1.6364,0.05,1.8131e-06,18.119,1.3923e-06,10.461,3.2222e-13,-4.8151e-05,-1.3923e-06,-10.461,0.049643
17583,2.9385,1.3636,0,0.00052323,5228.7,0.00020198,0.044263,0.00012085,-609.58,-0.00053093,-5506.8,0.048918
17584,2.8466,1.4545,0,0.00052276,5224,0.00020479,0.036281,0.00011517,-673.31,-0.00053094,-5528,0.046227
17585,2.9385,1.4545,0.05,1.8169e-06,18.156,1.3951e-06,10.482,-4.2848e-12,-3.5263e-05,-1.3951e-06,-10.482,0.049157
17586,2.9385,1.1818,0,0.00052833,5279.7,0.00020007,0.068858,0.00012918,-532.56,-0.00053537,-5525.7,0.048317
17587,2.8466,1.2727,0,0.00052769,5273.3,0.00020281,0.058279,0.00012352,-595.7,-0.00053529,-5545.8,0.04568
17588,2.9385,1.2727,0.05,1.8181e-06,18.168,1.396e-06,10.489,-2.4727e-12,-6.337e-05,-1.396e-06,-10.489,0.048595
17589,2.9385,1,0,0.00053393,5335.6,0.00019806,0.10013,0.00013805,-450.8,-0.00054016,-5546.6,0.047632
17590,2.8466,1.0909,0,0.00053318,5328.1,0.00020073,0.088313,0.00013251,-512.48,-0.00054004,-5565.7,0.045053
17591,2.9385,1.0909,0.05,1.8153e-06,18.14,1.3939e-06,10.473,-1.6031e-12,-6.2265e-05,-1.3939e-06,-10.473,0.047953
17592,2.9385,0.81818,0,0.00053996,5395.9,0.00019599,0.14883,0.00014734,-365.41,-0.00054524,-5569.2,0.046859
17593,2.8466,0.90909,0,0.00053917,5387.9,0.00019856,0.12532,0.00014201,-424.82,-0.00054513,-5587.7,0.044341
17594,2.9385,0.90909,0.05,1.8072e-06,18.06,1.3877e-06,10.427,2.7841e-12,-0.0001016,-1.3877e-06,-10.427,0.047224
17595,2.9385,0.63636,0,0.00054637,5459.9,0.00019389,0.19897,0.00015693,-277.54,-0.00055056,-5593.3,0.04599
17596,2.8466,0.72727,0,0.0005456,5452.3,0.00019635,0.19382,0.00015188,-333.93,-0.00055051,-5611.5,0.043537
17597,2.9385,0.72727,0.05,1.793e-06,17.917,1.3768e-06,10.345,-1.3275e-12,-6.4554e-05,-1.3768e-06,-10.345,0.046403
17598,2.9385,0.45455,0,0.00055311,5527.3,0.0001918,0.42746,0.0001667,-188.16,-0.00055606,-5618.7,0.04502
17599,2.8466,0.54545,0,0.00055241,5520.3,0.00019413,0.23984,0.00016201,-241.11,-0.00055612,-5636.8,0.042636
17600,2.9385,0.54545,0.05,1.7764e-06,17.752,1.3641e-06,10.249,1.5264e-12,-0.0001045,-1.3641e-06,-10.249,0.045485
17601,2.9385,0.27273,0,0.00056035,5599.6,0.00018975,0.7746,0.00017677,-96.778,-0.00056192,-5647,0.043943
17602,2.8466,0.36364,0,0.00055956,5591.8,0.00019196,0.7061,0.00017227,-147.18,-0.00056191,-5663.5,0.041631
17603,2.9385,0.36364,0.05,1.8131e-06,18.118,1.3922e-06,10.46,-6.4758e-12,-3.2413e-05,-1.3922e-06,-10.46,0.044461
17604,2.8466,0.18182,0,0.00056747,5670.8,0.00018991,1.5647,0.00018294,-50.745,-0.00056829,-5695.2,0.040514
17605,2.9385,0.18182,0.05,3.0572e-06,30.551,2.3475e-06,17.638,-2.6585e-13,-2.6803e-05,-2.3475e-06,-17.639,0.043327
17606,2.9385,0.090909,0,0.00056543,5650.4,0.00018785,0.51578,0.00018451,-24.539,-0.00056583,-5662.4,0.042751
17607,2.7548,5.7273,0,0.00056668,5662.9,0.00019203,0.89049,0.00017855,-100.39,-0.0005683,-5711.9,0.038325
17608,2.663,5.8182,0,0.00057408,5736.9,0.00019208,1.9398,0.00018517,-49.988,-0.00057488,-5760.7,0.035105
17609,2.7548,5.8182,0.05,3.2697e-06,32.675,2.5108e-06,18.865,1.4885e-12,2.4532e-05,-2.5108e-06,-18.865,0.037727
17610,2.7548,5.9091,0,0.00057192,5715.3,0.00018995,0.57885,0.00018674,-23.53,-0.00057231,-5726.7,0.037169
17611,2.7548,5.5455,0,0.00055886,5584.7,0.00019428,0.47345,0.0001676,-199.94,-0.00056198,-5681.7,0.039367
17612,2.663,5.6364,0,0.00056548,5650.9,0.0001943,0.7838,0.00017356,-155.07,-0.00056794,-5726.4,0.036184
17613,2.7548,5.6364,0.05,1.8923e-06,18.91,1.453e-06,10.918,1.0087e-11,0.00014565,-1.453e-06,-10.918,0.038826
17614,2.7548,5.3636,0,0.00055164,5512.6,0.00019659,0.22075,0.00015698,-297.34,-0.00055609,-5655.1,0.040301
17615,2.663,5.4545,0,0.0005578,5574.2,0.0001967,0.26785,0.0001624,-257.44,-0.00056173,-5698.3,0.037152
17616,2.7548,5.4545,0.05,1.8593e-06,18.58,1.4277e-06,10.727,1.0864e-11,0.00015589,-1.4277e-06,-10.727,0.039814
17617,2.7548,5.1818,0,0.0005448,5444.2,0.00019892,0.16404,0.00014657,-393.2,-0.00055042,-5630.1,0.041135
17618,2.663,5.2727,0,0.00055053,5501.5,0.00019917,0.21405,0.0001514,-358.77,-0.00055575,-5672,0.038016
17619,2.7548,5.2727,0.05,1.8812e-06,18.799,1.4445e-06,10.853,1.1713e-11,0.00010619,-1.4445e-06,-10.853,0.040697
17620,2.7548,5,0,0.00053841,5380.3,0.00020123,0.11002,0.00013648,-486.39,-0.00054502,-5607,0.041874
17621,2.663,5.0909,0,0.0005437,5433.2,0.00020164,0.13792,0.00014066,-458.04,-0.00055003,-5647.6,0.038782
17622,2.7548,5.0909,0.05,1.8991e-06,18.978,1.4583e-06,10.957,2.3213e-12,0.00010262,-1.4583e-06,-10.957,0.041483
17623,2.7548,4.8182,0,0.00053252,5321.6,0.00020348,0.075523,0.00012687,-575.54,-0.00053997,-5585.9,0.042526
17624,2.663,4.9091,0,0.00053739,5370.2,0.00020407,0.096801,0.00013036,-553.73,-0.00054466,-5625.5,0.039459
17625,2.7548,4.9091,0.05,1.9094e-06,19.081,1.4662e-06,11.017,5.7185e-12,0.00013116,-1.4662e-06,-11.016,0.042178
17626,2.7548,4.6364,0,0.00052721,5268.4,0.00020562,0.048762,0.00011785,-659.38,-0.00053532,-5567,0.043097
17627,2.663,4.7273,0,0.00053167,5313,0.0002064,0.063909,0.00012063,-644.4,-0.00053969,-5605.8,0.040053
17628,2.7548,4.7273,0.05,1.9134e-06,19.12,1.4692e-06,11.039,8.1737e-12,6.4259e-05,-1.4692e-06,-11.039,0.042788
17629,2.7548,4.4545,0,0.00052249,5221.3,0.00020763,0.028909,0.00010956,-736.78,-0.0005311,-5550.5,0.043592
17630,2.663,4.5455,0,0.00052658,5262.1,0.00020862,0.040237,0.00011162,-728.74,-0.00053517,-5588.5,0.040569
17631,2.7548,4.5455,0.05,1.9128e-06,19.115,1.4688e-06,11.036,9.6984e-12,7.901e-05,-1.4688e-06,-11.036,0.043321
17632,2.7548,4.2727,0,0.00051838,5180.2,0.00020947,0.014009,0.00010209,-806.79,-0.00052737,-5536.3,0.044016
17633,2.663,4.3636,0,0.00052214,5217.8,0.00021067,0.022542,0.00010344,-805.67,-0.00053115,-5573.7,0.041014
17634,2.7548,4.3636,0.05,1.9096e-06,19.083,1.4664e-06,11.018,1.3762e-12,3.2729e-05,-1.4664e-06,-11.018,0.04378
17635,2.7548,4.0909,0,0.00051489,5145.3,0.00021111,0.0030556,9.5508e-05,-868.62,-0.00052413,-5524.4,0.044374
17636,2.663,4.1818,0,0.00051834,5179.8,0.00021252,0.0096758,9.6161e-05,-874.29,-0.00052765,-5561.4,0.041392
17637,2.7548,4.1818,0.05,1.9054e-06,19.041,1.4631e-06,10.993,5.4468e-13,4.2433e-05,-1.4631e-06,-10.993,0.044171
17638,2.7548,3.9091,0,0.00051199,5116.4,0.00021254,-0.0048469,8.9876e-05,-921.69,-0.0005214,-5514.6,0.044671
17639,2.663,4,0,0.00051518,5148.2,0.00021416,0.00046485,8.9859e-05,-933.95,-0.00052467,-5551.3,0.041708
17640,2.7548,4,0.05,1.9012e-06,18.999,1.4599e-06,10.969,1.1527e-12,1.1696e-05,-1.4599e-06,-10.969,0.044498
17641,2.7548,3.7273,0,0.00050967,5093.2,0.00021374,-0.010393,8.5232e-05,-965.55,-0.00051918,-5506.9,0.044909
17642,2.663,3.8182,0,0.00051261,5122.6,0.00021555,-0.0059538,8.4571e-05,-984.16,-0.00052221,-5543.3,0.041965
17643,2.7548,3.8182,0.05,1.8978e-06,18.965,1.4573e-06,10.949,-5.1493e-14,1.0031e-05,-1.4572e-06,-10.949,0.044764
17644,2.7548,3.5455,0,0.0005079,5075.5,0.00021468,-0.014142,8.1601e-05,-999.91,-0.00051747,-5501.1,0.045091
17645,2.663,3.6364,0,0.00051061,5102.6,0.00021669,-0.010287,8.0324e-05,-1024.6,-0.00052027,-5537.2,0.042167
17646,2.7548,3.6364,0.05,1.8952e-06,18.939,1.4553e-06,10.935,1.0399e-12,1.7383e-05,-1.4553e-06,-10.934,0.044974
17647,2.7548,3.3636,0,0.00050666,5063.1,0.00021536,-0.016521,7.9e-05,-1024.6,-0.00051625,-5497.1,0.04522
17648,2.663,3.4545,0,0.00050915,5088,0.00021755,-0.013076,7.7133e-05,-1055,-0.00051882,-5532.8,0.042316
17649,2.7548,3.4545,0.05,1.8936e-06,18.923,1.454e-06,10.925,-1.7364e-12,8.712e-06,-1.454e-06,-10.925,0.045129
17650,2.7548,3.1818,0,0.00050592,5055.7,0.00021577,-0.01783,7.7437e-05,-1039.4,-0.00051552,-5494.7,0.045296
17651,2.663,3.2727,0,0.00050819,5078.4,0.00021813,-0.014722,7.5003e-05,-1075.4,-0.00051787,-5530,0.042415
17652,2.7548,3.2727,0.05,1.8926e-06,18.913,1.4533e-06,10.92,-1.2799e-12,4.0773e-06,-1.4533e-06,-10.92,0.045232
17653,2.7548,3,0,0.00050568,5053.3,0.00021591,-0.018246,7.6916e-05,-1044.4,-0.00051528,-5493.9,0.045322
17654,2.663,3.0909,0,0.00050772,5073.7,0.00021842,-0.015481,7.3938e-05,-1085.6,-0.00051739,-5528.6,0.042464
17655,2.7548,3.0909,0.05,1.8922e-06,18.909,1.453e-06,10.917,-7.2421e-13,1.3708e-06,-1.453e-06,-10.917,0.045283
17656,2.7548,2.8182,0,0.00050592,5055.7,0.00021577,-0.017829,7.7437e-05,-1039.4,-0.00051552,-5494.7,0.045296
17657,2.663,2.9091,0,0.00050772,5073.7,0.00021842,-0.015481,7.3938e-05,-1085.6,-0.00051739,-5528.6,0.042464
17658,2.7548,2.9091,0.05,1.8922e-06,18.909,1.453e-06,10.917,-1.8383e-13,-1.3708e-06,-1.453e-06,-10.917,0.045283
17659,2.7548,2.6364,0,0.00050666,5063.1,0.00021536,-0.01652,7.9e-05,-1024.6,-0.00051625,-5497.1,0.04522
17660,2.663,2.7273,0,0.00050819,5078.4,0.00021813,-0.014722,7.5003e-05,-1075.4,-0.00051787,-5530,0.042415
17661,2.7548,2.7273,0.05,1.8926e-06,18.913,1.4533e-06,10.92,-5.1306e-13,-3.8508e-06,-1.4533e-06,-10.92,0.045232
17662,2.7548,2.4545,0,0.0005079,5075.5,0.00021468,-0.014142,8.1601e-05,-999.91,-0.00051747,-5501.1,0.045091
17663,2.663,2.5455,0,0.00050915,5088,0.00021755,-0.013076,7.7133e-05,-1055,-0.00051882,-5532.8,0.042316
17664,2.7548,2.5455,0.05,1.8936e-06,18.923,1.454e-06,10.925,-8.8462e-13,-6.3076e-06,-1.454e-06,-10.925,0.045129
17665,2.7548,2.2727,0,0.00050967,5093.2,0.00021374,-0.010393,8.5232e-05,-965.55,-0.00051918,-5506.9,0.044909
17666,2.663,2.3636,0,0.00051061,5102.6,0.00021669,-0.010286,8.0324e-05,-1024.6,-0.00052027,-5537.2,0.042167
17667,2.7548,2.3636,0.05,1.8952e-06,18.939,1.4553e-06,10.935,-4.8618e-13,-1.2738e-05,-1.4553e-06,-10.935,0.044974
17668,2.7548,2.0909,0,0.00051199,5116.4,0.00021254,-0.0048466,8.9876e-05,-921.69,-0.0005214,-5514.6,0.044671
17669,2.663,2.1818,0,0.00051261,5122.6,0.00021555,-0.0059536,8.4571e-05,-984.16,-0.00052221,-5543.3,0.041965
17670,2.7548,2.1818,0.05,1.8978e-06,18.965,1.4572e-06,10.949,2.4965e-13,-1.0031e-05,-1.4572e-06,-10.949,0.044764
17671,2.7548,1.9091,0,0.00051489,5145.3,0.00021111,0.003056,9.5508e-05,-868.62,-0.00052413,-5524.4,0.044374
17672,2.663,2,0,0.00051518,5148.2,0.00021416,0.00046518,8.9859e-05,-933.95,-0.00052467,-5551.3,0.041708
17673,2.7548,2,0.05,1.9012e-06,18.999,1.4599e-06,10.969,-2.4929e-13,-5.4317e-06,-1.4599e-06,-10.969,0.044498
17674,2.7548,1.7273,0,0.00051838,5180.2,0.00020947,0.014009,0.00010209,-806.79,-0.00052737,-5536.3,0.044016
17675,2.663,1.8182,0,0.00051834,5179.8,0.00021252,0.0096762,9.6161e-05,-874.29,-0.00052765,-5561.4,0.041392
17676,2.7548,1.8182,0.05,1.9054e-06,19.041,1.4631e-06,10.993,-8.6478e-13,-2.774e-05,-1.4631e-06,-10.993,0.044171
17677,2.7548,1.5455,0,0.00052249,5221.3,0.00020763,0.028909,0.00010956,-736.78,-0.0005311,-5550.5,0.043592
17678,2.663,1.6364,0,0.00052214,5217.8,0.00021067,0.022542,0.00010344,-805.67,-0.00053115,-5573.7,0.041014
17679,2.7548,1.6364,0.05,1.9096e-06,19.083,1.4664e-06,11.018,-1.3762e-12,-2.9213e-05,-1.4664e-06,-11.018,0.04378
17680,2.7548,1.3636,0,0.00052721,5268.4,0.00020562,0.048762,0.00011785,-659.38,-0.00053532,-5567,0.043097
17681,2.663,1.4545,0,0.00052658,5262.1,0.00020862,0.040238,0.00011162,-728.74,-0.00053517,-5588.5,0.040569
17682,2.7548,1.4545,0.05,1.9128e-06,19.115,1.4688e-06,11.036,-8.2748e-12,-3.0022e-05,-1.4688e-06,-11.036,0.043321
17683,2.7548,1.1818,0,0.00053252,5321.6,0.00020348,0.075523,0.00012687,-575.54,-0.00053997,-5585.9,0.042526
17684,2.663,1.2727,0,0.00053167,5313,0.0002064,0.06391,0.00012063,-644.4,-0.00053969,-5605.8,0.040053
17685,2.7548,1.2727,0.05,1.9134e-06,19.12,1.4692e-06,11.039,-5.6639e-12,-3.0239e-05,-1.4692e-06,-11.039,0.042788
17686,2.7548,1,0,0.00053841,5380.3,0.00020123,0.11002,0.00013648,-486.39,-0.00054502,-5607,0.041874
17687,2.663,1.0909,0,0.00053739,5370.2,0.00020407,0.096801,0.00013036,-553.73,-0.00054466,-5625.5,0.039459
17688,2.7548,1.0909,0.05,1.9094e-06,19.081,1.4662e-06,11.016,-2.1507e-12,-0.00010123,-1.4662e-06,-11.017,0.042178
17689,2.7548,0.81818,0,0.0005448,5444.2,0.00019892,0.16404,0.00014657,-393.2,-0.00055042,-5630.1,0.041135
17690,2.663,0.90909,0,0.0005437,5433.2,0.00020164,0.13792,0.00014066,-458.04,-0.00055003,-5647.6,0.038782
17691,2.7548,0.90909,0.05,1.8991e-06,18.978,1.4583e-06,10.957,1.6053e-12,-7.3484e-05,-1.4583e-06,-10.957,0.041483
17692,2.7548,0.63636,0,0.00055164,5512.6,0.00019659,0.22075,0.00015698,-297.34,-0.00055609,-5655.1,0.040301
17693,2.663,0.72727,0,0.00055053,5501.5,0.00019917,0.21405,0.0001514,-358.77,-0.00055575,-5672,0.038016
17694,2.7548,0.72727,0.05,1.8812e-06,18.799,1.4445e-06,10.853,-7.8084e-12,-7.8322e-05,-1.4445e-06,-10.853,0.040697
17695,2.7548,0.45455,0,0.00055886,5584.7,0.00019428,0.47345,0.0001676,-199.94,-0.00056198,-5681.7,0.039367
17696,2.663,0.54545,0,0.0005578,5574.2,0.0001967,0.26785,0.0001624,-257.44,-0.00056173,-5698.3,0.037152
17697,2.7548,0.54545,0.05,1.8593e-06,18.58,1.4277e-06,10.727,-1.1846e-11,-0.00011506,-1.4277e-06,-10.727,0.039814
17698,2.7548,0.27273,0,0.00056668,5662.9,0.00019203,0.89049,0.00017855,-100.39,-0.0005683,-5711.9,0.038325
17699,2.663,0.36364,0,0.00056548,5650.9,0.0001943,0.7838,0.00017356,-155.07,-0.00056794,-5726.4,0.036184
17700,2.7548,0.36364,0.05,1.8923e-06,18.91,1.453e-06,10.918,-1.1298e-11,-0.00010642,-1.453e-06,-10.918,0.038826
17701,2.663,0.18182,0,0.00057408,5736.9,0.00019208,1.9398,0.00018517,-49.988,-0.00057488,-5760.7,0.035105
17702,2.7548,0.18182,0.05,3.2697e-06,32.675,2.5108e-06,18.865,-2.6322e-14,-3.9855e-05,-2.5108e-06,-18.865,0.037727
17703,2.7548,0.090909,0,0.00057192,5715.3,0.00018995,0.57885,0.00018674,-23.53,-0.00057231,-5726.7,0.037169
17704,2.5712,5.7273,0,0.00057287,5724.7,0.00019424,1.0295,0.00018031,-103.7,-0.00057454,-5775.3,0.033088
17705,2.4793,5.8182,0,0.00058054,5801.4,0.00019418,2.4464,0.0001874,-48.481,-0.00058131,-5824.3,0.030081
17706,2.5712,5.8182,0.05,3.4894e-06,34.87,2.6794e-06,20.132,3.2037e-13,2.859e-05,-2.6794e-06,-20.132,0.03251
17707,2.5712,5.9091,0,0.00057825,5778.5,0.00019196,0.65938,0.00018896,-21.951,-0.00057861,-5789.1,0.031971
17708,2.5712,5.5455,0,0.00056441,5640.2,0.00019672,0.52539,0.00016839,-212.35,-0.00056771,-5743.1,0.03409
17709,2.4793,5.6364,0,0.00057117,5707.7,0.00019658,0.87248,0.00017475,-163.16,-0.00057375,-5787.1,0.031118
17710,2.5712,5.6364,0.05,1.9796e-06,19.782,1.5201e-06,11.421,1.6519e-11,0.00015524,-1.5201e-06,-11.421,0.033569
17711,2.5712,5.3636,0,0.00055668,5563,0.00019928,0.24518,0.00015684,-318.68,-0.00056141,-5715.3,0.034985
17712,2.4793,5.4545,0,0.00056293,5625.4,0.00019925,0.29974,0.00016261,-274.96,-0.0005671,-5757.7,0.032043
17713,2.5712,5.4545,0.05,1.9536e-06,19.523,1.5001e-06,11.272,1.4402e-11,0.00012535,-1.5002e-06,-11.272,0.034517
17714,2.5712,5.1818,0,0.00054941,5490.3,0.00020189,0.18079,0.00014551,-423.45,-0.00055538,-5689.7,0.035779
17715,2.4793,5.2727,0,0.00055518,5547.9,0.00020201,0.23658,0.00015063,-385.81,-0.00056073,-5730.6,0.032865
17716,2.5712,5.2727,0.05,1.982e-06,19.806,1.5219e-06,11.435,1.2051e-11,0.00016213,-1.5219e-06,-11.435,0.03536
17717,2.5712,5,0,0.00054266,5422.9,0.00020448,0.12074,0.00013455,-525.25,-0.00054968,-5666.3,0.036481
17718,2.4793,5.0909,0,0.00054795,5475.8,0.00020477,0.15174,0.00013895,-494.42,-0.00055468,-5706.1,0.033592
17719,2.5712,5.0909,0.05,2.0042e-06,20.028,1.539e-06,11.563,1.745e-11,0.00011168,-1.539e-06,-11.563,0.036108
17720,2.5712,4.8182,0,0.00053652,5361.5,0.00020699,0.082672,0.00012413,-622.5,-0.00054439,-5645.5,0.037097
17721,2.4793,4.9091,0,0.00054135,5409.8,0.0002075,0.10598,0.00012777,-598.96,-0.00054905,-5684.3,0.03423
17722,2.5712,4.9091,0.05,2.0167e-06,20.153,1.5485e-06,11.635,5.7521e-12,0.00011309,-1.5485e-06,-11.635,0.036766
17723,2.5712,4.6364,0,0.00053102,5306.6,0.0002094,0.053642,0.00011441,-713.72,-0.00053955,-5627.3,0.037634
17724,2.4793,4.7273,0,0.00053544,5350.7,0.00021013,0.070028,0.00011726,-697.74,-0.00054389,-5665.3,0.034788
17725,2.5712,4.7273,0.05,2.0216e-06,20.202,1.5523e-06,11.663,4.8766e-12,0.00010149,-1.5523e-06,-11.663,0.037342
17726,2.5712,4.4545,0,0.00052621,5258.5,0.00021166,0.032582,0.0001055,-797.63,-0.00053522,-5611.7,0.038098
17727,2.4793,4.5455,0,0.00053026,5298.9,0.00021262,0.044719,0.00010757,-789.27,-0.00053926,-5649.3,0.03527
17728,2.5712,4.5455,0.05,2.0215e-06,20.201,1.5523e-06,11.663,4.9051e-12,6.3976e-05,-1.5523e-06,-11.663,0.037842
17729,2.5712,4.2727,0,0.00052208,5217.2,0.00021372,0.01721,9.7502e-05,-873.23,-0.00053142,-5598.7,0.038494
17730,2.4793,4.3636,0,0.00052581,5254.4,0.00021493,0.026333,9.8818e-05,-872.38,-0.00053518,-5636,0.035684
17731,2.5712,4.3636,0.05,2.0189e-06,20.175,1.5503e-06,11.648,4.058e-12,7.4602e-05,-1.5503e-06,-11.648,0.038271
17732,2.5712,4.0909,0,0.00051862,5182.6,0.00021557,0.0062812,9.0499e-05,-939.72,-0.00052817,-5588.2,0.038828
17733,2.4793,4.1818,0,0.00052206,5217,0.00021701,0.013428,9.1084e-05,-946.15,-0.00053168,-5625.4,0.036035
17734,2.5712,4.1818,0.05,2.0157e-06,20.143,1.5478e-06,11.63,7.6179e-13,4.4763e-05,-1.5478e-06,-11.63,0.038636
17735,2.5712,3.9091,0,0.00051578,5154.3,0.00021717,-0.001311,8.4536e-05,-996.56,-0.00052545,-5579.8,0.039104
17736,2.4793,4,0,0.00051899,5186.4,0.00021884,0.0045592,8.4423e-05,-1010,-0.00052874,-5617.1,0.036327
17737,2.5712,4,0.05,2.013e-06,20.116,1.5457e-06,11.614,2.1934e-13,2.3567e-05,-1.5458e-06,-11.614,0.03894
17738,2.5712,3.7273,0,0.00051354,5131.9,0.0002185,-0.0064218,7.9641e-05,-1043.4,-0.00052327,-5573.4,0.039324
17739,2.4793,3.8182,0,0.00051654,5161.9,0.0002204,-0.0013383,7.8865e-05,-1063.4,-0.00052635,-5610.8,0.036564
17740,2.5712,3.8182,0.05,2.0114e-06,20.1,1.5445e-06,11.605,-5.1932e-14,1.8195e-05,-1.5445e-06,-11.605,0.039187
17741,2.5712,3.5455,0,0.00051185,5115,0.00021955,-0.0097297,7.583e-05,-1079.9,-0.00052159,-5568.7,0.039493
17742,2.4793,3.6364,0,0.00051466,5143.1,0.00022167,-0.0051192,7.4424e-05,-1106.3,-0.00052448,-5606.2,0.03675
17743,2.5712,3.6364,0.05,2.0108e-06,20.094,1.544e-06,11.601,2.6214e-13,1.8009e-05,-1.544e-06,-11.601,0.039382
17744,2.5712,3.3636,0,0.00051067,5103.2,0.00022031,-0.011743,7.3108e-05,-1106.1,-0.00052041,-5565.5,0.039611
17745,2.4793,3.4545,0,0.0005133,5129.5,0.00022263,-0.0074263,7.1099e-05,-1138.5,-0.0005231,-5603.1,0.036888
17746,2.5712,3.4545,0.05,2.0109e-06,20.095,1.5441e-06,11.602,-5.4259e-13,9.323e-06,-1.5441e-06,-11.602,0.039525
17747,2.5712,3.1818,0,0.00050998,5096.3,0.00022077,-0.012814,7.1475e-05,-1121.8,-0.00051971,-5563.7,0.039682
17748,2.4793,3.2727,0,0.00051242,5120.7,0.00022327,-0.008721,6.8887e-05,-1160,-0.0005222,-5601.2,0.036978
17749,2.5712,3.2727,0.05,2.0112e-06,20.098,1.5444e-06,11.604,-3.4554e-13,5.9711e-06,-1.5444e-06,-11.604,0.03962
17750,2.5712,3,0,0.00050975,5094,0.00022093,-0.013149,7.0931e-05,-1127,-0.00051948,-5563.1,0.039705
17751,2.4793,3.0909,0,0.00051199,5116.3,0.00022359,-0.009297,6.7783e-05,-1170.7,-0.00052175,-5600.2,0.037023
17752,2.5712,3.0909,0.05,2.0115e-06,20.101,1.5446e-06,11.606,1.9698e-13,1.4972e-06,-1.5446e-06,-11.606,0.039666
17753,2.5712,2.8182,0,0.00050998,5096.3,0.00022077,-0.012814,7.1475e-05,-1121.8,-0.00051971,-5563.7,0.039682
17754,2.4793,2.9091,0,0.00051199,5116.3,0.00022359,-0.009297,6.7783e-05,-1170.7,-0.00052175,-5600.2,0.037023
17755,2.5712,2.9091,0.05,2.0115e-06,20.101,1.5446e-06,11.606,-1.7287e-13,-1.295e-06,-1.5446e-06,-11.606,0.039666
17756,2.5712,2.6364,0,0.00051067,5103.2,0.00022031,-0.011743,7.3108e-05,-1106.1,-0.00052041,-5565.5,0.039611
17757,2.4793,2.7273,0,0.00051242,5120.7,0.00022327,-0.008721,6.8887e-05,-1160,-0.0005222,-5601.2,0.036978
17758,2.5712,2.7273,0.05,2.0112e-06,20.098,1.5444e-06,11.604,-5.5043e-13,-3.9247e-06,-1.5444e-06,-11.604,0.03962
17759,2.5712,2.4545,0,0.00051185,5115,0.00021955,-0.0097296,7.583e-05,-1079.9,-0.00052159,-5568.7,0.039493
17760,2.4793,2.5455,0,0.0005133,5129.5,0.00022263,-0.0074261,7.1099e-05,-1138.5,-0.0005231,-5603.1,0.036888
17761,2.5712,2.5455,0.05,2.0109e-06,20.095,1.5441e-06,11.602,1.458e-14,-8.9444e-06,-1.5441e-06,-11.602,0.039525
17762,2.5712,2.2727,0,0.00051354,5131.9,0.0002185,-0.0064216,7.9641e-05,-1043.4,-0.00052327,-5573.4,0.039324
17763,2.4793,2.3636,0,0.00051466,5143.1,0.00022167,-0.0051191,7.4424e-05,-1106.3,-0.00052448,-5606.2,0.03675
17764,2.5712,2.3636,0.05,2.0108e-06,20.094,1.544e-06,11.601,-1.4885e-13,-1.4173e-05,-1.544e-06,-11.601,0.039382
17765,2.5712,2.0909,0,0.00051578,5154.3,0.00021717,-0.0013108,8.4536e-05,-996.56,-0.00052545,-5579.8,0.039104
17766,2.4793,2.1818,0,0.00051654,5161.9,0.0002204,-0.0013381,7.8865e-05,-1063.4,-0.00052635,-5610.8,0.036564
17767,2.5712,2.1818,0.05,2.0114e-06,20.1,1.5445e-06,11.605,-7.379e-13,-1.8195e-05,-1.5445e-06,-11.605,0.039187
17768,2.5712,1.9091,0,0.00051862,5182.6,0.00021557,0.0062815,9.0499e-05,-939.72,-0.00052817,-5588.2,0.038828
17769,2.4793,2,0,0.00051899,5186.4,0.00021884,0.0045594,8.4423e-05,-1010,-0.00052874,-5617.1,0.036327
17770,2.5712,2,0.05,2.013e-06,20.116,1.5458e-06,11.614,-2.8733e-13,-1.1972e-05,-1.5457e-06,-11.614,0.03894
17771,2.5712,1.7273,0,0.00052208,5217.2,0.00021372,0.017211,9.7502e-05,-873.23,-0.00053142,-5598.7,0.038494
17772,2.4793,1.8182,0,0.00052206,5217,0.00021701,0.013428,9.1084e-05,-946.15,-0.00053168,-5625.4,0.036035
17773,2.5712,1.8182,0.05,2.0157e-06,20.143,1.5478e-06,11.63,-2.1126e-12,-2.3387e-05,-1.5478e-06,-11.63,0.038636
17774,2.5712,1.5455,0,0.00052621,5258.5,0.00021166,0.032583,0.0001055,-797.63,-0.00053522,-5611.7,0.038098
17775,2.4793,1.6364,0,0.00052581,5254.4,0.00021493,0.026334,9.8818e-05,-872.38,-0.00053518,-5636,0.035684
17776,2.5712,1.6364,0.05,2.0189e-06,20.175,1.5503e-06,11.648,-2.2735e-12,-3.4427e-05,-1.5503e-06,-11.648,0.038271
17777,2.5712,1.3636,0,0.00053102,5306.6,0.0002094,0.053642,0.00011441,-713.71,-0.00053955,-5627.3,0.037634
17778,2.4793,1.4545,0,0.00053026,5298.9,0.00021262,0.04472,0.00010757,-789.27,-0.00053926,-5649.3,0.03527
17779,2.5712,1.4545,0.05,2.0215e-06,20.201,1.5523e-06,11.663,-5.9937e-12,-3.9468e-05,-1.5523e-06,-11.663,0.037842
17780,2.5712,1.1818,0,0.00053652,5361.5,0.00020699,0.082673,0.00012413,-622.5,-0.00054439,-5645.5,0.037097
17781,2.4793,1.2727,0,0.00053544,5350.7,0.00021013,0.070029,0.00011726,-697.74,-0.00054389,-5665.3,0.034788
17782,2.5712,1.2727,0.05,2.0216e-06,20.202,1.5523e-06,11.663,8.1218e-14,-6.512e-05,-1.5523e-06,-11.663,0.037342
17783,2.5712,1,0,0.00054266,5422.9,0.00020448,0.12074,0.00013455,-525.25,-0.00054968,-5666.3,0.036481
17784,2.4793,1.0909,0,0.00054135,5409.8,0.0002075,0.10598,0.00012777,-598.96,-0.00054905,-5684.3,0.03423
17785,2.5712,1.0909,0.05,2.0167e-06,20.153,1.5485e-06,11.635,-3.496e-12,-7.6664e-05,-1.5485e-06,-11.635,0.036766
17786,2.5712,0.81818,0,0.00054941,5490.3,0.00020189,0.18079,0.00014551,-423.45,-0.00055538,-5689.7,0.035779
17787,2.4793,0.90909,0,0.00054795,5475.8,0.00020477,0.15174,0.00013895,-494.42,-0.00055468,-5706.1,0.033592
17788,2.5712,0.90909,0.05,2.0042e-06,20.028,1.5389e-06,11.563,-1.566e-11,-0.00011168,-1.539e-06,-11.563,0.036108
17789,2.5712,0.63636,0,0.00055668,5563,0.00019928,0.24518,0.00015684,-318.68,-0.00056141,-5715.3,0.034985
17790,2.4793,0.72727,0,0.00055518,5547.9,0.00020201,0.23658,0.00015063,-385.81,-0.00056073,-5730.6,0.032865
17791,2.5712,0.72727,0.05,1.982e-06,19.806,1.5219e-06,11.435,-7.8939e-12,-0.00016213,-1.5219e-06,-11.435,0.03536
17792,2.5712,0.45455,0,0.00056441,5640.2,0.00019672,0.52539,0.00016839,-212.35,-0.00056771,-5743.1,0.03409
17793,2.4793,0.54545,0,0.00056293,5625.4,0.00019925,0.29974,0.00016261,-274.96,-0.0005671,-5757.7,0.032043
17794,2.5712,0.54545,0.05,1.9536e-06,19.523,1.5002e-06,11.272,-8.7056e-12,-0.00012895,-1.5001e-06,-11.272,0.034517
17795,2.5712,0.27273,0,0.00057287,5724.7,0.00019424,1.0295,0.00018031,-103.7,-0.00057454,-5775.3,0.033088
17796,2.4793,0.36364,0,0.00057117,5707.7,0.00019658,0.87248,0.00017475,-163.16,-0.00057375,-5787.1,0.031118
17797,2.5712,0.36364,0.05,1.9796e-06,19.782,1.5201e-06,11.421,-1.343e-11,-0.00011643,-1.5201e-06,-11.421,0.033569
17798,2.4793,0.18182,0,0.00058054,5801.4,0.00019418,2.4464,0.0001874,-48.481,-0.00058131,-5824.3,0.030081
17799,2.5712,0.18182,0.05,3.4894e-06,34.87,2.6794e-06,20.132,-1.6794e-12,-2.5489e-05,-2.6794e-06,-20.132,0.03251
17800,2.5712,0.090909,0,0.00057825,5778.5,0.00019196,0.65939,0.00018896,-21.951,-0.00057861,-5789.1,0.031971
17801,2.3875,5.7273,0,0.00057883,5784.3,0.00019637,1.1978,0.00018202,-106.66,-0.00058055,-5836.2,0.028235
17802,2.2957,5.8182,0,0.00058676,5863.5,0.00019617,3.1511,0.00018961,-46.129,-0.00058747,-5884.9,0.025444
17803,2.3875,5.8182,0.05,3.7142e-06,37.117,2.8521e-06,21.429,1.4396e-12,5.3442e-05,-2.8521e-06,-21.429,0.027678
17804,2.3875,5.9091,0,0.00058433,5839.2,0.00019387,0.76867,0.00019114,-19.698,-0.00058465,-5848.7,0.027162
17805,2.3875,5.5455,0,0.00056968,5692.8,0.0001991,0.5844,0.00016901,-225.52,-0.00057317,-5801.9,0.029193
17806,2.2957,5.6364,0,0.00057654,5761.4,0.00019877,0.97421,0.00017581,-171.51,-0.00057924,-5844.7,0.026434
17807,2.3875,5.6364,0.05,2.0777e-06,20.762,1.5954e-06,11.987,1.8016e-11,9.8915e-05,-1.5954e-06,-11.987,0.028693
17808,2.3875,5.3636,0,0.00056141,5610.3,0.00020197,0.27273,0.00015643,-341.88,-0.00056644,-5773.2,0.030043
17809,2.2957,5.4545,0,0.0005677,5673.1,0.00020174,0.33601,0.00016257,-293.96,-0.00057212,-5814.1,0.027313
17810,2.3875,5.4545,0.05,2.063e-06,20.616,1.5841e-06,11.903,9.5431e-12,8.8456e-05,-1.5842e-06,-11.903,0.029597
17811,2.3875,5.1818,0,0.0005537,5533.2,0.00020489,0.19934,0.00014409,-456.61,-0.00056005,-5747.3,0.030794
17812,2.2957,5.2727,0,0.00055945,5590.6,0.00020484,0.26155,0.0001495,-415.55,-0.00056535,-5786.7,0.02809
17813,2.3875,5.2727,0.05,2.0992e-06,20.977,1.6119e-06,12.111,1.0039e-11,8.4276e-05,-1.6119e-06,-12.111,0.030397
17814,2.3875,5,0,0.00054663,5462.5,0.0002078,0.13244,0.00013219,-568,-0.00055406,-5724.2,0.031455
17815,2.2957,5.0909,0,0.00055185,5514.7,0.00020796,0.16667,0.00013679,-534.62,-0.00055899,-5762.4,0.028772
17816,2.3875,5.0909,0.05,2.1256e-06,21.242,1.6322e-06,12.264,8.893e-12,8.1898e-05,-1.6322e-06,-12.264,0.031102
17817,2.3875,4.8182,0,0.00054026,5398.9,0.00021064,0.090461,0.00012091,-674.11,-0.00054856,-5704.2,0.032032
17818,2.2957,4.9091,0,0.000545,5446.3,0.00021104,0.11571,0.00012466,-648.94,-0.00055313,-5741.6,0.029368
17819,2.3875,4.9091,0.05,2.1398e-06,21.383,1.6431e-06,12.346,1.1641e-11,0.00011745,-1.6431e-06,-12.346,0.03172
17820,2.3875,4.6364,0,0.00053466,5342.9,0.00021335,0.059115,0.00011043,-773.26,-0.0005436,-5687.4,0.032532
17821,2.2957,4.7273,0,0.00053897,5386,0.00021402,0.076526,0.00011333,-756.5,-0.00054784,-5724.2,0.029886
17822,2.3875,4.7273,0.05,2.1451e-06,21.436,1.6471e-06,12.376,2.8324e-12,0.00013566,-1.6471e-06,-12.376,0.032258
17823,2.3875,4.4545,0,0.00052983,5294.7,0.00021589,0.037006,0.00010089,-864.04,-0.00053921,-5673.5,0.032963
17824,2.2957,4.5455,0,0.00053379,5334.2,0.00021683,0.049706,0.00010294,-855.64,-0.00054317,-5710.3,0.030332
17825,2.3875,4.5455,0.05,2.1451e-06,21.436,1.6471e-06,12.376,5.4903e-12,8.6516e-05,-1.6471e-06,-12.376,0.032723
17826,2.3875,4.2727,0,0.00052577,5254.1,0.00021822,0.021423,9.239e-05,-945.38,-0.00053543,-5662.6,0.033329
17827,2.2957,4.3636,0,0.00052943,5290.6,0.00021942,0.030905,9.3635e-05,-945.11,-0.00053913,-5699.4,0.030713
17828,2.3875,4.3636,0.05,2.143e-06,21.415,1.6456e-06,12.364,4.481e-12,5.7398e-05,-1.6456e-06,-12.364,0.033121
17829,2.3875,4.0909,0,0.00052242,5220.6,0.00022029,0.010805,8.4991e-05,-1016.5,-0.00053224,-5654.1,0.033637
17830,2.2957,4.1818,0,0.00052584,5254.8,0.00022177,0.01828,8.5473e-05,-1024,-0.00053572,-5691.4,0.031035
17831,2.3875,4.1818,0.05,2.1411e-06,21.396,1.6441e-06,12.353,3.3368e-12,6.3419e-05,-1.6441e-06,-12.353,0.033457
17832,2.3875,3.9091,0,0.00051974,5193.8,0.00022208,0.0037895,7.873e-05,-1077,-0.00052961,-5647.9,0.03389
17833,2.2957,4,0,0.00052297,5226.1,0.00022382,0.010053,7.8496e-05,-1091.9,-0.00053291,-5685.8,0.031302
17834,2.3875,4,0.05,2.1404e-06,21.39,1.6436e-06,12.349,-1.172e-14,3.6497e-05,-1.6436e-06,-12.349,0.033736
17835,2.3875,3.7273,0,0.00051765,5173,0.00022357,-0.00066669,7.3621e-05,-1126.6,-0.00052753,-5643.4,0.034092
17836,2.2957,3.8182,0,0.00052073,5203.7,0.00022556,0.0049213,7.2716e-05,-1148.4,-0.00053067,-5682,0.031518
17837,2.3875,3.8182,0.05,2.1413e-06,21.398,1.6442e-06,12.354,1.947e-12,2.8226e-05,-1.6442e-06,-12.354,0.033963
17838,2.3875,3.5455,0,0.0005161,5157.5,0.00022474,-0.0033694,6.9663e-05,-1165.2,-0.00052595,-5640.4,0.034246
17839,2.2957,3.6364,0,0.00051905,5186.9,0.00022697,0.0018728,6.8125e-05,-1193.5,-0.00052894,-5679.6,0.031687
17840,2.3875,3.6364,0.05,2.1433e-06,21.418,1.6458e-06,12.366,1.014e-12,1.3411e-05,-1.6458e-06,-12.366,0.034141
17841,2.3875,3.3636,0,0.00051504,5146.8,0.00022558,-0.004907,6.6847e-05,-1192.7,-0.00052485,-5638.5,0.034354
17842,2.2957,3.4545,0,0.00051785,5174.9,0.00022804,0.00016982,6.4705e-05,-1227.2,-0.00052769,-5678.2,0.031811
17843,2.3875,3.4545,0.05,2.1456e-06,21.442,1.6476e-06,12.379,-1.8827e-12,7.2798e-06,-1.6476e-06,-12.379,0.034272
17844,2.3875,3.1818,0,0.00051442,5140.6,0.00022609,-0.0056776,6.5163e-05,-1209.2,-0.0005242,-5637.4,0.034418
17845,2.2957,3.2727,0,0.00051709,5167.3,0.00022875,-0.00070175,6.2439e-05,-1249.6,-0.00052688,-5677.5,0.031893
17846,2.3875,3.2727,0.05,2.1477e-06,21.463,1.6492e-06,12.391,-2.131e-12,4.4312e-06,-1.6492e-06,-12.391,0.034358
17847,2.3875,3,0,0.00051421,5138.6,0.00022626,-0.0059096,6.4602e-05,-1214.7,-0.00052399,-5637.1,0.03444
17848,2.2957,3.0909,0,0.00051671,5163.6,0.00022911,-0.001061,6.131e-05,-1260.8,-0.00052648,-5677.2,0.031934
17849,2.3875,3.0909,0.05,2.1489e-06,21.475,1.6501e-06,12.398,-1.6316e-12,1.6642e-05,-1.6501e-06,-12.398,0.034401
17850,2.3875,2.8182,0,0.00051442,5140.6,0.00022609,-0.0056775,6.5163e-05,-1209.2,-0.0005242,-5637.4,0.034418
17851,2.2957,2.9091,0,0.00051671,5163.6,0.00022911,-0.001061,6.131e-05,-1260.8,-0.00052648,-5677.2,0.031934
17852,2.3875,2.9091,0.05,2.1489e-06,21.475,1.6501e-06,12.398,-1.8663e-13,-1.409e-06,-1.6501e-06,-12.398,0.034401
17853,2.3875,2.6364,0,0.00051504,5146.8,0.00022558,-0.0049069,6.6847e-05,-1192.7,-0.00052485,-5638.5,0.034354
17854,2.2957,2.7273,0,0.00051709,5167.3,0.00022875,-0.00070164,6.2439e-05,-1249.6,-0.00052688,-5677.5,0.031893
17855,2.3875,2.7273,0.05,2.1477e-06,21.463,1.6492e-06,12.391,-5.5604e-13,-3.9648e-06,-1.6492e-06,-12.391,0.034358
17856,2.3875,2.4545,0,0.0005161,5157.5,0.00022474,-0.0033693,6.9663e-05,-1165.2,-0.00052595,-5640.4,0.034246
17857,2.2957,2.5455,0,0.00051785,5174.9,0.00022804,0.00016996,6.4705e-05,-1227.2,-0.00052769,-5678.2,0.031811
17858,2.3875,2.5455,0.05,2.1456e-06,21.442,1.6476e-06,12.379,-1.0048e-12,8.4856e-06,-1.6476e-06,-12.379,0.034272
17859,2.3875,2.2727,0,0.00051765,5173,0.00022357,-0.00066657,7.3621e-05,-1126.6,-0.00052753,-5643.4,0.034092
17860,2.2957,2.3636,0,0.00051905,5186.9,0.00022697,0.001873,6.8125e-05,-1193.5,-0.00052894,-5679.6,0.031687
17861,2.3875,2.3636,0.05,2.1433e-06,21.418,1.6458e-06,12.366,-1.2498e-12,-8.3872e-06,-1.6458e-06,-12.366,0.034141
17862,2.3875,2.0909,0,0.00051974,5193.8,0.00022208,0.0037897,7.873e-05,-1077,-0.00052961,-5647.9,0.03389
17863,2.2957,2.1818,0,0.00052073,5203.7,0.00022556,0.0049215,7.2716e-05,-1148.4,-0.00053067,-5682,0.031518
17864,2.3875,2.1818,0.05,2.1413e-06,21.398,1.6442e-06,12.354,-1.399e-12,-1.9981e-05,-1.6442e-06,-12.354,0.033963
17865,2.3875,1.9091,0,0.00052242,5220.6,0.00022029,0.010806,8.4991e-05,-1016.5,-0.00053224,-5654.1,0.033637
17866,2.2957,2,0,0.00052297,5226.1,0.00022382,0.010053,7.8496e-05,-1091.9,-0.00053291,-5685.8,0.031302
17867,2.3875,2,0.05,2.1404e-06,21.39,1.6436e-06,12.349,-3.593e-13,-1.2187e-05,-1.6436e-06,-12.349,0.033736
17868,2.3875,1.7273,0,0.00052577,5254.1,0.00021822,0.021423,9.239e-05,-945.38,-0.00053543,-5662.6,0.033329
17869,2.2957,1.8182,0,0.00052584,5254.8,0.00022177,0.018281,8.5473e-05,-1024,-0.00053572,-5691.4,0.031035
17870,2.3875,1.8182,0.05,2.1411e-06,21.396,1.6441e-06,12.353,-3.594e-12,-4.6807e-05,-1.6441e-06,-12.353,0.033457
17871,2.3875,1.5455,0,0.00052983,5294.7,0.00021589,0.037006,0.00010089,-864.04,-0.00053921,-5673.5,0.032963
17872,2.2957,1.6364,0,0.00052943,5290.6,0.00021942,0.030905,9.3635e-05,-945.11,-0.00053913,-5699.4,0.030713
17873,2.3875,1.6364,0.05,2.143e-06,21.415,1.6456e-06,12.364,-3.699e-12,-9.6122e-06,-1.6456e-06,-12.364,0.033121
17874,2.3875,1.3636,0,0.00053466,5342.9,0.00021335,0.059116,0.00011043,-773.26,-0.0005436,-5687.4,0.032532
17875,2.2957,1.4545,0,0.00053379,5334.2,0.00021683,0.049707,0.00010294,-855.64,-0.00054317,-5710.3,0.030332
17876,2.3875,1.4545,0.05,2.1451e-06,21.436,1.6471e-06,12.376,-6.0744e-12,-3.3876e-05,-1.6471e-06,-12.376,0.032723
17877,2.3875,1.1818,0,0.00054026,5398.9,0.00021064,0.090462,0.00012091,-674.11,-0.00054856,-5704.2,0.032032
17878,2.2957,1.2727,0,0.00053897,5386,0.00021402,0.076526,0.00011333,-756.5,-0.00054784,-5724.2,0.029886
17879,2.3875,1.2727,0.05,2.1451e-06,21.436,1.6471e-06,12.376,-6.9813e-12,-1.5256e-05,-1.6471e-06,-12.376,0.032258
17880,2.3875,1,0,0.00054663,5462.5,0.0002078,0.13244,0.00013219,-568,-0.00055406,-5724.2,0.031455
17881,2.2957,1.0909,0,0.000545,5446.3,0.00021104,0.11571,0.00012466,-648.94,-0.00055313,-5741.6,0.029368
17882,2.3875,1.0909,0.05,2.1398e-06,21.383,1.6431e-06,12.346,-7.8048e-12,-8.2064e-05,-1.6431e-06,-12.346,0.03172
17883,2.3875,0.81818,0,0.0005537,5533.2,0.00020489,0.19935,0.00014409,-456.61,-0.00056005,-5747.3,0.030794
17884,2.2957,0.90909,0,0.00055185,5514.7,0.00020796,0.16667,0.00013679,-534.62,-0.00055899,-5762.4,0.028772
17885,2.3875,0.90909,0.05,2.1256e-06,21.242,1.6322e-06,12.264,-8.6736e-12,-0.00012468,-1.6322e-06,-12.264,0.031102
17886,2.3875,0.63636,0,0.00056141,5610.3,0.00020197,0.27273,0.00015643,-341.88,-0.00056644,-5773.2,0.030043
17887,2.2957,0.72727,0,0.00055945,5590.6,0.00020484,0.26155,0.0001495,-415.55,-0.00056535,-5786.7,0.02809
17888,2.3875,0.72727,0.05,2.0992e-06,20.977,1.6119e-06,12.111,-9.7611e-12,-4.2138e-05,-1.6119e-06,-12.111,0.030397
17889,2.3875,0.45455,0,0.00056968,5692.8,0.0001991,0.5844,0.00016901,-225.52,-0.00057317,-5801.9,0.029193
17890,2.2957,0.54545,0,0.0005677,5673.1,0.00020174,0.33601,0.00016257,-293.96,-0.00057212,-5814.1,0.027313
17891,2.3875,0.54545,0.05,2.063e-06,20.616,1.5841e-06,11.903,-1.0856e-11,-5.1044e-05,-1.5841e-06,-11.903,0.029597
17892,2.3875,0.27273,0,0.00057883,5784.3,0.00019637,1.1978,0.00018202,-106.66,-0.00058055,-5836.2,0.028235
17893,2.2957,0.36364,0,0.00057654,5761.4,0.00019877,0.97421,0.00017581,-171.51,-0.00057924,-5844.7,0.026434
17894,2.3875,0.36364,0.05,2.0777e-06,20.762,1.5954e-06,11.987,-2.841e-12,-4.9457e-05,-1.5954e-06,-11.987,0.028693
17895,2.2957,0.18182,0,0.00058676,5863.5,0.00019617,3.1511,0.00018961,-46.129,-0.00058747,-5884.9,0.025444
17896,2.3875,0.18182,0.05,3.7142e-06,37.117,2.8521e-06,21.429,-1.2678e-12,-5.3442e-05,-2.8521e-06,-21.429,0.027678
17897,2.3875,0.090909,0,0.00058433,5839.2,0.00019387,0.76868,0.00019114,-19.698,-0.00058465,-5848.7,0.027162
17898,2.2038,5.7273,0,0.00058444,5840.4,0.00019837,1.4035,0.00018364,-109.23,-0.0005862,-5893.5,0.023769
17899,2.112,5.8182,0,0.0005926,5921.9,0.00019802,4.1674,0.00019177,-42.863,-0.00059324,-5941.1,0.021197
17900,2.2038,5.8182,0.05,3.9416e-06,39.389,3.0267e-06,22.741,-5.2233e-13,5.6654e-05,-3.0266e-06,-22.741,0.023236
17901,2.2038,5.9091,0,0.00059003,5896.2,0.00019561,0.93119,0.00019327,-16.659,-0.00059029,-5904.1,0.022744
17902,2.2038,5.5455,0,0.00057454,5741.4,0.0002014,0.65144,0.00016942,-239.65,-0.00057823,-5857.1,0.024677
17903,2.112,5.6364,0,0.00058143,5810.3,0.00020082,1.0922,0.00017669,-180.22,-0.00058427,-5897.8,0.022136
17904,2.2038,5.6364,0.05,2.1908e-06,21.892,1.6822e-06,12.64,4.5434e-12,0.00019177,-1.6822e-06,-12.64,0.024202
17905,2.2038,5.3636,0,0.00056571,5653.2,0.00020461,0.30348,0.00015568,-367.39,-0.00057106,-5827.8,0.025479
17906,2.112,5.4545,0,0.00057195,5715.6,0.00020416,0.37808,0.0001622,-314.85,-0.00057665,-5866.3,0.022964
17907,2.2038,5.4545,0.05,2.1929e-06,21.914,1.6839e-06,12.652,1.5598e-11,0.00015017,-1.6839e-06,-12.652,0.025057
17908,2.2038,5.1818,0,0.00055757,5571.9,0.00020791,0.21943,0.00014222,-493.37,-0.00056432,-5802,0.026183
17909,2.112,5.2727,0,0.00056321,5628.2,0.00020766,0.28994,0.00014791,-448.67,-0.00056949,-5838.9,0.02369
17910,2.2038,5.2727,0.05,2.2378e-06,22.362,1.7183e-06,12.911,1.666e-11,0.00015022,-1.7183e-06,-12.911,0.025809
17911,2.2038,5,0,0.0005502,5498.2,0.00021121,0.1447,0.00012928,-615.43,-0.00055808,-5779.9,0.026799
17912,2.112,5.0909,0,0.00055526,5548.8,0.00021121,0.18352,0.00013405,-579.53,-0.00056284,-5815.7,0.024325
17913,2.2038,5.0909,0.05,2.2679e-06,22.664,1.7415e-06,13.085,1.2901e-11,0.00015509,-1.7415e-06,-13.085,0.026468
17914,2.2038,4.8182,0,0.00054369,5433.1,0.00021442,0.098461,0.00011709,-731.25,-0.00055242,-5761.7,0.027333
17915,2.112,4.9091,0,0.00054824,5478.6,0.00021471,0.12679,0.00012091,-704.66,-0.00055682,-5796.8,0.024875
17916,2.2038,4.9091,0.05,2.2826e-06,22.81,1.7527e-06,13.169,8.271e-12,0.00016737,-1.7527e-06,-13.169,0.027042
17917,2.2038,4.6364,0,0.00053807,5377,0.00021749,0.064832,0.00010584,-838.87,-0.00054741,-5747.1,0.027794
17918,2.112,4.7273,0,0.0005422,5418.3,0.00021809,0.08434,0.00010871,-821.68,-0.00055148,-5782.1,0.02535
17919,2.2038,4.7273,0.05,2.2869e-06,22.853,1.756e-06,13.194,2.8101e-12,7.421e-05,-1.756e-06,-13.194,0.027539
17920,2.2038,4.4545,0,0.00053335,5329.8,0.00022036,0.041933,9.5679e-05,-936.77,-0.00054307,-5736.1,0.028189
17921,2.112,4.5455,0,0.00053714,5367.7,0.00022127,0.056288,9.7648e-05,-928.76,-0.00054688,-5771.5,0.025758
17922,2.2038,4.5455,0.05,2.2861e-06,22.845,1.7554e-06,13.19,3.1849e-12,0.00012348,-1.7554e-06,-13.19,0.027966
17923,2.2038,4.2727,0,0.00052947,5291.1,0.00022297,0.026486,8.6702e-05,-1023.9,-0.0005394,-5728.2,0.028523
17924,2.112,4.3636,0,0.00053302,5326.5,0.00022419,0.037474,8.7821e-05,-1024.6,-0.000543,-5764.3,0.026104
17925,2.2038,4.3636,0.05,2.2843e-06,22.827,1.7541e-06,13.179,4.8503e-12,7.8815e-05,-1.7541e-06,-13.179,0.02833
17926,2.2038,4.0909,0,0.00052637,5260,0.0002253,0.01652,7.8956e-05,-1099.5,-0.00053638,-5722.9,0.028803
17927,2.112,4.1818,0,0.00052973,5293.7,0.00022682,0.02553,7.929e-05,-1108.5,-0.00053981,-5760.1,0.026395
17928,2.2038,4.1818,0.05,2.284e-06,22.824,1.7538e-06,13.177,1.7541e-12,3.1101e-05,-1.7538e-06,-13.177,0.028636
17929,2.2038,3.9091,0,0.00052394,5235.8,0.0002273,0.010364,7.2455e-05,-1163.4,-0.00053394,-5719.7,0.029032
17930,2.112,4,0,0.00052719,5268.3,0.00022912,0.01827,7.2068e-05,-1180,-0.00053725,-5758.2,0.026635
17931,2.2038,4,0.05,2.286e-06,22.844,1.7553e-06,13.189,2.5288e-14,3.7432e-05,-1.7553e-06,-13.189,0.02889
17932,2.2038,3.7273,0,0.00052211,5217.5,0.00022896,0.006772,6.7188e-05,-1215.5,-0.00053205,-5717.9,0.029214
17933,2.112,3.8182,0,0.00052528,5249.1,0.00023106,0.014135,6.6136e-05,-1239.2,-0.00053526,-5757.8,0.026829
17934,2.2038,3.8182,0.05,2.29e-06,22.885,1.7585e-06,13.212,8.4836e-13,2.7379e-05,-1.7585e-06,-13.212,0.029095
17935,2.2038,3.5455,0,0.00052078,5204.2,0.00023027,0.0048145,6.3133e-05,-1255.8,-0.00053064,-5717.2,0.029353
17936,2.112,3.6364,0,0.00052389,5235.2,0.00023263,0.011964,6.146e-05,-1286.1,-0.00053377,-5758.4,0.02698
17937,2.2038,3.6364,0.05,2.2953e-06,22.937,1.7625e-06,13.243,3.2181e-13,2.8564e-05,-1.7625e-06,-13.243,0.029255
17938,2.2038,3.3636,0,0.00051988,5195.3,0.00023121,0.0038373,6.0262e-05,-1284.4,-0.00052968,-5717,0.02945
17939,2.112,3.4545,0,0.00052293,5225.7,0.00023381,0.010945,5.7999e-05,-1321,-0.00053271,-5759.4,0.027091
17940,2.2038,3.4545,0.05,2.3005e-06,22.989,1.7665e-06,13.273,-4.2628e-13,9.4999e-06,-1.7665e-06,-13.273,0.029373
17941,2.2038,3.1818,0,0.00051937,5190.1,0.00023177,0.0034109,5.855e-05,-1301.5,-0.00052911,-5717,0.029508
17942,2.112,3.2727,0,0.00052233,5219.7,0.00023461,0.010535,5.5716e-05,-1344.1,-0.00053204,-5760.3,0.027164
17943,2.2038,3.2727,0.05,2.3047e-06,23.031,1.7697e-06,13.297,-3.6732e-13,3.9657e-06,-1.7697e-06,-13.297,0.02945
17944,2.2038,3,0,0.0005192,5188.4,0.00023196,0.0032947,5.7982e-05,-1307.2,-0.00052893,-5717,0.029527
17945,2.112,3.0909,0,0.00052204,5216.8,0.000235,0.010407,5.4581e-05,-1355.6,-0.00053171,-5760.8,0.0272
17946,2.2038,3.0909,0.05,2.307e-06,23.054,1.7715e-06,13.31,-2.5529e-13,1.3685e-06,-1.7715e-06,-13.31,0.029489
17947,2.2038,2.8182,0,0.00051937,5190.1,0.00023177,0.003411,5.855e-05,-1301.5,-0.00052911,-5717,0.029508
17948,2.112,2.9091,0,0.00052204,5216.8,0.000235,0.010407,5.4581e-05,-1355.6,-0.00053171,-5760.8,0.0272
17949,2.2038,2.9091,0.05,2.307e-06,23.054,1.7715e-06,13.31,-1.7712e-13,-1.3685e-06,-1.7715e-06,-13.31,0.029489
17950,2.2038,2.6364,0,0.00051988,5195.3,0.00023121,0.0038374,6.0262e-05,-1284.4,-0.00052968,-5717,0.02945
17951,2.112,2.7273,0,0.00052233,5219.7,0.00023461,0.010535,5.5716e-05,-1344.1,-0.00053204,-5760.3,0.027164
17952,2.2038,2.7273,0.05,2.3047e-06,23.031,1.7697e-06,13.297,-5.5617e-13,-4.199e-06,-1.7697e-06,-13.297,0.02945
17953,2.2038,2.4545,0,0.00052078,5204.2,0.00023027,0.0048146,6.3133e-05,-1255.8,-0.00053064,-5717.2,0.029353
17954,2.112,2.5455,0,0.00052293,5225.7,0.00023381,0.010945,5.7999e-05,-1321,-0.00053271,-5759.4,0.027091
17955,2.2038,2.5455,0.05,2.3005e-06,22.989,1.7665e-06,13.273,-1.0075e-12,-6.1464e-06,-1.7665e-06,-13.273,0.029373
17956,2.2038,2.2727,0,0.00052211,5217.5,0.00022896,0.0067722,6.7188e-05,-1215.5,-0.00053205,-5717.9,0.029214
17957,2.112,2.3636,0,0.00052389,5235.2,0.00023263,0.011964,6.146e-05,-1286.1,-0.00053377,-5758.4,0.02698
17958,2.2038,2.3636,0.05,2.2953e-06,22.937,1.7625e-06,13.243,-1.5084e-12,-8.4356e-06,-1.7625e-06,-13.243,0.029255
17959,2.2038,2.0909,0,0.00052394,5235.8,0.0002273,0.010364,7.2455e-05,-1163.4,-0.00053394,-5719.7,0.029032
17960,2.112,2.1818,0,0.00052528,5249.1,0.00023106,0.014135,6.6136e-05,-1239.2,-0.00053526,-5757.8,0.026829
17961,2.2038,2.1818,0.05,2.29e-06,22.885,1.7585e-06,13.212,-1.4118e-12,-1.0527e-05,-1.7585e-06,-13.212,0.029095
17962,2.2038,1.9091,0,0.00052637,5260,0.0002253,0.01652,7.8956e-05,-1099.5,-0.00053638,-5722.9,0.028803
17963,2.112,2,0,0.00052719,5268.3,0.00022912,0.01827,7.2068e-05,-1180,-0.00053725,-5758.2,0.026635
17964,2.2038,2,0.05,2.286e-06,22.844,1.7553e-06,13.189,-7.4778e-13,-3.7432e-05,-1.7553e-06,-13.189,0.02889
17965,2.2038,1.7273,0,0.00052947,5291.1,0.00022297,0.026486,8.6702e-05,-1023.9,-0.0005394,-5728.2,0.028523
17966,2.112,1.8182,0,0.00052973,5293.7,0.00022682,0.02553,7.929e-05,-1108.5,-0.00053981,-5760.1,0.026395
17967,2.2038,1.8182,0.05,2.284e-06,22.824,1.7538e-06,13.177,3.1278e-13,-2.766e-05,-1.7538e-06,-13.177,0.028636
17968,2.2038,1.5455,0,0.00053335,5329.8,0.00022036,0.041934,9.5679e-05,-936.77,-0.00054307,-5736.1,0.028189
17969,2.112,1.6364,0,0.00053302,5326.5,0.00022419,0.037474,8.7821e-05,-1024.6,-0.000543,-5764.3,0.026104
17970,2.2038,1.6364,0.05,2.2843e-06,22.827,1.7541e-06,13.179,-2.1576e-12,-3.3639e-05,-1.7541e-06,-13.179,0.02833
17971,2.2038,1.3636,0,0.00053807,5377,0.00021749,0.064833,0.00010584,-838.87,-0.00054741,-5747.1,0.027794
17972,2.112,1.4545,0,0.00053714,5367.7,0.00022127,0.056288,9.7648e-05,-928.76,-0.00054688,-5771.5,0.025758
17973,2.2038,1.4545,0.05,2.2861e-06,22.845,1.7554e-06,13.19,1.5512e-13,-0.00012348,-1.7554e-06,-13.19,0.027966
17974,2.2038,1.1818,0,0.00054369,5433.1,0.00021442,0.098461,0.00011709,-731.25,-0.00055242,-5761.7,0.027333
17975,2.112,1.2727,0,0.0005422,5418.3,0.00021809,0.08434,0.00010871,-821.68,-0.00055148,-5782.1,0.02535
17976,2.2038,1.2727,0.05,2.2869e-06,22.853,1.756e-06,13.194,-5.0347e-12,-7.8008e-05,-1.756e-06,-13.194,0.027539
17977,2.2038,1,0,0.0005502,5498.2,0.00021121,0.1447,0.00012928,-615.43,-0.00055808,-5779.9,0.026799
17978,2.112,1.0909,0,0.00054824,5478.6,0.00021471,0.1268,0.00012091,-704.66,-0.00055682,-5796.8,0.024875
17979,2.2038,1.0909,0.05,2.2826e-06,22.81,1.7527e-06,13.169,-4.9448e-12,-0.00012553,-1.7527e-06,-13.169,0.027042
17980,2.2038,0.81818,0,0.00055757,5571.9,0.00020791,0.21943,0.00014222,-493.37,-0.00056432,-5802,0.026183
17981,2.112,0.90909,0,0.00055526,5548.8,0.00021121,0.18352,0.00013405,-579.53,-0.00056284,-5815.7,0.024325
17982,2.2038,0.90909,0.05,2.2679e-06,22.664,1.7415e-06,13.085,-1.0373e-11,-8.463e-05,-1.7415e-06,-13.085,0.026468
17983,2.2038,0.63636,0,0.00056571,5653.2,0.00020461,0.30348,0.00015568,-367.39,-0.00057106,-5827.8,0.025479
17984,2.112,0.72727,0,0.00056321,5628.2,0.00020766,0.28994,0.00014791,-448.67,-0.00056949,-5838.9,0.02369
17985,2.2038,0.72727,0.05,2.2378e-06,22.362,1.7183e-06,12.911,-1.745e-11,-0.00018926,-1.7183e-06,-12.911,0.025809
17986,2.2038,0.45455,0,0.00057454,5741.4,0.0002014,0.65144,0.00016942,-239.65,-0.00057823,-5857.1,0.024677
17987,2.112,0.54545,0,0.00057195,5715.6,0.00020416,0.37808,0.0001622,-314.85,-0.00057665,-5866.3,0.022964
17988,2.2038,0.54545,0.05,2.1929e-06,21.914,1.6839e-06,12.652,-1.0626e-11,-0.00010138,-1.6839e-06,-12.652,0.025057
17989,2.2038,0.27273,0,0.00058444,5840.4,0.00019837,1.4035,0.00018364,-109.23,-0.0005862,-5893.5,0.023769
17990,2.112,0.36364,0,0.00058143,5810.3,0.00020082,1.0922,0.00017669,-180.22,-0.00058427,-5897.8,0.022136
17991,2.2038,0.36364,0.05,2.1908e-06,21.892,1.6822e-06,12.64,-4.204e-12,-0.00013893,-1.6822e-06,-12.64,0.024202
17992,2.112,0.18182,0,0.0005926,5921.9,0.00019802,4.1674,0.00019177,-42.863,-0.00059324,-5941.1,0.021197
17993,2.2038,0.18182,0.05,3.9416e-06,39.389,3.0267e-06,22.741,1.4429e-12,-1.4163e-05,-3.0267e-06,-22.741,0.023236
17994,2.2038,0.090909,0,0.00059003,5896.2,0.00019561,0.93119,0.00019327,-16.659,-0.00059029,-5904.1,0.022744
17995,2.0202,5.7273,0,0.00058956,5891.5,0.00020018,1.6584,0.00018514,-111.41,-0.00059134,-5945.6,0.019692
17996,1.9284,5.8182,0,0.00059789,5974.8,0.00019969,5.6956,0.00019379,-38.671,-0.00059844,-5991.1,0.017345
17997,2.0202,5.8182,0.05,4.1676e-06,41.647,3.2002e-06,24.045,-1.4782e-14,4.5683e-05,-3.2002e-06,-24.045,0.019186
17998,2.0202,5.9091,0,0.00059519,5947.8,0.00019714,1.2129,0.00019529,-12.734,-0.00059538,-5953.5,0.018722
17999,2.0202,5.5455,0,0.00057882,5784.2,0.00020357,0.72944,0.00016952,-255.07,-0.00058273,-5907.2,0.020546
18000,1.9284,5.6364,0,0.00058566,5852.6,0.00020268,1.2285,0.00017729,-189.52,-0.00058863,-5944.4,0.018226
18001,2.0202,5.6364,0.05,2.326e-06,23.244,1.7861e-06,13.42,1.811e-11,0.00015101,-1.7861e-06,-13.42,0.020098
18002,2.0202,5.3636,0,0.00056942,5690.3,0.0002072,0.33961,0.00015447,-395.87,-0.00057511,-5877.7,0.021295
18003,1.9284,5.4545,0,0.0005755,5751,0.00020646,0.42484,0.00016138,-338.24,-0.0005805,-5912.5,0.018998
18004,2.0202,5.4545,0.05,2.3515e-06,23.499,1.8056e-06,13.567,1.8297e-11,0.00015501,-1.8057e-06,-13.567,0.020899
18005,2.0202,5.1818,0,0.00056087,5604.8,0.00021096,0.24307,0.00013977,-534.64,-0.00056804,-5852.8,0.021948
18006,1.9284,5.2727,0,0.00056626,5658.7,0.00021046,0.31973,0.00014571,-486.17,-0.00057296,-5886,0.01967
18007,2.0202,5.2727,0.05,2.4051e-06,24.035,1.8468e-06,13.876,1.1009e-11,0.00011038,-1.8468e-06,-13.876,0.021599
18008,2.0202,5,0,0.00055327,5528.9,0.00021471,0.15954,0.0001257,-668.64,-0.0005616,-5832.7,0.022514
18009,1.9284,5.0909,0,0.00055804,5576.6,0.00021451,0.1998,0.00013059,-630.39,-0.00056608,-5864.9,0.020251
18010,2.0202,5.0909,0.05,2.437e-06,24.353,1.8713e-06,14.061,1.9829e-11,5.407e-05,-1.8713e-06,-14.06,0.022208
18011,2.0202,4.8182,0,0.00054672,5463.4,0.00021837,0.10883,0.00011254,-795.04,-0.00055588,-5817.3,0.023003
18012,1.9284,4.9091,0,0.00055097,5505.8,0.00021851,0.13665,0.00011636,-767.45,-0.00055999,-5849.2,0.020753
18013,2.0202,4.9091,0.05,2.4495e-06,24.478,1.8809e-06,14.132,-6.487e-13,0.00012252,-1.8809e-06,-14.132,0.022734
18014,2.0202,4.6364,0,0.00054123,5408.6,0.00022186,0.073158,0.00010052,-911.6,-0.00055094,-5806.4,0.023422
18015,1.9284,4.7273,0,0.00054507,5446.9,0.00022236,0.090941,0.00010329,-894.56,-0.00055474,-5838.8,0.021183
18016,2.0202,4.7273,0.05,2.4506e-06,24.489,1.8818e-06,14.139,5.3885e-12,0.00011755,-1.8818e-06,-14.139,0.023187
18017,2.0202,4.4545,0,0.00053677,5364,0.0002251,0.049915,8.9775e-05,-1016.7,-0.00054679,-5799.6,0.023778
18018,1.9284,4.5455,0,0.00054032,5399.5,0.00022597,0.06204,9.1578e-05,-1009.7,-0.00055036,-5833,0.021549
18019,2.0202,4.5455,0.05,2.4477e-06,24.461,1.8796e-06,14.122,-5.3051e-13,6.284e-05,-1.8796e-06,-14.122,0.023574
18020,2.0202,4.2727,0,0.00053324,5328.8,0.00022804,0.035075,8.0387e-05,-1109.4,-0.00054338,-5796.1,0.024079
18021,1.9284,4.3636,0,0.00053662,5362.4,0.00022928,0.043671,8.1308e-05,-1111.7,-0.00054681,-5831.2,0.021858
18022,2.0202,4.3636,0.05,2.4458e-06,24.441,1.8781e-06,14.111,-4.6578e-13,4.7748e-05,-1.8781e-06,-14.111,0.023902
18023,2.0202,4.0909,0,0.00053053,5301.6,0.00023065,0.026155,7.2374e-05,-1189.2,-0.00054065,-5795.2,0.024329
18024,1.9284,4.1818,0,0.00053382,5334.5,0.00023223,0.032789,7.2505e-05,-1200.1,-0.000544,-5832.3,0.022116
18025,2.0202,4.1818,0.05,2.4473e-06,24.456,1.8792e-06,14.12,-2.779e-13,6.7331e-05,-1.8792e-06,-14.12,0.024176
18026,2.0202,3.9091,0,0.0005285,5281.4,0.00023288,0.021139,6.5717e-05,-1256,-0.00053854,-5796.1,0.024533
18027,1.9284,4,0,0.00053177,5314,0.0002348,0.026744,6.514e-05,-1274.7,-0.00054185,-5835.4,0.022329
18028,2.0202,4,0.05,2.4526e-06,24.509,1.8833e-06,14.15,3.5209e-12,1.2399e-05,-1.8833e-06,-14.15,0.024402
18029,2.0202,3.7273,0,0.00052704,5266.7,0.00023473,0.018581,6.0373e-05,-1310,-0.00053695,-5798.1,0.024695
18030,1.9284,3.8182,0,0.00053032,5299.5,0.00023696,0.023727,5.9157e-05,-1335.9,-0.00054025,-5839.6,0.022499
18031,2.0202,3.8182,0.05,2.4605e-06,24.588,1.8894e-06,14.196,1.4012e-12,2.0298e-05,-1.8894e-06,-14.196,0.024585
18032,2.0202,3.5455,0,0.00052602,5256.5,0.00023618,0.017457,5.6289e-05,-1351.6,-0.0005358,-5800.3,0.024818
18033,1.9284,3.6364,0,0.00052933,5289.6,0.0002387,0.022462,5.4483e-05,-1384.1,-0.0005391,-5844.1,0.022632
18034,2.0202,3.6364,0.05,2.4696e-06,24.679,1.8963e-06,14.248,3.1049e-13,1.8496e-05,-1.8963e-06,-14.248,0.024727
18035,2.0202,3.3636,0,0.00052536,5249.9,0.00023722,0.017075,5.3415e-05,-1381,-0.00053503,-5802.4,0.024904
18036,1.9284,3.4545,0,0.00052869,5283.2,0.00024,0.022105,5.1049e-05,-1419.7,-0.00053832,-5848,0.02273
18037,2.0202,3.4545,0.05,2.4781e-06,24.764,1.9029e-06,14.297,-1.4457e-13,9.4046e-06,-1.9029e-06,-14.297,0.024831
18038,2.0202,3.1818,0,0.00052499,5246.2,0.00023784,0.017003,5.1708e-05,-1398.5,-0.0005346,-5803.8,0.024955
18039,1.9284,3.2727,0,0.00052831,5279.5,0.00024088,0.022121,4.8796e-05,-1443.2,-0.00053784,-5851,0.022793
18040,2.0202,3.2727,0.05,2.4846e-06,24.828,1.9078e-06,14.335,-8.2124e-13,5.292e-06,-1.9078e-06,-14.335,0.024899
18041,2.0202,3,0,0.00052487,5245.1,0.00023805,0.017004,5.1142e-05,-1404.3,-0.00053445,-5804.3,0.024972
18042,1.9284,3.0909,0,0.00052814,5277.7,0.00024131,0.022199,4.768e-05,-1454.8,-0.00053761,-5852.5,0.022825
18043,2.0202,3.0909,0.05,2.488e-06,24.863,1.9105e-06,14.355,-7.2614e-13,1.3518e-06,-1.9105e-06,-14.355,0.024933
18044,2.0202,2.8182,0,0.00052499,5246.2,0.00023784,0.017003,5.1708e-05,-1398.5,-0.0005346,-5803.8,0.024955
18045,1.9284,2.9091,0,0.00052814,5277.7,0.00024131,0.022199,4.768e-05,-1454.8,-0.00053761,-5852.5,0.022825
18046,2.0202,2.9091,0.05,2.488e-06,24.863,1.9105e-06,14.355,-1.8186e-13,-1.3518e-06,-1.9105e-06,-14.355,0.024933
18047,2.0202,2.6364,0,0.00052536,5249.9,0.00023722,0.017075,5.3415e-05,-1381,-0.00053503,-5802.4,0.024904
18048,1.9284,2.7273,0,0.00052831,5279.5,0.00024088,0.022121,4.8796e-05,-1443.2,-0.00053784,-5851,0.022793
18049,2.0202,2.7273,0.05,2.4846e-06,24.828,1.9078e-06,14.335,-5.2273e-13,1.0647e-05,-1.9078e-06,-14.335,0.024899
18050,2.0202,2.4545,0,0.00052602,5256.5,0.00023618,0.017457,5.6289e-05,-1351.6,-0.0005358,-5800.3,0.024818
18051,1.9284,2.5455,0,0.00052869,5283.2,0.00024,0.022105,5.1049e-05,-1419.7,-0.00053832,-5848,0.02273
18052,2.0202,2.5455,0.05,2.4781e-06,24.764,1.9029e-06,14.297,-1.0905e-12,-6.8611e-06,-1.9029e-06,-14.297,0.024831
18053,2.0202,2.2727,0,0.00052704,5266.7,0.00023473,0.018581,6.0373e-05,-1310,-0.00053695,-5798.1,0.024695
18054,1.9284,2.3636,0,0.00052933,5289.6,0.0002387,0.022462,5.4483e-05,-1384.1,-0.0005391,-5844.1,0.022632
18055,2.0202,2.3636,0.05,2.4696e-06,24.679,1.8963e-06,14.248,-1.6756e-13,-1.345e-05,-1.8963e-06,-14.248,0.024727
18056,2.0202,2.0909,0,0.0005285,5281.4,0.00023288,0.021139,6.5717e-05,-1256,-0.00053854,-5796.1,0.024533
18057,1.9284,2.1818,0,0.00053032,5299.5,0.00023696,0.023727,5.9157e-05,-1335.9,-0.00054025,-5839.6,0.022499
18058,2.0202,2.1818,0.05,2.4605e-06,24.588,1.8894e-06,14.196,-8.6424e-13,-1.8981e-05,-1.8894e-06,-14.196,0.024585
18059,2.0202,1.9091,0,0.00053053,5301.6,0.00023065,0.026156,7.2374e-05,-1189.2,-0.00054065,-5795.2,0.024329
18060,1.9284,2,0,0.00053177,5314,0.0002348,0.026744,6.514e-05,-1274.7,-0.00054185,-5835.4,0.022329
18061,2.0202,2,0.05,2.4526e-06,24.509,1.8833e-06,14.15,-2.2758e-12,-1.2399e-05,-1.8833e-06,-14.15,0.024402
18062,2.0202,1.7273,0,0.00053324,5328.8,0.00022804,0.035075,8.0387e-05,-1109.4,-0.00054338,-5796.1,0.024079
18063,1.9284,1.8182,0,0.00053382,5334.5,0.00023223,0.03279,7.2505e-05,-1200.1,-0.000544,-5832.3,0.022116
18064,2.0202,1.8182,0.05,2.4473e-06,24.456,1.8792e-06,14.12,-1.01e-12,-4.9512e-05,-1.8792e-06,-14.12,0.024176
18065,2.0202,1.5455,0,0.00053677,5364,0.0002251,0.049916,8.9775e-05,-1016.7,-0.00054679,-5799.6,0.023778
18066,1.9284,1.6364,0,0.00053662,5362.4,0.00022928,0.043671,8.1308e-05,-1111.7,-0.00054681,-5831.2,0.021858
18067,2.0202,1.6364,0.05,2.4458e-06,24.441,1.8781e-06,14.111,4.6578e-13,-3.4656e-05,-1.8781e-06,-14.111,0.023902
18068,2.0202,1.3636,0,0.00054123,5408.6,0.00022186,0.073158,0.00010052,-911.6,-0.00055094,-5806.4,0.023422
18069,1.9284,1.4545,0,0.00054032,5399.5,0.00022597,0.06204,9.1578e-05,-1009.7,-0.00055036,-5833,0.021549
18070,2.0202,1.4545,0.05,2.4477e-06,24.461,1.8796e-06,14.122,-4.089e-13,-4.4764e-05,-1.8796e-06,-14.122,0.023574
18071,2.0202,1.1818,0,0.00054672,5463.4,0.00021837,0.10883,0.00011254,-795.04,-0.00055588,-5817.3,0.023003
18072,1.9284,1.2727,0,0.00054507,5446.9,0.00022236,0.090941,0.00010329,-894.56,-0.00055474,-5838.8,0.021183
18073,2.0202,1.2727,0.05,2.4506e-06,24.489,1.8818e-06,14.139,-3.5932e-12,-7.8369e-05,-1.8818e-06,-14.139,0.023187
18074,2.0202,1,0,0.00055327,5528.9,0.00021471,0.15954,0.0001257,-668.64,-0.0005616,-5832.7,0.022514
18075,1.9284,1.0909,0,0.00055097,5505.8,0.00021851,0.13665,0.00011636,-767.45,-0.00055999,-5849.2,0.020753
18076,2.0202,1.0909,0.05,2.4495e-06,24.478,1.8809e-06,14.132,-5.0809e-13,-0.00013688,-1.8809e-06,-14.132,0.022734
18077,2.0202,0.81818,0,0.00056087,5604.8,0.00021096,0.24307,0.00013977,-534.64,-0.00056804,-5852.8,0.021948
18078,1.9284,0.90909,0,0.00055804,5576.6,0.00021451,0.1998,0.00013059,-630.39,-0.00056608,-5864.9,0.020251
18079,2.0202,0.90909,0.05,2.437e-06,24.353,1.8713e-06,14.06,-4.3589e-12,-5.2125e-05,-1.8713e-06,-14.061,0.022208
18080,2.0202,0.63636,0,0.00056942,5690.3,0.0002072,0.33961,0.00015447,-395.87,-0.00057511,-5877.7,0.021295
18081,1.9284,0.72727,0,0.00056626,5658.7,0.00021046,0.31973,0.00014571,-486.17,-0.00057296,-5886,0.01967
18082,2.0202,0.72727,0.05,2.4051e-06,24.035,1.8468e-06,13.876,-1.8296e-11,-0.00010433,-1.8468e-06,-13.876,0.021599
18083,2.0202,0.45455,0,0.00057882,5784.2,0.00020357,0.72944,0.00016952,-255.07,-0.00058273,-5907.2,0.020546
18084,1.9284,0.54545,0,0.0005755,5751,0.00020646,0.42484,0.00016138,-338.24,-0.0005805,-5912.5,0.018998
18085,2.0202,0.54545,0.05,2.3515e-06,23.499,1.8056e-06,13.567,-5.8805e-12,-0.00021218,-1.8056e-06,-13.567,0.020899
18086,2.0202,0.27273,0,0.00058956,5891.5,0.00020018,1.6584,0.00018514,-111.41,-0.00059134,-5945.6,0.019692
18087,1.9284,0.36364,0,0.00058566,5852.6,0.00020268,1.2285,0.00017729,-189.52,-0.00058863,-5944.4,0.018226
18088,2.0202,0.36364,0.05,2.326e-06,23.244,1.7861e-06,13.42,-1.7046e-11,-0.00010067,-1.7861e-06,-13.42,0.020098
18089,1.9284,0.18182,0,0.00059789,5974.8,0.00019969,5.6957,0.00019379,-38.671,-0.00059844,-5991.1,0.017345
18090,2.0202,0.18182,0.05,4.1676e-06,41.647,3.2002e-06,24.045,-1.3504e-12,-4.5683e-05,-3.2002e-06,-24.045,0.019186
18091,2.0202,0.090909,0,0.00059519,5947.8,0.00019714,1.2129,0.00019529,-12.734,-0.00059538,-5953.5,0.018722
18092,1.8365,5.7273,0,0.00059395,5935.4,0.00020175,1.9744,0.00018642,-113.21,-0.00059576,-5990.2,0.016007
18093,1.7447,5.8182,0,0.00060237,6019.6,0.00020112,8.1053,0.00019556,-33.674,-0.0006028,-6032.2,0.013888
18094,1.8365,5.8182,0.05,4.387e-06,43.84,3.3687e-06,25.311,-1.3144e-12,6.6678e-05,-3.3687e-06,-25.311,0.015531
18095,1.8365,5.9091,0,0.00059959,5991.7,0.00019841,1.8481,0.00019711,-7.9568,-0.00059969,-5994.8,0.015097
18096,1.8365,5.5455,0,0.00058231,5819,0.00020556,0.81533,0.00016921,-272.28,-0.00058644,-5950,0.016801
18097,1.7447,5.6364,0,0.00058894,5885.4,0.00020428,1.3942,0.00017751,-199.73,-0.00059206,-5982,0.014706
18098,1.8365,5.6364,0.05,2.495e-06,24.933,1.9158e-06,14.395,6.8091e-12,0.00016331,-1.9158e-06,-14.395,0.016383
18099,1.8365,5.3636,0,0.00057231,5719.1,0.00020971,0.37557,0.00015266,-428.26,-0.00057838,-5921,0.017492
18100,1.7447,5.4545,0,0.00057807,5776.7,0.0002086,0.48665,0.00015995,-365.07,-0.0005834,-5950.3,0.015416
18101,1.8365,5.4545,0.05,2.551e-06,25.492,1.9588e-06,14.718,5.8637e-12,0.00016533,-1.9588e-06,-14.718,0.017125
18102,1.8365,5.1818,0,0.0005634,5630.1,0.00021401,0.26359,0.00013655,-581.72,-0.00057103,-5898.2,0.018089
18103,1.7447,5.2727,0,0.00056838,5679.9,0.00021321,0.36167,0.00014269,-529.46,-0.00057552,-5925.8,0.016029
18104,1.8365,5.2727,0.05,2.6116e-06,26.098,2.0054e-06,15.067,2.4617e-11,0.00015734,-2.0054e-06,-15.067,0.017768
18105,1.8365,5,0,0.00055569,5553.1,0.00021832,0.16978,0.00012126,-729.1,-0.00056448,-5881.5,0.018603
18106,1.7447,5.0909,0,0.00055999,5596.1,0.00021789,0.22676,0.00012617,-688.91,-0.00056852,-5908.5,0.016554
18107,1.8365,5.0909,0.05,2.6408e-06,26.39,2.0278e-06,15.236,1.0436e-11,9.6961e-05,-2.0278e-06,-15.236,0.018322
18108,1.8365,4.8182,0,0.00054927,5488.9,0.00022251,0.11426,0.00010711,-866.96,-0.00055885,-5870.7,0.019043
18109,1.7447,4.9091,0,0.00055304,5526.6,0.00022249,0.15717,0.0001108,-839.07,-0.00056251,-5898.1,0.017003
18110,1.8365,4.9091,0.05,2.6465e-06,26.446,2.0322e-06,15.269,1.5011e-11,0.00010054,-2.0322e-06,-15.269,0.018798
18111,1.8365,4.6364,0,0.00054411,5437.3,0.00022648,0.076762,9.434e-05,-992.76,-0.00055415,-5865.3,0.019417
18112,1.7447,4.7273,0,0.00054752,5471.4,0.0002269,0.10886,9.6893e-05,-976.71,-0.00055755,-5894,0.017385
18113,1.8365,4.7273,0.05,2.6409e-06,26.39,2.0278e-06,15.236,1.8295e-13,7.7533e-05,-2.0279e-06,-15.236,0.019204
18114,1.8365,4.4545,0,0.00054012,5397.5,0.00023015,0.053602,8.3089e-05,-1104.9,-0.00055036,-5864.4,0.019733
18115,1.7447,4.5455,0,0.00054333,5429.6,0.000231,0.07996,8.4619e-05,-1099.8,-0.00055362,-5895.2,0.017707
18116,1.8365,4.5455,0.05,2.6339e-06,26.32,2.0225e-06,15.196,1.8557e-12,8.4231e-05,-2.0225e-06,-15.196,0.019548
18117,1.8365,4.2727,0,0.00053715,5367.8,0.00023347,0.039757,7.3397e-05,-1202.7,-0.0005474,-5867.1,0.019998
18118,1.7447,4.3636,0,0.0005403,5399.3,0.00023474,0.062755,7.4032e-05,-1207.4,-0.00055061,-5900.7,0.017978
18119,1.8365,4.3636,0.05,2.6312e-06,26.294,2.0204e-06,15.181,7.6458e-12,6.312e-05,-2.0204e-06,-15.181,0.019838
18120,1.8365,4.0909,0,0.00053502,5346.5,0.00023638,0.032132,6.5237e-05,-1285.9,-0.00054516,-5872.2,0.020218
18121,1.7447,4.1818,0,0.00053821,5378.4,0.00023805,0.053402,6.5101e-05,-1299.4,-0.0005484,-5909,0.018202
18122,1.8365,4.1818,0.05,2.6348e-06,26.33,2.0232e-06,15.201,2.2909e-12,2.4675e-05,-2.0232e-06,-15.201,0.020079
18123,1.8365,3.9091,0,0.00053356,5331.9,0.00023887,0.028351,5.8543e-05,-1354.9,-0.00054352,-5878.6,0.020396
18124,1.7447,4,0,0.00053685,5364.8,0.00024091,0.048789,5.7738e-05,-1376.2,-0.00054684,-5918.8,0.018386
18125,1.8365,4,0.05,2.6438e-06,26.419,2.0301e-06,15.253,4.2029e-12,1.2369e-05,-2.0301e-06,-15.253,0.020277
18126,1.8365,3.7273,0,0.00053259,5322.2,0.00024092,0.026811,5.3228e-05,-1410.2,-0.00054237,-5885.3,0.020537
18127,1.7447,3.8182,0,0.00053602,5356.5,0.0002433,0.046921,5.1834e-05,-1438.5,-0.00054579,-5928.8,0.018534
18128,1.8365,3.8182,0.05,2.6561e-06,26.542,2.0395e-06,15.324,4.9597e-13,1.8722e-05,-2.0395e-06,-15.324,0.020436
18129,1.8365,3.5455,0,0.00053198,5316.2,0.00024252,0.02644,4.9203e-05,-1452.5,-0.00054159,-5891.4,0.020643
18130,1.7447,3.6364,0,0.00053556,5351.9,0.00024521,0.046487,4.7272e-05,-1487.2,-0.00054511,-5938.1,0.018648
18131,1.8365,3.6364,0.05,2.6692e-06,26.674,2.0496e-06,15.4,-4.3891e-13,8.2838e-06,-2.0496e-06,-15.4,0.02056
18132,1.8365,3.3636,0,0.00053163,5312.6,0.00024366,0.026561,4.639e-05,-1482.2,-0.00054109,-5896.3,0.020718
18133,1.7447,3.4545,0,0.00053532,5349.5,0.00024664,0.046678,4.395e-05,-1522.9,-0.0005447,-5945.8,0.018731
18134,1.8365,3.4545,0.05,2.681e-06,26.792,2.0587e-06,15.468,-5.6356e-13,1.2364e-05,-2.0587e-06,-15.468,0.02065
18135,1.8365,3.1818,0,0.00053145,5310.8,0.00024435,0.026773,4.4728e-05,-1499.8,-0.00054082,-5899.4,0.020762
18136,1.7447,3.2727,0,0.00053522,5348.5,0.0002476,0.047017,4.1783e-05,-1546.4,-0.00054448,-5951.3,0.018785
18137,1.8365,3.2727,0.05,2.6898e-06,26.88,2.0654e-06,15.519,-1.2822e-12,3.6096e-06,-2.0655e-06,-15.519,0.020709
18138,1.8365,3,0,0.00053139,5310.2,0.00024457,0.026865,4.4178e-05,-1505.7,-0.00054073,-5900.5,0.020777
18139,1.7447,3.0909,0,0.00053519,5348.2,0.00024808,0.047243,4.0715e-05,-1558,-0.00054438,-5954.1,0.018812
18140,1.8365,3.0909,0.05,2.6945e-06,26.926,2.069e-06,15.546,-7.3735e-13,1.3769e-06,-2.069e-06,-15.546,0.020738
18141,1.8365,2.8182,0,0.00053145,5310.8,0.00024435,0.026773,4.4728e-05,-1499.8,-0.00054082,-5899.4,0.020762
18142,1.7447,2.9091,0,0.00053519,5348.2,0.00024808,0.047243,4.0715e-05,-1558,-0.00054438,-5954.1,0.018812
18143,1.8365,2.9091,0.05,2.6945e-06,26.926,2.069e-06,15.546,-1.7073e-13,-1.1859e-06,-2.069e-06,-15.546,0.020738
18144,1.8365,2.6364,0,0.00053163,5312.6,0.00024366,0.026561,4.639e-05,-1482.2,-0.00054109,-5896.3,0.020718
18145,1.7447,2.7273,0,0.00053522,5348.5,0.0002476,0.047017,4.1783e-05,-1546.4,-0.00054448,-5951.3,0.018785
18146,1.8365,2.7273,0.05,2.6898e-06,26.88,2.0654e-06,15.519,-4.8409e-13,-3.6096e-06,-2.0654e-06,-15.519,0.020709
18147,1.8365,2.4545,0,0.00053198,5316.2,0.00024252,0.02644,4.9203e-05,-1452.5,-0.00054159,-5891.4,0.020643
18148,1.7447,2.5455,0,0.00053532,5349.5,0.00024664,0.046678,4.395e-05,-1522.9,-0.0005447,-5945.8,0.018731
18149,1.8365,2.5455,0.05,2.681e-06,26.792,2.0587e-06,15.468,-6.5694e-13,-6.7298e-06,-2.0587e-06,-15.468,0.02065
18150,1.8365,2.2727,0,0.00053259,5322.2,0.00024092,0.026811,5.3228e-05,-1410.2,-0.00054237,-5885.3,0.020537
18151,1.7447,2.3636,0,0.00053556,5351.9,0.00024521,0.046487,4.7272e-05,-1487.2,-0.00054511,-5938.1,0.018648
18152,1.8365,2.3636,0.05,2.6692e-06,26.674,2.0496e-06,15.4,2.0585e-14,-8.2838e-06,-2.0496e-06,-15.4,0.02056
18153,1.8365,2.0909,0,0.00053356,5331.9,0.00023887,0.028352,5.8543e-05,-1354.9,-0.00054352,-5878.6,0.020396
18154,1.7447,2.1818,0,0.00053602,5356.5,0.0002433,0.046922,5.1834e-05,-1438.5,-0.00054579,-5928.8,0.018534
18155,1.8365,2.1818,0.05,2.6561e-06,26.542,2.0395e-06,15.324,-2.0684e-12,-9.1413e-06,-2.0395e-06,-15.324,0.020436
18156,1.8365,1.9091,0,0.00053502,5346.5,0.00023638,0.032132,6.5237e-05,-1285.9,-0.00054516,-5872.2,0.020218
18157,1.7447,2,0,0.00053685,5364.8,0.00024091,0.048789,5.7738e-05,-1376.2,-0.00054684,-5918.8,0.018386
18158,1.8365,2,0.05,2.6438e-06,26.419,2.0301e-06,15.253,-3.4082e-12,-3.7663e-05,-2.0301e-06,-15.253,0.020277
18159,1.8365,1.7273,0,0.00053715,5367.8,0.00023347,0.039757,7.3397e-05,-1202.7,-0.0005474,-5867.1,0.019998
18160,1.7447,1.8182,0,0.00053821,5378.4,0.00023805,0.053403,6.5101e-05,-1299.4,-0.0005484,-5909,0.018202
18161,1.8365,1.8182,0.05,2.6348e-06,26.33,2.0232e-06,15.201,-2.518e-12,-4.9863e-05,-2.0232e-06,-15.201,0.020079
18162,1.8365,1.5455,0,0.00054012,5397.5,0.00023015,0.053602,8.3089e-05,-1104.9,-0.00055036,-5864.4,0.019733
18163,1.7447,1.6364,0,0.0005403,5399.3,0.00023474,0.062756,7.4032e-05,-1207.4,-0.00055061,-5900.7,0.017978
18164,1.8365,1.6364,0.05,2.6312e-06,26.294,2.0204e-06,15.181,-3.0003e-12,-1.1188e-05,-2.0204e-06,-15.181,0.019838
18165,1.8365,1.3636,0,0.00054411,5437.3,0.00022648,0.076763,9.434e-05,-992.76,-0.00055415,-5865.3,0.019417
18166,1.7447,1.4545,0,0.00054333,5429.6,0.000231,0.079961,8.4619e-05,-1099.8,-0.00055362,-5895.2,0.017707
18167,1.8365,1.4545,0.05,2.6339e-06,26.32,2.0225e-06,15.196,-5.0311e-12,-3.8323e-05,-2.0225e-06,-15.196,0.019548
18168,1.8365,1.1818,0,0.00054927,5488.9,0.00022251,0.11426,0.00010711,-866.96,-0.00055885,-5870.7,0.019043
18169,1.7447,1.2727,0,0.00054752,5471.4,0.0002269,0.10887,9.6893e-05,-976.71,-0.00055755,-5894,0.017385
18170,1.8365,1.2727,0.05,2.6409e-06,26.39,2.0278e-06,15.236,-3.3825e-12,-9.6883e-05,-2.0278e-06,-15.236,0.019204
18171,1.8365,1,0,0.00055569,5553.1,0.00021832,0.16978,0.00012126,-729.1,-0.00056448,-5881.5,0.018603
18172,1.7447,1.0909,0,0.00055304,5526.6,0.00022249,0.15717,0.0001108,-839.07,-0.00056251,-5898.1,0.017003
18173,1.8365,1.0909,0.05,2.6465e-06,26.446,2.0322e-06,15.269,-1.6099e-11,-3.2387e-15,-2.0322e-06,-15.269,0.018798
18174,1.8365,0.81818,0,0.0005634,5630.1,0.00021401,0.26359,0.00013655,-581.72,-0.00057103,-5898.2,0.018089
18175,1.7447,0.90909,0,0.00055999,5596.1,0.00021789,0.22676,0.00012617,-688.91,-0.00056852,-5908.5,0.016554
18176,1.8365,0.90909,0.05,2.6408e-06,26.39,2.0278e-06,15.236,-1.8608e-11,-5.005e-05,-2.0278e-06,-15.236,0.018322
18177,1.8365,0.63636,0,0.00057231,5719.1,0.00020971,0.37557,0.00015266,-428.26,-0.00057838,-5921,0.017492
18178,1.7447,0.72727,0,0.00056838,5679.9,0.00021321,0.36167,0.00014269,-529.46,-0.00057552,-5925.8,0.016029
18179,1.8365,0.72727,0.05,2.6116e-06,26.098,2.0054e-06,15.067,-5.4843e-12,-0.00015734,-2.0054e-06,-15.067,0.017768
18180,1.8365,0.45455,0,0.00058231,5819,0.00020556,0.81533,0.00016921,-272.28,-0.00058644,-5950,0.016801
18181,1.7447,0.54545,0,0.00057807,5776.7,0.0002086,0.48665,0.00015995,-365.07,-0.0005834,-5950.3,0.015416
18182,1.8365,0.54545,0.05,2.551e-06,25.492,1.9588e-06,14.718,-1.261e-11,-0.00022911,-1.9588e-06,-14.718,0.017125
18183,1.8365,0.27273,0,0.00059395,5935.4,0.00020175,1.9744,0.00018642,-113.21,-0.00059576,-5990.2,0.016007
18184,1.7447,0.36364,0,0.00058894,5885.4,0.00020428,1.3942,0.00017751,-199.73,-0.00059206,-5982,0.014706
18185,1.8365,0.36364,0.05,2.495e-06,24.933,1.9158e-06,14.395,-1.2141e-11,-0.00021718,-1.9158e-06,-14.395,0.016383
18186,1.7447,0.18182,0,0.00060237,6019.6,0.00020112,8.1053,0.00019556,-33.674,-0.0006028,-6032.2,0.013888
18187,1.8365,0.18182,0.05,4.387e-06,43.84,3.3686e-06,25.311,-6.7274e-13,-5.0009e-05,-3.3687e-06,-25.311,0.015531
18188,1.8365,0.090909,0,0.00059959,5991.7,0.00019841,1.8481,0.00019711,-7.9568,-0.00059969,-5994.8,0.015097
18189,1.6529,5.7273,0,0.00059731,5969,0.00020297,2.3849,0.00018738,-114.74,-0.00059914,-6024.3,0.012715
18190,1.5611,5.8182,0,0.00060568,6052.6,0.00020228,12.041,0.00019691,-28.248,-0.00060595,-6060.6,0.010828
18191,1.6529,5.8182,0.05,4.5925e-06,45.893,3.5265e-06,26.497,-5.9662e-13,7.4707e-05,-3.5265e-06,-26.496,0.012273
18192,1.6529,5.9091,0,0.00060291,6024.9,0.00019945,4.0143,0.00019849,-3.2379,-0.00060289,-6024.5,0.011872
18193,1.6529,5.5455,0,0.00058466,5842.6,0.0002073,0.93246,0.00016831,-292.04,-0.00058907,-5982.7,0.013444
18194,1.5611,5.6364,0,0.0005909,5904.9,0.00020551,1.5698,0.00017715,-211.45,-0.00059418,-6006.9,0.011577
18195,1.6529,5.6364,0.05,2.7169e-06,27.15,2.0862e-06,15.675,2.7169e-11,0.00023116,-2.0863e-06,-15.675,0.013059
18196,1.6529,5.3636,0,0.00057408,5736.9,0.0002121,0.43777,0.00015002,-465.96,-0.00058058,-5955.4,0.014072
18197,1.5611,5.4545,0,0.00057928,5788.8,0.00021052,0.53085,0.00015764,-396.78,-0.00058499,-5976.6,0.01222
18198,1.6529,5.4545,0.05,2.8098e-06,28.078,2.1575e-06,16.211,2.0779e-11,0.00023203,-2.1576e-06,-16.211,0.013736
18199,1.6529,5.1818,0,0.00056491,5645.2,0.00021708,0.30956,0.00013233,-636.46,-0.00057303,-5936.3,0.014609
18200,1.5611,5.2727,0,0.00056922,5688.3,0.0002159,0.37741,0.00013857,-580.67,-0.00057686,-5956.1,0.012768
18201,1.6529,5.2727,0.05,2.8715e-06,28.695,2.205e-06,16.567,1.2527e-11,0.00023034,-2.205e-06,-16.567,0.014317
18202,1.6529,5,0,0.00055728,5569,0.00022206,0.2057,0.00011572,-798.82,-0.00056655,-5925.1,0.015066
18203,1.5611,5.0909,0,0.00056087,5604.8,0.00022136,0.22289,0.00012051,-757.5,-0.0005699,-5944.9,0.013233
18204,1.6529,5.0909,0.05,2.8896e-06,28.876,2.2188e-06,16.671,1.8911e-11,0.00015918,-2.2188e-06,-16.671,0.014813
18205,1.6529,4.8182,0,0.00055123,5508.5,0.00022689,0.14648,0.00010058,-948.88,-0.0005612,-5921.3,0.015454
18206,1.5611,4.9091,0,0.00055433,5539.5,0.00022669,0.14511,0.00010399,-921.84,-0.00056422,-5942.5,0.013627
18207,1.6529,4.9091,0.05,2.8805e-06,28.785,2.2118e-06,16.619,1.6253e-11,0.0001888,-2.2119e-06,-16.619,0.015235
18208,1.6529,4.6364,0,0.00054669,5463.1,0.00023142,0.1085,8.715e-05,-1083.9,-0.000557,-5923.8,0.015781
18209,1.5611,4.7273,0,0.00054953,5491.5,0.00023176,0.093643,8.9323e-05,-1070.1,-0.00055985,-5947.7,0.013958
18210,1.6529,4.7273,0.05,2.8629e-06,28.609,2.1983e-06,16.517,5.9179e-12,0.00015499,-2.1983e-06,-16.517,0.015591
18211,1.6529,4.4545,0,0.00054346,5430.9,0.00023559,0.086601,7.553e-05,-1202.5,-0.00055383,-5931.3,0.016056
18212,1.5611,4.5455,0,0.00054624,5458.7,0.00023643,0.064549,7.6651e-05,-1200.4,-0.00055666,-5958.9,0.014235
18213,1.6529,4.5455,0.05,2.8492e-06,28.472,2.1878e-06,16.439,7.542e-12,0.0001409,-2.1878e-06,-16.438,0.015891
18214,1.6529,4.2727,0,0.00054132,5409.4,0.00023931,0.074574,6.5699e-05,-1304.4,-0.00055157,-5942.3,0.016284
18215,1.5611,4.3636,0,0.00054419,5438.2,0.00024063,0.048232,6.5946e-05,-1312.5,-0.0005545,-5974.3,0.014466
18216,1.6529,4.3636,0.05,2.8451e-06,28.431,2.1847e-06,16.415,2.4733e-12,6.3377e-05,-2.1847e-06,-16.415,0.016141
18217,1.6529,4.0909,0,0.00054,5396.3,0.00024257,0.068694,5.7561e-05,-1390,-0.00055004,-5955.3,0.016472
18218,1.5611,4.1818,0,0.00054308,5427.1,0.00024433,0.039929,5.7091e-05,-1406.8,-0.00055315,-5991.9,0.014656
18219,1.6529,4.1818,0.05,2.8508e-06,28.489,2.1891e-06,16.448,-9.2933e-13,9.5613e-05,-2.1891e-06,-16.448,0.016349
18220,1.6529,3.9091,0,0.00053929,5389.1,0.00024533,0.066309,5.0987e-05,-1460.1,-0.00054907,-5968.7,0.016624
18221,1.5611,4,0,0.00054263,5422.5,0.0002475,0.036117,4.992e-05,-1484.5,-0.00055241,-6010.2,0.014811
18222,1.6529,4,0.05,2.8637e-06,28.617,2.199e-06,16.522,1.8371e-12,2.4488e-05,-2.199e-06,-16.522,0.016518
18223,1.6529,3.7273,0,0.00053896,5385.9,0.00024758,0.065762,4.5836e-05,-1515.8,-0.00054849,-5981.3,0.016744
18224,1.5611,3.8182,0,0.00054259,5422.2,0.00025013,0.034716,4.4257e-05,-1546.8,-0.00055208,-6027.5,0.014935
18225,1.6529,3.8182,0.05,2.8803e-06,28.783,2.2117e-06,16.618,1.5222e-12,1.8149e-05,-2.2117e-06,-16.618,0.016653
18226,1.6529,3.5455,0,0.00053888,5385.1,0.00024933,0.066033,4.1977e-05,-1557.9,-0.00054819,-5992.2,0.016834
18227,1.5611,3.6364,0,0.00054277,5424,0.00025222,0.034475,3.9938e-05,-1595,-0.00055201,-6042.6,0.01503
18228,1.6529,3.6364,0.05,2.8971e-06,28.951,2.2246e-06,16.715,-4.9583e-14,3.14e-05,-2.2246e-06,-16.715,0.016757
18229,1.6529,3.3636,0,0.0005389,5385.3,0.00025058,0.066533,3.9302e-05,-1587.4,-0.00054805,-6000.5,0.016897
18230,1.5611,3.4545,0,0.00054303,5426.6,0.00025378,0.034691,3.6823e-05,-1630.1,-0.00055207,-6054.8,0.015099
18231,1.6529,3.4545,0.05,2.9118e-06,29.098,2.2359e-06,16.799,-3.4269e-13,8.8032e-06,-2.2359e-06,-16.799,0.016834
18232,1.6529,3.1818,0,0.00053895,5385.8,0.00025133,0.066937,3.773e-05,-1604.8,-0.00054799,-6005.7,0.016934
18233,1.5611,3.2727,0,0.00054326,5428.9,0.00025481,0.034986,3.4807e-05,-1653,-0.00055215,-6063.2,0.015145
18234,1.6529,3.2727,0.05,2.9224e-06,29.204,2.244e-06,16.861,-1.8642e-13,4.5062e-06,-2.244e-06,-16.861,0.016884
18235,1.6529,3,0,0.00053897,5386,0.00025158,0.067087,3.7211e-05,-1610.6,-0.00054798,-6007.5,0.016947
18236,1.5611,3.0909,0,0.00054339,5430.2,0.00025533,0.035172,3.3817e-05,-1664.3,-0.00055221,-6067.5,0.015167
18237,1.6529,3.0909,0.05,2.928e-06,29.26,2.2483e-06,16.893,-2.856e-13,1.3386e-06,-2.2483e-06,-16.893,0.016908
18238,1.6529,2.8182,0,0.00053895,5385.8,0.00025133,0.066937,3.773e-05,-1604.8,-0.00054799,-6005.7,0.016934
18239,1.5611,2.9091,0,0.00054339,5430.2,0.00025533,0.035172,3.3817e-05,-1664.3,-0.00055221,-6067.5,0.015167
18240,1.6529,2.9091,0.05,2.928e-06,29.26,2.2483e-06,16.893,-1.4954e-13,-1.1456e-06,-2.2483e-06,-16.893,0.016908
18241,1.6529,2.6364,0,0.0005389,5385.3,0.00025058,0.066533,3.9302e-05,-1587.4,-0.00054805,-6000.5,0.016897
18242,1.5611,2.7273,0,0.00054326,5428.9,0.00025481,0.034986,3.4807e-05,-1653,-0.00055215,-6063.2,0.015145
18243,1.6529,2.7273,0.05,2.9224e-06,29.204,2.244e-06,16.861,-4.6709e-13,-3.4829e-06,-2.244e-06,-16.861,0.016884
18244,1.6529,2.4545,0,0.00053888,5385.1,0.00024933,0.066033,4.1977e-05,-1557.9,-0.00054819,-5992.2,0.016834
18245,1.5611,2.5455,0,0.00054303,5426.6,0.00025378,0.034691,3.6823e-05,-1630.1,-0.00055207,-6054.8,0.015099
18246,1.6529,2.5455,0.05,2.9118e-06,29.098,2.2359e-06,16.799,9.8453e-14,-5.7936e-06,-2.2359e-06,-16.799,0.016834
18247,1.6529,2.2727,0,0.00053896,5385.9,0.00024758,0.065762,4.5836e-05,-1515.8,-0.00054849,-5981.3,0.016744
18248,1.5611,2.3636,0,0.00054277,5424,0.00025222,0.034475,3.9938e-05,-1595,-0.00055201,-6042.6,0.01503
18249,1.6529,2.3636,0.05,2.8971e-06,28.951,2.2246e-06,16.715,-1.2115e-12,-8.0672e-06,-2.2246e-06,-16.715,0.016757
18250,1.6529,2.0909,0,0.00053929,5389.1,0.00024533,0.066309,5.0987e-05,-1460.1,-0.00054907,-5968.7,0.016624
18251,1.5611,2.1818,0,0.00054259,5422.2,0.00025013,0.034716,4.4257e-05,-1546.8,-0.00055208,-6027.5,0.014935
18252,1.6529,2.1818,0.05,2.8803e-06,28.783,2.2117e-06,16.618,-5.8009e-13,-1.0246e-05,-2.2117e-06,-16.618,0.016653
18253,1.6529,1.9091,0,0.00054,5396.3,0.00024257,0.068694,5.7561e-05,-1390,-0.00055004,-5955.3,0.016472
18254,1.5611,2,0,0.00054263,5422.5,0.0002475,0.036117,4.992e-05,-1484.5,-0.00055241,-6010.2,0.014811
18255,1.6529,2,0.05,2.8637e-06,28.617,2.199e-06,16.522,-3.6741e-13,-2.1431e-05,-2.199e-06,-16.522,0.016518
18256,1.6529,1.7273,0,0.00054132,5409.4,0.00023931,0.074574,6.5699e-05,-1304.4,-0.00055157,-5942.3,0.016284
18257,1.5611,1.8182,0,0.00054308,5427.1,0.00024433,0.03993,5.7091e-05,-1406.8,-0.00055315,-5991.9,0.014656
18258,1.6529,1.8182,0.05,2.8508e-06,28.489,2.1891e-06,16.448,2.8408e-13,-3.1588e-05,-2.1891e-06,-16.448,0.016349
18259,1.6529,1.5455,0,0.00054346,5430.9,0.00023559,0.086601,7.553e-05,-1202.5,-0.00055383,-5931.3,0.016056
18260,1.5611,1.6364,0,0.00054419,5438.2,0.00024063,0.048233,6.5946e-05,-1312.5,-0.0005545,-5974.3,0.014466
18261,1.6529,1.6364,0.05,2.8451e-06,28.431,2.1847e-06,16.415,-3.5704e-12,-1.1198e-05,-2.1847e-06,-16.415,0.016141
18262,1.6529,1.3636,0,0.00054669,5463.1,0.00023142,0.1085,8.715e-05,-1083.9,-0.000557,-5923.8,0.015781
18263,1.5611,1.4545,0,0.00054624,5458.7,0.00023643,0.06455,7.6651e-05,-1200.4,-0.00055666,-5958.9,0.014235
18264,1.6529,1.4545,0.05,2.8492e-06,28.472,2.1878e-06,16.438,-4.2387e-12,-0.00011308,-2.1878e-06,-16.439,0.015891
18265,1.6529,1.1818,0,0.00055123,5508.5,0.00022689,0.14648,0.00010058,-948.88,-0.0005612,-5921.3,0.015454
18266,1.5611,1.2727,0,0.00054953,5491.5,0.00023176,0.093643,8.9323e-05,-1070.1,-0.00055985,-5947.7,0.013958
18267,1.6529,1.2727,0.05,2.8629e-06,28.609,2.1983e-06,16.517,-9.6611e-12,-4.6094e-05,-2.1983e-06,-16.517,0.015591
18268,1.6529,1,0,0.00055728,5569,0.00022206,0.2057,0.00011572,-798.82,-0.00056655,-5925.1,0.015066
18269,1.5611,1.0909,0,0.00055433,5539.5,0.00022669,0.14511,0.00010399,-921.84,-0.00056422,-5942.5,0.013627
18270,1.6529,1.0909,0.05,2.8805e-06,28.785,2.2119e-06,16.619,-1.1517e-11,-9.1079e-05,-2.2118e-06,-16.619,0.015234
18271,1.6529,0.81818,0,0.00056491,5645.2,0.00021708,0.30957,0.00013233,-636.46,-0.00057303,-5936.3,0.014609
18272,1.5611,0.90909,0,0.00056087,5604.8,0.00022136,0.22289,0.00012051,-757.5,-0.0005699,-5944.9,0.013233
18273,1.6529,0.90909,0.05,2.8896e-06,28.876,2.2188e-06,16.671,-1.214e-11,-0.00016479,-2.2188e-06,-16.671,0.014813
18274,1.6529,0.63636,0,0.00057408,5736.9,0.0002121,0.43777,0.00015002,-465.96,-0.00058058,-5955.4,0.014072
18275,1.5611,0.72727,0,0.00056922,5688.3,0.0002159,0.37741,0.00013857,-580.67,-0.00057686,-5956.1,0.012768
18276,1.6529,0.72727,0.05,2.8715e-06,28.695,2.205e-06,16.567,-2.1434e-14,-0.00017054,-2.2049e-06,-16.567,0.014317
18277,1.6529,0.45455,0,0.00058466,5842.6,0.0002073,0.93246,0.00016831,-292.04,-0.00058907,-5982.7,0.013444
18278,1.5611,0.54545,0,0.00057928,5788.8,0.00021052,0.53085,0.00015764,-396.78,-0.00058499,-5976.6,0.01222
18279,1.6529,0.54545,0.05,2.8098e-06,28.078,2.1576e-06,16.211,-1.3954e-11,-0.00017402,-2.1575e-06,-16.211,0.013736
18280,1.6529,0.27273,0,0.00059731,5969,0.00020297,2.3849,0.00018738,-114.74,-0.00059914,-6024.3,0.012715
18281,1.5611,0.36364,0,0.0005909,5904.9,0.00020551,1.5698,0.00017715,-211.45,-0.00059418,-6006.9,0.011577
18282,1.6529,0.36364,0.05,2.7169e-06,27.15,2.0862e-06,15.675,-6.5021e-12,-0.00018022,-2.0862e-06,-15.675,0.013059
18283,1.5611,0.18182,0,0.00060568,6052.6,0.00020228,12.041,0.00019691,-28.248,-0.00060595,-6060.6,0.010828
18284,1.6529,0.18182,0.05,4.5925e-06,45.893,3.5265e-06,26.496,5.9663e-13,-7.4707e-05,-3.5265e-06,-26.497,0.012273
18285,1.6529,0.090909,0,0.00060291,6024.9,0.00019945,4.0143,0.00019849,-3.2378,-0.00060289,-6024.5,0.011872
18286,1.4692,5.7273,0,0.0005992,5987.8,0.0002037,2.866,0.00018785,-116.24,-0.00060104,-6043.6,0.0098169
18287,1.3774,5.8182,0,0.00060729,6068.7,0.0002031,18.558,0.00019756,-23.056,-0.00060736,-6070.9,0.0081647
18288,1.4692,5.8182,0.05,4.7753e-06,47.72,3.6669e-06,27.551,3.0079e-12,8.6267e-05,-3.6668e-06,-27.551,0.0094114
18289,1.4692,5.9091,0,0.00060469,6042.7,0.00020046,10.386,0.00019895,-0.95112,-0.00060453,-6038,0.0090468
18290,1.4692,5.5455,0,0.00058545,5850.5,0.0002087,1.0032,0.00016656,-315.63,-0.00059016,-6001.3,0.010475
18291,1.3774,5.6364,0,0.00059096,5905.5,0.00020624,1.8681,0.00017596,-225.64,-0.00059444,-6014.1,0.0088386
18292,1.4692,5.6364,0.05,3.0233e-06,30.213,2.3215e-06,17.443,2.8839e-11,0.00018074,-2.3216e-06,-17.443,0.010125
18293,1.4692,5.3636,0,0.00057434,5739.4,0.00021432,0.42836,0.00014623,-511.16,-0.00058131,-5977.6,0.011034
18294,1.3774,5.4545,0,0.00057861,5782.1,0.00021217,0.70074,0.0001541,-435.61,-0.00058477,-5987.2,0.0094084
18295,1.4692,5.4545,0.05,3.1551e-06,31.529,2.4227e-06,18.204,1.4426e-11,0.00018224,-2.4228e-06,-18.204,0.010733
18296,1.4692,5.1818,0,0.00056509,5647,0.00022017,0.27239,0.00012676,-701.55,-0.00057374,-5964.9,0.011507
18297,1.3774,5.2727,0,0.00056837,5679.8,0.00021855,0.52704,0.00013292,-642.86,-0.00057656,-5973.6,0.0098876
18298,1.4692,5.2727,0.05,3.2045e-06,32.023,2.4607e-06,18.489,2.8466e-11,0.00023478,-2.4607e-06,-18.489,0.011247
18299,1.4692,5,0,0.00055784,5574.5,0.00022598,0.15217,0.00010877,-880.54,-0.00056757,-5962.3,0.011904
18300,1.3774,5.0909,0,0.00056041,5600.2,0.00022498,0.35962,0.00011321,-839.44,-0.00056993,-5972.3,0.010289
18301,1.4692,5.0909,0.05,3.1959e-06,31.937,2.454e-06,18.439,1.9635e-11,0.00022385,-2.454e-06,-18.439,0.011681
18302,1.4692,4.8182,0,0.00055254,5521.6,0.00023156,0.085977,9.2709e-05,-1043.2,-0.00056284,-5968.8,0.012238
18303,1.3774,4.9091,0,0.00055473,5543.5,0.00023121,0.28014,9.5596e-05,-1018.7,-0.00056498,-5982,0.010624
18304,1.4692,4.9091,0.05,3.1599e-06,31.578,2.4264e-06,18.231,1.6214e-11,0.00010085,-2.4264e-06,-18.231,0.012045
18305,1.4692,4.6364,0,0.00054901,5486.3,0.00023676,0.045533,7.8789e-05,-1186.9,-0.00055948,-5982.6,0.012517
18306,1.3774,4.7273,0,0.00055112,5507.4,0.00023704,0.23086,8.0379e-05,-1176.9,-0.00056162,-6000.6,0.010903
18307,1.4692,4.7273,0.05,3.1233e-06,31.211,2.3983e-06,18.02,9.2672e-12,9.9156e-05,-2.3983e-06,-18.02,0.01235
18308,1.4692,4.4545,0,0.00054692,5465.4,0.00024147,0.023318,6.7024e-05,-1310.7,-0.00055729,-6001.6,0.012748
18309,1.3774,4.5455,0,0.0005492,5488.2,0.00024236,0.2055,6.758e-05,-1313,-0.00055961,-6025.5,0.011134
18310,1.4692,4.5455,0.05,3.1001e-06,30.979,2.3805e-06,17.886,1.1319e-11,4.6741e-05,-2.3805e-06,-17.886,0.012603
18311,1.4692,4.2727,0,0.00054592,5455.4,0.00024565,0.011563,5.7292e-05,-1415.2,-0.00055604,-6023.6,0.01294
18312,1.3774,4.3636,0,0.00054852,5481.5,0.00024708,0.1926,5.7047e-05,-1427.6,-0.00055867,-6053.9,0.011324
18313,1.4692,4.3636,0.05,3.0938e-06,30.916,2.3756e-06,17.85,8.3233e-12,4.4231e-05,-2.3756e-06,-17.85,0.012814
18314,1.4692,4.0909,0,0.00054568,5453,0.00024926,0.0058815,4.9403e-05,-1501.6,-0.00055548,-6046.5,0.013096
18315,1.3774,4.1818,0,0.0005487,5483.2,0.00025118,0.18682,4.854e-05,-1522.4,-0.00055849,-6083.4,0.011481
18316,1.4692,4.1818,0.05,3.1013e-06,30.992,2.3814e-06,17.893,3.0654e-12,1.3685e-05,-2.3814e-06,-17.893,0.012987
18317,1.4692,3.9091,0,0.00054591,5455.3,0.0002523,0.0034227,4.3144e-05,-1571.5,-0.00055538,-6068.6,0.013222
18318,1.3774,4,0,0.00054938,5490,0.00025466,0.18459,4.1794e-05,-1599.2,-0.00055881,-6112,0.011607
18319,1.4692,4,0.05,3.1175e-06,31.153,2.3938e-06,17.986,-1.1686e-12,5.8142e-05,-2.3938e-06,-17.986,0.013127
18320,1.4692,3.7273,0,0.00054638,5460,0.00025476,0.0025733,3.8315e-05,-1626.3,-0.00055556,-6088.4,0.01332
18321,1.3774,3.8182,0,0.0005503,5499.2,0.00025753,0.18402,3.6561e-05,-1660.1,-0.00055939,-6137.8,0.011707
18322,1.4692,3.8182,0.05,3.1371e-06,31.349,2.4089e-06,18.099,5.5685e-14,3.0676e-05,-2.4089e-06,-18.099,0.013239
18323,1.4692,3.5455,0,0.00054691,5465.4,0.00025666,0.0024364,3.4743e-05,-1667.4,-0.00055584,-6104.9,0.013394
18324,1.3774,3.6364,0,0.00055124,5508.6,0.00025979,0.18413,3.2627e-05,-1706.6,-0.00056006,-6159.8,0.011784
18325,1.4692,3.6364,0.05,3.1562e-06,31.54,2.4236e-06,18.21,-6.5363e-13,1.6208e-05,-2.4236e-06,-18.21,0.013324
18326,1.4692,3.3636,0,0.00054738,5470,0.00025801,0.0025471,3.2289e-05,-1696,-0.00055613,-6117.1,0.013446
18327,1.3774,3.4545,0,0.00055207,5516.8,0.00026147,0.18442,2.9823e-05,-1740.3,-0.00056066,-6177,0.01184
18328,1.4692,3.4545,0.05,3.1723e-06,31.701,2.4359e-06,18.303,-1.0975e-12,9.6879e-06,-2.4359e-06,-18.303,0.013387
18329,1.4692,3.1818,0,0.00054769,5473.2,0.00025882,0.0026782,3.0855e-05,-1712.8,-0.00055633,-6124.7,0.013476
18330,1.3774,3.2727,0,0.00055267,5522.8,0.00026258,0.18468,2.8021e-05,-1762.2,-0.00056112,-6188.8,0.011876
18331,1.4692,3.2727,0.05,3.1837e-06,31.815,2.4447e-06,18.368,-4.7891e-13,3.3138e-06,-2.4447e-06,-18.368,0.013428
18332,1.4692,3,0,0.0005478,5474.2,0.00025909,0.002731,3.0384e-05,-1718.4,-0.00055641,-6127.3,0.013486
18333,1.3774,3.0909,0,0.00055298,5526,0.00026313,0.18482,2.7141e-05,-1773,-0.00056136,-6194.7,0.011894
18334,1.4692,3.0909,0.05,3.1896e-06,31.874,2.4492e-06,18.402,-2.8924e-13,1.6325e-05,-2.4492e-06,-18.402,0.013448
18335,1.4692,2.8182,0,0.00054769,5473.2,0.00025882,0.0026783,3.0855e-05,-1712.8,-0.00055633,-6124.7,0.013476
18336,1.3774,2.9091,0,0.00055298,5526,0.00026313,0.18482,2.7141e-05,-1773,-0.00056136,-6194.7,0.011894
18337,1.4692,2.9091,0.05,3.1896e-06,31.874,2.4492e-06,18.402,-5.9051e-13,-1.0858e-06,-2.4492e-06,-18.402,0.013448
18338,1.4692,2.6364,0,0.00054738,5470,0.00025801,0.0025473,3.2289e-05,-1696,-0.00055613,-6117.1,0.013446
18339,1.3774,2.7273,0,0.00055267,5522.8,0.00026258,0.18468,2.8021e-05,-1762.2,-0.00056112,-6188.8,0.011876
18340,1.4692,2.7273,0.05,3.1837e-06,31.815,2.4447e-06,18.368,-4.6911e-13,-3.3138e-06,-2.4447e-06,-18.368,0.013428
18341,1.4692,2.4545,0,0.00054691,5465.4,0.00025666,0.0024365,3.4743e-05,-1667.4,-0.00055584,-6104.9,0.013394
18342,1.3774,2.5455,0,0.00055207,5516.8,0.00026147,0.18442,2.9823e-05,-1740.3,-0.00056066,-6177,0.01184
18343,1.4692,2.5455,0.05,3.1723e-06,31.701,2.4359e-06,18.303,-3.8527e-13,-5.5334e-06,-2.4359e-06,-18.303,0.013387
18344,1.4692,2.2727,0,0.00054638,5460,0.00025476,0.0025733,3.8315e-05,-1626.3,-0.00055556,-6088.4,0.01332
18345,1.3774,2.3636,0,0.00055124,5508.6,0.00025979,0.18413,3.2627e-05,-1706.6,-0.00056006,-6159.8,0.011784
18346,1.4692,2.3636,0.05,3.1562e-06,31.54,2.4236e-06,18.21,-7.7366e-14,-1.6208e-05,-2.4236e-06,-18.21,0.013324
18347,1.4692,2.0909,0,0.00054591,5455.3,0.0002523,0.0034228,4.3144e-05,-1571.5,-0.00055538,-6068.6,0.013222
18348,1.3774,2.1818,0,0.0005503,5499.2,0.00025753,0.18402,3.6561e-05,-1660.1,-0.00055939,-6137.8,0.011707
18349,1.4692,2.1818,0.05,3.1371e-06,31.349,2.4089e-06,18.099,-1.1826e-12,-8.6802e-06,-2.4089e-06,-18.099,0.013239
18350,1.4692,1.9091,0,0.00054568,5453,0.00024926,0.0058816,4.9403e-05,-1501.6,-0.00055548,-6046.5,0.013096
18351,1.3774,2,0,0.00054938,5490,0.00025466,0.18459,4.1794e-05,-1599.2,-0.00055881,-6112,0.011607
18352,1.4692,2,0.05,3.1175e-06,31.153,2.3938e-06,17.986,-3.1872e-13,-4.6595e-05,-2.3938e-06,-17.986,0.013127
18353,1.4692,1.7273,0,0.00054592,5455.4,0.00024565,0.011564,5.7292e-05,-1415.2,-0.00055604,-6023.6,0.01294
18354,1.3774,1.8182,0,0.0005487,5483.2,0.00025118,0.18682,4.854e-05,-1522.4,-0.00055849,-6083.4,0.011481
18355,1.4692,1.8182,0.05,3.1013e-06,30.992,2.3814e-06,17.893,-2.3484e-12,-3.0704e-05,-2.3814e-06,-17.893,0.012987
18356,1.4692,1.5455,0,0.00054692,5465.4,0.00024147,0.023318,6.7024e-05,-1310.7,-0.00055729,-6001.6,0.012748
18357,1.3774,1.6364,0,0.00054852,5481.5,0.00024708,0.1926,5.7047e-05,-1427.6,-0.00055867,-6053.9,0.011324
18358,1.4692,1.6364,0.05,3.0938e-06,30.916,2.3756e-06,17.85,-3.2162e-12,-1.1159e-05,-2.3756e-06,-17.85,0.012814
18359,1.4692,1.3636,0,0.00054901,5486.3,0.00023676,0.045533,7.8789e-05,-1186.9,-0.00055948,-5982.6,0.012517
18360,1.3774,1.4545,0,0.0005492,5488.2,0.00024236,0.2055,6.758e-05,-1313,-0.00055961,-6025.5,0.011134
18361,1.4692,1.4545,0.05,3.1001e-06,30.979,2.3805e-06,17.886,-2.9018e-12,-4.6741e-05,-2.3805e-06,-17.886,0.012603
18362,1.4692,1.1818,0,0.00055254,5521.6,0.00023156,0.085978,9.2709e-05,-1043.2,-0.00056284,-5968.8,0.012238
18363,1.3774,1.2727,0,0.00055112,5507.4,0.00023704,0.23086,8.0379e-05,-1176.9,-0.00056162,-6000.6,0.010903
18364,1.4692,1.2727,0.05,3.1233e-06,31.211,2.3983e-06,18.02,-3.7655e-12,-9.3801e-05,-2.3983e-06,-18.02,0.01235
18365,1.4692,1,0,0.00055784,5574.5,0.00022598,0.15217,0.00010877,-880.54,-0.00056757,-5962.3,0.011904
18366,1.3774,1.0909,0,0.00055473,5543.5,0.00023121,0.28014,9.5596e-05,-1018.7,-0.00056498,-5982,0.010624
18367,1.4692,1.0909,0.05,3.1599e-06,31.578,2.4264e-06,18.231,6.1681e-14,-0.00010085,-2.4264e-06,-18.231,0.012045
18368,1.4692,0.81818,0,0.00056509,5647,0.00022017,0.27239,0.00012676,-701.55,-0.00057374,-5964.9,0.011507
18369,1.3774,0.90909,0,0.00056041,5600.2,0.00022498,0.35962,0.00011321,-839.44,-0.00056993,-5972.3,0.010289
18370,1.4692,0.90909,0.05,3.1959e-06,31.937,2.454e-06,18.439,-5.9188e-12,-0.00016537,-2.454e-06,-18.439,0.011681
18371,1.4692,0.63636,0,0.00057434,5739.4,0.00021432,0.42836,0.00014623,-511.15,-0.00058131,-5977.6,0.011034
18372,1.3774,0.72727,0,0.00056837,5679.8,0.00021855,0.52704,0.00013292,-642.86,-0.00057656,-5973.6,0.0098876
18373,1.4692,0.72727,0.05,3.2045e-06,32.023,2.4607e-06,18.489,-2.086e-11,-0.00017705,-2.4607e-06,-18.489,0.011247
18374,1.4692,0.45455,0,0.00058545,5850.5,0.0002087,1.0032,0.00016656,-315.63,-0.00059016,-6001.3,0.010475
18375,1.3774,0.54545,0,0.00057861,5782.1,0.00021217,0.70074,0.0001541,-435.61,-0.00058477,-5987.2,0.0094084
18376,1.4692,0.54545,0.05,3.1551e-06,31.529,2.4227e-06,18.204,-1.4456e-11,-0.00018205,-2.4227e-06,-18.204,0.010733
18377,1.4692,0.27273,0,0.0005992,5987.8,0.0002037,2.866,0.00018785,-116.24,-0.00060104,-6043.6,0.0098169
18378,1.3774,0.36364,0,0.00059096,5905.5,0.00020624,1.8681,0.00017596,-225.64,-0.00059444,-6014.1,0.0088386
18379,1.4692,0.36364,0.05,3.0233e-06,30.213,2.3216e-06,17.443,-7.3404e-12,-0.00018074,-2.3215e-06,-17.443,0.010125
18380,1.3774,0.18182,0,0.00060729,6068.7,0.0002031,18.558,0.00019756,-23.056,-0.00060736,-6070.9,0.0081647
18381,1.4692,0.18182,0.05,4.7753e-06,47.72,3.6669e-06,27.551,-4.3694e-13,-4.3134e-05,-3.6669e-06,-27.551,0.0094114
18382,1.4692,0.090909,0,0.00060469,6042.7,0.00020046,10.386,0.00019895,-0.95112,-0.00060453,-6038,0.0090468
18383,1.2856,5.7273,0,0.00059896,5985.5,0.00020378,3.6546,0.00018757,-118.14,-0.00060082,-6041.8,0.0073121
18384,1.1938,5.8182,0,0.00060638,6059.7,0.00020344,28.671,0.00019709,-19.024,-0.00060621,-6054.7,0.0058971
18385,1.2856,5.8182,0.05,4.9257e-06,49.223,3.7823e-06,28.419,5.071e-12,0.00010357,-3.7823e-06,-28.419,0.0069466
18386,1.2856,5.9091,0,0.00060428,6038.7,0.00020114,20.61,0.00019838,-0.1639,-0.00060393,-6028.4,0.006622
18387,1.2856,5.5455,0,0.00058404,5836.4,0.00020968,1.359,0.00016359,-344.96,-0.00058911,-6000.4,0.0078927
18388,1.1938,5.6364,0,0.00058829,5878.8,0.00020626,1.8887,0.00017351,-244.23,-0.00059202,-5996.1,0.0064886
18389,1.2856,5.6364,0.05,3.4655e-06,34.631,2.661e-06,19.994,1.4519e-11,0.00018306,-2.6611e-06,-19.994,0.0075814
18390,1.2856,5.3636,0,0.00057254,5721.4,0.00021639,0.74794,0.00014083,-566.99,-0.00058005,-5983.4,0.0083782
18391,1.1938,5.4545,0,0.0005753,5749,0.00021342,0.45195,0.00014875,-485.48,-0.000582,-5976.1,0.0069799
18392,1.2856,5.4545,0.05,3.6269e-06,36.244,2.785e-06,20.925,2.9127e-11,0.00018293,-2.785e-06,-20.925,0.0081132
18393,1.2856,5.1818,0,0.00056357,5631.8,0.00022335,0.59184,0.00011937,-780.68,-0.00057276,-5981,0.0087822
18394,1.1938,5.2727,0,0.00056525,5648.6,0.00022112,0.19394,0.00012513,-721.01,-0.00057405,-5974.4,0.0073859
18395,1.2856,5.2727,0.05,3.6361e-06,36.336,2.7921e-06,20.978,1.3961e-11,0.00011876,-2.7921e-06,-20.978,0.0085563
18396,1.2856,5,0,0.00055719,5568.1,0.0002302,0.47528,0.00010001,-977.72,-0.00056733,-5991.9,0.0091174
18397,1.1938,5.0909,0,0.00055827,5578.9,0.0002288,-0.024894,0.00010375,-939.57,-0.00056829,-5989,0.0077201
18398,1.2856,5.0909,0.05,3.5742e-06,35.717,2.7445e-06,20.621,1.9714e-11,0.00016531,-2.7445e-06,-20.621,0.0089242
18399,1.2856,4.8182,0,0.00055322,5528.3,0.00023669,0.4175,8.3225e-05,-1152.7,-0.00056372,-6013.5,0.0093948
18400,1.1938,4.9091,0,0.00055417,5537.9,0.00023611,-0.13121,8.528e-05,-1133.4,-0.00056468,-6017,0.0079949
18401,1.2856,4.9091,0.05,3.4939e-06,34.915,2.6829e-06,20.158,1.2024e-11,0.00020532,-2.6829e-06,-20.158,0.0092289
18402,1.2856,4.6364,0,0.00055124,5508.5,0.00024264,0.38598,6.9117e-05,-1303.4,-0.0005617,-6043.1,0.009624
18403,1.1938,4.7273,0,0.00055243,5520.5,0.00024284,-0.19653,6.9884e-05,-1299.7,-0.00056295,-6054.6,0.0082206
18404,1.2856,4.7273,0.05,3.43e-06,34.276,2.6338e-06,19.79,8.7277e-12,0.00014807,-2.6338e-06,-19.79,0.0094806
18405,1.2856,4.4545,0,0.00055075,5503.7,0.00024796,0.37156,5.7547e-05,-1430.3,-0.00056093,-6077.4,0.0098125
18406,1.1938,4.5455,0,0.00055244,5520.6,0.00024886,-0.23263,5.738e-05,-1438.9,-0.00056267,-6097.7,0.0084055
18407,1.2856,4.5455,0.05,3.3945e-06,33.922,2.6066e-06,19.585,1.0089e-11,4.9744e-05,-2.6066e-06,-19.585,0.0096882
18408,1.2856,4.2727,0,0.00055127,5508.8,0.00025261,0.36566,4.8241e-05,-1535.2,-0.00056107,-6113.3,0.0099669
18409,1.1938,4.3636,0,0.00055358,5532,0.00025412,-0.25402,4.7416e-05,-1553.4,-0.0005634,-6142.8,0.0085566
18410,1.2856,4.3636,0.05,3.3849e-06,33.826,2.5992e-06,19.529,4.8456e-12,4.6921e-05,-2.5992e-06,-19.529,0.0098586
18411,1.2856,4.0909,0,0.00055238,5519.9,0.00025659,0.36399,4.0881e-05,-1620.4,-0.00056178,-6148.5,0.010092
18412,1.1938,4.1818,0,0.00055536,5549.8,0.00025864,-0.2671,3.9593e-05,-1646.1,-0.00056474,-6186.8,0.0086793
18413,1.2856,4.1818,0.05,3.3928e-06,33.905,2.6053e-06,19.575,6.4312e-12,7.2075e-05,-2.6053e-06,-19.575,0.0099975
18414,1.2856,3.9091,0,0.00055375,5533.7,0.00025989,0.36407,3.5165e-05,-1688.2,-0.00056278,-6180.9,0.010192
18415,1.1938,4,0,0.00055739,5570.1,0.00026242,-0.27571,3.3538e-05,-1720,-0.00056636,-6227.4,0.0087779
18416,1.2856,4,0.05,3.4098e-06,34.074,2.6183e-06,19.673,-5.7388e-13,1.1525e-05,-2.6183e-06,-19.673,0.010109
18417,1.2856,3.7273,0,0.00055514,5547.6,0.00026256,0.36473,3.0831e-05,-1740.7,-0.00056385,-6209,0.01027
18418,1.1938,3.8182,0,0.0005594,5590.1,0.0002655,-0.2817,2.8934e-05,-1777.7,-0.00056802,-6263,0.0088557
18419,1.2856,3.8182,0.05,3.4294e-06,34.27,2.6334e-06,19.786,-4.9475e-13,2.92e-05,-2.6334e-06,-19.786,0.010198
18420,1.2856,3.5455,0,0.00055638,5560,0.0002646,0.36543,2.7668e-05,-1779.8,-0.00056484,-6231.7,0.010329
18421,1.1938,3.6364,0,0.00056118,5607.9,0.00026792,-0.286,2.5528e-05,-1821.5,-0.00056952,-6292.5,0.0089152
18422,1.2856,3.6364,0.05,3.4478e-06,34.454,2.6475e-06,19.892,-1.8751e-13,2.5409e-05,-2.6475e-06,-19.892,0.010266
18423,1.2856,3.3636,0,0.00055734,5569.5,0.00026604,0.36597,2.5518e-05,-1806.8,-0.00056561,-6248.4,0.01037
18424,1.1938,3.4545,0,0.00056261,5622.2,0.0002697,-0.28904,2.3129e-05,-1852.9,-0.00057074,-6315,0.0089583
18425,1.2856,3.4545,0.05,3.4627e-06,34.603,2.6589e-06,19.978,-2.6155e-13,8.2185e-06,-2.6589e-06,-19.978,0.010315
18426,1.2856,3.1818,0,0.00055794,5575.6,0.0002669,0.3663,2.4271e-05,-1822.6,-0.00056611,-6258.5,0.010394
18427,1.1938,3.2727,0,0.00056361,5632.2,0.00027088,-0.291,2.1601e-05,-1873.2,-0.0005716,-6330.3,0.0089863
18428,1.2856,3.2727,0.05,3.473e-06,34.706,2.6668e-06,20.037,-5.0645e-13,3.552e-06,-2.6668e-06,-20.037,0.010347
18429,1.2856,3,0,0.00055815,5577.6,0.00026718,0.3664,2.3862e-05,-1827.9,-0.00056628,-6261.9,0.010401
18430,1.1938,3.0909,0,0.00056412,5637.3,0.00027146,-0.29197,2.0858e-05,-1883.2,-0.00057204,-6338,0.0090001
18431,1.2856,3.0909,0.05,3.4782e-06,34.758,2.6708e-06,20.067,-7.8153e-13,1.6193e-05,-2.6708e-06,-20.067,0.010363
18432,1.2856,2.8182,0,0.00055794,5575.6,0.0002669,0.3663,2.4271e-05,-1822.6,-0.00056611,-6258.5,0.010394
18433,1.1938,2.9091,0,0.00056412,5637.3,0.00027146,-0.29197,2.0858e-05,-1883.2,-0.00057204,-6338,0.0090001
18434,1.2856,2.9091,0.05,3.4782e-06,34.758,2.6708e-06,20.067,-8.0634e-13,-9.5176e-07,-2.6708e-06,-20.067,0.010363
18435,1.2856,2.6364,0,0.00055734,5569.5,0.00026604,0.36597,2.5518e-05,-1806.8,-0.00056561,-6248.4,0.01037
18436,1.1938,2.7273,0,0.00056361,5632.2,0.00027088,-0.291,2.1601e-05,-1873.2,-0.0005716,-6330.3,0.0089863
18437,1.2856,2.7273,0.05,3.473e-06,34.706,2.6668e-06,20.037,-1.4538e-13,-2.9127e-06,-2.6668e-06,-20.037,0.010347
18438,1.2856,2.4545,0,0.00055638,5560,0.0002646,0.36543,2.7668e-05,-1779.8,-0.00056484,-6231.7,0.010329
18439,1.1938,2.5455,0,0.00056261,5622.2,0.0002697,-0.28904,2.3129e-05,-1852.9,-0.00057074,-6315,0.0089583
18440,1.2856,2.5455,0.05,3.4627e-06,34.603,2.6589e-06,19.978,-1.7956e-13,-4.5556e-06,-2.6589e-06,-19.978,0.010315
18441,1.2856,2.2727,0,0.00055514,5547.6,0.00026256,0.36473,3.0831e-05,-1740.7,-0.00056385,-6209,0.01027
18442,1.1938,2.3636,0,0.00056118,5607.9,0.00026792,-0.286,2.5528e-05,-1821.5,-0.00056952,-6292.5,0.0089152
18443,1.2856,2.3636,0.05,3.4478e-06,34.454,2.6475e-06,19.892,-3.3818e-13,-2.5409e-05,-2.6475e-06,-19.892,0.010266
18444,1.2856,2.0909,0,0.00055375,5533.7,0.00025989,0.36407,3.5165e-05,-1688.2,-0.00056278,-6180.9,0.010192
18445,1.1938,2.1818,0,0.0005594,5590.1,0.0002655,-0.2817,2.8934e-05,-1777.7,-0.00056802,-6263,0.0088557
18446,1.2856,2.1818,0.05,3.4294e-06,34.27,2.6334e-06,19.786,-7.2245e-13,-1.486e-05,-2.6334e-06,-19.786,0.010198
18447,1.2856,1.9091,0,0.00055238,5519.9,0.00025659,0.36399,4.0881e-05,-1620.4,-0.00056178,-6148.5,0.010092
18448,1.1938,2,0,0.00055739,5570.1,0.00026242,-0.27571,3.3538e-05,-1720,-0.00056636,-6227.4,0.0087779
18449,1.2856,2,0.05,3.4098e-06,34.074,2.6183e-06,19.673,-1.1221e-12,-5.7625e-06,-2.6183e-06,-19.673,0.010109
18450,1.2856,1.7273,0,0.00055127,5508.8,0.00025261,0.36566,4.8241e-05,-1535.2,-0.00056107,-6113.3,0.0099669
18451,1.1938,1.8182,0,0.00055536,5549.8,0.00025864,-0.2671,3.9593e-05,-1646.1,-0.00056474,-6186.8,0.0086793
18452,1.2856,1.8182,0.05,3.3928e-06,33.905,2.6053e-06,19.575,-4.0123e-12,-4.4967e-05,-2.6053e-06,-19.575,0.0099975
18453,1.2856,1.5455,0,0.00055075,5503.7,0.00024796,0.37156,5.7547e-05,-1430.3,-0.00056093,-6077.4,0.0098125
18454,1.1938,1.6364,0,0.00055358,5532,0.00025412,-0.25402,4.7416e-05,-1553.4,-0.0005634,-6142.8,0.0085566
18455,1.2856,1.6364,0.05,3.3849e-06,33.826,2.5992e-06,19.529,-1.7156e-12,-1.105e-05,-2.5992e-06,-19.529,0.0098586
18456,1.2856,1.3636,0,0.00055124,5508.5,0.00024264,0.38598,6.9117e-05,-1303.4,-0.0005617,-6043.1,0.009624
18457,1.1938,1.4545,0,0.00055244,5520.6,0.00024886,-0.23263,5.738e-05,-1438.9,-0.00056267,-6097.7,0.0084055
18458,1.2856,1.4545,0.05,3.3945e-06,33.922,2.6066e-06,19.585,-3.4425e-12,-8.428e-05,-2.6066e-06,-19.585,0.0096882
18459,1.2856,1.1818,0,0.00055322,5528.3,0.00023669,0.4175,8.3225e-05,-1152.7,-0.00056372,-6013.5,0.0093948
18460,1.1938,1.2727,0,0.00055243,5520.5,0.00024284,-0.19653,6.9884e-05,-1299.7,-0.00056295,-6054.6,0.0082206
18461,1.2856,1.2727,0.05,3.43e-06,34.276,2.6338e-06,19.79,-4.3198e-12,-0.00010649,-2.6338e-06,-19.79,0.0094806
18462,1.2856,1,0,0.00055719,5568.1,0.0002302,0.47528,0.00010001,-977.72,-0.00056733,-5991.9,0.0091174
18463,1.1938,1.0909,0,0.00055417,5537.9,0.00023611,-0.13121,8.528e-05,-1133.4,-0.00056468,-6017,0.0079949
18464,1.2856,1.0909,0.05,3.4939e-06,34.915,2.6829e-06,20.158,-1.1474e-11,-0.00010266,-2.6829e-06,-20.158,0.0092289
18465,1.2856,0.81818,0,0.00056357,5631.8,0.00022335,0.59184,0.00011937,-780.68,-0.00057276,-5981,0.0087822
18466,1.1938,0.90909,0,0.00055827,5578.9,0.0002288,-0.024894,0.00010375,-939.57,-0.00056829,-5989,0.0077201
18467,1.2856,0.90909,0.05,3.5742e-06,35.717,2.7445e-06,20.621,-1.3323e-11,-0.00022493,-2.7445e-06,-20.621,0.0089242
18468,1.2856,0.63636,0,0.00057254,5721.4,0.00021639,0.74794,0.00014083,-566.99,-0.00058005,-5983.4,0.0083782
18469,1.1938,0.72727,0,0.00056525,5648.6,0.00022112,0.19394,0.00012513,-721.01,-0.00057405,-5974.4,0.0073859
18470,1.2856,0.72727,0.05,3.6361e-06,36.336,2.7921e-06,20.978,-6.9311e-12,-0.00023753,-2.7921e-06,-20.978,0.0085563
18471,1.2856,0.45455,0,0.00058404,5836.4,0.00020968,1.359,0.00016359,-344.96,-0.00058911,-6000.4,0.0078927
18472,1.1938,0.54545,0,0.0005753,5749,0.00021342,0.45195,0.00014875,-485.48,-0.000582,-5976.1,0.0069799
18473,1.2856,0.54545,0.05,3.6269e-06,36.244,2.785e-06,20.925,-1.4589e-11,-0.00018388,-2.785e-06,-20.925,0.0081132
18474,1.2856,0.27273,0,0.00059896,5985.5,0.00020378,3.6546,0.00018757,-118.14,-0.00060082,-6041.8,0.0073121
18475,1.1938,0.36364,0,0.00058829,5878.8,0.00020626,1.8887,0.00017351,-244.23,-0.00059202,-5996.1,0.0064886
18476,1.2856,0.36364,0.05,3.4655e-06,34.631,2.661e-06,19.994,-2.1794e-11,-0.00012204,-2.661e-06,-19.994,0.0075814
18477,1.1938,0.18182,0,0.00060638,6059.7,0.00020344,28.671,0.00019709,-19.024,-0.00060621,-6054.7,0.0058971
18478,1.2856,0.18182,0.05,4.9257e-06,49.223,3.7823e-06,28.419,-6.1183e-12,-7.7681e-05,-3.7823e-06,-28.419,0.0069466
18479,1.2856,0.090909,0,0.00060428,6038.7,0.00020114,20.61,0.00019838,-0.1639,-0.00060393,-6028.4,0.006622
18480,1.1019,5.7273,0,0.00059557,5951.6,0.00020287,3.9922,0.00018614,-121.73,-0.00059748,-6009.5,0.0051976
18481,1.0101,5.8182,0,0.00060171,6013,0.00020298,43.518,0.00019507,-15.935,-0.00060122,-5998.9,0.0040214
18482,1.1019,5.8182,0.05,5.0461e-06,50.426,3.8748e-06,29.114,1.2161e-11,0.00013044,-3.8748e-06,-29.113,0.0048761
18483,1.1019,5.9091,0,0.00060066,6002.5,0.00020105,33.955,0.00019653,0.0016704,-0.00060007,-5985.4,0.0045952
18484,1.1019,5.5455,0,0.00057942,5790.2,0.00020997,0.71921,0.00015877,-383.99,-0.00058498,-5972.2,0.0056945
18485,1.0101,5.6364,0,0.00058169,5812.9,0.00020545,3.312,0.00016908,-269.98,-0.00058574,-5941.4,0.0045234
18486,1.1019,5.6364,0.05,4.1289e-06,41.26,3.1704e-06,23.822,1.4076e-11,0.00017465,-3.1705e-06,-23.822,0.0054251
18487,1.1019,5.3636,0,0.00056785,5674.6,0.00021815,-0.16625,0.00013309,-639.26,-0.00057603,-5967.3,0.0061016
18488,1.0101,5.4545,0,0.00056841,5680.2,0.00021441,2.0004,0.00014069,-551.95,-0.00057574,-5934.9,0.0049309
18489,1.1019,5.4545,0.05,4.2822e-06,42.793,3.2882e-06,24.706,2.8875e-11,0.00018159,-3.2882e-06,-24.706,0.0058755
18490,1.1019,5.1818,0,0.00055979,5594.1,0.00022657,-0.45078,0.0001095,-880.03,-0.00056956,-5982.2,0.0064338
18491,1.0101,5.2727,0,0.00055937,5589.8,0.00022393,1.8606,0.00011435,-821.45,-0.00056874,-5953.9,0.0052599
18492,1.1019,5.2727,0.05,4.1972e-06,41.943,3.2229e-06,24.216,1.4294e-11,6.2143e-05,-3.2229e-06,-24.216,0.0062432
18493,1.1019,5,0,0.00055511,5547.2,0.00023471,-0.64654,8.8969e-05,-1095.7,-0.00056559,-6013.7,0.0067045
18494,1.0101,5.0909,0,0.00055445,5540.6,0.00023321,1.7244,9.1509e-05,-1063,-0.00056477,-5994,0.0055252
18495,1.1019,5.0909,0.05,4.0406e-06,40.378,3.1027e-06,23.312,6.5718e-12,0.00022518,-3.1027e-06,-23.312,0.0065427
18496,1.1019,4.8182,0,0.00055327,5528.9,0.00024226,-0.75421,7.1872e-05,-1281,-0.00056384,-6057.5,0.0069252
18497,1.0101,4.9091,0,0.000553,5526.2,0.00024184,1.6867,7.271e-05,-1269.1,-0.00056349,-6049.2,0.0057393
18498,1.1019,4.9091,0.05,3.8948e-06,38.921,2.9907e-06,22.471,1.8488e-11,0.00015391,-2.9907e-06,-22.471,0.0067865
18499,1.1019,4.6364,0,0.00055356,5531.8,0.00024906,-0.82068,5.8077e-05,-1435.8,-0.00056385,-6108.7,0.007105
18500,1.0101,4.7273,0,0.00055406,5536.8,0.00024957,1.6746,5.7777e-05,-1439.4,-0.00056426,-6113.1,0.0059124
18501,1.1019,4.7273,0.05,3.7965e-06,37.939,2.9153e-06,21.904,4.8288e-12,0.00013014,-2.9153e-06,-21.904,0.0069852
18502,1.1019,4.4545,0,0.00055522,5548.4,0.00025502,-0.86173,4.7184e-05,-1562.5,-0.00056507,-6162.7,0.0072513
18503,1.0101,4.5455,0,0.00055667,5562.9,0.00025634,1.6786,4.6173e-05,-1577.4,-0.00056639,-6180,0.0060524
18504,1.1019,4.5455,0.05,3.7469e-06,37.444,2.8772e-06,21.618,6.7787e-12,5.2139e-05,-2.8772e-06,-21.618,0.0071469
18505,1.1019,4.2727,0,0.00055764,5572.6,0.00026015,-0.88908,3.8713e-05,-1664.7,-0.00056701,-6215.8,0.00737
18506,1.0101,4.3636,0,0.00056008,5597,0.00026215,1.6867,3.7276e-05,-1687.9,-0.00056929,-6245.4,0.0061657
18507,1.1019,4.3636,0.05,3.7319e-06,37.293,2.8656e-06,21.531,2.3659e-12,7.6189e-05,-2.8656e-06,-21.531,0.0072782
18508,1.1019,4.0909,0,0.00056035,5599.7,0.00026447,-0.90835,3.2204e-05,-1746,-0.00056928,-6265.3,0.0074656
18509,1.0101,4.1818,0,0.00056374,5633.5,0.00026705,1.6952,3.0514e-05,-1775.5,-0.00057247,-6306.1,0.0062568
18510,1.1019,4.1818,0.05,3.7362e-06,37.336,2.8689e-06,21.556,1.46e-12,2.6924e-05,-2.8689e-06,-21.556,0.0073844
18511,1.1019,3.9091,0,0.00056302,5626.3,0.00026802,-0.92257,2.7267e-05,-1809.9,-0.00057156,-6309.2,0.0075415
18512,1.0101,4,0,0.00056727,5668.8,0.0002711,1.7024,2.5418e-05,-1844.2,-0.00057559,-6360,0.0063295
18513,1.1019,4,0.05,3.7486e-06,37.46,2.8785e-06,21.628,1.8901e-12,4.2281e-05,-2.8785e-06,-21.628,0.0074694
18514,1.1019,3.7273,0,0.00056542,5650.3,0.00027086,-0.93324,2.3596e-05,-1858.8,-0.00057365,-6346.2,0.0076005
18515,1.0101,3.8182,0,0.00057044,5700.4,0.00027436,1.708,2.1626e-05,-1897.2,-0.00057843,-6405.8,0.0063866
18516,1.1019,3.8182,0.05,3.7627e-06,37.601,2.8893e-06,21.709,-5.9231e-13,8.869e-06,-2.8893e-06,-21.709,0.0075363
18517,1.1019,3.5455,0,0.0005674,5670.1,0.00027302,-0.9411,2.0956e-05,-1894.8,-0.00057539,-6375.6,0.0076444
18518,1.0101,3.6364,0,0.00057309,5726.9,0.0002769,1.7121,1.8867e-05,-1937.1,-0.00058083,-6442.9,0.00643
18519,1.1019,3.6364,0.05,3.7753e-06,37.727,2.8989e-06,21.781,-2.6394e-13,2.3639e-05,-2.8989e-06,-21.781,0.0075873
18520,1.1019,3.3636,0,0.00056887,5684.8,0.00027453,-0.94655,1.9181e-05,-1919.6,-0.0005767,-6396.8,0.0076749
18521,1.0101,3.4545,0,0.00057513,5747.3,0.00027876,1.7148,1.6948e-05,-1965.5,-0.00058269,-6470.9,0.0064614
18522,1.1019,3.4545,0.05,3.7849e-06,37.823,2.9063e-06,21.837,-3.479e-13,2.0644e-05,-2.9063e-06,-21.837,0.0076242
18523,1.1019,3.1818,0,0.00056977,5693.8,0.00027543,-0.94975,1.8159e-05,-1934,-0.0005775,-6409.6,0.0076928
18524,1.0101,3.2727,0,0.00057652,5761.2,0.00027999,1.7165,1.5736e-05,-1983.8,-0.00058396,-6489.6,0.0064818
18525,1.1019,3.2727,0.05,3.7912e-06,37.886,2.9112e-06,21.874,-5.598e-13,2.5073e-06,-2.9112e-06,-21.874,0.0076482
18526,1.1019,3,0,0.00057007,5696.8,0.00027573,-0.95081,1.7825e-05,-1938.8,-0.00057778,-6413.9,0.0076987
18527,1.0101,3.0909,0,0.00057721,5768.2,0.00028059,1.7174,1.515e-05,-1992.7,-0.0005846,-6499,0.0064918
18528,1.1019,3.0909,0.05,3.7944e-06,37.917,2.9136e-06,21.892,-5.6813e-13,1.6031e-05,-2.9136e-06,-21.892,0.00766
18529,1.1019,2.8182,0,0.00056977,5693.8,0.00027543,-0.94975,1.8159e-05,-1934,-0.0005775,-6409.6,0.0076928
18530,1.0101,2.9091,0,0.00057721,5768.2,0.00028059,1.7174,1.515e-05,-1992.7,-0.0005846,-6499,0.0064918
18531,1.1019,2.9091,0.05,3.7944e-06,37.917,2.9136e-06,21.892,-3.2457e-13,1.4457e-05,-2.9136e-06,-21.892,0.00766
18532,1.1019,2.6364,0,0.00056887,5684.8,0.00027453,-0.94655,1.9181e-05,-1919.6,-0.0005767,-6396.8,0.0076749
18533,1.0101,2.7273,0,0.00057652,5761.2,0.00027999,1.7165,1.5736e-05,-1983.8,-0.00058396,-6489.6,0.0064818
18534,1.1019,2.7273,0.05,3.7912e-06,37.886,2.9112e-06,21.874,-2.989e-13,-2.5074e-06,-2.9112e-06,-21.874,0.0076482
18535,1.1019,2.4545,0,0.0005674,5670.1,0.00027302,-0.9411,2.0956e-05,-1894.8,-0.00057539,-6375.6,0.0076444
18536,1.0101,2.5455,0,0.00057513,5747.3,0.00027876,1.7148,1.6948e-05,-1965.5,-0.00058269,-6470.9,0.0064614
18537,1.1019,2.5455,0.05,3.7849e-06,37.823,2.9063e-06,21.837,-1.3111e-13,-4.2149e-06,-2.9063e-06,-21.837,0.0076242
18538,1.1019,2.2727,0,0.00056542,5650.3,0.00027086,-0.93324,2.3596e-05,-1858.8,-0.00057365,-6346.2,0.0076005
18539,1.0101,2.3636,0,0.00057309,5726.9,0.0002769,1.7121,1.8867e-05,-1937.1,-0.00058083,-6442.9,0.00643
18540,1.1019,2.3636,0.05,3.7753e-06,37.727,2.8989e-06,21.781,-3.8222e-13,-4.2624e-06,-2.8989e-06,-21.781,0.0075873
18541,1.1019,2.0909,0,0.00056302,5626.3,0.00026802,-0.92257,2.7267e-05,-1809.9,-0.00057156,-6309.2,0.0075415
18542,1.0101,2.1818,0,0.00057044,5700.4,0.00027436,1.708,2.1626e-05,-1897.2,-0.00057843,-6405.8,0.0063866
18543,1.1019,2.1818,0.05,3.7627e-06,37.601,2.8893e-06,21.709,-7.7797e-13,-8.869e-06,-2.8893e-06,-21.709,0.0075363
18544,1.1019,1.9091,0,0.00056035,5599.7,0.00026447,-0.90835,3.2204e-05,-1746,-0.00056928,-6265.3,0.0074656
18545,1.0101,2,0,0.00056727,5668.8,0.0002711,1.7024,2.5418e-05,-1844.2,-0.00057559,-6360,0.0063295
18546,1.1019,2,0.05,3.7486e-06,37.46,2.8785e-06,21.628,1.8227e-13,-2.9323e-05,-2.8785e-06,-21.628,0.0074694
18547,1.1019,1.7273,0,0.00055764,5572.6,0.00026015,-0.88908,3.8713e-05,-1664.7,-0.00056701,-6215.8,0.00737
18548,1.0101,1.8182,0,0.00056374,5633.5,0.00026705,1.6952,3.0514e-05,-1775.5,-0.00057247,-6306.1,0.0062568
18549,1.1019,1.8182,0.05,3.7362e-06,37.336,2.8689e-06,21.556,-1.3257e-13,-3.7781e-05,-2.8689e-06,-21.556,0.0073844
18550,1.1019,1.5455,0,0.00055522,5548.4,0.00025502,-0.86173,4.7184e-05,-1562.5,-0.00056507,-6162.7,0.0072513
18551,1.0101,1.6364,0,0.00056008,5597,0.00026215,1.6867,3.7276e-05,-1687.9,-0.00056929,-6245.4,0.0061657
18552,1.1019,1.6364,0.05,3.7319e-06,37.293,2.8656e-06,21.531,-2.9687e-12,-3.4306e-05,-2.8656e-06,-21.531,0.0072782
18553,1.1019,1.3636,0,0.00055356,5531.8,0.00024906,-0.82068,5.8077e-05,-1435.8,-0.00056385,-6108.7,0.007105
18554,1.0101,1.4545,0,0.00055667,5562.9,0.00025634,1.6786,4.6173e-05,-1577.4,-0.00056639,-6180,0.0060524
18555,1.1019,1.4545,0.05,3.7469e-06,37.443,2.8772e-06,21.618,-3.5783e-12,-6.9144e-05,-2.8772e-06,-21.618,0.0071469
18556,1.1019,1.1818,0,0.00055327,5528.9,0.00024226,-0.75421,7.1872e-05,-1281,-0.00056384,-6057.5,0.0069252
18557,1.0101,1.2727,0,0.00055406,5536.8,0.00024957,1.6746,5.7777e-05,-1439.4,-0.00056426,-6113.1,0.0059124
18558,1.1019,1.2727,0.05,3.7965e-06,37.939,2.9153e-06,21.904,-9.9191e-12,-4.5835e-05,-2.9152e-06,-21.904,0.0069852
18559,1.1019,1,0,0.00055511,5547.2,0.00023471,-0.64654,8.8969e-05,-1095.7,-0.00056559,-6013.7,0.0067045
18560,1.0101,1.0909,0,0.000553,5526.2,0.00024184,1.6867,7.271e-05,-1269.1,-0.00056349,-6049.2,0.0057393
18561,1.1019,1.0909,0.05,3.8948e-06,38.921,2.9907e-06,22.471,-6.457e-12,-0.00010253,-2.9907e-06,-22.471,0.0067865
18562,1.1019,0.81818,0,0.00055979,5594.1,0.00022657,-0.45078,0.0001095,-880.03,-0.00056956,-5982.2,0.0064338
18563,1.0101,0.90909,0,0.00055445,5540.6,0.00023321,1.7244,9.1509e-05,-1063,-0.00056477,-5994,0.0055252
18564,1.1019,0.90909,0.05,4.0406e-06,40.378,3.1027e-06,23.312,-6.7978e-12,-7.2803e-05,-3.1027e-06,-23.312,0.0065427
18565,1.1019,0.63636,0,0.00056785,5674.6,0.00021815,-0.16625,0.00013309,-639.26,-0.00057603,-5967.3,0.0061016
18566,1.0101,0.72727,0,0.00055937,5589.8,0.00022393,1.8606,0.00011435,-821.45,-0.00056874,-5953.9,0.0052599
18567,1.1019,0.72727,0.05,4.1972e-06,41.943,3.2229e-06,24.216,-7.1472e-12,-0.00018277,-3.2229e-06,-24.216,0.0062432
18568,1.1019,0.45455,0,0.00057942,5790.2,0.00020997,0.71921,0.00015877,-383.99,-0.00058498,-5972.2,0.0056945
18569,1.0101,0.54545,0,0.00056841,5680.2,0.00021441,2.0004,0.00014069,-551.95,-0.00057574,-5934.9,0.0049309
18570,1.1019,0.54545,0.05,4.2822e-06,42.793,3.2882e-06,24.706,-7.0229e-12,-0.00018156,-3.2882e-06,-24.706,0.0058755
18571,1.1019,0.27273,0,0.00059557,5951.6,0.00020287,3.9922,0.00018614,-121.73,-0.00059748,-6009.5,0.0051976
18572,1.0101,0.36364,0,0.00058169,5812.9,0.00020545,3.312,0.00016908,-269.98,-0.00058574,-5941.4,0.0045234
18573,1.1019,0.36364,0.05,4.1289e-06,41.26,3.1705e-06,23.822,-1.4076e-11,-0.00011949,-3.1704e-06,-23.822,0.0054251
18574,1.0101,0.18182,0,0.00060171,6013,0.00020298,43.518,0.00019507,-15.935,-0.00060122,-5998.9,0.0040214
18575,1.1019,0.18182,0.05,5.0461e-06,50.426,3.8748e-06,29.113,2.5415e-12,-0.00013044,-3.8748e-06,-29.114,0.0048761
18576,1.1019,0.090909,0,0.00060066,6002.5,0.00020105,33.955,0.00019653,0.0016722,-0.00060007,-5985.4,0.0045952
18577,0.91827,5.7273,0,0.00058762,5872.1,0.0002008,7.0708,0.00018284,-127.91,-0.00058956,-5931.4,0.0034683
18578,0.82644,5.8182,0,0.00059097,5905.6,0.00020098,61.695,0.00019058,-16.434,-0.00059016,-5882.6,0.0025306
18579,0.91827,5.8182,0.05,5.1726e-06,51.691,3.9719e-06,29.844,2e-11,0.0001719,-3.9719e-06,-29.844,0.0031948
18580,0.91827,5.9091,0,0.00059224,5918.3,0.0001997,51.681,0.00019296,1.0255,-0.00059133,-5891.8,0.0029615
18581,0.91827,5.5455,0,0.00057048,5700.9,0.00020984,4.2575,0.0001511,-437.15,-0.00057656,-5904.5,0.0038753
18582,0.82644,5.6364,0,0.00056878,5683.8,0.0002029,-0.40779,0.00016144,-311.96,-0.00057345,-5833.6,0.0029363
18583,0.91827,5.6364,0.05,5.1488e-06,51.452,3.9536e-06,29.706,2.6396e-11,0.00017033,-3.9536e-06,-29.706,0.0036509
18584,0.91827,5.3636,0,0.00055969,5593,0.00022018,3.9454,0.00012195,-734.13,-0.00056844,-5921.5,0.0041999
18585,0.82644,5.4545,0,0.00055599,5556.1,0.00021443,-3.3329,0.00012846,-649.29,-0.00056427,-5854.2,0.0032552
18586,0.91827,5.4545,0.05,5.1994e-06,51.958,3.9925e-06,29.998,1.3195e-11,0.00023774,-3.9925e-06,-29.998,0.0040147
18587,0.91827,5.1818,0,0.0005538,5534.2,0.00023057,4.0001,9.6297e-05,-1004.9,-0.00056388,-5965.2,0.0044582
18588,0.82644,5.2727,0,0.00054953,5491.5,0.0002264,-4.2047,9.9403e-05,-958.42,-0.00055964,-5910.2,0.003505
18589,0.91827,5.2727,0.05,4.9183e-06,49.15,3.7767e-06,28.377,1.4837e-11,0.00024641,-3.7767e-06,-28.376,0.0043038
18590,0.91827,5,0,0.00055217,5517.9,0.00024034,4.0388,7.5156e-05,-1237.1,-0.00056257,-6028.8,0.0046642
18591,0.82644,5.0909,0,0.00054846,5480.8,0.00023768,-4.8281,7.586e-05,-1220.7,-0.00055909,-5991.5,0.0037012
18592,0.91827,5.0909,0.05,4.606e-06,46.028,3.5368e-06,26.574,2.7198e-11,0.00017189,-3.5369e-06,-26.574,0.0045337
18593,0.91827,4.8182,0,0.00055367,5532.9,0.00024915,4.1049,5.8522e-05,-1428.2,-0.00056381,-6104.1,0.0048291
18594,0.82644,4.9091,0,0.00055118,5508,0.00024779,-5.1929,5.7778e-05,-1432.9,-0.00056158,-6086.5,0.0038562
18595,0.91827,4.9091,0.05,4.3726e-06,43.696,3.3576e-06,25.228,6.2457e-12,0.00015934,-3.3576e-06,-25.228,0.0047171
18596,0.91827,4.6364,0,0.00055711,5567.2,0.00025686,4.1677,4.5795e-05,-1581.7,-0.00056672,-6183.9,0.0049614
18597,0.82644,4.7273,0,0.00055609,5557.1,0.00025657,-5.444,4.4287e-05,-1600.5,-0.00056596,-6185.6,0.0039793
18598,0.91827,4.7273,0.05,4.2349e-06,42.319,3.2518e-06,24.433,1.3089e-11,1.3824e-05,-3.2518e-06,-24.433,0.004864
18599,0.91827,4.4545,0,0.0005615,5611.1,0.00026347,4.2233,3.6204e-05,-1703.4,-0.00057055,-6262.3,0.0050678
18600,0.82644,4.5455,0,0.00056196,5615.7,0.00026406,-5.6208,3.4351e-05,-1731.5,-0.00057124,-6281.7,0.0040775
18601,0.91827,4.5455,0.05,4.1672e-06,41.644,3.1999e-06,24.043,5.8672e-12,5.8529e-05,-3.1999e-06,-24.043,0.004982
18602,0.91827,4.2727,0,0.00056616,5657.7,0.00026905,4.2687,2.903e-05,-1799.1,-0.0005747,-6335.3,0.0051532
18603,0.82644,4.3636,0,0.00056796,5675.7,0.00027034,-5.7532,2.706e-05,-1833.7,-0.00057672,-6370.2,0.004156
18604,0.91827,4.3636,0.05,4.1394e-06,41.365,3.1785e-06,23.882,1.8642e-12,2.4677e-05,-3.1785e-06,-23.882,0.0050768
18605,0.91827,4.0909,0,0.00057065,5702.6,0.00027368,4.3045,2.3693e-05,-1874,-0.00057875,-6400.5,0.0052215
18606,0.82644,4.1818,0,0.00057363,5732.3,0.00027554,-5.8544,2.1711e-05,-1913,-0.00058195,-6448.7,0.0042186
18607,0.91827,4.1818,0.05,4.13e-06,41.271,3.1713e-06,23.828,2.6601e-12,3.6378e-05,-3.1713e-06,-23.828,0.0051527
18608,0.91827,3.9091,0,0.00057468,5742.9,0.00027744,4.332,1.9748e-05,-1931.8,-0.00058243,-6456.4,0.0052753
18609,0.82644,4,0,0.00057868,5782.8,0.00027978,-5.9326,1.7793e-05,-1974.4,-0.00058665,-6516,0.0042682
18610,0.91827,4,0.05,4.1275e-06,41.246,3.1694e-06,23.814,5.44e-13,4.5415e-05,-3.1694e-06,-23.814,0.0052131
18611,0.91827,3.7273,0,0.0005781,5777,0.0002804,4.3525,1.6871e-05,-1975.7,-0.00058558,-6502.3,0.005317
18612,0.82644,3.8182,0,0.00058296,5825.6,0.00028317,-5.9927,1.4939e-05,-2021.3,-0.00059067,-6571.7,0.0043069
18613,0.91827,3.8182,0.05,4.1266e-06,41.238,3.1687e-06,23.809,4.2523e-13,2.4937e-05,-3.1687e-06,-23.809,0.0052603
18614,0.91827,3.5455,0,0.00058081,5804.1,0.00028265,4.3674,1.4835e-05,-2007.9,-0.0005881,-6538.1,0.0053479
18615,0.82644,3.6364,0,0.00058642,5860.1,0.00028577,-6.0379,1.2897e-05,-2056.3,-0.00059393,-6615.8,0.0043362
18616,0.91827,3.6364,0.05,4.1256e-06,41.227,3.1679e-06,23.803,9.0969e-14,7.3473e-06,-3.1679e-06,-23.803,0.0052961
18617,0.91827,3.3636,0,0.00058277,5823.7,0.00028422,4.3774,1.348e-05,-2029.8,-0.00058992,-6563.6,0.0053693
18618,0.82644,3.4545,0,0.00058901,5886,0.00028768,-6.0701,1.1493e-05,-2081.2,-0.00059639,-6648.6,0.0043574
18619,0.91827,3.4545,0.05,4.1242e-06,41.214,3.1669e-06,23.795,-9.2207e-14,4.5818e-06,-3.1669e-06,-23.795,0.005322
18620,0.91827,3.1818,0,0.00058395,5835.5,0.00028514,4.3832,1.2704e-05,-2042.6,-0.00059103,-6578.8,0.0053818
18621,0.82644,3.2727,0,0.00059074,5903.3,0.00028892,-6.091,1.0615e-05,-2097.1,-0.00059804,-6670.3,0.0043711
18622,0.91827,3.2727,0.05,4.1229e-06,41.2,3.1659e-06,23.787,-4.9394e-13,1.9538e-06,-3.1659e-06,-23.787,0.0053387
18623,0.91827,3,0,0.00058435,5839.4,0.00028545,4.3851,1.2452e-05,-2046.8,-0.0005914,-6583.9,0.005386
18624,0.82644,3.0909,0,0.0005916,5911.9,0.00028953,-6.1012,1.0191e-05,-2104.9,-0.00059886,-6681.1,0.0043778
18625,0.91827,3.0909,0.05,4.1221e-06,41.192,3.1652e-06,23.782,-2.5715e-13,1.5894e-05,-3.1652e-06,-23.782,0.0053469
18626,0.91827,2.8182,0,0.00058395,5835.5,0.00028514,4.3832,1.2704e-05,-2042.6,-0.00059103,-6578.8,0.0053818
18627,0.82644,2.9091,0,0.0005916,5911.9,0.00028953,-6.1012,1.0191e-05,-2104.9,-0.00059886,-6681.1,0.0043778
18628,0.91827,2.9091,0.05,4.1221e-06,41.192,3.1652e-06,23.782,-1.9562e-13,-5.9363e-07,-3.1652e-06,-23.782,0.0053469
18629,0.91827,2.6364,0,0.00058277,5823.7,0.00028422,4.3774,1.348e-05,-2029.8,-0.00058992,-6563.6,0.0053693
18630,0.82644,2.7273,0,0.00059074,5903.3,0.00028892,-6.091,1.0615e-05,-2097.1,-0.00059804,-6670.3,0.0043711
18631,0.91827,2.7273,0.05,4.1229e-06,41.2,3.1659e-06,23.787,-2.3291e-13,-1.8724e-06,-3.1659e-06,-23.787,0.0053387
18632,0.91827,2.4545,0,0.00058081,5804.1,0.00028265,4.3674,1.4835e-05,-2007.9,-0.0005881,-6538.1,0.0053479
18633,0.82644,2.5455,0,0.00058901,5886,0.00028768,-6.0701,1.1493e-05,-2081.2,-0.00059639,-6648.6,0.0043574
18634,0.91827,2.5455,0.05,4.1242e-06,41.214,3.1669e-06,23.795,-5.858e-14,-3.0176e-06,-3.1669e-06,-23.795,0.005322
18635,0.91827,2.2727,0,0.0005781,5777,0.0002804,4.3525,1.6871e-05,-1975.7,-0.00058558,-6502.3,0.005317
18636,0.82644,2.3636,0,0.00058642,5860.1,0.00028577,-6.0379,1.2897e-05,-2056.3,-0.00059393,-6615.8,0.0043362
18637,0.91827,2.3636,0.05,4.1256e-06,41.227,3.1679e-06,23.803,1.8744e-13,-7.3473e-06,-3.1679e-06,-23.803,0.0052961
18638,0.91827,2.0909,0,0.00057468,5742.9,0.00027744,4.332,1.9748e-05,-1931.8,-0.00058243,-6456.4,0.0052753
18639,0.82644,2.1818,0,0.00058296,5825.6,0.00028317,-5.9927,1.4939e-05,-2021.3,-0.00059067,-6571.7,0.0043069
18640,0.91827,2.1818,0.05,4.1266e-06,41.238,3.1687e-06,23.809,-3.343e-13,-1.0862e-05,-3.1687e-06,-23.809,0.0052603
18641,0.91827,1.9091,0,0.00057065,5702.6,0.00027368,4.3045,2.3693e-05,-1874,-0.00057875,-6400.5,0.0052215
18642,0.82644,2,0,0.00057868,5782.8,0.00027978,-5.9326,1.7793e-05,-1974.4,-0.00058665,-6516,0.0042682
18643,0.91827,2,0.05,4.1275e-06,41.246,3.1694e-06,23.814,-1.3382e-12,-2.4355e-05,-3.1694e-06,-23.814,0.0052131
18644,0.91827,1.7273,0,0.00056616,5657.7,0.00026905,4.2687,2.903e-05,-1799.1,-0.0005747,-6335.3,0.0051532
18645,0.82644,1.8182,0,0.00057363,5732.3,0.00027554,-5.8544,2.1711e-05,-1913,-0.00058195,-6448.7,0.0042186
18646,0.91827,1.8182,0.05,4.13e-06,41.271,3.1713e-06,23.828,-3.3909e-12,-2.4386e-05,-3.1713e-06,-23.828,0.0051527
18647,0.91827,1.5455,0,0.0005615,5611.1,0.00026347,4.2233,3.6204e-05,-1703.4,-0.00057055,-6262.3,0.0050678
18648,0.82644,1.6364,0,0.00056796,5675.7,0.00027034,-5.7532,2.706e-05,-1833.7,-0.00057672,-6370.2,0.004156
18649,0.91827,1.6364,0.05,4.1394e-06,41.365,3.1785e-06,23.882,-2.0926e-12,-2.8335e-05,-3.1785e-06,-23.882,0.0050768
18650,0.91827,1.3636,0,0.00055711,5567.2,0.00025686,4.1677,4.5795e-05,-1581.7,-0.00056672,-6183.9,0.0049614
18651,0.82644,1.4545,0,0.00056196,5615.7,0.00026406,-5.6208,3.4351e-05,-1731.5,-0.00057124,-6281.7,0.0040775
18652,0.91827,1.4545,0.05,4.1672e-06,41.644,3.1999e-06,24.043,-6.6534e-12,-6.6804e-05,-3.1999e-06,-24.043,0.004982
18653,0.91827,1.1818,0,0.00055367,5532.9,0.00024915,4.1049,5.8522e-05,-1428.2,-0.00056381,-6104.1,0.0048291
18654,0.82644,1.2727,0,0.00055609,5557.1,0.00025657,-5.444,4.4287e-05,-1600.5,-0.00056596,-6185.6,0.0039793
18655,0.91827,1.2727,0.05,4.2349e-06,42.319,3.2518e-06,24.433,-6.6335e-13,-6.465e-05,-3.2518e-06,-24.433,0.004864
18656,0.91827,1,0,0.00055217,5517.9,0.00024034,4.0388,7.5157e-05,-1237.1,-0.00056257,-6028.8,0.0046642
18657,0.82644,1.0909,0,0.00055118,5508,0.00024779,-5.1929,5.7778e-05,-1432.9,-0.00056158,-6086.5,0.0038562
18658,0.91827,1.0909,0.05,4.3726e-06,43.696,3.3577e-06,25.228,-1.3457e-11,-9.9749e-05,-3.3576e-06,-25.228,0.0047171
18659,0.91827,0.81818,0,0.0005538,5534.2,0.00023057,4.0001,9.6297e-05,-1004.9,-0.00056388,-5965.2,0.0044582
18660,0.82644,0.90909,0,0.00054846,5480.8,0.00023768,-4.8281,7.586e-05,-1220.7,-0.00055909,-5991.5,0.0037012
18661,0.91827,0.90909,0.05,4.606e-06,46.028,3.5368e-06,26.574,-1.4028e-11,-0.00012154,-3.5368e-06,-26.574,0.0045337
18662,0.91827,0.63636,0,0.00055969,5593,0.00022018,3.9454,0.00012195,-734.13,-0.00056844,-5921.5,0.0041999
18663,0.82644,0.72727,0,0.00054953,5491.5,0.0002264,-4.2047,9.9403e-05,-958.42,-0.00055964,-5910.2,0.003505
18664,0.91827,0.72727,0.05,4.9183e-06,49.15,3.7767e-06,28.376,-2.1957e-11,-6.0692e-05,-3.7767e-06,-28.376,0.0043038
18665,0.91827,0.45455,0,0.00057048,5700.9,0.00020984,4.2575,0.0001511,-437.15,-0.00057656,-5904.5,0.0038753
18666,0.82644,0.54545,0,0.00055599,5556.1,0.00021443,-3.3329,0.00012846,-649.29,-0.00056427,-5854.2,0.0032552
18667,0.91827,0.54545,0.05,5.1994e-06,51.958,3.9925e-06,29.998,-1.4209e-11,-0.00011988,-3.9925e-06,-29.998,0.0040147
18668,0.91827,0.27273,0,0.00058762,5872.1,0.0002008,7.0708,0.00018284,-127.91,-0.00058956,-5931.4,0.0034683
18669,0.82644,0.36364,0,0.00056878,5683.8,0.0002029,-0.40779,0.00016144,-311.96,-0.00057345,-5833.6,0.0029363
18670,0.91827,0.36364,0.05,5.1488e-06,51.452,3.9536e-06,29.706,-6.4637e-12,-0.00011327,-3.9536e-06,-29.706,0.0036509
18671,0.82644,0.18182,0,0.00059097,5905.6,0.00020098,61.695,0.00019058,-16.434,-0.00059016,-5882.6,0.0025306
18672,0.91827,0.18182,0.05,5.1726e-06,51.691,3.9719e-06,29.844,4.9229e-13,-0.00017247,-3.9719e-06,-29.844,0.0031948
18673,0.91827,0.090909,0,0.00059224,5918.3,0.0001997,51.681,0.00019296,1.0255,-0.00059133,-5891.8,0.0029615
18674,0.73462,5.7273,0,0.00057178,5713.9,0.00019591,0.40285,0.00017641,-146.16,-0.00057412,-5785.3,0.0021151
18675,0.64279,5.8182,0,0.00057068,5702.8,0.00019607,87.071,0.00018316,-9.904,-0.0005693,-5663.6,0.001413
18676,0.73462,5.8182,0.05,5.5784e-06,55.745,4.2835e-06,32.185,1.9307e-11,0.00022424,-4.2835e-06,-32.185,0.0018939
18677,0.73462,5.9091,0,0.00057605,5756.5,0.00019625,72.929,0.00018635,-1.4303,-0.0005748,-5720.4,0.0017119
18678,0.73462,5.5455,0,0.00055394,5535.5,0.00020743,-8.4441,0.00013888,-523.45,-0.00056118,-5783.5,0.0024269
18679,0.64279,5.6364,0,0.0005476,5472.2,0.00020045,17.39,0.00014806,-376.21,-0.00055264,-5641,0.0017161
18680,0.73462,5.6364,0.05,6.7622e-06,67.576,5.1926e-06,39.015,1.6585e-11,0.00021066,-5.1926e-06,-39.015,0.0022503
18681,0.73462,5.3636,0,0.00054546,5450.8,0.00022063,-11.593,0.00010584,-874.13,-0.00055538,-5842.3,0.0026666
18682,0.64279,5.4545,0,0.00053831,5379.4,0.00021665,19.307,0.00010959,-785.1,-0.00054681,-5717,0.0019437
18683,0.73462,5.4545,0.05,6.4696e-06,64.651,4.9678e-06,37.326,1.9804e-11,0.00023503,-4.9678e-06,-37.326,0.0025234
18684,0.73462,5.1818,0,0.0005439,5435.2,0.0002335,-13.08,7.8827e-05,-1175.3,-0.00055471,-5935.4,0.0028512
18685,0.64279,5.2727,0,0.00053816,5377.9,0.00023231,20.73,7.8902e-05,-1131.9,-0.00054772,-5840.1,0.0021149
18686,0.73462,5.2727,0.05,5.8251e-06,58.211,4.473e-06,33.608,2.176e-11,0.00018298,-4.473e-06,-33.608,0.0027327
18687,0.73462,5,0,0.00054729,5469.1,0.00024513,-14.083,5.8346e-05,-1417.5,-0.00055796,-6048.2,0.0029946
18688,0.64279,5.0909,0,0.00054412,5437.5,0.0002462,21.726,5.6545e-05,-1403.3,-0.00055343,-5986.3,0.002245
18689,0.73462,5.0909,0.05,5.3024e-06,52.988,4.0716e-06,30.592,2.696e-11,0.0002369,-4.0716e-06,-30.592,0.0028942
18690,0.73462,4.8182,0,0.00055351,5531.3,0.00025522,-14.754,4.3442e-05,-1605.9,-0.00056363,-6167.3,0.003107
18691,0.64279,4.9091,0,0.0005531,5527.2,0.00025803,22.525,4.0925e-05,-1608.7,-0.00056172,-6136.7,0.0023452
18692,0.73462,4.9091,0.05,4.9801e-06,49.767,3.8241e-06,28.733,5.6796e-13,0.00015781,-3.8241e-06,-28.733,0.0030199
18693,0.73462,4.6364,0,0.0005609,5605.2,0.00026377,-15.239,3.2778e-05,-1750.8,-0.00057041,-6282.9,0.0031957
18694,0.64279,4.7273,0,0.00056299,5626,0.0002679,23.132,3.0142e-05,-1763.3,-0.00057089,-6279.2,0.0024233
18695,0.73462,4.7273,0.05,4.8063e-06,48.03,3.6907e-06,27.73,3.9304e-12,0.00013437,-3.6907e-06,-27.73,0.0031188
18696,0.73462,4.4545,0,0.00056841,5680.2,0.00027092,-15.601,2.5168e-05,-1862.1,-0.00057736,-6389.3,0.0032661
18697,0.64279,4.5455,0,0.0005726,5722,0.00027605,23.601,2.2668e-05,-1880.2,-0.0005799,-6407.7,0.0024846
18698,0.73462,4.5455,0.05,4.7141e-06,47.108,3.6198e-06,27.198,7.6336e-12,6.5704e-05,-3.6198e-06,-27.198,0.003197
18699,0.73462,4.2727,0,0.00057543,5750.3,0.00027683,-15.878,1.9717e-05,-1947.7,-0.00058394,-6483.4,0.0033221
18700,0.64279,4.3636,0,0.00058133,5809.3,0.00028273,23.965,1.7434e-05,-1969.3,-0.00058817,-6519.6,0.0025331
18701,0.73462,4.3636,0.05,4.6595e-06,46.563,3.5779e-06,26.883,-3.61e-13,6.8028e-05,-3.5779e-06,-26.883,0.0032591
18702,0.73462,4.0909,0,0.00058166,5812.6,0.00028165,-16.093,1.5795e-05,-2013.6,-0.00058983,-6564,0.0033665
18703,0.64279,4.1818,0,0.00058895,5885.5,0.00028815,24.248,1.3729e-05,-2037.7,-0.00059544,-6614.8,0.0025715
18704,0.73462,4.1818,0.05,4.6207e-06,46.175,3.5481e-06,26.659,5.9363e-13,5.258e-05,-3.5481e-06,-26.659,0.0033084
18705,0.73462,3.9091,0,0.00058696,5865.5,0.00028551,-16.258,1.297e-05,-2064,-0.00059488,-6631.1,0.0034013
18706,0.64279,4,0,0.00059538,5949.7,0.00029251,24.467,1.1086e-05,-2090.1,-0.00060162,-6693.7,0.0026017
18707,0.73462,4,0.05,4.5889e-06,45.857,3.5237e-06,26.476,1.0804e-12,4.0058e-05,-3.5237e-06,-26.476,0.0033474
18708,0.73462,3.7273,0,0.00059128,5908.7,0.00028853,-16.384,1.0951e-05,-2102,-0.00059901,-6685,0.0034281
18709,0.64279,3.8182,0,0.00060064,6002.2,0.00029595,24.635,9.2004e-06,-2129.9,-0.00060669,-6757.5,0.0026251
18710,0.73462,3.8182,0.05,4.5613e-06,45.582,3.5025e-06,26.317,-1.8415e-13,3.6944e-05,-3.5025e-06,-26.317,0.0033776
18711,0.73462,3.5455,0,0.00059461,5942,0.0002908,-16.476,9.5412e-06,-2129.7,-0.00060221,-6726.2,0.0034479
18712,0.64279,3.6364,0,0.00060476,6043.4,0.00029858,24.761,7.8713e-06,-2159.5,-0.00061068,-6807.1,0.0026428
18713,0.73462,3.6364,0.05,4.5379e-06,45.348,3.4845e-06,26.181,-6.1159e-14,3.4706e-06,-3.4845e-06,-26.181,0.0034005
18714,0.73462,3.3636,0,0.00059697,5965.6,0.00029238,-16.539,8.613e-06,-2148.6,-0.00060449,-6755.3,0.0034616
18715,0.64279,3.4545,0,0.00060779,6073.7,0.00030048,24.85,6.9677e-06,-2180.5,-0.00061363,-6843.5,0.0026555
18716,0.73462,3.4545,0.05,4.5193e-06,45.162,3.4703e-06,26.074,-3.1389e-13,3.2446e-05,-3.4703e-06,-26.074,0.003417
18717,0.73462,3.1818,0,0.00059838,5979.7,0.0002933,-16.576,8.0855e-06,-2159.6,-0.00060585,-6772.5,0.0034696
18718,0.64279,3.2727,0,0.00060979,6093.7,0.00030172,24.908,6.406e-06,-2194,-0.00061557,-6867.3,0.0026637
18719,0.73462,3.2727,0.05,4.5064e-06,45.033,3.4604e-06,26,-3.4278e-13,1.7934e-06,-3.4604e-06,-26,0.0034276
18720,0.73462,3,0,0.00059885,5984.4,0.00029361,-16.588,7.9144e-06,-2163.2,-0.00060631,-6778.2,0.0034722
18721,0.64279,3.0909,0,0.00061078,6103.6,0.00030233,24.936,6.1366e-06,-2200.5,-0.00061654,-6879.1,0.0026677
18722,0.73462,3.0909,0.05,4.4998e-06,44.967,3.4553e-06,25.962,-2.8247e-13,5.3047e-07,-3.4553e-06,-25.962,0.0034329
18723,0.73462,2.8182,0,0.00059838,5979.7,0.0002933,-16.576,8.0855e-06,-2159.6,-0.00060585,-6772.5,0.0034696
18724,0.64279,2.9091,0,0.00061078,6103.6,0.00030233,24.936,6.1366e-06,-2200.5,-0.00061654,-6879.1,0.0026677
18725,0.73462,2.9091,0.05,4.4998e-06,44.967,3.4553e-06,25.962,-2.8703e-13,-4.419e-07,-3.4553e-06,-25.962,0.0034329
18726,0.73462,2.6364,0,0.00059697,5965.6,0.00029238,-16.539,8.613e-06,-2148.6,-0.00060449,-6755.3,0.0034616
18727,0.64279,2.7273,0,0.00060979,6093.7,0.00030172,24.908,6.406e-06,-2194,-0.00061557,-6867.3,0.0026637
18728,0.73462,2.7273,0.05,4.5064e-06,45.033,3.4604e-06,26,-1.7194e-13,-1.3702e-06,-3.4604e-06,-26,0.0034276
18729,0.73462,2.4545,0,0.00059461,5942,0.0002908,-16.476,9.5413e-06,-2129.7,-0.00060221,-6726.2,0.0034479
18730,0.64279,2.5455,0,0.00060779,6073.7,0.00030048,24.85,6.9677e-06,-2180.5,-0.00061363,-6843.5,0.0026555
18731,0.73462,2.5455,0.05,4.5193e-06,45.162,3.4703e-06,26.074,-1.2035e-13,-2.4343e-06,-3.4703e-06,-26.074,0.003417
18732,0.73462,2.2727,0,0.00059128,5908.7,0.00028853,-16.384,1.0951e-05,-2102,-0.00059901,-6685,0.0034281
18733,0.64279,2.3636,0,0.00060476,6043.4,0.00029858,24.761,7.8713e-06,-2159.5,-0.00061068,-6807.1,0.0026428
18734,0.73462,2.3636,0.05,4.5379e-06,45.348,3.4845e-06,26.181,-1.5938e-14,-3.1235e-06,-3.4845e-06,-26.181,0.0034005
18735,0.73462,2.0909,0,0.00058696,5865.5,0.00028551,-16.258,1.297e-05,-2064,-0.00059488,-6631.1,0.0034013
18736,0.64279,2.1818,0,0.00060064,6002.2,0.00029595,24.635,9.2004e-06,-2129.9,-0.00060669,-6757.5,0.0026251
18737,0.73462,2.1818,0.05,4.5613e-06,45.582,3.5025e-06,26.317,-5.7579e-13,-4.5649e-06,-3.5025e-06,-26.317,0.0033776
18738,0.73462,1.9091,0,0.00058166,5812.6,0.00028165,-16.093,1.5795e-05,-2013.6,-0.00058983,-6564,0.0033665
18739,0.64279,2,0,0.00059538,5949.7,0.00029251,24.467,1.1086e-05,-2090.1,-0.00060162,-6693.7,0.0026017
18740,0.73462,2,0.05,4.5889e-06,45.857,3.5237e-06,26.476,-1.3651e-13,-1.9076e-05,-3.5237e-06,-26.476,0.0033474
18741,0.73462,1.7273,0,0.00057543,5750.3,0.00027683,-15.878,1.9717e-05,-1947.7,-0.00058394,-6483.4,0.0033221
18742,0.64279,1.8182,0,0.00058895,5885.5,0.00028815,24.248,1.3729e-05,-2037.7,-0.00059544,-6614.8,0.0025715
18743,0.73462,1.8182,0.05,4.6207e-06,46.175,3.5481e-06,26.659,-2.4984e-12,-9.6974e-06,-3.5481e-06,-26.659,0.0033084
18744,0.73462,1.5455,0,0.00056841,5680.2,0.00027092,-15.601,2.5168e-05,-1862.1,-0.00057736,-6389.3,0.0032661
18745,0.64279,1.6364,0,0.00058133,5809.3,0.00028273,23.965,1.7434e-05,-1969.3,-0.00058817,-6519.6,0.0025331
18746,0.73462,1.6364,0.05,4.6595e-06,46.563,3.5779e-06,26.883,-1.4577e-12,-1.2979e-05,-3.5779e-06,-26.883,0.0032591
18747,0.73462,1.3636,0,0.0005609,5605.2,0.00026377,-15.239,3.2778e-05,-1750.8,-0.00057041,-6282.9,0.0031957
18748,0.64279,1.4545,0,0.0005726,5722,0.00027605,23.601,2.2668e-05,-1880.2,-0.0005799,-6407.7,0.0024846
18749,0.73462,1.4545,0.05,4.7141e-06,47.108,3.6198e-06,27.198,-4.0905e-13,-7.8884e-05,-3.6198e-06,-27.198,0.003197
18750,0.73462,1.1818,0,0.00055351,5531.3,0.00025522,-14.754,4.3442e-05,-1605.9,-0.00056363,-6167.3,0.003107
18751,0.64279,1.2727,0,0.00056299,5626,0.0002679,23.132,3.0142e-05,-1763.3,-0.00057089,-6279.2,0.0024233
18752,0.73462,1.2727,0.05,4.8063e-06,48.03,3.6906e-06,27.73,-8.0628e-12,-4.2341e-05,-3.6907e-06,-27.73,0.0031188
18753,0.73462,1,0,0.00054729,5469.1,0.00024513,-14.083,5.8346e-05,-1417.5,-0.00055796,-6048.2,0.0029946
18754,0.64279,1.0909,0,0.0005531,5527.2,0.00025803,22.525,4.0925e-05,-1608.7,-0.00056172,-6136.7,0.0023452
18755,0.73462,1.0909,0.05,4.9801e-06,49.767,3.8241e-06,28.733,-1.8189e-12,-0.00011068,-3.8241e-06,-28.733,0.0030199
18756,0.73462,0.81818,0,0.0005439,5435.2,0.0002335,-13.08,7.8827e-05,-1175.3,-0.00055471,-5935.4,0.0028512
18757,0.64279,0.90909,0,0.00054412,5437.5,0.0002462,21.726,5.6545e-05,-1403.3,-0.00055343,-5986.3,0.002245
18758,0.73462,0.90909,0.05,5.3024e-06,52.988,4.0716e-06,30.592,-7.1649e-12,-7.0397e-05,-4.0716e-06,-30.592,0.0028942
18759,0.73462,0.63636,0,0.00054546,5450.8,0.00022063,-11.593,0.00010584,-874.13,-0.00055538,-5842.3,0.0026666
18760,0.64279,0.72727,0,0.00053817,5377.9,0.00023231,20.73,7.8902e-05,-1131.9,-0.00054772,-5840.1,0.0021149
18761,0.73462,0.72727,0.05,5.8251e-06,58.211,4.473e-06,33.608,-1.4888e-11,-0.00012382,-4.473e-06,-33.608,0.0027327
18762,0.73462,0.45455,0,0.00055394,5535.5,0.00020743,-8.4441,0.00013888,-523.45,-0.00056118,-5783.5,0.0024269
18763,0.64279,0.54545,0,0.00053831,5379.4,0.00021665,19.307,0.00010959,-785.1,-0.00054681,-5717,0.0019437
18764,0.73462,0.54545,0.05,6.4696e-06,64.651,4.9678e-06,37.326,-1.3396e-11,-0.00011136,-4.9678e-06,-37.326,0.0025234
18765,0.73462,0.27273,0,0.00057178,5713.9,0.00019591,0.40285,0.00017641,-146.16,-0.00057412,-5785.3,0.002115
18766,0.64279,0.36364,0,0.0005476,5472.2,0.00020045,17.39,0.00014806,-376.21,-0.00055264,-5641,0.0017161
18767,0.73462,0.36364,0.05,6.7622e-06,67.576,5.1926e-06,39.015,-2.2111e-11,-0.00021066,-5.1926e-06,-39.015,0.0022503
18768,0.64279,0.18182,0,0.00057068,5702.8,0.00019607,87.071,0.00018316,-9.904,-0.0005693,-5663.6,0.001413
18769,0.73462,0.18182,0.05,5.5784e-06,55.745,4.2835e-06,32.185,-2.6138e-11,-0.00023259,-4.2835e-06,-32.185,0.0018939
18770,0.73462,0.090909,0,0.00057605,5756.5,0.00019625,72.929,0.00018635,-1.4303,-0.0005748,-5720.4,0.0017119
18771,0.55096,5.7273,0,0.0005458,5454.2,0.00019125,33.785,0.00016417,-169.66,-0.00054783,-5519.3,0.0011234
18772,0.45913,5.8182,0,0.00053042,5300.6,0.00018507,95.958,0.00016677,-41.557,-0.00052936,-5272,0.00064918
18773,0.55096,5.8182,0.05,6.9853e-06,69.805,5.3639e-06,40.302,2.0944e-11,0.00023678,-5.3639e-06,-40.302,0.00095843
18774,0.55096,5.9091,0,0.00054741,5470.3,0.00018917,107.59,0.00017605,9.0343,-0.00054536,-5411.4,0.00083138
18775,0.55096,5.5455,0,0.00053136,5309.9,0.00020959,44.576,0.00011873,-638.15,-0.00053815,-5573.7,0.001337
18776,0.45913,5.6364,0,0.00050656,5062.1,0.00018912,-48.84,0.0001241,-537.38,-0.00051476,-5337.5,0.000846
18777,0.55096,5.6364,0.05,9.3686e-06,93.622,7.1939e-06,54.053,1.3458e-11,0.00020075,-7.1939e-06,-54.052,0.0012095
18778,0.55096,5.3636,0,0.00053057,5302.1,0.0002283,51.483,8.2429e-05,-1044.6,-0.0005389,-5713,0.0014927
18779,0.45913,5.4545,0,0.00050619,5058.4,0.00021065,-67.298,8.1053e-05,-1041,-0.00051796,-5541.8,0.00098392
18780,0.55096,5.4545,0.05,8.1494e-06,81.438,6.2578e-06,47.018,2.7175e-11,0.00023205,-6.2578e-06,-47.018,0.0013905
18781,0.55096,5.1818,0,0.0005382,5378.3,0.000245,55.478,5.6412e-05,-1361.5,-0.00054622,-5889.4,0.0016077
18782,0.45913,5.2727,0,0.00051789,5175.4,0.00023003,-76.539,5.261e-05,-1409.6,-0.00053013,-5788,0.0010821
18783,0.55096,5.2727,0.05,6.8885e-06,68.838,5.2895e-06,39.744,2.9396e-11,0.00024829,-5.2896e-06,-39.744,0.0015226
18784,0.55096,5,0,0.00054992,5495.4,0.0002591,58.308,3.9007e-05,-1595.4,-0.00055706,-6074,0.0016943
18785,0.45913,5.0909,0,0.00053389,5335.2,0.00024603,-82.37,3.4858e-05,-1669.1,-0.00054568,-6031,0.0011537
18786,0.55096,5.0909,0.05,6.1104e-06,61.061,4.692e-06,35.254,1.9195e-11,0.00016595,-4.692e-06,-35.254,0.0016206
18787,0.55096,4.8182,0,0.00056264,5622.6,0.00027071,60.398,2.7584e-05,-1766.4,-0.00056893,-6248.4,0.0017606
18788,0.45913,4.9091,0,0.00055014,5497.6,0.00025893,-86.408,2.3856e-05,-1852.6,-0.00056141,-6250.1,0.0012074
18789,0.55096,4.9091,0.05,5.6783e-06,56.744,4.3602e-06,32.761,1.5746e-12,6.3669e-05,-4.3602e-06,-32.761,0.001695
18790,0.55096,4.6364,0,0.00057477,5743.7,0.00028018,61.966,2.0031e-05,-1892.7,-0.00058038,-6404,0.0018121
18791,0.45913,4.7273,0,0.00056495,5645.6,0.00026926,-89.34,1.6885e-05,-1985.6,-0.00057582,-6438.9,0.0012485
18792,0.55096,4.7273,0.05,5.4323e-06,54.286,4.1714e-06,31.342,7.237e-12,4.9214e-05,-4.1714e-06,-31.342,0.0017522
18793,0.55096,4.4545,0,0.0005856,5852,0.00028786,63.164,1.4948e-05,-1987.4,-0.00059072,-6538.1,0.0018525
18794,0.45913,4.5455,0,0.00057778,5773.8,0.00027754,-91.544,1.234e-05,-2084.1,-0.00058838,-6597.7,0.0012803
18795,0.55096,4.5455,0.05,5.2699e-06,52.662,4.0466e-06,30.405,6.4404e-12,6.9875e-05,-4.0466e-06,-30.405,0.0017968
18796,0.55096,4.2727,0,0.00059492,5945.1,0.00029405,64.089,1.1461e-05,-2059.2,-0.00059969,-6651.1,0.0018842
18797,0.45913,4.3636,0,0.0005886,5882,0.00028417,-93.231,9.2946e-06,-2158.6,-0.00059904,-6729.3,0.0013052
18798,0.55096,4.3636,0.05,5.1461e-06,51.425,3.9516e-06,29.69,3.3885e-14,4.6221e-05,-3.9516e-06,-29.69,0.0018319
18799,0.55096,4.0909,0,0.00060273,6023.1,0.00029902,64.806,9.0316e-06,-2114.1,-0.00060725,-6744.5,0.0019092
18800,0.45913,4.1818,0,0.00059756,5971.5,0.00028947,-94.534,7.2058e-06,-2215.4,-0.00060789,-6837,0.0013247
18801,0.55096,4.1818,0.05,5.0437e-06,50.402,3.8729e-06,29.1,5.4944e-13,6.2286e-05,-3.8729e-06,-29.1,0.0018595
18802,0.55096,3.9091,0,0.0006091,6086.8,0.00030295,65.359,7.3224e-06,-2155.9,-0.00061345,-6820.1,0.0019288
18803,0.45913,4,0,0.00060485,6044.3,0.00029368,-95.541,5.75e-06,-2258.9,-0.00061511,-6923.8,0.00134
18804,0.55096,4,0.05,4.957e-06,49.536,3.8063e-06,28.599,2.1274e-13,1.9633e-05,-3.8063e-06,-28.599,0.0018811
18805,0.55096,3.7273,0,0.00061414,6137.2,0.000306,65.779,6.1215e-06,-2187.4,-0.00061837,-6879.5,0.0019437
18806,0.45913,3.8182,0,0.00061063,6102.1,0.00029696,-96.311,4.7286e-06,-2292,-0.00062086,-6992.4,0.0013518
18807,0.55096,3.8182,0.05,4.8844e-06,48.81,3.7506e-06,28.181,-2.5255e-14,7.0482e-06,-3.7506e-06,-28.181,0.0018979
18808,0.55096,3.5455,0,0.00061796,6175.3,0.00030826,66.086,5.2937e-06,-2210.3,-0.0006221,-6924.3,0.0019547
18809,0.45913,3.6364,0,0.00061508,6146.6,0.00029945,-96.887,4.0173e-06,-2316.7,-0.00062528,-7045,0.0013606
18810,0.55096,3.6364,0.05,4.8258e-06,48.225,3.7056e-06,27.843,-4.4064e-13,5.8183e-06,-3.7056e-06,-27.843,0.0019105
18811,0.55096,3.3636,0,0.00062062,6201.9,0.00030983,66.297,4.7533e-06,-2225.9,-0.00062471,-6955.4,0.0019623
18812,0.45913,3.4545,0,0.00061831,6178.9,0.00030125,-97.297,3.5379e-06,-2334.2,-0.0006285,-7083.1,0.001367
18813,0.55096,3.4545,0.05,4.7816e-06,47.783,3.6717e-06,27.588,-2.9704e-13,3.3572e-06,-3.6717e-06,-27.588,0.0019195
18814,0.55096,3.1818,0,0.00062219,6217.6,0.00031075,66.419,4.4479e-06,-2235,-0.00062625,-6973.8,0.0019667
18815,0.45913,3.2727,0,0.00062042,6199.9,0.00030241,-97.56,3.2416e-06,-2345.4,-0.0006306,-7107.8,0.0013711
18816,0.55096,3.2727,0.05,4.752e-06,47.487,3.6489e-06,27.417,-3.2956e-13,3.1907e-05,-3.6489e-06,-27.416,0.0019254
18817,0.55096,3,0,0.00062271,6222.8,0.00031105,66.46,4.3491e-06,-2238,-0.00062676,-6979.9,0.0019682
18818,0.45913,3.0909,0,0.00062146,6210.3,0.00030298,-97.689,3.1e-06,-2350.9,-0.00063164,-7120,0.0013731
18819,0.55096,3.0909,0.05,4.7371e-06,47.338,3.6375e-06,27.331,-1.8474e-13,2.8857e-07,-3.6375e-06,-27.331,0.0019282
18820,0.55096,2.8182,0,0.00062219,6217.6,0.00031075,66.419,4.4479e-06,-2235,-0.00062625,-6973.8,0.0019667
18821,0.45913,2.9091,0,0.00062146,6210.3,0.00030298,-97.689,3.1e-06,-2350.9,-0.00063164,-7120,0.0013731
18822,0.55096,2.9091,0.05,4.7371e-06,47.338,3.6375e-06,27.331,-1.4756e-13,-2.7789e-07,-3.6375e-06,-27.331,0.0019282
18823,0.55096,2.6364,0,0.00062062,6201.9,0.00030983,66.297,4.7533e-06,-2225.9,-0.00062471,-6955.4,0.0019623
18824,0.45913,2.7273,0,0.00062042,6199.9,0.00030241,-97.56,3.2416e-06,-2345.4,-0.0006306,-7107.8,0.0013711
18825,0.55096,2.7273,0.05,4.752e-06,47.487,3.6489e-06,27.417,-5.113e-14,-9.0355e-07,-3.6489e-06,-27.417,0.0019254
18826,0.55096,2.4545,0,0.00061796,6175.3,0.00030826,66.086,5.2937e-06,-2210.3,-0.0006221,-6924.3,0.0019547
18827,0.45913,2.5455,0,0.00061831,6178.9,0.00030125,-97.297,3.5379e-06,-2334.2,-0.0006285,-7083.1,0.001367
18828,0.55096,2.5455,0.05,4.7816e-06,47.783,3.6717e-06,27.588,1.6582e-14,-2.1144e-06,-3.6717e-06,-27.588,0.0019195
18829,0.55096,2.2727,0,0.00061414,6137.2,0.000306,65.779,6.1215e-06,-2187.4,-0.00061837,-6879.5,0.0019437
18830,0.45913,2.3636,0,0.00061508,6146.6,0.00029945,-96.887,4.0173e-06,-2316.7,-0.00062528,-7045,0.0013606
18831,0.55096,2.3636,0.05,4.8258e-06,48.225,3.7056e-06,27.843,-1.9934e-14,-2.1755e-06,-3.7056e-06,-27.843,0.0019105
18832,0.55096,2.0909,0,0.0006091,6086.8,0.00030295,65.359,7.3224e-06,-2155.9,-0.00061345,-6820.1,0.0019288
18833,0.45913,2.1818,0,0.00061063,6102.1,0.00029696,-96.311,4.7286e-06,-2292,-0.00062086,-6992.4,0.0013518
18834,0.55096,2.1818,0.05,4.8844e-06,48.81,3.7506e-06,28.181,1.5052e-13,-2.8656e-06,-3.7506e-06,-28.181,0.0018979
18835,0.55096,1.9091,0,0.00060273,6023.1,0.00029902,64.806,9.0316e-06,-2114.1,-0.00060725,-6744.5,0.0019092
18836,0.45913,2,0,0.00060485,6044.3,0.00029368,-95.541,5.75e-06,-2258.9,-0.00061511,-6923.8,0.00134
18837,0.55096,2,0.05,4.957e-06,49.536,3.8063e-06,28.599,-9.0928e-13,-3.0888e-06,-3.8063e-06,-28.599,0.0018811
18838,0.55096,1.7273,0,0.00059492,5945.1,0.00029405,64.089,1.1461e-05,-2059.2,-0.00059969,-6651.1,0.0018842
18839,0.45913,1.8182,0,0.00059756,5971.5,0.00028947,-94.534,7.2058e-06,-2215.4,-0.00060789,-6837,0.0013247
18840,0.55096,1.8182,0.05,5.0437e-06,50.402,3.8729e-06,29.1,-8.4828e-13,-5.4363e-05,-3.8729e-06,-29.1,0.0018595
18841,0.55096,1.5455,0,0.0005856,5852,0.00028786,63.164,1.4948e-05,-1987.4,-0.00059072,-6538.1,0.0018525
18842,0.45913,1.6364,0,0.0005886,5882,0.00028417,-93.231,9.2946e-06,-2158.6,-0.00059904,-6729.3,0.0013052
18843,0.55096,1.6364,0.05,5.1461e-06,51.425,3.9515e-06,29.69,-2.7754e-12,-1.9842e-05,-3.9516e-06,-29.69,0.0018319
18844,0.55096,1.3636,0,0.00057477,5743.7,0.00028018,61.966,2.0031e-05,-1892.7,-0.00058038,-6404,0.0018121
18845,0.45913,1.4545,0,0.00057778,5773.8,0.00027754,-91.544,1.234e-05,-2084.1,-0.00058838,-6597.7,0.0012803
18846,0.55096,1.4545,0.05,5.2699e-06,52.662,4.0466e-06,30.405,-2.4335e-13,-4.1056e-05,-4.0466e-06,-30.405,0.0017968
18847,0.55096,1.1818,0,0.00056264,5622.6,0.00027071,60.398,2.7584e-05,-1766.4,-0.00056893,-6248.4,0.0017606
18848,0.45913,1.2727,0,0.00056495,5645.6,0.00026926,-89.34,1.6885e-05,-1985.6,-0.00057582,-6438.9,0.0012485
18849,0.55096,1.2727,0.05,5.4323e-06,54.286,4.1714e-06,31.342,-3.733e-12,-0.00010488,-4.1714e-06,-31.342,0.0017522
18850,0.55096,1,0,0.00054992,5495.4,0.0002591,58.308,3.9007e-05,-1595.4,-0.00055706,-6074,0.0016943
18851,0.45913,1.0909,0,0.00055014,5497.6,0.00025893,-86.408,2.3856e-05,-1852.6,-0.00056141,-6250.1,0.0012074
18852,0.55096,1.0909,0.05,5.6783e-06,56.744,4.3602e-06,32.761,-1.4757e-11,-0.00013019,-4.3602e-06,-32.761,0.001695
18853,0.55096,0.81818,0,0.0005382,5378.3,0.000245,55.478,5.6412e-05,-1361.5,-0.00054622,-5889.4,0.0016077
18854,0.45913,0.90909,0,0.00053389,5335.2,0.00024603,-82.37,3.4858e-05,-1669.1,-0.00054568,-6031,0.0011537
18855,0.55096,0.90909,0.05,6.1104e-06,61.061,4.692e-06,35.254,-1.3396e-11,-0.00015704,-4.692e-06,-35.254,0.0016206
18856,0.55096,0.63636,0,0.00053057,5302.1,0.0002283,51.483,8.2429e-05,-1044.6,-0.0005389,-5713,0.0014927
18857,0.45913,0.72727,0,0.00051789,5175.4,0.00023003,-76.539,5.261e-05,-1409.6,-0.00053013,-5788,0.0010821
18858,0.55096,0.72727,0.05,6.8885e-06,68.838,5.2895e-06,39.744,-1.4947e-11,-0.00024546,-5.2895e-06,-39.744,0.0015226
18859,0.55096,0.45455,0,0.00053136,5309.9,0.00020959,44.576,0.00011873,-638.15,-0.00053815,-5573.7,0.001337
18860,0.45913,0.54545,0,0.00050619,5058.4,0.00021065,-67.298,8.1053e-05,-1041,-0.00051796,-5541.8,0.00098392
18861,0.55096,0.54545,0.05,8.1494e-06,81.438,6.2578e-06,47.018,-1.3535e-11,-0.00017421,-6.2578e-06,-47.018,0.0013905
18862,0.55096,0.27273,0,0.0005458,5454.2,0.00019125,33.785,0.00016417,-169.66,-0.00054783,-5519.3,0.0011234
18863,0.45913,0.36364,0,0.00050656,5062.1,0.00018912,-48.84,0.0001241,-537.38,-0.00051476,-5337.5,0.000846
18864,0.55096,0.36364,0.05,9.3686e-06,93.622,7.1939e-06,54.052,-5.2069e-12,-0.00013932,-7.1939e-06,-54.053,0.0012095
18865,0.45913,0.18182,0,0.00053042,5300.6,0.00018507,95.958,0.00016677,-41.557,-0.00052936,-5272,0.00064918
18866,0.55096,0.18182,0.05,6.9853e-06,69.805,5.3639e-06,40.302,-1.4222e-11,-0.00018037,-5.3639e-06,-40.302,0.00095843
18867,0.55096,0.090909,0,0.00054741,5470.3,0.00018917,107.59,0.00017605,9.0343,-0.00054536,-5411.4,0.00083138
18868,0.36731,5.7273,0,0.00048968,4893.5,0.00016913,-90.444,0.0001403,-307.09,-0.00049609,-5088.6,0.00046958
18869,0.27548,5.8182,0,0.00045413,4538.2,0.00016371,164.61,0.00014134,-3.4814,-0.00045116,-4455.3,0.00020617
18870,0.36731,5.8182,0.05,1.2214e-05,122.06,9.379e-06,70.47,1.3164e-11,0.00015984,-9.379e-06,-70.47,0.00036401
18871,0.36731,5.9091,0,0.00049296,4926.2,0.00017485,132.42,0.00015408,-23.656,-0.00049093,-4870,0.00029398
18872,0.36731,5.5455,0,0.00048006,4797.3,0.00019004,-161.7,8.6043e-05,-943.11,-0.00049406,-5301.8,0.00058709
18873,0.27548,5.6364,0,0.00046468,4643.6,0.00020732,235.77,7.692e-05,-743.98,-0.0004655,-4819.5,0.00030003
18874,0.36731,5.6364,0.05,1.3551e-05,135.41,1.0405e-05,78.181,2.363e-11,0.00021463,-1.0405e-05,-78.181,0.00050785
18875,0.36731,5.3636,0,0.00049282,4924.8,0.00021234,-195.54,5.0844e-05,-1408.9,-0.00050877,-5613.6,0.00066648
18876,0.27548,5.4545,0,0.00050088,5005.3,0.00024447,279.6,4.1547e-05,-1245.1,-0.00049956,-5310.7,0.00035907
18877,0.36731,5.4545,0.05,1.0314e-05,103.07,7.92e-06,59.508,2.5664e-11,0.00024536,-7.92e-06,-59.508,0.00060177
18878,0.36731,5.1818,0,0.00051338,5130.2,0.00023105,-214.46,3.0926e-05,-1718.1,-0.00052944,-5928.5,0.00072218
18879,0.27548,5.2727,0,0.00053713,5367.6,0.00027204,310.83,2.3675e-05,-1555.3,-0.00053337,-5740.7,0.00039815
18880,0.36731,5.2727,0.05,8.4859e-06,84.801,6.5161e-06,48.96,1.3836e-11,0.00023259,-6.5161e-06,-48.96,0.00066564
18881,0.36731,5,0,0.00053411,5337.4,0.00024586,-227.11,1.9737e-05,-1926.1,-0.00055004,-6207.2,0.00076271
18882,0.27548,5.0909,0,0.00056788,5674.8,0.00029226,330.82,1.4536e-05,-1755.9,-0.00056255,-6091.9,0.00042554
18883,0.36731,5.0909,0.05,7.5455e-06,75.403,5.794e-06,43.534,1.0747e-11,0.00014065,-5.794e-06,-43.534,0.00071102
18884,0.36731,4.8182,0,0.0005525,5521.2,0.00025747,-236.16,1.324e-05,-2071.2,-0.00056837,-6441.2,0.00079306
18885,0.27548,4.9091,0,0.00059276,5923.5,0.00030749,345.4,9.4935e-06,-1893.7,-0.00058644,-6371.3,0.00044553
18886,0.36731,4.9091,0.05,7.0439e-06,70.39,5.4088e-06,40.64,9.69e-12,9.1334e-05,-5.4088e-06,-40.64,0.00074445
18887,0.36731,4.6364,0,0.00056802,5676.3,0.00026662,-242.85,9.2773e-06,-2176.4,-0.0005839,-6633.3,0.00081626
18888,0.27548,4.7273,0,0.00061264,6122.2,0.00031915,356.12,6.5296e-06,-1992.8,-0.00060568,-6592.7,0.00046056
18889,0.36731,4.7273,0.05,6.7045e-06,66.999,5.1482e-06,38.682,2.2881e-12,6.8325e-05,-5.1482e-06,-38.682,0.00076971
18890,0.36731,4.4545,0,0.00058084,5804.4,0.00027386,-247.94,6.7533e-06,-2254.9,-0.00059677,-6789.5,0.00083425
18891,0.27548,4.5455,0,0.0006285,6280.7,0.00032821,364.27,4.6854e-06,-2066.6,-0.0006211,-6768.5,0.00047207
18892,0.36731,4.5455,0.05,6.4415e-06,64.37,4.9463e-06,37.164,2.8325e-12,4.4631e-05,-4.9463e-06,-37.164,0.00078914
18893,0.36731,4.2727,0,0.00059129,5908.9,0.0002796,-251.85,5.0864e-06,-2314.4,-0.00060729,-6915.5,0.00084829
18894,0.27548,4.3636,0,0.00064115,6407,0.00033531,370.54,3.4869e-06,-2122.6,-0.00063345,-6908.3,0.00048099
18895,0.36731,4.3636,0.05,6.2248e-06,62.206,4.7799e-06,35.914,1.7253e-12,2.0438e-05,-4.7799e-06,-35.914,0.00080426
18896,0.36731,4.0909,0,0.00059972,5993.1,0.00028413,-254.88,3.9552e-06,-2360,-0.00061578,-7016.5,0.00085927
18897,0.27548,4.1818,0,0.00065121,6507.6,0.00034088,375.41,2.6816e-06,-2165.7,-0.0006433,-7019.3,0.00048795
18898,0.36731,4.1818,0.05,6.0438e-06,60.396,4.6409e-06,34.87,3.9534e-13,3.795e-05,-4.6409e-06,-34.87,0.00081607
18899,0.36731,3.9091,0,0.00060641,6059.9,0.00028769,-257.21,3.1745e-06,-2394.9,-0.00062254,-7096.3,0.0008678
18900,0.27548,4,0,0.00065915,6587,0.00034525,379.19,2.1282e-06,-2198.9,-0.00065109,-7106.9,0.00049337
18901,0.36731,4,0.05,5.8935e-06,58.895,4.5255e-06,34.003,1.1714e-12,6.4339e-05,-4.5255e-06,-34.003,0.00082528
18902,0.36731,3.7273,0,0.0006116,6111.8,0.00029042,-258.98,2.6334e-06,-2421.3,-0.00062778,-7158,0.0008743
18903,0.27548,3.8182,0,0.00066534,6648.8,0.00034862,382.08,1.7436e-06,-2224.2,-0.00065716,-7175,0.00049754
18904,0.36731,3.8182,0.05,5.7714e-06,57.674,4.4317e-06,33.298,-1.0309e-13,2.2845e-06,-4.4317e-06,-33.298,0.00083237
18905,0.36731,3.5455,0,0.00061547,6150.4,0.00029244,-260.27,2.2641e-06,-2440.5,-0.00063169,-7203.8,0.00087909
18906,0.27548,3.6364,0,0.00067002,6695.5,0.00035117,384.25,1.4776e-06,-2243.2,-0.00066176,-7226.5,0.00050067
18907,0.36731,3.6364,0.05,5.6756e-06,56.717,4.3582e-06,32.745,-1.8781e-13,3.1355e-05,-4.3581e-06,-32.745,0.0008377
18908,0.36731,3.3636,0,0.00061814,6177.1,0.00029383,-261.15,2.0246e-06,-2453.7,-0.0006344,-7235.5,0.00088237
18909,0.27548,3.4545,0,0.00067338,6729.1,0.00035299,385.79,1.2991e-06,-2256.7,-0.00066507,-7263.5,0.0005029
18910,0.36731,3.4545,0.05,5.6049e-06,56.01,4.3038e-06,32.337,-2.2149e-13,1.3661e-06,-4.3038e-06,-32.337,0.00084151
18911,0.36731,3.1818,0,0.00061971,6192.8,0.00029464,-261.67,1.8897e-06,-2461.3,-0.00063599,-7254,0.00088429
18912,0.27548,3.2727,0,0.00067555,6750.9,0.00035416,386.78,1.1891e-06,-2265.3,-0.00066721,-7287.4,0.00050434
18913,0.36731,3.2727,0.05,5.5582e-06,55.544,4.268e-06,32.068,-1.9728e-13,6.0887e-07,-4.268e-06,-32.068,0.00084397
18914,0.36731,3,0,0.00062023,6198,0.00029491,-261.84,1.8462e-06,-2463.8,-0.00063651,-7260.2,0.00088492
18915,0.27548,3.0909,0,0.00067662,6761.5,0.00035474,387.27,1.1367e-06,-2269.6,-0.00066826,-7299.2,0.00050505
18916,0.36731,3.0909,0.05,5.5351e-06,55.312,4.2502e-06,31.935,-1.5286e-13,1.2875e-07,-4.2502e-06,-31.935,0.00084517
18917,0.36731,2.8182,0,0.00061971,6192.8,0.00029464,-261.67,1.8897e-06,-2461.3,-0.00063599,-7254,0.00088429
18918,0.27548,2.9091,0,0.00067662,6761.5,0.00035474,387.27,1.1367e-06,-2269.6,-0.00066826,-7299.2,0.00050505
18919,0.36731,2.9091,0.05,5.5351e-06,55.312,4.2502e-06,31.935,-8.6129e-14,-1.2031e-07,-4.2502e-06,-31.935,0.00084517
18920,0.36731,2.6364,0,0.00061814,6177.1,0.00029383,-261.15,2.0246e-06,-2453.7,-0.0006344,-7235.5,0.00088237
18921,0.27548,2.7273,0,0.00067555,6750.9,0.00035416,386.78,1.1891e-06,-2265.3,-0.00066721,-7287.4,0.00050434
18922,0.36731,2.7273,0.05,5.5582e-06,55.544,4.268e-06,32.068,-4.8657e-14,-3.5714e-07,-4.268e-06,-32.068,0.00084397
18923,0.36731,2.4545,0,0.00061547,6150.4,0.00029244,-260.27,2.2641e-06,-2440.5,-0.00063169,-7203.8,0.00087909
18924,0.27548,2.5455,0,0.00067338,6729.1,0.00035299,385.79,1.2991e-06,-2256.7,-0.00066507,-7263.5,0.0005029
18925,0.36731,2.5455,0.05,5.6049e-06,56.01,4.3038e-06,32.337,3.0486e-14,-1.1073e-06,-4.3038e-06,-32.337,0.00084151
18926,0.36731,2.2727,0,0.0006116,6111.8,0.00029042,-258.98,2.6334e-06,-2421.3,-0.00062778,-7158,0.0008743
18927,0.27548,2.3636,0,0.00067002,6695.5,0.00035117,384.25,1.4776e-06,-2243.2,-0.00066176,-7226.5,0.00050067
18928,0.36731,2.3636,0.05,5.6756e-06,56.717,4.3582e-06,32.745,9.1138e-14,-9.8698e-07,-4.3582e-06,-32.745,0.0008377
18929,0.36731,2.0909,0,0.00060641,6059.9,0.00028769,-257.21,3.1745e-06,-2394.9,-0.00062254,-7096.3,0.0008678
18930,0.27548,2.1818,0,0.00066534,6648.8,0.00034862,382.08,1.7436e-06,-2224.2,-0.00065716,-7175,0.00049754
18931,0.36731,2.1818,0.05,5.7714e-06,57.674,4.4317e-06,33.298,1.3624e-13,-3.4742e-06,-4.4317e-06,-33.298,0.00083237
18932,0.36731,1.9091,0,0.00059972,5993.1,0.00028413,-254.88,3.9552e-06,-2360,-0.00061578,-7016.5,0.00085927
18933,0.27548,2,0,0.00065915,6587,0.00034525,379.19,2.1282e-06,-2198.9,-0.00065109,-7106.9,0.00049337
18934,0.36731,2,0.05,5.8935e-06,58.895,4.5255e-06,34.003,1.3689e-13,-1.6521e-06,-4.5255e-06,-34.003,0.00082528
18935,0.36731,1.7273,0,0.00059129,5908.9,0.0002796,-251.85,5.0864e-06,-2314.4,-0.00060729,-6915.5,0.00084829
18936,0.27548,1.8182,0,0.00065121,6507.6,0.00034088,375.41,2.6816e-06,-2165.7,-0.0006433,-7019.3,0.00048795
18937,0.36731,1.8182,0.05,6.0438e-06,60.396,4.6409e-06,34.87,-4.6773e-13,-1.2955e-05,-4.6409e-06,-34.87,0.00081607
18938,0.36731,1.5455,0,0.00058084,5804.4,0.00027386,-247.94,6.7533e-06,-2254.9,-0.00059677,-6789.5,0.00083425
18939,0.27548,1.6364,0,0.00064115,6407,0.00033531,370.54,3.4869e-06,-2122.6,-0.00063345,-6908.3,0.00048099
18940,0.36731,1.6364,0.05,6.2248e-06,62.206,4.7799e-06,35.914,-1.5876e-12,-1.0833e-05,-4.7799e-06,-35.914,0.00080426
18941,0.36731,1.3636,0,0.00056802,5676.3,0.00026662,-242.85,9.2773e-06,-2176.4,-0.0005839,-6633.3,0.00081626
18942,0.27548,1.4545,0,0.0006285,6280.7,0.00032821,364.27,4.6854e-06,-2066.6,-0.0006211,-6768.5,0.00047207
18943,0.36731,1.4545,0.05,6.4415e-06,64.37,4.9463e-06,37.164,-1.1354e-12,-2.7367e-05,-4.9463e-06,-37.164,0.00078914
18944,0.36731,1.1818,0,0.0005525,5521.2,0.00025747,-236.16,1.324e-05,-2071.2,-0.00056837,-6441.2,0.00079306
18945,0.27548,1.2727,0,0.00061264,6122.2,0.00031915,356.12,6.5296e-06,-1992.8,-0.00060568,-6592.7,0.00046056
18946,0.36731,1.2727,0.05,6.7045e-06,66.999,5.1482e-06,38.682,-4.0702e-12,-8.7363e-05,-5.1482e-06,-38.682,0.00076971
18947,0.36731,1,0,0.00053411,5337.4,0.00024586,-227.11,1.9737e-05,-1926.1,-0.00055004,-6207.2,0.00076271
18948,0.27548,1.0909,0,0.00059276,5923.5,0.00030749,345.4,9.4935e-06,-1893.7,-0.00058644,-6371.3,0.00044553
18949,0.36731,1.0909,0.05,7.0439e-06,70.39,5.4088e-06,40.64,-3.7481e-12,-6.0179e-05,-5.4088e-06,-40.64,0.00074445
18950,0.36731,0.81818,0,0.00051338,5130.2,0.00023105,-214.46,3.0926e-05,-1718.1,-0.00052944,-5928.5,0.00072218
18951,0.27548,0.90909,0,0.00056788,5674.8,0.00029226,330.82,1.4536e-05,-1755.9,-0.00056255,-6091.9,0.00042554
18952,0.36731,0.90909,0.05,7.5455e-06,75.403,5.794e-06,43.534,-9.7746e-12,-9.4224e-05,-5.794e-06,-43.534,0.00071102
18953,0.36731,0.63636,0,0.00049282,4924.8,0.00021234,-195.54,5.0844e-05,-1408.9,-0.00050877,-5613.6,0.00066648
18954,0.27548,0.72727,0,0.00053713,5367.6,0.00027204,310.83,2.3675e-05,-1555.3,-0.00053337,-5740.7,0.00039815
18955,0.36731,0.72727,0.05,8.4859e-06,84.801,6.5161e-06,48.96,-1.3216e-11,-0.00018406,-6.5161e-06,-48.96,0.00066564
18956,0.36731,0.45455,0,0.00048006,4797.3,0.00019004,-161.7,8.6043e-05,-943.11,-0.00049406,-5301.8,0.00058709
18957,0.27548,0.54545,0,0.00050088,5005.3,0.00024447,279.6,4.1547e-05,-1245.1,-0.00049956,-5310.7,0.00035907
18958,0.36731,0.54545,0.05,1.0314e-05,103.07,7.92e-06,59.508,-1.4704e-11,-0.0001234,-7.92e-06,-59.508,0.00060177
18959,0.36731,0.27273,0,0.00048968,4893.5,0.00016913,-90.444,0.0001403,-307.09,-0.00049609,-5088.6,0.00046958
18960,0.27548,0.36364,0,0.00046468,4643.6,0.00020732,235.77,7.692e-05,-743.98,-0.0004655,-4819.5,0.00030003
18961,0.36731,0.36364,0.05,1.3551e-05,135.41,1.0405e-05,78.181,-1.6158e-11,-0.00015287,-1.0405e-05,-78.181,0.00050785
18962,0.27548,0.18182,0,0.00045413,4538.2,0.00016371,164.61,0.00014134,-3.4814,-0.00045116,-4455.3,0.00020617
18963,0.36731,0.18182,0.05,1.2214e-05,122.06,9.379e-06,70.47,-1.3596e-11,-0.00012852,-9.379e-06,-70.47,0.00036401
18964,0.36731,0.090909,0,0.00049296,4926.2,0.00017485,132.42,0.00015408,-23.656,-0.00049093,-4870,0.00029398
18965,0.18365,5.7273,0,0.00042575,4254.5,0.00019622,448.18,8.1623e-05,-412.87,-0.00041856,-4171,0.00011685
18966,0.18365,5.8182,0.05,2.9472e-05,294.52,2.2631e-05,170.04,1.6009e-11,0.00020605,-2.2631e-05,-170.04,6.8753e-05
18967,0.18365,5.9091,0,0.00038455,3842.9,0.00014109,222.91,0.00012319,88.38,-0.00037908,-3685.5,5.2476e-05
18968,0.091827,5.8182,0,0.00027104,2708.5,8.422e-05,-399.91,6.133e-05,-571.9,-0.00028716,-3190.3,2.6262e-05
18969,0.18365,5.5455,0,0.00048806,4877.2,0.00026165,676.35,3.2484e-05,-1045.5,-0.00047097,-4828.2,0.00015514
18970,0.18365,5.6364,0.05,1.8775e-05,187.62,1.4417e-05,108.33,2.0511e-11,0.00023001,-1.4417e-05,-108.32,0.00011544
18971,0.091827,5.6364,0,0.00034106,3408.3,0.00011861,-831.25,2.1044e-05,-1564.3,-0.00037585,-4546.4,4.3432e-05
18972,0.18365,5.3636,0,0.00054821,5478.3,0.00030416,785.91,1.5341e-05,-1384.2,-0.00052512,-5445,0.00017836
18973,0.18365,5.4545,0.05,1.2749e-05,127.4,9.7898e-06,73.557,8.7869e-12,0.00018772,-9.7898e-06,-73.557,0.00014066
18974,0.091827,5.4545,0,0.0003992,3989.2,0.00014365,-1028.5,8.9739e-06,-2040.4,-0.00044166,-5426.3,5.2875e-05
18975,0.18365,5.1818,0,0.00059395,5935.4,0.00033325,856.14,8.1705e-06,-1586.4,-0.00056738,-5910.8,0.00019376
18976,0.18365,5.2727,0.05,9.7629e-06,97.562,7.4967e-06,56.328,1.29e-11,0.00015276,-7.4967e-06,-56.327,0.00015627
18977,0.091827,5.2727,0,0.00044083,4405.2,0.00016073,-1145,4.5217e-06,-2318.7,-0.00048785,-6018.2,5.8795e-05
18978,0.18365,5,0,0.00062823,6278,0.0003539,903.36,4.9075e-06,-1718.9,-0.00059957,-6260.6,0.00020463
18979,0.18365,5.0909,0.05,8.2123e-06,82.067,6.3061e-06,47.381,5.268e-12,0.00014319,-6.3061e-06,-47.381,0.0001669
18980,0.091827,5.0909,0,0.00047075,4704.2,0.00017262,-1223.6,2.6459e-06,-2500.7,-0.00052091,-6434.5,6.2791e-05
18981,0.18365,4.8182,0,0.00065422,6537.7,0.00036918,937.69,3.1803e-06,-1812.3,-0.00062415,-6525.8,0.00021262
18982,0.18365,4.9091,0.05,7.1536e-06,71.486,5.4931e-06,41.273,7.0377e-12,9.9707e-05,-5.4931e-06,-41.273,0.00017454
18983,0.091827,4.9091,0,0.00049288,4925.4,0.00018134,-1279.5,1.6784e-06,-2629.3,-0.00054529,-6739.1,6.5653e-05
18984,0.18365,4.6364,0,0.0006742,6737.3,0.00038075,963.26,2.1884e-06,-1881.1,-0.00064314,-6729.8,0.00021865
18985,0.18365,4.7273,0.05,6.3817e-06,63.773,4.9003e-06,36.819,2.92e-12,4.8673e-05,-4.9003e-06,-36.819,0.00018023
18986,0.091827,4.7273,0,0.00050963,5092.8,0.00018788,-1320.9,1.1401e-06,-2724,-0.00056372,-6968.2,6.7779e-05
18987,0.18365,4.4545,0,0.00068974,6892.6,0.00038966,982.77,1.5762e-06,-1933.2,-0.00065795,-6888.6,0.00022328
18988,0.18365,4.5455,0.05,5.7926e-06,57.886,4.448e-06,33.421,6.1082e-12,5.5454e-05,-4.448e-06,-33.421,0.00018456
18989,0.091827,4.5455,0,0.00052252,5221.6,0.00019289,-1352.4,8.1252e-07,-2795.6,-0.00057789,-7143.8,6.9394e-05
18990,0.18365,4.2727,0,0.0007019,7014.1,0.00039659,997.82,1.18e-06,-1973.2,-0.00066956,-7012.9,0.00022688
18991,0.18365,4.3636,0.05,5.3333e-06,53.296,4.0953e-06,30.77,1.3159e-12,5.3124e-05,-4.0953e-06,-30.77,0.0001879
18992,0.091827,4.3636,0,0.00053254,5321.7,0.00019679,-1376.6,6.0281e-07,-2850.7,-0.00058891,-7280,7.0639e-05
18993,0.18365,4.0909,0,0.00071142,7109.3,0.000402,1009.5,9.1444e-07,-2004.1,-0.00067867,-7110.2,0.00022968
18994,0.18365,4.1818,0.05,4.9716e-06,49.682,3.8176e-06,28.684,1.4274e-12,2.1021e-05,-3.8176e-06,-28.684,0.0001905
18995,0.091827,4.1818,0,0.00054037,5400,0.00019982,-1395.4,4.6304e-07,-2893.3,-0.00059751,-7386.2,7.1606e-05
18996,0.18365,3.9091,0,0.00071882,7183.2,0.00040618,1018.5,7.3262e-07,-2027.9,-0.00068575,-7185.9,0.00023184
18997,0.18365,4,0.05,4.6871e-06,46.839,3.5991e-06,27.042,-4.3112e-14,9.8523e-06,-3.5991e-06,-27.042,0.00019252
18998,0.091827,4,0,0.00054648,5461,0.00020219,-1410,3.6746e-07,-2926.4,-0.00060421,-7468.9,7.2355e-05
18999,0.18365,3.7273,0,0.00072447,7239.7,0.00040937,1025.3,6.0726e-07,-2046,-0.00069116,-7243.7,0.00023349
19000,0.18365,3.8182,0.05,4.4659e-06,44.628,3.4292e-06,25.766,4.8395e-13,3.0578e-05,-3.4292e-06,-25.766,0.00019407
19001,0.091827,3.8182,0,0.00055118,5508,0.00020401,-1421.2,3.0123e-07,-2951.7,-0.00060937,-7532.6,7.2931e-05
19002,0.18365,3.5455,0,0.00072863,7281.2,0.00041172,1030.3,5.2196e-07,-2059.2,-0.00069515,-7286.3,0.0002347
19003,0.18365,3.6364,0.05,4.2983e-06,42.953,3.3005e-06,24.799,1.4176e-14,3.3344e-05,-3.3005e-06,-24.799,0.00019523
19004,0.091827,3.6364,0,0.00055471,5543.3,0.00020537,-1429.5,2.5549e-07,-2970.7,-0.00061325,-7580.3,7.3362e-05
19005,0.18365,3.3636,0,0.00073148,7309.8,0.00041332,1033.7,4.6676e-07,-2068.3,-0.00069789,-7315.5,0.00023553
19006,0.18365,3.4545,0.05,4.1777e-06,41.748,3.2079e-06,24.103,-6.3662e-14,2.613e-07,-3.2079e-06,-24.103,0.00019606
19007,0.091827,3.4545,0,0.00055724,5568.5,0.00020635,-1435.5,2.2483e-07,-2984.2,-0.00061602,-7614.4,7.3669e-05
19008,0.18365,3.1818,0,0.00073315,7326.4,0.00041426,1035.7,4.3573e-07,-2073.6,-0.00069949,-7332.6,0.00023601
19009,0.18365,3.2727,0.05,4.0996e-06,40.967,3.148e-06,23.653,-1.3405e-13,1.5287e-05,-3.148e-06,-23.653,0.00019659
19010,0.091827,3.2727,0,0.00055886,5584.8,0.00020698,-1439.3,2.0594e-07,-2992.9,-0.0006178,-7636.4,7.3867e-05
19011,0.18365,3,0,0.0007337,7331.9,0.00041457,1036.4,4.2571e-07,-2075.3,-0.00070001,-7338.2,0.00023617
19012,0.18365,3.0909,0.05,4.0612e-06,40.584,3.1185e-06,23.431,-8.8776e-14,3.0532e-05,-3.1185e-06,-23.431,0.00019685
19013,0.091827,3.0909,0,0.00055966,5592.7,0.00020729,-1441.2,1.9693e-07,-2997.2,-0.00061868,-7647.2,7.3964e-05
19014,0.18365,2.8182,0,0.00073315,7326.4,0.00041426,1035.7,4.3573e-07,-2073.6,-0.00069949,-7332.6,0.00023601
19015,0.18365,2.9091,0.05,4.0612e-06,40.584,3.1185e-06,23.431,-4.2612e-14,-4.9701e-15,-3.1185e-06,-23.431,0.00019685
19016,0.091827,2.9091,0,0.00055966,5592.7,0.00020729,-1441.2,1.9693e-07,-2997.2,-0.00061868,-7647.2,7.3964e-05
19017,0.18365,2.6364,0,0.00073148,7309.8,0.00041332,1033.7,4.6676e-07,-2068.3,-0.00069789,-7315.5,0.00023553
19018,0.18365,2.7273,0.05,4.0996e-06,40.967,3.148e-06,23.653,3.1332e-14,-5.0171e-15,-3.148e-06,-23.653,0.00019659
19019,0.091827,2.7273,0,0.00055886,5584.8,0.00020698,-1439.3,2.0594e-07,-2992.9,-0.0006178,-7636.4,7.3867e-05
19020,0.18365,2.4545,0,0.00072863,7281.2,0.00041172,1030.3,5.2196e-07,-2059.2,-0.00069515,-7286.3,0.0002347
19021,0.18365,2.5455,0.05,4.1777e-06,41.748,3.2079e-06,24.103,5.9662e-14,-6.0293e-05,-3.2079e-06,-24.103,0.00019606
19022,0.091827,2.5455,0,0.00055724,5568.5,0.00020635,-1435.5,2.2483e-07,-2984.2,-0.00061602,-7614.4,7.3669e-05
19023,0.18365,2.2727,0,0.00072447,7239.7,0.00040937,1025.3,6.0726e-07,-2046,-0.00069116,-7243.7,0.00023349
19024,0.18365,2.3636,0.05,4.2983e-06,42.953,3.3005e-06,24.799,1.1091e-13,-1.5033e-05,-3.3005e-06,-24.799,0.00019523
19025,0.091827,2.3636,0,0.00055471,5543.3,0.00020537,-1429.5,2.5549e-07,-2970.7,-0.00061325,-7580.3,7.3362e-05
19026,0.18365,2.0909,0,0.00071882,7183.2,0.00040618,1018.5,7.3262e-07,-2027.9,-0.00068575,-7185.9,0.00023184
19027,0.18365,2.1818,0.05,4.4659e-06,44.628,3.4292e-06,25.766,1.247e-13,-2.863e-07,-3.4292e-06,-25.766,0.00019407
19028,0.091827,2.1818,0,0.00055118,5508,0.00020401,-1421.2,3.0123e-07,-2951.7,-0.00060937,-7532.6,7.2931e-05
19029,0.18365,1.9091,0,0.00071142,7109.3,0.000402,1009.5,9.1444e-07,-2004.1,-0.00067867,-7110.2,0.00022968
19030,0.18365,2,0.05,4.6871e-06,46.839,3.5991e-06,27.042,1.0685e-13,-1.8953e-05,-3.5991e-06,-27.042,0.00019252
19031,0.091827,2,0,0.00054648,5461,0.00020219,-1410,3.6746e-07,-2926.4,-0.00060421,-7468.9,7.2355e-05
19032,0.18365,1.7273,0,0.0007019,7014.1,0.00039659,997.82,1.18e-06,-1973.2,-0.00066956,-7012.9,0.00022688
19033,0.18365,1.8182,0.05,4.9716e-06,49.682,3.8176e-06,28.684,-6.5343e-13,-2.9547e-05,-3.8176e-06,-28.684,0.0001905
19034,0.091827,1.8182,0,0.00054037,5400,0.00019982,-1395.4,4.6304e-07,-2893.3,-0.00059751,-7386.2,7.1606e-05
19035,0.18365,1.5455,0,0.00068974,6892.6,0.00038966,982.77,1.5762e-06,-1933.2,-0.00065795,-6888.6,0.00022328
19036,0.18365,1.6364,0.05,5.3333e-06,53.296,4.0953e-06,30.77,-1.968e-12,-3.2552e-05,-4.0953e-06,-30.77,0.0001879
19037,0.091827,1.6364,0,0.00053254,5321.7,0.00019679,-1376.6,6.0281e-07,-2850.7,-0.00058891,-7280,7.0639e-05
19038,0.18365,1.3636,0,0.0006742,6737.3,0.00038075,963.26,2.1884e-06,-1881.1,-0.00064314,-6729.8,0.00021865
19039,0.18365,1.4545,0.05,5.7926e-06,57.886,4.448e-06,33.421,-2.1272e-13,-5.1161e-05,-4.448e-06,-33.421,0.00018456
19040,0.091827,1.4545,0,0.00052252,5221.6,0.00019289,-1352.4,8.1252e-07,-2795.6,-0.00057789,-7143.8,6.9394e-05
19041,0.18365,1.1818,0,0.00065422,6537.7,0.00036918,937.69,3.1803e-06,-1812.3,-0.00062415,-6525.8,0.00021262
19042,0.18365,1.2727,0.05,6.3817e-06,63.773,4.9003e-06,36.819,-2.3437e-12,-8.8789e-05,-4.9003e-06,-36.819,0.00018023
19043,0.091827,1.2727,0,0.00050963,5092.8,0.00018788,-1320.9,1.1401e-06,-2724,-0.00056372,-6968.2,6.7779e-05
19044,0.18365,1,0,0.00062823,6278,0.0003539,903.36,4.9075e-06,-1718.9,-0.00059957,-6260.6,0.00020463
19045,0.18365,1.0909,0.05,7.1536e-06,71.486,5.4931e-06,41.273,-6.1253e-12,-7.4767e-05,-5.4931e-06,-41.273,0.00017454
19046,0.091827,1.0909,0,0.00049288,4925.4,0.00018134,-1279.5,1.6784e-06,-2629.3,-0.00054529,-6739.1,6.5653e-05
19047,0.18365,0.81818,0,0.00059395,5935.4,0.00033325,856.14,8.1705e-06,-1586.4,-0.00056738,-5910.8,0.00019376
19048,0.18365,0.90909,0.05,8.2123e-06,82.067,6.3061e-06,47.381,-8.6581e-12,-8.214e-05,-6.306e-06,-47.381,0.0001669
19049,0.091827,0.90909,0,0.00047075,4704.2,0.00017262,-1223.6,2.6459e-06,-2500.7,-0.00052091,-6434.5,6.2791e-05
19050,0.18365,0.63636,0,0.00054821,5478.3,0.00030416,785.91,1.5341e-05,-1384.2,-0.00052512,-5445,0.00017836
19051,0.18365,0.72727,0.05,9.7629e-06,97.562,7.4967e-06,56.327,-1.1651e-11,-0.00014795,-7.4967e-06,-56.327,0.00015627
19052,0.091827,0.72727,0,0.00044083,4405.2,0.00016073,-1145,4.5217e-06,-2318.7,-0.00048785,-6018.2,5.8795e-05
19053,0.18365,0.45455,0,0.00048806,4877.2,0.00026165,676.35,3.2484e-05,-1045.5,-0.00047097,-4828.2,0.00015514
19054,0.18365,0.54545,0.05,1.2749e-05,127.4,9.7898e-06,73.557,-2.7677e-11,-7.3209e-05,-9.7898e-06,-73.557,0.00014066
19055,0.091827,0.54545,0,0.0003992,3989.2,0.00014365,-1028.5,8.9739e-06,-2040.4,-0.00044166,-5426.3,5.2875e-05
19056,0.18365,0.27273,0,0.00042575,4254.5,0.00019622,448.18,8.1623e-05,-412.87,-0.00041856,-4171,0.00011685
19057,0.18365,0.36364,0.05,1.8775e-05,187.62,1.4417e-05,108.32,-1.6921e-11,-0.00017472,-1.4417e-05,-108.33,0.00011544
19058,0.091827,0.36364,0,0.00034106,3408.3,0.00011861,-831.25,2.1044e-05,-1564.3,-0.00037585,-4546.4,4.3432e-05
19059,0.18365,0.18182,0.05,2.9472e-05,294.52,2.2631e-05,170.04,-1.4817e-11,-0.00014849,-2.2631e-05,-170.04,6.8753e-05
19060,0.18365,0.090909,0,0.00038455,3842.9,0.00014109,222.91,0.00012319,88.38,-0.00037908,-3685.5,5.2476e-05
19061,0.091827,0.18182,0,0.00027104,2708.5,8.422e-05,-399.91,6.133e-05,-571.9,-0.00028716,-3190.3,2.6262e-05
19062,19.449,0.27273,0,2.0175e-05,201.61,9.5543e-06,33.204,4.5745e-06,-4.2116,-1.9419e-05,-184.49,1.6287
19063,19.54,0.18182,0,1.9854e-05,198.4,8.3684e-06,19.58,5.1808e-06,-4.3696,-1.9486e-05,-189.71,1.6415
19064,19.449,0.18182,0.05,2.1558e-06,21.544,1.6554e-06,12.438,4.9995e-13,5.697e-06,-1.6554e-06,-12.438,1.6286
19065,19.449,0.090909,0,1.2699e-05,126.9,5.0939e-06,9.1255,3.4618e-06,-3.1374,-1.2553e-05,-123.46,1.6285
19066,19.358,0.18182,0,1.1652e-05,116.44,4.6862e-06,9.9094,3.3013e-06,-0.49559,-1.1457e-05,-111.38,1.6158
19067,19.449,0.45455,0,2.896e-05,289.4,1.4556e-05,60.366,6.183e-06,-2.5456,-2.7458e-05,-255.31,1.629
19068,19.54,0.36364,0,2.5334e-05,253.16,1.0878e-05,28.965,6.626e-06,-2.984,-2.474e-05,-238.66,1.6417
19069,19.449,0.36364,0.05,1.9779e-06,19.765,1.5188e-06,11.411,7.8849e-13,4.47e-06,-1.5188e-06,-11.411,1.6288
19070,19.358,0.36364,0,1.9298e-05,192.85,8.7162e-06,29.128,4.9309e-06,0.687,-1.8633e-05,-176.36,1.616
19071,19.449,0.63636,0,3.933e-05,393.03,2.0885e-05,97.1,7.6742e-06,-2.1616,-3.6762e-05,-336.04,1.6292
19072,19.54,0.54545,0,3.3555e-05,335.32,1.5539e-05,53.599,8.1301e-06,-2.071,-3.233e-05,-306.07,1.6419
19073,19.449,0.54545,0.05,2.1623e-06,21.609,1.6604e-06,12.476,1.9957e-13,5.4745e-06,-1.6604e-06,-12.476,1.629
19074,19.358,0.54545,0,2.7674e-05,276.55,1.3657e-05,56.089,6.2517e-06,0.44778,-2.6289e-05,-244.05,1.6162
19075,19.449,0.81818,0,5.1232e-05,511.97,2.8224e-05,140.15,9.2927e-06,-2.0982,-4.7379e-05,-427.91,1.6294
19076,19.54,0.72727,0,4.3405e-05,433.75,2.1309e-05,85.202,9.745e-06,-1.6869,-4.1326e-05,-385.41,1.6422
19077,19.449,0.72727,0.05,2.4957e-06,24.94,1.9164e-06,14.399,3.0779e-13,4.7451e-06,-1.9164e-06,-14.399,1.6293
19078,19.358,0.72727,0,3.6871e-05,368.46,1.9173e-05,87.159,7.6326e-06,0.45236,-3.4607e-05,-316.92,1.6164
19079,19.449,1,0,6.5314e-05,652.69,3.687e-05,190.47,1.12e-05,-2.4061,-5.994e-05,-536.93,1.6296
19080,19.54,0.90909,0,5.4991e-05,549.53,2.8053e-05,121.72,1.1635e-05,-1.6351,-5.1899e-05,-479.01,1.6424
19081,19.449,0.90909,0.05,2.983e-06,29.81,2.2906e-06,17.211,2.9622e-13,3.9758e-06,-2.2906e-06,-17.211,1.6295
19082,19.358,0.90909,0,4.7394e-05,473.61,2.5503e-05,123.11,9.1882e-06,0.53136,-4.4084e-05,-399.74,1.6167
19083,19.449,1.1818,0,8.2715e-05,826.58,4.7418e-05,250.98,1.366e-05,-2.6667,-7.5517e-05,-672.7,1.6299
19084,19.54,1.0909,0,6.8869e-05,688.22,3.5952e-05,163.07,1.3996e-05,-1.8984,-6.4627e-05,-592.64,1.6426
19085,19.449,1.0909,0.05,3.6687e-06,36.661,2.8171e-06,21.167,2.634e-13,2.0585e-06,-2.8171e-06,-21.167,1.6297
19086,19.358,1.0909,0,5.9983e-05,599.42,3.3074e-05,165.95,1.1018e-05,0.22975,-5.5412e-05,-498.9,1.6169
19087,19.449,1.3636,0,0.00010533,1052.6,6.0787e-05,324.22,1.7005e-05,-4.7333,-9.5961e-05,-853.52,1.6301
19088,19.54,1.2727,0,8.6057e-05,859.98,4.5394e-05,210.05,1.7172e-05,-1.9981,-8.0533e-05,-736.11,1.6428
19089,19.449,1.2727,0.05,4.7061e-06,47.028,3.6137e-06,27.152,4.3198e-13,3.106e-06,-3.6137e-06,-27.152,1.63
19090,19.358,1.2727,0,7.585e-05,757.97,4.2458e-05,218.78,1.3526e-05,1.4048,-6.9727e-05,-624.13,1.6172
19091,19.449,1.5455,0,0.00013743,1373.4,7.9244e-05,423.63,2.2409e-05,-3.4123,-0.00012521,-1112.5,1.6304
19092,19.54,1.4545,0,0.00010806,1079.8,5.6738e-05,259.32,2.1638e-05,-4.4054,-0.00010127,-927.93,1.6431
19093,19.449,1.4545,0.05,6.0855e-06,60.813,4.6729e-06,35.111,2.7742e-13,1.3035e-06,-4.6729e-06,-35.111,1.6303
19094,19.358,1.4545,0,9.7321e-05,972.54,5.5407e-05,290.05,1.6342e-05,-3.4664,-8.9063e-05,-795.44,1.6175
19095,19.449,1.7273,0,0.0001851,1849.7,0.00010107,486.63,3.3398e-05,-21.844,-0.00017187,-1564.2,1.6307
19096,19.54,1.6364,0,0.00013797,1378.7,7.0867e-05,313.35,2.9023e-05,-1.0435,-0.00012994,-1195.4,1.6433
19097,19.449,1.6364,0.05,9.2552e-06,92.488,7.1068e-06,53.398,-1.6827e-12,-4.3785e-06,-7.1068e-06,-53.398,1.6305
19098,19.358,1.6364,0,0.00012686,1267.7,7.0175e-05,362.61,2.4054e-05,16.069,-0.00011681,-1042.3,1.6178
19099,19.449,1.9091,0,0.00024105,2408.8,0.00011417,373.27,5.226e-05,-91.872,-0.00023287,-2234.2,1.631
19100,19.54,1.8182,0,0.00018172,1816,8.5695e-05,303.2,4.2332e-05,-22.615,-0.00017474,-1653.6,1.6436
19101,19.449,1.8182,0.05,1.6072e-05,160.61,1.2341e-05,92.727,-7.7421e-12,-8.3433e-05,-1.2341e-05,-92.727,1.6308
19102,19.358,1.8182,0,0.00018469,1845.6,0.00011046,586.13,2.3025e-05,-70.845,-0.00016693,-1498.1,1.6181
19103,19.449,2.0909,0,0.00027289,2727,0.00010777,179.19,7.5835e-05,-60.793,-0.00027008,-2659.9,1.6313
19104,19.54,2,0,0.00022431,2241.6,8.9006e-05,146.57,6.1512e-05,-60.01,-0.00022212,-2191.1,1.6438
19105,19.449,2,0.05,2.7738e-05,277.19,2.1299e-05,160.04,2.3043e-13,-5.2784e-05,-2.1299e-05,-160.04,1.6311
19106,19.358,2,0,0.00040839,4081.1,0.00016535,268.49,0.0001061,-176.72,-0.000405,-4017,1.6185
19107,19.449,2.2727,0,0.00027205,2718.7,0.00010462,172.84,8.0123e-05,-11.234,-0.00026884,-2633.2,1.6315
19108,19.54,2.1818,0,0.00024143,2412.6,8.8174e-05,94.799,7.3835e-05,-12.941,-0.00023986,-2369.9,1.6441
19109,19.449,2.1818,0.05,1.8036e-05,180.24,1.385e-05,104.06,8.3632e-12,1.4868e-05,-1.385e-05,-104.06,1.6314
19110,19.449,2.4545,0,0.00025614,2559.7,0.00010166,206.19,7.3916e-05,-2.2351,-0.00025204,-2451.3,1.6318
19111,19.54,2.3636,0,0.00023827,2381,8.9989e-05,133.88,7.143e-05,-5.5642,-0.00023578,-2313.8,1.6443
19112,19.449,2.3636,0.05,7.7084e-06,77.031,5.9191e-06,44.474,5.1064e-12,2.1415e-05,-5.9191e-06,-44.474,1.6316
19113,19.449,2.6364,0,0.00024054,2403.8,9.6404e-05,206.49,6.8945e-05,0.17232,-0.00023636,-2293.8,1.6319
19114,19.54,2.5455,0,0.00022813,2279.7,8.7697e-05,150.15,6.774e-05,0.1976,-0.0002252,-2200.8,1.6444
19115,19.449,2.5455,0.05,4.2975e-06,42.946,3.3e-06,24.795,6.1039e-12,3.9355e-05,-3.3e-06,-24.795,1.6318
19116,19.449,2.8182,0,0.00023197,2318.1,9.352e-05,205.56,6.611e-05,-0.3855,-0.0002278,-2208.7,1.632
19117,19.54,2.7273,0,0.00022078,2206.3,8.5917e-05,157.72,6.4869e-05,-0.42667,-0.00021768,-2123.4,1.6445
19118,19.449,2.7273,0.05,2.6554e-06,26.536,2.039e-06,15.32,4.8136e-12,4.286e-05,-2.039e-06,-15.32,1.632
19119,19.449,3,0,0.00022921,2290.6,9.2517e-05,204.68,6.5273e-05,-0.016032,-0.00022504,-2181.4,1.632
19120,19.54,2.9091,0,0.00021705,2169,8.4877e-05,160.32,6.3539e-05,0.0038353,-0.00021388,-2084.4,1.6446
19121,19.449,2.9091,0.05,2.0989e-06,20.975,1.6117e-06,12.11,1.9768e-12,3.7131e-05,-1.6117e-06,-12.11,1.632
19122,19.449,3.1818,0,0.00023197,2318.1,9.352e-05,205.56,6.611e-05,-0.3855,-0.0002278,-2208.7,1.632
19123,19.54,3.0909,0,0.00021705,2169,8.4877e-05,160.32,6.3539e-05,0.0038351,-0.00021388,-2084.4,1.6446
19124,19.449,3.0909,0.05,2.0989e-06,20.975,1.6117e-06,12.11,-1.0197e-12,2.4786e-05,-1.6117e-06,-12.11,1.632
19125,19.449,3.3636,0,0.00024054,2403.8,9.6404e-05,206.49,6.8945e-05,0.17232,-0.00023636,-2293.8,1.6319
19126,19.54,3.2727,0,0.00022078,2206.3,8.5917e-05,157.72,6.4869e-05,-0.42667,-0.00021768,-2123.4,1.6445
19127,19.449,3.2727,0.05,2.6554e-06,26.536,2.039e-06,15.32,-2.0153e-12,2.7457e-05,-2.039e-06,-15.32,1.632
19128,19.449,3.5455,0,0.00025614,2559.7,0.00010166,206.19,7.3916e-05,-2.2351,-0.00025204,-2451.3,1.6318
19129,19.54,3.4545,0,0.00022813,2279.7,8.7697e-05,150.15,6.774e-05,0.1976,-0.0002252,-2200.8,1.6444
19130,19.449,3.4545,0.05,4.2975e-06,42.946,3.3e-06,24.795,-2.4888e-12,3.962e-05,-3.3e-06,-24.795,1.6318
19131,19.449,3.7273,0,0.00027205,2718.7,0.00010462,172.84,8.0123e-05,-11.234,-0.00026884,-2633.2,1.6315
19132,19.54,3.6364,0,0.00023827,2381,8.9989e-05,133.88,7.143e-05,-5.5642,-0.00023578,-2313.8,1.6443
19133,19.449,3.6364,0.05,7.7084e-06,77.031,5.9191e-06,44.474,-2.8908e-12,5.5552e-05,-5.9191e-06,-44.474,1.6316
19134,19.449,3.9091,0,0.00027289,2727,0.00010777,179.19,7.5835e-05,-60.793,-0.00027008,-2659.9,1.6313
19135,19.54,3.8182,0,0.00024143,2412.6,8.8174e-05,94.799,7.3835e-05,-12.941,-0.00023986,-2369.9,1.6441
19136,19.449,3.8182,0.05,1.8036e-05,180.24,1.385e-05,104.06,-4.8936e-12,3.8301e-05,-1.385e-05,-104.06,1.6314
19137,19.449,4.0909,0,0.00024105,2408.8,0.00011417,373.27,5.226e-05,-91.872,-0.00023287,-2234.2,1.631
19138,19.54,4,0,0.00022431,2241.6,8.9006e-05,146.57,6.1512e-05,-60.01,-0.00022212,-2191.1,1.6438
19139,19.449,4,0.05,2.7738e-05,277.19,2.1299e-05,160.04,4.9705e-12,9.2024e-05,-2.1299e-05,-160.04,1.6311
19140,19.358,4,0,0.00040839,4081.1,0.00016535,268.49,0.0001061,-176.72,-0.000405,-4017,1.6185
19141,19.449,4.2727,0,0.0001851,1849.7,0.00010107,486.63,3.3398e-05,-21.844,-0.00017187,-1564.2,1.6307
19142,19.54,4.1818,0,0.00018172,1816,8.5695e-05,303.2,4.2332e-05,-22.615,-0.00017474,-1653.6,1.6436
19143,19.449,4.1818,0.05,1.6072e-05,160.61,1.2341e-05,92.727,1.8351e-11,0.00016488,-1.2341e-05,-92.727,1.6308
19144,19.358,4.1818,0,0.00018469,1845.6,0.00011046,586.13,2.3025e-05,-70.845,-0.00016693,-1498.1,1.6181
19145,19.449,4.4545,0,0.00013743,1373.4,7.9244e-05,423.63,2.2409e-05,-3.4123,-0.00012521,-1112.5,1.6304
19146,19.54,4.3636,0,0.00013797,1378.7,7.0867e-05,313.35,2.9023e-05,-1.0435,-0.00012994,-1195.4,1.6433
19147,19.449,4.3636,0.05,9.2552e-06,92.488,7.1068e-06,53.398,3.1301e-12,5.1118e-05,-7.1068e-06,-53.398,1.6305
19148,19.358,4.3636,0,0.00012686,1267.7,7.0175e-05,362.61,2.4054e-05,16.069,-0.00011681,-1042.3,1.6178
19149,19.449,4.6364,0,0.00010533,1052.6,6.0787e-05,324.22,1.7005e-05,-4.7333,-9.5961e-05,-853.52,1.6301
19150,19.54,4.5455,0,0.00010806,1079.8,5.6738e-05,259.32,2.1638e-05,-4.4054,-0.00010127,-927.93,1.6431
19151,19.449,4.5455,0.05,6.0855e-06,60.813,4.6729e-06,35.111,2.7069e-12,3.0197e-05,-4.6729e-06,-35.111,1.6303
19152,19.358,4.5455,0,9.7321e-05,972.54,5.5407e-05,290.05,1.6342e-05,-3.4664,-8.9063e-05,-795.44,1.6175
19153,19.449,4.8182,0,8.2715e-05,826.58,4.7418e-05,250.98,1.366e-05,-2.6667,-7.5517e-05,-672.7,1.6299
19154,19.54,4.7273,0,8.6057e-05,859.98,4.5394e-05,210.05,1.7172e-05,-1.9981,-8.0533e-05,-736.11,1.6428
19155,19.449,4.7273,0.05,4.7061e-06,47.028,3.6137e-06,27.152,1.2569e-12,6.7574e-06,-3.6137e-06,-27.152,1.63
19156,19.358,4.7273,0,7.585e-05,757.97,4.2458e-05,218.78,1.3526e-05,1.4048,-6.9727e-05,-624.13,1.6172
19157,19.449,5,0,6.5314e-05,652.69,3.687e-05,190.47,1.12e-05,-2.4061,-5.994e-05,-536.93,1.6296
19158,19.54,4.9091,0,6.8869e-05,688.22,3.5952e-05,163.07,1.3996e-05,-1.8984,-6.4627e-05,-592.64,1.6426
19159,19.449,4.9091,0.05,3.6687e-06,36.661,2.8171e-06,21.167,4.5475e-13,4.8439e-06,-2.8171e-06,-21.167,1.6297
19160,19.358,4.9091,0,5.9983e-05,599.42,3.3074e-05,165.95,1.1018e-05,0.22975,-5.5412e-05,-498.9,1.6169
19161,19.449,5.1818,0,5.1232e-05,511.97,2.8224e-05,140.15,9.2927e-06,-2.0982,-4.7379e-05,-427.91,1.6294
19162,19.54,5.0909,0,5.4991e-05,549.53,2.8053e-05,121.72,1.1635e-05,-1.6351,-5.1899e-05,-479.01,1.6424
19163,19.449,5.0909,0.05,2.983e-06,29.81,2.2906e-06,17.211,2.666e-13,3.4789e-06,-2.2906e-06,-17.211,1.6295
19164,19.358,5.0909,0,4.7394e-05,473.61,2.5503e-05,123.11,9.1882e-06,0.53136,-4.4084e-05,-399.74,1.6167
19165,19.449,5.3636,0,3.933e-05,393.03,2.0885e-05,97.1,7.6742e-06,-2.1616,-3.6762e-05,-336.04,1.6292
19166,19.54,5.2727,0,4.3405e-05,433.75,2.1309e-05,85.202,9.745e-06,-1.6869,-4.1326e-05,-385.41,1.6422
19167,19.449,5.2727,0.05,2.4957e-06,24.94,1.9164e-06,14.399,2.1906e-13,3.7682e-06,-1.9164e-06,-14.399,1.6293
19168,19.358,5.2727,0,3.6871e-05,368.46,1.9173e-05,87.159,7.6326e-06,0.45236,-3.4607e-05,-316.92,1.6164
19169,19.449,5.5455,0,2.896e-05,289.4,1.4556e-05,60.366,6.183e-06,-2.5456,-2.7458e-05,-255.31,1.629
19170,19.54,5.4545,0,3.3555e-05,335.32,1.5539e-05,53.599,8.1301e-06,-2.071,-3.233e-05,-306.07,1.6419
19171,19.449,5.4545,0.05,2.1623e-06,21.609,1.6604e-06,12.476,-1.1483e-15,8.6569e-07,-1.6604e-06,-12.476,1.629
19172,19.358,5.4545,0,2.7674e-05,276.55,1.3657e-05,56.089,6.2517e-06,0.44778,-2.6289e-05,-244.05,1.6162
19173,19.449,5.7273,0,2.0175e-05,201.61,9.5543e-06,33.204,4.5745e-06,-4.2116,-1.9419e-05,-184.49,1.6287
19174,19.54,5.6364,0,2.5334e-05,253.16,1.0878e-05,28.965,6.626e-06,-2.984,-2.474e-05,-238.66,1.6417
19175,19.449,5.6364,0.05,1.9779e-06,19.765,1.5188e-06,11.411,1.4935e-13,3.249e-06,-1.5188e-06,-11.411,1.6288
19176,19.358,5.6364,0,1.9298e-05,192.85,8.7162e-06,29.128,4.9309e-06,0.687,-1.8633e-05,-176.36,1.616
19177,19.54,5.8182,0,1.9854e-05,198.4,8.3684e-06,19.581,5.1808e-06,-4.3696,-1.9486e-05,-189.71,1.6415
19178,19.449,5.8182,0.05,2.1558e-06,21.544,1.6554e-06,12.438,9.2892e-14,3.4873e-06,-1.6554e-06,-12.438,1.6286
19179,19.449,5.9091,0,1.2699e-05,126.9,5.0939e-06,9.1255,3.4618e-06,-3.1374,-1.2553e-05,-123.46,1.6285
19180,19.358,5.8182,0,1.1652e-05,116.44,4.6862e-06,9.9095,3.3013e-06,-0.49559,-1.1457e-05,-111.38,1.6158
19181,19.631,0.27273,0,2.5722e-05,257.04,1.0178e-05,18.989,7.3137e-06,-2.5301,-2.5374e-05,-248.13,1.6545
19182,19.722,0.18182,0,2.7683e-05,276.64,1.076e-05,18.622,8.0469e-06,-1.7657,-2.734e-05,-267.65,1.6673
19183,19.631,0.18182,0.05,1.8268e-06,18.256,1.4028e-06,10.54,3.4961e-13,3.5484e-06,-1.4028e-06,-10.54,1.6544
19184,19.631,0.090909,0,2.1548e-05,215.33,7.7829e-06,7.9915,6.6971e-06,-0.16692,-2.1403e-05,-211.3,1.6543
19185,19.631,0.45455,0,3.1047e-05,310.25,1.2654e-05,28.156,8.6588e-06,-1.8657,-3.049e-05,-296.02,1.6547
19186,19.722,0.36364,0,3.0583e-05,305.61,1.163e-05,17.287,9.0374e-06,-2.1915,-3.0279e-05,-297.6,1.6675
19187,19.631,0.36364,0.05,1.5572e-06,15.561,1.1957e-06,8.984,6.8853e-13,5.3947e-06,-1.1957e-06,-8.984,1.6546
19188,19.631,0.63636,0,3.8834e-05,388.07,1.6826e-05,48.185,1.0243e-05,-1.2767,-3.7799e-05,-362.25,1.6549
19189,19.722,0.54545,0,3.6301e-05,362.76,1.4348e-05,27.653,1.0432e-05,-1.7736,-3.5771e-05,-348.92,1.6677
19190,19.631,0.54545,0.05,1.5934e-06,15.923,1.2236e-06,9.1933,8.1682e-13,6.9135e-06,-1.2236e-06,-9.1933,1.6548
19191,19.631,0.81818,0,4.8449e-05,484.16,2.2044e-05,73.584,1.2117e-05,-1.0025,-4.6782e-05,-443.54,1.6551
19192,19.722,0.72727,0,4.3979e-05,439.49,1.8227e-05,44.339,1.2142e-05,-1.383,-4.3069e-05,-416.22,1.6679
19193,19.631,0.72727,0.05,1.7161e-06,17.149,1.3177e-06,9.9008,1.804e-13,3.8144e-06,-1.3177e-06,-9.9008,1.655
19194,19.631,1,0,6.0002e-05,599.61,2.8141e-05,101.89,1.4456e-05,-0.93435,-5.7619e-05,-542.48,1.6553
19195,19.722,0.90909,0,5.3429e-05,533.92,2.2952e-05,64.112,1.4251e-05,-1.2576,-5.2059e-05,-499.49,1.6681
19196,19.631,0.90909,0.05,1.9214e-06,19.201,1.4754e-06,11.086,-1.9396e-14,3.6403e-06,-1.4754e-06,-11.086,1.6552
19197,19.631,1.1818,0,7.3992e-05,739.41,3.5142e-05,131.27,1.7534e-05,-1.0355,-7.0883e-05,-665.37,1.6555
19198,19.722,1.0909,0,6.4799e-05,647.55,2.836e-05,84.399,1.6953e-05,-1.3101,-6.2959e-05,-601.73,1.6683
19199,19.631,1.0909,0.05,2.2262e-06,22.247,1.7094e-06,12.844,-1.1723e-13,-1.832e-06,-1.7094e-06,-12.844,1.6554
19200,19.631,1.3636,0,9.1102e-05,910.39,4.2894e-05,156.78,2.1833e-05,-1.4617,-8.7422e-05,-822.36,1.6558
19201,19.722,1.2727,0,7.8481e-05,784.27,3.4335e-05,102.08,2.0542e-05,-1.5531,-7.6255e-05,-728.85,1.6685
19202,19.631,1.2727,0.05,2.6102e-06,26.084,2.0043e-06,15.059,-3.1338e-13,-1.2855e-07,-2.0043e-06,-15.059,1.6556
19203,19.631,1.5455,0,0.00011204,1119.7,5.0624e-05,166.05,2.8288e-05,-1.7732,-0.0001083,-1028,1.656
19204,19.722,1.4545,0,9.4917e-05,948.51,4.0479e-05,110.29,2.5515e-05,-2.1385,-9.2575e-05,-889.42,1.6687
19205,19.631,1.4545,0.05,3.3131e-06,33.108,2.5441e-06,19.115,-2.9759e-13,-9.0946e-06,-2.5441e-06,-19.115,1.6559
19206,19.631,1.7273,0,0.00013775,1376.6,5.737e-05,144.04,3.8021e-05,-1.3356,-0.00013475,-1299.5,1.6562
19207,19.722,1.6364,0,0.00011445,1143.7,4.592e-05,96.884,3.2577e-05,-3.3716,-0.00011252,-1093.6,1.6689
19208,19.631,1.6364,0.05,3.7579e-06,37.553,2.8856e-06,21.681,-2.2612e-12,-2.0104e-05,-2.8856e-06,-21.681,1.6561
19209,19.631,1.9091,0,0.00016471,1646,5.979e-05,70.906,5.1594e-05,9.3219,-0.00016326,-1605,1.6564
19210,19.722,1.8182,0,0.00013733,1372.4,5.0154e-05,55.348,4.2136e-05,-4.9012,-0.00013637,-1346.2,1.6691
19211,19.631,1.8182,0.05,5.6928e-06,56.889,4.3714e-06,32.845,-4.0777e-12,-4.2808e-05,-4.3714e-06,-32.845,1.6563
19212,19.631,2.0909,0,0.00018946,1893.3,6.3792e-05,20.005,6.2203e-05,8.0597,-0.00018898,-1879.2,1.6566
19213,19.722,2,0,0.00015965,1595.4,5.4446e-05,9.4434,5.0562e-05,-19.744,-0.00015981,-1600.4,1.6693
19214,19.631,2,0.05,5.5724e-06,55.686,4.2789e-06,32.15,2.0665e-12,-1.1507e-06,-4.2789e-06,-32.15,1.6565
19215,19.631,2.2727,0,0.00020503,2048.9,7.0775e-05,35.06,6.5587e-05,-3.924,-0.00020447,-2033.1,1.6568
19216,19.722,2.1818,0,0.00017961,1794.8,6.1148e-05,6.0775,5.6637e-05,-27.816,-0.00017995,-1805.5,1.6694
19217,19.631,2.1818,0.05,8.1877e-06,81.82,6.2871e-06,47.239,5.0368e-12,2.1286e-05,-6.2871e-06,-47.239,1.6567
19218,19.631,2.4545,0,0.00020924,2091,7.5103e-05,70.877,6.5232e-05,-3.284,-0.00020799,-2056.2,1.657
19219,19.722,2.3636,0,0.00018967,1895.4,6.461e-05,18.653,6.088e-05,-9.375,-0.0001895,-1890.6,1.6696
19220,19.631,2.3636,0.05,6.269e-06,62.646,4.8138e-06,36.169,6.6433e-12,3.6718e-05,-4.8138e-06,-36.169,1.6569
19221,19.631,2.6364,0,0.00020782,2076.7,7.6671e-05,97.33,6.3675e-05,-0.31547,-0.00020599,-2026.5,1.6571
19222,19.722,2.5455,0,0.00019242,1922.9,6.7364e-05,45.591,6.1109e-05,-1.401,-0.00019163,-1900.4,1.6697
19223,19.631,2.5455,0.05,4.6468e-06,46.436,3.5681e-06,26.81,7.0486e-12,4.7219e-05,-3.5682e-06,-26.81,1.657
19224,19.631,2.8182,0,0.00020543,2052.9,7.6858e-05,109.36,6.2304e-05,0.0069772,-0.00020335,-1996,1.6572
19225,19.722,2.7273,0,0.00019201,1918.8,6.8626e-05,63.24,6.0195e-05,-0.1072,-0.00019086,-1886.4,1.6698
19226,19.631,2.7273,0.05,3.4035e-06,34.011,2.6134e-06,19.636,4.7612e-12,4.5399e-05,-2.6135e-06,-19.636,1.6571
19227,19.631,3,0,0.00020449,2043.5,7.6844e-05,113.02,6.1812e-05,0.075197,-0.00020233,-1984.6,1.6572
19228,19.722,2.9091,0,0.00019133,1912,6.9081e-05,71.593,5.9575e-05,0.17541,-0.00019001,-1875.1,1.6699
19229,19.631,2.9091,0.05,2.862e-06,28.6,2.1976e-06,16.512,1.5739e-12,3.4594e-05,-2.1976e-06,-16.512,1.6572
19230,19.631,3.1818,0,0.00020543,2052.9,7.6858e-05,109.36,6.2304e-05,0.0069776,-0.00020335,-1996,1.6572
19231,19.722,3.0909,0,0.00019133,1912,6.9081e-05,71.593,5.9575e-05,0.17541,-0.00019001,-1875.1,1.6699
19232,19.631,3.0909,0.05,2.862e-06,28.6,2.1976e-06,16.512,-1.4962e-12,1.7058e-05,-2.1976e-06,-16.512,1.6572
19233,19.631,3.3636,0,0.00020782,2076.7,7.6671e-05,97.33,6.3675e-05,-0.31546,-0.00020599,-2026.5,1.6571
19234,19.722,3.2727,0,0.00019201,1918.8,6.8626e-05,63.24,6.0195e-05,-0.1072,-0.00019086,-1886.4,1.6698
19235,19.631,3.2727,0.05,3.4035e-06,34.011,2.6135e-06,19.637,-4.0175e-12,7.3079e-06,-2.6134e-06,-19.636,1.6571
19236,19.631,3.5455,0,0.00020924,2091,7.5103e-05,70.877,6.5232e-05,-3.284,-0.00020799,-2056.2,1.657
19237,19.722,3.4545,0,0.00019242,1922.9,6.7364e-05,45.591,6.1109e-05,-1.401,-0.00019163,-1900.4,1.6697
19238,19.631,3.4545,0.05,4.6468e-06,46.436,3.5682e-06,26.81,-3.7978e-12,6.5949e-06,-3.5681e-06,-26.81,1.657
19239,19.631,3.7273,0,0.00020503,2048.9,7.0775e-05,35.061,6.5587e-05,-3.924,-0.00020447,-2033.1,1.6568
19240,19.722,3.6364,0,0.00018967,1895.4,6.461e-05,18.653,6.088e-05,-9.375,-0.0001895,-1890.6,1.6696
19241,19.631,3.6364,0.05,6.269e-06,62.646,4.8138e-06,36.169,-6.5237e-12,9.6951e-06,-4.8138e-06,-36.169,1.6569
19242,19.631,3.9091,0,0.00018946,1893.3,6.3792e-05,20.005,6.2203e-05,8.0597,-0.00018898,-1879.2,1.6566
19243,19.722,3.8182,0,0.00017961,1794.8,6.1148e-05,6.0775,5.6637e-05,-27.816,-0.00017995,-1805.5,1.6694
19244,19.631,3.8182,0.05,8.1877e-06,81.82,6.2871e-06,47.239,-6.0086e-12,4.0943e-06,-6.2871e-06,-47.239,1.6567
19245,19.631,4.0909,0,0.00016471,1646,5.979e-05,70.906,5.1594e-05,9.3219,-0.00016326,-1605,1.6564
19246,19.722,4,0,0.00015965,1595.4,5.4446e-05,9.4434,5.0562e-05,-19.744,-0.00015981,-1600.4,1.6693
19247,19.631,4,0.05,5.5724e-06,55.686,4.2789e-06,32.15,-5.1506e-12,8.2798e-06,-4.2789e-06,-32.15,1.6565
19248,19.631,4.2727,0,0.00013775,1376.6,5.737e-05,144.04,3.8021e-05,-1.3356,-0.00013475,-1299.5,1.6562
19249,19.722,4.1818,0,0.00013733,1372.4,5.0154e-05,55.348,4.2136e-05,-4.9012,-0.00013637,-1346.2,1.6691
19250,19.631,4.1818,0.05,5.6928e-06,56.889,4.3714e-06,32.845,7.8292e-12,0.00011236,-4.3714e-06,-32.845,1.6563
19251,19.631,4.4545,0,0.00011204,1119.7,5.0624e-05,166.05,2.8288e-05,-1.7732,-0.0001083,-1028,1.656
19252,19.722,4.3636,0,0.00011445,1143.7,4.592e-05,96.883,3.2577e-05,-3.3716,-0.00011252,-1093.6,1.6689
19253,19.631,4.3636,0.05,3.7579e-06,37.553,2.8856e-06,21.681,6.3887e-12,8.7848e-05,-2.8856e-06,-21.681,1.6561
19254,19.631,4.6364,0,9.1102e-05,910.39,4.2894e-05,156.78,2.1833e-05,-1.4617,-8.7422e-05,-822.36,1.6558
19255,19.722,4.5455,0,9.4917e-05,948.51,4.0479e-05,110.29,2.5515e-05,-2.1385,-9.2575e-05,-889.42,1.6687
19256,19.631,4.5455,0.05,3.3131e-06,33.108,2.5441e-06,19.115,5.6208e-12,4.1455e-05,-2.5441e-06,-19.115,1.6559
19257,19.631,4.8182,0,7.3992e-05,739.41,3.5142e-05,131.27,1.7534e-05,-1.0355,-7.0883e-05,-665.37,1.6555
19258,19.722,4.7273,0,7.8481e-05,784.27,3.4335e-05,102.08,2.0542e-05,-1.5531,-7.6255e-05,-728.85,1.6685
19259,19.631,4.7273,0.05,2.6102e-06,26.084,2.0043e-06,15.059,2.7361e-12,3.0827e-05,-2.0043e-06,-15.059,1.6556
19260,19.631,5,0,6.0002e-05,599.61,2.8141e-05,101.89,1.4456e-05,-0.93435,-5.7619e-05,-542.48,1.6553
19261,19.722,4.9091,0,6.4799e-05,647.55,2.836e-05,84.399,1.6953e-05,-1.3101,-6.2959e-05,-601.73,1.6683
19262,19.631,4.9091,0.05,2.2262e-06,22.247,1.7094e-06,12.844,1.3415e-12,1.3276e-05,-1.7094e-06,-12.844,1.6554
19263,19.631,5.1818,0,4.8449e-05,484.16,2.2044e-05,73.584,1.2117e-05,-1.0025,-4.6782e-05,-443.54,1.6551
19264,19.722,5.0909,0,5.3429e-05,533.92,2.2952e-05,64.112,1.4251e-05,-1.2576,-5.2059e-05,-499.49,1.6681
19265,19.631,5.0909,0.05,1.9214e-06,19.201,1.4754e-06,11.086,6.5767e-13,6.7571e-06,-1.4754e-06,-11.086,1.6552
19266,19.631,5.3636,0,3.8834e-05,388.07,1.6826e-05,48.185,1.0243e-05,-1.2767,-3.7799e-05,-362.25,1.6549
19267,19.722,5.2727,0,4.3979e-05,439.49,1.8227e-05,44.339,1.2142e-05,-1.383,-4.3069e-05,-416.22,1.6679
19268,19.631,5.2727,0.05,1.7161e-06,17.149,1.3177e-06,9.9008,4.9611e-13,6.0534e-06,-1.3177e-06,-9.9008,1.655
19269,19.631,5.5455,0,3.1047e-05,310.25,1.2654e-05,28.156,8.6588e-06,-1.8657,-3.049e-05,-296.02,1.6547
19270,19.722,5.4545,0,3.6301e-05,362.76,1.4348e-05,27.653,1.0432e-05,-1.7736,-3.5771e-05,-348.92,1.6677
19271,19.631,5.4545,0.05,1.5934e-06,15.923,1.2236e-06,9.1933,4.1574e-13,5.3659e-06,-1.2236e-06,-9.1933,1.6548
19272,19.631,5.7273,0,2.5722e-05,257.04,1.0178e-05,18.989,7.3137e-06,-2.5301,-2.5374e-05,-248.13,1.6545
19273,19.722,5.6364,0,3.0583e-05,305.61,1.163e-05,17.287,9.0374e-06,-2.1915,-3.0279e-05,-297.6,1.6675
19274,19.631,5.6364,0.05,1.5572e-06,15.561,1.1957e-06,8.984,4.6092e-13,5.9923e-06,-1.1957e-06,-8.984,1.6546
19275,19.722,5.8182,0,2.7683e-05,276.64,1.076e-05,18.622,8.0469e-06,-1.7657,-2.734e-05,-267.65,1.6673
19276,19.631,5.8182,0.05,1.8268e-06,18.256,1.4028e-06,10.54,2.6631e-13,4.03e-06,-1.4028e-06,-10.54,1.6544
19277,19.631,5.9091,0,2.1548e-05,215.33,7.7829e-06,7.9916,6.6971e-06,-0.16692,-2.1403e-05,-211.3,1.6543
19278,19.813,0.27273,0,3.2682e-05,326.6,1.2345e-05,17.918,9.7526e-06,-1.5628,-3.236e-05,-317.98,1.6803
19279,19.904,0.18182,0,3.4702e-05,346.79,1.3152e-05,20.011,1.0371e-05,-0.88247,-3.433e-05,-336.75,1.6931
19280,19.813,0.18182,0.05,1.6267e-06,16.256,1.2491e-06,9.3852,7.8719e-14,5.6207e-07,-1.2491e-06,-9.3852,1.6802
19281,19.813,0.090909,0,2.9489e-05,294.68,1.0577e-05,10.145,9.2205e-06,-0.046479,-2.9304e-05,-289.5,1.6801
19282,19.813,0.45455,0,3.6285e-05,362.6,1.3667e-05,19.365,1.0847e-05,-1.8222,-3.594e-05,-353.36,1.6805
19283,19.904,0.36364,0,3.6675e-05,366.49,1.3498e-05,15.994,1.1184e-05,-1.3899,-3.6395e-05,-358.88,1.6933
19284,19.813,0.36364,0.05,1.3353e-06,13.344,1.0254e-06,7.7043,-1.6591e-13,1.5666e-06,-1.0254e-06,-7.7043,1.6804
19285,19.813,0.63636,0,4.2144e-05,421.15,1.6302e-05,27.962,1.2355e-05,-1.6972,-4.1618e-05,-407.23,1.6807
19286,19.904,0.54545,0,4.0865e-05,408.36,1.513e-05,18.843,1.2399e-05,-1.672,-4.0534e-05,-399.39,1.6934
19287,19.813,0.54545,0.05,1.3582e-06,13.573,1.0429e-06,7.8361,4.8505e-13,6.9136e-06,-1.0429e-06,-7.8361,1.6805
19288,19.813,0.81818,0,4.9825e-05,497.91,1.9822e-05,40.025,1.4285e-05,-1.58,-4.9041e-05,-477.38,1.6808
19289,19.904,0.72727,0,4.6816e-05,467.83,1.7611e-05,25.102,1.4047e-05,-1.6783,-4.636e-05,-455.55,1.6936
19290,19.813,0.72727,0.05,1.4335e-06,14.326,1.1008e-06,8.2709,4.4172e-13,4.6998e-06,-1.1008e-06,-8.2709,1.6807
19291,19.813,1,0,5.9239e-05,591.99,2.396e-05,52.552,1.6747e-05,-1.6413,-5.8187e-05,-564.67,1.681
19292,19.904,0.90909,0,5.4381e-05,543.43,2.0717e-05,32.472,1.6167e-05,-1.7193,-5.3777e-05,-527.25,1.6938
19293,19.813,0.90909,0.05,1.548e-06,15.469,1.1886e-06,8.931,8.8946e-13,6.3176e-06,-1.1886e-06,-8.931,1.6809
19294,19.813,1.1818,0,7.0451e-05,704.03,2.8445e-05,61.915,1.9951e-05,-1.9008,-6.9213e-05,-671.85,1.6812
19295,19.904,1.0909,0,6.3522e-05,634.78,2.4217e-05,38.18,1.8878e-05,-1.939,-6.281e-05,-615.71,1.694
19296,19.813,1.0909,0.05,1.6979e-06,16.968,1.3038e-06,9.7963,6.226e-14,2.2296e-07,-1.3038e-06,-9.7963,1.6811
19297,19.813,1.3636,0,8.3592e-05,835.34,3.2903e-05,62.976,2.4202e-05,-2.3948,-8.2369e-05,-803.13,1.6814
19298,19.904,1.2727,0,7.4253e-05,742.02,2.7821e-05,38.56,2.2358e-05,-2.4862,-7.3554e-05,-723.13,1.6942
19299,19.813,1.2727,0.05,1.8872e-06,18.859,1.4491e-06,10.888,-6.8564e-14,-3.8124e-06,-1.4491e-06,-10.888,1.6813
19300,19.813,1.5455,0,9.8512e-05,984.44,3.6698e-05,48.062,2.9744e-05,-4.1904,-9.7662e-05,-961.47,1.6816
19301,19.904,1.4545,0,8.6594e-05,865.35,3.1203e-05,29.323,2.6783e-05,-3.8856,-8.6114e-05,-852.15,1.6943
19302,19.813,1.4545,0.05,2.0708e-06,20.694,1.5901e-06,11.947,-7.6352e-13,-3.6471e-15,-1.5901e-06,-11.947,1.6815
19303,19.813,1.7273,0,0.00011492,1148.4,3.9676e-05,15.487,3.6363e-05,-9.4093,-0.00011479,-1145.1,1.6818
19304,19.904,1.6364,0,0.00010024,1001.7,3.4463e-05,9.6799,3.1612e-05,-11.745,-0.00010025,-1002.5,1.6945
19305,19.813,1.6364,0.05,2.3218e-06,23.202,1.7829e-06,13.396,-1.4866e-12,-1.466e-05,-1.7829e-06,-13.396,1.6817
19306,19.813,1.9091,0,0.00013242,1323.3,4.5521e-05,-0.77594,4.0516e-05,-38.387,-0.00013304,-1342.4,1.6819
19307,19.904,1.8182,0,0.00011495,1148.7,4.0208e-05,1.4042,3.4168e-05,-43.983,-0.00011561,-1169.4,1.6946
19308,19.813,1.8182,0.05,2.9428e-06,29.408,2.2597e-06,16.979,-3.1881e-12,-1.3772e-05,-2.2597e-06,-16.979,1.6818
19309,19.813,2.0909,0,0.00014938,1492.7,5.206e-05,-2.5472,4.4322e-05,-60.681,-0.00015037,-1523.5,1.6821
19310,19.904,2,0,0.00013022,1301.3,4.6577e-05,-1.0099,3.6657e-05,-75.547,-0.00013136,-1338,1.6948
19311,19.813,2,0.05,3.7414e-06,37.388,2.8729e-06,21.586,8.1385e-13,-6.13e-06,-2.8729e-06,-21.586,1.682
19312,19.813,2.2727,0,0.00016323,1631.1,5.6469e-05,0.83409,4.9492e-05,-51.589,-0.00016403,-1655.9,1.6822
19313,19.904,2.1818,0,0.00014431,1442.1,5.1572e-05,-0.14129,4.0798e-05,-81.098,-0.00014552,-1481,1.6949
19314,19.813,2.1818,0.05,4.3087e-06,43.057,3.3085e-06,24.859,3.5598e-12,1.5975e-05,-3.3085e-06,-24.859,1.6822
19315,19.813,2.4545,0,0.00017192,1718.1,5.8236e-05,3.6206,5.4519e-05,-24.308,-0.00017226,-1728.2,1.6824
19316,19.904,2.3636,0,0.00015508,1549.7,5.4332e-05,1.7362,4.5925e-05,-61.427,-0.000156,-1578.6,1.695
19317,19.813,2.3636,0.05,4.5889e-06,45.857,3.5237e-06,26.476,5.6123e-12,3.9309e-05,-3.5237e-06,-26.476,1.6823
19318,19.813,2.6364,0,0.00017594,1758.2,5.8995e-05,9.0659,5.7311e-05,-3.5883,-0.00017585,-1755.4,1.6825
19319,19.904,2.5455,0,0.00016133,1612.2,5.5114e-05,1.4088,5.0178e-05,-35.677,-0.00016188,-1629,1.6951
19320,19.813,2.5455,0.05,3.9751e-06,39.724,3.0524e-06,22.935,6.2095e-12,4.226e-05,-3.0524e-06,-22.935,1.6824
19321,19.813,2.8182,0,0.00017738,1772.6,6.0342e-05,21.664,5.7458e-05,-0.0060065,-0.000177,-1761.6,1.6825
19322,19.904,2.7273,0,0.00016435,1642.4,5.5147e-05,1.2918,5.2809e-05,-16.273,-0.0001646,-1649.8,1.6952
19323,19.813,2.7273,0.05,3.4409e-06,34.386,2.6422e-06,19.853,4.2579e-12,3.8711e-05,-2.6422e-06,-19.852,1.6825
19324,19.813,3,0,0.00017769,1775.7,6.0829e-05,26.503,5.735e-05,0.36124,-0.00017722,-1762.1,1.6825
19325,19.904,2.9091,0,0.00016548,1653.7,5.4959e-05,0.64228,5.4075e-05,-6.0039,-0.00016557,-1656.3,1.6952
19326,19.813,2.9091,0.05,3.1213e-06,31.192,2.3968e-06,18.009,1.9343e-12,2.8281e-05,-2.3968e-06,-18.009,1.6825
19327,19.813,3.1818,0,0.00017738,1772.6,6.0342e-05,21.664,5.7458e-05,-0.0060066,-0.000177,-1761.6,1.6825
19328,19.904,3.0909,0,0.00016548,1653.7,5.4959e-05,0.64228,5.4075e-05,-6.0039,-0.00016557,-1656.3,1.6952
19329,19.813,3.0909,0.05,3.1213e-06,31.192,2.3968e-06,18.009,-1.904e-12,1.2097e-05,-2.3968e-06,-18.009,1.6825
19330,19.813,3.3636,0,0.00017594,1758.2,5.8995e-05,9.0659,5.7311e-05,-3.5883,-0.00017585,-1755.4,1.6825
19331,19.904,3.2727,0,0.00016435,1642.4,5.5147e-05,1.2918,5.2809e-05,-16.273,-0.0001646,-1649.8,1.6952
19332,19.813,3.2727,0.05,3.4409e-06,34.386,2.6422e-06,19.853,-4.0626e-12,-9.3851e-08,-2.6422e-06,-19.852,1.6825
19333,19.813,3.5455,0,0.00017192,1718.1,5.8236e-05,3.6206,5.4519e-05,-24.308,-0.00017226,-1728.2,1.6824
19334,19.904,3.4545,0,0.00016133,1612.2,5.5114e-05,1.4088,5.0178e-05,-35.677,-0.00016188,-1629,1.6951
19335,19.813,3.4545,0.05,3.9751e-06,39.724,3.0524e-06,22.935,-5.491e-12,-4.5992e-06,-3.0524e-06,-22.935,1.6824
19336,19.813,3.7273,0,0.00016323,1631.1,5.6469e-05,0.83409,4.9492e-05,-51.589,-0.00016403,-1655.9,1.6822
19337,19.904,3.6364,0,0.00015508,1549.7,5.4332e-05,1.7362,4.5925e-05,-61.427,-0.000156,-1578.6,1.695
19338,19.813,3.6364,0.05,4.5889e-06,45.857,3.5237e-06,26.476,-6.2334e-12,-5.6753e-06,-3.5237e-06,-26.475,1.6823
19339,19.813,3.9091,0,0.00014938,1492.7,5.206e-05,-2.5472,4.4322e-05,-60.681,-0.00015037,-1523.5,1.6821
19340,19.904,3.8182,0,0.00014431,1442.1,5.1572e-05,-0.14129,4.0798e-05,-81.098,-0.00014552,-1481,1.6949
19341,19.813,3.8182,0.05,4.3087e-06,43.057,3.3085e-06,24.859,-4.9897e-12,-1.7628e-06,-3.3085e-06,-24.859,1.6822
19342,19.813,4.0909,0,0.00013242,1323.3,4.5521e-05,-0.77595,4.0516e-05,-38.387,-0.00013304,-1342.4,1.6819
19343,19.904,4,0,0.00013022,1301.3,4.6577e-05,-1.0099,3.6657e-05,-75.547,-0.00013136,-1338,1.6948
19344,19.813,4,0.05,3.7414e-06,37.388,2.8729e-06,21.586,-2.5582e-12,1.5001e-05,-2.8729e-06,-21.586,1.682
19345,19.813,4.2727,0,0.00011492,1148.4,3.9676e-05,15.487,3.6363e-05,-9.4093,-0.00011479,-1145.1,1.6818
19346,19.904,4.1818,0,0.00011495,1148.7,4.0208e-05,1.4042,3.4168e-05,-43.983,-0.00011561,-1169.4,1.6946
19347,19.813,4.1818,0.05,2.9428e-06,29.408,2.2597e-06,16.979,5.4925e-12,2.451e-05,-2.2597e-06,-16.979,1.6818
19348,19.813,4.4545,0,9.8512e-05,984.44,3.6698e-05,48.062,2.9744e-05,-4.1904,-9.7662e-05,-961.47,1.6816
19349,19.904,4.3636,0,0.00010024,1001.7,3.4463e-05,9.6799,3.1612e-05,-11.745,-0.00010025,-1002.5,1.6945
19350,19.813,4.3636,0.05,2.3218e-06,23.202,1.7829e-06,13.396,6.4945e-12,7.6038e-05,-1.7829e-06,-13.396,1.6817
19351,19.813,4.6364,0,8.3592e-05,835.34,3.2903e-05,62.976,2.4202e-05,-2.3948,-8.2369e-05,-803.13,1.6814
19352,19.904,4.5455,0,8.6594e-05,865.35,3.1203e-05,29.323,2.6783e-05,-3.8856,-8.6114e-05,-852.15,1.6943
19353,19.813,4.5455,0.05,2.0708e-06,20.694,1.5901e-06,11.947,5.2868e-12,5.6137e-05,-1.5901e-06,-11.947,1.6815
19354,19.813,4.8182,0,7.0451e-05,704.03,2.8445e-05,61.915,1.9951e-05,-1.9008,-6.9213e-05,-671.85,1.6812
19355,19.904,4.7273,0,7.4253e-05,742.02,2.7821e-05,38.56,2.2358e-05,-2.4862,-7.3554e-05,-723.13,1.6942
19356,19.813,4.7273,0.05,1.8872e-06,18.859,1.4491e-06,10.888,3.6481e-12,4.0898e-05,-1.4491e-06,-10.888,1.6813
19357,19.813,5,0,5.9239e-05,591.99,2.396e-05,52.552,1.6747e-05,-1.6413,-5.8187e-05,-564.67,1.681
19358,19.904,4.9091,0,6.3522e-05,634.78,2.4217e-05,38.18,1.8878e-05,-1.939,-6.281e-05,-615.71,1.694
19359,19.813,4.9091,0.05,1.6979e-06,16.968,1.3038e-06,9.7963,2.5052e-12,2.8495e-05,-1.3038e-06,-9.7963,1.6811
19360,19.813,5.1818,0,4.9825e-05,497.91,1.9822e-05,40.025,1.4285e-05,-1.58,-4.9041e-05,-477.38,1.6808
19361,19.904,5.0909,0,5.4381e-05,543.43,2.0717e-05,32.472,1.6167e-05,-1.7193,-5.3777e-05,-527.25,1.6938
19362,19.813,5.0909,0.05,1.548e-06,15.469,1.1886e-06,8.931,1.4216e-12,1.8234e-05,-1.1886e-06,-8.931,1.6809
19363,19.813,5.3636,0,4.2144e-05,421.15,1.6302e-05,27.962,1.2355e-05,-1.6972,-4.1618e-05,-407.23,1.6807
19364,19.904,5.2727,0,4.6816e-05,467.83,1.7611e-05,25.102,1.4047e-05,-1.6783,-4.636e-05,-455.55,1.6936
19365,19.813,5.2727,0.05,1.4335e-06,14.326,1.1008e-06,8.2709,1.0512e-12,1.1118e-05,-1.1008e-06,-8.2709,1.6807
19366,19.813,5.5455,0,3.6285e-05,362.6,1.3667e-05,19.365,1.0847e-05,-1.8222,-3.594e-05,-353.36,1.6805
19367,19.904,5.4545,0,4.0865e-05,408.36,1.513e-05,18.843,1.2399e-05,-1.672,-4.0534e-05,-399.39,1.6934
19368,19.813,5.4545,0.05,1.3582e-06,13.573,1.0429e-06,7.8361,5.6169e-13,1.1057e-05,-1.0429e-06,-7.8361,1.6805
19369,19.813,5.7273,0,3.2682e-05,326.6,1.2345e-05,17.918,9.7526e-06,-1.5628,-3.236e-05,-317.98,1.6803
19370,19.904,5.6364,0,3.6675e-05,366.49,1.3498e-05,15.994,1.1184e-05,-1.3899,-3.6395e-05,-358.88,1.6933
19371,19.813,5.6364,0.05,1.3353e-06,13.344,1.0254e-06,7.7043,4.7158e-13,9.4209e-06,-1.0254e-06,-7.7043,1.6804
19372,19.904,5.8182,0,3.4702e-05,346.79,1.3152e-05,20.011,1.0371e-05,-0.88247,-3.433e-05,-336.75,1.6931
19373,19.813,5.8182,0.05,1.6267e-06,16.256,1.2491e-06,9.3852,5.3682e-13,7.0674e-06,-1.2491e-06,-9.3852,1.6802
19374,19.813,5.9091,0,2.9489e-05,294.68,1.0577e-05,10.145,9.2205e-06,-0.046479,-2.9304e-05,-289.5,1.6801
19375,19.995,0.27273,0,3.8757e-05,387.31,1.4367e-05,18.56,1.1794e-05,-0.77861,-3.8419e-05,-378.05,1.7061
19376,20.086,0.18182,0,4.0348e-05,403.2,1.5044e-05,20.615,1.2245e-05,-0.41613,-3.9963e-05,-392.69,1.7189
19377,19.995,0.18182,0.05,1.4048e-06,14.039,1.0787e-06,8.1053,6.1645e-13,3.3658e-06,-1.0788e-06,-8.1053,1.706
19378,19.995,0.090909,0,3.6051e-05,360.26,1.2858e-05,11.603,1.1324e-05,0.077111,-3.5838e-05,-354.28,1.7059
19379,19.995,0.45455,0,4.1447e-05,414.18,1.5122e-05,16.685,1.274e-05,-1.2111,-4.1154e-05,-406.15,1.7062
19380,20.086,0.36364,0,4.1889e-05,418.6,1.5219e-05,16.355,1.294e-05,-0.76992,-4.1597e-05,-410.54,1.7191
19381,19.995,0.36364,0.05,1.0887e-06,10.879,8.3595e-07,6.281,3.5286e-13,5.1812e-06,-8.3595e-07,-6.281,1.7061
19382,19.995,0.63636,0,4.5908e-05,458.76,1.6742e-05,18.264,1.4104e-05,-1.5545,-4.5592e-05,-450.09,1.7064
19383,20.086,0.54545,0,4.5099e-05,450.67,1.6208e-05,15.21,1.4017e-05,-1.2518,-4.4839e-05,-443.47,1.7192
19384,19.995,0.54545,0.05,1.1024e-06,11.016,8.4651e-07,6.3603,5.4217e-13,5.7792e-06,-8.4651e-07,-6.3603,1.7063
19385,19.995,0.81818,0,5.1895e-05,518.59,1.8943e-05,20.834,1.593e-05,-1.811,-5.1534e-05,-508.71,1.7066
19386,20.086,0.72727,0,4.9694e-05,496.59,1.7725e-05,14.917,1.5507e-05,-1.7449,-4.9449e-05,-489.8,1.7194
19387,19.995,0.72727,0.05,1.1487e-06,11.479,8.8209e-07,6.6277,4.4423e-13,1.0567e-06,-8.8209e-07,-6.6277,1.7065
19388,19.995,1,0,5.9301e-05,592.6,2.152e-05,22.2,1.8274e-05,-2.1913,-5.8922e-05,-582.22,1.7068
19389,20.086,0.90909,0,5.5597e-05,555.59,1.9639e-05,14.108,1.7442e-05,-2.401,-5.538e-05,-549.55,1.7196
19390,19.995,0.90909,0.05,1.211e-06,12.102,9.2991e-07,6.987,6.4342e-14,3.2416e-06,-9.2991e-07,-6.987,1.7067
19391,19.995,1.1818,0,6.8032e-05,679.85,2.4237e-05,19.668,2.1209e-05,-3.0864,-6.7721e-05,-671.27,1.7069
19392,20.086,1.0909,0,6.2723e-05,626.8,2.1816e-05,11.183,1.9824e-05,-3.7859,-6.2584e-05,-622.96,1.7197
19393,19.995,1.0909,0.05,1.2899e-06,12.891,9.9051e-07,7.4423,-1.2806e-13,4.1446e-06,-9.9051e-07,-7.4423,1.7068
19394,19.995,1.3636,0,7.7967e-05,779.13,2.6986e-05,11.404,2.4639e-05,-6.2305,-7.7864e-05,-776.39,1.7071
19395,20.086,1.2727,0,7.096e-05,709.11,2.4328e-05,5.9592,2.2414e-05,-8.4215,-7.0991e-05,-710.24,1.7199
19396,19.995,1.2727,0.05,1.3893e-06,13.883,1.0668e-06,8.0154,-2.9751e-13,-2.6975e-06,-1.0668e-06,-8.0154,1.707
19397,19.995,1.5455,0,8.894e-05,888.78,3.0662e-05,3.6661,2.7451e-05,-20.456,-8.9201e-05,-896.93,1.7072
19398,20.086,1.4545,0,8.0157e-05,801.02,2.7773e-05,2.3906,2.4415e-05,-22.838,-8.0475e-05,-810.94,1.72
19399,19.995,1.4545,0.05,1.5569e-06,15.558,1.1955e-06,8.9824,-1.7431e-12,-7.2421e-06,-1.1955e-06,-8.9824,1.7071
19400,19.995,1.7273,0,0.00010071,1006.4,3.5766e-05,1.3833,2.9006e-05,-49.409,-0.00010143,-1029.5,1.7074
19401,20.086,1.6364,0,9.013e-05,900.68,3.2196e-05,1.18,2.5623e-05,-48.205,-9.0829e-05,-923.18,1.7201
19402,19.995,1.6364,0.05,1.8534e-06,18.521,1.4232e-06,10.693,-2.7104e-12,-2.851e-05,-1.4232e-06,-10.693,1.7073
19403,19.995,1.9091,0,0.00011301,1129.3,4.1237e-05,0.96824,3.0539e-05,-79.415,-0.00011413,-1166.4,1.7075
19404,20.086,1.8182,0,0.00010065,1005.8,3.7064e-05,0.54654,2.6566e-05,-78.331,-0.00010174,-1042.4,1.7203
19405,19.995,1.8182,0.05,2.2129e-06,22.113,1.6992e-06,12.767,-1.8808e-12,-2.2751e-05,-1.6992e-06,-12.767,1.7074
19406,19.995,2.0909,0,0.00012516,1250.7,4.6059e-05,1.1666,3.3131e-05,-95.967,-0.00012649,-1295.3,1.7076
19407,20.086,2,0,0.00011148,1114,4.1754e-05,0.64066,2.8155e-05,-101.54,-0.00011284,-1160.9,1.7204
19408,19.995,2,0.05,2.6563e-06,26.545,2.0397e-06,15.326,-1.6758e-13,-5.6846e-06,-2.0397e-06,-15.326,1.7076
19409,19.995,2.2727,0,0.00013586,1357.7,4.9449e-05,0.86228,3.6909e-05,-93.356,-0.00013719,-1401.5,1.7078
19410,20.086,2.1818,0,0.0001218,1217.2,4.5505e-05,0.6524,3.0972e-05,-108.54,-0.00012327,-1267.5,1.7205
19411,19.995,2.1818,0.05,3.0974e-06,30.952,2.3784e-06,17.87,2.1321e-12,1.2414e-05,-2.3784e-06,-17.87,1.7077
19412,19.995,2.4545,0,0.000144,1439,5.1362e-05,0.67026,4.0961e-05,-77.481,-0.00014515,-1475.8,1.7078
19413,20.086,2.3636,0,0.0001305,1304.1,4.7965e-05,0.45589,3.458e-05,-100.11,-0.0001319,-1351,1.7206
19414,19.995,2.3636,0.05,3.3356e-06,33.333,2.5613e-06,19.245,3.2903e-12,2.0263e-05,-2.5613e-06,-19.245,1.7078
19415,19.995,2.6364,0,0.00014925,1491.5,5.2208e-05,0.71573,4.4253e-05,-59.052,-0.00015015,-1519.7,1.7079
19416,20.086,2.5455,0,0.00013679,1367,4.9321e-05,0.59304,3.7971e-05,-84.683,-0.00013803,-1407.1,1.7207
19417,19.995,2.5455,0.05,3.3101e-06,33.078,2.5417e-06,19.098,3.534e-12,3.1914e-05,-2.5417e-06,-19.098,1.7079
19418,19.995,2.8182,0,0.000152,1519,5.2461e-05,0.53474,4.628e-05,-45.906,-0.00015272,-1541.1,1.708
19419,20.086,2.7273,0,0.00014062,1405.3,4.9913e-05,0.51573,4.0415e-05,-70.844,-0.00014168,-1439.1,1.7207
19420,19.995,2.7273,0.05,3.1437e-06,31.415,2.414e-06,18.138,2.9404e-12,2.7994e-05,-2.414e-06,-18.138,1.7079
19421,19.995,3,0,0.00015284,1527.3,5.2503e-05,0.43165,4.6952e-05,-41.28,-0.00015349,-1547.3,1.708
19422,20.086,2.9091,0,0.00014238,1422.8,5.0114e-05,0.43392,4.1652e-05,-63.15,-0.00014334,-1453.1,1.7207
19423,19.995,2.9091,0.05,3.0211e-06,30.19,2.3198e-06,17.43,4.9616e-13,1.9739e-05,-2.3198e-06,-17.43,1.708
19424,19.995,3.1818,0,0.000152,1519,5.2461e-05,0.53474,4.628e-05,-45.906,-0.00015272,-1541.1,1.708
19425,20.086,3.0909,0,0.00014238,1422.8,5.0114e-05,0.43392,4.1652e-05,-63.15,-0.00014334,-1453.1,1.7207
19426,19.995,3.0909,0.05,3.0211e-06,30.19,2.3198e-06,17.43,-1.3977e-12,6.5913e-06,-2.3198e-06,-17.43,1.708
19427,19.995,3.3636,0,0.00014925,1491.5,5.2208e-05,0.71573,4.4253e-05,-59.052,-0.00015015,-1519.7,1.7079
19428,20.086,3.2727,0,0.00014062,1405.3,4.9913e-05,0.51573,4.0415e-05,-70.844,-0.00014168,-1439.1,1.7207
19429,19.995,3.2727,0.05,3.1437e-06,31.415,2.414e-06,18.138,-4.2642e-12,-2.5879e-06,-2.414e-06,-18.138,1.7079
19430,19.995,3.5455,0,0.000144,1439,5.1362e-05,0.67025,4.0961e-05,-77.481,-0.00014515,-1475.8,1.7078
19431,20.086,3.4545,0,0.00013679,1367,4.9321e-05,0.59304,3.7971e-05,-84.683,-0.00013803,-1407.1,1.7207
19432,19.995,3.4545,0.05,3.3101e-06,33.078,2.5417e-06,19.098,-4.7965e-12,-7.988e-06,-2.5417e-06,-19.098,1.7079
19433,19.995,3.7273,0,0.00013586,1357.7,4.9449e-05,0.86228,3.6909e-05,-93.356,-0.00013719,-1401.5,1.7078
19434,20.086,3.6364,0,0.0001305,1304.1,4.7965e-05,0.45589,3.458e-05,-100.11,-0.0001319,-1351,1.7206
19435,19.995,3.6364,0.05,3.3356e-06,33.333,2.5613e-06,19.245,-4.9778e-12,-1.0036e-05,-2.5613e-06,-19.245,1.7078
19436,19.995,3.9091,0,0.00012516,1250.7,4.6059e-05,1.1666,3.3131e-05,-95.967,-0.00012649,-1295.3,1.7076
19437,20.086,3.8182,0,0.0001218,1217.2,4.5505e-05,0.6524,3.0972e-05,-108.54,-0.00012327,-1267.5,1.7205
19438,19.995,3.8182,0.05,3.0974e-06,30.952,2.3784e-06,17.87,-3.9578e-12,1.9494e-06,-2.3784e-06,-17.87,1.7077
19439,19.995,4.0909,0,0.00011301,1129.3,4.1237e-05,0.96824,3.0539e-05,-79.415,-0.00011413,-1166.4,1.7075
19440,20.086,4,0,0.00011148,1114,4.1754e-05,0.64066,2.8155e-05,-101.54,-0.00011284,-1160.9,1.7204
19441,19.995,4,0.05,2.6563e-06,26.545,2.0397e-06,15.326,-2.0478e-12,1.5609e-05,-2.0397e-06,-15.326,1.7076
19442,19.995,4.2727,0,0.00010071,1006.4,3.5766e-05,1.3833,2.9006e-05,-49.409,-0.00010143,-1029.5,1.7074
19443,20.086,4.1818,0,0.00010065,1005.8,3.7064e-05,0.54654,2.6566e-05,-78.331,-0.00010174,-1042.4,1.7203
19444,19.995,4.1818,0.05,2.2129e-06,22.113,1.6992e-06,12.767,1.9027e-12,3.1735e-05,-1.6992e-06,-12.767,1.7074
19445,19.995,4.4545,0,8.894e-05,888.78,3.0662e-05,3.6661,2.7451e-05,-20.456,-8.9201e-05,-896.93,1.7072
19446,20.086,4.3636,0,9.013e-05,900.68,3.2196e-05,1.18,2.5623e-05,-48.205,-9.0829e-05,-923.18,1.7201
19447,19.995,4.3636,0.05,1.8534e-06,18.521,1.4232e-06,10.693,3.3744e-12,5.8346e-05,-1.4232e-06,-10.693,1.7073
19448,19.995,4.6364,0,7.7967e-05,779.13,2.6986e-05,11.404,2.4639e-05,-6.2305,-7.7864e-05,-776.39,1.7071
19449,20.086,4.5455,0,8.0157e-05,801.02,2.7773e-05,2.3906,2.4415e-05,-22.838,-8.0475e-05,-810.94,1.72
19450,19.995,4.5455,0.05,1.5569e-06,15.558,1.1955e-06,8.9824,4.7766e-12,6.2708e-05,-1.1955e-06,-8.9824,1.7071
19451,19.995,4.8182,0,6.8032e-05,679.85,2.4237e-05,19.668,2.1209e-05,-3.0864,-6.7721e-05,-671.27,1.7069
19452,20.086,4.7273,0,7.096e-05,709.11,2.4328e-05,5.9592,2.2414e-05,-8.4215,-7.0991e-05,-710.24,1.7199
19453,19.995,4.7273,0.05,1.3893e-06,13.883,1.0668e-06,8.0154,3.5801e-12,4.1181e-05,-1.0668e-06,-8.0154,1.707
19454,19.995,5,0,5.9301e-05,592.6,2.152e-05,22.2,1.8274e-05,-2.1913,-5.8922e-05,-582.22,1.7068
19455,20.086,4.9091,0,6.2723e-05,626.8,2.1816e-05,11.183,1.9824e-05,-3.7859,-6.2584e-05,-622.96,1.7197
19456,19.995,4.9091,0.05,1.2899e-06,12.891,9.9051e-07,7.4423,2.7065e-12,2.3587e-05,-9.9051e-07,-7.4423,1.7068
19457,19.995,5.1818,0,5.1895e-05,518.59,1.8943e-05,20.834,1.593e-05,-1.811,-5.1534e-05,-508.71,1.7066
19458,20.086,5.0909,0,5.5597e-05,555.59,1.9639e-05,14.108,1.7442e-05,-2.401,-5.538e-05,-549.55,1.7196
19459,19.995,5.0909,0.05,1.211e-06,12.102,9.2991e-07,6.987,1.9719e-12,2.3056e-05,-9.2991e-07,-6.987,1.7067
19460,19.995,5.3636,0,4.5908e-05,458.76,1.6742e-05,18.264,1.4104e-05,-1.5545,-4.5592e-05,-450.09,1.7064
19461,20.086,5.2727,0,4.9694e-05,496.59,1.7725e-05,14.917,1.5507e-05,-1.7449,-4.9449e-05,-489.8,1.7194
19462,19.995,5.2727,0.05,1.1487e-06,11.479,8.8209e-07,6.6277,1.0249e-12,1.2649e-05,-8.8209e-07,-6.6277,1.7065
19463,19.995,5.5455,0,4.1447e-05,414.18,1.5122e-05,16.685,1.274e-05,-1.2111,-4.1154e-05,-406.15,1.7062
19464,20.086,5.4545,0,4.5099e-05,450.67,1.6208e-05,15.21,1.4017e-05,-1.2518,-4.4839e-05,-443.47,1.7192
19465,19.995,5.4545,0.05,1.1024e-06,11.016,8.4651e-07,6.3603,8.794e-13,9.351e-06,-8.4651e-07,-6.3603,1.7063
19466,19.995,5.7273,0,3.8757e-05,387.31,1.4367e-05,18.56,1.1794e-05,-0.77861,-3.8419e-05,-378.05,1.7061
19467,20.086,5.6364,0,4.1889e-05,418.6,1.5219e-05,16.355,1.294e-05,-0.76992,-4.1597e-05,-410.54,1.7191
19468,19.995,5.6364,0.05,1.0887e-06,10.879,8.3595e-07,6.281,8.8188e-13,8.8362e-06,-8.3595e-07,-6.281,1.7061
19469,20.086,5.8182,0,4.0348e-05,403.2,1.5044e-05,20.615,1.2245e-05,-0.41613,-3.9963e-05,-392.69,1.7189
19470,19.995,5.8182,0.05,1.4048e-06,14.039,1.0787e-06,8.1053,8.1527e-13,6.9818e-06,-1.0788e-06,-8.1053,1.706
19471,19.995,5.9091,0,3.6051e-05,360.26,1.2858e-05,11.603,1.1324e-05,0.077111,-3.5838e-05,-354.28,1.7059
19472,20.177,0.27273,0,4.3524e-05,434.94,1.5939e-05,18.729,1.3389e-05,-0.43123,-4.3181e-05,-425.48,1.7319
19473,20.268,0.18182,0,4.4588e-05,445.57,1.6405e-05,20.253,1.3681e-05,-0.21247,-4.4211e-05,-435.2,1.7447
19474,20.177,0.18182,0.05,1.1707e-06,11.698,8.9892e-07,6.7541,5.1908e-13,2.622e-06,-8.9892e-07,-6.7541,1.7318
19475,20.177,0.090909,0,4.1175e-05,411.46,1.459e-05,12.083,1.299e-05,0.066975,-4.0955e-05,-405.26,1.7317
19476,20.177,0.45455,0,4.564e-05,456.09,1.6389e-05,15.51,1.422e-05,-0.79148,-4.5368e-05,-448.51,1.732
19477,20.268,0.36364,0,4.5853e-05,458.21,1.6522e-05,16.458,1.427e-05,-0.45857,-4.5557e-05,-449.98,1.7449
19478,20.177,0.36364,0.05,8.415e-07,8.4092,6.4616e-07,4.855,3.8213e-13,2.2124e-06,-6.4616e-07,-4.855,1.7319
19479,20.177,0.63636,0,4.9084e-05,490.5,1.7353e-05,13.081,1.5431e-05,-1.358,-4.8869e-05,-484.48,1.7322
19480,20.268,0.54545,0,4.8369e-05,483.35,1.7107e-05,13.24,1.5226e-05,-0.89118,-4.8143e-05,-477.02,1.745
19481,20.177,0.54545,0.05,8.4974e-07,8.4915,6.5249e-07,4.9026,7.3533e-13,1.6665e-06,-6.5249e-07,-4.9026,1.7321
19482,20.177,0.81818,0,5.3695e-05,536.58,1.8677e-05,10.122,1.702e-05,-2.3332,-5.3552e-05,-532.58,1.7324
19483,20.268,0.72727,0,5.1915e-05,518.79,1.799e-05,9.2566,1.6522e-05,-1.7748,-5.1779e-05,-514.96,1.7452
19484,20.177,0.72727,0.05,8.8476e-07,8.8415,6.7938e-07,5.1046,9.2887e-13,1.6753e-06,-6.7938e-07,-5.1046,1.7323
19485,20.177,1,0,5.9393e-05,593.52,2.0353e-05,6.2337,1.8892e-05,-4.7408,-5.936e-05,-592.7,1.7325
19486,20.268,0.90909,0,5.6451e-05,564.12,1.9252e-05,4.941,1.8025e-05,-4.2781,-5.6434e-05,-563.73,1.7453
19487,20.177,0.90909,0.05,9.3162e-07,9.3097,7.1537e-07,5.375,7.8718e-13,2.0116e-06,-7.1537e-07,-5.375,1.7324
19488,20.177,1.1818,0,6.6062e-05,660.16,2.2632e-05,2.9235,2.0653e-05,-11.946,-6.6203e-05,-664.55,1.7327
19489,20.268,1.0909,0,6.1898e-05,618.55,2.118e-05,2.2146,1.9346e-05,-11.565,-6.2045e-05,-623.11,1.7455
19490,20.177,1.0909,0.05,9.9857e-07,9.9788,7.6678e-07,5.7613,6.2854e-14,2.1697e-06,-7.6678e-07,-5.7613,1.7326
19491,20.177,1.3636,0,7.3552e-05,735.02,2.5711e-05,1.4173,2.1939e-05,-26.926,-7.3945e-05,-747.36,1.7328
19492,20.268,1.2727,0,6.8135e-05,680.88,2.3814e-05,1.1664,2.0315e-05,-25.12,-6.8505e-05,-692.48,1.7456
19493,20.177,1.2727,0.05,1.1057e-06,11.05,8.4906e-07,6.3795,-1.1341e-12,2.2064e-06,-8.4905e-07,-6.3795,1.7327
19494,20.177,1.5455,0,8.1697e-05,816.4,2.9417e-05,0.72821,2.278e-05,-49.138,-8.2406e-05,-839.46,1.7329
19495,20.268,1.4545,0,7.5017e-05,749.66,2.6992e-05,0.68925,2.0954e-05,-44.68,-7.5663e-05,-770.62,1.7457
19496,20.177,1.4545,0.05,1.2763e-06,12.754,9.8005e-07,7.3637,-1.0986e-12,-1.6331e-05,-9.8005e-07,-7.3637,1.7328
19497,20.177,1.7273,0,9.0346e-05,902.84,3.3498e-05,0.37364,2.3422e-05,-75.334,-9.1383e-05,-937.93,1.733
19498,20.268,1.6364,0,8.2394e-05,823.37,3.0564e-05,0.40283,2.1341e-05,-68.893,-8.334e-05,-855.43,1.7458
19499,20.177,1.6364,0.05,1.5226e-06,15.215,1.1691e-06,8.7844,-2.2322e-12,-2.2533e-05,-1.1691e-06,-8.7844,1.733
19500,20.177,1.9091,0,9.9308e-05,992.4,3.7571e-05,0.1502,2.4358e-05,-99.129,-0.00010062,-1038.2,1.7332
19501,20.268,1.8182,0,9.014e-05,900.78,3.4283e-05,0.25839,2.1792e-05,-93.592,-9.136e-05,-943.77,1.7459
19502,20.177,1.8182,0.05,1.8217e-06,18.204,1.3988e-06,10.51,-2.0552e-12,-1.7984e-05,-1.3988e-06,-10.51,1.7331
19503,20.177,2.0909,0,0.0001082,1081.2,4.1191e-05,0.0653,2.6058e-05,-113.64,-0.00010968,-1133.5,1.7333
19504,20.268,2,0,9.8042e-05,979.74,3.7785e-05,0.14321,2.2771e-05,-112.67,-9.9468e-05,-1031.1,1.746
19505,20.177,2,0.05,2.1285e-06,21.27,1.6344e-06,12.28,-1.299e-12,-1.1186e-05,-1.6344e-06,-12.28,1.7332
19506,20.177,2.2727,0,0.00011636,1162.8,4.402e-05,0.24111,2.8553e-05,-115.98,-0.00011789,-1216.3,1.7333
19507,20.268,2.1818,0,0.00010568,1056.1,4.0733e-05,0.17596,2.4543e-05,-121.47,-0.00010722,-1111.5,1.7461
19508,20.177,2.1818,0.05,2.4198e-06,24.181,1.8581e-06,13.961,6.5201e-13,1.3291e-06,-1.8581e-06,-13.961,1.7333
19509,20.177,2.4545,0,0.00012307,1229.9,4.5929e-05,0.42213,3.1362e-05,-109.03,-0.00012455,-1280.5,1.7334
19510,20.268,2.3636,0,0.00011243,1123.5,4.2921e-05,0.32484,2.6886e-05,-120.16,-0.00011398,-1178.6,1.7462
19511,20.177,2.3636,0.05,2.647e-06,26.451,2.0325e-06,15.272,1.9499e-12,1.0262e-05,-2.0325e-06,-15.272,1.7334
19512,20.177,2.6364,0,0.00012788,1277.9,4.7033e-05,0.44892,3.383e-05,-98.753,-0.00012926,-1324.1,1.7335
19513,20.268,2.5455,0,0.00011771,1176.3,4.4337e-05,0.38045,2.9247e-05,-113,-0.00011921,-1228.5,1.7463
19514,20.177,2.5455,0.05,2.756e-06,27.541,2.1162e-06,15.901,2.2907e-12,1.8606e-05,-2.1162e-06,-15.901,1.7334
19515,20.177,2.8182,0,0.00013069,1306,4.7568e-05,0.43044,3.5464e-05,-90.514,-0.00013198,-1348.6,1.7335
19516,20.268,2.7273,0,0.00012123,1211.4,4.5133e-05,0.39315,3.1084e-05,-105.16,-0.00012266,-1260.4,1.7463
19517,20.177,2.7273,0.05,2.7669e-06,27.65,2.1246e-06,15.964,1.4921e-12,1.7145e-05,-2.1246e-06,-15.964,1.7335
19518,20.177,3,0,0.0001316,1315.1,4.7723e-05,0.4186,3.6029e-05,-87.451,-0.00013286,-1356.4,1.7335
19519,20.268,2.9091,0,0.00012296,1228.8,4.548e-05,0.38924,3.2067e-05,-100.39,-0.00012435,-1275.7,1.7463
19520,20.177,2.9091,0.05,2.7493e-06,27.474,2.1111e-06,15.862,1.1623e-13,1.328e-05,-2.1111e-06,-15.862,1.7335
19521,20.177,3.1818,0,0.00013069,1306,4.7568e-05,0.43044,3.5464e-05,-90.514,-0.00013198,-1348.6,1.7335
19522,20.268,3.0909,0,0.00012296,1228.8,4.548e-05,0.38924,3.2067e-05,-100.39,-0.00012435,-1275.7,1.7463
19523,20.177,3.0909,0.05,2.7493e-06,27.474,2.1111e-06,15.862,-1.4786e-12,2.9612e-06,-2.1111e-06,-15.862,1.7335
19524,20.177,3.3636,0,0.00012788,1277.9,4.7033e-05,0.44892,3.383e-05,-98.753,-0.00012926,-1324.1,1.7335
19525,20.268,3.2727,0,0.00012123,1211.4,4.5133e-05,0.39315,3.1084e-05,-105.16,-0.00012266,-1260.4,1.7463
19526,20.177,3.2727,0.05,2.7669e-06,27.65,2.1246e-06,15.964,-2.8424e-12,-3.7212e-06,-2.1246e-06,-15.964,1.7335
19527,20.177,3.5455,0,0.00012307,1229.9,4.5929e-05,0.42213,3.1362e-05,-109.03,-0.00012455,-1280.5,1.7334
19528,20.268,3.4545,0,0.00011771,1176.3,4.4337e-05,0.38045,2.9247e-05,-113,-0.00011921,-1228.5,1.7463
19529,20.177,3.4545,0.05,2.756e-06,27.541,2.1162e-06,15.901,-3.7017e-12,-5.739e-06,-2.1162e-06,-15.901,1.7334
19530,20.177,3.7273,0,0.00011636,1162.8,4.402e-05,0.24111,2.8553e-05,-115.98,-0.00011789,-1216.3,1.7333
19531,20.268,3.6364,0,0.00011243,1123.5,4.2921e-05,0.32484,2.6886e-05,-120.16,-0.00011398,-1178.6,1.7462
19532,20.177,3.6364,0.05,2.647e-06,26.451,2.0325e-06,15.272,-3.7282e-12,-1.3476e-06,-2.0325e-06,-15.272,1.7334
19533,20.177,3.9091,0,0.0001082,1081.2,4.1191e-05,0.0653,2.6058e-05,-113.64,-0.00010968,-1133.5,1.7333
19534,20.268,3.8182,0,0.00010568,1056.1,4.0733e-05,0.17596,2.4543e-05,-121.47,-0.00010722,-1111.5,1.7461
19535,20.177,3.8182,0.05,2.4198e-06,24.181,1.8581e-06,13.961,-2.627e-12,4.9135e-07,-1.8581e-06,-13.961,1.7333
19536,20.177,4.0909,0,9.9308e-05,992.4,3.7571e-05,0.1502,2.4358e-05,-99.129,-0.00010062,-1038.2,1.7332
19537,20.268,4,0,9.8042e-05,979.74,3.7785e-05,0.14321,2.2771e-05,-112.67,-9.9468e-05,-1031.1,1.746
19538,20.177,4,0.05,2.1285e-06,21.27,1.6344e-06,12.28,-1.3052e-12,9.945e-06,-1.6344e-06,-12.28,1.7332
19539,20.177,4.2727,0,9.0346e-05,902.84,3.3498e-05,0.37364,2.3422e-05,-75.334,-9.1383e-05,-937.93,1.733
19540,20.268,4.1818,0,9.014e-05,900.78,3.4283e-05,0.25839,2.1792e-05,-93.592,-9.136e-05,-943.77,1.7459
19541,20.177,4.1818,0.05,1.8217e-06,18.204,1.3988e-06,10.51,2.1824e-12,2.3907e-05,-1.3988e-06,-10.51,1.7331
19542,20.177,4.4545,0,8.1697e-05,816.4,2.9417e-05,0.72821,2.278e-05,-49.138,-8.2406e-05,-839.46,1.7329
19543,20.268,4.3636,0,8.2394e-05,823.37,3.0564e-05,0.40283,2.1341e-05,-68.893,-8.334e-05,-855.43,1.7458
19544,20.177,4.3636,0.05,1.5226e-06,15.215,1.1691e-06,8.7845,3.2716e-12,3.2554e-05,-1.1691e-06,-8.7844,1.733
19545,20.177,4.6364,0,7.3552e-05,735.02,2.5711e-05,1.4173,2.1939e-05,-26.926,-7.3945e-05,-747.36,1.7328
19546,20.268,4.5455,0,7.5017e-05,749.66,2.6992e-05,0.68925,2.0954e-05,-44.68,-7.5663e-05,-770.62,1.7457
19547,20.177,4.5455,0.05,1.2763e-06,12.754,9.8005e-07,7.3637,3.8031e-12,4.0546e-05,-9.8005e-07,-7.3637,1.7328
19548,20.177,4.8182,0,6.6062e-05,660.16,2.2632e-05,2.9235,2.0653e-05,-11.946,-6.6203e-05,-664.55,1.7327
19549,20.268,4.7273,0,6.8135e-05,680.88,2.3814e-05,1.1664,2.0315e-05,-25.12,-6.8505e-05,-692.48,1.7456
19550,20.177,4.7273,0.05,1.1057e-06,11.05,8.4905e-07,6.3795,2.5766e-12,2.7943e-05,-8.4906e-07,-6.3795,1.7327
19551,20.177,5,0,5.9393e-05,593.52,2.0353e-05,6.2337,1.8892e-05,-4.7408,-5.936e-05,-592.7,1.7325
19552,20.268,4.9091,0,6.1898e-05,618.55,2.118e-05,2.2147,1.9346e-05,-11.565,-6.2045e-05,-623.11,1.7455
19553,20.177,4.9091,0.05,9.9857e-07,9.9788,7.6678e-07,5.7613,2.1598e-12,2.5399e-05,-7.6678e-07,-5.7613,1.7326
19554,20.177,5.1818,0,5.3695e-05,536.58,1.8677e-05,10.122,1.702e-05,-2.3332,-5.3552e-05,-532.58,1.7324
19555,20.268,5.0909,0,5.6451e-05,564.12,1.9252e-05,4.941,1.8025e-05,-4.2781,-5.6434e-05,-563.73,1.7453
19556,20.177,5.0909,0.05,9.3162e-07,9.3097,7.1537e-07,5.375,1.5043e-12,2.1571e-05,-7.1537e-07,-5.375,1.7324
19557,20.177,5.3636,0,4.9084e-05,490.5,1.7353e-05,13.081,1.5431e-05,-1.358,-4.8869e-05,-484.48,1.7322
19558,20.268,5.2727,0,5.1915e-05,518.79,1.799e-05,9.2567,1.6522e-05,-1.7748,-5.1779e-05,-514.96,1.7452
19559,20.177,5.2727,0.05,8.8476e-07,8.8415,6.7938e-07,5.1046,7.8916e-13,8.4563e-06,-6.7938e-07,-5.1046,1.7323
19560,20.177,5.5455,0,4.564e-05,456.09,1.6389e-05,15.51,1.422e-05,-0.79148,-4.5368e-05,-448.51,1.732
19561,20.268,5.4545,0,4.8369e-05,483.35,1.7107e-05,13.24,1.5226e-05,-0.89118,-4.8143e-05,-477.02,1.745
19562,20.177,5.4545,0.05,8.4974e-07,8.4915,6.5249e-07,4.9026,9.2803e-13,1.0424e-05,-6.5249e-07,-4.9026,1.7321
19563,20.177,5.7273,0,4.3524e-05,434.94,1.5939e-05,18.729,1.3389e-05,-0.43123,-4.3181e-05,-425.48,1.7319
19564,20.268,5.6364,0,4.5853e-05,458.21,1.6522e-05,16.458,1.427e-05,-0.45857,-4.5557e-05,-449.98,1.7449
19565,20.177,5.6364,0.05,8.415e-07,8.4092,6.4616e-07,4.855,6.404e-13,6.4821e-06,-6.4617e-07,-4.855,1.7319
19566,20.268,5.8182,0,4.4588e-05,445.57,1.6405e-05,20.253,1.3681e-05,-0.21247,-4.4211e-05,-435.2,1.7447
19567,20.177,5.8182,0.05,1.1707e-06,11.698,8.9892e-07,6.7541,8.0292e-13,7.0715e-06,-8.9892e-07,-6.7541,1.7318
19568,20.177,5.9091,0,4.1175e-05,411.46,1.459e-05,12.083,1.299e-05,0.066975,-4.0955e-05,-405.26,1.7317
19569,20.359,0.27273,0,4.6949e-05,469.17,1.7018e-05,18.209,1.4562e-05,-0.24675,-4.6616e-05,-459.92,1.7577
19570,20.45,0.18182,0,4.7508e-05,474.75,1.7282e-05,19.25,1.4705e-05,-0.10934,-4.7152e-05,-464.88,1.7706
19571,20.359,0.18182,0.05,9.3924e-07,9.3859,7.2122e-07,5.4189,4.6858e-13,3.5179e-06,-7.2122e-07,-5.4189,1.7576
19572,20.359,0.090909,0,4.4919e-05,448.88,1.5812e-05,11.921,1.4234e-05,0.06503,-4.4703e-05,-442.77,1.7575
19573,20.359,0.45455,0,4.864e-05,486.06,1.7285e-05,14.531,1.5283e-05,-0.51198,-4.8384e-05,-478.88,1.7579
19574,20.45,0.36364,0,4.8545e-05,485.11,1.7362e-05,15.978,1.5198e-05,-0.28732,-4.8258e-05,-477.06,1.7707
19575,20.359,0.36364,0.05,6.0954e-07,6.0912,4.6805e-07,3.5167,1.8242e-13,3.3874e-06,-4.6805e-07,-3.5167,1.7578
19576,20.359,0.63636,0,5.131e-05,512.75,1.7816e-05,9.9563,1.6343e-05,-1.1111,-5.1151e-05,-508.24,1.758
19577,20.45,0.54545,0,5.0525e-05,504.91,1.7684e-05,11.772,1.6035e-05,-0.62068,-5.0324e-05,-499.22,1.7709
19578,20.359,0.54545,0.05,6.2161e-07,6.2118,4.7732e-07,3.5864,4.2249e-13,5.0801e-06,-4.7732e-07,-3.5864,1.7579
19579,20.359,0.81818,0,5.4837e-05,547.99,1.8642e-05,4.6525,1.7598e-05,-3.1892,-5.4808e-05,-547.22,1.7582
19580,20.45,0.72727,0,5.3252e-05,532.16,1.8156e-05,5.9524,1.7131e-05,-1.75,-5.3177e-05,-530.01,1.771
19581,20.359,0.72727,0.05,6.6354e-07,6.6308,5.0951e-07,3.8283,4.4709e-13,4.6989e-06,-5.0952e-07,-3.8283,1.7581
19582,20.359,1,0,5.9166e-05,591.25,2.0189e-05,1.7502,1.8555e-05,-10.53,-5.9306e-05,-595.55,1.7583
19583,20.45,0.90909,0,5.6703e-05,566.64,1.9225e-05,1.8572,1.8012e-05,-7.2533,-5.679e-05,-569.29,1.7712
19584,20.359,0.90909,0.05,7.2254e-07,7.2205,5.5482e-07,4.1687,5.2924e-13,7.7148e-06,-5.5482e-07,-4.1687,1.7582
19585,20.359,1.1818,0,6.4203e-05,641.59,2.2422e-05,0.90905,1.9155e-05,-23.634,-6.4554e-05,-652.6,1.7584
19586,20.45,1.0909,0,6.0819e-05,607.77,2.1076e-05,0.85689,1.8431e-05,-19.015,-6.1103e-05,-616.6,1.7713
19587,20.359,1.0909,0.05,8.091e-07,8.0854,6.2129e-07,4.6681,-5.6497e-13,-1.1569e-05,-6.2129e-07,-4.6681,1.7584
19588,20.359,1.3636,0,6.9828e-05,697.8,2.5113e-05,0.56838,1.952e-05,-41.451,-7.0429e-05,-717.29,1.7586
19589,20.45,1.2727,0,6.5505e-05,654.6,2.3375e-05,0.53006,1.8635e-05,-35.081,-6.602e-05,-671.14,1.7714
19590,20.359,1.2727,0.05,9.3682e-07,9.3617,7.1936e-07,5.405,-2.0066e-12,-2.441e-05,-7.1936e-07,-5.405,1.7585
19591,20.359,1.5455,0,7.592e-05,758.67,2.8142e-05,0.38499,1.9702e-05,-63.034,-7.6786e-05,-788.01,1.7587
19592,20.45,1.4545,0,7.0653e-05,706.04,2.6008e-05,0.36603,1.8664e-05,-54.811,-7.1417e-05,-731.65,1.7715
19593,20.359,1.4545,0.05,1.1128e-06,11.12,8.5447e-07,6.4202,-1.2139e-12,-1.7237e-05,-8.5447e-07,-6.4202,1.7586
19594,20.359,1.7273,0,8.2362e-05,823.05,3.1346e-05,0.27239,1.9874e-05,-85.923,-8.3479e-05,-862.48,1.7588
19595,20.45,1.6364,0,7.616e-05,761.07,2.8859e-05,0.26558,1.8611e-05,-76.736,-7.7168e-05,-796.38,1.7716
19596,20.359,1.6364,0.05,1.3266e-06,13.257,1.0187e-06,7.6541,-1.8118e-12,-2.8552e-05,-1.0187e-06,-7.6541,1.7587
19597,20.359,1.9091,0,8.9009e-05,889.47,3.4493e-05,0.22608,2.0332e-05,-106.18,-9.0332e-05,-937.66,1.7589
19598,20.45,1.8182,0,8.1919e-05,818.62,3.1756e-05,0.20068,1.8692e-05,-97.957,-8.3139e-05,-863.08,1.7717
19599,20.359,1.8182,0.05,1.5579e-06,15.568,1.1963e-06,8.9882,-1.7851e-12,-2.0099e-05,-1.1962e-06,-8.9882,1.7588
19600,20.359,2.0909,0,9.5604e-05,955.38,3.7324e-05,0.23314,2.1324e-05,-119.99,-9.7072e-05,-1009.6,1.7589
19601,20.45,2,0,8.7776e-05,877.15,3.4484e-05,0.18701,1.917e-05,-114.88,-8.9159e-05,-928.82,1.7718
19602,20.359,2,0.05,1.7907e-06,17.895,1.3751e-06,10.332,-1.4645e-12,-1.576e-05,-1.375e-06,-10.332,1.7589
19603,20.359,2.2727,0,0.00010175,1016.8,3.9633e-05,0.25162,2.2861e-05,-125.76,-0.00010329,-1073.6,1.759
19604,20.45,2.1818,0,9.3453e-05,933.89,3.6838e-05,0.20245,2.0179e-05,-124.97,-9.4944e-05,-989.96,1.7718
19605,20.359,2.1818,0.05,2.0141e-06,20.128,1.5466e-06,11.621,-1.5163e-13,-4.5215e-06,-1.5466e-06,-11.621,1.759
19606,20.359,2.4545,0,0.00010697,1069,4.1329e-05,0.28755,2.4669e-05,-124.89,-0.00010854,-1125.8,1.7591
19607,20.45,2.3636,0,9.8561e-05,984.93,3.8684e-05,0.23193,2.1598e-05,-128.15,-0.00010011,-1042.6,1.7719
19608,20.359,2.3636,0.05,2.2046e-06,22.031,1.6928e-06,12.719,4.0826e-13,5.2154e-06,-1.6928e-06,-12.719,1.759
19609,20.359,2.6364,0,0.0001109,1108.2,4.2438e-05,0.33188,2.6333e-05,-120.68,-0.00011245,-1163.4,1.7591
19610,20.45,2.5455,0,0.0001027,1026.3,3.9991e-05,0.27872,2.3104e-05,-126.6,-0.00010426,-1083.6,1.7719
19611,20.359,2.5455,0.05,2.3364e-06,23.348,1.7941e-06,13.48,1.0513e-12,1.0605e-05,-1.7941e-06,-13.48,1.7591
19612,20.359,2.8182,0,0.00011331,1132.3,4.3045e-05,0.35336,2.7482e-05,-116.58,-0.00011483,-1185.8,1.7591
19613,20.45,2.7273,0,0.00010558,1055.1,4.08e-05,0.31175,2.4335e-05,-123.41,-0.00010713,-1111.2,1.772
19614,20.359,2.7273,0.05,2.4058e-06,24.041,1.8474e-06,13.88,4.029e-13,1.0529e-05,-1.8474e-06,-13.88,1.7591
19615,20.359,3,0,0.00011411,1140.3,4.3236e-05,0.35728,2.789e-05,-114.95,-0.00011562,-1193.3,1.7591
19616,20.45,2.9091,0,0.00010705,1069.7,4.1181e-05,0.32422,2.5017e-05,-121.13,-0.00010858,-1124.9,1.772
19617,20.359,2.9091,0.05,2.4315e-06,24.298,1.8671e-06,14.029,-3.4967e-13,7.6657e-06,-1.8671e-06,-14.029,1.7591
19618,20.359,3.1818,0,0.00011331,1132.3,4.3045e-05,0.35336,2.7482e-05,-116.58,-0.00011483,-1185.8,1.7591
19619,20.45,3.0909,0,0.00010705,1069.7,4.1181e-05,0.32422,2.5017e-05,-121.13,-0.00010858,-1124.9,1.772
19620,20.359,3.0909,0.05,2.4315e-06,24.298,1.8671e-06,14.029,-1.473e-12,-6.0686e-08,-1.8671e-06,-14.029,1.7591
19621,20.359,3.3636,0,0.0001109,1108.2,4.2438e-05,0.33188,2.6333e-05,-120.68,-0.00011245,-1163.4,1.7591
19622,20.45,3.2727,0,0.00010558,1055.1,4.08e-05,0.31175,2.4335e-05,-123.41,-0.00010713,-1111.2,1.772
19623,20.359,3.2727,0.05,2.4058e-06,24.041,1.8474e-06,13.88,-2.4954e-12,-3.1759e-06,-1.8473e-06,-13.88,1.7591
19624,20.359,3.5455,0,0.00010697,1069,4.1329e-05,0.28754,2.4669e-05,-124.89,-0.00010854,-1125.8,1.7591
19625,20.45,3.4545,0,0.0001027,1026.3,3.9991e-05,0.27872,2.3104e-05,-126.6,-0.00010426,-1083.6,1.7719
19626,20.359,3.4545,0.05,2.3364e-06,23.348,1.7941e-06,13.48,-2.5502e-12,-3.9187e-06,-1.7941e-06,-13.48,1.7591
19627,20.359,3.7273,0,0.00010175,1016.8,3.9633e-05,0.25162,2.2861e-05,-125.76,-0.00010329,-1073.6,1.759
19628,20.45,3.6364,0,9.8561e-05,984.93,3.8684e-05,0.23193,2.1598e-05,-128.15,-0.00010011,-1042.6,1.7719
19629,20.359,3.6364,0.05,2.2046e-06,22.031,1.6928e-06,12.719,-2.9309e-12,2.5506e-07,-1.6928e-06,-12.719,1.759
19630,20.359,3.9091,0,9.5604e-05,955.38,3.7324e-05,0.23314,2.1324e-05,-119.99,-9.7072e-05,-1009.6,1.7589
19631,20.45,3.8182,0,9.3453e-05,933.89,3.6838e-05,0.20244,2.0179e-05,-124.97,-9.4944e-05,-989.96,1.7718
19632,20.359,3.8182,0.05,2.0141e-06,20.128,1.5466e-06,11.621,-2.0083e-12,4.5215e-06,-1.5466e-06,-11.621,1.759
19633,20.359,4.0909,0,8.9009e-05,889.47,3.4493e-05,0.22608,2.0332e-05,-106.18,-9.0332e-05,-937.66,1.7589
19634,20.45,4,0,8.7776e-05,877.15,3.4484e-05,0.18701,1.917e-05,-114.88,-8.9159e-05,-928.82,1.7718
19635,20.359,4,0.05,1.7907e-06,17.895,1.3751e-06,10.332,-1.5209e-12,1.158e-05,-1.375e-06,-10.332,1.7589
19636,20.359,4.2727,0,8.2362e-05,823.05,3.1346e-05,0.27239,1.9874e-05,-85.923,-8.3479e-05,-862.48,1.7588
19637,20.45,4.1818,0,8.1919e-05,818.62,3.1756e-05,0.20067,1.8692e-05,-97.957,-8.3139e-05,-863.08,1.7717
19638,20.359,4.1818,0.05,1.5579e-06,15.568,1.1963e-06,8.9882,1.2316e-13,1.9463e-05,-1.1962e-06,-8.9881,1.7588
19639,20.359,4.4545,0,7.592e-05,758.67,2.8142e-05,0.38499,1.9702e-05,-63.034,-7.6786e-05,-788.01,1.7587
19640,20.45,4.3636,0,7.616e-05,761.07,2.8859e-05,0.26558,1.8611e-05,-76.736,-7.7168e-05,-796.38,1.7716
19641,20.359,4.3636,0.05,1.3266e-06,13.257,1.0187e-06,7.6541,2.2198e-12,2.1072e-05,-1.0187e-06,-7.6541,1.7587
19642,20.359,4.6364,0,6.9828e-05,697.8,2.5113e-05,0.56838,1.952e-05,-41.451,-7.0429e-05,-717.29,1.7586
19643,20.45,4.5455,0,7.0653e-05,706.04,2.6008e-05,0.36603,1.8664e-05,-54.811,-7.1417e-05,-731.65,1.7715
19644,20.359,4.5455,0.05,1.1128e-06,11.12,8.5447e-07,6.4202,2.5699e-12,3.1005e-05,-8.5447e-07,-6.4202,1.7586
19645,20.359,4.8182,0,6.4203e-05,641.59,2.2422e-05,0.90905,1.9155e-05,-23.634,-6.4554e-05,-652.6,1.7584
19646,20.45,4.7273,0,6.5505e-05,654.6,2.3375e-05,0.53006,1.8635e-05,-35.081,-6.602e-05,-671.14,1.7714
19647,20.359,4.7273,0.05,9.3682e-07,9.3617,7.1936e-07,5.405,3.2183e-12,2.7798e-05,-7.1936e-07,-5.405,1.7585
19648,20.359,5,0,5.9166e-05,591.25,2.0189e-05,1.7502,1.8555e-05,-10.53,-5.9306e-05,-595.55,1.7583
19649,20.45,4.9091,0,6.0819e-05,607.77,2.1076e-05,0.85689,1.8431e-05,-19.015,-6.1103e-05,-616.6,1.7713
19650,20.359,4.9091,0.05,8.091e-07,8.0854,6.2129e-07,4.6681,2.2249e-12,3.2491e-05,-6.2129e-07,-4.6681,1.7584
19651,20.359,5.1818,0,5.4837e-05,547.99,1.8642e-05,4.6525,1.7598e-05,-3.1892,-5.4808e-05,-547.22,1.7582
19652,20.45,5.0909,0,5.6703e-05,566.64,1.9225e-05,1.8572,1.8012e-05,-7.2532,-5.679e-05,-569.28,1.7712
19653,20.359,5.0909,0.05,7.2254e-07,7.2205,5.5482e-07,4.1687,2.0542e-12,1.8547e-05,-5.5482e-07,-4.1687,1.7582
19654,20.359,5.3636,0,5.131e-05,512.75,1.7816e-05,9.9564,1.6343e-05,-1.1111,-5.1151e-05,-508.24,1.758
19655,20.45,5.2727,0,5.3252e-05,532.16,1.8156e-05,5.9524,1.7131e-05,-1.75,-5.3177e-05,-530.01,1.771
19656,20.359,5.2727,0.05,6.6354e-07,6.6308,5.0952e-07,3.8283,1.2744e-12,1.8947e-05,-5.0952e-07,-3.8283,1.7581
19657,20.359,5.5455,0,4.864e-05,486.06,1.7285e-05,14.531,1.5283e-05,-0.51198,-4.8384e-05,-478.88,1.7579
19658,20.45,5.4545,0,5.0525e-05,504.91,1.7684e-05,11.772,1.6035e-05,-0.62068,-5.0324e-05,-499.22,1.7709
19659,20.359,5.4545,0.05,6.2161e-07,6.2118,4.7732e-07,3.5864,8.1871e-13,5.4011e-06,-4.7732e-07,-3.5864,1.7579
19660,20.359,5.7273,0,4.6949e-05,469.17,1.7018e-05,18.209,1.4562e-05,-0.24675,-4.6616e-05,-459.92,1.7577
19661,20.45,5.6364,0,4.8545e-05,485.11,1.7362e-05,15.978,1.5198e-05,-0.28732,-4.8258e-05,-477.06,1.7707
19662,20.359,5.6364,0.05,6.0954e-07,6.0912,4.6805e-07,3.5167,7.2941e-13,5.7343e-06,-4.6805e-07,-3.5167,1.7578
19663,20.45,5.8182,0,4.7508e-05,474.75,1.7282e-05,19.25,1.4705e-05,-0.10934,-4.7152e-05,-464.88,1.7706
19664,20.359,5.8182,0.05,9.3924e-07,9.3859,7.2122e-07,5.4189,8.0135e-13,6.0961e-06,-7.2122e-07,-5.4189,1.7576
19665,20.359,5.9091,0,4.4919e-05,448.88,1.5812e-05,11.921,1.4234e-05,0.065033,-4.4703e-05,-442.77,1.7575
19666,20.541,0.27273,0,4.9126e-05,490.92,1.7646e-05,17.168,1.5341e-05,-0.15077,-4.8813e-05,-482.18,1.7836
19667,20.632,0.18182,0,4.9242e-05,492.08,1.7742e-05,17.916,1.5349e-05,-0.058482,-4.8913e-05,-482.9,1.7964
19668,20.541,0.18182,0.05,7.2215e-07,7.2165,5.5452e-07,4.1664,7.4634e-13,5.1295e-06,-5.5452e-07,-4.1665,1.7835
19669,20.541,0.090909,0,4.7391e-05,473.58,1.6584e-05,11.385,1.5077e-05,0.058498,-4.7186e-05,-467.76,1.7834
19670,20.541,0.45455,0,5.0467e-05,504.32,1.7787e-05,13.409,1.5957e-05,-0.34009,-5.0231e-05,-497.65,1.7837
19671,20.632,0.36364,0,5.007e-05,500.36,1.7783e-05,15.035,1.5757e-05,-0.18864,-4.98e-05,-492.76,1.7966
19672,20.541,0.36364,0.05,4.0457e-07,4.0429,3.1066e-07,2.3342,6.7283e-13,4.0403e-06,-3.1066e-07,-2.3342,1.7836
19673,20.541,0.63636,0,5.2531e-05,524.94,1.8031e-05,7.8248,1.6872e-05,-0.88665,-5.2407e-05,-521.42,1.7839
19674,20.632,0.54545,0,5.1618e-05,515.83,1.7926e-05,10.456,1.6477e-05,-0.43226,-5.1439e-05,-510.73,1.7967
19675,20.541,0.54545,0.05,4.3422e-07,4.3392,3.3343e-07,2.5052,7.5245e-13,5.9643e-06,-3.3343e-07,-2.5052,1.7838
19676,20.541,0.81818,0,5.5211e-05,551.73,1.8615e-05,2.2278,1.7753e-05,-4.2527,-5.5242e-05,-552.71,1.784
19677,20.632,0.72727,0,5.3702e-05,536.65,1.8133e-05,3.9359,1.7385e-05,-1.6882,-5.3661e-05,-535.5,1.7969
19678,20.541,0.72727,0.05,4.9891e-07,4.9856,3.831e-07,2.8785,1.5952e-13,-6.0831e-06,-3.831e-07,-2.8785,1.7839
19679,20.541,1,0,5.8472e-05,584.31,2.009e-05,0.80442,1.8016e-05,-14.777,-5.8694e-05,-591.14,1.7841
19680,20.632,0.90909,0,5.6305e-05,562.66,1.9121e-05,0.93536,1.7749e-05,-9.3664,-5.6442e-05,-566.81,1.797
19681,20.541,0.90909,0.05,5.8426e-07,5.8386,4.4864e-07,3.3709,-6.6377e-13,-6.2815e-06,-4.4864e-07,-3.3709,1.7841
19682,20.541,1.1818,0,6.2249e-05,622.06,2.2028e-05,0.47384,1.8031e-05,-29.553,-6.2689e-05,-636.05,1.7843
19683,20.632,1.0909,0,5.939e-05,593.49,2.0744e-05,0.47795,1.7681e-05,-22.538,-5.9732e-05,-604.18,1.7971
19684,20.541,1.0909,0.05,6.9535e-07,6.9487,5.3394e-07,4.0119,-1.591e-12,-9.1612e-06,-5.3394e-07,-4.0118,1.7842
19685,20.541,1.3636,0,6.6459e-05,664.13,2.427e-05,0.32743,1.7902e-05,-47.514,-6.7132e-05,-686.43,1.7844
19686,20.632,1.2727,0,6.2891e-05,628.48,2.2676e-05,0.3224,1.7459e-05,-38.877,-6.3455e-05,-646.84,1.7972
19687,20.541,1.2727,0.05,8.3568e-07,8.3511,6.417e-07,4.8215,-2.1809e-12,-1.0615e-05,-6.417e-07,-4.8215,1.7843
19688,20.541,1.5455,0,7.1014e-05,709.65,2.6724e-05,0.24014,1.7691e-05,-67.625,-7.1916e-05,-740.9,1.7845
19689,20.632,1.4545,0,6.6734e-05,666.88,2.4834e-05,0.23969,1.7135e-05,-57.609,-6.7522e-05,-693.68,1.7973
19690,20.541,1.4545,0.05,1.0025e-06,10.018,7.6978e-07,5.7839,-1.8223e-12,-1.0434e-05,-7.6978e-07,-5.7838,1.7844
19691,20.541,1.7273,0,7.5824e-05,757.72,2.9268e-05,0.18318,1.7535e-05,-87.973,-7.6932e-05,-797.76,1.7845
19692,20.632,1.6364,0,7.0844e-05,707.95,2.7122e-05,0.18646,1.6797e-05,-77.39,-7.1838e-05,-743.36,1.7974
19693,20.541,1.6364,0.05,1.1861e-06,11.853,9.108e-07,6.8434,-2.698e-12,-1.6754e-05,-9.108e-07,-6.8434,1.7845
19694,20.541,1.9091,0,8.0775e-05,807.19,3.1746e-05,0.14988,1.7617e-05,-106.01,-8.205e-05,-854.87,1.7846
19695,20.632,1.8182,0,7.5136e-05,750.84,2.9418e-05,0.15323,1.6598e-05,-96.171,-7.6304e-05,-794.2,1.7975
19696,20.541,1.8182,0.05,1.3748e-06,13.738,1.0557e-06,7.9318,-2.2849e-12,-1.9129e-05,-1.0557e-06,-7.9318,1.7846
19697,20.541,2.0909,0,8.5683e-05,856.24,3.3997e-05,0.14679,1.8079e-05,-119.45,-8.7083e-05,-909.6,1.7847
19698,20.632,2,0,7.9487e-05,794.32,3.158e-05,0.13923,1.6693e-05,-111.72,-8.0792e-05,-844.18,1.7975
19699,20.541,2,0.05,1.5604e-06,15.593,1.1982e-06,9.0025,-1.3354e-12,-1.0186e-05,-1.1982e-06,-9.0025,1.7846
19700,20.541,2.2727,0,9.0281e-05,902.19,3.5889e-05,0.17778,1.8924e-05,-127.29,-9.1765e-05,-958.97,1.7847
19701,20.632,2.1818,0,8.3705e-05,836.47,3.3479e-05,0.15142,1.7157e-05,-122.48,-8.5109e-05,-890.87,1.7976
19702,20.541,2.1818,0.05,1.7367e-06,17.355,1.3335e-06,10.02,-1.1299e-12,-5.5188e-06,-1.3335e-06,-10.02,1.7847
19703,20.541,2.4545,0,9.4252e-05,941.87,3.7347e-05,0.22256,1.9988e-05,-130.2,-9.5783e-05,-1000.1,1.7848
19704,20.632,2.3636,0,8.7529e-05,874.69,3.502e-05,0.18435,1.7921e-05,-128.29,-8.8997e-05,-931.63,1.7977
19705,20.541,2.3636,0.05,1.8927e-06,18.914,1.4533e-06,10.92,-3.1001e-13,-6.2861e-07,-1.4533e-06,-10.92,1.7848
19706,20.541,2.6364,0,9.7299e-05,972.32,3.8354e-05,0.25983,2.1014e-05,-130.02,-9.8849e-05,-1030.6,1.7848
19707,20.632,2.5455,0,9.0676e-05,906.13,3.616e-05,0.21961,1.8793e-05,-130.27,-9.218e-05,-964.08,1.7977
19708,20.541,2.5455,0.05,2.0139e-06,20.125,1.5464e-06,11.619,2.1537e-13,3.1311e-06,-1.5464e-06,-11.619,1.7848
19709,20.541,2.8182,0,9.9207e-05,991.39,3.8937e-05,0.28316,2.1747e-05,-128.87,-0.00010076,-1049.4,1.7848
19710,20.632,2.7273,0,9.2905e-05,928.41,3.6901e-05,0.24708,1.954e-05,-130.2,-9.4425e-05,-986.48,1.7977
19711,20.541,2.7273,0.05,2.0924e-06,20.91,1.6067e-06,12.072,-3.8806e-13,5.1631e-06,-1.6067e-06,-12.072,1.7848
19712,20.541,3,0,9.9855e-05,997.86,3.9126e-05,0.29099,2.2011e-05,-128.3,-0.00010141,-1055.6,1.7849
19713,20.632,2.9091,0,9.4057e-05,939.92,3.7262e-05,0.26169,1.9966e-05,-129.7,-9.5582e-05,-997.88,1.7977
19714,20.541,2.9091,0.05,2.1295e-06,21.281,1.6352e-06,12.286,-7.0505e-13,4.7907e-06,-1.6352e-06,-12.286,1.7848
19715,20.541,3.1818,0,9.9207e-05,991.39,3.8937e-05,0.28316,2.1747e-05,-128.87,-0.00010076,-1049.4,1.7848
19716,20.632,3.0909,0,9.4057e-05,939.92,3.7262e-05,0.26169,1.9966e-05,-129.7,-9.5582e-05,-997.88,1.7977
19717,20.541,3.0909,0.05,2.1295e-06,21.281,1.6352e-06,12.287,-1.5767e-12,-6.985e-08,-1.6352e-06,-12.286,1.7848
19718,20.541,3.3636,0,9.7299e-05,972.32,3.8354e-05,0.25983,2.1014e-05,-130.02,-9.8849e-05,-1030.6,1.7848
19719,20.632,3.2727,0,9.2905e-05,928.41,3.6901e-05,0.24708,1.954e-05,-130.2,-9.4425e-05,-986.48,1.7977
19720,20.541,3.2727,0.05,2.0924e-06,20.91,1.6067e-06,12.072,-1.9652e-12,-1.8726e-06,-1.6067e-06,-12.072,1.7848
19721,20.541,3.5455,0,9.4252e-05,941.87,3.7347e-05,0.22256,1.9988e-05,-130.2,-9.5783e-05,-1000.1,1.7848
19722,20.632,3.4545,0,9.0676e-05,906.13,3.616e-05,0.21961,1.8793e-05,-130.27,-9.218e-05,-964.08,1.7977
19723,20.541,3.4545,0.05,2.0139e-06,20.125,1.5464e-06,11.619,-2.253e-12,1.0174e-06,-1.5464e-06,-11.619,1.7848
19724,20.541,3.7273,0,9.0281e-05,902.19,3.5889e-05,0.17778,1.8924e-05,-127.29,-9.1765e-05,-958.97,1.7847
19725,20.632,3.6364,0,8.7529e-05,874.69,3.502e-05,0.18435,1.7921e-05,-128.29,-8.8997e-05,-931.63,1.7977
19726,20.541,3.6364,0.05,1.8927e-06,18.914,1.4533e-06,10.92,-2.0845e-12,-3.6484e-08,-1.4533e-06,-10.92,1.7848
19727,20.541,3.9091,0,8.5683e-05,856.24,3.3997e-05,0.14679,1.8079e-05,-119.45,-8.7083e-05,-909.6,1.7847
19728,20.632,3.8182,0,8.3705e-05,836.47,3.3479e-05,0.15142,1.7157e-05,-122.48,-8.5109e-05,-890.87,1.7976
19729,20.541,3.8182,0.05,1.7367e-06,17.355,1.3336e-06,10.02,-1.5633e-12,4.3964e-06,-1.3335e-06,-10.02,1.7847
19730,20.541,4.0909,0,8.0775e-05,807.19,3.1746e-05,0.14988,1.7617e-05,-106.01,-8.205e-05,-854.87,1.7846
19731,20.632,4,0,7.9487e-05,794.32,3.158e-05,0.13923,1.6693e-05,-111.72,-8.0792e-05,-844.18,1.7975
19732,20.541,4,0.05,1.5604e-06,15.593,1.1982e-06,9.0025,-5.5481e-13,8.908e-06,-1.1982e-06,-9.0025,1.7846
19733,20.541,4.2727,0,7.5824e-05,757.72,2.9268e-05,0.18318,1.7535e-05,-87.973,-7.6932e-05,-797.76,1.7845
19734,20.632,4.1818,0,7.5136e-05,750.84,2.9418e-05,0.15323,1.6598e-05,-96.171,-7.6304e-05,-794.2,1.7975
19735,20.541,4.1818,0.05,1.3748e-06,13.738,1.0557e-06,7.9318,3.1451e-13,1.162e-05,-1.0557e-06,-7.9318,1.7846
19736,20.541,4.4545,0,7.1014e-05,709.65,2.6724e-05,0.24014,1.7691e-05,-67.625,-7.1916e-05,-740.9,1.7845
19737,20.632,4.3636,0,7.0844e-05,707.95,2.7122e-05,0.18646,1.6797e-05,-77.39,-7.1838e-05,-743.36,1.7974
19738,20.541,4.3636,0.05,1.1861e-06,11.853,9.108e-07,6.8434,3.8575e-13,2.2903e-05,-9.108e-07,-6.8434,1.7845
19739,20.541,4.6364,0,6.6459e-05,664.13,2.427e-05,0.32743,1.7902e-05,-47.514,-6.7132e-05,-686.43,1.7844
19740,20.632,4.5455,0,6.6734e-05,666.88,2.4834e-05,0.23968,1.7135e-05,-57.609,-6.7522e-05,-693.68,1.7973
19741,20.541,4.5455,0.05,1.0025e-06,10.018,7.6978e-07,5.7839,1.1099e-12,2.0446e-05,-7.6978e-07,-5.7838,1.7844
19742,20.541,4.8182,0,6.2249e-05,622.06,2.2028e-05,0.47384,1.8031e-05,-29.553,-6.2689e-05,-636.05,1.7843
19743,20.632,4.7273,0,6.2891e-05,628.48,2.2676e-05,0.3224,1.7459e-05,-38.877,-6.3455e-05,-646.84,1.7972
19744,20.541,4.7273,0.05,8.3568e-07,8.3511,6.417e-07,4.8215,1.3964e-12,1.8365e-05,-6.417e-07,-4.8215,1.7843
19745,20.541,5,0,5.8472e-05,584.31,2.009e-05,0.80442,1.8016e-05,-14.777,-5.8694e-05,-591.14,1.7841
19746,20.632,4.9091,0,5.939e-05,593.49,2.0744e-05,0.47795,1.7681e-05,-22.538,-5.9732e-05,-604.18,1.7971
19747,20.541,4.9091,0.05,6.9535e-07,6.9487,5.3394e-07,4.0119,1.0385e-12,2.0526e-05,-5.3394e-07,-4.0118,1.7842
19748,20.541,5.1818,0,5.5211e-05,551.73,1.8615e-05,2.2278,1.7753e-05,-4.2527,-5.5242e-05,-552.71,1.784
19749,20.632,5.0909,0,5.6305e-05,562.66,1.9121e-05,0.93536,1.7749e-05,-9.3664,-5.6442e-05,-566.81,1.797
19750,20.541,5.0909,0.05,5.8426e-07,5.8386,4.4864e-07,3.3709,1.1184e-12,8.986e-06,-4.4864e-07,-3.3709,1.7841
19751,20.541,5.3636,0,5.2531e-05,524.94,1.8031e-05,7.8248,1.6872e-05,-0.88664,-5.2407e-05,-521.42,1.7839
19752,20.632,5.2727,0,5.3702e-05,536.65,1.8133e-05,3.9359,1.7385e-05,-1.6882,-5.3661e-05,-535.5,1.7969
19753,20.541,5.2727,0.05,4.9891e-07,4.9856,3.831e-07,2.8785,1.235e-12,6.8802e-06,-3.831e-07,-2.8785,1.7839
19754,20.541,5.5455,0,5.0467e-05,504.32,1.7787e-05,13.409,1.5957e-05,-0.34009,-5.0231e-05,-497.65,1.7837
19755,20.632,5.4545,0,5.1618e-05,515.83,1.7926e-05,10.456,1.6477e-05,-0.43226,-5.1439e-05,-510.73,1.7967
19756,20.541,5.4545,0.05,4.3422e-07,4.3392,3.3343e-07,2.5052,2.902e-13,4.8145e-06,-3.3343e-07,-2.5052,1.7838
19757,20.541,5.7273,0,4.9126e-05,490.92,1.7646e-05,17.168,1.5341e-05,-0.15076,-4.8813e-05,-482.18,1.7836
19758,20.632,5.6364,0,5.007e-05,500.36,1.7783e-05,15.035,1.5757e-05,-0.18864,-4.98e-05,-492.76,1.7966
19759,20.541,5.6364,0.05,4.0457e-07,4.0429,3.1066e-07,2.3342,4.9684e-13,1.8128e-06,-3.1066e-07,-2.3342,1.7836
19760,20.632,5.8182,0,4.9242e-05,492.08,1.7742e-05,17.916,1.5349e-05,-0.058481,-4.8913e-05,-482.9,1.7964
19761,20.541,5.8182,0.05,7.2215e-07,7.2165,5.5452e-07,4.1664,7.3886e-13,4.4774e-06,-5.5452e-07,-4.1665,1.7835
19762,20.541,5.9091,0,4.7391e-05,473.58,1.6584e-05,11.385,1.5077e-05,0.058497,-4.7186e-05,-467.76,1.7834
19763,20.723,0.27273,0,5.0199e-05,501.64,1.789e-05,15.865,1.5765e-05,-0.095204,-4.9911e-05,-493.56,1.8095
19764,20.814,0.18182,0,4.9944e-05,499.09,1.7855e-05,16.498,1.5655e-05,-0.032012,-4.9643e-05,-490.65,1.8224
19765,20.723,0.18182,0.05,5.2666e-07,5.263,4.0441e-07,3.0386,6.9858e-13,4.3592e-06,-4.0441e-07,-3.0386,1.8094
19766,20.723,0.090909,0,4.8735e-05,487.01,1.697e-05,10.685,1.5555e-05,0.054552,-4.8543e-05,-481.55,1.8093
19767,20.723,0.45455,0,5.1244e-05,512.08,1.7936e-05,12.182,1.6284e-05,-0.22735,-5.1029e-05,-505.99,1.8096
19768,20.814,0.36364,0,5.0579e-05,505.45,1.7851e-05,13.863,1.5989e-05,-0.12573,-5.0331e-05,-498.43,1.8225
19769,20.723,0.36364,0.05,2.3907e-07,2.3891,1.8358e-07,1.3793,1.1829e-12,1.4135e-05,-1.8358e-07,-1.3793,1.8095
19770,20.723,0.63636,0,5.2825e-05,527.88,1.799e-05,6.2749,1.7063e-05,-0.69068,-5.2726e-05,-525.06,1.8098
19771,20.814,0.54545,0,5.1774e-05,517.38,1.7872e-05,9.2632,1.6599e-05,-0.29745,-5.1615e-05,-512.83,1.8226
19772,20.723,0.54545,0.05,3.053e-07,3.0509,2.3443e-07,1.7615,4.1428e-13,3.0071e-06,-2.3443e-07,-1.7614,1.8097
19773,20.723,0.81818,0,5.4846e-05,548.09,1.8449e-05,1.2182,1.7619e-05,-5.0177,-5.4908e-05,-549.96,1.8099
19774,20.814,0.72727,0,5.3351e-05,533.15,1.7908e-05,2.6928,1.7341e-05,-1.5722,-5.3331e-05,-532.57,1.8228
19775,20.723,0.72727,0.05,4.0049e-07,4.0021,3.0753e-07,2.3106,2.0087e-14,1.5195e-07,-3.0752e-07,-2.3106,1.8098
19776,20.723,1,0,5.7286e-05,572.46,1.9757e-05,0.47637,1.7492e-05,-16.541,-5.754e-05,-580.31,1.81
19777,20.814,0.90909,0,5.5301e-05,552.63,1.8798e-05,0.56867,1.7369e-05,-10.165,-5.5456e-05,-557.34,1.8229
19778,20.723,0.90909,0.05,5.0978e-07,5.0942,3.9144e-07,2.9412,-4.3808e-13,-3.2797e-06,-3.9144e-07,-2.9411,1.8099
19779,20.723,1.1818,0,6.0102e-05,600.6,2.139e-05,0.30423,1.7181e-05,-31.322,-6.0567e-05,-615.49,1.8101
19780,20.814,1.0909,0,5.7597e-05,575.57,2.0175e-05,0.31453,1.7033e-05,-23.292,-5.7951e-05,-586.7,1.823
19781,20.723,1.0909,0.05,6.3446e-07,6.3403,4.8719e-07,3.6606,-1.0803e-12,-6.2906e-06,-4.8719e-07,-3.6605,1.81
19782,20.723,1.3636,0,6.3238e-05,631.95,2.324e-05,0.22578,1.6765e-05,-48.419,-6.3918e-05,-654.64,1.8102
19783,20.814,1.2727,0,6.0198e-05,601.57,2.1779e-05,0.22574,1.6573e-05,-38.893,-6.0761e-05,-619.95,1.8231
19784,20.723,1.2727,0.05,7.7438e-07,7.7384,5.9463e-07,4.4678,-1.1138e-12,-1.3006e-05,-5.9463e-07,-4.4678,1.8101
19785,20.723,1.5455,0,6.6634e-05,665.88,2.5231e-05,0.17907,1.6312e-05,-66.832,-6.7515e-05,-696.67,1.8103
19786,20.814,1.4545,0,6.3055e-05,630.11,2.3542e-05,0.17831,1.6044e-05,-56.163,-6.3818e-05,-656.21,1.8232
19787,20.723,1.4545,0.05,9.2591e-07,9.2527,7.1098e-07,5.3421,-1.8029e-12,-8.3579e-06,-7.1098e-07,-5.342,1.8102
19788,20.723,1.7273,0,7.022e-05,701.71,2.7271e-05,0.14971,1.5927e-05,-85.087,-7.1275e-05,-740.29,1.8104
19789,20.814,1.6364,0,6.6111e-05,660.65,2.5389e-05,0.14838,1.5526e-05,-73.958,-6.7054e-05,-694.43,1.8233
19790,20.723,1.6364,0.05,1.0829e-06,10.821,8.315e-07,6.2476,-1.5697e-12,-1.3168e-05,-8.315e-07,-6.2476,1.8103
19791,20.723,1.9091,0,7.3903e-05,738.52,2.9251e-05,0.13618,1.573e-05,-101.46,-7.5101e-05,-783.92,1.8104
19792,20.814,1.8182,0,6.9299e-05,692.52,2.7229e-05,0.13073,1.5127e-05,-90.799,-7.0392e-05,-733.36,1.8233
19793,20.723,1.8182,0.05,1.239e-06,12.382,9.5141e-07,7.1485,-2.2577e-12,-1.4316e-05,-9.5141e-07,-7.1485,1.8104
19794,20.723,2.0909,0,7.7549e-05,774.95,3.1062e-05,0.13871,1.581e-05,-114.46,-7.8855e-05,-825.73,1.8105
19795,20.814,2,0,7.2525e-05,724.74,2.8964e-05,0.1263,1.4947e-05,-105.19,-7.3735e-05,-771.52,1.8234
19796,20.723,2,0.05,1.3901e-06,13.891,1.0674e-06,8.02,-1.1703e-12,-7.4344e-06,-1.0674e-06,-8.02,1.8104
19797,20.723,2.2727,0,8.0967e-05,809.11,3.2609e-05,0.15481,1.6167e-05,-123.39,-8.2353e-05,-863.63,1.8105
19798,20.814,2.1818,0,7.5646e-05,755.93,3.0503e-05,0.13478,1.5032e-05,-116.11,-7.6945e-05,-807.19,1.8234
19799,20.723,2.1818,0.05,1.5321e-06,15.31,1.1764e-06,8.8392,-1.1933e-12,-1.301e-06,-1.1764e-06,-8.8392,1.8105
19800,20.723,2.4545,0,8.3936e-05,838.78,3.3834e-05,0.18015,1.6707e-05,-128.5,-8.5375e-05,-895.51,1.8106
19801,20.814,2.3636,0,7.848e-05,784.26,3.1777e-05,0.15349,1.5345e-05,-123.31,-7.9842e-05,-838.51,1.8235
19802,20.723,2.3636,0.05,1.6585e-06,16.573,1.2735e-06,9.5686,-6.717e-13,3.8181e-07,-1.2735e-06,-9.5686,1.8105
19803,20.723,2.6364,0,8.6236e-05,861.76,3.4707e-05,0.2067,1.727e-05,-130.81,-8.7707e-05,-919.56,1.8106
19804,20.814,2.5455,0,8.0826e-05,807.7,3.2744e-05,0.17712,1.5773e-05,-127.34,-8.223e-05,-863.69,1.8235
19805,20.723,2.5455,0.05,1.7606e-06,17.594,1.352e-06,10.158,-5.2808e-13,2.5945e-06,-1.352e-06,-10.158,1.8106
19806,20.723,2.8182,0,8.7689e-05,876.29,3.5226e-05,0.22566,1.7688e-05,-131.55,-8.9176e-05,-934.49,1.8106
19807,20.814,2.7273,0,8.2501e-05,824.44,3.3388e-05,0.19761,1.6168e-05,-129.19,-8.393e-05,-881.28,1.8235
19808,20.723,2.7273,0.05,1.8312e-06,18.3,1.4062e-06,10.565,-9.3774e-13,3.3664e-06,-1.4062e-06,-10.565,1.8106
19809,20.723,3,0,8.8186e-05,881.25,3.5398e-05,0.23237,1.7842e-05,-131.67,-8.9678e-05,-939.54,1.8106
19810,20.814,2.9091,0,8.3373e-05,833.15,3.3709e-05,0.20912,1.6403e-05,-129.82,-8.4813e-05,-890.31,1.8235
19811,20.723,2.9091,0.05,1.8669e-06,18.656,1.4335e-06,10.771,-7.5336e-13,5.3768e-06,-1.4335e-06,-10.771,1.8106
19812,20.723,3.1818,0,8.7689e-05,876.29,3.5226e-05,0.22566,1.7688e-05,-131.55,-8.9176e-05,-934.49,1.8106
19813,20.814,3.0909,0,8.3373e-05,833.15,3.3709e-05,0.20912,1.6403e-05,-129.82,-8.4813e-05,-890.31,1.8235
19814,20.723,3.0909,0.05,1.8669e-06,18.656,1.4335e-06,10.771,-1.5298e-12,1.2214e-06,-1.4335e-06,-10.771,1.8106
19815,20.723,3.3636,0,8.6236e-05,861.76,3.4707e-05,0.2067,1.727e-05,-130.81,-8.7707e-05,-919.56,1.8106
19816,20.814,3.2727,0,8.2501e-05,824.44,3.3388e-05,0.19761,1.6168e-05,-129.19,-8.393e-05,-881.28,1.8235
19817,20.723,3.2727,0.05,1.8312e-06,18.3,1.4062e-06,10.565,-1.6421e-12,2.6524e-06,-1.4062e-06,-10.565,1.8106
19818,20.723,3.5455,0,8.3936e-05,838.78,3.3834e-05,0.18015,1.6707e-05,-128.5,-8.5375e-05,-895.51,1.8106
19819,20.814,3.4545,0,8.0826e-05,807.7,3.2744e-05,0.17712,1.5773e-05,-127.34,-8.223e-05,-863.69,1.8235
19820,20.723,3.4545,0.05,1.7606e-06,17.594,1.352e-06,10.158,-1.5484e-12,3.375e-06,-1.352e-06,-10.158,1.8106
19821,20.723,3.7273,0,8.0967e-05,809.11,3.2609e-05,0.15481,1.6167e-05,-123.39,-8.2353e-05,-863.63,1.8105
19822,20.814,3.6364,0,7.848e-05,784.26,3.1777e-05,0.15349,1.5345e-05,-123.31,-7.9842e-05,-838.51,1.8235
19823,20.723,3.6364,0.05,1.6585e-06,16.573,1.2735e-06,9.5686,-1.5859e-12,6.194e-06,-1.2735e-06,-9.5686,1.8105
19824,20.723,3.9091,0,7.7549e-05,774.95,3.1062e-05,0.13871,1.581e-05,-114.46,-7.8855e-05,-825.73,1.8105
19825,20.814,3.8182,0,7.5646e-05,755.93,3.0503e-05,0.13478,1.5032e-05,-116.11,-7.6945e-05,-807.19,1.8234
19826,20.723,3.8182,0.05,1.5321e-06,15.31,1.1764e-06,8.8392,-1.1365e-12,5.7125e-06,-1.1764e-06,-8.8392,1.8105
19827,20.723,4.0909,0,7.3903e-05,738.52,2.9251e-05,0.13618,1.573e-05,-101.46,-7.5101e-05,-783.92,1.8104
19828,20.814,4,0,7.2525e-05,724.74,2.8964e-05,0.1263,1.4947e-05,-105.19,-7.3735e-05,-771.52,1.8234
19829,20.723,4,0.05,1.3901e-06,13.891,1.0674e-06,8.0201,-5.1172e-13,1.1802e-05,-1.0674e-06,-8.02,1.8104
19830,20.723,4.2727,0,7.022e-05,701.71,2.7271e-05,0.14971,1.5927e-05,-85.087,-7.1275e-05,-740.29,1.8104
19831,20.814,4.1818,0,6.9299e-05,692.52,2.7229e-05,0.13072,1.5127e-05,-90.799,-7.0392e-05,-733.36,1.8233
19832,20.723,4.1818,0.05,1.239e-06,12.382,9.5141e-07,7.1485,-2.4799e-14,1.5949e-05,-9.5141e-07,-7.1485,1.8104
19833,20.723,4.4545,0,6.6634e-05,665.88,2.5231e-05,0.17907,1.6312e-05,-66.832,-6.7515e-05,-696.67,1.8103
19834,20.814,4.3636,0,6.6111e-05,660.65,2.5389e-05,0.14838,1.5526e-05,-73.958,-6.7054e-05,-694.43,1.8233
19835,20.723,4.3636,0.05,1.0829e-06,10.821,8.315e-07,6.2476,9.4902e-13,2.026e-05,-8.315e-07,-6.2475,1.8103
19836,20.723,4.6364,0,6.3238e-05,631.95,2.3239e-05,0.22578,1.6765e-05,-48.419,-6.3918e-05,-654.64,1.8102
19837,20.814,4.5455,0,6.3055e-05,630.11,2.3542e-05,0.1783,1.6044e-05,-56.163,-6.3818e-05,-656.21,1.8232
19838,20.723,4.5455,0.05,9.2591e-07,9.2527,7.1098e-07,5.3421,5.7829e-13,2.8479e-05,-7.1098e-07,-5.342,1.8102
19839,20.723,4.8182,0,6.0102e-05,600.6,2.139e-05,0.30423,1.7181e-05,-31.322,-6.0567e-05,-615.49,1.8101
19840,20.814,4.7273,0,6.0198e-05,601.57,2.1779e-05,0.22574,1.6573e-05,-38.893,-6.0761e-05,-619.95,1.8231
19841,20.723,4.7273,0.05,7.7438e-07,7.7384,5.9463e-07,4.4678,1.415e-12,2.1691e-05,-5.9463e-07,-4.4678,1.8101
19842,20.723,5,0,5.7286e-05,572.46,1.9757e-05,0.47637,1.7492e-05,-16.541,-5.754e-05,-580.31,1.81
19843,20.814,4.9091,0,5.7597e-05,575.57,2.0175e-05,0.31453,1.7033e-05,-23.292,-5.7951e-05,-586.7,1.823
19844,20.723,4.9091,0.05,6.3446e-07,6.3403,4.8719e-07,3.6606,1.9864e-12,2.217e-05,-4.8719e-07,-3.6605,1.81
19845,20.723,5.1818,0,5.4846e-05,548.09,1.8449e-05,1.2182,1.7619e-05,-5.0177,-5.4908e-05,-549.96,1.8099
19846,20.814,5.0909,0,5.5301e-05,552.62,1.8798e-05,0.56867,1.7369e-05,-10.165,-5.5456e-05,-557.34,1.8229
19847,20.723,5.0909,0.05,5.0978e-07,5.0942,3.9144e-07,2.9412,1.3982e-12,2.0038e-05,-3.9144e-07,-2.9412,1.8099
19848,20.723,5.3636,0,5.2825e-05,527.88,1.799e-05,6.2749,1.7063e-05,-0.69069,-5.2726e-05,-525.06,1.8098
19849,20.814,5.2727,0,5.3351e-05,533.15,1.7908e-05,2.6928,1.7341e-05,-1.5722,-5.3331e-05,-532.57,1.8228
19850,20.723,5.2727,0.05,4.0049e-07,4.0021,3.0753e-07,2.3106,1.3742e-12,3.0583e-05,-3.0753e-07,-2.3106,1.8098
19851,20.723,5.5455,0,5.1244e-05,512.08,1.7936e-05,12.182,1.6284e-05,-0.22736,-5.1029e-05,-505.99,1.8096
19852,20.814,5.4545,0,5.1774e-05,517.38,1.7872e-05,9.2632,1.6599e-05,-0.29745,-5.1615e-05,-512.83,1.8226
19853,20.723,5.4545,0.05,3.053e-07,3.0509,2.3443e-07,1.7615,6.136e-13,4.5992e-06,-2.3444e-07,-1.7614,1.8097
19854,20.723,5.7273,0,5.0199e-05,501.64,1.789e-05,15.865,1.5765e-05,-0.095203,-4.9911e-05,-493.56,1.8095
19855,20.814,5.6364,0,5.0579e-05,505.45,1.7851e-05,13.863,1.5989e-05,-0.12573,-5.0331e-05,-498.43,1.8225
19856,20.723,5.6364,0.05,2.3907e-07,2.3891,1.8358e-07,1.3793,1.9214e-13,3.5965e-06,-1.8358e-07,-1.3793,1.8095
19857,20.814,5.8182,0,4.9944e-05,499.09,1.7855e-05,16.498,1.5655e-05,-0.032012,-4.9643e-05,-490.65,1.8224
19858,20.723,5.8182,0.05,5.2666e-07,5.263,4.0441e-07,3.0386,3.9528e-13,6.2741e-06,-4.0441e-07,-3.0386,1.8094
19859,20.723,5.9091,0,4.8735e-05,487.01,1.697e-05,10.685,1.5555e-05,0.054556,-4.8543e-05,-481.55,1.8093
19860,20.905,0.27273,0,5.0328e-05,502.94,1.782e-05,14.522,1.5879e-05,-0.061224,-5.0067e-05,-495.55,1.8354
19861,20.996,0.18182,0,4.977e-05,497.35,1.7686e-05,15.167,1.5665e-05,-0.017886,-4.9495e-05,-489.61,1.8483
19862,20.905,0.18182,0.05,3.5596e-07,3.5572,2.7334e-07,2.0537,7.559e-13,9.4946e-06,-2.7334e-07,-2.0537,1.8353
19863,20.905,0.090909,0,4.9104e-05,490.7,1.7032e-05,9.9659,1.5712e-05,0.051344,-4.8926e-05,-485.61,1.8353
19864,20.905,0.45455,0,5.1122e-05,510.87,1.7793e-05,10.987,1.6311e-05,-0.15003,-5.0929e-05,-505.36,1.8355
19865,20.996,0.36364,0,5.0232e-05,501.97,1.7636e-05,12.676,1.5938e-05,-0.08292,-5.0005e-05,-495.55,1.8484
19866,20.905,0.36364,0.05,1.4774e-07,1.4764,1.1345e-07,0.8524,1.3678e-12,1.5289e-05,-1.1345e-07,-0.85239,1.8355
19867,20.905,0.63636,0,5.2319e-05,522.83,1.7722e-05,5.1622,1.6966e-05,-0.51853,-5.2238e-05,-520.49,1.8357
19868,20.996,0.54545,0,5.1138e-05,511.03,1.7574e-05,8.2635,1.6448e-05,-0.19767,-5.0996e-05,-506.95,1.8486
19869,20.905,0.54545,0.05,2.5735e-07,2.5718,1.9762e-07,1.4848,1.0574e-12,1.237e-05,-1.9762e-07,-1.4848,1.8356
19870,20.905,0.81818,0,5.3832e-05,537.95,1.8086e-05,0.75648,1.7289e-05,-5.2327,-5.3905e-05,-540.16,1.8358
19871,20.996,0.72727,0,5.2321e-05,522.84,1.7497e-05,1.9603,1.7054e-05,-1.3642,-5.231e-05,-522.54,1.8487
19872,20.905,0.72727,0.05,3.687e-07,3.6845,2.8312e-07,2.1272,2.8002e-13,2.8623e-06,-2.8312e-07,-2.1272,1.8357
19873,20.905,1,0,5.5644e-05,556.05,1.9204e-05,0.32038,1.6955e-05,-16.576,-5.5901e-05,-563.99,1.8359
19874,20.996,0.90909,0,5.3768e-05,537.31,1.8266e-05,0.38604,1.6891e-05,-9.9422,-5.3923e-05,-542.01,1.8488
19875,20.905,0.90909,0.05,4.85e-07,4.8466,3.7242e-07,2.7982,-9.4006e-13,6.0273e-06,-3.7242e-07,-2.7982,1.8358
19876,20.905,1.1818,0,5.773e-05,576.9,2.0562e-05,0.21768,1.6467e-05,-30.552,-5.8184e-05,-591.45,1.836
19877,20.996,1.0909,0,5.5465e-05,554.27,1.9416e-05,0.22726,1.6418e-05,-22.3,-5.5806e-05,-564.96,1.8489
19878,20.905,1.0909,0.05,6.0815e-07,6.0773,4.6699e-07,3.5087,-9.5488e-13,-2.2482e-06,-4.6698e-07,-3.5087,1.8359
19879,20.905,1.3636,0,6.0053e-05,600.12,2.2081e-05,0.17035,1.5894e-05,-46.315,-6.0703e-05,-621.84,1.8361
19880,20.996,1.2727,0,5.7386e-05,573.46,2.0739e-05,0.17159,1.5836e-05,-36.666,-5.7918e-05,-590.82,1.849
19881,20.905,1.2727,0.05,7.3769e-07,7.3718,5.6646e-07,4.2561,-1.3388e-12,-2.9499e-06,-5.6645e-07,-4.2561,1.836
19882,20.905,1.5455,0,6.257e-05,625.27,2.37e-05,0.14225,1.5301e-05,-62.967,-6.3399e-05,-654.29,1.8362
19883,20.996,1.4545,0,5.9495e-05,594.54,2.2178e-05,0.14197,1.52e-05,-52.287,-6.0208e-05,-618.88,1.8491
19884,20.905,1.4545,0.05,8.7108e-07,8.7048,6.6889e-07,5.0258,-1.3412e-12,-2.1959e-06,-6.6888e-07,-5.0257,1.8361
19885,20.905,1.7273,0,6.5228e-05,651.83,2.5347e-05,0.12488,1.4767e-05,-79.365,-6.6211e-05,-687.8,1.8362
19886,20.996,1.6364,0,6.1753e-05,617.1,2.3674e-05,0.12366,1.4579e-05,-68.214,-6.2627e-05,-648.3,1.8491
19887,20.905,1.6364,0.05,1.0046e-06,10.039,7.7143e-07,5.7962,-1.3444e-12,1.3519e-06,-7.7143e-07,-5.7962,1.8362
19888,20.905,1.9091,0,6.7954e-05,679.07,2.6941e-05,0.11693,1.4379e-05,-94.273,-6.9061e-05,-721.21,1.8363
19889,20.996,1.8182,0,6.4106e-05,640.62,2.5158e-05,0.11333,1.4051e-05,-83.342,-6.5113e-05,-678.15,1.8492
19890,20.905,1.8182,0.05,1.1348e-06,11.34,8.7139e-07,6.5473,-1.8027e-12,-3.848e-06,-8.7139e-07,-6.5472,1.8362
19891,20.905,2.0909,0,7.0646e-05,705.97,2.8405e-05,0.11923,1.4195e-05,-106.66,-7.185e-05,-753.16,1.8363
19892,20.996,2,0,6.6482e-05,664.36,2.6559e-05,0.11104,1.3686e-05,-96.611,-6.7593e-05,-707.3,1.8493
19893,20.905,2,0.05,1.2589e-06,12.58,9.6665e-07,7.263,-1.4789e-12,-2.0752e-06,-9.6665e-07,-7.263,1.8363
19894,20.905,2.2727,0,7.3169e-05,731.18,2.9671e-05,0.1313,1.4221e-05,-115.95,-7.4444e-05,-782.15,1.8364
19895,20.996,2.1818,0,6.8775e-05,687.27,2.781e-05,0.11728,1.3519e-05,-107.26,-6.9965e-05,-734.53,1.8493
19896,20.905,2.1818,0.05,1.374e-06,13.73,1.0551e-06,7.9273,-1.2336e-12,9.2136e-07,-1.0551e-06,-7.9273,1.8363
19897,20.905,2.4545,0,7.5362e-05,753.1,3.0688e-05,0.14926,1.4404e-05,-122.2,-7.6689e-05,-806.64,1.8364
19898,20.996,2.3636,0,7.0855e-05,708.06,2.8858e-05,0.13035,1.3532e-05,-115.02,-7.2104e-05,-758.45,1.8493
19899,20.905,2.3636,0.05,1.476e-06,14.749,1.1333e-06,8.5155,-8.4572e-13,4.0213e-06,-1.1333e-06,-8.5155,1.8364
19900,20.905,2.6364,0,7.7066e-05,770.13,3.1426e-05,0.16749,1.4646e-05,-125.91,-7.8427e-05,-825.22,1.8364
19901,20.996,2.5455,0,7.258e-05,725.3,2.9665e-05,0.14616,1.366e-05,-120.11,-7.3869e-05,-777.76,1.8494
19902,20.905,2.5455,0.05,1.559e-06,15.579,1.1971e-06,8.9947,-6.9984e-13,3.2269e-06,-1.1971e-06,-8.9947,1.8364
19903,20.905,2.8182,0,7.8148e-05,780.94,3.1871e-05,0.18081,1.4844e-05,-127.75,-7.9527e-05,-836.82,1.8365
19904,20.996,2.7273,0,7.3815e-05,737.64,3.021e-05,0.16006,1.3816e-05,-123.02,-7.5129e-05,-791.32,1.8494
19905,20.905,2.7273,0.05,1.6176e-06,16.165,1.2421e-06,9.3327,-8.2806e-13,6.2604e-06,-1.2421e-06,-9.3327,1.8364
19906,20.905,3,0,7.8518e-05,784.64,3.202e-05,0.18567,1.492e-05,-128.29,-7.9904e-05,-840.77,1.8365
19907,20.996,2.9091,0,7.446e-05,744.08,3.0484e-05,0.1681,1.3917e-05,-124.31,-7.5786e-05,-798.3,1.8494
19908,20.905,2.9091,0.05,1.6478e-06,16.467,1.2653e-06,9.507,-9.8769e-13,5.331e-06,-1.2653e-06,-9.5069,1.8364
19909,20.905,3.1818,0,7.8148e-05,780.94,3.1871e-05,0.18081,1.4844e-05,-127.75,-7.9527e-05,-836.82,1.8365
19910,20.996,3.0909,0,7.446e-05,744.08,3.0484e-05,0.1681,1.3917e-05,-124.31,-7.5786e-05,-798.3,1.8494
19911,20.905,3.0909,0.05,1.6478e-06,16.467,1.2653e-06,9.507,-1.1816e-12,7.0077e-06,-1.2653e-06,-9.5069,1.8364
19912,20.905,3.3636,0,7.7066e-05,770.13,3.1426e-05,0.16749,1.4646e-05,-125.91,-7.8427e-05,-825.22,1.8364
19913,20.996,3.2727,0,7.3815e-05,737.64,3.021e-05,0.16006,1.3816e-05,-123.02,-7.5129e-05,-791.32,1.8494
19914,20.905,3.2727,0.05,1.6176e-06,16.165,1.2421e-06,9.3328,-1.4037e-12,6.5758e-06,-1.2421e-06,-9.3327,1.8364
19915,20.905,3.5455,0,7.5362e-05,753.1,3.0688e-05,0.14926,1.4403e-05,-122.2,-7.6689e-05,-806.64,1.8364
19916,20.996,3.4545,0,7.258e-05,725.3,2.9665e-05,0.14616,1.366e-05,-120.11,-7.3869e-05,-777.76,1.8494
19917,20.905,3.4545,0.05,1.559e-06,15.579,1.1971e-06,8.9948,-1.4068e-12,5.8178e-06,-1.1971e-06,-8.9947,1.8364
19918,20.905,3.7273,0,7.3169e-05,731.18,2.9671e-05,0.1313,1.4221e-05,-115.95,-7.4444e-05,-782.15,1.8364
19919,20.996,3.6364,0,7.0855e-05,708.06,2.8858e-05,0.13035,1.3532e-05,-115.02,-7.2104e-05,-758.45,1.8493
19920,20.905,3.6364,0.05,1.476e-06,14.749,1.1333e-06,8.5156,-1.2165e-12,6.7612e-06,-1.1333e-06,-8.5155,1.8364
19921,20.905,3.9091,0,7.0646e-05,705.97,2.8405e-05,0.11923,1.4195e-05,-106.66,-7.185e-05,-753.16,1.8363
19922,20.996,3.8182,0,6.8775e-05,687.27,2.781e-05,0.11728,1.3519e-05,-107.26,-6.9965e-05,-734.53,1.8493
19923,20.905,3.8182,0.05,1.374e-06,13.73,1.0551e-06,7.9273,-6.9416e-13,9.0896e-06,-1.0551e-06,-7.9273,1.8363
19924,20.905,4.0909,0,6.7954e-05,679.07,2.6941e-05,0.11693,1.4379e-05,-94.273,-6.9061e-05,-721.21,1.8363
19925,20.996,4,0,6.6482e-05,664.36,2.6559e-05,0.11104,1.3686e-05,-96.611,-6.7593e-05,-707.3,1.8493
19926,20.905,4,0.05,1.2589e-06,12.58,9.6665e-07,7.263,-3.3118e-13,1.2431e-05,-9.6665e-07,-7.263,1.8363
19927,20.905,4.2727,0,6.5228e-05,651.83,2.5347e-05,0.12488,1.4767e-05,-79.365,-6.6211e-05,-687.8,1.8362
19928,20.996,4.1818,0,6.4106e-05,640.62,2.5158e-05,0.11333,1.4051e-05,-83.342,-6.5113e-05,-678.15,1.8492
19929,20.905,4.1818,0.05,1.1348e-06,11.34,8.7139e-07,6.5473,-5.2122e-14,1.8514e-05,-8.7139e-07,-6.5472,1.8362
19930,20.905,4.4545,0,6.257e-05,625.27,2.37e-05,0.14225,1.5301e-05,-62.967,-6.3399e-05,-654.29,1.8362
19931,20.996,4.3636,0,6.1753e-05,617.1,2.3674e-05,0.12366,1.4579e-05,-68.214,-6.2627e-05,-648.3,1.8491
19932,20.905,4.3636,0.05,1.0046e-06,10.039,7.7143e-07,5.7962,3.8546e-13,1.9507e-05,-7.7143e-07,-5.7962,1.8362
19933,20.905,4.6364,0,6.0053e-05,600.12,2.2081e-05,0.17035,1.5894e-05,-46.315,-6.0703e-05,-621.84,1.8361
19934,20.996,4.5455,0,5.9495e-05,594.54,2.2178e-05,0.14197,1.52e-05,-52.287,-6.0208e-05,-618.88,1.8491
19935,20.905,4.5455,0.05,8.7108e-07,8.7048,6.6889e-07,5.0258,7.2958e-13,2.0478e-05,-6.6888e-07,-5.0257,1.8361
19936,20.905,4.8182,0,5.773e-05,576.9,2.0562e-05,0.21768,1.6467e-05,-30.552,-5.8184e-05,-591.45,1.836
19937,20.996,4.7273,0,5.7386e-05,573.46,2.0739e-05,0.17158,1.5836e-05,-36.666,-5.7918e-05,-590.82,1.849
19938,20.905,4.7273,0.05,7.3769e-07,7.3718,5.6645e-07,4.2561,1.4924e-12,2.1614e-05,-5.6645e-07,-4.2561,1.836
19939,20.905,5,0,5.5644e-05,556.05,1.9204e-05,0.32038,1.6955e-05,-16.576,-5.5901e-05,-563.99,1.8359
19940,20.996,4.9091,0,5.5465e-05,554.27,1.9416e-05,0.22726,1.6418e-05,-22.3,-5.5806e-05,-564.96,1.8489
19941,20.905,4.9091,0.05,6.0815e-07,6.0773,4.6698e-07,3.5087,1.5488e-12,2.0977e-05,-4.6698e-07,-3.5087,1.8359
19942,20.905,5.1818,0,5.3832e-05,537.95,1.8086e-05,0.75648,1.7289e-05,-5.2326,-5.3905e-05,-540.16,1.8358
19943,20.996,5.0909,0,5.3768e-05,537.31,1.8266e-05,0.38604,1.6891e-05,-9.9421,-5.3923e-05,-542.01,1.8488
19944,20.905,5.0909,0.05,4.85e-07,4.8466,3.7242e-07,2.7982,1.4699e-12,2.0291e-05,-3.7242e-07,-2.7982,1.8358
19945,20.905,5.3636,0,5.2319e-05,522.83,1.7722e-05,5.1622,1.6966e-05,-0.51852,-5.2238e-05,-520.49,1.8357
19946,20.996,5.2727,0,5.2321e-05,522.84,1.7497e-05,1.9603,1.7054e-05,-1.3642,-5.231e-05,-522.54,1.8487
19947,20.905,5.2727,0.05,3.687e-07,3.6844,2.8312e-07,2.1272,1.5386e-12,2.4711e-05,-2.8312e-07,-2.1272,1.8357
19948,20.905,5.5455,0,5.1122e-05,510.87,1.7793e-05,10.987,1.6311e-05,-0.15002,-5.0929e-05,-505.36,1.8355
19949,20.996,5.4545,0,5.1138e-05,511.03,1.7574e-05,8.2635,1.6448e-05,-0.19766,-5.0996e-05,-506.95,1.8486
19950,20.905,5.4545,0.05,2.5735e-07,2.5718,1.9761e-07,1.4848,1.5977e-12,1.7852e-05,-1.9762e-07,-1.4848,1.8356
19951,20.905,5.7273,0,5.0328e-05,502.94,1.782e-05,14.522,1.5879e-05,-0.061222,-5.0067e-05,-495.55,1.8354
19952,20.996,5.6364,0,5.0232e-05,501.97,1.7636e-05,12.676,1.5938e-05,-0.08292,-5.0005e-05,-495.55,1.8484
19953,20.905,5.6364,0.05,1.4774e-07,1.4764,1.1345e-07,0.8524,4.5352e-13,1.5248e-05,-1.1345e-07,-0.85239,1.8355
19954,20.996,5.8182,0,4.977e-05,497.35,1.7686e-05,15.167,1.5665e-05,-0.017886,-4.9495e-05,-489.61,1.8483
19955,20.905,5.8182,0.05,3.5596e-07,3.5572,2.7333e-07,2.0537,4.7348e-13,9.2336e-06,-2.7334e-07,-2.0537,1.8353
19956,20.905,5.9091,0,4.9104e-05,490.7,1.7032e-05,9.9659,1.5712e-05,0.051341,-4.8926e-05,-485.61,1.8353
19957,21.087,0.27273,0,4.967e-05,496.36,1.75e-05,13.303,1.5724e-05,-0.039028,-4.9431e-05,-489.59,1.8614
19958,21.178,0.18182,0,4.8866e-05,488.33,1.7294e-05,14.029,1.5425e-05,-0.0099609,-4.8613e-05,-481.16,1.8743
19959,21.087,0.18182,0.05,2.1033e-07,2.1018,1.6151e-07,1.2135,3.1244e-13,8.079e-06,-1.6151e-07,-1.2135,1.8613
19960,21.087,0.090909,0,4.865e-05,486.16,1.6829e-05,9.3192,1.5595e-05,0.048454,-4.8484e-05,-481.41,1.8612
19961,21.087,0.45455,0,5.0254e-05,502.19,1.7418e-05,9.9595,1.608e-05,-0.09449,-5.0078e-05,-497.18,1.8615
19962,21.178,0.36364,0,4.9177e-05,491.43,1.72e-05,11.638,1.5644e-05,-0.052519,-4.8969e-05,-485.53,1.8744
19963,21.087,0.36364,0.05,1.7778e-07,1.7766,1.3652e-07,1.0257,-3.4673e-13,-2.5045e-06,-1.3651e-07,-1.0257,1.8614
19964,21.087,0.63636,0,5.1148e-05,511.13,1.7268e-05,4.4532,1.6628e-05,-0.36232,-5.1077e-05,-509.07,1.8616
19965,21.178,0.54545,0,4.9853e-05,498.18,1.7086e-05,7.542,1.6066e-05,-0.12177,-4.9722e-05,-494.43,1.8745
19966,21.087,0.54545,0.05,2.8384e-07,2.8364,2.1795e-07,1.6376,-7.9404e-13,-1.2673e-07,-2.1795e-07,-1.6376,1.8615
19967,21.087,0.81818,0,5.2269e-05,522.33,1.7534e-05,0.52118,1.6813e-05,-4.9001,-5.2342e-05,-524.5,1.8617
19968,21.178,0.72727,0,5.0729e-05,506.94,1.6926e-05,1.6083,1.6575e-05,-1.0295,-5.0719e-05,-506.64,1.8747
19969,21.087,0.72727,0.05,3.851e-07,3.8483,2.9571e-07,2.2218,-5.8542e-13,-1.3342e-06,-2.9571e-07,-2.2218,1.8617
19970,21.087,1,0,5.3605e-05,535.68,1.847e-05,0.23356,1.638e-05,-15.471,-5.3847e-05,-543.12,1.8618
19971,21.178,0.90909,0,5.1795e-05,517.59,1.7558e-05,0.28396,1.6327e-05,-8.9647,-5.1936e-05,-521.87,1.8748
19972,21.087,0.90909,0.05,4.9155e-07,4.9121,3.7745e-07,2.836,-8.2107e-13,-3.2481e-06,-3.7745e-07,-2.836,1.8618
19973,21.087,1.1818,0,5.5139e-05,551.01,1.959e-05,0.16722,1.581e-05,-28.24,-5.5561e-05,-564.49,1.8619
19974,21.178,1.0909,0,5.304e-05,530.03,1.8508e-05,0.17525,1.5798e-05,-20.19,-5.3351e-05,-539.75,1.8749
19975,21.087,1.0909,0.05,6.0258e-07,6.0216,4.627e-07,3.4766,-6.5645e-13,-3.1947e-06,-4.627e-07,-3.4766,1.8619
19976,21.087,1.3636,0,5.6847e-05,568.08,2.0834e-05,0.13698,1.5166e-05,-42.456,-5.7447e-05,-588.04,1.862
19977,21.178,1.2727,0,5.4446e-05,544.09,1.9593e-05,0.13821,1.517e-05,-33.096,-5.4931e-05,-559.8,1.8749
19978,21.087,1.2727,0.05,7.1662e-07,7.1612,5.5027e-07,4.1345,-1.3032e-12,-2.5153e-06,-5.5027e-07,-4.1345,1.862
19979,21.087,1.5455,0,5.8698e-05,586.58,2.2151e-05,0.11937,1.4503e-05,-57.348,-5.946e-05,-613.07,1.8621
19980,21.178,1.4545,0,5.5991e-05,559.52,2.0766e-05,0.1189,1.4494e-05,-47.012,-5.664e-05,-581.48,1.875
19981,21.087,1.4545,0.05,8.3138e-07,8.308,6.384e-07,4.7967,-1.1567e-12,-6.3298e-06,-6.3839e-07,-4.7966,1.862
19982,21.087,1.7273,0,6.0652e-05,606.1,2.3485e-05,0.10897,1.3886e-05,-72.012,-6.1552e-05,-638.82,1.8621
19983,21.178,1.6364,0,5.7644e-05,576.04,2.198e-05,0.10731,1.3826e-05,-61.158,-5.8438e-05,-604.12,1.8751
19984,21.087,1.6364,0.05,9.4425e-07,9.4359,7.2506e-07,5.4479,-1.4074e-12,-6.5665e-06,-7.2506e-07,-5.4478,1.8621
19985,21.087,1.9091,0,6.2653e-05,626.09,2.4775e-05,0.10484,1.3379e-05,-85.522,-6.3665e-05,-664.4,1.8622
19986,21.178,1.8182,0,5.9365e-05,593.24,2.3181e-05,0.10115,1.3228e-05,-74.683,-6.0279e-05,-626.99,1.8751
19987,21.087,1.8182,0.05,1.0528e-06,10.521,8.0843e-07,6.0743,-1.5364e-12,-4.8967e-06,-8.0843e-07,-6.0742,1.8622
19988,21.087,2.0909,0,6.4624e-05,645.8,2.5963e-05,0.107,1.3025e-05,-97.1,-6.5723e-05,-688.78,1.8622
19989,21.178,2,0,6.1098e-05,610.56,2.4316e-05,0.10026,1.2752e-05,-86.787,-6.2107e-05,-649.25,1.8752
19990,21.087,2,0.05,1.155e-06,11.542,8.8693e-07,6.6641,-1.101e-12,-3.6569e-06,-8.8693e-07,-6.664,1.8622
19991,21.087,2.2727,0,6.6468e-05,664.22,2.6996e-05,0.11479,1.2837e-05,-106.27,-6.7632e-05,-710.88,1.8623
19992,21.178,2.1818,0,6.2767e-05,627.24,2.5334e-05,0.10451,1.2427e-05,-96.872,-6.3848e-05,-669.97,1.8752
19993,21.087,2.1818,0.05,1.2487e-06,12.479,9.5886e-07,7.2045,-1.1479e-12,-2.8916e-06,-9.5886e-07,-7.2045,1.8622
19994,21.087,2.4545,0,6.807e-05,680.23,2.7834e-05,0.12623,1.2785e-05,-112.95,-6.928e-05,-729.56,1.8623
19995,21.178,2.3636,0,6.4278e-05,642.34,2.6192e-05,0.11282,1.2249e-05,-104.65,-6.5412e-05,-688.16,1.8753
19996,21.087,2.3636,0.05,1.3308e-06,13.299,1.0219e-06,7.6782,-9.8977e-13,1.1338e-06,-1.0219e-06,-7.6781,1.8623
19997,21.087,2.6364,0,6.9315e-05,692.68,2.8449e-05,0.1381,1.2816e-05,-117.32,-7.0557e-05,-743.76,1.8623
19998,21.178,2.5455,0,6.553e-05,654.84,2.6859e-05,0.12298,1.2185e-05,-110.13,-6.6701e-05,-702.85,1.8753
19999,21.087,2.5455,0.05,1.3974e-06,13.965,1.073e-06,8.0625,-8.9269e-13,1.4993e-06,-1.073e-06,-8.0624,1.8623
20000,21.087,2.8182,0,7.0106e-05,700.58,2.8823e-05,0.14694,1.2868e-05,-119.74,-7.1367e-05,-752.64,1.8623
20001,21.178,2.7273,0,6.6426e-05,663.81,2.7314e-05,0.13202,1.2184e-05,-113.54,-6.7621e-05,-713.17,1.8753
20002,21.087,2.7273,0.05,1.4445e-06,14.435,1.1092e-06,8.3342,-8.8136e-13,1.0225e-06,-1.1092e-06,-8.3341,1.8623
20003,21.087,3,0,7.0378e-05,703.29,2.8948e-05,0.15019,1.2891e-05,-120.5,-7.1644e-05,-755.66,1.8623
20004,21.178,2.9091,0,6.6895e-05,668.48,2.7543e-05,0.1373,1.2198e-05,-115.16,-6.8101e-05,-718.5,1.8753
20005,21.087,2.9091,0.05,1.4689e-06,14.679,1.1279e-06,8.4749,-1.195e-12,3.5771e-06,-1.1279e-06,-8.4749,1.8623
20006,21.087,3.1818,0,7.0106e-05,700.58,2.8823e-05,0.14694,1.2868e-05,-119.74,-7.1367e-05,-752.64,1.8623
20007,21.178,3.0909,0,6.6895e-05,668.48,2.7543e-05,0.1373,1.2198e-05,-115.16,-6.8101e-05,-718.5,1.8753
20008,21.087,3.0909,0.05,1.4689e-06,14.679,1.1279e-06,8.4749,-1.0882e-12,2.0838e-06,-1.1279e-06,-8.4749,1.8623
20009,21.087,3.3636,0,6.9315e-05,692.68,2.8449e-05,0.1381,1.2816e-05,-117.32,-7.0557e-05,-743.76,1.8623
20010,21.178,3.2727,0,6.6426e-05,663.81,2.7314e-05,0.13203,1.2184e-05,-113.54,-6.7621e-05,-713.17,1.8753
20011,21.087,3.2727,0.05,1.4445e-06,14.435,1.1092e-06,8.3342,-1.1211e-12,3.0953e-06,-1.1092e-06,-8.3341,1.8623
20012,21.087,3.5455,0,6.807e-05,680.23,2.7834e-05,0.12623,1.2785e-05,-112.95,-6.928e-05,-729.56,1.8623
20013,21.178,3.4545,0,6.553e-05,654.84,2.6859e-05,0.12298,1.2185e-05,-110.13,-6.6701e-05,-702.85,1.8753
20014,21.087,3.4545,0.05,1.3974e-06,13.965,1.073e-06,8.0625,-1.105e-12,4.8803e-06,-1.073e-06,-8.0624,1.8623
20015,21.087,3.7273,0,6.6468e-05,664.22,2.6996e-05,0.11479,1.2837e-05,-106.27,-6.7632e-05,-710.88,1.8623
20016,21.178,3.6364,0,6.4278e-05,642.34,2.6192e-05,0.11282,1.2249e-05,-104.65,-6.5412e-05,-688.16,1.8753
20017,21.087,3.6364,0.05,1.3308e-06,13.299,1.0219e-06,7.6782,-1.0451e-12,4.7634e-06,-1.0219e-06,-7.6781,1.8623
20018,21.087,3.9091,0,6.4624e-05,645.8,2.5963e-05,0.107,1.3025e-05,-97.1,-6.5723e-05,-688.78,1.8622
20019,21.178,3.8182,0,6.2767e-05,627.24,2.5334e-05,0.10451,1.2427e-05,-96.872,-6.3848e-05,-669.97,1.8752
20020,21.087,3.8182,0.05,1.2487e-06,12.479,9.5886e-07,7.2045,-7.4411e-13,7.3186e-06,-9.5886e-07,-7.2045,1.8622
20021,21.087,4.0909,0,6.2653e-05,626.09,2.4775e-05,0.10484,1.3379e-05,-85.522,-6.3665e-05,-664.4,1.8622
20022,21.178,4,0,6.1098e-05,610.56,2.4316e-05,0.10026,1.2752e-05,-86.787,-6.2107e-05,-649.25,1.8752
20023,21.087,4,0.05,1.155e-06,11.542,8.8693e-07,6.6641,-5.547e-13,8.6044e-06,-8.8693e-07,-6.664,1.8622
20024,21.087,4.2727,0,6.0652e-05,606.1,2.3485e-05,0.10897,1.3886e-05,-72.012,-6.1552e-05,-638.82,1.8621
20025,21.178,4.1818,0,5.9365e-05,593.24,2.3181e-05,0.10115,1.3228e-05,-74.683,-6.0279e-05,-626.99,1.8751
20026,21.087,4.1818,0.05,1.0528e-06,10.521,8.0843e-07,6.0743,-5.1167e-13,9.0702e-06,-8.0843e-07,-6.0742,1.8622
20027,21.087,4.4545,0,5.8698e-05,586.58,2.2151e-05,0.11937,1.4503e-05,-57.348,-5.946e-05,-613.07,1.8621
20028,21.178,4.3636,0,5.7644e-05,576.04,2.198e-05,0.10731,1.3826e-05,-61.158,-5.8438e-05,-604.12,1.8751
20029,21.087,4.3636,0.05,9.4425e-07,9.4359,7.2506e-07,5.4479,5.2793e-14,1.1972e-05,-7.2506e-07,-5.4478,1.8621
20030,21.087,4.6364,0,5.6847e-05,568.08,2.0834e-05,0.13698,1.5166e-05,-42.456,-5.7447e-05,-588.04,1.862
20031,21.178,4.5455,0,5.5991e-05,559.52,2.0766e-05,0.1189,1.4494e-05,-47.012,-5.664e-05,-581.48,1.875
20032,21.087,4.5455,0.05,8.3138e-07,8.308,6.384e-07,4.7967,-1.3074e-13,1.452e-05,-6.3839e-07,-4.7966,1.862
20033,21.087,4.8182,0,5.5139e-05,551.01,1.959e-05,0.16722,1.581e-05,-28.239,-5.5561e-05,-564.49,1.8619
20034,21.178,4.7273,0,5.4446e-05,544.09,1.9593e-05,0.13821,1.517e-05,-33.096,-5.4931e-05,-559.8,1.8749
20035,21.087,4.7273,0.05,7.1662e-07,7.1612,5.5027e-07,4.1345,3.1136e-13,1.2361e-05,-5.5027e-07,-4.1345,1.862
20036,21.087,5,0,5.3605e-05,535.68,1.847e-05,0.23356,1.638e-05,-15.47,-5.3847e-05,-543.12,1.8618
20037,21.178,4.9091,0,5.304e-05,530.03,1.8508e-05,0.17525,1.5798e-05,-20.19,-5.3351e-05,-539.75,1.8749
20038,21.087,4.9091,0.05,6.0258e-07,6.0216,4.627e-07,3.4766,6.1652e-13,1.1669e-05,-4.627e-07,-3.4766,1.8619
20039,21.087,5.1818,0,5.2269e-05,522.33,1.7534e-05,0.52119,1.6813e-05,-4.9001,-5.2342e-05,-524.5,1.8617
20040,21.178,5.0909,0,5.1795e-05,517.59,1.7558e-05,0.28396,1.6327e-05,-8.9647,-5.1936e-05,-521.87,1.8748
20041,21.087,5.0909,0.05,4.9155e-07,4.9121,3.7745e-07,2.836,2.0451e-13,3.836e-06,-3.7745e-07,-2.836,1.8618
20042,21.087,5.3636,0,5.1148e-05,511.13,1.7268e-05,4.4533,1.6628e-05,-0.36232,-5.1077e-05,-509.07,1.8616
20043,21.178,5.2727,0,5.0729e-05,506.94,1.6926e-05,1.6083,1.6575e-05,-1.0295,-5.0719e-05,-506.64,1.8747
20044,21.087,5.2727,0.05,3.851e-07,3.8483,2.9571e-07,2.2218,4.5128e-13,1.1202e-05,-2.9571e-07,-2.2218,1.8617
20045,21.087,5.5455,0,5.0254e-05,502.19,1.7418e-05,9.9595,1.608e-05,-0.09449,-5.0078e-05,-497.18,1.8615
20046,21.178,5.4545,0,4.9853e-05,498.18,1.7086e-05,7.542,1.6066e-05,-0.12177,-4.9722e-05,-494.43,1.8745
20047,21.087,5.4545,0.05,2.8384e-07,2.8364,2.1795e-07,1.6376,6.1723e-13,9.0578e-06,-2.1795e-07,-1.6376,1.8615
20048,21.087,5.7273,0,4.967e-05,496.36,1.75e-05,13.303,1.5724e-05,-0.039029,-4.9431e-05,-489.59,1.8614
20049,21.178,5.6364,0,4.9177e-05,491.43,1.72e-05,11.638,1.5644e-05,-0.052519,-4.8969e-05,-485.53,1.8744
20050,21.087,5.6364,0.05,1.7778e-07,1.7766,1.3652e-07,1.0257,4.5475e-13,7.3014e-06,-1.3652e-07,-1.0257,1.8614
20051,21.178,5.8182,0,4.8866e-05,488.33,1.7294e-05,14.029,1.5425e-05,-0.0099613,-4.8613e-05,-481.16,1.8743
20052,21.087,5.8182,0.05,2.1033e-07,2.1018,1.6151e-07,1.2135,4.4897e-13,6.0024e-06,-1.6151e-07,-1.2135,1.8613
20053,21.087,5.9091,0,4.865e-05,486.16,1.6829e-05,9.3193,1.5595e-05,0.048455,-4.8484e-05,-481.41,1.8612
20054,21.269,0.27273,0,4.8365e-05,483.31,1.6986e-05,12.31,1.5345e-05,-0.024108,-4.8144e-05,-477.05,1.8874
20055,21.36,0.18182,0,4.7364e-05,473.32,1.6724e-05,13.14,1.4974e-05,-0.005412,-4.7127e-05,-466.61,1.9003
20056,21.269,0.18182,0.05,8.8237e-08,0.88176,6.7755e-08,0.50909,-1.7254e-13,2.678e-06,-6.7755e-08,-0.50908,1.8873
20057,21.269,0.090909,0,4.7513e-05,474.8,1.641e-05,8.7979,1.5245e-05,0.045314,-4.7356e-05,-470.32,1.8872
20058,21.269,0.45455,0,4.8777e-05,487.43,1.6866e-05,9.2035,1.5634e-05,-0.054025,-4.8615e-05,-482.79,1.8875
20059,21.36,0.36364,0,4.7548e-05,475.15,1.6596e-05,10.852,1.5148e-05,-0.030904,-4.7355e-05,-469.65,1.9004
20060,21.269,0.36364,0.05,2.5833e-07,2.5815,1.9837e-07,1.4905,-4.4095e-13,9.4774e-07,-1.9837e-07,-1.4904,1.8874
20061,21.269,0.63636,0,4.9436e-05,494.02,1.6672e-05,4.1594,1.6089e-05,-0.22319,-4.9367e-05,-492.03,1.8876
20062,21.36,0.54545,0,4.8043e-05,480.1,1.6455e-05,7.1675,1.5492e-05,-0.064612,-4.7918e-05,-476.5,1.9005
20063,21.269,0.54545,0.05,3.4206e-07,3.4183,2.6266e-07,1.9735,-1.6572e-13,2.7021e-06,-2.6266e-07,-1.9735,1.8875
20064,21.269,0.81818,0,5.0259e-05,502.24,1.682e-05,0.39859,1.6225e-05,-4.0743,-5.032e-05,-504.06,1.8877
20065,21.36,0.72727,0,4.8685e-05,486.52,1.6232e-05,1.6337,1.5935e-05,-0.60264,-4.8667e-05,-486,1.9007
20066,21.269,0.72727,0.05,4.2383e-07,4.2354,3.2545e-07,2.4453,-5.9354e-13,5.1981e-07,-3.2545e-07,-2.4453,1.8876
20067,21.269,1,0,5.1235e-05,512,1.7591e-05,0.18133,1.576e-05,-13.574,-5.1449e-05,-518.56,1.8878
20068,21.36,0.90909,0,4.9464e-05,494.3,1.6707e-05,0.22556,1.5692e-05,-7.3953,-4.9581e-05,-497.84,1.9008
20069,21.269,0.90909,0.05,5.1346e-07,5.1311,3.9427e-07,2.9624,-6.6579e-13,-4.2093e-06,-3.9427e-07,-2.9624,1.8877
20070,21.269,1.1818,0,5.2354e-05,523.18,1.8509e-05,0.13549,1.517e-05,-24.954,-5.2731e-05,-535.14,1.8879
20071,21.36,1.0909,0,5.037e-05,503.35,1.7484e-05,0.14272,1.516e-05,-17.322,-5.0639e-05,-511.71,1.9008
20072,21.269,1.0909,0.05,6.082e-07,6.0778,4.6702e-07,3.509,-1.0279e-12,-5.6774e-06,-4.6702e-07,-3.509,1.8878
20073,21.269,1.3636,0,5.3599e-05,535.62,1.9525e-05,0.11528,1.4511e-05,-37.553,-5.4136e-05,-553.34,1.888
20074,21.36,1.2727,0,5.1391e-05,513.56,1.837e-05,0.1166,1.4536e-05,-28.687,-5.1816e-05,-527.24,1.9009
20075,21.269,1.2727,0.05,7.0533e-07,7.0485,5.4161e-07,4.0695,-1.3378e-12,-6.2304e-06,-5.4161e-07,-4.0694,1.8879
20076,21.269,1.5455,0,5.4946e-05,549.09,2.0595e-05,0.1038,1.3831e-05,-50.72,-5.5631e-05,-572.63,1.888
20077,21.36,1.4545,0,5.2511e-05,524.75,1.9324e-05,0.10347,1.3865e-05,-40.912,-5.3085e-05,-543.95,1.901
20078,21.269,1.4545,0.05,8.024e-07,8.0185,6.1615e-07,4.6295,-1.3642e-12,-7.5281e-06,-6.1614e-07,-4.6295,1.888
20079,21.269,1.7273,0,5.6368e-05,563.29,2.1676e-05,0.097217,1.3182e-05,-63.729,-5.7178e-05,-592.38,1.8881
20080,21.36,1.6364,0,5.3708e-05,536.71,2.0309e-05,0.09583,1.3195e-05,-53.356,-5.4414e-05,-561.34,1.9011
20081,21.269,1.6364,0.05,8.9711e-07,8.9649,6.8887e-07,5.1759,-1.3154e-12,-7.1822e-06,-6.8887e-07,-5.1759,1.888
20082,21.269,1.9091,0,5.782e-05,577.8,2.2722e-05,0.094742,1.2613e-05,-75.858,-5.8733e-05,-611.93,1.8881
20083,21.36,1.8182,0,5.4952e-05,549.14,2.1282e-05,0.09189,1.2573e-05,-65.343,-5.5768e-05,-578.83,1.9011
20084,21.269,1.8182,0.05,9.8749e-07,9.868,7.5827e-07,5.6973,-1.2708e-12,-5.7817e-06,-7.5827e-07,-5.6973,1.8881
20085,21.269,2.0909,0,5.9248e-05,592.07,2.3687e-05,0.09629,1.2163e-05,-86.49,-6.0241e-05,-630.5,1.8882
20086,21.36,2,0,5.6201e-05,561.62,2.2202e-05,0.09137,1.2042e-05,-76.243,-5.7105e-05,-595.79,1.9012
20087,21.269,2,0.05,1.0718e-06,10.71,8.2299e-07,6.1836,-1.3075e-12,-4.9024e-06,-8.2298e-07,-6.1836,1.8882
20088,21.269,2.2727,0,6.0581e-05,605.39,2.4529e-05,0.1014,1.1844e-05,-95.209,-6.1633e-05,-647.29,1.8882
20089,21.36,2.1818,0,5.74e-05,573.61,2.3029e-05,0.094109,1.1629e-05,-85.561,-5.8372e-05,-611.52,1.9012
20090,21.269,2.1818,0.05,1.1481e-06,11.473,8.8162e-07,6.6242,-1.1525e-12,-2.4548e-06,-8.8162e-07,-6.6241,1.8882
20091,21.269,2.4545,0,6.1736e-05,616.94,2.5217e-05,0.10874,1.1648e-05,-101.84,-6.2831e-05,-661.45,1.8882
20092,21.36,2.3636,0,5.8484e-05,584.43,2.373e-05,0.099382,1.1339e-05,-92.999,-5.9505e-05,-625.29,1.9012
20093,21.269,2.3636,0.05,1.2143e-06,12.135,9.3243e-07,7.0059,-1.0527e-12,-7.3785e-07,-9.3243e-07,-7.0059,1.8882
20094,21.269,2.6364,0,6.2634e-05,625.9,2.5724e-05,0.11629,1.1547e-05,-106.4,-6.3758e-05,-672.21,1.8883
20095,21.36,2.5455,0,5.938e-05,593.39,2.4278e-05,0.10576,1.1159e-05,-98.463,-6.0435e-05,-636.39,1.9012
20096,21.269,2.5455,0.05,1.2675e-06,12.667,9.7331e-07,7.313,-8.7987e-13,-5.8829e-07,-9.733e-07,-7.313,1.8882
20097,21.269,2.8182,0,6.3204e-05,631.6,2.6034e-05,0.12192,1.1504e-05,-109.05,-6.4344e-05,-678.95,1.8883
20098,21.36,2.7273,0,6.0021e-05,599.8,2.4652e-05,0.11144,1.1062e-05,-102,-6.1098e-05,-644.19,1.9013
20099,21.269,2.7273,0.05,1.305e-06,13.041,1.0021e-06,7.5292,-1.0293e-12,-2.5884e-07,-1.0021e-06,-7.5292,1.8883
20100,21.269,3,0,6.3399e-05,633.55,2.6138e-05,0.124,1.1494e-05,-109.91,-6.4545e-05,-681.24,1.8883
20101,21.36,2.9091,0,6.0356e-05,603.14,2.4843e-05,0.11476,1.1021e-05,-103.73,-6.1444e-05,-648.21,1.9013
20102,21.269,2.9091,0.05,1.3244e-06,13.235,1.017e-06,7.641,-7.1607e-13,1.8528e-06,-1.017e-06,-7.641,1.8883
20103,21.269,3.1818,0,6.3204e-05,631.6,2.6034e-05,0.12192,1.1504e-05,-109.05,-6.4344e-05,-678.95,1.8883
20104,21.36,3.0909,0,6.0356e-05,603.14,2.4843e-05,0.11476,1.1021e-05,-103.73,-6.1444e-05,-648.21,1.9013
20105,21.269,3.0909,0.05,1.3244e-06,13.235,1.017e-06,7.641,-8.8402e-13,-2.8505e-09,-1.017e-06,-7.641,1.8883
20106,21.269,3.3636,0,6.2634e-05,625.9,2.5724e-05,0.11629,1.1547e-05,-106.4,-6.3758e-05,-672.21,1.8883
20107,21.36,3.2727,0,6.0021e-05,599.8,2.4652e-05,0.11144,1.1062e-05,-102,-6.1098e-05,-644.19,1.9013
20108,21.269,3.2727,0.05,1.305e-06,13.041,1.0021e-06,7.5292,-8.6457e-13,6.0498e-07,-1.0021e-06,-7.5292,1.8883
20109,21.269,3.5455,0,6.1736e-05,616.93,2.5217e-05,0.10874,1.1648e-05,-101.84,-6.2831e-05,-661.45,1.8882
20110,21.36,3.4545,0,5.938e-05,593.39,2.4278e-05,0.10576,1.1159e-05,-98.463,-6.0435e-05,-636.39,1.9012
20111,21.269,3.4545,0.05,1.2675e-06,12.667,9.7331e-07,7.3131,-1.0216e-12,2.8832e-06,-9.733e-07,-7.313,1.8882
20112,21.269,3.7273,0,6.0581e-05,605.39,2.4529e-05,0.1014,1.1844e-05,-95.209,-6.1633e-05,-647.29,1.8882
20113,21.36,3.6364,0,5.8484e-05,584.43,2.373e-05,0.099382,1.1339e-05,-92.999,-5.9505e-05,-625.29,1.9012
20114,21.269,3.6364,0.05,1.2143e-06,12.135,9.3243e-07,7.0059,-8.4931e-13,3.9536e-06,-9.3243e-07,-7.0059,1.8882
20115,21.269,3.9091,0,5.9248e-05,592.07,2.3687e-05,0.096291,1.2163e-05,-86.49,-6.0241e-05,-630.5,1.8882
20116,21.36,3.8182,0,5.74e-05,573.61,2.3029e-05,0.094109,1.1629e-05,-85.561,-5.8372e-05,-611.52,1.9012
20117,21.269,3.8182,0.05,1.1481e-06,11.473,8.8162e-07,6.6242,-6.5433e-13,5.4919e-06,-8.8162e-07,-6.6241,1.8882
20118,21.269,4.0909,0,5.782e-05,577.8,2.2722e-05,0.094743,1.2613e-05,-75.858,-5.8733e-05,-611.93,1.8881
20119,21.36,4,0,5.6201e-05,561.62,2.2202e-05,0.09137,1.2042e-05,-76.243,-5.7105e-05,-595.79,1.9012
20120,21.269,4,0.05,1.0718e-06,10.71,8.2299e-07,6.1836,-5.6808e-13,5.632e-06,-8.2298e-07,-6.1836,1.8882
20121,21.269,4.2727,0,5.6368e-05,563.29,2.1676e-05,0.097218,1.3182e-05,-63.729,-5.7178e-05,-592.38,1.8881
20122,21.36,4.1818,0,5.4952e-05,549.14,2.1282e-05,0.091889,1.2573e-05,-65.343,-5.5768e-05,-578.83,1.9011
20123,21.269,4.1818,0.05,9.8748e-07,9.868,7.5827e-07,5.6973,-5.5916e-13,5.6026e-06,-7.5826e-07,-5.6973,1.8881
20124,21.269,4.4545,0,5.4946e-05,549.09,2.0595e-05,0.1038,1.3831e-05,-50.719,-5.5631e-05,-572.63,1.888
20125,21.36,4.3636,0,5.3708e-05,536.71,2.0309e-05,0.095831,1.3195e-05,-53.356,-5.4414e-05,-561.34,1.9011
20126,21.269,4.3636,0.05,8.9711e-07,8.9649,6.8887e-07,5.1759,-3.2268e-13,1.1887e-05,-6.8887e-07,-5.1759,1.888
20127,21.269,4.6364,0,5.3599e-05,535.62,1.9525e-05,0.11527,1.4511e-05,-37.553,-5.4136e-05,-553.34,1.888
20128,21.36,4.5455,0,5.2511e-05,524.75,1.9324e-05,0.10347,1.3865e-05,-40.912,-5.3085e-05,-543.95,1.901
20129,21.269,4.5455,0.05,8.024e-07,8.0185,6.1615e-07,4.6295,-1.5397e-13,6.9052e-06,-6.1614e-07,-4.6295,1.888
20130,21.269,4.8182,0,5.2354e-05,523.18,1.8509e-05,0.13549,1.517e-05,-24.954,-5.2731e-05,-535.14,1.8879
20131,21.36,4.7273,0,5.1391e-05,513.56,1.837e-05,0.11659,1.4536e-05,-28.687,-5.1816e-05,-527.24,1.9009
20132,21.269,4.7273,0.05,7.0533e-07,7.0485,5.4161e-07,4.0695,-2.7256e-13,7.118e-06,-5.4161e-07,-4.0694,1.8879
20133,21.269,5,0,5.1235e-05,512,1.7591e-05,0.18133,1.576e-05,-13.574,-5.1449e-05,-518.56,1.8878
20134,21.36,4.9091,0,5.037e-05,503.35,1.7484e-05,0.14272,1.516e-05,-17.322,-5.0639e-05,-511.71,1.9008
20135,21.269,4.9091,0.05,6.082e-07,6.0778,4.6702e-07,3.509,-1.0905e-13,8.574e-06,-4.6702e-07,-3.509,1.8878
20136,21.269,5.1818,0,5.0259e-05,502.24,1.682e-05,0.39859,1.6225e-05,-4.0743,-5.032e-05,-504.06,1.8877
20137,21.36,5.0909,0,4.9464e-05,494.3,1.6707e-05,0.22556,1.5692e-05,-7.3953,-4.9581e-05,-497.84,1.9008
20138,21.269,5.0909,0.05,5.1346e-07,5.1311,3.9427e-07,2.9624,-2.6807e-13,2.9969e-06,-3.9427e-07,-2.9624,1.8877
20139,21.269,5.3636,0,4.9436e-05,494.02,1.6672e-05,4.1595,1.6089e-05,-0.22319,-4.9367e-05,-492.03,1.8876
20140,21.36,5.2727,0,4.8685e-05,486.52,1.6232e-05,1.6338,1.5935e-05,-0.60263,-4.8667e-05,-486,1.9007
20141,21.269,5.2727,0.05,4.2383e-07,4.2354,3.2545e-07,2.4453,-4.4781e-13,5.9118e-06,-3.2545e-07,-2.4453,1.8876
20142,21.269,5.5455,0,4.8777e-05,487.43,1.6866e-05,9.2035,1.5634e-05,-0.054024,-4.8615e-05,-482.79,1.8875
20143,21.36,5.4545,0,4.8043e-05,480.1,1.6455e-05,7.1675,1.5492e-05,-0.064611,-4.7918e-05,-476.5,1.9005
20144,21.269,5.4545,0.05,3.4206e-07,3.4183,2.6266e-07,1.9735,4.211e-13,4.5068e-06,-2.6266e-07,-1.9735,1.8875
20145,21.269,5.7273,0,4.8365e-05,483.31,1.6986e-05,12.31,1.5345e-05,-0.024108,-4.8144e-05,-477.05,1.8874
20146,21.36,5.6364,0,4.7548e-05,475.15,1.6596e-05,10.852,1.5148e-05,-0.030902,-4.7355e-05,-469.65,1.9004
20147,21.269,5.6364,0.05,2.5833e-07,2.5815,1.9837e-07,1.4905,3.1576e-13,5.1812e-06,-1.9837e-07,-1.4905,1.8874
20148,21.36,5.8182,0,4.7364e-05,473.32,1.6724e-05,13.14,1.4974e-05,-0.0054124,-4.7127e-05,-466.61,1.9003
20149,21.269,5.8182,0.05,8.8237e-08,0.88176,6.7754e-08,0.50908,2.1151e-13,4.2922e-06,-6.7755e-08,-0.50909,1.8873
20150,21.269,5.9091,0,4.7513e-05,474.8,1.641e-05,8.7979,1.5245e-05,0.045313,-4.7356e-05,-470.32,1.8872
20151,21.451,0.27273,0,4.6535e-05,465.03,1.6323e-05,11.601,1.4777e-05,-0.014198,-4.6327e-05,-459.13,1.9134
20152,21.542,0.18182,0,4.5377e-05,453.46,1.6017e-05,12.522,1.435e-05,-0.0029399,-4.5151e-05,-447.07,1.9263
20153,21.451,0.18182,0.05,1.4646e-08,0.14636,1.1247e-08,0.084508,-1.543e-13,3.8036e-06,-1.1246e-08,-0.084496,1.9133
20154,21.451,0.090909,0,4.5817e-05,457.86,1.582e-05,8.4272,1.4704e-05,0.041777,-4.5668e-05,-453.57,1.9132
20155,21.451,0.45455,0,4.6811e-05,467.79,1.6181e-05,8.785,1.5008e-05,-0.025209,-4.6656e-05,-463.35,1.9135
20156,21.542,0.36364,0,4.5459e-05,454.28,1.5867e-05,10.381,1.4483e-05,-0.016199,-4.5274e-05,-449.01,1.9265
20157,21.451,0.36364,0.05,3.3702e-07,3.3679,2.5879e-07,1.9444,2.0748e-13,7.2681e-06,-2.5879e-07,-1.9444,1.9134
20158,21.451,0.63636,0,4.729e-05,472.58,1.5971e-05,4.3087,1.5383e-05,-0.11232,-4.7217e-05,-470.46,1.9136
20159,21.542,0.54545,0,4.5815e-05,457.84,1.5719e-05,7.1856,1.476e-05,-0.024055,-4.5689e-05,-454.21,1.9266
20160,21.451,0.54545,0.05,4.0366e-07,4.0338,3.0996e-07,2.3289,7.378e-13,1.1686e-05,-3.0996e-07,-2.3289,1.9135
20161,21.451,0.81818,0,4.789e-05,478.57,1.5972e-05,0.35548,1.5551e-05,-2.8069,-4.7931e-05,-479.78,1.9137
20162,21.542,0.72727,0,4.6283e-05,462.52,1.5468e-05,2.1849,1.5145e-05,-0.24535,-4.625e-05,-461.54,1.9267
20163,21.451,0.72727,0.05,4.6777e-07,4.6745,3.5919e-07,2.6988,2.1622e-13,7.8246e-06,-3.5919e-07,-2.6988,1.9137
20164,21.451,1,0,4.8599e-05,485.65,1.6596e-05,0.14976,1.5101e-05,-11.082,-4.8775e-05,-491.02,1.9138
20165,21.542,0.90909,0,4.6849e-05,468.17,1.574e-05,0.19865,1.5005e-05,-5.3263,-4.6934e-05,-470.71,1.9268
20166,21.451,0.90909,0.05,5.4055e-07,5.4018,4.1508e-07,3.1188,-2.3098e-14,4.7963e-06,-4.1508e-07,-3.1187,1.9137
20167,21.451,1.1818,0,4.9408e-05,493.74,1.7344e-05,0.11514,1.4532e-05,-21.011,-4.9729e-05,-503.85,1.9139
20168,21.542,1.0909,0,4.7504e-05,474.72,1.637e-05,0.12287,1.4505e-05,-13.889,-4.7723e-05,-481.44,1.9269
20169,21.451,1.0909,0.05,6.1901e-07,6.1858,4.7532e-07,3.5714,-6.0611e-13,1.7955e-06,-4.7532e-07,-3.5714,1.9138
20170,21.451,1.3636,0,5.0306e-05,502.71,1.8169e-05,0.10092,1.3897e-05,-31.997,-5.0771e-05,-517.89,1.914
20171,21.542,1.2727,0,4.824e-05,482.06,1.7088e-05,0.1027,1.3918e-05,-23.712,-4.8597e-05,-493.43,1.9269
20172,21.451,1.2727,0.05,7.0006e-07,6.9958,5.3756e-07,4.039,-9.8152e-13,-9.5129e-07,-5.3756e-07,-4.039,1.9139
20173,21.451,1.5455,0,5.1276e-05,512.4,1.9037e-05,0.09314,1.3236e-05,-43.494,-5.1875e-05,-532.71,1.914
20174,21.542,1.4545,0,4.9043e-05,490.09,1.7861e-05,0.093238,1.3284e-05,-34.296,-4.9534e-05,-506.28,1.927
20175,21.451,1.4545,0.05,7.8115e-07,7.8061,5.9983e-07,4.5069,-9.277e-13,-1.3604e-06,-5.9982e-07,-4.5068,1.914
20176,21.451,1.7273,0,5.2296e-05,522.6,1.9914e-05,0.088789,1.2593e-05,-54.916,-5.3011e-05,-547.84,1.9141
20177,21.542,1.6364,0,4.9898e-05,498.64,1.8658e-05,0.08791,1.2641e-05,-45.116,-5.051e-05,-519.61,1.9271
20178,21.451,1.6364,0.05,8.601e-07,8.5951,6.6045e-07,4.9624,-9.9265e-13,-9.7204e-07,-6.6045e-07,-4.9624,1.914
20179,21.451,1.9091,0,5.3336e-05,533,2.0761e-05,0.087168,1.2008e-05,-65.68,-5.4147e-05,-562.74,1.9141
20180,21.542,1.8182,0,5.0784e-05,507.49,1.9445e-05,0.08517,1.2031e-05,-55.625,-5.1498e-05,-532.96,1.9271
20181,21.451,1.8182,0.05,9.3511e-07,9.3446,7.1805e-07,5.3951,-9.6989e-13,-3.2292e-06,-7.1805e-07,-5.3951,1.9141
20182,21.451,2.0909,0,5.4356e-05,543.19,2.1544e-05,0.0881,1.1513e-05,-75.277,-5.5242e-05,-576.85,1.9142
20183,21.542,2,0,5.167e-05,516.34,2.019e-05,0.084683,1.1487e-05,-65.306,-5.2468e-05,-545.84,1.9272
20184,21.451,2,0.05,1.0046e-06,10.039,7.7139e-07,5.7959,-8.3142e-13,-6.0414e-07,-7.7139e-07,-5.7959,1.9141
20185,21.451,2.2727,0,5.5305e-05,552.67,2.2229e-05,0.091221,1.1127e-05,-83.331,-5.6247e-05,-589.55,1.9142
20186,21.542,2.1818,0,5.2519e-05,524.82,2.0862e-05,0.086248,1.1037e-05,-73.737,-5.338e-05,-557.74,1.9272
20187,21.451,2.1818,0.05,1.0669e-06,10.662,8.1927e-07,6.1557,-8.2785e-13,3.2138e-07,-8.1926e-07,-6.1556,1.9142
20188,21.451,2.4545,0,5.6127e-05,560.88,2.2791e-05,0.095714,1.0849e-05,-89.627,-5.7108e-05,-600.23,1.9142
20189,21.542,2.3636,0,5.3283e-05,532.46,2.1432e-05,0.089383,1.069e-05,-80.623,-5.4192e-05,-568.12,1.9272
20190,21.451,2.3636,0.05,1.1204e-06,11.196,8.6032e-07,6.4641,-7.2452e-13,4.8039e-07,-8.6032e-07,-6.4641,1.9142
20191,21.451,2.6364,0,5.6764e-05,567.24,2.3206e-05,0.10035,1.0671e-05,-94.088,-5.7772e-05,-608.34,1.9142
20192,21.542,2.5455,0,5.3914e-05,538.77,2.188e-05,0.093219,1.0446e-05,-85.81,-5.4856e-05,-576.47,1.9272
20193,21.451,2.5455,0.05,1.163e-06,11.622,8.9305e-07,6.71,-8.6561e-13,1.9101e-07,-8.9305e-07,-6.71,1.9142
20194,21.451,2.8182,0,5.7168e-05,571.28,2.3461e-05,0.10382,1.0573e-05,-96.734,-5.8192e-05,-613.41,1.9143
20195,21.542,2.7273,0,5.4365e-05,543.28,2.2187e-05,0.096651,1.0295e-05,-89.252,-5.5327e-05,-582.31,1.9273
20196,21.451,2.7273,0.05,1.1928e-06,11.92,9.1592e-07,6.8819,-7.6871e-13,-1.1396e-07,-9.1592e-07,-6.8819,1.9142
20197,21.451,3,0,5.7306e-05,572.67,2.3547e-05,0.1051,1.0542e-05,-97.609,-5.8336e-05,-615.13,1.9143
20198,21.542,2.9091,0,5.46e-05,545.63,2.2343e-05,0.098669,1.0224e-05,-90.962,-5.5573e-05,-585.33,1.9273
20199,21.451,2.9091,0.05,1.2081e-06,12.073,9.2771e-07,6.9704,-6.68e-13,2.2145e-06,-9.2771e-07,-6.9704,1.9142
20200,21.451,3.1818,0,5.7168e-05,571.28,2.3461e-05,0.10382,1.0573e-05,-96.734,-5.8192e-05,-613.41,1.9143
20201,21.542,3.0909,0,5.46e-05,545.63,2.2343e-05,0.098669,1.0224e-05,-90.962,-5.5573e-05,-585.33,1.9273
20202,21.451,3.0909,0.05,1.2081e-06,12.073,9.2771e-07,6.9704,-1.0451e-12,1.5401e-06,-9.2771e-07,-6.9704,1.9142
20203,21.451,3.3636,0,5.6764e-05,567.24,2.3206e-05,0.10035,1.0671e-05,-94.088,-5.7772e-05,-608.34,1.9142
20204,21.542,3.2727,0,5.4365e-05,543.28,2.2187e-05,0.096651,1.0295e-05,-89.252,-5.5327e-05,-582.31,1.9273
20205,21.451,3.2727,0.05,1.1928e-06,11.92,9.1592e-07,6.8819,-7.8548e-13,2.4959e-06,-9.1592e-07,-6.8819,1.9142
20206,21.451,3.5455,0,5.6126e-05,560.88,2.2791e-05,0.095713,1.0849e-05,-89.627,-5.7108e-05,-600.23,1.9142
20207,21.542,3.4545,0,5.3914e-05,538.77,2.188e-05,0.093218,1.0446e-05,-85.81,-5.4856e-05,-576.47,1.9272
20208,21.451,3.4545,0.05,1.163e-06,11.622,8.9305e-07,6.71,-9.2575e-13,2.7111e-06,-8.9305e-07,-6.71,1.9142
20209,21.451,3.7273,0,5.5305e-05,552.67,2.2229e-05,0.091221,1.1127e-05,-83.331,-5.6247e-05,-589.55,1.9142
20210,21.542,3.6364,0,5.3283e-05,532.46,2.1432e-05,0.089383,1.069e-05,-80.623,-5.4192e-05,-568.12,1.9272
20211,21.451,3.6364,0.05,1.1204e-06,11.196,8.6032e-07,6.4642,-8.1718e-13,4.991e-06,-8.6032e-07,-6.4641,1.9142
20212,21.451,3.9091,0,5.4356e-05,543.19,2.1544e-05,0.088099,1.1513e-05,-75.277,-5.5242e-05,-576.85,1.9142
20213,21.542,3.8182,0,5.2519e-05,524.82,2.0862e-05,0.086247,1.1037e-05,-73.737,-5.338e-05,-557.74,1.9272
20214,21.451,3.8182,0.05,1.0669e-06,10.662,8.1927e-07,6.1557,-9.4894e-13,6.2828e-06,-8.1926e-07,-6.1556,1.9142
20215,21.451,4.0909,0,5.3336e-05,533,2.0761e-05,0.087167,1.2008e-05,-65.68,-5.4147e-05,-562.74,1.9141
20216,21.542,4,0,5.167e-05,516.34,2.019e-05,0.084681,1.1487e-05,-65.306,-5.2468e-05,-545.84,1.9272
20217,21.451,4,0.05,1.0046e-06,10.039,7.7139e-07,5.7959,-6.8697e-13,5.6181e-06,-7.7139e-07,-5.7959,1.9141
20218,21.451,4.2727,0,5.2296e-05,522.6,1.9914e-05,0.088789,1.2593e-05,-54.916,-5.3011e-05,-547.84,1.9141
20219,21.542,4.1818,0,5.0784e-05,507.49,1.9445e-05,0.085169,1.2031e-05,-55.625,-5.1498e-05,-532.96,1.9271
20220,21.451,4.1818,0.05,9.3511e-07,9.3446,7.1805e-07,5.3952,-7.8178e-13,5.2921e-06,-7.1805e-07,-5.3951,1.9141
20221,21.451,4.4545,0,5.1276e-05,512.4,1.9037e-05,0.093139,1.3236e-05,-43.494,-5.1875e-05,-532.71,1.914
20222,21.542,4.3636,0,4.9898e-05,498.64,1.8658e-05,0.08791,1.2641e-05,-45.116,-5.051e-05,-519.61,1.9271
20223,21.451,4.3636,0.05,8.601e-07,8.5951,6.6045e-07,4.9624,-4.5692e-13,4.8604e-06,-6.6045e-07,-4.9624,1.914
20224,21.451,4.6364,0,5.0306e-05,502.71,1.8169e-05,0.10092,1.3897e-05,-31.997,-5.0771e-05,-517.89,1.914
20225,21.542,4.5455,0,4.9043e-05,490.09,1.7861e-05,0.093236,1.3284e-05,-34.296,-4.9534e-05,-506.28,1.927
20226,21.451,4.5455,0.05,7.8115e-07,7.8061,5.9983e-07,4.5069,-5.7522e-13,3.9518e-06,-5.9982e-07,-4.5068,1.914
20227,21.451,4.8182,0,4.9408e-05,493.74,1.7344e-05,0.11514,1.4532e-05,-21.011,-4.9729e-05,-503.85,1.9139
20228,21.542,4.7273,0,4.824e-05,482.06,1.7088e-05,0.1027,1.3918e-05,-23.712,-4.8597e-05,-493.43,1.9269
20229,21.451,4.7273,0.05,7.0006e-07,6.9958,5.3756e-07,4.039,-2.4607e-13,4.178e-06,-5.3756e-07,-4.039,1.9139
20230,21.451,5,0,4.8599e-05,485.65,1.6596e-05,0.14976,1.5101e-05,-11.082,-4.8775e-05,-491.02,1.9138
20231,21.542,4.9091,0,4.7504e-05,474.72,1.637e-05,0.12287,1.4505e-05,-13.889,-4.7723e-05,-481.44,1.9269
20232,21.451,4.9091,0.05,6.1901e-07,6.1858,4.7532e-07,3.5714,-5.5362e-13,4.1254e-06,-4.7532e-07,-3.5714,1.9138
20233,21.451,5.1818,0,4.789e-05,478.57,1.5972e-05,0.35548,1.5551e-05,-2.8069,-4.7931e-05,-479.78,1.9137
20234,21.542,5.0909,0,4.6849e-05,468.17,1.574e-05,0.19865,1.5005e-05,-5.3262,-4.6934e-05,-470.71,1.9268
20235,21.451,5.0909,0.05,5.4056e-07,5.4018,4.1508e-07,3.1188,-4.3714e-13,2.9843e-06,-4.1508e-07,-3.1187,1.9137
20236,21.451,5.3636,0,4.729e-05,472.58,1.5971e-05,4.3087,1.5383e-05,-0.11232,-4.7217e-05,-470.46,1.9136
20237,21.542,5.2727,0,4.6283e-05,462.52,1.5468e-05,2.1849,1.5145e-05,-0.24535,-4.625e-05,-461.54,1.9267
20238,21.451,5.2727,0.05,4.6777e-07,4.6745,3.5919e-07,2.6988,-7.2042e-14,3.3205e-06,-3.5919e-07,-2.6988,1.9137
20239,21.451,5.5455,0,4.6811e-05,467.79,1.6181e-05,8.785,1.5008e-05,-0.025207,-4.6656e-05,-463.35,1.9135
20240,21.542,5.4545,0,4.5815e-05,457.84,1.5719e-05,7.1857,1.476e-05,-0.024053,-4.5689e-05,-454.21,1.9266
20241,21.451,5.4545,0.05,4.0366e-07,4.0338,3.0996e-07,2.3289,-9.7239e-14,4.5199e-06,-3.0996e-07,-2.3289,1.9135
20242,21.451,5.7273,0,4.6535e-05,465.03,1.6323e-05,11.601,1.4777e-05,-0.014197,-4.6327e-05,-459.13,1.9134
20243,21.542,5.6364,0,4.5459e-05,454.28,1.5867e-05,10.381,1.4483e-05,-0.016198,-4.5274e-05,-449.01,1.9265
20244,21.451,5.6364,0.05,3.3702e-07,3.3679,2.5879e-07,1.9444,3.0435e-13,5.7781e-06,-2.5879e-07,-1.9444,1.9134
20245,21.542,5.8182,0,4.5377e-05,453.46,1.6017e-05,12.522,1.435e-05,-0.00294,-4.5151e-05,-447.07,1.9263
20246,21.451,5.8182,0.05,1.4646e-08,0.14636,1.1246e-08,0.084504,4.0327e-13,5.2718e-06,-1.1247e-08,-0.084499,1.9133
20247,21.451,5.9091,0,4.5817e-05,457.86,1.582e-05,8.4272,1.4704e-05,0.041777,-4.5668e-05,-453.57,1.9132
20248,21.633,0.27273,0,4.4285e-05,442.55,1.5547e-05,11.199,1.4055e-05,-0.008145,-4.4084e-05,-436.85,1.9394
20249,21.724,0.18182,0,4.3002e-05,429.72,1.5204e-05,12.176,1.3583e-05,-0.0020028,-4.2782e-05,-423.51,1.9524
20250,21.633,0.18182,0.05,9.6935e-08,0.96868,7.4434e-08,0.55927,-3.47e-14,2.932e-06,-7.4433e-08,-0.55926,1.9394
20251,21.633,0.090909,0,4.367e-05,436.4,1.5094e-05,8.2149,1.4006e-05,0.037985,-4.3524e-05,-432.22,1.9393
20252,21.633,0.45455,0,4.4458e-05,444.27,1.54e-05,8.7399,1.4236e-05,-0.0060799,-4.4303e-05,-439.84,1.9395
20253,21.724,0.36364,0,4.3006e-05,429.76,1.5046e-05,10.253,1.368e-05,-0.0072197,-4.2822e-05,-424.55,1.9525
20254,21.633,0.36364,0.05,4.0431e-07,4.0403,3.1046e-07,2.3327,5.6217e-13,6.1063e-06,-3.1046e-07,-2.3327,1.9395
20255,21.633,0.63636,0,4.4804e-05,447.73,1.5198e-05,4.9223,1.4538e-05,-0.038923,-4.4719e-05,-445.27,1.9397
20256,21.724,0.54545,0,4.3261e-05,432.31,1.4911e-05,7.6206,1.3897e-05,0.0018578,-4.3126e-05,-428.45,1.9526
20257,21.633,0.54545,0.05,4.5894e-07,4.5862,3.5241e-07,2.6479,4.0703e-13,5.7604e-06,-3.5241e-07,-2.6479,1.9396
20258,21.633,0.81818,0,4.5239e-05,452.08,1.5028e-05,0.46571,1.4804e-05,-1.2135,-4.5252e-05,-452.45,1.9398
20259,21.724,0.72727,0,4.3603e-05,435.73,1.4673e-05,3.3674,1.4216e-05,-0.067745,-4.3546e-05,-434.07,1.9527
20260,21.633,0.72727,0.05,5.0918e-07,5.0883,3.9099e-07,2.9377,3.6387e-13,3.9892e-06,-3.9099e-07,-2.9377,1.9397
20261,21.633,1,0,4.5752e-05,457.21,1.5509e-05,0.13379,1.4413e-05,-8.0967,-4.5882e-05,-461.13,1.9398
20262,21.724,0.90909,0,4.4015e-05,439.85,1.4683e-05,0.21897,1.4278e-05,-2.8253,-4.4058e-05,-441.14,1.9528
20263,21.633,0.90909,0.05,5.6752e-07,5.6712,4.3578e-07,3.2743,6.4955e-14,3.5794e-06,-4.3578e-07,-3.2743,1.9398
20264,21.633,1.1818,0,4.6334e-05,463.02,1.6112e-05,0.10283,1.3893e-05,-16.574,-4.6592e-05,-471.03,1.9399
20265,21.724,1.0909,0,4.4488e-05,444.57,1.5183e-05,0.1136,1.3838e-05,-9.9923,-4.4648e-05,-449.43,1.9529
20266,21.633,1.0909,0.05,6.3152e-07,6.3109,4.8493e-07,3.6436,-3.8072e-13,1.5447e-06,-4.8493e-07,-3.6436,1.9399
20267,21.633,1.3636,0,4.6976e-05,469.43,1.6779e-05,0.0918,1.3308e-05,-25.991,-4.7362e-05,-481.84,1.94
20268,21.724,1.2727,0,4.5014e-05,449.83,1.576e-05,0.094806,1.3311e-05,-18.309,-4.5296e-05,-458.66,1.953
20269,21.633,1.2727,0.05,6.9834e-07,6.9786,5.3624e-07,4.0291,-6.0694e-13,-1.7637e-06,-5.3624e-07,-4.0291,1.9399
20270,21.633,1.5455,0,4.7665e-05,476.32,1.7481e-05,0.086116,1.2692e-05,-35.894,-4.8172e-05,-493.2,1.9401
20271,21.724,1.4545,0,4.5584e-05,455.52,1.6383e-05,0.08707,1.2735e-05,-27.325,-4.5985e-05,-468.52,1.953
20272,21.633,1.4545,0.05,7.6551e-07,7.6498,5.8781e-07,4.4166,-5.9509e-13,-1.6829e-06,-5.8781e-07,-4.4166,1.94
20273,21.633,1.7273,0,4.8386e-05,483.53,1.8189e-05,0.082964,1.2083e-05,-45.799,-4.9e-05,-504.75,1.9401
20274,21.724,1.6364,0,4.6186e-05,461.54,1.7025e-05,0.082914,1.2142e-05,-36.605,-4.6698e-05,-478.71,1.9531
20275,21.633,1.6364,0.05,8.3098e-07,8.3041,6.3809e-07,4.7944,-6.3962e-13,-1.7446e-06,-6.3809e-07,-4.7944,1.9401
20276,21.633,1.9091,0,4.9119e-05,490.85,1.8874e-05,0.081661,1.1513e-05,-55.226,-4.9823e-05,-516.08,1.9401
20277,21.724,1.8182,0,4.6805e-05,467.73,1.7661e-05,0.080697,1.1568e-05,-45.698,-4.7413e-05,-488.86,1.9532
20278,21.633,1.8182,0.05,8.9307e-07,8.9245,6.8577e-07,5.1526,-6.5147e-13,-2.8871e-06,-6.8576e-07,-5.1526,1.9401
20279,21.633,2.0909,0,4.9834e-05,498,1.9508e-05,0.082006,1.1013e-05,-63.747,-5.0609e-05,-526.75,1.9402
20280,21.724,2,0,4.7422e-05,473.9,1.8262e-05,0.080014,1.1042e-05,-54.173,-4.8109e-05,-498.61,1.9532
20281,21.633,2,0.05,9.5029e-07,9.4964,7.2971e-07,5.4827,-6.5801e-13,-2.7334e-06,-7.2971e-07,-5.4827,1.9402
20282,21.633,2.2727,0,5.0498e-05,504.63,2.0065e-05,0.083735,1.0601e-05,-71.018,-5.1327e-05,-536.33,1.9402
20283,21.724,2.1818,0,4.8011e-05,479.77,1.8806e-05,0.080671,1.0589e-05,-61.66,-4.8759e-05,-507.58,1.9532
20284,21.633,2.1818,0.05,1.0013e-06,10.006,7.6886e-07,5.7769,-5.4983e-13,-1.6437e-06,-7.6886e-07,-5.7769,1.9402
20285,21.633,2.4545,0,5.1071e-05,510.35,2.0521e-05,0.086332,1.0287e-05,-76.808,-5.1939e-05,-544.35,1.9402
20286,21.724,2.3636,0,4.8539e-05,485.05,1.9268e-05,0.082338,1.0224e-05,-67.876,-4.9333e-05,-515.36,1.9533
20287,21.633,2.3636,0.05,1.0446e-06,10.439,8.0215e-07,6.0271,-7.2166e-13,-3.7075e-08,-8.0215e-07,-6.027,1.9402
20288,21.633,2.6364,0,5.1514e-05,514.79,2.086e-05,0.089048,1.0069e-05,-80.986,-5.2409e-05,-550.42,1.9403
20289,21.724,2.5455,0,4.8973e-05,489.4,1.9632e-05,0.08448,9.9533e-06,-72.637,-4.9801e-05,-521.6,1.9533
20290,21.633,2.5455,0.05,1.0789e-06,10.782,8.2846e-07,6.2248,-5.1594e-13,1.1422e-07,-8.2846e-07,-6.2247,1.9402
20291,21.633,2.8182,0,5.1795e-05,517.6,2.1068e-05,0.091088,9.9429e-06,-83.5,-5.2705e-05,-554.21,1.9403
20292,21.724,2.7273,0,4.9284e-05,492.5,1.9882e-05,0.086434,9.7764e-06,-75.844,-5.0131e-05,-525.97,1.9533
20293,21.633,2.7273,0.05,1.1027e-06,11.019,8.4673e-07,6.362,-6.3148e-13,-6.7635e-08,-8.4673e-07,-6.362,1.9402
20294,21.633,3,0,5.1892e-05,518.56,2.1139e-05,0.091844,9.9015e-06,-84.338,-5.2807e-05,-555.5,1.9403
20295,21.724,2.9091,0,4.9446e-05,494.12,2.001e-05,0.087593,9.6895e-06,-77.453,-5.0303e-05,-528.21,1.9533
20296,21.633,2.9091,0.05,1.1149e-06,11.141,8.561e-07,6.4324,-8.4921e-13,6.5398e-07,-8.561e-07,-6.4324,1.9403
20297,21.633,3.1818,0,5.1795e-05,517.6,2.1068e-05,0.091088,9.9429e-06,-83.5,-5.2705e-05,-554.21,1.9403
20298,21.724,3.0909,0,4.9446e-05,494.12,2.001e-05,0.087593,9.6895e-06,-77.453,-5.0303e-05,-528.21,1.9533
20299,21.633,3.0909,0.05,1.1149e-06,11.141,8.561e-07,6.4324,-7.5016e-13,-7.0948e-07,-8.561e-07,-6.4324,1.9403
20300,21.633,3.3636,0,5.1514e-05,514.79,2.086e-05,0.089048,1.0069e-05,-80.986,-5.2409e-05,-550.42,1.9403
20301,21.724,3.2727,0,4.9284e-05,492.5,1.9882e-05,0.086435,9.7764e-06,-75.844,-5.0131e-05,-525.97,1.9533
20302,21.633,3.2727,0.05,1.1027e-06,11.019,8.4673e-07,6.362,-8.0708e-13,4.8628e-07,-8.4673e-07,-6.362,1.9402
20303,21.633,3.5455,0,5.1071e-05,510.35,2.0521e-05,0.086332,1.0287e-05,-76.808,-5.1939e-05,-544.35,1.9402
20304,21.724,3.4545,0,4.8973e-05,489.4,1.9632e-05,0.084481,9.9533e-06,-72.637,-4.9801e-05,-521.6,1.9533
20305,21.633,3.4545,0.05,1.0789e-06,10.782,8.2846e-07,6.2248,-9.0842e-13,-1.5475e-06,-8.2846e-07,-6.2247,1.9402
20306,21.633,3.7273,0,5.0498e-05,504.63,2.0065e-05,0.083735,1.0601e-05,-71.018,-5.1327e-05,-536.33,1.9402
20307,21.724,3.6364,0,4.8539e-05,485.05,1.9268e-05,0.082338,1.0224e-05,-67.876,-4.9333e-05,-515.36,1.9533
20308,21.633,3.6364,0.05,1.0446e-06,10.439,8.0215e-07,6.0271,-8.809e-13,4.0296e-07,-8.0215e-07,-6.027,1.9402
20309,21.633,3.9091,0,4.9834e-05,498,1.9508e-05,0.082005,1.1013e-05,-63.747,-5.0609e-05,-526.75,1.9402
20310,21.724,3.8182,0,4.8011e-05,479.77,1.8806e-05,0.08067,1.0589e-05,-61.66,-4.8759e-05,-507.58,1.9532
20311,21.633,3.8182,0.05,1.0013e-06,10.006,7.6886e-07,5.7769,-7.0768e-13,7.4224e-07,-7.6886e-07,-5.7769,1.9402
20312,21.633,4.0909,0,4.9119e-05,490.85,1.8874e-05,0.081661,1.1513e-05,-55.226,-4.9823e-05,-516.08,1.9401
20313,21.724,4,0,4.7422e-05,473.9,1.8262e-05,0.080013,1.1042e-05,-54.173,-4.8109e-05,-498.61,1.9532
20314,21.633,4,0.05,9.5029e-07,9.4964,7.2971e-07,5.4827,-1.0587e-12,6.1373e-07,-7.2971e-07,-5.4827,1.9402
20315,21.633,4.2727,0,4.8386e-05,483.53,1.8189e-05,0.082964,1.2083e-05,-45.799,-4.9e-05,-504.75,1.9401
20316,21.724,4.1818,0,4.6805e-05,467.73,1.7661e-05,0.080697,1.1568e-05,-45.698,-4.7413e-05,-488.86,1.9532
20317,21.633,4.1818,0.05,8.9307e-07,8.9245,6.8577e-07,5.1526,-9.4644e-13,-1.432e-06,-6.8576e-07,-5.1526,1.9401
20318,21.633,4.4545,0,4.7665e-05,476.32,1.7481e-05,0.086115,1.2692e-05,-35.894,-4.8172e-05,-493.2,1.9401
20319,21.724,4.3636,0,4.6186e-05,461.54,1.7025e-05,0.082914,1.2142e-05,-36.605,-4.6698e-05,-478.71,1.9531
20320,21.633,4.3636,0.05,8.3098e-07,8.3041,6.3809e-07,4.7944,-9.1723e-13,3.3089e-07,-6.3809e-07,-4.7944,1.9401
20321,21.633,4.6364,0,4.6976e-05,469.43,1.6779e-05,0.0918,1.3308e-05,-25.991,-4.7362e-05,-481.84,1.94
20322,21.724,4.5455,0,4.5584e-05,455.52,1.6383e-05,0.087069,1.2735e-05,-27.325,-4.5985e-05,-468.52,1.953
20323,21.633,4.5455,0.05,7.6551e-07,7.6498,5.8781e-07,4.4166,-1.0853e-12,-2.5126e-06,-5.8781e-07,-4.4166,1.94
20324,21.633,4.8182,0,4.6334e-05,463.02,1.6112e-05,0.10283,1.3893e-05,-16.574,-4.6592e-05,-471.03,1.9399
20325,21.724,4.7273,0,4.5014e-05,449.83,1.576e-05,0.094806,1.3311e-05,-18.309,-4.5296e-05,-458.66,1.953
20326,21.633,4.7273,0.05,6.9834e-07,6.9786,5.3624e-07,4.0291,-5.7949e-13,-5.5351e-07,-5.3624e-07,-4.0291,1.9399
20327,21.633,5,0,4.5752e-05,457.21,1.5509e-05,0.13379,1.4413e-05,-8.0966,-4.5882e-05,-461.13,1.9398
20328,21.724,4.9091,0,4.4488e-05,444.57,1.5183e-05,0.11359,1.3838e-05,-9.9923,-4.4648e-05,-449.43,1.9529
20329,21.633,4.9091,0.05,6.3152e-07,6.3109,4.8493e-07,3.6436,-6.3021e-13,-3.2667e-07,-4.8493e-07,-3.6436,1.9399
20330,21.633,5.1818,0,4.5239e-05,452.08,1.5028e-05,0.46571,1.4804e-05,-1.2135,-4.5252e-05,-452.45,1.9398
20331,21.724,5.0909,0,4.4015e-05,439.85,1.4683e-05,0.21897,1.4278e-05,-2.8252,-4.4058e-05,-441.14,1.9528
20332,21.633,5.0909,0.05,5.6752e-07,5.6712,4.3578e-07,3.2743,-6.4136e-13,-2.2442e-06,-4.3578e-07,-3.2743,1.9398
20333,21.633,5.3636,0,4.4804e-05,447.73,1.5198e-05,4.9223,1.4538e-05,-0.03892,-4.4719e-05,-445.27,1.9397
20334,21.724,5.2727,0,4.3603e-05,435.73,1.4673e-05,3.3674,1.4216e-05,-0.067743,-4.3546e-05,-434.07,1.9527
20335,21.633,5.2727,0.05,5.0918e-07,5.0883,3.9099e-07,2.9377,-5.0934e-13,2.9758e-07,-3.9099e-07,-2.9377,1.9397
20336,21.633,5.5455,0,4.4458e-05,444.27,1.54e-05,8.74,1.4236e-05,-0.0060785,-4.4303e-05,-439.84,1.9395
20337,21.724,5.4545,0,4.3261e-05,432.31,1.4911e-05,7.6206,1.3897e-05,0.0018589,-4.3126e-05,-428.45,1.9526
20338,21.633,5.4545,0.05,4.5894e-07,4.5862,3.5241e-07,2.6479,-7.5512e-14,1.3079e-06,-3.5241e-07,-2.6479,1.9396
20339,21.633,5.7273,0,4.4285e-05,442.55,1.5547e-05,11.199,1.4055e-05,-0.0081442,-4.4084e-05,-436.85,1.9394
20340,21.724,5.6364,0,4.3006e-05,429.76,1.5046e-05,10.253,1.368e-05,-0.0072171,-4.2822e-05,-424.55,1.9525
20341,21.633,5.6364,0.05,4.0431e-07,4.0403,3.1046e-07,2.3327,2.95e-13,4.0708e-06,-3.1046e-07,-2.3327,1.9395
20342,21.724,5.8182,0,4.3002e-05,429.72,1.5204e-05,12.176,1.3583e-05,-0.0020031,-4.2782e-05,-423.51,1.9524
20343,21.633,5.8182,0.05,9.6934e-08,0.96867,7.4433e-08,0.55926,6.8727e-13,5.488e-06,-7.4434e-08,-0.55926,1.9394
20344,21.633,5.9091,0,4.367e-05,436.4,1.5094e-05,8.2149,1.4006e-05,0.037984,-4.3524e-05,-432.22,1.9393
20345,21.815,0.27273,0,4.1703e-05,416.74,1.4687e-05,11.107,1.3208e-05,-0.0052455,-4.1503e-05,-411.08,1.9655
20346,21.906,0.18182,0,4.0318e-05,402.9,1.4311e-05,12.09,1.2701e-05,-0.0024142,-4.0099e-05,-396.72,1.9785
20347,21.815,0.18182,0.05,1.6541e-07,1.6529,1.2701e-07,0.95432,2.1849e-13,4.138e-06,-1.2701e-07,-0.95431,1.9654
20348,21.815,0.090909,0,4.1161e-05,411.33,1.4261e-05,8.1576,1.318e-05,0.034282,-4.1016e-05,-407.17,1.9654
20349,21.815,0.45455,0,4.1801e-05,417.72,1.4551e-05,9.0823,1.3343e-05,0.005163,-4.1639e-05,-413.11,1.9656
20350,21.906,0.36364,0,4.0267e-05,402.39,1.416e-05,10.474,1.2766e-05,-0.0028875,-4.0078e-05,-397.05,1.9786
20351,21.815,0.36364,0.05,4.597e-07,4.5938,3.5299e-07,2.6523,-4.8635e-13,-1.78e-06,-3.5299e-07,-2.6523,1.9656
20352,21.815,0.63636,0,4.2053e-05,420.24,1.4378e-05,6.0022,1.3579e-05,0.0012168,-4.1948e-05,-417.21,1.9657
20353,21.906,0.54545,0,4.0453e-05,404.25,1.4055e-05,8.4801,1.2929e-05,0.016383,-4.0302e-05,-399.94,1.9787
20354,21.815,0.54545,0.05,5.0567e-07,5.0532,3.8829e-07,2.9175,-2.4847e-14,5.1797e-07,-3.8829e-07,-2.9175,1.9657
20355,21.815,0.81818,0,4.2373e-05,423.44,1.4123e-05,1.5758,1.3892e-05,-0.16033,-4.2349e-05,-422.73,1.9658
20356,21.906,0.72727,0,4.0709e-05,406.81,1.386e-05,5.1114,1.318e-05,-0.0010014,-4.062e-05,-404.23,1.9788
20357,21.815,0.72727,0.05,5.4534e-07,5.4497,4.1876e-07,3.1464,1.909e-13,4.9852e-06,-4.1876e-07,-3.1464,1.9658
20358,21.815,1,0,4.2747e-05,427.17,1.4349e-05,0.13876,1.3708e-05,-4.677,-4.2822e-05,-429.42,1.9659
20359,21.906,0.90909,0,4.1015e-05,409.87,1.3616e-05,0.74931,1.3466e-05,-0.37806,-4.1009e-05,-409.68,1.9789
20360,21.815,0.90909,0.05,5.9199e-07,5.9158,4.5457e-07,3.4155,2.5412e-13,4.7271e-06,-4.5457e-07,-3.4155,1.9659
20361,21.815,1.1818,0,4.3165e-05,431.35,1.4829e-05,0.097945,1.3256e-05,-11.727,-4.335e-05,-437.04,1.966
20362,21.906,1.0909,0,4.136e-05,413.32,1.3939e-05,0.12039,1.3167e-05,-5.6837,-4.1452e-05,-416.07,1.979
20363,21.815,1.0909,0.05,6.439e-07,6.4345,4.9443e-07,3.715,2.4173e-14,3.4069e-06,-4.9443e-07,-3.715,1.9659
20364,21.815,1.3636,0,4.362e-05,435.9,1.5364e-05,0.087224,1.2738e-05,-19.64,-4.3919e-05,-445.34,1.9661
20365,21.906,1.2727,0,4.1737e-05,417.08,1.4398e-05,0.093276,1.2715e-05,-12.546,-4.1934e-05,-423.16,1.9791
20366,21.815,1.2727,0.05,6.9863e-07,6.9815,5.3646e-07,4.0308,9.2595e-14,2.524e-06,-5.3646e-07,-4.0308,1.966
20367,21.815,1.5455,0,4.4103e-05,440.73,1.5927e-05,0.082299,1.2186e-05,-28.03,-4.4512e-05,-454.03,1.9661
20368,21.906,1.4545,0,4.2137e-05,421.08,1.4895e-05,0.084868,1.2212e-05,-20.075,-4.2441e-05,-430.72,1.9791
20369,21.815,1.4545,0.05,7.5399e-07,7.5347,5.7897e-07,4.3501,-1.9954e-13,1.1093e-06,-5.7897e-07,-4.3501,1.9661
20370,21.815,1.7273,0,4.4605e-05,445.74,1.6497e-05,0.079595,1.1629e-05,-36.495,-4.5111e-05,-462.82,1.9662
20371,21.906,1.6364,0,4.2555e-05,425.25,1.5409e-05,0.080778,1.1685e-05,-27.904,-4.2959e-05,-438.47,1.9792
20372,21.815,1.6364,0.05,8.0809e-07,8.0753,6.2051e-07,4.6623,-2.0366e-13,1.2912e-06,-6.2051e-07,-4.6623,1.9661
20373,21.815,1.9091,0,4.511e-05,450.78,1.7049e-05,0.078262,1.1098e-05,-44.634,-4.5701e-05,-471.4,1.9662
20374,21.906,1.8182,0,4.2979e-05,429.49,1.5919e-05,0.078513,1.1163e-05,-35.655,-4.3473e-05,-446.17,1.9792
20375,21.815,1.8182,0.05,8.5938e-07,8.5879,6.599e-07,4.9582,-2.7133e-13,3.6164e-07,-6.599e-07,-4.9582,1.9662
20376,21.815,2.0909,0,4.56e-05,455.68,1.756e-05,0.078049,1.0619e-05,-52.077,-4.626e-05,-479.44,1.9662
20377,21.906,2,0,4.3398e-05,433.68,1.6403e-05,0.077443,1.0675e-05,-42.96,-4.3967e-05,-453.51,1.9793
20378,21.815,2,0.05,9.0651e-07,9.0589,6.9609e-07,5.2301,-3.1802e-13,-5.7664e-07,-6.9609e-07,-5.2301,1.9662
20379,21.815,2.2727,0,4.6053e-05,460.21,1.801e-05,0.078753,1.0212e-05,-58.512,-4.6766e-05,-486.62,1.9663
20380,21.906,2.1818,0,4.3794e-05,437.64,1.684e-05,0.07733,1.0243e-05,-49.492,-4.4424e-05,-460.24,1.9793
20381,21.815,2.1818,0.05,9.4829e-07,9.4763,7.2817e-07,5.4712,-3.93e-13,8.9262e-07,-7.2817e-07,-5.4712,1.9662
20382,21.815,2.4545,0,4.6442e-05,464.1,1.8379e-05,0.080046,9.89e-06,-63.706,-4.7195e-05,-492.62,1.9663
20383,21.906,2.3636,0,4.4149e-05,441.18,1.7214e-05,0.077931,9.8853e-06,-54.986,-4.4824e-05,-466.05,1.9793
20384,21.815,2.3636,0.05,9.8357e-07,9.8289,7.5526e-07,5.6747,-2.8764e-13,5.2057e-07,-7.5526e-07,-5.6747,1.9663
20385,21.815,2.6364,0,4.6743e-05,467.11,1.8654e-05,0.081483,9.6596e-06,-67.5,-4.7522e-05,-497.14,1.9663
20386,21.906,2.5455,0,4.4439e-05,444.09,1.7508e-05,0.078917,9.6122e-06,-59.245,-4.5148e-05,-470.69,1.9793
20387,21.815,2.5455,0.05,1.0113e-06,10.106,7.7652e-07,5.8345,-4.0618e-13,8.9616e-09,-7.7652e-07,-5.8345,1.9663
20388,21.815,2.8182,0,4.6934e-05,469.02,1.8823e-05,0.08259,9.5218e-06,-69.806,-4.7728e-05,-499.96,1.9663
20389,21.906,2.7273,0,4.4647e-05,446.16,1.771e-05,0.079886,9.429e-06,-62.143,-4.5376e-05,-473.92,1.9794
20390,21.815,2.7273,0.05,1.0304e-06,10.297,7.912e-07,5.9447,-4.9609e-13,-1.8821e-06,-7.912e-07,-5.9447,1.9663
20391,21.815,3,0,4.6999e-05,469.67,1.8881e-05,0.083004,9.476e-06,-70.579,-4.7798e-05,-500.91,1.9663
20392,21.906,2.9091,0,4.4754e-05,447.24,1.7814e-05,0.080479,9.3373e-06,-63.608,-4.5494e-05,-475.59,1.9794
20393,21.815,2.9091,0.05,1.0401e-06,10.394,7.987e-07,6.0011,-5.7622e-13,4.035e-08,-7.987e-07,-6.0011,1.9663
20394,21.815,3.1818,0,4.6934e-05,469.02,1.8823e-05,0.08259,9.5218e-06,-69.806,-4.7728e-05,-499.96,1.9663
20395,21.906,3.0909,0,4.4754e-05,447.24,1.7814e-05,0.080478,9.3373e-06,-63.608,-4.5494e-05,-475.59,1.9794
20396,21.815,3.0909,0.05,1.0401e-06,10.394,7.987e-07,6.0011,-9.0901e-13,-1.0494e-06,-7.987e-07,-6.0011,1.9663
20397,21.815,3.3636,0,4.6743e-05,467.11,1.8654e-05,0.081484,9.6596e-06,-67.5,-4.7522e-05,-497.14,1.9663
20398,21.906,3.2727,0,4.4647e-05,446.16,1.771e-05,0.079886,9.429e-06,-62.143,-4.5376e-05,-473.92,1.9794
20399,21.815,3.2727,0.05,1.0304e-06,10.297,7.912e-07,5.9448,-7.0868e-13,-1.4323e-06,-7.912e-07,-5.9447,1.9663
20400,21.815,3.5455,0,4.6442e-05,464.1,1.8379e-05,0.080047,9.89e-06,-63.706,-4.7195e-05,-492.62,1.9663
20401,21.906,3.4545,0,4.4439e-05,444.09,1.7508e-05,0.078917,9.6122e-06,-59.245,-4.5148e-05,-470.69,1.9793
20402,21.815,3.4545,0.05,1.0113e-06,10.106,7.7652e-07,5.8345,-8.9136e-13,-2.2003e-06,-7.7652e-07,-5.8345,1.9663
20403,21.815,3.7273,0,4.6053e-05,460.21,1.801e-05,0.078753,1.0212e-05,-58.512,-4.6766e-05,-486.62,1.9663
20404,21.906,3.6364,0,4.4149e-05,441.18,1.7214e-05,0.077933,9.8853e-06,-54.986,-4.4824e-05,-466.05,1.9793
20405,21.815,3.6364,0.05,9.8357e-07,9.8289,7.5526e-07,5.6747,-1.0317e-12,-1.627e-06,-7.5526e-07,-5.6747,1.9663
20406,21.815,3.9091,0,4.56e-05,455.68,1.756e-05,0.078049,1.0619e-05,-52.077,-4.626e-05,-479.44,1.9662
20407,21.906,3.8182,0,4.3794e-05,437.64,1.684e-05,0.07733,1.0243e-05,-49.492,-4.4424e-05,-460.24,1.9793
20408,21.815,3.8182,0.05,9.4829e-07,9.4763,7.2817e-07,5.4712,-9.1339e-13,-1.0245e-06,-7.2817e-07,-5.4712,1.9662
20409,21.815,4.0909,0,4.511e-05,450.78,1.7049e-05,0.078262,1.1098e-05,-44.634,-4.5701e-05,-471.4,1.9662
20410,21.906,4,0,4.3398e-05,433.68,1.6403e-05,0.077443,1.0675e-05,-42.96,-4.3967e-05,-453.51,1.9793
20411,21.815,4,0.05,9.0651e-07,9.0589,6.9609e-07,5.2302,-1.076e-12,-2.8451e-06,-6.9609e-07,-5.2301,1.9662
20412,21.815,4.2727,0,4.4605e-05,445.74,1.6497e-05,0.079596,1.1629e-05,-36.495,-4.5111e-05,-462.82,1.9662
20413,21.906,4.1818,0,4.2979e-05,429.49,1.5919e-05,0.078513,1.1163e-05,-35.655,-4.3473e-05,-446.17,1.9792
20414,21.815,4.1818,0.05,8.5938e-07,8.5879,6.599e-07,4.9582,-1.1641e-12,-4.9229e-06,-6.599e-07,-4.9582,1.9662
20415,21.815,4.4545,0,4.4103e-05,440.73,1.5927e-05,0.082299,1.2186e-05,-28.03,-4.4511e-05,-454.03,1.9661
20416,21.906,4.3636,0,4.2555e-05,425.25,1.5409e-05,0.08078,1.1685e-05,-27.904,-4.2959e-05,-438.47,1.9792
20417,21.815,4.3636,0.05,8.0809e-07,8.0753,6.2051e-07,4.6623,-9.0678e-13,-1.6947e-06,-6.2051e-07,-4.6623,1.9661
20418,21.815,4.6364,0,4.362e-05,435.9,1.5364e-05,0.087224,1.2738e-05,-19.64,-4.3919e-05,-445.34,1.9661
20419,21.906,4.5455,0,4.2137e-05,421.08,1.4895e-05,0.084867,1.2212e-05,-20.075,-4.2441e-05,-430.72,1.9791
20420,21.815,4.5455,0.05,7.5399e-07,7.5346,5.7897e-07,4.3501,-1.012e-12,-4.6858e-06,-5.7897e-07,-4.3501,1.9661
20421,21.815,4.8182,0,4.3165e-05,431.35,1.4829e-05,0.097946,1.3256e-05,-11.727,-4.335e-05,-437.04,1.966
20422,21.906,4.7273,0,4.1737e-05,417.08,1.4398e-05,0.093276,1.2715e-05,-12.546,-4.1934e-05,-423.16,1.9791
20423,21.815,4.7273,0.05,6.9863e-07,6.9815,5.3646e-07,4.0308,-8.1359e-13,-3.0062e-06,-5.3646e-07,-4.0308,1.966
20424,21.815,5,0,4.2747e-05,427.17,1.4349e-05,0.13876,1.3708e-05,-4.677,-4.2822e-05,-429.42,1.9659
20425,21.906,4.9091,0,4.136e-05,413.32,1.3939e-05,0.12039,1.3167e-05,-5.6836,-4.1452e-05,-416.07,1.979
20426,21.815,4.9091,0.05,6.439e-07,6.4345,4.9443e-07,3.715,-7.7687e-13,-2.9395e-06,-4.9443e-07,-3.715,1.9659
20427,21.815,5.1818,0,4.2373e-05,423.44,1.4123e-05,1.5759,1.3892e-05,-0.16033,-4.2349e-05,-422.73,1.9658
20428,21.906,5.0909,0,4.1015e-05,409.87,1.3616e-05,0.74934,1.3466e-05,-0.37804,-4.1009e-05,-409.68,1.9789
20429,21.815,5.0909,0.05,5.9199e-07,5.9158,4.5457e-07,3.4155,-5.8362e-13,-3.0744e-06,-4.5457e-07,-3.4155,1.9659
20430,21.815,5.3636,0,4.2053e-05,420.24,1.4378e-05,6.0023,1.3579e-05,0.0012162,-4.1948e-05,-417.21,1.9657
20431,21.906,5.2727,0,4.0709e-05,406.81,1.386e-05,5.1114,1.318e-05,-0.0010036,-4.062e-05,-404.23,1.9788
20432,21.815,5.2727,0.05,5.4534e-07,5.4497,4.1876e-07,3.1464,-3.5069e-13,-1.313e-06,-4.1876e-07,-3.1464,1.9658
20433,21.815,5.5455,0,4.1801e-05,417.72,1.4551e-05,9.0823,1.3342e-05,0.0051652,-4.1639e-05,-413.11,1.9656
20434,21.906,5.4545,0,4.0453e-05,404.25,1.4055e-05,8.4801,1.2929e-05,0.016384,-4.0302e-05,-399.94,1.9787
20435,21.815,5.4545,0.05,5.0567e-07,5.0532,3.8829e-07,2.9175,1.9132e-13,1.7577e-06,-3.8829e-07,-2.9175,1.9657
20436,21.815,5.7273,0,4.1703e-05,416.74,1.4687e-05,11.107,1.3208e-05,-0.0052439,-4.1503e-05,-411.08,1.9655
20437,21.906,5.6364,0,4.0267e-05,402.39,1.416e-05,10.474,1.2766e-05,-0.0028845,-4.0078e-05,-397.05,1.9786
20438,21.815,5.6364,0.05,4.597e-07,4.5938,3.5299e-07,2.6523,5.5779e-13,5.2097e-06,-3.5299e-07,-2.6523,1.9656
20439,21.906,5.8182,0,4.0318e-05,402.9,1.4311e-05,12.09,1.2701e-05,-0.0024151,-4.0099e-05,-396.72,1.9785
20440,21.815,5.8182,0.05,1.6541e-07,1.6529,1.2701e-07,0.95431,8.502e-13,6.322e-06,-1.2701e-07,-0.95431,1.9654
20441,21.815,5.9091,0,4.1161e-05,411.33,1.4261e-05,8.1576,1.318e-05,0.034284,-4.1016e-05,-407.17,1.9654
20442,21.997,0.27273,0,3.886e-05,388.33,1.3765e-05,11.316,1.2259e-05,-0.0049607,-3.8655e-05,-382.55,1.9916
20443,22.088,0.18182,0,3.7392e-05,373.66,1.3357e-05,12.242,1.1728e-05,-0.0041416,-3.7169e-05,-367.39,2.0046
20444,21.997,0.18182,0.05,2.2191e-07,2.2175,1.704e-07,1.2803,5.0615e-13,5.898e-06,-1.704e-07,-1.2803,1.9916
20445,21.997,0.090909,0,3.8366e-05,383.39,1.3346e-05,8.2457,1.2253e-05,0.031069,-3.8218e-05,-379.19,1.9915
20446,21.997,0.45455,0,3.891e-05,388.83,1.3656e-05,9.8118,1.2352e-05,0.010591,-3.8733e-05,-383.83,1.9917
20447,22.088,0.36364,0,3.7307e-05,372.81,1.323e-05,11.04,1.176e-05,-0.0020622,-3.7107e-05,-367.17,2.0047
20448,21.997,0.36364,0.05,5.0453e-07,5.0419,3.8742e-07,2.9109,2.7929e-13,2.4688e-06,-3.8742e-07,-2.9109,1.9917
20449,21.997,0.63636,0,3.9101e-05,390.75,1.3531e-05,7.5379,1.253e-05,0.020235,-3.8967e-05,-386.91,1.9918
20450,22.088,0.54545,0,3.7453e-05,374.27,1.3171e-05,9.7628,1.1875e-05,0.023541,-3.7277e-05,-369.28,2.0048
20451,21.997,0.54545,0.05,5.4407e-07,5.4369,4.1778e-07,3.139,1.7356e-13,7.9203e-07,-4.1778e-07,-3.139,1.9918
20452,21.997,0.81818,0,3.9345e-05,393.18,1.332e-05,4.0333,1.2783e-05,-0.0023125,-3.9275e-05,-391.15,1.9919
20453,22.088,0.72727,0,3.7657e-05,376.31,1.3038e-05,7.3498,1.2063e-05,0.023476,-3.7526e-05,-372.57,2.0049
20454,21.997,0.72727,0.05,5.7574e-07,5.7535,4.421e-07,3.3218,1.0161e-14,1.792e-06,-4.421e-07,-3.3218,1.9919
20455,21.997,1,0,3.9624e-05,395.97,1.315e-05,0.3031,1.2979e-05,-0.98233,-3.9635e-05,-396.3,1.992
20456,22.088,0.90909,0,3.7895e-05,378.69,1.2822e-05,3.8001,1.2316e-05,-0.00089472,-3.7829e-05,-376.77,2.005
20457,21.997,0.90909,0.05,6.1317e-07,6.1274,4.7084e-07,3.5377,7.6148e-14,2.2873e-06,-4.7084e-07,-3.5377,1.9919
20458,21.997,1.1818,0,3.9929e-05,399.01,1.3506e-05,0.10572,1.2626e-05,-6.509,-4.0033e-05,-402.17,1.9921
20459,22.088,1.0909,0,3.8155e-05,381.28,1.2668e-05,0.27071,1.2485e-05,-1.1059,-3.8169e-05,-381.7,2.0051
20460,21.997,1.0909,0.05,6.5526e-07,6.548,5.0316e-07,3.7805,1.704e-14,1.6113e-06,-5.0316e-07,-3.7805,1.992
20461,21.997,1.3636,0,4.0252e-05,402.24,1.3929e-05,0.088206,1.2188e-05,-12.987,-4.0455e-05,-408.53,1.9921
20462,22.088,1.2727,0,3.8428e-05,384.02,1.3008e-05,0.10544,1.2136e-05,-6.4518,-3.8532e-05,-387.15,2.0052
20463,21.997,1.2727,0.05,7.0001e-07,6.9953,5.3752e-07,4.0387,4.473e-14,4.8463e-07,-5.3752e-07,-4.0387,1.9921
20464,21.997,1.5455,0,4.0587e-05,405.59,1.4377e-05,0.082031,1.171e-05,-19.952,-4.0888e-05,-415.16,1.9922
20465,22.088,1.4545,0,3.871e-05,386.83,1.3399e-05,0.088499,1.1714e-05,-12.576,-3.8907e-05,-392.92,2.0052
20466,21.997,1.4545,0.05,7.4553e-07,7.4502,5.7248e-07,4.3014,-1.0821e-13,3.2769e-07,-5.7248e-07,-4.3014,1.9922
20467,21.997,1.7273,0,4.0929e-05,409,1.4831e-05,0.078872,1.1219e-05,-27.063,-4.132e-05,-421.82,1.9922
20468,22.088,1.6364,0,3.8995e-05,389.68,1.3807e-05,0.082278,1.1261e-05,-19.046,-3.9282e-05,-398.81,2.0053
20469,21.997,1.6364,0.05,7.9017e-07,7.8962,6.0675e-07,4.5589,-1.4244e-13,7.9886e-07,-6.0675e-07,-4.5589,1.9922
20470,21.997,1.9091,0,4.1268e-05,412.39,1.5273e-05,0.0771,1.0741e-05,-33.977,-4.1739e-05,-428.29,1.9923
20471,22.088,1.8182,0,3.9278e-05,392.51,1.4212e-05,0.079039,1.0803e-05,-25.536,-3.9648e-05,-404.61,2.0053
20472,21.997,1.8182,0.05,8.325e-07,8.3193,6.3926e-07,4.8031,-2.3388e-13,-1.1854e-06,-6.3926e-07,-4.8031,1.9923
20473,21.997,2.0909,0,4.1593e-05,415.65,1.5683e-05,0.076257,1.03e-05,-40.372,-4.2131e-05,-434.31,1.9923
20474,22.088,2,0,3.9552e-05,395.25,1.4599e-05,0.077205,1.0365e-05,-31.729,-3.9995e-05,-410.11,2.0054
20475,21.997,2,0.05,8.7133e-07,8.7073,6.6907e-07,5.0272,-5.0213e-13,-1.4841e-06,-6.6907e-07,-5.0272,1.9923
20476,21.997,2.2727,0,4.1892e-05,418.63,1.6045e-05,0.076123,9.917e-06,-45.964,-4.2482e-05,-439.67,1.9924
20477,22.088,2.1818,0,3.9809e-05,397.82,1.4949e-05,0.07628,9.9703e-06,-37.331,-4.0311e-05,-415.12,2.0054
20478,21.997,2.1818,0.05,9.0562e-07,9.0499,6.954e-07,5.225,-1.6206e-13,-1.9688e-06,-6.954e-07,-5.225,1.9923
20479,21.997,2.4545,0,4.2147e-05,421.18,1.6342e-05,0.076471,9.6075e-06,-50.526,-4.2777e-05,-444.12,1.9924
20480,22.088,2.3636,0,4.0037e-05,400.09,1.5249e-05,0.076003,9.6359e-06,-42.095,-4.0585e-05,-419.43,2.0054
20481,21.997,2.3636,0.05,9.3442e-07,9.3378,7.1752e-07,5.3912,-4.285e-13,-1.9686e-06,-7.1752e-07,-5.3912,1.9924
20482,21.997,2.6364,0,4.2344e-05,423.15,1.6564e-05,0.077024,9.3813e-06,-53.891,-4.3001e-05,-447.47,1.9924
20483,22.088,2.5455,0,4.0223e-05,401.95,1.5485e-05,0.076126,9.3757e-06,-45.825,-4.0804e-05,-422.86,2.0054
20484,21.997,2.5455,0.05,9.5691e-07,9.5625,7.3479e-07,5.5209,-3.3617e-13,-2.33e-06,-7.3479e-07,-5.5209,1.9924
20485,21.997,2.8182,0,4.2469e-05,424.39,1.6701e-05,0.077501,9.2439e-06,-55.95,-4.3141e-05,-449.55,1.9924
20486,22.088,2.7273,0,4.0355e-05,403.27,1.5648e-05,0.076399,9.1983e-06,-48.383,-4.0958e-05,-425.24,2.0054
20487,21.997,2.7273,0.05,9.7236e-07,9.7169,7.4665e-07,5.6101,-5.6343e-13,-3.4592e-06,-7.4665e-07,-5.6101,1.9924
20488,21.997,3,0,4.2511e-05,424.82,1.6747e-05,0.077685,9.1979e-06,-56.643,-4.3188e-05,-450.25,1.9924
20489,22.088,2.9091,0,4.0424e-05,403.96,1.5731e-05,0.076599,9.1085e-06,-49.683,-4.1037e-05,-426.46,2.0055
20490,21.997,2.9091,0.05,9.8023e-07,9.7956,7.527e-07,5.6555,-4.4911e-13,-2.7184e-06,-7.527e-07,-5.6555,1.9924
20491,21.997,3.1818,0,4.2469e-05,424.39,1.6701e-05,0.0775,9.2439e-06,-55.95,-4.3141e-05,-449.55,1.9924
20492,22.088,3.0909,0,4.0424e-05,403.96,1.5731e-05,0.076598,9.1085e-06,-49.683,-4.1037e-05,-426.46,2.0055
20493,21.997,3.0909,0.05,9.8023e-07,9.7956,7.527e-07,5.6555,-6.9399e-13,-3.5272e-06,-7.527e-07,-5.6555,1.9924
20494,21.997,3.3636,0,4.2344e-05,423.15,1.6564e-05,0.077024,9.3813e-06,-53.891,-4.3001e-05,-447.47,1.9924
20495,22.088,3.2727,0,4.0355e-05,403.27,1.5648e-05,0.076399,9.1983e-06,-48.383,-4.0958e-05,-425.24,2.0054
20496,21.997,3.2727,0.05,9.7236e-07,9.7169,7.4665e-07,5.6101,-6.2866e-13,-3.6125e-06,-7.4665e-07,-5.6101,1.9924
20497,21.997,3.5455,0,4.2147e-05,421.18,1.6342e-05,0.076472,9.6075e-06,-50.526,-4.2777e-05,-444.12,1.9924
20498,22.088,3.4545,0,4.0223e-05,401.95,1.5485e-05,0.076126,9.3757e-06,-45.825,-4.0804e-05,-422.86,2.0054
20499,21.997,3.4545,0.05,9.5691e-07,9.5625,7.3479e-07,5.5209,-8.3322e-13,-3.5537e-06,-7.3479e-07,-5.5209,1.9924
20500,21.997,3.7273,0,4.1892e-05,418.63,1.6045e-05,0.076125,9.917e-06,-45.964,-4.2482e-05,-439.67,1.9924
20501,22.088,3.6364,0,4.0037e-05,400.09,1.5249e-05,0.076004,9.6359e-06,-42.095,-4.0585e-05,-419.43,2.0054
20502,21.997,3.6364,0.05,9.3442e-07,9.3378,7.1752e-07,5.3912,-7.5039e-13,-2.4421e-06,-7.1752e-07,-5.3912,1.9924
20503,21.997,3.9091,0,4.1593e-05,415.64,1.5683e-05,0.076257,1.03e-05,-40.372,-4.2131e-05,-434.31,1.9923
20504,22.088,3.8182,0,3.9809e-05,397.82,1.4949e-05,0.076281,9.9703e-06,-37.331,-4.0311e-05,-415.12,2.0054
20505,21.997,3.8182,0.05,9.0562e-07,9.0499,6.954e-07,5.225,-7.3839e-13,-2.9438e-06,-6.954e-07,-5.225,1.9923
20506,21.997,4.0909,0,4.1268e-05,412.39,1.5273e-05,0.077099,1.0741e-05,-33.977,-4.1739e-05,-428.29,1.9923
20507,22.088,4,0,3.9552e-05,395.25,1.4599e-05,0.077205,1.0365e-05,-31.729,-3.9995e-05,-410.11,2.0054
20508,21.997,4,0.05,8.7133e-07,8.7073,6.6907e-07,5.0272,-7.676e-13,-3.7237e-06,-6.6907e-07,-5.0271,1.9923
20509,21.997,4.2727,0,4.0929e-05,409,1.4831e-05,0.078872,1.1219e-05,-27.063,-4.132e-05,-421.82,1.9922
20510,22.088,4.1818,0,3.9278e-05,392.51,1.4212e-05,0.079039,1.0803e-05,-25.536,-3.9648e-05,-404.61,2.0053
20511,21.997,4.1818,0.05,8.325e-07,8.3193,6.3926e-07,4.8031,-9.6961e-13,-5.0754e-06,-6.3926e-07,-4.8031,1.9923
20512,21.997,4.4545,0,4.0587e-05,405.59,1.4377e-05,0.082032,1.171e-05,-19.952,-4.0888e-05,-415.16,1.9922
20513,22.088,4.3636,0,3.8995e-05,389.68,1.3807e-05,0.082278,1.1261e-05,-19.045,-3.9282e-05,-398.81,2.0053
20514,21.997,4.3636,0.05,7.9017e-07,7.8962,6.0675e-07,4.5589,-6.9392e-13,-2.9163e-06,-6.0675e-07,-4.5589,1.9922
20515,21.997,4.6364,0,4.0252e-05,402.24,1.3929e-05,0.088206,1.2188e-05,-12.987,-4.0455e-05,-408.53,1.9921
20516,22.088,4.5455,0,3.871e-05,386.83,1.3399e-05,0.088499,1.1714e-05,-12.575,-3.8907e-05,-392.92,2.0052
20517,21.997,4.5455,0.05,7.4553e-07,7.4502,5.7248e-07,4.3014,-7.487e-13,-5.0471e-06,-5.7248e-07,-4.3014,1.9922
20518,21.997,4.8182,0,3.9929e-05,399.01,1.3506e-05,0.10572,1.2626e-05,-6.5089,-4.0033e-05,-402.17,1.9921
20519,22.088,4.7273,0,3.8428e-05,384.02,1.3008e-05,0.10544,1.2136e-05,-6.4517,-3.8532e-05,-387.15,2.0052
20520,21.997,4.7273,0.05,7.0001e-07,6.9953,5.3752e-07,4.0387,-5.356e-13,-3.7067e-06,-5.3752e-07,-4.0387,1.9921
20521,21.997,5,0,3.9624e-05,395.97,1.315e-05,0.30311,1.2979e-05,-0.98229,-3.9635e-05,-396.3,1.992
20522,22.088,4.9091,0,3.8155e-05,381.28,1.2668e-05,0.27072,1.2485e-05,-1.1059,-3.8169e-05,-381.7,2.0051
20523,21.997,4.9091,0.05,6.5526e-07,6.548,5.0316e-07,3.7805,-5.8267e-13,-2.7809e-06,-5.0316e-07,-3.7805,1.992
20524,21.997,5.1818,0,3.9345e-05,393.18,1.332e-05,4.0333,1.2783e-05,-0.0023139,-3.9275e-05,-391.15,1.9919
20525,22.088,5.0909,0,3.7895e-05,378.69,1.2822e-05,3.8002,1.2316e-05,-0.0008952,-3.7829e-05,-376.77,2.005
20526,21.997,5.0909,0.05,6.1317e-07,6.1274,4.7084e-07,3.5377,-6.0127e-13,-3.058e-06,-4.7083e-07,-3.5377,1.9919
20527,21.997,5.3636,0,3.9101e-05,390.75,1.3531e-05,7.538,1.253e-05,0.020235,-3.8967e-05,-386.91,1.9918
20528,22.088,5.2727,0,3.7657e-05,376.31,1.3038e-05,7.3498,1.2063e-05,0.023474,-3.7526e-05,-372.57,2.0049
20529,21.997,5.2727,0.05,5.7574e-07,5.7535,4.421e-07,3.3218,-1.4358e-13,-4.3868e-07,-4.421e-07,-3.3218,1.9919
20530,21.997,5.5455,0,3.891e-05,388.83,1.3656e-05,9.8118,1.2352e-05,0.010594,-3.8733e-05,-383.83,1.9917
20531,22.088,5.4545,0,3.7453e-05,374.27,1.3171e-05,9.7628,1.1875e-05,0.023545,-3.7277e-05,-369.28,2.0048
20532,21.997,5.4545,0.05,5.4407e-07,5.4369,4.1778e-07,3.139,3.7598e-13,1.834e-06,-4.1778e-07,-3.139,1.9918
20533,21.997,5.7273,0,3.886e-05,388.33,1.3765e-05,11.316,1.2259e-05,-0.0049602,-3.8655e-05,-382.55,1.9916
20534,22.088,5.6364,0,3.7307e-05,372.81,1.323e-05,11.04,1.176e-05,-0.0020601,-3.7107e-05,-367.17,2.0047
20535,21.997,5.6364,0.05,5.0453e-07,5.0419,3.8742e-07,2.9109,6.6663e-13,5.1401e-06,-3.8742e-07,-2.9109,1.9917
20536,22.088,5.8182,0,3.7392e-05,373.66,1.3357e-05,12.242,1.1728e-05,-0.0041444,-3.7169e-05,-367.39,2.0046
20537,21.997,5.8182,0.05,2.2191e-07,2.2175,1.704e-07,1.2803,6.9993e-13,5.4362e-06,-1.704e-07,-1.2803,1.9916
20538,21.997,5.9091,0,3.8366e-05,383.39,1.3346e-05,8.2457,1.2253e-05,0.031069,-3.8218e-05,-379.19,1.9915
20539,22.179,0.27273,0,3.5814e-05,357.9,1.2801e-05,11.808,1.1228e-05,-0.0067799,-3.5599e-05,-351.85,2.0178
20540,22.271,0.18182,0,3.4277e-05,342.53,1.236e-05,12.61,1.068e-05,-0.0072201,-3.4045e-05,-336.06,2.0308
20541,22.179,0.18182,0.05,2.6901e-07,2.6882,2.0656e-07,1.552,7.7045e-13,9.0295e-06,-2.0656e-07,-1.552,2.0177
20542,22.179,0.090909,0,3.5346e-05,353.21,1.2368e-05,8.4665,1.1245e-05,0.028742,-3.5194e-05,-348.89,2.0176
20543,22.179,0.45455,0,3.584e-05,358.15,1.2735e-05,10.922,1.1283e-05,0.012357,-3.5642e-05,-352.56,2.0179
20544,22.271,0.36364,0,3.4179e-05,341.56,1.2272e-05,11.94,1.0682e-05,-0.0036124,-3.3961e-05,-335.43,2.0309
20545,22.179,0.36364,0.05,5.4048e-07,5.4011,4.1502e-07,3.1183,8.9383e-13,8.4945e-06,-4.1502e-07,-3.1183,2.0178
20546,22.179,0.63636,0,3.6e-05,359.75,1.2671e-05,9.5199,1.1408e-05,0.028703,-3.5828e-05,-354.88,2.018
20547,22.271,0.54545,0,3.431e-05,342.87,1.2274e-05,11.466,1.0752e-05,0.026909,-3.41e-05,-336.98,2.031
20548,22.179,0.54545,0.05,5.7515e-07,5.7475,4.4164e-07,3.3183,6.3233e-13,6.6047e-06,-4.4164e-07,-3.3183,2.0179
20549,22.179,0.81818,0,3.62e-05,361.75,1.2534e-05,7.0712,1.1596e-05,0.028744,-3.6074e-05,-358.15,2.018
20550,22.271,0.72727,0,3.449e-05,344.67,1.2217e-05,10.061,1.0883e-05,0.033397,-3.4308e-05,-339.51,2.0311
20551,22.179,0.72727,0.05,6.0078e-07,6.0036,4.6132e-07,3.4662,8.6512e-13,7.5905e-06,-4.6132e-07,-3.4662,2.018
20552,22.179,1,0,3.6421e-05,363.96,1.232e-05,3.6078,1.184e-05,0.0044507,-3.6358e-05,-362.14,2.0181
20553,22.271,0.90909,0,3.4692e-05,346.68,1.2084e-05,7.6505,1.107e-05,0.034045,-3.4555e-05,-342.78,2.0312
20554,22.179,0.90909,0.05,6.3104e-07,6.306,4.8456e-07,3.6408,7.4476e-13,7.0534e-06,-4.8456e-07,-3.6408,2.0181
20555,22.179,1.1818,0,3.6651e-05,366.26,1.2169e-05,0.25776,1.1994e-05,-1.0578,-3.6664e-05,-366.66,2.0182
20556,22.271,1.0909,0,3.4901e-05,348.77,1.1875e-05,4.2954,1.1305e-05,0.015111,-3.4825e-05,-346.59,2.0312
20557,22.179,1.0909,0.05,6.653e-07,6.6484,5.1087e-07,3.8385,5.4975e-13,6.0247e-06,-5.1087e-07,-3.8385,2.0181
20558,22.179,1.3636,0,3.6884e-05,368.59,1.2479e-05,0.10425,1.166e-05,-6.0526,-3.6982e-05,-371.52,2.0183
20559,22.271,1.2727,0,3.5107e-05,350.83,1.165e-05,0.52185,1.1525e-05,-0.41547,-3.5106e-05,-350.78,2.0313
20560,22.179,1.2727,0.05,7.0197e-07,7.0148,5.3902e-07,4.05,5.4997e-13,4.2396e-06,-5.3902e-07,-4.05,2.0182
20561,22.179,1.5455,0,3.7116e-05,370.91,1.2829e-05,0.088042,1.1264e-05,-11.677,-3.7299e-05,-376.56,2.0183
20562,22.271,1.4545,0,3.5308e-05,352.84,1.19e-05,0.11473,1.124e-05,-4.8429,-3.5386e-05,-355.18,2.0314
20563,22.179,1.4545,0.05,7.3943e-07,7.3892,5.6779e-07,4.2661,3.2841e-13,3.7124e-06,-5.6779e-07,-4.2661,2.0183
20564,22.179,1.7273,0,3.7344e-05,373.18,1.3188e-05,0.081988,1.0845e-05,-17.523,-3.7609e-05,-381.59,2.0184
20565,22.271,1.6364,0,3.55e-05,354.76,1.2216e-05,0.091884,1.0868e-05,-10.038,-3.5659e-05,-359.62,2.0314
20566,22.179,1.6364,0.05,7.7625e-07,7.7571,5.9606e-07,4.4786,1.994e-13,3.1191e-06,-5.9606e-07,-4.4786,2.0183
20567,22.179,1.9091,0,3.7563e-05,375.38,1.3538e-05,0.0788,1.0428e-05,-23.289,-3.7904e-05,-386.43,2.0184
20568,22.271,1.8182,0,3.5683e-05,356.59,1.2535e-05,0.084124,1.048e-05,-15.356,-3.5918e-05,-363.97,2.0314
20569,22.179,1.8182,0.05,8.1119e-07,8.1063,6.2289e-07,4.6802,7.5664e-14,4.9157e-07,-6.2289e-07,-4.6802,2.0184
20570,22.179,2.0909,0,3.777e-05,377.44,1.3864e-05,0.076947,1.0036e-05,-28.688,-3.8174e-05,-390.92,2.0184
20571,22.271,2,0,3.5854e-05,358.3,1.284e-05,0.080202,1.01e-05,-20.508,-3.6158e-05,-368.07,2.0315
20572,22.179,2,0.05,8.432e-07,8.4262,6.4747e-07,4.8649,-2.4173e-13,4.771e-07,-6.4747e-07,-4.8649,2.0184
20573,22.179,2.2727,0,3.7957e-05,379.31,1.4153e-05,0.07592,9.6892e-06,-33.462,-3.8413e-05,-394.89,2.0185
20574,22.271,2.1818,0,3.6011e-05,359.86,1.3118e-05,0.07795,9.7496e-06,-25.229,-3.6372e-05,-371.77,2.0315
20575,22.179,2.1818,0.05,8.7139e-07,8.7078,6.6912e-07,5.0275,-2.5024e-13,2.2911e-07,-6.6912e-07,-5.0275,2.0184
20576,22.179,2.4545,0,3.8115e-05,380.89,1.4391e-05,0.075444,9.404e-06,-37.395,-3.8612e-05,-398.17,2.0185
20577,22.271,2.3636,0,3.6147e-05,361.22,1.3356e-05,0.076653,9.4481e-06,-29.287,-3.6555e-05,-374.93,2.0315
20578,22.179,2.3636,0.05,8.9498e-07,8.9436,6.8723e-07,5.1636,-3.5516e-13,-5.4981e-07,-6.8723e-07,-5.1636,2.0185
20579,22.179,2.6364,0,3.8237e-05,382.1,1.4569e-05,0.075302,9.1925e-06,-40.319,-3.8761e-05,-400.62,2.0185
20580,22.271,2.5455,0,3.6258e-05,362.33,1.3545e-05,0.075961,9.21e-06,-32.493,-3.6699e-05,-377.44,2.0316
20581,22.179,2.5455,0.05,9.1332e-07,9.1269,7.0131e-07,5.2694,-3.1107e-13,-1.2418e-06,-7.0131e-07,-5.2694,2.0185
20582,22.179,2.8182,0,3.8313e-05,382.87,1.4678e-05,0.075308,9.0626e-06,-42.119,-3.8854e-05,-402.14,2.0185
20583,22.271,2.7273,0,3.6336e-05,363.11,1.3675e-05,0.07564,9.0457e-06,-34.706,-3.68e-05,-379.17,2.0316
20584,22.179,2.7273,0.05,9.2587e-07,9.2523,7.1095e-07,5.3418,-3.6759e-13,-1.8987e-06,-7.1095e-07,-5.3418,2.0185
20585,22.179,3,0,3.834e-05,383.13,1.4715e-05,0.075325,9.0189e-06,-42.726,-3.8885e-05,-402.66,2.0185
20586,22.271,2.9091,0,3.6376e-05,363.51,1.3742e-05,0.075525,8.962e-06,-35.836,-3.6851e-05,-380.06,2.0316
20587,22.179,2.9091,0.05,9.3225e-07,9.3161,7.1585e-07,5.3786,-5.3609e-13,-1.5641e-06,-7.1585e-07,-5.3786,2.0185
20588,22.179,3.1818,0,3.8313e-05,382.87,1.4678e-05,0.075307,9.0626e-06,-42.119,-3.8854e-05,-402.14,2.0185
20589,22.271,3.0909,0,3.6376e-05,363.51,1.3742e-05,0.075524,8.962e-06,-35.836,-3.6851e-05,-380.06,2.0316
20590,22.179,3.0909,0.05,9.3225e-07,9.3161,7.1585e-07,5.3786,-6.0587e-13,-3.2423e-06,-7.1585e-07,-5.3786,2.0185
20591,22.179,3.3636,0,3.8237e-05,382.1,1.4569e-05,0.075302,9.1925e-06,-40.319,-3.8761e-05,-400.62,2.0185
20592,22.271,3.2727,0,3.6336e-05,363.11,1.3675e-05,0.075641,9.0457e-06,-34.706,-3.68e-05,-379.17,2.0316
20593,22.179,3.2727,0.05,9.2587e-07,9.2523,7.1095e-07,5.3418,-5.8916e-13,-2.247e-06,-7.1095e-07,-5.3418,2.0185
20594,22.179,3.5455,0,3.8115e-05,380.89,1.4391e-05,0.075443,9.404e-06,-37.395,-3.8612e-05,-398.17,2.0185
20595,22.271,3.4545,0,3.6258e-05,362.33,1.3545e-05,0.075961,9.21e-06,-32.493,-3.6699e-05,-377.44,2.0316
20596,22.179,3.4545,0.05,9.1332e-07,9.1269,7.0131e-07,5.2694,-8.2865e-13,-3.4365e-06,-7.0131e-07,-5.2694,2.0185
20597,22.179,3.7273,0,3.7957e-05,379.31,1.4153e-05,0.07592,9.6892e-06,-33.462,-3.8413e-05,-394.89,2.0185
20598,22.271,3.6364,0,3.6147e-05,361.22,1.3356e-05,0.076654,9.4481e-06,-29.287,-3.6555e-05,-374.93,2.0315
20599,22.179,3.6364,0.05,8.9498e-07,8.9436,6.8723e-07,5.1636,-7.7675e-13,-2.5657e-06,-6.8723e-07,-5.1636,2.0185
20600,22.179,3.9091,0,3.777e-05,377.44,1.3864e-05,0.076948,1.0036e-05,-28.688,-3.8174e-05,-390.92,2.0184
20601,22.271,3.8182,0,3.6011e-05,359.86,1.3118e-05,0.077949,9.7496e-06,-25.229,-3.6372e-05,-371.77,2.0315
20602,22.179,3.8182,0.05,8.7139e-07,8.7078,6.6912e-07,5.0275,-6.6273e-13,-2.3114e-06,-6.6911e-07,-5.0275,2.0184
20603,22.179,4.0909,0,3.7563e-05,375.38,1.3538e-05,0.078801,1.0428e-05,-23.289,-3.7904e-05,-386.43,2.0184
20604,22.271,4,0,3.5854e-05,358.3,1.284e-05,0.080204,1.01e-05,-20.508,-3.6158e-05,-368.07,2.0315
20605,22.179,4,0.05,8.432e-07,8.4262,6.4747e-07,4.8649,-8.0754e-13,-3.2854e-06,-6.4747e-07,-4.8649,2.0184
20606,22.179,4.2727,0,3.7344e-05,373.18,1.3188e-05,0.081987,1.0845e-05,-17.522,-3.7609e-05,-381.59,2.0184
20607,22.271,4.1818,0,3.5683e-05,356.59,1.2535e-05,0.084123,1.048e-05,-15.356,-3.5918e-05,-363.97,2.0314
20608,22.179,4.1818,0.05,8.1119e-07,8.1063,6.2289e-07,4.6802,-8.8182e-13,-5.1903e-06,-6.2289e-07,-4.6802,2.0184
20609,22.179,4.4545,0,3.7116e-05,370.91,1.2829e-05,0.088041,1.1264e-05,-11.677,-3.7299e-05,-376.56,2.0183
20610,22.271,4.3636,0,3.55e-05,354.76,1.2216e-05,0.091883,1.0868e-05,-10.038,-3.5659e-05,-359.62,2.0314
20611,22.179,4.3636,0.05,7.7625e-07,7.7571,5.9606e-07,4.4786,-7.4756e-13,-3.0772e-06,-5.9606e-07,-4.4786,2.0183
20612,22.179,4.6364,0,3.6884e-05,368.59,1.2479e-05,0.10425,1.166e-05,-6.0525,-3.6982e-05,-371.52,2.0183
20613,22.271,4.5455,0,3.5308e-05,352.84,1.19e-05,0.11473,1.124e-05,-4.8429,-3.5386e-05,-355.18,2.0314
20614,22.179,4.5455,0.05,7.3943e-07,7.3892,5.6779e-07,4.2661,-6.0528e-13,-4.3197e-06,-5.6779e-07,-4.2661,2.0183
20615,22.179,4.8182,0,3.6651e-05,366.26,1.2169e-05,0.25777,1.1994e-05,-1.0577,-3.6664e-05,-366.66,2.0182
20616,22.271,4.7273,0,3.5107e-05,350.83,1.165e-05,0.52188,1.1525e-05,-0.41544,-3.5106e-05,-350.78,2.0313
20617,22.179,4.7273,0.05,7.0197e-07,7.0148,5.3902e-07,4.05,-5.7916e-13,-2.0586e-06,-5.3902e-07,-4.05,2.0182
20618,22.179,5,0,3.6421e-05,363.96,1.232e-05,3.6079,1.184e-05,0.0044509,-3.6358e-05,-362.14,2.0181
20619,22.271,4.9091,0,3.4901e-05,348.77,1.1875e-05,4.2954,1.1305e-05,0.015112,-3.4825e-05,-346.59,2.0312
20620,22.179,4.9091,0.05,6.653e-07,6.6484,5.1087e-07,3.8385,-5.3762e-13,-1.5484e-06,-5.1087e-07,-3.8385,2.0181
20621,22.179,5.1818,0,3.62e-05,361.75,1.2534e-05,7.0713,1.1596e-05,0.028743,-3.6074e-05,-358.15,2.018
20622,22.271,5.0909,0,3.4692e-05,346.68,1.2084e-05,7.6506,1.107e-05,0.034043,-3.4555e-05,-342.78,2.0312
20623,22.179,5.0909,0.05,6.3104e-07,6.306,4.8456e-07,3.6408,-4.4802e-13,-2.2356e-06,-4.8456e-07,-3.6408,2.0181
20624,22.179,5.3636,0,3.6e-05,359.75,1.2671e-05,9.5199,1.1408e-05,0.028705,-3.5828e-05,-354.88,2.018
20625,22.271,5.2727,0,3.449e-05,344.67,1.2217e-05,10.061,1.0883e-05,0.033397,-3.4308e-05,-339.51,2.0311
20626,22.179,5.2727,0.05,6.0078e-07,6.0036,4.6132e-07,3.4662,1.4025e-13,1.0421e-06,-4.6132e-07,-3.4662,2.018
20627,22.179,5.5455,0,3.584e-05,358.15,1.2735e-05,10.922,1.1283e-05,0.01236,-3.5642e-05,-352.56,2.0179
20628,22.271,5.4545,0,3.431e-05,342.87,1.2274e-05,11.466,1.0752e-05,0.02691,-3.41e-05,-336.98,2.031
20629,22.179,5.4545,0.05,5.7515e-07,5.7475,4.4164e-07,3.3183,2.997e-13,3.1477e-06,-4.4164e-07,-3.3183,2.0179
20630,22.179,5.7273,0,3.5814e-05,357.9,1.2801e-05,11.808,1.1228e-05,-0.0067812,-3.5599e-05,-351.85,2.0178
20631,22.271,5.6364,0,3.4179e-05,341.56,1.2272e-05,11.94,1.0682e-05,-0.0036104,-3.3961e-05,-335.43,2.0309
20632,22.179,5.6364,0.05,5.4048e-07,5.4011,4.1502e-07,3.1183,9.0841e-13,6.3687e-06,-4.1503e-07,-3.1183,2.0178
20633,22.271,5.8182,0,3.4277e-05,342.53,1.236e-05,12.61,1.068e-05,-0.0072225,-3.4045e-05,-336.06,2.0308
20634,22.179,5.8182,0.05,2.6901e-07,2.6882,2.0656e-07,1.552,8.9825e-13,6.3008e-06,-2.0656e-07,-1.552,2.0177
20635,22.179,5.9091,0,3.5346e-05,353.21,1.2368e-05,8.4665,1.1245e-05,0.028737,-3.5194e-05,-348.89,2.0176
20636,22.362,0.27273,0,3.2615e-05,325.92,1.1807e-05,12.566,1.0134e-05,-0.010242,-3.2383e-05,-319.46,2.0439
20637,22.453,0.18182,0,3.1018e-05,309.96,1.133e-05,13.169,9.5756e-06,-0.01172,-3.0773e-05,-303.17,2.0569
20638,22.362,0.18182,0.05,3.0903e-07,3.0881,2.3729e-07,1.7829,2.5585e-14,6.4245e-06,-2.3729e-07,-1.7829,2.0438
20639,22.362,0.090909,0,3.2151e-05,321.29,1.1341e-05,8.8057,1.0173e-05,0.027639,-3.1992e-05,-316.79,2.0438
20640,22.362,0.45455,0,3.2638e-05,326.16,1.1801e-05,12.406,1.0151e-05,0.012299,-3.2409e-05,-319.77,2.044
20641,22.453,0.36364,0,3.0927e-05,309.06,1.1299e-05,13.165,9.5464e-06,-0.0065182,-3.0682e-05,-302.27,2.057
20642,22.362,0.36364,0.05,5.6917e-07,5.6878,4.3705e-07,3.2838,5.7131e-13,9.3024e-06,-4.3705e-07,-3.2838,2.044
20643,22.362,0.63636,0,3.2792e-05,327.7,1.1813e-05,11.947,1.0227e-05,0.032968,-3.2572e-05,-321.54,2.0441
20644,22.453,0.54545,0,3.1067e-05,310.45,1.1379e-05,13.593,9.5738e-06,0.02906,-3.0813e-05,-303.42,2.0571
20645,22.362,0.54545,0.05,6.0008e-07,5.9967,4.6079e-07,3.4622,8.7983e-13,1.1291e-05,-4.6079e-07,-3.4622,2.044
20646,22.362,0.81818,0,3.2976e-05,329.53,1.1761e-05,10.594,1.0356e-05,0.039473,-3.2783e-05,-324.09,2.0442
20647,22.453,0.72727,0,3.1248e-05,312.27,1.141e-05,13.25,9.652e-06,0.03884,-3.1001e-05,-305.41,2.0572
20648,22.362,0.72727,0.05,6.2119e-07,6.2076,4.77e-07,3.584,1.0849e-12,1.0449e-05,-4.77e-07,-3.584,2.0441
20649,22.362,1,0,3.3168e-05,331.45,1.1635e-05,8.3087,1.0535e-05,0.040035,-3.3018e-05,-327.2,2.0443
20650,22.453,0.90909,0,3.144e-05,314.18,1.137e-05,12.001,9.7788e-06,0.045511,-3.1218e-05,-307.99,2.0573
20651,22.362,0.90909,0.05,6.4595e-07,6.4551,4.9601e-07,3.7268,9.4458e-13,1.1581e-05,-4.9601e-07,-3.7268,2.0442
20652,22.362,1.1818,0,3.3355e-05,333.32,1.1436e-05,5.1649,1.0752e-05,0.027686,-3.3263e-05,-330.69,2.0443
20653,22.453,1.0909,0,3.1624e-05,316.02,1.1253e-05,9.8476,9.9482e-06,0.045957,-3.1444e-05,-310.96,2.0574
20654,22.362,1.0909,0.05,6.7407e-07,6.7361,5.176e-07,3.8891,7.2936e-13,1.0255e-05,-5.176e-07,-3.8891,2.0443
20655,22.362,1.3636,0,3.353e-05,335.07,1.1186e-05,1.3966,1.0989e-05,-0.086495,-3.3508e-05,-334.41,2.0444
20656,22.453,1.2727,0,3.1792e-05,317.7,1.1063e-05,6.8854,1.0152e-05,0.038984,-3.1669e-05,-314.18,2.0574
20657,22.362,1.2727,0.05,7.0426e-07,7.0377,5.4078e-07,4.0632,3.7981e-13,6.3062e-06,-5.4078e-07,-4.0632,2.0444
20658,22.362,1.5455,0,3.3693e-05,336.69,1.1289e-05,0.13331,1.0842e-05,-3.229,-3.3744e-05,-338.23,2.0445
20659,22.453,1.4545,0,3.1941e-05,319.19,1.0815e-05,3.2968,1.0377e-05,0.0058051,-3.1883e-05,-317.52,2.0575
20660,22.362,1.4545,0.05,7.3517e-07,7.3467,5.6452e-07,4.2416,1.2369e-13,4.6887e-06,-5.6452e-07,-4.2416,2.0444
20661,22.362,1.7273,0,3.3841e-05,338.18,1.1564e-05,0.09633,1.0502e-05,-7.8794,-3.3967e-05,-342,2.0445
20662,22.453,1.6364,0,3.2071e-05,320.48,1.0656e-05,0.26162,1.0485e-05,-1.0195,-3.2083e-05,-320.86,2.0576
20663,22.362,1.6364,0.05,7.656e-07,7.6507,5.8788e-07,4.4171,1.8653e-13,4.5393e-06,-5.8788e-07,-4.4171,2.0445
20664,22.362,1.9091,0,3.3977e-05,339.53,1.1837e-05,0.086177,1.0151e-05,-12.579,-3.4171e-05,-345.6,2.0445
20665,22.453,1.8182,0,3.2184e-05,321.61,1.0883e-05,0.11006,1.0186e-05,-5.1246,-3.2266e-05,-324.09,2.0576
20666,22.362,1.8182,0.05,7.9446e-07,7.9392,6.1005e-07,4.5837,3.849e-14,3.0144e-06,-6.1005e-07,-4.5837,2.0445
20667,22.362,2.0909,0,3.4098e-05,340.75,1.2093e-05,0.081403,9.813e-06,-17.051,-3.4355e-05,-348.91,2.0446
20668,22.453,2,0,3.2282e-05,322.6,1.1118e-05,0.09155,9.8674e-06,-9.3086,-3.2429e-05,-327.1,2.0576
20669,22.362,2,0.05,8.2087e-07,8.2031,6.3033e-07,4.736,6.5798e-14,2.1224e-06,-6.3033e-07,-4.736,2.0445
20670,22.362,2.2727,0,3.4205e-05,341.82,1.2321e-05,0.078714,9.5084e-06,-21.054,-3.4513e-05,-351.81,2.0446
20671,22.453,2.1818,0,3.2367e-05,323.45,1.1336e-05,0.084439,9.5664e-06,-13.21,-3.257e-05,-329.81,2.0577
20672,22.362,2.1818,0.05,8.4407e-07,8.4349,6.4814e-07,4.8699,1.2544e-13,1.5348e-06,-6.4814e-07,-4.8699,2.0446
20673,22.362,2.4545,0,3.4294e-05,342.7,1.251e-05,0.077129,9.254e-06,-24.385,-3.4642e-05,-354.2,2.0446
20674,22.453,2.3636,0,3.2438e-05,324.16,1.1523e-05,0.080788,9.3026e-06,-16.605,-3.2687e-05,-332.1,2.0577
20675,22.362,2.3636,0.05,8.6342e-07,8.6283,6.63e-07,4.9815,-1.1856e-13,1.0579e-06,-6.63e-07,-4.9815,2.0446
20676,22.362,2.6364,0,3.4361e-05,343.38,1.2651e-05,0.076224,9.0632e-06,-26.88,-3.4738e-05,-355.98,2.0446
20677,22.453,2.5455,0,3.2495e-05,324.72,1.1672e-05,0.078742,9.0913e-06,-19.312,-3.2778e-05,-333.91,2.0577
20678,22.362,2.5455,0.05,8.7842e-07,8.7781,6.7452e-07,5.068,-3.368e-13,1.0199e-06,-6.7451e-07,-5.068,2.0446
20679,22.362,2.8182,0,3.4403e-05,343.8,1.2738e-05,0.075767,8.945e-06,-28.424,-3.4797e-05,-357.08,2.0446
20680,22.453,2.7273,0,3.2534e-05,325.11,1.1775e-05,0.07762,8.9441e-06,-21.194,-3.2841e-05,-335.15,2.0577
20681,22.362,2.7273,0.05,8.8865e-07,8.8804,6.8237e-07,5.1271,-4.3005e-13,-8.0192e-07,-6.8237e-07,-5.1271,2.0446
20682,22.362,3,0,3.4418e-05,343.94,1.2768e-05,0.07563,8.905e-06,-28.946,-3.4817e-05,-357.46,2.0446
20683,22.453,2.9091,0,3.2554e-05,325.32,1.1828e-05,0.077126,8.8687e-06,-22.159,-3.2873e-05,-335.79,2.0577
20684,22.362,2.9091,0.05,8.9384e-07,8.9323,6.8636e-07,5.157,-5.1977e-13,-1.1489e-08,-6.8636e-07,-5.157,2.0446
20685,22.362,3.1818,0,3.4403e-05,343.8,1.2738e-05,0.075768,8.945e-06,-28.424,-3.4797e-05,-357.08,2.0446
20686,22.453,3.0909,0,3.2554e-05,325.32,1.1828e-05,0.077124,8.8687e-06,-22.159,-3.2873e-05,-335.79,2.0577
20687,22.362,3.0909,0.05,8.9384e-07,8.9323,6.8636e-07,5.157,-6.212e-13,-1.4493e-06,-6.8636e-07,-5.157,2.0446
20688,22.362,3.3636,0,3.4361e-05,343.38,1.2651e-05,0.076225,9.0632e-06,-26.88,-3.4738e-05,-355.98,2.0446
20689,22.453,3.2727,0,3.2534e-05,325.11,1.1775e-05,0.077621,8.9441e-06,-21.194,-3.2841e-05,-335.15,2.0577
20690,22.362,3.2727,0.05,8.8865e-07,8.8804,6.8237e-07,5.1271,-5.1425e-13,-6.4938e-07,-6.8237e-07,-5.1271,2.0446
20691,22.362,3.5455,0,3.4294e-05,342.7,1.251e-05,0.07713,9.254e-06,-24.385,-3.4642e-05,-354.2,2.0446
20692,22.453,3.4545,0,3.2495e-05,324.72,1.1672e-05,0.078741,9.0913e-06,-19.312,-3.2778e-05,-333.91,2.0577
20693,22.362,3.4545,0.05,8.7842e-07,8.7781,6.7452e-07,5.0681,-6.6152e-13,-1.2505e-06,-6.7451e-07,-5.068,2.0446
20694,22.362,3.7273,0,3.4205e-05,341.82,1.2321e-05,0.078714,9.5084e-06,-21.054,-3.4513e-05,-351.81,2.0446
20695,22.453,3.6364,0,3.2438e-05,324.16,1.1523e-05,0.080789,9.3026e-06,-16.605,-3.2687e-05,-332.1,2.0577
20696,22.362,3.6364,0.05,8.6342e-07,8.6283,6.63e-07,4.9815,-5.0558e-13,-6.9169e-07,-6.63e-07,-4.9815,2.0446
20697,22.362,3.9091,0,3.4098e-05,340.75,1.2093e-05,0.081403,9.813e-06,-17.051,-3.4355e-05,-348.91,2.0446
20698,22.453,3.8182,0,3.2367e-05,323.45,1.1336e-05,0.084438,9.5664e-06,-13.21,-3.257e-05,-329.81,2.0577
20699,22.362,3.8182,0.05,8.4407e-07,8.4349,6.4814e-07,4.8699,-6.219e-13,-4.3644e-07,-6.4814e-07,-4.8699,2.0446
20700,22.362,4.0909,0,3.3977e-05,339.53,1.1837e-05,0.086178,1.0151e-05,-12.579,-3.4171e-05,-345.6,2.0445
20701,22.453,4,0,3.2282e-05,322.6,1.1118e-05,0.091551,9.8674e-06,-9.3086,-3.2429e-05,-327.1,2.0576
20702,22.362,4,0.05,8.2087e-07,8.2031,6.3033e-07,4.736,-6.3408e-13,-1.4233e-06,-6.3033e-07,-4.736,2.0445
20703,22.362,4.2727,0,3.3841e-05,338.18,1.1564e-05,0.09633,1.0502e-05,-7.8794,-3.3966e-05,-342,2.0445
20704,22.453,4.1818,0,3.2184e-05,321.61,1.0883e-05,0.11006,1.0186e-05,-5.1245,-3.2266e-05,-324.09,2.0576
20705,22.362,4.1818,0.05,7.9446e-07,7.9392,6.1005e-07,4.5837,-6.8905e-13,-2.6805e-06,-6.1005e-07,-4.5837,2.0445
20706,22.362,4.4545,0,3.3693e-05,336.69,1.1289e-05,0.13331,1.0842e-05,-3.2289,-3.3744e-05,-338.23,2.0445
20707,22.453,4.3636,0,3.2071e-05,320.48,1.0656e-05,0.26163,1.0485e-05,-1.0194,-3.2083e-05,-320.86,2.0576
20708,22.362,4.3636,0.05,7.656e-07,7.6507,5.8788e-07,4.4171,-5.2469e-13,-2.8604e-07,-5.8788e-07,-4.4171,2.0445
20709,22.362,4.6364,0,3.353e-05,335.07,1.1186e-05,1.3967,1.0988e-05,-0.086491,-3.3508e-05,-334.41,2.0444
20710,22.453,4.5455,0,3.1941e-05,319.19,1.0815e-05,3.2968,1.0377e-05,0.0058055,-3.1883e-05,-317.52,2.0575
20711,22.362,4.5455,0.05,7.3517e-07,7.3467,5.6452e-07,4.2416,-3.5861e-13,-1.823e-06,-5.6452e-07,-4.2416,2.0444
20712,22.362,4.8182,0,3.3355e-05,333.32,1.1436e-05,5.165,1.0752e-05,0.027686,-3.3263e-05,-330.69,2.0443
20713,22.453,4.7273,0,3.1792e-05,317.7,1.1063e-05,6.8854,1.0152e-05,0.038984,-3.1669e-05,-314.18,2.0574
20714,22.362,4.7273,0.05,7.0426e-07,7.0377,5.4078e-07,4.0632,-4.1042e-13,8.0784e-08,-5.4078e-07,-4.0632,2.0444
20715,22.362,5,0,3.3168e-05,331.45,1.1635e-05,8.3087,1.0535e-05,0.040034,-3.3018e-05,-327.2,2.0443
20716,22.453,4.9091,0,3.1624e-05,316.02,1.1253e-05,9.8477,9.9482e-06,0.045956,-3.1444e-05,-310.96,2.0574
20717,22.362,4.9091,0.05,6.7407e-07,6.7361,5.176e-07,3.8891,-2.2396e-13,1.2896e-06,-5.176e-07,-3.8891,2.0443
20718,22.362,5.1818,0,3.2976e-05,329.53,1.1761e-05,10.594,1.0356e-05,0.039472,-3.2783e-05,-324.09,2.0442
20719,22.453,5.0909,0,3.144e-05,314.18,1.137e-05,12.001,9.7788e-06,0.045509,-3.1218e-05,-307.99,2.0573
20720,22.362,5.0909,0.05,6.4595e-07,6.4551,4.9601e-07,3.7268,-2.4835e-13,3.8349e-07,-4.9601e-07,-3.7268,2.0442
20721,22.362,5.3636,0,3.2792e-05,327.7,1.1813e-05,11.947,1.0227e-05,0.032967,-3.2572e-05,-321.54,2.0441
20722,22.453,5.2727,0,3.1248e-05,312.27,1.141e-05,13.25,9.652e-06,0.03884,-3.1001e-05,-305.41,2.0572
20723,22.362,5.2727,0.05,6.2119e-07,6.2076,4.77e-07,3.584,9.3994e-14,3.4736e-06,-4.77e-07,-3.584,2.0441
20724,22.362,5.5455,0,3.2638e-05,326.16,1.1801e-05,12.406,1.0151e-05,0.012299,-3.2409e-05,-319.77,2.044
20725,22.453,5.4545,0,3.1067e-05,310.45,1.1379e-05,13.593,9.5738e-06,0.029059,-3.0813e-05,-303.42,2.0571
20726,22.362,5.4545,0.05,6.0008e-07,5.9967,4.6079e-07,3.4622,4.5457e-13,5.143e-06,-4.6079e-07,-3.4622,2.044
20727,22.362,5.7273,0,3.2615e-05,325.92,1.1807e-05,12.566,1.0134e-05,-0.010241,-3.2383e-05,-319.46,2.0439
20728,22.453,5.6364,0,3.0927e-05,309.06,1.1299e-05,13.165,9.5464e-06,-0.0065164,-3.0682e-05,-302.27,2.057
20729,22.362,5.6364,0.05,5.6917e-07,5.6878,4.3705e-07,3.2838,7.8905e-13,7.9568e-06,-4.3705e-07,-3.2838,2.044
20730,22.453,5.8182,0,3.1018e-05,309.96,1.133e-05,13.169,9.5756e-06,-0.011719,-3.0773e-05,-303.17,2.0569
20731,22.362,5.8182,0.05,3.0903e-07,3.0881,2.3729e-07,1.7829,8.5124e-13,7.4353e-06,-2.3729e-07,-1.7829,2.0438
20732,22.362,5.9091,0,3.2151e-05,321.29,1.1341e-05,8.8058,1.0173e-05,0.027638,-3.1992e-05,-316.79,2.0438
20733,22.544,0.27273,0,2.93e-05,292.8,1.0796e-05,13.572,8.9876e-06,-0.014897,-2.9045e-05,-285.78,2.0701
20734,22.635,0.18182,0,2.7649e-05,276.3,1.0277e-05,13.893,8.4258e-06,-0.017823,-2.7387e-05,-269.1,2.0831
20735,22.544,0.18182,0.05,3.4403e-07,3.4379,2.6417e-07,1.9849,8.1105e-13,8.3658e-06,-2.6417e-07,-1.9849,2.07
20736,22.544,0.090909,0,2.8824e-05,288.04,1.028e-05,9.249,9.0526e-06,0.028161,-2.8655e-05,-283.3,2.07
20737,22.544,0.45455,0,2.9343e-05,293.23,1.0866e-05,14.264,8.9691e-06,0.011846,-2.9074e-05,-285.83,2.0702
20738,22.635,0.36364,0,2.7587e-05,275.68,1.0324e-05,14.712,8.3644e-06,-0.0099758,-2.7307e-05,-268.03,2.0832
20739,22.544,0.36364,0.05,5.9205e-07,5.9164,4.5462e-07,3.4158,6.1857e-13,9.4078e-06,-4.5462e-07,-3.4158,2.0701
20740,22.544,0.63636,0,2.9514e-05,294.94,1.0968e-05,14.83,8.999e-06,0.036427,-2.9234e-05,-287.23,2.0703
20741,22.635,0.54545,0,2.7758e-05,277.39,1.0497e-05,16.159,8.3508e-06,0.031665,-2.7447e-05,-268.94,2.0833
20742,22.544,0.54545,0.05,6.2006e-07,6.1963,4.7613e-07,3.5775,9.2694e-13,1.0369e-05,-4.7613e-07,-3.5774,2.0702
20743,22.544,0.81818,0,2.9706e-05,296.86,1.1012e-05,14.607,9.0745e-06,0.045914,-2.943e-05,-289.26,2.0704
20744,22.635,0.72727,0,2.7964e-05,279.45,1.0629e-05,16.941,8.3799e-06,0.043779,-2.7637e-05,-270.57,2.0834
20745,22.544,0.72727,0.05,6.3784e-07,6.374,4.8978e-07,3.68,1.2313e-12,1.1055e-05,-4.8978e-07,-3.68,2.0703
20746,22.544,1,0,2.9893e-05,298.72,1.0983e-05,13.504,9.1924e-06,0.051463,-2.9639e-05,-291.71,2.0704
20747,22.635,0.90909,0,2.8167e-05,281.47,1.0689e-05,16.865,8.4517e-06,0.053179,-2.7841e-05,-272.64,2.0835
20748,22.544,0.90909,0.05,6.5845e-07,6.5799,5.056e-07,3.7989,1.0808e-12,9.9245e-06,-5.056e-07,-3.7989,2.0704
20749,22.544,1.1818,0,3.006e-05,300.39,1.0877e-05,11.548,9.3467e-06,0.052583,-2.9846e-05,-294.43,2.0705
20750,22.635,1.0909,0,2.8348e-05,283.28,1.0669e-05,15.89,8.5616e-06,0.057498,-2.8043e-05,-274.98,2.0836
20751,22.544,1.0909,0.05,6.818e-07,6.8133,5.2354e-07,3.9337,8.6474e-13,8.0767e-06,-5.2354e-07,-3.9337,2.0705
20752,22.544,1.3636,0,3.0203e-05,301.82,1.0701e-05,8.8505,9.5295e-06,0.049384,-3.0042e-05,-297.27,2.0706
20753,22.635,1.2727,0,2.8498e-05,284.79,1.0569e-05,14.079,8.7035e-06,0.058996,-2.8232e-05,-277.46,2.0836
20754,22.544,1.2727,0.05,7.0685e-07,7.0636,5.4277e-07,4.0782,5.4724e-13,5.4304e-06,-5.4277e-07,-4.0782,2.0705
20755,22.544,1.5455,0,3.0321e-05,303,1.047e-05,5.5917,9.7307e-06,0.037726,-3.0221e-05,-300.14,2.0706
20756,22.635,1.4545,0,2.8617e-05,285.97,1.0402e-05,11.574,8.8694e-06,0.05791,-2.8402e-05,-279.98,2.0837
20757,22.544,1.4545,0.05,7.3248e-07,7.3197,5.6245e-07,4.2261,5.7228e-13,4.256e-06,-5.6245e-07,-4.2261,2.0706
20758,22.544,1.7273,0,3.0416e-05,303.95,1.0208e-05,2.0259,9.935e-06,-0.021855,-3.0382e-05,-302.95,2.0707
20759,22.635,1.6364,0,2.8707e-05,286.87,1.0183e-05,8.5689,9.0502e-06,0.05386,-2.8551e-05,-282.46,2.0837
20760,22.544,1.6364,0.05,7.5768e-07,7.5715,5.818e-07,4.3714,3.9654e-13,3.5502e-06,-5.818e-07,-4.3714,2.0706
20761,22.544,1.9091,0,3.0493e-05,304.72,1.017e-05,0.16052,9.8957e-06,-1.9027,-3.0523e-05,-305.59,2.0707
20762,22.635,1.8182,0,2.8773e-05,287.53,9.9336e-06,5.2881,9.2356e-06,0.043499,-2.8679e-05,-284.83,2.0838
20763,22.544,1.8182,0.05,7.8155e-07,7.8101,6.0013e-07,4.5091,4.3355e-14,2.3065e-06,-6.0013e-07,-4.5091,2.0707
20764,22.544,2.0909,0,3.0556e-05,305.35,1.0362e-05,0.10113,9.6196e-06,-5.4758,-3.0644e-05,-308,2.0707
20765,22.635,2,0,2.8821e-05,288.01,9.6771e-06,1.9906,9.412e-06,-0.0012212,-2.8787e-05,-287.01,2.0838
20766,22.544,2,0.05,8.0333e-07,8.0278,6.1686e-07,4.6348,5.0739e-14,2.0808e-06,-6.1686e-07,-4.6348,2.0707
20767,22.544,2.2727,0,3.0606e-05,305.85,1.0538e-05,0.088432,9.3602e-06,-8.763,-3.0744e-05,-310.09,2.0708
20768,22.635,2.1818,0,2.8856e-05,288.36,9.6025e-06,0.16274,9.4019e-06,-1.3439,-2.8876e-05,-288.95,2.0838
20769,22.544,2.1818,0.05,8.2242e-07,8.2185,6.3151e-07,4.745,8.8071e-14,1.2921e-06,-6.3151e-07,-4.7449,2.0707
20770,22.544,2.4545,0,3.0645e-05,306.24,1.0686e-05,0.083074,9.1397e-06,-11.533,-3.0824e-05,-311.8,2.0708
20771,22.635,2.3636,0,2.8881e-05,288.61,9.7403e-06,0.099523,9.1843e-06,-4.0778,-2.8946e-05,-290.58,2.0839
20772,22.544,2.3636,0.05,8.3829e-07,8.3771,6.4371e-07,4.8365,-1.9032e-13,2.0676e-07,-6.437e-07,-4.8365,2.0708
20773,22.544,2.6364,0,3.0674e-05,306.53,1.0797e-05,0.080361,8.9722e-06,-13.627,-3.0882e-05,-313.07,2.0708
20774,22.635,2.5455,0,2.8899e-05,288.79,9.8553e-06,0.087711,9.0025e-06,-6.3193,-2.9e-05,-291.85,2.0839
20775,22.544,2.5455,0.05,8.5056e-07,8.4997,6.5312e-07,4.9073,-2.2665e-13,-1.5982e-07,-6.5312e-07,-4.9073,2.0708
20776,22.544,2.8182,0,3.0692e-05,306.7,1.0865e-05,0.079025,8.8678e-06,-14.929,-3.0917e-05,-313.85,2.0708
20777,22.635,2.7273,0,2.8911e-05,288.91,9.9357e-06,0.083258,8.8743e-06,-7.8921,-2.9035e-05,-292.73,2.0839
20778,22.544,2.7273,0.05,8.5891e-07,8.5832,6.5954e-07,4.9555,-3.634e-13,-1.7383e-06,-6.5954e-07,-4.9555,2.0708
20779,22.544,3,0,3.0698e-05,306.76,1.0889e-05,0.078619,8.8323e-06,-15.371,-3.0929e-05,-314.12,2.0708
20780,22.635,2.9091,0,2.8917e-05,288.97,9.977e-06,0.081555,8.808e-06,-8.7017,-2.9053e-05,-293.18,2.0839
20781,22.544,2.9091,0.05,8.6314e-07,8.6254,6.6278e-07,4.9799,-3.844e-13,-1.6365e-06,-6.6278e-07,-4.9799,2.0708
20782,22.544,3.1818,0,3.0692e-05,306.7,1.0865e-05,0.079025,8.8678e-06,-14.929,-3.0917e-05,-313.85,2.0708
20783,22.635,3.0909,0,2.8917e-05,288.97,9.977e-06,0.081554,8.808e-06,-8.7017,-2.9053e-05,-293.18,2.0839
20784,22.544,3.0909,0.05,8.6314e-07,8.6254,6.6278e-07,4.9799,-5.2827e-13,-2.7973e-06,-6.6278e-07,-4.9799,2.0708
20785,22.544,3.3636,0,3.0674e-05,306.53,1.0797e-05,0.080361,8.9722e-06,-13.627,-3.0882e-05,-313.07,2.0708
20786,22.635,3.2727,0,2.8911e-05,288.91,9.9357e-06,0.083258,8.8742e-06,-7.8921,-2.9035e-05,-292.73,2.0839
20787,22.544,3.2727,0.05,8.5891e-07,8.5832,6.5954e-07,4.9555,-5.7489e-13,-2.7665e-06,-6.5954e-07,-4.9555,2.0708
20788,22.544,3.5455,0,3.0645e-05,306.24,1.0686e-05,0.083073,9.1397e-06,-11.533,-3.0824e-05,-311.8,2.0708
20789,22.635,3.4545,0,2.8899e-05,288.79,9.8553e-06,0.08771,9.0025e-06,-6.3193,-2.9e-05,-291.85,2.0839
20790,22.544,3.4545,0.05,8.5056e-07,8.4997,6.5312e-07,4.9073,-4.1503e-13,-3.2556e-06,-6.5312e-07,-4.9073,2.0708
20791,22.544,3.7273,0,3.0606e-05,305.85,1.0538e-05,0.088432,9.3603e-06,-8.7629,-3.0744e-05,-310.09,2.0708
20792,22.635,3.6364,0,2.8881e-05,288.61,9.7403e-06,0.099524,9.1843e-06,-4.0778,-2.8946e-05,-290.58,2.0839
20793,22.544,3.6364,0.05,8.3829e-07,8.3771,6.4371e-07,4.8366,-5.088e-13,-2.842e-06,-6.437e-07,-4.8365,2.0708
20794,22.544,3.9091,0,3.0556e-05,305.35,1.0362e-05,0.10113,9.6196e-06,-5.4758,-3.0643e-05,-308,2.0707
20795,22.635,3.8182,0,2.8856e-05,288.36,9.6025e-06,0.16274,9.4019e-06,-1.3439,-2.8876e-05,-288.95,2.0838
20796,22.544,3.8182,0.05,8.2242e-07,8.2185,6.3151e-07,4.745,-6.3032e-13,-2.5795e-06,-6.3151e-07,-4.7449,2.0707
20797,22.544,4.0909,0,3.0493e-05,304.72,1.017e-05,0.16052,9.8957e-06,-1.9026,-3.0523e-05,-305.59,2.0707
20798,22.635,4,0,2.8821e-05,288.01,9.6771e-06,1.9906,9.412e-06,-0.001221,-2.8787e-05,-287.01,2.0838
20799,22.544,4,0.05,8.0333e-07,8.0278,6.1686e-07,4.6349,-5.3983e-13,-3.2868e-06,-6.1686e-07,-4.6348,2.0707
20800,22.544,4.2727,0,3.0416e-05,303.95,1.0208e-05,2.0259,9.935e-06,-0.021853,-3.0382e-05,-302.95,2.0707
20801,22.635,4.1818,0,2.8773e-05,287.53,9.9336e-06,5.2881,9.2355e-06,0.043497,-2.8679e-05,-284.83,2.0838
20802,22.544,4.1818,0.05,7.8155e-07,7.8101,6.0013e-07,4.5091,-7.0033e-13,-4.3087e-06,-6.0013e-07,-4.5091,2.0707
20803,22.544,4.4545,0,3.0321e-05,303,1.047e-05,5.5917,9.7307e-06,0.037726,-3.0221e-05,-300.14,2.0706
20804,22.635,4.3636,0,2.8707e-05,286.87,1.0183e-05,8.5689,9.0502e-06,0.05386,-2.8551e-05,-282.46,2.0837
20805,22.544,4.3636,0.05,7.5768e-07,7.5715,5.818e-07,4.3714,-4.0317e-13,-2.0654e-06,-5.818e-07,-4.3714,2.0706
20806,22.544,4.6364,0,3.0203e-05,301.82,1.0701e-05,8.8505,9.5295e-06,0.049386,-3.0042e-05,-297.27,2.0706
20807,22.635,4.5455,0,2.8617e-05,285.97,1.0402e-05,11.574,8.8694e-06,0.05791,-2.8402e-05,-279.98,2.0837
20808,22.544,4.5455,0.05,7.3248e-07,7.3197,5.6245e-07,4.2261,-4.3754e-13,-3.2584e-06,-5.6245e-07,-4.2261,2.0706
20809,22.544,4.8182,0,3.006e-05,300.39,1.0877e-05,11.548,9.3467e-06,0.052583,-2.9846e-05,-294.43,2.0705
20810,22.635,4.7273,0,2.8498e-05,284.79,1.0569e-05,14.079,8.7035e-06,0.058996,-2.8232e-05,-277.46,2.0836
20811,22.544,4.7273,0.05,7.0685e-07,7.0636,5.4277e-07,4.0782,-2.4322e-13,-1.3913e-06,-5.4277e-07,-4.0782,2.0705
20812,22.544,5,0,2.9893e-05,298.72,1.0983e-05,13.504,9.1924e-06,0.051461,-2.9639e-05,-291.71,2.0704
20813,22.635,4.9091,0,2.8348e-05,283.28,1.0669e-05,15.89,8.5616e-06,0.057497,-2.8043e-05,-274.98,2.0836
20814,22.544,4.9091,0.05,6.818e-07,6.8133,5.2354e-07,3.9337,-1.4214e-13,1.0764e-07,-5.2354e-07,-3.9337,2.0705
20815,22.544,5.1818,0,2.9706e-05,296.86,1.1012e-05,14.607,9.0745e-06,0.045913,-2.943e-05,-289.26,2.0704
20816,22.635,5.0909,0,2.8167e-05,281.47,1.0689e-05,16.865,8.4517e-06,0.053178,-2.7841e-05,-272.64,2.0835
20817,22.544,5.0909,0.05,6.5845e-07,6.5799,5.056e-07,3.7989,-2.8948e-14,-8.5415e-07,-5.056e-07,-3.7989,2.0704
20818,22.544,5.3636,0,2.9514e-05,294.94,1.0968e-05,14.83,8.999e-06,0.036428,-2.9234e-05,-287.23,2.0703
20819,22.635,5.2727,0,2.7964e-05,279.45,1.0629e-05,16.941,8.3799e-06,0.043779,-2.7637e-05,-270.57,2.0834
20820,22.544,5.2727,0.05,6.3784e-07,6.374,4.8978e-07,3.68,1.0376e-13,2.302e-06,-4.8978e-07,-3.68,2.0703
20821,22.544,5.5455,0,2.9343e-05,293.23,1.0866e-05,14.264,8.9691e-06,0.011847,-2.9074e-05,-285.83,2.0702
20822,22.635,5.4545,0,2.7758e-05,277.39,1.0497e-05,16.159,8.3508e-06,0.031666,-2.7447e-05,-268.94,2.0833
20823,22.544,5.4545,0.05,6.2006e-07,6.1963,4.7613e-07,3.5774,3.4258e-13,3.6937e-06,-4.7613e-07,-3.5774,2.0702
20824,22.544,5.7273,0,2.93e-05,292.8,1.0796e-05,13.572,8.9876e-06,-0.014895,-2.9045e-05,-285.78,2.0701
20825,22.635,5.6364,0,2.7587e-05,275.68,1.0324e-05,14.712,8.3644e-06,-0.0099734,-2.7307e-05,-268.03,2.0832
20826,22.544,5.6364,0.05,5.9205e-07,5.9164,4.5462e-07,3.4158,5.6527e-13,5.4602e-06,-4.5462e-07,-3.4158,2.0701
20827,22.635,5.8182,0,2.7649e-05,276.3,1.0277e-05,13.893,8.4258e-06,-0.017822,-2.7387e-05,-269.1,2.0831
20828,22.544,5.8182,0.05,3.4403e-07,3.4379,2.6417e-07,1.9849,6.1903e-13,5.5069e-06,-2.6417e-07,-1.9849,2.07
20829,22.544,5.9091,0,2.8824e-05,288.04,1.028e-05,9.249,9.0526e-06,0.028163,-2.8655e-05,-283.3,2.07
20830,22.726,0.27273,0,2.5902e-05,258.84,9.7761e-06,14.815,7.8016e-06,-0.020493,-2.5619e-05,-251.13,2.0963
20831,22.817,0.18182,0,2.42e-05,241.83,9.2096e-06,14.762,7.2415e-06,-0.025616,-2.3916e-05,-234.13,2.1093
20832,22.726,0.18182,0.05,3.7586e-07,3.756,2.8862e-07,2.1686,2.139e-13,7.0537e-06,-2.8862e-07,-2.1685,2.0962
20833,22.726,0.090909,0,2.5399e-05,253.81,9.1927e-06,9.782,7.8949e-06,0.030701,-2.5218e-05,-248.76,2.0962
20834,22.726,0.45455,0,2.5988e-05,259.7,9.942e-06,16.509,7.7463e-06,0.011972,-2.5668e-05,-251.05,2.0964
20835,22.817,0.36364,0,2.419e-05,241.73,9.3558e-06,16.594,7.1455e-06,-0.012976,-2.3865e-05,-233.02,2.1094
20836,22.726,0.36364,0.05,6.1041e-07,6.0998,4.6872e-07,3.5218,1.1242e-12,1.3924e-05,-4.6872e-07,-3.5217,2.0963
20837,22.726,0.63636,0,2.6199e-05,261.81,1.0149e-05,18.199,7.732e-06,0.040858,-2.5841e-05,-252.22,2.0965
20838,22.817,0.54545,0,2.4416e-05,244,9.6412e-06,19.2,7.0907e-06,0.036296,-2.4033e-05,-233.81,2.1095
20839,22.726,0.54545,0.05,6.3618e-07,6.3574,4.885e-07,3.6704,1.5086e-12,1.6113e-05,-4.885e-07,-3.6704,2.0964
20840,22.726,0.81818,0,2.642e-05,264.02,1.0299e-05,19.147,7.7574e-06,0.052405,-2.6041e-05,-253.9,2.0965
20841,22.817,0.72727,0,2.4668e-05,246.51,9.8855e-06,21.183,7.0729e-06,0.050529,-2.4239e-05,-235.21,2.1096
20842,22.726,0.72727,0.05,6.516e-07,6.5115,5.0035e-07,3.7594,1.2646e-12,1.2986e-05,-5.0035e-07,-3.7594,2.0965
20843,22.726,1,0,2.6621e-05,266.02,1.037e-05,19.214,7.821e-06,0.060111,-2.6241e-05,-255.87,2.0966
20844,22.817,0.90909,0,2.4902e-05,248.84,1.0052e-05,22.29,7.0939e-06,0.061836,-2.4447e-05,-236.92,2.1097
20845,22.726,0.90909,0.05,6.6915e-07,6.6869,5.1382e-07,3.8607,7.7533e-13,8.5639e-06,-5.1382e-07,-3.8607,2.0966
20846,22.726,1.1818,0,2.6787e-05,267.69,1.0358e-05,18.396,7.9184e-06,0.064068,-2.6426e-05,-257.99,2.0967
20847,22.817,1.0909,0,2.5096e-05,250.79,1.013e-05,22.45,7.1506e-06,0.067795,-2.4638e-05,-238.78,2.1098
20848,22.726,1.0909,0.05,6.8885e-07,6.8837,5.2895e-07,3.9743,5.1251e-13,6.2311e-06,-5.2895e-07,-3.9743,2.0966
20849,22.726,1.3636,0,2.6916e-05,268.97,1.0269e-05,16.788,8.0432e-06,0.065892,-2.659e-05,-260.15,2.0967
20850,22.817,1.2727,0,2.5245e-05,252.28,1.0119e-05,21.716,7.2381e-06,0.071342,-2.4805e-05,-240.69,2.1098
20851,22.726,1.2727,0.05,7.0983e-07,7.0934,5.4506e-07,4.0954,3.281e-13,5.9773e-06,-5.4506e-07,-4.0954,2.0967
20852,22.726,1.5455,0,2.7008e-05,269.89,1.0115e-05,14.549,8.1878e-06,0.066223,-2.673e-05,-262.29,2.0968
20853,22.817,1.4545,0,2.5349e-05,253.32,1.0031e-05,20.221,7.3499e-06,0.073237,-2.4944e-05,-242.57,2.1099
20854,22.726,1.4545,0.05,7.3119e-07,7.3069,5.6147e-07,4.2186,4.9026e-13,6.1768e-06,-5.6147e-07,-4.2186,2.0968
20855,22.726,1.7273,0,2.7069e-05,270.51,9.9157e-06,11.878,8.3435e-06,0.065528,-2.6847e-05,-264.34,2.0968
20856,22.817,1.6364,0,2.5415e-05,253.97,9.8838e-06,18.15,7.4781e-06,0.074283,-2.5056e-05,-244.38,2.1099
20857,22.726,1.6364,0.05,7.521e-07,7.5158,5.7752e-07,4.3392,5.5259e-13,5.934e-06,-5.7752e-07,-4.3392,2.0968
20858,22.726,1.9091,0,2.7107e-05,270.88,9.6902e-06,8.9955,8.5015e-06,0.063955,-2.6942e-05,-266.24,2.0969
20859,22.817,1.8182,0,2.545e-05,254.33,9.6959e-06,15.714,7.6145e-06,0.07499,-2.5145e-05,-246.07,2.11
20860,22.726,1.8182,0.05,7.7182e-07,7.7129,5.9266e-07,4.4531,1.9575e-13,3.9859e-06,-5.9266e-07,-4.453,2.0968
20861,22.726,2.0909,0,2.7129e-05,271.1,9.4591e-06,6.1198,8.6527e-06,0.0612,-2.7018e-05,-267.96,2.0969
20862,22.817,2,0,2.5464e-05,254.46,9.4882e-06,13.131,7.7507e-06,0.075783,-2.5214e-05,-247.61,2.11
20863,22.726,2,0.05,7.8976e-07,7.8922,6.0644e-07,4.5565,1.9321e-13,3.1416e-06,-6.0644e-07,-4.5565,2.0969
20864,22.726,2.2727,0,2.7139e-05,271.21,9.2417e-06,3.4589,8.7887e-06,0.05544,-2.7078e-05,-269.43,2.0969
20865,22.817,2.1818,0,2.5464e-05,254.47,9.2806e-06,10.612,7.8785e-06,0.077042,-2.5266e-05,-248.96,2.11
20866,22.726,2.1818,0.05,8.0542e-07,8.0486,6.1846e-07,4.6469,1.0115e-13,2.9864e-06,-6.1846e-07,-4.6469,2.0969
20867,22.726,2.4545,0,2.7144e-05,271.25,9.0567e-06,1.2082,8.9002e-06,0.032017,-2.7122e-05,-270.63,2.097
20868,22.817,2.3636,0,2.5457e-05,254.4,9.0911e-06,8.3468,7.9907e-06,0.079104,-2.5304e-05,-250.08,2.11
20869,22.726,2.3636,0.05,8.184e-07,8.1783,6.2843e-07,4.7218,2.6212e-14,1.8915e-06,-6.2843e-07,-4.7218,2.0969
20870,22.726,2.6364,0,2.7145e-05,271.26,8.9988e-06,0.12361,8.9002e-06,-0.61731,-2.7154e-05,-271.51,2.097
20871,22.817,2.5455,0,2.5448e-05,254.31,8.9348e-06,6.4975,8.0809e-06,0.082161,-2.533e-05,-250.96,2.1101
20872,22.726,2.5455,0.05,8.284e-07,8.2783,6.3611e-07,4.7795,-1.5198e-13,1.3561e-06,-6.3611e-07,-4.7794,2.097
20873,22.726,2.8182,0,2.7145e-05,271.27,9.0478e-06,0.088494,8.8142e-06,-1.6669,-2.7172e-05,-272.05,2.097
20874,22.817,2.7273,0,2.5441e-05,254.23,8.8236e-06,5.1907,8.1442e-06,0.085861,-2.5347e-05,-251.55,2.1101
20875,22.726,2.7273,0.05,8.3519e-07,8.3461,6.4132e-07,4.8186,-2.0578e-13,-5.1344e-07,-6.4132e-07,-4.8186,2.097
20876,22.726,3,0,2.7145e-05,271.27,9.0655e-06,0.08446,8.7838e-06,-2.0319,-2.7178e-05,-272.23,2.097
20877,22.817,2.9091,0,2.5436e-05,254.19,8.7658e-06,4.5144,8.1768e-06,0.08871,-2.5355e-05,-251.86,2.1101
20878,22.726,2.9091,0.05,8.3862e-07,8.3804,6.4396e-07,4.8384,-3.7039e-13,-2.209e-07,-6.4396e-07,-4.8384,2.097
20879,22.726,3.1818,0,2.7145e-05,271.27,9.0478e-06,0.088495,8.8142e-06,-1.6669,-2.7172e-05,-272.05,2.097
20880,22.817,3.0909,0,2.5436e-05,254.19,8.7658e-06,4.5144,8.1768e-06,0.08871,-2.5355e-05,-251.86,2.1101
20881,22.726,3.0909,0.05,8.3862e-07,8.3804,6.4396e-07,4.8384,-4.28e-13,-1.5464e-06,-6.4396e-07,-4.8384,2.097
20882,22.726,3.3636,0,2.7145e-05,271.26,8.9988e-06,0.12361,8.9002e-06,-0.6173,-2.7154e-05,-271.51,2.097
20883,22.817,3.2727,0,2.5441e-05,254.23,8.8236e-06,5.1907,8.1442e-06,0.085862,-2.5347e-05,-251.55,2.1101
20884,22.726,3.2727,0.05,8.3519e-07,8.3461,6.4132e-07,4.8186,-4.9769e-13,-1.3931e-06,-6.4132e-07,-4.8186,2.097
20885,22.726,3.5455,0,2.7144e-05,271.25,9.0567e-06,1.2082,8.9002e-06,0.032017,-2.7122e-05,-270.63,2.097
20886,22.817,3.4545,0,2.5448e-05,254.31,8.9348e-06,6.4975,8.0809e-06,0.082161,-2.533e-05,-250.96,2.1101
20887,22.726,3.4545,0.05,8.284e-07,8.2783,6.3611e-07,4.7795,-4.6893e-13,-2.0088e-06,-6.3611e-07,-4.7794,2.097
20888,22.726,3.7273,0,2.7139e-05,271.21,9.2417e-06,3.4589,8.7887e-06,0.055439,-2.7078e-05,-269.43,2.0969
20889,22.817,3.6364,0,2.5457e-05,254.4,9.0911e-06,8.3469,7.9907e-06,0.079102,-2.5304e-05,-250.08,2.11
20890,22.726,3.6364,0.05,8.184e-07,8.1783,6.2843e-07,4.7218,-5.7186e-13,-1.2234e-06,-6.2843e-07,-4.7218,2.0969
20891,22.726,3.9091,0,2.7129e-05,271.1,9.4591e-06,6.1199,8.6527e-06,0.061199,-2.7018e-05,-267.96,2.0969
20892,22.817,3.8182,0,2.5464e-05,254.47,9.2806e-06,10.612,7.8785e-06,0.077043,-2.5266e-05,-248.96,2.11
20893,22.726,3.8182,0.05,8.0542e-07,8.0486,6.1846e-07,4.6469,-4.6974e-13,-6.6047e-07,-6.1846e-07,-4.6469,2.0969
20894,22.726,4.0909,0,2.7107e-05,270.88,9.6902e-06,8.9955,8.5015e-06,0.063954,-2.6942e-05,-266.24,2.0969
20895,22.817,4,0,2.5464e-05,254.46,9.4882e-06,13.131,7.7507e-06,0.075783,-2.5214e-05,-247.61,2.11
20896,22.726,4,0.05,7.8976e-07,7.8922,6.0644e-07,4.5565,-3.7605e-13,-1.7478e-06,-6.0644e-07,-4.5565,2.0969
20897,22.726,4.2727,0,2.7069e-05,270.51,9.9157e-06,11.878,8.3435e-06,0.065527,-2.6847e-05,-264.34,2.0968
20898,22.817,4.1818,0,2.545e-05,254.33,9.6959e-06,15.714,7.6145e-06,0.074989,-2.5145e-05,-246.07,2.11
20899,22.726,4.1818,0.05,7.7182e-07,7.7129,5.9267e-07,4.4531,-5.175e-13,-2.5582e-06,-5.9266e-07,-4.453,2.0968
20900,22.726,4.4545,0,2.7008e-05,269.89,1.0115e-05,14.549,8.1878e-06,0.066223,-2.673e-05,-262.29,2.0968
20901,22.817,4.3636,0,2.5415e-05,253.97,9.8838e-06,18.15,7.4781e-06,0.074283,-2.5056e-05,-244.38,2.1099
20902,22.726,4.3636,0.05,7.521e-07,7.5158,5.7752e-07,4.3392,-3.2439e-13,-5.1183e-07,-5.7752e-07,-4.3392,2.0968
20903,22.726,4.6364,0,2.6916e-05,268.97,1.0269e-05,16.788,8.0432e-06,0.065892,-2.659e-05,-260.15,2.0967
20904,22.817,4.5455,0,2.5349e-05,253.32,1.0031e-05,20.221,7.3499e-06,0.073238,-2.4944e-05,-242.57,2.1099
20905,22.726,4.5455,0.05,7.3119e-07,7.3069,5.6147e-07,4.2186,-4.619e-13,-1.6051e-06,-5.6146e-07,-4.2186,2.0968
20906,22.726,4.8182,0,2.6787e-05,267.69,1.0358e-05,18.396,7.9184e-06,0.064067,-2.6426e-05,-257.99,2.0967
20907,22.817,4.7273,0,2.5245e-05,252.28,1.0119e-05,21.716,7.2381e-06,0.071341,-2.4805e-05,-240.69,2.1098
20908,22.726,4.7273,0.05,7.0983e-07,7.0934,5.4506e-07,4.0954,-2.4647e-13,2.0338e-07,-5.4506e-07,-4.0954,2.0967
20909,22.726,5,0,2.6621e-05,266.02,1.037e-05,19.214,7.821e-06,0.060111,-2.6241e-05,-255.87,2.0966
20910,22.817,4.9091,0,2.5096e-05,250.79,1.013e-05,22.45,7.1506e-06,0.067794,-2.4638e-05,-238.78,2.1098
20911,22.726,4.9091,0.05,6.8885e-07,6.8837,5.2895e-07,3.9743,-2.1118e-14,1.2961e-06,-5.2895e-07,-3.9743,2.0966
20912,22.726,5.1818,0,2.642e-05,264.02,1.0299e-05,19.147,7.7574e-06,0.052405,-2.6041e-05,-253.9,2.0965
20913,22.817,5.0909,0,2.4902e-05,248.84,1.0052e-05,22.29,7.0939e-06,0.061835,-2.4447e-05,-236.92,2.1097
20914,22.726,5.0909,0.05,6.6915e-07,6.6869,5.1382e-07,3.8607,-2.3675e-13,7.6198e-07,-5.1382e-07,-3.8607,2.0966
20915,22.726,5.3636,0,2.6199e-05,261.81,1.0149e-05,18.199,7.732e-06,0.040859,-2.5841e-05,-252.22,2.0965
20916,22.817,5.2727,0,2.4668e-05,246.51,9.8855e-06,21.183,7.0729e-06,0.050529,-2.4239e-05,-235.21,2.1096
20917,22.726,5.2727,0.05,6.516e-07,6.5115,5.0035e-07,3.7594,3.4773e-13,4.3347e-06,-5.0035e-07,-3.7594,2.0965
20918,22.726,5.5455,0,2.5988e-05,259.7,9.942e-06,16.509,7.7463e-06,0.011974,-2.5668e-05,-251.05,2.0964
20919,22.817,5.4545,0,2.4416e-05,244,9.6412e-06,19.2,7.0907e-06,0.036298,-2.4033e-05,-233.81,2.1095
20920,22.726,5.4545,0.05,6.3618e-07,6.3574,4.885e-07,3.6704,2.3807e-13,4.7132e-06,-4.885e-07,-3.6704,2.0964
20921,22.726,5.7273,0,2.5902e-05,258.84,9.7761e-06,14.815,7.8016e-06,-0.020492,-2.5619e-05,-251.13,2.0963
20922,22.817,5.6364,0,2.419e-05,241.73,9.3558e-06,16.594,7.1455e-06,-0.012973,-2.3865e-05,-233.02,2.1094
20923,22.726,5.6364,0.05,6.1041e-07,6.0998,4.6872e-07,3.5217,4.6112e-13,6.4486e-06,-4.6872e-07,-3.5217,2.0963
20924,22.817,5.8182,0,2.42e-05,241.83,9.2096e-06,14.762,7.2415e-06,-0.025616,-2.3916e-05,-234.13,2.1093
20925,22.726,5.8182,0.05,3.7586e-07,3.756,2.8862e-07,2.1686,5.6832e-13,5.0365e-06,-2.8862e-07,-2.1686,2.0962
20926,22.726,5.9091,0,2.5399e-05,253.81,9.1927e-06,9.782,7.8949e-06,0.030698,-2.5218e-05,-248.76,2.0962
20927,22.908,0.27273,0,2.245e-05,224.34,8.7564e-06,16.294,6.5844e-06,-0.026149,-2.2128e-05,-215.76,2.1225
20928,22.999,0.18182,0,2.0696e-05,206.81,8.1329e-06,15.756,6.0311e-06,-0.036094,-2.0383e-05,-198.5,2.1356
20929,22.908,0.18182,0.05,4.0622e-07,4.0594,3.1193e-07,2.3437,5.6498e-13,9.8522e-06,-3.1193e-07,-2.3437,2.1224
20930,22.908,0.090909,0,2.1902e-05,218.87,8.0882e-06,10.392,6.71e-06,0.036453,-2.1707e-05,-213.48,2.1224
20931,22.908,0.45455,0,2.2604e-05,225.88,9.0406e-06,19.176,6.4903e-06,0.014337,-2.2216e-05,-215.67,2.1226
20932,22.999,0.36364,0,2.0766e-05,207.52,8.4072e-06,18.847,5.8968e-06,-0.015266,-2.0382e-05,-197.46,2.1357
20933,22.908,0.36364,0.05,6.2539e-07,6.2496,4.8022e-07,3.6082,6.0857e-13,1.2599e-05,-4.8022e-07,-3.6082,2.1225
20934,22.908,0.63636,0,2.2877e-05,228.62,9.3681e-06,22.109,6.432e-06,0.04835,-2.242e-05,-216.74,2.1227
20935,22.999,0.54545,0,2.1074e-05,210.6,8.8259e-06,22.787,5.799e-06,0.04362,-2.0594e-05,-198.26,2.1357
20936,22.908,0.54545,0.05,6.4949e-07,6.4904,4.9873e-07,3.7473,1.1919e-12,1.6141e-05,-4.9873e-07,-3.7472,2.1226
20937,22.908,0.81818,0,2.3147e-05,231.31,9.6322e-06,24.274,6.4097e-06,0.061735,-2.2637e-05,-218.19,2.1227
20938,22.999,0.72727,0,2.1393e-05,213.78,9.1945e-06,26.054,5.7349e-06,0.059982,-2.083e-05,-199.54,2.1358
20939,22.908,0.72727,0.05,6.634e-07,6.6294,5.0941e-07,3.8275,7.4865e-13,1.1722e-05,-5.0941e-07,-3.8275,2.1227
20940,22.908,1,0,2.3378e-05,233.62,9.8069e-06,25.491,6.4237e-06,0.070897,-2.2839e-05,-219.8,2.1228
20941,22.999,0.90909,0,2.1673e-05,216.58,9.4711e-06,28.346,5.7082e-06,0.072992,-2.1051e-05,-200.98,2.1359
20942,22.908,0.90909,0.05,6.7876e-07,6.7829,5.2121e-07,3.9161,3.8406e-13,8.1938e-06,-5.2121e-07,-3.9161,2.1228
20943,22.908,1.1818,0,2.3558e-05,235.42,9.887e-06,25.746,6.4705e-06,0.076109,-2.3014e-05,-221.46,2.1229
20944,22.999,1.0909,0,2.1894e-05,218.79,9.6436e-06,29.585,5.7168e-06,0.079994,-2.124e-05,-202.46,2.136
20945,22.908,1.0909,0.05,6.9567e-07,6.9519,5.3419e-07,4.0137,5.381e-13,7.6321e-06,-5.3419e-07,-4.0137,2.1228
20946,22.908,1.3636,0,2.3685e-05,236.69,9.8793e-06,25.133,6.5449e-06,0.07933,-2.3157e-05,-223.09,2.1229
20947,22.999,1.2727,0,2.2052e-05,220.37,9.716e-06,29.833,5.7567e-06,0.084515,-2.1392e-05,-203.9,2.136
20948,22.908,1.2727,0.05,7.1341e-07,7.1292,5.4781e-07,4.1161,5.88e-13,7.644e-06,-5.4781e-07,-4.116,2.1229
20949,22.908,1.5455,0,2.3765e-05,237.48,9.7986e-06,23.813,6.6402e-06,0.081357,-2.3269e-05,-224.64,2.123
20950,22.999,1.4545,0,2.2153e-05,221.38,9.7015e-06,29.237,5.822e-06,0.087375,-2.151e-05,-205.27,2.1361
20951,22.908,1.4545,0.05,7.3127e-07,7.3077,5.6152e-07,4.2191,5.5016e-13,7.5994e-06,-5.6152e-07,-4.2191,2.123
20952,22.908,1.7273,0,2.3806e-05,237.89,9.6634e-06,21.981,6.7489e-06,0.082842,-2.3354e-05,-226.1,2.123
20953,22.999,1.6364,0,2.2206e-05,221.91,9.6184e-06,27.985,5.9056e-06,0.089414,-2.1596e-05,-206.55,2.1361
20954,22.908,1.6364,0.05,7.4859e-07,7.4807,5.7483e-07,4.319,4.0027e-13,7.7904e-06,-5.7482e-07,-4.319,2.123
20955,22.908,1.9091,0,2.3818e-05,238.01,9.4939e-06,19.849,6.8634e-06,0.084209,-2.3417e-05,-227.43,2.1231
20956,22.999,1.8182,0,2.2222e-05,222.07,9.4871e-06,26.289,6.0003e-06,0.091093,-2.1657e-05,-207.71,2.1362
20957,22.908,1.8182,0.05,7.6482e-07,7.6429,5.8729e-07,4.4126,3.7864e-13,5.7354e-06,-5.8729e-07,-4.4126,2.123
20958,22.908,2.0909,0,2.3811e-05,237.95,9.3104e-06,17.628,6.9757e-06,0.085758,-2.3461e-05,-228.61,2.1231
20959,22.999,2,0,2.2213e-05,221.98,9.3284e-06,24.361,6.0984e-06,0.09272,-2.1697e-05,-208.75,2.1362
20960,22.908,2,0.05,7.7949e-07,7.7895,5.9855e-07,4.4973,2.5778e-13,5.2056e-06,-5.9855e-07,-4.4973,2.1231
20961,22.908,2.2727,0,2.3795e-05,237.78,9.1317e-06,15.513,7.0788e-06,0.087652,-2.3492e-05,-229.61,2.1231
20962,22.999,2.1818,0,2.219e-05,221.74,9.162e-06,22.404,6.1929e-06,0.094463,-2.1723e-05,-209.65,2.1362
20963,22.908,2.1818,0.05,7.9223e-07,7.9169,6.0834e-07,4.5708,1.5553e-13,4.2235e-06,-6.0834e-07,-4.5708,2.1231
20964,22.908,2.4545,0,2.3775e-05,237.59,8.9744e-06,13.676,7.1662e-06,0.089863,-2.3512e-05,-230.41,2.1232
20965,22.999,2.3636,0,2.216e-05,221.45,9.0059e-06,20.6,6.2771e-06,0.096326,-2.1737e-05,-210.39,2.1363
20966,22.908,2.3636,0.05,8.0276e-07,8.022,6.1642e-07,4.6315,7.2526e-14,3.9621e-06,-6.1642e-07,-4.6315,2.1231
20967,22.908,2.6364,0,2.3757e-05,237.41,8.8519e-06,12.258,7.2327e-06,0.092112,-2.3524e-05,-231,2.1232
20968,22.999,2.5455,0,2.2133e-05,221.17,8.8749e-06,19.104,6.3455e-06,0.098161,-2.1745e-05,-210.96,2.1363
20969,22.908,2.5455,0.05,8.1083e-07,8.1027,6.2262e-07,4.6781,-1.1954e-13,3.0372e-06,-6.2262e-07,-4.6781,2.1232
20970,22.908,2.8182,0,2.3745e-05,237.29,8.7743e-06,11.365,7.2742e-06,0.093868,-2.353e-05,-231.36,2.1232
20971,22.999,2.7273,0,2.2112e-05,220.96,8.7809e-06,18.037,6.3936e-06,0.099683,-2.1748e-05,-211.35,2.1363
20972,22.908,2.7273,0.05,8.163e-07,8.1574,6.2682e-07,4.7097,-3.0069e-13,9.9876e-07,-6.2682e-07,-4.7097,2.1232
20973,22.908,3,0,2.3741e-05,237.25,8.7478e-06,11.06,7.2884e-06,0.094543,-2.3532e-05,-231.48,2.1232
20974,22.999,2.9091,0,2.21e-05,220.85,8.7319e-06,17.482,6.4185e-06,0.10056,-2.175e-05,-211.54,2.1363
20975,22.908,2.9091,0.05,8.1906e-07,8.185,6.2894e-07,4.7256,-3.6496e-13,1.6084e-06,-6.2894e-07,-4.7256,2.1232
20976,22.908,3.1818,0,2.3745e-05,237.29,8.7743e-06,11.365,7.2742e-06,0.093868,-2.353e-05,-231.36,2.1232
20977,22.999,3.0909,0,2.21e-05,220.85,8.7319e-06,17.482,6.4185e-06,0.10056,-2.175e-05,-211.54,2.1363
20978,22.908,3.0909,0.05,8.1906e-07,8.185,6.2894e-07,4.7256,-4.3258e-13,4.0506e-07,-6.2894e-07,-4.7256,2.1232
20979,22.908,3.3636,0,2.3757e-05,237.41,8.8519e-06,12.258,7.2327e-06,0.092113,-2.3524e-05,-231,2.1232
20980,22.999,3.2727,0,2.2112e-05,220.96,8.7809e-06,18.037,6.3936e-06,0.099684,-2.1748e-05,-211.35,2.1363
20981,22.908,3.2727,0.05,8.163e-07,8.1574,6.2682e-07,4.7097,-3.9719e-13,6.7078e-07,-6.2682e-07,-4.7097,2.1232
20982,22.908,3.5455,0,2.3775e-05,237.59,8.9744e-06,13.676,7.1662e-06,0.089861,-2.3512e-05,-230.41,2.1232
20983,22.999,3.4545,0,2.2133e-05,221.17,8.8749e-06,19.104,6.3455e-06,0.098162,-2.1745e-05,-210.96,2.1363
20984,22.908,3.4545,0.05,8.1083e-07,8.1027,6.2262e-07,4.6781,-4.8662e-13,1.3935e-07,-6.2262e-07,-4.6781,2.1232
20985,22.908,3.7273,0,2.3795e-05,237.78,9.1317e-06,15.513,7.0788e-06,0.087652,-2.3492e-05,-229.61,2.1231
20986,22.999,3.6364,0,2.216e-05,221.45,9.0059e-06,20.6,6.2771e-06,0.096324,-2.1737e-05,-210.39,2.1363
20987,22.908,3.6364,0.05,8.0276e-07,8.022,6.1642e-07,4.6315,-3.605e-13,3.4062e-07,-6.1642e-07,-4.6315,2.1231
20988,22.908,3.9091,0,2.3811e-05,237.95,9.3104e-06,17.628,6.9757e-06,0.08576,-2.3461e-05,-228.61,2.1231
20989,22.999,3.8182,0,2.219e-05,221.74,9.162e-06,22.404,6.1929e-06,0.094464,-2.1723e-05,-209.65,2.1362
20990,22.908,3.8182,0.05,7.9223e-07,7.9169,6.0834e-07,4.5708,-4.7616e-13,1.6383e-06,-6.0834e-07,-4.5708,2.1231
20991,22.908,4.0909,0,2.3818e-05,238.01,9.4939e-06,19.849,6.8634e-06,0.084209,-2.3417e-05,-227.43,2.1231
20992,22.999,4,0,2.2213e-05,221.98,9.3284e-06,24.361,6.0984e-06,0.092721,-2.1697e-05,-208.75,2.1362
20993,22.908,4,0.05,7.7949e-07,7.7895,5.9855e-07,4.4973,-3.7688e-13,5.8862e-07,-5.9855e-07,-4.4973,2.1231
20994,22.908,4.2727,0,2.3806e-05,237.89,9.6634e-06,21.981,6.7489e-06,0.082843,-2.3354e-05,-226.1,2.123
20995,22.999,4.1818,0,2.2222e-05,222.07,9.4871e-06,26.289,6.0003e-06,0.091093,-2.1657e-05,-207.71,2.1362
20996,22.908,4.1818,0.05,7.6482e-07,7.6429,5.8729e-07,4.4126,-5.1102e-13,-2.7321e-07,-5.8729e-07,-4.4126,2.123
20997,22.908,4.4545,0,2.3765e-05,237.48,9.7986e-06,23.813,6.6402e-06,0.081358,-2.3269e-05,-224.64,2.123
20998,22.999,4.3636,0,2.2206e-05,221.91,9.6184e-06,27.985,5.9056e-06,0.089414,-2.1596e-05,-206.55,2.1361
20999,22.908,4.3636,0.05,7.4859e-07,7.4807,5.7483e-07,4.319,-3.0344e-13,2.184e-06,-5.7482e-07,-4.319,2.123
21000,22.908,4.6364,0,2.3685e-05,236.69,9.8793e-06,25.133,6.5449e-06,0.07933,-2.3157e-05,-223.09,2.1229
21001,22.999,4.5455,0,2.2153e-05,221.38,9.7015e-06,29.237,5.8219e-06,0.087377,-2.151e-05,-205.27,2.1361
21002,22.908,4.5455,0.05,7.3127e-07,7.3077,5.6152e-07,4.2191,-4.3752e-13,3.61e-07,-5.6152e-07,-4.2191,2.123
21003,22.908,4.8182,0,2.3558e-05,235.42,9.887e-06,25.746,6.4705e-06,0.076108,-2.3014e-05,-221.46,2.1229
21004,22.999,4.7273,0,2.2052e-05,220.37,9.716e-06,29.833,5.7567e-06,0.084514,-2.1392e-05,-203.9,2.136
21005,22.908,4.7273,0.05,7.1341e-07,7.1292,5.4781e-07,4.1161,-3.3752e-13,2.4022e-06,-5.4781e-07,-4.116,2.1229
21006,22.908,5,0,2.3378e-05,233.62,9.8069e-06,25.491,6.4237e-06,0.070897,-2.2839e-05,-219.8,2.1228
21007,22.999,4.9091,0,2.1894e-05,218.79,9.6437e-06,29.585,5.7168e-06,0.079993,-2.124e-05,-202.46,2.136
21008,22.908,4.9091,0.05,6.9567e-07,6.9519,5.3419e-07,4.0137,1.3447e-16,3.3416e-06,-5.3419e-07,-4.0137,2.1228
21009,22.908,5.1818,0,2.3147e-05,231.31,9.6322e-06,24.274,6.4097e-06,0.061735,-2.2637e-05,-218.19,2.1227
21010,22.999,5.0909,0,2.1673e-05,216.58,9.4711e-06,28.346,5.7082e-06,0.072991,-2.1051e-05,-200.98,2.1359
21011,22.908,5.0909,0.05,6.7876e-07,6.7829,5.2121e-07,3.9161,-7.7339e-16,2.8472e-06,-5.2121e-07,-3.9161,2.1228
21012,22.908,5.3636,0,2.2877e-05,228.62,9.3681e-06,22.109,6.432e-06,0.048351,-2.242e-05,-216.74,2.1227
21013,22.999,5.2727,0,2.1393e-05,213.78,9.1945e-06,26.055,5.7349e-06,0.059981,-2.083e-05,-199.54,2.1358
21014,22.908,5.2727,0.05,6.634e-07,6.6294,5.0941e-07,3.8275,1.0837e-13,5.4466e-06,-5.0941e-07,-3.8275,2.1227
21015,22.908,5.5455,0,2.2604e-05,225.88,9.0406e-06,19.176,6.4903e-06,0.01434,-2.2216e-05,-215.67,2.1226
21016,22.999,5.4545,0,2.1074e-05,210.6,8.8259e-06,22.787,5.799e-06,0.043619,-2.0594e-05,-198.26,2.1357
21017,22.908,5.4545,0.05,6.4949e-07,6.4904,4.9873e-07,3.7473,4.4531e-13,6.4452e-06,-4.9873e-07,-3.7472,2.1226
21018,22.908,5.7273,0,2.245e-05,224.34,8.7564e-06,16.294,6.5844e-06,-0.026146,-2.2128e-05,-215.76,2.1225
21019,22.999,5.6364,0,2.0766e-05,207.52,8.4072e-06,18.847,5.8968e-06,-0.015262,-2.0382e-05,-197.46,2.1357
21020,22.908,5.6364,0.05,6.2539e-07,6.2496,4.8022e-07,3.6082,5.1044e-13,7.7381e-06,-4.8022e-07,-3.6082,2.1225
21021,22.999,5.8182,0,2.0696e-05,206.81,8.1329e-06,15.756,6.0311e-06,-0.036094,-2.0383e-05,-198.5,2.1356
21022,22.908,5.8182,0.05,4.0622e-07,4.0594,3.1193e-07,2.3437,4.3324e-13,6.3769e-06,-3.1193e-07,-2.3437,2.1224
21023,22.908,5.9091,0,2.1902e-05,218.87,8.0882e-06,10.392,6.71e-06,0.036451,-2.1707e-05,-213.48,2.1224
21024,23.09,0.27273,0,1.8968e-05,189.55,7.7461e-06,18.026,5.3425e-06,-0.033074,-1.8598e-05,-179.91,2.1487
21025,23.181,0.18182,0,1.7158e-05,171.46,7.0532e-06,16.868,4.8018e-06,-0.047286,-1.6809e-05,-162.42,2.1618
21026,23.09,0.18182,0.05,4.3672e-07,4.3642,3.3535e-07,2.5197,5.9256e-13,1.2241e-05,-3.3535e-07,-2.5197,2.1487
21027,23.09,0.090909,0,1.836e-05,183.48,6.973e-06,11.065,5.5064e-06,0.045438,-1.8147e-05,-177.67,2.1486
21028,23.09,0.45455,0,1.9222e-05,192.08,8.1764e-06,22.336,5.2061e-06,0.018361,-1.8744e-05,-179.93,2.1488
21029,23.181,0.36364,0,1.7349e-05,173.37,7.4935e-06,21.554,4.6233e-06,-0.012042,-1.6882e-05,-161.59,2.1619
21030,23.09,0.36364,0.05,6.381e-07,6.3766,4.8998e-07,3.6816,7.4886e-13,1.0972e-05,-4.8998e-07,-3.6815,2.1488
21031,23.09,0.63636,0,1.9584e-05,195.7,8.6421e-06,26.655,5.1023e-06,0.058486,-1.8993e-05,-180.99,2.1489
21032,23.181,0.54545,0,1.7771e-05,177.58,8.0701e-06,27.044,4.4787e-06,0.059493,-1.7155e-05,-162.49,2.162
21033,23.09,0.54545,0.05,6.611e-07,6.6065,5.0764e-07,3.8142,7.63e-13,8.4313e-06,-5.0764e-07,-3.8142,2.1488
21034,23.09,0.81818,0,1.992e-05,199.06,9.0268e-06,30.077,5.0337e-06,0.073678,-1.9237e-05,-182.28,2.149
21035,23.181,0.72727,0,1.8177e-05,181.65,8.5729e-06,31.676,4.3676e-06,0.078127,-1.743e-05,-163.7,2.162
21036,23.09,0.72727,0.05,6.7425e-07,6.7378,5.1774e-07,3.8901,5.0473e-13,6.4978e-06,-5.1774e-07,-3.8901,2.1489
21037,23.09,1,0,2.0195e-05,201.81,9.3035e-06,32.407,5.0016e-06,0.084105,-1.9447e-05,-183.61,2.149
21038,23.181,0.90909,0,1.8517e-05,185.04,8.9584e-06,35.128,4.2955e-06,0.092869,-1.7667e-05,-164.92,2.1621
21039,23.09,0.90909,0.05,6.881e-07,6.8763,5.2838e-07,3.97,4.1133e-13,5.2476e-06,-5.2838e-07,-3.97,2.149
21040,23.09,1.1818,0,2.0398e-05,203.84,9.4698e-06,33.65,5.0033e-06,0.090155,-1.9616e-05,-184.89,2.1491
21041,23.181,1.0909,0,1.8773e-05,187.6,9.2196e-06,37.361,4.2606e-06,0.10077,-1.7856e-05,-166.08,2.1622
21042,23.09,1.0909,0.05,7.0283e-07,7.0234,5.3968e-07,4.055,7.0195e-13,6.8294e-06,-5.3968e-07,-4.055,2.1491
21043,23.09,1.3636,0,2.0533e-05,205.19,9.5363e-06,33.922,5.034e-06,0.094114,-1.9744e-05,-186.08,2.1492
21044,23.181,1.2727,0,1.8949e-05,189.36,9.3659e-06,38.478,4.259e-06,0.10601,-1.7998e-05,-167.13,2.1622
21045,23.09,1.2727,0.05,7.1788e-07,7.1738,5.5124e-07,4.1418,4.4672e-13,7.0913e-06,-5.5124e-07,-4.1418,2.1491
21046,23.09,1.5455,0,2.0609e-05,205.95,9.52e-06,33.4,5.0876e-06,0.096799,-1.9836e-05,-187.17,2.1492
21047,23.181,1.4545,0,1.9054e-05,190.41,9.4148e-06,38.654,4.2848e-06,0.10945,-1.8099e-05,-168.08,2.1623
21048,23.09,1.4545,0.05,7.3275e-07,7.3224,5.6266e-07,4.2276,5.2392e-13,6.5852e-06,-5.6266e-07,-4.2276,2.1492
21049,23.09,1.7273,0,2.0639e-05,206.24,9.4413e-06,32.288,5.1571e-06,0.098843,-1.9898e-05,-188.16,2.1493
21050,23.181,1.6364,0,1.9101e-05,190.88,9.3868e-06,38.096,4.3315e-06,0.11195,-1.8166e-05,-168.92,2.1623
21051,23.09,1.6364,0.05,7.4697e-07,7.4645,5.7358e-07,4.3096,3.7604e-13,5.6053e-06,-5.7358e-07,-4.3096,2.1492
21052,23.09,1.9091,0,2.0635e-05,206.21,9.3211e-06,30.798,5.2355e-06,0.1006,-1.9937e-05,-189.04,2.1493
21053,23.181,1.8182,0,1.9107e-05,190.93,9.3039e-06,37.02,4.3919e-06,0.11395,-1.8205e-05,-169.67,2.1624
21054,23.09,1.8182,0.05,7.6015e-07,7.5962,5.837e-07,4.3857,3.5416e-13,3.77e-06,-5.837e-07,-4.3857,2.1493
21055,23.09,2.0909,0,2.061e-05,205.96,9.1798e-06,29.135,5.3157e-06,0.10228,-1.9958e-05,-189.8,2.1493
21056,23.181,2,0,1.9083e-05,190.7,9.1871e-06,35.639,4.4593e-06,0.1157,-1.8225e-05,-170.32,2.1624
21057,23.09,2,0.05,7.7197e-07,7.7144,5.9278e-07,4.4539,3.4295e-13,2.4957e-06,-5.9278e-07,-4.4539,2.1493
21058,23.09,2.2727,0,2.0575e-05,205.6,9.0362e-06,27.49,5.3913e-06,0.10394,-1.9968e-05,-190.43,2.1494
21059,23.181,2.1818,0,1.9044e-05,190.31,9.0563e-06,34.15,4.5268e-06,0.11734,-1.8231e-05,-170.88,2.1625
21060,23.09,2.1818,0.05,7.8217e-07,7.8163,6.0061e-07,4.5127,1.17e-13,2.7489e-06,-6.0061e-07,-4.5127,2.1493
21061,23.09,2.4545,0,2.0538e-05,205.24,8.9065e-06,26.027,5.4565e-06,0.10554,-1.997e-05,-190.94,2.1494
21062,23.181,2.3636,0,1.8999e-05,189.86,8.9291e-06,32.731,4.5886e-06,0.11887,-1.8229e-05,-171.32,2.1625
21063,23.09,2.3636,0.05,7.9054e-07,7.9,6.0704e-07,4.561,-9.3338e-14,1.4491e-06,-6.0704e-07,-4.561,2.1494
21064,23.09,2.6364,0,2.0507e-05,204.93,8.804e-06,24.882,5.5066e-06,0.1069,-1.9969e-05,-191.31,2.1494
21065,23.181,2.5455,0,1.8958e-05,189.45,8.8201e-06,31.53,4.6397e-06,0.12021,-1.8224e-05,-171.67,2.1625
21066,23.09,2.5455,0.05,7.9694e-07,7.9639,6.1195e-07,4.598,-7.4292e-14,8.7685e-07,-6.1195e-07,-4.598,2.1494
21067,23.09,2.8182,0,2.0487e-05,204.73,8.7385e-06,24.154,5.5381e-06,0.10784,-1.9968e-05,-191.53,2.1494
21068,23.181,2.7273,0,1.8928e-05,189.15,8.7409e-06,30.663,4.676e-06,0.12123,-1.8218e-05,-171.9,2.1625
21069,23.09,2.7273,0.05,8.0127e-07,8.0071,6.1527e-07,4.6229,-2.7256e-13,-1.0557e-06,-6.1527e-07,-4.6229,2.1494
21070,23.09,3,0,2.048e-05,204.65,8.716e-06,23.905,5.5488e-06,0.10818,-1.9967e-05,-191.61,2.1494
21071,23.181,2.9091,0,1.8911e-05,188.98,8.6994e-06,30.21,4.6949e-06,0.12178,-1.8215e-05,-172.01,2.1625
21072,23.09,2.9091,0.05,8.0344e-07,8.0289,6.1694e-07,4.6355,-2.4195e-13,-1.3015e-06,-6.1694e-07,-4.6355,2.1494
21073,23.09,3.1818,0,2.0487e-05,204.73,8.7385e-06,24.154,5.5381e-06,0.10785,-1.9968e-05,-191.53,2.1494
21074,23.181,3.0909,0,1.8911e-05,188.98,8.6994e-06,30.21,4.6949e-06,0.12178,-1.8215e-05,-172.01,2.1625
21075,23.09,3.0909,0.05,8.0344e-07,8.0289,6.1694e-07,4.6355,-3.2773e-13,-1.8069e-06,-6.1694e-07,-4.6355,2.1494
21076,23.09,3.3636,0,2.0507e-05,204.93,8.804e-06,24.882,5.5066e-06,0.1069,-1.9969e-05,-191.31,2.1494
21077,23.181,3.2727,0,1.8928e-05,189.15,8.7409e-06,30.663,4.676e-06,0.12123,-1.8218e-05,-171.9,2.1625
21078,23.09,3.2727,0.05,8.0127e-07,8.0071,6.1527e-07,4.6229,-3.0719e-13,-1.6526e-06,-6.1527e-07,-4.6229,2.1494
21079,23.09,3.5455,0,2.0538e-05,205.24,8.9065e-06,26.027,5.4565e-06,0.10553,-1.997e-05,-190.94,2.1494
21080,23.181,3.4545,0,1.8958e-05,189.45,8.8201e-06,31.53,4.6397e-06,0.12021,-1.8224e-05,-171.67,2.1625
21081,23.09,3.4545,0.05,7.9694e-07,7.9639,6.1195e-07,4.598,-4.0798e-13,-2.2696e-06,-6.1195e-07,-4.598,2.1494
21082,23.09,3.7273,0,2.0575e-05,205.6,9.0362e-06,27.49,5.3913e-06,0.10394,-1.9968e-05,-190.43,2.1494
21083,23.181,3.6364,0,1.8999e-05,189.86,8.9291e-06,32.731,4.5886e-06,0.11887,-1.8229e-05,-171.32,2.1625
21084,23.09,3.6364,0.05,7.9054e-07,7.9,6.0704e-07,4.561,-4.0379e-13,-1.0471e-06,-6.0704e-07,-4.561,2.1494
21085,23.09,3.9091,0,2.061e-05,205.96,9.1798e-06,29.135,5.3157e-06,0.10228,-1.9958e-05,-189.8,2.1493
21086,23.181,3.8182,0,1.9044e-05,190.31,9.0563e-06,34.15,4.5268e-06,0.11734,-1.8231e-05,-170.88,2.1625
21087,23.09,3.8182,0.05,7.8217e-07,7.8163,6.0061e-07,4.5127,-4.0923e-13,-1.0879e-06,-6.0061e-07,-4.5127,2.1493
21088,23.09,4.0909,0,2.0635e-05,206.21,9.3211e-06,30.798,5.2355e-06,0.1006,-1.9937e-05,-189.04,2.1493
21089,23.181,4,0,1.9083e-05,190.7,9.1871e-06,35.639,4.4593e-06,0.1157,-1.8225e-05,-170.32,2.1624
21090,23.09,4,0.05,7.7197e-07,7.7144,5.9278e-07,4.4539,-4.2257e-13,-1.8948e-06,-5.9278e-07,-4.4539,2.1493
21091,23.09,4.2727,0,2.0639e-05,206.24,9.4413e-06,32.288,5.1571e-06,0.098842,-1.9898e-05,-188.16,2.1493
21092,23.181,4.1818,0,1.9107e-05,190.93,9.3039e-06,37.02,4.3919e-06,0.11395,-1.8205e-05,-169.67,2.1624
21093,23.09,4.1818,0.05,7.6015e-07,7.5962,5.837e-07,4.3857,-4.3551e-13,-2.9502e-06,-5.837e-07,-4.3857,2.1493
21094,23.09,4.4545,0,2.0609e-05,205.95,9.52e-06,33.401,5.0876e-06,0.096799,-1.9836e-05,-187.17,2.1492
21095,23.181,4.3636,0,1.9101e-05,190.88,9.3868e-06,38.096,4.3315e-06,0.11195,-1.8166e-05,-168.92,2.1623
21096,23.09,4.3636,0.05,7.4697e-07,7.4645,5.7358e-07,4.3096,-1.0679e-13,-6.6128e-07,-5.7358e-07,-4.3096,2.1492
21097,23.09,4.6364,0,2.0533e-05,205.19,9.5363e-06,33.922,5.034e-06,0.094114,-1.9744e-05,-186.08,2.1492
21098,23.181,4.5455,0,1.9054e-05,190.41,9.4148e-06,38.654,4.2848e-06,0.10945,-1.8099e-05,-168.08,2.1623
21099,23.09,4.5455,0.05,7.3275e-07,7.3224,5.6266e-07,4.2276,-3.4113e-13,-1.4332e-06,-5.6266e-07,-4.2276,2.1492
21100,23.09,4.8182,0,2.0398e-05,203.84,9.4698e-06,33.65,5.0033e-06,0.090154,-1.9616e-05,-184.89,2.1491
21101,23.181,4.7273,0,1.8949e-05,189.36,9.3659e-06,38.478,4.259e-06,0.10601,-1.7998e-05,-167.13,2.1622
21102,23.09,4.7273,0.05,7.1788e-07,7.1738,5.5124e-07,4.1418,-1.2617e-15,4.6928e-07,-5.5124e-07,-4.1418,2.1491
21103,23.09,5,0,2.0195e-05,201.81,9.3035e-06,32.407,5.0016e-06,0.084104,-1.9447e-05,-183.61,2.149
21104,23.181,4.9091,0,1.8773e-05,187.6,9.2196e-06,37.361,4.2606e-06,0.10077,-1.7856e-05,-166.08,2.1622
21105,23.09,4.9091,0.05,7.0283e-07,7.0234,5.3968e-07,4.055,3.1717e-15,1.4573e-06,-5.3968e-07,-4.055,2.1491
21106,23.09,5.1818,0,1.992e-05,199.06,9.0268e-06,30.077,5.0337e-06,0.073677,-1.9237e-05,-182.28,2.149
21107,23.181,5.0909,0,1.8517e-05,185.04,8.9584e-06,35.128,4.2955e-06,0.092868,-1.7667e-05,-164.92,2.1621
21108,23.09,5.0909,0.05,6.881e-07,6.8763,5.2838e-07,3.97,-1.047e-13,3.1107e-07,-5.2838e-07,-3.97,2.149
21109,23.09,5.3636,0,1.9584e-05,195.7,8.6421e-06,26.655,5.1023e-06,0.058483,-1.8993e-05,-180.99,2.1489
21110,23.181,5.2727,0,1.8177e-05,181.65,8.5729e-06,31.676,4.3676e-06,0.078125,-1.743e-05,-163.7,2.162
21111,23.09,5.2727,0.05,6.7425e-07,6.7378,5.1774e-07,3.8901,4.548e-13,3.1566e-06,-5.1774e-07,-3.8901,2.1489
21112,23.09,5.5455,0,1.9222e-05,192.08,8.1764e-06,22.336,5.2061e-06,0.018361,-1.8744e-05,-179.93,2.1488
21113,23.181,5.4545,0,1.7771e-05,177.58,8.0701e-06,27.044,4.4787e-06,0.059491,-1.7155e-05,-162.49,2.162
21114,23.09,5.4545,0.05,6.611e-07,6.6065,5.0764e-07,3.8142,4.5508e-13,3.8175e-06,-5.0764e-07,-3.8142,2.1488
21115,23.09,5.7273,0,1.8968e-05,189.55,7.7461e-06,18.026,5.3425e-06,-0.033072,-1.8598e-05,-179.91,2.1487
21116,23.181,5.6364,0,1.7349e-05,173.37,7.4935e-06,21.554,4.6233e-06,-0.012039,-1.6882e-05,-161.59,2.1619
21117,23.09,5.6364,0.05,6.381e-07,6.3766,4.8998e-07,3.6816,5.2057e-13,5.8809e-06,-4.8998e-07,-3.6816,2.1488
21118,23.181,5.8182,0,1.7158e-05,171.46,7.0532e-06,16.868,4.8018e-06,-0.047285,-1.6809e-05,-162.42,2.1618
21119,23.09,5.8182,0.05,4.3672e-07,4.3642,3.3535e-07,2.5197,5.4763e-13,6.1662e-06,-3.3535e-07,-2.5197,2.1487
21120,23.09,5.9091,0,1.836e-05,183.48,6.973e-06,11.065,5.5064e-06,0.045436,-1.8147e-05,-177.67,2.1486
21121,23.272,0.27273,0,1.5488e-05,154.77,6.7571e-06,20.069,4.0818e-06,-0.032434,-1.5049e-05,-143.77,2.175
21122,23.363,0.18182,0,1.3612e-05,136.03,5.9788e-06,18.115,3.5587e-06,-0.068767,-1.3214e-05,-126.09,2.188
21123,23.272,0.18182,0.05,4.6912e-07,4.688,3.6023e-07,2.7066,1.0693e-13,6.294e-06,-3.6023e-07,-2.7066,2.1749
21124,23.272,0.090909,0,1.4797e-05,147.86,5.8536e-06,11.796,4.2927e-06,0.067123,-1.456e-05,-141.58,2.1749
21125,23.272,0.45455,0,1.5883e-05,158.73,7.3698e-06,26.13,3.8968e-06,0.035653,-1.5277e-05,-144.02,2.175
21126,23.363,0.36364,0,1.3985e-05,139.75,6.6398e-06,24.888,3.3259e-06,-0.011399,-1.3394e-05,-125.64,2.1881
21127,23.272,0.36364,0.05,6.4977e-07,6.4932,4.9894e-07,3.7488,6.3364e-13,7.3926e-06,-4.9894e-07,-3.7488,2.175
21128,23.272,0.63636,0,1.6363e-05,163.52,7.9909e-06,31.989,3.7446e-06,0.083854,-1.5582e-05,-145.13,2.1751
21129,23.363,0.54545,0,1.4559e-05,145.49,7.4006e-06,32.175,3.1283e-06,0.07463,-1.3742e-05,-126.68,2.1882
21130,23.272,0.54545,0.05,6.7244e-07,6.7197,5.1635e-07,3.8796,5.1446e-13,4.4486e-06,-5.1635e-07,-3.8796,2.1751
21131,23.272,0.81818,0,1.6782e-05,167.71,8.4984e-06,36.681,3.6299e-06,0.10103,-1.5854e-05,-146.3,2.1752
21132,23.363,0.72727,0,1.5073e-05,150.62,8.0407e-06,38.205,2.9687e-06,0.09635,-1.4055e-05,-127.81,2.1883
21133,23.272,0.72727,0.05,6.8541e-07,6.8493,5.2631e-07,3.9545,4.9927e-13,2.4747e-06,-5.2631e-07,-3.9545,2.1752
21134,23.272,1,0,1.711e-05,170.98,8.8707e-06,40.053,3.5549e-06,0.11278,-1.6073e-05,-147.36,2.1753
21135,23.363,0.90909,0,1.5481e-05,154.7,8.5268e-06,42.741,2.8533e-06,0.11298,-1.4304e-05,-128.8,2.1884
21136,23.272,0.90909,0.05,6.9815e-07,6.9767,5.3609e-07,4.028,4.9635e-13,3.6535e-06,-5.361e-07,-4.028,2.1752
21137,23.272,1.1818,0,1.7343e-05,173.31,9.1132e-06,42.17,3.5167e-06,0.11964,-1.6237e-05,-148.3,2.1753
21138,23.363,1.0909,0,1.5779e-05,157.68,8.8646e-06,45.843,2.7795e-06,0.1218,-1.4491e-05,-129.64,2.1884
21139,23.272,1.0909,0.05,7.1097e-07,7.1048,5.4594e-07,4.102,6.0527e-13,3.1222e-06,-5.4594e-07,-4.102,2.1753
21140,23.272,1.3636,0,1.7492e-05,174.8,9.2428e-06,43.197,3.5101e-06,0.12422,-1.6352e-05,-149.12,2.1754
21141,23.363,1.2727,0,1.5977e-05,159.66,9.0722e-06,47.687,2.7424e-06,0.12778,-1.4623e-05,-130.35,2.1885
21142,23.272,1.2727,0.05,7.2358e-07,7.2308,5.5562e-07,4.1747,5.8419e-13,3.4588e-06,-5.5562e-07,-4.1747,2.1753
21143,23.272,1.5455,0,1.7571e-05,175.59,9.2805e-06,43.342,3.529e-06,0.12739,-1.6428e-05,-149.82,2.1754
21144,23.363,1.4545,0,1.6091e-05,160.8,9.1724e-06,48.495,2.7357e-06,0.13177,-1.4709e-05,-130.94,2.1885
21145,23.272,1.4545,0.05,7.3571e-07,7.352,5.6493e-07,4.2447,4.4911e-13,1.8638e-06,-5.6494e-07,-4.2447,2.1754
21146,23.272,1.7273,0,1.7596e-05,175.84,9.2487e-06,42.823,3.5666e-06,0.12977,-1.6472e-05,-150.43,2.1755
21147,23.363,1.6364,0,1.614e-05,161.29,9.189e-06,48.496,2.7525e-06,0.13469,-1.4759e-05,-131.44,2.1886
21148,23.272,1.6364,0.05,7.4709e-07,7.4658,5.7368e-07,4.3104,4.2423e-13,2.1532e-06,-5.7368e-07,-4.3104,2.1754
21149,23.272,1.9091,0,1.7583e-05,175.71,9.1695e-06,41.858,3.616e-06,0.13171,-1.6493e-05,-150.96,2.1755
21150,23.363,1.8182,0,1.614e-05,161.29,9.1449e-06,47.916,2.7859e-06,0.13694,-1.4782e-05,-131.86,2.1886
21151,23.272,1.8182,0.05,7.575e-07,7.5698,5.8167e-07,4.3704,1.7721e-13,9.9798e-08,-5.8167e-07,-4.3704,2.1755
21152,23.272,2.0909,0,1.7546e-05,175.34,9.0634e-06,40.652,3.6707e-06,0.1334,-1.6498e-05,-151.4,2.1756
21153,23.363,2,0,1.6108e-05,160.97,9.0621e-06,46.972,2.829e-06,0.13881,-1.4787e-05,-132.22,2.1887
21154,23.272,2,0.05,7.6673e-07,7.662,5.8875e-07,4.4237,2.7885e-13,-4.6803e-07,-5.8876e-07,-4.4237,2.1755
21155,23.272,2.2727,0,1.7499e-05,174.87,8.9491e-06,39.391,3.7245e-06,0.13491,-1.6492e-05,-151.77,2.1756
21156,23.363,2.1818,0,1.6058e-05,160.47,8.9602e-06,45.857,2.8757e-06,0.14043,-1.478e-05,-132.51,2.1887
21157,23.272,2.1818,0.05,7.7463e-07,7.7409,5.9482e-07,4.4692,4.9103e-14,-1.4428e-06,-5.9482e-07,-4.4692,2.1756
21158,23.272,2.4545,0,1.7451e-05,174.39,8.8427e-06,38.234,3.7722e-06,0.13623,-1.6483e-05,-152.05,2.1756
21159,23.363,2.3636,0,1.6004e-05,159.93,8.8567e-06,44.746,2.9203e-06,0.14182,-1.4766e-05,-132.75,2.1887
21160,23.272,2.3636,0.05,7.8107e-07,7.8053,5.9976e-07,4.5064,1.6906e-13,-2.3434e-06,-5.9976e-07,-4.5064,2.1756
21161,23.272,2.6364,0,1.741e-05,173.98,8.7571e-06,37.311,3.8095e-06,0.13729,-1.6473e-05,-152.26,2.1756
21162,23.363,2.5455,0,1.5954e-05,159.43,8.7659e-06,43.781,2.958e-06,0.14295,-1.4752e-05,-132.92,2.1887
21163,23.272,2.5455,0.05,7.8596e-07,7.8542,6.0352e-07,4.5346,-4.6797e-14,-3.2116e-06,-6.0352e-07,-4.5346,2.1756
21164,23.272,2.8182,0,1.7384e-05,173.72,8.7018e-06,36.719,3.8332e-06,0.13797,-1.6465e-05,-152.38,2.1756
21165,23.363,2.7273,0,1.5916e-05,159.05,8.6989e-06,43.074,2.9853e-06,0.14378,-1.474e-05,-133.04,2.1887
21166,23.272,2.7273,0.05,7.8925e-07,7.8871,6.0605e-07,4.5536,-2.5637e-13,-4.509e-06,-6.0605e-07,-4.5536,2.1756
21167,23.272,3,0,1.7375e-05,173.63,8.6828e-06,36.515,3.8413e-06,0.13821,-1.6463e-05,-152.42,2.1756
21168,23.363,2.9091,0,1.5897e-05,158.86,8.6636e-06,42.701,2.9996e-06,0.14421,-1.4734e-05,-133.1,2.1887
21169,23.272,2.9091,0.05,7.9091e-07,7.9036,6.0732e-07,4.5631,-3.5038e-13,-3.8846e-06,-6.0732e-07,-4.5631,2.1756
21170,23.272,3.1818,0,1.7384e-05,173.72,8.7018e-06,36.719,3.8332e-06,0.13797,-1.6465e-05,-152.38,2.1756
21171,23.363,3.0909,0,1.5897e-05,158.86,8.6636e-06,42.701,2.9996e-06,0.14421,-1.4734e-05,-133.1,2.1887
21172,23.272,3.0909,0.05,7.9091e-07,7.9036,6.0732e-07,4.5631,-4.4637e-13,-5.6591e-06,-6.0732e-07,-4.5631,2.1756
21173,23.272,3.3636,0,1.741e-05,173.98,8.7571e-06,37.311,3.8095e-06,0.13729,-1.6473e-05,-152.26,2.1756
21174,23.363,3.2727,0,1.5916e-05,159.05,8.6989e-06,43.074,2.9853e-06,0.14377,-1.474e-05,-133.04,2.1887
21175,23.272,3.2727,0.05,7.8925e-07,7.8871,6.0605e-07,4.5536,-3.203e-13,-6.043e-06,-6.0605e-07,-4.5536,2.1756
21176,23.272,3.5455,0,1.7451e-05,174.39,8.8427e-06,38.234,3.7722e-06,0.13623,-1.6483e-05,-152.05,2.1756
21177,23.363,3.4545,0,1.5954e-05,159.43,8.7659e-06,43.781,2.958e-06,0.14295,-1.4752e-05,-132.92,2.1887
21178,23.272,3.4545,0.05,7.8596e-07,7.8542,6.0352e-07,4.5346,-4.2669e-13,-5.5113e-06,-6.0352e-07,-4.5346,2.1756
21179,23.272,3.7273,0,1.7499e-05,174.87,8.9491e-06,39.391,3.7245e-06,0.13491,-1.6492e-05,-151.77,2.1756
21180,23.363,3.6364,0,1.6004e-05,159.93,8.8567e-06,44.746,2.9203e-06,0.14182,-1.4766e-05,-132.75,2.1887
21181,23.272,3.6364,0.05,7.8107e-07,7.8053,5.9976e-07,4.5064,-3.1156e-13,-4.5464e-06,-5.9976e-07,-4.5064,2.1756
21182,23.272,3.9091,0,1.7546e-05,175.34,9.0634e-06,40.652,3.6707e-06,0.1334,-1.6498e-05,-151.4,2.1756
21183,23.363,3.8182,0,1.6058e-05,160.47,8.9602e-06,45.857,2.8757e-06,0.14043,-1.478e-05,-132.51,2.1887
21184,23.272,3.8182,0.05,7.7463e-07,7.7409,5.9482e-07,4.4692,-9.0926e-14,-4.1178e-06,-5.9482e-07,-4.4692,2.1756
21185,23.272,4.0909,0,1.7583e-05,175.71,9.1695e-06,41.858,3.616e-06,0.13171,-1.6493e-05,-150.96,2.1755
21186,23.363,4,0,1.6108e-05,160.97,9.0621e-06,46.972,2.829e-06,0.13881,-1.4787e-05,-132.22,2.1887
21187,23.272,4,0.05,7.6673e-07,7.662,5.8876e-07,4.4237,-4.391e-13,-5.6043e-06,-5.8875e-07,-4.4237,2.1755
21188,23.272,4.2727,0,1.7596e-05,175.84,9.2487e-06,42.823,3.5666e-06,0.12977,-1.6472e-05,-150.43,2.1755
21189,23.363,4.1818,0,1.614e-05,161.29,9.1449e-06,47.917,2.7859e-06,0.13694,-1.4782e-05,-131.86,2.1886
21190,23.272,4.1818,0.05,7.575e-07,7.5698,5.8167e-07,4.3704,-3.3508e-13,-5.6746e-06,-5.8167e-07,-4.3704,2.1755
21191,23.272,4.4545,0,1.7571e-05,175.59,9.2805e-06,43.342,3.529e-06,0.12738,-1.6428e-05,-149.82,2.1754
21192,23.363,4.3636,0,1.614e-05,161.29,9.189e-06,48.496,2.7525e-06,0.13469,-1.4759e-05,-131.44,2.1886
21193,23.272,4.3636,0.05,7.471e-07,7.4658,5.7368e-07,4.3104,-1.12e-13,-2.8545e-06,-5.7368e-07,-4.3104,2.1754
21194,23.272,4.6364,0,1.7492e-05,174.8,9.2428e-06,43.197,3.5101e-06,0.12422,-1.6352e-05,-149.12,2.1754
21195,23.363,4.5455,0,1.6091e-05,160.8,9.1724e-06,48.495,2.7357e-06,0.13177,-1.4709e-05,-130.94,2.1885
21196,23.272,4.5455,0.05,7.3571e-07,7.352,5.6493e-07,4.2447,-3.417e-13,-4.7726e-06,-5.6493e-07,-4.2447,2.1754
21197,23.272,4.8182,0,1.7343e-05,173.31,9.1132e-06,42.17,3.5167e-06,0.11964,-1.6237e-05,-148.3,2.1753
21198,23.363,4.7273,0,1.5977e-05,159.66,9.0722e-06,47.687,2.7424e-06,0.12778,-1.4623e-05,-130.35,2.1885
21199,23.272,4.7273,0.05,7.2358e-07,7.2308,5.5562e-07,4.1747,3.5697e-15,-1.8764e-06,-5.5562e-07,-4.1747,2.1753
21200,23.272,5,0,1.711e-05,170.98,8.8707e-06,40.053,3.5549e-06,0.11278,-1.6073e-05,-147.36,2.1753
21201,23.363,4.9091,0,1.5779e-05,157.68,8.8646e-06,45.843,2.7795e-06,0.1218,-1.4491e-05,-129.64,2.1884
21202,23.272,4.9091,0.05,7.1097e-07,7.1048,5.4594e-07,4.102,9.7454e-15,-8.9068e-07,-5.4594e-07,-4.102,2.1753
21203,23.272,5.1818,0,1.6782e-05,167.71,8.4984e-06,36.681,3.6299e-06,0.10102,-1.5854e-05,-146.3,2.1752
21204,23.363,5.0909,0,1.5481e-05,154.7,8.5268e-06,42.742,2.8533e-06,0.11298,-1.4304e-05,-128.8,2.1884
21205,23.272,5.0909,0.05,6.9815e-07,6.9767,5.361e-07,4.028,1.8044e-14,-2.7802e-06,-5.361e-07,-4.028,2.1752
21206,23.272,5.3636,0,1.6363e-05,163.52,7.991e-06,31.99,3.7446e-06,0.083853,-1.5582e-05,-145.13,2.1751
21207,23.363,5.2727,0,1.5073e-05,150.62,8.0407e-06,38.205,2.9687e-06,0.096349,-1.4055e-05,-127.81,2.1883
21208,23.272,5.2727,0.05,6.8541e-07,6.8493,5.2631e-07,3.9545,1.2853e-13,5.8404e-08,-5.2631e-07,-3.9545,2.1752
21209,23.272,5.5455,0,1.5883e-05,158.73,7.3698e-06,26.13,3.8968e-06,0.035654,-1.5277e-05,-144.02,2.175
21210,23.363,5.4545,0,1.4559e-05,145.49,7.4006e-06,32.175,3.1283e-06,0.074632,-1.3742e-05,-126.68,2.1882
21211,23.272,5.4545,0.05,6.7244e-07,6.7197,5.1635e-07,3.8796,3.7503e-13,1.0011e-06,-5.1635e-07,-3.8796,2.1751
21212,23.272,5.7273,0,1.5488e-05,154.77,6.7571e-06,20.069,4.0818e-06,-0.032432,-1.5049e-05,-143.77,2.175
21213,23.363,5.6364,0,1.3985e-05,139.75,6.6398e-06,24.888,3.3259e-06,-0.011397,-1.3394e-05,-125.64,2.1881
21214,23.272,5.6364,0.05,6.4977e-07,6.4932,4.9894e-07,3.7488,5.7904e-13,3.0883e-06,-4.9894e-07,-3.7488,2.175
21215,23.363,5.8182,0,1.3612e-05,136.03,5.9788e-06,18.115,3.5587e-06,-0.068765,-1.3214e-05,-126.09,2.188
21216,23.272,5.8182,0.05,4.6912e-07,4.688,3.6023e-07,2.7066,3.5695e-13,1.7605e-07,-3.6023e-07,-2.7066,2.1749
21217,23.272,5.9091,0,1.4797e-05,147.86,5.8536e-06,11.796,4.2927e-06,0.067125,-1.456e-05,-141.58,2.1749
21218,23.454,0.27273,0,1.205e-05,120.42,5.8104e-06,22.549,2.8028e-06,-0.048771,-1.1508e-05,-107.57,2.2012
21219,23.545,0.18182,0,1.0102e-05,100.95,4.9269e-06,19.602,2.3094e-06,-0.06457,-9.6245e-06,-89.732,2.2143
21220,23.454,0.18182,0.05,5.0519e-07,5.0484,3.8792e-07,2.9147,4.8338e-13,8.945e-06,-3.8792e-07,-2.9147,2.2012
21221,23.454,0.090909,0,1.1237e-05,112.3,4.7372e-06,12.569,3.0756e-06,0.084175,-1.097e-05,-105.45,2.2011
21222,23.454,0.45455,0,1.2651e-05,126.42,6.6525e-06,30.796,2.5589e-06,0.038311,-1.1843e-05,-108.17,2.2013
21223,23.545,0.36364,0,1.076e-05,107.52,5.8924e-06,29.242,2.0063e-06,0.043384,-9.9598e-06,-89.865,2.2144
21224,23.454,0.36364,0.05,6.624e-07,6.6194,5.0864e-07,3.8217,6.0134e-13,7.6818e-06,-5.0864e-07,-3.8217,2.2012
21225,23.454,0.63636,0,1.328e-05,132.71,7.4412e-06,38.322,2.3534e-06,0.095031,-1.2206e-05,-109.3,2.2014
21226,23.545,0.54545,0,1.1529e-05,115.21,6.8537e-06,38.52,1.7479e-06,0.15685,-1.0381e-05,-90.974,2.2145
21227,23.454,0.54545,0.05,6.8563e-07,6.8516,5.2648e-07,3.9558,6.0417e-13,6.0019e-06,-5.2648e-07,-3.9557,2.2013
21228,23.454,0.81818,0,1.3795e-05,137.86,8.0639e-06,44.227,2.193e-06,0.11503,-1.2501e-05,-110.29,2.2014
21229,23.545,0.72727,0,1.2164e-05,121.55,7.6187e-06,45.864,1.5387e-06,0.18156,-1.0718e-05,-91.91,2.2145
21230,23.454,0.72727,0.05,6.9854e-07,6.9806,5.3639e-07,4.0303,4.7682e-13,3.7007e-06,-5.3639e-07,-4.0303,2.2014
21231,23.454,1,0,1.4182e-05,141.72,8.5176e-06,48.508,2.0787e-06,0.12829,-1.272e-05,-111.07,2.2015
21232,23.545,0.90909,0,1.2646e-05,126.37,8.1867e-06,51.318,1.3836e-06,0.20149,-1.0968e-05,-92.605,2.2146
21233,23.454,0.90909,0.05,7.1003e-07,7.0954,5.4521e-07,4.0965,4.3391e-13,2.7382e-06,-5.4521e-07,-4.0965,2.2015
21234,23.454,1.1818,0,1.445e-05,144.4,8.8215e-06,51.345,2.006e-06,0.13607,-1.2876e-05,-111.68,2.2016
21235,23.545,1.0909,0,1.2989e-05,129.8,8.5829e-06,55.11,1.2764e-06,0.21187,-1.1145e-05,-93.12,2.2147
21236,23.454,1.0909,0.05,7.2075e-07,7.2026,5.5345e-07,4.1584,4.556e-13,4.3346e-06,-5.5345e-07,-4.1584,2.2015
21237,23.454,1.3636,0,1.4617e-05,146.07,9.0005e-06,52.976,1.9687e-06,0.14138,-1.2978e-05,-112.16,2.2016
21238,23.545,1.2727,0,1.3214e-05,132.05,8.8361e-06,57.515,1.2105e-06,0.21901,-1.1264e-05,-93.507,2.2147
21239,23.454,1.2727,0.05,7.3082e-07,7.3031,5.6118e-07,4.2165,3.465e-13,3.387e-06,-5.6118e-07,-4.2165,2.2016
21240,23.454,1.5455,0,1.4704e-05,146.94,9.0801e-06,53.643,1.9599e-06,0.14508,-1.3039e-05,-112.55,2.2017
21241,23.545,1.4545,0,1.3343e-05,133.34,8.9742e-06,58.799,1.1783e-06,0.22375,-1.1336e-05,-93.803,2.2148
21242,23.454,1.4545,0.05,7.402e-07,7.3969,5.6838e-07,4.2706,4.5947e-13,3.8504e-06,-5.6838e-07,-4.2706,2.2016
21243,23.454,1.7273,0,1.473e-05,147.2,9.0847e-06,53.586,1.9725e-06,0.14785,-1.3069e-05,-112.87,2.2017
21244,23.545,1.6364,0,1.3398e-05,133.89,9.0237e-06,59.219,1.1724e-06,0.22716,-1.1373e-05,-94.034,2.2148
21245,23.454,1.6364,0.05,7.4881e-07,7.4829,5.7499e-07,4.3202,4.515e-13,3.3141e-06,-5.7499e-07,-4.3202,2.2017
21246,23.454,1.9091,0,1.4713e-05,147.03,9.0373e-06,53.028,1.9997e-06,0.15002,-1.3077e-05,-113.13,2.2018
21247,23.545,1.8182,0,1.3398e-05,133.89,9.0088e-06,59.01,1.1856e-06,0.22969,-1.1384e-05,-94.216,2.2149
21248,23.454,1.8182,0.05,7.5654e-07,7.5602,5.8093e-07,4.3649,2.1492e-13,8.6152e-07,-5.8093e-07,-4.3649,2.2017
21249,23.454,2.0909,0,1.467e-05,146.59,8.9588e-06,52.176,2.0349e-06,0.15182,-1.3069e-05,-113.34,2.2018
21250,23.545,2,0,1.3363e-05,133.53,8.9515e-06,58.391,1.211e-06,0.23165,-1.1378e-05,-94.359,2.2149
21251,23.454,2,0.05,7.6332e-07,7.6279,5.8613e-07,4.404,2.0679e-13,3.2454e-07,-5.8613e-07,-4.404,2.2018
21252,23.454,2.2727,0,1.4614e-05,146.04,8.8677e-06,51.212,2.0723e-06,0.15332,-1.3054e-05,-113.5,2.2018
21253,23.545,2.1818,0,1.3307e-05,132.98,8.8716e-06,57.556,1.2424e-06,0.23324,-1.1362e-05,-94.472,2.2149
21254,23.454,2.1818,0.05,7.6904e-07,7.6851,5.9053e-07,4.437,-2.3788e-14,-1.78e-07,-5.9053e-07,-4.437,2.2018
21255,23.454,2.4545,0,1.4558e-05,145.48,8.7798e-06,50.292,2.1069e-06,0.15455,-1.3036e-05,-113.63,2.2018
21256,23.545,2.3636,0,1.3246e-05,132.37,8.7862e-06,56.675,1.2745e-06,0.23451,-1.1342e-05,-94.557,2.2149
21257,23.454,2.3636,0.05,7.7367e-07,7.7313,5.9408e-07,4.4637,-2.1887e-14,-6.4044e-07,-5.9408e-07,-4.4637,2.2018
21258,23.454,2.6364,0,1.4511e-05,145.01,8.7077e-06,49.543,2.1347e-06,0.15549,-1.302e-05,-113.71,2.2019
21259,23.545,2.5455,0,1.319e-05,131.81,8.7093e-06,55.886,1.3026e-06,0.23549,-1.1322e-05,-94.62,2.215
21260,23.454,2.5455,0.05,7.7716e-07,7.7662,5.9676e-07,4.4838,-1.8914e-14,-6.1903e-07,-5.9676e-07,-4.4838,2.2018
21261,23.454,2.8182,0,1.4481e-05,144.71,8.6606e-06,49.055,2.1525e-06,0.15607,-1.301e-05,-113.77,2.2019
21262,23.545,2.7273,0,1.3148e-05,131.39,8.6519e-06,55.299,1.3234e-06,0.23617,-1.1307e-05,-94.66,2.215
21263,23.454,2.7273,0.05,7.7949e-07,7.7895,5.9855e-07,4.4973,-3.5316e-13,-2.4752e-06,-5.9855e-07,-4.4973,2.2018
21264,23.454,3,0,1.447e-05,144.6,8.6443e-06,48.887,2.1587e-06,0.15628,-1.3006e-05,-113.78,2.2019
21265,23.545,2.9091,0,1.3125e-05,131.16,8.6213e-06,54.987,1.3344e-06,0.23652,-1.1298e-05,-94.68,2.215
21266,23.454,2.9091,0.05,7.8066e-07,7.8012,5.9945e-07,4.504,-1.1758e-13,-1.9366e-06,-5.9945e-07,-4.504,2.2018
21267,23.454,3.1818,0,1.4481e-05,144.71,8.6606e-06,49.055,2.1525e-06,0.15607,-1.301e-05,-113.77,2.2019
21268,23.545,3.0909,0,1.3125e-05,131.16,8.6213e-06,54.987,1.3344e-06,0.23653,-1.1298e-05,-94.68,2.215
21269,23.454,3.0909,0.05,7.8066e-07,7.8012,5.9945e-07,4.504,-4.5144e-13,-3.7899e-06,-5.9945e-07,-4.504,2.2018
21270,23.454,3.3636,0,1.4511e-05,145.01,8.7077e-06,49.543,2.1347e-06,0.15549,-1.302e-05,-113.71,2.2019
21271,23.545,3.2727,0,1.3148e-05,131.39,8.6519e-06,55.299,1.3234e-06,0.23617,-1.1307e-05,-94.66,2.215
21272,23.454,3.2727,0.05,7.7949e-07,7.7895,5.9855e-07,4.4973,-4.4764e-13,-3.7614e-06,-5.9855e-07,-4.4973,2.2018
21273,23.454,3.5455,0,1.4558e-05,145.48,8.7798e-06,50.292,2.1069e-06,0.15455,-1.3036e-05,-113.63,2.2018
21274,23.545,3.4545,0,1.319e-05,131.81,8.7093e-06,55.886,1.3026e-06,0.23549,-1.1322e-05,-94.62,2.215
21275,23.454,3.4545,0.05,7.7716e-07,7.7662,5.9676e-07,4.4838,-3.3325e-13,-4.2323e-06,-5.9676e-07,-4.4838,2.2018
21276,23.454,3.7273,0,1.4614e-05,146.04,8.8677e-06,51.212,2.0723e-06,0.15332,-1.3054e-05,-113.5,2.2018
21277,23.545,3.6364,0,1.3246e-05,132.37,8.7862e-06,56.675,1.2745e-06,0.23451,-1.1342e-05,-94.557,2.2149
21278,23.454,3.6364,0.05,7.7367e-07,7.7313,5.9408e-07,4.4637,-3.3464e-13,-3.2889e-06,-5.9408e-07,-4.4637,2.2018
21279,23.454,3.9091,0,1.467e-05,146.59,8.9588e-06,52.176,2.0349e-06,0.15182,-1.3069e-05,-113.34,2.2018
21280,23.545,3.8182,0,1.3307e-05,132.98,8.8716e-06,57.556,1.2424e-06,0.23324,-1.1362e-05,-94.472,2.2149
21281,23.454,3.8182,0.05,7.6904e-07,7.6851,5.9053e-07,4.437,-3.3965e-13,-2.3723e-06,-5.9053e-07,-4.437,2.2018
21282,23.454,4.0909,0,1.4713e-05,147.03,9.0373e-06,53.028,1.9997e-06,0.15003,-1.3077e-05,-113.13,2.2018
21283,23.545,4,0,1.3363e-05,133.53,8.9515e-06,58.391,1.211e-06,0.23166,-1.1378e-05,-94.359,2.2149
21284,23.454,4,0.05,7.6331e-07,7.6279,5.8613e-07,4.404,-4.5786e-13,-2.4075e-06,-5.8613e-07,-4.404,2.2018
21285,23.454,4.2727,0,1.473e-05,147.2,9.0847e-06,53.586,1.9725e-06,0.14785,-1.3069e-05,-112.87,2.2017
21286,23.545,4.1818,0,1.3398e-05,133.89,9.0088e-06,59.01,1.1856e-06,0.22968,-1.1384e-05,-94.216,2.2149
21287,23.454,4.1818,0.05,7.5654e-07,7.5602,5.8093e-07,4.3649,-4.5996e-13,-4.3302e-06,-5.8093e-07,-4.3649,2.2017
21288,23.454,4.4545,0,1.4704e-05,146.94,9.0801e-06,53.643,1.9599e-06,0.14508,-1.3039e-05,-112.55,2.2017
21289,23.545,4.3636,0,1.3398e-05,133.89,9.0237e-06,59.219,1.1724e-06,0.22716,-1.1373e-05,-94.034,2.2148
21290,23.454,4.3636,0.05,7.4881e-07,7.4829,5.7499e-07,4.3202,-2.3343e-15,-4.9408e-07,-5.7499e-07,-4.3202,2.2017
21291,23.454,4.6364,0,1.4618e-05,146.07,9.0005e-06,52.976,1.9687e-06,0.14138,-1.2978e-05,-112.16,2.2016
21292,23.545,4.5455,0,1.3343e-05,133.34,8.9742e-06,58.799,1.1783e-06,0.22375,-1.1336e-05,-93.803,2.2148
21293,23.454,4.5455,0.05,7.402e-07,7.3969,5.6838e-07,4.2706,-2.2002e-13,-1.8526e-06,-5.6838e-07,-4.2706,2.2016
21294,23.454,4.8182,0,1.445e-05,144.4,8.8216e-06,51.345,2.006e-06,0.13606,-1.2876e-05,-111.68,2.2016
21295,23.545,4.7273,0,1.3214e-05,132.05,8.8361e-06,57.515,1.2105e-06,0.21901,-1.1264e-05,-93.507,2.2147
21296,23.454,4.7273,0.05,7.3082e-07,7.3031,5.6118e-07,4.2165,2.643e-14,6.6755e-07,-5.6118e-07,-4.2165,2.2016
21297,23.454,5,0,1.4182e-05,141.72,8.5176e-06,48.508,2.0787e-06,0.12829,-1.272e-05,-111.07,2.2015
21298,23.545,4.9091,0,1.2989e-05,129.8,8.5829e-06,55.111,1.2764e-06,0.21187,-1.1145e-05,-93.12,2.2147
21299,23.454,4.9091,0.05,7.2075e-07,7.2026,5.5345e-07,4.1584,4.5456e-14,1.7495e-06,-5.5345e-07,-4.1584,2.2015
21300,23.454,5.1818,0,1.3795e-05,137.86,8.0639e-06,44.227,2.193e-06,0.11503,-1.2501e-05,-110.29,2.2014
21301,23.545,5.0909,0,1.2646e-05,126.37,8.1868e-06,51.318,1.3836e-06,0.20149,-1.0968e-05,-92.605,2.2146
21302,23.454,5.0909,0.05,7.1003e-07,7.0954,5.4521e-07,4.0965,6.8691e-14,1.0011e-06,-5.4521e-07,-4.0965,2.2015
21303,23.454,5.3636,0,1.328e-05,132.71,7.4412e-06,38.323,2.3534e-06,0.095032,-1.2206e-05,-109.3,2.2014
21304,23.545,5.2727,0,1.2164e-05,121.55,7.6187e-06,45.864,1.5387e-06,0.18156,-1.0718e-05,-91.91,2.2145
21305,23.454,5.2727,0.05,6.9854e-07,6.9806,5.3639e-07,4.0303,3.0286e-13,3.0321e-06,-5.3639e-07,-4.0303,2.2014
21306,23.454,5.5455,0,1.2651e-05,126.42,6.6525e-06,30.796,2.5589e-06,0.038314,-1.1843e-05,-108.17,2.2013
21307,23.545,5.4545,0,1.1529e-05,115.21,6.8537e-06,38.52,1.7479e-06,0.15685,-1.0381e-05,-90.974,2.2145
21308,23.454,5.4545,0.05,6.8563e-07,6.8516,5.2648e-07,3.9558,4.1613e-13,4.3898e-06,-5.2648e-07,-3.9558,2.2013
21309,23.454,5.7273,0,1.205e-05,120.42,5.8104e-06,22.549,2.8028e-06,-0.048769,-1.1508e-05,-107.57,2.2012
21310,23.545,5.6364,0,1.076e-05,107.52,5.8924e-06,29.242,2.0063e-06,0.043387,-9.9598e-06,-89.865,2.2144
21311,23.454,5.6364,0.05,6.624e-07,6.6194,5.0864e-07,3.8217,6.2887e-13,6.2285e-06,-5.0864e-07,-3.8217,2.2012
21312,23.545,5.8182,0,1.0102e-05,100.95,4.9269e-06,19.602,2.3094e-06,-0.064567,-9.6245e-06,-89.732,2.2143
21313,23.454,5.8182,0.05,5.0519e-07,5.0484,3.8792e-07,2.9147,4.0102e-13,3.7687e-06,-3.8792e-07,-2.9147,2.2012
21314,23.454,5.9091,0,1.1237e-05,112.3,4.7372e-06,12.569,3.0756e-06,0.084176,-1.097e-05,-105.45,2.2011
21315,23.636,0.27273,0,8.7514e-06,87.453,4.9504e-06,25.855,1.5147e-06,0.041244,-8.0201e-06,-71.6,2.2275
21316,23.727,0.18182,0,6.7671e-06,67.624,3.9835e-06,21.912,1.0376e-06,-0.22169,-6.1205e-06,-54.005,2.2406
21317,23.636,0.18182,0.05,5.5017e-07,5.4979,4.2246e-07,3.1742,8.1455e-13,1.1438e-05,-4.2246e-07,-3.1742,2.2274
21318,23.636,0.090909,0,7.7352e-06,77.299,3.6409e-06,13.487,1.8734e-06,0.20577,-7.4162e-06,-69.592,2.2274
21319,23.636,0.45455,0,9.6521e-06,96.455,6.077e-06,36.841,1.1981e-06,0.18315,-8.4845e-06,-72.568,2.2275
21320,23.727,0.36364,0,7.8598e-06,78.544,5.3429e-06,35.341,6.3518e-07,-0.030656,-6.6367e-06,-54.669,2.2406
21321,23.636,0.36364,0.05,6.8195e-07,6.8148,5.2365e-07,3.9345,3.2506e-13,6.3538e-06,-5.2365e-07,-3.9345,2.2275
21322,23.636,0.63636,0,1.0455e-05,104.48,7.0239e-06,46.007,9.3554e-07,0.26092,-8.8876e-06,-73.546,2.2276
21323,23.727,0.54545,0,8.8442e-06,88.381,6.475e-06,46.445,3.1114e-07,0.13151,-7.0887e-06,-55.468,2.2407
21324,23.636,0.54545,0.05,7.0453e-07,7.0405,5.4099e-07,4.0648,4.72e-13,6.2133e-06,-5.4099e-07,-4.0648,2.2276
21325,23.636,0.81818,0,1.1072e-05,110.65,7.7376e-06,52.926,7.3149e-07,0.28456,-9.1838e-06,-74.215,2.2277
21326,23.727,0.72727,0,9.6012e-06,95.946,7.3266e-06,54.79,5.6006e-08,0.16187,-7.4181e-06,-55.995,2.2408
21327,23.636,0.72727,0.05,7.1621e-07,7.1572,5.4996e-07,4.1322,3.4553e-13,6.2229e-06,-5.4996e-07,-4.1322,2.2276
21328,23.636,1,0,1.1521e-05,115.13,8.2497e-06,57.903,5.8339e-07,0.30143,-9.3929e-06,-74.656,2.2278
21329,23.727,0.90909,0,1.0158e-05,101.51,7.9456e-06,60.882,-1.3207e-07,0.18915,-7.6516e-06,-56.309,2.2409
21330,23.636,0.90909,0.05,7.2515e-07,7.2465,5.5682e-07,4.1838,3.2243e-13,4.5985e-06,-5.5682e-07,-4.1838,2.2277
21331,23.636,1.1818,0,1.1827e-05,118.19,8.596e-06,61.269,4.8302e-07,0.31121,-9.534e-06,-74.953,2.2278
21332,23.727,1.0909,0,1.0549e-05,105.42,8.377e-06,65.134,-2.6474e-07,0.20365,-7.8116e-06,-56.5,2.2409
21333,23.636,1.0909,0.05,7.3294e-07,7.3244,5.6281e-07,4.2287,2.0606e-13,6.0361e-06,-5.6281e-07,-4.2287,2.2278
21334,23.636,1.3636,0,1.2018e-05,120.09,8.8089e-06,63.332,4.2227e-07,0.31787,-9.6226e-06,-75.155,2.2279
21335,23.727,1.2727,0,1.0805e-05,107.97,8.6577e-06,67.905,-3.5141e-07,0.21387,-7.9149e-06,-56.615,2.241
21336,23.636,1.2727,0.05,7.3995e-07,7.3944,5.6819e-07,4.2692,2.1857e-13,4.7121e-06,-5.6819e-07,-4.2692,2.2278
21337,23.636,1.5455,0,1.2118e-05,121.09,8.9173e-06,64.371,3.9304e-07,0.3224,-9.6711e-06,-75.296,2.2279
21338,23.727,1.4545,0,1.0953e-05,109.45,8.8194e-06,69.5,-4.0117e-07,0.22073,-7.9746e-06,-56.683,2.241
21339,23.636,1.4545,0.05,7.4631e-07,7.4579,5.7307e-07,4.3058,2.1246e-16,5.2461e-06,-5.7307e-07,-4.3058,2.2279
21340,23.636,1.7273,0,1.2149e-05,121.41,8.9475e-06,64.641,3.877e-07,0.32564,-9.69e-06,-75.394,2.228
21341,23.727,1.6364,0,1.1018e-05,110.1,8.8898e-06,70.193,-4.223e-07,0.22562,-8.0015e-06,-56.722,2.2411
21342,23.636,1.6364,0.05,7.5202e-07,7.515,5.7746e-07,4.3388,2.2876e-13,5.256e-06,-5.7746e-07,-4.3388,2.2279
21343,23.636,1.9091,0,1.2133e-05,121.24,8.9228e-06,64.372,3.9909e-07,0.32801,-9.6881e-06,-75.463,2.228
21344,23.727,1.8182,0,1.1023e-05,110.15,8.8939e-06,70.228,-4.2244e-07,0.22914,-8.0048e-06,-56.742,2.2411
21345,23.636,1.8182,0.05,7.5706e-07,7.5654,5.8133e-07,4.3679,4.5292e-13,3.8014e-06,-5.8133e-07,-4.3679,2.228
21346,23.636,2.0909,0,1.2086e-05,120.78,8.8642e-06,63.771,4.2072e-07,0.32982,-9.6732e-06,-75.512,2.228
21347,23.727,2,0,1.0987e-05,109.8,8.8537e-06,69.824,-4.0855e-07,0.23173,-7.9924e-06,-56.75,2.2411
21348,23.636,2,0.05,7.614e-07,7.6088,5.8466e-07,4.3929,-5.4565e-15,3.7725e-06,-5.8466e-07,-4.3929,2.228
21349,23.636,2.2727,0,1.2026e-05,120.18,8.79e-06,63.019,4.4681e-07,0.3312,-9.6517e-06,-75.545,2.2281
21350,23.727,2.1818,0,1.093e-05,109.22,8.7887e-06,69.175,-3.8684e-07,0.23366,-7.9712e-06,-56.752,2.2412
21351,23.636,2.1818,0.05,7.6502e-07,7.6449,5.8744e-07,4.4138,-7.5998e-15,2.3285e-06,-5.8744e-07,-4.4138,2.228
21352,23.636,2.4545,0,1.1966e-05,119.57,8.7157e-06,62.268,4.7245e-07,0.33226,-9.6293e-06,-75.568,2.2281
21353,23.727,2.3636,0,1.0864e-05,108.57,8.7157e-06,68.446,-3.6268e-07,0.23509,-7.9471e-06,-56.751,2.2412
21354,23.636,2.3636,0.05,7.6789e-07,7.6736,5.8965e-07,4.4304,-7.8919e-15,1.8497e-06,-5.8965e-07,-4.4304,2.2281
21355,23.636,2.6364,0,1.1915e-05,119.07,8.6535e-06,61.643,4.9367e-07,0.33302,-9.6101e-06,-75.583,2.2281
21356,23.727,2.5455,0,1.0805e-05,107.97,8.6485e-06,67.776,-3.4053e-07,0.23613,-7.9247e-06,-56.749,2.2412
21357,23.636,2.5455,0.05,7.7003e-07,7.695,5.9129e-07,4.4427,-1.2099e-13,8.9885e-07,-5.9129e-07,-4.4427,2.2281
21358,23.636,2.8182,0,1.1881e-05,118.73,8.6125e-06,61.231,5.0759e-07,0.33348,-9.5974e-06,-75.591,2.2281
21359,23.727,2.7273,0,1.0759e-05,107.52,8.5977e-06,67.27,-3.2381e-07,0.23681,-7.9078e-06,-56.746,2.2412
21360,23.636,2.7273,0.05,7.7145e-07,7.7092,5.9238e-07,4.4509,-3.4572e-13,-1.9423e-06,-5.9238e-07,-4.4509,2.2281
21361,23.636,3,0,1.1869e-05,118.61,8.5983e-06,61.088,5.1243e-07,0.33364,-9.5929e-06,-75.594,2.2281
21362,23.727,2.9091,0,1.0735e-05,107.28,8.5705e-06,66.998,-3.1486e-07,0.23714,-7.8987e-06,-56.745,2.2412
21363,23.636,2.9091,0.05,7.7215e-07,7.7162,5.9292e-07,4.455,-4.561e-13,-4.8701e-07,-5.9292e-07,-4.455,2.2281
21364,23.636,3.1818,0,1.1881e-05,118.73,8.6125e-06,61.231,5.0759e-07,0.33348,-9.5974e-06,-75.591,2.2281
21365,23.727,3.0909,0,1.0735e-05,107.28,8.5705e-06,66.998,-3.1486e-07,0.23714,-7.8987e-06,-56.745,2.2412
21366,23.636,3.0909,0.05,7.7215e-07,7.7162,5.9292e-07,4.455,-4.5372e-13,-3.3301e-06,-5.9292e-07,-4.455,2.2281
21367,23.636,3.3636,0,1.1915e-05,119.07,8.6535e-06,61.643,4.9367e-07,0.33302,-9.6101e-06,-75.583,2.2281
21368,23.727,3.2727,0,1.0759e-05,107.52,8.5977e-06,67.27,-3.2381e-07,0.23681,-7.9078e-06,-56.746,2.2412
21369,23.636,3.2727,0.05,7.7145e-07,7.7092,5.9238e-07,4.4509,-5.6626e-13,-1.8911e-06,-5.9238e-07,-4.4509,2.2281
21370,23.636,3.5455,0,1.1966e-05,119.57,8.7157e-06,62.268,4.7245e-07,0.33226,-9.6293e-06,-75.568,2.2281
21371,23.727,3.4545,0,1.0805e-05,107.97,8.6485e-06,67.776,-3.4053e-07,0.23613,-7.9247e-06,-56.749,2.2412
21372,23.636,3.4545,0.05,7.7003e-07,7.695,5.9129e-07,4.4427,-4.5314e-13,-1.8943e-06,-5.9129e-07,-4.4427,2.2281
21373,23.636,3.7273,0,1.2026e-05,120.18,8.79e-06,63.019,4.4681e-07,0.3312,-9.6517e-06,-75.545,2.2281
21374,23.727,3.6364,0,1.0864e-05,108.57,8.7157e-06,68.446,-3.6268e-07,0.23509,-7.9471e-06,-56.751,2.2412
21375,23.636,3.6364,0.05,7.6789e-07,7.6736,5.8965e-07,4.4304,-4.5499e-13,-9.5603e-07,-5.8965e-07,-4.4304,2.2281
21376,23.636,3.9091,0,1.2086e-05,120.78,8.8642e-06,63.771,4.2072e-07,0.32981,-9.6732e-06,-75.512,2.228
21377,23.727,3.8182,0,1.093e-05,109.22,8.7887e-06,69.175,-3.8684e-07,0.23366,-7.9712e-06,-56.752,2.2412
21378,23.636,3.8182,0.05,7.6502e-07,7.6449,5.8744e-07,4.4138,-3.4505e-13,-5.0748e-07,-5.8744e-07,-4.4138,2.228
21379,23.636,4.0909,0,1.2133e-05,121.24,8.9228e-06,64.372,3.9909e-07,0.32801,-9.6881e-06,-75.463,2.228
21380,23.727,4,0,1.0987e-05,109.8,8.8537e-06,69.824,-4.0856e-07,0.23173,-7.9924e-06,-56.75,2.2411
21381,23.636,4,0.05,7.614e-07,7.6088,5.8466e-07,4.3929,-2.3221e-13,-1.4661e-06,-5.8466e-07,-4.3929,2.228
21382,23.636,4.2727,0,1.2149e-05,121.41,8.9475e-06,64.641,3.8769e-07,0.32564,-9.69e-06,-75.394,2.228
21383,23.727,4.1818,0,1.1023e-05,110.15,8.8939e-06,70.228,-4.2244e-07,0.22914,-8.0048e-06,-56.742,2.2411
21384,23.636,4.1818,0.05,7.5706e-07,7.5654,5.8133e-07,4.3679,-2.3024e-13,-4.9895e-07,-5.8133e-07,-4.3679,2.228
21385,23.636,4.4545,0,1.2118e-05,121.09,8.9174e-06,64.371,3.9304e-07,0.3224,-9.6711e-06,-75.296,2.2279
21386,23.727,4.3636,0,1.1018e-05,110.1,8.8899e-06,70.193,-4.223e-07,0.22562,-8.0015e-06,-56.722,2.2411
21387,23.636,4.3636,0.05,7.5202e-07,7.515,5.7746e-07,4.3388,-2.23e-13,5.1019e-07,-5.7746e-07,-4.3388,2.2279
21388,23.636,4.6364,0,1.2018e-05,120.09,8.8089e-06,63.332,4.2227e-07,0.31787,-9.6226e-06,-75.155,2.2279
21389,23.727,4.5455,0,1.0953e-05,109.45,8.8194e-06,69.5,-4.0117e-07,0.22073,-7.9746e-06,-56.683,2.241
21390,23.636,4.5455,0.05,7.4631e-07,7.4579,5.7307e-07,4.3058,-2.0901e-13,1.38e-07,-5.7307e-07,-4.3058,2.2279
21391,23.636,4.8182,0,1.1827e-05,118.19,8.596e-06,61.269,4.8302e-07,0.31121,-9.534e-06,-74.953,2.2278
21392,23.727,4.7273,0,1.0805e-05,107.97,8.6577e-06,67.905,-3.5141e-07,0.21387,-7.9149e-06,-56.615,2.241
21393,23.636,4.7273,0.05,7.3995e-07,7.3944,5.6819e-07,4.2692,4.0061e-14,1.7267e-06,-5.6819e-07,-4.2692,2.2278
21394,23.636,5,0,1.1521e-05,115.13,8.2497e-06,57.903,5.8338e-07,0.30143,-9.3929e-06,-74.656,2.2278
21395,23.727,4.9091,0,1.0549e-05,105.42,8.377e-06,65.134,-2.6474e-07,0.20365,-7.8116e-06,-56.5,2.2409
21396,23.636,4.9091,0.05,7.3294e-07,7.3244,5.6281e-07,4.2287,4.0024e-13,4.279e-06,-5.6281e-07,-4.2287,2.2278
21397,23.636,5.1818,0,1.1072e-05,110.65,7.7376e-06,52.926,7.3149e-07,0.28456,-9.1838e-06,-74.215,2.2277
21398,23.727,5.0909,0,1.0158e-05,101.51,7.9456e-06,60.882,-1.3207e-07,0.18914,-7.6516e-06,-56.309,2.2409
21399,23.636,5.0909,0.05,7.2515e-07,7.2465,5.5682e-07,4.1838,2.1646e-13,3.6529e-06,-5.5682e-07,-4.1837,2.2277
21400,23.636,5.3636,0,1.0455e-05,104.48,7.0239e-06,46.007,9.3553e-07,0.26092,-8.8876e-06,-73.546,2.2276
21401,23.727,5.2727,0,9.6012e-06,95.946,7.3266e-06,54.79,5.6002e-08,0.16187,-7.4181e-06,-55.995,2.2408
21402,23.636,5.2727,0.05,7.1621e-07,7.1572,5.4996e-07,4.1322,4.6669e-13,6.6969e-06,-5.4996e-07,-4.1322,2.2276
21403,23.636,5.5455,0,9.6521e-06,96.455,6.077e-06,36.841,1.1981e-06,0.18315,-8.4845e-06,-72.568,2.2275
21404,23.727,5.4545,0,8.8442e-06,88.381,6.475e-06,46.445,3.1114e-07,0.13151,-7.0887e-06,-55.468,2.2407
21405,23.636,5.4545,0.05,7.0453e-07,7.0405,5.4099e-07,4.0648,5.7434e-13,7.5768e-06,-5.4099e-07,-4.0648,2.2276
21406,23.636,5.7273,0,8.7514e-06,87.453,4.9504e-06,25.855,1.5147e-06,0.041247,-8.0201e-06,-71.6,2.2275
21407,23.727,5.6364,0,7.8598e-06,78.544,5.3429e-06,35.341,6.3518e-07,-0.030653,-6.6367e-06,-54.669,2.2406
21408,23.636,5.6364,0.05,6.8195e-07,6.8148,5.2365e-07,3.9345,7.0444e-13,9.9307e-06,-5.2365e-07,-3.9345,2.2275
21409,23.727,5.8182,0,6.7671e-06,67.624,3.9835e-06,21.912,1.0376e-06,-0.22168,-6.1205e-06,-54.005,2.2406
21410,23.636,5.8182,0.05,5.5017e-07,5.4979,4.2246e-07,3.1742,5.9349e-13,7.9301e-06,-4.2246e-07,-3.1742,2.2274
21411,23.636,5.9091,0,7.7352e-06,77.299,3.6409e-06,13.487,1.8734e-06,0.20577,-7.4162e-06,-69.592,2.2274
21412,23.818,0.27273,0,5.872e-06,58.68,4.3193e-06,30.972,1.6718e-07,-0.22498,-4.6895e-06,-36.717,2.2537
21413,23.818,0.18182,0.05,6.3685e-07,6.3641,4.8902e-07,3.6743,6.2363e-13,8.6621e-06,-4.8902e-07,-3.6743,2.2537
21414,23.818,0.090909,0,4.409e-06,44.06,2.6042e-06,14.496,6.8043e-07,0.041126,-3.98e-06,-34.976,2.2536
21415,23.909,0.18182,0,3.9888e-06,39.86,3.2256e-06,25.521,-1.6102e-07,0.075058,-2.8884e-06,-20.417,2.2668
21416,23.818,0.45455,0,7.1508e-06,71.459,5.7287e-06,44.853,-2.4189e-07,-0.0077577,-5.2387e-06,-37.552,2.2538
21417,23.818,0.36364,0.05,7.3143e-07,7.3092,5.6165e-07,4.22,-4.3012e-13,1.4616e-06,-5.6164e-07,-4.22,2.2538
21418,23.909,0.36364,0,5.6344e-06,56.305,4.9675e-06,42.765,-6.8987e-07,0.25807,-3.5315e-06,-21.093,2.2669
21419,23.818,0.63636,0,8.117e-06,81.114,6.7728e-06,55.191,-5.5855e-07,0.10643,-5.6241e-06,-37.954,2.2539
21420,23.818,0.54545,0.05,7.4217e-07,7.4166,5.699e-07,4.282,-3.2505e-13,1.3377e-06,-5.699e-07,-4.282,2.2538
21421,23.909,0.54545,0,6.8332e-06,68.285,6.2101e-06,55.135,-1.0738e-06,0.40632,-3.9743e-06,-21.387,2.267
21422,23.818,0.81818,0,8.8263e-06,88.202,7.5322e-06,62.728,-7.9745e-07,0.14236,-5.8936e-06,-38.148,2.2539
21423,23.818,0.72727,0.05,7.4552e-07,7.45,5.7246e-07,4.3013,-2.3117e-13,2.8902e-06,-5.7246e-07,-4.3013,2.2539
21424,23.909,0.72727,0,7.7119e-06,77.065,7.1145e-06,64.127,-1.3653e-06,0.41371,-4.2859e-06,-21.53,2.267
21425,23.818,1,0,9.3323e-06,93.258,8.0717e-06,68.104,-9.698e-07,0.16939,-6.0795e-06,-38.223,2.254
21426,23.818,0.90909,0.05,7.4808e-07,7.4757,5.7444e-07,4.3161,1.4192e-13,6.0564e-06,-5.7443e-07,-4.3161,2.254
21427,23.909,0.90909,0,8.3463e-06,83.406,7.7657e-06,70.624,-1.5766e-06,0.42962,-4.5058e-06,-21.579,2.2671
21428,23.818,1.1818,0,9.6765e-06,96.698,8.4381e-06,71.766,-1.0885e-06,0.18608,-6.2025e-06,-38.238,2.2541
21429,23.818,1.0909,0.05,7.5037e-07,7.4985,5.7619e-07,4.3293,1.9251e-13,6.4125e-06,-5.7619e-07,-4.3293,2.254
21430,23.909,1.0909,0,8.7901e-06,87.841,8.2206e-06,75.17,-1.7259e-06,0.43585,-4.6568e-06,-21.586,2.2672
21431,23.818,1.3636,0,9.8921e-06,98.853,8.668e-06,74.072,-1.164e-06,0.19787,-6.2775e-06,-38.223,2.2541
21432,23.818,1.2727,0.05,7.5263e-07,7.5211,5.7792e-07,4.3423,4.3719e-13,5.6104e-06,-5.7792e-07,-4.3423,2.2541
21433,23.909,1.2727,0,9.0825e-06,90.762,8.5204e-06,78.173,-1.8251e-06,0.44077,-4.7545e-06,-21.57,2.2672
21434,23.818,1.5455,0,1.0008e-05,100.01,8.7919e-06,75.323,-1.2056e-06,0.20613,-6.316e-06,-38.192,2.2542
21435,23.818,1.4545,0.05,7.5484e-07,7.5432,5.7962e-07,4.3551,2.2113e-13,6.6253e-06,-5.7962e-07,-4.3551,2.2541
21436,23.909,1.4545,0,9.2558e-06,92.494,8.6986e-06,79.963,-1.8848e-06,0.44399,-4.811e-06,-21.543,2.2673
21437,23.818,1.7273,0,1.0048e-05,100.41,8.8364e-06,75.782,-1.2214e-06,0.21207,-6.3275e-06,-38.153,2.2542
21438,23.818,1.6364,0.05,7.5694e-07,7.5642,5.8124e-07,4.3672,2.2793e-13,6.676e-06,-5.8124e-07,-4.3672,2.2542
21439,23.909,1.6364,0,9.3378e-06,93.314,8.7835e-06,80.823,-1.914e-06,0.44645,-4.8364e-06,-21.511,2.2673
21440,23.818,1.9091,0,1.0035e-05,100.28,8.8249e-06,75.682,-1.219e-06,0.21636,-6.3204e-06,-38.114,2.2543
21441,23.818,1.8182,0.05,7.5886e-07,7.5834,5.8271e-07,4.3783,1.2501e-15,6.6855e-06,-5.8271e-07,-4.3783,2.2542
21442,23.909,1.8182,0,9.3533e-06,93.469,8.8005e-06,81.004,-1.9208e-06,0.44838,-4.8392e-06,-21.479,2.2674
21443,23.818,2.0909,0,9.9897e-06,99.828,8.7783e-06,75.229,-1.2049e-06,0.21948,-6.3018e-06,-38.076,2.2543
21444,23.818,2,0.05,7.6053e-07,7.6,5.8399e-07,4.3879,8.5796e-16,3.8219e-06,-5.8399e-07,-4.3879,2.2543
21445,23.909,2,0,9.3239e-06,93.175,8.7715e-06,80.725,-1.9125e-06,0.44997,-4.827e-06,-21.448,2.2674
21446,23.818,2.2727,0,9.928e-06,99.212,8.7144e-06,74.603,-1.1851e-06,0.22174,-6.2778e-06,-38.043,2.2543
21447,23.818,2.1818,0.05,7.619e-07,7.6138,5.8505e-07,4.3958,4.5412e-17,3.815e-06,-5.8505e-07,-4.3958,2.2543
21448,23.909,2.1818,0,9.2688e-06,92.624,8.7162e-06,80.182,-1.8953e-06,0.4513,-4.8063e-06,-21.421,2.2674
21449,23.818,2.4545,0,9.8647e-06,98.579,8.6485e-06,73.954,-1.1644e-06,0.22333,-6.2538e-06,-38.016,2.2543
21450,23.818,2.3636,0.05,7.6298e-07,7.6245,5.8587e-07,4.402,-5.3998e-16,2.8571e-06,-5.8587e-07,-4.402,2.2543
21451,23.909,2.3636,0,9.2044e-06,91.981,8.6512e-06,79.54,-1.8747e-06,0.45241,-4.7829e-06,-21.398,2.2675
21452,23.818,2.6364,0,9.8112e-06,98.045,8.5927e-06,73.403,-1.1468e-06,0.2244,-6.2336e-06,-37.996,2.2543
21453,23.818,2.5455,0.05,7.6376e-07,7.6324,5.8648e-07,4.4066,-3.4186e-13,2.8551e-06,-5.8647e-07,-4.4065,2.2543
21454,23.909,2.5455,0,9.144e-06,91.377,8.5901e-06,78.936,-1.8553e-06,0.45327,-4.7612e-06,-21.381,2.2675
21455,23.818,2.8182,0,9.7758e-06,97.69,8.5556e-06,73.036,-1.135e-06,0.22502,-6.2203e-06,-37.984,2.2544
21456,23.818,2.7273,0.05,7.6427e-07,7.6374,5.8686e-07,4.4095,-2.2798e-13,-4.4868e-09,-5.8686e-07,-4.4095,2.2543
21457,23.909,2.7273,0,9.098e-06,90.917,8.5434e-06,78.473,-1.8403e-06,0.45388,-4.7448e-06,-21.369,2.2675
21458,23.818,3,0,9.7634e-06,97.567,8.5426e-06,72.908,-1.1309e-06,0.22522,-6.2157e-06,-37.98,2.2544
21459,23.818,2.9091,0.05,7.6452e-07,7.6399,5.8705e-07,4.4109,-4.5489e-13,-1.0475e-09,-5.8705e-07,-4.4109,2.2543
21460,23.909,2.9091,0,9.0732e-06,90.669,8.5183e-06,78.224,-1.8323e-06,0.45418,-4.7359e-06,-21.363,2.2675
21461,23.818,3.1818,0,9.7758e-06,97.69,8.5556e-06,73.036,-1.135e-06,0.22502,-6.2203e-06,-37.984,2.2544
21462,23.818,3.0909,0.05,7.6452e-07,7.6399,5.8705e-07,4.4109,-6.8207e-13,-1.9069e-06,-5.8705e-07,-4.4109,2.2543
21463,23.909,3.0909,0,9.0732e-06,90.669,8.5183e-06,78.224,-1.8323e-06,0.45418,-4.7359e-06,-21.363,2.2675
21464,23.818,3.3636,0,9.8112e-06,98.045,8.5927e-06,73.403,-1.1468e-06,0.2244,-6.2336e-06,-37.996,2.2543
21465,23.818,3.2727,0.05,7.6427e-07,7.6374,5.8686e-07,4.4095,-4.5472e-13,-1.9071e-06,-5.8686e-07,-4.4095,2.2543
21466,23.909,3.2727,0,9.098e-06,90.917,8.5434e-06,78.473,-1.8403e-06,0.45388,-4.7448e-06,-21.369,2.2675
21467,23.818,3.5455,0,9.8647e-06,98.579,8.6485e-06,73.954,-1.1644e-06,0.22333,-6.2538e-06,-38.016,2.2543
21468,23.818,3.4545,0.05,7.6376e-07,7.6324,5.8648e-07,4.4065,-4.5484e-13,-9.5409e-07,-5.8647e-07,-4.4065,2.2543
21469,23.909,3.4545,0,9.144e-06,91.377,8.5901e-06,78.936,-1.8553e-06,0.45327,-4.7612e-06,-21.381,2.2675
21470,23.818,3.7273,0,9.928e-06,99.212,8.7144e-06,74.603,-1.1851e-06,0.22173,-6.2778e-06,-38.043,2.2543
21471,23.818,3.6364,0.05,7.6298e-07,7.6245,5.8587e-07,4.402,-4.552e-13,-3.1906e-09,-5.8587e-07,-4.402,2.2543
21472,23.909,3.6364,0,9.2044e-06,91.981,8.6512e-06,79.54,-1.8747e-06,0.45241,-4.7829e-06,-21.398,2.2675
21473,23.818,3.9091,0,9.9897e-06,99.828,8.7783e-06,75.229,-1.2049e-06,0.21948,-6.3018e-06,-38.076,2.2543
21474,23.818,3.8182,0.05,7.619e-07,7.6138,5.8505e-07,4.3958,-4.5464e-13,-9.5289e-07,-5.8505e-07,-4.3958,2.2543
21475,23.909,3.8182,0,9.2688e-06,92.625,8.7162e-06,80.182,-1.8953e-06,0.4513,-4.8063e-06,-21.421,2.2674
21476,23.818,4.0909,0,1.0035e-05,100.28,8.8249e-06,75.682,-1.219e-06,0.21636,-6.3204e-06,-38.114,2.2543
21477,23.818,4,0.05,7.6053e-07,7.6,5.8399e-07,4.3879,-4.5176e-13,2.2109e-08,-5.8399e-07,-4.3879,2.2543
21478,23.909,4,0,9.3239e-06,93.175,8.7715e-06,80.725,-1.9125e-06,0.44997,-4.827e-06,-21.448,2.2674
21479,23.818,4.2727,0,1.0048e-05,100.41,8.8364e-06,75.782,-1.2214e-06,0.21207,-6.3275e-06,-38.153,2.2542
21480,23.818,4.1818,0.05,7.5886e-07,7.5834,5.8271e-07,4.3783,-4.4571e-13,1.0221e-06,-5.8271e-07,-4.3783,2.2542
21481,23.909,4.1818,0,9.3533e-06,93.469,8.8005e-06,81.004,-1.9208e-06,0.44838,-4.8392e-06,-21.479,2.2674
21482,23.818,4.4545,0,1.0008e-05,100.01,8.7919e-06,75.323,-1.2056e-06,0.20613,-6.316e-06,-38.192,2.2542
21483,23.818,4.3636,0.05,7.5694e-07,7.5642,5.8124e-07,4.3672,-9.3143e-14,2.0678e-06,-5.8124e-07,-4.3672,2.2542
21484,23.909,4.3636,0,9.3379e-06,93.314,8.7836e-06,80.824,-1.914e-06,0.44645,-4.8364e-06,-21.511,2.2673
21485,23.818,4.6364,0,9.8921e-06,98.853,8.668e-06,74.072,-1.164e-06,0.19787,-6.2775e-06,-38.223,2.2541
21486,23.818,4.5455,0.05,7.5484e-07,7.5432,5.7962e-07,4.3551,-7.7213e-14,3.1529e-06,-5.7962e-07,-4.355,2.2541
21487,23.909,4.5455,0,9.2558e-06,92.494,8.6986e-06,79.963,-1.8848e-06,0.44399,-4.811e-06,-21.543,2.2673
21488,23.818,4.8182,0,9.6765e-06,96.698,8.4381e-06,71.766,-1.0885e-06,0.18608,-6.2025e-06,-38.238,2.2541
21489,23.818,4.7273,0.05,7.5262e-07,7.5211,5.7792e-07,4.3423,5.5194e-14,3.2891e-06,-5.7792e-07,-4.3423,2.2541
21490,23.909,4.7273,0,9.0825e-06,90.762,8.5205e-06,78.173,-1.8251e-06,0.44077,-4.7545e-06,-21.57,2.2672
21491,23.818,5,0,9.3323e-06,93.258,8.0717e-06,68.104,-9.6981e-07,0.16939,-6.0795e-06,-38.223,2.254
21492,23.818,4.9091,0.05,7.5037e-07,7.4985,5.7619e-07,4.3293,3.091e-13,8.1983e-06,-5.7619e-07,-4.3293,2.254
21493,23.909,4.9091,0,8.7901e-06,87.841,8.2207e-06,75.17,-1.7259e-06,0.43585,-4.6568e-06,-21.586,2.2672
21494,23.818,5.1818,0,8.8263e-06,88.202,7.5322e-06,62.728,-7.9745e-07,0.14236,-5.8936e-06,-38.148,2.2539
21495,23.818,5.0909,0.05,7.4808e-07,7.4757,5.7444e-07,4.3161,3.5724e-13,6.2694e-06,-5.7443e-07,-4.3161,2.254
21496,23.909,5.0909,0,8.3464e-06,83.406,7.7657e-06,70.624,-1.5766e-06,0.42962,-4.5058e-06,-21.579,2.2671
21497,23.818,5.3636,0,8.117e-06,81.114,6.7728e-06,55.191,-5.5855e-07,0.10643,-5.6241e-06,-37.954,2.2539
21498,23.818,5.2727,0.05,7.4552e-07,7.45,5.7246e-07,4.3013,5.9531e-13,9.234e-06,-5.7246e-07,-4.3013,2.2539
21499,23.909,5.2727,0,7.7119e-06,77.066,7.1145e-06,64.127,-1.3653e-06,0.41371,-4.2859e-06,-21.53,2.267
21500,23.818,5.5455,0,7.1508e-06,71.459,5.7287e-06,44.853,-2.4189e-07,-0.0077568,-5.2387e-06,-37.552,2.2538
21501,23.818,5.4545,0.05,7.4217e-07,7.4166,5.699e-07,4.282,6.4652e-13,1.1014e-05,-5.699e-07,-4.282,2.2538
21502,23.909,5.4545,0,6.8332e-06,68.285,6.2101e-06,55.135,-1.0738e-06,0.40632,-3.9743e-06,-21.387,2.267
21503,23.818,5.7273,0,5.872e-06,58.68,4.3193e-06,30.972,1.6718e-07,-0.22498,-4.6895e-06,-36.717,2.2537
21504,23.818,5.6364,0.05,7.3143e-07,7.3092,5.6165e-07,4.22,9.9227e-13,1.3402e-05,-5.6165e-07,-4.22,2.2538
21505,23.909,5.6364,0,5.6344e-06,56.305,4.9675e-06,42.765,-6.8987e-07,0.25807,-3.5315e-06,-21.093,2.2669
21506,23.818,5.8182,0.05,6.3685e-07,6.3641,4.8902e-07,3.6743,1.0142e-12,1.3674e-05,-4.8902e-07,-3.6743,2.2537
21507,23.909,5.8182,0,3.9888e-06,39.86,3.2256e-06,25.521,-1.6102e-07,0.075058,-2.8884e-06,-20.417,2.2668
21508,23.818,5.9091,0,4.409e-06,44.06,2.6042e-06,14.496,6.8043e-07,0.041125,-3.98e-06,-34.976,2.2536
21509,23.818,5.7273,0.1,5.872e-06,58.68,4.6895e-06,36.717,-1.6719e-07,0.22498,-4.3193e-06,-30.972,2.2537
21510,23.727,5.8182,0.1,6.7671e-06,67.624,6.1205e-06,54.005,-1.0376e-06,0.22168,-3.9835e-06,-21.912,2.2406
21511,23.818,5.9091,0.1,4.409e-06,44.06,3.98e-06,34.976,-6.8043e-07,-0.041123,-2.6042e-06,-14.496,2.2536
21512,23.909,5.8182,0.1,3.9888e-06,39.86,2.8884e-06,20.417,1.6102e-07,-0.075058,-3.2256e-06,-25.521,2.2668
21513,23.818,5.5455,0.1,7.1508e-06,71.459,5.2387e-06,37.552,2.4189e-07,0.0077587,-5.7287e-06,-44.853,2.2538
21514,23.727,5.6364,0.1,7.8598e-06,78.544,6.6367e-06,54.669,-6.3518e-07,0.030654,-5.3429e-06,-35.341,2.2406
21515,23.909,5.6364,0.1,5.6344e-06,56.305,3.5315e-06,21.093,6.8987e-07,-0.25807,-4.9675e-06,-42.765,2.2669
21516,23.818,5.3636,0.1,8.117e-06,81.114,5.6241e-06,37.954,5.5855e-07,-0.10643,-6.7728e-06,-55.191,2.2539
21517,23.727,5.4545,0.1,8.8442e-06,88.381,7.0887e-06,55.468,-3.1114e-07,-0.13151,-6.475e-06,-46.445,2.2407
21518,23.909,5.4545,0.1,6.8332e-06,68.285,3.9743e-06,21.387,1.0738e-06,-0.40632,-6.2101e-06,-55.135,2.267
21519,23.818,5.1818,0.1,8.8263e-06,88.202,5.8936e-06,38.148,7.9745e-07,-0.14236,-7.5322e-06,-62.728,2.2539
21520,23.727,5.2727,0.1,9.6012e-06,95.946,7.4181e-06,55.995,-5.6003e-08,-0.16187,-7.3266e-06,-54.79,2.2408
21521,23.909,5.2727,0.1,7.7119e-06,77.066,4.2859e-06,21.53,1.3653e-06,-0.41371,-7.1145e-06,-64.127,2.267
21522,23.818,5,0.1,9.3323e-06,93.258,6.0795e-06,38.223,9.6981e-07,-0.16939,-8.0717e-06,-68.104,2.254
21523,23.727,5.0909,0.1,1.0158e-05,101.51,7.6516e-06,56.309,1.3207e-07,-0.18914,-7.9456e-06,-60.882,2.2409
21524,23.909,5.0909,0.1,8.3464e-06,83.406,4.5058e-06,21.579,1.5766e-06,-0.42962,-7.7657e-06,-70.624,2.2671
21525,23.818,4.8182,0.1,9.6765e-06,96.698,6.2025e-06,38.238,1.0885e-06,-0.18608,-8.4381e-06,-71.766,2.2541
21526,23.727,4.9091,0.1,1.0549e-05,105.42,7.8116e-06,56.5,2.6474e-07,-0.20365,-8.377e-06,-65.134,2.2409
21527,23.909,4.9091,0.1,8.7901e-06,87.841,4.6568e-06,21.586,1.7259e-06,-0.43585,-8.2207e-06,-75.17,2.2672
21528,23.818,4.6364,0.1,9.8921e-06,98.853,6.2775e-06,38.223,1.164e-06,-0.19787,-8.668e-06,-74.072,2.2541
21529,23.727,4.7273,0.1,1.0805e-05,107.97,7.9149e-06,56.615,3.5141e-07,-0.21387,-8.6577e-06,-67.905,2.241
21530,23.909,4.7273,0.1,9.0825e-06,90.762,4.7545e-06,21.57,1.8251e-06,-0.44077,-8.5205e-06,-78.173,2.2672
21531,23.818,4.4545,0.1,1.0008e-05,100.01,6.316e-06,38.192,1.2056e-06,-0.20613,-8.7919e-06,-75.323,2.2542
21532,23.727,4.5455,0.1,1.0953e-05,109.45,7.9746e-06,56.683,4.0117e-07,-0.22073,-8.8194e-06,-69.5,2.241
21533,23.909,4.5455,0.1,9.2558e-06,92.494,4.811e-06,21.543,1.8848e-06,-0.44399,-8.6986e-06,-79.963,2.2673
21534,23.818,4.2727,0.1,1.0048e-05,100.41,6.3275e-06,38.153,1.2214e-06,-0.21207,-8.8364e-06,-75.782,2.2542
21535,23.727,4.3636,0.1,1.1018e-05,110.1,8.0015e-06,56.722,4.223e-07,-0.22562,-8.8899e-06,-70.193,2.2411
21536,23.909,4.3636,0.1,9.3379e-06,93.314,4.8364e-06,21.511,1.914e-06,-0.44645,-8.7836e-06,-80.824,2.2673
21537,23.818,4.0909,0.1,1.0035e-05,100.28,6.3204e-06,38.114,1.219e-06,-0.21636,-8.8249e-06,-75.682,2.2543
21538,23.727,4.1818,0.1,1.1023e-05,110.15,8.0048e-06,56.742,4.2244e-07,-0.22914,-8.8939e-06,-70.228,2.2411
21539,23.909,4.1818,0.1,9.3533e-06,93.469,4.8392e-06,21.479,1.9208e-06,-0.44838,-8.8005e-06,-81.004,2.2674
21540,23.818,3.9091,0.1,9.9897e-06,99.828,6.3018e-06,38.076,1.2049e-06,-0.21948,-8.7783e-06,-75.229,2.2543
21541,23.727,4,0.1,1.0987e-05,109.8,7.9924e-06,56.75,4.0856e-07,-0.23173,-8.8537e-06,-69.824,2.2411
21542,23.909,4,0.1,9.3239e-06,93.175,4.827e-06,21.448,1.9125e-06,-0.44997,-8.7715e-06,-80.725,2.2674
21543,23.818,3.7273,0.1,9.928e-06,99.212,6.2778e-06,38.043,1.1851e-06,-0.22173,-8.7144e-06,-74.603,2.2543
21544,23.727,3.8182,0.1,1.093e-05,109.22,7.9712e-06,56.752,3.8684e-07,-0.23366,-8.7887e-06,-69.175,2.2412
21545,23.909,3.8182,0.1,9.2688e-06,92.625,4.8063e-06,21.421,1.8953e-06,-0.4513,-8.7162e-06,-80.182,2.2674
21546,23.818,3.5455,0.1,9.8647e-06,98.579,6.2538e-06,38.016,1.1644e-06,-0.22333,-8.6485e-06,-73.954,2.2543
21547,23.727,3.6364,0.1,1.0864e-05,108.57,7.9471e-06,56.751,3.6268e-07,-0.23509,-8.7157e-06,-68.446,2.2412
21548,23.909,3.6364,0.1,9.2044e-06,91.981,4.7829e-06,21.398,1.8747e-06,-0.45241,-8.6512e-06,-79.54,2.2675
21549,23.818,3.3636,0.1,9.8112e-06,98.045,6.2336e-06,37.996,1.1468e-06,-0.2244,-8.5927e-06,-73.403,2.2543
21550,23.727,3.4545,0.1,1.0805e-05,107.97,7.9247e-06,56.749,3.4053e-07,-0.23613,-8.6485e-06,-67.776,2.2412
21551,23.909,3.4545,0.1,9.144e-06,91.377,4.7612e-06,21.381,1.8553e-06,-0.45327,-8.5901e-06,-78.936,2.2675
21552,23.818,3.1818,0.1,9.7758e-06,97.691,6.2203e-06,37.984,1.135e-06,-0.22502,-8.5556e-06,-73.036,2.2544
21553,23.727,3.2727,0.1,1.0759e-05,107.52,7.9078e-06,56.746,3.2381e-07,-0.23681,-8.5977e-06,-67.27,2.2412
21554,23.909,3.2727,0.1,9.098e-06,90.917,4.7448e-06,21.369,1.8403e-06,-0.45387,-8.5434e-06,-78.473,2.2675
21555,23.818,3,0.1,9.7634e-06,97.567,6.2157e-06,37.98,1.1309e-06,-0.22522,-8.5426e-06,-72.908,2.2544
21556,23.727,3.0909,0.1,1.0735e-05,107.28,7.8987e-06,56.745,3.1486e-07,-0.23714,-8.5705e-06,-66.998,2.2412
21557,23.909,3.0909,0.1,9.0732e-06,90.669,4.7359e-06,21.363,1.8323e-06,-0.45418,-8.5183e-06,-78.224,2.2675
21558,23.818,2.8182,0.1,9.7758e-06,97.691,6.2203e-06,37.984,1.135e-06,-0.22502,-8.5556e-06,-73.036,2.2544
21559,23.727,2.9091,0.1,1.0735e-05,107.28,7.8987e-06,56.745,3.1486e-07,-0.23714,-8.5705e-06,-66.998,2.2412
21560,23.909,2.9091,0.1,9.0732e-06,90.669,4.7359e-06,21.363,1.8323e-06,-0.45418,-8.5183e-06,-78.224,2.2675
21561,23.818,2.6364,0.1,9.8112e-06,98.045,6.2336e-06,37.996,1.1468e-06,-0.2244,-8.5927e-06,-73.403,2.2543
21562,23.727,2.7273,0.1,1.0759e-05,107.52,7.9078e-06,56.746,3.2381e-07,-0.23681,-8.5977e-06,-67.27,2.2412
21563,23.909,2.7273,0.1,9.098e-06,90.917,4.7448e-06,21.369,1.8403e-06,-0.45387,-8.5434e-06,-78.473,2.2675
21564,23.818,2.4545,0.1,9.8647e-06,98.579,6.2538e-06,38.016,1.1644e-06,-0.22333,-8.6485e-06,-73.954,2.2543
21565,23.727,2.5455,0.1,1.0805e-05,107.97,7.9247e-06,56.749,3.4053e-07,-0.23613,-8.6485e-06,-67.776,2.2412
21566,23.909,2.5455,0.1,9.144e-06,91.377,4.7612e-06,21.381,1.8553e-06,-0.45327,-8.5901e-06,-78.936,2.2675
21567,23.818,2.2727,0.1,9.928e-06,99.212,6.2778e-06,38.043,1.1851e-06,-0.22173,-8.7144e-06,-74.603,2.2543
21568,23.727,2.3636,0.1,1.0864e-05,108.57,7.9471e-06,56.751,3.6268e-07,-0.23509,-8.7157e-06,-68.446,2.2412
21569,23.909,2.3636,0.1,9.2044e-06,91.981,4.7829e-06,21.398,1.8747e-06,-0.45241,-8.6512e-06,-79.54,2.2675
21570,23.818,2.0909,0.1,9.9897e-06,99.828,6.3018e-06,38.076,1.2049e-06,-0.21948,-8.7783e-06,-75.229,2.2543
21571,23.727,2.1818,0.1,1.093e-05,109.22,7.9712e-06,56.752,3.8684e-07,-0.23366,-8.7887e-06,-69.175,2.2412
21572,23.909,2.1818,0.1,9.2688e-06,92.625,4.8063e-06,21.421,1.8953e-06,-0.4513,-8.7162e-06,-80.182,2.2674
21573,23.818,1.9091,0.1,1.0035e-05,100.28,6.3204e-06,38.114,1.219e-06,-0.21636,-8.8249e-06,-75.682,2.2543
21574,23.727,2,0.1,1.0987e-05,109.8,7.9924e-06,56.75,4.0855e-07,-0.23173,-8.8537e-06,-69.824,2.2411
21575,23.909,2,0.1,9.3239e-06,93.175,4.827e-06,21.448,1.9125e-06,-0.44997,-8.7715e-06,-80.725,2.2674
21576,23.818,1.7273,0.1,1.0048e-05,100.41,6.3275e-06,38.153,1.2214e-06,-0.21207,-8.8364e-06,-75.782,2.2542
21577,23.727,1.8182,0.1,1.1023e-05,110.15,8.0048e-06,56.742,4.2244e-07,-0.22914,-8.8939e-06,-70.228,2.2411
21578,23.909,1.8182,0.1,9.3533e-06,93.469,4.8392e-06,21.479,1.9208e-06,-0.44838,-8.8005e-06,-81.004,2.2674
21579,23.818,1.5455,0.1,1.0008e-05,100.01,6.316e-06,38.192,1.2056e-06,-0.20613,-8.7919e-06,-75.323,2.2542
21580,23.727,1.6364,0.1,1.1018e-05,110.1,8.0015e-06,56.722,4.223e-07,-0.22562,-8.8898e-06,-70.193,2.2411
21581,23.909,1.6364,0.1,9.3378e-06,93.314,4.8364e-06,21.511,1.914e-06,-0.44645,-8.7835e-06,-80.823,2.2673
21582,23.818,1.3636,0.1,9.8921e-06,98.853,6.2775e-06,38.223,1.164e-06,-0.19787,-8.668e-06,-74.072,2.2541
21583,23.727,1.4545,0.1,1.0953e-05,109.45,7.9746e-06,56.683,4.0116e-07,-0.22073,-8.8194e-06,-69.5,2.241
21584,23.909,1.4545,0.1,9.2558e-06,92.494,4.811e-06,21.543,1.8848e-06,-0.44399,-8.6986e-06,-79.963,2.2673
21585,23.818,1.1818,0.1,9.6765e-06,96.698,6.2025e-06,38.238,1.0885e-06,-0.18608,-8.4381e-06,-71.766,2.2541
21586,23.727,1.2727,0.1,1.0805e-05,107.97,7.9149e-06,56.615,3.5141e-07,-0.21387,-8.6577e-06,-67.905,2.241
21587,23.909,1.2727,0.1,9.0825e-06,90.762,4.7545e-06,21.57,1.8251e-06,-0.44077,-8.5204e-06,-78.173,2.2672
21588,23.818,1,0.1,9.3323e-06,93.258,6.0795e-06,38.223,9.698e-07,-0.16939,-8.0717e-06,-68.104,2.254
21589,23.727,1.0909,0.1,1.0549e-05,105.42,7.8116e-06,56.5,2.6474e-07,-0.20365,-8.377e-06,-65.134,2.2409
21590,23.909,1.0909,0.1,8.7901e-06,87.841,4.6568e-06,21.586,1.7259e-06,-0.43585,-8.2206e-06,-75.17,2.2672
21591,23.818,0.81818,0.1,8.8263e-06,88.202,5.8936e-06,38.148,7.9745e-07,-0.14236,-7.5322e-06,-62.728,2.2539
21592,23.727,0.90909,0.1,1.0158e-05,101.51,7.6516e-06,56.309,1.3206e-07,-0.18915,-7.9456e-06,-60.882,2.2409
21593,23.909,0.90909,0.1,8.3464e-06,83.406,4.5058e-06,21.579,1.5766e-06,-0.42962,-7.7657e-06,-70.624,2.2671
21594,23.818,0.63636,0.1,8.117e-06,81.114,5.6241e-06,37.954,5.5855e-07,-0.10643,-6.7728e-06,-55.191,2.2539
21595,23.727,0.72727,0.1,9.6012e-06,95.946,7.4181e-06,55.996,-5.6006e-08,-0.16187,-7.3266e-06,-54.79,2.2408
21596,23.909,0.72727,0.1,7.7119e-06,77.066,4.2859e-06,21.53,1.3653e-06,-0.41371,-7.1145e-06,-64.127,2.267
21597,23.818,0.45455,0.1,7.1508e-06,71.459,5.2387e-06,37.552,2.4188e-07,0.0077583,-5.7287e-06,-44.853,2.2538
21598,23.727,0.54545,0.1,8.8442e-06,88.381,7.0887e-06,55.468,-3.1114e-07,-0.13151,-6.475e-06,-46.445,2.2407
21599,23.909,0.54545,0.1,6.8332e-06,68.285,3.9743e-06,21.387,1.0738e-06,-0.40632,-6.2101e-06,-55.135,2.267
21600,23.818,0.27273,0.1,5.872e-06,58.68,4.6895e-06,36.717,-1.6719e-07,0.22499,-4.3193e-06,-30.972,2.2537
21601,23.727,0.36364,0.1,7.8598e-06,78.544,6.6367e-06,54.669,-6.3518e-07,0.030657,-5.3429e-06,-35.341,2.2406
21602,23.909,0.36364,0.1,5.6344e-06,56.305,3.5315e-06,21.093,6.8987e-07,-0.25807,-4.9675e-06,-42.765,2.2669
21603,23.727,0.18182,0.1,6.7671e-06,67.624,6.1205e-06,54.005,-1.0376e-06,0.22169,-3.9835e-06,-21.912,2.2406
21604,23.909,0.18182,0.1,3.9888e-06,39.86,2.8884e-06,20.417,1.6102e-07,-0.075057,-3.2256e-06,-25.521,2.2668
21605,23.818,0.090909,0.1,4.409e-06,44.06,3.98e-06,34.976,-6.8043e-07,-0.041122,-2.6042e-06,-14.496,2.2536
21606,23.636,5.7273,0.1,8.7514e-06,87.453,8.0201e-06,71.6,-1.5147e-06,-0.041245,-4.9504e-06,-25.855,2.2275
21607,23.545,5.8182,0.1,1.0102e-05,100.95,9.6245e-06,89.732,-2.3094e-06,0.064567,-4.9269e-06,-19.602,2.2143
21608,23.636,5.9091,0.1,7.7352e-06,77.299,7.4162e-06,69.592,-1.8734e-06,-0.20577,-3.6409e-06,-13.487,2.2274
21609,23.636,5.5455,0.1,9.6521e-06,96.455,8.4845e-06,72.568,-1.1981e-06,-0.18315,-6.077e-06,-36.841,2.2275
21610,23.545,5.6364,0.1,1.076e-05,107.52,9.9598e-06,89.865,-2.0063e-06,-0.043386,-5.8924e-06,-29.242,2.2144
21611,23.636,5.3636,0.1,1.0455e-05,104.48,8.8876e-06,73.546,-9.3553e-07,-0.26092,-7.0239e-06,-46.007,2.2276
21612,23.545,5.4545,0.1,1.1529e-05,115.21,1.0381e-05,90.974,-1.7479e-06,-0.15685,-6.8537e-06,-38.52,2.2145
21613,23.636,5.1818,0.1,1.1072e-05,110.65,9.1838e-06,74.215,-7.3149e-07,-0.28456,-7.7376e-06,-52.926,2.2277
21614,23.545,5.2727,0.1,1.2164e-05,121.55,1.0718e-05,91.91,-1.5387e-06,-0.18155,-7.6187e-06,-45.864,2.2145
21615,23.636,5,0.1,1.1521e-05,115.13,9.3929e-06,74.656,-5.8338e-07,-0.30143,-8.2497e-06,-57.903,2.2278
21616,23.545,5.0909,0.1,1.2646e-05,126.37,1.0968e-05,92.605,-1.3836e-06,-0.20149,-8.1868e-06,-51.318,2.2146
21617,23.636,4.8182,0.1,1.1827e-05,118.19,9.534e-06,74.953,-4.8302e-07,-0.31121,-8.596e-06,-61.269,2.2278
21618,23.545,4.9091,0.1,1.2989e-05,129.8,1.1145e-05,93.12,-1.2764e-06,-0.21187,-8.5829e-06,-55.111,2.2147
21619,23.636,4.6364,0.1,1.2018e-05,120.1,9.6226e-06,75.155,-4.2227e-07,-0.31787,-8.8089e-06,-63.332,2.2279
21620,23.545,4.7273,0.1,1.3214e-05,132.05,1.1264e-05,93.507,-1.2105e-06,-0.21901,-8.8361e-06,-57.515,2.2147
21621,23.636,4.4545,0.1,1.2118e-05,121.09,9.6711e-06,75.296,-3.9304e-07,-0.3224,-8.9174e-06,-64.371,2.2279
21622,23.545,4.5455,0.1,1.3343e-05,133.34,1.1336e-05,93.803,-1.1783e-06,-0.22375,-8.9742e-06,-58.799,2.2148
21623,23.636,4.2727,0.1,1.2149e-05,121.41,9.69e-06,75.394,-3.8769e-07,-0.32564,-8.9475e-06,-64.641,2.228
21624,23.545,4.3636,0.1,1.3398e-05,133.89,1.1373e-05,94.034,-1.1724e-06,-0.22716,-9.0237e-06,-59.219,2.2148
21625,23.636,4.0909,0.1,1.2133e-05,121.24,9.6881e-06,75.463,-3.9909e-07,-0.32801,-8.9228e-06,-64.372,2.228
21626,23.545,4.1818,0.1,1.3398e-05,133.89,1.1384e-05,94.216,-1.1856e-06,-0.22969,-9.0088e-06,-59.01,2.2149
21627,23.636,3.9091,0.1,1.2086e-05,120.78,9.6732e-06,75.512,-4.2072e-07,-0.32981,-8.8642e-06,-63.771,2.228
21628,23.545,4,0.1,1.3363e-05,133.53,1.1378e-05,94.359,-1.211e-06,-0.23166,-8.9515e-06,-58.391,2.2149
21629,23.636,3.7273,0.1,1.2026e-05,120.18,9.6517e-06,75.545,-4.4681e-07,-0.3312,-8.79e-06,-63.019,2.2281
21630,23.545,3.8182,0.1,1.3307e-05,132.98,1.1362e-05,94.472,-1.2424e-06,-0.23323,-8.8716e-06,-57.556,2.2149
21631,23.636,3.5455,0.1,1.1966e-05,119.57,9.6293e-06,75.568,-4.7245e-07,-0.33226,-8.7157e-06,-62.268,2.2281
21632,23.545,3.6364,0.1,1.3246e-05,132.37,1.1342e-05,94.557,-1.2745e-06,-0.23451,-8.7862e-06,-56.675,2.2149
21633,23.636,3.3636,0.1,1.1915e-05,119.07,9.6101e-06,75.583,-4.9367e-07,-0.33302,-8.6535e-06,-61.643,2.2281
21634,23.545,3.4545,0.1,1.319e-05,131.81,1.1322e-05,94.62,-1.3026e-06,-0.23549,-8.7093e-06,-55.886,2.215
21635,23.636,3.1818,0.1,1.1881e-05,118.73,9.5974e-06,75.591,-5.0759e-07,-0.33348,-8.6125e-06,-61.231,2.2281
21636,23.545,3.2727,0.1,1.3148e-05,131.39,1.1307e-05,94.66,-1.3234e-06,-0.23617,-8.6519e-06,-55.299,2.215
21637,23.636,3,0.1,1.1869e-05,118.61,9.5929e-06,75.594,-5.1243e-07,-0.33364,-8.5983e-06,-61.088,2.2281
21638,23.545,3.0909,0.1,1.3125e-05,131.16,1.1298e-05,94.68,-1.3344e-06,-0.23653,-8.6213e-06,-54.987,2.215
21639,23.636,2.8182,0.1,1.1881e-05,118.73,9.5974e-06,75.591,-5.0759e-07,-0.33348,-8.6125e-06,-61.231,2.2281
21640,23.545,2.9091,0.1,1.3125e-05,131.16,1.1298e-05,94.68,-1.3344e-06,-0.23652,-8.6213e-06,-54.987,2.215
21641,23.636,2.6364,0.1,1.1915e-05,119.07,9.6101e-06,75.583,-4.9367e-07,-0.33302,-8.6535e-06,-61.643,2.2281
21642,23.545,2.7273,0.1,1.3148e-05,131.39,1.1307e-05,94.66,-1.3234e-06,-0.23618,-8.6519e-06,-55.299,2.215
21643,23.636,2.4545,0.1,1.1966e-05,119.57,9.6293e-06,75.568,-4.7245e-07,-0.33226,-8.7157e-06,-62.268,2.2281
21644,23.545,2.5455,0.1,1.319e-05,131.81,1.1322e-05,94.62,-1.3026e-06,-0.23549,-8.7093e-06,-55.886,2.215
21645,23.636,2.2727,0.1,1.2026e-05,120.18,9.6517e-06,75.545,-4.4681e-07,-0.3312,-8.79e-06,-63.019,2.2281
21646,23.545,2.3636,0.1,1.3246e-05,132.37,1.1342e-05,94.557,-1.2745e-06,-0.23451,-8.7862e-06,-56.675,2.2149
21647,23.636,2.0909,0.1,1.2086e-05,120.78,9.6732e-06,75.512,-4.2072e-07,-0.32981,-8.8642e-06,-63.771,2.228
21648,23.545,2.1818,0.1,1.3307e-05,132.98,1.1362e-05,94.472,-1.2424e-06,-0.23324,-8.8716e-06,-57.556,2.2149
21649,23.636,1.9091,0.1,1.2133e-05,121.24,9.6881e-06,75.463,-3.9909e-07,-0.32801,-8.9228e-06,-64.372,2.228
21650,23.545,2,0.1,1.3363e-05,133.53,1.1378e-05,94.359,-1.211e-06,-0.23166,-8.9515e-06,-58.391,2.2149
21651,23.636,1.7273,0.1,1.2149e-05,121.41,9.69e-06,75.394,-3.877e-07,-0.32564,-8.9475e-06,-64.641,2.228
21652,23.545,1.8182,0.1,1.3398e-05,133.89,1.1384e-05,94.216,-1.1856e-06,-0.22969,-9.0088e-06,-59.01,2.2149
21653,23.636,1.5455,0.1,1.2118e-05,121.09,9.6711e-06,75.296,-3.9304e-07,-0.3224,-8.9173e-06,-64.371,2.2279
21654,23.545,1.6364,0.1,1.3398e-05,133.89,1.1373e-05,94.034,-1.1724e-06,-0.22716,-9.0237e-06,-59.219,2.2148
21655,23.636,1.3636,0.1,1.2018e-05,120.09,9.6226e-06,75.155,-4.2227e-07,-0.31787,-8.8089e-06,-63.332,2.2279
21656,23.545,1.4545,0.1,1.3343e-05,133.34,1.1336e-05,93.803,-1.1783e-06,-0.22375,-8.9742e-06,-58.799,2.2148
21657,23.636,1.1818,0.1,1.1827e-05,118.19,9.534e-06,74.953,-4.8302e-07,-0.31121,-8.596e-06,-61.269,2.2278
21658,23.545,1.2727,0.1,1.3214e-05,132.05,1.1264e-05,93.507,-1.2105e-06,-0.21901,-8.8361e-06,-57.515,2.2147
21659,23.636,1,0.1,1.1521e-05,115.13,9.3929e-06,74.656,-5.8339e-07,-0.30143,-8.2497e-06,-57.903,2.2278
21660,23.545,1.0909,0.1,1.2989e-05,129.8,1.1145e-05,93.12,-1.2764e-06,-0.21187,-8.5829e-06,-55.11,2.2147
21661,23.636,0.81818,0.1,1.1072e-05,110.65,9.1838e-06,74.215,-7.315e-07,-0.28456,-7.7376e-06,-52.926,2.2277
21662,23.545,0.90909,0.1,1.2646e-05,126.37,1.0968e-05,92.605,-1.3836e-06,-0.2015,-8.1867e-06,-51.318,2.2146
21663,23.636,0.63636,0.1,1.0455e-05,104.48,8.8876e-06,73.546,-9.3554e-07,-0.26092,-7.0239e-06,-46.007,2.2276
21664,23.545,0.72727,0.1,1.2164e-05,121.55,1.0718e-05,91.91,-1.5387e-06,-0.18156,-7.6187e-06,-45.864,2.2145
21665,23.636,0.45455,0.1,9.6521e-06,96.455,8.4845e-06,72.568,-1.1981e-06,-0.18315,-6.077e-06,-36.841,2.2275
21666,23.545,0.54545,0.1,1.1529e-05,115.21,1.0381e-05,90.974,-1.7479e-06,-0.15685,-6.8537e-06,-38.52,2.2145
21667,23.636,0.27273,0.1,8.7514e-06,87.453,8.0201e-06,71.6,-1.5147e-06,-0.041242,-4.9504e-06,-25.855,2.2275
21668,23.545,0.36364,0.1,1.076e-05,107.52,9.9598e-06,89.865,-2.0063e-06,-0.043383,-5.8924e-06,-29.242,2.2144
21669,23.545,0.18182,0.1,1.0102e-05,100.95,9.6245e-06,89.732,-2.3094e-06,0.064569,-4.9269e-06,-19.602,2.2143
21670,23.636,0.090909,0.1,7.7352e-06,77.299,7.4162e-06,69.592,-1.8734e-06,-0.20577,-3.6409e-06,-13.487,2.2274
21671,23.454,5.7273,0.1,1.205e-05,120.42,1.1508e-05,107.57,-2.8028e-06,0.048769,-5.8104e-06,-22.549,2.2012
21672,23.363,5.8182,0.1,1.3612e-05,136.03,1.3214e-05,126.09,-3.5587e-06,0.068764,-5.9788e-06,-18.115,2.188
21673,23.454,5.9091,0.1,1.1237e-05,112.3,1.097e-05,105.45,-3.0756e-06,-0.084177,-4.7372e-06,-12.569,2.2011
21674,23.454,5.5455,0.1,1.2651e-05,126.42,1.1843e-05,108.17,-2.5589e-06,-0.038313,-6.6525e-06,-30.796,2.2013
21675,23.363,5.6364,0.1,1.3985e-05,139.75,1.3394e-05,125.64,-3.3259e-06,0.011397,-6.6398e-06,-24.888,2.1881
21676,23.454,5.3636,0.1,1.328e-05,132.71,1.2206e-05,109.3,-2.3534e-06,-0.095032,-7.4412e-06,-38.323,2.2014
21677,23.363,5.4545,0.1,1.4559e-05,145.49,1.3742e-05,126.68,-3.1283e-06,-0.074632,-7.4006e-06,-32.175,2.1882
21678,23.454,5.1818,0.1,1.3795e-05,137.86,1.2501e-05,110.29,-2.193e-06,-0.11503,-8.0639e-06,-44.227,2.2014
21679,23.363,5.2727,0.1,1.5073e-05,150.62,1.4055e-05,127.81,-2.9687e-06,-0.096347,-8.0407e-06,-38.205,2.1883
21680,23.454,5,0.1,1.4182e-05,141.72,1.272e-05,111.07,-2.0787e-06,-0.12829,-8.5176e-06,-48.508,2.2015
21681,23.363,5.0909,0.1,1.5481e-05,154.7,1.4304e-05,128.8,-2.8533e-06,-0.11298,-8.5268e-06,-42.742,2.1884
21682,23.454,4.8182,0.1,1.445e-05,144.4,1.2876e-05,111.68,-2.006e-06,-0.13606,-8.8216e-06,-51.345,2.2016
21683,23.363,4.9091,0.1,1.5779e-05,157.68,1.4491e-05,129.64,-2.7795e-06,-0.1218,-8.8646e-06,-45.843,2.1884
21684,23.454,4.6364,0.1,1.4618e-05,146.07,1.2978e-05,112.16,-1.9687e-06,-0.14138,-9.0005e-06,-52.976,2.2016
21685,23.363,4.7273,0.1,1.5977e-05,159.66,1.4623e-05,130.35,-2.7424e-06,-0.12778,-9.0722e-06,-47.687,2.1885
21686,23.454,4.4545,0.1,1.4704e-05,146.94,1.3039e-05,112.55,-1.9599e-06,-0.14508,-9.0801e-06,-53.643,2.2017
21687,23.363,4.5455,0.1,1.6091e-05,160.8,1.4709e-05,130.94,-2.7357e-06,-0.13177,-9.1724e-06,-48.495,2.1885
21688,23.454,4.2727,0.1,1.473e-05,147.2,1.3069e-05,112.87,-1.9725e-06,-0.14785,-9.0847e-06,-53.586,2.2017
21689,23.363,4.3636,0.1,1.614e-05,161.29,1.4759e-05,131.44,-2.7525e-06,-0.13469,-9.189e-06,-48.496,2.1886
21690,23.454,4.0909,0.1,1.4713e-05,147.03,1.3077e-05,113.13,-1.9997e-06,-0.15003,-9.0373e-06,-53.028,2.2018
21691,23.363,4.1818,0.1,1.614e-05,161.29,1.4782e-05,131.86,-2.7859e-06,-0.13694,-9.1449e-06,-47.917,2.1886
21692,23.454,3.9091,0.1,1.467e-05,146.59,1.3069e-05,113.34,-2.0349e-06,-0.15182,-8.9588e-06,-52.176,2.2018
21693,23.363,4,0.1,1.6108e-05,160.97,1.4787e-05,132.22,-2.829e-06,-0.13881,-9.0621e-06,-46.972,2.1887
21694,23.454,3.7273,0.1,1.4614e-05,146.04,1.3054e-05,113.5,-2.0723e-06,-0.15332,-8.8677e-06,-51.212,2.2018
21695,23.363,3.8182,0.1,1.6058e-05,160.47,1.478e-05,132.51,-2.8757e-06,-0.14043,-8.9602e-06,-45.857,2.1887
21696,23.454,3.5455,0.1,1.4558e-05,145.48,1.3036e-05,113.63,-2.1069e-06,-0.15456,-8.7798e-06,-50.292,2.2018
21697,23.363,3.6364,0.1,1.6004e-05,159.93,1.4766e-05,132.75,-2.9203e-06,-0.14182,-8.8567e-06,-44.746,2.1887
21698,23.454,3.3636,0.1,1.4511e-05,145.01,1.302e-05,113.71,-2.1347e-06,-0.15549,-8.7077e-06,-49.543,2.2019
21699,23.363,3.4545,0.1,1.5954e-05,159.43,1.4752e-05,132.92,-2.958e-06,-0.14296,-8.7659e-06,-43.781,2.1887
21700,23.454,3.1818,0.1,1.4481e-05,144.71,1.301e-05,113.77,-2.1525e-06,-0.15607,-8.6606e-06,-49.055,2.2019
21701,23.363,3.2727,0.1,1.5916e-05,159.05,1.474e-05,133.04,-2.9853e-06,-0.14377,-8.6989e-06,-43.074,2.1887
21702,23.454,3,0.1,1.447e-05,144.6,1.3006e-05,113.78,-2.1587e-06,-0.15628,-8.6443e-06,-48.887,2.2019
21703,23.363,3.0909,0.1,1.5897e-05,158.86,1.4734e-05,133.1,-2.9996e-06,-0.14421,-8.6636e-06,-42.701,2.1887
21704,23.454,2.8182,0.1,1.4481e-05,144.71,1.301e-05,113.77,-2.1525e-06,-0.15608,-8.6606e-06,-49.055,2.2019
21705,23.363,2.9091,0.1,1.5897e-05,158.86,1.4734e-05,133.1,-2.9996e-06,-0.14421,-8.6636e-06,-42.701,2.1887
21706,23.454,2.6364,0.1,1.4511e-05,145.01,1.302e-05,113.71,-2.1347e-06,-0.15549,-8.7077e-06,-49.543,2.2019
21707,23.363,2.7273,0.1,1.5916e-05,159.05,1.474e-05,133.04,-2.9853e-06,-0.14378,-8.6989e-06,-43.074,2.1887
21708,23.454,2.4545,0.1,1.4558e-05,145.48,1.3036e-05,113.63,-2.1069e-06,-0.15455,-8.7798e-06,-50.292,2.2018
21709,23.363,2.5455,0.1,1.5954e-05,159.43,1.4752e-05,132.92,-2.958e-06,-0.14295,-8.7659e-06,-43.781,2.1887
21710,23.454,2.2727,0.1,1.4614e-05,146.04,1.3054e-05,113.5,-2.0723e-06,-0.15332,-8.8677e-06,-51.212,2.2018
21711,23.363,2.3636,0.1,1.6004e-05,159.93,1.4766e-05,132.75,-2.9203e-06,-0.14182,-8.8567e-06,-44.746,2.1887
21712,23.454,2.0909,0.1,1.467e-05,146.59,1.3069e-05,113.34,-2.0349e-06,-0.15182,-8.9588e-06,-52.176,2.2018
21713,23.363,2.1818,0.1,1.6058e-05,160.47,1.478e-05,132.51,-2.8757e-06,-0.14043,-8.9602e-06,-45.857,2.1887
21714,23.454,1.9091,0.1,1.4713e-05,147.03,1.3077e-05,113.13,-1.9997e-06,-0.15003,-9.0373e-06,-53.028,2.2018
21715,23.363,2,0.1,1.6108e-05,160.97,1.4787e-05,132.22,-2.829e-06,-0.13882,-9.0621e-06,-46.972,2.1887
21716,23.454,1.7273,0.1,1.473e-05,147.2,1.3069e-05,112.87,-1.9725e-06,-0.14785,-9.0847e-06,-53.586,2.2017
21717,23.363,1.8182,0.1,1.614e-05,161.29,1.4782e-05,131.86,-2.7859e-06,-0.13694,-9.1449e-06,-47.916,2.1886
21718,23.454,1.5455,0.1,1.4704e-05,146.94,1.3039e-05,112.55,-1.9599e-06,-0.14508,-9.0801e-06,-53.643,2.2017
21719,23.363,1.6364,0.1,1.614e-05,161.29,1.4759e-05,131.44,-2.7525e-06,-0.13469,-9.189e-06,-48.496,2.1886
21720,23.454,1.3636,0.1,1.4617e-05,146.07,1.2978e-05,112.16,-1.9687e-06,-0.14138,-9.0005e-06,-52.976,2.2016
21721,23.363,1.4545,0.1,1.6091e-05,160.8,1.4709e-05,130.94,-2.7357e-06,-0.13177,-9.1724e-06,-48.495,2.1885
21722,23.454,1.1818,0.1,1.445e-05,144.4,1.2876e-05,111.68,-2.006e-06,-0.13607,-8.8215e-06,-51.345,2.2016
21723,23.363,1.2727,0.1,1.5977e-05,159.66,1.4623e-05,130.35,-2.7424e-06,-0.12778,-9.0722e-06,-47.687,2.1885
21724,23.454,1,0.1,1.4182e-05,141.72,1.272e-05,111.07,-2.0787e-06,-0.12829,-8.5176e-06,-48.508,2.2015
21725,23.363,1.0909,0.1,1.5779e-05,157.68,1.4491e-05,129.64,-2.7795e-06,-0.1218,-8.8646e-06,-45.843,2.1884
21726,23.454,0.81818,0.1,1.3795e-05,137.86,1.2501e-05,110.29,-2.193e-06,-0.11503,-8.0639e-06,-44.227,2.2014
21727,23.363,0.90909,0.1,1.5481e-05,154.7,1.4304e-05,128.8,-2.8533e-06,-0.11298,-8.5268e-06,-42.741,2.1884
21728,23.454,0.63636,0.1,1.328e-05,132.71,1.2206e-05,109.3,-2.3534e-06,-0.095033,-7.4412e-06,-38.322,2.2014
21729,23.363,0.72727,0.1,1.5073e-05,150.62,1.4055e-05,127.81,-2.9687e-06,-0.096351,-8.0407e-06,-38.205,2.1883
21730,23.454,0.45455,0.1,1.2651e-05,126.42,1.1843e-05,108.17,-2.5589e-06,-0.038311,-6.6525e-06,-30.796,2.2013
21731,23.363,0.54545,0.1,1.4559e-05,145.49,1.3742e-05,126.68,-3.1283e-06,-0.074631,-7.4006e-06,-32.175,2.1882
21732,23.454,0.27273,0.1,1.205e-05,120.42,1.1508e-05,107.57,-2.8028e-06,0.048771,-5.8104e-06,-22.549,2.2012
21733,23.363,0.36364,0.1,1.3985e-05,139.75,1.3394e-05,125.64,-3.3259e-06,0.011399,-6.6398e-06,-24.888,2.1881
21734,23.363,0.18182,0.1,1.3612e-05,136.03,1.3214e-05,126.09,-3.5587e-06,0.068765,-5.9788e-06,-18.115,2.188
21735,23.454,0.090909,0.1,1.1237e-05,112.3,1.097e-05,105.45,-3.0756e-06,-0.084174,-4.7372e-06,-12.569,2.2011
21736,23.272,5.7273,0.1,1.5488e-05,154.77,1.5049e-05,143.77,-4.0818e-06,0.032431,-6.7571e-06,-20.069,2.175
21737,23.181,5.8182,0.1,1.7158e-05,171.46,1.6809e-05,162.42,-4.8018e-06,0.047284,-7.0532e-06,-16.868,2.1618
21738,23.272,5.9091,0.1,1.4797e-05,147.86,1.456e-05,141.58,-4.2927e-06,-0.067125,-5.8536e-06,-11.796,2.1749
21739,23.272,5.5455,0.1,1.5883e-05,158.73,1.5277e-05,144.02,-3.8968e-06,-0.035656,-7.3698e-06,-26.13,2.175
21740,23.181,5.6364,0.1,1.7349e-05,173.37,1.6882e-05,161.59,-4.6233e-06,0.012038,-7.4935e-06,-21.554,2.1619
21741,23.272,5.3636,0.1,1.6363e-05,163.52,1.5582e-05,145.13,-3.7446e-06,-0.083853,-7.991e-06,-31.99,2.1751
21742,23.181,5.4545,0.1,1.7771e-05,177.58,1.7155e-05,162.49,-4.4787e-06,-0.059492,-8.0701e-06,-27.044,2.162
21743,23.272,5.1818,0.1,1.6782e-05,167.71,1.5854e-05,146.3,-3.6299e-06,-0.10102,-8.4984e-06,-36.681,2.1752
21744,23.181,5.2727,0.1,1.8177e-05,181.65,1.743e-05,163.7,-4.3676e-06,-0.078124,-8.5729e-06,-31.676,2.162
21745,23.272,5,0.1,1.711e-05,170.98,1.6073e-05,147.36,-3.5549e-06,-0.11278,-8.8707e-06,-40.053,2.1753
21746,23.181,5.0909,0.1,1.8517e-05,185.04,1.7667e-05,164.92,-4.2955e-06,-0.09287,-8.9584e-06,-35.128,2.1621
21747,23.272,4.8182,0.1,1.7343e-05,173.31,1.6237e-05,148.3,-3.5167e-06,-0.11964,-9.1132e-06,-42.17,2.1753
21748,23.181,4.9091,0.1,1.8773e-05,187.6,1.7856e-05,166.08,-4.2606e-06,-0.10077,-9.2196e-06,-37.361,2.1622
21749,23.272,4.6364,0.1,1.7492e-05,174.8,1.6352e-05,149.12,-3.5101e-06,-0.12422,-9.2428e-06,-43.197,2.1754
21750,23.181,4.7273,0.1,1.8949e-05,189.36,1.7998e-05,167.13,-4.259e-06,-0.10601,-9.3659e-06,-38.478,2.1622
21751,23.272,4.4545,0.1,1.7571e-05,175.59,1.6428e-05,149.82,-3.529e-06,-0.12738,-9.2805e-06,-43.342,2.1754
21752,23.181,4.5455,0.1,1.9054e-05,190.41,1.8099e-05,168.08,-4.2848e-06,-0.10945,-9.4148e-06,-38.654,2.1623
21753,23.272,4.2727,0.1,1.7596e-05,175.84,1.6472e-05,150.43,-3.5666e-06,-0.12977,-9.2487e-06,-42.823,2.1755
21754,23.181,4.3636,0.1,1.9101e-05,190.88,1.8166e-05,168.92,-4.3315e-06,-0.11195,-9.3868e-06,-38.096,2.1623
21755,23.272,4.0909,0.1,1.7583e-05,175.71,1.6493e-05,150.96,-3.616e-06,-0.13171,-9.1695e-06,-41.858,2.1755
21756,23.181,4.1818,0.1,1.9107e-05,190.93,1.8205e-05,169.67,-4.3919e-06,-0.11395,-9.3039e-06,-37.02,2.1624
21757,23.272,3.9091,0.1,1.7546e-05,175.34,1.6498e-05,151.4,-3.6707e-06,-0.1334,-9.0634e-06,-40.652,2.1756
21758,23.181,4,0.1,1.9083e-05,190.7,1.8225e-05,170.32,-4.4593e-06,-0.1157,-9.1871e-06,-35.639,2.1624
21759,23.272,3.7273,0.1,1.7499e-05,174.87,1.6492e-05,151.77,-3.7245e-06,-0.13491,-8.9491e-06,-39.391,2.1756
21760,23.181,3.8182,0.1,1.9044e-05,190.31,1.8231e-05,170.88,-4.5268e-06,-0.11734,-9.0563e-06,-34.15,2.1625
21761,23.272,3.5455,0.1,1.7451e-05,174.39,1.6483e-05,152.05,-3.7722e-06,-0.13623,-8.8427e-06,-38.234,2.1756
21762,23.181,3.6364,0.1,1.8999e-05,189.86,1.8229e-05,171.32,-4.5886e-06,-0.11887,-8.9291e-06,-32.731,2.1625
21763,23.272,3.3636,0.1,1.741e-05,173.98,1.6473e-05,152.26,-3.8095e-06,-0.13729,-8.7571e-06,-37.311,2.1756
21764,23.181,3.4545,0.1,1.8958e-05,189.45,1.8224e-05,171.67,-4.6397e-06,-0.12021,-8.8201e-06,-31.53,2.1625
21765,23.272,3.1818,0.1,1.7384e-05,173.72,1.6465e-05,152.38,-3.8332e-06,-0.13797,-8.7018e-06,-36.719,2.1756
21766,23.181,3.2727,0.1,1.8928e-05,189.15,1.8218e-05,171.9,-4.676e-06,-0.12123,-8.7409e-06,-30.663,2.1625
21767,23.272,3,0.1,1.7375e-05,173.63,1.6463e-05,152.42,-3.8413e-06,-0.13821,-8.6828e-06,-36.515,2.1756
21768,23.181,3.0909,0.1,1.8911e-05,188.98,1.8215e-05,172.01,-4.6949e-06,-0.12178,-8.6994e-06,-30.21,2.1625
21769,23.272,2.8182,0.1,1.7384e-05,173.72,1.6465e-05,152.38,-3.8332e-06,-0.13797,-8.7018e-06,-36.719,2.1756
21770,23.181,2.9091,0.1,1.8911e-05,188.98,1.8215e-05,172.01,-4.6949e-06,-0.12178,-8.6994e-06,-30.21,2.1625
21771,23.272,2.6364,0.1,1.741e-05,173.98,1.6473e-05,152.26,-3.8095e-06,-0.13729,-8.7571e-06,-37.311,2.1756
21772,23.181,2.7273,0.1,1.8928e-05,189.15,1.8218e-05,171.9,-4.676e-06,-0.12123,-8.7409e-06,-30.663,2.1625
21773,23.272,2.4545,0.1,1.7451e-05,174.39,1.6483e-05,152.05,-3.7722e-06,-0.13624,-8.8427e-06,-38.234,2.1756
21774,23.181,2.5455,0.1,1.8958e-05,189.45,1.8224e-05,171.67,-4.6397e-06,-0.12021,-8.8201e-06,-31.53,2.1625
21775,23.272,2.2727,0.1,1.7499e-05,174.87,1.6492e-05,151.77,-3.7245e-06,-0.13491,-8.9491e-06,-39.391,2.1756
21776,23.181,2.3636,0.1,1.8999e-05,189.86,1.8229e-05,171.32,-4.5886e-06,-0.11887,-8.9291e-06,-32.731,2.1625
21777,23.272,2.0909,0.1,1.7546e-05,175.34,1.6498e-05,151.4,-3.6707e-06,-0.1334,-9.0634e-06,-40.652,2.1756
21778,23.181,2.1818,0.1,1.9044e-05,190.31,1.8231e-05,170.88,-4.5268e-06,-0.11734,-9.0563e-06,-34.15,2.1625
21779,23.272,1.9091,0.1,1.7583e-05,175.71,1.6493e-05,150.96,-3.616e-06,-0.13171,-9.1695e-06,-41.858,2.1755
21780,23.181,2,0.1,1.9083e-05,190.7,1.8225e-05,170.32,-4.4593e-06,-0.1157,-9.1871e-06,-35.639,2.1624
21781,23.272,1.7273,0.1,1.7596e-05,175.84,1.6472e-05,150.43,-3.5666e-06,-0.12977,-9.2487e-06,-42.823,2.1755
21782,23.181,1.8182,0.1,1.9107e-05,190.93,1.8205e-05,169.67,-4.3919e-06,-0.11395,-9.3039e-06,-37.02,2.1624
21783,23.272,1.5455,0.1,1.7571e-05,175.59,1.6428e-05,149.82,-3.529e-06,-0.12739,-9.2805e-06,-43.342,2.1754
21784,23.181,1.6364,0.1,1.9101e-05,190.88,1.8166e-05,168.92,-4.3315e-06,-0.11195,-9.3868e-06,-38.096,2.1623
21785,23.272,1.3636,0.1,1.7492e-05,174.8,1.6352e-05,149.12,-3.5101e-06,-0.12422,-9.2428e-06,-43.197,2.1754
21786,23.181,1.4545,0.1,1.9054e-05,190.41,1.8099e-05,168.08,-4.2848e-06,-0.10945,-9.4148e-06,-38.654,2.1623
21787,23.272,1.1818,0.1,1.7343e-05,173.31,1.6237e-05,148.3,-3.5167e-06,-0.11964,-9.1132e-06,-42.17,2.1753
21788,23.181,1.2727,0.1,1.8949e-05,189.36,1.7998e-05,167.13,-4.259e-06,-0.10601,-9.3659e-06,-38.478,2.1622
21789,23.272,1,0.1,1.711e-05,170.98,1.6073e-05,147.36,-3.5549e-06,-0.11278,-8.8707e-06,-40.053,2.1753
21790,23.181,1.0909,0.1,1.8773e-05,187.6,1.7856e-05,166.08,-4.2606e-06,-0.10077,-9.2196e-06,-37.361,2.1622
21791,23.272,0.81818,0.1,1.6782e-05,167.71,1.5854e-05,146.3,-3.6299e-06,-0.10103,-8.4984e-06,-36.681,2.1752
21792,23.181,0.90909,0.1,1.8517e-05,185.04,1.7667e-05,164.92,-4.2955e-06,-0.09287,-8.9584e-06,-35.128,2.1621
21793,23.272,0.63636,0.1,1.6363e-05,163.52,1.5582e-05,145.13,-3.7446e-06,-0.083855,-7.9909e-06,-31.989,2.1751
21794,23.181,0.72727,0.1,1.8177e-05,181.65,1.743e-05,163.7,-4.3676e-06,-0.078128,-8.5729e-06,-31.676,2.162
21795,23.272,0.45455,0.1,1.5883e-05,158.73,1.5277e-05,144.02,-3.8968e-06,-0.035654,-7.3698e-06,-26.13,2.175
21796,23.181,0.54545,0.1,1.7771e-05,177.58,1.7155e-05,162.49,-4.4787e-06,-0.059492,-8.0701e-06,-27.044,2.162
21797,23.272,0.27273,0.1,1.5488e-05,154.77,1.5049e-05,143.77,-4.0818e-06,0.032433,-6.7571e-06,-20.069,2.175
21798,23.181,0.36364,0.1,1.7349e-05,173.37,1.6882e-05,161.59,-4.6233e-06,0.012042,-7.4935e-06,-21.554,2.1619
21799,23.181,0.18182,0.1,1.7158e-05,171.46,1.6809e-05,162.42,-4.8018e-06,0.047287,-7.0532e-06,-16.868,2.1618
21800,23.272,0.090909,0.1,1.4797e-05,147.86,1.456e-05,141.58,-4.2927e-06,-0.067125,-5.8536e-06,-11.796,2.1749
21801,23.09,5.7273,0.1,1.8968e-05,189.55,1.8598e-05,179.91,-5.3425e-06,0.033072,-7.7461e-06,-18.026,2.1487
21802,22.999,5.8182,0.1,2.0696e-05,206.81,2.0383e-05,198.5,-6.0311e-06,0.036094,-8.1329e-06,-15.756,2.1356
21803,23.09,5.9091,0.1,1.836e-05,183.48,1.8147e-05,177.67,-5.5064e-06,-0.045436,-6.973e-06,-11.065,2.1486
21804,23.09,5.5455,0.1,1.9222e-05,192.08,1.8744e-05,179.93,-5.2061e-06,-0.018361,-8.1764e-06,-22.336,2.1488
21805,22.999,5.6364,0.1,2.0766e-05,207.52,2.0382e-05,197.46,-5.8968e-06,0.015263,-8.4072e-06,-18.847,2.1357
21806,23.09,5.3636,0.1,1.9584e-05,195.7,1.8993e-05,180.99,-5.1023e-06,-0.058483,-8.6421e-06,-26.655,2.1489
21807,22.999,5.4545,0.1,2.1074e-05,210.6,2.0594e-05,198.26,-5.799e-06,-0.043618,-8.8259e-06,-22.787,2.1357
21808,23.09,5.1818,0.1,1.992e-05,199.06,1.9237e-05,182.28,-5.0337e-06,-0.073677,-9.0268e-06,-30.077,2.149
21809,22.999,5.2727,0.1,2.1393e-05,213.78,2.083e-05,199.54,-5.7349e-06,-0.059981,-9.1945e-06,-26.055,2.1358
21810,23.09,5,0.1,2.0195e-05,201.81,1.9447e-05,183.61,-5.0016e-06,-0.084104,-9.3035e-06,-32.407,2.149
21811,22.999,5.0909,0.1,2.1673e-05,216.58,2.1051e-05,200.98,-5.7082e-06,-0.072991,-9.4711e-06,-28.346,2.1359
21812,23.09,4.8182,0.1,2.0398e-05,203.84,1.9616e-05,184.89,-5.0033e-06,-0.090154,-9.4698e-06,-33.65,2.1491
21813,22.999,4.9091,0.1,2.1894e-05,218.79,2.124e-05,202.46,-5.7168e-06,-0.079993,-9.6437e-06,-29.585,2.136
21814,23.09,4.6364,0.1,2.0533e-05,205.19,1.9744e-05,186.08,-5.034e-06,-0.094113,-9.5363e-06,-33.922,2.1492
21815,22.999,4.7273,0.1,2.2052e-05,220.37,2.1392e-05,203.9,-5.7567e-06,-0.084514,-9.716e-06,-29.833,2.136
21816,23.09,4.4545,0.1,2.0609e-05,205.95,1.9836e-05,187.17,-5.0876e-06,-0.096799,-9.52e-06,-33.401,2.1492
21817,22.999,4.5455,0.1,2.2153e-05,221.38,2.151e-05,205.27,-5.8219e-06,-0.087377,-9.7015e-06,-29.237,2.1361
21818,23.09,4.2727,0.1,2.0639e-05,206.24,1.9898e-05,188.16,-5.1571e-06,-0.098841,-9.4413e-06,-32.288,2.1493
21819,22.999,4.3636,0.1,2.2206e-05,221.91,2.1596e-05,206.55,-5.9056e-06,-0.089413,-9.6184e-06,-27.985,2.1361
21820,23.09,4.0909,0.1,2.0635e-05,206.21,1.9937e-05,189.04,-5.2355e-06,-0.1006,-9.3211e-06,-30.798,2.1493
21821,22.999,4.1818,0.1,2.2222e-05,222.07,2.1657e-05,207.71,-6.0003e-06,-0.091091,-9.4871e-06,-26.289,2.1362
21822,23.09,3.9091,0.1,2.061e-05,205.96,1.9958e-05,189.8,-5.3157e-06,-0.10228,-9.1798e-06,-29.135,2.1493
21823,22.999,4,0.1,2.2213e-05,221.98,2.1697e-05,208.75,-6.0984e-06,-0.092721,-9.3284e-06,-24.361,2.1362
21824,23.09,3.7273,0.1,2.0575e-05,205.6,1.9968e-05,190.43,-5.3913e-06,-0.10394,-9.0362e-06,-27.49,2.1494
21825,22.999,3.8182,0.1,2.219e-05,221.74,2.1723e-05,209.65,-6.1929e-06,-0.094464,-9.162e-06,-22.404,2.1362
21826,23.09,3.5455,0.1,2.0538e-05,205.24,1.997e-05,190.94,-5.4565e-06,-0.10553,-8.9065e-06,-26.027,2.1494
21827,22.999,3.6364,0.1,2.216e-05,221.45,2.1737e-05,210.39,-6.2771e-06,-0.096324,-9.0059e-06,-20.6,2.1363
21828,23.09,3.3636,0.1,2.0507e-05,204.93,1.9969e-05,191.31,-5.5066e-06,-0.1069,-8.804e-06,-24.882,2.1494
21829,22.999,3.4545,0.1,2.2133e-05,221.17,2.1745e-05,210.96,-6.3455e-06,-0.09816,-8.8749e-06,-19.104,2.1363
21830,23.09,3.1818,0.1,2.0487e-05,204.73,1.9968e-05,191.53,-5.5381e-06,-0.10784,-8.7385e-06,-24.154,2.1494
21831,22.999,3.2727,0.1,2.2112e-05,220.96,2.1748e-05,211.35,-6.3936e-06,-0.099683,-8.7809e-06,-18.037,2.1363
21832,23.09,3,0.1,2.048e-05,204.65,1.9967e-05,191.61,-5.5488e-06,-0.10818,-8.716e-06,-23.905,2.1494
21833,22.999,3.0909,0.1,2.21e-05,220.85,2.175e-05,211.54,-6.4185e-06,-0.10056,-8.7319e-06,-17.482,2.1363
21834,23.09,2.8182,0.1,2.0487e-05,204.73,1.9968e-05,191.53,-5.5381e-06,-0.10784,-8.7385e-06,-24.154,2.1494
21835,22.999,2.9091,0.1,2.21e-05,220.85,2.175e-05,211.54,-6.4185e-06,-0.10056,-8.7319e-06,-17.482,2.1363
21836,23.09,2.6364,0.1,2.0507e-05,204.93,1.9969e-05,191.31,-5.5066e-06,-0.1069,-8.804e-06,-24.882,2.1494
21837,22.999,2.7273,0.1,2.2112e-05,220.96,2.1748e-05,211.35,-6.3936e-06,-0.099683,-8.7809e-06,-18.037,2.1363
21838,23.09,2.4545,0.1,2.0538e-05,205.24,1.997e-05,190.94,-5.4565e-06,-0.10553,-8.9065e-06,-26.027,2.1494
21839,22.999,2.5455,0.1,2.2133e-05,221.17,2.1745e-05,210.96,-6.3455e-06,-0.09816,-8.8749e-06,-19.104,2.1363
21840,23.09,2.2727,0.1,2.0575e-05,205.6,1.9968e-05,190.43,-5.3913e-06,-0.10394,-9.0362e-06,-27.49,2.1494
21841,22.999,2.3636,0.1,2.216e-05,221.45,2.1737e-05,210.39,-6.2771e-06,-0.096325,-9.0059e-06,-20.6,2.1363
21842,23.09,2.0909,0.1,2.061e-05,205.96,1.9958e-05,189.8,-5.3157e-06,-0.10228,-9.1798e-06,-29.135,2.1493
21843,22.999,2.1818,0.1,2.219e-05,221.74,2.1723e-05,209.65,-6.1929e-06,-0.094463,-9.162e-06,-22.404,2.1362
21844,23.09,1.9091,0.1,2.0635e-05,206.21,1.9937e-05,189.04,-5.2355e-06,-0.1006,-9.3211e-06,-30.798,2.1493
21845,22.999,2,0.1,2.2213e-05,221.98,2.1697e-05,208.75,-6.0984e-06,-0.09272,-9.3284e-06,-24.361,2.1362
21846,23.09,1.7273,0.1,2.0639e-05,206.24,1.9898e-05,188.16,-5.1571e-06,-0.098842,-9.4413e-06,-32.288,2.1493
21847,22.999,1.8182,0.1,2.2222e-05,222.07,2.1657e-05,207.71,-6.0003e-06,-0.091092,-9.4871e-06,-26.289,2.1362
21848,23.09,1.5455,0.1,2.0609e-05,205.95,1.9836e-05,187.17,-5.0876e-06,-0.096798,-9.52e-06,-33.4,2.1492
21849,22.999,1.6364,0.1,2.2206e-05,221.91,2.1596e-05,206.55,-5.9056e-06,-0.089414,-9.6184e-06,-27.985,2.1361
21850,23.09,1.3636,0.1,2.0533e-05,205.19,1.9744e-05,186.08,-5.034e-06,-0.094113,-9.5363e-06,-33.922,2.1492
21851,22.999,1.4545,0.1,2.2153e-05,221.38,2.151e-05,205.27,-5.822e-06,-0.087376,-9.7015e-06,-29.237,2.1361
21852,23.09,1.1818,0.1,2.0398e-05,203.84,1.9616e-05,184.89,-5.0033e-06,-0.090154,-9.4698e-06,-33.65,2.1491
21853,22.999,1.2727,0.1,2.2052e-05,220.37,2.1392e-05,203.9,-5.7567e-06,-0.084515,-9.716e-06,-29.833,2.136
21854,23.09,1,0.1,2.0195e-05,201.81,1.9447e-05,183.61,-5.0016e-06,-0.084104,-9.3035e-06,-32.407,2.149
21855,22.999,1.0909,0.1,2.1894e-05,218.79,2.124e-05,202.46,-5.7168e-06,-0.079993,-9.6436e-06,-29.585,2.136
21856,23.09,0.81818,0.1,1.992e-05,199.06,1.9237e-05,182.28,-5.0337e-06,-0.073678,-9.0268e-06,-30.077,2.149
21857,22.999,0.90909,0.1,2.1673e-05,216.58,2.1051e-05,200.98,-5.7082e-06,-0.072991,-9.4711e-06,-28.346,2.1359
21858,23.09,0.63636,0.1,1.9584e-05,195.7,1.8993e-05,180.99,-5.1023e-06,-0.058486,-8.6421e-06,-26.655,2.1489
21859,22.999,0.72727,0.1,2.1393e-05,213.78,2.083e-05,199.54,-5.7349e-06,-0.059982,-9.1945e-06,-26.054,2.1358
21860,23.09,0.45455,0.1,1.9222e-05,192.08,1.8744e-05,179.93,-5.2061e-06,-0.018359,-8.1764e-06,-22.336,2.1488
21861,22.999,0.54545,0.1,2.1074e-05,210.6,2.0594e-05,198.26,-5.799e-06,-0.043618,-8.8259e-06,-22.787,2.1357
21862,23.09,0.27273,0.1,1.8968e-05,189.55,1.8598e-05,179.91,-5.3425e-06,0.033076,-7.7461e-06,-18.026,2.1487
21863,22.999,0.36364,0.1,2.0766e-05,207.52,2.0382e-05,197.46,-5.8968e-06,0.015268,-8.4072e-06,-18.847,2.1357
21864,22.999,0.18182,0.1,2.0696e-05,206.81,2.0383e-05,198.5,-6.0311e-06,0.036095,-8.1329e-06,-15.756,2.1356
21865,23.09,0.090909,0.1,1.836e-05,183.48,1.8147e-05,177.67,-5.5064e-06,-0.045434,-6.973e-06,-11.065,2.1486
21866,22.908,5.7273,0.1,2.245e-05,224.34,2.2128e-05,215.76,-6.5844e-06,0.026148,-8.7564e-06,-16.294,2.1225
21867,22.817,5.8182,0.1,2.42e-05,241.83,2.3916e-05,234.13,-7.2415e-06,0.025616,-9.2096e-06,-14.762,2.1093
21868,22.908,5.9091,0.1,2.1902e-05,218.87,2.1707e-05,213.48,-6.71e-06,-0.036449,-8.0882e-06,-10.392,2.1224
21869,22.908,5.5455,0.1,2.2604e-05,225.88,2.2216e-05,215.67,-6.4903e-06,-0.014339,-9.0406e-06,-19.176,2.1226
21870,22.817,5.6364,0.1,2.419e-05,241.73,2.3865e-05,233.02,-7.1455e-06,0.012975,-9.3558e-06,-16.594,2.1094
21871,22.908,5.3636,0.1,2.2877e-05,228.62,2.242e-05,216.74,-6.432e-06,-0.04835,-9.3681e-06,-22.109,2.1227
21872,22.817,5.4545,0.1,2.4416e-05,244,2.4033e-05,233.81,-7.0907e-06,-0.036297,-9.6412e-06,-19.2,2.1095
21873,22.908,5.1818,0.1,2.3147e-05,231.31,2.2637e-05,218.19,-6.4097e-06,-0.061735,-9.6322e-06,-24.274,2.1227
21874,22.817,5.2727,0.1,2.4668e-05,246.51,2.4239e-05,235.21,-7.0729e-06,-0.050528,-9.8855e-06,-21.183,2.1096
21875,22.908,5,0.1,2.3378e-05,233.62,2.2839e-05,219.8,-6.4237e-06,-0.070896,-9.8069e-06,-25.491,2.1228
21876,22.817,5.0909,0.1,2.4902e-05,248.84,2.4447e-05,236.92,-7.0939e-06,-0.061836,-1.0052e-05,-22.29,2.1097
21877,22.908,4.8182,0.1,2.3558e-05,235.42,2.3014e-05,221.46,-6.4705e-06,-0.076107,-9.887e-06,-25.746,2.1229
21878,22.817,4.9091,0.1,2.5096e-05,250.79,2.4638e-05,238.78,-7.1506e-06,-0.067792,-1.013e-05,-22.45,2.1098
21879,22.908,4.6364,0.1,2.3685e-05,236.69,2.3157e-05,223.09,-6.5449e-06,-0.079331,-9.8793e-06,-25.133,2.1229
21880,22.817,4.7273,0.1,2.5245e-05,252.28,2.4805e-05,240.69,-7.2381e-06,-0.071342,-1.0119e-05,-21.716,2.1098
21881,22.908,4.4545,0.1,2.3765e-05,237.48,2.3269e-05,224.64,-6.6402e-06,-0.081358,-9.7986e-06,-23.813,2.123
21882,22.817,4.5455,0.1,2.5349e-05,253.32,2.4944e-05,242.57,-7.3499e-06,-0.073238,-1.0031e-05,-20.221,2.1099
21883,22.908,4.2727,0.1,2.3806e-05,237.89,2.3354e-05,226.1,-6.7489e-06,-0.082841,-9.6634e-06,-21.981,2.123
21884,22.817,4.3636,0.1,2.5415e-05,253.97,2.5056e-05,244.38,-7.4781e-06,-0.074282,-9.8838e-06,-18.15,2.1099
21885,22.908,4.0909,0.1,2.3818e-05,238.01,2.3417e-05,227.43,-6.8634e-06,-0.084208,-9.4939e-06,-19.849,2.1231
21886,22.817,4.1818,0.1,2.545e-05,254.33,2.5145e-05,246.07,-7.6145e-06,-0.074988,-9.6959e-06,-15.714,2.11
21887,22.908,3.9091,0.1,2.3811e-05,237.95,2.3461e-05,228.61,-6.9757e-06,-0.085759,-9.3104e-06,-17.628,2.1231
21888,22.817,4,0.1,2.5464e-05,254.46,2.5214e-05,247.61,-7.7507e-06,-0.075783,-9.4882e-06,-13.131,2.11
21889,22.908,3.7273,0.1,2.3795e-05,237.78,2.3492e-05,229.61,-7.0788e-06,-0.087652,-9.1317e-06,-15.513,2.1231
21890,22.817,3.8182,0.1,2.5464e-05,254.47,2.5266e-05,248.96,-7.8785e-06,-0.077043,-9.2806e-06,-10.612,2.11
21891,22.908,3.5455,0.1,2.3775e-05,237.59,2.3512e-05,230.41,-7.1662e-06,-0.089861,-8.9744e-06,-13.676,2.1232
21892,22.817,3.6364,0.1,2.5457e-05,254.4,2.5304e-05,250.08,-7.9907e-06,-0.079103,-9.0911e-06,-8.3469,2.11
21893,22.908,3.3636,0.1,2.3757e-05,237.41,2.3524e-05,231,-7.2327e-06,-0.092111,-8.8519e-06,-12.258,2.1232
21894,22.817,3.4545,0.1,2.5448e-05,254.31,2.533e-05,250.96,-8.0809e-06,-0.08216,-8.9348e-06,-6.4975,2.1101
21895,22.908,3.1818,0.1,2.3745e-05,237.29,2.353e-05,231.36,-7.2742e-06,-0.093867,-8.7743e-06,-11.365,2.1232
21896,22.817,3.2727,0.1,2.5441e-05,254.23,2.5347e-05,251.55,-8.1442e-06,-0.085862,-8.8236e-06,-5.1907,2.1101
21897,22.908,3,0.1,2.3741e-05,237.25,2.3532e-05,231.48,-7.2884e-06,-0.094541,-8.7478e-06,-11.06,2.1232
21898,22.817,3.0909,0.1,2.5436e-05,254.19,2.5355e-05,251.86,-8.1768e-06,-0.088709,-8.7658e-06,-4.5144,2.1101
21899,22.908,2.8182,0.1,2.3745e-05,237.29,2.353e-05,231.36,-7.2742e-06,-0.093868,-8.7743e-06,-11.365,2.1232
21900,22.817,2.9091,0.1,2.5436e-05,254.19,2.5355e-05,251.86,-8.1768e-06,-0.088709,-8.7658e-06,-4.5144,2.1101
21901,22.908,2.6364,0.1,2.3757e-05,237.41,2.3524e-05,231,-7.2327e-06,-0.092112,-8.8519e-06,-12.258,2.1232
21902,22.817,2.7273,0.1,2.5441e-05,254.23,2.5347e-05,251.55,-8.1442e-06,-0.085862,-8.8236e-06,-5.1907,2.1101
21903,22.908,2.4545,0.1,2.3775e-05,237.59,2.3512e-05,230.41,-7.1662e-06,-0.089862,-8.9744e-06,-13.676,2.1232
21904,22.817,2.5455,0.1,2.5448e-05,254.31,2.533e-05,250.96,-8.0809e-06,-0.08216,-8.9348e-06,-6.4975,2.1101
21905,22.908,2.2727,0.1,2.3795e-05,237.78,2.3492e-05,229.61,-7.0788e-06,-0.087652,-9.1317e-06,-15.513,2.1231
21906,22.817,2.3636,0.1,2.5457e-05,254.4,2.5304e-05,250.08,-7.9907e-06,-0.079103,-9.0911e-06,-8.3468,2.11
21907,22.908,2.0909,0.1,2.3811e-05,237.95,2.3461e-05,228.61,-6.9757e-06,-0.085758,-9.3104e-06,-17.628,2.1231
21908,22.817,2.1818,0.1,2.5464e-05,254.47,2.5266e-05,248.96,-7.8785e-06,-0.077042,-9.2806e-06,-10.612,2.11
21909,22.908,1.9091,0.1,2.3818e-05,238.01,2.3417e-05,227.43,-6.8634e-06,-0.084209,-9.4939e-06,-19.849,2.1231
21910,22.817,2,0.1,2.5464e-05,254.46,2.5214e-05,247.61,-7.7507e-06,-0.075783,-9.4882e-06,-13.131,2.11
21911,22.908,1.7273,0.1,2.3806e-05,237.89,2.3354e-05,226.1,-6.7489e-06,-0.082842,-9.6634e-06,-21.981,2.123
21912,22.817,1.8182,0.1,2.545e-05,254.33,2.5145e-05,246.07,-7.6145e-06,-0.074989,-9.6959e-06,-15.714,2.11
21913,22.908,1.5455,0.1,2.3765e-05,237.48,2.3269e-05,224.64,-6.6402e-06,-0.081358,-9.7986e-06,-23.813,2.123
21914,22.817,1.6364,0.1,2.5415e-05,253.97,2.5056e-05,244.38,-7.4781e-06,-0.074283,-9.8838e-06,-18.15,2.1099
21915,22.908,1.3636,0.1,2.3685e-05,236.69,2.3157e-05,223.09,-6.5449e-06,-0.079331,-9.8793e-06,-25.133,2.1229
21916,22.817,1.4545,0.1,2.5349e-05,253.32,2.4944e-05,242.57,-7.3499e-06,-0.073238,-1.0031e-05,-20.221,2.1099
21917,22.908,1.1818,0.1,2.3558e-05,235.42,2.3014e-05,221.46,-6.4705e-06,-0.076109,-9.887e-06,-25.746,2.1229
21918,22.817,1.2727,0.1,2.5245e-05,252.28,2.4805e-05,240.69,-7.2381e-06,-0.071342,-1.0119e-05,-21.716,2.1098
21919,22.908,1,0.1,2.3378e-05,233.62,2.2839e-05,219.8,-6.4237e-06,-0.070897,-9.8069e-06,-25.491,2.1228
21920,22.817,1.0909,0.1,2.5096e-05,250.79,2.4638e-05,238.78,-7.1506e-06,-0.067794,-1.013e-05,-22.45,2.1098
21921,22.908,0.81818,0.1,2.3147e-05,231.31,2.2637e-05,218.19,-6.4097e-06,-0.061735,-9.6322e-06,-24.274,2.1227
21922,22.817,0.90909,0.1,2.4902e-05,248.84,2.4447e-05,236.92,-7.0939e-06,-0.061836,-1.0052e-05,-22.29,2.1097
21923,22.908,0.63636,0.1,2.2877e-05,228.62,2.242e-05,216.74,-6.432e-06,-0.048349,-9.3681e-06,-22.109,2.1227
21924,22.817,0.72727,0.1,2.4668e-05,246.51,2.4239e-05,235.21,-7.0729e-06,-0.050529,-9.8855e-06,-21.183,2.1096
21925,22.908,0.45455,0.1,2.2604e-05,225.88,2.2216e-05,215.67,-6.4903e-06,-0.014336,-9.0406e-06,-19.176,2.1226
21926,22.817,0.54545,0.1,2.4416e-05,244,2.4033e-05,233.81,-7.0907e-06,-0.036296,-9.6412e-06,-19.2,2.1095
21927,22.908,0.27273,0.1,2.245e-05,224.34,2.2128e-05,215.76,-6.5844e-06,0.026149,-8.7564e-06,-16.294,2.1225
21928,22.817,0.36364,0.1,2.419e-05,241.73,2.3865e-05,233.02,-7.1455e-06,0.012978,-9.3558e-06,-16.594,2.1094
21929,22.817,0.18182,0.1,2.42e-05,241.83,2.3916e-05,234.13,-7.2415e-06,0.025615,-9.2096e-06,-14.762,2.1093
21930,22.908,0.090909,0.1,2.1902e-05,218.87,2.1707e-05,213.48,-6.71e-06,-0.036455,-8.0882e-06,-10.392,2.1224
21931,22.726,5.7273,0.1,2.5902e-05,258.84,2.5619e-05,251.13,-7.8016e-06,0.020493,-9.7761e-06,-14.815,2.0963
21932,22.635,5.8182,0.1,2.7649e-05,276.3,2.7387e-05,269.1,-8.4258e-06,0.017821,-1.0277e-05,-13.893,2.0831
21933,22.726,5.9091,0.1,2.5399e-05,253.81,2.5218e-05,248.76,-7.8949e-06,-0.030697,-9.1927e-06,-9.782,2.0962
21934,22.726,5.5455,0.1,2.5988e-05,259.7,2.5668e-05,251.05,-7.7463e-06,-0.011972,-9.942e-06,-16.509,2.0964
21935,22.635,5.6364,0.1,2.7587e-05,275.68,2.7307e-05,268.03,-8.3644e-06,0.0099747,-1.0324e-05,-14.712,2.0832
21936,22.726,5.3636,0.1,2.6199e-05,261.81,2.5841e-05,252.22,-7.732e-06,-0.040857,-1.0149e-05,-18.199,2.0965
21937,22.635,5.4545,0.1,2.7758e-05,277.39,2.7447e-05,268.94,-8.3508e-06,-0.031666,-1.0497e-05,-16.159,2.0833
21938,22.726,5.1818,0.1,2.642e-05,264.02,2.6041e-05,253.9,-7.7574e-06,-0.052405,-1.0299e-05,-19.147,2.0965
21939,22.635,5.2727,0.1,2.7964e-05,279.45,2.7637e-05,270.57,-8.3799e-06,-0.043778,-1.0629e-05,-16.941,2.0834
21940,22.726,5,0.1,2.6621e-05,266.02,2.6241e-05,255.87,-7.821e-06,-0.060111,-1.037e-05,-19.214,2.0966
21941,22.635,5.0909,0.1,2.8167e-05,281.47,2.7841e-05,272.64,-8.4517e-06,-0.053179,-1.0689e-05,-16.865,2.0835
21942,22.726,4.8182,0.1,2.6787e-05,267.69,2.6426e-05,257.99,-7.9184e-06,-0.064067,-1.0358e-05,-18.396,2.0967
21943,22.635,4.9091,0.1,2.8348e-05,283.28,2.8043e-05,274.98,-8.5616e-06,-0.057496,-1.0669e-05,-15.89,2.0836
21944,22.726,4.6364,0.1,2.6916e-05,268.97,2.659e-05,260.15,-8.0432e-06,-0.065892,-1.0269e-05,-16.788,2.0967
21945,22.635,4.7273,0.1,2.8498e-05,284.79,2.8232e-05,277.46,-8.7035e-06,-0.058997,-1.0569e-05,-14.079,2.0836
21946,22.726,4.4545,0.1,2.7008e-05,269.89,2.673e-05,262.29,-8.1878e-06,-0.066223,-1.0115e-05,-14.549,2.0968
21947,22.635,4.5455,0.1,2.8617e-05,285.97,2.8402e-05,279.98,-8.8694e-06,-0.057911,-1.0402e-05,-11.574,2.0837
21948,22.726,4.2727,0.1,2.7069e-05,270.51,2.6847e-05,264.34,-8.3435e-06,-0.065527,-9.9157e-06,-11.878,2.0968
21949,22.635,4.3636,0.1,2.8707e-05,286.87,2.8551e-05,282.46,-9.0502e-06,-0.05386,-1.0183e-05,-8.5689,2.0837
21950,22.726,4.0909,0.1,2.7107e-05,270.88,2.6942e-05,266.24,-8.5015e-06,-0.063954,-9.6902e-06,-8.9955,2.0969
21951,22.635,4.1818,0.1,2.8773e-05,287.53,2.8679e-05,284.83,-9.2355e-06,-0.043497,-9.9336e-06,-5.2881,2.0838
21952,22.726,3.9091,0.1,2.7129e-05,271.1,2.7018e-05,267.96,-8.6527e-06,-0.061199,-9.4591e-06,-6.1199,2.0969
21953,22.635,4,0.1,2.8821e-05,288.01,2.8787e-05,287.01,-9.412e-06,0.0012203,-9.6771e-06,-1.9906,2.0838
21954,22.726,3.7273,0.1,2.7139e-05,271.21,2.7078e-05,269.43,-8.7887e-06,-0.055439,-9.2417e-06,-3.4589,2.0969
21955,22.635,3.8182,0.1,2.8856e-05,288.36,2.8876e-05,288.95,-9.4019e-06,1.3439,-9.6025e-06,-0.16274,2.0838
21956,22.726,3.5455,0.1,2.7144e-05,271.25,2.7122e-05,270.63,-8.9002e-06,-0.032018,-9.0567e-06,-1.2082,2.097
21957,22.635,3.6364,0.1,2.8881e-05,288.61,2.8946e-05,290.58,-9.1843e-06,4.0778,-9.7403e-06,-0.099524,2.0839
21958,22.726,3.3636,0.1,2.7145e-05,271.26,2.7154e-05,271.51,-8.9002e-06,0.6173,-8.9988e-06,-0.12361,2.097
21959,22.635,3.4545,0.1,2.8899e-05,288.79,2.9e-05,291.85,-9.0026e-06,6.3193,-9.8553e-06,-0.087711,2.0839
21960,22.726,3.1818,0.1,2.7145e-05,271.27,2.7172e-05,272.05,-8.8142e-06,1.6669,-9.0478e-06,-0.088494,2.097
21961,22.635,3.2727,0.1,2.8911e-05,288.91,2.9035e-05,292.73,-8.8743e-06,7.892,-9.9357e-06,-0.083259,2.0839
21962,22.726,3,0.1,2.7145e-05,271.27,2.7178e-05,272.23,-8.7838e-06,2.0319,-9.0655e-06,-0.08446,2.097
21963,22.635,3.0909,0.1,2.8917e-05,288.97,2.9053e-05,293.18,-8.808e-06,8.7017,-9.977e-06,-0.081554,2.0839
21964,22.726,2.8182,0.1,2.7145e-05,271.27,2.7172e-05,272.05,-8.8142e-06,1.6669,-9.0478e-06,-0.088495,2.097
21965,22.635,2.9091,0.1,2.8917e-05,288.97,2.9053e-05,293.18,-8.808e-06,8.7017,-9.977e-06,-0.081555,2.0839
21966,22.726,2.6364,0.1,2.7145e-05,271.26,2.7154e-05,271.51,-8.9002e-06,0.61731,-8.9988e-06,-0.12361,2.097
21967,22.635,2.7273,0.1,2.8911e-05,288.91,2.9035e-05,292.73,-8.8743e-06,7.8921,-9.9357e-06,-0.083259,2.0839
21968,22.726,2.4545,0.1,2.7144e-05,271.25,2.7122e-05,270.63,-8.9002e-06,-0.032016,-9.0567e-06,-1.2082,2.097
21969,22.635,2.5455,0.1,2.8899e-05,288.79,2.9e-05,291.85,-9.0025e-06,6.3193,-9.8553e-06,-0.087711,2.0839
21970,22.726,2.2727,0.1,2.7139e-05,271.21,2.7078e-05,269.43,-8.7887e-06,-0.055439,-9.2417e-06,-3.4589,2.0969
21971,22.635,2.3636,0.1,2.8881e-05,288.61,2.8946e-05,290.58,-9.1843e-06,4.0778,-9.7403e-06,-0.099524,2.0839
21972,22.726,2.0909,0.1,2.7129e-05,271.1,2.7018e-05,267.96,-8.6527e-06,-0.0612,-9.4591e-06,-6.1198,2.0969
21973,22.635,2.1818,0.1,2.8856e-05,288.36,2.8876e-05,288.95,-9.4019e-06,1.3439,-9.6025e-06,-0.16273,2.0838
21974,22.726,1.9091,0.1,2.7107e-05,270.88,2.6942e-05,266.24,-8.5015e-06,-0.063955,-9.6902e-06,-8.9955,2.0969
21975,22.635,2,0.1,2.8821e-05,288.01,2.8787e-05,287.01,-9.412e-06,0.0012215,-9.6771e-06,-1.9905,2.0838
21976,22.726,1.7273,0.1,2.7069e-05,270.51,2.6847e-05,264.34,-8.3435e-06,-0.065527,-9.9157e-06,-11.878,2.0968
21977,22.635,1.8182,0.1,2.8773e-05,287.53,2.8679e-05,284.83,-9.2356e-06,-0.043499,-9.9336e-06,-5.2881,2.0838
21978,22.726,1.5455,0.1,2.7008e-05,269.89,2.673e-05,262.29,-8.1878e-06,-0.066223,-1.0115e-05,-14.549,2.0968
21979,22.635,1.6364,0.1,2.8707e-05,286.87,2.8551e-05,282.46,-9.0502e-06,-0.05386,-1.0183e-05,-8.5688,2.0837
21980,22.726,1.3636,0.1,2.6916e-05,268.97,2.659e-05,260.15,-8.0432e-06,-0.065893,-1.0269e-05,-16.788,2.0967
21981,22.635,1.4545,0.1,2.8617e-05,285.97,2.8402e-05,279.98,-8.8694e-06,-0.057911,-1.0402e-05,-11.574,2.0837
21982,22.726,1.1818,0.1,2.6787e-05,267.69,2.6426e-05,257.99,-7.9184e-06,-0.064068,-1.0358e-05,-18.396,2.0967
21983,22.635,1.2727,0.1,2.8498e-05,284.79,2.8232e-05,277.46,-8.7035e-06,-0.058997,-1.0569e-05,-14.079,2.0836
21984,22.726,1,0.1,2.6621e-05,266.02,2.6241e-05,255.87,-7.821e-06,-0.060111,-1.037e-05,-19.214,2.0966
21985,22.635,1.0909,0.1,2.8348e-05,283.28,2.8043e-05,274.98,-8.5616e-06,-0.057498,-1.0669e-05,-15.89,2.0836
21986,22.726,0.81818,0.1,2.642e-05,264.02,2.6041e-05,253.9,-7.7574e-06,-0.052406,-1.0299e-05,-19.147,2.0965
21987,22.635,0.90909,0.1,2.8167e-05,281.47,2.7841e-05,272.64,-8.4517e-06,-0.053179,-1.0689e-05,-16.865,2.0835
21988,22.726,0.63636,0.1,2.6199e-05,261.81,2.5841e-05,252.22,-7.732e-06,-0.040859,-1.0149e-05,-18.199,2.0965
21989,22.635,0.72727,0.1,2.7964e-05,279.45,2.7637e-05,270.57,-8.3799e-06,-0.043779,-1.0629e-05,-16.941,2.0834
21990,22.726,0.45455,0.1,2.5988e-05,259.7,2.5668e-05,251.05,-7.7463e-06,-0.011971,-9.942e-06,-16.509,2.0964
21991,22.635,0.54545,0.1,2.7758e-05,277.39,2.7447e-05,268.94,-8.3508e-06,-0.031666,-1.0497e-05,-16.159,2.0833
21992,22.726,0.27273,0.1,2.5902e-05,258.84,2.5619e-05,251.13,-7.8016e-06,0.020494,-9.7761e-06,-14.815,2.0963
21993,22.635,0.36364,0.1,2.7587e-05,275.68,2.7307e-05,268.03,-8.3644e-06,0.0099766,-1.0324e-05,-14.712,2.0832
21994,22.635,0.18182,0.1,2.7649e-05,276.3,2.7387e-05,269.1,-8.4258e-06,0.017822,-1.0277e-05,-13.893,2.0831
21995,22.726,0.090909,0.1,2.5399e-05,253.81,2.5218e-05,248.76,-7.8949e-06,-0.030698,-9.1927e-06,-9.782,2.0962
21996,22.544,5.7273,0.1,2.93e-05,292.8,2.9045e-05,285.78,-8.9876e-06,0.014894,-1.0796e-05,-13.572,2.0701
21997,22.453,5.8182,0.1,3.1018e-05,309.96,3.0773e-05,303.17,-9.5756e-06,0.011719,-1.133e-05,-13.169,2.0569
21998,22.544,5.9091,0.1,2.8824e-05,288.04,2.8655e-05,283.3,-9.0526e-06,-0.028164,-1.028e-05,-9.249,2.07
21999,22.544,5.5455,0.1,2.9343e-05,293.23,2.9074e-05,285.83,-8.9691e-06,-0.011848,-1.0866e-05,-14.264,2.0702
22000,22.453,5.6364,0.1,3.0927e-05,309.06,3.0682e-05,302.27,-9.5464e-06,0.0065163,-1.1299e-05,-13.165,2.057
22001,22.544,5.3636,0.1,2.9514e-05,294.94,2.9234e-05,287.23,-8.999e-06,-0.036428,-1.0968e-05,-14.83,2.0703
22002,22.453,5.4545,0.1,3.1067e-05,310.45,3.0813e-05,303.42,-9.5738e-06,-0.02906,-1.1379e-05,-13.593,2.0571
22003,22.544,5.1818,0.1,2.9706e-05,296.86,2.943e-05,289.26,-9.0745e-06,-0.045914,-1.1012e-05,-14.607,2.0704
22004,22.453,5.2727,0.1,3.1248e-05,312.27,3.1001e-05,305.41,-9.652e-06,-0.03884,-1.141e-05,-13.25,2.0572
22005,22.544,5,0.1,2.9893e-05,298.72,2.9639e-05,291.71,-9.1924e-06,-0.051461,-1.0983e-05,-13.504,2.0704
22006,22.453,5.0909,0.1,3.144e-05,314.18,3.1218e-05,307.99,-9.7788e-06,-0.04551,-1.137e-05,-12.001,2.0573
22007,22.544,4.8182,0.1,3.006e-05,300.39,2.9846e-05,294.43,-9.3467e-06,-0.052583,-1.0877e-05,-11.548,2.0705
22008,22.453,4.9091,0.1,3.1624e-05,316.02,3.1444e-05,310.96,-9.9482e-06,-0.045955,-1.1253e-05,-9.8477,2.0574
22009,22.544,4.6364,0.1,3.0203e-05,301.82,3.0042e-05,297.27,-9.5295e-06,-0.049387,-1.0701e-05,-8.8506,2.0706
22010,22.453,4.7273,0.1,3.1792e-05,317.7,3.1669e-05,314.18,-1.0152e-05,-0.038985,-1.1063e-05,-6.8855,2.0574
22011,22.544,4.4545,0.1,3.0321e-05,303,3.0221e-05,300.14,-9.7307e-06,-0.037727,-1.047e-05,-5.5917,2.0706
22012,22.453,4.5455,0.1,3.1941e-05,319.19,3.1883e-05,317.52,-1.0377e-05,-0.0058056,-1.0815e-05,-3.2968,2.0575
22013,22.544,4.2727,0.1,3.0416e-05,303.95,3.0382e-05,302.95,-9.935e-06,0.021853,-1.0208e-05,-2.0259,2.0707
22014,22.453,4.3636,0.1,3.2071e-05,320.48,3.2083e-05,320.86,-1.0485e-05,1.0194,-1.0656e-05,-0.26163,2.0576
22015,22.544,4.0909,0.1,3.0493e-05,304.72,3.0523e-05,305.59,-9.8957e-06,1.9026,-1.017e-05,-0.16052,2.0707
22016,22.453,4.1818,0.1,3.2184e-05,321.61,3.2266e-05,324.09,-1.0186e-05,5.1245,-1.0883e-05,-0.11006,2.0576
22017,22.544,3.9091,0.1,3.0556e-05,305.35,3.0644e-05,308,-9.6196e-06,5.4758,-1.0362e-05,-0.10113,2.0707
22018,22.453,4,0.1,3.2282e-05,322.6,3.2429e-05,327.1,-9.8674e-06,9.3085,-1.1118e-05,-0.091551,2.0576
22019,22.544,3.7273,0.1,3.0606e-05,305.85,3.0744e-05,310.09,-9.3603e-06,8.7629,-1.0538e-05,-0.088433,2.0708
22020,22.453,3.8182,0.1,3.2367e-05,323.45,3.257e-05,329.81,-9.5664e-06,13.21,-1.1336e-05,-0.084439,2.0577
22021,22.544,3.5455,0.1,3.0645e-05,306.24,3.0824e-05,311.8,-9.1397e-06,11.533,-1.0686e-05,-0.083074,2.0708
22022,22.453,3.6364,0.1,3.2438e-05,324.16,3.2687e-05,332.1,-9.3026e-06,16.605,-1.1523e-05,-0.080789,2.0577
22023,22.544,3.3636,0.1,3.0674e-05,306.53,3.0882e-05,313.07,-8.9722e-06,13.627,-1.0797e-05,-0.080361,2.0708
22024,22.453,3.4545,0.1,3.2495e-05,324.72,3.2778e-05,333.91,-9.0913e-06,19.312,-1.1672e-05,-0.078741,2.0577
22025,22.544,3.1818,0.1,3.0692e-05,306.7,3.0917e-05,313.85,-8.8678e-06,14.929,-1.0865e-05,-0.079025,2.0708
22026,22.453,3.2727,0.1,3.2534e-05,325.11,3.2841e-05,335.15,-8.9441e-06,21.194,-1.1775e-05,-0.07762,2.0577
22027,22.544,3,0.1,3.0698e-05,306.76,3.0929e-05,314.12,-8.8323e-06,15.371,-1.0889e-05,-0.078619,2.0708
22028,22.453,3.0909,0.1,3.2554e-05,325.32,3.2873e-05,335.79,-8.8687e-06,22.159,-1.1828e-05,-0.077124,2.0577
22029,22.544,2.8182,0.1,3.0692e-05,306.7,3.0917e-05,313.85,-8.8678e-06,14.929,-1.0865e-05,-0.079026,2.0708
22030,22.453,2.9091,0.1,3.2554e-05,325.32,3.2873e-05,335.79,-8.8687e-06,22.159,-1.1828e-05,-0.077125,2.0577
22031,22.544,2.6364,0.1,3.0674e-05,306.53,3.0882e-05,313.07,-8.9722e-06,13.627,-1.0797e-05,-0.080361,2.0708
22032,22.453,2.7273,0.1,3.2534e-05,325.11,3.2841e-05,335.15,-8.9441e-06,21.194,-1.1775e-05,-0.077621,2.0577
22033,22.544,2.4545,0.1,3.0645e-05,306.24,3.0824e-05,311.8,-9.1397e-06,11.533,-1.0686e-05,-0.083074,2.0708
22034,22.453,2.5455,0.1,3.2495e-05,324.72,3.2778e-05,333.91,-9.0913e-06,19.312,-1.1672e-05,-0.078741,2.0577
22035,22.544,2.2727,0.1,3.0606e-05,305.85,3.0744e-05,310.09,-9.3602e-06,8.763,-1.0538e-05,-0.088432,2.0708
22036,22.453,2.3636,0.1,3.2438e-05,324.16,3.2687e-05,332.1,-9.3026e-06,16.605,-1.1523e-05,-0.080788,2.0577
22037,22.544,2.0909,0.1,3.0556e-05,305.35,3.0644e-05,308,-9.6196e-06,5.4758,-1.0362e-05,-0.10113,2.0707
22038,22.453,2.1818,0.1,3.2367e-05,323.45,3.257e-05,329.81,-9.5664e-06,13.21,-1.1336e-05,-0.08444,2.0577
22039,22.544,1.9091,0.1,3.0493e-05,304.72,3.0523e-05,305.59,-9.8957e-06,1.9027,-1.017e-05,-0.16052,2.0707
22040,22.453,2,0.1,3.2282e-05,322.6,3.2429e-05,327.1,-9.8674e-06,9.3086,-1.1118e-05,-0.09155,2.0576
22041,22.544,1.7273,0.1,3.0416e-05,303.95,3.0382e-05,302.95,-9.935e-06,0.021854,-1.0208e-05,-2.0259,2.0707
22042,22.453,1.8182,0.1,3.2184e-05,321.61,3.2266e-05,324.09,-1.0186e-05,5.1246,-1.0883e-05,-0.11006,2.0576
22043,22.544,1.5455,0.1,3.0321e-05,303,3.0221e-05,300.14,-9.7307e-06,-0.037727,-1.047e-05,-5.5917,2.0706
22044,22.453,1.6364,0.1,3.2071e-05,320.48,3.2083e-05,320.86,-1.0485e-05,1.0195,-1.0656e-05,-0.26161,2.0576
22045,22.544,1.3636,0.1,3.0203e-05,301.82,3.0042e-05,297.27,-9.5295e-06,-0.049386,-1.0701e-05,-8.8505,2.0706
22046,22.453,1.4545,0.1,3.1941e-05,319.19,3.1883e-05,317.52,-1.0377e-05,-0.0058057,-1.0815e-05,-3.2967,2.0575
22047,22.544,1.1818,0.1,3.006e-05,300.39,2.9846e-05,294.43,-9.3467e-06,-0.052584,-1.0877e-05,-11.548,2.0705
22048,22.453,1.2727,0.1,3.1792e-05,317.7,3.1669e-05,314.18,-1.0152e-05,-0.038984,-1.1063e-05,-6.8854,2.0574
22049,22.544,1,0.1,2.9893e-05,298.72,2.9639e-05,291.71,-9.1924e-06,-0.051462,-1.0983e-05,-13.504,2.0704
22050,22.453,1.0909,0.1,3.1624e-05,316.02,3.1444e-05,310.96,-9.9482e-06,-0.045956,-1.1253e-05,-9.8476,2.0574
22051,22.544,0.81818,0.1,2.9706e-05,296.86,2.943e-05,289.26,-9.0745e-06,-0.045913,-1.1012e-05,-14.607,2.0704
22052,22.453,0.90909,0.1,3.144e-05,314.18,3.1218e-05,307.99,-9.7788e-06,-0.045511,-1.137e-05,-12.001,2.0573
22053,22.544,0.63636,0.1,2.9514e-05,294.94,2.9234e-05,287.23,-8.999e-06,-0.036428,-1.0968e-05,-14.83,2.0703
22054,22.453,0.72727,0.1,3.1248e-05,312.27,3.1001e-05,305.41,-9.652e-06,-0.03884,-1.141e-05,-13.25,2.0572
22055,22.544,0.45455,0.1,2.9343e-05,293.23,2.9074e-05,285.83,-8.9691e-06,-0.011847,-1.0866e-05,-14.264,2.0702
22056,22.453,0.54545,0.1,3.1067e-05,310.45,3.0813e-05,303.42,-9.5738e-06,-0.02906,-1.1379e-05,-13.593,2.0571
22057,22.544,0.27273,0.1,2.93e-05,292.8,2.9045e-05,285.78,-8.9876e-06,0.014895,-1.0796e-05,-13.572,2.0701
22058,22.453,0.36364,0.1,3.0927e-05,309.06,3.0682e-05,302.27,-9.5464e-06,0.0065188,-1.1299e-05,-13.165,2.057
22059,22.453,0.18182,0.1,3.1018e-05,309.96,3.0773e-05,303.17,-9.5756e-06,0.011718,-1.133e-05,-13.169,2.0569
22060,22.544,0.090909,0.1,2.8824e-05,288.04,2.8655e-05,283.3,-9.0526e-06,-0.028163,-1.028e-05,-9.249,2.07
22061,22.362,5.7273,0.1,3.2615e-05,325.92,3.2383e-05,319.46,-1.0134e-05,0.010241,-1.1807e-05,-12.566,2.0439
22062,22.271,5.8182,0.1,3.4277e-05,342.53,3.4045e-05,336.06,-1.068e-05,0.0072228,-1.236e-05,-12.61,2.0308
22063,22.362,5.9091,0.1,3.2151e-05,321.29,3.1992e-05,316.79,-1.0173e-05,-0.027637,-1.1341e-05,-8.8057,2.0438
22064,22.362,5.5455,0.1,3.2638e-05,326.16,3.2409e-05,319.77,-1.0151e-05,-0.012298,-1.1801e-05,-12.406,2.044
22065,22.271,5.6364,0.1,3.4179e-05,341.56,3.3961e-05,335.43,-1.0682e-05,0.0036106,-1.2272e-05,-11.94,2.0309
22066,22.362,5.3636,0.1,3.2792e-05,327.7,3.2572e-05,321.54,-1.0227e-05,-0.032967,-1.1813e-05,-11.947,2.0441
22067,22.271,5.4545,0.1,3.431e-05,342.87,3.41e-05,336.98,-1.0752e-05,-0.026911,-1.2274e-05,-11.466,2.031
22068,22.362,5.1818,0.1,3.2976e-05,329.53,3.2783e-05,324.09,-1.0356e-05,-0.039472,-1.1761e-05,-10.594,2.0442
22069,22.271,5.2727,0.1,3.449e-05,344.67,3.4308e-05,339.51,-1.0883e-05,-0.033397,-1.2217e-05,-10.061,2.0311
22070,22.362,5,0.1,3.3168e-05,331.45,3.3018e-05,327.2,-1.0535e-05,-0.040034,-1.1635e-05,-8.3087,2.0443
22071,22.271,5.0909,0.1,3.4692e-05,346.68,3.4555e-05,342.78,-1.107e-05,-0.034044,-1.2084e-05,-7.6506,2.0312
22072,22.362,4.8182,0.1,3.3355e-05,333.32,3.3263e-05,330.69,-1.0752e-05,-0.027685,-1.1436e-05,-5.165,2.0443
22073,22.271,4.9091,0.1,3.4901e-05,348.77,3.4825e-05,346.59,-1.1305e-05,-0.015111,-1.1875e-05,-4.2954,2.0312
22074,22.362,4.6364,0.1,3.353e-05,335.07,3.3508e-05,334.41,-1.0988e-05,0.086491,-1.1186e-05,-1.3967,2.0444
22075,22.271,4.7273,0.1,3.5107e-05,350.83,3.5106e-05,350.78,-1.1525e-05,0.41544,-1.165e-05,-0.52188,2.0313
22076,22.362,4.4545,0.1,3.3693e-05,336.69,3.3744e-05,338.23,-1.0842e-05,3.2289,-1.1289e-05,-0.13331,2.0445
22077,22.271,4.5455,0.1,3.5308e-05,352.84,3.5386e-05,355.18,-1.124e-05,4.8429,-1.19e-05,-0.11473,2.0314
22078,22.362,4.2727,0.1,3.3841e-05,338.18,3.3967e-05,342,-1.0502e-05,7.8794,-1.1564e-05,-0.09633,2.0445
22079,22.271,4.3636,0.1,3.55e-05,354.76,3.5659e-05,359.62,-1.0868e-05,10.038,-1.2216e-05,-0.091884,2.0314
22080,22.362,4.0909,0.1,3.3977e-05,339.53,3.4171e-05,345.6,-1.0151e-05,12.579,-1.1837e-05,-0.086178,2.0445
22081,22.271,4.1818,0.1,3.5683e-05,356.59,3.5918e-05,363.97,-1.048e-05,15.356,-1.2535e-05,-0.084124,2.0314
22082,22.362,3.9091,0.1,3.4098e-05,340.75,3.4355e-05,348.91,-9.8131e-06,17.051,-1.2093e-05,-0.081403,2.0446
22083,22.271,4,0.1,3.5854e-05,358.3,3.6158e-05,368.07,-1.01e-05,20.508,-1.284e-05,-0.080204,2.0315
22084,22.362,3.7273,0.1,3.4205e-05,341.82,3.4513e-05,351.81,-9.5084e-06,21.054,-1.2321e-05,-0.078714,2.0446
22085,22.271,3.8182,0.1,3.6011e-05,359.86,3.6372e-05,371.77,-9.7496e-06,25.229,-1.3118e-05,-0.077949,2.0315
22086,22.362,3.5455,0.1,3.4294e-05,342.7,3.4642e-05,354.2,-9.254e-06,24.385,-1.251e-05,-0.077129,2.0446
22087,22.271,3.6364,0.1,3.6147e-05,361.22,3.6555e-05,374.93,-9.4481e-06,29.287,-1.3356e-05,-0.076653,2.0315
22088,22.362,3.3636,0.1,3.4361e-05,343.38,3.4738e-05,355.98,-9.0632e-06,26.88,-1.2651e-05,-0.076223,2.0446
22089,22.271,3.4545,0.1,3.6258e-05,362.33,3.6699e-05,377.44,-9.21e-06,32.493,-1.3545e-05,-0.07596,2.0316
22090,22.362,3.1818,0.1,3.4403e-05,343.8,3.4797e-05,357.08,-8.945e-06,28.424,-1.2738e-05,-0.075766,2.0446
22091,22.271,3.2727,0.1,3.6336e-05,363.11,3.68e-05,379.17,-9.0457e-06,34.706,-1.3675e-05,-0.07564,2.0316
22092,22.362,3,0.1,3.4418e-05,343.94,3.4817e-05,357.46,-8.905e-06,28.946,-1.2768e-05,-0.075628,2.0446
22093,22.271,3.0909,0.1,3.6376e-05,363.51,3.6851e-05,380.06,-8.962e-06,35.836,-1.3742e-05,-0.075525,2.0316
22094,22.362,2.8182,0.1,3.4403e-05,343.8,3.4797e-05,357.08,-8.945e-06,28.424,-1.2738e-05,-0.075766,2.0446
22095,22.271,2.9091,0.1,3.6376e-05,363.51,3.6851e-05,380.06,-8.962e-06,35.836,-1.3742e-05,-0.075524,2.0316
22096,22.362,2.6364,0.1,3.4361e-05,343.38,3.4738e-05,355.98,-9.0632e-06,26.88,-1.2651e-05,-0.076224,2.0446
22097,22.271,2.7273,0.1,3.6336e-05,363.11,3.68e-05,379.17,-9.0457e-06,34.706,-1.3675e-05,-0.07564,2.0316
22098,22.362,2.4545,0.1,3.4294e-05,342.7,3.4642e-05,354.2,-9.254e-06,24.385,-1.251e-05,-0.077128,2.0446
22099,22.271,2.5455,0.1,3.6258e-05,362.33,3.6699e-05,377.44,-9.21e-06,32.493,-1.3545e-05,-0.075961,2.0316
22100,22.362,2.2727,0.1,3.4205e-05,341.82,3.4513e-05,351.81,-9.5084e-06,21.054,-1.2321e-05,-0.078715,2.0446
22101,22.271,2.3636,0.1,3.6147e-05,361.22,3.6555e-05,374.93,-9.4481e-06,29.287,-1.3356e-05,-0.076653,2.0315
22102,22.362,2.0909,0.1,3.4098e-05,340.75,3.4355e-05,348.91,-9.813e-06,17.051,-1.2093e-05,-0.081403,2.0446
22103,22.271,2.1818,0.1,3.6011e-05,359.86,3.6372e-05,371.77,-9.7496e-06,25.229,-1.3118e-05,-0.07795,2.0315
22104,22.362,1.9091,0.1,3.3977e-05,339.53,3.4171e-05,345.6,-1.0151e-05,12.579,-1.1837e-05,-0.086177,2.0445
22105,22.271,2,0.1,3.5854e-05,358.3,3.6158e-05,368.07,-1.01e-05,20.508,-1.284e-05,-0.080202,2.0315
22106,22.362,1.7273,0.1,3.3841e-05,338.18,3.3967e-05,342,-1.0502e-05,7.8795,-1.1564e-05,-0.096329,2.0445
22107,22.271,1.8182,0.1,3.5683e-05,356.59,3.5918e-05,363.97,-1.048e-05,15.356,-1.2535e-05,-0.084124,2.0314
22108,22.362,1.5455,0.1,3.3693e-05,336.69,3.3744e-05,338.23,-1.0842e-05,3.229,-1.1289e-05,-0.1333,2.0445
22109,22.271,1.6364,0.1,3.55e-05,354.76,3.5659e-05,359.62,-1.0868e-05,10.038,-1.2216e-05,-0.091883,2.0314
22110,22.362,1.3636,0.1,3.353e-05,335.07,3.3508e-05,334.41,-1.0989e-05,0.086497,-1.1186e-05,-1.3966,2.0444
22111,22.271,1.4545,0.1,3.5308e-05,352.84,3.5386e-05,355.18,-1.124e-05,4.843,-1.19e-05,-0.11473,2.0314
22112,22.362,1.1818,0.1,3.3355e-05,333.32,3.3263e-05,330.69,-1.0752e-05,-0.027685,-1.1436e-05,-5.1649,2.0443
22113,22.271,1.2727,0.1,3.5107e-05,350.83,3.5106e-05,350.78,-1.1525e-05,0.41548,-1.165e-05,-0.52184,2.0313
22114,22.362,1,0.1,3.3168e-05,331.45,3.3018e-05,327.2,-1.0535e-05,-0.040035,-1.1635e-05,-8.3086,2.0443
22115,22.271,1.0909,0.1,3.4901e-05,348.77,3.4825e-05,346.59,-1.1305e-05,-0.015111,-1.1875e-05,-4.2953,2.0312
22116,22.362,0.81818,0.1,3.2976e-05,329.53,3.2783e-05,324.09,-1.0356e-05,-0.039474,-1.1761e-05,-10.594,2.0442
22117,22.271,0.90909,0.1,3.4692e-05,346.68,3.4555e-05,342.78,-1.107e-05,-0.034045,-1.2084e-05,-7.6505,2.0312
22118,22.362,0.63636,0.1,3.2792e-05,327.7,3.2572e-05,321.54,-1.0227e-05,-0.032968,-1.1813e-05,-11.947,2.0441
22119,22.271,0.72727,0.1,3.449e-05,344.67,3.4308e-05,339.51,-1.0883e-05,-0.033397,-1.2217e-05,-10.061,2.0311
22120,22.362,0.45455,0.1,3.2638e-05,326.16,3.2409e-05,319.77,-1.0151e-05,-0.012297,-1.1801e-05,-12.406,2.044
22121,22.271,0.54545,0.1,3.431e-05,342.87,3.41e-05,336.98,-1.0752e-05,-0.026909,-1.2274e-05,-11.466,2.031
22122,22.362,0.27273,0.1,3.2615e-05,325.92,3.2383e-05,319.46,-1.0134e-05,0.010242,-1.1807e-05,-12.566,2.0439
22123,22.271,0.36364,0.1,3.4179e-05,341.56,3.3961e-05,335.43,-1.0682e-05,0.0036129,-1.2272e-05,-11.94,2.0309
22124,22.271,0.18182,0.1,3.4277e-05,342.53,3.4045e-05,336.06,-1.068e-05,0.0072205,-1.236e-05,-12.61,2.0308
22125,22.362,0.090909,0.1,3.2151e-05,321.29,3.1992e-05,316.79,-1.0173e-05,-0.027638,-1.1341e-05,-8.8057,2.0438
22126,22.179,5.7273,0.1,3.5814e-05,357.9,3.5599e-05,351.85,-1.1228e-05,0.0067813,-1.2801e-05,-11.808,2.0178
22127,22.088,5.8182,0.1,3.7392e-05,373.66,3.7169e-05,367.39,-1.1728e-05,0.0041443,-1.3357e-05,-12.242,2.0046
22128,22.179,5.9091,0.1,3.5346e-05,353.21,3.5194e-05,348.89,-1.1245e-05,-0.028736,-1.2368e-05,-8.4665,2.0176
22129,22.179,5.5455,0.1,3.584e-05,358.15,3.5642e-05,352.56,-1.1283e-05,-0.012361,-1.2735e-05,-10.922,2.0179
22130,22.088,5.6364,0.1,3.7307e-05,372.81,3.7107e-05,367.17,-1.176e-05,0.0020598,-1.323e-05,-11.04,2.0047
22131,22.179,5.3636,0.1,3.6e-05,359.75,3.5828e-05,354.88,-1.1408e-05,-0.028705,-1.2671e-05,-9.5199,2.018
22132,22.088,5.4545,0.1,3.7453e-05,374.27,3.7277e-05,369.28,-1.1875e-05,-0.023546,-1.3171e-05,-9.7628,2.0048
22133,22.179,5.1818,0.1,3.62e-05,361.75,3.6074e-05,358.15,-1.1596e-05,-0.028744,-1.2534e-05,-7.0713,2.018
22134,22.088,5.2727,0.1,3.7657e-05,376.31,3.7526e-05,372.57,-1.2063e-05,-0.023475,-1.3038e-05,-7.3498,2.0049
22135,22.179,5,0.1,3.6421e-05,363.96,3.6358e-05,362.14,-1.184e-05,-0.0044512,-1.232e-05,-3.6079,2.0181
22136,22.088,5.0909,0.1,3.7895e-05,378.69,3.7829e-05,376.77,-1.2316e-05,0.00089452,-1.2822e-05,-3.8002,2.005
22137,22.179,4.8182,0.1,3.6651e-05,366.26,3.6664e-05,366.66,-1.1994e-05,1.0577,-1.2169e-05,-0.25777,2.0182
22138,22.088,4.9091,0.1,3.8155e-05,381.28,3.8169e-05,381.7,-1.2485e-05,1.1059,-1.2668e-05,-0.27072,2.0051
22139,22.179,4.6364,0.1,3.6884e-05,368.59,3.6982e-05,371.52,-1.166e-05,6.0525,-1.2479e-05,-0.10425,2.0183
22140,22.088,4.7273,0.1,3.8428e-05,384.02,3.8532e-05,387.15,-1.2136e-05,6.4517,-1.3008e-05,-0.10544,2.0052
22141,22.179,4.4545,0.1,3.7116e-05,370.91,3.7299e-05,376.56,-1.1264e-05,11.677,-1.2829e-05,-0.088042,2.0183
22142,22.088,4.5455,0.1,3.871e-05,386.83,3.8907e-05,392.92,-1.1714e-05,12.575,-1.3399e-05,-0.088499,2.0052
22143,22.179,4.2727,0.1,3.7344e-05,373.18,3.7609e-05,381.59,-1.0845e-05,17.522,-1.3188e-05,-0.081989,2.0184
22144,22.088,4.3636,0.1,3.8995e-05,389.68,3.9282e-05,398.81,-1.1261e-05,19.045,-1.3807e-05,-0.082279,2.0053
22145,22.179,4.0909,0.1,3.7563e-05,375.38,3.7904e-05,386.43,-1.0428e-05,23.289,-1.3538e-05,-0.078802,2.0184
22146,22.088,4.1818,0.1,3.9278e-05,392.51,3.9648e-05,404.61,-1.0803e-05,25.536,-1.4212e-05,-0.079041,2.0053
22147,22.179,3.9091,0.1,3.777e-05,377.44,3.8174e-05,390.92,-1.0036e-05,28.688,-1.3864e-05,-0.076948,2.0184
22148,22.088,4,0.1,3.9552e-05,395.25,3.9995e-05,410.11,-1.0365e-05,31.729,-1.4599e-05,-0.077205,2.0054
22149,22.179,3.7273,0.1,3.7957e-05,379.31,3.8413e-05,394.89,-9.6892e-06,33.462,-1.4153e-05,-0.075919,2.0185
22150,22.088,3.8182,0.1,3.9809e-05,397.82,4.0311e-05,415.12,-9.9703e-06,37.331,-1.4949e-05,-0.076281,2.0054
22151,22.179,3.5455,0.1,3.8115e-05,380.89,3.8612e-05,398.17,-9.404e-06,37.395,-1.4391e-05,-0.075443,2.0185
22152,22.088,3.6364,0.1,4.0037e-05,400.09,4.0585e-05,419.43,-9.6359e-06,42.095,-1.5249e-05,-0.076003,2.0054
22153,22.179,3.3636,0.1,3.8237e-05,382.1,3.8761e-05,400.62,-9.1925e-06,40.319,-1.4569e-05,-0.075302,2.0185
22154,22.088,3.4545,0.1,4.0223e-05,401.95,4.0804e-05,422.86,-9.3757e-06,45.825,-1.5485e-05,-0.076127,2.0054
22155,22.179,3.1818,0.1,3.8313e-05,382.87,3.8854e-05,402.14,-9.0626e-06,42.119,-1.4678e-05,-0.075308,2.0185
22156,22.088,3.2727,0.1,4.0355e-05,403.27,4.0958e-05,425.24,-9.1983e-06,48.383,-1.5648e-05,-0.076399,2.0054
22157,22.179,3,0.1,3.834e-05,383.13,3.8885e-05,402.66,-9.0189e-06,42.726,-1.4715e-05,-0.075326,2.0185
22158,22.088,3.0909,0.1,4.0424e-05,403.96,4.1037e-05,426.46,-9.1085e-06,49.683,-1.5731e-05,-0.076599,2.0055
22159,22.179,2.8182,0.1,3.8313e-05,382.87,3.8854e-05,402.14,-9.0626e-06,42.119,-1.4678e-05,-0.075307,2.0185
22160,22.088,2.9091,0.1,4.0424e-05,403.96,4.1037e-05,426.46,-9.1085e-06,49.683,-1.5731e-05,-0.076599,2.0055
22161,22.179,2.6364,0.1,3.8237e-05,382.1,3.8761e-05,400.62,-9.1925e-06,40.319,-1.4569e-05,-0.075302,2.0185
22162,22.088,2.7273,0.1,4.0355e-05,403.27,4.0958e-05,425.24,-9.1983e-06,48.383,-1.5648e-05,-0.076399,2.0054
22163,22.179,2.4545,0.1,3.8115e-05,380.89,3.8612e-05,398.17,-9.404e-06,37.395,-1.4391e-05,-0.075444,2.0185
22164,22.088,2.5455,0.1,4.0223e-05,401.95,4.0804e-05,422.86,-9.3757e-06,45.825,-1.5485e-05,-0.076127,2.0054
22165,22.179,2.2727,0.1,3.7957e-05,379.31,3.8413e-05,394.89,-9.6892e-06,33.462,-1.4153e-05,-0.075919,2.0185
22166,22.088,2.3636,0.1,4.0037e-05,400.09,4.0585e-05,419.43,-9.6359e-06,42.095,-1.5249e-05,-0.076003,2.0054
22167,22.179,2.0909,0.1,3.777e-05,377.44,3.8174e-05,390.92,-1.0036e-05,28.688,-1.3864e-05,-0.076947,2.0184
22168,22.088,2.1818,0.1,3.9809e-05,397.82,4.0311e-05,415.12,-9.9703e-06,37.331,-1.4949e-05,-0.076281,2.0054
22169,22.179,1.9091,0.1,3.7563e-05,375.38,3.7904e-05,386.43,-1.0428e-05,23.289,-1.3538e-05,-0.078801,2.0184
22170,22.088,2,0.1,3.9552e-05,395.25,3.9995e-05,410.11,-1.0365e-05,31.729,-1.4599e-05,-0.077205,2.0054
22171,22.179,1.7273,0.1,3.7344e-05,373.18,3.7609e-05,381.59,-1.0845e-05,17.523,-1.3188e-05,-0.081989,2.0184
22172,22.088,1.8182,0.1,3.9278e-05,392.51,3.9648e-05,404.61,-1.0803e-05,25.536,-1.4212e-05,-0.07904,2.0053
22173,22.179,1.5455,0.1,3.7116e-05,370.91,3.7299e-05,376.56,-1.1264e-05,11.677,-1.2829e-05,-0.088043,2.0183
22174,22.088,1.6364,0.1,3.8995e-05,389.68,3.9282e-05,398.81,-1.1261e-05,19.046,-1.3807e-05,-0.082279,2.0053
22175,22.179,1.3636,0.1,3.6884e-05,368.59,3.6982e-05,371.52,-1.166e-05,6.0526,-1.2479e-05,-0.10425,2.0183
22176,22.088,1.4545,0.1,3.871e-05,386.83,3.8907e-05,392.92,-1.1714e-05,12.576,-1.3399e-05,-0.0885,2.0052
22177,22.179,1.1818,0.1,3.6651e-05,366.26,3.6664e-05,366.66,-1.1994e-05,1.0578,-1.2169e-05,-0.25776,2.0182
22178,22.088,1.2727,0.1,3.8428e-05,384.02,3.8532e-05,387.15,-1.2136e-05,6.4518,-1.3008e-05,-0.10544,2.0052
22179,22.179,1,0.1,3.6421e-05,363.96,3.6358e-05,362.14,-1.184e-05,-0.0044503,-1.232e-05,-3.6078,2.0181
22180,22.088,1.0909,0.1,3.8155e-05,381.28,3.8169e-05,381.7,-1.2485e-05,1.1059,-1.2668e-05,-0.27071,2.0051
22181,22.179,0.81818,0.1,3.62e-05,361.75,3.6074e-05,358.15,-1.1596e-05,-0.028743,-1.2534e-05,-7.0712,2.018
22182,22.088,0.90909,0.1,3.7895e-05,378.69,3.7829e-05,376.77,-1.2316e-05,0.00089427,-1.2822e-05,-3.8001,2.005
22183,22.179,0.63636,0.1,3.6e-05,359.75,3.5828e-05,354.88,-1.1408e-05,-0.028702,-1.2671e-05,-9.5199,2.018
22184,22.088,0.72727,0.1,3.7657e-05,376.31,3.7526e-05,372.57,-1.2063e-05,-0.023475,-1.3038e-05,-7.3497,2.0049
22185,22.179,0.45455,0.1,3.584e-05,358.15,3.5642e-05,352.56,-1.1283e-05,-0.012358,-1.2735e-05,-10.922,2.0179
22186,22.088,0.54545,0.1,3.7453e-05,374.27,3.7277e-05,369.28,-1.1875e-05,-0.023543,-1.3171e-05,-9.7628,2.0048
22187,22.179,0.27273,0.1,3.5814e-05,357.9,3.5599e-05,351.85,-1.1228e-05,0.0067806,-1.2801e-05,-11.808,2.0178
22188,22.088,0.36364,0.1,3.7307e-05,372.81,3.7107e-05,367.17,-1.176e-05,0.0020619,-1.323e-05,-11.04,2.0047
22189,22.088,0.18182,0.1,3.7392e-05,373.66,3.7169e-05,367.39,-1.1728e-05,0.0041417,-1.3357e-05,-12.242,2.0046
22190,22.179,0.090909,0.1,3.5346e-05,353.21,3.5194e-05,348.89,-1.1245e-05,-0.02874,-1.2368e-05,-8.4665,2.0176
22191,21.997,5.7273,0.1,3.886e-05,388.33,3.8655e-05,382.55,-1.2259e-05,0.0049598,-1.3765e-05,-11.316,1.9916
22192,21.906,5.8182,0.1,4.0318e-05,402.9,4.0099e-05,396.72,-1.2701e-05,0.0024152,-1.4311e-05,-12.09,1.9785
22193,21.997,5.9091,0.1,3.8366e-05,383.39,3.8218e-05,379.19,-1.2253e-05,-0.03107,-1.3346e-05,-8.2457,1.9915
22194,21.997,5.5455,0.1,3.891e-05,388.83,3.8733e-05,383.83,-1.2352e-05,-0.010595,-1.3656e-05,-9.8118,1.9917
22195,21.906,5.6364,0.1,4.0267e-05,402.39,4.0078e-05,397.05,-1.2766e-05,0.0028845,-1.416e-05,-10.474,1.9786
22196,21.997,5.3636,0.1,3.9101e-05,390.75,3.8967e-05,386.91,-1.253e-05,-0.020236,-1.3531e-05,-7.5379,1.9918
22197,21.906,5.4545,0.1,4.0453e-05,404.25,4.0302e-05,399.94,-1.2929e-05,-0.016384,-1.4055e-05,-8.4801,1.9787
22198,21.997,5.1818,0.1,3.9345e-05,393.18,3.9275e-05,391.15,-1.2783e-05,0.0023133,-1.332e-05,-4.0333,1.9919
22199,21.906,5.2727,0.1,4.0709e-05,406.81,4.062e-05,404.23,-1.318e-05,0.0010024,-1.386e-05,-5.1114,1.9788
22200,21.997,5,0.1,3.9624e-05,395.97,3.9635e-05,396.3,-1.2979e-05,0.98229,-1.315e-05,-0.30311,1.992
22201,21.906,5.0909,0.1,4.1015e-05,409.87,4.1009e-05,409.68,-1.3466e-05,0.37804,-1.3616e-05,-0.74934,1.9789
22202,21.997,4.8182,0.1,3.9929e-05,399.01,4.0033e-05,402.17,-1.2626e-05,6.5089,-1.3506e-05,-0.10572,1.9921
22203,21.906,4.9091,0.1,4.136e-05,413.32,4.1452e-05,416.07,-1.3167e-05,5.6836,-1.3939e-05,-0.12039,1.979
22204,21.997,4.6364,0.1,4.0252e-05,402.24,4.0455e-05,408.53,-1.2188e-05,12.987,-1.3929e-05,-0.088207,1.9921
22205,21.906,4.7273,0.1,4.1737e-05,417.08,4.1934e-05,423.16,-1.2715e-05,12.546,-1.4398e-05,-0.093276,1.9791
22206,21.997,4.4545,0.1,4.0587e-05,405.59,4.0888e-05,415.16,-1.171e-05,19.952,-1.4377e-05,-0.082032,1.9922
22207,21.906,4.5455,0.1,4.2137e-05,421.08,4.2441e-05,430.72,-1.2212e-05,20.075,-1.4895e-05,-0.084867,1.9791
22208,21.997,4.2727,0.1,4.0929e-05,409,4.132e-05,421.82,-1.1219e-05,27.063,-1.4831e-05,-0.078873,1.9922
22209,21.906,4.3636,0.1,4.2555e-05,425.25,4.2959e-05,438.47,-1.1685e-05,27.904,-1.5409e-05,-0.080779,1.9792
22210,21.997,4.0909,0.1,4.1268e-05,412.39,4.1739e-05,428.29,-1.0741e-05,33.977,-1.5273e-05,-0.0771,1.9923
22211,21.906,4.1818,0.1,4.2979e-05,429.49,4.3473e-05,446.17,-1.1163e-05,35.655,-1.5919e-05,-0.078513,1.9792
22212,21.997,3.9091,0.1,4.1593e-05,415.64,4.2131e-05,434.31,-1.03e-05,40.372,-1.5683e-05,-0.076258,1.9923
22213,21.906,4,0.1,4.3398e-05,433.68,4.3967e-05,453.51,-1.0675e-05,42.96,-1.6403e-05,-0.077443,1.9793
22214,21.997,3.7273,0.1,4.1892e-05,418.63,4.2482e-05,439.67,-9.917e-06,45.964,-1.6045e-05,-0.076125,1.9924
22215,21.906,3.8182,0.1,4.3794e-05,437.64,4.4424e-05,460.24,-1.0243e-05,49.492,-1.684e-05,-0.07733,1.9793
22216,21.997,3.5455,0.1,4.2147e-05,421.18,4.2777e-05,444.12,-9.6075e-06,50.526,-1.6342e-05,-0.076472,1.9924
22217,21.906,3.6364,0.1,4.4149e-05,441.18,4.4824e-05,466.05,-9.8853e-06,54.986,-1.7214e-05,-0.077932,1.9793
22218,21.997,3.3636,0.1,4.2344e-05,423.15,4.3001e-05,447.47,-9.3813e-06,53.891,-1.6564e-05,-0.077026,1.9924
22219,21.906,3.4545,0.1,4.4439e-05,444.09,4.5148e-05,470.69,-9.6122e-06,59.245,-1.7508e-05,-0.078918,1.9793
22220,21.997,3.1818,0.1,4.2469e-05,424.39,4.3141e-05,449.55,-9.2439e-06,55.95,-1.6701e-05,-0.077501,1.9924
22221,21.906,3.2727,0.1,4.4647e-05,446.16,4.5376e-05,473.92,-9.429e-06,62.143,-1.771e-05,-0.079887,1.9794
22222,21.997,3,0.1,4.2511e-05,424.82,4.3188e-05,450.25,-9.1979e-06,56.643,-1.6747e-05,-0.077686,1.9924
22223,21.906,3.0909,0.1,4.4754e-05,447.24,4.5494e-05,475.59,-9.3373e-06,63.608,-1.7814e-05,-0.080478,1.9794
22224,21.997,2.8182,0.1,4.2469e-05,424.39,4.3141e-05,449.55,-9.2439e-06,55.95,-1.6701e-05,-0.077501,1.9924
22225,21.906,2.9091,0.1,4.4754e-05,447.24,4.5494e-05,475.59,-9.3373e-06,63.608,-1.7814e-05,-0.080479,1.9794
22226,21.997,2.6364,0.1,4.2344e-05,423.15,4.3001e-05,447.47,-9.3813e-06,53.891,-1.6564e-05,-0.077025,1.9924
22227,21.906,2.7273,0.1,4.4647e-05,446.16,4.5376e-05,473.92,-9.429e-06,62.143,-1.771e-05,-0.079886,1.9794
22228,21.997,2.4545,0.1,4.2147e-05,421.18,4.2777e-05,444.12,-9.6075e-06,50.526,-1.6342e-05,-0.076472,1.9924
22229,21.906,2.5455,0.1,4.4439e-05,444.09,4.5148e-05,470.69,-9.6122e-06,59.245,-1.7508e-05,-0.078918,1.9793
22230,21.997,2.2727,0.1,4.1892e-05,418.63,4.2482e-05,439.67,-9.917e-06,45.964,-1.6045e-05,-0.076124,1.9924
22231,21.906,2.3636,0.1,4.4149e-05,441.18,4.4824e-05,466.05,-9.8853e-06,54.986,-1.7214e-05,-0.077932,1.9793
22232,21.997,2.0909,0.1,4.1593e-05,415.64,4.2131e-05,434.31,-1.03e-05,40.372,-1.5683e-05,-0.076258,1.9923
22233,21.906,2.1818,0.1,4.3794e-05,437.64,4.4424e-05,460.24,-1.0243e-05,49.492,-1.684e-05,-0.07733,1.9793
22234,21.997,1.9091,0.1,4.1268e-05,412.39,4.1739e-05,428.29,-1.0741e-05,33.977,-1.5273e-05,-0.0771,1.9923
22235,21.906,2,0.1,4.3398e-05,433.68,4.3967e-05,453.51,-1.0675e-05,42.96,-1.6403e-05,-0.077444,1.9793
22236,21.997,1.7273,0.1,4.0929e-05,409,4.132e-05,421.82,-1.1219e-05,27.063,-1.4831e-05,-0.078873,1.9922
22237,21.906,1.8182,0.1,4.2979e-05,429.49,4.3473e-05,446.17,-1.1163e-05,35.655,-1.5919e-05,-0.078513,1.9792
22238,21.997,1.5455,0.1,4.0587e-05,405.59,4.0888e-05,415.16,-1.171e-05,19.952,-1.4377e-05,-0.082032,1.9922
22239,21.906,1.6364,0.1,4.2555e-05,425.25,4.2959e-05,438.47,-1.1685e-05,27.904,-1.5409e-05,-0.080779,1.9792
22240,21.997,1.3636,0.1,4.0252e-05,402.24,4.0455e-05,408.53,-1.2188e-05,12.987,-1.3929e-05,-0.088206,1.9921
22241,21.906,1.4545,0.1,4.2137e-05,421.08,4.2441e-05,430.72,-1.2212e-05,20.075,-1.4895e-05,-0.084868,1.9791
22242,21.997,1.1818,0.1,3.9929e-05,399.01,4.0033e-05,402.17,-1.2626e-05,6.509,-1.3506e-05,-0.10572,1.9921
22243,21.906,1.2727,0.1,4.1737e-05,417.08,4.1934e-05,423.16,-1.2715e-05,12.546,-1.4398e-05,-0.093275,1.9791
22244,21.997,1,0.1,3.9624e-05,395.97,3.9635e-05,396.3,-1.2979e-05,0.98234,-1.315e-05,-0.30309,1.992
22245,21.906,1.0909,0.1,4.136e-05,413.32,4.1452e-05,416.07,-1.3167e-05,5.6837,-1.3939e-05,-0.12039,1.979
22246,21.997,0.81818,0.1,3.9345e-05,393.18,3.9275e-05,391.15,-1.2783e-05,0.0023109,-1.332e-05,-4.0333,1.9919
22247,21.906,0.90909,0.1,4.1015e-05,409.87,4.1009e-05,409.68,-1.3466e-05,0.37807,-1.3616e-05,-0.7493,1.9789
22248,21.997,0.63636,0.1,3.9101e-05,390.75,3.8967e-05,386.91,-1.253e-05,-0.020237,-1.3531e-05,-7.5379,1.9918
22249,21.906,0.72727,0.1,4.0709e-05,406.81,4.062e-05,404.23,-1.318e-05,0.0010011,-1.386e-05,-5.1114,1.9788
22250,21.997,0.45455,0.1,3.891e-05,388.83,3.8733e-05,383.83,-1.2352e-05,-0.010592,-1.3656e-05,-9.8118,1.9917
22251,21.906,0.54545,0.1,4.0453e-05,404.25,4.0302e-05,399.94,-1.2929e-05,-0.016383,-1.4055e-05,-8.4801,1.9787
22252,21.997,0.27273,0.1,3.886e-05,388.33,3.8655e-05,382.55,-1.2259e-05,0.0049599,-1.3765e-05,-11.316,1.9916
22253,21.906,0.36364,0.1,4.0267e-05,402.39,4.0078e-05,397.05,-1.2766e-05,0.0028868,-1.416e-05,-10.474,1.9786
22254,21.906,0.18182,0.1,4.0318e-05,402.9,4.0099e-05,396.72,-1.2701e-05,0.0024142,-1.4311e-05,-12.09,1.9785
22255,21.997,0.090909,0.1,3.8366e-05,383.39,3.8218e-05,379.19,-1.2253e-05,-0.031069,-1.3346e-05,-8.2457,1.9915
22256,21.815,5.7273,0.1,4.1703e-05,416.74,4.1503e-05,411.08,-1.3208e-05,0.0052443,-1.4687e-05,-11.107,1.9655
22257,21.724,5.8182,0.1,4.3002e-05,429.72,4.2782e-05,423.51,-1.3583e-05,0.0020034,-1.5204e-05,-12.176,1.9524
22258,21.815,5.9091,0.1,4.1161e-05,411.33,4.1016e-05,407.17,-1.318e-05,-0.034282,-1.4261e-05,-8.1576,1.9654
22259,21.815,5.5455,0.1,4.1801e-05,417.72,4.1639e-05,413.11,-1.3343e-05,-0.0051644,-1.4551e-05,-9.0823,1.9656
22260,21.724,5.6364,0.1,4.3006e-05,429.76,4.2822e-05,424.55,-1.368e-05,0.0072176,-1.5046e-05,-10.253,1.9525
22261,21.815,5.3636,0.1,4.2053e-05,420.24,4.1948e-05,417.21,-1.3579e-05,-0.0012164,-1.4378e-05,-6.0023,1.9657
22262,21.724,5.4545,0.1,4.3261e-05,432.31,4.3126e-05,428.45,-1.3897e-05,-0.001858,-1.4911e-05,-7.6206,1.9526
22263,21.815,5.1818,0.1,4.2373e-05,423.44,4.2349e-05,422.73,-1.3892e-05,0.16033,-1.4123e-05,-1.5759,1.9658
22264,21.724,5.2727,0.1,4.3603e-05,435.73,4.3546e-05,434.07,-1.4216e-05,0.067744,-1.4673e-05,-3.3674,1.9527
22265,21.815,5,0.1,4.2747e-05,427.17,4.2822e-05,429.42,-1.3708e-05,4.677,-1.4349e-05,-0.13876,1.9659
22266,21.724,5.0909,0.1,4.4015e-05,439.85,4.4058e-05,441.14,-1.4278e-05,2.8252,-1.4683e-05,-0.21897,1.9528
22267,21.815,4.8182,0.1,4.3165e-05,431.35,4.335e-05,437.04,-1.3256e-05,11.727,-1.4829e-05,-0.097944,1.966
22268,21.724,4.9091,0.1,4.4488e-05,444.57,4.4648e-05,449.43,-1.3838e-05,9.9923,-1.5183e-05,-0.11359,1.9529
22269,21.815,4.6364,0.1,4.362e-05,435.9,4.3919e-05,445.34,-1.2738e-05,19.64,-1.5364e-05,-0.087223,1.9661
22270,21.724,4.7273,0.1,4.5014e-05,449.83,4.5296e-05,458.66,-1.3311e-05,18.309,-1.576e-05,-0.094805,1.953
22271,21.815,4.4545,0.1,4.4103e-05,440.73,4.4512e-05,454.03,-1.2186e-05,28.03,-1.5927e-05,-0.082298,1.9661
22272,21.724,4.5455,0.1,4.5584e-05,455.52,4.5985e-05,468.52,-1.2735e-05,27.325,-1.6383e-05,-0.087069,1.953
22273,21.815,4.2727,0.1,4.4605e-05,445.74,4.5111e-05,462.82,-1.1629e-05,36.495,-1.6497e-05,-0.079595,1.9662
22274,21.724,4.3636,0.1,4.6186e-05,461.54,4.6698e-05,478.71,-1.2142e-05,36.605,-1.7025e-05,-0.082914,1.9531
22275,21.815,4.0909,0.1,4.511e-05,450.78,4.5701e-05,471.4,-1.1098e-05,44.634,-1.7049e-05,-0.078262,1.9662
22276,21.724,4.1818,0.1,4.6805e-05,467.73,4.7413e-05,488.86,-1.1568e-05,45.698,-1.7661e-05,-0.080697,1.9532
22277,21.815,3.9091,0.1,4.56e-05,455.68,4.626e-05,479.44,-1.0619e-05,52.077,-1.756e-05,-0.078049,1.9662
22278,21.724,4,0.1,4.7422e-05,473.9,4.8109e-05,498.61,-1.1042e-05,54.173,-1.8262e-05,-0.080014,1.9532
22279,21.815,3.7273,0.1,4.6053e-05,460.21,4.6766e-05,486.62,-1.0212e-05,58.512,-1.801e-05,-0.078753,1.9663
22280,21.724,3.8182,0.1,4.8011e-05,479.77,4.8759e-05,507.58,-1.0589e-05,61.66,-1.8806e-05,-0.080669,1.9532
22281,21.815,3.5455,0.1,4.6442e-05,464.1,4.7195e-05,492.62,-9.89e-06,63.706,-1.8379e-05,-0.080046,1.9663
22282,21.724,3.6364,0.1,4.8539e-05,485.05,4.9333e-05,515.36,-1.0224e-05,67.876,-1.9268e-05,-0.082338,1.9533
22283,21.815,3.3636,0.1,4.6743e-05,467.11,4.7522e-05,497.14,-9.6596e-06,67.5,-1.8654e-05,-0.081484,1.9663
22284,21.724,3.4545,0.1,4.8973e-05,489.4,4.9801e-05,521.6,-9.9533e-06,72.637,-1.9632e-05,-0.08448,1.9533
22285,21.815,3.1818,0.1,4.6934e-05,469.02,4.7728e-05,499.96,-9.5218e-06,69.806,-1.8823e-05,-0.082589,1.9663
22286,21.724,3.2727,0.1,4.9284e-05,492.5,5.0131e-05,525.97,-9.7764e-06,75.844,-1.9882e-05,-0.086435,1.9533
22287,21.815,3,0.1,4.6999e-05,469.67,4.7798e-05,500.91,-9.476e-06,70.579,-1.8881e-05,-0.083003,1.9663
22288,21.724,3.0909,0.1,4.9446e-05,494.12,5.0303e-05,528.21,-9.6895e-06,77.453,-2.001e-05,-0.087592,1.9533
22289,21.815,2.8182,0.1,4.6934e-05,469.02,4.7728e-05,499.96,-9.5218e-06,69.806,-1.8823e-05,-0.08259,1.9663
22290,21.724,2.9091,0.1,4.9446e-05,494.12,5.0303e-05,528.21,-9.6895e-06,77.453,-2.001e-05,-0.087594,1.9533
22291,21.815,2.6364,0.1,4.6743e-05,467.11,4.7522e-05,497.14,-9.6596e-06,67.5,-1.8654e-05,-0.081484,1.9663
22292,21.724,2.7273,0.1,4.9284e-05,492.5,5.0131e-05,525.97,-9.7764e-06,75.844,-1.9882e-05,-0.086434,1.9533
22293,21.815,2.4545,0.1,4.6442e-05,464.1,4.7195e-05,492.62,-9.89e-06,63.706,-1.8379e-05,-0.080047,1.9663
22294,21.724,2.5455,0.1,4.8973e-05,489.4,4.9801e-05,521.6,-9.9533e-06,72.637,-1.9632e-05,-0.084481,1.9533
22295,21.815,2.2727,0.1,4.6053e-05,460.21,4.6766e-05,486.62,-1.0212e-05,58.512,-1.801e-05,-0.078753,1.9663
22296,21.724,2.3636,0.1,4.8539e-05,485.05,4.9333e-05,515.36,-1.0224e-05,67.876,-1.9268e-05,-0.082337,1.9533
22297,21.815,2.0909,0.1,4.56e-05,455.68,4.626e-05,479.44,-1.0619e-05,52.077,-1.756e-05,-0.07805,1.9662
22298,21.724,2.1818,0.1,4.8011e-05,479.77,4.8759e-05,507.58,-1.0589e-05,61.66,-1.8806e-05,-0.08067,1.9532
22299,21.815,1.9091,0.1,4.511e-05,450.78,4.5701e-05,471.4,-1.1098e-05,44.634,-1.7049e-05,-0.078262,1.9662
22300,21.724,2,0.1,4.7422e-05,473.9,4.8109e-05,498.61,-1.1042e-05,54.173,-1.8262e-05,-0.080014,1.9532
22301,21.815,1.7273,0.1,4.4605e-05,445.74,4.5111e-05,462.82,-1.1629e-05,36.495,-1.6497e-05,-0.079595,1.9662
22302,21.724,1.8182,0.1,4.6805e-05,467.73,4.7413e-05,488.86,-1.1568e-05,45.698,-1.7661e-05,-0.080697,1.9532
22303,21.815,1.5455,0.1,4.4103e-05,440.73,4.4512e-05,454.03,-1.2186e-05,28.03,-1.5927e-05,-0.082299,1.9661
22304,21.724,1.6364,0.1,4.6186e-05,461.54,4.6698e-05,478.71,-1.2142e-05,36.606,-1.7025e-05,-0.082914,1.9531
22305,21.815,1.3636,0.1,4.362e-05,435.9,4.3919e-05,445.34,-1.2738e-05,19.64,-1.5364e-05,-0.087224,1.9661
22306,21.724,1.4545,0.1,4.5584e-05,455.52,4.5985e-05,468.52,-1.2735e-05,27.325,-1.6383e-05,-0.08707,1.953
22307,21.815,1.1818,0.1,4.3165e-05,431.35,4.335e-05,437.04,-1.3256e-05,11.727,-1.4829e-05,-0.097945,1.966
22308,21.724,1.2727,0.1,4.5014e-05,449.83,4.5296e-05,458.66,-1.3311e-05,18.309,-1.576e-05,-0.094805,1.953
22309,21.815,1,0.1,4.2747e-05,427.17,4.2822e-05,429.42,-1.3708e-05,4.677,-1.4349e-05,-0.13876,1.9659
22310,21.724,1.0909,0.1,4.4488e-05,444.57,4.4648e-05,449.43,-1.3838e-05,9.9923,-1.5183e-05,-0.11359,1.9529
22311,21.815,0.81818,0.1,4.2373e-05,423.44,4.2349e-05,422.73,-1.3892e-05,0.16034,-1.4123e-05,-1.5758,1.9658
22312,21.724,0.90909,0.1,4.4015e-05,439.85,4.4058e-05,441.14,-1.4278e-05,2.8253,-1.4683e-05,-0.21897,1.9528
22313,21.815,0.63636,0.1,4.2053e-05,420.24,4.1948e-05,417.21,-1.3579e-05,-0.0012161,-1.4378e-05,-6.0022,1.9657
22314,21.724,0.72727,0.1,4.3603e-05,435.73,4.3546e-05,434.07,-1.4216e-05,0.067744,-1.4673e-05,-3.3674,1.9527
22315,21.815,0.45455,0.1,4.1801e-05,417.72,4.1639e-05,413.11,-1.3343e-05,-0.005163,-1.4551e-05,-9.0823,1.9656
22316,21.724,0.54545,0.1,4.3261e-05,432.31,4.3126e-05,428.45,-1.3897e-05,-0.001858,-1.4911e-05,-7.6206,1.9526
22317,21.815,0.27273,0.1,4.1703e-05,416.74,4.1503e-05,411.08,-1.3208e-05,0.0052456,-1.4687e-05,-11.107,1.9655
22318,21.724,0.36364,0.1,4.3006e-05,429.76,4.2822e-05,424.55,-1.368e-05,0.0072203,-1.5046e-05,-10.253,1.9525
22319,21.724,0.18182,0.1,4.3002e-05,429.72,4.2782e-05,423.51,-1.3583e-05,0.0020028,-1.5204e-05,-12.176,1.9524
22320,21.815,0.090909,0.1,4.1161e-05,411.33,4.1016e-05,407.17,-1.318e-05,-0.034283,-1.4261e-05,-8.1575,1.9654
22321,21.633,5.7273,0.1,4.4285e-05,442.55,4.4084e-05,436.85,-1.4055e-05,0.0081446,-1.5547e-05,-11.199,1.9394
22322,21.542,5.8182,0.1,4.5377e-05,453.46,4.5151e-05,447.07,-1.435e-05,0.0029405,-1.6017e-05,-12.522,1.9263
22323,21.633,5.9091,0.1,4.367e-05,436.4,4.3524e-05,432.22,-1.4006e-05,-0.037984,-1.5094e-05,-8.2149,1.9393
22324,21.633,5.5455,0.1,4.4458e-05,444.27,4.4303e-05,439.84,-1.4236e-05,0.0060791,-1.54e-05,-8.74,1.9395
22325,21.542,5.6364,0.1,4.5459e-05,454.28,4.5274e-05,449.01,-1.4483e-05,0.016197,-1.5867e-05,-10.381,1.9265
22326,21.633,5.3636,0.1,4.4804e-05,447.73,4.4719e-05,445.27,-1.4538e-05,0.038922,-1.5198e-05,-4.9223,1.9397
22327,21.542,5.4545,0.1,4.5815e-05,457.84,4.5689e-05,454.21,-1.476e-05,0.024055,-1.5719e-05,-7.1856,1.9266
22328,21.633,5.1818,0.1,4.5239e-05,452.08,4.5252e-05,452.45,-1.4804e-05,1.2135,-1.5028e-05,-0.46571,1.9398
22329,21.542,5.2727,0.1,4.6283e-05,462.52,4.625e-05,461.54,-1.5145e-05,0.24535,-1.5468e-05,-2.1849,1.9267
22330,21.633,5,0.1,4.5752e-05,457.21,4.5882e-05,461.13,-1.4413e-05,8.0966,-1.5509e-05,-0.13379,1.9398
22331,21.542,5.0909,0.1,4.6849e-05,468.17,4.6934e-05,470.71,-1.5005e-05,5.3262,-1.574e-05,-0.19865,1.9268
22332,21.633,4.8182,0.1,4.6334e-05,463.02,4.6592e-05,471.03,-1.3893e-05,16.574,-1.6112e-05,-0.10283,1.9399
22333,21.542,4.9091,0.1,4.7504e-05,474.72,4.7723e-05,481.44,-1.4505e-05,13.889,-1.637e-05,-0.12287,1.9269
22334,21.633,4.6364,0.1,4.6976e-05,469.43,4.7362e-05,481.84,-1.3308e-05,25.991,-1.6779e-05,-0.091799,1.94
22335,21.542,4.7273,0.1,4.824e-05,482.06,4.8597e-05,493.43,-1.3918e-05,23.712,-1.7088e-05,-0.1027,1.9269
22336,21.633,4.4545,0.1,4.7665e-05,476.32,4.8172e-05,493.2,-1.2692e-05,35.894,-1.7481e-05,-0.086115,1.9401
22337,21.542,4.5455,0.1,4.9043e-05,490.09,4.9534e-05,506.28,-1.3284e-05,34.296,-1.7861e-05,-0.093236,1.927
22338,21.633,4.2727,0.1,4.8386e-05,483.53,4.9e-05,504.75,-1.2083e-05,45.799,-1.8189e-05,-0.082964,1.9401
22339,21.542,4.3636,0.1,4.9898e-05,498.64,5.051e-05,519.61,-1.2641e-05,45.116,-1.8658e-05,-0.08791,1.9271
22340,21.633,4.0909,0.1,4.9119e-05,490.85,4.9823e-05,516.08,-1.1513e-05,55.226,-1.8874e-05,-0.081661,1.9401
22341,21.542,4.1818,0.1,5.0784e-05,507.49,5.1498e-05,532.96,-1.2031e-05,55.625,-1.9445e-05,-0.08517,1.9271
22342,21.633,3.9091,0.1,4.9834e-05,498,5.0609e-05,526.75,-1.1013e-05,63.747,-1.9508e-05,-0.082005,1.9402
22343,21.542,4,0.1,5.167e-05,516.34,5.2468e-05,545.84,-1.1487e-05,65.306,-2.019e-05,-0.084682,1.9272
22344,21.633,3.7273,0.1,5.0498e-05,504.63,5.1327e-05,536.33,-1.0601e-05,71.018,-2.0065e-05,-0.083735,1.9402
22345,21.542,3.8182,0.1,5.2519e-05,524.82,5.338e-05,557.74,-1.1037e-05,73.737,-2.0862e-05,-0.086247,1.9272
22346,21.633,3.5455,0.1,5.1071e-05,510.35,5.1939e-05,544.35,-1.0287e-05,76.808,-2.0521e-05,-0.086332,1.9402
22347,21.542,3.6364,0.1,5.3283e-05,532.46,5.4192e-05,568.12,-1.069e-05,80.623,-2.1432e-05,-0.089384,1.9272
22348,21.633,3.3636,0.1,5.1514e-05,514.79,5.2409e-05,550.43,-1.0069e-05,80.986,-2.086e-05,-0.089048,1.9403
22349,21.542,3.4545,0.1,5.3914e-05,538.77,5.4856e-05,576.47,-1.0446e-05,85.81,-2.188e-05,-0.093218,1.9272
22350,21.633,3.1818,0.1,5.1795e-05,517.6,5.2705e-05,554.21,-9.9429e-06,83.5,-2.1068e-05,-0.091088,1.9403
22351,21.542,3.2727,0.1,5.4365e-05,543.28,5.5327e-05,582.31,-1.0295e-05,89.252,-2.2187e-05,-0.096651,1.9273
22352,21.633,3,0.1,5.1892e-05,518.56,5.2807e-05,555.5,-9.9015e-06,84.338,-2.1139e-05,-0.091844,1.9403
22353,21.542,3.0909,0.1,5.46e-05,545.63,5.5573e-05,585.33,-1.0224e-05,90.962,-2.2343e-05,-0.098669,1.9273
22354,21.633,2.8182,0.1,5.1795e-05,517.6,5.2705e-05,554.21,-9.9429e-06,83.5,-2.1068e-05,-0.091088,1.9403
22355,21.542,2.9091,0.1,5.46e-05,545.63,5.5573e-05,585.33,-1.0224e-05,90.962,-2.2343e-05,-0.098668,1.9273
22356,21.633,2.6364,0.1,5.1514e-05,514.79,5.2409e-05,550.43,-1.0069e-05,80.986,-2.086e-05,-0.089047,1.9403
22357,21.542,2.7273,0.1,5.4365e-05,543.28,5.5327e-05,582.31,-1.0295e-05,89.252,-2.2187e-05,-0.096651,1.9273
22358,21.633,2.4545,0.1,5.1071e-05,510.35,5.1939e-05,544.35,-1.0287e-05,76.808,-2.0521e-05,-0.086331,1.9402
22359,21.542,2.5455,0.1,5.3914e-05,538.77,5.4856e-05,576.47,-1.0446e-05,85.81,-2.188e-05,-0.093219,1.9272
22360,21.633,2.2727,0.1,5.0498e-05,504.63,5.1327e-05,536.33,-1.0601e-05,71.018,-2.0065e-05,-0.083735,1.9402
22361,21.542,2.3636,0.1,5.3283e-05,532.46,5.4192e-05,568.12,-1.069e-05,80.623,-2.1432e-05,-0.089383,1.9272
22362,21.633,2.0909,0.1,4.9834e-05,498,5.0609e-05,526.75,-1.1013e-05,63.747,-1.9508e-05,-0.082006,1.9402
22363,21.542,2.1818,0.1,5.2519e-05,524.82,5.338e-05,557.74,-1.1037e-05,73.737,-2.0862e-05,-0.086247,1.9272
22364,21.633,1.9091,0.1,4.9119e-05,490.85,4.9823e-05,516.08,-1.1513e-05,55.226,-1.8874e-05,-0.08166,1.9401
22365,21.542,2,0.1,5.167e-05,516.34,5.2468e-05,545.84,-1.1487e-05,65.306,-2.019e-05,-0.084681,1.9272
22366,21.633,1.7273,0.1,4.8386e-05,483.53,4.9e-05,504.75,-1.2083e-05,45.799,-1.8189e-05,-0.082964,1.9401
22367,21.542,1.8182,0.1,5.0784e-05,507.49,5.1498e-05,532.96,-1.2031e-05,55.625,-1.9445e-05,-0.085169,1.9271
22368,21.633,1.5455,0.1,4.7665e-05,476.32,4.8172e-05,493.2,-1.2692e-05,35.894,-1.7481e-05,-0.086116,1.9401
22369,21.542,1.6364,0.1,4.9898e-05,498.64,5.051e-05,519.61,-1.2641e-05,45.116,-1.8658e-05,-0.08791,1.9271
22370,21.633,1.3636,0.1,4.6976e-05,469.43,4.7362e-05,481.84,-1.3308e-05,25.991,-1.6779e-05,-0.091799,1.94
22371,21.542,1.4545,0.1,4.9043e-05,490.09,4.9534e-05,506.28,-1.3284e-05,34.296,-1.7861e-05,-0.093237,1.927
22372,21.633,1.1818,0.1,4.6334e-05,463.02,4.6592e-05,471.03,-1.3893e-05,16.574,-1.6112e-05,-0.10283,1.9399
22373,21.542,1.2727,0.1,4.824e-05,482.06,4.8597e-05,493.43,-1.3918e-05,23.712,-1.7088e-05,-0.1027,1.9269
22374,21.633,1,0.1,4.5752e-05,457.21,4.5882e-05,461.13,-1.4413e-05,8.0967,-1.5509e-05,-0.13379,1.9398
22375,21.542,1.0909,0.1,4.7504e-05,474.72,4.7723e-05,481.44,-1.4505e-05,13.889,-1.637e-05,-0.12287,1.9269
22376,21.633,0.81818,0.1,4.5239e-05,452.08,4.5252e-05,452.45,-1.4804e-05,1.2135,-1.5028e-05,-0.46569,1.9398
22377,21.542,0.90909,0.1,4.6849e-05,468.17,4.6934e-05,470.71,-1.5005e-05,5.3263,-1.574e-05,-0.19865,1.9268
22378,21.633,0.63636,0.1,4.4804e-05,447.73,4.4719e-05,445.27,-1.4538e-05,0.038921,-1.5198e-05,-4.9223,1.9397
22379,21.542,0.72727,0.1,4.6283e-05,462.52,4.625e-05,461.54,-1.5145e-05,0.24535,-1.5468e-05,-2.1848,1.9267
22380,21.633,0.45455,0.1,4.4458e-05,444.27,4.4303e-05,439.84,-1.4236e-05,0.0060802,-1.54e-05,-8.7399,1.9395
22381,21.542,0.54545,0.1,4.5815e-05,457.84,4.5689e-05,454.21,-1.476e-05,0.024055,-1.5719e-05,-7.1856,1.9266
22382,21.633,0.27273,0.1,4.4285e-05,442.55,4.4084e-05,436.85,-1.4055e-05,0.0081452,-1.5547e-05,-11.199,1.9394
22383,21.542,0.36364,0.1,4.5459e-05,454.28,4.5274e-05,449.01,-1.4483e-05,0.0162,-1.5867e-05,-10.381,1.9265
22384,21.542,0.18182,0.1,4.5377e-05,453.46,4.5151e-05,447.07,-1.435e-05,0.0029386,-1.6017e-05,-12.522,1.9263
22385,21.633,0.090909,0.1,4.367e-05,436.4,4.3524e-05,432.22,-1.4006e-05,-0.037985,-1.5094e-05,-8.2148,1.9393
22386,21.451,5.7273,0.1,4.6535e-05,465.03,4.6327e-05,459.13,-1.4777e-05,0.014197,-1.6323e-05,-11.601,1.9134
22387,21.36,5.8182,0.1,4.7364e-05,473.32,4.7127e-05,466.61,-1.4974e-05,0.0054129,-1.6724e-05,-13.14,1.9003
22388,21.451,5.9091,0.1,4.5817e-05,457.86,4.5668e-05,453.57,-1.4704e-05,-0.041776,-1.582e-05,-8.4272,1.9132
22389,21.451,5.5455,0.1,4.6811e-05,467.79,4.6656e-05,463.35,-1.5008e-05,0.025207,-1.6181e-05,-8.785,1.9135
22390,21.36,5.6364,0.1,4.7548e-05,475.15,4.7355e-05,469.65,-1.5148e-05,0.030901,-1.6596e-05,-10.852,1.9004
22391,21.451,5.3636,0.1,4.729e-05,472.58,4.7217e-05,470.46,-1.5383e-05,0.11232,-1.5971e-05,-4.3087,1.9136
22392,21.36,5.4545,0.1,4.8043e-05,480.1,4.7918e-05,476.5,-1.5492e-05,0.064612,-1.6455e-05,-7.1675,1.9005
22393,21.451,5.1818,0.1,4.789e-05,478.57,4.7931e-05,479.78,-1.5551e-05,2.8069,-1.5972e-05,-0.35548,1.9137
22394,21.36,5.2727,0.1,4.8685e-05,486.52,4.8667e-05,486,-1.5935e-05,0.60263,-1.6232e-05,-1.6338,1.9007
22395,21.451,5,0.1,4.8599e-05,485.65,4.8775e-05,491.02,-1.5101e-05,11.082,-1.6596e-05,-0.14976,1.9138
22396,21.36,5.0909,0.1,4.9464e-05,494.3,4.9581e-05,497.84,-1.5692e-05,7.3953,-1.6707e-05,-0.22556,1.9008
22397,21.451,4.8182,0.1,4.9408e-05,493.74,4.9729e-05,503.85,-1.4532e-05,21.011,-1.7344e-05,-0.11514,1.9139
22398,21.36,4.9091,0.1,5.037e-05,503.35,5.0639e-05,511.71,-1.516e-05,17.322,-1.7484e-05,-0.14272,1.9008
22399,21.451,4.6364,0.1,5.0306e-05,502.71,5.0771e-05,517.89,-1.3897e-05,31.997,-1.8169e-05,-0.10092,1.914
22400,21.36,4.7273,0.1,5.1391e-05,513.56,5.1816e-05,527.24,-1.4536e-05,28.687,-1.837e-05,-0.11659,1.9009
22401,21.451,4.4545,0.1,5.1276e-05,512.4,5.1875e-05,532.71,-1.3236e-05,43.494,-1.9037e-05,-0.093139,1.914
22402,21.36,4.5455,0.1,5.2511e-05,524.75,5.3085e-05,543.95,-1.3865e-05,40.912,-1.9324e-05,-0.10347,1.901
22403,21.451,4.2727,0.1,5.2296e-05,522.6,5.3011e-05,547.84,-1.2593e-05,54.916,-1.9914e-05,-0.088789,1.9141
22404,21.36,4.3636,0.1,5.3708e-05,536.71,5.4414e-05,561.34,-1.3195e-05,53.356,-2.0309e-05,-0.09583,1.9011
22405,21.451,4.0909,0.1,5.3336e-05,533,5.4147e-05,562.74,-1.2008e-05,65.68,-2.0761e-05,-0.087167,1.9141
22406,21.36,4.1818,0.1,5.4952e-05,549.14,5.5768e-05,578.83,-1.2573e-05,65.343,-2.1282e-05,-0.091889,1.9011
22407,21.451,3.9091,0.1,5.4356e-05,543.19,5.5242e-05,576.85,-1.1513e-05,75.277,-2.1544e-05,-0.088099,1.9142
22408,21.36,4,0.1,5.6201e-05,561.62,5.7105e-05,595.79,-1.2042e-05,76.243,-2.2202e-05,-0.09137,1.9012
22409,21.451,3.7273,0.1,5.5305e-05,552.67,5.6247e-05,589.55,-1.1127e-05,83.331,-2.2229e-05,-0.091221,1.9142
22410,21.36,3.8182,0.1,5.74e-05,573.61,5.8372e-05,611.52,-1.1629e-05,85.561,-2.3029e-05,-0.094109,1.9012
22411,21.451,3.5455,0.1,5.6127e-05,560.88,5.7108e-05,600.23,-1.0849e-05,89.627,-2.2791e-05,-0.095714,1.9142
22412,21.36,3.6364,0.1,5.8484e-05,584.43,5.9505e-05,625.29,-1.1339e-05,92.999,-2.373e-05,-0.099382,1.9012
22413,21.451,3.3636,0.1,5.6764e-05,567.24,5.7772e-05,608.34,-1.0671e-05,94.088,-2.3206e-05,-0.10035,1.9142
22414,21.36,3.4545,0.1,5.938e-05,593.39,6.0435e-05,636.39,-1.1159e-05,98.463,-2.4278e-05,-0.10576,1.9012
22415,21.451,3.1818,0.1,5.7168e-05,571.28,5.8192e-05,613.41,-1.0573e-05,96.734,-2.3461e-05,-0.10382,1.9143
22416,21.36,3.2727,0.1,6.0021e-05,599.8,6.1098e-05,644.19,-1.1062e-05,102,-2.4652e-05,-0.11144,1.9013
22417,21.451,3,0.1,5.7306e-05,572.67,5.8336e-05,615.13,-1.0542e-05,97.609,-2.3547e-05,-0.1051,1.9143
22418,21.36,3.0909,0.1,6.0356e-05,603.14,6.1444e-05,648.21,-1.1021e-05,103.73,-2.4843e-05,-0.11476,1.9013
22419,21.451,2.8182,0.1,5.7168e-05,571.28,5.8192e-05,613.41,-1.0573e-05,96.734,-2.3461e-05,-0.10382,1.9143
22420,21.36,2.9091,0.1,6.0356e-05,603.14,6.1444e-05,648.21,-1.1021e-05,103.73,-2.4843e-05,-0.11476,1.9013
22421,21.451,2.6364,0.1,5.6764e-05,567.24,5.7772e-05,608.34,-1.0671e-05,94.088,-2.3206e-05,-0.10035,1.9142
22422,21.36,2.7273,0.1,6.0021e-05,599.8,6.1098e-05,644.19,-1.1062e-05,102,-2.4652e-05,-0.11144,1.9013
22423,21.451,2.4545,0.1,5.6127e-05,560.88,5.7108e-05,600.23,-1.0849e-05,89.627,-2.2791e-05,-0.095714,1.9142
22424,21.36,2.5455,0.1,5.938e-05,593.39,6.0435e-05,636.39,-1.1159e-05,98.463,-2.4278e-05,-0.10576,1.9012
22425,21.451,2.2727,0.1,5.5305e-05,552.67,5.6247e-05,589.55,-1.1127e-05,83.331,-2.2229e-05,-0.091221,1.9142
22426,21.36,2.3636,0.1,5.8484e-05,584.43,5.9505e-05,625.29,-1.1339e-05,92.999,-2.373e-05,-0.099382,1.9012
22427,21.451,2.0909,0.1,5.4356e-05,543.19,5.5242e-05,576.85,-1.1513e-05,75.277,-2.1544e-05,-0.088098,1.9142
22428,21.36,2.1818,0.1,5.74e-05,573.61,5.8372e-05,611.52,-1.1629e-05,85.561,-2.3029e-05,-0.094109,1.9012
22429,21.451,1.9091,0.1,5.3336e-05,533,5.4147e-05,562.74,-1.2008e-05,65.68,-2.0761e-05,-0.087167,1.9141
22430,21.36,2,0.1,5.6201e-05,561.62,5.7105e-05,595.79,-1.2042e-05,76.243,-2.2202e-05,-0.09137,1.9012
22431,21.451,1.7273,0.1,5.2296e-05,522.6,5.3011e-05,547.84,-1.2593e-05,54.916,-1.9914e-05,-0.088788,1.9141
22432,21.36,1.8182,0.1,5.4952e-05,549.14,5.5768e-05,578.83,-1.2573e-05,65.343,-2.1282e-05,-0.091889,1.9011
22433,21.451,1.5455,0.1,5.1276e-05,512.4,5.1875e-05,532.71,-1.3236e-05,43.494,-1.9037e-05,-0.09314,1.914
22434,21.36,1.6364,0.1,5.3708e-05,536.71,5.4414e-05,561.34,-1.3195e-05,53.356,-2.0309e-05,-0.09583,1.9011
22435,21.451,1.3636,0.1,5.0306e-05,502.71,5.0771e-05,517.89,-1.3897e-05,31.997,-1.8169e-05,-0.10092,1.914
22436,21.36,1.4545,0.1,5.2511e-05,524.75,5.3085e-05,543.95,-1.3865e-05,40.912,-1.9324e-05,-0.10347,1.901
22437,21.451,1.1818,0.1,4.9408e-05,493.74,4.9729e-05,503.85,-1.4532e-05,21.011,-1.7344e-05,-0.11514,1.9139
22438,21.36,1.2727,0.1,5.1391e-05,513.56,5.1817e-05,527.24,-1.4536e-05,28.687,-1.837e-05,-0.1166,1.9009
22439,21.451,1,0.1,4.8599e-05,485.65,4.8775e-05,491.02,-1.5101e-05,11.082,-1.6596e-05,-0.14976,1.9138
22440,21.36,1.0909,0.1,5.037e-05,503.35,5.0639e-05,511.71,-1.516e-05,17.322,-1.7485e-05,-0.14272,1.9008
22441,21.451,0.81818,0.1,4.789e-05,478.57,4.7931e-05,479.78,-1.5551e-05,2.8069,-1.5972e-05,-0.35547,1.9137
22442,21.36,0.90909,0.1,4.9464e-05,494.3,4.9581e-05,497.84,-1.5692e-05,7.3953,-1.6707e-05,-0.22556,1.9008
22443,21.451,0.63636,0.1,4.729e-05,472.58,4.7217e-05,470.46,-1.5383e-05,0.11232,-1.5971e-05,-4.3086,1.9136
22444,21.36,0.72727,0.1,4.8685e-05,486.52,4.8667e-05,486,-1.5935e-05,0.60265,-1.6232e-05,-1.6337,1.9007
22445,21.451,0.45455,0.1,4.6811e-05,467.79,4.6656e-05,463.35,-1.5008e-05,0.025209,-1.6181e-05,-8.785,1.9135
22446,21.36,0.54545,0.1,4.8043e-05,480.1,4.7918e-05,476.5,-1.5492e-05,0.064614,-1.6455e-05,-7.1675,1.9005
22447,21.451,0.27273,0.1,4.6535e-05,465.03,4.6327e-05,459.13,-1.4777e-05,0.014197,-1.6323e-05,-11.601,1.9134
22448,21.36,0.36364,0.1,4.7548e-05,475.15,4.7355e-05,469.65,-1.5148e-05,0.030902,-1.6596e-05,-10.852,1.9004
22449,21.36,0.18182,0.1,4.7364e-05,473.32,4.7127e-05,466.61,-1.4974e-05,0.0054116,-1.6724e-05,-13.14,1.9003
22450,21.451,0.090909,0.1,4.5817e-05,457.86,4.5668e-05,453.57,-1.4704e-05,-0.041776,-1.582e-05,-8.4272,1.9132
22451,21.269,5.7273,0.1,4.8365e-05,483.31,4.8144e-05,477.05,-1.5345e-05,0.024108,-1.6986e-05,-12.31,1.8874
22452,21.178,5.8182,0.1,4.8866e-05,488.33,4.8613e-05,481.16,-1.5425e-05,0.0099612,-1.7294e-05,-14.029,1.8743
22453,21.269,5.9091,0.1,4.7513e-05,474.8,4.7356e-05,470.32,-1.5245e-05,-0.045312,-1.641e-05,-8.7979,1.8872
22454,21.269,5.5455,0.1,4.8777e-05,487.43,4.8615e-05,482.79,-1.5634e-05,0.054024,-1.6866e-05,-9.2035,1.8875
22455,21.178,5.6364,0.1,4.9177e-05,491.43,4.8969e-05,485.53,-1.5644e-05,0.052518,-1.72e-05,-11.638,1.8744
22456,21.269,5.3636,0.1,4.9436e-05,494.02,4.9367e-05,492.03,-1.6089e-05,0.22319,-1.6672e-05,-4.1595,1.8876
22457,21.178,5.4545,0.1,4.9853e-05,498.18,4.9722e-05,494.43,-1.6066e-05,0.12177,-1.7086e-05,-7.542,1.8745
22458,21.269,5.1818,0.1,5.0259e-05,502.24,5.032e-05,504.06,-1.6225e-05,4.0743,-1.682e-05,-0.39859,1.8877
22459,21.178,5.2727,0.1,5.0729e-05,506.94,5.0719e-05,506.64,-1.6575e-05,1.0295,-1.6926e-05,-1.6083,1.8747
22460,21.269,5,0.1,5.1235e-05,512,5.1449e-05,518.56,-1.576e-05,13.574,-1.7591e-05,-0.18133,1.8878
22461,21.178,5.0909,0.1,5.1795e-05,517.59,5.1936e-05,521.87,-1.6327e-05,8.9647,-1.7558e-05,-0.28396,1.8748
22462,21.269,4.8182,0.1,5.2354e-05,523.18,5.2731e-05,535.14,-1.517e-05,24.954,-1.8509e-05,-0.13549,1.8879
22463,21.178,4.9091,0.1,5.304e-05,530.03,5.3351e-05,539.75,-1.5798e-05,20.19,-1.8508e-05,-0.17525,1.8749
22464,21.269,4.6364,0.1,5.3599e-05,535.62,5.4136e-05,553.34,-1.4511e-05,37.553,-1.9525e-05,-0.11527,1.888
22465,21.178,4.7273,0.1,5.4446e-05,544.09,5.4931e-05,559.8,-1.517e-05,33.096,-1.9593e-05,-0.13821,1.8749
22466,21.269,4.4545,0.1,5.4946e-05,549.09,5.5631e-05,572.63,-1.3831e-05,50.719,-2.0595e-05,-0.1038,1.888
22467,21.178,4.5455,0.1,5.5991e-05,559.52,5.664e-05,581.48,-1.4494e-05,47.012,-2.0766e-05,-0.1189,1.875
22468,21.269,4.2727,0.1,5.6368e-05,563.29,5.7178e-05,592.38,-1.3182e-05,63.729,-2.1676e-05,-0.097217,1.8881
22469,21.178,4.3636,0.1,5.7644e-05,576.04,5.8438e-05,604.12,-1.3826e-05,61.158,-2.198e-05,-0.10731,1.8751
22470,21.269,4.0909,0.1,5.782e-05,577.8,5.8733e-05,611.93,-1.2613e-05,75.858,-2.2722e-05,-0.094742,1.8881
22471,21.178,4.1818,0.1,5.9365e-05,593.24,6.0279e-05,626.99,-1.3228e-05,74.683,-2.3181e-05,-0.10115,1.8751
22472,21.269,3.9091,0.1,5.9248e-05,592.07,6.0241e-05,630.5,-1.2163e-05,86.49,-2.3687e-05,-0.096291,1.8882
22473,21.178,4,0.1,6.1098e-05,610.56,6.2107e-05,649.25,-1.2752e-05,86.787,-2.4316e-05,-0.10026,1.8752
22474,21.269,3.7273,0.1,6.0581e-05,605.39,6.1633e-05,647.29,-1.1844e-05,95.209,-2.4529e-05,-0.1014,1.8882
22475,21.178,3.8182,0.1,6.2767e-05,627.24,6.3848e-05,669.97,-1.2427e-05,96.872,-2.5334e-05,-0.10451,1.8752
22476,21.269,3.5455,0.1,6.1736e-05,616.94,6.2831e-05,661.45,-1.1648e-05,101.84,-2.5217e-05,-0.10874,1.8882
22477,21.178,3.6364,0.1,6.4278e-05,642.34,6.5412e-05,688.17,-1.2249e-05,104.65,-2.6192e-05,-0.11282,1.8753
22478,21.269,3.3636,0.1,6.2634e-05,625.9,6.3758e-05,672.21,-1.1547e-05,106.4,-2.5724e-05,-0.11629,1.8883
22479,21.178,3.4545,0.1,6.553e-05,654.84,6.6701e-05,702.85,-1.2185e-05,110.13,-2.6859e-05,-0.12298,1.8753
22480,21.269,3.1818,0.1,6.3204e-05,631.6,6.4344e-05,678.95,-1.1505e-05,109.05,-2.6034e-05,-0.12192,1.8883
22481,21.178,3.2727,0.1,6.6426e-05,663.81,6.7621e-05,713.17,-1.2184e-05,113.54,-2.7314e-05,-0.13202,1.8753
22482,21.269,3,0.1,6.3399e-05,633.55,6.4545e-05,681.24,-1.1494e-05,109.91,-2.6138e-05,-0.124,1.8883
22483,21.178,3.0909,0.1,6.6895e-05,668.48,6.8101e-05,718.5,-1.2198e-05,115.16,-2.7543e-05,-0.1373,1.8753
22484,21.269,2.8182,0.1,6.3204e-05,631.6,6.4344e-05,678.95,-1.1505e-05,109.05,-2.6034e-05,-0.12192,1.8883
22485,21.178,2.9091,0.1,6.6895e-05,668.48,6.8101e-05,718.5,-1.2198e-05,115.16,-2.7543e-05,-0.1373,1.8753
22486,21.269,2.6364,0.1,6.2634e-05,625.9,6.3758e-05,672.21,-1.1547e-05,106.4,-2.5724e-05,-0.11629,1.8883
22487,21.178,2.7273,0.1,6.6426e-05,663.81,6.7621e-05,713.17,-1.2184e-05,113.54,-2.7314e-05,-0.13202,1.8753
22488,21.269,2.4545,0.1,6.1736e-05,616.94,6.2831e-05,661.45,-1.1648e-05,101.84,-2.5217e-05,-0.10874,1.8882
22489,21.178,2.5455,0.1,6.553e-05,654.84,6.6701e-05,702.85,-1.2185e-05,110.13,-2.6859e-05,-0.12298,1.8753
22490,21.269,2.2727,0.1,6.0581e-05,605.39,6.1633e-05,647.29,-1.1844e-05,95.209,-2.4529e-05,-0.1014,1.8882
22491,21.178,2.3636,0.1,6.4278e-05,642.34,6.5412e-05,688.17,-1.2249e-05,104.65,-2.6192e-05,-0.11282,1.8753
22492,21.269,2.0909,0.1,5.9248e-05,592.07,6.0241e-05,630.5,-1.2163e-05,86.49,-2.3687e-05,-0.096291,1.8882
22493,21.178,2.1818,0.1,6.2767e-05,627.24,6.3848e-05,669.97,-1.2427e-05,96.872,-2.5334e-05,-0.10451,1.8752
22494,21.269,1.9091,0.1,5.782e-05,577.8,5.8733e-05,611.93,-1.2613e-05,75.858,-2.2722e-05,-0.094742,1.8881
22495,21.178,2,0.1,6.1098e-05,610.56,6.2107e-05,649.25,-1.2752e-05,86.787,-2.4316e-05,-0.10026,1.8752
22496,21.269,1.7273,0.1,5.6368e-05,563.29,5.7178e-05,592.38,-1.3182e-05,63.729,-2.1676e-05,-0.097217,1.8881
22497,21.178,1.8182,0.1,5.9365e-05,593.24,6.0279e-05,626.99,-1.3228e-05,74.683,-2.3181e-05,-0.10115,1.8751
22498,21.269,1.5455,0.1,5.4946e-05,549.09,5.5631e-05,572.63,-1.3831e-05,50.72,-2.0595e-05,-0.1038,1.888
22499,21.178,1.6364,0.1,5.7644e-05,576.04,5.8438e-05,604.12,-1.3826e-05,61.158,-2.198e-05,-0.10731,1.8751
22500,21.269,1.3636,0.1,5.3599e-05,535.62,5.4136e-05,553.34,-1.4511e-05,37.553,-1.9525e-05,-0.11527,1.888
22501,21.178,1.4545,0.1,5.5991e-05,559.52,5.664e-05,581.48,-1.4494e-05,47.012,-2.0766e-05,-0.1189,1.875
22502,21.269,1.1818,0.1,5.2354e-05,523.18,5.2731e-05,535.14,-1.517e-05,24.954,-1.8509e-05,-0.13549,1.8879
22503,21.178,1.2727,0.1,5.4446e-05,544.09,5.4931e-05,559.8,-1.517e-05,33.096,-1.9593e-05,-0.13821,1.8749
22504,21.269,1,0.1,5.1235e-05,512,5.1449e-05,518.56,-1.576e-05,13.574,-1.7591e-05,-0.18133,1.8878
22505,21.178,1.0909,0.1,5.304e-05,530.03,5.3351e-05,539.75,-1.5798e-05,20.19,-1.8508e-05,-0.17525,1.8749
22506,21.269,0.81818,0.1,5.0259e-05,502.24,5.032e-05,504.06,-1.6225e-05,4.0744,-1.682e-05,-0.39858,1.8877
22507,21.178,0.90909,0.1,5.1795e-05,517.59,5.1936e-05,521.87,-1.6327e-05,8.9647,-1.7558e-05,-0.28396,1.8748
22508,21.269,0.63636,0.1,4.9436e-05,494.02,4.9367e-05,492.03,-1.6089e-05,0.22319,-1.6672e-05,-4.1594,1.8876
22509,21.178,0.72727,0.1,5.0729e-05,506.94,5.0719e-05,506.64,-1.6575e-05,1.0295,-1.6926e-05,-1.6083,1.8747
22510,21.269,0.45455,0.1,4.8777e-05,487.43,4.8615e-05,482.79,-1.5634e-05,0.054025,-1.6866e-05,-9.2035,1.8875
22511,21.178,0.54545,0.1,4.9853e-05,498.18,4.9722e-05,494.43,-1.6066e-05,0.12177,-1.7086e-05,-7.542,1.8745
22512,21.269,0.27273,0.1,4.8365e-05,483.31,4.8144e-05,477.05,-1.5345e-05,0.024108,-1.6986e-05,-12.31,1.8874
22513,21.178,0.36364,0.1,4.9177e-05,491.43,4.8969e-05,485.53,-1.5644e-05,0.052519,-1.72e-05,-11.638,1.8744
22514,21.178,0.18182,0.1,4.8866e-05,488.33,4.8613e-05,481.16,-1.5425e-05,0.0099608,-1.7294e-05,-14.029,1.8743
22515,21.269,0.090909,0.1,4.7513e-05,474.8,4.7356e-05,470.32,-1.5245e-05,-0.045313,-1.641e-05,-8.7979,1.8872
22516,21.087,5.7273,0.1,4.967e-05,496.36,4.9431e-05,489.59,-1.5724e-05,0.039029,-1.75e-05,-13.303,1.8614
22517,20.996,5.8182,0.1,4.977e-05,497.35,4.9495e-05,489.61,-1.5665e-05,0.017887,-1.7686e-05,-15.167,1.8483
22518,21.087,5.9091,0.1,4.865e-05,486.16,4.8484e-05,481.41,-1.5595e-05,-0.048455,-1.6829e-05,-9.3192,1.8612
22519,21.087,5.5455,0.1,5.0254e-05,502.19,5.0078e-05,497.18,-1.608e-05,0.09449,-1.7418e-05,-9.9595,1.8615
22520,20.996,5.6364,0.1,5.0232e-05,501.97,5.0005e-05,495.55,-1.5938e-05,0.08292,-1.7636e-05,-12.676,1.8484
22521,21.087,5.3636,0.1,5.1148e-05,511.13,5.1077e-05,509.07,-1.6628e-05,0.36232,-1.7268e-05,-4.4532,1.8616
22522,20.996,5.4545,0.1,5.1138e-05,511.03,5.0996e-05,506.95,-1.6448e-05,0.19767,-1.7574e-05,-8.2635,1.8486
22523,21.087,5.1818,0.1,5.2269e-05,522.33,5.2342e-05,524.5,-1.6813e-05,4.9001,-1.7534e-05,-0.52119,1.8617
22524,20.996,5.2727,0.1,5.2321e-05,522.84,5.231e-05,522.54,-1.7054e-05,1.3642,-1.7497e-05,-1.9603,1.8487
22525,21.087,5,0.1,5.3605e-05,535.68,5.3847e-05,543.12,-1.638e-05,15.47,-1.847e-05,-0.23356,1.8618
22526,20.996,5.0909,0.1,5.3768e-05,537.31,5.3923e-05,542.01,-1.6891e-05,9.9422,-1.8266e-05,-0.38604,1.8488
22527,21.087,4.8182,0.1,5.5139e-05,551.01,5.5561e-05,564.49,-1.581e-05,28.239,-1.959e-05,-0.16722,1.8619
22528,20.996,4.9091,0.1,5.5465e-05,554.27,5.5806e-05,564.96,-1.6418e-05,22.3,-1.9416e-05,-0.22726,1.8489
22529,21.087,4.6364,0.1,5.6847e-05,568.08,5.7447e-05,588.04,-1.5166e-05,42.456,-2.0834e-05,-0.13698,1.862
22530,20.996,4.7273,0.1,5.7386e-05,573.46,5.7918e-05,590.82,-1.5836e-05,36.666,-2.0739e-05,-0.17159,1.849
22531,21.087,4.4545,0.1,5.8698e-05,586.58,5.946e-05,613.07,-1.4503e-05,57.348,-2.2151e-05,-0.11937,1.8621
22532,20.996,4.5455,0.1,5.9495e-05,594.54,6.0208e-05,618.88,-1.52e-05,52.287,-2.2178e-05,-0.14197,1.8491
22533,21.087,4.2727,0.1,6.0652e-05,606.1,6.1552e-05,638.82,-1.3886e-05,72.012,-2.3485e-05,-0.10897,1.8621
22534,20.996,4.3636,0.1,6.1753e-05,617.1,6.2627e-05,648.3,-1.4579e-05,68.214,-2.3674e-05,-0.12366,1.8491
22535,21.087,4.0909,0.1,6.2653e-05,626.09,6.3665e-05,664.4,-1.3379e-05,85.522,-2.4775e-05,-0.10484,1.8622
22536,20.996,4.1818,0.1,6.4106e-05,640.62,6.5113e-05,678.15,-1.4051e-05,83.342,-2.5158e-05,-0.11333,1.8492
22537,21.087,3.9091,0.1,6.4624e-05,645.8,6.5723e-05,688.78,-1.3025e-05,97.1,-2.5963e-05,-0.107,1.8622
22538,20.996,4,0.1,6.6482e-05,664.36,6.7593e-05,707.3,-1.3686e-05,96.611,-2.6559e-05,-0.11104,1.8493
22539,21.087,3.7273,0.1,6.6468e-05,664.22,6.7632e-05,710.88,-1.2837e-05,106.27,-2.6996e-05,-0.11479,1.8623
22540,20.996,3.8182,0.1,6.8775e-05,687.27,6.9965e-05,734.53,-1.3519e-05,107.26,-2.781e-05,-0.11728,1.8493
22541,21.087,3.5455,0.1,6.807e-05,680.23,6.928e-05,729.56,-1.2785e-05,112.95,-2.7834e-05,-0.12623,1.8623
22542,20.996,3.6364,0.1,7.0855e-05,708.06,7.2104e-05,758.45,-1.3532e-05,115.02,-2.8858e-05,-0.13035,1.8493
22543,21.087,3.3636,0.1,6.9315e-05,692.68,7.0557e-05,743.76,-1.2816e-05,117.32,-2.8449e-05,-0.1381,1.8623
22544,20.996,3.4545,0.1,7.258e-05,725.3,7.3869e-05,777.76,-1.366e-05,120.11,-2.9665e-05,-0.14616,1.8494
22545,21.087,3.1818,0.1,7.0106e-05,700.58,7.1367e-05,752.64,-1.2868e-05,119.74,-2.8823e-05,-0.14694,1.8623
22546,20.996,3.2727,0.1,7.3815e-05,737.64,7.5129e-05,791.32,-1.3816e-05,123.02,-3.021e-05,-0.16006,1.8494
22547,21.087,3,0.1,7.0378e-05,703.29,7.1644e-05,755.66,-1.2891e-05,120.5,-2.8948e-05,-0.15019,1.8623
22548,20.996,3.0909,0.1,7.446e-05,744.08,7.5786e-05,798.3,-1.3917e-05,124.31,-3.0484e-05,-0.1681,1.8494
22549,21.087,2.8182,0.1,7.0106e-05,700.58,7.1367e-05,752.64,-1.2868e-05,119.74,-2.8823e-05,-0.14694,1.8623
22550,20.996,2.9091,0.1,7.446e-05,744.08,7.5786e-05,798.3,-1.3917e-05,124.31,-3.0484e-05,-0.1681,1.8494
22551,21.087,2.6364,0.1,6.9315e-05,692.68,7.0557e-05,743.76,-1.2816e-05,117.32,-2.8449e-05,-0.1381,1.8623
22552,20.996,2.7273,0.1,7.3815e-05,737.64,7.5129e-05,791.32,-1.3816e-05,123.02,-3.021e-05,-0.16006,1.8494
22553,21.087,2.4545,0.1,6.807e-05,680.23,6.928e-05,729.56,-1.2785e-05,112.95,-2.7834e-05,-0.12623,1.8623
22554,20.996,2.5455,0.1,7.258e-05,725.3,7.3869e-05,777.76,-1.366e-05,120.11,-2.9665e-05,-0.14616,1.8494
22555,21.087,2.2727,0.1,6.6468e-05,664.22,6.7632e-05,710.88,-1.2837e-05,106.27,-2.6996e-05,-0.11479,1.8623
22556,20.996,2.3636,0.1,7.0855e-05,708.06,7.2104e-05,758.45,-1.3532e-05,115.02,-2.8858e-05,-0.13035,1.8493
22557,21.087,2.0909,0.1,6.4624e-05,645.8,6.5723e-05,688.78,-1.3025e-05,97.1,-2.5963e-05,-0.107,1.8622
22558,20.996,2.1818,0.1,6.8775e-05,687.27,6.9965e-05,734.53,-1.3519e-05,107.26,-2.781e-05,-0.11728,1.8493
22559,21.087,1.9091,0.1,6.2653e-05,626.09,6.3665e-05,664.4,-1.3379e-05,85.522,-2.4775e-05,-0.10484,1.8622
22560,20.996,2,0.1,6.6482e-05,664.36,6.7593e-05,707.3,-1.3686e-05,96.611,-2.6559e-05,-0.11104,1.8493
22561,21.087,1.7273,0.1,6.0652e-05,606.1,6.1552e-05,638.82,-1.3886e-05,72.012,-2.3485e-05,-0.10897,1.8621
22562,20.996,1.8182,0.1,6.4106e-05,640.62,6.5113e-05,678.15,-1.4051e-05,83.342,-2.5158e-05,-0.11333,1.8492
22563,21.087,1.5455,0.1,5.8698e-05,586.58,5.946e-05,613.07,-1.4503e-05,57.348,-2.2151e-05,-0.11937,1.8621
22564,20.996,1.6364,0.1,6.1753e-05,617.1,6.2627e-05,648.3,-1.4579e-05,68.214,-2.3674e-05,-0.12366,1.8491
22565,21.087,1.3636,0.1,5.6847e-05,568.08,5.7447e-05,588.04,-1.5166e-05,42.456,-2.0834e-05,-0.13698,1.862
22566,20.996,1.4545,0.1,5.9495e-05,594.54,6.0208e-05,618.88,-1.52e-05,52.287,-2.2178e-05,-0.14197,1.8491
22567,21.087,1.1818,0.1,5.5139e-05,551.01,5.5561e-05,564.49,-1.581e-05,28.24,-1.959e-05,-0.16722,1.8619
22568,20.996,1.2727,0.1,5.7386e-05,573.46,5.7918e-05,590.82,-1.5836e-05,36.666,-2.0739e-05,-0.17158,1.849
22569,21.087,1,0.1,5.3605e-05,535.68,5.3847e-05,543.12,-1.638e-05,15.471,-1.847e-05,-0.23356,1.8618
22570,20.996,1.0909,0.1,5.5465e-05,554.27,5.5807e-05,564.96,-1.6418e-05,22.3,-1.9416e-05,-0.22726,1.8489
22571,21.087,0.81818,0.1,5.2269e-05,522.33,5.2342e-05,524.5,-1.6813e-05,4.9001,-1.7534e-05,-0.52118,1.8617
22572,20.996,0.90909,0.1,5.3768e-05,537.31,5.3923e-05,542.01,-1.6891e-05,9.9422,-1.8266e-05,-0.38604,1.8488
22573,21.087,0.63636,0.1,5.1148e-05,511.13,5.1077e-05,509.07,-1.6628e-05,0.36232,-1.7268e-05,-4.4532,1.8616
22574,20.996,0.72727,0.1,5.2321e-05,522.84,5.231e-05,522.54,-1.7054e-05,1.3642,-1.7497e-05,-1.9602,1.8487
22575,21.087,0.45455,0.1,5.0254e-05,502.19,5.0078e-05,497.18,-1.608e-05,0.094491,-1.7418e-05,-9.9594,1.8615
22576,20.996,0.54545,0.1,5.1138e-05,511.03,5.0996e-05,506.95,-1.6448e-05,0.19767,-1.7574e-05,-8.2635,1.8486
22577,21.087,0.27273,0.1,4.967e-05,496.36,4.9431e-05,489.59,-1.5724e-05,0.039029,-1.75e-05,-13.303,1.8614
22578,20.996,0.36364,0.1,5.0232e-05,501.97,5.0005e-05,495.55,-1.5938e-05,0.082922,-1.7636e-05,-12.676,1.8484
22579,20.996,0.18182,0.1,4.977e-05,497.35,4.9495e-05,489.61,-1.5665e-05,0.017884,-1.7686e-05,-15.167,1.8483
22580,21.087,0.090909,0.1,4.865e-05,486.16,4.8484e-05,481.41,-1.5595e-05,-0.048454,-1.6829e-05,-9.3192,1.8612
22581,20.905,5.7273,0.1,5.0328e-05,502.94,5.0067e-05,495.55,-1.5879e-05,0.061224,-1.782e-05,-14.522,1.8354
22582,20.814,5.8182,0.1,4.9944e-05,499.09,4.9643e-05,490.65,-1.5655e-05,0.032013,-1.7855e-05,-16.498,1.8224
22583,20.905,5.9091,0.1,4.9104e-05,490.7,4.8926e-05,485.61,-1.5712e-05,-0.051339,-1.7032e-05,-9.9659,1.8353
22584,20.905,5.5455,0.1,5.1122e-05,510.87,5.0929e-05,505.36,-1.6311e-05,0.15002,-1.7793e-05,-10.986,1.8355
22585,20.814,5.6364,0.1,5.0579e-05,505.45,5.0331e-05,498.43,-1.5989e-05,0.12573,-1.7851e-05,-13.863,1.8225
22586,20.905,5.3636,0.1,5.2319e-05,522.83,5.2238e-05,520.49,-1.6966e-05,0.51852,-1.7722e-05,-5.1622,1.8357
22587,20.814,5.4545,0.1,5.1774e-05,517.38,5.1615e-05,512.83,-1.6599e-05,0.29745,-1.7872e-05,-9.2632,1.8226
22588,20.905,5.1818,0.1,5.3832e-05,537.95,5.3905e-05,540.16,-1.7289e-05,5.2327,-1.8086e-05,-0.75648,1.8358
22589,20.814,5.2727,0.1,5.3351e-05,533.15,5.3331e-05,532.57,-1.7341e-05,1.5722,-1.7908e-05,-2.6928,1.8228
22590,20.905,5,0.1,5.5644e-05,556.05,5.5901e-05,563.99,-1.6955e-05,16.576,-1.9204e-05,-0.32038,1.8359
22591,20.814,5.0909,0.1,5.5301e-05,552.63,5.5456e-05,557.34,-1.7369e-05,10.165,-1.8798e-05,-0.56867,1.8229
22592,20.905,4.8182,0.1,5.773e-05,576.9,5.8184e-05,591.45,-1.6467e-05,30.552,-2.0562e-05,-0.21768,1.836
22593,20.814,4.9091,0.1,5.7597e-05,575.57,5.7951e-05,586.7,-1.7033e-05,23.292,-2.0175e-05,-0.31452,1.823
22594,20.905,4.6364,0.1,6.0053e-05,600.12,6.0703e-05,621.84,-1.5894e-05,46.315,-2.2081e-05,-0.17035,1.8361
22595,20.814,4.7273,0.1,6.0198e-05,601.57,6.0761e-05,619.95,-1.6573e-05,38.893,-2.1779e-05,-0.22574,1.8231
22596,20.905,4.4545,0.1,6.257e-05,625.27,6.3399e-05,654.29,-1.5301e-05,62.967,-2.37e-05,-0.14225,1.8362
22597,20.814,4.5455,0.1,6.3055e-05,630.11,6.3818e-05,656.21,-1.6044e-05,56.163,-2.3542e-05,-0.1783,1.8232
22598,20.905,4.2727,0.1,6.5228e-05,651.83,6.6211e-05,687.8,-1.4767e-05,79.365,-2.5347e-05,-0.12488,1.8362
22599,20.814,4.3636,0.1,6.6111e-05,660.65,6.7054e-05,694.43,-1.5526e-05,73.958,-2.5389e-05,-0.14838,1.8233
22600,20.905,4.0909,0.1,6.7954e-05,679.07,6.9062e-05,721.21,-1.4379e-05,94.273,-2.6941e-05,-0.11693,1.8363
22601,20.814,4.1818,0.1,6.9299e-05,692.52,7.0392e-05,733.36,-1.5127e-05,90.799,-2.7229e-05,-0.13072,1.8233
22602,20.905,3.9091,0.1,7.0646e-05,705.97,7.185e-05,753.16,-1.4195e-05,106.66,-2.8405e-05,-0.11923,1.8363
22603,20.814,4,0.1,7.2525e-05,724.74,7.3735e-05,771.52,-1.4947e-05,105.19,-2.8964e-05,-0.1263,1.8234
22604,20.905,3.7273,0.1,7.3169e-05,731.18,7.4444e-05,782.15,-1.4221e-05,115.95,-2.9671e-05,-0.13129,1.8364
22605,20.814,3.8182,0.1,7.5646e-05,755.93,7.6945e-05,807.19,-1.5032e-05,116.11,-3.0503e-05,-0.13478,1.8234
22606,20.905,3.5455,0.1,7.5362e-05,753.1,7.6689e-05,806.64,-1.4404e-05,122.2,-3.0688e-05,-0.14926,1.8364
22607,20.814,3.6364,0.1,7.848e-05,784.26,7.9842e-05,838.51,-1.5345e-05,123.31,-3.1777e-05,-0.15349,1.8235
22608,20.905,3.3636,0.1,7.7066e-05,770.13,7.8427e-05,825.22,-1.4646e-05,125.91,-3.1426e-05,-0.16749,1.8364
22609,20.814,3.4545,0.1,8.0826e-05,807.7,8.223e-05,863.69,-1.5773e-05,127.34,-3.2744e-05,-0.17712,1.8235
22610,20.905,3.1818,0.1,7.8148e-05,780.94,7.9527e-05,836.82,-1.4844e-05,127.75,-3.1871e-05,-0.18081,1.8365
22611,20.814,3.2727,0.1,8.2501e-05,824.44,8.393e-05,881.28,-1.6168e-05,129.19,-3.3388e-05,-0.19761,1.8235
22612,20.905,3,0.1,7.8518e-05,784.64,7.9904e-05,840.77,-1.492e-05,128.29,-3.202e-05,-0.18567,1.8365
22613,20.814,3.0909,0.1,8.3373e-05,833.15,8.4813e-05,890.31,-1.6403e-05,129.82,-3.3709e-05,-0.20912,1.8235
22614,20.905,2.8182,0.1,7.8148e-05,780.94,7.9527e-05,836.82,-1.4844e-05,127.75,-3.1871e-05,-0.18081,1.8365
22615,20.814,2.9091,0.1,8.3373e-05,833.15,8.4813e-05,890.31,-1.6403e-05,129.82,-3.3709e-05,-0.20912,1.8235
22616,20.905,2.6364,0.1,7.7066e-05,770.13,7.8427e-05,825.22,-1.4646e-05,125.91,-3.1426e-05,-0.16749,1.8364
22617,20.814,2.7273,0.1,8.2501e-05,824.44,8.393e-05,881.28,-1.6168e-05,129.19,-3.3388e-05,-0.19761,1.8235
22618,20.905,2.4545,0.1,7.5362e-05,753.1,7.6689e-05,806.64,-1.4403e-05,122.2,-3.0688e-05,-0.14926,1.8364
22619,20.814,2.5455,0.1,8.0826e-05,807.7,8.223e-05,863.69,-1.5773e-05,127.34,-3.2744e-05,-0.17712,1.8235
22620,20.905,2.2727,0.1,7.3169e-05,731.18,7.4444e-05,782.15,-1.4221e-05,115.95,-2.9671e-05,-0.1313,1.8364
22621,20.814,2.3636,0.1,7.848e-05,784.26,7.9842e-05,838.51,-1.5345e-05,123.31,-3.1777e-05,-0.15349,1.8235
22622,20.905,2.0909,0.1,7.0646e-05,705.97,7.185e-05,753.16,-1.4195e-05,106.66,-2.8405e-05,-0.11923,1.8363
22623,20.814,2.1818,0.1,7.5646e-05,755.93,7.6945e-05,807.19,-1.5032e-05,116.11,-3.0503e-05,-0.13478,1.8234
22624,20.905,1.9091,0.1,6.7954e-05,679.07,6.9061e-05,721.21,-1.4379e-05,94.273,-2.6941e-05,-0.11693,1.8363
22625,20.814,2,0.1,7.2525e-05,724.74,7.3735e-05,771.52,-1.4947e-05,105.19,-2.8964e-05,-0.1263,1.8234
22626,20.905,1.7273,0.1,6.5228e-05,651.83,6.6211e-05,687.8,-1.4767e-05,79.365,-2.5347e-05,-0.12487,1.8362
22627,20.814,1.8182,0.1,6.9299e-05,692.52,7.0392e-05,733.36,-1.5127e-05,90.799,-2.7229e-05,-0.13072,1.8233
22628,20.905,1.5455,0.1,6.257e-05,625.27,6.3399e-05,654.29,-1.5301e-05,62.967,-2.37e-05,-0.14225,1.8362
22629,20.814,1.6364,0.1,6.6111e-05,660.65,6.7054e-05,694.43,-1.5526e-05,73.958,-2.5389e-05,-0.14838,1.8233
22630,20.905,1.3636,0.1,6.0053e-05,600.12,6.0703e-05,621.84,-1.5894e-05,46.315,-2.2081e-05,-0.17035,1.8361
22631,20.814,1.4545,0.1,6.3055e-05,630.11,6.3818e-05,656.21,-1.6044e-05,56.163,-2.3542e-05,-0.17831,1.8232
22632,20.905,1.1818,0.1,5.773e-05,576.9,5.8184e-05,591.45,-1.6467e-05,30.552,-2.0562e-05,-0.21768,1.836
22633,20.814,1.2727,0.1,6.0198e-05,601.57,6.0761e-05,619.95,-1.6573e-05,38.893,-2.1779e-05,-0.22574,1.8231
22634,20.905,1,0.1,5.5644e-05,556.05,5.5901e-05,563.99,-1.6955e-05,16.577,-1.9204e-05,-0.32038,1.8359
22635,20.814,1.0909,0.1,5.7597e-05,575.57,5.7951e-05,586.7,-1.7033e-05,23.292,-2.0175e-05,-0.31452,1.823
22636,20.905,0.81818,0.1,5.3832e-05,537.95,5.3905e-05,540.16,-1.7289e-05,5.2327,-1.8086e-05,-0.75648,1.8358
22637,20.814,0.90909,0.1,5.5301e-05,552.63,5.5456e-05,557.34,-1.7369e-05,10.165,-1.8798e-05,-0.56866,1.8229
22638,20.905,0.63636,0.1,5.2319e-05,522.83,5.2238e-05,520.49,-1.6966e-05,0.51853,-1.7722e-05,-5.1622,1.8357
22639,20.814,0.72727,0.1,5.3351e-05,533.15,5.3331e-05,532.57,-1.7341e-05,1.5722,-1.7908e-05,-2.6928,1.8228
22640,20.905,0.45455,0.1,5.1122e-05,510.87,5.0929e-05,505.36,-1.6311e-05,0.15003,-1.7793e-05,-10.986,1.8355
22641,20.814,0.54545,0.1,5.1774e-05,517.38,5.1615e-05,512.83,-1.6599e-05,0.29745,-1.7872e-05,-9.2632,1.8226
22642,20.905,0.27273,0.1,5.0328e-05,502.94,5.0067e-05,495.55,-1.5879e-05,0.061224,-1.782e-05,-14.522,1.8354
22643,20.814,0.36364,0.1,5.0579e-05,505.45,5.0331e-05,498.43,-1.5989e-05,0.12573,-1.7851e-05,-13.863,1.8225
22644,20.814,0.18182,0.1,4.9944e-05,499.09,4.9643e-05,490.65,-1.5655e-05,0.032011,-1.7855e-05,-16.498,1.8224
22645,20.905,0.090909,0.1,4.9104e-05,490.7,4.8926e-05,485.61,-1.5712e-05,-0.051341,-1.7032e-05,-9.9659,1.8353
22646,20.723,5.7273,0.1,5.0199e-05,501.64,4.9911e-05,493.56,-1.5765e-05,0.095203,-1.789e-05,-15.865,1.8095
22647,20.632,5.8182,0.1,4.9242e-05,492.08,4.8913e-05,482.9,-1.5349e-05,0.058481,-1.7742e-05,-17.916,1.7964
22648,20.723,5.9091,0.1,4.8735e-05,487.01,4.8543e-05,481.55,-1.5555e-05,-0.054555,-1.697e-05,-10.685,1.8093
22649,20.723,5.5455,0.1,5.1244e-05,512.08,5.1029e-05,505.99,-1.6284e-05,0.22736,-1.7936e-05,-12.182,1.8096
22650,20.632,5.6364,0.1,5.007e-05,500.36,4.98e-05,492.76,-1.5757e-05,0.18864,-1.7783e-05,-15.035,1.7966
22651,20.723,5.3636,0.1,5.2825e-05,527.88,5.2726e-05,525.06,-1.7063e-05,0.69068,-1.799e-05,-6.2749,1.8098
22652,20.632,5.4545,0.1,5.1618e-05,515.83,5.1439e-05,510.73,-1.6477e-05,0.43226,-1.7926e-05,-10.456,1.7967
22653,20.723,5.1818,0.1,5.4846e-05,548.09,5.4908e-05,549.96,-1.7619e-05,5.0177,-1.8449e-05,-1.2182,1.8099
22654,20.632,5.2727,0.1,5.3702e-05,536.65,5.3661e-05,535.5,-1.7385e-05,1.6882,-1.8133e-05,-3.9359,1.7969
22655,20.723,5,0.1,5.7286e-05,572.46,5.754e-05,580.31,-1.7492e-05,16.541,-1.9757e-05,-0.47637,1.81
22656,20.632,5.0909,0.1,5.6305e-05,562.66,5.6442e-05,566.81,-1.7749e-05,9.3664,-1.9121e-05,-0.93536,1.797
22657,20.723,4.8182,0.1,6.0102e-05,600.6,6.0567e-05,615.49,-1.7181e-05,31.322,-2.139e-05,-0.30423,1.8101
22658,20.632,4.9091,0.1,5.939e-05,593.49,5.9732e-05,604.18,-1.7681e-05,22.538,-2.0744e-05,-0.47795,1.7971
22659,20.723,4.6364,0.1,6.3238e-05,631.95,6.3918e-05,654.64,-1.6765e-05,48.419,-2.324e-05,-0.22578,1.8102
22660,20.632,4.7273,0.1,6.2891e-05,628.48,6.3455e-05,646.84,-1.7459e-05,38.877,-2.2676e-05,-0.3224,1.7972
22661,20.723,4.4545,0.1,6.6634e-05,665.88,6.7515e-05,696.67,-1.6312e-05,66.832,-2.5231e-05,-0.17906,1.8103
22662,20.632,4.5455,0.1,6.6734e-05,666.88,6.7522e-05,693.68,-1.7135e-05,57.609,-2.4834e-05,-0.23969,1.7973
22663,20.723,4.2727,0.1,7.022e-05,701.71,7.1275e-05,740.29,-1.5927e-05,85.087,-2.7271e-05,-0.14971,1.8104
22664,20.632,4.3636,0.1,7.0844e-05,707.95,7.1838e-05,743.36,-1.6797e-05,77.39,-2.7122e-05,-0.18646,1.7974
22665,20.723,4.0909,0.1,7.3903e-05,738.52,7.5101e-05,783.92,-1.573e-05,101.46,-2.9251e-05,-0.13618,1.8104
22666,20.632,4.1818,0.1,7.5136e-05,750.84,7.6304e-05,794.2,-1.6598e-05,96.171,-2.9418e-05,-0.15323,1.7975
22667,20.723,3.9091,0.1,7.7549e-05,774.95,7.8855e-05,825.73,-1.581e-05,114.46,-3.1062e-05,-0.13871,1.8105
22668,20.632,4,0.1,7.9487e-05,794.32,8.0792e-05,844.18,-1.6693e-05,111.72,-3.158e-05,-0.13923,1.7975
22669,20.723,3.7273,0.1,8.0967e-05,809.12,8.2353e-05,863.63,-1.6167e-05,123.39,-3.2609e-05,-0.15481,1.8105
22670,20.632,3.8182,0.1,8.3705e-05,836.47,8.5109e-05,890.87,-1.7157e-05,122.48,-3.3479e-05,-0.15142,1.7976
22671,20.723,3.5455,0.1,8.3936e-05,838.78,8.5375e-05,895.51,-1.6707e-05,128.5,-3.3834e-05,-0.18015,1.8106
22672,20.632,3.6364,0.1,8.7529e-05,874.69,8.8997e-05,931.63,-1.7921e-05,128.29,-3.502e-05,-0.18435,1.7977
22673,20.723,3.3636,0.1,8.6236e-05,861.76,8.7707e-05,919.56,-1.727e-05,130.81,-3.4707e-05,-0.2067,1.8106
22674,20.632,3.4545,0.1,9.0676e-05,906.13,9.218e-05,964.08,-1.8793e-05,130.27,-3.616e-05,-0.21961,1.7977
22675,20.723,3.1818,0.1,8.7689e-05,876.29,8.9176e-05,934.49,-1.7688e-05,131.55,-3.5226e-05,-0.22566,1.8106
22676,20.632,3.2727,0.1,9.2905e-05,928.41,9.4425e-05,986.48,-1.954e-05,130.2,-3.6901e-05,-0.24708,1.7977
22677,20.723,3,0.1,8.8186e-05,881.25,8.9678e-05,939.54,-1.7842e-05,131.67,-3.5398e-05,-0.23237,1.8106
22678,20.632,3.0909,0.1,9.4057e-05,939.92,9.5582e-05,997.88,-1.9966e-05,129.7,-3.7262e-05,-0.26169,1.7977
22679,20.723,2.8182,0.1,8.7689e-05,876.29,8.9176e-05,934.49,-1.7688e-05,131.55,-3.5226e-05,-0.22566,1.8106
22680,20.632,2.9091,0.1,9.4057e-05,939.92,9.5582e-05,997.88,-1.9966e-05,129.7,-3.7262e-05,-0.26169,1.7977
22681,20.723,2.6364,0.1,8.6236e-05,861.76,8.7707e-05,919.56,-1.727e-05,130.81,-3.4707e-05,-0.2067,1.8106
22682,20.632,2.7273,0.1,9.2905e-05,928.41,9.4425e-05,986.48,-1.954e-05,130.2,-3.6901e-05,-0.24708,1.7977
22683,20.723,2.4545,0.1,8.3936e-05,838.78,8.5375e-05,895.51,-1.6707e-05,128.5,-3.3834e-05,-0.18015,1.8106
22684,20.632,2.5455,0.1,9.0676e-05,906.13,9.218e-05,964.08,-1.8793e-05,130.27,-3.616e-05,-0.21961,1.7977
22685,20.723,2.2727,0.1,8.0967e-05,809.11,8.2353e-05,863.63,-1.6167e-05,123.39,-3.2609e-05,-0.15481,1.8105
22686,20.632,2.3636,0.1,8.7529e-05,874.69,8.8997e-05,931.63,-1.7921e-05,128.29,-3.502e-05,-0.18435,1.7977
22687,20.723,2.0909,0.1,7.7549e-05,774.95,7.8855e-05,825.73,-1.581e-05,114.46,-3.1062e-05,-0.13871,1.8105
22688,20.632,2.1818,0.1,8.3705e-05,836.47,8.5109e-05,890.87,-1.7157e-05,122.48,-3.3479e-05,-0.15142,1.7976
22689,20.723,1.9091,0.1,7.3903e-05,738.52,7.5101e-05,783.92,-1.573e-05,101.46,-2.9251e-05,-0.13618,1.8104
22690,20.632,2,0.1,7.9487e-05,794.32,8.0792e-05,844.18,-1.6693e-05,111.72,-3.158e-05,-0.13923,1.7975
22691,20.723,1.7273,0.1,7.022e-05,701.71,7.1275e-05,740.29,-1.5927e-05,85.087,-2.7271e-05,-0.14971,1.8104
22692,20.632,1.8182,0.1,7.5136e-05,750.84,7.6304e-05,794.2,-1.6598e-05,96.171,-2.9418e-05,-0.15323,1.7975
22693,20.723,1.5455,0.1,6.6634e-05,665.88,6.7515e-05,696.67,-1.6312e-05,66.832,-2.5231e-05,-0.17907,1.8103
22694,20.632,1.6364,0.1,7.0844e-05,707.95,7.1838e-05,743.36,-1.6797e-05,77.39,-2.7122e-05,-0.18646,1.7974
22695,20.723,1.3636,0.1,6.3238e-05,631.95,6.3918e-05,654.64,-1.6765e-05,48.419,-2.324e-05,-0.22578,1.8102
22696,20.632,1.4545,0.1,6.6734e-05,666.88,6.7522e-05,693.68,-1.7135e-05,57.609,-2.4834e-05,-0.23968,1.7973
22697,20.723,1.1818,0.1,6.0102e-05,600.6,6.0567e-05,615.49,-1.7181e-05,31.322,-2.139e-05,-0.30423,1.8101
22698,20.632,1.2727,0.1,6.2891e-05,628.48,6.3455e-05,646.84,-1.7459e-05,38.877,-2.2676e-05,-0.3224,1.7972
22699,20.723,1,0.1,5.7286e-05,572.46,5.754e-05,580.31,-1.7492e-05,16.541,-1.9757e-05,-0.47637,1.81
22700,20.632,1.0909,0.1,5.939e-05,593.49,5.9732e-05,604.18,-1.7681e-05,22.538,-2.0744e-05,-0.47795,1.7971
22701,20.723,0.81818,0.1,5.4846e-05,548.09,5.4908e-05,549.96,-1.7619e-05,5.0178,-1.8449e-05,-1.2182,1.8099
22702,20.632,0.90909,0.1,5.6305e-05,562.66,5.6442e-05,566.81,-1.7749e-05,9.3664,-1.9121e-05,-0.93536,1.797
22703,20.723,0.63636,0.1,5.2825e-05,527.88,5.2726e-05,525.06,-1.7063e-05,0.69069,-1.799e-05,-6.2749,1.8098
22704,20.632,0.72727,0.1,5.3702e-05,536.65,5.3661e-05,535.5,-1.7385e-05,1.6882,-1.8133e-05,-3.9359,1.7969
22705,20.723,0.45455,0.1,5.1244e-05,512.08,5.1029e-05,505.99,-1.6284e-05,0.22735,-1.7936e-05,-12.182,1.8096
22706,20.632,0.54545,0.1,5.1618e-05,515.83,5.1439e-05,510.73,-1.6477e-05,0.43226,-1.7926e-05,-10.456,1.7967
22707,20.723,0.27273,0.1,5.0199e-05,501.64,4.9911e-05,493.56,-1.5765e-05,0.095203,-1.789e-05,-15.865,1.8095
22708,20.632,0.36364,0.1,5.007e-05,500.36,4.98e-05,492.76,-1.5757e-05,0.18864,-1.7783e-05,-15.035,1.7966
22709,20.632,0.18182,0.1,4.9242e-05,492.08,4.8913e-05,482.9,-1.5349e-05,0.058482,-1.7742e-05,-17.916,1.7964
22710,20.723,0.090909,0.1,4.8735e-05,487.01,4.8543e-05,481.55,-1.5555e-05,-0.054554,-1.697e-05,-10.685,1.8093
22711,20.541,5.7273,0.1,4.9126e-05,490.92,4.8813e-05,482.18,-1.5341e-05,0.15076,-1.7646e-05,-17.168,1.7836
22712,20.45,5.8182,0.1,4.7508e-05,474.75,4.7152e-05,464.88,-1.4705e-05,0.10934,-1.7282e-05,-19.25,1.7706
22713,20.541,5.9091,0.1,4.7391e-05,473.58,4.7186e-05,467.76,-1.5077e-05,-0.058498,-1.6584e-05,-11.385,1.7834
22714,20.541,5.5455,0.1,5.0467e-05,504.32,5.0231e-05,497.65,-1.5957e-05,0.34009,-1.7787e-05,-13.409,1.7837
22715,20.45,5.6364,0.1,4.8545e-05,485.11,4.8258e-05,477.06,-1.5198e-05,0.28732,-1.7362e-05,-15.978,1.7707
22716,20.541,5.3636,0.1,5.2531e-05,524.94,5.2407e-05,521.42,-1.6872e-05,0.88664,-1.8031e-05,-7.8248,1.7839
22717,20.45,5.4545,0.1,5.0525e-05,504.91,5.0324e-05,499.22,-1.6035e-05,0.62068,-1.7684e-05,-11.772,1.7709
22718,20.541,5.1818,0.1,5.5211e-05,551.73,5.5242e-05,552.71,-1.7753e-05,4.2527,-1.8615e-05,-2.2278,1.784
22719,20.45,5.2727,0.1,5.3252e-05,532.16,5.3177e-05,530.01,-1.7131e-05,1.75,-1.8156e-05,-5.9524,1.771
22720,20.541,5,0.1,5.8472e-05,584.31,5.8694e-05,591.14,-1.8016e-05,14.777,-2.009e-05,-0.80442,1.7841
22721,20.45,5.0909,0.1,5.6703e-05,566.64,5.679e-05,569.29,-1.8012e-05,7.2532,-1.9225e-05,-1.8572,1.7712
22722,20.541,4.8182,0.1,6.2249e-05,622.06,6.2689e-05,636.05,-1.8031e-05,29.553,-2.2028e-05,-0.47385,1.7843
22723,20.45,4.9091,0.1,6.0819e-05,607.77,6.1103e-05,616.6,-1.8431e-05,19.015,-2.1076e-05,-0.85689,1.7713
22724,20.541,4.6364,0.1,6.6459e-05,664.13,6.7132e-05,686.43,-1.7902e-05,47.514,-2.427e-05,-0.32743,1.7844
22725,20.45,4.7273,0.1,6.5505e-05,654.6,6.602e-05,671.14,-1.8635e-05,35.081,-2.3375e-05,-0.53006,1.7714
22726,20.541,4.4545,0.1,7.1014e-05,709.65,7.1916e-05,740.9,-1.7692e-05,67.625,-2.6724e-05,-0.24014,1.7845
22727,20.45,4.5455,0.1,7.0653e-05,706.04,7.1417e-05,731.65,-1.8664e-05,54.811,-2.6008e-05,-0.36603,1.7715
22728,20.541,4.2727,0.1,7.5824e-05,757.72,7.6932e-05,797.76,-1.7535e-05,87.973,-2.9268e-05,-0.18318,1.7845
22729,20.45,4.3636,0.1,7.616e-05,761.07,7.7168e-05,796.38,-1.8611e-05,76.736,-2.8859e-05,-0.26558,1.7716
22730,20.541,4.0909,0.1,8.0775e-05,807.19,8.205e-05,854.87,-1.7617e-05,106.01,-3.1746e-05,-0.14988,1.7846
22731,20.45,4.1818,0.1,8.1919e-05,818.62,8.3139e-05,863.08,-1.8692e-05,97.957,-3.1756e-05,-0.20068,1.7717
22732,20.541,3.9091,0.1,8.5683e-05,856.24,8.7083e-05,909.6,-1.8079e-05,119.45,-3.3997e-05,-0.14679,1.7847
22733,20.45,4,0.1,8.7776e-05,877.15,8.9159e-05,928.82,-1.917e-05,114.88,-3.4484e-05,-0.18701,1.7718
22734,20.541,3.7273,0.1,9.0281e-05,902.19,9.1765e-05,958.97,-1.8924e-05,127.29,-3.5889e-05,-0.17778,1.7847
22735,20.45,3.8182,0.1,9.3453e-05,933.89,9.4944e-05,989.96,-2.0179e-05,124.97,-3.6838e-05,-0.20245,1.7718
22736,20.541,3.5455,0.1,9.4252e-05,941.87,9.5783e-05,1000.1,-1.9988e-05,130.2,-3.7347e-05,-0.22256,1.7848
22737,20.45,3.6364,0.1,9.8561e-05,984.93,0.00010011,1042.6,-2.1598e-05,128.15,-3.8684e-05,-0.23193,1.7719
22738,20.541,3.3636,0.1,9.7299e-05,972.32,9.8849e-05,1030.6,-2.1014e-05,130.02,-3.8354e-05,-0.25983,1.7848
22739,20.45,3.4545,0.1,0.0001027,1026.3,0.00010426,1083.6,-2.3104e-05,126.6,-3.9991e-05,-0.27872,1.7719
22740,20.541,3.1818,0.1,9.9207e-05,991.39,0.00010076,1049.4,-2.1747e-05,128.87,-3.8937e-05,-0.28316,1.7848
22741,20.45,3.2727,0.1,0.00010558,1055.1,0.00010713,1111.2,-2.4335e-05,123.41,-4.08e-05,-0.31175,1.772
22742,20.541,3,0.1,9.9855e-05,997.86,0.00010141,1055.6,-2.2011e-05,128.3,-3.9126e-05,-0.29099,1.7849
22743,20.45,3.0909,0.1,0.00010705,1069.7,0.00010858,1124.9,-2.5017e-05,121.13,-4.1181e-05,-0.32423,1.772
22744,20.541,2.8182,0.1,9.9207e-05,991.39,0.00010076,1049.4,-2.1747e-05,128.87,-3.8937e-05,-0.28316,1.7848
22745,20.45,2.9091,0.1,0.00010705,1069.7,0.00010858,1124.9,-2.5017e-05,121.13,-4.1181e-05,-0.32423,1.772
22746,20.541,2.6364,0.1,9.7299e-05,972.32,9.8849e-05,1030.6,-2.1014e-05,130.02,-3.8354e-05,-0.25983,1.7848
22747,20.45,2.7273,0.1,0.00010558,1055.1,0.00010713,1111.2,-2.4335e-05,123.41,-4.08e-05,-0.31175,1.772
22748,20.541,2.4545,0.1,9.4252e-05,941.87,9.5783e-05,1000.1,-1.9988e-05,130.2,-3.7347e-05,-0.22256,1.7848
22749,20.45,2.5455,0.1,0.0001027,1026.3,0.00010426,1083.6,-2.3104e-05,126.6,-3.9991e-05,-0.27872,1.7719
22750,20.541,2.2727,0.1,9.0281e-05,902.19,9.1765e-05,958.97,-1.8924e-05,127.29,-3.5889e-05,-0.17778,1.7847
22751,20.45,2.3636,0.1,9.8561e-05,984.93,0.00010011,1042.6,-2.1598e-05,128.15,-3.8684e-05,-0.23193,1.7719
22752,20.541,2.0909,0.1,8.5683e-05,856.24,8.7083e-05,909.6,-1.8079e-05,119.45,-3.3997e-05,-0.14679,1.7847
22753,20.45,2.1818,0.1,9.3453e-05,933.89,9.4944e-05,989.96,-2.0179e-05,124.97,-3.6838e-05,-0.20245,1.7718
22754,20.541,1.9091,0.1,8.0775e-05,807.19,8.205e-05,854.87,-1.7617e-05,106.01,-3.1746e-05,-0.14988,1.7846
22755,20.45,2,0.1,8.7776e-05,877.15,8.9159e-05,928.82,-1.917e-05,114.88,-3.4484e-05,-0.18701,1.7718
22756,20.541,1.7273,0.1,7.5824e-05,757.72,7.6932e-05,797.76,-1.7535e-05,87.973,-2.9268e-05,-0.18318,1.7845
22757,20.45,1.8182,0.1,8.1919e-05,818.62,8.3139e-05,863.08,-1.8692e-05,97.957,-3.1756e-05,-0.20068,1.7717
22758,20.541,1.5455,0.1,7.1014e-05,709.65,7.1916e-05,740.9,-1.7691e-05,67.625,-2.6724e-05,-0.24014,1.7845
22759,20.45,1.6364,0.1,7.616e-05,761.07,7.7168e-05,796.38,-1.8611e-05,76.736,-2.8859e-05,-0.26558,1.7716
22760,20.541,1.3636,0.1,6.6459e-05,664.13,6.7132e-05,686.43,-1.7902e-05,47.514,-2.427e-05,-0.32743,1.7844
22761,20.45,1.4545,0.1,7.0653e-05,706.04,7.1417e-05,731.65,-1.8664e-05,54.811,-2.6008e-05,-0.36603,1.7715
22762,20.541,1.1818,0.1,6.2249e-05,622.06,6.2689e-05,636.05,-1.8031e-05,29.553,-2.2028e-05,-0.47384,1.7843
22763,20.45,1.2727,0.1,6.5505e-05,654.6,6.602e-05,671.14,-1.8635e-05,35.081,-2.3375e-05,-0.53006,1.7714
22764,20.541,1,0.1,5.8472e-05,584.31,5.8694e-05,591.14,-1.8016e-05,14.777,-2.009e-05,-0.80442,1.7841
22765,20.45,1.0909,0.1,6.0819e-05,607.77,6.1103e-05,616.6,-1.8431e-05,19.015,-2.1076e-05,-0.85689,1.7713
22766,20.541,0.81818,0.1,5.5211e-05,551.73,5.5242e-05,552.71,-1.7753e-05,4.2527,-1.8615e-05,-2.2278,1.784
22767,20.45,0.90909,0.1,5.6703e-05,566.64,5.679e-05,569.29,-1.8012e-05,7.2533,-1.9225e-05,-1.8572,1.7712
22768,20.541,0.63636,0.1,5.2531e-05,524.94,5.2407e-05,521.42,-1.6872e-05,0.88664,-1.8031e-05,-7.8248,1.7839
22769,20.45,0.72727,0.1,5.3252e-05,532.16,5.3177e-05,530.01,-1.7131e-05,1.75,-1.8156e-05,-5.9524,1.771
22770,20.541,0.45455,0.1,5.0467e-05,504.32,5.0231e-05,497.65,-1.5957e-05,0.34009,-1.7787e-05,-13.409,1.7837
22771,20.45,0.54545,0.1,5.0525e-05,504.91,5.0324e-05,499.22,-1.6035e-05,0.62067,-1.7684e-05,-11.772,1.7709
22772,20.541,0.27273,0.1,4.9126e-05,490.92,4.8813e-05,482.18,-1.5341e-05,0.15077,-1.7646e-05,-17.168,1.7836
22773,20.45,0.36364,0.1,4.8545e-05,485.11,4.8258e-05,477.06,-1.5198e-05,0.28732,-1.7362e-05,-15.978,1.7707
22774,20.45,0.18182,0.1,4.7508e-05,474.75,4.7152e-05,464.88,-1.4705e-05,0.10934,-1.7282e-05,-19.25,1.7706
22775,20.541,0.090909,0.1,4.7391e-05,473.58,4.7186e-05,467.76,-1.5077e-05,-0.058496,-1.6584e-05,-11.385,1.7834
22776,20.359,5.7273,0.1,4.6949e-05,469.17,4.6616e-05,459.92,-1.4562e-05,0.24675,-1.7018e-05,-18.209,1.7577
22777,20.268,5.8182,0.1,4.4588e-05,445.57,4.4211e-05,435.2,-1.3681e-05,0.21247,-1.6405e-05,-20.253,1.7447
22778,20.359,5.9091,0.1,4.4919e-05,448.88,4.4703e-05,442.77,-1.4234e-05,-0.065031,-1.5812e-05,-11.921,1.7575
22779,20.359,5.5455,0.1,4.864e-05,486.06,4.8384e-05,478.88,-1.5283e-05,0.51198,-1.7285e-05,-14.531,1.7579
22780,20.268,5.6364,0.1,4.5853e-05,458.21,4.5557e-05,449.98,-1.427e-05,0.45857,-1.6522e-05,-16.458,1.7449
22781,20.359,5.3636,0.1,5.131e-05,512.75,5.1151e-05,508.24,-1.6343e-05,1.1111,-1.7816e-05,-9.9564,1.758
22782,20.268,5.4545,0.1,4.8369e-05,483.35,4.8143e-05,477.02,-1.5226e-05,0.89118,-1.7107e-05,-13.24,1.745
22783,20.359,5.1818,0.1,5.4837e-05,547.99,5.4808e-05,547.22,-1.7598e-05,3.1892,-1.8642e-05,-4.6525,1.7582
22784,20.268,5.2727,0.1,5.1915e-05,518.79,5.1779e-05,514.96,-1.6522e-05,1.7748,-1.799e-05,-9.2566,1.7452
22785,20.359,5,0.1,5.9166e-05,591.25,5.9306e-05,595.55,-1.8555e-05,10.53,-2.0189e-05,-1.7502,1.7583
22786,20.268,5.0909,0.1,5.6451e-05,564.12,5.6434e-05,563.73,-1.8025e-05,4.2781,-1.9252e-05,-4.941,1.7453
22787,20.359,4.8182,0.1,6.4203e-05,641.59,6.4554e-05,652.6,-1.9155e-05,23.634,-2.2422e-05,-0.90905,1.7584
22788,20.268,4.9091,0.1,6.1898e-05,618.55,6.2045e-05,623.11,-1.9346e-05,11.565,-2.118e-05,-2.2146,1.7455
22789,20.359,4.6364,0.1,6.9828e-05,697.8,7.0429e-05,717.29,-1.952e-05,41.451,-2.5113e-05,-0.56838,1.7586
22790,20.268,4.7273,0.1,6.8135e-05,680.88,6.8505e-05,692.48,-2.0315e-05,25.12,-2.3814e-05,-1.1664,1.7456
22791,20.359,4.4545,0.1,7.592e-05,758.67,7.6786e-05,788.01,-1.9702e-05,63.034,-2.8142e-05,-0.38499,1.7587
22792,20.268,4.5455,0.1,7.5017e-05,749.66,7.5663e-05,770.62,-2.0954e-05,44.68,-2.6992e-05,-0.68925,1.7457
22793,20.359,4.2727,0.1,8.2362e-05,823.05,8.3479e-05,862.48,-1.9874e-05,85.923,-3.1346e-05,-0.27239,1.7588
22794,20.268,4.3636,0.1,8.2394e-05,823.37,8.334e-05,855.43,-2.1341e-05,68.893,-3.0564e-05,-0.40283,1.7458
22795,20.359,4.0909,0.1,8.9009e-05,889.47,9.0332e-05,937.66,-2.0332e-05,106.18,-3.4493e-05,-0.22608,1.7589
22796,20.268,4.1818,0.1,9.014e-05,900.78,9.136e-05,943.77,-2.1792e-05,93.592,-3.4283e-05,-0.25839,1.7459
22797,20.359,3.9091,0.1,9.5604e-05,955.38,9.7072e-05,1009.6,-2.1324e-05,119.99,-3.7324e-05,-0.23314,1.7589
22798,20.268,4,0.1,9.8042e-05,979.74,9.9468e-05,1031.1,-2.2771e-05,112.67,-3.7785e-05,-0.1432,1.746
22799,20.359,3.7273,0.1,0.00010175,1016.8,0.00010329,1073.6,-2.2861e-05,125.76,-3.9633e-05,-0.25162,1.759
22800,20.268,3.8182,0.1,0.00010568,1056.1,0.00010722,1111.5,-2.4543e-05,121.47,-4.0733e-05,-0.17596,1.7461
22801,20.359,3.5455,0.1,0.00010697,1069,0.00010854,1125.8,-2.4669e-05,124.89,-4.1329e-05,-0.28755,1.7591
22802,20.268,3.6364,0.1,0.00011243,1123.5,0.00011398,1178.6,-2.6886e-05,120.16,-4.2921e-05,-0.32484,1.7462
22803,20.359,3.3636,0.1,0.0001109,1108.2,0.00011245,1163.4,-2.6333e-05,120.68,-4.2438e-05,-0.33188,1.7591
22804,20.268,3.4545,0.1,0.00011771,1176.3,0.00011921,1228.5,-2.9247e-05,113,-4.4337e-05,-0.38045,1.7463
22805,20.359,3.1818,0.1,0.00011331,1132.3,0.00011483,1185.8,-2.7482e-05,116.58,-4.3045e-05,-0.35336,1.7591
22806,20.268,3.2727,0.1,0.00012123,1211.4,0.00012266,1260.4,-3.1084e-05,105.16,-4.5133e-05,-0.39315,1.7463
22807,20.359,3,0.1,0.00011411,1140.3,0.00011562,1193.3,-2.789e-05,114.95,-4.3236e-05,-0.35728,1.7591
22808,20.268,3.0909,0.1,0.00012296,1228.8,0.00012435,1275.7,-3.2067e-05,100.39,-4.548e-05,-0.38924,1.7463
22809,20.359,2.8182,0.1,0.00011331,1132.3,0.00011483,1185.8,-2.7482e-05,116.58,-4.3045e-05,-0.35336,1.7591
22810,20.268,2.9091,0.1,0.00012296,1228.8,0.00012435,1275.7,-3.2067e-05,100.39,-4.548e-05,-0.38924,1.7463
22811,20.359,2.6364,0.1,0.0001109,1108.2,0.00011245,1163.4,-2.6333e-05,120.68,-4.2438e-05,-0.33188,1.7591
22812,20.268,2.7273,0.1,0.00012123,1211.4,0.00012266,1260.4,-3.1084e-05,105.16,-4.5133e-05,-0.39315,1.7463
22813,20.359,2.4545,0.1,0.00010697,1069,0.00010854,1125.8,-2.4669e-05,124.89,-4.1329e-05,-0.28755,1.7591
22814,20.268,2.5455,0.1,0.00011771,1176.3,0.00011921,1228.5,-2.9247e-05,113,-4.4337e-05,-0.38045,1.7463
22815,20.359,2.2727,0.1,0.00010175,1016.8,0.00010329,1073.6,-2.2861e-05,125.76,-3.9633e-05,-0.25162,1.759
22816,20.268,2.3636,0.1,0.00011243,1123.5,0.00011398,1178.6,-2.6886e-05,120.16,-4.2921e-05,-0.32484,1.7462
22817,20.359,2.0909,0.1,9.5604e-05,955.38,9.7072e-05,1009.6,-2.1324e-05,119.99,-3.7324e-05,-0.23314,1.7589
22818,20.268,2.1818,0.1,0.00010568,1056.1,0.00010722,1111.5,-2.4543e-05,121.47,-4.0733e-05,-0.17596,1.7461
22819,20.359,1.9091,0.1,8.9009e-05,889.47,9.0332e-05,937.66,-2.0332e-05,106.18,-3.4493e-05,-0.22608,1.7589
22820,20.268,2,0.1,9.8042e-05,979.74,9.9468e-05,1031.1,-2.2771e-05,112.67,-3.7785e-05,-0.14321,1.746
22821,20.359,1.7273,0.1,8.2362e-05,823.05,8.3479e-05,862.48,-1.9874e-05,85.923,-3.1346e-05,-0.27239,1.7588
22822,20.268,1.8182,0.1,9.014e-05,900.78,9.136e-05,943.77,-2.1792e-05,93.592,-3.4283e-05,-0.25839,1.7459
22823,20.359,1.5455,0.1,7.592e-05,758.67,7.6786e-05,788.01,-1.9702e-05,63.034,-2.8142e-05,-0.38499,1.7587
22824,20.268,1.6364,0.1,8.2394e-05,823.37,8.334e-05,855.43,-2.1341e-05,68.893,-3.0564e-05,-0.40283,1.7458
22825,20.359,1.3636,0.1,6.9828e-05,697.8,7.0429e-05,717.29,-1.952e-05,41.451,-2.5113e-05,-0.56838,1.7586
22826,20.268,1.4545,0.1,7.5017e-05,749.66,7.5663e-05,770.62,-2.0954e-05,44.68,-2.6992e-05,-0.68925,1.7457
22827,20.359,1.1818,0.1,6.4203e-05,641.59,6.4554e-05,652.6,-1.9155e-05,23.634,-2.2422e-05,-0.90905,1.7584
22828,20.268,1.2727,0.1,6.8135e-05,680.88,6.8505e-05,692.48,-2.0315e-05,25.12,-2.3814e-05,-1.1664,1.7456
22829,20.359,1,0.1,5.9166e-05,591.25,5.9306e-05,595.55,-1.8555e-05,10.53,-2.0189e-05,-1.7502,1.7583
22830,20.268,1.0909,0.1,6.1898e-05,618.55,6.2045e-05,623.11,-1.9346e-05,11.565,-2.118e-05,-2.2146,1.7455
22831,20.359,0.81818,0.1,5.4837e-05,547.99,5.4808e-05,547.22,-1.7598e-05,3.1892,-1.8642e-05,-4.6525,1.7582
22832,20.268,0.90909,0.1,5.6451e-05,564.12,5.6434e-05,563.73,-1.8025e-05,4.2781,-1.9252e-05,-4.941,1.7453
22833,20.359,0.63636,0.1,5.131e-05,512.75,5.1151e-05,508.24,-1.6343e-05,1.1111,-1.7816e-05,-9.9563,1.758
22834,20.268,0.72727,0.1,5.1915e-05,518.79,5.1779e-05,514.96,-1.6522e-05,1.7748,-1.799e-05,-9.2566,1.7452
22835,20.359,0.45455,0.1,4.864e-05,486.06,4.8384e-05,478.88,-1.5283e-05,0.51198,-1.7285e-05,-14.531,1.7579
22836,20.268,0.54545,0.1,4.8369e-05,483.35,4.8143e-05,477.02,-1.5226e-05,0.89118,-1.7107e-05,-13.24,1.745
22837,20.359,0.27273,0.1,4.6949e-05,469.17,4.6616e-05,459.92,-1.4562e-05,0.24675,-1.7018e-05,-18.209,1.7577
22838,20.268,0.36364,0.1,4.5853e-05,458.21,4.5557e-05,449.98,-1.427e-05,0.45857,-1.6522e-05,-16.458,1.7449
22839,20.268,0.18182,0.1,4.4588e-05,445.57,4.4211e-05,435.2,-1.3681e-05,0.21247,-1.6405e-05,-20.253,1.7447
22840,20.359,0.090909,0.1,4.4919e-05,448.88,4.4703e-05,442.77,-1.4234e-05,-0.065031,-1.5812e-05,-11.921,1.7575
22841,20.177,5.7273,0.1,4.3524e-05,434.94,4.3181e-05,425.48,-1.3389e-05,0.43123,-1.5939e-05,-18.729,1.7319
22842,20.086,5.8182,0.1,4.0348e-05,403.2,3.9963e-05,392.69,-1.2245e-05,0.41612,-1.5044e-05,-20.615,1.7189
22843,20.177,5.9091,0.1,4.1175e-05,411.46,4.0955e-05,405.26,-1.299e-05,-0.066976,-1.459e-05,-12.083,1.7317
22844,20.177,5.5455,0.1,4.564e-05,456.09,4.5368e-05,448.51,-1.422e-05,0.79148,-1.6389e-05,-15.51,1.732
22845,20.086,5.6364,0.1,4.1889e-05,418.6,4.1597e-05,410.54,-1.294e-05,0.76992,-1.5219e-05,-16.355,1.7191
22846,20.177,5.3636,0.1,4.9084e-05,490.5,4.8869e-05,484.48,-1.5431e-05,1.358,-1.7353e-05,-13.081,1.7322
22847,20.086,5.4545,0.1,4.5099e-05,450.67,4.4839e-05,443.47,-1.4017e-05,1.2518,-1.6208e-05,-15.21,1.7192
22848,20.177,5.1818,0.1,5.3695e-05,536.58,5.3552e-05,532.58,-1.702e-05,2.3332,-1.8677e-05,-10.122,1.7324
22849,20.086,5.2727,0.1,4.9694e-05,496.59,4.9449e-05,489.8,-1.5507e-05,1.7449,-1.7725e-05,-14.917,1.7194
22850,20.177,5,0.1,5.9393e-05,593.52,5.936e-05,592.7,-1.8892e-05,4.7408,-2.0353e-05,-6.2337,1.7325
22851,20.086,5.0909,0.1,5.5597e-05,555.59,5.538e-05,549.55,-1.7442e-05,2.401,-1.9639e-05,-14.108,1.7196
22852,20.177,4.8182,0.1,6.6062e-05,660.16,6.6203e-05,664.55,-2.0653e-05,11.946,-2.2632e-05,-2.9235,1.7327
22853,20.086,4.9091,0.1,6.2723e-05,626.8,6.2584e-05,622.96,-1.9824e-05,3.7859,-2.1816e-05,-11.183,1.7197
22854,20.177,4.6364,0.1,7.3552e-05,735.02,7.3945e-05,747.36,-2.1939e-05,26.926,-2.5711e-05,-1.4173,1.7328
22855,20.086,4.7273,0.1,7.096e-05,709.11,7.0991e-05,710.24,-2.2414e-05,8.4215,-2.4328e-05,-5.9592,1.7199
22856,20.177,4.4545,0.1,8.1697e-05,816.4,8.2406e-05,839.46,-2.278e-05,49.138,-2.9417e-05,-0.72821,1.7329
22857,20.086,4.5455,0.1,8.0157e-05,801.02,8.0475e-05,810.94,-2.4415e-05,22.838,-2.7773e-05,-2.3906,1.72
22858,20.177,4.2727,0.1,9.0346e-05,902.84,9.1383e-05,937.93,-2.3422e-05,75.334,-3.3498e-05,-0.37364,1.733
22859,20.086,4.3636,0.1,9.013e-05,900.68,9.0829e-05,923.18,-2.5623e-05,48.205,-3.2196e-05,-1.18,1.7201
22860,20.177,4.0909,0.1,9.9308e-05,992.4,0.00010062,1038.2,-2.4358e-05,99.129,-3.7571e-05,-0.1502,1.7332
22861,20.086,4.1818,0.1,0.00010065,1005.8,0.00010174,1042.4,-2.6566e-05,78.331,-3.7064e-05,-0.54654,1.7203
22862,20.177,3.9091,0.1,0.0001082,1081.2,0.00010968,1133.5,-2.6058e-05,113.64,-4.1191e-05,-0.065301,1.7333
22863,20.086,4,0.1,0.00011148,1114,0.00011284,1160.9,-2.8155e-05,101.54,-4.1754e-05,-0.64066,1.7204
22864,20.177,3.7273,0.1,0.00011636,1162.8,0.00011789,1216.3,-2.8553e-05,115.98,-4.402e-05,-0.24111,1.7333
22865,20.086,3.8182,0.1,0.0001218,1217.2,0.00012327,1267.5,-3.0972e-05,108.54,-4.5505e-05,-0.6524,1.7205
22866,20.177,3.5455,0.1,0.00012307,1229.9,0.00012455,1280.5,-3.1362e-05,109.03,-4.5929e-05,-0.42213,1.7334
22867,20.086,3.6364,0.1,0.0001305,1304.1,0.0001319,1351,-3.458e-05,100.11,-4.7965e-05,-0.45589,1.7206
22868,20.177,3.3636,0.1,0.00012788,1277.9,0.00012926,1324.1,-3.383e-05,98.753,-4.7033e-05,-0.44892,1.7335
22869,20.086,3.4545,0.1,0.00013679,1367,0.00013803,1407.1,-3.7971e-05,84.683,-4.9321e-05,-0.59304,1.7207
22870,20.177,3.1818,0.1,0.00013069,1306,0.00013198,1348.6,-3.5464e-05,90.514,-4.7568e-05,-0.43044,1.7335
22871,20.086,3.2727,0.1,0.00014062,1405.3,0.00014168,1439.1,-4.0415e-05,70.844,-4.9913e-05,-0.51573,1.7207
22872,20.177,3,0.1,0.0001316,1315.1,0.00013286,1356.4,-3.6029e-05,87.451,-4.7723e-05,-0.4186,1.7335
22873,20.086,3.0909,0.1,0.00014238,1422.8,0.00014334,1453.1,-4.1652e-05,63.15,-5.0114e-05,-0.43392,1.7207
22874,20.177,2.8182,0.1,0.00013069,1306,0.00013198,1348.6,-3.5464e-05,90.514,-4.7568e-05,-0.43044,1.7335
22875,20.086,2.9091,0.1,0.00014238,1422.8,0.00014334,1453.1,-4.1652e-05,63.15,-5.0114e-05,-0.43392,1.7207
22876,20.177,2.6364,0.1,0.00012788,1277.9,0.00012926,1324.1,-3.383e-05,98.753,-4.7033e-05,-0.44892,1.7335
22877,20.086,2.7273,0.1,0.00014062,1405.3,0.00014168,1439.1,-4.0415e-05,70.844,-4.9913e-05,-0.51573,1.7207
22878,20.177,2.4545,0.1,0.00012307,1229.9,0.00012455,1280.5,-3.1362e-05,109.03,-4.5929e-05,-0.42213,1.7334
22879,20.086,2.5455,0.1,0.00013679,1367,0.00013803,1407.1,-3.7971e-05,84.683,-4.9321e-05,-0.59304,1.7207
22880,20.177,2.2727,0.1,0.00011636,1162.8,0.00011789,1216.3,-2.8553e-05,115.98,-4.402e-05,-0.24111,1.7333
22881,20.086,2.3636,0.1,0.0001305,1304.1,0.0001319,1351,-3.458e-05,100.11,-4.7965e-05,-0.45589,1.7206
22882,20.177,2.0909,0.1,0.0001082,1081.2,0.00010968,1133.5,-2.6058e-05,113.64,-4.1191e-05,-0.0653,1.7333
22883,20.086,2.1818,0.1,0.0001218,1217.2,0.00012327,1267.5,-3.0972e-05,108.54,-4.5505e-05,-0.6524,1.7205
22884,20.177,1.9091,0.1,9.9308e-05,992.4,0.00010062,1038.2,-2.4358e-05,99.129,-3.7571e-05,-0.1502,1.7332
22885,20.086,2,0.1,0.00011148,1114,0.00011284,1160.9,-2.8155e-05,101.54,-4.1754e-05,-0.64066,1.7204
22886,20.177,1.7273,0.1,9.0346e-05,902.84,9.1383e-05,937.93,-2.3422e-05,75.334,-3.3498e-05,-0.37364,1.733
22887,20.086,1.8182,0.1,0.00010065,1005.8,0.00010174,1042.4,-2.6566e-05,78.331,-3.7064e-05,-0.54654,1.7203
22888,20.177,1.5455,0.1,8.1697e-05,816.4,8.2406e-05,839.46,-2.278e-05,49.138,-2.9417e-05,-0.72821,1.7329
22889,20.086,1.6364,0.1,9.013e-05,900.68,9.0829e-05,923.18,-2.5623e-05,48.205,-3.2196e-05,-1.18,1.7201
22890,20.177,1.3636,0.1,7.3552e-05,735.02,7.3945e-05,747.36,-2.1939e-05,26.926,-2.5711e-05,-1.4173,1.7328
22891,20.086,1.4545,0.1,8.0157e-05,801.02,8.0475e-05,810.94,-2.4415e-05,22.838,-2.7773e-05,-2.3906,1.72
22892,20.177,1.1818,0.1,6.6062e-05,660.16,6.6203e-05,664.55,-2.0653e-05,11.946,-2.2632e-05,-2.9235,1.7327
22893,20.086,1.2727,0.1,7.096e-05,709.11,7.0991e-05,710.24,-2.2414e-05,8.4215,-2.4328e-05,-5.9592,1.7199
22894,20.177,1,0.1,5.9393e-05,593.52,5.936e-05,592.7,-1.8892e-05,4.7408,-2.0353e-05,-6.2337,1.7325
22895,20.086,1.0909,0.1,6.2723e-05,626.8,6.2584e-05,622.96,-1.9824e-05,3.7859,-2.1816e-05,-11.183,1.7197
22896,20.177,0.81818,0.1,5.3695e-05,536.58,5.3552e-05,532.58,-1.702e-05,2.3332,-1.8677e-05,-10.122,1.7324
22897,20.086,0.90909,0.1,5.5597e-05,555.59,5.538e-05,549.55,-1.7442e-05,2.401,-1.9639e-05,-14.108,1.7196
22898,20.177,0.63636,0.1,4.9084e-05,490.5,4.8869e-05,484.48,-1.5431e-05,1.358,-1.7353e-05,-13.081,1.7322
22899,20.086,0.72727,0.1,4.9694e-05,496.59,4.9449e-05,489.8,-1.5507e-05,1.7449,-1.7725e-05,-14.917,1.7194
22900,20.177,0.45455,0.1,4.564e-05,456.09,4.5368e-05,448.51,-1.422e-05,0.79148,-1.6389e-05,-15.51,1.732
22901,20.086,0.54545,0.1,4.5099e-05,450.67,4.4839e-05,443.47,-1.4017e-05,1.2518,-1.6208e-05,-15.21,1.7192
22902,20.177,0.27273,0.1,4.3524e-05,434.94,4.3181e-05,425.48,-1.3389e-05,0.43123,-1.5939e-05,-18.729,1.7319
22903,20.086,0.36364,0.1,4.1889e-05,418.6,4.1597e-05,410.54,-1.294e-05,0.76992,-1.5219e-05,-16.355,1.7191
22904,20.086,0.18182,0.1,4.0348e-05,403.2,3.9963e-05,392.69,-1.2245e-05,0.41613,-1.5044e-05,-20.615,1.7189
22905,20.177,0.090909,0.1,4.1175e-05,411.46,4.0955e-05,405.26,-1.299e-05,-0.066975,-1.459e-05,-12.083,1.7317
22906,19.995,5.7273,0.1,3.8757e-05,387.31,3.8419e-05,378.05,-1.1794e-05,0.77861,-1.4367e-05,-18.56,1.7061
22907,19.904,5.8182,0.1,3.4702e-05,346.79,3.433e-05,336.75,-1.0371e-05,0.88247,-1.3152e-05,-20.011,1.6931
22908,19.995,5.9091,0.1,3.6051e-05,360.26,3.5838e-05,354.28,-1.1324e-05,-0.07711,-1.2858e-05,-11.603,1.7059
22909,19.995,5.5455,0.1,4.1447e-05,414.18,4.1154e-05,406.15,-1.274e-05,1.2111,-1.5122e-05,-16.685,1.7062
22910,19.904,5.6364,0.1,3.6675e-05,366.49,3.6395e-05,358.88,-1.1184e-05,1.3899,-1.3498e-05,-15.994,1.6933
22911,19.995,5.3636,0.1,4.5908e-05,458.76,4.5592e-05,450.09,-1.4104e-05,1.5545,-1.6742e-05,-18.264,1.7064
22912,19.904,5.4545,0.1,4.0865e-05,408.36,4.0534e-05,399.39,-1.2399e-05,1.672,-1.513e-05,-18.843,1.6934
22913,19.995,5.1818,0.1,5.1895e-05,518.59,5.1534e-05,508.71,-1.593e-05,1.811,-1.8943e-05,-20.834,1.7066
22914,19.904,5.2727,0.1,4.6816e-05,467.83,4.636e-05,455.55,-1.4047e-05,1.6783,-1.7611e-05,-25.102,1.6936
22915,19.995,5,0.1,5.9301e-05,592.6,5.8922e-05,582.22,-1.8274e-05,2.1913,-2.152e-05,-22.2,1.7068
22916,19.904,5.0909,0.1,5.4381e-05,543.43,5.3777e-05,527.25,-1.6167e-05,1.7193,-2.0717e-05,-32.472,1.6938
22917,19.995,4.8182,0.1,6.8032e-05,679.85,6.7721e-05,671.27,-2.1209e-05,3.0864,-2.4237e-05,-19.668,1.7069
22918,19.904,4.9091,0.1,6.3522e-05,634.78,6.281e-05,615.71,-1.8878e-05,1.939,-2.4217e-05,-38.18,1.694
22919,19.995,4.6364,0.1,7.7967e-05,779.13,7.7864e-05,776.39,-2.4639e-05,6.2305,-2.6986e-05,-11.404,1.7071
22920,19.904,4.7273,0.1,7.4253e-05,742.02,7.3554e-05,723.13,-2.2358e-05,2.4862,-2.7821e-05,-38.56,1.6942
22921,19.995,4.4545,0.1,8.894e-05,888.78,8.9201e-05,896.93,-2.7451e-05,20.456,-3.0662e-05,-3.6661,1.7072
22922,19.904,4.5455,0.1,8.6594e-05,865.35,8.6114e-05,852.15,-2.6783e-05,3.8856,-3.1203e-05,-29.323,1.6943
22923,19.995,4.2727,0.1,0.00010071,1006.4,0.00010143,1029.5,-2.9006e-05,49.409,-3.5766e-05,-1.3833,1.7074
22924,19.904,4.3636,0.1,0.00010024,1001.7,0.00010025,1002.5,-3.1612e-05,11.745,-3.4463e-05,-9.6799,1.6945
22925,19.995,4.0909,0.1,0.00011301,1129.3,0.00011413,1166.4,-3.0539e-05,79.415,-4.1237e-05,-0.96824,1.7075
22926,19.904,4.1818,0.1,0.00011495,1148.7,0.00011561,1169.4,-3.4168e-05,43.983,-4.0208e-05,-1.4042,1.6946
22927,19.995,3.9091,0.1,0.00012516,1250.7,0.00012649,1295.3,-3.3131e-05,95.967,-4.6059e-05,-1.1666,1.7076
22928,19.904,4,0.1,0.00013022,1301.3,0.00013136,1338,-3.6657e-05,75.547,-4.6577e-05,1.0099,1.6948
22929,19.995,3.7273,0.1,0.00013586,1357.7,0.00013719,1401.5,-3.6909e-05,93.356,-4.9449e-05,-0.86228,1.7078
22930,19.904,3.8182,0.1,0.00014431,1442.1,0.00014552,1481.1,-4.0798e-05,81.098,-5.1572e-05,0.14129,1.6949
22931,19.995,3.5455,0.1,0.000144,1439,0.00014515,1475.8,-4.0961e-05,77.481,-5.1362e-05,-0.67026,1.7078
22932,19.904,3.6364,0.1,0.00015508,1549.7,0.000156,1578.6,-4.5925e-05,61.427,-5.4332e-05,-1.7362,1.695
22933,19.995,3.3636,0.1,0.00014925,1491.5,0.00015015,1519.7,-4.4253e-05,59.052,-5.2208e-05,-0.71573,1.7079
22934,19.904,3.4545,0.1,0.00016133,1612.2,0.00016188,1629,-5.0178e-05,35.677,-5.5114e-05,-1.4088,1.6951
22935,19.995,3.1818,0.1,0.000152,1519,0.00015272,1541.1,-4.628e-05,45.906,-5.2461e-05,-0.53474,1.708
22936,19.904,3.2727,0.1,0.00016435,1642.4,0.0001646,1649.8,-5.2809e-05,16.273,-5.5147e-05,-1.2918,1.6952
22937,19.995,3,0.1,0.00015284,1527.3,0.00015349,1547.3,-4.6952e-05,41.28,-5.2503e-05,-0.43165,1.708
22938,19.904,3.0909,0.1,0.00016548,1653.7,0.00016557,1656.3,-5.4075e-05,6.0039,-5.4959e-05,-0.64228,1.6952
22939,19.995,2.8182,0.1,0.000152,1519,0.00015272,1541.1,-4.628e-05,45.906,-5.2461e-05,-0.53474,1.708
22940,19.904,2.9091,0.1,0.00016548,1653.7,0.00016557,1656.3,-5.4075e-05,6.0039,-5.4959e-05,-0.64228,1.6952
22941,19.995,2.6364,0.1,0.00014925,1491.5,0.00015015,1519.7,-4.4253e-05,59.052,-5.2208e-05,-0.71573,1.7079
22942,19.904,2.7273,0.1,0.00016435,1642.4,0.0001646,1649.8,-5.2809e-05,16.273,-5.5147e-05,-1.2918,1.6952
22943,19.995,2.4545,0.1,0.000144,1439,0.00014515,1475.8,-4.0961e-05,77.481,-5.1362e-05,-0.67026,1.7078
22944,19.904,2.5455,0.1,0.00016133,1612.2,0.00016188,1629,-5.0178e-05,35.677,-5.5114e-05,-1.4088,1.6951
22945,19.995,2.2727,0.1,0.00013586,1357.7,0.00013719,1401.5,-3.6909e-05,93.356,-4.9449e-05,-0.86228,1.7078
22946,19.904,2.3636,0.1,0.00015508,1549.7,0.000156,1578.6,-4.5925e-05,61.427,-5.4332e-05,-1.7362,1.695
22947,19.995,2.0909,0.1,0.00012516,1250.7,0.00012649,1295.3,-3.3131e-05,95.967,-4.6059e-05,-1.1666,1.7076
22948,19.904,2.1818,0.1,0.00014431,1442.1,0.00014552,1481,-4.0798e-05,81.098,-5.1572e-05,0.14129,1.6949
22949,19.995,1.9091,0.1,0.00011301,1129.3,0.00011413,1166.4,-3.0539e-05,79.415,-4.1237e-05,-0.96824,1.7075
22950,19.904,2,0.1,0.00013022,1301.3,0.00013136,1338,-3.6657e-05,75.547,-4.6577e-05,1.0099,1.6948
22951,19.995,1.7273,0.1,0.00010071,1006.4,0.00010143,1029.5,-2.9006e-05,49.409,-3.5766e-05,-1.3833,1.7074
22952,19.904,1.8182,0.1,0.00011495,1148.7,0.00011561,1169.4,-3.4168e-05,43.983,-4.0208e-05,-1.4042,1.6946
22953,19.995,1.5455,0.1,8.894e-05,888.78,8.9201e-05,896.93,-2.7451e-05,20.456,-3.0662e-05,-3.6661,1.7072
22954,19.904,1.6364,0.1,0.00010024,1001.7,0.00010025,1002.5,-3.1612e-05,11.745,-3.4463e-05,-9.6799,1.6945
22955,19.995,1.3636,0.1,7.7967e-05,779.13,7.7864e-05,776.39,-2.4639e-05,6.2305,-2.6986e-05,-11.404,1.7071
22956,19.904,1.4545,0.1,8.6594e-05,865.35,8.6114e-05,852.15,-2.6783e-05,3.8856,-3.1203e-05,-29.323,1.6943
22957,19.995,1.1818,0.1,6.8032e-05,679.85,6.7721e-05,671.27,-2.1209e-05,3.0864,-2.4237e-05,-19.668,1.7069
22958,19.904,1.2727,0.1,7.4253e-05,742.02,7.3554e-05,723.13,-2.2358e-05,2.4862,-2.7821e-05,-38.56,1.6942
22959,19.995,1,0.1,5.9301e-05,592.6,5.8922e-05,582.22,-1.8274e-05,2.1913,-2.152e-05,-22.2,1.7068
22960,19.904,1.0909,0.1,6.3522e-05,634.78,6.281e-05,615.71,-1.8878e-05,1.939,-2.4217e-05,-38.18,1.694
22961,19.995,0.81818,0.1,5.1895e-05,518.59,5.1534e-05,508.71,-1.593e-05,1.811,-1.8943e-05,-20.834,1.7066
22962,19.904,0.90909,0.1,5.4381e-05,543.43,5.3777e-05,527.25,-1.6167e-05,1.7193,-2.0717e-05,-32.472,1.6938
22963,19.995,0.63636,0.1,4.5908e-05,458.76,4.5592e-05,450.09,-1.4104e-05,1.5545,-1.6742e-05,-18.264,1.7064
22964,19.904,0.72727,0.1,4.6816e-05,467.83,4.636e-05,455.55,-1.4047e-05,1.6783,-1.7611e-05,-25.102,1.6936
22965,19.995,0.45455,0.1,4.1447e-05,414.18,4.1154e-05,406.15,-1.274e-05,1.2111,-1.5122e-05,-16.685,1.7062
22966,19.904,0.54545,0.1,4.0865e-05,408.36,4.0534e-05,399.39,-1.2399e-05,1.672,-1.513e-05,-18.843,1.6934
22967,19.995,0.27273,0.1,3.8757e-05,387.31,3.8419e-05,378.05,-1.1794e-05,0.77861,-1.4367e-05,-18.56,1.7061
22968,19.904,0.36364,0.1,3.6675e-05,366.49,3.6395e-05,358.88,-1.1184e-05,1.3899,-1.3498e-05,-15.994,1.6933
22969,19.904,0.18182,0.1,3.4702e-05,346.79,3.433e-05,336.75,-1.0371e-05,0.88247,-1.3152e-05,-20.011,1.6931
22970,19.995,0.090909,0.1,3.6051e-05,360.26,3.5838e-05,354.28,-1.1324e-05,-0.077111,-1.2858e-05,-11.603,1.7059
22971,19.813,5.7273,0.1,3.2682e-05,326.6,3.236e-05,317.98,-9.7526e-06,1.5628,-1.2345e-05,-17.918,1.6803
22972,19.722,5.8182,0.1,2.7683e-05,276.64,2.734e-05,267.65,-8.0469e-06,1.7657,-1.076e-05,-18.622,1.6673
22973,19.813,5.9091,0.1,2.9489e-05,294.68,2.9304e-05,289.5,-9.2205e-06,0.046479,-1.0577e-05,-10.145,1.6801
22974,19.813,5.5455,0.1,3.6285e-05,362.6,3.594e-05,353.36,-1.0847e-05,1.8222,-1.3667e-05,-19.365,1.6805
22975,19.722,5.6364,0.1,3.0583e-05,305.61,3.0279e-05,297.6,-9.0374e-06,2.1915,-1.163e-05,-17.287,1.6675
22976,19.813,5.3636,0.1,4.2144e-05,421.15,4.1618e-05,407.23,-1.2355e-05,1.6972,-1.6302e-05,-27.962,1.6807
22977,19.722,5.4545,0.1,3.6301e-05,362.76,3.5771e-05,348.92,-1.0432e-05,1.7736,-1.4348e-05,-27.653,1.6677
22978,19.813,5.1818,0.1,4.9825e-05,497.91,4.9041e-05,477.38,-1.4285e-05,1.58,-1.9822e-05,-40.025,1.6808
22979,19.722,5.2727,0.1,4.3979e-05,439.49,4.3069e-05,416.22,-1.2142e-05,1.383,-1.8227e-05,-44.339,1.6679
22980,19.813,5,0.1,5.9239e-05,591.99,5.8187e-05,564.67,-1.6747e-05,1.6413,-2.396e-05,-52.552,1.681
22981,19.722,5.0909,0.1,5.3429e-05,533.92,5.2059e-05,499.49,-1.4251e-05,1.2576,-2.2952e-05,-64.112,1.6681
22982,19.813,4.8182,0.1,7.0451e-05,704.03,6.9213e-05,671.85,-1.9951e-05,1.9008,-2.8445e-05,-61.915,1.6812
22983,19.722,4.9091,0.1,6.4799e-05,647.55,6.2959e-05,601.73,-1.6953e-05,1.3101,-2.836e-05,-84.399,1.6683
22984,19.813,4.6364,0.1,8.3592e-05,835.34,8.2369e-05,803.13,-2.4202e-05,2.3948,-3.2903e-05,-62.976,1.6814
22985,19.722,4.7273,0.1,7.8481e-05,784.27,7.6255e-05,728.85,-2.0542e-05,1.5531,-3.4335e-05,-102.08,1.6685
22986,19.813,4.4545,0.1,9.8512e-05,984.44,9.7662e-05,961.47,-2.9744e-05,4.1904,-3.6698e-05,-48.062,1.6816
22987,19.722,4.5455,0.1,9.4917e-05,948.51,9.2575e-05,889.43,-2.5515e-05,2.1385,-4.0479e-05,-110.29,1.6687
22988,19.813,4.2727,0.1,0.00011492,1148.4,0.00011479,1145.1,-3.6363e-05,9.4093,-3.9676e-05,-15.487,1.6818
22989,19.722,4.3636,0.1,0.00011445,1143.7,0.00011252,1093.6,-3.2577e-05,3.3716,-4.592e-05,-96.883,1.6689
22990,19.813,4.0909,0.1,0.00013242,1323.3,0.00013304,1342.4,-4.0516e-05,38.387,-4.5521e-05,0.77595,1.6819
22991,19.722,4.1818,0.1,0.00013733,1372.4,0.00013637,1346.2,-4.2136e-05,4.9012,-5.0154e-05,-55.348,1.6691
22992,19.813,3.9091,0.1,0.00014938,1492.7,0.00015037,1523.5,-4.4322e-05,60.681,-5.206e-05,2.5472,1.6821
22993,19.722,4,0.1,0.00015965,1595.4,0.00015981,1600.4,-5.0562e-05,19.744,-5.4446e-05,-9.4434,1.6693
22994,19.813,3.7273,0.1,0.00016323,1631.1,0.00016403,1655.9,-4.9492e-05,51.589,-5.6469e-05,-0.83409,1.6822
22995,19.722,3.8182,0.1,0.00017961,1794.8,0.00017995,1805.5,-5.6637e-05,27.816,-6.1148e-05,-6.0775,1.6694
22996,19.813,3.5455,0.1,0.00017192,1718.1,0.00017226,1728.2,-5.4519e-05,24.308,-5.8236e-05,-3.6206,1.6824
22997,19.722,3.6364,0.1,0.00018967,1895.4,0.0001895,1890.6,-6.088e-05,9.375,-6.461e-05,-18.653,1.6696
22998,19.813,3.3636,0.1,0.00017594,1758.2,0.00017585,1755.4,-5.7311e-05,3.5883,-5.8995e-05,-9.0659,1.6825
22999,19.722,3.4545,0.1,0.00019242,1922.9,0.00019163,1900.4,-6.1109e-05,1.401,-6.7364e-05,-45.591,1.6697
23000,19.813,3.1818,0.1,0.00017738,1772.6,0.000177,1761.6,-5.7458e-05,0.0060078,-6.0342e-05,-21.664,1.6825
23001,19.722,3.2727,0.1,0.00019201,1918.8,0.00019086,1886.4,-6.0195e-05,0.1072,-6.8626e-05,-63.24,1.6698
23002,19.813,3,0.1,0.00017769,1775.7,0.00017722,1762.1,-5.735e-05,-0.36124,-6.0829e-05,-26.503,1.6825
23003,19.722,3.0909,0.1,0.00019133,1912,0.00019001,1875.1,-5.9576e-05,-0.17541,-6.9081e-05,-71.593,1.6699
23004,19.813,2.8182,0.1,0.00017738,1772.6,0.000177,1761.6,-5.7458e-05,0.006007,-6.0342e-05,-21.664,1.6825
23005,19.722,2.9091,0.1,0.00019133,1912,0.00019001,1875.1,-5.9575e-05,-0.17541,-6.9081e-05,-71.593,1.6699
23006,19.813,2.6364,0.1,0.00017594,1758.2,0.00017585,1755.4,-5.7311e-05,3.5883,-5.8995e-05,-9.0659,1.6825
23007,19.722,2.7273,0.1,0.00019201,1918.8,0.00019086,1886.4,-6.0195e-05,0.1072,-6.8626e-05,-63.24,1.6698
23008,19.813,2.4545,0.1,0.00017192,1718.1,0.00017226,1728.2,-5.4519e-05,24.308,-5.8236e-05,-3.6206,1.6824
23009,19.722,2.5455,0.1,0.00019242,1922.9,0.00019163,1900.4,-6.1109e-05,1.401,-6.7364e-05,-45.591,1.6697
23010,19.813,2.2727,0.1,0.00016323,1631.1,0.00016403,1655.9,-4.9492e-05,51.589,-5.6469e-05,-0.83409,1.6822
23011,19.722,2.3636,0.1,0.00018967,1895.4,0.0001895,1890.6,-6.088e-05,9.375,-6.461e-05,-18.653,1.6696
23012,19.813,2.0909,0.1,0.00014938,1492.7,0.00015037,1523.5,-4.4322e-05,60.681,-5.206e-05,2.5472,1.6821
23013,19.722,2.1818,0.1,0.00017961,1794.8,0.00017995,1805.5,-5.6637e-05,27.816,-6.1148e-05,-6.0775,1.6694
23014,19.813,1.9091,0.1,0.00013242,1323.3,0.00013304,1342.4,-4.0516e-05,38.387,-4.5521e-05,0.77595,1.6819
23015,19.722,2,0.1,0.00015965,1595.4,0.00015981,1600.4,-5.0562e-05,19.744,-5.4446e-05,-9.4434,1.6693
23016,19.813,1.7273,0.1,0.00011492,1148.4,0.00011479,1145.1,-3.6363e-05,9.4093,-3.9676e-05,-15.487,1.6818
23017,19.722,1.8182,0.1,0.00013733,1372.4,0.00013637,1346.2,-4.2136e-05,4.9012,-5.0154e-05,-55.348,1.6691
23018,19.813,1.5455,0.1,9.8512e-05,984.44,9.7662e-05,961.47,-2.9744e-05,4.1904,-3.6698e-05,-48.062,1.6816
23019,19.722,1.6364,0.1,0.00011445,1143.7,0.00011252,1093.6,-3.2577e-05,3.3716,-4.592e-05,-96.884,1.6689
23020,19.813,1.3636,0.1,8.3592e-05,835.34,8.2369e-05,803.13,-2.4202e-05,2.3948,-3.2903e-05,-62.976,1.6814
23021,19.722,1.4545,0.1,9.4917e-05,948.51,9.2575e-05,889.42,-2.5515e-05,2.1385,-4.0479e-05,-110.29,1.6687
23022,19.813,1.1818,0.1,7.0451e-05,704.03,6.9213e-05,671.85,-1.9951e-05,1.9008,-2.8445e-05,-61.915,1.6812
23023,19.722,1.2727,0.1,7.8481e-05,784.27,7.6255e-05,728.85,-2.0542e-05,1.5531,-3.4335e-05,-102.08,1.6685
23024,19.813,1,0.1,5.9239e-05,591.99,5.8187e-05,564.67,-1.6747e-05,1.6413,-2.396e-05,-52.552,1.681
23025,19.722,1.0909,0.1,6.4799e-05,647.55,6.2959e-05,601.73,-1.6953e-05,1.3101,-2.836e-05,-84.399,1.6683
23026,19.813,0.81818,0.1,4.9825e-05,497.91,4.9041e-05,477.38,-1.4285e-05,1.58,-1.9822e-05,-40.025,1.6808
23027,19.722,0.90909,0.1,5.3429e-05,533.92,5.2059e-05,499.49,-1.4251e-05,1.2576,-2.2952e-05,-64.112,1.6681
23028,19.813,0.63636,0.1,4.2144e-05,421.15,4.1618e-05,407.23,-1.2355e-05,1.6972,-1.6302e-05,-27.962,1.6807
23029,19.722,0.72727,0.1,4.3979e-05,439.49,4.3069e-05,416.22,-1.2142e-05,1.383,-1.8227e-05,-44.339,1.6679
23030,19.813,0.45455,0.1,3.6285e-05,362.6,3.594e-05,353.36,-1.0847e-05,1.8222,-1.3667e-05,-19.365,1.6805
23031,19.722,0.54545,0.1,3.6301e-05,362.76,3.5771e-05,348.92,-1.0432e-05,1.7736,-1.4348e-05,-27.653,1.6677
23032,19.813,0.27273,0.1,3.2682e-05,326.6,3.236e-05,317.98,-9.7526e-06,1.5628,-1.2345e-05,-17.918,1.6803
23033,19.722,0.36364,0.1,3.0583e-05,305.61,3.0279e-05,297.6,-9.0374e-06,2.1915,-1.163e-05,-17.287,1.6675
23034,19.722,0.18182,0.1,2.7683e-05,276.64,2.734e-05,267.65,-8.0469e-06,1.7657,-1.076e-05,-18.622,1.6673
23035,19.813,0.090909,0.1,2.9489e-05,294.68,2.9304e-05,289.5,-9.2205e-06,0.046479,-1.0577e-05,-10.145,1.6801
23036,19.631,5.7273,0.1,2.5722e-05,257.04,2.5374e-05,248.13,-7.3137e-06,2.5301,-1.0178e-05,-18.989,1.6545
23037,19.54,5.8182,0.1,1.9854e-05,198.4,1.9486e-05,189.71,-5.1808e-06,4.3696,-8.3684e-06,-19.58,1.6415
23038,19.631,5.9091,0.1,2.1548e-05,215.33,2.1403e-05,211.3,-6.6971e-06,0.16692,-7.7829e-06,-7.9915,1.6543
23039,19.631,5.5455,0.1,3.1047e-05,310.25,3.049e-05,296.02,-8.6588e-06,1.8657,-1.2654e-05,-28.156,1.6547
23040,19.54,5.6364,0.1,2.5334e-05,253.16,2.474e-05,238.66,-6.626e-06,2.984,-1.0878e-05,-28.965,1.6417
23041,19.631,5.3636,0.1,3.8834e-05,388.07,3.7799e-05,362.25,-1.0243e-05,1.2767,-1.6826e-05,-48.185,1.6549
23042,19.54,5.4545,0.1,3.3555e-05,335.32,3.233e-05,306.07,-8.1301e-06,2.071,-1.5539e-05,-53.599,1.6419
23043,19.631,5.1818,0.1,4.8449e-05,484.16,4.6782e-05,443.54,-1.2117e-05,1.0025,-2.2044e-05,-73.584,1.6551
23044,19.54,5.2727,0.1,4.3405e-05,433.75,4.1326e-05,385.41,-9.745e-06,1.6869,-2.1309e-05,-85.202,1.6422
23045,19.631,5,0.1,6.0002e-05,599.61,5.7619e-05,542.48,-1.4456e-05,0.93435,-2.8141e-05,-101.89,1.6553
23046,19.54,5.0909,0.1,5.4991e-05,549.53,5.1899e-05,479.01,-1.1635e-05,1.6351,-2.8053e-05,-121.72,1.6424
23047,19.631,4.8182,0.1,7.3992e-05,739.41,7.0883e-05,665.37,-1.7534e-05,1.0355,-3.5142e-05,-131.27,1.6555
23048,19.54,4.9091,0.1,6.8869e-05,688.22,6.4627e-05,592.64,-1.3996e-05,1.8984,-3.5952e-05,-163.07,1.6426
23049,19.631,4.6364,0.1,9.1102e-05,910.39,8.7422e-05,822.36,-2.1833e-05,1.4617,-4.2894e-05,-156.78,1.6558
23050,19.54,4.7273,0.1,8.6057e-05,859.98,8.0533e-05,736.11,-1.7172e-05,1.9981,-4.5394e-05,-210.05,1.6428
23051,19.631,4.4545,0.1,0.00011204,1119.7,0.0001083,1028,-2.8288e-05,1.7732,-5.0624e-05,-166.05,1.656
23052,19.54,4.5455,0.1,0.00010806,1079.8,0.00010127,927.93,-2.1638e-05,4.4054,-5.6738e-05,-259.32,1.6431
23053,19.631,4.2727,0.1,0.00013775,1376.6,0.00013475,1299.5,-3.8021e-05,1.3356,-5.737e-05,-144.04,1.6562
23054,19.54,4.3636,0.1,0.00013797,1378.7,0.00012994,1195.4,-2.9023e-05,1.0435,-7.0867e-05,-313.35,1.6433
23055,19.631,4.0909,0.1,0.00016471,1646,0.00016326,1605,-5.1594e-05,-9.3219,-5.979e-05,-70.906,1.6564
23056,19.54,4.1818,0.1,0.00018172,1816,0.00017474,1653.6,-4.2332e-05,22.615,-8.5695e-05,-303.2,1.6436
23057,19.631,3.9091,0.1,0.00018946,1893.3,0.00018898,1879.2,-6.2203e-05,-8.0596,-6.3792e-05,-20.005,1.6566
23058,19.54,4,0.1,0.00022431,2241.6,0.00022212,2191.1,-6.1512e-05,60.01,-8.9006e-05,-146.57,1.6438
23059,19.631,3.7273,0.1,0.00020503,2048.9,0.00020447,2033.1,-6.5587e-05,3.924,-7.0775e-05,-35.06,1.6568
23060,19.54,3.8182,0.1,0.00024143,2412.6,0.00023986,2369.9,-7.3835e-05,12.941,-8.8174e-05,-94.799,1.6441
23061,19.631,3.5455,0.1,0.00020924,2091,0.00020799,2056.2,-6.5232e-05,3.284,-7.5103e-05,-70.877,1.657
23062,19.54,3.6364,0.1,0.00023827,2381,0.00023578,2313.8,-7.143e-05,5.5642,-8.9989e-05,-133.88,1.6443
23063,19.631,3.3636,0.1,0.00020782,2076.7,0.00020599,2026.5,-6.3675e-05,0.31547,-7.6671e-05,-97.33,1.6571
23064,19.54,3.4545,0.1,0.00022813,2279.7,0.0002252,2200.8,-6.774e-05,-0.1976,-8.7697e-05,-150.15,1.6444
23065,19.631,3.1818,0.1,0.00020543,2052.9,0.00020335,1996,-6.2304e-05,-0.0069775,-7.6858e-05,-109.36,1.6572
23066,19.54,3.2727,0.1,0.00022078,2206.3,0.00021768,2123.4,-6.4869e-05,0.42667,-8.5917e-05,-157.72,1.6445
23067,19.631,3,0.1,0.00020449,2043.5,0.00020233,1984.6,-6.1812e-05,-0.075198,-7.6844e-05,-113.02,1.6572
23068,19.54,3.0909,0.1,0.00021705,2169,0.00021388,2084.4,-6.3539e-05,-0.0038356,-8.4877e-05,-160.32,1.6446
23069,19.631,2.8182,0.1,0.00020543,2052.9,0.00020335,1996,-6.2304e-05,-0.0069776,-7.6858e-05,-109.36,1.6572
23070,19.54,2.9091,0.1,0.00021705,2169,0.00021388,2084.4,-6.3539e-05,-0.003835,-8.4877e-05,-160.32,1.6446
23071,19.631,2.6364,0.1,0.00020782,2076.7,0.00020599,2026.5,-6.3675e-05,0.31547,-7.6671e-05,-97.33,1.6571
23072,19.54,2.7273,0.1,0.00022078,2206.3,0.00021768,2123.4,-6.4869e-05,0.42667,-8.5917e-05,-157.72,1.6445
23073,19.631,2.4545,0.1,0.00020924,2091,0.00020799,2056.2,-6.5232e-05,3.284,-7.5103e-05,-70.877,1.657
23074,19.54,2.5455,0.1,0.00022813,2279.7,0.0002252,2200.8,-6.774e-05,-0.1976,-8.7697e-05,-150.15,1.6444
23075,19.631,2.2727,0.1,0.00020503,2048.9,0.00020447,2033.1,-6.5587e-05,3.924,-7.0775e-05,-35.06,1.6568
23076,19.54,2.3636,0.1,0.00023827,2381,0.00023578,2313.8,-7.143e-05,5.5642,-8.9989e-05,-133.88,1.6443
23077,19.631,2.0909,0.1,0.00018946,1893.3,0.00018898,1879.2,-6.2203e-05,-8.0597,-6.3792e-05,-20.005,1.6566
23078,19.54,2.1818,0.1,0.00024143,2412.6,0.00023986,2369.9,-7.3835e-05,12.941,-8.8174e-05,-94.799,1.6441
23079,19.631,1.9091,0.1,0.00016471,1646,0.00016326,1605,-5.1594e-05,-9.3219,-5.979e-05,-70.906,1.6564
23080,19.54,2,0.1,0.00022431,2241.6,0.00022212,2191.1,-6.1512e-05,60.01,-8.9006e-05,-146.57,1.6438
23081,19.631,1.7273,0.1,0.00013775,1376.6,0.00013475,1299.5,-3.8021e-05,1.3356,-5.737e-05,-144.04,1.6562
23082,19.54,1.8182,0.1,0.00018172,1816,0.00017474,1653.6,-4.2332e-05,22.615,-8.5695e-05,-303.2,1.6436
23083,19.631,1.5455,0.1,0.00011204,1119.7,0.0001083,1028,-2.8288e-05,1.7732,-5.0624e-05,-166.05,1.656
23084,19.54,1.6364,0.1,0.00013797,1378.7,0.00012994,1195.4,-2.9023e-05,1.0435,-7.0867e-05,-313.35,1.6433
23085,19.631,1.3636,0.1,9.1102e-05,910.39,8.7422e-05,822.36,-2.1833e-05,1.4617,-4.2894e-05,-156.78,1.6558
23086,19.54,1.4545,0.1,0.00010806,1079.8,0.00010127,927.93,-2.1638e-05,4.4054,-5.6738e-05,-259.32,1.6431
23087,19.631,1.1818,0.1,7.3992e-05,739.41,7.0883e-05,665.37,-1.7534e-05,1.0355,-3.5142e-05,-131.27,1.6555
23088,19.54,1.2727,0.1,8.6057e-05,859.98,8.0533e-05,736.11,-1.7172e-05,1.9981,-4.5394e-05,-210.05,1.6428
23089,19.631,1,0.1,6.0002e-05,599.61,5.7619e-05,542.48,-1.4456e-05,0.93435,-2.8141e-05,-101.89,1.6553
23090,19.54,1.0909,0.1,6.8869e-05,688.22,6.4627e-05,592.64,-1.3996e-05,1.8984,-3.5952e-05,-163.07,1.6426
23091,19.631,0.81818,0.1,4.8449e-05,484.16,4.6782e-05,443.54,-1.2117e-05,1.0025,-2.2044e-05,-73.584,1.6551
23092,19.54,0.90909,0.1,5.4991e-05,549.53,5.1899e-05,479.01,-1.1635e-05,1.6351,-2.8053e-05,-121.72,1.6424
23093,19.631,0.63636,0.1,3.8834e-05,388.07,3.7799e-05,362.25,-1.0243e-05,1.2767,-1.6826e-05,-48.185,1.6549
23094,19.54,0.72727,0.1,4.3405e-05,433.75,4.1326e-05,385.41,-9.745e-06,1.6869,-2.1309e-05,-85.202,1.6422
23095,19.631,0.45455,0.1,3.1047e-05,310.25,3.049e-05,296.02,-8.6588e-06,1.8657,-1.2654e-05,-28.156,1.6547
23096,19.54,0.54545,0.1,3.3555e-05,335.32,3.233e-05,306.07,-8.1301e-06,2.071,-1.5539e-05,-53.599,1.6419
23097,19.631,0.27273,0.1,2.5722e-05,257.04,2.5374e-05,248.13,-7.3137e-06,2.5301,-1.0178e-05,-18.989,1.6545
23098,19.54,0.36364,0.1,2.5334e-05,253.16,2.474e-05,238.66,-6.626e-06,2.984,-1.0878e-05,-28.965,1.6417
23099,19.54,0.18182,0.1,1.9854e-05,198.4,1.9486e-05,189.71,-5.1808e-06,4.3696,-8.3684e-06,-19.58,1.6415
23100,19.631,0.090909,0.1,2.1548e-05,215.33,2.1403e-05,211.3,-6.6971e-06,0.16692,-7.7829e-06,-7.9915,1.6543
23101,19.449,5.7273,0.1,2.0175e-05,201.61,1.9419e-05,184.49,-4.5745e-06,4.2116,-9.5543e-06,-33.204,1.6287
23102,19.358,5.8182,0.1,1.1652e-05,116.44,1.1457e-05,111.38,-3.3013e-06,0.49559,-4.6862e-06,-9.9094,1.6158
23103,19.449,5.9091,0.1,1.2699e-05,126.9,1.2553e-05,123.46,-3.4618e-06,3.1374,-5.0939e-06,-9.1255,1.6285
23104,19.449,5.5455,0.1,2.896e-05,289.4,2.7458e-05,255.31,-6.183e-06,2.5456,-1.4556e-05,-60.366,1.629
23105,19.358,5.6364,0.1,1.9298e-05,192.85,1.8633e-05,176.36,-4.9309e-06,-0.687,-8.7162e-06,-29.128,1.616
23106,19.449,5.3636,0.1,3.933e-05,393.03,3.6762e-05,336.04,-7.6742e-06,2.1616,-2.0885e-05,-97.1,1.6292
23107,19.358,5.4545,0.1,2.7674e-05,276.55,2.6289e-05,244.05,-6.2517e-06,-0.44778,-1.3657e-05,-56.089,1.6162
23108,19.449,5.1818,0.1,5.1232e-05,511.97,4.7379e-05,427.91,-9.2927e-06,2.0982,-2.8224e-05,-140.15,1.6294
23109,19.358,5.2727,0.1,3.6871e-05,368.46,3.4607e-05,316.92,-7.6326e-06,-0.45236,-1.9173e-05,-87.159,1.6164
23110,19.449,5,0.1,6.5314e-05,652.69,5.994e-05,536.93,-1.12e-05,2.4061,-3.687e-05,-190.47,1.6296
23111,19.358,5.0909,0.1,4.7394e-05,473.61,4.4084e-05,399.74,-9.1882e-06,-0.53136,-2.5503e-05,-123.11,1.6167
23112,19.449,4.8182,0.1,8.2715e-05,826.58,7.5517e-05,672.7,-1.366e-05,2.6667,-4.7418e-05,-250.98,1.6299
23113,19.358,4.9091,0.1,5.9983e-05,599.42,5.5412e-05,498.9,-1.1018e-05,-0.22975,-3.3074e-05,-165.95,1.6169
23114,19.449,4.6364,0.1,0.00010533,1052.6,9.5961e-05,853.52,-1.7005e-05,4.7333,-6.0787e-05,-324.22,1.6301
23115,19.358,4.7273,0.1,7.585e-05,757.97,6.9727e-05,624.13,-1.3526e-05,-1.4048,-4.2458e-05,-218.78,1.6172
23116,19.449,4.4545,0.1,0.00013743,1373.4,0.00012521,1112.5,-2.2409e-05,3.4123,-7.9244e-05,-423.63,1.6304
23117,19.358,4.5455,0.1,9.7321e-05,972.54,8.9063e-05,795.44,-1.6342e-05,3.4664,-5.5407e-05,-290.05,1.6175
23118,19.449,4.2727,0.1,0.0001851,1849.7,0.00017187,1564.2,-3.3398e-05,21.844,-0.00010107,-486.63,1.6307
23119,19.358,4.3636,0.1,0.00012686,1267.7,0.00011681,1042.3,-2.4054e-05,-16.069,-7.0175e-05,-362.61,1.6178
23120,19.449,4.0909,0.1,0.00024105,2408.8,0.00023287,2234.2,-5.226e-05,91.872,-0.00011417,-373.27,1.631
23121,19.358,4.1818,0.1,0.00018469,1845.6,0.00016693,1498.1,-2.3025e-05,70.845,-0.00011046,-586.13,1.6181
23122,19.449,3.9091,0.1,0.00027289,2727,0.00027008,2659.9,-7.5835e-05,60.793,-0.00010777,-179.19,1.6313
23123,19.358,4,0.1,0.00040839,4081.1,0.000405,4017,-0.0001061,176.72,-0.00016535,-268.49,1.6185
23124,19.449,3.7273,0.1,0.00027205,2718.7,0.00026884,2633.2,-8.0123e-05,11.234,-0.00010462,-172.84,1.6315
23125,19.358,3.8182,0.1,0.0003332,3329.7,0.00032836,3203,-9.5958e-05,14.861,-0.0001315,-252.18,1.6188
23126,19.449,3.5455,0.1,0.00025614,2559.7,0.00025204,2451.3,-7.3916e-05,2.2351,-0.00010166,-206.19,1.6318
23127,19.358,3.6364,0.1,0.00028804,2878.4,0.00028234,2731.9,-8.0169e-05,8.1002,-0.00011846,-279.62,1.6191
23128,19.449,3.3636,0.1,0.00024054,2403.8,0.00023636,2293.8,-6.8945e-05,-0.17232,-9.6404e-05,-206.49,1.6319
23129,19.358,3.4545,0.1,0.00025981,2596.3,0.0002544,2456.2,-7.2605e-05,-0.81576,-0.0001071,-260.01,1.6193
23130,19.449,3.1818,0.1,0.00023197,2318.1,0.0002278,2208.7,-6.611e-05,0.3855,-9.352e-05,-205.56,1.632
23131,19.358,3.2727,0.1,0.00024458,2444.1,0.00023941,2310.7,-6.8e-05,0.94532,-0.00010122,-248.62,1.6194
23132,19.449,3,0.1,0.00022921,2290.6,0.00022504,2181.4,-6.5273e-05,0.016033,-9.2517e-05,-204.68,1.632
23133,19.358,3.0909,0.1,0.00023776,2376,0.00023272,2245.7,-6.6136e-05,0.27862,-9.8404e-05,-242.17,1.6195
23134,19.449,2.8182,0.1,0.00023197,2318.1,0.0002278,2208.7,-6.611e-05,0.3855,-9.352e-05,-205.56,1.632
23135,19.358,2.9091,0.1,0.00023776,2376,0.00023272,2245.7,-6.6136e-05,0.27862,-9.8404e-05,-242.17,1.6195
23136,19.449,2.6364,0.1,0.00024054,2403.8,0.00023636,2293.8,-6.8945e-05,-0.17232,-9.6404e-05,-206.49,1.6319
23137,19.358,2.7273,0.1,0.00024458,2444.1,0.00023941,2310.7,-6.8e-05,0.94532,-0.00010122,-248.62,1.6194
23138,19.449,2.4545,0.1,0.00025614,2559.7,0.00025204,2451.3,-7.3916e-05,2.2351,-0.00010166,-206.19,1.6318
23139,19.358,2.5455,0.1,0.00025981,2596.3,0.0002544,2456.2,-7.2605e-05,-0.81576,-0.0001071,-260.01,1.6193
23140,19.449,2.2727,0.1,0.00027205,2718.7,0.00026884,2633.2,-8.0123e-05,11.234,-0.00010462,-172.84,1.6315
23141,19.358,2.3636,0.1,0.00028804,2878.4,0.00028234,2731.9,-8.0169e-05,8.1002,-0.00011846,-279.62,1.6191
23142,19.449,2.0909,0.1,0.00027289,2727,0.00027008,2659.9,-7.5835e-05,60.793,-0.00010777,-179.19,1.6313
23143,19.358,2.1818,0.1,0.0003332,3329.7,0.00032836,3203,-9.5958e-05,14.861,-0.0001315,-252.18,1.6188
23144,19.449,1.9091,0.1,0.00024105,2408.8,0.00023287,2234.2,-5.226e-05,91.872,-0.00011417,-373.27,1.631
23145,19.358,2,0.1,0.00040839,4081.1,0.000405,4017,-0.0001061,176.72,-0.00016535,-268.49,1.6185
23146,19.449,1.7273,0.1,0.0001851,1849.7,0.00017187,1564.2,-3.3398e-05,21.844,-0.00010107,-486.63,1.6307
23147,19.358,1.8182,0.1,0.00018469,1845.6,0.00016693,1498.1,-2.3025e-05,70.845,-0.00011046,-586.13,1.6181
23148,19.449,1.5455,0.1,0.00013743,1373.4,0.00012521,1112.5,-2.2409e-05,3.4123,-7.9244e-05,-423.63,1.6304
23149,19.358,1.6364,0.1,0.00012686,1267.7,0.00011681,1042.3,-2.4054e-05,-16.069,-7.0175e-05,-362.61,1.6178
23150,19.449,1.3636,0.1,0.00010533,1052.6,9.5961e-05,853.52,-1.7005e-05,4.7333,-6.0787e-05,-324.22,1.6301
23151,19.358,1.4545,0.1,9.7321e-05,972.54,8.9063e-05,795.44,-1.6342e-05,3.4664,-5.5407e-05,-290.05,1.6175
23152,19.449,1.1818,0.1,8.2715e-05,826.58,7.5517e-05,672.7,-1.366e-05,2.6667,-4.7418e-05,-250.98,1.6299
23153,19.358,1.2727,0.1,7.585e-05,757.97,6.9727e-05,624.13,-1.3526e-05,-1.4048,-4.2458e-05,-218.78,1.6172
23154,19.449,1,0.1,6.5314e-05,652.69,5.994e-05,536.93,-1.12e-05,2.4061,-3.687e-05,-190.47,1.6296
23155,19.358,1.0909,0.1,5.9983e-05,599.42,5.5412e-05,498.9,-1.1018e-05,-0.22975,-3.3074e-05,-165.95,1.6169
23156,19.449,0.81818,0.1,5.1232e-05,511.97,4.7379e-05,427.91,-9.2927e-06,2.0982,-2.8224e-05,-140.15,1.6294
23157,19.358,0.90909,0.1,4.7394e-05,473.61,4.4084e-05,399.74,-9.1882e-06,-0.53136,-2.5503e-05,-123.11,1.6167
23158,19.449,0.63636,0.1,3.933e-05,393.03,3.6762e-05,336.04,-7.6742e-06,2.1616,-2.0885e-05,-97.1,1.6292
23159,19.358,0.72727,0.1,3.6871e-05,368.46,3.4607e-05,316.92,-7.6326e-06,-0.45236,-1.9173e-05,-87.159,1.6164
23160,19.449,0.45455,0.1,2.896e-05,289.4,2.7458e-05,255.31,-6.183e-06,2.5456,-1.4556e-05,-60.366,1.629
23161,19.358,0.54545,0.1,2.7674e-05,276.55,2.6289e-05,244.05,-6.2517e-06,-0.44778,-1.3657e-05,-56.089,1.6162
23162,19.449,0.27273,0.1,2.0175e-05,201.61,1.9419e-05,184.49,-4.5745e-06,4.2116,-9.5543e-06,-33.204,1.6287
23163,19.358,0.36364,0.1,1.9298e-05,192.85,1.8633e-05,176.36,-4.9309e-06,-0.687,-8.7162e-06,-29.128,1.616
23164,19.358,0.18182,0.1,1.1652e-05,116.44,1.1457e-05,111.38,-3.3013e-06,0.49559,-4.6862e-06,-9.9095,1.6158
23165,19.449,0.090909,0.1,1.2699e-05,126.9,1.2553e-05,123.46,-3.4618e-06,3.1374,-5.0939e-06,-9.1255,1.6285
23166,0.18365,0.27273,0.1,0.00042575,4254.5,0.00041856,4171,-8.1623e-05,412.87,-0.00019622,-448.18,0.00011685
23167,0.27548,0.18182,0.1,0.00045413,4538.2,0.00045116,4455.3,-0.00014134,3.4813,-0.00016371,-164.61,0.00020617
23168,0.091827,0.18182,0.1,0.00027104,2708.5,0.00028716,3190.3,-6.133e-05,571.9,-8.422e-05,399.91,2.6262e-05
23169,0.18365,0.090909,0.1,0.00038455,3842.9,0.00037908,3685.5,-0.00012319,-88.38,-0.00014109,-222.91,5.2476e-05
23170,0.18365,0.45455,0.1,0.00048806,4877.2,0.00047097,4828.2,-3.2484e-05,1045.5,-0.00026165,-676.35,0.00015514
23171,0.27548,0.36364,0.1,0.00046468,4643.6,0.0004655,4819.5,-7.692e-05,743.98,-0.00020732,-235.77,0.00030003
23172,0.091827,0.36364,0.1,0.00034106,3408.3,0.00037585,4546.4,-2.1044e-05,1564.3,-0.00011861,831.25,4.3432e-05
23173,0.18365,0.63636,0.1,0.00054821,5478.3,0.00052512,5445,-1.5341e-05,1384.2,-0.00030416,-785.91,0.00017836
23174,0.27548,0.54545,0.1,0.00050088,5005.3,0.00049956,5310.7,-4.1547e-05,1245.1,-0.00024447,-279.6,0.00035907
23175,0.091827,0.54545,0.1,0.0003992,3989.2,0.00044166,5426.3,-8.9739e-06,2040.4,-0.00014365,1028.5,5.2875e-05
23176,0.18365,0.81818,0.1,0.00059395,5935.4,0.00056738,5910.8,-8.1705e-06,1586.4,-0.00033325,-856.14,0.00019376
23177,0.27548,0.72727,0.1,0.00053713,5367.6,0.00053337,5740.7,-2.3675e-05,1555.3,-0.00027204,-310.83,0.00039815
23178,0.091827,0.72727,0.1,0.00044083,4405.2,0.00048785,6018.2,-4.5217e-06,2318.7,-0.00016073,1145,5.8795e-05
23179,0.18365,1,0.1,0.00062823,6278,0.00059957,6260.6,-4.9075e-06,1718.9,-0.0003539,-903.36,0.00020463
23180,0.27548,0.90909,0.1,0.00056788,5674.8,0.00056255,6091.9,-1.4536e-05,1755.9,-0.00029226,-330.82,0.00042554
23181,0.091827,0.90909,0.1,0.00047075,4704.2,0.00052091,6434.5,-2.6459e-06,2500.7,-0.00017262,1223.6,6.2791e-05
23182,0.18365,1.1818,0.1,0.00065422,6537.7,0.00062415,6525.8,-3.1803e-06,1812.3,-0.00036918,-937.69,0.00021262
23183,0.27548,1.0909,0.1,0.00059276,5923.5,0.00058644,6371.3,-9.4935e-06,1893.7,-0.00030749,-345.4,0.00044553
23184,0.091827,1.0909,0.1,0.00049288,4925.4,0.00054529,6739.1,-1.6784e-06,2629.3,-0.00018134,1279.5,6.5653e-05
23185,0.18365,1.3636,0.1,0.0006742,6737.3,0.00064314,6729.8,-2.1884e-06,1881.1,-0.00038075,-963.26,0.00021865
23186,0.27548,1.2727,0.1,0.00061264,6122.2,0.00060568,6592.7,-6.5296e-06,1992.8,-0.00031915,-356.12,0.00046056
23187,0.091827,1.2727,0.1,0.00050963,5092.8,0.00056372,6968.2,-1.1401e-06,2724,-0.00018788,1320.9,6.7779e-05
23188,0.18365,1.5455,0.1,0.00068974,6892.6,0.00065795,6888.6,-1.5762e-06,1933.2,-0.00038966,-982.77,0.00022328
23189,0.27548,1.4545,0.1,0.0006285,6280.7,0.0006211,6768.5,-4.6854e-06,2066.6,-0.00032821,-364.27,0.00047207
23190,0.091827,1.4545,0.1,0.00052252,5221.6,0.00057789,7143.8,-8.1252e-07,2795.6,-0.00019289,1352.4,6.9394e-05
23191,0.18365,1.7273,0.1,0.0007019,7014.1,0.00066956,7012.9,-1.18e-06,1973.2,-0.00039659,-997.82,0.00022688
23192,0.27548,1.6364,0.1,0.00064115,6407,0.00063345,6908.3,-3.4869e-06,2122.6,-0.00033531,-370.54,0.00048099
23193,0.091827,1.6364,0.1,0.00053254,5321.7,0.00058891,7280,-6.0281e-07,2850.7,-0.00019679,1376.6,7.0639e-05
23194,0.18365,1.9091,0.1,0.00071142,7109.3,0.00067867,7110.2,-9.1444e-07,2004.1,-0.000402,-1009.5,0.00022968
23195,0.27548,1.8182,0.1,0.00065121,6507.6,0.0006433,7019.3,-2.6816e-06,2165.7,-0.00034088,-375.41,0.00048795
23196,0.091827,1.8182,0.1,0.00054037,5400,0.00059751,7386.2,-4.6304e-07,2893.3,-0.00019982,1395.4,7.1606e-05
23197,0.18365,2.0909,0.1,0.00071882,7183.2,0.00068575,7185.9,-7.3262e-07,2027.9,-0.00040618,-1018.5,0.00023184
23198,0.27548,2,0.1,0.00065915,6587,0.00065109,7106.9,-2.1282e-06,2198.9,-0.00034525,-379.19,0.00049337
23199,0.091827,2,0.1,0.00054648,5461,0.00060421,7468.9,-3.6746e-07,2926.4,-0.00020219,1410,7.2355e-05
23200,0.18365,2.2727,0.1,0.00072447,7239.7,0.00069116,7243.7,-6.0726e-07,2046,-0.00040937,-1025.3,0.00023349
23201,0.27548,2.1818,0.1,0.00066534,6648.8,0.00065716,7175,-1.7436e-06,2224.2,-0.00034862,-382.08,0.00049754
23202,0.091827,2.1818,0.1,0.00055118,5508,0.00060937,7532.6,-3.0123e-07,2951.7,-0.00020401,1421.2,7.2931e-05
23203,0.18365,2.4545,0.1,0.00072863,7281.2,0.00069515,7286.3,-5.2196e-07,2059.2,-0.00041172,-1030.3,0.0002347
23204,0.27548,2.3636,0.1,0.00067002,6695.5,0.00066176,7226.5,-1.4776e-06,2243.2,-0.00035117,-384.25,0.00050067
23205,0.091827,2.3636,0.1,0.00055471,5543.3,0.00061325,7580.3,-2.5549e-07,2970.7,-0.00020537,1429.5,7.3362e-05
23206,0.18365,2.6364,0.1,0.00073148,7309.8,0.00069789,7315.5,-4.6676e-07,2068.3,-0.00041332,-1033.7,0.00023553
23207,0.27548,2.5455,0.1,0.00067338,6729.1,0.00066507,7263.5,-1.2991e-06,2256.7,-0.00035299,-385.79,0.0005029
23208,0.091827,2.5455,0.1,0.00055724,5568.5,0.00061602,7614.4,-2.2483e-07,2984.2,-0.00020635,1435.5,7.3669e-05
23209,0.18365,2.8182,0.1,0.00073315,7326.4,0.00069949,7332.6,-4.3573e-07,2073.6,-0.00041426,-1035.7,0.00023601
23210,0.27548,2.7273,0.1,0.00067555,6750.9,0.00066721,7287.4,-1.1891e-06,2265.3,-0.00035416,-386.78,0.00050434
23211,0.091827,2.7273,0.1,0.00055886,5584.8,0.0006178,7636.4,-2.0594e-07,2992.9,-0.00020698,1439.3,7.3867e-05
23212,0.18365,3,0.1,0.0007337,7331.9,0.00070001,7338.2,-4.2571e-07,2075.3,-0.00041457,-1036.4,0.00023617
23213,0.27548,2.9091,0.1,0.00067662,6761.5,0.00066826,7299.2,-1.1367e-06,2269.6,-0.00035474,-387.27,0.00050505
23214,0.091827,2.9091,0.1,0.00055966,5592.7,0.00061868,7647.2,-1.9693e-07,2997.2,-0.00020729,1441.2,7.3964e-05
23215,0.18365,3.1818,0.1,0.00073315,7326.4,0.00069949,7332.6,-4.3573e-07,2073.6,-0.00041426,-1035.7,0.00023601
23216,0.27548,3.0909,0.1,0.00067662,6761.5,0.00066826,7299.2,-1.1367e-06,2269.6,-0.00035474,-387.27,0.00050505
23217,0.091827,3.0909,0.1,0.00055966,5592.7,0.00061868,7647.2,-1.9693e-07,2997.2,-0.00020729,1441.2,7.3964e-05
23218,0.18365,3.3636,0.1,0.00073148,7309.8,0.00069789,7315.5,-4.6676e-07,2068.3,-0.00041332,-1033.7,0.00023553
23219,0.27548,3.2727,0.1,0.00067555,6750.9,0.00066721,7287.4,-1.1891e-06,2265.3,-0.00035416,-386.78,0.00050434
23220,0.091827,3.2727,0.1,0.00055886,5584.8,0.0006178,7636.4,-2.0594e-07,2992.9,-0.00020698,1439.3,7.3867e-05
23221,0.18365,3.5455,0.1,0.00072863,7281.2,0.00069515,7286.3,-5.2196e-07,2059.2,-0.00041172,-1030.3,0.0002347
23222,0.27548,3.4545,0.1,0.00067338,6729.1,0.00066507,7263.5,-1.2991e-06,2256.7,-0.00035299,-385.79,0.0005029
23223,0.091827,3.4545,0.1,0.00055724,5568.5,0.00061602,7614.4,-2.2483e-07,2984.2,-0.00020635,1435.5,7.3669e-05
23224,0.18365,3.7273,0.1,0.00072447,7239.7,0.00069116,7243.7,-6.0726e-07,2046,-0.00040937,-1025.3,0.00023349
23225,0.27548,3.6364,0.1,0.00067002,6695.5,0.00066176,7226.5,-1.4776e-06,2243.2,-0.00035117,-384.25,0.00050067
23226,0.091827,3.6364,0.1,0.00055471,5543.3,0.00061325,7580.3,-2.5549e-07,2970.7,-0.00020537,1429.5,7.3362e-05
23227,0.18365,3.9091,0.1,0.00071882,7183.2,0.00068575,7185.9,-7.3262e-07,2027.9,-0.00040618,-1018.5,0.00023184
23228,0.27548,3.8182,0.1,0.00066534,6648.8,0.00065716,7175,-1.7436e-06,2224.2,-0.00034862,-382.08,0.00049754
23229,0.091827,3.8182,0.1,0.00055118,5508,0.00060937,7532.6,-3.0123e-07,2951.7,-0.00020401,1421.2,7.2931e-05
23230,0.18365,4.0909,0.1,0.00071142,7109.3,0.00067867,7110.2,-9.1444e-07,2004.1,-0.000402,-1009.5,0.00022968
23231,0.27548,4,0.1,0.00065915,6587,0.00065109,7106.9,-2.1282e-06,2198.9,-0.00034525,-379.19,0.00049337
23232,0.091827,4,0.1,0.00054648,5461,0.00060421,7468.9,-3.6746e-07,2926.4,-0.00020219,1410,7.2355e-05
23233,0.18365,4.2727,0.1,0.0007019,7014.1,0.00066956,7012.9,-1.18e-06,1973.2,-0.00039659,-997.82,0.00022688
23234,0.27548,4.1818,0.1,0.00065121,6507.6,0.0006433,7019.3,-2.6816e-06,2165.7,-0.00034088,-375.41,0.00048795
23235,0.091827,4.1818,0.1,0.00054037,5400,0.00059751,7386.2,-4.6304e-07,2893.3,-0.00019982,1395.4,7.1606e-05
23236,0.18365,4.4545,0.1,0.00068974,6892.6,0.00065795,6888.6,-1.5762e-06,1933.2,-0.00038966,-982.77,0.00022328
23237,0.27548,4.3636,0.1,0.00064115,6407,0.00063345,6908.3,-3.4869e-06,2122.6,-0.00033531,-370.54,0.00048099
23238,0.091827,4.3636,0.1,0.00053254,5321.7,0.00058891,7280,-6.0281e-07,2850.7,-0.00019679,1376.6,7.0639e-05
23239,0.18365,4.6364,0.1,0.0006742,6737.3,0.00064314,6729.8,-2.1884e-06,1881.1,-0.00038075,-963.26,0.00021865
23240,0.27548,4.5455,0.1,0.0006285,6280.7,0.0006211,6768.5,-4.6854e-06,2066.6,-0.00032821,-364.27,0.00047207
23241,0.091827,4.5455,0.1,0.00052252,5221.6,0.00057789,7143.8,-8.1252e-07,2795.6,-0.00019289,1352.4,6.9394e-05
23242,0.18365,4.8182,0.1,0.00065422,6537.7,0.00062415,6525.8,-3.1803e-06,1812.3,-0.00036918,-937.69,0.00021262
23243,0.27548,4.7273,0.1,0.00061264,6122.2,0.00060568,6592.7,-6.5296e-06,1992.8,-0.00031915,-356.12,0.00046056
23244,0.091827,4.7273,0.1,0.00050963,5092.8,0.00056372,6968.2,-1.1401e-06,2724,-0.00018788,1320.9,6.7779e-05
23245,0.18365,5,0.1,0.00062823,6278,0.00059957,6260.6,-4.9075e-06,1718.9,-0.0003539,-903.36,0.00020463
23246,0.27548,4.9091,0.1,0.00059276,5923.5,0.00058644,6371.3,-9.4935e-06,1893.7,-0.00030749,-345.4,0.00044553
23247,0.091827,4.9091,0.1,0.00049288,4925.4,0.00054529,6739.1,-1.6784e-06,2629.3,-0.00018134,1279.5,6.5653e-05
23248,0.18365,5.1818,0.1,0.00059395,5935.4,0.00056738,5910.9,-8.1705e-06,1586.4,-0.00033325,-856.14,0.00019376
23249,0.27548,5.0909,0.1,0.00056788,5674.8,0.00056255,6091.9,-1.4536e-05,1755.9,-0.00029226,-330.82,0.00042554
23250,0.091827,5.0909,0.1,0.00047075,4704.2,0.00052091,6434.5,-2.6459e-06,2500.7,-0.00017262,1223.6,6.2791e-05
23251,0.18365,5.3636,0.1,0.00054821,5478.3,0.00052512,5445,-1.5341e-05,1384.2,-0.00030416,-785.91,0.00017836
23252,0.27548,5.2727,0.1,0.00053713,5367.6,0.00053337,5740.7,-2.3675e-05,1555.3,-0.00027204,-310.83,0.00039815
23253,0.091827,5.2727,0.1,0.00044083,4405.2,0.00048785,6018.2,-4.5217e-06,2318.7,-0.00016073,1145,5.8795e-05
23254,0.18365,5.5455,0.1,0.00048806,4877.2,0.00047097,4828.2,-3.2484e-05,1045.5,-0.00026165,-676.35,0.00015514
23255,0.27548,5.4545,0.1,0.00050088,5005.3,0.00049956,5310.7,-4.1547e-05,1245.1,-0.00024447,-279.6,0.00035907
23256,0.091827,5.4545,0.1,0.0003992,3989.2,0.00044166,5426.3,-8.9739e-06,2040.4,-0.00014365,1028.5,5.2875e-05
23257,0.18365,5.7273,0.1,0.00042575,4254.5,0.00041856,4171,-8.1623e-05,412.87,-0.00019622,-448.18,0.00011685
23258,0.27548,5.6364,0.1,0.00046468,4643.6,0.0004655,4819.5,-7.692e-05,743.98,-0.00020732,-235.77,0.00030003
23259,0.091827,5.6364,0.1,0.00034106,3408.3,0.00037585,4546.4,-2.1044e-05,1564.3,-0.00011861,831.25,4.3432e-05
23260,0.27548,5.8182,0.1,0.00045413,4538.2,0.00045116,4455.3,-0.00014134,3.4814,-0.00016371,-164.61,0.00020617
23261,0.091827,5.8182,0.1,0.00027104,2708.5,0.00028716,3190.3,-6.133e-05,571.9,-8.422e-05,399.91,2.6262e-05
23262,0.18365,5.9091,0.1,0.00038456,3842.9,0.00037908,3685.5,-0.00012319,-88.38,-0.00014109,-222.91,5.2476e-05
23263,0.36731,0.27273,0.1,0.00048968,4893.5,0.00049609,5088.6,-0.0001403,307.09,-0.00016913,90.444,0.00046958
23264,0.45913,0.18182,0.1,0.00053042,5300.6,0.00052936,5272,-0.00016677,41.557,-0.00018507,-95.958,0.00064918
23265,0.36731,0.090909,0.1,0.00049296,4926.2,0.00049093,4870,-0.00015408,23.656,-0.00017485,-132.42,0.00029398
23266,0.36731,0.45455,0.1,0.00048006,4797.3,0.00049406,5301.8,-8.6043e-05,943.11,-0.00019004,161.7,0.00058709
23267,0.45913,0.36364,0.1,0.00050656,5062.1,0.00051476,5337.5,-0.0001241,537.38,-0.00018912,48.84,0.000846
23268,0.36731,0.63636,0.1,0.00049282,4924.8,0.00050877,5613.6,-5.0844e-05,1408.9,-0.00021234,195.54,0.00066648
23269,0.45913,0.54545,0.1,0.00050619,5058.4,0.00051796,5541.8,-8.1053e-05,1041,-0.00021065,67.298,0.00098392
23270,0.36731,0.81818,0.1,0.00051338,5130.2,0.00052944,5928.5,-3.0926e-05,1718.1,-0.00023105,214.46,0.00072218
23271,0.45913,0.72727,0.1,0.00051789,5175.4,0.00053013,5788,-5.261e-05,1409.6,-0.00023003,76.539,0.0010821
23272,0.36731,1,0.1,0.00053411,5337.4,0.00055004,6207.2,-1.9737e-05,1926.1,-0.00024586,227.11,0.00076271
23273,0.45913,0.90909,0.1,0.00053389,5335.2,0.00054568,6031,-3.4858e-05,1669.1,-0.00024603,82.37,0.0011537
23274,0.36731,1.1818,0.1,0.0005525,5521.2,0.00056837,6441.2,-1.324e-05,2071.2,-0.00025747,236.16,0.00079306
23275,0.45913,1.0909,0.1,0.00055014,5497.6,0.00056141,6250.1,-2.3856e-05,1852.6,-0.00025893,86.408,0.0012074
23276,0.36731,1.3636,0.1,0.00056802,5676.3,0.0005839,6633.3,-9.2773e-06,2176.4,-0.00026662,242.85,0.00081626
23277,0.45913,1.2727,0.1,0.00056495,5645.6,0.00057582,6438.9,-1.6885e-05,1985.6,-0.00026926,89.34,0.0012485
23278,0.36731,1.5455,0.1,0.00058084,5804.4,0.00059677,6789.5,-6.7533e-06,2254.9,-0.00027386,247.94,0.00083425
23279,0.45913,1.4545,0.1,0.00057778,5773.8,0.00058838,6597.7,-1.234e-05,2084.1,-0.00027754,91.544,0.0012803
23280,0.36731,1.7273,0.1,0.00059129,5908.9,0.00060729,6915.5,-5.0864e-06,2314.4,-0.0002796,251.85,0.00084829
23281,0.45913,1.6364,0.1,0.0005886,5882,0.00059904,6729.3,-9.2946e-06,2158.6,-0.00028417,93.231,0.0013052
23282,0.36731,1.9091,0.1,0.00059972,5993.1,0.00061578,7016.5,-3.9552e-06,2360,-0.00028413,254.88,0.00085927
23283,0.45913,1.8182,0.1,0.00059756,5971.5,0.00060789,6837,-7.2058e-06,2215.4,-0.00028947,94.534,0.0013247
23284,0.36731,2.0909,0.1,0.00060641,6059.9,0.00062254,7096.3,-3.1745e-06,2394.9,-0.00028769,257.21,0.0008678
23285,0.45913,2,0.1,0.00060485,6044.3,0.00061511,6923.8,-5.75e-06,2258.9,-0.00029368,95.541,0.00134
23286,0.36731,2.2727,0.1,0.0006116,6111.8,0.00062778,7158,-2.6334e-06,2421.3,-0.00029042,258.98,0.0008743
23287,0.45913,2.1818,0.1,0.00061063,6102.1,0.00062086,6992.4,-4.7286e-06,2292,-0.00029696,96.311,0.0013518
23288,0.36731,2.4545,0.1,0.00061547,6150.4,0.00063169,7203.8,-2.2641e-06,2440.5,-0.00029244,260.27,0.00087909
23289,0.45913,2.3636,0.1,0.00061508,6146.6,0.00062528,7045,-4.0173e-06,2316.7,-0.00029945,96.887,0.0013606
23290,0.36731,2.6364,0.1,0.00061814,6177.1,0.0006344,7235.5,-2.0246e-06,2453.7,-0.00029383,261.15,0.00088237
23291,0.45913,2.5455,0.1,0.00061831,6178.9,0.0006285,7083.1,-3.5379e-06,2334.2,-0.00030125,97.297,0.001367
23292,0.36731,2.8182,0.1,0.00061971,6192.8,0.00063599,7254,-1.8897e-06,2461.3,-0.00029464,261.67,0.00088429
23293,0.45913,2.7273,0.1,0.00062042,6199.9,0.0006306,7107.8,-3.2416e-06,2345.4,-0.00030241,97.56,0.0013711
23294,0.36731,3,0.1,0.00062023,6198,0.00063651,7260.2,-1.8462e-06,2463.8,-0.00029491,261.84,0.00088492
23295,0.45913,2.9091,0.1,0.00062146,6210.3,0.00063164,7120,-3.1e-06,2350.9,-0.00030298,97.689,0.0013731
23296,0.36731,3.1818,0.1,0.00061971,6192.8,0.00063599,7254,-1.8897e-06,2461.3,-0.00029464,261.67,0.00088429
23297,0.45913,3.0909,0.1,0.00062146,6210.3,0.00063164,7120,-3.1e-06,2350.9,-0.00030298,97.689,0.0013731
23298,0.36731,3.3636,0.1,0.00061814,6177.1,0.0006344,7235.5,-2.0246e-06,2453.7,-0.00029383,261.15,0.00088237
23299,0.45913,3.2727,0.1,0.00062042,6199.9,0.0006306,7107.8,-3.2416e-06,2345.4,-0.00030241,97.56,0.0013711
23300,0.36731,3.5455,0.1,0.00061547,6150.4,0.00063169,7203.8,-2.2641e-06,2440.5,-0.00029244,260.27,0.00087909
23301,0.45913,3.4545,0.1,0.00061831,6178.9,0.0006285,7083.1,-3.5379e-06,2334.2,-0.00030125,97.297,0.001367
23302,0.36731,3.7273,0.1,0.0006116,6111.8,0.00062778,7158,-2.6334e-06,2421.3,-0.00029042,258.98,0.0008743
23303,0.45913,3.6364,0.1,0.00061508,6146.6,0.00062528,7045,-4.0173e-06,2316.7,-0.00029945,96.887,0.0013606
23304,0.36731,3.9091,0.1,0.00060641,6059.9,0.00062254,7096.3,-3.1745e-06,2394.9,-0.00028769,257.21,0.0008678
23305,0.45913,3.8182,0.1,0.00061063,6102.1,0.00062086,6992.4,-4.7286e-06,2292,-0.00029696,96.311,0.0013518
23306,0.36731,4.0909,0.1,0.00059972,5993.1,0.00061578,7016.5,-3.9552e-06,2360,-0.00028413,254.88,0.00085927
23307,0.45913,4,0.1,0.00060485,6044.3,0.00061511,6923.8,-5.75e-06,2258.9,-0.00029368,95.541,0.00134
23308,0.36731,4.2727,0.1,0.00059129,5908.9,0.00060729,6915.5,-5.0864e-06,2314.4,-0.0002796,251.85,0.00084829
23309,0.45913,4.1818,0.1,0.00059756,5971.5,0.00060789,6837,-7.2058e-06,2215.4,-0.00028947,94.534,0.0013247
23310,0.36731,4.4545,0.1,0.00058084,5804.4,0.00059677,6789.5,-6.7533e-06,2254.9,-0.00027386,247.94,0.00083425
23311,0.45913,4.3636,0.1,0.0005886,5882,0.00059904,6729.3,-9.2946e-06,2158.6,-0.00028417,93.231,0.0013052
23312,0.36731,4.6364,0.1,0.00056802,5676.3,0.0005839,6633.3,-9.2773e-06,2176.4,-0.00026662,242.85,0.00081626
23313,0.45913,4.5455,0.1,0.00057778,5773.8,0.00058838,6597.7,-1.234e-05,2084.1,-0.00027754,91.544,0.0012803
23314,0.36731,4.8182,0.1,0.0005525,5521.2,0.00056837,6441.2,-1.324e-05,2071.2,-0.00025747,236.16,0.00079306
23315,0.45913,4.7273,0.1,0.00056495,5645.6,0.00057582,6438.9,-1.6885e-05,1985.6,-0.00026926,89.34,0.0012485
23316,0.36731,5,0.1,0.00053411,5337.4,0.00055004,6207.2,-1.9737e-05,1926.1,-0.00024586,227.11,0.00076271
23317,0.45913,4.9091,0.1,0.00055014,5497.6,0.00056141,6250.1,-2.3856e-05,1852.6,-0.00025893,86.408,0.0012074
23318,0.36731,5.1818,0.1,0.00051338,5130.2,0.00052944,5928.5,-3.0926e-05,1718.1,-0.00023105,214.46,0.00072218
23319,0.45913,5.0909,0.1,0.00053389,5335.2,0.00054568,6031,-3.4858e-05,1669.1,-0.00024603,82.37,0.0011537
23320,0.36731,5.3636,0.1,0.00049282,4924.8,0.00050877,5613.6,-5.0844e-05,1408.9,-0.00021234,195.54,0.00066648
23321,0.45913,5.2727,0.1,0.00051789,5175.4,0.00053013,5788,-5.261e-05,1409.6,-0.00023003,76.539,0.0010821
23322,0.36731,5.5455,0.1,0.00048006,4797.3,0.00049406,5301.8,-8.6043e-05,943.11,-0.00019004,161.7,0.00058709
23323,0.45913,5.4545,0.1,0.00050619,5058.4,0.00051796,5541.8,-8.1053e-05,1041,-0.00021065,67.298,0.00098392
23324,0.36731,5.7273,0.1,0.00048968,4893.5,0.00049609,5088.6,-0.0001403,307.09,-0.00016913,90.444,0.00046958
23325,0.45913,5.6364,0.1,0.00050656,5062.1,0.00051476,5337.5,-0.0001241,537.38,-0.00018912,48.84,0.000846
23326,0.45913,5.8182,0.1,0.00053042,5300.6,0.00052936,5272,-0.00016677,41.557,-0.00018507,-95.958,0.00064918
23327,0.36731,5.9091,0.1,0.00049296,4926.2,0.00049093,4870,-0.00015408,23.656,-0.00017485,-132.42,0.00029398
23328,0.55096,0.27273,0.1,0.0005458,5454.2,0.00054783,5519.3,-0.00016417,169.66,-0.00019125,-33.785,0.0011234
23329,0.64279,0.18182,0.1,0.00057068,5702.8,0.0005693,5663.6,-0.00018316,9.904,-0.00019607,-87.071,0.001413
23330,0.55096,0.090909,0.1,0.00054741,5470.3,0.00054536,5411.4,-0.00017605,-9.0343,-0.00018917,-107.59,0.00083138
23331,0.55096,0.45455,0.1,0.00053136,5309.9,0.00053815,5573.7,-0.00011873,638.15,-0.00020959,-44.576,0.001337
23332,0.64279,0.36364,0.1,0.0005476,5472.2,0.00055264,5641,-0.00014806,376.21,-0.00020045,-17.39,0.0017161
23333,0.55096,0.63636,0.1,0.00053057,5302.1,0.0005389,5713,-8.2429e-05,1044.6,-0.0002283,-51.483,0.0014927
23334,0.64279,0.54545,0.1,0.00053831,5379.4,0.00054681,5717,-0.00010959,785.1,-0.00021665,-19.307,0.0019437
23335,0.55096,0.81818,0.1,0.0005382,5378.3,0.00054622,5889.4,-5.6412e-05,1361.5,-0.000245,-55.478,0.0016077
23336,0.64279,0.72727,0.1,0.00053816,5377.9,0.00054772,5840.1,-7.8902e-05,1131.9,-0.00023231,-20.73,0.0021149
23337,0.55096,1,0.1,0.00054992,5495.4,0.00055706,6074,-3.9007e-05,1595.4,-0.0002591,-58.308,0.0016943
23338,0.64279,0.90909,0.1,0.00054412,5437.5,0.00055343,5986.3,-5.6545e-05,1403.3,-0.0002462,-21.726,0.002245
23339,0.55096,1.1818,0.1,0.00056264,5622.6,0.00056893,6248.4,-2.7584e-05,1766.4,-0.00027071,-60.398,0.0017606
23340,0.64279,1.0909,0.1,0.0005531,5527.2,0.00056172,6136.7,-4.0925e-05,1608.7,-0.00025803,-22.525,0.0023452
23341,0.55096,1.3636,0.1,0.00057477,5743.7,0.00058038,6404,-2.0031e-05,1892.7,-0.00028018,-61.966,0.0018121
23342,0.64279,1.2727,0.1,0.00056299,5626,0.00057089,6279.2,-3.0142e-05,1763.3,-0.0002679,-23.132,0.0024233
23343,0.55096,1.5455,0.1,0.0005856,5852,0.00059072,6538.1,-1.4948e-05,1987.4,-0.00028786,-63.164,0.0018525
23344,0.64279,1.4545,0.1,0.0005726,5722,0.0005799,6407.7,-2.2668e-05,1880.2,-0.00027605,-23.601,0.0024846
23345,0.55096,1.7273,0.1,0.00059492,5945.1,0.00059969,6651.1,-1.1461e-05,2059.2,-0.00029405,-64.089,0.0018842
23346,0.64279,1.6364,0.1,0.00058133,5809.3,0.00058817,6519.6,-1.7434e-05,1969.3,-0.00028273,-23.965,0.0025331
23347,0.55096,1.9091,0.1,0.00060273,6023.1,0.00060725,6744.5,-9.0316e-06,2114.1,-0.00029902,-64.806,0.0019092
23348,0.64279,1.8182,0.1,0.00058895,5885.5,0.00059544,6614.8,-1.3729e-05,2037.7,-0.00028815,-24.248,0.0025715
23349,0.55096,2.0909,0.1,0.0006091,6086.8,0.00061345,6820.1,-7.3224e-06,2155.9,-0.00030295,-65.359,0.0019288
23350,0.64279,2,0.1,0.00059538,5949.7,0.00060162,6693.7,-1.1086e-05,2090.1,-0.00029251,-24.467,0.0026017
23351,0.55096,2.2727,0.1,0.00061414,6137.2,0.00061837,6879.5,-6.1215e-06,2187.4,-0.000306,-65.779,0.0019437
23352,0.64279,2.1818,0.1,0.00060064,6002.2,0.00060669,6757.5,-9.2004e-06,2129.9,-0.00029595,-24.635,0.0026251
23353,0.55096,2.4545,0.1,0.00061796,6175.3,0.0006221,6924.3,-5.2937e-06,2210.3,-0.00030826,-66.086,0.0019547
23354,0.64279,2.3636,0.1,0.00060476,6043.4,0.00061068,6807.1,-7.8713e-06,2159.5,-0.00029858,-24.761,0.0026428
23355,0.55096,2.6364,0.1,0.00062062,6201.9,0.00062471,6955.4,-4.7533e-06,2225.9,-0.00030983,-66.297,0.0019623
23356,0.64279,2.5455,0.1,0.00060779,6073.7,0.00061363,6843.5,-6.9677e-06,2180.5,-0.00030048,-24.85,0.0026555
23357,0.55096,2.8182,0.1,0.00062219,6217.6,0.00062625,6973.8,-4.4479e-06,2235,-0.00031075,-66.419,0.0019667
23358,0.64279,2.7273,0.1,0.00060979,6093.7,0.00061557,6867.3,-6.406e-06,2194,-0.00030172,-24.908,0.0026637
23359,0.55096,3,0.1,0.00062271,6222.8,0.00062676,6979.9,-4.3491e-06,2238,-0.00031105,-66.46,0.0019682
23360,0.64279,2.9091,0.1,0.00061078,6103.6,0.00061654,6879.1,-6.1366e-06,2200.5,-0.00030233,-24.936,0.0026677
23361,0.55096,3.1818,0.1,0.00062219,6217.6,0.00062625,6973.8,-4.4479e-06,2235,-0.00031075,-66.419,0.0019667
23362,0.64279,3.0909,0.1,0.00061078,6103.6,0.00061654,6879.1,-6.1366e-06,2200.5,-0.00030233,-24.936,0.0026677
23363,0.55096,3.3636,0.1,0.00062062,6201.9,0.00062471,6955.4,-4.7533e-06,2225.9,-0.00030983,-66.297,0.0019623
23364,0.64279,3.2727,0.1,0.00060979,6093.7,0.00061557,6867.3,-6.406e-06,2194,-0.00030172,-24.908,0.0026637
23365,0.55096,3.5455,0.1,0.00061796,6175.3,0.0006221,6924.3,-5.2937e-06,2210.3,-0.00030826,-66.086,0.0019547
23366,0.64279,3.4545,0.1,0.00060779,6073.7,0.00061363,6843.5,-6.9677e-06,2180.5,-0.00030048,-24.85,0.0026555
23367,0.55096,3.7273,0.1,0.00061414,6137.2,0.00061837,6879.5,-6.1215e-06,2187.4,-0.000306,-65.779,0.0019437
23368,0.64279,3.6364,0.1,0.00060476,6043.4,0.00061068,6807.1,-7.8713e-06,2159.5,-0.00029858,-24.761,0.0026428
23369,0.55096,3.9091,0.1,0.0006091,6086.8,0.00061345,6820.1,-7.3224e-06,2155.9,-0.00030295,-65.359,0.0019288
23370,0.64279,3.8182,0.1,0.00060064,6002.2,0.00060669,6757.5,-9.2004e-06,2129.9,-0.00029595,-24.635,0.0026251
23371,0.55096,4.0909,0.1,0.00060273,6023.1,0.00060725,6744.5,-9.0316e-06,2114.1,-0.00029902,-64.806,0.0019092
23372,0.64279,4,0.1,0.00059538,5949.7,0.00060162,6693.7,-1.1086e-05,2090.1,-0.00029251,-24.467,0.0026017
23373,0.55096,4.2727,0.1,0.00059492,5945.1,0.00059969,6651.1,-1.1461e-05,2059.2,-0.00029405,-64.089,0.0018842
23374,0.64279,4.1818,0.1,0.00058895,5885.5,0.00059544,6614.8,-1.3729e-05,2037.7,-0.00028815,-24.248,0.0025715
23375,0.55096,4.4545,0.1,0.0005856,5852,0.00059072,6538.1,-1.4948e-05,1987.4,-0.00028786,-63.164,0.0018525
23376,0.64279,4.3636,0.1,0.00058133,5809.3,0.00058817,6519.6,-1.7434e-05,1969.3,-0.00028273,-23.965,0.0025331
23377,0.55096,4.6364,0.1,0.00057477,5743.7,0.00058038,6404,-2.0031e-05,1892.7,-0.00028018,-61.966,0.0018121
23378,0.64279,4.5455,0.1,0.0005726,5722,0.0005799,6407.7,-2.2668e-05,1880.2,-0.00027605,-23.601,0.0024846
23379,0.55096,4.8182,0.1,0.00056264,5622.6,0.00056893,6248.4,-2.7584e-05,1766.4,-0.00027071,-60.398,0.0017606
23380,0.64279,4.7273,0.1,0.00056299,5626,0.00057089,6279.2,-3.0142e-05,1763.3,-0.0002679,-23.132,0.0024233
23381,0.55096,5,0.1,0.00054992,5495.4,0.00055706,6074,-3.9007e-05,1595.4,-0.0002591,-58.308,0.0016943
23382,0.64279,4.9091,0.1,0.0005531,5527.2,0.00056172,6136.7,-4.0925e-05,1608.7,-0.00025803,-22.525,0.0023452
23383,0.55096,5.1818,0.1,0.0005382,5378.3,0.00054622,5889.4,-5.6412e-05,1361.5,-0.000245,-55.478,0.0016077
23384,0.64279,5.0909,0.1,0.00054412,5437.5,0.00055343,5986.3,-5.6545e-05,1403.3,-0.0002462,-21.726,0.002245
23385,0.55096,5.3636,0.1,0.00053057,5302.1,0.0005389,5713,-8.2429e-05,1044.6,-0.0002283,-51.483,0.0014927
23386,0.64279,5.2727,0.1,0.00053817,5377.9,0.00054772,5840.1,-7.8902e-05,1131.9,-0.00023231,-20.73,0.0021149
23387,0.55096,5.5455,0.1,0.00053136,5309.9,0.00053815,5573.7,-0.00011873,638.15,-0.00020959,-44.576,0.001337
23388,0.64279,5.4545,0.1,0.00053831,5379.4,0.00054681,5717,-0.00010959,785.1,-0.00021665,-19.307,0.0019437
23389,0.55096,5.7273,0.1,0.0005458,5454.2,0.00054783,5519.3,-0.00016417,169.66,-0.00019125,-33.785,0.0011234
23390,0.64279,5.6364,0.1,0.0005476,5472.2,0.00055264,5641,-0.00014806,376.21,-0.00020045,-17.39,0.0017161
23391,0.64279,5.8182,0.1,0.00057068,5702.8,0.0005693,5663.6,-0.00018316,9.904,-0.00019607,-87.071,0.001413
23392,0.55096,5.9091,0.1,0.00054741,5470.3,0.00054536,5411.4,-0.00017605,-9.0343,-0.00018917,-107.59,0.00083138
23393,0.73462,0.27273,0.1,0.00057178,5713.9,0.00057412,5785.3,-0.00017641,146.16,-0.00019591,-0.40285,0.002115
23394,0.82644,0.18182,0.1,0.00059097,5905.6,0.00059016,5882.6,-0.00019058,16.434,-0.00020098,-61.695,0.0025306
23395,0.73462,0.090909,0.1,0.00057605,5756.5,0.0005748,5720.4,-0.00018635,1.4303,-0.00019625,-72.929,0.0017119
23396,0.73462,0.45455,0.1,0.00055394,5535.5,0.00056118,5783.5,-0.00013888,523.45,-0.00020743,8.4441,0.0024269
23397,0.82644,0.36364,0.1,0.00056878,5683.8,0.00057345,5833.6,-0.00016144,311.96,-0.0002029,0.40779,0.0029363
23398,0.73462,0.63636,0.1,0.00054546,5450.8,0.00055538,5842.3,-0.00010584,874.13,-0.00022063,11.593,0.0026666
23399,0.82644,0.54545,0.1,0.00055599,5556.1,0.00056427,5854.2,-0.00012846,649.29,-0.00021443,3.3329,0.0032552
23400,0.73462,0.81818,0.1,0.0005439,5435.2,0.00055471,5935.4,-7.8827e-05,1175.3,-0.0002335,13.08,0.0028512
23401,0.82644,0.72727,0.1,0.00054953,5491.5,0.00055964,5910.2,-9.9403e-05,958.42,-0.0002264,4.2047,0.003505
23402,0.73462,1,0.1,0.00054729,5469.1,0.00055796,6048.2,-5.8346e-05,1417.5,-0.00024513,14.083,0.0029946
23403,0.82644,0.90909,0.1,0.00054846,5480.8,0.00055909,5991.5,-7.586e-05,1220.7,-0.00023768,4.8281,0.0037012
23404,0.73462,1.1818,0.1,0.00055351,5531.3,0.00056363,6167.3,-4.3442e-05,1605.9,-0.00025522,14.754,0.003107
23405,0.82644,1.0909,0.1,0.00055118,5508,0.00056158,6086.5,-5.7778e-05,1432.9,-0.00024779,5.1929,0.0038562
23406,0.73462,1.3636,0.1,0.0005609,5605.2,0.00057041,6282.9,-3.2778e-05,1750.8,-0.00026377,15.239,0.0031957
23407,0.82644,1.2727,0.1,0.00055609,5557.1,0.00056596,6185.6,-4.4287e-05,1600.5,-0.00025657,5.444,0.0039793
23408,0.73462,1.5455,0.1,0.00056841,5680.2,0.00057736,6389.3,-2.5168e-05,1862.1,-0.00027092,15.601,0.0032661
23409,0.82644,1.4545,0.1,0.00056196,5615.7,0.00057124,6281.7,-3.4351e-05,1731.5,-0.00026406,5.6208,0.0040775
23410,0.73462,1.7273,0.1,0.00057543,5750.3,0.00058394,6483.4,-1.9717e-05,1947.7,-0.00027683,15.878,0.0033221
23411,0.82644,1.6364,0.1,0.00056796,5675.7,0.00057672,6370.2,-2.706e-05,1833.7,-0.00027034,5.7532,0.004156
23412,0.73462,1.9091,0.1,0.00058166,5812.6,0.00058983,6564,-1.5795e-05,2013.6,-0.00028165,16.093,0.0033665
23413,0.82644,1.8182,0.1,0.00057363,5732.3,0.00058195,6448.7,-2.1711e-05,1913,-0.00027554,5.8544,0.0042186
23414,0.73462,2.0909,0.1,0.00058696,5865.5,0.00059488,6631.1,-1.297e-05,2064,-0.00028551,16.258,0.0034013
23415,0.82644,2,0.1,0.00057868,5782.8,0.00058665,6516,-1.7793e-05,1974.4,-0.00027978,5.9326,0.0042682
23416,0.73462,2.2727,0.1,0.00059128,5908.7,0.00059901,6685,-1.0951e-05,2102,-0.00028853,16.384,0.0034281
23417,0.82644,2.1818,0.1,0.00058296,5825.6,0.00059067,6571.7,-1.4939e-05,2021.3,-0.00028317,5.9927,0.0043069
23418,0.73462,2.4545,0.1,0.00059461,5942,0.00060221,6726.2,-9.5412e-06,2129.7,-0.0002908,16.476,0.0034479
23419,0.82644,2.3636,0.1,0.00058642,5860.1,0.00059393,6615.8,-1.2897e-05,2056.3,-0.00028577,6.0379,0.0043362
23420,0.73462,2.6364,0.1,0.00059697,5965.6,0.00060449,6755.3,-8.613e-06,2148.6,-0.00029238,16.539,0.0034616
23421,0.82644,2.5455,0.1,0.00058901,5886,0.00059639,6648.6,-1.1493e-05,2081.2,-0.00028768,6.0701,0.0043574
23422,0.73462,2.8182,0.1,0.00059838,5979.7,0.00060585,6772.5,-8.0855e-06,2159.6,-0.0002933,16.576,0.0034696
23423,0.82644,2.7273,0.1,0.00059074,5903.3,0.00059804,6670.3,-1.0615e-05,2097.1,-0.00028892,6.091,0.0043711
23424,0.73462,3,0.1,0.00059885,5984.4,0.00060631,6778.2,-7.9144e-06,2163.2,-0.00029361,16.588,0.0034722
23425,0.82644,2.9091,0.1,0.0005916,5911.9,0.00059886,6681.1,-1.0191e-05,2104.9,-0.00028953,6.1012,0.0043778
23426,0.73462,3.1818,0.1,0.00059838,5979.7,0.00060585,6772.5,-8.0855e-06,2159.6,-0.0002933,16.576,0.0034696
23427,0.82644,3.0909,0.1,0.0005916,5911.9,0.00059886,6681.1,-1.0191e-05,2104.9,-0.00028953,6.1012,0.0043778
23428,0.73462,3.3636,0.1,0.00059697,5965.6,0.00060449,6755.3,-8.613e-06,2148.6,-0.00029238,16.539,0.0034616
23429,0.82644,3.2727,0.1,0.00059074,5903.3,0.00059804,6670.3,-1.0615e-05,2097.1,-0.00028892,6.091,0.0043711
23430,0.73462,3.5455,0.1,0.00059461,5942,0.00060221,6726.2,-9.5413e-06,2129.7,-0.0002908,16.476,0.0034479
23431,0.82644,3.4545,0.1,0.00058901,5886,0.00059639,6648.6,-1.1493e-05,2081.2,-0.00028768,6.0701,0.0043574
23432,0.73462,3.7273,0.1,0.00059128,5908.7,0.00059901,6685,-1.0951e-05,2102,-0.00028853,16.384,0.0034281
23433,0.82644,3.6364,0.1,0.00058642,5860.1,0.00059393,6615.8,-1.2897e-05,2056.3,-0.00028577,6.0379,0.0043362
23434,0.73462,3.9091,0.1,0.00058696,5865.5,0.00059488,6631.1,-1.297e-05,2064,-0.00028551,16.258,0.0034013
23435,0.82644,3.8182,0.1,0.00058296,5825.6,0.00059067,6571.7,-1.4939e-05,2021.3,-0.00028317,5.9927,0.0043069
23436,0.73462,4.0909,0.1,0.00058166,5812.6,0.00058983,6564,-1.5795e-05,2013.6,-0.00028165,16.093,0.0033665
23437,0.82644,4,0.1,0.00057868,5782.8,0.00058665,6516,-1.7793e-05,1974.4,-0.00027978,5.9326,0.0042682
23438,0.73462,4.2727,0.1,0.00057543,5750.3,0.00058394,6483.4,-1.9717e-05,1947.7,-0.00027683,15.878,0.0033221
23439,0.82644,4.1818,0.1,0.00057363,5732.3,0.00058195,6448.7,-2.1711e-05,1913,-0.00027554,5.8544,0.0042186
23440,0.73462,4.4545,0.1,0.00056841,5680.2,0.00057736,6389.3,-2.5168e-05,1862.1,-0.00027092,15.601,0.0032661
23441,0.82644,4.3636,0.1,0.00056796,5675.7,0.00057672,6370.2,-2.706e-05,1833.7,-0.00027034,5.7532,0.004156
23442,0.73462,4.6364,0.1,0.0005609,5605.2,0.00057041,6282.9,-3.2778e-05,1750.8,-0.00026377,15.239,0.0031957
23443,0.82644,4.5455,0.1,0.00056196,5615.7,0.00057124,6281.7,-3.4351e-05,1731.5,-0.00026406,5.6208,0.0040775
23444,0.73462,4.8182,0.1,0.00055351,5531.3,0.00056363,6167.3,-4.3442e-05,1605.9,-0.00025522,14.754,0.003107
23445,0.82644,4.7273,0.1,0.00055609,5557.1,0.00056596,6185.6,-4.4287e-05,1600.5,-0.00025657,5.444,0.0039793
23446,0.73462,5,0.1,0.00054729,5469.1,0.00055796,6048.2,-5.8346e-05,1417.5,-0.00024513,14.083,0.0029946
23447,0.82644,4.9091,0.1,0.00055118,5508,0.00056158,6086.5,-5.7778e-05,1432.9,-0.00024779,5.1929,0.0038562
23448,0.73462,5.1818,0.1,0.0005439,5435.2,0.00055471,5935.4,-7.8827e-05,1175.3,-0.0002335,13.08,0.0028512
23449,0.82644,5.0909,0.1,0.00054846,5480.8,0.00055909,5991.5,-7.586e-05,1220.7,-0.00023768,4.8281,0.0037012
23450,0.73462,5.3636,0.1,0.00054546,5450.8,0.00055538,5842.3,-0.00010584,874.13,-0.00022063,11.593,0.0026666
23451,0.82644,5.2727,0.1,0.00054953,5491.5,0.00055964,5910.2,-9.9403e-05,958.42,-0.0002264,4.2047,0.003505
23452,0.73462,5.5455,0.1,0.00055394,5535.5,0.00056118,5783.5,-0.00013888,523.45,-0.00020743,8.4441,0.0024269
23453,0.82644,5.4545,0.1,0.00055599,5556.1,0.00056427,5854.2,-0.00012846,649.29,-0.00021443,3.3329,0.0032552
23454,0.73462,5.7273,0.1,0.00057178,5713.9,0.00057412,5785.3,-0.00017641,146.16,-0.00019591,-0.40285,0.0021151
23455,0.82644,5.6364,0.1,0.00056878,5683.8,0.00057345,5833.6,-0.00016144,311.96,-0.0002029,0.40779,0.0029363
23456,0.82644,5.8182,0.1,0.00059097,5905.6,0.00059016,5882.6,-0.00019058,16.434,-0.00020098,-61.695,0.0025306
23457,0.73462,5.9091,0.1,0.00057605,5756.5,0.0005748,5720.4,-0.00018635,1.4303,-0.00019625,-72.929,0.0017119
23458,0.91827,0.27273,0.1,0.00058762,5872.1,0.00058956,5931.4,-0.00018284,127.91,-0.0002008,-7.0708,0.0034683
23459,1.0101,0.18182,0.1,0.00060171,6013,0.00060122,5998.9,-0.00019507,15.935,-0.00020298,-43.518,0.0040214
23460,0.91827,0.090909,0.1,0.00059224,5918.3,0.00059133,5891.8,-0.00019296,-1.0255,-0.0001997,-51.681,0.0029615
23461,0.91827,0.45455,0.1,0.00057048,5700.9,0.00057656,5904.5,-0.0001511,437.15,-0.00020984,-4.2575,0.0038753
23462,1.0101,0.36364,0.1,0.00058169,5812.9,0.00058574,5941.4,-0.00016908,269.98,-0.00020545,-3.312,0.0045234
23463,0.91827,0.63636,0.1,0.00055969,5593,0.00056844,5921.5,-0.00012195,734.13,-0.00022018,-3.9454,0.0041999
23464,1.0101,0.54545,0.1,0.00056841,5680.2,0.00057574,5934.9,-0.00014069,551.95,-0.00021441,-2.0004,0.0049309
23465,0.91827,0.81818,0.1,0.0005538,5534.2,0.00056388,5965.2,-9.6297e-05,1004.9,-0.00023057,-4.0001,0.0044582
23466,1.0101,0.72727,0.1,0.00055937,5589.8,0.00056874,5953.9,-0.00011435,821.45,-0.00022393,-1.8606,0.0052599
23467,0.91827,1,0.1,0.00055217,5517.9,0.00056257,6028.8,-7.5156e-05,1237.1,-0.00024034,-4.0388,0.0046642
23468,1.0101,0.90909,0.1,0.00055445,5540.6,0.00056477,5994,-9.1509e-05,1063,-0.00023321,-1.7244,0.0055252
23469,0.91827,1.1818,0.1,0.00055367,5532.9,0.00056381,6104.1,-5.8522e-05,1428.2,-0.00024915,-4.1049,0.0048291
23470,1.0101,1.0909,0.1,0.000553,5526.2,0.00056349,6049.2,-7.271e-05,1269.1,-0.00024184,-1.6867,0.0057393
23471,0.91827,1.3636,0.1,0.00055711,5567.2,0.00056672,6183.9,-4.5795e-05,1581.7,-0.00025686,-4.1677,0.0049614
23472,1.0101,1.2727,0.1,0.00055406,5536.8,0.00056426,6113.1,-5.7777e-05,1439.4,-0.00024957,-1.6746,0.0059124
23473,0.91827,1.5455,0.1,0.0005615,5611.1,0.00057055,6262.3,-3.6204e-05,1703.4,-0.00026347,-4.2233,0.0050678
23474,1.0101,1.4545,0.1,0.00055667,5562.9,0.00056639,6180,-4.6173e-05,1577.4,-0.00025634,-1.6786,0.0060524
23475,0.91827,1.7273,0.1,0.00056616,5657.7,0.0005747,6335.3,-2.903e-05,1799.1,-0.00026905,-4.2687,0.0051532
23476,1.0101,1.6364,0.1,0.00056008,5597,0.00056929,6245.4,-3.7276e-05,1687.9,-0.00026215,-1.6867,0.0061657
23477,0.91827,1.9091,0.1,0.00057065,5702.6,0.00057875,6400.5,-2.3693e-05,1874,-0.00027368,-4.3045,0.0052215
23478,1.0101,1.8182,0.1,0.00056374,5633.5,0.00057247,6306.1,-3.0514e-05,1775.5,-0.00026705,-1.6952,0.0062568
23479,0.91827,2.0909,0.1,0.00057468,5742.9,0.00058243,6456.4,-1.9748e-05,1931.8,-0.00027744,-4.332,0.0052753
23480,1.0101,2,0.1,0.00056727,5668.8,0.00057559,6360,-2.5418e-05,1844.2,-0.0002711,-1.7024,0.0063295
23481,0.91827,2.2727,0.1,0.0005781,5777,0.00058558,6502.3,-1.6871e-05,1975.7,-0.0002804,-4.3525,0.005317
23482,1.0101,2.1818,0.1,0.00057044,5700.4,0.00057843,6405.8,-2.1626e-05,1897.2,-0.00027436,-1.708,0.0063866
23483,0.91827,2.4545,0.1,0.00058081,5804.1,0.0005881,6538.1,-1.4835e-05,2007.9,-0.00028265,-4.3674,0.0053479
23484,1.0101,2.3636,0.1,0.00057309,5726.9,0.00058083,6442.9,-1.8867e-05,1937.1,-0.0002769,-1.7121,0.00643
23485,0.91827,2.6364,0.1,0.00058277,5823.7,0.00058992,6563.6,-1.348e-05,2029.8,-0.00028422,-4.3774,0.0053693
23486,1.0101,2.5455,0.1,0.00057513,5747.3,0.00058269,6470.9,-1.6948e-05,1965.5,-0.00027876,-1.7148,0.0064614
23487,0.91827,2.8182,0.1,0.00058395,5835.5,0.00059103,6578.8,-1.2704e-05,2042.6,-0.00028514,-4.3832,0.0053818
23488,1.0101,2.7273,0.1,0.00057652,5761.2,0.00058396,6489.6,-1.5736e-05,1983.8,-0.00027999,-1.7165,0.0064818
23489,0.91827,3,0.1,0.00058435,5839.4,0.0005914,6583.9,-1.2452e-05,2046.8,-0.00028545,-4.3851,0.005386
23490,1.0101,2.9091,0.1,0.00057721,5768.2,0.0005846,6499,-1.515e-05,1992.7,-0.00028059,-1.7174,0.0064918
23491,0.91827,3.1818,0.1,0.00058395,5835.5,0.00059103,6578.8,-1.2704e-05,2042.6,-0.00028514,-4.3832,0.0053818
23492,1.0101,3.0909,0.1,0.00057721,5768.2,0.0005846,6499,-1.515e-05,1992.7,-0.00028059,-1.7174,0.0064918
23493,0.91827,3.3636,0.1,0.00058277,5823.7,0.00058992,6563.6,-1.348e-05,2029.8,-0.00028422,-4.3774,0.0053693
23494,1.0101,3.2727,0.1,0.00057652,5761.2,0.00058396,6489.6,-1.5736e-05,1983.8,-0.00027999,-1.7165,0.0064818
23495,0.91827,3.5455,0.1,0.00058081,5804.1,0.0005881,6538.1,-1.4835e-05,2007.9,-0.00028265,-4.3674,0.0053479
23496,1.0101,3.4545,0.1,0.00057513,5747.3,0.00058269,6470.9,-1.6948e-05,1965.5,-0.00027876,-1.7148,0.0064614
23497,0.91827,3.7273,0.1,0.0005781,5777,0.00058558,6502.3,-1.6871e-05,1975.7,-0.0002804,-4.3525,0.005317
23498,1.0101,3.6364,0.1,0.00057309,5726.9,0.00058083,6442.9,-1.8867e-05,1937.1,-0.0002769,-1.7121,0.00643
23499,0.91827,3.9091,0.1,0.00057468,5742.9,0.00058243,6456.4,-1.9748e-05,1931.8,-0.00027744,-4.332,0.0052753
23500,1.0101,3.8182,0.1,0.00057044,5700.4,0.00057843,6405.8,-2.1626e-05,1897.2,-0.00027436,-1.708,0.0063866
23501,0.91827,4.0909,0.1,0.00057065,5702.6,0.00057875,6400.5,-2.3693e-05,1874,-0.00027368,-4.3045,0.0052215
23502,1.0101,4,0.1,0.00056727,5668.8,0.00057559,6360,-2.5418e-05,1844.2,-0.0002711,-1.7024,0.0063295
23503,0.91827,4.2727,0.1,0.00056616,5657.7,0.0005747,6335.3,-2.903e-05,1799.1,-0.00026905,-4.2687,0.0051532
23504,1.0101,4.1818,0.1,0.00056374,5633.5,0.00057247,6306.1,-3.0514e-05,1775.5,-0.00026705,-1.6952,0.0062568
23505,0.91827,4.4545,0.1,0.0005615,5611.1,0.00057055,6262.3,-3.6204e-05,1703.4,-0.00026347,-4.2233,0.0050678
23506,1.0101,4.3636,0.1,0.00056008,5597,0.00056929,6245.4,-3.7276e-05,1687.9,-0.00026215,-1.6867,0.0061657
23507,0.91827,4.6364,0.1,0.00055711,5567.2,0.00056672,6183.9,-4.5795e-05,1581.7,-0.00025686,-4.1677,0.0049614
23508,1.0101,4.5455,0.1,0.00055667,5562.9,0.00056639,6180,-4.6173e-05,1577.4,-0.00025634,-1.6786,0.0060524
23509,0.91827,4.8182,0.1,0.00055367,5532.9,0.00056381,6104.1,-5.8522e-05,1428.2,-0.00024915,-4.1049,0.0048291
23510,1.0101,4.7273,0.1,0.00055406,5536.8,0.00056426,6113.1,-5.7777e-05,1439.4,-0.00024957,-1.6746,0.0059124
23511,0.91827,5,0.1,0.00055217,5517.9,0.00056257,6028.8,-7.5156e-05,1237.1,-0.00024034,-4.0388,0.0046642
23512,1.0101,4.9091,0.1,0.000553,5526.2,0.00056349,6049.2,-7.271e-05,1269.1,-0.00024184,-1.6867,0.0057393
23513,0.91827,5.1818,0.1,0.0005538,5534.2,0.00056388,5965.2,-9.6297e-05,1004.9,-0.00023057,-4.0001,0.0044582
23514,1.0101,5.0909,0.1,0.00055445,5540.6,0.00056477,5994,-9.1509e-05,1063,-0.00023321,-1.7244,0.0055252
23515,0.91827,5.3636,0.1,0.00055969,5593,0.00056844,5921.5,-0.00012195,734.13,-0.00022018,-3.9454,0.0041999
23516,1.0101,5.2727,0.1,0.00055937,5589.8,0.00056874,5953.9,-0.00011435,821.45,-0.00022393,-1.8606,0.0052599
23517,0.91827,5.5455,0.1,0.00057048,5700.9,0.00057656,5904.5,-0.0001511,437.15,-0.00020984,-4.2575,0.0038753
23518,1.0101,5.4545,0.1,0.00056841,5680.2,0.00057574,5934.9,-0.00014069,551.95,-0.00021441,-2.0004,0.0049309
23519,0.91827,5.7273,0.1,0.00058762,5872.1,0.00058956,5931.4,-0.00018284,127.91,-0.0002008,-7.0708,0.0034683
23520,1.0101,5.6364,0.1,0.00058169,5812.9,0.00058574,5941.4,-0.00016908,269.98,-0.00020545,-3.312,0.0045234
23521,1.0101,5.8182,0.1,0.00060171,6013,0.00060122,5999,-0.00019507,15.935,-0.00020298,-43.518,0.0040214
23522,0.91827,5.9091,0.1,0.00059224,5918.3,0.00059133,5891.8,-0.00019296,-1.0255,-0.0001997,-51.681,0.0029615
23523,1.1019,0.27273,0.1,0.00059557,5951.6,0.00059748,6009.5,-0.00018614,121.73,-0.00020287,-3.9922,0.0051976
23524,1.1938,0.18182,0.1,0.00060638,6059.7,0.00060621,6054.7,-0.00019709,19.024,-0.00020344,-28.671,0.0058971
23525,1.1019,0.090909,0.1,0.00060066,6002.5,0.00060007,5985.4,-0.00019653,-0.0016724,-0.00020105,-33.955,0.0045952
23526,1.1019,0.45455,0.1,0.00057942,5790.2,0.00058498,5972.2,-0.00015877,383.99,-0.00020997,-0.71921,0.0056945
23527,1.1938,0.36364,0.1,0.00058829,5878.8,0.00059202,5996.1,-0.00017351,244.23,-0.00020626,-1.8887,0.0064886
23528,1.1019,0.63636,0.1,0.00056785,5674.6,0.00057603,5967.3,-0.00013309,639.26,-0.00021815,0.16625,0.0061016
23529,1.1938,0.54545,0.1,0.0005753,5749,0.000582,5976.1,-0.00014875,485.48,-0.00021342,-0.45195,0.0069799
23530,1.1019,0.81818,0.1,0.00055979,5594.1,0.00056956,5982.2,-0.0001095,880.03,-0.00022657,0.45078,0.0064338
23531,1.1938,0.72727,0.1,0.00056525,5648.6,0.00057405,5974.4,-0.00012513,721.01,-0.00022112,-0.19394,0.0073859
23532,1.1019,1,0.1,0.00055511,5547.2,0.00056559,6013.7,-8.8969e-05,1095.7,-0.00023471,0.64654,0.0067045
23533,1.1938,0.90909,0.1,0.00055827,5578.9,0.00056829,5989,-0.00010375,939.57,-0.0002288,0.024894,0.0077201
23534,1.1019,1.1818,0.1,0.00055327,5528.9,0.00056384,6057.5,-7.1872e-05,1281,-0.00024226,0.75421,0.0069252
23535,1.1938,1.0909,0.1,0.00055417,5537.9,0.00056468,6017,-8.528e-05,1133.4,-0.00023611,0.13121,0.0079949
23536,1.1019,1.3636,0.1,0.00055356,5531.8,0.00056385,6108.7,-5.8077e-05,1435.8,-0.00024906,0.82068,0.007105
23537,1.1938,1.2727,0.1,0.00055243,5520.5,0.00056295,6054.6,-6.9884e-05,1299.7,-0.00024284,0.19653,0.0082206
23538,1.1019,1.5455,0.1,0.00055522,5548.4,0.00056507,6162.7,-4.7184e-05,1562.5,-0.00025502,0.86173,0.0072513
23539,1.1938,1.4545,0.1,0.00055244,5520.6,0.00056267,6097.7,-5.738e-05,1438.9,-0.00024886,0.23263,0.0084055
23540,1.1019,1.7273,0.1,0.00055764,5572.6,0.00056701,6215.8,-3.8713e-05,1664.7,-0.00026015,0.88908,0.00737
23541,1.1938,1.6364,0.1,0.00055358,5532,0.0005634,6142.8,-4.7416e-05,1553.4,-0.00025412,0.25402,0.0085566
23542,1.1019,1.9091,0.1,0.00056035,5599.7,0.00056928,6265.3,-3.2204e-05,1746,-0.00026447,0.90835,0.0074656
23543,1.1938,1.8182,0.1,0.00055536,5549.8,0.00056474,6186.8,-3.9593e-05,1646.1,-0.00025864,0.2671,0.0086793
23544,1.1019,2.0909,0.1,0.00056302,5626.3,0.00057156,6309.2,-2.7267e-05,1809.9,-0.00026802,0.92257,0.0075415
23545,1.1938,2,0.1,0.00055739,5570.1,0.00056636,6227.4,-3.3538e-05,1720,-0.00026242,0.27571,0.0087779
23546,1.1019,2.2727,0.1,0.00056542,5650.3,0.00057365,6346.2,-2.3596e-05,1858.8,-0.00027086,0.93324,0.0076005
23547,1.1938,2.1818,0.1,0.0005594,5590.1,0.00056802,6263,-2.8934e-05,1777.7,-0.0002655,0.2817,0.0088557
23548,1.1019,2.4545,0.1,0.0005674,5670.1,0.00057539,6375.6,-2.0956e-05,1894.8,-0.00027302,0.9411,0.0076444
23549,1.1938,2.3636,0.1,0.00056118,5607.9,0.00056952,6292.5,-2.5528e-05,1821.5,-0.00026792,0.286,0.0089152
23550,1.1019,2.6364,0.1,0.00056887,5684.8,0.0005767,6396.8,-1.9181e-05,1919.6,-0.00027453,0.94655,0.0076749
23551,1.1938,2.5455,0.1,0.00056261,5622.2,0.00057074,6315,-2.3129e-05,1852.9,-0.0002697,0.28904,0.0089583
23552,1.1019,2.8182,0.1,0.00056977,5693.8,0.0005775,6409.6,-1.8159e-05,1934,-0.00027543,0.94975,0.0076928
23553,1.1938,2.7273,0.1,0.00056361,5632.2,0.0005716,6330.3,-2.1601e-05,1873.2,-0.00027088,0.291,0.0089863
23554,1.1019,3,0.1,0.00057007,5696.8,0.00057778,6413.9,-1.7825e-05,1938.8,-0.00027573,0.95081,0.0076987
23555,1.1938,2.9091,0.1,0.00056412,5637.3,0.00057204,6338,-2.0858e-05,1883.2,-0.00027146,0.29197,0.0090001
23556,1.1019,3.1818,0.1,0.00056977,5693.8,0.0005775,6409.6,-1.8159e-05,1934,-0.00027543,0.94975,0.0076928
23557,1.1938,3.0909,0.1,0.00056412,5637.3,0.00057204,6338,-2.0858e-05,1883.2,-0.00027146,0.29197,0.0090001
23558,1.1019,3.3636,0.1,0.00056887,5684.8,0.0005767,6396.8,-1.9181e-05,1919.6,-0.00027453,0.94655,0.0076749
23559,1.1938,3.2727,0.1,0.00056361,5632.2,0.0005716,6330.3,-2.1601e-05,1873.2,-0.00027088,0.291,0.0089863
23560,1.1019,3.5455,0.1,0.0005674,5670.1,0.00057539,6375.6,-2.0956e-05,1894.8,-0.00027302,0.9411,0.0076444
23561,1.1938,3.4545,0.1,0.00056261,5622.2,0.00057074,6315,-2.3129e-05,1852.9,-0.0002697,0.28904,0.0089583
23562,1.1019,3.7273,0.1,0.00056542,5650.3,0.00057365,6346.2,-2.3596e-05,1858.8,-0.00027086,0.93324,0.0076005
23563,1.1938,3.6364,0.1,0.00056118,5607.9,0.00056952,6292.5,-2.5528e-05,1821.5,-0.00026792,0.286,0.0089152
23564,1.1019,3.9091,0.1,0.00056302,5626.3,0.00057156,6309.2,-2.7267e-05,1809.9,-0.00026802,0.92257,0.0075415
23565,1.1938,3.8182,0.1,0.0005594,5590.1,0.00056802,6263,-2.8934e-05,1777.7,-0.0002655,0.2817,0.0088557
23566,1.1019,4.0909,0.1,0.00056035,5599.7,0.00056928,6265.3,-3.2204e-05,1746,-0.00026447,0.90835,0.0074656
23567,1.1938,4,0.1,0.00055739,5570.1,0.00056636,6227.4,-3.3538e-05,1720,-0.00026242,0.27571,0.0087779
23568,1.1019,4.2727,0.1,0.00055764,5572.6,0.00056701,6215.8,-3.8713e-05,1664.7,-0.00026015,0.88908,0.00737
23569,1.1938,4.1818,0.1,0.00055536,5549.8,0.00056474,6186.8,-3.9593e-05,1646.1,-0.00025864,0.2671,0.0086793
23570,1.1019,4.4545,0.1,0.00055522,5548.4,0.00056507,6162.7,-4.7184e-05,1562.5,-0.00025502,0.86173,0.0072513
23571,1.1938,4.3636,0.1,0.00055358,5532,0.0005634,6142.8,-4.7416e-05,1553.4,-0.00025412,0.25402,0.0085566
23572,1.1019,4.6364,0.1,0.00055356,5531.8,0.00056385,6108.7,-5.8077e-05,1435.8,-0.00024906,0.82068,0.007105
23573,1.1938,4.5455,0.1,0.00055244,5520.6,0.00056267,6097.7,-5.738e-05,1438.9,-0.00024886,0.23263,0.0084055
23574,1.1019,4.8182,0.1,0.00055327,5528.9,0.00056384,6057.5,-7.1872e-05,1281,-0.00024226,0.75421,0.0069252
23575,1.1938,4.7273,0.1,0.00055243,5520.5,0.00056295,6054.6,-6.9884e-05,1299.7,-0.00024284,0.19653,0.0082206
23576,1.1019,5,0.1,0.00055511,5547.2,0.00056559,6013.7,-8.8969e-05,1095.7,-0.00023471,0.64654,0.0067045
23577,1.1938,4.9091,0.1,0.00055417,5537.9,0.00056468,6017,-8.528e-05,1133.4,-0.00023611,0.13121,0.0079949
23578,1.1019,5.1818,0.1,0.00055979,5594.1,0.00056956,5982.2,-0.0001095,880.03,-0.00022657,0.45078,0.0064338
23579,1.1938,5.0909,0.1,0.00055827,5578.9,0.00056829,5989,-0.00010375,939.57,-0.0002288,0.024894,0.0077201
23580,1.1019,5.3636,0.1,0.00056785,5674.6,0.00057603,5967.3,-0.00013309,639.26,-0.00021815,0.16625,0.0061016
23581,1.1938,5.2727,0.1,0.00056525,5648.6,0.00057405,5974.4,-0.00012513,721.01,-0.00022112,-0.19394,0.0073859
23582,1.1019,5.5455,0.1,0.00057942,5790.2,0.00058498,5972.2,-0.00015877,383.99,-0.00020997,-0.71921,0.0056945
23583,1.1938,5.4545,0.1,0.0005753,5749,0.000582,5976.1,-0.00014875,485.48,-0.00021342,-0.45195,0.0069799
23584,1.1019,5.7273,0.1,0.00059557,5951.6,0.00059748,6009.5,-0.00018614,121.73,-0.00020287,-3.9922,0.0051976
23585,1.1938,5.6364,0.1,0.00058829,5878.8,0.00059202,5996.1,-0.00017351,244.23,-0.00020626,-1.8887,0.0064886
23586,1.1938,5.8182,0.1,0.00060638,6059.7,0.00060621,6054.7,-0.00019709,19.024,-0.00020344,-28.671,0.0058971
23587,1.1019,5.9091,0.1,0.00060066,6002.5,0.00060007,5985.4,-0.00019653,-0.00167,-0.00020105,-33.955,0.0045952
23588,1.2856,0.27273,0.1,0.00059896,5985.5,0.00060082,6041.8,-0.00018757,118.14,-0.00020378,-3.6546,0.0073121
23589,1.3774,0.18182,0.1,0.00060729,6068.7,0.00060736,6070.9,-0.00019756,23.056,-0.0002031,-18.558,0.0081647
23590,1.2856,0.090909,0.1,0.00060428,6038.7,0.00060393,6028.4,-0.00019838,0.1639,-0.00020114,-20.61,0.006622
23591,1.2856,0.45455,0.1,0.00058404,5836.4,0.00058911,6000.4,-0.00016359,344.96,-0.00020968,-1.359,0.0078927
23592,1.3774,0.36364,0.1,0.00059096,5905.5,0.00059444,6014.1,-0.00017596,225.64,-0.00020624,-1.8681,0.0088386
23593,1.2856,0.63636,0.1,0.00057254,5721.4,0.00058005,5983.4,-0.00014083,566.99,-0.00021639,-0.74794,0.0083782
23594,1.3774,0.54545,0.1,0.00057861,5782.1,0.00058477,5987.2,-0.0001541,435.61,-0.00021217,-0.70074,0.0094084
23595,1.2856,0.81818,0.1,0.00056357,5631.8,0.00057276,5981,-0.00011937,780.68,-0.00022335,-0.59184,0.0087822
23596,1.3774,0.72727,0.1,0.00056837,5679.8,0.00057656,5973.6,-0.00013292,642.86,-0.00021855,-0.52704,0.0098876
23597,1.2856,1,0.1,0.00055719,5568.1,0.00056733,5991.9,-0.00010001,977.72,-0.0002302,-0.47528,0.0091174
23598,1.3774,0.90909,0.1,0.00056041,5600.2,0.00056993,5972.3,-0.00011321,839.44,-0.00022498,-0.35962,0.010289
23599,1.2856,1.1818,0.1,0.00055322,5528.3,0.00056372,6013.5,-8.3225e-05,1152.7,-0.00023669,-0.4175,0.0093948
23600,1.3774,1.0909,0.1,0.00055473,5543.5,0.00056498,5982,-9.5596e-05,1018.7,-0.00023121,-0.28014,0.010624
23601,1.2856,1.3636,0.1,0.00055124,5508.5,0.0005617,6043.1,-6.9117e-05,1303.4,-0.00024264,-0.38598,0.009624
23602,1.3774,1.2727,0.1,0.00055112,5507.4,0.00056162,6000.6,-8.0379e-05,1176.9,-0.00023704,-0.23086,0.010903
23603,1.2856,1.5455,0.1,0.00055075,5503.7,0.00056093,6077.4,-5.7547e-05,1430.3,-0.00024796,-0.37156,0.0098125
23604,1.3774,1.4545,0.1,0.0005492,5488.2,0.00055961,6025.5,-6.758e-05,1313,-0.00024236,-0.2055,0.011134
23605,1.2856,1.7273,0.1,0.00055127,5508.8,0.00056107,6113.3,-4.8241e-05,1535.2,-0.00025261,-0.36566,0.0099669
23606,1.3774,1.6364,0.1,0.00054852,5481.5,0.00055867,6053.9,-5.7047e-05,1427.6,-0.00024708,-0.1926,0.011324
23607,1.2856,1.9091,0.1,0.00055238,5519.9,0.00056178,6148.5,-4.0881e-05,1620.4,-0.00025659,-0.36399,0.010092
23608,1.3774,1.8182,0.1,0.0005487,5483.2,0.00055849,6083.4,-4.854e-05,1522.4,-0.00025118,-0.18682,0.011481
23609,1.2856,2.0909,0.1,0.00055375,5533.7,0.00056278,6180.9,-3.5165e-05,1688.2,-0.00025989,-0.36407,0.010192
23610,1.3774,2,0.1,0.00054938,5490,0.00055881,6112,-4.1794e-05,1599.2,-0.00025466,-0.18459,0.011607
23611,1.2856,2.2727,0.1,0.00055514,5547.6,0.00056385,6209,-3.0831e-05,1740.7,-0.00026256,-0.36473,0.01027
23612,1.3774,2.1818,0.1,0.0005503,5499.2,0.00055939,6137.8,-3.6561e-05,1660.1,-0.00025753,-0.18402,0.011707
23613,1.2856,2.4545,0.1,0.00055638,5560,0.00056484,6231.7,-2.7668e-05,1779.8,-0.0002646,-0.36543,0.010329
23614,1.3774,2.3636,0.1,0.00055124,5508.6,0.00056006,6159.8,-3.2627e-05,1706.6,-0.00025979,-0.18413,0.011784
23615,1.2856,2.6364,0.1,0.00055734,5569.5,0.00056561,6248.4,-2.5518e-05,1806.8,-0.00026604,-0.36597,0.01037
23616,1.3774,2.5455,0.1,0.00055207,5516.8,0.00056066,6177,-2.9823e-05,1740.3,-0.00026147,-0.18442,0.01184
23617,1.2856,2.8182,0.1,0.00055794,5575.6,0.00056611,6258.5,-2.4271e-05,1822.6,-0.0002669,-0.3663,0.010394
23618,1.3774,2.7273,0.1,0.00055267,5522.8,0.00056112,6188.8,-2.8021e-05,1762.2,-0.00026258,-0.18468,0.011876
23619,1.2856,3,0.1,0.00055815,5577.6,0.00056628,6261.9,-2.3862e-05,1827.9,-0.00026718,-0.3664,0.010401
23620,1.3774,2.9091,0.1,0.00055298,5526,0.00056136,6194.7,-2.7141e-05,1773,-0.00026313,-0.18482,0.011894
23621,1.2856,3.1818,0.1,0.00055794,5575.6,0.00056611,6258.5,-2.4271e-05,1822.6,-0.0002669,-0.3663,0.010394
23622,1.3774,3.0909,0.1,0.00055298,5526,0.00056136,6194.7,-2.7141e-05,1773,-0.00026313,-0.18482,0.011894
23623,1.2856,3.3636,0.1,0.00055734,5569.5,0.00056561,6248.4,-2.5518e-05,1806.8,-0.00026604,-0.36597,0.01037
23624,1.3774,3.2727,0.1,0.00055267,5522.8,0.00056112,6188.8,-2.8021e-05,1762.2,-0.00026258,-0.18468,0.011876
23625,1.2856,3.5455,0.1,0.00055638,5560,0.00056484,6231.7,-2.7668e-05,1779.8,-0.0002646,-0.36543,0.010329
23626,1.3774,3.4545,0.1,0.00055207,5516.8,0.00056066,6177,-2.9823e-05,1740.3,-0.00026147,-0.18442,0.01184
23627,1.2856,3.7273,0.1,0.00055514,5547.6,0.00056385,6209,-3.0831e-05,1740.7,-0.00026256,-0.36473,0.01027
23628,1.3774,3.6364,0.1,0.00055124,5508.6,0.00056006,6159.8,-3.2627e-05,1706.6,-0.00025979,-0.18413,0.011784
23629,1.2856,3.9091,0.1,0.00055375,5533.7,0.00056278,6180.9,-3.5165e-05,1688.2,-0.00025989,-0.36407,0.010192
23630,1.3774,3.8182,0.1,0.0005503,5499.2,0.00055939,6137.8,-3.6561e-05,1660.1,-0.00025753,-0.18402,0.011707
23631,1.2856,4.0909,0.1,0.00055238,5519.9,0.00056178,6148.5,-4.0881e-05,1620.4,-0.00025659,-0.36399,0.010092
23632,1.3774,4,0.1,0.00054938,5490,0.00055881,6112,-4.1794e-05,1599.2,-0.00025466,-0.18459,0.011607
23633,1.2856,4.2727,0.1,0.00055127,5508.8,0.00056107,6113.3,-4.8241e-05,1535.2,-0.00025261,-0.36566,0.0099669
23634,1.3774,4.1818,0.1,0.0005487,5483.2,0.00055849,6083.4,-4.854e-05,1522.4,-0.00025118,-0.18682,0.011481
23635,1.2856,4.4545,0.1,0.00055075,5503.7,0.00056093,6077.4,-5.7547e-05,1430.3,-0.00024796,-0.37156,0.0098125
23636,1.3774,4.3636,0.1,0.00054852,5481.5,0.00055867,6053.9,-5.7047e-05,1427.6,-0.00024708,-0.1926,0.011324
23637,1.2856,4.6364,0.1,0.00055124,5508.5,0.0005617,6043.1,-6.9117e-05,1303.4,-0.00024264,-0.38598,0.009624
23638,1.3774,4.5455,0.1,0.0005492,5488.2,0.00055961,6025.5,-6.758e-05,1313,-0.00024236,-0.2055,0.011134
23639,1.2856,4.8182,0.1,0.00055322,5528.3,0.00056372,6013.5,-8.3225e-05,1152.7,-0.00023669,-0.4175,0.0093948
23640,1.3774,4.7273,0.1,0.00055112,5507.4,0.00056162,6000.6,-8.0379e-05,1176.9,-0.00023704,-0.23086,0.010903
23641,1.2856,5,0.1,0.00055719,5568.1,0.00056733,5991.9,-0.00010001,977.72,-0.0002302,-0.47528,0.0091174
23642,1.3774,4.9091,0.1,0.00055473,5543.5,0.00056498,5982,-9.5596e-05,1018.7,-0.00023121,-0.28014,0.010624
23643,1.2856,5.1818,0.1,0.00056357,5631.8,0.00057276,5981,-0.00011937,780.68,-0.00022335,-0.59184,0.0087822
23644,1.3774,5.0909,0.1,0.00056041,5600.2,0.00056993,5972.3,-0.00011321,839.44,-0.00022498,-0.35962,0.010289
23645,1.2856,5.3636,0.1,0.00057254,5721.4,0.00058005,5983.4,-0.00014083,566.99,-0.00021639,-0.74794,0.0083782
23646,1.3774,5.2727,0.1,0.00056837,5679.8,0.00057656,5973.6,-0.00013292,642.86,-0.00021855,-0.52704,0.0098876
23647,1.2856,5.5455,0.1,0.00058404,5836.4,0.00058911,6000.4,-0.00016359,344.96,-0.00020968,-1.359,0.0078927
23648,1.3774,5.4545,0.1,0.00057861,5782.1,0.00058477,5987.2,-0.0001541,435.61,-0.00021217,-0.70074,0.0094084
23649,1.2856,5.7273,0.1,0.00059896,5985.5,0.00060082,6041.8,-0.00018757,118.14,-0.00020378,-3.6546,0.0073121
23650,1.3774,5.6364,0.1,0.00059096,5905.5,0.00059444,6014.1,-0.00017596,225.64,-0.00020624,-1.8681,0.0088386
23651,1.3774,5.8182,0.1,0.00060729,6068.7,0.00060736,6070.9,-0.00019756,23.056,-0.0002031,-18.558,0.0081647
23652,1.2856,5.9091,0.1,0.00060428,6038.7,0.00060393,6028.4,-0.00019838,0.1639,-0.00020114,-20.61,0.006622
23653,1.4692,0.27273,0.1,0.0005992,5987.8,0.00060104,6043.6,-0.00018785,116.24,-0.0002037,-2.866,0.0098169
23654,1.5611,0.18182,0.1,0.00060568,6052.6,0.00060595,6060.6,-0.00019691,28.248,-0.00020228,-12.041,0.010828
23655,1.4692,0.090909,0.1,0.00060469,6042.7,0.00060453,6038,-0.00019895,0.95112,-0.00020046,-10.386,0.0090468
23656,1.4692,0.45455,0.1,0.00058545,5850.5,0.00059016,6001.3,-0.00016656,315.63,-0.0002087,-1.0032,0.010475
23657,1.5611,0.36364,0.1,0.0005909,5904.9,0.00059418,6006.9,-0.00017715,211.45,-0.00020551,-1.5698,0.011577
23658,1.4692,0.63636,0.1,0.00057434,5739.4,0.00058131,5977.6,-0.00014623,511.15,-0.00021432,-0.42836,0.011034
23659,1.5611,0.54545,0.1,0.00057928,5788.8,0.00058499,5976.6,-0.00015764,396.78,-0.00021052,-0.53085,0.01222
23660,1.4692,0.81818,0.1,0.00056509,5647,0.00057374,5964.9,-0.00012676,701.55,-0.00022017,-0.27239,0.011507
23661,1.5611,0.72727,0.1,0.00056922,5688.3,0.00057686,5956.1,-0.00013857,580.67,-0.0002159,-0.37741,0.012768
23662,1.4692,1,0.1,0.00055784,5574.5,0.00056757,5962.3,-0.00010877,880.54,-0.00022598,-0.15217,0.011904
23663,1.5611,0.90909,0.1,0.00056087,5604.8,0.0005699,5944.9,-0.00012051,757.5,-0.00022136,-0.22289,0.013233
23664,1.4692,1.1818,0.1,0.00055254,5521.6,0.00056284,5968.8,-9.2709e-05,1043.2,-0.00023156,-0.085978,0.012238
23665,1.5611,1.0909,0.1,0.00055433,5539.5,0.00056422,5942.5,-0.00010399,921.84,-0.00022669,-0.14511,0.013627
23666,1.4692,1.3636,0.1,0.00054901,5486.3,0.00055948,5982.6,-7.8789e-05,1186.9,-0.00023676,-0.045533,0.012517
23667,1.5611,1.2727,0.1,0.00054953,5491.5,0.00055985,5947.7,-8.9323e-05,1070.1,-0.00023176,-0.093643,0.013958
23668,1.4692,1.5455,0.1,0.00054692,5465.4,0.00055729,6001.6,-6.7024e-05,1310.7,-0.00024147,-0.023318,0.012748
23669,1.5611,1.4545,0.1,0.00054624,5458.7,0.00055666,5958.9,-7.6651e-05,1200.4,-0.00023643,-0.06455,0.014235
23670,1.4692,1.7273,0.1,0.00054592,5455.4,0.00055604,6023.6,-5.7292e-05,1415.2,-0.00024565,-0.011564,0.01294
23671,1.5611,1.6364,0.1,0.00054419,5438.2,0.0005545,5974.3,-6.5946e-05,1312.5,-0.00024063,-0.048233,0.014466
23672,1.4692,1.9091,0.1,0.00054568,5453,0.00055548,6046.5,-4.9403e-05,1501.6,-0.00024926,-0.0058816,0.013096
23673,1.5611,1.8182,0.1,0.00054308,5427.1,0.00055315,5991.9,-5.7091e-05,1406.8,-0.00024433,-0.03993,0.014656
23674,1.4692,2.0909,0.1,0.00054591,5455.3,0.00055538,6068.6,-4.3144e-05,1571.5,-0.0002523,-0.0034228,0.013222
23675,1.5611,2,0.1,0.00054263,5422.5,0.00055241,6010.2,-4.992e-05,1484.5,-0.0002475,-0.036117,0.014811
23676,1.4692,2.2727,0.1,0.00054638,5460,0.00055556,6088.4,-3.8315e-05,1626.3,-0.00025476,-0.0025733,0.01332
23677,1.5611,2.1818,0.1,0.00054259,5422.2,0.00055208,6027.5,-4.4257e-05,1546.8,-0.00025013,-0.034716,0.014935
23678,1.4692,2.4545,0.1,0.00054691,5465.4,0.00055584,6104.9,-3.4743e-05,1667.4,-0.00025666,-0.0024365,0.013394
23679,1.5611,2.3636,0.1,0.00054277,5424,0.00055201,6042.6,-3.9938e-05,1595,-0.00025222,-0.034475,0.01503
23680,1.4692,2.6364,0.1,0.00054738,5470,0.00055613,6117.1,-3.2289e-05,1696,-0.00025801,-0.0025473,0.013446
23681,1.5611,2.5455,0.1,0.00054303,5426.6,0.00055207,6054.8,-3.6823e-05,1630.1,-0.00025378,-0.034691,0.015099
23682,1.4692,2.8182,0.1,0.00054769,5473.2,0.00055633,6124.7,-3.0855e-05,1712.8,-0.00025882,-0.0026782,0.013476
23683,1.5611,2.7273,0.1,0.00054326,5428.9,0.00055215,6063.2,-3.4807e-05,1653,-0.00025481,-0.034986,0.015145
23684,1.4692,3,0.1,0.0005478,5474.2,0.00055641,6127.3,-3.0384e-05,1718.4,-0.00025909,-0.0027309,0.013486
23685,1.5611,2.9091,0.1,0.00054339,5430.2,0.00055221,6067.5,-3.3817e-05,1664.3,-0.00025533,-0.035172,0.015167
23686,1.4692,3.1818,0.1,0.00054769,5473.2,0.00055633,6124.7,-3.0855e-05,1712.8,-0.00025882,-0.0026782,0.013476
23687,1.5611,3.0909,0.1,0.00054339,5430.2,0.00055221,6067.5,-3.3817e-05,1664.3,-0.00025533,-0.035172,0.015167
23688,1.4692,3.3636,0.1,0.00054738,5470,0.00055613,6117.1,-3.2289e-05,1696,-0.00025801,-0.0025471,0.013446
23689,1.5611,3.2727,0.1,0.00054326,5428.9,0.00055215,6063.2,-3.4807e-05,1653,-0.00025481,-0.034986,0.015145
23690,1.4692,3.5455,0.1,0.00054691,5465.4,0.00055584,6104.9,-3.4743e-05,1667.4,-0.00025666,-0.0024364,0.013394
23691,1.5611,3.4545,0.1,0.00054303,5426.6,0.00055207,6054.8,-3.6823e-05,1630.1,-0.00025378,-0.034691,0.015099
23692,1.4692,3.7273,0.1,0.00054638,5460,0.00055556,6088.4,-3.8315e-05,1626.3,-0.00025476,-0.0025733,0.01332
23693,1.5611,3.6364,0.1,0.00054277,5424,0.00055201,6042.6,-3.9938e-05,1595,-0.00025222,-0.034475,0.01503
23694,1.4692,3.9091,0.1,0.00054591,5455.3,0.00055538,6068.6,-4.3144e-05,1571.5,-0.0002523,-0.0034227,0.013222
23695,1.5611,3.8182,0.1,0.00054259,5422.2,0.00055208,6027.5,-4.4257e-05,1546.8,-0.00025013,-0.034716,0.014935
23696,1.4692,4.0909,0.1,0.00054568,5453,0.00055548,6046.5,-4.9403e-05,1501.6,-0.00024926,-0.0058814,0.013096
23697,1.5611,4,0.1,0.00054263,5422.5,0.00055241,6010.2,-4.992e-05,1484.5,-0.0002475,-0.036117,0.014811
23698,1.4692,4.2727,0.1,0.00054592,5455.4,0.00055604,6023.6,-5.7292e-05,1415.2,-0.00024565,-0.011563,0.01294
23699,1.5611,4.1818,0.1,0.00054308,5427.1,0.00055315,5991.9,-5.7091e-05,1406.8,-0.00024433,-0.039929,0.014656
23700,1.4692,4.4545,0.1,0.00054692,5465.4,0.00055729,6001.6,-6.7024e-05,1310.7,-0.00024147,-0.023318,0.012748
23701,1.5611,4.3636,0.1,0.00054419,5438.2,0.0005545,5974.3,-6.5946e-05,1312.5,-0.00024063,-0.048232,0.014466
23702,1.4692,4.6364,0.1,0.00054901,5486.3,0.00055948,5982.6,-7.8789e-05,1186.9,-0.00023676,-0.045533,0.012517
23703,1.5611,4.5455,0.1,0.00054624,5458.7,0.00055666,5958.9,-7.6651e-05,1200.4,-0.00023643,-0.064549,0.014235
23704,1.4692,4.8182,0.1,0.00055254,5521.6,0.00056284,5968.8,-9.2709e-05,1043.2,-0.00023156,-0.085977,0.012238
23705,1.5611,4.7273,0.1,0.00054953,5491.5,0.00055985,5947.7,-8.9323e-05,1070.1,-0.00023176,-0.093643,0.013958
23706,1.4692,5,0.1,0.00055784,5574.5,0.00056757,5962.3,-0.00010877,880.54,-0.00022598,-0.15217,0.011904
23707,1.5611,4.9091,0.1,0.00055433,5539.5,0.00056422,5942.5,-0.00010399,921.84,-0.00022669,-0.14511,0.013627
23708,1.4692,5.1818,0.1,0.00056509,5647,0.00057374,5964.9,-0.00012676,701.55,-0.00022017,-0.27239,0.011507
23709,1.5611,5.0909,0.1,0.00056087,5604.8,0.0005699,5944.9,-0.00012051,757.5,-0.00022136,-0.22289,0.013233
23710,1.4692,5.3636,0.1,0.00057434,5739.4,0.00058131,5977.6,-0.00014623,511.16,-0.00021432,-0.42836,0.011034
23711,1.5611,5.2727,0.1,0.00056922,5688.3,0.00057686,5956.1,-0.00013857,580.67,-0.0002159,-0.37741,0.012768
23712,1.4692,5.5455,0.1,0.00058545,5850.5,0.00059016,6001.3,-0.00016656,315.63,-0.0002087,-1.0032,0.010475
23713,1.5611,5.4545,0.1,0.00057928,5788.8,0.00058499,5976.6,-0.00015764,396.78,-0.00021052,-0.53085,0.01222
23714,1.4692,5.7273,0.1,0.0005992,5987.8,0.00060104,6043.6,-0.00018785,116.24,-0.0002037,-2.866,0.0098169
23715,1.5611,5.6364,0.1,0.0005909,5904.9,0.00059418,6006.9,-0.00017715,211.45,-0.00020551,-1.5698,0.011577
23716,1.5611,5.8182,0.1,0.00060568,6052.6,0.00060595,6060.6,-0.00019691,28.248,-0.00020228,-12.041,0.010828
23717,1.4692,5.9091,0.1,0.00060469,6042.7,0.00060453,6038,-0.00019895,0.95112,-0.00020046,-10.386,0.0090468
23718,1.6529,0.27273,0.1,0.00059731,5969,0.00059914,6024.3,-0.00018738,114.74,-0.00020297,-2.3849,0.012715
23719,1.7447,0.18182,0.1,0.00060237,6019.6,0.0006028,6032.2,-0.00019556,33.674,-0.00020112,-8.1053,0.013888
23720,1.6529,0.090909,0.1,0.00060291,6024.9,0.00060289,6024.5,-0.00019849,3.2378,-0.00019945,-4.0143,0.011872
23721,1.6529,0.45455,0.1,0.00058466,5842.6,0.00058907,5982.7,-0.00016831,292.04,-0.0002073,-0.93246,0.013444
23722,1.7447,0.36364,0.1,0.00058894,5885.4,0.00059206,5982,-0.00017751,199.73,-0.00020428,-1.3942,0.014706
23723,1.6529,0.63636,0.1,0.00057408,5736.9,0.00058058,5955.4,-0.00015002,465.96,-0.0002121,-0.43777,0.014072
23724,1.7447,0.54545,0.1,0.00057807,5776.7,0.0005834,5950.3,-0.00015995,365.07,-0.0002086,-0.48665,0.015416
23725,1.6529,0.81818,0.1,0.00056491,5645.2,0.00057303,5936.3,-0.00013233,636.46,-0.00021708,-0.30957,0.014609
23726,1.7447,0.72727,0.1,0.00056838,5679.9,0.00057552,5925.8,-0.00014269,529.46,-0.00021321,-0.36167,0.016029
23727,1.6529,1,0.1,0.00055728,5569,0.00056655,5925.1,-0.00011572,798.82,-0.00022206,-0.2057,0.015066
23728,1.7447,0.90909,0.1,0.00055999,5596.1,0.00056852,5908.5,-0.00012617,688.91,-0.00021789,-0.22676,0.016554
23729,1.6529,1.1818,0.1,0.00055123,5508.5,0.0005612,5921.3,-0.00010058,948.88,-0.00022689,-0.14648,0.015454
23730,1.7447,1.0909,0.1,0.00055304,5526.6,0.00056251,5898.1,-0.0001108,839.07,-0.00022249,-0.15717,0.017003
23731,1.6529,1.3636,0.1,0.00054669,5463.1,0.000557,5923.8,-8.715e-05,1083.9,-0.00023142,-0.1085,0.015781
23732,1.7447,1.2727,0.1,0.00054752,5471.4,0.00055755,5894,-9.6893e-05,976.71,-0.0002269,-0.10887,0.017385
23733,1.6529,1.5455,0.1,0.00054346,5430.9,0.00055383,5931.3,-7.553e-05,1202.5,-0.00023559,-0.086601,0.016056
23734,1.7447,1.4545,0.1,0.00054333,5429.6,0.00055362,5895.2,-8.4619e-05,1099.8,-0.000231,-0.079961,0.017707
23735,1.6529,1.7273,0.1,0.00054132,5409.4,0.00055157,5942.3,-6.5699e-05,1304.4,-0.00023931,-0.074574,0.016284
23736,1.7447,1.6364,0.1,0.0005403,5399.3,0.00055061,5900.7,-7.4032e-05,1207.4,-0.00023474,-0.062756,0.017978
23737,1.6529,1.9091,0.1,0.00054,5396.3,0.00055004,5955.3,-5.7561e-05,1390,-0.00024257,-0.068694,0.016472
23738,1.7447,1.8182,0.1,0.00053821,5378.4,0.0005484,5909,-6.5101e-05,1299.4,-0.00023805,-0.053403,0.018202
23739,1.6529,2.0909,0.1,0.00053929,5389.1,0.00054907,5968.7,-5.0987e-05,1460.1,-0.00024533,-0.066309,0.016624
23740,1.7447,2,0.1,0.00053685,5364.8,0.00054684,5918.8,-5.7738e-05,1376.2,-0.00024091,-0.048789,0.018386
23741,1.6529,2.2727,0.1,0.00053896,5385.9,0.00054849,5981.3,-4.5836e-05,1515.8,-0.00024758,-0.065762,0.016744
23742,1.7447,2.1818,0.1,0.00053602,5356.5,0.00054579,5928.8,-5.1834e-05,1438.5,-0.0002433,-0.046922,0.018534
23743,1.6529,2.4545,0.1,0.00053888,5385.1,0.00054819,5992.2,-4.1977e-05,1557.9,-0.00024933,-0.066033,0.016834
23744,1.7447,2.3636,0.1,0.00053556,5351.9,0.00054511,5938.1,-4.7272e-05,1487.2,-0.00024521,-0.046487,0.018648
23745,1.6529,2.6364,0.1,0.0005389,5385.3,0.00054805,6000.5,-3.9302e-05,1587.4,-0.00025058,-0.066533,0.016897
23746,1.7447,2.5455,0.1,0.00053532,5349.5,0.0005447,5945.8,-4.395e-05,1522.9,-0.00024664,-0.046678,0.018731
23747,1.6529,2.8182,0.1,0.00053895,5385.8,0.00054799,6005.7,-3.773e-05,1604.8,-0.00025133,-0.066937,0.016934
23748,1.7447,2.7273,0.1,0.00053522,5348.5,0.00054448,5951.3,-4.1783e-05,1546.4,-0.0002476,-0.047017,0.018785
23749,1.6529,3,0.1,0.00053897,5386,0.00054798,6007.5,-3.7211e-05,1610.6,-0.00025158,-0.067087,0.016947
23750,1.7447,2.9091,0.1,0.00053519,5348.2,0.00054438,5954.1,-4.0715e-05,1558,-0.00024808,-0.047243,0.018812
23751,1.6529,3.1818,0.1,0.00053895,5385.8,0.00054799,6005.7,-3.773e-05,1604.8,-0.00025133,-0.066937,0.016934
23752,1.7447,3.0909,0.1,0.00053519,5348.2,0.00054438,5954.1,-4.0715e-05,1558,-0.00024808,-0.047243,0.018812
23753,1.6529,3.3636,0.1,0.0005389,5385.3,0.00054805,6000.5,-3.9302e-05,1587.4,-0.00025058,-0.066533,0.016897
23754,1.7447,3.2727,0.1,0.00053522,5348.5,0.00054448,5951.3,-4.1783e-05,1546.4,-0.0002476,-0.047017,0.018785
23755,1.6529,3.5455,0.1,0.00053888,5385.1,0.00054819,5992.2,-4.1977e-05,1557.9,-0.00024933,-0.066033,0.016834
23756,1.7447,3.4545,0.1,0.00053532,5349.5,0.0005447,5945.8,-4.395e-05,1522.9,-0.00024664,-0.046678,0.018731
23757,1.6529,3.7273,0.1,0.00053896,5385.9,0.00054849,5981.3,-4.5836e-05,1515.8,-0.00024758,-0.065762,0.016744
23758,1.7447,3.6364,0.1,0.00053556,5351.9,0.00054511,5938.1,-4.7272e-05,1487.2,-0.00024521,-0.046487,0.018648
23759,1.6529,3.9091,0.1,0.00053929,5389.1,0.00054907,5968.7,-5.0987e-05,1460.1,-0.00024533,-0.066309,0.016624
23760,1.7447,3.8182,0.1,0.00053602,5356.5,0.00054579,5928.8,-5.1834e-05,1438.5,-0.0002433,-0.046921,0.018534
23761,1.6529,4.0909,0.1,0.00054,5396.3,0.00055004,5955.3,-5.7561e-05,1390,-0.00024257,-0.068694,0.016472
23762,1.7447,4,0.1,0.00053685,5364.8,0.00054684,5918.8,-5.7738e-05,1376.2,-0.00024091,-0.048789,0.018386
23763,1.6529,4.2727,0.1,0.00054132,5409.4,0.00055157,5942.3,-6.5699e-05,1304.4,-0.00023931,-0.074574,0.016284
23764,1.7447,4.1818,0.1,0.00053821,5378.4,0.0005484,5909,-6.5101e-05,1299.4,-0.00023805,-0.053402,0.018202
23765,1.6529,4.4545,0.1,0.00054346,5430.9,0.00055383,5931.3,-7.553e-05,1202.5,-0.00023559,-0.086601,0.016056
23766,1.7447,4.3636,0.1,0.0005403,5399.3,0.00055061,5900.7,-7.4032e-05,1207.4,-0.00023474,-0.062755,0.017978
23767,1.6529,4.6364,0.1,0.00054669,5463.1,0.000557,5923.8,-8.715e-05,1083.9,-0.00023142,-0.1085,0.015781
23768,1.7447,4.5455,0.1,0.00054333,5429.6,0.00055362,5895.2,-8.4619e-05,1099.8,-0.000231,-0.07996,0.017707
23769,1.6529,4.8182,0.1,0.00055123,5508.5,0.0005612,5921.3,-0.00010058,948.88,-0.00022689,-0.14648,0.015454
23770,1.7447,4.7273,0.1,0.00054752,5471.4,0.00055755,5894,-9.6893e-05,976.71,-0.0002269,-0.10886,0.017385
23771,1.6529,5,0.1,0.00055728,5569,0.00056655,5925.1,-0.00011572,798.82,-0.00022206,-0.2057,0.015066
23772,1.7447,4.9091,0.1,0.00055304,5526.6,0.00056251,5898.1,-0.0001108,839.07,-0.00022249,-0.15717,0.017003
23773,1.6529,5.1818,0.1,0.00056491,5645.2,0.00057303,5936.3,-0.00013233,636.46,-0.00021708,-0.30956,0.014609
23774,1.7447,5.0909,0.1,0.00055999,5596.1,0.00056852,5908.5,-0.00012617,688.91,-0.00021789,-0.22676,0.016554
23775,1.6529,5.3636,0.1,0.00057408,5736.9,0.00058058,5955.4,-0.00015002,465.96,-0.0002121,-0.43777,0.014072
23776,1.7447,5.2727,0.1,0.00056838,5679.9,0.00057552,5925.8,-0.00014269,529.46,-0.00021321,-0.36167,0.016029
23777,1.6529,5.5455,0.1,0.00058466,5842.6,0.00058907,5982.7,-0.00016831,292.04,-0.0002073,-0.93246,0.013444
23778,1.7447,5.4545,0.1,0.00057807,5776.7,0.0005834,5950.3,-0.00015995,365.07,-0.0002086,-0.48665,0.015416
23779,1.6529,5.7273,0.1,0.00059731,5969,0.00059914,6024.3,-0.00018738,114.74,-0.00020297,-2.3849,0.012715
23780,1.7447,5.6364,0.1,0.00058894,5885.4,0.00059206,5982,-0.00017751,199.73,-0.00020428,-1.3942,0.014706
23781,1.7447,5.8182,0.1,0.00060237,6019.6,0.0006028,6032.2,-0.00019556,33.674,-0.00020112,-8.1053,0.013888
23782,1.6529,5.9091,0.1,0.00060291,6024.9,0.00060289,6024.5,-0.00019849,3.2379,-0.00019945,-4.0143,0.011872
23783,1.8365,0.27273,0.1,0.00059395,5935.4,0.00059576,5990.2,-0.00018642,113.21,-0.00020175,-1.9744,0.016007
23784,1.9284,0.18182,0.1,0.00059789,5974.8,0.00059844,5991.1,-0.00019379,38.671,-0.00019969,-5.6957,0.017345
23785,1.8365,0.090909,0.1,0.00059959,5991.7,0.00059969,5994.8,-0.00019711,7.9568,-0.00019841,-1.8481,0.015097
23786,1.8365,0.45455,0.1,0.00058231,5819,0.00058644,5950,-0.00016921,272.28,-0.00020556,-0.81533,0.016801
23787,1.9284,0.36364,0.1,0.00058566,5852.6,0.00058863,5944.4,-0.00017729,189.52,-0.00020268,-1.2285,0.018226
23788,1.8365,0.63636,0.1,0.00057231,5719.1,0.00057838,5921,-0.00015266,428.26,-0.00020971,-0.37557,0.017492
23789,1.9284,0.54545,0.1,0.0005755,5751,0.0005805,5912.5,-0.00016138,338.24,-0.00020646,-0.42484,0.018998
23790,1.8365,0.81818,0.1,0.0005634,5630.1,0.00057103,5898.2,-0.00013655,581.72,-0.00021401,-0.26359,0.018089
23791,1.9284,0.72727,0.1,0.00056626,5658.7,0.00057296,5886,-0.00014571,486.17,-0.00021046,-0.31973,0.01967
23792,1.8365,1,0.1,0.00055569,5553.1,0.00056448,5881.5,-0.00012126,729.1,-0.00021832,-0.16978,0.018603
23793,1.9284,0.90909,0.1,0.00055804,5576.6,0.00056608,5864.9,-0.00013059,630.39,-0.00021451,-0.1998,0.020251
23794,1.8365,1.1818,0.1,0.00054927,5488.9,0.00055885,5870.7,-0.00010711,866.96,-0.00022251,-0.11426,0.019043
23795,1.9284,1.0909,0.1,0.00055097,5505.8,0.00055999,5849.2,-0.00011636,767.45,-0.00021851,-0.13665,0.020753
23796,1.8365,1.3636,0.1,0.00054411,5437.3,0.00055415,5865.3,-9.434e-05,992.76,-0.00022648,-0.076763,0.019417
23797,1.9284,1.2727,0.1,0.00054507,5446.9,0.00055474,5838.8,-0.00010329,894.56,-0.00022236,-0.090941,0.021183
23798,1.8365,1.5455,0.1,0.00054012,5397.5,0.00055036,5864.4,-8.3089e-05,1104.9,-0.00023015,-0.053602,0.019733
23799,1.9284,1.4545,0.1,0.00054032,5399.5,0.00055036,5833,-9.1578e-05,1009.7,-0.00022597,-0.06204,0.021549
23800,1.8365,1.7273,0.1,0.00053715,5367.8,0.0005474,5867.1,-7.3397e-05,1202.7,-0.00023347,-0.039757,0.019998
23801,1.9284,1.6364,0.1,0.00053662,5362.4,0.00054681,5831.2,-8.1308e-05,1111.7,-0.00022928,-0.043671,0.021858
23802,1.8365,1.9091,0.1,0.00053502,5346.5,0.00054516,5872.2,-6.5237e-05,1285.9,-0.00023638,-0.032132,0.020218
23803,1.9284,1.8182,0.1,0.00053382,5334.5,0.000544,5832.3,-7.2505e-05,1200.1,-0.00023223,-0.03279,0.022116
23804,1.8365,2.0909,0.1,0.00053356,5331.9,0.00054352,5878.6,-5.8543e-05,1354.9,-0.00023887,-0.028352,0.020396
23805,1.9284,2,0.1,0.00053177,5314,0.00054185,5835.4,-6.514e-05,1274.7,-0.0002348,-0.026744,0.022329
23806,1.8365,2.2727,0.1,0.00053259,5322.2,0.00054237,5885.3,-5.3228e-05,1410.2,-0.00024092,-0.026811,0.020537
23807,1.9284,2.1818,0.1,0.00053032,5299.5,0.00054025,5839.6,-5.9157e-05,1335.9,-0.00023696,-0.023727,0.022499
23808,1.8365,2.4545,0.1,0.00053198,5316.2,0.00054159,5891.4,-4.9203e-05,1452.5,-0.00024252,-0.02644,0.020643
23809,1.9284,2.3636,0.1,0.00052933,5289.6,0.0005391,5844.1,-5.4483e-05,1384.1,-0.0002387,-0.022462,0.022632
23810,1.8365,2.6364,0.1,0.00053163,5312.6,0.00054109,5896.3,-4.639e-05,1482.2,-0.00024366,-0.026561,0.020718
23811,1.9284,2.5455,0.1,0.00052869,5283.2,0.00053832,5848,-5.1049e-05,1419.7,-0.00024,-0.022105,0.02273
23812,1.8365,2.8182,0.1,0.00053145,5310.8,0.00054082,5899.4,-4.4728e-05,1499.8,-0.00024435,-0.026773,0.020762
23813,1.9284,2.7273,0.1,0.00052831,5279.5,0.00053784,5851,-4.8796e-05,1443.2,-0.00024088,-0.022121,0.022793
23814,1.8365,3,0.1,0.00053139,5310.2,0.00054073,5900.5,-4.4178e-05,1505.7,-0.00024457,-0.026865,0.020777
23815,1.9284,2.9091,0.1,0.00052814,5277.7,0.00053761,5852.5,-4.768e-05,1454.8,-0.00024131,-0.022199,0.022825
23816,1.8365,3.1818,0.1,0.00053145,5310.8,0.00054082,5899.4,-4.4728e-05,1499.8,-0.00024435,-0.026773,0.020762
23817,1.9284,3.0909,0.1,0.00052814,5277.7,0.00053761,5852.5,-4.768e-05,1454.8,-0.00024131,-0.022199,0.022825
23818,1.8365,3.3636,0.1,0.00053163,5312.6,0.00054109,5896.3,-4.639e-05,1482.2,-0.00024366,-0.026561,0.020718
23819,1.9284,3.2727,0.1,0.00052831,5279.5,0.00053784,5851,-4.8796e-05,1443.2,-0.00024088,-0.022121,0.022793
23820,1.8365,3.5455,0.1,0.00053198,5316.2,0.00054159,5891.4,-4.9203e-05,1452.5,-0.00024252,-0.02644,0.020643
23821,1.9284,3.4545,0.1,0.00052869,5283.2,0.00053832,5848,-5.1049e-05,1419.7,-0.00024,-0.022105,0.02273
23822,1.8365,3.7273,0.1,0.00053259,5322.2,0.00054237,5885.3,-5.3228e-05,1410.2,-0.00024092,-0.026811,0.020537
23823,1.9284,3.6364,0.1,0.00052933,5289.6,0.0005391,5844.1,-5.4483e-05,1384.1,-0.0002387,-0.022462,0.022632
23824,1.8365,3.9091,0.1,0.00053356,5331.9,0.00054352,5878.6,-5.8543e-05,1354.9,-0.00023887,-0.028351,0.020396
23825,1.9284,3.8182,0.1,0.00053032,5299.5,0.00054025,5839.6,-5.9157e-05,1335.9,-0.00023696,-0.023727,0.022499
23826,1.8365,4.0909,0.1,0.00053502,5346.5,0.00054516,5872.2,-6.5237e-05,1285.9,-0.00023638,-0.032132,0.020218
23827,1.9284,4,0.1,0.00053177,5314,0.00054185,5835.4,-6.514e-05,1274.7,-0.0002348,-0.026744,0.022329
23828,1.8365,4.2727,0.1,0.00053715,5367.8,0.0005474,5867.1,-7.3397e-05,1202.7,-0.00023347,-0.039757,0.019998
23829,1.9284,4.1818,0.1,0.00053382,5334.5,0.000544,5832.3,-7.2505e-05,1200.1,-0.00023223,-0.032789,0.022116
23830,1.8365,4.4545,0.1,0.00054012,5397.5,0.00055036,5864.4,-8.3089e-05,1104.9,-0.00023015,-0.053602,0.019733
23831,1.9284,4.3636,0.1,0.00053662,5362.4,0.00054681,5831.2,-8.1308e-05,1111.7,-0.00022928,-0.043671,0.021858
23832,1.8365,4.6364,0.1,0.00054411,5437.3,0.00055415,5865.3,-9.434e-05,992.76,-0.00022648,-0.076762,0.019417
23833,1.9284,4.5455,0.1,0.00054032,5399.5,0.00055036,5833,-9.1578e-05,1009.7,-0.00022597,-0.06204,0.021549
23834,1.8365,4.8182,0.1,0.00054927,5488.9,0.00055885,5870.7,-0.00010711,866.96,-0.00022251,-0.11426,0.019043
23835,1.9284,4.7273,0.1,0.00054507,5446.9,0.00055474,5838.8,-0.00010329,894.56,-0.00022236,-0.090941,0.021183
23836,1.8365,5,0.1,0.00055569,5553.1,0.00056448,5881.5,-0.00012126,729.1,-0.00021832,-0.16978,0.018603
23837,1.9284,4.9091,0.1,0.00055097,5505.8,0.00055999,5849.2,-0.00011636,767.45,-0.00021851,-0.13665,0.020753
23838,1.8365,5.1818,0.1,0.0005634,5630.1,0.00057103,5898.2,-0.00013655,581.72,-0.00021401,-0.26359,0.018089
23839,1.9284,5.0909,0.1,0.00055804,5576.6,0.00056608,5864.9,-0.00013059,630.39,-0.00021451,-0.1998,0.020251
23840,1.8365,5.3636,0.1,0.00057231,5719.1,0.00057838,5921,-0.00015266,428.26,-0.00020971,-0.37557,0.017492
23841,1.9284,5.2727,0.1,0.00056626,5658.7,0.00057296,5886,-0.00014571,486.17,-0.00021046,-0.31973,0.01967
23842,1.8365,5.5455,0.1,0.00058231,5819,0.00058644,5950,-0.00016921,272.28,-0.00020556,-0.81533,0.016801
23843,1.9284,5.4545,0.1,0.0005755,5751,0.0005805,5912.5,-0.00016138,338.24,-0.00020646,-0.42484,0.018998
23844,1.8365,5.7273,0.1,0.00059395,5935.4,0.00059576,5990.2,-0.00018642,113.21,-0.00020175,-1.9744,0.016007
23845,1.9284,5.6364,0.1,0.00058566,5852.6,0.00058863,5944.4,-0.00017729,189.52,-0.00020268,-1.2285,0.018226
23846,1.9284,5.8182,0.1,0.00059789,5974.8,0.00059844,5991.1,-0.00019379,38.671,-0.00019969,-5.6956,0.017345
23847,1.8365,5.9091,0.1,0.00059959,5991.7,0.00059969,5994.8,-0.00019711,7.9568,-0.00019841,-1.8481,0.015097
23848,2.0202,0.27273,0.1,0.00058956,5891.5,0.00059134,5945.6,-0.00018514,111.41,-0.00020018,-1.6584,0.019692
23849,2.112,0.18182,0.1,0.0005926,5921.9,0.00059324,5941.1,-0.00019177,42.863,-0.00019802,-4.1674,0.021197
23850,2.0202,0.090909,0.1,0.00059519,5947.8,0.00059538,5953.5,-0.00019529,12.734,-0.00019714,-1.2129,0.018722
23851,2.0202,0.45455,0.1,0.00057882,5784.2,0.00058273,5907.2,-0.00016952,255.07,-0.00020357,-0.72944,0.020546
23852,2.112,0.36364,0.1,0.00058143,5810.3,0.00058427,5897.8,-0.00017669,180.22,-0.00020082,-1.0922,0.022136
23853,2.0202,0.63636,0.1,0.00056942,5690.3,0.00057511,5877.7,-0.00015447,395.87,-0.0002072,-0.33961,0.021295
23854,2.112,0.54545,0.1,0.00057195,5715.6,0.00057665,5866.3,-0.0001622,314.85,-0.00020416,-0.37808,0.022964
23855,2.0202,0.81818,0.1,0.00056087,5604.8,0.00056804,5852.8,-0.00013977,534.64,-0.00021096,-0.24307,0.021948
23856,2.112,0.72727,0.1,0.00056321,5628.2,0.00056949,5838.9,-0.00014791,448.67,-0.00020766,-0.28994,0.02369
23857,2.0202,1,0.1,0.00055327,5528.9,0.0005616,5832.7,-0.0001257,668.64,-0.00021471,-0.15954,0.022514
23858,2.112,0.90909,0.1,0.00055526,5548.8,0.00056284,5815.7,-0.00013405,579.53,-0.00021121,-0.18352,0.024325
23859,2.0202,1.1818,0.1,0.00054672,5463.4,0.00055588,5817.3,-0.00011254,795.04,-0.00021837,-0.10883,0.023003
23860,2.112,1.0909,0.1,0.00054824,5478.6,0.00055682,5796.8,-0.00012091,704.66,-0.00021471,-0.1268,0.024875
23861,2.0202,1.3636,0.1,0.00054123,5408.6,0.00055094,5806.4,-0.00010052,911.6,-0.00022186,-0.073158,0.023422
23862,2.112,1.2727,0.1,0.0005422,5418.3,0.00055148,5782.1,-0.00010871,821.68,-0.00021809,-0.08434,0.02535
23863,2.0202,1.5455,0.1,0.00053677,5364,0.00054679,5799.6,-8.9775e-05,1016.7,-0.0002251,-0.049916,0.023778
23864,2.112,1.4545,0.1,0.00053714,5367.7,0.00054688,5771.5,-9.7648e-05,928.76,-0.00022127,-0.056288,0.025758
23865,2.0202,1.7273,0.1,0.00053324,5328.8,0.00054338,5796.1,-8.0387e-05,1109.4,-0.00022804,-0.035075,0.024079
23866,2.112,1.6364,0.1,0.00053302,5326.5,0.000543,5764.3,-8.7821e-05,1024.6,-0.00022419,-0.037474,0.026104
23867,2.0202,1.9091,0.1,0.00053053,5301.6,0.00054065,5795.2,-7.2374e-05,1189.2,-0.00023065,-0.026156,0.024329
23868,2.112,1.8182,0.1,0.00052973,5293.7,0.00053981,5760.1,-7.929e-05,1108.5,-0.00022682,-0.02553,0.026395
23869,2.0202,2.0909,0.1,0.0005285,5281.4,0.00053854,5796.1,-6.5717e-05,1256,-0.00023288,-0.021139,0.024533
23870,2.112,2,0.1,0.00052719,5268.3,0.00053725,5758.2,-7.2068e-05,1180,-0.00022912,-0.01827,0.026635
23871,2.0202,2.2727,0.1,0.00052704,5266.7,0.00053695,5798.1,-6.0373e-05,1310,-0.00023473,-0.018581,0.024695
23872,2.112,2.1818,0.1,0.00052528,5249.1,0.00053526,5757.8,-6.6136e-05,1239.2,-0.00023106,-0.014135,0.026829
23873,2.0202,2.4545,0.1,0.00052602,5256.5,0.0005358,5800.3,-5.6289e-05,1351.6,-0.00023618,-0.017457,0.024818
23874,2.112,2.3636,0.1,0.00052389,5235.2,0.00053377,5758.4,-6.146e-05,1286.1,-0.00023263,-0.011964,0.02698
23875,2.0202,2.6364,0.1,0.00052536,5249.9,0.00053503,5802.4,-5.3415e-05,1381,-0.00023722,-0.017075,0.024904
23876,2.112,2.5455,0.1,0.00052293,5225.7,0.00053271,5759.4,-5.7999e-05,1321,-0.00023381,-0.010945,0.027091
23877,2.0202,2.8182,0.1,0.00052499,5246.2,0.0005346,5803.8,-5.1708e-05,1398.5,-0.00023784,-0.017003,0.024955
23878,2.112,2.7273,0.1,0.00052233,5219.7,0.00053204,5760.3,-5.5716e-05,1344.1,-0.00023461,-0.010535,0.027164
23879,2.0202,3,0.1,0.00052487,5245.1,0.00053445,5804.3,-5.1142e-05,1404.3,-0.00023805,-0.017004,0.024972
23880,2.112,2.9091,0.1,0.00052204,5216.8,0.00053171,5760.8,-5.4581e-05,1355.6,-0.000235,-0.010407,0.0272
23881,2.0202,3.1818,0.1,0.00052499,5246.2,0.0005346,5803.8,-5.1708e-05,1398.5,-0.00023784,-0.017003,0.024955
23882,2.112,3.0909,0.1,0.00052204,5216.8,0.00053171,5760.8,-5.4581e-05,1355.6,-0.000235,-0.010407,0.0272
23883,2.0202,3.3636,0.1,0.00052536,5249.9,0.00053503,5802.4,-5.3415e-05,1381,-0.00023722,-0.017075,0.024904
23884,2.112,3.2727,0.1,0.00052233,5219.7,0.00053204,5760.3,-5.5716e-05,1344.1,-0.00023461,-0.010535,0.027164
23885,2.0202,3.5455,0.1,0.00052602,5256.5,0.0005358,5800.3,-5.6289e-05,1351.6,-0.00023618,-0.017457,0.024818
23886,2.112,3.4545,0.1,0.00052293,5225.7,0.00053271,5759.4,-5.7999e-05,1321,-0.00023381,-0.010945,0.027091
23887,2.0202,3.7273,0.1,0.00052704,5266.7,0.00053695,5798.1,-6.0373e-05,1310,-0.00023473,-0.018581,0.024695
23888,2.112,3.6364,0.1,0.00052389,5235.2,0.00053377,5758.4,-6.146e-05,1286.1,-0.00023263,-0.011964,0.02698
23889,2.0202,3.9091,0.1,0.0005285,5281.4,0.00053854,5796.1,-6.5717e-05,1256,-0.00023288,-0.021139,0.024533
23890,2.112,3.8182,0.1,0.00052528,5249.1,0.00053526,5757.8,-6.6136e-05,1239.2,-0.00023106,-0.014135,0.026829
23891,2.0202,4.0909,0.1,0.00053053,5301.6,0.00054065,5795.2,-7.2374e-05,1189.2,-0.00023065,-0.026155,0.024329
23892,2.112,4,0.1,0.00052719,5268.3,0.00053725,5758.2,-7.2068e-05,1180,-0.00022912,-0.01827,0.026635
23893,2.0202,4.2727,0.1,0.00053324,5328.8,0.00054338,5796.1,-8.0387e-05,1109.4,-0.00022804,-0.035075,0.024079
23894,2.112,4.1818,0.1,0.00052973,5293.7,0.00053981,5760.1,-7.929e-05,1108.5,-0.00022682,-0.02553,0.026395
23895,2.0202,4.4545,0.1,0.00053677,5364,0.00054679,5799.6,-8.9775e-05,1016.7,-0.0002251,-0.049915,0.023778
23896,2.112,4.3636,0.1,0.00053302,5326.5,0.000543,5764.3,-8.7821e-05,1024.6,-0.00022419,-0.037474,0.026104
23897,2.0202,4.6364,0.1,0.00054123,5408.6,0.00055094,5806.4,-0.00010052,911.6,-0.00022186,-0.073158,0.023422
23898,2.112,4.5455,0.1,0.00053714,5367.7,0.00054688,5771.5,-9.7648e-05,928.76,-0.00022127,-0.056288,0.025758
23899,2.0202,4.8182,0.1,0.00054672,5463.4,0.00055588,5817.3,-0.00011254,795.04,-0.00021837,-0.10883,0.023003
23900,2.112,4.7273,0.1,0.0005422,5418.3,0.00055148,5782.1,-0.00010871,821.68,-0.00021809,-0.08434,0.02535
23901,2.0202,5,0.1,0.00055327,5528.9,0.0005616,5832.7,-0.0001257,668.64,-0.00021471,-0.15954,0.022514
23902,2.112,4.9091,0.1,0.00054824,5478.6,0.00055682,5796.8,-0.00012091,704.66,-0.00021471,-0.12679,0.024875
23903,2.0202,5.1818,0.1,0.00056087,5604.8,0.00056804,5852.8,-0.00013977,534.64,-0.00021096,-0.24307,0.021948
23904,2.112,5.0909,0.1,0.00055526,5548.8,0.00056284,5815.7,-0.00013405,579.53,-0.00021121,-0.18352,0.024325
23905,2.0202,5.3636,0.1,0.00056942,5690.3,0.00057511,5877.7,-0.00015447,395.87,-0.0002072,-0.33961,0.021295
23906,2.112,5.2727,0.1,0.00056321,5628.2,0.00056949,5838.9,-0.00014791,448.67,-0.00020766,-0.28994,0.02369
23907,2.0202,5.5455,0.1,0.00057882,5784.2,0.00058273,5907.2,-0.00016952,255.07,-0.00020357,-0.72944,0.020546
23908,2.112,5.4545,0.1,0.00057195,5715.6,0.00057665,5866.3,-0.0001622,314.85,-0.00020416,-0.37808,0.022964
23909,2.0202,5.7273,0.1,0.00058956,5891.5,0.00059134,5945.6,-0.00018514,111.41,-0.00020018,-1.6584,0.019692
23910,2.112,5.6364,0.1,0.00058143,5810.3,0.00058427,5897.8,-0.00017669,180.22,-0.00020082,-1.0922,0.022136
23911,2.112,5.8182,0.1,0.0005926,5921.9,0.00059324,5941.1,-0.00019177,42.863,-0.00019802,-4.1674,0.021197
23912,2.0202,5.9091,0.1,0.00059519,5947.8,0.00059538,5953.5,-0.00019529,12.734,-0.00019714,-1.2129,0.018722
23913,2.2038,0.27273,0.1,0.00058444,5840.4,0.0005862,5893.5,-0.00018364,109.23,-0.00019837,-1.4035,0.023769
23914,2.2957,0.18182,0.1,0.00058676,5863.5,0.00058747,5884.9,-0.00018961,46.129,-0.00019617,-3.1511,0.025444
23915,2.2038,0.090909,0.1,0.00059003,5896.2,0.00059029,5904.1,-0.00019327,16.659,-0.00019561,-0.93119,0.022744
23916,2.2038,0.45455,0.1,0.00057454,5741.4,0.00057823,5857.1,-0.00016942,239.65,-0.0002014,-0.65144,0.024677
23917,2.2957,0.36364,0.1,0.00057654,5761.4,0.00057924,5844.7,-0.00017581,171.51,-0.00019877,-0.97421,0.026434
23918,2.2038,0.63636,0.1,0.00056571,5653.2,0.00057106,5827.8,-0.00015568,367.39,-0.00020461,-0.30348,0.025479
23919,2.2957,0.54545,0.1,0.0005677,5673.1,0.00057212,5814.1,-0.00016257,293.96,-0.00020174,-0.33601,0.027313
23920,2.2038,0.81818,0.1,0.00055757,5571.9,0.00056432,5802,-0.00014222,493.37,-0.00020791,-0.21943,0.026183
23921,2.2957,0.72727,0.1,0.00055945,5590.6,0.00056535,5786.7,-0.0001495,415.55,-0.00020484,-0.26155,0.02809
23922,2.2038,1,0.1,0.0005502,5498.2,0.00055808,5779.9,-0.00012928,615.43,-0.00021121,-0.1447,0.026799
23923,2.2957,0.90909,0.1,0.00055185,5514.7,0.00055899,5762.4,-0.00013679,534.62,-0.00020796,-0.16667,0.028772
23924,2.2038,1.1818,0.1,0.00054369,5433.1,0.00055242,5761.7,-0.00011709,731.25,-0.00021442,-0.098461,0.027333
23925,2.2957,1.0909,0.1,0.000545,5446.3,0.00055313,5741.6,-0.00012466,648.94,-0.00021104,-0.11571,0.029368
23926,2.2038,1.3636,0.1,0.00053807,5377,0.00054741,5747.1,-0.00010584,838.87,-0.00021749,-0.064833,0.027794
23927,2.2957,1.2727,0.1,0.00053897,5386,0.00054784,5724.2,-0.00011333,756.5,-0.00021402,-0.076526,0.029886
23928,2.2038,1.5455,0.1,0.00053335,5329.8,0.00054307,5736.1,-9.5679e-05,936.77,-0.00022036,-0.041934,0.028189
23929,2.2957,1.4545,0.1,0.00053379,5334.2,0.00054317,5710.3,-0.00010294,855.64,-0.00021683,-0.049707,0.030332
23930,2.2038,1.7273,0.1,0.00052947,5291.1,0.0005394,5728.2,-8.6702e-05,1023.9,-0.00022297,-0.026486,0.028523
23931,2.2957,1.6364,0.1,0.00052943,5290.6,0.00053913,5699.4,-9.3635e-05,945.11,-0.00021942,-0.030905,0.030713
23932,2.2038,1.9091,0.1,0.00052637,5260,0.00053638,5722.9,-7.8956e-05,1099.5,-0.0002253,-0.01652,0.028803
23933,2.2957,1.8182,0.1,0.00052584,5254.8,0.00053572,5691.4,-8.5473e-05,1024,-0.00022177,-0.018281,0.031035
23934,2.2038,2.0909,0.1,0.00052394,5235.8,0.00053394,5719.7,-7.2455e-05,1163.4,-0.0002273,-0.010364,0.029032
23935,2.2957,2,0.1,0.00052297,5226.1,0.00053291,5685.8,-7.8496e-05,1091.9,-0.00022382,-0.010053,0.031302
23936,2.2038,2.2727,0.1,0.00052211,5217.5,0.00053205,5717.9,-6.7188e-05,1215.5,-0.00022896,-0.0067722,0.029214
23937,2.2957,2.1818,0.1,0.00052073,5203.7,0.00053067,5682,-7.2716e-05,1148.4,-0.00022556,-0.0049215,0.031518
23938,2.2038,2.4545,0.1,0.00052078,5204.2,0.00053064,5717.2,-6.3133e-05,1255.8,-0.00023027,-0.0048146,0.029353
23939,2.2957,2.3636,0.1,0.00051905,5186.9,0.00052894,5679.6,-6.8125e-05,1193.5,-0.00022697,-0.001873,0.031687
23940,2.2038,2.6364,0.1,0.00051988,5195.3,0.00052968,5717,-6.0262e-05,1284.4,-0.00023121,-0.0038374,0.02945
23941,2.2957,2.5455,0.1,0.00051785,5174.9,0.00052769,5678.2,-6.4705e-05,1227.2,-0.00022804,-0.00016997,0.031811
23942,2.2038,2.8182,0.1,0.00051937,5190.1,0.00052911,5717,-5.855e-05,1301.5,-0.00023177,-0.003411,0.029508
23943,2.2957,2.7273,0.1,0.00051709,5167.3,0.00052688,5677.5,-6.2439e-05,1249.6,-0.00022875,0.00070167,0.031893
23944,2.2038,3,0.1,0.0005192,5188.4,0.00052893,5717,-5.7982e-05,1307.2,-0.00023196,-0.0032947,0.029527
23945,2.2957,2.9091,0.1,0.00051671,5163.6,0.00052648,5677.2,-6.131e-05,1260.8,-0.00022911,0.001061,0.031934
23946,2.2038,3.1818,0.1,0.00051937,5190.1,0.00052911,5717,-5.855e-05,1301.5,-0.00023177,-0.0034109,0.029508
23947,2.2957,3.0909,0.1,0.00051671,5163.6,0.00052648,5677.2,-6.131e-05,1260.8,-0.00022911,0.001061,0.031934
23948,2.2038,3.3636,0.1,0.00051988,5195.3,0.00052968,5717,-6.0262e-05,1284.4,-0.00023121,-0.0038373,0.02945
23949,2.2957,3.2727,0.1,0.00051709,5167.3,0.00052688,5677.5,-6.2439e-05,1249.6,-0.00022875,0.00070175,0.031893
23950,2.2038,3.5455,0.1,0.00052078,5204.2,0.00053064,5717.2,-6.3133e-05,1255.8,-0.00023027,-0.0048145,0.029353
23951,2.2957,3.4545,0.1,0.00051785,5174.9,0.00052769,5678.2,-6.4705e-05,1227.2,-0.00022804,-0.00016982,0.031811
23952,2.2038,3.7273,0.1,0.00052211,5217.5,0.00053205,5717.9,-6.7188e-05,1215.5,-0.00022896,-0.006772,0.029214
23953,2.2957,3.6364,0.1,0.00051905,5186.9,0.00052894,5679.6,-6.8125e-05,1193.5,-0.00022697,-0.0018728,0.031687
23954,2.2038,3.9091,0.1,0.00052394,5235.8,0.00053394,5719.7,-7.2455e-05,1163.4,-0.0002273,-0.010364,0.029032
23955,2.2957,3.8182,0.1,0.00052073,5203.7,0.00053067,5682,-7.2716e-05,1148.4,-0.00022556,-0.0049213,0.031518
23956,2.2038,4.0909,0.1,0.00052637,5260,0.00053638,5722.9,-7.8956e-05,1099.5,-0.0002253,-0.01652,0.028803
23957,2.2957,4,0.1,0.00052297,5226.1,0.00053291,5685.8,-7.8496e-05,1091.9,-0.00022382,-0.010053,0.031302
23958,2.2038,4.2727,0.1,0.00052947,5291.1,0.0005394,5728.2,-8.6702e-05,1023.9,-0.00022297,-0.026486,0.028523
23959,2.2957,4.1818,0.1,0.00052584,5254.8,0.00053572,5691.4,-8.5473e-05,1024,-0.00022177,-0.01828,0.031035
23960,2.2038,4.4545,0.1,0.00053335,5329.8,0.00054307,5736.1,-9.5679e-05,936.77,-0.00022036,-0.041933,0.028189
23961,2.2957,4.3636,0.1,0.00052943,5290.6,0.00053913,5699.4,-9.3635e-05,945.11,-0.00021942,-0.030905,0.030713
23962,2.2038,4.6364,0.1,0.00053807,5377,0.00054741,5747.1,-0.00010584,838.87,-0.00021749,-0.064832,0.027794
23963,2.2957,4.5455,0.1,0.00053379,5334.2,0.00054317,5710.3,-0.00010294,855.64,-0.00021683,-0.049706,0.030332
23964,2.2038,4.8182,0.1,0.00054369,5433.1,0.00055242,5761.7,-0.00011709,731.25,-0.00021442,-0.098461,0.027333
23965,2.2957,4.7273,0.1,0.00053897,5386,0.00054784,5724.2,-0.00011333,756.5,-0.00021402,-0.076526,0.029886
23966,2.2038,5,0.1,0.0005502,5498.2,0.00055808,5779.9,-0.00012928,615.43,-0.00021121,-0.1447,0.026799
23967,2.2957,4.9091,0.1,0.000545,5446.3,0.00055313,5741.6,-0.00012466,648.94,-0.00021104,-0.11571,0.029368
23968,2.2038,5.1818,0.1,0.00055757,5571.9,0.00056432,5802,-0.00014222,493.37,-0.00020791,-0.21943,0.026183
23969,2.2957,5.0909,0.1,0.00055185,5514.7,0.00055899,5762.4,-0.00013679,534.62,-0.00020796,-0.16667,0.028772
23970,2.2038,5.3636,0.1,0.00056571,5653.2,0.00057106,5827.8,-0.00015568,367.39,-0.00020461,-0.30348,0.025479
23971,2.2957,5.2727,0.1,0.00055945,5590.6,0.00056535,5786.7,-0.0001495,415.55,-0.00020484,-0.26155,0.02809
23972,2.2038,5.5455,0.1,0.00057454,5741.4,0.00057823,5857.1,-0.00016942,239.65,-0.0002014,-0.65144,0.024677
23973,2.2957,5.4545,0.1,0.0005677,5673.1,0.00057212,5814.1,-0.00016257,293.96,-0.00020174,-0.33601,0.027313
23974,2.2038,5.7273,0.1,0.00058444,5840.4,0.0005862,5893.5,-0.00018364,109.23,-0.00019837,-1.4035,0.023769
23975,2.2957,5.6364,0.1,0.00057654,5761.4,0.00057924,5844.7,-0.00017581,171.51,-0.00019877,-0.97421,0.026434
23976,2.2957,5.8182,0.1,0.00058676,5863.5,0.00058747,5884.9,-0.00018961,46.129,-0.00019617,-3.1511,0.025444
23977,2.2038,5.9091,0.1,0.00059003,5896.2,0.00059029,5904.1,-0.00019327,16.659,-0.00019561,-0.93119,0.022744
23978,2.3875,0.27273,0.1,0.00057883,5784.3,0.00058055,5836.2,-0.00018202,106.66,-0.00019637,-1.1978,0.028235
23979,2.4793,0.18182,0.1,0.00058054,5801.4,0.00058131,5824.3,-0.0001874,48.481,-0.00019418,-2.4464,0.030081
23980,2.3875,0.090909,0.1,0.00058433,5839.2,0.00058465,5848.7,-0.00019114,19.698,-0.00019387,-0.76868,0.027162
23981,2.3875,0.45455,0.1,0.00056968,5692.8,0.00057317,5801.9,-0.00016901,225.52,-0.0001991,-0.5844,0.029193
23982,2.4793,0.36364,0.1,0.00057117,5707.7,0.00057375,5787.1,-0.00017475,163.16,-0.00019658,-0.87248,0.031118
23983,2.3875,0.63636,0.1,0.00056141,5610.3,0.00056644,5773.2,-0.00015643,341.88,-0.00020197,-0.27273,0.030043
23984,2.4793,0.54545,0.1,0.00056293,5625.4,0.0005671,5757.7,-0.00016261,274.96,-0.00019925,-0.29974,0.032043
23985,2.3875,0.81818,0.1,0.0005537,5533.2,0.00056005,5747.3,-0.00014409,456.61,-0.00020489,-0.19935,0.030794
23986,2.4793,0.72727,0.1,0.00055518,5547.9,0.00056073,5730.6,-0.00015063,385.81,-0.00020201,-0.23658,0.032865
23987,2.3875,1,0.1,0.00054663,5462.5,0.00055406,5724.2,-0.00013219,568,-0.0002078,-0.13244,0.031455
23988,2.4793,0.90909,0.1,0.00054795,5475.8,0.00055468,5706.1,-0.00013895,494.42,-0.00020477,-0.15174,0.033592
23989,2.3875,1.1818,0.1,0.00054026,5398.9,0.00054856,5704.2,-0.00012091,674.11,-0.00021064,-0.090462,0.032032
23990,2.4793,1.0909,0.1,0.00054135,5409.8,0.00054905,5684.3,-0.00012777,598.96,-0.0002075,-0.10598,0.03423
23991,2.3875,1.3636,0.1,0.00053466,5342.9,0.0005436,5687.4,-0.00011043,773.26,-0.00021335,-0.059116,0.032532
23992,2.4793,1.2727,0.1,0.00053544,5350.7,0.00054389,5665.3,-0.00011726,697.74,-0.00021013,-0.070029,0.034788
23993,2.3875,1.5455,0.1,0.00052983,5294.7,0.00053921,5673.5,-0.00010089,864.04,-0.00021589,-0.037006,0.032963
23994,2.4793,1.4545,0.1,0.00053026,5298.9,0.00053926,5649.3,-0.00010757,789.27,-0.00021262,-0.04472,0.03527
23995,2.3875,1.7273,0.1,0.00052577,5254.1,0.00053543,5662.6,-9.239e-05,945.38,-0.00021822,-0.021423,0.033329
23996,2.4793,1.6364,0.1,0.00052581,5254.4,0.00053518,5636,-9.8818e-05,872.38,-0.00021493,-0.026334,0.035684
23997,2.3875,1.9091,0.1,0.00052242,5220.6,0.00053224,5654.1,-8.4991e-05,1016.5,-0.00022029,-0.010806,0.033637
23998,2.4793,1.8182,0.1,0.00052206,5217,0.00053168,5625.4,-9.1084e-05,946.15,-0.00021701,-0.013428,0.036035
23999,2.3875,2.0909,0.1,0.00051974,5193.8,0.00052961,5647.9,-7.873e-05,1077,-0.00022208,-0.0037897,0.03389
24000,2.4793,2,0.1,0.00051899,5186.4,0.00052874,5617.1,-8.4423e-05,1010,-0.00021884,-0.0045594,0.036327
24001,2.3875,2.2727,0.1,0.00051765,5173,0.00052753,5643.4,-7.3621e-05,1126.6,-0.00022357,0.00066657,0.034092
24002,2.4793,2.1818,0.1,0.00051654,5161.9,0.00052635,5610.8,-7.8865e-05,1063.4,-0.0002204,0.0013381,0.036564
24003,2.3875,2.4545,0.1,0.0005161,5157.5,0.00052595,5640.4,-6.9663e-05,1165.2,-0.00022474,0.0033693,0.034246
24004,2.4793,2.3636,0.1,0.00051466,5143.1,0.00052448,5606.2,-7.4424e-05,1106.3,-0.00022167,0.0051191,0.03675
24005,2.3875,2.6364,0.1,0.00051504,5146.8,0.00052485,5638.5,-6.6847e-05,1192.7,-0.00022558,0.0049069,0.034354
24006,2.4793,2.5455,0.1,0.0005133,5129.5,0.0005231,5603.1,-7.1099e-05,1138.5,-0.00022263,0.0074261,0.036888
24007,2.3875,2.8182,0.1,0.00051442,5140.6,0.0005242,5637.4,-6.5163e-05,1209.2,-0.00022609,0.0056776,0.034418
24008,2.4793,2.7273,0.1,0.00051242,5120.7,0.0005222,5601.2,-6.8887e-05,1160,-0.00022327,0.008721,0.036978
24009,2.3875,3,0.1,0.00051421,5138.6,0.00052399,5637.1,-6.4602e-05,1214.7,-0.00022626,0.0059097,0.03444
24010,2.4793,2.9091,0.1,0.00051199,5116.3,0.00052175,5600.2,-6.7783e-05,1170.7,-0.00022359,0.009297,0.037023
24011,2.3875,3.1818,0.1,0.00051442,5140.6,0.0005242,5637.4,-6.5163e-05,1209.2,-0.00022609,0.0056776,0.034418
24012,2.4793,3.0909,0.1,0.00051199,5116.3,0.00052175,5600.2,-6.7783e-05,1170.7,-0.00022359,0.009297,0.037023
24013,2.3875,3.3636,0.1,0.00051504,5146.8,0.00052485,5638.5,-6.6847e-05,1192.7,-0.00022558,0.004907,0.034354
24014,2.4793,3.2727,0.1,0.00051242,5120.7,0.0005222,5601.2,-6.8887e-05,1160,-0.00022327,0.008721,0.036978
24015,2.3875,3.5455,0.1,0.0005161,5157.5,0.00052595,5640.4,-6.9663e-05,1165.2,-0.00022474,0.0033695,0.034246
24016,2.4793,3.4545,0.1,0.0005133,5129.5,0.0005231,5603.1,-7.1099e-05,1138.5,-0.00022263,0.0074263,0.036888
24017,2.3875,3.7273,0.1,0.00051765,5173,0.00052753,5643.4,-7.3621e-05,1126.6,-0.00022357,0.00066671,0.034092
24018,2.4793,3.6364,0.1,0.00051466,5143.1,0.00052448,5606.2,-7.4424e-05,1106.3,-0.00022167,0.0051192,0.03675
24019,2.3875,3.9091,0.1,0.00051974,5193.8,0.00052961,5647.9,-7.873e-05,1077,-0.00022208,-0.0037895,0.03389
24020,2.4793,3.8182,0.1,0.00051654,5161.9,0.00052635,5610.8,-7.8865e-05,1063.4,-0.0002204,0.0013383,0.036564
24021,2.3875,4.0909,0.1,0.00052242,5220.6,0.00053224,5654.1,-8.4991e-05,1016.5,-0.00022029,-0.010805,0.033637
24022,2.4793,4,0.1,0.00051899,5186.4,0.00052874,5617.1,-8.4423e-05,1010,-0.00021884,-0.0045592,0.036327
24023,2.3875,4.2727,0.1,0.00052577,5254.1,0.00053543,5662.6,-9.239e-05,945.38,-0.00021822,-0.021423,0.033329
24024,2.4793,4.1818,0.1,0.00052206,5217,0.00053168,5625.4,-9.1084e-05,946.15,-0.00021701,-0.013428,0.036035
24025,2.3875,4.4545,0.1,0.00052983,5294.7,0.00053921,5673.5,-0.00010089,864.04,-0.00021589,-0.037006,0.032963
24026,2.4793,4.3636,0.1,0.00052581,5254.4,0.00053518,5636,-9.8818e-05,872.38,-0.00021493,-0.026334,0.035684
24027,2.3875,4.6364,0.1,0.00053466,5342.9,0.0005436,5687.4,-0.00011043,773.26,-0.00021335,-0.059115,0.032532
24028,2.4793,4.5455,0.1,0.00053026,5298.9,0.00053926,5649.3,-0.00010757,789.27,-0.00021262,-0.044719,0.03527
24029,2.3875,4.8182,0.1,0.00054026,5398.9,0.00054856,5704.2,-0.00012091,674.11,-0.00021064,-0.090461,0.032032
24030,2.4793,4.7273,0.1,0.00053544,5350.7,0.00054389,5665.3,-0.00011726,697.74,-0.00021013,-0.070028,0.034788
24031,2.3875,5,0.1,0.00054663,5462.5,0.00055406,5724.2,-0.00013219,568,-0.0002078,-0.13244,0.031455
24032,2.4793,4.9091,0.1,0.00054135,5409.8,0.00054905,5684.3,-0.00012777,598.96,-0.0002075,-0.10598,0.03423
24033,2.3875,5.1818,0.1,0.0005537,5533.2,0.00056005,5747.3,-0.00014409,456.61,-0.00020489,-0.19934,0.030794
24034,2.4793,5.0909,0.1,0.00054795,5475.8,0.00055468,5706.1,-0.00013895,494.42,-0.00020477,-0.15174,0.033592
24035,2.3875,5.3636,0.1,0.00056141,5610.3,0.00056644,5773.2,-0.00015643,341.88,-0.00020197,-0.27273,0.030043
24036,2.4793,5.2727,0.1,0.00055518,5547.9,0.00056073,5730.6,-0.00015063,385.81,-0.00020201,-0.23658,0.032865
24037,2.3875,5.5455,0.1,0.00056968,5692.8,0.00057317,5801.9,-0.00016901,225.52,-0.0001991,-0.5844,0.029193
24038,2.4793,5.4545,0.1,0.00056293,5625.4,0.0005671,5757.7,-0.00016261,274.96,-0.00019925,-0.29974,0.032043
24039,2.3875,5.7273,0.1,0.00057883,5784.3,0.00058055,5836.2,-0.00018202,106.66,-0.00019637,-1.1978,0.028235
24040,2.4793,5.6364,0.1,0.00057117,5707.7,0.00057375,5787.1,-0.00017475,163.16,-0.00019658,-0.87248,0.031118
24041,2.4793,5.8182,0.1,0.00058054,5801.4,0.00058131,5824.3,-0.0001874,48.481,-0.00019418,-2.4464,0.030081
24042,2.3875,5.9091,0.1,0.00058433,5839.2,0.00058465,5848.7,-0.00019114,19.698,-0.00019387,-0.76867,0.027162
24043,2.5712,0.27273,0.1,0.00057287,5724.7,0.00057454,5775.3,-0.00018031,103.7,-0.00019424,-1.0295,0.033088
24044,2.663,0.18182,0.1,0.00057408,5736.9,0.00057488,5760.7,-0.00018517,49.988,-0.00019208,-1.9398,0.035105
24045,2.5712,0.090909,0.1,0.00057825,5778.5,0.00057861,5789.1,-0.00018896,21.951,-0.00019196,-0.65939,0.031971
24046,2.5712,0.45455,0.1,0.00056441,5640.2,0.00056771,5743.1,-0.00016839,212.35,-0.00019672,-0.52539,0.03409
24047,2.663,0.36364,0.1,0.00056548,5650.9,0.00056794,5726.4,-0.00017356,155.07,-0.0001943,-0.7838,0.036184
24048,2.5712,0.63636,0.1,0.00055668,5563,0.00056141,5715.3,-0.00015684,318.68,-0.00019928,-0.24518,0.034985
24049,2.663,0.54545,0.1,0.0005578,5574.2,0.00056173,5698.3,-0.0001624,257.44,-0.0001967,-0.26785,0.037152
24050,2.5712,0.81818,0.1,0.00054941,5490.3,0.00055538,5689.7,-0.00014551,423.45,-0.00020189,-0.18079,0.035779
24051,2.663,0.72727,0.1,0.00055053,5501.5,0.00055575,5672,-0.0001514,358.77,-0.00019917,-0.21405,0.038016
24052,2.5712,1,0.1,0.00054266,5422.9,0.00054968,5666.3,-0.00013455,525.25,-0.00020448,-0.12074,0.036481
24053,2.663,0.90909,0.1,0.0005437,5433.2,0.00055003,5647.6,-0.00014066,458.04,-0.00020164,-0.13792,0.038782
24054,2.5712,1.1818,0.1,0.00053652,5361.5,0.00054439,5645.5,-0.00012413,622.5,-0.00020699,-0.082673,0.037097
24055,2.663,1.0909,0.1,0.00053739,5370.2,0.00054466,5625.5,-0.00013036,553.73,-0.00020407,-0.096801,0.039459
24056,2.5712,1.3636,0.1,0.00053102,5306.6,0.00053955,5627.3,-0.00011441,713.71,-0.0002094,-0.053642,0.037634
24057,2.663,1.2727,0.1,0.00053167,5313,0.00053969,5605.8,-0.00012063,644.4,-0.0002064,-0.06391,0.040053
24058,2.5712,1.5455,0.1,0.00052621,5258.5,0.00053522,5611.7,-0.0001055,797.63,-0.00021166,-0.032583,0.038098
24059,2.663,1.4545,0.1,0.00052658,5262.1,0.00053517,5588.5,-0.00011162,728.74,-0.00020862,-0.040238,0.040569
24060,2.5712,1.7273,0.1,0.00052208,5217.2,0.00053142,5598.7,-9.7502e-05,873.23,-0.00021372,-0.017211,0.038494
24061,2.663,1.6364,0.1,0.00052214,5217.8,0.00053115,5573.7,-0.00010344,805.67,-0.00021067,-0.022542,0.041014
24062,2.5712,1.9091,0.1,0.00051862,5182.6,0.00052817,5588.2,-9.0499e-05,939.72,-0.00021557,-0.0062816,0.038828
24063,2.663,1.8182,0.1,0.00051834,5179.8,0.00052765,5561.4,-9.6161e-05,874.29,-0.00021252,-0.0096762,0.041392
24064,2.5712,2.0909,0.1,0.00051578,5154.3,0.00052545,5579.8,-8.4536e-05,996.56,-0.00021717,0.0013108,0.039104
24065,2.663,2,0.1,0.00051518,5148.2,0.00052467,5551.3,-8.9859e-05,933.95,-0.00021416,-0.00046519,0.041708
24066,2.5712,2.2727,0.1,0.00051354,5131.9,0.00052327,5573.4,-7.9641e-05,1043.4,-0.0002185,0.0064216,0.039324
24067,2.663,2.1818,0.1,0.00051261,5122.6,0.00052221,5543.3,-8.4571e-05,984.16,-0.00021555,0.0059536,0.041965
24068,2.5712,2.4545,0.1,0.00051185,5115,0.00052159,5568.7,-7.583e-05,1079.9,-0.00021955,0.0097295,0.039493
24069,2.663,2.3636,0.1,0.00051061,5102.6,0.00052027,5537.2,-8.0324e-05,1024.6,-0.00021669,0.010286,0.042167
24070,2.5712,2.6364,0.1,0.00051067,5103.2,0.00052041,5565.5,-7.3108e-05,1106.1,-0.00022031,0.011743,0.039611
24071,2.663,2.5455,0.1,0.00050915,5088,0.00051882,5532.8,-7.7133e-05,1055,-0.00021755,0.013076,0.042316
24072,2.5712,2.8182,0.1,0.00050998,5096.3,0.00051971,5563.7,-7.1475e-05,1121.8,-0.00022077,0.012814,0.039682
24073,2.663,2.7273,0.1,0.00050819,5078.4,0.00051787,5530,-7.5003e-05,1075.4,-0.00021813,0.014722,0.042415
24074,2.5712,3,0.1,0.00050975,5094,0.00051948,5563.1,-7.0931e-05,1127,-0.00022093,0.013149,0.039705
24075,2.663,2.9091,0.1,0.00050772,5073.7,0.00051739,5528.6,-7.3938e-05,1085.6,-0.00021842,0.015481,0.042464
24076,2.5712,3.1818,0.1,0.00050998,5096.3,0.00051971,5563.7,-7.1475e-05,1121.8,-0.00022077,0.012814,0.039682
24077,2.663,3.0909,0.1,0.00050772,5073.7,0.00051739,5528.6,-7.3938e-05,1085.6,-0.00021842,0.015481,0.042464
24078,2.5712,3.3636,0.1,0.00051067,5103.2,0.00052041,5565.5,-7.3108e-05,1106.1,-0.00022031,0.011743,0.039611
24079,2.663,3.2727,0.1,0.00050819,5078.4,0.00051787,5530,-7.5003e-05,1075.4,-0.00021813,0.014722,0.042415
24080,2.5712,3.5455,0.1,0.00051185,5115,0.00052159,5568.7,-7.583e-05,1079.9,-0.00021955,0.0097297,0.039493
24081,2.663,3.4545,0.1,0.00050915,5088,0.00051882,5532.8,-7.7133e-05,1055,-0.00021755,0.013076,0.042316
24082,2.5712,3.7273,0.1,0.00051354,5131.9,0.00052327,5573.4,-7.9641e-05,1043.4,-0.0002185,0.0064218,0.039324
24083,2.663,3.6364,0.1,0.00051061,5102.6,0.00052027,5537.2,-8.0324e-05,1024.6,-0.00021669,0.010287,0.042167
24084,2.5712,3.9091,0.1,0.00051578,5154.3,0.00052545,5579.8,-8.4536e-05,996.56,-0.00021717,0.001311,0.039104
24085,2.663,3.8182,0.1,0.00051261,5122.6,0.00052221,5543.3,-8.4571e-05,984.16,-0.00021555,0.0059538,0.041965
24086,2.5712,4.0909,0.1,0.00051862,5182.6,0.00052817,5588.2,-9.0499e-05,939.72,-0.00021557,-0.0062812,0.038828
24087,2.663,4,0.1,0.00051518,5148.2,0.00052467,5551.3,-8.9859e-05,933.95,-0.00021416,-0.00046486,0.041708
24088,2.5712,4.2727,0.1,0.00052208,5217.2,0.00053142,5598.7,-9.7502e-05,873.23,-0.00021372,-0.017211,0.038494
24089,2.663,4.1818,0.1,0.00051834,5179.8,0.00052765,5561.4,-9.6161e-05,874.29,-0.00021252,-0.0096758,0.041392
24090,2.5712,4.4545,0.1,0.00052621,5258.5,0.00053522,5611.7,-0.0001055,797.63,-0.00021166,-0.032582,0.038098
24091,2.663,4.3636,0.1,0.00052214,5217.8,0.00053115,5573.7,-0.00010344,805.67,-0.00021067,-0.022542,0.041014
24092,2.5712,4.6364,0.1,0.00053102,5306.6,0.00053955,5627.3,-0.00011441,713.72,-0.0002094,-0.053642,0.037634
24093,2.663,4.5455,0.1,0.00052658,5262.1,0.00053517,5588.5,-0.00011162,728.74,-0.00020862,-0.040237,0.040569
24094,2.5712,4.8182,0.1,0.00053652,5361.5,0.00054439,5645.5,-0.00012413,622.5,-0.00020699,-0.082672,0.037097
24095,2.663,4.7273,0.1,0.00053167,5313,0.00053969,5605.8,-0.00012063,644.4,-0.0002064,-0.063909,0.040053
24096,2.5712,5,0.1,0.00054266,5422.9,0.00054968,5666.3,-0.00013455,525.25,-0.00020448,-0.12074,0.036481
24097,2.663,4.9091,0.1,0.00053739,5370.2,0.00054466,5625.5,-0.00013036,553.73,-0.00020407,-0.096801,0.039459
24098,2.5712,5.1818,0.1,0.00054941,5490.3,0.00055538,5689.7,-0.00014551,423.45,-0.00020189,-0.18079,0.035779
24099,2.663,5.0909,0.1,0.0005437,5433.2,0.00055003,5647.6,-0.00014066,458.04,-0.00020164,-0.13792,0.038782
24100,2.5712,5.3636,0.1,0.00055668,5563,0.00056141,5715.3,-0.00015684,318.68,-0.00019928,-0.24518,0.034985
24101,2.663,5.2727,0.1,0.00055053,5501.5,0.00055575,5672,-0.0001514,358.77,-0.00019917,-0.21405,0.038016
24102,2.5712,5.5455,0.1,0.00056441,5640.2,0.00056771,5743.1,-0.00016839,212.35,-0.00019672,-0.52539,0.03409
24103,2.663,5.4545,0.1,0.0005578,5574.2,0.00056173,5698.3,-0.0001624,257.44,-0.0001967,-0.26785,0.037152
24104,2.5712,5.7273,0.1,0.00057287,5724.7,0.00057454,5775.3,-0.00018031,103.7,-0.00019424,-1.0295,0.033088
24105,2.663,5.6364,0.1,0.00056548,5650.9,0.00056794,5726.4,-0.00017356,155.07,-0.0001943,-0.7838,0.036184
24106,2.663,5.8182,0.1,0.00057408,5736.9,0.00057488,5760.7,-0.00018517,49.988,-0.00019208,-1.9398,0.035105
24107,2.5712,5.9091,0.1,0.00057825,5778.5,0.00057861,5789.1,-0.00018896,21.951,-0.00019196,-0.65938,0.031971
24108,2.7548,0.27273,0.1,0.00056668,5662.9,0.0005683,5711.9,-0.00017855,100.39,-0.00019203,-0.89049,0.038325
24109,2.8466,0.18182,0.1,0.00056747,5670.8,0.00056829,5695.2,-0.00018294,50.745,-0.0001899,-1.5647,0.040514
24110,2.7548,0.090909,0.1,0.00057192,5715.3,0.00057231,5726.7,-0.00018674,23.53,-0.00018995,-0.57885,0.037169
24111,2.7548,0.45455,0.1,0.00055886,5584.7,0.00056198,5681.7,-0.0001676,199.94,-0.00019428,-0.47345,0.039367
24112,2.8466,0.36364,0.1,0.00055956,5591.8,0.00056191,5663.5,-0.00017227,147.18,-0.00019196,-0.7061,0.041631
24113,2.7548,0.63636,0.1,0.00055164,5512.6,0.00055609,5655.1,-0.00015698,297.34,-0.00019659,-0.22075,0.040301
24114,2.8466,0.54545,0.1,0.00055241,5520.3,0.00055612,5636.8,-0.00016201,241.11,-0.00019413,-0.23984,0.042636
24115,2.7548,0.81818,0.1,0.0005448,5444.2,0.00055042,5630.1,-0.00014657,393.2,-0.00019892,-0.16404,0.041135
24116,2.8466,0.72727,0.1,0.0005456,5452.3,0.00055051,5611.5,-0.00015188,333.93,-0.00019635,-0.19382,0.043537
24117,2.7548,1,0.1,0.00053841,5380.3,0.00054502,5607,-0.00013648,486.39,-0.00020123,-0.11002,0.041874
24118,2.8466,0.90909,0.1,0.00053917,5387.9,0.00054513,5587.7,-0.00014201,424.82,-0.00019856,-0.12532,0.044341
24119,2.7548,1.1818,0.1,0.00053252,5321.6,0.00053997,5585.9,-0.00012687,575.54,-0.00020348,-0.075523,0.042526
24120,2.8466,1.0909,0.1,0.00053318,5328.1,0.00054004,5565.7,-0.00013251,512.48,-0.00020073,-0.088313,0.045053
24121,2.7548,1.3636,0.1,0.00052721,5268.4,0.00053532,5567,-0.00011785,659.38,-0.00020562,-0.048762,0.043097
24122,2.8466,1.2727,0.1,0.00052769,5273.3,0.00053529,5545.8,-0.00012352,595.7,-0.00020281,-0.058279,0.04568
24123,2.7548,1.5455,0.1,0.00052249,5221.3,0.0005311,5550.5,-0.00010956,736.78,-0.00020763,-0.028909,0.043592
24124,2.8466,1.4545,0.1,0.00052276,5224,0.00053094,5528,-0.00011517,673.31,-0.00020479,-0.036281,0.046227
24125,2.7548,1.7273,0.1,0.00051838,5180.2,0.00052737,5536.3,-0.00010209,806.79,-0.00020947,-0.014009,0.044016
24126,2.8466,1.6364,0.1,0.0005184,5180.5,0.00052704,5512.4,-0.00010755,744.34,-0.00020662,-0.019455,0.0467
24127,2.7548,1.9091,0.1,0.00051489,5145.3,0.00052413,5524.4,-9.5508e-05,868.62,-0.00021111,-0.003056,0.044374
24128,2.8466,1.8182,0.1,0.00051464,5142.8,0.0005236,5499,-0.00010074,807.93,-0.00020827,-0.0068753,0.047103
24129,2.7548,2.0909,0.1,0.00051199,5116.4,0.0005214,5514.6,-8.9876e-05,921.69,-0.00021254,0.0048466,0.044671
24130,2.8466,2,0.1,0.00051146,5111,0.00052064,5487.8,-9.4821e-05,863.41,-0.00020973,0.002422,0.047441
24131,2.7548,2.2727,0.1,0.00050967,5093.2,0.00051918,5506.9,-8.5232e-05,965.55,-0.00021374,0.010393,0.044909
24132,2.8466,2.1818,0.1,0.00050885,5085,0.00051818,5478.7,-8.9831e-05,910.27,-0.00021098,0.0091328,0.047717
24133,2.7548,2.4545,0.1,0.0005079,5075.5,0.00051747,5501.1,-8.1601e-05,999.91,-0.00021468,0.014142,0.045091
24134,2.8466,2.3636,0.1,0.0005068,5064.5,0.00051622,5471.6,-8.5808e-05,948.13,-0.00021199,0.013833,0.047934
24135,2.7548,2.6364,0.1,0.00050666,5063.1,0.00051625,5497.1,-7.9e-05,1024.6,-0.00021536,0.016521,0.04522
24136,2.8466,2.5455,0.1,0.00050528,5049.3,0.00051476,5466.4,-8.2776e-05,976.72,-0.00021277,0.01697,0.048095
24137,2.7548,2.8182,0.1,0.00050592,5055.7,0.00051552,5494.7,-7.7437e-05,1039.4,-0.00021577,0.01783,0.045296
24138,2.8466,2.7273,0.1,0.00050428,5039.4,0.00051379,5462.9,-8.0747e-05,995.86,-0.00021329,0.018879,0.048201
24139,2.7548,3,0.1,0.00050568,5053.3,0.00051528,5493.9,-7.6916e-05,1044.4,-0.00021591,0.018246,0.045322
24140,2.8466,2.9091,0.1,0.00050379,5034.4,0.0005133,5461.3,-7.9732e-05,1005.5,-0.00021355,0.019779,0.048254
24141,2.7548,3.1818,0.1,0.00050592,5055.7,0.00051552,5494.7,-7.7437e-05,1039.4,-0.00021577,0.01783,0.045296
24142,2.8466,3.0909,0.1,0.00050379,5034.4,0.0005133,5461.3,-7.9732e-05,1005.5,-0.00021355,0.019779,0.048254
24143,2.7548,3.3636,0.1,0.00050666,5063.1,0.00051625,5497.1,-7.9e-05,1024.6,-0.00021536,0.016521,0.04522
24144,2.8466,3.2727,0.1,0.00050428,5039.4,0.00051379,5462.9,-8.0747e-05,995.86,-0.00021329,0.018879,0.048201
24145,2.7548,3.5455,0.1,0.0005079,5075.5,0.00051747,5501.1,-8.1601e-05,999.91,-0.00021468,0.014142,0.045091
24146,2.8466,3.4545,0.1,0.00050528,5049.3,0.00051476,5466.4,-8.2776e-05,976.72,-0.00021277,0.01697,0.048095
24147,2.7548,3.7273,0.1,0.00050967,5093.2,0.00051918,5506.9,-8.5232e-05,965.55,-0.00021374,0.010393,0.044909
24148,2.8466,3.6364,0.1,0.0005068,5064.5,0.00051622,5471.6,-8.5808e-05,948.13,-0.00021199,0.013833,0.047934
24149,2.7548,3.9091,0.1,0.00051199,5116.4,0.0005214,5514.6,-8.9876e-05,921.69,-0.00021254,0.0048469,0.044671
24150,2.8466,3.8182,0.1,0.00050885,5085,0.00051818,5478.7,-8.9831e-05,910.27,-0.00021098,0.0091331,0.047717
24151,2.7548,4.0909,0.1,0.00051489,5145.3,0.00052413,5524.4,-9.5508e-05,868.62,-0.00021111,-0.0030556,0.044374
24152,2.8466,4,0.1,0.00051146,5111.1,0.00052064,5487.8,-9.4821e-05,863.41,-0.00020973,0.0024224,0.047441
24153,2.7548,4.2727,0.1,0.00051838,5180.2,0.00052737,5536.3,-0.00010209,806.79,-0.00020947,-0.014009,0.044016
24154,2.8466,4.1818,0.1,0.00051464,5142.8,0.0005236,5499,-0.00010074,807.93,-0.00020827,-0.0068749,0.047103
24155,2.7548,4.4545,0.1,0.00052249,5221.3,0.0005311,5550.5,-0.00010956,736.78,-0.00020763,-0.028909,0.043592
24156,2.8466,4.3636,0.1,0.0005184,5180.5,0.00052704,5512.4,-0.00010755,744.34,-0.00020662,-0.019454,0.0467
24157,2.7548,4.6364,0.1,0.00052721,5268.4,0.00053532,5567,-0.00011785,659.38,-0.00020562,-0.048762,0.043097
24158,2.8466,4.5455,0.1,0.00052276,5224,0.00053094,5528,-0.00011517,673.31,-0.00020479,-0.036281,0.046227
24159,2.7548,4.8182,0.1,0.00053252,5321.6,0.00053997,5585.9,-0.00012687,575.54,-0.00020348,-0.075523,0.042526
24160,2.8466,4.7273,0.1,0.00052769,5273.3,0.00053529,5545.8,-0.00012352,595.7,-0.00020281,-0.058278,0.04568
24161,2.7548,5,0.1,0.00053841,5380.3,0.00054502,5607,-0.00013648,486.39,-0.00020123,-0.11002,0.041874
24162,2.8466,4.9091,0.1,0.00053318,5328.1,0.00054004,5565.7,-0.00013251,512.48,-0.00020073,-0.088313,0.045053
24163,2.7548,5.1818,0.1,0.0005448,5444.2,0.00055042,5630.1,-0.00014657,393.2,-0.00019892,-0.16404,0.041135
24164,2.8466,5.0909,0.1,0.00053917,5387.9,0.00054513,5587.7,-0.00014201,424.82,-0.00019856,-0.12532,0.044341
24165,2.7548,5.3636,0.1,0.00055164,5512.6,0.00055609,5655.1,-0.00015698,297.34,-0.00019659,-0.22075,0.040301
24166,2.8466,5.2727,0.1,0.0005456,5452.3,0.00055051,5611.5,-0.00015188,333.93,-0.00019635,-0.19382,0.043537
24167,2.7548,5.5455,0.1,0.00055886,5584.7,0.00056198,5681.7,-0.0001676,199.94,-0.00019428,-0.47345,0.039367
24168,2.8466,5.4545,0.1,0.00055241,5520.3,0.00055612,5636.8,-0.00016201,241.11,-0.00019413,-0.23984,0.042636
24169,2.7548,5.7273,0.1,0.00056668,5662.9,0.0005683,5711.9,-0.00017855,100.39,-0.00019203,-0.89049,0.038325
24170,2.8466,5.6364,0.1,0.00055956,5591.8,0.00056191,5663.5,-0.00017227,147.18,-0.00019196,-0.70609,0.041631
24171,2.8466,5.8182,0.1,0.00056747,5670.8,0.00056829,5695.2,-0.00018294,50.745,-0.00018991,-1.5647,0.040514
24172,2.7548,5.9091,0.1,0.00057192,5715.3,0.00057231,5726.7,-0.00018674,23.53,-0.00018995,-0.57885,0.037169
24173,2.9385,0.27273,0.1,0.00056035,5599.6,0.00056192,5647,-0.00017677,96.778,-0.00018975,-0.7746,0.043943
24174,3.0303,0.18182,0.1,0.00056079,5604,0.00056161,5628.6,-0.00018074,50.851,-0.00018768,-1.2801,0.046303
24175,2.9385,0.090909,0.1,0.00056543,5650.4,0.00056583,5662.4,-0.00018451,24.539,-0.00018785,-0.51578,0.042751
24176,2.9385,0.45455,0.1,0.00055311,5527.3,0.00055606,5618.7,-0.0001667,188.16,-0.0001918,-0.42746,0.04502
24177,3.0303,0.36364,0.1,0.0005535,5531.2,0.00055573,5599.3,-0.00017093,139.46,-0.00018957,-0.63759,0.047453
24178,2.9385,0.63636,0.1,0.00054637,5459.9,0.00055056,5593.3,-0.00015693,277.54,-0.00019389,-0.19897,0.04599
24179,3.0303,0.54545,0.1,0.00054685,5464.7,0.00055034,5574,-0.00016147,225.79,-0.00019155,-0.2151,0.048493
24180,2.9385,0.81818,0.1,0.00053996,5395.9,0.00054524,5569.2,-0.00014734,365.41,-0.00019599,-0.14883,0.046859
24181,3.0303,0.72727,0.1,0.00054048,5401.1,0.0005451,5549.8,-0.00015215,310.96,-0.00019355,-0.1756,0.049428
24182,2.9385,1,0.1,0.00053393,5335.6,0.00054016,5546.6,-0.00013805,450.8,-0.00019806,-0.10013,0.047632
24183,3.0303,0.90909,0.1,0.00053444,5340.7,0.00054005,5526.8,-0.00014305,394.28,-0.00019554,-0.11381,0.050264
24184,2.9385,1.1818,0.1,0.00052833,5279.7,0.00053537,5525.7,-0.00012918,532.56,-0.00020007,-0.068858,0.048317
24185,3.0303,1.0909,0.1,0.00052877,5284.1,0.00053524,5505.4,-0.0001343,474.65,-0.00019748,-0.080453,0.051008
24186,2.9385,1.3636,0.1,0.00052323,5228.7,0.00053093,5506.8,-0.00012085,609.58,-0.00020198,-0.044263,0.048918
24187,3.0303,1.2727,0.1,0.00052355,5231.9,0.00053074,5485.6,-0.00012601,551.02,-0.00019935,-0.053053,0.051665
24188,2.9385,1.5455,0.1,0.00051866,5183.1,0.00052688,5489.8,-0.00011316,680.86,-0.00020378,-0.02569,0.049442
24189,3.0303,1.4545,0.1,0.00051882,5184.6,0.00052659,5467.7,-0.00011828,622.38,-0.00020111,-0.032705,0.052241
24190,2.9385,1.7273,0.1,0.00051465,5142.9,0.00052326,5475,-0.0001062,745.51,-0.00020542,-0.011436,0.049892
24191,3.0303,1.6364,0.1,0.0005146,5142.5,0.00052284,5451.8,-0.0001112,687.83,-0.00020275,-0.016851,0.05274
24192,2.9385,1.9091,0.1,0.0005112,5108.4,0.0005201,5462.3,-0.00010005,802.79,-0.00020689,-0.00068005,0.050273
24193,3.0303,1.8182,0.1,0.00051092,5105.7,0.00051951,5437.9,-0.00010486,746.59,-0.00020423,-0.0047331,0.053166
24194,2.9385,2.0909,0.1,0.00050831,5079.5,0.00051741,5451.7,-9.4762e-05,852.11,-0.00020817,0.0073096,0.050589
24195,3.0303,2,0.1,0.00050779,5074.4,0.00051663,5426.1,-9.9331e-05,797.99,-0.00020554,0.0044492,0.053525
24196,2.9385,2.2727,0.1,0.00050597,5056.2,0.00051521,5443.2,-9.0389e-05,892.99,-0.00020924,0.013093,0.050843
24197,3.0303,2.1818,0.1,0.0005052,5048.5,0.00051422,5416.4,-9.4653e-05,841.52,-0.00020665,0.011258,0.053818
24198,2.9385,2.4545,0.1,0.00050417,5038.2,0.00051349,5436.7,-8.6961e-05,925.1,-0.00021008,0.017125,0.051038
24199,3.0303,2.3636,0.1,0.00050314,5027.9,0.00051228,5408.7,-9.0871e-05,876.78,-0.00020756,0.016157,0.054049
24200,2.9385,2.6364,0.1,0.0005029,5025.5,0.00051227,5432.1,-8.4499e-05,948.18,-0.00021069,0.019756,0.051176
24201,3.0303,2.5455,0.1,0.00050161,5012.6,0.00051083,5402.9,-8.8012e-05,903.46,-0.00020825,0.019513,0.05422
24202,2.9385,2.8182,0.1,0.00050214,5017.9,0.00051154,5429.3,-8.3017e-05,962.1,-0.00021106,0.021235,0.051258
24203,3.0303,2.7273,0.1,0.0005006,5002.5,0.00050986,5399.1,-8.6097e-05,921.35,-0.00020872,0.021599,0.054334
24204,2.9385,3,0.1,0.00050189,5015.4,0.00051129,5428.4,-8.2522e-05,966.74,-0.00021118,0.021712,0.051286
24205,3.0303,2.9091,0.1,0.00050009,4997.5,0.00050938,5397.3,-8.5137e-05,930.33,-0.00020895,0.022597,0.05439
24206,2.9385,3.1818,0.1,0.00050214,5017.9,0.00051154,5429.3,-8.3017e-05,962.1,-0.00021106,0.021235,0.051258
24207,3.0303,3.0909,0.1,0.00050009,4997.5,0.00050938,5397.3,-8.5137e-05,930.33,-0.00020895,0.022597,0.05439
24208,2.9385,3.3636,0.1,0.0005029,5025.5,0.00051227,5432.1,-8.4499e-05,948.18,-0.00021069,0.019756,0.051176
24209,3.0303,3.2727,0.1,0.0005006,5002.5,0.00050986,5399.1,-8.6097e-05,921.35,-0.00020872,0.021599,0.054334
24210,2.9385,3.5455,0.1,0.00050417,5038.2,0.00051349,5436.7,-8.6961e-05,925.1,-0.00021008,0.017125,0.051038
24211,3.0303,3.4545,0.1,0.00050161,5012.6,0.00051083,5402.9,-8.8012e-05,903.46,-0.00020825,0.019513,0.05422
24212,2.9385,3.7273,0.1,0.00050597,5056.2,0.00051521,5443.2,-9.0389e-05,892.99,-0.00020924,0.013093,0.050843
24213,3.0303,3.6364,0.1,0.00050314,5027.9,0.00051228,5408.7,-9.0871e-05,876.78,-0.00020756,0.016158,0.054049
24214,2.9385,3.9091,0.1,0.00050831,5079.5,0.00051741,5451.7,-9.4762e-05,852.11,-0.00020817,0.0073099,0.050589
24215,3.0303,3.8182,0.1,0.0005052,5048.5,0.00051422,5416.4,-9.4653e-05,841.52,-0.00020665,0.011258,0.053818
24216,2.9385,4.0909,0.1,0.0005112,5108.4,0.0005201,5462.3,-0.00010005,802.79,-0.00020689,-0.0006797,0.050273
24217,3.0303,4,0.1,0.00050779,5074.4,0.00051663,5426.1,-9.9331e-05,797.99,-0.00020554,0.0044495,0.053525
24218,2.9385,4.2727,0.1,0.00051465,5142.9,0.00052326,5475,-0.0001062,745.51,-0.00020542,-0.011436,0.049892
24219,3.0303,4.1818,0.1,0.00051092,5105.7,0.00051951,5437.9,-0.00010486,746.59,-0.00020423,-0.0047327,0.053166
24220,2.9385,4.4545,0.1,0.00051866,5183.1,0.00052688,5489.8,-0.00011316,680.86,-0.00020378,-0.025689,0.049442
24221,3.0303,4.3636,0.1,0.0005146,5142.5,0.00052284,5451.8,-0.0001112,687.83,-0.00020275,-0.016851,0.05274
24222,2.9385,4.6364,0.1,0.00052323,5228.7,0.00053093,5506.8,-0.00012085,609.58,-0.00020198,-0.044263,0.048918
24223,3.0303,4.5455,0.1,0.00051882,5184.6,0.00052659,5467.7,-0.00011828,622.38,-0.00020111,-0.032704,0.052241
24224,2.9385,4.8182,0.1,0.00052833,5279.7,0.00053537,5525.7,-0.00012918,532.56,-0.00020007,-0.068857,0.048317
24225,3.0303,4.7273,0.1,0.00052355,5231.9,0.00053074,5485.6,-0.00012601,551.02,-0.00019935,-0.053052,0.051665
24226,2.9385,5,0.1,0.00053393,5335.6,0.00054016,5546.6,-0.00013805,450.8,-0.00019806,-0.10013,0.047632
24227,3.0303,4.9091,0.1,0.00052877,5284.1,0.00053524,5505.4,-0.0001343,474.65,-0.00019748,-0.080452,0.051008
24228,2.9385,5.1818,0.1,0.00053996,5395.9,0.00054524,5569.2,-0.00014734,365.41,-0.00019599,-0.14883,0.046859
24229,3.0303,5.0909,0.1,0.00053444,5340.7,0.00054005,5526.8,-0.00014305,394.28,-0.00019554,-0.11381,0.050264
24230,2.9385,5.3636,0.1,0.00054637,5459.9,0.00055056,5593.3,-0.00015693,277.54,-0.00019389,-0.19897,0.04599
24231,3.0303,5.2727,0.1,0.00054048,5401.1,0.0005451,5549.8,-0.00015215,310.96,-0.00019355,-0.1756,0.049428
24232,2.9385,5.5455,0.1,0.00055311,5527.3,0.00055606,5618.7,-0.0001667,188.16,-0.0001918,-0.42746,0.04502
24233,3.0303,5.4545,0.1,0.00054685,5464.7,0.00055034,5574,-0.00016147,225.79,-0.00019155,-0.2151,0.048493
24234,2.9385,5.7273,0.1,0.00056035,5599.6,0.00056192,5647,-0.00017677,96.779,-0.00018975,-0.7746,0.043943
24235,3.0303,5.6364,0.1,0.0005535,5531.2,0.00055573,5599.3,-0.00017093,139.46,-0.00018957,-0.63759,0.047453
24236,3.0303,5.8182,0.1,0.00056079,5604,0.00056161,5628.6,-0.00018074,50.851,-0.00018768,-1.2801,0.046303
24237,2.9385,5.9091,0.1,0.00056543,5650.4,0.00056583,5662.4,-0.00018451,24.539,-0.00018785,-0.51578,0.042751
24238,3.1221,0.27273,0.1,0.00055393,5535.5,0.00055544,5581.1,-0.00017498,92.926,-0.00018744,-0.67718,0.049936
24239,3.2139,0.18182,0.1,0.00055407,5536.8,0.00055489,5561.3,-0.00017857,50.401,-0.00018542,-1.0597,0.052469
24240,3.1221,0.090909,0.1,0.00055883,5584.5,0.00055925,5596.7,-0.0001823,25.069,-0.00018569,-0.46433,0.048713
24241,3.1221,0.45455,0.1,0.00054724,5468.6,0.00055002,5554.7,-0.00016571,176.92,-0.00018931,-0.38659,0.051046
24242,3.2139,0.36364,0.1,0.00054736,5469.8,0.00054947,5534.3,-0.00016954,131.9,-0.00018717,-0.5769,0.053649
24243,3.1221,0.63636,0.1,0.00054095,5405.8,0.00054489,5530.6,-0.0001567,259.06,-0.00019121,-0.17952,0.052048
24244,3.2139,0.54545,0.1,0.00054117,5407.9,0.00054445,5510.4,-0.00016081,211.34,-0.00018897,-0.1932,0.054719
24245,3.1221,0.81818,0.1,0.00053495,5345.8,0.00053992,5507.5,-0.00014787,339.7,-0.0001931,-0.13505,0.052948
24246,3.2139,0.72727,0.1,0.00053522,5348.5,0.00053956,5487.4,-0.00015222,289.58,-0.00019079,-0.1592,0.055684
24247,3.1221,1,0.1,0.00052928,5289.1,0.00053514,5485.7,-0.00013932,418.02,-0.00019497,-0.091054,0.053753
24248,3.2139,0.90909,0.1,0.00052956,5291.9,0.00053483,5465.4,-0.00014385,366.04,-0.00019258,-0.10333,0.05655
24249,3.1221,1.1818,0.1,0.00052399,5236.2,0.00053063,5465.3,-0.00013114,493.03,-0.00019677,-0.062694,0.054467
24250,3.2139,1.0909,0.1,0.00052423,5238.6,0.00053032,5444.6,-0.00013579,439.78,-0.00019433,-0.07322,0.057323
24251,3.1221,1.3636,0.1,0.00051913,5187.7,0.00052642,5446.6,-0.00012344,563.77,-0.00019848,-0.040137,0.055096
24252,3.2139,1.2727,0.1,0.00051928,5189.3,0.00052607,5425.3,-0.00012814,509.88,-0.000196,-0.048234,0.058007
24253,3.1221,1.5455,0.1,0.00051475,5143.9,0.00052256,5429.6,-0.00011632,629.34,-0.00020009,-0.022859,0.055646
24254,3.2139,1.4545,0.1,0.00051477,5144.2,0.00052214,5407.7,-0.00012099,575.45,-0.00019758,-0.029474,0.058608
24255,3.1221,1.7273,0.1,0.00051087,5105.2,0.00051909,5414.6,-0.00010987,688.92,-0.00020156,-0.0093617,0.056119
24256,3.2139,1.6364,0.1,0.00051073,5103.8,0.00051857,5391.9,-0.00011444,635.68,-0.00019905,-0.014641,0.059131
24257,3.1221,1.9091,0.1,0.00050751,5071.6,0.00051604,5401.6,-0.00010414,741.84,-0.00020287,0.0010364,0.056521
24258,3.2139,1.8182,0.1,0.00050718,5068.3,0.00051538,5377.9,-0.00010856,689.85,-0.00020037,-0.0031018,0.059579
24259,3.1221,2.0909,0.1,0.00050467,5043.2,0.00051343,5390.6,-9.9211e-05,787.49,-0.00020402,0.008937,0.056856
24260,3.2139,2,0.1,0.00050413,5037.8,0.00051261,5365.9,-0.00010341,737.33,-0.00020154,0.0058156,0.059956
24261,3.1221,2.2727,0.1,0.00050236,5020.1,0.00051128,5381.7,-9.5119e-05,825.43,-0.00020498,0.014792,0.057125
24262,3.2139,2.1818,0.1,0.00050159,5012.5,0.00051028,5355.9,-9.9049e-05,777.63,-0.00020254,0.012567,0.060265
24263,3.1221,2.4545,0.1,0.00050057,5002.3,0.0005096,5374.8,-9.1904e-05,855.28,-0.00020573,0.018967,0.057332
24264,3.2139,2.3636,0.1,0.00049957,4992.3,0.0005084,5347.9,-9.5514e-05,810.32,-0.00020336,0.017526,0.060509
24265,3.1221,2.6364,0.1,0.0004993,4989.6,0.0005084,5369.9,-8.959e-05,876.78,-0.00020628,0.021746,0.057478
24266,3.2139,2.5455,0.1,0.00049806,4977.1,0.00050698,5341.9,-9.2837e-05,835.1,-0.00020398,0.020987,0.06069
24267,3.1221,2.8182,0.1,0.00049854,4982,0.00050768,5366.9,-8.8195e-05,889.74,-0.00020661,0.023333,0.057565
24268,3.2139,2.7273,0.1,0.00049705,4967.1,0.00050603,5337.9,-9.104e-05,851.73,-0.0002044,0.023172,0.06081
24269,3.1221,3,0.1,0.00049829,4979.4,0.00050744,5365.9,-8.7729e-05,894.08,-0.00020672,0.023848,0.057594
24270,3.2139,2.9091,0.1,0.00049655,4962.1,0.00050556,5335.9,-9.0139e-05,860.09,-0.00020461,0.024228,0.06087
24271,3.1221,3.1818,0.1,0.00049854,4982,0.00050768,5366.9,-8.8195e-05,889.74,-0.00020661,0.023333,0.057565
24272,3.2139,3.0909,0.1,0.00049655,4962.1,0.00050556,5335.9,-9.0139e-05,860.09,-0.00020461,0.024228,0.06087
24273,3.1221,3.3636,0.1,0.0004993,4989.6,0.0005084,5369.9,-8.959e-05,876.78,-0.00020628,0.021746,0.057478
24274,3.2139,3.2727,0.1,0.00049705,4967.1,0.00050603,5337.9,-9.104e-05,851.73,-0.0002044,0.023172,0.06081
24275,3.1221,3.5455,0.1,0.00050057,5002.3,0.0005096,5374.8,-9.1904e-05,855.28,-0.00020573,0.018967,0.057332
24276,3.2139,3.4545,0.1,0.00049806,4977.1,0.00050698,5341.9,-9.2837e-05,835.1,-0.00020398,0.020987,0.06069
24277,3.1221,3.7273,0.1,0.00050236,5020.1,0.00051128,5381.7,-9.5119e-05,825.43,-0.00020498,0.014792,0.057125
24278,3.2139,3.6364,0.1,0.00049957,4992.3,0.0005084,5347.9,-9.5514e-05,810.32,-0.00020336,0.017526,0.060509
24279,3.1221,3.9091,0.1,0.00050467,5043.2,0.00051343,5390.6,-9.9211e-05,787.49,-0.00020402,0.0089373,0.056856
24280,3.2139,3.8182,0.1,0.00050159,5012.5,0.00051028,5355.9,-9.9049e-05,777.63,-0.00020254,0.012567,0.060265
24281,3.1221,4.0909,0.1,0.00050751,5071.6,0.00051604,5401.6,-0.00010414,741.84,-0.00020287,0.0010368,0.056521
24282,3.2139,4,0.1,0.00050413,5037.8,0.00051261,5365.9,-0.00010341,737.33,-0.00020154,0.005816,0.059956
24283,3.1221,4.2727,0.1,0.00051087,5105.2,0.00051909,5414.6,-0.00010987,688.92,-0.00020156,-0.0093613,0.056119
24284,3.2139,4.1818,0.1,0.00050718,5068.3,0.00051538,5377.9,-0.00010856,689.85,-0.00020037,-0.0031014,0.059579
24285,3.1221,4.4545,0.1,0.00051475,5143.9,0.00052256,5429.6,-0.00011632,629.34,-0.00020009,-0.022858,0.055646
24286,3.2139,4.3636,0.1,0.00051073,5103.8,0.00051857,5391.9,-0.00011444,635.68,-0.00019905,-0.014641,0.059131
24287,3.1221,4.6364,0.1,0.00051913,5187.7,0.00052642,5446.6,-0.00012344,563.77,-0.00019848,-0.040137,0.055096
24288,3.2139,4.5455,0.1,0.00051477,5144.2,0.00052214,5407.7,-0.00012099,575.45,-0.00019758,-0.029474,0.058608
24289,3.1221,4.8182,0.1,0.00052399,5236.2,0.00053063,5465.3,-0.00013114,493.03,-0.00019677,-0.062694,0.054467
24290,3.2139,4.7273,0.1,0.00051928,5189.3,0.00052607,5425.3,-0.00012814,509.88,-0.000196,-0.048234,0.058007
24291,3.1221,5,0.1,0.00052928,5289.1,0.00053514,5485.7,-0.00013932,418.02,-0.00019497,-0.091054,0.053753
24292,3.2139,4.9091,0.1,0.00052423,5238.6,0.00053032,5444.6,-0.00013579,439.78,-0.00019433,-0.073219,0.057323
24293,3.1221,5.1818,0.1,0.00053495,5345.8,0.00053992,5507.5,-0.00014787,339.7,-0.0001931,-0.13505,0.052948
24294,3.2139,5.0909,0.1,0.00052956,5291.9,0.00053483,5465.4,-0.00014385,366.04,-0.00019258,-0.10333,0.05655
24295,3.1221,5.3636,0.1,0.00054095,5405.8,0.00054489,5530.6,-0.0001567,259.06,-0.00019121,-0.17952,0.052048
24296,3.2139,5.2727,0.1,0.00053522,5348.5,0.00053956,5487.4,-0.00015222,289.58,-0.00019079,-0.15919,0.055684
24297,3.1221,5.5455,0.1,0.00054724,5468.6,0.00055002,5554.7,-0.00016571,176.92,-0.00018931,-0.38659,0.051046
24298,3.2139,5.4545,0.1,0.00054117,5407.9,0.00054445,5510.4,-0.00016081,211.34,-0.00018897,-0.1932,0.054719
24299,3.1221,5.7273,0.1,0.00055393,5535.5,0.00055544,5581.1,-0.00017498,92.926,-0.00018744,-0.67718,0.049936
24300,3.2139,5.6364,0.1,0.00054736,5469.8,0.00054947,5534.3,-0.00016954,131.9,-0.00018717,-0.57689,0.053649
24301,3.2139,5.8182,0.1,0.00055407,5536.8,0.00055489,5561.3,-0.00017857,50.401,-0.00018542,-1.0597,0.052469
24302,3.1221,5.9091,0.1,0.00055883,5584.5,0.00055925,5596.7,-0.0001823,25.069,-0.00018569,-0.46432,0.048713
24303,3.3058,0.27273,0.1,0.00054748,5471.1,0.00054893,5514.7,-0.0001732,88.883,-0.0001851,-0.59468,0.056303
24304,3.3976,0.18182,0.1,0.00054735,5469.7,0.00054816,5493.9,-0.00017644,49.488,-0.00018315,-0.88628,0.059007
24305,3.3058,0.090909,0.1,0.00055219,5518.1,0.00055261,5530.4,-0.00018009,25.2,-0.0001835,-0.4211,0.055052
24306,3.3058,0.45455,0.1,0.00054128,5409.1,0.00054391,5490.1,-0.00016466,166.17,-0.00018682,-0.35015,0.05744
24307,3.3976,0.36364,0.1,0.00054117,5407.9,0.00054317,5468.8,-0.00016812,124.5,-0.00018476,-0.52289,0.060213
24308,3.3058,0.63636,0.1,0.00053543,5350.6,0.00053913,5467.3,-0.00015635,241.74,-0.00018854,-0.16213,0.058471
24309,3.3976,0.54545,0.1,0.00053541,5350.4,0.00053849,5446.4,-0.00016007,197.67,-0.0001864,-0.17378,0.06131
24310,3.3058,0.81818,0.1,0.00052982,5294.6,0.00053448,5445.3,-0.00014821,315.81,-0.00019026,-0.12258,0.0594
24311,3.3976,0.72727,0.1,0.00052987,5295,0.00053393,5424.6,-0.00015215,269.62,-0.00018805,-0.14441,0.062302
24312,3.3058,1,0.1,0.0005245,5241.4,0.00053002,5424.4,-0.00014033,387.71,-0.00019194,-0.082764,0.060232
24313,3.3976,0.90909,0.1,0.00052457,5242,0.00052952,5403.6,-0.00014443,339.85,-0.00018968,-0.093815,0.063194
24314,3.3058,1.1818,0.1,0.00051952,5191.6,0.00052577,5404.8,-0.00013279,456.56,-0.00019356,-0.057026,0.060973
24315,3.3976,1.0909,0.1,0.00051956,5192.1,0.00052529,5383.8,-0.000137,407.54,-0.00019125,-0.066593,0.063993
24316,3.3058,1.3636,0.1,0.00051492,5145.7,0.00052181,5386.5,-0.00012569,521.51,-0.0001951,-0.036367,0.061628
24317,3.3976,1.2727,0.1,0.00051491,5145.5,0.00052131,5365.2,-0.00012995,471.88,-0.00019276,-0.043814,0.064702
24318,3.3058,1.5455,0.1,0.00051075,5104,0.00051815,5369.9,-0.00011911,581.77,-0.00019654,-0.020362,0.0622
24319,3.3976,1.4545,0.1,0.00051064,5102.9,0.0005176,5348,-0.00012336,532.11,-0.00019418,-0.02656,0.065327
24320,3.3058,1.7273,0.1,0.00050704,5066.9,0.00051486,5355.1,-0.00011313,636.61,-0.00019786,-0.007681,0.062696
24321,3.3976,1.6364,0.1,0.00050679,5064.4,0.00051422,5332.5,-0.00011731,587.48,-0.0001955,-0.012756,0.065871
24322,3.3058,1.9091,0.1,0.0005038,5034.5,0.00051194,5342.1,-0.00010783,685.38,-0.00019904,0.0022497,0.063117
24323,3.3976,1.8182,0.1,0.00050339,5030.4,0.00051119,5318.7,-0.00011186,637.33,-0.00019669,-0.0018655,0.066338
24324,3.3058,2.0909,0.1,0.00050105,5007,0.00050944,5331,-0.00010324,727.53,-0.00020007,0.0099297,0.063468
24325,3.3976,2,0.1,0.00050046,5001.1,0.00050855,5306.8,-0.00010709,681.1,-0.00019774,0.0066817,0.066732
24326,3.3058,2.2727,0.1,0.0004988,4984.6,0.00050738,5321.9,-9.9431e-05,762.61,-0.00020093,0.015725,0.063751
24327,3.3976,2.1818,0.1,0.00049801,4976.6,0.00050632,5296.8,-0.00010304,718.3,-0.00019863,0.013258,0.067056
24328,3.3058,2.4545,0.1,0.00049705,4967.1,0.00050575,5314.8,-9.6432e-05,790.25,-0.00020161,0.019929,0.063969
24329,3.3976,2.3636,0.1,0.00049604,4957,0.00050452,5288.7,-9.9746e-05,748.51,-0.00019936,0.018167,0.067312
24330,3.3058,2.6364,0.1,0.0004958,4954.6,0.00050459,5309.8,-9.427e-05,810.18,-0.0002021,0.022768,0.064123
24331,3.3976,2.5455,0.1,0.00049457,4942.3,0.00050315,5282.7,-9.7252e-05,771.44,-0.00019992,0.021642,0.067502
24332,3.3058,2.8182,0.1,0.00049505,4947.1,0.00050389,5306.7,-9.2966e-05,822.22,-0.00020239,0.024407,0.064215
24333,3.3976,2.7273,0.1,0.00049359,4932.5,0.00050224,5278.6,-9.5576e-05,786.84,-0.0002003,0.023861,0.067628
24334,3.3058,3,0.1,0.00049481,4944.6,0.00050365,5305.7,-9.253e-05,826.24,-0.00020249,0.024943,0.064245
24335,3.3976,2.9091,0.1,0.0004931,4927.6,0.00050178,5276.6,-9.4735e-05,794.59,-0.00020048,0.024941,0.067691
24336,3.3058,3.1818,0.1,0.00049505,4947.1,0.00050389,5306.7,-9.2966e-05,822.22,-0.00020239,0.024407,0.064215
24337,3.3976,3.0909,0.1,0.0004931,4927.6,0.00050178,5276.6,-9.4735e-05,794.59,-0.00020048,0.024941,0.067691
24338,3.3058,3.3636,0.1,0.0004958,4954.6,0.00050459,5309.8,-9.427e-05,810.18,-0.0002021,0.022768,0.064123
24339,3.3976,3.2727,0.1,0.00049359,4932.5,0.00050224,5278.6,-9.5576e-05,786.84,-0.0002003,0.023861,0.067628
24340,3.3058,3.5455,0.1,0.00049705,4967.1,0.00050575,5314.8,-9.6432e-05,790.25,-0.00020161,0.019929,0.063969
24341,3.3976,3.4545,0.1,0.00049457,4942.3,0.00050315,5282.7,-9.7252e-05,771.44,-0.00019992,0.021642,0.067502
24342,3.3058,3.7273,0.1,0.0004988,4984.6,0.00050738,5321.9,-9.9431e-05,762.61,-0.00020093,0.015725,0.063751
24343,3.3976,3.6364,0.1,0.00049604,4957,0.00050452,5288.7,-9.9746e-05,748.51,-0.00019936,0.018167,0.067312
24344,3.3058,3.9091,0.1,0.00050105,5007,0.00050944,5331,-0.00010324,727.53,-0.00020007,0.00993,0.063468
24345,3.3976,3.8182,0.1,0.00049801,4976.6,0.00050632,5296.8,-0.00010304,718.3,-0.00019863,0.013259,0.067056
24346,3.3058,4.0909,0.1,0.0005038,5034.5,0.00051194,5342.1,-0.00010783,685.38,-0.00019904,0.00225,0.063117
24347,3.3976,4,0.1,0.00050046,5001.1,0.00050855,5306.8,-0.00010709,681.1,-0.00019774,0.0066822,0.066732
24348,3.3058,4.2727,0.1,0.00050704,5066.9,0.00051486,5355.1,-0.00011313,636.61,-0.00019786,-0.0076805,0.062696
24349,3.3976,4.1818,0.1,0.00050339,5030.4,0.00051119,5318.7,-0.00011186,637.33,-0.00019669,-0.0018652,0.066338
24350,3.3058,4.4545,0.1,0.00051075,5104,0.00051815,5369.9,-0.00011911,581.77,-0.00019654,-0.020361,0.0622
24351,3.3976,4.3636,0.1,0.00050679,5064.4,0.00051422,5332.5,-0.00011731,587.48,-0.0001955,-0.012756,0.065871
24352,3.3058,4.6364,0.1,0.00051492,5145.7,0.00052181,5386.5,-0.00012569,521.51,-0.0001951,-0.036367,0.061628
24353,3.3976,4.5455,0.1,0.00051064,5102.9,0.0005176,5348,-0.00012336,532.11,-0.00019418,-0.026559,0.065327
24354,3.3058,4.8182,0.1,0.00051952,5191.6,0.00052577,5404.8,-0.00013279,456.56,-0.00019356,-0.057026,0.060973
24355,3.3976,4.7273,0.1,0.00051491,5145.5,0.00052131,5365.2,-0.00012995,471.88,-0.00019276,-0.043813,0.064702
24356,3.3058,5,0.1,0.0005245,5241.4,0.00053002,5424.4,-0.00014033,387.71,-0.00019194,-0.082763,0.060232
24357,3.3976,4.9091,0.1,0.00051956,5192.1,0.00052529,5383.8,-0.000137,407.54,-0.00019125,-0.066593,0.063993
24358,3.3058,5.1818,0.1,0.00052982,5294.6,0.00053448,5445.3,-0.00014821,315.81,-0.00019026,-0.12258,0.0594
24359,3.3976,5.0909,0.1,0.00052457,5242,0.00052952,5403.6,-0.00014443,339.85,-0.00018968,-0.093813,0.063194
24360,3.3058,5.3636,0.1,0.00053543,5350.6,0.00053913,5467.3,-0.00015635,241.74,-0.00018854,-0.16213,0.058471
24361,3.3976,5.2727,0.1,0.00052987,5295,0.00053393,5424.6,-0.00015215,269.62,-0.00018805,-0.14441,0.062302
24362,3.3058,5.5455,0.1,0.00054128,5409.1,0.00054391,5490.1,-0.00016466,166.17,-0.00018682,-0.35014,0.05744
24363,3.3976,5.4545,0.1,0.00053541,5350.4,0.00053849,5446.4,-0.00016007,197.67,-0.0001864,-0.17378,0.06131
24364,3.3058,5.7273,0.1,0.00054748,5471.1,0.00054893,5514.7,-0.0001732,88.883,-0.0001851,-0.59467,0.056303
24365,3.3976,5.6364,0.1,0.00054117,5407.9,0.00054317,5468.8,-0.00016812,124.5,-0.00018476,-0.52288,0.060213
24366,3.3976,5.8182,0.1,0.00054735,5469.7,0.00054816,5493.9,-0.00017644,49.488,-0.00018315,-0.88627,0.059007
24367,3.3058,5.9091,0.1,0.00055219,5518.1,0.00055261,5530.4,-0.00018009,25.2,-0.0001835,-0.4211,0.055052
24368,3.4894,0.27273,0.1,0.00054103,5406.6,0.00054241,5448.1,-0.00017142,84.702,-0.00018276,-0.52432,0.063038
24369,3.5812,0.18182,0.1,0.00054066,5402.9,0.00054145,5426.4,-0.00017435,48.192,-0.00018086,-0.74783,0.065914
24370,3.4894,0.090909,0.1,0.00054553,5451.5,0.00054594,5463.8,-0.00017791,25.002,-0.00018129,-0.38402,0.061763
24371,3.4894,0.45455,0.1,0.00053529,5349.2,0.00053776,5425.3,-0.00016355,155.87,-0.00018434,-0.31754,0.0642
24372,3.5812,0.36364,0.1,0.00053496,5345.9,0.00053685,5403.3,-0.00016668,117.28,-0.00018235,-0.47463,0.067143
24373,3.4894,0.63636,0.1,0.00052984,5294.7,0.00053331,5403.8,-0.00015588,225.45,-0.00018591,-0.14656,0.065256
24374,3.5812,0.54545,0.1,0.00052961,5292.4,0.0005325,5382.3,-0.00015925,184.72,-0.00018385,-0.1565,0.068263
24375,3.4894,0.81818,0.1,0.00052461,5242.4,0.00052898,5383,-0.00014838,293.55,-0.00018747,-0.1113,0.06621
24376,3.5812,0.72727,0.1,0.00052444,5240.8,0.00052826,5361.7,-0.00015194,250.93,-0.00018536,-0.13108,0.069279
24377,3.4894,1,0.1,0.00051963,5192.7,0.00052481,5363.1,-0.00014112,359.59,-0.00018899,-0.07521,0.067067
24378,3.5812,0.90909,0.1,0.0005195,5191.4,0.00052414,5341.9,-0.00014483,315.47,-0.00018683,-0.08518,0.070195
24379,3.4894,1.1818,0.1,0.00051495,5145.9,0.00052084,5344.3,-0.00013417,422.8,-0.00019045,-0.051837,0.067832
24380,3.5812,1.0909,0.1,0.00051481,5144.6,0.0005202,5323,-0.00013799,377.64,-0.00018826,-0.060543,0.071017
24381,3.4894,1.3636,0.1,0.00051062,5102.7,0.00051711,5326.7,-0.00012763,482.43,-0.00019184,-0.032934,0.06851
24382,3.5812,1.2727,0.1,0.00051044,5100.9,0.00051647,5305.2,-0.00013149,436.71,-0.00018962,-0.039775,0.071748
24383,3.4894,1.5455,0.1,0.00050667,5063.2,0.00051367,5310.7,-0.00012156,537.79,-0.00019313,-0.018157,0.069104
24384,3.5812,1.4545,0.1,0.00050642,5060.7,0.00051299,5288.7,-0.00012541,492.01,-0.0001909,-0.023936,0.072394
24385,3.4894,1.7273,0.1,0.00050314,5028,0.00051056,5296.2,-0.00011603,588.2,-0.00019432,-0.0063155,0.069619
24386,3.5812,1.6364,0.1,0.00050278,5024.3,0.00050981,5273.7,-0.00011983,542.88,-0.00019208,-0.011143,0.072957
24387,3.4894,1.9091,0.1,0.00050005,4997.1,0.0005078,5283.4,-0.00011112,633.08,-0.00019538,0.0030786,0.070057
24388,3.5812,1.8182,0.1,0.00049955,4992.1,0.00050695,5260.3,-0.0001148,588.71,-0.00019315,-0.00093736,0.073442
24389,3.4894,2.0909,0.1,0.00049742,4970.7,0.00050543,5272.5,-0.00010688,671.92,-0.0001963,0.010445,0.070423
24390,3.5812,2,0.1,0.00049676,4964.1,0.00050446,5248.6,-0.00011038,628.99,-0.0001941,0.0071713,0.073851
24391,3.4894,2.2727,0.1,0.00049525,4949.1,0.00050346,5263.5,-0.00010334,704.27,-0.00019707,0.016083,0.070719
24392,3.5812,2.1818,0.1,0.00049441,4940.7,0.00050234,5238.8,-0.00010663,663.24,-0.0001949,0.01349,0.074188
24393,3.4894,2.4545,0.1,0.00049356,4932.2,0.00050191,5256.4,-0.00010055,729.79,-0.00019768,0.020226,0.070947
24394,3.5812,2.3636,0.1,0.00049252,4921.8,0.00050062,5230.9,-0.00010358,691.1,-0.00019556,0.018265,0.074455
24395,3.4894,2.6364,0.1,0.00049235,4920.1,0.00050079,5251.4,-9.8543e-05,748.2,-0.00019812,0.023055,0.071108
24396,3.5812,2.5455,0.1,0.0004911,4907.6,0.00049932,5224.8,-0.00010127,712.25,-0.00019606,0.021681,0.074653
24397,3.4894,2.8182,0.1,0.00049162,4912.8,0.00050012,5248.3,-9.7329e-05,759.33,-0.00019839,0.024702,0.071204
24398,3.5812,2.7273,0.1,0.00049015,4898.1,0.00049845,5220.8,-9.9709e-05,726.48,-0.00019639,0.023882,0.074785
24399,3.4894,3,0.1,0.00049138,4910.4,0.00049989,5247.3,-9.6924e-05,763.05,-0.00019848,0.025242,0.071236
24400,3.5812,2.9091,0.1,0.00048968,4893.4,0.00049801,5218.8,-9.8927e-05,733.63,-0.00019656,0.02496,0.07485
24401,3.4894,3.1818,0.1,0.00049162,4912.8,0.00050012,5248.3,-9.7329e-05,759.33,-0.00019839,0.024702,0.071204
24402,3.5812,3.0909,0.1,0.00048968,4893.4,0.00049801,5218.8,-9.8927e-05,733.63,-0.00019656,0.02496,0.07485
24403,3.4894,3.3636,0.1,0.00049235,4920.1,0.00050079,5251.4,-9.8543e-05,748.2,-0.00019812,0.023056,0.071108
24404,3.5812,3.2727,0.1,0.00049015,4898.1,0.00049845,5220.8,-9.9709e-05,726.48,-0.00019639,0.023882,0.074785
24405,3.4894,3.5455,0.1,0.00049356,4932.2,0.00050191,5256.4,-0.00010055,729.79,-0.00019768,0.020226,0.070947
24406,3.5812,3.4545,0.1,0.0004911,4907.6,0.00049932,5224.8,-0.00010127,712.25,-0.00019606,0.021682,0.074653
24407,3.4894,3.7273,0.1,0.00049525,4949.1,0.00050346,5263.5,-0.00010334,704.27,-0.00019707,0.016083,0.070719
24408,3.5812,3.6364,0.1,0.00049252,4921.8,0.00050062,5230.9,-0.00010358,691.1,-0.00019556,0.018265,0.074455
24409,3.4894,3.9091,0.1,0.00049742,4970.7,0.00050543,5272.5,-0.00010688,671.92,-0.0001963,0.010446,0.070423
24410,3.5812,3.8182,0.1,0.00049441,4940.7,0.00050234,5238.8,-0.00010663,663.24,-0.0001949,0.013491,0.074188
24411,3.4894,4.0909,0.1,0.00050005,4997.1,0.0005078,5283.4,-0.00011112,633.08,-0.00019538,0.003079,0.070057
24412,3.5812,4,0.1,0.00049676,4964.1,0.00050446,5248.6,-0.00011038,628.99,-0.0001941,0.0071717,0.073851
24413,3.4894,4.2727,0.1,0.00050314,5028,0.00051056,5296.2,-0.00011603,588.2,-0.00019432,-0.006315,0.069619
24414,3.5812,4.1818,0.1,0.00049955,4992.1,0.00050695,5260.3,-0.0001148,588.71,-0.00019315,-0.00093695,0.073442
24415,3.4894,4.4545,0.1,0.00050667,5063.2,0.00051367,5310.7,-0.00012156,537.79,-0.00019313,-0.018156,0.069104
24416,3.5812,4.3636,0.1,0.00050278,5024.3,0.00050981,5273.7,-0.00011983,542.88,-0.00019208,-0.011143,0.072957
24417,3.4894,4.6364,0.1,0.00051062,5102.7,0.00051711,5326.7,-0.00012763,482.43,-0.00019184,-0.032933,0.06851
24418,3.5812,4.5455,0.1,0.00050642,5060.7,0.00051299,5288.7,-0.00012541,492.01,-0.0001909,-0.023935,0.072394
24419,3.4894,4.8182,0.1,0.00051495,5145.9,0.00052084,5344.3,-0.00013417,422.8,-0.00019045,-0.051836,0.067832
24420,3.5812,4.7273,0.1,0.00051044,5100.9,0.00051647,5305.2,-0.00013149,436.71,-0.00018962,-0.039774,0.071748
24421,3.4894,5,0.1,0.00051963,5192.7,0.00052481,5363.1,-0.00014112,359.59,-0.00018899,-0.075209,0.067067
24422,3.5812,4.9091,0.1,0.00051481,5144.6,0.0005202,5323,-0.00013799,377.64,-0.00018826,-0.060542,0.071017
24423,3.4894,5.1818,0.1,0.00052461,5242.4,0.00052898,5383,-0.00014838,293.55,-0.00018747,-0.11129,0.06621
24424,3.5812,5.0909,0.1,0.0005195,5191.4,0.00052414,5341.9,-0.00014483,315.47,-0.00018683,-0.085179,0.070195
24425,3.4894,5.3636,0.1,0.00052984,5294.7,0.00053331,5403.8,-0.00015588,225.45,-0.00018591,-0.14656,0.065256
24426,3.5812,5.2727,0.1,0.00052444,5240.8,0.00052826,5361.7,-0.00015194,250.93,-0.00018536,-0.13108,0.069279
24427,3.4894,5.5455,0.1,0.00053529,5349.2,0.00053776,5425.3,-0.00016355,155.87,-0.00018434,-0.31754,0.0642
24428,3.5812,5.4545,0.1,0.00052961,5292.4,0.0005325,5382.3,-0.00015925,184.72,-0.00018385,-0.1565,0.068263
24429,3.4894,5.7273,0.1,0.00054103,5406.6,0.00054241,5448.1,-0.00017142,84.702,-0.00018276,-0.52432,0.063038
24430,3.5812,5.6364,0.1,0.00053496,5345.9,0.00053685,5403.3,-0.00016668,117.28,-0.00018235,-0.47463,0.067143
24431,3.5812,5.8182,0.1,0.00054066,5402.9,0.00054145,5426.4,-0.00017435,48.192,-0.00018086,-0.74783,0.065914
24432,3.4894,5.9091,0.1,0.00054553,5451.5,0.00054594,5463.8,-0.00017791,25.002,-0.00018129,-0.38402,0.061763
24433,3.6731,0.27273,0.1,0.00053459,5342.2,0.00053591,5381.7,-0.00016966,80.434,-0.00018042,-0.46395,0.070138
24434,3.7649,0.18182,0.1,0.00053402,5336.5,0.00053479,5359.3,-0.0001723,46.589,-0.00017858,-0.63601,0.073185
24435,3.6731,0.090909,0.1,0.00053888,5385.1,0.00053928,5397.1,-0.00017576,24.535,-0.00017907,-0.35171,0.068842
24436,3.6731,0.45455,0.1,0.00052928,5289.1,0.0005316,5360.4,-0.0001624,146.01,-0.00018187,-0.28829,0.071322
24437,3.7649,0.36364,0.1,0.00052876,5283.9,0.00053054,5338,-0.00016523,110.25,-0.00017996,-0.43137,0.074434
24438,3.6731,0.63636,0.1,0.00052421,5238.5,0.00052746,5340.3,-0.00015532,210.11,-0.0001833,-0.13259,0.0724
24439,3.7649,0.54545,0.1,0.00052378,5234.2,0.0005265,5318.2,-0.00015836,172.44,-0.00018133,-0.1411,0.075574
24440,3.6731,0.81818,0.1,0.00051933,5189.7,0.00052343,5320.7,-0.00014841,272.76,-0.00018472,-0.10109,0.073376
24441,3.7649,0.72727,0.1,0.00051898,5186.2,0.00052255,5298.9,-0.00015162,233.4,-0.0001827,-0.11905,0.076611
24442,3.6731,1,0.1,0.00051468,5143.3,0.00051954,5301.8,-0.00014171,333.44,-0.0001861,-0.06834,0.074255
24443,3.7649,0.90909,0.1,0.00051437,5140.1,0.00051872,5280.2,-0.00014507,292.75,-0.00018404,-0.077355,0.077548
24444,3.6731,1.1818,0.1,0.0005103,5099.5,0.00051583,5283.9,-0.00013531,391.49,-0.00018742,-0.047101,0.075042
24445,3.7649,1.0909,0.1,0.00050999,5096.4,0.00051504,5262.3,-0.00013876,349.86,-0.00018534,-0.055033,0.07839
24446,3.6731,1.3636,0.1,0.00050624,5058.9,0.00051235,5267.2,-0.00012928,446.25,-0.00018868,-0.029818,0.07574
24447,3.7649,1.2727,0.1,0.0005059,5055.5,0.00051156,5245.4,-0.00013278,404.11,-0.00018657,-0.036099,0.079141
24448,3.6731,1.5455,0.1,0.00050252,5021.8,0.00050913,5251.8,-0.00012369,497.07,-0.00018985,-0.016209,0.076353
24449,3.7649,1.4545,0.1,0.00050212,5017.8,0.00050831,5229.7,-0.00012718,454.88,-0.00018772,-0.021579,0.079805
24450,3.6731,1.7273,0.1,0.00049919,4988.4,0.0005062,5237.8,-0.00011859,543.38,-0.00019091,-0.0052057,0.076885
24451,3.7649,1.6364,0.1,0.0004987,4983.5,0.00050533,5215.4,-0.00012203,501.58,-0.00018879,-0.0097629,0.080386
24452,3.6731,1.9091,0.1,0.00049625,4959.1,0.00050361,5225.5,-0.00011406,584.64,-0.00019187,0.0036141,0.077339
24453,3.7649,1.8182,0.1,0.00049565,4953.1,0.00050265,5202.5,-0.00011739,543.69,-0.00018975,-0.0002524,0.080887
24454,3.6731,2.0909,0.1,0.00049375,4934.1,0.00050136,5214.9,-0.00011013,620.36,-0.0001927,0.010607,0.077719
24455,3.7649,2,0.1,0.000493,4926.6,0.00050031,5191.2,-0.00011332,580.7,-0.0001906,0.0073776,0.08131
24456,3.6731,2.2727,0.1,0.00049168,4913.4,0.0004995,5206.1,-0.00010686,650.13,-0.00019339,0.016016,0.078026
24457,3.7649,2.1818,0.1,0.00049077,4904.3,0.00049831,5181.7,-0.00010985,612.2,-0.00019133,0.013383,0.081659
24458,3.6731,2.4545,0.1,0.00049006,4897.2,0.00049803,5199.2,-0.00010428,673.64,-0.00019394,0.020032,0.078263
24459,3.7649,2.3636,0.1,0.00048898,4886.4,0.00049669,5174,-0.00010703,637.83,-0.00019192,0.017965,0.081935
24460,3.6731,2.6364,0.1,0.0004889,4885.7,0.00049697,5194.2,-0.00010242,690.61,-0.00019433,0.022799,0.078431
24461,3.7649,2.5455,0.1,0.00048762,4872.8,0.00049546,5168.1,-0.00010489,657.3,-0.00019237,0.021271,0.082141
24462,3.6731,2.8182,0.1,0.00048821,4878.7,0.00049634,5191.2,-0.00010129,700.87,-0.00019457,0.024419,0.078531
24463,3.7649,2.7273,0.1,0.00048671,4863.8,0.00049464,5164.2,-0.00010345,670.4,-0.00019267,0.023415,0.082277
24464,3.6731,3,0.1,0.00048797,4876.4,0.00049612,5190.2,-0.00010092,704.3,-0.00019465,0.024952,0.078564
24465,3.7649,2.9091,0.1,0.00048626,4859.2,0.00049422,5162.2,-0.00010273,676.99,-0.00019283,0.024468,0.082345
24466,3.6731,3.1818,0.1,0.00048821,4878.7,0.00049634,5191.2,-0.00010129,700.87,-0.00019457,0.024419,0.078531
24467,3.7649,3.0909,0.1,0.00048626,4859.2,0.00049422,5162.2,-0.00010273,676.99,-0.00019283,0.024469,0.082345
24468,3.6731,3.3636,0.1,0.0004889,4885.7,0.00049697,5194.2,-0.00010242,690.61,-0.00019433,0.022799,0.078431
24469,3.7649,3.2727,0.1,0.00048671,4863.8,0.00049464,5164.2,-0.00010345,670.4,-0.00019267,0.023415,0.082277
24470,3.6731,3.5455,0.1,0.00049006,4897.2,0.00049803,5199.2,-0.00010428,673.64,-0.00019394,0.020033,0.078263
24471,3.7649,3.4545,0.1,0.00048762,4872.8,0.00049546,5168.1,-0.00010489,657.3,-0.00019237,0.021271,0.082141
24472,3.6731,3.7273,0.1,0.00049168,4913.4,0.0004995,5206.1,-0.00010686,650.13,-0.00019339,0.016017,0.078026
24473,3.7649,3.6364,0.1,0.00048898,4886.4,0.00049669,5174,-0.00010703,637.83,-0.00019192,0.017965,0.081935
24474,3.6731,3.9091,0.1,0.00049375,4934.1,0.00050136,5214.9,-0.00011013,620.36,-0.0001927,0.010607,0.077719
24475,3.7649,3.8182,0.1,0.00049077,4904.3,0.00049831,5181.7,-0.00010985,612.2,-0.00019133,0.013384,0.081659
24476,3.6731,4.0909,0.1,0.00049625,4959.1,0.00050361,5225.5,-0.00011406,584.64,-0.00019187,0.0036146,0.077339
24477,3.7649,4,0.1,0.000493,4926.6,0.00050031,5191.2,-0.00011332,580.7,-0.0001906,0.007378,0.08131
24478,3.6731,4.2727,0.1,0.00049919,4988.4,0.0005062,5237.8,-0.00011859,543.38,-0.00019091,-0.0052052,0.076885
24479,3.7649,4.1818,0.1,0.00049565,4953.1,0.00050265,5202.5,-0.00011739,543.69,-0.00018975,-0.00025193,0.080887
24480,3.6731,4.4545,0.1,0.00050252,5021.8,0.00050913,5251.8,-0.00012369,497.07,-0.00018985,-0.016209,0.076353
24481,3.7649,4.3636,0.1,0.0004987,4983.5,0.00050533,5215.4,-0.00012203,501.58,-0.00018879,-0.0097625,0.080386
24482,3.6731,4.6364,0.1,0.00050624,5058.9,0.00051235,5267.2,-0.00012928,446.25,-0.00018868,-0.029818,0.07574
24483,3.7649,4.5455,0.1,0.00050212,5017.8,0.00050831,5229.7,-0.00012718,454.88,-0.00018772,-0.021579,0.079805
24484,3.6731,4.8182,0.1,0.0005103,5099.5,0.00051583,5283.9,-0.00013531,391.49,-0.00018742,-0.047101,0.075042
24485,3.7649,4.7273,0.1,0.0005059,5055.5,0.00051156,5245.4,-0.00013278,404.11,-0.00018657,-0.036098,0.079141
24486,3.6731,5,0.1,0.00051468,5143.3,0.00051954,5301.8,-0.00014171,333.44,-0.0001861,-0.068339,0.074255
24487,3.7649,4.9091,0.1,0.00050999,5096.4,0.00051504,5262.3,-0.00013876,349.86,-0.00018534,-0.055033,0.07839
24488,3.6731,5.1818,0.1,0.00051933,5189.7,0.00052343,5320.7,-0.00014841,272.76,-0.00018472,-0.10108,0.073376
24489,3.7649,5.0909,0.1,0.00051437,5140.1,0.00051872,5280.2,-0.00014507,292.75,-0.00018404,-0.077354,0.077548
24490,3.6731,5.3636,0.1,0.00052421,5238.5,0.00052746,5340.3,-0.00015532,210.11,-0.0001833,-0.13259,0.0724
24491,3.7649,5.2727,0.1,0.00051898,5186.2,0.00052255,5298.9,-0.00015162,233.4,-0.0001827,-0.11905,0.076611
24492,3.6731,5.5455,0.1,0.00052928,5289.1,0.0005316,5360.4,-0.0001624,146.01,-0.00018187,-0.28829,0.071322
24493,3.7649,5.4545,0.1,0.00052378,5234.2,0.0005265,5318.2,-0.00015836,172.44,-0.00018133,-0.1411,0.075574
24494,3.6731,5.7273,0.1,0.00053459,5342.2,0.00053591,5381.7,-0.00016966,80.434,-0.00018042,-0.46395,0.070138
24495,3.7649,5.6364,0.1,0.00052876,5283.9,0.00053054,5338,-0.00016523,110.25,-0.00017996,-0.43137,0.074434
24496,3.7649,5.8182,0.1,0.00053402,5336.5,0.00053479,5359.3,-0.0001723,46.589,-0.00017858,-0.63601,0.073185
24497,3.6731,5.9091,0.1,0.00053888,5385.1,0.00053928,5397.1,-0.00017576,24.535,-0.00017907,-0.3517,0.068842
24498,3.8567,0.27273,0.1,0.00052819,5278.2,0.00052943,5315.7,-0.00016791,76.123,-0.00017809,-0.41187,0.077598
24499,3.9486,0.18182,0.1,0.00052743,5270.7,0.00052817,5292.7,-0.00017028,44.742,-0.00017631,-0.54479,0.080816
24500,3.8567,0.090909,0.1,0.00053226,5318.9,0.00053265,5330.6,-0.00017363,23.851,-0.00017685,-0.32322,0.076285
24501,3.8567,0.45455,0.1,0.00052326,5229,0.00052545,5295.9,-0.00016121,136.57,-0.00017942,-0.26198,0.078801
24502,3.9486,0.36364,0.1,0.00052258,5222.2,0.00052425,5272.9,-0.00016376,103.42,-0.00017758,-0.39246,0.082081
24503,3.8567,0.63636,0.1,0.00051855,5182,0.0005216,5276.9,-0.00015468,195.64,-0.00018073,-0.12005,0.079898
24504,3.9486,0.54545,0.1,0.00051796,5176,0.0005205,5254.5,-0.00015742,160.79,-0.00017884,-0.12735,0.08324
24505,3.8567,0.81818,0.1,0.00051401,5136.6,0.00051785,5258.5,-0.0001483,253.31,-0.00018202,-0.091848,0.080894
24506,3.9486,0.72727,0.1,0.00051349,5131.3,0.00051683,5236.3,-0.00015121,216.94,-0.00018009,-0.10818,0.084294
24507,3.8567,1,0.1,0.00050968,5093.3,0.00051423,5240.8,-0.00014213,309.1,-0.00018328,-0.062103,0.081793
24508,3.9486,0.90909,0.1,0.0005092,5088.5,0.00051327,5218.7,-0.00014516,271.54,-0.00018131,-0.070271,0.08525
24509,3.8567,1.1818,0.1,0.00050559,5052.4,0.00051078,5223.9,-0.00013624,362.42,-0.00018448,-0.042795,0.082598
24510,3.9486,1.0909,0.1,0.00050512,5047.7,0.00050985,5201.9,-0.00013935,324.02,-0.00018249,-0.05003,0.08611
24511,3.8567,1.3636,0.1,0.00050179,5014.4,0.00050753,5208,-0.00013068,412.69,-0.00018561,-0.027002,0.083314
24512,3.9486,1.2727,0.1,0.0005013,5009.5,0.00050661,5185.9,-0.00013384,373.84,-0.0001836,-0.032767,0.086879
24513,3.8567,1.5455,0.1,0.0004983,4979.6,0.00050452,5193.3,-0.00012553,459.36,-0.00018667,-0.014495,0.083944
24514,3.9486,1.4545,0.1,0.00049776,4974.2,0.00050358,5171.1,-0.00012869,420.45,-0.00018465,-0.019472,0.087559
24515,3.8567,1.7273,0.1,0.00049516,4948.2,0.00050178,5180,-0.00012084,501.87,-0.00018763,-0.0043084,0.084492
24516,3.9486,1.6364,0.1,0.00049455,4942.1,0.0005008,5157.4,-0.00012395,463.32,-0.00018561,-0.0085868,0.088155
24517,3.8567,1.9091,0.1,0.0004924,4920.6,0.00049935,5168.2,-0.00011666,539.76,-0.00018849,0.0039226,0.084961
24518,3.9486,1.8182,0.1,0.00049168,4913.4,0.00049829,5145.2,-0.00011968,501.97,-0.00018648,0.00023622,0.08867
24519,3.8567,2.0909,0.1,0.00049003,4896.9,0.00049725,5158,-0.00011304,572.57,-0.00018924,0.010505,0.085353
24520,3.9486,2,0.1,0.00048919,4888.5,0.0004961,5134.4,-0.00011592,535.96,-0.00018725,0.0073691,0.089106
24521,3.8567,2.2727,0.1,0.00048807,4877.3,0.0004955,5149.5,-0.00011002,599.94,-0.00018986,0.015641,0.08567
24522,3.9486,2.1818,0.1,0.00048708,4867.5,0.00049423,5125.3,-0.00011272,564.89,-0.0001879,0.013028,0.089465
24523,3.8567,2.4545,0.1,0.00048653,4862,0.00049411,5142.9,-0.00010763,621.55,-0.00019035,0.019484,0.085915
24524,3.9486,2.3636,0.1,0.00048538,4850.5,0.00049271,5117.9,-0.00011012,588.44,-0.00018844,0.017377,0.089751
24525,3.8567,2.6364,0.1,0.00048543,4850.9,0.00049312,5138,-0.00010591,637.16,-0.00019071,0.022149,0.086088
24526,3.9486,2.5455,0.1,0.0004841,4837.6,0.00049155,5112.2,-0.00010815,606.34,-0.00018884,0.020536,0.089963
24527,3.8567,2.8182,0.1,0.00048477,4844.3,0.00049252,5135.1,-0.00010487,646.6,-0.00019093,0.023716,0.086192
24528,3.9486,2.7273,0.1,0.00048324,4829,0.00049078,5108.5,-0.00010682,618.38,-0.00018911,0.022595,0.090104
24529,3.8567,3,0.1,0.00048454,4842.1,0.00049231,5134.2,-0.00010453,649.76,-0.000191,0.024234,0.086227
24530,3.9486,2.9091,0.1,0.00048281,4824.7,0.00049039,5106.6,-0.00010615,624.44,-0.00018925,0.023611,0.090174
24531,3.8567,3.1818,0.1,0.00048477,4844.3,0.00049252,5135.1,-0.00010487,646.6,-0.00019093,0.023717,0.086192
24532,3.9486,3.0909,0.1,0.00048281,4824.7,0.00049039,5106.6,-0.00010615,624.44,-0.00018925,0.023611,0.090174
24533,3.8567,3.3636,0.1,0.00048543,4850.9,0.00049312,5138,-0.00010591,637.16,-0.00019071,0.022149,0.086088
24534,3.9486,3.2727,0.1,0.00048324,4829,0.00049078,5108.5,-0.00010682,618.38,-0.00018911,0.022595,0.090104
24535,3.8567,3.5455,0.1,0.00048653,4862,0.00049411,5142.9,-0.00010763,621.55,-0.00019035,0.019484,0.085915
24536,3.9486,3.4545,0.1,0.0004841,4837.6,0.00049155,5112.2,-0.00010815,606.34,-0.00018884,0.020536,0.089963
24537,3.8567,3.7273,0.1,0.00048807,4877.3,0.0004955,5149.5,-0.00011002,599.94,-0.00018986,0.015641,0.08567
24538,3.9486,3.6364,0.1,0.00048538,4850.5,0.00049271,5117.9,-0.00011012,588.44,-0.00018844,0.017377,0.089751
24539,3.8567,3.9091,0.1,0.00049003,4896.9,0.00049725,5158,-0.00011304,572.57,-0.00018924,0.010505,0.085353
24540,3.9486,3.8182,0.1,0.00048708,4867.5,0.00049423,5125.3,-0.00011272,564.89,-0.0001879,0.013028,0.089465
24541,3.8567,4.0909,0.1,0.0004924,4920.6,0.00049935,5168.2,-0.00011666,539.76,-0.00018849,0.003923,0.084961
24542,3.9486,4,0.1,0.00048919,4888.5,0.0004961,5134.4,-0.00011592,535.96,-0.00018725,0.0073695,0.089106
24543,3.8567,4.2727,0.1,0.00049516,4948.2,0.00050178,5180,-0.00012084,501.87,-0.00018763,-0.004308,0.084492
24544,3.9486,4.1818,0.1,0.00049168,4913.4,0.00049829,5145.2,-0.00011968,501.97,-0.00018648,0.00023676,0.08867
24545,3.8567,4.4545,0.1,0.0004983,4979.6,0.00050452,5193.3,-0.00012553,459.36,-0.00018667,-0.014494,0.083944
24546,3.9486,4.3636,0.1,0.00049455,4942.1,0.0005008,5157.4,-0.00012395,463.32,-0.00018561,-0.0085864,0.088155
24547,3.8567,4.6364,0.1,0.00050179,5014.4,0.00050753,5208,-0.00013068,412.69,-0.00018561,-0.027001,0.083314
24548,3.9486,4.5455,0.1,0.00049776,4974.2,0.00050358,5171.1,-0.00012869,420.45,-0.00018465,-0.019472,0.087559
24549,3.8567,4.8182,0.1,0.00050559,5052.4,0.00051078,5223.9,-0.00013624,362.42,-0.00018448,-0.042795,0.082598
24550,3.9486,4.7273,0.1,0.0005013,5009.5,0.00050661,5185.9,-0.00013384,373.84,-0.0001836,-0.032766,0.086879
24551,3.8567,5,0.1,0.00050968,5093.3,0.00051423,5240.8,-0.00014213,309.1,-0.00018328,-0.062102,0.081793
24552,3.9486,4.9091,0.1,0.00050512,5047.7,0.00050985,5201.9,-0.00013935,324.02,-0.00018249,-0.05003,0.08611
24553,3.8567,5.1818,0.1,0.00051401,5136.6,0.00051785,5258.5,-0.0001483,253.31,-0.00018202,-0.091847,0.080894
24554,3.9486,5.0909,0.1,0.0005092,5088.5,0.00051327,5218.7,-0.00014516,271.54,-0.00018131,-0.07027,0.08525
24555,3.8567,5.3636,0.1,0.00051855,5182,0.0005216,5276.9,-0.00015468,195.64,-0.00018073,-0.12005,0.079898
24556,3.9486,5.2727,0.1,0.00051349,5131.3,0.00051683,5236.3,-0.00015121,216.94,-0.00018009,-0.10818,0.084294
24557,3.8567,5.5455,0.1,0.00052326,5229,0.00052545,5295.9,-0.00016121,136.57,-0.00017942,-0.26198,0.078801
24558,3.9486,5.4545,0.1,0.00051796,5176,0.0005205,5254.5,-0.00015742,160.79,-0.00017884,-0.12735,0.08324
24559,3.8567,5.7273,0.1,0.00052819,5278.2,0.00052943,5315.7,-0.00016791,76.123,-0.00017809,-0.41186,0.077598
24560,3.9486,5.6364,0.1,0.00052258,5222.2,0.00052425,5272.9,-0.00016376,103.42,-0.00017758,-0.39246,0.082081
24561,3.9486,5.8182,0.1,0.00052743,5270.7,0.00052817,5292.7,-0.00017028,44.742,-0.00017631,-0.54478,0.080816
24562,3.8567,5.9091,0.1,0.00053226,5318.9,0.00053265,5330.6,-0.00017363,23.851,-0.00017685,-0.32322,0.076285
24563,4.0404,0.27273,0.1,0.00052182,5214.6,0.000523,5250,-0.00016617,71.809,-0.00017578,-0.36671,0.085415
24564,4.1322,0.18182,0.1,0.00052091,5205.5,0.00052162,5226.5,-0.0001683,42.711,-0.00017405,-0.46973,0.088802
24565,4.0404,0.090909,0.1,0.00052568,5253.1,0.00052606,5264.4,-0.00017154,22.995,-0.00017464,-0.2979,0.084086
24566,4.0404,0.45455,0.1,0.00051727,5169.1,0.00051932,5231.6,-0.00015999,127.55,-0.000177,-0.23827,0.086634
24567,4.1322,0.36364,0.1,0.00051643,5160.7,0.000518,5208.3,-0.00016229,96.822,-0.00017522,-0.35739,0.090082
24568,4.0404,0.63636,0.1,0.00051289,5125.4,0.00051574,5213.9,-0.00015396,182.01,-0.0001782,-0.10878,0.087748
24569,4.1322,0.54545,0.1,0.00051214,5117.9,0.00051452,5191,-0.00015643,149.75,-0.00017638,-0.11505,0.091256
24570,4.0404,0.81818,0.1,0.00050867,5083.2,0.00051226,5196.6,-0.00014808,235.1,-0.00017938,-0.083493,0.088761
24571,4.1322,0.72727,0.1,0.00050799,5076.4,0.00051111,5174,-0.0001507,201.48,-0.00017752,-0.098354,0.092326
24572,4.0404,1,0.1,0.00050464,5042.9,0.0005089,5179.9,-0.00014239,286.4,-0.00018052,-0.056453,0.089676
24573,4.1322,0.90909,0.1,0.00050399,5036.5,0.0005078,5157.6,-0.00014513,251.72,-0.00017864,-0.063865,0.093297
24574,4.0404,1.1818,0.1,0.00050082,5004.8,0.00050568,5164,-0.00013697,335.4,-0.00018161,-0.038894,0.090498
24575,4.1322,1.0909,0.1,0.0005002,4998.5,0.00050463,5141.7,-0.00013978,299.97,-0.00017971,-0.045499,0.094173
24576,4.0404,1.3636,0.1,0.00049727,4969.3,0.00050266,5149.1,-0.00013185,381.56,-0.00018264,-0.024468,0.09123
24577,4.1322,1.2727,0.1,0.00049664,4962.9,0.00050161,5126.7,-0.0001347,345.73,-0.00018072,-0.029761,0.094957
24578,4.0404,1.5455,0.1,0.00049401,4936.7,0.00049986,5135.2,-0.00012711,424.39,-0.00018359,-0.012992,0.091876
24579,4.1322,1.4545,0.1,0.00049334,4930,0.0004988,5112.7,-0.00012996,388.52,-0.00018167,-0.017599,0.095652
24580,4.0404,1.7273,0.1,0.00049107,4907.3,0.00049731,5122.6,-0.00012279,463.41,-0.00018447,-0.0035923,0.092438
24581,4.1322,1.6364,0.1,0.00049033,4899.9,0.00049621,5099.8,-0.00012559,427.87,-0.00018254,-0.0075925,0.096262
24582,4.0404,1.9091,0.1,0.00048847,4881.4,0.00049504,5111.4,-0.00011894,498.18,-0.00018524,0.0040523,0.092919
24583,4.1322,1.8182,0.1,0.00048765,4873.1,0.00049387,5088.2,-0.00012166,463.34,-0.00018333,0.00056324,0.096789
24584,4.0404,2.0909,0.1,0.00048624,4859.1,0.00049307,5101.7,-0.0001156,528.3,-0.00018592,0.010208,0.093321
24585,4.1322,2,0.1,0.00048531,4849.7,0.00049182,5078,-0.00011821,494.52,-0.00018402,0.0071966,0.097236
24586,4.0404,2.2727,0.1,0.0004844,4840.6,0.00049143,5093.6,-0.00011282,553.43,-0.00018648,0.015042,0.093648
24587,4.1322,2.1818,0.1,0.00048333,4830,0.00049008,5069.4,-0.00011526,521.07,-0.00018461,0.012492,0.097605
24588,4.0404,2.4545,0.1,0.00048295,4826.2,0.00049014,5087.2,-0.00011063,573.27,-0.00018692,0.018682,0.0939
24589,4.1322,2.3636,0.1,0.00048173,4814,0.00048866,5062.3,-0.00011287,542.69,-0.00018509,0.016585,0.097898
24590,4.0404,2.6364,0.1,0.00048191,4815.7,0.00048921,5082.6,-0.00010904,587.61,-0.00018724,0.021219,0.094079
24591,4.1322,2.5455,0.1,0.00048052,4801.9,0.00048758,5057,-0.00011105,559.12,-0.00018546,0.019574,0.098116
24592,4.0404,2.8182,0.1,0.00048128,4809.5,0.00048864,5079.8,-0.00010808,596.28,-0.00018744,0.022717,0.094186
24593,4.1322,2.7273,0.1,0.00047971,4793.8,0.00048686,5053.4,-0.00010982,570.17,-0.0001857,0.02153,0.098261
24594,4.0404,3,0.1,0.00048107,4807.4,0.00048845,5078.9,-0.00010776,599.18,-0.0001875,0.023213,0.094221
24595,4.1322,2.9091,0.1,0.0004793,4789.7,0.00048649,5051.6,-0.0001092,575.73,-0.00018583,0.022497,0.098334
24596,4.0404,3.1818,0.1,0.00048128,4809.5,0.00048864,5079.8,-0.00010808,596.28,-0.00018744,0.022717,0.094186
24597,4.1322,3.0909,0.1,0.0004793,4789.7,0.00048649,5051.6,-0.0001092,575.73,-0.00018583,0.022497,0.098334
24598,4.0404,3.3636,0.1,0.00048191,4815.7,0.00048921,5082.6,-0.00010904,587.61,-0.00018724,0.02122,0.094079
24599,4.1322,3.2727,0.1,0.00047971,4793.8,0.00048686,5053.4,-0.00010982,570.17,-0.0001857,0.02153,0.098261
24600,4.0404,3.5455,0.1,0.00048295,4826.2,0.00049014,5087.2,-0.00011063,573.27,-0.00018692,0.018683,0.0939
24601,4.1322,3.4545,0.1,0.00048052,4801.9,0.00048758,5057,-0.00011105,559.12,-0.00018546,0.019574,0.098116
24602,4.0404,3.7273,0.1,0.0004844,4840.6,0.00049143,5093.6,-0.00011282,553.43,-0.00018648,0.015043,0.093648
24603,4.1322,3.6364,0.1,0.00048173,4814,0.00048866,5062.3,-0.00011287,542.69,-0.00018509,0.016586,0.097898
24604,4.0404,3.9091,0.1,0.00048624,4859.1,0.00049307,5101.7,-0.0001156,528.3,-0.00018592,0.010208,0.093321
24605,4.1322,3.8182,0.1,0.00048333,4830,0.00049008,5069.4,-0.00011526,521.07,-0.00018461,0.012492,0.097605
24606,4.0404,4.0909,0.1,0.00048847,4881.4,0.00049504,5111.4,-0.00011894,498.18,-0.00018524,0.0040528,0.092919
24607,4.1322,4,0.1,0.00048531,4849.7,0.00049182,5078,-0.00011821,494.52,-0.00018402,0.007197,0.097236
24608,4.0404,4.2727,0.1,0.00049107,4907.3,0.00049731,5122.6,-0.00012279,463.41,-0.00018447,-0.0035917,0.092438
24609,4.1322,4.1818,0.1,0.00048765,4873.1,0.00049387,5088.2,-0.00012166,463.34,-0.00018333,0.00056376,0.096789
24610,4.0404,4.4545,0.1,0.00049401,4936.7,0.00049986,5135.2,-0.00012711,424.39,-0.00018359,-0.012991,0.091876
24611,4.1322,4.3636,0.1,0.00049033,4899.9,0.00049621,5099.8,-0.00012559,427.87,-0.00018254,-0.0075919,0.096262
24612,4.0404,4.6364,0.1,0.00049727,4969.3,0.00050266,5149.1,-0.00013185,381.56,-0.00018264,-0.024467,0.09123
24613,4.1322,4.5455,0.1,0.00049334,4930,0.0004988,5112.7,-0.00012996,388.52,-0.00018167,-0.017598,0.095652
24614,4.0404,4.8182,0.1,0.00050082,5004.8,0.00050569,5164,-0.00013697,335.4,-0.00018161,-0.038893,0.090498
24615,4.1322,4.7273,0.1,0.00049664,4962.9,0.00050161,5126.7,-0.0001347,345.73,-0.00018072,-0.02976,0.094957
24616,4.0404,5,0.1,0.00050464,5042.9,0.0005089,5179.9,-0.00014239,286.4,-0.00018052,-0.056452,0.089676
24617,4.1322,4.9091,0.1,0.0005002,4998.5,0.00050463,5141.7,-0.00013978,299.97,-0.00017971,-0.045499,0.094173
24618,4.0404,5.1818,0.1,0.00050867,5083.2,0.00051226,5196.6,-0.00014808,235.1,-0.00017938,-0.083492,0.088761
24619,4.1322,5.0909,0.1,0.00050399,5036.5,0.0005078,5157.6,-0.00014513,251.72,-0.00017864,-0.063864,0.093297
24620,4.0404,5.3636,0.1,0.00051289,5125.4,0.00051574,5213.9,-0.00015396,182.01,-0.0001782,-0.10878,0.087748
24621,4.1322,5.2727,0.1,0.00050799,5076.4,0.00051111,5174,-0.0001507,201.48,-0.00017752,-0.098354,0.092326
24622,4.0404,5.5455,0.1,0.00051727,5169.1,0.00051932,5231.6,-0.00015999,127.55,-0.000177,-0.23827,0.086634
24623,4.1322,5.4545,0.1,0.00051214,5117.9,0.00051452,5191,-0.00015643,149.75,-0.00017638,-0.11505,0.091256
24624,4.0404,5.7273,0.1,0.00052182,5214.6,0.000523,5250,-0.00016617,71.809,-0.00017578,-0.36671,0.085415
24625,4.1322,5.6364,0.1,0.00051643,5160.7,0.000518,5208.3,-0.00016229,96.822,-0.00017522,-0.35739,0.090082
24626,4.1322,5.8182,0.1,0.00052091,5205.5,0.00052162,5226.5,-0.0001683,42.711,-0.00017405,-0.46973,0.088802
24627,4.0404,5.9091,0.1,0.00052568,5253.1,0.00052606,5264.4,-0.00017154,22.995,-0.00017464,-0.2979,0.084086
24628,4.224,0.27273,0.1,0.00051551,5151.6,0.00051662,5184.8,-0.00016445,67.526,-0.00017348,-0.32739,0.093584
24629,4.3159,0.18182,0.1,0.00051446,5141,0.00051513,5161,-0.00016636,40.545,-0.00017181,-0.40754,0.09714
24630,4.224,0.090909,0.1,0.00051915,5187.9,0.00051951,5198.7,-0.00016946,22.007,-0.00017243,-0.27526,0.092243
24631,4.224,0.45455,0.1,0.0005113,5109.4,0.00051321,5167.7,-0.00015874,118.94,-0.0001746,-0.21686,0.094817
24632,4.3159,0.36364,0.1,0.00051031,5099.6,0.00051179,5144.1,-0.00016081,90.455,-0.00017289,-0.32569,0.098432
24633,4.224,0.63636,0.1,0.00050723,5068.8,0.0005099,5151.2,-0.00015318,169.15,-0.0001757,-0.098633,0.095945
24634,4.3159,0.54545,0.1,0.00050633,5059.9,0.00050856,5128,-0.0001554,139.29,-0.00017395,-0.10402,0.099618
24635,4.224,0.81818,0.1,0.00050331,5029.6,0.00050666,5135.1,-0.00014775,218.04,-0.00017678,-0.075937,0.096973
24636,4.3159,0.72727,0.1,0.00050248,5021.3,0.0005054,5112.1,-0.00015011,186.96,-0.000175,-0.089469,0.1007
24637,4.224,1,0.1,0.00049956,4992.1,0.00050354,5119.4,-0.00014251,265.24,-0.00017782,-0.051343,0.097903
24638,4.3159,0.90909,0.1,0.00049877,4984.3,0.00050233,5096.7,-0.00014497,233.21,-0.00017602,-0.05807,0.10169
24639,4.224,1.1818,0.1,0.00049601,4956.7,0.00050056,5104.5,-0.00013752,310.26,-0.00017881,-0.03537,0.098739
24640,4.3159,1.0909,0.1,0.00049524,4949,0.00049938,5081.9,-0.00014004,277.57,-0.00017699,-0.041399,0.10258
24641,4.224,1.3636,0.1,0.0004927,4923.6,0.00049775,5090.4,-0.00013281,352.66,-0.00017975,-0.0222,0.099485
24642,4.3159,1.2727,0.1,0.00049193,4915.9,0.00049658,5067.9,-0.00013537,319.61,-0.00017791,-0.027051,0.10337
24643,4.224,1.5455,0.1,0.00048966,4893.2,0.00049515,5077.4,-0.00012845,391.97,-0.00018062,-0.011685,0.10014
24644,4.3159,1.4545,0.1,0.00048885,4885.2,0.00049397,5054.7,-0.00013101,358.89,-0.00017877,-0.015936,0.10408
24645,4.224,1.7273,0.1,0.00048691,4865.8,0.00049277,5065.5,-0.00012447,427.78,-0.0001814,-0.0030326,0.10072
24646,4.3159,1.6364,0.1,0.00048605,4857.2,0.00049156,5042.6,-0.00012699,395,-0.00017957,-0.0067535,0.1047
24647,4.224,1.9091,0.1,0.00048448,4841.5,0.00049066,5054.9,-0.00012093,459.67,-0.00018211,0.0040398,0.10121
24648,4.3159,1.8182,0.1,0.00048354,4832.1,0.0004894,5031.7,-0.00012338,427.54,-0.00018028,0.00076303,0.10524
24649,4.224,2.0909,0.1,0.00048239,4820.6,0.00048883,5045.8,-0.00011786,487.31,-0.00018272,0.0097648,0.10162
24650,4.3159,2,0.1,0.00048136,4810.2,0.00048749,5022.1,-0.0001202,456.15,-0.00018091,0.0069057,0.1057
24651,4.224,2.2727,0.1,0.00048066,4803.3,0.0004873,5038.1,-0.0001153,510.36,-0.00018322,0.014286,0.10196
24652,4.3159,2.1818,0.1,0.0004795,4791.7,0.00048587,5013.9,-0.00011749,480.5,-0.00018144,0.011833,0.10608
24653,4.224,2.4545,0.1,0.0004793,4789.7,0.0004861,5032.1,-0.00011328,528.56,-0.00018363,0.017705,0.10222
24654,4.3159,2.3636,0.1,0.00047801,4776.8,0.00048455,5007.2,-0.00011529,500.32,-0.00018187,0.01566,0.10638
24655,4.224,2.6364,0.1,0.00047832,4779.9,0.00048523,5027.7,-0.00011182,541.72,-0.00018392,0.020098,0.1024
24656,4.3159,2.5455,0.1,0.00047687,4765.4,0.00048354,5002.2,-0.00011361,515.39,-0.0001822,0.018465,0.1066
24657,4.224,2.8182,0.1,0.00047773,4774,0.0004847,5025.1,-0.00011094,549.68,-0.00018409,0.021515,0.10251
24658,4.3159,2.7273,0.1,0.00047611,4757.8,0.00048287,4998.8,-0.00011248,525.54,-0.00018243,0.020306,0.10675
24659,4.224,3,0.1,0.00047753,4772,0.00048452,5024.2,-0.00011064,552.34,-0.00018415,0.021984,0.10255
24660,4.3159,2.9091,0.1,0.00047573,4754,0.00048253,4997.1,-0.00011192,530.64,-0.00018254,0.021219,0.10682
24661,4.224,3.1818,0.1,0.00047773,4774,0.0004847,5025.1,-0.00011094,549.68,-0.00018409,0.021515,0.10251
24662,4.3159,3.0909,0.1,0.00047573,4754,0.00048253,4997.1,-0.00011192,530.64,-0.00018254,0.021219,0.10682
24663,4.224,3.3636,0.1,0.00047832,4779.9,0.00048523,5027.7,-0.00011182,541.72,-0.00018392,0.020098,0.1024
24664,4.3159,3.2727,0.1,0.00047611,4757.8,0.00048287,4998.8,-0.00011248,525.54,-0.00018243,0.020306,0.10675
24665,4.224,3.5455,0.1,0.0004793,4789.7,0.0004861,5032.1,-0.00011328,528.56,-0.00018363,0.017705,0.10222
24666,4.3159,3.4545,0.1,0.00047687,4765.4,0.00048354,5002.2,-0.00011361,515.39,-0.0001822,0.018465,0.1066
24667,4.224,3.7273,0.1,0.00048066,4803.3,0.0004873,5038.1,-0.0001153,510.36,-0.00018322,0.014286,0.10196
24668,4.3159,3.6364,0.1,0.00047801,4776.8,0.00048455,5007.2,-0.00011529,500.32,-0.00018187,0.01566,0.10638
24669,4.224,3.9091,0.1,0.00048239,4820.6,0.00048883,5045.8,-0.00011786,487.31,-0.00018272,0.0097652,0.10162
24670,4.3159,3.8182,0.1,0.0004795,4791.7,0.00048587,5013.9,-0.00011749,480.5,-0.00018144,0.011834,0.10608
24671,4.224,4.0909,0.1,0.00048448,4841.5,0.00049066,5054.9,-0.00012093,459.67,-0.00018211,0.0040402,0.10121
24672,4.3159,4,0.1,0.00048136,4810.2,0.00048749,5022.1,-0.0001202,456.15,-0.00018091,0.0069061,0.1057
24673,4.224,4.2727,0.1,0.00048691,4865.8,0.00049277,5065.5,-0.00012447,427.78,-0.0001814,-0.0030321,0.10072
24674,4.3159,4.1818,0.1,0.00048354,4832.1,0.0004894,5031.7,-0.00012338,427.54,-0.00018028,0.00076347,0.10524
24675,4.224,4.4545,0.1,0.00048966,4893.2,0.00049515,5077.4,-0.00012845,391.97,-0.00018062,-0.011684,0.10014
24676,4.3159,4.3636,0.1,0.00048605,4857.2,0.00049156,5042.6,-0.00012699,395,-0.00017957,-0.0067529,0.1047
24677,4.224,4.6364,0.1,0.0004927,4923.6,0.00049775,5090.4,-0.00013281,352.66,-0.00017975,-0.022199,0.099485
24678,4.3159,4.5455,0.1,0.00048885,4885.2,0.00049397,5054.7,-0.00013101,358.89,-0.00017877,-0.015935,0.10408
24679,4.224,4.8182,0.1,0.00049601,4956.7,0.00050056,5104.5,-0.00013752,310.26,-0.00017881,-0.035369,0.098739
24680,4.3159,4.7273,0.1,0.00049193,4915.9,0.00049658,5067.9,-0.00013537,319.61,-0.00017791,-0.027051,0.10337
24681,4.224,5,0.1,0.00049956,4992.1,0.00050354,5119.4,-0.00014251,265.24,-0.00017782,-0.051342,0.097903
24682,4.3159,4.9091,0.1,0.00049524,4949,0.00049938,5081.9,-0.00014004,277.57,-0.00017699,-0.041398,0.10258
24683,4.224,5.1818,0.1,0.00050331,5029.6,0.00050666,5135.1,-0.00014775,218.04,-0.00017678,-0.075937,0.096973
24684,4.3159,5.0909,0.1,0.00049877,4984.3,0.00050233,5096.7,-0.00014497,233.21,-0.00017602,-0.058069,0.10169
24685,4.224,5.3636,0.1,0.00050723,5068.8,0.0005099,5151.2,-0.00015318,169.15,-0.0001757,-0.098632,0.095945
24686,4.3159,5.2727,0.1,0.00050248,5021.3,0.0005054,5112.1,-0.00015011,186.96,-0.000175,-0.089468,0.1007
24687,4.224,5.5455,0.1,0.0005113,5109.4,0.00051321,5167.7,-0.00015874,118.94,-0.0001746,-0.21686,0.094817
24688,4.3159,5.4545,0.1,0.00050633,5059.9,0.00050856,5128,-0.0001554,139.29,-0.00017395,-0.10402,0.099618
24689,4.224,5.7273,0.1,0.00051551,5151.6,0.00051662,5184.8,-0.00016445,67.526,-0.00017348,-0.32739,0.093584
24690,4.3159,5.6364,0.1,0.00051031,5099.6,0.00051179,5144.1,-0.00016081,90.455,-0.00017289,-0.32569,0.098432
24691,4.3159,5.8182,0.1,0.00051446,5141,0.00051513,5161,-0.00016636,40.545,-0.00017181,-0.40753,0.09714
24692,4.224,5.9091,0.1,0.00051915,5187.9,0.00051951,5198.7,-0.00016946,22.007,-0.00017243,-0.27526,0.092243
24693,4.4077,0.27273,0.1,0.00050926,5089.1,0.0005103,5120.3,-0.00016274,63.305,-0.00017121,-0.29301,0.1021
24694,4.4995,0.18182,0.1,0.00050807,5077.2,0.00050871,5096.1,-0.00016444,38.286,-0.00016959,-0.35567,0.10582
24695,4.4077,0.090909,0.1,0.00051267,5123.2,0.00051302,5133.5,-0.00016742,20.918,-0.00017024,-0.25491,0.10075
24696,4.4077,0.45455,0.1,0.00050535,5050,0.00050714,5104.4,-0.00015747,110.74,-0.00017224,-0.19748,0.10335
24697,4.4995,0.36364,0.1,0.00050424,5038.9,0.00050562,5080.4,-0.00015932,84.333,-0.00017058,-0.29698,0.10713
24698,4.4077,0.63636,0.1,0.00050158,5012.3,0.00050407,5089,-0.00015233,157.04,-0.00017325,-0.089485,0.10449
24699,4.4995,0.54545,0.1,0.00050055,5002.1,0.00050262,5065.4,-0.00015432,129.39,-0.00017156,-0.094121,0.10832
24700,4.4077,0.81818,0.1,0.00049794,4976,0.00050107,5073.9,-0.00014733,202.07,-0.00017423,-0.069093,0.10553
24701,4.4995,0.72727,0.1,0.00049697,4966.3,0.00049969,5050.7,-0.00014944,173.33,-0.00017252,-0.08142,0.10942
24702,4.4077,1,0.1,0.00049445,4941.1,0.00049817,5059.3,-0.0001425,245.49,-0.00017518,-0.046714,0.10647
24703,4.4995,0.90909,0.1,0.00049353,4931.9,0.00049685,5036.3,-0.0001447,215.9,-0.00017345,-0.052825,0.11042
24704,4.4077,1.1818,0.1,0.00049116,4908.2,0.00049541,5045.3,-0.0001379,286.88,-0.00017609,-0.032183,0.10732
24705,4.4995,1.0909,0.1,0.00049025,4899.2,0.00049412,5022.4,-0.00014017,256.7,-0.00017434,-0.037688,0.11132
24706,4.4077,1.3636,0.1,0.00048808,4877.4,0.0004928,5032.1,-0.00013357,325.81,-0.00017694,-0.020164,0.10808
24707,4.4995,1.2727,0.1,0.00048717,4868.4,0.00049152,5009.3,-0.00013587,295.33,-0.00017518,-0.024611,0.11212
24708,4.4077,1.5455,0.1,0.00048525,4849.1,0.00049039,5019.9,-0.00012956,361.9,-0.00017772,-0.010541,0.10875
24709,4.4995,1.4545,0.1,0.00048431,4839.8,0.0004891,4997,-0.00013185,331.4,-0.00017596,-0.014459,0.11284
24710,4.4077,1.7273,0.1,0.00048269,4823.5,0.00048819,5008.8,-0.0001259,394.75,-0.00017844,-0.002594,0.10933
24711,4.4995,1.6364,0.1,0.00048171,4813.7,0.00048687,4985.6,-0.00012816,364.54,-0.00017668,-0.0060461,0.11348
24712,4.4077,1.9091,0.1,0.00048042,4800.9,0.00048623,4998.8,-0.00012264,424.01,-0.00017908,0.003928,0.10983
24713,4.4995,1.8182,0.1,0.00047937,4790.4,0.00048486,4975.4,-0.00012484,394.38,-0.00017733,0.00086427,0.11402
24714,4.4077,2.0909,0.1,0.00047847,4781.4,0.00048453,4990.2,-0.00011982,449.35,-0.00017963,0.0092297,0.11025
24715,4.4995,2,0.1,0.00047733,4770,0.00048309,4966.4,-0.00012191,420.62,-0.00017789,0.0065329,0.11449
24716,4.4077,2.2727,0.1,0.00047685,4765.2,0.00048311,4983,-0.00011747,470.49,-0.00018009,0.013434,0.11059
24717,4.4995,2.1818,0.1,0.0004756,4752.8,0.00048159,4958.7,-0.00011943,442.95,-0.00017838,0.011098,0.11487
24718,4.4077,2.4545,0.1,0.00047558,4752.5,0.00048199,4977.3,-0.00011561,487.18,-0.00018045,0.016625,0.11086
24719,4.4995,2.3636,0.1,0.0004742,4738.8,0.00048036,4952.5,-0.0001174,461.12,-0.00017877,0.014655,0.11518
24720,4.4077,2.6364,0.1,0.00047466,4743.3,0.00048118,4973.2,-0.00011427,499.24,-0.00018071,0.018866,0.11105
24721,4.4995,2.5455,0.1,0.00047314,4728.2,0.00047943,4947.7,-0.00011586,474.94,-0.00017907,0.017271,0.11541
24722,4.4077,2.8182,0.1,0.00047411,4737.8,0.00048069,4970.7,-0.00011346,506.54,-0.00018087,0.020195,0.11116
24723,4.4995,2.7273,0.1,0.00047243,4721,0.0004788,4944.5,-0.00011483,484.23,-0.00017927,0.018993,0.11556
24724,4.4077,3,0.1,0.00047392,4735.9,0.00048052,4969.9,-0.00011319,508.98,-0.00018093,0.020636,0.1112
24725,4.4995,2.9091,0.1,0.00047207,4717.5,0.00047849,4942.9,-0.0001143,488.91,-0.00017937,0.019847,0.11563
24726,4.4077,3.1818,0.1,0.00047411,4737.8,0.00048069,4970.7,-0.00011346,506.54,-0.00018087,0.020195,0.11116
24727,4.4995,3.0909,0.1,0.00047207,4717.5,0.00047849,4942.9,-0.0001143,488.91,-0.00017937,0.019847,0.11563
24728,4.4077,3.3636,0.1,0.00047466,4743.3,0.00048118,4973.2,-0.00011427,499.24,-0.00018071,0.018866,0.11105
24729,4.4995,3.2727,0.1,0.00047243,4721,0.0004788,4944.5,-0.00011483,484.23,-0.00017927,0.018993,0.11556
24730,4.4077,3.5455,0.1,0.00047558,4752.5,0.00048199,4977.3,-0.00011561,487.18,-0.00018045,0.016626,0.11086
24731,4.4995,3.4545,0.1,0.00047314,4728.2,0.00047943,4947.7,-0.00011586,474.94,-0.00017907,0.017271,0.11541
24732,4.4077,3.7273,0.1,0.00047685,4765.2,0.00048311,4983,-0.00011747,470.49,-0.00018009,0.013434,0.11059
24733,4.4995,3.6364,0.1,0.0004742,4738.8,0.00048036,4952.5,-0.0001174,461.12,-0.00017877,0.014656,0.11518
24734,4.4077,3.9091,0.1,0.00047847,4781.4,0.00048453,4990.2,-0.00011982,449.35,-0.00017963,0.00923,0.11025
24735,4.4995,3.8182,0.1,0.0004756,4752.8,0.00048159,4958.7,-0.00011943,442.95,-0.00017838,0.011098,0.11487
24736,4.4077,4.0909,0.1,0.00048042,4800.9,0.00048623,4998.8,-0.00012264,424.01,-0.00017908,0.0039284,0.10983
24737,4.4995,4,0.1,0.00047733,4770,0.00048309,4966.4,-0.00012191,420.62,-0.00017789,0.0065333,0.11449
24738,4.4077,4.2727,0.1,0.00048269,4823.5,0.00048819,5008.8,-0.0001259,394.75,-0.00017844,-0.0025935,0.10933
24739,4.4995,4.1818,0.1,0.00047937,4790.4,0.00048486,4975.4,-0.00012484,394.38,-0.00017733,0.00086478,0.11402
24740,4.4077,4.4545,0.1,0.00048525,4849.1,0.00049039,5019.9,-0.00012956,361.9,-0.00017772,-0.01054,0.10875
24741,4.4995,4.3636,0.1,0.00048171,4813.7,0.00048687,4985.6,-0.00012816,364.54,-0.00017668,-0.0060455,0.11348
24742,4.4077,4.6364,0.1,0.00048808,4877.4,0.0004928,5032.1,-0.00013357,325.81,-0.00017694,-0.020164,0.10808
24743,4.4995,4.5455,0.1,0.00048431,4839.8,0.0004891,4997,-0.00013185,331.4,-0.00017596,-0.014458,0.11284
24744,4.4077,4.8182,0.1,0.00049116,4908.2,0.00049541,5045.3,-0.0001379,286.88,-0.00017609,-0.032183,0.10732
24745,4.4995,4.7273,0.1,0.00048717,4868.4,0.00049152,5009.3,-0.00013587,295.33,-0.00017518,-0.02461,0.11212
24746,4.4077,5,0.1,0.00049445,4941.1,0.00049817,5059.3,-0.0001425,245.49,-0.00017518,-0.046713,0.10647
24747,4.4995,4.9091,0.1,0.00049025,4899.2,0.00049412,5022.4,-0.00014017,256.7,-0.00017434,-0.037687,0.11132
24748,4.4077,5.1818,0.1,0.00049794,4976,0.00050107,5073.9,-0.00014733,202.07,-0.00017423,-0.069092,0.10553
24749,4.4995,5.0909,0.1,0.00049353,4931.9,0.00049685,5036.3,-0.0001447,215.9,-0.00017345,-0.052824,0.11042
24750,4.4077,5.3636,0.1,0.00050158,5012.3,0.00050407,5089,-0.00015233,157.04,-0.00017325,-0.089485,0.10449
24751,4.4995,5.2727,0.1,0.00049697,4966.3,0.00049969,5050.7,-0.00014944,173.33,-0.00017252,-0.081419,0.10942
24752,4.4077,5.5455,0.1,0.00050535,5050,0.00050714,5104.4,-0.00015747,110.74,-0.00017224,-0.19748,0.10335
24753,4.4995,5.4545,0.1,0.00050055,5002.1,0.00050262,5065.4,-0.00015432,129.39,-0.00017156,-0.094121,0.10832
24754,4.4077,5.7273,0.1,0.00050926,5089.1,0.0005103,5120.3,-0.00016274,63.305,-0.00017121,-0.293,0.1021
24755,4.4995,5.6364,0.1,0.00050424,5038.9,0.00050562,5080.4,-0.00015932,84.333,-0.00017058,-0.29697,0.10713
24756,4.4995,5.8182,0.1,0.00050807,5077.2,0.00050871,5096.1,-0.00016444,38.286,-0.00016959,-0.35566,0.10582
24757,4.4077,5.9091,0.1,0.00051267,5123.2,0.00051302,5133.5,-0.00016742,20.918,-0.00017024,-0.25491,0.10075
24758,4.5913,0.27273,0.1,0.00050306,5027.1,0.00050403,5056.3,-0.00016104,59.171,-0.00016895,-0.26283,0.11096
24759,4.6832,0.18182,0.1,0.00050176,5014.1,0.00050235,5031.8,-0.00016256,35.971,-0.00016738,-0.31219,0.11485
24760,4.5913,0.090909,0.1,0.00050626,5059.1,0.00050659,5068.9,-0.0001654,19.758,-0.00016806,-0.23657,0.1096
24761,4.5913,0.45455,0.1,0.00049944,4991,0.00050111,5041.5,-0.00015618,102.94,-0.0001699,-0.17991,0.11222
24762,4.6832,0.36364,0.1,0.00049821,4978.7,0.0004995,5017.3,-0.00015783,78.463,-0.0001683,-0.27093,0.11616
24763,4.5913,0.63636,0.1,0.00049594,4956,0.00049826,5027.2,-0.00015143,145.64,-0.00017083,-0.081229,0.11337
24764,4.6832,0.54545,0.1,0.00049479,4944.5,0.00049672,5003.4,-0.00015321,120.04,-0.0001692,-0.085217,0.11737
24765,4.5913,0.81818,0.1,0.00049256,4922.2,0.00049548,5013.1,-0.00014682,187.12,-0.00017173,-0.062894,0.11442
24766,4.6832,0.72727,0.1,0.00049147,4911.3,0.00049401,4989.6,-0.0001487,160.54,-0.00017008,-0.074127,0.11847
24767,4.5913,1,0.1,0.00048933,4889.9,0.0004928,4999.5,-0.00014237,227.07,-0.0001726,-0.042526,0.11537
24768,4.6832,0.90909,0.1,0.00048828,4879.4,0.00049137,4976.2,-0.00014434,199.74,-0.00017093,-0.04808,0.11948
24769,4.5913,1.1818,0.1,0.00048627,4859.3,0.00049024,4986.5,-0.00013814,265.12,-0.00017342,-0.029307,0.11623
24770,4.6832,1.0909,0.1,0.00048524,4849,0.00048884,4963.3,-0.00014016,237.26,-0.00017174,-0.034335,0.12039
24771,4.5913,1.3636,0.1,0.00048341,4830.8,0.00048782,4974.2,-0.00013415,300.89,-0.0001742,-0.018344,0.117
24772,4.6832,1.2727,0.1,0.00048238,4820.5,0.00048644,4951,-0.0001362,272.76,-0.00017251,-0.022419,0.12121
24773,4.5913,1.5455,0.1,0.00048078,4804.4,0.00048559,4962.7,-0.00013046,334.01,-0.00017491,-0.0095464,0.11768
24774,4.6832,1.4545,0.1,0.00047973,4793.9,0.0004842,4939.6,-0.00013251,305.89,-0.00017322,-0.013154,0.12194
24775,4.5913,1.7273,0.1,0.00047839,4780.6,0.00048355,4952.3,-0.0001271,364.15,-0.00017556,-0.0022601,0.11827
24776,4.6832,1.6364,0.1,0.0004773,4769.7,0.00048213,4929,-0.00012912,336.3,-0.00017387,-0.0054562,0.12258
24777,4.5913,1.9091,0.1,0.00047629,4759.6,0.00048173,4943,-0.00012411,390.99,-0.00017614,0.0037386,0.11878
24778,4.6832,1.8182,0.1,0.00047513,4748,0.00048027,4919.4,-0.00012606,363.67,-0.00017446,0.0008839,0.12313
24779,4.5913,2.0909,0.1,0.00047447,4741.4,0.00048015,4934.9,-0.00012151,414.22,-0.00017664,0.008631,0.11921
24780,4.6832,2,0.1,0.00047323,4729.1,0.00047863,4911,-0.00012338,387.73,-0.00017498,0.0061001,0.1236
24781,4.5913,2.2727,0.1,0.00047296,4726.3,0.00047884,4928.2,-0.00011935,433.59,-0.00017706,0.012523,0.11956
24782,4.6832,2.1818,0.1,0.00047162,4713,0.00047724,4903.8,-0.00012109,408.2,-0.00017542,0.010313,0.124
24783,4.5913,2.4545,0.1,0.00047177,4714.5,0.0004778,4922.9,-0.00011765,448.9,-0.00017739,0.015486,0.11983
24784,4.6832,2.3636,0.1,0.00047032,4700,0.0004761,4898,-0.00011923,424.86,-0.00017577,0.013606,0.12431
24785,4.5913,2.6364,0.1,0.00047092,4705.9,0.00047705,4919,-0.00011641,459.95,-0.00017763,0.017572,0.12002
24786,4.6832,2.5455,0.1,0.00046933,4690.1,0.00047524,4893.5,-0.00011782,437.52,-0.00017604,0.016033,0.12454
24787,4.5913,2.8182,0.1,0.0004704,4700.7,0.0004766,4916.7,-0.00011567,466.63,-0.00017777,0.018811,0.12013
24788,4.6832,2.7273,0.1,0.00046867,4683.4,0.00047466,4890.5,-0.00011686,446.04,-0.00017623,0.017633,0.12469
24789,4.5913,3,0.1,0.00047023,4699,0.00047644,4915.9,-0.00011542,468.87,-0.00017782,0.019222,0.12017
24790,4.6832,2.9091,0.1,0.00046833,4680.1,0.00047437,4889,-0.00011639,450.32,-0.00017632,0.018428,0.12477
24791,4.5913,3.1818,0.1,0.0004704,4700.7,0.0004766,4916.7,-0.00011567,466.63,-0.00017777,0.018811,0.12013
24792,4.6832,3.0909,0.1,0.00046833,4680.1,0.00047437,4889,-0.00011639,450.32,-0.00017632,0.018428,0.12477
24793,4.5913,3.3636,0.1,0.00047092,4705.9,0.00047705,4919,-0.00011641,459.95,-0.00017763,0.017572,0.12002
24794,4.6832,3.2727,0.1,0.00046867,4683.4,0.00047466,4890.5,-0.00011686,446.04,-0.00017623,0.017633,0.12469
24795,4.5913,3.5455,0.1,0.00047177,4714.5,0.0004778,4922.9,-0.00011765,448.9,-0.00017739,0.015487,0.11983
24796,4.6832,3.4545,0.1,0.00046933,4690.1,0.00047524,4893.5,-0.00011782,437.52,-0.00017604,0.016033,0.12454
24797,4.5913,3.7273,0.1,0.00047296,4726.3,0.00047884,4928.2,-0.00011935,433.59,-0.00017706,0.012523,0.11956
24798,4.6832,3.6364,0.1,0.00047032,4700,0.0004761,4898,-0.00011923,424.86,-0.00017577,0.013606,0.12431
24799,4.5913,3.9091,0.1,0.00047447,4741.4,0.00048015,4934.9,-0.00012151,414.22,-0.00017664,0.0086314,0.11921
24800,4.6832,3.8182,0.1,0.00047162,4713,0.00047724,4903.8,-0.00012109,408.2,-0.00017542,0.010314,0.124
24801,4.5913,4.0909,0.1,0.00047629,4759.6,0.00048173,4943,-0.00012411,390.99,-0.00017614,0.0037391,0.11878
24802,4.6832,4,0.1,0.00047323,4729.1,0.00047863,4911,-0.00012338,387.73,-0.00017498,0.0061005,0.1236
24803,4.5913,4.2727,0.1,0.00047839,4780.6,0.00048355,4952.3,-0.0001271,364.15,-0.00017556,-0.0022595,0.11827
24804,4.6832,4.1818,0.1,0.00047513,4748,0.00048027,4919.4,-0.00012606,363.67,-0.00017446,0.00088442,0.12313
24805,4.5913,4.4545,0.1,0.00048078,4804.4,0.00048559,4962.7,-0.00013046,334.01,-0.00017491,-0.0095459,0.11768
24806,4.6832,4.3636,0.1,0.0004773,4769.7,0.00048213,4929,-0.00012912,336.3,-0.00017387,-0.0054556,0.12258
24807,4.5913,4.6364,0.1,0.00048341,4830.8,0.00048782,4974.2,-0.00013415,300.89,-0.0001742,-0.018343,0.117
24808,4.6832,4.5455,0.1,0.00047973,4793.9,0.0004842,4939.6,-0.00013251,305.89,-0.00017322,-0.013153,0.12194
24809,4.5913,4.8182,0.1,0.00048627,4859.3,0.00049024,4986.5,-0.00013814,265.12,-0.00017342,-0.029307,0.11623
24810,4.6832,4.7273,0.1,0.00048238,4820.5,0.00048644,4951,-0.0001362,272.76,-0.00017251,-0.022418,0.12121
24811,4.5913,5,0.1,0.00048933,4889.9,0.0004928,4999.5,-0.00014237,227.07,-0.0001726,-0.042525,0.11537
24812,4.6832,4.9091,0.1,0.00048524,4849,0.00048884,4963.3,-0.00014016,237.26,-0.00017174,-0.034334,0.12039
24813,4.5913,5.1818,0.1,0.00049256,4922.2,0.00049548,5013.1,-0.00014682,187.12,-0.00017173,-0.062892,0.11442
24814,4.6832,5.0909,0.1,0.00048828,4879.4,0.00049137,4976.2,-0.00014434,199.74,-0.00017093,-0.048079,0.11948
24815,4.5913,5.3636,0.1,0.00049594,4956,0.00049826,5027.2,-0.00015143,145.64,-0.00017083,-0.081228,0.11337
24816,4.6832,5.2727,0.1,0.00049147,4911.3,0.00049401,4989.6,-0.0001487,160.54,-0.00017008,-0.074126,0.11847
24817,4.5913,5.5455,0.1,0.00049944,4991,0.00050111,5041.5,-0.00015618,102.94,-0.0001699,-0.17991,0.11222
24818,4.6832,5.4545,0.1,0.00049479,4944.5,0.00049672,5003.4,-0.00015321,120.04,-0.0001692,-0.085217,0.11737
24819,4.5913,5.7273,0.1,0.00050306,5027.1,0.00050403,5056.3,-0.00016104,59.171,-0.00016895,-0.26282,0.11096
24820,4.6832,5.6364,0.1,0.00049821,4978.7,0.0004995,5017.3,-0.00015783,78.463,-0.0001683,-0.27093,0.11616
24821,4.6832,5.8182,0.1,0.00050176,5014.1,0.00050235,5031.8,-0.00016256,35.971,-0.00016738,-0.31218,0.11485
24822,4.5913,5.9091,0.1,0.00050626,5059.1,0.00050659,5068.9,-0.0001654,19.758,-0.00016806,-0.23657,0.1096
24823,4.775,0.27273,0.1,0.00049691,4965.7,0.00049782,4992.9,-0.00015935,55.142,-0.00016672,-0.23625,0.12016
24824,4.8668,0.18182,0.1,0.00049551,4951.7,0.00049607,4968.2,-0.00016069,33.632,-0.0001652,-0.27558,0.12422
24825,4.775,0.090909,0.1,0.00049991,4995.6,0.00050022,5004.8,-0.00016341,18.549,-0.00016591,-0.22001,0.1188
24826,4.775,0.45455,0.1,0.00049356,4932.2,0.00049512,4979.2,-0.00015486,95.526,-0.0001676,-0.16397,0.12142
24827,4.8668,0.36364,0.1,0.00049223,4918.9,0.00049342,4954.8,-0.00015632,72.85,-0.00016605,-0.24726,0.12553
24828,4.775,0.63636,0.1,0.00049032,4899.8,0.00049247,4965.8,-0.00015048,134.91,-0.00016845,-0.073772,0.12258
24829,4.8668,0.54545,0.1,0.00048906,4887.2,0.00049085,4941.8,-0.00015206,111.22,-0.00016687,-0.077199,0.12675
24830,4.775,0.81818,0.1,0.00048719,4868.5,0.0004899,4952.7,-0.00014623,173.13,-0.00016928,-0.057278,0.12364
24831,4.8668,0.72727,0.1,0.00048598,4856.5,0.00048834,4929,-0.0001479,148.55,-0.00016768,-0.067512,0.12786
24832,4.775,1,0.1,0.00048419,4838.5,0.00048742,4940.1,-0.00014213,209.89,-0.00017007,-0.038741,0.1246
24833,4.8668,0.90909,0.1,0.00048302,4826.9,0.0004859,4916.5,-0.00014388,184.64,-0.00016846,-0.043786,0.12887
24834,4.775,1.1818,0.1,0.00048135,4810.2,0.00048505,4927.9,-0.00013823,244.87,-0.00017082,-0.026717,0.12547
24835,4.8668,1.0909,0.1,0.0004802,4798.7,0.00048355,4904.5,-0.00014003,219.16,-0.0001692,-0.031306,0.12979
24836,4.775,1.3636,0.1,0.0004787,4783.7,0.00048281,4916.5,-0.00013456,277.73,-0.00017153,-0.016722,0.12625
24837,4.8668,1.2727,0.1,0.00047755,4772.2,0.00048133,4893.1,-0.00013639,251.79,-0.0001699,-0.020452,0.13062
24838,4.775,1.5455,0.1,0.00047625,4759.2,0.00048074,4905.8,-0.00013117,308.15,-0.00017218,-0.008687,0.12694
24839,4.8668,1.4545,0.1,0.00047509,4747.6,0.00047926,4882.4,-0.00013299,282.21,-0.00017055,-0.012002,0.13135
24840,4.775,1.7273,0.1,0.00047404,4737.1,0.00047886,4896.1,-0.00012808,335.8,-0.00017277,-0.0020168,0.12754
24841,4.8668,1.6364,0.1,0.00047284,4725.1,0.00047735,4872.5,-0.00012987,310.12,-0.00017115,-0.0049673,0.132
24842,4.775,1.9091,0.1,0.00047208,4717.5,0.00047718,4887.4,-0.00012533,360.41,-0.0001733,0.0034882,0.12806
24843,4.8668,1.8182,0.1,0.00047082,4705,0.00047563,4863.6,-0.00012706,335.23,-0.00017168,0.00083917,0.13256
24844,4.775,2.0909,0.1,0.00047039,4700.7,0.00047572,4879.9,-0.00012295,381.71,-0.00017375,0.0079896,0.12849
24845,4.8668,2,0.1,0.00046906,4687.4,0.00047412,4855.8,-0.0001246,357.29,-0.00017215,0.0056275,0.13304
24846,4.775,2.2727,0.1,0.00046899,4686.6,0.0004745,4873.6,-0.00012097,399.47,-0.00017413,0.01158,0.12884
24847,4.8668,2.1818,0.1,0.00046757,4672.4,0.00047283,4849.1,-0.0001225,376.05,-0.00017255,0.0095043,0.13344
24848,4.775,2.4545,0.1,0.00046788,4675.6,0.00047354,4868.6,-0.0001194,413.49,-0.00017443,0.014319,0.12912
24849,4.8668,2.3636,0.1,0.00046635,4660.3,0.00047178,4843.7,-0.00012079,391.32,-0.00017287,0.012541,0.13376
24850,4.775,2.6364,0.1,0.00046709,4667.6,0.00047285,4865,-0.00011827,423.62,-0.00017464,0.016251,0.12931
24851,4.8668,2.5455,0.1,0.00046544,4651.1,0.00047098,4839.5,-0.00011949,402.92,-0.00017312,0.014783,0.13399
24852,4.775,2.8182,0.1,0.0004666,4662.8,0.00047243,4862.8,-0.00011758,429.74,-0.00017477,0.0174,0.12943
24853,4.8668,2.7273,0.1,0.00046482,4645,0.00047044,4836.7,-0.00011862,410.72,-0.00017328,0.016263,0.13415
24854,4.775,3,0.1,0.00046644,4661.2,0.00047229,4862.1,-0.00011735,431.79,-0.00017482,0.017782,0.12947
24855,4.8668,2.9091,0.1,0.00046451,4641.9,0.00047017,4835.3,-0.00011818,414.65,-0.00017337,0.017,0.13423
24856,4.775,3.1818,0.1,0.0004666,4662.8,0.00047243,4862.8,-0.00011758,429.74,-0.00017477,0.017401,0.12943
24857,4.8668,3.0909,0.1,0.00046451,4641.9,0.00047017,4835.3,-0.00011818,414.65,-0.00017337,0.017,0.13423
24858,4.775,3.3636,0.1,0.00046709,4667.6,0.00047285,4865,-0.00011827,423.62,-0.00017464,0.016251,0.12931
24859,4.8668,3.2727,0.1,0.00046482,4645,0.00047044,4836.7,-0.00011862,410.72,-0.00017328,0.016263,0.13415
24860,4.775,3.5455,0.1,0.00046788,4675.6,0.00047354,4868.6,-0.0001194,413.49,-0.00017443,0.01432,0.12912
24861,4.8668,3.4545,0.1,0.00046544,4651.1,0.00047098,4839.5,-0.00011949,402.92,-0.00017312,0.014783,0.13399
24862,4.775,3.7273,0.1,0.00046899,4686.6,0.0004745,4873.6,-0.00012097,399.47,-0.00017413,0.01158,0.12884
24863,4.8668,3.6364,0.1,0.00046635,4660.3,0.00047178,4843.7,-0.00012079,391.32,-0.00017287,0.012541,0.13376
24864,4.775,3.9091,0.1,0.00047039,4700.7,0.00047572,4879.9,-0.00012295,381.71,-0.00017375,0.00799,0.12849
24865,4.8668,3.8182,0.1,0.00046757,4672.4,0.00047283,4849.1,-0.0001225,376.05,-0.00017255,0.0095045,0.13344
24866,4.775,4.0909,0.1,0.00047208,4717.5,0.00047718,4887.4,-0.00012533,360.41,-0.0001733,0.0034886,0.12806
24867,4.8668,4,0.1,0.00046906,4687.4,0.00047412,4855.8,-0.0001246,357.29,-0.00017215,0.005628,0.13304
24868,4.775,4.2727,0.1,0.00047404,4737.1,0.00047886,4896.1,-0.00012808,335.8,-0.00017277,-0.0020162,0.12754
24869,4.8668,4.1818,0.1,0.00047082,4705,0.00047563,4863.6,-0.00012706,335.23,-0.00017168,0.0008396,0.13256
24870,4.775,4.4545,0.1,0.00047625,4759.2,0.00048074,4905.8,-0.00013117,308.15,-0.00017218,-0.0086864,0.12694
24871,4.8668,4.3636,0.1,0.00047284,4725.1,0.00047735,4872.5,-0.00012987,310.12,-0.00017115,-0.0049667,0.132
24872,4.775,4.6364,0.1,0.0004787,4783.7,0.00048281,4916.5,-0.00013456,277.73,-0.00017153,-0.016721,0.12625
24873,4.8668,4.5455,0.1,0.00047509,4747.6,0.00047926,4882.4,-0.00013299,282.21,-0.00017055,-0.012001,0.13135
24874,4.775,4.8182,0.1,0.00048135,4810.2,0.00048505,4927.9,-0.00013823,244.87,-0.00017082,-0.026716,0.12547
24875,4.8668,4.7273,0.1,0.00047755,4772.2,0.00048133,4893.1,-0.00013639,251.79,-0.0001699,-0.020451,0.13062
24876,4.775,5,0.1,0.00048419,4838.5,0.00048742,4940.1,-0.00014213,209.89,-0.00017007,-0.03874,0.1246
24877,4.8668,4.9091,0.1,0.0004802,4798.7,0.00048355,4904.5,-0.00014003,219.16,-0.0001692,-0.031305,0.12979
24878,4.775,5.1818,0.1,0.00048719,4868.5,0.0004899,4952.7,-0.00014623,173.13,-0.00016928,-0.057277,0.12364
24879,4.8668,5.0909,0.1,0.00048302,4826.9,0.0004859,4916.5,-0.00014388,184.64,-0.00016846,-0.043785,0.12887
24880,4.775,5.3636,0.1,0.00049032,4899.8,0.00049247,4965.8,-0.00015048,134.91,-0.00016845,-0.073772,0.12258
24881,4.8668,5.2727,0.1,0.00048598,4856.5,0.00048834,4929,-0.0001479,148.55,-0.00016768,-0.067512,0.12786
24882,4.775,5.5455,0.1,0.00049356,4932.2,0.00049512,4979.2,-0.00015486,95.526,-0.0001676,-0.16397,0.12142
24883,4.8668,5.4545,0.1,0.00048906,4887.2,0.00049085,4941.8,-0.00015206,111.22,-0.00016687,-0.077199,0.12675
24884,4.775,5.7273,0.1,0.00049691,4965.7,0.00049782,4992.9,-0.00015935,55.142,-0.00016672,-0.23625,0.12016
24885,4.8668,5.6364,0.1,0.00049223,4918.9,0.00049342,4954.8,-0.00015632,72.85,-0.00016605,-0.24726,0.12553
24886,4.8668,5.8182,0.1,0.00049551,4951.7,0.00049607,4968.2,-0.00016069,33.632,-0.0001652,-0.27558,0.12422
24887,4.775,5.9091,0.1,0.00049991,4995.6,0.00050022,5004.8,-0.00016341,18.549,-0.00016591,-0.22001,0.1188
24888,4.9587,0.27273,0.1,0.00049082,4904.8,0.00049167,4930.2,-0.00015767,51.237,-0.00016452,-0.21279,0.1297
24889,5.0505,0.18182,0.1,0.00048932,4889.9,0.00048984,4905.3,-0.00015885,31.293,-0.00016304,-0.24466,0.13392
24890,4.9587,0.090909,0.1,0.00049362,4932.8,0.00049391,4941.3,-0.00016144,17.312,-0.00016377,-0.20505,0.12833
24891,4.9587,0.45455,0.1,0.00048772,4873.9,0.00048916,4917.4,-0.00015353,88.505,-0.00016532,-0.14948,0.13097
24892,5.0505,0.36364,0.1,0.00048629,4859.5,0.0004874,4892.8,-0.00015481,67.498,-0.00016383,-0.22572,0.13524
24893,4.9587,0.63636,0.1,0.00048472,4843.8,0.00048672,4905,-0.00014948,124.83,-0.00016611,-0.067026,0.13213
24894,5.0505,0.54545,0.1,0.00048335,4830.2,0.00048502,4880.8,-0.00015088,102.9,-0.00016458,-0.069969,0.13646
24895,4.9587,0.81818,0.1,0.00048181,4814.8,0.00048433,4892.8,-0.00014556,160.03,-0.00016686,-0.052184,0.1332
24896,5.0505,0.72727,0.1,0.0004805,4801.7,0.00048269,4868.8,-0.00014704,137.31,-0.00016532,-0.061508,0.13757
24897,4.9587,1,0.1,0.00047903,4787,0.00048204,4881,-0.00014178,193.88,-0.00016759,-0.035314,0.13417
24898,5.0505,0.90909,0.1,0.00047776,4774.3,0.00048043,4857.2,-0.00014333,170.55,-0.00016603,-0.039898,0.13859
24899,4.9587,1.1818,0.1,0.0004764,4760.7,0.00047984,4869.7,-0.00013819,226.04,-0.00016828,-0.024382,0.13504
24900,5.0505,1.0909,0.1,0.00047514,4748.2,0.00047826,4846.1,-0.00013979,202.3,-0.00016671,-0.028569,0.13952
24901,4.9587,1.3636,0.1,0.00047394,4736.1,0.00047778,4859,-0.00013482,256.23,-0.00016892,-0.015275,0.13583
24902,5.0505,1.2727,0.1,0.00047269,4723.6,0.00047621,4835.4,-0.00013643,232.29,-0.00016735,-0.018687,0.14035
24903,4.9587,1.5455,0.1,0.00047168,4713.5,0.00047587,4849.1,-0.0001317,284.16,-0.00016952,-0.0079427,0.13652
24904,5.0505,1.4545,0.1,0.0004704,4700.8,0.00047429,4825.5,-0.00013331,260.24,-0.00016795,-0.010987,0.1411
24905,4.9587,1.7273,0.1,0.00046962,4693,0.00047412,4840.1,-0.00012886,309.54,-0.00017006,-0.0018449,0.13713
24906,5.0505,1.6364,0.1,0.00046832,4680,0.00047253,4816.3,-0.00013044,285.86,-0.00016849,-0.004565,0.14175
24907,4.9587,1.9091,0.1,0.00046781,4674.8,0.00047257,4832,-0.00012633,332.11,-0.00017053,0.0031973,0.13765
24908,5.0505,1.8182,0.1,0.00046645,4661.3,0.00047094,4808.1,-0.00012786,308.9,-0.00016898,0.00074442,0.14232
24909,4.9587,2.0909,0.1,0.00046624,4659.2,0.00047122,4825,-0.00012415,351.63,-0.00017095,0.007329,0.13809
24910,5.0505,2,0.1,0.00046482,4645,0.00046954,4800.8,-0.0001256,329.13,-0.0001694,0.005131,0.1428
24911,4.9587,2.2727,0.1,0.00046493,4646.1,0.0004701,4819.2,-0.00012233,367.91,-0.00017129,0.010631,0.13845
24912,5.0505,2.1818,0.1,0.00046343,4631.1,0.00046835,4794.6,-0.00012367,346.33,-0.00016977,0.0086892,0.1432
24913,4.9587,2.4545,0.1,0.00046391,4635.9,0.00046921,4814.5,-0.00012089,380.76,-0.00017156,0.013155,0.13873
24914,5.0505,2.3636,0.1,0.00046231,4619.9,0.00046738,4789.5,-0.00012211,360.31,-0.00017006,0.011481,0.14352
24915,4.9587,2.6364,0.1,0.00046317,4628.5,0.00046857,4811.2,-0.00011985,390.04,-0.00017176,0.014936,0.13893
24916,5.0505,2.5455,0.1,0.00046145,4611.3,0.00046664,4785.6,-0.00012092,370.94,-0.00017028,0.013545,0.14376
24917,4.9587,2.8182,0.1,0.00046272,4624,0.00046818,4809.2,-0.00011922,395.65,-0.00017188,0.015998,0.13904
24918,5.0505,2.7273,0.1,0.00046088,4605.6,0.00046615,4783,-0.00012011,378.09,-0.00017043,0.01491,0.14392
24919,4.9587,3,0.1,0.00046257,4622.5,0.00046805,4808.5,-0.00011901,397.52,-0.00017191,0.016351,0.13908
24920,5.0505,2.9091,0.1,0.00046059,4602.7,0.0004659,4781.7,-0.00011971,381.69,-0.00017051,0.015589,0.144
24921,4.9587,3.1818,0.1,0.00046272,4624,0.00046818,4809.2,-0.00011922,395.65,-0.00017188,0.015998,0.13904
24922,5.0505,3.0909,0.1,0.00046059,4602.7,0.0004659,4781.7,-0.00011971,381.69,-0.00017051,0.015589,0.144
24923,4.9587,3.3636,0.1,0.00046317,4628.5,0.00046857,4811.2,-0.00011985,390.04,-0.00017176,0.014937,0.13893
24924,5.0505,3.2727,0.1,0.00046088,4605.6,0.00046615,4783,-0.00012011,378.09,-0.00017043,0.01491,0.14392
24925,4.9587,3.5455,0.1,0.00046391,4635.9,0.00046921,4814.5,-0.00012089,380.76,-0.00017156,0.013155,0.13873
24926,5.0505,3.4545,0.1,0.00046145,4611.3,0.00046664,4785.6,-0.00012092,370.94,-0.00017028,0.013545,0.14376
24927,4.9587,3.7273,0.1,0.00046493,4646.1,0.0004701,4819.2,-0.00012233,367.91,-0.00017129,0.010631,0.13845
24928,5.0505,3.6364,0.1,0.00046231,4619.9,0.00046738,4789.5,-0.00012211,360.31,-0.00017006,0.011481,0.14352
24929,4.9587,3.9091,0.1,0.00046624,4659.2,0.00047122,4825,-0.00012415,351.63,-0.00017095,0.0073294,0.13809
24930,5.0505,3.8182,0.1,0.00046343,4631.1,0.00046835,4794.6,-0.00012367,346.33,-0.00016977,0.0086894,0.1432
24931,4.9587,4.0909,0.1,0.00046781,4674.8,0.00047257,4832,-0.00012633,332.11,-0.00017053,0.0031978,0.13765
24932,5.0505,4,0.1,0.00046482,4645,0.00046954,4800.8,-0.0001256,329.13,-0.0001694,0.0051315,0.1428
24933,4.9587,4.2727,0.1,0.00046962,4693,0.00047412,4840.1,-0.00012886,309.54,-0.00017006,-0.0018444,0.13713
24934,5.0505,4.1818,0.1,0.00046645,4661.3,0.00047094,4808.1,-0.00012786,308.9,-0.00016898,0.00074491,0.14232
24935,4.9587,4.4545,0.1,0.00047168,4713.5,0.00047587,4849.1,-0.0001317,284.16,-0.00016952,-0.007942,0.13652
24936,5.0505,4.3636,0.1,0.00046832,4680,0.00047253,4816.3,-0.00013044,285.86,-0.00016849,-0.0045645,0.14175
24937,4.9587,4.6364,0.1,0.00047394,4736.1,0.00047778,4859.1,-0.00013482,256.23,-0.00016892,-0.015274,0.13583
24938,5.0505,4.5455,0.1,0.0004704,4700.8,0.00047429,4825.5,-0.00013331,260.24,-0.00016795,-0.010986,0.1411
24939,4.9587,4.8182,0.1,0.0004764,4760.7,0.00047984,4869.7,-0.00013819,226.04,-0.00016828,-0.024381,0.13504
24940,5.0505,4.7273,0.1,0.00047269,4723.6,0.00047621,4835.4,-0.00013643,232.29,-0.00016735,-0.018686,0.14035
24941,4.9587,5,0.1,0.00047903,4787,0.00048204,4881,-0.00014178,193.88,-0.00016759,-0.035313,0.13417
24942,5.0505,4.9091,0.1,0.00047514,4748.2,0.00047826,4846.1,-0.00013979,202.3,-0.00016671,-0.028568,0.13952
24943,4.9587,5.1818,0.1,0.00048181,4814.8,0.00048433,4892.8,-0.00014556,160.03,-0.00016686,-0.052183,0.1332
24944,5.0505,5.0909,0.1,0.00047776,4774.3,0.00048043,4857.2,-0.00014333,170.55,-0.00016603,-0.039896,0.13859
24945,4.9587,5.3636,0.1,0.00048472,4843.8,0.00048672,4905,-0.00014948,124.83,-0.00016611,-0.067025,0.13213
24946,5.0505,5.2727,0.1,0.0004805,4801.7,0.00048269,4868.8,-0.00014704,137.31,-0.00016532,-0.061507,0.13757
24947,4.9587,5.5455,0.1,0.00048772,4873.9,0.00048916,4917.4,-0.00015353,88.505,-0.00016532,-0.14948,0.13097
24948,5.0505,5.4545,0.1,0.00048335,4830.2,0.00048502,4880.8,-0.00015088,102.9,-0.00016458,-0.069968,0.13646
24949,4.9587,5.7273,0.1,0.00049082,4904.8,0.00049167,4930.2,-0.00015767,51.237,-0.00016452,-0.21279,0.1297
24950,5.0505,5.6364,0.1,0.00048629,4859.5,0.0004874,4892.8,-0.00015481,67.498,-0.00016383,-0.22572,0.13524
24951,5.0505,5.8182,0.1,0.00048932,4889.9,0.00048984,4905.3,-0.00015885,31.293,-0.00016304,-0.24466,0.13392
24952,4.9587,5.9091,0.1,0.00049362,4932.8,0.00049391,4941.3,-0.00016144,17.312,-0.00016377,-0.20505,0.12833
24953,5.1423,0.27273,0.1,0.00048479,4844.5,0.00048558,4868,-0.000156,47.467,-0.00016234,-0.19201,0.13957
24954,5.2341,0.18182,0.1,0.0004832,4828.7,0.00048369,4843,-0.00015702,28.975,-0.00016091,-0.21848,0.14395
24955,5.1423,0.090909,0.1,0.00048739,4870.5,0.00048766,4878.5,-0.00015949,16.064,-0.00016165,-0.19155,0.1382
24956,5.1423,0.45455,0.1,0.00048192,4815.8,0.00048325,4856.2,-0.00015217,81.862,-0.00016308,-0.1363,0.14084
24957,5.2341,0.36364,0.1,0.00048039,4800.6,0.00048142,4831.4,-0.0001533,62.406,-0.00016163,-0.20609,0.14527
24958,5.1423,0.63636,0.1,0.00047913,4788,0.00048099,4844.6,-0.00014844,115.36,-0.0001638,-0.060919,0.14201
24959,5.2341,0.54545,0.1,0.00047767,4773.4,0.00047921,4820.2,-0.00014966,95.069,-0.00016232,-0.063439,0.14649
24960,5.1423,0.81818,0.1,0.00047644,4761.1,0.00047878,4833.3,-0.00014482,147.8,-0.00016449,-0.047563,0.14308
24961,5.2341,0.72727,0.1,0.00047503,4747,0.00047706,4809.1,-0.00014612,126.79,-0.000163,-0.056053,0.14762
24962,5.1423,1,0.1,0.00047387,4735.4,0.00047666,4822.3,-0.00014134,178.95,-0.00016516,-0.032216,0.14405
24963,5.2341,0.90909,0.1,0.00047249,4721.6,0.00047497,4798.3,-0.0001427,157.39,-0.00016365,-0.036375,0.14864
24964,5.1423,1.1818,0.1,0.00047143,4711,0.00047463,4811.8,-0.00013803,208.53,-0.00016579,-0.02228,0.14493
24965,5.2341,1.0909,0.1,0.00047007,4697.4,0.00047296,4787.9,-0.00013944,186.61,-0.00016428,-0.026096,0.14957
24966,5.1423,1.3636,0.1,0.00046915,4688.3,0.00047272,4801.9,-0.00013493,236.27,-0.00016638,-0.013987,0.14572
24967,5.2341,1.2727,0.1,0.00046779,4674.7,0.00047107,4778.1,-0.00013635,214.18,-0.00016486,-0.017104,0.15041
24968,5.1423,1.5455,0.1,0.00046705,4667.3,0.00047095,4792.7,-0.00013206,261.92,-0.00016692,-0.0073028,0.14643
24969,5.2341,1.4545,0.1,0.00046568,4653.6,0.00046929,4768.9,-0.00013348,239.85,-0.0001654,-0.010093,0.15116
24970,5.1423,1.7273,0.1,0.00046515,4648.3,0.00046934,4784.3,-0.00012945,285.21,-0.00016741,-0.0017354,0.14704
24971,5.2341,1.6364,0.1,0.00046375,4634.3,0.00046767,4760.4,-0.00013084,263.37,-0.0001659,-0.0042368,0.15182
24972,5.1423,1.9091,0.1,0.00046346,4631.4,0.00046791,4776.8,-0.00012713,305.91,-0.00016785,0.0028754,0.14757
24973,5.2341,1.8182,0.1,0.00046202,4617,0.0004662,4752.7,-0.00012848,284.52,-0.00016634,0.00061136,0.15239
24974,5.1423,2.0909,0.1,0.00046201,4616.9,0.00046667,4770.3,-0.00012513,323.81,-0.00016822,0.0066596,0.14801
24975,5.2341,2,0.1,0.0004605,4601.9,0.00046491,4745.9,-0.0001264,303.07,-0.00016673,0.0046229,0.15288
24976,5.1423,2.2727,0.1,0.0004608,4604.9,0.00046563,4764.9,-0.00012345,338.73,-0.00016853,0.0096883,0.14837
24977,5.2341,2.1818,0.1,0.00045922,4589,0.00046381,4740.1,-0.00012463,318.84,-0.00016706,0.0078813,0.15328
24978,5.1423,2.4545,0.1,0.00045985,4595.3,0.00046481,4760.6,-0.00012213,350.5,-0.00016878,0.012007,0.14865
24979,5.2341,2.3636,0.1,0.00045818,4578.6,0.00046292,4735.4,-0.00012319,331.66,-0.00016733,0.010441,0.15361
24980,5.1423,2.6364,0.1,0.00045917,4588.5,0.00046422,4757.5,-0.00012118,359.01,-0.00016896,0.013645,0.14885
24981,5.2341,2.5455,0.1,0.00045739,4570.7,0.00046224,4731.8,-0.0001221,341.39,-0.00016753,0.012336,0.15385
24982,5.1423,2.8182,0.1,0.00045875,4584.4,0.00046386,4755.6,-0.0001206,364.14,-0.00016907,0.014623,0.14897
24983,5.2341,2.7273,0.1,0.00045686,4565.4,0.00046178,4729.4,-0.00012136,347.94,-0.00016767,0.013591,0.15401
24984,5.1423,3,0.1,0.00045861,4583,0.00046374,4754.9,-0.00012041,365.86,-0.0001691,0.014948,0.14901
24985,5.2341,2.9091,0.1,0.00045659,4562.7,0.00046155,4728.2,-0.00012099,351.24,-0.00016774,0.014215,0.15409
24986,5.1423,3.1818,0.1,0.00045875,4584.4,0.00046386,4755.6,-0.0001206,364.14,-0.00016907,0.014623,0.14897
24987,5.2341,3.0909,0.1,0.00045659,4562.7,0.00046155,4728.2,-0.00012099,351.24,-0.00016774,0.014215,0.15409
24988,5.1423,3.3636,0.1,0.00045917,4588.5,0.00046422,4757.5,-0.00012118,359.01,-0.00016896,0.013646,0.14885
24989,5.2341,3.2727,0.1,0.00045686,4565.4,0.00046178,4729.4,-0.00012136,347.94,-0.00016767,0.013591,0.15401
24990,5.1423,3.5455,0.1,0.00045985,4595.3,0.00046481,4760.6,-0.00012213,350.5,-0.00016878,0.012007,0.14865
24991,5.2341,3.4545,0.1,0.00045739,4570.7,0.00046224,4731.8,-0.0001221,341.39,-0.00016753,0.012337,0.15385
24992,5.1423,3.7273,0.1,0.0004608,4604.9,0.00046563,4764.9,-0.00012345,338.73,-0.00016853,0.0096885,0.14837
24993,5.2341,3.6364,0.1,0.00045818,4578.6,0.00046292,4735.4,-0.00012319,331.66,-0.00016733,0.010442,0.15361
24994,5.1423,3.9091,0.1,0.00046201,4616.9,0.00046667,4770.3,-0.00012513,323.81,-0.00016822,0.00666,0.14801
24995,5.2341,3.8182,0.1,0.00045922,4589,0.00046381,4740.1,-0.00012463,318.84,-0.00016706,0.0078816,0.15328
24996,5.1423,4.0909,0.1,0.00046346,4631.4,0.00046791,4776.8,-0.00012713,305.91,-0.00016785,0.002876,0.14757
24997,5.2341,4,0.1,0.0004605,4601.9,0.00046491,4745.9,-0.0001264,303.07,-0.00016673,0.0046233,0.15288
24998,5.1423,4.2727,0.1,0.00046515,4648.3,0.00046934,4784.3,-0.00012945,285.21,-0.00016741,-0.0017348,0.14704
24999,5.2341,4.1818,0.1,0.00046202,4617,0.0004662,4752.7,-0.00012848,284.52,-0.00016634,0.000612,0.15239
25000,5.1423,4.4545,0.1,0.00046705,4667.3,0.00047095,4792.7,-0.00013206,261.92,-0.00016692,-0.0073022,0.14643
25001,5.2341,4.3636,0.1,0.00046375,4634.3,0.00046767,4760.4,-0.00013084,263.37,-0.0001659,-0.0042362,0.15182
25002,5.1423,4.6364,0.1,0.00046915,4688.3,0.00047272,4801.9,-0.00013493,236.27,-0.00016638,-0.013986,0.14572
25003,5.2341,4.5455,0.1,0.00046568,4653.6,0.00046929,4768.9,-0.00013348,239.85,-0.0001654,-0.010092,0.15116
25004,5.1423,4.8182,0.1,0.00047143,4711,0.00047463,4811.8,-0.00013803,208.53,-0.00016579,-0.022279,0.14493
25005,5.2341,4.7273,0.1,0.00046779,4674.7,0.00047107,4778.1,-0.00013635,214.18,-0.00016486,-0.017104,0.15041
25006,5.1423,5,0.1,0.00047387,4735.4,0.00047666,4822.3,-0.00014134,178.95,-0.00016516,-0.032215,0.14405
25007,5.2341,4.9091,0.1,0.00047007,4697.4,0.00047296,4787.9,-0.00013944,186.61,-0.00016428,-0.026095,0.14957
25008,5.1423,5.1818,0.1,0.00047644,4761.1,0.00047878,4833.3,-0.00014482,147.8,-0.00016449,-0.047562,0.14308
25009,5.2341,5.0909,0.1,0.00047249,4721.6,0.00047497,4798.3,-0.0001427,157.39,-0.00016365,-0.036374,0.14864
25010,5.1423,5.3636,0.1,0.00047913,4788,0.00048099,4844.6,-0.00014844,115.36,-0.0001638,-0.060918,0.14201
25011,5.2341,5.2727,0.1,0.00047503,4747,0.00047706,4809.1,-0.00014612,126.79,-0.000163,-0.056052,0.14762
25012,5.1423,5.5455,0.1,0.00048192,4815.8,0.00048325,4856.2,-0.00015217,81.862,-0.00016308,-0.1363,0.14084
25013,5.2341,5.4545,0.1,0.00047767,4773.4,0.00047921,4820.2,-0.00014966,95.069,-0.00016232,-0.063438,0.14649
25014,5.1423,5.7273,0.1,0.00048479,4844.5,0.00048558,4868,-0.000156,47.467,-0.00016234,-0.19201,0.13957
25015,5.2341,5.6364,0.1,0.00048039,4800.6,0.00048142,4831.4,-0.0001533,62.406,-0.00016163,-0.20609,0.14527
25016,5.2341,5.8182,0.1,0.0004832,4828.7,0.00048369,4843,-0.00015702,28.975,-0.00016091,-0.21848,0.14395
25017,5.1423,5.9091,0.1,0.00048739,4870.5,0.00048766,4878.5,-0.00015949,16.064,-0.00016165,-0.19154,0.1382
25018,5.326,0.27273,0.1,0.00047881,4784.8,0.00047953,4806.4,-0.00015433,43.841,-0.00016019,-0.17357,0.14977
25019,5.4178,0.18182,0.1,0.00047714,4768.1,0.00047759,4781.3,-0.00015521,26.697,-0.00015879,-0.19627,0.15431
25020,5.326,0.090909,0.1,0.00048122,4808.9,0.00048147,4816.2,-0.00015756,14.817,-0.00015955,-0.17938,0.14839
25021,5.326,0.45455,0.1,0.00047614,4758.2,0.00047738,4795.4,-0.00015079,75.586,-0.00016087,-0.12429,0.15104
25022,5.4178,0.36364,0.1,0.00047454,4742.1,0.00047549,4770.5,-0.00015177,57.571,-0.00015946,-0.18819,0.15563
25023,5.326,0.63636,0.1,0.00047356,4732.4,0.00047529,4784.7,-0.00014735,106.48,-0.00016153,-0.055381,0.15221
25024,5.4178,0.54545,0.1,0.00047201,4716.9,0.00047344,4760.1,-0.00014841,87.704,-0.00016009,-0.057529,0.15685
25025,5.326,0.81818,0.1,0.00047107,4707.5,0.00047324,4774.2,-0.00014401,136.36,-0.00016216,-0.043366,0.15328
25026,5.4178,0.72727,0.1,0.00046957,4692.4,0.00047145,4749.8,-0.00014515,116.94,-0.00016072,-0.051089,0.15798
25027,5.326,1,0.1,0.00046869,4683.7,0.00047128,4764,-0.0001408,165.03,-0.00016277,-0.029409,0.15426
25028,5.4178,0.90909,0.1,0.00046722,4668.9,0.00046951,4739.8,-0.000142,145.12,-0.00016132,-0.033178,0.15901
25029,5.326,1.1818,0.1,0.00046643,4661.1,0.0004694,4754.2,-0.00013776,192.24,-0.00016335,-0.020384,0.15515
25030,5.4178,1.0909,0.1,0.00046498,4646.6,0.00046766,4730.2,-0.00013899,172.01,-0.00016189,-0.023857,0.15994
25031,5.326,1.3636,0.1,0.00046432,4640,0.00046764,4745,-0.0001349,217.74,-0.00016389,-0.012838,0.15594
25032,5.4178,1.2727,0.1,0.00046287,4625.5,0.00046591,4721,-0.00013615,197.36,-0.00016242,-0.015681,0.16078
25033,5.326,1.5455,0.1,0.00046238,4620.6,0.00046601,4736.5,-0.00013227,241.29,-0.00016438,-0.0067502,0.15665
25034,5.4178,1.4545,0.1,0.00046091,4606,0.00046427,4712.5,-0.00013351,220.94,-0.00016292,-0.0093018,0.16153
25035,5.326,1.7273,0.1,0.00046062,4603,0.00046452,4728.7,-0.00012987,262.67,-0.00016483,-0.0016732,0.15727
25036,5.4178,1.6364,0.1,0.00045913,4588.1,0.00046277,4704.6,-0.00013109,242.54,-0.00016337,-0.0039675,0.1622
25037,5.326,1.9091,0.1,0.00045906,4587.4,0.0004632,4721.8,-0.00012774,281.67,-0.00016523,0.0025367,0.1578
25038,5.4178,1.8182,0.1,0.00045753,4572.1,0.00046142,4697.4,-0.00012891,261.95,-0.00016377,0.00045362,0.16278
25039,5.326,2.0909,0.1,0.00045771,4574,0.00046206,4715.7,-0.0001259,298.08,-0.00016557,0.0059964,0.15825
25040,5.4178,2,0.1,0.00045612,4558.1,0.00046023,4691.2,-0.000127,278.96,-0.00016413,0.0041161,0.16327
25041,5.326,2.2727,0.1,0.0004566,4562.8,0.0004611,4710.7,-0.00012436,311.76,-0.00016585,0.0087686,0.15861
25042,5.4178,2.1818,0.1,0.00045494,4546.2,0.00045922,4685.8,-0.00012538,293.42,-0.00016443,0.0070945,0.16367
25043,5.326,2.4545,0.1,0.00045571,4554,0.00046034,4706.7,-0.00012315,322.55,-0.00016608,0.010893,0.15889
25044,5.4178,2.3636,0.1,0.00045397,4536.6,0.00045839,4681.5,-0.00012406,305.17,-0.00016467,0.0094372,0.164
25045,5.326,2.6364,0.1,0.00045508,4547.7,0.0004598,4703.8,-0.00012228,330.34,-0.00016624,0.012396,0.1591
25046,5.4178,2.5455,0.1,0.00045324,4529.3,0.00045777,4678.2,-0.00012305,314.09,-0.00016486,0.011173,0.16424
25047,5.326,2.8182,0.1,0.0004547,4543.8,0.00045947,4702.1,-0.00012175,335.04,-0.00016634,0.013293,0.15922
25048,5.4178,2.7273,0.1,0.00045275,4524.4,0.00045734,4675.9,-0.00012238,320.09,-0.00016498,0.012322,0.1644
25049,5.326,3,0.1,0.00045457,4542.5,0.00045936,4701.5,-0.00012157,336.62,-0.00016637,0.013592,0.15926
25050,5.4178,2.9091,0.1,0.0004525,4521.9,0.00045713,4674.8,-0.00012204,323.11,-0.00016504,0.012895,0.16449
25051,5.326,3.1818,0.1,0.0004547,4543.8,0.00045947,4702.1,-0.00012175,335.04,-0.00016634,0.013293,0.15922
25052,5.4178,3.0909,0.1,0.0004525,4521.9,0.00045713,4674.8,-0.00012204,323.11,-0.00016504,0.012895,0.16449
25053,5.326,3.3636,0.1,0.00045508,4547.7,0.0004598,4703.8,-0.00012228,330.34,-0.00016624,0.012396,0.1591
25054,5.4178,3.2727,0.1,0.00045275,4524.4,0.00045734,4675.9,-0.00012238,320.09,-0.00016498,0.012322,0.1644
25055,5.326,3.5455,0.1,0.00045571,4554,0.00046034,4706.7,-0.00012315,322.55,-0.00016608,0.010894,0.15889
25056,5.4178,3.4545,0.1,0.00045324,4529.3,0.00045777,4678.2,-0.00012305,314.09,-0.00016486,0.011173,0.16424
25057,5.326,3.7273,0.1,0.0004566,4562.8,0.0004611,4710.7,-0.00012436,311.76,-0.00016585,0.008769,0.15861
25058,5.4178,3.6364,0.1,0.00045397,4536.6,0.00045839,4681.5,-0.00012406,305.17,-0.00016467,0.0094374,0.164
25059,5.326,3.9091,0.1,0.00045771,4574,0.00046206,4715.7,-0.0001259,298.08,-0.00016557,0.0059968,0.15825
25060,5.4178,3.8182,0.1,0.00045494,4546.2,0.00045922,4685.8,-0.00012538,293.42,-0.00016443,0.0070949,0.16367
25061,5.326,4.0909,0.1,0.00045906,4587.4,0.0004632,4721.8,-0.00012774,281.67,-0.00016523,0.0025373,0.1578
25062,5.4178,4,0.1,0.00045612,4558.1,0.00046023,4691.2,-0.000127,278.96,-0.00016413,0.0041165,0.16327
25063,5.326,4.2727,0.1,0.00046062,4603,0.00046452,4728.7,-0.00012987,262.67,-0.00016483,-0.0016726,0.15727
25064,5.4178,4.1818,0.1,0.00045753,4572.1,0.00046142,4697.4,-0.00012891,261.95,-0.00016377,0.00045419,0.16278
25065,5.326,4.4545,0.1,0.00046238,4620.6,0.00046601,4736.5,-0.00013227,241.29,-0.00016438,-0.0067496,0.15665
25066,5.4178,4.3636,0.1,0.00045913,4588.1,0.00046277,4704.6,-0.00013109,242.54,-0.00016337,-0.0039668,0.1622
25067,5.326,4.6364,0.1,0.00046432,4640,0.00046764,4745,-0.0001349,217.74,-0.00016389,-0.012837,0.15594
25068,5.4178,4.5455,0.1,0.00046091,4606,0.00046427,4712.5,-0.00013351,220.94,-0.00016292,-0.009301,0.16153
25069,5.326,4.8182,0.1,0.00046643,4661.1,0.0004694,4754.2,-0.00013776,192.24,-0.00016335,-0.020383,0.15515
25070,5.4178,4.7273,0.1,0.00046287,4625.5,0.00046591,4721,-0.00013615,197.36,-0.00016242,-0.01568,0.16078
25071,5.326,5,0.1,0.00046869,4683.7,0.00047128,4764,-0.0001408,165.03,-0.00016277,-0.029408,0.15426
25072,5.4178,4.9091,0.1,0.00046498,4646.6,0.00046766,4730.2,-0.00013899,172.01,-0.00016189,-0.023856,0.15994
25073,5.326,5.1818,0.1,0.00047107,4707.5,0.00047324,4774.2,-0.00014401,136.36,-0.00016216,-0.043365,0.15328
25074,5.4178,5.0909,0.1,0.00046722,4668.9,0.00046951,4739.8,-0.000142,145.12,-0.00016132,-0.033177,0.15901
25075,5.326,5.3636,0.1,0.00047356,4732.4,0.00047529,4784.7,-0.00014735,106.48,-0.00016153,-0.05538,0.15221
25076,5.4178,5.2727,0.1,0.00046957,4692.4,0.00047145,4749.8,-0.00014515,116.94,-0.00016072,-0.051088,0.15798
25077,5.326,5.5455,0.1,0.00047614,4758.2,0.00047738,4795.4,-0.00015079,75.586,-0.00016087,-0.12429,0.15104
25078,5.4178,5.4545,0.1,0.00047201,4716.9,0.00047344,4760.1,-0.00014841,87.704,-0.00016009,-0.057529,0.15685
25079,5.326,5.7273,0.1,0.00047881,4784.8,0.00047953,4806.4,-0.00015433,43.841,-0.00016019,-0.17357,0.14977
25080,5.4178,5.6364,0.1,0.00047454,4742.1,0.00047549,4770.5,-0.00015177,57.571,-0.00015946,-0.18819,0.15563
25081,5.4178,5.8182,0.1,0.00047714,4768.1,0.00047759,4781.3,-0.00015521,26.697,-0.00015879,-0.19627,0.15431
25082,5.326,5.9091,0.1,0.00048122,4808.9,0.00048147,4816.2,-0.00015756,14.817,-0.00015955,-0.17938,0.14839
25083,5.5096,0.27273,0.1,0.00047287,4725.5,0.00047354,4745.4,-0.00015266,40.365,-0.00015806,-0.15716,0.16028
25084,5.6014,0.18182,0.1,0.00047114,4708.1,0.00047155,4720.2,-0.00015342,24.471,-0.0001567,-0.17745,0.16499
25085,5.5096,0.090909,0.1,0.00047511,4747.8,0.00047533,4754.5,-0.00015564,13.584,-0.00015747,-0.16845,0.15891
25086,5.5096,0.45455,0.1,0.00047041,4700.8,0.00047155,4735.2,-0.00014939,69.667,-0.00015868,-0.11333,0.16156
25087,5.6014,0.36364,0.1,0.00046872,4684,0.0004696,4710.2,-0.00015024,52.991,-0.00015731,-0.17184,0.16631
25088,5.5096,0.63636,0.1,0.00046802,4676.9,0.00046961,4725.2,-0.00014622,98.15,-0.00015929,-0.05035,0.16273
25089,5.6014,0.54545,0.1,0.00046639,4660.6,0.00046771,4700.5,-0.00014714,80.787,-0.0001579,-0.052178,0.16753
25090,5.5096,0.81818,0.1,0.00046571,4653.9,0.00046772,4715.4,-0.00014314,125.68,-0.00015987,-0.039546,0.16381
25091,5.6014,0.72727,0.1,0.00046412,4638,0.00046586,4690.9,-0.00014412,107.73,-0.00015847,-0.04657,0.16866
25092,5.5096,1,0.1,0.0004635,4631.8,0.0004659,4706,-0.00014019,152.08,-0.00016043,-0.026861,0.16479
25093,5.6014,0.90909,0.1,0.00046194,4616.3,0.00046407,4681.6,-0.00014122,133.69,-0.00015902,-0.030277,0.16969
25094,5.5096,1.1818,0.1,0.00046141,4611,0.00046417,4697,-0.00013738,177.11,-0.00016096,-0.018669,0.16568
25095,5.6014,1.0909,0.1,0.00045987,4595.5,0.00046236,4672.7,-0.00013845,158.43,-0.00015954,-0.021831,0.17063
25096,5.5096,1.3636,0.1,0.00045946,4591.5,0.00046254,4688.4,-0.00013476,200.55,-0.00016145,-0.011809,0.16647
25097,5.6014,1.2727,0.1,0.00045792,4576.1,0.00046074,4664.2,-0.00013584,181.74,-0.00016003,-0.014403,0.17147
25098,5.5096,1.5455,0.1,0.00045766,4573.5,0.00046104,4680.5,-0.00013233,222.18,-0.0001619,-0.0062696,0.16718
25099,5.6014,1.4545,0.1,0.00045611,4558,0.00045923,4656.3,-0.00013341,203.41,-0.00016048,-0.0086045,0.17223
25100,5.5096,1.7273,0.1,0.00045604,4557.2,0.00045967,4673.3,-0.00013013,241.8,-0.00016231,-0.0016451,0.16781
25101,5.6014,1.6364,0.1,0.00045446,4541.5,0.00045785,4649,-0.00013118,223.24,-0.00016089,-0.0037508,0.17289
25102,5.5096,1.9091,0.1,0.00045459,4542.8,0.00045845,4666.9,-0.00012817,259.23,-0.00016267,0.0021934,0.16834
25103,5.6014,1.8182,0.1,0.00045298,4526.7,0.0004566,4642.4,-0.00012918,241.05,-0.00016126,0.00027584,0.17347
25104,5.5096,2.0909,0.1,0.00045335,4530.4,0.00045739,4661.3,-0.00012648,274.29,-0.00016299,0.0053511,0.16879
25105,5.6014,2,0.1,0.00045168,4513.7,0.0004555,4636.6,-0.00012743,256.66,-0.00016159,0.0036146,0.17397
25106,5.5096,2.2727,0.1,0.00045231,4520,0.00045651,4656.6,-0.00012507,286.83,-0.00016325,0.007884,0.16916
25107,5.6014,2.1818,0.1,0.00045058,4502.7,0.00045457,4631.6,-0.00012594,269.92,-0.00016186,0.0063324,0.17438
25108,5.5096,2.4545,0.1,0.0004515,4511.9,0.00045581,4652.9,-0.00012396,296.72,-0.00016345,0.0098267,0.16945
25109,5.6014,2.3636,0.1,0.00044969,4493.8,0.00045381,4627.6,-0.00012473,280.69,-0.00016208,0.008472,0.1747
25110,5.5096,2.6364,0.1,0.00045091,4506,0.00045531,4650.2,-0.00012316,303.85,-0.0001636,0.011202,0.16965
25111,5.6014,2.5455,0.1,0.00044902,4487.1,0.00045323,4624.5,-0.00012381,288.87,-0.00016225,0.010058,0.17495
25112,5.5096,2.8182,0.1,0.00045056,4502.5,0.00045501,4648.6,-0.00012267,308.17,-0.00016369,0.012023,0.16977
25113,5.6014,2.7273,0.1,0.00044856,4482.5,0.00045284,4622.4,-0.00012319,294.37,-0.00016237,0.011109,0.17511
25114,5.5096,3,0.1,0.00045044,4501.3,0.00045491,4648.1,-0.00012251,309.61,-0.00016372,0.012296,0.16981
25115,5.6014,2.9091,0.1,0.00044833,4480.2,0.00045265,4621.4,-0.00012288,297.14,-0.00016242,0.011633,0.17519
25116,5.5096,3.1818,0.1,0.00045056,4502.5,0.00045501,4648.6,-0.00012267,308.17,-0.00016369,0.012023,0.16977
25117,5.6014,3.0909,0.1,0.00044833,4480.2,0.00045265,4621.4,-0.00012288,297.14,-0.00016242,0.011633,0.17519
25118,5.5096,3.3636,0.1,0.00045091,4506,0.00045531,4650.2,-0.00012316,303.85,-0.0001636,0.011202,0.16965
25119,5.6014,3.2727,0.1,0.00044856,4482.5,0.00045284,4622.4,-0.00012319,294.37,-0.00016237,0.011109,0.17511
25120,5.5096,3.5455,0.1,0.0004515,4511.9,0.00045581,4652.9,-0.00012396,296.72,-0.00016345,0.0098269,0.16945
25121,5.6014,3.4545,0.1,0.00044902,4487.1,0.00045323,4624.5,-0.00012381,288.87,-0.00016225,0.010058,0.17495
25122,5.5096,3.7273,0.1,0.00045231,4520,0.00045651,4656.6,-0.00012507,286.83,-0.00016325,0.0078842,0.16916
25123,5.6014,3.6364,0.1,0.00044969,4493.8,0.00045381,4627.6,-0.00012473,280.69,-0.00016208,0.0084722,0.1747
25124,5.5096,3.9091,0.1,0.00045335,4530.4,0.00045739,4661.3,-0.00012648,274.29,-0.00016299,0.0053515,0.16879
25125,5.6014,3.8182,0.1,0.00045058,4502.7,0.00045457,4631.6,-0.00012594,269.92,-0.00016186,0.0063329,0.17438
25126,5.5096,4.0909,0.1,0.00045459,4542.8,0.00045845,4666.9,-0.00012817,259.23,-0.00016267,0.0021938,0.16834
25127,5.6014,4,0.1,0.00045168,4513.7,0.0004555,4636.6,-0.00012743,256.66,-0.00016159,0.003615,0.17397
25128,5.5096,4.2727,0.1,0.00045604,4557.2,0.00045967,4673.3,-0.00013013,241.8,-0.00016231,-0.0016445,0.16781
25129,5.6014,4.1818,0.1,0.00045298,4526.7,0.0004566,4642.4,-0.00012918,241.05,-0.00016126,0.00027632,0.17347
25130,5.5096,4.4545,0.1,0.00045766,4573.5,0.00046104,4680.5,-0.00013233,222.18,-0.0001619,-0.0062688,0.16718
25131,5.6014,4.3636,0.1,0.00045446,4541.5,0.00045785,4649,-0.00013118,223.24,-0.00016089,-0.0037502,0.17289
25132,5.5096,4.6364,0.1,0.00045946,4591.5,0.00046254,4688.4,-0.00013476,200.55,-0.00016145,-0.011808,0.16647
25133,5.6014,4.5455,0.1,0.00045611,4558,0.00045923,4656.3,-0.00013341,203.41,-0.00016048,-0.0086038,0.17223
25134,5.5096,4.8182,0.1,0.00046141,4611,0.00046417,4697,-0.00013738,177.11,-0.00016096,-0.018668,0.16568
25135,5.6014,4.7273,0.1,0.00045792,4576.1,0.00046074,4664.2,-0.00013584,181.74,-0.00016003,-0.014402,0.17147
25136,5.5096,5,0.1,0.0004635,4631.8,0.0004659,4706,-0.00014019,152.08,-0.00016043,-0.02686,0.16479
25137,5.6014,4.9091,0.1,0.00045987,4595.5,0.00046236,4672.7,-0.00013845,158.43,-0.00015954,-0.02183,0.17063
25138,5.5096,5.1818,0.1,0.00046571,4653.9,0.00046772,4715.4,-0.00014314,125.68,-0.00015987,-0.039545,0.16381
25139,5.6014,5.0909,0.1,0.00046194,4616.3,0.00046407,4681.6,-0.00014122,133.69,-0.00015902,-0.030275,0.16969
25140,5.5096,5.3636,0.1,0.00046802,4676.9,0.00046961,4725.2,-0.00014622,98.15,-0.00015929,-0.050349,0.16273
25141,5.6014,5.2727,0.1,0.00046412,4638,0.00046586,4690.9,-0.00014412,107.73,-0.00015847,-0.046569,0.16866
25142,5.5096,5.5455,0.1,0.00047041,4700.8,0.00047155,4735.2,-0.00014939,69.667,-0.00015868,-0.11333,0.16156
25143,5.6014,5.4545,0.1,0.00046639,4660.6,0.00046771,4700.5,-0.00014714,80.787,-0.0001579,-0.052178,0.16753
25144,5.5096,5.7273,0.1,0.00047287,4725.5,0.00047354,4745.4,-0.00015266,40.365,-0.00015806,-0.15716,0.16028
25145,5.6014,5.6364,0.1,0.00046872,4684,0.0004696,4710.2,-0.00015024,52.991,-0.00015731,-0.17184,0.16631
25146,5.6014,5.8182,0.1,0.00047114,4708.1,0.00047155,4720.2,-0.00015342,24.471,-0.0001567,-0.17745,0.16499
25147,5.5096,5.9091,0.1,0.00047511,4747.8,0.00047533,4754.5,-0.00015564,13.584,-0.00015747,-0.16845,0.15891
25148,5.6933,0.27273,0.1,0.00046699,4666.7,0.0004676,4685,-0.000151,37.044,-0.00015595,-0.14254,0.17112
25149,5.7851,0.18182,0.1,0.00046519,4648.7,0.00046556,4659.7,-0.00015164,22.307,-0.00015463,-0.16152,0.17599
25150,5.6933,0.090909,0.1,0.00046905,4687.3,0.00046926,4693.4,-0.00015374,12.372,-0.00015541,-0.15871,0.16975
25151,5.6933,0.45455,0.1,0.0004647,4643.8,0.00046576,4675.5,-0.00014798,64.093,-0.00015652,-0.10334,0.17239
25152,5.7851,0.36364,0.1,0.00046295,4626.3,0.00046376,4650.4,-0.00014869,48.659,-0.00015519,-0.15691,0.17731
25153,5.6933,0.63636,0.1,0.00046249,4621.7,0.00046396,4666.2,-0.00014505,90.354,-0.00015708,-0.045784,0.17357
25154,5.7851,0.54545,0.1,0.00046078,4604.7,0.000462,4641.3,-0.00014583,74.297,-0.00015573,-0.047329,0.17853
25155,5.6933,0.81818,0.1,0.00046035,4600.4,0.00046221,4657.1,-0.00014221,115.72,-0.00015762,-0.036076,0.17464
25156,5.7851,0.72727,0.1,0.00045869,4583.7,0.00046029,4632.4,-0.00014306,99.13,-0.00015625,-0.042457,0.17965
25157,5.6933,1,0.1,0.00045831,4580,0.00046053,4648.3,-0.00013949,140.02,-0.00015813,-0.024556,0.17563
25158,5.7851,0.90909,0.1,0.00045667,4563.6,0.00045864,4623.8,-0.00014038,123.03,-0.00015676,-0.027645,0.18069
25159,5.6933,1.1818,0.1,0.00045638,4560.6,0.00045893,4640,-0.00013691,163.04,-0.00015861,-0.017126,0.17652
25160,5.7851,1.0909,0.1,0.00045475,4544.4,0.00045706,4615.5,-0.00013783,145.8,-0.00015723,-0.019999,0.18162
25161,5.6933,1.3636,0.1,0.00045457,4542.6,0.00045743,4632.1,-0.00013449,184.59,-0.00015906,-0.010895,0.17732
25162,5.7851,1.2727,0.1,0.00045295,4526.4,0.00045556,4607.7,-0.00013542,167.24,-0.00015768,-0.013257,0.18247
25163,5.6933,1.5455,0.1,0.00045291,4526,0.00045604,4624.7,-0.00013226,204.46,-0.00015947,-0.0058607,0.17803
25164,5.7851,1.4545,0.1,0.00045128,4509.7,0.00045417,4600.3,-0.00013319,187.15,-0.0001581,-0.007993,0.18323
25165,5.6933,1.7273,0.1,0.0004514,4510.9,0.00045478,4618.1,-0.00013024,222.48,-0.00015985,-0.0016535,0.17866
25166,5.7851,1.6364,0.1,0.00044975,4494.4,0.00045289,4593.6,-0.00013114,205.37,-0.00015847,-0.0035813,0.18389
25167,5.6933,1.9091,0.1,0.00045007,4497.6,0.00045365,4612.1,-0.00012844,238.48,-0.00016018,0.0018417,0.17919
25168,5.7851,1.8182,0.1,0.00044838,4480.7,0.00045174,4587.5,-0.0001293,221.72,-0.00015881,8.1134e-05,0.18448
25169,5.6933,2.0909,0.1,0.00044892,4486.1,0.00045268,4606.9,-0.00012689,252.29,-0.00016046,0.0047193,0.17965
25170,5.7851,2,0.1,0.00044718,4468.7,0.00045073,4582.1,-0.00012769,236.04,-0.00015911,0.0031206,0.18497
25171,5.6933,2.2727,0.1,0.00044796,4476.5,0.00045187,4602.6,-0.00012559,263.79,-0.0001607,0.0070294,0.18002
25172,5.7851,2.1818,0.1,0.00044617,4458.6,0.00044987,4577.5,-0.00012632,248.2,-0.00015936,0.0055967,0.18539
25173,5.6933,2.4545,0.1,0.00044721,4469,0.00045123,4599.2,-0.00012457,272.85,-0.00016089,0.0088026,0.1803
25174,5.7851,2.3636,0.1,0.00044534,4450.3,0.00044917,4573.8,-0.00012521,258.08,-0.00015956,0.0075474,0.18571
25175,5.6933,2.6364,0.1,0.00044667,4463.6,0.00045076,4596.7,-0.00012384,279.39,-0.00016102,0.010058,0.18051
25176,5.7851,2.5455,0.1,0.00044472,4444.1,0.00044864,4570.9,-0.00012437,265.58,-0.00015971,0.0089942,0.18596
25177,5.6933,2.8182,0.1,0.00044634,4460.3,0.00045048,4595.2,-0.00012339,283.35,-0.0001611,0.010809,0.18063
25178,5.7851,2.7273,0.1,0.0004443,4439.9,0.00044828,4569,-0.0001238,270.62,-0.00015982,0.0099535,0.18612
25179,5.6933,3,0.1,0.00044623,4459.2,0.00045039,4594.7,-0.00012324,284.67,-0.00016113,0.011058,0.18067
25180,5.7851,2.9091,0.1,0.00044409,4437.8,0.0004481,4568.1,-0.00012352,273.15,-0.00015987,0.010432,0.1862
25181,5.6933,3.1818,0.1,0.00044634,4460.3,0.00045048,4595.2,-0.00012339,283.35,-0.0001611,0.010809,0.18063
25182,5.7851,3.0909,0.1,0.00044409,4437.8,0.0004481,4568.1,-0.00012352,273.15,-0.00015987,0.010432,0.1862
25183,5.6933,3.3636,0.1,0.00044667,4463.6,0.00045076,4596.7,-0.00012384,279.39,-0.00016102,0.010059,0.18051
25184,5.7851,3.2727,0.1,0.0004443,4439.9,0.00044828,4569,-0.0001238,270.62,-0.00015982,0.0099536,0.18612
25185,5.6933,3.5455,0.1,0.00044721,4469,0.00045123,4599.2,-0.00012457,272.85,-0.00016089,0.0088028,0.1803
25186,5.7851,3.4545,0.1,0.00044472,4444.1,0.00044864,4570.9,-0.00012437,265.58,-0.00015971,0.0089943,0.18596
25187,5.6933,3.7273,0.1,0.00044796,4476.5,0.00045187,4602.6,-0.00012559,263.79,-0.0001607,0.0070298,0.18002
25188,5.7851,3.6364,0.1,0.00044534,4450.3,0.00044917,4573.8,-0.00012521,258.08,-0.00015956,0.0075476,0.18571
25189,5.6933,3.9091,0.1,0.00044892,4486.1,0.00045268,4606.9,-0.00012689,252.29,-0.00016046,0.0047198,0.17965
25190,5.7851,3.8182,0.1,0.00044617,4458.6,0.00044987,4577.5,-0.00012632,248.2,-0.00015936,0.0055972,0.18539
25191,5.6933,4.0909,0.1,0.00045007,4497.6,0.00045365,4612.1,-0.00012844,238.48,-0.00016018,0.0018421,0.17919
25192,5.7851,4,0.1,0.00044718,4468.7,0.00045073,4582.1,-0.00012769,236.04,-0.00015911,0.0031209,0.18497
25193,5.6933,4.2727,0.1,0.0004514,4510.9,0.00045478,4618.1,-0.00013024,222.48,-0.00015985,-0.001653,0.17866
25194,5.7851,4.1818,0.1,0.00044838,4480.7,0.00045174,4587.5,-0.0001293,221.72,-0.00015881,8.1644e-05,0.18448
25195,5.6933,4.4545,0.1,0.00045291,4526,0.00045604,4624.7,-0.00013226,204.46,-0.00015947,-0.0058601,0.17803
25196,5.7851,4.3636,0.1,0.00044975,4494.4,0.00045289,4593.6,-0.00013114,205.37,-0.00015847,-0.0035808,0.18389
25197,5.6933,4.6364,0.1,0.00045457,4542.6,0.00045743,4632.1,-0.00013449,184.59,-0.00015906,-0.010894,0.17732
25198,5.7851,4.5455,0.1,0.00045128,4509.7,0.00045417,4600.3,-0.00013319,187.15,-0.0001581,-0.0079923,0.18323
25199,5.6933,4.8182,0.1,0.00045638,4560.6,0.00045893,4640,-0.00013691,163.04,-0.00015861,-0.017126,0.17652
25200,5.7851,4.7273,0.1,0.00045295,4526.4,0.00045556,4607.7,-0.00013542,167.24,-0.00015768,-0.013256,0.18247
25201,5.6933,5,0.1,0.00045831,4580,0.00046053,4648.3,-0.00013949,140.02,-0.00015813,-0.024555,0.17563
25202,5.7851,4.9091,0.1,0.00045475,4544.4,0.00045706,4615.5,-0.00013783,145.8,-0.00015723,-0.019998,0.18162
25203,5.6933,5.1818,0.1,0.00046035,4600.4,0.00046221,4657.1,-0.00014221,115.72,-0.00015762,-0.036075,0.17464
25204,5.7851,5.0909,0.1,0.00045667,4563.6,0.00045864,4623.8,-0.00014038,123.03,-0.00015676,-0.027643,0.18069
25205,5.6933,5.3636,0.1,0.00046249,4621.7,0.00046396,4666.2,-0.00014505,90.354,-0.00015708,-0.045783,0.17357
25206,5.7851,5.2727,0.1,0.00045869,4583.7,0.00046029,4632.4,-0.00014306,99.13,-0.00015625,-0.042456,0.17965
25207,5.6933,5.5455,0.1,0.0004647,4643.8,0.00046576,4675.5,-0.00014798,64.093,-0.00015652,-0.10334,0.17239
25208,5.7851,5.4545,0.1,0.00046078,4604.7,0.000462,4641.3,-0.00014583,74.297,-0.00015573,-0.047328,0.17853
25209,5.6933,5.7273,0.1,0.00046699,4666.7,0.0004676,4685,-0.000151,37.044,-0.00015595,-0.14254,0.17112
25210,5.7851,5.6364,0.1,0.00046295,4626.3,0.00046376,4650.4,-0.00014869,48.659,-0.00015519,-0.1569,0.17731
25211,5.7851,5.8182,0.1,0.00046519,4648.7,0.00046556,4659.7,-0.00015164,22.307,-0.00015463,-0.16152,0.17599
25212,5.6933,5.9091,0.1,0.00046905,4687.3,0.00046926,4693.4,-0.00015374,12.372,-0.00015541,-0.15871,0.16975
25213,5.8769,0.27273,0.1,0.00046115,4608.3,0.00046171,4625.1,-0.00014934,33.88,-0.00015386,-0.1295,0.18228
25214,5.9688,0.18182,0.1,0.00045929,4589.8,0.00045963,4599.8,-0.00014987,20.215,-0.00015258,-0.1481,0.1873
25215,5.8769,0.090909,0.1,0.00046305,4627.3,0.00046323,4632.8,-0.00015186,11.189,-0.00015337,-0.1501,0.18091
25216,5.8769,0.45455,0.1,0.00045903,4587.1,0.00046,4616.2,-0.00014655,58.85,-0.00015439,-0.094205,0.18355
25217,5.9688,0.36364,0.1,0.00045721,4569,0.00045795,4591,-0.00014714,44.569,-0.00015309,-0.14324,0.18862
25218,5.8769,0.63636,0.1,0.00045698,4566.7,0.00045834,4607.6,-0.00014384,83.061,-0.0001549,-0.041632,0.18472
25219,5.9688,0.54545,0.1,0.00045521,4548.9,0.00045633,4582.6,-0.0001445,68.214,-0.00015359,-0.042926,0.18984
25220,5.8769,0.81818,0.1,0.000455,4546.9,0.00045672,4599.2,-0.00014123,106.43,-0.0001554,-0.032918,0.1858
25221,5.9688,0.72727,0.1,0.00045327,4529.5,0.00045475,4574.4,-0.00014194,91.098,-0.00015407,-0.038706,0.19096
25222,5.8769,1,0.1,0.00045311,4528,0.00045517,4591,-0.00013872,128.8,-0.00015586,-0.022465,0.18678
25223,5.9688,0.90909,0.1,0.0004514,4510.9,0.00045322,4566.4,-0.00013947,113.11,-0.00015453,-0.025253,0.19199
25224,5.8769,1.1818,0.1,0.00045133,4510.1,0.00045369,4583.3,-0.00013634,149.98,-0.00015631,-0.015735,0.18767
25225,5.9688,1.0909,0.1,0.00044963,4493.2,0.00045176,4558.7,-0.00013712,134.06,-0.00015497,-0.01834,0.19293
25226,5.8769,1.3636,0.1,0.00044966,4493.5,0.0004523,4575.9,-0.00013412,169.79,-0.00015672,-0.010081,0.18847
25227,5.9688,1.2727,0.1,0.00044796,4476.5,0.00045038,4551.4,-0.00013491,153.77,-0.00015538,-0.012228,0.19378
25228,5.8769,1.5455,0.1,0.00044812,4478.1,0.00045102,4569.2,-0.00013207,188.05,-0.0001571,-0.0055108,0.18919
25229,5.9688,1.4545,0.1,0.00044641,4461,0.00044909,4544.6,-0.00013285,172.08,-0.00015576,-0.0074537,0.19453
25230,5.8769,1.7273,0.1,0.00044673,4464.2,0.00044986,4563,-0.00013021,204.6,-0.00015744,-0.0016878,0.18981
25231,5.9688,1.6364,0.1,0.000445,4446.9,0.00044791,4538.3,-0.00013097,188.81,-0.0001561,-0.0034489,0.1952
25232,5.8769,1.9091,0.1,0.00044549,4451.9,0.00044882,4557.4,-0.00012856,219.28,-0.00015774,0.0014903,0.19035
25233,5.9688,1.8182,0.1,0.00044373,4434.3,0.00044685,4532.7,-0.00012928,203.82,-0.00015641,-0.00012196,0.19579
25234,5.8769,2.0909,0.1,0.00044443,4441.2,0.00044792,4552.7,-0.00012713,231.95,-0.000158,0.0041091,0.19081
25235,5.9688,2,0.1,0.00044263,4423.2,0.00044592,4527.7,-0.00012781,216.97,-0.00015668,0.0026411,0.19628
25236,5.8769,2.2727,0.1,0.00044355,4432.4,0.00044717,4548.7,-0.00012594,242.49,-0.00015822,0.0062128,0.19118
25237,5.9688,2.1818,0.1,0.00044169,4413.8,0.00044513,4523.5,-0.00012655,228.13,-0.00015691,0.0048938,0.1967
25238,5.8769,2.4545,0.1,0.00044285,4425.4,0.00044658,4545.5,-0.00012501,250.8,-0.00015839,0.0078283,0.19147
25239,5.9688,2.3636,0.1,0.00044093,4406.2,0.00044448,4520,-0.00012553,237.18,-0.0001571,0.0066693,0.19703
25240,5.8769,2.6364,0.1,0.00044235,4420.4,0.00044616,4543.2,-0.00012433,256.8,-0.00015851,0.008973,0.19167
25241,5.9688,2.5455,0.1,0.00044035,4400.4,0.00044399,4517.4,-0.00012475,244.06,-0.00015724,0.0079867,0.19727
25242,5.8769,2.8182,0.1,0.00044205,4417.4,0.0004459,4541.9,-0.00012392,260.42,-0.00015858,0.0096572,0.19179
25243,5.9688,2.7273,0.1,0.00043996,4396.6,0.00044366,4515.6,-0.00012423,248.68,-0.00015733,0.0088608,0.19744
25244,5.8769,3,0.1,0.00044194,4416.4,0.00044581,4541.4,-0.00012379,261.64,-0.00015861,0.009885,0.19183
25245,5.9688,2.9091,0.1,0.00043977,4394.6,0.0004435,4514.7,-0.00012397,251,-0.00015738,0.0092967,0.19752
25246,5.8769,3.1818,0.1,0.00044205,4417.4,0.0004459,4541.9,-0.00012392,260.42,-0.00015858,0.0096573,0.19179
25247,5.9688,3.0909,0.1,0.00043977,4394.6,0.0004435,4514.7,-0.00012397,251,-0.00015738,0.0092967,0.19752
25248,5.8769,3.3636,0.1,0.00044235,4420.4,0.00044616,4543.2,-0.00012433,256.8,-0.00015851,0.0089731,0.19167
25249,5.9688,3.2727,0.1,0.00043996,4396.6,0.00044366,4515.6,-0.00012423,248.68,-0.00015733,0.0088608,0.19744
25250,5.8769,3.5455,0.1,0.00044285,4425.4,0.00044658,4545.5,-0.00012501,250.8,-0.00015839,0.0078285,0.19147
25251,5.9688,3.4545,0.1,0.00044035,4400.4,0.00044399,4517.4,-0.00012475,244.06,-0.00015724,0.0079869,0.19727
25252,5.8769,3.7273,0.1,0.00044355,4432.4,0.00044717,4548.7,-0.00012594,242.49,-0.00015822,0.0062131,0.19118
25253,5.9688,3.6364,0.1,0.00044093,4406.2,0.00044448,4520,-0.00012553,237.18,-0.0001571,0.0066696,0.19703
25254,5.8769,3.9091,0.1,0.00044443,4441.2,0.00044792,4552.7,-0.00012713,231.95,-0.000158,0.0041094,0.19081
25255,5.9688,3.8182,0.1,0.00044169,4413.8,0.00044513,4523.5,-0.00012655,228.13,-0.00015691,0.0048941,0.1967
25256,5.8769,4.0909,0.1,0.00044549,4451.9,0.00044882,4557.4,-0.00012856,219.28,-0.00015774,0.0014907,0.19035
25257,5.9688,4,0.1,0.00044263,4423.2,0.00044592,4527.7,-0.00012781,216.97,-0.00015668,0.0026414,0.19628
25258,5.8769,4.2727,0.1,0.00044673,4464.2,0.00044986,4563,-0.00013021,204.6,-0.00015744,-0.0016873,0.18981
25259,5.9688,4.1818,0.1,0.00044373,4434.3,0.00044685,4532.7,-0.00012928,203.82,-0.00015641,-0.00012133,0.19579
25260,5.8769,4.4545,0.1,0.00044812,4478.1,0.00045102,4569.2,-0.00013207,188.05,-0.0001571,-0.0055102,0.18919
25261,5.9688,4.3636,0.1,0.000445,4446.9,0.00044791,4538.3,-0.00013097,188.81,-0.0001561,-0.0034483,0.1952
25262,5.8769,4.6364,0.1,0.00044966,4493.5,0.0004523,4575.9,-0.00013412,169.79,-0.00015672,-0.010081,0.18847
25263,5.9688,4.5455,0.1,0.00044641,4461,0.00044909,4544.6,-0.00013285,172.08,-0.00015576,-0.0074528,0.19453
25264,5.8769,4.8182,0.1,0.00045133,4510.1,0.00045369,4583.3,-0.00013634,149.98,-0.00015631,-0.015734,0.18767
25265,5.9688,4.7273,0.1,0.00044796,4476.5,0.00045038,4551.4,-0.00013491,153.77,-0.00015538,-0.012227,0.19378
25266,5.8769,5,0.1,0.00045311,4528,0.00045517,4591,-0.00013872,128.8,-0.00015586,-0.022464,0.18678
25267,5.9688,4.9091,0.1,0.00044963,4493.2,0.00045176,4558.7,-0.00013712,134.06,-0.00015497,-0.018339,0.19293
25268,5.8769,5.1818,0.1,0.000455,4546.9,0.00045672,4599.2,-0.00014123,106.43,-0.0001554,-0.032917,0.1858
25269,5.9688,5.0909,0.1,0.0004514,4510.9,0.00045322,4566.4,-0.00013947,113.11,-0.00015453,-0.025251,0.19199
25270,5.8769,5.3636,0.1,0.00045698,4566.7,0.00045834,4607.6,-0.00014384,83.061,-0.0001549,-0.041632,0.18472
25271,5.9688,5.2727,0.1,0.00045327,4529.5,0.00045475,4574.4,-0.00014194,91.098,-0.00015407,-0.038705,0.19096
25272,5.8769,5.5455,0.1,0.00045903,4587.1,0.00046,4616.2,-0.00014655,58.85,-0.00015439,-0.094204,0.18355
25273,5.9688,5.4545,0.1,0.00045521,4548.9,0.00045633,4582.6,-0.0001445,68.214,-0.00015359,-0.042926,0.18984
25274,5.8769,5.7273,0.1,0.00046115,4608.3,0.00046171,4625.1,-0.00014934,33.88,-0.00015386,-0.1295,0.18228
25275,5.9688,5.6364,0.1,0.00045721,4569,0.00045795,4591,-0.00014714,44.569,-0.00015309,-0.14324,0.18862
25276,5.9688,5.8182,0.1,0.00045929,4589.8,0.00045963,4599.8,-0.00014987,20.215,-0.00015258,-0.1481,0.1873
25277,5.8769,5.9091,0.1,0.00046305,4627.3,0.00046324,4632.8,-0.00015186,11.189,-0.00015337,-0.1501,0.18091
25278,6.0606,0.27273,0.1,0.00045535,4550.4,0.00045587,4565.7,-0.00014768,30.871,-0.0001518,-0.11785,0.19374
25279,6.1524,0.18182,0.1,0.00045344,4531.3,0.00045375,4540.3,-0.00014811,18.2,-0.00015055,-0.13689,0.19892
25280,6.0606,0.090909,0.1,0.0004571,4567.8,0.00045726,4572.8,-0.00015,10.041,-0.00015135,-0.14261,0.19238
25281,6.0606,0.45455,0.1,0.00045339,4530.7,0.00045428,4557.4,-0.0001451,53.923,-0.00015229,-0.085854,0.19501
25282,6.1524,0.36364,0.1,0.00045151,4512,0.00045219,4532.1,-0.00014559,40.714,-0.00015102,-0.13074,0.20024
25283,6.0606,0.63636,0.1,0.00045149,4511.8,0.00045274,4549.4,-0.0001426,76.242,-0.00015276,-0.037852,0.19618
25284,6.1524,0.54545,0.1,0.00044965,4493.4,0.00045068,4524.3,-0.00014315,62.517,-0.00015147,-0.038924,0.20145
25285,6.0606,0.81818,0.1,0.00044966,4493.5,0.00045124,4541.6,-0.00014019,97.769,-0.00015321,-0.030039,0.19726
25286,6.1524,0.72727,0.1,0.00044786,4475.5,0.00044922,4516.7,-0.00014079,83.604,-0.00015192,-0.035282,0.20257
25287,6.0606,1,0.1,0.00044791,4476,0.00044981,4534,-0.00013788,118.36,-0.00015364,-0.020565,0.19824
25288,6.1524,0.90909,0.1,0.00044613,4458.2,0.00044781,4509.2,-0.00013851,103.87,-0.00015234,-0.023075,0.2036
25289,6.0606,1.1818,0.1,0.00044626,4459.5,0.00044844,4526.8,-0.00013569,137.85,-0.00015404,-0.014476,0.19913
25290,6.1524,1.0909,0.1,0.00044449,4441.8,0.00044646,4502.1,-0.00013635,123.15,-0.00015274,-0.016834,0.20454
25291,6.0606,1.3636,0.1,0.00044471,4444.1,0.00044716,4520,-0.00013365,156.06,-0.00015442,-0.0093532,0.19993
25292,6.1524,1.2727,0.1,0.00044295,4426.4,0.00044518,4495.4,-0.00013431,141.28,-0.00015312,-0.0113,0.20538
25293,6.0606,1.5455,0.1,0.00044329,4429.9,0.00044598,4513.8,-0.00013176,172.84,-0.00015476,-0.0052091,0.20065
25294,6.1524,1.4545,0.1,0.00044152,4412.1,0.00044399,4489,-0.00013242,158.11,-0.00015346,-0.0069763,0.20614
25295,6.0606,1.7273,0.1,0.00044201,4417,0.00044491,4508,-0.00013005,188.04,-0.00015508,-0.00174,0.20127
25296,6.1524,1.6364,0.1,0.00044021,4399.1,0.00044291,4483.3,-0.00013069,173.48,-0.00015378,-0.003346,0.20681
25297,6.0606,1.9091,0.1,0.00044087,4405.6,0.00044395,4502.9,-0.00012853,201.51,-0.00015535,0.001146,0.20181
25298,6.1524,1.8182,0.1,0.00043904,4387.4,0.00044193,4478,-0.00012914,187.27,-0.00015406,-0.00032793,0.2074
25299,6.0606,2.0909,0.1,0.00043988,4395.8,0.00044312,4498.5,-0.00012722,213.14,-0.00015559,0.0035258,0.20227
25300,6.1524,2,0.1,0.00043802,4377.2,0.00044107,4473.4,-0.00012778,199.33,-0.00015431,0.0021802,0.2079
25301,6.0606,2.2727,0.1,0.00043907,4387.7,0.00044243,4494.8,-0.00012613,222.81,-0.00015579,0.0054386,0.20264
25302,6.1524,2.1818,0.1,0.00043715,4368.5,0.00044034,4469.5,-0.00012662,209.57,-0.00015452,0.0042265,0.20831
25303,6.0606,2.4545,0.1,0.00043843,4381.2,0.00044189,4491.9,-0.00012528,230.44,-0.00015594,0.0069081,0.20293
25304,6.1524,2.3636,0.1,0.00043645,4361.5,0.00043975,4466.3,-0.00012569,217.88,-0.00015469,0.0058401,0.20864
25305,6.0606,2.6364,0.1,0.00043796,4376.6,0.0004415,4489.8,-0.00012466,235.94,-0.00015606,0.0079498,0.20314
25306,6.1524,2.5455,0.1,0.00043592,4356.1,0.0004393,4463.9,-0.00012498,224.18,-0.00015481,0.0070379,0.20889
25307,6.0606,2.8182,0.1,0.00043768,4373.8,0.00044126,4488.5,-0.00012428,239.26,-0.00015612,0.0085727,0.20326
25308,6.1524,2.7273,0.1,0.00043556,4352.6,0.00043899,4462.3,-0.0001245,228.42,-0.0001549,0.0078328,0.20905
25309,6.0606,3,0.1,0.00043759,4372.9,0.00044118,4488.1,-0.00012416,240.37,-0.00015615,0.00878,0.2033
25310,6.1524,2.9091,0.1,0.00043538,4350.8,0.00043884,4461.5,-0.00012426,230.55,-0.00015494,0.0082293,0.20913
25311,6.0606,3.1818,0.1,0.00043768,4373.8,0.00044126,4488.5,-0.00012428,239.26,-0.00015612,0.0085728,0.20326
25312,6.1524,3.0909,0.1,0.00043538,4350.8,0.00043884,4461.5,-0.00012426,230.55,-0.00015494,0.0082294,0.20913
25313,6.0606,3.3636,0.1,0.00043796,4376.6,0.0004415,4489.8,-0.00012466,235.94,-0.00015606,0.00795,0.20314
25314,6.1524,3.2727,0.1,0.00043556,4352.6,0.00043899,4462.3,-0.0001245,228.42,-0.0001549,0.0078329,0.20905
25315,6.0606,3.5455,0.1,0.00043843,4381.2,0.00044189,4491.9,-0.00012528,230.44,-0.00015594,0.0069084,0.20293
25316,6.1524,3.4545,0.1,0.00043592,4356.1,0.0004393,4463.9,-0.00012498,224.18,-0.00015481,0.0070381,0.20889
25317,6.0606,3.7273,0.1,0.00043907,4387.7,0.00044243,4494.8,-0.00012613,222.81,-0.00015579,0.0054389,0.20264
25318,6.1524,3.6364,0.1,0.00043645,4361.5,0.00043975,4466.3,-0.00012569,217.88,-0.00015469,0.0058405,0.20864
25319,6.0606,3.9091,0.1,0.00043988,4395.8,0.00044312,4498.5,-0.00012722,213.14,-0.00015559,0.0035261,0.20227
25320,6.1524,3.8182,0.1,0.00043715,4368.5,0.00044034,4469.5,-0.00012662,209.57,-0.00015452,0.0042269,0.20831
25321,6.0606,4.0909,0.1,0.00044087,4405.6,0.00044395,4502.9,-0.00012853,201.51,-0.00015535,0.0011466,0.20181
25322,6.1524,4,0.1,0.00043802,4377.2,0.00044107,4473.4,-0.00012778,199.33,-0.00015431,0.0021806,0.2079
25323,6.0606,4.2727,0.1,0.00044201,4417,0.00044491,4508,-0.00013005,188.04,-0.00015508,-0.0017393,0.20127
25324,6.1524,4.1818,0.1,0.00043904,4387.4,0.00044193,4478,-0.00012914,187.27,-0.00015406,-0.00032735,0.2074
25325,6.0606,4.4545,0.1,0.00044329,4429.9,0.00044598,4513.8,-0.00013176,172.84,-0.00015476,-0.0052083,0.20065
25326,6.1524,4.3636,0.1,0.00044021,4399.1,0.00044291,4483.3,-0.00013069,173.48,-0.00015378,-0.0033453,0.20681
25327,6.0606,4.6364,0.1,0.00044471,4444.1,0.00044716,4520,-0.00013365,156.06,-0.00015442,-0.0093524,0.19993
25328,6.1524,4.5455,0.1,0.00044152,4412.1,0.00044399,4489,-0.00013242,158.11,-0.00015346,-0.0069756,0.20614
25329,6.0606,4.8182,0.1,0.00044626,4459.5,0.00044844,4526.8,-0.00013569,137.85,-0.00015404,-0.014475,0.19913
25330,6.1524,4.7273,0.1,0.00044295,4426.4,0.00044518,4495.4,-0.00013431,141.28,-0.00015312,-0.011299,0.20538
25331,6.0606,5,0.1,0.00044791,4476,0.00044981,4534,-0.00013788,118.36,-0.00015364,-0.020564,0.19824
25332,6.1524,4.9091,0.1,0.00044449,4441.8,0.00044646,4502.1,-0.00013635,123.15,-0.00015274,-0.016833,0.20454
25333,6.0606,5.1818,0.1,0.00044966,4493.5,0.00045124,4541.6,-0.00014019,97.769,-0.00015321,-0.030038,0.19726
25334,6.1524,5.0909,0.1,0.00044613,4458.2,0.00044781,4509.2,-0.00013851,103.87,-0.00015234,-0.023074,0.2036
25335,6.0606,5.3636,0.1,0.00045149,4511.8,0.00045274,4549.4,-0.0001426,76.242,-0.00015276,-0.037851,0.19618
25336,6.1524,5.2727,0.1,0.00044786,4475.5,0.00044922,4516.7,-0.00014079,83.604,-0.00015192,-0.035281,0.20257
25337,6.0606,5.5455,0.1,0.00045339,4530.7,0.00045428,4557.4,-0.0001451,53.923,-0.00015229,-0.085853,0.19501
25338,6.1524,5.4545,0.1,0.00044965,4493.4,0.00045068,4524.3,-0.00014315,62.517,-0.00015147,-0.038923,0.20145
25339,6.0606,5.7273,0.1,0.00045535,4550.4,0.00045587,4565.7,-0.00014768,30.871,-0.0001518,-0.11785,0.19374
25340,6.1524,5.6364,0.1,0.00045151,4512,0.00045219,4532.1,-0.00014559,40.714,-0.00015102,-0.13074,0.20024
25341,6.1524,5.8182,0.1,0.00045344,4531.3,0.00045375,4540.3,-0.00014811,18.2,-0.00015055,-0.13689,0.19892
25342,6.0606,5.9091,0.1,0.0004571,4567.8,0.00045726,4572.8,-0.00015,10.041,-0.00015135,-0.14261,0.19238
25343,6.2442,0.27273,0.1,0.0004496,4492.9,0.00045007,4506.8,-0.00014602,28.016,-0.00014976,-0.10743,0.20552
25344,6.3361,0.18182,0.1,0.00044764,4473.3,0.00044791,4481.4,-0.00014636,16.266,-0.00014854,-0.12767,0.21085
25345,6.2442,0.090909,0.1,0.00045119,4508.8,0.00045134,4513.2,-0.00014814,8.9317,-0.00014935,-0.13625,0.20416
25346,6.2442,0.45455,0.1,0.00044777,4474.6,0.00044859,4499,-0.00014363,49.301,-0.00015021,-0.07821,0.20678
25347,6.3361,0.36364,0.1,0.00044584,4455.3,0.00044646,4473.7,-0.00014402,37.084,-0.00014897,-0.11928,0.21216
25348,6.2442,0.63636,0.1,0.00044602,4457.1,0.00044716,4491.6,-0.00014133,69.873,-0.00015064,-0.034405,0.20795
25349,6.3361,0.54545,0.1,0.00044412,4438.1,0.00044507,4466.4,-0.00014177,57.187,-0.00014939,-0.035282,0.21337
25350,6.2442,0.81818,0.1,0.00044432,4440.2,0.00044578,4484.3,-0.00013911,89.701,-0.00015105,-0.027413,0.20902
25351,6.3361,0.72727,0.1,0.00044246,4421.5,0.00044371,4459.3,-0.00013959,76.615,-0.00014979,-0.032156,0.21449
25352,6.2442,1,0.1,0.00044271,4424,0.00044445,4477.3,-0.00013698,108.66,-0.00015144,-0.018837,0.21
25353,6.3361,0.90909,0.1,0.00044086,4405.6,0.0004424,4452.4,-0.0001375,95.278,-0.00015018,-0.021093,0.21551
25354,6.2442,1.1818,0.1,0.00044118,4408.7,0.00044319,4470.6,-0.00013497,126.58,-0.00015181,-0.013336,0.21089
25355,6.3361,1.0909,0.1,0.00043934,4390.4,0.00044116,4445.8,-0.0001355,113.02,-0.00015055,-0.015467,0.21645
25356,6.2442,1.3636,0.1,0.00043975,4394.5,0.00044201,4464.4,-0.00013308,143.33,-0.00015216,-0.0087009,0.21169
25357,6.3361,1.2727,0.1,0.00043792,4376.2,0.00043998,4439.6,-0.00013363,129.7,-0.00015089,-0.010464,0.2173
25358,6.2442,1.5455,0.1,0.00043844,4381.3,0.00044092,4458.5,-0.00013135,158.75,-0.00015248,-0.0049489,0.21241
25359,6.3361,1.4545,0.1,0.0004366,4363,0.00043888,4433.7,-0.00013189,145.16,-0.00015121,-0.006555,0.21805
25360,6.2442,1.7273,0.1,0.00043725,4369.5,0.00043993,4453.3,-0.00012978,172.71,-0.00015276,-0.0018053,0.21303
25361,6.3361,1.6364,0.1,0.00043539,4350.9,0.00043788,4428.4,-0.0001303,159.29,-0.0001515,-0.0032688,0.21872
25362,6.2442,1.9091,0.1,0.0004362,4358.9,0.00043905,4448.5,-0.00012838,185.08,-0.00015301,0.00081163,0.21357
25363,6.3361,1.8182,0.1,0.00043431,4340.1,0.00043698,4423.5,-0.00012887,171.95,-0.00015176,-0.00053511,0.21931
25364,6.2442,2.0909,0.1,0.00043529,4349.9,0.00043829,4444.4,-0.00012718,195.76,-0.00015323,0.0029708,0.21403
25365,6.3361,2,0.1,0.00043337,4330.7,0.00043619,4419.3,-0.00012762,183.02,-0.00015198,0.0017383,0.2198
25366,6.2442,2.2727,0.1,0.00043453,4342.3,0.00043765,4441,-0.00012618,204.63,-0.00015341,0.0047073,0.2144
25367,6.3361,2.1818,0.1,0.00043256,4322.7,0.00043552,4415.7,-0.00012656,192.42,-0.00015217,0.0035942,0.22022
25368,6.2442,2.4545,0.1,0.00043394,4336.4,0.00043715,4438.3,-0.00012539,211.62,-0.00015355,0.006042,0.21469
25369,6.3361,2.3636,0.1,0.00043192,4316.2,0.00043497,4412.7,-0.0001257,200.04,-0.00015233,0.0050583,0.22055
25370,6.2442,2.6364,0.1,0.00043351,4332.1,0.00043679,4436.4,-0.00012482,216.66,-0.00015366,0.0069884,0.2149
25371,6.3361,2.5455,0.1,0.00043142,4311.3,0.00043456,4410.5,-0.00012505,205.82,-0.00015244,0.0061454,0.2208
25372,6.2442,2.8182,0.1,0.00043325,4329.5,0.00043657,4435.2,-0.00012448,219.71,-0.00015372,0.0075545,0.21502
25373,6.3361,2.7273,0.1,0.00043109,4307.9,0.00043428,4409,-0.00012461,209.71,-0.00015252,0.0068672,0.22096
25374,6.2442,3,0.1,0.00043317,4328.7,0.0004365,4434.8,-0.00012436,220.73,-0.00015374,0.007743,0.21506
25375,6.3361,2.9091,0.1,0.00043093,4306.3,0.00043414,4408.2,-0.00012439,211.66,-0.00015256,0.0072275,0.22104
25376,6.2442,3.1818,0.1,0.00043325,4329.5,0.00043657,4435.2,-0.00012448,219.71,-0.00015372,0.0075546,0.21502
25377,6.3361,3.0909,0.1,0.00043093,4306.3,0.00043414,4408.2,-0.00012439,211.66,-0.00015256,0.0072276,0.22104
25378,6.2442,3.3636,0.1,0.00043351,4332.1,0.00043679,4436.4,-0.00012482,216.66,-0.00015366,0.0069886,0.2149
25379,6.3361,3.2727,0.1,0.00043109,4307.9,0.00043428,4409,-0.00012461,209.71,-0.00015252,0.0068673,0.22096
25380,6.2442,3.5455,0.1,0.00043394,4336.4,0.00043715,4438.3,-0.00012539,211.62,-0.00015355,0.0060424,0.21469
25381,6.3361,3.4545,0.1,0.00043142,4311.3,0.00043456,4410.5,-0.00012505,205.82,-0.00015244,0.0061457,0.2208
25382,6.2442,3.7273,0.1,0.00043453,4342.3,0.00043765,4441,-0.00012618,204.63,-0.00015341,0.0047078,0.2144
25383,6.3361,3.6364,0.1,0.00043192,4316.2,0.00043497,4412.7,-0.0001257,200.04,-0.00015233,0.0050587,0.22055
25384,6.2442,3.9091,0.1,0.00043529,4349.9,0.00043829,4444.4,-0.00012718,195.76,-0.00015323,0.0029712,0.21403
25385,6.3361,3.8182,0.1,0.00043256,4322.7,0.00043552,4415.7,-0.00012656,192.42,-0.00015217,0.0035945,0.22022
25386,6.2442,4.0909,0.1,0.0004362,4358.9,0.00043905,4448.5,-0.00012838,185.08,-0.00015301,0.00081206,0.21357
25387,6.3361,4,0.1,0.00043337,4330.7,0.00043619,4419.3,-0.00012762,183.02,-0.00015198,0.0017386,0.2198
25388,6.2442,4.2727,0.1,0.00043725,4369.5,0.00043993,4453.3,-0.00012978,172.71,-0.00015276,-0.0018048,0.21303
25389,6.3361,4.1818,0.1,0.00043431,4340.1,0.00043698,4423.5,-0.00012887,171.95,-0.00015176,-0.0005346,0.21931
25390,6.2442,4.4545,0.1,0.00043844,4381.3,0.00044092,4458.5,-0.00013135,158.75,-0.00015248,-0.0049482,0.21241
25391,6.3361,4.3636,0.1,0.00043539,4350.9,0.00043788,4428.4,-0.0001303,159.29,-0.0001515,-0.0032682,0.21872
25392,6.2442,4.6364,0.1,0.00043975,4394.5,0.00044201,4464.4,-0.00013308,143.33,-0.00015216,-0.0087002,0.21169
25393,6.3361,4.5455,0.1,0.0004366,4363,0.00043888,4433.7,-0.00013189,145.16,-0.00015121,-0.0065542,0.21805
25394,6.2442,4.8182,0.1,0.00044118,4408.7,0.00044319,4470.6,-0.00013497,126.58,-0.00015181,-0.013336,0.21089
25395,6.3361,4.7273,0.1,0.00043792,4376.2,0.00043998,4439.6,-0.00013363,129.7,-0.00015089,-0.010463,0.2173
25396,6.2442,5,0.1,0.00044271,4424,0.00044445,4477.3,-0.00013698,108.66,-0.00015144,-0.018836,0.21
25397,6.3361,4.9091,0.1,0.00043934,4390.4,0.00044116,4445.8,-0.0001355,113.02,-0.00015055,-0.015466,0.21645
25398,6.2442,5.1818,0.1,0.00044432,4440.2,0.00044578,4484.3,-0.00013911,89.701,-0.00015105,-0.027412,0.20902
25399,6.3361,5.0909,0.1,0.00044086,4405.6,0.0004424,4452.4,-0.0001375,95.278,-0.00015018,-0.021092,0.21551
25400,6.2442,5.3636,0.1,0.00044602,4457.1,0.00044716,4491.6,-0.00014133,69.873,-0.00015064,-0.034405,0.20795
25401,6.3361,5.2727,0.1,0.00044246,4421.5,0.00044371,4459.3,-0.00013959,76.615,-0.00014979,-0.032155,0.21449
25402,6.2442,5.5455,0.1,0.00044777,4474.6,0.00044859,4499,-0.00014364,49.301,-0.00015021,-0.07821,0.20678
25403,6.3361,5.4545,0.1,0.00044412,4438.1,0.00044507,4466.4,-0.00014177,57.187,-0.00014939,-0.035282,0.21337
25404,6.2442,5.7273,0.1,0.0004496,4492.9,0.00045007,4506.8,-0.00014602,28.016,-0.00014976,-0.10743,0.20552
25405,6.3361,5.6364,0.1,0.00044584,4455.3,0.00044646,4473.7,-0.00014402,37.084,-0.00014897,-0.11928,0.21216
25406,6.3361,5.8182,0.1,0.00044764,4473.3,0.00044791,4481.4,-0.00014636,16.266,-0.00014854,-0.12767,0.21085
25407,6.2442,5.9091,0.1,0.00045119,4508.8,0.00045134,4513.2,-0.00014814,8.9317,-0.00014935,-0.13624,0.20416
25408,6.4279,0.27273,0.1,0.00044388,4435.7,0.0004443,4448.3,-0.00014436,25.312,-0.00014774,-0.098122,0.21759
25409,6.5197,0.18182,0.1,0.00044188,4415.8,0.00044212,4422.9,-0.00014461,14.415,-0.00014654,-0.12029,0.22308
25410,6.4279,0.090909,0.1,0.00044534,4450.3,0.00044547,4454.2,-0.0001463,7.8635,-0.00014736,-0.13107,0.21624
25411,6.4279,0.45455,0.1,0.00044219,4418.8,0.00044293,4441.1,-0.00014216,44.967,-0.00014815,-0.071212,0.21885
25412,6.5197,0.36364,0.1,0.00044021,4399,0.00044077,4415.7,-0.00014245,33.671,-0.00014694,-0.10879,0.22438
25413,6.4279,0.63636,0.1,0.00044056,4402.6,0.00044161,4434.2,-0.00014003,63.926,-0.00014854,-0.031263,0.22001
25414,6.5197,0.54545,0.1,0.00043861,4383.1,0.00043948,4408.9,-0.00014037,52.204,-0.00014732,-0.031968,0.22559
25415,6.4279,0.81818,0.1,0.00043899,4386.9,0.00044033,4427.4,-0.00013798,82.188,-0.00014892,-0.025018,0.22108
25416,6.5197,0.72727,0.1,0.00043707,4367.7,0.00043822,4402.3,-0.00013836,70.102,-0.0001477,-0.029302,0.2267
25417,6.4279,1,0.1,0.0004375,4372,0.00043911,4420.9,-0.00013602,99.637,-0.00014928,-0.017266,0.22206
25418,6.5197,0.90909,0.1,0.0004356,4353,0.00043701,4395.9,-0.00013643,87.285,-0.00014805,-0.019291,0.22773
25419,6.4279,1.1818,0.1,0.00043608,4357.8,0.00043794,4414.7,-0.00013417,116.13,-0.00014962,-0.012306,0.22295
25420,6.5197,1.0909,0.1,0.00043419,4338.9,0.00043586,4389.8,-0.00013459,103.61,-0.00014839,-0.014229,0.22866
25421,6.4279,1.3636,0.1,0.00043476,4344.6,0.00043685,4408.9,-0.00013243,131.53,-0.00014994,-0.0081188,0.22375
25422,6.5197,1.2727,0.1,0.00043287,4325.8,0.00043477,4384,-0.00013287,118.95,-0.0001487,-0.0097146,0.2295
25423,6.4279,1.5455,0.1,0.00043355,4332.5,0.00043585,4403.5,-0.00013084,145.7,-0.00015023,-0.0047273,0.22446
25424,6.5197,1.4545,0.1,0.00043165,4313.5,0.00043376,4378.6,-0.00013127,133.17,-0.00014899,-0.0061859,0.23026
25425,6.4279,1.7273,0.1,0.00043245,4321.5,0.00043493,4398.6,-0.00012939,158.52,-0.00015049,-0.0018832,0.22509
25426,6.5197,1.6364,0.1,0.00043054,4302.4,0.00043284,4373.6,-0.0001298,146.15,-0.00014926,-0.0032165,0.23093
25427,6.4279,1.9091,0.1,0.00043148,4311.8,0.00043412,4394.3,-0.00012811,169.88,-0.00015072,0.00048609,0.22563
25428,6.5197,1.8182,0.1,0.00042954,4292.4,0.00043201,4369.1,-0.00012849,157.77,-0.00014949,-0.0007444,0.23151
25429,6.4279,2.0909,0.1,0.00043064,4303.5,0.00043342,4390.5,-0.00012701,179.68,-0.00015092,0.0024423,0.22609
25430,6.5197,2,0.1,0.00042867,4283.7,0.00043128,4365.2,-0.00012735,167.94,-0.0001497,0.0013128,0.23201
25431,6.4279,2.2727,0.1,0.00042995,4296.5,0.00043283,4387.3,-0.00012609,187.83,-0.00015108,0.0040163,0.22646
25432,6.5197,2.1818,0.1,0.00042793,4276.3,0.00043066,4361.9,-0.00012637,176.56,-0.00014987,0.0029935,0.23242
25433,6.4279,2.4545,0.1,0.0004294,4291,0.00043237,4384.8,-0.00012536,194.24,-0.00015121,0.0052265,0.22675
25434,6.5197,2.3636,0.1,0.00042733,4270.3,0.00043016,4359.2,-0.00012558,183.56,-0.00015001,0.0043199,0.23275
25435,6.4279,2.6364,0.1,0.000429,4287.1,0.00043204,4383.1,-0.00012484,198.87,-0.00015131,0.0060849,0.22695
25436,6.5197,2.5455,0.1,0.00042687,4265.8,0.00042977,4357.1,-0.00012498,188.86,-0.00015012,0.005305,0.233
25437,6.4279,2.8182,0.1,0.00042877,4284.7,0.00043184,4382,-0.00012453,201.66,-0.00015136,0.0065986,0.22708
25438,6.5197,2.7273,0.1,0.00042657,4262.7,0.00042952,4355.7,-0.00012458,192.43,-0.00015019,0.0059593,0.23316
25439,6.4279,3,0.1,0.00042869,4283.9,0.00043177,4381.6,-0.00012442,202.59,-0.00015138,0.0067697,0.22712
25440,6.5197,2.9091,0.1,0.00042642,4261.2,0.00042939,4355,-0.00012438,194.22,-0.00015023,0.006286,0.23325
25441,6.4279,3.1818,0.1,0.00042877,4284.7,0.00043184,4382,-0.00012453,201.66,-0.00015136,0.0065987,0.22708
25442,6.5197,3.0909,0.1,0.00042642,4261.2,0.00042939,4355,-0.00012438,194.22,-0.00015023,0.006286,0.23325
25443,6.4279,3.3636,0.1,0.000429,4287.1,0.00043204,4383.1,-0.00012484,198.87,-0.00015131,0.0060851,0.22695
25444,6.5197,3.2727,0.1,0.00042657,4262.7,0.00042952,4355.7,-0.00012458,192.43,-0.00015019,0.0059594,0.23316
25445,6.4279,3.5455,0.1,0.0004294,4291,0.00043237,4384.8,-0.00012536,194.24,-0.00015121,0.0052268,0.22675
25446,6.5197,3.4545,0.1,0.00042687,4265.8,0.00042977,4357.1,-0.00012498,188.86,-0.00015012,0.0053051,0.233
25447,6.4279,3.7273,0.1,0.00042995,4296.5,0.00043283,4387.3,-0.00012609,187.83,-0.00015108,0.0040165,0.22646
25448,6.5197,3.6364,0.1,0.00042733,4270.3,0.00043016,4359.2,-0.00012558,183.56,-0.00015001,0.0043202,0.23275
25449,6.4279,3.9091,0.1,0.00043064,4303.5,0.00043342,4390.5,-0.00012701,179.68,-0.00015092,0.0024425,0.22609
25450,6.5197,3.8182,0.1,0.00042793,4276.3,0.00043066,4361.9,-0.00012637,176.56,-0.00014987,0.0029937,0.23242
25451,6.4279,4.0909,0.1,0.00043148,4311.8,0.00043412,4394.3,-0.00012811,169.88,-0.00015072,0.00048649,0.22563
25452,6.5197,4,0.1,0.00042867,4283.7,0.00043128,4365.2,-0.00012735,167.94,-0.0001497,0.0013132,0.23201
25453,6.4279,4.2727,0.1,0.00043245,4321.5,0.00043493,4398.6,-0.00012939,158.52,-0.00015049,-0.0018826,0.22509
25454,6.5197,4.1818,0.1,0.00042954,4292.4,0.00043201,4369.1,-0.00012849,157.77,-0.00014949,-0.00074391,0.23151
25455,6.4279,4.4545,0.1,0.00043355,4332.5,0.00043585,4403.5,-0.00013084,145.7,-0.00015023,-0.0047266,0.22446
25456,6.5197,4.3636,0.1,0.00043054,4302.4,0.00043284,4373.6,-0.0001298,146.15,-0.00014926,-0.0032158,0.23093
25457,6.4279,4.6364,0.1,0.00043476,4344.6,0.00043685,4408.9,-0.00013243,131.53,-0.00014994,-0.008118,0.22375
25458,6.5197,4.5455,0.1,0.00043165,4313.5,0.00043376,4378.6,-0.00013127,133.17,-0.00014899,-0.0061852,0.23026
25459,6.4279,4.8182,0.1,0.00043608,4357.8,0.00043794,4414.7,-0.00013417,116.13,-0.00014962,-0.012305,0.22295
25460,6.5197,4.7273,0.1,0.00043287,4325.8,0.00043477,4384,-0.00013287,118.95,-0.0001487,-0.0097139,0.2295
25461,6.4279,5,0.1,0.0004375,4372,0.00043911,4420.9,-0.00013602,99.637,-0.00014928,-0.017266,0.22206
25462,6.5197,4.9091,0.1,0.00043419,4338.9,0.00043586,4389.8,-0.00013459,103.61,-0.00014839,-0.014229,0.22866
25463,6.4279,5.1818,0.1,0.00043899,4386.9,0.00044033,4427.4,-0.00013798,82.188,-0.00014892,-0.025017,0.22108
25464,6.5197,5.0909,0.1,0.0004356,4353,0.00043701,4395.9,-0.00013643,87.285,-0.00014805,-0.01929,0.22773
25465,6.4279,5.3636,0.1,0.00044056,4402.6,0.00044161,4434.2,-0.00014003,63.926,-0.00014854,-0.031263,0.22001
25466,6.5197,5.2727,0.1,0.00043707,4367.7,0.00043822,4402.3,-0.00013836,70.102,-0.0001477,-0.029301,0.2267
25467,6.4279,5.5455,0.1,0.00044219,4418.8,0.00044293,4441.1,-0.00014216,44.967,-0.00014815,-0.071211,0.21885
25468,6.5197,5.4545,0.1,0.00043861,4383.1,0.00043948,4408.9,-0.00014037,52.204,-0.00014732,-0.031967,0.22559
25469,6.4279,5.7273,0.1,0.00044388,4435.7,0.0004443,4448.3,-0.00014436,25.312,-0.00014774,-0.09812,0.21759
25470,6.5197,5.6364,0.1,0.00044021,4399,0.00044077,4415.7,-0.00014245,33.671,-0.00014694,-0.10878,0.22438
25471,6.5197,5.8182,0.1,0.00044188,4415.8,0.00044212,4422.9,-0.00014461,14.415,-0.00014654,-0.12029,0.22308
25472,6.4279,5.9091,0.1,0.00044534,4450.3,0.00044547,4454.2,-0.0001463,7.8635,-0.00014736,-0.13107,0.21624
25473,6.6115,0.27273,0.1,0.0004382,4379,0.00043858,4390.3,-0.0001427,22.757,-0.00014574,-0.089804,0.22997
25474,6.7034,0.18182,0.1,0.00043617,4358.6,0.00043638,4364.9,-0.00014287,12.648,-0.00014457,-0.11469,0.23561
25475,6.6115,0.090909,0.1,0.00043953,4392.2,0.00043964,4395.6,-0.00014447,6.8389,-0.00014539,-0.12721,0.22863
25476,6.6115,0.45455,0.1,0.00043663,4363.3,0.00043731,4383.6,-0.00014066,40.907,-0.00014611,-0.064804,0.23122
25477,6.7034,0.36364,0.1,0.0004346,4343,0.00043511,4358.1,-0.00014087,30.465,-0.00014493,-0.09916,0.2369
25478,6.6115,0.63636,0.1,0.00043512,4348.2,0.00043609,4377.1,-0.0001387,58.378,-0.00014647,-0.028401,0.23238
25479,6.7034,0.54545,0.1,0.00043313,4328.3,0.00043391,4351.8,-0.00013895,47.548,-0.00014528,-0.028947,0.23811
25480,6.6115,0.81818,0.1,0.00043367,4333.7,0.0004349,4370.8,-0.00013681,75.196,-0.00014682,-0.022836,0.23344
25481,6.7034,0.72727,0.1,0.0004317,4314,0.00043275,4345.7,-0.0001371,64.034,-0.00014562,-0.026693,0.23921
25482,6.6115,1,0.1,0.00043229,4319.9,0.00043377,4364.8,-0.00013501,91.256,-0.00014715,-0.015842,0.23442
25483,6.7034,0.90909,0.1,0.00043033,4300.4,0.00043164,4339.7,-0.00013532,79.853,-0.00014595,-0.017649,0.24023
25484,6.6115,1.1818,0.1,0.00043098,4306.8,0.00043269,4359.1,-0.0001333,106.43,-0.00014746,-0.011379,0.23531
25485,6.7034,1.0909,0.1,0.00042904,4287.4,0.00043057,4334,-0.00013363,94.876,-0.00014626,-0.013106,0.24116
25486,6.6115,1.3636,0.1,0.00042976,4294.7,0.00043169,4353.7,-0.0001317,120.59,-0.00014775,-0.0076029,0.2361
25487,6.7034,1.2727,0.1,0.00042782,4275.2,0.00042957,4328.7,-0.00013204,108.98,-0.00014654,-0.0090396,0.242
25488,6.6115,1.5455,0.1,0.00042864,4283.4,0.00043076,4348.7,-0.00013024,133.61,-0.00014802,-0.0045429,0.23682
25489,6.7034,1.4545,0.1,0.00042669,4263.9,0.00042863,4323.6,-0.00013056,122.05,-0.00014681,-0.0058607,0.24276
25490,6.6115,1.7273,0.1,0.00042763,4273.3,0.00042991,4344.1,-0.00012891,145.39,-0.00014826,-0.0019743,0.23744
25491,6.7034,1.6364,0.1,0.00042566,4253.6,0.00042778,4319.1,-0.00012922,133.98,-0.00014705,-0.0031825,0.24342
25492,6.6115,1.9091,0.1,0.00042673,4264.3,0.00042917,4340.1,-0.00012773,155.83,-0.00014847,0.00016706,0.23798
25493,6.7034,1.8182,0.1,0.00042474,4244.4,0.00042701,4314.9,-0.00012801,144.66,-0.00014727,-0.00095108,0.244
25494,6.6115,2.0909,0.1,0.00042595,4256.6,0.00042852,4336.6,-0.00012671,164.82,-0.00014865,0.0019362,0.23844
25495,6.7034,2,0.1,0.00042393,4236.4,0.00042634,4311.3,-0.00012696,154,-0.00014746,0.00090725,0.2445
25496,6.6115,2.2727,0.1,0.00042531,4250.2,0.00042798,4333.7,-0.00012587,172.3,-0.0001488,0.0033607,0.23881
25497,6.7034,2.1818,0.1,0.00042325,4229.6,0.00042577,4308.2,-0.00012607,161.91,-0.00014762,0.0024264,0.24492
25498,6.6115,2.4545,0.1,0.00042481,4245.1,0.00042756,4331.4,-0.0001252,178.18,-0.00014892,0.0044564,0.2391
25499,6.7034,2.3636,0.1,0.00042269,4224,0.00042531,4305.7,-0.00012534,168.33,-0.00014774,0.003626,0.24525
25500,6.6115,2.6364,0.1,0.00042444,4241.5,0.00042725,4329.8,-0.00012473,182.42,-0.000149,0.0052337,0.2393
25501,6.7034,2.5455,0.1,0.00042228,4219.8,0.00042495,4303.8,-0.00012479,173.2,-0.00014784,0.0045172,0.24549
25502,6.6115,2.8182,0.1,0.00042422,4239.3,0.00042706,4328.7,-0.00012444,184.99,-0.00014906,0.005699,0.23943
25503,6.7034,2.7273,0.1,0.00042199,4217,0.00042472,4302.5,-0.00012442,176.47,-0.00014791,0.0051095,0.24566
25504,6.6115,3,0.1,0.00042415,4238.5,0.000427,4328.4,-0.00012434,185.84,-0.00014907,0.005854,0.23947
25505,6.7034,2.9091,0.1,0.00042185,4215.6,0.0004246,4301.8,-0.00012424,178.11,-0.00014794,0.0054051,0.24574
25506,6.6115,3.1818,0.1,0.00042422,4239.3,0.00042706,4328.7,-0.00012444,184.99,-0.00014906,0.0056991,0.23943
25507,6.7034,3.0909,0.1,0.00042185,4215.6,0.0004246,4301.8,-0.00012424,178.11,-0.00014794,0.0054051,0.24574
25508,6.6115,3.3636,0.1,0.00042444,4241.5,0.00042725,4329.8,-0.00012473,182.42,-0.000149,0.0052338,0.2393
25509,6.7034,3.2727,0.1,0.00042199,4217,0.00042472,4302.5,-0.00012442,176.47,-0.00014791,0.0051096,0.24566
25510,6.6115,3.5455,0.1,0.00042481,4245.1,0.00042756,4331.4,-0.0001252,178.18,-0.00014892,0.0044565,0.2391
25511,6.7034,3.4545,0.1,0.00042228,4219.8,0.00042495,4303.8,-0.00012479,173.2,-0.00014784,0.0045173,0.24549
25512,6.6115,3.7273,0.1,0.00042531,4250.2,0.00042798,4333.7,-0.00012587,172.3,-0.0001488,0.003361,0.23881
25513,6.7034,3.6364,0.1,0.00042269,4224,0.00042531,4305.7,-0.00012534,168.33,-0.00014774,0.0036263,0.24525
25514,6.6115,3.9091,0.1,0.00042595,4256.6,0.00042852,4336.6,-0.00012671,164.82,-0.00014865,0.0019367,0.23844
25515,6.7034,3.8182,0.1,0.00042325,4229.6,0.00042577,4308.2,-0.00012607,161.91,-0.00014762,0.0024267,0.24492
25516,6.6115,4.0909,0.1,0.00042673,4264.3,0.00042917,4340.1,-0.00012773,155.83,-0.00014847,0.00016754,0.23798
25517,6.7034,4,0.1,0.00042393,4236.4,0.00042634,4311.3,-0.00012696,154,-0.00014746,0.00090767,0.2445
25518,6.6115,4.2727,0.1,0.00042763,4273.3,0.00042991,4344.1,-0.00012891,145.39,-0.00014826,-0.0019737,0.23744
25519,6.7034,4.1818,0.1,0.00042474,4244.4,0.00042701,4314.9,-0.00012801,144.66,-0.00014727,-0.00095061,0.244
25520,6.6115,4.4545,0.1,0.00042864,4283.4,0.00043076,4348.7,-0.00013024,133.61,-0.00014802,-0.0045422,0.23682
25521,6.7034,4.3636,0.1,0.00042566,4253.6,0.00042778,4319.1,-0.00012922,133.98,-0.00014705,-0.0031819,0.24342
25522,6.6115,4.6364,0.1,0.00042976,4294.7,0.00043169,4353.7,-0.0001317,120.59,-0.00014775,-0.0076022,0.2361
25523,6.7034,4.5455,0.1,0.00042669,4263.9,0.00042863,4323.6,-0.00013056,122.05,-0.00014681,-0.0058601,0.24276
25524,6.6115,4.8182,0.1,0.00043098,4306.8,0.00043269,4359.1,-0.0001333,106.43,-0.00014746,-0.011378,0.23531
25525,6.7034,4.7273,0.1,0.00042782,4275.2,0.00042957,4328.7,-0.00013204,108.98,-0.00014654,-0.0090389,0.242
25526,6.6115,5,0.1,0.00043229,4319.9,0.00043377,4364.8,-0.00013501,91.256,-0.00014715,-0.015842,0.23442
25527,6.7034,4.9091,0.1,0.00042904,4287.4,0.00043057,4334,-0.00013363,94.876,-0.00014626,-0.013105,0.24116
25528,6.6115,5.1818,0.1,0.00043367,4333.7,0.0004349,4370.8,-0.00013681,75.196,-0.00014682,-0.022835,0.23344
25529,6.7034,5.0909,0.1,0.00043033,4300.4,0.00043164,4339.7,-0.00013532,79.853,-0.00014595,-0.017647,0.24023
25530,6.6115,5.3636,0.1,0.00043512,4348.2,0.00043609,4377.1,-0.0001387,58.378,-0.00014647,-0.0284,0.23238
25531,6.7034,5.2727,0.1,0.0004317,4314,0.00043275,4345.7,-0.0001371,64.034,-0.00014562,-0.026692,0.23921
25532,6.6115,5.5455,0.1,0.00043663,4363.3,0.00043731,4383.6,-0.00014066,40.907,-0.00014611,-0.064803,0.23122
25533,6.7034,5.4545,0.1,0.00043313,4328.3,0.00043391,4351.8,-0.00013895,47.548,-0.00014528,-0.028947,0.23811
25534,6.6115,5.7273,0.1,0.0004382,4379,0.00043858,4390.3,-0.0001427,22.757,-0.00014574,-0.089803,0.22997
25535,6.7034,5.6364,0.1,0.0004346,4343,0.00043511,4358.1,-0.00014087,30.465,-0.00014493,-0.099158,0.2369
25536,6.7034,5.8182,0.1,0.00043617,4358.6,0.00043638,4364.9,-0.00014287,12.648,-0.00014457,-0.11469,0.23561
25537,6.6115,5.9091,0.1,0.00043953,4392.2,0.00043964,4395.6,-0.00014447,6.8389,-0.00014539,-0.12721,0.22863
25538,6.7952,0.27273,0.1,0.00043256,4322.6,0.0004329,4332.7,-0.00014104,20.344,-0.00014376,-0.082379,0.24264
25539,6.887,0.18182,0.1,0.00043049,4301.9,0.00043067,4307.3,-0.00014114,10.966,-0.00014261,-0.11087,0.24843
25540,6.7952,0.090909,0.1,0.00043376,4334.6,0.00043386,4337.5,-0.00014264,5.8592,-0.00014344,-0.12488,0.24131
25541,6.7952,0.45455,0.1,0.0004311,4308,0.00043171,4326.4,-0.00013915,37.107,-0.0001441,-0.058924,0.24389
25542,6.887,0.36364,0.1,0.00042903,4287.3,0.00042949,4300.9,-0.00013928,27.457,-0.00014294,-0.090325,0.24972
25543,6.7952,0.63636,0.1,0.0004297,4294.1,0.00043058,4320.4,-0.00013735,53.204,-0.00014443,-0.025781,0.24504
25544,6.887,0.54545,0.1,0.00042766,4273.6,0.00042838,4295.1,-0.00013751,43.2,-0.00014326,-0.026188,0.25091
25545,6.7952,0.81818,0.1,0.00042836,4280.6,0.00042949,4314.6,-0.0001356,68.69,-0.00014475,-0.020839,0.2461
25546,6.887,0.72727,0.1,0.00042634,4260.5,0.0004273,4289.3,-0.0001358,58.383,-0.00014358,-0.024303,0.25202
25547,6.7952,1,0.1,0.00042708,4267.8,0.00042844,4309,-0.00013394,83.471,-0.00014505,-0.014542,0.24707
25548,6.887,0.90909,0.1,0.00042508,4247.8,0.00042627,4283.8,-0.00013416,72.944,-0.00014387,-0.016149,0.25303
25549,6.7952,1.1818,0.1,0.00042587,4255.8,0.00042744,4303.6,-0.00013237,97.428,-0.00014534,-0.010534,0.24795
25550,6.887,1.0909,0.1,0.00042388,4235.8,0.00042528,4278.5,-0.00013261,86.767,-0.00014416,-0.012082,0.25396
25551,6.7952,1.3636,0.1,0.00042474,4244.5,0.00042651,4298.6,-0.0001309,110.45,-0.0001456,-0.0071374,0.24875
25552,6.887,1.2727,0.1,0.00042275,4224.6,0.00042436,4273.5,-0.00013114,99.74,-0.00014442,-0.0084286,0.25479
25553,6.7952,1.5455,0.1,0.00042371,4234.1,0.00042566,4294,-0.00012955,122.42,-0.00014584,-0.0043822,0.24946
25554,6.887,1.4545,0.1,0.0004217,4214.1,0.00042349,4268.9,-0.00012979,111.76,-0.00014466,-0.0055716,0.25554
25555,6.7952,1.7273,0.1,0.00042277,4224.8,0.00042488,4289.8,-0.00012833,133.24,-0.00014606,-0.0020669,0.25008
25556,6.887,1.6364,0.1,0.00042075,4204.6,0.00042271,4264.6,-0.00012855,122.71,-0.00014488,-0.0031611,0.25621
25557,6.7952,1.9091,0.1,0.00042194,4216.5,0.00042419,4286.1,-0.00012725,142.82,-0.00014625,-0.00013521,0.25062
25558,6.887,1.8182,0.1,0.0004199,4196.1,0.000422,4260.8,-0.00012744,132.52,-0.00014508,-0.0011512,0.25679
25559,6.7952,2.0909,0.1,0.00042123,4209.3,0.00042359,4282.9,-0.00012631,151.08,-0.00014642,0.0014619,0.25107
25560,6.887,2,0.1,0.00041916,4188.7,0.00042138,4257.5,-0.00012647,141.1,-0.00014525,0.00052419,0.25728
25561,6.7952,2.2727,0.1,0.00042063,4203.4,0.0004231,4280.2,-0.00012554,157.94,-0.00014656,0.0027486,0.25144
25562,6.887,2.1818,0.1,0.00041853,4182.4,0.00042085,4254.6,-0.00012565,148.36,-0.0001454,0.0018949,0.2577
25563,6.7952,2.4545,0.1,0.00042017,4198.8,0.00042271,4278,-0.00012493,163.34,-0.00014667,0.0037387,0.25173
25564,6.887,2.3636,0.1,0.00041802,4177.3,0.00042043,4252.3,-0.00012499,154.26,-0.00014552,0.0029778,0.25802
25565,6.7952,2.6364,0.1,0.00041983,4195.4,0.00042242,4276.5,-0.00012449,167.24,-0.00014674,0.0044415,0.25194
25566,6.887,2.5455,0.1,0.00041763,4173.4,0.0004201,4250.5,-0.00012448,158.72,-0.0001456,0.0037824,0.25827
25567,6.7952,2.8182,0.1,0.00041963,4193.4,0.00042225,4275.6,-0.00012422,169.59,-0.00014679,0.0048623,0.25206
25568,6.887,2.7273,0.1,0.00041737,4170.8,0.00041989,4249.3,-0.00012414,161.72,-0.00014566,0.0043176,0.25844
25569,6.7952,3,0.1,0.00041956,4192.7,0.0004222,4275.3,-0.00012413,170.37,-0.00014681,0.0050025,0.2521
25570,6.887,2.9091,0.1,0.00041724,4169.5,0.00041978,4248.7,-0.00012397,163.23,-0.00014569,0.0045848,0.25852
25571,6.7952,3.1818,0.1,0.00041963,4193.4,0.00042225,4275.6,-0.00012422,169.59,-0.00014679,0.0048623,0.25206
25572,6.887,3.0909,0.1,0.00041724,4169.5,0.00041978,4248.7,-0.00012397,163.23,-0.00014569,0.0045848,0.25852
25573,6.7952,3.3636,0.1,0.00041983,4195.4,0.00042242,4276.5,-0.00012449,167.24,-0.00014674,0.0044416,0.25194
25574,6.887,3.2727,0.1,0.00041737,4170.8,0.00041989,4249.3,-0.00012414,161.72,-0.00014566,0.0043177,0.25844
25575,6.7952,3.5455,0.1,0.00042017,4198.8,0.00042271,4278,-0.00012493,163.34,-0.00014667,0.0037389,0.25173
25576,6.887,3.4545,0.1,0.00041763,4173.4,0.0004201,4250.5,-0.00012448,158.72,-0.0001456,0.0037827,0.25827
25577,6.7952,3.7273,0.1,0.00042063,4203.4,0.0004231,4280.2,-0.00012554,157.94,-0.00014656,0.0027489,0.25144
25578,6.887,3.6364,0.1,0.00041802,4177.3,0.00042043,4252.3,-0.00012499,154.26,-0.00014552,0.0029781,0.25802
25579,6.7952,3.9091,0.1,0.00042123,4209.3,0.00042359,4282.9,-0.00012631,151.08,-0.00014642,0.0014622,0.25107
25580,6.887,3.8182,0.1,0.00041853,4182.4,0.00042085,4254.6,-0.00012565,148.36,-0.0001454,0.0018953,0.2577
25581,6.7952,4.0909,0.1,0.00042194,4216.5,0.00042419,4286.1,-0.00012725,142.82,-0.00014625,-0.00013479,0.25062
25582,6.887,4,0.1,0.00041916,4188.7,0.00042138,4257.5,-0.00012647,141.1,-0.00014525,0.00052467,0.25728
25583,6.7952,4.2727,0.1,0.00042277,4224.8,0.00042488,4289.8,-0.00012833,133.24,-0.00014606,-0.0020663,0.25008
25584,6.887,4.1818,0.1,0.0004199,4196.1,0.000422,4260.8,-0.00012744,132.52,-0.00014508,-0.0011505,0.25679
25585,6.7952,4.4545,0.1,0.00042371,4234.1,0.00042566,4294,-0.00012955,122.42,-0.00014584,-0.0043816,0.24946
25586,6.887,4.3636,0.1,0.00042075,4204.6,0.00042271,4264.6,-0.00012855,122.71,-0.00014488,-0.0031605,0.25621
25587,6.7952,4.6364,0.1,0.00042474,4244.5,0.00042651,4298.6,-0.0001309,110.45,-0.0001456,-0.0071368,0.24875
25588,6.887,4.5455,0.1,0.0004217,4214.1,0.00042349,4268.9,-0.00012979,111.76,-0.00014466,-0.0055709,0.25554
25589,6.7952,4.8182,0.1,0.00042587,4255.8,0.00042744,4303.6,-0.00013237,97.428,-0.00014534,-0.010534,0.24795
25590,6.887,4.7273,0.1,0.00042275,4224.6,0.00042436,4273.5,-0.00013114,99.74,-0.00014442,-0.0084279,0.25479
25591,6.7952,5,0.1,0.00042708,4267.8,0.00042844,4309,-0.00013394,83.471,-0.00014505,-0.014541,0.24707
25592,6.887,4.9091,0.1,0.00042388,4235.8,0.00042528,4278.5,-0.00013261,86.767,-0.00014416,-0.012081,0.25396
25593,6.7952,5.1818,0.1,0.00042836,4280.6,0.00042949,4314.6,-0.0001356,68.69,-0.00014475,-0.020838,0.2461
25594,6.887,5.0909,0.1,0.00042508,4247.8,0.00042627,4283.8,-0.00013416,72.944,-0.00014387,-0.016147,0.25303
25595,6.7952,5.3636,0.1,0.0004297,4294.1,0.00043058,4320.4,-0.00013735,53.204,-0.00014443,-0.025781,0.24504
25596,6.887,5.2727,0.1,0.00042634,4260.5,0.0004273,4289.3,-0.0001358,58.383,-0.00014358,-0.024302,0.25202
25597,6.7952,5.5455,0.1,0.0004311,4308,0.00043171,4326.4,-0.00013915,37.107,-0.0001441,-0.058923,0.24389
25598,6.887,5.4545,0.1,0.00042766,4273.6,0.00042838,4295.1,-0.00013751,43.2,-0.00014326,-0.026187,0.25091
25599,6.7952,5.7273,0.1,0.00043256,4322.6,0.0004329,4332.7,-0.00014104,20.344,-0.00014376,-0.082377,0.24264
25600,6.887,5.6364,0.1,0.00042903,4287.3,0.00042949,4300.9,-0.00013928,27.457,-0.00014294,-0.090323,0.24972
25601,6.887,5.8182,0.1,0.00043049,4301.9,0.00043067,4307.3,-0.00014114,10.966,-0.00014261,-0.11087,0.24843
25602,6.7952,5.9091,0.1,0.00043376,4334.6,0.00043386,4337.5,-0.00014264,5.8592,-0.00014344,-0.12488,0.24131
25603,6.9788,0.27273,0.1,0.00042695,4266.5,0.00042725,4275.5,-0.00013938,18.069,-0.00014179,-0.075772,0.25561
25604,7.0707,0.18182,0.1,0.00042485,4245.5,0.000425,4250.1,-0.00013941,9.3686,-0.00014067,-0.10901,0.26155
25605,6.9788,0.090909,0.1,0.00042803,4277.4,0.00042811,4279.8,-0.00014083,4.9253,-0.00014151,-0.12447,0.25428
25606,6.9788,0.45455,0.1,0.00042559,4252.9,0.00042615,4269.6,-0.00013763,33.553,-0.00014211,-0.053528,0.25684
25607,7.0707,0.36364,0.1,0.00042348,4231.9,0.00042389,4244.1,-0.00013768,24.636,-0.00014097,-0.082216,0.26282
25608,6.9788,0.63636,0.1,0.0004243,4240,0.0004251,4264,-0.00013597,48.381,-0.00014241,-0.023386,0.25799
25609,7.0707,0.54545,0.1,0.00042221,4219.2,0.00042287,4238.7,-0.00013605,39.143,-0.00014127,-0.023669,0.26401
25610,6.9788,0.81818,0.1,0.00042306,4227.6,0.00042409,4258.6,-0.00013436,62.639,-0.0001427,-0.019013,0.25904
25611,7.0707,0.72727,0.1,0.00042099,4207,0.00042187,4233.3,-0.00013448,53.122,-0.00014155,-0.022117,0.26511
25612,6.9788,1,0.1,0.00042187,4215.8,0.00042312,4253.4,-0.00013283,76.241,-0.00014298,-0.013357,0.26001
25613,7.0707,0.90909,0.1,0.00041982,4195.3,0.00042091,4228.2,-0.00013297,66.524,-0.00014182,-0.014781,0.26612
25614,6.9788,1.1818,0.1,0.00042075,4204.6,0.0004222,4248.4,-0.00013138,89.078,-0.00014324,-0.0097686,0.26089
25615,7.0707,1.0909,0.1,0.00041871,4184.2,0.00042,4223.3,-0.00013153,79.241,-0.00014208,-0.011152,0.26704
25616,6.9788,1.3636,0.1,0.00041971,4194.2,0.00042134,4243.8,-0.00013003,101.05,-0.00014348,-0.00672,0.26168
25617,7.0707,1.2727,0.1,0.00041767,4173.8,0.00041915,4218.7,-0.00013019,91.17,-0.00014232,-0.0078786,0.26787
25618,6.9788,1.5455,0.1,0.00041875,4184.6,0.00042055,4239.5,-0.00012879,112.05,-0.0001437,-0.0042451,0.26239
25619,7.0707,1.4545,0.1,0.00041671,4164.2,0.00041835,4214.3,-0.00012894,102.22,-0.00014255,-0.0053176,0.26862
25620,6.9788,1.7273,0.1,0.00041789,4176,0.00041983,4235.6,-0.00012766,122,-0.0001439,-0.002163,0.26301
25621,7.0707,1.6364,0.1,0.00041583,4155.4,0.00041762,4210.4,-0.0001278,112.29,-0.00014275,-0.0031533,0.26928
25622,6.9788,1.9091,0.1,0.00041712,4168.3,0.00041919,4232.2,-0.00012667,130.8,-0.00014408,-0.00042433,0.26354
25623,7.0707,1.8182,0.1,0.00041504,4147.5,0.00041697,4206.9,-0.00012678,121.3,-0.00014293,-0.001347,0.26986
25624,6.9788,2.0909,0.1,0.00041646,4161.7,0.00041864,4229.2,-0.00012581,138.38,-0.00014423,0.0010147,0.264
25625,7.0707,2,0.1,0.00041435,4140.7,0.0004164,4203.7,-0.00012589,129.17,-0.00014308,0.0001601,0.27035
25626,6.9788,2.2727,0.1,0.00041591,4156.3,0.00041819,4226.7,-0.0001251,144.68,-0.00014436,0.0021749,0.26437
25627,7.0707,2.1818,0.1,0.00041377,4134.9,0.00041591,4201.1,-0.00012514,135.84,-0.00014322,0.0013942,0.27076
25628,6.9788,2.4545,0.1,0.00041548,4152,0.00041783,4224.7,-0.00012454,149.63,-0.00014445,0.0030678,0.26465
25629,7.0707,2.3636,0.1,0.0004133,4130.1,0.00041552,4199,-0.00012453,141.25,-0.00014333,0.0023698,0.27109
25630,6.9788,2.6364,0.1,0.00041517,4148.8,0.00041757,4223.3,-0.00012414,153.21,-0.00014453,0.0037018,0.26486
25631,7.0707,2.5455,0.1,0.00041294,4126.6,0.00041522,4197.3,-0.00012406,145.35,-0.00014341,0.0030948,0.27133
25632,6.9788,2.8182,0.1,0.00041498,4147,0.00041741,4222.5,-0.00012389,155.36,-0.00014457,0.0040817,0.26498
25633,7.0707,2.7273,0.1,0.0004127,4124.2,0.00041502,4196.2,-0.00012375,148.1,-0.00014346,0.0035774,0.2715
25634,6.9788,3,0.1,0.00041492,4146.3,0.00041736,4222.2,-0.00012381,156.08,-0.00014458,0.0042084,0.26502
25635,7.0707,2.9091,0.1,0.00041258,4123,0.00041492,4195.7,-0.00012359,149.48,-0.00014349,0.0038184,0.27158
25636,6.9788,3.1818,0.1,0.00041498,4147,0.00041741,4222.5,-0.00012389,155.36,-0.00014457,0.0040819,0.26498
25637,7.0707,3.0909,0.1,0.00041258,4123,0.00041492,4195.7,-0.00012359,149.48,-0.00014349,0.0038185,0.27158
25638,6.9788,3.3636,0.1,0.00041517,4148.8,0.00041757,4223.3,-0.00012414,153.21,-0.00014453,0.0037021,0.26486
25639,7.0707,3.2727,0.1,0.0004127,4124.2,0.00041502,4196.2,-0.00012375,148.1,-0.00014346,0.0035774,0.2715
25640,6.9788,3.5455,0.1,0.00041548,4152,0.00041783,4224.7,-0.00012454,149.63,-0.00014445,0.0030682,0.26465
25641,7.0707,3.4545,0.1,0.00041294,4126.6,0.00041522,4197.3,-0.00012406,145.35,-0.00014341,0.0030951,0.27133
25642,6.9788,3.7273,0.1,0.00041591,4156.3,0.00041819,4226.7,-0.0001251,144.68,-0.00014436,0.0021753,0.26437
25643,7.0707,3.6364,0.1,0.0004133,4130.1,0.00041552,4199,-0.00012453,141.25,-0.00014333,0.0023701,0.27109
25644,6.9788,3.9091,0.1,0.00041646,4161.7,0.00041864,4229.2,-0.00012581,138.38,-0.00014423,0.0010152,0.264
25645,7.0707,3.8182,0.1,0.00041377,4134.9,0.00041591,4201.1,-0.00012514,135.84,-0.00014322,0.0013946,0.27076
25646,6.9788,4.0909,0.1,0.00041712,4168.3,0.00041919,4232.2,-0.00012667,130.8,-0.00014408,-0.00042362,0.26354
25647,7.0707,4,0.1,0.00041435,4140.7,0.0004164,4203.7,-0.00012589,129.17,-0.00014308,0.00016061,0.27035
25648,6.9788,4.2727,0.1,0.00041789,4176,0.00041983,4235.6,-0.00012766,122,-0.0001439,-0.0021623,0.26301
25649,7.0707,4.1818,0.1,0.00041504,4147.5,0.00041697,4206.9,-0.00012678,121.3,-0.00014293,-0.0013464,0.26986
25650,6.9788,4.4545,0.1,0.00041875,4184.6,0.00042055,4239.5,-0.00012879,112.05,-0.0001437,-0.0042445,0.26239
25651,7.0707,4.3636,0.1,0.00041583,4155.4,0.00041762,4210.4,-0.0001278,112.29,-0.00014275,-0.0031528,0.26928
25652,6.9788,4.6364,0.1,0.00041971,4194.2,0.00042134,4243.8,-0.00013003,101.05,-0.00014348,-0.0067193,0.26168
25653,7.0707,4.5455,0.1,0.00041671,4164.2,0.00041835,4214.3,-0.00012894,102.22,-0.00014255,-0.0053169,0.26862
25654,6.9788,4.8182,0.1,0.00042075,4204.6,0.0004222,4248.4,-0.00013138,89.078,-0.00014324,-0.0097678,0.26089
25655,7.0707,4.7273,0.1,0.00041767,4173.8,0.00041915,4218.7,-0.00013019,91.17,-0.00014232,-0.0078779,0.26787
25656,6.9788,5,0.1,0.00042187,4215.8,0.00042312,4253.4,-0.00013283,76.241,-0.00014298,-0.013356,0.26001
25657,7.0707,4.9091,0.1,0.00041871,4184.2,0.00042,4223.3,-0.00013153,79.241,-0.00014208,-0.011152,0.26704
25658,6.9788,5.1818,0.1,0.00042306,4227.6,0.00042409,4258.6,-0.00013436,62.638,-0.0001427,-0.019012,0.25904
25659,7.0707,5.0909,0.1,0.00041982,4195.3,0.00042091,4228.2,-0.00013297,66.524,-0.00014182,-0.01478,0.26612
25660,6.9788,5.3636,0.1,0.0004243,4240,0.0004251,4264,-0.00013597,48.381,-0.00014241,-0.023386,0.25799
25661,7.0707,5.2727,0.1,0.00042099,4207,0.00042187,4233.3,-0.00013448,53.122,-0.00014155,-0.022116,0.26511
25662,6.9788,5.5455,0.1,0.00042559,4252.9,0.00042615,4269.6,-0.00013763,33.553,-0.00014211,-0.053526,0.25684
25663,7.0707,5.4545,0.1,0.00042221,4219.2,0.00042287,4238.7,-0.00013605,39.143,-0.00014127,-0.023668,0.26401
25664,6.9788,5.7273,0.1,0.00042695,4266.5,0.00042725,4275.5,-0.00013938,18.069,-0.00014179,-0.07577,0.25561
25665,7.0707,5.6364,0.1,0.00042348,4231.9,0.00042389,4244.1,-0.00013768,24.636,-0.00014097,-0.082214,0.26282
25666,7.0707,5.8182,0.1,0.00042485,4245.5,0.000425,4250.1,-0.00013941,9.3686,-0.00014067,-0.10901,0.26155
25667,6.9788,5.9091,0.1,0.00042803,4277.4,0.00042811,4279.8,-0.00014083,4.9253,-0.00014151,-0.12447,0.25428
25668,7.1625,0.27273,0.1,0.00042137,4210.8,0.00042164,4218.7,-0.00013772,15.927,-0.00013985,-0.069927,0.26886
25669,7.2543,0.18182,0.1,0.00041924,4189.5,0.00041937,4193.4,-0.00013769,7.8542,-0.00013875,-0.10946,0.27494
25670,7.1625,0.090909,0.1,0.00042235,4220.5,0.00042241,4222.5,-0.00013903,4.0378,-0.00013958,-0.12671,0.26754
25671,7.1625,0.45455,0.1,0.00042011,4198.2,0.00042061,4213.2,-0.0001361,30.23,-0.00014013,-0.048575,0.27009
25672,7.2543,0.36364,0.1,0.00041796,4176.8,0.00041833,4187.7,-0.00013609,21.993,-0.00013902,-0.074769,0.27621
25673,7.1625,0.63636,0.1,0.00041891,4186.2,0.00041964,4208,-0.00013457,43.888,-0.00014041,-0.021198,0.27122
25674,7.2543,0.54545,0.1,0.00041679,4165,0.00041738,4182.6,-0.00013458,35.357,-0.00013929,-0.021367,0.27739
25675,7.1625,0.81818,0.1,0.00041776,4174.7,0.0004187,4202.9,-0.00013309,57.011,-0.00014068,-0.017347,0.27227
25676,7.2543,0.72727,0.1,0.00041566,4153.7,0.00041646,4177.6,-0.00013313,48.227,-0.00013955,-0.020115,0.27848
25677,7.1625,1,0.1,0.00041666,4163.8,0.0004178,4198.1,-0.00013167,69.527,-0.00014093,-0.01228,0.27323
25678,7.2543,0.90909,0.1,0.00041458,4142.9,0.00041557,4172.8,-0.00013174,60.559,-0.0001398,-0.013535,0.27948
25679,7.1625,1.1818,0.1,0.00041563,4153.4,0.00041695,4193.5,-0.00013034,81.334,-0.00014117,-0.0090773,0.27411
25680,7.2543,1.0909,0.1,0.00041355,4132.6,0.00041473,4168.3,-0.00013042,72.256,-0.00014004,-0.010308,0.2804
25681,7.1625,1.3636,0.1,0.00041467,4143.8,0.00041616,4189.2,-0.0001291,92.338,-0.00014139,-0.0063492,0.2749
25682,7.2543,1.2727,0.1,0.00041258,4123,0.00041394,4164,-0.00012918,83.225,-0.00014026,-0.0073838,0.28123
25683,7.1625,1.5455,0.1,0.00041378,4134.9,0.00041543,4185.2,-0.00012796,102.45,-0.00014159,-0.0041322,0.2756
25684,7.2543,1.4545,0.1,0.00041169,4114.1,0.0004132,4160,-0.00012803,93.377,-0.00014046,-0.0050953,0.28197
25685,7.1625,1.7273,0.1,0.00041298,4127,0.00041477,4181.6,-0.00012692,111.59,-0.00014177,-0.0022642,0.27622
25686,7.2543,1.6364,0.1,0.00041088,4106,0.00041253,4156.3,-0.00012698,102.63,-0.00014064,-0.0031574,0.28263
25687,7.1625,1.9091,0.1,0.00041227,4119.9,0.00041418,4178.4,-0.00012601,119.67,-0.00014193,-0.00070271,0.27675
25688,7.2543,1.8182,0.1,0.00041015,4098.7,0.00041193,4153,-0.00012605,110.91,-0.00014081,-0.0015382,0.28321
25689,7.1625,2.0909,0.1,0.00041166,4113.8,0.00041367,4175.6,-0.00012522,126.63,-0.00014207,0.00059066,0.2772
25690,7.2543,2,0.1,0.00040952,4092.4,0.0004114,4150.2,-0.00012523,118.14,-0.00014095,-0.00018582,0.2837
25691,7.1625,2.2727,0.1,0.00041116,4108.7,0.00041325,4173.3,-0.00012457,132.41,-0.00014219,0.0016342,0.27757
25692,7.2543,2.1818,0.1,0.00040898,4087,0.00041095,4147.7,-0.00012453,124.26,-0.00014107,0.00092257,0.28411
25693,7.1625,2.4545,0.1,0.00041076,4104.8,0.00041292,4171.5,-0.00012405,136.96,-0.00014228,0.0024379,0.27786
25694,7.2543,2.3636,0.1,0.00040855,4082.6,0.00041059,4145.7,-0.00012397,129.22,-0.00014117,0.0017995,0.28443
25695,7.1625,2.6364,0.1,0.00041047,4101.9,0.00041268,4170.2,-0.00012368,140.24,-0.00014234,0.0030089,0.27806
25696,7.2543,2.5455,0.1,0.00040822,4079.3,0.00041032,4144.2,-0.00012355,132.98,-0.00014124,0.0024515,0.28468
25697,7.1625,2.8182,0.1,0.0004103,4100.2,0.00041253,4169.4,-0.00012345,142.22,-0.00014238,0.0033511,0.27818
25698,7.2543,2.7273,0.1,0.00040799,4077.1,0.00041013,4143.2,-0.00012326,135.51,-0.00014129,0.0028857,0.28484
25699,7.1625,3,0.1,0.00041024,4099.6,0.00041249,4169.2,-0.00012338,142.88,-0.0001424,0.0034651,0.27823
25700,7.2543,2.9091,0.1,0.00040788,4076,0.00041004,4142.7,-0.00012312,136.78,-0.00014132,0.0031025,0.28492
25701,7.1625,3.1818,0.1,0.0004103,4100.2,0.00041253,4169.4,-0.00012345,142.22,-0.00014238,0.003351,0.27818
25702,7.2543,3.0909,0.1,0.00040788,4076,0.00041004,4142.7,-0.00012312,136.78,-0.00014132,0.0031026,0.28492
25703,7.1625,3.3636,0.1,0.00041047,4101.9,0.00041268,4170.2,-0.00012368,140.24,-0.00014234,0.0030089,0.27806
25704,7.2543,3.2727,0.1,0.00040799,4077.1,0.00041013,4143.2,-0.00012326,135.51,-0.00014129,0.0028856,0.28484
25705,7.1625,3.5455,0.1,0.00041076,4104.8,0.00041292,4171.5,-0.00012405,136.96,-0.00014228,0.0024381,0.27786
25706,7.2543,3.4545,0.1,0.00040822,4079.3,0.00041032,4144.2,-0.00012355,132.98,-0.00014124,0.0024518,0.28468
25707,7.1625,3.7273,0.1,0.00041116,4108.7,0.00041325,4173.3,-0.00012457,132.41,-0.00014219,0.0016345,0.27757
25708,7.2543,3.6364,0.1,0.00040855,4082.6,0.00041059,4145.7,-0.00012397,129.22,-0.00014117,0.0017998,0.28443
25709,7.1625,3.9091,0.1,0.00041166,4113.8,0.00041367,4175.7,-0.00012522,126.63,-0.00014207,0.00059099,0.2772
25710,7.2543,3.8182,0.1,0.00040898,4087,0.00041095,4147.7,-0.00012453,124.26,-0.00014107,0.00092296,0.28411
25711,7.1625,4.0909,0.1,0.00041227,4119.9,0.00041418,4178.4,-0.00012601,119.67,-0.00014193,-0.00070229,0.27675
25712,7.2543,4,0.1,0.00040952,4092.4,0.0004114,4150.2,-0.00012523,118.14,-0.00014095,-0.00018537,0.2837
25713,7.1625,4.2727,0.1,0.00041298,4127,0.00041477,4181.6,-0.00012692,111.59,-0.00014177,-0.0022637,0.27622
25714,7.2543,4.1818,0.1,0.00041015,4098.7,0.00041193,4153,-0.00012605,110.91,-0.00014081,-0.0015377,0.28321
25715,7.1625,4.4545,0.1,0.00041378,4134.9,0.00041543,4185.2,-0.00012796,102.45,-0.00014159,-0.0041316,0.2756
25716,7.2543,4.3636,0.1,0.00041088,4106,0.00041253,4156.3,-0.00012698,102.63,-0.00014064,-0.0031568,0.28263
25717,7.1625,4.6364,0.1,0.00041467,4143.8,0.00041616,4189.2,-0.0001291,92.338,-0.00014139,-0.0063486,0.2749
25718,7.2543,4.5455,0.1,0.00041169,4114.1,0.0004132,4160,-0.00012803,93.377,-0.00014046,-0.0050945,0.28197
25719,7.1625,4.8182,0.1,0.00041563,4153.4,0.00041695,4193.5,-0.00013034,81.334,-0.00014117,-0.0090767,0.27411
25720,7.2543,4.7273,0.1,0.00041258,4123,0.00041394,4164,-0.00012918,83.225,-0.00014026,-0.0073832,0.28123
25721,7.1625,5,0.1,0.00041666,4163.8,0.0004178,4198.1,-0.00013167,69.527,-0.00014093,-0.012279,0.27323
25722,7.2543,4.9091,0.1,0.00041355,4132.6,0.00041473,4168.3,-0.00013042,72.256,-0.00014004,-0.010307,0.2804
25723,7.1625,5.1818,0.1,0.00041776,4174.7,0.0004187,4202.9,-0.00013309,57.011,-0.00014068,-0.017345,0.27227
25724,7.2543,5.0909,0.1,0.00041458,4142.9,0.00041557,4172.8,-0.00013174,60.559,-0.0001398,-0.013533,0.27948
25725,7.1625,5.3636,0.1,0.00041891,4186.2,0.00041964,4208,-0.00013457,43.888,-0.00014041,-0.021198,0.27122
25726,7.2543,5.2727,0.1,0.00041566,4153.7,0.00041646,4177.6,-0.00013313,48.227,-0.00013955,-0.020114,0.27848
25727,7.1625,5.5455,0.1,0.00042011,4198.2,0.00042061,4213.2,-0.0001361,30.23,-0.00014013,-0.048574,0.27009
25728,7.2543,5.4545,0.1,0.00041679,4165,0.00041738,4182.6,-0.00013458,35.357,-0.00013929,-0.021366,0.27739
25729,7.1625,5.7273,0.1,0.00042137,4210.8,0.00042164,4218.7,-0.00013772,15.927,-0.00013985,-0.069925,0.26886
25730,7.2543,5.6364,0.1,0.00041796,4176.8,0.00041833,4187.7,-0.00013609,21.993,-0.00013902,-0.074768,0.27621
25731,7.2543,5.8182,0.1,0.00041924,4189.5,0.00041937,4193.4,-0.00013769,7.8542,-0.00013875,-0.10946,0.27494
25732,7.1625,5.9091,0.1,0.00042235,4220.5,0.00042241,4222.5,-0.00013903,4.0377,-0.00013958,-0.12671,0.26754
25733,7.3462,0.27273,0.1,0.00041583,4155.4,0.00041606,4162.3,-0.00013606,13.912,-0.00013792,-0.064798,0.28239
25734,7.438,0.18182,0.1,0.00041367,4133.8,0.00041378,4137,-0.00013597,6.4217,-0.00013684,-0.11296,0.28863
25735,7.3462,0.090909,0.1,0.0004167,4164.1,0.00041675,4165.6,-0.00013724,3.1975,-0.00013768,-0.13296,0.28109
25736,7.3462,0.45455,0.1,0.00041465,4143.6,0.0004151,4157.1,-0.00013456,27.126,-0.00013818,-0.044024,0.28361
25737,7.438,0.36364,0.1,0.00041247,4121.9,0.0004128,4131.6,-0.00013448,19.518,-0.00013709,-0.067928,0.28989
25738,7.3462,0.63636,0.1,0.00041354,4132.5,0.0004142,4152.2,-0.00013314,39.702,-0.00013843,-0.019195,0.28474
25739,7.438,0.54545,0.1,0.00041138,4111,0.00041192,4126.8,-0.00013309,31.827,-0.00013733,-0.019262,0.29106
25740,7.3462,0.81818,0.1,0.00041247,4121.9,0.00041333,4147.5,-0.00013178,51.779,-0.00013867,-0.015822,0.28579
25741,7.438,0.72727,0.1,0.00041034,4100.5,0.00041106,4122.2,-0.00013176,43.672,-0.00013757,-0.018283,0.29214
25742,7.3462,1,0.1,0.00041146,4111.7,0.0004125,4143,-0.00013048,63.293,-0.00013891,-0.011299,0.28674
25743,7.438,0.90909,0.1,0.00040933,4090.5,0.00041024,4117.7,-0.00013047,55.018,-0.0001378,-0.012398,0.29313
25744,7.3462,1.1818,0.1,0.0004105,4102.2,0.00041171,4138.8,-0.00012925,74.15,-0.00013912,-0.0084504,0.28761
25745,7.438,1.0909,0.1,0.00040838,4081,0.00040946,4113.5,-0.00012926,65.775,-0.00013801,-0.0095418,0.29404
25746,7.3462,1.3636,0.1,0.00040961,4093.3,0.00041098,4134.8,-0.00012811,84.266,-0.00013932,-0.0060174,0.28839
25747,7.438,1.2727,0.1,0.00040749,4072.1,0.00040873,4109.5,-0.00012812,75.859,-0.00013821,-0.0069392,0.29487
25748,7.3462,1.5455,0.1,0.00040879,4085.1,0.0004103,4131.1,-0.00012706,93.558,-0.00013951,-0.0040376,0.28909
25749,7.438,1.4545,0.1,0.00040667,4063.9,0.00040805,4105.8,-0.00012706,85.189,-0.0001384,-0.004901,0.29561
25750,7.3462,1.7273,0.1,0.00040805,4077.7,0.00040969,4127.7,-0.00012611,101.95,-0.00013968,-0.0023667,0.28971
25751,7.438,1.6364,0.1,0.00040592,4056.4,0.00040743,4102.4,-0.0001261,93.689,-0.00013857,-0.0031716,0.29626
25752,7.3462,1.9091,0.1,0.0004074,4071.2,0.00040915,4124.8,-0.00012527,109.37,-0.00013982,-0.00096832,0.29024
25753,7.438,1.8182,0.1,0.00040525,4049.7,0.00040687,4099.4,-0.00012524,101.29,-0.00013872,-0.0017246,0.29683
25754,7.3462,2.0909,0.1,0.00040684,4065.6,0.00040868,4122.2,-0.00012454,115.77,-0.00013995,0.00019124,0.29069
25755,7.438,2,0.1,0.00040466,4043.8,0.00040639,4096.7,-0.00012448,107.93,-0.00013885,-0.00051464,0.29732
25756,7.3462,2.2727,0.1,0.00040637,4060.9,0.00040829,4120.1,-0.00012394,121.07,-0.00014005,0.0011278,0.29106
25757,7.438,2.1818,0.1,0.00040416,4038.8,0.00040598,4094.4,-0.00012385,113.55,-0.00013896,0.00047854,0.29773
25758,7.3462,2.4545,0.1,0.000406,4057.2,0.00040799,4118.4,-0.00012347,125.25,-0.00014014,0.0018494,0.29134
25759,7.438,2.3636,0.1,0.00040376,4034.8,0.00040564,4092.6,-0.00012333,118.11,-0.00013905,0.0012647,0.29805
25760,7.3462,2.6364,0.1,0.00040574,4054.6,0.00040777,4117.2,-0.00012313,128.26,-0.0001402,0.0023623,0.29154
25761,7.438,2.5455,0.1,0.00040346,4031.8,0.00040539,4091.2,-0.00012294,121.56,-0.00013912,0.0018495,0.2983
25762,7.3462,2.8182,0.1,0.00040558,4053,0.00040763,4116.5,-0.00012292,130.07,-0.00014023,0.00267,0.29167
25763,7.438,2.7273,0.1,0.00040325,4029.7,0.00040522,4090.3,-0.00012268,123.88,-0.00013916,0.0022391,0.29846
25764,7.3462,3,0.1,0.00040553,4052.5,0.00040759,4116.2,-0.00012285,130.68,-0.00014024,0.0027725,0.29171
25765,7.438,2.9091,0.1,0.00040315,4028.7,0.00040513,4089.8,-0.00012254,125.04,-0.00013918,0.002434,0.29854
25766,7.3462,3.1818,0.1,0.00040558,4053,0.00040763,4116.5,-0.00012292,130.07,-0.00014023,0.0026699,0.29167
25767,7.438,3.0909,0.1,0.00040315,4028.7,0.00040513,4089.8,-0.00012254,125.04,-0.00013918,0.0024339,0.29854
25768,7.3462,3.3636,0.1,0.00040574,4054.6,0.00040777,4117.2,-0.00012313,128.26,-0.0001402,0.0023626,0.29154
25769,7.438,3.2727,0.1,0.00040325,4029.7,0.00040522,4090.3,-0.00012268,123.88,-0.00013916,0.0022392,0.29846
25770,7.3462,3.5455,0.1,0.000406,4057.2,0.00040799,4118.4,-0.00012347,125.25,-0.00014014,0.0018499,0.29134
25771,7.438,3.4545,0.1,0.00040346,4031.8,0.00040539,4091.2,-0.00012294,121.56,-0.00013912,0.0018499,0.2983
25772,7.3462,3.7273,0.1,0.00040637,4060.9,0.00040829,4120.1,-0.00012394,121.07,-0.00014005,0.0011282,0.29106
25773,7.438,3.6364,0.1,0.00040376,4034.8,0.00040564,4092.6,-0.00012333,118.11,-0.00013905,0.0012649,0.29805
25774,7.3462,3.9091,0.1,0.00040684,4065.6,0.00040868,4122.2,-0.00012454,115.77,-0.00013995,0.00019175,0.29069
25775,7.438,3.8182,0.1,0.00040416,4038.8,0.00040598,4094.4,-0.00012385,113.55,-0.00013896,0.00047893,0.29773
25776,7.3462,4.0909,0.1,0.0004074,4071.2,0.00040915,4124.8,-0.00012527,109.37,-0.00013982,-0.00096781,0.29024
25777,7.438,4,0.1,0.00040466,4043.8,0.00040639,4096.7,-0.00012448,107.93,-0.00013885,-0.00051401,0.29732
25778,7.3462,4.2727,0.1,0.00040805,4077.7,0.00040969,4127.7,-0.00012611,101.95,-0.00013968,-0.0023661,0.28971
25779,7.438,4.1818,0.1,0.00040525,4049.7,0.00040687,4099.4,-0.00012524,101.29,-0.00013872,-0.001724,0.29683
25780,7.3462,4.4545,0.1,0.00040879,4085.1,0.0004103,4131.1,-0.00012706,93.558,-0.00013951,-0.0040368,0.28909
25781,7.438,4.3636,0.1,0.00040592,4056.4,0.00040743,4102.4,-0.0001261,93.689,-0.00013857,-0.0031711,0.29626
25782,7.3462,4.6364,0.1,0.00040961,4093.3,0.00041098,4134.8,-0.00012811,84.266,-0.00013932,-0.0060165,0.28839
25783,7.438,4.5455,0.1,0.00040667,4063.9,0.00040805,4105.8,-0.00012706,85.189,-0.0001384,-0.0049003,0.29561
25784,7.3462,4.8182,0.1,0.0004105,4102.2,0.00041171,4138.8,-0.00012925,74.15,-0.00013912,-0.0084497,0.28761
25785,7.438,4.7273,0.1,0.00040749,4072.1,0.00040873,4109.5,-0.00012812,75.859,-0.00013821,-0.0069384,0.29487
25786,7.3462,5,0.1,0.00041146,4111.7,0.0004125,4143,-0.00013048,63.293,-0.00013891,-0.011298,0.28674
25787,7.438,4.9091,0.1,0.00040838,4081,0.00040946,4113.5,-0.00012926,65.775,-0.00013801,-0.0095409,0.29404
25788,7.3462,5.1818,0.1,0.00041247,4121.9,0.00041333,4147.5,-0.00013178,51.779,-0.00013867,-0.01582,0.28579
25789,7.438,5.0909,0.1,0.00040933,4090.5,0.00041024,4117.7,-0.00013047,55.018,-0.0001378,-0.012397,0.29313
25790,7.3462,5.3636,0.1,0.00041354,4132.5,0.0004142,4152.2,-0.00013314,39.702,-0.00013843,-0.019194,0.28474
25791,7.438,5.2727,0.1,0.00041034,4100.5,0.00041106,4122.2,-0.00013176,43.672,-0.00013757,-0.018282,0.29214
25792,7.3462,5.5455,0.1,0.00041465,4143.6,0.0004151,4157.1,-0.00013456,27.126,-0.00013818,-0.044023,0.28361
25793,7.438,5.4545,0.1,0.00041138,4111,0.00041192,4126.8,-0.00013309,31.827,-0.00013733,-0.019261,0.29106
25794,7.3462,5.7273,0.1,0.00041583,4155.4,0.00041606,4162.3,-0.00013606,13.912,-0.00013792,-0.064797,0.28239
25795,7.438,5.6364,0.1,0.00041247,4121.9,0.0004128,4131.6,-0.00013448,19.518,-0.00013709,-0.067927,0.28989
25796,7.438,5.8182,0.1,0.00041367,4133.8,0.00041378,4137,-0.00013597,6.4217,-0.00013684,-0.11295,0.28863
25797,7.3462,5.9091,0.1,0.0004167,4164.1,0.00041675,4165.6,-0.00013724,3.1975,-0.00013768,-0.13296,0.28109
25798,7.5298,0.27273,0.1,0.00041031,4100.3,0.00041051,4106.2,-0.00013439,12.017,-0.000136,-0.060371,0.29621
25799,7.6216,0.18182,0.1,0.00040813,4078.5,0.00040821,4080.9,-0.00013425,5.0702,-0.00013494,-0.121,0.30259
25800,7.5298,0.090909,0.1,0.00041108,4108,0.00041112,4109.1,-0.00013545,2.4066,-0.00013579,-0.14613,0.29491
25801,7.5298,0.45455,0.1,0.00040921,4089.3,0.00040961,4101.3,-0.00013301,24.227,-0.00013624,-0.039843,0.29742
25802,7.6216,0.36364,0.1,0.00040701,4067.3,0.0004073,4075.8,-0.00013287,17.201,-0.00013517,-0.061642,0.30384
25803,7.5298,0.63636,0.1,0.00040818,4079,0.00040878,4096.8,-0.0001317,35.804,-0.00013647,-0.017364,0.29854
25804,7.6216,0.54545,0.1,0.000406,4057.2,0.00040648,4071.4,-0.00013159,28.536,-0.00013539,-0.017336,0.305
25805,7.5298,0.81818,0.1,0.0004072,4069.2,0.00040797,4092.4,-0.00013045,46.916,-0.00013669,-0.014429,0.29958
25806,7.6216,0.72727,0.1,0.00040503,4047.5,0.00040568,4067,-0.00013036,39.434,-0.00013561,-0.016606,0.30607
25807,7.5298,1,0.1,0.00040626,4059.8,0.0004072,4088.2,-0.00012925,57.505,-0.0001369,-0.010408,0.30053
25808,7.6216,0.90909,0.1,0.0004041,4038.2,0.00040492,4062.9,-0.00012918,49.87,-0.00013582,-0.011362,0.30706
25809,7.5298,1.1818,0.1,0.00040537,4050.9,0.00040648,4084.2,-0.00012812,67.487,-0.0001371,-0.0078857,0.30139
25810,7.6216,1.0909,0.1,0.00040322,4029.4,0.0004042,4059,-0.00012806,59.76,-0.00013601,-0.0088467,0.30796
25811,7.5298,1.3636,0.1,0.00040455,4042.7,0.0004058,4080.5,-0.00012707,76.785,-0.00013729,-0.0057238,0.30217
25812,7.6216,1.2727,0.1,0.0004024,4021.2,0.00040353,4055.2,-0.00012701,69.029,-0.0001362,-0.0065404,0.30878
25813,7.5298,1.5455,0.1,0.00040379,4035.1,0.00040518,4077.1,-0.0001261,85.322,-0.00013746,-0.0039621,0.30286
25814,7.6216,1.4545,0.1,0.00040163,4013.6,0.0004029,4051.8,-0.00012604,77.601,-0.00013636,-0.0047324,0.30951
25815,7.5298,1.7273,0.1,0.00040311,4028.3,0.00040461,4074,-0.00012523,93.031,-0.00013761,-0.0024726,0.30347
25816,7.6216,1.6364,0.1,0.00040094,4006.6,0.00040232,4048.7,-0.00012515,85.41,-0.00013652,-0.0031948,0.31017
25817,7.5298,1.9091,0.1,0.00040251,4022.3,0.00040411,4071.3,-0.00012445,99.848,-0.00013774,-0.0012243,0.304
25818,7.6216,1.8182,0.1,0.00040032,4000.4,0.00040181,4045.8,-0.00012436,92.39,-0.00013666,-0.001906,0.31073
25819,7.5298,2.0909,0.1,0.00040199,4017.1,0.00040368,4068.9,-0.00012379,105.72,-0.00013786,-0.00018759,0.30445
25820,7.6216,2,0.1,0.00039978,3995,0.00040136,4043.4,-0.00012367,98.485,-0.00013678,-0.00082683,0.31122
25821,7.5298,2.2727,0.1,0.00040155,4012.8,0.00040332,4066.9,-0.00012323,110.59,-0.00013795,0.00065058,0.30481
25822,7.6216,2.1818,0.1,0.00039932,3990.4,0.00040098,4041.3,-0.00012308,103.64,-0.00013688,6.0233e-05,0.31162
25823,7.5298,2.4545,0.1,0.00040122,4009.4,0.00040304,4065.4,-0.0001228,114.42,-0.00013803,0.0012968,0.3051
25824,7.6216,2.3636,0.1,0.00039895,3986.7,0.00040067,4039.6,-0.00012261,107.83,-0.00013696,0.00076304,0.31195
25825,7.5298,2.6364,0.1,0.00040097,4006.9,0.00040284,4064.2,-0.00012249,117.18,-0.00013808,0.0017563,0.3053
25826,7.6216,2.5455,0.1,0.00039867,3983.9,0.00040044,4038.3,-0.00012225,110.99,-0.00013702,0.0012862,0.31219
25827,7.5298,2.8182,0.1,0.00040082,4005.5,0.00040271,4063.6,-0.0001223,118.84,-0.00013811,0.002032,0.30542
25828,7.6216,2.7273,0.1,0.00039848,3982,0.00040028,4037.4,-0.00012201,113.12,-0.00013706,0.0016347,0.31235
25829,7.5298,3,0.1,0.00040077,4005,0.00040267,4063.3,-0.00012223,119.4,-0.00013813,0.002124,0.30546
25830,7.6216,2.9091,0.1,0.00039838,3981.1,0.0004002,4037,-0.00012188,114.19,-0.00013708,0.0018093,0.31243
25831,7.5298,3.1818,0.1,0.00040082,4005.5,0.00040271,4063.6,-0.0001223,118.84,-0.00013811,0.0020322,0.30542
25832,7.6216,3.0909,0.1,0.00039838,3981.1,0.0004002,4037,-0.00012188,114.19,-0.00013708,0.0018093,0.31243
25833,7.5298,3.3636,0.1,0.00040097,4006.9,0.00040284,4064.2,-0.00012249,117.18,-0.00013808,0.0017566,0.3053
25834,7.6216,3.2727,0.1,0.00039848,3982,0.00040028,4037.4,-0.00012201,113.12,-0.00013706,0.0016351,0.31235
25835,7.5298,3.5455,0.1,0.00040122,4009.4,0.00040304,4065.4,-0.0001228,114.42,-0.00013803,0.001297,0.3051
25836,7.6216,3.4545,0.1,0.00039867,3983.9,0.00040044,4038.3,-0.00012225,110.99,-0.00013702,0.0012863,0.31219
25837,7.5298,3.7273,0.1,0.00040155,4012.8,0.00040332,4066.9,-0.00012323,110.59,-0.00013795,0.00065079,0.30481
25838,7.6216,3.6364,0.1,0.00039895,3986.7,0.00040067,4039.6,-0.00012261,107.83,-0.00013696,0.00076334,0.31195
25839,7.5298,3.9091,0.1,0.00040199,4017.1,0.00040368,4068.9,-0.00012379,105.72,-0.00013786,-0.00018708,0.30445
25840,7.6216,3.8182,0.1,0.00039932,3990.4,0.00040098,4041.3,-0.00012308,103.64,-0.00013688,6.0621e-05,0.31162
25841,7.5298,4.0909,0.1,0.00040251,4022.3,0.00040411,4071.3,-0.00012445,99.848,-0.00013774,-0.0012236,0.304
25842,7.6216,4,0.1,0.00039978,3995,0.00040136,4043.4,-0.00012367,98.485,-0.00013678,-0.00082623,0.31122
25843,7.5298,4.2727,0.1,0.00040311,4028.3,0.00040461,4074,-0.00012523,93.031,-0.00013761,-0.002472,0.30347
25844,7.6216,4.1818,0.1,0.00040032,4000.4,0.00040181,4045.8,-0.00012436,92.39,-0.00013666,-0.0019056,0.31073
25845,7.5298,4.4545,0.1,0.00040379,4035.1,0.00040518,4077.1,-0.0001261,85.322,-0.00013746,-0.0039616,0.30286
25846,7.6216,4.3636,0.1,0.00040094,4006.6,0.00040232,4048.7,-0.00012515,85.41,-0.00013652,-0.0031942,0.31017
25847,7.5298,4.6364,0.1,0.00040455,4042.7,0.0004058,4080.5,-0.00012707,76.785,-0.00013729,-0.0057231,0.30217
25848,7.6216,4.5455,0.1,0.00040163,4013.6,0.0004029,4051.8,-0.00012604,77.601,-0.00013636,-0.0047318,0.30951
25849,7.5298,4.8182,0.1,0.00040537,4050.9,0.00040648,4084.2,-0.00012812,67.487,-0.0001371,-0.0078847,0.30139
25850,7.6216,4.7273,0.1,0.0004024,4021.2,0.00040353,4055.2,-0.00012701,69.029,-0.0001362,-0.0065395,0.30878
25851,7.5298,5,0.1,0.00040626,4059.8,0.0004072,4088.2,-0.00012925,57.505,-0.0001369,-0.010406,0.30053
25852,7.6216,4.9091,0.1,0.00040322,4029.4,0.0004042,4059,-0.00012806,59.76,-0.00013601,-0.0088461,0.30796
25853,7.5298,5.1818,0.1,0.0004072,4069.2,0.00040797,4092.4,-0.00013045,46.916,-0.00013669,-0.014428,0.29958
25854,7.6216,5.0909,0.1,0.0004041,4038.2,0.00040492,4062.9,-0.00012918,49.87,-0.00013582,-0.011361,0.30706
25855,7.5298,5.3636,0.1,0.00040818,4079,0.00040878,4096.8,-0.0001317,35.804,-0.00013647,-0.017363,0.29854
25856,7.6216,5.2727,0.1,0.00040503,4047.5,0.00040568,4067,-0.00013036,39.434,-0.00013561,-0.016605,0.30607
25857,7.5298,5.5455,0.1,0.00040921,4089.3,0.00040961,4101.3,-0.00013301,24.227,-0.00013624,-0.039842,0.29742
25858,7.6216,5.4545,0.1,0.000406,4057.2,0.00040648,4071.4,-0.00013159,28.536,-0.00013539,-0.017336,0.305
25859,7.5298,5.7273,0.1,0.00041031,4100.3,0.00041051,4106.2,-0.00013439,12.017,-0.000136,-0.06037,0.29621
25860,7.6216,5.6364,0.1,0.00040701,4067.3,0.0004073,4075.8,-0.00013287,17.201,-0.00013517,-0.06164,0.30384
25861,7.6216,5.8182,0.1,0.00040813,4078.5,0.00040821,4081,-0.00013425,5.0702,-0.00013494,-0.121,0.30259
25862,7.5298,5.9091,0.1,0.00041108,4108,0.00041112,4109.1,-0.00013545,2.4066,-0.00013579,-0.14613,0.29491
25863,7.7135,0.27273,0.1,0.00040482,4045.4,0.00040499,4050.5,-0.00013273,10.237,-0.0001341,-0.056652,0.3103
25864,7.8053,0.18182,0.1,0.00040262,4023.4,0.00040268,4025.3,-0.00013254,3.8004,-0.00013306,-0.13686,0.31682
25865,7.7135,0.090909,0.1,0.0004055,4052.2,0.00040553,4053,-0.00013367,1.6709,-0.00013391,-0.17324,0.30902
25866,7.7135,0.45455,0.1,0.00040379,4035.2,0.00040416,4045.9,-0.00013145,21.519,-0.00013432,-0.035996,0.3115
25867,7.8053,0.36364,0.1,0.00040157,4012.9,0.00040182,4020.4,-0.00013126,15.034,-0.00013327,-0.05586,0.31806
25868,7.7135,0.63636,0.1,0.00040284,4025.6,0.00040338,4041.6,-0.00013025,32.174,-0.00013453,-0.015686,0.31262
25869,7.8053,0.54545,0.1,0.00040063,4003.5,0.00040106,4016.2,-0.00013008,25.467,-0.00013347,-0.01557,0.31921
25870,7.7135,0.81818,0.1,0.00040193,4016.5,0.00040263,4037.5,-0.00012909,42.395,-0.00013473,-0.013156,0.31364
25871,7.8053,0.72727,0.1,0.00039973,3994.6,0.00040032,4012.2,-0.00012894,35.492,-0.00013367,-0.015067,0.32028
25872,7.7135,1,0.1,0.00040106,4007.8,0.00040192,4033.6,-0.00012799,52.131,-0.00013492,-0.0095953,0.31458
25873,7.8053,0.90909,0.1,0.00039887,3986,0.00039962,4008.3,-0.00012785,45.087,-0.00013386,-0.010415,0.32126
25874,7.7135,1.1818,0.1,0.00040024,3999.7,0.00040125,4030,-0.00012695,61.307,-0.00013511,-0.0073741,0.31544
25875,7.8053,1.0909,0.1,0.00039806,3977.8,0.00039895,4004.6,-0.00012682,54.178,-0.00013403,-0.0082137,0.32215
25876,7.7135,1.3636,0.1,0.00039948,3992,0.00040062,4026.5,-0.00012598,69.85,-0.00013527,-0.0054622,0.31622
25877,7.8053,1.2727,0.1,0.0003973,3970.2,0.00039833,4001.2,-0.00012586,62.695,-0.0001342,-0.0061801,0.32297
25878,7.7135,1.5455,0.1,0.00039878,3985.1,0.00040005,4023.3,-0.00012509,77.693,-0.00013543,-0.0039013,0.31691
25879,7.8053,1.4545,0.1,0.00039659,3963.2,0.00039774,3998,-0.00012496,70.57,-0.00013436,-0.004584,0.32369
25880,7.7135,1.7273,0.1,0.00039815,3978.7,0.00039952,4020.5,-0.00012428,84.772,-0.00013557,-0.0025784,0.31751
25881,7.8053,1.6364,0.1,0.00039595,3956.8,0.00039722,3995.1,-0.00012415,77.741,-0.0001345,-0.0032227,0.32434
25882,7.7135,1.9091,0.1,0.00039759,3973.2,0.00039906,4017.9,-0.00012357,91.031,-0.00013569,-0.0014678,0.31804
25883,7.8053,1.8182,0.1,0.00039538,3951,0.00039674,3992.4,-0.00012342,84.15,-0.00013462,-0.0020794,0.32491
25884,7.7135,2.0909,0.1,0.00039711,3968.4,0.00039866,4015.7,-0.00012296,96.417,-0.00013579,-0.00054422,0.31848
25885,7.8053,2,0.1,0.00039488,3946,0.00039633,3990.1,-0.00012279,89.744,-0.00013473,-0.0011203,0.32539
25886,7.7135,2.2727,0.1,0.00039671,3964.4,0.00039833,4013.9,-0.00012245,100.89,-0.00013588,0.00020346,0.31885
25887,7.8053,2.1818,0.1,0.00039445,3941.8,0.00039598,3988.2,-0.00012225,94.48,-0.00013482,-0.00033073,0.32579
25888,7.7135,2.4545,0.1,0.0003964,3961.3,0.00039807,4012.4,-0.00012205,104.4,-0.00013595,0.00078048,0.31913
25889,7.8053,2.3636,0.1,0.00039411,3938.4,0.00039569,3986.6,-0.00012181,98.316,-0.0001349,0.00029534,0.32611
25890,7.7135,2.6364,0.1,0.00039617,3959,0.00039789,4011.4,-0.00012177,106.94,-0.000136,0.0011909,0.31933
25891,7.8053,2.5455,0.1,0.00039385,3935.8,0.00039548,3985.4,-0.00012148,101.22,-0.00013495,0.00076184,0.32635
25892,7.7135,2.8182,0.1,0.00039604,3957.7,0.00039777,4010.8,-0.00012159,108.46,-0.00013603,0.0014373,0.31945
25893,7.8053,2.7273,0.1,0.00039368,3934,0.00039533,3984.6,-0.00012126,103.17,-0.00013499,0.0010728,0.32651
25894,7.7135,3,0.1,0.00039599,3957.2,0.00039773,4010.6,-0.00012153,108.98,-0.00013604,0.0015196,0.31949
25895,7.8053,2.9091,0.1,0.00039359,3933.2,0.00039526,3984.2,-0.00012115,104.15,-0.00013501,0.0012287,0.32659
25896,7.7135,3.1818,0.1,0.00039604,3957.7,0.00039777,4010.8,-0.00012159,108.46,-0.00013603,0.0014375,0.31945
25897,7.8053,3.0909,0.1,0.00039359,3933.2,0.00039526,3984.2,-0.00012115,104.15,-0.00013501,0.0012287,0.32659
25898,7.7135,3.3636,0.1,0.00039617,3959,0.00039789,4011.4,-0.00012177,106.94,-0.000136,0.0011912,0.31933
25899,7.8053,3.2727,0.1,0.00039368,3934,0.00039533,3984.6,-0.00012126,103.17,-0.00013499,0.001073,0.32651
25900,7.7135,3.5455,0.1,0.0003964,3961.3,0.00039807,4012.4,-0.00012205,104.4,-0.00013595,0.00078078,0.31913
25901,7.8053,3.4545,0.1,0.00039385,3935.8,0.00039548,3985.4,-0.00012148,101.22,-0.00013495,0.00076202,0.32635
25902,7.7135,3.7273,0.1,0.00039671,3964.4,0.00039833,4013.9,-0.00012245,100.89,-0.00013588,0.00020394,0.31885
25903,7.8053,3.6364,0.1,0.00039411,3938.4,0.00039569,3986.6,-0.00012181,98.316,-0.0001349,0.00029585,0.32611
25904,7.7135,3.9091,0.1,0.00039711,3968.4,0.00039866,4015.7,-0.00012296,96.417,-0.00013579,-0.00054374,0.31848
25905,7.8053,3.8182,0.1,0.00039445,3941.8,0.00039598,3988.2,-0.00012225,94.48,-0.00013482,-0.00033037,0.32579
25906,7.7135,4.0909,0.1,0.00039759,3973.2,0.00039906,4017.9,-0.00012357,91.031,-0.00013569,-0.0014674,0.31804
25907,7.8053,4,0.1,0.00039488,3946,0.00039633,3990.1,-0.00012279,89.744,-0.00013473,-0.0011198,0.32539
25908,7.7135,4.2727,0.1,0.00039815,3978.7,0.00039952,4020.5,-0.00012428,84.772,-0.00013557,-0.002578,0.31751
25909,7.8053,4.1818,0.1,0.00039538,3951,0.00039674,3992.4,-0.00012342,84.15,-0.00013462,-0.002079,0.32491
25910,7.7135,4.4545,0.1,0.00039878,3985.1,0.00040005,4023.3,-0.00012509,77.693,-0.00013543,-0.0039006,0.31691
25911,7.8053,4.3636,0.1,0.00039595,3956.8,0.00039722,3995.1,-0.00012415,77.741,-0.0001345,-0.0032219,0.32434
25912,7.7135,4.6364,0.1,0.00039948,3992,0.00040062,4026.5,-0.00012598,69.85,-0.00013527,-0.0054615,0.31622
25913,7.8053,4.5455,0.1,0.00039659,3963.2,0.00039774,3998,-0.00012496,70.57,-0.00013436,-0.0045835,0.32369
25914,7.7135,4.8182,0.1,0.00040024,3999.7,0.00040125,4030,-0.00012695,61.307,-0.00013511,-0.0073736,0.31544
25915,7.8053,4.7273,0.1,0.0003973,3970.2,0.00039833,4001.2,-0.00012586,62.695,-0.0001342,-0.0061792,0.32297
25916,7.7135,5,0.1,0.00040106,4007.8,0.00040192,4033.6,-0.00012799,52.131,-0.00013492,-0.0095944,0.31458
25917,7.8053,4.9091,0.1,0.00039806,3977.8,0.00039895,4004.6,-0.00012682,54.178,-0.00013403,-0.0082131,0.32215
25918,7.7135,5.1818,0.1,0.00040193,4016.5,0.00040263,4037.5,-0.00012909,42.395,-0.00013473,-0.013155,0.31364
25919,7.8053,5.0909,0.1,0.00039887,3986,0.00039962,4008.3,-0.00012785,45.087,-0.00013386,-0.010414,0.32126
25920,7.7135,5.3636,0.1,0.00040284,4025.6,0.00040338,4041.6,-0.00013025,32.174,-0.00013453,-0.015686,0.31262
25921,7.8053,5.2727,0.1,0.00039973,3994.6,0.00040032,4012.2,-0.00012894,35.492,-0.00013367,-0.015067,0.32028
25922,7.7135,5.5455,0.1,0.00040379,4035.2,0.00040416,4045.9,-0.00013145,21.519,-0.00013432,-0.035995,0.3115
25923,7.8053,5.4545,0.1,0.00040063,4003.5,0.00040106,4016.2,-0.00013008,25.467,-0.00013347,-0.015569,0.31921
25924,7.7135,5.7273,0.1,0.00040482,4045.4,0.00040499,4050.5,-0.00013273,10.237,-0.0001341,-0.05665,0.3103
25925,7.8053,5.6364,0.1,0.00040157,4012.9,0.00040182,4020.4,-0.00013126,15.034,-0.00013327,-0.055859,0.31806
25926,7.8053,5.8182,0.1,0.00040262,4023.4,0.00040268,4025.3,-0.00013254,3.8004,-0.00013306,-0.13686,0.31682
25927,7.7135,5.9091,0.1,0.0004055,4052.2,0.00040553,4053,-0.00013367,1.6709,-0.00013391,-0.17324,0.30902
25928,7.8971,0.27273,0.1,0.00039936,3990.8,0.0003995,3995.1,-0.00013107,8.5658,-0.00013222,-0.053695,0.32467
25929,7.9889,0.18182,0.1,0.00039714,3968.7,0.00039718,3969.9,-0.00013083,2.6175,-0.0001312,-0.1689,0.33133
25930,7.8971,0.090909,0.1,0.00039996,3996.8,0.00039997,3997.2,-0.00013189,1.0096,-0.00013206,-0.23472,0.32339
25931,7.8971,0.45455,0.1,0.0003984,3981.3,0.00039872,3990.7,-0.00012988,18.992,-0.00013241,-0.032451,0.32586
25932,7.9889,0.36364,0.1,0.00039615,3958.8,0.00039637,3965.2,-0.00012964,13.006,-0.00013138,-0.050546,0.33256
25933,7.8971,0.63636,0.1,0.00039752,3972.4,0.000398,3986.8,-0.00012877,28.795,-0.00013261,-0.014146,0.32696
25934,7.9889,0.54545,0.1,0.00039528,3950.1,0.00039566,3961.3,-0.00012855,22.607,-0.00013156,-0.013951,0.3337
25935,7.8971,0.81818,0.1,0.00039667,3964,0.00039731,3983,-0.00012771,38.193,-0.00013279,-0.011988,0.32798
25936,7.9889,0.72727,0.1,0.00039445,3941.8,0.00039498,3957.6,-0.00012751,31.825,-0.00013174,-0.013659,0.33475
25937,7.8971,1,0.1,0.00039587,3956,0.00039665,3979.3,-0.00012669,47.142,-0.00013297,-0.0088532,0.32891
25938,7.9889,0.90909,0.1,0.00039365,3933.8,0.00039433,3954,-0.0001265,40.644,-0.00013191,-0.0095533,0.33573
25939,7.8971,1.1818,0.1,0.00039511,3948.4,0.00039603,3975.9,-0.00012573,55.573,-0.00013313,-0.0069088,0.32977
25940,7.9889,1.0909,0.1,0.0003929,3926.3,0.00039371,3950.6,-0.00012556,48.997,-0.00013208,-0.0076409,0.33661
25941,7.8971,1.3636,0.1,0.00039441,3941.3,0.00039545,3972.7,-0.00012484,63.421,-0.00013328,-0.0052265,0.33053
25942,7.9889,1.2727,0.1,0.0003922,3919.2,0.00039313,3947.3,-0.00012467,56.821,-0.00013223,-0.0058578,0.33742
25943,7.8971,1.5455,0.1,0.00039376,3934.9,0.00039491,3969.7,-0.00012402,70.623,-0.00013342,-0.0038501,0.33122
25944,7.9889,1.4545,0.1,0.00039154,3912.7,0.00039259,3944.4,-0.00012384,64.052,-0.00013237,-0.0044567,0.33814
25945,7.8971,1.7273,0.1,0.00039318,3929.1,0.00039443,3967,-0.00012329,77.123,-0.00013355,-0.0026805,0.33182
25946,7.9889,1.6364,0.1,0.00039095,3906.8,0.0003921,3941.6,-0.0001231,70.636,-0.0001325,-0.0032573,0.33879
25947,7.8971,1.9091,0.1,0.00039266,3923.9,0.00039401,3964.7,-0.00012263,82.868,-0.00013366,-0.0016965,0.33234
25948,7.9889,1.8182,0.1,0.00039042,3901.5,0.00039167,3939.2,-0.00012243,76.518,-0.00013261,-0.0022478,0.33935
25949,7.8971,2.0909,0.1,0.00039222,3919.5,0.00039364,3962.6,-0.00012207,87.811,-0.00013376,-0.00087656,0.33278
25950,7.9889,2,0.1,0.00038996,3896.9,0.00039128,3937.1,-0.00012184,81.653,-0.00013271,-0.001399,0.33983
25951,7.8971,2.2727,0.1,0.00039185,3915.8,0.00039333,3960.9,-0.0001216,91.913,-0.00013384,-0.00021208,0.33315
25952,7.9889,2.1818,0.1,0.00038957,3893,0.00039096,3935.3,-0.00012135,85.997,-0.00013279,-0.00069891,0.34023
25953,7.8971,2.4545,0.1,0.00039156,3912.9,0.00039309,3959.6,-0.00012124,95.138,-0.0001339,0.00030115,0.33342
25954,7.9889,2.3636,0.1,0.00038925,3889.8,0.0003907,3933.8,-0.00012095,89.516,-0.00013286,-0.00014319,0.34054
25955,7.8971,2.6364,0.1,0.00039135,3910.8,0.00039292,3958.6,-0.00012097,97.462,-0.00013394,0.00066669,0.33362
25956,7.9889,2.5455,0.1,0.00038901,3887.4,0.0003905,3932.7,-0.00012064,92.182,-0.00013291,0.00027118,0.34078
25957,7.8971,2.8182,0.1,0.00039123,3909.6,0.00039281,3958.1,-0.00012081,98.864,-0.00013397,0.00088634,0.33374
25958,7.9889,2.7273,0.1,0.00038885,3885.8,0.00039036,3932,-0.00012044,93.971,-0.00013295,0.00054762,0.34094
25959,7.8971,3,0.1,0.00039118,3909.1,0.00039278,3957.9,-0.00012076,99.332,-0.00013398,0.00095971,0.33378
25960,7.9889,2.9091,0.1,0.00038877,3885,0.0003903,3931.6,-0.00012034,94.869,-0.00013296,0.00068645,0.34102
25961,7.8971,3.1818,0.1,0.00039123,3909.6,0.00039281,3958.1,-0.00012081,98.864,-0.00013397,0.00088637,0.33374
25962,7.9889,3.0909,0.1,0.00038877,3885,0.0003903,3931.6,-0.00012034,94.869,-0.00013296,0.00068651,0.34102
25963,7.8971,3.3636,0.1,0.00039135,3910.8,0.00039292,3958.6,-0.00012097,97.462,-0.00013394,0.00066684,0.33362
25964,7.9889,3.2727,0.1,0.00038885,3885.8,0.00039036,3932,-0.00012044,93.971,-0.00013295,0.0005478,0.34094
25965,7.8971,3.5455,0.1,0.00039156,3912.9,0.00039309,3959.6,-0.00012124,95.138,-0.0001339,0.00030153,0.33342
25966,7.9889,3.4545,0.1,0.00038901,3887.4,0.0003905,3932.7,-0.00012064,92.182,-0.00013291,0.00027133,0.34078
25967,7.8971,3.7273,0.1,0.00039185,3915.8,0.00039333,3960.9,-0.0001216,91.913,-0.00013384,-0.0002117,0.33315
25968,7.9889,3.6364,0.1,0.00038925,3889.8,0.0003907,3933.8,-0.00012095,89.516,-0.00013286,-0.0001428,0.34054
25969,7.8971,3.9091,0.1,0.00039222,3919.5,0.00039364,3962.6,-0.00012207,87.811,-0.00013376,-0.00087617,0.33278
25970,7.9889,3.8182,0.1,0.00038957,3893,0.00039096,3935.3,-0.00012135,85.997,-0.00013279,-0.00069867,0.34023
25971,7.8971,4.0909,0.1,0.00039266,3923.9,0.00039401,3964.7,-0.00012263,82.868,-0.00013366,-0.0016959,0.33234
25972,7.9889,4,0.1,0.00038996,3896.9,0.00039128,3937.1,-0.00012184,81.653,-0.00013271,-0.0013985,0.33983
25973,7.8971,4.2727,0.1,0.00039318,3929.1,0.00039443,3967,-0.00012329,77.123,-0.00013355,-0.0026798,0.33182
25974,7.9889,4.1818,0.1,0.00039042,3901.5,0.00039167,3939.2,-0.00012243,76.518,-0.00013261,-0.0022472,0.33935
25975,7.8971,4.4545,0.1,0.00039376,3934.9,0.00039491,3969.7,-0.00012402,70.623,-0.00013342,-0.0038495,0.33122
25976,7.9889,4.3636,0.1,0.00039095,3906.8,0.0003921,3941.6,-0.0001231,70.636,-0.0001325,-0.0032566,0.33879
25977,7.8971,4.6364,0.1,0.00039441,3941.3,0.00039545,3972.7,-0.00012484,63.421,-0.00013328,-0.0052258,0.33053
25978,7.9889,4.5455,0.1,0.00039154,3912.7,0.00039259,3944.4,-0.00012384,64.052,-0.00013237,-0.0044562,0.33814
25979,7.8971,4.8182,0.1,0.00039511,3948.4,0.00039603,3975.9,-0.00012573,55.573,-0.00013313,-0.0069078,0.32977
25980,7.9889,4.7273,0.1,0.0003922,3919.2,0.00039313,3947.3,-0.00012467,56.821,-0.00013223,-0.0058571,0.33742
25981,7.8971,5,0.1,0.00039587,3956,0.00039665,3979.3,-0.00012669,47.142,-0.00013297,-0.008852,0.32891
25982,7.9889,4.9091,0.1,0.0003929,3926.3,0.00039371,3950.6,-0.00012556,48.997,-0.00013208,-0.0076402,0.33661
25983,7.8971,5.1818,0.1,0.00039667,3964,0.00039731,3983,-0.00012771,38.192,-0.00013279,-0.011987,0.32798
25984,7.9889,5.0909,0.1,0.00039365,3933.8,0.00039433,3954,-0.0001265,40.644,-0.00013191,-0.0095519,0.33573
25985,7.8971,5.3636,0.1,0.00039752,3972.4,0.000398,3986.8,-0.00012877,28.795,-0.00013261,-0.014145,0.32696
25986,7.9889,5.2727,0.1,0.00039445,3941.8,0.00039498,3957.6,-0.00012751,31.825,-0.00013174,-0.013658,0.33475
25987,7.8971,5.5455,0.1,0.0003984,3981.3,0.00039872,3990.7,-0.00012988,18.992,-0.00013241,-0.03245,0.32586
25988,7.9889,5.4545,0.1,0.00039528,3950.1,0.00039566,3961.3,-0.00012855,22.607,-0.00013156,-0.013951,0.3337
25989,7.8971,5.7273,0.1,0.00039936,3990.8,0.0003995,3995.1,-0.00013107,8.5658,-0.00013222,-0.053694,0.32467
25990,7.9889,5.6364,0.1,0.00039615,3958.8,0.00039637,3965.2,-0.00012964,13.006,-0.00013138,-0.050544,0.33256
25991,7.9889,5.8182,0.1,0.00039714,3968.7,0.00039718,3969.9,-0.00013083,2.6175,-0.0001312,-0.1689,0.33133
25992,7.8971,5.9091,0.1,0.00039996,3996.8,0.00039997,3997.2,-0.00013189,1.0096,-0.00013206,-0.23472,0.32339
25993,8.0808,0.27273,0.1,0.00039393,3936.5,0.00039404,3940,-0.00012941,6.9978,-0.00013035,-0.05165,0.3393
25994,8.1726,0.18182,0.1,0.00039169,3914.2,0.00039172,3914.9,-0.00012912,1.5453,-0.00012936,-0.2438,0.3461
25995,8.0808,0.090909,0.1,0.00039444,3941.7,0.00039444,3941.7,-0.00013011,0.48675,-0.00013022,-0.39623,0.33804
25996,8.0808,0.45455,0.1,0.00039303,3927.6,0.00039331,3935.9,-0.00012831,16.633,-0.00013053,-0.02919,0.34048
25997,8.1726,0.36364,0.1,0.00039076,3904.9,0.00039095,3910.4,-0.00012802,11.11,-0.0001295,-0.045664,0.34732
25998,8.0808,0.63636,0.1,0.00039221,3919.4,0.00039264,3932.2,-0.00012728,25.648,-0.0001307,-0.01274,0.34158
25999,8.1726,0.54545,0.1,0.00038995,3896.8,0.00039029,3906.8,-0.00012702,19.942,-0.00012967,-0.012471,0.34845
26000,8.0808,0.81818,0.1,0.00039143,3911.6,0.000392,3928.6,-0.0001263,34.286,-0.00013087,-0.010926,0.34259
26001,8.1726,0.72727,0.1,0.00038918,3889.1,0.00038966,3903.3,-0.00012605,28.413,-0.00012984,-0.012373,0.3495
26002,8.0808,1,0.1,0.00039068,3904.1,0.00039139,3925.2,-0.00012537,42.508,-0.00013103,-0.0081841,0.34351
26003,8.1726,0.90909,0.1,0.00038844,3881.8,0.00038905,3899.9,-0.00012513,36.515,-0.00012999,-0.0087727,0.35046
26004,8.0808,1.1818,0.1,0.00038998,3897.1,0.00039081,3922,-0.00012449,50.253,-0.00013118,-0.0064942,0.34436
26005,8.1726,1.0909,0.1,0.00038775,3874.8,0.00038848,3896.7,-0.00012426,44.188,-0.00013014,-0.0071262,0.35134
26006,8.0808,1.3636,0.1,0.00038933,3890.6,0.00039028,3919,-0.00012367,57.459,-0.00013132,-0.0050232,0.34512
26007,8.1726,1.2727,0.1,0.00038709,3868.3,0.00038794,3893.7,-0.00012344,51.371,-0.00013028,-0.0055737,0.35214
26008,8.0808,1.5455,0.1,0.00038873,3884.6,0.00038978,3916.3,-0.00012291,64.071,-0.00013144,-0.0038164,0.3458
26009,8.1726,1.4545,0.1,0.00038649,3862.2,0.00038745,3890.9,-0.00012268,58.01,-0.00013041,-0.0043518,0.35286
26010,8.0808,1.7273,0.1,0.00038819,3879.3,0.00038934,3913.8,-0.00012224,70.037,-0.00013156,-0.0027874,0.3464
26011,8.1726,1.6364,0.1,0.00038594,3856.8,0.00038699,3888.4,-0.000122,64.052,-0.00013052,-0.0033011,0.35349
26012,8.0808,1.9091,0.1,0.00038772,3874.5,0.00038894,3911.6,-0.00012164,75.309,-0.00013166,-0.0019198,0.34691
26013,8.1726,1.8182,0.1,0.00038545,3851.9,0.00038659,3886.1,-0.00012138,69.449,-0.00013062,-0.0024143,0.35405
26014,8.0808,2.0909,0.1,0.00038731,3870.4,0.0003886,3909.7,-0.00012112,79.844,-0.00013175,-0.0011953,0.34735
26015,8.1726,2,0.1,0.00038503,3847.6,0.00038623,3884.1,-0.00012084,74.159,-0.00013071,-0.0016669,0.35453
26016,8.0808,2.2727,0.1,0.00038697,3867,0.00038832,3908.1,-0.00012069,83.606,-0.00013182,-0.00060693,0.34771
26017,8.1726,2.1818,0.1,0.00038467,3844,0.00038593,3882.5,-0.00012039,78.144,-0.00013079,-0.001049,0.35492
26018,8.0808,2.4545,0.1,0.0003867,3864.3,0.0003881,3906.9,-0.00012035,86.565,-0.00013188,-0.00015204,0.34799
26019,8.1726,2.3636,0.1,0.00038437,3841.1,0.00038569,3881.1,-0.00012002,81.371,-0.00013085,-0.00055763,0.35524
26020,8.0808,2.6364,0.1,0.00038651,3862.4,0.00038794,3906,-0.00012011,88.696,-0.00013192,0.00017197,0.34819
26021,8.1726,2.5455,0.1,0.00038415,3838.9,0.00038551,3880.1,-0.00011974,83.815,-0.0001309,-0.00019111,0.35548
26022,8.0808,2.8182,0.1,0.00038639,3861.3,0.00038784,3905.5,-0.00011996,89.981,-0.00013194,0.00036689,0.34831
26023,8.1726,2.7273,0.1,0.000384,3837.4,0.00038538,3879.4,-0.00011956,85.456,-0.00013093,5.3751e-05,0.35563
26024,8.0808,3,0.1,0.00038635,3860.9,0.00038781,3905.3,-0.00011992,90.411,-0.00013195,0.00043218,0.34834
26025,8.1726,2.9091,0.1,0.00038393,3836.6,0.00038532,3879,-0.00011946,86.279,-0.00013095,0.00017661,0.35571
26026,8.0808,3.1818,0.1,0.00038639,3861.3,0.00038784,3905.5,-0.00011996,89.981,-0.00013194,0.0003671,0.34831
26027,8.1726,3.0909,0.1,0.00038393,3836.6,0.00038532,3879,-0.00011946,86.279,-0.00013095,0.00017676,0.35571
26028,8.0808,3.3636,0.1,0.00038651,3862.4,0.00038794,3906,-0.00012011,88.696,-0.00013192,0.00017215,0.34819
26029,8.1726,3.2727,0.1,0.000384,3837.4,0.00038538,3879.4,-0.00011956,85.456,-0.00013093,5.393e-05,0.35563
26030,8.0808,3.5455,0.1,0.0003867,3864.3,0.0003881,3906.9,-0.00012035,86.565,-0.00013188,-0.00015189,0.34799
26031,8.1726,3.4545,0.1,0.00038415,3838.9,0.00038551,3880.1,-0.00011974,83.815,-0.0001309,-0.00019105,0.35548
26032,8.0808,3.7273,0.1,0.00038697,3867,0.00038832,3908.1,-0.00012069,83.606,-0.00013182,-0.00060669,0.34771
26033,8.1726,3.6364,0.1,0.00038437,3841.1,0.00038569,3881.1,-0.00012002,81.371,-0.00013085,-0.00055733,0.35524
26034,8.0808,3.9091,0.1,0.00038731,3870.4,0.0003886,3909.7,-0.00012112,79.844,-0.00013175,-0.001195,0.34735
26035,8.1726,3.8182,0.1,0.00038467,3844,0.00038593,3882.5,-0.00012039,78.144,-0.00013079,-0.0010488,0.35492
26036,8.0808,4.0909,0.1,0.00038772,3874.5,0.00038894,3911.6,-0.00012164,75.309,-0.00013166,-0.0019193,0.34691
26037,8.1726,4,0.1,0.00038503,3847.6,0.00038623,3884.2,-0.00012084,74.159,-0.00013071,-0.0016663,0.35453
26038,8.0808,4.2727,0.1,0.00038819,3879.3,0.00038934,3913.8,-0.00012224,70.037,-0.00013156,-0.0027869,0.3464
26039,8.1726,4.1818,0.1,0.00038545,3851.9,0.00038659,3886.1,-0.00012138,69.449,-0.00013062,-0.0024137,0.35405
26040,8.0808,4.4545,0.1,0.00038873,3884.6,0.00038978,3916.3,-0.00012291,64.071,-0.00013144,-0.0038157,0.3458
26041,8.1726,4.3636,0.1,0.00038594,3856.8,0.00038699,3888.4,-0.000122,64.052,-0.00013052,-0.0033005,0.35349
26042,8.0808,4.6364,0.1,0.00038933,3890.6,0.00039028,3919,-0.00012367,57.459,-0.00013132,-0.0050226,0.34512
26043,8.1726,4.5455,0.1,0.00038649,3862.2,0.00038745,3890.9,-0.00012268,58.01,-0.00013041,-0.004351,0.35286
26044,8.0808,4.8182,0.1,0.00038998,3897.1,0.00039081,3922,-0.00012449,50.253,-0.00013118,-0.0064937,0.34436
26045,8.1726,4.7273,0.1,0.00038709,3868.3,0.00038794,3893.7,-0.00012344,51.371,-0.00013028,-0.0055731,0.35214
26046,8.0808,5,0.1,0.00039068,3904.1,0.00039139,3925.2,-0.00012537,42.508,-0.00013103,-0.0081831,0.34351
26047,8.1726,4.9091,0.1,0.00038775,3874.8,0.00038848,3896.7,-0.00012426,44.188,-0.00013014,-0.0071255,0.35134
26048,8.0808,5.1818,0.1,0.00039143,3911.6,0.000392,3928.6,-0.0001263,34.286,-0.00013087,-0.010925,0.34259
26049,8.1726,5.0909,0.1,0.00038844,3881.8,0.00038905,3899.9,-0.00012513,36.515,-0.00012999,-0.0087713,0.35046
26050,8.0808,5.3636,0.1,0.00039221,3919.4,0.00039264,3932.2,-0.00012728,25.648,-0.0001307,-0.012739,0.34158
26051,8.1726,5.2727,0.1,0.00038918,3889.1,0.00038966,3903.3,-0.00012605,28.413,-0.00012984,-0.012372,0.3495
26052,8.0808,5.5455,0.1,0.00039303,3927.6,0.00039331,3935.9,-0.00012831,16.633,-0.00013053,-0.029189,0.34048
26053,8.1726,5.4545,0.1,0.00038995,3896.8,0.00039029,3906.8,-0.00012702,19.942,-0.00012967,-0.01247,0.34845
26054,8.0808,5.7273,0.1,0.00039393,3936.5,0.00039404,3940,-0.00012941,6.9978,-0.00013035,-0.051649,0.3393
26055,8.1726,5.6364,0.1,0.00039076,3904.9,0.00039095,3910.4,-0.00012802,11.11,-0.0001295,-0.045663,0.34732
26056,8.1726,5.8182,0.1,0.00039169,3914.2,0.00039172,3914.9,-0.00012912,1.5453,-0.00012936,-0.2438,0.3461
26057,8.0808,5.9091,0.1,0.00039444,3941.7,0.00039444,3941.7,-0.00013011,0.48674,-0.00013022,-0.39623,0.33804
26058,8.2644,0.27273,0.1,0.00038852,3882.5,0.00038861,3885.2,-0.00012775,5.5272,-0.00012849,-0.050824,0.3542
26059,8.3562,0.18182,0.1,0.00038627,3860.1,0.00038628,3860.2,-0.00012739,0.68723,-0.00012754,-0.46837,0.36114
26060,8.2644,0.090909,0.1,0.00038896,3886.9,0.00038895,3886.6,-0.0001283,0.20476,-0.00012843,-0.76167,0.35295
26061,8.2644,0.45455,0.1,0.00038768,3874.1,0.00038792,3881.3,-0.00012673,14.431,-0.00012865,-0.026185,0.35537
26062,8.3562,0.36364,0.1,0.00038539,3851.3,0.00038555,3855.9,-0.0001264,9.3362,-0.00012764,-0.041182,0.36234
26063,8.2644,0.63636,0.1,0.00038692,3866.5,0.0003873,3877.8,-0.00012578,22.718,-0.00012881,-0.011454,0.35645
26064,8.3562,0.54545,0.1,0.00038464,3843.8,0.00038494,3852.5,-0.00012547,17.456,-0.0001278,-0.011114,0.36346
26065,8.2644,0.81818,0.1,0.0003862,3859.3,0.00038671,3874.5,-0.00012488,30.653,-0.00012896,-0.0099594,0.35746
26066,8.3562,0.72727,0.1,0.00038393,3836.6,0.00038435,3849.2,-0.00012458,25.238,-0.00012794,-0.011197,0.3645
26067,8.2644,1,0.1,0.00038551,3852.4,0.00038614,3871.4,-0.00012402,38.204,-0.00012911,-0.0075798,0.35837
26068,8.3562,0.90909,0.1,0.00038324,3829.8,0.00038379,3846,-0.00012374,32.678,-0.00012809,-0.0080647,0.36546
26069,8.2644,1.1818,0.1,0.00038486,3845.9,0.00038561,3868.4,-0.00012321,45.315,-0.00012924,-0.006124,0.35921
26070,8.3562,1.0909,0.1,0.0003826,3823.3,0.00038326,3843,-0.00012293,39.721,-0.00012822,-0.0066629,0.36633
26071,8.2644,1.3636,0.1,0.00038425,3839.9,0.00038511,3865.6,-0.00012246,51.93,-0.00012937,-0.0048472,0.35997
26072,8.3562,1.2727,0.1,0.00038199,3817.3,0.00038276,3840.3,-0.00012218,46.314,-0.00012835,-0.0053226,0.36712
26073,8.2644,1.5455,0.1,0.0003837,3834.4,0.00038465,3863,-0.00012176,57.997,-0.00012948,-0.0037961,0.36064
26074,8.3562,1.4545,0.1,0.00038144,3811.7,0.0003823,3837.7,-0.00012149,52.405,-0.00012846,-0.004265,0.36783
26075,8.2644,1.7273,0.1,0.0003832,3829.4,0.00038424,3860.7,-0.00012114,63.47,-0.00012959,-0.0028964,0.36123
26076,8.3562,1.6364,0.1,0.00038093,3806.7,0.00038188,3835.3,-0.00012085,57.947,-0.00012857,-0.0033507,0.36846
26077,8.2644,1.9091,0.1,0.00038276,3825,0.00038388,3858.7,-0.00012059,68.306,-0.00012968,-0.0021354,0.36175
26078,8.3562,1.8182,0.1,0.00038048,3802.1,0.00038151,3833.2,-0.00012029,62.897,-0.00012866,-0.0025765,0.36902
26079,8.2644,2.0909,0.1,0.00038238,3821.2,0.00038356,3856.9,-0.00012011,72.465,-0.00012976,-0.0014984,0.36218
26080,8.3562,2,0.1,0.00038008,3798.2,0.00038118,3831.4,-0.0001198,67.216,-0.00012874,-0.001922,0.36949
26081,8.2644,2.2727,0.1,0.00038207,3818.1,0.0003833,3855.4,-0.00011972,75.915,-0.00012982,-0.00098,0.36254
26082,8.3562,2.1818,0.1,0.00037975,3794.9,0.0003809,3829.8,-0.00011938,70.87,-0.00012881,-0.0013795,0.36988
26083,8.2644,2.4545,0.1,0.00038182,3815.6,0.0003831,3854.3,-0.00011941,78.628,-0.00012988,-0.00057863,0.36281
26084,8.3562,2.3636,0.1,0.00037948,3792.2,0.00038068,3828.5,-0.00011904,73.828,-0.00012887,-0.0009473,0.37019
26085,8.2644,2.6364,0.1,0.00038164,3813.8,0.00038295,3853.5,-0.00011919,80.581,-0.00012991,-0.00029231,0.36301
26086,8.3562,2.5455,0.1,0.00037927,3790.1,0.00038051,3827.6,-0.00011879,76.068,-0.00012891,-0.00062459,0.37043
26087,8.2644,2.8182,0.1,0.00038154,3812.7,0.00038286,3853,-0.00011905,81.759,-0.00012994,-0.0001201,0.36313
26088,8.3562,2.7273,0.1,0.00037914,3788.8,0.0003804,3826.9,-0.00011861,77.572,-0.00012894,-0.00040862,0.37059
26089,8.2644,3,0.1,0.0003815,3812.4,0.00038283,3852.8,-0.00011901,82.153,-0.00012994,-6.2558e-05,0.36317
26090,8.3562,2.9091,0.1,0.00037907,3788.1,0.00038034,3826.6,-0.00011853,78.326,-0.00012895,-0.0003002,0.37066
26091,8.2644,3.1818,0.1,0.00038154,3812.7,0.00038286,3853,-0.00011905,81.759,-0.00012994,-0.00011998,0.36313
26092,8.3562,3.0909,0.1,0.00037907,3788.1,0.00038034,3826.6,-0.00011853,78.326,-0.00012895,-0.00030017,0.37066
26093,8.2644,3.3636,0.1,0.00038164,3813.8,0.00038295,3853.5,-0.00011919,80.581,-0.00012991,-0.00029225,0.36301
26094,8.3562,3.2727,0.1,0.00037914,3788.8,0.0003804,3826.9,-0.00011861,77.572,-0.00012894,-0.00040853,0.37059
26095,8.2644,3.5455,0.1,0.00038182,3815.6,0.0003831,3854.3,-0.00011941,78.628,-0.00012988,-0.00057842,0.36281
26096,8.3562,3.4545,0.1,0.00037927,3790.1,0.00038051,3827.6,-0.00011879,76.068,-0.00012891,-0.00062442,0.37043
26097,8.2644,3.7273,0.1,0.00038207,3818.1,0.0003833,3855.4,-0.00011972,75.915,-0.00012982,-0.00097976,0.36254
26098,8.3562,3.6364,0.1,0.00037948,3792.2,0.00038068,3828.5,-0.00011904,73.828,-0.00012887,-0.00094691,0.37019
26099,8.2644,3.9091,0.1,0.00038238,3821.2,0.00038356,3856.9,-0.00012011,72.465,-0.00012976,-0.001498,0.36218
26100,8.3562,3.8182,0.1,0.00037975,3794.9,0.0003809,3829.8,-0.00011938,70.87,-0.00012881,-0.0013792,0.36988
26101,8.2644,4.0909,0.1,0.00038276,3825,0.00038388,3858.7,-0.00012059,68.306,-0.00012968,-0.0021349,0.36175
26102,8.3562,4,0.1,0.00038008,3798.2,0.00038118,3831.4,-0.0001198,67.216,-0.00012874,-0.0019214,0.36949
26103,8.2644,4.2727,0.1,0.0003832,3829.4,0.00038424,3860.7,-0.00012114,63.47,-0.00012959,-0.0028959,0.36123
26104,8.3562,4.1818,0.1,0.00038048,3802.1,0.00038151,3833.2,-0.00012029,62.897,-0.00012866,-0.002576,0.36902
26105,8.2644,4.4545,0.1,0.0003837,3834.4,0.00038465,3863,-0.00012176,57.997,-0.00012948,-0.0037955,0.36064
26106,8.3562,4.3636,0.1,0.00038093,3806.7,0.00038188,3835.3,-0.00012085,57.947,-0.00012857,-0.0033502,0.36846
26107,8.2644,4.6364,0.1,0.00038425,3839.9,0.00038511,3865.6,-0.00012246,51.929,-0.00012937,-0.0048464,0.35997
26108,8.3562,4.5455,0.1,0.00038144,3811.7,0.0003823,3837.7,-0.00012149,52.405,-0.00012846,-0.0042642,0.36783
26109,8.2644,4.8182,0.1,0.00038486,3845.9,0.00038561,3868.4,-0.00012321,45.315,-0.00012924,-0.0061233,0.35921
26110,8.3562,4.7273,0.1,0.00038199,3817.3,0.00038276,3840.3,-0.00012218,46.314,-0.00012835,-0.005322,0.36712
26111,8.2644,5,0.1,0.00038551,3852.4,0.00038614,3871.4,-0.00012402,38.204,-0.00012911,-0.0075787,0.35837
26112,8.3562,4.9091,0.1,0.0003826,3823.3,0.00038326,3843,-0.00012293,39.721,-0.00012822,-0.0066623,0.36633
26113,8.2644,5.1818,0.1,0.0003862,3859.3,0.00038671,3874.5,-0.00012488,30.653,-0.00012896,-0.0099582,0.35746
26114,8.3562,5.0909,0.1,0.00038324,3829.8,0.00038379,3846,-0.00012374,32.678,-0.00012809,-0.0080633,0.36546
26115,8.2644,5.3636,0.1,0.00038692,3866.5,0.0003873,3877.8,-0.00012578,22.718,-0.00012881,-0.011454,0.35645
26116,8.3562,5.2727,0.1,0.00038393,3836.6,0.00038435,3849.2,-0.00012458,25.238,-0.00012794,-0.011196,0.3645
26117,8.2644,5.5455,0.1,0.00038768,3874.1,0.00038792,3881.3,-0.00012673,14.431,-0.00012865,-0.026184,0.35537
26118,8.3562,5.4545,0.1,0.00038464,3843.8,0.00038494,3852.5,-0.00012547,17.456,-0.0001278,-0.011113,0.36346
26119,8.2644,5.7273,0.1,0.00038852,3882.5,0.00038861,3885.2,-0.00012775,5.5272,-0.00012849,-0.050823,0.3542
26120,8.3562,5.6364,0.1,0.00038539,3851.3,0.00038555,3855.9,-0.0001264,9.3362,-0.00012764,-0.04118,0.36234
26121,8.3562,5.8182,0.1,0.00038627,3860.1,0.00038628,3860.2,-0.00012739,0.68722,-0.00012754,-0.46837,0.36114
26122,8.2644,5.9091,0.1,0.00038896,3886.9,0.00038895,3886.6,-0.0001283,0.20475,-0.00012843,-0.76168,0.35295
26123,8.4481,0.27273,0.1,0.00038314,3828.7,0.00038321,3830.8,-0.00012609,4.1491,-0.00012664,-0.051921,0.36937
26124,8.5399,0.18182,0.1,0.00038088,3806.2,0.00038086,3805.8,-0.00012562,0.2596,-0.00012579,-1.0621,0.37644
26125,8.4481,0.090909,0.1,0.00038351,3832.4,0.00038349,3831.8,-0.00012649,0.098772,-0.00012667,-1.2679,0.36813
26126,8.4481,0.45455,0.1,0.00038235,3820.9,0.00038256,3827,-0.00012514,12.375,-0.00012679,-0.023412,0.37052
26127,8.5399,0.36364,0.1,0.00038005,3797.8,0.00038017,3801.6,-0.00012477,7.6774,-0.0001258,-0.037072,0.37763
26128,8.4481,0.63636,0.1,0.00038165,3813.8,0.00038198,3823.8,-0.00012427,19.989,-0.00012693,-0.010278,0.37159
26129,8.5399,0.54545,0.1,0.00037935,3790.9,0.0003796,3798.4,-0.00012392,15.139,-0.00012594,-0.0098691,0.37874
26130,8.4481,0.81818,0.1,0.00038097,3807.1,0.00038143,3820.7,-0.00012344,27.274,-0.00012707,-0.0090788,0.37259
26131,8.5399,0.72727,0.1,0.00037869,3784.3,0.00037906,3795.3,-0.0001231,22.283,-0.00012607,-0.010125,0.37976
26132,8.4481,1,0.1,0.00038034,3800.7,0.00038091,3817.7,-0.00012265,34.206,-0.0001272,-0.0070334,0.3735
26133,8.5399,0.90909,0.1,0.00037805,3777.9,0.00037854,3792.4,-0.00012232,29.11,-0.0001262,-0.0074239,0.38071
26134,8.4481,1.1818,0.1,0.00037973,3794.7,0.00038041,3814.9,-0.0001219,40.73,-0.00012733,-0.005793,0.37432
26135,8.5399,1.0909,0.1,0.00037746,3772,0.00037805,3789.6,-0.00012158,35.572,-0.00012632,-0.0062472,0.38158
26136,8.4481,1.3636,0.1,0.00037918,3789.1,0.00037995,3812.3,-0.00012121,46.798,-0.00012744,-0.0046944,0.37507
26137,8.5399,1.2727,0.1,0.0003769,3766.4,0.00037759,3787,-0.00012089,41.619,-0.00012643,-0.0051016,0.38236
26138,8.4481,1.5455,0.1,0.00037866,3784,0.00037953,3809.9,-0.00012057,52.364,-0.00012754,-0.0037859,0.37574
26139,8.5399,1.4545,0.1,0.00037638,3761.2,0.00037716,3784.6,-0.00012025,47.204,-0.00012654,-0.0041944,0.38307
26140,8.4481,1.7273,0.1,0.0003782,3779.4,0.00037915,3807.8,-0.00012,57.382,-0.00012764,-0.0030045,0.37633
26141,8.5399,1.6364,0.1,0.00037591,3756.5,0.00037677,3782.4,-0.00011967,52.286,-0.00012663,-0.003405,0.38369
26142,8.4481,1.9091,0.1,0.0003778,3775.4,0.00037881,3805.9,-0.0001195,61.815,-0.00012772,-0.0023413,0.37684
26143,8.5399,1.8182,0.1,0.00037549,3752.4,0.00037643,3780.4,-0.00011915,56.823,-0.00012672,-0.002734,0.38424
26144,8.4481,2.0909,0.1,0.00037745,3771.9,0.00037852,3804.3,-0.00011906,65.628,-0.00012779,-0.0017844,0.37727
26145,8.5399,2,0.1,0.00037513,3748.7,0.00037613,3778.7,-0.0001187,60.781,-0.00012679,-0.0021644,0.38471
26146,8.4481,2.2727,0.1,0.00037716,3769,0.00037828,3802.9,-0.0001187,68.79,-0.00012785,-0.0013302,0.37762
26147,8.5399,2.1818,0.1,0.00037482,3745.6,0.00037587,3777.3,-0.00011832,64.128,-0.00012685,-0.001691,0.3851
26148,8.4481,2.4545,0.1,0.00037693,3766.7,0.00037809,3801.8,-0.00011841,71.276,-0.0001279,-0.00097799,0.3779
26149,8.5399,2.3636,0.1,0.00037457,3743.1,0.00037566,3776.1,-0.00011801,66.839,-0.0001269,-0.0013129,0.38541
26150,8.4481,2.6364,0.1,0.00037677,3765.1,0.00037795,3801.1,-0.00011821,73.066,-0.00012793,-0.00072649,0.37809
26151,8.5399,2.5455,0.1,0.00037438,3741.2,0.00037551,3775.2,-0.00011777,68.891,-0.00012694,-0.0010303,0.38564
26152,8.4481,2.8182,0.1,0.00037667,3764.1,0.00037787,3800.6,-0.00011809,74.146,-0.00012795,-0.00057479,0.37821
26153,8.5399,2.7273,0.1,0.00037426,3740,0.0003754,3774.6,-0.00011762,70.268,-0.00012697,-0.00084096,0.3858
26154,8.4481,3,0.1,0.00037663,3763.7,0.00037785,3800.4,-0.00011805,74.506,-0.00012796,-0.00052403,0.37825
26155,8.5399,2.9091,0.1,0.00037419,3739.3,0.00037535,3774.3,-0.00011754,70.96,-0.00012698,-0.00074561,0.38587
26156,8.4481,3.1818,0.1,0.00037667,3764.1,0.00037787,3800.6,-0.00011809,74.146,-0.00012795,-0.00057479,0.37821
26157,8.5399,3.0909,0.1,0.00037419,3739.3,0.00037535,3774.3,-0.00011754,70.96,-0.00012698,-0.00074564,0.38587
26158,8.4481,3.3636,0.1,0.00037677,3765.1,0.00037795,3801.1,-0.00011821,73.066,-0.00012793,-0.00072628,0.37809
26159,8.5399,3.2727,0.1,0.00037426,3740,0.0003754,3774.6,-0.00011762,70.268,-0.00012697,-0.00084075,0.3858
26160,8.4481,3.5455,0.1,0.00037693,3766.7,0.00037809,3801.8,-0.00011841,71.276,-0.0001279,-0.00097764,0.3779
26161,8.5399,3.4545,0.1,0.00037438,3741.2,0.00037551,3775.2,-0.00011777,68.891,-0.00012694,-0.0010301,0.38564
26162,8.4481,3.7273,0.1,0.00037716,3769,0.00037828,3802.9,-0.0001187,68.79,-0.00012785,-0.0013298,0.37762
26163,8.5399,3.6364,0.1,0.00037457,3743.1,0.00037566,3776.1,-0.00011801,66.839,-0.0001269,-0.0013126,0.38541
26164,8.4481,3.9091,0.1,0.00037745,3771.9,0.00037852,3804.3,-0.00011906,65.628,-0.00012779,-0.001784,0.37727
26165,8.5399,3.8182,0.1,0.00037482,3745.6,0.00037587,3777.3,-0.00011832,64.128,-0.00012685,-0.0016906,0.3851
26166,8.4481,4.0909,0.1,0.0003778,3775.4,0.00037881,3805.9,-0.0001195,61.815,-0.00012772,-0.0023408,0.37684
26167,8.5399,4,0.1,0.00037513,3748.7,0.00037613,3778.7,-0.0001187,60.781,-0.00012679,-0.0021639,0.38471
26168,8.4481,4.2727,0.1,0.0003782,3779.4,0.00037915,3807.8,-0.00012,57.382,-0.00012764,-0.003004,0.37633
26169,8.5399,4.1818,0.1,0.00037549,3752.4,0.00037643,3780.4,-0.00011915,56.823,-0.00012672,-0.0027335,0.38424
26170,8.4481,4.4545,0.1,0.00037866,3784,0.00037953,3809.9,-0.00012057,52.364,-0.00012754,-0.0037853,0.37574
26171,8.5399,4.3636,0.1,0.00037591,3756.5,0.00037677,3782.4,-0.00011967,52.286,-0.00012663,-0.0034045,0.38369
26172,8.4481,4.6364,0.1,0.00037918,3789.1,0.00037995,3812.3,-0.00012121,46.798,-0.00012744,-0.0046937,0.37507
26173,8.5399,4.5455,0.1,0.00037638,3761.2,0.00037716,3784.6,-0.00012025,47.204,-0.00012654,-0.0041937,0.38307
26174,8.4481,4.8182,0.1,0.00037973,3794.7,0.00038041,3814.9,-0.0001219,40.73,-0.00012733,-0.0057924,0.37432
26175,8.5399,4.7273,0.1,0.0003769,3766.4,0.00037759,3787,-0.00012089,41.619,-0.00012643,-0.0051008,0.38236
26176,8.4481,5,0.1,0.00038034,3800.7,0.00038091,3817.7,-0.00012265,34.206,-0.0001272,-0.0070325,0.3735
26177,8.5399,4.9091,0.1,0.00037746,3772,0.00037805,3789.6,-0.00012158,35.572,-0.00012632,-0.0062467,0.38158
26178,8.4481,5.1818,0.1,0.00038097,3807.1,0.00038143,3820.7,-0.00012344,27.274,-0.00012707,-0.0090776,0.37259
26179,8.5399,5.0909,0.1,0.00037805,3777.9,0.00037854,3792.4,-0.00012232,29.11,-0.0001262,-0.0074224,0.38071
26180,8.4481,5.3636,0.1,0.00038165,3813.8,0.00038198,3823.8,-0.00012427,19.989,-0.00012693,-0.010277,0.37159
26181,8.5399,5.2727,0.1,0.00037869,3784.3,0.00037906,3795.3,-0.0001231,22.283,-0.00012607,-0.010124,0.37976
26182,8.4481,5.5455,0.1,0.00038235,3820.9,0.00038256,3827,-0.00012514,12.375,-0.00012679,-0.023411,0.37052
26183,8.5399,5.4545,0.1,0.00037935,3790.9,0.0003796,3798.4,-0.00012392,15.139,-0.00012594,-0.0098689,0.37874
26184,8.4481,5.7273,0.1,0.00038314,3828.7,0.00038321,3830.8,-0.00012609,4.1491,-0.00012664,-0.05192,0.36937
26185,8.5399,5.6364,0.1,0.00038005,3797.8,0.00038017,3801.6,-0.00012477,7.6774,-0.0001258,-0.037071,0.37763
26186,8.5399,5.8182,0.1,0.00038088,3806.2,0.00038087,3805.8,-0.00012562,0.25959,-0.00012579,-1.0621,0.37644
26187,8.4481,5.9091,0.1,0.00038351,3832.4,0.00038349,3831.8,-0.00012649,0.098772,-0.00012667,-1.2679,0.36813
26188,8.6317,0.27273,0.1,0.00037778,3775.2,0.00037783,3776.6,-0.00012443,2.8598,-0.00012481,-0.05683,0.38479
26189,8.7236,0.18182,0.1,0.00037551,3752.5,0.00037548,3751.6,-0.00012381,0.1252,-0.00012408,-1.8909,0.39199
26190,8.6317,0.090909,0.1,0.00037808,3778.2,0.00037805,3777.3,-0.00012467,0.055347,-0.00012492,-1.8031,0.38356
26191,8.6317,0.45455,0.1,0.00037704,3767.8,0.00037722,3773,-0.00012355,10.456,-0.00012494,-0.02085,0.38593
26192,8.7236,0.36364,0.1,0.00037472,3744.6,0.00037483,3747.7,-0.00012314,6.1256,-0.00012396,-0.033322,0.39317
26193,8.6317,0.63636,0.1,0.00037639,3761.3,0.00037668,3770,-0.00012275,17.446,-0.00012507,-0.009204,0.38699
26194,8.7236,0.54545,0.1,0.00037408,3738.2,0.00037429,3744.6,-0.00012236,12.978,-0.00012409,-0.00873,0.39427
26195,8.6317,0.81818,0.1,0.00037577,3755.1,0.00037617,3767.1,-0.00012198,24.131,-0.0001252,-0.0082798,0.38797
26196,8.7236,0.72727,0.1,0.00037346,3732,0.00037379,3741.8,-0.00012161,19.531,-0.00012421,-0.0091493,0.39528
26197,8.6317,1,0.1,0.00037517,3749.1,0.00037568,3764.3,-0.00012126,30.489,-0.00012531,-0.0065428,0.38887
26198,8.7236,0.90909,0.1,0.00037287,3726.2,0.00037331,3739,-0.00012089,25.792,-0.00012432,-0.0068486,0.39622
26199,8.6317,1.1818,0.1,0.00037462,3743.6,0.00037522,3761.7,-0.00012057,36.472,-0.00012543,-0.0054996,0.38969
26200,8.7236,1.0909,0.1,0.00037232,3720.6,0.00037285,3736.4,-0.00012021,31.716,-0.00012443,-0.0058781,0.39708
26201,8.6317,1.3636,0.1,0.0003741,3738.4,0.0003748,3759.3,-0.00011993,42.035,-0.00012553,-0.004564,0.39044
26202,8.7236,1.2727,0.1,0.0003718,3715.5,0.00037242,3734,-0.00011958,37.258,-0.00012454,-0.0049106,0.39785
26203,8.6317,1.5455,0.1,0.00037363,3733.7,0.00037441,3757,-0.00011935,47.136,-0.00012562,-0.003786,0.3911
26204,8.7236,1.4545,0.1,0.00037133,3710.7,0.00037203,3731.7,-0.00011899,42.376,-0.00012463,-0.0041408,0.39855
26205,8.6317,1.7273,0.1,0.0003732,3729.4,0.00037405,3755,-0.00011882,51.735,-0.00012571,-0.003113,0.39168
26206,8.7236,1.6364,0.1,0.00037089,3706.4,0.00037167,3729.7,-0.00011846,47.031,-0.00012472,-0.0034656,0.39917
26207,8.6317,1.9091,0.1,0.00037283,3725.7,0.00037374,3753.3,-0.00011836,55.797,-0.00012579,-0.0025392,0.39219
26208,8.7236,1.8182,0.1,0.00037051,3702.5,0.00037135,3727.8,-0.00011798,51.187,-0.00012479,-0.0028886,0.39971
26209,8.6317,2.0909,0.1,0.0003725,3722.5,0.00037348,3751.7,-0.00011796,59.29,-0.00012585,-0.0020556,0.39261
26210,8.7236,2,0.1,0.00037017,3699.1,0.00037107,3726.2,-0.00011757,54.812,-0.00012486,-0.0023967,0.40018
26211,8.6317,2.2727,0.1,0.00037223,3719.8,0.00037325,3750.5,-0.00011763,62.186,-0.0001259,-0.00166,0.39296
26212,8.7236,2.1818,0.1,0.00036988,3696.3,0.00037083,3724.9,-0.00011721,57.878,-0.00012492,-0.0019863,0.40056
26213,8.6317,2.4545,0.1,0.00037202,3717.7,0.00037308,3749.5,-0.00011737,64.462,-0.00012595,-0.0013526,0.39323
26214,8.7236,2.3636,0.1,0.00036965,3694,0.00037064,3723.8,-0.00011693,60.359,-0.00012496,-0.0016578,0.40087
26215,8.6317,2.6364,0.1,0.00037187,3716.2,0.00037295,3748.8,-0.00011718,66.102,-0.00012598,-0.0011328,0.39343
26216,8.7236,2.5455,0.1,0.00036948,3692.2,0.0003705,3723,-0.00011671,62.238,-0.000125,-0.0014119,0.4011
26217,8.6317,2.8182,0.1,0.00037178,3715.2,0.00037288,3748.3,-0.00011707,67.09,-0.000126,-0.0010001,0.39354
26218,8.7236,2.7273,0.1,0.00036936,3691.1,0.0003704,3722.4,-0.00011657,63.499,-0.00012502,-0.0012466,0.40126
26219,8.6317,3,0.1,0.00037175,3714.9,0.00037285,3748.2,-0.00011703,67.421,-0.000126,-0.00095568,0.39358
26220,8.7236,2.9091,0.1,0.0003693,3690.5,0.00037035,3722.1,-0.0001165,64.132,-0.00012503,-0.0011635,0.40133
26221,8.6317,3.1818,0.1,0.00037178,3715.2,0.00037288,3748.3,-0.00011707,67.09,-0.000126,-0.00099994,0.39354
26222,8.7236,3.0909,0.1,0.0003693,3690.5,0.00037035,3722.1,-0.0001165,64.132,-0.00012503,-0.0011636,0.40133
26223,8.6317,3.3636,0.1,0.00037187,3716.2,0.00037295,3748.8,-0.00011718,66.102,-0.00012598,-0.0011326,0.39343
26224,8.7236,3.2727,0.1,0.00036936,3691.1,0.0003704,3722.4,-0.00011657,63.499,-0.00012502,-0.0012464,0.40126
26225,8.6317,3.5455,0.1,0.00037202,3717.7,0.00037308,3749.5,-0.00011737,64.462,-0.00012595,-0.0013524,0.39323
26226,8.7236,3.4545,0.1,0.00036948,3692.2,0.0003705,3723,-0.00011671,62.238,-0.000125,-0.0014117,0.4011
26227,8.6317,3.7273,0.1,0.00037223,3719.8,0.00037325,3750.5,-0.00011763,62.186,-0.0001259,-0.0016596,0.39296
26228,8.7236,3.6364,0.1,0.00036965,3694,0.00037064,3723.8,-0.00011693,60.359,-0.00012496,-0.0016575,0.40087
26229,8.6317,3.9091,0.1,0.0003725,3722.5,0.00037348,3751.7,-0.00011796,59.289,-0.00012585,-0.0020551,0.39261
26230,8.7236,3.8182,0.1,0.00036988,3696.3,0.00037083,3724.9,-0.00011721,57.878,-0.00012492,-0.0019859,0.40056
26231,8.6317,4.0909,0.1,0.00037283,3725.7,0.00037374,3753.3,-0.00011836,55.797,-0.00012579,-0.0025387,0.39219
26232,8.7236,4,0.1,0.00037017,3699.1,0.00037107,3726.2,-0.00011757,54.812,-0.00012486,-0.0023962,0.40018
26233,8.6317,4.2727,0.1,0.0003732,3729.4,0.00037405,3755,-0.00011882,51.735,-0.00012571,-0.0031124,0.39168
26234,8.7236,4.1818,0.1,0.00037051,3702.5,0.00037135,3727.8,-0.00011798,51.187,-0.00012479,-0.0028881,0.39971
26235,8.6317,4.4545,0.1,0.00037363,3733.7,0.00037441,3757,-0.00011935,47.136,-0.00012562,-0.0037854,0.3911
26236,8.7236,4.3636,0.1,0.00037089,3706.4,0.00037167,3729.7,-0.00011846,47.031,-0.00012472,-0.003465,0.39917
26237,8.6317,4.6364,0.1,0.0003741,3738.4,0.0003748,3759.3,-0.00011993,42.035,-0.00012553,-0.0045632,0.39044
26238,8.7236,4.5455,0.1,0.00037133,3710.7,0.00037203,3731.7,-0.00011899,42.376,-0.00012463,-0.0041401,0.39855
26239,8.6317,4.8182,0.1,0.00037462,3743.6,0.00037522,3761.7,-0.00012057,36.472,-0.00012543,-0.0054988,0.38969
26240,8.7236,4.7273,0.1,0.0003718,3715.5,0.00037242,3734,-0.00011958,37.258,-0.00012454,-0.0049096,0.39785
26241,8.6317,5,0.1,0.00037517,3749.1,0.00037568,3764.3,-0.00012126,30.489,-0.00012531,-0.0065417,0.38887
26242,8.7236,4.9091,0.1,0.00037232,3720.6,0.00037285,3736.4,-0.00012021,31.716,-0.00012443,-0.0058775,0.39708
26243,8.6317,5.1818,0.1,0.00037577,3755.1,0.00037617,3767.1,-0.00012198,24.131,-0.0001252,-0.0082785,0.38797
26244,8.7236,5.0909,0.1,0.00037287,3726.2,0.00037331,3739,-0.00012089,25.792,-0.00012432,-0.006847,0.39622
26245,8.6317,5.3636,0.1,0.00037639,3761.3,0.00037668,3770,-0.00012275,17.446,-0.00012507,-0.0092034,0.38699
26246,8.7236,5.2727,0.1,0.00037346,3732,0.00037379,3741.8,-0.00012161,19.531,-0.00012421,-0.0091483,0.39528
26247,8.6317,5.5455,0.1,0.00037704,3767.8,0.00037722,3773,-0.00012355,10.456,-0.00012494,-0.020849,0.38593
26248,8.7236,5.4545,0.1,0.00037408,3738.2,0.00037429,3744.6,-0.00012236,12.978,-0.00012409,-0.0087297,0.39427
26249,8.6317,5.7273,0.1,0.00037778,3775.2,0.00037783,3776.6,-0.00012443,2.8598,-0.00012481,-0.056829,0.38479
26250,8.7236,5.6364,0.1,0.00037472,3744.6,0.00037483,3747.7,-0.00012314,6.1256,-0.00012396,-0.033321,0.39317
26251,8.7236,5.8182,0.1,0.00037551,3752.5,0.00037548,3751.6,-0.00012381,0.1252,-0.00012408,-1.8909,0.39199
26252,8.6317,5.9091,0.1,0.00037808,3778.2,0.00037805,3777.3,-0.00012467,0.055348,-0.00012492,-1.8031,0.38356
26253,8.8154,0.27273,0.1,0.00037244,3721.9,0.00037247,3722.7,-0.00012276,1.6608,-0.00012299,-0.072342,0.40046
26254,8.9072,0.18182,0.1,0.00037017,3699.1,0.00037012,3697.8,-0.00012201,0.074149,-0.00012239,-2.7483,0.4078
26255,8.8154,0.090909,0.1,0.00037269,3724.3,0.00037265,3723.1,-0.00012287,0.033877,-0.00012318,-2.3284,0.39925
26256,8.8154,0.45455,0.1,0.00037175,3715,0.0003719,3719.3,-0.00012195,8.6629,-0.00012311,-0.018484,0.40159
26257,8.9072,0.36364,0.1,0.00036942,3691.7,0.0003695,3694,-0.00012152,4.6736,-0.00012214,-0.029938,0.40896
26258,8.8154,0.63636,0.1,0.00037115,3708.9,0.0003714,3716.4,-0.00012122,15.077,-0.00012323,-0.008229,0.40264
26259,8.9072,0.54545,0.1,0.00036882,3685.7,0.000369,3691.1,-0.00012079,10.962,-0.00012225,-0.0076927,0.41005
26260,8.8154,0.81818,0.1,0.00037057,3703.1,0.00037092,3713.7,-0.00012051,21.205,-0.00012334,-0.0075609,0.40361
26261,8.9072,0.72727,0.1,0.00036825,3680,0.00036854,3688.4,-0.0001201,16.967,-0.00012236,-0.0082703,0.41106
26262,8.8154,1,0.1,0.00037002,3697.7,0.00037047,3711.1,-0.00011985,27.032,-0.00012344,-0.0061074,0.40451
26263,8.9072,0.90909,0.1,0.00036771,3674.5,0.00036809,3685.8,-0.00011944,22.704,-0.00012247,-0.0063392,0.41198
26264,8.8154,1.1818,0.1,0.00036951,3692.5,0.00037005,3708.7,-0.00011922,32.514,-0.00012354,-0.0052443,0.40532
26265,8.9072,1.0909,0.1,0.00036719,3669.4,0.00036766,3683.4,-0.00011882,28.13,-0.00012257,-0.0055569,0.41283
26266,8.8154,1.3636,0.1,0.00036903,3687.7,0.00036965,3706.4,-0.00011863,37.61,-0.00012364,-0.0044576,0.40605
26267,8.9072,1.2727,0.1,0.00036672,3664.6,0.00036727,3681.1,-0.00011824,33.205,-0.00012266,-0.0047517,0.4136
26268,8.8154,1.5455,0.1,0.00036859,3683.4,0.00036929,3704.3,-0.0001181,42.282,-0.00012372,-0.0037986,0.40671
26269,8.9072,1.4545,0.1,0.00036627,3660.2,0.0003669,3679,-0.0001177,37.891,-0.00012274,-0.0041069,0.41429
26270,8.8154,1.7273,0.1,0.0003682,3679.4,0.00036897,3702.4,-0.00011761,46.494,-0.0001238,-0.0032241,0.40729
26271,8.9072,1.6364,0.1,0.00036587,3656.2,0.00036657,3677.1,-0.00011721,42.152,-0.00012282,-0.0035355,0.4149
26272,8.8154,1.9091,0.1,0.00036785,3675.9,0.00036868,3700.8,-0.00011719,50.212,-0.00012387,-0.0027318,0.40779
26273,8.9072,1.8182,0.1,0.00036552,3652.6,0.00036628,3675.4,-0.00011677,45.956,-0.00012289,-0.0030442,0.41544
26274,8.8154,2.0909,0.1,0.00036755,3673,0.00036843,3699.4,-0.00011682,53.409,-0.00012393,-0.002315,0.40821
26275,8.9072,2,0.1,0.0003652,3649.5,0.00036602,3673.9,-0.00011639,49.273,-0.00012295,-0.0026228,0.4159
26276,8.8154,2.2727,0.1,0.0003673,3670.5,0.00036822,3698.2,-0.00011651,56.06,-0.00012398,-0.0019729,0.40855
26277,8.9072,2.1818,0.1,0.00036494,3646.9,0.0003658,3672.6,-0.00011607,52.077,-0.000123,-0.0022699,0.41628
26278,8.8154,2.4545,0.1,0.00036711,3668.5,0.00036806,3697.3,-0.00011628,58.144,-0.00012401,-0.0017067,0.40882
26279,8.9072,2.3636,0.1,0.00036473,3644.8,0.00036562,3671.6,-0.00011581,54.348,-0.00012304,-0.0019865,0.41659
26280,8.8154,2.6364,0.1,0.00036697,3667.1,0.00036795,3696.6,-0.0001161,59.644,-0.00012404,-0.0015158,0.40902
26281,8.9072,2.5455,0.1,0.00036457,3643.2,0.00036549,3670.9,-0.00011561,56.066,-0.00012307,-0.0017741,0.41682
26282,8.8154,2.8182,0.1,0.00036688,3666.3,0.00036788,3696.2,-0.000116,60.549,-0.00012406,-0.0014004,0.40913
26283,8.9072,2.7273,0.1,0.00036446,3642.1,0.0003654,3670.3,-0.00011548,57.219,-0.00012309,-0.0016309,0.41697
26284,8.8154,3,0.1,0.00036686,3666,0.00036785,3696.1,-0.00011597,60.851,-0.00012406,-0.0013619,0.40917
26285,8.9072,2.9091,0.1,0.0003644,3641.5,0.00036535,3670.1,-0.00011541,57.798,-0.00012311,-0.0015589,0.41705
26286,8.8154,3.1818,0.1,0.00036688,3666.3,0.00036788,3696.2,-0.000116,60.549,-0.00012406,-0.0014004,0.40913
26287,8.9072,3.0909,0.1,0.0003644,3641.5,0.00036535,3670.1,-0.00011541,57.798,-0.00012311,-0.001559,0.41705
26288,8.8154,3.3636,0.1,0.00036697,3667.1,0.00036795,3696.6,-0.0001161,59.644,-0.00012404,-0.0015157,0.40902
26289,8.9072,3.2727,0.1,0.00036446,3642.1,0.0003654,3670.3,-0.00011548,57.219,-0.00012309,-0.0016309,0.41697
26290,8.8154,3.5455,0.1,0.00036711,3668.5,0.00036806,3697.3,-0.00011628,58.144,-0.00012401,-0.0017064,0.40882
26291,8.9072,3.4545,0.1,0.00036457,3643.2,0.00036549,3670.9,-0.00011561,56.066,-0.00012307,-0.0017739,0.41682
26292,8.8154,3.7273,0.1,0.0003673,3670.5,0.00036822,3698.2,-0.00011651,56.06,-0.00012398,-0.0019726,0.40855
26293,8.9072,3.6364,0.1,0.00036473,3644.8,0.00036562,3671.6,-0.00011581,54.348,-0.00012304,-0.0019862,0.41659
26294,8.8154,3.9091,0.1,0.00036755,3673,0.00036843,3699.4,-0.00011682,53.409,-0.00012393,-0.0023146,0.40821
26295,8.9072,3.8182,0.1,0.00036494,3646.9,0.0003658,3672.6,-0.00011607,52.077,-0.000123,-0.0022697,0.41628
26296,8.8154,4.0909,0.1,0.00036785,3675.9,0.00036868,3700.8,-0.00011719,50.212,-0.00012387,-0.0027313,0.40779
26297,8.9072,4,0.1,0.0003652,3649.5,0.00036602,3673.9,-0.00011639,49.273,-0.00012295,-0.0026226,0.4159
26298,8.8154,4.2727,0.1,0.0003682,3679.4,0.00036897,3702.4,-0.00011761,46.494,-0.0001238,-0.0032236,0.40729
26299,8.9072,4.1818,0.1,0.00036552,3652.6,0.00036628,3675.4,-0.00011677,45.956,-0.00012289,-0.0030436,0.41544
26300,8.8154,4.4545,0.1,0.00036859,3683.4,0.00036929,3704.3,-0.0001181,42.282,-0.00012372,-0.003798,0.40671
26301,8.9072,4.3636,0.1,0.00036587,3656.2,0.00036657,3677.1,-0.00011721,42.152,-0.00012282,-0.0035349,0.4149
26302,8.8154,4.6364,0.1,0.00036903,3687.7,0.00036965,3706.4,-0.00011863,37.61,-0.00012364,-0.0044567,0.40605
26303,8.9072,4.5455,0.1,0.00036627,3660.2,0.0003669,3679,-0.0001177,37.891,-0.00012274,-0.0041063,0.41429
26304,8.8154,4.8182,0.1,0.00036951,3692.5,0.00037005,3708.7,-0.00011922,32.514,-0.00012354,-0.0052435,0.40532
26305,8.9072,4.7273,0.1,0.00036672,3664.6,0.00036727,3681.1,-0.00011824,33.205,-0.00012266,-0.0047506,0.4136
26306,8.8154,5,0.1,0.00037002,3697.7,0.00037047,3711.1,-0.00011985,27.032,-0.00012344,-0.0061064,0.40451
26307,8.9072,4.9091,0.1,0.00036719,3669.4,0.00036766,3683.4,-0.00011882,28.13,-0.00012257,-0.0055564,0.41283
26308,8.8154,5.1818,0.1,0.00037057,3703.1,0.00037092,3713.7,-0.00012051,21.205,-0.00012334,-0.0075597,0.40361
26309,8.9072,5.0909,0.1,0.00036771,3674.5,0.00036809,3685.8,-0.00011944,22.704,-0.00012247,-0.0063376,0.41198
26310,8.8154,5.3636,0.1,0.00037115,3708.9,0.0003714,3716.4,-0.00012122,15.077,-0.00012323,-0.0082283,0.40264
26311,8.9072,5.2727,0.1,0.00036825,3680,0.00036854,3688.4,-0.0001201,16.967,-0.00012236,-0.0082692,0.41106
26312,8.8154,5.5455,0.1,0.00037175,3715,0.0003719,3719.3,-0.00012195,8.6629,-0.00012311,-0.018483,0.40159
26313,8.9072,5.4545,0.1,0.00036882,3685.7,0.00036901,3691.1,-0.00012079,10.961,-0.00012225,-0.0076925,0.41005
26314,8.8154,5.7273,0.1,0.00037244,3721.9,0.00037247,3722.7,-0.00012276,1.6608,-0.00012299,-0.072342,0.40046
26315,8.9072,5.6364,0.1,0.00036942,3691.7,0.0003695,3694,-0.00012152,4.6736,-0.00012214,-0.029937,0.40896
26316,8.9072,5.8182,0.1,0.00037017,3699.1,0.00037012,3697.8,-0.00012201,0.07415,-0.00012239,-2.7483,0.4078
26317,8.8154,5.9091,0.1,0.00037269,3724.3,0.00037265,3723.1,-0.00012287,0.033878,-0.00012318,-2.3284,0.39925
26318,8.999,0.27273,0.1,0.00036713,3668.8,0.00036714,3669,-0.0001211,0.59406,-0.0001212,-0.14569,0.41639
26319,9.0909,0.18182,0.1,0.00036485,3646,0.00036479,3644.2,-0.00012022,0.049109,-0.0001207,-3.58,0.42386
26320,8.999,0.090909,0.1,0.00036732,3670.6,0.00036727,3669.2,-0.00012107,0.021815,-0.00012145,-2.833,0.41519
26321,8.999,0.45455,0.1,0.00036648,3662.3,0.0003666,3665.8,-0.00012035,6.9877,-0.00012129,-0.016299,0.4175
26322,9.0909,0.36364,0.1,0.00036414,3638.9,0.0003642,3640.5,-0.00011989,3.3145,-0.00012033,-0.026969,0.42501
26323,8.999,0.63636,0.1,0.00036592,3656.7,0.00036614,3663.1,-0.00011968,12.867,-0.00012139,-0.0073527,0.41854
26324,9.0909,0.54545,0.1,0.00036358,3633.3,0.00036374,3637.8,-0.00011922,9.0788,-0.00012043,-0.0067505,0.42608
26325,8.999,0.81818,0.1,0.00036539,3651.3,0.0003657,3660.5,-0.00011903,18.48,-0.00012149,-0.0069232,0.4195
26326,9.0909,0.72727,0.1,0.00036305,3628,0.0003633,3635.3,-0.00011859,14.578,-0.00012053,-0.0074833,0.42707
26327,8.999,1,0.1,0.00036488,3646.3,0.00036528,3658.1,-0.00011842,23.815,-0.00012159,-0.0057297,0.42039
26328,9.0909,0.90909,0.1,0.00036255,3623,0.00036288,3632.9,-0.00011798,19.828,-0.00012062,-0.0058926,0.42799
26329,8.999,1.1818,0.1,0.0003644,3641.5,0.00036488,3655.8,-0.00011784,28.834,-0.00012168,-0.0050303,0.42119
26330,9.0909,1.0909,0.1,0.00036208,3618.3,0.00036249,3630.6,-0.00011741,24.793,-0.00012071,-0.0052809,0.42883
26331,8.999,1.3636,0.1,0.00036396,3637.1,0.00036452,3653.7,-0.0001173,33.498,-0.00012176,-0.0043786,0.42192
26332,9.0909,1.2727,0.1,0.00036163,3613.8,0.00036212,3628.5,-0.00011688,29.436,-0.00012079,-0.0046225,0.42959
26333,8.999,1.5455,0.1,0.00036355,3633,0.00036418,3651.8,-0.00011681,37.773,-0.00012184,-0.0038274,0.42257
26334,9.0909,1.4545,0.1,0.00036122,3609.8,0.00036179,3626.5,-0.00011638,33.722,-0.00012087,-0.0040906,0.43028
26335,8.999,1.7273,0.1,0.00036319,3629.4,0.00036388,3650,-0.00011637,41.625,-0.00012191,-0.0033426,0.42314
26336,9.0909,1.6364,0.1,0.00036085,3606,0.00036148,3624.7,-0.00011593,37.618,-0.00012094,-0.0036131,0.43088
26337,8.999,1.9091,0.1,0.00036287,3626.2,0.00036361,3648.5,-0.00011598,45.027,-0.00012197,-0.0029243,0.42363
26338,9.0909,1.8182,0.1,0.00036052,3602.7,0.0003612,3623.1,-0.00011553,41.095,-0.000121,-0.0031993,0.43141
26339,8.999,2.0909,0.1,0.00036259,3623.4,0.00036338,3647.2,-0.00011564,47.951,-0.00012202,-0.0025681,0.42405
26340,9.0909,2,0.1,0.00036024,3599.9,0.00036097,3621.7,-0.00011518,44.127,-0.00012106,-0.0028421,0.43187
26341,8.999,2.2727,0.1,0.00036236,3621.1,0.0003632,3646.1,-0.00011536,50.375,-0.00012207,-0.0022747,0.4244
26342,9.0909,2.1818,0.1,0.00035999,3597.4,0.00036076,3620.6,-0.00011489,46.691,-0.0001211,-0.002541,0.43225
26343,8.999,2.4545,0.1,0.00036218,3619.3,0.00036305,3645.2,-0.00011514,52.28,-0.0001221,-0.0020457,0.42466
26344,9.0909,2.3636,0.1,0.0003598,3595.5,0.0003606,3619.6,-0.00011465,48.766,-0.00012114,-0.0022985,0.43255
26345,8.999,2.6364,0.1,0.00036206,3618.1,0.00036294,3644.6,-0.00011499,53.651,-0.00012213,-0.0018813,0.42485
26346,9.0909,2.5455,0.1,0.00035965,3594,0.00036048,3618.9,-0.00011447,50.336,-0.00012117,-0.0021163,0.43278
26347,8.999,2.8182,0.1,0.00036198,3617.3,0.00036287,3644.2,-0.00011489,54.478,-0.00012214,-0.0017817,0.42497
26348,9.0909,2.7273,0.1,0.00035955,3593,0.00036039,3618.4,-0.00011435,51.39,-0.00012119,-0.0019934,0.43293
26349,8.999,3,0.1,0.00036195,3617,0.00036285,3644.1,-0.00011486,54.755,-0.00012215,-0.0017483,0.425
26350,9.0909,2.9091,0.1,0.0003595,3592.5,0.00036035,3618.2,-0.00011429,51.919,-0.0001212,-0.0019313,0.433
26351,8.999,3.1818,0.1,0.00036198,3617.3,0.00036287,3644.2,-0.00011489,54.478,-0.00012214,-0.0017817,0.42497
26352,9.0909,3.0909,0.1,0.0003595,3592.5,0.00036035,3618.2,-0.00011429,51.919,-0.0001212,-0.0019313,0.433
26353,8.999,3.3636,0.1,0.00036206,3618.1,0.00036294,3644.6,-0.00011499,53.651,-0.00012213,-0.0018812,0.42485
26354,9.0909,3.2727,0.1,0.00035955,3593,0.00036039,3618.4,-0.00011435,51.39,-0.00012119,-0.0019934,0.43293
26355,8.999,3.5455,0.1,0.00036218,3619.3,0.00036305,3645.2,-0.00011514,52.28,-0.0001221,-0.0020454,0.42466
26356,9.0909,3.4545,0.1,0.00035965,3594,0.00036048,3618.9,-0.00011447,50.336,-0.00012117,-0.0021163,0.43278
26357,8.999,3.7273,0.1,0.00036236,3621.1,0.0003632,3646.1,-0.00011536,50.375,-0.00012207,-0.0022744,0.4244
26358,9.0909,3.6364,0.1,0.0003598,3595.5,0.0003606,3619.6,-0.00011465,48.766,-0.00012114,-0.0022982,0.43255
26359,8.999,3.9091,0.1,0.00036259,3623.4,0.00036338,3647.2,-0.00011564,47.951,-0.00012202,-0.002568,0.42405
26360,9.0909,3.8182,0.1,0.00035999,3597.4,0.00036076,3620.6,-0.00011489,46.691,-0.0001211,-0.0025409,0.43225
26361,8.999,4.0909,0.1,0.00036287,3626.2,0.00036361,3648.5,-0.00011598,45.027,-0.00012197,-0.0029239,0.42363
26362,9.0909,4,0.1,0.00036024,3599.9,0.00036097,3621.7,-0.00011518,44.127,-0.00012106,-0.0028418,0.43187
26363,8.999,4.2727,0.1,0.00036319,3629.4,0.00036388,3650,-0.00011637,41.625,-0.00012191,-0.003342,0.42314
26364,9.0909,4.1818,0.1,0.00036052,3602.7,0.0003612,3623.1,-0.00011553,41.095,-0.000121,-0.0031987,0.43141
26365,8.999,4.4545,0.1,0.00036355,3633,0.00036418,3651.8,-0.00011681,37.772,-0.00012184,-0.0038268,0.42257
26366,9.0909,4.3636,0.1,0.00036085,3606,0.00036148,3624.7,-0.00011593,37.618,-0.00012094,-0.0036125,0.43088
26367,8.999,4.6364,0.1,0.00036396,3637.1,0.00036452,3653.7,-0.0001173,33.498,-0.00012176,-0.0043777,0.42192
26368,9.0909,4.5455,0.1,0.00036122,3609.8,0.00036179,3626.5,-0.00011638,33.722,-0.00012087,-0.0040901,0.43028
26369,8.999,4.8182,0.1,0.0003644,3641.5,0.00036488,3655.8,-0.00011784,28.834,-0.00012168,-0.0050295,0.42119
26370,9.0909,4.7273,0.1,0.00036163,3613.8,0.00036212,3628.5,-0.00011688,29.436,-0.00012079,-0.0046213,0.42959
26371,8.999,5,0.1,0.00036488,3646.3,0.00036528,3658.1,-0.00011842,23.815,-0.00012159,-0.0057286,0.42039
26372,9.0909,4.9091,0.1,0.00036208,3618.3,0.00036249,3630.6,-0.00011741,24.793,-0.00012071,-0.0052803,0.42883
26373,8.999,5.1818,0.1,0.00036539,3651.3,0.0003657,3660.5,-0.00011903,18.48,-0.00012149,-0.0069218,0.4195
26374,9.0909,5.0909,0.1,0.00036255,3623,0.00036288,3632.9,-0.00011798,19.828,-0.00012062,-0.0058909,0.42799
26375,8.999,5.3636,0.1,0.00036592,3656.7,0.00036614,3663.1,-0.00011968,12.867,-0.00012139,-0.0073521,0.41854
26376,9.0909,5.2727,0.1,0.00036305,3628,0.0003633,3635.3,-0.00011859,14.578,-0.00012053,-0.0074823,0.42707
26377,8.999,5.5455,0.1,0.00036648,3662.3,0.0003666,3665.8,-0.00012035,6.9877,-0.00012129,-0.016298,0.4175
26378,9.0909,5.4545,0.1,0.00036358,3633.3,0.00036374,3637.8,-0.00011922,9.0788,-0.00012043,-0.0067503,0.42608
26379,8.999,5.7273,0.1,0.00036713,3668.8,0.00036714,3669,-0.0001211,0.59404,-0.0001212,-0.14569,0.41639
26380,9.0909,5.6364,0.1,0.00036414,3638.9,0.0003642,3640.5,-0.00011989,3.3145,-0.00012033,-0.026967,0.42501
26381,9.0909,5.8182,0.1,0.00036485,3646,0.00036479,3644.2,-0.00012022,0.04911,-0.0001207,-3.58,0.42386
26382,8.999,5.9091,0.1,0.00036732,3670.6,0.00036727,3669.2,-0.00012107,0.021816,-0.00012145,-2.833,0.41519
26383,9.1827,0.27273,0.1,0.00036185,3616,0.00036184,3615.7,-0.00011937,0.085205,-0.00011947,-0.70735,0.43256
26384,9.2745,0.18182,0.1,0.00035956,3593.1,0.00035948,3590.9,-0.00011843,0.034754,-0.00011902,-4.3737,0.44016
26385,9.1827,0.090909,0.1,0.00036198,3617.3,0.00036192,3615.6,-0.00011929,0.014487,-0.00011973,-3.3139,0.43137
26386,9.1827,0.45455,0.1,0.00036124,3609.9,0.00036133,3612.6,-0.00011875,5.4215,-0.00011948,-0.014272,0.43366
26387,9.2745,0.36364,0.1,0.00035888,3586.3,0.00035892,3587.4,-0.00011826,2.0419,-0.00011853,-0.024641,0.4413
26388,9.1827,0.63636,0.1,0.00036071,3604.6,0.0003609,3610,-0.00011813,10.805,-0.00011957,-0.0065665,0.43469
26389,9.2745,0.54545,0.1,0.00035836,3581.2,0.00035849,3584.8,-0.00011765,7.32,-0.00011862,-0.0059014,0.44236
26390,9.1827,0.81818,0.1,0.00036022,3599.7,0.00036048,3607.6,-0.00011754,15.94,-0.00011966,-0.0063587,0.43564
26391,9.2745,0.72727,0.1,0.00035787,3576.3,0.00035808,3582.4,-0.00011707,12.348,-0.00011871,-0.006788,0.44334
26392,9.1827,1,0.1,0.00035975,3595,0.0003601,3605.3,-0.00011697,20.82,-0.00011975,-0.0054017,0.43651
26393,9.2745,0.90909,0.1,0.00035741,3571.6,0.0003577,3580.1,-0.00011651,17.148,-0.00011879,-0.0055084,0.44425
26394,9.1827,1.1818,0.1,0.0003593,3590.6,0.00035973,3603.2,-0.00011645,25.409,-0.00011983,-0.0048494,0.43731
26395,9.2745,1.0909,0.1,0.00035697,3567.2,0.00035733,3578,-0.00011599,21.685,-0.00011887,-0.0050492,0.44507
26396,9.1827,1.3636,0.1,0.0003589,3586.5,0.00035939,3601.2,-0.00011595,29.672,-0.0001199,-0.0043191,0.43803
26397,9.2745,1.2727,0.1,0.00035656,3563.1,0.00035699,3576,-0.00011549,25.927,-0.00011895,-0.0045218,0.44583
26398,9.1827,1.5455,0.1,0.00035852,3582.7,0.00035908,3599.4,-0.0001155,33.579,-0.00011997,-0.003865,0.43867
26399,9.2745,1.4545,0.1,0.00035618,3559.3,0.00035668,3574.2,-0.00011504,29.842,-0.00011901,-0.0040912,0.4465
26400,9.1827,1.7273,0.1,0.00035818,3579.4,0.0003588,3597.8,-0.0001151,37.1,-0.00012003,-0.0034607,0.43924
26401,9.2745,1.6364,0.1,0.00035584,3555.9,0.00035639,3572.5,-0.00011463,33.4,-0.00011908,-0.0036975,0.44711
26402,9.1827,1.9091,0.1,0.00035789,3576.4,0.00035855,3596.3,-0.00011474,40.207,-0.00012009,-0.0031092,0.43973
26403,9.2745,1.8182,0.1,0.00035553,3552.9,0.00035614,3571,-0.00011426,36.575,-0.00011913,-0.0033529,0.44763
26404,9.1827,2.0909,0.1,0.00035763,3573.9,0.00035834,3595.1,-0.00011443,42.878,-0.00012014,-0.0028079,0.44014
26405,9.2745,2,0.1,0.00035527,3550.2,0.00035592,3569.7,-0.00011394,39.344,-0.00011918,-0.0030534,0.44808
26406,9.1827,2.2727,0.1,0.00035742,3571.8,0.00035817,3594.1,-0.00011417,45.092,-0.00012018,-0.0025582,0.44048
26407,9.2745,2.1818,0.1,0.00035504,3548,0.00035573,3568.6,-0.00011367,41.684,-0.00011922,-0.0027993,0.44846
26408,9.1827,2.4545,0.1,0.00035726,3570.1,0.00035803,3593.3,-0.00011397,46.832,-0.00012021,-0.0023629,0.44074
26409,9.2745,2.3636,0.1,0.00035486,3546.1,0.00035558,3567.7,-0.00011346,43.578,-0.00011926,-0.0025934,0.44876
26410,9.1827,2.6364,0.1,0.00035714,3568.9,0.00035793,3592.7,-0.00011383,48.085,-0.00012023,-0.0022223,0.44093
26411,9.2745,2.5455,0.1,0.00035472,3544.8,0.00035547,3567.1,-0.00011329,45.011,-0.00011928,-0.0024387,0.44898
26412,9.1827,2.8182,0.1,0.00035706,3568.2,0.00035787,3592.4,-0.00011374,48.841,-0.00012024,-0.002137,0.44105
26413,9.2745,2.7273,0.1,0.00035463,3543.9,0.00035539,3566.6,-0.00011318,45.973,-0.0001193,-0.0023339,0.44913
26414,9.1827,3,0.1,0.00035704,3567.9,0.00035785,3592.2,-0.00011371,49.093,-0.00012025,-0.0021083,0.44108
26415,9.2745,2.9091,0.1,0.00035458,3543.4,0.00035535,3566.4,-0.00011312,46.456,-0.00011931,-0.0022807,0.4492
26416,9.1827,3.1818,0.1,0.00035706,3568.2,0.00035787,3592.4,-0.00011374,48.841,-0.00012024,-0.0021369,0.44105
26417,9.2745,3.0909,0.1,0.00035458,3543.4,0.00035535,3566.4,-0.00011312,46.456,-0.00011931,-0.0022806,0.4492
26418,9.1827,3.3636,0.1,0.00035714,3568.9,0.00035793,3592.7,-0.00011383,48.085,-0.00012023,-0.0022224,0.44093
26419,9.2745,3.2727,0.1,0.00035463,3543.9,0.00035539,3566.6,-0.00011318,45.973,-0.0001193,-0.0023339,0.44913
26420,9.1827,3.5455,0.1,0.00035726,3570.1,0.00035803,3593.3,-0.00011397,46.832,-0.00012021,-0.0023628,0.44074
26421,9.2745,3.4545,0.1,0.00035472,3544.8,0.00035547,3567.1,-0.00011329,45.011,-0.00011928,-0.0024387,0.44898
26422,9.1827,3.7273,0.1,0.00035742,3571.8,0.00035817,3594.1,-0.00011417,45.092,-0.00012018,-0.002558,0.44048
26423,9.2745,3.6364,0.1,0.00035486,3546.1,0.00035558,3567.7,-0.00011346,43.578,-0.00011926,-0.0025932,0.44876
26424,9.1827,3.9091,0.1,0.00035763,3573.9,0.00035834,3595.1,-0.00011443,42.878,-0.00012014,-0.0028075,0.44014
26425,9.2745,3.8182,0.1,0.00035504,3548,0.00035573,3568.6,-0.00011367,41.684,-0.00011922,-0.002799,0.44846
26426,9.1827,4.0909,0.1,0.00035789,3576.4,0.00035855,3596.3,-0.00011474,40.207,-0.00012009,-0.0031087,0.43973
26427,9.2745,4,0.1,0.00035527,3550.2,0.00035592,3569.7,-0.00011394,39.344,-0.00011918,-0.003053,0.44808
26428,9.1827,4.2727,0.1,0.00035818,3579.4,0.0003588,3597.8,-0.0001151,37.1,-0.00012003,-0.0034601,0.43924
26429,9.2745,4.1818,0.1,0.00035553,3552.9,0.00035614,3571,-0.00011426,36.575,-0.00011913,-0.0033525,0.44763
26430,9.1827,4.4545,0.1,0.00035852,3582.7,0.00035908,3599.4,-0.0001155,33.579,-0.00011997,-0.0038644,0.43867
26431,9.2745,4.3636,0.1,0.00035584,3555.9,0.00035639,3572.5,-0.00011463,33.4,-0.00011908,-0.003697,0.44711
26432,9.1827,4.6364,0.1,0.0003589,3586.5,0.00035939,3601.2,-0.00011595,29.672,-0.0001199,-0.0043183,0.43803
26433,9.2745,4.5455,0.1,0.00035618,3559.3,0.00035668,3574.2,-0.00011504,29.842,-0.00011901,-0.0040903,0.4465
26434,9.1827,4.8182,0.1,0.0003593,3590.6,0.00035973,3603.2,-0.00011645,25.408,-0.00011983,-0.0048486,0.43731
26435,9.2745,4.7273,0.1,0.00035656,3563.1,0.00035699,3576,-0.00011549,25.927,-0.00011895,-0.004521,0.44583
26436,9.1827,5,0.1,0.00035975,3595,0.0003601,3605.3,-0.00011697,20.82,-0.00011975,-0.0054006,0.43651
26437,9.2745,4.9091,0.1,0.00035697,3567.2,0.00035733,3578,-0.00011599,21.685,-0.00011887,-0.0050485,0.44507
26438,9.1827,5.1818,0.1,0.00036022,3599.7,0.00036048,3607.6,-0.00011754,15.94,-0.00011966,-0.0063575,0.43564
26439,9.2745,5.0909,0.1,0.00035741,3571.6,0.0003577,3580.1,-0.00011651,17.148,-0.00011879,-0.0055068,0.44425
26440,9.1827,5.3636,0.1,0.00036071,3604.6,0.0003609,3610,-0.00011813,10.805,-0.00011957,-0.0065659,0.43469
26441,9.2745,5.2727,0.1,0.00035787,3576.3,0.00035808,3582.4,-0.00011707,12.348,-0.00011871,-0.006787,0.44334
26442,9.1827,5.5455,0.1,0.00036124,3609.9,0.00036133,3612.6,-0.00011875,5.4215,-0.00011948,-0.014271,0.43366
26443,9.2745,5.4545,0.1,0.00035836,3581.2,0.00035849,3584.8,-0.00011765,7.32,-0.00011862,-0.0059012,0.44236
26444,9.1827,5.7273,0.1,0.00036185,3616,0.00036184,3615.7,-0.00011937,0.085205,-0.00011947,-0.70736,0.43256
26445,9.2745,5.6364,0.1,0.00035888,3586.3,0.00035892,3587.4,-0.00011826,2.0419,-0.00011853,-0.024639,0.4413
26446,9.2745,5.8182,0.1,0.00035956,3593.1,0.00035948,3590.9,-0.00011843,0.034755,-0.00011902,-4.3737,0.44016
26447,9.1827,5.9091,0.1,0.00036198,3617.3,0.00036192,3615.6,-0.00011929,0.014488,-0.00011973,-3.3139,0.43137
26448,9.3663,0.27273,0.1,0.00035658,3563.4,0.00035655,3562.5,-0.00011759,0.024265,-0.00011781,-1.6521,0.44897
26449,9.4582,0.18182,0.1,0.00035429,3540.4,0.0003542,3537.9,-0.00011666,0.025682,-0.00011734,-5.1271,0.4567
26450,9.3663,0.090909,0.1,0.00035666,3564.1,0.0003566,3562.3,-0.00011751,0.0098114,-0.00011801,-3.7705,0.4478
26451,9.3663,0.45455,0.1,0.00035601,3557.6,0.00035607,3559.6,-0.00011715,3.9561,-0.00011768,-0.012394,0.45007
26452,9.4582,0.36364,0.1,0.00035364,3534,0.00035366,3534.4,-0.00011663,0.85104,-0.00011675,-0.024484,0.45782
26453,9.3663,0.63636,0.1,0.00035552,3552.8,0.00035567,3557.2,-0.00011658,8.8796,-0.00011776,-0.0058802,0.45108
26454,9.4582,0.54545,0.1,0.00035316,3529.2,0.00035326,3532,-0.00011607,5.6755,-0.00011682,-0.005155,0.45887
26455,9.3663,0.81818,0.1,0.00035506,3548.2,0.00035529,3554.9,-0.00011604,13.571,-0.00011784,-0.0058752,0.45202
26456,9.4582,0.72727,0.1,0.00035271,3524.6,0.00035288,3529.8,-0.00011553,10.267,-0.0001169,-0.0061925,0.45984
26457,9.3663,1,0.1,0.00035463,3543.8,0.00035493,3552.8,-0.00011552,18.028,-0.00011792,-0.0051304,0.45288
26458,9.4582,0.90909,0.1,0.00035228,3520.3,0.00035252,3527.6,-0.00011503,14.648,-0.00011698,-0.0051927,0.46074
26459,9.3663,1.1818,0.1,0.00035422,3539.7,0.00035459,3550.8,-0.00011503,22.218,-0.00011799,-0.0047079,0.45367
26460,9.4582,1.0909,0.1,0.00035187,3516.3,0.00035218,3525.6,-0.00011455,18.788,-0.00011705,-0.0048661,0.46156
26461,9.3663,1.3636,0.1,0.00035384,3535.9,0.00035428,3548.9,-0.00011458,26.11,-0.00011806,-0.0042849,0.45438
26462,9.4582,1.2727,0.1,0.00035149,3512.5,0.00035187,3523.7,-0.0001141,22.657,-0.00011711,-0.0044533,0.46231
26463,9.3663,1.5455,0.1,0.00035349,3532.5,0.00035399,3547.2,-0.00011417,29.676,-0.00011812,-0.003917,0.45502
26464,9.4582,1.4545,0.1,0.00035114,3509,0.00035158,3522,-0.00011368,26.228,-0.00011717,-0.0041111,0.46297
26465,9.3663,1.7273,0.1,0.00035318,3529.4,0.00035373,3545.7,-0.0001138,32.888,-0.00011818,-0.0035841,0.45558
26466,9.4582,1.6364,0.1,0.00035082,3505.8,0.00035132,3520.5,-0.00011331,29.473,-0.00011723,-0.0037914,0.46357
26467,9.3663,1.9091,0.1,0.00035291,3526.6,0.0003535,3544.4,-0.00011347,35.724,-0.00011822,-0.0032921,0.45606
26468,9.4582,1.8182,0.1,0.00035054,3503,0.00035108,3519.1,-0.00011297,32.368,-0.00011728,-0.0035081,0.46409
26469,9.3663,2.0909,0.1,0.00035267,3524.3,0.00035331,3543.2,-0.00011319,38.161,-0.00011827,-0.00304,0.45647
26470,9.4582,2,0.1,0.0003503,3500.5,0.00035088,3517.9,-0.00011268,34.891,-0.00011732,-0.0032597,0.46453
26471,9.3663,2.2727,0.1,0.00035248,3522.3,0.00035314,3542.3,-0.00011295,40.18,-0.0001183,-0.0028299,0.45681
26472,9.4582,2.1818,0.1,0.00035009,3498.5,0.0003507,3516.8,-0.00011243,37.024,-0.00011736,-0.0030473,0.4649
26473,9.3663,2.4545,0.1,0.00035232,3520.8,0.00035302,3541.5,-0.00011277,41.767,-0.00011833,-0.0026647,0.45707
26474,9.4582,2.3636,0.1,0.00034992,3496.8,0.00035056,3516,-0.00011223,38.751,-0.00011739,-0.0028745,0.4652
26475,9.3663,2.6364,0.1,0.00035221,3519.7,0.00035292,3541,-0.00011264,42.91,-0.00011835,-0.0025458,0.45726
26476,9.4582,2.5455,0.1,0.00034979,3495.5,0.00035046,3515.4,-0.00011208,40.057,-0.00011741,-0.002744,0.46542
26477,9.3663,2.8182,0.1,0.00035215,3519,0.00035287,3540.6,-0.00011256,43.599,-0.00011836,-0.0024732,0.45737
26478,9.4582,2.7273,0.1,0.00034971,3494.7,0.00035039,3515,-0.00011198,40.933,-0.00011743,-0.0026555,0.46557
26479,9.3663,3,0.1,0.00035213,3518.8,0.00035285,3540.5,-0.00011253,43.829,-0.00011837,-0.0024486,0.4574
26480,9.4582,2.9091,0.1,0.00034967,3494.3,0.00035035,3514.8,-0.00011193,41.373,-0.00011743,-0.0026103,0.46564
26481,9.3663,3.1818,0.1,0.00035215,3519,0.00035287,3540.6,-0.00011256,43.599,-0.00011836,-0.0024731,0.45737
26482,9.4582,3.0909,0.1,0.00034967,3494.3,0.00035035,3514.8,-0.00011193,41.373,-0.00011743,-0.0026104,0.46564
26483,9.3663,3.3636,0.1,0.00035221,3519.7,0.00035292,3541,-0.00011264,42.91,-0.00011835,-0.0025456,0.45726
26484,9.4582,3.2727,0.1,0.00034971,3494.7,0.00035039,3515,-0.00011198,40.933,-0.00011743,-0.0026554,0.46557
26485,9.3663,3.5455,0.1,0.00035232,3520.8,0.00035302,3541.5,-0.00011277,41.767,-0.00011833,-0.0026645,0.45707
26486,9.4582,3.4545,0.1,0.00034979,3495.5,0.00035046,3515.4,-0.00011208,40.057,-0.00011741,-0.002744,0.46542
26487,9.3663,3.7273,0.1,0.00035248,3522.3,0.00035314,3542.3,-0.00011295,40.18,-0.0001183,-0.0028295,0.45681
26488,9.4582,3.6364,0.1,0.00034992,3496.8,0.00035056,3516,-0.00011223,38.751,-0.00011739,-0.0028741,0.4652
26489,9.3663,3.9091,0.1,0.00035267,3524.3,0.00035331,3543.2,-0.00011319,38.161,-0.00011827,-0.0030397,0.45647
26490,9.4582,3.8182,0.1,0.00035009,3498.5,0.0003507,3516.8,-0.00011243,37.024,-0.00011736,-0.0030471,0.4649
26491,9.3663,4.0909,0.1,0.00035291,3526.6,0.0003535,3544.4,-0.00011347,35.724,-0.00011822,-0.0032917,0.45606
26492,9.4582,4,0.1,0.0003503,3500.5,0.00035088,3517.9,-0.00011268,34.891,-0.00011732,-0.0032592,0.46453
26493,9.3663,4.2727,0.1,0.00035318,3529.4,0.00035373,3545.7,-0.0001138,32.888,-0.00011818,-0.0035838,0.45558
26494,9.4582,4.1818,0.1,0.00035054,3503,0.00035108,3519.1,-0.00011297,32.368,-0.00011728,-0.0035078,0.46409
26495,9.3663,4.4545,0.1,0.00035349,3532.5,0.00035399,3547.2,-0.00011417,29.676,-0.00011812,-0.0039162,0.45502
26496,9.4582,4.3636,0.1,0.00035082,3505.8,0.00035132,3520.5,-0.00011331,29.473,-0.00011723,-0.003791,0.46357
26497,9.3663,4.6364,0.1,0.00035384,3535.9,0.00035428,3548.9,-0.00011458,26.11,-0.00011806,-0.0042842,0.45438
26498,9.4582,4.5455,0.1,0.00035114,3509,0.00035158,3522,-0.00011368,26.228,-0.00011717,-0.0041103,0.46297
26499,9.3663,4.8182,0.1,0.00035422,3539.7,0.00035459,3550.8,-0.00011503,22.218,-0.00011799,-0.0047073,0.45367
26500,9.4582,4.7273,0.1,0.00035149,3512.5,0.00035187,3523.7,-0.0001141,22.657,-0.00011711,-0.0044528,0.46231
26501,9.3663,5,0.1,0.00035463,3543.8,0.00035493,3552.8,-0.00011552,18.028,-0.00011792,-0.0051291,0.45288
26502,9.4582,4.9091,0.1,0.00035187,3516.3,0.00035218,3525.6,-0.00011455,18.788,-0.00011705,-0.0048654,0.46156
26503,9.3663,5.1818,0.1,0.00035506,3548.2,0.00035529,3554.9,-0.00011604,13.571,-0.00011784,-0.0058738,0.45202
26504,9.4582,5.0909,0.1,0.00035228,3520.3,0.00035252,3527.6,-0.00011503,14.648,-0.00011698,-0.0051912,0.46074
26505,9.3663,5.3636,0.1,0.00035552,3552.8,0.00035567,3557.2,-0.00011658,8.8796,-0.00011776,-0.0058795,0.45108
26506,9.4582,5.2727,0.1,0.00035271,3524.6,0.00035288,3529.8,-0.00011553,10.267,-0.0001169,-0.0061915,0.45984
26507,9.3663,5.5455,0.1,0.00035601,3557.6,0.00035607,3559.6,-0.00011715,3.9561,-0.00011768,-0.012393,0.45007
26508,9.4582,5.4545,0.1,0.00035316,3529.2,0.00035326,3532,-0.00011607,5.6754,-0.00011682,-0.0051546,0.45887
26509,9.3663,5.7273,0.1,0.00035658,3563.4,0.00035655,3562.5,-0.00011759,0.024266,-0.00011781,-1.6521,0.44897
26510,9.4582,5.6364,0.1,0.00035364,3534,0.00035366,3534.4,-0.00011663,0.85102,-0.00011675,-0.024483,0.45782
26511,9.4582,5.8182,0.1,0.00035429,3540.4,0.0003542,3537.9,-0.00011666,0.025683,-0.00011734,-5.1271,0.4567
26512,9.3663,5.9091,0.1,0.00035666,3564.1,0.0003566,3562.3,-0.00011751,0.0098128,-0.00011801,-3.7705,0.4478
26513,9.55,0.27273,0.1,0.00035134,3511,0.0003513,3509.7,-0.00011581,0.0096749,-0.00011616,-2.5829,0.46563
26514,9.6418,0.18182,0.1,0.00034904,3488,0.00034894,3485.1,-0.00011489,0.019556,-0.00011567,-5.8406,0.47348
26515,9.55,0.090909,0.1,0.00035137,3511.3,0.0003513,3509.2,-0.00011574,0.0067434,-0.0001163,-4.2036,0.46447
26516,9.55,0.45455,0.1,0.0003508,3505.5,0.00035084,3506.8,-0.00011555,2.584,-0.00011589,-0.010649,0.46671
26517,9.6418,0.36364,0.1,0.00034843,3481.9,0.00034842,3481.7,-0.00011497,-0.0021371,-0.00011501,-0.28837,0.47459
26518,9.55,0.63636,0.1,0.00035035,3501,0.00035047,3504.6,-0.00011502,7.0798,-0.00011597,-0.0053073,0.46771
26519,9.6418,0.54545,0.1,0.00034798,3477.4,0.00034805,3479.5,-0.00011449,4.1364,-0.00011504,-0.0045468,0.47563
26520,9.55,0.81818,0.1,0.00034992,3496.8,0.00035011,3502.4,-0.00011452,11.359,-0.00011604,-0.0054798,0.46864
26521,9.6418,0.72727,0.1,0.00034756,3473.2,0.0003477,3477.3,-0.000114,8.3215,-0.00011511,-0.0057224,0.47659
26522,9.55,1,0.1,0.00034952,3492.8,0.00034978,3500.4,-0.00011405,15.423,-0.0001161,-0.004919,0.46949
26523,9.6418,0.90909,0.1,0.00034716,3469.2,0.00034737,3475.3,-0.00011353,12.313,-0.00011517,-0.0049631,0.47747
26524,9.55,1.1818,0.1,0.00034914,3489,0.00034946,3498.6,-0.00011361,19.242,-0.00011617,-0.0046074,0.47027
26525,9.6418,1.0909,0.1,0.00034678,3465.4,0.00034705,3473.4,-0.00011309,16.084,-0.00011523,-0.0047451,0.47828
26526,9.55,1.3636,0.1,0.00034879,3485.5,0.00034917,3496.8,-0.00011319,22.789,-0.00011623,-0.0042769,0.47097
26527,9.6418,1.2727,0.1,0.00034643,3461.9,0.00034676,3471.7,-0.00011268,19.607,-0.00011529,-0.0044292,0.47902
26528,9.55,1.5455,0.1,0.00034847,3482.3,0.0003489,3495.2,-0.00011282,26.038,-0.00011628,-0.0039833,0.4716
26529,9.6418,1.4545,0.1,0.00034611,3458.7,0.00034649,3470.1,-0.0001123,22.858,-0.00011535,-0.0041609,0.47968
26530,9.55,1.7273,0.1,0.00034818,3479.4,0.00034867,3493.8,-0.00011248,28.965,-0.00011633,-0.003713,0.47216
26531,9.6418,1.6364,0.1,0.00034582,3455.8,0.00034625,3468.6,-0.00011196,25.811,-0.0001154,-0.0039047,0.48027
26532,9.55,1.9091,0.1,0.00034793,3476.9,0.00034845,3492.5,-0.00011218,31.548,-0.00011638,-0.0034732,0.47264
26533,9.6418,1.8182,0.1,0.00034556,3453.2,0.00034603,3467.3,-0.00011165,28.446,-0.00011544,-0.0036747,0.48078
26534,9.55,2.0909,0.1,0.00034771,3474.7,0.00034827,3491.5,-0.00011192,33.767,-0.00011641,-0.0032644,0.47304
26535,9.6418,2,0.1,0.00034533,3450.9,0.00034584,3466.2,-0.00011139,30.742,-0.00011548,-0.0034703,0.48122
26536,9.55,2.2727,0.1,0.00034753,3472.9,0.00034812,3490.6,-0.00011171,35.607,-0.00011644,-0.0030892,0.47337
26537,9.6418,2.1818,0.1,0.00034514,3449,0.00034568,3465.2,-0.00011116,32.683,-0.00011551,-0.0032944,0.48159
26538,9.55,2.4545,0.1,0.00034739,3471.5,0.00034801,3489.9,-0.00011154,37.052,-0.00011647,-0.0029509,0.47363
26539,9.6418,2.3636,0.1,0.00034498,3447.4,0.00034555,3464.4,-0.00011098,34.253,-0.00011554,-0.0031506,0.48188
26540,9.55,2.6364,0.1,0.00034729,3470.5,0.00034792,3489.4,-0.00011142,38.092,-0.00011649,-0.0028507,0.47382
26541,9.6418,2.5455,0.1,0.00034487,3446.3,0.00034546,3463.9,-0.00011084,35.442,-0.00011556,-0.0030419,0.4821
26542,9.55,2.8182,0.1,0.00034723,3469.9,0.00034787,3489.1,-0.00011134,38.72,-0.0001165,-0.0027895,0.47393
26543,9.6418,2.7273,0.1,0.00034479,3445.5,0.00034539,3463.5,-0.00011075,36.239,-0.00011557,-0.0029674,0.48225
26544,9.55,3,0.1,0.00034721,3469.7,0.00034785,3489,-0.00011132,38.929,-0.0001165,-0.002769,0.47396
26545,9.6418,2.9091,0.1,0.00034475,3445.1,0.00034536,3463.3,-0.0001107,36.639,-0.00011558,-0.0029296,0.48232
26546,9.55,3.1818,0.1,0.00034723,3469.9,0.00034787,3489.1,-0.00011134,38.72,-0.0001165,-0.0027896,0.47393
26547,9.6418,3.0909,0.1,0.00034475,3445.1,0.00034536,3463.3,-0.0001107,36.639,-0.00011558,-0.0029297,0.48232
26548,9.55,3.3636,0.1,0.00034729,3470.5,0.00034792,3489.4,-0.00011142,38.092,-0.00011649,-0.0028507,0.47382
26549,9.6418,3.2727,0.1,0.00034479,3445.5,0.00034539,3463.5,-0.00011075,36.239,-0.00011557,-0.0029672,0.48225
26550,9.55,3.5455,0.1,0.00034739,3471.5,0.00034801,3489.9,-0.00011154,37.052,-0.00011647,-0.0029506,0.47363
26551,9.6418,3.4545,0.1,0.00034487,3446.3,0.00034546,3463.9,-0.00011084,35.442,-0.00011556,-0.0030418,0.4821
26552,9.55,3.7273,0.1,0.00034753,3472.9,0.00034812,3490.6,-0.00011171,35.607,-0.00011644,-0.0030888,0.47337
26553,9.6418,3.6364,0.1,0.00034498,3447.4,0.00034555,3464.4,-0.00011098,34.253,-0.00011554,-0.0031503,0.48188
26554,9.55,3.9091,0.1,0.00034771,3474.7,0.00034827,3491.5,-0.00011192,33.767,-0.00011641,-0.003264,0.47304
26555,9.6418,3.8182,0.1,0.00034514,3449,0.00034568,3465.2,-0.00011116,32.683,-0.00011551,-0.0032943,0.48159
26556,9.55,4.0909,0.1,0.00034793,3476.9,0.00034845,3492.5,-0.00011218,31.548,-0.00011638,-0.0034728,0.47264
26557,9.6418,4,0.1,0.00034533,3450.9,0.00034584,3466.2,-0.00011139,30.742,-0.00011548,-0.00347,0.48122
26558,9.55,4.2727,0.1,0.00034818,3479.4,0.00034867,3493.8,-0.00011248,28.965,-0.00011633,-0.0037127,0.47216
26559,9.6418,4.1818,0.1,0.00034556,3453.2,0.00034603,3467.3,-0.00011165,28.446,-0.00011544,-0.0036742,0.48078
26560,9.55,4.4545,0.1,0.00034847,3482.3,0.0003489,3495.2,-0.00011282,26.038,-0.00011628,-0.0039828,0.4716
26561,9.6418,4.3636,0.1,0.00034582,3455.8,0.00034625,3468.6,-0.00011196,25.811,-0.0001154,-0.0039042,0.48027
26562,9.55,4.6364,0.1,0.00034879,3485.5,0.00034917,3496.8,-0.00011319,22.789,-0.00011623,-0.0042764,0.47097
26563,9.6418,4.5455,0.1,0.00034611,3458.7,0.00034649,3470.1,-0.0001123,22.858,-0.00011535,-0.0041605,0.47968
26564,9.55,4.8182,0.1,0.00034914,3489,0.00034946,3498.6,-0.00011361,19.242,-0.00011617,-0.0046069,0.47027
26565,9.6418,4.7273,0.1,0.00034643,3461.9,0.00034676,3471.7,-0.00011268,19.607,-0.00011529,-0.0044283,0.47902
26566,9.55,5,0.1,0.00034952,3492.8,0.00034978,3500.4,-0.00011405,15.423,-0.0001161,-0.0049181,0.46949
26567,9.6418,4.9091,0.1,0.00034678,3465.4,0.00034705,3473.4,-0.00011309,16.083,-0.00011523,-0.0047445,0.47828
26568,9.55,5.1818,0.1,0.00034992,3496.8,0.00035011,3502.4,-0.00011452,11.359,-0.00011604,-0.0054787,0.46864
26569,9.6418,5.0909,0.1,0.00034716,3469.2,0.00034737,3475.3,-0.00011353,12.313,-0.00011517,-0.0049618,0.47747
26570,9.55,5.3636,0.1,0.00035035,3501,0.00035047,3504.6,-0.00011502,7.0798,-0.00011597,-0.0053064,0.46771
26571,9.6418,5.2727,0.1,0.00034756,3473.2,0.0003477,3477.3,-0.000114,8.3215,-0.00011511,-0.0057215,0.47659
26572,9.55,5.5455,0.1,0.0003508,3505.5,0.00035084,3506.8,-0.00011555,2.584,-0.00011589,-0.010648,0.46671
26573,9.6418,5.4545,0.1,0.00034798,3477.4,0.00034805,3479.5,-0.00011449,4.1363,-0.00011504,-0.0045461,0.47563
26574,9.55,5.7273,0.1,0.00035134,3511,0.0003513,3509.7,-0.00011581,0.0096759,-0.00011616,-2.5829,0.46563
26575,9.6418,5.6364,0.1,0.00034843,3481.9,0.00034842,3481.7,-0.00011497,-0.0021363,-0.00011501,-0.28838,0.47459
26576,9.6418,5.8182,0.1,0.00034904,3488,0.00034894,3485.1,-0.00011489,0.019556,-0.00011567,-5.8407,0.47348
26577,9.55,5.9091,0.1,0.00035137,3511.3,0.0003513,3509.2,-0.00011574,0.006744,-0.0001163,-4.2036,0.46447
26578,9.7337,0.27273,0.1,0.00034612,3458.8,0.00034606,3457.1,-0.00011405,0.0040559,-0.00011451,-3.4666,0.48252
26579,9.8255,0.18182,0.1,0.00034382,3435.8,0.00034371,3432.6,-0.00011314,0.015221,-0.000114,-6.516,0.4905
26580,9.7337,0.090909,0.1,0.0003461,3458.7,0.00034603,3456.4,-0.00011399,0.004687,-0.0001146,-4.614,0.48138
26581,9.7337,0.45455,0.1,0.00034561,3453.7,0.00034563,3454.3,-0.00011394,1.2978,-0.00011412,-0.0090464,0.48359
26582,9.8255,0.36364,0.1,0.00034323,3429.9,0.00034321,3429.3,-0.0001132,-0.011584,-0.00011338,-1.3279,0.49159
26583,9.7337,0.63636,0.1,0.00034519,3449.5,0.00034528,3452.2,-0.00011346,5.3956,-0.00011418,-0.0049038,0.48458
26584,9.8255,0.54545,0.1,0.00034281,3425.8,0.00034286,3427.1,-0.0001129,2.6943,-0.00011326,-0.004167,0.49262
26585,9.7337,0.81818,0.1,0.00034479,3445.6,0.00034495,3450.2,-0.000113,9.2914,-0.00011424,-0.0052094,0.4855
26586,9.8255,0.72727,0.1,0.00034242,3421.9,0.00034253,3425.1,-0.00011246,6.5007,-0.00011332,-0.0054128,0.49356
26587,9.7337,1,0.1,0.00034442,3441.8,0.00034464,3448.3,-0.00011257,12.989,-0.0001143,-0.0047961,0.48634
26588,9.8255,0.90909,0.1,0.00034205,3418.2,0.00034222,3423.2,-0.00011203,10.129,-0.00011338,-0.0048349,0.49444
26589,9.7337,1.1818,0.1,0.00034407,3438.3,0.00034435,3446.5,-0.00011217,16.464,-0.00011436,-0.0045722,0.48711
26590,9.8255,1.0909,0.1,0.00034171,3414.7,0.00034193,3421.5,-0.00011163,13.556,-0.00011343,-0.0046925,0.49524
26591,9.7337,1.3636,0.1,0.00034375,3435.1,0.00034408,3444.9,-0.00011179,19.69,-0.00011441,-0.0043167,0.4878
26592,9.8255,1.2727,0.1,0.00034138,3411.5,0.00034166,3419.8,-0.00011125,16.757,-0.00011349,-0.0044502,0.49597
26593,9.7337,1.5455,0.1,0.00034345,3432.2,0.00034383,3443.4,-0.00011145,22.645,-0.00011446,-0.0040844,0.48842
26594,9.8255,1.4545,0.1,0.00034108,3408.5,0.00034141,3418.3,-0.00011091,19.71,-0.00011353,-0.0042408,0.49662
26595,9.7337,1.7273,0.1,0.00034319,3429.5,0.00034361,3442.1,-0.00011113,25.306,-0.0001145,-0.0038673,0.48897
26596,9.8255,1.6364,0.1,0.00034081,3405.8,0.00034119,3416.9,-0.0001106,22.393,-0.00011358,-0.004036,0.4972
26597,9.7337,1.9091,0.1,0.00034295,3427.2,0.00034342,3440.9,-0.00011086,27.654,-0.00011454,-0.0036717,0.48945
26598,9.8255,1.8182,0.1,0.00034057,3403.4,0.00034099,3415.7,-0.00011032,24.785,-0.00011362,-0.0038498,0.49771
26599,9.7337,2.0909,0.1,0.00034275,3425.2,0.00034325,3439.9,-0.00011063,29.671,-0.00011458,-0.0034997,0.48985
26600,9.8255,2,0.1,0.00034036,3401.3,0.00034081,3414.7,-0.00011007,26.87,-0.00011365,-0.0036826,0.49814
26601,9.7337,2.2727,0.1,0.00034259,3423.5,0.00034311,3439.1,-0.00011043,31.343,-0.0001146,-0.0033547,0.49017
26602,9.8255,2.1818,0.1,0.00034019,3399.5,0.00034067,3413.8,-0.00010987,28.632,-0.00011368,-0.0035379,0.49851
26603,9.7337,2.4545,0.1,0.00034246,3422.2,0.000343,3438.4,-0.00011028,32.656,-0.00011462,-0.0032401,0.49043
26604,9.8255,2.3636,0.1,0.00034005,3398.1,0.00034055,3413,-0.0001097,30.058,-0.0001137,-0.0034185,0.4988
26605,9.7337,2.6364,0.1,0.00034236,3421.3,0.00034292,3437.9,-0.00011017,33.601,-0.00011464,-0.0031568,0.49061
26606,9.8255,2.5455,0.1,0.00033994,3397,0.00034046,3412.5,-0.00010957,31.137,-0.00011372,-0.0033284,0.49901
26607,9.7337,2.8182,0.1,0.00034231,3420.7,0.00034288,3437.7,-0.0001101,34.172,-0.00011465,-0.0031055,0.49072
26608,9.8255,2.7273,0.1,0.00033987,3396.3,0.0003404,3412.1,-0.00010949,31.86,-0.00011373,-0.0032663,0.49916
26609,9.7337,3,0.1,0.00034229,3420.5,0.00034286,3437.6,-0.00011008,34.362,-0.00011465,-0.0030883,0.49076
26610,9.8255,2.9091,0.1,0.00033983,3396,0.00034037,3411.9,-0.00010945,32.224,-0.00011374,-0.0032347,0.49923
26611,9.7337,3.1818,0.1,0.00034231,3420.7,0.00034288,3437.7,-0.0001101,34.171,-0.00011465,-0.0031053,0.49072
26612,9.8255,3.0909,0.1,0.00033983,3396,0.00034037,3411.9,-0.00010945,32.224,-0.00011374,-0.0032347,0.49923
26613,9.7337,3.3636,0.1,0.00034236,3421.3,0.00034292,3437.9,-0.00011017,33.601,-0.00011464,-0.0031565,0.49061
26614,9.8255,3.2727,0.1,0.00033987,3396.3,0.0003404,3412.1,-0.00010949,31.86,-0.00011373,-0.0032662,0.49916
26615,9.7337,3.5455,0.1,0.00034246,3422.2,0.000343,3438.4,-0.00011028,32.656,-0.00011462,-0.0032398,0.49043
26616,9.8255,3.4545,0.1,0.00033994,3397,0.00034046,3412.5,-0.00010957,31.137,-0.00011372,-0.0033283,0.49901
26617,9.7337,3.7273,0.1,0.00034259,3423.5,0.00034311,3439.1,-0.00011043,31.343,-0.0001146,-0.0033545,0.49017
26618,9.8255,3.6364,0.1,0.00034005,3398.1,0.00034055,3413,-0.0001097,30.058,-0.0001137,-0.0034181,0.4988
26619,9.7337,3.9091,0.1,0.00034275,3425.2,0.00034325,3439.9,-0.00011063,29.671,-0.00011458,-0.0034997,0.48985
26620,9.8255,3.8182,0.1,0.00034019,3399.5,0.00034067,3413.8,-0.00010987,28.632,-0.00011368,-0.0035374,0.49851
26621,9.7337,4.0909,0.1,0.00034295,3427.2,0.00034342,3440.9,-0.00011086,27.654,-0.00011454,-0.0036715,0.48945
26622,9.8255,4,0.1,0.00034036,3401.3,0.00034081,3414.7,-0.00011007,26.87,-0.00011365,-0.0036824,0.49814
26623,9.7337,4.2727,0.1,0.00034319,3429.5,0.00034361,3442.1,-0.00011113,25.306,-0.0001145,-0.0038667,0.48897
26624,9.8255,4.1818,0.1,0.00034057,3403.4,0.00034099,3415.7,-0.00011032,24.785,-0.00011362,-0.0038492,0.49771
26625,9.7337,4.4545,0.1,0.00034345,3432.2,0.00034383,3443.4,-0.00011145,22.645,-0.00011446,-0.004084,0.48842
26626,9.8255,4.3636,0.1,0.00034081,3405.8,0.00034119,3416.9,-0.0001106,22.393,-0.00011358,-0.0040353,0.4972
26627,9.7337,4.6364,0.1,0.00034375,3435.1,0.00034408,3444.9,-0.00011179,19.69,-0.00011441,-0.004316,0.4878
26628,9.8255,4.5455,0.1,0.00034108,3408.5,0.00034141,3418.3,-0.00011091,19.71,-0.00011353,-0.0042404,0.49662
26629,9.7337,4.8182,0.1,0.00034407,3438.3,0.00034435,3446.5,-0.00011217,16.464,-0.00011436,-0.0045713,0.48711
26630,9.8255,4.7273,0.1,0.00034138,3411.5,0.00034166,3419.8,-0.00011125,16.757,-0.00011349,-0.0044495,0.49597
26631,9.7337,5,0.1,0.00034442,3441.8,0.00034464,3448.3,-0.00011257,12.989,-0.0001143,-0.0047951,0.48634
26632,9.8255,4.9091,0.1,0.00034171,3414.7,0.00034193,3421.5,-0.00011163,13.556,-0.00011343,-0.004692,0.49524
26633,9.7337,5.1818,0.1,0.00034479,3445.6,0.00034495,3450.2,-0.000113,9.2914,-0.00011424,-0.0052083,0.4855
26634,9.8255,5.0909,0.1,0.00034205,3418.2,0.00034223,3423.2,-0.00011203,10.129,-0.00011338,-0.0048336,0.49444
26635,9.7337,5.3636,0.1,0.00034519,3449.5,0.00034528,3452.2,-0.00011346,5.3956,-0.00011418,-0.0049029,0.48458
26636,9.8255,5.2727,0.1,0.00034242,3421.9,0.00034253,3425.1,-0.00011246,6.5007,-0.00011332,-0.0054116,0.49356
26637,9.7337,5.5455,0.1,0.00034561,3453.7,0.00034563,3454.3,-0.00011394,1.2978,-0.00011412,-0.0090454,0.48359
26638,9.8255,5.4545,0.1,0.00034281,3425.8,0.00034286,3427.1,-0.0001129,2.6943,-0.00011326,-0.0041662,0.49262
26639,9.7337,5.7273,0.1,0.00034612,3458.8,0.00034606,3457.1,-0.00011405,0.0040569,-0.00011451,-3.4666,0.48252
26640,9.8255,5.6364,0.1,0.00034323,3429.9,0.00034321,3429.3,-0.0001132,-0.011583,-0.00011338,-1.328,0.49159
26641,9.8255,5.8182,0.1,0.00034382,3435.8,0.00034371,3432.6,-0.00011314,0.015222,-0.00011401,-6.516,0.4905
26642,9.7337,5.9091,0.1,0.0003461,3458.7,0.00034603,3456.4,-0.00011399,0.0046878,-0.0001146,-4.614,0.48138
26643,9.9173,0.27273,0.1,0.00034092,3406.8,0.00034085,3404.7,-0.00011229,0.0015507,-0.00011286,-4.3015,0.49965
26644,10.009,0.18182,0.1,0.00033862,3383.8,0.00033849,3380.3,-0.00011139,0.012055,-0.00011234,-7.1551,0.50774
26645,9.9173,0.090909,0.1,0.00034086,3406.3,0.00034078,3403.8,-0.00011224,0.0033242,-0.0001129,-5.0028,0.49852
26646,9.9173,0.45455,0.1,0.00034044,3402,0.00034044,3402.1,-0.00011234,0.090924,-0.00011235,-0.0077367,0.5007
26647,10.009,0.36364,0.1,0.00033806,3378.2,0.00033802,3377.1,-0.00011144,-0.010602,-0.00011175,-2.3152,0.50883
26648,9.9173,0.63636,0.1,0.00034005,3398.1,0.00034011,3400,-0.0001119,3.8177,-0.00011241,-0.0047477,0.50168
26649,10.009,0.54545,0.1,0.00033767,3374.4,0.00033769,3375,-0.00011132,1.3419,-0.0001115,-0.0044811,0.50984
26650,9.9173,0.81818,0.1,0.00033968,3394.5,0.00033981,3398.1,-0.00011148,7.3555,-0.00011246,-0.0050775,0.50258
26651,10.009,0.72727,0.1,0.00033731,3370.7,0.00033739,3373.1,-0.00011091,4.7944,-0.00011155,-0.0053489,0.51077
26652,9.9173,1,0.1,0.00033934,3391,0.00033952,3396.4,-0.00011109,10.712,-0.00011251,-0.0047547,0.50342
26653,10.009,0.90909,0.1,0.00033696,3367.3,0.0003371,3371.3,-0.00011052,8.0838,-0.0001116,-0.0048364,0.51164
26654,9.9173,1.1818,0.1,0.00033901,3387.8,0.00033925,3394.7,-0.00011072,13.865,-0.00011256,-0.0045853,0.50418
26655,10.009,1.0909,0.1,0.00033664,3364.1,0.00033683,3369.7,-0.00011016,11.19,-0.00011165,-0.0047177,0.51243
26656,9.9173,1.3636,0.1,0.00033872,3384.8,0.000339,3393.2,-0.00011037,16.793,-0.00011261,-0.0043839,0.50486
26657,10.009,1.2727,0.1,0.00033634,3361.1,0.00033658,3368.1,-0.00010981,14.091,-0.00011169,-0.0045175,0.51315
26658,9.9173,1.5455,0.1,0.00033844,3382.1,0.00033877,3391.8,-0.00011006,19.473,-0.00011265,-0.0041986,0.50548
26659,10.009,1.4545,0.1,0.00033607,3358.4,0.00033635,3366.7,-0.0001095,16.766,-0.00011173,-0.0043466,0.51379
26660,9.9173,1.7273,0.1,0.0003382,3379.6,0.00033856,3390.5,-0.00010977,21.886,-0.00011269,-0.0040225,0.50602
26661,10.009,1.6364,0.1,0.00033582,3355.9,0.00033614,3365.4,-0.00010921,19.196,-0.00011177,-0.0041786,0.51437
26662,9.9173,1.9091,0.1,0.00033798,3377.5,0.00033838,3389.4,-0.00010953,24.016,-0.00011272,-0.003863,0.50649
26663,10.009,1.8182,0.1,0.0003356,3353.7,0.00033596,3364.3,-0.00010896,21.362,-0.0001118,-0.0040254,0.51487
26664,9.9173,2.0909,0.1,0.0003378,3375.6,0.00033823,3388.5,-0.00010931,25.845,-0.00011275,-0.003722,0.50688
26665,10.009,2,0.1,0.00033541,3351.7,0.00033579,3363.3,-0.00010874,23.25,-0.00011183,-0.0038881,0.5153
26666,9.9173,2.2727,0.1,0.00033765,3374.1,0.0003381,3387.7,-0.00010913,27.361,-0.00011278,-0.003602,0.50721
26667,10.009,2.1818,0.1,0.00033524,3350.1,0.00033566,3362.5,-0.00010855,24.846,-0.00011186,-0.003768,0.51565
26668,9.9173,2.4545,0.1,0.00033753,3372.9,0.000338,3387.1,-0.00010899,28.552,-0.00011279,-0.0035065,0.50746
26669,10.009,2.3636,0.1,0.00033511,3348.8,0.00033555,3361.8,-0.0001084,26.137,-0.00011188,-0.0036688,0.51594
26670,9.9173,2.6364,0.1,0.00033744,3372.1,0.00033793,3386.7,-0.00010889,29.409,-0.00011281,-0.0034373,0.50764
26671,10.009,2.5455,0.1,0.00033501,3347.8,0.00033547,3361.3,-0.00010829,27.113,-0.00011189,-0.0035938,0.51616
26672,9.9173,2.8182,0.1,0.00033739,3371.5,0.00033789,3386.4,-0.00010883,29.926,-0.00011282,-0.0033946,0.50775
26673,10.009,2.7273,0.1,0.00033495,3347.2,0.00033541,3360.9,-0.00010821,27.769,-0.00011191,-0.0035421,0.5163
26674,9.9173,3,0.1,0.00033737,3371.4,0.00033787,3386.3,-0.00010881,30.098,-0.00011282,-0.0033801,0.50778
26675,10.009,2.9091,0.1,0.00033491,3346.8,0.00033538,3360.8,-0.00010817,28.098,-0.00011191,-0.0035156,0.51637
26676,9.9173,3.1818,0.1,0.00033739,3371.5,0.00033789,3386.4,-0.00010883,29.926,-0.00011282,-0.0033946,0.50775
26677,10.009,3.0909,0.1,0.00033491,3346.8,0.00033538,3360.8,-0.00010817,28.098,-0.00011191,-0.0035155,0.51637
26678,9.9173,3.3636,0.1,0.00033744,3372.1,0.00033793,3386.7,-0.00010889,29.409,-0.00011281,-0.0034373,0.50764
26679,10.009,3.2727,0.1,0.00033495,3347.2,0.00033541,3360.9,-0.00010821,27.769,-0.00011191,-0.003542,0.5163
26680,9.9173,3.5455,0.1,0.00033753,3372.9,0.000338,3387.1,-0.00010899,28.552,-0.00011279,-0.0035063,0.50746
26681,10.009,3.4545,0.1,0.00033501,3347.8,0.00033547,3361.3,-0.00010829,27.113,-0.00011189,-0.0035938,0.51616
26682,9.9173,3.7273,0.1,0.00033765,3374.1,0.0003381,3387.7,-0.00010913,27.361,-0.00011278,-0.0036013,0.50721
26683,10.009,3.6364,0.1,0.00033511,3348.8,0.00033555,3361.8,-0.0001084,26.137,-0.00011188,-0.0036684,0.51594
26684,9.9173,3.9091,0.1,0.0003378,3375.6,0.00033823,3388.5,-0.00010931,25.845,-0.00011275,-0.0037213,0.50688
26685,10.009,3.8182,0.1,0.00033524,3350.1,0.00033566,3362.5,-0.00010855,24.846,-0.00011186,-0.0037675,0.51565
26686,9.9173,4.0909,0.1,0.00033798,3377.5,0.00033838,3389.4,-0.00010953,24.016,-0.00011272,-0.0038624,0.50649
26687,10.009,4,0.1,0.00033541,3351.7,0.00033579,3363.3,-0.00010874,23.25,-0.00011183,-0.0038874,0.5153
26688,9.9173,4.2727,0.1,0.0003382,3379.6,0.00033856,3390.5,-0.00010977,21.886,-0.00011269,-0.0040219,0.50602
26689,10.009,4.1818,0.1,0.0003356,3353.7,0.00033596,3364.3,-0.00010896,21.362,-0.0001118,-0.004025,0.51487
26690,9.9173,4.4545,0.1,0.00033844,3382.1,0.00033877,3391.8,-0.00011006,19.473,-0.00011265,-0.004198,0.50548
26691,10.009,4.3636,0.1,0.00033582,3355.9,0.00033614,3365.4,-0.00010921,19.195,-0.00011177,-0.004178,0.51437
26692,9.9173,4.6364,0.1,0.00033872,3384.8,0.000339,3393.2,-0.00011037,16.793,-0.00011261,-0.0043836,0.50486
26693,10.009,4.5455,0.1,0.00033607,3358.4,0.00033635,3366.7,-0.0001095,16.766,-0.00011173,-0.0043464,0.51379
26694,9.9173,4.8182,0.1,0.00033901,3387.8,0.00033925,3394.7,-0.00011072,13.865,-0.00011256,-0.0045851,0.50418
26695,10.009,4.7273,0.1,0.00033634,3361.1,0.00033658,3368.1,-0.00010981,14.091,-0.00011169,-0.0045169,0.51315
26696,9.9173,5,0.1,0.00033934,3391,0.00033952,3396.4,-0.00011109,10.712,-0.00011251,-0.0047538,0.50342
26697,10.009,4.9091,0.1,0.00033664,3364.1,0.00033683,3369.7,-0.00011016,11.19,-0.00011165,-0.0047171,0.51243
26698,9.9173,5.1818,0.1,0.00033968,3394.5,0.00033981,3398.1,-0.00011148,7.3555,-0.00011246,-0.0050761,0.50258
26699,10.009,5.0909,0.1,0.00033696,3367.3,0.0003371,3371.3,-0.00011052,8.0838,-0.0001116,-0.0048348,0.51164
26700,9.9173,5.3636,0.1,0.00034005,3398.1,0.00034011,3400,-0.0001119,3.8176,-0.00011241,-0.0047466,0.50168
26701,10.009,5.2727,0.1,0.00033731,3370.7,0.00033739,3373.1,-0.00011091,4.7943,-0.00011155,-0.0053476,0.51077
26702,9.9173,5.5455,0.1,0.00034044,3402,0.00034044,3402.1,-0.00011234,0.090895,-0.00011235,-0.0077366,0.5007
26703,10.009,5.4545,0.1,0.00033767,3374.4,0.00033769,3375,-0.00011132,1.3419,-0.0001115,-0.0044804,0.50984
26704,9.9173,5.7273,0.1,0.00034092,3406.8,0.00034085,3404.7,-0.00011229,0.0015517,-0.00011286,-4.3015,0.49965
26705,10.009,5.6364,0.1,0.00033806,3378.2,0.00033802,3377.1,-0.00011144,-0.010602,-0.00011175,-2.3152,0.50883
26706,10.009,5.8182,0.1,0.00033862,3383.8,0.00033849,3380.3,-0.00011139,0.012056,-0.00011234,-7.1551,0.50774
26707,9.9173,5.9091,0.1,0.00034086,3406.3,0.00034078,3403.8,-0.00011224,0.0033251,-0.0001129,-5.0029,0.49852
26708,10.101,0.27273,0.1,0.00033574,3355.1,0.00033565,3352.6,-0.00011054,0.0004395,-0.00011122,-5.0896,0.517
26709,10.193,0.18182,0.1,0.00033344,3332.1,0.00033331,3328.2,-0.00010965,0.0096744,-0.00011068,-7.7601,0.52522
26710,10.101,0.090909,0.1,0.00033565,3354.1,0.00033555,3351.5,-0.0001105,0.0024396,-0.00011121,-5.3713,0.51589
26711,10.101,0.45455,0.1,0.00033528,3350.5,0.00033527,3350,-0.00011059,-0.006077,-0.00011073,-1.0436,0.51804
26712,10.193,0.36364,0.1,0.0003329,3326.7,0.00033285,3325.1,-0.0001097,-0.0089461,-0.00011013,-3.2454,0.52629
26713,10.101,0.63636,0.1,0.00033492,3346.9,0.00033496,3348.1,-0.00011033,2.3374,-0.00011064,-0.0052039,0.51901
26714,10.193,0.54545,0.1,0.00033254,3323.1,0.00033254,3323.1,-0.00010973,0.095416,-0.00010975,-0.029391,0.52728
26715,10.101,0.81818,0.1,0.00033459,3343.6,0.00033468,3346.3,-0.00010995,5.5405,-0.00011069,-0.0051796,0.5199
26716,10.193,0.72727,0.1,0.00033221,3319.8,0.00033226,3321.4,-0.00010936,3.1928,-0.00010979,-0.0058215,0.52821
26717,10.101,1,0.1,0.00033427,3340.4,0.00033441,3344.6,-0.00010959,8.5786,-0.00011073,-0.0048393,0.52072
26718,10.193,0.90909,0.1,0.00033189,3316.6,0.00033199,3319.7,-0.00010901,6.165,-0.00010983,-0.0050624,0.52906
26719,10.101,1.1818,0.1,0.00033397,3337.4,0.00033416,3343.1,-0.00010925,11.432,-0.00011078,-0.0046744,0.52147
26720,10.193,1.0909,0.1,0.00033159,3313.6,0.00033174,3318.1,-0.00010868,8.9709,-0.00010987,-0.0048687,0.52984
26721,10.101,1.3636,0.1,0.00033369,3334.6,0.00033393,3341.6,-0.00010894,14.08,-0.00011082,-0.0044962,0.52215
26722,10.193,1.2727,0.1,0.00033132,3310.9,0.00033151,3316.7,-0.00010836,11.591,-0.00010991,-0.004662,0.53055
26723,10.101,1.5455,0.1,0.00033344,3332.1,0.00033372,3340.3,-0.00010866,16.504,-0.00011085,-0.0043373,0.52276
26724,10.193,1.4545,0.1,0.00033106,3308.3,0.0003313,3315.3,-0.00010808,14.006,-0.00010994,-0.0045006,0.53119
26725,10.101,1.7273,0.1,0.00033322,3329.9,0.00033353,3339.2,-0.0001084,18.686,-0.00011089,-0.0041886,0.52329
26726,10.193,1.6364,0.1,0.00033083,3306,0.00033111,3314.1,-0.00010782,16.2,-0.00010998,-0.00435,0.53176
26727,10.101,1.9091,0.1,0.00033302,3327.9,0.00033336,3338.1,-0.00010817,20.612,-0.00011092,-0.0040551,0.52375
26728,10.193,1.8182,0.1,0.00033063,3304,0.00033093,3313.1,-0.00010759,18.156,-0.00011001,-0.0042167,0.53225
26729,10.101,2.0909,0.1,0.00033285,3326.2,0.00033322,3337.3,-0.00010798,22.266,-0.00011094,-0.0039369,0.52414
26730,10.193,2,0.1,0.00033045,3302.2,0.00033079,3312.1,-0.00010739,19.86,-0.00011003,-0.0040988,0.53268
26731,10.101,2.2727,0.1,0.00033271,3324.8,0.0003331,3336.5,-0.00010782,23.636,-0.00011096,-0.0038364,0.52447
26732,10.193,2.1818,0.1,0.0003303,3300.8,0.00033066,3311.3,-0.00010722,21.3,-0.00011005,-0.0039963,0.53303
26733,10.101,2.4545,0.1,0.0003326,3323.7,0.00033301,3336,-0.00010769,24.713,-0.00011098,-0.0037569,0.52471
26734,10.193,2.3636,0.1,0.00033018,3299.5,0.00033056,3310.7,-0.00010708,22.465,-0.00011007,-0.0039123,0.53331
26735,10.101,2.6364,0.1,0.00033252,3322.9,0.00033294,3335.6,-0.0001076,25.487,-0.00011099,-0.0036988,0.52489
26736,10.193,2.5455,0.1,0.00033009,3298.6,0.00033048,3310.2,-0.00010698,23.347,-0.00011008,-0.003849,0.53352
26737,10.101,2.8182,0.1,0.00033247,3322.4,0.0003329,3335.3,-0.00010754,25.955,-0.000111,-0.0036629,0.525
26738,10.193,2.7273,0.1,0.00033003,3298,0.00033043,3309.9,-0.00010691,23.938,-0.00011009,-0.0038053,0.53367
26739,10.101,3,0.1,0.00033245,3322.2,0.00033289,3335.2,-0.00010753,26.111,-0.000111,-0.0036508,0.52503
26740,10.193,2.9091,0.1,0.00033,3297.7,0.00033041,3309.8,-0.00010687,24.235,-0.0001101,-0.0037827,0.53374
26741,10.101,3.1818,0.1,0.00033247,3322.4,0.0003329,3335.3,-0.00010754,25.955,-0.000111,-0.0036628,0.525
26742,10.193,3.0909,0.1,0.00033,3297.7,0.00033041,3309.8,-0.00010687,24.235,-0.0001101,-0.0037828,0.53374
26743,10.101,3.3636,0.1,0.00033252,3322.9,0.00033294,3335.6,-0.0001076,25.487,-0.00011099,-0.0036987,0.52489
26744,10.193,3.2727,0.1,0.00033003,3298,0.00033043,3309.9,-0.00010691,23.938,-0.00011009,-0.003805,0.53367
26745,10.101,3.5455,0.1,0.0003326,3323.7,0.00033301,3336,-0.00010769,24.713,-0.00011098,-0.0037566,0.52471
26746,10.193,3.4545,0.1,0.00033009,3298.6,0.00033048,3310.2,-0.00010698,23.347,-0.00011008,-0.003849,0.53352
26747,10.101,3.7273,0.1,0.00033271,3324.8,0.0003331,3336.5,-0.00010782,23.636,-0.00011096,-0.0038361,0.52447
26748,10.193,3.6364,0.1,0.00033018,3299.5,0.00033056,3310.7,-0.00010708,22.465,-0.00011007,-0.003912,0.53331
26749,10.101,3.9091,0.1,0.00033285,3326.2,0.00033322,3337.3,-0.00010798,22.266,-0.00011094,-0.0039365,0.52414
26750,10.193,3.8182,0.1,0.0003303,3300.8,0.00033066,3311.3,-0.00010722,21.3,-0.00011005,-0.003996,0.53303
26751,10.101,4.0909,0.1,0.00033302,3327.9,0.00033336,3338.1,-0.00010817,20.612,-0.00011092,-0.0040546,0.52375
26752,10.193,4,0.1,0.00033045,3302.2,0.00033079,3312.1,-0.00010739,19.86,-0.00011003,-0.0040983,0.53268
26753,10.101,4.2727,0.1,0.00033322,3329.9,0.00033353,3339.2,-0.0001084,18.686,-0.00011089,-0.0041882,0.52329
26754,10.193,4.1818,0.1,0.00033063,3304,0.00033093,3313.1,-0.00010759,18.156,-0.00011001,-0.0042163,0.53225
26755,10.101,4.4545,0.1,0.00033344,3332.1,0.00033372,3340.3,-0.00010866,16.504,-0.00011085,-0.004337,0.52276
26756,10.193,4.3636,0.1,0.00033083,3306,0.00033111,3314.1,-0.00010782,16.2,-0.00010998,-0.0043495,0.53176
26757,10.101,4.6364,0.1,0.00033369,3334.6,0.00033393,3341.6,-0.00010894,14.08,-0.00011082,-0.0044957,0.52215
26758,10.193,4.5455,0.1,0.00033106,3308.3,0.0003313,3315.3,-0.00010808,14.006,-0.00010994,-0.0044999,0.53119
26759,10.101,4.8182,0.1,0.00033397,3337.4,0.00033416,3343.1,-0.00010925,11.432,-0.00011078,-0.0046736,0.52147
26760,10.193,4.7273,0.1,0.00033132,3310.9,0.00033151,3316.7,-0.00010836,11.591,-0.00010991,-0.0046614,0.53055
26761,10.101,5,0.1,0.00033427,3340.4,0.00033441,3344.6,-0.00010959,8.5785,-0.00011073,-0.004838,0.52072
26762,10.193,4.9091,0.1,0.00033159,3313.6,0.00033174,3318.1,-0.00010868,8.9709,-0.00010987,-0.0048679,0.52984
26763,10.101,5.1818,0.1,0.00033459,3343.6,0.00033468,3346.3,-0.00010995,5.5405,-0.00011069,-0.0051781,0.5199
26764,10.193,5.0909,0.1,0.00033189,3316.6,0.00033199,3319.7,-0.00010901,6.165,-0.00010983,-0.0050608,0.52906
26765,10.101,5.3636,0.1,0.00033492,3346.9,0.00033496,3348.1,-0.00011033,2.3374,-0.00011064,-0.0052031,0.51901
26766,10.193,5.2727,0.1,0.00033221,3319.8,0.00033226,3321.4,-0.00010936,3.1927,-0.00010979,-0.0058206,0.52821
26767,10.101,5.5455,0.1,0.00033528,3350.5,0.00033527,3350,-0.00011059,-0.0060764,-0.00011073,-1.0436,0.51804
26768,10.193,5.4545,0.1,0.00033254,3323.1,0.00033254,3323.1,-0.00010973,0.095385,-0.00010975,-0.029397,0.52728
26769,10.101,5.7273,0.1,0.00033574,3355.1,0.00033565,3352.6,-0.00011054,0.00044055,-0.00011122,-5.0896,0.517
26770,10.193,5.6364,0.1,0.0003329,3326.7,0.00033285,3325.1,-0.0001097,-0.008945,-0.00011013,-3.2454,0.52629
26771,10.193,5.8182,0.1,0.00033344,3332.1,0.00033331,3328.2,-0.00010965,0.0096752,-0.00011068,-7.7601,0.52522
26772,10.101,5.9091,0.1,0.00033565,3354.1,0.00033555,3351.5,-0.0001105,0.0024405,-0.00011121,-5.3714,0.51589
26773,10.285,0.27273,0.1,0.00033058,3303.6,0.00033048,3300.6,-0.0001088,3.6458e-05,-0.00010958,-5.8341,0.53458
26774,10.376,0.18182,0.1,0.00032828,3280.5,0.00032814,3276.4,-0.00010792,0.0078529,-0.00010903,-8.3331,0.54292
26775,10.285,0.090909,0.1,0.00033045,3302.2,0.00033035,3299.4,-0.00010877,0.0018763,-0.00010953,-5.7208,0.53348
26776,10.285,0.45455,0.1,0.00033015,3299.2,0.00033012,3298.2,-0.00010885,-0.0047624,-0.00010913,-2.1115,0.53561
26777,10.376,0.36364,0.1,0.00032777,3275.4,0.00032769,3273.3,-0.00010796,-0.0071736,-0.00010851,-4.1227,0.54397
26778,10.285,0.63636,0.1,0.00032982,3295.9,0.00032983,3296.4,-0.00010876,0.94858,-0.00010889,-0.0086721,0.53656
26779,10.376,0.54545,0.1,0.00032743,3272,0.00032741,3271.5,-0.000108,0.0011299,-0.00010815,-1.1322,0.54495
26780,10.285,0.81818,0.1,0.00032951,3292.8,0.00032957,3294.7,-0.00010842,3.8357,-0.00010893,-0.0057741,0.53744
26781,10.376,0.72727,0.1,0.00032712,3269,0.00032715,3269.8,-0.00010781,1.6878,-0.00010803,-0.0080594,0.54587
26782,10.285,1,0.1,0.00032921,3289.8,0.00032932,3293.1,-0.00010809,6.5751,-0.00010897,-0.0051473,0.53825
26783,10.376,0.90909,0.1,0.00032683,3266,0.0003269,3268.2,-0.00010749,4.3614,-0.00010807,-0.0057232,0.54671
26784,10.285,1.1818,0.1,0.00032894,3287.1,0.00032909,3291.7,-0.00010778,9.1472,-0.000109,-0.0048916,0.53899
26785,10.376,1.0909,0.1,0.00032656,3263.3,0.00032667,3266.7,-0.00010719,6.8857,-0.0001081,-0.0052206,0.54748
26786,10.285,1.3636,0.1,0.00032868,3284.6,0.00032888,3290.3,-0.0001075,11.534,-0.00010904,-0.0046895,0.53966
26787,10.376,1.2727,0.1,0.0003263,3260.8,0.00032646,3265.4,-0.00010691,9.2423,-0.00010814,-0.0049164,0.54818
26788,10.285,1.5455,0.1,0.00032845,3282.2,0.00032868,3289.1,-0.00010724,13.719,-0.00010907,-0.0045288,0.54026
26789,10.376,1.4545,0.1,0.00032607,3258.4,0.00032626,3264.1,-0.00010665,11.415,-0.00010817,-0.0047173,0.54881
26790,10.285,1.7273,0.1,0.00032824,3280.2,0.00032851,3288,-0.00010701,15.685,-0.0001091,-0.0043885,0.54079
26791,10.376,1.6364,0.1,0.00032586,3256.3,0.00032608,3263,-0.00010641,13.387,-0.0001082,-0.0045564,0.54937
26792,10.285,1.9091,0.1,0.00032806,3278.3,0.00032835,3287,-0.0001068,17.42,-0.00010912,-0.0042674,0.54125
26793,10.376,1.8182,0.1,0.00032567,3254.4,0.00032592,3262,-0.0001062,15.146,-0.00010822,-0.0044242,0.54986
26794,10.285,2.0909,0.1,0.0003279,3276.8,0.00032822,3286.2,-0.00010663,18.91,-0.00010914,-0.0041627,0.54163
26795,10.376,2,0.1,0.00032551,3252.8,0.00032579,3261.1,-0.00010602,16.678,-0.00010824,-0.0043129,0.55028
26796,10.285,2.2727,0.1,0.00032778,3275.5,0.00032811,3285.5,-0.00010648,20.144,-0.00010916,-0.004075,0.54195
26797,10.376,2.1818,0.1,0.00032537,3251.5,0.00032567,3260.4,-0.00010587,17.973,-0.00010826,-0.0042192,0.55063
26798,10.285,2.4545,0.1,0.00032767,3274.5,0.00032803,3285,-0.00010637,21.114,-0.00010918,-0.0040061,0.5422
26799,10.376,2.3636,0.1,0.00032526,3250.3,0.00032558,3259.8,-0.00010574,19.02,-0.00010828,-0.0041434,0.55091
26800,10.285,2.6364,0.1,0.0003276,3273.8,0.00032797,3284.6,-0.00010628,21.812,-0.00010919,-0.0039563,0.54237
26801,10.376,2.5455,0.1,0.00032518,3249.5,0.00032551,3259.4,-0.00010565,19.813,-0.00010829,-0.0040874,0.55112
26802,10.285,2.8182,0.1,0.00032756,3273.3,0.00032793,3284.4,-0.00010623,22.233,-0.00010919,-0.0039255,0.54248
26803,10.376,2.7273,0.1,0.00032512,3248.9,0.00032546,3259.1,-0.00010559,20.344,-0.0001083,-0.0040489,0.55125
26804,10.285,3,0.1,0.00032754,3273.2,0.00032792,3284.3,-0.00010622,22.374,-0.0001092,-0.003915,0.54251
26805,10.376,2.9091,0.1,0.00032509,3248.7,0.00032544,3258.9,-0.00010556,20.611,-0.0001083,-0.0040291,0.55132
26806,10.285,3.1818,0.1,0.00032756,3273.3,0.00032793,3284.4,-0.00010623,22.233,-0.00010919,-0.0039254,0.54248
26807,10.376,3.0909,0.1,0.00032509,3248.7,0.00032544,3258.9,-0.00010556,20.611,-0.0001083,-0.0040292,0.55132
26808,10.285,3.3636,0.1,0.0003276,3273.8,0.00032797,3284.6,-0.00010628,21.812,-0.00010919,-0.0039561,0.54237
26809,10.376,3.2727,0.1,0.00032512,3248.9,0.00032546,3259.1,-0.00010559,20.344,-0.0001083,-0.0040488,0.55125
26810,10.285,3.5455,0.1,0.00032767,3274.5,0.00032803,3285,-0.00010637,21.114,-0.00010918,-0.004006,0.5422
26811,10.376,3.4545,0.1,0.00032518,3249.5,0.00032551,3259.4,-0.00010565,19.813,-0.00010829,-0.0040872,0.55112
26812,10.285,3.7273,0.1,0.00032778,3275.5,0.00032811,3285.5,-0.00010648,20.144,-0.00010916,-0.0040747,0.54195
26813,10.376,3.6364,0.1,0.00032526,3250.3,0.00032558,3259.8,-0.00010574,19.02,-0.00010828,-0.0041434,0.55091
26814,10.285,3.9091,0.1,0.0003279,3276.8,0.00032822,3286.2,-0.00010663,18.91,-0.00010914,-0.0041624,0.54163
26815,10.376,3.8182,0.1,0.00032537,3251.5,0.00032567,3260.4,-0.00010587,17.973,-0.00010826,-0.0042185,0.55063
26816,10.285,4.0909,0.1,0.00032806,3278.3,0.00032835,3287,-0.0001068,17.42,-0.00010912,-0.004267,0.54125
26817,10.376,4,0.1,0.00032551,3252.8,0.00032579,3261.1,-0.00010602,16.678,-0.00010824,-0.0043126,0.55028
26818,10.285,4.2727,0.1,0.00032824,3280.2,0.00032851,3288,-0.00010701,15.685,-0.0001091,-0.004388,0.54079
26819,10.376,4.1818,0.1,0.00032567,3254.4,0.00032592,3262,-0.0001062,15.146,-0.00010822,-0.0044237,0.54986
26820,10.285,4.4545,0.1,0.00032845,3282.2,0.00032868,3289.1,-0.00010724,13.718,-0.00010907,-0.0045279,0.54026
26821,10.376,4.3636,0.1,0.00032586,3256.3,0.00032608,3263,-0.00010641,13.387,-0.0001082,-0.0045558,0.54937
26822,10.285,4.6364,0.1,0.00032868,3284.6,0.00032888,3290.3,-0.0001075,11.534,-0.00010904,-0.0046887,0.53966
26823,10.376,4.5455,0.1,0.00032607,3258.4,0.00032626,3264.1,-0.00010665,11.414,-0.00010817,-0.0047167,0.54881
26824,10.285,4.8182,0.1,0.00032894,3287.1,0.00032909,3291.7,-0.00010778,9.1472,-0.000109,-0.004891,0.53899
26825,10.376,4.7273,0.1,0.0003263,3260.8,0.00032646,3265.4,-0.00010691,9.2422,-0.00010814,-0.0049162,0.54818
26826,10.285,5,0.1,0.00032921,3289.8,0.00032932,3293.1,-0.00010809,6.5751,-0.00010897,-0.0051461,0.53825
26827,10.376,4.9091,0.1,0.00032656,3263.3,0.00032667,3266.7,-0.00010719,6.8856,-0.0001081,-0.0052197,0.54748
26828,10.285,5.1818,0.1,0.00032951,3292.8,0.00032957,3294.7,-0.00010842,3.8356,-0.00010893,-0.0057731,0.53744
26829,10.376,5.0909,0.1,0.00032683,3266,0.0003269,3268.2,-0.00010749,4.3613,-0.00010807,-0.0057221,0.54671
26830,10.285,5.3636,0.1,0.00032982,3295.9,0.00032983,3296.4,-0.00010876,0.94854,-0.00010889,-0.0086717,0.53656
26831,10.376,5.2727,0.1,0.00032712,3269,0.00032715,3269.8,-0.00010781,1.6877,-0.00010803,-0.0080585,0.54587
26832,10.285,5.5455,0.1,0.00033015,3299.2,0.00033012,3298.2,-0.00010885,-0.0047616,-0.00010913,-2.1115,0.53561
26833,10.376,5.4545,0.1,0.00032743,3272,0.00032741,3271.5,-0.000108,0.0011303,-0.00010815,-1.1322,0.54495
26834,10.285,5.7273,0.1,0.00033058,3303.6,0.00033048,3300.6,-0.0001088,3.7476e-05,-0.00010958,-5.8342,0.53458
26835,10.376,5.6364,0.1,0.00032777,3275.4,0.00032769,3273.3,-0.00010796,-0.0071725,-0.00010851,-4.1228,0.54397
26836,10.376,5.8182,0.1,0.00032828,3280.5,0.00032814,3276.4,-0.00010792,0.0078536,-0.00010903,-8.3332,0.54292
26837,10.285,5.9091,0.1,0.00033045,3302.2,0.00033035,3299.4,-0.00010877,0.0018771,-0.00010953,-5.7208,0.53348
26838,10.468,0.27273,0.1,0.00032545,3252.2,0.00032534,3249,-0.00010707,5.7676e-05,-0.00010794,-6.5379,0.55238
26839,10.56,0.18182,0.1,0.00032314,3229.2,0.00032299,3224.8,-0.0001062,0.0064019,-0.00010738,-8.8764,0.56084
26840,10.468,0.090909,0.1,0.00032528,3250.6,0.00032518,3247.5,-0.00010704,0.001574,-0.00010785,-6.0523,0.5513
26841,10.468,0.45455,0.1,0.00032504,3248.2,0.00032499,3246.6,-0.00010711,-0.003497,-0.00010752,-3.1184,0.55339
26842,10.56,0.36364,0.1,0.00032265,3224.3,0.00032257,3221.8,-0.00010623,-0.005445,-0.00010689,-4.9517,0.56188
26843,10.468,0.63636,0.1,0.00032473,3245.1,0.00032472,3244.9,-0.00010714,0.015427,-0.00010719,-0.38705,0.55433
26844,10.56,0.54545,0.1,0.00032234,3221.2,0.0003223,3220,-0.00010626,0.00049049,-0.00010656,-2.2612,0.56285
26845,10.468,0.81818,0.1,0.00032444,3242.2,0.00032448,3243.3,-0.00010688,2.232,-0.00010718,-0.0077378,0.55521
26846,10.56,0.72727,0.1,0.00032205,3218.3,0.00032206,3218.4,-0.00010625,0.29384,-0.0001063,-0.035394,0.56375
26847,10.468,1,0.1,0.00032417,3239.5,0.00032425,3241.8,-0.00010658,4.6902,-0.00010721,-0.0058595,0.55601
26848,10.56,0.90909,0.1,0.00032178,3215.6,0.00032183,3217,-0.00010597,2.6626,-0.00010632,-0.0075955,0.56458
26849,10.468,1.1818,0.1,0.00032392,3236.9,0.00032404,3240.4,-0.00010631,6.9984,-0.00010724,-0.005294,0.55674
26850,10.56,1.0909,0.1,0.00032153,3213.1,0.00032162,3215.6,-0.00010569,4.9215,-0.00010635,-0.006016,0.56534
26851,10.468,1.3636,0.1,0.00032368,3234.6,0.00032384,3239.2,-0.00010605,9.14,-0.00010727,-0.0049768,0.5574
26852,10.56,1.2727,0.1,0.0003213,3210.8,0.00032142,3214.3,-0.00010544,7.0304,-0.00010638,-0.0054062,0.56603
26853,10.468,1.5455,0.1,0.00032347,3232.5,0.00032366,3238,-0.00010582,11.1,-0.0001073,-0.0047667,0.55799
26854,10.56,1.4545,0.1,0.00032108,3208.6,0.00032124,3213.1,-0.00010521,8.9743,-0.0001064,-0.0050798,0.56665
26855,10.468,1.7273,0.1,0.00032328,3230.6,0.0003235,3237,-0.00010561,12.864,-0.00010732,-0.0046066,0.55851
26856,10.56,1.6364,0.1,0.00032089,3206.7,0.00032107,3212,-0.000105,10.739,-0.00010643,-0.0048605,0.5672
26857,10.468,1.9091,0.1,0.00032311,3228.9,0.00032336,3236.1,-0.00010542,14.42,-0.00010734,-0.0044794,0.55896
26858,10.56,1.8182,0.1,0.00032072,3205,0.00032093,3211.1,-0.00010481,12.313,-0.00010645,-0.0047004,0.56768
26859,10.468,2.0909,0.1,0.00032297,3227.5,0.00032323,3235.3,-0.00010526,15.757,-0.00010736,-0.0043757,0.55934
26860,10.56,2,0.1,0.00032057,3203.5,0.0003208,3210.3,-0.00010464,13.684,-0.00010647,-0.0045768,0.5681
26861,10.468,2.2727,0.1,0.00032285,3226.3,0.00032313,3234.7,-0.00010513,16.864,-0.00010738,-0.0042915,0.55965
26862,10.56,2.1818,0.1,0.00032044,3202.2,0.00032069,3209.6,-0.00010451,14.842,-0.00010648,-0.0044789,0.56844
26863,10.468,2.4545,0.1,0.00032276,3225.3,0.00032306,3234.2,-0.00010503,17.734,-0.00010739,-0.004227,0.5599
26864,10.56,2.3636,0.1,0.00032034,3201.2,0.00032061,3209.1,-0.00010439,15.779,-0.00010649,-0.004403,0.56872
26865,10.468,2.6364,0.1,0.00032269,3224.7,0.000323,3233.8,-0.00010495,18.36,-0.0001074,-0.0041812,0.56007
26866,10.56,2.5455,0.1,0.00032027,3200.5,0.00032054,3208.7,-0.00010431,16.489,-0.0001065,-0.0043481,0.56893
26867,10.468,2.8182,0.1,0.00032265,3224.3,0.00032297,3233.6,-0.00010491,18.738,-0.0001074,-0.0041531,0.56018
26868,10.56,2.7273,0.1,0.00032021,3199.9,0.0003205,3208.4,-0.00010425,16.964,-0.00010651,-0.0043109,0.56906
26869,10.468,3,0.1,0.00032264,3224.1,0.00032295,3233.5,-0.00010489,18.864,-0.0001074,-0.0041437,0.56021
26870,10.56,2.9091,0.1,0.00032019,3199.7,0.00032048,3208.2,-0.00010422,17.203,-0.00010651,-0.0042923,0.56913
26871,10.468,3.1818,0.1,0.00032265,3224.3,0.00032297,3233.6,-0.00010491,18.738,-0.0001074,-0.0041533,0.56018
26872,10.56,3.0909,0.1,0.00032019,3199.7,0.00032048,3208.2,-0.00010422,17.203,-0.00010651,-0.0042922,0.56913
26873,10.468,3.3636,0.1,0.00032269,3224.7,0.000323,3233.8,-0.00010495,18.36,-0.0001074,-0.0041812,0.56007
26874,10.56,3.2727,0.1,0.00032021,3199.9,0.0003205,3208.4,-0.00010425,16.964,-0.00010651,-0.004311,0.56906
26875,10.468,3.5455,0.1,0.00032276,3225.3,0.00032306,3234.2,-0.00010503,17.734,-0.00010739,-0.004227,0.5599
26876,10.56,3.4545,0.1,0.00032027,3200.5,0.00032054,3208.7,-0.00010431,16.489,-0.0001065,-0.004348,0.56893
26877,10.468,3.7273,0.1,0.00032285,3226.3,0.00032313,3234.7,-0.00010513,16.864,-0.00010738,-0.0042911,0.55965
26878,10.56,3.6364,0.1,0.00032034,3201.2,0.00032061,3209.1,-0.00010439,15.779,-0.00010649,-0.0044029,0.56872
26879,10.468,3.9091,0.1,0.00032297,3227.5,0.00032323,3235.3,-0.00010526,15.757,-0.00010736,-0.0043751,0.55934
26880,10.56,3.8182,0.1,0.00032044,3202.2,0.00032069,3209.6,-0.00010451,14.842,-0.00010648,-0.0044781,0.56844
26881,10.468,4.0909,0.1,0.00032311,3228.9,0.00032336,3236.1,-0.00010542,14.42,-0.00010734,-0.0044791,0.55896
26882,10.56,4,0.1,0.00032057,3203.5,0.0003208,3210.3,-0.00010464,13.684,-0.00010647,-0.0045765,0.5681
26883,10.468,4.2727,0.1,0.00032328,3230.6,0.0003235,3237,-0.00010561,12.864,-0.00010732,-0.0046061,0.55851
26884,10.56,4.1818,0.1,0.00032072,3205,0.00032093,3211.1,-0.00010481,12.313,-0.00010645,-0.0046997,0.56768
26885,10.468,4.4545,0.1,0.00032347,3232.5,0.00032366,3238,-0.00010582,11.1,-0.0001073,-0.0047663,0.55799
26886,10.56,4.3636,0.1,0.00032089,3206.7,0.00032107,3212,-0.000105,10.739,-0.00010643,-0.0048595,0.5672
26887,10.468,4.6364,0.1,0.00032368,3234.6,0.00032384,3239.2,-0.00010605,9.1399,-0.00010727,-0.0049767,0.5574
26888,10.56,4.5455,0.1,0.00032108,3208.6,0.00032124,3213.1,-0.00010521,8.9742,-0.0001064,-0.0050791,0.56665
26889,10.468,4.8182,0.1,0.00032392,3236.9,0.00032404,3240.4,-0.00010631,6.9983,-0.00010724,-0.0052935,0.55674
26890,10.56,4.7273,0.1,0.0003213,3210.8,0.00032142,3214.3,-0.00010544,7.0304,-0.00010638,-0.0054058,0.56603
26891,10.468,5,0.1,0.00032417,3239.5,0.00032425,3241.8,-0.00010658,4.6901,-0.00010721,-0.0058587,0.55601
26892,10.56,4.9091,0.1,0.00032153,3213.1,0.00032162,3215.6,-0.00010569,4.9214,-0.00010635,-0.006015,0.56534
26893,10.468,5.1818,0.1,0.00032444,3242.2,0.00032448,3243.3,-0.00010688,2.232,-0.00010718,-0.0077368,0.55521
26894,10.56,5.0909,0.1,0.00032178,3215.6,0.00032183,3217,-0.00010597,2.6626,-0.00010632,-0.0075944,0.56458
26895,10.468,5.3636,0.1,0.00032473,3245.1,0.00032472,3244.9,-0.00010714,0.015426,-0.00010719,-0.38709,0.55433
26896,10.56,5.2727,0.1,0.00032205,3218.3,0.00032206,3218.4,-0.00010625,0.2938,-0.0001063,-0.035397,0.56375
26897,10.468,5.5455,0.1,0.00032504,3248.2,0.00032499,3246.6,-0.00010711,-0.003496,-0.00010752,-3.1184,0.55339
26898,10.56,5.4545,0.1,0.00032234,3221.2,0.0003223,3220,-0.00010626,0.00049098,-0.00010656,-2.2612,0.56285
26899,10.468,5.7273,0.1,0.00032545,3252.2,0.00032534,3249,-0.00010707,5.8633e-05,-0.00010794,-6.538,0.55238
26900,10.56,5.6364,0.1,0.00032265,3224.3,0.00032257,3221.8,-0.00010623,-0.0054442,-0.00010689,-4.9517,0.56188
26901,10.56,5.8182,0.1,0.00032314,3229.2,0.00032299,3224.8,-0.0001062,0.006403,-0.00010738,-8.8765,0.56084
26902,10.468,5.9091,0.1,0.00032528,3250.6,0.00032518,3247.5,-0.00010704,0.0015747,-0.00010785,-6.0523,0.5513
26903,10.652,0.27273,0.1,0.00032033,3201.1,0.00032021,3197.5,-0.00010535,0.00023823,-0.00010631,-7.2046,0.5704
26904,10.744,0.18182,0.1,0.00031803,3178.1,0.00031787,3173.4,-0.00010448,0.00523,-0.00010573,-9.3921,0.57897
26905,10.652,0.090909,0.1,0.00032013,3199.1,0.00032002,3195.9,-0.00010533,0.0013656,-0.00010618,-6.3671,0.56933
26906,10.652,0.45455,0.1,0.00031995,3197.3,0.00031988,3195.2,-0.00010538,-0.0023805,-0.00010592,-4.0702,0.5714
26907,10.744,0.36364,0.1,0.00031755,3173.3,0.00031746,3170.5,-0.00010451,-0.0037853,-0.00010527,-5.7365,0.58
26908,10.652,0.63636,0.1,0.00031966,3194.4,0.00031963,3193.6,-0.00010541,0.0031277,-0.00010562,-1.6136,0.57233
26909,10.744,0.54545,0.1,0.00031727,3170.5,0.00031721,3168.8,-0.00010453,0.00060569,-0.00010498,-3.3298,0.58095
26910,10.652,0.81818,0.1,0.00031939,3191.7,0.00031941,3192.1,-0.00010534,0.72763,-0.00010544,-0.019195,0.57319
26911,10.744,0.72727,0.1,0.000317,3167.8,0.00031698,3167.3,-0.00010456,0.0078665,-0.0001047,-1.0932,0.58184
26912,10.652,1,0.1,0.00031914,3189.2,0.00031919,3190.7,-0.00010507,2.9126,-0.00010546,-0.0077683,0.57398
26913,10.744,0.90909,0.1,0.00031676,3165.4,0.00031677,3165.9,-0.00010444,1.0633,-0.00010458,-0.015633,0.58266
26914,10.652,1.1818,0.1,0.00031891,3186.9,0.000319,3189.4,-0.00010482,4.9717,-0.00010549,-0.0061983,0.5747
26915,10.744,1.0909,0.1,0.00031652,3163.1,0.00031658,3164.6,-0.0001042,3.0668,-0.00010461,-0.0079128,0.58341
26916,10.652,1.3636,0.1,0.0003187,3184.8,0.00031881,3188.2,-0.00010459,6.8824,-0.00010551,-0.0055579,0.57535
26917,10.744,1.2727,0.1,0.00031631,3160.9,0.00031639,3163.4,-0.00010397,4.9417,-0.00010463,-0.0063453,0.58409
26918,10.652,1.5455,0.1,0.0003185,3182.8,0.00031865,3187.1,-0.00010438,8.6309,-0.00010553,-0.0052056,0.57593
26919,10.744,1.4545,0.1,0.00031611,3158.9,0.00031623,3162.3,-0.00010376,6.6702,-0.00010465,-0.0056799,0.58471
26920,10.652,1.7273,0.1,0.00031833,3181.1,0.0003185,3186.2,-0.00010419,10.205,-0.00010555,-0.0049753,0.57645
26921,10.744,1.6364,0.1,0.00031594,3157.2,0.00031608,3161.3,-0.00010357,8.2397,-0.00010467,-0.0053051,0.58525
26922,10.652,1.9091,0.1,0.00031817,3179.5,0.00031837,3185.3,-0.00010403,11.593,-0.00010557,-0.0048114,0.57689
26923,10.744,1.8182,0.1,0.00031578,3155.6,0.00031594,3160.4,-0.0001034,9.6391,-0.00010468,-0.0050648,0.58573
26924,10.652,2.0909,0.1,0.00031804,3178.2,0.00031826,3184.6,-0.00010388,12.786,-0.00010559,-0.0046887,0.57727
26925,10.744,2,0.1,0.00031564,3154.2,0.00031583,3159.7,-0.00010325,10.858,-0.0001047,-0.0048973,0.58614
26926,10.652,2.2727,0.1,0.00031793,3177.1,0.00031817,3184,-0.00010377,13.774,-0.0001056,-0.0045956,0.57758
26927,10.744,2.1818,0.1,0.00031553,3153.1,0.00031573,3159,-0.00010313,11.889,-0.00010471,-0.0047747,0.58648
26928,10.652,2.4545,0.1,0.00031785,3176.3,0.00031809,3183.5,-0.00010367,14.55,-0.00010561,-0.0045269,0.57782
26929,10.744,2.3636,0.1,0.00031543,3152.2,0.00031565,3158.5,-0.00010303,12.722,-0.00010472,-0.0046854,0.58675
26930,10.652,2.6364,0.1,0.00031779,3175.7,0.00031804,3183.2,-0.00010361,15.108,-0.00010562,-0.0044792,0.57799
26931,10.744,2.5455,0.1,0.00031536,3151.5,0.00031559,3158.1,-0.00010295,13.353,-0.00010473,-0.0046234,0.58695
26932,10.652,2.8182,0.1,0.00031775,3175.3,0.00031801,3183,-0.00010357,15.445,-0.00010562,-0.0044507,0.57809
26933,10.744,2.7273,0.1,0.00031532,3151,0.00031555,3157.9,-0.0001029,13.776,-0.00010474,-0.0045824,0.58709
26934,10.652,3,0.1,0.00031774,3175.2,0.000318,3182.9,-0.00010355,15.558,-0.00010562,-0.0044411,0.57813
26935,10.744,2.9091,0.1,0.00031529,3150.8,0.00031553,3157.7,-0.00010288,13.989,-0.00010474,-0.0045621,0.58716
26936,10.652,3.1818,0.1,0.00031775,3175.3,0.00031801,3183,-0.00010357,15.445,-0.00010562,-0.0044505,0.57809
26937,10.744,3.0909,0.1,0.00031529,3150.8,0.00031553,3157.7,-0.00010288,13.989,-0.00010474,-0.004562,0.58716
26938,10.652,3.3636,0.1,0.00031779,3175.7,0.00031804,3183.2,-0.00010361,15.108,-0.00010562,-0.0044791,0.57799
26939,10.744,3.2727,0.1,0.00031532,3151,0.00031555,3157.9,-0.0001029,13.776,-0.00010474,-0.0045823,0.58709
26940,10.652,3.5455,0.1,0.00031785,3176.3,0.00031809,3183.5,-0.00010367,14.55,-0.00010561,-0.0045268,0.57782
26941,10.744,3.4545,0.1,0.00031536,3151.5,0.00031559,3158.1,-0.00010295,13.353,-0.00010473,-0.0046232,0.58695
26942,10.652,3.7273,0.1,0.00031793,3177.1,0.00031817,3184,-0.00010377,13.774,-0.0001056,-0.0045951,0.57758
26943,10.744,3.6364,0.1,0.00031543,3152.2,0.00031565,3158.5,-0.00010303,12.722,-0.00010472,-0.0046853,0.58675
26944,10.652,3.9091,0.1,0.00031804,3178.2,0.00031826,3184.6,-0.00010388,12.786,-0.00010559,-0.0046883,0.57727
26945,10.744,3.8182,0.1,0.00031553,3153.1,0.00031573,3159,-0.00010313,11.889,-0.00010471,-0.0047743,0.58648
26946,10.652,4.0909,0.1,0.00031817,3179.5,0.00031837,3185.3,-0.00010403,11.593,-0.00010557,-0.0048108,0.57689
26947,10.744,4,0.1,0.00031564,3154.2,0.00031583,3159.7,-0.00010325,10.858,-0.0001047,-0.004897,0.58614
26948,10.652,4.2727,0.1,0.00031833,3181.1,0.0003185,3186.2,-0.00010419,10.205,-0.00010555,-0.0049742,0.57645
26949,10.744,4.1818,0.1,0.00031578,3155.6,0.00031594,3160.4,-0.0001034,9.6391,-0.00010468,-0.0050642,0.58573
26950,10.652,4.4545,0.1,0.0003185,3182.8,0.00031865,3187.1,-0.00010438,8.6309,-0.00010553,-0.0052043,0.57593
26951,10.744,4.3636,0.1,0.00031594,3157.2,0.00031608,3161.3,-0.00010357,8.2397,-0.00010467,-0.0053042,0.58525
26952,10.652,4.6364,0.1,0.0003187,3184.8,0.00031881,3188.2,-0.00010459,6.8823,-0.00010551,-0.0055568,0.57535
26953,10.744,4.5455,0.1,0.00031611,3158.9,0.00031623,3162.3,-0.00010376,6.6701,-0.00010465,-0.0056787,0.58471
26954,10.652,4.8182,0.1,0.00031891,3186.9,0.000319,3189.4,-0.00010482,4.9716,-0.00010549,-0.0061973,0.5747
26955,10.744,4.7273,0.1,0.00031631,3160.9,0.00031639,3163.4,-0.00010397,4.9417,-0.00010463,-0.0063448,0.58409
26956,10.652,5,0.1,0.00031914,3189.2,0.00031919,3190.7,-0.00010507,2.9125,-0.00010546,-0.007767,0.57398
26957,10.744,4.9091,0.1,0.00031652,3163.1,0.00031658,3164.6,-0.0001042,3.0667,-0.00010461,-0.0079119,0.58341
26958,10.652,5.1818,0.1,0.00031939,3191.7,0.00031941,3192.1,-0.00010534,0.72758,-0.00010544,-0.019195,0.57319
26959,10.744,5.0909,0.1,0.00031676,3165.4,0.00031677,3165.9,-0.00010444,1.0633,-0.00010458,-0.015632,0.58266
26960,10.652,5.3636,0.1,0.00031966,3194.4,0.00031963,3193.6,-0.00010541,0.0031281,-0.00010562,-1.6137,0.57233
26961,10.744,5.2727,0.1,0.000317,3167.8,0.00031698,3167.3,-0.00010456,0.007867,-0.0001047,-1.0932,0.58184
26962,10.652,5.5455,0.1,0.00031995,3197.3,0.00031988,3195.2,-0.00010538,-0.0023801,-0.00010592,-4.0702,0.5714
26963,10.744,5.4545,0.1,0.00031727,3170.5,0.00031721,3168.8,-0.00010453,0.00060563,-0.00010498,-3.3299,0.58095
26964,10.652,5.7273,0.1,0.00032033,3201.1,0.00032021,3197.5,-0.00010535,0.00023915,-0.00010631,-7.2046,0.5704
26965,10.744,5.6364,0.1,0.00031755,3173.3,0.00031746,3170.5,-0.00010451,-0.0037847,-0.00010527,-5.7365,0.58
26966,10.744,5.8182,0.1,0.00031803,3178.1,0.00031787,3173.4,-0.00010448,0.0052316,-0.00010573,-9.3921,0.57897
26967,10.652,5.9091,0.1,0.00032013,3199.1,0.00032002,3195.9,-0.00010533,0.0013664,-0.00010618,-6.3671,0.56933
26968,10.836,0.27273,0.1,0.00031524,3150.2,0.0003151,3146.3,-0.00010364,0.00061144,-0.00010468,-7.8368,0.58864
26969,10.927,0.18182,0.1,0.00031293,3127.2,0.00031276,3122.2,-0.00010278,0.0043279,-0.00010409,-9.8818,0.59732
26970,10.836,0.090909,0.1,0.000315,3147.9,0.00031489,3144.5,-0.00010362,0.001327,-0.00010451,-6.6662,0.58758
26971,10.836,0.45455,0.1,0.00031487,3146.5,0.00031479,3144,-0.00010366,-0.0012799,-0.00010432,-4.9718,0.58962
26972,10.927,0.36364,0.1,0.00031248,3122.6,0.00031237,3119.4,-0.0001028,-0.0021408,-0.00010366,-6.4811,0.59833
26973,10.836,0.63636,0.1,0.00031461,3143.9,0.00031456,3142.5,-0.00010368,0.0019025,-0.00010405,-2.7854,0.59054
26974,10.927,0.54545,0.1,0.00031221,3120,0.00031214,3117.8,-0.00010281,0.00093059,-0.00010339,-4.3435,0.59927
26975,10.836,0.81818,0.1,0.00031436,3141.5,0.00031435,3141.1,-0.0001037,0.015833,-0.0001038,-0.74218,0.59138
26976,10.927,0.72727,0.1,0.00031197,3117.5,0.00031193,3116.4,-0.00010283,0.0034109,-0.00010315,-2.3628,0.60015
26977,10.836,1,0.1,0.00031413,3139.2,0.00031415,3139.8,-0.00010356,1.2359,-0.00010373,-0.014984,0.59216
26978,10.927,0.90909,0.1,0.00031174,3115.3,0.00031173,3115,-0.00010285,0.027657,-0.00010292,-0.50354,0.60096
26979,10.836,1.1818,0.1,0.00031392,3137,0.00031397,3138.6,-0.00010334,3.0555,-0.00010375,-0.0081937,0.59287
26980,10.927,1.0909,0.1,0.00031153,3113.2,0.00031155,3113.8,-0.00010269,1.3143,-0.00010287,-0.014907,0.6017
26981,10.836,1.3636,0.1,0.00031372,3135.1,0.0003138,3137.4,-0.00010313,4.7477,-0.00010376,-0.0065583,0.59352
26982,10.927,1.2727,0.1,0.00031133,3111.2,0.00031138,3112.7,-0.00010249,2.964,-0.00010289,-0.0084604,0.60237
26983,10.836,1.5455,0.1,0.00031354,3133.3,0.00031365,3136.4,-0.00010294,6.2967,-0.00010378,-0.0058351,0.59409
26984,10.927,1.4545,0.1,0.00031116,3109.4,0.00031123,3111.6,-0.00010231,4.4882,-0.0001029,-0.0067426,0.60298
26985,10.836,1.7273,0.1,0.00031339,3131.7,0.00031352,3135.5,-0.00010277,7.6913,-0.0001038,-0.0054291,0.5946
26986,10.927,1.6364,0.1,0.00031099,3107.8,0.00031109,3110.7,-0.00010214,5.8729,-0.00010292,-0.0059613,0.60351
26987,10.836,1.9091,0.1,0.00031324,3130.3,0.0003134,3134.7,-0.00010262,8.9214,-0.00010381,-0.005172,0.59504
26988,10.927,1.8182,0.1,0.00031085,3106.4,0.00031097,3109.9,-0.00010199,7.1078,-0.00010293,-0.0055243,0.60398
26989,10.836,2.0909,0.1,0.00031313,3129.1,0.00031329,3134.1,-0.0001025,9.9782,-0.00010383,-0.0049962,0.59541
26990,10.927,2,0.1,0.00031073,3105.1,0.00031086,3109.2,-0.00010186,8.184,-0.00010295,-0.00525,0.60439
26991,10.836,2.2727,0.1,0.00031303,3128.1,0.00031321,3133.5,-0.00010239,10.854,-0.00010384,-0.0048718,0.59572
26992,10.927,2.1818,0.1,0.00031062,3104.1,0.00031077,3108.6,-0.00010174,9.0936,-0.00010296,-0.0050658,0.60472
26993,10.836,2.4545,0.1,0.00031295,3127.3,0.00031314,3133.1,-0.00010231,11.542,-0.00010384,-0.0047855,0.59595
26994,10.927,2.3636,0.1,0.00031054,3103.2,0.0003107,3108.1,-0.00010166,9.8297,-0.00010296,-0.0049397,0.60499
26995,10.836,2.6364,0.1,0.00031289,3126.8,0.0003131,3132.8,-0.00010225,12.037,-0.00010385,-0.0047279,0.59612
26996,10.927,2.5455,0.1,0.00031047,3102.6,0.00031065,3107.8,-0.00010159,10.387,-0.00010297,-0.0048562,0.60519
26997,10.836,2.8182,0.1,0.00031286,3126.4,0.00031307,3132.6,-0.00010221,12.336,-0.00010385,-0.0046938,0.59622
26998,10.927,2.7273,0.1,0.00031043,3102.2,0.00031061,3107.5,-0.00010154,10.761,-0.00010297,-0.0048026,0.60533
26999,10.836,3,0.1,0.00031285,3126.3,0.00031306,3132.5,-0.0001022,12.436,-0.00010386,-0.0046827,0.59626
27000,10.927,2.9091,0.1,0.00031041,3101.9,0.00031059,3107.4,-0.00010152,10.948,-0.00010298,-0.0047771,0.60539
27001,10.836,3.1818,0.1,0.00031286,3126.4,0.00031307,3132.6,-0.00010221,12.336,-0.00010385,-0.0046939,0.59622
27002,10.927,3.0909,0.1,0.00031041,3101.9,0.00031059,3107.4,-0.00010152,10.948,-0.00010298,-0.004777,0.60539
27003,10.836,3.3636,0.1,0.00031289,3126.8,0.0003131,3132.8,-0.00010225,12.037,-0.00010385,-0.0047277,0.59612
27004,10.927,3.2727,0.1,0.00031043,3102.2,0.00031061,3107.5,-0.00010154,10.761,-0.00010297,-0.0048028,0.60533
27005,10.836,3.5455,0.1,0.00031295,3127.3,0.00031314,3133.1,-0.00010231,11.542,-0.00010384,-0.0047853,0.59595
27006,10.927,3.4545,0.1,0.00031047,3102.6,0.00031065,3107.8,-0.00010159,10.387,-0.00010297,-0.0048557,0.60519
27007,10.836,3.7273,0.1,0.00031303,3128.1,0.00031321,3133.5,-0.00010239,10.854,-0.00010384,-0.0048717,0.59572
27008,10.927,3.6364,0.1,0.00031054,3103.2,0.0003107,3108.1,-0.00010166,9.8297,-0.00010296,-0.0049395,0.60499
27009,10.836,3.9091,0.1,0.00031313,3129.1,0.00031329,3134.1,-0.0001025,9.9782,-0.00010383,-0.0049959,0.59541
27010,10.927,3.8182,0.1,0.00031062,3104.1,0.00031077,3108.6,-0.00010174,9.0936,-0.00010296,-0.0050653,0.60472
27011,10.836,4.0909,0.1,0.00031324,3130.3,0.0003134,3134.7,-0.00010262,8.9214,-0.00010381,-0.0051717,0.59504
27012,10.927,4,0.1,0.00031073,3105.1,0.00031086,3109.2,-0.00010186,8.184,-0.00010295,-0.0052495,0.60439
27013,10.836,4.2727,0.1,0.00031339,3131.7,0.00031352,3135.5,-0.00010277,7.6912,-0.0001038,-0.0054287,0.5946
27014,10.927,4.1818,0.1,0.00031085,3106.4,0.00031097,3109.9,-0.00010199,7.1078,-0.00010293,-0.0055238,0.60398
27015,10.836,4.4545,0.1,0.00031354,3133.3,0.00031365,3136.4,-0.00010294,6.2966,-0.00010378,-0.0058345,0.59409
27016,10.927,4.3636,0.1,0.00031099,3107.8,0.00031109,3110.7,-0.00010214,5.8728,-0.00010292,-0.0059609,0.60351
27017,10.836,4.6364,0.1,0.00031372,3135.1,0.0003138,3137.4,-0.00010313,4.7476,-0.00010376,-0.0065577,0.59352
27018,10.927,4.5455,0.1,0.00031116,3109.4,0.00031123,3111.6,-0.00010231,4.4881,-0.0001029,-0.0067417,0.60298
27019,10.836,4.8182,0.1,0.00031392,3137,0.00031397,3138.6,-0.00010334,3.0555,-0.00010375,-0.0081932,0.59287
27020,10.927,4.7273,0.1,0.00031133,3111.2,0.00031138,3112.7,-0.00010249,2.9639,-0.00010289,-0.0084601,0.60237
27021,10.836,5,0.1,0.00031413,3139.2,0.00031415,3139.8,-0.00010356,1.2358,-0.00010373,-0.014984,0.59216
27022,10.927,4.9091,0.1,0.00031153,3113.2,0.00031155,3113.8,-0.00010269,1.3143,-0.00010287,-0.014907,0.6017
27023,10.836,5.1818,0.1,0.00031436,3141.5,0.00031435,3141.1,-0.0001037,0.015833,-0.0001038,-0.74222,0.59138
27024,10.927,5.0909,0.1,0.00031174,3115.3,0.00031173,3115,-0.00010285,0.027655,-0.00010292,-0.50358,0.60096
27025,10.836,5.3636,0.1,0.00031461,3143.9,0.00031456,3142.5,-0.00010368,0.0019026,-0.00010405,-2.7855,0.59054
27026,10.927,5.2727,0.1,0.00031197,3117.5,0.00031193,3116.4,-0.00010283,0.0034116,-0.00010315,-2.3629,0.60015
27027,10.836,5.5455,0.1,0.00031487,3146.5,0.00031479,3144,-0.00010366,-0.0012797,-0.00010432,-4.9718,0.58962
27028,10.927,5.4545,0.1,0.00031221,3120,0.00031214,3117.8,-0.00010281,0.00093032,-0.00010339,-4.3435,0.59927
27029,10.836,5.7273,0.1,0.00031524,3150.2,0.0003151,3146.3,-0.00010364,0.00061287,-0.00010468,-7.8369,0.58864
27030,10.927,5.6364,0.1,0.00031248,3122.6,0.00031237,3119.4,-0.0001028,-0.0021401,-0.00010366,-6.4811,0.59833
27031,10.927,5.8182,0.1,0.00031293,3127.2,0.00031276,3122.2,-0.00010278,0.0043295,-0.00010409,-9.8818,0.59732
27032,10.836,5.9091,0.1,0.000315,3147.9,0.00031489,3144.5,-0.00010362,0.001329,-0.00010451,-6.6663,0.58758
27033,11.019,0.27273,0.1,0.00031016,3099.5,0.00031002,3095.2,-0.00010193,0.0011249,-0.00010306,-8.4375,0.60708
27034,11.111,0.18182,0.1,0.00030786,3076.5,0.00030768,3071.3,-0.00010108,0.0035844,-0.00010246,-10.348,0.61588
27035,11.019,0.090909,0.1,0.0003099,3096.8,0.00030978,3093.4,-0.00010192,0.0014278,-0.00010285,-6.9507,0.60605
27036,11.019,0.45455,0.1,0.00030982,3096,0.00030972,3093.1,-0.00010195,-0.00018854,-0.00010273,-5.8282,0.60805
27037,11.111,0.36364,0.1,0.00030742,3072.1,0.0003073,3068.5,-0.00010109,-0.00057162,-0.00010205,-7.1895,0.61688
27038,11.019,0.63636,0.1,0.00030957,3093.6,0.00030951,3091.6,-0.00010197,0.0017194,-0.00010248,-3.8993,0.60896
27039,11.111,0.54545,0.1,0.00030718,3069.6,0.00030709,3067,-0.0001011,0.00129,-0.00010181,-5.3082,0.61781
27040,11.019,0.81818,0.1,0.00030935,3091.3,0.00030931,3090.3,-0.00010198,0.0050767,-0.00010226,-2.0939,0.60979
27041,11.111,0.72727,0.1,0.00030695,3067.4,0.00030689,3065.6,-0.00010112,0.00239,-0.00010159,-3.5741,0.61867
27042,11.019,1,0.1,0.00030914,3089.2,0.00030913,3089.1,-0.00010199,0.036749,-0.00010205,-0.41454,0.61056
27043,11.111,0.90909,0.1,0.00030675,3065.3,0.00030671,3064.4,-0.00010113,0.0062453,-0.00010139,-1.9316,0.61947
27044,11.019,1.1818,0.1,0.00030894,3087.3,0.00030896,3087.9,-0.00010185,1.2426,-0.00010201,-0.015967,0.61126
27045,11.111,1.0909,0.1,0.00030655,3063.4,0.00030655,3063.2,-0.00010114,0.037994,-0.0001012,-0.4122,0.6202
27046,11.019,1.3636,0.1,0.00030876,3085.5,0.00030881,3086.9,-0.00010166,2.7233,-0.00010203,-0.0089392,0.6119
27047,11.111,1.2727,0.1,0.00030637,3061.6,0.00030639,3062.2,-0.00010101,1.0905,-0.00010116,-0.01778,0.62086
27048,11.019,1.5455,0.1,0.0003086,3083.9,0.00030867,3085.9,-0.0001015,4.0827,-0.00010204,-0.007009,0.61246
27049,11.111,1.4545,0.1,0.00030621,3060,0.00030625,3061.2,-0.00010085,2.4155,-0.00010117,-0.0095534,0.62146
27050,11.019,1.7273,0.1,0.00030846,3082.4,0.00030855,3085.1,-0.00010135,5.3073,-0.00010205,-0.0061318,0.61297
27051,11.111,1.6364,0.1,0.00030606,3058.5,0.00030613,3060.3,-0.0001007,3.624,-0.00010118,-0.007336,0.62199
27052,11.019,1.9091,0.1,0.00030833,3081.2,0.00030844,3084.3,-0.00010121,6.388,-0.00010207,-0.0056446,0.6134
27053,11.111,1.8182,0.1,0.00030593,3057.2,0.00030601,3059.6,-0.00010056,4.7029,-0.00010119,-0.0063425,0.62245
27054,11.019,2.0909,0.1,0.00030822,3080.1,0.00030834,3083.7,-0.0001011,7.3167,-0.00010207,-0.0053432,0.61377
27055,11.111,2,0.1,0.00030582,3056.1,0.00030592,3058.9,-0.00010045,5.6437,-0.0001012,-0.0057977,0.62285
27056,11.019,2.2727,0.1,0.00030813,3079.2,0.00030827,3083.2,-0.00010101,8.0864,-0.00010208,-0.0051459,0.61407
27057,11.111,2.1818,0.1,0.00030573,3055.2,0.00030583,3058.4,-0.00010035,6.4391,-0.00010121,-0.0054658,0.62318
27058,11.019,2.4545,0.1,0.00030806,3078.5,0.00030821,3082.8,-0.00010093,8.6914,-0.00010209,-0.0050155,0.6143
27059,11.111,2.3636,0.1,0.00030565,3054.4,0.00030577,3057.9,-0.00010027,7.0831,-0.00010122,-0.0052539,0.62344
27060,11.019,2.6364,0.1,0.00030801,3078,0.00030816,3082.5,-0.00010088,9.1269,-0.00010209,-0.0049318,0.61447
27061,11.111,2.5455,0.1,0.00030559,3053.8,0.00030572,3057.6,-0.00010021,7.5707,-0.00010122,-0.0051197,0.62364
27062,11.019,2.8182,0.1,0.00030798,3077.7,0.00030814,3082.3,-0.00010085,9.3896,-0.0001021,-0.0048844,0.61457
27063,11.111,2.7273,0.1,0.00030555,3053.4,0.00030569,3057.4,-0.00010017,7.8979,-0.00010122,-0.005038,0.62377
27064,11.019,3,0.1,0.00030797,3077.5,0.00030813,3082.3,-0.00010084,9.4774,-0.0001021,-0.0048693,0.6146
27065,11.111,2.9091,0.1,0.00030553,3053.2,0.00030567,3057.2,-0.00010015,8.0621,-0.00010123,-0.0049996,0.62384
27066,11.019,3.1818,0.1,0.00030798,3077.7,0.00030814,3082.3,-0.00010085,9.3896,-0.0001021,-0.0048846,0.61457
27067,11.111,3.0909,0.1,0.00030553,3053.2,0.00030567,3057.2,-0.00010015,8.0621,-0.00010123,-0.0049995,0.62384
27068,11.019,3.3636,0.1,0.00030801,3078,0.00030816,3082.5,-0.00010088,9.1269,-0.00010209,-0.0049318,0.61447
27069,11.111,3.2727,0.1,0.00030555,3053.4,0.00030569,3057.4,-0.00010017,7.8979,-0.00010122,-0.0050381,0.62377
27070,11.019,3.5455,0.1,0.00030806,3078.5,0.00030821,3082.8,-0.00010093,8.6913,-0.00010209,-0.0050151,0.6143
27071,11.111,3.4545,0.1,0.00030559,3053.8,0.00030572,3057.6,-0.00010021,7.5706,-0.00010122,-0.0051193,0.62364
27072,11.019,3.7273,0.1,0.00030813,3079.2,0.00030827,3083.2,-0.00010101,8.0864,-0.00010208,-0.0051453,0.61407
27073,11.111,3.6364,0.1,0.00030565,3054.4,0.00030577,3057.9,-0.00010027,7.0831,-0.00010122,-0.0052537,0.62344
27074,11.019,3.9091,0.1,0.00030822,3080.1,0.00030834,3083.7,-0.0001011,7.3166,-0.00010207,-0.0053425,0.61377
27075,11.111,3.8182,0.1,0.00030573,3055.2,0.00030583,3058.4,-0.00010035,6.4391,-0.00010121,-0.0054654,0.62318
27076,11.019,4.0909,0.1,0.00030833,3081.2,0.00030844,3084.3,-0.00010121,6.3879,-0.00010207,-0.005644,0.6134
27077,11.111,4,0.1,0.00030582,3056.1,0.00030592,3058.9,-0.00010045,5.6437,-0.0001012,-0.0057971,0.62285
27078,11.019,4.2727,0.1,0.00030846,3082.4,0.00030855,3085.1,-0.00010135,5.3073,-0.00010205,-0.0061313,0.61297
27079,11.111,4.1818,0.1,0.00030593,3057.2,0.00030601,3059.6,-0.00010056,4.7029,-0.00010119,-0.0063421,0.62245
27080,11.019,4.4545,0.1,0.0003086,3083.9,0.00030867,3085.9,-0.0001015,4.0826,-0.00010204,-0.0070084,0.61246
27081,11.111,4.3636,0.1,0.00030606,3058.5,0.00030613,3060.3,-0.0001007,3.624,-0.00010118,-0.0073355,0.62199
27082,11.019,4.6364,0.1,0.00030876,3085.5,0.00030881,3086.9,-0.00010166,2.7233,-0.00010203,-0.0089386,0.6119
27083,11.111,4.5455,0.1,0.00030621,3060,0.00030625,3061.2,-0.00010085,2.4154,-0.00010117,-0.0095526,0.62146
27084,11.019,4.8182,0.1,0.00030894,3087.3,0.00030896,3087.9,-0.00010185,1.2425,-0.00010201,-0.015967,0.61126
27085,11.111,4.7273,0.1,0.00030637,3061.6,0.00030639,3062.2,-0.00010101,1.0904,-0.00010116,-0.017781,0.62086
27086,11.019,5,0.1,0.00030914,3089.2,0.00030913,3089.1,-0.00010199,0.036745,-0.00010205,-0.41459,0.61056
27087,11.111,4.9091,0.1,0.00030655,3063.4,0.00030655,3063.2,-0.00010114,0.03799,-0.0001012,-0.41224,0.6202
27088,11.019,5.1818,0.1,0.00030935,3091.3,0.00030931,3090.3,-0.00010198,0.0050776,-0.00010226,-2.0939,0.60979
27089,11.111,5.0909,0.1,0.00030675,3065.3,0.00030671,3064.4,-0.00010113,0.0062463,-0.00010139,-1.9317,0.61947
27090,11.019,5.3636,0.1,0.00030957,3093.6,0.00030951,3091.6,-0.00010197,0.0017198,-0.00010248,-3.8993,0.60896
27091,11.111,5.2727,0.1,0.00030695,3067.4,0.00030689,3065.6,-0.00010112,0.0023911,-0.00010159,-3.5741,0.61867
27092,11.019,5.5455,0.1,0.00030982,3096,0.00030972,3093.1,-0.00010195,-0.00018833,-0.00010273,-5.8283,0.60805
27093,11.111,5.4545,0.1,0.00030718,3069.6,0.00030709,3067,-0.0001011,0.0012897,-0.00010181,-5.3082,0.61781
27094,11.019,5.7273,0.1,0.00031016,3099.5,0.00031002,3095.2,-0.00010193,0.0011259,-0.00010306,-8.4376,0.60708
27095,11.111,5.6364,0.1,0.00030742,3072.1,0.0003073,3068.5,-0.00010109,-0.00057086,-0.00010205,-7.1896,0.61688
27096,11.111,5.8182,0.1,0.00030786,3076.5,0.00030768,3071.3,-0.00010108,0.0035859,-0.00010246,-10.348,0.61588
27097,11.019,5.9091,0.1,0.0003099,3096.8,0.00030978,3093.4,-0.00010192,0.0014284,-0.00010285,-6.9507,0.60605
27098,11.203,0.27273,0.1,0.00030511,3049,0.00030495,3044.4,-0.00010024,0.0016245,-0.00010144,-9.0099,0.62574
27099,11.295,0.18182,0.1,0.00030281,3026,0.00030262,3020.6,-9.939e-05,0.002952,-0.00010083,-10.792,0.63465
27100,11.203,0.090909,0.1,0.00030481,3046,0.00030469,3042.4,-0.00010023,0.0015227,-0.00010119,-7.2217,0.62472
27101,11.203,0.45455,0.1,0.00030478,3045.7,0.00030466,3042.3,-0.00010025,0.00077894,-0.00010113,-6.6446,0.6267
27102,11.295,0.36364,0.1,0.00030238,3021.7,0.00030225,3017.8,-9.9397e-05,0.00091627,-0.00010044,-7.8657,0.63563
27103,11.203,0.63636,0.1,0.00030455,3043.4,0.00030447,3041,-0.00010026,0.0017447,-0.00010092,-4.9614,0.62759
27104,11.295,0.54545,0.1,0.00030216,3019.5,0.00030205,3016.4,-9.9403e-05,0.0016386,-0.00010023,-6.2293,0.63654
27105,11.203,0.81818,0.1,0.00030435,3041.4,0.00030429,3039.7,-0.00010027,0.0030108,-0.00010072,-3.3908,0.62841
27106,11.295,0.72727,0.1,0.00030196,3017.5,0.00030187,3015.1,-9.9411e-05,0.0020685,-0.00010004,-4.7317,0.63739
27107,11.203,1,0.1,0.00030416,3039.5,0.00030413,3038.5,-0.00010028,0.0066076,-0.00010053,-1.9084,0.62917
27108,11.295,0.90909,0.1,0.00030177,3015.6,0.00030171,3013.9,-9.9419e-05,0.0032594,-9.986e-05,-3.3132,0.63818
27109,11.203,1.1818,0.1,0.00030398,3037.7,0.00030397,3037.5,-0.00010028,0.028465,-0.00010036,-0.53713,0.62986
27110,11.295,1.0909,0.1,0.00030159,3013.8,0.00030156,3012.8,-9.9426e-05,0.0061903,-9.9691e-05,-1.9788,0.6389
27111,11.203,1.3636,0.1,0.00030382,3036.1,0.00030383,3036.5,-0.00010019,0.80576,-0.0001003,-0.022514,0.63048
27112,11.295,1.2727,0.1,0.00030143,3012.2,0.00030142,3011.8,-9.9433e-05,0.018943,-9.9535e-05,-0.74407,0.63955
27113,11.203,1.5455,0.1,0.00030367,3034.6,0.0003037,3035.6,-0.00010005,1.9762,-0.00010031,-0.010632,0.63104
27114,11.295,1.4545,0.1,0.00030128,3010.7,0.00030129,3010.9,-9.9383e-05,0.45984,-9.9449e-05,-0.035137,0.64014
27115,11.203,1.7273,0.1,0.00030354,3033.3,0.00030359,3034.8,-9.9914e-05,3.0382,-0.00010032,-0.0078265,0.63154
27116,11.295,1.6364,0.1,0.00030115,3009.4,0.00030117,3010.1,-9.9255e-05,1.4817,-9.9453e-05,-0.012349,0.64066
27117,11.203,1.9091,0.1,0.00030342,3032.1,0.00030349,3034.1,-9.9797e-05,3.9767,-0.00010033,-0.0066248,0.63197
27118,11.295,1.8182,0.1,0.00030103,3008.2,0.00030107,3009.4,-9.9138e-05,2.4101,-9.946e-05,-0.0084634,0.64112
27119,11.203,2.0909,0.1,0.00030333,3031.2,0.00030341,3033.5,-9.9697e-05,4.7839,-0.00010033,-0.005984,0.63233
27120,11.295,2,0.1,0.00030093,3007.2,0.00030098,3008.8,-9.9037e-05,3.2217,-9.9467e-05,-0.0069403,0.64151
27121,11.203,2.2727,0.1,0.00030324,3030.3,0.00030334,3033.1,-9.9614e-05,5.4533,-0.00010034,-0.0056041,0.63262
27122,11.295,2.1818,0.1,0.00030084,3006.4,0.00030091,3008.3,-9.8951e-05,3.9087,-9.9472e-05,-0.0061654,0.64184
27123,11.203,2.4545,0.1,0.00030318,3029.7,0.00030328,3032.7,-9.9549e-05,5.9797,-0.00010035,-0.0053699,0.63285
27124,11.295,2.3636,0.1,0.00030077,3005.7,0.00030085,3007.9,-9.8882e-05,4.4653,-9.9477e-05,-0.005723,0.6421
27125,11.203,2.6364,0.1,0.00030313,3029.3,0.00030324,3032.4,-9.9503e-05,6.3588,-0.00010035,-0.0052274,0.63302
27126,11.295,2.5455,0.1,0.00030072,3005.1,0.0003008,3007.6,-9.883e-05,4.887,-9.9481e-05,-0.0054618,0.6423
27127,11.203,2.8182,0.1,0.00030311,3029,0.00030322,3032.3,-9.9474e-05,6.5875,-0.00010035,-0.0051493,0.63312
27128,11.295,2.7273,0.1,0.00030069,3004.8,0.00030077,3007.4,-9.8794e-05,5.1701,-9.9483e-05,-0.0053117,0.64243
27129,11.203,3,0.1,0.0003031,3028.9,0.00030321,3032.2,-9.9465e-05,6.6639,-0.00010035,-0.0051243,0.63315
27130,11.295,2.9091,0.1,0.00030067,3004.6,0.00030076,3007.3,-9.8777e-05,5.3123,-9.9485e-05,-0.0052426,0.64249
27131,11.203,3.1818,0.1,0.00030311,3029,0.00030322,3032.3,-9.9474e-05,6.5875,-0.00010035,-0.0051492,0.63312
27132,11.295,3.0909,0.1,0.00030067,3004.6,0.00030076,3007.3,-9.8777e-05,5.3123,-9.9485e-05,-0.0052426,0.64249
27133,11.203,3.3636,0.1,0.00030313,3029.3,0.00030324,3032.4,-9.9503e-05,6.3588,-0.00010035,-0.0052271,0.63302
27134,11.295,3.2727,0.1,0.00030069,3004.8,0.00030077,3007.4,-9.8794e-05,5.1701,-9.9483e-05,-0.0053116,0.64243
27135,11.203,3.5455,0.1,0.00030318,3029.7,0.00030328,3032.7,-9.9549e-05,5.9797,-0.00010035,-0.0053697,0.63285
27136,11.295,3.4545,0.1,0.00030072,3005.1,0.0003008,3007.6,-9.883e-05,4.887,-9.9481e-05,-0.0054614,0.6423
27137,11.203,3.7273,0.1,0.00030324,3030.3,0.00030334,3033.1,-9.9614e-05,5.4533,-0.00010034,-0.005604,0.63262
27138,11.295,3.6364,0.1,0.00030077,3005.7,0.00030085,3007.9,-9.8882e-05,4.4653,-9.9477e-05,-0.0057229,0.6421
27139,11.203,3.9091,0.1,0.00030333,3031.2,0.00030341,3033.5,-9.9697e-05,4.7839,-0.00010033,-0.0059837,0.63233
27140,11.295,3.8182,0.1,0.00030084,3006.4,0.00030091,3008.3,-9.8951e-05,3.9086,-9.9472e-05,-0.0061652,0.64184
27141,11.203,4.0909,0.1,0.00030342,3032.1,0.00030349,3034.1,-9.9797e-05,3.9767,-0.00010033,-0.0066244,0.63197
27142,11.295,4,0.1,0.00030093,3007.2,0.00030098,3008.8,-9.9037e-05,3.2216,-9.9467e-05,-0.0069399,0.64151
27143,11.203,4.2727,0.1,0.00030354,3033.3,0.00030359,3034.8,-9.9914e-05,3.0381,-0.00010032,-0.007826,0.63154
27144,11.295,4.1818,0.1,0.00030103,3008.2,0.00030107,3009.4,-9.9138e-05,2.41,-9.946e-05,-0.0084633,0.64112
27145,11.203,4.4545,0.1,0.00030367,3034.6,0.0003037,3035.6,-0.00010005,1.9762,-0.00010031,-0.010632,0.63104
27146,11.295,4.3636,0.1,0.00030115,3009.4,0.00030117,3010.1,-9.9255e-05,1.4817,-9.9453e-05,-0.012349,0.64066
27147,11.203,4.6364,0.1,0.00030382,3036.1,0.00030383,3036.5,-0.00010019,0.80571,-0.0001003,-0.022514,0.63048
27148,11.295,4.5455,0.1,0.00030128,3010.7,0.00030129,3010.9,-9.9383e-05,0.45979,-9.9449e-05,-0.035139,0.64014
27149,11.203,4.8182,0.1,0.00030398,3037.7,0.00030397,3037.5,-0.00010028,0.028463,-0.00010036,-0.53718,0.62986
27150,11.295,4.7273,0.1,0.00030143,3012.2,0.00030142,3011.8,-9.9433e-05,0.018942,-9.9535e-05,-0.74412,0.63955
27151,11.203,5,0.1,0.00030416,3039.5,0.00030413,3038.5,-0.00010028,0.0066083,-0.00010053,-1.9085,0.62917
27152,11.295,4.9091,0.1,0.00030159,3013.8,0.00030156,3012.8,-9.9426e-05,0.0061908,-9.9691e-05,-1.9788,0.6389
27153,11.203,5.1818,0.1,0.00030435,3041.4,0.00030429,3039.7,-0.00010027,0.003012,-0.00010072,-3.3908,0.62841
27154,11.295,5.0909,0.1,0.00030177,3015.6,0.00030171,3013.9,-9.9419e-05,0.0032605,-9.986e-05,-3.3133,0.63818
27155,11.203,5.3636,0.1,0.00030455,3043.4,0.00030447,3041,-0.00010026,0.0017452,-0.00010092,-4.9615,0.62759
27156,11.295,5.2727,0.1,0.00030196,3017.5,0.00030187,3015.1,-9.9411e-05,0.0020698,-0.00010004,-4.7318,0.63739
27157,11.203,5.5455,0.1,0.00030478,3045.7,0.00030466,3042.3,-0.00010025,0.00077917,-0.00010113,-6.6447,0.6267
27158,11.295,5.4545,0.1,0.00030216,3019.5,0.00030205,3016.4,-9.9403e-05,0.0016383,-0.00010023,-6.2294,0.63654
27159,11.203,5.7273,0.1,0.00030511,3049,0.00030495,3044.4,-0.00010024,0.0016257,-0.00010144,-9.0099,0.62574
27160,11.295,5.6364,0.1,0.00030238,3021.7,0.00030225,3017.8,-9.9397e-05,0.00091699,-0.00010044,-7.8657,0.63563
27161,11.295,5.8182,0.1,0.00030281,3026,0.00030262,3020.6,-9.939e-05,0.0029538,-0.00010083,-10.792,0.63465
27162,11.203,5.9091,0.1,0.00030481,3046,0.00030469,3042.4,-0.00010023,0.0015242,-0.00010119,-7.2217,0.62472
27163,11.387,0.27273,0.1,0.00030007,2998.6,0.00029991,2993.8,-9.8549e-05,0.0021907,-9.9821e-05,-9.5563,0.6446
27164,11.478,0.18182,0.1,0.00029777,2975.6,0.00029758,2970,-9.7708e-05,0.0024274,-9.9201e-05,-11.215,0.65361
27165,11.387,0.090909,0.1,0.00029975,2995.4,0.00029962,2991.7,-9.8547e-05,0.0016964,-9.9542e-05,-7.48,0.64359
27166,11.387,0.45455,0.1,0.00029976,2995.5,0.00029963,2991.8,-9.8552e-05,0.00173,-9.9541e-05,-7.4252,0.64554
27167,11.478,0.36364,0.1,0.00029736,2971.6,0.00029722,2967.3,-9.7708e-05,0.0023534,-9.8841e-05,-8.513,0.65458
27168,11.387,0.63636,0.1,0.00029956,2993.5,0.00029945,2990.5,-9.8557e-05,0.001907,-9.9353e-05,-5.9778,0.64642
27169,11.478,0.54545,0.1,0.00029716,2969.5,0.00029704,2966,-9.771e-05,0.0019847,-9.8656e-05,-7.1125,0.65548
27170,11.387,0.81818,0.1,0.00029937,2991.6,0.00029929,2989.3,-9.8562e-05,0.0022732,-9.9179e-05,-4.6331,0.64723
27171,11.478,0.72727,0.1,0.00029697,2967.7,0.00029688,2964.8,-9.7712e-05,0.0020056,-9.849e-05,-5.8424,0.65632
27172,11.387,1,0.1,0.0002992,2989.9,0.00029914,2988.2,-9.8568e-05,0.0031292,-9.9016e-05,-3.3634,0.64798
27173,11.478,0.90909,0.1,0.0002968,2966,0.00029672,2963.7,-9.7715e-05,0.002159,-9.8333e-05,-4.6404,0.6571
27174,11.387,1.1818,0.1,0.00029904,2988.3,0.000299,2987.2,-9.8574e-05,0.0051063,-9.8864e-05,-2.1742,0.64866
27175,11.478,1.0909,0.1,0.00029665,2964.4,0.00029659,2962.7,-9.7719e-05,0.0026238,-9.8186e-05,-3.5086,0.65781
27176,11.387,1.3636,0.1,0.00029889,2986.8,0.00029887,2986.3,-9.8579e-05,0.011261,-9.8724e-05,-1.0755,0.64928
27177,11.478,1.2727,0.1,0.0002965,2963,0.00029646,2961.7,-9.7723e-05,0.0036759,-9.805e-05,-2.4531,0.65845
27178,11.387,1.5455,0.1,0.00029876,2985.5,0.00029875,2985.5,-9.8575e-05,0.092445,-9.8606e-05,-0.14491,0.64983
27179,11.478,1.4545,0.1,0.00029637,2961.6,0.00029634,2960.9,-9.7727e-05,0.0062866,-9.7925e-05,-1.4812,0.65903
27180,11.387,1.7273,0.1,0.00029864,2984.3,0.00029865,2984.7,-9.8476e-05,0.87622,-9.8595e-05,-0.016916,0.65031
27181,11.478,1.6364,0.1,0.00029625,2960.4,0.00029624,2960.1,-9.773e-05,0.016418,-9.7813e-05,-0.60525,0.65955
27182,11.387,1.9091,0.1,0.00029853,2983.3,0.00029856,2984.1,-9.8376e-05,1.6743,-9.86e-05,-0.0097196,0.65074
27183,11.478,1.8182,0.1,0.00029614,2959.4,0.00029615,2959.5,-9.7704e-05,0.24641,-9.7743e-05,-0.043663,0.66
27184,11.387,2.0909,0.1,0.00029844,2982.4,0.00029848,2983.6,-9.8289e-05,2.3649,-9.8604e-05,-0.0074648,0.65109
27185,11.478,2,0.1,0.00029605,2958.5,0.00029607,2958.9,-9.762e-05,0.90675,-9.7743e-05,-0.012867,0.66038
27186,11.387,2.2727,0.1,0.00029837,2981.7,0.00029842,2983.1,-9.8217e-05,2.9387,-9.8609e-05,-0.0064247,0.65138
27187,11.478,2.1818,0.1,0.00029597,2957.7,0.000296,2958.4,-9.7547e-05,1.4876,-9.7746e-05,-0.0084447,0.6607
27188,11.387,2.4545,0.1,0.00029831,2981.1,0.00029837,2982.8,-9.816e-05,3.3904,-9.8612e-05,-0.0058683,0.65161
27189,11.478,2.3636,0.1,0.00029591,2957.1,0.00029595,2958.1,-9.7487e-05,1.9604,-9.7749e-05,-0.0068184,0.66096
27190,11.387,2.6364,0.1,0.00029827,2980.7,0.00029834,2982.5,-9.8119e-05,3.716,-9.8614e-05,-0.0055581,0.65177
27191,11.478,2.5455,0.1,0.00029587,2956.6,0.0002959,2957.8,-9.7441e-05,2.3193,-9.7751e-05,-0.0060475,0.66116
27192,11.387,2.8182,0.1,0.00029825,2980.4,0.00029831,2982.4,-9.8095e-05,3.9125,-9.8616e-05,-0.0053977,0.65187
27193,11.478,2.7273,0.1,0.00029583,2956.3,0.00029588,2957.6,-9.7411e-05,2.5605,-9.7753e-05,-0.0056576,0.66128
27194,11.387,3,0.1,0.00029824,2980.3,0.00029831,2982.3,-9.8086e-05,3.9782,-9.8616e-05,-0.005348,0.6519
27195,11.478,2.9091,0.1,0.00029582,2956.1,0.00029586,2957.5,-9.7396e-05,2.6817,-9.7753e-05,-0.0054902,0.66135
27196,11.387,3.1818,0.1,0.00029825,2980.4,0.00029831,2982.4,-9.8095e-05,3.9125,-9.8616e-05,-0.0053977,0.65187
27197,11.478,3.0909,0.1,0.00029582,2956.1,0.00029586,2957.5,-9.7396e-05,2.6817,-9.7753e-05,-0.0054903,0.66135
27198,11.387,3.3636,0.1,0.00029827,2980.7,0.00029834,2982.5,-9.8119e-05,3.716,-9.8614e-05,-0.0055578,0.65177
27199,11.478,3.2727,0.1,0.00029583,2956.3,0.00029588,2957.6,-9.7411e-05,2.5605,-9.7753e-05,-0.0056575,0.66128
27200,11.387,3.5455,0.1,0.00029831,2981.1,0.00029837,2982.8,-9.816e-05,3.3904,-9.8612e-05,-0.0058679,0.65161
27201,11.478,3.4545,0.1,0.00029587,2956.6,0.0002959,2957.8,-9.7441e-05,2.3193,-9.7751e-05,-0.0060469,0.66116
27202,11.387,3.7273,0.1,0.00029837,2981.7,0.00029842,2983.1,-9.8217e-05,2.9387,-9.8609e-05,-0.0064244,0.65138
27203,11.478,3.6364,0.1,0.00029591,2957.1,0.00029595,2958.1,-9.7487e-05,1.9604,-9.7749e-05,-0.0068184,0.66096
27204,11.387,3.9091,0.1,0.00029844,2982.4,0.00029848,2983.6,-9.8289e-05,2.3648,-9.8604e-05,-0.0074645,0.65109
27205,11.478,3.8182,0.1,0.00029597,2957.7,0.000296,2958.4,-9.7547e-05,1.4875,-9.7746e-05,-0.0084444,0.6607
27206,11.387,4.0909,0.1,0.00029853,2983.3,0.00029856,2984.1,-9.8376e-05,1.6743,-9.86e-05,-0.0097195,0.65074
27207,11.478,4,0.1,0.00029605,2958.5,0.00029607,2958.9,-9.762e-05,0.90672,-9.7743e-05,-0.012866,0.66038
27208,11.387,4.2727,0.1,0.00029864,2984.3,0.00029865,2984.7,-9.8476e-05,0.87618,-9.8595e-05,-0.016917,0.65031
27209,11.478,4.1818,0.1,0.00029614,2959.4,0.00029615,2959.5,-9.7704e-05,0.24638,-9.7743e-05,-0.043668,0.66
27210,11.387,4.4545,0.1,0.00029876,2985.5,0.00029875,2985.5,-9.8575e-05,0.092426,-9.8606e-05,-0.14494,0.64983
27211,11.478,4.3636,0.1,0.00029625,2960.4,0.00029624,2960.1,-9.773e-05,0.016417,-9.7813e-05,-0.60529,0.65955
27212,11.387,4.6364,0.1,0.00029889,2986.8,0.00029887,2986.3,-9.8579e-05,0.011261,-9.8724e-05,-1.0755,0.64928
27213,11.478,4.5455,0.1,0.00029637,2961.6,0.00029634,2960.9,-9.7727e-05,0.0062868,-9.7925e-05,-1.4813,0.65903
27214,11.387,4.8182,0.1,0.00029904,2988.3,0.000299,2987.2,-9.8574e-05,0.0051068,-9.8864e-05,-2.1743,0.64866
27215,11.478,4.7273,0.1,0.0002965,2963,0.00029646,2961.7,-9.7723e-05,0.0036763,-9.805e-05,-2.4532,0.65845
27216,11.387,5,0.1,0.0002992,2989.9,0.00029914,2988.2,-9.8568e-05,0.0031301,-9.9016e-05,-3.3635,0.64798
27217,11.478,4.9091,0.1,0.00029665,2964.4,0.00029659,2962.7,-9.7719e-05,0.0026244,-9.8186e-05,-3.5086,0.65781
27218,11.387,5.1818,0.1,0.00029937,2991.6,0.00029929,2989.3,-9.8562e-05,0.0022744,-9.9179e-05,-4.6332,0.64723
27219,11.478,5.0909,0.1,0.0002968,2966,0.00029672,2963.7,-9.7715e-05,0.00216,-9.8333e-05,-4.6405,0.6571
27220,11.387,5.3636,0.1,0.00029956,2993.5,0.00029945,2990.5,-9.8557e-05,0.0019076,-9.9353e-05,-5.9779,0.64642
27221,11.478,5.2727,0.1,0.00029697,2967.7,0.00029688,2964.8,-9.7712e-05,0.0020064,-9.849e-05,-5.8424,0.65632
27222,11.387,5.5455,0.1,0.00029976,2995.5,0.00029963,2991.8,-9.8552e-05,0.0017302,-9.9541e-05,-7.4252,0.64554
27223,11.478,5.4545,0.1,0.00029716,2969.5,0.00029704,2966,-9.771e-05,0.0019847,-9.8657e-05,-7.1125,0.65548
27224,11.387,5.7273,0.1,0.00030007,2998.6,0.00029991,2993.8,-9.8549e-05,0.002192,-9.9821e-05,-9.5563,0.6446
27225,11.478,5.6364,0.1,0.00029736,2971.6,0.00029722,2967.3,-9.7708e-05,0.002354,-9.8842e-05,-8.513,0.65458
27226,11.478,5.8182,0.1,0.00029777,2975.6,0.00029758,2970,-9.7708e-05,0.0024287,-9.9201e-05,-11.215,0.65361
27227,11.387,5.9091,0.1,0.00029975,2995.4,0.00029962,2991.7,-9.8547e-05,0.0016978,-9.9542e-05,-7.48,0.64359
27228,11.57,0.27273,0.1,0.00029505,2948.5,0.00029488,2943.4,-9.6867e-05,0.0027593,-9.8209e-05,-10.08,0.66366
27229,11.662,0.18182,0.1,0.00029275,2925.5,0.00029256,2919.7,-9.6033e-05,0.0019943,-9.7579e-05,-11.62,0.67278
27230,11.57,0.090909,0.1,0.00029471,2945,0.00029457,2941.2,-9.687e-05,0.0018794,-9.7899e-05,-7.7266,0.66267
27231,11.57,0.45455,0.1,0.00029476,2945.6,0.00029462,2941.5,-9.6865e-05,0.0026159,-9.7954e-05,-8.1748,0.66459
27232,11.662,0.36364,0.1,0.00029237,2921.6,0.00029221,2917.1,-9.6027e-05,0.0037526,-9.7244e-05,-9.1352,0.67374
27233,11.57,0.63636,0.1,0.00029457,2943.7,0.00029446,2940.2,-9.6865e-05,0.002089,-9.7791e-05,-6.9549,0.66545
27234,11.662,0.54545,0.1,0.00029218,2919.8,0.00029204,2915.8,-9.6024e-05,0.0023266,-9.7084e-05,-7.963,0.67463
27235,11.57,0.81818,0.1,0.00029441,2942,0.00029431,2939.1,-9.6865e-05,0.0019319,-9.7641e-05,-5.8283,0.66625
27236,11.662,0.72727,0.1,0.00029201,2918.1,0.00029189,2914.6,-9.6021e-05,0.0020601,-9.6942e-05,-6.913,0.67545
27237,11.57,1,0.1,0.00029425,2940.5,0.00029417,2938.1,-9.6866e-05,0.0018291,-9.7501e-05,-4.7649,0.66699
27238,11.662,0.90909,0.1,0.00029186,2916.6,0.00029176,2913.6,-9.602e-05,0.0016271,-9.6808e-05,-5.9206,0.67621
27239,11.57,1.1818,0.1,0.00029411,2939,0.00029404,2937.2,-9.6868e-05,0.0018826,-9.737e-05,-3.7678,0.66766
27240,11.662,1.0909,0.1,0.00029172,2915.2,0.00029163,2912.7,-9.6019e-05,0.001291,-9.6683e-05,-4.9857,0.67691
27241,11.57,1.3636,0.1,0.00029397,2937.7,0.00029393,2936.3,-9.6871e-05,0.0021624,-9.7249e-05,-2.8425,0.66827
27242,11.662,1.2727,0.1,0.00029159,2913.9,0.00029152,2911.8,-9.602e-05,0.00098856,-9.6567e-05,-4.1126,0.67755
27243,11.57,1.5455,0.1,0.00029386,2936.5,0.00029382,2935.5,-9.6873e-05,0.0028762,-9.7139e-05,-1.9948,0.66881
27244,11.662,1.4545,0.1,0.00029147,2912.7,0.00029141,2911,-9.6021e-05,0.0007426,-9.6461e-05,-3.3062,0.67812
27245,11.57,1.7273,0.1,0.00029375,2935.5,0.00029373,2934.9,-9.6876e-05,0.0046435,-9.704e-05,-1.2309,0.66929
27246,11.662,1.6364,0.1,0.00029136,2911.6,0.00029132,2910.3,-9.6022e-05,0.00055729,-9.6364e-05,-2.5718,0.67863
27247,11.57,1.9091,0.1,0.00029366,2934.5,0.00029365,2934.3,-9.6878e-05,0.010636,-9.6954e-05,-0.55984,0.66971
27248,11.662,1.8182,0.1,0.00029127,2910.7,0.00029124,2909.7,-9.6024e-05,0.00044734,-9.6279e-05,-1.9146,0.67907
27249,11.57,2.0909,0.1,0.00029358,2933.7,0.00029358,2933.8,-9.6869e-05,0.098504,-9.6891e-05,-0.064397,0.67006
27250,11.662,2,0.1,0.00029119,2909.9,0.00029116,2909.2,-9.6025e-05,0.00044934,-9.6204e-05,-1.3399,0.67945
27251,11.57,2.2727,0.1,0.00029351,2933.1,0.00029352,2933.4,-9.6814e-05,0.53151,-9.6886e-05,-0.012769,0.67035
27252,11.662,2.1818,0.1,0.00029112,2909.2,0.0002911,2908.8,-9.6027e-05,0.00065879,-9.614e-05,-0.85249,0.67977
27253,11.57,2.4545,0.1,0.00029346,2932.6,0.00029348,2933,-9.6766e-05,0.90836,-9.6888e-05,-0.0079375,0.67057
27254,11.662,2.3636,0.1,0.00029106,2908.6,0.00029106,2908.4,-9.6028e-05,0.0013985,-9.6089e-05,-0.45731,0.68002
27255,11.57,2.6364,0.1,0.00029342,2932.2,0.00029344,2932.8,-9.6731e-05,1.1821,-9.6889e-05,-0.0063904,0.67073
27256,11.662,2.5455,0.1,0.00029102,2908.2,0.00029102,2908.1,-9.6029e-05,0.0047594,-9.6051e-05,-0.16019,0.68021
27257,11.57,2.8182,0.1,0.0002934,2932,0.00029342,2932.7,-9.671e-05,1.3477,-9.689e-05,-0.0057696,0.67083
27258,11.662,2.7273,0.1,0.00029099,2907.9,0.000291,2908,-9.6022e-05,0.060988,-9.6032e-05,-0.014355,0.68034
27259,11.57,3,0.1,0.00029339,2931.9,0.00029342,2932.6,-9.6703e-05,1.4031,-9.689e-05,-0.0055965,0.67086
27260,11.662,2.9091,0.1,0.00029098,2907.8,0.00029098,2907.9,-9.601e-05,0.15429,-9.6032e-05,-0.0060995,0.6804
27261,11.57,3.1818,0.1,0.0002934,2932,0.00029342,2932.7,-9.671e-05,1.3477,-9.689e-05,-0.0057698,0.67083
27262,11.662,3.0909,0.1,0.00029098,2907.8,0.00029098,2907.9,-9.601e-05,0.15429,-9.6032e-05,-0.0060996,0.6804
27263,11.57,3.3636,0.1,0.00029342,2932.2,0.00029344,2932.8,-9.6731e-05,1.1821,-9.6889e-05,-0.00639,0.67073
27264,11.662,3.2727,0.1,0.00029099,2907.9,0.000291,2908,-9.6022e-05,0.060979,-9.6032e-05,-0.014356,0.68034
27265,11.57,3.5455,0.1,0.00029346,2932.6,0.00029348,2933,-9.6766e-05,0.90835,-9.6888e-05,-0.0079372,0.67057
27266,11.662,3.4545,0.1,0.00029102,2908.2,0.00029102,2908.1,-9.6029e-05,0.0047583,-9.6051e-05,-0.1602,0.68021
27267,11.57,3.7273,0.1,0.00029351,2933.1,0.00029352,2933.4,-9.6814e-05,0.53148,-9.6886e-05,-0.012769,0.67035
27268,11.662,3.6364,0.1,0.00029106,2908.6,0.00029106,2908.4,-9.6028e-05,0.001398,-9.6089e-05,-0.45733,0.68002
27269,11.57,3.9091,0.1,0.00029358,2933.7,0.00029358,2933.8,-9.6869e-05,0.098483,-9.6891e-05,-0.064407,0.67006
27270,11.662,3.8182,0.1,0.00029112,2909.2,0.0002911,2908.8,-9.6027e-05,0.00065848,-9.614e-05,-0.85252,0.67977
27271,11.57,4.0909,0.1,0.00029366,2934.5,0.00029365,2934.3,-9.6878e-05,0.010635,-9.6954e-05,-0.55987,0.66971
27272,11.662,4,0.1,0.00029119,2909.9,0.00029116,2909.2,-9.6025e-05,0.00044951,-9.6204e-05,-1.3399,0.67945
27273,11.57,4.2727,0.1,0.00029375,2935.5,0.00029373,2934.9,-9.6876e-05,0.0046433,-9.704e-05,-1.231,0.66929
27274,11.662,4.1818,0.1,0.00029127,2910.7,0.00029124,2909.7,-9.6024e-05,0.00044738,-9.6279e-05,-1.9147,0.67907
27275,11.57,4.4545,0.1,0.00029386,2936.5,0.00029382,2935.5,-9.6873e-05,0.0028761,-9.7139e-05,-1.9948,0.66881
27276,11.662,4.3636,0.1,0.00029136,2911.6,0.00029132,2910.3,-9.6022e-05,0.00055747,-9.6364e-05,-2.5719,0.67863
27277,11.57,4.6364,0.1,0.00029397,2937.7,0.00029393,2936.3,-9.6871e-05,0.0021625,-9.7249e-05,-2.8425,0.66827
27278,11.662,4.5455,0.1,0.00029147,2912.7,0.00029141,2911,-9.6021e-05,0.00074279,-9.6461e-05,-3.3063,0.67812
27279,11.57,4.8182,0.1,0.00029411,2939,0.00029404,2937.2,-9.6868e-05,0.001883,-9.737e-05,-3.7679,0.66766
27280,11.662,4.7273,0.1,0.00029159,2913.9,0.00029152,2911.8,-9.602e-05,0.00098915,-9.6567e-05,-4.1126,0.67755
27281,11.57,5,0.1,0.00029425,2940.5,0.00029417,2938.1,-9.6866e-05,0.0018298,-9.7501e-05,-4.765,0.66699
27282,11.662,4.9091,0.1,0.00029172,2915.2,0.00029163,2912.7,-9.6019e-05,0.0012914,-9.6683e-05,-4.9857,0.67691
27283,11.57,5.1818,0.1,0.00029441,2942,0.00029431,2939.1,-9.6865e-05,0.0019325,-9.7641e-05,-5.8284,0.66625
27284,11.662,5.0909,0.1,0.00029186,2916.6,0.00029176,2913.6,-9.602e-05,0.001628,-9.6808e-05,-5.9207,0.67621
27285,11.57,5.3636,0.1,0.00029457,2943.7,0.00029446,2940.2,-9.6865e-05,0.0020892,-9.7791e-05,-6.955,0.66545
27286,11.662,5.2727,0.1,0.00029201,2918.1,0.00029189,2914.6,-9.6021e-05,0.0020608,-9.6942e-05,-6.9131,0.67545
27287,11.57,5.5455,0.1,0.00029476,2945.6,0.00029462,2941.5,-9.6865e-05,0.0026162,-9.7954e-05,-8.1748,0.66459
27288,11.662,5.4545,0.1,0.00029218,2919.8,0.00029204,2915.8,-9.6024e-05,0.0023272,-9.7084e-05,-7.9631,0.67463
27289,11.57,5.7273,0.1,0.00029505,2948.5,0.00029488,2943.4,-9.6867e-05,0.0027599,-9.8209e-05,-10.08,0.66366
27290,11.662,5.6364,0.1,0.00029237,2921.6,0.00029221,2917.1,-9.6027e-05,0.003753,-9.7244e-05,-9.1353,0.67374
27291,11.662,5.8182,0.1,0.00029275,2925.5,0.00029256,2919.7,-9.6033e-05,0.0019947,-9.758e-05,-11.62,0.67278
27292,11.57,5.9091,0.1,0.00029471,2945,0.00029457,2941.2,-9.687e-05,0.0018806,-9.7899e-05,-7.7267,0.66267
27293,11.754,0.27273,0.1,0.00029005,2898.5,0.00028987,2893.2,-9.5193e-05,0.003385,-9.6602e-05,-10.582,0.68292
27294,11.846,0.18182,0.1,0.00028776,2875.6,0.00028755,2869.6,-9.4365e-05,0.0016706,-9.5963e-05,-12.007,0.69215
27295,11.754,0.090909,0.1,0.00028968,2894.8,0.00028955,2890.8,-9.5201e-05,0.0021228,-9.6261e-05,-7.9623,0.68195
27296,11.754,0.45455,0.1,0.00028978,2895.8,0.00028963,2891.3,-9.5186e-05,0.0035064,-9.637e-05,-8.8976,0.68384
27297,11.846,0.36364,0.1,0.00028738,2871.9,0.00028722,2867,-9.4354e-05,0.0051562,-9.565e-05,-9.7357,0.69309
27298,11.754,0.63636,0.1,0.00028961,2894.1,0.00028948,2890.2,-9.518e-05,0.0023258,-9.6232e-05,-7.8987,0.68469
27299,11.846,0.54545,0.1,0.00028721,2870.2,0.00028706,2865.8,-9.4345e-05,0.0026971,-9.5515e-05,-8.7861,0.69396
27300,11.754,0.81818,0.1,0.00028946,2892.6,0.00028934,2889.1,-9.5176e-05,0.0018071,-9.6106e-05,-6.9837,0.68548
27301,11.846,0.72727,0.1,0.00028707,2868.7,0.00028693,2864.7,-9.4338e-05,0.0022075,-9.5396e-05,-7.9505,0.69478
27302,11.754,1,0.1,0.00028932,2891.2,0.00028922,2888.2,-9.5173e-05,0.0011998,-9.5988e-05,-6.1203,0.6862
27303,11.846,0.90909,0.1,0.00028693,2867.3,0.00028681,2863.7,-9.4332e-05,0.0013685,-9.5285e-05,-7.1619,0.69553
27304,11.754,1.1818,0.1,0.00028919,2889.9,0.0002891,2887.3,-9.5171e-05,0.00063209,-9.5878e-05,-5.31,0.68686
27305,11.846,1.0909,0.1,0.00028681,2866.1,0.0002867,2862.9,-9.4328e-05,0.00063386,-9.5182e-05,-6.4183,0.69621
27306,11.754,1.3636,0.1,0.00028908,2888.8,0.000289,2886.5,-9.517e-05,6.2779e-05,-9.5776e-05,-4.5566,0.68746
27307,11.846,1.2727,0.1,0.00028669,2864.9,0.00028659,2862.1,-9.4324e-05,-0.00011406,-9.5086e-05,-5.7224,0.69684
27308,11.754,1.5455,0.1,0.00028897,2887.7,0.00028891,2885.8,-9.5169e-05,-0.00051048,-9.5684e-05,-3.8645,0.688
27309,11.846,1.4545,0.1,0.00028659,2863.9,0.0002865,2861.3,-9.4322e-05,-0.00085063,-9.4998e-05,-5.078,0.6974
27310,11.754,1.7273,0.1,0.00028888,2886.8,0.00028882,2885.2,-9.5169e-05,-0.0011069,-9.56e-05,-3.2386,0.68847
27311,11.846,1.6364,0.1,0.00028649,2863,0.00028642,2860.7,-9.432e-05,-0.0015882,-9.4918e-05,-4.4891,0.6979
27312,11.754,1.9091,0.1,0.0002888,2886,0.00028875,2884.6,-9.517e-05,-0.0017462,-9.5527e-05,-2.6835,0.68888
27313,11.846,1.8182,0.1,0.00028641,2862.1,0.00028634,2860.1,-9.4319e-05,-0.0023303,-9.4846e-05,-3.9603,0.69834
27314,11.754,2.0909,0.1,0.00028873,2885.3,0.00028869,2884.2,-9.517e-05,-0.0024486,-9.5463e-05,-2.204,0.68923
27315,11.846,2,0.1,0.00028634,2861.4,0.00028628,2859.7,-9.4319e-05,-0.003075,-9.4784e-05,-3.4962,0.69872
27316,11.754,2.2727,0.1,0.00028867,2884.7,0.00028864,2883.8,-9.5171e-05,-0.0032289,-9.5411e-05,-1.8046,0.68951
27317,11.846,2.1818,0.1,0.00028628,2860.8,0.00028623,2859.3,-9.4319e-05,-0.0038098,-9.4731e-05,-3.1011,0.69903
27318,11.754,2.4545,0.1,0.00028862,2884.2,0.0002886,2883.5,-9.5172e-05,-0.0040749,-9.537e-05,-1.4892,0.68973
27319,11.846,2.3636,0.1,0.00028623,2860.3,0.00028618,2858.9,-9.4319e-05,-0.0045102,-9.4688e-05,-2.7793,0.69928
27320,11.754,2.6364,0.1,0.00028859,2883.9,0.00028857,2883.3,-9.5173e-05,-0.0049075,-9.534e-05,-1.2612,0.68989
27321,11.846,2.5455,0.1,0.00028619,2860,0.00028615,2858.7,-9.4319e-05,-0.0051289,-9.4656e-05,-2.5344,0.69947
27322,11.754,2.8182,0.1,0.00028857,2883.7,0.00028855,2883.1,-9.5173e-05,-0.0055562,-9.5322e-05,-1.1232,0.68998
27323,11.846,2.7273,0.1,0.00028617,2859.7,0.00028613,2858.5,-9.4319e-05,-0.0055999,-9.4634e-05,-2.3694,0.69959
27324,11.754,3,0.1,0.00028856,2883.6,0.00028855,2883.1,-9.5173e-05,-0.0058074,-9.5316e-05,-1.077,0.69001
27325,11.846,2.9091,0.1,0.00028616,2859.6,0.00028612,2858.5,-9.4319e-05,-0.0058568,-9.4623e-05,-2.2864,0.69966
27326,11.754,3.1818,0.1,0.00028857,2883.7,0.00028855,2883.1,-9.5173e-05,-0.0055562,-9.5322e-05,-1.1232,0.68998
27327,11.846,3.0909,0.1,0.00028616,2859.6,0.00028612,2858.5,-9.4319e-05,-0.0058569,-9.4623e-05,-2.2864,0.69966
27328,11.754,3.3636,0.1,0.00028859,2883.9,0.00028857,2883.3,-9.5173e-05,-0.0049076,-9.534e-05,-1.2612,0.68989
27329,11.846,3.2727,0.1,0.00028617,2859.7,0.00028613,2858.5,-9.4319e-05,-0.0055997,-9.4634e-05,-2.3695,0.69959
27330,11.754,3.5455,0.1,0.00028862,2884.2,0.0002886,2883.5,-9.5172e-05,-0.0040749,-9.537e-05,-1.4892,0.68973
27331,11.846,3.4545,0.1,0.00028619,2860,0.00028615,2858.7,-9.4319e-05,-0.0051289,-9.4656e-05,-2.5345,0.69947
27332,11.754,3.7273,0.1,0.00028867,2884.7,0.00028864,2883.8,-9.5171e-05,-0.0032291,-9.5411e-05,-1.8046,0.68951
27333,11.846,3.6364,0.1,0.00028623,2860.3,0.00028618,2858.9,-9.4319e-05,-0.0045099,-9.4688e-05,-2.7793,0.69928
27334,11.754,3.9091,0.1,0.00028873,2885.3,0.00028869,2884.2,-9.517e-05,-0.0024486,-9.5463e-05,-2.204,0.68923
27335,11.846,3.8182,0.1,0.00028628,2860.8,0.00028623,2859.3,-9.4319e-05,-0.00381,-9.4731e-05,-3.1011,0.69903
27336,11.754,4.0909,0.1,0.0002888,2886,0.00028875,2884.6,-9.517e-05,-0.0017461,-9.5527e-05,-2.6835,0.68888
27337,11.846,4,0.1,0.00028634,2861.4,0.00028628,2859.7,-9.4319e-05,-0.0030745,-9.4784e-05,-3.4962,0.69872
27338,11.754,4.2727,0.1,0.00028888,2886.8,0.00028882,2885.2,-9.5169e-05,-0.0011067,-9.56e-05,-3.2386,0.68847
27339,11.846,4.1818,0.1,0.00028641,2862.1,0.00028634,2860.1,-9.4319e-05,-0.00233,-9.4846e-05,-3.9604,0.69834
27340,11.754,4.4545,0.1,0.00028897,2887.7,0.00028891,2885.8,-9.5169e-05,-0.00051009,-9.5684e-05,-3.8646,0.688
27341,11.846,4.3636,0.1,0.00028649,2863,0.00028642,2860.7,-9.432e-05,-0.0015878,-9.4918e-05,-4.4892,0.6979
27342,11.754,4.6364,0.1,0.00028908,2888.8,0.000289,2886.5,-9.517e-05,6.3427e-05,-9.5776e-05,-4.5566,0.68746
27343,11.846,4.5455,0.1,0.00028659,2863.9,0.0002865,2861.3,-9.4322e-05,-0.00085004,-9.4998e-05,-5.078,0.6974
27344,11.754,4.8182,0.1,0.00028919,2889.9,0.0002891,2887.3,-9.5171e-05,0.00063272,-9.5878e-05,-5.31,0.68686
27345,11.846,4.7273,0.1,0.00028669,2864.9,0.00028659,2862.1,-9.4324e-05,-0.00011327,-9.5086e-05,-5.7225,0.69684
27346,11.754,5,0.1,0.00028932,2891.2,0.00028922,2888.2,-9.5173e-05,0.0012005,-9.5988e-05,-6.1204,0.6862
27347,11.846,4.9091,0.1,0.00028681,2866.1,0.0002867,2862.9,-9.4328e-05,0.00063432,-9.5182e-05,-6.4183,0.69621
27348,11.754,5.1818,0.1,0.00028946,2892.6,0.00028934,2889.1,-9.5176e-05,0.0018082,-9.6106e-05,-6.9837,0.68548
27349,11.846,5.0909,0.1,0.00028693,2867.3,0.00028681,2863.7,-9.4332e-05,0.0013696,-9.5286e-05,-7.162,0.69553
27350,11.754,5.3636,0.1,0.00028961,2894.1,0.00028948,2890.2,-9.518e-05,0.0023269,-9.6232e-05,-7.8987,0.68469
27351,11.846,5.2727,0.1,0.00028707,2868.7,0.00028693,2864.7,-9.4338e-05,0.0022085,-9.5396e-05,-7.9506,0.69478
27352,11.754,5.5455,0.1,0.00028978,2895.8,0.00028963,2891.3,-9.5186e-05,0.003507,-9.637e-05,-8.8976,0.68384
27353,11.846,5.4545,0.1,0.00028721,2870.2,0.00028706,2865.8,-9.4345e-05,0.0026982,-9.5515e-05,-8.7862,0.69396
27354,11.754,5.7273,0.1,0.00029005,2898.5,0.00028987,2893.2,-9.5193e-05,0.0033852,-9.6602e-05,-10.582,0.68292
27355,11.846,5.6364,0.1,0.00028738,2871.9,0.00028722,2867,-9.4354e-05,0.0051567,-9.565e-05,-9.7357,0.69309
27356,11.846,5.8182,0.1,0.00028776,2875.6,0.00028755,2869.6,-9.4365e-05,0.0016709,-9.5963e-05,-12.007,0.69215
27357,11.754,5.9091,0.1,0.00028968,2894.8,0.00028955,2890.8,-9.5201e-05,0.0021253,-9.6261e-05,-7.9623,0.68195
27358,11.938,0.27273,0.1,0.00028507,2848.8,0.00028488,2843.2,-9.3525e-05,0.0040702,-9.4999e-05,-11.066,0.70238
27359,12.029,0.18182,0.1,0.00028278,2825.8,0.00028257,2819.6,-9.2703e-05,0.0013837,-9.4351e-05,-12.379,0.71171
27360,11.938,0.090909,0.1,0.00028468,2844.8,0.00028454,2840.7,-9.3538e-05,0.002429,-9.4628e-05,-8.1878,0.70142
27361,11.938,0.45455,0.1,0.00028482,2846.2,0.00028465,2841.4,-9.3513e-05,0.0044126,-9.4791e-05,-9.598,0.70328
27362,12.029,0.36364,0.1,0.00028242,2822.3,0.00028224,2817.1,-9.2687e-05,0.0065096,-9.4061e-05,-10.318,0.71263
27363,11.938,0.63636,0.1,0.00028467,2844.7,0.00028452,2840.3,-9.3503e-05,0.0026116,-9.4676e-05,-8.8152,0.70411
27364,12.029,0.54545,0.1,0.00028227,2820.8,0.00028211,2815.9,-9.2673e-05,0.003031,-9.395e-05,-9.5873,0.71349
27365,11.938,0.81818,0.1,0.00028453,2843.4,0.00028439,2839.3,-9.3494e-05,0.0018132,-9.4573e-05,-8.1067,0.70489
27366,12.029,0.72727,0.1,0.00028214,2819.5,0.00028199,2815,-9.2662e-05,0.0023555,-9.3855e-05,-8.9619,0.71429
27367,11.938,1,0.1,0.00028441,2842.1,0.00028428,2838.4,-9.3487e-05,0.00087268,-9.4477e-05,-7.4384,0.7056
27368,12.029,0.90909,0.1,0.00028202,2818.3,0.00028188,2814.1,-9.2652e-05,0.0011974,-9.3766e-05,-8.3728,0.71503
27369,11.938,1.1818,0.1,0.0002843,2841,0.00028418,2837.6,-9.3481e-05,-1.991e-06,-9.4387e-05,-6.8097,0.70626
27370,12.029,1.0909,0.1,0.00028191,2817.2,0.00028178,2813.3,-9.2643e-05,0.00021143,-9.3684e-05,-7.8159,0.71571
27371,11.938,1.3636,0.1,0.0002842,2840,0.00028409,2836.9,-9.3477e-05,-0.00086124,-9.4305e-05,-6.2234,0.70685
27372,12.029,1.2727,0.1,0.00028181,2816.2,0.00028169,2812.5,-9.2636e-05,-0.00075916,-9.3607e-05,-7.2926,0.71633
27373,11.938,1.5455,0.1,0.0002841,2839.1,0.00028401,2836.2,-9.3473e-05,-0.0016907,-9.4229e-05,-5.6827,0.70737
27374,12.029,1.4545,0.1,0.00028172,2815.3,0.0002816,2811.9,-9.2631e-05,-0.0016699,-9.3536e-05,-6.8055,0.71688
27375,11.938,1.7273,0.1,0.00028402,2838.3,0.00028393,2835.7,-9.347e-05,-0.0024911,-9.4161e-05,-5.1914,0.70784
27376,12.029,1.6364,0.1,0.00028164,2814.5,0.00028153,2811.3,-9.2626e-05,-0.0025248,-9.3472e-05,-6.3576,0.71737
27377,11.938,1.9091,0.1,0.00028395,2837.5,0.00028387,2835.2,-9.3468e-05,-0.0032555,-9.4101e-05,-4.7539,0.70824
27378,12.029,1.8182,0.1,0.00028157,2813.7,0.00028147,2810.8,-9.2623e-05,-0.0033167,-9.3415e-05,-5.953,0.71781
27379,11.938,2.0909,0.1,0.00028389,2836.9,0.00028381,2834.7,-9.3467e-05,-0.0039712,-9.4049e-05,-4.3745,0.70859
27380,12.029,2,0.1,0.00028151,2813.1,0.00028141,2810.3,-9.262e-05,-0.0040372,-9.3365e-05,-5.5956,0.71818
27381,11.938,2.2727,0.1,0.00028384,2836.4,0.00028377,2834.4,-9.3466e-05,-0.0046198,-9.4006e-05,-4.0573,0.70886
27382,12.029,2.1818,0.1,0.00028146,2812.6,0.00028136,2810,-9.2619e-05,-0.0046736,-9.3322e-05,-5.2898,0.71848
27383,11.938,2.4545,0.1,0.0002838,2836,0.00028373,2834.1,-9.3466e-05,-0.0051759,-9.3972e-05,-3.8061,0.70908
27384,12.029,2.3636,0.1,0.00028141,2812.2,0.00028133,2809.7,-9.2617e-05,-0.0052131,-9.3287e-05,-5.0395,0.71873
27385,11.938,2.6364,0.1,0.00028377,2835.8,0.00028371,2833.9,-9.3465e-05,-0.0056075,-9.3947e-05,-3.6242,0.70924
27386,12.029,2.5455,0.1,0.00028138,2811.9,0.0002813,2809.4,-9.2616e-05,-0.0056396,-9.3261e-05,-4.8484,0.71891
27387,11.938,2.8182,0.1,0.00028375,2835.6,0.00028369,2833.8,-9.3465e-05,-0.0058819,-9.3932e-05,-3.514,0.70933
27388,12.029,2.7273,0.1,0.00028136,2811.7,0.00028128,2809.3,-9.2616e-05,-0.0059351,-9.3243e-05,-4.7192,0.71904
27389,11.938,3,0.1,0.00028375,2835.5,0.00028369,2833.8,-9.3465e-05,-0.0059761,-9.3927e-05,-3.4771,0.70936
27390,12.029,2.9091,0.1,0.00028135,2811.6,0.00028127,2809.2,-9.2615e-05,-0.006086,-9.3234e-05,-4.6541,0.7191
27391,11.938,3.1818,0.1,0.00028375,2835.6,0.00028369,2833.8,-9.3465e-05,-0.0058818,-9.3932e-05,-3.514,0.70933
27392,12.029,3.0909,0.1,0.00028135,2811.6,0.00028127,2809.2,-9.2615e-05,-0.0060863,-9.3234e-05,-4.6541,0.7191
27393,11.938,3.3636,0.1,0.00028377,2835.8,0.00028371,2833.9,-9.3465e-05,-0.0056072,-9.3947e-05,-3.6242,0.70924
27394,12.029,3.2727,0.1,0.00028136,2811.7,0.00028128,2809.3,-9.2616e-05,-0.0059349,-9.3243e-05,-4.7192,0.71904
27395,11.938,3.5455,0.1,0.0002838,2836,0.00028373,2834.1,-9.3466e-05,-0.0051756,-9.3972e-05,-3.8061,0.70908
27396,12.029,3.4545,0.1,0.00028138,2811.9,0.0002813,2809.4,-9.2616e-05,-0.0056395,-9.3261e-05,-4.8484,0.71891
27397,11.938,3.7273,0.1,0.00028384,2836.4,0.00028377,2834.4,-9.3466e-05,-0.0046196,-9.4006e-05,-4.0573,0.70886
27398,12.029,3.6364,0.1,0.00028141,2812.2,0.00028133,2809.7,-9.2617e-05,-0.0052127,-9.3287e-05,-5.0395,0.71873
27399,11.938,3.9091,0.1,0.00028389,2836.9,0.00028381,2834.7,-9.3467e-05,-0.003971,-9.4049e-05,-4.3745,0.70859
27400,12.029,3.8182,0.1,0.00028146,2812.6,0.00028136,2810,-9.2619e-05,-0.0046734,-9.3322e-05,-5.2898,0.71848
27401,11.938,4.0909,0.1,0.00028395,2837.5,0.00028387,2835.2,-9.3468e-05,-0.0032549,-9.4101e-05,-4.754,0.70824
27402,12.029,4,0.1,0.00028151,2813.1,0.00028141,2810.3,-9.262e-05,-0.0040368,-9.3365e-05,-5.5957,0.71818
27403,11.938,4.2727,0.1,0.00028402,2838.3,0.00028393,2835.7,-9.347e-05,-0.0024906,-9.4161e-05,-5.1915,0.70784
27404,12.029,4.1818,0.1,0.00028157,2813.7,0.00028147,2810.8,-9.2623e-05,-0.0033162,-9.3415e-05,-5.953,0.71781
27405,11.938,4.4545,0.1,0.0002841,2839.1,0.00028401,2836.2,-9.3473e-05,-0.0016901,-9.4229e-05,-5.6827,0.70737
27406,12.029,4.3636,0.1,0.00028164,2814.5,0.00028153,2811.3,-9.2626e-05,-0.0025243,-9.3472e-05,-6.3577,0.71737
27407,11.938,4.6364,0.1,0.0002842,2840,0.00028409,2836.9,-9.3477e-05,-0.00086053,-9.4305e-05,-6.2235,0.70685
27408,12.029,4.5455,0.1,0.00028172,2815.3,0.0002816,2811.9,-9.2631e-05,-0.0016695,-9.3536e-05,-6.8055,0.71688
27409,11.938,4.8182,0.1,0.0002843,2841,0.00028418,2837.6,-9.3481e-05,-1.3908e-06,-9.4387e-05,-6.8098,0.70626
27410,12.029,4.7273,0.1,0.00028181,2816.2,0.00028169,2812.5,-9.2636e-05,-0.00075901,-9.3607e-05,-7.2927,0.71633
27411,11.938,5,0.1,0.00028441,2842.1,0.00028428,2838.4,-9.3487e-05,0.00087354,-9.4477e-05,-7.4384,0.7056
27412,12.029,4.9091,0.1,0.00028191,2817.2,0.00028178,2813.3,-9.2643e-05,0.00021195,-9.3684e-05,-7.8159,0.71571
27413,11.938,5.1818,0.1,0.00028453,2843.4,0.00028439,2839.3,-9.3494e-05,0.0018142,-9.4573e-05,-8.1068,0.70489
27414,12.029,5.0909,0.1,0.00028202,2818.3,0.00028188,2814.1,-9.2652e-05,0.0011988,-9.3766e-05,-8.3728,0.71503
27415,11.938,5.3636,0.1,0.00028467,2844.7,0.00028452,2840.3,-9.3503e-05,0.0026125,-9.4676e-05,-8.8152,0.70411
27416,12.029,5.2727,0.1,0.00028214,2819.5,0.00028199,2815,-9.2662e-05,0.0023564,-9.3855e-05,-8.962,0.71429
27417,11.938,5.5455,0.1,0.00028482,2846.2,0.00028465,2841.4,-9.3513e-05,0.0044137,-9.4791e-05,-9.598,0.70328
27418,12.029,5.4545,0.1,0.00028227,2820.8,0.00028211,2815.9,-9.2673e-05,0.0030315,-9.395e-05,-9.5873,0.71349
27419,11.938,5.7273,0.1,0.00028507,2848.8,0.00028488,2843.2,-9.3525e-05,0.0040708,-9.4999e-05,-11.066,0.70238
27420,12.029,5.6364,0.1,0.00028242,2822.3,0.00028224,2817.1,-9.2687e-05,0.0065111,-9.4061e-05,-10.318,0.71263
27421,12.029,5.8182,0.1,0.00028278,2825.8,0.00028257,2819.6,-9.2703e-05,0.0013841,-9.4351e-05,-12.379,0.71171
27422,11.938,5.9091,0.1,0.00028468,2844.8,0.00028454,2840.7,-9.3538e-05,0.0024299,-9.4628e-05,-8.1878,0.70142
27423,12.121,0.27273,0.1,0.00028011,2799.2,0.00027991,2793.4,-9.1865e-05,0.0046843,-9.3401e-05,-11.535,0.72202
27424,12.213,0.18182,0.1,0.00027782,2776.3,0.0002776,2769.9,-9.1049e-05,0.0011261,-9.2744e-05,-12.737,0.73145
27425,12.121,0.090909,0.1,0.00027969,2795,0.00027955,2790.8,-9.1882e-05,0.0026627,-9.3001e-05,-8.4041,0.72108
27426,12.121,0.45455,0.1,0.00027987,2796.8,0.0002797,2791.6,-9.1847e-05,0.0052072,-9.3216e-05,-10.281,0.72291
27427,12.213,0.36364,0.1,0.00027748,2772.9,0.00027729,2767.4,-9.1027e-05,0.0078251,-9.2477e-05,-10.886,0.73236
27428,12.121,0.63636,0.1,0.00027974,2795.5,0.00027957,2790.6,-9.1832e-05,0.002803,-9.3125e-05,-9.7109,0.72373
27429,12.213,0.54545,0.1,0.00027734,2771.5,0.00027717,2766.3,-9.1009e-05,0.0033261,-9.239e-05,-10.372,0.73321
27430,12.121,0.81818,0.1,0.00027962,2794.3,0.00027947,2789.7,-9.1819e-05,0.0017706,-9.3045e-05,-9.2056,0.7245
27431,12.213,0.72727,0.1,0.00027723,2770.4,0.00027706,2765.4,-9.0993e-05,0.0024876,-9.2318e-05,-9.9544,0.734
27432,12.121,1,0.1,0.00027952,2793.3,0.00027937,2788.9,-9.1808e-05,0.0005774,-9.297e-05,-8.7285,0.7252
27433,12.213,0.90909,0.1,0.00027713,2769.4,0.00027697,2764.6,-9.0978e-05,0.0010572,-9.2251e-05,-9.5618,0.73473
27434,12.121,1.1818,0.1,0.00027942,2792.3,0.00027928,2788.1,-9.1799e-05,-0.0004909,-9.29e-05,-8.2775,0.72584
27435,12.213,1.0909,0.1,0.00027704,2768.4,0.00027688,2763.8,-9.0966e-05,-0.00011365,-9.2189e-05,-9.1883,0.7354
27436,12.121,1.3636,0.1,0.00027933,2791.4,0.0002792,2787.5,-9.1791e-05,-0.0014985,-9.2836e-05,-7.8539,0.72642
27437,12.213,1.2727,0.1,0.00027695,2767.6,0.0002768,2763.2,-9.0956e-05,-0.0012279,-9.2132e-05,-8.834,0.736
27438,12.121,1.5455,0.1,0.00027925,2790.6,0.00027913,2786.9,-9.1784e-05,-0.0024223,-9.2777e-05,-7.4601,0.72694
27439,12.213,1.4545,0.1,0.00027687,2766.8,0.00027673,2762.6,-9.0947e-05,-0.0022298,-9.2078e-05,-8.5,0.73655
27440,12.121,1.7273,0.1,0.00027918,2789.9,0.00027906,2786.4,-9.1779e-05,-0.0032616,-9.2724e-05,-7.0992,0.7274
27441,12.213,1.6364,0.1,0.00027681,2766.1,0.00027667,2762,-9.094e-05,-0.0031271,-9.203e-05,-8.189,0.73703
27442,12.121,1.9091,0.1,0.00027912,2789.3,0.00027901,2785.9,-9.1775e-05,-0.004011,-9.2676e-05,-6.775,0.7278
27443,12.213,1.8182,0.1,0.00027675,2765.5,0.00027661,2761.6,-9.0934e-05,-0.0039174,-9.1986e-05,-7.9042,0.73746
27444,12.121,2.0909,0.1,0.00027907,2788.8,0.00027896,2785.5,-9.1772e-05,-0.0046643,-9.2635e-05,-6.4915,0.72814
27445,12.213,2,0.1,0.00027669,2765,0.00027656,2761.2,-9.093e-05,-0.0046,-9.1947e-05,-7.6495,0.73782
27446,12.121,2.2727,0.1,0.00027903,2788.3,0.00027892,2785.2,-9.1769e-05,-0.0052143,-9.2601e-05,-6.2528,0.72841
27447,12.213,2.1818,0.1,0.00027665,2764.6,0.00027652,2760.9,-9.0926e-05,-0.0051716,-9.1914e-05,-7.4291,0.73813
27448,12.121,2.4545,0.1,0.00027899,2788,0.00027889,2785,-9.1768e-05,-0.0056545,-9.2574e-05,-6.0627,0.72863
27449,12.213,2.3636,0.1,0.00027661,2764.2,0.00027649,2760.6,-9.0924e-05,-0.0056328,-9.1887e-05,-7.247,0.73837
27450,12.121,2.6364,0.1,0.00027897,2787.8,0.00027887,2784.8,-9.1767e-05,-0.0059761,-9.2554e-05,-5.9243,0.72878
27451,12.213,2.5455,0.1,0.00027659,2764,0.00027646,2760.4,-9.0922e-05,-0.0059823,-9.1867e-05,-7.1068,0.73855
27452,12.121,2.8182,0.1,0.00027895,2787.6,0.00027885,2784.7,-9.1766e-05,-0.0061718,-9.2542e-05,-5.8403,0.72887
27453,12.213,2.7273,0.1,0.00027657,2763.8,0.00027645,2760.3,-9.0921e-05,-0.0062158,-9.1853e-05,-7.0115,0.73867
27454,12.121,3,0.1,0.00027895,2787.6,0.00027885,2784.7,-9.1766e-05,-0.0062376,-9.2538e-05,-5.8121,0.7289
27455,12.213,2.9091,0.1,0.00027656,2763.7,0.00027644,2760.2,-9.092e-05,-0.0063325,-9.1846e-05,-6.9634,0.73873
27456,12.121,3.1818,0.1,0.00027895,2787.6,0.00027885,2784.7,-9.1766e-05,-0.0061719,-9.2542e-05,-5.8403,0.72887
27457,12.213,3.0909,0.1,0.00027656,2763.7,0.00027644,2760.2,-9.092e-05,-0.0063328,-9.1846e-05,-6.9634,0.73873
27458,12.121,3.3636,0.1,0.00027897,2787.8,0.00027887,2784.8,-9.1767e-05,-0.0059761,-9.2554e-05,-5.9243,0.72878
27459,12.213,3.2727,0.1,0.00027657,2763.8,0.00027645,2760.3,-9.0921e-05,-0.0062154,-9.1853e-05,-7.0115,0.73867
27460,12.121,3.5455,0.1,0.00027899,2788,0.00027889,2785,-9.1768e-05,-0.0056542,-9.2574e-05,-6.0627,0.72863
27461,12.213,3.4545,0.1,0.00027659,2764,0.00027646,2760.4,-9.0922e-05,-0.0059822,-9.1867e-05,-7.1068,0.73855
27462,12.121,3.7273,0.1,0.00027903,2788.3,0.00027892,2785.2,-9.1769e-05,-0.0052139,-9.2601e-05,-6.2528,0.72841
27463,12.213,3.6364,0.1,0.00027661,2764.2,0.00027649,2760.6,-9.0924e-05,-0.0056327,-9.1887e-05,-7.247,0.73837
27464,12.121,3.9091,0.1,0.00027907,2788.8,0.00027896,2785.5,-9.1772e-05,-0.004664,-9.2635e-05,-6.4915,0.72814
27465,12.213,3.8182,0.1,0.00027665,2764.6,0.00027652,2760.9,-9.0926e-05,-0.0051714,-9.1914e-05,-7.4291,0.73813
27466,12.121,4.0909,0.1,0.00027912,2789.3,0.00027901,2785.9,-9.1775e-05,-0.0040107,-9.2676e-05,-6.775,0.7278
27467,12.213,4,0.1,0.00027669,2765,0.00027656,2761.2,-9.093e-05,-0.0045998,-9.1947e-05,-7.6496,0.73782
27468,12.121,4.2727,0.1,0.00027918,2789.9,0.00027906,2786.4,-9.1779e-05,-0.0032611,-9.2724e-05,-7.0992,0.7274
27469,12.213,4.1818,0.1,0.00027675,2765.5,0.00027661,2761.6,-9.0934e-05,-0.0039172,-9.1986e-05,-7.9042,0.73746
27470,12.121,4.4545,0.1,0.00027925,2790.6,0.00027913,2786.9,-9.1784e-05,-0.002422,-9.2777e-05,-7.4601,0.72694
27471,12.213,4.3636,0.1,0.00027681,2766.1,0.00027667,2762,-9.094e-05,-0.0031266,-9.203e-05,-8.189,0.73703
27472,12.121,4.6364,0.1,0.00027933,2791.4,0.0002792,2787.5,-9.1791e-05,-0.0014986,-9.2836e-05,-7.8539,0.72642
27473,12.213,4.5455,0.1,0.00027687,2766.8,0.00027673,2762.6,-9.0947e-05,-0.0022293,-9.2078e-05,-8.5001,0.73655
27474,12.121,4.8182,0.1,0.00027942,2792.3,0.00027928,2788.1,-9.1799e-05,-0.00049081,-9.29e-05,-8.2775,0.72584
27475,12.213,4.7273,0.1,0.00027695,2767.6,0.0002768,2763.2,-9.0956e-05,-0.0012279,-9.2132e-05,-8.834,0.736
27476,12.121,5,0.1,0.00027952,2793.3,0.00027937,2788.9,-9.1808e-05,0.00057839,-9.297e-05,-8.7285,0.7252
27477,12.213,4.9091,0.1,0.00027704,2768.4,0.00027688,2763.8,-9.0966e-05,-0.0001132,-9.2189e-05,-9.1884,0.7354
27478,12.121,5.1818,0.1,0.00027962,2794.3,0.00027947,2789.7,-9.1819e-05,0.0017718,-9.3045e-05,-9.2056,0.7245
27479,12.213,5.0909,0.1,0.00027713,2769.4,0.00027697,2764.6,-9.0978e-05,0.0010589,-9.2251e-05,-9.5618,0.73473
27480,12.121,5.3636,0.1,0.00027974,2795.5,0.00027957,2790.6,-9.1832e-05,0.0028036,-9.3125e-05,-9.7109,0.72373
27481,12.213,5.2727,0.1,0.00027723,2770.4,0.00027706,2765.4,-9.0993e-05,0.0024885,-9.2318e-05,-9.9544,0.734
27482,12.121,5.5455,0.1,0.00027987,2796.8,0.0002797,2791.6,-9.1847e-05,0.0052082,-9.3216e-05,-10.281,0.72291
27483,12.213,5.4545,0.1,0.00027734,2771.5,0.00027717,2766.3,-9.1009e-05,0.0033264,-9.239e-05,-10.372,0.73321
27484,12.121,5.7273,0.1,0.00028011,2799.2,0.00027991,2793.4,-9.1865e-05,0.0046856,-9.3401e-05,-11.535,0.72202
27485,12.213,5.6364,0.1,0.00027748,2772.9,0.00027729,2767.4,-9.1027e-05,0.0078261,-9.2477e-05,-10.886,0.73236
27486,12.213,5.8182,0.1,0.00027782,2776.3,0.0002776,2769.9,-9.1049e-05,0.0011267,-9.2744e-05,-12.737,0.73145
27487,12.121,5.9091,0.1,0.00027969,2795,0.00027955,2790.8,-9.1882e-05,0.0026615,-9.3001e-05,-8.4041,0.72108
27488,12.305,0.27273,0.1,0.00027517,2749.8,0.00027496,2743.8,-9.0211e-05,0.0053626,-9.1807e-05,-11.991,0.74186
27489,12.397,0.18182,0.1,0.00027288,2726.9,0.00027265,2720.3,-8.94e-05,0.00095539,-9.1141e-05,-13.081,0.75139
27490,12.305,0.090909,0.1,0.00027473,2745.4,0.00027458,2741.1,-9.0233e-05,0.0029426,-9.138e-05,-8.6117,0.74093
27491,12.305,0.45455,0.1,0.00027494,2747.5,0.00027476,2742.1,-9.0188e-05,0.0060295,-9.1646e-05,-10.95,0.74273
27492,12.397,0.36364,0.1,0.00027255,2723.6,0.00027235,2717.9,-8.9373e-05,0.0091761,-9.0897e-05,-11.442,0.75228
27493,12.305,0.63636,0.1,0.00027483,2746.4,0.00027465,2741.1,-9.0169e-05,0.0030286,-9.1579e-05,-10.592,0.74354
27494,12.397,0.54545,0.1,0.00027243,2722.5,0.00027224,2716.9,-8.935e-05,0.003647,-9.0834e-05,-11.145,0.75312
27495,12.305,0.81818,0.1,0.00027473,2745.4,0.00027456,2740.3,-9.0152e-05,0.0017896,-9.1521e-05,-10.288,0.74429
27496,12.397,0.72727,0.1,0.00027234,2721.5,0.00027215,2716,-8.933e-05,0.0026583,-9.0786e-05,-10.935,0.75389
27497,12.305,1,0.1,0.00027464,2744.5,0.00027447,2739.5,-9.0136e-05,0.00038503,-9.1467e-05,-9.9995,0.74498
27498,12.397,0.90909,0.1,0.00027226,2720.7,0.00027207,2715.3,-8.9312e-05,0.00098256,-9.0741e-05,-10.738,0.75461
27499,12.305,1.1818,0.1,0.00027456,2743.7,0.0002744,2738.9,-9.0123e-05,-0.00082748,-9.1417e-05,-9.7232,0.74562
27500,12.397,1.0909,0.1,0.00027218,2719.9,0.000272,2714.6,-8.9296e-05,-0.00034007,-9.0699e-05,-10.545,0.75527
27501,12.305,1.3636,0.1,0.00027449,2743,0.00027433,2738.2,-9.0112e-05,-0.0019325,-9.1371e-05,-9.4589,0.74619
27502,12.397,1.2727,0.1,0.00027211,2719.2,0.00027193,2714,-8.9282e-05,-0.001563,-9.0661e-05,-10.357,0.75586
27503,12.305,1.5455,0.1,0.00027442,2742.3,0.00027426,2737.7,-9.0103e-05,-0.0029068,-9.1328e-05,-9.2082,0.7467
27504,12.397,1.4545,0.1,0.00027205,2718.6,0.00027187,2713.5,-8.9271e-05,-0.0026257,-9.0624e-05,-10.173,0.7564
27505,12.305,1.7273,0.1,0.00027436,2741.7,0.00027421,2737.2,-9.0095e-05,-0.0037572,-9.1289e-05,-8.9737,0.74715
27506,12.397,1.6364,0.1,0.00027199,2718,0.00027182,2713,-8.9261e-05,-0.0035464,-9.0591e-05,-9.9953,0.75688
27507,12.305,1.9091,0.1,0.00027431,2741.2,0.00027416,2736.8,-9.0089e-05,-0.0044863,-9.1254e-05,-8.7587,0.74754
27508,12.397,1.8182,0.1,0.00027194,2717.5,0.00027177,2712.6,-8.9253e-05,-0.0043302,-9.0561e-05,-9.8265,0.7573
27509,12.305,2.0909,0.1,0.00027427,2740.8,0.00027412,2736.5,-9.0084e-05,-0.0050962,-9.1224e-05,-8.5674,0.74788
27510,12.397,2,0.1,0.0002719,2717.1,0.00027173,2712.2,-8.9247e-05,-0.0049848,-9.0533e-05,-9.6707,0.75766
27511,12.305,2.2727,0.1,0.00027423,2740.4,0.00027409,2736.2,-9.0081e-05,-0.0055902,-9.1198e-05,-8.4037,0.74815
27512,12.397,2.1818,0.1,0.00027186,2716.7,0.0002717,2711.9,-8.9242e-05,-0.0055154,-9.051e-05,-9.532,0.75796
27513,12.305,2.4545,0.1,0.0002742,2740.1,0.00027406,2736,-9.0078e-05,-0.0059727,-9.1178e-05,-8.2717,0.74836
27514,12.397,2.3636,0.1,0.00027183,2716.4,0.00027167,2711.7,-8.9238e-05,-0.0059316,-9.049e-05,-9.4148,0.7582
27515,12.305,2.6364,0.1,0.00027418,2739.9,0.00027404,2735.8,-9.0076e-05,-0.0062446,-9.1163e-05,-8.1747,0.74851
27516,12.397,2.5455,0.1,0.00027181,2716.2,0.00027165,2711.5,-8.9235e-05,-0.0062394,-9.0475e-05,-9.3229,0.75838
27517,12.305,2.8182,0.1,0.00027417,2739.8,0.00027403,2735.8,-9.0075e-05,-0.0064065,-9.1154e-05,-8.1153,0.7486
27518,12.397,2.7273,0.1,0.00027179,2716.1,0.00027164,2711.4,-8.9234e-05,-0.0064409,-9.0465e-05,-9.2597,0.75849
27519,12.305,3,0.1,0.00027417,2739.8,0.00027403,2735.7,-9.0074e-05,-0.0064602,-9.1151e-05,-8.0954,0.74863
27520,12.397,2.9091,0.1,0.00027179,2716,0.00027163,2711.4,-8.9233e-05,-0.0065407,-9.046e-05,-9.2275,0.75855
27521,12.305,3.1818,0.1,0.00027417,2739.8,0.00027403,2735.8,-9.0075e-05,-0.0064062,-9.1154e-05,-8.1153,0.7486
27522,12.397,3.0909,0.1,0.00027179,2716,0.00027163,2711.4,-8.9233e-05,-0.0065407,-9.046e-05,-9.2276,0.75855
27523,12.305,3.3636,0.1,0.00027418,2739.9,0.00027404,2735.8,-9.0076e-05,-0.0062442,-9.1163e-05,-8.1747,0.74851
27524,12.397,3.2727,0.1,0.00027179,2716.1,0.00027164,2711.4,-8.9234e-05,-0.0064407,-9.0465e-05,-9.2598,0.75849
27525,12.305,3.5455,0.1,0.0002742,2740.1,0.00027406,2736,-9.0078e-05,-0.0059728,-9.1178e-05,-8.2717,0.74836
27526,12.397,3.4545,0.1,0.00027181,2716.2,0.00027165,2711.5,-8.9235e-05,-0.0062392,-9.0475e-05,-9.323,0.75838
27527,12.305,3.7273,0.1,0.00027423,2740.4,0.00027409,2736.2,-9.0081e-05,-0.0055904,-9.1198e-05,-8.4037,0.74815
27528,12.397,3.6364,0.1,0.00027183,2716.4,0.00027167,2711.7,-8.9238e-05,-0.0059315,-9.049e-05,-9.4148,0.7582
27529,12.305,3.9091,0.1,0.00027427,2740.8,0.00027412,2736.5,-9.0084e-05,-0.0050961,-9.1224e-05,-8.5674,0.74788
27530,12.397,3.8182,0.1,0.00027186,2716.7,0.0002717,2711.9,-8.9242e-05,-0.0055153,-9.051e-05,-9.532,0.75796
27531,12.305,4.0909,0.1,0.00027431,2741.2,0.00027416,2736.8,-9.0089e-05,-0.0044862,-9.1254e-05,-8.7588,0.74754
27532,12.397,4,0.1,0.0002719,2717.1,0.00027173,2712.2,-8.9247e-05,-0.0049846,-9.0533e-05,-9.6707,0.75766
27533,12.305,4.2727,0.1,0.00027436,2741.7,0.00027421,2737.2,-9.0095e-05,-0.0037569,-9.1289e-05,-8.9737,0.74715
27534,12.397,4.1818,0.1,0.00027194,2717.5,0.00027177,2712.6,-8.9253e-05,-0.00433,-9.0561e-05,-9.8266,0.7573
27535,12.305,4.4545,0.1,0.00027442,2742.3,0.00027426,2737.7,-9.0103e-05,-0.0029061,-9.1328e-05,-9.2083,0.7467
27536,12.397,4.3636,0.1,0.00027199,2718,0.00027182,2713,-8.9261e-05,-0.0035461,-9.0591e-05,-9.9954,0.75688
27537,12.305,4.6364,0.1,0.00027449,2743,0.00027433,2738.2,-9.0112e-05,-0.0019318,-9.1371e-05,-9.459,0.74619
27538,12.397,4.5455,0.1,0.00027205,2718.6,0.00027187,2713.5,-8.9271e-05,-0.0026252,-9.0624e-05,-10.173,0.7564
27539,12.305,4.8182,0.1,0.00027456,2743.7,0.0002744,2738.9,-9.0123e-05,-0.00082704,-9.1417e-05,-9.7232,0.74562
27540,12.397,4.7273,0.1,0.00027211,2719.2,0.00027193,2714,-8.9282e-05,-0.0015624,-9.0661e-05,-10.357,0.75586
27541,12.305,5,0.1,0.00027464,2744.5,0.00027447,2739.5,-9.0136e-05,0.00038617,-9.1467e-05,-9.9995,0.74498
27542,12.397,4.9091,0.1,0.00027218,2719.9,0.000272,2714.6,-8.9296e-05,-0.00033933,-9.0699e-05,-10.545,0.75527
27543,12.305,5.1818,0.1,0.00027473,2745.4,0.00027456,2740.3,-9.0152e-05,0.001791,-9.1521e-05,-10.288,0.74429
27544,12.397,5.0909,0.1,0.00027226,2720.7,0.00027207,2715.3,-8.9312e-05,0.00098401,-9.0741e-05,-10.738,0.75461
27545,12.305,5.3636,0.1,0.00027483,2746.4,0.00027465,2741.1,-9.0169e-05,0.0030293,-9.1579e-05,-10.592,0.74354
27546,12.397,5.2727,0.1,0.00027234,2721.5,0.00027215,2716,-8.933e-05,0.0026593,-9.0786e-05,-10.935,0.75389
27547,12.305,5.5455,0.1,0.00027494,2747.5,0.00027476,2742.1,-9.0188e-05,0.0060298,-9.1646e-05,-10.95,0.74273
27548,12.397,5.4545,0.1,0.00027243,2722.5,0.00027224,2716.9,-8.935e-05,0.0036472,-9.0834e-05,-11.145,0.75312
27549,12.305,5.7273,0.1,0.00027517,2749.8,0.00027496,2743.8,-9.0211e-05,0.005363,-9.1807e-05,-11.991,0.74186
27550,12.397,5.6364,0.1,0.00027255,2723.6,0.00027235,2717.9,-8.9373e-05,0.009176,-9.0897e-05,-11.442,0.75228
27551,12.397,5.8182,0.1,0.00027288,2726.9,0.00027265,2720.3,-8.94e-05,0.00095621,-9.1141e-05,-13.081,0.75139
27552,12.305,5.9091,0.1,0.00027473,2745.4,0.00027458,2741.1,-9.0233e-05,0.0029438,-9.138e-05,-8.6117,0.74093
27553,12.488,0.27273,0.1,0.00027024,2700.6,0.00027003,2694.3,-8.8563e-05,0.0061019,-9.0219e-05,-12.435,0.76188
27554,12.58,0.18182,0.1,0.00026795,2677.6,0.00026772,2670.9,-8.7758e-05,0.0008376,-8.9543e-05,-13.414,0.77151
27555,12.488,0.090909,0.1,0.00026978,2695.9,0.00026963,2691.5,-8.859e-05,0.0032664,-8.9763e-05,-8.8112,0.76096
27556,12.488,0.45455,0.1,0.00027004,2698.5,0.00026984,2692.7,-8.8535e-05,0.0068796,-9.0082e-05,-11.61,0.76273
27557,12.58,0.36364,0.1,0.00026764,2674.6,0.00026743,2668.5,-8.7726e-05,0.01054,-8.9323e-05,-11.992,0.77239
27558,12.488,0.63636,0.1,0.00026994,2697.5,0.00026974,2691.8,-8.8512e-05,0.0032807,-9.0038e-05,-11.464,0.76353
27559,12.58,0.54545,0.1,0.00026754,2673.6,0.00026734,2667.6,-8.7698e-05,0.0039604,-8.9284e-05,-11.913,0.77321
27560,12.488,0.81818,0.1,0.00026986,2696.7,0.00026966,2691,-8.849e-05,0.0018505,-9.0002e-05,-11.361,0.76427
27561,12.58,0.72727,0.1,0.00026747,2672.8,0.00026726,2666.9,-8.7673e-05,0.0028274,-8.9259e-05,-11.911,0.77397
27562,12.488,1,0.1,0.00026979,2696,0.00026959,2690.4,-8.8471e-05,0.00025788,-8.997e-05,-11.261,0.76495
27563,12.58,0.90909,0.1,0.0002674,2672.2,0.0002672,2666.2,-8.7651e-05,0.0009214,-8.9236e-05,-11.909,0.77468
27564,12.488,1.1818,0.1,0.00026972,2695.4,0.00026953,2689.8,-8.8455e-05,-0.0010735,-8.994e-05,-11.158,0.76558
27565,12.58,1.0909,0.1,0.00026734,2671.5,0.00026713,2665.6,-8.7632e-05,-0.00053375,-8.9215e-05,-11.898,0.77532
27566,12.488,1.3636,0.1,0.00026966,2694.8,0.00026947,2689.2,-8.8441e-05,-0.0022531,-8.9911e-05,-11.05,0.76614
27567,12.58,1.2727,0.1,0.00026728,2671,0.00026708,2665,-8.7615e-05,-0.0018477,-8.9195e-05,-11.874,0.77591
27568,12.488,1.5455,0.1,0.00026961,2694.2,0.00026942,2688.7,-8.8429e-05,-0.0032627,-8.9884e-05,-10.939,0.76664
27569,12.58,1.4545,0.1,0.00026724,2670.5,0.00026703,2664.6,-8.7601e-05,-0.0029584,-8.9176e-05,-11.837,0.77644
27570,12.488,1.7273,0.1,0.00026956,2693.8,0.00026938,2688.3,-8.8419e-05,-0.004119,-8.9859e-05,-10.828,0.76709
27571,12.58,1.6364,0.1,0.00026719,2670.1,0.00026699,2664.2,-8.7589e-05,-0.0038963,-8.9158e-05,-11.789,0.77691
27572,12.488,1.9091,0.1,0.00026952,2693.3,0.00026934,2688,-8.8411e-05,-0.0048322,-8.9837e-05,-10.718,0.76747
27573,12.58,1.8182,0.1,0.00026715,2669.7,0.00026695,2663.8,-8.7579e-05,-0.0046742,-8.914e-05,-11.733,0.77732
27574,12.488,2.0909,0.1,0.00026949,2693,0.0002693,2687.7,-8.8404e-05,-0.0054125,-8.9816e-05,-10.615,0.7678
27575,12.58,2,0.1,0.00026712,2669.4,0.00026692,2663.5,-8.7571e-05,-0.0053078,-8.9124e-05,-11.672,0.77768
27576,12.488,2.2727,0.1,0.00026946,2692.7,0.00026928,2687.4,-8.8399e-05,-0.0058708,-8.9799e-05,-10.523,0.76807
27577,12.58,2.1818,0.1,0.00026709,2669.1,0.00026689,2663.2,-8.7565e-05,-0.00581,-8.9109e-05,-11.612,0.77797
27578,12.488,2.4545,0.1,0.00026943,2692.5,0.00026925,2687.2,-8.8396e-05,-0.0062178,-8.9785e-05,-10.446,0.76827
27579,12.58,2.3636,0.1,0.00026707,2668.8,0.00026687,2663,-8.756e-05,-0.0061955,-8.9097e-05,-11.556,0.77821
27580,12.488,2.6364,0.1,0.00026942,2692.3,0.00026924,2687.1,-8.8393e-05,-0.0064599,-8.9775e-05,-10.388,0.76842
27581,12.58,2.5455,0.1,0.00026705,2668.7,0.00026685,2662.9,-8.7557e-05,-0.0064756,-8.9088e-05,-11.51,0.77838
27582,12.488,2.8182,0.1,0.00026941,2692.2,0.00026923,2687,-8.8392e-05,-0.0066024,-8.9769e-05,-10.352,0.76851
27583,12.58,2.7273,0.1,0.00026704,2668.5,0.00026684,2662.8,-8.7554e-05,-0.0066566,-8.9081e-05,-11.477,0.7785
27584,12.488,3,0.1,0.0002694,2692.2,0.00026923,2687,-8.8391e-05,-0.0066494,-8.9766e-05,-10.34,0.76854
27585,12.58,2.9091,0.1,0.00026703,2668.5,0.00026684,2662.7,-8.7553e-05,-0.0067456,-8.9078e-05,-11.46,0.77856
27586,12.488,3.1818,0.1,0.00026941,2692.2,0.00026923,2687,-8.8392e-05,-0.0066024,-8.9769e-05,-10.352,0.76851
27587,12.58,3.0909,0.1,0.00026703,2668.5,0.00026684,2662.7,-8.7553e-05,-0.0067455,-8.9078e-05,-11.46,0.77856
27588,12.488,3.3636,0.1,0.00026942,2692.3,0.00026924,2687.1,-8.8393e-05,-0.0064599,-8.9775e-05,-10.388,0.76842
27589,12.58,3.2727,0.1,0.00026704,2668.5,0.00026684,2662.8,-8.7554e-05,-0.0066566,-8.9081e-05,-11.477,0.7785
27590,12.488,3.5455,0.1,0.00026943,2692.5,0.00026925,2687.2,-8.8396e-05,-0.0062174,-8.9785e-05,-10.446,0.76827
27591,12.58,3.4545,0.1,0.00026705,2668.7,0.00026685,2662.9,-8.7557e-05,-0.0064753,-8.9088e-05,-11.51,0.77838
27592,12.488,3.7273,0.1,0.00026946,2692.7,0.00026928,2687.4,-8.8399e-05,-0.0058705,-8.9799e-05,-10.523,0.76807
27593,12.58,3.6364,0.1,0.00026707,2668.8,0.00026687,2663,-8.756e-05,-0.0061953,-8.9097e-05,-11.556,0.77821
27594,12.488,3.9091,0.1,0.00026949,2693,0.0002693,2687.7,-8.8404e-05,-0.0054122,-8.9816e-05,-10.615,0.7678
27595,12.58,3.8182,0.1,0.00026709,2669.1,0.00026689,2663.2,-8.7565e-05,-0.0058097,-8.9109e-05,-11.612,0.77797
27596,12.488,4.0909,0.1,0.00026952,2693.3,0.00026934,2688,-8.8411e-05,-0.0048317,-8.9837e-05,-10.718,0.76747
27597,12.58,4,0.1,0.00026712,2669.4,0.00026692,2663.5,-8.7571e-05,-0.0053074,-8.9124e-05,-11.672,0.77768
27598,12.488,4.2727,0.1,0.00026956,2693.8,0.00026938,2688.3,-8.8419e-05,-0.0041188,-8.9859e-05,-10.828,0.76709
27599,12.58,4.1818,0.1,0.00026715,2669.7,0.00026695,2663.8,-8.7579e-05,-0.0046738,-8.914e-05,-11.733,0.77732
27600,12.488,4.4545,0.1,0.00026961,2694.2,0.00026942,2688.7,-8.8429e-05,-0.0032627,-8.9884e-05,-10.939,0.76664
27601,12.58,4.3636,0.1,0.00026719,2670.1,0.00026699,2664.2,-8.7589e-05,-0.0038961,-8.9158e-05,-11.789,0.77691
27602,12.488,4.6364,0.1,0.00026966,2694.8,0.00026947,2689.2,-8.8441e-05,-0.0022527,-8.9911e-05,-11.05,0.76614
27603,12.58,4.5455,0.1,0.00026724,2670.5,0.00026703,2664.6,-8.7601e-05,-0.0029579,-8.9176e-05,-11.837,0.77644
27604,12.488,4.8182,0.1,0.00026972,2695.4,0.00026953,2689.8,-8.8455e-05,-0.0010726,-8.994e-05,-11.158,0.76558
27605,12.58,4.7273,0.1,0.00026728,2671,0.00026708,2665,-8.7615e-05,-0.0018475,-8.9195e-05,-11.874,0.77591
27606,12.488,5,0.1,0.00026979,2696,0.00026959,2690.4,-8.8471e-05,0.00025893,-8.997e-05,-11.261,0.76495
27607,12.58,4.9091,0.1,0.00026734,2671.5,0.00026713,2665.6,-8.7632e-05,-0.00053314,-8.9215e-05,-11.898,0.77532
27608,12.488,5.1818,0.1,0.00026986,2696.7,0.00026966,2691,-8.849e-05,0.0018516,-9.0002e-05,-11.362,0.76427
27609,12.58,5.0909,0.1,0.0002674,2672.2,0.0002672,2666.2,-8.7651e-05,0.00092271,-8.9236e-05,-11.909,0.77468
27610,12.488,5.3636,0.1,0.00026994,2697.5,0.00026974,2691.8,-8.8512e-05,0.0032813,-9.0038e-05,-11.464,0.76353
27611,12.58,5.2727,0.1,0.00026747,2672.8,0.00026726,2666.9,-8.7673e-05,0.0028287,-8.9259e-05,-11.911,0.77397
27612,12.488,5.5455,0.1,0.00027004,2698.5,0.00026984,2692.7,-8.8535e-05,0.0068794,-9.0082e-05,-11.61,0.76273
27613,12.58,5.4545,0.1,0.00026754,2673.6,0.00026734,2667.6,-8.7698e-05,0.0039601,-8.9284e-05,-11.913,0.77321
27614,12.488,5.7273,0.1,0.00027024,2700.6,0.00027003,2694.3,-8.8563e-05,0.0061023,-9.0219e-05,-12.435,0.76188
27615,12.58,5.6364,0.1,0.00026764,2674.6,0.00026743,2668.5,-8.7726e-05,0.01054,-8.9323e-05,-11.992,0.77239
27616,12.58,5.8182,0.1,0.00026795,2677.6,0.00026772,2670.9,-8.7758e-05,0.00083872,-8.9543e-05,-13.414,0.77151
27617,12.488,5.9091,0.1,0.00026978,2695.9,0.00026963,2691.5,-8.859e-05,0.0032678,-8.9763e-05,-8.8112,0.76096
27618,12.672,0.27273,0.1,0.00026533,2651.5,0.00026511,2645,-8.6921e-05,0.0068496,-8.8635e-05,-12.872,0.78207
27619,12.764,0.18182,0.1,0.00026304,2628.6,0.0002628,2621.7,-8.6122e-05,0.00076882,-8.795e-05,-13.737,0.7918
27620,12.672,0.090909,0.1,0.00026485,2646.6,0.00026469,2642.1,-8.6953e-05,0.0035741,-8.8152e-05,-9.0034,0.78117
27621,12.672,0.45455,0.1,0.00026514,2649.6,0.00026493,2643.5,-8.6889e-05,0.0077017,-8.8522e-05,-12.267,0.78292
27622,12.764,0.36364,0.1,0.00026275,2625.7,0.00026253,2619.4,-8.6084e-05,0.011924,-8.7754e-05,-12.537,0.79267
27623,12.672,0.63636,0.1,0.00026507,2648.8,0.00026486,2642.7,-8.686e-05,0.0034946,-8.8502e-05,-12.336,0.7837
27624,12.764,0.54545,0.1,0.00026267,2624.9,0.00026245,2618.5,-8.6052e-05,0.0042592,-8.774e-05,-12.682,0.79348
27625,12.672,0.81818,0.1,0.000265,2648.2,0.00026479,2642,-8.6835e-05,0.0018811,-8.849e-05,-12.435,0.78443
27626,12.764,0.72727,0.1,0.00026261,2624.3,0.00026239,2617.8,-8.6023e-05,0.0029848,-8.7739e-05,-12.891,0.79423
27627,12.672,1,0.1,0.00026495,2647.7,0.00026473,2641.4,-8.6812e-05,0.00011413,-8.8479e-05,-12.523,0.7851
27628,12.764,0.90909,0.1,0.00026256,2623.8,0.00026234,2617.3,-8.5997e-05,0.00085519,-8.7739e-05,-13.086,0.79492
27629,12.672,1.1818,0.1,0.0002649,2647.2,0.00026468,2640.8,-8.6792e-05,-0.0013216,-8.8468e-05,-12.592,0.78572
27630,12.764,1.0909,0.1,0.00026252,2623.4,0.00026229,2616.7,-8.5974e-05,-0.00072126,-8.7738e-05,-13.256,0.79556
27631,12.672,1.3636,0.1,0.00026486,2646.7,0.00026464,2640.4,-8.6776e-05,-0.0025652,-8.8457e-05,-12.639,0.78627
27632,12.764,1.2727,0.1,0.00026248,2623,0.00026225,2616.3,-8.5954e-05,-0.0021167,-8.7737e-05,-13.395,0.79614
27633,12.672,1.5455,0.1,0.00026482,2646.3,0.0002646,2640,-8.6761e-05,-0.0036038,-8.8446e-05,-12.666,0.78677
27634,12.764,1.4545,0.1,0.00026245,2622.6,0.00026221,2615.9,-8.5938e-05,-0.0032685,-8.7734e-05,-13.504,0.79666
27635,12.672,1.7273,0.1,0.00026478,2646,0.00026456,2639.6,-8.6749e-05,-0.0044639,-8.8435e-05,-12.674,0.7872
27636,12.764,1.6364,0.1,0.00026241,2622.3,0.00026218,2615.5,-8.5923e-05,-0.00422,-8.7731e-05,-13.584,0.79712
27637,12.672,1.9091,0.1,0.00026475,2645.7,0.00026453,2639.3,-8.6739e-05,-0.005164,-8.8425e-05,-12.666,0.78758
27638,12.764,1.8182,0.1,0.00026239,2622.1,0.00026215,2615.2,-8.5912e-05,-0.0049924,-8.7726e-05,-13.636,0.79753
27639,12.672,2.0909,0.1,0.00026472,2645.4,0.0002645,2639,-8.6732e-05,-0.0057218,-8.8414e-05,-12.648,0.78791
27640,12.764,2,0.1,0.00026236,2621.8,0.00026213,2615,-8.5902e-05,-0.0056087,-8.7721e-05,-13.667,0.79787
27641,12.672,2.2727,0.1,0.0002647,2645.2,0.00026448,2638.8,-8.6725e-05,-0.0061537,-8.8405e-05,-12.624,0.78817
27642,12.764,2.1818,0.1,0.00026234,2621.6,0.00026211,2614.7,-8.5895e-05,-0.0060881,-8.7715e-05,-13.681,0.79816
27643,12.672,2.4545,0.1,0.00026468,2645,0.00026447,2638.7,-8.6721e-05,-0.0064749,-8.8397e-05,-12.6,0.78837
27644,12.764,2.3636,0.1,0.00026233,2621.4,0.00026209,2614.6,-8.5889e-05,-0.006449,-8.771e-05,-13.684,0.79839
27645,12.672,2.6364,0.1,0.00026467,2644.9,0.00026445,2638.6,-8.6718e-05,-0.006696,-8.8391e-05,-12.579,0.78852
27646,12.764,2.5455,0.1,0.00026231,2621.3,0.00026208,2614.4,-8.5885e-05,-0.0067079,-8.7705e-05,-13.68,0.79857
27647,12.672,2.8182,0.1,0.00026466,2644.8,0.00026445,2638.5,-8.6716e-05,-0.0068249,-8.8387e-05,-12.565,0.78861
27648,12.764,2.7273,0.1,0.0002623,2621.2,0.00026207,2614.4,-8.5883e-05,-0.006873,-8.7702e-05,-13.676,0.79868
27649,12.672,3,0.1,0.00026466,2644.8,0.00026444,2638.5,-8.6715e-05,-0.0068673,-8.8386e-05,-12.56,0.78864
27650,12.764,2.9091,0.1,0.0002623,2621.2,0.00026206,2614.3,-8.5881e-05,-0.0069535,-8.77e-05,-13.672,0.79874
27651,12.672,3.1818,0.1,0.00026466,2644.8,0.00026445,2638.5,-8.6716e-05,-0.0068248,-8.8387e-05,-12.565,0.78861
27652,12.764,3.0909,0.1,0.0002623,2621.2,0.00026206,2614.3,-8.5881e-05,-0.0069535,-8.77e-05,-13.672,0.79874
27653,12.672,3.3636,0.1,0.00026467,2644.9,0.00026445,2638.6,-8.6718e-05,-0.0066958,-8.8391e-05,-12.579,0.78852
27654,12.764,3.2727,0.1,0.0002623,2621.2,0.00026207,2614.4,-8.5883e-05,-0.0068727,-8.7702e-05,-13.676,0.79868
27655,12.672,3.5455,0.1,0.00026468,2645,0.00026447,2638.7,-8.6721e-05,-0.0064748,-8.8397e-05,-12.6,0.78837
27656,12.764,3.4545,0.1,0.00026231,2621.3,0.00026208,2614.4,-8.5885e-05,-0.0067076,-8.7705e-05,-13.681,0.79857
27657,12.672,3.7273,0.1,0.0002647,2645.2,0.00026448,2638.8,-8.6725e-05,-0.0061536,-8.8405e-05,-12.624,0.78817
27658,12.764,3.6364,0.1,0.00026233,2621.4,0.00026209,2614.6,-8.5889e-05,-0.0064489,-8.771e-05,-13.684,0.79839
27659,12.672,3.9091,0.1,0.00026472,2645.4,0.0002645,2639,-8.6732e-05,-0.0057213,-8.8414e-05,-12.648,0.78791
27660,12.764,3.8182,0.1,0.00026234,2621.6,0.00026211,2614.7,-8.5895e-05,-0.0060879,-8.7715e-05,-13.681,0.79816
27661,12.672,4.0909,0.1,0.00026475,2645.7,0.00026453,2639.3,-8.6739e-05,-0.0051636,-8.8425e-05,-12.666,0.78758
27662,12.764,4,0.1,0.00026236,2621.8,0.00026213,2615,-8.5902e-05,-0.0056084,-8.7721e-05,-13.667,0.79787
27663,12.672,4.2727,0.1,0.00026478,2646,0.00026456,2639.6,-8.6749e-05,-0.0044636,-8.8435e-05,-12.674,0.7872
27664,12.764,4.1818,0.1,0.00026239,2622.1,0.00026215,2615.2,-8.5912e-05,-0.0049921,-8.7726e-05,-13.636,0.79753
27665,12.672,4.4545,0.1,0.00026482,2646.3,0.0002646,2640,-8.6761e-05,-0.0036031,-8.8446e-05,-12.666,0.78677
27666,12.764,4.3636,0.1,0.00026241,2622.3,0.00026218,2615.5,-8.5923e-05,-0.0042199,-8.7731e-05,-13.584,0.79712
27667,12.672,4.6364,0.1,0.00026486,2646.7,0.00026464,2640.4,-8.6776e-05,-0.0025649,-8.8457e-05,-12.639,0.78627
27668,12.764,4.5455,0.1,0.00026245,2622.6,0.00026221,2615.9,-8.5938e-05,-0.0032677,-8.7734e-05,-13.504,0.79666
27669,12.672,4.8182,0.1,0.0002649,2647.2,0.00026468,2640.8,-8.6792e-05,-0.0013216,-8.8468e-05,-12.592,0.78572
27670,12.764,4.7273,0.1,0.00026248,2623,0.00026225,2616.3,-8.5954e-05,-0.0021167,-8.7737e-05,-13.396,0.79614
27671,12.672,5,0.1,0.00026495,2647.7,0.00026473,2641.4,-8.6812e-05,0.00011499,-8.8479e-05,-12.523,0.7851
27672,12.764,4.9091,0.1,0.00026252,2623.4,0.00026229,2616.7,-8.5974e-05,-0.00072096,-8.7738e-05,-13.256,0.79556
27673,12.672,5.1818,0.1,0.000265,2648.2,0.00026479,2642,-8.6835e-05,0.0018825,-8.849e-05,-12.435,0.78443
27674,12.764,5.0909,0.1,0.00026256,2623.8,0.00026234,2617.3,-8.5997e-05,0.00085686,-8.7739e-05,-13.086,0.79492
27675,12.672,5.3636,0.1,0.00026507,2648.8,0.00026486,2642.7,-8.686e-05,0.0034949,-8.8502e-05,-12.336,0.7837
27676,12.764,5.2727,0.1,0.00026261,2624.3,0.00026239,2617.8,-8.6023e-05,0.0029863,-8.7739e-05,-12.891,0.79423
27677,12.672,5.5455,0.1,0.00026514,2649.6,0.00026493,2643.5,-8.6889e-05,0.0077018,-8.8522e-05,-12.267,0.78292
27678,12.764,5.4545,0.1,0.00026267,2624.9,0.00026245,2618.5,-8.6052e-05,0.0042593,-8.774e-05,-12.682,0.79348
27679,12.672,5.7273,0.1,0.00026533,2651.5,0.00026511,2645,-8.6921e-05,0.0068506,-8.8635e-05,-12.872,0.78207
27680,12.764,5.6364,0.1,0.00026275,2625.7,0.00026253,2619.4,-8.6084e-05,0.011924,-8.7754e-05,-12.537,0.79267
27681,12.764,5.8182,0.1,0.00026304,2628.6,0.0002628,2621.7,-8.6122e-05,0.00076962,-8.795e-05,-13.737,0.7918
27682,12.672,5.9091,0.1,0.00026485,2646.6,0.00026469,2642.1,-8.6953e-05,0.0035737,-8.8152e-05,-9.0034,0.78117
27683,12.856,0.27273,0.1,0.00026044,2602.6,0.00026021,2595.9,-8.5284e-05,0.0076645,-8.7056e-05,-13.303,0.80245
27684,12.948,0.18182,0.1,0.00025814,2579.7,0.0002579,2572.6,-8.449e-05,0.00073521,-8.6361e-05,-14.051,0.81227
27685,12.856,0.090909,0.1,0.00025993,2597.5,0.00025977,2592.9,-8.5322e-05,0.0039089,-8.6545e-05,-9.1888,0.80157
27686,12.856,0.45455,0.1,0.00026027,2600.9,0.00026005,2594.4,-8.5247e-05,0.008553,-8.6968e-05,-12.924,0.80328
27687,12.948,0.36364,0.1,0.00025787,2576.9,0.00025765,2570.4,-8.4448e-05,0.013327,-8.6191e-05,-13.083,0.81313
27688,12.856,0.63636,0.1,0.00026021,2600.3,0.00025998,2593.7,-8.5214e-05,0.0037177,-8.6973e-05,-13.213,0.80406
27689,12.948,0.54545,0.1,0.00025781,2576.4,0.00025758,2569.6,-8.4411e-05,0.0045266,-8.6202e-05,-13.458,0.81392
27690,12.856,0.81818,0.1,0.00026017,2599.9,0.00025994,2593.1,-8.5185e-05,0.0019248,-8.6984e-05,-13.518,0.80477
27691,12.948,0.72727,0.1,0.00025778,2576,0.00025754,2569,-8.4377e-05,0.0031098,-8.6225e-05,-13.883,0.81466
27692,12.856,1,0.1,0.00026013,2599.5,0.00025989,2592.6,-8.5159e-05,-1.0426e-05,-8.6995e-05,-13.796,0.80543
27693,12.948,0.90909,0.1,0.00025775,2575.7,0.0002575,2568.5,-8.4348e-05,0.00075816,-8.6248e-05,-14.279,0.81534
27694,12.856,1.1818,0.1,0.0002601,2599.2,0.00025986,2592.1,-8.5136e-05,-0.0015426,-8.7004e-05,-14.037,0.80603
27695,12.948,1.0909,0.1,0.00025772,2575.4,0.00025747,2568.1,-8.4322e-05,-0.00093415,-8.6269e-05,-14.631,0.81597
27696,12.856,1.3636,0.1,0.00026007,2598.9,0.00025982,2591.7,-8.5116e-05,-0.002843,-8.7011e-05,-14.239,0.80658
27697,12.948,1.2727,0.1,0.0002577,2575.2,0.00025744,2567.7,-8.4299e-05,-0.0024049,-8.6286e-05,-14.935,0.81654
27698,12.856,1.5455,0.1,0.00026004,2598.6,0.00025979,2591.4,-8.51e-05,-0.0039058,-8.7016e-05,-14.401,0.80707
27699,12.948,1.4545,0.1,0.00025768,2575,0.00025741,2567.4,-8.428e-05,-0.0035933,-8.6301e-05,-15.188,0.81705
27700,12.856,1.7273,0.1,0.00026002,2598.4,0.00025977,2591.1,-8.5086e-05,-0.0047685,-8.7019e-05,-14.525,0.8075
27701,12.948,1.6364,0.1,0.00025766,2574.8,0.00025739,2567.1,-8.4264e-05,-0.0045558,-8.6312e-05,-15.392,0.81751
27702,12.856,1.9091,0.1,0.00026,2598.2,0.00025975,2590.8,-8.5075e-05,-0.0054569,-8.7019e-05,-14.616,0.80787
27703,12.948,1.8182,0.1,0.00025764,2574.6,0.00025737,2566.8,-8.4251e-05,-0.0053221,-8.632e-05,-15.55,0.81791
27704,12.856,2.0909,0.1,0.00025998,2598,0.00025973,2590.6,-8.5066e-05,-0.0059953,-8.7019e-05,-14.679,0.80819
27705,12.948,2,0.1,0.00025763,2574.5,0.00025736,2566.6,-8.424e-05,-0.0059218,-8.6325e-05,-15.668,0.81825
27706,12.856,2.2727,0.1,0.00025996,2597.9,0.00025971,2590.5,-8.5059e-05,-0.0064046,-8.7017e-05,-14.72,0.80845
27707,12.948,2.1818,0.1,0.00025761,2574.4,0.00025734,2566.5,-8.4232e-05,-0.0063797,-8.6328e-05,-15.753,0.81853
27708,12.856,2.4545,0.1,0.00025995,2597.7,0.0002597,2590.3,-8.5053e-05,-0.0067042,-8.7015e-05,-14.744,0.80865
27709,12.948,2.3636,0.1,0.0002576,2574.3,0.00025733,2566.3,-8.4226e-05,-0.0067188,-8.6329e-05,-15.81,0.81876
27710,12.856,2.6364,0.1,0.00025994,2597.6,0.00025969,2590.2,-8.505e-05,-0.0069079,-8.7013e-05,-14.758,0.80879
27711,12.948,2.5455,0.1,0.0002576,2574.2,0.00025732,2566.2,-8.4221e-05,-0.0069584,-8.6329e-05,-15.847,0.81893
27712,12.856,2.8182,0.1,0.00025994,2597.6,0.00025968,2590.2,-8.5048e-05,-0.0070251,-8.7012e-05,-14.764,0.80888
27713,12.948,2.7273,0.1,0.00025759,2574.1,0.00025732,2566.1,-8.4218e-05,-0.0071091,-8.6329e-05,-15.868,0.81905
27714,12.856,3,0.1,0.00025994,2597.6,0.00025968,2590.2,-8.5047e-05,-0.0070635,-8.7011e-05,-14.765,0.80891
27715,12.948,2.9091,0.1,0.00025759,2574.1,0.00025731,2566.1,-8.4217e-05,-0.0071821,-8.6329e-05,-15.878,0.8191
27716,12.856,3.1818,0.1,0.00025994,2597.6,0.00025968,2590.2,-8.5048e-05,-0.007025,-8.7012e-05,-14.764,0.80888
27717,12.948,3.0909,0.1,0.00025759,2574.1,0.00025731,2566.1,-8.4217e-05,-0.0071823,-8.6329e-05,-15.878,0.8191
27718,12.856,3.3636,0.1,0.00025994,2597.6,0.00025969,2590.2,-8.505e-05,-0.0069075,-8.7013e-05,-14.758,0.80879
27719,12.948,3.2727,0.1,0.00025759,2574.1,0.00025732,2566.1,-8.4218e-05,-0.0071091,-8.6329e-05,-15.868,0.81905
27720,12.856,3.5455,0.1,0.00025995,2597.7,0.0002597,2590.3,-8.5053e-05,-0.0067038,-8.7015e-05,-14.744,0.80865
27721,12.948,3.4545,0.1,0.0002576,2574.2,0.00025732,2566.2,-8.4221e-05,-0.0069582,-8.6329e-05,-15.847,0.81893
27722,12.856,3.7273,0.1,0.00025996,2597.9,0.00025971,2590.5,-8.5059e-05,-0.0064043,-8.7017e-05,-14.72,0.80845
27723,12.948,3.6364,0.1,0.0002576,2574.3,0.00025733,2566.3,-8.4226e-05,-0.0067183,-8.6329e-05,-15.81,0.81876
27724,12.856,3.9091,0.1,0.00025998,2598,0.00025973,2590.6,-8.5066e-05,-0.0059953,-8.7019e-05,-14.679,0.80819
27725,12.948,3.8182,0.1,0.00025761,2574.4,0.00025734,2566.5,-8.4232e-05,-0.0063796,-8.6328e-05,-15.753,0.81853
27726,12.856,4.0909,0.1,0.00026,2598.2,0.00025975,2590.8,-8.5075e-05,-0.0054567,-8.7019e-05,-14.616,0.80787
27727,12.948,4,0.1,0.00025763,2574.5,0.00025736,2566.6,-8.424e-05,-0.0059217,-8.6325e-05,-15.668,0.81825
27728,12.856,4.2727,0.1,0.00026002,2598.4,0.00025977,2591.1,-8.5086e-05,-0.0047683,-8.7019e-05,-14.525,0.8075
27729,12.948,4.1818,0.1,0.00025764,2574.6,0.00025737,2566.8,-8.4251e-05,-0.0053218,-8.632e-05,-15.55,0.81791
27730,12.856,4.4545,0.1,0.00026004,2598.6,0.00025979,2591.4,-8.51e-05,-0.0039055,-8.7016e-05,-14.401,0.80707
27731,12.948,4.3636,0.1,0.00025766,2574.8,0.00025739,2567.1,-8.4264e-05,-0.0045557,-8.6312e-05,-15.392,0.81751
27732,12.856,4.6364,0.1,0.00026007,2598.9,0.00025982,2591.7,-8.5116e-05,-0.0028426,-8.7011e-05,-14.239,0.80658
27733,12.948,4.5455,0.1,0.00025768,2575,0.00025741,2567.4,-8.428e-05,-0.0035925,-8.6301e-05,-15.188,0.81705
27734,12.856,4.8182,0.1,0.0002601,2599.2,0.00025986,2592.1,-8.5136e-05,-0.0015422,-8.7004e-05,-14.037,0.80603
27735,12.948,4.7273,0.1,0.0002577,2575.2,0.00025744,2567.7,-8.4299e-05,-0.0024048,-8.6286e-05,-14.935,0.81654
27736,12.856,5,0.1,0.00026013,2599.5,0.00025989,2592.6,-8.5159e-05,-9.3104e-06,-8.6995e-05,-13.796,0.80543
27737,12.948,4.9091,0.1,0.00025772,2575.4,0.00025747,2568.1,-8.4322e-05,-0.00093383,-8.6269e-05,-14.631,0.81597
27738,12.856,5.1818,0.1,0.00026017,2599.9,0.00025994,2593.1,-8.5185e-05,0.0019265,-8.6984e-05,-13.518,0.80477
27739,12.948,5.0909,0.1,0.00025775,2575.7,0.0002575,2568.5,-8.4348e-05,0.00075947,-8.6248e-05,-14.279,0.81534
27740,12.856,5.3636,0.1,0.00026021,2600.3,0.00025998,2593.7,-8.5214e-05,0.0037189,-8.6973e-05,-13.213,0.80406
27741,12.948,5.2727,0.1,0.00025778,2576,0.00025754,2569,-8.4377e-05,0.0031115,-8.6225e-05,-13.883,0.81466
27742,12.856,5.5455,0.1,0.00026027,2600.9,0.00026005,2594.4,-8.5247e-05,0.0085534,-8.6968e-05,-12.924,0.80328
27743,12.948,5.4545,0.1,0.00025781,2576.4,0.00025758,2569.6,-8.4411e-05,0.0045273,-8.6202e-05,-13.458,0.81392
27744,12.856,5.7273,0.1,0.00026044,2602.6,0.00026021,2595.9,-8.5284e-05,0.0076648,-8.7056e-05,-13.303,0.80245
27745,12.948,5.6364,0.1,0.00025787,2576.9,0.00025765,2570.4,-8.4448e-05,0.013327,-8.6191e-05,-13.083,0.81313
27746,12.948,5.8182,0.1,0.00025814,2579.7,0.0002579,2572.6,-8.449e-05,0.00073591,-8.6361e-05,-14.051,0.81227
27747,12.856,5.9091,0.1,0.00025993,2597.5,0.00025977,2592.9,-8.5322e-05,0.0039097,-8.6545e-05,-9.1888,0.80157
27748,13.039,0.27273,0.1,0.00025556,2553.8,0.00025532,2547,-8.3653e-05,0.0084729,-8.5482e-05,-13.731,0.823
27749,13.131,0.18182,0.1,0.00025326,2530.9,0.00025302,2523.7,-8.2864e-05,0.00075015,-8.4775e-05,-14.358,0.83292
27750,13.039,0.090909,0.1,0.00025503,2548.5,0.00025487,2543.9,-8.3695e-05,0.0041932,-8.4943e-05,-9.3682,0.82213
27751,13.039,0.45455,0.1,0.00025541,2552.3,0.00025518,2545.5,-8.3611e-05,0.0093567,-8.5421e-05,-13.588,0.82382
27752,13.131,0.36364,0.1,0.00025301,2528.4,0.00025278,2521.5,-8.2816e-05,0.01477,-8.4632e-05,-13.635,0.83376
27753,13.039,0.63636,0.1,0.00025537,2552,0.00025513,2544.9,-8.3574e-05,0.0038653,-8.5451e-05,-14.104,0.82458
27754,13.131,0.54545,0.1,0.00025297,2528,0.00025273,2520.8,-8.2774e-05,0.0047704,-8.4671e-05,-14.248,0.83454
27755,13.039,0.81818,0.1,0.00025535,2551.7,0.0002551,2544.4,-8.354e-05,0.0018918,-8.5486e-05,-14.62,0.82529
27756,13.131,0.72727,0.1,0.00025296,2527.8,0.0002527,2520.3,-8.2736e-05,0.0032061,-8.472e-05,-14.897,0.83527
27757,13.039,1,0.1,0.00025533,2551.5,0.00025507,2544,-8.351e-05,-0.00020947,-8.5519e-05,-15.091,0.82594
27758,13.131,0.90909,0.1,0.00025295,2527.7,0.00025268,2519.9,-8.2703e-05,0.00062866,-8.4766e-05,-15.498,0.83594
27759,13.039,1.1818,0.1,0.00025531,2551.4,0.00025505,2543.6,-8.3485e-05,-0.0018335,-8.5548e-05,-15.506,0.82653
27760,13.131,1.0909,0.1,0.00025294,2527.6,0.00025266,2519.6,-8.2674e-05,-0.0011761,-8.4808e-05,-16.036,0.83655
27761,13.039,1.3636,0.1,0.0002553,2551.3,0.00025503,2543.3,-8.3463e-05,-0.0031867,-8.5573e-05,-15.861,0.82707
27762,13.131,1.2727,0.1,0.00025293,2527.6,0.00025265,2519.3,-8.2649e-05,-0.0027185,-8.4845e-05,-16.504,0.83711
27763,13.039,1.5455,0.1,0.00025529,2551.1,0.00025501,2543,-8.3444e-05,-0.0042708,-8.5594e-05,-16.157,0.82755
27764,13.131,1.4545,0.1,0.00025293,2527.5,0.00025264,2519,-8.2628e-05,-0.0039396,-8.4877e-05,-16.9,0.83762
27765,13.039,1.7273,0.1,0.00025528,2551,0.000255,2542.8,-8.3429e-05,-0.0051343,-8.561e-05,-16.395,0.82797
27766,13.131,1.6364,0.1,0.00025292,2527.5,0.00025263,2518.8,-8.261e-05,-0.0049107,-8.4902e-05,-17.227,0.83807
27767,13.039,1.9091,0.1,0.00025527,2550.9,0.00025498,2542.6,-8.3416e-05,-0.0058101,-8.5622e-05,-16.581,0.82834
27768,13.131,1.8182,0.1,0.00025292,2527.4,0.00025262,2518.6,-8.2596e-05,-0.0056686,-8.4923e-05,-17.487,0.83846
27769,13.039,2.0909,0.1,0.00025526,2550.8,0.00025497,2542.4,-8.3406e-05,-0.0063285,-8.5631e-05,-16.721,0.82865
27770,13.131,2,0.1,0.00025291,2527.4,0.00025261,2518.5,-8.2584e-05,-0.0062504,-8.4938e-05,-17.689,0.8388
27771,13.039,2.2727,0.1,0.00025525,2550.7,0.00025496,2542.3,-8.3399e-05,-0.006716,-8.5637e-05,-16.823,0.8289
27772,13.131,2.1818,0.1,0.00025291,2527.3,0.0002526,2518.4,-8.2575e-05,-0.0066856,-8.4949e-05,-17.84,0.83908
27773,13.039,2.4545,0.1,0.00025524,2550.7,0.00025495,2542.2,-8.3393e-05,-0.0069951,-8.564e-05,-16.892,0.8291
27774,13.131,2.3636,0.1,0.0002529,2527.3,0.00025259,2518.3,-8.2569e-05,-0.0070029,-8.4956e-05,-17.948,0.8393
27775,13.039,2.6364,0.1,0.00025524,2550.6,0.00025495,2542.1,-8.3389e-05,-0.0071818,-8.5642e-05,-16.937,0.82924
27776,13.131,2.5455,0.1,0.0002529,2527.3,0.00025259,2518.2,-8.2564e-05,-0.0072224,-8.4961e-05,-18.021,0.83947
27777,13.039,2.8182,0.1,0.00025524,2550.6,0.00025494,2542.1,-8.3387e-05,-0.0072884,-8.5643e-05,-16.962,0.82933
27778,13.131,2.7273,0.1,0.0002529,2527.2,0.00025259,2518.2,-8.2561e-05,-0.0073593,-8.4964e-05,-18.066,0.83958
27779,13.039,3,0.1,0.00025523,2550.6,0.00025494,2542.1,-8.3386e-05,-0.0073232,-8.5644e-05,-16.97,0.82936
27780,13.131,2.9091,0.1,0.0002529,2527.2,0.00025258,2518.1,-8.2559e-05,-0.0074248,-8.4965e-05,-18.087,0.83964
27781,13.039,3.1818,0.1,0.00025524,2550.6,0.00025494,2542.1,-8.3387e-05,-0.0072886,-8.5643e-05,-16.962,0.82933
27782,13.131,3.0909,0.1,0.0002529,2527.2,0.00025258,2518.1,-8.2559e-05,-0.0074249,-8.4965e-05,-18.087,0.83964
27783,13.039,3.3636,0.1,0.00025524,2550.6,0.00025495,2542.1,-8.3389e-05,-0.0071819,-8.5642e-05,-16.937,0.82924
27784,13.131,3.2727,0.1,0.0002529,2527.2,0.00025259,2518.2,-8.2561e-05,-0.0073594,-8.4964e-05,-18.066,0.83958
27785,13.039,3.5455,0.1,0.00025524,2550.7,0.00025495,2542.2,-8.3393e-05,-0.0069947,-8.564e-05,-16.892,0.8291
27786,13.131,3.4545,0.1,0.0002529,2527.3,0.00025259,2518.2,-8.2564e-05,-0.0072226,-8.4961e-05,-18.021,0.83947
27787,13.039,3.7273,0.1,0.00025525,2550.7,0.00025496,2542.3,-8.3399e-05,-0.0067156,-8.5637e-05,-16.823,0.8289
27788,13.131,3.6364,0.1,0.0002529,2527.3,0.00025259,2518.3,-8.2569e-05,-0.0070022,-8.4956e-05,-17.948,0.8393
27789,13.039,3.9091,0.1,0.00025526,2550.8,0.00025497,2542.4,-8.3406e-05,-0.0063284,-8.5631e-05,-16.721,0.82865
27790,13.131,3.8182,0.1,0.00025291,2527.3,0.0002526,2518.4,-8.2575e-05,-0.006686,-8.4949e-05,-17.84,0.83908
27791,13.039,4.0909,0.1,0.00025527,2550.9,0.00025498,2542.6,-8.3416e-05,-0.00581,-8.5622e-05,-16.581,0.82834
27792,13.131,4,0.1,0.00025291,2527.4,0.00025261,2518.5,-8.2584e-05,-0.00625,-8.4938e-05,-17.689,0.8388
27793,13.039,4.2727,0.1,0.00025528,2551,0.000255,2542.8,-8.3429e-05,-0.005134,-8.561e-05,-16.395,0.82797
27794,13.131,4.1818,0.1,0.00025292,2527.4,0.00025262,2518.6,-8.2596e-05,-0.0056683,-8.4923e-05,-17.487,0.83846
27795,13.039,4.4545,0.1,0.00025529,2551.1,0.00025501,2543,-8.3444e-05,-0.0042702,-8.5594e-05,-16.157,0.82755
27796,13.131,4.3636,0.1,0.00025292,2527.5,0.00025263,2518.8,-8.261e-05,-0.0049102,-8.4902e-05,-17.227,0.83807
27797,13.039,4.6364,0.1,0.0002553,2551.3,0.00025503,2543.3,-8.3463e-05,-0.0031863,-8.5573e-05,-15.861,0.82707
27798,13.131,4.5455,0.1,0.00025293,2527.5,0.00025264,2519,-8.2628e-05,-0.003939,-8.4877e-05,-16.901,0.83762
27799,13.039,4.8182,0.1,0.00025531,2551.4,0.00025505,2543.6,-8.3485e-05,-0.0018334,-8.5548e-05,-15.506,0.82653
27800,13.131,4.7273,0.1,0.00025293,2527.6,0.00025265,2519.3,-8.2649e-05,-0.0027183,-8.4845e-05,-16.504,0.83711
27801,13.039,5,0.1,0.00025533,2551.5,0.00025507,2544,-8.351e-05,-0.00020897,-8.5519e-05,-15.091,0.82594
27802,13.131,4.9091,0.1,0.00025294,2527.6,0.00025266,2519.6,-8.2674e-05,-0.0011756,-8.4808e-05,-16.036,0.83655
27803,13.039,5.1818,0.1,0.00025535,2551.7,0.0002551,2544.4,-8.354e-05,0.001893,-8.5486e-05,-14.62,0.82529
27804,13.131,5.0909,0.1,0.00025295,2527.7,0.00025268,2519.9,-8.2703e-05,0.00062972,-8.4766e-05,-15.498,0.83594
27805,13.039,5.3636,0.1,0.00025537,2552,0.00025513,2544.9,-8.3574e-05,0.0038665,-8.5451e-05,-14.104,0.82458
27806,13.131,5.2727,0.1,0.00025296,2527.8,0.0002527,2520.3,-8.2736e-05,0.0032073,-8.472e-05,-14.897,0.83527
27807,13.039,5.5455,0.1,0.00025541,2552.3,0.00025518,2545.5,-8.3611e-05,0.0093572,-8.5421e-05,-13.589,0.82382
27808,13.131,5.4545,0.1,0.00025297,2528,0.00025273,2520.8,-8.2774e-05,0.0047711,-8.4671e-05,-14.248,0.83454
27809,13.039,5.7273,0.1,0.00025556,2553.8,0.00025532,2547,-8.3653e-05,0.0084734,-8.5482e-05,-13.731,0.823
27810,13.131,5.6364,0.1,0.00025301,2528.4,0.00025278,2521.5,-8.2816e-05,0.01477,-8.4632e-05,-13.635,0.83376
27811,13.131,5.8182,0.1,0.00025326,2530.9,0.00025302,2523.7,-8.2864e-05,0.00075055,-8.4775e-05,-14.358,0.83292
27812,13.039,5.9091,0.1,0.00025503,2548.5,0.00025487,2543.9,-8.3695e-05,0.0041934,-8.4943e-05,-9.3682,0.82213
27813,13.223,0.27273,0.1,0.0002507,2505.2,0.00025045,2498.1,-8.2027e-05,0.0093863,-8.3912e-05,-14.16,0.84373
27814,13.315,0.18182,0.1,0.00024839,2482.2,0.00024814,2474.9,-8.1243e-05,0.00087107,-8.3194e-05,-14.658,0.85373
27815,13.223,0.090909,0.1,0.00025014,2499.7,0.00024998,2494.9,-8.2074e-05,0.0045183,-8.3345e-05,-9.5419,0.84287
27816,13.223,0.45455,0.1,0.00025057,2504,0.00025032,2496.8,-8.1979e-05,0.01022,-8.3879e-05,-14.265,0.84453
27817,13.315,0.36364,0.1,0.00024816,2479.9,0.00024792,2472.8,-8.1188e-05,0.01632,-8.308e-05,-14.196,0.85456
27818,13.223,0.63636,0.1,0.00025055,2503.8,0.00025029,2496.3,-8.1937e-05,0.0040335,-8.3936e-05,-15.016,0.84528
27819,13.315,0.54545,0.1,0.00024815,2479.8,0.00024789,2472.2,-8.1142e-05,0.0050374,-8.3147e-05,-15.06,0.85533
27820,13.223,0.81818,0.1,0.00025055,2503.8,0.00025028,2495.9,-8.19e-05,0.0018735,-8.3996e-05,-15.751,0.84597
27821,13.315,0.72727,0.1,0.00024816,2479.8,0.00024788,2471.8,-8.11e-05,0.0033174,-8.3222e-05,-15.942,0.85604
27822,13.223,1,0.1,0.00025055,2503.8,0.00025027,2495.5,-8.1867e-05,-0.00039509,-8.4052e-05,-16.42,0.84661
27823,13.315,0.90909,0.1,0.00024817,2479.9,0.00024788,2471.5,-8.1063e-05,0.00050829,-8.3293e-05,-16.756,0.8567
27824,13.223,1.1818,0.1,0.00025055,2503.8,0.00025026,2495.2,-8.1838e-05,-0.0021078,-8.4102e-05,-17.011,0.84719
27825,13.315,1.0909,0.1,0.00024818,2480.1,0.00024788,2471.3,-8.1031e-05,-0.0014082,-8.3358e-05,-17.484,0.85731
27826,13.223,1.3636,0.1,0.00025056,2503.8,0.00025025,2495,-8.1814e-05,-0.0035099,-8.4146e-05,-17.521,0.84772
27827,13.315,1.2727,0.1,0.00024819,2480.2,0.00024788,2471.1,-8.1004e-05,-0.0030197,-8.3415e-05,-18.118,0.85786
27828,13.223,1.5455,0.1,0.00025056,2503.9,0.00025025,2494.8,-8.1794e-05,-0.0046119,-8.4182e-05,-17.949,0.84819
27829,13.315,1.4545,0.1,0.0002482,2480.3,0.00024788,2470.9,-8.0981e-05,-0.0042695,-8.3463e-05,-18.657,0.85835
27830,13.223,1.7273,0.1,0.00025056,2503.9,0.00025024,2494.7,-8.1777e-05,-0.0054732,-8.4212e-05,-18.298,0.84861
27831,13.315,1.6364,0.1,0.00024821,2480.4,0.00024788,2470.8,-8.0962e-05,-0.0052457,-8.3504e-05,-19.103,0.8588
27832,13.223,1.9091,0.1,0.00025056,2503.9,0.00025024,2494.5,-8.1764e-05,-0.0061341,-8.4235e-05,-18.574,0.84897
27833,13.315,1.8182,0.1,0.00024822,2480.5,0.00024788,2470.7,-8.0947e-05,-0.0059916,-8.3536e-05,-19.463,0.85918
27834,13.223,2.0909,0.1,0.00025056,2503.9,0.00025024,2494.4,-8.1753e-05,-0.0066309,-8.4253e-05,-18.787,0.84928
27835,13.315,2,0.1,0.00024822,2480.5,0.00024788,2470.6,-8.0935e-05,-0.0065527,-8.3561e-05,-19.743,0.85951
27836,13.223,2.2727,0.1,0.00025056,2503.9,0.00025023,2494.3,-8.1745e-05,-0.0069947,-8.4266e-05,-18.945,0.84953
27837,13.315,2.1818,0.1,0.00024823,2480.6,0.00024788,2470.5,-8.0925e-05,-0.0069626,-8.358e-05,-19.955,0.85979
27838,13.223,2.4545,0.1,0.00025056,2503.9,0.00025023,2494.3,-8.1739e-05,-0.0072517,-8.4275e-05,-19.056,0.84973
27839,13.315,2.3636,0.1,0.00024823,2480.6,0.00024788,2470.5,-8.0918e-05,-0.0072552,-8.3594e-05,-20.109,0.86001
27840,13.223,2.6364,0.1,0.00025056,2503.9,0.00025023,2494.2,-8.1735e-05,-0.0074211,-8.428e-05,-19.129,0.84986
27841,13.315,2.5455,0.1,0.00024823,2480.6,0.00024788,2470.4,-8.0914e-05,-0.0074534,-8.3603e-05,-20.215,0.86018
27842,13.223,2.8182,0.1,0.00025056,2503.8,0.00025023,2494.2,-8.1733e-05,-0.0075167,-8.4284e-05,-19.171,0.84995
27843,13.315,2.7273,0.1,0.00024823,2480.6,0.00024788,2470.4,-8.091e-05,-0.0075748,-8.3609e-05,-20.28,0.86029
27844,13.223,3,0.1,0.00025056,2503.8,0.00025022,2494.2,-8.1732e-05,-0.0075475,-8.4285e-05,-19.184,0.84998
27845,13.315,2.9091,0.1,0.00024823,2480.6,0.00024788,2470.4,-8.0909e-05,-0.0076323,-8.3611e-05,-20.311,0.86034
27846,13.223,3.1818,0.1,0.00025056,2503.8,0.00025023,2494.2,-8.1733e-05,-0.0075167,-8.4284e-05,-19.171,0.84995
27847,13.315,3.0909,0.1,0.00024823,2480.6,0.00024788,2470.4,-8.0909e-05,-0.0076322,-8.3611e-05,-20.311,0.86034
27848,13.223,3.3636,0.1,0.00025056,2503.9,0.00025023,2494.2,-8.1735e-05,-0.0074213,-8.428e-05,-19.129,0.84986
27849,13.315,3.2727,0.1,0.00024823,2480.6,0.00024788,2470.4,-8.091e-05,-0.0075753,-8.3609e-05,-20.28,0.86029
27850,13.223,3.5455,0.1,0.00025056,2503.9,0.00025023,2494.3,-8.1739e-05,-0.0072516,-8.4275e-05,-19.056,0.84973
27851,13.315,3.4545,0.1,0.00024823,2480.6,0.00024788,2470.4,-8.0914e-05,-0.0074534,-8.3603e-05,-20.215,0.86018
27852,13.223,3.7273,0.1,0.00025056,2503.9,0.00025023,2494.3,-8.1745e-05,-0.0069948,-8.4266e-05,-18.945,0.84953
27853,13.315,3.6364,0.1,0.00024823,2480.6,0.00024788,2470.5,-8.0918e-05,-0.0072547,-8.3594e-05,-20.109,0.86001
27854,13.223,3.9091,0.1,0.00025056,2503.9,0.00025024,2494.4,-8.1753e-05,-0.006631,-8.4253e-05,-18.787,0.84928
27855,13.315,3.8182,0.1,0.00024823,2480.6,0.00024788,2470.5,-8.0925e-05,-0.0069633,-8.358e-05,-19.955,0.85979
27856,13.223,4.0909,0.1,0.00025056,2503.9,0.00025024,2494.5,-8.1764e-05,-0.0061336,-8.4235e-05,-18.574,0.84897
27857,13.315,4,0.1,0.00024822,2480.5,0.00024788,2470.6,-8.0935e-05,-0.0065521,-8.3561e-05,-19.743,0.85951
27858,13.223,4.2727,0.1,0.00025056,2503.9,0.00025024,2494.7,-8.1777e-05,-0.0054728,-8.4212e-05,-18.298,0.84861
27859,13.315,4.1818,0.1,0.00024822,2480.5,0.00024788,2470.7,-8.0947e-05,-0.0059915,-8.3536e-05,-19.463,0.85918
27860,13.223,4.4545,0.1,0.00025056,2503.9,0.00025025,2494.8,-8.1794e-05,-0.0046115,-8.4182e-05,-17.949,0.84819
27861,13.315,4.3636,0.1,0.00024821,2480.4,0.00024788,2470.8,-8.0962e-05,-0.0052453,-8.3504e-05,-19.103,0.8588
27862,13.223,4.6364,0.1,0.00025056,2503.8,0.00025025,2495,-8.1814e-05,-0.0035096,-8.4146e-05,-17.521,0.84772
27863,13.315,4.5455,0.1,0.0002482,2480.3,0.00024788,2470.9,-8.0981e-05,-0.0042691,-8.3463e-05,-18.657,0.85835
27864,13.223,4.8182,0.1,0.00025055,2503.8,0.00025026,2495.2,-8.1838e-05,-0.0021072,-8.4102e-05,-17.011,0.84719
27865,13.315,4.7273,0.1,0.00024819,2480.2,0.00024788,2471.1,-8.1004e-05,-0.0030194,-8.3415e-05,-18.118,0.85786
27866,13.223,5,0.1,0.00025055,2503.8,0.00025027,2495.5,-8.1867e-05,-0.00039404,-8.4052e-05,-16.42,0.84661
27867,13.315,4.9091,0.1,0.00024818,2480.1,0.00024788,2471.3,-8.1031e-05,-0.0014075,-8.3358e-05,-17.484,0.85731
27868,13.223,5.1818,0.1,0.00025055,2503.8,0.00025028,2495.9,-8.19e-05,0.0018745,-8.3996e-05,-15.751,0.84597
27869,13.315,5.0909,0.1,0.00024817,2479.9,0.00024788,2471.5,-8.1063e-05,0.00050928,-8.3293e-05,-16.756,0.8567
27870,13.223,5.3636,0.1,0.00025055,2503.8,0.00025029,2496.3,-8.1937e-05,0.0040342,-8.3936e-05,-15.016,0.84528
27871,13.315,5.2727,0.1,0.00024816,2479.8,0.00024788,2471.8,-8.11e-05,0.0033183,-8.3222e-05,-15.942,0.85604
27872,13.223,5.5455,0.1,0.00025057,2504,0.00025032,2496.8,-8.1979e-05,0.01022,-8.3879e-05,-14.265,0.84453
27873,13.315,5.4545,0.1,0.00024815,2479.8,0.00024789,2472.2,-8.1142e-05,0.005038,-8.3147e-05,-15.06,0.85533
27874,13.223,5.7273,0.1,0.0002507,2505.2,0.00025045,2498.1,-8.2027e-05,0.0093863,-8.3912e-05,-14.16,0.84373
27875,13.315,5.6364,0.1,0.00024816,2479.9,0.00024792,2472.8,-8.1188e-05,0.01632,-8.308e-05,-14.196,0.85456
27876,13.315,5.8182,0.1,0.00024839,2482.2,0.00024814,2474.9,-8.1243e-05,0.00087079,-8.3194e-05,-14.658,0.85373
27877,13.223,5.9091,0.1,0.00025014,2499.7,0.00024998,2494.9,-8.2074e-05,0.0045186,-8.3345e-05,-9.5419,0.84287
27878,13.407,0.27273,0.1,0.00024585,2456.8,0.00024559,2449.4,-8.0404e-05,0.010418,-8.2348e-05,-14.592,0.86462
27879,13.499,0.18182,0.1,0.00024354,2433.7,0.00024328,2426.2,-7.9625e-05,0.001063,-8.1615e-05,-14.954,0.87471
27880,13.407,0.090909,0.1,0.00024527,2451,0.0002451,2446.1,-8.0457e-05,0.0048843,-8.175e-05,-9.7106,0.86378
27881,13.407,0.45455,0.1,0.00024574,2455.7,0.00024548,2448.2,-8.0351e-05,0.011147,-8.2344e-05,-14.961,0.86541
27882,13.499,0.36364,0.1,0.00024333,2431.6,0.00024308,2424.2,-7.9565e-05,0.017947,-8.1533e-05,-14.773,0.87552
27883,13.407,0.63636,0.1,0.00024575,2455.8,0.00024547,2447.8,-8.0305e-05,0.0042163,-8.243e-05,-15.961,0.86614
27884,13.499,0.54545,0.1,0.00024334,2431.7,0.00024307,2423.7,-7.9513e-05,0.0052749,-8.1631e-05,-15.903,0.87628
27885,13.407,0.81818,0.1,0.00024577,2456,0.00024548,2447.5,-8.0263e-05,0.0018637,-8.2516e-05,-16.923,0.86683
27886,13.499,0.72727,0.1,0.00024337,2432,0.00024308,2423.5,-7.9467e-05,0.0033893,-8.1734e-05,-17.03,0.87698
27887,13.407,1,0.1,0.00024579,2456.2,0.00024548,2447.2,-8.0227e-05,-0.00057512,-8.2596e-05,-17.796,0.86745
27888,13.499,0.90909,0.1,0.0002434,2432.4,0.00024309,2423.3,-7.9427e-05,0.00033964,-8.1831e-05,-18.065,0.87763
27889,13.407,1.1818,0.1,0.00024581,2456.4,0.00024549,2447.1,-8.0196e-05,-0.0023759,-8.2667e-05,-18.567,0.86803
27890,13.499,1.0909,0.1,0.00024344,2432.7,0.00024311,2423.1,-7.9392e-05,-0.0016893,-8.1919e-05,-18.989,0.87823
27891,13.407,1.3636,0.1,0.00024583,2456.6,0.0002455,2446.9,-8.017e-05,-0.003824,-8.2729e-05,-19.232,0.86855
27892,13.499,1.2727,0.1,0.00024347,2433,0.00024313,2423,-7.9363e-05,-0.003368,-8.1996e-05,-19.792,0.87877
27893,13.407,1.5455,0.1,0.00024585,2456.8,0.00024551,2446.9,-8.0149e-05,-0.0049398,-8.2782e-05,-19.79,0.86901
27894,13.499,1.4545,0.1,0.0002435,2433.3,0.00024314,2423,-7.9338e-05,-0.0046431,-8.2063e-05,-20.474,0.87926
27895,13.407,1.7273,0.1,0.00024587,2457,0.00024552,2446.8,-8.0131e-05,-0.0057948,-8.2825e-05,-20.247,0.86942
27896,13.499,1.6364,0.1,0.00024352,2433.5,0.00024316,2423,-7.9319e-05,-0.0056193,-8.2118e-05,-21.037,0.87969
27897,13.407,1.9091,0.1,0.00024588,2457.1,0.00024552,2446.7,-8.0117e-05,-0.0064368,-8.286e-05,-20.61,0.86978
27898,13.499,1.8182,0.1,0.00024354,2433.7,0.00024317,2422.9,-7.9303e-05,-0.0063483,-8.2162e-05,-21.49,0.88007
27899,13.407,2.0909,0.1,0.00024589,2457.2,0.00024553,2446.7,-8.0107e-05,-0.0069083,-8.2886e-05,-20.89,0.87008
27900,13.499,2,0.1,0.00024356,2433.9,0.00024318,2422.9,-7.9291e-05,-0.0068839,-8.2197e-05,-21.844,0.8804
27901,13.407,2.2727,0.1,0.00024589,2457.2,0.00024553,2446.6,-8.0098e-05,-0.0072451,-8.2906e-05,-21.099,0.87033
27902,13.499,2.1818,0.1,0.00024357,2434,0.00024319,2422.9,-7.9281e-05,-0.0072643,-8.2223e-05,-22.112,0.88067
27903,13.407,2.4545,0.1,0.0002459,2457.3,0.00024553,2446.6,-8.0093e-05,-0.0074777,-8.2919e-05,-21.247,0.87052
27904,13.499,2.3636,0.1,0.00024358,2434.1,0.00024319,2422.9,-7.9275e-05,-0.0075282,-8.2243e-05,-22.306,0.88089
27905,13.407,2.6364,0.1,0.0002459,2457.3,0.00024553,2446.6,-8.0089e-05,-0.0076273,-8.2929e-05,-21.345,0.87065
27906,13.499,2.5455,0.1,0.00024359,2434.2,0.0002432,2422.9,-7.927e-05,-0.0077023,-8.2256e-05,-22.44,0.88105
27907,13.407,2.8182,0.1,0.0002459,2457.3,0.00024553,2446.6,-8.0086e-05,-0.00771,-8.2934e-05,-21.401,0.87074
27908,13.499,2.7273,0.1,0.00024359,2434.2,0.0002432,2422.9,-7.9267e-05,-0.0078062,-8.2264e-05,-22.522,0.88116
27909,13.407,3,0.1,0.0002459,2457.3,0.00024553,2446.6,-8.0086e-05,-0.0077365,-8.2935e-05,-21.418,0.87076
27910,13.499,2.9091,0.1,0.00024359,2434.2,0.0002432,2422.9,-7.9266e-05,-0.0078543,-8.2268e-05,-22.561,0.88121
27911,13.407,3.1818,0.1,0.0002459,2457.3,0.00024553,2446.6,-8.0086e-05,-0.0077104,-8.2934e-05,-21.401,0.87074
27912,13.499,3.0909,0.1,0.00024359,2434.2,0.0002432,2422.9,-7.9266e-05,-0.0078542,-8.2268e-05,-22.562,0.88121
27913,13.407,3.3636,0.1,0.0002459,2457.3,0.00024553,2446.6,-8.0089e-05,-0.0076275,-8.2929e-05,-21.345,0.87065
27914,13.499,3.2727,0.1,0.00024359,2434.2,0.0002432,2422.9,-7.9267e-05,-0.0078065,-8.2264e-05,-22.522,0.88116
27915,13.407,3.5455,0.1,0.0002459,2457.3,0.00024553,2446.6,-8.0093e-05,-0.0074773,-8.2919e-05,-21.247,0.87052
27916,13.499,3.4545,0.1,0.00024359,2434.2,0.0002432,2422.9,-7.927e-05,-0.0077019,-8.2256e-05,-22.44,0.88105
27917,13.407,3.7273,0.1,0.00024589,2457.2,0.00024553,2446.6,-8.0098e-05,-0.0072452,-8.2906e-05,-21.099,0.87033
27918,13.499,3.6364,0.1,0.00024358,2434.1,0.00024319,2422.9,-7.9275e-05,-0.0075281,-8.2243e-05,-22.306,0.88089
27919,13.407,3.9091,0.1,0.00024589,2457.2,0.00024553,2446.7,-8.0107e-05,-0.0069081,-8.2886e-05,-20.891,0.87008
27920,13.499,3.8182,0.1,0.00024357,2434,0.00024319,2422.9,-7.9281e-05,-0.0072643,-8.2223e-05,-22.112,0.88067
27921,13.407,4.0909,0.1,0.00024588,2457.1,0.00024552,2446.7,-8.0117e-05,-0.0064365,-8.286e-05,-20.61,0.86978
27922,13.499,4,0.1,0.00024356,2433.9,0.00024318,2422.9,-7.9291e-05,-0.0068834,-8.2197e-05,-21.844,0.8804
27923,13.407,4.2727,0.1,0.00024587,2457,0.00024552,2446.8,-8.0131e-05,-0.0057946,-8.2825e-05,-20.247,0.86942
27924,13.499,4.1818,0.1,0.00024354,2433.7,0.00024317,2422.9,-7.9303e-05,-0.0063485,-8.2162e-05,-21.49,0.88007
27925,13.407,4.4545,0.1,0.00024585,2456.8,0.00024551,2446.9,-8.0149e-05,-0.0049393,-8.2782e-05,-19.79,0.86901
27926,13.499,4.3636,0.1,0.00024352,2433.5,0.00024316,2423,-7.9319e-05,-0.0056189,-8.2118e-05,-21.037,0.87969
27927,13.407,4.6364,0.1,0.00024583,2456.6,0.0002455,2446.9,-8.017e-05,-0.0038236,-8.273e-05,-19.232,0.86855
27928,13.499,4.5455,0.1,0.0002435,2433.3,0.00024314,2423,-7.9338e-05,-0.0046427,-8.2063e-05,-20.474,0.87926
27929,13.407,4.8182,0.1,0.00024581,2456.4,0.00024549,2447.1,-8.0196e-05,-0.0023754,-8.2667e-05,-18.567,0.86803
27930,13.499,4.7273,0.1,0.00024347,2433,0.00024313,2423.1,-7.9363e-05,-0.0033677,-8.1996e-05,-19.792,0.87877
27931,13.407,5,0.1,0.00024579,2456.2,0.00024548,2447.2,-8.0227e-05,-0.00057446,-8.2596e-05,-17.796,0.86745
27932,13.499,4.9091,0.1,0.00024344,2432.7,0.00024311,2423.1,-7.9392e-05,-0.0016887,-8.1919e-05,-18.989,0.87823
27933,13.407,5.1818,0.1,0.00024577,2456,0.00024548,2447.5,-8.0263e-05,0.0018646,-8.2516e-05,-16.923,0.86683
27934,13.499,5.0909,0.1,0.0002434,2432.4,0.00024309,2423.3,-7.9427e-05,0.00034057,-8.1831e-05,-18.065,0.87763
27935,13.407,5.3636,0.1,0.00024575,2455.8,0.00024547,2447.8,-8.0305e-05,0.0042171,-8.243e-05,-15.961,0.86614
27936,13.499,5.2727,0.1,0.00024337,2432,0.00024308,2423.5,-7.9467e-05,0.0033906,-8.1734e-05,-17.03,0.87698
27937,13.407,5.5455,0.1,0.00024574,2455.7,0.00024548,2448.2,-8.0351e-05,0.011147,-8.2344e-05,-14.962,0.86541
27938,13.499,5.4545,0.1,0.00024334,2431.7,0.00024307,2423.7,-7.9513e-05,0.0052759,-8.1631e-05,-15.903,0.87628
27939,13.407,5.7273,0.1,0.00024585,2456.8,0.00024559,2449.4,-8.0404e-05,0.010418,-8.2348e-05,-14.592,0.86462
27940,13.499,5.6364,0.1,0.00024333,2431.6,0.00024308,2424.2,-7.9565e-05,0.017947,-8.1533e-05,-14.773,0.87552
27941,13.499,5.8182,0.1,0.00024354,2433.7,0.00024328,2426.2,-7.9625e-05,0.001063,-8.1615e-05,-14.954,0.87471
27942,13.407,5.9091,0.1,0.00024527,2451,0.0002451,2446.1,-8.0457e-05,0.004885,-8.175e-05,-9.7106,0.86378
27943,13.59,0.27273,0.1,0.00024101,2408.4,0.00024075,2400.8,-7.8785e-05,0.011491,-8.0787e-05,-15.031,0.88567
27944,13.682,0.18182,0.1,0.00023869,2385.2,0.00023842,2377.6,-7.801e-05,0.001336,-8.004e-05,-15.246,0.89586
27945,13.59,0.090909,0.1,0.00024041,2402.4,0.00024024,2397.5,-7.8844e-05,0.0051989,-8.0159e-05,-9.875,0.88485
27946,13.59,0.45455,0.1,0.00024093,2407.6,0.00024066,2399.7,-7.8727e-05,0.012049,-8.0816e-05,-15.685,0.88645
27947,13.682,0.36364,0.1,0.00023851,2383.4,0.00023824,2375.7,-7.7944e-05,0.019662,-7.9992e-05,-15.371,0.89665
27948,13.59,0.63636,0.1,0.00024096,2407.9,0.00024067,2399.4,-7.8675e-05,0.004312,-8.0932e-05,-16.947,0.88717
27949,13.682,0.54545,0.1,0.00023855,2383.8,0.00023826,2375.4,-7.7887e-05,0.0054719,-8.0122e-05,-16.787,0.8974
27950,13.59,0.81818,0.1,0.000241,2408.4,0.00024069,2399.2,-7.863e-05,0.0017564,-8.1046e-05,-18.148,0.88784
27951,13.682,0.72727,0.1,0.0002386,2384.4,0.00023829,2375.2,-7.7837e-05,0.0034075,-8.0256e-05,-18.174,0.89809
27952,13.59,1,0.1,0.00024105,2408.8,0.00024071,2399.1,-7.8591e-05,-0.00085806,-8.1151e-05,-19.234,0.88846
27953,13.682,0.90909,0.1,0.00023866,2385,0.00023832,2375.2,-7.7793e-05,0.00010316,-8.0381e-05,-19.441,0.89873
27954,13.59,1.1818,0.1,0.00024109,2409.2,0.00024074,2399.1,-7.8558e-05,-0.0027457,-8.1245e-05,-20.19,0.88903
27955,13.682,1.0909,0.1,0.00023872,2385.5,0.00023836,2375.2,-7.7756e-05,-0.0020386,-8.0493e-05,-20.567,0.89931
27956,13.59,1.3636,0.1,0.00024113,2409.6,0.00024077,2399.1,-7.8531e-05,-0.0042372,-8.1326e-05,-21.011,0.88954
27957,13.682,1.2727,0.1,0.00023877,2386.1,0.0002384,2375.2,-7.7725e-05,-0.0037825,-8.0592e-05,-21.543,0.89985
27958,13.59,1.5455,0.1,0.00024117,2410,0.00024079,2399.1,-7.8508e-05,-0.0053624,-8.1395e-05,-21.699,0.88999
27959,13.682,1.4545,0.1,0.00023882,2386.5,0.00023843,2375.3,-7.77e-05,-0.0050789,-8.0676e-05,-22.367,0.90033
27960,13.59,1.7273,0.1,0.0002412,2410.3,0.00024081,2399.1,-7.849e-05,-0.0062054,-8.1452e-05,-22.259,0.8904
27961,13.682,1.6364,0.1,0.00023886,2386.9,0.00023846,2375.3,-7.768e-05,-0.0060492,-8.0746e-05,-23.044,0.90075
27962,13.59,1.9091,0.1,0.00024122,2410.5,0.00024083,2399.1,-7.8476e-05,-0.0068228,-8.1497e-05,-22.704,0.89075
27963,13.682,1.8182,0.1,0.00023889,2387.3,0.00023848,2375.4,-7.7664e-05,-0.0067555,-8.0802e-05,-23.587,0.90113
27964,13.59,2.0909,0.1,0.00024124,2410.7,0.00024084,2399.1,-7.8466e-05,-0.0072637,-8.1532e-05,-23.045,0.89104
27965,13.682,2,0.1,0.00023892,2387.6,0.0002385,2375.5,-7.7652e-05,-0.0072585,-8.0846e-05,-24.008,0.90145
27966,13.59,2.2727,0.1,0.00024125,2410.9,0.00024085,2399.1,-7.8458e-05,-0.0075688,-8.1558e-05,-23.299,0.89129
27967,13.682,2.1818,0.1,0.00023894,2387.8,0.00023852,2375.5,-7.7644e-05,-0.007604,-8.088e-05,-24.324,0.90172
27968,13.59,2.4545,0.1,0.00024127,2411,0.00024086,2399.2,-7.8452e-05,-0.0077726,-8.1576e-05,-23.478,0.89148
27969,13.682,2.3636,0.1,0.00023896,2387.9,0.00023853,2375.6,-7.7638e-05,-0.0078339,-8.0904e-05,-24.551,0.90193
27970,13.59,2.6364,0.1,0.00024127,2411.1,0.00024086,2399.2,-7.8449e-05,-0.0079001,-8.1588e-05,-23.596,0.89161
27971,13.682,2.5455,0.1,0.00023897,2388,0.00023854,2375.6,-7.7634e-05,-0.0079797,-8.0921e-05,-24.707,0.90209
27972,13.59,2.8182,0.1,0.00024128,2411.1,0.00024086,2399.2,-7.8447e-05,-0.0079687,-8.1595e-05,-23.663,0.89169
27973,13.682,2.7273,0.1,0.00023898,2388.1,0.00023855,2375.6,-7.7631e-05,-0.0080631,-8.0931e-05,-24.802,0.9022
27974,13.59,3,0.1,0.00024128,2411.1,0.00024087,2399.2,-7.8446e-05,-0.0079902,-8.1597e-05,-23.684,0.89172
27975,13.682,2.9091,0.1,0.00023898,2388.2,0.00023855,2375.6,-7.763e-05,-0.0081006,-8.0936e-05,-24.848,0.90225
27976,13.59,3.1818,0.1,0.00024128,2411.1,0.00024086,2399.2,-7.8447e-05,-0.0079686,-8.1595e-05,-23.663,0.89169
27977,13.682,3.0909,0.1,0.00023898,2388.2,0.00023855,2375.6,-7.763e-05,-0.0081007,-8.0936e-05,-24.848,0.90225
27978,13.59,3.3636,0.1,0.00024127,2411.1,0.00024086,2399.2,-7.8449e-05,-0.0078997,-8.1588e-05,-23.596,0.89161
27979,13.682,3.2727,0.1,0.00023898,2388.1,0.00023855,2375.6,-7.7631e-05,-0.008063,-8.0931e-05,-24.802,0.9022
27980,13.59,3.5455,0.1,0.00024127,2411,0.00024086,2399.2,-7.8452e-05,-0.0077725,-8.1576e-05,-23.478,0.89148
27981,13.682,3.4545,0.1,0.00023897,2388,0.00023854,2375.6,-7.7634e-05,-0.0079796,-8.0921e-05,-24.707,0.90209
27982,13.59,3.7273,0.1,0.00024125,2410.9,0.00024085,2399.1,-7.8458e-05,-0.0075687,-8.1558e-05,-23.299,0.89129
27983,13.682,3.6364,0.1,0.00023896,2387.9,0.00023853,2375.6,-7.7638e-05,-0.0078338,-8.0904e-05,-24.551,0.90193
27984,13.59,3.9091,0.1,0.00024124,2410.7,0.00024084,2399.1,-7.8466e-05,-0.0072634,-8.1532e-05,-23.045,0.89104
27985,13.682,3.8182,0.1,0.00023894,2387.8,0.00023852,2375.5,-7.7644e-05,-0.007604,-8.088e-05,-24.324,0.90172
27986,13.59,4.0909,0.1,0.00024122,2410.5,0.00024083,2399.1,-7.8476e-05,-0.0068227,-8.1497e-05,-22.704,0.89075
27987,13.682,4,0.1,0.00023892,2387.6,0.0002385,2375.5,-7.7652e-05,-0.0072583,-8.0846e-05,-24.008,0.90145
27988,13.59,4.2727,0.1,0.0002412,2410.3,0.00024081,2399.1,-7.849e-05,-0.0062053,-8.1452e-05,-22.259,0.8904
27989,13.682,4.1818,0.1,0.00023889,2387.3,0.00023848,2375.4,-7.7664e-05,-0.0067554,-8.0802e-05,-23.587,0.90113
27990,13.59,4.4545,0.1,0.00024117,2410,0.00024079,2399.1,-7.8508e-05,-0.0053621,-8.1395e-05,-21.699,0.88999
27991,13.682,4.3636,0.1,0.00023886,2386.9,0.00023846,2375.3,-7.768e-05,-0.0060491,-8.0746e-05,-23.044,0.90075
27992,13.59,4.6364,0.1,0.00024113,2409.6,0.00024077,2399.1,-7.8531e-05,-0.004237,-8.1326e-05,-21.011,0.88954
27993,13.682,4.5455,0.1,0.00023882,2386.5,0.00023843,2375.3,-7.77e-05,-0.0050782,-8.0676e-05,-22.367,0.90033
27994,13.59,4.8182,0.1,0.00024109,2409.2,0.00024074,2399.1,-7.8558e-05,-0.0027453,-8.1245e-05,-20.19,0.88903
27995,13.682,4.7273,0.1,0.00023877,2386.1,0.0002384,2375.2,-7.7725e-05,-0.003782,-8.0592e-05,-21.543,0.89985
27996,13.59,5,0.1,0.00024105,2408.8,0.00024072,2399.1,-7.8591e-05,-0.0008572,-8.1151e-05,-19.234,0.88846
27997,13.682,4.9091,0.1,0.00023872,2385.5,0.00023836,2375.2,-7.7756e-05,-0.0020384,-8.0493e-05,-20.567,0.89931
27998,13.59,5.1818,0.1,0.000241,2408.4,0.00024069,2399.2,-7.863e-05,0.0017578,-8.1046e-05,-18.148,0.88784
27999,13.682,5.0909,0.1,0.00023866,2385,0.00023832,2375.2,-7.7793e-05,0.00010412,-8.0381e-05,-19.441,0.89873
28000,13.59,5.3636,0.1,0.00024096,2407.9,0.00024067,2399.4,-7.8675e-05,0.0043135,-8.0932e-05,-16.947,0.88717
28001,13.682,5.2727,0.1,0.0002386,2384.4,0.00023829,2375.2,-7.7837e-05,0.003409,-8.0256e-05,-18.174,0.89809
28002,13.59,5.5455,0.1,0.00024093,2407.6,0.00024066,2399.7,-7.8727e-05,0.01205,-8.0816e-05,-15.685,0.88645
28003,13.682,5.4545,0.1,0.00023855,2383.8,0.00023826,2375.4,-7.7887e-05,0.0054727,-8.0122e-05,-16.787,0.8974
28004,13.59,5.7273,0.1,0.00024101,2408.4,0.00024075,2400.8,-7.8785e-05,0.011491,-8.0787e-05,-15.032,0.88567
28005,13.682,5.6364,0.1,0.00023851,2383.4,0.00023824,2375.7,-7.7944e-05,0.019662,-7.9992e-05,-15.371,0.89665
28006,13.682,5.8182,0.1,0.00023869,2385.2,0.00023842,2377.6,-7.801e-05,0.0013362,-8.004e-05,-15.246,0.89586
28007,13.59,5.9091,0.1,0.00024041,2402.4,0.00024024,2397.5,-7.8844e-05,0.0051987,-8.0159e-05,-9.875,0.88485
28008,13.774,0.27273,0.1,0.00023618,2360.1,0.00023591,2352.3,-7.7169e-05,0.012706,-7.9231e-05,-15.482,0.90689
28009,13.866,0.18182,0.1,0.00023385,2336.8,0.00023358,2329,-7.6398e-05,0.0017325,-7.8466e-05,-15.538,0.91716
28010,13.774,0.090909,0.1,0.00023555,2353.9,0.00023538,2348.9,-7.7234e-05,0.0055349,-7.857e-05,-10.035,0.90608
28011,13.774,0.45455,0.1,0.00023613,2359.6,0.00023584,2351.4,-7.7104e-05,0.013015,-7.9294e-05,-16.443,0.90765
28012,13.866,0.36364,0.1,0.0002337,2335.4,0.00023342,2327.3,-7.6325e-05,0.021507,-7.8457e-05,-15.998,0.91794
28013,13.774,0.63636,0.1,0.00023619,2360.2,0.00023588,2351.2,-7.7048e-05,0.0043965,-7.9443e-05,-17.987,0.90837
28014,13.866,0.54545,0.1,0.00023377,2336,0.00023346,2327.1,-7.6263e-05,0.0056416,-7.8622e-05,-17.721,0.91867
28015,13.774,0.81818,0.1,0.00023626,2360.9,0.00023592,2351.2,-7.6999e-05,0.0016236,-7.9587e-05,-19.442,0.90902
28016,13.866,0.72727,0.1,0.00023385,2336.9,0.00023351,2327.1,-7.6208e-05,0.003383,-7.8789e-05,-19.387,0.91935
28017,13.774,1,0.1,0.00023633,2361.6,0.00023597,2351.2,-7.6958e-05,-0.0011745,-7.9719e-05,-20.75,0.90963
28018,13.866,0.90909,0.1,0.00023394,2337.7,0.00023357,2327.2,-7.6161e-05,-0.00019218,-7.8943e-05,-20.9,0.91998
28019,13.774,1.1818,0.1,0.00023639,2362.3,0.00023601,2351.3,-7.6923e-05,-0.0031481,-7.9837e-05,-21.896,0.91019
28020,13.866,1.0909,0.1,0.00023402,2338.6,0.00023363,2327.4,-7.6122e-05,-0.0024489,-7.9081e-05,-22.237,0.92056
28021,13.774,1.3636,0.1,0.00023645,2362.9,0.00023606,2351.4,-7.6894e-05,-0.0046793,-7.9938e-05,-22.876,0.91069
28022,13.866,1.2727,0.1,0.00023409,2339.3,0.00023369,2327.5,-7.609e-05,-0.0042559,-7.9202e-05,-23.389,0.92108
28023,13.774,1.5455,0.1,0.00023651,2363.4,0.00023609,2351.5,-7.6871e-05,-0.0058083,-8.0023e-05,-23.69,0.91114
28024,13.866,1.4545,0.1,0.00023416,2340,0.00023374,2327.7,-7.6064e-05,-0.0055673,-7.9305e-05,-24.354,0.92155
28025,13.774,1.7273,0.1,0.00023655,2363.9,0.00023613,2351.6,-7.6854e-05,-0.0066331,-8.0093e-05,-24.35,0.91154
28026,13.866,1.6364,0.1,0.00023422,2340.6,0.00023378,2327.9,-7.6045e-05,-0.0065259,-7.939e-05,-25.143,0.92197
28027,13.774,1.9091,0.1,0.00023659,2364.3,0.00023616,2351.7,-7.684e-05,-0.0072188,-8.0149e-05,-24.87,0.91188
28028,13.866,1.8182,0.1,0.00023427,2341.1,0.00023382,2328.1,-7.603e-05,-0.0072015,-7.9458e-05,-25.768,0.92234
28029,13.774,2.0909,0.1,0.00023662,2364.6,0.00023618,2351.8,-7.683e-05,-0.0076221,-8.0192e-05,-25.265,0.91217
28030,13.866,2,0.1,0.00023431,2341.5,0.00023385,2328.3,-7.6019e-05,-0.0076644,-7.9512e-05,-26.248,0.92266
28031,13.774,2.2727,0.1,0.00023664,2364.8,0.0002362,2351.9,-7.6824e-05,-0.0078895,-8.0224e-05,-25.556,0.91241
28032,13.866,2.1818,0.1,0.00023434,2341.8,0.00023388,2328.4,-7.6012e-05,-0.0079674,-7.9552e-05,-26.604,0.92292
28033,13.774,2.4545,0.1,0.00023666,2365,0.00023621,2352,-7.6819e-05,-0.0080595,-8.0246e-05,-25.76,0.9126
28034,13.866,2.3636,0.1,0.00023437,2342,0.0002339,2328.5,-7.6007e-05,-0.008157,-7.9581e-05,-26.857,0.92313
28035,13.774,2.6364,0.1,0.00023667,2365.1,0.00023622,2352,-7.6816e-05,-0.0081601,-8.0261e-05,-25.893,0.91273
28036,13.866,2.5455,0.1,0.00023438,2342.2,0.00023391,2328.6,-7.6004e-05,-0.0082691,-7.96e-05,-27.027,0.92329
28037,13.774,2.8182,0.1,0.00023668,2365.1,0.00023623,2352.1,-7.6815e-05,-0.0082118,-8.027e-05,-25.967,0.91281
28038,13.866,2.7273,0.1,0.00023439,2342.3,0.00023392,2328.6,-7.6003e-05,-0.0083284,-7.9612e-05,-27.131,0.92339
28039,13.774,3,0.1,0.00023668,2365.2,0.00023623,2352.1,-7.6814e-05,-0.0082277,-8.0272e-05,-25.991,0.91284
28040,13.866,2.9091,0.1,0.0002344,2342.4,0.00023392,2328.7,-7.6002e-05,-0.0083534,-7.9618e-05,-27.18,0.92345
28041,13.774,3.1818,0.1,0.00023668,2365.1,0.00023623,2352.1,-7.6815e-05,-0.0082118,-8.027e-05,-25.967,0.91281
28042,13.866,3.0909,0.1,0.0002344,2342.4,0.00023392,2328.7,-7.6002e-05,-0.0083533,-7.9618e-05,-27.18,0.92345
28043,13.774,3.3636,0.1,0.00023667,2365.1,0.00023622,2352,-7.6816e-05,-0.0081602,-8.0261e-05,-25.893,0.91273
28044,13.866,3.2727,0.1,0.00023439,2342.3,0.00023392,2328.6,-7.6003e-05,-0.0083283,-7.9612e-05,-27.131,0.92339
28045,13.774,3.5455,0.1,0.00023666,2365,0.00023621,2352,-7.6819e-05,-0.0080595,-8.0246e-05,-25.76,0.9126
28046,13.866,3.4545,0.1,0.00023438,2342.2,0.00023391,2328.6,-7.6004e-05,-0.0082692,-7.96e-05,-27.027,0.92329
28047,13.774,3.7273,0.1,0.00023664,2364.8,0.0002362,2351.9,-7.6824e-05,-0.0078896,-8.0224e-05,-25.556,0.91241
28048,13.866,3.6364,0.1,0.00023437,2342,0.0002339,2328.5,-7.6007e-05,-0.0081568,-7.9581e-05,-26.857,0.92313
28049,13.774,3.9091,0.1,0.00023662,2364.6,0.00023618,2351.8,-7.683e-05,-0.0076222,-8.0192e-05,-25.265,0.91217
28050,13.866,3.8182,0.1,0.00023434,2341.8,0.00023388,2328.4,-7.6012e-05,-0.0079671,-7.9552e-05,-26.604,0.92292
28051,13.774,4.0909,0.1,0.00023659,2364.3,0.00023616,2351.7,-7.684e-05,-0.0072185,-8.0149e-05,-24.87,0.91188
28052,13.866,4,0.1,0.00023431,2341.5,0.00023385,2328.3,-7.6019e-05,-0.0076641,-7.9512e-05,-26.248,0.92266
28053,13.774,4.2727,0.1,0.00023655,2363.9,0.00023613,2351.6,-7.6854e-05,-0.0066329,-8.0093e-05,-24.35,0.91154
28054,13.866,4.1818,0.1,0.00023427,2341.1,0.00023382,2328.1,-7.603e-05,-0.007201,-7.9458e-05,-25.768,0.92234
28055,13.774,4.4545,0.1,0.00023651,2363.4,0.00023609,2351.5,-7.6871e-05,-0.0058077,-8.0023e-05,-23.69,0.91114
28056,13.866,4.3636,0.1,0.00023422,2340.6,0.00023378,2327.9,-7.6045e-05,-0.0065257,-7.939e-05,-25.143,0.92197
28057,13.774,4.6364,0.1,0.00023645,2362.9,0.00023606,2351.4,-7.6894e-05,-0.0046783,-7.9938e-05,-22.876,0.91069
28058,13.866,4.5455,0.1,0.00023416,2340,0.00023374,2327.7,-7.6064e-05,-0.0055671,-7.9305e-05,-24.355,0.92155
28059,13.774,4.8182,0.1,0.00023639,2362.3,0.00023601,2351.3,-7.6923e-05,-0.0031477,-7.9837e-05,-21.897,0.91019
28060,13.866,4.7273,0.1,0.00023409,2339.3,0.00023369,2327.5,-7.609e-05,-0.0042553,-7.9202e-05,-23.389,0.92108
28061,13.774,5,0.1,0.00023633,2361.6,0.00023597,2351.2,-7.6958e-05,-0.0011742,-7.9719e-05,-20.75,0.90963
28062,13.866,4.9091,0.1,0.00023402,2338.6,0.00023363,2327.4,-7.6122e-05,-0.0024488,-7.9081e-05,-22.237,0.92056
28063,13.774,5.1818,0.1,0.00023626,2360.9,0.00023592,2351.2,-7.6999e-05,0.0016247,-7.9587e-05,-19.442,0.90902
28064,13.866,5.0909,0.1,0.00023394,2337.7,0.00023357,2327.2,-7.6161e-05,-0.00019114,-7.8943e-05,-20.9,0.91998
28065,13.774,5.3636,0.1,0.00023619,2360.2,0.00023588,2351.2,-7.7048e-05,0.0043973,-7.9443e-05,-17.987,0.90837
28066,13.866,5.2727,0.1,0.00023385,2336.9,0.00023351,2327.1,-7.6208e-05,0.0033842,-7.8789e-05,-19.387,0.91935
28067,13.774,5.5455,0.1,0.00023613,2359.6,0.00023584,2351.4,-7.7104e-05,0.013015,-7.9294e-05,-16.443,0.90765
28068,13.866,5.4545,0.1,0.00023377,2336,0.00023346,2327.1,-7.6263e-05,0.0056417,-7.8622e-05,-17.721,0.91867
28069,13.774,5.7273,0.1,0.00023618,2360.1,0.00023591,2352.3,-7.7169e-05,0.012706,-7.9231e-05,-15.482,0.90689
28070,13.866,5.6364,0.1,0.0002337,2335.4,0.00023342,2327.3,-7.6325e-05,0.021507,-7.8457e-05,-15.998,0.91794
28071,13.866,5.8182,0.1,0.00023385,2336.8,0.00023358,2329,-7.6398e-05,0.0017329,-7.8466e-05,-15.538,0.91716
28072,13.774,5.9091,0.1,0.00023555,2353.9,0.00023538,2348.9,-7.7234e-05,0.0055353,-7.857e-05,-10.035,0.90608
28073,13.958,0.27273,0.1,0.00023135,2311.9,0.00023108,2303.9,-7.5554e-05,0.014045,-7.7678e-05,-15.949,0.92827
28074,14.05,0.18182,0.1,0.00022901,2288.5,0.00022873,2280.5,-7.4787e-05,0.0022883,-7.6894e-05,-15.83,0.93862
28075,13.958,0.090909,0.1,0.0002307,2305.4,0.00023053,2300.3,-7.5625e-05,0.0058512,-7.6983e-05,-10.193,0.92747
28076,13.958,0.45455,0.1,0.00023133,2311.7,0.00023104,2303.1,-7.5483e-05,0.014008,-7.778e-05,-17.245,0.92902
28077,14.05,0.36364,0.1,0.00022889,2287.4,0.00022861,2279,-7.4706e-05,0.023511,-7.6927e-05,-16.661,0.93939
28078,13.958,0.63636,0.1,0.00023143,2312.7,0.0002311,2303.1,-7.5423e-05,0.0044172,-7.7964e-05,-19.094,0.92972
28079,14.05,0.54545,0.1,0.000229,2288.4,0.00022867,2279,-7.4639e-05,0.0057792,-7.7131e-05,-18.72,0.94011
28080,13.958,0.81818,0.1,0.00023153,2313.7,0.00023117,2303.2,-7.537e-05,0.0014128,-7.8141e-05,-20.82,0.93036
28081,14.05,0.72727,0.1,0.00022911,2289.5,0.00022875,2279.1,-7.458e-05,0.0033092,-7.7334e-05,-20.686,0.94078
28082,13.958,1,0.1,0.00023162,2314.6,0.00023124,2303.4,-7.5326e-05,-0.0015779,-7.8302e-05,-22.363,0.93096
28083,14.05,0.90909,0.1,0.00022923,2290.7,0.00022884,2279.4,-7.453e-05,-0.00055509,-7.752e-05,-22.461,0.94139
28084,13.958,1.1818,0.1,0.00023172,2315.6,0.0002313,2303.6,-7.5289e-05,-0.0036378,-7.8444e-05,-23.706,0.93151
28085,14.05,1.0909,0.1,0.00022934,2291.8,0.00022892,2279.7,-7.449e-05,-0.0029293,-7.7686e-05,-24.019,0.94196
28086,13.958,1.3636,0.1,0.0002318,2316.4,0.00023137,2303.9,-7.526e-05,-0.0052037,-7.8566e-05,-24.845,0.932
28087,14.05,1.2727,0.1,0.00022944,2292.8,0.000229,2280.1,-7.4457e-05,-0.0047967,-7.783e-05,-25.351,0.94248
28088,13.958,1.5455,0.1,0.00023187,2317.1,0.00023142,2304.1,-7.5238e-05,-0.0063298,-7.8669e-05,-25.785,0.93244
28089,14.05,1.4545,0.1,0.00022953,2293.7,0.00022907,2280.4,-7.4432e-05,-0.0061171,-7.7952e-05,-26.458,0.94294
28090,13.958,1.7273,0.1,0.00023194,2317.8,0.00023147,2304.4,-7.5221e-05,-0.0071288,-7.8752e-05,-26.539,0.93283
28091,14.05,1.6364,0.1,0.00022961,2294.5,0.00022913,2280.7,-7.4413e-05,-0.0070546,-7.8053e-05,-27.352,0.94335
28092,13.958,1.9091,0.1,0.00023199,2318.3,0.00023151,2304.6,-7.5209e-05,-0.0076744,-7.8818e-05,-27.125,0.93317
28093,14.05,1.8182,0.1,0.00022968,2295.2,0.00022919,2281,-7.44e-05,-0.0076902,-7.8133e-05,-28.052,0.94372
28094,13.958,2.0909,0.1,0.00023203,2318.7,0.00023155,2304.8,-7.5201e-05,-0.0080321,-7.8869e-05,-27.566,0.93346
28095,14.05,2,0.1,0.00022973,2295.7,0.00022923,2281.3,-7.4392e-05,-0.0081039,-7.8195e-05,-28.581,0.94403
28096,13.958,2.2727,0.1,0.00023206,2319,0.00023157,2304.9,-7.5196e-05,-0.008254,-7.8906e-05,-27.885,0.93369
28097,14.05,2.1818,0.1,0.00022977,2296.1,0.00022927,2281.5,-7.4386e-05,-0.0083553,-7.8241e-05,-28.967,0.94428
28098,13.958,2.4545,0.1,0.00023209,2319.3,0.00023159,2305.1,-7.5193e-05,-0.0083836,-7.8932e-05,-28.105,0.93388
28099,14.05,2.3636,0.1,0.0002298,2296.5,0.00022929,2281.7,-7.4384e-05,-0.0084974,-7.8274e-05,-29.236,0.94449
28100,13.958,2.6364,0.1,0.0002321,2319.4,0.00023161,2305.2,-7.5191e-05,-0.008453,-7.8949e-05,-28.246,0.93401
28101,14.05,2.5455,0.1,0.00022983,2296.7,0.00022931,2281.8,-7.4382e-05,-0.0085695,-7.8296e-05,-29.413,0.94465
28102,13.958,2.8182,0.1,0.00023211,2319.5,0.00023162,2305.2,-7.519e-05,-0.008485,-7.8958e-05,-28.324,0.93409
28103,14.05,2.7273,0.1,0.00022984,2296.8,0.00022933,2281.9,-7.4382e-05,-0.0086008,-7.8309e-05,-29.518,0.94475
28104,13.958,3,0.1,0.00023211,2319.5,0.00023162,2305.2,-7.519e-05,-0.0084938,-7.8962e-05,-28.349,0.93411
28105,14.05,2.9091,0.1,0.00022985,2296.9,0.00022933,2282,-7.4382e-05,-0.0086113,-7.8316e-05,-29.567,0.9448
28106,13.958,3.1818,0.1,0.00023211,2319.5,0.00023162,2305.2,-7.519e-05,-0.0084847,-7.8958e-05,-28.324,0.93409
28107,14.05,3.0909,0.1,0.00022985,2296.9,0.00022933,2282,-7.4382e-05,-0.0086113,-7.8316e-05,-29.567,0.9448
28108,13.958,3.3636,0.1,0.0002321,2319.4,0.00023161,2305.2,-7.5191e-05,-0.0084529,-7.8949e-05,-28.246,0.93401
28109,14.05,3.2727,0.1,0.00022984,2296.8,0.00022933,2281.9,-7.4382e-05,-0.0086009,-7.8309e-05,-29.518,0.94475
28110,13.958,3.5455,0.1,0.00023209,2319.3,0.00023159,2305.1,-7.5193e-05,-0.0083835,-7.8932e-05,-28.105,0.93388
28111,14.05,3.4545,0.1,0.00022983,2296.7,0.00022931,2281.8,-7.4382e-05,-0.0085694,-7.8296e-05,-29.413,0.94465
28112,13.958,3.7273,0.1,0.00023206,2319,0.00023157,2304.9,-7.5196e-05,-0.0082535,-7.8906e-05,-27.885,0.93369
28113,14.05,3.6364,0.1,0.0002298,2296.5,0.00022929,2281.7,-7.4384e-05,-0.0084971,-7.8274e-05,-29.236,0.94449
28114,13.958,3.9091,0.1,0.00023203,2318.7,0.00023155,2304.8,-7.5201e-05,-0.0080315,-7.8869e-05,-27.566,0.93346
28115,14.05,3.8182,0.1,0.00022977,2296.1,0.00022927,2281.5,-7.4386e-05,-0.0083551,-7.8241e-05,-28.967,0.94428
28116,13.958,4.0909,0.1,0.00023199,2318.3,0.00023151,2304.6,-7.5209e-05,-0.0076739,-7.8818e-05,-27.125,0.93317
28117,14.05,4,0.1,0.00022973,2295.7,0.00022923,2281.3,-7.4392e-05,-0.0081037,-7.8195e-05,-28.581,0.94403
28118,13.958,4.2727,0.1,0.00023194,2317.8,0.00023147,2304.4,-7.5221e-05,-0.0071283,-7.8752e-05,-26.539,0.93283
28119,14.05,4.1818,0.1,0.00022968,2295.2,0.00022919,2281,-7.44e-05,-0.0076898,-7.8133e-05,-28.052,0.94372
28120,13.958,4.4545,0.1,0.00023187,2317.1,0.00023142,2304.1,-7.5238e-05,-0.00633,-7.8669e-05,-25.785,0.93244
28121,14.05,4.3636,0.1,0.00022961,2294.5,0.00022913,2280.7,-7.4413e-05,-0.0070546,-7.8053e-05,-27.352,0.94335
28122,13.958,4.6364,0.1,0.0002318,2316.4,0.00023137,2303.9,-7.526e-05,-0.0052039,-7.8566e-05,-24.845,0.932
28123,14.05,4.5455,0.1,0.00022953,2293.7,0.00022907,2280.4,-7.4432e-05,-0.0061171,-7.7952e-05,-26.458,0.94294
28124,13.958,4.8182,0.1,0.00023172,2315.6,0.0002313,2303.6,-7.5289e-05,-0.0036373,-7.8444e-05,-23.706,0.93151
28125,14.05,4.7273,0.1,0.00022944,2292.8,0.000229,2280.1,-7.4457e-05,-0.0047962,-7.783e-05,-25.351,0.94248
28126,13.958,5,0.1,0.00023162,2314.6,0.00023124,2303.4,-7.5326e-05,-0.0015771,-7.8302e-05,-22.363,0.93096
28127,14.05,4.9091,0.1,0.00022934,2291.8,0.00022892,2279.7,-7.449e-05,-0.0029289,-7.7686e-05,-24.019,0.94196
28128,13.958,5.1818,0.1,0.00023153,2313.7,0.00023117,2303.2,-7.537e-05,0.0014139,-7.8141e-05,-20.82,0.93036
28129,14.05,5.0909,0.1,0.00022923,2290.7,0.00022884,2279.4,-7.453e-05,-0.00055377,-7.752e-05,-22.461,0.94139
28130,13.958,5.3636,0.1,0.00023143,2312.7,0.0002311,2303.1,-7.5423e-05,0.0044177,-7.7964e-05,-19.094,0.92972
28131,14.05,5.2727,0.1,0.00022911,2289.5,0.00022875,2279.1,-7.458e-05,0.0033107,-7.7334e-05,-20.686,0.94078
28132,13.958,5.5455,0.1,0.00023133,2311.7,0.00023104,2303.1,-7.5483e-05,0.014009,-7.778e-05,-17.245,0.92902
28133,14.05,5.4545,0.1,0.000229,2288.4,0.00022867,2279,-7.4639e-05,0.005779,-7.7131e-05,-18.72,0.94011
28134,13.958,5.7273,0.1,0.00023135,2311.9,0.00023108,2303.9,-7.5554e-05,0.014045,-7.7678e-05,-15.949,0.92827
28135,14.05,5.6364,0.1,0.00022889,2287.4,0.00022861,2279,-7.4706e-05,0.023511,-7.6927e-05,-16.661,0.93939
28136,14.05,5.8182,0.1,0.00022901,2288.5,0.00022873,2280.5,-7.4787e-05,0.0022888,-7.6894e-05,-15.83,0.93862
28137,13.958,5.9091,0.1,0.0002307,2305.4,0.00023053,2300.3,-7.5625e-05,0.0058518,-7.6983e-05,-10.193,0.92747
28138,14.141,0.27273,0.1,0.00022653,2263.8,0.00022625,2255.5,-7.3939e-05,0.015588,-7.6129e-05,-16.437,0.9498
28139,14.233,0.18182,0.1,0.00022417,2240.1,0.00022389,2232,-7.3175e-05,0.0030705,-7.5322e-05,-16.125,0.96024
28140,14.141,0.090909,0.1,0.00022585,2257,0.00022568,2251.8,-7.4018e-05,0.0061929,-7.5396e-05,-10.348,0.94901
28141,14.141,0.45455,0.1,0.00022655,2263.9,0.00022624,2254.8,-7.3862e-05,0.015088,-7.6274e-05,-18.104,0.95053
28142,14.233,0.36364,0.1,0.0002241,2239.4,0.00022379,2230.7,-7.3087e-05,0.025731,-7.5402e-05,-17.369,0.96099
28143,14.141,0.63636,0.1,0.00022668,2265.2,0.00022633,2255,-7.3797e-05,0.0044144,-7.6497e-05,-20.284,0.95122
28144,14.233,0.54545,0.1,0.00022423,2240.8,0.00022389,2230.8,-7.3014e-05,0.005903,-7.565e-05,-19.797,0.9617
28145,14.141,0.81818,0.1,0.00022681,2266.6,0.00022642,2255.3,-7.3741e-05,0.0011607,-7.6709e-05,-22.301,0.95186
28146,14.233,0.72727,0.1,0.00022439,2242.3,0.000224,2231.2,-7.2951e-05,0.0032025,-7.5891e-05,-22.089,0.96235
28147,14.141,1,0.1,0.00022694,2267.8,0.00022652,2255.7,-7.3694e-05,-0.0020327,-7.6901e-05,-24.093,0.95245
28148,14.233,0.90909,0.1,0.00022454,2243.8,0.00022412,2231.7,-7.2899e-05,-0.00097281,-7.6112e-05,-24.144,0.96296
28149,14.141,1.1818,0.1,0.00022706,2269.1,0.00022662,2256.1,-7.3657e-05,-0.0041776,-7.7069e-05,-25.64,0.95298
28150,14.233,1.0909,0.1,0.00022468,2245.3,0.00022423,2232.2,-7.2857e-05,-0.0034663,-7.6309e-05,-25.935,0.96352
28151,14.141,1.3636,0.1,0.00022717,2270.1,0.0002267,2256.6,-7.3629e-05,-0.0057742,-7.7213e-05,-26.941,0.95347
28152,14.233,1.2727,0.1,0.00022481,2246.6,0.00022433,2232.7,-7.2825e-05,-0.0053903,-7.6478e-05,-27.452,0.96402
28153,14.141,1.5455,0.1,0.00022727,2271.1,0.00022678,2257,-7.3607e-05,-0.0068886,-7.7333e-05,-28.004,0.9539
28154,14.233,1.4545,0.1,0.00022493,2247.7,0.00022443,2233.3,-7.2801e-05,-0.0067125,-7.662e-05,-28.7,0.96448
28155,14.141,1.7273,0.1,0.00022735,2271.9,0.00022684,2257.4,-7.3593e-05,-0.0076507,-7.743e-05,-28.844,0.95429
28156,14.233,1.6364,0.1,0.00022503,2248.8,0.00022451,2233.8,-7.2785e-05,-0.007618,-7.6736e-05,-29.694,0.96489
28157,14.141,1.9091,0.1,0.00022742,2272.6,0.0002269,2257.7,-7.3583e-05,-0.0081462,-7.7506e-05,-29.488,0.95462
28158,14.233,1.8182,0.1,0.00022512,2249.6,0.00022458,2234.2,-7.2775e-05,-0.0082025,-7.6828e-05,-30.459,0.96524
28159,14.141,2.0909,0.1,0.00022747,2273.1,0.00022695,2258,-7.3577e-05,-0.0084481,-7.7564e-05,-29.962,0.9549
28160,14.233,2,0.1,0.00022518,2250.3,0.00022464,2234.6,-7.2769e-05,-0.0085559,-7.6897e-05,-31.026,0.96555
28161,14.141,2.2727,0.1,0.00022751,2273.6,0.00022698,2258.3,-7.3574e-05,-0.008616,-7.7606e-05,-30.298,0.95513
28162,14.233,2.1818,0.1,0.00022524,2250.8,0.00022469,2234.9,-7.2767e-05,-0.0087456,-7.6949e-05,-31.429,0.9658
28163,14.141,2.4545,0.1,0.00022754,2273.9,0.00022701,2258.5,-7.3573e-05,-0.0086984,-7.7635e-05,-30.524,0.95531
28164,14.233,2.3636,0.1,0.00022528,2251.2,0.00022472,2235.2,-7.2767e-05,-0.0088314,-7.6985e-05,-31.701,0.96601
28165,14.141,2.6364,0.1,0.00022757,2274.1,0.00022703,2258.6,-7.3573e-05,-0.008731,-7.7653e-05,-30.666,0.95544
28166,14.233,2.5455,0.1,0.00022531,2251.5,0.00022475,2235.4,-7.2768e-05,-0.0088572,-7.7009e-05,-31.874,0.96616
28167,14.141,2.8182,0.1,0.00022758,2274.2,0.00022704,2258.7,-7.3573e-05,-0.0087401,-7.7664e-05,-30.742,0.95552
28168,14.233,2.7273,0.1,0.00022533,2251.7,0.00022477,2235.6,-7.2769e-05,-0.0088558,-7.7024e-05,-31.974,0.96626
28169,14.141,3,0.1,0.00022758,2274.2,0.00022704,2258.7,-7.3574e-05,-0.0087415,-7.7667e-05,-30.766,0.95554
28170,14.233,2.9091,0.1,0.00022534,2251.8,0.00022477,2235.6,-7.277e-05,-0.0088493,-7.703e-05,-32.019,0.96631
28171,14.141,3.1818,0.1,0.00022758,2274.2,0.00022704,2258.7,-7.3573e-05,-0.0087403,-7.7664e-05,-30.742,0.95552
28172,14.233,3.0909,0.1,0.00022534,2251.8,0.00022477,2235.6,-7.277e-05,-0.0088492,-7.703e-05,-32.019,0.96631
28173,14.141,3.3636,0.1,0.00022757,2274.1,0.00022703,2258.6,-7.3573e-05,-0.008731,-7.7653e-05,-30.666,0.95544
28174,14.233,3.2727,0.1,0.00022533,2251.7,0.00022477,2235.6,-7.2769e-05,-0.0088554,-7.7024e-05,-31.974,0.96626
28175,14.141,3.5455,0.1,0.00022754,2273.9,0.00022701,2258.5,-7.3573e-05,-0.008698,-7.7635e-05,-30.524,0.95531
28176,14.233,3.4545,0.1,0.00022531,2251.5,0.00022475,2235.4,-7.2768e-05,-0.0088571,-7.7009e-05,-31.874,0.96616
28177,14.141,3.7273,0.1,0.00022751,2273.6,0.00022698,2258.3,-7.3574e-05,-0.008616,-7.7606e-05,-30.298,0.95513
28178,14.233,3.6364,0.1,0.00022528,2251.2,0.00022472,2235.2,-7.2767e-05,-0.008831,-7.6985e-05,-31.701,0.96601
28179,14.141,3.9091,0.1,0.00022747,2273.1,0.00022695,2258,-7.3577e-05,-0.0084483,-7.7564e-05,-29.962,0.9549
28180,14.233,3.8182,0.1,0.00022524,2250.8,0.00022469,2234.9,-7.2767e-05,-0.0087459,-7.6949e-05,-31.429,0.9658
28181,14.141,4.0909,0.1,0.00022742,2272.6,0.0002269,2257.7,-7.3583e-05,-0.0081461,-7.7506e-05,-29.488,0.95462
28182,14.233,4,0.1,0.00022518,2250.3,0.00022464,2234.6,-7.2769e-05,-0.0085556,-7.6897e-05,-31.026,0.96555
28183,14.141,4.2727,0.1,0.00022735,2271.9,0.00022684,2257.4,-7.3593e-05,-0.0076508,-7.743e-05,-28.844,0.95429
28184,14.233,4.1818,0.1,0.00022512,2249.6,0.00022458,2234.2,-7.2775e-05,-0.0082024,-7.6828e-05,-30.459,0.96524
28185,14.141,4.4545,0.1,0.00022727,2271.1,0.00022678,2257,-7.3607e-05,-0.0068885,-7.7333e-05,-28.004,0.9539
28186,14.233,4.3636,0.1,0.00022503,2248.8,0.00022451,2233.8,-7.2785e-05,-0.0076178,-7.6736e-05,-29.694,0.96489
28187,14.141,4.6364,0.1,0.00022717,2270.1,0.0002267,2256.6,-7.3629e-05,-0.0057735,-7.7213e-05,-26.941,0.95347
28188,14.233,4.5455,0.1,0.00022493,2247.7,0.00022443,2233.3,-7.2801e-05,-0.0067119,-7.662e-05,-28.7,0.96448
28189,14.141,4.8182,0.1,0.00022706,2269.1,0.00022662,2256.1,-7.3657e-05,-0.0041771,-7.7069e-05,-25.641,0.95298
28190,14.233,4.7273,0.1,0.00022481,2246.6,0.00022433,2232.7,-7.2825e-05,-0.0053899,-7.6478e-05,-27.452,0.96402
28191,14.141,5,0.1,0.00022694,2267.8,0.00022652,2255.7,-7.3694e-05,-0.0020319,-7.6901e-05,-24.093,0.95245
28192,14.233,4.9091,0.1,0.00022468,2245.3,0.00022423,2232.2,-7.2857e-05,-0.0034658,-7.6309e-05,-25.935,0.96352
28193,14.141,5.1818,0.1,0.00022681,2266.6,0.00022642,2255.3,-7.3741e-05,0.0011623,-7.6709e-05,-22.301,0.95186
28194,14.233,5.0909,0.1,0.00022454,2243.8,0.00022412,2231.7,-7.2899e-05,-0.00097128,-7.6112e-05,-24.144,0.96296
28195,14.141,5.3636,0.1,0.00022668,2265.2,0.00022633,2255,-7.3797e-05,0.0044151,-7.6497e-05,-20.284,0.95122
28196,14.233,5.2727,0.1,0.00022439,2242.3,0.000224,2231.2,-7.2951e-05,0.0032043,-7.5891e-05,-22.089,0.96235
28197,14.141,5.5455,0.1,0.00022655,2263.9,0.00022624,2254.8,-7.3862e-05,0.015088,-7.6274e-05,-18.104,0.95053
28198,14.233,5.4545,0.1,0.00022423,2240.8,0.00022389,2230.8,-7.3014e-05,0.005902,-7.565e-05,-19.797,0.9617
28199,14.141,5.7273,0.1,0.00022653,2263.8,0.00022625,2255.5,-7.3939e-05,0.015588,-7.6129e-05,-16.437,0.9498
28200,14.233,5.6364,0.1,0.0002241,2239.4,0.00022379,2230.7,-7.3087e-05,0.025732,-7.5402e-05,-17.369,0.96099
28201,14.233,5.8182,0.1,0.00022417,2240.1,0.00022389,2232,-7.3175e-05,0.0030717,-7.5322e-05,-16.125,0.96024
28202,14.141,5.9091,0.1,0.00022585,2257,0.00022568,2251.8,-7.4018e-05,0.006193,-7.5396e-05,-10.348,0.94901
28203,14.325,0.27273,0.1,0.00022171,2215.6,0.00022142,2207.1,-7.2323e-05,0.017374,-7.4582e-05,-16.952,0.97148
28204,14.417,0.18182,0.1,0.00021933,2191.8,0.00021904,2183.5,-7.1562e-05,0.004088,-7.3749e-05,-16.425,0.982
28205,14.325,0.090909,0.1,0.000221,2208.5,0.00022082,2203.3,-7.241e-05,0.0065587,-7.3809e-05,-10.501,0.97071
28206,14.325,0.45455,0.1,0.00022177,2216.2,0.00022144,2206.6,-7.2239e-05,0.016266,-7.4774e-05,-19.03,0.9722
28207,14.417,0.36364,0.1,0.0002193,2191.5,0.00021898,2182.3,-7.1466e-05,0.028149,-7.3883e-05,-18.134,0.98274
28208,14.325,0.63636,0.1,0.00022194,2217.9,0.00022157,2207,-7.2169e-05,0.0043812,-7.5041e-05,-21.574,0.97288
28209,14.417,0.54545,0.1,0.00021948,2193.3,0.00021912,2182.7,-7.1387e-05,0.0059503,-7.4178e-05,-20.969,0.98343
28210,14.325,0.81818,0.1,0.00022211,2219.6,0.0002217,2207.5,-7.211e-05,0.00085932,-7.5292e-05,-23.907,0.9735
28211,14.417,0.72727,0.1,0.00021968,2195.2,0.00021926,2183.3,-7.132e-05,0.0030012,-7.4463e-05,-23.617,0.98408
28212,14.325,1,0.1,0.00022228,2221.2,0.00022182,2208.1,-7.2062e-05,-0.0025486,-7.5517e-05,-25.963,0.97408
28213,14.417,0.90909,0.1,0.00021987,2197.1,0.00021941,2184,-7.1266e-05,-0.0015101,-7.4723e-05,-25.975,0.98468
28214,14.325,1.1818,0.1,0.00022243,2222.8,0.00022195,2208.8,-7.2025e-05,-0.0047769,-7.5714e-05,-27.724,0.97461
28215,14.417,1.0909,0.1,0.00022005,2198.9,0.00021956,2184.8,-7.1224e-05,-0.0041239,-7.4951e-05,-28.013,0.98522
28216,14.325,1.3636,0.1,0.00022257,2224.2,0.00022206,2209.4,-7.1998e-05,-0.0063969,-7.5882e-05,-29.189,0.97509
28217,14.417,1.2727,0.1,0.00022021,2200.6,0.00021969,2185.6,-7.1193e-05,-0.0061001,-7.5147e-05,-29.72,0.98572
28218,14.325,1.5455,0.1,0.00022269,2225.4,0.00022216,2210,-7.1979e-05,-0.00749,-7.602e-05,-30.369,0.97552
28219,14.417,1.4545,0.1,0.00022036,2202,0.00021981,2186.3,-7.1172e-05,-0.0074137,-7.5311e-05,-31.107,0.98617
28220,14.325,1.7273,0.1,0.00022279,2226.4,0.00022224,2210.6,-7.1967e-05,-0.0082042,-7.613e-05,-31.288,0.97589
28221,14.417,1.6364,0.1,0.00022048,2203.3,0.00021992,2187,-7.1159e-05,-0.0082758,-7.5443e-05,-32.193,0.98657
28222,14.325,1.9091,0.1,0.00022288,2227.3,0.00022232,2211.1,-7.1961e-05,-0.0086373,-7.6216e-05,-31.977,0.97622
28223,14.417,1.8182,0.1,0.00022059,2204.3,0.00022001,2187.7,-7.1153e-05,-0.0087959,-7.5545e-05,-33.012,0.98692
28224,14.325,2.0909,0.1,0.00022295,2227.9,0.00022238,2211.5,-7.1959e-05,-0.0088724,-7.628e-05,-32.472,0.9765
28225,14.417,2,0.1,0.00022067,2205.2,0.00022008,2188.2,-7.1152e-05,-0.0090765,-7.5623e-05,-33.601,0.98722
28226,14.325,2.2727,0.1,0.000223,2228.5,0.00022242,2211.9,-7.196e-05,-0.008976,-7.6326e-05,-32.811,0.97673
28227,14.417,2.1818,0.1,0.00022074,2205.9,0.00022014,2188.7,-7.1154e-05,-0.0091934,-7.5679e-05,-34.005,0.98747
28228,14.325,2.4545,0.1,0.00022304,2228.9,0.00022246,2212.2,-7.1962e-05,-0.009003,-7.6357e-05,-33.031,0.9769
28229,14.417,2.3636,0.1,0.00022079,2206.4,0.00022019,2189.1,-7.1158e-05,-0.0092128,-7.5717e-05,-34.266,0.98767
28230,14.325,2.6364,0.1,0.00022307,2229.1,0.00022248,2212.4,-7.1964e-05,-0.0089934,-7.6377e-05,-33.163,0.97703
28231,14.417,2.5455,0.1,0.00022083,2206.8,0.00022022,2189.3,-7.1162e-05,-0.0091854,-7.5743e-05,-34.422,0.98782
28232,14.325,2.8182,0.1,0.00022308,2229.3,0.0002225,2212.5,-7.1966e-05,-0.0089758,-7.6387e-05,-33.231,0.9771
28233,14.417,2.7273,0.1,0.00022085,2207,0.00022024,2189.5,-7.1166e-05,-0.0091463,-7.5757e-05,-34.507,0.98792
28234,14.325,3,0.1,0.00022309,2229.3,0.0002225,2212.5,-7.1966e-05,-0.0089676,-7.6391e-05,-33.252,0.97713
28235,14.417,2.9091,0.1,0.00022086,2207.1,0.00022026,2189.6,-7.1168e-05,-0.0091204,-7.5764e-05,-34.544,0.98797
28236,14.325,3.1818,0.1,0.00022308,2229.3,0.0002225,2212.5,-7.1966e-05,-0.008975,-7.6387e-05,-33.231,0.9771
28237,14.417,3.0909,0.1,0.00022086,2207.1,0.00022026,2189.6,-7.1168e-05,-0.0091204,-7.5764e-05,-34.544,0.98797
28238,14.325,3.3636,0.1,0.00022307,2229.1,0.00022248,2212.4,-7.1964e-05,-0.0089929,-7.6377e-05,-33.163,0.97703
28239,14.417,3.2727,0.1,0.00022085,2207,0.00022024,2189.5,-7.1166e-05,-0.0091459,-7.5757e-05,-34.507,0.98792
28240,14.325,3.5455,0.1,0.00022304,2228.9,0.00022246,2212.2,-7.1962e-05,-0.0090028,-7.6357e-05,-33.031,0.9769
28241,14.417,3.4545,0.1,0.00022083,2206.8,0.00022022,2189.3,-7.1162e-05,-0.0091852,-7.5743e-05,-34.422,0.98782
28242,14.325,3.7273,0.1,0.000223,2228.5,0.00022242,2211.9,-7.196e-05,-0.0089759,-7.6326e-05,-32.811,0.97673
28243,14.417,3.6364,0.1,0.00022079,2206.4,0.00022019,2189.1,-7.1158e-05,-0.0092124,-7.5717e-05,-34.266,0.98767
28244,14.325,3.9091,0.1,0.00022295,2227.9,0.00022238,2211.5,-7.1959e-05,-0.0088722,-7.628e-05,-32.472,0.9765
28245,14.417,3.8182,0.1,0.00022074,2205.9,0.00022014,2188.7,-7.1154e-05,-0.0091932,-7.5679e-05,-34.005,0.98747
28246,14.325,4.0909,0.1,0.00022288,2227.3,0.00022232,2211.1,-7.1961e-05,-0.0086371,-7.6216e-05,-31.977,0.97622
28247,14.417,4,0.1,0.00022067,2205.2,0.00022008,2188.2,-7.1152e-05,-0.0090763,-7.5623e-05,-33.601,0.98722
28248,14.325,4.2727,0.1,0.00022279,2226.4,0.00022224,2210.6,-7.1967e-05,-0.0082038,-7.613e-05,-31.288,0.97589
28249,14.417,4.1818,0.1,0.00022059,2204.3,0.00022001,2187.7,-7.1153e-05,-0.0087958,-7.5545e-05,-33.012,0.98692
28250,14.325,4.4545,0.1,0.00022269,2225.4,0.00022216,2210,-7.1979e-05,-0.0074894,-7.602e-05,-30.37,0.97552
28251,14.417,4.3636,0.1,0.00022048,2203.3,0.00021992,2187,-7.1159e-05,-0.0082753,-7.5443e-05,-32.193,0.98657
28252,14.325,4.6364,0.1,0.00022257,2224.2,0.00022206,2209.4,-7.1998e-05,-0.0063966,-7.5882e-05,-29.189,0.97509
28253,14.417,4.5455,0.1,0.00022036,2202,0.00021981,2186.3,-7.1172e-05,-0.007413,-7.5311e-05,-31.107,0.98617
28254,14.325,4.8182,0.1,0.00022243,2222.8,0.00022195,2208.8,-7.2025e-05,-0.0047765,-7.5714e-05,-27.724,0.97461
28255,14.417,4.7273,0.1,0.00022021,2200.6,0.00021969,2185.6,-7.1193e-05,-0.0060999,-7.5147e-05,-29.72,0.98572
28256,14.325,5,0.1,0.00022228,2221.2,0.00022182,2208.1,-7.2062e-05,-0.0025474,-7.5517e-05,-25.963,0.97408
28257,14.417,4.9091,0.1,0.00022005,2198.9,0.00021956,2184.8,-7.1224e-05,-0.0041234,-7.4951e-05,-28.013,0.98522
28258,14.325,5.1818,0.1,0.00022211,2219.6,0.0002217,2207.5,-7.211e-05,0.00086106,-7.5292e-05,-23.907,0.9735
28259,14.417,5.0909,0.1,0.00021987,2197.1,0.00021941,2184,-7.1266e-05,-0.0015083,-7.4723e-05,-25.975,0.98468
28260,14.325,5.3636,0.1,0.00022194,2217.9,0.00022157,2207,-7.2169e-05,0.0043813,-7.5041e-05,-21.574,0.97288
28261,14.417,5.2727,0.1,0.00021968,2195.2,0.00021926,2183.3,-7.132e-05,0.0030023,-7.4463e-05,-23.617,0.98408
28262,14.325,5.5455,0.1,0.00022177,2216.2,0.00022144,2206.6,-7.2239e-05,0.016265,-7.4774e-05,-19.03,0.9722
28263,14.417,5.4545,0.1,0.00021948,2193.3,0.00021912,2182.7,-7.1387e-05,0.0059493,-7.4178e-05,-20.969,0.98343
28264,14.325,5.7273,0.1,0.00022171,2215.6,0.00022142,2207.1,-7.2323e-05,0.017374,-7.4582e-05,-16.952,0.97148
28265,14.417,5.6364,0.1,0.0002193,2191.5,0.00021898,2182.3,-7.1466e-05,0.02815,-7.3883e-05,-18.134,0.98274
28266,14.417,5.8182,0.1,0.00021933,2191.8,0.00021904,2183.5,-7.1562e-05,0.0040895,-7.3749e-05,-16.425,0.982
28267,14.325,5.9091,0.1,0.000221,2208.5,0.00022082,2203.3,-7.241e-05,0.0065604,-7.3809e-05,-10.501,0.97071
28268,14.509,0.27273,0.1,0.00021689,2167.4,0.00021659,2158.6,-7.0704e-05,0.019343,-7.3036e-05,-17.501,0.99331
28269,14.6,0.18182,0.1,0.00021447,2143.3,0.00021418,2134.8,-6.9945e-05,0.0054142,-7.2173e-05,-16.734,1.0039
28270,14.509,0.090909,0.1,0.00021615,2160,0.00021597,2154.7,-7.08e-05,0.0068524,-7.2219e-05,-10.654,0.99255
28271,14.509,0.45455,0.1,0.000217,2168.5,0.00021665,2158.4,-7.0613e-05,0.017445,-7.3282e-05,-20.039,0.99402
28272,14.6,0.36364,0.1,0.0002145,2143.5,0.00021417,2133.9,-6.9839e-05,0.030802,-7.2368e-05,-18.966,1.0046
28273,14.509,0.63636,0.1,0.00021721,2170.6,0.00021681,2159,-7.0538e-05,0.0041988,-7.3597e-05,-22.984,0.99469
28274,14.6,0.54545,0.1,0.00021473,2145.8,0.00021434,2134.6,-6.9754e-05,0.0059079,-7.2717e-05,-22.255,1.0053
28275,14.509,0.81818,0.1,0.00021743,2172.8,0.00021698,2159.8,-7.0476e-05,0.00038978,-7.3891e-05,-25.661,0.9953
28276,14.6,0.72727,0.1,0.00021497,2148.2,0.00021453,2135.5,-6.9684e-05,0.0026901,-7.3051e-05,-25.295,1.006
28277,14.509,1,0.1,0.00021763,2174.8,0.00021714,2160.7,-7.0427e-05,-0.003245,-7.4154e-05,-28.001,0.99587
28278,14.6,0.90909,0.1,0.00021521,2150.6,0.00021472,2136.5,-6.9628e-05,-0.0021834,-7.3352e-05,-27.982,1.0065
28279,14.509,1.1818,0.1,0.00021782,2176.7,0.0002173,2161.6,-7.0391e-05,-0.0055539,-7.4382e-05,-29.986,0.99639
28280,14.6,1.0909,0.1,0.00021543,2152.8,0.0002149,2137.5,-6.9587e-05,-0.0049175,-7.3617e-05,-30.28,1.0071
28281,14.509,1.3636,0.1,0.00021799,2178.4,0.00021744,2162.4,-7.0367e-05,-0.0071891,-7.4574e-05,-31.616,0.99686
28282,14.6,1.2727,0.1,0.00021563,2154.8,0.00021507,2138.6,-6.9559e-05,-0.0069393,-7.3842e-05,-32.185,1.0076
28283,14.509,1.5455,0.1,0.00021814,2179.9,0.00021757,2163.3,-7.0352e-05,-0.0082485,-7.4731e-05,-32.91,0.99728
28284,14.6,1.4545,0.1,0.00021581,2156.6,0.00021522,2139.6,-6.9542e-05,-0.0082318,-7.4027e-05,-33.707,1.008
28285,14.509,1.7273,0.1,0.00021827,2181.2,0.00021768,2164.1,-7.0345e-05,-0.0089011,-7.4855e-05,-33.896,0.99765
28286,14.6,1.6364,0.1,0.00021597,2158.2,0.00021535,2140.5,-6.9535e-05,-0.0090359,-7.4176e-05,-34.876,1.0084
28287,14.509,1.9091,0.1,0.00021838,2182.3,0.00021777,2164.8,-7.0344e-05,-0.0092582,-7.495e-05,-34.615,0.99797
28288,14.6,1.8182,0.1,0.0002161,2159.5,0.00021547,2141.4,-6.9535e-05,-0.0094772,-7.429e-05,-35.733,1.0087
28289,14.509,2.0909,0.1,0.00021846,2183.1,0.00021784,2165.3,-7.0347e-05,-0.0094139,-7.5019e-05,-35.114,0.99824
28290,14.6,2,0.1,0.0002162,2160.5,0.00021556,2142.1,-6.954e-05,-0.0096706,-7.4374e-05,-36.328,1.009
28291,14.509,2.2727,0.1,0.00021853,2183.8,0.0002179,2165.8,-7.0353e-05,-0.0094425,-7.5068e-05,-35.44,0.99847
28292,14.6,2.1818,0.1,0.00021628,2161.4,0.00021564,2142.8,-6.9548e-05,-0.0097025,-7.4433e-05,-36.714,1.0093
28293,14.509,2.4545,0.1,0.00021858,2184.3,0.00021795,2166.2,-7.0359e-05,-0.0094052,-7.5101e-05,-35.638,0.99864
28294,14.6,2.3636,0.1,0.00021635,2162,0.0002157,2143.3,-6.9558e-05,-0.0096455,-7.4473e-05,-36.945,1.0095
28295,14.509,2.6364,0.1,0.00021861,2184.6,0.00021798,2166.5,-7.0364e-05,-0.009347,-7.5121e-05,-35.748,0.99877
28296,14.6,2.5455,0.1,0.00021639,2162.4,0.00021574,2143.7,-6.9566e-05,-0.0095577,-7.4499e-05,-37.069,1.0096
28297,14.509,2.8182,0.1,0.00021863,2184.8,0.000218,2166.7,-7.0368e-05,-0.0092991,-7.5131e-05,-35.8,0.99884
28298,14.6,2.7273,0.1,0.00021642,2162.7,0.00021577,2143.9,-6.9573e-05,-0.0094755,-7.4513e-05,-37.128,1.0097
28299,14.509,3,0.1,0.00021864,2184.8,0.000218,2166.7,-7.0369e-05,-0.0092813,-7.5135e-05,-35.816,0.99886
28300,14.6,2.9091,0.1,0.00021644,2162.9,0.00021578,2144,-6.9576e-05,-0.0094281,-7.4519e-05,-37.15,1.0098
28301,14.509,3.1818,0.1,0.00021863,2184.8,0.000218,2166.7,-7.0368e-05,-0.0092995,-7.5131e-05,-35.8,0.99884
28302,14.6,3.0909,0.1,0.00021644,2162.9,0.00021578,2144,-6.9576e-05,-0.0094283,-7.4519e-05,-37.15,1.0098
28303,14.509,3.3636,0.1,0.00021861,2184.6,0.00021798,2166.5,-7.0364e-05,-0.009347,-7.5121e-05,-35.748,0.99877
28304,14.6,3.2727,0.1,0.00021642,2162.7,0.00021577,2143.9,-6.9573e-05,-0.0094757,-7.4513e-05,-37.128,1.0097
28305,14.509,3.5455,0.1,0.00021858,2184.3,0.00021795,2166.2,-7.0359e-05,-0.0094048,-7.5101e-05,-35.638,0.99864
28306,14.6,3.4545,0.1,0.00021639,2162.4,0.00021574,2143.7,-6.9566e-05,-0.0095569,-7.4499e-05,-37.069,1.0096
28307,14.509,3.7273,0.1,0.00021853,2183.8,0.0002179,2165.8,-7.0353e-05,-0.009442,-7.5068e-05,-35.44,0.99847
28308,14.6,3.6364,0.1,0.00021635,2162,0.0002157,2143.3,-6.9558e-05,-0.0096452,-7.4473e-05,-36.945,1.0095
28309,14.509,3.9091,0.1,0.00021846,2183.1,0.00021784,2165.3,-7.0347e-05,-0.0094138,-7.5019e-05,-35.114,0.99824
28310,14.6,3.8182,0.1,0.00021628,2161.4,0.00021564,2142.8,-6.9548e-05,-0.0097019,-7.4433e-05,-36.714,1.0093
28311,14.509,4.0909,0.1,0.00021838,2182.3,0.00021777,2164.8,-7.0344e-05,-0.0092583,-7.495e-05,-34.616,0.99797
28312,14.6,4,0.1,0.0002162,2160.5,0.00021556,2142.1,-6.954e-05,-0.0096706,-7.4374e-05,-36.328,1.009
28313,14.509,4.2727,0.1,0.00021827,2181.2,0.00021768,2164.1,-7.0345e-05,-0.0089008,-7.4855e-05,-33.896,0.99765
28314,14.6,4.1818,0.1,0.0002161,2159.5,0.00021547,2141.4,-6.9535e-05,-0.0094774,-7.429e-05,-35.733,1.0087
28315,14.509,4.4545,0.1,0.00021814,2179.9,0.00021757,2163.3,-7.0352e-05,-0.0082479,-7.4731e-05,-32.91,0.99728
28316,14.6,4.3636,0.1,0.00021597,2158.2,0.00021535,2140.5,-6.9535e-05,-0.0090358,-7.4176e-05,-34.876,1.0084
28317,14.509,4.6364,0.1,0.00021799,2178.4,0.00021744,2162.5,-7.0367e-05,-0.0071884,-7.4574e-05,-31.616,0.99686
28318,14.6,4.5455,0.1,0.00021581,2156.6,0.00021522,2139.6,-6.9542e-05,-0.008231,-7.4027e-05,-33.707,1.008
28319,14.509,4.8182,0.1,0.00021782,2176.7,0.0002173,2161.6,-7.0391e-05,-0.0055536,-7.4382e-05,-29.986,0.99639
28320,14.6,4.7273,0.1,0.00021563,2154.8,0.00021507,2138.6,-6.9559e-05,-0.0069387,-7.3842e-05,-32.185,1.0076
28321,14.509,5,0.1,0.00021763,2174.8,0.00021714,2160.7,-7.0427e-05,-0.0032438,-7.4154e-05,-28.001,0.99587
28322,14.6,4.9091,0.1,0.00021543,2152.8,0.0002149,2137.5,-6.9587e-05,-0.0049172,-7.3617e-05,-30.281,1.0071
28323,14.509,5.1818,0.1,0.00021743,2172.8,0.00021698,2159.8,-7.0476e-05,0.00039087,-7.3891e-05,-25.661,0.9953
28324,14.6,5.0909,0.1,0.00021521,2150.6,0.00021472,2136.5,-6.9628e-05,-0.0021816,-7.3352e-05,-27.982,1.0065
28325,14.509,5.3636,0.1,0.00021721,2170.6,0.00021681,2159,-7.0538e-05,0.0041988,-7.3597e-05,-22.984,0.99469
28326,14.6,5.2727,0.1,0.00021497,2148.2,0.00021453,2135.5,-6.9684e-05,0.0026908,-7.3051e-05,-25.295,1.006
28327,14.509,5.5455,0.1,0.000217,2168.5,0.00021665,2158.4,-7.0613e-05,0.017445,-7.3282e-05,-20.04,0.99402
28328,14.6,5.4545,0.1,0.00021473,2145.8,0.00021434,2134.6,-6.9754e-05,0.0059076,-7.2717e-05,-22.255,1.0053
28329,14.509,5.7273,0.1,0.00021689,2167.4,0.00021659,2158.6,-7.0704e-05,0.019344,-7.3036e-05,-17.501,0.99331
28330,14.6,5.6364,0.1,0.0002145,2143.5,0.00021417,2133.9,-6.9839e-05,0.030803,-7.2368e-05,-18.966,1.0046
28331,14.6,5.8182,0.1,0.00021447,2143.3,0.00021418,2134.8,-6.9945e-05,0.0054151,-7.2173e-05,-16.734,1.0039
28332,14.509,5.9091,0.1,0.00021615,2160,0.00021597,2154.7,-7.08e-05,0.0068533,-7.2219e-05,-10.654,0.99255
28333,14.692,0.27273,0.1,0.00021206,2119.1,0.00021175,2110,-6.908e-05,0.02165,-7.1491e-05,-18.092,1.0153
28334,14.784,0.18182,0.1,0.0002096,2094.6,0.00020931,2086,-6.8322e-05,0.0071897,-7.0592e-05,-17.054,1.026
28335,14.692,0.090909,0.1,0.00021128,2111.3,0.00021109,2105.9,-6.9185e-05,0.0071644,-7.0625e-05,-10.807,1.0145
28336,14.692,0.45455,0.1,0.00021222,2120.7,0.00021185,2110.1,-6.8981e-05,0.018742,-7.1798e-05,-21.148,1.016
28337,14.784,0.36364,0.1,0.00020968,2095.4,0.00020934,2085.4,-6.8206e-05,0.033782,-7.0856e-05,-19.88,1.0267
28338,14.692,0.63636,0.1,0.00021248,2123.4,0.00021206,2111,-6.8901e-05,0.003956,-7.2167e-05,-24.538,1.0166
28339,14.784,0.54545,0.1,0.00020997,2098.3,0.00020956,2086.4,-6.8115e-05,0.005809,-7.1267e-05,-23.676,1.0273
28340,14.692,0.81818,0.1,0.00021275,2126,0.00021227,2112.1,-6.8836e-05,-0.00016152,-7.2509e-05,-27.591,1.0172
28341,14.784,0.72727,0.1,0.00021027,2101.3,0.0002098,2087.6,-6.8041e-05,0.0023022,-7.1655e-05,-27.151,1.028
28342,14.692,1,0.1,0.000213,2128.6,0.00021247,2113.3,-6.8788e-05,-0.0040343,-7.2812e-05,-30.237,1.0178
28343,14.784,0.90909,0.1,0.00021056,2104.2,0.00021003,2088.9,-6.7985e-05,-0.0029602,-7.2003e-05,-30.195,1.0285
28344,14.692,1.1818,0.1,0.00021324,2130.9,0.00021267,2114.5,-6.8755e-05,-0.0064189,-7.3074e-05,-32.457,1.0183
28345,14.784,1.0909,0.1,0.00021083,2106.9,0.00021026,2090.3,-6.7946e-05,-0.0058129,-7.2307e-05,-32.773,1.0291
28346,14.692,1.3636,0.1,0.00021345,2133,0.00021284,2115.7,-6.8735e-05,-0.0080579,-7.3292e-05,-34.255,1.0188
28347,14.784,1.2727,0.1,0.00021108,2109.3,0.00021046,2091.7,-6.7922e-05,-0.0078706,-7.2563e-05,-34.88,1.0296
28348,14.692,1.5455,0.1,0.00021363,2134.8,0.000213,2116.8,-6.8725e-05,-0.0090686,-7.3469e-05,-35.654,1.0192
28349,14.784,1.4545,0.1,0.0002113,2111.5,0.00021065,2093,-6.7912e-05,-0.0091263,-7.2773e-05,-36.535,1.03
28350,14.692,1.7273,0.1,0.00021379,2136.4,0.00021314,2117.8,-6.8725e-05,-0.0096439,-7.3607e-05,-36.694,1.0196
28351,14.784,1.6364,0.1,0.00021149,2113.4,0.00021082,2094.3,-6.7912e-05,-0.0098566,-7.2938e-05,-37.775,1.0304
28352,14.692,1.9091,0.1,0.00021392,2137.7,0.00021325,2118.7,-6.8731e-05,-0.0099044,-7.3711e-05,-37.426,1.0199
28353,14.784,1.8182,0.1,0.00021164,2115,0.00021096,2095.4,-6.792e-05,-0.010202,-7.3063e-05,-38.652,1.0307
28354,14.692,2.0909,0.1,0.00021402,2138.7,0.00021335,2119.5,-6.8742e-05,-0.0099723,-7.3785e-05,-37.908,1.0201
28355,14.784,2,0.1,0.00021177,2116.3,0.00021108,2096.4,-6.7934e-05,-0.010292,-7.3154e-05,-39.229,1.031
28356,14.692,2.2727,0.1,0.0002141,2139.5,0.00021343,2120.2,-6.8754e-05,-0.0099145,-7.3836e-05,-38.199,1.0204
28357,14.784,2.1818,0.1,0.00021188,2117.3,0.00021117,2097.2,-6.795e-05,-0.010236,-7.3216e-05,-39.574,1.0313
28358,14.692,2.4545,0.1,0.00021416,2140.1,0.00021348,2120.7,-6.8765e-05,-0.0098048,-7.3869e-05,-38.357,1.0205
28359,14.784,2.3636,0.1,0.00021195,2118.1,0.00021125,2097.9,-6.7967e-05,-0.010083,-7.3256e-05,-39.753,1.0314
28360,14.692,2.6364,0.1,0.0002142,2140.5,0.00021352,2121.1,-6.8775e-05,-0.0096921,-7.3888e-05,-38.431,1.0206
28361,14.784,2.5455,0.1,0.00021201,2118.6,0.0002113,2098.4,-6.7981e-05,-0.0099274,-7.328e-05,-39.827,1.0316
28362,14.692,2.8182,0.1,0.00021422,2140.8,0.00021354,2121.3,-6.8781e-05,-0.0096101,-7.3899e-05,-38.459,1.0207
28363,14.784,2.7273,0.1,0.00021204,2119,0.00021134,2098.7,-6.7992e-05,-0.0097984,-7.3294e-05,-39.846,1.0317
28364,14.692,3,0.1,0.00021423,2140.8,0.00021355,2121.3,-6.8783e-05,-0.0095806,-7.3902e-05,-38.465,1.0207
28365,14.784,2.9091,0.1,0.00021206,2119.1,0.00021135,2098.9,-6.7997e-05,-0.0097276,-7.3299e-05,-39.846,1.0317
28366,14.692,3.1818,0.1,0.00021422,2140.8,0.00021354,2121.3,-6.8781e-05,-0.0096101,-7.3899e-05,-38.459,1.0207
28367,14.784,3.0909,0.1,0.00021206,2119.1,0.00021135,2098.9,-6.7997e-05,-0.0097272,-7.3299e-05,-39.846,1.0317
28368,14.692,3.3636,0.1,0.0002142,2140.5,0.00021352,2121.1,-6.8775e-05,-0.0096915,-7.3888e-05,-38.431,1.0206
28369,14.784,3.2727,0.1,0.00021204,2119,0.00021134,2098.7,-6.7992e-05,-0.0097987,-7.3294e-05,-39.846,1.0317
28370,14.692,3.5455,0.1,0.00021416,2140.1,0.00021348,2120.7,-6.8765e-05,-0.0098041,-7.3869e-05,-38.357,1.0205
28371,14.784,3.4545,0.1,0.00021201,2118.6,0.0002113,2098.4,-6.7981e-05,-0.0099269,-7.328e-05,-39.827,1.0316
28372,14.692,3.7273,0.1,0.0002141,2139.5,0.00021343,2120.2,-6.8754e-05,-0.0099141,-7.3836e-05,-38.199,1.0204
28373,14.784,3.6364,0.1,0.00021195,2118.1,0.00021125,2097.9,-6.7967e-05,-0.010083,-7.3256e-05,-39.753,1.0314
28374,14.692,3.9091,0.1,0.00021402,2138.7,0.00021335,2119.5,-6.8742e-05,-0.0099719,-7.3785e-05,-37.908,1.0201
28375,14.784,3.8182,0.1,0.00021188,2117.3,0.00021117,2097.2,-6.795e-05,-0.010236,-7.3216e-05,-39.574,1.0313
28376,14.692,4.0909,0.1,0.00021392,2137.7,0.00021325,2118.7,-6.8731e-05,-0.0099045,-7.3711e-05,-37.426,1.0199
28377,14.784,4,0.1,0.00021177,2116.3,0.00021108,2096.4,-6.7934e-05,-0.010292,-7.3154e-05,-39.229,1.031
28378,14.692,4.2727,0.1,0.00021379,2136.4,0.00021314,2117.8,-6.8725e-05,-0.0096443,-7.3607e-05,-36.694,1.0196
28379,14.784,4.1818,0.1,0.00021164,2115,0.00021096,2095.4,-6.792e-05,-0.010202,-7.3063e-05,-38.652,1.0307
28380,14.692,4.4545,0.1,0.00021363,2134.8,0.000213,2116.8,-6.8725e-05,-0.0090684,-7.3469e-05,-35.654,1.0192
28381,14.784,4.3636,0.1,0.00021149,2113.4,0.00021082,2094.3,-6.7912e-05,-0.0098561,-7.2938e-05,-37.775,1.0304
28382,14.692,4.6364,0.1,0.00021345,2133,0.00021284,2115.7,-6.8735e-05,-0.0080571,-7.3292e-05,-34.255,1.0188
28383,14.784,4.5455,0.1,0.0002113,2111.5,0.00021065,2093,-6.7912e-05,-0.009126,-7.2773e-05,-36.535,1.03
28384,14.692,4.8182,0.1,0.00021324,2130.9,0.00021267,2114.5,-6.8755e-05,-0.0064183,-7.3074e-05,-32.457,1.0183
28385,14.784,4.7273,0.1,0.00021108,2109.3,0.00021047,2091.7,-6.7922e-05,-0.0078702,-7.2563e-05,-34.88,1.0296
28386,14.692,5,0.1,0.000213,2128.6,0.00021247,2113.3,-6.8788e-05,-0.0040333,-7.2812e-05,-30.238,1.0178
28387,14.784,4.9091,0.1,0.00021083,2106.9,0.00021026,2090.3,-6.7946e-05,-0.0058123,-7.2307e-05,-32.773,1.0291
28388,14.692,5.1818,0.1,0.00021275,2126,0.00021227,2112.1,-6.8836e-05,-0.00016004,-7.2509e-05,-27.591,1.0172
28389,14.784,5.0909,0.1,0.00021056,2104.2,0.00021003,2088.9,-6.7985e-05,-0.0029587,-7.2003e-05,-30.195,1.0285
28390,14.692,5.3636,0.1,0.00021248,2123.4,0.00021206,2111,-6.8901e-05,0.0039564,-7.2167e-05,-24.538,1.0166
28391,14.784,5.2727,0.1,0.00021027,2101.3,0.0002098,2087.6,-6.8041e-05,0.0023036,-7.1655e-05,-27.151,1.028
28392,14.692,5.5455,0.1,0.00021222,2120.7,0.00021185,2110.1,-6.8981e-05,0.018742,-7.1798e-05,-21.148,1.016
28393,14.784,5.4545,0.1,0.00020997,2098.3,0.00020956,2086.4,-6.8115e-05,0.0058094,-7.1267e-05,-23.676,1.0273
28394,14.692,5.7273,0.1,0.00021206,2119.1,0.00021175,2110,-6.908e-05,0.02165,-7.1491e-05,-18.092,1.0153
28395,14.784,5.6364,0.1,0.00020968,2095.4,0.00020934,2085.4,-6.8206e-05,0.033782,-7.0856e-05,-19.88,1.0267
28396,14.784,5.8182,0.1,0.0002096,2094.6,0.00020931,2086,-6.8322e-05,0.0071894,-7.0592e-05,-17.054,1.026
28397,14.692,5.9091,0.1,0.00021128,2111.3,0.00021109,2105.9,-6.9185e-05,0.0071643,-7.0625e-05,-10.807,1.0145
28398,14.876,0.27273,0.1,0.00020721,2070.7,0.00020689,2061.3,-6.7447e-05,0.024345,-6.9944e-05,-18.735,1.0374
28399,14.968,0.18182,0.1,0.0002047,2045.6,0.0002044,2036.9,-6.6688e-05,0.0095081,-6.9004e-05,-17.391,1.0482
28400,14.876,0.090909,0.1,0.00020639,2062.5,0.0002062,2057,-6.7564e-05,0.0074854,-6.9024e-05,-10.962,1.0367
28401,14.876,0.45455,0.1,0.00020743,2072.9,0.00020704,2061.6,-6.734e-05,0.020157,-7.0321e-05,-22.374,1.0381
28402,14.968,0.36364,0.1,0.00020486,2047.2,0.00020449,2036.7,-6.6562e-05,0.037105,-6.9348e-05,-20.891,1.0489
28403,14.876,0.63636,0.1,0.00020776,2076.1,0.0002073,2062.9,-6.7255e-05,0.0036426,-7.0751e-05,-26.261,1.0387
28404,14.968,0.54545,0.1,0.00020521,2050.7,0.00020477,2038,-6.6465e-05,0.005607,-6.9827e-05,-25.258,1.0495
28405,14.876,0.81818,0.1,0.00020808,2079.4,0.00020756,2064.4,-6.7189e-05,-0.00081582,-7.1146e-05,-29.73,1.0393
28406,14.968,0.72727,0.1,0.00020558,2054.3,0.00020506,2039.6,-6.6388e-05,0.0017957,-7.0276e-05,-29.216,1.0501
28407,14.876,1,0.1,0.00020839,2082.5,0.00020781,2065.9,-6.7143e-05,-0.0049377,-7.1495e-05,-32.707,1.0399
28408,14.968,0.90909,0.1,0.00020593,2057.9,0.00020535,2041.3,-6.6332e-05,-0.0038842,-7.0678e-05,-32.652,1.0507
28409,14.876,1.1818,0.1,0.00020867,2085.3,0.00020805,2067.5,-6.7113e-05,-0.0073903,-7.1794e-05,-35.174,1.0404
28410,14.968,1.0909,0.1,0.00020626,2061.1,0.00020563,2043.1,-6.6297e-05,-0.0068499,-7.1025e-05,-35.529,1.0512
28411,14.876,1.3636,0.1,0.00020893,2087.8,0.00020827,2069,-6.7099e-05,-0.0090184,-7.2041e-05,-37.14,1.0408
28412,14.968,1.2727,0.1,0.00020655,2064.1,0.00020588,2044.9,-6.628e-05,-0.008931,-7.1316e-05,-37.846,1.0517
28413,14.876,1.5455,0.1,0.00020915,2090.1,0.00020847,2070.5,-6.7098e-05,-0.0099634,-7.2239e-05,-38.636,1.0412
28414,14.968,1.4545,0.1,0.00020682,2066.8,0.00020612,2046.7,-6.6279e-05,-0.010132,-7.1552e-05,-39.628,1.0521
28415,14.876,1.7273,0.1,0.00020934,2092,0.00020864,2071.8,-6.7107e-05,-0.010444,-7.2391e-05,-39.714,1.0416
28416,14.968,1.6364,0.1,0.00020705,2069,0.00020632,2048.3,-6.6289e-05,-0.010768,-7.1735e-05,-40.924,1.0525
28417,14.876,1.9091,0.1,0.0002095,2093.5,0.00020878,2073,-6.7123e-05,-0.010601,-7.2503e-05,-40.436,1.0419
28418,14.968,1.8182,0.1,0.00020724,2071,0.0002065,2049.7,-6.6309e-05,-0.010998,-7.1871e-05,-41.799,1.0528
28419,14.876,2.0909,0.1,0.00020963,2094.8,0.0002089,2074.1,-6.7143e-05,-0.010555,-7.2582e-05,-40.877,1.0422
28420,14.968,2,0.1,0.0002074,2072.5,0.00020664,2051,-6.6334e-05,-0.010969,-7.1966e-05,-42.333,1.0531
28421,14.876,2.2727,0.1,0.00020972,2095.8,0.00020899,2074.9,-6.7163e-05,-0.010399,-7.2633e-05,-41.109,1.0424
28422,14.968,2.1818,0.1,0.00020752,2073.8,0.00020676,2052.1,-6.6361e-05,-0.010791,-7.203e-05,-42.608,1.0534
28423,14.876,2.4545,0.1,0.0002098,2096.5,0.00020906,2075.6,-6.7182e-05,-0.010209,-7.2665e-05,-41.204,1.0426
28424,14.968,2.3636,0.1,0.00020761,2074.7,0.00020685,2053,-6.6386e-05,-0.010554,-7.2069e-05,-42.708,1.0535
28425,14.876,2.6364,0.1,0.00020985,2097,0.00020911,2076.1,-6.7198e-05,-0.010037,-7.2683e-05,-41.223,1.0427
28426,14.968,2.5455,0.1,0.00020768,2075.4,0.00020692,2053.7,-6.6408e-05,-0.010325,-7.2091e-05,-42.708,1.0537
28427,14.876,2.8182,0.1,0.00020987,2097.3,0.00020914,2076.4,-6.7208e-05,-0.0099189,-7.2692e-05,-41.215,1.0427
28428,14.968,2.7273,0.1,0.00020772,2075.8,0.00020696,2054.1,-6.6424e-05,-0.010147,-7.2102e-05,-42.671,1.0538
28429,14.876,3,0.1,0.00020988,2097.4,0.00020915,2076.5,-6.7211e-05,-0.0098773,-7.2694e-05,-41.209,1.0428
28430,14.968,2.9091,0.1,0.00020774,2076,0.00020698,2054.3,-6.6433e-05,-0.010051,-7.2106e-05,-42.641,1.0538
28431,14.876,3.1818,0.1,0.00020987,2097.3,0.00020914,2076.4,-6.7208e-05,-0.0099188,-7.2692e-05,-41.215,1.0427
28432,14.968,3.0909,0.1,0.00020774,2076,0.00020698,2054.3,-6.6433e-05,-0.010051,-7.2106e-05,-42.641,1.0538
28433,14.876,3.3636,0.1,0.00020985,2097,0.00020911,2076.1,-6.7198e-05,-0.010037,-7.2683e-05,-41.223,1.0427
28434,14.968,3.2727,0.1,0.00020772,2075.8,0.00020696,2054.1,-6.6424e-05,-0.010147,-7.2102e-05,-42.671,1.0538
28435,14.876,3.5455,0.1,0.0002098,2096.5,0.00020906,2075.6,-6.7182e-05,-0.010209,-7.2665e-05,-41.204,1.0426
28436,14.968,3.4545,0.1,0.00020768,2075.4,0.00020692,2053.7,-6.6408e-05,-0.010325,-7.2091e-05,-42.708,1.0537
28437,14.876,3.7273,0.1,0.00020972,2095.8,0.00020899,2074.9,-6.7163e-05,-0.010399,-7.2633e-05,-41.109,1.0424
28438,14.968,3.6364,0.1,0.00020761,2074.7,0.00020685,2053,-6.6386e-05,-0.010554,-7.2069e-05,-42.708,1.0535
28439,14.876,3.9091,0.1,0.00020963,2094.8,0.0002089,2074.1,-6.7143e-05,-0.010554,-7.2582e-05,-40.877,1.0422
28440,14.968,3.8182,0.1,0.00020752,2073.8,0.00020676,2052.1,-6.6361e-05,-0.010791,-7.203e-05,-42.608,1.0534
28441,14.876,4.0909,0.1,0.0002095,2093.6,0.00020878,2073,-6.7123e-05,-0.0106,-7.2503e-05,-40.436,1.0419
28442,14.968,4,0.1,0.0002074,2072.5,0.00020664,2051,-6.6334e-05,-0.010969,-7.1966e-05,-42.333,1.0531
28443,14.876,4.2727,0.1,0.00020934,2092,0.00020864,2071.8,-6.7107e-05,-0.010443,-7.2391e-05,-39.714,1.0416
28444,14.968,4.1818,0.1,0.00020724,2071,0.0002065,2049.7,-6.6309e-05,-0.010997,-7.1871e-05,-41.799,1.0528
28445,14.876,4.4545,0.1,0.00020915,2090.1,0.00020847,2070.5,-6.7098e-05,-0.0099629,-7.2239e-05,-38.636,1.0412
28446,14.968,4.3636,0.1,0.00020705,2069,0.00020632,2048.3,-6.6289e-05,-0.010767,-7.1735e-05,-40.924,1.0525
28447,14.876,4.6364,0.1,0.00020893,2087.8,0.00020827,2069,-6.7099e-05,-0.0090185,-7.2041e-05,-37.14,1.0408
28448,14.968,4.5455,0.1,0.00020682,2066.8,0.00020612,2046.7,-6.6279e-05,-0.010132,-7.1552e-05,-39.628,1.0521
28449,14.876,4.8182,0.1,0.00020867,2085.3,0.00020805,2067.5,-6.7113e-05,-0.00739,-7.1794e-05,-35.174,1.0404
28450,14.968,4.7273,0.1,0.00020655,2064.1,0.00020588,2044.9,-6.628e-05,-0.0089308,-7.1316e-05,-37.846,1.0517
28451,14.876,5,0.1,0.00020839,2082.5,0.00020781,2065.9,-6.7143e-05,-0.0049367,-7.1495e-05,-32.707,1.0399
28452,14.968,4.9091,0.1,0.00020626,2061.1,0.00020563,2043.1,-6.6297e-05,-0.0068494,-7.1025e-05,-35.529,1.0512
28453,14.876,5.1818,0.1,0.00020808,2079.4,0.00020756,2064.4,-6.7189e-05,-0.00081447,-7.1146e-05,-29.73,1.0393
28454,14.968,5.0909,0.1,0.00020593,2057.9,0.00020535,2041.3,-6.6332e-05,-0.0038832,-7.0678e-05,-32.652,1.0507
28455,14.876,5.3636,0.1,0.00020776,2076.1,0.0002073,2062.9,-6.7255e-05,0.0036426,-7.0751e-05,-26.261,1.0387
28456,14.968,5.2727,0.1,0.00020558,2054.3,0.00020506,2039.6,-6.6388e-05,0.0017972,-7.0276e-05,-29.216,1.0501
28457,14.876,5.5455,0.1,0.00020743,2072.9,0.00020704,2061.6,-6.734e-05,0.020158,-7.0321e-05,-22.374,1.0381
28458,14.968,5.4545,0.1,0.00020521,2050.7,0.00020477,2038,-6.6465e-05,0.0056079,-6.9827e-05,-25.258,1.0495
28459,14.876,5.7273,0.1,0.00020721,2070.7,0.00020689,2061.3,-6.7447e-05,0.024344,-6.9944e-05,-18.735,1.0374
28460,14.968,5.6364,0.1,0.00020486,2047.2,0.00020449,2036.7,-6.6562e-05,0.037105,-6.9348e-05,-20.891,1.0489
28461,14.968,5.8182,0.1,0.0002047,2045.6,0.0002044,2036.9,-6.6688e-05,0.0095079,-6.9004e-05,-17.391,1.0482
28462,14.876,5.9091,0.1,0.00020639,2062.5,0.0002062,2057,-6.7564e-05,0.0074854,-6.9024e-05,-10.962,1.0367
28463,15.06,0.27273,0.1,0.00020233,2021.9,0.000202,2012.2,-6.5803e-05,0.027445,-6.8394e-05,-19.439,1.0597
28464,15.151,0.18182,0.1,0.00019977,1996.3,0.00019946,1987.4,-6.5042e-05,0.012516,-6.7406e-05,-17.747,1.0705
28465,15.06,0.090909,0.1,0.00020147,2013.3,0.00020127,2007.7,-6.5931e-05,0.0077658,-6.7412e-05,-11.12,1.0589
28466,15.06,0.45455,0.1,0.00020263,2024.9,0.00020222,2012.9,-6.5687e-05,0.021653,-6.8849e-05,-23.741,1.0603
28467,15.151,0.36364,0.1,0.0002,1998.7,0.00019962,1987.6,-6.4904e-05,0.040814,-6.784e-05,-22.019,1.0712
28468,15.06,0.63636,0.1,0.00020303,2028.9,0.00020253,2014.6,-6.5597e-05,0.00315,-6.9349e-05,-28.185,1.061
28469,15.151,0.54545,0.1,0.00020044,2003,0.00019996,1989.3,-6.48e-05,0.0052738,-6.8398e-05,-27.029,1.0718
28470,15.06,0.81818,0.1,0.00020342,2032.8,0.00020285,2016.5,-6.5531e-05,-0.0016384,-6.9805e-05,-32.113,1.0616
28471,15.151,0.72727,0.1,0.00020087,2007.4,0.00020032,1991.4,-6.4721e-05,0.0011486,-6.8917e-05,-31.526,1.0724
28472,15.06,1,0.1,0.00020379,2036.5,0.00020316,2018.5,-6.5487e-05,-0.0060181,-7.0205e-05,-35.45,1.0621
28473,15.151,0.90909,0.1,0.0002013,2011.6,0.00020067,1993.7,-6.4668e-05,-0.0049773,-6.9378e-05,-35.393,1.073
28474,15.06,1.1818,0.1,0.00020413,2039.9,0.00020346,2020.6,-6.5465e-05,-0.0085267,-7.0545e-05,-38.179,1.0626
28475,15.151,1.0909,0.1,0.00020169,2015.6,0.00020101,1996,-6.4639e-05,-0.0080449,-6.9774e-05,-38.592,1.0735
28476,15.06,1.3636,0.1,0.00020444,2043,0.00020373,2022.5,-6.546e-05,-0.010127,-7.0824e-05,-40.314,1.063
28477,15.151,1.2727,0.1,0.00020206,2019.2,0.00020132,1998.3,-6.4632e-05,-0.010132,-7.0104e-05,-41.126,1.074
28478,15.06,1.5455,0.1,0.00020471,2045.7,0.00020397,2024.4,-6.547e-05,-0.010984,-7.1044e-05,-41.896,1.0634
28479,15.151,1.4545,0.1,0.00020238,2022.4,0.00020161,2000.5,-6.4642e-05,-0.011256,-7.0367e-05,-43.03,1.0744
28480,15.06,1.7273,0.1,0.00020494,2048,0.00020418,2026.2,-6.5491e-05,-0.011348,-7.1211e-05,-42.991,1.0638
28481,15.151,1.6364,0.1,0.00020265,2025.1,0.00020186,2002.6,-6.4666e-05,-0.011774,-7.0569e-05,-44.364,1.0748
28482,15.06,1.9091,0.1,0.00020513,2049.9,0.00020435,2027.7,-6.552e-05,-0.011378,-7.1331e-05,-43.677,1.0641
28483,15.151,1.8182,0.1,0.00020288,2027.4,0.00020208,2004.4,-6.4701e-05,-0.011867,-7.0716e-05,-45.211,1.0751
28484,15.06,2.0909,0.1,0.00020529,2051.4,0.0002045,2029.1,-6.5552e-05,-0.011209,-7.1412e-05,-44.046,1.0644
28485,15.151,2,0.1,0.00020307,2029.3,0.00020226,2006.1,-6.474e-05,-0.011702,-7.0817e-05,-45.669,1.0754
28486,15.06,2.2727,0.1,0.0002054,2052.6,0.00020462,2030.2,-6.5584e-05,-0.010946,-7.1464e-05,-44.189,1.0646
28487,15.151,2.1818,0.1,0.00020322,2030.8,0.0002024,2007.5,-6.4781e-05,-0.011401,-7.0881e-05,-45.84,1.0756
28488,15.06,2.4545,0.1,0.00020549,2053.5,0.0002047,2031,-6.5612e-05,-0.010669,-7.1493e-05,-44.194,1.0647
28489,15.151,2.3636,0.1,0.00020334,2032,0.00020252,2008.7,-6.4819e-05,-0.011063,-7.0917e-05,-45.829,1.0758
28490,15.06,2.6364,0.1,0.00020555,2054.1,0.00020477,2031.7,-6.5635e-05,-0.010434,-7.1508e-05,-44.138,1.0648
28491,15.151,2.5455,0.1,0.00020342,2032.8,0.0002026,2009.5,-6.4851e-05,-0.010759,-7.0935e-05,-45.728,1.0759
28492,15.06,2.8182,0.1,0.00020559,2054.4,0.0002048,2032,-6.5649e-05,-0.01028,-7.1514e-05,-44.079,1.0649
28493,15.151,2.7273,0.1,0.00020347,2033.3,0.00020265,2010.1,-6.4874e-05,-0.010532,-7.0943e-05,-45.614,1.076
28494,15.06,3,0.1,0.0002056,2054.6,0.00020481,2032.2,-6.5654e-05,-0.010226,-7.1516e-05,-44.055,1.0649
28495,15.151,2.9091,0.1,0.00020349,2033.5,0.00020268,2010.4,-6.4885e-05,-0.010412,-7.0945e-05,-45.543,1.0761
28496,15.06,3.1818,0.1,0.00020559,2054.4,0.0002048,2032,-6.5649e-05,-0.01028,-7.1514e-05,-44.079,1.0649
28497,15.151,3.0909,0.1,0.00020349,2033.5,0.00020268,2010.4,-6.4885e-05,-0.010412,-7.0945e-05,-45.543,1.0761
28498,15.06,3.3636,0.1,0.00020555,2054.1,0.00020477,2031.7,-6.5635e-05,-0.010434,-7.1508e-05,-44.138,1.0648
28499,15.151,3.2727,0.1,0.00020347,2033.3,0.00020265,2010.1,-6.4874e-05,-0.010532,-7.0943e-05,-45.614,1.076
28500,15.06,3.5455,0.1,0.00020549,2053.5,0.0002047,2031,-6.5612e-05,-0.010669,-7.1493e-05,-44.194,1.0647
28501,15.151,3.4545,0.1,0.00020342,2032.8,0.0002026,2009.5,-6.4851e-05,-0.010758,-7.0935e-05,-45.728,1.0759
28502,15.06,3.7273,0.1,0.0002054,2052.6,0.00020462,2030.2,-6.5584e-05,-0.010946,-7.1464e-05,-44.189,1.0646
28503,15.151,3.6364,0.1,0.00020334,2032,0.00020252,2008.7,-6.4819e-05,-0.011063,-7.0917e-05,-45.829,1.0758
28504,15.06,3.9091,0.1,0.00020529,2051.4,0.0002045,2029.1,-6.5552e-05,-0.011209,-7.1412e-05,-44.046,1.0644
28505,15.151,3.8182,0.1,0.00020322,2030.8,0.0002024,2007.5,-6.4781e-05,-0.011401,-7.0881e-05,-45.841,1.0756
28506,15.06,4.0909,0.1,0.00020513,2049.9,0.00020435,2027.7,-6.552e-05,-0.011377,-7.1331e-05,-43.677,1.0641
28507,15.151,4,0.1,0.00020307,2029.3,0.00020226,2006.1,-6.474e-05,-0.011702,-7.0817e-05,-45.669,1.0754
28508,15.06,4.2727,0.1,0.00020494,2048,0.00020418,2026.2,-6.5491e-05,-0.011348,-7.1211e-05,-42.991,1.0638
28509,15.151,4.1818,0.1,0.00020288,2027.4,0.00020208,2004.4,-6.4701e-05,-0.011867,-7.0716e-05,-45.211,1.0751
28510,15.06,4.4545,0.1,0.00020471,2045.7,0.00020397,2024.4,-6.547e-05,-0.010984,-7.1044e-05,-41.896,1.0634
28511,15.151,4.3636,0.1,0.00020265,2025.1,0.00020186,2002.6,-6.4666e-05,-0.011774,-7.0569e-05,-44.364,1.0748
28512,15.06,4.6364,0.1,0.00020444,2043,0.00020373,2022.5,-6.546e-05,-0.010127,-7.0824e-05,-40.314,1.063
28513,15.151,4.5455,0.1,0.00020238,2022.4,0.00020161,2000.5,-6.4642e-05,-0.011256,-7.0367e-05,-43.03,1.0744
28514,15.06,4.8182,0.1,0.00020413,2039.9,0.00020346,2020.6,-6.5465e-05,-0.0085264,-7.0545e-05,-38.179,1.0626
28515,15.151,4.7273,0.1,0.00020206,2019.2,0.00020132,1998.3,-6.4632e-05,-0.010131,-7.0104e-05,-41.126,1.074
28516,15.06,5,0.1,0.00020379,2036.5,0.00020316,2018.5,-6.5487e-05,-0.0060176,-7.0205e-05,-35.451,1.0621
28517,15.151,4.9091,0.1,0.00020169,2015.6,0.00020101,1996,-6.4639e-05,-0.0080446,-6.9774e-05,-38.592,1.0735
28518,15.06,5.1818,0.1,0.00020342,2032.8,0.00020285,2016.5,-6.5531e-05,-0.0016373,-6.9805e-05,-32.113,1.0616
28519,15.151,5.0909,0.1,0.0002013,2011.6,0.00020067,1993.7,-6.4668e-05,-0.0049768,-6.9378e-05,-35.393,1.073
28520,15.06,5.3636,0.1,0.00020303,2028.9,0.00020253,2014.6,-6.5597e-05,0.003151,-6.9349e-05,-28.185,1.061
28521,15.151,5.2727,0.1,0.00020087,2007.4,0.00020032,1991.4,-6.4721e-05,0.0011495,-6.8917e-05,-31.526,1.0724
28522,15.06,5.5455,0.1,0.00020263,2024.9,0.00020222,2012.9,-6.5687e-05,0.021654,-6.8849e-05,-23.741,1.0603
28523,15.151,5.4545,0.1,0.00020044,2003,0.00019996,1989.3,-6.48e-05,0.0052746,-6.8398e-05,-27.029,1.0718
28524,15.06,5.7273,0.1,0.00020233,2021.9,0.000202,2012.2,-6.5803e-05,0.027445,-6.8394e-05,-19.439,1.0597
28525,15.151,5.6364,0.1,0.0002,1998.7,0.00019962,1987.6,-6.4904e-05,0.040814,-6.784e-05,-22.019,1.0712
28526,15.151,5.8182,0.1,0.00019977,1996.3,0.00019946,1987.4,-6.5042e-05,0.012516,-6.7406e-05,-17.747,1.0705
28527,15.06,5.9091,0.1,0.00020147,2013.3,0.00020127,2007.7,-6.5931e-05,0.0077651,-6.7412e-05,-11.12,1.0589
28528,15.243,0.27273,0.1,0.00019742,1972.8,0.00019707,1962.7,-6.4142e-05,0.031061,-6.6837e-05,-20.218,1.0821
28529,15.335,0.18182,0.1,0.00019478,1946.5,0.00019447,1937.4,-6.3377e-05,0.016388,-6.5792e-05,-18.13,1.093
28530,15.243,0.090909,0.1,0.0001965,1963.6,0.0001963,1958,-6.4284e-05,0.0080348,-6.5787e-05,-11.282,1.0813
28531,15.243,0.45455,0.1,0.0001978,1976.7,0.00019736,1963.9,-6.4017e-05,0.023274,-6.7384e-05,-25.272,1.0827
28532,15.335,0.36364,0.1,0.00019511,1949.8,0.00019471,1938,-6.3226e-05,0.044944,-6.6331e-05,-23.283,1.0936
28533,15.243,0.63636,0.1,0.00019828,1981.4,0.00019775,1966.1,-6.3923e-05,0.0025343,-6.7962e-05,-30.342,1.0833
28534,15.335,0.54545,0.1,0.00019563,1955,0.00019512,1940.3,-6.3116e-05,0.0047679,-6.6979e-05,-29.021,1.0943
28535,15.243,0.81818,0.1,0.00019875,1986.1,0.00019814,1968.5,-6.3858e-05,-0.0026088,-6.8487e-05,-34.781,1.0839
28536,15.335,0.72727,0.1,0.00019616,1960.3,0.00019556,1943,-6.3036e-05,0.00032886,-6.7577e-05,-34.122,1.0949
28537,15.243,1,0.1,0.0001992,1990.6,0.00019852,1971.1,-6.382e-05,-0.0072512,-6.8944e-05,-38.513,1.0844
28538,15.335,0.90909,0.1,0.00019667,1965.3,0.00019599,1945.8,-6.2987e-05,-0.0062676,-6.8106e-05,-38.466,1.0954
28539,15.243,1.1818,0.1,0.00019961,1994.8,0.00019887,1973.7,-6.3806e-05,-0.0097976,-6.9331e-05,-41.52,1.0849
28540,15.335,1.0909,0.1,0.00019715,1970.1,0.0001964,1948.8,-6.2967e-05,-0.0094187,-6.8558e-05,-42.014,1.0959
28541,15.243,1.3636,0.1,0.00019999,1998.5,0.0001992,1976.2,-6.3814e-05,-0.011347,-6.9645e-05,-43.824,1.0854
28542,15.335,1.2727,0.1,0.00019758,1974.5,0.00019678,1951.7,-6.2973e-05,-0.011489,-6.893e-05,-44.774,1.0964
28543,15.243,1.5455,0.1,0.00020031,2001.7,0.0001995,1978.6,-6.3838e-05,-0.012092,-6.989e-05,-45.479,1.0858
28544,15.335,1.4545,0.1,0.00019797,1978.3,0.00019713,1954.5,-6.2999e-05,-0.012509,-6.9225e-05,-46.791,1.0968
28545,15.243,1.7273,0.1,0.00020059,2004.5,0.00019976,1980.8,-6.3876e-05,-0.012314,-7.0072e-05,-46.567,1.0861
28546,15.335,1.6364,0.1,0.0001983,1981.7,0.00019744,1957.1,-6.3042e-05,-0.012881,-6.9448e-05,-48.142,1.0972
28547,15.243,1.9091,0.1,0.00020082,2006.8,0.00019998,1982.8,-6.3921e-05,-0.012197,-7.02e-05,-47.185,1.0864
28548,15.335,1.8182,0.1,0.00019858,1984.5,0.00019771,1959.6,-6.3095e-05,-0.012814,-6.9606e-05,-48.93,1.0975
28549,15.243,2.0909,0.1,0.00020101,2008.7,0.00020016,1984.5,-6.397e-05,-0.011891,-7.0283e-05,-47.446,1.0867
28550,15.335,2,0.1,0.00019882,1986.8,0.00019793,1961.7,-6.3154e-05,-0.012496,-6.971e-05,-49.273,1.0978
28551,15.243,2.2727,0.1,0.00020115,2010.1,0.0002003,1986,-6.4016e-05,-0.011513,-7.0332e-05,-47.463,1.0869
28552,15.335,2.1818,0.1,0.000199,1988.6,0.00019811,1963.5,-6.3213e-05,-0.012063,-6.9773e-05,-49.3,1.098
28553,15.243,2.4545,0.1,0.00020126,2011.2,0.00020041,1987.1,-6.4057e-05,-0.011147,-7.0357e-05,-47.345,1.087
28554,15.335,2.3636,0.1,0.00019914,1990,0.00019825,1965,-6.3267e-05,-0.011622,-6.9805e-05,-49.138,1.0982
28555,15.243,2.6364,0.1,0.00020133,2011.9,0.00020049,1987.9,-6.4089e-05,-0.010853,-7.0368e-05,-47.187,1.0872
28556,15.335,2.5455,0.1,0.00019923,1991,0.00019836,1966.1,-6.3311e-05,-0.011246,-6.9818e-05,-48.902,1.0983
28557,15.243,2.8182,0.1,0.00020137,2012.4,0.00020053,1988.4,-6.411e-05,-0.010663,-7.0372e-05,-47.061,1.0872
28558,15.335,2.7273,0.1,0.0001993,1991.6,0.00019842,1966.8,-6.3343e-05,-0.010975,-6.9821e-05,-48.688,1.0984
28559,15.243,3,0.1,0.00020139,2012.5,0.00020055,1988.6,-6.4117e-05,-0.010598,-7.0372e-05,-47.013,1.0872
28560,15.335,2.9091,0.1,0.00019933,1991.9,0.00019846,1967.2,-6.3359e-05,-0.010835,-6.9821e-05,-48.563,1.0984
28561,15.243,3.1818,0.1,0.00020137,2012.4,0.00020053,1988.4,-6.411e-05,-0.010663,-7.0372e-05,-47.061,1.0872
28562,15.335,3.0909,0.1,0.00019933,1991.9,0.00019846,1967.2,-6.3359e-05,-0.010836,-6.9821e-05,-48.563,1.0984
28563,15.243,3.3636,0.1,0.00020133,2011.9,0.00020049,1987.9,-6.4089e-05,-0.010852,-7.0368e-05,-47.187,1.0872
28564,15.335,3.2727,0.1,0.0001993,1991.6,0.00019842,1966.8,-6.3343e-05,-0.010975,-6.9821e-05,-48.688,1.0984
28565,15.243,3.5455,0.1,0.00020126,2011.2,0.00020041,1987.1,-6.4057e-05,-0.011147,-7.0357e-05,-47.345,1.087
28566,15.335,3.4545,0.1,0.00019923,1991,0.00019836,1966.1,-6.3311e-05,-0.011245,-6.9818e-05,-48.902,1.0983
28567,15.243,3.7273,0.1,0.00020115,2010.1,0.0002003,1986,-6.4016e-05,-0.011512,-7.0332e-05,-47.463,1.0869
28568,15.335,3.6364,0.1,0.00019914,1990,0.00019825,1965,-6.3267e-05,-0.011622,-6.9805e-05,-49.138,1.0982
28569,15.243,3.9091,0.1,0.00020101,2008.7,0.00020016,1984.5,-6.397e-05,-0.011891,-7.0283e-05,-47.446,1.0867
28570,15.335,3.8182,0.1,0.000199,1988.6,0.00019811,1963.5,-6.3213e-05,-0.012063,-6.9773e-05,-49.301,1.098
28571,15.243,4.0909,0.1,0.00020082,2006.8,0.00019998,1982.8,-6.3921e-05,-0.012197,-7.02e-05,-47.185,1.0864
28572,15.335,4,0.1,0.00019882,1986.8,0.00019793,1961.7,-6.3154e-05,-0.012495,-6.971e-05,-49.273,1.0978
28573,15.243,4.2727,0.1,0.00020059,2004.5,0.00019976,1980.8,-6.3876e-05,-0.012314,-7.0072e-05,-46.567,1.0861
28574,15.335,4.1818,0.1,0.00019858,1984.5,0.00019771,1959.6,-6.3095e-05,-0.012814,-6.9606e-05,-48.93,1.0975
28575,15.243,4.4545,0.1,0.00020031,2001.7,0.0001995,1978.6,-6.3838e-05,-0.012091,-6.989e-05,-45.479,1.0858
28576,15.335,4.3636,0.1,0.0001983,1981.7,0.00019744,1957.1,-6.3042e-05,-0.01288,-6.9448e-05,-48.142,1.0972
28577,15.243,4.6364,0.1,0.00019999,1998.5,0.0001992,1976.2,-6.3814e-05,-0.011346,-6.9645e-05,-43.824,1.0854
28578,15.335,4.5455,0.1,0.00019797,1978.3,0.00019713,1954.5,-6.2999e-05,-0.012507,-6.9225e-05,-46.792,1.0968
28579,15.243,4.8182,0.1,0.00019961,1994.8,0.00019887,1973.7,-6.3806e-05,-0.0097969,-6.9331e-05,-41.52,1.0849
28580,15.335,4.7273,0.1,0.00019758,1974.5,0.00019678,1951.7,-6.2973e-05,-0.011489,-6.893e-05,-44.774,1.0964
28581,15.243,5,0.1,0.0001992,1990.6,0.00019852,1971.1,-6.382e-05,-0.0072508,-6.8944e-05,-38.513,1.0844
28582,15.335,4.9091,0.1,0.00019715,1970.1,0.0001964,1948.8,-6.2967e-05,-0.0094184,-6.8558e-05,-42.014,1.0959
28583,15.243,5.1818,0.1,0.00019875,1986.1,0.00019814,1968.5,-6.3858e-05,-0.0026085,-6.8487e-05,-34.781,1.0839
28584,15.335,5.0909,0.1,0.00019667,1965.3,0.00019599,1945.8,-6.2987e-05,-0.0062668,-6.8106e-05,-38.466,1.0954
28585,15.243,5.3636,0.1,0.00019828,1981.4,0.00019775,1966.1,-6.3923e-05,0.002535,-6.7962e-05,-30.342,1.0833
28586,15.335,5.2727,0.1,0.00019616,1960.3,0.00019556,1943,-6.3036e-05,0.00032986,-6.7577e-05,-34.122,1.0949
28587,15.243,5.5455,0.1,0.0001978,1976.7,0.00019736,1963.9,-6.4017e-05,0.023274,-6.7384e-05,-25.272,1.0827
28588,15.335,5.4545,0.1,0.00019563,1955,0.00019512,1940.3,-6.3116e-05,0.004769,-6.6979e-05,-29.021,1.0943
28589,15.243,5.7273,0.1,0.00019742,1972.8,0.00019707,1962.7,-6.4142e-05,0.03106,-6.6837e-05,-20.218,1.0821
28590,15.335,5.6364,0.1,0.00019511,1949.8,0.00019471,1938,-6.3226e-05,0.044943,-6.6331e-05,-23.283,1.0936
28591,15.335,5.8182,0.1,0.00019478,1946.5,0.00019447,1937.4,-6.3377e-05,0.016387,-6.5792e-05,-18.13,1.093
28592,15.243,5.9091,0.1,0.0001965,1963.6,0.0001963,1958,-6.4284e-05,0.0080358,-6.5787e-05,-11.282,1.0813
28593,15.427,0.27273,0.1,0.00019246,1923.2,0.00019209,1912.6,-6.246e-05,0.035201,-6.5271e-05,-21.085,1.1046
28594,15.519,0.18182,0.1,0.00018973,1896,0.00018941,1886.6,-6.1688e-05,0.021346,-6.4158e-05,-18.544,1.1155
28595,15.427,0.090909,0.1,0.00019147,1913.4,0.00019128,1907.7,-6.2617e-05,0.008229,-6.4142e-05,-11.452,1.1039
28596,15.427,0.45455,0.1,0.00019294,1928,0.00019246,1914.4,-6.2325e-05,0.024957,-6.5921e-05,-26.996,1.1052
28597,15.519,0.36364,0.1,0.00019017,1900.4,0.00018974,1887.9,-6.1523e-05,0.049543,-6.4818e-05,-24.706,1.1162
28598,15.427,0.63636,0.1,0.00019351,1933.8,0.00019293,1917.2,-6.2228e-05,0.0016916,-6.659e-05,-32.773,1.1058
28599,15.519,0.54545,0.1,0.00019079,1906.6,0.00019024,1890.8,-6.1406e-05,0.0040619,-6.5569e-05,-31.27,1.1168
28600,15.427,0.81818,0.1,0.00019408,1939.4,0.00019341,1920.3,-6.2165e-05,-0.0038087,-6.7193e-05,-37.783,1.1064
28601,15.519,0.72727,0.1,0.00019143,1912.9,0.00019077,1894.1,-6.1327e-05,-0.0006766,-6.6258e-05,-37.049,1.1174
28602,15.427,1,0.1,0.00019462,1944.8,0.00019387,1923.5,-6.2135e-05,-0.0087108,-6.7716e-05,-41.947,1.1069
28603,15.519,0.90909,0.1,0.00019204,1919.1,0.00019129,1897.7,-6.1285e-05,-0.0077611,-6.6864e-05,-41.923,1.118
28604,15.427,1.1818,0.1,0.00019511,1949.8,0.0001943,1926.8,-6.2134e-05,-0.01127,-6.8155e-05,-45.25,1.1074
28605,15.519,1.0909,0.1,0.00019261,1924.8,0.00019179,1901.4,-6.1278e-05,-0.010968,-6.7379e-05,-45.852,1.1185
28606,15.427,1.3636,0.1,0.00019556,1954.3,0.00019471,1930,-6.2158e-05,-0.012739,-6.8509e-05,-47.725,1.1078
28607,15.519,1.2727,0.1,0.00019314,1930,0.00019226,1905.1,-6.1301e-05,-0.012992,-6.7801e-05,-48.849,1.1189
28608,15.427,1.5455,0.1,0.00019596,1958.2,0.00019507,1933,-6.2203e-05,-0.013341,-6.8781e-05,-49.438,1.1082
28609,15.519,1.4545,0.1,0.0001936,1934.7,0.00019269,1908.7,-6.1349e-05,-0.013871,-6.8131e-05,-50.972,1.1193
28610,15.427,1.7273,0.1,0.0001963,1961.6,0.00019539,1935.9,-6.2262e-05,-0.013395,-6.8979e-05,-50.49,1.1086
28611,15.519,1.6364,0.1,0.00019401,1938.7,0.00019307,1912.1,-6.1415e-05,-0.014067,-6.8376e-05,-52.315,1.1197
28612,15.427,1.9091,0.1,0.00019658,1964.4,0.00019566,1938.4,-6.2328e-05,-0.01311,-6.9115e-05,-51.002,1.1089
28613,15.519,1.8182,0.1,0.00019435,1942.2,0.0001934,1915.1,-6.1494e-05,-0.013815,-6.8546e-05,-53.005,1.12
28614,15.427,2.0909,0.1,0.0001968,1966.7,0.00019588,1940.6,-6.2398e-05,-0.012656,-6.9199e-05,-51.112,1.1091
28615,15.519,2,0.1,0.00019463,1945,0.00019367,1917.8,-6.1577e-05,-0.013327,-6.8654e-05,-53.189,1.1203
28616,15.427,2.2727,0.1,0.00019698,1968.4,0.00019606,1942.4,-6.2463e-05,-0.012159,-6.9244e-05,-50.96,1.1093
28617,15.519,2.1818,0.1,0.00019485,1947.2,0.0001939,1920.1,-6.1659e-05,-0.012757,-6.8714e-05,-53.023,1.1205
28618,15.427,2.4545,0.1,0.00019711,1969.7,0.0001962,1943.9,-6.252e-05,-0.01171,-6.9264e-05,-50.679,1.1095
28619,15.519,2.3636,0.1,0.00019502,1948.9,0.00019407,1922,-6.1733e-05,-0.01222,-6.874e-05,-52.663,1.1207
28620,15.427,2.6364,0.1,0.0001972,1970.6,0.00019629,1944.9,-6.2565e-05,-0.011363,-6.9269e-05,-50.387,1.1096
28621,15.519,2.5455,0.1,0.00019515,1950.1,0.0001942,1923.5,-6.1793e-05,-0.011784,-6.8746e-05,-52.252,1.1208
28622,15.427,2.8182,0.1,0.00019725,1971.1,0.00019635,1945.6,-6.2592e-05,-0.011147,-6.9268e-05,-50.173,1.1097
28623,15.519,2.7273,0.1,0.00019522,1950.9,0.00019429,1924.4,-6.1836e-05,-0.011486,-6.8743e-05,-51.907,1.1209
28624,15.427,3,0.1,0.00019727,1971.3,0.00019637,1945.8,-6.2602e-05,-0.011074,-6.9268e-05,-50.095,1.1097
28625,15.519,2.9091,0.1,0.00019526,1951.3,0.00019433,1924.9,-6.1859e-05,-0.011335,-6.874e-05,-51.713,1.121
28626,15.427,3.1818,0.1,0.00019725,1971.1,0.00019635,1945.6,-6.2592e-05,-0.011148,-6.9268e-05,-50.173,1.1097
28627,15.519,3.0909,0.1,0.00019526,1951.3,0.00019433,1924.9,-6.1859e-05,-0.011335,-6.874e-05,-51.713,1.121
28628,15.427,3.3636,0.1,0.0001972,1970.6,0.00019629,1944.9,-6.2565e-05,-0.011364,-6.9269e-05,-50.387,1.1096
28629,15.519,3.2727,0.1,0.00019522,1950.9,0.00019429,1924.4,-6.1836e-05,-0.011486,-6.8743e-05,-51.907,1.1209
28630,15.427,3.5455,0.1,0.00019711,1969.7,0.0001962,1943.9,-6.252e-05,-0.01171,-6.9264e-05,-50.679,1.1095
28631,15.519,3.4545,0.1,0.00019515,1950.1,0.0001942,1923.5,-6.1793e-05,-0.011785,-6.8746e-05,-52.252,1.1208
28632,15.427,3.7273,0.1,0.00019698,1968.4,0.00019606,1942.4,-6.2463e-05,-0.012159,-6.9244e-05,-50.96,1.1093
28633,15.519,3.6364,0.1,0.00019502,1948.9,0.00019407,1922,-6.1733e-05,-0.012219,-6.874e-05,-52.663,1.1207
28634,15.427,3.9091,0.1,0.0001968,1966.7,0.00019588,1940.6,-6.2398e-05,-0.012656,-6.9199e-05,-51.112,1.1091
28635,15.519,3.8182,0.1,0.00019485,1947.2,0.0001939,1920.1,-6.1659e-05,-0.012757,-6.8714e-05,-53.023,1.1205
28636,15.427,4.0909,0.1,0.00019658,1964.4,0.00019566,1938.4,-6.2328e-05,-0.01311,-6.9115e-05,-51.002,1.1089
28637,15.519,4,0.1,0.00019463,1945,0.00019367,1917.8,-6.1577e-05,-0.013327,-6.8654e-05,-53.189,1.1203
28638,15.427,4.2727,0.1,0.0001963,1961.6,0.00019539,1935.9,-6.2262e-05,-0.013395,-6.8979e-05,-50.49,1.1086
28639,15.519,4.1818,0.1,0.00019435,1942.2,0.0001934,1915.1,-6.1494e-05,-0.013815,-6.8546e-05,-53.005,1.12
28640,15.427,4.4545,0.1,0.00019596,1958.2,0.00019507,1933,-6.2203e-05,-0.01334,-6.8781e-05,-49.438,1.1082
28641,15.519,4.3636,0.1,0.00019401,1938.7,0.00019307,1912.1,-6.1415e-05,-0.014067,-6.8376e-05,-52.315,1.1197
28642,15.427,4.6364,0.1,0.00019556,1954.3,0.00019471,1930,-6.2158e-05,-0.012738,-6.8509e-05,-47.725,1.1078
28643,15.519,4.5455,0.1,0.0001936,1934.7,0.00019269,1908.7,-6.1349e-05,-0.013871,-6.8131e-05,-50.972,1.1193
28644,15.427,4.8182,0.1,0.00019511,1949.8,0.0001943,1926.8,-6.2134e-05,-0.01127,-6.8155e-05,-45.251,1.1074
28645,15.519,4.7273,0.1,0.00019314,1930,0.00019226,1905.1,-6.1301e-05,-0.012992,-6.7801e-05,-48.849,1.1189
28646,15.427,5,0.1,0.00019462,1944.8,0.00019387,1923.5,-6.2135e-05,-0.00871,-6.7716e-05,-41.947,1.1069
28647,15.519,4.9091,0.1,0.00019261,1924.8,0.00019179,1901.4,-6.1278e-05,-0.010969,-6.7379e-05,-45.852,1.1185
28648,15.427,5.1818,0.1,0.00019408,1939.4,0.00019341,1920.3,-6.2165e-05,-0.0038072,-6.7193e-05,-37.783,1.1064
28649,15.519,5.0909,0.1,0.00019204,1919.1,0.00019129,1897.7,-6.1285e-05,-0.0077595,-6.6864e-05,-41.923,1.118
28650,15.427,5.3636,0.1,0.00019351,1933.8,0.00019293,1917.2,-6.2228e-05,0.001693,-6.659e-05,-32.773,1.1058
28651,15.519,5.2727,0.1,0.00019143,1912.9,0.00019077,1894.1,-6.1327e-05,-0.00067509,-6.6258e-05,-37.049,1.1174
28652,15.427,5.5455,0.1,0.00019294,1928,0.00019246,1914.4,-6.2325e-05,0.024958,-6.5921e-05,-26.996,1.1052
28653,15.519,5.4545,0.1,0.00019079,1906.6,0.00019024,1890.8,-6.1406e-05,0.0040624,-6.5569e-05,-31.27,1.1168
28654,15.427,5.7273,0.1,0.00019246,1923.2,0.00019209,1912.6,-6.246e-05,0.035201,-6.5271e-05,-21.085,1.1046
28655,15.519,5.6364,0.1,0.00019017,1900.4,0.00018974,1887.9,-6.1523e-05,0.049543,-6.4818e-05,-24.706,1.1162
28656,15.519,5.8182,0.1,0.00018973,1896,0.00018941,1886.6,-6.1688e-05,0.021346,-6.4158e-05,-18.544,1.1155
28657,15.427,5.9091,0.1,0.00019147,1913.4,0.00019128,1907.7,-6.2617e-05,0.0082288,-6.4142e-05,-11.452,1.1039
28658,15.611,0.27273,0.1,0.00018742,1872.9,0.00018704,1861.8,-6.075e-05,0.040006,-6.3691e-05,-22.055,1.1272
28659,15.702,0.18182,0.1,0.00018458,1844.6,0.00018425,1835,-5.9966e-05,0.027673,-6.2499e-05,-18.998,1.1383
28660,15.611,0.090909,0.1,0.00018637,1862.4,0.00018617,1856.6,-6.0924e-05,0.0084051,-6.2473e-05,-11.631,1.1265
28661,15.611,0.45455,0.1,0.00018802,1878.9,0.00018751,1864.3,-6.0605e-05,0.026775,-6.446e-05,-28.944,1.1279
28662,15.702,0.36364,0.1,0.00018515,1850.2,0.00018469,1837,-5.9787e-05,0.054685,-6.3297e-05,-26.314,1.1389
28663,15.611,0.63636,0.1,0.00018871,1885.8,0.00018808,1867.7,-6.0505e-05,0.00066832,-6.5233e-05,-35.52,1.1285
28664,15.702,0.54545,0.1,0.0001859,1857.7,0.0001853,1840.6,-5.9665e-05,0.0031529,-6.4166e-05,-33.815,1.1395
28665,15.611,0.81818,0.1,0.00018938,1892.5,0.00018865,1871.6,-6.0447e-05,-0.0051764,-6.5925e-05,-41.168,1.129
28666,15.702,0.72727,0.1,0.00018666,1865.3,0.00018594,1844.8,-5.9587e-05,-0.0018448,-6.4959e-05,-40.359,1.1401
28667,15.611,1,0.1,0.00019003,1899,0.00018921,1875.7,-6.0428e-05,-0.010327,-6.6524e-05,-45.81,1.1295
28668,15.702,0.90909,0.1,0.00018739,1872.6,0.00018657,1849.3,-5.9556e-05,-0.0094237,-6.5654e-05,-45.825,1.1406
28669,15.611,1.1818,0.1,0.00019063,1905,0.00018974,1879.8,-6.0445e-05,-0.012864,-6.7022e-05,-49.434,1.13
28670,15.702,1.0909,0.1,0.00018808,1879.5,0.00018718,1853.9,-5.9566e-05,-0.012649,-6.6242e-05,-50.172,1.1411
28671,15.611,1.3636,0.1,0.00019117,1910.4,0.00019023,1883.8,-6.0491e-05,-0.014215,-6.7421e-05,-52.081,1.1304
28672,15.702,1.2727,0.1,0.00018871,1885.8,0.00018775,1858.6,-5.9612e-05,-0.014586,-6.672e-05,-53.419,1.1416
28673,15.611,1.5455,0.1,0.00019165,1915.2,0.00019068,1887.7,-6.0561e-05,-0.014636,-6.7724e-05,-53.834,1.1308
28674,15.702,1.4545,0.1,0.00018928,1891.5,0.00018827,1863.1,-5.9688e-05,-0.015282,-6.7091e-05,-55.639,1.142
28675,15.611,1.7273,0.1,0.00019206,1919.3,0.00019107,1891.3,-6.0647e-05,-0.014492,-6.7941e-05,-54.817,1.1312
28676,15.702,1.6364,0.1,0.00018977,1896.4,0.00018874,1867.3,-5.9785e-05,-0.015264,-6.7362e-05,-56.948,1.1423
28677,15.611,1.9091,0.1,0.00019241,1922.7,0.00019141,1894.5,-6.0742e-05,-0.014018,-6.8084e-05,-55.178,1.1315
28678,15.702,1.8182,0.1,0.00019019,1900.6,0.00018915,1871.2,-5.9895e-05,-0.014798,-6.7546e-05,-57.497,1.1427
28679,15.611,2.0909,0.1,0.00019268,1925.5,0.00019169,1897.4,-6.0838e-05,-0.013406,-6.8168e-05,-55.085,1.1317
28680,15.702,2,0.1,0.00019054,1904.1,0.00018949,1874.7,-6.001e-05,-0.014126,-6.7657e-05,-57.467,1.1429
28681,15.611,2.2727,0.1,0.0001929,1927.7,0.00019191,1899.7,-6.0928e-05,-0.012797,-6.8208e-05,-54.711,1.1319
28682,15.702,2.1818,0.1,0.00019081,1906.8,0.00018978,1877.6,-6.0122e-05,-0.013423,-6.7713e-05,-57.049,1.1431
28683,15.611,2.4545,0.1,0.00019306,1929.3,0.00019208,1901.6,-6.1006e-05,-0.01228,-6.822e-05,-54.221,1.1321
28684,15.702,2.3636,0.1,0.00019102,1908.9,0.00019,1880,-6.0221e-05,-0.012808,-6.7731e-05,-56.435,1.1433
28685,15.611,2.6364,0.1,0.00019317,1930.4,0.0001922,1902.9,-6.1065e-05,-0.011902,-6.8218e-05,-53.756,1.1322
28686,15.702,2.5455,0.1,0.00019117,1910.4,0.00019016,1881.9,-6.0303e-05,-0.012342,-6.7728e-05,-55.801,1.1435
28687,15.611,2.8182,0.1,0.00019323,1931,0.00019227,1903.7,-6.1103e-05,-0.011676,-6.8212e-05,-53.431,1.1322
28688,15.702,2.7273,0.1,0.00019127,1911.3,0.00019026,1883.1,-6.036e-05,-0.012042,-6.7717e-05,-55.29,1.1435
28689,15.611,3,0.1,0.00019325,1931.2,0.00019229,1904,-6.1115e-05,-0.011601,-6.821e-05,-53.314,1.1323
28690,15.702,2.9091,0.1,0.00019131,1911.8,0.00019032,1883.7,-6.039e-05,-0.011897,-6.7709e-05,-55.008,1.1436
28691,15.611,3.1818,0.1,0.00019323,1931,0.00019227,1903.7,-6.1103e-05,-0.011676,-6.8212e-05,-53.431,1.1322
28692,15.702,3.0909,0.1,0.00019131,1911.8,0.00019032,1883.7,-6.039e-05,-0.011898,-6.7709e-05,-55.008,1.1436
28693,15.611,3.3636,0.1,0.00019317,1930.4,0.0001922,1902.9,-6.1065e-05,-0.011902,-6.8218e-05,-53.757,1.1322
28694,15.702,3.2727,0.1,0.00019127,1911.3,0.00019026,1883.1,-6.036e-05,-0.012042,-6.7717e-05,-55.29,1.1435
28695,15.611,3.5455,0.1,0.00019306,1929.3,0.00019208,1901.6,-6.1006e-05,-0.01228,-6.822e-05,-54.221,1.1321
28696,15.702,3.4545,0.1,0.00019117,1910.4,0.00019016,1881.9,-6.0303e-05,-0.012342,-6.7728e-05,-55.801,1.1435
28697,15.611,3.7273,0.1,0.0001929,1927.7,0.00019191,1899.7,-6.0928e-05,-0.012796,-6.8208e-05,-54.711,1.1319
28698,15.702,3.6364,0.1,0.00019102,1908.9,0.00019,1880,-6.0221e-05,-0.012807,-6.7731e-05,-56.435,1.1433
28699,15.611,3.9091,0.1,0.00019268,1925.5,0.00019169,1897.4,-6.0838e-05,-0.013406,-6.8168e-05,-55.085,1.1317
28700,15.702,3.8182,0.1,0.00019081,1906.8,0.00018978,1877.6,-6.0122e-05,-0.013423,-6.7713e-05,-57.049,1.1431
28701,15.611,4.0909,0.1,0.00019241,1922.7,0.00019141,1894.5,-6.0742e-05,-0.014018,-6.8084e-05,-55.178,1.1315
28702,15.702,4,0.1,0.00019054,1904.1,0.00018949,1874.7,-6.001e-05,-0.014126,-6.7657e-05,-57.467,1.1429
28703,15.611,4.2727,0.1,0.00019206,1919.3,0.00019107,1891.3,-6.0647e-05,-0.014492,-6.7941e-05,-54.817,1.1312
28704,15.702,4.1818,0.1,0.00019019,1900.6,0.00018915,1871.2,-5.9895e-05,-0.014798,-6.7546e-05,-57.497,1.1427
28705,15.611,4.4545,0.1,0.00019165,1915.2,0.00019068,1887.7,-6.0561e-05,-0.014636,-6.7724e-05,-53.834,1.1308
28706,15.702,4.3636,0.1,0.00018977,1896.4,0.00018874,1867.3,-5.9785e-05,-0.015263,-6.7362e-05,-56.948,1.1423
28707,15.611,4.6364,0.1,0.00019117,1910.4,0.00019023,1883.8,-6.0491e-05,-0.014215,-6.7421e-05,-52.081,1.1304
28708,15.702,4.5455,0.1,0.00018928,1891.5,0.00018827,1863.1,-5.9688e-05,-0.015283,-6.7091e-05,-55.639,1.142
28709,15.611,4.8182,0.1,0.00019063,1905,0.00018974,1879.8,-6.0445e-05,-0.012864,-6.7022e-05,-49.434,1.13
28710,15.702,4.7273,0.1,0.00018871,1885.8,0.00018775,1858.6,-5.9612e-05,-0.014585,-6.672e-05,-53.419,1.1416
28711,15.611,5,0.1,0.00019003,1899,0.00018921,1875.7,-6.0428e-05,-0.010326,-6.6524e-05,-45.81,1.1295
28712,15.702,4.9091,0.1,0.00018808,1879.5,0.00018718,1853.9,-5.9566e-05,-0.01265,-6.6242e-05,-50.172,1.1411
28713,15.611,5.1818,0.1,0.00018938,1892.5,0.00018865,1871.6,-6.0447e-05,-0.0051749,-6.5925e-05,-41.168,1.129
28714,15.702,5.0909,0.1,0.00018739,1872.6,0.00018657,1849.3,-5.9556e-05,-0.0094221,-6.5654e-05,-45.825,1.1406
28715,15.611,5.3636,0.1,0.00018871,1885.8,0.00018808,1867.7,-6.0505e-05,0.00066898,-6.5233e-05,-35.52,1.1285
28716,15.702,5.2727,0.1,0.00018666,1865.3,0.00018594,1844.8,-5.9587e-05,-0.0018433,-6.4959e-05,-40.359,1.1401
28717,15.611,5.5455,0.1,0.00018802,1878.9,0.00018751,1864.3,-6.0605e-05,0.026775,-6.446e-05,-28.944,1.1279
28718,15.702,5.4545,0.1,0.0001859,1857.7,0.0001853,1840.6,-5.9665e-05,0.0031524,-6.4166e-05,-33.815,1.1395
28719,15.611,5.7273,0.1,0.00018742,1872.9,0.00018704,1861.8,-6.075e-05,0.040006,-6.3691e-05,-22.055,1.1272
28720,15.702,5.6364,0.1,0.00018515,1850.2,0.00018469,1837,-5.9787e-05,0.054685,-6.3297e-05,-26.314,1.1389
28721,15.702,5.8182,0.1,0.00018458,1844.6,0.00018425,1835,-5.9966e-05,0.027674,-6.2499e-05,-18.998,1.1383
28722,15.611,5.9091,0.1,0.00018637,1862.4,0.00018617,1856.6,-6.0924e-05,0.0084058,-6.2473e-05,-11.631,1.1265
28723,15.794,0.27273,0.1,0.00018229,1821.7,0.00018189,1810,-5.9003e-05,0.045521,-6.209e-05,-23.146,1.15
28724,15.886,0.18182,0.1,0.00017932,1792,0.00017898,1782.2,-5.8204e-05,0.035591,-6.0804e-05,-19.5,1.1611
28725,15.794,0.090909,0.1,0.00018116,1810.3,0.00018096,1804.4,-5.9195e-05,0.0085529,-6.077e-05,-11.823,1.1493
28726,15.794,0.45455,0.1,0.00018303,1829,0.00018248,1813.3,-5.8848e-05,0.028713,-6.2997e-05,-31.149,1.1506
28727,15.886,0.36364,0.1,0.00018004,1799.2,0.00017955,1785,-5.8009e-05,0.060348,-6.1762e-05,-28.134,1.1618
28728,15.794,0.63636,0.1,0.00018385,1837.2,0.00018316,1817.6,-5.8747e-05,-0.00056473,-6.3888e-05,-38.629,1.1512
28729,15.886,0.54545,0.1,0.00018094,1808.1,0.00018028,1789.5,-5.7882e-05,0.0019582,-6.2766e-05,-36.699,1.1624
28730,15.794,0.81818,0.1,0.00018466,1845.3,0.00018386,1822.4,-5.8697e-05,-0.006718,-6.4684e-05,-44.996,1.1518
28731,15.886,0.72727,0.1,0.00018184,1817.1,0.00018105,1794.7,-5.7809e-05,-0.0032231,-6.3679e-05,-44.107,1.1629
28732,15.794,1,0.1,0.00018544,1853.1,0.00018453,1827.5,-5.8694e-05,-0.012091,-6.5369e-05,-50.17,1.1523
28733,15.886,0.90909,0.1,0.00018272,1825.9,0.00018181,1800.3,-5.7793e-05,-0.011287,-6.4477e-05,-50.236,1.1635
28734,15.794,1.1818,0.1,0.00018616,1860.3,0.00018518,1832.7,-5.8733e-05,-0.014559,-6.5937e-05,-54.142,1.1527
28735,15.886,1.0909,0.1,0.00018355,1834.2,0.00018255,1806.1,-5.7826e-05,-0.014476,-6.515e-05,-55.047,1.1639
28736,15.794,1.3636,0.1,0.00018682,1866.9,0.00018579,1837.8,-5.8809e-05,-0.015746,-6.6388e-05,-56.965,1.1532
28737,15.886,1.2727,0.1,0.00018432,1841.9,0.00018325,1811.9,-5.7902e-05,-0.016272,-6.5694e-05,-58.564,1.1644
28738,15.794,1.5455,0.1,0.0001874,1872.7,0.00018633,1842.7,-5.8911e-05,-0.015942,-6.6727e-05,-58.74,1.1535
28739,15.886,1.4545,0.1,0.00018501,1848.8,0.00018389,1817.6,-5.8013e-05,-0.016736,-6.6113e-05,-60.875,1.1648
28740,15.794,1.7273,0.1,0.0001879,1877.7,0.00018682,1847.2,-5.9033e-05,-0.015563,-6.6965e-05,-59.616,1.1539
28741,15.886,1.6364,0.1,0.00018561,1854.8,0.00018447,1823,-5.8149e-05,-0.016458,-6.6415e-05,-62.118,1.1651
28742,15.794,1.9091,0.1,0.00018832,1881.9,0.00018723,1851.3,-5.9163e-05,-0.014878,-6.7117e-05,-59.774,1.1542
28743,15.886,1.8182,0.1,0.00018612,1859.9,0.00018498,1827.9,-5.8301e-05,-0.015746,-6.6614e-05,-62.478,1.1654
28744,15.794,2.0909,0.1,0.00018866,1885.3,0.00018758,1854.9,-5.9294e-05,-0.014107,-6.72e-05,-59.418,1.1544
28745,15.886,2,0.1,0.00018655,1864.2,0.00018541,1832.3,-5.8456e-05,-0.014881,-6.6728e-05,-62.171,1.1657
28746,15.794,2.2727,0.1,0.00018893,1888,0.00018786,1857.9,-5.9415e-05,-0.013403,-6.7233e-05,-58.76,1.1546
28747,15.886,2.1818,0.1,0.00018688,1867.6,0.00018576,1836.1,-5.8605e-05,-0.014058,-6.6779e-05,-61.433,1.1659
28748,15.794,2.4545,0.1,0.00018913,1890,0.00018807,1860.3,-5.9518e-05,-0.012852,-6.7236e-05,-58.002,1.1548
28749,15.886,2.3636,0.1,0.00018714,1870.1,0.00018604,1839.2,-5.8738e-05,-0.013402,-6.6788e-05,-60.497,1.1661
28750,15.794,2.6364,0.1,0.00018926,1891.3,0.00018822,1862,-5.9598e-05,-0.01248,-6.7225e-05,-57.32,1.1549
28751,15.886,2.5455,0.1,0.00018733,1872,0.00018625,1841.5,-5.8845e-05,-0.012959,-6.6773e-05,-59.581,1.1662
28752,15.794,2.8182,0.1,0.00018934,1892.1,0.00018831,1863.1,-5.9647e-05,-0.012275,-6.7212e-05,-56.853,1.1549
28753,15.886,2.7273,0.1,0.00018745,1873.2,0.00018638,1843.1,-5.8921e-05,-0.012707,-6.6754e-05,-58.862,1.1663
28754,15.794,3,0.1,0.00018937,1892.4,0.00018834,1863.4,-5.9664e-05,-0.012211,-6.7207e-05,-56.687,1.155
28755,15.886,2.9091,0.1,0.00018751,1873.8,0.00018645,1843.9,-5.896e-05,-0.0126,-6.6741e-05,-58.469,1.1664
28756,15.794,3.1818,0.1,0.00018934,1892.1,0.00018831,1863.1,-5.9647e-05,-0.012275,-6.7212e-05,-56.853,1.1549
28757,15.886,3.0909,0.1,0.00018751,1873.8,0.00018645,1843.9,-5.896e-05,-0.0126,-6.6741e-05,-58.469,1.1664
28758,15.794,3.3636,0.1,0.00018926,1891.3,0.00018822,1862,-5.9598e-05,-0.01248,-6.7225e-05,-57.32,1.1549
28759,15.886,3.2727,0.1,0.00018745,1873.2,0.00018638,1843.1,-5.8921e-05,-0.012707,-6.6754e-05,-58.862,1.1663
28760,15.794,3.5455,0.1,0.00018913,1890,0.00018807,1860.3,-5.9518e-05,-0.012851,-6.7236e-05,-58.002,1.1548
28761,15.886,3.4545,0.1,0.00018733,1872,0.00018625,1841.5,-5.8845e-05,-0.012959,-6.6773e-05,-59.581,1.1662
28762,15.794,3.7273,0.1,0.00018893,1888,0.00018786,1857.9,-5.9415e-05,-0.013402,-6.7233e-05,-58.76,1.1546
28763,15.886,3.6364,0.1,0.00018714,1870.1,0.00018604,1839.2,-5.8738e-05,-0.013402,-6.6788e-05,-60.497,1.1661
28764,15.794,3.9091,0.1,0.00018866,1885.3,0.00018758,1854.9,-5.9294e-05,-0.014107,-6.72e-05,-59.418,1.1544
28765,15.886,3.8182,0.1,0.00018688,1867.6,0.00018576,1836.1,-5.8605e-05,-0.014058,-6.6779e-05,-61.433,1.1659
28766,15.794,4.0909,0.1,0.00018832,1881.9,0.00018723,1851.3,-5.9163e-05,-0.014878,-6.7117e-05,-59.774,1.1542
28767,15.886,4,0.1,0.00018655,1864.2,0.00018541,1832.3,-5.8456e-05,-0.01488,-6.6729e-05,-62.171,1.1657
28768,15.794,4.2727,0.1,0.0001879,1877.7,0.00018682,1847.2,-5.9033e-05,-0.015563,-6.6965e-05,-59.616,1.1539
28769,15.886,4.1818,0.1,0.00018612,1859.9,0.00018498,1827.9,-5.8301e-05,-0.015746,-6.6614e-05,-62.478,1.1654
28770,15.794,4.4545,0.1,0.0001874,1872.7,0.00018633,1842.7,-5.8911e-05,-0.015942,-6.6727e-05,-58.74,1.1535
28771,15.886,4.3636,0.1,0.00018561,1854.8,0.00018447,1823,-5.8149e-05,-0.016457,-6.6415e-05,-62.118,1.1651
28772,15.794,4.6364,0.1,0.00018682,1866.9,0.00018579,1837.8,-5.8809e-05,-0.015746,-6.6388e-05,-56.965,1.1532
28773,15.886,4.5455,0.1,0.00018501,1848.8,0.00018389,1817.6,-5.8013e-05,-0.016735,-6.6113e-05,-60.875,1.1648
28774,15.794,4.8182,0.1,0.00018616,1860.3,0.00018518,1832.7,-5.8733e-05,-0.014559,-6.5937e-05,-54.142,1.1527
28775,15.886,4.7273,0.1,0.00018432,1841.9,0.00018325,1811.9,-5.7902e-05,-0.016272,-6.5694e-05,-58.564,1.1644
28776,15.794,5,0.1,0.00018544,1853.1,0.00018453,1827.5,-5.8694e-05,-0.01209,-6.5369e-05,-50.17,1.1523
28777,15.886,4.9091,0.1,0.00018355,1834.2,0.00018255,1806.1,-5.7826e-05,-0.014476,-6.515e-05,-55.047,1.1639
28778,15.794,5.1818,0.1,0.00018466,1845.3,0.00018386,1822.4,-5.8697e-05,-0.0067163,-6.4684e-05,-44.996,1.1518
28779,15.886,5.0909,0.1,0.00018272,1825.9,0.00018181,1800.3,-5.7793e-05,-0.011286,-6.4477e-05,-50.237,1.1635
28780,15.794,5.3636,0.1,0.00018385,1837.2,0.00018316,1817.6,-5.8747e-05,-0.00056429,-6.3888e-05,-38.629,1.1512
28781,15.886,5.2727,0.1,0.00018184,1817.1,0.00018105,1794.7,-5.7809e-05,-0.0032217,-6.3679e-05,-44.107,1.1629
28782,15.794,5.5455,0.1,0.00018303,1829,0.00018248,1813.3,-5.8848e-05,0.028713,-6.2997e-05,-31.149,1.1506
28783,15.886,5.4545,0.1,0.00018094,1808.1,0.00018028,1789.5,-5.7882e-05,0.0019578,-6.2766e-05,-36.699,1.1624
28784,15.794,5.7273,0.1,0.00018229,1821.7,0.00018189,1810,-5.9003e-05,0.045521,-6.209e-05,-23.146,1.15
28785,15.886,5.6364,0.1,0.00018004,1799.2,0.00017955,1785,-5.8009e-05,0.060348,-6.1762e-05,-28.134,1.1618
28786,15.886,5.8182,0.1,0.00017932,1792,0.00017898,1782.2,-5.8204e-05,0.035591,-6.0804e-05,-19.5,1.1611
28787,15.794,5.9091,0.1,0.00018116,1810.3,0.00018096,1804.4,-5.9195e-05,0.0085525,-6.077e-05,-11.823,1.1493
28788,15.978,0.27273,0.1,0.00017705,1769.3,0.00017662,1757,-5.721e-05,0.051685,-6.0461e-05,-24.375,1.1729
28789,16.07,0.18182,0.1,0.00017391,1737.9,0.00017356,1727.8,-5.639e-05,0.045317,-5.9066e-05,-20.059,1.1841
28790,15.978,0.090909,0.1,0.00017582,1757,0.00017561,1750.9,-5.7423e-05,0.0085852,-5.9025e-05,-12.03,1.1722
28791,15.978,0.45455,0.1,0.00017794,1778.2,0.00017735,1761.2,-5.7044e-05,0.03067,-6.1526e-05,-33.648,1.1735
28792,16.07,0.36364,0.1,0.00017481,1746.9,0.00017427,1731.6,-5.6178e-05,0.066507,-6.0206e-05,-30.194,1.1847
28793,15.978,0.63636,0.1,0.00017892,1788,0.00017817,1766.5,-5.6944e-05,-0.0021109,-6.2554e-05,-42.153,1.1741
28794,16.07,0.54545,0.1,0.00017587,1757.5,0.00017516,1737.2,-5.6047e-05,0.00041986,-6.1366e-05,-39.965,1.1853
28795,15.978,0.81818,0.1,0.00017989,1797.7,0.000179,1772.5,-5.6906e-05,-0.0085071,-6.347e-05,-49.33,1.1747
28796,16.07,0.72727,0.1,0.00017695,1768.3,0.00017608,1743.6,-5.5983e-05,-0.0048218,-6.2417e-05,-48.35,1.1859
28797,15.978,1,0.1,0.00018083,1807,0.00017983,1778.8,-5.6924e-05,-0.014058,-6.4256e-05,-55.1,1.1752
28798,16.07,0.90909,0.1,0.00017801,1778.8,0.000177,1750.6,-5.5986e-05,-0.013336,-6.3335e-05,-55.23,1.1864
28799,15.978,1.1818,0.1,0.0001817,1815.8,0.00018062,1785.3,-5.6994e-05,-0.016395,-6.4905e-05,-59.458,1.1756
28800,16.07,1.0909,0.1,0.00017901,1788.9,0.0001779,1757.8,-5.6049e-05,-0.016413,-6.4107e-05,-60.562,1.1869
28801,15.978,1.3636,0.1,0.0001825,1823.8,0.00018136,1791.7,-5.7106e-05,-0.017357,-6.5418e-05,-62.465,1.176
28802,16.07,1.2727,0.1,0.00017994,1798.2,0.00017876,1765.1,-5.6164e-05,-0.018003,-6.473e-05,-64.377,1.1873
28803,15.978,1.5455,0.1,0.00018321,1830.9,0.00018203,1797.9,-5.7251e-05,-0.017275,-6.5799e-05,-64.244,1.1764
28804,16.07,1.4545,0.1,0.00018078,1806.6,0.00017955,1772.2,-5.6321e-05,-0.018169,-6.5206e-05,-66.776,1.1877
28805,15.978,1.7273,0.1,0.00018383,1837,0.00018263,1803.6,-5.7417e-05,-0.016619,-6.6062e-05,-64.971,1.1767
28806,16.07,1.6364,0.1,0.00018152,1814,0.00018027,1779,-5.6507e-05,-0.017578,-6.5545e-05,-67.923,1.188
28807,15.978,1.9091,0.1,0.00018434,1842.2,0.00018315,1808.9,-5.7593e-05,-0.015703,-6.6224e-05,-64.865,1.177
28808,16.07,1.8182,0.1,0.00018215,1820.3,0.0001809,1785.3,-5.6711e-05,-0.016585,-6.5763e-05,-68.036,1.1883
28809,15.978,2.0909,0.1,0.00018477,1846.4,0.00018359,1813.4,-5.7767e-05,-0.014779,-6.6307e-05,-64.175,1.1772
28810,16.07,2,0.1,0.00018268,1825.5,0.00018144,1790.9,-5.6917e-05,-0.015519,-6.5883e-05,-67.38,1.1886
28811,15.978,2.2727,0.1,0.0001851,1849.7,0.00018394,1817.3,-5.7928e-05,-0.014015,-6.6332e-05,-63.159,1.1774
28812,16.07,2.1818,0.1,0.0001831,1829.8,0.00018188,1795.7,-5.7114e-05,-0.014607,-6.5928e-05,-66.239,1.1888
28813,15.978,2.4545,0.1,0.00018534,1852.2,0.00018421,1820.3,-5.8065e-05,-0.013489,-6.6323e-05,-62.064,1.1776
28814,16.07,2.3636,0.1,0.00018343,1833,0.00018224,1799.7,-5.7288e-05,-0.013978,-6.5924e-05,-64.901,1.189
28815,15.978,2.6364,0.1,0.00018551,1853.9,0.0001844,1822.6,-5.8169e-05,-0.013192,-6.6301e-05,-61.11,1.1777
28816,16.07,2.5455,0.1,0.00018366,1835.3,0.00018249,1802.7,-5.743e-05,-0.013644,-6.5897e-05,-63.633,1.1891
28817,15.978,2.8182,0.1,0.00018561,1854.9,0.00018451,1823.9,-5.8234e-05,-0.013061,-6.628e-05,-60.465,1.1778
28818,16.07,2.7273,0.1,0.00018381,1836.8,0.00018267,1804.7,-5.7529e-05,-0.013525,-6.5866e-05,-62.654,1.1892
28819,15.978,3,0.1,0.00018565,1855.2,0.00018455,1824.3,-5.8257e-05,-0.013026,-6.6272e-05,-60.238,1.1778
28820,16.07,2.9091,0.1,0.00018389,1837.6,0.00018275,1805.7,-5.758e-05,-0.013506,-6.5847e-05,-62.124,1.1893
28821,15.978,3.1818,0.1,0.00018561,1854.9,0.00018451,1823.9,-5.8234e-05,-0.013061,-6.628e-05,-60.465,1.1778
28822,16.07,3.0909,0.1,0.00018389,1837.6,0.00018275,1805.7,-5.758e-05,-0.013505,-6.5847e-05,-62.124,1.1893
28823,15.978,3.3636,0.1,0.00018551,1853.9,0.0001844,1822.6,-5.8169e-05,-0.013193,-6.6301e-05,-61.11,1.1777
28824,16.07,3.2727,0.1,0.00018381,1836.8,0.00018267,1804.7,-5.7529e-05,-0.013525,-6.5866e-05,-62.655,1.1892
28825,15.978,3.5455,0.1,0.00018534,1852.2,0.00018421,1820.3,-5.8065e-05,-0.013489,-6.6323e-05,-62.064,1.1776
28826,16.07,3.4545,0.1,0.00018366,1835.3,0.00018249,1802.7,-5.743e-05,-0.013644,-6.5897e-05,-63.633,1.1891
28827,15.978,3.7273,0.1,0.0001851,1849.7,0.00018394,1817.3,-5.7928e-05,-0.014014,-6.6332e-05,-63.159,1.1774
28828,16.07,3.6364,0.1,0.00018343,1833,0.00018224,1799.7,-5.7288e-05,-0.013978,-6.5924e-05,-64.902,1.189
28829,15.978,3.9091,0.1,0.00018477,1846.4,0.00018359,1813.4,-5.7767e-05,-0.014778,-6.6307e-05,-64.175,1.1772
28830,16.07,3.8182,0.1,0.0001831,1829.8,0.00018188,1795.7,-5.7114e-05,-0.014607,-6.5928e-05,-66.239,1.1888
28831,15.978,4.0909,0.1,0.00018434,1842.2,0.00018315,1808.9,-5.7593e-05,-0.015702,-6.6224e-05,-64.865,1.177
28832,16.07,4,0.1,0.00018268,1825.5,0.00018144,1790.9,-5.6917e-05,-0.015519,-6.5883e-05,-67.38,1.1886
28833,15.978,4.2727,0.1,0.00018383,1837,0.00018263,1803.6,-5.7417e-05,-0.016619,-6.6062e-05,-64.971,1.1767
28834,16.07,4.1818,0.1,0.00018215,1820.3,0.0001809,1785.3,-5.6711e-05,-0.016585,-6.5763e-05,-68.037,1.1883
28835,15.978,4.4545,0.1,0.00018321,1830.9,0.00018203,1797.9,-5.7251e-05,-0.017274,-6.5799e-05,-64.244,1.1764
28836,16.07,4.3636,0.1,0.00018152,1814,0.00018027,1779,-5.6507e-05,-0.017578,-6.5545e-05,-67.923,1.188
28837,15.978,4.6364,0.1,0.0001825,1823.8,0.00018136,1791.7,-5.7106e-05,-0.017357,-6.5418e-05,-62.465,1.176
28838,16.07,4.5455,0.1,0.00018078,1806.6,0.00017955,1772.2,-5.6321e-05,-0.018168,-6.5206e-05,-66.776,1.1877
28839,15.978,4.8182,0.1,0.0001817,1815.8,0.00018062,1785.3,-5.6994e-05,-0.016394,-6.4905e-05,-59.458,1.1756
28840,16.07,4.7273,0.1,0.00017994,1798.2,0.00017876,1765.1,-5.6164e-05,-0.018003,-6.473e-05,-64.377,1.1873
28841,15.978,5,0.1,0.00018083,1807,0.00017983,1778.8,-5.6924e-05,-0.014058,-6.4256e-05,-55.1,1.1752
28842,16.07,4.9091,0.1,0.00017901,1788.9,0.0001779,1757.8,-5.6049e-05,-0.016412,-6.4107e-05,-60.562,1.1869
28843,15.978,5.1818,0.1,0.00017989,1797.7,0.000179,1772.5,-5.6906e-05,-0.0085065,-6.347e-05,-49.33,1.1747
28844,16.07,5.0909,0.1,0.00017801,1778.8,0.000177,1750.6,-5.5986e-05,-0.013335,-6.3335e-05,-55.23,1.1864
28845,15.978,5.3636,0.1,0.00017892,1788,0.00017817,1766.5,-5.6944e-05,-0.0021104,-6.2554e-05,-42.153,1.1741
28846,16.07,5.2727,0.1,0.00017695,1768.3,0.00017608,1743.6,-5.5983e-05,-0.00482,-6.2417e-05,-48.35,1.1859
28847,15.978,5.5455,0.1,0.00017794,1778.2,0.00017735,1761.2,-5.7044e-05,0.030671,-6.1526e-05,-33.648,1.1735
28848,16.07,5.4545,0.1,0.00017587,1757.5,0.00017516,1737.2,-5.6047e-05,0.00042013,-6.1366e-05,-39.965,1.1853
28849,15.978,5.7273,0.1,0.00017705,1769.3,0.00017662,1757,-5.721e-05,0.051685,-6.0461e-05,-24.375,1.1729
28850,16.07,5.6364,0.1,0.00017481,1746.9,0.00017427,1731.6,-5.6178e-05,0.066508,-6.0206e-05,-30.194,1.1847
28851,16.07,5.8182,0.1,0.00017391,1737.9,0.00017356,1727.8,-5.639e-05,0.045317,-5.9066e-05,-20.059,1.1841
28852,15.978,5.9091,0.1,0.00017582,1757,0.00017561,1750.9,-5.7423e-05,0.0085856,-5.9025e-05,-12.03,1.1722
28853,16.162,0.27273,0.1,0.00017165,1715.3,0.0001712,1702.3,-5.5359e-05,0.058492,-5.8795e-05,-25.763,1.1959
28854,16.253,0.18182,0.1,0.00016831,1682,0.00016795,1671.6,-5.451e-05,0.056978,-5.7271e-05,-20.686,1.2072
28855,16.162,0.090909,0.1,0.00017031,1701.9,0.0001701,1695.8,-5.5594e-05,0.0085362,-5.7227e-05,-12.258,1.1953
28856,16.162,0.45455,0.1,0.00017273,1726.1,0.00017208,1707.6,-5.5182e-05,0.032655,-6.0041e-05,-36.477,1.1965
28857,16.253,0.36364,0.1,0.00016941,1692.9,0.00016884,1676.5,-5.4281e-05,0.073104,-5.8619e-05,-32.522,1.2078
28858,16.162,0.63636,0.1,0.0001739,1737.8,0.00017307,1714.3,-5.5086e-05,-0.0039375,-6.1227e-05,-46.142,1.1971
28859,16.253,0.54545,0.1,0.00017068,1705.6,0.00016989,1683.4,-5.4148e-05,-0.0015057,-5.9958e-05,-43.657,1.2084
28860,16.162,0.81818,0.1,0.00017506,1749.4,0.00017408,1721.7,-5.5064e-05,-0.010468,-6.2281e-05,-54.237,1.1976
28861,16.253,0.72727,0.1,0.00017197,1718.5,0.000171,1691.3,-5.4096e-05,-0.0066169,-6.1169e-05,-53.15,1.2089
28862,16.162,1,0.1,0.00017619,1760.6,0.00017507,1729.5,-5.5111e-05,-0.016124,-6.3185e-05,-60.683,1.1981
28863,16.253,0.90909,0.1,0.00017323,1731.1,0.00017212,1699.9,-5.4126e-05,-0.01551,-6.2227e-05,-60.884,1.2094
28864,16.162,1.1818,0.1,0.00017725,1771.2,0.00017604,1737.6,-5.5219e-05,-0.018246,-6.3931e-05,-65.475,1.1986
28865,16.253,1.0909,0.1,0.00017445,1743.3,0.00017321,1708.9,-5.4228e-05,-0.018372,-6.3118e-05,-66.812,1.2099
28866,16.162,1.3636,0.1,0.00017822,1781,0.00017695,1745.6,-5.5379e-05,-0.018912,-6.4518e-05,-68.684,1.199
28867,16.253,1.2727,0.1,0.00017558,1754.6,0.00017427,1718,-5.4392e-05,-0.019674,-6.3835e-05,-70.967,1.2103
28868,16.162,1.5455,0.1,0.00017909,1789.7,0.00017779,1753.4,-5.5577e-05,-0.018485,-6.4951e-05,-70.45,1.1994
28869,16.253,1.4545,0.1,0.00017661,1764.9,0.00017525,1727,-5.4607e-05,-0.019465,-6.4381e-05,-73.46,1.2107
28870,16.162,1.7273,0.1,0.00017985,1797.2,0.00017854,1760.7,-5.5801e-05,-0.017504,-6.5246e-05,-70.983,1.1997
28871,16.253,1.6364,0.1,0.00017752,1774,0.00017614,1735.6,-5.4857e-05,-0.018496,-6.4767e-05,-74.48,1.2111
28872,16.162,1.9091,0.1,0.00018049,1803.7,0.00017919,1767.3,-5.6034e-05,-0.016332,-6.5421e-05,-70.545,1.2
28873,16.253,1.8182,0.1,0.00017831,1781.9,0.00017693,1743.6,-5.5126e-05,-0.017181,-6.501e-05,-74.286,1.2114
28874,16.162,2.0909,0.1,0.00018102,1808.9,0.00017973,1773.2,-5.6264e-05,-0.015272,-6.5503e-05,-69.437,1.2002
28875,16.253,2,0.1,0.00017897,1788.4,0.00017761,1750.7,-5.5397e-05,-0.015911,-6.5137e-05,-73.194,1.2116
28876,16.162,2.2727,0.1,0.00018143,1813,0.00018018,1778.1,-5.6474e-05,-0.014513,-6.5519e-05,-67.974,1.2004
28877,16.253,2.1818,0.1,0.00017949,1793.7,0.00017817,1756.8,-5.5655e-05,-0.014962,-6.5176e-05,-71.553,1.2118
28878,16.162,2.4545,0.1,0.00018174,1816.2,0.00018052,1782,-5.6653e-05,-0.014112,-6.5497e-05,-66.461,1.2006
28879,16.253,2.3636,0.1,0.0001799,1797.8,0.00017861,1761.9,-5.5882e-05,-0.014467,-6.5159e-05,-69.717,1.212
28880,16.162,2.6364,0.1,0.00018196,1818.3,0.00018076,1784.8,-5.679e-05,-0.014,-6.5461e-05,-65.168,1.2007
28881,16.253,2.5455,0.1,0.0001802,1800.7,0.00017895,1765.8,-5.6066e-05,-0.014385,-6.5116e-05,-68.013,1.2121
28882,16.162,2.8182,0.1,0.00018208,1819.6,0.0001809,1786.6,-5.6875e-05,-0.014029,-6.5431e-05,-64.303,1.2007
28883,16.253,2.7273,0.1,0.00018039,1802.7,0.00017916,1768.4,-5.6195e-05,-0.014534,-6.5072e-05,-66.713,1.2122
28884,16.162,3,0.1,0.00018212,1820,0.00018095,1787.1,-5.6904e-05,-0.014058,-6.542e-05,-63.999,1.2008
28885,16.253,2.9091,0.1,0.00018049,1803.6,0.00017927,1769.7,-5.6262e-05,-0.014687,-6.5045e-05,-66.012,1.2123
28886,16.162,3.1818,0.1,0.00018208,1819.6,0.0001809,1786.6,-5.6875e-05,-0.014029,-6.5431e-05,-64.303,1.2007
28887,16.253,3.0909,0.1,0.00018049,1803.6,0.00017927,1769.7,-5.6262e-05,-0.014687,-6.5045e-05,-66.012,1.2123
28888,16.162,3.3636,0.1,0.00018196,1818.3,0.00018076,1784.8,-5.679e-05,-0.013999,-6.5461e-05,-65.168,1.2007
28889,16.253,3.2727,0.1,0.00018039,1802.7,0.00017916,1768.4,-5.6195e-05,-0.014534,-6.5072e-05,-66.713,1.2122
28890,16.162,3.5455,0.1,0.00018174,1816.2,0.00018052,1782,-5.6653e-05,-0.014111,-6.5497e-05,-66.461,1.2006
28891,16.253,3.4545,0.1,0.0001802,1800.7,0.00017895,1765.8,-5.6066e-05,-0.014385,-6.5116e-05,-68.013,1.2121
28892,16.162,3.7273,0.1,0.00018143,1813,0.00018018,1778.1,-5.6474e-05,-0.014513,-6.5519e-05,-67.974,1.2004
28893,16.253,3.6364,0.1,0.0001799,1797.8,0.00017861,1761.9,-5.5882e-05,-0.014467,-6.5159e-05,-69.717,1.212
28894,16.162,3.9091,0.1,0.00018102,1808.9,0.00017973,1773.2,-5.6264e-05,-0.015272,-6.5503e-05,-69.437,1.2002
28895,16.253,3.8182,0.1,0.00017949,1793.7,0.00017817,1756.8,-5.5655e-05,-0.014963,-6.5176e-05,-71.554,1.2118
28896,16.162,4.0909,0.1,0.00018049,1803.7,0.00017919,1767.3,-5.6034e-05,-0.016332,-6.5421e-05,-70.545,1.2
28897,16.253,4,0.1,0.00017897,1788.4,0.00017761,1750.7,-5.5397e-05,-0.01591,-6.5137e-05,-73.194,1.2116
28898,16.162,4.2727,0.1,0.00017985,1797.2,0.00017854,1760.7,-5.5801e-05,-0.017503,-6.5246e-05,-70.983,1.1997
28899,16.253,4.1818,0.1,0.00017831,1781.9,0.00017693,1743.6,-5.5126e-05,-0.01718,-6.501e-05,-74.286,1.2114
28900,16.162,4.4545,0.1,0.00017909,1789.7,0.00017779,1753.4,-5.5577e-05,-0.018485,-6.4951e-05,-70.451,1.1994
28901,16.253,4.3636,0.1,0.00017752,1774,0.00017614,1735.6,-5.4857e-05,-0.018496,-6.4767e-05,-74.48,1.2111
28902,16.162,4.6364,0.1,0.00017822,1781,0.00017695,1745.6,-5.5379e-05,-0.018911,-6.4518e-05,-68.684,1.199
28903,16.253,4.5455,0.1,0.00017661,1764.9,0.00017525,1727,-5.4607e-05,-0.019465,-6.4381e-05,-73.46,1.2107
28904,16.162,4.8182,0.1,0.00017725,1771.2,0.00017604,1737.6,-5.5219e-05,-0.018246,-6.3931e-05,-65.475,1.1986
28905,16.253,4.7273,0.1,0.00017558,1754.6,0.00017427,1718,-5.4392e-05,-0.019674,-6.3835e-05,-70.967,1.2103
28906,16.162,5,0.1,0.00017619,1760.6,0.00017507,1729.5,-5.5111e-05,-0.016124,-6.3185e-05,-60.683,1.1981
28907,16.253,4.9091,0.1,0.00017445,1743.3,0.00017321,1708.9,-5.4228e-05,-0.018372,-6.3118e-05,-66.812,1.2099
28908,16.162,5.1818,0.1,0.00017506,1749.4,0.00017408,1721.7,-5.5064e-05,-0.010466,-6.2281e-05,-54.237,1.1976
28909,16.253,5.0909,0.1,0.00017323,1731.1,0.00017212,1699.9,-5.4126e-05,-0.015508,-6.2227e-05,-60.884,1.2094
28910,16.162,5.3636,0.1,0.0001739,1737.8,0.00017307,1714.3,-5.5086e-05,-0.003936,-6.1227e-05,-46.142,1.1971
28911,16.253,5.2727,0.1,0.00017197,1718.5,0.000171,1691.3,-5.4096e-05,-0.0066155,-6.1169e-05,-53.15,1.2089
28912,16.162,5.5455,0.1,0.00017273,1726.1,0.00017208,1707.6,-5.5182e-05,0.032655,-6.0041e-05,-36.477,1.1965
28913,16.253,5.4545,0.1,0.00017068,1705.6,0.0001699,1683.4,-5.4148e-05,-0.0015057,-5.9958e-05,-43.658,1.2084
28914,16.162,5.7273,0.1,0.00017165,1715.3,0.0001712,1702.3,-5.5359e-05,0.058492,-5.8795e-05,-25.763,1.1959
28915,16.253,5.6364,0.1,0.00016941,1692.9,0.00016884,1676.5,-5.4281e-05,0.073104,-5.8619e-05,-32.523,1.2078
28916,16.253,5.8182,0.1,0.00016831,1682,0.00016795,1671.6,-5.451e-05,0.056978,-5.7271e-05,-20.686,1.2072
28917,16.162,5.9091,0.1,0.00017031,1701.9,0.0001701,1695.8,-5.5594e-05,0.0085357,-5.7227e-05,-12.258,1.1953
28918,16.345,0.27273,0.1,0.00016606,1659.4,0.00016558,1645.6,-5.3434e-05,0.065722,-5.708e-05,-27.328,1.2191
28919,16.437,0.18182,0.1,0.00016248,1623.7,0.0001621,1612.9,-5.2548e-05,0.07045,-5.5405e-05,-21.393,1.2303
28920,16.345,0.090909,0.1,0.00016459,1644.8,0.00016437,1638.5,-5.3693e-05,0.0083301,-5.536e-05,-12.511,1.2184
28921,16.345,0.45455,0.1,0.00016736,1672.4,0.00016665,1652.2,-5.3248e-05,0.034549,-5.8532e-05,-39.67,1.2197
28922,16.437,0.36364,0.1,0.00016381,1637,0.00016319,1619.2,-5.2301e-05,0.079975,-5.6989e-05,-35.142,1.231
28923,16.345,0.63636,0.1,0.00016874,1686.3,0.00016783,1660.4,-5.3159e-05,-0.0060978,-5.9899e-05,-50.649,1.2202
28924,16.437,0.54545,0.1,0.00016532,1652,0.00016445,1627.6,-5.2169e-05,-0.0038852,-5.8532e-05,-47.815,1.2316
28925,16.345,0.81818,0.1,0.00017014,1700.2,0.00016904,1669.5,-5.3159e-05,-0.012591,-6.1115e-05,-59.79,1.2208
28926,16.437,0.72727,0.1,0.00016685,1667.4,0.00016578,1637.3,-5.2135e-05,-0.0085777,-5.9929e-05,-58.566,1.2321
28927,16.345,1,0.1,0.00017149,1713.8,0.00017026,1679.3,-5.3243e-05,-0.018246,-6.2159e-05,-67.011,1.2212
28928,16.437,0.90909,0.1,0.00016837,1682.6,0.00016713,1647.9,-5.2199e-05,-0.017724,-6.1152e-05,-67.283,1.2326
28929,16.345,1.1818,0.1,0.00017278,1726.6,0.00017144,1689.3,-5.3401e-05,-0.020047,-6.3021e-05,-72.305,1.2217
28930,16.437,1.0909,0.1,0.00016985,1697.3,0.00016847,1659.1,-5.2351e-05,-0.02024,-6.2184e-05,-73.906,1.2331
28931,16.345,1.3636,0.1,0.00017397,1738.5,0.00017256,1699.4,-5.362e-05,-0.020326,-6.3699e-05,-75.745,1.2221
28932,16.437,1.2727,0.1,0.00017123,1711.2,0.00016976,1670.6,-5.2578e-05,-0.021152,-6.3018e-05,-78.464,1.2335
28933,16.345,1.5455,0.1,0.00017505,1749.3,0.0001736,1709.2,-5.3886e-05,-0.019476,-6.4197e-05,-77.491,1.2225
28934,16.437,1.4545,0.1,0.0001725,1723.9,0.00017098,1681.9,-5.2865e-05,-0.020478,-6.3652e-05,-81.072,1.2339
28935,16.345,1.7273,0.1,0.00017599,1758.7,0.00017453,1718.5,-5.4182e-05,-0.018109,-6.4532e-05,-77.783,1.2228
28936,16.437,1.6364,0.1,0.00017364,1735.2,0.0001721,1692.7,-5.3195e-05,-0.019052,-6.4098e-05,-81.94,1.2342
28937,16.345,1.9091,0.1,0.00017679,1766.6,0.00017535,1726.9,-5.4489e-05,-0.016661,-6.4726e-05,-76.934,1.2231
28938,16.437,1.8182,0.1,0.00017462,1745,0.00017309,1702.8,-5.3547e-05,-0.017361,-6.4375e-05,-81.371,1.2345
28939,16.345,2.0909,0.1,0.00017744,1773.2,0.00017604,1734.4,-5.4788e-05,-0.015498,-6.4809e-05,-75.308,1.2233
28940,16.437,2,0.1,0.00017544,1753.2,0.00017394,1711.9,-5.3901e-05,-0.01589,-6.4512e-05,-79.745,1.2348
28941,16.345,2.2727,0.1,0.00017797,1778.4,0.00017661,1740.7,-5.5062e-05,-0.014843,-6.4815e-05,-73.292,1.2235
28942,16.437,2.1818,0.1,0.0001761,1759.8,0.00017466,1719.8,-5.4235e-05,-0.014987,-6.4546e-05,-77.488,1.235
28943,16.345,2.4545,0.1,0.00017836,1782.4,0.00017704,1745.7,-5.5295e-05,-0.014724,-6.4777e-05,-71.263,1.2236
28944,16.437,2.3636,0.1,0.00017662,1765,0.00017522,1726.3,-5.453e-05,-0.014792,-6.4514e-05,-75.036,1.2352
28945,16.345,2.6364,0.1,0.00017863,1785.1,0.00017735,1749.3,-5.5472e-05,-0.014972,-6.4726e-05,-69.55,1.2237
28946,16.437,2.5455,0.1,0.000177,1768.8,0.00017565,1731.2,-5.4768e-05,-0.015183,-6.4454e-05,-72.794,1.2353
28947,16.345,2.8182,0.1,0.00017879,1786.7,0.00017753,1751.5,-5.5582e-05,-0.015302,-6.4685e-05,-68.414,1.2238
28948,16.437,2.7273,0.1,0.00017724,1771.2,0.00017593,1734.6,-5.4934e-05,-0.015814,-6.4395e-05,-71.098,1.2354
28949,16.345,3,0.1,0.00017885,1787.2,0.00017759,1752.2,-5.562e-05,-0.015449,-6.467e-05,-68.016,1.2238
28950,16.437,2.9091,0.1,0.00017736,1772.4,0.00017607,1736.3,-5.5021e-05,-0.016271,-6.436e-05,-70.188,1.2354
28951,16.345,3.1818,0.1,0.00017879,1786.7,0.00017753,1751.5,-5.5582e-05,-0.015303,-6.4685e-05,-68.414,1.2238
28952,16.437,3.0909,0.1,0.00017736,1772.4,0.00017607,1736.3,-5.5021e-05,-0.016271,-6.436e-05,-70.188,1.2354
28953,16.345,3.3636,0.1,0.00017863,1785.1,0.00017735,1749.3,-5.5472e-05,-0.014972,-6.4726e-05,-69.55,1.2237
28954,16.437,3.2727,0.1,0.00017724,1771.2,0.00017593,1734.6,-5.4934e-05,-0.015814,-6.4395e-05,-71.098,1.2354
28955,16.345,3.5455,0.1,0.00017836,1782.4,0.00017704,1745.7,-5.5295e-05,-0.014724,-6.4777e-05,-71.263,1.2236
28956,16.437,3.4545,0.1,0.000177,1768.8,0.00017565,1731.2,-5.4768e-05,-0.015183,-6.4454e-05,-72.794,1.2353
28957,16.345,3.7273,0.1,0.00017797,1778.4,0.00017661,1740.7,-5.5062e-05,-0.014843,-6.4815e-05,-73.293,1.2235
28958,16.437,3.6364,0.1,0.00017662,1765,0.00017522,1726.3,-5.453e-05,-0.014792,-6.4514e-05,-75.036,1.2352
28959,16.345,3.9091,0.1,0.00017744,1773.2,0.00017604,1734.4,-5.4788e-05,-0.015498,-6.4809e-05,-75.308,1.2233
28960,16.437,3.8182,0.1,0.0001761,1759.8,0.00017466,1719.8,-5.4235e-05,-0.014987,-6.4546e-05,-77.488,1.235
28961,16.345,4.0909,0.1,0.00017679,1766.6,0.00017535,1726.9,-5.4489e-05,-0.01666,-6.4726e-05,-76.934,1.2231
28962,16.437,4,0.1,0.00017544,1753.2,0.00017394,1711.9,-5.3901e-05,-0.01589,-6.4512e-05,-79.745,1.2348
28963,16.345,4.2727,0.1,0.00017599,1758.7,0.00017453,1718.5,-5.4182e-05,-0.018109,-6.4532e-05,-77.783,1.2228
28964,16.437,4.1818,0.1,0.00017462,1745,0.00017309,1702.8,-5.3547e-05,-0.017361,-6.4375e-05,-81.371,1.2345
28965,16.345,4.4545,0.1,0.00017505,1749.3,0.0001736,1709.2,-5.3886e-05,-0.019477,-6.4197e-05,-77.491,1.2225
28966,16.437,4.3636,0.1,0.00017364,1735.2,0.0001721,1692.7,-5.3195e-05,-0.019052,-6.4098e-05,-81.94,1.2342
28967,16.345,4.6364,0.1,0.00017397,1738.5,0.00017256,1699.4,-5.362e-05,-0.020326,-6.3699e-05,-75.745,1.2221
28968,16.437,4.5455,0.1,0.0001725,1723.9,0.00017098,1681.9,-5.2865e-05,-0.020478,-6.3652e-05,-81.072,1.2339
28969,16.345,4.8182,0.1,0.00017278,1726.6,0.00017144,1689.3,-5.3401e-05,-0.020047,-6.3021e-05,-72.305,1.2217
28970,16.437,4.7273,0.1,0.00017123,1711.2,0.00016976,1670.6,-5.2578e-05,-0.021152,-6.3018e-05,-78.464,1.2335
28971,16.345,5,0.1,0.00017149,1713.8,0.00017026,1679.3,-5.3243e-05,-0.018244,-6.2159e-05,-67.011,1.2212
28972,16.437,4.9091,0.1,0.00016985,1697.3,0.00016847,1659.1,-5.2351e-05,-0.020239,-6.2184e-05,-73.907,1.2331
28973,16.345,5.1818,0.1,0.00017014,1700.2,0.00016904,1669.5,-5.3159e-05,-0.01259,-6.1115e-05,-59.79,1.2208
28974,16.437,5.0909,0.1,0.00016837,1682.6,0.00016713,1647.9,-5.2199e-05,-0.017722,-6.1152e-05,-67.283,1.2326
28975,16.345,5.3636,0.1,0.00016874,1686.3,0.00016783,1660.4,-5.3159e-05,-0.006098,-5.9899e-05,-50.649,1.2202
28976,16.437,5.2727,0.1,0.00016685,1667.4,0.00016578,1637.3,-5.2135e-05,-0.008577,-5.9929e-05,-58.566,1.2321
28977,16.345,5.5455,0.1,0.00016736,1672.4,0.00016665,1652.2,-5.3248e-05,0.034549,-5.8532e-05,-39.67,1.2197
28978,16.437,5.4545,0.1,0.00016532,1652,0.00016445,1627.6,-5.2169e-05,-0.0038841,-5.8532e-05,-47.815,1.2316
28979,16.345,5.7273,0.1,0.00016606,1659.4,0.00016558,1645.6,-5.3434e-05,0.065722,-5.708e-05,-27.328,1.2191
28980,16.437,5.6364,0.1,0.00016381,1637,0.00016319,1619.2,-5.2301e-05,0.079975,-5.6989e-05,-35.142,1.231
28981,16.437,5.8182,0.1,0.00016248,1623.7,0.0001621,1612.9,-5.2548e-05,0.07045,-5.5405e-05,-21.393,1.2303
28982,16.345,5.9091,0.1,0.00016459,1644.8,0.00016437,1638.5,-5.3693e-05,0.0083297,-5.536e-05,-12.511,1.2184
28983,16.529,0.27273,0.1,0.00016022,1601,0.0001597,1586.3,-5.1418e-05,0.073024,-5.5298e-05,-29.087,1.2423
28984,16.621,0.18182,0.1,0.00015635,1562.4,0.00015596,1551.2,-5.0484e-05,0.085182,-5.3449e-05,-22.189,1.2537
28985,16.529,0.090909,0.1,0.0001586,1584.9,0.00015838,1578.5,-5.1703e-05,0.0079332,-5.3407e-05,-12.794,1.2417
28986,16.529,0.45455,0.1,0.00016177,1616.6,0.00016099,1594.5,-5.1223e-05,0.036242,-5.6985e-05,-43.258,1.2429
28987,16.621,0.36364,0.1,0.00015795,1578.4,0.00015727,1559.1,-5.022e-05,0.086832,-5.5298e-05,-38.07,1.2543
28988,16.529,0.63636,0.1,0.00016342,1633.1,0.0001624,1604.5,-5.1146e-05,-0.0085736,-5.8561e-05,-55.723,1.2435
28989,16.621,0.54545,0.1,0.00015973,1596.2,0.00015877,1569.3,-5.0091e-05,-0.0067762,-5.7074e-05,-52.469,1.2548
28990,16.529,0.81818,0.1,0.00016509,1649.8,0.00016387,1615.7,-5.1176e-05,-0.01477,-5.9966e-05,-66.062,1.244
28991,16.621,0.72727,0.1,0.00016156,1614.5,0.00016037,1581.2,-5.0082e-05,-0.010631,-5.8686e-05,-64.654,1.2554
28992,16.529,1,0.1,0.00016673,1666.2,0.00016534,1627.8,-5.1307e-05,-0.020266,-6.1178e-05,-74.187,1.2445
28993,16.621,0.90909,0.1,0.0001634,1632.9,0.000162,1594.3,-5.019e-05,-0.019826,-6.0105e-05,-74.515,1.2559
28994,16.529,1.1818,0.1,0.0001683,1681.9,0.0001668,1640.4,-5.1528e-05,-0.021616,-6.2182e-05,-80.078,1.2449
28995,16.621,1.0909,0.1,0.00016519,1650.8,0.00016364,1608.3,-5.0404e-05,-0.021826,-6.1311e-05,-81.972,1.2563
28996,16.529,1.3636,0.1,0.00016977,1696.5,0.00016819,1653,-5.1823e-05,-0.021403,-6.2973e-05,-83.804,1.2453
28997,16.621,1.2727,0.1,0.00016689,1667.8,0.00016524,1622.6,-5.071e-05,-0.022229,-6.229e-05,-87.031,1.2568
28998,16.529,1.5455,0.1,0.0001711,1709.8,0.00016948,1665.4,-5.2174e-05,-0.020038,-6.3555e-05,-85.533,1.2457
28999,16.621,1.4545,0.1,0.00016847,1683.5,0.00016676,1636.8,-5.1088e-05,-0.020987,-6.3037e-05,-89.799,1.2571
29000,16.529,1.7273,0.1,0.00017227,1721.5,0.00017065,1677.1,-5.256e-05,-0.01821,-6.3942e-05,-85.537,1.246
29001,16.621,1.6364,0.1,0.00016988,1697.6,0.00016816,1650.5,-5.1518e-05,-0.019009,-6.3561e-05,-90.5,1.2575
29002,16.529,1.9091,0.1,0.00017327,1731.5,0.00017168,1687.8,-5.2959e-05,-0.016455,-6.4162e-05,-84.188,1.2463
29003,16.621,1.8182,0.1,0.0001711,1709.9,0.00016941,1663.4,-5.1975e-05,-0.016874,-6.3882e-05,-89.483,1.2578
29004,16.529,2.0909,0.1,0.0001741,1739.8,0.00017256,1697.4,-5.3347e-05,-0.015242,-6.4249e-05,-81.927,1.2465
29005,16.621,2,0.1,0.00017214,1720.2,0.00017049,1674.9,-5.2433e-05,-0.015205,-6.4037e-05,-87.205,1.258
29006,16.529,2.2727,0.1,0.00017476,1746.4,0.00017327,1705.4,-5.3702e-05,-0.014844,-6.4245e-05,-79.231,1.2467
29007,16.621,2.1818,0.1,0.00017298,1728.6,0.0001714,1685,-5.2864e-05,-0.014467,-6.4067e-05,-84.19,1.2582
29008,16.529,2.4545,0.1,0.00017526,1751.4,0.00017383,1711.8,-5.4002e-05,-0.015247,-6.419e-05,-76.564,1.2468
29009,16.621,2.3636,0.1,0.00017364,1735.2,0.00017212,1693.3,-5.3245e-05,-0.014824,-6.402e-05,-80.98,1.2584
29010,16.529,2.6364,0.1,0.00017561,1754.9,0.00017422,1716.5,-5.4231e-05,-0.016129,-6.4122e-05,-74.337,1.2469
29011,16.621,2.5455,0.1,0.00017412,1740,0.00017266,1699.7,-5.3551e-05,-0.016028,-6.394e-05,-78.077,1.2585
29012,16.529,2.8182,0.1,0.00017581,1756.9,0.00017446,1719.3,-5.4373e-05,-0.016978,-6.4069e-05,-72.867,1.247
29013,16.621,2.7273,0.1,0.00017444,1743.2,0.00017302,1704,-5.3766e-05,-0.017472,-6.3865e-05,-75.897,1.2586
29014,16.529,3,0.1,0.00017588,1757.6,0.00017454,1720.3,-5.4422e-05,-0.017324,-6.4049e-05,-72.354,1.247
29015,16.621,2.9091,0.1,0.0001746,1744.8,0.0001732,1706.2,-5.3877e-05,-0.018437,-6.3821e-05,-74.731,1.2587
29016,16.529,3.1818,0.1,0.00017581,1756.9,0.00017446,1719.3,-5.4373e-05,-0.016977,-6.4069e-05,-72.867,1.247
29017,16.621,3.0909,0.1,0.0001746,1744.8,0.0001732,1706.2,-5.3877e-05,-0.018436,-6.3821e-05,-74.731,1.2587
29018,16.529,3.3636,0.1,0.00017561,1754.9,0.00017422,1716.5,-5.4231e-05,-0.016128,-6.4122e-05,-74.337,1.2469
29019,16.621,3.2727,0.1,0.00017444,1743.2,0.00017302,1704,-5.3766e-05,-0.017471,-6.3865e-05,-75.897,1.2586
29020,16.529,3.5455,0.1,0.00017526,1751.4,0.00017383,1711.8,-5.4002e-05,-0.015246,-6.419e-05,-76.565,1.2468
29021,16.621,3.4545,0.1,0.00017412,1740,0.00017266,1699.7,-5.3551e-05,-0.016028,-6.394e-05,-78.077,1.2585
29022,16.529,3.7273,0.1,0.00017476,1746.4,0.00017327,1705.4,-5.3702e-05,-0.014843,-6.4245e-05,-79.231,1.2467
29023,16.621,3.6364,0.1,0.00017364,1735.2,0.00017212,1693.3,-5.3245e-05,-0.014823,-6.402e-05,-80.98,1.2584
29024,16.529,3.9091,0.1,0.0001741,1739.8,0.00017256,1697.4,-5.3347e-05,-0.015241,-6.4249e-05,-81.927,1.2465
29025,16.621,3.8182,0.1,0.00017298,1728.6,0.0001714,1685,-5.2864e-05,-0.014466,-6.4067e-05,-84.19,1.2582
29026,16.529,4.0909,0.1,0.00017327,1731.5,0.00017168,1687.8,-5.2959e-05,-0.016455,-6.4162e-05,-84.188,1.2463
29027,16.621,4,0.1,0.00017214,1720.2,0.00017049,1674.9,-5.2433e-05,-0.015205,-6.4037e-05,-87.205,1.258
29028,16.529,4.2727,0.1,0.00017227,1721.5,0.00017065,1677.1,-5.256e-05,-0.01821,-6.3942e-05,-85.537,1.246
29029,16.621,4.1818,0.1,0.0001711,1709.9,0.00016941,1663.4,-5.1975e-05,-0.016874,-6.3882e-05,-89.483,1.2578
29030,16.529,4.4545,0.1,0.0001711,1709.8,0.00016948,1665.4,-5.2174e-05,-0.020037,-6.3555e-05,-85.533,1.2457
29031,16.621,4.3636,0.1,0.00016988,1697.6,0.00016816,1650.5,-5.1518e-05,-0.019009,-6.3561e-05,-90.5,1.2575
29032,16.529,4.6364,0.1,0.00016977,1696.5,0.00016819,1653,-5.1823e-05,-0.021403,-6.2973e-05,-83.804,1.2453
29033,16.621,4.5455,0.1,0.00016847,1683.5,0.00016676,1636.8,-5.1088e-05,-0.020987,-6.3037e-05,-89.799,1.2571
29034,16.529,4.8182,0.1,0.0001683,1681.9,0.0001668,1640.4,-5.1528e-05,-0.021615,-6.2183e-05,-80.078,1.2449
29035,16.621,4.7273,0.1,0.00016689,1667.8,0.00016524,1622.6,-5.071e-05,-0.022228,-6.229e-05,-87.031,1.2568
29036,16.529,5,0.1,0.00016673,1666.2,0.00016534,1627.8,-5.1307e-05,-0.020265,-6.1178e-05,-74.187,1.2445
29037,16.621,4.9091,0.1,0.00016519,1650.8,0.00016364,1608.3,-5.0404e-05,-0.021825,-6.1311e-05,-81.972,1.2563
29038,16.529,5.1818,0.1,0.00016509,1649.8,0.00016387,1615.7,-5.1176e-05,-0.014768,-5.9966e-05,-66.062,1.244
29039,16.621,5.0909,0.1,0.0001634,1632.9,0.000162,1594.3,-5.019e-05,-0.019825,-6.0105e-05,-74.515,1.2559
29040,16.529,5.3636,0.1,0.00016342,1633.1,0.0001624,1604.5,-5.1146e-05,-0.0085717,-5.8561e-05,-55.723,1.2435
29041,16.621,5.2727,0.1,0.00016156,1614.5,0.00016037,1581.2,-5.0082e-05,-0.010629,-5.8686e-05,-64.654,1.2554
29042,16.529,5.5455,0.1,0.00016177,1616.6,0.00016099,1594.5,-5.1223e-05,0.036243,-5.6985e-05,-43.258,1.2429
29043,16.621,5.4545,0.1,0.00015973,1596.2,0.00015877,1569.3,-5.0091e-05,-0.0067743,-5.7074e-05,-52.469,1.2548
29044,16.529,5.7273,0.1,0.00016022,1601,0.0001597,1586.3,-5.1418e-05,0.073024,-5.5298e-05,-29.087,1.2423
29045,16.621,5.6364,0.1,0.00015795,1578.4,0.00015727,1559.1,-5.022e-05,0.086831,-5.5298e-05,-38.07,1.2543
29046,16.621,5.8182,0.1,0.00015635,1562.4,0.00015596,1551.2,-5.0484e-05,0.085182,-5.3449e-05,-22.189,1.2537
29047,16.529,5.9091,0.1,0.0001586,1584.9,0.00015838,1578.5,-5.1703e-05,0.0079343,-5.3407e-05,-12.794,1.2417
29048,16.712,0.27273,0.1,0.00015407,1539.6,0.00015352,1523.9,-4.9289e-05,0.079713,-5.3432e-05,-31.049,1.2657
29049,16.804,0.18182,0.1,0.00014985,1497.5,0.00014945,1485.9,-4.8295e-05,0.099825,-5.1381e-05,-23.084,1.2771
29050,16.712,0.090909,0.1,0.00015228,1521.8,0.00015206,1515.2,-4.9602e-05,0.0072326,-5.1348e-05,-13.112,1.265
29051,16.712,0.45455,0.1,0.00015591,1558,0.00015505,1533.9,-4.9089e-05,0.037512,-5.5383e-05,-47.258,1.2662
29052,16.804,0.36364,0.1,0.00015176,1516.6,0.00015102,1495.6,-4.8014e-05,0.093119,-5.3524e-05,-41.306,1.2777
29053,16.712,0.63636,0.1,0.00015787,1577.6,0.00015674,1546,-4.9028e-05,-0.011363,-5.7199e-05,-61.402,1.2668
29054,16.804,0.54545,0.1,0.00015386,1537.6,0.0001528,1507.9,-4.7894e-05,-0.010309,-5.5563e-05,-57.631,1.2782
29055,16.712,0.81818,0.1,0.00015988,1597.7,0.00015851,1559.8,-4.9097e-05,-0.016884,-5.8827e-05,-73.124,1.2673
29056,16.804,0.72727,0.1,0.00015605,1559.4,0.00015471,1522.4,-4.7917e-05,-0.012721,-5.7426e-05,-71.457,1.2788
29057,16.712,1,0.1,0.00016187,1617.5,0.00016031,1574.8,-4.9288e-05,-0.021998,-6.0241e-05,-82.325,1.2678
29058,16.804,0.90909,0.1,0.00015827,1581.6,0.0001567,1538.6,-4.8081e-05,-0.021653,-5.9081e-05,-82.673,1.2793
29059,16.712,1.1818,0.1,0.00016379,1636.8,0.00016209,1590.5,-4.9586e-05,-0.022735,-6.1422e-05,-88.954,1.2682
29060,16.804,1.0909,0.1,0.00016045,1603.4,0.00015871,1555.9,-4.8372e-05,-0.022917,-6.0501e-05,-91.159,1.2797
29061,16.712,1.3636,0.1,0.0001656,1654.8,0.00016382,1606.3,-4.9975e-05,-0.021912,-6.2357e-05,-93.055,1.2686
29062,16.804,1.2727,0.1,0.00016255,1624.4,0.00016069,1573.8,-4.8774e-05,-0.022679,-6.1664e-05,-96.872,1.2801
29063,16.712,1.5455,0.1,0.00016725,1671.4,0.00016544,1621.9,-5.0433e-05,-0.019922,-6.3046e-05,-94.792,1.269
29064,16.804,1.4545,0.1,0.00016451,1644,0.00016258,1591.7,-4.9267e-05,-0.020759,-6.2558e-05,-99.884,1.2805
29065,16.712,1.7273,0.1,0.00016872,1686,0.00016691,1636.8,-5.0934e-05,-0.017544,-6.3504e-05,-94.466,1.2693
29066,16.804,1.6364,0.1,0.00016627,1661.6,0.00016434,1609.1,-4.9823e-05,-0.018123,-6.3185e-05,-100.42,1.2809
29067,16.712,1.9091,0.1,0.00016998,1698.6,0.00016822,1650.5,-5.1449e-05,-0.015444,-6.376e-05,-92.515,1.2696
29068,16.804,1.8182,0.1,0.00016782,1677,0.00016592,1625.4,-5.0411e-05,-0.015458,-6.3569e-05,-98.878,1.2812
29069,16.712,2.0909,0.1,0.00017103,1709.1,0.00016933,1662.6,-5.195e-05,-0.014251,-6.3857e-05,-89.478,1.2698
29070,16.804,2,0.1,0.00016913,1690.1,0.00016729,1640.2,-5.1e-05,-0.013595,-6.375e-05,-95.806,1.2814
29071,16.712,2.2727,0.1,0.00017187,1717.5,0.00017024,1672.9,-5.2407e-05,-0.014334,-6.3843e-05,-85.944,1.27
29072,16.804,2.1818,0.1,0.0001702,1700.8,0.00016845,1653,-5.1555e-05,-0.013191,-6.3779e-05,-91.858,1.2816
29073,16.712,2.4545,0.1,0.00017251,1723.9,0.00017095,1681.1,-5.2793e-05,-0.015624,-6.3771e-05,-82.495,1.2702
29074,16.804,2.3636,0.1,0.00017104,1709.2,0.00016938,1663.7,-5.2044e-05,-0.014466,-6.3716e-05,-87.714,1.2818
29075,16.712,2.6364,0.1,0.00017296,1728.4,0.00017146,1687.2,-5.3087e-05,-0.017556,-6.3683e-05,-79.636,1.2703
29076,16.804,2.5455,0.1,0.00017166,1715.4,0.00017008,1671.9,-5.2438e-05,-0.01699,-6.3616e-05,-84.001,1.2819
29077,16.712,2.8182,0.1,0.00017322,1731,0.00017177,1690.8,-5.327e-05,-0.019258,-6.3616e-05,-77.759,1.2703
29078,16.804,2.7273,0.1,0.00017207,1719.5,0.00017054,1677.5,-5.2714e-05,-0.019747,-6.3522e-05,-81.23,1.282
29079,16.712,3,0.1,0.00017331,1731.9,0.00017187,1692.1,-5.3332e-05,-0.019933,-6.3592e-05,-77.105,1.2703
29080,16.804,2.9091,0.1,0.00017227,1721.6,0.00017078,1680.3,-5.2856e-05,-0.02153,-6.3468e-05,-79.755,1.282
29081,16.712,3.1818,0.1,0.00017322,1731,0.00017177,1690.8,-5.327e-05,-0.019258,-6.3616e-05,-77.759,1.2703
29082,16.804,3.0909,0.1,0.00017227,1721.6,0.00017078,1680.3,-5.2856e-05,-0.02153,-6.3468e-05,-79.755,1.282
29083,16.712,3.3636,0.1,0.00017296,1728.4,0.00017146,1687.2,-5.3087e-05,-0.017556,-6.3683e-05,-79.636,1.2703
29084,16.804,3.2727,0.1,0.00017207,1719.5,0.00017054,1677.5,-5.2714e-05,-0.019746,-6.3522e-05,-81.23,1.282
29085,16.712,3.5455,0.1,0.00017251,1723.9,0.00017095,1681.1,-5.2793e-05,-0.015624,-6.3771e-05,-82.495,1.2702
29086,16.804,3.4545,0.1,0.00017166,1715.4,0.00017008,1671.9,-5.2438e-05,-0.016991,-6.3616e-05,-84.001,1.2819
29087,16.712,3.7273,0.1,0.00017187,1717.5,0.00017024,1672.9,-5.2407e-05,-0.014334,-6.3843e-05,-85.944,1.27
29088,16.804,3.6364,0.1,0.00017104,1709.2,0.00016938,1663.7,-5.2044e-05,-0.014465,-6.3716e-05,-87.714,1.2818
29089,16.712,3.9091,0.1,0.00017103,1709.1,0.00016933,1662.6,-5.195e-05,-0.014251,-6.3857e-05,-89.478,1.2698
29090,16.804,3.8182,0.1,0.0001702,1700.8,0.00016845,1653,-5.1555e-05,-0.013191,-6.3779e-05,-91.858,1.2816
29091,16.712,4.0909,0.1,0.00016998,1698.6,0.00016822,1650.5,-5.1449e-05,-0.015444,-6.376e-05,-92.515,1.2696
29092,16.804,4,0.1,0.00016913,1690.1,0.00016729,1640.2,-5.1e-05,-0.013595,-6.375e-05,-95.806,1.2814
29093,16.712,4.2727,0.1,0.00016872,1686,0.00016691,1636.8,-5.0934e-05,-0.017544,-6.3504e-05,-94.466,1.2693
29094,16.804,4.1818,0.1,0.00016782,1677,0.00016592,1625.4,-5.0411e-05,-0.015458,-6.3569e-05,-98.878,1.2812
29095,16.712,4.4545,0.1,0.00016725,1671.4,0.00016544,1621.9,-5.0433e-05,-0.019922,-6.3046e-05,-94.792,1.269
29096,16.804,4.3636,0.1,0.00016627,1661.6,0.00016434,1609.1,-4.9823e-05,-0.018123,-6.3185e-05,-100.42,1.2809
29097,16.712,4.6364,0.1,0.0001656,1654.8,0.00016382,1606.3,-4.9975e-05,-0.021911,-6.2357e-05,-93.055,1.2686
29098,16.804,4.5455,0.1,0.00016451,1644,0.00016258,1591.7,-4.9267e-05,-0.020759,-6.2558e-05,-99.884,1.2805
29099,16.712,4.8182,0.1,0.00016379,1636.8,0.00016209,1590.5,-4.9586e-05,-0.022735,-6.1422e-05,-88.954,1.2682
29100,16.804,4.7273,0.1,0.00016255,1624.4,0.00016069,1573.8,-4.8774e-05,-0.022678,-6.1664e-05,-96.872,1.2801
29101,16.712,5,0.1,0.00016187,1617.5,0.00016031,1574.8,-4.9288e-05,-0.021998,-6.0241e-05,-82.325,1.2678
29102,16.804,4.9091,0.1,0.00016045,1603.4,0.00015871,1555.9,-4.8372e-05,-0.022916,-6.0501e-05,-91.159,1.2797
29103,16.712,5.1818,0.1,0.00015988,1597.7,0.00015851,1559.8,-4.9097e-05,-0.016882,-5.8827e-05,-73.124,1.2673
29104,16.804,5.0909,0.1,0.00015827,1581.6,0.0001567,1538.6,-4.8081e-05,-0.021652,-5.9081e-05,-82.673,1.2793
29105,16.712,5.3636,0.1,0.00015787,1577.6,0.00015674,1546,-4.9028e-05,-0.011361,-5.7199e-05,-61.402,1.2668
29106,16.804,5.2727,0.1,0.00015605,1559.4,0.00015471,1522.4,-4.7917e-05,-0.012719,-5.7426e-05,-71.457,1.2788
29107,16.712,5.5455,0.1,0.00015591,1558,0.00015505,1533.9,-4.9089e-05,0.037513,-5.5383e-05,-47.258,1.2662
29108,16.804,5.4545,0.1,0.00015386,1537.6,0.0001528,1507.9,-4.7894e-05,-0.010307,-5.5563e-05,-57.631,1.2782
29109,16.712,5.7273,0.1,0.00015407,1539.6,0.00015352,1523.9,-4.9289e-05,0.079713,-5.3432e-05,-31.049,1.2657
29110,16.804,5.6364,0.1,0.00015176,1516.6,0.00015102,1495.6,-4.8014e-05,0.093119,-5.3524e-05,-41.306,1.2777
29111,16.804,5.8182,0.1,0.00014985,1497.5,0.00014945,1485.9,-4.8295e-05,0.099824,-5.1381e-05,-23.084,1.2771
29112,16.712,5.9091,0.1,0.00015228,1521.8,0.00015206,1515.2,-4.9602e-05,0.0072315,-5.1348e-05,-13.112,1.265
29113,16.896,0.27273,0.1,0.00014753,1474.3,0.00014694,1457.5,-4.7024e-05,0.084585,-5.1456e-05,-33.217,1.2891
29114,16.988,0.18182,0.1,0.00014291,1428.1,0.00014249,1416,-4.5954e-05,0.11193,-4.9174e-05,-24.082,1.3006
29115,16.896,0.090909,0.1,0.00014555,1454.5,0.00014532,1447.8,-4.7364e-05,0.0059552,-4.9157e-05,-13.47,1.2885
29116,16.896,0.45455,0.1,0.00014971,1496.1,0.00014877,1469.6,-4.6821e-05,0.03793,-5.3702e-05,-51.668,1.2897
29117,16.988,0.36364,0.1,0.00014516,1450.6,0.00014435,1427.8,-4.5658e-05,0.097997,-5.1638e-05,-44.83,1.3012
29118,16.896,0.63636,0.1,0.00015204,1519.4,0.00015078,1484.4,-4.6783e-05,-0.014532,-5.5793e-05,-67.707,1.2902
29119,16.988,0.54545,0.1,0.00014764,1475.3,0.00014646,1442.7,-4.5552e-05,-0.01461,-5.3973e-05,-63.287,1.3017
29120,16.896,0.81818,0.1,0.00015444,1543.4,0.00015291,1501.3,-4.6901e-05,-0.01883,-5.7685e-05,-81.046,1.2908
29121,16.988,0.72727,0.1,0.00015024,1501.4,0.00014874,1460.3,-4.5616e-05,-0.01472,-5.6129e-05,-79.003,1.3023
29122,16.896,1,0.1,0.00015686,1567.5,0.0001551,1519.7,-4.7165e-05,-0.02325,-5.9348e-05,-91.558,1.2912
29123,16.988,0.90909,0.1,0.00015292,1528.2,0.00015115,1480.2,-4.5848e-05,-0.022908,-5.807e-05,-91.856,1.3028
29124,16.896,1.1818,0.1,0.00015923,1591.2,0.00015731,1539.3,-4.756e-05,-0.023182,-6.0751e-05,-99.133,1.2917
29125,16.988,1.0909,0.1,0.0001556,1555,0.00015362,1501.6,-4.6234e-05,-0.023152,-5.976e-05,-101.65,1.3032
29126,16.896,1.3636,0.1,0.00016147,1613.6,0.00015946,1559.2,-4.8066e-05,-0.021624,-6.1872e-05,-103.76,1.2921
29127,16.988,1.2727,0.1,0.0001582,1581,0.00015608,1524,-4.6755e-05,-0.022129,-6.116e-05,-108.26,1.3036
29128,16.896,1.5455,0.1,0.00016354,1634.3,0.00016149,1578.9,-4.8656e-05,-0.018901,-6.2703e-05,-105.56,1.2924
29129,16.988,1.4545,0.1,0.00016065,1605.4,0.00015846,1546.6,-4.7388e-05,-0.019432,-6.2247e-05,-111.66,1.304
29130,16.896,1.7273,0.1,0.00016538,1652.7,0.00016335,1597.7,-4.93e-05,-0.015868,-6.3256e-05,-104.87,1.2927
29131,16.988,1.6364,0.1,0.00016287,1627.6,0.00016067,1568.6,-4.8101e-05,-0.01602,-6.3014e-05,-112.07,1.3043
29132,16.896,1.9091,0.1,0.00016697,1668.6,0.000165,1615.1,-4.9963e-05,-0.013377,-6.3563e-05,-102.2,1.293
29133,16.988,1.8182,0.1,0.00016482,1647.1,0.00016267,1589.3,-4.8856e-05,-0.012712,-6.3483e-05,-109.91,1.3046
29134,16.896,2.0909,0.1,0.00016831,1681.9,0.00016642,1630.6,-5.0606e-05,-0.012307,-6.3675e-05,-98.207,1.2932
29135,16.988,2,0.1,0.00016648,1663.6,0.00016443,1608.2,-4.9612e-05,-0.010643,-6.37e-05,-105.87,1.3049
29136,16.896,2.2727,0.1,0.00016938,1692.6,0.00016759,1643.8,-5.1193e-05,-0.013192,-6.3654e-05,-93.641,1.2934
29137,16.988,2.1818,0.1,0.00016785,1677.3,0.0001659,1624.6,-5.0324e-05,-0.010812,-6.3733e-05,-100.76,1.3051
29138,16.896,2.4545,0.1,0.0001702,1700.8,0.0001685,1654.4,-5.1689e-05,-0.015896,-6.3562e-05,-89.228,1.2936
29139,16.988,2.3636,0.1,0.00016892,1688.1,0.0001671,1638.3,-5.0951e-05,-0.01356,-6.3654e-05,-95.461,1.3053
29140,16.896,2.6364,0.1,0.00017078,1706.6,0.00016916,1662.2,-5.2065e-05,-0.019495,-6.3455e-05,-85.598,1.2937
29141,16.988,2.5455,0.1,0.00016973,1696.1,0.000168,1648.9,-5.1455e-05,-0.018163,-6.3532e-05,-90.755,1.3054
29142,16.896,2.8182,0.1,0.00017112,1710.1,0.00016956,1666.9,-5.23e-05,-0.022551,-6.3374e-05,-83.226,1.2937
29143,16.988,2.7273,0.1,0.00017026,1701.4,0.0001686,1656.1,-5.1809e-05,-0.022968,-6.342e-05,-87.269,1.3055
29144,16.896,3,0.1,0.00017124,1711.2,0.00016969,1668.5,-5.238e-05,-0.023747,-6.3344e-05,-82.403,1.2938
29145,16.988,2.9091,0.1,0.00017052,1704.1,0.00016891,1659.7,-5.199e-05,-0.026026,-6.3356e-05,-85.423,1.3055
29146,16.896,3.1818,0.1,0.00017112,1710.1,0.00016956,1666.9,-5.23e-05,-0.022551,-6.3374e-05,-83.226,1.2937
29147,16.988,3.0909,0.1,0.00017052,1704.1,0.00016891,1659.7,-5.199e-05,-0.026026,-6.3356e-05,-85.423,1.3055
29148,16.896,3.3636,0.1,0.00017078,1706.6,0.00016916,1662.2,-5.2065e-05,-0.019495,-6.3455e-05,-85.598,1.2937
29149,16.988,3.2727,0.1,0.00017026,1701.4,0.0001686,1656.1,-5.1809e-05,-0.022967,-6.342e-05,-87.269,1.3055
29150,16.896,3.5455,0.1,0.0001702,1700.8,0.0001685,1654.4,-5.1689e-05,-0.015896,-6.3562e-05,-89.228,1.2936
29151,16.988,3.4545,0.1,0.00016973,1696.1,0.000168,1648.9,-5.1455e-05,-0.018163,-6.3532e-05,-90.755,1.3054
29152,16.896,3.7273,0.1,0.00016938,1692.6,0.00016759,1643.8,-5.1193e-05,-0.013191,-6.3654e-05,-93.641,1.2934
29153,16.988,3.6364,0.1,0.00016892,1688.1,0.0001671,1638.3,-5.0951e-05,-0.013559,-6.3654e-05,-95.461,1.3053
29154,16.896,3.9091,0.1,0.00016831,1681.9,0.00016642,1630.6,-5.0606e-05,-0.012307,-6.3675e-05,-98.207,1.2932
29155,16.988,3.8182,0.1,0.00016785,1677.3,0.0001659,1624.6,-5.0324e-05,-0.010812,-6.3733e-05,-100.76,1.3051
29156,16.896,4.0909,0.1,0.00016697,1668.6,0.000165,1615.1,-4.9963e-05,-0.013377,-6.3563e-05,-102.2,1.293
29157,16.988,4,0.1,0.00016648,1663.6,0.00016443,1608.2,-4.9612e-05,-0.010643,-6.37e-05,-105.87,1.3049
29158,16.896,4.2727,0.1,0.00016538,1652.7,0.00016335,1597.7,-4.93e-05,-0.015867,-6.3256e-05,-104.87,1.2927
29159,16.988,4.1818,0.1,0.00016482,1647.1,0.00016267,1589.3,-4.8856e-05,-0.012712,-6.3483e-05,-109.91,1.3046
29160,16.896,4.4545,0.1,0.00016354,1634.3,0.00016149,1578.9,-4.8656e-05,-0.018901,-6.2703e-05,-105.56,1.2924
29161,16.988,4.3636,0.1,0.00016287,1627.6,0.00016067,1568.6,-4.8101e-05,-0.01602,-6.3014e-05,-112.07,1.3043
29162,16.896,4.6364,0.1,0.00016147,1613.6,0.00015946,1559.2,-4.8066e-05,-0.021624,-6.1872e-05,-103.76,1.2921
29163,16.988,4.5455,0.1,0.00016065,1605.4,0.00015846,1546.6,-4.7388e-05,-0.019432,-6.2247e-05,-111.66,1.304
29164,16.896,4.8182,0.1,0.00015923,1591.2,0.00015731,1539.3,-4.756e-05,-0.023182,-6.0751e-05,-99.133,1.2917
29165,16.988,4.7273,0.1,0.0001582,1581,0.00015608,1524,-4.6755e-05,-0.02213,-6.116e-05,-108.26,1.3036
29166,16.896,5,0.1,0.00015686,1567.5,0.0001551,1519.7,-4.7165e-05,-0.02325,-5.9348e-05,-91.559,1.2912
29167,16.988,4.9091,0.1,0.0001556,1555,0.00015362,1501.6,-4.6234e-05,-0.023152,-5.976e-05,-101.65,1.3032
29168,16.896,5.1818,0.1,0.00015444,1543.4,0.00015291,1501.3,-4.6901e-05,-0.018829,-5.7685e-05,-81.046,1.2908
29169,16.988,5.0909,0.1,0.00015292,1528.2,0.00015115,1480.2,-4.5848e-05,-0.022908,-5.807e-05,-91.856,1.3028
29170,16.896,5.3636,0.1,0.00015204,1519.4,0.00015078,1484.4,-4.6783e-05,-0.014531,-5.5793e-05,-67.707,1.2902
29171,16.988,5.2727,0.1,0.00015024,1501.4,0.00014874,1460.3,-4.5616e-05,-0.014718,-5.6129e-05,-79.003,1.3023
29172,16.896,5.5455,0.1,0.00014971,1496.1,0.00014877,1469.6,-4.6821e-05,0.037931,-5.3702e-05,-51.668,1.2897
29173,16.988,5.4545,0.1,0.00014764,1475.3,0.00014646,1442.7,-4.5552e-05,-0.014609,-5.3973e-05,-63.287,1.3017
29174,16.896,5.7273,0.1,0.00014753,1474.3,0.00014694,1457.5,-4.7024e-05,0.084585,-5.1456e-05,-33.217,1.2891
29175,16.988,5.6364,0.1,0.00014516,1450.6,0.00014435,1427.8,-4.5658e-05,0.097997,-5.1638e-05,-44.83,1.3012
29176,16.988,5.8182,0.1,0.00014291,1428.1,0.00014249,1416,-4.5954e-05,0.11192,-4.9174e-05,-24.082,1.3006
29177,16.896,5.9091,0.1,0.00014555,1454.5,0.00014532,1447.8,-4.7364e-05,0.0059552,-4.9157e-05,-13.47,1.2885
29178,17.08,0.27273,0.1,0.00014053,1404.3,0.00013989,1386.2,-4.4593e-05,0.085958,-4.9339e-05,-35.573,1.3127
29179,17.172,0.18182,0.1,0.00013543,1353.4,0.00013499,1340.7,-4.343e-05,0.11748,-4.6796e-05,-25.178,1.3242
29180,17.08,0.090909,0.1,0.00013832,1382.3,0.00013808,1375.3,-4.4958e-05,0.0038438,-4.6805e-05,-13.87,1.312
29181,17.08,0.45455,0.1,0.00014309,1429.9,0.00014204,1400.8,-4.4391e-05,0.03702,-5.191e-05,-56.455,1.3132
29182,17.172,0.36364,0.1,0.00013806,1379.6,0.00013717,1354.7,-4.3123e-05,0.1002,-4.9602e-05,-48.582,1.3248
29183,17.08,0.63636,0.1,0.00014584,1457.4,0.00014443,1418.7,-4.4385e-05,-0.017995,-5.4316e-05,-74.632,1.3138
29184,17.172,0.54545,0.1,0.00014095,1408.6,0.00013965,1372.6,-4.3037e-05,-0.019842,-5.2269e-05,-69.379,1.3253
29185,17.08,0.81818,0.1,0.00014873,1486.3,0.000147,1439.3,-4.4563e-05,-0.020278,-5.6524e-05,-89.89,1.3143
29186,17.172,0.72727,0.1,0.00014406,1439.6,0.00014238,1394,-4.3151e-05,-0.016433,-5.4767e-05,-87.293,1.3259
29187,17.08,1,0.1,0.00015168,1515.7,0.00014968,1462.1,-4.4916e-05,-0.023551,-5.8494e-05,-102.04,1.3148
29188,17.172,0.90909,0.1,0.00014731,1472.1,0.0001453,1418.3,-4.3465e-05,-0.023144,-5.706e-05,-102.17,1.3264
29189,17.08,1.1818,0.1,0.0001546,1544.9,0.00015241,1486.5,-4.5429e-05,-0.022442,-6.0182e-05,-110.88,1.3152
29190,17.172,1.0909,0.1,0.0001506,1505,0.00014835,1444.9,-4.3963e-05,-0.021982,-5.9092e-05,-113.69,1.3268
29191,17.08,1.3636,0.1,0.0001574,1572.9,0.0001551,1511.5,-4.6077e-05,-0.02003,-6.1548e-05,-116.26,1.3156
29192,17.172,1.2727,0.1,0.00015384,1537.4,0.00015141,1473,-4.4629e-05,-0.020031,-6.0805e-05,-121.56,1.3272
29193,17.08,1.5455,0.1,0.00015999,1598.8,0.00015765,1536.4,-4.6833e-05,-0.016468,-6.2569e-05,-118.25,1.316
29194,17.172,1.4545,0.1,0.00015691,1568,0.00015439,1501.4,-4.5435e-05,-0.016513,-6.215e-05,-125.61,1.3276
29195,17.08,1.7273,0.1,0.00016232,1622.1,0.00016001,1560.3,-4.7657e-05,-0.012652,-6.325e-05,-117.18,1.3163
29196,17.172,1.6364,0.1,0.00015971,1596,0.0001572,1529.3,-4.6344e-05,-0.012261,-6.3106e-05,-125.96,1.3279
29197,17.08,1.9091,0.1,0.00016433,1642.2,0.00016211,1582.4,-4.8505e-05,-0.0096896,-6.3627e-05,-113.63,1.3166
29198,17.172,1.8182,0.1,0.00016219,1620.7,0.00015974,1555.7,-4.7309e-05,-0.0082029,-6.369e-05,-123.09,1.3282
29199,17.08,2.0909,0.1,0.00016603,1659.1,0.00016392,1602.2,-4.9329e-05,-0.0088692,-6.3763e-05,-108.46,1.3168
29200,17.172,2,0.1,0.0001643,1641.8,0.00016197,1579.7,-4.8276e-05,-0.0059623,-6.3958e-05,-117.83,1.3285
29201,17.08,2.2727,0.1,0.0001674,1672.8,0.00016541,1619.1,-5.0081e-05,-0.011041,-6.3736e-05,-102.6,1.317
29202,17.172,2.1818,0.1,0.00016604,1659.2,0.00016386,1600.8,-4.9189e-05,-0.0070408,-6.3997e-05,-111.27,1.3287
29203,17.08,2.4545,0.1,0.00016845,1683.4,0.00016659,1632.8,-5.0717e-05,-0.015971,-6.3625e-05,-97.001,1.3171
29204,17.172,2.3636,0.1,0.00016742,1673.1,0.0001654,1618.3,-4.9992e-05,-0.011988,-6.3901e-05,-104.52,1.3289
29205,17.08,2.6364,0.1,0.00016921,1690.9,0.00016744,1642.8,-5.1199e-05,-0.022151,-6.3498e-05,-92.432,1.3172
29206,17.172,2.5455,0.1,0.00016846,1683.4,0.00016656,1632,-5.0638e-05,-0.019736,-6.3758e-05,-98.598,1.329
29207,17.08,2.8182,0.1,0.00016966,1695.4,0.00016796,1648.9,-5.1499e-05,-0.027283,-6.3402e-05,-89.466,1.3173
29208,17.172,2.7273,0.1,0.00016915,1690.4,0.00016735,1641.2,-5.1089e-05,-0.027633,-6.363e-05,-94.256,1.3291
29209,17.08,3,0.1,0.00016981,1696.9,0.00016813,1650.9,-5.1601e-05,-0.029275,-6.3368e-05,-88.441,1.3173
29210,17.172,2.9091,0.1,0.0001695,1693.8,0.00016775,1646,-5.1321e-05,-0.032597,-6.3557e-05,-91.973,1.3291
29211,17.08,3.1818,0.1,0.00016966,1695.4,0.00016796,1648.9,-5.1499e-05,-0.027282,-6.3402e-05,-89.467,1.3173
29212,17.172,3.0909,0.1,0.0001695,1693.8,0.00016775,1646,-5.1321e-05,-0.032596,-6.3557e-05,-91.973,1.3291
29213,17.08,3.3636,0.1,0.00016921,1690.9,0.00016744,1642.8,-5.1199e-05,-0.02215,-6.3498e-05,-92.432,1.3172
29214,17.172,3.2727,0.1,0.00016915,1690.4,0.00016735,1641.2,-5.1089e-05,-0.027632,-6.363e-05,-94.256,1.3291
29215,17.08,3.5455,0.1,0.00016845,1683.4,0.00016659,1632.8,-5.0717e-05,-0.015971,-6.3625e-05,-97.001,1.3171
29216,17.172,3.4545,0.1,0.00016846,1683.4,0.00016656,1632,-5.0638e-05,-0.019736,-6.3758e-05,-98.598,1.329
29217,17.08,3.7273,0.1,0.0001674,1672.8,0.00016541,1619.1,-5.0081e-05,-0.011041,-6.3736e-05,-102.6,1.317
29218,17.172,3.6364,0.1,0.00016742,1673.1,0.0001654,1618.3,-4.9992e-05,-0.011987,-6.3901e-05,-104.52,1.3289
29219,17.08,3.9091,0.1,0.00016603,1659.1,0.00016392,1602.2,-4.9329e-05,-0.0088695,-6.3763e-05,-108.46,1.3168
29220,17.172,3.8182,0.1,0.00016604,1659.2,0.00016386,1600.8,-4.9189e-05,-0.0070416,-6.3997e-05,-111.27,1.3287
29221,17.08,4.0909,0.1,0.00016433,1642.2,0.00016211,1582.4,-4.8505e-05,-0.0096895,-6.3627e-05,-113.63,1.3166
29222,17.172,4,0.1,0.0001643,1641.8,0.00016197,1579.7,-4.8276e-05,-0.0059617,-6.3958e-05,-117.84,1.3285
29223,17.08,4.2727,0.1,0.00016232,1622.1,0.00016001,1560.3,-4.7657e-05,-0.012652,-6.325e-05,-117.18,1.3163
29224,17.172,4.1818,0.1,0.00016219,1620.7,0.00015974,1555.7,-4.7309e-05,-0.0082029,-6.369e-05,-123.09,1.3282
29225,17.08,4.4545,0.1,0.00015999,1598.8,0.00015765,1536.4,-4.6833e-05,-0.016467,-6.2569e-05,-118.25,1.316
29226,17.172,4.3636,0.1,0.00015971,1596,0.0001572,1529.3,-4.6344e-05,-0.012261,-6.3106e-05,-125.96,1.3279
29227,17.08,4.6364,0.1,0.0001574,1572.9,0.0001551,1511.5,-4.6077e-05,-0.02003,-6.1548e-05,-116.26,1.3156
29228,17.172,4.5455,0.1,0.00015691,1568,0.00015439,1501.4,-4.5435e-05,-0.016512,-6.215e-05,-125.61,1.3276
29229,17.08,4.8182,0.1,0.0001546,1544.9,0.00015241,1486.5,-4.5429e-05,-0.022442,-6.0182e-05,-110.88,1.3152
29230,17.172,4.7273,0.1,0.00015384,1537.4,0.00015141,1473,-4.4629e-05,-0.020032,-6.0805e-05,-121.56,1.3272
29231,17.08,5,0.1,0.00015168,1515.7,0.00014968,1462.1,-4.4916e-05,-0.023551,-5.8494e-05,-102.04,1.3148
29232,17.172,4.9091,0.1,0.0001506,1505,0.00014835,1444.9,-4.3963e-05,-0.021981,-5.9092e-05,-113.69,1.3268
29233,17.08,5.1818,0.1,0.00014873,1486.3,0.000147,1439.3,-4.4563e-05,-0.020276,-5.6524e-05,-89.89,1.3143
29234,17.172,5.0909,0.1,0.00014731,1472.1,0.0001453,1418.3,-4.3465e-05,-0.023142,-5.706e-05,-102.17,1.3264
29235,17.08,5.3636,0.1,0.00014584,1457.4,0.00014443,1418.7,-4.4385e-05,-0.017993,-5.4316e-05,-74.632,1.3138
29236,17.172,5.2727,0.1,0.00014406,1439.6,0.00014238,1394,-4.3151e-05,-0.016432,-5.4767e-05,-87.293,1.3259
29237,17.08,5.5455,0.1,0.00014309,1429.9,0.00014204,1400.8,-4.4391e-05,0.03702,-5.191e-05,-56.455,1.3132
29238,17.172,5.4545,0.1,0.00014095,1408.6,0.00013965,1372.6,-4.3037e-05,-0.019841,-5.2269e-05,-69.38,1.3253
29239,17.08,5.7273,0.1,0.00014053,1404.3,0.00013989,1386.2,-4.4593e-05,0.085957,-4.9339e-05,-35.573,1.3127
29240,17.172,5.6364,0.1,0.00013806,1379.6,0.00013717,1354.7,-4.3123e-05,0.10019,-4.9602e-05,-48.582,1.3248
29241,17.172,5.8182,0.1,0.00013543,1353.4,0.00013499,1340.7,-4.343e-05,0.11748,-4.6796e-05,-25.178,1.3242
29242,17.08,5.9091,0.1,0.00013832,1382.3,0.00013808,1375.3,-4.4958e-05,0.0038434,-4.6805e-05,-13.87,1.312
29243,17.263,0.27273,0.1,0.00013295,1328.5,0.00013226,1309.1,-4.1966e-05,0.081248,-4.7044e-05,-38.073,1.3363
29244,17.355,0.18182,0.1,0.00012731,1272.2,0.00012684,1258.8,-4.0689e-05,0.11051,-4.4211e-05,-26.354,1.3479
29245,17.263,0.090909,0.1,0.00013049,1304,0.00013024,1296.8,-4.2352e-05,0.00035559,-4.4256e-05,-14.309,1.3357
29246,17.263,0.45455,0.1,0.00013593,1358.3,0.00013478,1326.5,-4.1771e-05,0.033929,-4.9965e-05,-61.539,1.3369
29247,17.355,0.36364,0.1,0.00013033,1302.4,0.00012936,1275.4,-4.0377e-05,0.097769,-4.737e-05,-52.45,1.3485
29248,17.263,0.63636,0.1,0.00013918,1390.9,0.0001376,1348,-4.1804e-05,-0.02177,-5.2732e-05,-82.133,1.3374
29249,17.355,0.54545,0.1,0.00013371,1336.2,0.00013226,1296.6,-4.0318e-05,-0.026328,-5.0402e-05,-75.792,1.349
29250,17.263,0.81818,0.1,0.00014266,1425.6,0.0001407,1373.1,-4.2053e-05,-0.020896,-5.5321e-05,-99.708,1.338
29251,17.355,0.72727,0.1,0.00013741,1373.1,0.00013551,1322.4,-4.0492e-05,-0.017706,-5.3305e-05,-96.291,1.3496
29252,17.263,1,0.1,0.00014626,1461.6,0.00014399,1401.3,-4.2512e-05,-0.022359,-5.7679e-05,-113.98,1.3384
29253,17.355,0.90909,0.1,0.00014135,1412.5,0.00013907,1352.2,-4.0899e-05,-0.021807,-5.6033e-05,-113.73,1.3501
29254,17.263,1.1818,0.1,0.00014988,1497.8,0.00014737,1431.6,-4.3164e-05,-0.01992,-5.9737e-05,-124.54,1.3389
29255,17.355,1.0909,0.1,0.00014542,1453.2,0.00014282,1385.1,-4.1529e-05,-0.018664,-5.851e-05,-127.6,1.3505
29256,17.263,1.3636,0.1,0.00015338,1532.8,0.00015073,1463,-4.3987e-05,-0.016592,-6.1429e-05,-131.07,1.3393
29257,17.355,1.2727,0.1,0.00014946,1493.6,0.00014665,1420.2,-4.2367e-05,-0.015595,-6.0639e-05,-137.31,1.3509
29258,17.263,1.5455,0.1,0.00015666,1565.5,0.00015396,1494.5,-4.4946e-05,-0.012196,-6.2706e-05,-133.46,1.3396
29259,17.355,1.4545,0.1,0.00015334,1532.3,0.00015041,1456.1,-4.3383e-05,-0.011262,-6.2336e-05,-142.42,1.3513
29260,17.263,1.7273,0.1,0.0001596,1594.9,0.00015695,1524.8,-4.5996e-05,-0.0075598,-6.3561e-05,-131.99,1.3399
29261,17.355,1.6364,0.1,0.00015689,1567.8,0.00015397,1491.5,-4.4536e-05,-0.0061043,-6.355e-05,-142.87,1.3517
29262,17.263,1.9091,0.1,0.00016216,1620.5,0.00015962,1553,-4.708e-05,-0.0041362,-6.4033e-05,-127.38,1.3402
29263,17.355,1.8182,0.1,0.00016003,1599.2,0.00015721,1525.1,-4.5767e-05,-0.001185,-6.4288e-05,-139.16,1.3519
29264,17.263,2.0909,0.1,0.00016432,1642,0.00016193,1578.3,-4.8136e-05,-0.0038142,-6.42e-05,-120.7,1.3404
29265,17.355,2,0.1,0.00016271,1626,0.00016006,1555.8,-4.7006e-05,0.0013536,-6.4621e-05,-132.35,1.3522
29266,17.263,2.2727,0.1,0.00016607,1659.5,0.00016385,1600,-4.91e-05,-0.0078681,-6.4167e-05,-113.22,1.3406
29267,17.355,2.1818,0.1,0.00016494,1648.2,0.00016248,1582.8,-4.8177e-05,-0.0011559,-6.4665e-05,-123.89,1.3524
29268,17.263,2.4545,0.1,0.00016743,1673.2,0.00016537,1617.6,-4.9913e-05,-0.016042,-6.4037e-05,-106.14,1.3408
29269,17.355,2.3636,0.1,0.00016671,1666,0.00016445,1605.3,-4.9205e-05,-0.0097385,-6.455e-05,-115.3,1.3526
29270,17.263,2.6364,0.1,0.00016841,1682.9,0.00016647,1630.4,-5.0528e-05,-0.026043,-6.3891e-05,-100.43,1.3409
29271,17.355,2.5455,0.1,0.00016805,1679.4,0.00016596,1622.8,-5.003e-05,-0.022277,-6.4385e-05,-107.88,1.3527
29272,17.263,2.8182,0.1,0.000169,1688.8,0.00016714,1638.3,-5.0911e-05,-0.034238,-6.3784e-05,-96.761,1.341
29273,17.355,2.7273,0.1,0.00016896,1688.4,0.00016698,1634.8,-5.0604e-05,-0.034643,-6.4246e-05,-102.53,1.3528
29274,17.263,3,0.1,0.0001692,1690.8,0.00016737,1641,-5.104e-05,-0.037395,-6.3746e-05,-95.501,1.341
29275,17.355,2.9091,0.1,0.00016942,1693,0.0001675,1640.9,-5.0898e-05,-0.042295,-6.4169e-05,-99.755,1.3528
29276,17.263,3.1818,0.1,0.000169,1688.8,0.00016714,1638.3,-5.0911e-05,-0.034238,-6.3784e-05,-96.761,1.341
29277,17.355,3.0909,0.1,0.00016942,1693,0.0001675,1640.9,-5.0898e-05,-0.042294,-6.4169e-05,-99.755,1.3528
29278,17.263,3.3636,0.1,0.00016841,1682.9,0.00016647,1630.4,-5.0528e-05,-0.026043,-6.3891e-05,-100.43,1.3409
29279,17.355,3.2727,0.1,0.00016896,1688.4,0.00016698,1634.8,-5.0604e-05,-0.034643,-6.4246e-05,-102.53,1.3528
29280,17.263,3.5455,0.1,0.00016743,1673.2,0.00016537,1617.6,-4.9913e-05,-0.016042,-6.4037e-05,-106.14,1.3408
29281,17.355,3.4545,0.1,0.00016805,1679.4,0.00016596,1622.8,-5.003e-05,-0.022277,-6.4385e-05,-107.88,1.3527
29282,17.263,3.7273,0.1,0.00016607,1659.5,0.00016385,1600,-4.91e-05,-0.0078684,-6.4167e-05,-113.22,1.3406
29283,17.355,3.6364,0.1,0.00016671,1666,0.00016445,1605.3,-4.9205e-05,-0.0097385,-6.455e-05,-115.3,1.3526
29284,17.263,3.9091,0.1,0.00016432,1642,0.00016193,1578.3,-4.8136e-05,-0.0038143,-6.42e-05,-120.7,1.3404
29285,17.355,3.8182,0.1,0.00016494,1648.2,0.00016248,1582.8,-4.8177e-05,-0.001156,-6.4665e-05,-123.89,1.3524
29286,17.263,4.0909,0.1,0.00016216,1620.5,0.00015962,1553,-4.708e-05,-0.0041358,-6.4033e-05,-127.38,1.3402
29287,17.355,4,0.1,0.00016271,1626,0.00016006,1555.8,-4.7006e-05,0.0013541,-6.4621e-05,-132.35,1.3522
29288,17.263,4.2727,0.1,0.0001596,1594.9,0.00015695,1524.8,-4.5996e-05,-0.0075602,-6.3561e-05,-131.99,1.3399
29289,17.355,4.1818,0.1,0.00016003,1599.2,0.00015721,1525.1,-4.5767e-05,-0.0011845,-6.4288e-05,-139.16,1.3519
29290,17.263,4.4545,0.1,0.00015666,1565.5,0.00015396,1494.5,-4.4946e-05,-0.012196,-6.2706e-05,-133.46,1.3396
29291,17.355,4.3636,0.1,0.00015689,1567.8,0.00015397,1491.5,-4.4536e-05,-0.0061048,-6.355e-05,-142.87,1.3517
29292,17.263,4.6364,0.1,0.00015338,1532.8,0.00015073,1463,-4.3987e-05,-0.016592,-6.1429e-05,-131.07,1.3393
29293,17.355,4.5455,0.1,0.00015334,1532.3,0.00015041,1456.1,-4.3383e-05,-0.011261,-6.2336e-05,-142.42,1.3513
29294,17.263,4.8182,0.1,0.00014988,1497.8,0.00014737,1431.6,-4.3164e-05,-0.019919,-5.9737e-05,-124.54,1.3389
29295,17.355,4.7273,0.1,0.00014946,1493.6,0.00014665,1420.2,-4.2367e-05,-0.015595,-6.0639e-05,-137.31,1.3509
29296,17.263,5,0.1,0.00014626,1461.6,0.00014399,1401.3,-4.2512e-05,-0.022357,-5.7679e-05,-113.98,1.3384
29297,17.355,4.9091,0.1,0.00014542,1453.2,0.00014282,1385.1,-4.1529e-05,-0.018663,-5.851e-05,-127.6,1.3505
29298,17.263,5.1818,0.1,0.00014266,1425.6,0.0001407,1373.1,-4.2053e-05,-0.020895,-5.5321e-05,-99.708,1.338
29299,17.355,5.0909,0.1,0.00014135,1412.5,0.00013907,1352.2,-4.0899e-05,-0.021805,-5.6033e-05,-113.73,1.3501
29300,17.263,5.3636,0.1,0.00013918,1390.9,0.0001376,1348,-4.1804e-05,-0.02177,-5.2732e-05,-82.133,1.3374
29301,17.355,5.2727,0.1,0.00013741,1373.1,0.00013551,1322.4,-4.0492e-05,-0.017705,-5.3305e-05,-96.291,1.3496
29302,17.263,5.5455,0.1,0.00013593,1358.3,0.00013478,1326.5,-4.1771e-05,0.033929,-4.9965e-05,-61.539,1.3369
29303,17.355,5.4545,0.1,0.00013371,1336.2,0.00013226,1296.6,-4.0318e-05,-0.026329,-5.0402e-05,-75.792,1.349
29304,17.263,5.7273,0.1,0.00013295,1328.5,0.00013226,1309.1,-4.1966e-05,0.081247,-4.7044e-05,-38.073,1.3363
29305,17.355,5.6364,0.1,0.00013033,1302.4,0.00012936,1275.4,-4.0377e-05,0.09777,-4.737e-05,-52.45,1.3485
29306,17.355,5.8182,0.1,0.00012731,1272.2,0.00012684,1258.8,-4.0689e-05,0.11051,-4.4211e-05,-26.354,1.3479
29307,17.263,5.9091,0.1,0.00013049,1304,0.00013024,1296.8,-4.2352e-05,0.00035682,-4.4256e-05,-14.309,1.3357
29308,17.447,0.27273,0.1,0.00012468,1245.9,0.00012394,1225.1,-3.9108e-05,0.066914,-4.4525e-05,-40.633,1.36
29309,17.539,0.18182,0.1,0.00011842,1183.4,0.00011793,1169.4,-3.7698e-05,0.083067,-4.1378e-05,-27.565,1.3716
29310,17.447,0.090909,0.1,0.00012194,1218.6,0.00012168,1211.1,-3.9507e-05,-0.0053037,-4.1473e-05,-14.774,1.3594
29311,17.447,0.45455,0.1,0.00012812,1280.3,0.00012685,1245.6,-3.8926e-05,0.027403,-4.7817e-05,-66.776,1.3606
29312,17.539,0.36364,0.1,0.00012186,1217.7,0.0001208,1188.7,-3.7387e-05,0.087933,-4.4885e-05,-56.248,1.3722
29313,17.447,0.63636,0.1,0.00013195,1318.6,0.00013019,1271.2,-3.9007e-05,-0.025951,-5.0997e-05,-90.113,1.3612
29314,17.539,0.54545,0.1,0.00012577,1256.8,0.00012417,1213.6,-3.7363e-05,-0.034679,-4.8316e-05,-82.331,1.3728
29315,17.447,0.81818,0.1,0.00013613,1360.4,0.00013391,1301.7,-3.9338e-05,-0.020277,-5.4048e-05,-110.55,1.3617
29316,17.539,0.72727,0.1,0.00013016,1300.7,0.00012804,1244.5,-3.7602e-05,-0.018558,-5.1697e-05,-105.92,1.3733
29317,17.447,1,0.1,0.00014055,1404.5,0.00013794,1336.3,-3.9917e-05,-0.018901,-5.6901e-05,-127.63,1.3622
29318,17.539,0.90909,0.1,0.00013496,1348.6,0.00013235,1280.8,-3.8113e-05,-0.018304,-5.4974e-05,-126.71,1.3738
29319,17.447,1.1818,0.1,0.00014505,1449.5,0.00014215,1374.1,-4.0732e-05,-0.014663,-5.945e-05,-140.66,1.3626
29320,17.539,1.0909,0.1,0.00014,1399,0.00013699,1321.5,-3.889e-05,-0.012197,-5.8034e-05,-143.85,1.3743
29321,17.447,1.3636,0.1,0.00014946,1493.6,0.00014637,1413.6,-4.1763e-05,-0.010311,-6.1583e-05,-148.93,1.363
29322,17.539,1.2727,0.1,0.00014508,1449.8,0.00014179,1365.3,-3.9926e-05,-0.007758,-6.0728e-05,-156.31,1.3747
29323,17.447,1.5455,0.1,0.00015361,1535,0.00015046,1453.3,-4.2972e-05,-0.0050335,-6.321e-05,-152.06,1.3634
29324,17.539,1.4545,0.1,0.00014999,1498.9,0.00014655,1410.6,-4.1196e-05,-0.0029739,-6.2909e-05,-163.15,1.3751
29325,17.447,1.7273,0.1,0.00015735,1572.4,0.00015426,1491.9,-4.4307e-05,0.00054739,-6.43e-05,-150.22,1.3637
29326,17.539,1.6364,0.1,0.00015452,1544.1,0.00015108,1455.6,-4.2653e-05,0.0023698,-6.4477e-05,-163.97,1.3755
29327,17.447,1.9091,0.1,0.00016061,1604.9,0.00015766,1528,-4.5693e-05,0.0046734,-6.4893e-05,-144.26,1.364
29328,17.539,1.8182,0.1,0.00015852,1584.1,0.00015521,1498.5,-4.4225e-05,0.0079773,-6.5419e-05,-159.24,1.3758
29329,17.447,2.0909,0.1,0.00016335,1632.3,0.00016062,1560.3,-4.7047e-05,0.0043406,-6.5097e-05,-135.62,1.3642
29330,17.539,2,0.1,0.00016193,1618.2,0.00015885,1537.8,-4.5816e-05,0.0098785,-6.5826e-05,-150.34,1.376
29331,17.447,2.2727,0.1,0.00016559,1654.7,0.00016308,1588.1,-4.8282e-05,-0.0029903,-6.5054e-05,-126.02,1.3644
29332,17.539,2.1818,0.1,0.00016475,1646.4,0.00016194,1572.3,-4.7321e-05,0.0049367,-6.5865e-05,-139.33,1.3762
29333,17.447,2.4545,0.1,0.00016734,1672.2,0.00016504,1610.6,-4.9322e-05,-0.016526,-6.4902e-05,-117.08,1.3646
29334,17.539,2.3636,0.1,0.00016703,1669.1,0.00016447,1601.2,-4.8639e-05,-0.0079125,-6.5721e-05,-128.35,1.3764
29335,17.447,2.6364,0.1,0.00016861,1684.9,0.00016647,1627.2,-5.0106e-05,-0.032176,-6.4741e-05,-110,1.3647
29336,17.539,2.5455,0.1,0.00016876,1686.4,0.00016642,1623.7,-4.969e-05,-0.026922,-6.5537e-05,-119.1,1.3765
29337,17.447,2.8182,0.1,0.00016938,1692.6,0.00016734,1637.4,-5.0591e-05,-0.044625,-6.4629e-05,-105.52,1.3647
29338,17.539,2.7273,0.1,0.00016995,1698.3,0.00016775,1639.2,-5.0416e-05,-0.045401,-6.5396e-05,-112.59,1.3766
29339,17.447,3,0.1,0.00016964,1695.3,0.00016763,1640.8,-5.0756e-05,-0.049362,-6.459e-05,-103.99,1.3647
29340,17.539,2.9091,0.1,0.00017055,1704.3,0.00016843,1647,-5.0786e-05,-0.056491,-6.5323e-05,-109.28,1.3767
29341,17.447,3.1818,0.1,0.00016938,1692.6,0.00016734,1637.4,-5.0591e-05,-0.044625,-6.4629e-05,-105.52,1.3647
29342,17.539,3.0909,0.1,0.00017055,1704.3,0.00016843,1647,-5.0786e-05,-0.056491,-6.5323e-05,-109.28,1.3767
29343,17.447,3.3636,0.1,0.00016861,1684.9,0.00016647,1627.2,-5.0106e-05,-0.032176,-6.4741e-05,-110,1.3647
29344,17.539,3.2727,0.1,0.00016995,1698.3,0.00016775,1639.2,-5.0416e-05,-0.045401,-6.5396e-05,-112.59,1.3766
29345,17.447,3.5455,0.1,0.00016734,1672.2,0.00016504,1610.6,-4.9322e-05,-0.016526,-6.4902e-05,-117.08,1.3646
29346,17.539,3.4545,0.1,0.00016876,1686.4,0.00016642,1623.7,-4.969e-05,-0.026921,-6.5537e-05,-119.1,1.3765
29347,17.447,3.7273,0.1,0.00016559,1654.7,0.00016308,1588.1,-4.8282e-05,-0.0029901,-6.5054e-05,-126.02,1.3644
29348,17.539,3.6364,0.1,0.00016703,1669.1,0.00016447,1601.2,-4.8639e-05,-0.0079127,-6.5721e-05,-128.35,1.3764
29349,17.447,3.9091,0.1,0.00016335,1632.3,0.00016062,1560.3,-4.7047e-05,0.0043411,-6.5097e-05,-135.62,1.3642
29350,17.539,3.8182,0.1,0.00016475,1646.4,0.00016194,1572.3,-4.7321e-05,0.0049374,-6.5865e-05,-139.33,1.3762
29351,17.447,4.0909,0.1,0.00016061,1605,0.00015766,1528,-4.5693e-05,0.004674,-6.4893e-05,-144.26,1.364
29352,17.539,4,0.1,0.00016193,1618.2,0.00015885,1537.8,-4.5816e-05,0.0098788,-6.5826e-05,-150.34,1.376
29353,17.447,4.2727,0.1,0.00015735,1572.4,0.00015426,1491.9,-4.4307e-05,0.00054779,-6.43e-05,-150.22,1.3637
29354,17.539,4.1818,0.1,0.00015852,1584.1,0.00015521,1498.5,-4.4225e-05,0.0079778,-6.5419e-05,-159.24,1.3758
29355,17.447,4.4545,0.1,0.00015361,1535,0.00015046,1453.3,-4.2972e-05,-0.0050329,-6.321e-05,-152.06,1.3634
29356,17.539,4.3636,0.1,0.00015452,1544.1,0.00015108,1455.6,-4.2653e-05,0.0023701,-6.4477e-05,-163.97,1.3755
29357,17.447,4.6364,0.1,0.00014946,1493.6,0.00014637,1413.6,-4.1763e-05,-0.01031,-6.1583e-05,-148.93,1.363
29358,17.539,4.5455,0.1,0.00014999,1498.9,0.00014655,1410.6,-4.1196e-05,-0.0029734,-6.291e-05,-163.15,1.3751
29359,17.447,4.8182,0.1,0.00014505,1449.5,0.00014215,1374.1,-4.0732e-05,-0.014662,-5.945e-05,-140.66,1.3626
29360,17.539,4.7273,0.1,0.00014508,1449.8,0.00014179,1365.3,-3.9926e-05,-0.007757,-6.0728e-05,-156.31,1.3747
29361,17.447,5,0.1,0.00014055,1404.5,0.00013794,1336.3,-3.9917e-05,-0.018899,-5.6901e-05,-127.63,1.3622
29362,17.539,4.9091,0.1,0.00014,1399,0.00013699,1321.5,-3.889e-05,-0.012197,-5.8034e-05,-143.85,1.3743
29363,17.447,5.1818,0.1,0.00013613,1360.4,0.00013391,1301.7,-3.9338e-05,-0.020276,-5.4048e-05,-110.55,1.3617
29364,17.539,5.0909,0.1,0.00013496,1348.6,0.00013235,1280.8,-3.8113e-05,-0.018303,-5.4974e-05,-126.71,1.3738
29365,17.447,5.3636,0.1,0.00013195,1318.6,0.00013019,1271.2,-3.9007e-05,-0.025952,-5.0997e-05,-90.113,1.3612
29366,17.539,5.2727,0.1,0.00013016,1300.7,0.00012804,1244.5,-3.7602e-05,-0.018557,-5.1697e-05,-105.92,1.3733
29367,17.447,5.5455,0.1,0.00012812,1280.3,0.00012685,1245.6,-3.8926e-05,0.027404,-4.7817e-05,-66.776,1.3606
29368,17.539,5.4545,0.1,0.00012577,1256.8,0.00012417,1213.6,-3.7363e-05,-0.034679,-4.8316e-05,-82.331,1.3728
29369,17.447,5.7273,0.1,0.00012468,1245.9,0.00012394,1225.1,-3.9108e-05,0.066914,-4.4525e-05,-40.633,1.36
29370,17.539,5.6364,0.1,0.00012186,1217.7,0.0001208,1188.7,-3.7387e-05,0.087933,-4.4885e-05,-56.248,1.3722
29371,17.539,5.8182,0.1,0.00011842,1183.4,0.00011793,1169.4,-3.7698e-05,0.083067,-4.1378e-05,-27.565,1.3716
29372,17.447,5.9091,0.1,0.00012194,1218.6,0.00012168,1211.1,-3.9507e-05,-0.0053063,-4.1473e-05,-14.774,1.3594
29373,17.631,0.27273,0.1,0.00011559,1155.1,0.0001148,1132.9,-3.5986e-05,0.038409,-4.1729e-05,-43.115,1.3839
29374,17.723,0.18182,0.1,0.00010866,1085.8,0.00010814,1071.2,-3.4422e-05,0.026548,-3.8251e-05,-28.737,1.3955
29375,17.631,0.090909,0.1,0.00011255,1124.7,0.00011229,1117,-3.6386e-05,-0.014401,-3.8412e-05,-15.238,1.3833
29376,17.631,0.45455,0.1,0.00011953,1194.4,0.00011814,1156.8,-3.5825e-05,0.015546,-4.5402e-05,-71.941,1.3844
29377,17.723,0.36364,0.1,0.0001125,1124.2,0.00011137,1093.2,-3.4122e-05,0.067326,-4.2078e-05,-59.705,1.3961
29378,17.631,0.63636,0.1,0.00012402,1239.4,0.00012205,1187.2,-3.5958e-05,-0.030984,-4.9053e-05,-98.416,1.385
29379,17.723,0.54545,0.1,0.00011701,1169.3,0.00011524,1122.3,-3.4138e-05,-0.04559,-4.5939e-05,-88.719,1.3967
29380,17.631,0.81818,0.1,0.00012905,1289.6,0.00012653,1224,-3.6377e-05,-0.018208,-5.2675e-05,-122.47,1.3855
29381,17.723,0.72727,0.1,0.00012221,1221.3,0.00011982,1159.1,-3.4445e-05,-0.019061,-4.9892e-05,-116.08,1.3972
29382,17.631,1,0.1,0.00013448,1343.9,0.00013146,1266.4,-3.7087e-05,-0.012322,-5.6169e-05,-143.39,1.386
29383,17.723,0.90909,0.1,0.00012804,1279.5,0.00012505,1203,-3.506e-05,-0.01179,-5.3868e-05,-141.32,1.3977
29384,17.631,1.1818,0.1,0.00014011,1400.1,0.0001367,1313.3,-3.8085e-05,-0.0055319,-5.9377e-05,-159.99,1.3865
29385,17.723,1.0909,0.1,0.0001343,1342.1,0.00013078,1253.1,-3.5994e-05,-0.00097724,-5.7705e-05,-163.13,1.3982
29386,17.631,1.3636,0.1,0.00014569,1455.9,0.00014203,1362.9,-3.936e-05,-0.00039556,-6.2116e-05,-170.98,1.3869
29387,17.723,1.2727,0.1,0.00014073,1406.3,0.00013681,1307.8,-3.7251e-05,0.0057458,-6.1175e-05,-179.75,1.3986
29388,17.631,1.5455,0.1,0.00015097,1508.7,0.00014722,1413.3,-4.0877e-05,0.0045994,-6.4227e-05,-175.44,1.3872
29389,17.723,1.4545,0.1,0.000147,1469,0.00014285,1365,-3.8821e-05,0.01155,-6.4035e-05,-189.44,1.399
29390,17.631,1.7273,0.1,0.00015574,1556.3,0.00015207,1462.4,-4.2571e-05,0.010072,-6.5634e-05,-173.28,1.3876
29391,17.723,1.6364,0.1,0.00015279,1526.9,0.00014864,1422.3,-4.0657e-05,0.018119,-6.6096e-05,-191.12,1.3994
29392,17.631,1.9091,0.1,0.00015988,1597.7,0.00015642,1508.5,-4.4347e-05,0.013528,-6.6379e-05,-165.52,1.3878
29393,17.723,1.8182,0.1,0.0001579,1577.9,0.00015394,1477.2,-4.2668e-05,0.022906,-6.7304e-05,-185.08,1.3997
29394,17.631,2.0909,0.1,0.00016336,1632.5,0.00016019,1549.9,-4.609e-05,0.010737,-6.6612e-05,-154.18,1.3881
29395,17.723,2,0.1,0.00016223,1621.2,0.00015859,1527.6,-4.4723e-05,0.026217,-6.778e-05,-173.21,1.3999
29396,17.631,2.2727,0.1,0.00016621,1660.9,0.00016334,1585.5,-4.7678e-05,-0.00016852,-6.6542e-05,-141.74,1.3883
29397,17.723,2.1818,0.1,0.0001658,1656.9,0.00016253,1571.9,-4.6669e-05,0.017895,-6.778e-05,-158.6,1.4002
29398,17.631,2.4545,0.1,0.00016845,1683.4,0.00016586,1614.4,-4.9007e-05,-0.019339,-6.636e-05,-130.41,1.3884
29399,17.723,2.3636,0.1,0.00016869,1685.7,0.00016577,1608.9,-4.8362e-05,-0.007168,-6.7581e-05,-144.41,1.4003
29400,17.631,2.6364,0.1,0.0001701,1699.8,0.0001677,1635.7,-5e-05,-0.042161,-6.6191e-05,-121.69,1.3885
29401,17.723,2.5455,0.1,0.00017092,1708,0.00016827,1637.6,-4.9695e-05,-0.036825,-6.7378e-05,-132.9,1.4005
29402,17.631,2.8182,0.1,0.00017111,1709.9,0.00016883,1648.8,-5.0611e-05,-0.060029,-6.6086e-05,-116.33,1.3886
29403,17.723,2.7273,0.1,0.00017245,1723.3,0.00016998,1657.3,-5.0604e-05,-0.061972,-6.725e-05,-125.13,1.4006
29404,17.631,3,0.1,0.00017145,1713.3,0.00016922,1653.2,-5.0817e-05,-0.066652,-6.6051e-05,-114.53,1.3886
29405,17.723,2.9091,0.1,0.00017324,1731.2,0.00017086,1667.4,-5.1063e-05,-0.076561,-6.7196e-05,-121.3,1.4006
29406,17.631,3.1818,0.1,0.00017111,1709.9,0.00016883,1648.8,-5.0611e-05,-0.060029,-6.6086e-05,-116.33,1.3886
29407,17.723,3.0909,0.1,0.00017324,1731.2,0.00017086,1667.4,-5.1063e-05,-0.076561,-6.7196e-05,-121.3,1.4006
29408,17.631,3.3636,0.1,0.0001701,1699.8,0.0001677,1635.7,-5e-05,-0.042161,-6.6191e-05,-121.69,1.3885
29409,17.723,3.2727,0.1,0.00017245,1723.3,0.00016998,1657.3,-5.0604e-05,-0.061973,-6.725e-05,-125.13,1.4006
29410,17.631,3.5455,0.1,0.00016845,1683.4,0.00016586,1614.4,-4.9007e-05,-0.019338,-6.636e-05,-130.41,1.3884
29411,17.723,3.4545,0.1,0.00017092,1708,0.00016827,1637.6,-4.9695e-05,-0.036825,-6.7378e-05,-132.9,1.4005
29412,17.631,3.7273,0.1,0.00016621,1660.9,0.00016334,1585.5,-4.7678e-05,-0.00016815,-6.6542e-05,-141.74,1.3883
29413,17.723,3.6364,0.1,0.00016869,1685.7,0.00016577,1608.9,-4.8362e-05,-0.0071672,-6.7581e-05,-144.41,1.4003
29414,17.631,3.9091,0.1,0.00016336,1632.5,0.00016019,1549.9,-4.609e-05,0.010738,-6.6612e-05,-154.18,1.3881
29415,17.723,3.8182,0.1,0.0001658,1656.9,0.00016253,1571.9,-4.6669e-05,0.017895,-6.778e-05,-158.6,1.4002
29416,17.631,4.0909,0.1,0.00015988,1597.7,0.00015642,1508.5,-4.4347e-05,0.013528,-6.6379e-05,-165.52,1.3878
29417,17.723,4,0.1,0.00016223,1621.2,0.00015859,1527.6,-4.4723e-05,0.026218,-6.778e-05,-173.21,1.3999
29418,17.631,4.2727,0.1,0.00015574,1556.3,0.00015207,1462.4,-4.2571e-05,0.010072,-6.5634e-05,-173.28,1.3876
29419,17.723,4.1818,0.1,0.0001579,1577.9,0.00015394,1477.2,-4.2668e-05,0.022905,-6.7304e-05,-185.08,1.3997
29420,17.631,4.4545,0.1,0.00015097,1508.7,0.00014722,1413.3,-4.0877e-05,0.0045997,-6.4227e-05,-175.44,1.3872
29421,17.723,4.3636,0.1,0.00015279,1526.9,0.00014864,1422.3,-4.0657e-05,0.018119,-6.6096e-05,-191.12,1.3994
29422,17.631,4.6364,0.1,0.00014569,1455.9,0.00014203,1362.9,-3.936e-05,-0.00039536,-6.2116e-05,-170.98,1.3869
29423,17.723,4.5455,0.1,0.000147,1469,0.00014285,1365,-3.8821e-05,0.011551,-6.4035e-05,-189.44,1.399
29424,17.631,4.8182,0.1,0.00014011,1400.1,0.0001367,1313.3,-3.8085e-05,-0.0055321,-5.9377e-05,-159.99,1.3865
29425,17.723,4.7273,0.1,0.00014073,1406.3,0.00013681,1307.8,-3.7251e-05,0.0057463,-6.1175e-05,-179.75,1.3986
29426,17.631,5,0.1,0.00013448,1343.9,0.00013146,1266.4,-3.7087e-05,-0.012322,-5.6169e-05,-143.39,1.386
29427,17.723,4.9091,0.1,0.0001343,1342.1,0.00013078,1253.1,-3.5994e-05,-0.00097717,-5.7705e-05,-163.13,1.3982
29428,17.631,5.1818,0.1,0.00012905,1289.6,0.00012653,1224,-3.6377e-05,-0.018207,-5.2675e-05,-122.47,1.3855
29429,17.723,5.0909,0.1,0.00012804,1279.5,0.00012505,1203,-3.506e-05,-0.01179,-5.3868e-05,-141.32,1.3977
29430,17.631,5.3636,0.1,0.00012402,1239.4,0.00012205,1187.2,-3.5958e-05,-0.030982,-4.9053e-05,-98.416,1.385
29431,17.723,5.2727,0.1,0.00012221,1221.3,0.00011982,1159.1,-3.4445e-05,-0.019059,-4.9892e-05,-116.08,1.3972
29432,17.631,5.5455,0.1,0.00011953,1194.4,0.00011814,1156.8,-3.5825e-05,0.015546,-4.5402e-05,-71.941,1.3844
29433,17.723,5.4545,0.1,0.00011701,1169.3,0.00011524,1122.3,-3.4138e-05,-0.045588,-4.5939e-05,-88.72,1.3967
29434,17.631,5.7273,0.1,0.00011559,1155.1,0.0001148,1132.9,-3.5986e-05,0.038408,-4.1729e-05,-43.115,1.3839
29435,17.723,5.6364,0.1,0.0001125,1124.2,0.00011137,1093.2,-3.4122e-05,0.067325,-4.2078e-05,-59.705,1.3961
29436,17.723,5.8182,0.1,0.00010866,1085.8,0.00010814,1071.2,-3.4422e-05,0.026549,-3.8251e-05,-28.737,1.3955
29437,17.631,5.9091,0.1,0.00011255,1124.7,0.00011229,1117,-3.6386e-05,-0.0144,-3.8412e-05,-15.238,1.3833
29438,17.814,0.27273,0.1,0.00010556,1054.9,0.00010472,1031.5,-3.2568e-05,-0.0084628,-3.8598e-05,-45.317,1.4078
29439,17.906,0.18182,0.1,9.7922e-05,978.54,9.7381e-05,963.3,-3.0835e-05,-0.066253,-3.4785e-05,-29.749,1.4194
29440,17.814,0.090909,0.1,0.00010221,1021.4,0.00010193,1013.4,-3.2953e-05,-0.027826,-3.5032e-05,-15.65,1.4072
29441,17.814,0.45455,0.1,0.00011001,1099.3,0.0001085,1059,-3.2437e-05,-0.0034312,-4.2647e-05,-76.72,1.4083
29442,17.906,0.36364,0.1,0.00010213,1020.6,0.00010093,987.95,-3.0559e-05,0.031482,-3.8876e-05,-62.457,1.42
29443,17.814,0.63636,0.1,0.00011526,1151.8,0.00011307,1094.7,-3.2625e-05,-0.037034,-4.6839e-05,-106.84,1.4089
29444,17.906,0.54545,0.1,0.00010728,1072,0.00010535,1021.6,-3.0617e-05,-0.061067,-4.3201e-05,-94.615,1.4206
29445,17.814,0.81818,0.1,0.00012131,1212.2,0.00011843,1138.7,-3.3128e-05,-0.014058,-5.1171e-05,-135.58,1.4094
29446,17.906,0.72727,0.1,0.00011344,1133.6,0.00011075,1064.9,-3.0984e-05,-0.021105,-4.7842e-05,-126.69,1.4212
29447,17.814,1,0.1,0.000128,1279.1,0.00012447,1190.4,-3.3968e-05,-0.00099258,-5.5507e-05,-161.84,1.4099
29448,17.906,0.90909,0.1,0.00012052,1204.4,0.00011706,1117.6,-3.1692e-05,-0.0035144,-5.2714e-05,-157.95,1.4217
29449,17.814,1.1818,0.1,0.00013506,1349.7,0.000131,1248.5,-3.516e-05,0.010238,-5.9612e-05,-183.72,1.4104
29450,17.906,1.0909,0.1,0.00012832,1282.3,0.00012413,1178.9,-3.2771e-05,0.015349,-5.7592e-05,-186.48,1.4222
29451,17.814,1.3636,0.1,0.00014217,1420.7,0.00013773,1310.7,-3.6712e-05,0.017874,-6.3196e-05,-198.98,1.4108
29452,17.906,1.2727,0.1,0.00013648,1363.8,0.0001317,1247,-3.4258e-05,0.027834,-6.2144e-05,-209.49,1.4226
29453,17.814,1.5455,0.1,0.00014893,1488.3,0.00014436,1374.7,-3.8601e-05,0.025306,-6.5988e-05,-205.75,1.4112
29454,17.906,1.4545,0.1,0.00014454,1444.4,0.00013942,1319.4,-3.6172e-05,0.031763,-6.5975e-05,-223.9,1.423
29455,17.814,1.7273,0.1,0.00015504,1549.3,0.00015057,1437.6,-4.0754e-05,0.031174,-6.7826e-05,-203.38,1.4115
29456,17.906,1.6364,0.1,0.00015202,1519.2,0.00014687,1392.7,-3.8481e-05,0.027391,-6.874e-05,-227.33,1.4234
29457,17.814,1.9091,0.1,0.0001603,1601.9,0.00015614,1496.7,-4.3044e-05,0.035814,-6.8746e-05,-193.08,1.4118
29458,17.906,1.8182,0.1,0.00015857,1584.6,0.00015369,1463.4,-4.1072e-05,0.034263,-7.0293e-05,-219.52,1.4237
29459,17.814,2.0909,0.1,0.0001647,1645.9,0.00016095,1549.8,-4.5302e-05,0.033414,-6.8973e-05,-177.82,1.4121
29460,17.906,2,0.1,0.00016404,1639.3,0.00015964,1528.3,-4.3757e-05,0.022208,-7.0798e-05,-203.16,1.424
29461,17.814,2.2727,0.1,0.0001683,1681.8,0.00016497,1595.3,-4.7353e-05,0.010215,-6.8831e-05,-161.37,1.4123
29462,17.906,2.1818,0.1,0.00016853,1684.1,0.00016466,1585.1,-4.6296e-05,-0.00026271,-7.0671e-05,-183.15,1.4242
29463,17.814,2.4545,0.1,0.00017116,1710.4,0.00016818,1632.2,-4.905e-05,-0.026556,-6.8601e-05,-146.93,1.4124
29464,17.906,2.3636,0.1,0.00017216,1720.4,0.00016877,1632.2,-4.8472e-05,-0.01823,-7.0356e-05,-164.45,1.4244
29465,17.814,2.6364,0.1,0.00017327,1731.5,0.00017054,1659.3,-5.0299e-05,-0.0597,-6.8432e-05,-136.3,1.4125
29466,17.906,2.5455,0.1,0.00017497,1748.5,0.00017193,1668.6,-5.0148e-05,-0.054248,-7.0126e-05,-150.16,1.4245
29467,17.814,2.8182,0.1,0.00017457,1744.5,0.000172,1675.9,-5.1056e-05,-0.082249,-6.8351e-05,-130.03,1.4126
29468,17.906,2.7273,0.1,0.00017693,1768,0.0001741,1693.2,-5.1263e-05,-0.087501,-7.0033e-05,-141.12,1.4246
29469,17.814,3,0.1,0.00017502,1749,0.00017249,1681.4,-5.1309e-05,-0.090415,-6.8329e-05,-127.98,1.4126
29470,17.906,2.9091,0.1,0.00017793,1778.1,0.00017521,1705.6,-5.1816e-05,-0.1027,-7.0018e-05,-136.87,1.4247
29471,17.814,3.1818,0.1,0.00017457,1744.5,0.000172,1675.9,-5.1056e-05,-0.082249,-6.8351e-05,-130.03,1.4126
29472,17.906,3.0909,0.1,0.00017793,1778.1,0.00017521,1705.6,-5.1816e-05,-0.1027,-7.0018e-05,-136.87,1.4247
29473,17.814,3.3636,0.1,0.00017327,1731.5,0.00017054,1659.3,-5.0299e-05,-0.0597,-6.8432e-05,-136.3,1.4125
29474,17.906,3.2727,0.1,0.00017693,1768,0.0001741,1693.2,-5.1263e-05,-0.087501,-7.0033e-05,-141.12,1.4246
29475,17.814,3.5455,0.1,0.00017116,1710.4,0.00016818,1632.2,-4.905e-05,-0.026555,-6.8601e-05,-146.93,1.4124
29476,17.906,3.4545,0.1,0.00017497,1748.5,0.00017193,1668.6,-5.0148e-05,-0.054249,-7.0126e-05,-150.16,1.4245
29477,17.814,3.7273,0.1,0.0001683,1681.8,0.00016497,1595.3,-4.7353e-05,0.010216,-6.8831e-05,-161.37,1.4123
29478,17.906,3.6364,0.1,0.00017216,1720.4,0.00016877,1632.2,-4.8472e-05,-0.018229,-7.0356e-05,-164.45,1.4244
29479,17.814,3.9091,0.1,0.0001647,1645.9,0.00016095,1549.8,-4.5302e-05,0.033415,-6.8973e-05,-177.82,1.4121
29480,17.906,3.8182,0.1,0.00016853,1684.1,0.00016466,1585.1,-4.6296e-05,-0.00026285,-7.0671e-05,-183.15,1.4242
29481,17.814,4.0909,0.1,0.0001603,1601.9,0.00015614,1496.7,-4.3044e-05,0.035815,-6.8746e-05,-193.08,1.4118
29482,17.906,4,0.1,0.00016404,1639.3,0.00015964,1528.3,-4.3757e-05,0.022208,-7.0798e-05,-203.16,1.424
29483,17.814,4.2727,0.1,0.00015504,1549.3,0.00015057,1437.6,-4.0754e-05,0.031173,-6.7826e-05,-203.38,1.4115
29484,17.906,4.1818,0.1,0.00015857,1584.6,0.00015369,1463.4,-4.1072e-05,0.034262,-7.0293e-05,-219.52,1.4237
29485,17.814,4.4545,0.1,0.00014893,1488.3,0.00014436,1374.7,-3.8601e-05,0.025306,-6.5988e-05,-205.75,1.4112
29486,17.906,4.3636,0.1,0.00015202,1519.2,0.00014687,1392.7,-3.8481e-05,0.027391,-6.874e-05,-227.33,1.4234
29487,17.814,4.6364,0.1,0.00014217,1420.7,0.00013773,1310.7,-3.6712e-05,0.017875,-6.3196e-05,-198.98,1.4108
29488,17.906,4.5455,0.1,0.00014454,1444.4,0.00013942,1319.4,-3.6172e-05,0.031765,-6.5975e-05,-223.9,1.423
29489,17.814,4.8182,0.1,0.00013506,1349.7,0.000131,1248.5,-3.516e-05,0.010239,-5.9612e-05,-183.72,1.4104
29490,17.906,4.7273,0.1,0.00013648,1363.8,0.0001317,1247,-3.4258e-05,0.027834,-6.2144e-05,-209.49,1.4226
29491,17.814,5,0.1,0.000128,1279.1,0.00012447,1190.4,-3.3968e-05,-0.00099218,-5.5507e-05,-161.84,1.4099
29492,17.906,4.9091,0.1,0.00012832,1282.3,0.00012413,1178.9,-3.2771e-05,0.01535,-5.7592e-05,-186.48,1.4222
29493,17.814,5.1818,0.1,0.00012131,1212.2,0.00011843,1138.7,-3.3128e-05,-0.014058,-5.1171e-05,-135.58,1.4094
29494,17.906,5.0909,0.1,0.00012052,1204.4,0.00011706,1117.6,-3.1692e-05,-0.0035138,-5.2714e-05,-157.95,1.4217
29495,17.814,5.3636,0.1,0.00011526,1151.8,0.00011307,1094.7,-3.2625e-05,-0.037032,-4.6839e-05,-106.84,1.4089
29496,17.906,5.2727,0.1,0.00011344,1133.6,0.00011075,1064.9,-3.0984e-05,-0.021103,-4.7842e-05,-126.69,1.4212
29497,17.814,5.5455,0.1,0.00011001,1099.3,0.0001085,1059,-3.2437e-05,-0.0034312,-4.2647e-05,-76.72,1.4083
29498,17.906,5.4545,0.1,0.00010728,1072,0.00010535,1021.6,-3.0617e-05,-0.061067,-4.3201e-05,-94.615,1.4206
29499,17.814,5.7273,0.1,0.00010556,1054.9,0.00010472,1031.5,-3.2568e-05,-0.0084625,-3.8598e-05,-45.317,1.4078
29500,17.906,5.6364,0.1,0.00010213,1020.6,0.00010093,987.95,-3.0559e-05,0.031481,-3.8876e-05,-62.457,1.42
29501,17.906,5.8182,0.1,9.7922e-05,978.54,9.7381e-05,963.3,-3.0835e-05,-0.066251,-3.4785e-05,-29.749,1.4194
29502,17.814,5.9091,0.1,0.00010221,1021.4,0.00010193,1013.4,-3.2953e-05,-0.027825,-3.5032e-05,-15.65,1.4072
29503,17.998,0.27273,0.1,9.4492e-05,944.26,9.3604e-05,919.87,-2.8833e-05,-0.078129,-3.5074e-05,-46.97,1.4317
29504,18.09,0.18182,0.1,8.613e-05,860.71,8.557e-05,845,-2.6918e-05,-0.18878,-3.0943e-05,-30.431,1.4434
29505,17.998,0.090909,0.1,9.0806e-05,907.43,9.0523e-05,899.34,-2.9178e-05,-0.048999,-3.1291e-05,-15.927,1.4311
29506,17.998,0.45455,0.1,9.945e-05,993.81,9.783e-05,950.96,-2.874e-05,-0.033606,-3.9482e-05,-80.745,1.4323
29507,18.09,0.36364,0.1,9.0651e-05,905.88,8.939e-05,872.13,-2.6686e-05,-0.018013,-3.5213e-05,-64.087,1.444
29508,17.998,0.63636,0.1,0.00010556,1054.9,0.00010313,992.54,-2.8977e-05,-0.047551,-4.4304e-05,-115.21,1.4329
29509,18.09,0.54545,0.1,9.6497e-05,964.3,9.4412e-05,910.54,-2.6784e-05,-0.078117,-4.0044e-05,-99.71,1.4446
29510,17.998,0.81818,0.1,0.00011283,1127.5,0.00010952,1044.9,-2.9548e-05,-0.011496,-4.9529e-05,-150.14,1.4334
29511,18.09,0.72727,0.1,0.00010376,1036.9,0.00010073,961.12,-2.7191e-05,-0.023396,-4.5528e-05,-137.8,1.4452
29512,17.998,1,0.1,0.00012107,1209.9,0.00011689,1107.4,-3.0495e-05,0.012575,-5.4974e-05,-183.91,1.4339
29513,18.09,0.90909,0.1,0.00011238,1123,0.0001083,1023.8,-2.7953e-05,0.0091565,-5.155e-05,-177.29,1.4457
29514,17.998,1.1818,0.1,0.00012998,1298.9,0.00012502,1178.8,-3.1869e-05,0.033172,-6.0309e-05,-213.65,1.4344
29515,18.09,1.0909,0.1,0.00012208,1220,0.00011698,1097.9,-2.9137e-05,0.042612,-5.7821e-05,-215.48,1.4462
29516,17.998,1.3636,0.1,0.00013907,1389.8,0.00013356,1256.9,-3.3718e-05,0.042225,-6.5093e-05,-235.7,1.4348
29517,18.09,1.2727,0.1,0.00013247,1323.8,0.00012649,1182.1,-3.0829e-05,0.062935,-6.3885e-05,-248.31,1.4467
29518,17.998,1.5455,0.1,0.00014781,1477.1,0.00014207,1338.3,-3.6052e-05,0.034293,-6.8864e-05,-246.51,1.4352
29519,18.09,1.4545,0.1,0.00014292,1428.2,0.00013638,1273.6,-3.3111e-05,0.078752,-6.9143e-05,-270.65,1.4471
29520,17.998,1.7273,0.1,0.00015568,1555.7,0.00015008,1419.2,-3.8799e-05,0.030623,-7.1302e-05,-244.19,1.4356
29521,18.09,1.6364,0.1,0.00015269,1525.8,0.00014606,1368,-3.5997e-05,0.11867,-7.2959e-05,-277.59,1.4475
29522,17.998,1.9091,0.1,0.00016239,1622.7,0.00015724,1495.4,-4.1785e-05,0.020569,-7.2405e-05,-230.05,1.4359
29523,18.09,1.8182,0.1,0.00016116,1610.5,0.00015494,1460.1,-3.9378e-05,0.076372,-7.4975e-05,-267.38,1.4478
29524,17.998,2.0909,0.1,0.00016791,1678,0.00016338,1563.8,-4.475e-05,-0.011964,-7.2529e-05,-208.73,1.4362
29525,18.09,2,0.1,0.00016808,1679.6,0.0001626,1544.5,-4.2946e-05,0.096108,-7.5392e-05,-243.69,1.4481
29526,17.998,2.2727,0.1,0.0001724,1722.8,0.00016847,1622.1,-4.7415e-05,-0.03048,-7.221e-05,-186.33,1.4364
29527,18.09,2.1818,0.1,0.00017363,1735.1,0.00016897,1617.6,-4.631e-05,0.082323,-7.4935e-05,-214.99,1.4484
29528,17.998,2.4545,0.1,0.00017597,1758.5,0.00017252,1668.6,-4.9571e-05,-0.049413,-7.1881e-05,-167.68,1.4365
29529,18.09,2.3636,0.1,0.00017809,1779.7,0.0001741,1677.2,-4.9126e-05,-0.049815,-7.4371e-05,-189.73,1.4486
29530,17.998,2.6364,0.1,0.00017862,1785,0.00017548,1702.4,-5.1113e-05,-0.086542,-7.1715e-05,-154.88,1.4367
29531,18.09,2.5455,0.1,0.00018154,1814.2,0.000178,1722,-5.1194e-05,-0.10065,-7.4078e-05,-172.05,1.4487
29532,17.998,2.8182,0.1,0.00018026,1801.4,0.00017729,1722.9,-5.2024e-05,-0.11258,-7.168e-05,-147.8,1.4367
29533,18.09,2.7273,0.1,0.00018391,1837.9,0.00018062,1751.5,-5.2507e-05,-0.11938,-7.4033e-05,-161.85,1.4488
29534,17.998,3,0.1,0.00018082,1806.9,0.0001779,1729.7,-5.2323e-05,-0.11955,-7.1682e-05,-145.58,1.4367
29535,18.09,2.9091,0.1,0.00018511,1849.8,0.00018193,1766.1,-5.3136e-05,-0.13077,-7.4067e-05,-157.4,1.4488
29536,17.998,3.1818,0.1,0.00018026,1801.4,0.00017729,1722.9,-5.2024e-05,-0.11258,-7.168e-05,-147.8,1.4367
29537,18.09,3.0909,0.1,0.00018511,1849.8,0.00018193,1766.1,-5.3136e-05,-0.13077,-7.4067e-05,-157.4,1.4488
29538,17.998,3.3636,0.1,0.00017862,1785,0.00017548,1702.4,-5.1113e-05,-0.086541,-7.1715e-05,-154.88,1.4367
29539,18.09,3.2727,0.1,0.00018391,1837.9,0.00018062,1751.5,-5.2507e-05,-0.11938,-7.4033e-05,-161.85,1.4488
29540,17.998,3.5455,0.1,0.00017597,1758.5,0.00017252,1668.6,-4.9571e-05,-0.049412,-7.1881e-05,-167.68,1.4365
29541,18.09,3.4545,0.1,0.00018154,1814.2,0.000178,1722,-5.1194e-05,-0.10065,-7.4078e-05,-172.05,1.4487
29542,17.998,3.7273,0.1,0.0001724,1722.8,0.00016847,1622.1,-4.7415e-05,-0.03048,-7.221e-05,-186.33,1.4364
29543,18.09,3.6364,0.1,0.00017809,1779.7,0.0001741,1677.2,-4.9126e-05,-0.049815,-7.4371e-05,-189.73,1.4486
29544,17.998,3.9091,0.1,0.00016791,1678,0.00016338,1563.8,-4.475e-05,-0.011964,-7.2529e-05,-208.73,1.4362
29545,18.09,3.8182,0.1,0.00017363,1735.1,0.00016897,1617.6,-4.631e-05,0.082323,-7.4935e-05,-214.99,1.4484
29546,17.998,4.0909,0.1,0.00016239,1622.7,0.00015724,1495.4,-4.1785e-05,0.020569,-7.2405e-05,-230.05,1.4359
29547,18.09,4,0.1,0.00016808,1679.6,0.0001626,1544.5,-4.2946e-05,0.096107,-7.5392e-05,-243.69,1.4481
29548,17.998,4.2727,0.1,0.00015568,1555.7,0.00015008,1419.2,-3.8799e-05,0.030623,-7.1302e-05,-244.19,1.4356
29549,18.09,4.1818,0.1,0.00016116,1610.5,0.00015494,1460.1,-3.9378e-05,0.076371,-7.4975e-05,-267.38,1.4478
29550,17.998,4.4545,0.1,0.00014781,1477.1,0.00014207,1338.3,-3.6052e-05,0.034294,-6.8864e-05,-246.51,1.4352
29551,18.09,4.3636,0.1,0.00015269,1525.8,0.00014606,1368,-3.5997e-05,0.11867,-7.2959e-05,-277.59,1.4475
29552,17.998,4.6364,0.1,0.00013907,1389.8,0.00013356,1256.9,-3.3718e-05,0.042225,-6.5093e-05,-235.7,1.4348
29553,18.09,4.5455,0.1,0.00014292,1428.2,0.00013638,1273.6,-3.3111e-05,0.078753,-6.9143e-05,-270.65,1.4471
29554,17.998,4.8182,0.1,0.00012998,1298.9,0.00012502,1178.8,-3.1869e-05,0.033172,-6.0309e-05,-213.65,1.4344
29555,18.09,4.7273,0.1,0.00013247,1323.8,0.00012649,1182.1,-3.0829e-05,0.062935,-6.3885e-05,-248.31,1.4467
29556,17.998,5,0.1,0.00012107,1209.9,0.00011689,1107.4,-3.0495e-05,0.012576,-5.4974e-05,-183.91,1.4339
29557,18.09,4.9091,0.1,0.00012208,1220,0.00011698,1097.9,-2.9137e-05,0.042613,-5.7821e-05,-215.48,1.4462
29558,17.998,5.1818,0.1,0.00011283,1127.5,0.00010952,1044.9,-2.9548e-05,-0.011495,-4.9529e-05,-150.14,1.4334
29559,18.09,5.0909,0.1,0.00011238,1123,0.0001083,1023.8,-2.7953e-05,0.0091582,-5.155e-05,-177.29,1.4457
29560,17.998,5.3636,0.1,0.00010556,1054.9,0.00010313,992.54,-2.8977e-05,-0.04755,-4.4304e-05,-115.21,1.4329
29561,18.09,5.2727,0.1,0.00010376,1036.9,0.00010073,961.12,-2.7191e-05,-0.023394,-4.5528e-05,-137.8,1.4452
29562,17.998,5.5455,0.1,9.945e-05,993.81,9.783e-05,950.96,-2.874e-05,-0.033606,-3.9482e-05,-80.745,1.4323
29563,18.09,5.4545,0.1,9.6497e-05,964.3,9.4412e-05,910.54,-2.6784e-05,-0.078118,-4.0044e-05,-99.71,1.4446
29564,17.998,5.7273,0.1,9.4492e-05,944.26,9.3604e-05,919.87,-2.8833e-05,-0.078129,-3.5074e-05,-46.97,1.4317
29565,18.09,5.6364,0.1,9.0651e-05,905.88,8.939e-05,872.13,-2.6686e-05,-0.018014,-3.5213e-05,-64.087,1.444
29566,18.09,5.8182,0.1,8.613e-05,860.71,8.557e-05,845,-2.6918e-05,-0.18878,-3.0943e-05,-30.431,1.4434
29567,17.998,5.9091,0.1,9.0806e-05,907.43,9.0523e-05,899.34,-2.9178e-05,-0.048999,-3.1291e-05,-15.927,1.4311
29568,18.182,0.27273,0.1,8.2307e-05,822.51,8.1389e-05,797.51,-2.4774e-05,-0.15634,-3.1111e-05,-47.768,1.4558
29569,18.274,0.18182,0.1,7.3261e-05,732.1,7.2688e-05,716.18,-2.2673e-05,-0.3234,-2.6699e-05,-30.575,1.4675
29570,18.182,0.090909,0.1,7.8286e-05,782.32,7.8001e-05,774.19,-2.5046e-05,-0.068318,-2.7159e-05,-15.94,1.4551
29571,18.182,0.45455,0.1,8.7785e-05,877.24,8.606e-05,832.36,-2.4729e-05,-0.06521,-3.5861e-05,-83.705,1.4564
29572,18.274,0.36364,0.1,7.8039e-05,779.85,7.6746e-05,745.7,-2.2512e-05,-0.085905,-3.1052e-05,-64.258,1.4681
29573,18.182,0.63636,0.1,9.4887e-05,948.22,9.2179e-05,880.36,-2.4998e-05,-0.054267,-4.1433e-05,-123.55,1.4569
29574,18.274,0.54545,0.1,8.4688e-05,846.3,8.2436e-05,789.43,-2.2645e-05,-0.10653,-3.6475e-05,-104.02,1.4687
29575,18.182,0.81818,0.1,0.00010361,1035.4,9.9757e-05,941.85,-2.5596e-05,-0.0027731,-4.779e-05,-166.76,1.4575
29576,18.274,0.72727,0.1,9.3273e-05,932.09,8.9811e-05,847.97,-2.3052e-05,-0.042659,-4.3013e-05,-150.02,1.4693
29577,18.182,1,0.1,0.00011376,1136.8,0.00010869,1016.5,-2.6594e-05,0.039291,-5.4692e-05,-211.08,1.458
29578,18.274,0.90909,0.1,0.0001037,1036.3,9.882e-05,921.32,-2.3799e-05,0.0033568,-5.0501e-05,-200.62,1.4698
29579,18.182,1.1818,0.1,0.00012499,1249,0.00011877,1103.5,-2.8096e-05,0.072873,-6.1711e-05,-252.49,1.4585
29580,18.274,1.0909,0.1,0.00011573,1156.5,0.00010935,1009.5,-2.4994e-05,0.048429,-5.8598e-05,-252.44,1.4703
29581,18.182,1.3636,0.1,0.00013671,1366.1,0.0001296,1200.9,-3.0222e-05,0.10049,-6.8223e-05,-285.42,1.459
29582,18.274,1.2727,0.1,0.00012894,1288.5,0.00012118,1112,-2.6798e-05,0.1068,-6.6761e-05,-300.16,1.4708
29583,18.182,1.5455,0.1,0.00014811,1480.1,0.0001406,1304.9,-3.3056e-05,0.16417,-7.3461e-05,-303.42,1.4594
29584,18.274,1.4545,0.1,0.00014262,1425.2,0.00013389,1227.1,-2.9406e-05,0.16802,-7.4164e-05,-336.12,1.4713
29585,18.182,1.7273,0.1,0.00015837,1582.6,0.00015106,1410,-3.6577e-05,0.16463,-7.6776e-05,-301.88,1.4598
29586,18.274,1.6364,0.1,0.00015566,1555.5,0.0001467,1350.2,-3.3006e-05,-0.043132,-7.969e-05,-350.81,1.4717
29587,18.182,1.9091,0.1,0.00016696,1668.4,0.00016037,1509.7,-4.054e-05,0.1512,-7.8042e-05,-281.63,1.4601
29588,18.274,1.8182,0.1,0.00016681,1667,0.00015849,1472.4,-3.7475e-05,0.065087,-8.2393e-05,-337.43,1.472
29589,18.182,2.0909,0.1,0.00017384,1737.2,0.00016822,1598.6,-4.4507e-05,0.18863,-7.7836e-05,-250.24,1.4604
29590,18.274,2,0.1,0.00017558,1754.6,0.00016851,1584.5,-4.2406e-05,-0.21658,-8.2446e-05,-301.06,1.4724
29591,18.182,2.2727,0.1,0.00017933,1792.1,0.00017461,1672.8,-4.8021e-05,0.058751,-7.7107e-05,-218.48,1.4606
29592,18.274,2.1818,0.1,0.00018232,1821.9,0.00017657,1679.4,-4.6997e-05,-0.40248,-8.1204e-05,-257.42,1.4726
29593,18.182,2.4545,0.1,0.00018365,1835.3,0.00017958,1730.5,-5.075e-05,-0.10745,-7.6558e-05,-194.02,1.4608
29594,18.274,2.3636,0.1,0.00018755,1874.2,0.00018279,1753.4,-5.0582e-05,-0.089843,-8.0104e-05,-221.91,1.4728
29595,18.182,2.6364,0.1,0.00018681,1866.8,0.00018312,1770.9,-5.2589e-05,-0.13951,-7.6368e-05,-178.8,1.4609
29596,18.274,2.5455,0.1,0.00019148,1913.5,0.00018729,1805.5,-5.3033e-05,-0.16666,-7.9636e-05,-200.05,1.473
29597,18.182,2.8182,0.1,0.00018872,1885.9,0.00018522,1794.4,-5.362e-05,-0.14241,-7.638e-05,-171.15,1.461
29598,18.274,2.7273,0.1,0.00019402,1938.9,0.00019011,1837.4,-5.4454e-05,-0.1569,-7.9577e-05,-188.92,1.4731
29599,18.182,3,0.1,0.00018936,1892.3,0.00018592,1802.1,-5.3949e-05,-0.14637,-7.6407e-05,-168.89,1.461
29600,18.274,2.9091,0.1,0.00019524,1951.1,0.00019145,1852.2,-5.5091e-05,-0.14379,-7.9617e-05,-184.43,1.4731
29601,18.182,3.1818,0.1,0.00018872,1885.9,0.00018522,1794.4,-5.362e-05,-0.14241,-7.638e-05,-171.15,1.461
29602,18.274,3.0909,0.1,0.00019524,1951.1,0.00019145,1852.2,-5.5091e-05,-0.14379,-7.9617e-05,-184.43,1.4731
29603,18.182,3.3636,0.1,0.00018681,1866.8,0.00018312,1770.9,-5.2589e-05,-0.13951,-7.6368e-05,-178.8,1.4609
29604,18.274,3.2727,0.1,0.00019402,1938.9,0.00019011,1837.4,-5.4454e-05,-0.1569,-7.9577e-05,-188.92,1.4731
29605,18.182,3.5455,0.1,0.00018365,1835.3,0.00017958,1730.5,-5.075e-05,-0.10745,-7.6558e-05,-194.02,1.4608
29606,18.274,3.4545,0.1,0.00019148,1913.5,0.00018729,1805.5,-5.3033e-05,-0.16666,-7.9636e-05,-200.05,1.473
29607,18.182,3.7273,0.1,0.00017933,1792.1,0.00017461,1672.8,-4.8021e-05,0.058751,-7.7107e-05,-218.48,1.4606
29608,18.274,3.6364,0.1,0.00018755,1874.2,0.00018279,1753.4,-5.0582e-05,-0.089843,-8.0104e-05,-221.91,1.4728
29609,18.182,3.9091,0.1,0.00017384,1737.2,0.00016822,1598.6,-4.4507e-05,0.18863,-7.7836e-05,-250.24,1.4604
29610,18.274,3.8182,0.1,0.00018232,1821.9,0.00017657,1679.4,-4.6997e-05,-0.40248,-8.1204e-05,-257.42,1.4726
29611,18.182,4.0909,0.1,0.00016696,1668.4,0.00016037,1509.7,-4.054e-05,0.1512,-7.8042e-05,-281.63,1.4601
29612,18.274,4,0.1,0.00017558,1754.6,0.00016851,1584.5,-4.2406e-05,-0.21658,-8.2446e-05,-301.06,1.4724
29613,18.182,4.2727,0.1,0.00015837,1582.6,0.00015106,1410,-3.6577e-05,0.16463,-7.6776e-05,-301.88,1.4598
29614,18.274,4.1818,0.1,0.00016681,1667,0.00015849,1472.4,-3.7475e-05,0.065087,-8.2393e-05,-337.43,1.472
29615,18.182,4.4545,0.1,0.00014811,1480.1,0.0001406,1304.9,-3.3056e-05,0.16417,-7.3461e-05,-303.42,1.4594
29616,18.274,4.3636,0.1,0.00015566,1555.5,0.0001467,1350.2,-3.3006e-05,-0.043132,-7.969e-05,-350.81,1.4717
29617,18.182,4.6364,0.1,0.00013671,1366.1,0.0001296,1200.9,-3.0222e-05,0.10049,-6.8223e-05,-285.42,1.459
29618,18.274,4.5455,0.1,0.00014262,1425.2,0.00013389,1227.1,-2.9406e-05,0.16802,-7.4164e-05,-336.12,1.4713
29619,18.182,4.8182,0.1,0.00012499,1249,0.00011877,1103.5,-2.8096e-05,0.072873,-6.1711e-05,-252.49,1.4585
29620,18.274,4.7273,0.1,0.00012894,1288.5,0.00012118,1112,-2.6798e-05,0.1068,-6.6761e-05,-300.16,1.4708
29621,18.182,5,0.1,0.00011376,1136.8,0.00010869,1016.5,-2.6594e-05,0.039292,-5.4692e-05,-211.08,1.458
29622,18.274,4.9091,0.1,0.00011573,1156.5,0.00010935,1009.5,-2.4994e-05,0.048429,-5.8598e-05,-252.44,1.4703
29623,18.182,5.1818,0.1,0.00010361,1035.4,9.9757e-05,941.85,-2.5596e-05,-0.0027707,-4.779e-05,-166.76,1.4575
29624,18.274,5.0909,0.1,0.0001037,1036.3,9.882e-05,921.32,-2.3799e-05,0.0033585,-5.0501e-05,-200.62,1.4698
29625,18.182,5.3636,0.1,9.4887e-05,948.22,9.2179e-05,880.36,-2.4998e-05,-0.054266,-4.1433e-05,-123.55,1.4569
29626,18.274,5.2727,0.1,9.3273e-05,932.09,8.9811e-05,847.97,-2.3052e-05,-0.042656,-4.3013e-05,-150.02,1.4693
29627,18.182,5.5455,0.1,8.7785e-05,877.24,8.606e-05,832.36,-2.4729e-05,-0.065211,-3.5861e-05,-83.705,1.4564
29628,18.274,5.4545,0.1,8.4688e-05,846.3,8.2436e-05,789.43,-2.2645e-05,-0.10653,-3.6475e-05,-104.02,1.4687
29629,18.182,5.7273,0.1,8.2307e-05,822.51,8.1389e-05,797.51,-2.4774e-05,-0.15634,-3.1111e-05,-47.768,1.4558
29630,18.274,5.6364,0.1,7.8039e-05,779.85,7.6746e-05,745.7,-2.2512e-05,-0.085906,-3.1052e-05,-64.258,1.4681
29631,18.274,5.8182,0.1,7.3261e-05,732.1,7.2688e-05,716.18,-2.2673e-05,-0.3234,-2.6699e-05,-30.575,1.4675
29632,18.182,5.9091,0.1,7.8286e-05,782.32,7.8001e-05,774.19,-2.5046e-05,-0.068318,-2.7159e-05,-15.94,1.4551
29633,18.365,0.27273,0.1,6.9037e-05,689.9,6.8103e-05,664.81,-2.0409e-05,-0.24488,-2.67e-05,-47.508,1.4798
29634,18.457,0.18182,0.1,5.9365e-05,593.24,5.8795e-05,577.57,-1.8116e-05,-0.31482,-2.2057e-05,-29.929,1.4916
29635,18.365,0.090909,0.1,6.4649e-05,646.04,6.4369e-05,638.09,-2.057e-05,-0.11362,-2.2621e-05,-15.525,1.4792
29636,18.365,0.45455,0.1,7.51e-05,750.48,7.3272e-05,703.89,-2.0426e-05,-0.12053,-3.1817e-05,-85.708,1.4805
29637,18.457,0.36364,0.1,6.4446e-05,644.01,6.314e-05,610.12,-1.8073e-05,-0.077767,-2.6457e-05,-63.078,1.4922
29638,18.365,0.63636,0.1,8.3403e-05,833.45,8.0351e-05,759.16,-2.0699e-05,-0.091147,-3.8338e-05,-132.62,1.4811
29639,18.457,0.54545,0.1,7.2154e-05,721.05,6.969e-05,660.56,-1.8235e-05,-0.073515,-3.2679e-05,-108.6,1.4928
29640,18.365,0.81818,0.1,9.3868e-05,938.03,8.9279e-05,830.48,-2.1255e-05,-0.034973,-4.6129e-05,-186.93,1.4816
29641,18.457,0.72727,0.1,8.2366e-05,823.09,7.8302e-05,727.95,-1.8585e-05,-0.014088,-4.0571e-05,-165.21,1.4934
29642,18.365,1,0.1,0.0001063,1062.3,9.9971e-05,917.95,-2.2198e-05,0.012875,-5.49e-05,-245.69,1.4822
29643,18.457,0.90909,0.1,9.4906e-05,948.41,8.8864e-05,812.01,-1.9204e-05,0.03488,-4.9868e-05,-230.36,1.494
29644,18.365,1.1818,0.1,0.00012039,1203.1,0.0001123,1021.9,-2.3695e-05,0.082562,-6.4176e-05,-304.07,1.4827
29645,18.457,1.0909,0.1,0.00010961,1095.3,0.00010136,913.75,-2.0239e-05,0.1234,-6.0249e-05,-300.5,1.4945
29646,18.365,1.3636,0.1,0.00013553,1354.3,0.00012597,1141.9,-2.5982e-05,0.17543,-7.3192e-05,-354.54,1.4832
29647,18.457,1.2727,0.1,0.00012624,1261.5,0.0001158,1035.2,-2.1945e-05,0.20366,-7.1217e-05,-370.01,1.4951
29648,18.365,1.5455,0.1,0.0001507,1506,0.00014036,1275.2,-2.9356e-05,-0.036626,-8.0766e-05,-386.31,1.4836
29649,18.457,1.4545,0.1,0.00014429,1441.9,0.00013209,1178.3,-2.47e-05,0.22771,-8.1911e-05,-429.63,1.4955
29650,18.365,1.7273,0.1,0.00016441,1643,0.00015434,1414.2,-3.3904e-05,-0.14116,-8.5524e-05,-387.99,1.484
29651,18.457,1.6364,0.1,0.00016219,1620.8,0.00014932,1340.1,-2.89e-05,1.0634,-9.0496e-05,-461.75,1.496
29652,18.365,1.9091,0.1,0.00017556,1754.4,0.00016672,1548,-3.9341e-05,-0.30405,-8.6889e-05,-357.56,1.4844
29653,18.457,1.8182,0.1,0.00017764,1775.2,0.00016577,1509.3,-3.5032e-05,0.54411,-9.4567e-05,-446.78,1.4964
29654,18.365,2.0909,0.1,0.00018408,1839.6,0.00017688,1665.5,-4.4897e-05,-0.81258,-8.5839e-05,-308.43,1.4847
29655,18.457,2,0.1,0.00018896,1888.3,0.00017938,1665.3,-4.2089e-05,1.2568,-9.3758e-05,-386.97,1.4967
29656,18.365,2.2727,0.1,0.00019052,1903.9,0.00018473,1759.8,-4.9559e-05,-0.56127,-8.419e-05,-260.77,1.4849
29657,18.457,2.1818,0.1,0.00019667,1965.3,0.00018943,1789.4,-4.8632e-05,0.76905,-9.0582e-05,-314.42,1.497
29658,18.365,2.4545,0.1,0.00019533,1951.9,0.00019045,1828.1,-5.2866e-05,-0.16041,-8.3142e-05,-227.64,1.4851
29659,18.457,2.3636,0.1,0.00020234,2022,0.00019657,1877.3,-5.3382e-05,-0.71937,-8.8288e-05,-262.99,1.4972
29660,18.365,2.6364,0.1,0.00019862,1984.9,0.00019422,1871.6,-5.4899e-05,-0.19032,-8.2785e-05,-209.72,1.4852
29661,18.457,2.5455,0.1,0.00020588,2057.4,0.00020084,1929.1,-5.5923e-05,-0.16776,-8.7324e-05,-236.1,1.4974
29662,18.365,2.8182,0.1,0.00020046,2003.2,0.00019627,1894.7,-5.5925e-05,-0.16173,-8.2744e-05,-201.67,1.4853
29663,18.457,2.7273,0.1,0.00020771,2075.6,0.000203,1954.7,-5.7183e-05,-0.16078,-8.6918e-05,-223.58,1.4975
29664,18.365,3,0.1,0.00020104,2009,0.0001969,1901.8,-5.6232e-05,-0.14409,-8.2754e-05,-199.42,1.4853
29665,18.457,2.9091,0.1,0.00020842,2082.8,0.00020384,1964.8,-5.7669e-05,-0.10834,-8.6767e-05,-218.74,1.4976
29666,18.365,3.1818,0.1,0.00020046,2003.2,0.00019627,1894.7,-5.5925e-05,-0.16173,-8.2744e-05,-201.67,1.4853
29667,18.457,3.0909,0.1,0.00020842,2082.8,0.00020384,1964.8,-5.7669e-05,-0.10834,-8.6767e-05,-218.74,1.4976
29668,18.365,3.3636,0.1,0.00019862,1984.9,0.00019422,1871.6,-5.4899e-05,-0.19032,-8.2785e-05,-209.72,1.4852
29669,18.457,3.2727,0.1,0.00020771,2075.6,0.000203,1954.7,-5.7183e-05,-0.16078,-8.6918e-05,-223.58,1.4975
29670,18.365,3.5455,0.1,0.00019533,1951.9,0.00019045,1828.1,-5.2866e-05,-0.16041,-8.3142e-05,-227.64,1.4851
29671,18.457,3.4545,0.1,0.00020588,2057.4,0.00020084,1929.1,-5.5923e-05,-0.16776,-8.7324e-05,-236.1,1.4974
29672,18.365,3.7273,0.1,0.00019052,1903.9,0.00018473,1759.8,-4.9559e-05,-0.56127,-8.419e-05,-260.77,1.4849
29673,18.457,3.6364,0.1,0.00020234,2022,0.00019657,1877.3,-5.3382e-05,-0.71936,-8.8288e-05,-262.99,1.4972
29674,18.365,3.9091,0.1,0.00018408,1839.6,0.00017688,1665.5,-4.4897e-05,-0.81258,-8.5839e-05,-308.43,1.4847
29675,18.457,3.8182,0.1,0.00019667,1965.3,0.00018943,1789.4,-4.8632e-05,0.76905,-9.0582e-05,-314.42,1.497
29676,18.365,4.0909,0.1,0.00017556,1754.4,0.00016672,1548,-3.9341e-05,-0.30405,-8.6889e-05,-357.56,1.4844
29677,18.457,4,0.1,0.00018896,1888.3,0.00017938,1665.3,-4.2089e-05,1.2568,-9.3758e-05,-386.97,1.4967
29678,18.365,4.2727,0.1,0.00016441,1643,0.00015434,1414.2,-3.3904e-05,-0.14116,-8.5524e-05,-387.99,1.484
29679,18.457,4.1818,0.1,0.00017764,1775.2,0.00016577,1509.3,-3.5032e-05,0.54411,-9.4567e-05,-446.78,1.4964
29680,18.365,4.4545,0.1,0.0001507,1506,0.00014036,1275.2,-2.9356e-05,-0.036625,-8.0766e-05,-386.31,1.4836
29681,18.457,4.3636,0.1,0.00016219,1620.8,0.00014932,1340.1,-2.89e-05,1.0634,-9.0496e-05,-461.75,1.496
29682,18.365,4.6364,0.1,0.00013553,1354.3,0.00012597,1141.9,-2.5982e-05,0.17543,-7.3192e-05,-354.54,1.4832
29683,18.457,4.5455,0.1,0.00014429,1441.9,0.00013209,1178.3,-2.47e-05,0.22771,-8.1911e-05,-429.63,1.4955
29684,18.365,4.8182,0.1,0.00012039,1203.1,0.0001123,1021.9,-2.3695e-05,0.082563,-6.4176e-05,-304.07,1.4827
29685,18.457,4.7273,0.1,0.00012624,1261.5,0.0001158,1035.2,-2.1945e-05,0.20366,-7.1217e-05,-370.01,1.4951
29686,18.365,5,0.1,0.0001063,1062.3,9.9971e-05,917.95,-2.2198e-05,0.012876,-5.49e-05,-245.69,1.4822
29687,18.457,4.9091,0.1,0.00010961,1095.3,0.00010136,913.75,-2.0239e-05,0.1234,-6.0249e-05,-300.5,1.4945
29688,18.365,5.1818,0.1,9.3868e-05,938.03,8.9279e-05,830.48,-2.1255e-05,-0.034971,-4.6129e-05,-186.93,1.4816
29689,18.457,5.0909,0.1,9.4906e-05,948.41,8.8864e-05,812.01,-1.9204e-05,0.034882,-4.9868e-05,-230.36,1.494
29690,18.365,5.3636,0.1,8.3403e-05,833.45,8.0351e-05,759.16,-2.0699e-05,-0.091146,-3.8338e-05,-132.62,1.4811
29691,18.457,5.2727,0.1,8.2366e-05,823.09,7.8302e-05,727.95,-1.8585e-05,-0.014085,-4.0571e-05,-165.21,1.4934
29692,18.365,5.5455,0.1,7.51e-05,750.48,7.3272e-05,703.89,-2.0426e-05,-0.12053,-3.1817e-05,-85.708,1.4805
29693,18.457,5.4545,0.1,7.2154e-05,721.05,6.969e-05,660.56,-1.8235e-05,-0.073516,-3.2679e-05,-108.6,1.4928
29694,18.365,5.7273,0.1,6.9037e-05,689.9,6.8103e-05,664.81,-2.0409e-05,-0.24488,-2.67e-05,-47.508,1.4798
29695,18.457,5.6364,0.1,6.4446e-05,644.01,6.314e-05,610.12,-1.8073e-05,-0.077767,-2.6457e-05,-63.078,1.4922
29696,18.457,5.8182,0.1,5.9365e-05,593.24,5.8795e-05,577.57,-1.8116e-05,-0.31482,-2.2057e-05,-29.929,1.4916
29697,18.365,5.9091,0.1,6.4649e-05,646.04,6.4369e-05,638.09,-2.057e-05,-0.11362,-2.2621e-05,-15.525,1.4792
29698,18.549,0.27273,0.1,5.4879e-05,548.41,5.3942e-05,523.71,-1.5772e-05,-0.094359,-2.1932e-05,-46.38,1.504
29699,18.641,0.18182,0.1,4.4643e-05,446.12,4.4082e-05,430.98,-1.3297e-05,-0.14114,-1.7104e-05,-28.748,1.5157
29700,18.549,0.090909,0.1,4.9974e-05,499.39,4.9713e-05,492.04,-1.5773e-05,0.0026383,-1.769e-05,-14.403,1.5033
29701,18.549,0.45455,0.1,6.1817e-05,617.74,5.9844e-05,568.93,-1.5878e-05,-0.0089139,-2.7608e-05,-88.143,1.5046
29702,18.641,0.36364,0.1,5.0465e-05,504.3,4.9103e-05,469.95,-1.3463e-05,-0.14859,-2.179e-05,-62.719,1.5164
29703,18.549,0.63636,0.1,7.1718e-05,716.69,6.8143e-05,633.12,-1.6119e-05,0.013189,-3.5415e-05,-144.97,1.5052
29704,18.641,0.54545,0.1,5.9875e-05,598.33,5.6993e-05,530.6,-1.3652e-05,-0.20278,-2.9303e-05,-117.8,1.517
29705,18.549,0.81818,0.1,8.426e-05,842.02,7.8563e-05,714.58,-1.6533e-05,0.059836,-4.4987e-05,-213.73,1.5058
29706,18.641,0.72727,0.1,7.2166e-05,721.16,6.7084e-05,608.07,-1.3876e-05,-0.23499,-3.8943e-05,-188.57,1.5176
29707,18.549,1,0.1,9.9266e-05,991.97,9.105e-05,813.83,-1.7245e-05,0.14611,-5.6018e-05,-291.18,1.5064
29708,18.641,0.90909,0.1,8.7036e-05,869.76,7.9177e-05,701.55,-1.4224e-05,-0.2377,-5.033e-05,-271.52,1.5182
29709,18.549,1.1818,0.1,0.00011664,1165.6,0.00010573,933.54,-1.8488e-05,0.2435,-6.8156e-05,-372.94,1.5069
29710,18.641,1.0909,0.1,0.00010452,1044.5,9.345e-05,813.59,-1.4861e-05,-0.22542,-6.3309e-05,-364.24,1.5188
29711,18.549,1.3636,0.1,0.00013618,1360.8,0.00012276,1077.9,-2.0662e-05,0.25541,-8.0772e-05,-451.39,1.5075
29712,18.641,1.2727,0.1,0.00012494,1248.6,0.00011041,950.16,-1.6072e-05,-0.16405,-7.7798e-05,-463.95,1.5193
29713,18.549,1.5455,0.1,0.00015675,1566.4,0.0001417,1248.2,-2.4244e-05,1.3265,-9.2294e-05,-509.97,1.5079
29714,18.641,1.4545,0.1,0.0001484,1483,0.00013063,1119.9,-1.8444e-05,-0.15829,-9.3203e-05,-561.87,1.5199
29715,18.549,1.7273,0.1,0.0001759,1757.8,0.00016106,1437.5,-3.0026e-05,1.7617,-9.9856e-05,-522.91,1.5084
29716,18.641,1.6364,0.1,0.00017466,1745.4,0.00015474,1335.3,-2.2952e-05,0.14168,-0.00010812,-639.78,1.5204
29717,18.549,1.9091,0.1,0.00019112,1909.9,0.00017849,1627.1,-3.778e-05,2.1018,-0.0001015,-476.64,1.5088
29718,18.641,1.8182,0.1,0.00019909,1989.6,0.00018013,1586.4,-3.1311e-05,-2.2692,-0.00011687,-645.11,1.5208
29719,18.549,2.0909,0.1,0.00020145,2013.1,0.00019188,1788.9,-4.5826e-05,2.8237,-9.8454e-05,-392.6,1.5091
29720,18.641,2,0.1,0.00021409,2139.4,0.00020007,1821.7,-4.3369e-05,-7.4047,-0.00011303,-530.83,1.5212
29721,18.549,2.2727,0.1,0.00020836,2082.2,0.00020118,1906.3,-5.246e-05,0.57723,-9.4593e-05,-316,1.5094
29722,18.641,2.1818,0.1,0.00022231,2221.5,0.0002129,1995.8,-5.3193e-05,-3.5115,-0.00010539,-395.68,1.5215
29723,18.549,2.4545,0.1,0.00021276,2126.1,0.00020685,1977.5,-5.6441e-05,-0.74025,-9.236e-05,-270.62,1.5096
29724,18.641,2.3636,0.1,0.00022555,2253.9,0.00021851,2079.3,-5.8229e-05,0.050833,-0.00010028,-315.88,1.5218
29725,18.549,2.6364,0.1,0.00021483,2146.8,0.00020951,2011.4,-5.8208e-05,-0.13997,-9.1344e-05,-249.11,1.5097
29726,18.641,2.5455,0.1,0.00022574,2255.8,0.00021964,2102,-6.015e-05,-0.2275,-9.7545e-05,-281.2,1.5219
29727,18.549,2.8182,0.1,0.00021555,2154,0.00021046,2024,-5.8928e-05,-0.10761,-9.0835e-05,-239.84,1.5098
29728,18.641,2.7273,0.1,0.00022464,2244.8,0.00021896,2100.7,-6.0633e-05,-0.023945,-9.5858e-05,-264.69,1.5221
29729,18.549,3,0.1,0.00021569,2155.4,0.00021067,2026.9,-5.9106e-05,-0.073245,-9.0677e-05,-237.28,1.5098
29730,18.641,2.9091,0.1,0.00022379,2236.3,0.00021828,2096.1,-6.0693e-05,0.015737,-9.505e-05,-258.13,1.5221
29731,18.549,3.1818,0.1,0.00021555,2154,0.00021046,2024,-5.8928e-05,-0.10761,-9.0835e-05,-239.84,1.5098
29732,18.641,3.0909,0.1,0.00022379,2236.3,0.00021828,2096.1,-6.0693e-05,0.015736,-9.505e-05,-258.13,1.5221
29733,18.549,3.3636,0.1,0.00021483,2146.8,0.00020951,2011.4,-5.8208e-05,-0.13997,-9.1344e-05,-249.11,1.5097
29734,18.641,3.2727,0.1,0.00022464,2244.8,0.00021896,2100.7,-6.0633e-05,-0.023944,-9.5858e-05,-264.69,1.5221
29735,18.549,3.5455,0.1,0.00021276,2126.1,0.00020685,1977.5,-5.6441e-05,-0.74025,-9.236e-05,-270.62,1.5096
29736,18.641,3.4545,0.1,0.00022574,2255.8,0.00021964,2102,-6.015e-05,-0.2275,-9.7545e-05,-281.2,1.5219
29737,18.549,3.7273,0.1,0.00020836,2082.2,0.00020118,1906.3,-5.246e-05,0.57723,-9.4593e-05,-316,1.5094
29738,18.641,3.6364,0.1,0.00022555,2253.9,0.00021851,2079.3,-5.8229e-05,0.050835,-0.00010028,-315.88,1.5218
29739,18.549,3.9091,0.1,0.00020145,2013.1,0.00019188,1788.9,-4.5826e-05,2.8237,-9.8454e-05,-392.6,1.5091
29740,18.641,3.8182,0.1,0.00022231,2221.5,0.0002129,1995.8,-5.3193e-05,-3.5115,-0.00010539,-395.68,1.5215
29741,18.549,4.0909,0.1,0.00019112,1909.9,0.00017849,1627.1,-3.778e-05,2.1018,-0.0001015,-476.65,1.5088
29742,18.641,4,0.1,0.00021409,2139.4,0.00020007,1821.7,-4.3369e-05,-7.4047,-0.00011303,-530.83,1.5212
29743,18.549,4.2727,0.1,0.0001759,1757.8,0.00016106,1437.5,-3.0026e-05,1.7617,-9.9856e-05,-522.91,1.5084
29744,18.641,4.1818,0.1,0.00019909,1989.6,0.00018013,1586.4,-3.1311e-05,-2.2692,-0.00011687,-645.11,1.5208
29745,18.549,4.4545,0.1,0.00015675,1566.4,0.0001417,1248.2,-2.4244e-05,1.3265,-9.2294e-05,-509.97,1.5079
29746,18.641,4.3636,0.1,0.00017466,1745.4,0.00015474,1335.3,-2.2952e-05,0.14168,-0.00010812,-639.78,1.5204
29747,18.549,4.6364,0.1,0.00013618,1360.8,0.00012276,1077.9,-2.0662e-05,0.25541,-8.0772e-05,-451.39,1.5075
29748,18.641,4.5455,0.1,0.0001484,1483,0.00013063,1119.9,-1.8444e-05,-0.15829,-9.3203e-05,-561.87,1.5199
29749,18.549,4.8182,0.1,0.00011664,1165.6,0.00010573,933.54,-1.8488e-05,0.2435,-6.8156e-05,-372.94,1.5069
29750,18.641,4.7273,0.1,0.00012494,1248.6,0.00011041,950.16,-1.6072e-05,-0.16405,-7.7798e-05,-463.95,1.5193
29751,18.549,5,0.1,9.9266e-05,991.97,9.105e-05,813.83,-1.7245e-05,0.14611,-5.6018e-05,-291.18,1.5064
29752,18.641,4.9091,0.1,0.00010452,1044.5,9.345e-05,813.59,-1.4861e-05,-0.22542,-6.3309e-05,-364.24,1.5188
29753,18.549,5.1818,0.1,8.426e-05,842.02,7.8563e-05,714.58,-1.6533e-05,0.059837,-4.4987e-05,-213.73,1.5058
29754,18.641,5.0909,0.1,8.7036e-05,869.76,7.9177e-05,701.55,-1.4224e-05,-0.2377,-5.033e-05,-271.52,1.5182
29755,18.549,5.3636,0.1,7.1718e-05,716.69,6.8143e-05,633.12,-1.6119e-05,0.013191,-3.5415e-05,-144.97,1.5052
29756,18.641,5.2727,0.1,7.2166e-05,721.16,6.7084e-05,608.07,-1.3876e-05,-0.23499,-3.8943e-05,-188.57,1.5176
29757,18.549,5.5455,0.1,6.1817e-05,617.74,5.9844e-05,568.93,-1.5878e-05,-0.0089141,-2.7608e-05,-88.143,1.5046
29758,18.641,5.4545,0.1,5.9875e-05,598.33,5.6993e-05,530.6,-1.3652e-05,-0.20278,-2.9303e-05,-117.8,1.517
29759,18.549,5.7273,0.1,5.4879e-05,548.41,5.3942e-05,523.71,-1.5772e-05,-0.094361,-2.1932e-05,-46.38,1.504
29760,18.641,5.6364,0.1,5.0465e-05,504.3,4.9103e-05,469.95,-1.3463e-05,-0.14859,-2.179e-05,-62.719,1.5164
29761,18.641,5.8182,0.1,4.4643e-05,446.12,4.4082e-05,430.98,-1.3297e-05,-0.14114,-1.7104e-05,-28.748,1.5157
29762,18.549,5.9091,0.1,4.9974e-05,499.39,4.9713e-05,492.04,-1.5773e-05,0.0026368,-1.769e-05,-14.403,1.5033
29763,18.733,0.27273,0.1,4.053e-05,405.02,3.9518e-05,379.29,-1.0976e-05,-0.10712,-1.7248e-05,-47.236,1.5281
29764,18.825,0.18182,0.1,2.988e-05,298.59,2.9258e-05,283,-8.0933e-06,2.3613,-1.2503e-05,-30.769,1.5399
29765,18.733,0.090909,0.1,3.4486e-05,344.62,3.4246e-05,337.9,-1.0748e-05,-0.16232,-1.2446e-05,-12.92,1.5275
29766,18.733,0.45455,0.1,4.9275e-05,492.41,4.6895e-05,436.44,-1.1234e-05,-0.31985,-2.4131e-05,-97.221,1.5288
29767,18.825,0.36364,0.1,3.8542e-05,385.15,3.6696e-05,342.06,-8.7038e-06,0.94587,-1.8895e-05,-75.624,1.5406
29768,18.733,0.63636,0.1,6.1475e-05,614.33,5.6857e-05,512.47,-1.1408e-05,-0.43903,-3.3755e-05,-168.35,1.5294
29769,18.825,0.54545,0.1,5.1157e-05,511.22,4.698e-05,420.65,-8.9237e-06,0.61617,-2.8778e-05,-148.56,1.5412
29770,18.733,0.81818,0.1,7.6375e-05,763.22,6.8792e-05,603.26,-1.1566e-05,-0.52333,-4.538e-05,-254.59,1.53
29771,18.825,0.72727,0.1,6.6264e-05,662.18,5.8909e-05,510.23,-8.9369e-06,0.46081,-4.0701e-05,-238.2,1.5418
29772,18.733,1,0.1,9.396e-05,938.95,8.2805e-05,710.53,-1.184e-05,-0.60162,-5.8849e-05,-353.81,1.5306
29773,18.825,0.90909,0.1,8.3768e-05,837.1,7.2508e-05,611.74,-8.8556e-06,0.40607,-5.4473e-05,-342.34,1.5425
29774,18.733,1.1818,0.1,0.00011472,1146.5,9.9491e-05,840.41,-1.2445e-05,-0.62973,-7.431e-05,-465.46,1.5312
29775,18.825,1.0909,0.1,0.00010417,1041,8.8298e-05,730.09,-8.7944e-06,0.58229,-7.0362e-05,-462.02,1.5431
29776,18.733,1.3636,0.1,0.00013925,1391.6,0.00011974,1003.2,-1.3855e-05,-0.58413,-9.1687e-05,-585.38,1.5318
29777,18.825,1.2727,0.1,0.00012854,1284.5,0.00010731,874.26,-9.0197e-06,0.17682,-8.8976e-05,-600.59,1.5437
29778,18.733,1.5455,0.1,0.00016819,1680.7,0.00014493,1216.4,-1.7151e-05,-1.3365,-0.00011029,-701.12,1.5323
29779,18.825,1.4545,0.1,0.0001585,1583.9,0.00013127,1062.4,-9.7691e-06,2.718,-0.00011107,-758.38,1.5443
29780,18.733,1.7273,0.1,0.00019896,1988.3,0.00017452,1489.5,-2.4237e-05,-3.8921,-0.00012585,-767.33,1.5328
29781,18.825,1.6364,0.1,0.00019695,1968.2,0.00016333,1319.9,-1.296e-05,-4.7252,-0.00013767,-941.72,1.5448
29782,18.733,1.9091,0.1,0.00022162,2214.7,0.00020144,1779.1,-3.6891e-05,-11.711,-0.00012815,-697.39,1.5333
29783,18.825,1.8182,0.1,0.00024811,2479.4,0.00021151,1764.2,-2.1416e-05,14.048,-0.00016611,-1073.1,1.5453
29784,18.733,2.0909,0.1,0.00023436,2342,0.00022076,2026.2,-5.0744e-05,-13.801,-0.00011962,-531.34,1.5336
29785,18.825,2,0.1,0.00028083,2806.3,0.00025607,2301.2,-4.1162e-05,67.952,-0.00016318,-848.83,1.5458
29786,18.733,2.2727,0.1,0.00023905,2388.9,0.00022991,2166.4,-5.8973e-05,-4.1274,-0.00011074,-393.09,1.5339
29787,18.825,2.1818,0.1,0.000272,2718.1,0.00025974,2424.8,-6.4247e-05,-9.4942,-0.0001306,-508.06,1.5461
29788,18.733,2.4545,0.1,0.00023824,2380.7,0.00023105,2202,-6.1936e-05,0.57055,-0.00010522,-324.68,1.5342
29789,18.825,2.3636,0.1,0.000261,2608.2,0.00025238,2396.8,-6.6179e-05,3.2237,-0.00011758,-382.98,1.5464
29790,18.733,2.6364,0.1,0.00023535,2351.9,0.00022892,2190.1,-6.2573e-05,-0.10128,-0.0001019,-295.57,1.5343
29791,18.825,2.5455,0.1,0.00024969,2495.2,0.00024246,2314.2,-6.5655e-05,-0.87712,-0.00010928,-328.68,1.5466
29792,18.733,2.8182,0.1,0.00023273,2325.7,0.00022665,2171.9,-6.2397e-05,0.10161,-9.9951e-05,-282.06,1.5344
29793,18.825,2.7273,0.1,0.00024232,2421.6,0.00023571,2255.1,-6.4357e-05,0.55298,-0.00010497,-304.58,1.5468
29794,18.733,3,0.1,0.00023176,2316,0.00022577,2164.4,-6.2279e-05,0.10444,-9.9312e-05,-278.15,1.5345
29795,18.825,2.9091,0.1,0.00023865,2384.8,0.00023228,2224.2,-6.372e-05,0.18966,-0.00010288,-294.08,1.5468
29796,18.733,3.1818,0.1,0.00023273,2325.7,0.00022665,2171.9,-6.2397e-05,0.10161,-9.9951e-05,-282.06,1.5344
29797,18.825,3.0909,0.1,0.00023865,2384.8,0.00023228,2224.2,-6.372e-05,0.18966,-0.00010288,-294.08,1.5468
29798,18.733,3.3636,0.1,0.00023535,2351.9,0.00022892,2190.1,-6.2573e-05,-0.10128,-0.0001019,-295.57,1.5343
29799,18.825,3.2727,0.1,0.00024232,2421.6,0.00023571,2255.1,-6.4357e-05,0.55298,-0.00010497,-304.58,1.5468
29800,18.733,3.5455,0.1,0.00023824,2380.7,0.00023105,2202,-6.1936e-05,0.57055,-0.00010522,-324.68,1.5342
29801,18.825,3.4545,0.1,0.00024969,2495.2,0.00024246,2314.2,-6.5655e-05,-0.87712,-0.00010928,-328.68,1.5466
29802,18.733,3.7273,0.1,0.00023905,2388.9,0.00022991,2166.4,-5.8973e-05,-4.1274,-0.00011074,-393.09,1.5339
29803,18.825,3.6364,0.1,0.000261,2608.2,0.00025238,2396.8,-6.6179e-05,3.2237,-0.00011758,-382.98,1.5464
29804,18.733,3.9091,0.1,0.00023436,2342,0.00022076,2026.2,-5.0744e-05,-13.801,-0.00011962,-531.34,1.5336
29805,18.825,3.8182,0.1,0.000272,2718.1,0.00025974,2424.8,-6.4247e-05,-9.4942,-0.0001306,-508.06,1.5461
29806,18.733,4.0909,0.1,0.00022162,2214.7,0.00020144,1779.1,-3.6891e-05,-11.711,-0.00012815,-697.39,1.5333
29807,18.825,4,0.1,0.00028083,2806.3,0.00025607,2301.2,-4.1162e-05,67.952,-0.00016318,-848.83,1.5458
29808,18.733,4.2727,0.1,0.00019896,1988.3,0.00017452,1489.5,-2.4237e-05,-3.8921,-0.00012585,-767.33,1.5328
29809,18.825,4.1818,0.1,0.00024811,2479.4,0.00021151,1764.2,-2.1416e-05,14.048,-0.00016611,-1073.1,1.5453
29810,18.733,4.4545,0.1,0.00016819,1680.7,0.00014493,1216.4,-1.7151e-05,-1.3365,-0.00011029,-701.12,1.5323
29811,18.825,4.3636,0.1,0.00019695,1968.2,0.00016333,1319.9,-1.296e-05,-4.7252,-0.00013767,-941.72,1.5448
29812,18.733,4.6364,0.1,0.00013925,1391.6,0.00011974,1003.2,-1.3855e-05,-0.58413,-9.1687e-05,-585.38,1.5318
29813,18.825,4.5455,0.1,0.0001585,1583.9,0.00013127,1062.4,-9.7691e-06,2.718,-0.00011107,-758.38,1.5443
29814,18.733,4.8182,0.1,0.00011472,1146.5,9.9491e-05,840.41,-1.2445e-05,-0.62973,-7.431e-05,-465.46,1.5312
29815,18.825,4.7273,0.1,0.00012854,1284.5,0.00010731,874.26,-9.0197e-06,0.17682,-8.8976e-05,-600.59,1.5437
29816,18.733,5,0.1,9.396e-05,938.95,8.2805e-05,710.53,-1.184e-05,-0.60162,-5.8849e-05,-353.81,1.5306
29817,18.825,4.9091,0.1,0.00010417,1041,8.8298e-05,730.09,-8.7944e-06,0.58229,-7.0362e-05,-462.02,1.5431
29818,18.733,5.1818,0.1,7.6375e-05,763.22,6.8792e-05,603.26,-1.1566e-05,-0.52333,-4.538e-05,-254.59,1.53
29819,18.825,5.0909,0.1,8.3768e-05,837.1,7.2508e-05,611.74,-8.8556e-06,0.40607,-5.4473e-05,-342.34,1.5425
29820,18.733,5.3636,0.1,6.1475e-05,614.33,5.6857e-05,512.47,-1.1408e-05,-0.43903,-3.3755e-05,-168.35,1.5294
29821,18.825,5.2727,0.1,6.6264e-05,662.18,5.8909e-05,510.23,-8.9369e-06,0.46081,-4.0701e-05,-238.2,1.5418
29822,18.733,5.5455,0.1,4.9275e-05,492.41,4.6895e-05,436.44,-1.1234e-05,-0.31985,-2.4131e-05,-97.221,1.5288
29823,18.825,5.4545,0.1,5.1157e-05,511.22,4.698e-05,420.65,-8.9236e-06,0.61617,-2.8778e-05,-148.56,1.5412
29824,18.733,5.7273,0.1,4.053e-05,405.02,3.9518e-05,379.29,-1.0976e-05,-0.10712,-1.7248e-05,-47.236,1.5281
29825,18.825,5.6364,0.1,3.8542e-05,385.15,3.6696e-05,342.06,-8.7038e-06,0.94587,-1.8895e-05,-75.624,1.5406
29826,18.825,5.8182,0.1,2.988e-05,298.59,2.9258e-05,283,-8.0933e-06,2.3613,-1.2503e-05,-30.769,1.5399
29827,18.733,5.9091,0.1,3.4486e-05,344.62,3.4246e-05,337.9,-1.0748e-05,-0.16232,-1.2446e-05,-12.92,1.5275
29828,18.916,0.27273,0.1,2.9317e-05,292.96,2.7584e-05,254.41,-5.8902e-06,2.8949,-1.5228e-05,-67.267,1.5523
29829,19.008,0.18182,0.1,1.6224e-05,162.12,1.5726e-05,149.55,-4.2956e-06,-0.88882,-7.1268e-06,-22.161,1.5641
29830,18.916,0.090909,0.1,1.8896e-05,188.83,1.8616e-05,181.92,-5.1844e-06,3.1015,-7.6644e-06,-15.533,1.5517
29831,18.916,0.45455,0.1,4.2515e-05,424.86,3.8397e-05,338.42,-6.4182e-06,1.6975,-2.5133e-05,-138.92,1.553
29832,19.008,0.36364,0.1,2.7012e-05,269.93,2.4912e-05,223.61,-4.9674e-06,-0.89001,-1.4949e-05,-75.887,1.5647
29833,18.916,0.63636,0.1,5.8202e-05,581.62,5.0703e-05,430.96,-6.4578e-06,1.4775,-3.7389e-05,-230.93,1.5536
29834,19.008,0.54545,0.1,3.923e-05,392.03,3.462e-05,297.33,-5.0307e-06,-0.5967,-2.4488e-05,-146.79,1.5654
29835,18.916,0.81818,0.1,7.6016e-05,759.64,6.4328e-05,531.5,-6.224e-06,1.4054,-5.1498e-05,-338.77,1.5543
29836,19.008,0.72727,0.1,5.2763e-05,527.26,4.4914e-05,372.51,-4.7414e-06,-0.58493,-3.5368e-05,-230.7,1.5661
29837,18.916,1,0.1,9.6547e-05,964.8,7.9826e-05,645.02,-5.8035e-06,1.6389,-6.7818e-05,-464.31,1.5549
29838,19.008,0.90909,0.1,6.8075e-05,680.28,5.6238e-05,453.2,-4.1725e-06,-0.70036,-4.7862e-05,-328.97,1.5667
29839,18.916,1.1818,0.1,0.00012099,1209,9.8229e-05,779.78,-5.3566e-06,1.483,-8.715e-05,-613.08,1.5556
29840,19.008,1.0909,0.1,8.5972e-05,859.13,6.9236e-05,544.76,-3.2974e-06,-0.22625,-6.2573e-05,-445.6,1.5674
29841,18.916,1.3636,0.1,0.00015154,1514.3,0.00012145,953.11,-4.918e-06,3.5986,-0.00011098,-793.27,1.5562
29842,19.008,1.2727,0.1,0.0001078,1077.3,8.5039e-05,655.05,-2.4033e-06,-1.9591,-8.0428e-05,-588.21,1.5681
29843,18.916,1.5455,0.1,0.00019271,1925.8,0.00015344,1194.1,-5.5491e-06,-0.45124,-0.00014223,-1027.4,1.5568
29844,19.008,1.4545,0.1,0.00013651,1364.1,0.0001056,801.69,-4.1417e-07,5.1814,-0.00010404,-773.45,1.5687
29845,18.916,1.7273,0.1,0.00025085,2506.8,0.00020342,1617.8,-1.014e-05,13.206,-0.00018103,-1270.8,1.5574
29846,19.008,1.6364,0.1,0.00017468,1745.6,0.00013502,1010.9,-2.304e-06,-20.942,-0.00013321,-1004.5,1.5694
29847,18.916,1.9091,0.1,0.0003059,3056.9,0.00026488,2276.9,-2.5421e-05,95.701,-0.00020014,-1217.1,1.5579
29848,19.008,1.8182,0.1,0.000251,2508.3,0.00018556,1389.1,1.2961e-05,92.213,-0.00019923,-1502.1,1.57
29849,18.916,2.0909,0.1,0.00031391,3136.9,0.00029224,2678.8,-5.5037e-05,69.46,-0.00017097,-801.64,1.5583
29850,19.008,2,0.1,0.0004642,4638.8,0.00042926,3901.8,-7.852e-05,86.574,-0.00025797,-1261.7,1.5705
29851,18.916,2.2727,0.1,0.00029303,2928.3,0.00028151,2649.8,-7.1401e-05,-1.7639,-0.00013678,-493,1.5587
29852,19.008,2.1818,0.1,0.00035002,3497.8,0.00033675,3167.1,-8.9293e-05,-34.018,-0.00016013,-566.23,1.571
29853,18.916,2.4545,0.1,0.0002722,2720.2,0.0002636,2507.5,-6.9891e-05,1.8206,-0.00012145,-385.56,1.5589
29854,19.008,2.3636,0.1,0.00029806,2978.6,0.00028868,2747.9,-7.6094e-05,7.1701,-0.0001332,-421.91,1.5713
29855,18.916,2.6364,0.1,0.00025658,2564,0.00024917,2378.7,-6.7437e-05,-0.21099,-0.00011228,-337.15,1.5591
29856,19.008,2.5455,0.1,0.00027018,2699.9,0.00026235,2503.9,-7.1005e-05,-0.75463,-0.00011829,-356.04,1.5715
29857,18.916,2.8182,0.1,0.00024817,2479.9,0.00024128,2307,-6.568e-05,0.63875,-0.00010784,-316.12,1.5592
29858,19.008,2.7273,0.1,0.0002551,2549.3,0.00024803,2371.7,-6.7488e-05,1.0487,-0.00011086,-324.84,1.5716
29859,18.916,3,0.1,0.00024546,2452.9,0.00023873,2283.6,-6.5162e-05,0.27053,-0.00010639,-309.51,1.5593
29860,19.008,2.9091,0.1,0.00024839,2482.2,0.00024164,2312.4,-6.6055e-05,0.43937,-0.00010747,-310.76,1.5717
29861,18.916,3.1818,0.1,0.00024817,2479.9,0.00024128,2307,-6.568e-05,0.63876,-0.00010784,-316.12,1.5592
29862,19.008,3.0909,0.1,0.00024839,2482.2,0.00024164,2312.4,-6.6055e-05,0.43937,-0.00010747,-310.76,1.5717
29863,18.916,3.3636,0.1,0.00025658,2564,0.00024917,2378.7,-6.7437e-05,-0.21099,-0.00011228,-337.15,1.5591
29864,19.008,3.2727,0.1,0.0002551,2549.3,0.00024803,2371.7,-6.7488e-05,1.0487,-0.00011086,-324.84,1.5716
29865,18.916,3.5455,0.1,0.0002722,2720.2,0.0002636,2507.5,-6.9891e-05,1.8206,-0.00012145,-385.56,1.5589
29866,19.008,3.4545,0.1,0.00027018,2699.9,0.00026235,2503.9,-7.1005e-05,-0.75463,-0.00011829,-356.04,1.5715
29867,18.916,3.7273,0.1,0.00029303,2928.3,0.00028151,2649.8,-7.1401e-05,-1.7639,-0.00013678,-493,1.5587
29868,19.008,3.6364,0.1,0.00029806,2978.6,0.00028868,2747.9,-7.6094e-05,7.1701,-0.0001332,-421.91,1.5713
29869,18.916,3.9091,0.1,0.00031391,3136.9,0.00029224,2678.8,-5.5037e-05,69.46,-0.00017097,-801.64,1.5583
29870,19.008,3.8182,0.1,0.00035002,3497.8,0.00033675,3167.1,-8.9293e-05,-34.018,-0.00016013,-566.23,1.571
29871,18.916,4.0909,0.1,0.0003059,3056.9,0.00026488,2276.9,-2.5421e-05,95.701,-0.00020014,-1217.1,1.5579
29872,19.008,4,0.1,0.0004642,4638.8,0.00042926,3901.8,-7.852e-05,86.574,-0.00025797,-1261.7,1.5705
29873,18.916,4.2727,0.1,0.00025085,2506.8,0.00020342,1617.8,-1.014e-05,13.206,-0.00018103,-1270.8,1.5574
29874,19.008,4.1818,0.1,0.000251,2508.3,0.00018556,1389.1,1.2961e-05,92.213,-0.00019923,-1502.1,1.57
29875,18.916,4.4545,0.1,0.00019271,1925.8,0.00015344,1194.1,-5.5491e-06,-0.45124,-0.00014223,-1027.4,1.5568
29876,19.008,4.3636,0.1,0.00017468,1745.6,0.00013502,1010.9,-2.304e-06,-20.942,-0.00013321,-1004.5,1.5694
29877,18.916,4.6364,0.1,0.00015154,1514.3,0.00012145,953.11,-4.918e-06,3.5986,-0.00011098,-793.27,1.5562
29878,19.008,4.5455,0.1,0.00013651,1364.1,0.00010559,801.69,-4.1417e-07,5.1814,-0.00010404,-773.45,1.5687
29879,18.916,4.8182,0.1,0.00012099,1209,9.8229e-05,779.78,-5.3566e-06,1.483,-8.715e-05,-613.08,1.5556
29880,19.008,4.7273,0.1,0.0001078,1077.3,8.5039e-05,655.05,-2.4033e-06,-1.9591,-8.0428e-05,-588.21,1.5681
29881,18.916,5,0.1,9.6547e-05,964.8,7.9826e-05,645.02,-5.8035e-06,1.6389,-6.7818e-05,-464.31,1.5549
29882,19.008,4.9091,0.1,8.5972e-05,859.13,6.9236e-05,544.76,-3.2973e-06,-0.22625,-6.2573e-05,-445.6,1.5674
29883,18.916,5.1818,0.1,7.6016e-05,759.64,6.4328e-05,531.5,-6.224e-06,1.4054,-5.1498e-05,-338.77,1.5543
29884,19.008,5.0909,0.1,6.8075e-05,680.28,5.6238e-05,453.2,-4.1725e-06,-0.70036,-4.7862e-05,-328.97,1.5667
29885,18.916,5.3636,0.1,5.8202e-05,581.62,5.0703e-05,430.96,-6.4578e-06,1.4775,-3.7389e-05,-230.93,1.5536
29886,19.008,5.2727,0.1,5.2763e-05,527.26,4.4914e-05,372.51,-4.7414e-06,-0.58493,-3.5368e-05,-230.7,1.5661
29887,18.916,5.5455,0.1,4.2515e-05,424.86,3.8397e-05,338.42,-6.4182e-06,1.6975,-2.5133e-05,-138.92,1.553
29888,19.008,5.4545,0.1,3.923e-05,392.03,3.462e-05,297.33,-5.0307e-06,-0.5967,-2.4488e-05,-146.79,1.5654
29889,18.916,5.7273,0.1,2.9317e-05,292.96,2.7584e-05,254.41,-5.8902e-06,2.8949,-1.5228e-05,-67.267,1.5523
29890,19.008,5.6364,0.1,2.7012e-05,269.93,2.4912e-05,223.61,-4.9674e-06,-0.89001,-1.4949e-05,-75.887,1.5647
29891,19.008,5.8182,0.1,1.6224e-05,162.12,1.5726e-05,149.55,-4.2956e-06,-0.88882,-7.1268e-06,-22.161,1.5641
29892,18.916,5.9091,0.1,1.8896e-05,188.83,1.8616e-05,181.92,-5.1844e-06,3.1015,-7.6644e-06,-15.533,1.5517
29893,19.267,3.7273,0.1,0.00035055,3503.1,0.00034306,3310.7,-9.6991e-05,4.3084,-0.00014555,-360.53,1.6064
29894,19.183,3.8182,0.1,0.00039177,3915,0.00038181,3654.9,-0.00010916,-34.126,-0.00016485,-452.54,1.5948
29895,19.267,3.9091,0.1,0.00045992,4596,0.00045452,4494.3,-0.00011346,226.7,-0.00019308,-371.54,1.6061
29896,19.267,3.5455,0.1,0.00029233,2921.2,0.00028517,2740.2,-7.8852e-05,5.0902,-0.00012438,-336.99,1.6067
29897,19.183,3.6364,0.1,0.0003119,3116.8,0.00030356,2908.9,-8.2255e-05,10.027,-0.00013519,-387.68,1.5951
29898,19.267,3.3636,0.1,0.00026395,2637.7,0.0002575,2473.5,-7.166e-05,0.30437,-0.00011197,-302.56,1.6069
29899,19.183,3.4545,0.1,0.00027572,2755.3,0.00026843,2571.1,-7.3798e-05,-0.29105,-0.00011864,-337.19,1.5954
29900,19.267,3.1818,0.1,0.00025023,2500.6,0.00024419,2346.7,-6.803e-05,0.80643,-0.00010596,-284.16,1.607
29901,19.183,3.2727,0.1,0.00025683,2566.5,0.00025019,2398.8,-6.8917e-05,1.1045,-0.00011012,-308.49,1.5955
29902,19.267,3,0.1,0.00024612,2459.5,0.0002402,2308.7,-6.7002e-05,0.50778,-0.0001041,-278.23,1.607
29903,19.183,3.0909,0.1,0.00024873,2485.6,0.0002424,2325.1,-6.6975e-05,0.56184,-0.00010634,-295.22,1.5956
29904,19.267,2.8182,0.1,0.00025023,2500.6,0.00024419,2346.7,-6.803e-05,0.80643,-0.00010596,-284.16,1.607
29905,19.183,2.9091,0.1,0.00024873,2485.6,0.0002424,2325.1,-6.6975e-05,0.56184,-0.00010634,-295.22,1.5956
29906,19.267,2.6364,0.1,0.00026395,2637.7,0.0002575,2473.5,-7.166e-05,0.30437,-0.00011197,-302.56,1.6069
29907,19.183,2.7273,0.1,0.00025683,2566.5,0.00025019,2398.8,-6.8917e-05,1.1045,-0.00011012,-308.49,1.5955
29908,19.267,2.4545,0.1,0.00029233,2921.2,0.00028517,2740.2,-7.8852e-05,5.0902,-0.00012438,-336.99,1.6067
29909,19.183,2.5455,0.1,0.00027572,2755.3,0.00026843,2571.1,-7.3798e-05,-0.29105,-0.00011864,-337.19,1.5954
29910,19.267,2.2727,0.1,0.00035055,3503.1,0.00034306,3310.7,-9.6991e-05,4.3084,-0.00014555,-360.53,1.6064
29911,19.183,2.3636,0.1,0.0003119,3116.8,0.00030356,2908.9,-8.2255e-05,10.027,-0.00013519,-387.68,1.5951
29912,19.183,2.1818,0.1,0.00039177,3915,0.00038181,3654.9,-0.00010916,-34.126,-0.00016485,-452.54,1.5948
29913,19.267,2.0909,0.1,0.00045992,4596,0.00045452,4494.3,-0.00011346,226.7,-0.00019308,-371.54,1.6061
29914,19.1,3.7273,0.1,0.00035967,3594.2,0.00034771,3293.6,-9.3843e-05,-24.01,-0.00016047,-524.62,1.5836
29915,19.1,3.9091,0.1,0.0004948,4944.5,0.0004682,4348.3,-0.00010283,57.858,-0.0002515,-1059.2,1.5832
29916,19.1,3.5455,0.1,0.00029719,2969.9,0.0002884,2751.6,-7.7206e-05,4.6085,-0.00013102,-399.69,1.5839
29917,19.1,3.3636,0.1,0.00026907,2688.8,0.00026151,2499.3,-7.1057e-05,0.49411,-0.00011717,-346.01,1.5841
29918,19.1,3.1818,0.1,0.0002554,2552.2,0.00024845,2377.5,-6.7865e-05,0.83757,-0.00011055,-319.9,1.5842
29919,19.1,3,0.1,0.00025132,2511.5,0.00024456,2341.1,-6.6949e-05,0.59632,-0.00010855,-311.97,1.5842
29920,19.1,2.8182,0.1,0.0002554,2552.2,0.00024845,2377.5,-6.7865e-05,0.83757,-0.00011055,-319.9,1.5842
29921,19.1,2.6364,0.1,0.00026907,2688.8,0.00026151,2499.3,-7.1057e-05,0.49411,-0.00011717,-346.01,1.5841
29922,19.1,2.4545,0.1,0.00029719,2969.9,0.0002884,2751.6,-7.7206e-05,4.6085,-0.00013102,-399.69,1.5839
29923,19.1,2.2727,0.1,0.00035967,3594.2,0.00034771,3293.6,-9.3843e-05,-24.01,-0.00016047,-524.62,1.5836
29924,19.1,2.0909,0.1,0.0004948,4944.5,0.0004682,4348.3,-0.00010283,57.858,-0.0002515,-1059.2,1.5832
29925,19.267,5.7273,0.1,1.3309e-05,133,1.275e-05,118.88,-3.4238e-06,-2.6455,-6.1611e-06,-23.212,1.603
29926,19.267,5.9091,0.1,4.7696e-06,47.663,4.6921e-06,45.715,-1.32e-06,0.54261,-1.9377e-06,-4.0987,1.6028
29927,19.267,5.8182,0.05,3.0721e-06,30.7,2.359e-06,17.725,2.7329e-13,3.9101e-06,-2.359e-06,-17.725,1.6029
29928,19.267,5.5455,0.1,2.1073e-05,210.59,1.9965e-05,183.89,-4.9241e-06,-3.1132,-1.0394e-05,-44.214,1.6032
29929,19.267,5.6364,0.05,6.6373e-06,66.327,5.0966e-06,38.294,3.8392e-13,5.2619e-06,-5.0966e-06,-38.294,1.6031
29930,19.267,5.3636,0.1,2.8922e-05,289.03,2.7144e-05,247.55,-6.2492e-06,-3.3551,-1.4917e-05,-68.479,1.6034
29931,19.267,5.4545,0.05,1.0152e-05,101.45,7.7954e-06,58.571,5.7546e-13,4.8412e-06,-7.7954e-06,-58.571,1.6033
29932,19.267,5.1818,0.1,3.7597e-05,375.71,3.5004e-05,316.49,-7.6385e-06,-3.911,-2.0032e-05,-97.028,1.6037
29933,19.267,5.2727,0.05,1.3996e-05,139.86,1.0747e-05,80.75,7.8377e-13,5.1274e-06,-1.0747e-05,-80.75,1.6036
29934,19.267,5,0.1,4.7753e-05,477.2,4.4148e-05,396.21,-9.1938e-06,-4.58,-2.611e-05,-131.68,1.604
29935,19.267,5.0909,0.05,1.841e-05,183.97,1.4136e-05,106.21,7.1501e-13,5.6242e-06,-1.4136e-05,-106.21,1.6038
29936,19.267,4.8182,0.1,6.0333e-05,602.91,5.5429e-05,493.95,-1.1129e-05,-6.142,-3.3675e-05,-175.54,1.6042
29937,19.267,4.9091,0.05,2.374e-05,237.23,1.8229e-05,136.97,8.2875e-13,4.5806e-06,-1.8229e-05,-136.97,1.6041
29938,19.267,4.6364,0.1,7.7285e-05,772.32,7.0491e-05,623.62,-1.3455e-05,-7.1201,-4.4149e-05,-237.74,1.6045
29939,19.267,4.7273,0.05,3.0564e-05,305.43,2.3469e-05,176.34,1.4815e-12,5.9961e-06,-2.3469e-05,-176.34,1.6044
29940,19.267,4.4545,0.1,9.9672e-05,996.03,9.1025e-05,803.06,-1.8242e-05,-17.928,-5.6446e-05,-304.98,1.6049
29941,19.267,4.5455,0.05,3.9929e-05,399.02,3.0661e-05,230.37,7.4054e-13,-1.4173e-06,-3.0661e-05,-230.37,1.6047
29942,19.267,4.2727,0.1,0.00015311,1530,0.00013471,1147.9,-2.015e-05,-15.67,-9.5949e-05,-585.2,1.6052
29943,19.267,4.3636,0.05,5.4708e-05,546.71,4.2009e-05,315.64,1.7419e-12,1.4686e-05,-4.2009e-05,-315.64,1.605
29944,19.267,4.0909,0.1,0.00032633,3261.1,0.0003143,3094.8,-4.6388e-05,384.7,-0.00016737,-524.33,1.6056
29945,19.267,4.1818,0.05,9.4629e-05,945.64,7.2663e-05,545.96,-7.4344e-12,-6.0686e-05,-7.2663e-05,-545.96,1.6054
29946,19.183,4,0.1,0.0004886,4882.7,0.00047552,4696.4,-8.4372e-05,489.6,-0.00023708,-657.78,1.5944
29947,19.267,4,0.05,8.391e-05,838.52,6.4432e-05,484.12,6.3696e-11,0.00072666,-6.4432e-05,-484.12,1.6059
29948,19.1,4.0909,0.1,0.00037655,3762.9,0.00032262,2808.7,-1.7382e-05,254.06,-0.00025249,-1512.5,1.5827
29949,19.1,4,0.05,0.00012425,1241.6,9.5406e-05,716.84,1.4641e-11,0.00048443,-9.5406e-05,-716.84,1.583
29950,19.1,4.2727,0.1,0.00020201,2018.7,0.00014224,970.56,1.111e-05,-14.711,-0.00016682,-1351.6,1.582
29951,19.1,4.1818,0.05,0.00012987,1297.8,9.9722e-05,749.27,-1.0172e-11,-8.2923e-05,-9.9722e-05,-749.27,1.5823
29952,19.1,4.4545,0.1,0.00013307,1329.8,9.8616e-05,704.38,2.0115e-06,-21.466,-0.00010564,-830.34,1.5813
29953,19.1,4.3636,0.05,8.1924e-05,818.67,6.2907e-05,472.66,1.2513e-12,1.5259e-05,-6.2907e-05,-472.66,1.5816
29954,19.1,4.6364,0.1,0.00010406,1039.9,7.8342e-05,572.47,8.9145e-07,-9.4609,-8.1449e-05,-628.13,1.5806
29955,19.1,4.5455,0.05,6.1507e-05,614.64,4.723e-05,354.86,-2.5623e-13,1.9018e-08,-4.723e-05,-354.86,1.5809
29956,19.1,4.8182,0.1,8.1934e-05,818.77,6.3345e-05,474.87,-1.0208e-06,-8.7536,-6.2473e-05,-470.48,1.5799
29957,19.1,4.7273,0.05,4.8616e-05,485.83,3.7331e-05,280.49,5.0639e-13,6.1742e-06,-3.7331e-05,-280.49,1.5803
29958,19.1,5,0.1,6.5028e-05,649.83,5.1683e-05,398.28,-2.2422e-06,-6.8921,-4.8075e-05,-351.27,1.5792
29959,19.1,4.9091,0.05,3.8683e-05,386.56,2.9703e-05,223.18,6.1469e-13,4.957e-06,-2.9703e-05,-223.18,1.5796
29960,19.1,5.1818,0.1,5.1073e-05,510.38,4.1847e-05,331.94,-3.1544e-06,-6.1815,-3.629e-05,-255.15,1.5785
29961,19.1,5.0909,0.05,3.0546e-05,305.25,2.3456e-05,176.24,7.8705e-13,4.9322e-06,-2.3456e-05,-176.24,1.5789
29962,19.1,5.3636,0.1,3.902e-05,389.93,3.3057e-05,270.62,-3.6969e-06,-5.5335,-2.631e-05,-175.44,1.5779
29963,19.1,5.2727,0.05,2.3506e-05,234.89,1.8049e-05,135.62,7.8494e-13,5.8739e-06,-1.8049e-05,-135.62,1.5782
29964,19.1,5.5455,0.1,2.8166e-05,281.46,2.4753e-05,209.7,-3.8529e-06,-5.2348,-1.7649e-05,-108.89,1.5772
29965,19.1,5.4545,0.05,1.7164e-05,171.52,1.318e-05,99.029,4.6814e-13,3.9561e-06,-1.318e-05,-99.029,1.5775
29966,19.1,5.7273,0.1,1.7698e-05,176.86,1.6171e-05,142.17,-3.3807e-06,-4.7332,-9.9564e-06,-54.14,1.5765
29967,19.1,5.6364,0.05,1.1256e-05,112.49,8.6434e-06,64.943,1.1738e-12,1.4361e-05,-8.6434e-06,-64.943,1.5768
29968,19.1,5.9091,0.1,6.3803e-06,63.759,6.1534e-06,57.689,-1.8094e-06,-2.1401,-2.7731e-06,-9.3812,1.5759
29969,19.1,5.8182,0.05,5.3628e-06,53.591,4.118e-06,30.941,-2.6047e-13,-2.4785e-06,-4.118e-06,-30.941,1.5762
29970,19.267,0.27273,0.1,1.3309e-05,133,1.275e-05,118.88,-3.4238e-06,-2.6455,-6.1611e-06,-23.212,1.603
29971,19.267,0.090909,0.1,4.7696e-06,47.663,4.6921e-06,45.715,-1.32e-06,0.54261,-1.9377e-06,-4.0987,1.6028
29972,19.267,0.18182,0.05,3.0721e-06,30.7,2.359e-06,17.725,-2.6316e-13,-4.721e-06,-2.359e-06,-17.725,1.6029
29973,19.267,0.45455,0.1,2.1073e-05,210.59,1.9965e-05,183.89,-4.9241e-06,-3.1132,-1.0394e-05,-44.214,1.6032
29974,19.267,0.36364,0.05,6.6373e-06,66.327,5.0966e-06,38.294,7.9446e-13,6.6362e-06,-5.0966e-06,-38.294,1.6031
29975,19.267,0.63636,0.1,2.8922e-05,289.03,2.7144e-05,247.55,-6.2492e-06,-3.3551,-1.4917e-05,-68.479,1.6034
29976,19.267,0.54545,0.05,1.0152e-05,101.45,7.7953e-06,58.571,6.5018e-13,5.6371e-06,-7.7954e-06,-58.571,1.6033
29977,19.267,0.81818,0.1,3.7597e-05,375.71,3.5004e-05,316.49,-7.6385e-06,-3.911,-2.0032e-05,-97.028,1.6037
29978,19.267,0.72727,0.05,1.3996e-05,139.86,1.0747e-05,80.75,5.2767e-13,6.0637e-06,-1.0747e-05,-80.75,1.6036
29979,19.267,1,0.1,4.7753e-05,477.2,4.4148e-05,396.21,-9.1938e-06,-4.58,-2.611e-05,-131.68,1.604
29980,19.267,0.90909,0.05,1.841e-05,183.97,1.4136e-05,106.21,4.5215e-13,5.3773e-06,-1.4136e-05,-106.21,1.6038
29981,19.267,1.1818,0.1,6.0333e-05,602.91,5.5429e-05,493.95,-1.1129e-05,-6.142,-3.3675e-05,-175.54,1.6042
29982,19.267,1.0909,0.05,2.374e-05,237.23,1.8229e-05,136.97,3.8612e-13,6.3655e-06,-1.8229e-05,-136.97,1.6041
29983,19.267,1.3636,0.1,7.7285e-05,772.32,7.0491e-05,623.62,-1.3455e-05,-7.1201,-4.4149e-05,-237.74,1.6045
29984,19.267,1.2727,0.05,3.0564e-05,305.43,2.3469e-05,176.34,3.2244e-13,5.3005e-06,-2.3469e-05,-176.34,1.6044
29985,19.267,1.5455,0.1,9.9672e-05,996.03,9.1025e-05,803.06,-1.8242e-05,-17.928,-5.6446e-05,-304.98,1.6049
29986,19.267,1.4545,0.05,3.9929e-05,399.02,3.0661e-05,230.37,6.0809e-13,8.3921e-06,-3.0661e-05,-230.37,1.6047
29987,19.267,1.7273,0.1,0.00015311,1530,0.00013471,1147.9,-2.015e-05,-15.67,-9.5949e-05,-585.2,1.6052
29988,19.267,1.6364,0.05,5.4708e-05,546.71,4.2009e-05,315.64,-4.1841e-13,1.2193e-07,-4.2009e-05,-315.64,1.605
29989,19.267,1.9091,0.1,0.00032633,3261.1,0.0003143,3094.8,-4.6387e-05,384.7,-0.00016737,-524.33,1.6056
29990,19.267,1.8182,0.05,9.4629e-05,945.64,7.2663e-05,545.96,4.7444e-12,5.0288e-05,-7.2663e-05,-545.96,1.6054
29991,19.183,2,0.1,0.0004886,4882.7,0.00047552,4696.4,-8.4372e-05,489.6,-0.00023708,-657.78,1.5944
29992,19.267,2,0.05,8.391e-05,838.52,6.4432e-05,484.12,-2.8772e-11,-0.00034993,-6.4432e-05,-484.12,1.6059
29993,19.1,1.9091,0.1,0.00037655,3762.9,0.00032262,2808.7,-1.7382e-05,254.06,-0.00025249,-1512.5,1.5827
29994,19.1,2,0.05,0.00012425,1241.6,9.5406e-05,716.84,-1.2452e-11,-0.00021081,-9.5406e-05,-716.84,1.583
29995,19.1,1.7273,0.1,0.00020201,2018.7,0.00014224,970.56,1.111e-05,-14.711,-0.00016682,-1351.6,1.582
29996,19.1,1.8182,0.05,0.00012987,1297.8,9.9722e-05,749.27,8.4506e-12,5.6069e-05,-9.9722e-05,-749.27,1.5823
29997,19.1,1.5455,0.1,0.00013307,1329.8,9.8616e-05,704.38,2.0115e-06,-21.466,-0.00010564,-830.34,1.5813
29998,19.1,1.6364,0.05,8.1924e-05,818.67,6.2907e-05,472.66,8.8113e-13,-2.0392e-07,-6.2907e-05,-472.66,1.5816
29999,19.1,1.3636,0.1,0.00010406,1039.9,7.8342e-05,572.47,8.9144e-07,-9.4609,-8.1449e-05,-628.13,1.5806
30000,19.1,1.4545,0.05,6.1507e-05,614.64,4.723e-05,354.86,1.6057e-12,1.0025e-05,-4.723e-05,-354.86,1.5809
30001,19.1,1.1818,0.1,8.1934e-05,818.77,6.3345e-05,474.87,-1.0208e-06,-8.7536,-6.2473e-05,-470.48,1.5799
30002,19.1,1.2727,0.05,4.8616e-05,485.83,3.7331e-05,280.49,7.9173e-13,4.719e-06,-3.7331e-05,-280.49,1.5803
30003,19.1,1,0.1,6.5028e-05,649.83,5.1683e-05,398.28,-2.2422e-06,-6.8921,-4.8075e-05,-351.27,1.5792
30004,19.1,1.0909,0.05,3.8683e-05,386.56,2.9703e-05,223.18,5.236e-13,5.9355e-06,-2.9703e-05,-223.18,1.5796
30005,19.1,0.81818,0.1,5.1073e-05,510.38,4.1847e-05,331.94,-3.1544e-06,-6.1815,-3.629e-05,-255.15,1.5785
30006,19.1,0.90909,0.05,3.0546e-05,305.25,2.3456e-05,176.24,4.7377e-13,7.2391e-06,-2.3456e-05,-176.24,1.5789
30007,19.1,0.63636,0.1,3.902e-05,389.93,3.3057e-05,270.62,-3.6969e-06,-5.5335,-2.631e-05,-175.44,1.5779
30008,19.1,0.72727,0.05,2.3506e-05,234.89,1.8049e-05,135.62,5.2567e-13,6.1837e-06,-1.8049e-05,-135.62,1.5782
30009,19.1,0.45455,0.1,2.8166e-05,281.46,2.4753e-05,209.7,-3.8529e-06,-5.2348,-1.7649e-05,-108.89,1.5772
30010,19.1,0.54545,0.05,1.7164e-05,171.52,1.318e-05,99.029,5.9891e-13,6.6473e-06,-1.318e-05,-99.029,1.5775
30011,19.1,0.27273,0.1,1.7698e-05,176.86,1.6171e-05,142.17,-3.3807e-06,-4.7332,-9.9564e-06,-54.14,1.5765
30012,19.1,0.36364,0.05,1.1256e-05,112.49,8.6434e-06,64.943,4.1704e-13,7.3165e-06,-8.6434e-06,-64.943,1.5768
30013,19.1,0.090909,0.1,6.3803e-06,63.759,6.1534e-06,57.689,-1.8094e-06,-2.1401,-2.7731e-06,-9.3812,1.5759
30014,19.1,0.18182,0.05,5.3628e-06,53.591,4.118e-06,30.941,6.2801e-15,3.053e-06,-4.118e-06,-30.941,1.5762
30015,19.358,6,0.1,5.4838e-06,54.801,5.4993e-06,55.627,-1.4163e-06,3.6664,-2.121e-06,-1.6287,1.6155
30016,19.267,6,0.05,1.0318e-06,10.311,7.9227e-07,5.9528,-7.3102e-13,2.3054e-06,-7.9227e-07,-5.9528,1.6026
30017,19.54,6,0.1,1.5486e-05,154.76,1.5387e-05,151.95,-4.8808e-06,-0.33456,-5.5236e-06,-5.164,1.6413
30018,19.449,6,0.05,1.1028e-06,11.02,8.4679e-07,6.3625,-3.0151e-13,-2.3743e-06,-8.4679e-07,-6.3625,1.6284
30019,19.722,6,0.1,2.4348e-05,243.31,2.4216e-05,239.53,-7.7492e-06,-0.63951,-8.5702e-06,-6.8085,1.6671
30020,19.631,6,0.05,2.6561e-06,26.543,2.0395e-06,15.324,5.8616e-13,6.8904e-06,-2.0395e-06,-15.324,1.6542
30021,19.904,6,0.1,3.1664e-05,316.43,3.1522e-05,312.37,-1.0094e-05,-0.31542,-1.1072e-05,-7.668,1.6929
30022,19.813,6,0.05,3.5826e-06,35.801,2.751e-06,20.67,4.5395e-13,5.7715e-06,-2.751e-06,-20.67,1.68
30023,20.086,6,0.1,3.7564e-05,375.38,3.7421e-05,371.29,-1.2017e-05,-0.16689,-1.3046e-05,-7.9005,1.7187
30024,19.995,6,0.05,4.1916e-06,41.887,3.2186e-06,24.183,4.4709e-13,6.7615e-06,-3.2186e-06,-24.183,1.7058
30025,20.268,6,0.1,4.2077e-05,420.48,4.1939e-05,416.53,-1.3503e-05,-0.04196,-1.4529e-05,-7.7536,1.7445
30026,20.177,6,0.05,4.5637e-06,45.605,3.5043e-06,26.33,9.0873e-13,5.6624e-06,-3.5043e-06,-26.33,1.7316
30027,20.45,6,0.1,4.5281e-05,452.49,4.515e-05,448.75,-1.4571e-05,0.030944,-1.5563e-05,-7.4276,1.7704
30028,20.359,6,0.05,4.7754e-06,47.721,3.6669e-06,27.552,9.1033e-13,5.9603e-06,-3.6669e-06,-27.552,1.7574
30029,20.632,6,0.1,4.729e-05,472.58,4.7168e-05,469.05,-1.525e-05,0.071691,-1.6196e-05,-7.0397,1.7963
30030,20.541,6,0.05,4.8801e-06,48.767,3.7473e-06,28.156,9.0604e-13,4.6642e-06,-3.7473e-06,-28.156,1.7833
30031,20.814,6,0.1,4.8245e-05,482.12,4.813e-05,478.8,-1.5582e-05,0.08928,-1.6481e-05,-6.6645,1.8222
30032,20.723,6,0.05,4.9171e-06,49.137,3.7757e-06,28.369,9.0125e-13,5.33e-06,-3.7757e-06,-28.369,1.8092
30033,20.996,6,0.1,4.8292e-05,482.59,4.8183e-05,479.43,-1.5613e-05,0.093497,-1.647e-05,-6.3434,1.8482
30034,20.905,6,0.05,4.9132e-06,49.098,3.7728e-06,28.347,9.0732e-13,8.8139e-06,-3.7728e-06,-28.347,1.8352
30035,21.178,6,0.1,4.7574e-05,475.41,4.7469e-05,472.38,-1.5389e-05,0.091107,-1.6213e-05,-6.0975,1.8741
30036,21.087,6,0.05,4.8859e-06,48.825,3.7518e-06,28.189,9.1543e-13,6.6911e-06,-3.7518e-06,-28.189,1.8611
30037,21.36,6,0.1,4.6222e-05,461.9,4.6119e-05,458.94,-1.4951e-05,0.086886,-1.5752e-05,-5.9343,1.9002
30038,21.269,6,0.05,4.845e-06,48.417,3.7204e-06,27.953,9.093e-13,4.6111e-06,-3.7204e-06,-27.953,1.8871
30039,21.542,6,0.1,4.435e-05,443.19,4.4249e-05,440.28,-1.4338e-05,0.083885,-1.5128e-05,-5.8537,1.9262
30040,21.451,6,0.05,4.7954e-06,47.921,3.6822e-06,27.667,9.0938e-13,7.3309e-06,-3.6822e-06,-27.667,1.9132
30041,21.724,6,0.1,4.2058e-05,420.29,4.1957e-05,417.38,-1.3581e-05,0.083954,-1.4371e-05,-5.8513,1.9523
30042,21.633,6,0.05,4.7381e-06,47.348,3.6383e-06,27.337,9.1272e-13,6.7476e-06,-3.6383e-06,-27.337,1.9392
30043,21.906,6,0.1,3.9431e-05,394.04,3.9328e-05,391.09,-1.2711e-05,0.088158,-1.351e-05,-5.92,1.9784
30044,21.815,6,0.05,4.6721e-06,46.689,3.5876e-06,26.956,9.1112e-13,6.735e-06,-3.5876e-06,-26.956,1.9653
30045,22.088,6,0.1,3.6538e-05,365.12,3.6432e-05,362.11,-1.1748e-05,0.097092,-1.2567e-05,-6.052,2.0045
30046,21.997,6,0.05,4.5947e-06,45.915,3.5282e-06,26.509,9.0766e-13,5.7072e-06,-3.5282e-06,-26.509,1.9914
30047,22.271,6,0.1,3.3436e-05,334.13,3.3327e-05,331.02,-1.0714e-05,0.11111,-1.1559e-05,-6.2386,2.0307
30048,22.179,6,0.05,4.5022e-06,44.991,3.4571e-06,25.975,4.4906e-13,5.839e-06,-3.4571e-06,-25.975,2.0176
30049,22.453,6,0.1,3.0173e-05,301.52,3.0059e-05,298.29,-9.6237e-06,0.13051,-1.0502e-05,-6.4709,2.0568
30050,22.362,6,0.05,4.3901e-06,43.871,3.3711e-06,25.329,9.0941e-13,8.7729e-06,-3.3711e-06,-25.329,2.0437
30051,22.635,6,0.1,2.6787e-05,267.69,2.6669e-05,264.33,-8.4908e-06,0.15571,-9.4084e-06,-6.7393,2.083
30052,22.544,6,0.05,4.2535e-06,42.505,3.2661e-06,24.54,6.8707e-13,6.9773e-06,-3.2661e-06,-24.54,2.0699
30053,22.817,6,0.1,2.3312e-05,232.96,2.3187e-05,229.45,-7.3262e-06,0.18727,-8.2872e-06,-7.0335,2.1092
30054,22.726,6,0.05,4.0864e-06,40.836,3.1379e-06,23.577,9.0606e-13,5.7837e-06,-3.1379e-06,-23.577,2.0961
30055,22.999,6,0.1,1.9775e-05,197.61,1.9643e-05,193.94,-6.1395e-06,0.2267,-7.1467e-06,-7.3409,2.1355
30056,22.908,6,0.05,3.8822e-06,38.795,2.981e-06,22.398,6.7418e-13,9.0844e-06,-2.981e-06,-22.398,2.1223
30057,23.181,6,0.1,1.62e-05,161.89,1.606e-05,158.06,-4.9395e-06,0.2741,-5.9938e-06,-7.6473,2.1617
30058,23.09,6,0.05,3.6322e-06,36.296,2.789e-06,20.956,6.9895e-13,7.6911e-06,-2.789e-06,-20.956,2.1486
30059,23.363,6,0.1,1.2613e-05,126.04,1.2464e-05,122.05,-3.7348e-06,0.34094,-4.8342e-06,-7.9191,2.188
30060,23.272,6,0.05,3.3246e-06,33.223,2.5529e-06,19.182,9.041e-13,4.156e-06,-2.5529e-06,-19.182,2.1748
30061,23.545,6,0.1,9.05e-06,90.437,8.8875e-06,86.255,-2.5378e-06,0.40987,-3.6789e-06,-8.1638,2.2142
30062,23.454,6,0.05,2.9426e-06,29.406,2.2596e-06,16.978,7.4684e-13,5.6519e-06,-2.2596e-06,-16.978,2.2011
30063,23.727,6,0.1,5.5477e-06,55.439,5.3744e-06,51.304,-1.3704e-06,0.62643,-2.5061e-06,-7.9063,2.2405
30064,23.636,6,0.05,2.4536e-06,24.519,1.8841e-06,14.156,4.3791e-13,7.2963e-06,-1.8841e-06,-14.156,2.2273
30065,23.909,6,0.1,2.3139e-06,23.123,2.1373e-06,19.4,-3.8919e-07,0.41674,-1.29e-06,-6.3515,2.2667
30066,23.818,6,0.05,1.7671e-06,17.658,1.3569e-06,10.195,4.2698e-13,9.2155e-06,-1.3569e-06,-10.195,2.2536
30067,24,5.9091,0.1,1.9186e-06,19.173,1.2208e-06,6.157,6.9613e-08,-2.4922,-1.7038e-06,-15.817,2.2799
30068,24,6,0.05,7.9618e-07,7.9564,6.1137e-07,4.5936,2.7145e-12,3.0225e-05,-6.1137e-07,-4.5936,2.2799
30069,24,5.7273,0.1,4.0499e-06,40.471,1.9899e-06,6.7442,7.823e-07,-2.3296,-3.8977e-06,-37.493,2.28
30070,24,5.8182,0.05,7.2445e-07,7.2395,5.5629e-07,4.1797,9.6179e-13,1.1413e-05,-5.5629e-07,-4.1797,2.2799
30071,24,5.5455,0.1,5.6098e-06,56.059,2.5237e-06,6.8562,1.2925e-06,-2.3945,-5.4763e-06,-53.253,2.2801
30072,24,5.6364,0.05,7.6106e-07,7.6053,5.844e-07,4.3909,6.854e-13,1.0503e-05,-5.844e-07,-4.3909,2.28
30073,24,5.3636,0.1,6.6966e-06,66.92,2.8911e-06,6.8798,1.646e-06,-2.4757,-6.5725e-06,-64.226,2.2801
30074,24,5.4545,0.05,8.0058e-07,8.0003,6.1475e-07,4.619,9.3542e-13,9.9804e-06,-6.1475e-07,-4.619,2.2801
30075,24,5.1818,0.1,7.4816e-06,74.765,3.1518e-06,6.8677,1.9058e-06,-2.4939,-7.3631e-06,-72.137,2.2802
30076,24,5.2727,0.05,8.1803e-07,8.1747,6.2815e-07,4.7197,7.3953e-13,9.998e-06,-6.2815e-07,-4.7197,2.2802
30077,24,5,0.1,8.0402e-06,80.346,3.3353e-06,6.8372,2.0915e-06,-2.5088,-7.9256e-06,-77.773,2.2803
30078,24,5.0909,0.05,8.2391e-07,8.2334,6.3266e-07,4.7536,3.4806e-13,6.4261e-06,-6.3266e-07,-4.7536,2.2802
30079,24,4.8182,0.1,8.4225e-06,84.167,3.4597e-06,6.8023,2.2194e-06,-2.5166,-8.3108e-06,-81.637,2.2803
30080,24,4.9091,0.05,8.2246e-07,8.2189,6.3155e-07,4.7452,2.706e-13,4.2734e-06,-6.3155e-07,-4.7452,2.2803
30081,24,4.6364,0.1,8.6662e-06,86.602,3.5378e-06,6.7662,2.3016e-06,-2.5217,-8.5565e-06,-84.106,2.2804
30082,24,4.7273,0.05,8.1654e-07,8.1597,6.27e-07,4.711,1.5095e-13,4.7416e-06,-6.27e-07,-4.711,2.2803
30083,24,4.4545,0.1,8.8022e-06,87.961,3.5802e-06,6.7316,2.3482e-06,-2.5246,-8.694e-06,-85.492,2.2804
30084,24,4.5455,0.05,8.0806e-07,8.075,6.2049e-07,4.6621,-7.1901e-14,1.2734e-06,-6.2049e-07,-4.6621,2.2804
30085,24,4.2727,0.1,8.8573e-06,88.512,3.5959e-06,6.6996,2.3681e-06,-2.5261,-8.7502e-06,-86.064,2.2805
30086,24,4.3636,0.05,7.9836e-07,7.9781,6.1304e-07,4.6062,-2.6222e-13,1.3091e-06,-6.1304e-07,-4.6062,2.2804
30087,24,4.0909,0.1,8.8552e-06,88.491,3.5929e-06,6.6709,2.3688e-06,-2.5267,-8.7487e-06,-86.059,2.2805
30088,24,4.1818,0.05,7.8842e-07,7.8787,6.0541e-07,4.5488,-7.1362e-13,-8.0415e-07,-6.0541e-07,-4.5488,2.2805
30089,24,3.9091,0.1,8.8165e-06,88.104,3.5781e-06,6.6461,2.3572e-06,-2.5269,-8.7105e-06,-85.685,2.2805
30090,24,4,0.05,7.7893e-07,7.7839,5.9812e-07,4.494,-3.8757e-13,3.9245e-07,-5.9812e-07,-4.494,2.2805
30091,24,3.7273,0.1,8.7592e-06,87.532,3.5574e-06,6.6253,2.3394e-06,-2.5267,-8.6535e-06,-85.123,2.2806
30092,24,3.8182,0.05,7.704e-07,7.6987,5.9157e-07,4.4448,-3.5867e-13,-3.0135e-06,-5.9157e-07,-4.4448,2.2805
30093,24,3.5455,0.1,8.6985e-06,86.925,3.536e-06,6.6089,2.3201e-06,-2.5264,-8.593e-06,-84.523,2.2806
30094,24,3.6364,0.05,7.632e-07,7.6267,5.8604e-07,4.4033,-3.691e-13,-3.1355e-06,-5.8604e-07,-4.4033,2.2806
30095,24,3.3636,0.1,8.6464e-06,86.404,3.5177e-06,6.5971,2.3035e-06,-2.5261,-8.5409e-06,-84.007,2.2806
30096,24,3.4545,0.05,7.576e-07,7.5707,5.8174e-07,4.371,-8.6506e-13,-3.503e-06,-5.8174e-07,-4.371,2.2806
30097,24,3.1818,0.1,8.6116e-06,86.056,3.5056e-06,6.59,2.2923e-06,-2.5259,-8.5061e-06,-83.661,2.2806
30098,24,3.2727,0.05,7.5377e-07,7.5325,5.788e-07,4.3489,-6.5843e-13,-3.6365e-06,-5.788e-07,-4.3489,2.2806
30099,24,3,0.1,8.5993e-06,85.934,3.5014e-06,6.5876,2.2884e-06,-2.5259,-8.4939e-06,-83.54,2.2806
30100,24,3.0909,0.05,7.5183e-07,7.5131,5.7731e-07,4.3377,-9.0391e-13,-3.7738e-06,-5.7731e-07,-4.3377,2.2806
30101,24,2.8182,0.1,8.6115e-06,86.056,3.5056e-06,6.59,2.2923e-06,-2.5259,-8.5061e-06,-83.661,2.2806
30102,24,2.9091,0.05,7.5183e-07,7.5131,5.7731e-07,4.3377,-4.5821e-13,-3.8397e-06,-5.7731e-07,-4.3377,2.2806
30103,24,2.6364,0.1,8.6464e-06,86.404,3.5177e-06,6.5971,2.3035e-06,-2.5261,-8.5409e-06,-84.007,2.2806
30104,24,2.7273,0.05,7.5377e-07,7.5325,5.788e-07,4.3489,-4.5867e-13,-3.8345e-06,-5.788e-07,-4.3489,2.2806
30105,24,2.4545,0.1,8.6985e-06,86.925,3.536e-06,6.6089,2.3201e-06,-2.5264,-8.593e-06,-84.523,2.2806
30106,24,2.5455,0.05,7.576e-07,7.5707,5.8174e-07,4.371,-2.2341e-13,2.7231e-08,-5.8174e-07,-4.371,2.2806
30107,24,2.2727,0.1,8.7592e-06,87.532,3.5574e-06,6.6253,2.3394e-06,-2.5267,-8.6535e-06,-85.123,2.2806
30108,24,2.3636,0.05,7.632e-07,7.6267,5.8604e-07,4.4033,-2.2009e-13,6.091e-08,-5.8604e-07,-4.4033,2.2806
30109,24,2.0909,0.1,8.8165e-06,88.104,3.5781e-06,6.6461,2.3572e-06,-2.5269,-8.7105e-06,-85.685,2.2805
30110,24,2.1818,0.05,7.704e-07,7.6986,5.9157e-07,4.4448,-9.3924e-15,3.676e-06,-5.9157e-07,-4.4448,2.2805
30111,24,1.9091,0.1,8.8552e-06,88.491,3.5929e-06,6.6709,2.3688e-06,-2.5267,-8.7487e-06,-86.059,2.2805
30112,24,2,0.05,7.7893e-07,7.7839,5.9812e-07,4.494,-2.9624e-14,3.57e-06,-5.9812e-07,-4.494,2.2805
30113,24,1.7273,0.1,8.8573e-06,88.512,3.5959e-06,6.6996,2.3681e-06,-2.5261,-8.7502e-06,-86.064,2.2805
30114,24,1.8182,0.05,7.8842e-07,7.8787,6.0541e-07,4.5488,3.4896e-14,3.9481e-06,-6.0541e-07,-4.5488,2.2805
30115,24,1.5455,0.1,8.8022e-06,87.961,3.5802e-06,6.7316,2.3482e-06,-2.5246,-8.694e-06,-85.492,2.2804
30116,24,1.6364,0.05,7.9836e-07,7.9781,6.1304e-07,4.6062,2.6141e-14,5.6836e-06,-6.1304e-07,-4.6061,2.2804
30117,24,1.3636,0.1,8.6662e-06,86.602,3.5378e-06,6.7662,2.3016e-06,-2.5217,-8.5565e-06,-84.106,2.2804
30118,24,1.4545,0.05,8.0805e-07,8.075,6.2049e-07,4.6621,1.618e-14,5.607e-06,-6.2049e-07,-4.6621,2.2804
30119,24,1.1818,0.1,8.4225e-06,84.167,3.4597e-06,6.8023,2.2194e-06,-2.5166,-8.3108e-06,-81.637,2.2803
30120,24,1.2727,0.05,8.1654e-07,8.1597,6.27e-07,4.711,2.5915e-13,4.1076e-06,-6.27e-07,-4.711,2.2803
30121,24,1,0.1,8.0402e-06,80.346,3.3353e-06,6.8372,2.0915e-06,-2.5088,-7.9256e-06,-77.773,2.2803
30122,24,1.0909,0.05,8.2246e-07,8.2189,6.3155e-07,4.7452,5.7679e-14,4.0584e-06,-6.3155e-07,-4.7452,2.2803
30123,24,0.81818,0.1,7.4816e-06,74.765,3.1518e-06,6.8677,1.9058e-06,-2.4939,-7.3631e-06,-72.137,2.2802
30124,24,0.90909,0.05,8.2391e-07,8.2334,6.3266e-07,4.7536,-3.3623e-14,2.5782e-06,-6.3266e-07,-4.7536,2.2802
30125,24,0.63636,0.1,6.6966e-06,66.92,2.8911e-06,6.8797,1.646e-06,-2.4757,-6.5725e-06,-64.226,2.2801
30126,24,0.72727,0.05,8.1803e-07,8.1747,6.2815e-07,4.7197,-2.855e-13,-2.1244e-06,-6.2815e-07,-4.7196,2.2802
30127,24,0.45455,0.1,5.6098e-06,56.059,2.5237e-06,6.8562,1.2925e-06,-2.3945,-5.4763e-06,-53.253,2.2801
30128,24,0.54545,0.05,8.0058e-07,8.0003,6.1475e-07,4.619,-5.9287e-13,-2.3377e-06,-6.1475e-07,-4.619,2.2801
30129,24,0.27273,0.1,4.0499e-06,40.471,1.9899e-06,6.7442,7.823e-07,-2.3296,-3.8977e-06,-37.493,2.28
30130,24,0.36364,0.05,7.6106e-07,7.6053,5.844e-07,4.391,-7.2016e-13,-3.9651e-06,-5.844e-07,-4.3909,2.28
30131,24,0.090909,0.1,1.9186e-06,19.173,1.2207e-06,6.157,6.9613e-08,-2.4922,-1.7038e-06,-15.817,2.2799
30132,24,0.18182,0.05,7.2445e-07,7.2395,5.5629e-07,4.1797,-1.8077e-13,-4.3681e-06,-5.5629e-07,-4.1797,2.2799
30133,2.3842e-15,0.27273,0.1,0.00018313,1830,0.00024122,3541.5,4.5334e-06,1763.1,-8.6666e-06,1663.9,0
30134,7.9472e-16,0.090909,0.1,0.00013955,1394.5,0.00013597,1435.3,-4.8952e-06,376.9,-7.4345e-05,-144.91,0
30135,1.6109e-15,0.18182,0.05,1.6528e-05,165.17,1.2691e-05,95.358,-1.7407e-12,-7.7393e-05,-1.2691e-05,-95.358,0
30136,3.9736e-15,0.45455,0.1,0.0002623,2621.2,0.00034867,5160.5,3.3238e-06,2565.7,-3.5955e-06,2513.7,0
30137,3.2219e-15,0.36364,0.05,8.6188e-06,86.128,6.6182e-06,49.726,-6.1139e-12,-0.00011047,-6.6182e-06,-49.726,0
30138,5.563e-15,0.63636,0.1,0.00030478,3045.7,0.00040557,6008.3,2.3305e-06,2978.5,-1.8714e-06,2946.9,0
30139,4.8328e-15,0.54545,0.05,7.7978e-06,77.924,5.9878e-06,44.99,-4.3847e-12,-8.518e-05,-5.9878e-06,-44.99,0
30140,7.1525e-15,0.81818,0.1,0.0003322,3319.7,0.00044197,6546.3,1.4938e-06,3236.7,-1.1789e-06,3216.6,0
30141,6.4438e-15,0.72727,0.05,6.862e-06,68.573,5.2692e-06,39.591,-1.5581e-12,-7.3576e-05,-5.2692e-06,-39.591,0
30142,8.7419e-15,1,0.1,0.00035101,3507.7,0.00046695,6915.3,1.0301e-06,3414.6,-8.1363e-07,3400.7,0
30143,8.0547e-15,0.90909,0.05,5.842e-06,58.38,4.486e-06,33.706,-9.4817e-13,-6.2069e-05,-4.486e-06,-33.706,0
30144,1.0331e-14,1.1818,0.1,0.00036464,3643.8,0.00048504,7182.8,7.4615e-07,3544,-5.9124e-07,3533.9,0
30145,9.6657e-15,1.0909,0.05,4.9643e-06,49.609,3.812e-06,28.641,-8.7966e-13,-6.5728e-05,-3.812e-06,-28.642,0
30146,1.1921e-14,1.3636,0.1,0.00037483,3745.7,0.00049858,7382.9,5.5644e-07,3640.9,-4.4299e-07,3633.4,0
30147,1.1277e-14,1.2727,0.05,4.2524e-06,42.495,3.2653e-06,24.534,-1.6109e-13,-1.1128e-06,-3.2653e-06,-24.534,0
30148,1.351e-14,1.5455,0.1,0.00038261,3823.4,0.00050891,7535.6,4.2376e-07,3715.1,-3.3776e-07,3709.4,0
30149,1.2888e-14,1.4545,0.05,3.6741e-06,36.716,2.8213e-06,21.198,-3.8881e-13,-6.5507e-05,-2.8213e-06,-21.198,0
30150,1.51e-14,1.7273,0.1,0.00038861,3883.4,0.00051689,7653.6,3.2672e-07,3772.4,-2.5951e-07,3768,0
30151,1.4498e-14,1.6364,0.05,3.2058e-06,32.036,2.4616e-06,18.496,-7.7439e-22,-3.9232e-15,-2.4616e-06,-18.496,0
30152,1.6689e-14,1.9091,0.1,0.00039327,3929.9,0.00052307,7745.1,2.5309e-07,3816.9,-1.9902e-07,3813.5,0
30153,1.6109e-14,1.8182,0.05,2.8281e-06,28.261,2.1716e-06,16.317,4.2199e-14,-5.9929e-05,-2.1716e-06,-16.317,0
30154,1.8279e-14,2.0909,0.1,0.00039686,3965.8,0.00052784,7815.7,1.9536e-07,3851.1,-1.5061e-07,3848.5,0
30155,1.772e-14,2,0.05,2.5261e-06,25.244,1.9397e-06,14.574,-8.1255e-14,-0.00012161,-1.9397e-06,-14.574,0
30156,1.9868e-14,2.2727,0.1,0.00039958,3993.1,0.00053146,7869.2,1.4868e-07,3877.2,-1.1054e-07,3875.2,0
30157,1.9331e-14,2.1818,0.05,2.2886e-06,22.87,1.7574e-06,13.204,6.8094e-14,5.1212e-07,-1.7574e-06,-13.204,0
30158,2.1457e-14,2.4545,0.1,0.00040158,4013,0.00053412,7908.5,1.0979e-07,3896.2,-7.6245e-08,3894.8,0
30159,2.0942e-14,2.3636,0.05,2.1072e-06,21.058,1.6181e-06,12.158,6.2654e-14,4.7852e-07,-1.6181e-06,-12.158,0
30160,2.3047e-14,2.6364,0.1,0.00040295,4026.7,0.00053593,7935.4,7.6539e-08,3909.2,-4.6017e-08,3908.2,0
30161,2.2553e-14,2.5455,0.05,1.976e-06,19.746,1.5173e-06,11.4,5.0136e-14,3.7766e-07,-1.5173e-06,-11.4,0
30162,2.4636e-14,2.8182,0.1,0.00040374,4034.6,0.00053699,7951,4.8178e-08,3916.7,-1.9373e-08,3916.1,0
30163,2.4164e-14,2.7273,0.05,1.8907e-06,18.893,1.4518e-06,10.908,3.1594e-14,2.3626e-07,-1.4518e-06,-10.908,0
30164,2.6226e-14,3,0.1,0.000404,4037.3,0.00053734,7956.2,3.1998e-08,3919.1,-3.7496e-09,3918.8,0
30165,2.5775e-14,2.9091,0.05,1.8486e-06,18.473,1.4195e-06,10.666,1.0445e-14,7.8458e-08,-1.4195e-06,-10.666,0
30166,2.7815e-14,3.1818,0.1,0.00040374,4034.6,0.00053699,7951,4.8178e-08,3916.7,-1.9373e-08,3916.1,0
30167,2.7386e-14,3.0909,0.05,1.8486e-06,18.473,1.4195e-06,10.666,-9.8157e-15,-7.3769e-08,-1.4195e-06,-10.666,0
30168,2.9405e-14,3.3636,0.1,0.00040295,4026.7,0.00053593,7935.4,7.6539e-08,3909.2,-4.6017e-08,3908.2,0
30169,2.8997e-14,3.2727,0.05,1.8907e-06,18.893,1.4518e-06,10.908,-2.5878e-14,-1.9528e-07,-1.4518e-06,-10.908,0
30170,3.0994e-14,3.5455,0.1,0.00040158,4013,0.00053412,7908.5,1.0979e-07,3896.2,-7.6245e-08,3894.8,0
30171,3.0608e-14,3.4545,0.05,1.976e-06,19.746,1.5173e-06,11.4,-3.4788e-14,6.0634e-05,-1.5173e-06,-11.4,0
30172,3.2583e-14,3.7273,0.1,0.00039958,3993.1,0.00053146,7869.2,1.4868e-07,3877.2,-1.1054e-07,3875.2,0
30173,3.2219e-14,3.6364,0.05,2.1072e-06,21.058,1.6181e-06,12.158,-3.273e-14,6.0519e-05,-1.6181e-06,-12.158,0
30174,3.4173e-14,3.9091,0.1,0.00039686,3965.8,0.00052784,7815.7,1.9536e-07,3851.1,-1.5061e-07,3848.5,0
30175,3.383e-14,3.8182,0.05,2.2886e-06,22.87,1.7574e-06,13.204,1.8123e-13,6.1307e-05,-1.7573e-06,-13.204,0
30176,3.5762e-14,4.0909,0.1,0.00039327,3929.9,0.00052307,7745.1,2.5309e-07,3816.9,-1.9902e-07,3813.5,0
30177,3.5441e-14,4,0.05,2.5261e-06,25.244,1.9397e-06,14.574,1.5413e-13,1.2929e-06,-1.9397e-06,-14.574,0
30178,3.7352e-14,4.2727,0.1,0.00038861,3883.4,0.00051689,7653.6,3.2672e-07,3772.4,-2.5951e-07,3768,0
30179,3.7052e-14,4.1818,0.05,2.8281e-06,28.261,2.1716e-06,16.317,2.5079e-13,6.2278e-05,-2.1716e-06,-16.317,0
30180,3.8941e-14,4.4545,0.1,0.00038261,3823.4,0.00050891,7535.6,4.2376e-07,3715.1,-3.3776e-07,3709.4,0
30181,3.8663e-14,4.3636,0.05,3.2058e-06,32.036,2.4616e-06,18.496,1.3307e-13,5.2251e-06,-2.4616e-06,-18.496,0
30182,4.0531e-14,4.6364,0.1,0.00037483,3745.7,0.00049858,7382.9,5.5644e-07,3640.9,-4.4299e-07,3633.4,0
30183,4.0274e-14,4.5455,0.05,3.6741e-06,36.716,2.8213e-06,21.198,5.5603e-13,1.8235e-06,-2.8213e-06,-21.198,0
30184,4.212e-14,4.8182,0.1,0.00036464,3643.8,0.00048504,7182.8,7.4615e-07,3544,-5.9124e-07,3533.9,0
30185,4.1885e-14,4.7273,0.05,4.2524e-06,42.495,3.2653e-06,24.535,8.1425e-13,0.00012501,-3.2653e-06,-24.534,0
30186,4.371e-14,5,0.1,0.00035101,3507.7,0.00046695,6915.3,1.0301e-06,3414.6,-8.1363e-07,3400.7,0
30187,4.3495e-14,4.9091,0.05,4.9643e-06,49.609,3.812e-06,28.642,1.1624e-12,7.256e-05,-3.812e-06,-28.641,0
30188,4.5299e-14,5.1818,0.1,0.0003322,3319.7,0.00044197,6546.3,1.4938e-06,3236.7,-1.1789e-06,3216.6,0
30189,4.5106e-14,5.0909,0.05,5.842e-06,58.38,4.486e-06,33.706,1.3308e-12,1.3554e-05,-4.486e-06,-33.706,0
30190,4.6888e-14,5.3636,0.1,0.00030478,3045.7,0.00040557,6008.3,2.3305e-06,2978.5,-1.8714e-06,2946.9,0
30191,4.6717e-14,5.2727,0.05,6.862e-06,68.573,5.2692e-06,39.591,2.189e-12,7.781e-05,-5.2692e-06,-39.591,0
30192,4.8478e-14,5.5455,0.1,0.0002623,2621.2,0.00034867,5160.5,3.3238e-06,2565.7,-3.5955e-06,2513.7,0
30193,4.8328e-14,5.4545,0.05,7.7978e-06,77.924,5.9878e-06,44.99,5.2421e-12,0.00014293,-5.9878e-06,-44.99,0
30194,5.0067e-14,5.7273,0.1,0.00018313,1830,0.00024122,3541.5,4.5334e-06,1763.1,-8.6666e-06,1663.9,0
30195,4.9939e-14,5.6364,0.05,8.6188e-06,86.128,6.6182e-06,49.726,1.0237e-11,0.00020238,-6.6182e-06,-49.726,0
30196,5.1657e-14,5.9091,0.1,0.00013955,1394.5,0.00013597,1435.3,-4.8952e-06,376.9,-7.4344e-05,-144.91,0
30197,5.155e-14,5.8182,0.05,1.6528e-05,165.17,1.2691e-05,95.358,1.7177e-12,0.00012344,-1.2691e-05,-95.358,0
30198,23.909,0,0.1,2.3139e-06,23.123,2.1373e-06,19.4,-3.8919e-07,0.41673,-1.29e-06,-6.3515,2.2667
30199,24,0,0.05,7.9618e-07,7.9564,6.1137e-07,4.5936,1.9334e-12,2.2816e-05,-6.1137e-07,-4.5936,2.2799
30200,23.727,0,0.1,5.5477e-06,55.439,5.3744e-06,51.304,-1.3704e-06,0.62642,-2.5061e-06,-7.9063,2.2405
30201,23.818,0,0.05,1.7671e-06,17.658,1.3569e-06,10.195,4.5085e-13,1.162e-05,-1.3569e-06,-10.195,2.2536
30202,23.545,0,0.1,9.05e-06,90.437,8.8875e-06,86.255,-2.5378e-06,0.40987,-3.6789e-06,-8.1638,2.2142
30203,23.636,0,0.05,2.4536e-06,24.519,1.8841e-06,14.156,1.5614e-13,9.3658e-06,-1.8841e-06,-14.156,2.2273
30204,23.363,0,0.1,1.2613e-05,126.04,1.2464e-05,122.05,-3.7348e-06,0.34094,-4.8342e-06,-7.9191,2.188
30205,23.454,0,0.05,2.9426e-06,29.406,2.2596e-06,16.978,-1.5207e-13,8.4632e-06,-2.2596e-06,-16.978,2.2011
30206,23.181,0,0.1,1.62e-05,161.89,1.606e-05,158.06,-4.9395e-06,0.2741,-5.9938e-06,-7.6473,2.1617
30207,23.272,0,0.05,3.3246e-06,33.223,2.5529e-06,19.182,-4.1971e-13,4.7642e-06,-2.5529e-06,-19.182,2.1748
30208,22.999,0,0.1,1.9775e-05,197.61,1.9643e-05,193.94,-6.1395e-06,0.2267,-7.1467e-06,-7.3409,2.1355
30209,23.09,0,0.05,3.6322e-06,36.296,2.789e-06,20.956,-3.396e-13,7.9572e-06,-2.789e-06,-20.956,2.1486
30210,22.817,0,0.1,2.3312e-05,232.96,2.3187e-05,229.45,-7.3262e-06,0.18727,-8.2872e-06,-7.0335,2.1092
30211,22.908,0,0.05,3.8822e-06,38.795,2.981e-06,22.398,9.4829e-14,5.7899e-06,-2.981e-06,-22.398,2.1223
30212,22.635,0,0.1,2.6787e-05,267.69,2.6669e-05,264.33,-8.4908e-06,0.15571,-9.4084e-06,-6.7393,2.083
30213,22.726,0,0.05,4.0864e-06,40.836,3.1379e-06,23.577,-8.8707e-15,5.9582e-06,-3.1379e-06,-23.577,2.0961
30214,22.453,0,0.1,3.0173e-05,301.52,3.0059e-05,298.29,-9.6237e-06,0.13051,-1.0502e-05,-6.4709,2.0568
30215,22.544,0,0.05,4.2534e-06,42.505,3.2661e-06,24.54,-2.2966e-13,6.6257e-06,-3.2661e-06,-24.54,2.0699
30216,22.271,0,0.1,3.3436e-05,334.13,3.3327e-05,331.02,-1.0714e-05,0.11111,-1.1559e-05,-6.2386,2.0307
30217,22.362,0,0.05,4.3901e-06,43.871,3.3711e-06,25.329,2.2528e-13,6.2884e-06,-3.3711e-06,-25.329,2.0437
30218,22.088,0,0.1,3.6538e-05,365.12,3.6432e-05,362.11,-1.1748e-05,0.097091,-1.2567e-05,-6.052,2.0045
30219,22.179,0,0.05,4.5022e-06,44.991,3.4571e-06,25.975,2.2189e-13,8.8048e-06,-3.4571e-06,-25.975,2.0176
30220,21.906,0,0.1,3.9431e-05,394.04,3.9328e-05,391.09,-1.2711e-05,0.088161,-1.351e-05,-5.92,1.9784
30221,21.997,0,0.05,4.5947e-06,45.915,3.5282e-06,26.509,4.5992e-13,4.6481e-06,-3.5282e-06,-26.509,1.9914
30222,21.724,0,0.1,4.2058e-05,420.29,4.1957e-05,417.38,-1.3581e-05,0.083957,-1.4371e-05,-5.8513,1.9523
30223,21.815,0,0.05,4.6721e-06,46.689,3.5876e-06,26.956,9.1446e-13,6.2704e-06,-3.5876e-06,-26.956,1.9653
30224,21.542,0,0.1,4.435e-05,443.19,4.4249e-05,440.28,-1.4338e-05,0.083885,-1.5128e-05,-5.8537,1.9262
30225,21.633,0,0.05,4.7381e-06,47.348,3.6383e-06,27.337,2.2746e-13,6.4977e-06,-3.6383e-06,-27.337,1.9392
30226,21.36,0,0.1,4.6222e-05,461.9,4.6119e-05,458.94,-1.4951e-05,0.086889,-1.5752e-05,-5.9343,1.9002
30227,21.451,0,0.05,4.7954e-06,47.92,3.6822e-06,27.667,-2.2187e-13,6.7512e-06,-3.6822e-06,-27.667,1.9132
30228,21.178,0,0.1,4.7574e-05,475.41,4.7469e-05,472.38,-1.5389e-05,0.09111,-1.6213e-05,-6.0975,1.8741
30229,21.269,0,0.05,4.845e-06,48.417,3.7204e-06,27.953,4.5858e-13,7.557e-06,-3.7204e-06,-27.953,1.8871
30230,20.996,0,0.1,4.8292e-05,482.59,4.8183e-05,479.43,-1.5613e-05,0.093496,-1.647e-05,-6.3434,1.8482
30231,21.087,0,0.05,4.8859e-06,48.825,3.7518e-06,28.189,4.5073e-13,6.733e-06,-3.7518e-06,-28.189,1.8611
30232,20.814,0,0.1,4.8245e-05,482.12,4.813e-05,478.8,-1.5582e-05,0.089282,-1.6481e-05,-6.6644,1.8222
30233,20.905,0,0.05,4.9132e-06,49.098,3.7727e-06,28.347,4.4841e-13,6.1672e-06,-3.7727e-06,-28.347,1.8352
30234,20.632,0,0.1,4.729e-05,472.58,4.7168e-05,469.05,-1.525e-05,0.071694,-1.6196e-05,-7.0397,1.7963
30235,20.723,0,0.05,4.9171e-06,49.137,3.7757e-06,28.369,-8.1036e-15,7.1364e-06,-3.7757e-06,-28.369,1.8092
30236,20.45,0,0.1,4.5281e-05,452.49,4.515e-05,448.75,-1.4571e-05,0.030946,-1.5563e-05,-7.4276,1.7704
30237,20.541,0,0.05,4.8801e-06,48.767,3.7473e-06,28.156,4.5304e-13,5.6033e-06,-3.7473e-06,-28.156,1.7833
30238,20.268,0,0.1,4.2077e-05,420.48,4.1939e-05,416.53,-1.3503e-05,-0.041958,-1.4529e-05,-7.7536,1.7445
30239,20.359,0,0.05,4.7754e-06,47.721,3.6669e-06,27.552,9.0946e-13,4.7682e-06,-3.6669e-06,-27.552,1.7574
30240,20.086,0,0.1,3.7564e-05,375.38,3.7421e-05,371.29,-1.2017e-05,-0.16689,-1.3046e-05,-7.9005,1.7187
30241,20.177,0,0.05,4.5637e-06,45.605,3.5043e-06,26.33,4.5549e-13,6.8544e-06,-3.5043e-06,-26.33,1.7316
30242,19.904,0,0.1,3.1664e-05,316.43,3.1522e-05,312.37,-1.0094e-05,-0.31542,-1.1072e-05,-7.668,1.6929
30243,19.995,0,0.05,4.1916e-06,41.887,3.2186e-06,24.183,9.1251e-13,5.5971e-06,-3.2186e-06,-24.183,1.7058
30244,19.722,0,0.1,2.4348e-05,243.31,2.4216e-05,239.53,-7.7492e-06,-0.63951,-8.5702e-06,-6.8085,1.6671
30245,19.813,0,0.05,3.5826e-06,35.801,2.751e-06,20.67,8.968e-13,4.4289e-06,-2.751e-06,-20.67,1.68
30246,19.54,0,0.1,1.5486e-05,154.76,1.5387e-05,151.95,-4.8808e-06,-0.33455,-5.5236e-06,-5.164,1.6413
30247,19.631,0,0.05,2.6561e-06,26.543,2.0395e-06,15.324,2.9906e-13,6.7776e-06,-2.0395e-06,-15.324,1.6542
30248,19.358,0,0.1,5.4838e-06,54.801,5.4993e-06,55.627,-1.4163e-06,3.6664,-2.121e-06,-1.6287,1.6155
30249,19.449,0,0.05,1.1028e-06,11.02,8.4679e-07,6.3625,1.0231e-14,1.7899e-06,-8.4679e-07,-6.3624,1.6284
30250,19.267,0,0.05,1.0318e-06,10.311,7.9227e-07,5.9528,-8.3072e-13,-8.7992e-07,-7.9227e-07,-5.9528,1.6026
30251,19.008,-9.1759e-30,0.1,8.3203e-06,83.145,8.3726e-06,85.031,-2.25e-06,5.2172,-3.0889e-06,-1.0859,1.5634
30252,19.1,-9.2202e-30,0.05,1.4607e-06,14.597,1.1216e-06,8.4276,6.9304e-13,8.5719e-06,-1.1216e-06,-8.4276,1.5755
30253,18.825,-9.0872e-30,0.1,2.4413e-05,243.96,2.4363e-05,242.54,-7.8714e-06,0.33573,-8.3359e-06,-3.1541,1.5393
30254,18.916,0,0.05,2.9047e-07,2.9026,2.2304e-07,1.6758,-1.1247e-12,-1.1126e-05,-2.2304e-07,-1.6758,1.5513
30255,18.641,-8.9986e-30,0.1,4.0564e-05,405.36,4.0506e-05,403.69,-1.3235e-05,-0.10274,-1.365e-05,-3.221,1.5151
30256,18.733,0,0.05,1.1223e-06,11.215,8.6178e-07,6.4751,7.018e-13,5.4916e-06,-8.6178e-07,-6.4751,1.5272
30257,18.457,-8.9099e-30,0.1,5.5739e-05,557,5.569e-05,555.58,-1.8202e-05,0.39135,-1.8681e-05,-3.2107,1.491
30258,18.549,0,0.05,1.1336e-06,11.328,8.7043e-07,6.54,4.7317e-13,5.7385e-06,-8.7043e-07,-6.54,1.503
30259,18.274,-8.8212e-30,0.1,6.9956e-05,699.08,6.9913e-05,697.83,-2.2879e-05,0.62417,-2.3376e-05,-3.1047,1.4669
30260,18.365,0,0.05,7.256e-07,7.251,5.5717e-07,4.1864,1.346e-13,5.5831e-06,-5.5717e-07,-4.1864,1.4789
30261,18.09,-8.7326e-30,0.1,8.3108e-05,830.51,8.3069e-05,829.39,-2.7207e-05,0.81444,-2.7719e-05,-3.0368,1.4428
30262,18.182,0,0.05,2.9671e-07,2.965,2.2783e-07,1.7119,-3.5242e-12,3.9345e-07,-2.2783e-07,-1.7119,1.4548
30263,17.906,-8.6439e-30,0.1,9.5156e-05,950.9,9.5118e-05,949.81,-3.1172e-05,0.91188,-3.1704e-05,-3.0806,1.4188
30264,17.998,0,0.05,1.0021e-06,10.014,7.6949e-07,5.7817,2.3198e-13,5.2241e-06,-7.6949e-07,-5.7817,1.4308
30265,17.723,-8.5553e-30,0.1,0.00010612,1060.5,0.00010608,1059.4,-3.4781e-05,0.94418,-3.5338e-05,-3.2339,1.3949
30266,17.814,0,0.05,1.9568e-06,19.555,1.5026e-06,11.29,-2.1348e-13,3.967e-06,-1.5026e-06,-11.29,1.4068
30267,17.539,-8.4666e-30,0.1,0.00011609,1160.1,0.00011604,1158.8,-3.8058e-05,0.92646,-3.8645e-05,-3.4776,1.371
30268,17.631,0,0.05,2.9408e-06,29.388,2.2582e-06,16.967,8.3503e-13,2.4061e-06,-2.2582e-06,-16.967,1.3829
30269,17.355,-8.378e-30,0.1,0.00012515,1250.6,0.0001251,1249.1,-4.1038e-05,0.87707,-4.1658e-05,-3.7835,1.3472
30270,17.447,0,0.05,3.9009e-06,38.982,2.9954e-06,22.506,8.8138e-13,6.3865e-06,-2.9954e-06,-22.506,1.3591
30271,17.172,-8.2893e-30,0.1,0.00013342,1333.3,0.00013337,1331.6,-4.3757e-05,0.81005,-4.4414e-05,-4.1244,1.3235
30272,17.263,0,0.05,4.808e-06,48.047,3.692e-06,27.74,1.8002e-12,-3.5963e-06,-3.692e-06,-27.74,1.3354
30273,16.988,-8.2007e-30,0.1,0.00014103,1409.3,0.00014097,1407.4,-4.6256e-05,0.73568,-4.695e-05,-4.4767,1.2999
30274,17.08,0,0.05,5.6471e-06,56.432,4.3363e-06,32.581,2.7538e-12,1.0871e-05,-4.3363e-06,-32.581,1.3117
30275,16.804,-8.112e-30,0.1,0.00014808,1479.7,0.000148,1477.7,-4.8571e-05,0.66066,-4.9301e-05,-4.8225,1.2764
30276,16.896,0,0.05,6.4118e-06,64.074,4.9235e-06,36.993,1.8283e-12,3.5619e-06,-4.9235e-06,-36.993,1.2881
30277,16.621,-8.0233e-30,0.1,0.00015466,1545.5,0.00015458,1543.2,-5.0733e-05,0.58895,-5.1497e-05,-5.1491,1.253
30278,16.712,0,0.05,7.1018e-06,70.969,5.4533e-06,40.974,2.7333e-12,5.5338e-06,-5.4533e-06,-40.974,1.2647
30279,16.437,-7.9347e-30,0.1,0.00016087,1607.5,0.00016078,1605.1,-5.2772e-05,0.52271,-5.3566e-05,-5.4484,1.2297
30280,16.529,0,0.05,7.72e-06,77.147,5.928e-06,44.541,1.8246e-12,3.6451e-06,-5.928e-06,-44.541,1.2413
30281,16.253,-7.846e-30,0.1,0.00016676,1666.5,0.00016667,1663.9,-5.471e-05,0.46287,-5.5532e-05,-5.7159,1.2065
30282,16.345,0,0.05,8.2717e-06,82.66,6.3516e-06,47.724,1.8244e-12,4.6249e-06,-6.3516e-06,-47.724,1.2181
30283,16.07,-7.7574e-30,0.1,0.00017242,1723,0.00017232,1720.2,-5.6569e-05,0.40959,-5.7415e-05,-5.95,1.1834
30284,16.162,0,0.05,8.7628e-06,87.568,6.7288e-06,50.557,1.8167e-12,4.2152e-06,-6.7288e-06,-50.557,1.1949
30285,15.886,-7.6687e-30,0.1,0.00017787,1777.5,0.00017778,1774.6,-5.8363e-05,0.36263,-5.923e-05,-6.151,1.1604
30286,15.978,0,0.05,9.1998e-06,91.934,7.0643e-06,53.078,1.8125e-12,3.505e-06,-7.0643e-06,-53.078,1.1719
30287,15.702,-7.5801e-30,0.1,0.00018318,1830.5,0.00018307,1827.5,-6.0108e-05,0.32146,-6.0992e-05,-6.3202,1.1376
30288,15.794,0,0.05,9.5885e-06,95.819,7.3628e-06,55.321,1.8178e-12,3.2739e-06,-7.3628e-06,-55.321,1.149
30289,15.519,-7.4914e-30,0.1,0.00018836,1882.3,0.00018825,1879.2,-6.1814e-05,0.28551,-6.2712e-05,-6.4599,1.1148
30290,15.611,0,0.05,9.9349e-06,99.28,7.6288e-06,57.32,-6.8749e-16,3.451e-06,-7.6288e-06,-57.32,1.1262
30291,15.335,-7.4028e-30,0.1,0.00019345,1933.1,0.00019334,1930,-6.3491e-05,0.2542,-6.4399e-05,-6.5724,1.0922
30292,15.427,0,0.05,1.0244e-05,102.37,7.8661e-06,59.103,1.8184e-12,4.6169e-06,-7.8661e-06,-59.103,1.1035
30293,15.151,-7.3141e-30,0.1,0.00019846,1983.3,0.00019835,1980,-6.5144e-05,0.22688,-6.6061e-05,-6.6606,1.0698
30294,15.243,0,0.05,1.052e-05,105.13,8.0784e-06,60.698,1.8185e-12,3.6921e-06,-8.0784e-06,-60.698,1.081
30295,14.968,-7.2254e-30,0.1,0.00020343,2032.9,0.00020331,2029.6,-6.678e-05,0.20302,-6.7702e-05,-6.7268,1.0474
30296,15.06,0,0.05,1.0768e-05,107.61,8.2687e-06,62.128,1.8158e-12,3.1565e-06,-8.2687e-06,-62.128,1.0585
30297,14.784,-7.1368e-30,0.1,0.00020835,2082.1,0.00020824,2078.8,-6.8404e-05,0.18211,-6.933e-05,-6.7734,1.0252
30298,14.876,0,0.05,1.0991e-05,109.83,8.4397e-06,63.413,-2.2104e-16,3.4542e-06,-8.4397e-06,-63.413,1.0363
30299,14.6,-7.0481e-30,0.1,0.00021324,2131,0.00021313,2127.6,-7.002e-05,0.16371,-7.0947e-05,-6.8026,1.0031
30300,14.692,0,0.05,1.1192e-05,111.84,8.5938e-06,64.57,3.6355e-12,3.9338e-06,-8.5938e-06,-64.57,1.0141
30301,14.417,-6.9595e-30,0.1,0.00021812,2179.7,0.00021801,2176.4,-7.163e-05,0.14747,-7.2556e-05,-6.8164,0.98121
30302,14.509,0,0.05,1.1373e-05,113.65,8.7329e-06,65.616,1.8189e-12,2.9802e-06,-8.7329e-06,-65.616,0.99213
30303,14.233,-6.8708e-30,0.1,0.00022299,2228.3,0.00022287,2225,-7.3236e-05,0.133,-7.4161e-05,-6.8164,0.95943
30304,14.325,0,0.05,1.1537e-05,115.29,8.8587e-06,66.561,-1.0494e-16,4.2464e-06,-8.8587e-06,-66.561,0.97028
30305,14.05,-6.7822e-30,0.1,0.00022785,2276.9,0.00022773,2273.5,-7.4842e-05,0.12002,-7.5764e-05,-6.8043,0.93781
30306,14.141,0,0.05,1.1685e-05,116.77,8.9727e-06,67.417,1.8174e-12,3.6826e-06,-8.9727e-06,-67.417,0.94858
30307,13.866,-6.6935e-30,0.1,0.00023271,2325.5,0.00023259,2322.1,-7.6448e-05,0.10831,-7.7365e-05,-6.781,0.91633
30308,13.958,0,0.05,1.182e-05,118.11,9.0759e-06,68.193,-1.3672e-15,2.6226e-06,-9.0759e-06,-68.193,0.92703
30309,13.682,-6.6049e-30,0.1,0.00023757,2374.1,0.00023746,2370.7,-7.8055e-05,0.097648,-7.8967e-05,-6.7479,0.89501
30310,13.774,0,0.05,1.1941e-05,119.33,9.1696e-06,68.896,3.6379e-12,2.4633e-06,-9.1696e-06,-68.897,0.90563
30311,13.499,-6.5162e-30,0.1,0.00024244,2422.7,0.00024233,2419.4,-7.9666e-05,0.087836,-8.057e-05,-6.7058,0.87385
30312,13.59,0,0.05,1.2052e-05,120.44,9.2544e-06,69.534,1.82e-12,3.0395e-06,-9.2544e-06,-69.534,0.88439
30313,13.315,-6.4275e-30,0.1,0.00024732,2471.5,0.00024721,2468.2,-8.1279e-05,0.078704,-8.2175e-05,-6.6555,0.85286
30314,13.407,0,0.05,1.2152e-05,121.43,9.3311e-06,70.11,1.819e-12,2.9799e-06,-9.3311e-06,-70.11,0.86331
30315,13.131,-6.3389e-30,0.1,0.00025221,2520.4,0.0002521,2517.1,-8.2897e-05,0.07012,-8.3784e-05,-6.5976,0.83203
30316,13.223,0,0.05,1.2242e-05,122.33,9.4002e-06,70.629,1.8189e-12,3.211e-06,-9.4002e-06,-70.629,0.8424
30317,12.948,-6.2502e-30,0.1,0.00025712,2569.4,0.000257,2566.1,-8.4519e-05,0.062003,-8.5397e-05,-6.5326,0.81137
30318,13.039,0,0.05,1.2322e-05,123.14,9.4621e-06,71.095,3.6372e-12,2.9801e-06,-9.4621e-06,-71.095,0.82165
30319,12.764,-6.1616e-30,0.1,0.00026203,2618.5,0.00026192,2615.3,-8.6147e-05,0.054207,-8.7014e-05,-6.461,0.79088
30320,12.856,0,0.05,1.2394e-05,123.86,9.5173e-06,71.509,3.638e-12,2.7416e-06,-9.5173e-06,-71.51,0.80108
30321,12.58,-6.0729e-30,0.1,0.00026697,2667.9,0.00026686,2664.7,-8.778e-05,0.046632,-8.8635e-05,-6.383,0.77057
30322,12.672,0,0.05,1.2458e-05,124.49,9.566e-06,71.875,1.819e-12,2.2053e-06,-9.566e-06,-71.876,0.78068
30323,12.397,-5.9843e-30,0.1,0.00027192,2717.3,0.00027181,2714.2,-8.9418e-05,0.039207,-9.0262e-05,-6.2988,0.75043
30324,12.488,0,0.05,1.2513e-05,125.04,9.6084e-06,72.194,3.638e-12,2.3244e-06,-9.6084e-06,-72.194,0.76046
30325,12.213,-5.8956e-30,0.1,0.00027689,2767,0.00027678,2763.9,-9.1063e-05,0.031862,-9.1894e-05,-6.2087,0.73049
30326,12.305,0,0.05,1.256e-05,125.51,9.6446e-06,72.466,1.819e-12,2.0265e-06,-9.6446e-06,-72.466,0.74041
30327,12.029,-5.807e-30,0.1,0.00028188,2816.8,0.00028177,2813.8,-9.2715e-05,0.024551,-9.3531e-05,-6.1127,0.71072
30328,12.121,0,0.05,1.2599e-05,125.91,9.6747e-06,72.692,3.638e-12,2.8014e-06,-9.6747e-06,-72.692,0.72056
30329,11.846,-5.7183e-30,0.1,0.00028688,2866.9,0.00028678,2863.9,-9.4373e-05,0.017153,-9.5175e-05,-6.0108,0.69115
30330,11.938,0,0.05,1.263e-05,126.22,9.6986e-06,72.872,1.819e-12,-7.7299e-07,-9.6986e-06,-72.872,0.70089
30331,11.662,-5.6296e-30,0.1,0.00029191,2917.1,0.00029181,2914.1,-9.6037e-05,0.0096105,-9.6824e-05,-5.9031,0.67177
30332,11.754,0,0.05,1.2654e-05,126.45,9.7164e-06,73.005,3.6378e-12,5.9008e-06,-9.7164e-06,-73.005,0.68141
30333,11.478,-5.541e-30,0.1,0.00029696,2967.5,0.00029686,2964.6,-9.7709e-05,0.0019167,-9.848e-05,-5.7894,0.65258
30334,11.57,0,0.05,1.2669e-05,126.6,9.7278e-06,73.091,3.638e-12,1.9069e-06,-9.7278e-06,-73.091,0.66213
30335,11.295,-5.4523e-30,0.1,0.00030202,3018.2,0.00030193,3015.3,-9.9388e-05,-0.0060207,-0.00010014,-5.6696,0.6336
30336,11.387,0,0.05,1.2675e-05,126.66,9.7329e-06,73.129,3.638e-12,2.2054e-06,-9.7329e-06,-73.129,0.64304
30337,11.111,-5.3637e-30,0.1,0.00030711,3069,0.00030702,3066.2,-0.00010107,-0.014263,-0.00010181,-5.5435,0.61482
30338,11.203,0,0.05,1.2673e-05,126.64,9.7312e-06,73.117,1.8191e-12,2.0265e-06,-9.7312e-06,-73.117,0.62416
30339,10.927,-5.275e-30,0.1,0.00031222,3120.1,0.00031213,3117.4,-0.00010277,-0.022887,-0.00010348,-5.4111,0.59624
30340,11.019,0,0.05,1.2662e-05,126.53,9.7227e-06,73.052,3.6382e-12,1.5497e-06,-9.7227e-06,-73.053,0.60548
30341,10.744,-5.1864e-30,0.1,0.00031736,3171.4,0.00031727,3168.7,-0.00010447,-0.031945,-0.00010517,-5.272,0.57788
30342,10.836,0,0.05,1.2641e-05,126.33,9.7069e-06,72.934,3.6377e-12,2.0291e-06,-9.707e-06,-72.934,0.58701
30343,10.56,-5.0977e-30,0.1,0.00032251,3222.9,0.00032242,3220.3,-0.00010618,-0.041448,-0.00010685,-5.1258,0.55973
30344,10.652,0,0.05,1.2611e-05,126.02,9.6836e-06,72.759,1.8194e-12,1.7249e-06,-9.6836e-06,-72.759,0.56875
30345,10.376,-5.0091e-30,0.1,0.00032769,3274.6,0.0003276,3272.1,-0.0001079,-0.051513,-0.00010855,-4.9725,0.54179
30346,10.468,0,0.05,1.257e-05,125.62,9.6523e-06,72.524,3.638e-12,1.7284e-06,-9.6524e-06,-72.524,0.55071
30347,10.193,-4.9204e-30,0.1,0.00033289,3326.6,0.00033281,3324.2,-0.00010962,-0.062217,-0.00011025,-4.8116,0.52408
30348,10.285,0,0.05,1.2518e-05,125.1,9.6126e-06,72.226,3.6379e-12,1.8421e-06,-9.6127e-06,-72.226,0.53288
30349,10.009,-4.8317e-30,0.1,0.00033812,3378.8,0.00033804,3376.5,-0.00011135,-0.073599,-0.00011196,-4.6428,0.50659
30350,10.101,0,0.05,1.2455e-05,124.47,9.564e-06,71.86,3.6387e-12,1.4832e-06,-9.564e-06,-71.86,0.51528
30351,9.8255,-4.7431e-30,0.1,0.00034337,3431.3,0.00034329,3429,-0.0001131,-0.085743,-0.00011368,-4.4657,0.48933
30352,9.9173,0,0.05,1.2379e-05,123.71,9.5058e-06,71.423,3.6379e-12,1.7956e-06,-9.5058e-06,-71.423,0.4979
30353,9.6418,-4.6544e-30,0.1,0.00034864,3484,0.00034857,3481.8,-0.00011485,-0.098717,-0.0001154,-4.2799,0.47229
30354,9.7337,0,0.05,1.229e-05,122.82,9.4375e-06,70.91,3.6379e-12,1.3613e-06,-9.4375e-06,-70.91,0.48076
30355,9.4582,-4.5658e-30,0.1,0.00035395,3537,0.00035387,3534.9,-0.00011661,-0.11262,-0.00011714,-4.0851,0.4555
30356,9.55,0,0.05,1.2187e-05,121.79,9.3583e-06,70.315,3.6391e-12,1.4897e-06,-9.3583e-06,-70.315,0.46384
30357,9.2745,-4.4771e-30,0.1,0.00035927,3590.3,0.00035921,3588.3,-0.00011838,-0.12753,-0.00011888,-3.8809,0.43894
30358,9.3663,0,0.05,1.2069e-05,120.61,9.2675e-06,69.632,3.6378e-12,1.4293e-06,-9.2675e-06,-69.632,0.44716
30359,9.0909,-4.3885e-30,0.1,0.00036463,3643.8,0.00036456,3641.9,-0.00012016,-0.14356,-0.00012063,-3.6668,0.42263
30360,9.1827,0,0.05,1.1935e-05,119.26,9.1642e-06,68.856,3.6379e-12,1.429e-06,-9.1642e-06,-68.856,0.43073
30361,8.9072,-4.2998e-30,0.1,0.00037001,3697.6,0.00036995,3695.8,-0.00012195,-0.1608,-0.00012238,-3.4426,0.40655
30362,8.999,0,0.05,1.1783e-05,117.74,9.0475e-06,67.98,3.636e-12,1.3093e-06,-9.0475e-06,-67.98,0.41453
30363,8.7236,-4.2111e-30,0.1,0.00037543,3751.7,0.00037537,3750,-0.00012375,-0.17935,-0.00012415,-3.2078,0.39073
30364,8.8154,0,0.05,1.1612e-05,116.04,8.9165e-06,66.995,7.2734e-12,1.351e-06,-8.9165e-06,-66.995,0.39859
30365,8.5399,-4.1225e-30,0.1,0.00038087,3806,0.00038081,3804.5,-0.00012556,-0.19935,-0.00012592,-2.9621,0.37517
30366,8.6317,0,0.05,1.1421e-05,114.13,8.7699e-06,65.893,3.6398e-12,1.2681e-06,-8.7699e-06,-65.894,0.38289
30367,8.3562,-4.0338e-30,0.1,0.00038634,3860.7,0.00038629,3859.3,-0.00012738,-0.22091,-0.00012771,-2.7054,0.35985
30368,8.4481,0,0.05,1.1208e-05,112.01,8.6066e-06,64.667,3.64e-12,1.1879e-06,-8.6066e-06,-64.667,0.36745
30369,8.1726,-3.9452e-30,0.1,0.00039184,3915.7,0.0003918,3914.4,-0.00012921,-0.24417,-0.0001295,-2.4373,0.3448
30370,8.2644,0,0.05,1.0972e-05,109.65,8.4253e-06,63.304,3.6375e-12,1.1272e-06,-8.4253e-06,-63.305,0.35227
30371,7.9889,-3.8565e-30,0.1,0.00039738,3971.1,0.00039734,3969.9,-0.00013105,-0.26927,-0.0001313,-2.1578,0.33002
30372,8.0808,0,0.05,1.0711e-05,107.03,8.2246e-06,61.796,3.637e-12,1.1569e-06,-8.2246e-06,-61.797,0.33735
30373,7.8053,-3.7679e-30,0.1,0.00040295,4026.8,0.00040292,4025.7,-0.00013291,-0.29637,-0.00013312,-1.8669,0.3155
30374,7.8971,0,0.05,1.0422e-05,104.15,8.003e-06,60.131,-4.859e-15,9.1285e-07,-8.003e-06,-60.131,0.3227
30375,7.6216,-3.6792e-30,0.1,0.00040856,4082.8,0.00040853,4081.8,-0.00013477,-0.32564,-0.00013494,-1.5647,0.30125
30376,7.7135,0,0.05,1.0104e-05,100.97,7.7587e-06,58.296,-1.3256e-15,8.8287e-07,-7.7587e-06,-58.296,0.30831
30377,7.438,-3.5906e-30,0.1,0.0004142,4139.2,0.00041418,4138.4,-0.00013665,-0.35725,-0.00013677,-1.2515,0.28728
30378,7.5298,0,0.05,9.7542e-06,97.475,7.49e-06,56.277,7.2685e-12,9.8442e-07,-7.49e-06,-56.277,0.2942
30379,7.2543,-3.5019e-30,0.1,0.00041988,4195.9,0.00041986,4195.3,-0.00013855,-0.39137,-0.00013862,-0.928,0.27359
30380,7.3462,0,0.05,9.37e-06,93.635,7.195e-06,54.06,-2.2297e-15,7.0882e-07,-7.195e-06,-54.06,0.28037
30381,7.0707,-3.4132e-30,0.1,0.00042561,4253.1,0.00042559,4252.6,-0.00014046,-0.42792,-0.00014048,-0.59519,0.26018
30382,7.1625,0,0.05,8.9487e-06,89.425,6.8715e-06,51.63,3.5219e-15,7.9065e-07,-6.8715e-06,-51.63,0.26682
30383,6.887,-3.3246e-30,0.1,0.00043137,4310.7,0.00043136,4310.3,-0.00014235,-0.2524,-0.00014238,-0.46891,0.24705
30384,6.9788,0,0.05,8.4874e-06,84.815,6.5173e-06,48.968,3.6331e-12,6.8243e-07,-6.5173e-06,-48.968,0.25355
30385,6.7034,-3.2359e-30,0.1,0.00043717,4368.7,0.00043717,4368.5,-0.00014423,0.096086,-0.00014431,-0.5118,0.23422
30386,6.7952,0,0.05,7.9828e-06,79.773,6.1298e-06,46.057,3.6314e-12,7.1775e-07,-6.1298e-06,-46.057,0.24057
30387,6.5197,-3.1473e-30,0.1,0.00044302,4427.2,0.00044302,4427.1,-0.00014613,0.44991,-0.00014627,-0.55841,0.22169
30388,6.6115,0,0.05,7.4316e-06,74.265,5.7065e-06,42.877,3.6189e-12,4.9288e-07,-5.7066e-06,-42.877,0.22789
30389,6.3361,-3.0586e-30,0.1,0.00044892,4486.1,0.00044892,4486.2,-0.00014805,0.80642,-0.00014823,-0.60883,0.20945
30390,6.4279,0,0.05,6.83e-06,68.253,5.2446e-06,39.406,7.2548e-12,6.2972e-07,-5.2446e-06,-39.406,0.2155
30391,6.1524,-2.97e-30,0.1,0.00045487,4545.5,0.00045488,4545.8,-0.00014998,1.1625,-0.00015022,-0.66337,0.19751
30392,6.2442,0,0.05,6.174e-06,61.697,4.7408e-06,35.621,3.6196e-12,-7.2331e-07,-4.7409e-06,-35.621,0.20341
30393,5.9688,-2.8813e-30,0.1,0.00046087,4605.5,0.00046088,4605.9,-0.00015192,1.5142,-0.00015222,-0.72232,0.18589
30394,6.0606,0,0.05,5.4594e-06,54.556,4.1921e-06,31.498,7.2425e-12,1.6578e-06,-4.1921e-06,-31.498,0.19163
30395,5.7851,-2.7927e-30,0.1,0.00046692,4665.9,0.00046693,4666.5,-0.00015389,1.857,-0.00015424,-0.78607,0.17457
30396,5.8769,0,0.05,4.6816e-06,46.784,3.5949e-06,27.01,-3.5879e-14,-5.0735e-07,-3.5949e-06,-27.011,0.18016
30397,5.6014,-2.704e-30,0.1,0.00047302,4727,0.00047305,4727.6,-0.00015587,2.185,-0.00015628,-0.85499,0.16357
30398,5.6933,0,0.05,3.8361e-06,38.335,2.9456e-06,22.132,7.1738e-12,1.2319e-07,-2.9457e-06,-22.133,0.169
30399,5.4178,-2.6153e-30,0.1,0.00047919,4788.6,0.00047921,4789.3,-0.00015788,2.4914,-0.00015833,-0.92952,0.15289
30400,5.5096,0,0.05,2.9185e-06,29.165,2.241e-06,16.838,3.4771e-12,4.4308e-07,-2.241e-06,-16.838,0.15816
30401,5.2341,-2.5267e-30,0.1,0.00048541,4850.7,0.00048544,4851.6,-0.0001599,2.7678,-0.00016041,-1.0101,0.14253
30402,5.326,0,0.05,1.9264e-06,19.251,1.4792e-06,11.114,6.745e-12,-5.3758e-06,-1.4793e-06,-11.115,0.14763
30403,5.0505,-2.438e-30,0.1,0.00049169,4913.5,0.00049173,4914.5,-0.00016195,3.0043,-0.0001625,-1.0974,0.1325
30404,5.1423,0,0.05,8.7634e-07,8.7574,6.7291e-07,5.056,2.3246e-12,-3.2868e-05,-6.7294e-07,-5.0562,0.13744
30405,4.8668,-2.3494e-30,0.1,0.00049804,4976.9,0.00049807,4977.9,-0.00016403,3.1893,-0.00016461,-1.1918,0.1228
30406,4.9587,0,0.05,5.0782e-07,5.0747,3.8994e-07,2.9298,-1.1996e-11,-0.00011614,-3.8995e-07,-2.9299,0.12757
30407,4.6832,-2.2607e-30,0.1,0.00050445,5041,0.00050448,5042,-0.00016613,3.3088,-0.00016674,-1.2942,0.11344
30408,4.775,0,0.05,1.693e-06,16.919,1.3e-06,9.768,3.4547e-12,3.6792e-07,-1.3e-06,-9.768,0.11804
30409,4.4995,-2.1721e-30,0.1,0.00051091,5105.6,0.00051095,5106.6,-0.00016825,3.3466,-0.00016888,-1.4054,0.10441
30410,4.5913,0,0.05,3.0685e-06,30.664,2.3562e-06,17.704,6.6214e-12,9.8603e-09,-2.3562e-06,-17.704,0.10885
30411,4.3159,-2.0834e-30,0.1,0.00051744,5170.9,0.00051747,5171.7,-0.00017041,3.2838,-0.00017105,-1.5265,0.095738
30412,4.4077,0,0.05,4.5705e-06,45.673,3.5095e-06,26.369,6.9301e-12,-8.9489e-07,-3.5096e-06,-26.37,0.1
30413,4.1322,-1.9948e-30,0.1,0.00052403,5236.7,0.00052405,5237.4,-0.00017259,3.0982,-0.00017322,-1.659,0.087411
30414,4.224,0,0.05,6.2016e-06,61.973,4.7621e-06,35.78,3.528e-12,-1.4765e-06,-4.7621e-06,-35.781,0.091497
30415,3.9486,-1.9061e-30,0.1,0.00053066,5303,0.00053068,5303.5,-0.0001748,2.7646,-0.00017541,-1.8051,0.079438
30416,4.0404,0,0.05,7.9703e-06,79.648,6.1202e-06,45.984,7.1824e-12,-1.046e-06,-6.1202e-06,-45.985,0.083346
30417,3.7649,-1.8174e-30,0.1,0.00053734,5369.7,0.00053735,5369.8,-0.00017704,2.2546,-0.0001776,-1.9685,0.071823
30418,3.8567,0,0.05,9.8866e-06,98.798,7.5917e-06,57.041,7.2049e-12,-3.9741e-07,-7.5917e-06,-57.041,0.075551
30419,3.5812,-1.7288e-30,0.1,0.00054405,5436.7,0.00054404,5436.4,-0.0001793,1.538,-0.00017979,-2.1566,0.064571
30420,3.6731,0,0.05,1.1962e-05,119.54,9.1855e-06,69.016,7.2192e-12,-1.4639e-14,-9.1855e-06,-69.016,0.068117
30421,3.3976,-1.6401e-30,0.1,0.00055076,5503.8,0.00055073,5502.9,-0.00018158,0.58946,-0.00018198,-2.3883,0.057686
30422,3.4894,0,0.05,1.421e-05,142,1.0911e-05,81.984,3.6302e-12,-5.2488e-07,-1.0911e-05,-81.984,0.061048
30423,3.2139,-1.5515e-30,0.1,0.00055747,5570.8,0.00055741,5569.2,-0.00018388,-0.57756,-0.00018416,-2.7288,0.051173
30424,3.3058,0,0.05,1.6644e-05,166.32,1.278e-05,96.025,7.2094e-12,-2.2327e-07,-1.278e-05,-96.025,0.054348
30425,3.0303,-1.4628e-30,0.1,0.00056413,5637.4,0.00056404,5634.8,-0.00018613,-1.7325,-0.00018637,-3.4699,0.045036
30426,3.1221,0,0.05,1.9279e-05,192.66,1.4804e-05,111.23,7.2181e-12,-3.8831e-07,-1.4804e-05,-111.23,0.048022
30427,2.8466,-1.3742e-30,0.1,0.00057069,5703,0.00057056,5699.2,-0.00018827,-2.4042,-0.00018864,-5.1557,0.039279
30428,2.9385,0,0.05,2.2134e-05,221.19,1.6996e-05,127.7,7.2452e-12,-3.4374e-07,-1.6996e-05,-127.7,0.042074
30429,2.663,-1.2855e-30,0.1,0.0005771,5767.1,0.00057693,5761.8,-0.0001903,-2.7833,-0.00019095,-7.6827,0.033907
30430,2.7548,0,0.05,2.5229e-05,252.11,1.9372e-05,145.56,7.2483e-12,-3.0881e-07,-1.9373e-05,-145.56,0.036509
30431,2.4793,-1.1969e-30,0.1,0.00058328,5828.8,0.00058304,5821.8,-0.0001922,-3.0973,-0.00019324,-10.93,0.028924
30432,2.5712,0,0.05,2.8586e-05,285.66,2.195e-05,164.92,7.2508e-12,-1.4047e-07,-2.195e-05,-164.93,0.031331
30433,2.2957,-1.1082e-30,0.1,0.00058912,5887.1,0.00058881,5877.9,-0.00019395,-3.4069,-0.00019549,-14.968,0.024333
30434,2.3875,0,0.05,3.2231e-05,322.09,2.475e-05,185.96,7.2529e-12,-1.2919e-07,-2.475e-05,-185.96,0.026543
30435,2.112,-1.0195e-30,0.1,0.00059447,5940.6,0.00059406,5928.7,-0.0001955,-3.733,-0.00019765,-19.94,0.020139
30436,2.2038,0,0.05,3.6198e-05,361.73,2.7796e-05,208.85,7.2545e-12,-2.3996e-07,-2.7796e-05,-208.85,0.02215
30437,1.9284,-9.3089e-31,0.1,0.00059912,5987.1,0.00059861,5972,-0.00019676,-4.0873,-0.00019968,-26.047,0.016343
30438,2.0202,0,0.05,4.0523e-05,404.95,3.1117e-05,233.8,7.2425e-12,-2.2481e-07,-3.1117e-05,-233.8,0.018154
30439,1.7447,-8.4223e-31,0.1,0.00060281,6023.9,0.00060216,6004.9,-0.00019764,-4.4818,-0.00020151,-33.56,0.01295
30440,1.8365,0,0.05,4.5255e-05,452.23,3.475e-05,261.1,7.2443e-12,-1.0616e-07,-3.475e-05,-261.1,0.014559
30441,1.5611,-7.5357e-31,0.1,0.00060514,6047.2,0.00060432,6023.2,-0.00019798,-4.9239,-0.00020303,-42.85,0.0099597
30442,1.6529,0,0.05,5.0451e-05,504.17,3.874e-05,291.08,3.6109e-12,-1.0101e-07,-3.874e-05,-291.08,0.011367
30443,1.3774,-6.6492e-31,0.1,0.00060554,6051.2,0.0006045,6021.1,-0.00019758,-5.4452,-0.0002041,-54.465,0.0073739
30444,1.4692,0,0.05,5.6192e-05,561.53,4.3149e-05,324.2,3.6236e-12,-1.9352e-07,-4.3149e-05,-324.2,0.0085785
30445,1.1938,-5.7626e-31,0.1,0.00060316,6027.4,0.00060185,5989.6,-0.00019611,-6.0123,-0.00020452,-69.181,0.0051914
30446,1.2856,0,0.05,6.2581e-05,625.38,4.8054e-05,361.06,7.2482e-12,-7.6587e-14,-4.8054e-05,-361.06,0.0061944
30447,1.0101,-4.8761e-31,0.1,0.00059666,5962.5,0.000595,5914.4,-0.00019307,-6.825,-0.00020393,-88.429,0.0034093
30448,1.1019,0,0.05,6.9772e-05,697.24,5.3576e-05,402.55,7.2599e-12,-9.0042e-08,-5.3577e-05,-402.55,0.0042124
30449,0.82644,-3.9895e-31,0.1,0.0005838,5834,0.00058166,5772.4,-0.00018759,-7.4385,-0.00020181,-114.28,0.0020215
30450,0.91827,0,0.05,7.798e-05,779.26,5.9879e-05,449.91,7.25e-12,-1.7401e-07,-5.9879e-05,-449.91,0.0026282
30451,0.64279,-3.103e-31,0.1,0.00056038,5600,0.00055751,5518.1,-0.00017809,-8.8797,-0.00019715,-152.08,0.0010172
30452,0.73462,0,0.05,8.7635e-05,875.74,6.7292e-05,505.61,3.6161e-12,-1.6344e-07,-6.7292e-05,-505.61,0.0014334
30453,0.45913,-2.2164e-31,0.1,0.00051855,5182,0.0005144,5065.5,-0.00016156,-13.394,-0.00018822,-213.74,0.00037882
30454,0.55096,0,0.05,9.9328e-05,992.6,7.6272e-05,573.08,3.6175e-12,-1.5288e-07,-7.6272e-05,-573.08,0.00061331
30455,0.27548,-1.3298e-31,0.1,0.00043297,4326.7,0.0004265,4157.6,-0.0001243,19.148,-0.0001715,-335.51,8.3609e-05
30456,0.36731,0,0.05,0.0001151,1150.2,8.8384e-05,664.08,3.6233e-12,-1.4097e-07,-8.8384e-05,-664.08,0.00014249
30457,0.091827,-4.4328e-32,0.1,0.00025605,2558.7,0.00022989,1945.4,-5.114e-05,-166.07,-0.00014883,-900.06,2.8688e-05
30458,0.18365,0,0.05,0.00014645,1463.5,0.00011245,844.94,9.0949e-12,2.0981e-05,-0.00011245,-844.94,2.6296e-05
30459,0,0,0.05,0.00019388,1937.5,0.00014888,1118.6,4.6298e-13,-0.00016396,-0.00014888,-1118.6,0
30460,0.091827,6,0.1,0.00025605,2558.7,0.00022989,1945.4,-5.114e-05,-166.07,-0.00014883,-900.06,2.8688e-05
30461,5.2451e-14,6,0.05,0.00019388,1937.5,0.00014888,1118.6,-6.1934e-13,0.00019317,-0.00014888,-1118.6,0
30462,0.27548,6,0.1,0.00043297,4326.7,0.0004265,4157.6,-0.0001243,19.148,-0.0001715,-335.51,8.3609e-05
30463,0.18365,6,0.05,0.00014645,1463.5,0.00011245,844.94,-1.2733e-11,-2.6703e-05,-0.00011245,-844.94,2.6296e-05
30464,0.45913,6,0.1,0.00051855,5182,0.0005144,5065.5,-0.00016156,-13.394,-0.00018822,-213.74,0.00037882
30465,0.36731,6,0.05,0.0001151,1150.2,8.8384e-05,664.08,-7.2592e-12,1.4096e-07,-8.8384e-05,-664.08,0.00014249
30466,0.64279,6,0.1,0.00056038,5600,0.00055751,5518.1,-0.00017809,-8.8797,-0.00019715,-152.08,0.0010172
30467,0.55096,6,0.05,9.9328e-05,992.6,7.6272e-05,573.08,-7.2532e-12,1.5288e-07,-7.6272e-05,-573.08,0.00061331
30468,0.82644,6,0.1,0.0005838,5834,0.00058166,5772.4,-0.00018759,-7.4385,-0.00020181,-114.28,0.0020215
30469,0.73462,6,0.05,8.7635e-05,875.74,6.7292e-05,505.61,-7.2516e-12,1.6344e-07,-6.7292e-05,-505.61,0.0014334
30470,1.0101,6,0.1,0.00059666,5962.5,0.000595,5914.4,-0.00019307,-6.825,-0.00020393,-88.429,0.0034093
30471,0.91827,6,0.05,7.798e-05,779.26,5.9879e-05,449.91,-7.25e-12,1.7401e-07,-5.9879e-05,-449.91,0.0026282
30472,1.1938,6,0.1,0.00060316,6027.4,0.00060185,5989.6,-0.00019611,-6.0123,-0.00020452,-69.181,0.0051914
30473,1.1019,6,0.05,6.9772e-05,697.24,5.3577e-05,402.55,-7.2491e-12,1.8008e-07,-5.3576e-05,-402.55,0.0042124
30474,1.3774,6,0.1,0.00060554,6051.2,0.0006045,6021.1,-0.00019758,-5.4452,-0.0002041,-54.465,0.0073739
30475,1.2856,6,0.05,6.2581e-05,625.38,4.8054e-05,361.06,-7.2593e-12,1.8642e-07,-4.8054e-05,-361.06,0.0061944
30476,1.5611,6,0.1,0.00060514,6047.2,0.00060432,6023.2,-0.00019798,-4.9239,-0.00020303,-42.85,0.0099597
30477,1.4692,6,0.05,5.6192e-05,561.53,4.3149e-05,324.2,-7.2587e-12,1.9352e-07,-4.3149e-05,-324.2,0.0085785
30478,1.7447,6,0.1,0.00060281,6023.9,0.00060216,6004.9,-0.00019764,-4.4818,-0.00020151,-33.56,0.01295
30479,1.6529,6,0.05,5.0451e-05,504.17,3.874e-05,291.08,-7.2579e-12,2.0202e-07,-3.874e-05,-291.08,0.011367
30480,1.9284,6,0.1,0.00059912,5987.1,0.00059861,5972,-0.00019676,-4.0873,-0.00019968,-26.047,0.016343
30481,1.8365,6,0.05,4.5255e-05,452.23,3.475e-05,261.1,-7.257e-12,2.1232e-07,-3.475e-05,-261.1,0.014559
30482,2.112,6,0.1,0.00059447,5940.6,0.00059406,5928.7,-0.0001955,-3.733,-0.00019765,-19.94,0.020139
30483,2.0202,6,0.05,4.0523e-05,404.95,3.1117e-05,233.8,-7.2559e-12,2.2481e-07,-3.1117e-05,-233.8,0.018154
30484,2.2957,6,0.1,0.00058912,5887.1,0.00058881,5877.9,-0.00019395,-3.4069,-0.00019549,-14.968,0.024333
30485,2.2038,6,0.05,3.6198e-05,361.73,2.7796e-05,208.85,-7.2402e-12,2.3996e-07,-2.7796e-05,-208.85,0.02215
30486,2.4793,6,0.1,0.00058328,5828.8,0.00058304,5821.8,-0.0001922,-3.0973,-0.00019324,-10.93,0.028924
30487,2.3875,6,0.05,3.2231e-05,322.09,2.475e-05,185.96,-7.2529e-12,2.5839e-07,-2.475e-05,-185.96,0.026543
30488,2.663,6,0.1,0.0005771,5767.1,0.00057693,5761.8,-0.0001903,-2.7833,-0.00019095,-7.6827,0.033907
30489,2.5712,6,0.05,2.8586e-05,285.66,2.195e-05,164.92,-7.2508e-12,1.4047e-07,-2.195e-05,-164.92,0.031331
30490,2.8466,6,0.1,0.00057069,5703,0.00057056,5699.2,-0.00018827,-2.4042,-0.00018864,-5.1557,0.039279
30491,2.7548,6,0.05,2.5229e-05,252.11,1.9373e-05,145.56,-7.2299e-12,3.0881e-07,-1.9372e-05,-145.56,0.036509
30492,3.0303,6,0.1,0.00056413,5637.4,0.00056404,5634.8,-0.00018613,-1.7325,-0.00018637,-3.4699,0.045036
30493,2.9385,6,0.05,2.2134e-05,221.19,1.6996e-05,127.7,-7.2247e-12,3.4374e-07,-1.6996e-05,-127.7,0.042074
30494,3.2139,6,0.1,0.00055747,5570.8,0.00055741,5569.2,-0.00018388,-0.57755,-0.00018416,-2.7288,0.051173
30495,3.1221,6,0.05,1.9279e-05,192.66,1.4804e-05,111.23,-7.2181e-12,8.4283e-08,-1.4804e-05,-111.23,0.048022
30496,3.3976,6,0.1,0.00055076,5503.8,0.00055073,5502.9,-0.00018158,0.58947,-0.00018198,-2.3883,0.057686
30497,3.3058,6,0.05,1.6644e-05,166.32,1.278e-05,96.025,-3.5781e-12,4.4654e-07,-1.278e-05,-96.025,0.054348
30498,3.5812,6,0.1,0.00054405,5436.7,0.00054404,5436.4,-0.0001793,1.538,-0.00017979,-2.1566,0.064571
30499,3.4894,6,0.05,1.421e-05,142,1.0911e-05,81.984,-7.2603e-12,5.2488e-07,-1.0911e-05,-81.984,0.061048
30500,3.7649,6,0.1,0.00053734,5369.7,0.00053735,5369.8,-0.00017704,2.2546,-0.0001776,-1.9685,0.071823
30501,3.6731,6,0.05,1.1962e-05,119.54,9.1855e-06,69.016,-7.2192e-12,3.1716e-07,-9.1855e-06,-69.016,0.068117
30502,3.9486,6,0.1,0.00053066,5303,0.00053068,5303.5,-0.0001748,2.7646,-0.00017541,-1.8051,0.079438
30503,3.8567,6,0.05,9.8866e-06,98.798,7.5917e-06,57.041,-7.2049e-12,3.9741e-07,-7.5917e-06,-57.041,0.075551
30504,4.1322,6,0.1,0.00052403,5236.7,0.00052405,5237.4,-0.00017259,3.0982,-0.00017322,-1.659,0.087411
30505,4.0404,6,0.05,7.9703e-06,79.648,6.1202e-06,45.985,-7.1201e-12,1.046e-06,-6.1202e-06,-45.984,0.083346
30506,4.3159,6,0.1,0.00051744,5170.9,0.00051747,5171.7,-0.00017041,3.2838,-0.00017105,-1.5265,0.095738
30507,4.224,6,0.05,6.2016e-06,61.973,4.7621e-06,35.78,-7.1439e-12,1.4765e-06,-4.7621e-06,-35.78,0.091497
30508,4.4995,6,0.1,0.00051091,5105.6,0.00051095,5106.6,-0.00016825,3.3466,-0.00016888,-1.4054,0.10441
30509,4.4077,6,0.05,4.5705e-06,45.673,3.5096e-06,26.37,-6.9301e-12,2.5868e-06,-3.5095e-06,-26.369,0.1
30510,4.6832,6,0.1,0.00050445,5041,0.00050448,5042,-0.00016613,3.3088,-0.00016674,-1.2942,0.11344
30511,4.5913,6,0.05,3.0685e-06,30.664,2.3562e-06,17.704,-6.6214e-12,4.6562e-06,-2.3562e-06,-17.704,0.10885
30512,4.8668,6,0.1,0.00049804,4976.9,0.00049807,4977.9,-0.00016403,3.1893,-0.00016461,-1.1918,0.1228
30513,4.775,6,0.05,1.693e-06,16.919,1.3e-06,9.768,-6.9343e-12,6.5448e-06,-1.3e-06,-9.7679,0.11804
30514,5.0505,6,0.1,0.00049169,4913.5,0.00049173,4914.5,-0.00016195,3.0043,-0.0001625,-1.0974,0.1325
30515,4.9587,6,0.05,5.0781e-07,5.0746,3.8994e-07,2.9299,1.0092e-11,0.00011658,-3.8993e-07,-2.9298,0.12757
30516,5.2341,6,0.1,0.00048541,4850.7,0.00048544,4851.6,-0.0001599,2.7678,-0.00016041,-1.0101,0.14253
30517,5.1423,6,0.05,8.7636e-07,8.7575,6.7294e-07,5.0563,-2.3247e-12,3.3613e-05,-6.7292e-07,-5.056,0.13744
30518,5.4178,6,0.1,0.00047919,4788.6,0.00047921,4789.3,-0.00015788,2.4914,-0.00015833,-0.92952,0.15289
30519,5.326,6,0.05,1.9264e-06,19.251,1.4793e-06,11.115,-6.5796e-12,6.0738e-06,-1.4792e-06,-11.114,0.14763
30520,5.6014,6,0.1,0.00047302,4727,0.00047305,4727.6,-0.00015587,2.185,-0.00015628,-0.85499,0.16357
30521,5.5096,6,0.05,2.9185e-06,29.165,2.241e-06,16.838,-7.0829e-12,1.2111e-06,-2.241e-06,-16.838,0.15816
30522,5.7851,6,0.1,0.00046692,4665.9,0.00046693,4666.5,-0.00015389,1.857,-0.00015424,-0.78607,0.17457
30523,5.6933,6,0.05,3.8361e-06,38.335,2.9457e-06,22.133,-7.1572e-12,1.7154e-06,-2.9457e-06,-22.132,0.169
30524,5.9688,6,0.1,0.00046087,4605.5,0.00046088,4605.9,-0.00015192,1.5142,-0.00015222,-0.72232,0.18589
30525,5.8769,6,0.05,4.6816e-06,46.784,3.5949e-06,27.011,-3.5752e-12,6.0194e-07,-3.5949e-06,-27.011,0.18016
30526,6.1524,6,0.1,0.00045487,4545.5,0.00045488,4545.8,-0.00014998,1.1625,-0.00015022,-0.66337,0.19751
30527,6.0606,6,0.05,5.4594e-06,54.556,4.1921e-06,31.498,-7.2425e-12,8.2663e-07,-4.1921e-06,-31.498,0.19163
30528,6.3361,6,0.1,0.00044892,4486.1,0.00044892,4486.2,-0.00014805,0.80642,-0.00014823,-0.60883,0.20945
30529,6.2442,6,0.05,6.174e-06,61.697,4.7409e-06,35.621,-3.6268e-12,8.4131e-07,-4.7409e-06,-35.621,0.20341
30530,6.5197,6,0.1,0.00044302,4427.2,0.00044302,4427.1,-0.00014613,0.44991,-0.00014627,-0.55841,0.22169
30531,6.4279,6,0.05,6.83e-06,68.253,5.2446e-06,39.406,-7.2557e-12,9.3516e-07,-5.2446e-06,-39.406,0.2155
30532,6.7034,6,0.1,0.00043717,4368.7,0.00043717,4368.5,-0.00014423,0.096082,-0.00014431,-0.5118,0.23422
30533,6.6115,6,0.05,7.4316e-06,74.265,5.7066e-06,42.877,-3.6117e-12,7.5907e-07,-5.7066e-06,-42.877,0.22789
30534,6.887,6,0.1,0.00043137,4310.7,0.00043136,4310.3,-0.00014235,-0.25241,-0.00014238,-0.46891,0.24705
30535,6.7952,6,0.05,7.9829e-06,79.774,6.1299e-06,46.057,-3.6175e-12,8.5479e-07,-6.1298e-06,-46.057,0.24057
30536,7.0707,6,0.1,0.00042561,4253.1,0.00042559,4252.6,-0.00014046,-0.42792,-0.00014048,-0.59519,0.26018
30537,6.9788,6,0.05,8.4874e-06,84.816,6.5173e-06,48.968,-3.6406e-12,7.477e-07,-6.5173e-06,-48.968,0.25355
30538,7.2543,6,0.1,0.00041988,4195.9,0.00041986,4195.3,-0.00013855,-0.39137,-0.00013862,-0.92801,0.27359
30539,7.1625,6,0.05,8.9487e-06,89.426,6.8715e-06,51.63,-3.6408e-12,1.0026e-06,-6.8715e-06,-51.63,0.26682
30540,7.438,6,0.1,0.0004142,4139.2,0.00041418,4138.4,-0.00013665,-0.35725,-0.00013677,-1.2515,0.28728
30541,7.3462,6,0.05,9.37e-06,93.636,7.195e-06,54.061,-3.6352e-12,8.7174e-07,-7.195e-06,-54.06,0.28037
30542,7.6216,6,0.1,0.00040856,4082.8,0.00040853,4081.8,-0.00013477,-0.32564,-0.00013494,-1.5647,0.30125
30543,7.5298,6,0.05,9.7542e-06,97.475,7.49e-06,56.277,-7.2734e-12,9.4092e-07,-7.49e-06,-56.277,0.2942
30544,7.8053,6,0.1,0.00040295,4026.8,0.00040292,4025.7,-0.00013291,-0.29637,-0.00013312,-1.8669,0.3155
30545,7.7135,6,0.05,1.0104e-05,100.97,7.7587e-06,58.296,1.3256e-15,1.0067e-06,-7.7587e-06,-58.296,0.30831
30546,7.9889,6,0.1,0.00039738,3971.1,0.00039734,3969.9,-0.00013105,-0.26927,-0.0001313,-2.1578,0.33002
30547,7.8971,6,0.05,1.0422e-05,104.15,8.003e-06,60.131,-3.6367e-12,9.8975e-07,-8.003e-06,-60.131,0.3227
30548,8.1726,6,0.1,0.00039184,3915.7,0.0003918,3914.4,-0.00012921,-0.24416,-0.0001295,-2.4373,0.3448
30549,8.0808,6,0.05,1.0711e-05,107.03,8.2246e-06,61.797,-3.637e-12,9.9212e-07,-8.2246e-06,-61.797,0.33735
30550,8.3562,6,0.1,0.00038634,3860.7,0.00038629,3859.3,-0.00012738,-0.22091,-0.00012771,-2.7054,0.35985
30551,8.2644,6,0.05,1.0972e-05,109.65,8.4253e-06,63.305,-3.6369e-12,1.2e-06,-8.4253e-06,-63.304,0.35227
30552,8.5399,6,0.1,0.00038087,3806,0.00038081,3804.5,-0.00012556,-0.19935,-0.00012592,-2.9622,0.37517
30553,8.4481,6,0.05,1.1208e-05,112.01,8.6066e-06,64.667,-7.2726e-12,1.176e-06,-8.6066e-06,-64.667,0.36745
30554,8.7236,6,0.1,0.00037543,3751.7,0.00037537,3750,-0.00012375,-0.17935,-0.00012415,-3.2078,0.39073
30555,8.6317,6,0.05,1.1421e-05,114.13,8.7699e-06,65.894,-3.6352e-12,1.3177e-06,-8.7699e-06,-65.893,0.38289
30556,8.9072,6,0.1,0.00037001,3697.6,0.00036995,3695.8,-0.00012195,-0.1608,-0.00012238,-3.4426,0.40655
30557,8.8154,6,0.05,1.1612e-05,116.04,8.9165e-06,66.995,-7.2776e-12,1.2132e-06,-8.9165e-06,-66.995,0.39859
30558,9.0909,6,0.1,0.00036463,3643.8,0.00036456,3641.9,-0.00012016,-0.14356,-0.00012063,-3.6669,0.42263
30559,8.999,6,0.05,1.1783e-05,117.74,9.0476e-06,67.98,-5.4584e-12,1.3738e-06,-9.0475e-06,-67.98,0.41453
30560,9.2745,6,0.1,0.00035927,3590.3,0.00035921,3588.3,-0.00011838,-0.12753,-0.00011888,-3.8809,0.43894
30561,9.1827,6,0.05,1.1935e-05,119.26,9.1642e-06,68.856,-5.455e-12,1.2667e-06,-9.1642e-06,-68.856,0.43073
30562,9.4582,6,0.1,0.00035395,3537,0.00035387,3534.9,-0.00011661,-0.11262,-0.00011714,-4.0851,0.4555
30563,9.3663,6,0.05,1.2069e-05,120.61,9.2675e-06,69.632,-5.4568e-12,1.5037e-06,-9.2675e-06,-69.632,0.44716
30564,9.6418,6,0.1,0.00034864,3484,0.00034857,3481.8,-0.00011485,-0.098716,-0.0001154,-4.2799,0.47229
30565,9.55,6,0.05,1.2187e-05,121.79,9.3583e-06,70.315,-3.6378e-12,1.3722e-06,-9.3583e-06,-70.315,0.46384
30566,9.8255,6,0.1,0.00034337,3431.3,0.00034329,3429,-0.0001131,-0.085742,-0.00011368,-4.4657,0.48933
30567,9.7337,6,0.05,1.229e-05,122.82,9.4375e-06,70.91,-3.6378e-12,1.6189e-06,-9.4375e-06,-70.91,0.48076
30568,10.009,6,0.1,0.00033812,3378.8,0.00033804,3376.5,-0.00011135,-0.073599,-0.00011196,-4.6428,0.50659
30569,9.9173,6,0.05,1.2379e-05,123.71,9.5058e-06,71.423,-3.637e-12,1.4312e-06,-9.5058e-06,-71.423,0.4979
30570,10.193,6,0.1,0.00033289,3326.6,0.00033281,3324.2,-0.00010962,-0.062217,-0.00011025,-4.8116,0.52408
30571,10.101,6,0.05,1.2455e-05,124.47,9.564e-06,71.86,-5.4569e-12,1.7354e-06,-9.564e-06,-71.86,0.51528
30572,10.376,6,0.1,0.00032769,3274.6,0.0003276,3272.1,-0.0001079,-0.051513,-0.00010855,-4.9725,0.54179
30573,10.285,6,0.05,1.2518e-05,125.1,9.6127e-06,72.226,-5.4576e-12,1.615e-06,-9.6126e-06,-72.226,0.53288
30574,10.56,6,0.1,0.00032251,3222.9,0.00032242,3220.3,-0.00010618,-0.041447,-0.00010685,-5.1259,0.55973
30575,10.468,6,0.05,1.257e-05,125.62,9.6524e-06,72.524,-3.638e-12,2.0267e-06,-9.6524e-06,-72.524,0.55071
30576,10.744,6,0.1,0.00031736,3171.4,0.00031727,3168.7,-0.00010447,-0.031944,-0.00010517,-5.272,0.57788
30577,10.652,6,0.05,1.2611e-05,126.02,9.6836e-06,72.759,-5.457e-12,1.6691e-06,-9.6836e-06,-72.759,0.56875
30578,10.927,6,0.1,0.00031222,3120.1,0.00031213,3117.4,-0.00010277,-0.022886,-0.00010348,-5.4111,0.59624
30579,10.836,6,0.05,1.2641e-05,126.33,9.707e-06,72.934,-3.638e-12,1.5525e-06,-9.707e-06,-72.934,0.58701
30580,11.111,6,0.1,0.00030711,3069,0.00030702,3066.2,-0.00010107,-0.014262,-0.00010181,-5.5436,0.61482
30581,11.019,6,0.05,1.2662e-05,126.53,9.7227e-06,73.053,-3.638e-12,2.265e-06,-9.7227e-06,-73.053,0.60548
30582,11.295,6,0.1,0.00030202,3018.2,0.00030193,3015.3,-9.9388e-05,-0.0060206,-0.00010014,-5.6696,0.6336
30583,11.203,6,0.05,1.2673e-05,126.64,9.7312e-06,73.117,-5.4571e-12,2.3236e-06,-9.7312e-06,-73.117,0.62416
30584,11.478,6,0.1,0.00029696,2967.5,0.00029686,2964.6,-9.7709e-05,0.0019173,-9.848e-05,-5.7894,0.65258
30585,11.387,6,0.05,1.2675e-05,126.66,9.7329e-06,73.129,-5.457e-12,1.4305e-06,-9.7329e-06,-73.129,0.64304
30586,11.662,6,0.1,0.00029191,2917.1,0.00029181,2914.1,-9.6037e-05,0.0096316,-9.6824e-05,-5.9031,0.67177
30587,11.57,6,0.05,1.2669e-05,126.6,9.7279e-06,73.091,-3.638e-12,1.9074e-06,-9.7278e-06,-73.091,0.66213
30588,11.846,6,0.1,0.00028688,2866.9,0.00028678,2863.9,-9.4373e-05,0.017155,-9.5175e-05,-6.0108,0.69115
30589,11.754,6,0.05,1.2654e-05,126.45,9.7164e-06,73.005,-3.638e-12,4.8876e-06,-9.7164e-06,-73.005,0.68141
30590,12.029,6,0.1,0.00028188,2816.8,0.00028177,2813.8,-9.2715e-05,0.02455,-9.3531e-05,-6.1127,0.71072
30591,11.938,6,0.05,1.263e-05,126.22,9.6986e-06,72.872,-5.4572e-12,2.3842e-06,-9.6986e-06,-72.872,0.70089
30592,12.213,6,0.1,0.00027689,2767,0.00027678,2763.9,-9.1063e-05,0.031861,-9.1894e-05,-6.2087,0.73049
30593,12.121,6,0.05,1.2599e-05,125.91,9.6747e-06,72.692,-3.638e-12,-8.3441e-07,-9.6747e-06,-72.692,0.72056
30594,12.397,6,0.1,0.00027192,2717.3,0.00027181,2714.2,-8.9418e-05,0.039208,-9.0262e-05,-6.2988,0.75043
30595,12.305,6,0.05,1.256e-05,125.51,9.6446e-06,72.466,-3.638e-12,2.8015e-06,-9.6446e-06,-72.466,0.74041
30596,12.58,6,0.1,0.00026697,2667.9,0.00026686,2664.7,-8.778e-05,0.046632,-8.8635e-05,-6.383,0.77057
30597,12.488,6,0.05,1.2513e-05,125.04,9.6084e-06,72.194,-3.6384e-12,2.3843e-06,-9.6084e-06,-72.194,0.76046
30598,12.764,6,0.1,0.00026203,2618.5,0.00026192,2615.3,-8.6147e-05,0.054207,-8.7014e-05,-6.461,0.79088
30599,12.672,6,0.05,1.2458e-05,124.49,9.5661e-06,71.876,-3.638e-12,2.0267e-06,-9.5661e-06,-71.876,0.78068
30600,12.948,6,0.1,0.00025712,2569.4,0.000257,2566.1,-8.4519e-05,0.062003,-8.5397e-05,-6.5326,0.81137
30601,12.856,6,0.05,1.2394e-05,123.86,9.5174e-06,71.51,-3.6379e-12,2.8017e-06,-9.5173e-06,-71.51,0.80108
30602,13.131,6,0.1,0.00025221,2520.4,0.0002521,2517.1,-8.2897e-05,0.07012,-8.3784e-05,-6.5977,0.83203
30603,13.039,6,0.05,1.2322e-05,123.14,9.4621e-06,71.095,-3.6372e-12,2.0206e-06,-9.4621e-06,-71.095,0.82165
30604,13.315,6,0.1,0.00024732,2471.5,0.00024721,2468.2,-8.1279e-05,0.078705,-8.2175e-05,-6.6555,0.85286
30605,13.223,6,0.05,1.2242e-05,122.33,9.4002e-06,70.629,-1.8198e-12,3.0403e-06,-9.4002e-06,-70.629,0.8424
30606,13.499,6,0.1,0.00024244,2422.7,0.00024233,2419.4,-7.9666e-05,0.087837,-8.057e-05,-6.7058,0.87385
30607,13.407,6,0.05,1.2152e-05,121.43,9.3311e-06,70.11,-3.6379e-12,2.8535e-06,-9.3311e-06,-70.11,0.86331
30608,13.682,6,0.1,0.00023757,2374.1,0.00023746,2370.7,-7.8055e-05,0.097649,-7.8967e-05,-6.7479,0.89501
30609,13.59,6,0.05,1.2052e-05,120.44,9.2544e-06,69.534,-3.6368e-12,3.0405e-06,-9.2544e-06,-69.534,0.88439
30610,13.866,6,0.1,0.00023271,2325.5,0.00023259,2322.1,-7.6448e-05,0.10831,-7.7365e-05,-6.781,0.91633
30611,13.774,6,0.05,1.1941e-05,119.33,9.1696e-06,68.897,-3.6367e-12,2.8619e-06,-9.1696e-06,-68.897,0.90563
30612,14.05,6,0.1,0.00022785,2276.9,0.00022773,2273.5,-7.4842e-05,0.12002,-7.5764e-05,-6.8043,0.93781
30613,13.958,6,0.05,1.182e-05,118.11,9.076e-06,68.193,-3.6378e-12,2.6827e-06,-9.0759e-06,-68.193,0.92703
30614,14.233,6,0.1,0.00022299,2228.3,0.00022287,2225,-7.3236e-05,0.133,-7.4161e-05,-6.8165,0.95943
30615,14.141,6,0.05,1.1685e-05,116.77,8.9727e-06,67.417,-3.6378e-12,2.8617e-06,-8.9727e-06,-67.417,0.94858
30616,14.417,6,0.1,0.00021812,2179.7,0.00021801,2176.4,-7.163e-05,0.14747,-7.2556e-05,-6.8164,0.98121
30617,14.325,6,0.05,1.1537e-05,115.29,8.8587e-06,66.561,-1.8171e-12,3.1744e-06,-8.8587e-06,-66.561,0.97028
30618,14.6,6,0.1,0.00021324,2131,0.00021313,2127.6,-7.002e-05,0.16371,-7.0947e-05,-6.8027,1.0031
30619,14.509,6,0.05,1.1373e-05,113.65,8.7329e-06,65.616,-1.8168e-12,2.9228e-06,-8.7329e-06,-65.616,0.99213
30620,14.784,6,0.1,0.00020835,2082.1,0.00020824,2078.8,-6.8404e-05,0.1821,-6.933e-05,-6.7734,1.0252
30621,14.692,6,0.05,1.1192e-05,111.84,8.5938e-06,64.57,-3.6377e-12,2.6225e-06,-8.5938e-06,-64.57,1.0141
30622,14.968,6,0.1,0.00020343,2032.9,0.00020331,2029.6,-6.678e-05,0.20302,-6.7702e-05,-6.7268,1.0474
30623,14.876,6,0.05,1.0991e-05,109.83,8.4397e-06,63.413,-3.6376e-12,4.1759e-06,-8.4397e-06,-63.413,1.0363
30624,15.151,6,0.1,0.00019846,1983.3,0.00019835,1980,-6.5144e-05,0.22688,-6.6061e-05,-6.6606,1.0698
30625,15.06,6,0.05,1.0768e-05,107.61,8.2687e-06,62.128,-3.6347e-12,3.449e-06,-8.2687e-06,-62.128,1.0585
30626,15.335,6,0.1,0.00019345,1933.1,0.00019334,1930,-6.3491e-05,0.2542,-6.4399e-05,-6.5724,1.0922
30627,15.243,6,0.05,1.052e-05,105.13,8.0784e-06,60.698,-3.6374e-12,2.8061e-06,-8.0784e-06,-60.698,1.081
30628,15.519,6,0.1,0.00018836,1882.3,0.00018825,1879.2,-6.1814e-05,0.28551,-6.2712e-05,-6.4599,1.1148
30629,15.427,6,0.05,1.0244e-05,102.37,7.8661e-06,59.103,-3.6334e-12,4.2658e-06,-7.8661e-06,-59.103,1.1035
30630,15.702,6,0.1,0.00018318,1830.5,0.00018307,1827.5,-6.0108e-05,0.32146,-6.0992e-05,-6.3202,1.1376
30631,15.611,6,0.05,9.9349e-06,99.281,7.6288e-06,57.32,6.8748e-16,3.0511e-06,-7.6288e-06,-57.32,1.1262
30632,15.886,6,0.1,0.00017787,1777.5,0.00017778,1774.6,-5.8363e-05,0.36263,-5.923e-05,-6.151,1.1604
30633,15.794,6,0.05,9.5886e-06,95.819,7.3628e-06,55.321,-2.7272e-12,4.2433e-06,-7.3628e-06,-55.321,1.149
30634,16.07,6,0.1,0.00017242,1723,0.00017232,1720.2,-5.6569e-05,0.40959,-5.7415e-05,-5.95,1.1834
30635,15.978,6,0.05,9.1998e-06,91.934,7.0643e-06,53.078,-2.7267e-12,3.2887e-06,-7.0643e-06,-53.078,1.1719
30636,16.253,6,0.1,0.00016676,1666.5,0.00016667,1663.9,-5.471e-05,0.46287,-5.5532e-05,-5.7159,1.2065
30637,16.162,6,0.05,8.7629e-06,87.568,6.7288e-06,50.558,-1.8094e-12,4.1947e-06,-6.7288e-06,-50.557,1.1949
30638,16.437,6,0.1,0.00016087,1607.5,0.00016078,1605.1,-5.2772e-05,0.52271,-5.3566e-05,-5.4484,1.2297
30639,16.345,6,0.05,8.2717e-06,82.66,6.3516e-06,47.724,-1.8069e-12,4.088e-06,-6.3516e-06,-47.724,1.2181
30640,16.621,6,0.1,0.00015466,1545.5,0.00015458,1543.2,-5.0733e-05,0.58895,-5.1497e-05,-5.1491,1.253
30641,16.529,6,0.05,7.72e-06,77.147,5.928e-06,44.541,-1.814e-12,4.367e-06,-5.928e-06,-44.541,1.2413
30642,16.804,6,0.1,0.00014808,1479.7,0.000148,1477.7,-4.8571e-05,0.66066,-4.9301e-05,-4.8225,1.2764
30643,16.712,6,0.05,7.1018e-06,70.969,5.4533e-06,40.974,-1.805e-12,4.6956e-06,-5.4533e-06,-40.974,1.2647
30644,16.988,6,0.1,0.00014103,1409.3,0.00014097,1407.4,-4.6256e-05,0.73568,-4.695e-05,-4.4767,1.2999
30645,16.896,6,0.05,6.4119e-06,64.074,4.9235e-06,36.993,-1.8155e-12,4.3456e-06,-4.9235e-06,-36.993,1.2881
30646,17.172,6,0.1,0.00013342,1333.3,0.00013337,1331.6,-4.3757e-05,0.81005,-4.4414e-05,-4.1244,1.3235
30647,17.08,6,0.05,5.6471e-06,56.432,4.3363e-06,32.581,-9.0298e-13,3.9321e-06,-4.3363e-06,-32.581,1.3117
30648,17.355,6,0.1,0.00012515,1250.6,0.0001251,1249.1,-4.1038e-05,0.87707,-4.1658e-05,-3.7835,1.3472
30649,17.263,6,0.05,4.8081e-06,48.047,3.692e-06,27.74,-8.8125e-13,4.6061e-06,-3.692e-06,-27.74,1.3354
30650,17.539,6,0.1,0.00011609,1160.1,0.00011604,1158.8,-3.8058e-05,0.92646,-3.8645e-05,-3.4776,1.371
30651,17.447,6,0.05,3.9009e-06,38.982,2.9954e-06,22.506,4.9231e-14,5.9174e-06,-2.9954e-06,-22.506,1.3591
30652,17.723,6,0.1,0.00010612,1060.5,0.00010608,1059.4,-3.4781e-05,0.94418,-3.5338e-05,-3.2339,1.3949
30653,17.631,6,0.05,2.9408e-06,29.388,2.2582e-06,16.967,-8.198e-13,4.2989e-06,-2.2582e-06,-16.967,1.3829
30654,17.906,6,0.1,9.5156e-05,950.9,9.5118e-05,949.81,-3.1172e-05,0.91188,-3.1704e-05,-3.0806,1.4188
30655,17.814,6,0.05,1.9568e-06,19.555,1.5026e-06,11.29,9.6944e-13,4.3985e-06,-1.5026e-06,-11.29,1.4068
30656,18.09,6,0.1,8.3108e-05,830.51,8.3069e-05,829.39,-2.7207e-05,0.81444,-2.7719e-05,-3.0368,1.4428
30657,17.998,6,0.05,1.0021e-06,10.014,7.695e-07,5.7817,3.8923e-13,3.9047e-06,-7.695e-07,-5.7817,1.4308
30658,18.274,6,0.1,6.9956e-05,699.08,6.9913e-05,697.83,-2.2879e-05,0.62416,-2.3376e-05,-3.1047,1.4669
30659,18.182,6,0.05,2.9671e-07,2.965,2.2783e-07,1.7119,3.4506e-14,1.0123e-07,-2.2783e-07,-1.7119,1.4548
30660,18.457,6,0.1,5.5739e-05,557,5.569e-05,555.58,-1.8202e-05,0.39135,-1.8681e-05,-3.2107,1.491
30661,18.365,6,0.05,7.256e-07,7.251,5.5717e-07,4.1863,7.203e-13,1.8707e-06,-5.5717e-07,-4.1863,1.4789
30662,18.641,6,0.1,4.0564e-05,405.36,4.0506e-05,403.69,-1.3235e-05,-0.10274,-1.365e-05,-3.2209,1.5151
30663,18.549,6,0.05,1.1335e-06,11.328,8.7042e-07,6.54,8.767e-13,3.8121e-06,-8.7042e-07,-6.54,1.503
30664,18.825,6,0.1,2.4413e-05,243.96,2.4363e-05,242.54,-7.8714e-06,0.33573,-8.3359e-06,-3.1541,1.5393
30665,18.733,6,0.05,1.1223e-06,11.215,8.6178e-07,6.4751,6.902e-13,4.7437e-06,-8.6178e-07,-6.4751,1.5272
30666,19.008,6,0.1,8.3203e-06,83.145,8.3726e-06,85.031,-2.25e-06,5.2172,-3.0889e-06,-1.0859,1.5634
30667,18.916,6,0.05,2.9046e-07,2.9026,2.2304e-07,1.6758,6.1719e-13,7.5953e-06,-2.2304e-07,-1.6758,1.5513
30668,19.1,6,0.05,1.4607e-06,14.597,1.1216e-06,8.4276,-5.4575e-13,2.8556e-06,-1.1216e-06,-8.4276,1.5755
30669,18.825,6,0,2.4413e-05,243.96,8.3359e-06,3.1541,7.8714e-06,-0.33573,-2.4363e-05,-242.54,1.5393
30670,19.008,6,0,8.3203e-06,83.145,3.0889e-06,1.0859,2.25e-06,-5.2171,-8.3726e-06,-85.031,1.5634
30671,18.641,6,0,4.0564e-05,405.36,1.365e-05,3.221,1.3235e-05,0.10274,-4.0506e-05,-403.69,1.5151
30672,18.457,6,0,5.5739e-05,557,1.8681e-05,3.2107,1.8202e-05,-0.39135,-5.569e-05,-555.58,1.491
30673,18.274,6,0,6.9956e-05,699.08,2.3376e-05,3.1047,2.2879e-05,-0.62416,-6.9913e-05,-697.83,1.4669
30674,18.09,6,0,8.3108e-05,830.51,2.7719e-05,3.0369,2.7207e-05,-0.81444,-8.3069e-05,-829.39,1.4428
30675,17.906,6,0,9.5156e-05,950.9,3.1704e-05,3.0806,3.1172e-05,-0.91188,-9.5118e-05,-949.81,1.4188
30676,17.723,6,0,0.00010612,1060.5,3.5338e-05,3.2339,3.4781e-05,-0.94418,-0.00010608,-1059.4,1.3949
30677,17.539,6,0,0.00011609,1160.1,3.8645e-05,3.4776,3.8058e-05,-0.92646,-0.00011604,-1158.8,1.371
30678,17.355,6,0,0.00012515,1250.6,4.1658e-05,3.7835,4.1038e-05,-0.87707,-0.0001251,-1249.1,1.3472
30679,17.172,6,0,0.00013342,1333.3,4.4414e-05,4.1244,4.3757e-05,-0.81005,-0.00013337,-1331.6,1.3235
30680,16.988,6,0,0.00014103,1409.3,4.695e-05,4.4767,4.6256e-05,-0.73568,-0.00014097,-1407.4,1.2999
30681,16.804,6,0,0.00014808,1479.7,4.9301e-05,4.8226,4.8571e-05,-0.66066,-0.000148,-1477.7,1.2764
30682,16.621,6,0,0.00015466,1545.5,5.1497e-05,5.1492,5.0733e-05,-0.58895,-0.00015458,-1543.2,1.253
30683,16.437,6,0,0.00016087,1607.5,5.3566e-05,5.4484,5.2772e-05,-0.5227,-0.00016078,-1605.1,1.2297
30684,16.253,6,0,0.00016676,1666.5,5.5532e-05,5.7159,5.471e-05,-0.46287,-0.00016667,-1663.9,1.2065
30685,16.07,6,0,0.00017242,1723,5.7415e-05,5.95,5.6569e-05,-0.40959,-0.00017232,-1720.2,1.1834
30686,15.886,6,0,0.00017787,1777.5,5.923e-05,6.151,5.8363e-05,-0.36263,-0.00017778,-1774.6,1.1604
30687,15.702,6,0,0.00018318,1830.5,6.0992e-05,6.3202,6.0108e-05,-0.32146,-0.00018307,-1827.5,1.1376
30688,15.519,6,0,0.00018836,1882.3,6.2712e-05,6.4599,6.1814e-05,-0.28551,-0.00018825,-1879.2,1.1148
30689,15.335,6,0,0.00019345,1933.1,6.4399e-05,6.5725,6.3491e-05,-0.2542,-0.00019334,-1930,1.0922
30690,15.151,6,0,0.00019846,1983.3,6.6061e-05,6.6606,6.5144e-05,-0.22688,-0.00019835,-1980,1.0698
30691,14.968,6,0,0.00020343,2032.9,6.7702e-05,6.7268,6.678e-05,-0.20301,-0.00020331,-2029.6,1.0474
30692,14.784,6,0,0.00020835,2082.1,6.933e-05,6.7734,6.8404e-05,-0.1821,-0.00020824,-2078.8,1.0252
30693,14.6,6,0,0.00021324,2131,7.0947e-05,6.8027,7.002e-05,-0.16371,-0.00021313,-2127.6,1.0031
30694,14.417,6,0,0.00021812,2179.7,7.2556e-05,6.8164,7.163e-05,-0.14747,-0.00021801,-2176.4,0.98121
30695,14.233,6,0,0.00022299,2228.3,7.4161e-05,6.8165,7.3236e-05,-0.133,-0.00022287,-2225,0.95943
30696,14.05,6,0,0.00022785,2276.9,7.5764e-05,6.8043,7.4842e-05,-0.12002,-0.00022773,-2273.5,0.93781
30697,13.866,6,0,0.00023271,2325.5,7.7365e-05,6.7811,7.6448e-05,-0.10831,-0.00023259,-2322.1,0.91633
30698,13.682,6,0,0.00023757,2374.1,7.8967e-05,6.7479,7.8055e-05,-0.097648,-0.00023746,-2370.7,0.89501
30699,13.499,6,0,0.00024244,2422.7,8.057e-05,6.7058,7.9666e-05,-0.087836,-0.00024233,-2419.4,0.87385
30700,13.315,6,0,0.00024732,2471.5,8.2175e-05,6.6555,8.1279e-05,-0.078704,-0.00024721,-2468.2,0.85286
30701,13.131,6,0,0.00025221,2520.4,8.3784e-05,6.5977,8.2897e-05,-0.070119,-0.0002521,-2517.1,0.83203
30702,12.948,6,0,0.00025712,2569.4,8.5397e-05,6.5326,8.4519e-05,-0.062003,-0.000257,-2566.1,0.81137
30703,12.764,6,0,0.00026203,2618.5,8.7014e-05,6.461,8.6147e-05,-0.054207,-0.00026192,-2615.3,0.79088
30704,12.58,6,0,0.00026697,2667.9,8.8635e-05,6.383,8.778e-05,-0.046632,-0.00026686,-2664.7,0.77057
30705,12.397,6,0,0.00027192,2717.3,9.0262e-05,6.2988,8.9418e-05,-0.039208,-0.00027181,-2714.2,0.75043
30706,12.213,6,0,0.00027689,2767,9.1894e-05,6.2087,9.1063e-05,-0.031861,-0.00027678,-2763.9,0.73049
30707,12.029,6,0,0.00028188,2816.8,9.3531e-05,6.1127,9.2715e-05,-0.02455,-0.00028177,-2813.8,0.71072
30708,11.846,6,0,0.00028688,2866.9,9.5175e-05,6.0108,9.4373e-05,-0.017154,-0.00028678,-2863.9,0.69115
30709,11.662,6,0,0.00029191,2917.1,9.6824e-05,5.9031,9.6037e-05,-0.0096316,-0.00029181,-2914.1,0.67177
30710,11.478,6,0,0.00029696,2967.5,9.848e-05,5.7894,9.7709e-05,-0.0019173,-0.00029686,-2964.6,0.65258
30711,11.295,6,0,0.00030202,3018.2,0.00010014,5.6696,9.9388e-05,0.0060209,-0.00030193,-3015.3,0.6336
30712,11.111,6,0,0.00030711,3069,0.00010181,5.5436,0.00010107,0.014263,-0.00030702,-3066.2,0.61482
30713,10.927,6,0,0.00031222,3120.1,0.00010348,5.4111,0.00010277,0.022886,-0.00031213,-3117.4,0.59624
30714,10.744,6,0,0.00031736,3171.4,0.00010517,5.272,0.00010447,0.031945,-0.00031727,-3168.7,0.57788
30715,10.56,6,0,0.00032251,3222.9,0.00010685,5.1259,0.00010618,0.041447,-0.00032242,-3220.3,0.55973
30716,10.376,6,0,0.00032769,3274.6,0.00010855,4.9725,0.0001079,0.051513,-0.0003276,-3272.1,0.54179
30717,10.193,6,0,0.00033289,3326.6,0.00011025,4.8116,0.00010962,0.062217,-0.00033281,-3324.2,0.52408
30718,10.009,6,0,0.00033812,3378.8,0.00011196,4.6428,0.00011135,0.073599,-0.00033804,-3376.5,0.50659
30719,9.8255,6,0,0.00034337,3431.3,0.00011368,4.4657,0.0001131,0.085742,-0.00034329,-3429,0.48933
30720,9.6418,6,0,0.00034864,3484,0.0001154,4.2799,0.00011485,0.098716,-0.00034857,-3481.8,0.47229
30721,9.4582,6,0,0.00035395,3537,0.00011714,4.0851,0.00011661,0.11262,-0.00035387,-3534.9,0.4555
30722,9.2745,6,0,0.00035927,3590.3,0.00011888,3.8809,0.00011838,0.12753,-0.00035921,-3588.3,0.43894
30723,9.0909,6,0,0.00036463,3643.8,0.00012063,3.6669,0.00012016,0.14356,-0.00036456,-3641.9,0.42263
30724,8.9072,6,0,0.00037001,3697.6,0.00012238,3.4426,0.00012195,0.1608,-0.00036995,-3695.8,0.40655
30725,8.7236,6,0,0.00037543,3751.7,0.00012415,3.2078,0.00012375,0.17935,-0.00037537,-3750,0.39073
30726,8.5399,6,0,0.00038087,3806,0.00012592,2.9622,0.00012556,0.19935,-0.00038081,-3804.5,0.37517
30727,8.3562,6,0,0.00038634,3860.7,0.00012771,2.7054,0.00012738,0.22091,-0.00038629,-3859.3,0.35985
30728,8.1726,6,0,0.00039184,3915.7,0.0001295,2.4373,0.00012921,0.24416,-0.0003918,-3914.4,0.3448
30729,7.9889,6,0,0.00039738,3971.1,0.0001313,2.1578,0.00013105,0.26927,-0.00039734,-3969.9,0.33002
30730,7.8053,6,0,0.00040295,4026.8,0.00013312,1.8669,0.00013291,0.29637,-0.00040292,-4025.7,0.3155
30731,7.6216,6,0,0.00040856,4082.8,0.00013494,1.5647,0.00013477,0.32564,-0.00040853,-4081.8,0.30125
30732,7.438,6,0,0.0004142,4139.2,0.00013677,1.2515,0.00013665,0.35725,-0.00041418,-4138.4,0.28728
30733,7.2543,6,0,0.00041988,4195.9,0.00013862,0.92801,0.00013855,0.39137,-0.00041986,-4195.3,0.27359
30734,7.0707,6,0,0.00042561,4253.1,0.00014048,0.5952,0.00014046,0.42792,-0.00042559,-4252.6,0.26018
30735,6.887,6,0,0.00043137,4310.7,0.00014238,0.46891,0.00014235,0.25241,-0.00043136,-4310.3,0.24705
30736,6.7034,6,0,0.00043717,4368.7,0.00014431,0.5118,0.00014423,-0.09608,-0.00043717,-4368.5,0.23422
30737,6.5197,6,0,0.00044302,4427.2,0.00014627,0.55841,0.00014613,-0.44991,-0.00044302,-4427.1,0.22169
30738,6.3361,6,0,0.00044892,4486.1,0.00014823,0.60883,0.00014805,-0.80641,-0.00044892,-4486.2,0.20945
30739,6.1524,6,0,0.00045487,4545.5,0.00015022,0.66337,0.00014998,-1.1625,-0.00045488,-4545.8,0.19751
30740,5.9688,6,0,0.00046087,4605.5,0.00015222,0.72232,0.00015192,-1.5142,-0.00046088,-4605.9,0.18589
30741,5.7851,6,0,0.00046692,4665.9,0.00015424,0.78607,0.00015389,-1.857,-0.00046693,-4666.5,0.17457
30742,5.6014,6,0,0.00047302,4727,0.00015628,0.85499,0.00015587,-2.185,-0.00047305,-4727.6,0.16357
30743,5.4178,6,0,0.00047919,4788.6,0.00015833,0.92952,0.00015788,-2.4914,-0.00047921,-4789.3,0.15289
30744,5.2341,6,0,0.00048541,4850.7,0.00016041,1.0101,0.0001599,-2.7678,-0.00048544,-4851.6,0.14253
30745,5.0505,6,0,0.00049169,4913.5,0.0001625,1.0974,0.00016195,-3.0043,-0.00049173,-4914.5,0.1325
30746,4.8668,6,0,0.00049804,4976.9,0.00016461,1.1918,0.00016403,-3.1893,-0.00049807,-4977.9,0.1228
30747,4.6832,6,0,0.00050445,5041,0.00016674,1.2942,0.00016613,-3.3088,-0.00050448,-5042,0.11344
30748,4.4995,6,0,0.00051091,5105.6,0.00016888,1.4054,0.00016825,-3.3466,-0.00051095,-5106.6,0.10441
30749,4.3159,6,0,0.00051744,5170.9,0.00017105,1.5265,0.00017041,-3.2838,-0.00051747,-5171.7,0.095738
30750,4.1322,6,0,0.00052403,5236.7,0.00017322,1.659,0.00017259,-3.0982,-0.00052405,-5237.4,0.087411
30751,3.9486,6,0,0.00053066,5303,0.00017541,1.8051,0.0001748,-2.7646,-0.00053068,-5303.5,0.079438
30752,3.7649,6,0,0.00053734,5369.7,0.0001776,1.9685,0.00017704,-2.2546,-0.00053735,-5369.8,0.071823
30753,3.5812,6,0,0.00054405,5436.7,0.00017979,2.1566,0.0001793,-1.538,-0.00054404,-5436.4,0.064571
30754,3.3976,6,0,0.00055076,5503.8,0.00018198,2.3883,0.00018158,-0.58947,-0.00055073,-5502.9,0.057686
30755,3.2139,6,0,0.00055747,5570.8,0.00018416,2.7288,0.00018388,0.57755,-0.00055741,-5569.2,0.051173
30756,3.0303,6,0,0.00056413,5637.4,0.00018637,3.4699,0.00018613,1.7325,-0.00056404,-5634.8,0.045036
30757,2.8466,6,0,0.00057069,5703,0.00018864,5.1557,0.00018827,2.4042,-0.00057056,-5699.2,0.039279
30758,2.663,6,0,0.0005771,5767.1,0.00019095,7.6827,0.0001903,2.7833,-0.00057693,-5761.8,0.033907
30759,2.4793,6,0,0.00058328,5828.8,0.00019324,10.93,0.0001922,3.0973,-0.00058304,-5821.8,0.028924
30760,2.2957,6,0,0.00058912,5887.1,0.00019549,14.968,0.00019395,3.4069,-0.00058881,-5877.9,0.024333
30761,2.112,6,0,0.00059447,5940.6,0.00019765,19.94,0.0001955,3.733,-0.00059406,-5928.7,0.020139
30762,1.9284,6,0,0.00059912,5987.1,0.00019968,26.047,0.00019676,4.0873,-0.00059861,-5972,0.016343
30763,1.7447,6,0,0.00060281,6023.9,0.00020151,33.56,0.00019764,4.4818,-0.00060216,-6004.9,0.01295
30764,1.5611,6,0,0.00060514,6047.2,0.00020303,42.85,0.00019798,4.9239,-0.00060432,-6023.2,0.0099597
30765,1.3774,6,0,0.00060554,6051.2,0.0002041,54.465,0.00019758,5.4452,-0.0006045,-6021.1,0.0073739
30766,1.1938,6,0,0.00060316,6027.4,0.00020452,69.181,0.00019611,6.0123,-0.00060185,-5989.6,0.0051914
30767,1.0101,6,0,0.00059666,5962.5,0.00020393,88.429,0.00019307,6.825,-0.000595,-5914.4,0.0034093
30768,0.82644,6,0,0.0005838,5834,0.00020181,114.28,0.00018759,7.4385,-0.00058166,-5772.4,0.0020215
30769,0.64279,6,0,0.00056038,5600,0.00019715,152.08,0.00017809,8.8797,-0.00055751,-5518.1,0.0010172
30770,0.45913,6,0,0.00051855,5182,0.00018822,213.74,0.00016156,13.394,-0.0005144,-5065.5,0.00037882
30771,0.27548,6,0,0.00043297,4326.7,0.0001715,335.51,0.0001243,-19.148,-0.0004265,-4157.6,8.3609e-05
30772,0.091827,6,0,0.00025605,2558.7,0.00014883,900.06,5.114e-05,166.07,-0.00022989,-1945.4,2.8688e-05
30773,19.1,5.9091,0,6.3803e-06,63.759,2.7731e-06,9.3812,1.8094e-06,2.1401,-6.1534e-06,-57.689,1.5759
30774,5.1657e-14,5.9091,0,0.00013955,1394.5,7.4345e-05,144.91,4.8952e-06,-376.9,-0.00013597,-1435.3,0
30775,0.27548,-1.3298e-31,0,0.00043297,4326.7,0.0001715,335.51,0.0001243,-19.148,-0.0004265,-4157.6,8.3609e-05
30776,0.091827,-4.4328e-32,0,0.00025605,2558.7,0.00014883,900.06,5.114e-05,166.07,-0.00022989,-1945.4,2.8688e-05
30777,0.45913,-2.2164e-31,0,0.00051855,5182,0.00018822,213.74,0.00016156,13.394,-0.0005144,-5065.5,0.00037882
30778,0.64279,-3.103e-31,0,0.00056038,5600,0.00019715,152.08,0.00017809,8.8797,-0.00055751,-5518.1,0.0010172
30779,0.82644,-3.9895e-31,0,0.0005838,5834,0.00020181,114.28,0.00018759,7.4385,-0.00058166,-5772.4,0.0020215
30780,1.0101,-4.8761e-31,0,0.00059666,5962.5,0.00020393,88.429,0.00019307,6.825,-0.000595,-5914.4,0.0034093
30781,1.1938,-5.7626e-31,0,0.00060316,6027.4,0.00020452,69.181,0.00019611,6.0123,-0.00060185,-5989.6,0.0051914
30782,1.3774,-6.6492e-31,0,0.00060554,6051.2,0.0002041,54.465,0.00019758,5.4452,-0.0006045,-6021.1,0.0073739
30783,1.5611,-7.5357e-31,0,0.00060514,6047.2,0.00020303,42.85,0.00019798,4.9239,-0.00060432,-6023.2,0.0099597
30784,1.7447,-8.4223e-31,0,0.00060281,6023.9,0.00020151,33.56,0.00019764,4.4818,-0.00060216,-6004.9,0.01295
30785,1.9284,-9.3089e-31,0,0.00059912,5987.1,0.00019968,26.047,0.00019676,4.0873,-0.00059861,-5972,0.016343
30786,2.112,-1.0195e-30,0,0.00059447,5940.6,0.00019765,19.94,0.0001955,3.733,-0.00059406,-5928.7,0.020139
30787,2.2957,-1.1082e-30,0,0.00058912,5887.1,0.00019549,14.968,0.00019395,3.4069,-0.00058881,-5877.9,0.024333
30788,2.4793,-1.1969e-30,0,0.00058328,5828.8,0.00019324,10.93,0.0001922,3.0973,-0.00058304,-5821.8,0.028924
30789,2.663,-1.2855e-30,0,0.0005771,5767.1,0.00019095,7.6827,0.0001903,2.7833,-0.00057693,-5761.8,0.033907
30790,2.8466,-1.3742e-30,0,0.00057069,5703,0.00018864,5.1557,0.00018827,2.4042,-0.00057056,-5699.2,0.039279
30791,3.0303,-1.4628e-30,0,0.00056413,5637.4,0.00018637,3.4699,0.00018613,1.7325,-0.00056404,-5634.8,0.045036
30792,3.2139,-1.5515e-30,0,0.00055747,5570.8,0.00018416,2.7288,0.00018388,0.57756,-0.00055741,-5569.2,0.051173
30793,3.3976,-1.6401e-30,0,0.00055076,5503.8,0.00018198,2.3883,0.00018158,-0.58946,-0.00055073,-5502.9,0.057686
30794,3.5812,-1.7288e-30,0,0.00054405,5436.7,0.00017979,2.1566,0.0001793,-1.538,-0.00054404,-5436.4,0.064571
30795,3.7649,-1.8174e-30,0,0.00053734,5369.7,0.0001776,1.9685,0.00017704,-2.2546,-0.00053735,-5369.8,0.071823
30796,3.9486,-1.9061e-30,0,0.00053066,5303,0.00017541,1.8051,0.0001748,-2.7646,-0.00053068,-5303.5,0.079438
30797,4.1322,-1.9948e-30,0,0.00052403,5236.7,0.00017322,1.659,0.00017259,-3.0982,-0.00052405,-5237.4,0.087411
30798,4.3159,-2.0834e-30,0,0.00051744,5170.9,0.00017105,1.5265,0.00017041,-3.2838,-0.00051747,-5171.7,0.095738
30799,4.4995,-2.1721e-30,0,0.00051091,5105.6,0.00016888,1.4054,0.00016825,-3.3466,-0.00051095,-5106.6,0.10441
30800,4.6832,-2.2607e-30,0,0.00050445,5041,0.00016674,1.2942,0.00016613,-3.3088,-0.00050448,-5042,0.11344
30801,4.8668,-2.3494e-30,0,0.00049804,4976.9,0.00016461,1.1918,0.00016403,-3.1893,-0.00049807,-4977.9,0.1228
30802,5.0505,-2.438e-30,0,0.00049169,4913.5,0.0001625,1.0974,0.00016195,-3.0043,-0.00049173,-4914.5,0.1325
30803,5.2341,-2.5267e-30,0,0.00048541,4850.7,0.00016041,1.0101,0.0001599,-2.7678,-0.00048544,-4851.6,0.14253
30804,5.4178,-2.6153e-30,0,0.00047919,4788.6,0.00015833,0.92952,0.00015788,-2.4914,-0.00047921,-4789.3,0.15289
30805,5.6014,-2.704e-30,0,0.00047302,4727,0.00015628,0.85499,0.00015587,-2.185,-0.00047305,-4727.6,0.16357
30806,5.7851,-2.7927e-30,0,0.00046692,4665.9,0.00015424,0.78607,0.00015389,-1.857,-0.00046693,-4666.5,0.17457
30807,5.9688,-2.8813e-30,0,0.00046087,4605.5,0.00015222,0.72232,0.00015192,-1.5142,-0.00046088,-4605.9,0.18589
30808,6.1524,-2.97e-30,0,0.00045487,4545.5,0.00015022,0.66337,0.00014998,-1.1625,-0.00045488,-4545.8,0.19751
30809,6.3361,-3.0586e-30,0,0.00044892,4486.1,0.00014823,0.60883,0.00014805,-0.80642,-0.00044892,-4486.2,0.20945
30810,6.5197,-3.1473e-30,0,0.00044302,4427.2,0.00014627,0.55841,0.00014613,-0.44991,-0.00044302,-4427.1,0.22169
30811,6.7034,-3.2359e-30,0,0.00043717,4368.7,0.00014431,0.5118,0.00014423,-0.096085,-0.00043717,-4368.5,0.23422
30812,6.887,-3.3246e-30,0,0.00043137,4310.7,0.00014238,0.46891,0.00014235,0.2524,-0.00043136,-4310.3,0.24705
30813,7.0707,-3.4132e-30,0,0.00042561,4253.1,0.00014048,0.59519,0.00014046,0.42792,-0.00042559,-4252.6,0.26018
30814,7.2543,-3.5019e-30,0,0.00041988,4195.9,0.00013862,0.928,0.00013855,0.39137,-0.00041986,-4195.3,0.27359
30815,7.438,-3.5906e-30,0,0.0004142,4139.2,0.00013677,1.2515,0.00013665,0.35725,-0.00041418,-4138.4,0.28728
30816,7.6216,-3.6792e-30,0,0.00040856,4082.8,0.00013494,1.5647,0.00013477,0.32564,-0.00040853,-4081.8,0.30125
30817,7.8053,-3.7679e-30,0,0.00040295,4026.8,0.00013312,1.8669,0.00013291,0.29637,-0.00040292,-4025.7,0.3155
30818,7.9889,-3.8565e-30,0,0.00039738,3971.1,0.0001313,2.1578,0.00013105,0.26927,-0.00039734,-3969.9,0.33002
30819,8.1726,-3.9452e-30,0,0.00039184,3915.7,0.0001295,2.4373,0.00012921,0.24417,-0.0003918,-3914.4,0.3448
30820,8.3562,-4.0338e-30,0,0.00038634,3860.7,0.00012771,2.7054,0.00012738,0.22091,-0.00038629,-3859.3,0.35985
30821,8.5399,-4.1225e-30,0,0.00038087,3806,0.00012592,2.9621,0.00012556,0.19935,-0.00038081,-3804.5,0.37517
30822,8.7236,-4.2111e-30,0,0.00037543,3751.7,0.00012415,3.2078,0.00012375,0.17935,-0.00037537,-3750,0.39073
30823,8.9072,-4.2998e-30,0,0.00037001,3697.6,0.00012238,3.4426,0.00012195,0.1608,-0.00036995,-3695.8,0.40655
30824,9.0909,-4.3885e-30,0,0.00036463,3643.8,0.00012063,3.6668,0.00012016,0.14356,-0.00036456,-3641.9,0.42263
30825,9.2745,-4.4771e-30,0,0.00035927,3590.3,0.00011888,3.8809,0.00011838,0.12753,-0.00035921,-3588.3,0.43894
30826,9.4582,-4.5658e-30,0,0.00035395,3537,0.00011714,4.0851,0.00011661,0.11262,-0.00035387,-3534.9,0.4555
30827,9.6418,-4.6544e-30,0,0.00034864,3484,0.0001154,4.2799,0.00011485,0.098717,-0.00034857,-3481.8,0.47229
30828,9.8255,-4.7431e-30,0,0.00034337,3431.3,0.00011368,4.4657,0.0001131,0.085743,-0.00034329,-3429,0.48933
30829,10.009,-4.8317e-30,0,0.00033812,3378.8,0.00011196,4.6428,0.00011135,0.0736,-0.00033804,-3376.5,0.50659
30830,10.193,-4.9204e-30,0,0.00033289,3326.6,0.00011025,4.8116,0.00010962,0.062217,-0.00033281,-3324.2,0.52408
30831,10.376,-5.0091e-30,0,0.00032769,3274.6,0.00010855,4.9725,0.0001079,0.051514,-0.0003276,-3272.1,0.54179
30832,10.56,-5.0977e-30,0,0.00032251,3222.9,0.00010685,5.1258,0.00010618,0.041448,-0.00032242,-3220.3,0.55973
30833,10.744,-5.1864e-30,0,0.00031736,3171.4,0.00010517,5.272,0.00010447,0.031945,-0.00031727,-3168.7,0.57788
30834,10.927,-5.275e-30,0,0.00031222,3120.1,0.00010348,5.4111,0.00010277,0.022887,-0.00031213,-3117.4,0.59624
30835,11.111,-5.3637e-30,0,0.00030711,3069,0.00010181,5.5435,0.00010107,0.014263,-0.00030702,-3066.2,0.61482
30836,11.295,-5.4523e-30,0,0.00030202,3018.2,0.00010014,5.6696,9.9388e-05,0.0060212,-0.00030193,-3015.3,0.6336
30837,11.478,-5.541e-30,0,0.00029696,2967.5,9.848e-05,5.7894,9.7709e-05,-0.001916,-0.00029686,-2964.6,0.65258
30838,11.662,-5.6296e-30,0,0.00029191,2917.1,9.6824e-05,5.9031,9.6037e-05,-0.0096098,-0.00029181,-2914.1,0.67177
30839,11.846,-5.7183e-30,0,0.00028688,2866.9,9.5175e-05,6.0108,9.4373e-05,-0.017152,-0.00028678,-2863.9,0.69115
30840,12.029,-5.807e-30,0,0.00028188,2816.8,9.3531e-05,6.1127,9.2715e-05,-0.02455,-0.00028177,-2813.8,0.71072
30841,12.213,-5.8956e-30,0,0.00027689,2767,9.1894e-05,6.2087,9.1063e-05,-0.031861,-0.00027678,-2763.9,0.73049
30842,12.397,-5.9843e-30,0,0.00027192,2717.3,9.0262e-05,6.2988,8.9418e-05,-0.039207,-0.00027181,-2714.2,0.75043
30843,12.58,-6.0729e-30,0,0.00026697,2667.9,8.8635e-05,6.383,8.778e-05,-0.046632,-0.00026686,-2664.7,0.77057
30844,12.764,-6.1616e-30,0,0.00026203,2618.5,8.7014e-05,6.461,8.6147e-05,-0.054207,-0.00026192,-2615.3,0.79088
30845,12.948,-6.2502e-30,0,0.00025712,2569.4,8.5397e-05,6.5326,8.4519e-05,-0.062003,-0.000257,-2566.1,0.81137
30846,13.131,-6.3389e-30,0,0.00025221,2520.4,8.3784e-05,6.5976,8.2897e-05,-0.070119,-0.0002521,-2517.1,0.83203
30847,13.315,-6.4275e-30,0,0.00024732,2471.5,8.2175e-05,6.6555,8.1279e-05,-0.078703,-0.00024721,-2468.2,0.85286
30848,13.499,-6.5162e-30,0,0.00024244,2422.7,8.057e-05,6.7058,7.9666e-05,-0.087836,-0.00024233,-2419.4,0.87385
30849,13.682,-6.6049e-30,0,0.00023757,2374.1,7.8967e-05,6.7479,7.8055e-05,-0.097648,-0.00023746,-2370.7,0.89501
30850,13.866,-6.6935e-30,0,0.00023271,2325.5,7.7365e-05,6.781,7.6448e-05,-0.10831,-0.00023259,-2322.1,0.91633
30851,14.05,-6.7822e-30,0,0.00022785,2276.9,7.5764e-05,6.8043,7.4842e-05,-0.12002,-0.00022773,-2273.5,0.93781
30852,14.233,-6.8708e-30,0,0.00022299,2228.3,7.4161e-05,6.8165,7.3236e-05,-0.133,-0.00022287,-2225,0.95943
30853,14.417,-6.9595e-30,0,0.00021812,2179.7,7.2556e-05,6.8164,7.163e-05,-0.14747,-0.00021801,-2176.4,0.98121
30854,14.6,-7.0481e-30,0,0.00021324,2131,7.0947e-05,6.8026,7.002e-05,-0.16371,-0.00021313,-2127.6,1.0031
30855,14.784,-7.1368e-30,0,0.00020835,2082.1,6.933e-05,6.7734,6.8404e-05,-0.1821,-0.00020824,-2078.8,1.0252
30856,14.968,-7.2254e-30,0,0.00020343,2032.9,6.7702e-05,6.7268,6.678e-05,-0.20302,-0.00020331,-2029.6,1.0474
30857,15.151,-7.3141e-30,0,0.00019846,1983.3,6.6061e-05,6.6606,6.5144e-05,-0.22688,-0.00019835,-1980,1.0698
30858,15.335,-7.4028e-30,0,0.00019345,1933.1,6.4399e-05,6.5724,6.3491e-05,-0.2542,-0.00019334,-1930,1.0922
30859,15.519,-7.4914e-30,0,0.00018836,1882.3,6.2712e-05,6.4599,6.1814e-05,-0.28551,-0.00018825,-1879.2,1.1148
30860,15.702,-7.5801e-30,0,0.00018318,1830.5,6.0992e-05,6.3202,6.0108e-05,-0.32146,-0.00018307,-1827.5,1.1376
30861,15.886,-7.6687e-30,0,0.00017787,1777.5,5.923e-05,6.151,5.8363e-05,-0.36263,-0.00017778,-1774.6,1.1604
30862,16.07,-7.7574e-30,0,0.00017242,1723,5.7415e-05,5.95,5.6569e-05,-0.40959,-0.00017232,-1720.2,1.1834
30863,16.253,-7.846e-30,0,0.00016676,1666.5,5.5532e-05,5.7159,5.471e-05,-0.46287,-0.00016667,-1663.9,1.2065
30864,16.437,-7.9347e-30,0,0.00016087,1607.5,5.3566e-05,5.4484,5.2772e-05,-0.5227,-0.00016078,-1605.1,1.2297
30865,16.621,-8.0233e-30,0,0.00015466,1545.5,5.1497e-05,5.1491,5.0733e-05,-0.58895,-0.00015458,-1543.2,1.253
30866,16.804,-8.112e-30,0,0.00014808,1479.7,4.9301e-05,4.8225,4.8571e-05,-0.66066,-0.000148,-1477.7,1.2764
30867,16.988,-8.2007e-30,0,0.00014103,1409.3,4.695e-05,4.4767,4.6256e-05,-0.73568,-0.00014097,-1407.4,1.2999
30868,17.172,-8.2893e-30,0,0.00013342,1333.3,4.4414e-05,4.1244,4.3757e-05,-0.81005,-0.00013337,-1331.6,1.3235
30869,17.355,-8.378e-30,0,0.00012515,1250.6,4.1658e-05,3.7835,4.1038e-05,-0.87707,-0.0001251,-1249.1,1.3472
30870,17.539,-8.4666e-30,0,0.00011609,1160.1,3.8645e-05,3.4776,3.8058e-05,-0.92646,-0.00011604,-1158.8,1.371
30871,17.723,-8.5553e-30,0,0.00010612,1060.5,3.5338e-05,3.2339,3.4781e-05,-0.94417,-0.00010608,-1059.4,1.3949
30872,17.906,-8.6439e-30,0,9.5156e-05,950.9,3.1704e-05,3.0806,3.1172e-05,-0.91188,-9.5118e-05,-949.81,1.4188
30873,18.09,-8.7326e-30,0,8.3108e-05,830.51,2.772e-05,3.0369,2.7207e-05,-0.81444,-8.3069e-05,-829.39,1.4428
30874,18.274,-8.8212e-30,0,6.9956e-05,699.08,2.3376e-05,3.1047,2.2879e-05,-0.62416,-6.9913e-05,-697.83,1.4669
30875,18.457,-8.9099e-30,0,5.5739e-05,557,1.8681e-05,3.2107,1.8202e-05,-0.39135,-5.569e-05,-555.58,1.491
30876,18.641,-8.9986e-30,0,4.0564e-05,405.36,1.365e-05,3.221,1.3235e-05,0.10274,-4.0506e-05,-403.69,1.5151
30877,18.825,-9.0872e-30,0,2.4413e-05,243.96,8.3359e-06,3.1541,7.8714e-06,-0.33573,-2.4363e-05,-242.54,1.5393
30878,19.008,-9.1759e-30,0,8.3203e-06,83.145,3.0889e-06,1.0859,2.25e-06,-5.2171,-8.3726e-06,-85.031,1.5634
30879,19.1,0.090909,0,6.3803e-06,63.759,2.7731e-06,9.3812,1.8094e-06,2.1401,-6.1534e-06,-57.689,1.5759
30880,7.9472e-16,0.090909,0,0.00013955,1394.5,7.4345e-05,144.91,4.8952e-06,-376.9,-0.00013597,-1435.3,0
30881,19.54,0,0,1.5486e-05,154.76,5.5236e-06,5.164,4.8808e-06,0.33456,-1.5387e-05,-151.95,1.6413
30882,19.358,0,0,5.4838e-06,54.801,2.121e-06,1.6287,1.4163e-06,-3.6664,-5.4993e-06,-55.627,1.6155
30883,19.722,0,0,2.4348e-05,243.31,8.5702e-06,6.8085,7.7492e-06,0.63951,-2.4216e-05,-239.53,1.6671
30884,19.904,0,0,3.1665e-05,316.43,1.1072e-05,7.668,1.0094e-05,0.31542,-3.1522e-05,-312.37,1.6929
30885,20.086,0,0,3.7564e-05,375.38,1.3046e-05,7.9005,1.2017e-05,0.16689,-3.7421e-05,-371.29,1.7187
30886,20.268,0,0,4.2077e-05,420.48,1.4529e-05,7.7536,1.3503e-05,0.041959,-4.1939e-05,-416.53,1.7445
30887,20.45,0,0,4.5281e-05,452.49,1.5563e-05,7.4276,1.4571e-05,-0.030944,-4.515e-05,-448.75,1.7704
30888,20.632,0,0,4.729e-05,472.58,1.6196e-05,7.0397,1.525e-05,-0.071692,-4.7168e-05,-469.05,1.7963
30889,20.814,0,0,4.8245e-05,482.12,1.6481e-05,6.6645,1.5582e-05,-0.089281,-4.813e-05,-478.8,1.8222
30890,20.996,0,0,4.8292e-05,482.59,1.647e-05,6.3434,1.5613e-05,-0.093497,-4.8183e-05,-479.43,1.8482
30891,21.178,0,0,4.7574e-05,475.41,1.6213e-05,6.0975,1.5389e-05,-0.091107,-4.7469e-05,-472.38,1.8741
30892,21.36,0,0,4.6222e-05,461.9,1.5752e-05,5.9343,1.4951e-05,-0.086886,-4.6119e-05,-458.94,1.9002
30893,21.542,0,0,4.435e-05,443.19,1.5128e-05,5.8537,1.4338e-05,-0.083885,-4.4249e-05,-440.28,1.9262
30894,21.724,0,0,4.2058e-05,420.29,1.4371e-05,5.8513,1.3581e-05,-0.083954,-4.1957e-05,-417.38,1.9523
30895,21.906,0,0,3.9431e-05,394.04,1.351e-05,5.92,1.2711e-05,-0.088159,-3.9328e-05,-391.09,1.9784
30896,22.088,0,0,3.6538e-05,365.12,1.2567e-05,6.052,1.1748e-05,-0.097092,-3.6432e-05,-362.11,2.0045
30897,22.271,0,0,3.3436e-05,334.13,1.1559e-05,6.2386,1.0714e-05,-0.11111,-3.3327e-05,-331.02,2.0307
30898,22.453,0,0,3.0173e-05,301.52,1.0502e-05,6.4709,9.6237e-06,-0.13051,-3.0059e-05,-298.29,2.0568
30899,22.635,0,0,2.6787e-05,267.69,9.4084e-06,6.7393,8.4908e-06,-0.15571,-2.6669e-05,-264.33,2.083
30900,22.817,0,0,2.3312e-05,232.96,8.2872e-06,7.0335,7.3262e-06,-0.18726,-2.3187e-05,-229.45,2.1092
30901,22.999,0,0,1.9775e-05,197.61,7.1467e-06,7.3409,6.1395e-06,-0.2267,-1.9643e-05,-193.94,2.1355
30902,23.181,0,0,1.62e-05,161.89,5.9938e-06,7.6473,4.9395e-06,-0.2741,-1.606e-05,-158.06,2.1617
30903,23.363,0,0,1.2613e-05,126.04,4.8342e-06,7.9191,3.7348e-06,-0.34094,-1.2464e-05,-122.05,2.188
30904,23.545,0,0,9.05e-06,90.437,3.6789e-06,8.1638,2.5378e-06,-0.40987,-8.8875e-06,-86.255,2.2142
30905,23.727,0,0,5.5477e-06,55.439,2.5061e-06,7.9063,1.3704e-06,-0.62642,-5.3744e-06,-51.304,2.2405
30906,23.909,0,0,2.3138e-06,23.123,1.29e-06,6.3515,3.8919e-07,-0.41673,-2.1373e-06,-19.4,2.2667
30907,19.267,0.090909,0,4.7696e-06,47.663,1.9377e-06,4.0987,1.32e-06,-0.54261,-4.6921e-06,-45.715,1.6028
30908,24,0.090909,0,1.9186e-06,19.173,1.7038e-06,15.817,-6.9613e-08,2.4922,-1.2207e-06,-6.157,2.2799
30909,5.0067e-14,5.7273,0,0.00018313,1830,8.6666e-06,-1663.9,-4.5334e-06,-1763.1,-0.00024122,-3541.5,0
30910,4.8478e-14,5.5455,0,0.0002623,2621.2,3.5955e-06,-2513.7,-3.3238e-06,-2565.7,-0.00034867,-5160.5,0
30911,4.6888e-14,5.3636,0,0.00030478,3045.7,1.8714e-06,-2946.9,-2.3305e-06,-2978.5,-0.00040557,-6008.3,0
30912,4.5299e-14,5.1818,0,0.0003322,3319.7,1.1789e-06,-3216.6,-1.4938e-06,-3236.7,-0.00044197,-6546.3,0
30913,4.371e-14,5,0,0.00035101,3507.7,8.1363e-07,-3400.7,-1.0301e-06,-3414.6,-0.00046695,-6915.3,0
30914,4.212e-14,4.8182,0,0.00036464,3643.8,5.9124e-07,-3533.9,-7.4615e-07,-3544,-0.00048504,-7182.8,0
30915,4.0531e-14,4.6364,0,0.00037483,3745.7,4.4299e-07,-3633.4,-5.5644e-07,-3640.9,-0.00049858,-7382.9,0
30916,3.8941e-14,4.4545,0,0.00038261,3823.4,3.3776e-07,-3709.4,-4.2376e-07,-3715.1,-0.00050891,-7535.6,0
30917,3.7352e-14,4.2727,0,0.00038861,3883.4,2.5951e-07,-3768,-3.2672e-07,-3772.4,-0.00051689,-7653.6,0
30918,3.5762e-14,4.0909,0,0.00039327,3929.9,1.9902e-07,-3813.5,-2.5309e-07,-3816.9,-0.00052307,-7745.1,0
30919,3.4173e-14,3.9091,0,0.00039686,3965.8,1.5061e-07,-3848.5,-1.9536e-07,-3851.1,-0.00052784,-7815.7,0
30920,3.2583e-14,3.7273,0,0.00039958,3993.1,1.1054e-07,-3875.2,-1.4868e-07,-3877.2,-0.00053146,-7869.2,0
30921,3.0994e-14,3.5455,0,0.00040158,4013,7.6245e-08,-3894.8,-1.0979e-07,-3896.2,-0.00053412,-7908.5,0
30922,2.9405e-14,3.3636,0,0.00040295,4026.7,4.6017e-08,-3908.2,-7.6538e-08,-3909.2,-0.00053593,-7935.4,0
30923,2.7815e-14,3.1818,0,0.00040374,4034.6,1.9373e-08,-3916.1,-4.8178e-08,-3916.7,-0.00053699,-7951,0
30924,2.6226e-14,3,0,0.000404,4037.3,3.7496e-09,-3918.8,-3.1998e-08,-3919.1,-0.00053734,-7956.2,0
30925,2.4636e-14,2.8182,0,0.00040374,4034.6,1.9373e-08,-3916.1,-4.8179e-08,-3916.7,-0.00053699,-7951,0
30926,2.3047e-14,2.6364,0,0.00040295,4026.7,4.6017e-08,-3908.2,-7.6539e-08,-3909.2,-0.00053593,-7935.4,0
30927,2.1457e-14,2.4545,0,0.00040158,4013,7.6245e-08,-3894.8,-1.0979e-07,-3896.2,-0.00053412,-7908.5,0
30928,1.9868e-14,2.2727,0,0.00039958,3993.1,1.1054e-07,-3875.2,-1.4868e-07,-3877.2,-0.00053146,-7869.2,0
30929,1.8279e-14,2.0909,0,0.00039686,3965.8,1.5061e-07,-3848.5,-1.9536e-07,-3851.1,-0.00052784,-7815.7,0
30930,1.6689e-14,1.9091,0,0.00039327,3929.9,1.9902e-07,-3813.5,-2.5309e-07,-3816.9,-0.00052307,-7745.1,0
30931,1.51e-14,1.7273,0,0.00038861,3883.4,2.5951e-07,-3768,-3.2672e-07,-3772.4,-0.00051689,-7653.6,0
30932,1.351e-14,1.5455,0,0.00038261,3823.4,3.3776e-07,-3709.4,-4.2376e-07,-3715.1,-0.00050891,-7535.6,0
30933,1.1921e-14,1.3636,0,0.00037483,3745.7,4.4299e-07,-3633.4,-5.5644e-07,-3640.9,-0.00049858,-7382.9,0
30934,1.0331e-14,1.1818,0,0.00036464,3643.8,5.9124e-07,-3533.9,-7.4615e-07,-3544,-0.00048504,-7182.8,0
30935,8.7419e-15,1,0,0.00035101,3507.7,8.1363e-07,-3400.7,-1.0301e-06,-3414.6,-0.00046695,-6915.3,0
30936,7.1525e-15,0.81818,0,0.0003322,3319.7,1.1789e-06,-3216.6,-1.4938e-06,-3236.7,-0.00044197,-6546.3,0
30937,5.563e-15,0.63636,0,0.00030478,3045.7,1.8714e-06,-2946.9,-2.3305e-06,-2978.5,-0.00040557,-6008.3,0
30938,3.9736e-15,0.45455,0,0.0002623,2621.2,3.5955e-06,-2513.7,-3.3238e-06,-2565.7,-0.00034867,-5160.5,0
30939,2.3842e-15,0.27273,0,0.00018313,1830,8.6666e-06,-1663.9,-4.5334e-06,-1763.1,-0.00024122,-3541.5,0
30940,24,0.27273,0,4.0499e-06,40.471,3.8977e-06,37.493,-7.823e-07,2.3296,-1.9899e-06,-6.7442,2.28
30941,24,0.45455,0,5.6098e-06,56.059,5.4763e-06,53.253,-1.2925e-06,2.3945,-2.5237e-06,-6.8562,2.2801
30942,24,0.63636,0,6.6966e-06,66.92,6.5725e-06,64.226,-1.646e-06,2.4757,-2.8911e-06,-6.8797,2.2801
30943,24,0.81818,0,7.4816e-06,74.765,7.3631e-06,72.137,-1.9058e-06,2.4939,-3.1518e-06,-6.8677,2.2802
30944,24,1,0,8.0402e-06,80.346,7.9256e-06,77.773,-2.0915e-06,2.5088,-3.3353e-06,-6.8372,2.2803
30945,24,1.1818,0,8.4225e-06,84.167,8.3108e-06,81.637,-2.2194e-06,2.5166,-3.4597e-06,-6.8022,2.2803
30946,24,1.3636,0,8.6662e-06,86.602,8.5565e-06,84.106,-2.3016e-06,2.5217,-3.5378e-06,-6.7662,2.2804
30947,24,1.5455,0,8.8022e-06,87.961,8.694e-06,85.492,-2.3482e-06,2.5246,-3.5802e-06,-6.7316,2.2804
30948,24,1.7273,0,8.8573e-06,88.512,8.7502e-06,86.064,-2.3681e-06,2.5261,-3.5959e-06,-6.6996,2.2805
30949,24,1.9091,0,8.8552e-06,88.491,8.7487e-06,86.059,-2.3688e-06,2.5267,-3.5929e-06,-6.6709,2.2805
30950,24,2.0909,0,8.8165e-06,88.104,8.7105e-06,85.685,-2.3572e-06,2.5269,-3.5781e-06,-6.646,2.2805
30951,24,2.2727,0,8.7592e-06,87.532,8.6535e-06,85.123,-2.3394e-06,2.5267,-3.5574e-06,-6.6253,2.2806
30952,24,2.4545,0,8.6985e-06,86.925,8.593e-06,84.523,-2.3201e-06,2.5264,-3.536e-06,-6.6089,2.2806
30953,24,2.6364,0,8.6464e-06,86.404,8.5409e-06,84.007,-2.3035e-06,2.5261,-3.5177e-06,-6.5971,2.2806
30954,24,2.8182,0,8.6115e-06,86.056,8.5061e-06,83.661,-2.2923e-06,2.5259,-3.5056e-06,-6.59,2.2806
30955,24,3,0,8.5993e-06,85.934,8.4939e-06,83.54,-2.2884e-06,2.5259,-3.5014e-06,-6.5876,2.2806
30956,24,3.1818,0,8.6115e-06,86.056,8.5061e-06,83.661,-2.2923e-06,2.5259,-3.5056e-06,-6.59,2.2806
30957,24,3.3636,0,8.6464e-06,86.404,8.5409e-06,84.007,-2.3035e-06,2.5261,-3.5177e-06,-6.5971,2.2806
30958,24,3.5455,0,8.6985e-06,86.925,8.593e-06,84.523,-2.3201e-06,2.5264,-3.536e-06,-6.6089,2.2806
30959,24,3.7273,0,8.7592e-06,87.532,8.6535e-06,85.123,-2.3394e-06,2.5267,-3.5574e-06,-6.6253,2.2806
30960,24,3.9091,0,8.8165e-06,88.104,8.7105e-06,85.685,-2.3572e-06,2.5269,-3.5781e-06,-6.646,2.2805
30961,24,4.0909,0,8.8552e-06,88.491,8.7487e-06,86.059,-2.3688e-06,2.5267,-3.5929e-06,-6.6709,2.2805
30962,24,4.2727,0,8.8573e-06,88.512,8.7502e-06,86.064,-2.3681e-06,2.5261,-3.5959e-06,-6.6996,2.2805
30963,24,4.4545,0,8.8022e-06,87.961,8.694e-06,85.492,-2.3482e-06,2.5246,-3.5802e-06,-6.7316,2.2804
30964,24,4.6364,0,8.6662e-06,86.602,8.5565e-06,84.106,-2.3016e-06,2.5217,-3.5378e-06,-6.7662,2.2804
30965,24,4.8182,0,8.4225e-06,84.167,8.3108e-06,81.637,-2.2194e-06,2.5166,-3.4597e-06,-6.8022,2.2803
30966,24,5,0,8.0402e-06,80.346,7.9256e-06,77.773,-2.0915e-06,2.5088,-3.3353e-06,-6.8372,2.2803
30967,24,5.1818,0,7.4816e-06,74.765,7.3631e-06,72.137,-1.9058e-06,2.4939,-3.1518e-06,-6.8677,2.2802
30968,24,5.3636,0,6.6966e-06,66.92,6.5725e-06,64.226,-1.646e-06,2.4757,-2.8911e-06,-6.8797,2.2801
30969,24,5.5455,0,5.6098e-06,56.059,5.4763e-06,53.253,-1.2925e-06,2.3945,-2.5237e-06,-6.8562,2.2801
30970,24,5.7273,0,4.0499e-06,40.471,3.8977e-06,37.493,-7.823e-07,2.3296,-1.9899e-06,-6.7442,2.28
30971,24,5.9091,0,1.9186e-06,19.173,1.7038e-06,15.817,-6.9614e-08,2.4922,-1.2207e-06,-6.157,2.2799
30972,23.909,6,0,2.3139e-06,23.123,1.29e-06,6.3515,3.8919e-07,-0.41673,-2.1373e-06,-19.4,2.2667
30973,23.727,6,0,5.5477e-06,55.439,2.5061e-06,7.9063,1.3704e-06,-0.62642,-5.3744e-06,-51.304,2.2405
30974,23.545,6,0,9.05e-06,90.437,3.6789e-06,8.1638,2.5378e-06,-0.40987,-8.8875e-06,-86.255,2.2142
30975,23.363,6,0,1.2613e-05,126.04,4.8342e-06,7.9191,3.7348e-06,-0.34094,-1.2464e-05,-122.05,2.188
30976,23.181,6,0,1.62e-05,161.89,5.9938e-06,7.6473,4.9395e-06,-0.2741,-1.606e-05,-158.06,2.1617
30977,22.999,6,0,1.9775e-05,197.61,7.1467e-06,7.3409,6.1395e-06,-0.2267,-1.9643e-05,-193.94,2.1355
30978,22.817,6,0,2.3312e-05,232.96,8.2872e-06,7.0335,7.3262e-06,-0.18727,-2.3187e-05,-229.45,2.1092
30979,22.635,6,0,2.6787e-05,267.69,9.4084e-06,6.7393,8.4908e-06,-0.15571,-2.6669e-05,-264.33,2.083
30980,22.453,6,0,3.0173e-05,301.52,1.0502e-05,6.4709,9.6237e-06,-0.13051,-3.0059e-05,-298.29,2.0568
30981,22.271,6,0,3.3436e-05,334.13,1.1559e-05,6.2386,1.0714e-05,-0.11111,-3.3327e-05,-331.02,2.0307
30982,22.088,6,0,3.6538e-05,365.12,1.2567e-05,6.052,1.1748e-05,-0.097092,-3.6432e-05,-362.11,2.0045
30983,21.906,6,0,3.9431e-05,394.04,1.351e-05,5.92,1.2711e-05,-0.088157,-3.9328e-05,-391.09,1.9784
30984,21.724,6,0,4.2058e-05,420.29,1.4371e-05,5.8513,1.3581e-05,-0.083953,-4.1957e-05,-417.38,1.9523
30985,21.542,6,0,4.435e-05,443.19,1.5128e-05,5.8537,1.4338e-05,-0.083884,-4.4249e-05,-440.28,1.9262
30986,21.36,6,0,4.6222e-05,461.9,1.5752e-05,5.9343,1.4951e-05,-0.086887,-4.6119e-05,-458.94,1.9002
30987,21.178,6,0,4.7574e-05,475.41,1.6213e-05,6.0975,1.5389e-05,-0.091108,-4.7469e-05,-472.38,1.8741
30988,20.996,6,0,4.8292e-05,482.59,1.647e-05,6.3435,1.5613e-05,-0.093496,-4.8183e-05,-479.43,1.8482
30989,20.814,6,0,4.8245e-05,482.12,1.6481e-05,6.6645,1.5582e-05,-0.08928,-4.813e-05,-478.8,1.8222
30990,20.632,6,0,4.729e-05,472.58,1.6196e-05,7.0397,1.525e-05,-0.071692,-4.7168e-05,-469.05,1.7963
30991,20.45,6,0,4.5281e-05,452.49,1.5563e-05,7.4276,1.4571e-05,-0.030943,-4.515e-05,-448.75,1.7704
30992,20.268,6,0,4.2077e-05,420.48,1.4529e-05,7.7536,1.3503e-05,0.04196,-4.1939e-05,-416.53,1.7445
30993,20.086,6,0,3.7564e-05,375.38,1.3046e-05,7.9005,1.2017e-05,0.16689,-3.7421e-05,-371.29,1.7187
30994,19.904,6,0,3.1664e-05,316.43,1.1072e-05,7.668,1.0094e-05,0.31542,-3.1522e-05,-312.37,1.6929
30995,19.722,6,0,2.4348e-05,243.31,8.5702e-06,6.8085,7.7492e-06,0.63951,-2.4216e-05,-239.53,1.6671
30996,19.54,6,0,1.5486e-05,154.76,5.5236e-06,5.164,4.8808e-06,0.33456,-1.5387e-05,-151.95,1.6413
30997,19.358,6,0,5.4838e-06,54.801,2.121e-06,1.6287,1.4163e-06,-3.6664,-5.4993e-06,-55.627,1.6155
30998,19.267,5.9091,0,4.7696e-06,47.663,1.9377e-06,4.0987,1.32e-06,-0.5426,-4.6921e-06,-45.715,1.6028
30999,19.1,1.7273,0,0.00020201,2018.7,0.00016682,1351.6,-1.111e-05,14.711,-0.00014224,-970.56,1.582
31000,19.1,1.9091,0,0.00037655,3762.9,0.00025249,1512.5,1.7382e-05,-254.06,-0.00032262,-2808.7,1.5827
31001,19.1,1.5455,0,0.00013307,1329.8,0.00010564,830.34,-2.0115e-06,21.466,-9.8616e-05,-704.38,1.5813
31002,19.1,1.3636,0,0.00010406,1039.9,8.1449e-05,628.13,-8.9144e-07,9.4609,-7.8342e-05,-572.47,1.5806
31003,19.1,1.1818,0,8.1934e-05,818.77,6.2473e-05,470.48,1.0208e-06,8.7536,-6.3345e-05,-474.87,1.5799
31004,19.1,1,0,6.5028e-05,649.83,4.8075e-05,351.27,2.2422e-06,6.8921,-5.1683e-05,-398.28,1.5792
31005,19.1,0.81818,0,5.1073e-05,510.38,3.629e-05,255.15,3.1544e-06,6.1815,-4.1847e-05,-331.94,1.5785
31006,19.1,0.63636,0,3.902e-05,389.93,2.631e-05,175.44,3.6969e-06,5.5335,-3.3057e-05,-270.62,1.5779
31007,19.1,0.45455,0,2.8166e-05,281.46,1.7649e-05,108.89,3.8529e-06,5.2348,-2.4753e-05,-209.7,1.5772
31008,19.1,0.27273,0,1.7698e-05,176.86,9.9564e-06,54.14,3.3807e-06,4.7332,-1.6171e-05,-142.17,1.5765
31009,19.183,2,0,0.0004886,4882.7,0.00023708,657.78,8.4372e-05,-489.6,-0.00047552,-4696.4,1.5944
31010,19.267,0.27273,0,1.3309e-05,133,6.1611e-06,23.212,3.4238e-06,2.6455,-1.275e-05,-118.88,1.603
31011,19.267,0.45455,0,2.1073e-05,210.59,1.0394e-05,44.214,4.9241e-06,3.1132,-1.9965e-05,-183.89,1.6032
31012,19.267,0.63636,0,2.8922e-05,289.03,1.4917e-05,68.479,6.2492e-06,3.3551,-2.7144e-05,-247.55,1.6034
31013,19.267,0.81818,0,3.7597e-05,375.71,2.0032e-05,97.028,7.6385e-06,3.911,-3.5004e-05,-316.49,1.6037
31014,19.267,1,0,4.7753e-05,477.2,2.611e-05,131.68,9.1938e-06,4.58,-4.4148e-05,-396.21,1.604
31015,19.267,1.1818,0,6.0333e-05,602.91,3.3675e-05,175.54,1.1129e-05,6.142,-5.5429e-05,-493.95,1.6042
31016,19.267,1.3636,0,7.7285e-05,772.32,4.4149e-05,237.74,1.3455e-05,7.1201,-7.0491e-05,-623.62,1.6045
31017,19.267,1.5455,0,9.9672e-05,996.03,5.6446e-05,304.98,1.8242e-05,17.928,-9.1025e-05,-803.06,1.6049
31018,19.267,1.7273,0,0.00015311,1530,9.5949e-05,585.2,2.015e-05,15.67,-0.00013471,-1147.9,1.6052
31019,19.267,1.9091,0,0.00032633,3261.1,0.00016737,524.33,4.6387e-05,-384.7,-0.0003143,-3094.8,1.6056
31020,19.1,4.2727,0,0.00020201,2018.7,0.00016682,1351.6,-1.111e-05,14.711,-0.00014224,-970.56,1.582
31021,19.1,4.0909,0,0.00037655,3762.9,0.00025249,1512.5,1.7382e-05,-254.06,-0.00032262,-2808.7,1.5827
31022,19.1,4.4545,0,0.00013307,1329.8,0.00010564,830.34,-2.0115e-06,21.466,-9.8616e-05,-704.38,1.5813
31023,19.1,4.6364,0,0.00010406,1039.9,8.1449e-05,628.13,-8.9145e-07,9.4609,-7.8342e-05,-572.47,1.5806
31024,19.1,4.8182,0,8.1934e-05,818.77,6.2473e-05,470.48,1.0208e-06,8.7536,-6.3345e-05,-474.87,1.5799
31025,19.1,5,0,6.5028e-05,649.83,4.8075e-05,351.27,2.2422e-06,6.8921,-5.1683e-05,-398.28,1.5792
31026,19.1,5.1818,0,5.1073e-05,510.38,3.629e-05,255.15,3.1544e-06,6.1815,-4.1847e-05,-331.94,1.5785
31027,19.1,5.3636,0,3.902e-05,389.93,2.631e-05,175.44,3.6969e-06,5.5335,-3.3057e-05,-270.62,1.5779
31028,19.1,5.5455,0,2.8166e-05,281.46,1.7649e-05,108.89,3.8529e-06,5.2348,-2.4753e-05,-209.7,1.5772
31029,19.1,5.7273,0,1.7698e-05,176.86,9.9564e-06,54.14,3.3807e-06,4.7332,-1.6171e-05,-142.17,1.5765
31030,19.183,4,0,0.0004886,4882.7,0.00023708,657.78,8.4372e-05,-489.6,-0.00047552,-4696.4,1.5944
31031,19.267,5.7273,0,1.3309e-05,133,6.1611e-06,23.212,3.4238e-06,2.6455,-1.275e-05,-118.88,1.603
31032,19.267,5.5455,0,2.1073e-05,210.59,1.0394e-05,44.214,4.9241e-06,3.1132,-1.9965e-05,-183.89,1.6032
31033,19.267,5.3636,0,2.8922e-05,289.03,1.4917e-05,68.479,6.2492e-06,3.3551,-2.7144e-05,-247.55,1.6034
31034,19.267,5.1818,0,3.7597e-05,375.71,2.0032e-05,97.028,7.6385e-06,3.911,-3.5004e-05,-316.49,1.6037
31035,19.267,5,0,4.7753e-05,477.2,2.611e-05,131.68,9.1938e-06,4.58,-4.4148e-05,-396.21,1.604
31036,19.267,4.8182,0,6.0333e-05,602.91,3.3675e-05,175.54,1.1129e-05,6.142,-5.5429e-05,-493.95,1.6042
31037,19.267,4.6364,0,7.7285e-05,772.32,4.4149e-05,237.74,1.3455e-05,7.1201,-7.0491e-05,-623.62,1.6045
31038,19.267,4.4545,0,9.9672e-05,996.03,5.6446e-05,304.98,1.8242e-05,17.928,-9.1025e-05,-803.06,1.6049
31039,19.267,4.2727,0,0.00015311,1530,9.5949e-05,585.2,2.015e-05,15.67,-0.00013471,-1147.9,1.6052
31040,19.267,4.0909,0,0.00032633,3261.1,0.00016737,524.33,4.6387e-05,-384.7,-0.0003143,-3094.8,1.6056
