Node Number	X Location (in)	Y Location (in)	Z Location (in)	Equivalent (von-Mises) Stress (psi)
1	3.9	2.1818	0.	19410
2	3.9	2.3636	0.	15318
3	3.9	2.5455	0.	13441
4	3.9	2.7273	0.	12472
5	3.9	2.9091	0.	12058
6	3.9	3.0909	0.	12058
7	3.9	3.2727	0.	12472
8	3.9	3.4545	0.	13441
9	3.9	3.6364	0.	15318
10	3.9	3.8182	0.	19410
11	4.0667	2.1818	0.	19192
12	4.0667	2.3636	0.	15217
13	4.0667	2.5455	0.	13380
14	4.0667	2.7273	0.	12426
15	4.0667	2.9091	0.	12018
16	4.0667	3.0909	0.	12018
17	4.0667	3.2727	0.	12426
18	4.0667	3.4545	0.	13380
19	4.0667	3.6364	0.	15217
20	4.0667	3.8182	0.	19192
21	3.7227	5.8182	0.	1226.8
22	3.7227	5.6364	0.	1789.9
23	3.7227	5.4545	0.	2475.4
24	3.7227	5.2727	0.	3223.3
25	3.7227	5.0909	0.	4053.1
26	3.7227	4.9091	0.	5007.8
27	3.7227	4.7273	0.	6163.1
28	3.7227	4.5455	0.	7645.2
29	3.7227	4.3636	0.	9784.5
30	3.7227	4.1818	0.	12924
31	3.7227	4.	0.	15489
32	3.7227	3.8182	0.	14579
33	3.7227	3.6364	0.	13531
34	3.7227	3.4545	0.	12460
35	3.7227	3.2727	0.	11842
36	3.7227	3.0909	0.	11552
37	3.7227	2.9091	0.	11552
38	3.7227	2.7273	0.	11842
39	3.7227	2.5455	0.	12460
40	3.7227	2.3636	0.	13531
41	3.7227	2.1818	0.	14579
42	3.7227	2.	0.	15489
43	3.7227	1.8182	0.	12924
44	3.7227	1.6364	0.	9784.5
45	3.7227	1.4545	0.	7645.2
46	3.7227	1.2727	0.	6163.1
47	3.7227	1.0909	0.	5007.8
48	3.7227	0.90909	0.	4053.1
49	3.7227	0.72727	0.	3223.3
50	3.7227	0.54545	0.	2475.4
51	3.7227	0.36364	0.	1789.9
52	3.7227	0.18182	0.	1226.8
53	3.5455	5.8182	0.	1807.5
54	3.5455	5.6364	0.	2081.3
55	3.5455	5.4545	0.	2558.1
56	3.5455	5.2727	0.	3147.1
57	3.5455	5.0909	0.	3829.4
58	3.5455	4.9091	0.	4616.6
59	3.5455	4.7273	0.	5542.6
60	3.5455	4.5455	0.	6636.5
61	3.5455	4.3636	0.	7932.3
62	3.5455	4.1818	0.	9339.3
63	3.5455	4.	0.	10268
64	3.5455	3.8182	0.	11009
65	3.5455	3.6364	0.	11146
66	3.5455	3.4545	0.	10997
67	3.5455	3.2727	0.	10788
68	3.5455	3.0909	0.	10666
69	3.5455	2.9091	0.	10666
70	3.5455	2.7273	0.	10788
71	3.5455	2.5455	0.	10997
72	3.5455	2.3636	0.	11146
73	3.5455	2.1818	0.	11009
74	3.5455	2.	0.	10268
75	3.5455	1.8182	0.	9339.3
76	3.5455	1.6364	0.	7932.3
77	3.5455	1.4545	0.	6636.5
78	3.5455	1.2727	0.	5542.6
79	3.5455	1.0909	0.	4616.6
80	3.5455	0.90909	0.	3829.4
81	3.5455	0.72727	0.	3147.1
82	3.5455	0.54545	0.	2558.1
83	3.5455	0.36364	0.	2081.3
84	3.5455	0.18182	0.	1807.5
85	3.3682	5.8182	0.	2439.
86	3.3682	5.6364	0.	2605.
87	3.3682	5.4545	0.	2943.3
88	3.3682	5.2727	0.	3400.9
89	3.3682	5.0909	0.	3955.9
90	3.3682	4.9091	0.	4600.8
91	3.3682	4.7273	0.	5334.2
92	3.3682	4.5455	0.	6152.2
93	3.3682	4.3636	0.	6997.3
94	3.3682	4.1818	0.	7796.5
95	3.3682	4.	0.	8495.1
96	3.3682	3.8182	0.	9053.8
97	3.3682	3.6364	0.	9448.8
98	3.3682	3.4545	0.	9615.9
99	3.3682	3.2727	0.	9657.2
100	3.3682	3.0909	0.	9656.5
101	3.3682	2.9091	0.	9656.5
102	3.3682	2.7273	0.	9657.2
103	3.3682	2.5455	0.	9615.9
104	3.3682	2.3636	0.	9448.8
105	3.3682	2.1818	0.	9053.8
106	3.3682	2.	0.	8495.1
107	3.3682	1.8182	0.	7796.5
108	3.3682	1.6364	0.	6997.3
109	3.3682	1.4545	0.	6152.2
110	3.3682	1.2727	0.	5334.2
111	3.3682	1.0909	0.	4600.8
112	3.3682	0.90909	0.	3955.9
113	3.3682	0.72727	0.	3400.9
114	3.3682	0.54545	0.	2943.3
115	3.3682	0.36364	0.	2605.
116	3.3682	0.18182	0.	2439.
117	3.1909	5.8182	0.	3019.
118	3.1909	5.6364	0.	3137.2
119	3.1909	5.4545	0.	3386.5
120	3.1909	5.2727	0.	3735.7
121	3.1909	5.0909	0.	4169.7
122	3.1909	4.9091	0.	4675.2
123	3.1909	4.7273	0.	5237.5
124	3.1909	4.5455	0.	5834.5
125	3.1909	4.3636	0.	6433.
126	3.1909	4.1818	0.	6989.9
127	3.1909	4.	0.	7496.2
128	3.1909	3.8182	0.	7939.2
129	3.1909	3.6364	0.	8289.
130	3.1909	3.4545	0.	8526.1
131	3.1909	3.2727	0.	8656.2
132	3.1909	3.0909	0.	8710.5
133	3.1909	2.9091	0.	8710.5
134	3.1909	2.7273	0.	8656.2
135	3.1909	2.5455	0.	8526.1
136	3.1909	2.3636	0.	8289.
137	3.1909	2.1818	0.	7939.2
138	3.1909	2.	0.	7496.2
139	3.1909	1.8182	0.	6989.9
140	3.1909	1.6364	0.	6433.
141	3.1909	1.4545	0.	5834.5
142	3.1909	1.2727	0.	5237.5
143	3.1909	1.0909	0.	4675.2
144	3.1909	0.90909	0.	4169.7
145	3.1909	0.72727	0.	3735.7
146	3.1909	0.54545	0.	3386.5
147	3.1909	0.36364	0.	3137.2
148	3.1909	0.18182	0.	3019.
149	3.0136	5.8182	0.	3534.6
150	3.0136	5.6364	0.	3623.7
151	3.0136	5.4545	0.	3811.5
152	3.0136	5.2727	0.	4075.2
153	3.0136	5.0909	0.	4405.
154	3.0136	4.9091	0.	4788.2
155	3.0136	4.7273	0.	5208.7
156	3.0136	4.5455	0.	5645.9
157	3.0136	4.3636	0.	6076.5
158	3.0136	4.1818	0.	6484.
159	3.0136	4.	0.	6860.3
160	3.0136	3.8182	0.	7200.3
161	3.0136	3.6364	0.	7489.
162	3.0136	3.4545	0.	7706.8
163	3.0136	3.2727	0.	7847.
164	3.0136	3.0909	0.	7914.1
165	3.0136	2.9091	0.	7914.1
166	3.0136	2.7273	0.	7847.
167	3.0136	2.5455	0.	7706.8
168	3.0136	2.3636	0.	7489.
169	3.0136	2.1818	0.	7200.3
170	3.0136	2.	0.	6860.3
171	3.0136	1.8182	0.	6484.
172	3.0136	1.6364	0.	6076.5
173	3.0136	1.4545	0.	5645.9
174	3.0136	1.2727	0.	5208.7
175	3.0136	1.0909	0.	4788.2
176	3.0136	0.90909	0.	4405.
177	3.0136	0.72727	0.	4075.2
178	3.0136	0.54545	0.	3811.5
179	3.0136	0.36364	0.	3623.7
180	3.0136	0.18182	0.	3534.6
181	2.8364	5.8182	0.	3985.3
182	2.8364	5.6364	0.	4050.6
183	2.8364	5.4545	0.	4190.6
184	2.8364	5.2727	0.	4386.
185	2.8364	5.0909	0.	4630.2
186	2.8364	4.9091	0.	4913.
187	2.8364	4.7273	0.	5221.2
188	2.8364	4.5455	0.	5539.7
189	2.8364	4.3636	0.	5854.5
190	2.8364	4.1818	0.	6155.5
191	2.8364	4.	0.	6438.
192	2.8364	3.8182	0.	6696.5
193	2.8364	3.6364	0.	6921.
194	2.8364	3.4545	0.	7099.2
195	2.8364	3.2727	0.	7220.9
196	2.8364	3.0909	0.	7282.1
197	2.8364	2.9091	0.	7282.1
198	2.8364	2.7273	0.	7220.9
199	2.8364	2.5455	0.	7099.2
200	2.8364	2.3636	0.	6921.
201	2.8364	2.1818	0.	6696.5
202	2.8364	2.	0.	6438.
203	2.8364	1.8182	0.	6155.5
204	2.8364	1.6364	0.	5854.5
205	2.8364	1.4545	0.	5539.7
206	2.8364	1.2727	0.	5221.2
207	2.8364	1.0909	0.	4913.
208	2.8364	0.90909	0.	4630.2
209	2.8364	0.72727	0.	4386.
210	2.8364	0.54545	0.	4190.6
211	2.8364	0.36364	0.	4050.6
212	2.8364	0.18182	0.	3985.3
213	2.6591	5.8182	0.	4374.6
214	2.6591	5.6364	0.	4416.8
215	2.6591	5.4545	0.	4516.5
216	2.6591	5.2727	0.	4656.1
217	2.6591	5.0909	0.	4830.8
218	2.6591	4.9091	0.	5033.5
219	2.6591	4.7273	0.	5254.8
220	2.6591	4.5455	0.	5484.4
221	2.6591	4.3636	0.	5713.5
222	2.6591	4.1818	0.	5935.5
223	2.6591	4.	0.	6146.3
224	2.6591	3.8182	0.	6341.
225	2.6591	3.6364	0.	6512.4
226	2.6591	3.4545	0.	6650.9
227	2.6591	3.2727	0.	6747.9
228	2.6591	3.0909	0.	6797.8
229	2.6591	2.9091	0.	6797.8
230	2.6591	2.7273	0.	6747.9
231	2.6591	2.5455	0.	6650.9
232	2.6591	2.3636	0.	6512.4
233	2.6591	2.1818	0.	6341.
234	2.6591	2.	0.	6146.3
235	2.6591	1.8182	0.	5935.5
236	2.6591	1.6364	0.	5713.5
237	2.6591	1.4545	0.	5484.4
238	2.6591	1.2727	0.	5254.8
239	2.6591	1.0909	0.	5033.5
240	2.6591	0.90909	0.	4830.8
241	2.6591	0.72727	0.	4656.1
242	2.6591	0.54545	0.	4516.5
243	2.6591	0.36364	0.	4416.8
244	2.6591	0.18182	0.	4374.6
245	2.4818	5.8182	0.	4707.6
246	2.4818	5.6364	0.	4726.5
247	2.4818	5.4545	0.	4790.9
248	2.4818	5.2727	0.	4884.1
249	2.4818	5.0909	0.	5002.8
250	2.4818	4.9091	0.	5142.4
251	2.4818	4.7273	0.	5296.8
252	2.4818	4.5455	0.	5459.3
253	2.4818	4.3636	0.	5624.2
254	2.4818	4.1818	0.	5786.7
255	2.4818	4.	0.	5942.9
256	2.4818	3.8182	0.	6088.4
257	2.4818	3.6364	0.	6217.3
258	2.4818	3.4545	0.	6322.4
259	2.4818	3.2727	0.	6396.8
260	2.4818	3.0909	0.	6435.4
261	2.4818	2.9091	0.	6435.4
262	2.4818	2.7273	0.	6396.8
263	2.4818	2.5455	0.	6322.4
264	2.4818	2.3636	0.	6217.3
265	2.4818	2.1818	0.	6088.4
266	2.4818	2.	0.	5942.9
267	2.4818	1.8182	0.	5786.7
268	2.4818	1.6364	0.	5624.2
269	2.4818	1.4545	0.	5459.3
270	2.4818	1.2727	0.	5296.8
271	2.4818	1.0909	0.	5142.4
272	2.4818	0.90909	0.	5002.8
273	2.4818	0.72727	0.	4884.1
274	2.4818	0.54545	0.	4790.9
275	2.4818	0.36364	0.	4726.5
276	2.4818	0.18182	0.	4707.6
277	2.3045	5.8182	0.	4990.3
278	2.3045	5.6364	0.	4985.6
279	2.3045	5.4545	0.	5018.6
280	2.3045	5.2727	0.	5072.8
281	2.3045	5.0909	0.	5146.3
282	2.3045	4.9091	0.	5236.6
283	2.3045	4.7273	0.	5339.8
284	2.3045	4.5455	0.	5451.8
285	2.3045	4.3636	0.	5568.6
286	2.3045	4.1818	0.	5686.3
287	2.3045	4.	0.	5801.3
288	2.3045	3.8182	0.	5909.6
289	2.3045	3.6364	0.	6006.1
290	2.3045	3.4545	0.	6085.2
291	2.3045	3.2727	0.	6141.4
292	2.3045	3.0909	0.	6170.7
293	2.3045	2.9091	0.	6170.7
294	2.3045	2.7273	0.	6141.4
295	2.3045	2.5455	0.	6085.2
296	2.3045	2.3636	0.	6006.1
297	2.3045	2.1818	0.	5909.6
298	2.3045	2.	0.	5801.3
299	2.3045	1.8182	0.	5686.3
300	2.3045	1.6364	0.	5568.6
301	2.3045	1.4545	0.	5451.8
302	2.3045	1.2727	0.	5339.8
303	2.3045	1.0909	0.	5236.6
304	2.3045	0.90909	0.	5146.3
305	2.3045	0.72727	0.	5072.8
306	2.3045	0.54545	0.	5018.6
307	2.3045	0.36364	0.	4985.6
308	2.3045	0.18182	0.	4990.3
309	2.1273	5.8182	0.	5228.5
310	2.1273	5.6364	0.	5200.3
311	2.1273	5.4545	0.	5205.
312	2.1273	5.2727	0.	5226.4
313	2.1273	5.0909	0.	5263.6
314	2.1273	4.9091	0.	5315.4
315	2.1273	4.7273	0.	5380.
316	2.1273	4.5455	0.	5454.4
317	2.1273	4.3636	0.	5535.6
318	2.1273	4.1818	0.	5620.4
319	2.1273	4.	0.	5705.2
320	2.1273	3.8182	0.	5786.2
321	2.1273	3.6364	0.	5858.8
322	2.1273	3.4545	0.	5918.6
323	2.1273	3.2727	0.	5961.3
324	2.1273	3.0909	0.	5983.5
325	2.1273	2.9091	0.	5983.5
326	2.1273	2.7273	0.	5961.3
327	2.1273	2.5455	0.	5918.6
328	2.1273	2.3636	0.	5858.8
329	2.1273	2.1818	0.	5786.2
330	2.1273	2.	0.	5705.2
331	2.1273	1.8182	0.	5620.4
332	2.1273	1.6364	0.	5535.6
333	2.1273	1.4545	0.	5454.4
334	2.1273	1.2727	0.	5380.
335	2.1273	1.0909	0.	5315.4
336	2.1273	0.90909	0.	5263.6
337	2.1273	0.72727	0.	5226.4
338	2.1273	0.54545	0.	5205.
339	2.1273	0.36364	0.	5200.3
340	2.1273	0.18182	0.	5228.5
341	1.95	5.8182	0.	5427.3
342	1.95	5.6364	0.	5375.7
343	1.95	5.4545	0.	5355.
344	1.95	5.2727	0.	5348.7
345	1.95	5.0909	0.	5356.8
346	1.95	4.9091	0.	5379.3
347	1.95	4.7273	0.	5415.3
348	1.95	4.5455	0.	5462.8
349	1.95	4.3636	0.	5518.9
350	1.95	4.1818	0.	5580.5
351	1.95	4.	0.	5644.1
352	1.95	3.8182	0.	5705.9
353	1.95	3.6364	0.	5761.9
354	1.95	3.4545	0.	5808.1
355	1.95	3.2727	0.	5841.2
356	1.95	3.0909	0.	5858.4
357	1.95	2.9091	0.	5858.4
358	1.95	2.7273	0.	5841.2
359	1.95	2.5455	0.	5808.1
360	1.95	2.3636	0.	5761.9
361	1.95	2.1818	0.	5705.9
362	1.95	2.	0.	5644.1
363	1.95	1.8182	0.	5580.5
364	1.95	1.6364	0.	5518.9
365	1.95	1.4545	0.	5462.8
366	1.95	1.2727	0.	5415.3
367	1.95	1.0909	0.	5379.3
368	1.95	0.90909	0.	5356.8
369	1.95	0.72727	0.	5348.7
370	1.95	0.54545	0.	5355.
371	1.95	0.36364	0.	5375.7
372	1.95	0.18182	0.	5427.3
373	1.7727	5.8182	0.	5590.7
374	1.7727	5.6364	0.	5515.8
375	1.7727	5.4545	0.	5472.
376	1.7727	5.2727	0.	5442.5
377	1.7727	5.0909	0.	5427.8
378	1.7727	4.9091	0.	5428.9
379	1.7727	4.7273	0.	5445.1
380	1.7727	4.5455	0.	5474.6
381	1.7727	4.3636	0.	5514.4
382	1.7727	4.1818	0.	5561.3
383	1.7727	4.	0.	5611.3
384	1.7727	3.8182	0.	5660.7
385	1.7727	3.6364	0.	5705.8
386	1.7727	3.4545	0.	5743.2
387	1.7727	3.2727	0.	5769.8
388	1.7727	3.0909	0.	5783.7
389	1.7727	2.9091	0.	5783.7
390	1.7727	2.7273	0.	5769.8
391	1.7727	2.5455	0.	5743.2
392	1.7727	2.3636	0.	5705.8
393	1.7727	2.1818	0.	5660.7
394	1.7727	2.	0.	5611.3
395	1.7727	1.8182	0.	5561.3
396	1.7727	1.6364	0.	5514.4
397	1.7727	1.4545	0.	5474.6
398	1.7727	1.2727	0.	5445.1
399	1.7727	1.0909	0.	5428.9
400	1.7727	0.90909	0.	5427.8
401	1.7727	0.72727	0.	5442.5
402	1.7727	0.54545	0.	5472.
403	1.7727	0.36364	0.	5515.7
404	1.7727	0.18182	0.	5590.7
405	1.5955	5.8182	0.	5721.1
406	1.5955	5.6364	0.	5622.7
407	1.5955	5.4545	0.	5558.2
408	1.5955	5.2727	0.	5509.4
409	1.5955	5.0909	0.	5477.8
410	1.5955	4.9091	0.	5464.7
411	1.5955	4.7273	0.	5469.2
412	1.5955	4.5455	0.	5489.
413	1.5955	4.3636	0.	5520.5
414	1.5955	4.1818	0.	5559.7
415	1.5955	4.	0.	5602.7
416	1.5955	3.8182	0.	5645.4
417	1.5955	3.6364	0.	5684.3
418	1.5955	3.4545	0.	5716.5
419	1.5955	3.2727	0.	5739.4
420	1.5955	3.0909	0.	5751.3
421	1.5955	2.9091	0.	5751.3
422	1.5955	2.7273	0.	5739.4
423	1.5955	2.5455	0.	5716.5
424	1.5955	2.3636	0.	5684.3
425	1.5955	2.1818	0.	5645.4
426	1.5955	2.	0.	5602.7
427	1.5955	1.8182	0.	5559.7
428	1.5955	1.6364	0.	5520.5
429	1.5955	1.4545	0.	5489.
430	1.5955	1.2727	0.	5469.2
431	1.5955	1.0909	0.	5464.7
432	1.5955	0.90909	0.	5477.8
433	1.5955	0.72727	0.	5509.4
434	1.5955	0.54545	0.	5558.2
435	1.5955	0.36364	0.	5622.7
436	1.5955	0.18182	0.	5721.1
437	1.4182	5.8182	0.	5818.8
438	1.4182	5.6364	0.	5696.5
439	1.4182	5.4545	0.	5613.2
440	1.4182	5.2727	0.	5549.4
441	1.4182	5.0909	0.	5507.1
442	1.4182	4.9091	0.	5487.3
443	1.4182	4.7273	0.	5488.2
444	1.4182	4.5455	0.	5506.2
445	1.4182	4.3636	0.	5536.7
446	1.4182	4.1818	0.	5574.8
447	1.4182	4.	0.	5616.1
448	1.4182	3.8182	0.	5656.6
449	1.4182	3.6364	0.	5693.2
450	1.4182	3.4545	0.	5723.
451	1.4182	3.2727	0.	5744.
452	1.4182	3.0909	0.	5754.8
453	1.4182	2.9091	0.	5754.8
454	1.4182	2.7273	0.	5744.
455	1.4182	2.5455	0.	5723.
456	1.4182	2.3636	0.	5693.2
457	1.4182	2.1818	0.	5656.6
458	1.4182	2.	0.	5616.1
459	1.4182	1.8182	0.	5574.8
460	1.4182	1.6364	0.	5536.7
461	1.4182	1.4545	0.	5506.2
462	1.4182	1.2727	0.	5488.2
463	1.4182	1.0909	0.	5487.3
464	1.4182	0.90909	0.	5507.1
465	1.4182	0.72727	0.	5549.4
466	1.4182	0.54545	0.	5613.2
467	1.4182	0.36364	0.	5696.5
468	1.4182	0.18182	0.	5818.8
469	1.2409	5.8182	0.	5881.5
470	1.2409	5.6364	0.	5734.8
471	1.2409	5.4545	0.	5635.1
472	1.2409	5.2727	0.	5561.3
473	1.2409	5.0909	0.	5515.8
474	1.2409	4.9091	0.	5498.1
475	1.2409	4.7273	0.	5504.2
476	1.2409	4.5455	0.	5528.5
477	1.2409	4.3636	0.	5564.7
478	1.2409	4.1818	0.	5607.3
479	1.2409	4.	0.	5651.4
480	1.2409	3.8182	0.	5693.4
481	1.2409	3.6364	0.	5730.2
482	1.2409	3.4545	0.	5759.7
483	1.2409	3.2727	0.	5780.2
484	1.2409	3.0909	0.	5790.7
485	1.2409	2.9091	0.	5790.7
486	1.2409	2.7273	0.	5780.2
487	1.2409	2.5455	0.	5759.7
488	1.2409	2.3636	0.	5730.2
489	1.2409	2.1818	0.	5693.4
490	1.2409	2.	0.	5651.4
491	1.2409	1.8182	0.	5607.3
492	1.2409	1.6364	0.	5564.7
493	1.2409	1.4545	0.	5528.5
494	1.2409	1.2727	0.	5504.2
495	1.2409	1.0909	0.	5498.1
496	1.2409	0.90909	0.	5515.8
497	1.2409	0.72727	0.	5561.3
498	1.2409	0.54545	0.	5635.1
499	1.2409	0.36364	0.	5734.8
500	1.2409	0.18182	0.	5881.5
501	1.0636	5.8182	0.	5902.8
502	1.0636	5.6364	0.	5730.2
503	1.0636	5.4545	0.	5617.4
504	1.0636	5.2727	0.	5541.2
505	1.0636	5.0909	0.	5502.7
506	1.0636	4.9091	0.	5498.1
507	1.0636	4.7273	0.	5519.5
508	1.0636	4.5455	0.	5558.2
509	1.0636	4.3636	0.	5606.4
510	1.0636	4.1818	0.	5657.9
511	1.0636	4.	0.	5708.2
512	1.0636	3.8182	0.	5753.9
513	1.0636	3.6364	0.	5792.7
514	1.0636	3.4545	0.	5823.
515	1.0636	3.2727	0.	5843.8
516	1.0636	3.0909	0.	5854.3
517	1.0636	2.9091	0.	5854.3
518	1.0636	2.7273	0.	5843.8
519	1.0636	2.5455	0.	5823.
520	1.0636	2.3636	0.	5792.7
521	1.0636	2.1818	0.	5753.9
522	1.0636	2.	0.	5708.2
523	1.0636	1.8182	0.	5657.9
524	1.0636	1.6364	0.	5606.4
525	1.0636	1.4545	0.	5558.2
526	1.0636	1.2727	0.	5519.5
527	1.0636	1.0909	0.	5498.1
528	1.0636	0.90909	0.	5502.7
529	1.0636	0.72727	0.	5541.2
530	1.0636	0.54545	0.	5617.4
531	1.0636	0.36364	0.	5730.2
532	1.0636	0.18182	0.	5902.8
533	0.88636	5.8182	0.	5870.9
534	0.88636	5.6364	0.	5672.9
535	0.88636	5.4545	0.	5554.7
536	0.88636	5.2727	0.	5489.6
537	0.88636	5.0909	0.	5474.4
538	0.88636	4.9091	0.	5497.8
539	0.88636	4.7273	0.	5546.
540	0.88636	4.5455	0.	5607.1
541	0.88636	4.3636	0.	5672.3
542	0.88636	4.1818	0.	5735.8
543	0.88636	4.	0.	5793.9
544	0.88636	3.8182	0.	5844.4
545	0.88636	3.6364	0.	5885.7
546	0.88636	3.4545	0.	5917.3
547	0.88636	3.2727	0.	5938.5
548	0.88636	3.0909	0.	5949.1
549	0.88636	2.9091	0.	5949.1
550	0.88636	2.7273	0.	5938.5
551	0.88636	2.5455	0.	5917.3
552	0.88636	2.3636	0.	5885.7
553	0.88636	2.1818	0.	5844.4
554	0.88636	2.	0.	5793.9
555	0.88636	1.8182	0.	5735.8
556	0.88636	1.6364	0.	5672.3
557	0.88636	1.4545	0.	5607.1
558	0.88636	1.2727	0.	5546.
559	0.88636	1.0909	0.	5497.8
560	0.88636	0.90909	0.	5474.4
561	0.88636	0.72727	0.	5489.6
562	0.88636	0.54545	0.	5554.7
563	0.88636	0.36364	0.	5672.9
564	0.88636	0.18182	0.	5870.9
565	0.70909	5.8182	0.	5756.9
566	0.70909	5.6364	0.	5530.6
567	0.70909	5.4545	0.	5419.5
568	0.70909	5.2727	0.	5388.9
569	0.70909	5.0909	0.	5420.3
570	0.70909	4.9091	0.	5489.1
571	0.70909	4.7273	0.	5574.7
572	0.70909	4.5455	0.	5663.6
573	0.70909	4.3636	0.	5747.9
574	0.70909	4.1818	0.	5823.8
575	0.70909	4.	0.	5889.2
576	0.70909	3.8182	0.	5943.6
577	0.70909	3.6364	0.	5986.7
578	0.70909	3.4545	0.	6018.8
579	0.70909	3.2727	0.	6040.
580	0.70909	3.0909	0.	6050.5
581	0.70909	2.9091	0.	6050.5
582	0.70909	2.7273	0.	6040.
583	0.70909	2.5455	0.	6018.8
584	0.70909	2.3636	0.	5986.7
585	0.70909	2.1818	0.	5943.6
586	0.70909	2.	0.	5889.2
587	0.70909	1.8182	0.	5823.8
588	0.70909	1.6364	0.	5747.9
589	0.70909	1.4545	0.	5663.6
590	0.70909	1.2727	0.	5574.7
591	0.70909	1.0909	0.	5489.1
592	0.70909	0.90909	0.	5420.3
593	0.70909	0.72727	0.	5388.9
594	0.70909	0.54545	0.	5419.5
595	0.70909	0.36364	0.	5530.6
596	0.70909	0.18182	0.	5756.9
597	0.53182	5.8182	0.	5526.6
598	0.53182	5.6364	0.	5304.9
599	0.53182	5.4545	0.	5256.4
600	0.53182	5.2727	0.	5317.
601	0.53182	5.0909	0.	5435.9
602	0.53182	4.9091	0.	5572.7
603	0.53182	4.7273	0.	5705.5
604	0.53182	4.5455	0.	5825.
605	0.53182	4.3636	0.	5928.
606	0.53182	4.1818	0.	6014.3
607	0.53182	4.	0.	6084.9
608	0.53182	3.8182	0.	6141.1
609	0.53182	3.6364	0.	6184.3
610	0.53182	3.4545	0.	6215.6
611	0.53182	3.2727	0.	6235.9
612	0.53182	3.0909	0.	6246.
613	0.53182	2.9091	0.	6246.
614	0.53182	2.7273	0.	6235.9
615	0.53182	2.5455	0.	6215.6
616	0.53182	2.3636	0.	6184.3
617	0.53182	2.1818	0.	6141.1
618	0.53182	2.	0.	6084.9
619	0.53182	1.8182	0.	6014.3
620	0.53182	1.6364	0.	5928.
621	0.53182	1.4545	0.	5825.
622	0.53182	1.2727	0.	5705.5
623	0.53182	1.0909	0.	5572.7
624	0.53182	0.90909	0.	5435.9
625	0.53182	0.72727	0.	5317.
626	0.53182	0.54545	0.	5256.4
627	0.53182	0.36364	0.	5304.9
628	0.53182	0.18182	0.	5526.6
629	0.35455	5.8182	0.	5008.2
630	0.35455	5.6364	0.	4766.
631	0.35455	5.4545	0.	4842.
632	0.35455	5.2727	0.	5047.3
633	0.35455	5.0909	0.	5268.2
634	0.35455	4.9091	0.	5466.5
635	0.35455	4.7273	0.	5633.3
636	0.35455	4.5455	0.	5769.5
637	0.35455	4.3636	0.	5879.
638	0.35455	4.1818	0.	5965.9
639	0.35455	4.	0.	6034.
640	0.35455	3.8182	0.	6086.2
641	0.35455	3.6364	0.	6125.1
642	0.35455	3.4545	0.	6152.6
643	0.35455	3.2727	0.	6170.2
644	0.35455	3.0909	0.	6178.8
645	0.35455	2.9091	0.	6178.8
646	0.35455	2.7273	0.	6170.2
647	0.35455	2.5455	0.	6152.6
648	0.35455	2.3636	0.	6125.1
649	0.35455	2.1818	0.	6086.2
650	0.35455	2.	0.	6034.
651	0.35455	1.8182	0.	5965.9
652	0.35455	1.6364	0.	5879.
653	0.35455	1.4545	0.	5769.5
654	0.35455	1.2727	0.	5633.3
655	0.35455	1.0909	0.	5466.5
656	0.35455	0.90909	0.	5268.2
657	0.35455	0.72727	0.	5047.3
658	0.35455	0.54545	0.	4842.
659	0.35455	0.36364	0.	4766.
660	0.35455	0.18182	0.	5008.2
661	0.17727	5.8182	0.	4084.3
662	0.17727	5.6364	0.	4630.4
663	0.17727	5.4545	0.	5307.6
664	0.17727	5.2727	0.	5824.9
665	0.17727	5.0909	0.	6205.6
666	0.17727	4.9091	0.	6487.2
667	0.17727	4.7273	0.	6697.3
668	0.17727	4.5455	0.	6855.
669	0.17727	4.3636	0.	6973.4
670	0.17727	4.1818	0.	7062.
671	0.17727	4.	0.	7127.5
672	0.17727	3.8182	0.	7175.2
673	0.17727	3.6364	0.	7209.1
674	0.17727	3.4545	0.	7232.1
675	0.17727	3.2727	0.	7246.2
676	0.17727	3.0909	0.	7253.
677	0.17727	2.9091	0.	7253.
678	0.17727	2.7273	0.	7246.2
679	0.17727	2.5455	0.	7232.1
680	0.17727	2.3636	0.	7209.1
681	0.17727	2.1818	0.	7175.2
682	0.17727	2.	0.	7127.5
683	0.17727	1.8182	0.	7062.
684	0.17727	1.6364	0.	6973.4
685	0.17727	1.4545	0.	6855.
686	0.17727	1.2727	0.	6697.3
687	0.17727	1.0909	0.	6487.2
688	0.17727	0.90909	0.	6205.6
689	0.17727	0.72727	0.	5824.9
690	0.17727	0.54545	0.	5307.6
691	0.17727	0.36364	0.	4630.4
692	0.17727	0.18182	0.	4084.3
693	4.2512	5.8182	0.	977.97
694	4.4358	5.8182	0.	1470.7
695	4.6204	5.8182	0.	1986.8
696	4.8049	5.8182	0.	2448.
697	4.9895	5.8182	0.	2843.1
698	5.1741	5.8182	0.	3172.1
699	5.3586	5.8182	0.	3438.9
700	5.5432	5.8182	0.	3649.9
701	5.7278	5.8182	0.	3812.1
702	5.9123	5.8182	0.	3932.8
703	6.0969	5.8182	0.	4018.9
704	6.2815	5.8182	0.	4076.4
705	6.466	5.8182	0.	4110.7
706	6.6506	5.8182	0.	4126.2
707	6.8352	5.8182	0.	4126.7
708	7.0198	5.8182	0.	4115.1
709	7.2043	5.8182	0.	4094.1
710	7.3889	5.8182	0.	4065.7
711	7.5735	5.8182	0.	4031.4
712	7.758	5.8182	0.	3992.7
713	7.9426	5.8182	0.	3950.4
714	8.1272	5.8182	0.	3905.5
715	8.3117	5.8182	0.	3858.5
716	8.4963	5.8182	0.	3810.
717	8.6809	5.8182	0.	3760.4
718	8.8654	5.8182	0.	3710.
719	9.05	5.8182	0.	3659.
720	9.2346	5.8182	0.	3607.6
721	9.4191	5.8182	0.	3556.
722	9.6037	5.8182	0.	3504.3
723	9.7883	5.8182	0.	3452.5
724	9.9728	5.8182	0.	3400.7
725	10.157	5.8182	0.	3349.
726	10.342	5.8182	0.	3297.4
727	10.527	5.8182	0.	3245.9
728	10.711	5.8182	0.	3194.6
729	10.896	5.8182	0.	3143.5
730	11.08	5.8182	0.	3092.6
731	11.265	5.8182	0.	3041.8
732	11.449	5.8182	0.	2991.3
733	11.634	5.8182	0.	2941.
734	11.819	5.8182	0.	2890.8
735	12.003	5.8182	0.	2840.9
736	12.188	5.8182	0.	2791.2
737	12.372	5.8182	0.	2741.7
738	12.557	5.8182	0.	2692.4
739	12.741	5.8182	0.	2643.4
740	12.926	5.8182	0.	2594.5
741	13.11	5.8182	0.	2545.9
742	13.295	5.8182	0.	2497.4
743	13.48	5.8182	0.	2449.2
744	13.664	5.8182	0.	2401.2
745	13.849	5.8182	0.	2353.4
746	14.033	5.8182	0.	2305.8
747	14.218	5.8182	0.	2258.4
748	14.402	5.8182	0.	2211.2
749	14.587	5.8182	0.	2164.3
750	14.772	5.8182	0.	2117.5
751	14.956	5.8182	0.	2070.9
752	15.141	5.8182	0.	2024.6
753	15.325	5.8182	0.	1978.5
754	15.51	5.8182	0.	1932.5
755	15.694	5.8182	0.	1886.8
756	15.879	5.8182	0.	1841.3
757	16.064	5.8182	0.	1795.9
758	16.248	5.8182	0.	1750.8
759	16.433	5.8182	0.	1705.9
760	16.617	5.8182	0.	1661.2
761	16.802	5.8182	0.	1616.7
762	16.986	5.8182	0.	1572.3
763	17.171	5.8182	0.	1528.2
764	17.356	5.8182	0.	1484.3
765	17.54	5.8182	0.	1440.6
766	17.725	5.8182	0.	1397.1
767	17.909	5.8182	0.	1353.7
768	18.094	5.8182	0.	1310.6
769	18.278	5.8182	0.	1267.6
770	18.463	5.8182	0.	1224.9
771	18.648	5.8182	0.	1182.3
772	18.832	5.8182	0.	1139.9
773	19.017	5.8182	0.	1097.7
774	19.201	5.8182	0.	1055.7
775	19.386	5.8182	0.	1013.8
776	19.57	5.8182	0.	972.14
777	19.755	5.8182	0.	930.62
778	19.94	5.8182	0.	889.27
779	20.124	5.8182	0.	848.09
780	20.309	5.8182	0.	807.05
781	20.493	5.8182	0.	766.17
782	20.678	5.8182	0.	725.44
783	20.862	5.8182	0.	684.84
784	21.047	5.8182	0.	644.38
785	21.231	5.8182	0.	604.05
786	21.416	5.8182	0.	563.85
787	21.601	5.8182	0.	523.76
788	21.785	5.8182	0.	483.8
789	21.97	5.8182	0.	443.95
790	22.154	5.8182	0.	404.22
791	22.339	5.8182	0.	364.6
792	22.523	5.8182	0.	325.11
793	22.708	5.8182	0.	285.76
794	22.893	5.8182	0.	246.58
795	23.077	5.8182	0.	207.62
796	23.262	5.8182	0.	168.98
797	23.446	5.8182	0.	130.9
798	23.631	5.8182	0.	94.036
799	23.815	5.8182	0.	61.742
800	4.2512	5.6364	0.	1425.7
801	4.4358	5.6364	0.	1702.2
802	4.6204	5.6364	0.	2149.8
803	4.8049	5.6364	0.	2584.9
804	4.9895	5.6364	0.	2965.3
805	5.1741	5.6364	0.	3281.7
806	5.3586	5.6364	0.	3535.5
807	5.5432	5.6364	0.	3733.1
808	5.7278	5.6364	0.	3882.1
809	5.9123	5.6364	0.	3990.4
810	6.0969	5.6364	0.	4065.2
811	6.2815	5.6364	0.	4112.7
812	6.466	5.6364	0.	4138.3
813	6.6506	5.6364	0.	4146.4
814	6.8352	5.6364	0.	4140.7
815	7.0198	5.6364	0.	4124.2
816	7.2043	5.6364	0.	4099.1
817	7.3889	5.6364	0.	4067.4
818	7.5735	5.6364	0.	4030.6
819	7.758	5.6364	0.	3989.8
820	7.9426	5.6364	0.	3946.
821	8.1272	5.6364	0.	3899.9
822	8.3117	5.6364	0.	3852.1
823	8.4963	5.6364	0.	3803.1
824	8.6809	5.6364	0.	3753.1
825	8.8654	5.6364	0.	3702.5
826	9.05	5.6364	0.	3651.4
827	9.2346	5.6364	0.	3600.
828	9.4191	5.6364	0.	3548.4
829	9.6037	5.6364	0.	3496.7
830	9.7883	5.6364	0.	3445.1
831	9.9728	5.6364	0.	3393.5
832	10.157	5.6364	0.	3342.
833	10.342	5.6364	0.	3290.5
834	10.527	5.6364	0.	3239.3
835	10.711	5.6364	0.	3188.1
836	10.896	5.6364	0.	3137.2
837	11.08	5.6364	0.	3086.4
838	11.265	5.6364	0.	3035.9
839	11.449	5.6364	0.	2985.5
840	11.634	5.6364	0.	2935.3
841	11.819	5.6364	0.	2885.3
842	12.003	5.6364	0.	2835.5
843	12.188	5.6364	0.	2785.9
844	12.372	5.6364	0.	2736.5
845	12.557	5.6364	0.	2687.3
846	12.741	5.6364	0.	2638.3
847	12.926	5.6364	0.	2589.5
848	13.11	5.6364	0.	2540.9
849	13.295	5.6364	0.	2492.5
850	13.48	5.6364	0.	2444.4
851	13.664	5.6364	0.	2396.4
852	13.849	5.6364	0.	2348.6
853	14.033	5.6364	0.	2301.
854	14.218	5.6364	0.	2253.7
855	14.402	5.6364	0.	2206.5
856	14.587	5.6364	0.	2159.5
857	14.772	5.6364	0.	2112.8
858	14.956	5.6364	0.	2066.2
859	15.141	5.6364	0.	2019.9
860	15.325	5.6364	0.	1973.7
861	15.51	5.6364	0.	1927.8
862	15.694	5.6364	0.	1882.
863	15.879	5.6364	0.	1836.5
864	16.064	5.6364	0.	1791.1
865	16.248	5.6364	0.	1746.
866	16.433	5.6364	0.	1701.1
867	16.617	5.6364	0.	1656.3
868	16.802	5.6364	0.	1611.8
869	16.986	5.6364	0.	1567.5
870	17.171	5.6364	0.	1523.3
871	17.356	5.6364	0.	1479.4
872	17.54	5.6364	0.	1435.6
873	17.725	5.6364	0.	1392.1
874	17.909	5.6364	0.	1348.8
875	18.094	5.6364	0.	1305.6
876	18.278	5.6364	0.	1262.6
877	18.463	5.6364	0.	1219.9
878	18.648	5.6364	0.	1177.3
879	18.832	5.6364	0.	1134.9
880	19.017	5.6364	0.	1092.7
881	19.201	5.6364	0.	1050.7
882	19.386	5.6364	0.	1008.9
883	19.57	5.6364	0.	967.28
884	19.755	5.6364	0.	925.82
885	19.94	5.6364	0.	884.54
886	20.124	5.6364	0.	843.44
887	20.309	5.6364	0.	802.5
888	20.493	5.6364	0.	761.74
889	20.678	5.6364	0.	721.14
890	20.862	5.6364	0.	680.71
891	21.047	5.6364	0.	640.44
892	21.231	5.6364	0.	600.33
893	21.416	5.6364	0.	560.39
894	21.601	5.6364	0.	520.61
895	21.785	5.6364	0.	481.
896	21.97	5.6364	0.	441.57
897	22.154	5.6364	0.	402.34
898	22.339	5.6364	0.	363.33
899	22.523	5.6364	0.	324.57
900	22.708	5.6364	0.	286.14
901	22.893	5.6364	0.	248.14
902	23.077	5.6364	0.	210.74
903	23.262	5.6364	0.	174.31
904	23.446	5.6364	0.	139.5
905	23.631	5.6364	0.	107.95
906	23.815	5.6364	0.	83.337
907	4.2512	5.4545	0.	1994.5
908	4.4358	5.4545	0.	2101.7
909	4.6204	5.4545	0.	2446.6
910	4.8049	5.4545	0.	2819.5
911	4.9895	5.4545	0.	3157.5
912	5.1741	5.4545	0.	3440.8
913	5.3586	5.4545	0.	3667.
914	5.5432	5.4545	0.	3840.6
915	5.7278	5.4545	0.	3969.
916	5.9123	5.4545	0.	4059.6
917	6.0969	5.4545	0.	4119.3
918	6.2815	5.4545	0.	4154.3
919	6.466	5.4545	0.	4169.6
920	6.6506	5.4545	0.	4169.2
921	6.8352	5.4545	0.	4156.7
922	7.0198	5.4545	0.	4134.6
923	7.2043	5.4545	0.	4105.1
924	7.3889	5.4545	0.	4070.
925	7.5735	5.4545	0.	4030.5
926	7.758	5.4545	0.	3987.7
927	7.9426	5.4545	0.	3942.4
928	8.1272	5.4545	0.	3895.2
929	8.3117	5.4545	0.	3846.6
930	8.4963	5.4545	0.	3797.
931	8.6809	5.4545	0.	3746.7
932	8.8654	5.4545	0.	3695.9
933	9.05	5.4545	0.	3644.8
934	9.2346	5.4545	0.	3593.5
935	9.4191	5.4545	0.	3542.
936	9.6037	5.4545	0.	3490.6
937	9.7883	5.4545	0.	3439.1
938	9.9728	5.4545	0.	3387.7
939	10.157	5.4545	0.	3336.4
940	10.342	5.4545	0.	3285.3
941	10.527	5.4545	0.	3234.2
942	10.711	5.4545	0.	3183.4
943	10.896	5.4545	0.	3132.7
944	11.08	5.4545	0.	3082.1
945	11.265	5.4545	0.	3031.7
946	11.449	5.4545	0.	2981.6
947	11.634	5.4545	0.	2931.5
948	11.819	5.4545	0.	2881.7
949	12.003	5.4545	0.	2832.1
950	12.188	5.4545	0.	2782.6
951	12.372	5.4545	0.	2733.4
952	12.557	5.4545	0.	2684.3
953	12.741	5.4545	0.	2635.5
954	12.926	5.4545	0.	2586.8
955	13.11	5.4545	0.	2538.3
956	13.295	5.4545	0.	2490.
957	13.48	5.4545	0.	2441.9
958	13.664	5.4545	0.	2394.
959	13.849	5.4545	0.	2346.3
960	14.033	5.4545	0.	2298.8
961	14.218	5.4545	0.	2251.5
962	14.402	5.4545	0.	2204.4
963	14.587	5.4545	0.	2157.5
964	14.772	5.4545	0.	2110.8
965	14.956	5.4545	0.	2064.3
966	15.141	5.4545	0.	2018.
967	15.325	5.4545	0.	1971.9
968	15.51	5.4545	0.	1925.9
969	15.694	5.4545	0.	1880.2
970	15.879	5.4545	0.	1834.7
971	16.064	5.4545	0.	1789.4
972	16.248	5.4545	0.	1744.3
973	16.433	5.4545	0.	1699.4
974	16.617	5.4545	0.	1654.7
975	16.802	5.4545	0.	1610.2
976	16.986	5.4545	0.	1565.9
977	17.171	5.4545	0.	1521.8
978	17.356	5.4545	0.	1477.9
979	17.54	5.4545	0.	1434.2
980	17.725	5.4545	0.	1390.6
981	17.909	5.4545	0.	1347.3
982	18.094	5.4545	0.	1304.2
983	18.278	5.4545	0.	1261.3
984	18.463	5.4545	0.	1218.6
985	18.648	5.4545	0.	1176.1
986	18.832	5.4545	0.	1133.8
987	19.017	5.4545	0.	1091.7
988	19.201	5.4545	0.	1049.8
989	19.386	5.4545	0.	1008.1
990	19.57	5.4545	0.	966.54
991	19.755	5.4545	0.	925.2
992	19.94	5.4545	0.	884.05
993	20.124	5.4545	0.	843.1
994	20.309	5.4545	0.	802.33
995	20.493	5.4545	0.	761.75
996	20.678	5.4545	0.	721.36
997	20.862	5.4545	0.	681.15
998	21.047	5.4545	0.	641.14
999	21.231	5.4545	0.	601.32
1000	21.416	5.4545	0.	561.7
1001	21.601	5.4545	0.	522.29
1002	21.785	5.4545	0.	483.11
1003	21.97	5.4545	0.	444.17
1004	22.154	5.4545	0.	405.5
1005	22.339	5.4545	0.	367.16
1006	22.523	5.4545	0.	329.21
1007	22.708	5.4545	0.	291.76
1008	22.893	5.4545	0.	254.98
1009	23.077	5.4545	0.	219.17
1010	23.262	5.4545	0.	184.8
1011	23.446	5.4545	0.	152.73
1012	23.631	5.4545	0.	124.5
1013	23.815	5.4545	0.	102.78
1014	4.2512	5.2727	0.	2637.4
1015	4.4358	5.2727	0.	2611.5
1016	4.6204	5.2727	0.	2851.5
1017	4.8049	5.2727	0.	3140.8
1018	4.9895	5.2727	0.	3413.9
1019	5.1741	5.2727	0.	3645.7
1020	5.3586	5.2727	0.	3830.
1021	5.5432	5.2727	0.	3969.6
1022	5.7278	5.2727	0.	4070.1
1023	5.9123	5.2727	0.	4138.
1024	6.0969	5.2727	0.	4179.5
1025	6.2815	5.2727	0.	4199.6
1026	6.466	5.2727	0.	4203.
1027	6.6506	5.2727	0.	4193.2
1028	6.8352	5.2727	0.	4173.1
1029	7.0198	5.2727	0.	4145.1
1030	7.2043	5.2727	0.	4111.1
1031	7.3889	5.2727	0.	4072.4
1032	7.5735	5.2727	0.	4030.2
1033	7.758	5.2727	0.	3985.3
1034	7.9426	5.2727	0.	3938.5
1035	8.1272	5.2727	0.	3890.3
1036	8.3117	5.2727	0.	3841.
1037	8.4963	5.2727	0.	3790.9
1038	8.6809	5.2727	0.	3740.4
1039	8.8654	5.2727	0.	3689.5
1040	9.05	5.2727	0.	3638.3
1041	9.2346	5.2727	0.	3587.1
1042	9.4191	5.2727	0.	3535.8
1043	9.6037	5.2727	0.	3484.5
1044	9.7883	5.2727	0.	3433.3
1045	9.9728	5.2727	0.	3382.2
1046	10.157	5.2727	0.	3331.1
1047	10.342	5.2727	0.	3280.2
1048	10.527	5.2727	0.	3229.5
1049	10.711	5.2727	0.	3178.8
1050	10.896	5.2727	0.	3128.3
1051	11.08	5.2727	0.	3078.
1052	11.265	5.2727	0.	3027.9
1053	11.449	5.2727	0.	2977.9
1054	11.634	5.2727	0.	2928.1
1055	11.819	5.2727	0.	2878.4
1056	12.003	5.2727	0.	2829.
1057	12.188	5.2727	0.	2779.7
1058	12.372	5.2727	0.	2730.6
1059	12.557	5.2727	0.	2681.6
1060	12.741	5.2727	0.	2632.9
1061	12.926	5.2727	0.	2584.3
1062	13.11	5.2727	0.	2536.
1063	13.295	5.2727	0.	2487.8
1064	13.48	5.2727	0.	2439.8
1065	13.664	5.2727	0.	2391.9
1066	13.849	5.2727	0.	2344.3
1067	14.033	5.2727	0.	2296.9
1068	14.218	5.2727	0.	2249.6
1069	14.402	5.2727	0.	2202.6
1070	14.587	5.2727	0.	2155.7
1071	14.772	5.2727	0.	2109.1
1072	14.956	5.2727	0.	2062.6
1073	15.141	5.2727	0.	2016.3
1074	15.325	5.2727	0.	1970.3
1075	15.51	5.2727	0.	1924.4
1076	15.694	5.2727	0.	1878.7
1077	15.879	5.2727	0.	1833.2
1078	16.064	5.2727	0.	1788.
1079	16.248	5.2727	0.	1742.9
1080	16.433	5.2727	0.	1698.
1081	16.617	5.2727	0.	1653.3
1082	16.802	5.2727	0.	1608.9
1083	16.986	5.2727	0.	1564.6
1084	17.171	5.2727	0.	1520.5
1085	17.356	5.2727	0.	1476.7
1086	17.54	5.2727	0.	1433.
1087	17.725	5.2727	0.	1389.6
1088	17.909	5.2727	0.	1346.3
1089	18.094	5.2727	0.	1303.3
1090	18.278	5.2727	0.	1260.4
1091	18.463	5.2727	0.	1217.8
1092	18.648	5.2727	0.	1175.4
1093	18.832	5.2727	0.	1133.1
1094	19.017	5.2727	0.	1091.1
1095	19.201	5.2727	0.	1049.3
1096	19.386	5.2727	0.	1007.7
1097	19.57	5.2727	0.	966.27
1098	19.755	5.2727	0.	925.07
1099	19.94	5.2727	0.	884.07
1100	20.124	5.2727	0.	843.28
1101	20.309	5.2727	0.	802.7
1102	20.493	5.2727	0.	762.32
1103	20.678	5.2727	0.	722.16
1104	20.862	5.2727	0.	682.22
1105	21.047	5.2727	0.	642.49
1106	21.231	5.2727	0.	602.99
1107	21.416	5.2727	0.	563.74
1108	21.601	5.2727	0.	524.74
1109	21.785	5.2727	0.	486.02
1110	21.97	5.2727	0.	447.61
1111	22.154	5.2727	0.	409.56
1112	22.339	5.2727	0.	371.93
1113	22.523	5.2727	0.	334.83
1114	22.708	5.2727	0.	298.39
1115	22.893	5.2727	0.	262.83
1116	23.077	5.2727	0.	228.49
1117	23.262	5.2727	0.	195.89
1118	23.446	5.2727	0.	165.83
1119	23.631	5.2727	0.	139.64
1120	23.815	5.2727	0.	119.38
1121	4.2512	5.0909	0.	3373.6
1122	4.4358	5.0909	0.	3221.1
1123	4.6204	5.0909	0.	3353.5
1124	4.8049	5.0909	0.	3542.8
1125	4.9895	5.0909	0.	3730.9
1126	5.1741	5.0909	0.	3893.5
1127	5.3586	5.0909	0.	4022.6
1128	5.5432	5.0909	0.	4118.2
1129	5.7278	5.0909	0.	4184.1
1130	5.9123	5.0909	0.	4224.7
1131	6.0969	5.0909	0.	4244.6
1132	6.2815	5.0909	0.	4247.8
1133	6.466	5.0909	0.	4237.9
1134	6.6506	5.0909	0.	4217.8
1135	6.8352	5.0909	0.	4189.6
1136	7.0198	5.0909	0.	4155.4
1137	7.2043	5.0909	0.	4116.6
1138	7.3889	5.0909	0.	4074.3
1139	7.5735	5.0909	0.	4029.4
1140	7.758	5.0909	0.	3982.5
1141	7.9426	5.0909	0.	3934.3
1142	8.1272	5.0909	0.	3885.1
1143	8.3117	5.0909	0.	3835.1
1144	8.4963	5.0909	0.	3784.7
1145	8.6809	5.0909	0.	3733.9
1146	8.8654	5.0909	0.	3682.9
1147	9.05	5.0909	0.	3631.9
1148	9.2346	5.0909	0.	3580.8
1149	9.4191	5.0909	0.	3529.7
1150	9.6037	5.0909	0.	3478.6
1151	9.7883	5.0909	0.	3427.6
1152	9.9728	5.0909	0.	3376.8
1153	10.157	5.0909	0.	3326.
1154	10.342	5.0909	0.	3275.4
1155	10.527	5.0909	0.	3224.8
1156	10.711	5.0909	0.	3174.5
1157	10.896	5.0909	0.	3124.2
1158	11.08	5.0909	0.	3074.1
1159	11.265	5.0909	0.	3024.2
1160	11.449	5.0909	0.	2974.4
1161	11.634	5.0909	0.	2924.8
1162	11.819	5.0909	0.	2875.3
1163	12.003	5.0909	0.	2826.
1164	12.188	5.0909	0.	2776.9
1165	12.372	5.0909	0.	2727.9
1166	12.557	5.0909	0.	2679.1
1167	12.741	5.0909	0.	2630.5
1168	12.926	5.0909	0.	2582.
1169	13.11	5.0909	0.	2533.8
1170	13.295	5.0909	0.	2485.7
1171	13.48	5.0909	0.	2437.7
1172	13.664	5.0909	0.	2390.
1173	13.849	5.0909	0.	2342.5
1174	14.033	5.0909	0.	2295.1
1175	14.218	5.0909	0.	2247.9
1176	14.402	5.0909	0.	2200.9
1177	14.587	5.0909	0.	2154.1
1178	14.772	5.0909	0.	2107.5
1179	14.956	5.0909	0.	2061.1
1180	15.141	5.0909	0.	2014.8
1181	15.325	5.0909	0.	1968.8
1182	15.51	5.0909	0.	1923.
1183	15.694	5.0909	0.	1877.3
1184	15.879	5.0909	0.	1831.9
1185	16.064	5.0909	0.	1786.7
1186	16.248	5.0909	0.	1741.6
1187	16.433	5.0909	0.	1696.8
1188	16.617	5.0909	0.	1652.2
1189	16.802	5.0909	0.	1607.7
1190	16.986	5.0909	0.	1563.5
1191	17.171	5.0909	0.	1519.5
1192	17.356	5.0909	0.	1475.6
1193	17.54	5.0909	0.	1432.
1194	17.725	5.0909	0.	1388.6
1195	17.909	5.0909	0.	1345.4
1196	18.094	5.0909	0.	1302.5
1197	18.278	5.0909	0.	1259.7
1198	18.463	5.0909	0.	1217.1
1199	18.648	5.0909	0.	1174.8
1200	18.832	5.0909	0.	1132.6
1201	19.017	5.0909	0.	1090.7
1202	19.201	5.0909	0.	1049.
1203	19.386	5.0909	0.	1007.5
1204	19.57	5.0909	0.	966.22
1205	19.755	5.0909	0.	925.17
1206	19.94	5.0909	0.	884.33
1207	20.124	5.0909	0.	843.72
1208	20.309	5.0909	0.	803.33
1209	20.493	5.0909	0.	763.18
1210	20.678	5.0909	0.	723.26
1211	20.862	5.0909	0.	683.59
1212	21.047	5.0909	0.	644.16
1213	21.231	5.0909	0.	605.01
1214	21.416	5.0909	0.	566.13
1215	21.601	5.0909	0.	527.56
1216	21.785	5.0909	0.	489.32
1217	21.97	5.0909	0.	451.46
1218	22.154	5.0909	0.	414.03
1219	22.339	5.0909	0.	377.12
1220	22.523	5.0909	0.	340.84
1221	22.708	5.0909	0.	305.35
1222	22.893	5.0909	0.	270.88
1223	23.077	5.0909	0.	237.79
1224	23.262	5.0909	0.	206.56
1225	23.446	5.0909	0.	177.94
1226	23.631	5.0909	0.	153.05
1227	23.815	5.0909	0.	133.68
1228	4.2512	4.9091	0.	4244.
1229	4.4358	4.9091	0.	3944.
1230	4.6204	4.9091	0.	3950.2
1231	4.8049	4.9091	0.	4017.5
1232	4.9895	4.9091	0.	4100.1
1233	5.1741	4.9091	0.	4177.3
1234	5.3586	4.9091	0.	4239.1
1235	5.5432	4.9091	0.	4282.5
1236	5.7278	4.9091	0.	4308.
1237	5.9123	4.9091	0.	4317.4
1238	6.0969	4.9091	0.	4313.2
1239	6.2815	4.9091	0.	4297.8
1240	6.466	4.9091	0.	4273.6
1241	6.6506	4.9091	0.	4242.4
1242	6.8352	4.9091	0.	4205.8
1243	7.0198	4.9091	0.	4165.2
1244	7.2043	4.9091	0.	4121.5
1245	7.3889	4.9091	0.	4075.6
1246	7.5735	4.9091	0.	4028.
1247	7.758	4.9091	0.	3979.3
1248	7.9426	4.9091	0.	3929.7
1249	8.1272	4.9091	0.	3879.5
1250	8.3117	4.9091	0.	3829.
1251	8.4963	4.9091	0.	3778.3
1252	8.6809	4.9091	0.	3727.4
1253	8.8654	4.9091	0.	3676.4
1254	9.05	4.9091	0.	3625.4
1255	9.2346	4.9091	0.	3574.5
1256	9.4191	4.9091	0.	3523.6
1257	9.6037	4.9091	0.	3472.8
1258	9.7883	4.9091	0.	3422.1
1259	9.9728	4.9091	0.	3371.5
1260	10.157	4.9091	0.	3321.
1261	10.342	4.9091	0.	3270.7
1262	10.527	4.9091	0.	3220.4
1263	10.711	4.9091	0.	3170.3
1264	10.896	4.9091	0.	3120.3
1265	11.08	4.9091	0.	3070.4
1266	11.265	4.9091	0.	3020.7
1267	11.449	4.9091	0.	2971.1
1268	11.634	4.9091	0.	2921.7
1269	11.819	4.9091	0.	2872.4
1270	12.003	4.9091	0.	2823.2
1271	12.188	4.9091	0.	2774.2
1272	12.372	4.9091	0.	2725.4
1273	12.557	4.9091	0.	2676.7
1274	12.741	4.9091	0.	2628.2
1275	12.926	4.9091	0.	2579.9
1276	13.11	4.9091	0.	2531.7
1277	13.295	4.9091	0.	2483.7
1278	13.48	4.9091	0.	2435.9
1279	13.664	4.9091	0.	2388.2
1280	13.849	4.9091	0.	2340.7
1281	14.033	4.9091	0.	2293.4
1282	14.218	4.9091	0.	2246.3
1283	14.402	4.9091	0.	2199.4
1284	14.587	4.9091	0.	2152.6
1285	14.772	4.9091	0.	2106.
1286	14.956	4.9091	0.	2059.7
1287	15.141	4.9091	0.	2013.5
1288	15.325	4.9091	0.	1967.5
1289	15.51	4.9091	0.	1921.7
1290	15.694	4.9091	0.	1876.1
1291	15.879	4.9091	0.	1830.7
1292	16.064	4.9091	0.	1785.5
1293	16.248	4.9091	0.	1740.5
1294	16.433	4.9091	0.	1695.7
1295	16.617	4.9091	0.	1651.1
1296	16.802	4.9091	0.	1606.7
1297	16.986	4.9091	0.	1562.5
1298	17.171	4.9091	0.	1518.5
1299	17.356	4.9091	0.	1474.8
1300	17.54	4.9091	0.	1431.2
1301	17.725	4.9091	0.	1387.8
1302	17.909	4.9091	0.	1344.7
1303	18.094	4.9091	0.	1301.8
1304	18.278	4.9091	0.	1259.1
1305	18.463	4.9091	0.	1216.6
1306	18.648	4.9091	0.	1174.3
1307	18.832	4.9091	0.	1132.3
1308	19.017	4.9091	0.	1090.5
1309	19.201	4.9091	0.	1048.9
1310	19.386	4.9091	0.	1007.5
1311	19.57	4.9091	0.	966.35
1312	19.755	4.9091	0.	925.44
1313	19.94	4.9091	0.	884.77
1314	20.124	4.9091	0.	844.34
1315	20.309	4.9091	0.	804.16
1316	20.493	4.9091	0.	764.23
1317	20.678	4.9091	0.	724.56
1318	20.862	4.9091	0.	685.16
1319	21.047	4.9091	0.	646.05
1320	21.231	4.9091	0.	607.23
1321	21.416	4.9091	0.	568.73
1322	21.601	4.9091	0.	530.59
1323	21.785	4.9091	0.	492.82
1324	21.97	4.9091	0.	455.5
1325	22.154	4.9091	0.	418.67
1326	22.339	4.9091	0.	382.42
1327	22.523	4.9091	0.	346.89
1328	22.708	4.9091	0.	312.24
1329	22.893	4.9091	0.	278.7
1330	23.077	4.9091	0.	246.61
1331	23.262	4.9091	0.	216.43
1332	23.446	4.9091	0.	188.84
1333	23.631	4.9091	0.	164.85
1334	23.815	4.9091	0.	146.06
1335	4.2512	4.7273	0.	5321.
1336	4.4358	4.7273	0.	4813.
1337	4.6204	4.7273	0.	4641.9
1338	4.8049	4.7273	0.	4553.4
1339	4.9895	4.7273	0.	4508.5
1340	5.1741	4.7273	0.	4486.1
1341	5.3586	4.7273	0.	4471.6
1342	5.5432	4.7273	0.	4457.
1343	5.7278	4.7273	0.	4438.1
1344	5.9123	4.7273	0.	4413.7
1345	6.0969	4.7273	0.	4383.6
1346	6.2815	4.7273	0.	4348.5
1347	6.466	4.7273	0.	4309.2
1348	6.6506	4.7273	0.	4266.5
1349	6.8352	4.7273	0.	4221.3
1350	7.0198	4.7273	0.	4174.2
1351	7.2043	4.7273	0.	4125.6
1352	7.3889	4.7273	0.	4076.2
1353	7.5735	4.7273	0.	4026.
1354	7.758	4.7273	0.	3975.5
1355	7.9426	4.7273	0.	3924.7
1356	8.1272	4.7273	0.	3873.7
1357	8.3117	4.7273	0.	3822.7
1358	8.4963	4.7273	0.	3771.7
1359	8.6809	4.7273	0.	3720.8
1360	8.8654	4.7273	0.	3669.9
1361	9.05	4.7273	0.	3619.1
1362	9.2346	4.7273	0.	3568.4
1363	9.4191	4.7273	0.	3517.7
1364	9.6037	4.7273	0.	3467.2
1365	9.7883	4.7273	0.	3416.8
1366	9.9728	4.7273	0.	3366.5
1367	10.157	4.7273	0.	3316.3
1368	10.342	4.7273	0.	3266.2
1369	10.527	4.7273	0.	3216.2
1370	10.711	4.7273	0.	3166.3
1371	10.896	4.7273	0.	3116.6
1372	11.08	4.7273	0.	3066.9
1373	11.265	4.7273	0.	3017.4
1374	11.449	4.7273	0.	2968.
1375	11.634	4.7273	0.	2918.7
1376	11.819	4.7273	0.	2869.6
1377	12.003	4.7273	0.	2820.6
1378	12.188	4.7273	0.	2771.8
1379	12.372	4.7273	0.	2723.1
1380	12.557	4.7273	0.	2674.5
1381	12.741	4.7273	0.	2626.1
1382	12.926	4.7273	0.	2577.9
1383	13.11	4.7273	0.	2529.8
1384	13.295	4.7273	0.	2481.9
1385	13.48	4.7273	0.	2434.1
1386	13.664	4.7273	0.	2386.5
1387	13.849	4.7273	0.	2339.1
1388	14.033	4.7273	0.	2291.9
1389	14.218	4.7273	0.	2244.8
1390	14.402	4.7273	0.	2197.9
1391	14.587	4.7273	0.	2151.2
1392	14.772	4.7273	0.	2104.7
1393	14.956	4.7273	0.	2058.4
1394	15.141	4.7273	0.	2012.3
1395	15.325	4.7273	0.	1966.3
1396	15.51	4.7273	0.	1920.5
1397	15.694	4.7273	0.	1875.
1398	15.879	4.7273	0.	1829.6
1399	16.064	4.7273	0.	1784.5
1400	16.248	4.7273	0.	1739.5
1401	16.433	4.7273	0.	1694.7
1402	16.617	4.7273	0.	1650.2
1403	16.802	4.7273	0.	1605.8
1404	16.986	4.7273	0.	1561.7
1405	17.171	4.7273	0.	1517.7
1406	17.356	4.7273	0.	1474.
1407	17.54	4.7273	0.	1430.5
1408	17.725	4.7273	0.	1387.2
1409	17.909	4.7273	0.	1344.1
1410	18.094	4.7273	0.	1301.2
1411	18.278	4.7273	0.	1258.6
1412	18.463	4.7273	0.	1216.2
1413	18.648	4.7273	0.	1174.
1414	18.832	4.7273	0.	1132.1
1415	19.017	4.7273	0.	1090.3
1416	19.201	4.7273	0.	1048.8
1417	19.386	4.7273	0.	1007.6
1418	19.57	4.7273	0.	966.6
1419	19.755	4.7273	0.	925.84
1420	19.94	4.7273	0.	885.33
1421	20.124	4.7273	0.	845.09
1422	20.309	4.7273	0.	805.11
1423	20.493	4.7273	0.	765.4
1424	20.678	4.7273	0.	725.98
1425	20.862	4.7273	0.	686.85
1426	21.047	4.7273	0.	648.04
1427	21.231	4.7273	0.	609.56
1428	21.416	4.7273	0.	571.43
1429	21.601	4.7273	0.	533.69
1430	21.785	4.7273	0.	496.38
1431	21.97	4.7273	0.	459.55
1432	22.154	4.7273	0.	423.26
1433	22.339	4.7273	0.	387.63
1434	22.523	4.7273	0.	352.75
1435	22.708	4.7273	0.	318.81
1436	22.893	4.7273	0.	286.04
1437	23.077	4.7273	0.	254.73
1438	23.262	4.7273	0.	225.35
1439	23.446	4.7273	0.	198.51
1440	23.631	4.7273	0.	175.18
1441	23.815	4.7273	0.	156.82
1442	4.2512	4.5455	0.	6729.7
1443	4.4358	4.5455	0.	5853.9
1444	4.6204	4.5455	0.	5425.1
1445	4.8049	4.5455	0.	5130.7
1446	4.9895	4.5455	0.	4938.
1447	5.1741	4.5455	0.	4806.6
1448	5.3586	4.5455	0.	4711.1
1449	5.5432	4.5455	0.	4635.5
1450	5.7278	4.5455	0.	4570.5
1451	5.9123	4.5455	0.	4511.
1452	6.0969	4.5455	0.	4454.2
1453	6.2815	4.5455	0.	4398.8
1454	6.466	4.5455	0.	4344.1
1455	6.6506	4.5455	0.	4289.8
1456	6.8352	4.5455	0.	4235.9
1457	7.0198	4.5455	0.	4182.3
1458	7.2043	4.5455	0.	4129.
1459	7.3889	4.5455	0.	4076.1
1460	7.5735	4.5455	0.	4023.5
1461	7.758	4.5455	0.	3971.3
1462	7.9426	4.5455	0.	3919.4
1463	8.1272	4.5455	0.	3867.7
1464	8.3117	4.5455	0.	3816.3
1465	8.4963	4.5455	0.	3765.2
1466	8.6809	4.5455	0.	3714.3
1467	8.8654	4.5455	0.	3663.5
1468	9.05	4.5455	0.	3612.9
1469	9.2346	4.5455	0.	3562.4
1470	9.4191	4.5455	0.	3512.1
1471	9.6037	4.5455	0.	3461.8
1472	9.7883	4.5455	0.	3411.7
1473	9.9728	4.5455	0.	3361.7
1474	10.157	4.5455	0.	3311.8
1475	10.342	4.5455	0.	3262.
1476	10.527	4.5455	0.	3212.2
1477	10.711	4.5455	0.	3162.6
1478	10.896	4.5455	0.	3113.1
1479	11.08	4.5455	0.	3063.7
1480	11.265	4.5455	0.	3014.3
1481	11.449	4.5455	0.	2965.1
1482	11.634	4.5455	0.	2916.
1483	11.819	4.5455	0.	2867.1
1484	12.003	4.5455	0.	2818.2
1485	12.188	4.5455	0.	2769.5
1486	12.372	4.5455	0.	2721.
1487	12.557	4.5455	0.	2672.5
1488	12.741	4.5455	0.	2624.2
1489	12.926	4.5455	0.	2576.1
1490	13.11	4.5455	0.	2528.1
1491	13.295	4.5455	0.	2480.2
1492	13.48	4.5455	0.	2432.6
1493	13.664	4.5455	0.	2385.
1494	13.849	4.5455	0.	2337.7
1495	14.033	4.5455	0.	2290.5
1496	14.218	4.5455	0.	2243.5
1497	14.402	4.5455	0.	2196.7
1498	14.587	4.5455	0.	2150.
1499	14.772	4.5455	0.	2103.5
1500	14.956	4.5455	0.	2057.3
1501	15.141	4.5455	0.	2011.2
1502	15.325	4.5455	0.	1965.2
1503	15.51	4.5455	0.	1919.5
1504	15.694	4.5455	0.	1874.
1505	15.879	4.5455	0.	1828.7
1506	16.064	4.5455	0.	1783.5
1507	16.248	4.5455	0.	1738.6
1508	16.433	4.5455	0.	1693.9
1509	16.617	4.5455	0.	1649.3
1510	16.802	4.5455	0.	1605.
1511	16.986	4.5455	0.	1560.9
1512	17.171	4.5455	0.	1517.
1513	17.356	4.5455	0.	1473.3
1514	17.54	4.5455	0.	1429.9
1515	17.725	4.5455	0.	1386.6
1516	17.909	4.5455	0.	1343.6
1517	18.094	4.5455	0.	1300.8
1518	18.278	4.5455	0.	1258.2
1519	18.463	4.5455	0.	1215.9
1520	18.648	4.5455	0.	1173.8
1521	18.832	4.5455	0.	1131.9
1522	19.017	4.5455	0.	1090.3
1523	19.201	4.5455	0.	1048.9
1524	19.386	4.5455	0.	1007.8
1525	19.57	4.5455	0.	966.94
1526	19.755	4.5455	0.	926.33
1527	19.94	4.5455	0.	885.98
1528	20.124	4.5455	0.	845.91
1529	20.309	4.5455	0.	806.13
1530	20.493	4.5455	0.	766.64
1531	20.678	4.5455	0.	727.45
1532	20.862	4.5455	0.	688.59
1533	21.047	4.5455	0.	650.06
1534	21.231	4.5455	0.	611.89
1535	21.416	4.5455	0.	574.11
1536	21.601	4.5455	0.	536.75
1537	21.785	4.5455	0.	499.85
1538	21.97	4.5455	0.	463.47
1539	22.154	4.5455	0.	427.67
1540	22.339	4.5455	0.	392.56
1541	22.523	4.5455	0.	358.25
1542	22.708	4.5455	0.	324.9
1543	22.893	4.5455	0.	292.74
1544	23.077	4.5455	0.	262.05
1545	23.262	4.5455	0.	233.28
1546	23.446	4.5455	0.	207.02
1547	23.631	4.5455	0.	184.19
1548	23.815	4.5455	0.	166.14
1549	4.2512	4.3636	0.	8767.2
1550	4.4358	4.3636	0.	7107.4
1551	4.6204	4.3636	0.	6245.7
1552	4.8049	4.3636	0.	5719.5
1553	4.9895	4.3636	0.	5367.2
1554	5.1741	4.3636	0.	5125.8
1555	5.3586	4.3636	0.	4949.
1556	5.5432	4.3636	0.	4812.5
1557	5.7278	4.3636	0.	4701.4
1558	5.9123	4.3636	0.	4606.8
1559	6.0969	4.3636	0.	4523.3
1560	6.2815	4.3636	0.	4447.6
1561	6.466	4.3636	0.	4377.6
1562	6.6506	4.3636	0.	4311.8
1563	6.8352	4.3636	0.	4249.4
1564	7.0198	4.3636	0.	4189.5
1565	7.2043	4.3636	0.	4131.6
1566	7.3889	4.3636	0.	4075.5
1567	7.5735	4.3636	0.	4020.6
1568	7.758	4.3636	0.	3966.8
1569	7.9426	4.3636	0.	3913.9
1570	8.1272	4.3636	0.	3861.7
1571	8.3117	4.3636	0.	3810.
1572	8.4963	4.3636	0.	3758.8
1573	8.6809	4.3636	0.	3707.9
1574	8.8654	4.3636	0.	3657.3
1575	9.05	4.3636	0.	3606.9
1576	9.2346	4.3636	0.	3556.7
1577	9.4191	4.3636	0.	3506.7
1578	9.6037	4.3636	0.	3456.8
1579	9.7883	4.3636	0.	3406.9
1580	9.9728	4.3636	0.	3357.2
1581	10.157	4.3636	0.	3307.6
1582	10.342	4.3636	0.	3258.
1583	10.527	4.3636	0.	3208.6
1584	10.711	4.3636	0.	3159.2
1585	10.896	4.3636	0.	3109.9
1586	11.08	4.3636	0.	3060.7
1587	11.265	4.3636	0.	3011.5
1588	11.449	4.3636	0.	2962.5
1589	11.634	4.3636	0.	2913.6
1590	11.819	4.3636	0.	2864.8
1591	12.003	4.3636	0.	2816.1
1592	12.188	4.3636	0.	2767.5
1593	12.372	4.3636	0.	2719.
1594	12.557	4.3636	0.	2670.7
1595	12.741	4.3636	0.	2622.5
1596	12.926	4.3636	0.	2574.4
1597	13.11	4.3636	0.	2526.5
1598	13.295	4.3636	0.	2478.8
1599	13.48	4.3636	0.	2431.1
1600	13.664	4.3636	0.	2383.7
1601	13.849	4.3636	0.	2336.4
1602	14.033	4.3636	0.	2289.3
1603	14.218	4.3636	0.	2242.3
1604	14.402	4.3636	0.	2195.5
1605	14.587	4.3636	0.	2148.9
1606	14.772	4.3636	0.	2102.5
1607	14.956	4.3636	0.	2056.2
1608	15.141	4.3636	0.	2010.2
1609	15.325	4.3636	0.	1964.3
1610	15.51	4.3636	0.	1918.6
1611	15.694	4.3636	0.	1873.1
1612	15.879	4.3636	0.	1827.8
1613	16.064	4.3636	0.	1782.7
1614	16.248	4.3636	0.	1737.8
1615	16.433	4.3636	0.	1693.1
1616	16.617	4.3636	0.	1648.6
1617	16.802	4.3636	0.	1604.4
1618	16.986	4.3636	0.	1560.3
1619	17.171	4.3636	0.	1516.4
1620	17.356	4.3636	0.	1472.8
1621	17.54	4.3636	0.	1429.4
1622	17.725	4.3636	0.	1386.2
1623	17.909	4.3636	0.	1343.2
1624	18.094	4.3636	0.	1300.5
1625	18.278	4.3636	0.	1258.
1626	18.463	4.3636	0.	1215.7
1627	18.648	4.3636	0.	1173.7
1628	18.832	4.3636	0.	1131.9
1629	19.017	4.3636	0.	1090.4
1630	19.201	4.3636	0.	1049.1
1631	19.386	4.3636	0.	1008.1
1632	19.57	4.3636	0.	967.33
1633	19.755	4.3636	0.	926.86
1634	19.94	4.3636	0.	886.67
1635	20.124	4.3636	0.	846.77
1636	20.309	4.3636	0.	807.17
1637	20.493	4.3636	0.	767.88
1638	20.678	4.3636	0.	728.91
1639	20.862	4.3636	0.	690.29
1640	21.047	4.3636	0.	652.03
1641	21.231	4.3636	0.	614.15
1642	21.416	4.3636	0.	576.69
1643	21.601	4.3636	0.	539.67
1644	21.785	4.3636	0.	503.14
1645	21.97	4.3636	0.	467.15
1646	22.154	4.3636	0.	431.78
1647	22.339	4.3636	0.	397.11
1648	22.523	4.3636	0.	363.27
1649	22.708	4.3636	0.	330.4
1650	22.893	4.3636	0.	298.73
1651	23.077	4.3636	0.	268.53
1652	23.262	4.3636	0.	240.24
1653	23.446	4.3636	0.	214.42
1654	23.631	4.3636	0.	191.98
1655	23.815	4.3636	0.	174.18
1656	4.2512	4.1818	0.	11788
1657	4.4358	4.1818	0.	8463.5
1658	4.6204	4.1818	0.	7047.4
1659	4.8049	4.1818	0.	6281.4
1660	4.9895	4.1818	0.	5781.2
1661	5.1741	4.1818	0.	5434.2
1662	5.3586	4.1818	0.	5179.5
1663	5.5432	4.1818	0.	4984.1
1664	5.7278	4.1818	0.	4828.
1665	5.9123	4.1818	0.	4699.1
1666	6.0969	4.1818	0.	4589.5
1667	6.2815	4.1818	0.	4494.1
1668	6.466	4.1818	0.	4409.2
1669	6.6506	4.1818	0.	4332.3
1670	6.8352	4.1818	0.	4261.7
1671	7.0198	4.1818	0.	4195.8
1672	7.2043	4.1818	0.	4133.6
1673	7.3889	4.1818	0.	4074.4
1674	7.5735	4.1818	0.	4017.5
1675	7.758	4.1818	0.	3962.3
1676	7.9426	4.1818	0.	3908.5
1677	8.1272	4.1818	0.	3855.8
1678	8.3117	4.1818	0.	3803.9
1679	8.4963	4.1818	0.	3752.7
1680	8.6809	4.1818	0.	3701.9
1681	8.8654	4.1818	0.	3651.5
1682	9.05	4.1818	0.	3601.4
1683	9.2346	4.1818	0.	3551.4
1684	9.4191	4.1818	0.	3501.7
1685	9.6037	4.1818	0.	3452.1
1686	9.7883	4.1818	0.	3402.6
1687	9.9728	4.1818	0.	3353.1
1688	10.157	4.1818	0.	3303.8
1689	10.342	4.1818	0.	3254.5
1690	10.527	4.1818	0.	3205.2
1691	10.711	4.1818	0.	3156.1
1692	10.896	4.1818	0.	3107.
1693	11.08	4.1818	0.	3058.
1694	11.265	4.1818	0.	3009.
1695	11.449	4.1818	0.	2960.1
1696	11.634	4.1818	0.	2911.4
1697	11.819	4.1818	0.	2862.7
1698	12.003	4.1818	0.	2814.1
1699	12.188	4.1818	0.	2765.6
1700	12.372	4.1818	0.	2717.3
1701	12.557	4.1818	0.	2669.1
1702	12.741	4.1818	0.	2620.9
1703	12.926	4.1818	0.	2573.
1704	13.11	4.1818	0.	2525.1
1705	13.295	4.1818	0.	2477.4
1706	13.48	4.1818	0.	2429.9
1707	13.664	4.1818	0.	2382.5
1708	13.849	4.1818	0.	2335.3
1709	14.033	4.1818	0.	2288.2
1710	14.218	4.1818	0.	2241.3
1711	14.402	4.1818	0.	2194.5
1712	14.587	4.1818	0.	2148.
1713	14.772	4.1818	0.	2101.6
1714	14.956	4.1818	0.	2055.3
1715	15.141	4.1818	0.	2009.3
1716	15.325	4.1818	0.	1963.5
1717	15.51	4.1818	0.	1917.8
1718	15.694	4.1818	0.	1872.4
1719	15.879	4.1818	0.	1827.1
1720	16.064	4.1818	0.	1782.
1721	16.248	4.1818	0.	1737.1
1722	16.433	4.1818	0.	1692.5
1723	16.617	4.1818	0.	1648.
1724	16.802	4.1818	0.	1603.8
1725	16.986	4.1818	0.	1559.7
1726	17.171	4.1818	0.	1515.9
1727	17.356	4.1818	0.	1472.3
1728	17.54	4.1818	0.	1429.
1729	17.725	4.1818	0.	1385.8
1730	17.909	4.1818	0.	1342.9
1731	18.094	4.1818	0.	1300.2
1732	18.278	4.1818	0.	1257.8
1733	18.463	4.1818	0.	1215.6
1734	18.648	4.1818	0.	1173.6
1735	18.832	4.1818	0.	1131.9
1736	19.017	4.1818	0.	1090.5
1737	19.201	4.1818	0.	1049.3
1738	19.386	4.1818	0.	1008.4
1739	19.57	4.1818	0.	967.75
1740	19.755	4.1818	0.	927.41
1741	19.94	4.1818	0.	887.35
1742	20.124	4.1818	0.	847.61
1743	20.309	4.1818	0.	808.18
1744	20.493	4.1818	0.	769.07
1745	20.678	4.1818	0.	730.31
1746	20.862	4.1818	0.	691.91
1747	21.047	4.1818	0.	653.89
1748	21.231	4.1818	0.	616.27
1749	21.416	4.1818	0.	579.08
1750	21.601	4.1818	0.	542.36
1751	21.785	4.1818	0.	506.15
1752	21.97	4.1818	0.	470.51
1753	22.154	4.1818	0.	435.49
1754	22.339	4.1818	0.	401.2
1755	22.523	4.1818	0.	367.74
1756	22.708	4.1818	0.	335.26
1757	22.893	4.1818	0.	303.98
1758	23.077	4.1818	0.	274.17
1759	23.262	4.1818	0.	246.24
1760	23.446	4.1818	0.	220.78
1761	23.631	4.1818	0.	198.65
1762	23.815	4.1818	0.	181.03
1763	4.2512	4.	0.	14246
1764	4.4358	4.	0.	9477.3
1765	4.6204	4.	0.	7779.
1766	4.8049	4.	0.	6809.3
1767	4.9895	4.	0.	6171.7
1768	5.1741	4.	0.	5727.2
1769	5.3586	4.	0.	5398.6
1770	5.5432	4.	0.	5147.
1771	5.7278	4.	0.	4947.9
1772	5.9123	4.	0.	4786.1
1773	6.0969	4.	0.	4651.6
1774	6.2815	4.	0.	4537.3
1775	6.466	4.	0.	4438.3
1776	6.6506	4.	0.	4351.
1777	6.8352	4.	0.	4272.6
1778	7.0198	4.	0.	4201.2
1779	7.2043	4.	0.	4135.1
1780	7.3889	4.	0.	4073.1
1781	7.5735	4.	0.	4014.3
1782	7.758	4.	0.	3957.9
1783	7.9426	4.	0.	3903.4
1784	8.1272	4.	0.	3850.3
1785	8.3117	4.	0.	3798.2
1786	8.4963	4.	0.	3747.
1787	8.6809	4.	0.	3696.3
1788	8.8654	4.	0.	3646.2
1789	9.05	4.	0.	3596.3
1790	9.2346	4.	0.	3546.7
1791	9.4191	4.	0.	3497.2
1792	9.6037	4.	0.	3447.9
1793	9.7883	4.	0.	3398.6
1794	9.9728	4.	0.	3349.5
1795	10.157	4.	0.	3300.4
1796	10.342	4.	0.	3251.3
1797	10.527	4.	0.	3202.3
1798	10.711	4.	0.	3153.3
1799	10.896	4.	0.	3104.4
1800	11.08	4.	0.	3055.6
1801	11.265	4.	0.	3006.8
1802	11.449	4.	0.	2958.1
1803	11.634	4.	0.	2909.4
1804	11.819	4.	0.	2860.9
1805	12.003	4.	0.	2812.4
1806	12.188	4.	0.	2764.1
1807	12.372	4.	0.	2715.8
1808	12.557	4.	0.	2667.6
1809	12.741	4.	0.	2619.6
1810	12.926	4.	0.	2571.7
1811	13.11	4.	0.	2523.9
1812	13.295	4.	0.	2476.3
1813	13.48	4.	0.	2428.8
1814	13.664	4.	0.	2381.5
1815	13.849	4.	0.	2334.3
1816	14.033	4.	0.	2287.2
1817	14.218	4.	0.	2240.4
1818	14.402	4.	0.	2193.7
1819	14.587	4.	0.	2147.1
1820	14.772	4.	0.	2100.8
1821	14.956	4.	0.	2054.6
1822	15.141	4.	0.	2008.6
1823	15.325	4.	0.	1962.8
1824	15.51	4.	0.	1917.1
1825	15.694	4.	0.	1871.7
1826	15.879	4.	0.	1826.5
1827	16.064	4.	0.	1781.4
1828	16.248	4.	0.	1736.6
1829	16.433	4.	0.	1691.9
1830	16.617	4.	0.	1647.5
1831	16.802	4.	0.	1603.3
1832	16.986	4.	0.	1559.3
1833	17.171	4.	0.	1515.5
1834	17.356	4.	0.	1472.
1835	17.54	4.	0.	1428.6
1836	17.725	4.	0.	1385.5
1837	17.909	4.	0.	1342.6
1838	18.094	4.	0.	1300.
1839	18.278	4.	0.	1257.6
1840	18.463	4.	0.	1215.5
1841	18.648	4.	0.	1173.6
1842	18.832	4.	0.	1132.
1843	19.017	4.	0.	1090.6
1844	19.201	4.	0.	1049.5
1845	19.386	4.	0.	1008.7
1846	19.57	4.	0.	968.16
1847	19.755	4.	0.	927.93
1848	19.94	4.	0.	888.01
1849	20.124	4.	0.	848.4
1850	20.309	4.	0.	809.11
1851	20.493	4.	0.	770.17
1852	20.678	4.	0.	731.59
1853	20.862	4.	0.	693.38
1854	21.047	4.	0.	655.57
1855	21.231	4.	0.	618.18
1856	21.416	4.	0.	581.23
1857	21.601	4.	0.	544.77
1858	21.785	4.	0.	508.83
1859	21.97	4.	0.	473.47
1860	22.154	4.	0.	438.75
1861	22.339	4.	0.	404.77
1862	22.523	4.	0.	371.61
1863	22.708	4.	0.	339.45
1864	22.893	4.	0.	308.47
1865	23.077	4.	0.	278.96
1866	23.262	4.	0.	251.33
1867	23.446	4.	0.	226.14
1868	23.631	4.	0.	204.25
1869	23.815	4.	0.	186.79
1870	4.2512	3.8182	0.	13955
1871	4.4358	3.8182	0.	10329
1872	4.6204	3.8182	0.	8402.3
1873	4.8049	3.8182	0.	7287.3
1874	4.9895	3.8182	0.	6533.1
1875	5.1741	3.8182	0.	5999.3
1876	5.3586	3.8182	0.	5602.2
1877	5.5432	3.8182	0.	5297.9
1878	5.7278	3.8182	0.	5058.4
1879	5.9123	3.8182	0.	4865.9
1880	6.0969	3.8182	0.	4708.1
1881	6.2815	3.8182	0.	4576.3
1882	6.466	3.8182	0.	4464.4
1883	6.6506	3.8182	0.	4367.5
1884	6.8352	3.8182	0.	4282.2
1885	7.0198	3.8182	0.	4205.8
1886	7.2043	3.8182	0.	4136.1
1887	7.3889	3.8182	0.	4071.7
1888	7.5735	3.8182	0.	4011.2
1889	7.758	3.8182	0.	3953.8
1890	7.9426	3.8182	0.	3898.7
1891	8.1272	3.8182	0.	3845.3
1892	8.3117	3.8182	0.	3793.1
1893	8.4963	3.8182	0.	3741.9
1894	8.6809	3.8182	0.	3691.4
1895	8.8654	3.8182	0.	3641.5
1896	9.05	3.8182	0.	3591.8
1897	9.2346	3.8182	0.	3542.5
1898	9.4191	3.8182	0.	3493.3
1899	9.6037	3.8182	0.	3444.2
1900	9.7883	3.8182	0.	3395.2
1901	9.9728	3.8182	0.	3346.3
1902	10.157	3.8182	0.	3297.4
1903	10.342	3.8182	0.	3248.6
1904	10.527	3.8182	0.	3199.8
1905	10.711	3.8182	0.	3151.
1906	10.896	3.8182	0.	3102.3
1907	11.08	3.8182	0.	3053.6
1908	11.265	3.8182	0.	3004.9
1909	11.449	3.8182	0.	2956.3
1910	11.634	3.8182	0.	2907.8
1911	11.819	3.8182	0.	2859.4
1912	12.003	3.8182	0.	2811.
1913	12.188	3.8182	0.	2762.7
1914	12.372	3.8182	0.	2714.5
1915	12.557	3.8182	0.	2666.5
1916	12.741	3.8182	0.	2618.5
1917	12.926	3.8182	0.	2570.6
1918	13.11	3.8182	0.	2522.9
1919	13.295	3.8182	0.	2475.3
1920	13.48	3.8182	0.	2427.9
1921	13.664	3.8182	0.	2380.6
1922	13.849	3.8182	0.	2333.5
1923	14.033	3.8182	0.	2286.5
1924	14.218	3.8182	0.	2239.6
1925	14.402	3.8182	0.	2192.9
1926	14.587	3.8182	0.	2146.4
1927	14.772	3.8182	0.	2100.1
1928	14.956	3.8182	0.	2053.9
1929	15.141	3.8182	0.	2008.
1930	15.325	3.8182	0.	1962.2
1931	15.51	3.8182	0.	1916.6
1932	15.694	3.8182	0.	1871.2
1933	15.879	3.8182	0.	1825.9
1934	16.064	3.8182	0.	1780.9
1935	16.248	3.8182	0.	1736.1
1936	16.433	3.8182	0.	1691.5
1937	16.617	3.8182	0.	1647.1
1938	16.802	3.8182	0.	1602.9
1939	16.986	3.8182	0.	1558.9
1940	17.171	3.8182	0.	1515.2
1941	17.356	3.8182	0.	1471.7
1942	17.54	3.8182	0.	1428.4
1943	17.725	3.8182	0.	1385.3
1944	17.909	3.8182	0.	1342.5
1945	18.094	3.8182	0.	1299.9
1946	18.278	3.8182	0.	1257.5
1947	18.463	3.8182	0.	1215.4
1948	18.648	3.8182	0.	1173.6
1949	18.832	3.8182	0.	1132.
1950	19.017	3.8182	0.	1090.7
1951	19.201	3.8182	0.	1049.7
1952	19.386	3.8182	0.	1009.
1953	19.57	3.8182	0.	968.55
1954	19.755	3.8182	0.	928.41
1955	19.94	3.8182	0.	888.6
1956	20.124	3.8182	0.	849.1
1957	20.309	3.8182	0.	809.95
1958	20.493	3.8182	0.	771.15
1959	20.678	3.8182	0.	732.72
1960	20.862	3.8182	0.	694.67
1961	21.047	3.8182	0.	657.04
1962	21.231	3.8182	0.	619.83
1963	21.416	3.8182	0.	583.09
1964	21.601	3.8182	0.	546.84
1965	21.785	3.8182	0.	511.13
1966	21.97	3.8182	0.	476.
1967	22.154	3.8182	0.	441.52
1968	22.339	3.8182	0.	407.77
1969	22.523	3.8182	0.	374.87
1970	22.708	3.8182	0.	342.94
1971	22.893	3.8182	0.	312.2
1972	23.077	3.8182	0.	282.93
1973	23.262	3.8182	0.	255.52
1974	23.446	3.8182	0.	230.55
1975	23.631	3.8182	0.	208.85
1976	23.815	3.8182	0.	191.5
1977	4.2512	3.6364	0.	13187
1978	4.4358	3.6364	0.	10635
1979	4.6204	3.6364	0.	8877.7
1980	4.8049	3.6364	0.	7683.3
1981	4.9895	3.6364	0.	6848.9
1982	5.1741	3.6364	0.	6240.3
1983	5.3586	3.6364	0.	5783.2
1984	5.5432	3.6364	0.	5431.5
1985	5.7278	3.6364	0.	5155.7
1986	5.9123	3.6364	0.	4935.7
1987	6.0969	3.6364	0.	4757.2
1988	6.2815	3.6364	0.	4610.
1989	6.466	3.6364	0.	4486.7
1990	6.6506	3.6364	0.	4381.5
1991	6.8352	3.6364	0.	4290.2
1992	7.0198	3.6364	0.	4209.5
1993	7.2043	3.6364	0.	4136.8
1994	7.3889	3.6364	0.	4070.4
1995	7.5735	3.6364	0.	4008.6
1996	7.758	3.6364	0.	3950.3
1997	7.9426	3.6364	0.	3894.6
1998	8.1272	3.6364	0.	3841.
1999	8.3117	3.6364	0.	3788.8
2000	8.4963	3.6364	0.	3737.7
2001	8.6809	3.6364	0.	3687.3
2002	8.8654	3.6364	0.	3637.5
2003	9.05	3.6364	0.	3588.1
2004	9.2346	3.6364	0.	3539.
2005	9.4191	3.6364	0.	3490.
2006	9.6037	3.6364	0.	3441.2
2007	9.7883	3.6364	0.	3392.4
2008	9.9728	3.6364	0.	3343.7
2009	10.157	3.6364	0.	3295.
2010	10.342	3.6364	0.	3246.3
2011	10.527	3.6364	0.	3197.7
2012	10.711	3.6364	0.	3149.1
2013	10.896	3.6364	0.	3100.5
2014	11.08	3.6364	0.	3051.9
2015	11.265	3.6364	0.	3003.4
2016	11.449	3.6364	0.	2954.9
2017	11.634	3.6364	0.	2906.5
2018	11.819	3.6364	0.	2858.1
2019	12.003	3.6364	0.	2809.8
2020	12.188	3.6364	0.	2761.6
2021	12.372	3.6364	0.	2713.5
2022	12.557	3.6364	0.	2665.5
2023	12.741	3.6364	0.	2617.6
2024	12.926	3.6364	0.	2569.8
2025	13.11	3.6364	0.	2522.1
2026	13.295	3.6364	0.	2474.6
2027	13.48	3.6364	0.	2427.2
2028	13.664	3.6364	0.	2379.9
2029	13.849	3.6364	0.	2332.8
2030	14.033	3.6364	0.	2285.8
2031	14.218	3.6364	0.	2239.
2032	14.402	3.6364	0.	2192.4
2033	14.587	3.6364	0.	2145.9
2034	14.772	3.6364	0.	2099.6
2035	14.956	3.6364	0.	2053.4
2036	15.141	3.6364	0.	2007.5
2037	15.325	3.6364	0.	1961.7
2038	15.51	3.6364	0.	1916.1
2039	15.694	3.6364	0.	1870.7
2040	15.879	3.6364	0.	1825.5
2041	16.064	3.6364	0.	1780.5
2042	16.248	3.6364	0.	1735.7
2043	16.433	3.6364	0.	1691.2
2044	16.617	3.6364	0.	1646.8
2045	16.802	3.6364	0.	1602.6
2046	16.986	3.6364	0.	1558.7
2047	17.171	3.6364	0.	1514.9
2048	17.356	3.6364	0.	1471.4
2049	17.54	3.6364	0.	1428.1
2050	17.725	3.6364	0.	1385.1
2051	17.909	3.6364	0.	1342.3
2052	18.094	3.6364	0.	1299.8
2053	18.278	3.6364	0.	1257.5
2054	18.463	3.6364	0.	1215.4
2055	18.648	3.6364	0.	1173.6
2056	18.832	3.6364	0.	1132.1
2057	19.017	3.6364	0.	1090.9
2058	19.201	3.6364	0.	1049.9
2059	19.386	3.6364	0.	1009.2
2060	19.57	3.6364	0.	968.88
2061	19.755	3.6364	0.	928.83
2062	19.94	3.6364	0.	889.1
2063	20.124	3.6364	0.	849.7
2064	20.309	3.6364	0.	810.65
2065	20.493	3.6364	0.	771.97
2066	20.678	3.6364	0.	733.66
2067	20.862	3.6364	0.	695.75
2068	21.047	3.6364	0.	658.25
2069	21.231	3.6364	0.	621.2
2070	21.416	3.6364	0.	584.62
2071	21.601	3.6364	0.	548.54
2072	21.785	3.6364	0.	513.
2073	21.97	3.6364	0.	478.05
2074	22.154	3.6364	0.	443.76
2075	22.339	3.6364	0.	410.2
2076	22.523	3.6364	0.	377.48
2077	22.708	3.6364	0.	345.74
2078	22.893	3.6364	0.	315.18
2079	23.077	3.6364	0.	286.08
2080	23.262	3.6364	0.	258.85
2081	23.446	3.6364	0.	234.04
2082	23.631	3.6364	0.	212.48
2083	23.815	3.6364	0.	195.22
2084	4.2512	3.4545	0.	12234
2085	4.4358	3.4545	0.	10612
2086	4.6204	3.4545	0.	9127.5
2087	4.8049	3.4545	0.	7970.1
2088	4.9895	3.4545	0.	7096.3
2089	5.1741	3.4545	0.	6435.9
2090	5.3586	3.4545	0.	5931.4
2091	5.5432	3.4545	0.	5541.1
2092	5.7278	3.4545	0.	5235.2
2093	5.9123	3.4545	0.	4992.3
2094	6.0969	3.4545	0.	4796.8
2095	6.2815	3.4545	0.	4637.
2096	6.466	3.4545	0.	4504.4
2097	6.6506	3.4545	0.	4392.6
2098	6.8352	3.4545	0.	4296.5
2099	7.0198	3.4545	0.	4212.3
2100	7.2043	3.4545	0.	4137.3
2101	7.3889	3.4545	0.	4069.3
2102	7.5735	3.4545	0.	4006.4
2103	7.758	3.4545	0.	3947.5
2104	7.9426	3.4545	0.	3891.5
2105	8.1272	3.4545	0.	3837.6
2106	8.3117	3.4545	0.	3785.4
2107	8.4963	3.4545	0.	3734.3
2108	8.6809	3.4545	0.	3684.1
2109	8.8654	3.4545	0.	3634.4
2110	9.05	3.4545	0.	3585.2
2111	9.2346	3.4545	0.	3536.3
2112	9.4191	3.4545	0.	3487.5
2113	9.6037	3.4545	0.	3438.8
2114	9.7883	3.4545	0.	3390.2
2115	9.9728	3.4545	0.	3341.7
2116	10.157	3.4545	0.	3293.1
2117	10.342	3.4545	0.	3244.6
2118	10.527	3.4545	0.	3196.1
2119	10.711	3.4545	0.	3147.6
2120	10.896	3.4545	0.	3099.1
2121	11.08	3.4545	0.	3050.7
2122	11.265	3.4545	0.	3002.2
2123	11.449	3.4545	0.	2953.8
2124	11.634	3.4545	0.	2905.5
2125	11.819	3.4545	0.	2857.2
2126	12.003	3.4545	0.	2808.9
2127	12.188	3.4545	0.	2760.8
2128	12.372	3.4545	0.	2712.7
2129	12.557	3.4545	0.	2664.8
2130	12.741	3.4545	0.	2616.9
2131	12.926	3.4545	0.	2569.1
2132	13.11	3.4545	0.	2521.5
2133	13.295	3.4545	0.	2474.
2134	13.48	3.4545	0.	2426.6
2135	13.664	3.4545	0.	2379.4
2136	13.849	3.4545	0.	2332.3
2137	14.033	3.4545	0.	2285.3
2138	14.218	3.4545	0.	2238.6
2139	14.402	3.4545	0.	2191.9
2140	14.587	3.4545	0.	2145.5
2141	14.772	3.4545	0.	2099.2
2142	14.956	3.4545	0.	2053.1
2143	15.141	3.4545	0.	2007.1
2144	15.325	3.4545	0.	1961.4
2145	15.51	3.4545	0.	1915.8
2146	15.694	3.4545	0.	1870.4
2147	15.879	3.4545	0.	1825.2
2148	16.064	3.4545	0.	1780.3
2149	16.248	3.4545	0.	1735.5
2150	16.433	3.4545	0.	1690.9
2151	16.617	3.4545	0.	1646.5
2152	16.802	3.4545	0.	1602.4
2153	16.986	3.4545	0.	1558.4
2154	17.171	3.4545	0.	1514.7
2155	17.356	3.4545	0.	1471.2
2156	17.54	3.4545	0.	1428.
2157	17.725	3.4545	0.	1385.
2158	17.909	3.4545	0.	1342.2
2159	18.094	3.4545	0.	1299.7
2160	18.278	3.4545	0.	1257.4
2161	18.463	3.4545	0.	1215.4
2162	18.648	3.4545	0.	1173.6
2163	18.832	3.4545	0.	1132.2
2164	19.017	3.4545	0.	1091.
2165	19.201	3.4545	0.	1050.1
2166	19.386	3.4545	0.	1009.4
2167	19.57	3.4545	0.	969.14
2168	19.755	3.4545	0.	929.15
2169	19.94	3.4545	0.	889.49
2170	20.124	3.4545	0.	850.17
2171	20.309	3.4545	0.	811.2
2172	20.493	3.4545	0.	772.6
2173	20.678	3.4545	0.	734.39
2174	20.862	3.4545	0.	696.58
2175	21.047	3.4545	0.	659.19
2176	21.231	3.4545	0.	622.25
2177	21.416	3.4545	0.	585.79
2178	21.601	3.4545	0.	549.83
2179	21.785	3.4545	0.	514.43
2180	21.97	3.4545	0.	479.61
2181	22.154	3.4545	0.	445.46
2182	22.339	3.4545	0.	412.03
2183	22.523	3.4545	0.	379.44
2184	22.708	3.4545	0.	347.84
2185	22.893	3.4545	0.	317.41
2186	23.077	3.4545	0.	288.43
2187	23.262	3.4545	0.	261.32
2188	23.446	3.4545	0.	236.64
2189	23.631	3.4545	0.	215.18
2190	23.815	3.4545	0.	197.98
2191	4.2512	3.2727	0.	11670
2192	4.4358	3.2727	0.	10476
2193	4.6204	3.2727	0.	9229.2
2194	4.8049	3.2727	0.	8141.
2195	4.9895	3.2727	0.	7261.9
2196	5.1741	3.2727	0.	6572.7
2197	5.3586	3.2727	0.	6036.8
2198	5.5432	3.2727	0.	5619.3
2199	5.7278	3.2727	0.	5291.9
2200	5.9123	3.2727	0.	5032.5
2201	6.0969	3.2727	0.	4824.7
2202	6.2815	3.2727	0.	4656.
2203	6.466	3.2727	0.	4516.8
2204	6.6506	3.2727	0.	4400.2
2205	6.8352	3.2727	0.	4300.8
2206	7.0198	3.2727	0.	4214.3
2207	7.2043	3.2727	0.	4137.7
2208	7.3889	3.2727	0.	4068.5
2209	7.5735	3.2727	0.	4004.9
2210	7.758	3.2727	0.	3945.5
2211	7.9426	3.2727	0.	3889.2
2212	8.1272	3.2727	0.	3835.3
2213	8.3117	3.2727	0.	3783.1
2214	8.4963	3.2727	0.	3732.
2215	8.6809	3.2727	0.	3681.9
2216	8.8654	3.2727	0.	3632.3
2217	9.05	3.2727	0.	3583.2
2218	9.2346	3.2727	0.	3534.4
2219	9.4191	3.2727	0.	3485.8
2220	9.6037	3.2727	0.	3437.2
2221	9.7883	3.2727	0.	3388.8
2222	9.9728	3.2727	0.	3340.3
2223	10.157	3.2727	0.	3291.9
2224	10.342	3.2727	0.	3243.5
2225	10.527	3.2727	0.	3195.
2226	10.711	3.2727	0.	3146.6
2227	10.896	3.2727	0.	3098.2
2228	11.08	3.2727	0.	3049.8
2229	11.265	3.2727	0.	3001.4
2230	11.449	3.2727	0.	2953.1
2231	11.634	3.2727	0.	2904.8
2232	11.819	3.2727	0.	2856.5
2233	12.003	3.2727	0.	2808.3
2234	12.188	3.2727	0.	2760.2
2235	12.372	3.2727	0.	2712.2
2236	12.557	3.2727	0.	2664.3
2237	12.741	3.2727	0.	2616.4
2238	12.926	3.2727	0.	2568.7
2239	13.11	3.2727	0.	2521.1
2240	13.295	3.2727	0.	2473.6
2241	13.48	3.2727	0.	2426.3
2242	13.664	3.2727	0.	2379.
2243	13.849	3.2727	0.	2332.
2244	14.033	3.2727	0.	2285.
2245	14.218	3.2727	0.	2238.3
2246	14.402	3.2727	0.	2191.6
2247	14.587	3.2727	0.	2145.2
2248	14.772	3.2727	0.	2098.9
2249	14.956	3.2727	0.	2052.8
2250	15.141	3.2727	0.	2006.9
2251	15.325	3.2727	0.	1961.1
2252	15.51	3.2727	0.	1915.6
2253	15.694	3.2727	0.	1870.2
2254	15.879	3.2727	0.	1825.
2255	16.064	3.2727	0.	1780.1
2256	16.248	3.2727	0.	1735.3
2257	16.433	3.2727	0.	1690.7
2258	16.617	3.2727	0.	1646.4
2259	16.802	3.2727	0.	1602.2
2260	16.986	3.2727	0.	1558.3
2261	17.171	3.2727	0.	1514.6
2262	17.356	3.2727	0.	1471.1
2263	17.54	3.2727	0.	1427.9
2264	17.725	3.2727	0.	1384.9
2265	17.909	3.2727	0.	1342.1
2266	18.094	3.2727	0.	1299.6
2267	18.278	3.2727	0.	1257.4
2268	18.463	3.2727	0.	1215.4
2269	18.648	3.2727	0.	1173.7
2270	18.832	3.2727	0.	1132.2
2271	19.017	3.2727	0.	1091.
2272	19.201	3.2727	0.	1050.2
2273	19.386	3.2727	0.	1009.6
2274	19.57	3.2727	0.	969.32
2275	19.755	3.2727	0.	929.38
2276	19.94	3.2727	0.	889.76
2277	20.124	3.2727	0.	850.49
2278	20.309	3.2727	0.	811.57
2279	20.493	3.2727	0.	773.03
2280	20.678	3.2727	0.	734.88
2281	20.862	3.2727	0.	697.14
2282	21.047	3.2727	0.	659.83
2283	21.231	3.2727	0.	622.96
2284	21.416	3.2727	0.	586.58
2285	21.601	3.2727	0.	550.71
2286	21.785	3.2727	0.	515.39
2287	21.97	3.2727	0.	480.66
2288	22.154	3.2727	0.	446.59
2289	22.339	3.2727	0.	413.25
2290	22.523	3.2727	0.	380.75
2291	22.708	3.2727	0.	349.23
2292	22.893	3.2727	0.	318.89
2293	23.077	3.2727	0.	290.
2294	23.262	3.2727	0.	262.97
2295	23.446	3.2727	0.	238.36
2296	23.631	3.2727	0.	216.97
2297	23.815	3.2727	0.	199.81
2298	4.2512	3.0909	0.	11402
2299	4.4358	3.0909	0.	10387
2300	4.6204	3.0909	0.	9259.1
2301	4.8049	3.0909	0.	8217.8
2302	4.9895	3.0909	0.	7343.5
2303	5.1741	3.0909	0.	6642.6
2304	5.3586	3.0909	0.	6091.4
2305	5.5432	3.0909	0.	5660.1
2306	5.7278	3.0909	0.	5321.4
2307	5.9123	3.0909	0.	5053.4
2308	6.0969	3.0909	0.	4839.2
2309	6.2815	3.0909	0.	4665.8
2310	6.466	3.0909	0.	4523.2
2311	6.6506	3.0909	0.	4404.2
2312	6.8352	3.0909	0.	4303.
2313	7.0198	3.0909	0.	4215.3
2314	7.2043	3.0909	0.	4137.8
2315	7.3889	3.0909	0.	4068.
2316	7.5735	3.0909	0.	4004.1
2317	7.758	3.0909	0.	3944.5
2318	7.9426	3.0909	0.	3888.1
2319	8.1272	3.0909	0.	3834.1
2320	8.3117	3.0909	0.	3781.9
2321	8.4963	3.0909	0.	3730.9
2322	8.6809	3.0909	0.	3680.8
2323	8.8654	3.0909	0.	3631.3
2324	9.05	3.0909	0.	3582.2
2325	9.2346	3.0909	0.	3533.5
2326	9.4191	3.0909	0.	3484.9
2327	9.6037	3.0909	0.	3436.4
2328	9.7883	3.0909	0.	3388.
2329	9.9728	3.0909	0.	3339.6
2330	10.157	3.0909	0.	3291.3
2331	10.342	3.0909	0.	3242.9
2332	10.527	3.0909	0.	3194.5
2333	10.711	3.0909	0.	3146.1
2334	10.896	3.0909	0.	3097.7
2335	11.08	3.0909	0.	3049.4
2336	11.265	3.0909	0.	3001.
2337	11.449	3.0909	0.	2952.7
2338	11.634	3.0909	0.	2904.4
2339	11.819	3.0909	0.	2856.2
2340	12.003	3.0909	0.	2808.
2341	12.188	3.0909	0.	2760.
2342	12.372	3.0909	0.	2711.9
2343	12.557	3.0909	0.	2664.
2344	12.741	3.0909	0.	2616.2
2345	12.926	3.0909	0.	2568.5
2346	13.11	3.0909	0.	2520.9
2347	13.295	3.0909	0.	2473.4
2348	13.48	3.0909	0.	2426.1
2349	13.664	3.0909	0.	2378.9
2350	13.849	3.0909	0.	2331.8
2351	14.033	3.0909	0.	2284.9
2352	14.218	3.0909	0.	2238.1
2353	14.402	3.0909	0.	2191.5
2354	14.587	3.0909	0.	2145.1
2355	14.772	3.0909	0.	2098.8
2356	14.956	3.0909	0.	2052.7
2357	15.141	3.0909	0.	2006.8
2358	15.325	3.0909	0.	1961.
2359	15.51	3.0909	0.	1915.5
2360	15.694	3.0909	0.	1870.1
2361	15.879	3.0909	0.	1824.9
2362	16.064	3.0909	0.	1780.
2363	16.248	3.0909	0.	1735.2
2364	16.433	3.0909	0.	1690.6
2365	16.617	3.0909	0.	1646.3
2366	16.802	3.0909	0.	1602.2
2367	16.986	3.0909	0.	1558.2
2368	17.171	3.0909	0.	1514.5
2369	17.356	3.0909	0.	1471.1
2370	17.54	3.0909	0.	1427.9
2371	17.725	3.0909	0.	1384.9
2372	17.909	3.0909	0.	1342.1
2373	18.094	3.0909	0.	1299.6
2374	18.278	3.0909	0.	1257.4
2375	18.463	3.0909	0.	1215.4
2376	18.648	3.0909	0.	1173.7
2377	18.832	3.0909	0.	1132.2
2378	19.017	3.0909	0.	1091.1
2379	19.201	3.0909	0.	1050.2
2380	19.386	3.0909	0.	1009.7
2381	19.57	3.0909	0.	969.42
2382	19.755	3.0909	0.	929.49
2383	19.94	3.0909	0.	889.9
2384	20.124	3.0909	0.	850.65
2385	20.309	3.0909	0.	811.76
2386	20.493	3.0909	0.	773.25
2387	20.678	3.0909	0.	735.13
2388	20.862	3.0909	0.	697.42
2389	21.047	3.0909	0.	660.15
2390	21.231	3.0909	0.	623.32
2391	21.416	3.0909	0.	586.98
2392	21.601	3.0909	0.	551.15
2393	21.785	3.0909	0.	515.87
2394	21.97	3.0909	0.	481.19
2395	22.154	3.0909	0.	447.16
2396	22.339	3.0909	0.	413.87
2397	22.523	3.0909	0.	381.41
2398	22.708	3.0909	0.	349.93
2399	22.893	3.0909	0.	319.63
2400	23.077	3.0909	0.	290.78
2401	23.262	3.0909	0.	263.79
2402	23.446	3.0909	0.	239.22
2403	23.631	3.0909	0.	217.86
2404	23.815	3.0909	0.	200.72
2405	4.2512	2.9091	0.	11402
2406	4.4358	2.9091	0.	10387
2407	4.6204	2.9091	0.	9259.1
2408	4.8049	2.9091	0.	8217.8
2409	4.9895	2.9091	0.	7343.5
2410	5.1741	2.9091	0.	6642.6
2411	5.3586	2.9091	0.	6091.4
2412	5.5432	2.9091	0.	5660.1
2413	5.7278	2.9091	0.	5321.4
2414	5.9123	2.9091	0.	5053.4
2415	6.0969	2.9091	0.	4839.2
2416	6.2815	2.9091	0.	4665.8
2417	6.466	2.9091	0.	4523.2
2418	6.6506	2.9091	0.	4404.2
2419	6.8352	2.9091	0.	4303.
2420	7.0198	2.9091	0.	4215.3
2421	7.2043	2.9091	0.	4137.8
2422	7.3889	2.9091	0.	4068.
2423	7.5735	2.9091	0.	4004.1
2424	7.758	2.9091	0.	3944.5
2425	7.9426	2.9091	0.	3888.1
2426	8.1272	2.9091	0.	3834.1
2427	8.3117	2.9091	0.	3781.9
2428	8.4963	2.9091	0.	3730.9
2429	8.6809	2.9091	0.	3680.8
2430	8.8654	2.9091	0.	3631.3
2431	9.05	2.9091	0.	3582.2
2432	9.2346	2.9091	0.	3533.5
2433	9.4191	2.9091	0.	3484.9
2434	9.6037	2.9091	0.	3436.4
2435	9.7883	2.9091	0.	3388.
2436	9.9728	2.9091	0.	3339.6
2437	10.157	2.9091	0.	3291.3
2438	10.342	2.9091	0.	3242.9
2439	10.527	2.9091	0.	3194.5
2440	10.711	2.9091	0.	3146.1
2441	10.896	2.9091	0.	3097.7
2442	11.08	2.9091	0.	3049.4
2443	11.265	2.9091	0.	3001.
2444	11.449	2.9091	0.	2952.7
2445	11.634	2.9091	0.	2904.4
2446	11.819	2.9091	0.	2856.2
2447	12.003	2.9091	0.	2808.
2448	12.188	2.9091	0.	2760.
2449	12.372	2.9091	0.	2711.9
2450	12.557	2.9091	0.	2664.
2451	12.741	2.9091	0.	2616.2
2452	12.926	2.9091	0.	2568.5
2453	13.11	2.9091	0.	2520.9
2454	13.295	2.9091	0.	2473.4
2455	13.48	2.9091	0.	2426.1
2456	13.664	2.9091	0.	2378.9
2457	13.849	2.9091	0.	2331.8
2458	14.033	2.9091	0.	2284.9
2459	14.218	2.9091	0.	2238.1
2460	14.402	2.9091	0.	2191.5
2461	14.587	2.9091	0.	2145.1
2462	14.772	2.9091	0.	2098.8
2463	14.956	2.9091	0.	2052.7
2464	15.141	2.9091	0.	2006.8
2465	15.325	2.9091	0.	1961.
2466	15.51	2.9091	0.	1915.5
2467	15.694	2.9091	0.	1870.1
2468	15.879	2.9091	0.	1824.9
2469	16.064	2.9091	0.	1780.
2470	16.248	2.9091	0.	1735.2
2471	16.433	2.9091	0.	1690.6
2472	16.617	2.9091	0.	1646.3
2473	16.802	2.9091	0.	1602.2
2474	16.986	2.9091	0.	1558.2
2475	17.171	2.9091	0.	1514.5
2476	17.356	2.9091	0.	1471.1
2477	17.54	2.9091	0.	1427.9
2478	17.725	2.9091	0.	1384.9
2479	17.909	2.9091	0.	1342.1
2480	18.094	2.9091	0.	1299.6
2481	18.278	2.9091	0.	1257.4
2482	18.463	2.9091	0.	1215.4
2483	18.648	2.9091	0.	1173.7
2484	18.832	2.9091	0.	1132.2
2485	19.017	2.9091	0.	1091.1
2486	19.201	2.9091	0.	1050.2
2487	19.386	2.9091	0.	1009.7
2488	19.57	2.9091	0.	969.42
2489	19.755	2.9091	0.	929.49
2490	19.94	2.9091	0.	889.9
2491	20.124	2.9091	0.	850.65
2492	20.309	2.9091	0.	811.76
2493	20.493	2.9091	0.	773.25
2494	20.678	2.9091	0.	735.13
2495	20.862	2.9091	0.	697.42
2496	21.047	2.9091	0.	660.15
2497	21.231	2.9091	0.	623.32
2498	21.416	2.9091	0.	586.98
2499	21.601	2.9091	0.	551.15
2500	21.785	2.9091	0.	515.87
2501	21.97	2.9091	0.	481.19
2502	22.154	2.9091	0.	447.16
2503	22.339	2.9091	0.	413.87
2504	22.523	2.9091	0.	381.41
2505	22.708	2.9091	0.	349.93
2506	22.893	2.9091	0.	319.63
2507	23.077	2.9091	0.	290.78
2508	23.262	2.9091	0.	263.79
2509	23.446	2.9091	0.	239.22
2510	23.631	2.9091	0.	217.86
2511	23.815	2.9091	0.	200.72
2512	4.2512	2.7273	0.	11670
2513	4.4358	2.7273	0.	10476
2514	4.6204	2.7273	0.	9229.2
2515	4.8049	2.7273	0.	8141.
2516	4.9895	2.7273	0.	7261.9
2517	5.1741	2.7273	0.	6572.7
2518	5.3586	2.7273	0.	6036.8
2519	5.5432	2.7273	0.	5619.3
2520	5.7278	2.7273	0.	5291.9
2521	5.9123	2.7273	0.	5032.5
2522	6.0969	2.7273	0.	4824.7
2523	6.2815	2.7273	0.	4656.
2524	6.466	2.7273	0.	4516.8
2525	6.6506	2.7273	0.	4400.2
2526	6.8352	2.7273	0.	4300.8
2527	7.0198	2.7273	0.	4214.3
2528	7.2043	2.7273	0.	4137.7
2529	7.3889	2.7273	0.	4068.5
2530	7.5735	2.7273	0.	4004.9
2531	7.758	2.7273	0.	3945.5
2532	7.9426	2.7273	0.	3889.2
2533	8.1272	2.7273	0.	3835.3
2534	8.3117	2.7273	0.	3783.1
2535	8.4963	2.7273	0.	3732.
2536	8.6809	2.7273	0.	3681.9
2537	8.8654	2.7273	0.	3632.3
2538	9.05	2.7273	0.	3583.2
2539	9.2346	2.7273	0.	3534.4
2540	9.4191	2.7273	0.	3485.8
2541	9.6037	2.7273	0.	3437.2
2542	9.7883	2.7273	0.	3388.8
2543	9.9728	2.7273	0.	3340.3
2544	10.157	2.7273	0.	3291.9
2545	10.342	2.7273	0.	3243.5
2546	10.527	2.7273	0.	3195.
2547	10.711	2.7273	0.	3146.6
2548	10.896	2.7273	0.	3098.2
2549	11.08	2.7273	0.	3049.8
2550	11.265	2.7273	0.	3001.4
2551	11.449	2.7273	0.	2953.1
2552	11.634	2.7273	0.	2904.8
2553	11.819	2.7273	0.	2856.5
2554	12.003	2.7273	0.	2808.3
2555	12.188	2.7273	0.	2760.2
2556	12.372	2.7273	0.	2712.2
2557	12.557	2.7273	0.	2664.3
2558	12.741	2.7273	0.	2616.4
2559	12.926	2.7273	0.	2568.7
2560	13.11	2.7273	0.	2521.1
2561	13.295	2.7273	0.	2473.6
2562	13.48	2.7273	0.	2426.3
2563	13.664	2.7273	0.	2379.
2564	13.849	2.7273	0.	2332.
2565	14.033	2.7273	0.	2285.
2566	14.218	2.7273	0.	2238.3
2567	14.402	2.7273	0.	2191.6
2568	14.587	2.7273	0.	2145.2
2569	14.772	2.7273	0.	2098.9
2570	14.956	2.7273	0.	2052.8
2571	15.141	2.7273	0.	2006.9
2572	15.325	2.7273	0.	1961.1
2573	15.51	2.7273	0.	1915.6
2574	15.694	2.7273	0.	1870.2
2575	15.879	2.7273	0.	1825.
2576	16.064	2.7273	0.	1780.1
2577	16.248	2.7273	0.	1735.3
2578	16.433	2.7273	0.	1690.7
2579	16.617	2.7273	0.	1646.4
2580	16.802	2.7273	0.	1602.2
2581	16.986	2.7273	0.	1558.3
2582	17.171	2.7273	0.	1514.6
2583	17.356	2.7273	0.	1471.1
2584	17.54	2.7273	0.	1427.9
2585	17.725	2.7273	0.	1384.9
2586	17.909	2.7273	0.	1342.1
2587	18.094	2.7273	0.	1299.6
2588	18.278	2.7273	0.	1257.4
2589	18.463	2.7273	0.	1215.4
2590	18.648	2.7273	0.	1173.7
2591	18.832	2.7273	0.	1132.2
2592	19.017	2.7273	0.	1091.
2593	19.201	2.7273	0.	1050.2
2594	19.386	2.7273	0.	1009.6
2595	19.57	2.7273	0.	969.32
2596	19.755	2.7273	0.	929.38
2597	19.94	2.7273	0.	889.76
2598	20.124	2.7273	0.	850.49
2599	20.309	2.7273	0.	811.57
2600	20.493	2.7273	0.	773.03
2601	20.678	2.7273	0.	734.88
2602	20.862	2.7273	0.	697.14
2603	21.047	2.7273	0.	659.83
2604	21.231	2.7273	0.	622.96
2605	21.416	2.7273	0.	586.58
2606	21.601	2.7273	0.	550.71
2607	21.785	2.7273	0.	515.39
2608	21.97	2.7273	0.	480.66
2609	22.154	2.7273	0.	446.59
2610	22.339	2.7273	0.	413.25
2611	22.523	2.7273	0.	380.75
2612	22.708	2.7273	0.	349.23
2613	22.893	2.7273	0.	318.89
2614	23.077	2.7273	0.	290.
2615	23.262	2.7273	0.	262.97
2616	23.446	2.7273	0.	238.36
2617	23.631	2.7273	0.	216.97
2618	23.815	2.7273	0.	199.81
2619	4.2512	2.5455	0.	12234
2620	4.4358	2.5455	0.	10612
2621	4.6204	2.5455	0.	9127.5
2622	4.8049	2.5455	0.	7970.1
2623	4.9895	2.5455	0.	7096.3
2624	5.1741	2.5455	0.	6435.9
2625	5.3586	2.5455	0.	5931.4
2626	5.5432	2.5455	0.	5541.1
2627	5.7278	2.5455	0.	5235.2
2628	5.9123	2.5455	0.	4992.3
2629	6.0969	2.5455	0.	4796.8
2630	6.2815	2.5455	0.	4637.
2631	6.466	2.5455	0.	4504.4
2632	6.6506	2.5455	0.	4392.6
2633	6.8352	2.5455	0.	4296.5
2634	7.0198	2.5455	0.	4212.3
2635	7.2043	2.5455	0.	4137.3
2636	7.3889	2.5455	0.	4069.3
2637	7.5735	2.5455	0.	4006.4
2638	7.758	2.5455	0.	3947.5
2639	7.9426	2.5455	0.	3891.5
2640	8.1272	2.5455	0.	3837.6
2641	8.3117	2.5455	0.	3785.4
2642	8.4963	2.5455	0.	3734.3
2643	8.6809	2.5455	0.	3684.1
2644	8.8654	2.5455	0.	3634.4
2645	9.05	2.5455	0.	3585.2
2646	9.2346	2.5455	0.	3536.3
2647	9.4191	2.5455	0.	3487.5
2648	9.6037	2.5455	0.	3438.8
2649	9.7883	2.5455	0.	3390.2
2650	9.9728	2.5455	0.	3341.7
2651	10.157	2.5455	0.	3293.1
2652	10.342	2.5455	0.	3244.6
2653	10.527	2.5455	0.	3196.1
2654	10.711	2.5455	0.	3147.6
2655	10.896	2.5455	0.	3099.1
2656	11.08	2.5455	0.	3050.7
2657	11.265	2.5455	0.	3002.2
2658	11.449	2.5455	0.	2953.8
2659	11.634	2.5455	0.	2905.5
2660	11.819	2.5455	0.	2857.2
2661	12.003	2.5455	0.	2808.9
2662	12.188	2.5455	0.	2760.8
2663	12.372	2.5455	0.	2712.7
2664	12.557	2.5455	0.	2664.8
2665	12.741	2.5455	0.	2616.9
2666	12.926	2.5455	0.	2569.1
2667	13.11	2.5455	0.	2521.5
2668	13.295	2.5455	0.	2474.
2669	13.48	2.5455	0.	2426.6
2670	13.664	2.5455	0.	2379.4
2671	13.849	2.5455	0.	2332.3
2672	14.033	2.5455	0.	2285.3
2673	14.218	2.5455	0.	2238.6
2674	14.402	2.5455	0.	2191.9
2675	14.587	2.5455	0.	2145.5
2676	14.772	2.5455	0.	2099.2
2677	14.956	2.5455	0.	2053.1
2678	15.141	2.5455	0.	2007.1
2679	15.325	2.5455	0.	1961.4
2680	15.51	2.5455	0.	1915.8
2681	15.694	2.5455	0.	1870.4
2682	15.879	2.5455	0.	1825.2
2683	16.064	2.5455	0.	1780.3
2684	16.248	2.5455	0.	1735.5
2685	16.433	2.5455	0.	1690.9
2686	16.617	2.5455	0.	1646.5
2687	16.802	2.5455	0.	1602.4
2688	16.986	2.5455	0.	1558.4
2689	17.171	2.5455	0.	1514.7
2690	17.356	2.5455	0.	1471.2
2691	17.54	2.5455	0.	1428.
2692	17.725	2.5455	0.	1385.
2693	17.909	2.5455	0.	1342.2
2694	18.094	2.5455	0.	1299.7
2695	18.278	2.5455	0.	1257.4
2696	18.463	2.5455	0.	1215.4
2697	18.648	2.5455	0.	1173.6
2698	18.832	2.5455	0.	1132.2
2699	19.017	2.5455	0.	1091.
2700	19.201	2.5455	0.	1050.1
2701	19.386	2.5455	0.	1009.4
2702	19.57	2.5455	0.	969.14
2703	19.755	2.5455	0.	929.15
2704	19.94	2.5455	0.	889.49
2705	20.124	2.5455	0.	850.17
2706	20.309	2.5455	0.	811.2
2707	20.493	2.5455	0.	772.6
2708	20.678	2.5455	0.	734.39
2709	20.862	2.5455	0.	696.58
2710	21.047	2.5455	0.	659.19
2711	21.231	2.5455	0.	622.25
2712	21.416	2.5455	0.	585.79
2713	21.601	2.5455	0.	549.83
2714	21.785	2.5455	0.	514.43
2715	21.97	2.5455	0.	479.61
2716	22.154	2.5455	0.	445.46
2717	22.339	2.5455	0.	412.03
2718	22.523	2.5455	0.	379.44
2719	22.708	2.5455	0.	347.84
2720	22.893	2.5455	0.	317.41
2721	23.077	2.5455	0.	288.43
2722	23.262	2.5455	0.	261.32
2723	23.446	2.5455	0.	236.64
2724	23.631	2.5455	0.	215.18
2725	23.815	2.5455	0.	197.98
2726	4.2512	2.3636	0.	13187
2727	4.4358	2.3636	0.	10635
2728	4.6204	2.3636	0.	8877.7
2729	4.8049	2.3636	0.	7683.3
2730	4.9895	2.3636	0.	6848.9
2731	5.1741	2.3636	0.	6240.3
2732	5.3586	2.3636	0.	5783.2
2733	5.5432	2.3636	0.	5431.5
2734	5.7278	2.3636	0.	5155.7
2735	5.9123	2.3636	0.	4935.7
2736	6.0969	2.3636	0.	4757.2
2737	6.2815	2.3636	0.	4610.
2738	6.466	2.3636	0.	4486.7
2739	6.6506	2.3636	0.	4381.5
2740	6.8352	2.3636	0.	4290.2
2741	7.0198	2.3636	0.	4209.5
2742	7.2043	2.3636	0.	4136.8
2743	7.3889	2.3636	0.	4070.4
2744	7.5735	2.3636	0.	4008.6
2745	7.758	2.3636	0.	3950.3
2746	7.9426	2.3636	0.	3894.6
2747	8.1272	2.3636	0.	3841.
2748	8.3117	2.3636	0.	3788.8
2749	8.4963	2.3636	0.	3737.7
2750	8.6809	2.3636	0.	3687.3
2751	8.8654	2.3636	0.	3637.5
2752	9.05	2.3636	0.	3588.1
2753	9.2346	2.3636	0.	3539.
2754	9.4191	2.3636	0.	3490.
2755	9.6037	2.3636	0.	3441.2
2756	9.7883	2.3636	0.	3392.4
2757	9.9728	2.3636	0.	3343.7
2758	10.157	2.3636	0.	3295.
2759	10.342	2.3636	0.	3246.3
2760	10.527	2.3636	0.	3197.7
2761	10.711	2.3636	0.	3149.1
2762	10.896	2.3636	0.	3100.5
2763	11.08	2.3636	0.	3051.9
2764	11.265	2.3636	0.	3003.4
2765	11.449	2.3636	0.	2954.9
2766	11.634	2.3636	0.	2906.5
2767	11.819	2.3636	0.	2858.1
2768	12.003	2.3636	0.	2809.8
2769	12.188	2.3636	0.	2761.6
2770	12.372	2.3636	0.	2713.5
2771	12.557	2.3636	0.	2665.5
2772	12.741	2.3636	0.	2617.6
2773	12.926	2.3636	0.	2569.8
2774	13.11	2.3636	0.	2522.1
2775	13.295	2.3636	0.	2474.6
2776	13.48	2.3636	0.	2427.2
2777	13.664	2.3636	0.	2379.9
2778	13.849	2.3636	0.	2332.8
2779	14.033	2.3636	0.	2285.8
2780	14.218	2.3636	0.	2239.
2781	14.402	2.3636	0.	2192.4
2782	14.587	2.3636	0.	2145.9
2783	14.772	2.3636	0.	2099.6
2784	14.956	2.3636	0.	2053.4
2785	15.141	2.3636	0.	2007.5
2786	15.325	2.3636	0.	1961.7
2787	15.51	2.3636	0.	1916.1
2788	15.694	2.3636	0.	1870.7
2789	15.879	2.3636	0.	1825.5
2790	16.064	2.3636	0.	1780.5
2791	16.248	2.3636	0.	1735.7
2792	16.433	2.3636	0.	1691.2
2793	16.617	2.3636	0.	1646.8
2794	16.802	2.3636	0.	1602.6
2795	16.986	2.3636	0.	1558.7
2796	17.171	2.3636	0.	1514.9
2797	17.356	2.3636	0.	1471.4
2798	17.54	2.3636	0.	1428.1
2799	17.725	2.3636	0.	1385.1
2800	17.909	2.3636	0.	1342.3
2801	18.094	2.3636	0.	1299.8
2802	18.278	2.3636	0.	1257.5
2803	18.463	2.3636	0.	1215.4
2804	18.648	2.3636	0.	1173.6
2805	18.832	2.3636	0.	1132.1
2806	19.017	2.3636	0.	1090.9
2807	19.201	2.3636	0.	1049.9
2808	19.386	2.3636	0.	1009.2
2809	19.57	2.3636	0.	968.88
2810	19.755	2.3636	0.	928.83
2811	19.94	2.3636	0.	889.1
2812	20.124	2.3636	0.	849.7
2813	20.309	2.3636	0.	810.65
2814	20.493	2.3636	0.	771.97
2815	20.678	2.3636	0.	733.66
2816	20.862	2.3636	0.	695.75
2817	21.047	2.3636	0.	658.25
2818	21.231	2.3636	0.	621.2
2819	21.416	2.3636	0.	584.62
2820	21.601	2.3636	0.	548.54
2821	21.785	2.3636	0.	513.
2822	21.97	2.3636	0.	478.05
2823	22.154	2.3636	0.	443.76
2824	22.339	2.3636	0.	410.2
2825	22.523	2.3636	0.	377.48
2826	22.708	2.3636	0.	345.74
2827	22.893	2.3636	0.	315.18
2828	23.077	2.3636	0.	286.08
2829	23.262	2.3636	0.	258.85
2830	23.446	2.3636	0.	234.04
2831	23.631	2.3636	0.	212.48
2832	23.815	2.3636	0.	195.22
2833	4.2512	2.1818	0.	13955
2834	4.4358	2.1818	0.	10329
2835	4.6204	2.1818	0.	8402.3
2836	4.8049	2.1818	0.	7287.3
2837	4.9895	2.1818	0.	6533.1
2838	5.1741	2.1818	0.	5999.3
2839	5.3586	2.1818	0.	5602.2
2840	5.5432	2.1818	0.	5297.9
2841	5.7278	2.1818	0.	5058.4
2842	5.9123	2.1818	0.	4865.9
2843	6.0969	2.1818	0.	4708.1
2844	6.2815	2.1818	0.	4576.3
2845	6.466	2.1818	0.	4464.4
2846	6.6506	2.1818	0.	4367.5
2847	6.8352	2.1818	0.	4282.2
2848	7.0198	2.1818	0.	4205.8
2849	7.2043	2.1818	0.	4136.1
2850	7.3889	2.1818	0.	4071.7
2851	7.5735	2.1818	0.	4011.2
2852	7.758	2.1818	0.	3953.8
2853	7.9426	2.1818	0.	3898.7
2854	8.1272	2.1818	0.	3845.3
2855	8.3117	2.1818	0.	3793.1
2856	8.4963	2.1818	0.	3741.9
2857	8.6809	2.1818	0.	3691.4
2858	8.8654	2.1818	0.	3641.5
2859	9.05	2.1818	0.	3591.8
2860	9.2346	2.1818	0.	3542.5
2861	9.4191	2.1818	0.	3493.3
2862	9.6037	2.1818	0.	3444.2
2863	9.7883	2.1818	0.	3395.2
2864	9.9728	2.1818	0.	3346.3
2865	10.157	2.1818	0.	3297.4
2866	10.342	2.1818	0.	3248.6
2867	10.527	2.1818	0.	3199.8
2868	10.711	2.1818	0.	3151.
2869	10.896	2.1818	0.	3102.3
2870	11.08	2.1818	0.	3053.6
2871	11.265	2.1818	0.	3004.9
2872	11.449	2.1818	0.	2956.3
2873	11.634	2.1818	0.	2907.8
2874	11.819	2.1818	0.	2859.4
2875	12.003	2.1818	0.	2811.
2876	12.188	2.1818	0.	2762.7
2877	12.372	2.1818	0.	2714.5
2878	12.557	2.1818	0.	2666.5
2879	12.741	2.1818	0.	2618.5
2880	12.926	2.1818	0.	2570.6
2881	13.11	2.1818	0.	2522.9
2882	13.295	2.1818	0.	2475.3
2883	13.48	2.1818	0.	2427.9
2884	13.664	2.1818	0.	2380.6
2885	13.849	2.1818	0.	2333.4
2886	14.033	2.1818	0.	2286.5
2887	14.218	2.1818	0.	2239.6
2888	14.402	2.1818	0.	2192.9
2889	14.587	2.1818	0.	2146.4
2890	14.772	2.1818	0.	2100.1
2891	14.956	2.1818	0.	2053.9
2892	15.141	2.1818	0.	2008.
2893	15.325	2.1818	0.	1962.2
2894	15.51	2.1818	0.	1916.6
2895	15.694	2.1818	0.	1871.2
2896	15.879	2.1818	0.	1825.9
2897	16.064	2.1818	0.	1780.9
2898	16.248	2.1818	0.	1736.1
2899	16.433	2.1818	0.	1691.5
2900	16.617	2.1818	0.	1647.1
2901	16.802	2.1818	0.	1602.9
2902	16.986	2.1818	0.	1558.9
2903	17.171	2.1818	0.	1515.2
2904	17.356	2.1818	0.	1471.7
2905	17.54	2.1818	0.	1428.4
2906	17.725	2.1818	0.	1385.3
2907	17.909	2.1818	0.	1342.5
2908	18.094	2.1818	0.	1299.9
2909	18.278	2.1818	0.	1257.5
2910	18.463	2.1818	0.	1215.4
2911	18.648	2.1818	0.	1173.6
2912	18.832	2.1818	0.	1132.
2913	19.017	2.1818	0.	1090.7
2914	19.201	2.1818	0.	1049.7
2915	19.386	2.1818	0.	1009.
2916	19.57	2.1818	0.	968.55
2917	19.755	2.1818	0.	928.41
2918	19.94	2.1818	0.	888.6
2919	20.124	2.1818	0.	849.1
2920	20.309	2.1818	0.	809.95
2921	20.493	2.1818	0.	771.15
2922	20.678	2.1818	0.	732.72
2923	20.862	2.1818	0.	694.67
2924	21.047	2.1818	0.	657.04
2925	21.231	2.1818	0.	619.83
2926	21.416	2.1818	0.	583.09
2927	21.601	2.1818	0.	546.84
2928	21.785	2.1818	0.	511.13
2929	21.97	2.1818	0.	476.
2930	22.154	2.1818	0.	441.52
2931	22.339	2.1818	0.	407.77
2932	22.523	2.1818	0.	374.87
2933	22.708	2.1818	0.	342.94
2934	22.893	2.1818	0.	312.2
2935	23.077	2.1818	0.	282.93
2936	23.262	2.1818	0.	255.52
2937	23.446	2.1818	0.	230.55
2938	23.631	2.1818	0.	208.85
2939	23.815	2.1818	0.	191.5
2940	4.2512	2.	0.	14246
2941	4.4358	2.	0.	9477.3
2942	4.6204	2.	0.	7779.
2943	4.8049	2.	0.	6809.3
2944	4.9895	2.	0.	6171.7
2945	5.1741	2.	0.	5727.2
2946	5.3586	2.	0.	5398.6
2947	5.5432	2.	0.	5147.
2948	5.7278	2.	0.	4947.9
2949	5.9123	2.	0.	4786.1
2950	6.0969	2.	0.	4651.6
2951	6.2815	2.	0.	4537.3
2952	6.466	2.	0.	4438.3
2953	6.6506	2.	0.	4351.
2954	6.8352	2.	0.	4272.6
2955	7.0198	2.	0.	4201.2
2956	7.2043	2.	0.	4135.1
2957	7.3889	2.	0.	4073.1
2958	7.5735	2.	0.	4014.3
2959	7.758	2.	0.	3957.9
2960	7.9426	2.	0.	3903.4
2961	8.1272	2.	0.	3850.3
2962	8.3117	2.	0.	3798.2
2963	8.4963	2.	0.	3747.
2964	8.6809	2.	0.	3696.3
2965	8.8654	2.	0.	3646.2
2966	9.05	2.	0.	3596.3
2967	9.2346	2.	0.	3546.7
2968	9.4191	2.	0.	3497.2
2969	9.6037	2.	0.	3447.9
2970	9.7883	2.	0.	3398.6
2971	9.9728	2.	0.	3349.5
2972	10.157	2.	0.	3300.4
2973	10.342	2.	0.	3251.3
2974	10.527	2.	0.	3202.3
2975	10.711	2.	0.	3153.3
2976	10.896	2.	0.	3104.4
2977	11.08	2.	0.	3055.6
2978	11.265	2.	0.	3006.8
2979	11.449	2.	0.	2958.1
2980	11.634	2.	0.	2909.4
2981	11.819	2.	0.	2860.9
2982	12.003	2.	0.	2812.4
2983	12.188	2.	0.	2764.1
2984	12.372	2.	0.	2715.8
2985	12.557	2.	0.	2667.6
2986	12.741	2.	0.	2619.6
2987	12.926	2.	0.	2571.7
2988	13.11	2.	0.	2523.9
2989	13.295	2.	0.	2476.3
2990	13.48	2.	0.	2428.8
2991	13.664	2.	0.	2381.5
2992	13.849	2.	0.	2334.3
2993	14.033	2.	0.	2287.2
2994	14.218	2.	0.	2240.4
2995	14.402	2.	0.	2193.7
2996	14.587	2.	0.	2147.1
2997	14.772	2.	0.	2100.8
2998	14.956	2.	0.	2054.6
2999	15.141	2.	0.	2008.6
3000	15.325	2.	0.	1962.8
3001	15.51	2.	0.	1917.1
3002	15.694	2.	0.	1871.7
3003	15.879	2.	0.	1826.5
3004	16.064	2.	0.	1781.4
3005	16.248	2.	0.	1736.6
3006	16.433	2.	0.	1691.9
3007	16.617	2.	0.	1647.5
3008	16.802	2.	0.	1603.3
3009	16.986	2.	0.	1559.3
3010	17.171	2.	0.	1515.5
3011	17.356	2.	0.	1472.
3012	17.54	2.	0.	1428.6
3013	17.725	2.	0.	1385.5
3014	17.909	2.	0.	1342.6
3015	18.094	2.	0.	1300.
3016	18.278	2.	0.	1257.6
3017	18.463	2.	0.	1215.5
3018	18.648	2.	0.	1173.6
3019	18.832	2.	0.	1132.
3020	19.017	2.	0.	1090.6
3021	19.201	2.	0.	1049.5
3022	19.386	2.	0.	1008.7
3023	19.57	2.	0.	968.16
3024	19.755	2.	0.	927.93
3025	19.94	2.	0.	888.01
3026	20.124	2.	0.	848.4
3027	20.309	2.	0.	809.11
3028	20.493	2.	0.	770.17
3029	20.678	2.	0.	731.59
3030	20.862	2.	0.	693.38
3031	21.047	2.	0.	655.57
3032	21.231	2.	0.	618.18
3033	21.416	2.	0.	581.23
3034	21.601	2.	0.	544.77
3035	21.785	2.	0.	508.83
3036	21.97	2.	0.	473.47
3037	22.154	2.	0.	438.75
3038	22.339	2.	0.	404.77
3039	22.523	2.	0.	371.61
3040	22.708	2.	0.	339.45
3041	22.893	2.	0.	308.47
3042	23.077	2.	0.	278.96
3043	23.262	2.	0.	251.33
3044	23.446	2.	0.	226.14
3045	23.631	2.	0.	204.25
3046	23.815	2.	0.	186.79
3047	4.2512	1.8182	0.	11788
3048	4.4358	1.8182	0.	8463.5
3049	4.6204	1.8182	0.	7047.4
3050	4.8049	1.8182	0.	6281.4
3051	4.9895	1.8182	0.	5781.2
3052	5.1741	1.8182	0.	5434.2
3053	5.3586	1.8182	0.	5179.5
3054	5.5432	1.8182	0.	4984.1
3055	5.7278	1.8182	0.	4828.
3056	5.9123	1.8182	0.	4699.1
3057	6.0969	1.8182	0.	4589.5
3058	6.2815	1.8182	0.	4494.1
3059	6.466	1.8182	0.	4409.2
3060	6.6506	1.8182	0.	4332.3
3061	6.8352	1.8182	0.	4261.7
3062	7.0198	1.8182	0.	4195.8
3063	7.2043	1.8182	0.	4133.6
3064	7.3889	1.8182	0.	4074.4
3065	7.5735	1.8182	0.	4017.5
3066	7.758	1.8182	0.	3962.3
3067	7.9426	1.8182	0.	3908.5
3068	8.1272	1.8182	0.	3855.8
3069	8.3117	1.8182	0.	3803.9
3070	8.4963	1.8182	0.	3752.7
3071	8.6809	1.8182	0.	3701.9
3072	8.8654	1.8182	0.	3651.5
3073	9.05	1.8182	0.	3601.4
3074	9.2346	1.8182	0.	3551.4
3075	9.4191	1.8182	0.	3501.7
3076	9.6037	1.8182	0.	3452.1
3077	9.7883	1.8182	0.	3402.6
3078	9.9728	1.8182	0.	3353.1
3079	10.157	1.8182	0.	3303.8
3080	10.342	1.8182	0.	3254.5
3081	10.527	1.8182	0.	3205.2
3082	10.711	1.8182	0.	3156.1
3083	10.896	1.8182	0.	3107.
3084	11.08	1.8182	0.	3058.
3085	11.265	1.8182	0.	3009.
3086	11.449	1.8182	0.	2960.1
3087	11.634	1.8182	0.	2911.4
3088	11.819	1.8182	0.	2862.7
3089	12.003	1.8182	0.	2814.1
3090	12.188	1.8182	0.	2765.6
3091	12.372	1.8182	0.	2717.3
3092	12.557	1.8182	0.	2669.1
3093	12.741	1.8182	0.	2620.9
3094	12.926	1.8182	0.	2573.
3095	13.11	1.8182	0.	2525.1
3096	13.295	1.8182	0.	2477.4
3097	13.48	1.8182	0.	2429.9
3098	13.664	1.8182	0.	2382.5
3099	13.849	1.8182	0.	2335.3
3100	14.033	1.8182	0.	2288.2
3101	14.218	1.8182	0.	2241.3
3102	14.402	1.8182	0.	2194.5
3103	14.587	1.8182	0.	2148.
3104	14.772	1.8182	0.	2101.6
3105	14.956	1.8182	0.	2055.3
3106	15.141	1.8182	0.	2009.3
3107	15.325	1.8182	0.	1963.5
3108	15.51	1.8182	0.	1917.8
3109	15.694	1.8182	0.	1872.4
3110	15.879	1.8182	0.	1827.1
3111	16.064	1.8182	0.	1782.
3112	16.248	1.8182	0.	1737.1
3113	16.433	1.8182	0.	1692.5
3114	16.617	1.8182	0.	1648.
3115	16.802	1.8182	0.	1603.8
3116	16.986	1.8182	0.	1559.7
3117	17.171	1.8182	0.	1515.9
3118	17.356	1.8182	0.	1472.3
3119	17.54	1.8182	0.	1429.
3120	17.725	1.8182	0.	1385.8
3121	17.909	1.8182	0.	1342.9
3122	18.094	1.8182	0.	1300.2
3123	18.278	1.8182	0.	1257.8
3124	18.463	1.8182	0.	1215.6
3125	18.648	1.8182	0.	1173.6
3126	18.832	1.8182	0.	1131.9
3127	19.017	1.8182	0.	1090.5
3128	19.201	1.8182	0.	1049.3
3129	19.386	1.8182	0.	1008.4
3130	19.57	1.8182	0.	967.75
3131	19.755	1.8182	0.	927.41
3132	19.94	1.8182	0.	887.35
3133	20.124	1.8182	0.	847.61
3134	20.309	1.8182	0.	808.18
3135	20.493	1.8182	0.	769.07
3136	20.678	1.8182	0.	730.31
3137	20.862	1.8182	0.	691.91
3138	21.047	1.8182	0.	653.89
3139	21.231	1.8182	0.	616.27
3140	21.416	1.8182	0.	579.08
3141	21.601	1.8182	0.	542.36
3142	21.785	1.8182	0.	506.15
3143	21.97	1.8182	0.	470.51
3144	22.154	1.8182	0.	435.49
3145	22.339	1.8182	0.	401.2
3146	22.523	1.8182	0.	367.74
3147	22.708	1.8182	0.	335.26
3148	22.893	1.8182	0.	303.98
3149	23.077	1.8182	0.	274.17
3150	23.262	1.8182	0.	246.24
3151	23.446	1.8182	0.	220.78
3152	23.631	1.8182	0.	198.65
3153	23.815	1.8182	0.	181.03
3154	4.2512	1.6364	0.	8767.2
3155	4.4358	1.6364	0.	7107.4
3156	4.6204	1.6364	0.	6245.7
3157	4.8049	1.6364	0.	5719.5
3158	4.9895	1.6364	0.	5367.2
3159	5.1741	1.6364	0.	5125.8
3160	5.3586	1.6364	0.	4949.
3161	5.5432	1.6364	0.	4812.5
3162	5.7278	1.6364	0.	4701.4
3163	5.9123	1.6364	0.	4606.8
3164	6.0969	1.6364	0.	4523.3
3165	6.2815	1.6364	0.	4447.6
3166	6.466	1.6364	0.	4377.6
3167	6.6506	1.6364	0.	4311.8
3168	6.8352	1.6364	0.	4249.4
3169	7.0198	1.6364	0.	4189.5
3170	7.2043	1.6364	0.	4131.6
3171	7.3889	1.6364	0.	4075.5
3172	7.5735	1.6364	0.	4020.6
3173	7.758	1.6364	0.	3966.8
3174	7.9426	1.6364	0.	3913.9
3175	8.1272	1.6364	0.	3861.7
3176	8.3117	1.6364	0.	3810.
3177	8.4963	1.6364	0.	3758.8
3178	8.6809	1.6364	0.	3707.9
3179	8.8654	1.6364	0.	3657.3
3180	9.05	1.6364	0.	3606.9
3181	9.2346	1.6364	0.	3556.7
3182	9.4191	1.6364	0.	3506.7
3183	9.6037	1.6364	0.	3456.8
3184	9.7883	1.6364	0.	3406.9
3185	9.9728	1.6364	0.	3357.2
3186	10.157	1.6364	0.	3307.6
3187	10.342	1.6364	0.	3258.
3188	10.527	1.6364	0.	3208.6
3189	10.711	1.6364	0.	3159.2
3190	10.896	1.6364	0.	3109.9
3191	11.08	1.6364	0.	3060.7
3192	11.265	1.6364	0.	3011.5
3193	11.449	1.6364	0.	2962.5
3194	11.634	1.6364	0.	2913.6
3195	11.819	1.6364	0.	2864.8
3196	12.003	1.6364	0.	2816.1
3197	12.188	1.6364	0.	2767.5
3198	12.372	1.6364	0.	2719.
3199	12.557	1.6364	0.	2670.7
3200	12.741	1.6364	0.	2622.5
3201	12.926	1.6364	0.	2574.4
3202	13.11	1.6364	0.	2526.5
3203	13.295	1.6364	0.	2478.8
3204	13.48	1.6364	0.	2431.1
3205	13.664	1.6364	0.	2383.7
3206	13.849	1.6364	0.	2336.4
3207	14.033	1.6364	0.	2289.3
3208	14.218	1.6364	0.	2242.3
3209	14.402	1.6364	0.	2195.5
3210	14.587	1.6364	0.	2148.9
3211	14.772	1.6364	0.	2102.5
3212	14.956	1.6364	0.	2056.2
3213	15.141	1.6364	0.	2010.2
3214	15.325	1.6364	0.	1964.3
3215	15.51	1.6364	0.	1918.6
3216	15.694	1.6364	0.	1873.1
3217	15.879	1.6364	0.	1827.8
3218	16.064	1.6364	0.	1782.7
3219	16.248	1.6364	0.	1737.8
3220	16.433	1.6364	0.	1693.1
3221	16.617	1.6364	0.	1648.6
3222	16.802	1.6364	0.	1604.4
3223	16.986	1.6364	0.	1560.3
3224	17.171	1.6364	0.	1516.4
3225	17.356	1.6364	0.	1472.8
3226	17.54	1.6364	0.	1429.4
3227	17.725	1.6364	0.	1386.2
3228	17.909	1.6364	0.	1343.2
3229	18.094	1.6364	0.	1300.5
3230	18.278	1.6364	0.	1258.
3231	18.463	1.6364	0.	1215.7
3232	18.648	1.6364	0.	1173.7
3233	18.832	1.6364	0.	1131.9
3234	19.017	1.6364	0.	1090.4
3235	19.201	1.6364	0.	1049.1
3236	19.386	1.6364	0.	1008.1
3237	19.57	1.6364	0.	967.33
3238	19.755	1.6364	0.	926.86
3239	19.94	1.6364	0.	886.67
3240	20.124	1.6364	0.	846.77
3241	20.309	1.6364	0.	807.17
3242	20.493	1.6364	0.	767.88
3243	20.678	1.6364	0.	728.91
3244	20.862	1.6364	0.	690.29
3245	21.047	1.6364	0.	652.03
3246	21.231	1.6364	0.	614.15
3247	21.416	1.6364	0.	576.69
3248	21.601	1.6364	0.	539.67
3249	21.785	1.6364	0.	503.14
3250	21.97	1.6364	0.	467.15
3251	22.154	1.6364	0.	431.78
3252	22.339	1.6364	0.	397.11
3253	22.523	1.6364	0.	363.27
3254	22.708	1.6364	0.	330.4
3255	22.893	1.6364	0.	298.73
3256	23.077	1.6364	0.	268.53
3257	23.262	1.6364	0.	240.24
3258	23.446	1.6364	0.	214.42
3259	23.631	1.6364	0.	191.98
3260	23.815	1.6364	0.	174.18
3261	4.2512	1.4545	0.	6729.7
3262	4.4358	1.4545	0.	5853.9
3263	4.6204	1.4545	0.	5425.1
3264	4.8049	1.4545	0.	5130.7
3265	4.9895	1.4545	0.	4938.
3266	5.1741	1.4545	0.	4806.6
3267	5.3586	1.4545	0.	4711.1
3268	5.5432	1.4545	0.	4635.5
3269	5.7278	1.4545	0.	4570.5
3270	5.9123	1.4545	0.	4511.
3271	6.0969	1.4545	0.	4454.2
3272	6.2815	1.4545	0.	4398.8
3273	6.466	1.4545	0.	4344.1
3274	6.6506	1.4545	0.	4289.8
3275	6.8352	1.4545	0.	4235.9
3276	7.0198	1.4545	0.	4182.3
3277	7.2043	1.4545	0.	4129.
3278	7.3889	1.4545	0.	4076.1
3279	7.5735	1.4545	0.	4023.5
3280	7.758	1.4545	0.	3971.3
3281	7.9426	1.4545	0.	3919.4
3282	8.1272	1.4545	0.	3867.7
3283	8.3117	1.4545	0.	3816.3
3284	8.4963	1.4545	0.	3765.2
3285	8.6809	1.4545	0.	3714.3
3286	8.8654	1.4545	0.	3663.5
3287	9.05	1.4545	0.	3612.9
3288	9.2346	1.4545	0.	3562.4
3289	9.4191	1.4545	0.	3512.1
3290	9.6037	1.4545	0.	3461.8
3291	9.7883	1.4545	0.	3411.7
3292	9.9728	1.4545	0.	3361.7
3293	10.157	1.4545	0.	3311.8
3294	10.342	1.4545	0.	3262.
3295	10.527	1.4545	0.	3212.2
3296	10.711	1.4545	0.	3162.6
3297	10.896	1.4545	0.	3113.1
3298	11.08	1.4545	0.	3063.7
3299	11.265	1.4545	0.	3014.3
3300	11.449	1.4545	0.	2965.1
3301	11.634	1.4545	0.	2916.
3302	11.819	1.4545	0.	2867.1
3303	12.003	1.4545	0.	2818.2
3304	12.188	1.4545	0.	2769.5
3305	12.372	1.4545	0.	2720.9
3306	12.557	1.4545	0.	2672.5
3307	12.741	1.4545	0.	2624.2
3308	12.926	1.4545	0.	2576.1
3309	13.11	1.4545	0.	2528.1
3310	13.295	1.4545	0.	2480.2
3311	13.48	1.4545	0.	2432.6
3312	13.664	1.4545	0.	2385.
3313	13.849	1.4545	0.	2337.7
3314	14.033	1.4545	0.	2290.5
3315	14.218	1.4545	0.	2243.5
3316	14.402	1.4545	0.	2196.7
3317	14.587	1.4545	0.	2150.
3318	14.772	1.4545	0.	2103.5
3319	14.956	1.4545	0.	2057.3
3320	15.141	1.4545	0.	2011.2
3321	15.325	1.4545	0.	1965.2
3322	15.51	1.4545	0.	1919.5
3323	15.694	1.4545	0.	1874.
3324	15.879	1.4545	0.	1828.7
3325	16.064	1.4545	0.	1783.5
3326	16.248	1.4545	0.	1738.6
3327	16.433	1.4545	0.	1693.9
3328	16.617	1.4545	0.	1649.3
3329	16.802	1.4545	0.	1605.
3330	16.986	1.4545	0.	1560.9
3331	17.171	1.4545	0.	1517.
3332	17.356	1.4545	0.	1473.3
3333	17.54	1.4545	0.	1429.9
3334	17.725	1.4545	0.	1386.6
3335	17.909	1.4545	0.	1343.6
3336	18.094	1.4545	0.	1300.8
3337	18.278	1.4545	0.	1258.2
3338	18.463	1.4545	0.	1215.9
3339	18.648	1.4545	0.	1173.8
3340	18.832	1.4545	0.	1131.9
3341	19.017	1.4545	0.	1090.3
3342	19.201	1.4545	0.	1048.9
3343	19.386	1.4545	0.	1007.8
3344	19.57	1.4545	0.	966.94
3345	19.755	1.4545	0.	926.33
3346	19.94	1.4545	0.	885.98
3347	20.124	1.4545	0.	845.91
3348	20.309	1.4545	0.	806.13
3349	20.493	1.4545	0.	766.64
3350	20.678	1.4545	0.	727.45
3351	20.862	1.4545	0.	688.59
3352	21.047	1.4545	0.	650.06
3353	21.231	1.4545	0.	611.89
3354	21.416	1.4545	0.	574.11
3355	21.601	1.4545	0.	536.75
3356	21.785	1.4545	0.	499.85
3357	21.97	1.4545	0.	463.47
3358	22.154	1.4545	0.	427.67
3359	22.339	1.4545	0.	392.56
3360	22.523	1.4545	0.	358.25
3361	22.708	1.4545	0.	324.9
3362	22.893	1.4545	0.	292.74
3363	23.077	1.4545	0.	262.05
3364	23.262	1.4545	0.	233.28
3365	23.446	1.4545	0.	207.02
3366	23.631	1.4545	0.	184.19
3367	23.815	1.4545	0.	166.14
3368	4.2512	1.2727	0.	5321.
3369	4.4358	1.2727	0.	4813.
3370	4.6204	1.2727	0.	4641.9
3371	4.8049	1.2727	0.	4553.4
3372	4.9895	1.2727	0.	4508.5
3373	5.1741	1.2727	0.	4486.1
3374	5.3586	1.2727	0.	4471.6
3375	5.5432	1.2727	0.	4457.
3376	5.7278	1.2727	0.	4438.1
3377	5.9123	1.2727	0.	4413.7
3378	6.0969	1.2727	0.	4383.6
3379	6.2815	1.2727	0.	4348.5
3380	6.466	1.2727	0.	4309.2
3381	6.6506	1.2727	0.	4266.5
3382	6.8352	1.2727	0.	4221.3
3383	7.0198	1.2727	0.	4174.2
3384	7.2043	1.2727	0.	4125.6
3385	7.3889	1.2727	0.	4076.2
3386	7.5735	1.2727	0.	4026.
3387	7.758	1.2727	0.	3975.5
3388	7.9426	1.2727	0.	3924.7
3389	8.1272	1.2727	0.	3873.7
3390	8.3117	1.2727	0.	3822.7
3391	8.4963	1.2727	0.	3771.7
3392	8.6809	1.2727	0.	3720.8
3393	8.8654	1.2727	0.	3669.9
3394	9.05	1.2727	0.	3619.1
3395	9.2346	1.2727	0.	3568.4
3396	9.4191	1.2727	0.	3517.7
3397	9.6037	1.2727	0.	3467.2
3398	9.7883	1.2727	0.	3416.8
3399	9.9728	1.2727	0.	3366.5
3400	10.157	1.2727	0.	3316.3
3401	10.342	1.2727	0.	3266.2
3402	10.527	1.2727	0.	3216.2
3403	10.711	1.2727	0.	3166.3
3404	10.896	1.2727	0.	3116.6
3405	11.08	1.2727	0.	3066.9
3406	11.265	1.2727	0.	3017.4
3407	11.449	1.2727	0.	2968.
3408	11.634	1.2727	0.	2918.7
3409	11.819	1.2727	0.	2869.6
3410	12.003	1.2727	0.	2820.6
3411	12.188	1.2727	0.	2771.8
3412	12.372	1.2727	0.	2723.1
3413	12.557	1.2727	0.	2674.5
3414	12.741	1.2727	0.	2626.1
3415	12.926	1.2727	0.	2577.9
3416	13.11	1.2727	0.	2529.8
3417	13.295	1.2727	0.	2481.9
3418	13.48	1.2727	0.	2434.1
3419	13.664	1.2727	0.	2386.5
3420	13.849	1.2727	0.	2339.1
3421	14.033	1.2727	0.	2291.9
3422	14.218	1.2727	0.	2244.8
3423	14.402	1.2727	0.	2197.9
3424	14.587	1.2727	0.	2151.2
3425	14.772	1.2727	0.	2104.7
3426	14.956	1.2727	0.	2058.4
3427	15.141	1.2727	0.	2012.3
3428	15.325	1.2727	0.	1966.3
3429	15.51	1.2727	0.	1920.5
3430	15.694	1.2727	0.	1875.
3431	15.879	1.2727	0.	1829.6
3432	16.064	1.2727	0.	1784.5
3433	16.248	1.2727	0.	1739.5
3434	16.433	1.2727	0.	1694.7
3435	16.617	1.2727	0.	1650.2
3436	16.802	1.2727	0.	1605.8
3437	16.986	1.2727	0.	1561.7
3438	17.171	1.2727	0.	1517.7
3439	17.356	1.2727	0.	1474.
3440	17.54	1.2727	0.	1430.5
3441	17.725	1.2727	0.	1387.2
3442	17.909	1.2727	0.	1344.1
3443	18.094	1.2727	0.	1301.2
3444	18.278	1.2727	0.	1258.6
3445	18.463	1.2727	0.	1216.2
3446	18.648	1.2727	0.	1174.
3447	18.832	1.2727	0.	1132.1
3448	19.017	1.2727	0.	1090.3
3449	19.201	1.2727	0.	1048.8
3450	19.386	1.2727	0.	1007.6
3451	19.57	1.2727	0.	966.6
3452	19.755	1.2727	0.	925.84
3453	19.94	1.2727	0.	885.33
3454	20.124	1.2727	0.	845.09
3455	20.309	1.2727	0.	805.11
3456	20.493	1.2727	0.	765.4
3457	20.678	1.2727	0.	725.98
3458	20.862	1.2727	0.	686.85
3459	21.047	1.2727	0.	648.04
3460	21.231	1.2727	0.	609.56
3461	21.416	1.2727	0.	571.43
3462	21.601	1.2727	0.	533.69
3463	21.785	1.2727	0.	496.38
3464	21.97	1.2727	0.	459.55
3465	22.154	1.2727	0.	423.26
3466	22.339	1.2727	0.	387.63
3467	22.523	1.2727	0.	352.75
3468	22.708	1.2727	0.	318.81
3469	22.893	1.2727	0.	286.04
3470	23.077	1.2727	0.	254.73
3471	23.262	1.2727	0.	225.35
3472	23.446	1.2727	0.	198.51
3473	23.631	1.2727	0.	175.18
3474	23.815	1.2727	0.	156.82
3475	4.2512	1.0909	0.	4244.
3476	4.4358	1.0909	0.	3944.
3477	4.6204	1.0909	0.	3950.2
3478	4.8049	1.0909	0.	4017.5
3479	4.9895	1.0909	0.	4100.1
3480	5.1741	1.0909	0.	4177.3
3481	5.3586	1.0909	0.	4239.1
3482	5.5432	1.0909	0.	4282.5
3483	5.7278	1.0909	0.	4308.
3484	5.9123	1.0909	0.	4317.4
3485	6.0969	1.0909	0.	4313.2
3486	6.2815	1.0909	0.	4297.8
3487	6.466	1.0909	0.	4273.6
3488	6.6506	1.0909	0.	4242.4
3489	6.8352	1.0909	0.	4205.8
3490	7.0198	1.0909	0.	4165.2
3491	7.2043	1.0909	0.	4121.5
3492	7.3889	1.0909	0.	4075.6
3493	7.5735	1.0909	0.	4028.
3494	7.758	1.0909	0.	3979.3
3495	7.9426	1.0909	0.	3929.7
3496	8.1272	1.0909	0.	3879.5
3497	8.3117	1.0909	0.	3829.
3498	8.4963	1.0909	0.	3778.3
3499	8.6809	1.0909	0.	3727.4
3500	8.8654	1.0909	0.	3676.4
3501	9.05	1.0909	0.	3625.4
3502	9.2346	1.0909	0.	3574.5
3503	9.4191	1.0909	0.	3523.6
3504	9.6037	1.0909	0.	3472.8
3505	9.7883	1.0909	0.	3422.1
3506	9.9728	1.0909	0.	3371.5
3507	10.157	1.0909	0.	3321.
3508	10.342	1.0909	0.	3270.7
3509	10.527	1.0909	0.	3220.4
3510	10.711	1.0909	0.	3170.3
3511	10.896	1.0909	0.	3120.3
3512	11.08	1.0909	0.	3070.4
3513	11.265	1.0909	0.	3020.7
3514	11.449	1.0909	0.	2971.1
3515	11.634	1.0909	0.	2921.7
3516	11.819	1.0909	0.	2872.4
3517	12.003	1.0909	0.	2823.2
3518	12.188	1.0909	0.	2774.2
3519	12.372	1.0909	0.	2725.4
3520	12.557	1.0909	0.	2676.7
3521	12.741	1.0909	0.	2628.2
3522	12.926	1.0909	0.	2579.9
3523	13.11	1.0909	0.	2531.7
3524	13.295	1.0909	0.	2483.7
3525	13.48	1.0909	0.	2435.9
3526	13.664	1.0909	0.	2388.2
3527	13.849	1.0909	0.	2340.7
3528	14.033	1.0909	0.	2293.4
3529	14.218	1.0909	0.	2246.3
3530	14.402	1.0909	0.	2199.4
3531	14.587	1.0909	0.	2152.6
3532	14.772	1.0909	0.	2106.
3533	14.956	1.0909	0.	2059.7
3534	15.141	1.0909	0.	2013.5
3535	15.325	1.0909	0.	1967.5
3536	15.51	1.0909	0.	1921.7
3537	15.694	1.0909	0.	1876.1
3538	15.879	1.0909	0.	1830.7
3539	16.064	1.0909	0.	1785.5
3540	16.248	1.0909	0.	1740.5
3541	16.433	1.0909	0.	1695.7
3542	16.617	1.0909	0.	1651.1
3543	16.802	1.0909	0.	1606.7
3544	16.986	1.0909	0.	1562.5
3545	17.171	1.0909	0.	1518.5
3546	17.356	1.0909	0.	1474.8
3547	17.54	1.0909	0.	1431.2
3548	17.725	1.0909	0.	1387.8
3549	17.909	1.0909	0.	1344.7
3550	18.094	1.0909	0.	1301.8
3551	18.278	1.0909	0.	1259.1
3552	18.463	1.0909	0.	1216.6
3553	18.648	1.0909	0.	1174.3
3554	18.832	1.0909	0.	1132.3
3555	19.017	1.0909	0.	1090.5
3556	19.201	1.0909	0.	1048.9
3557	19.386	1.0909	0.	1007.5
3558	19.57	1.0909	0.	966.35
3559	19.755	1.0909	0.	925.44
3560	19.94	1.0909	0.	884.77
3561	20.124	1.0909	0.	844.34
3562	20.309	1.0909	0.	804.16
3563	20.493	1.0909	0.	764.23
3564	20.678	1.0909	0.	724.56
3565	20.862	1.0909	0.	685.16
3566	21.047	1.0909	0.	646.05
3567	21.231	1.0909	0.	607.23
3568	21.416	1.0909	0.	568.73
3569	21.601	1.0909	0.	530.59
3570	21.785	1.0909	0.	492.82
3571	21.97	1.0909	0.	455.5
3572	22.154	1.0909	0.	418.67
3573	22.339	1.0909	0.	382.42
3574	22.523	1.0909	0.	346.89
3575	22.708	1.0909	0.	312.24
3576	22.893	1.0909	0.	278.7
3577	23.077	1.0909	0.	246.61
3578	23.262	1.0909	0.	216.43
3579	23.446	1.0909	0.	188.84
3580	23.631	1.0909	0.	164.85
3581	23.815	1.0909	0.	146.06
3582	4.2512	0.90909	0.	3373.6
3583	4.4358	0.90909	0.	3221.1
3584	4.6204	0.90909	0.	3353.5
3585	4.8049	0.90909	0.	3542.8
3586	4.9895	0.90909	0.	3730.9
3587	5.1741	0.90909	0.	3893.5
3588	5.3586	0.90909	0.	4022.6
3589	5.5432	0.90909	0.	4118.2
3590	5.7278	0.90909	0.	4184.1
3591	5.9123	0.90909	0.	4224.7
3592	6.0969	0.90909	0.	4244.6
3593	6.2815	0.90909	0.	4247.8
3594	6.466	0.90909	0.	4237.9
3595	6.6506	0.90909	0.	4217.8
3596	6.8352	0.90909	0.	4189.6
3597	7.0198	0.90909	0.	4155.4
3598	7.2043	0.90909	0.	4116.6
3599	7.3889	0.90909	0.	4074.3
3600	7.5735	0.90909	0.	4029.4
3601	7.758	0.90909	0.	3982.5
3602	7.9426	0.90909	0.	3934.3
3603	8.1272	0.90909	0.	3885.1
3604	8.3117	0.90909	0.	3835.1
3605	8.4963	0.90909	0.	3784.7
3606	8.6809	0.90909	0.	3733.9
3607	8.8654	0.90909	0.	3682.9
3608	9.05	0.90909	0.	3631.9
3609	9.2346	0.90909	0.	3580.8
3610	9.4191	0.90909	0.	3529.7
3611	9.6037	0.90909	0.	3478.6
3612	9.7883	0.90909	0.	3427.6
3613	9.9728	0.90909	0.	3376.8
3614	10.157	0.90909	0.	3326.
3615	10.342	0.90909	0.	3275.4
3616	10.527	0.90909	0.	3224.8
3617	10.711	0.90909	0.	3174.5
3618	10.896	0.90909	0.	3124.2
3619	11.08	0.90909	0.	3074.1
3620	11.265	0.90909	0.	3024.2
3621	11.449	0.90909	0.	2974.4
3622	11.634	0.90909	0.	2924.8
3623	11.819	0.90909	0.	2875.3
3624	12.003	0.90909	0.	2826.
3625	12.188	0.90909	0.	2776.9
3626	12.372	0.90909	0.	2727.9
3627	12.557	0.90909	0.	2679.1
3628	12.741	0.90909	0.	2630.5
3629	12.926	0.90909	0.	2582.
3630	13.11	0.90909	0.	2533.8
3631	13.295	0.90909	0.	2485.7
3632	13.48	0.90909	0.	2437.7
3633	13.664	0.90909	0.	2390.
3634	13.849	0.90909	0.	2342.5
3635	14.033	0.90909	0.	2295.1
3636	14.218	0.90909	0.	2247.9
3637	14.402	0.90909	0.	2200.9
3638	14.587	0.90909	0.	2154.1
3639	14.772	0.90909	0.	2107.5
3640	14.956	0.90909	0.	2061.1
3641	15.141	0.90909	0.	2014.8
3642	15.325	0.90909	0.	1968.8
3643	15.51	0.90909	0.	1923.
3644	15.694	0.90909	0.	1877.3
3645	15.879	0.90909	0.	1831.9
3646	16.064	0.90909	0.	1786.7
3647	16.248	0.90909	0.	1741.6
3648	16.433	0.90909	0.	1696.8
3649	16.617	0.90909	0.	1652.1
3650	16.802	0.90909	0.	1607.7
3651	16.986	0.90909	0.	1563.5
3652	17.171	0.90909	0.	1519.5
3653	17.356	0.90909	0.	1475.6
3654	17.54	0.90909	0.	1432.
3655	17.725	0.90909	0.	1388.6
3656	17.909	0.90909	0.	1345.4
3657	18.094	0.90909	0.	1302.5
3658	18.278	0.90909	0.	1259.7
3659	18.463	0.90909	0.	1217.1
3660	18.648	0.90909	0.	1174.8
3661	18.832	0.90909	0.	1132.6
3662	19.017	0.90909	0.	1090.7
3663	19.201	0.90909	0.	1049.
3664	19.386	0.90909	0.	1007.5
3665	19.57	0.90909	0.	966.22
3666	19.755	0.90909	0.	925.17
3667	19.94	0.90909	0.	884.33
3668	20.124	0.90909	0.	843.72
3669	20.309	0.90909	0.	803.33
3670	20.493	0.90909	0.	763.18
3671	20.678	0.90909	0.	723.26
3672	20.862	0.90909	0.	683.59
3673	21.047	0.90909	0.	644.16
3674	21.231	0.90909	0.	605.01
3675	21.416	0.90909	0.	566.13
3676	21.601	0.90909	0.	527.56
3677	21.785	0.90909	0.	489.32
3678	21.97	0.90909	0.	451.46
3679	22.154	0.90909	0.	414.03
3680	22.339	0.90909	0.	377.12
3681	22.523	0.90909	0.	340.84
3682	22.708	0.90909	0.	305.35
3683	22.893	0.90909	0.	270.88
3684	23.077	0.90909	0.	237.79
3685	23.262	0.90909	0.	206.56
3686	23.446	0.90909	0.	177.94
3687	23.631	0.90909	0.	153.05
3688	23.815	0.90909	0.	133.68
3689	4.2512	0.72727	0.	2637.4
3690	4.4358	0.72727	0.	2611.5
3691	4.6204	0.72727	0.	2851.5
3692	4.8049	0.72727	0.	3140.8
3693	4.9895	0.72727	0.	3413.9
3694	5.1741	0.72727	0.	3645.7
3695	5.3586	0.72727	0.	3830.
3696	5.5432	0.72727	0.	3969.6
3697	5.7278	0.72727	0.	4070.1
3698	5.9123	0.72727	0.	4138.
3699	6.0969	0.72727	0.	4179.5
3700	6.2815	0.72727	0.	4199.6
3701	6.466	0.72727	0.	4203.
3702	6.6506	0.72727	0.	4193.2
3703	6.8352	0.72727	0.	4173.1
3704	7.0198	0.72727	0.	4145.1
3705	7.2043	0.72727	0.	4111.1
3706	7.3889	0.72727	0.	4072.4
3707	7.5735	0.72727	0.	4030.2
3708	7.758	0.72727	0.	3985.3
3709	7.9426	0.72727	0.	3938.5
3710	8.1272	0.72727	0.	3890.3
3711	8.3117	0.72727	0.	3841.
3712	8.4963	0.72727	0.	3790.9
3713	8.6809	0.72727	0.	3740.4
3714	8.8654	0.72727	0.	3689.5
3715	9.05	0.72727	0.	3638.3
3716	9.2346	0.72727	0.	3587.1
3717	9.4191	0.72727	0.	3535.8
3718	9.6037	0.72727	0.	3484.5
3719	9.7883	0.72727	0.	3433.3
3720	9.9728	0.72727	0.	3382.2
3721	10.157	0.72727	0.	3331.1
3722	10.342	0.72727	0.	3280.2
3723	10.527	0.72727	0.	3229.5
3724	10.711	0.72727	0.	3178.8
3725	10.896	0.72727	0.	3128.3
3726	11.08	0.72727	0.	3078.
3727	11.265	0.72727	0.	3027.9
3728	11.449	0.72727	0.	2977.9
3729	11.634	0.72727	0.	2928.1
3730	11.819	0.72727	0.	2878.4
3731	12.003	0.72727	0.	2829.
3732	12.188	0.72727	0.	2779.7
3733	12.372	0.72727	0.	2730.6
3734	12.557	0.72727	0.	2681.6
3735	12.741	0.72727	0.	2632.9
3736	12.926	0.72727	0.	2584.3
3737	13.11	0.72727	0.	2536.
3738	13.295	0.72727	0.	2487.8
3739	13.48	0.72727	0.	2439.8
3740	13.664	0.72727	0.	2391.9
3741	13.849	0.72727	0.	2344.3
3742	14.033	0.72727	0.	2296.9
3743	14.218	0.72727	0.	2249.6
3744	14.402	0.72727	0.	2202.6
3745	14.587	0.72727	0.	2155.7
3746	14.772	0.72727	0.	2109.1
3747	14.956	0.72727	0.	2062.6
3748	15.141	0.72727	0.	2016.3
3749	15.325	0.72727	0.	1970.3
3750	15.51	0.72727	0.	1924.4
3751	15.694	0.72727	0.	1878.7
3752	15.879	0.72727	0.	1833.2
3753	16.064	0.72727	0.	1788.
3754	16.248	0.72727	0.	1742.9
3755	16.433	0.72727	0.	1698.
3756	16.617	0.72727	0.	1653.3
3757	16.802	0.72727	0.	1608.9
3758	16.986	0.72727	0.	1564.6
3759	17.171	0.72727	0.	1520.5
3760	17.356	0.72727	0.	1476.7
3761	17.54	0.72727	0.	1433.
3762	17.725	0.72727	0.	1389.6
3763	17.909	0.72727	0.	1346.3
3764	18.094	0.72727	0.	1303.3
3765	18.278	0.72727	0.	1260.4
3766	18.463	0.72727	0.	1217.8
3767	18.648	0.72727	0.	1175.4
3768	18.832	0.72727	0.	1133.1
3769	19.017	0.72727	0.	1091.1
3770	19.201	0.72727	0.	1049.3
3771	19.386	0.72727	0.	1007.7
3772	19.57	0.72727	0.	966.27
3773	19.755	0.72727	0.	925.07
3774	19.94	0.72727	0.	884.07
3775	20.124	0.72727	0.	843.28
3776	20.309	0.72727	0.	802.7
3777	20.493	0.72727	0.	762.32
3778	20.678	0.72727	0.	722.16
3779	20.862	0.72727	0.	682.22
3780	21.047	0.72727	0.	642.49
3781	21.231	0.72727	0.	602.99
3782	21.416	0.72727	0.	563.74
3783	21.601	0.72727	0.	524.74
3784	21.785	0.72727	0.	486.02
3785	21.97	0.72727	0.	447.61
3786	22.154	0.72727	0.	409.56
3787	22.339	0.72727	0.	371.93
3788	22.523	0.72727	0.	334.83
3789	22.708	0.72727	0.	298.39
3790	22.893	0.72727	0.	262.83
3791	23.077	0.72727	0.	228.49
3792	23.262	0.72727	0.	195.89
3793	23.446	0.72727	0.	165.83
3794	23.631	0.72727	0.	139.64
3795	23.815	0.72727	0.	119.38
3796	4.2512	0.54545	0.	1994.5
3797	4.4358	0.54545	0.	2101.7
3798	4.6204	0.54545	0.	2446.6
3799	4.8049	0.54545	0.	2819.5
3800	4.9895	0.54545	0.	3157.5
3801	5.1741	0.54545	0.	3440.8
3802	5.3586	0.54545	0.	3667.
3803	5.5432	0.54545	0.	3840.6
3804	5.7278	0.54545	0.	3969.
3805	5.9123	0.54545	0.	4059.6
3806	6.0969	0.54545	0.	4119.3
3807	6.2815	0.54545	0.	4154.3
3808	6.466	0.54545	0.	4169.6
3809	6.6506	0.54545	0.	4169.2
3810	6.8352	0.54545	0.	4156.7
3811	7.0198	0.54545	0.	4134.6
3812	7.2043	0.54545	0.	4105.1
3813	7.3889	0.54545	0.	4070.
3814	7.5735	0.54545	0.	4030.5
3815	7.758	0.54545	0.	3987.7
3816	7.9426	0.54545	0.	3942.4
3817	8.1272	0.54545	0.	3895.2
3818	8.3117	0.54545	0.	3846.6
3819	8.4963	0.54545	0.	3797.
3820	8.6809	0.54545	0.	3746.7
3821	8.8654	0.54545	0.	3695.9
3822	9.05	0.54545	0.	3644.8
3823	9.2346	0.54545	0.	3593.5
3824	9.4191	0.54545	0.	3542.
3825	9.6037	0.54545	0.	3490.6
3826	9.7883	0.54545	0.	3439.1
3827	9.9728	0.54545	0.	3387.7
3828	10.157	0.54545	0.	3336.4
3829	10.342	0.54545	0.	3285.3
3830	10.527	0.54545	0.	3234.2
3831	10.711	0.54545	0.	3183.4
3832	10.896	0.54545	0.	3132.7
3833	11.08	0.54545	0.	3082.1
3834	11.265	0.54545	0.	3031.7
3835	11.449	0.54545	0.	2981.6
3836	11.634	0.54545	0.	2931.5
3837	11.819	0.54545	0.	2881.7
3838	12.003	0.54545	0.	2832.1
3839	12.188	0.54545	0.	2782.6
3840	12.372	0.54545	0.	2733.4
3841	12.557	0.54545	0.	2684.3
3842	12.741	0.54545	0.	2635.5
3843	12.926	0.54545	0.	2586.8
3844	13.11	0.54545	0.	2538.3
3845	13.295	0.54545	0.	2490.
3846	13.48	0.54545	0.	2441.9
3847	13.664	0.54545	0.	2394.
3848	13.849	0.54545	0.	2346.3
3849	14.033	0.54545	0.	2298.8
3850	14.218	0.54545	0.	2251.5
3851	14.402	0.54545	0.	2204.4
3852	14.587	0.54545	0.	2157.5
3853	14.772	0.54545	0.	2110.8
3854	14.956	0.54545	0.	2064.3
3855	15.141	0.54545	0.	2018.
3856	15.325	0.54545	0.	1971.9
3857	15.51	0.54545	0.	1925.9
3858	15.694	0.54545	0.	1880.2
3859	15.879	0.54545	0.	1834.7
3860	16.064	0.54545	0.	1789.4
3861	16.248	0.54545	0.	1744.3
3862	16.433	0.54545	0.	1699.4
3863	16.617	0.54545	0.	1654.7
3864	16.802	0.54545	0.	1610.2
3865	16.986	0.54545	0.	1565.9
3866	17.171	0.54545	0.	1521.8
3867	17.356	0.54545	0.	1477.9
3868	17.54	0.54545	0.	1434.2
3869	17.725	0.54545	0.	1390.6
3870	17.909	0.54545	0.	1347.3
3871	18.094	0.54545	0.	1304.2
3872	18.278	0.54545	0.	1261.3
3873	18.463	0.54545	0.	1218.6
3874	18.648	0.54545	0.	1176.1
3875	18.832	0.54545	0.	1133.8
3876	19.017	0.54545	0.	1091.7
3877	19.201	0.54545	0.	1049.8
3878	19.386	0.54545	0.	1008.1
3879	19.57	0.54545	0.	966.54
3880	19.755	0.54545	0.	925.2
3881	19.94	0.54545	0.	884.05
3882	20.124	0.54545	0.	843.1
3883	20.309	0.54545	0.	802.33
3884	20.493	0.54545	0.	761.75
3885	20.678	0.54545	0.	721.35
3886	20.862	0.54545	0.	681.15
3887	21.047	0.54545	0.	641.14
3888	21.231	0.54545	0.	601.32
3889	21.416	0.54545	0.	561.7
3890	21.601	0.54545	0.	522.29
3891	21.785	0.54545	0.	483.11
3892	21.97	0.54545	0.	444.17
3893	22.154	0.54545	0.	405.5
3894	22.339	0.54545	0.	367.16
3895	22.523	0.54545	0.	329.21
3896	22.708	0.54545	0.	291.76
3897	22.893	0.54545	0.	254.98
3898	23.077	0.54545	0.	219.17
3899	23.262	0.54545	0.	184.8
3900	23.446	0.54545	0.	152.73
3901	23.631	0.54545	0.	124.5
3902	23.815	0.54545	0.	102.78
3903	4.2512	0.36364	0.	1425.7
3904	4.4358	0.36364	0.	1702.2
3905	4.6204	0.36364	0.	2149.8
3906	4.8049	0.36364	0.	2584.9
3907	4.9895	0.36364	0.	2965.3
3908	5.1741	0.36364	0.	3281.7
3909	5.3586	0.36364	0.	3535.5
3910	5.5432	0.36364	0.	3733.1
3911	5.7278	0.36364	0.	3882.1
3912	5.9123	0.36364	0.	3990.4
3913	6.0969	0.36364	0.	4065.2
3914	6.2815	0.36364	0.	4112.7
3915	6.466	0.36364	0.	4138.3
3916	6.6506	0.36364	0.	4146.4
3917	6.8352	0.36364	0.	4140.7
3918	7.0198	0.36364	0.	4124.2
3919	7.2043	0.36364	0.	4099.1
3920	7.3889	0.36364	0.	4067.4
3921	7.5735	0.36364	0.	4030.6
3922	7.758	0.36364	0.	3989.8
3923	7.9426	0.36364	0.	3946.
3924	8.1272	0.36364	0.	3899.9
3925	8.3117	0.36364	0.	3852.1
3926	8.4963	0.36364	0.	3803.1
3927	8.6809	0.36364	0.	3753.1
3928	8.8654	0.36364	0.	3702.5
3929	9.05	0.36364	0.	3651.4
3930	9.2346	0.36364	0.	3600.
3931	9.4191	0.36364	0.	3548.4
3932	9.6037	0.36364	0.	3496.7
3933	9.7883	0.36364	0.	3445.1
3934	9.9728	0.36364	0.	3393.5
3935	10.157	0.36364	0.	3342.
3936	10.342	0.36364	0.	3290.5
3937	10.527	0.36364	0.	3239.3
3938	10.711	0.36364	0.	3188.1
3939	10.896	0.36364	0.	3137.2
3940	11.08	0.36364	0.	3086.4
3941	11.265	0.36364	0.	3035.9
3942	11.449	0.36364	0.	2985.5
3943	11.634	0.36364	0.	2935.3
3944	11.819	0.36364	0.	2885.3
3945	12.003	0.36364	0.	2835.5
3946	12.188	0.36364	0.	2785.9
3947	12.372	0.36364	0.	2736.5
3948	12.557	0.36364	0.	2687.3
3949	12.741	0.36364	0.	2638.3
3950	12.926	0.36364	0.	2589.5
3951	13.11	0.36364	0.	2540.9
3952	13.295	0.36364	0.	2492.5
3953	13.48	0.36364	0.	2444.4
3954	13.664	0.36364	0.	2396.4
3955	13.849	0.36364	0.	2348.6
3956	14.033	0.36364	0.	2301.
3957	14.218	0.36364	0.	2253.7
3958	14.402	0.36364	0.	2206.5
3959	14.587	0.36364	0.	2159.5
3960	14.772	0.36364	0.	2112.8
3961	14.956	0.36364	0.	2066.2
3962	15.141	0.36364	0.	2019.9
3963	15.325	0.36364	0.	1973.7
3964	15.51	0.36364	0.	1927.8
3965	15.694	0.36364	0.	1882.
3966	15.879	0.36364	0.	1836.5
3967	16.064	0.36364	0.	1791.1
3968	16.248	0.36364	0.	1746.
3969	16.433	0.36364	0.	1701.1
3970	16.617	0.36364	0.	1656.3
3971	16.802	0.36364	0.	1611.8
3972	16.986	0.36364	0.	1567.5
3973	17.171	0.36364	0.	1523.3
3974	17.356	0.36364	0.	1479.4
3975	17.54	0.36364	0.	1435.6
3976	17.725	0.36364	0.	1392.1
3977	17.909	0.36364	0.	1348.8
3978	18.094	0.36364	0.	1305.6
3979	18.278	0.36364	0.	1262.6
3980	18.463	0.36364	0.	1219.9
3981	18.648	0.36364	0.	1177.3
3982	18.832	0.36364	0.	1134.9
3983	19.017	0.36364	0.	1092.7
3984	19.201	0.36364	0.	1050.7
3985	19.386	0.36364	0.	1008.9
3986	19.57	0.36364	0.	967.28
3987	19.755	0.36364	0.	925.82
3988	19.94	0.36364	0.	884.54
3989	20.124	0.36364	0.	843.44
3990	20.309	0.36364	0.	802.5
3991	20.493	0.36364	0.	761.74
3992	20.678	0.36364	0.	721.14
3993	20.862	0.36364	0.	680.71
3994	21.047	0.36364	0.	640.44
3995	21.231	0.36364	0.	600.33
3996	21.416	0.36364	0.	560.39
3997	21.601	0.36364	0.	520.61
3998	21.785	0.36364	0.	481.
3999	21.97	0.36364	0.	441.57
4000	22.154	0.36364	0.	402.34
4001	22.339	0.36364	0.	363.33
4002	22.523	0.36364	0.	324.57
4003	22.708	0.36364	0.	286.14
4004	22.893	0.36364	0.	248.14
4005	23.077	0.36364	0.	210.74
4006	23.262	0.36364	0.	174.31
4007	23.446	0.36364	0.	139.5
4008	23.631	0.36364	0.	107.95
4009	23.815	0.36364	0.	83.337
4010	4.2512	0.18182	0.	977.97
4011	4.4358	0.18182	0.	1470.7
4012	4.6204	0.18182	0.	1986.8
4013	4.8049	0.18182	0.	2448.
4014	4.9895	0.18182	0.	2843.1
4015	5.1741	0.18182	0.	3172.1
4016	5.3586	0.18182	0.	3438.9
4017	5.5432	0.18182	0.	3649.9
4018	5.7278	0.18182	0.	3812.1
4019	5.9123	0.18182	0.	3932.8
4020	6.0969	0.18182	0.	4018.9
4021	6.2815	0.18182	0.	4076.4
4022	6.466	0.18182	0.	4110.7
4023	6.6506	0.18182	0.	4126.2
4024	6.8352	0.18182	0.	4126.6
4025	7.0198	0.18182	0.	4115.1
4026	7.2043	0.18182	0.	4094.1
4027	7.3889	0.18182	0.	4065.7
4028	7.5735	0.18182	0.	4031.4
4029	7.758	0.18182	0.	3992.7
4030	7.9426	0.18182	0.	3950.4
4031	8.1272	0.18182	0.	3905.5
4032	8.3117	0.18182	0.	3858.5
4033	8.4963	0.18182	0.	3810.
4034	8.6809	0.18182	0.	3760.4
4035	8.8654	0.18182	0.	3710.
4036	9.05	0.18182	0.	3659.
4037	9.2346	0.18182	0.	3607.6
4038	9.4191	0.18182	0.	3556.
4039	9.6037	0.18182	0.	3504.3
4040	9.7883	0.18182	0.	3452.5
4041	9.9728	0.18182	0.	3400.7
4042	10.157	0.18182	0.	3349.
4043	10.342	0.18182	0.	3297.4
4044	10.527	0.18182	0.	3245.9
4045	10.711	0.18182	0.	3194.6
4046	10.896	0.18182	0.	3143.5
4047	11.08	0.18182	0.	3092.6
4048	11.265	0.18182	0.	3041.8
4049	11.449	0.18182	0.	2991.3
4050	11.634	0.18182	0.	2941.
4051	11.819	0.18182	0.	2890.8
4052	12.003	0.18182	0.	2840.9
4053	12.188	0.18182	0.	2791.2
4054	12.372	0.18182	0.	2741.7
4055	12.557	0.18182	0.	2692.4
4056	12.741	0.18182	0.	2643.4
4057	12.926	0.18182	0.	2594.5
4058	13.11	0.18182	0.	2545.9
4059	13.295	0.18182	0.	2497.4
4060	13.48	0.18182	0.	2449.2
4061	13.664	0.18182	0.	2401.2
4062	13.849	0.18182	0.	2353.4
4063	14.033	0.18182	0.	2305.8
4064	14.218	0.18182	0.	2258.4
4065	14.402	0.18182	0.	2211.2
4066	14.587	0.18182	0.	2164.3
4067	14.772	0.18182	0.	2117.5
4068	14.956	0.18182	0.	2070.9
4069	15.141	0.18182	0.	2024.6
4070	15.325	0.18182	0.	1978.5
4071	15.51	0.18182	0.	1932.5
4072	15.694	0.18182	0.	1886.8
4073	15.879	0.18182	0.	1841.3
4074	16.064	0.18182	0.	1795.9
4075	16.248	0.18182	0.	1750.8
4076	16.433	0.18182	0.	1705.9
4077	16.617	0.18182	0.	1661.2
4078	16.802	0.18182	0.	1616.7
4079	16.986	0.18182	0.	1572.3
4080	17.171	0.18182	0.	1528.2
4081	17.356	0.18182	0.	1484.3
4082	17.54	0.18182	0.	1440.6
4083	17.725	0.18182	0.	1397.1
4084	17.909	0.18182	0.	1353.7
4085	18.094	0.18182	0.	1310.6
4086	18.278	0.18182	0.	1267.6
4087	18.463	0.18182	0.	1224.9
4088	18.648	0.18182	0.	1182.3
4089	18.832	0.18182	0.	1139.9
4090	19.017	0.18182	0.	1097.7
4091	19.201	0.18182	0.	1055.7
4092	19.386	0.18182	0.	1013.8
4093	19.57	0.18182	0.	972.14
4094	19.755	0.18182	0.	930.62
4095	19.94	0.18182	0.	889.27
4096	20.124	0.18182	0.	848.09
4097	20.309	0.18182	0.	807.05
4098	20.493	0.18182	0.	766.17
4099	20.678	0.18182	0.	725.44
4100	20.862	0.18182	0.	684.84
4101	21.047	0.18182	0.	644.38
4102	21.231	0.18182	0.	604.05
4103	21.416	0.18182	0.	563.85
4104	21.601	0.18182	0.	523.76
4105	21.785	0.18182	0.	483.8
4106	21.97	0.18182	0.	443.95
4107	22.154	0.18182	0.	404.22
4108	22.339	0.18182	0.	364.6
4109	22.523	0.18182	0.	325.11
4110	22.708	0.18182	0.	285.76
4111	22.893	0.18182	0.	246.58
4112	23.077	0.18182	0.	207.62
4113	23.262	0.18182	0.	168.98
4114	23.446	0.18182	0.	130.9
4115	23.631	0.18182	0.	94.036
4116	23.815	0.18182	0.	61.742
4117	23.815	0.18182	0.1	61.742
4118	23.631	0.18182	0.1	94.036
4119	23.446	0.18182	0.1	130.9
4120	23.262	0.18182	0.1	168.98
4121	23.077	0.18182	0.1	207.62
4122	22.893	0.18182	0.1	246.58
4123	22.708	0.18182	0.1	285.76
4124	22.523	0.18182	0.1	325.11
4125	22.339	0.18182	0.1	364.6
4126	22.154	0.18182	0.1	404.22
4127	21.97	0.18182	0.1	443.95
4128	21.785	0.18182	0.1	483.8
4129	21.601	0.18182	0.1	523.76
4130	21.416	0.18182	0.1	563.85
4131	21.231	0.18182	0.1	604.05
4132	21.047	0.18182	0.1	644.38
4133	20.862	0.18182	0.1	684.84
4134	20.678	0.18182	0.1	725.44
4135	20.493	0.18182	0.1	766.17
4136	20.309	0.18182	0.1	807.05
4137	20.124	0.18182	0.1	848.09
4138	19.94	0.18182	0.1	889.27
4139	19.755	0.18182	0.1	930.62
4140	19.57	0.18182	0.1	972.14
4141	19.386	0.18182	0.1	1013.8
4142	19.201	0.18182	0.1	1055.7
4143	19.017	0.18182	0.1	1097.7
4144	18.832	0.18182	0.1	1139.9
4145	18.648	0.18182	0.1	1182.3
4146	18.463	0.18182	0.1	1224.9
4147	18.278	0.18182	0.1	1267.6
4148	18.094	0.18182	0.1	1310.6
4149	17.909	0.18182	0.1	1353.7
4150	17.725	0.18182	0.1	1397.1
4151	17.54	0.18182	0.1	1440.6
4152	17.356	0.18182	0.1	1484.3
4153	17.171	0.18182	0.1	1528.2
4154	16.986	0.18182	0.1	1572.3
4155	16.802	0.18182	0.1	1616.7
4156	16.617	0.18182	0.1	1661.2
4157	16.433	0.18182	0.1	1705.9
4158	16.248	0.18182	0.1	1750.8
4159	16.064	0.18182	0.1	1795.9
4160	15.879	0.18182	0.1	1841.3
4161	15.694	0.18182	0.1	1886.8
4162	15.51	0.18182	0.1	1932.5
4163	15.325	0.18182	0.1	1978.5
4164	15.141	0.18182	0.1	2024.6
4165	14.956	0.18182	0.1	2070.9
4166	14.772	0.18182	0.1	2117.5
4167	14.587	0.18182	0.1	2164.3
4168	14.402	0.18182	0.1	2211.2
4169	14.218	0.18182	0.1	2258.4
4170	14.033	0.18182	0.1	2305.8
4171	13.849	0.18182	0.1	2353.4
4172	13.664	0.18182	0.1	2401.2
4173	13.48	0.18182	0.1	2449.2
4174	13.295	0.18182	0.1	2497.4
4175	13.11	0.18182	0.1	2545.9
4176	12.926	0.18182	0.1	2594.5
4177	12.741	0.18182	0.1	2643.4
4178	12.557	0.18182	0.1	2692.4
4179	12.372	0.18182	0.1	2741.7
4180	12.188	0.18182	0.1	2791.2
4181	12.003	0.18182	0.1	2840.9
4182	11.819	0.18182	0.1	2890.8
4183	11.634	0.18182	0.1	2941.
4184	11.449	0.18182	0.1	2991.3
4185	11.265	0.18182	0.1	3041.8
4186	11.08	0.18182	0.1	3092.6
4187	10.896	0.18182	0.1	3143.5
4188	10.711	0.18182	0.1	3194.6
4189	10.527	0.18182	0.1	3245.9
4190	10.342	0.18182	0.1	3297.4
4191	10.157	0.18182	0.1	3349.
4192	9.9728	0.18182	0.1	3400.7
4193	9.7883	0.18182	0.1	3452.5
4194	9.6037	0.18182	0.1	3504.3
4195	9.4191	0.18182	0.1	3556.
4196	9.2346	0.18182	0.1	3607.6
4197	9.05	0.18182	0.1	3659.
4198	8.8654	0.18182	0.1	3710.
4199	8.6809	0.18182	0.1	3760.4
4200	8.4963	0.18182	0.1	3810.
4201	8.3117	0.18182	0.1	3858.5
4202	8.1272	0.18182	0.1	3905.5
4203	7.9426	0.18182	0.1	3950.4
4204	7.758	0.18182	0.1	3992.7
4205	7.5735	0.18182	0.1	4031.4
4206	7.3889	0.18182	0.1	4065.7
4207	7.2043	0.18182	0.1	4094.1
4208	7.0198	0.18182	0.1	4115.1
4209	6.8352	0.18182	0.1	4126.7
4210	6.6506	0.18182	0.1	4126.2
4211	6.466	0.18182	0.1	4110.7
4212	6.2815	0.18182	0.1	4076.4
4213	6.0969	0.18182	0.1	4018.9
4214	5.9123	0.18182	0.1	3932.8
4215	5.7278	0.18182	0.1	3812.1
4216	5.5432	0.18182	0.1	3649.9
4217	5.3586	0.18182	0.1	3438.9
4218	5.1741	0.18182	0.1	3172.1
4219	4.9895	0.18182	0.1	2843.1
4220	4.8049	0.18182	0.1	2448.
4221	4.6204	0.18182	0.1	1986.8
4222	4.4358	0.18182	0.1	1470.7
4223	4.2512	0.18182	0.1	977.97
4224	23.815	0.36364	0.1	83.337
4225	23.631	0.36364	0.1	107.95
4226	23.446	0.36364	0.1	139.5
4227	23.262	0.36364	0.1	174.31
4228	23.077	0.36364	0.1	210.74
4229	22.893	0.36364	0.1	248.14
4230	22.708	0.36364	0.1	286.14
4231	22.523	0.36364	0.1	324.57
4232	22.339	0.36364	0.1	363.33
4233	22.154	0.36364	0.1	402.34
4234	21.97	0.36364	0.1	441.57
4235	21.785	0.36364	0.1	481.
4236	21.601	0.36364	0.1	520.61
4237	21.416	0.36364	0.1	560.39
4238	21.231	0.36364	0.1	600.33
4239	21.047	0.36364	0.1	640.44
4240	20.862	0.36364	0.1	680.71
4241	20.678	0.36364	0.1	721.14
4242	20.493	0.36364	0.1	761.74
4243	20.309	0.36364	0.1	802.5
4244	20.124	0.36364	0.1	843.44
4245	19.94	0.36364	0.1	884.54
4246	19.755	0.36364	0.1	925.82
4247	19.57	0.36364	0.1	967.28
4248	19.386	0.36364	0.1	1008.9
4249	19.201	0.36364	0.1	1050.7
4250	19.017	0.36364	0.1	1092.7
4251	18.832	0.36364	0.1	1134.9
4252	18.648	0.36364	0.1	1177.3
4253	18.463	0.36364	0.1	1219.9
4254	18.278	0.36364	0.1	1262.6
4255	18.094	0.36364	0.1	1305.6
4256	17.909	0.36364	0.1	1348.8
4257	17.725	0.36364	0.1	1392.1
4258	17.54	0.36364	0.1	1435.6
4259	17.356	0.36364	0.1	1479.4
4260	17.171	0.36364	0.1	1523.3
4261	16.986	0.36364	0.1	1567.5
4262	16.802	0.36364	0.1	1611.8
4263	16.617	0.36364	0.1	1656.3
4264	16.433	0.36364	0.1	1701.1
4265	16.248	0.36364	0.1	1746.
4266	16.064	0.36364	0.1	1791.1
4267	15.879	0.36364	0.1	1836.5
4268	15.694	0.36364	0.1	1882.
4269	15.51	0.36364	0.1	1927.8
4270	15.325	0.36364	0.1	1973.7
4271	15.141	0.36364	0.1	2019.9
4272	14.956	0.36364	0.1	2066.2
4273	14.772	0.36364	0.1	2112.8
4274	14.587	0.36364	0.1	2159.5
4275	14.402	0.36364	0.1	2206.5
4276	14.218	0.36364	0.1	2253.7
4277	14.033	0.36364	0.1	2301.
4278	13.849	0.36364	0.1	2348.6
4279	13.664	0.36364	0.1	2396.4
4280	13.48	0.36364	0.1	2444.4
4281	13.295	0.36364	0.1	2492.5
4282	13.11	0.36364	0.1	2540.9
4283	12.926	0.36364	0.1	2589.5
4284	12.741	0.36364	0.1	2638.3
4285	12.557	0.36364	0.1	2687.3
4286	12.372	0.36364	0.1	2736.5
4287	12.188	0.36364	0.1	2785.9
4288	12.003	0.36364	0.1	2835.5
4289	11.819	0.36364	0.1	2885.3
4290	11.634	0.36364	0.1	2935.3
4291	11.449	0.36364	0.1	2985.5
4292	11.265	0.36364	0.1	3035.9
4293	11.08	0.36364	0.1	3086.4
4294	10.896	0.36364	0.1	3137.2
4295	10.711	0.36364	0.1	3188.1
4296	10.527	0.36364	0.1	3239.3
4297	10.342	0.36364	0.1	3290.5
4298	10.157	0.36364	0.1	3342.
4299	9.9728	0.36364	0.1	3393.5
4300	9.7883	0.36364	0.1	3445.1
4301	9.6037	0.36364	0.1	3496.7
4302	9.4191	0.36364	0.1	3548.4
4303	9.2346	0.36364	0.1	3600.
4304	9.05	0.36364	0.1	3651.4
4305	8.8654	0.36364	0.1	3702.5
4306	8.6809	0.36364	0.1	3753.1
4307	8.4963	0.36364	0.1	3803.1
4308	8.3117	0.36364	0.1	3852.1
4309	8.1272	0.36364	0.1	3899.9
4310	7.9426	0.36364	0.1	3946.
4311	7.758	0.36364	0.1	3989.8
4312	7.5735	0.36364	0.1	4030.6
4313	7.3889	0.36364	0.1	4067.4
4314	7.2043	0.36364	0.1	4099.1
4315	7.0198	0.36364	0.1	4124.2
4316	6.8352	0.36364	0.1	4140.7
4317	6.6506	0.36364	0.1	4146.4
4318	6.466	0.36364	0.1	4138.3
4319	6.2815	0.36364	0.1	4112.7
4320	6.0969	0.36364	0.1	4065.2
4321	5.9123	0.36364	0.1	3990.4
4322	5.7278	0.36364	0.1	3882.1
4323	5.5432	0.36364	0.1	3733.1
4324	5.3586	0.36364	0.1	3535.5
4325	5.1741	0.36364	0.1	3281.7
4326	4.9895	0.36364	0.1	2965.3
4327	4.8049	0.36364	0.1	2584.9
4328	4.6204	0.36364	0.1	2149.8
4329	4.4358	0.36364	0.1	1702.2
4330	4.2512	0.36364	0.1	1425.7
4331	23.815	0.54545	0.1	102.78
4332	23.631	0.54545	0.1	124.5
4333	23.446	0.54545	0.1	152.73
4334	23.262	0.54545	0.1	184.8
4335	23.077	0.54545	0.1	219.17
4336	22.893	0.54545	0.1	254.98
4337	22.708	0.54545	0.1	291.76
4338	22.523	0.54545	0.1	329.21
4339	22.339	0.54545	0.1	367.16
4340	22.154	0.54545	0.1	405.5
4341	21.97	0.54545	0.1	444.17
4342	21.785	0.54545	0.1	483.11
4343	21.601	0.54545	0.1	522.29
4344	21.416	0.54545	0.1	561.7
4345	21.231	0.54545	0.1	601.32
4346	21.047	0.54545	0.1	641.14
4347	20.862	0.54545	0.1	681.15
4348	20.678	0.54545	0.1	721.35
4349	20.493	0.54545	0.1	761.75
4350	20.309	0.54545	0.1	802.33
4351	20.124	0.54545	0.1	843.1
4352	19.94	0.54545	0.1	884.05
4353	19.755	0.54545	0.1	925.2
4354	19.57	0.54545	0.1	966.54
4355	19.386	0.54545	0.1	1008.1
4356	19.201	0.54545	0.1	1049.8
4357	19.017	0.54545	0.1	1091.7
4358	18.832	0.54545	0.1	1133.8
4359	18.648	0.54545	0.1	1176.1
4360	18.463	0.54545	0.1	1218.6
4361	18.278	0.54545	0.1	1261.3
4362	18.094	0.54545	0.1	1304.2
4363	17.909	0.54545	0.1	1347.3
4364	17.725	0.54545	0.1	1390.6
4365	17.54	0.54545	0.1	1434.2
4366	17.356	0.54545	0.1	1477.9
4367	17.171	0.54545	0.1	1521.8
4368	16.986	0.54545	0.1	1565.9
4369	16.802	0.54545	0.1	1610.2
4370	16.617	0.54545	0.1	1654.7
4371	16.433	0.54545	0.1	1699.4
4372	16.248	0.54545	0.1	1744.3
4373	16.064	0.54545	0.1	1789.4
4374	15.879	0.54545	0.1	1834.7
4375	15.694	0.54545	0.1	1880.2
4376	15.51	0.54545	0.1	1925.9
4377	15.325	0.54545	0.1	1971.9
4378	15.141	0.54545	0.1	2018.
4379	14.956	0.54545	0.1	2064.3
4380	14.772	0.54545	0.1	2110.8
4381	14.587	0.54545	0.1	2157.5
4382	14.402	0.54545	0.1	2204.4
4383	14.218	0.54545	0.1	2251.5
4384	14.033	0.54545	0.1	2298.8
4385	13.849	0.54545	0.1	2346.3
4386	13.664	0.54545	0.1	2394.
4387	13.48	0.54545	0.1	2441.9
4388	13.295	0.54545	0.1	2490.
4389	13.11	0.54545	0.1	2538.3
4390	12.926	0.54545	0.1	2586.8
4391	12.741	0.54545	0.1	2635.5
4392	12.557	0.54545	0.1	2684.3
4393	12.372	0.54545	0.1	2733.4
4394	12.188	0.54545	0.1	2782.6
4395	12.003	0.54545	0.1	2832.1
4396	11.819	0.54545	0.1	2881.7
4397	11.634	0.54545	0.1	2931.5
4398	11.449	0.54545	0.1	2981.6
4399	11.265	0.54545	0.1	3031.7
4400	11.08	0.54545	0.1	3082.1
4401	10.896	0.54545	0.1	3132.7
4402	10.711	0.54545	0.1	3183.4
4403	10.527	0.54545	0.1	3234.2
4404	10.342	0.54545	0.1	3285.3
4405	10.157	0.54545	0.1	3336.4
4406	9.9728	0.54545	0.1	3387.7
4407	9.7883	0.54545	0.1	3439.1
4408	9.6037	0.54545	0.1	3490.6
4409	9.4191	0.54545	0.1	3542.
4410	9.2346	0.54545	0.1	3593.5
4411	9.05	0.54545	0.1	3644.8
4412	8.8654	0.54545	0.1	3695.9
4413	8.6809	0.54545	0.1	3746.7
4414	8.4963	0.54545	0.1	3797.
4415	8.3117	0.54545	0.1	3846.6
4416	8.1272	0.54545	0.1	3895.2
4417	7.9426	0.54545	0.1	3942.4
4418	7.758	0.54545	0.1	3987.7
4419	7.5735	0.54545	0.1	4030.5
4420	7.3889	0.54545	0.1	4070.
4421	7.2043	0.54545	0.1	4105.1
4422	7.0198	0.54545	0.1	4134.6
4423	6.8352	0.54545	0.1	4156.7
4424	6.6506	0.54545	0.1	4169.2
4425	6.466	0.54545	0.1	4169.6
4426	6.2815	0.54545	0.1	4154.3
4427	6.0969	0.54545	0.1	4119.3
4428	5.9123	0.54545	0.1	4059.6
4429	5.7278	0.54545	0.1	3969.
4430	5.5432	0.54545	0.1	3840.6
4431	5.3586	0.54545	0.1	3667.
4432	5.1741	0.54545	0.1	3440.8
4433	4.9895	0.54545	0.1	3157.5
4434	4.8049	0.54545	0.1	2819.5
4435	4.6204	0.54545	0.1	2446.6
4436	4.4358	0.54545	0.1	2101.7
4437	4.2512	0.54545	0.1	1994.5
4438	23.815	0.72727	0.1	119.38
4439	23.631	0.72727	0.1	139.64
4440	23.446	0.72727	0.1	165.83
4441	23.262	0.72727	0.1	195.89
4442	23.077	0.72727	0.1	228.49
4443	22.893	0.72727	0.1	262.83
4444	22.708	0.72727	0.1	298.39
4445	22.523	0.72727	0.1	334.83
4446	22.339	0.72727	0.1	371.93
4447	22.154	0.72727	0.1	409.56
4448	21.97	0.72727	0.1	447.61
4449	21.785	0.72727	0.1	486.02
4450	21.601	0.72727	0.1	524.74
4451	21.416	0.72727	0.1	563.74
4452	21.231	0.72727	0.1	602.99
4453	21.047	0.72727	0.1	642.49
4454	20.862	0.72727	0.1	682.22
4455	20.678	0.72727	0.1	722.16
4456	20.493	0.72727	0.1	762.32
4457	20.309	0.72727	0.1	802.7
4458	20.124	0.72727	0.1	843.28
4459	19.94	0.72727	0.1	884.07
4460	19.755	0.72727	0.1	925.07
4461	19.57	0.72727	0.1	966.27
4462	19.386	0.72727	0.1	1007.7
4463	19.201	0.72727	0.1	1049.3
4464	19.017	0.72727	0.1	1091.1
4465	18.832	0.72727	0.1	1133.1
4466	18.648	0.72727	0.1	1175.4
4467	18.463	0.72727	0.1	1217.8
4468	18.278	0.72727	0.1	1260.4
4469	18.094	0.72727	0.1	1303.3
4470	17.909	0.72727	0.1	1346.3
4471	17.725	0.72727	0.1	1389.6
4472	17.54	0.72727	0.1	1433.
4473	17.356	0.72727	0.1	1476.7
4474	17.171	0.72727	0.1	1520.5
4475	16.986	0.72727	0.1	1564.6
4476	16.802	0.72727	0.1	1608.9
4477	16.617	0.72727	0.1	1653.3
4478	16.433	0.72727	0.1	1698.
4479	16.248	0.72727	0.1	1742.9
4480	16.064	0.72727	0.1	1788.
4481	15.879	0.72727	0.1	1833.2
4482	15.694	0.72727	0.1	1878.7
4483	15.51	0.72727	0.1	1924.4
4484	15.325	0.72727	0.1	1970.3
4485	15.141	0.72727	0.1	2016.3
4486	14.956	0.72727	0.1	2062.6
4487	14.772	0.72727	0.1	2109.1
4488	14.587	0.72727	0.1	2155.7
4489	14.402	0.72727	0.1	2202.6
4490	14.218	0.72727	0.1	2249.6
4491	14.033	0.72727	0.1	2296.9
4492	13.849	0.72727	0.1	2344.3
4493	13.664	0.72727	0.1	2391.9
4494	13.48	0.72727	0.1	2439.8
4495	13.295	0.72727	0.1	2487.8
4496	13.11	0.72727	0.1	2536.
4497	12.926	0.72727	0.1	2584.3
4498	12.741	0.72727	0.1	2632.9
4499	12.557	0.72727	0.1	2681.6
4500	12.372	0.72727	0.1	2730.6
4501	12.188	0.72727	0.1	2779.7
4502	12.003	0.72727	0.1	2829.
4503	11.819	0.72727	0.1	2878.4
4504	11.634	0.72727	0.1	2928.1
4505	11.449	0.72727	0.1	2977.9
4506	11.265	0.72727	0.1	3027.9
4507	11.08	0.72727	0.1	3078.
4508	10.896	0.72727	0.1	3128.3
4509	10.711	0.72727	0.1	3178.8
4510	10.527	0.72727	0.1	3229.5
4511	10.342	0.72727	0.1	3280.2
4512	10.157	0.72727	0.1	3331.1
4513	9.9728	0.72727	0.1	3382.2
4514	9.7883	0.72727	0.1	3433.3
4515	9.6037	0.72727	0.1	3484.5
4516	9.4191	0.72727	0.1	3535.8
4517	9.2346	0.72727	0.1	3587.1
4518	9.05	0.72727	0.1	3638.3
4519	8.8654	0.72727	0.1	3689.5
4520	8.6809	0.72727	0.1	3740.4
4521	8.4963	0.72727	0.1	3790.9
4522	8.3117	0.72727	0.1	3841.
4523	8.1272	0.72727	0.1	3890.3
4524	7.9426	0.72727	0.1	3938.5
4525	7.758	0.72727	0.1	3985.3
4526	7.5735	0.72727	0.1	4030.2
4527	7.3889	0.72727	0.1	4072.4
4528	7.2043	0.72727	0.1	4111.1
4529	7.0198	0.72727	0.1	4145.1
4530	6.8352	0.72727	0.1	4173.1
4531	6.6506	0.72727	0.1	4193.2
4532	6.466	0.72727	0.1	4203.
4533	6.2815	0.72727	0.1	4199.6
4534	6.0969	0.72727	0.1	4179.5
4535	5.9123	0.72727	0.1	4138.
4536	5.7278	0.72727	0.1	4070.1
4537	5.5432	0.72727	0.1	3969.6
4538	5.3586	0.72727	0.1	3830.
4539	5.1741	0.72727	0.1	3645.7
4540	4.9895	0.72727	0.1	3413.9
4541	4.8049	0.72727	0.1	3140.8
4542	4.6204	0.72727	0.1	2851.5
4543	4.4358	0.72727	0.1	2611.5
4544	4.2512	0.72727	0.1	2637.4
4545	23.815	0.90909	0.1	133.68
4546	23.631	0.90909	0.1	153.05
4547	23.446	0.90909	0.1	177.94
4548	23.262	0.90909	0.1	206.56
4549	23.077	0.90909	0.1	237.79
4550	22.893	0.90909	0.1	270.88
4551	22.708	0.90909	0.1	305.35
4552	22.523	0.90909	0.1	340.84
4553	22.339	0.90909	0.1	377.12
4554	22.154	0.90909	0.1	414.03
4555	21.97	0.90909	0.1	451.46
4556	21.785	0.90909	0.1	489.32
4557	21.601	0.90909	0.1	527.56
4558	21.416	0.90909	0.1	566.13
4559	21.231	0.90909	0.1	605.01
4560	21.047	0.90909	0.1	644.16
4561	20.862	0.90909	0.1	683.59
4562	20.678	0.90909	0.1	723.26
4563	20.493	0.90909	0.1	763.18
4564	20.309	0.90909	0.1	803.33
4565	20.124	0.90909	0.1	843.72
4566	19.94	0.90909	0.1	884.33
4567	19.755	0.90909	0.1	925.17
4568	19.57	0.90909	0.1	966.22
4569	19.386	0.90909	0.1	1007.5
4570	19.201	0.90909	0.1	1049.
4571	19.017	0.90909	0.1	1090.7
4572	18.832	0.90909	0.1	1132.6
4573	18.648	0.90909	0.1	1174.8
4574	18.463	0.90909	0.1	1217.1
4575	18.278	0.90909	0.1	1259.7
4576	18.094	0.90909	0.1	1302.5
4577	17.909	0.90909	0.1	1345.4
4578	17.725	0.90909	0.1	1388.6
4579	17.54	0.90909	0.1	1432.
4580	17.356	0.90909	0.1	1475.6
4581	17.171	0.90909	0.1	1519.5
4582	16.986	0.90909	0.1	1563.5
4583	16.802	0.90909	0.1	1607.7
4584	16.617	0.90909	0.1	1652.2
4585	16.433	0.90909	0.1	1696.8
4586	16.248	0.90909	0.1	1741.6
4587	16.064	0.90909	0.1	1786.7
4588	15.879	0.90909	0.1	1831.9
4589	15.694	0.90909	0.1	1877.3
4590	15.51	0.90909	0.1	1923.
4591	15.325	0.90909	0.1	1968.8
4592	15.141	0.90909	0.1	2014.8
4593	14.956	0.90909	0.1	2061.1
4594	14.772	0.90909	0.1	2107.5
4595	14.587	0.90909	0.1	2154.1
4596	14.402	0.90909	0.1	2200.9
4597	14.218	0.90909	0.1	2247.9
4598	14.033	0.90909	0.1	2295.1
4599	13.849	0.90909	0.1	2342.5
4600	13.664	0.90909	0.1	2390.
4601	13.48	0.90909	0.1	2437.7
4602	13.295	0.90909	0.1	2485.7
4603	13.11	0.90909	0.1	2533.8
4604	12.926	0.90909	0.1	2582.
4605	12.741	0.90909	0.1	2630.5
4606	12.557	0.90909	0.1	2679.1
4607	12.372	0.90909	0.1	2727.9
4608	12.188	0.90909	0.1	2776.9
4609	12.003	0.90909	0.1	2826.
4610	11.819	0.90909	0.1	2875.3
4611	11.634	0.90909	0.1	2924.8
4612	11.449	0.90909	0.1	2974.4
4613	11.265	0.90909	0.1	3024.2
4614	11.08	0.90909	0.1	3074.1
4615	10.896	0.90909	0.1	3124.2
4616	10.711	0.90909	0.1	3174.5
4617	10.527	0.90909	0.1	3224.8
4618	10.342	0.90909	0.1	3275.4
4619	10.157	0.90909	0.1	3326.
4620	9.9728	0.90909	0.1	3376.8
4621	9.7883	0.90909	0.1	3427.6
4622	9.6037	0.90909	0.1	3478.6
4623	9.4191	0.90909	0.1	3529.7
4624	9.2346	0.90909	0.1	3580.8
4625	9.05	0.90909	0.1	3631.9
4626	8.8654	0.90909	0.1	3682.9
4627	8.6809	0.90909	0.1	3733.9
4628	8.4963	0.90909	0.1	3784.7
4629	8.3117	0.90909	0.1	3835.1
4630	8.1272	0.90909	0.1	3885.1
4631	7.9426	0.90909	0.1	3934.3
4632	7.758	0.90909	0.1	3982.5
4633	7.5735	0.90909	0.1	4029.4
4634	7.3889	0.90909	0.1	4074.3
4635	7.2043	0.90909	0.1	4116.6
4636	7.0198	0.90909	0.1	4155.4
4637	6.8352	0.90909	0.1	4189.6
4638	6.6506	0.90909	0.1	4217.8
4639	6.466	0.90909	0.1	4237.9
4640	6.2815	0.90909	0.1	4247.8
4641	6.0969	0.90909	0.1	4244.6
4642	5.9123	0.90909	0.1	4224.7
4643	5.7278	0.90909	0.1	4184.1
4644	5.5432	0.90909	0.1	4118.2
4645	5.3586	0.90909	0.1	4022.6
4646	5.1741	0.90909	0.1	3893.5
4647	4.9895	0.90909	0.1	3730.9
4648	4.8049	0.90909	0.1	3542.8
4649	4.6204	0.90909	0.1	3353.5
4650	4.4358	0.90909	0.1	3221.1
4651	4.2512	0.90909	0.1	3373.6
4652	23.815	1.0909	0.1	146.06
4653	23.631	1.0909	0.1	164.85
4654	23.446	1.0909	0.1	188.84
4655	23.262	1.0909	0.1	216.43
4656	23.077	1.0909	0.1	246.61
4657	22.893	1.0909	0.1	278.7
4658	22.708	1.0909	0.1	312.24
4659	22.523	1.0909	0.1	346.89
4660	22.339	1.0909	0.1	382.42
4661	22.154	1.0909	0.1	418.67
4662	21.97	1.0909	0.1	455.5
4663	21.785	1.0909	0.1	492.82
4664	21.601	1.0909	0.1	530.59
4665	21.416	1.0909	0.1	568.73
4666	21.231	1.0909	0.1	607.23
4667	21.047	1.0909	0.1	646.05
4668	20.862	1.0909	0.1	685.16
4669	20.678	1.0909	0.1	724.56
4670	20.493	1.0909	0.1	764.23
4671	20.309	1.0909	0.1	804.16
4672	20.124	1.0909	0.1	844.34
4673	19.94	1.0909	0.1	884.77
4674	19.755	1.0909	0.1	925.44
4675	19.57	1.0909	0.1	966.35
4676	19.386	1.0909	0.1	1007.5
4677	19.201	1.0909	0.1	1048.9
4678	19.017	1.0909	0.1	1090.5
4679	18.832	1.0909	0.1	1132.3
4680	18.648	1.0909	0.1	1174.3
4681	18.463	1.0909	0.1	1216.6
4682	18.278	1.0909	0.1	1259.1
4683	18.094	1.0909	0.1	1301.8
4684	17.909	1.0909	0.1	1344.7
4685	17.725	1.0909	0.1	1387.8
4686	17.54	1.0909	0.1	1431.2
4687	17.356	1.0909	0.1	1474.8
4688	17.171	1.0909	0.1	1518.5
4689	16.986	1.0909	0.1	1562.5
4690	16.802	1.0909	0.1	1606.7
4691	16.617	1.0909	0.1	1651.1
4692	16.433	1.0909	0.1	1695.7
4693	16.248	1.0909	0.1	1740.5
4694	16.064	1.0909	0.1	1785.5
4695	15.879	1.0909	0.1	1830.7
4696	15.694	1.0909	0.1	1876.1
4697	15.51	1.0909	0.1	1921.7
4698	15.325	1.0909	0.1	1967.5
4699	15.141	1.0909	0.1	2013.5
4700	14.956	1.0909	0.1	2059.7
4701	14.772	1.0909	0.1	2106.
4702	14.587	1.0909	0.1	2152.6
4703	14.402	1.0909	0.1	2199.4
4704	14.218	1.0909	0.1	2246.3
4705	14.033	1.0909	0.1	2293.4
4706	13.849	1.0909	0.1	2340.7
4707	13.664	1.0909	0.1	2388.2
4708	13.48	1.0909	0.1	2435.9
4709	13.295	1.0909	0.1	2483.7
4710	13.11	1.0909	0.1	2531.7
4711	12.926	1.0909	0.1	2579.9
4712	12.741	1.0909	0.1	2628.2
4713	12.557	1.0909	0.1	2676.7
4714	12.372	1.0909	0.1	2725.4
4715	12.188	1.0909	0.1	2774.2
4716	12.003	1.0909	0.1	2823.2
4717	11.819	1.0909	0.1	2872.4
4718	11.634	1.0909	0.1	2921.7
4719	11.449	1.0909	0.1	2971.1
4720	11.265	1.0909	0.1	3020.7
4721	11.08	1.0909	0.1	3070.4
4722	10.896	1.0909	0.1	3120.3
4723	10.711	1.0909	0.1	3170.3
4724	10.527	1.0909	0.1	3220.4
4725	10.342	1.0909	0.1	3270.7
4726	10.157	1.0909	0.1	3321.
4727	9.9728	1.0909	0.1	3371.5
4728	9.7883	1.0909	0.1	3422.1
4729	9.6037	1.0909	0.1	3472.8
4730	9.4191	1.0909	0.1	3523.6
4731	9.2346	1.0909	0.1	3574.5
4732	9.05	1.0909	0.1	3625.4
4733	8.8654	1.0909	0.1	3676.4
4734	8.6809	1.0909	0.1	3727.4
4735	8.4963	1.0909	0.1	3778.3
4736	8.3117	1.0909	0.1	3829.
4737	8.1272	1.0909	0.1	3879.5
4738	7.9426	1.0909	0.1	3929.7
4739	7.758	1.0909	0.1	3979.3
4740	7.5735	1.0909	0.1	4028.
4741	7.3889	1.0909	0.1	4075.6
4742	7.2043	1.0909	0.1	4121.5
4743	7.0198	1.0909	0.1	4165.2
4744	6.8352	1.0909	0.1	4205.8
4745	6.6506	1.0909	0.1	4242.4
4746	6.466	1.0909	0.1	4273.6
4747	6.2815	1.0909	0.1	4297.8
4748	6.0969	1.0909	0.1	4313.2
4749	5.9123	1.0909	0.1	4317.4
4750	5.7278	1.0909	0.1	4308.
4751	5.5432	1.0909	0.1	4282.5
4752	5.3586	1.0909	0.1	4239.1
4753	5.1741	1.0909	0.1	4177.3
4754	4.9895	1.0909	0.1	4100.1
4755	4.8049	1.0909	0.1	4017.5
4756	4.6204	1.0909	0.1	3950.2
4757	4.4358	1.0909	0.1	3944.
4758	4.2512	1.0909	0.1	4244.
4759	23.815	1.2727	0.1	156.82
4760	23.631	1.2727	0.1	175.18
4761	23.446	1.2727	0.1	198.51
4762	23.262	1.2727	0.1	225.35
4763	23.077	1.2727	0.1	254.73
4764	22.893	1.2727	0.1	286.04
4765	22.708	1.2727	0.1	318.81
4766	22.523	1.2727	0.1	352.75
4767	22.339	1.2727	0.1	387.63
4768	22.154	1.2727	0.1	423.26
4769	21.97	1.2727	0.1	459.55
4770	21.785	1.2727	0.1	496.38
4771	21.601	1.2727	0.1	533.69
4772	21.416	1.2727	0.1	571.43
4773	21.231	1.2727	0.1	609.56
4774	21.047	1.2727	0.1	648.04
4775	20.862	1.2727	0.1	686.85
4776	20.678	1.2727	0.1	725.98
4777	20.493	1.2727	0.1	765.4
4778	20.309	1.2727	0.1	805.11
4779	20.124	1.2727	0.1	845.09
4780	19.94	1.2727	0.1	885.33
4781	19.755	1.2727	0.1	925.84
4782	19.57	1.2727	0.1	966.6
4783	19.386	1.2727	0.1	1007.6
4784	19.201	1.2727	0.1	1048.8
4785	19.017	1.2727	0.1	1090.3
4786	18.832	1.2727	0.1	1132.1
4787	18.648	1.2727	0.1	1174.
4788	18.463	1.2727	0.1	1216.2
4789	18.278	1.2727	0.1	1258.6
4790	18.094	1.2727	0.1	1301.2
4791	17.909	1.2727	0.1	1344.1
4792	17.725	1.2727	0.1	1387.2
4793	17.54	1.2727	0.1	1430.5
4794	17.356	1.2727	0.1	1474.
4795	17.171	1.2727	0.1	1517.7
4796	16.986	1.2727	0.1	1561.7
4797	16.802	1.2727	0.1	1605.8
4798	16.617	1.2727	0.1	1650.2
4799	16.433	1.2727	0.1	1694.7
4800	16.248	1.2727	0.1	1739.5
4801	16.064	1.2727	0.1	1784.5
4802	15.879	1.2727	0.1	1829.6
4803	15.694	1.2727	0.1	1875.
4804	15.51	1.2727	0.1	1920.5
4805	15.325	1.2727	0.1	1966.3
4806	15.141	1.2727	0.1	2012.3
4807	14.956	1.2727	0.1	2058.4
4808	14.772	1.2727	0.1	2104.7
4809	14.587	1.2727	0.1	2151.2
4810	14.402	1.2727	0.1	2197.9
4811	14.218	1.2727	0.1	2244.8
4812	14.033	1.2727	0.1	2291.9
4813	13.849	1.2727	0.1	2339.1
4814	13.664	1.2727	0.1	2386.5
4815	13.48	1.2727	0.1	2434.1
4816	13.295	1.2727	0.1	2481.9
4817	13.11	1.2727	0.1	2529.8
4818	12.926	1.2727	0.1	2577.9
4819	12.741	1.2727	0.1	2626.1
4820	12.557	1.2727	0.1	2674.5
4821	12.372	1.2727	0.1	2723.1
4822	12.188	1.2727	0.1	2771.8
4823	12.003	1.2727	0.1	2820.6
4824	11.819	1.2727	0.1	2869.6
4825	11.634	1.2727	0.1	2918.7
4826	11.449	1.2727	0.1	2968.
4827	11.265	1.2727	0.1	3017.4
4828	11.08	1.2727	0.1	3066.9
4829	10.896	1.2727	0.1	3116.6
4830	10.711	1.2727	0.1	3166.3
4831	10.527	1.2727	0.1	3216.2
4832	10.342	1.2727	0.1	3266.2
4833	10.157	1.2727	0.1	3316.3
4834	9.9728	1.2727	0.1	3366.5
4835	9.7883	1.2727	0.1	3416.8
4836	9.6037	1.2727	0.1	3467.2
4837	9.4191	1.2727	0.1	3517.7
4838	9.2346	1.2727	0.1	3568.4
4839	9.05	1.2727	0.1	3619.1
4840	8.8654	1.2727	0.1	3669.9
4841	8.6809	1.2727	0.1	3720.8
4842	8.4963	1.2727	0.1	3771.7
4843	8.3117	1.2727	0.1	3822.7
4844	8.1272	1.2727	0.1	3873.7
4845	7.9426	1.2727	0.1	3924.7
4846	7.758	1.2727	0.1	3975.5
4847	7.5735	1.2727	0.1	4026.
4848	7.3889	1.2727	0.1	4076.2
4849	7.2043	1.2727	0.1	4125.6
4850	7.0198	1.2727	0.1	4174.2
4851	6.8352	1.2727	0.1	4221.3
4852	6.6506	1.2727	0.1	4266.5
4853	6.466	1.2727	0.1	4309.2
4854	6.2815	1.2727	0.1	4348.5
4855	6.0969	1.2727	0.1	4383.6
4856	5.9123	1.2727	0.1	4413.7
4857	5.7278	1.2727	0.1	4438.1
4858	5.5432	1.2727	0.1	4457.
4859	5.3586	1.2727	0.1	4471.6
4860	5.1741	1.2727	0.1	4486.1
4861	4.9895	1.2727	0.1	4508.5
4862	4.8049	1.2727	0.1	4553.4
4863	4.6204	1.2727	0.1	4641.9
4864	4.4358	1.2727	0.1	4813.
4865	4.2512	1.2727	0.1	5321.
4866	23.815	1.4545	0.1	166.14
4867	23.631	1.4545	0.1	184.19
4868	23.446	1.4545	0.1	207.02
4869	23.262	1.4545	0.1	233.28
4870	23.077	1.4545	0.1	262.05
4871	22.893	1.4545	0.1	292.74
4872	22.708	1.4545	0.1	324.9
4873	22.523	1.4545	0.1	358.25
4874	22.339	1.4545	0.1	392.56
4875	22.154	1.4545	0.1	427.67
4876	21.97	1.4545	0.1	463.47
4877	21.785	1.4545	0.1	499.85
4878	21.601	1.4545	0.1	536.75
4879	21.416	1.4545	0.1	574.11
4880	21.231	1.4545	0.1	611.89
4881	21.047	1.4545	0.1	650.06
4882	20.862	1.4545	0.1	688.59
4883	20.678	1.4545	0.1	727.45
4884	20.493	1.4545	0.1	766.64
4885	20.309	1.4545	0.1	806.13
4886	20.124	1.4545	0.1	845.91
4887	19.94	1.4545	0.1	885.98
4888	19.755	1.4545	0.1	926.33
4889	19.57	1.4545	0.1	966.94
4890	19.386	1.4545	0.1	1007.8
4891	19.201	1.4545	0.1	1048.9
4892	19.017	1.4545	0.1	1090.3
4893	18.832	1.4545	0.1	1131.9
4894	18.648	1.4545	0.1	1173.8
4895	18.463	1.4545	0.1	1215.9
4896	18.278	1.4545	0.1	1258.2
4897	18.094	1.4545	0.1	1300.8
4898	17.909	1.4545	0.1	1343.6
4899	17.725	1.4545	0.1	1386.6
4900	17.54	1.4545	0.1	1429.9
4901	17.356	1.4545	0.1	1473.3
4902	17.171	1.4545	0.1	1517.
4903	16.986	1.4545	0.1	1560.9
4904	16.802	1.4545	0.1	1605.
4905	16.617	1.4545	0.1	1649.3
4906	16.433	1.4545	0.1	1693.9
4907	16.248	1.4545	0.1	1738.6
4908	16.064	1.4545	0.1	1783.5
4909	15.879	1.4545	0.1	1828.7
4910	15.694	1.4545	0.1	1874.
4911	15.51	1.4545	0.1	1919.5
4912	15.325	1.4545	0.1	1965.2
4913	15.141	1.4545	0.1	2011.2
4914	14.956	1.4545	0.1	2057.3
4915	14.772	1.4545	0.1	2103.5
4916	14.587	1.4545	0.1	2150.
4917	14.402	1.4545	0.1	2196.7
4918	14.218	1.4545	0.1	2243.5
4919	14.033	1.4545	0.1	2290.5
4920	13.849	1.4545	0.1	2337.7
4921	13.664	1.4545	0.1	2385.
4922	13.48	1.4545	0.1	2432.6
4923	13.295	1.4545	0.1	2480.2
4924	13.11	1.4545	0.1	2528.1
4925	12.926	1.4545	0.1	2576.1
4926	12.741	1.4545	0.1	2624.2
4927	12.557	1.4545	0.1	2672.5
4928	12.372	1.4545	0.1	2721.
4929	12.188	1.4545	0.1	2769.5
4930	12.003	1.4545	0.1	2818.2
4931	11.819	1.4545	0.1	2867.1
4932	11.634	1.4545	0.1	2916.
4933	11.449	1.4545	0.1	2965.1
4934	11.265	1.4545	0.1	3014.3
4935	11.08	1.4545	0.1	3063.7
4936	10.896	1.4545	0.1	3113.1
4937	10.711	1.4545	0.1	3162.6
4938	10.527	1.4545	0.1	3212.2
4939	10.342	1.4545	0.1	3262.
4940	10.157	1.4545	0.1	3311.8
4941	9.9728	1.4545	0.1	3361.7
4942	9.7883	1.4545	0.1	3411.7
4943	9.6037	1.4545	0.1	3461.8
4944	9.4191	1.4545	0.1	3512.1
4945	9.2346	1.4545	0.1	3562.4
4946	9.05	1.4545	0.1	3612.9
4947	8.8654	1.4545	0.1	3663.5
4948	8.6809	1.4545	0.1	3714.3
4949	8.4963	1.4545	0.1	3765.2
4950	8.3117	1.4545	0.1	3816.3
4951	8.1272	1.4545	0.1	3867.7
4952	7.9426	1.4545	0.1	3919.4
4953	7.758	1.4545	0.1	3971.3
4954	7.5735	1.4545	0.1	4023.5
4955	7.3889	1.4545	0.1	4076.1
4956	7.2043	1.4545	0.1	4129.
4957	7.0198	1.4545	0.1	4182.3
4958	6.8352	1.4545	0.1	4235.9
4959	6.6506	1.4545	0.1	4289.8
4960	6.466	1.4545	0.1	4344.1
4961	6.2815	1.4545	0.1	4398.8
4962	6.0969	1.4545	0.1	4454.2
4963	5.9123	1.4545	0.1	4511.
4964	5.7278	1.4545	0.1	4570.5
4965	5.5432	1.4545	0.1	4635.5
4966	5.3586	1.4545	0.1	4711.1
4967	5.1741	1.4545	0.1	4806.6
4968	4.9895	1.4545	0.1	4938.
4969	4.8049	1.4545	0.1	5130.7
4970	4.6204	1.4545	0.1	5425.1
4971	4.4358	1.4545	0.1	5853.9
4972	4.2512	1.4545	0.1	6729.7
4973	23.815	1.6364	0.1	174.18
4974	23.631	1.6364	0.1	191.98
4975	23.446	1.6364	0.1	214.42
4976	23.262	1.6364	0.1	240.24
4977	23.077	1.6364	0.1	268.53
4978	22.893	1.6364	0.1	298.73
4979	22.708	1.6364	0.1	330.4
4980	22.523	1.6364	0.1	363.27
4981	22.339	1.6364	0.1	397.11
4982	22.154	1.6364	0.1	431.78
4983	21.97	1.6364	0.1	467.15
4984	21.785	1.6364	0.1	503.14
4985	21.601	1.6364	0.1	539.67
4986	21.416	1.6364	0.1	576.69
4987	21.231	1.6364	0.1	614.15
4988	21.047	1.6364	0.1	652.03
4989	20.862	1.6364	0.1	690.29
4990	20.678	1.6364	0.1	728.91
4991	20.493	1.6364	0.1	767.88
4992	20.309	1.6364	0.1	807.17
4993	20.124	1.6364	0.1	846.77
4994	19.94	1.6364	0.1	886.67
4995	19.755	1.6364	0.1	926.86
4996	19.57	1.6364	0.1	967.33
4997	19.386	1.6364	0.1	1008.1
4998	19.201	1.6364	0.1	1049.1
4999	19.017	1.6364	0.1	1090.4
5000	18.832	1.6364	0.1	1131.9
5001	18.648	1.6364	0.1	1173.7
5002	18.463	1.6364	0.1	1215.7
5003	18.278	1.6364	0.1	1258.
5004	18.094	1.6364	0.1	1300.5
5005	17.909	1.6364	0.1	1343.2
5006	17.725	1.6364	0.1	1386.2
5007	17.54	1.6364	0.1	1429.4
5008	17.356	1.6364	0.1	1472.8
5009	17.171	1.6364	0.1	1516.4
5010	16.986	1.6364	0.1	1560.3
5011	16.802	1.6364	0.1	1604.4
5012	16.617	1.6364	0.1	1648.6
5013	16.433	1.6364	0.1	1693.1
5014	16.248	1.6364	0.1	1737.8
5015	16.064	1.6364	0.1	1782.7
5016	15.879	1.6364	0.1	1827.8
5017	15.694	1.6364	0.1	1873.1
5018	15.51	1.6364	0.1	1918.6
5019	15.325	1.6364	0.1	1964.3
5020	15.141	1.6364	0.1	2010.2
5021	14.956	1.6364	0.1	2056.2
5022	14.772	1.6364	0.1	2102.5
5023	14.587	1.6364	0.1	2148.9
5024	14.402	1.6364	0.1	2195.5
5025	14.218	1.6364	0.1	2242.3
5026	14.033	1.6364	0.1	2289.3
5027	13.849	1.6364	0.1	2336.4
5028	13.664	1.6364	0.1	2383.7
5029	13.48	1.6364	0.1	2431.1
5030	13.295	1.6364	0.1	2478.8
5031	13.11	1.6364	0.1	2526.5
5032	12.926	1.6364	0.1	2574.4
5033	12.741	1.6364	0.1	2622.5
5034	12.557	1.6364	0.1	2670.7
5035	12.372	1.6364	0.1	2719.
5036	12.188	1.6364	0.1	2767.5
5037	12.003	1.6364	0.1	2816.1
5038	11.819	1.6364	0.1	2864.8
5039	11.634	1.6364	0.1	2913.6
5040	11.449	1.6364	0.1	2962.5
5041	11.265	1.6364	0.1	3011.5
5042	11.08	1.6364	0.1	3060.7
5043	10.896	1.6364	0.1	3109.9
5044	10.711	1.6364	0.1	3159.2
5045	10.527	1.6364	0.1	3208.6
5046	10.342	1.6364	0.1	3258.
5047	10.157	1.6364	0.1	3307.6
5048	9.9728	1.6364	0.1	3357.2
5049	9.7883	1.6364	0.1	3406.9
5050	9.6037	1.6364	0.1	3456.8
5051	9.4191	1.6364	0.1	3506.7
5052	9.2346	1.6364	0.1	3556.7
5053	9.05	1.6364	0.1	3606.9
5054	8.8654	1.6364	0.1	3657.3
5055	8.6809	1.6364	0.1	3707.9
5056	8.4963	1.6364	0.1	3758.8
5057	8.3117	1.6364	0.1	3810.
5058	8.1272	1.6364	0.1	3861.7
5059	7.9426	1.6364	0.1	3913.9
5060	7.758	1.6364	0.1	3966.8
5061	7.5735	1.6364	0.1	4020.6
5062	7.3889	1.6364	0.1	4075.5
5063	7.2043	1.6364	0.1	4131.6
5064	7.0198	1.6364	0.1	4189.5
5065	6.8352	1.6364	0.1	4249.4
5066	6.6506	1.6364	0.1	4311.8
5067	6.466	1.6364	0.1	4377.6
5068	6.2815	1.6364	0.1	4447.6
5069	6.0969	1.6364	0.1	4523.3
5070	5.9123	1.6364	0.1	4606.8
5071	5.7278	1.6364	0.1	4701.4
5072	5.5432	1.6364	0.1	4812.5
5073	5.3586	1.6364	0.1	4949.
5074	5.1741	1.6364	0.1	5125.8
5075	4.9895	1.6364	0.1	5367.2
5076	4.8049	1.6364	0.1	5719.5
5077	4.6204	1.6364	0.1	6245.7
5078	4.4358	1.6364	0.1	7107.4
5079	4.2512	1.6364	0.1	8767.2
5080	23.815	1.8182	0.1	181.03
5081	23.631	1.8182	0.1	198.65
5082	23.446	1.8182	0.1	220.78
5083	23.262	1.8182	0.1	246.24
5084	23.077	1.8182	0.1	274.17
5085	22.893	1.8182	0.1	303.98
5086	22.708	1.8182	0.1	335.26
5087	22.523	1.8182	0.1	367.74
5088	22.339	1.8182	0.1	401.2
5089	22.154	1.8182	0.1	435.49
5090	21.97	1.8182	0.1	470.51
5091	21.785	1.8182	0.1	506.15
5092	21.601	1.8182	0.1	542.36
5093	21.416	1.8182	0.1	579.08
5094	21.231	1.8182	0.1	616.27
5095	21.047	1.8182	0.1	653.89
5096	20.862	1.8182	0.1	691.91
5097	20.678	1.8182	0.1	730.31
5098	20.493	1.8182	0.1	769.07
5099	20.309	1.8182	0.1	808.18
5100	20.124	1.8182	0.1	847.61
5101	19.94	1.8182	0.1	887.35
5102	19.755	1.8182	0.1	927.41
5103	19.57	1.8182	0.1	967.75
5104	19.386	1.8182	0.1	1008.4
5105	19.201	1.8182	0.1	1049.3
5106	19.017	1.8182	0.1	1090.5
5107	18.832	1.8182	0.1	1131.9
5108	18.648	1.8182	0.1	1173.6
5109	18.463	1.8182	0.1	1215.6
5110	18.278	1.8182	0.1	1257.8
5111	18.094	1.8182	0.1	1300.2
5112	17.909	1.8182	0.1	1342.9
5113	17.725	1.8182	0.1	1385.8
5114	17.54	1.8182	0.1	1429.
5115	17.356	1.8182	0.1	1472.3
5116	17.171	1.8182	0.1	1515.9
5117	16.986	1.8182	0.1	1559.7
5118	16.802	1.8182	0.1	1603.8
5119	16.617	1.8182	0.1	1648.
5120	16.433	1.8182	0.1	1692.5
5121	16.248	1.8182	0.1	1737.1
5122	16.064	1.8182	0.1	1782.
5123	15.879	1.8182	0.1	1827.1
5124	15.694	1.8182	0.1	1872.4
5125	15.51	1.8182	0.1	1917.8
5126	15.325	1.8182	0.1	1963.5
5127	15.141	1.8182	0.1	2009.3
5128	14.956	1.8182	0.1	2055.3
5129	14.772	1.8182	0.1	2101.6
5130	14.587	1.8182	0.1	2148.
5131	14.402	1.8182	0.1	2194.5
5132	14.218	1.8182	0.1	2241.3
5133	14.033	1.8182	0.1	2288.2
5134	13.849	1.8182	0.1	2335.3
5135	13.664	1.8182	0.1	2382.5
5136	13.48	1.8182	0.1	2429.9
5137	13.295	1.8182	0.1	2477.4
5138	13.11	1.8182	0.1	2525.1
5139	12.926	1.8182	0.1	2573.
5140	12.741	1.8182	0.1	2620.9
5141	12.557	1.8182	0.1	2669.1
5142	12.372	1.8182	0.1	2717.3
5143	12.188	1.8182	0.1	2765.6
5144	12.003	1.8182	0.1	2814.1
5145	11.819	1.8182	0.1	2862.7
5146	11.634	1.8182	0.1	2911.4
5147	11.449	1.8182	0.1	2960.1
5148	11.265	1.8182	0.1	3009.
5149	11.08	1.8182	0.1	3058.
5150	10.896	1.8182	0.1	3107.
5151	10.711	1.8182	0.1	3156.1
5152	10.527	1.8182	0.1	3205.2
5153	10.342	1.8182	0.1	3254.5
5154	10.157	1.8182	0.1	3303.8
5155	9.9728	1.8182	0.1	3353.1
5156	9.7883	1.8182	0.1	3402.6
5157	9.6037	1.8182	0.1	3452.1
5158	9.4191	1.8182	0.1	3501.7
5159	9.2346	1.8182	0.1	3551.4
5160	9.05	1.8182	0.1	3601.4
5161	8.8654	1.8182	0.1	3651.5
5162	8.6809	1.8182	0.1	3701.9
5163	8.4963	1.8182	0.1	3752.7
5164	8.3117	1.8182	0.1	3803.9
5165	8.1272	1.8182	0.1	3855.8
5166	7.9426	1.8182	0.1	3908.5
5167	7.758	1.8182	0.1	3962.3
5168	7.5735	1.8182	0.1	4017.5
5169	7.3889	1.8182	0.1	4074.4
5170	7.2043	1.8182	0.1	4133.6
5171	7.0198	1.8182	0.1	4195.8
5172	6.8352	1.8182	0.1	4261.7
5173	6.6506	1.8182	0.1	4332.3
5174	6.466	1.8182	0.1	4409.2
5175	6.2815	1.8182	0.1	4494.1
5176	6.0969	1.8182	0.1	4589.5
5177	5.9123	1.8182	0.1	4699.1
5178	5.7278	1.8182	0.1	4828.
5179	5.5432	1.8182	0.1	4984.1
5180	5.3586	1.8182	0.1	5179.5
5181	5.1741	1.8182	0.1	5434.2
5182	4.9895	1.8182	0.1	5781.2
5183	4.8049	1.8182	0.1	6281.4
5184	4.6204	1.8182	0.1	7047.4
5185	4.4358	1.8182	0.1	8463.5
5186	4.2512	1.8182	0.1	11788
5187	23.815	2.	0.1	186.79
5188	23.631	2.	0.1	204.25
5189	23.446	2.	0.1	226.14
5190	23.262	2.	0.1	251.33
5191	23.077	2.	0.1	278.96
5192	22.893	2.	0.1	308.47
5193	22.708	2.	0.1	339.45
5194	22.523	2.	0.1	371.61
5195	22.339	2.	0.1	404.77
5196	22.154	2.	0.1	438.75
5197	21.97	2.	0.1	473.47
5198	21.785	2.	0.1	508.83
5199	21.601	2.	0.1	544.77
5200	21.416	2.	0.1	581.23
5201	21.231	2.	0.1	618.18
5202	21.047	2.	0.1	655.57
5203	20.862	2.	0.1	693.38
5204	20.678	2.	0.1	731.59
5205	20.493	2.	0.1	770.17
5206	20.309	2.	0.1	809.11
5207	20.124	2.	0.1	848.4
5208	19.94	2.	0.1	888.01
5209	19.755	2.	0.1	927.93
5210	19.57	2.	0.1	968.16
5211	19.386	2.	0.1	1008.7
5212	19.201	2.	0.1	1049.5
5213	19.017	2.	0.1	1090.6
5214	18.832	2.	0.1	1132.
5215	18.648	2.	0.1	1173.6
5216	18.463	2.	0.1	1215.5
5217	18.278	2.	0.1	1257.6
5218	18.094	2.	0.1	1300.
5219	17.909	2.	0.1	1342.6
5220	17.725	2.	0.1	1385.5
5221	17.54	2.	0.1	1428.6
5222	17.356	2.	0.1	1472.
5223	17.171	2.	0.1	1515.5
5224	16.986	2.	0.1	1559.3
5225	16.802	2.	0.1	1603.3
5226	16.617	2.	0.1	1647.5
5227	16.433	2.	0.1	1691.9
5228	16.248	2.	0.1	1736.6
5229	16.064	2.	0.1	1781.4
5230	15.879	2.	0.1	1826.5
5231	15.694	2.	0.1	1871.7
5232	15.51	2.	0.1	1917.1
5233	15.325	2.	0.1	1962.8
5234	15.141	2.	0.1	2008.6
5235	14.956	2.	0.1	2054.6
5236	14.772	2.	0.1	2100.8
5237	14.587	2.	0.1	2147.1
5238	14.402	2.	0.1	2193.7
5239	14.218	2.	0.1	2240.4
5240	14.033	2.	0.1	2287.2
5241	13.849	2.	0.1	2334.3
5242	13.664	2.	0.1	2381.5
5243	13.48	2.	0.1	2428.8
5244	13.295	2.	0.1	2476.3
5245	13.11	2.	0.1	2523.9
5246	12.926	2.	0.1	2571.7
5247	12.741	2.	0.1	2619.6
5248	12.557	2.	0.1	2667.6
5249	12.372	2.	0.1	2715.8
5250	12.188	2.	0.1	2764.1
5251	12.003	2.	0.1	2812.4
5252	11.819	2.	0.1	2860.9
5253	11.634	2.	0.1	2909.4
5254	11.449	2.	0.1	2958.1
5255	11.265	2.	0.1	3006.8
5256	11.08	2.	0.1	3055.6
5257	10.896	2.	0.1	3104.4
5258	10.711	2.	0.1	3153.3
5259	10.527	2.	0.1	3202.3
5260	10.342	2.	0.1	3251.3
5261	10.157	2.	0.1	3300.4
5262	9.9728	2.	0.1	3349.5
5263	9.7883	2.	0.1	3398.6
5264	9.6037	2.	0.1	3447.9
5265	9.4191	2.	0.1	3497.2
5266	9.2346	2.	0.1	3546.7
5267	9.05	2.	0.1	3596.3
5268	8.8654	2.	0.1	3646.2
5269	8.6809	2.	0.1	3696.3
5270	8.4963	2.	0.1	3747.
5271	8.3117	2.	0.1	3798.2
5272	8.1272	2.	0.1	3850.3
5273	7.9426	2.	0.1	3903.4
5274	7.758	2.	0.1	3957.9
5275	7.5735	2.	0.1	4014.3
5276	7.3889	2.	0.1	4073.1
5277	7.2043	2.	0.1	4135.1
5278	7.0198	2.	0.1	4201.2
5279	6.8352	2.	0.1	4272.6
5280	6.6506	2.	0.1	4351.
5281	6.466	2.	0.1	4438.3
5282	6.2815	2.	0.1	4537.3
5283	6.0969	2.	0.1	4651.6
5284	5.9123	2.	0.1	4786.1
5285	5.7278	2.	0.1	4947.9
5286	5.5432	2.	0.1	5147.
5287	5.3586	2.	0.1	5398.6
5288	5.1741	2.	0.1	5727.2
5289	4.9895	2.	0.1	6171.7
5290	4.8049	2.	0.1	6809.3
5291	4.6204	2.	0.1	7779.
5292	4.4358	2.	0.1	9477.3
5293	4.2512	2.	0.1	14246
5294	23.815	2.1818	0.1	191.5
5295	23.631	2.1818	0.1	208.85
5296	23.446	2.1818	0.1	230.55
5297	23.262	2.1818	0.1	255.52
5298	23.077	2.1818	0.1	282.93
5299	22.893	2.1818	0.1	312.2
5300	22.708	2.1818	0.1	342.94
5301	22.523	2.1818	0.1	374.87
5302	22.339	2.1818	0.1	407.77
5303	22.154	2.1818	0.1	441.52
5304	21.97	2.1818	0.1	476.
5305	21.785	2.1818	0.1	511.13
5306	21.601	2.1818	0.1	546.84
5307	21.416	2.1818	0.1	583.09
5308	21.231	2.1818	0.1	619.83
5309	21.047	2.1818	0.1	657.04
5310	20.862	2.1818	0.1	694.67
5311	20.678	2.1818	0.1	732.72
5312	20.493	2.1818	0.1	771.15
5313	20.309	2.1818	0.1	809.95
5314	20.124	2.1818	0.1	849.1
5315	19.94	2.1818	0.1	888.6
5316	19.755	2.1818	0.1	928.41
5317	19.57	2.1818	0.1	968.55
5318	19.386	2.1818	0.1	1009.
5319	19.201	2.1818	0.1	1049.7
5320	19.017	2.1818	0.1	1090.7
5321	18.832	2.1818	0.1	1132.
5322	18.648	2.1818	0.1	1173.6
5323	18.463	2.1818	0.1	1215.4
5324	18.278	2.1818	0.1	1257.5
5325	18.094	2.1818	0.1	1299.9
5326	17.909	2.1818	0.1	1342.5
5327	17.725	2.1818	0.1	1385.3
5328	17.54	2.1818	0.1	1428.4
5329	17.356	2.1818	0.1	1471.7
5330	17.171	2.1818	0.1	1515.2
5331	16.986	2.1818	0.1	1558.9
5332	16.802	2.1818	0.1	1602.9
5333	16.617	2.1818	0.1	1647.1
5334	16.433	2.1818	0.1	1691.5
5335	16.248	2.1818	0.1	1736.1
5336	16.064	2.1818	0.1	1780.9
5337	15.879	2.1818	0.1	1825.9
5338	15.694	2.1818	0.1	1871.2
5339	15.51	2.1818	0.1	1916.6
5340	15.325	2.1818	0.1	1962.2
5341	15.141	2.1818	0.1	2008.
5342	14.956	2.1818	0.1	2053.9
5343	14.772	2.1818	0.1	2100.1
5344	14.587	2.1818	0.1	2146.4
5345	14.402	2.1818	0.1	2192.9
5346	14.218	2.1818	0.1	2239.6
5347	14.033	2.1818	0.1	2286.5
5348	13.849	2.1818	0.1	2333.4
5349	13.664	2.1818	0.1	2380.6
5350	13.48	2.1818	0.1	2427.9
5351	13.295	2.1818	0.1	2475.3
5352	13.11	2.1818	0.1	2522.9
5353	12.926	2.1818	0.1	2570.6
5354	12.741	2.1818	0.1	2618.5
5355	12.557	2.1818	0.1	2666.5
5356	12.372	2.1818	0.1	2714.5
5357	12.188	2.1818	0.1	2762.7
5358	12.003	2.1818	0.1	2811.
5359	11.819	2.1818	0.1	2859.4
5360	11.634	2.1818	0.1	2907.8
5361	11.449	2.1818	0.1	2956.3
5362	11.265	2.1818	0.1	3004.9
5363	11.08	2.1818	0.1	3053.6
5364	10.896	2.1818	0.1	3102.3
5365	10.711	2.1818	0.1	3151.
5366	10.527	2.1818	0.1	3199.8
5367	10.342	2.1818	0.1	3248.6
5368	10.157	2.1818	0.1	3297.4
5369	9.9728	2.1818	0.1	3346.3
5370	9.7883	2.1818	0.1	3395.2
5371	9.6037	2.1818	0.1	3444.2
5372	9.4191	2.1818	0.1	3493.3
5373	9.2346	2.1818	0.1	3542.5
5374	9.05	2.1818	0.1	3591.8
5375	8.8654	2.1818	0.1	3641.5
5376	8.6809	2.1818	0.1	3691.4
5377	8.4963	2.1818	0.1	3741.9
5378	8.3117	2.1818	0.1	3793.1
5379	8.1272	2.1818	0.1	3845.3
5380	7.9426	2.1818	0.1	3898.7
5381	7.758	2.1818	0.1	3953.8
5382	7.5735	2.1818	0.1	4011.2
5383	7.3889	2.1818	0.1	4071.7
5384	7.2043	2.1818	0.1	4136.1
5385	7.0198	2.1818	0.1	4205.8
5386	6.8352	2.1818	0.1	4282.2
5387	6.6506	2.1818	0.1	4367.5
5388	6.466	2.1818	0.1	4464.4
5389	6.2815	2.1818	0.1	4576.3
5390	6.0969	2.1818	0.1	4708.1
5391	5.9123	2.1818	0.1	4865.9
5392	5.7278	2.1818	0.1	5058.4
5393	5.5432	2.1818	0.1	5297.9
5394	5.3586	2.1818	0.1	5602.2
5395	5.1741	2.1818	0.1	5999.3
5396	4.9895	2.1818	0.1	6533.1
5397	4.8049	2.1818	0.1	7287.3
5398	4.6204	2.1818	0.1	8402.3
5399	4.4358	2.1818	0.1	10329
5400	4.2512	2.1818	0.1	13955
5401	23.815	2.3636	0.1	195.22
5402	23.631	2.3636	0.1	212.48
5403	23.446	2.3636	0.1	234.04
5404	23.262	2.3636	0.1	258.85
5405	23.077	2.3636	0.1	286.08
5406	22.893	2.3636	0.1	315.18
5407	22.708	2.3636	0.1	345.74
5408	22.523	2.3636	0.1	377.48
5409	22.339	2.3636	0.1	410.2
5410	22.154	2.3636	0.1	443.76
5411	21.97	2.3636	0.1	478.05
5412	21.785	2.3636	0.1	513.
5413	21.601	2.3636	0.1	548.54
5414	21.416	2.3636	0.1	584.62
5415	21.231	2.3636	0.1	621.2
5416	21.047	2.3636	0.1	658.25
5417	20.862	2.3636	0.1	695.75
5418	20.678	2.3636	0.1	733.66
5419	20.493	2.3636	0.1	771.97
5420	20.309	2.3636	0.1	810.65
5421	20.124	2.3636	0.1	849.7
5422	19.94	2.3636	0.1	889.1
5423	19.755	2.3636	0.1	928.83
5424	19.57	2.3636	0.1	968.88
5425	19.386	2.3636	0.1	1009.2
5426	19.201	2.3636	0.1	1049.9
5427	19.017	2.3636	0.1	1090.9
5428	18.832	2.3636	0.1	1132.1
5429	18.648	2.3636	0.1	1173.6
5430	18.463	2.3636	0.1	1215.4
5431	18.278	2.3636	0.1	1257.5
5432	18.094	2.3636	0.1	1299.8
5433	17.909	2.3636	0.1	1342.3
5434	17.725	2.3636	0.1	1385.1
5435	17.54	2.3636	0.1	1428.1
5436	17.356	2.3636	0.1	1471.4
5437	17.171	2.3636	0.1	1514.9
5438	16.986	2.3636	0.1	1558.7
5439	16.802	2.3636	0.1	1602.6
5440	16.617	2.3636	0.1	1646.8
5441	16.433	2.3636	0.1	1691.2
5442	16.248	2.3636	0.1	1735.7
5443	16.064	2.3636	0.1	1780.5
5444	15.879	2.3636	0.1	1825.5
5445	15.694	2.3636	0.1	1870.7
5446	15.51	2.3636	0.1	1916.1
5447	15.325	2.3636	0.1	1961.7
5448	15.141	2.3636	0.1	2007.5
5449	14.956	2.3636	0.1	2053.4
5450	14.772	2.3636	0.1	2099.6
5451	14.587	2.3636	0.1	2145.9
5452	14.402	2.3636	0.1	2192.4
5453	14.218	2.3636	0.1	2239.
5454	14.033	2.3636	0.1	2285.8
5455	13.849	2.3636	0.1	2332.8
5456	13.664	2.3636	0.1	2379.9
5457	13.48	2.3636	0.1	2427.2
5458	13.295	2.3636	0.1	2474.6
5459	13.11	2.3636	0.1	2522.1
5460	12.926	2.3636	0.1	2569.8
5461	12.741	2.3636	0.1	2617.6
5462	12.557	2.3636	0.1	2665.5
5463	12.372	2.3636	0.1	2713.5
5464	12.188	2.3636	0.1	2761.6
5465	12.003	2.3636	0.1	2809.8
5466	11.819	2.3636	0.1	2858.1
5467	11.634	2.3636	0.1	2906.5
5468	11.449	2.3636	0.1	2954.9
5469	11.265	2.3636	0.1	3003.4
5470	11.08	2.3636	0.1	3051.9
5471	10.896	2.3636	0.1	3100.5
5472	10.711	2.3636	0.1	3149.1
5473	10.527	2.3636	0.1	3197.7
5474	10.342	2.3636	0.1	3246.3
5475	10.157	2.3636	0.1	3295.
5476	9.9728	2.3636	0.1	3343.7
5477	9.7883	2.3636	0.1	3392.4
5478	9.6037	2.3636	0.1	3441.2
5479	9.4191	2.3636	0.1	3490.
5480	9.2346	2.3636	0.1	3539.
5481	9.05	2.3636	0.1	3588.1
5482	8.8654	2.3636	0.1	3637.5
5483	8.6809	2.3636	0.1	3687.3
5484	8.4963	2.3636	0.1	3737.7
5485	8.3117	2.3636	0.1	3788.8
5486	8.1272	2.3636	0.1	3841.
5487	7.9426	2.3636	0.1	3894.6
5488	7.758	2.3636	0.1	3950.3
5489	7.5735	2.3636	0.1	4008.6
5490	7.3889	2.3636	0.1	4070.4
5491	7.2043	2.3636	0.1	4136.8
5492	7.0198	2.3636	0.1	4209.5
5493	6.8352	2.3636	0.1	4290.2
5494	6.6506	2.3636	0.1	4381.5
5495	6.466	2.3636	0.1	4486.7
5496	6.2815	2.3636	0.1	4610.
5497	6.0969	2.3636	0.1	4757.2
5498	5.9123	2.3636	0.1	4935.7
5499	5.7278	2.3636	0.1	5155.7
5500	5.5432	2.3636	0.1	5431.5
5501	5.3586	2.3636	0.1	5783.2
5502	5.1741	2.3636	0.1	6240.3
5503	4.9895	2.3636	0.1	6848.9
5504	4.8049	2.3636	0.1	7683.3
5505	4.6204	2.3636	0.1	8877.7
5506	4.4358	2.3636	0.1	10635
5507	4.2512	2.3636	0.1	13187
5508	23.815	2.5455	0.1	197.98
5509	23.631	2.5455	0.1	215.18
5510	23.446	2.5455	0.1	236.64
5511	23.262	2.5455	0.1	261.32
5512	23.077	2.5455	0.1	288.43
5513	22.893	2.5455	0.1	317.41
5514	22.708	2.5455	0.1	347.84
5515	22.523	2.5455	0.1	379.44
5516	22.339	2.5455	0.1	412.03
5517	22.154	2.5455	0.1	445.46
5518	21.97	2.5455	0.1	479.61
5519	21.785	2.5455	0.1	514.43
5520	21.601	2.5455	0.1	549.83
5521	21.416	2.5455	0.1	585.79
5522	21.231	2.5455	0.1	622.25
5523	21.047	2.5455	0.1	659.19
5524	20.862	2.5455	0.1	696.58
5525	20.678	2.5455	0.1	734.39
5526	20.493	2.5455	0.1	772.6
5527	20.309	2.5455	0.1	811.2
5528	20.124	2.5455	0.1	850.17
5529	19.94	2.5455	0.1	889.49
5530	19.755	2.5455	0.1	929.15
5531	19.57	2.5455	0.1	969.14
5532	19.386	2.5455	0.1	1009.4
5533	19.201	2.5455	0.1	1050.1
5534	19.017	2.5455	0.1	1091.
5535	18.832	2.5455	0.1	1132.2
5536	18.648	2.5455	0.1	1173.6
5537	18.463	2.5455	0.1	1215.4
5538	18.278	2.5455	0.1	1257.4
5539	18.094	2.5455	0.1	1299.7
5540	17.909	2.5455	0.1	1342.2
5541	17.725	2.5455	0.1	1385.
5542	17.54	2.5455	0.1	1428.
5543	17.356	2.5455	0.1	1471.2
5544	17.171	2.5455	0.1	1514.7
5545	16.986	2.5455	0.1	1558.4
5546	16.802	2.5455	0.1	1602.4
5547	16.617	2.5455	0.1	1646.5
5548	16.433	2.5455	0.1	1690.9
5549	16.248	2.5455	0.1	1735.5
5550	16.064	2.5455	0.1	1780.3
5551	15.879	2.5455	0.1	1825.2
5552	15.694	2.5455	0.1	1870.4
5553	15.51	2.5455	0.1	1915.8
5554	15.325	2.5455	0.1	1961.4
5555	15.141	2.5455	0.1	2007.1
5556	14.956	2.5455	0.1	2053.1
5557	14.772	2.5455	0.1	2099.2
5558	14.587	2.5455	0.1	2145.5
5559	14.402	2.5455	0.1	2191.9
5560	14.218	2.5455	0.1	2238.6
5561	14.033	2.5455	0.1	2285.3
5562	13.849	2.5455	0.1	2332.3
5563	13.664	2.5455	0.1	2379.4
5564	13.48	2.5455	0.1	2426.6
5565	13.295	2.5455	0.1	2474.
5566	13.11	2.5455	0.1	2521.5
5567	12.926	2.5455	0.1	2569.1
5568	12.741	2.5455	0.1	2616.9
5569	12.557	2.5455	0.1	2664.8
5570	12.372	2.5455	0.1	2712.7
5571	12.188	2.5455	0.1	2760.8
5572	12.003	2.5455	0.1	2808.9
5573	11.819	2.5455	0.1	2857.2
5574	11.634	2.5455	0.1	2905.5
5575	11.449	2.5455	0.1	2953.8
5576	11.265	2.5455	0.1	3002.2
5577	11.08	2.5455	0.1	3050.7
5578	10.896	2.5455	0.1	3099.1
5579	10.711	2.5455	0.1	3147.6
5580	10.527	2.5455	0.1	3196.1
5581	10.342	2.5455	0.1	3244.6
5582	10.157	2.5455	0.1	3293.1
5583	9.9728	2.5455	0.1	3341.7
5584	9.7883	2.5455	0.1	3390.2
5585	9.6037	2.5455	0.1	3438.8
5586	9.4191	2.5455	0.1	3487.5
5587	9.2346	2.5455	0.1	3536.3
5588	9.05	2.5455	0.1	3585.2
5589	8.8654	2.5455	0.1	3634.4
5590	8.6809	2.5455	0.1	3684.1
5591	8.4963	2.5455	0.1	3734.3
5592	8.3117	2.5455	0.1	3785.4
5593	8.1272	2.5455	0.1	3837.6
5594	7.9426	2.5455	0.1	3891.5
5595	7.758	2.5455	0.1	3947.5
5596	7.5735	2.5455	0.1	4006.4
5597	7.3889	2.5455	0.1	4069.3
5598	7.2043	2.5455	0.1	4137.3
5599	7.0198	2.5455	0.1	4212.3
5600	6.8352	2.5455	0.1	4296.5
5601	6.6506	2.5455	0.1	4392.6
5602	6.466	2.5455	0.1	4504.4
5603	6.2815	2.5455	0.1	4637.
5604	6.0969	2.5455	0.1	4796.8
5605	5.9123	2.5455	0.1	4992.3
5606	5.7278	2.5455	0.1	5235.2
5607	5.5432	2.5455	0.1	5541.1
5608	5.3586	2.5455	0.1	5931.4
5609	5.1741	2.5455	0.1	6435.9
5610	4.9895	2.5455	0.1	7096.3
5611	4.8049	2.5455	0.1	7970.1
5612	4.6204	2.5455	0.1	9127.5
5613	4.4358	2.5455	0.1	10612
5614	4.2512	2.5455	0.1	12234
5615	23.815	2.7273	0.1	199.81
5616	23.631	2.7273	0.1	216.97
5617	23.446	2.7273	0.1	238.36
5618	23.262	2.7273	0.1	262.97
5619	23.077	2.7273	0.1	290.
5620	22.893	2.7273	0.1	318.89
5621	22.708	2.7273	0.1	349.23
5622	22.523	2.7273	0.1	380.75
5623	22.339	2.7273	0.1	413.25
5624	22.154	2.7273	0.1	446.59
5625	21.97	2.7273	0.1	480.66
5626	21.785	2.7273	0.1	515.39
5627	21.601	2.7273	0.1	550.71
5628	21.416	2.7273	0.1	586.58
5629	21.231	2.7273	0.1	622.96
5630	21.047	2.7273	0.1	659.83
5631	20.862	2.7273	0.1	697.14
5632	20.678	2.7273	0.1	734.88
5633	20.493	2.7273	0.1	773.03
5634	20.309	2.7273	0.1	811.57
5635	20.124	2.7273	0.1	850.49
5636	19.94	2.7273	0.1	889.76
5637	19.755	2.7273	0.1	929.38
5638	19.57	2.7273	0.1	969.32
5639	19.386	2.7273	0.1	1009.6
5640	19.201	2.7273	0.1	1050.2
5641	19.017	2.7273	0.1	1091.
5642	18.832	2.7273	0.1	1132.2
5643	18.648	2.7273	0.1	1173.7
5644	18.463	2.7273	0.1	1215.4
5645	18.278	2.7273	0.1	1257.4
5646	18.094	2.7273	0.1	1299.6
5647	17.909	2.7273	0.1	1342.1
5648	17.725	2.7273	0.1	1384.9
5649	17.54	2.7273	0.1	1427.9
5650	17.356	2.7273	0.1	1471.1
5651	17.171	2.7273	0.1	1514.6
5652	16.986	2.7273	0.1	1558.3
5653	16.802	2.7273	0.1	1602.2
5654	16.617	2.7273	0.1	1646.4
5655	16.433	2.7273	0.1	1690.7
5656	16.248	2.7273	0.1	1735.3
5657	16.064	2.7273	0.1	1780.1
5658	15.879	2.7273	0.1	1825.
5659	15.694	2.7273	0.1	1870.2
5660	15.51	2.7273	0.1	1915.6
5661	15.325	2.7273	0.1	1961.1
5662	15.141	2.7273	0.1	2006.9
5663	14.956	2.7273	0.1	2052.8
5664	14.772	2.7273	0.1	2098.9
5665	14.587	2.7273	0.1	2145.2
5666	14.402	2.7273	0.1	2191.6
5667	14.218	2.7273	0.1	2238.3
5668	14.033	2.7273	0.1	2285.
5669	13.849	2.7273	0.1	2332.
5670	13.664	2.7273	0.1	2379.
5671	13.48	2.7273	0.1	2426.3
5672	13.295	2.7273	0.1	2473.6
5673	13.11	2.7273	0.1	2521.1
5674	12.926	2.7273	0.1	2568.7
5675	12.741	2.7273	0.1	2616.4
5676	12.557	2.7273	0.1	2664.3
5677	12.372	2.7273	0.1	2712.2
5678	12.188	2.7273	0.1	2760.2
5679	12.003	2.7273	0.1	2808.3
5680	11.819	2.7273	0.1	2856.5
5681	11.634	2.7273	0.1	2904.8
5682	11.449	2.7273	0.1	2953.1
5683	11.265	2.7273	0.1	3001.4
5684	11.08	2.7273	0.1	3049.8
5685	10.896	2.7273	0.1	3098.2
5686	10.711	2.7273	0.1	3146.6
5687	10.527	2.7273	0.1	3195.
5688	10.342	2.7273	0.1	3243.5
5689	10.157	2.7273	0.1	3291.9
5690	9.9728	2.7273	0.1	3340.3
5691	9.7883	2.7273	0.1	3388.8
5692	9.6037	2.7273	0.1	3437.2
5693	9.4191	2.7273	0.1	3485.8
5694	9.2346	2.7273	0.1	3534.4
5695	9.05	2.7273	0.1	3583.2
5696	8.8654	2.7273	0.1	3632.3
5697	8.6809	2.7273	0.1	3681.9
5698	8.4963	2.7273	0.1	3732.
5699	8.3117	2.7273	0.1	3783.1
5700	8.1272	2.7273	0.1	3835.3
5701	7.9426	2.7273	0.1	3889.2
5702	7.758	2.7273	0.1	3945.5
5703	7.5735	2.7273	0.1	4004.9
5704	7.3889	2.7273	0.1	4068.5
5705	7.2043	2.7273	0.1	4137.7
5706	7.0198	2.7273	0.1	4214.3
5707	6.8352	2.7273	0.1	4300.8
5708	6.6506	2.7273	0.1	4400.2
5709	6.466	2.7273	0.1	4516.8
5710	6.2815	2.7273	0.1	4656.
5711	6.0969	2.7273	0.1	4824.7
5712	5.9123	2.7273	0.1	5032.5
5713	5.7278	2.7273	0.1	5291.9
5714	5.5432	2.7273	0.1	5619.3
5715	5.3586	2.7273	0.1	6036.8
5716	5.1741	2.7273	0.1	6572.7
5717	4.9895	2.7273	0.1	7261.9
5718	4.8049	2.7273	0.1	8141.
5719	4.6204	2.7273	0.1	9229.2
5720	4.4358	2.7273	0.1	10476
5721	4.2512	2.7273	0.1	11670
5722	23.815	2.9091	0.1	200.72
5723	23.631	2.9091	0.1	217.86
5724	23.446	2.9091	0.1	239.22
5725	23.262	2.9091	0.1	263.79
5726	23.077	2.9091	0.1	290.78
5727	22.893	2.9091	0.1	319.63
5728	22.708	2.9091	0.1	349.93
5729	22.523	2.9091	0.1	381.41
5730	22.339	2.9091	0.1	413.87
5731	22.154	2.9091	0.1	447.16
5732	21.97	2.9091	0.1	481.19
5733	21.785	2.9091	0.1	515.87
5734	21.601	2.9091	0.1	551.15
5735	21.416	2.9091	0.1	586.98
5736	21.231	2.9091	0.1	623.32
5737	21.047	2.9091	0.1	660.15
5738	20.862	2.9091	0.1	697.42
5739	20.678	2.9091	0.1	735.13
5740	20.493	2.9091	0.1	773.25
5741	20.309	2.9091	0.1	811.76
5742	20.124	2.9091	0.1	850.65
5743	19.94	2.9091	0.1	889.9
5744	19.755	2.9091	0.1	929.49
5745	19.57	2.9091	0.1	969.42
5746	19.386	2.9091	0.1	1009.7
5747	19.201	2.9091	0.1	1050.2
5748	19.017	2.9091	0.1	1091.1
5749	18.832	2.9091	0.1	1132.2
5750	18.648	2.9091	0.1	1173.7
5751	18.463	2.9091	0.1	1215.4
5752	18.278	2.9091	0.1	1257.4
5753	18.094	2.9091	0.1	1299.6
5754	17.909	2.9091	0.1	1342.1
5755	17.725	2.9091	0.1	1384.9
5756	17.54	2.9091	0.1	1427.9
5757	17.356	2.9091	0.1	1471.1
5758	17.171	2.9091	0.1	1514.5
5759	16.986	2.9091	0.1	1558.2
5760	16.802	2.9091	0.1	1602.2
5761	16.617	2.9091	0.1	1646.3
5762	16.433	2.9091	0.1	1690.6
5763	16.248	2.9091	0.1	1735.2
5764	16.064	2.9091	0.1	1780.
5765	15.879	2.9091	0.1	1824.9
5766	15.694	2.9091	0.1	1870.1
5767	15.51	2.9091	0.1	1915.5
5768	15.325	2.9091	0.1	1961.
5769	15.141	2.9091	0.1	2006.8
5770	14.956	2.9091	0.1	2052.7
5771	14.772	2.9091	0.1	2098.8
5772	14.587	2.9091	0.1	2145.1
5773	14.402	2.9091	0.1	2191.5
5774	14.218	2.9091	0.1	2238.1
5775	14.033	2.9091	0.1	2284.9
5776	13.849	2.9091	0.1	2331.8
5777	13.664	2.9091	0.1	2378.9
5778	13.48	2.9091	0.1	2426.1
5779	13.295	2.9091	0.1	2473.4
5780	13.11	2.9091	0.1	2520.9
5781	12.926	2.9091	0.1	2568.5
5782	12.741	2.9091	0.1	2616.2
5783	12.557	2.9091	0.1	2664.
5784	12.372	2.9091	0.1	2711.9
5785	12.188	2.9091	0.1	2760.
5786	12.003	2.9091	0.1	2808.
5787	11.819	2.9091	0.1	2856.2
5788	11.634	2.9091	0.1	2904.4
5789	11.449	2.9091	0.1	2952.7
5790	11.265	2.9091	0.1	3001.
5791	11.08	2.9091	0.1	3049.4
5792	10.896	2.9091	0.1	3097.7
5793	10.711	2.9091	0.1	3146.1
5794	10.527	2.9091	0.1	3194.5
5795	10.342	2.9091	0.1	3242.9
5796	10.157	2.9091	0.1	3291.3
5797	9.9728	2.9091	0.1	3339.6
5798	9.7883	2.9091	0.1	3388.
5799	9.6037	2.9091	0.1	3436.4
5800	9.4191	2.9091	0.1	3484.9
5801	9.2346	2.9091	0.1	3533.5
5802	9.05	2.9091	0.1	3582.2
5803	8.8654	2.9091	0.1	3631.3
5804	8.6809	2.9091	0.1	3680.8
5805	8.4963	2.9091	0.1	3730.9
5806	8.3117	2.9091	0.1	3781.9
5807	8.1272	2.9091	0.1	3834.1
5808	7.9426	2.9091	0.1	3888.1
5809	7.758	2.9091	0.1	3944.5
5810	7.5735	2.9091	0.1	4004.1
5811	7.3889	2.9091	0.1	4068.
5812	7.2043	2.9091	0.1	4137.8
5813	7.0198	2.9091	0.1	4215.3
5814	6.8352	2.9091	0.1	4303.
5815	6.6506	2.9091	0.1	4404.2
5816	6.466	2.9091	0.1	4523.2
5817	6.2815	2.9091	0.1	4665.8
5818	6.0969	2.9091	0.1	4839.2
5819	5.9123	2.9091	0.1	5053.4
5820	5.7278	2.9091	0.1	5321.4
5821	5.5432	2.9091	0.1	5660.1
5822	5.3586	2.9091	0.1	6091.4
5823	5.1741	2.9091	0.1	6642.6
5824	4.9895	2.9091	0.1	7343.5
5825	4.8049	2.9091	0.1	8217.8
5826	4.6204	2.9091	0.1	9259.1
5827	4.4358	2.9091	0.1	10387
5828	4.2512	2.9091	0.1	11402
5829	23.815	3.0909	0.1	200.72
5830	23.631	3.0909	0.1	217.86
5831	23.446	3.0909	0.1	239.22
5832	23.262	3.0909	0.1	263.79
5833	23.077	3.0909	0.1	290.78
5834	22.893	3.0909	0.1	319.63
5835	22.708	3.0909	0.1	349.93
5836	22.523	3.0909	0.1	381.41
5837	22.339	3.0909	0.1	413.87
5838	22.154	3.0909	0.1	447.16
5839	21.97	3.0909	0.1	481.19
5840	21.785	3.0909	0.1	515.87
5841	21.601	3.0909	0.1	551.15
5842	21.416	3.0909	0.1	586.98
5843	21.231	3.0909	0.1	623.32
5844	21.047	3.0909	0.1	660.15
5845	20.862	3.0909	0.1	697.42
5846	20.678	3.0909	0.1	735.13
5847	20.493	3.0909	0.1	773.25
5848	20.309	3.0909	0.1	811.76
5849	20.124	3.0909	0.1	850.65
5850	19.94	3.0909	0.1	889.9
5851	19.755	3.0909	0.1	929.49
5852	19.57	3.0909	0.1	969.42
5853	19.386	3.0909	0.1	1009.7
5854	19.201	3.0909	0.1	1050.2
5855	19.017	3.0909	0.1	1091.1
5856	18.832	3.0909	0.1	1132.2
5857	18.648	3.0909	0.1	1173.7
5858	18.463	3.0909	0.1	1215.4
5859	18.278	3.0909	0.1	1257.4
5860	18.094	3.0909	0.1	1299.6
5861	17.909	3.0909	0.1	1342.1
5862	17.725	3.0909	0.1	1384.9
5863	17.54	3.0909	0.1	1427.9
5864	17.356	3.0909	0.1	1471.1
5865	17.171	3.0909	0.1	1514.5
5866	16.986	3.0909	0.1	1558.2
5867	16.802	3.0909	0.1	1602.2
5868	16.617	3.0909	0.1	1646.3
5869	16.433	3.0909	0.1	1690.6
5870	16.248	3.0909	0.1	1735.2
5871	16.064	3.0909	0.1	1780.
5872	15.879	3.0909	0.1	1824.9
5873	15.694	3.0909	0.1	1870.1
5874	15.51	3.0909	0.1	1915.5
5875	15.325	3.0909	0.1	1961.
5876	15.141	3.0909	0.1	2006.8
5877	14.956	3.0909	0.1	2052.7
5878	14.772	3.0909	0.1	2098.8
5879	14.587	3.0909	0.1	2145.1
5880	14.402	3.0909	0.1	2191.5
5881	14.218	3.0909	0.1	2238.1
5882	14.033	3.0909	0.1	2284.9
5883	13.849	3.0909	0.1	2331.8
5884	13.664	3.0909	0.1	2378.9
5885	13.48	3.0909	0.1	2426.1
5886	13.295	3.0909	0.1	2473.4
5887	13.11	3.0909	0.1	2520.9
5888	12.926	3.0909	0.1	2568.5
5889	12.741	3.0909	0.1	2616.2
5890	12.557	3.0909	0.1	2664.
5891	12.372	3.0909	0.1	2711.9
5892	12.188	3.0909	0.1	2760.
5893	12.003	3.0909	0.1	2808.
5894	11.819	3.0909	0.1	2856.2
5895	11.634	3.0909	0.1	2904.4
5896	11.449	3.0909	0.1	2952.7
5897	11.265	3.0909	0.1	3001.
5898	11.08	3.0909	0.1	3049.4
5899	10.896	3.0909	0.1	3097.7
5900	10.711	3.0909	0.1	3146.1
5901	10.527	3.0909	0.1	3194.5
5902	10.342	3.0909	0.1	3242.9
5903	10.157	3.0909	0.1	3291.3
5904	9.9728	3.0909	0.1	3339.6
5905	9.7883	3.0909	0.1	3388.
5906	9.6037	3.0909	0.1	3436.4
5907	9.4191	3.0909	0.1	3484.9
5908	9.2346	3.0909	0.1	3533.5
5909	9.05	3.0909	0.1	3582.2
5910	8.8654	3.0909	0.1	3631.3
5911	8.6809	3.0909	0.1	3680.8
5912	8.4963	3.0909	0.1	3730.9
5913	8.3117	3.0909	0.1	3781.9
5914	8.1272	3.0909	0.1	3834.1
5915	7.9426	3.0909	0.1	3888.1
5916	7.758	3.0909	0.1	3944.5
5917	7.5735	3.0909	0.1	4004.1
5918	7.3889	3.0909	0.1	4068.
5919	7.2043	3.0909	0.1	4137.8
5920	7.0198	3.0909	0.1	4215.3
5921	6.8352	3.0909	0.1	4303.
5922	6.6506	3.0909	0.1	4404.2
5923	6.466	3.0909	0.1	4523.2
5924	6.2815	3.0909	0.1	4665.8
5925	6.0969	3.0909	0.1	4839.2
5926	5.9123	3.0909	0.1	5053.4
5927	5.7278	3.0909	0.1	5321.4
5928	5.5432	3.0909	0.1	5660.1
5929	5.3586	3.0909	0.1	6091.4
5930	5.1741	3.0909	0.1	6642.6
5931	4.9895	3.0909	0.1	7343.5
5932	4.8049	3.0909	0.1	8217.8
5933	4.6204	3.0909	0.1	9259.1
5934	4.4358	3.0909	0.1	10387
5935	4.2512	3.0909	0.1	11402
5936	23.815	3.2727	0.1	199.81
5937	23.631	3.2727	0.1	216.97
5938	23.446	3.2727	0.1	238.36
5939	23.262	3.2727	0.1	262.97
5940	23.077	3.2727	0.1	290.
5941	22.893	3.2727	0.1	318.89
5942	22.708	3.2727	0.1	349.23
5943	22.523	3.2727	0.1	380.75
5944	22.339	3.2727	0.1	413.25
5945	22.154	3.2727	0.1	446.59
5946	21.97	3.2727	0.1	480.66
5947	21.785	3.2727	0.1	515.39
5948	21.601	3.2727	0.1	550.71
5949	21.416	3.2727	0.1	586.58
5950	21.231	3.2727	0.1	622.96
5951	21.047	3.2727	0.1	659.83
5952	20.862	3.2727	0.1	697.14
5953	20.678	3.2727	0.1	734.88
5954	20.493	3.2727	0.1	773.03
5955	20.309	3.2727	0.1	811.57
5956	20.124	3.2727	0.1	850.49
5957	19.94	3.2727	0.1	889.76
5958	19.755	3.2727	0.1	929.38
5959	19.57	3.2727	0.1	969.32
5960	19.386	3.2727	0.1	1009.6
5961	19.201	3.2727	0.1	1050.2
5962	19.017	3.2727	0.1	1091.
5963	18.832	3.2727	0.1	1132.2
5964	18.648	3.2727	0.1	1173.7
5965	18.463	3.2727	0.1	1215.4
5966	18.278	3.2727	0.1	1257.4
5967	18.094	3.2727	0.1	1299.6
5968	17.909	3.2727	0.1	1342.1
5969	17.725	3.2727	0.1	1384.9
5970	17.54	3.2727	0.1	1427.9
5971	17.356	3.2727	0.1	1471.1
5972	17.171	3.2727	0.1	1514.6
5973	16.986	3.2727	0.1	1558.3
5974	16.802	3.2727	0.1	1602.2
5975	16.617	3.2727	0.1	1646.4
5976	16.433	3.2727	0.1	1690.7
5977	16.248	3.2727	0.1	1735.3
5978	16.064	3.2727	0.1	1780.1
5979	15.879	3.2727	0.1	1825.
5980	15.694	3.2727	0.1	1870.2
5981	15.51	3.2727	0.1	1915.6
5982	15.325	3.2727	0.1	1961.1
5983	15.141	3.2727	0.1	2006.9
5984	14.956	3.2727	0.1	2052.8
5985	14.772	3.2727	0.1	2098.9
5986	14.587	3.2727	0.1	2145.2
5987	14.402	3.2727	0.1	2191.6
5988	14.218	3.2727	0.1	2238.3
5989	14.033	3.2727	0.1	2285.
5990	13.849	3.2727	0.1	2332.
5991	13.664	3.2727	0.1	2379.
5992	13.48	3.2727	0.1	2426.3
5993	13.295	3.2727	0.1	2473.6
5994	13.11	3.2727	0.1	2521.1
5995	12.926	3.2727	0.1	2568.7
5996	12.741	3.2727	0.1	2616.4
5997	12.557	3.2727	0.1	2664.3
5998	12.372	3.2727	0.1	2712.2
5999	12.188	3.2727	0.1	2760.2
6000	12.003	3.2727	0.1	2808.3
6001	11.819	3.2727	0.1	2856.5
6002	11.634	3.2727	0.1	2904.8
6003	11.449	3.2727	0.1	2953.1
6004	11.265	3.2727	0.1	3001.4
6005	11.08	3.2727	0.1	3049.8
6006	10.896	3.2727	0.1	3098.2
6007	10.711	3.2727	0.1	3146.6
6008	10.527	3.2727	0.1	3195.
6009	10.342	3.2727	0.1	3243.5
6010	10.157	3.2727	0.1	3291.9
6011	9.9728	3.2727	0.1	3340.3
6012	9.7883	3.2727	0.1	3388.8
6013	9.6037	3.2727	0.1	3437.2
6014	9.4191	3.2727	0.1	3485.8
6015	9.2346	3.2727	0.1	3534.4
6016	9.05	3.2727	0.1	3583.2
6017	8.8654	3.2727	0.1	3632.3
6018	8.6809	3.2727	0.1	3681.9
6019	8.4963	3.2727	0.1	3732.
6020	8.3117	3.2727	0.1	3783.1
6021	8.1272	3.2727	0.1	3835.3
6022	7.9426	3.2727	0.1	3889.2
6023	7.758	3.2727	0.1	3945.5
6024	7.5735	3.2727	0.1	4004.9
6025	7.3889	3.2727	0.1	4068.5
6026	7.2043	3.2727	0.1	4137.7
6027	7.0198	3.2727	0.1	4214.3
6028	6.8352	3.2727	0.1	4300.8
6029	6.6506	3.2727	0.1	4400.2
6030	6.466	3.2727	0.1	4516.8
6031	6.2815	3.2727	0.1	4656.
6032	6.0969	3.2727	0.1	4824.7
6033	5.9123	3.2727	0.1	5032.5
6034	5.7278	3.2727	0.1	5291.9
6035	5.5432	3.2727	0.1	5619.3
6036	5.3586	3.2727	0.1	6036.8
6037	5.1741	3.2727	0.1	6572.7
6038	4.9895	3.2727	0.1	7261.9
6039	4.8049	3.2727	0.1	8141.
6040	4.6204	3.2727	0.1	9229.2
6041	4.4358	3.2727	0.1	10476
6042	4.2512	3.2727	0.1	11670
6043	23.815	3.4545	0.1	197.98
6044	23.631	3.4545	0.1	215.18
6045	23.446	3.4545	0.1	236.64
6046	23.262	3.4545	0.1	261.32
6047	23.077	3.4545	0.1	288.43
6048	22.893	3.4545	0.1	317.41
6049	22.708	3.4545	0.1	347.84
6050	22.523	3.4545	0.1	379.44
6051	22.339	3.4545	0.1	412.03
6052	22.154	3.4545	0.1	445.46
6053	21.97	3.4545	0.1	479.61
6054	21.785	3.4545	0.1	514.43
6055	21.601	3.4545	0.1	549.83
6056	21.416	3.4545	0.1	585.79
6057	21.231	3.4545	0.1	622.25
6058	21.047	3.4545	0.1	659.19
6059	20.862	3.4545	0.1	696.58
6060	20.678	3.4545	0.1	734.39
6061	20.493	3.4545	0.1	772.6
6062	20.309	3.4545	0.1	811.2
6063	20.124	3.4545	0.1	850.17
6064	19.94	3.4545	0.1	889.49
6065	19.755	3.4545	0.1	929.15
6066	19.57	3.4545	0.1	969.14
6067	19.386	3.4545	0.1	1009.4
6068	19.201	3.4545	0.1	1050.1
6069	19.017	3.4545	0.1	1091.
6070	18.832	3.4545	0.1	1132.2
6071	18.648	3.4545	0.1	1173.6
6072	18.463	3.4545	0.1	1215.4
6073	18.278	3.4545	0.1	1257.4
6074	18.094	3.4545	0.1	1299.7
6075	17.909	3.4545	0.1	1342.2
6076	17.725	3.4545	0.1	1385.
6077	17.54	3.4545	0.1	1428.
6078	17.356	3.4545	0.1	1471.2
6079	17.171	3.4545	0.1	1514.7
6080	16.986	3.4545	0.1	1558.4
6081	16.802	3.4545	0.1	1602.4
6082	16.617	3.4545	0.1	1646.5
6083	16.433	3.4545	0.1	1690.9
6084	16.248	3.4545	0.1	1735.5
6085	16.064	3.4545	0.1	1780.3
6086	15.879	3.4545	0.1	1825.2
6087	15.694	3.4545	0.1	1870.4
6088	15.51	3.4545	0.1	1915.8
6089	15.325	3.4545	0.1	1961.4
6090	15.141	3.4545	0.1	2007.1
6091	14.956	3.4545	0.1	2053.1
6092	14.772	3.4545	0.1	2099.2
6093	14.587	3.4545	0.1	2145.5
6094	14.402	3.4545	0.1	2191.9
6095	14.218	3.4545	0.1	2238.6
6096	14.033	3.4545	0.1	2285.3
6097	13.849	3.4545	0.1	2332.3
6098	13.664	3.4545	0.1	2379.4
6099	13.48	3.4545	0.1	2426.6
6100	13.295	3.4545	0.1	2474.
6101	13.11	3.4545	0.1	2521.5
6102	12.926	3.4545	0.1	2569.1
6103	12.741	3.4545	0.1	2616.9
6104	12.557	3.4545	0.1	2664.8
6105	12.372	3.4545	0.1	2712.7
6106	12.188	3.4545	0.1	2760.8
6107	12.003	3.4545	0.1	2808.9
6108	11.819	3.4545	0.1	2857.2
6109	11.634	3.4545	0.1	2905.5
6110	11.449	3.4545	0.1	2953.8
6111	11.265	3.4545	0.1	3002.2
6112	11.08	3.4545	0.1	3050.7
6113	10.896	3.4545	0.1	3099.1
6114	10.711	3.4545	0.1	3147.6
6115	10.527	3.4545	0.1	3196.1
6116	10.342	3.4545	0.1	3244.6
6117	10.157	3.4545	0.1	3293.1
6118	9.9728	3.4545	0.1	3341.7
6119	9.7883	3.4545	0.1	3390.2
6120	9.6037	3.4545	0.1	3438.8
6121	9.4191	3.4545	0.1	3487.5
6122	9.2346	3.4545	0.1	3536.3
6123	9.05	3.4545	0.1	3585.2
6124	8.8654	3.4545	0.1	3634.4
6125	8.6809	3.4545	0.1	3684.1
6126	8.4963	3.4545	0.1	3734.3
6127	8.3117	3.4545	0.1	3785.4
6128	8.1272	3.4545	0.1	3837.6
6129	7.9426	3.4545	0.1	3891.5
6130	7.758	3.4545	0.1	3947.5
6131	7.5735	3.4545	0.1	4006.4
6132	7.3889	3.4545	0.1	4069.3
6133	7.2043	3.4545	0.1	4137.3
6134	7.0198	3.4545	0.1	4212.3
6135	6.8352	3.4545	0.1	4296.5
6136	6.6506	3.4545	0.1	4392.6
6137	6.466	3.4545	0.1	4504.4
6138	6.2815	3.4545	0.1	4637.
6139	6.0969	3.4545	0.1	4796.8
6140	5.9123	3.4545	0.1	4992.3
6141	5.7278	3.4545	0.1	5235.2
6142	5.5432	3.4545	0.1	5541.1
6143	5.3586	3.4545	0.1	5931.4
6144	5.1741	3.4545	0.1	6435.9
6145	4.9895	3.4545	0.1	7096.3
6146	4.8049	3.4545	0.1	7970.1
6147	4.6204	3.4545	0.1	9127.5
6148	4.4358	3.4545	0.1	10612
6149	4.2512	3.4545	0.1	12234
6150	23.815	3.6364	0.1	195.22
6151	23.631	3.6364	0.1	212.48
6152	23.446	3.6364	0.1	234.04
6153	23.262	3.6364	0.1	258.85
6154	23.077	3.6364	0.1	286.08
6155	22.893	3.6364	0.1	315.18
6156	22.708	3.6364	0.1	345.74
6157	22.523	3.6364	0.1	377.48
6158	22.339	3.6364	0.1	410.2
6159	22.154	3.6364	0.1	443.76
6160	21.97	3.6364	0.1	478.05
6161	21.785	3.6364	0.1	513.
6162	21.601	3.6364	0.1	548.54
6163	21.416	3.6364	0.1	584.62
6164	21.231	3.6364	0.1	621.2
6165	21.047	3.6364	0.1	658.25
6166	20.862	3.6364	0.1	695.75
6167	20.678	3.6364	0.1	733.66
6168	20.493	3.6364	0.1	771.97
6169	20.309	3.6364	0.1	810.65
6170	20.124	3.6364	0.1	849.7
6171	19.94	3.6364	0.1	889.1
6172	19.755	3.6364	0.1	928.83
6173	19.57	3.6364	0.1	968.88
6174	19.386	3.6364	0.1	1009.2
6175	19.201	3.6364	0.1	1049.9
6176	19.017	3.6364	0.1	1090.9
6177	18.832	3.6364	0.1	1132.1
6178	18.648	3.6364	0.1	1173.6
6179	18.463	3.6364	0.1	1215.4
6180	18.278	3.6364	0.1	1257.5
6181	18.094	3.6364	0.1	1299.8
6182	17.909	3.6364	0.1	1342.3
6183	17.725	3.6364	0.1	1385.1
6184	17.54	3.6364	0.1	1428.1
6185	17.356	3.6364	0.1	1471.4
6186	17.171	3.6364	0.1	1514.9
6187	16.986	3.6364	0.1	1558.7
6188	16.802	3.6364	0.1	1602.6
6189	16.617	3.6364	0.1	1646.8
6190	16.433	3.6364	0.1	1691.2
6191	16.248	3.6364	0.1	1735.7
6192	16.064	3.6364	0.1	1780.5
6193	15.879	3.6364	0.1	1825.5
6194	15.694	3.6364	0.1	1870.7
6195	15.51	3.6364	0.1	1916.1
6196	15.325	3.6364	0.1	1961.7
6197	15.141	3.6364	0.1	2007.5
6198	14.956	3.6364	0.1	2053.4
6199	14.772	3.6364	0.1	2099.6
6200	14.587	3.6364	0.1	2145.9
6201	14.402	3.6364	0.1	2192.4
6202	14.218	3.6364	0.1	2239.
6203	14.033	3.6364	0.1	2285.8
6204	13.849	3.6364	0.1	2332.8
6205	13.664	3.6364	0.1	2379.9
6206	13.48	3.6364	0.1	2427.2
6207	13.295	3.6364	0.1	2474.6
6208	13.11	3.6364	0.1	2522.1
6209	12.926	3.6364	0.1	2569.8
6210	12.741	3.6364	0.1	2617.6
6211	12.557	3.6364	0.1	2665.5
6212	12.372	3.6364	0.1	2713.5
6213	12.188	3.6364	0.1	2761.6
6214	12.003	3.6364	0.1	2809.8
6215	11.819	3.6364	0.1	2858.1
6216	11.634	3.6364	0.1	2906.5
6217	11.449	3.6364	0.1	2954.9
6218	11.265	3.6364	0.1	3003.4
6219	11.08	3.6364	0.1	3051.9
6220	10.896	3.6364	0.1	3100.5
6221	10.711	3.6364	0.1	3149.1
6222	10.527	3.6364	0.1	3197.7
6223	10.342	3.6364	0.1	3246.3
6224	10.157	3.6364	0.1	3295.
6225	9.9728	3.6364	0.1	3343.7
6226	9.7883	3.6364	0.1	3392.4
6227	9.6037	3.6364	0.1	3441.2
6228	9.4191	3.6364	0.1	3490.
6229	9.2346	3.6364	0.1	3539.
6230	9.05	3.6364	0.1	3588.1
6231	8.8654	3.6364	0.1	3637.5
6232	8.6809	3.6364	0.1	3687.3
6233	8.4963	3.6364	0.1	3737.7
6234	8.3117	3.6364	0.1	3788.8
6235	8.1272	3.6364	0.1	3841.
6236	7.9426	3.6364	0.1	3894.6
6237	7.758	3.6364	0.1	3950.3
6238	7.5735	3.6364	0.1	4008.6
6239	7.3889	3.6364	0.1	4070.4
6240	7.2043	3.6364	0.1	4136.8
6241	7.0198	3.6364	0.1	4209.5
6242	6.8352	3.6364	0.1	4290.2
6243	6.6506	3.6364	0.1	4381.5
6244	6.466	3.6364	0.1	4486.7
6245	6.2815	3.6364	0.1	4610.
6246	6.0969	3.6364	0.1	4757.2
6247	5.9123	3.6364	0.1	4935.7
6248	5.7278	3.6364	0.1	5155.7
6249	5.5432	3.6364	0.1	5431.5
6250	5.3586	3.6364	0.1	5783.2
6251	5.1741	3.6364	0.1	6240.3
6252	4.9895	3.6364	0.1	6848.9
6253	4.8049	3.6364	0.1	7683.3
6254	4.6204	3.6364	0.1	8877.7
6255	4.4358	3.6364	0.1	10635
6256	4.2512	3.6364	0.1	13187
6257	23.815	3.8182	0.1	191.5
6258	23.631	3.8182	0.1	208.85
6259	23.446	3.8182	0.1	230.55
6260	23.262	3.8182	0.1	255.52
6261	23.077	3.8182	0.1	282.93
6262	22.893	3.8182	0.1	312.2
6263	22.708	3.8182	0.1	342.94
6264	22.523	3.8182	0.1	374.87
6265	22.339	3.8182	0.1	407.77
6266	22.154	3.8182	0.1	441.52
6267	21.97	3.8182	0.1	476.
6268	21.785	3.8182	0.1	511.13
6269	21.601	3.8182	0.1	546.84
6270	21.416	3.8182	0.1	583.09
6271	21.231	3.8182	0.1	619.83
6272	21.047	3.8182	0.1	657.04
6273	20.862	3.8182	0.1	694.67
6274	20.678	3.8182	0.1	732.72
6275	20.493	3.8182	0.1	771.15
6276	20.309	3.8182	0.1	809.95
6277	20.124	3.8182	0.1	849.1
6278	19.94	3.8182	0.1	888.6
6279	19.755	3.8182	0.1	928.41
6280	19.57	3.8182	0.1	968.55
6281	19.386	3.8182	0.1	1009.
6282	19.201	3.8182	0.1	1049.7
6283	19.017	3.8182	0.1	1090.7
6284	18.832	3.8182	0.1	1132.
6285	18.648	3.8182	0.1	1173.6
6286	18.463	3.8182	0.1	1215.4
6287	18.278	3.8182	0.1	1257.5
6288	18.094	3.8182	0.1	1299.9
6289	17.909	3.8182	0.1	1342.5
6290	17.725	3.8182	0.1	1385.3
6291	17.54	3.8182	0.1	1428.4
6292	17.356	3.8182	0.1	1471.7
6293	17.171	3.8182	0.1	1515.2
6294	16.986	3.8182	0.1	1558.9
6295	16.802	3.8182	0.1	1602.9
6296	16.617	3.8182	0.1	1647.1
6297	16.433	3.8182	0.1	1691.5
6298	16.248	3.8182	0.1	1736.1
6299	16.064	3.8182	0.1	1780.9
6300	15.879	3.8182	0.1	1825.9
6301	15.694	3.8182	0.1	1871.2
6302	15.51	3.8182	0.1	1916.6
6303	15.325	3.8182	0.1	1962.2
6304	15.141	3.8182	0.1	2008.
6305	14.956	3.8182	0.1	2053.9
6306	14.772	3.8182	0.1	2100.1
6307	14.587	3.8182	0.1	2146.4
6308	14.402	3.8182	0.1	2192.9
6309	14.218	3.8182	0.1	2239.6
6310	14.033	3.8182	0.1	2286.5
6311	13.849	3.8182	0.1	2333.4
6312	13.664	3.8182	0.1	2380.6
6313	13.48	3.8182	0.1	2427.9
6314	13.295	3.8182	0.1	2475.3
6315	13.11	3.8182	0.1	2522.9
6316	12.926	3.8182	0.1	2570.6
6317	12.741	3.8182	0.1	2618.5
6318	12.557	3.8182	0.1	2666.5
6319	12.372	3.8182	0.1	2714.5
6320	12.188	3.8182	0.1	2762.7
6321	12.003	3.8182	0.1	2811.
6322	11.819	3.8182	0.1	2859.4
6323	11.634	3.8182	0.1	2907.8
6324	11.449	3.8182	0.1	2956.3
6325	11.265	3.8182	0.1	3004.9
6326	11.08	3.8182	0.1	3053.6
6327	10.896	3.8182	0.1	3102.3
6328	10.711	3.8182	0.1	3151.
6329	10.527	3.8182	0.1	3199.8
6330	10.342	3.8182	0.1	3248.6
6331	10.157	3.8182	0.1	3297.4
6332	9.9728	3.8182	0.1	3346.3
6333	9.7883	3.8182	0.1	3395.2
6334	9.6037	3.8182	0.1	3444.2
6335	9.4191	3.8182	0.1	3493.3
6336	9.2346	3.8182	0.1	3542.5
6337	9.05	3.8182	0.1	3591.8
6338	8.8654	3.8182	0.1	3641.5
6339	8.6809	3.8182	0.1	3691.4
6340	8.4963	3.8182	0.1	3741.9
6341	8.3117	3.8182	0.1	3793.1
6342	8.1272	3.8182	0.1	3845.3
6343	7.9426	3.8182	0.1	3898.7
6344	7.758	3.8182	0.1	3953.8
6345	7.5735	3.8182	0.1	4011.2
6346	7.3889	3.8182	0.1	4071.7
6347	7.2043	3.8182	0.1	4136.1
6348	7.0198	3.8182	0.1	4205.8
6349	6.8352	3.8182	0.1	4282.2
6350	6.6506	3.8182	0.1	4367.5
6351	6.466	3.8182	0.1	4464.4
6352	6.2815	3.8182	0.1	4576.3
6353	6.0969	3.8182	0.1	4708.1
6354	5.9123	3.8182	0.1	4865.9
6355	5.7278	3.8182	0.1	5058.4
6356	5.5432	3.8182	0.1	5297.9
6357	5.3586	3.8182	0.1	5602.2
6358	5.1741	3.8182	0.1	5999.3
6359	4.9895	3.8182	0.1	6533.1
6360	4.8049	3.8182	0.1	7287.3
6361	4.6204	3.8182	0.1	8402.3
6362	4.4358	3.8182	0.1	10329
6363	4.2512	3.8182	0.1	13955
6364	23.815	4.	0.1	186.79
6365	23.631	4.	0.1	204.25
6366	23.446	4.	0.1	226.14
6367	23.262	4.	0.1	251.33
6368	23.077	4.	0.1	278.96
6369	22.893	4.	0.1	308.47
6370	22.708	4.	0.1	339.45
6371	22.523	4.	0.1	371.61
6372	22.339	4.	0.1	404.77
6373	22.154	4.	0.1	438.75
6374	21.97	4.	0.1	473.47
6375	21.785	4.	0.1	508.83
6376	21.601	4.	0.1	544.77
6377	21.416	4.	0.1	581.23
6378	21.231	4.	0.1	618.18
6379	21.047	4.	0.1	655.57
6380	20.862	4.	0.1	693.38
6381	20.678	4.	0.1	731.59
6382	20.493	4.	0.1	770.17
6383	20.309	4.	0.1	809.11
6384	20.124	4.	0.1	848.4
6385	19.94	4.	0.1	888.01
6386	19.755	4.	0.1	927.93
6387	19.57	4.	0.1	968.16
6388	19.386	4.	0.1	1008.7
6389	19.201	4.	0.1	1049.5
6390	19.017	4.	0.1	1090.6
6391	18.832	4.	0.1	1132.
6392	18.648	4.	0.1	1173.6
6393	18.463	4.	0.1	1215.5
6394	18.278	4.	0.1	1257.6
6395	18.094	4.	0.1	1300.
6396	17.909	4.	0.1	1342.6
6397	17.725	4.	0.1	1385.5
6398	17.54	4.	0.1	1428.6
6399	17.356	4.	0.1	1472.
6400	17.171	4.	0.1	1515.5
6401	16.986	4.	0.1	1559.3
6402	16.802	4.	0.1	1603.3
6403	16.617	4.	0.1	1647.5
6404	16.433	4.	0.1	1691.9
6405	16.248	4.	0.1	1736.6
6406	16.064	4.	0.1	1781.4
6407	15.879	4.	0.1	1826.5
6408	15.694	4.	0.1	1871.7
6409	15.51	4.	0.1	1917.1
6410	15.325	4.	0.1	1962.8
6411	15.141	4.	0.1	2008.6
6412	14.956	4.	0.1	2054.6
6413	14.772	4.	0.1	2100.8
6414	14.587	4.	0.1	2147.1
6415	14.402	4.	0.1	2193.7
6416	14.218	4.	0.1	2240.4
6417	14.033	4.	0.1	2287.2
6418	13.849	4.	0.1	2334.3
6419	13.664	4.	0.1	2381.5
6420	13.48	4.	0.1	2428.8
6421	13.295	4.	0.1	2476.3
6422	13.11	4.	0.1	2523.9
6423	12.926	4.	0.1	2571.7
6424	12.741	4.	0.1	2619.6
6425	12.557	4.	0.1	2667.6
6426	12.372	4.	0.1	2715.8
6427	12.188	4.	0.1	2764.1
6428	12.003	4.	0.1	2812.4
6429	11.819	4.	0.1	2860.9
6430	11.634	4.	0.1	2909.4
6431	11.449	4.	0.1	2958.1
6432	11.265	4.	0.1	3006.8
6433	11.08	4.	0.1	3055.6
6434	10.896	4.	0.1	3104.4
6435	10.711	4.	0.1	3153.3
6436	10.527	4.	0.1	3202.3
6437	10.342	4.	0.1	3251.3
6438	10.157	4.	0.1	3300.4
6439	9.9728	4.	0.1	3349.5
6440	9.7883	4.	0.1	3398.6
6441	9.6037	4.	0.1	3447.9
6442	9.4191	4.	0.1	3497.2
6443	9.2346	4.	0.1	3546.7
6444	9.05	4.	0.1	3596.3
6445	8.8654	4.	0.1	3646.2
6446	8.6809	4.	0.1	3696.3
6447	8.4963	4.	0.1	3747.
6448	8.3117	4.	0.1	3798.2
6449	8.1272	4.	0.1	3850.3
6450	7.9426	4.	0.1	3903.4
6451	7.758	4.	0.1	3957.9
6452	7.5735	4.	0.1	4014.3
6453	7.3889	4.	0.1	4073.1
6454	7.2043	4.	0.1	4135.1
6455	7.0198	4.	0.1	4201.2
6456	6.8352	4.	0.1	4272.6
6457	6.6506	4.	0.1	4351.
6458	6.466	4.	0.1	4438.3
6459	6.2815	4.	0.1	4537.3
6460	6.0969	4.	0.1	4651.6
6461	5.9123	4.	0.1	4786.1
6462	5.7278	4.	0.1	4947.9
6463	5.5432	4.	0.1	5147.
6464	5.3586	4.	0.1	5398.6
6465	5.1741	4.	0.1	5727.2
6466	4.9895	4.	0.1	6171.7
6467	4.8049	4.	0.1	6809.3
6468	4.6204	4.	0.1	7779.
6469	4.4358	4.	0.1	9477.3
6470	4.2512	4.	0.1	14246
6471	23.815	4.1818	0.1	181.03
6472	23.631	4.1818	0.1	198.65
6473	23.446	4.1818	0.1	220.78
6474	23.262	4.1818	0.1	246.24
6475	23.077	4.1818	0.1	274.17
6476	22.893	4.1818	0.1	303.98
6477	22.708	4.1818	0.1	335.26
6478	22.523	4.1818	0.1	367.74
6479	22.339	4.1818	0.1	401.2
6480	22.154	4.1818	0.1	435.49
6481	21.97	4.1818	0.1	470.51
6482	21.785	4.1818	0.1	506.15
6483	21.601	4.1818	0.1	542.36
6484	21.416	4.1818	0.1	579.08
6485	21.231	4.1818	0.1	616.27
6486	21.047	4.1818	0.1	653.89
6487	20.862	4.1818	0.1	691.91
6488	20.678	4.1818	0.1	730.31
6489	20.493	4.1818	0.1	769.07
6490	20.309	4.1818	0.1	808.18
6491	20.124	4.1818	0.1	847.61
6492	19.94	4.1818	0.1	887.35
6493	19.755	4.1818	0.1	927.41
6494	19.57	4.1818	0.1	967.75
6495	19.386	4.1818	0.1	1008.4
6496	19.201	4.1818	0.1	1049.3
6497	19.017	4.1818	0.1	1090.5
6498	18.832	4.1818	0.1	1131.9
6499	18.648	4.1818	0.1	1173.6
6500	18.463	4.1818	0.1	1215.6
6501	18.278	4.1818	0.1	1257.8
6502	18.094	4.1818	0.1	1300.2
6503	17.909	4.1818	0.1	1342.9
6504	17.725	4.1818	0.1	1385.8
6505	17.54	4.1818	0.1	1429.
6506	17.356	4.1818	0.1	1472.3
6507	17.171	4.1818	0.1	1515.9
6508	16.986	4.1818	0.1	1559.7
6509	16.802	4.1818	0.1	1603.8
6510	16.617	4.1818	0.1	1648.
6511	16.433	4.1818	0.1	1692.5
6512	16.248	4.1818	0.1	1737.1
6513	16.064	4.1818	0.1	1782.
6514	15.879	4.1818	0.1	1827.1
6515	15.694	4.1818	0.1	1872.4
6516	15.51	4.1818	0.1	1917.8
6517	15.325	4.1818	0.1	1963.5
6518	15.141	4.1818	0.1	2009.3
6519	14.956	4.1818	0.1	2055.3
6520	14.772	4.1818	0.1	2101.6
6521	14.587	4.1818	0.1	2148.
6522	14.402	4.1818	0.1	2194.5
6523	14.218	4.1818	0.1	2241.3
6524	14.033	4.1818	0.1	2288.2
6525	13.849	4.1818	0.1	2335.3
6526	13.664	4.1818	0.1	2382.5
6527	13.48	4.1818	0.1	2429.9
6528	13.295	4.1818	0.1	2477.4
6529	13.11	4.1818	0.1	2525.1
6530	12.926	4.1818	0.1	2573.
6531	12.741	4.1818	0.1	2620.9
6532	12.557	4.1818	0.1	2669.1
6533	12.372	4.1818	0.1	2717.3
6534	12.188	4.1818	0.1	2765.6
6535	12.003	4.1818	0.1	2814.1
6536	11.819	4.1818	0.1	2862.7
6537	11.634	4.1818	0.1	2911.4
6538	11.449	4.1818	0.1	2960.1
6539	11.265	4.1818	0.1	3009.
6540	11.08	4.1818	0.1	3058.
6541	10.896	4.1818	0.1	3107.
6542	10.711	4.1818	0.1	3156.1
6543	10.527	4.1818	0.1	3205.2
6544	10.342	4.1818	0.1	3254.5
6545	10.157	4.1818	0.1	3303.8
6546	9.9728	4.1818	0.1	3353.1
6547	9.7883	4.1818	0.1	3402.6
6548	9.6037	4.1818	0.1	3452.1
6549	9.4191	4.1818	0.1	3501.7
6550	9.2346	4.1818	0.1	3551.4
6551	9.05	4.1818	0.1	3601.4
6552	8.8654	4.1818	0.1	3651.5
6553	8.6809	4.1818	0.1	3701.9
6554	8.4963	4.1818	0.1	3752.7
6555	8.3117	4.1818	0.1	3803.9
6556	8.1272	4.1818	0.1	3855.8
6557	7.9426	4.1818	0.1	3908.5
6558	7.758	4.1818	0.1	3962.3
6559	7.5735	4.1818	0.1	4017.5
6560	7.3889	4.1818	0.1	4074.4
6561	7.2043	4.1818	0.1	4133.6
6562	7.0198	4.1818	0.1	4195.8
6563	6.8352	4.1818	0.1	4261.7
6564	6.6506	4.1818	0.1	4332.3
6565	6.466	4.1818	0.1	4409.2
6566	6.2815	4.1818	0.1	4494.1
6567	6.0969	4.1818	0.1	4589.5
6568	5.9123	4.1818	0.1	4699.1
6569	5.7278	4.1818	0.1	4828.
6570	5.5432	4.1818	0.1	4984.1
6571	5.3586	4.1818	0.1	5179.5
6572	5.1741	4.1818	0.1	5434.2
6573	4.9895	4.1818	0.1	5781.2
6574	4.8049	4.1818	0.1	6281.4
6575	4.6204	4.1818	0.1	7047.4
6576	4.4358	4.1818	0.1	8463.5
6577	4.2512	4.1818	0.1	11788
6578	23.815	4.3636	0.1	174.18
6579	23.631	4.3636	0.1	191.98
6580	23.446	4.3636	0.1	214.42
6581	23.262	4.3636	0.1	240.24
6582	23.077	4.3636	0.1	268.53
6583	22.893	4.3636	0.1	298.73
6584	22.708	4.3636	0.1	330.4
6585	22.523	4.3636	0.1	363.27
6586	22.339	4.3636	0.1	397.11
6587	22.154	4.3636	0.1	431.78
6588	21.97	4.3636	0.1	467.15
6589	21.785	4.3636	0.1	503.14
6590	21.601	4.3636	0.1	539.67
6591	21.416	4.3636	0.1	576.69
6592	21.231	4.3636	0.1	614.15
6593	21.047	4.3636	0.1	652.03
6594	20.862	4.3636	0.1	690.29
6595	20.678	4.3636	0.1	728.91
6596	20.493	4.3636	0.1	767.88
6597	20.309	4.3636	0.1	807.17
6598	20.124	4.3636	0.1	846.77
6599	19.94	4.3636	0.1	886.67
6600	19.755	4.3636	0.1	926.86
6601	19.57	4.3636	0.1	967.33
6602	19.386	4.3636	0.1	1008.1
6603	19.201	4.3636	0.1	1049.1
6604	19.017	4.3636	0.1	1090.4
6605	18.832	4.3636	0.1	1131.9
6606	18.648	4.3636	0.1	1173.7
6607	18.463	4.3636	0.1	1215.7
6608	18.278	4.3636	0.1	1258.
6609	18.094	4.3636	0.1	1300.5
6610	17.909	4.3636	0.1	1343.2
6611	17.725	4.3636	0.1	1386.2
6612	17.54	4.3636	0.1	1429.4
6613	17.356	4.3636	0.1	1472.8
6614	17.171	4.3636	0.1	1516.4
6615	16.986	4.3636	0.1	1560.3
6616	16.802	4.3636	0.1	1604.4
6617	16.617	4.3636	0.1	1648.6
6618	16.433	4.3636	0.1	1693.1
6619	16.248	4.3636	0.1	1737.8
6620	16.064	4.3636	0.1	1782.7
6621	15.879	4.3636	0.1	1827.8
6622	15.694	4.3636	0.1	1873.1
6623	15.51	4.3636	0.1	1918.6
6624	15.325	4.3636	0.1	1964.3
6625	15.141	4.3636	0.1	2010.2
6626	14.956	4.3636	0.1	2056.2
6627	14.772	4.3636	0.1	2102.5
6628	14.587	4.3636	0.1	2148.9
6629	14.402	4.3636	0.1	2195.5
6630	14.218	4.3636	0.1	2242.3
6631	14.033	4.3636	0.1	2289.3
6632	13.849	4.3636	0.1	2336.4
6633	13.664	4.3636	0.1	2383.7
6634	13.48	4.3636	0.1	2431.1
6635	13.295	4.3636	0.1	2478.8
6636	13.11	4.3636	0.1	2526.5
6637	12.926	4.3636	0.1	2574.4
6638	12.741	4.3636	0.1	2622.5
6639	12.557	4.3636	0.1	2670.7
6640	12.372	4.3636	0.1	2719.
6641	12.188	4.3636	0.1	2767.5
6642	12.003	4.3636	0.1	2816.1
6643	11.819	4.3636	0.1	2864.8
6644	11.634	4.3636	0.1	2913.6
6645	11.449	4.3636	0.1	2962.5
6646	11.265	4.3636	0.1	3011.5
6647	11.08	4.3636	0.1	3060.7
6648	10.896	4.3636	0.1	3109.9
6649	10.711	4.3636	0.1	3159.2
6650	10.527	4.3636	0.1	3208.6
6651	10.342	4.3636	0.1	3258.
6652	10.157	4.3636	0.1	3307.6
6653	9.9728	4.3636	0.1	3357.2
6654	9.7883	4.3636	0.1	3406.9
6655	9.6037	4.3636	0.1	3456.8
6656	9.4191	4.3636	0.1	3506.7
6657	9.2346	4.3636	0.1	3556.7
6658	9.05	4.3636	0.1	3606.9
6659	8.8654	4.3636	0.1	3657.3
6660	8.6809	4.3636	0.1	3707.9
6661	8.4963	4.3636	0.1	3758.8
6662	8.3117	4.3636	0.1	3810.
6663	8.1272	4.3636	0.1	3861.7
6664	7.9426	4.3636	0.1	3913.9
6665	7.758	4.3636	0.1	3966.8
6666	7.5735	4.3636	0.1	4020.6
6667	7.3889	4.3636	0.1	4075.5
6668	7.2043	4.3636	0.1	4131.6
6669	7.0198	4.3636	0.1	4189.5
6670	6.8352	4.3636	0.1	4249.4
6671	6.6506	4.3636	0.1	4311.8
6672	6.466	4.3636	0.1	4377.6
6673	6.2815	4.3636	0.1	4447.6
6674	6.0969	4.3636	0.1	4523.3
6675	5.9123	4.3636	0.1	4606.8
6676	5.7278	4.3636	0.1	4701.4
6677	5.5432	4.3636	0.1	4812.5
6678	5.3586	4.3636	0.1	4949.
6679	5.1741	4.3636	0.1	5125.8
6680	4.9895	4.3636	0.1	5367.2
6681	4.8049	4.3636	0.1	5719.5
6682	4.6204	4.3636	0.1	6245.7
6683	4.4358	4.3636	0.1	7107.4
6684	4.2512	4.3636	0.1	8767.2
6685	23.815	4.5455	0.1	166.14
6686	23.631	4.5455	0.1	184.19
6687	23.446	4.5455	0.1	207.02
6688	23.262	4.5455	0.1	233.28
6689	23.077	4.5455	0.1	262.05
6690	22.893	4.5455	0.1	292.74
6691	22.708	4.5455	0.1	324.9
6692	22.523	4.5455	0.1	358.25
6693	22.339	4.5455	0.1	392.56
6694	22.154	4.5455	0.1	427.67
6695	21.97	4.5455	0.1	463.47
6696	21.785	4.5455	0.1	499.85
6697	21.601	4.5455	0.1	536.75
6698	21.416	4.5455	0.1	574.11
6699	21.231	4.5455	0.1	611.89
6700	21.047	4.5455	0.1	650.06
6701	20.862	4.5455	0.1	688.59
6702	20.678	4.5455	0.1	727.45
6703	20.493	4.5455	0.1	766.64
6704	20.309	4.5455	0.1	806.13
6705	20.124	4.5455	0.1	845.91
6706	19.94	4.5455	0.1	885.98
6707	19.755	4.5455	0.1	926.33
6708	19.57	4.5455	0.1	966.94
6709	19.386	4.5455	0.1	1007.8
6710	19.201	4.5455	0.1	1048.9
6711	19.017	4.5455	0.1	1090.3
6712	18.832	4.5455	0.1	1131.9
6713	18.648	4.5455	0.1	1173.8
6714	18.463	4.5455	0.1	1215.9
6715	18.278	4.5455	0.1	1258.2
6716	18.094	4.5455	0.1	1300.8
6717	17.909	4.5455	0.1	1343.6
6718	17.725	4.5455	0.1	1386.6
6719	17.54	4.5455	0.1	1429.9
6720	17.356	4.5455	0.1	1473.3
6721	17.171	4.5455	0.1	1517.
6722	16.986	4.5455	0.1	1560.9
6723	16.802	4.5455	0.1	1605.
6724	16.617	4.5455	0.1	1649.3
6725	16.433	4.5455	0.1	1693.9
6726	16.248	4.5455	0.1	1738.6
6727	16.064	4.5455	0.1	1783.5
6728	15.879	4.5455	0.1	1828.7
6729	15.694	4.5455	0.1	1874.
6730	15.51	4.5455	0.1	1919.5
6731	15.325	4.5455	0.1	1965.2
6732	15.141	4.5455	0.1	2011.2
6733	14.956	4.5455	0.1	2057.3
6734	14.772	4.5455	0.1	2103.5
6735	14.587	4.5455	0.1	2150.
6736	14.402	4.5455	0.1	2196.7
6737	14.218	4.5455	0.1	2243.5
6738	14.033	4.5455	0.1	2290.5
6739	13.849	4.5455	0.1	2337.7
6740	13.664	4.5455	0.1	2385.
6741	13.48	4.5455	0.1	2432.6
6742	13.295	4.5455	0.1	2480.2
6743	13.11	4.5455	0.1	2528.1
6744	12.926	4.5455	0.1	2576.1
6745	12.741	4.5455	0.1	2624.2
6746	12.557	4.5455	0.1	2672.5
6747	12.372	4.5455	0.1	2720.9
6748	12.188	4.5455	0.1	2769.5
6749	12.003	4.5455	0.1	2818.2
6750	11.819	4.5455	0.1	2867.1
6751	11.634	4.5455	0.1	2916.
6752	11.449	4.5455	0.1	2965.1
6753	11.265	4.5455	0.1	3014.3
6754	11.08	4.5455	0.1	3063.7
6755	10.896	4.5455	0.1	3113.1
6756	10.711	4.5455	0.1	3162.6
6757	10.527	4.5455	0.1	3212.2
6758	10.342	4.5455	0.1	3262.
6759	10.157	4.5455	0.1	3311.8
6760	9.9728	4.5455	0.1	3361.7
6761	9.7883	4.5455	0.1	3411.7
6762	9.6037	4.5455	0.1	3461.8
6763	9.4191	4.5455	0.1	3512.1
6764	9.2346	4.5455	0.1	3562.4
6765	9.05	4.5455	0.1	3612.9
6766	8.8654	4.5455	0.1	3663.5
6767	8.6809	4.5455	0.1	3714.2
6768	8.4963	4.5455	0.1	3765.2
6769	8.3117	4.5455	0.1	3816.3
6770	8.1272	4.5455	0.1	3867.7
6771	7.9426	4.5455	0.1	3919.4
6772	7.758	4.5455	0.1	3971.3
6773	7.5735	4.5455	0.1	4023.5
6774	7.3889	4.5455	0.1	4076.1
6775	7.2043	4.5455	0.1	4129.
6776	7.0198	4.5455	0.1	4182.3
6777	6.8352	4.5455	0.1	4235.9
6778	6.6506	4.5455	0.1	4289.8
6779	6.466	4.5455	0.1	4344.1
6780	6.2815	4.5455	0.1	4398.8
6781	6.0969	4.5455	0.1	4454.2
6782	5.9123	4.5455	0.1	4511.
6783	5.7278	4.5455	0.1	4570.5
6784	5.5432	4.5455	0.1	4635.5
6785	5.3586	4.5455	0.1	4711.1
6786	5.1741	4.5455	0.1	4806.6
6787	4.9895	4.5455	0.1	4938.
6788	4.8049	4.5455	0.1	5130.7
6789	4.6204	4.5455	0.1	5425.1
6790	4.4358	4.5455	0.1	5853.9
6791	4.2512	4.5455	0.1	6729.7
6792	23.815	4.7273	0.1	156.82
6793	23.631	4.7273	0.1	175.18
6794	23.446	4.7273	0.1	198.51
6795	23.262	4.7273	0.1	225.35
6796	23.077	4.7273	0.1	254.73
6797	22.893	4.7273	0.1	286.04
6798	22.708	4.7273	0.1	318.81
6799	22.523	4.7273	0.1	352.75
6800	22.339	4.7273	0.1	387.63
6801	22.154	4.7273	0.1	423.26
6802	21.97	4.7273	0.1	459.55
6803	21.785	4.7273	0.1	496.38
6804	21.601	4.7273	0.1	533.69
6805	21.416	4.7273	0.1	571.43
6806	21.231	4.7273	0.1	609.56
6807	21.047	4.7273	0.1	648.04
6808	20.862	4.7273	0.1	686.85
6809	20.678	4.7273	0.1	725.98
6810	20.493	4.7273	0.1	765.4
6811	20.309	4.7273	0.1	805.11
6812	20.124	4.7273	0.1	845.09
6813	19.94	4.7273	0.1	885.33
6814	19.755	4.7273	0.1	925.84
6815	19.57	4.7273	0.1	966.6
6816	19.386	4.7273	0.1	1007.6
6817	19.201	4.7273	0.1	1048.8
6818	19.017	4.7273	0.1	1090.3
6819	18.832	4.7273	0.1	1132.1
6820	18.648	4.7273	0.1	1174.
6821	18.463	4.7273	0.1	1216.2
6822	18.278	4.7273	0.1	1258.6
6823	18.094	4.7273	0.1	1301.2
6824	17.909	4.7273	0.1	1344.1
6825	17.725	4.7273	0.1	1387.2
6826	17.54	4.7273	0.1	1430.5
6827	17.356	4.7273	0.1	1474.
6828	17.171	4.7273	0.1	1517.7
6829	16.986	4.7273	0.1	1561.7
6830	16.802	4.7273	0.1	1605.8
6831	16.617	4.7273	0.1	1650.2
6832	16.433	4.7273	0.1	1694.7
6833	16.248	4.7273	0.1	1739.5
6834	16.064	4.7273	0.1	1784.5
6835	15.879	4.7273	0.1	1829.6
6836	15.694	4.7273	0.1	1875.
6837	15.51	4.7273	0.1	1920.5
6838	15.325	4.7273	0.1	1966.3
6839	15.141	4.7273	0.1	2012.3
6840	14.956	4.7273	0.1	2058.4
6841	14.772	4.7273	0.1	2104.7
6842	14.587	4.7273	0.1	2151.2
6843	14.402	4.7273	0.1	2197.9
6844	14.218	4.7273	0.1	2244.8
6845	14.033	4.7273	0.1	2291.9
6846	13.849	4.7273	0.1	2339.1
6847	13.664	4.7273	0.1	2386.5
6848	13.48	4.7273	0.1	2434.1
6849	13.295	4.7273	0.1	2481.9
6850	13.11	4.7273	0.1	2529.8
6851	12.926	4.7273	0.1	2577.9
6852	12.741	4.7273	0.1	2626.1
6853	12.557	4.7273	0.1	2674.5
6854	12.372	4.7273	0.1	2723.1
6855	12.188	4.7273	0.1	2771.8
6856	12.003	4.7273	0.1	2820.6
6857	11.819	4.7273	0.1	2869.6
6858	11.634	4.7273	0.1	2918.7
6859	11.449	4.7273	0.1	2968.
6860	11.265	4.7273	0.1	3017.4
6861	11.08	4.7273	0.1	3066.9
6862	10.896	4.7273	0.1	3116.6
6863	10.711	4.7273	0.1	3166.3
6864	10.527	4.7273	0.1	3216.2
6865	10.342	4.7273	0.1	3266.2
6866	10.157	4.7273	0.1	3316.3
6867	9.9728	4.7273	0.1	3366.5
6868	9.7883	4.7273	0.1	3416.8
6869	9.6037	4.7273	0.1	3467.2
6870	9.4191	4.7273	0.1	3517.7
6871	9.2346	4.7273	0.1	3568.4
6872	9.05	4.7273	0.1	3619.1
6873	8.8654	4.7273	0.1	3669.9
6874	8.6809	4.7273	0.1	3720.8
6875	8.4963	4.7273	0.1	3771.7
6876	8.3117	4.7273	0.1	3822.7
6877	8.1272	4.7273	0.1	3873.7
6878	7.9426	4.7273	0.1	3924.7
6879	7.758	4.7273	0.1	3975.5
6880	7.5735	4.7273	0.1	4026.
6881	7.3889	4.7273	0.1	4076.2
6882	7.2043	4.7273	0.1	4125.6
6883	7.0198	4.7273	0.1	4174.2
6884	6.8352	4.7273	0.1	4221.3
6885	6.6506	4.7273	0.1	4266.5
6886	6.466	4.7273	0.1	4309.2
6887	6.2815	4.7273	0.1	4348.5
6888	6.0969	4.7273	0.1	4383.6
6889	5.9123	4.7273	0.1	4413.7
6890	5.7278	4.7273	0.1	4438.1
6891	5.5432	4.7273	0.1	4457.
6892	5.3586	4.7273	0.1	4471.6
6893	5.1741	4.7273	0.1	4486.1
6894	4.9895	4.7273	0.1	4508.5
6895	4.8049	4.7273	0.1	4553.4
6896	4.6204	4.7273	0.1	4641.9
6897	4.4358	4.7273	0.1	4813.
6898	4.2512	4.7273	0.1	5321.
6899	23.815	4.9091	0.1	146.06
6900	23.631	4.9091	0.1	164.85
6901	23.446	4.9091	0.1	188.84
6902	23.262	4.9091	0.1	216.43
6903	23.077	4.9091	0.1	246.61
6904	22.893	4.9091	0.1	278.7
6905	22.708	4.9091	0.1	312.24
6906	22.523	4.9091	0.1	346.89
6907	22.339	4.9091	0.1	382.42
6908	22.154	4.9091	0.1	418.67
6909	21.97	4.9091	0.1	455.5
6910	21.785	4.9091	0.1	492.82
6911	21.601	4.9091	0.1	530.59
6912	21.416	4.9091	0.1	568.73
6913	21.231	4.9091	0.1	607.23
6914	21.047	4.9091	0.1	646.05
6915	20.862	4.9091	0.1	685.16
6916	20.678	4.9091	0.1	724.56
6917	20.493	4.9091	0.1	764.23
6918	20.309	4.9091	0.1	804.16
6919	20.124	4.9091	0.1	844.34
6920	19.94	4.9091	0.1	884.77
6921	19.755	4.9091	0.1	925.44
6922	19.57	4.9091	0.1	966.35
6923	19.386	4.9091	0.1	1007.5
6924	19.201	4.9091	0.1	1048.9
6925	19.017	4.9091	0.1	1090.5
6926	18.832	4.9091	0.1	1132.3
6927	18.648	4.9091	0.1	1174.3
6928	18.463	4.9091	0.1	1216.6
6929	18.278	4.9091	0.1	1259.1
6930	18.094	4.9091	0.1	1301.8
6931	17.909	4.9091	0.1	1344.7
6932	17.725	4.9091	0.1	1387.8
6933	17.54	4.9091	0.1	1431.2
6934	17.356	4.9091	0.1	1474.8
6935	17.171	4.9091	0.1	1518.5
6936	16.986	4.9091	0.1	1562.5
6937	16.802	4.9091	0.1	1606.7
6938	16.617	4.9091	0.1	1651.1
6939	16.433	4.9091	0.1	1695.7
6940	16.248	4.9091	0.1	1740.5
6941	16.064	4.9091	0.1	1785.5
6942	15.879	4.9091	0.1	1830.7
6943	15.694	4.9091	0.1	1876.1
6944	15.51	4.9091	0.1	1921.7
6945	15.325	4.9091	0.1	1967.5
6946	15.141	4.9091	0.1	2013.5
6947	14.956	4.9091	0.1	2059.7
6948	14.772	4.9091	0.1	2106.
6949	14.587	4.9091	0.1	2152.6
6950	14.402	4.9091	0.1	2199.4
6951	14.218	4.9091	0.1	2246.3
6952	14.033	4.9091	0.1	2293.4
6953	13.849	4.9091	0.1	2340.7
6954	13.664	4.9091	0.1	2388.2
6955	13.48	4.9091	0.1	2435.9
6956	13.295	4.9091	0.1	2483.7
6957	13.11	4.9091	0.1	2531.7
6958	12.926	4.9091	0.1	2579.9
6959	12.741	4.9091	0.1	2628.2
6960	12.557	4.9091	0.1	2676.7
6961	12.372	4.9091	0.1	2725.4
6962	12.188	4.9091	0.1	2774.2
6963	12.003	4.9091	0.1	2823.2
6964	11.819	4.9091	0.1	2872.4
6965	11.634	4.9091	0.1	2921.7
6966	11.449	4.9091	0.1	2971.1
6967	11.265	4.9091	0.1	3020.7
6968	11.08	4.9091	0.1	3070.4
6969	10.896	4.9091	0.1	3120.3
6970	10.711	4.9091	0.1	3170.3
6971	10.527	4.9091	0.1	3220.4
6972	10.342	4.9091	0.1	3270.7
6973	10.157	4.9091	0.1	3321.
6974	9.9728	4.9091	0.1	3371.5
6975	9.7883	4.9091	0.1	3422.1
6976	9.6037	4.9091	0.1	3472.8
6977	9.4191	4.9091	0.1	3523.6
6978	9.2346	4.9091	0.1	3574.5
6979	9.05	4.9091	0.1	3625.4
6980	8.8654	4.9091	0.1	3676.4
6981	8.6809	4.9091	0.1	3727.4
6982	8.4963	4.9091	0.1	3778.3
6983	8.3117	4.9091	0.1	3829.
6984	8.1272	4.9091	0.1	3879.5
6985	7.9426	4.9091	0.1	3929.7
6986	7.758	4.9091	0.1	3979.3
6987	7.5735	4.9091	0.1	4028.
6988	7.3889	4.9091	0.1	4075.6
6989	7.2043	4.9091	0.1	4121.5
6990	7.0198	4.9091	0.1	4165.2
6991	6.8352	4.9091	0.1	4205.8
6992	6.6506	4.9091	0.1	4242.4
6993	6.466	4.9091	0.1	4273.6
6994	6.2815	4.9091	0.1	4297.8
6995	6.0969	4.9091	0.1	4313.2
6996	5.9123	4.9091	0.1	4317.4
6997	5.7278	4.9091	0.1	4308.
6998	5.5432	4.9091	0.1	4282.5
6999	5.3586	4.9091	0.1	4239.1
7000	5.1741	4.9091	0.1	4177.3
7001	4.9895	4.9091	0.1	4100.1
7002	4.8049	4.9091	0.1	4017.5
7003	4.6204	4.9091	0.1	3950.2
7004	4.4358	4.9091	0.1	3944.
7005	4.2512	4.9091	0.1	4244.
7006	23.815	5.0909	0.1	133.68
7007	23.631	5.0909	0.1	153.05
7008	23.446	5.0909	0.1	177.94
7009	23.262	5.0909	0.1	206.56
7010	23.077	5.0909	0.1	237.79
7011	22.893	5.0909	0.1	270.88
7012	22.708	5.0909	0.1	305.35
7013	22.523	5.0909	0.1	340.84
7014	22.339	5.0909	0.1	377.12
7015	22.154	5.0909	0.1	414.03
7016	21.97	5.0909	0.1	451.46
7017	21.785	5.0909	0.1	489.32
7018	21.601	5.0909	0.1	527.56
7019	21.416	5.0909	0.1	566.13
7020	21.231	5.0909	0.1	605.01
7021	21.047	5.0909	0.1	644.16
7022	20.862	5.0909	0.1	683.59
7023	20.678	5.0909	0.1	723.26
7024	20.493	5.0909	0.1	763.18
7025	20.309	5.0909	0.1	803.33
7026	20.124	5.0909	0.1	843.72
7027	19.94	5.0909	0.1	884.33
7028	19.755	5.0909	0.1	925.17
7029	19.57	5.0909	0.1	966.22
7030	19.386	5.0909	0.1	1007.5
7031	19.201	5.0909	0.1	1049.
7032	19.017	5.0909	0.1	1090.7
7033	18.832	5.0909	0.1	1132.6
7034	18.648	5.0909	0.1	1174.8
7035	18.463	5.0909	0.1	1217.1
7036	18.278	5.0909	0.1	1259.7
7037	18.094	5.0909	0.1	1302.5
7038	17.909	5.0909	0.1	1345.4
7039	17.725	5.0909	0.1	1388.6
7040	17.54	5.0909	0.1	1432.
7041	17.356	5.0909	0.1	1475.6
7042	17.171	5.0909	0.1	1519.5
7043	16.986	5.0909	0.1	1563.5
7044	16.802	5.0909	0.1	1607.7
7045	16.617	5.0909	0.1	1652.1
7046	16.433	5.0909	0.1	1696.8
7047	16.248	5.0909	0.1	1741.6
7048	16.064	5.0909	0.1	1786.7
7049	15.879	5.0909	0.1	1831.9
7050	15.694	5.0909	0.1	1877.3
7051	15.51	5.0909	0.1	1923.
7052	15.325	5.0909	0.1	1968.8
7053	15.141	5.0909	0.1	2014.8
7054	14.956	5.0909	0.1	2061.1
7055	14.772	5.0909	0.1	2107.5
7056	14.587	5.0909	0.1	2154.1
7057	14.402	5.0909	0.1	2200.9
7058	14.218	5.0909	0.1	2247.9
7059	14.033	5.0909	0.1	2295.1
7060	13.849	5.0909	0.1	2342.5
7061	13.664	5.0909	0.1	2390.
7062	13.48	5.0909	0.1	2437.7
7063	13.295	5.0909	0.1	2485.7
7064	13.11	5.0909	0.1	2533.8
7065	12.926	5.0909	0.1	2582.
7066	12.741	5.0909	0.1	2630.5
7067	12.557	5.0909	0.1	2679.1
7068	12.372	5.0909	0.1	2727.9
7069	12.188	5.0909	0.1	2776.9
7070	12.003	5.0909	0.1	2826.
7071	11.819	5.0909	0.1	2875.3
7072	11.634	5.0909	0.1	2924.8
7073	11.449	5.0909	0.1	2974.4
7074	11.265	5.0909	0.1	3024.2
7075	11.08	5.0909	0.1	3074.1
7076	10.896	5.0909	0.1	3124.2
7077	10.711	5.0909	0.1	3174.5
7078	10.527	5.0909	0.1	3224.8
7079	10.342	5.0909	0.1	3275.4
7080	10.157	5.0909	0.1	3326.
7081	9.9728	5.0909	0.1	3376.8
7082	9.7883	5.0909	0.1	3427.6
7083	9.6037	5.0909	0.1	3478.6
7084	9.4191	5.0909	0.1	3529.7
7085	9.2346	5.0909	0.1	3580.8
7086	9.05	5.0909	0.1	3631.9
7087	8.8654	5.0909	0.1	3682.9
7088	8.6809	5.0909	0.1	3733.9
7089	8.4963	5.0909	0.1	3784.7
7090	8.3117	5.0909	0.1	3835.1
7091	8.1272	5.0909	0.1	3885.1
7092	7.9426	5.0909	0.1	3934.3
7093	7.758	5.0909	0.1	3982.5
7094	7.5735	5.0909	0.1	4029.4
7095	7.3889	5.0909	0.1	4074.3
7096	7.2043	5.0909	0.1	4116.6
7097	7.0198	5.0909	0.1	4155.4
7098	6.8352	5.0909	0.1	4189.6
7099	6.6506	5.0909	0.1	4217.8
7100	6.466	5.0909	0.1	4237.9
7101	6.2815	5.0909	0.1	4247.8
7102	6.0969	5.0909	0.1	4244.6
7103	5.9123	5.0909	0.1	4224.7
7104	5.7278	5.0909	0.1	4184.1
7105	5.5432	5.0909	0.1	4118.2
7106	5.3586	5.0909	0.1	4022.6
7107	5.1741	5.0909	0.1	3893.5
7108	4.9895	5.0909	0.1	3730.9
7109	4.8049	5.0909	0.1	3542.8
7110	4.6204	5.0909	0.1	3353.5
7111	4.4358	5.0909	0.1	3221.1
7112	4.2512	5.0909	0.1	3373.6
7113	23.815	5.2727	0.1	119.38
7114	23.631	5.2727	0.1	139.64
7115	23.446	5.2727	0.1	165.83
7116	23.262	5.2727	0.1	195.89
7117	23.077	5.2727	0.1	228.49
7118	22.893	5.2727	0.1	262.83
7119	22.708	5.2727	0.1	298.39
7120	22.523	5.2727	0.1	334.83
7121	22.339	5.2727	0.1	371.93
7122	22.154	5.2727	0.1	409.56
7123	21.97	5.2727	0.1	447.61
7124	21.785	5.2727	0.1	486.02
7125	21.601	5.2727	0.1	524.74
7126	21.416	5.2727	0.1	563.74
7127	21.231	5.2727	0.1	602.99
7128	21.047	5.2727	0.1	642.49
7129	20.862	5.2727	0.1	682.22
7130	20.678	5.2727	0.1	722.16
7131	20.493	5.2727	0.1	762.32
7132	20.309	5.2727	0.1	802.7
7133	20.124	5.2727	0.1	843.28
7134	19.94	5.2727	0.1	884.07
7135	19.755	5.2727	0.1	925.07
7136	19.57	5.2727	0.1	966.27
7137	19.386	5.2727	0.1	1007.7
7138	19.201	5.2727	0.1	1049.3
7139	19.017	5.2727	0.1	1091.1
7140	18.832	5.2727	0.1	1133.1
7141	18.648	5.2727	0.1	1175.4
7142	18.463	5.2727	0.1	1217.8
7143	18.278	5.2727	0.1	1260.4
7144	18.094	5.2727	0.1	1303.3
7145	17.909	5.2727	0.1	1346.3
7146	17.725	5.2727	0.1	1389.6
7147	17.54	5.2727	0.1	1433.
7148	17.356	5.2727	0.1	1476.7
7149	17.171	5.2727	0.1	1520.5
7150	16.986	5.2727	0.1	1564.6
7151	16.802	5.2727	0.1	1608.9
7152	16.617	5.2727	0.1	1653.3
7153	16.433	5.2727	0.1	1698.
7154	16.248	5.2727	0.1	1742.9
7155	16.064	5.2727	0.1	1788.
7156	15.879	5.2727	0.1	1833.2
7157	15.694	5.2727	0.1	1878.7
7158	15.51	5.2727	0.1	1924.4
7159	15.325	5.2727	0.1	1970.3
7160	15.141	5.2727	0.1	2016.3
7161	14.956	5.2727	0.1	2062.6
7162	14.772	5.2727	0.1	2109.1
7163	14.587	5.2727	0.1	2155.7
7164	14.402	5.2727	0.1	2202.6
7165	14.218	5.2727	0.1	2249.6
7166	14.033	5.2727	0.1	2296.9
7167	13.849	5.2727	0.1	2344.3
7168	13.664	5.2727	0.1	2391.9
7169	13.48	5.2727	0.1	2439.8
7170	13.295	5.2727	0.1	2487.8
7171	13.11	5.2727	0.1	2536.
7172	12.926	5.2727	0.1	2584.3
7173	12.741	5.2727	0.1	2632.9
7174	12.557	5.2727	0.1	2681.6
7175	12.372	5.2727	0.1	2730.6
7176	12.188	5.2727	0.1	2779.7
7177	12.003	5.2727	0.1	2829.
7178	11.819	5.2727	0.1	2878.4
7179	11.634	5.2727	0.1	2928.1
7180	11.449	5.2727	0.1	2977.9
7181	11.265	5.2727	0.1	3027.9
7182	11.08	5.2727	0.1	3078.
7183	10.896	5.2727	0.1	3128.3
7184	10.711	5.2727	0.1	3178.8
7185	10.527	5.2727	0.1	3229.5
7186	10.342	5.2727	0.1	3280.2
7187	10.157	5.2727	0.1	3331.1
7188	9.9728	5.2727	0.1	3382.2
7189	9.7883	5.2727	0.1	3433.3
7190	9.6037	5.2727	0.1	3484.5
7191	9.4191	5.2727	0.1	3535.8
7192	9.2346	5.2727	0.1	3587.1
7193	9.05	5.2727	0.1	3638.3
7194	8.8654	5.2727	0.1	3689.5
7195	8.6809	5.2727	0.1	3740.4
7196	8.4963	5.2727	0.1	3790.9
7197	8.3117	5.2727	0.1	3841.
7198	8.1272	5.2727	0.1	3890.3
7199	7.9426	5.2727	0.1	3938.5
7200	7.758	5.2727	0.1	3985.3
7201	7.5735	5.2727	0.1	4030.2
7202	7.3889	5.2727	0.1	4072.4
7203	7.2043	5.2727	0.1	4111.1
7204	7.0198	5.2727	0.1	4145.1
7205	6.8352	5.2727	0.1	4173.1
7206	6.6506	5.2727	0.1	4193.2
7207	6.466	5.2727	0.1	4203.
7208	6.2815	5.2727	0.1	4199.6
7209	6.0969	5.2727	0.1	4179.5
7210	5.9123	5.2727	0.1	4138.
7211	5.7278	5.2727	0.1	4070.1
7212	5.5432	5.2727	0.1	3969.6
7213	5.3586	5.2727	0.1	3830.
7214	5.1741	5.2727	0.1	3645.7
7215	4.9895	5.2727	0.1	3413.9
7216	4.8049	5.2727	0.1	3140.8
7217	4.6204	5.2727	0.1	2851.5
7218	4.4358	5.2727	0.1	2611.5
7219	4.2512	5.2727	0.1	2637.4
7220	23.815	5.4545	0.1	102.78
7221	23.631	5.4545	0.1	124.5
7222	23.446	5.4545	0.1	152.73
7223	23.262	5.4545	0.1	184.8
7224	23.077	5.4545	0.1	219.17
7225	22.893	5.4545	0.1	254.98
7226	22.708	5.4545	0.1	291.76
7227	22.523	5.4545	0.1	329.21
7228	22.339	5.4545	0.1	367.16
7229	22.154	5.4545	0.1	405.5
7230	21.97	5.4545	0.1	444.17
7231	21.785	5.4545	0.1	483.11
7232	21.601	5.4545	0.1	522.29
7233	21.416	5.4545	0.1	561.7
7234	21.231	5.4545	0.1	601.32
7235	21.047	5.4545	0.1	641.14
7236	20.862	5.4545	0.1	681.15
7237	20.678	5.4545	0.1	721.35
7238	20.493	5.4545	0.1	761.75
7239	20.309	5.4545	0.1	802.33
7240	20.124	5.4545	0.1	843.1
7241	19.94	5.4545	0.1	884.05
7242	19.755	5.4545	0.1	925.2
7243	19.57	5.4545	0.1	966.54
7244	19.386	5.4545	0.1	1008.1
7245	19.201	5.4545	0.1	1049.8
7246	19.017	5.4545	0.1	1091.7
7247	18.832	5.4545	0.1	1133.8
7248	18.648	5.4545	0.1	1176.1
7249	18.463	5.4545	0.1	1218.6
7250	18.278	5.4545	0.1	1261.3
7251	18.094	5.4545	0.1	1304.2
7252	17.909	5.4545	0.1	1347.3
7253	17.725	5.4545	0.1	1390.6
7254	17.54	5.4545	0.1	1434.2
7255	17.356	5.4545	0.1	1477.9
7256	17.171	5.4545	0.1	1521.8
7257	16.986	5.4545	0.1	1565.9
7258	16.802	5.4545	0.1	1610.2
7259	16.617	5.4545	0.1	1654.7
7260	16.433	5.4545	0.1	1699.4
7261	16.248	5.4545	0.1	1744.3
7262	16.064	5.4545	0.1	1789.4
7263	15.879	5.4545	0.1	1834.7
7264	15.694	5.4545	0.1	1880.2
7265	15.51	5.4545	0.1	1925.9
7266	15.325	5.4545	0.1	1971.9
7267	15.141	5.4545	0.1	2018.
7268	14.956	5.4545	0.1	2064.3
7269	14.772	5.4545	0.1	2110.8
7270	14.587	5.4545	0.1	2157.5
7271	14.402	5.4545	0.1	2204.4
7272	14.218	5.4545	0.1	2251.5
7273	14.033	5.4545	0.1	2298.8
7274	13.849	5.4545	0.1	2346.3
7275	13.664	5.4545	0.1	2394.
7276	13.48	5.4545	0.1	2441.9
7277	13.295	5.4545	0.1	2490.
7278	13.11	5.4545	0.1	2538.3
7279	12.926	5.4545	0.1	2586.8
7280	12.741	5.4545	0.1	2635.5
7281	12.557	5.4545	0.1	2684.3
7282	12.372	5.4545	0.1	2733.4
7283	12.188	5.4545	0.1	2782.6
7284	12.003	5.4545	0.1	2832.1
7285	11.819	5.4545	0.1	2881.7
7286	11.634	5.4545	0.1	2931.5
7287	11.449	5.4545	0.1	2981.6
7288	11.265	5.4545	0.1	3031.7
7289	11.08	5.4545	0.1	3082.1
7290	10.896	5.4545	0.1	3132.7
7291	10.711	5.4545	0.1	3183.4
7292	10.527	5.4545	0.1	3234.2
7293	10.342	5.4545	0.1	3285.3
7294	10.157	5.4545	0.1	3336.4
7295	9.9728	5.4545	0.1	3387.7
7296	9.7883	5.4545	0.1	3439.1
7297	9.6037	5.4545	0.1	3490.6
7298	9.4191	5.4545	0.1	3542.
7299	9.2346	5.4545	0.1	3593.5
7300	9.05	5.4545	0.1	3644.8
7301	8.8654	5.4545	0.1	3695.9
7302	8.6809	5.4545	0.1	3746.7
7303	8.4963	5.4545	0.1	3797.
7304	8.3117	5.4545	0.1	3846.6
7305	8.1272	5.4545	0.1	3895.2
7306	7.9426	5.4545	0.1	3942.4
7307	7.758	5.4545	0.1	3987.7
7308	7.5735	5.4545	0.1	4030.5
7309	7.3889	5.4545	0.1	4070.
7310	7.2043	5.4545	0.1	4105.1
7311	7.0198	5.4545	0.1	4134.6
7312	6.8352	5.4545	0.1	4156.7
7313	6.6506	5.4545	0.1	4169.2
7314	6.466	5.4545	0.1	4169.6
7315	6.2815	5.4545	0.1	4154.3
7316	6.0969	5.4545	0.1	4119.3
7317	5.9123	5.4545	0.1	4059.6
7318	5.7278	5.4545	0.1	3969.
7319	5.5432	5.4545	0.1	3840.6
7320	5.3586	5.4545	0.1	3667.
7321	5.1741	5.4545	0.1	3440.8
7322	4.9895	5.4545	0.1	3157.5
7323	4.8049	5.4545	0.1	2819.5
7324	4.6204	5.4545	0.1	2446.6
7325	4.4358	5.4545	0.1	2101.7
7326	4.2512	5.4545	0.1	1994.5
7327	23.815	5.6364	0.1	83.337
7328	23.631	5.6364	0.1	107.95
7329	23.446	5.6364	0.1	139.5
7330	23.262	5.6364	0.1	174.31
7331	23.077	5.6364	0.1	210.74
7332	22.893	5.6364	0.1	248.14
7333	22.708	5.6364	0.1	286.14
7334	22.523	5.6364	0.1	324.57
7335	22.339	5.6364	0.1	363.33
7336	22.154	5.6364	0.1	402.34
7337	21.97	5.6364	0.1	441.57
7338	21.785	5.6364	0.1	481.
7339	21.601	5.6364	0.1	520.61
7340	21.416	5.6364	0.1	560.39
7341	21.231	5.6364	0.1	600.33
7342	21.047	5.6364	0.1	640.44
7343	20.862	5.6364	0.1	680.71
7344	20.678	5.6364	0.1	721.14
7345	20.493	5.6364	0.1	761.74
7346	20.309	5.6364	0.1	802.5
7347	20.124	5.6364	0.1	843.44
7348	19.94	5.6364	0.1	884.54
7349	19.755	5.6364	0.1	925.82
7350	19.57	5.6364	0.1	967.28
7351	19.386	5.6364	0.1	1008.9
7352	19.201	5.6364	0.1	1050.7
7353	19.017	5.6364	0.1	1092.7
7354	18.832	5.6364	0.1	1134.9
7355	18.648	5.6364	0.1	1177.3
7356	18.463	5.6364	0.1	1219.9
7357	18.278	5.6364	0.1	1262.6
7358	18.094	5.6364	0.1	1305.6
7359	17.909	5.6364	0.1	1348.8
7360	17.725	5.6364	0.1	1392.1
7361	17.54	5.6364	0.1	1435.6
7362	17.356	5.6364	0.1	1479.4
7363	17.171	5.6364	0.1	1523.3
7364	16.986	5.6364	0.1	1567.5
7365	16.802	5.6364	0.1	1611.8
7366	16.617	5.6364	0.1	1656.3
7367	16.433	5.6364	0.1	1701.1
7368	16.248	5.6364	0.1	1746.
7369	16.064	5.6364	0.1	1791.1
7370	15.879	5.6364	0.1	1836.5
7371	15.694	5.6364	0.1	1882.
7372	15.51	5.6364	0.1	1927.8
7373	15.325	5.6364	0.1	1973.7
7374	15.141	5.6364	0.1	2019.9
7375	14.956	5.6364	0.1	2066.2
7376	14.772	5.6364	0.1	2112.8
7377	14.587	5.6364	0.1	2159.5
7378	14.402	5.6364	0.1	2206.5
7379	14.218	5.6364	0.1	2253.7
7380	14.033	5.6364	0.1	2301.
7381	13.849	5.6364	0.1	2348.6
7382	13.664	5.6364	0.1	2396.4
7383	13.48	5.6364	0.1	2444.4
7384	13.295	5.6364	0.1	2492.5
7385	13.11	5.6364	0.1	2540.9
7386	12.926	5.6364	0.1	2589.5
7387	12.741	5.6364	0.1	2638.3
7388	12.557	5.6364	0.1	2687.3
7389	12.372	5.6364	0.1	2736.5
7390	12.188	5.6364	0.1	2785.9
7391	12.003	5.6364	0.1	2835.5
7392	11.819	5.6364	0.1	2885.3
7393	11.634	5.6364	0.1	2935.3
7394	11.449	5.6364	0.1	2985.5
7395	11.265	5.6364	0.1	3035.9
7396	11.08	5.6364	0.1	3086.4
7397	10.896	5.6364	0.1	3137.2
7398	10.711	5.6364	0.1	3188.1
7399	10.527	5.6364	0.1	3239.3
7400	10.342	5.6364	0.1	3290.5
7401	10.157	5.6364	0.1	3342.
7402	9.9728	5.6364	0.1	3393.5
7403	9.7883	5.6364	0.1	3445.1
7404	9.6037	5.6364	0.1	3496.7
7405	9.4191	5.6364	0.1	3548.4
7406	9.2346	5.6364	0.1	3600.
7407	9.05	5.6364	0.1	3651.4
7408	8.8654	5.6364	0.1	3702.5
7409	8.6809	5.6364	0.1	3753.1
7410	8.4963	5.6364	0.1	3803.1
7411	8.3117	5.6364	0.1	3852.1
7412	8.1272	5.6364	0.1	3899.9
7413	7.9426	5.6364	0.1	3946.
7414	7.758	5.6364	0.1	3989.8
7415	7.5735	5.6364	0.1	4030.6
7416	7.3889	5.6364	0.1	4067.4
7417	7.2043	5.6364	0.1	4099.1
7418	7.0198	5.6364	0.1	4124.2
7419	6.8352	5.6364	0.1	4140.7
7420	6.6506	5.6364	0.1	4146.4
7421	6.466	5.6364	0.1	4138.3
7422	6.2815	5.6364	0.1	4112.7
7423	6.0969	5.6364	0.1	4065.2
7424	5.9123	5.6364	0.1	3990.4
7425	5.7278	5.6364	0.1	3882.1
7426	5.5432	5.6364	0.1	3733.1
7427	5.3586	5.6364	0.1	3535.5
7428	5.1741	5.6364	0.1	3281.7
7429	4.9895	5.6364	0.1	2965.3
7430	4.8049	5.6364	0.1	2584.9
7431	4.6204	5.6364	0.1	2149.8
7432	4.4358	5.6364	0.1	1702.2
7433	4.2512	5.6364	0.1	1425.7
7434	23.815	5.8182	0.1	61.742
7435	23.631	5.8182	0.1	94.036
7436	23.446	5.8182	0.1	130.9
7437	23.262	5.8182	0.1	168.98
7438	23.077	5.8182	0.1	207.62
7439	22.893	5.8182	0.1	246.58
7440	22.708	5.8182	0.1	285.76
7441	22.523	5.8182	0.1	325.11
7442	22.339	5.8182	0.1	364.6
7443	22.154	5.8182	0.1	404.22
7444	21.97	5.8182	0.1	443.95
7445	21.785	5.8182	0.1	483.8
7446	21.601	5.8182	0.1	523.76
7447	21.416	5.8182	0.1	563.85
7448	21.231	5.8182	0.1	604.05
7449	21.047	5.8182	0.1	644.38
7450	20.862	5.8182	0.1	684.84
7451	20.678	5.8182	0.1	725.44
7452	20.493	5.8182	0.1	766.17
7453	20.309	5.8182	0.1	807.05
7454	20.124	5.8182	0.1	848.09
7455	19.94	5.8182	0.1	889.27
7456	19.755	5.8182	0.1	930.62
7457	19.57	5.8182	0.1	972.14
7458	19.386	5.8182	0.1	1013.8
7459	19.201	5.8182	0.1	1055.7
7460	19.017	5.8182	0.1	1097.7
7461	18.832	5.8182	0.1	1139.9
7462	18.648	5.8182	0.1	1182.3
7463	18.463	5.8182	0.1	1224.9
7464	18.278	5.8182	0.1	1267.6
7465	18.094	5.8182	0.1	1310.6
7466	17.909	5.8182	0.1	1353.7
7467	17.725	5.8182	0.1	1397.1
7468	17.54	5.8182	0.1	1440.6
7469	17.356	5.8182	0.1	1484.3
7470	17.171	5.8182	0.1	1528.2
7471	16.986	5.8182	0.1	1572.3
7472	16.802	5.8182	0.1	1616.7
7473	16.617	5.8182	0.1	1661.2
7474	16.433	5.8182	0.1	1705.9
7475	16.248	5.8182	0.1	1750.8
7476	16.064	5.8182	0.1	1795.9
7477	15.879	5.8182	0.1	1841.3
7478	15.694	5.8182	0.1	1886.8
7479	15.51	5.8182	0.1	1932.5
7480	15.325	5.8182	0.1	1978.5
7481	15.141	5.8182	0.1	2024.6
7482	14.956	5.8182	0.1	2070.9
7483	14.772	5.8182	0.1	2117.5
7484	14.587	5.8182	0.1	2164.3
7485	14.402	5.8182	0.1	2211.2
7486	14.218	5.8182	0.1	2258.4
7487	14.033	5.8182	0.1	2305.8
7488	13.849	5.8182	0.1	2353.4
7489	13.664	5.8182	0.1	2401.2
7490	13.48	5.8182	0.1	2449.2
7491	13.295	5.8182	0.1	2497.4
7492	13.11	5.8182	0.1	2545.9
7493	12.926	5.8182	0.1	2594.5
7494	12.741	5.8182	0.1	2643.4
7495	12.557	5.8182	0.1	2692.4
7496	12.372	5.8182	0.1	2741.7
7497	12.188	5.8182	0.1	2791.2
7498	12.003	5.8182	0.1	2840.9
7499	11.819	5.8182	0.1	2890.8
7500	11.634	5.8182	0.1	2941.
7501	11.449	5.8182	0.1	2991.3
7502	11.265	5.8182	0.1	3041.8
7503	11.08	5.8182	0.1	3092.6
7504	10.896	5.8182	0.1	3143.5
7505	10.711	5.8182	0.1	3194.6
7506	10.527	5.8182	0.1	3245.9
7507	10.342	5.8182	0.1	3297.4
7508	10.157	5.8182	0.1	3349.
7509	9.9728	5.8182	0.1	3400.7
7510	9.7883	5.8182	0.1	3452.5
7511	9.6037	5.8182	0.1	3504.3
7512	9.4191	5.8182	0.1	3556.
7513	9.2346	5.8182	0.1	3607.6
7514	9.05	5.8182	0.1	3659.
7515	8.8654	5.8182	0.1	3710.
7516	8.6809	5.8182	0.1	3760.4
7517	8.4963	5.8182	0.1	3810.
7518	8.3117	5.8182	0.1	3858.5
7519	8.1272	5.8182	0.1	3905.5
7520	7.9426	5.8182	0.1	3950.4
7521	7.758	5.8182	0.1	3992.7
7522	7.5735	5.8182	0.1	4031.4
7523	7.3889	5.8182	0.1	4065.7
7524	7.2043	5.8182	0.1	4094.1
7525	7.0198	5.8182	0.1	4115.1
7526	6.8352	5.8182	0.1	4126.6
7527	6.6506	5.8182	0.1	4126.2
7528	6.466	5.8182	0.1	4110.7
7529	6.2815	5.8182	0.1	4076.4
7530	6.0969	5.8182	0.1	4018.9
7531	5.9123	5.8182	0.1	3932.8
7532	5.7278	5.8182	0.1	3812.1
7533	5.5432	5.8182	0.1	3649.9
7534	5.3586	5.8182	0.1	3438.9
7535	5.1741	5.8182	0.1	3172.1
7536	4.9895	5.8182	0.1	2843.1
7537	4.8049	5.8182	0.1	2448.
7538	4.6204	5.8182	0.1	1986.8
7539	4.4358	5.8182	0.1	1470.7
7540	4.2512	5.8182	0.1	977.97
7541	0.17727	0.18182	0.1	4084.3
7542	0.17727	0.36364	0.1	4630.4
7543	0.17727	0.54545	0.1	5307.6
7544	0.17727	0.72727	0.1	5824.9
7545	0.17727	0.90909	0.1	6205.6
7546	0.17727	1.0909	0.1	6487.2
7547	0.17727	1.2727	0.1	6697.3
7548	0.17727	1.4545	0.1	6855.
7549	0.17727	1.6364	0.1	6973.4
7550	0.17727	1.8182	0.1	7062.
7551	0.17727	2.	0.1	7127.5
7552	0.17727	2.1818	0.1	7175.2
7553	0.17727	2.3636	0.1	7209.1
7554	0.17727	2.5455	0.1	7232.1
7555	0.17727	2.7273	0.1	7246.2
7556	0.17727	2.9091	0.1	7253.
7557	0.17727	3.0909	0.1	7253.
7558	0.17727	3.2727	0.1	7246.2
7559	0.17727	3.4545	0.1	7232.1
7560	0.17727	3.6364	0.1	7209.1
7561	0.17727	3.8182	0.1	7175.2
7562	0.17727	4.	0.1	7127.5
7563	0.17727	4.1818	0.1	7062.
7564	0.17727	4.3636	0.1	6973.4
7565	0.17727	4.5455	0.1	6855.
7566	0.17727	4.7273	0.1	6697.3
7567	0.17727	4.9091	0.1	6487.2
7568	0.17727	5.0909	0.1	6205.6
7569	0.17727	5.2727	0.1	5824.9
7570	0.17727	5.4545	0.1	5307.6
7571	0.17727	5.6364	0.1	4630.4
7572	0.17727	5.8182	0.1	4084.3
7573	0.35455	0.18182	0.1	5008.2
7574	0.35455	0.36364	0.1	4766.
7575	0.35455	0.54545	0.1	4842.
7576	0.35455	0.72727	0.1	5047.3
7577	0.35455	0.90909	0.1	5268.2
7578	0.35455	1.0909	0.1	5466.5
7579	0.35455	1.2727	0.1	5633.3
7580	0.35455	1.4545	0.1	5769.5
7581	0.35455	1.6364	0.1	5879.
7582	0.35455	1.8182	0.1	5965.9
7583	0.35455	2.	0.1	6034.
7584	0.35455	2.1818	0.1	6086.2
7585	0.35455	2.3636	0.1	6125.1
7586	0.35455	2.5455	0.1	6152.6
7587	0.35455	2.7273	0.1	6170.2
7588	0.35455	2.9091	0.1	6178.8
7589	0.35455	3.0909	0.1	6178.8
7590	0.35455	3.2727	0.1	6170.2
7591	0.35455	3.4545	0.1	6152.6
7592	0.35455	3.6364	0.1	6125.1
7593	0.35455	3.8182	0.1	6086.2
7594	0.35455	4.	0.1	6034.
7595	0.35455	4.1818	0.1	5965.9
7596	0.35455	4.3636	0.1	5879.
7597	0.35455	4.5455	0.1	5769.5
7598	0.35455	4.7273	0.1	5633.3
7599	0.35455	4.9091	0.1	5466.5
7600	0.35455	5.0909	0.1	5268.2
7601	0.35455	5.2727	0.1	5047.3
7602	0.35455	5.4545	0.1	4842.
7603	0.35455	5.6364	0.1	4766.
7604	0.35455	5.8182	0.1	5008.2
7605	0.53182	0.18182	0.1	5526.6
7606	0.53182	0.36364	0.1	5304.9
7607	0.53182	0.54545	0.1	5256.4
7608	0.53182	0.72727	0.1	5317.
7609	0.53182	0.90909	0.1	5435.9
7610	0.53182	1.0909	0.1	5572.7
7611	0.53182	1.2727	0.1	5705.5
7612	0.53182	1.4545	0.1	5825.
7613	0.53182	1.6364	0.1	5928.
7614	0.53182	1.8182	0.1	6014.3
7615	0.53182	2.	0.1	6084.9
7616	0.53182	2.1818	0.1	6141.1
7617	0.53182	2.3636	0.1	6184.3
7618	0.53182	2.5455	0.1	6215.6
7619	0.53182	2.7273	0.1	6235.9
7620	0.53182	2.9091	0.1	6246.
7621	0.53182	3.0909	0.1	6246.
7622	0.53182	3.2727	0.1	6235.9
7623	0.53182	3.4545	0.1	6215.6
7624	0.53182	3.6364	0.1	6184.3
7625	0.53182	3.8182	0.1	6141.1
7626	0.53182	4.	0.1	6084.9
7627	0.53182	4.1818	0.1	6014.3
7628	0.53182	4.3636	0.1	5928.
7629	0.53182	4.5455	0.1	5825.
7630	0.53182	4.7273	0.1	5705.5
7631	0.53182	4.9091	0.1	5572.7
7632	0.53182	5.0909	0.1	5435.9
7633	0.53182	5.2727	0.1	5317.
7634	0.53182	5.4545	0.1	5256.4
7635	0.53182	5.6364	0.1	5304.9
7636	0.53182	5.8182	0.1	5526.6
7637	0.70909	0.18182	0.1	5756.9
7638	0.70909	0.36364	0.1	5530.6
7639	0.70909	0.54545	0.1	5419.5
7640	0.70909	0.72727	0.1	5388.9
7641	0.70909	0.90909	0.1	5420.3
7642	0.70909	1.0909	0.1	5489.1
7643	0.70909	1.2727	0.1	5574.7
7644	0.70909	1.4545	0.1	5663.6
7645	0.70909	1.6364	0.1	5747.9
7646	0.70909	1.8182	0.1	5823.8
7647	0.70909	2.	0.1	5889.2
7648	0.70909	2.1818	0.1	5943.6
7649	0.70909	2.3636	0.1	5986.7
7650	0.70909	2.5455	0.1	6018.8
7651	0.70909	2.7273	0.1	6040.
7652	0.70909	2.9091	0.1	6050.5
7653	0.70909	3.0909	0.1	6050.5
7654	0.70909	3.2727	0.1	6040.
7655	0.70909	3.4545	0.1	6018.8
7656	0.70909	3.6364	0.1	5986.7
7657	0.70909	3.8182	0.1	5943.5
7658	0.70909	4.	0.1	5889.2
7659	0.70909	4.1818	0.1	5823.8
7660	0.70909	4.3636	0.1	5747.9
7661	0.70909	4.5455	0.1	5663.6
7662	0.70909	4.7273	0.1	5574.7
7663	0.70909	4.9091	0.1	5489.1
7664	0.70909	5.0909	0.1	5420.3
7665	0.70909	5.2727	0.1	5388.9
7666	0.70909	5.4545	0.1	5419.5
7667	0.70909	5.6364	0.1	5530.6
7668	0.70909	5.8182	0.1	5756.9
7669	0.88636	0.18182	0.1	5870.9
7670	0.88636	0.36364	0.1	5672.9
7671	0.88636	0.54545	0.1	5554.7
7672	0.88636	0.72727	0.1	5489.6
7673	0.88636	0.90909	0.1	5474.4
7674	0.88636	1.0909	0.1	5497.8
7675	0.88636	1.2727	0.1	5546.
7676	0.88636	1.4545	0.1	5607.1
7677	0.88636	1.6364	0.1	5672.3
7678	0.88636	1.8182	0.1	5735.8
7679	0.88636	2.	0.1	5793.9
7680	0.88636	2.1818	0.1	5844.4
7681	0.88636	2.3636	0.1	5885.7
7682	0.88636	2.5455	0.1	5917.3
7683	0.88636	2.7273	0.1	5938.5
7684	0.88636	2.9091	0.1	5949.1
7685	0.88636	3.0909	0.1	5949.1
7686	0.88636	3.2727	0.1	5938.5
7687	0.88636	3.4545	0.1	5917.3
7688	0.88636	3.6364	0.1	5885.7
7689	0.88636	3.8182	0.1	5844.4
7690	0.88636	4.	0.1	5793.9
7691	0.88636	4.1818	0.1	5735.8
7692	0.88636	4.3636	0.1	5672.3
7693	0.88636	4.5455	0.1	5607.1
7694	0.88636	4.7273	0.1	5546.
7695	0.88636	4.9091	0.1	5497.8
7696	0.88636	5.0909	0.1	5474.4
7697	0.88636	5.2727	0.1	5489.6
7698	0.88636	5.4545	0.1	5554.7
7699	0.88636	5.6364	0.1	5672.9
7700	0.88636	5.8182	0.1	5870.9
7701	1.0636	0.18182	0.1	5902.8
7702	1.0636	0.36364	0.1	5730.2
7703	1.0636	0.54545	0.1	5617.4
7704	1.0636	0.72727	0.1	5541.2
7705	1.0636	0.90909	0.1	5502.7
7706	1.0636	1.0909	0.1	5498.1
7707	1.0636	1.2727	0.1	5519.5
7708	1.0636	1.4545	0.1	5558.2
7709	1.0636	1.6364	0.1	5606.4
7710	1.0636	1.8182	0.1	5657.9
7711	1.0636	2.	0.1	5708.2
7712	1.0636	2.1818	0.1	5753.9
7713	1.0636	2.3636	0.1	5792.7
7714	1.0636	2.5455	0.1	5823.
7715	1.0636	2.7273	0.1	5843.8
7716	1.0636	2.9091	0.1	5854.3
7717	1.0636	3.0909	0.1	5854.3
7718	1.0636	3.2727	0.1	5843.8
7719	1.0636	3.4545	0.1	5823.
7720	1.0636	3.6364	0.1	5792.7
7721	1.0636	3.8182	0.1	5753.9
7722	1.0636	4.	0.1	5708.2
7723	1.0636	4.1818	0.1	5657.9
7724	1.0636	4.3636	0.1	5606.4
7725	1.0636	4.5455	0.1	5558.2
7726	1.0636	4.7273	0.1	5519.5
7727	1.0636	4.9091	0.1	5498.1
7728	1.0636	5.0909	0.1	5502.7
7729	1.0636	5.2727	0.1	5541.2
7730	1.0636	5.4545	0.1	5617.4
7731	1.0636	5.6364	0.1	5730.2
7732	1.0636	5.8182	0.1	5902.8
7733	1.2409	0.18182	0.1	5881.5
7734	1.2409	0.36364	0.1	5734.8
7735	1.2409	0.54545	0.1	5635.1
7736	1.2409	0.72727	0.1	5561.3
7737	1.2409	0.90909	0.1	5515.8
7738	1.2409	1.0909	0.1	5498.1
7739	1.2409	1.2727	0.1	5504.2
7740	1.2409	1.4545	0.1	5528.5
7741	1.2409	1.6364	0.1	5564.7
7742	1.2409	1.8182	0.1	5607.3
7743	1.2409	2.	0.1	5651.4
7744	1.2409	2.1818	0.1	5693.4
7745	1.2409	2.3636	0.1	5730.2
7746	1.2409	2.5455	0.1	5759.7
7747	1.2409	2.7273	0.1	5780.2
7748	1.2409	2.9091	0.1	5790.7
7749	1.2409	3.0909	0.1	5790.7
7750	1.2409	3.2727	0.1	5780.2
7751	1.2409	3.4545	0.1	5759.7
7752	1.2409	3.6364	0.1	5730.2
7753	1.2409	3.8182	0.1	5693.4
7754	1.2409	4.	0.1	5651.4
7755	1.2409	4.1818	0.1	5607.3
7756	1.2409	4.3636	0.1	5564.7
7757	1.2409	4.5455	0.1	5528.5
7758	1.2409	4.7273	0.1	5504.2
7759	1.2409	4.9091	0.1	5498.1
7760	1.2409	5.0909	0.1	5515.8
7761	1.2409	5.2727	0.1	5561.3
7762	1.2409	5.4545	0.1	5635.1
7763	1.2409	5.6364	0.1	5734.8
7764	1.2409	5.8182	0.1	5881.5
7765	1.4182	0.18182	0.1	5818.8
7766	1.4182	0.36364	0.1	5696.5
7767	1.4182	0.54545	0.1	5613.2
7768	1.4182	0.72727	0.1	5549.4
7769	1.4182	0.90909	0.1	5507.1
7770	1.4182	1.0909	0.1	5487.3
7771	1.4182	1.2727	0.1	5488.2
7772	1.4182	1.4545	0.1	5506.2
7773	1.4182	1.6364	0.1	5536.7
7774	1.4182	1.8182	0.1	5574.8
7775	1.4182	2.	0.1	5616.1
7776	1.4182	2.1818	0.1	5656.6
7777	1.4182	2.3636	0.1	5693.2
7778	1.4182	2.5455	0.1	5723.
7779	1.4182	2.7273	0.1	5744.
7780	1.4182	2.9091	0.1	5754.8
7781	1.4182	3.0909	0.1	5754.8
7782	1.4182	3.2727	0.1	5744.
7783	1.4182	3.4545	0.1	5723.
7784	1.4182	3.6364	0.1	5693.2
7785	1.4182	3.8182	0.1	5656.6
7786	1.4182	4.	0.1	5616.1
7787	1.4182	4.1818	0.1	5574.8
7788	1.4182	4.3636	0.1	5536.7
7789	1.4182	4.5455	0.1	5506.2
7790	1.4182	4.7273	0.1	5488.2
7791	1.4182	4.9091	0.1	5487.3
7792	1.4182	5.0909	0.1	5507.1
7793	1.4182	5.2727	0.1	5549.4
7794	1.4182	5.4545	0.1	5613.2
7795	1.4182	5.6364	0.1	5696.5
7796	1.4182	5.8182	0.1	5818.8
7797	1.5955	0.18182	0.1	5721.1
7798	1.5955	0.36364	0.1	5622.7
7799	1.5955	0.54545	0.1	5558.2
7800	1.5955	0.72727	0.1	5509.4
7801	1.5955	0.90909	0.1	5477.8
7802	1.5955	1.0909	0.1	5464.7
7803	1.5955	1.2727	0.1	5469.2
7804	1.5955	1.4545	0.1	5489.
7805	1.5955	1.6364	0.1	5520.5
7806	1.5955	1.8182	0.1	5559.7
7807	1.5955	2.	0.1	5602.7
7808	1.5955	2.1818	0.1	5645.4
7809	1.5955	2.3636	0.1	5684.3
7810	1.5955	2.5455	0.1	5716.5
7811	1.5955	2.7273	0.1	5739.4
7812	1.5955	2.9091	0.1	5751.3
7813	1.5955	3.0909	0.1	5751.3
7814	1.5955	3.2727	0.1	5739.4
7815	1.5955	3.4545	0.1	5716.5
7816	1.5955	3.6364	0.1	5684.3
7817	1.5955	3.8182	0.1	5645.4
7818	1.5955	4.	0.1	5602.7
7819	1.5955	4.1818	0.1	5559.7
7820	1.5955	4.3636	0.1	5520.5
7821	1.5955	4.5455	0.1	5489.
7822	1.5955	4.7273	0.1	5469.2
7823	1.5955	4.9091	0.1	5464.7
7824	1.5955	5.0909	0.1	5477.8
7825	1.5955	5.2727	0.1	5509.4
7826	1.5955	5.4545	0.1	5558.2
7827	1.5955	5.6364	0.1	5622.7
7828	1.5955	5.8182	0.1	5721.1
7829	1.7727	0.18182	0.1	5590.7
7830	1.7727	0.36364	0.1	5515.8
7831	1.7727	0.54545	0.1	5472.
7832	1.7727	0.72727	0.1	5442.5
7833	1.7727	0.90909	0.1	5427.8
7834	1.7727	1.0909	0.1	5428.9
7835	1.7727	1.2727	0.1	5445.1
7836	1.7727	1.4545	0.1	5474.6
7837	1.7727	1.6364	0.1	5514.4
7838	1.7727	1.8182	0.1	5561.3
7839	1.7727	2.	0.1	5611.3
7840	1.7727	2.1818	0.1	5660.7
7841	1.7727	2.3636	0.1	5705.8
7842	1.7727	2.5455	0.1	5743.2
7843	1.7727	2.7273	0.1	5769.8
7844	1.7727	2.9091	0.1	5783.7
7845	1.7727	3.0909	0.1	5783.7
7846	1.7727	3.2727	0.1	5769.8
7847	1.7727	3.4545	0.1	5743.2
7848	1.7727	3.6364	0.1	5705.8
7849	1.7727	3.8182	0.1	5660.7
7850	1.7727	4.	0.1	5611.3
7851	1.7727	4.1818	0.1	5561.3
7852	1.7727	4.3636	0.1	5514.4
7853	1.7727	4.5455	0.1	5474.6
7854	1.7727	4.7273	0.1	5445.1
7855	1.7727	4.9091	0.1	5428.9
7856	1.7727	5.0909	0.1	5427.8
7857	1.7727	5.2727	0.1	5442.5
7858	1.7727	5.4545	0.1	5472.
7859	1.7727	5.6364	0.1	5515.7
7860	1.7727	5.8182	0.1	5590.7
7861	1.95	0.18182	0.1	5427.3
7862	1.95	0.36364	0.1	5375.7
7863	1.95	0.54545	0.1	5355.
7864	1.95	0.72727	0.1	5348.7
7865	1.95	0.90909	0.1	5356.8
7866	1.95	1.0909	0.1	5379.3
7867	1.95	1.2727	0.1	5415.3
7868	1.95	1.4545	0.1	5462.8
7869	1.95	1.6364	0.1	5518.9
7870	1.95	1.8182	0.1	5580.5
7871	1.95	2.	0.1	5644.1
7872	1.95	2.1818	0.1	5705.9
7873	1.95	2.3636	0.1	5761.9
7874	1.95	2.5455	0.1	5808.1
7875	1.95	2.7273	0.1	5841.2
7876	1.95	2.9091	0.1	5858.4
7877	1.95	3.0909	0.1	5858.4
7878	1.95	3.2727	0.1	5841.2
7879	1.95	3.4545	0.1	5808.1
7880	1.95	3.6364	0.1	5761.9
7881	1.95	3.8182	0.1	5705.9
7882	1.95	4.	0.1	5644.1
7883	1.95	4.1818	0.1	5580.5
7884	1.95	4.3636	0.1	5518.9
7885	1.95	4.5455	0.1	5462.8
7886	1.95	4.7273	0.1	5415.3
7887	1.95	4.9091	0.1	5379.3
7888	1.95	5.0909	0.1	5356.8
7889	1.95	5.2727	0.1	5348.7
7890	1.95	5.4545	0.1	5355.
7891	1.95	5.6364	0.1	5375.7
7892	1.95	5.8182	0.1	5427.3
7893	2.1273	0.18182	0.1	5228.5
7894	2.1273	0.36364	0.1	5200.3
7895	2.1273	0.54545	0.1	5205.
7896	2.1273	0.72727	0.1	5226.4
7897	2.1273	0.90909	0.1	5263.6
7898	2.1273	1.0909	0.1	5315.4
7899	2.1273	1.2727	0.1	5380.
7900	2.1273	1.4545	0.1	5454.4
7901	2.1273	1.6364	0.1	5535.6
7902	2.1273	1.8182	0.1	5620.4
7903	2.1273	2.	0.1	5705.2
7904	2.1273	2.1818	0.1	5786.2
7905	2.1273	2.3636	0.1	5858.8
7906	2.1273	2.5455	0.1	5918.6
7907	2.1273	2.7273	0.1	5961.3
7908	2.1273	2.9091	0.1	5983.5
7909	2.1273	3.0909	0.1	5983.5
7910	2.1273	3.2727	0.1	5961.3
7911	2.1273	3.4545	0.1	5918.6
7912	2.1273	3.6364	0.1	5858.8
7913	2.1273	3.8182	0.1	5786.2
7914	2.1273	4.	0.1	5705.2
7915	2.1273	4.1818	0.1	5620.4
7916	2.1273	4.3636	0.1	5535.6
7917	2.1273	4.5455	0.1	5454.4
7918	2.1273	4.7273	0.1	5380.
7919	2.1273	4.9091	0.1	5315.4
7920	2.1273	5.0909	0.1	5263.6
7921	2.1273	5.2727	0.1	5226.4
7922	2.1273	5.4545	0.1	5205.
7923	2.1273	5.6364	0.1	5200.3
7924	2.1273	5.8182	0.1	5228.5
7925	2.3045	0.18182	0.1	4990.3
7926	2.3045	0.36364	0.1	4985.6
7927	2.3045	0.54545	0.1	5018.6
7928	2.3045	0.72727	0.1	5072.8
7929	2.3045	0.90909	0.1	5146.3
7930	2.3045	1.0909	0.1	5236.6
7931	2.3045	1.2727	0.1	5339.8
7932	2.3045	1.4545	0.1	5451.8
7933	2.3045	1.6364	0.1	5568.6
7934	2.3045	1.8182	0.1	5686.3
7935	2.3045	2.	0.1	5801.3
7936	2.3045	2.1818	0.1	5909.6
7937	2.3045	2.3636	0.1	6006.1
7938	2.3045	2.5455	0.1	6085.2
7939	2.3045	2.7273	0.1	6141.4
7940	2.3045	2.9091	0.1	6170.7
7941	2.3045	3.0909	0.1	6170.7
7942	2.3045	3.2727	0.1	6141.4
7943	2.3045	3.4545	0.1	6085.2
7944	2.3045	3.6364	0.1	6006.1
7945	2.3045	3.8182	0.1	5909.6
7946	2.3045	4.	0.1	5801.3
7947	2.3045	4.1818	0.1	5686.3
7948	2.3045	4.3636	0.1	5568.6
7949	2.3045	4.5455	0.1	5451.8
7950	2.3045	4.7273	0.1	5339.8
7951	2.3045	4.9091	0.1	5236.6
7952	2.3045	5.0909	0.1	5146.3
7953	2.3045	5.2727	0.1	5072.8
7954	2.3045	5.4545	0.1	5018.6
7955	2.3045	5.6364	0.1	4985.6
7956	2.3045	5.8182	0.1	4990.3
7957	2.4818	0.18182	0.1	4707.6
7958	2.4818	0.36364	0.1	4726.5
7959	2.4818	0.54545	0.1	4790.9
7960	2.4818	0.72727	0.1	4884.1
7961	2.4818	0.90909	0.1	5002.8
7962	2.4818	1.0909	0.1	5142.4
7963	2.4818	1.2727	0.1	5296.8
7964	2.4818	1.4545	0.1	5459.3
7965	2.4818	1.6364	0.1	5624.2
7966	2.4818	1.8182	0.1	5786.7
7967	2.4818	2.	0.1	5942.9
7968	2.4818	2.1818	0.1	6088.4
7969	2.4818	2.3636	0.1	6217.3
7970	2.4818	2.5455	0.1	6322.4
7971	2.4818	2.7273	0.1	6396.8
7972	2.4818	2.9091	0.1	6435.4
7973	2.4818	3.0909	0.1	6435.4
7974	2.4818	3.2727	0.1	6396.8
7975	2.4818	3.4545	0.1	6322.4
7976	2.4818	3.6364	0.1	6217.3
7977	2.4818	3.8182	0.1	6088.4
7978	2.4818	4.	0.1	5942.9
7979	2.4818	4.1818	0.1	5786.7
7980	2.4818	4.3636	0.1	5624.2
7981	2.4818	4.5455	0.1	5459.3
7982	2.4818	4.7273	0.1	5296.8
7983	2.4818	4.9091	0.1	5142.4
7984	2.4818	5.0909	0.1	5002.8
7985	2.4818	5.2727	0.1	4884.1
7986	2.4818	5.4545	0.1	4790.9
7987	2.4818	5.6364	0.1	4726.5
7988	2.4818	5.8182	0.1	4707.6
7989	2.6591	0.18182	0.1	4374.6
7990	2.6591	0.36364	0.1	4416.8
7991	2.6591	0.54545	0.1	4516.5
7992	2.6591	0.72727	0.1	4656.1
7993	2.6591	0.90909	0.1	4830.8
7994	2.6591	1.0909	0.1	5033.5
7995	2.6591	1.2727	0.1	5254.8
7996	2.6591	1.4545	0.1	5484.4
7997	2.6591	1.6364	0.1	5713.5
7998	2.6591	1.8182	0.1	5935.5
7999	2.6591	2.	0.1	6146.3
8000	2.6591	2.1818	0.1	6341.
8001	2.6591	2.3636	0.1	6512.4
8002	2.6591	2.5455	0.1	6650.9
8003	2.6591	2.7273	0.1	6747.9
8004	2.6591	2.9091	0.1	6797.8
8005	2.6591	3.0909	0.1	6797.8
8006	2.6591	3.2727	0.1	6747.9
8007	2.6591	3.4545	0.1	6650.9
8008	2.6591	3.6364	0.1	6512.4
8009	2.6591	3.8182	0.1	6341.
8010	2.6591	4.	0.1	6146.3
8011	2.6591	4.1818	0.1	5935.5
8012	2.6591	4.3636	0.1	5713.5
8013	2.6591	4.5455	0.1	5484.4
8014	2.6591	4.7273	0.1	5254.8
8015	2.6591	4.9091	0.1	5033.5
8016	2.6591	5.0909	0.1	4830.8
8017	2.6591	5.2727	0.1	4656.1
8018	2.6591	5.4545	0.1	4516.5
8019	2.6591	5.6364	0.1	4416.8
8020	2.6591	5.8182	0.1	4374.6
8021	2.8364	0.18182	0.1	3985.3
8022	2.8364	0.36364	0.1	4050.6
8023	2.8364	0.54545	0.1	4190.6
8024	2.8364	0.72727	0.1	4386.
8025	2.8364	0.90909	0.1	4630.2
8026	2.8364	1.0909	0.1	4913.
8027	2.8364	1.2727	0.1	5221.2
8028	2.8364	1.4545	0.1	5539.7
8029	2.8364	1.6364	0.1	5854.5
8030	2.8364	1.8182	0.1	6155.5
8031	2.8364	2.	0.1	6438.
8032	2.8364	2.1818	0.1	6696.5
8033	2.8364	2.3636	0.1	6921.
8034	2.8364	2.5455	0.1	7099.2
8035	2.8364	2.7273	0.1	7220.9
8036	2.8364	2.9091	0.1	7282.1
8037	2.8364	3.0909	0.1	7282.1
8038	2.8364	3.2727	0.1	7220.9
8039	2.8364	3.4545	0.1	7099.2
8040	2.8364	3.6364	0.1	6921.
8041	2.8364	3.8182	0.1	6696.5
8042	2.8364	4.	0.1	6438.
8043	2.8364	4.1818	0.1	6155.5
8044	2.8364	4.3636	0.1	5854.5
8045	2.8364	4.5455	0.1	5539.7
8046	2.8364	4.7273	0.1	5221.2
8047	2.8364	4.9091	0.1	4913.
8048	2.8364	5.0909	0.1	4630.2
8049	2.8364	5.2727	0.1	4386.
8050	2.8364	5.4545	0.1	4190.6
8051	2.8364	5.6364	0.1	4050.6
8052	2.8364	5.8182	0.1	3985.3
8053	3.0136	0.18182	0.1	3534.6
8054	3.0136	0.36364	0.1	3623.7
8055	3.0136	0.54545	0.1	3811.5
8056	3.0136	0.72727	0.1	4075.2
8057	3.0136	0.90909	0.1	4405.
8058	3.0136	1.0909	0.1	4788.2
8059	3.0136	1.2727	0.1	5208.7
8060	3.0136	1.4545	0.1	5645.9
8061	3.0136	1.6364	0.1	6076.5
8062	3.0136	1.8182	0.1	6484.
8063	3.0136	2.	0.1	6860.3
8064	3.0136	2.1818	0.1	7200.3
8065	3.0136	2.3636	0.1	7489.
8066	3.0136	2.5455	0.1	7706.8
8067	3.0136	2.7273	0.1	7847.
8068	3.0136	2.9091	0.1	7914.1
8069	3.0136	3.0909	0.1	7914.1
8070	3.0136	3.2727	0.1	7847.
8071	3.0136	3.4545	0.1	7706.8
8072	3.0136	3.6364	0.1	7489.
8073	3.0136	3.8182	0.1	7200.3
8074	3.0136	4.	0.1	6860.3
8075	3.0136	4.1818	0.1	6484.
8076	3.0136	4.3636	0.1	6076.5
8077	3.0136	4.5455	0.1	5645.9
8078	3.0136	4.7273	0.1	5208.7
8079	3.0136	4.9091	0.1	4788.2
8080	3.0136	5.0909	0.1	4405.
8081	3.0136	5.2727	0.1	4075.2
8082	3.0136	5.4545	0.1	3811.5
8083	3.0136	5.6364	0.1	3623.7
8084	3.0136	5.8182	0.1	3534.6
8085	3.1909	0.18182	0.1	3019.
8086	3.1909	0.36364	0.1	3137.2
8087	3.1909	0.54545	0.1	3386.5
8088	3.1909	0.72727	0.1	3735.7
8089	3.1909	0.90909	0.1	4169.7
8090	3.1909	1.0909	0.1	4675.2
8091	3.1909	1.2727	0.1	5237.5
8092	3.1909	1.4545	0.1	5834.5
8093	3.1909	1.6364	0.1	6433.
8094	3.1909	1.8182	0.1	6989.9
8095	3.1909	2.	0.1	7496.2
8096	3.1909	2.1818	0.1	7939.2
8097	3.1909	2.3636	0.1	8289.
8098	3.1909	2.5455	0.1	8526.1
8099	3.1909	2.7273	0.1	8656.2
8100	3.1909	2.9091	0.1	8710.5
8101	3.1909	3.0909	0.1	8710.5
8102	3.1909	3.2727	0.1	8656.2
8103	3.1909	3.4545	0.1	8526.1
8104	3.1909	3.6364	0.1	8289.
8105	3.1909	3.8182	0.1	7939.2
8106	3.1909	4.	0.1	7496.2
8107	3.1909	4.1818	0.1	6989.9
8108	3.1909	4.3636	0.1	6433.
8109	3.1909	4.5455	0.1	5834.5
8110	3.1909	4.7273	0.1	5237.5
8111	3.1909	4.9091	0.1	4675.2
8112	3.1909	5.0909	0.1	4169.7
8113	3.1909	5.2727	0.1	3735.7
8114	3.1909	5.4545	0.1	3386.5
8115	3.1909	5.6364	0.1	3137.2
8116	3.1909	5.8182	0.1	3019.
8117	3.3682	0.18182	0.1	2439.
8118	3.3682	0.36364	0.1	2605.
8119	3.3682	0.54545	0.1	2943.3
8120	3.3682	0.72727	0.1	3400.9
8121	3.3682	0.90909	0.1	3955.9
8122	3.3682	1.0909	0.1	4600.8
8123	3.3682	1.2727	0.1	5334.2
8124	3.3682	1.4545	0.1	6152.2
8125	3.3682	1.6364	0.1	6997.3
8126	3.3682	1.8182	0.1	7796.5
8127	3.3682	2.	0.1	8495.1
8128	3.3682	2.1818	0.1	9053.8
8129	3.3682	2.3636	0.1	9448.8
8130	3.3682	2.5455	0.1	9615.9
8131	3.3682	2.7273	0.1	9657.2
8132	3.3682	2.9091	0.1	9656.5
8133	3.3682	3.0909	0.1	9656.5
8134	3.3682	3.2727	0.1	9657.2
8135	3.3682	3.4545	0.1	9615.9
8136	3.3682	3.6364	0.1	9448.8
8137	3.3682	3.8182	0.1	9053.8
8138	3.3682	4.	0.1	8495.1
8139	3.3682	4.1818	0.1	7796.5
8140	3.3682	4.3636	0.1	6997.3
8141	3.3682	4.5455	0.1	6152.2
8142	3.3682	4.7273	0.1	5334.2
8143	3.3682	4.9091	0.1	4600.8
8144	3.3682	5.0909	0.1	3955.9
8145	3.3682	5.2727	0.1	3400.9
8146	3.3682	5.4545	0.1	2943.3
8147	3.3682	5.6364	0.1	2605.
8148	3.3682	5.8182	0.1	2439.
8149	3.5455	0.18182	0.1	1807.5
8150	3.5455	0.36364	0.1	2081.3
8151	3.5455	0.54545	0.1	2558.1
8152	3.5455	0.72727	0.1	3147.1
8153	3.5455	0.90909	0.1	3829.4
8154	3.5455	1.0909	0.1	4616.6
8155	3.5455	1.2727	0.1	5542.6
8156	3.5455	1.4545	0.1	6636.5
8157	3.5455	1.6364	0.1	7932.3
8158	3.5455	1.8182	0.1	9339.3
8159	3.5455	2.	0.1	10268
8160	3.5455	2.1818	0.1	11009
8161	3.5455	2.3636	0.1	11146
8162	3.5455	2.5455	0.1	10997
8163	3.5455	2.7273	0.1	10788
8164	3.5455	2.9091	0.1	10666
8165	3.5455	3.0909	0.1	10666
8166	3.5455	3.2727	0.1	10788
8167	3.5455	3.4545	0.1	10997
8168	3.5455	3.6364	0.1	11146
8169	3.5455	3.8182	0.1	11009
8170	3.5455	4.	0.1	10268
8171	3.5455	4.1818	0.1	9339.3
8172	3.5455	4.3636	0.1	7932.3
8173	3.5455	4.5455	0.1	6636.5
8174	3.5455	4.7273	0.1	5542.6
8175	3.5455	4.9091	0.1	4616.6
8176	3.5455	5.0909	0.1	3829.4
8177	3.5455	5.2727	0.1	3147.1
8178	3.5455	5.4545	0.1	2558.1
8179	3.5455	5.6364	0.1	2081.3
8180	3.5455	5.8182	0.1	1807.5
8181	3.7227	0.18182	0.1	1226.8
8182	3.7227	0.36364	0.1	1789.9
8183	3.7227	0.54545	0.1	2475.4
8184	3.7227	0.72727	0.1	3223.3
8185	3.7227	0.90909	0.1	4053.1
8186	3.7227	1.0909	0.1	5007.8
8187	3.7227	1.2727	0.1	6163.1
8188	3.7227	1.4545	0.1	7645.2
8189	3.7227	1.6364	0.1	9784.5
8190	3.7227	1.8182	0.1	12924
8191	3.7227	2.	0.1	15489
8192	3.7227	2.1818	0.1	14579
8193	3.7227	2.3636	0.1	13531
8194	3.7227	2.5455	0.1	12460
8195	3.7227	2.7273	0.1	11842
8196	3.7227	2.9091	0.1	11552
8197	3.7227	3.0909	0.1	11552
8198	3.7227	3.2727	0.1	11842
8199	3.7227	3.4545	0.1	12460
8200	3.7227	3.6364	0.1	13531
8201	3.7227	3.8182	0.1	14579
8202	3.7227	4.	0.1	15489
8203	3.7227	4.1818	0.1	12924
8204	3.7227	4.3636	0.1	9784.5
8205	3.7227	4.5455	0.1	7645.2
8206	3.7227	4.7273	0.1	6163.1
8207	3.7227	4.9091	0.1	5007.8
8208	3.7227	5.0909	0.1	4053.1
8209	3.7227	5.2727	0.1	3223.3
8210	3.7227	5.4545	0.1	2475.4
8211	3.7227	5.6364	0.1	1789.9
8212	3.7227	5.8182	0.1	1226.8
8213	4.0667	3.8182	0.1	19192
8214	4.0667	3.6364	0.1	15217
8215	4.0667	3.4545	0.1	13380
8216	4.0667	3.2727	0.1	12426
8217	4.0667	3.0909	0.1	12018
8218	4.0667	2.9091	0.1	12018
8219	4.0667	2.7273	0.1	12426
8220	4.0667	2.5455	0.1	13380
8221	4.0667	2.3636	0.1	15217
8222	4.0667	2.1818	0.1	19192
8223	3.9	3.8182	0.1	19410
8224	3.9	3.6364	0.1	15318
8225	3.9	3.4545	0.1	13441
8226	3.9	3.2727	0.1	12472
8227	3.9	3.0909	0.1	12058
8228	3.9	2.9091	0.1	12058
8229	3.9	2.7273	0.1	12472
8230	3.9	2.5455	0.1	13441
8231	3.9	2.3636	0.1	15318
8232	3.9	2.1818	0.1	19410
8233	4.0667	5.8182	0.1	535.92
8234	4.0667	5.6364	0.1	982.83
8235	4.0667	5.4545	0.1	1407.2
8236	4.0667	5.2727	0.1	1857.5
8237	4.0667	5.0909	0.1	2362.9
8238	4.0667	4.9091	0.1	2960.7
8239	4.0667	4.7273	0.1	3709.6
8240	4.0667	4.5455	0.1	4751.5
8241	4.0667	4.3636	0.1	6066.8
8242	4.0667	4.1818	0.1	10635
8243	4.0667	4.	0.1	27854
8244	3.9	4.	0.1	28836
8245	3.9	4.1818	0.1	11333
8246	3.9	4.3636	0.1	6670.1
8247	3.9	4.5455	0.1	5354.1
8248	3.9	4.7273	0.1	4279.3
8249	3.9	4.9091	0.1	3495.6
8250	3.9	5.0909	0.1	2851.7
8251	3.9	5.2727	0.1	2288.2
8252	3.9	5.4545	0.1	1765.6
8253	3.9	5.6364	0.1	1251.6
8254	3.9	5.8182	0.1	687.57
8255	4.0667	0.18182	0.1	535.92
8256	4.0667	0.36364	0.1	982.83
8257	4.0667	0.54545	0.1	1407.2
8258	4.0667	0.72727	0.1	1857.5
8259	4.0667	0.90909	0.1	2362.9
8260	4.0667	1.0909	0.1	2960.7
8261	4.0667	1.2727	0.1	3709.6
8262	4.0667	1.4545	0.1	4751.5
8263	4.0667	1.6364	0.1	6066.8
8264	4.0667	1.8182	0.1	10635
8265	4.0667	2.	0.1	27854
8266	3.9	2.	0.1	28836
8267	3.9	1.8182	0.1	11333
8268	3.9	1.6364	0.1	6670.1
8269	3.9	1.4545	0.1	5354.1
8270	3.9	1.2727	0.1	4279.3
8271	3.9	1.0909	0.1	3495.6
8272	3.9	0.90909	0.1	2851.7
8273	3.9	0.72727	0.1	2288.2
8274	3.9	0.54545	0.1	1765.6
8275	3.9	0.36364	0.1	1251.6
8276	3.9	0.18182	0.1	687.57
8277	4.0667	6.	0.1	68.286
8278	4.2512	6.	0.1	650.55
8279	4.4358	6.	0.1	1271.1
8280	4.6204	6.	0.1	1815.8
8281	4.8049	6.	0.1	2295.9
8282	4.9895	6.	0.1	2709.1
8283	5.1741	6.	0.1	3056.1
8284	5.3586	6.	0.1	3340.5
8285	5.5432	6.	0.1	3567.7
8286	5.7278	6.	0.1	3744.6
8287	5.9123	6.	0.1	3878.2
8288	6.0969	6.	0.1	3975.3
8289	6.2815	6.	0.1	4042.1
8290	6.466	6.	0.1	4084.1
8291	6.6506	6.	0.1	4106.
8292	6.8352	6.	0.1	4111.6
8293	7.0198	6.	0.1	4104.2
8294	7.2043	6.	0.1	4086.5
8295	7.3889	6.	0.1	4060.6
8296	7.5735	6.	0.1	4028.3
8297	7.758	6.	0.1	3990.9
8298	7.9426	6.	0.1	3949.7
8299	8.1272	6.	0.1	3905.4
8300	8.3117	6.	0.1	3858.9
8301	8.4963	6.	0.1	3810.5
8302	8.6809	6.	0.1	3760.9
8303	8.8654	6.	0.1	3710.4
8304	9.05	6.	0.1	3659.1
8305	9.2346	6.	0.1	3607.4
8306	9.4191	6.	0.1	3555.3
8307	9.6037	6.	0.1	3503.1
8308	9.7883	6.	0.1	3450.9
8309	9.9728	6.	0.1	3398.6
8310	10.157	6.	0.1	3346.4
8311	10.342	6.	0.1	3294.3
8312	10.527	6.	0.1	3242.3
8313	10.711	6.	0.1	3190.5
8314	10.896	6.	0.1	3138.9
8315	11.08	6.	0.1	3087.5
8316	11.265	6.	0.1	3036.3
8317	11.449	6.	0.1	2985.3
8318	11.634	6.	0.1	2934.5
8319	11.819	6.	0.1	2884.
8320	12.003	6.	0.1	2833.7
8321	12.188	6.	0.1	2783.6
8322	12.372	6.	0.1	2733.7
8323	12.557	6.	0.1	2684.
8324	12.741	6.	0.1	2634.6
8325	12.926	6.	0.1	2585.4
8326	13.11	6.	0.1	2536.5
8327	13.295	6.	0.1	2487.7
8328	13.48	6.	0.1	2439.2
8329	13.664	6.	0.1	2390.9
8330	13.849	6.	0.1	2342.8
8331	14.033	6.	0.1	2294.9
8332	14.218	6.	0.1	2247.2
8333	14.402	6.	0.1	2199.8
8334	14.587	6.	0.1	2152.5
8335	14.772	6.	0.1	2105.5
8336	14.956	6.	0.1	2058.7
8337	15.141	6.	0.1	2012.1
8338	15.325	6.	0.1	1965.7
8339	15.51	6.	0.1	1919.5
8340	15.694	6.	0.1	1873.5
8341	15.879	6.	0.1	1827.7
8342	16.064	6.	0.1	1782.1
8343	16.248	6.	0.1	1736.7
8344	16.433	6.	0.1	1691.5
8345	16.617	6.	0.1	1646.6
8346	16.802	6.	0.1	1601.8
8347	16.986	6.	0.1	1557.2
8348	17.171	6.	0.1	1512.8
8349	17.356	6.	0.1	1468.6
8350	17.54	6.	0.1	1424.6
8351	17.725	6.	0.1	1380.8
8352	17.909	6.	0.1	1337.1
8353	18.094	6.	0.1	1293.7
8354	18.278	6.	0.1	1250.5
8355	18.463	6.	0.1	1207.4
8356	18.648	6.	0.1	1164.5
8357	18.832	6.	0.1	1121.8
8358	19.017	6.	0.1	1079.3
8359	19.201	6.	0.1	1036.9
8360	19.386	6.	0.1	994.74
8361	19.57	6.	0.1	952.73
8362	19.755	6.	0.1	910.89
8363	19.94	6.	0.1	869.21
8364	20.124	6.	0.1	827.7
8365	20.309	6.	0.1	786.35
8366	20.493	6.	0.1	745.15
8367	20.678	6.	0.1	704.11
8368	20.862	6.	0.1	663.23
8369	21.047	6.	0.1	622.49
8370	21.231	6.	0.1	581.91
8371	21.416	6.	0.1	541.48
8372	21.601	6.	0.1	501.2
8373	21.785	6.	0.1	461.08
8374	21.97	6.	0.1	421.13
8375	22.154	6.	0.1	381.36
8376	22.339	6.	0.1	341.78
8377	22.523	6.	0.1	302.41
8378	22.708	6.	0.1	263.3
8379	22.893	6.	0.1	224.5
8380	23.077	6.	0.1	186.07
8381	23.262	6.	0.1	148.16
8382	23.446	6.	0.1	110.94
8383	23.631	6.	0.1	74.895
8384	23.815	6.	0.1	40.13
8385	24.	6.	0.1	9.47
8386	24.	5.8182	0.1	39.705
8387	24.	5.6364	0.1	67.055
8388	24.	5.4545	0.1	88.118
8389	24.	5.2727	0.1	105.67
8390	24.	5.0909	0.1	120.63
8391	24.	4.9091	0.1	133.54
8392	24.	4.7273	0.1	144.73
8393	24.	4.5455	0.1	154.41
8394	24.	4.3636	0.1	162.74
8395	24.	4.1818	0.1	169.84
8396	24.	4.	0.1	175.8
8397	24.	3.8182	0.1	180.68
8398	24.	3.6364	0.1	184.53
8399	24.	3.4545	0.1	187.39
8400	24.	3.2727	0.1	189.28
8401	24.	3.0909	0.1	190.22
8402	24.	2.9091	0.1	190.22
8403	24.	2.7273	0.1	189.28
8404	24.	2.5455	0.1	187.39
8405	24.	2.3636	0.1	184.53
8406	24.	2.1818	0.1	180.68
8407	24.	2.	0.1	175.8
8408	24.	1.8182	0.1	169.84
8409	24.	1.6364	0.1	162.74
8410	24.	1.4545	0.1	154.41
8411	24.	1.2727	0.1	144.73
8412	24.	1.0909	0.1	133.54
8413	24.	0.90909	0.1	120.63
8414	24.	0.72727	0.1	105.67
8415	24.	0.54545	0.1	88.118
8416	24.	0.36364	0.1	67.055
8417	24.	0.18182	0.1	39.705
8418	1.5894e-015	0.18182	0.1	1443.2
8419	3.1789e-015	0.36364	0.1	2434.4
8420	4.7683e-015	0.54545	0.1	2943.2
8421	6.3578e-015	0.72727	0.1	3262.
8422	7.9472e-015	0.90909	0.1	3471.4
8423	9.5366e-015	1.0909	0.1	3617.1
8424	1.1126e-014	1.2727	0.1	3721.
8425	1.2716e-014	1.4545	0.1	3795.8
8426	1.4305e-014	1.6364	0.1	3849.6
8427	1.5894e-014	1.8182	0.1	3887.9
8428	1.7484e-014	2.	0.1	3914.8
8429	1.9073e-014	2.1818	0.1	3933.2
8430	2.0663e-014	2.3636	0.1	3945.4
8431	2.2252e-014	2.5455	0.1	3953.1
8432	2.3842e-014	2.7273	0.1	3957.5
8433	2.5431e-014	2.9091	0.1	3959.6
8434	2.702e-014	3.0909	0.1	3959.6
8435	2.861e-014	3.2727	0.1	3957.5
8436	3.0199e-014	3.4545	0.1	3953.1
8437	3.1789e-014	3.6364	0.1	3945.4
8438	3.3378e-014	3.8182	0.1	3933.2
8439	3.4968e-014	4.	0.1	3914.8
8440	3.6557e-014	4.1818	0.1	3887.9
8441	3.8147e-014	4.3636	0.1	3849.6
8442	3.9736e-014	4.5455	0.1	3795.8
8443	4.1325e-014	4.7273	0.1	3721.
8444	4.2915e-014	4.9091	0.1	3617.1
8445	4.4504e-014	5.0909	0.1	3471.4
8446	4.6094e-014	5.2727	0.1	3262.
8447	4.7683e-014	5.4545	0.1	2943.2
8448	4.9273e-014	5.6364	0.1	2434.4
8449	5.0862e-014	5.8182	0.1	1443.2
8450	24.	0.	0.1	9.4699
8451	23.815	0.	0.1	40.13
8452	23.631	0.	0.1	74.895
8453	23.446	0.	0.1	110.94
8454	23.262	0.	0.1	148.16
8455	23.077	0.	0.1	186.07
8456	22.893	0.	0.1	224.5
8457	22.708	0.	0.1	263.3
8458	22.523	0.	0.1	302.41
8459	22.339	0.	0.1	341.78
8460	22.154	0.	0.1	381.36
8461	21.97	0.	0.1	421.13
8462	21.785	0.	0.1	461.08
8463	21.601	0.	0.1	501.2
8464	21.416	0.	0.1	541.48
8465	21.231	0.	0.1	581.91
8466	21.047	0.	0.1	622.49
8467	20.862	0.	0.1	663.23
8468	20.678	0.	0.1	704.11
8469	20.493	0.	0.1	745.15
8470	20.309	0.	0.1	786.35
8471	20.124	0.	0.1	827.7
8472	19.94	0.	0.1	869.21
8473	19.755	0.	0.1	910.89
8474	19.57	0.	0.1	952.73
8475	19.386	0.	0.1	994.74
8476	19.201	0.	0.1	1036.9
8477	19.017	0.	0.1	1079.3
8478	18.832	0.	0.1	1121.8
8479	18.648	0.	0.1	1164.5
8480	18.463	0.	0.1	1207.4
8481	18.278	0.	0.1	1250.5
8482	18.094	0.	0.1	1293.7
8483	17.909	0.	0.1	1337.1
8484	17.725	0.	0.1	1380.8
8485	17.54	0.	0.1	1424.6
8486	17.356	0.	0.1	1468.6
8487	17.171	0.	0.1	1512.8
8488	16.986	0.	0.1	1557.2
8489	16.802	0.	0.1	1601.8
8490	16.617	0.	0.1	1646.6
8491	16.433	0.	0.1	1691.5
8492	16.248	0.	0.1	1736.7
8493	16.064	0.	0.1	1782.1
8494	15.879	0.	0.1	1827.7
8495	15.694	0.	0.1	1873.5
8496	15.51	0.	0.1	1919.5
8497	15.325	0.	0.1	1965.7
8498	15.141	0.	0.1	2012.1
8499	14.956	0.	0.1	2058.7
8500	14.772	0.	0.1	2105.5
8501	14.587	0.	0.1	2152.5
8502	14.402	0.	0.1	2199.8
8503	14.218	0.	0.1	2247.2
8504	14.033	0.	0.1	2294.9
8505	13.849	0.	0.1	2342.8
8506	13.664	0.	0.1	2390.9
8507	13.48	0.	0.1	2439.2
8508	13.295	0.	0.1	2487.7
8509	13.11	0.	0.1	2536.5
8510	12.926	0.	0.1	2585.4
8511	12.741	0.	0.1	2634.6
8512	12.557	0.	0.1	2684.
8513	12.372	0.	0.1	2733.7
8514	12.188	0.	0.1	2783.6
8515	12.003	0.	0.1	2833.7
8516	11.819	0.	0.1	2884.
8517	11.634	0.	0.1	2934.5
8518	11.449	0.	0.1	2985.3
8519	11.265	0.	0.1	3036.3
8520	11.08	0.	0.1	3087.5
8521	10.896	0.	0.1	3138.9
8522	10.711	0.	0.1	3190.5
8523	10.527	0.	0.1	3242.3
8524	10.342	0.	0.1	3294.3
8525	10.157	0.	0.1	3346.4
8526	9.9728	0.	0.1	3398.6
8527	9.7883	0.	0.1	3450.9
8528	9.6037	0.	0.1	3503.1
8529	9.4191	0.	0.1	3555.3
8530	9.2346	0.	0.1	3607.4
8531	9.05	0.	0.1	3659.1
8532	8.8654	0.	0.1	3710.4
8533	8.6809	0.	0.1	3760.9
8534	8.4963	0.	0.1	3810.5
8535	8.3117	0.	0.1	3858.9
8536	8.1272	0.	0.1	3905.4
8537	7.9426	0.	0.1	3949.7
8538	7.758	0.	0.1	3990.9
8539	7.5735	0.	0.1	4028.3
8540	7.3889	0.	0.1	4060.6
8541	7.2043	0.	0.1	4086.5
8542	7.0198	0.	0.1	4104.2
8543	6.8352	0.	0.1	4111.6
8544	6.6506	0.	0.1	4106.
8545	6.466	0.	0.1	4084.1
8546	6.2815	0.	0.1	4042.1
8547	6.0969	0.	0.1	3975.3
8548	5.9123	0.	0.1	3878.2
8549	5.7278	0.	0.1	3744.6
8550	5.5432	0.	0.1	3567.7
8551	5.3586	0.	0.1	3340.5
8552	5.1741	0.	0.1	3056.1
8553	4.9895	0.	0.1	2709.1
8554	4.8049	0.	0.1	2295.9
8555	4.6204	0.	0.1	1815.8
8556	4.4358	0.	0.1	1271.1
8557	4.2512	0.	0.1	650.55
8558	4.0667	0.	0.1	68.286
8559	3.9	0.	0.1	82.681
8560	3.7227	-9.8433e-031	0.1	790.02
8561	3.5455	-9.3746e-031	0.1	1542.6
8562	3.3682	-8.9059e-031	0.1	2208.9
8563	3.1909	-8.4371e-031	0.1	2810.
8564	3.0136	-7.9684e-031	0.1	3345.8
8565	2.8364	-7.4997e-031	0.1	3817.7
8566	2.6591	-7.031e-031	0.1	4228.
8567	2.4818	-6.5622e-031	0.1	4581.2
8568	2.3045	-6.0935e-031	0.1	4882.2
8569	2.1273	-5.6248e-031	0.1	5136.3
8570	1.95	-5.156e-031	0.1	5348.2
8571	1.7727	-4.6873e-031	0.1	5521.4
8572	1.5955	-4.2186e-031	0.1	5658.2
8573	1.4182	-3.7498e-031	0.1	5758.6
8574	1.2409	-3.2811e-031	0.1	5820.3
8575	1.0636	-2.8124e-031	0.1	5836.4
8576	0.88636	-2.3437e-031	0.1	5793.8
8577	0.70909	-1.8749e-031	0.1	5666.8
8578	0.53182	-1.4062e-031	0.1	5403.5
8579	0.35455	-9.3746e-032	0.1	4904.2
8580	0.17727	-4.6873e-032	0.1	3807.
8581	0.	0.	0.1	2252.6
8582	3.937e-014	6.	0.1	2252.6
8583	0.17727	6.	0.1	3807.
8584	0.35455	6.	0.1	4904.1
8585	0.53182	6.	0.1	5403.5
8586	0.70909	6.	0.1	5666.7
8587	0.88636	6.	0.1	5793.8
8588	1.0636	6.	0.1	5836.4
8589	1.2409	6.	0.1	5820.3
8590	1.4182	6.	0.1	5758.6
8591	1.5955	6.	0.1	5658.2
8592	1.7727	6.	0.1	5521.4
8593	1.95	6.	0.1	5348.2
8594	2.1273	6.	0.1	5136.3
8595	2.3045	6.	0.1	4882.2
8596	2.4818	6.	0.1	4581.2
8597	2.6591	6.	0.1	4228.
8598	2.8364	6.	0.1	3817.7
8599	3.0136	6.	0.1	3345.8
8600	3.1909	6.	0.1	2810.
8601	3.3682	6.	0.1	2208.9
8602	3.5455	6.	0.1	1542.6
8603	3.7227	6.	0.1	790.02
8604	3.9	6.	0.1	82.681
8605	3.7227	6.	0.	790.02
8606	3.5455	6.	0.	1542.6
8607	3.3682	6.	0.	2208.9
8608	3.1909	6.	0.	2810.
8609	3.0136	6.	0.	3345.8
8610	2.8364	6.	0.	3817.7
8611	2.6591	6.	0.	4228.
8612	2.4818	6.	0.	4581.2
8613	2.3045	6.	0.	4882.2
8614	2.1273	6.	0.	5136.3
8615	1.95	6.	0.	5348.2
8616	1.7727	6.	0.	5521.4
8617	1.5955	6.	0.	5658.2
8618	1.4182	6.	0.	5758.6
8619	1.2409	6.	0.	5820.3
8620	1.0636	6.	0.	5836.4
8621	0.88636	6.	0.	5793.8
8622	0.70909	6.	0.	5666.7
8623	0.53182	6.	0.	5403.5
8624	0.35455	6.	0.	4904.2
8625	0.17727	6.	0.	3807.
8626	3.9	6.	0.	82.681
8627	3.937e-014	6.	0.	2252.6
8628	0.17727	-4.6873e-032	0.	3807.
8629	0.35455	-9.3746e-032	0.	4904.1
8630	0.53182	-1.4062e-031	0.	5403.5
8631	0.70909	-1.8749e-031	0.	5666.7
8632	0.88636	-2.3437e-031	0.	5793.8
8633	1.0636	-2.8124e-031	0.	5836.4
8634	1.2409	-3.2811e-031	0.	5820.3
8635	1.4182	-3.7498e-031	0.	5758.6
8636	1.5955	-4.2186e-031	0.	5658.2
8637	1.7727	-4.6873e-031	0.	5521.4
8638	1.95	-5.156e-031	0.	5348.2
8639	2.1273	-5.6248e-031	0.	5136.3
8640	2.3045	-6.0935e-031	0.	4882.2
8641	2.4818	-6.5622e-031	0.	4581.2
8642	2.6591	-7.031e-031	0.	4228.
8643	2.8364	-7.4997e-031	0.	3817.7
8644	3.0136	-7.9684e-031	0.	3345.8
8645	3.1909	-8.4371e-031	0.	2810.
8646	3.3682	-8.9059e-031	0.	2208.9
8647	3.5455	-9.3746e-031	0.	1542.6
8648	3.7227	-9.8433e-031	0.	790.02
8649	3.9	0.	0.	82.681
8650	0.	0.	0.	2252.6
8651	4.2512	0.	0.	650.55
8652	4.4358	0.	0.	1271.1
8653	4.6204	0.	0.	1815.8
8654	4.8049	0.	0.	2295.9
8655	4.9895	0.	0.	2709.1
8656	5.1741	0.	0.	3056.1
8657	5.3586	0.	0.	3340.5
8658	5.5432	0.	0.	3567.7
8659	5.7278	0.	0.	3744.6
8660	5.9123	0.	0.	3878.2
8661	6.0969	0.	0.	3975.3
8662	6.2815	0.	0.	4042.1
8663	6.466	0.	0.	4084.1
8664	6.6506	0.	0.	4106.
8665	6.8352	0.	0.	4111.6
8666	7.0198	0.	0.	4104.2
8667	7.2043	0.	0.	4086.5
8668	7.3889	0.	0.	4060.6
8669	7.5735	0.	0.	4028.3
8670	7.758	0.	0.	3990.9
8671	7.9426	0.	0.	3949.7
8672	8.1272	0.	0.	3905.4
8673	8.3117	0.	0.	3858.9
8674	8.4963	0.	0.	3810.5
8675	8.6809	0.	0.	3760.9
8676	8.8654	0.	0.	3710.4
8677	9.05	0.	0.	3659.1
8678	9.2346	0.	0.	3607.4
8679	9.4191	0.	0.	3555.3
8680	9.6037	0.	0.	3503.1
8681	9.7883	0.	0.	3450.9
8682	9.9728	0.	0.	3398.6
8683	10.157	0.	0.	3346.4
8684	10.342	0.	0.	3294.3
8685	10.527	0.	0.	3242.3
8686	10.711	0.	0.	3190.5
8687	10.896	0.	0.	3138.9
8688	11.08	0.	0.	3087.5
8689	11.265	0.	0.	3036.3
8690	11.449	0.	0.	2985.3
8691	11.634	0.	0.	2934.5
8692	11.819	0.	0.	2884.
8693	12.003	0.	0.	2833.7
8694	12.188	0.	0.	2783.6
8695	12.372	0.	0.	2733.7
8696	12.557	0.	0.	2684.
8697	12.741	0.	0.	2634.6
8698	12.926	0.	0.	2585.4
8699	13.11	0.	0.	2536.5
8700	13.295	0.	0.	2487.7
8701	13.48	0.	0.	2439.2
8702	13.664	0.	0.	2390.9
8703	13.849	0.	0.	2342.8
8704	14.033	0.	0.	2294.9
8705	14.218	0.	0.	2247.2
8706	14.402	0.	0.	2199.8
8707	14.587	0.	0.	2152.5
8708	14.772	0.	0.	2105.5
8709	14.956	0.	0.	2058.7
8710	15.141	0.	0.	2012.1
8711	15.325	0.	0.	1965.7
8712	15.51	0.	0.	1919.5
8713	15.694	0.	0.	1873.5
8714	15.879	0.	0.	1827.7
8715	16.064	0.	0.	1782.1
8716	16.248	0.	0.	1736.7
8717	16.433	0.	0.	1691.5
8718	16.617	0.	0.	1646.6
8719	16.802	0.	0.	1601.8
8720	16.986	0.	0.	1557.2
8721	17.171	0.	0.	1512.8
8722	17.356	0.	0.	1468.6
8723	17.54	0.	0.	1424.6
8724	17.725	0.	0.	1380.8
8725	17.909	0.	0.	1337.1
8726	18.094	0.	0.	1293.7
8727	18.278	0.	0.	1250.5
8728	18.463	0.	0.	1207.4
8729	18.648	0.	0.	1164.5
8730	18.832	0.	0.	1121.8
8731	19.017	0.	0.	1079.3
8732	19.201	0.	0.	1036.9
8733	19.386	0.	0.	994.74
8734	19.57	0.	0.	952.73
8735	19.755	0.	0.	910.89
8736	19.94	0.	0.	869.21
8737	20.124	0.	0.	827.7
8738	20.309	0.	0.	786.35
8739	20.493	0.	0.	745.15
8740	20.678	0.	0.	704.11
8741	20.862	0.	0.	663.23
8742	21.047	0.	0.	622.49
8743	21.231	0.	0.	581.91
8744	21.416	0.	0.	541.48
8745	21.601	0.	0.	501.2
8746	21.785	0.	0.	461.08
8747	21.97	0.	0.	421.13
8748	22.154	0.	0.	381.36
8749	22.339	0.	0.	341.78
8750	22.523	0.	0.	302.41
8751	22.708	0.	0.	263.3
8752	22.893	0.	0.	224.5
8753	23.077	0.	0.	186.07
8754	23.262	0.	0.	148.16
8755	23.446	0.	0.	110.94
8756	23.631	0.	0.	74.895
8757	23.815	0.	0.	40.13
8758	4.0667	0.	0.	68.286
8759	24.	0.	0.	9.47
8760	5.0862e-014	5.8182	0.	1443.2
8761	4.9273e-014	5.6364	0.	2434.4
8762	4.7683e-014	5.4545	0.	2943.2
8763	4.6094e-014	5.2727	0.	3262.
8764	4.4504e-014	5.0909	0.	3471.4
8765	4.2915e-014	4.9091	0.	3617.1
8766	4.1325e-014	4.7273	0.	3721.
8767	3.9736e-014	4.5455	0.	3795.8
8768	3.8147e-014	4.3636	0.	3849.6
8769	3.6557e-014	4.1818	0.	3887.9
8770	3.4968e-014	4.	0.	3914.8
8771	3.3378e-014	3.8182	0.	3933.2
8772	3.1789e-014	3.6364	0.	3945.4
8773	3.0199e-014	3.4545	0.	3953.1
8774	2.861e-014	3.2727	0.	3957.5
8775	2.702e-014	3.0909	0.	3959.6
8776	2.5431e-014	2.9091	0.	3959.6
8777	2.3842e-014	2.7273	0.	3957.5
8778	2.2252e-014	2.5455	0.	3953.1
8779	2.0663e-014	2.3636	0.	3945.4
8780	1.9073e-014	2.1818	0.	3933.2
8781	1.7484e-014	2.	0.	3914.8
8782	1.5894e-014	1.8182	0.	3887.9
8783	1.4305e-014	1.6364	0.	3849.6
8784	1.2716e-014	1.4545	0.	3795.8
8785	1.1126e-014	1.2727	0.	3721.
8786	9.5366e-015	1.0909	0.	3617.1
8787	7.9472e-015	0.90909	0.	3471.4
8788	6.3578e-015	0.72727	0.	3262.
8789	4.7683e-015	0.54545	0.	2943.2
8790	3.1789e-015	0.36364	0.	2434.4
8791	1.5894e-015	0.18182	0.	1443.2
8792	24.	0.18182	0.	39.705
8793	24.	0.36364	0.	67.055
8794	24.	0.54545	0.	88.118
8795	24.	0.72727	0.	105.67
8796	24.	0.90909	0.	120.63
8797	24.	1.0909	0.	133.54
8798	24.	1.2727	0.	144.73
8799	24.	1.4545	0.	154.41
8800	24.	1.6364	0.	162.74
8801	24.	1.8182	0.	169.84
8802	24.	2.	0.	175.8
8803	24.	2.1818	0.	180.68
8804	24.	2.3636	0.	184.53
8805	24.	2.5455	0.	187.39
8806	24.	2.7273	0.	189.28
8807	24.	2.9091	0.	190.22
8808	24.	3.0909	0.	190.22
8809	24.	3.2727	0.	189.28
8810	24.	3.4545	0.	187.39
8811	24.	3.6364	0.	184.53
8812	24.	3.8182	0.	180.68
8813	24.	4.	0.	175.8
8814	24.	4.1818	0.	169.84
8815	24.	4.3636	0.	162.74
8816	24.	4.5455	0.	154.41
8817	24.	4.7273	0.	144.73
8818	24.	4.9091	0.	133.54
8819	24.	5.0909	0.	120.63
8820	24.	5.2727	0.	105.67
8821	24.	5.4545	0.	88.118
8822	24.	5.6364	0.	67.055
8823	24.	5.8182	0.	39.705
8824	24.	6.	0.	9.4699
8825	23.815	6.	0.	40.13
8826	23.631	6.	0.	74.895
8827	23.446	6.	0.	110.94
8828	23.262	6.	0.	148.16
8829	23.077	6.	0.	186.07
8830	22.893	6.	0.	224.5
8831	22.708	6.	0.	263.3
8832	22.523	6.	0.	302.41
8833	22.339	6.	0.	341.78
8834	22.154	6.	0.	381.36
8835	21.97	6.	0.	421.13
8836	21.785	6.	0.	461.08
8837	21.601	6.	0.	501.2
8838	21.416	6.	0.	541.48
8839	21.231	6.	0.	581.91
8840	21.047	6.	0.	622.49
8841	20.862	6.	0.	663.23
8842	20.678	6.	0.	704.11
8843	20.493	6.	0.	745.15
8844	20.309	6.	0.	786.35
8845	20.124	6.	0.	827.7
8846	19.94	6.	0.	869.21
8847	19.755	6.	0.	910.89
8848	19.57	6.	0.	952.73
8849	19.386	6.	0.	994.74
8850	19.201	6.	0.	1036.9
8851	19.017	6.	0.	1079.3
8852	18.832	6.	0.	1121.8
8853	18.648	6.	0.	1164.5
8854	18.463	6.	0.	1207.4
8855	18.278	6.	0.	1250.5
8856	18.094	6.	0.	1293.7
8857	17.909	6.	0.	1337.1
8858	17.725	6.	0.	1380.8
8859	17.54	6.	0.	1424.6
8860	17.356	6.	0.	1468.6
8861	17.171	6.	0.	1512.8
8862	16.986	6.	0.	1557.2
8863	16.802	6.	0.	1601.8
8864	16.617	6.	0.	1646.6
8865	16.433	6.	0.	1691.5
8866	16.248	6.	0.	1736.7
8867	16.064	6.	0.	1782.1
8868	15.879	6.	0.	1827.7
8869	15.694	6.	0.	1873.5
8870	15.51	6.	0.	1919.5
8871	15.325	6.	0.	1965.7
8872	15.141	6.	0.	2012.1
8873	14.956	6.	0.	2058.7
8874	14.772	6.	0.	2105.5
8875	14.587	6.	0.	2152.5
8876	14.402	6.	0.	2199.8
8877	14.218	6.	0.	2247.2
8878	14.033	6.	0.	2294.9
8879	13.849	6.	0.	2342.8
8880	13.664	6.	0.	2390.9
8881	13.48	6.	0.	2439.2
8882	13.295	6.	0.	2487.7
8883	13.11	6.	0.	2536.5
8884	12.926	6.	0.	2585.4
8885	12.741	6.	0.	2634.6
8886	12.557	6.	0.	2684.
8887	12.372	6.	0.	2733.7
8888	12.188	6.	0.	2783.6
8889	12.003	6.	0.	2833.7
8890	11.819	6.	0.	2884.
8891	11.634	6.	0.	2934.5
8892	11.449	6.	0.	2985.3
8893	11.265	6.	0.	3036.3
8894	11.08	6.	0.	3087.5
8895	10.896	6.	0.	3138.9
8896	10.711	6.	0.	3190.5
8897	10.527	6.	0.	3242.3
8898	10.342	6.	0.	3294.3
8899	10.157	6.	0.	3346.4
8900	9.9728	6.	0.	3398.6
8901	9.7883	6.	0.	3450.9
8902	9.6037	6.	0.	3503.1
8903	9.4191	6.	0.	3555.3
8904	9.2346	6.	0.	3607.4
8905	9.05	6.	0.	3659.1
8906	8.8654	6.	0.	3710.4
8907	8.6809	6.	0.	3760.9
8908	8.4963	6.	0.	3810.5
8909	8.3117	6.	0.	3858.9
8910	8.1272	6.	0.	3905.4
8911	7.9426	6.	0.	3949.7
8912	7.758	6.	0.	3990.9
8913	7.5735	6.	0.	4028.3
8914	7.3889	6.	0.	4060.6
8915	7.2043	6.	0.	4086.5
8916	7.0198	6.	0.	4104.2
8917	6.8352	6.	0.	4111.6
8918	6.6506	6.	0.	4106.
8919	6.466	6.	0.	4084.1
8920	6.2815	6.	0.	4042.1
8921	6.0969	6.	0.	3975.3
8922	5.9123	6.	0.	3878.2
8923	5.7278	6.	0.	3744.6
8924	5.5432	6.	0.	3567.7
8925	5.3586	6.	0.	3340.5
8926	5.1741	6.	0.	3056.1
8927	4.9895	6.	0.	2709.1
8928	4.8049	6.	0.	2295.9
8929	4.6204	6.	0.	1815.8
8930	4.4358	6.	0.	1271.1
8931	4.2512	6.	0.	650.55
8932	4.0667	6.	0.	68.286
8933	3.9	1.8182	0.	11333
8934	3.9	1.6364	0.	6670.1
8935	3.9	1.4545	0.	5354.1
8936	3.9	1.2727	0.	4279.3
8937	3.9	1.0909	0.	3495.6
8938	3.9	0.90909	0.	2851.7
8939	3.9	0.72727	0.	2288.2
8940	3.9	0.54545	0.	1765.6
8941	3.9	0.36364	0.	1251.6
8942	3.9	0.18182	0.	687.57
8943	3.9	2.	0.	28836
8944	4.0667	0.18182	0.	535.92
8945	4.0667	0.36364	0.	982.83
8946	4.0667	0.54545	0.	1407.2
8947	4.0667	0.72727	0.	1857.5
8948	4.0667	0.90909	0.	2362.9
8949	4.0667	1.0909	0.	2960.7
8950	4.0667	1.2727	0.	3709.6
8951	4.0667	1.4545	0.	4751.5
8952	4.0667	1.6364	0.	6066.8
8953	4.0667	1.8182	0.	10635
8954	4.0667	2.	0.	27854
8955	3.9	4.1818	0.	11333
8956	3.9	4.3636	0.	6670.1
8957	3.9	4.5455	0.	5354.1
8958	3.9	4.7273	0.	4279.3
8959	3.9	4.9091	0.	3495.6
8960	3.9	5.0909	0.	2851.7
8961	3.9	5.2727	0.	2288.2
8962	3.9	5.4545	0.	1765.6
8963	3.9	5.6364	0.	1251.6
8964	3.9	5.8182	0.	687.57
8965	3.9	4.	0.	28836
8966	4.0667	5.8182	0.	535.92
8967	4.0667	5.6364	0.	982.83
8968	4.0667	5.4545	0.	1407.2
8969	4.0667	5.2727	0.	1857.5
8970	4.0667	5.0909	0.	2362.9
8971	4.0667	4.9091	0.	2960.7
8972	4.0667	4.7273	0.	3709.6
8973	4.0667	4.5455	0.	4751.5
8974	4.0667	4.3636	0.	6066.8
8975	4.0667	4.1818	0.	10635
8976	4.0667	4.	0.	27854
8977	3.9	2.2727	0.	17354
8978	3.9833	2.1818	0.	19022
8979	3.8114	2.1818	0.	16801
8980	3.9	2.1818	5.e-002	1054.9
8981	3.9	2.0909	0.	23553
8982	3.9	2.4545	0.	14375
8983	3.9833	2.3636	0.	15181
8984	3.8114	2.3636	0.	14369
8985	3.9	2.3636	5.e-002	189.7
8986	3.9	2.6364	0.	12955
8987	3.9833	2.5455	0.	13387
8988	3.8114	2.5455	0.	12931
8989	3.9	2.5455	5.e-002	83.839
8990	3.9	2.8182	0.	12264
8991	3.9833	2.7273	0.	12443
8992	3.8114	2.7273	0.	12152
8993	3.9	2.7273	5.e-002	40.968
8994	3.9	3.	0.	12057
8995	3.9833	2.9091	0.	12037
8996	3.8114	2.9091	0.	11804
8997	3.9	2.9091	5.e-002	18.245
8998	3.9	3.1818	0.	12264
8999	3.9833	3.0909	0.	12037
9000	3.8114	3.0909	0.	11804
9001	3.9	3.0909	5.e-002	18.245
9002	3.9	3.3636	0.	12955
9003	3.9833	3.2727	0.	12443
9004	3.8114	3.2727	0.	12152
9005	3.9	3.2727	5.e-002	40.968
9006	3.9	3.5455	0.	14375
9007	3.9833	3.4545	0.	13387
9008	3.8114	3.4545	0.	12931
9009	3.9	3.4545	5.e-002	83.839
9010	3.9	3.7273	0.	17354
9011	3.9833	3.6364	0.	15181
9012	3.8114	3.6364	0.	14369
9013	3.9	3.6364	5.e-002	189.7
9014	3.9833	3.8182	0.	19022
9015	3.8114	3.8182	0.	16801
9016	3.9	3.8182	5.e-002	1054.9
9017	3.9	3.9091	0.	23553
9018	4.0667	2.2727	0.	17191
9019	4.159	2.1818	0.	16397
9020	4.0667	2.1818	5.e-002	1089.9
9021	4.0667	2.0909	0.	22959
9022	4.0667	2.4545	0.	14294
9023	4.159	2.3636	0.	14147
9024	4.0667	2.3636	5.e-002	214.35
9025	4.0667	2.6364	0.	12902
9026	4.159	2.5455	0.	12788
9027	4.0667	2.5455	5.e-002	110.65
9028	4.0667	2.8182	0.	12221
9029	4.159	2.7273	0.	12043
9030	4.0667	2.7273	5.e-002	64.589
9031	4.0667	3.	0.	12018
9032	4.159	2.9091	0.	11709
9033	4.0667	2.9091	5.e-002	46.711
9034	4.0667	3.1818	0.	12221
9035	4.159	3.0909	0.	11709
9036	4.0667	3.0909	5.e-002	46.711
9037	4.0667	3.3636	0.	12902
9038	4.159	3.2727	0.	12043
9039	4.0667	3.2727	5.e-002	64.589
9040	4.0667	3.5455	0.	14294
9041	4.159	3.4545	0.	12788
9042	4.0667	3.4545	5.e-002	110.65
9043	4.0667	3.7273	0.	17191
9044	4.159	3.6364	0.	14147
9045	4.0667	3.6364	5.e-002	214.35
9046	4.159	3.8182	0.	16397
9047	4.0667	3.8182	5.e-002	1089.9
9048	4.0667	3.9091	0.	22959
9049	3.7227	5.7273	0.	1497.9
9050	3.6341	5.8182	0.	1487.
9051	3.7227	5.8182	5.e-002	161.34
9052	3.7227	5.9091	0.	942.27
9053	3.8114	5.8182	0.	862.15
9054	3.7227	5.5455	0.	2130.7
9055	3.6341	5.6364	0.	1890.8
9056	3.7227	5.6364	5.e-002	143.58
9057	3.8114	5.6364	0.	1415.
9058	3.7227	5.3636	0.	2848.7
9059	3.6341	5.4545	0.	2472.9
9060	3.7227	5.4545	5.e-002	150.54
9061	3.8114	5.4545	0.	1996.8
9062	3.7227	5.1818	0.	3637.7
9063	3.6341	5.2727	0.	3142.7
9064	3.7227	5.2727	5.e-002	165.73
9065	3.8114	5.2727	0.	2607.6
9066	3.7227	5.	0.	4529.7
9067	3.6341	5.0909	0.	3897.4
9068	3.7227	5.0909	5.e-002	188.66
9069	3.8114	5.0909	0.	3273.7
9070	3.7227	4.8182	0.	5584.2
9071	3.6341	4.9091	0.	4763.
9072	3.7227	4.9091	5.e-002	221.16
9073	3.8114	4.9091	0.	4034.8
9074	3.7227	4.6364	0.	6900.9
9075	3.6341	4.7273	0.	5791.9
9076	3.7227	4.7273	5.e-002	271.29
9077	3.8114	4.7273	0.	4954.6
9078	3.7227	4.4545	0.	8709.
9079	3.6341	4.5455	0.	7059.2
9080	3.7227	4.5455	5.e-002	336.73
9081	3.8114	4.5455	0.	6161.9
9082	3.7227	4.2727	0.	11289
9083	3.6341	4.3636	0.	8720.4
9084	3.7227	4.3636	5.e-002	492.28
9085	3.8114	4.3636	0.	7772.7
9086	3.7227	4.0909	0.	13984
9087	3.6341	4.1818	0.	11004
9088	3.7227	4.1818	5.e-002	954.62
9089	3.8114	4.1818	0.	10996
9090	3.7227	3.9091	0.	14779
9091	3.6341	4.	0.	12814
9092	3.7227	4.	5.e-002	1662.8
9093	3.8114	4.	0.	21799
9094	3.7227	3.7273	0.	13996
9095	3.6341	3.8182	0.	12789
9096	3.7227	3.8182	5.e-002	783.65
9097	3.7227	3.5455	0.	12975
9098	3.6341	3.6364	0.	12329
9099	3.7227	3.6364	5.e-002	317.74
9100	3.7227	3.3636	0.	12142
9101	3.6341	3.4545	0.	11723
9102	3.7227	3.4545	5.e-002	169.62
9103	3.7227	3.1818	0.	11691
9104	3.6341	3.2727	0.	11312
9105	3.7227	3.2727	5.e-002	95.956
9106	3.7227	3.	0.	11547
9107	3.6341	3.0909	0.	11108
9108	3.7227	3.0909	5.e-002	70.315
9109	3.7227	2.8182	0.	11691
9110	3.6341	2.9091	0.	11108
9111	3.7227	2.9091	5.e-002	70.315
9112	3.7227	2.6364	0.	12142
9113	3.6341	2.7273	0.	11312
9114	3.7227	2.7273	5.e-002	95.956
9115	3.7227	2.4545	0.	12975
9116	3.6341	2.5455	0.	11723
9117	3.7227	2.5455	5.e-002	169.62
9118	3.7227	2.2727	0.	13996
9119	3.6341	2.3636	0.	12329
9120	3.7227	2.3636	5.e-002	317.74
9121	3.7227	2.0909	0.	14779
9122	3.6341	2.1818	0.	12789
9123	3.7227	2.1818	5.e-002	783.65
9124	3.7227	1.9091	0.	13984
9125	3.6341	2.	0.	12814
9126	3.7227	2.	5.e-002	1662.8
9127	3.8114	2.	0.	21799
9128	3.7227	1.7273	0.	11289
9129	3.6341	1.8182	0.	11004
9130	3.7227	1.8182	5.e-002	954.62
9131	3.8114	1.8182	0.	10996
9132	3.7227	1.5455	0.	8709.
9133	3.6341	1.6364	0.	8720.4
9134	3.7227	1.6364	5.e-002	492.28
9135	3.8114	1.6364	0.	7772.7
9136	3.7227	1.3636	0.	6900.9
9137	3.6341	1.4545	0.	7059.2
9138	3.7227	1.4545	5.e-002	336.73
9139	3.8114	1.4545	0.	6161.9
9140	3.7227	1.1818	0.	5584.2
9141	3.6341	1.2727	0.	5791.9
9142	3.7227	1.2727	5.e-002	271.29
9143	3.8114	1.2727	0.	4954.6
9144	3.7227	1.	0.	4529.7
9145	3.6341	1.0909	0.	4763.
9146	3.7227	1.0909	5.e-002	221.16
9147	3.8114	1.0909	0.	4034.8
9148	3.7227	0.81818	0.	3637.7
9149	3.6341	0.90909	0.	3897.4
9150	3.7227	0.90909	5.e-002	188.66
9151	3.8114	0.90909	0.	3273.7
9152	3.7227	0.63636	0.	2848.7
9153	3.6341	0.72727	0.	3142.7
9154	3.7227	0.72727	5.e-002	165.73
9155	3.8114	0.72727	0.	2607.6
9156	3.7227	0.45455	0.	2130.7
9157	3.6341	0.54545	0.	2472.9
9158	3.7227	0.54545	5.e-002	150.54
9159	3.8114	0.54545	0.	1996.8
9160	3.7227	0.27273	0.	1497.9
9161	3.6341	0.36364	0.	1890.8
9162	3.7227	0.36364	5.e-002	143.58
9163	3.8114	0.36364	0.	1415.
9164	3.6341	0.18182	0.	1487.
9165	3.7227	0.18182	5.e-002	161.34
9166	3.7227	9.0909e-002	0.	942.27
9167	3.8114	0.18182	0.	862.15
9168	3.5455	5.7273	0.	1933.8
9169	3.4568	5.8182	0.	2115.5
9170	3.5455	5.8182	5.e-002	143.72
9171	3.5455	5.9091	0.	1628.7
9172	3.5455	5.5455	0.	2314.
9173	3.4568	5.6364	0.	2325.4
9174	3.5455	5.6364	5.e-002	121.05
9175	3.5455	5.3636	0.	2850.5
9176	3.4568	5.4545	0.	2726.1
9177	3.5455	5.4545	5.e-002	120.12
9178	3.5455	5.1818	0.	3487.6
9179	3.4568	5.2727	0.	3245.8
9180	3.5455	5.2727	5.e-002	124.76
9181	3.5455	5.	0.	4222.6
9182	3.4568	5.0909	0.	3861.5
9183	3.5455	5.0909	5.e-002	134.37
9184	3.5455	4.8182	0.	5078.5
9185	3.4568	4.9091	0.	4574.
9186	3.5455	4.9091	5.e-002	149.79
9187	3.5455	4.6364	0.	6085.9
9188	3.4568	4.7273	0.	5398.8
9189	3.5455	4.7273	5.e-002	169.67
9190	3.5455	4.4545	0.	7271.4
9191	3.4568	4.5455	0.	6349.
9192	3.5455	4.5455	5.e-002	209.3
9193	3.5455	4.2727	0.	8610.2
9194	3.4568	4.3636	0.	7421.9
9195	3.5455	4.3636	5.e-002	209.07
9196	3.5455	4.0909	0.	9753.1
9197	3.4568	4.1818	0.	8532.9
9198	3.5455	4.1818	5.e-002	299.24
9199	3.5455	3.9091	0.	10607
9200	3.4568	4.	0.	9371.2
9201	3.5455	4.	5.e-002	264.15
9202	3.5455	3.7273	0.	11048
9203	3.4568	3.8182	0.	10028
9204	3.5455	3.8182	5.e-002	372.55
9205	3.5455	3.5455	0.	11051
9206	3.4568	3.6364	0.	10296
9207	3.5455	3.6364	5.e-002	251.38
9208	3.5455	3.3636	0.	10880
9209	3.4568	3.4545	0.	10305
9210	3.5455	3.4545	5.e-002	181.18
9211	3.5455	3.1818	0.	10718
9212	3.4568	3.2727	0.	10221
9213	3.5455	3.2727	5.e-002	125.15
9214	3.5455	3.	0.	10658
9215	3.4568	3.0909	0.	10160
9216	3.5455	3.0909	5.e-002	101.48
9217	3.5455	2.8182	0.	10718
9218	3.4568	2.9091	0.	10160
9219	3.5455	2.9091	5.e-002	101.48
9220	3.5455	2.6364	0.	10880
9221	3.4568	2.7273	0.	10221
9222	3.5455	2.7273	5.e-002	125.15
9223	3.5455	2.4545	0.	11051
9224	3.4568	2.5455	0.	10305
9225	3.5455	2.5455	5.e-002	181.18
9226	3.5455	2.2727	0.	11048
9227	3.4568	2.3636	0.	10296
9228	3.5455	2.3636	5.e-002	251.38
9229	3.5455	2.0909	0.	10607
9230	3.4568	2.1818	0.	10028
9231	3.5455	2.1818	5.e-002	372.55
9232	3.5455	1.9091	0.	9753.1
9233	3.4568	2.	0.	9371.2
9234	3.5455	2.	5.e-002	264.15
9235	3.5455	1.7273	0.	8610.2
9236	3.4568	1.8182	0.	8532.9
9237	3.5455	1.8182	5.e-002	299.24
9238	3.5455	1.5455	0.	7271.4
9239	3.4568	1.6364	0.	7421.9
9240	3.5455	1.6364	5.e-002	209.07
9241	3.5455	1.3636	0.	6085.9
9242	3.4568	1.4545	0.	6349.
9243	3.5455	1.4545	5.e-002	209.3
9244	3.5455	1.1818	0.	5078.5
9245	3.4568	1.2727	0.	5398.8
9246	3.5455	1.2727	5.e-002	169.67
9247	3.5455	1.	0.	4222.6
9248	3.4568	1.0909	0.	4574.
9249	3.5455	1.0909	5.e-002	149.79
9250	3.5455	0.81818	0.	3487.6
9251	3.4568	0.90909	0.	3861.5
9252	3.5455	0.90909	5.e-002	134.37
9253	3.5455	0.63636	0.	2850.5
9254	3.4568	0.72727	0.	3245.8
9255	3.5455	0.72727	5.e-002	124.76
9256	3.5455	0.45455	0.	2314.
9257	3.4568	0.54545	0.	2726.1
9258	3.5455	0.54545	5.e-002	120.12
9259	3.5455	0.27273	0.	1933.8
9260	3.4568	0.36364	0.	2325.4
9261	3.5455	0.36364	5.e-002	121.05
9262	3.4568	0.18182	0.	2115.5
9263	3.5455	0.18182	5.e-002	143.72
9264	3.5455	9.0909e-002	0.	1628.7
9265	3.3682	5.7273	0.	2516.5
9266	3.2795	5.8182	0.	2725.5
9267	3.3682	5.8182	5.e-002	136.29
9268	3.3682	5.9091	0.	2287.1
9269	3.3682	5.5455	0.	2769.2
9270	3.2795	5.6364	0.	2863.2
9271	3.3682	5.6364	5.e-002	112.78
9272	3.3682	5.3636	0.	3169.5
9273	3.2795	5.4545	0.	3152.
9274	3.3682	5.4545	5.e-002	111.86
9275	3.3682	5.1818	0.	3677.5
9276	3.2795	5.2727	0.	3551.4
9277	3.3682	5.2727	5.e-002	114.5
9278	3.3682	5.	0.	4278.2
9279	3.2795	5.0909	0.	4042.8
9280	3.3682	5.0909	5.e-002	119.5
9281	3.3682	4.8182	0.	4966.9
9282	3.2795	4.9091	0.	4615.5
9283	3.3682	4.9091	5.e-002	126.38
9284	3.3682	4.6364	0.	5740.6
9285	3.2795	4.7273	0.	5261.6
9286	3.3682	4.7273	5.e-002	133.61
9287	3.3682	4.4545	0.	6568.
9288	3.2795	4.5455	0.	5969.
9289	3.3682	4.5455	5.e-002	134.42
9290	3.3682	4.2727	0.	7384.2
9291	3.2795	4.3636	0.	6693.7
9292	3.3682	4.3636	5.e-002	134.9
9293	3.3682	4.0909	0.	8132.
9294	3.2795	4.1818	0.	7378.7
9295	3.3682	4.1818	5.e-002	135.
9296	3.3682	3.9091	0.	8761.6
9297	3.2795	4.	0.	7987.1
9298	3.3682	4.	5.e-002	165.9
9299	3.3682	3.7273	0.	9238.4
9300	3.2795	3.8182	0.	8491.9
9301	3.3682	3.8182	5.e-002	178.78
9302	3.3682	3.5455	0.	9519.6
9303	3.2795	3.6364	0.	8866.5
9304	3.3682	3.6364	5.e-002	178.33
9305	3.3682	3.3636	0.	9625.4
9306	3.2795	3.4545	0.	9069.3
9307	3.3682	3.4545	5.e-002	147.55
9308	3.3682	3.1818	0.	9647.1
9309	3.2795	3.2727	0.	9155.2
9310	3.3682	3.2727	5.e-002	123.19
9311	3.3682	3.	0.	9647.3
9312	3.2795	3.0909	0.	9182.1
9313	3.3682	3.0909	5.e-002	109.18
9314	3.3682	2.8182	0.	9647.1
9315	3.2795	2.9091	0.	9182.1
9316	3.3682	2.9091	5.e-002	109.18
9317	3.3682	2.6364	0.	9625.4
9318	3.2795	2.7273	0.	9155.2
9319	3.3682	2.7273	5.e-002	123.19
9320	3.3682	2.4545	0.	9519.6
9321	3.2795	2.5455	0.	9069.3
9322	3.3682	2.5455	5.e-002	147.55
9323	3.3682	2.2727	0.	9238.4
9324	3.2795	2.3636	0.	8866.5
9325	3.3682	2.3636	5.e-002	178.33
9326	3.3682	2.0909	0.	8761.6
9327	3.2795	2.1818	0.	8491.9
9328	3.3682	2.1818	5.e-002	178.78
9329	3.3682	1.9091	0.	8132.
9330	3.2795	2.	0.	7987.1
9331	3.3682	2.	5.e-002	165.9
9332	3.3682	1.7273	0.	7384.2
9333	3.2795	1.8182	0.	7378.7
9334	3.3682	1.8182	5.e-002	135.
9335	3.3682	1.5455	0.	6568.
9336	3.2795	1.6364	0.	6693.7
9337	3.3682	1.6364	5.e-002	134.9
9338	3.3682	1.3636	0.	5740.6
9339	3.2795	1.4545	0.	5969.
9340	3.3682	1.4545	5.e-002	134.42
9341	3.3682	1.1818	0.	4966.9
9342	3.2795	1.2727	0.	5261.6
9343	3.3682	1.2727	5.e-002	133.61
9344	3.3682	1.	0.	4278.2
9345	3.2795	1.0909	0.	4615.5
9346	3.3682	1.0909	5.e-002	126.38
9347	3.3682	0.81818	0.	3677.5
9348	3.2795	0.90909	0.	4042.8
9349	3.3682	0.90909	5.e-002	119.5
9350	3.3682	0.63636	0.	3169.5
9351	3.2795	0.72727	0.	3551.4
9352	3.3682	0.72727	5.e-002	114.5
9353	3.3682	0.45455	0.	2769.2
9354	3.2795	0.54545	0.	3152.
9355	3.3682	0.54545	5.e-002	111.86
9356	3.3682	0.27273	0.	2516.5
9357	3.2795	0.36364	0.	2863.2
9358	3.3682	0.36364	5.e-002	112.78
9359	3.2795	0.18182	0.	2725.5
9360	3.3682	0.18182	5.e-002	136.29
9361	3.3682	9.0909e-002	0.	2287.1
9362	3.1909	5.7273	0.	3075.4
9363	3.1023	5.8182	0.	3274.9
9364	3.1909	5.8182	5.e-002	127.55
9365	3.1909	5.9091	0.	2884.
9366	3.1909	5.5455	0.	3258.7
9367	3.1023	5.6364	0.	3376.5
9368	3.1909	5.6364	5.e-002	102.44
9369	3.1909	5.3636	0.	3559.2
9370	3.1023	5.4545	0.	3592.2
9371	3.1909	5.4545	5.e-002	101.3
9372	3.1909	5.1818	0.	3952.
9373	3.1023	5.2727	0.	3895.9
9374	3.1909	5.2727	5.e-002	102.24
9375	3.1909	5.	0.	4422.3
9376	3.1023	5.0909	0.	4275.5
9377	3.1909	5.0909	5.e-002	103.68
9378	3.1909	4.8182	0.	4956.1
9379	3.1023	4.9091	0.	4718.3
9380	3.1909	4.9091	5.e-002	104.7
9381	3.1909	4.6364	0.	5534.5
9382	3.1023	4.7273	0.	5209.
9383	3.1909	4.7273	5.e-002	103.69
9384	3.1909	4.4545	0.	6130.2
9385	3.1023	4.5455	0.	5726.7
9386	3.1909	4.5455	5.e-002	100.04
9387	3.1909	4.2727	0.	6705.9
9388	3.1023	4.3636	0.	6243.4
9389	3.1909	4.3636	5.e-002	95.284
9390	3.1909	4.0909	0.	7236.8
9391	3.1023	4.1818	0.	6728.7
9392	3.1909	4.1818	5.e-002	96.35
9393	3.1909	3.9091	0.	7711.5
9394	3.1023	4.	0.	7172.7
9395	3.1909	4.	5.e-002	106.47
9396	3.1909	3.7273	0.	8107.6
9397	3.1023	3.8182	0.	7566.2
9398	3.1909	3.8182	5.e-002	115.93
9399	3.1909	3.5455	0.	8400.1
9400	3.1023	3.6364	0.	7886.5
9401	3.1909	3.6364	5.e-002	119.2
9402	3.1909	3.3636	0.	8583.4
9403	3.1023	3.4545	0.	8114.7
9404	3.1909	3.4545	5.e-002	114.44
9405	3.1909	3.1818	0.	8675.6
9406	3.1023	3.2727	0.	8250.2
9407	3.1909	3.2727	5.e-002	106.31
9408	3.1909	3.	0.	8702.8
9409	3.1023	3.0909	0.	8311.
9410	3.1909	3.0909	5.e-002	100.78
9411	3.1909	2.8182	0.	8675.6
9412	3.1023	2.9091	0.	8311.
9413	3.1909	2.9091	5.e-002	100.78
9414	3.1909	2.6364	0.	8583.4
9415	3.1023	2.7273	0.	8250.2
9416	3.1909	2.7273	5.e-002	106.31
9417	3.1909	2.4545	0.	8400.1
9418	3.1023	2.5455	0.	8114.7
9419	3.1909	2.5455	5.e-002	114.44
9420	3.1909	2.2727	0.	8107.6
9421	3.1023	2.3636	0.	7886.5
9422	3.1909	2.3636	5.e-002	119.2
9423	3.1909	2.0909	0.	7711.5
9424	3.1023	2.1818	0.	7566.2
9425	3.1909	2.1818	5.e-002	115.93
9426	3.1909	1.9091	0.	7236.8
9427	3.1023	2.	0.	7172.7
9428	3.1909	2.	5.e-002	106.47
9429	3.1909	1.7273	0.	6705.9
9430	3.1023	1.8182	0.	6728.7
9431	3.1909	1.8182	5.e-002	96.35
9432	3.1909	1.5455	0.	6130.2
9433	3.1023	1.6364	0.	6243.4
9434	3.1909	1.6364	5.e-002	95.284
9435	3.1909	1.3636	0.	5534.5
9436	3.1023	1.4545	0.	5726.7
9437	3.1909	1.4545	5.e-002	100.04
9438	3.1909	1.1818	0.	4956.
9439	3.1023	1.2727	0.	5209.
9440	3.1909	1.2727	5.e-002	103.69
9441	3.1909	1.	0.	4422.3
9442	3.1023	1.0909	0.	4718.3
9443	3.1909	1.0909	5.e-002	104.7
9444	3.1909	0.81818	0.	3952.
9445	3.1023	0.90909	0.	4275.5
9446	3.1909	0.90909	5.e-002	103.68
9447	3.1909	0.63636	0.	3559.2
9448	3.1023	0.72727	0.	3895.9
9449	3.1909	0.72727	5.e-002	102.24
9450	3.1909	0.45455	0.	3258.7
9451	3.1023	0.54545	0.	3592.2
9452	3.1909	0.54545	5.e-002	101.3
9453	3.1909	0.27273	0.	3075.4
9454	3.1023	0.36364	0.	3376.5
9455	3.1909	0.36364	5.e-002	102.44
9456	3.1023	0.18182	0.	3274.9
9457	3.1909	0.18182	5.e-002	127.55
9458	3.1909	9.0909e-002	0.	2884.
9459	3.0136	5.7273	0.	3577.8
9460	2.925	5.8182	0.	3758.8
9461	3.0136	5.8182	5.e-002	117.74
9462	3.0136	5.9091	0.	3414.3
9463	3.0136	5.5455	0.	3715.8
9464	2.925	5.6364	0.	3835.
9465	3.0136	5.6364	5.e-002	91.45
9466	3.0136	5.3636	0.	3942.2
9467	2.925	5.4545	0.	3997.4
9468	3.0136	5.4545	5.e-002	89.91
9469	3.0136	5.1818	0.	4239.7
9470	2.925	5.2727	0.	4225.3
9471	3.0136	5.2727	5.e-002	89.683
9472	3.0136	5.	0.	4596.6
9473	2.925	5.0909	0.	4510.9
9474	3.0136	5.0909	5.e-002	89.002
9475	3.0136	4.8182	0.	4998.3
9476	2.925	4.9091	0.	4843.
9477	3.0136	4.9091	5.e-002	87.187
9478	3.0136	4.6364	0.	5426.5
9479	2.925	4.7273	0.	5207.
9480	3.0136	4.7273	5.e-002	83.722
9481	3.0136	4.4545	0.	5859.4
9482	2.925	4.5455	0.	5585.3
9483	3.0136	4.5455	5.e-002	78.751
9484	3.0136	4.2727	0.	6277.5
9485	2.925	4.3636	0.	5959.1
9486	3.0136	4.3636	5.e-002	74.685
9487	3.0136	4.0909	0.	6669.
9488	2.925	4.1818	0.	6314.8
9489	3.0136	4.1818	5.e-002	74.688
9490	3.0136	3.9091	0.	7027.
9491	2.925	4.	0.	6645.5
9492	3.0136	4.	5.e-002	77.882
9493	3.0136	3.7273	0.	7340.9
9494	2.925	3.8182	0.	6945.7
9495	3.0136	3.8182	5.e-002	81.861
9496	3.0136	3.5455	0.	7593.4
9497	2.925	3.6364	0.	7203.
9498	3.0136	3.6364	5.e-002	85.4
9499	3.0136	3.3636	0.	7771.8
9500	2.925	3.4545	0.	7401.5
9501	3.0136	3.4545	5.e-002	86.84
9502	3.0136	3.1818	0.	7875.1
9503	2.925	3.2727	0.	7532.8
9504	3.0136	3.2727	5.e-002	86.069
9505	3.0136	3.	0.	7908.6
9506	2.925	3.0909	0.	7597.1
9507	3.0136	3.0909	5.e-002	84.977
9508	3.0136	2.8182	0.	7875.1
9509	2.925	2.9091	0.	7597.1
9510	3.0136	2.9091	5.e-002	84.977
9511	3.0136	2.6364	0.	7771.8
9512	2.925	2.7273	0.	7532.8
9513	3.0136	2.7273	5.e-002	86.069
9514	3.0136	2.4545	0.	7593.4
9515	2.925	2.5455	0.	7401.5
9516	3.0136	2.5455	5.e-002	86.84
9517	3.0136	2.2727	0.	7340.9
9518	2.925	2.3636	0.	7203.
9519	3.0136	2.3636	5.e-002	85.4
9520	3.0136	2.0909	0.	7027.
9521	2.925	2.1818	0.	6945.7
9522	3.0136	2.1818	5.e-002	81.861
9523	3.0136	1.9091	0.	6669.
9524	2.925	2.	0.	6645.5
9525	3.0136	2.	5.e-002	77.882
9526	3.0136	1.7273	0.	6277.5
9527	2.925	1.8182	0.	6314.8
9528	3.0136	1.8182	5.e-002	74.688
9529	3.0136	1.5455	0.	5859.4
9530	2.925	1.6364	0.	5959.1
9531	3.0136	1.6364	5.e-002	74.685
9532	3.0136	1.3636	0.	5426.5
9533	2.925	1.4545	0.	5585.3
9534	3.0136	1.4545	5.e-002	78.751
9535	3.0136	1.1818	0.	4998.3
9536	2.925	1.2727	0.	5207.
9537	3.0136	1.2727	5.e-002	83.722
9538	3.0136	1.	0.	4596.6
9539	2.925	1.0909	0.	4843.
9540	3.0136	1.0909	5.e-002	87.187
9541	3.0136	0.81818	0.	4239.7
9542	2.925	0.90909	0.	4510.9
9543	3.0136	0.90909	5.e-002	89.002
9544	3.0136	0.63636	0.	3942.2
9545	2.925	0.72727	0.	4225.3
9546	3.0136	0.72727	5.e-002	89.683
9547	3.0136	0.45455	0.	3715.8
9548	2.925	0.54545	0.	3997.4
9549	3.0136	0.54545	5.e-002	89.91
9550	3.0136	0.27273	0.	3577.8
9551	2.925	0.36364	0.	3835.
9552	3.0136	0.36364	5.e-002	91.45
9553	2.925	0.18182	0.	3758.8
9554	3.0136	0.18182	5.e-002	117.74
9555	3.0136	9.0909e-002	0.	3414.3
9556	2.8364	5.7273	0.	4017.3
9557	2.7477	5.8182	0.	4179.3
9558	2.8364	5.8182	5.e-002	107.62
9559	2.8364	5.9091	0.	3879.1
9560	2.8364	5.5455	0.	4119.6
9561	2.7477	5.6364	0.	4232.6
9562	2.8364	5.6364	5.e-002	80.588
9563	2.8364	5.3636	0.	4287.7
9564	2.7477	5.4545	0.	4351.6
9565	2.8364	5.4545	5.e-002	78.798
9566	2.8364	5.1818	0.	4507.8
9567	2.7477	5.2727	0.	4518.2
9568	2.8364	5.2727	5.e-002	78.023
9569	2.8364	5.	0.	4771.5
9570	2.7477	5.0909	0.	4726.8
9571	2.8364	5.0909	5.e-002	76.487
9572	2.8364	4.8182	0.	5066.9
9573	2.7477	4.9091	0.	4969.
9574	2.8364	4.9091	5.e-002	73.85
9575	2.8364	4.6364	0.	5379.9
9576	2.7477	4.7273	0.	5233.6
9577	2.8364	4.7273	5.e-002	70.073
9578	2.8364	4.4545	0.	5696.
9579	2.7477	4.5455	0.	5507.9
9580	2.8364	4.5455	5.e-002	65.781
9581	2.8364	4.2727	0.	6003.4
9582	2.7477	4.3636	0.	5780.3
9583	2.8364	4.3636	5.e-002	62.209
9584	2.8364	4.0909	0.	6294.9
9585	2.7477	4.1818	0.	6042.5
9586	2.8364	4.1818	5.e-002	60.422
9587	2.8364	3.9091	0.	6565.2
9588	2.7477	4.	0.	6289.7
9589	2.8364	4.	5.e-002	60.254
9590	2.8364	3.7273	0.	6806.4
9591	2.7477	3.8182	0.	6516.9
9592	2.8364	3.8182	5.e-002	61.324
9593	2.8364	3.5455	0.	7007.3
9594	2.7477	3.6364	0.	6715.2
9595	2.8364	3.6364	5.e-002	63.352
9596	2.8364	3.3636	0.	7156.8
9597	2.7477	3.4545	0.	6873.9
9598	2.8364	3.4545	5.e-002	65.532
9599	2.8364	3.1818	0.	7248.
9600	2.7477	3.2727	0.	6983.5
9601	2.8364	3.2727	5.e-002	66.925
9602	2.8364	3.	0.	7278.4
9603	2.7477	3.0909	0.	7039.1
9604	2.8364	3.0909	5.e-002	67.48
9605	2.8364	2.8182	0.	7248.
9606	2.7477	2.9091	0.	7039.1
9607	2.8364	2.9091	5.e-002	67.48
9608	2.8364	2.6364	0.	7156.8
9609	2.7477	2.7273	0.	6983.5
9610	2.8364	2.7273	5.e-002	66.925
9611	2.8364	2.4545	0.	7007.3
9612	2.7477	2.5455	0.	6873.9
9613	2.8364	2.5455	5.e-002	65.532
9614	2.8364	2.2727	0.	6806.4
9615	2.7477	2.3636	0.	6715.2
9616	2.8364	2.3636	5.e-002	63.352
9617	2.8364	2.0909	0.	6565.2
9618	2.7477	2.1818	0.	6516.9
9619	2.8364	2.1818	5.e-002	61.324
9620	2.8364	1.9091	0.	6294.9
9621	2.7477	2.	0.	6289.7
9622	2.8364	2.	5.e-002	60.254
9623	2.8364	1.7273	0.	6003.4
9624	2.7477	1.8182	0.	6042.5
9625	2.8364	1.8182	5.e-002	60.422
9626	2.8364	1.5455	0.	5696.
9627	2.7477	1.6364	0.	5780.3
9628	2.8364	1.6364	5.e-002	62.209
9629	2.8364	1.3636	0.	5379.9
9630	2.7477	1.4545	0.	5507.9
9631	2.8364	1.4545	5.e-002	65.781
9632	2.8364	1.1818	0.	5066.9
9633	2.7477	1.2727	0.	5233.6
9634	2.8364	1.2727	5.e-002	70.073
9635	2.8364	1.	0.	4771.5
9636	2.7477	1.0909	0.	4969.
9637	2.8364	1.0909	5.e-002	73.85
9638	2.8364	0.81818	0.	4507.8
9639	2.7477	0.90909	0.	4726.8
9640	2.8364	0.90909	5.e-002	76.487
9641	2.8364	0.63636	0.	4287.7
9642	2.7477	0.72727	0.	4518.2
9643	2.8364	0.72727	5.e-002	78.023
9644	2.8364	0.45455	0.	4119.6
9645	2.7477	0.54545	0.	4351.6
9646	2.8364	0.54545	5.e-002	78.798
9647	2.8364	0.27273	0.	4017.3
9648	2.7477	0.36364	0.	4232.6
9649	2.8364	0.36364	5.e-002	80.588
9650	2.7477	0.18182	0.	4179.3
9651	2.8364	0.18182	5.e-002	107.62
9652	2.8364	9.0909e-002	0.	3879.1
9653	2.6591	5.7273	0.	4395.4
9654	2.5705	5.8182	0.	4540.8
9655	2.6591	5.8182	5.e-002	97.848
9656	2.6591	5.9091	0.	4281.4
9657	2.6591	5.5455	0.	4466.1
9658	2.5705	5.6364	0.	4571.
9659	2.6591	5.6364	5.e-002	70.429
9660	2.6591	5.3636	0.	4585.9
9661	2.5705	5.4545	0.	4652.7
9662	2.6591	5.4545	5.e-002	68.67
9663	2.6591	5.1818	0.	4743.3
9664	2.5705	5.2727	0.	4768.6
9665	2.6591	5.2727	5.e-002	67.873
9666	2.6591	5.	0.	4932.1
9667	2.5705	5.0909	0.	4914.8
9668	2.6591	5.0909	5.e-002	66.316
9669	2.6591	4.8182	0.	5144.
9670	2.5705	4.9091	0.	5085.7
9671	2.6591	4.9091	5.e-002	63.84
9672	2.6591	4.6364	0.	5369.1
9673	2.5705	4.7273	0.	5273.3
9674	2.6591	4.7273	5.e-002	60.578
9675	2.6591	4.4545	0.	5598.2
9676	2.5705	4.5455	0.	5469.5
9677	2.6591	4.5455	5.e-002	56.947
9678	2.6591	4.2727	0.	5823.4
9679	2.5705	4.3636	0.	5666.7
9680	2.6591	4.3636	5.e-002	53.554
9681	2.6591	4.0909	0.	6039.7
9682	2.5705	4.1818	0.	5859.3
9683	2.6591	4.1818	5.e-002	50.776
9684	2.6591	3.9091	0.	6242.3
9685	2.5705	4.	0.	6043.1
9686	2.6591	4.	5.e-002	48.723
9687	2.6591	3.7273	0.	6425.2
9688	2.5705	3.8182	0.	6213.5
9689	2.6591	3.8182	5.e-002	47.646
9690	2.6591	3.5455	0.	6579.8
9691	2.5705	3.6364	0.	6363.8
9692	2.6591	3.6364	5.e-002	47.849
9693	2.6591	3.3636	0.	6697.3
9694	2.5705	3.4545	0.	6485.8
9695	2.6591	3.4545	5.e-002	48.997
9696	2.6591	3.1818	0.	6770.5
9697	2.5705	3.2727	0.	6571.7
9698	2.6591	3.2727	5.e-002	50.277
9699	2.6591	3.	0.	6795.4
9700	2.5705	3.0909	0.	6616.
9701	2.6591	3.0909	5.e-002	51.038
9702	2.6591	2.8182	0.	6770.5
9703	2.5705	2.9091	0.	6616.
9704	2.6591	2.9091	5.e-002	51.038
9705	2.6591	2.6364	0.	6697.3
9706	2.5705	2.7273	0.	6571.7
9707	2.6591	2.7273	5.e-002	50.277
9708	2.6591	2.4545	0.	6579.8
9709	2.5705	2.5455	0.	6485.8
9710	2.6591	2.5455	5.e-002	48.997
9711	2.6591	2.2727	0.	6425.2
9712	2.5705	2.3636	0.	6363.8
9713	2.6591	2.3636	5.e-002	47.849
9714	2.6591	2.0909	0.	6242.3
9715	2.5705	2.1818	0.	6213.5
9716	2.6591	2.1818	5.e-002	47.646
9717	2.6591	1.9091	0.	6039.7
9718	2.5705	2.	0.	6043.1
9719	2.6591	2.	5.e-002	48.723
9720	2.6591	1.7273	0.	5823.4
9721	2.5705	1.8182	0.	5859.3
9722	2.6591	1.8182	5.e-002	50.776
9723	2.6591	1.5455	0.	5598.2
9724	2.5705	1.6364	0.	5666.7
9725	2.6591	1.6364	5.e-002	53.554
9726	2.6591	1.3636	0.	5369.1
9727	2.5705	1.4545	0.	5469.5
9728	2.6591	1.4545	5.e-002	56.947
9729	2.6591	1.1818	0.	5144.
9730	2.5705	1.2727	0.	5273.3
9731	2.6591	1.2727	5.e-002	60.578
9732	2.6591	1.	0.	4932.1
9733	2.5705	1.0909	0.	5085.7
9734	2.6591	1.0909	5.e-002	63.84
9735	2.6591	0.81818	0.	4743.3
9736	2.5705	0.90909	0.	4914.8
9737	2.6591	0.90909	5.e-002	66.316
9738	2.6591	0.63636	0.	4585.9
9739	2.5705	0.72727	0.	4768.6
9740	2.6591	0.72727	5.e-002	67.873
9741	2.6591	0.45455	0.	4466.1
9742	2.5705	0.54545	0.	4652.7
9743	2.6591	0.54545	5.e-002	68.67
9744	2.6591	0.27273	0.	4395.4
9745	2.5705	0.36364	0.	4571.
9746	2.6591	0.36364	5.e-002	70.429
9747	2.5705	0.18182	0.	4540.8
9748	2.6591	0.18182	5.e-002	97.848
9749	2.6591	9.0909e-002	0.	4281.4
9750	2.4818	5.7273	0.	4716.9
9751	2.3932	5.8182	0.	4848.8
9752	2.4818	5.8182	5.e-002	88.94
9753	2.4818	5.9091	0.	4626.3
9754	2.4818	5.5455	0.	4758.3
9755	2.3932	5.6364	0.	4855.8
9756	2.4818	5.6364	5.e-002	61.32
9757	2.4818	5.3636	0.	4837.2
9758	2.3932	5.4545	0.	4904.2
9759	2.4818	5.4545	5.e-002	59.854
9760	2.4818	5.1818	0.	4943.2
9761	2.3932	5.2727	0.	4977.7
9762	2.4818	5.2727	5.e-002	59.401
9763	2.4818	5.	0.	5072.4
9764	2.3932	5.0909	0.	5073.5
9765	2.4818	5.0909	5.e-002	58.271
9766	2.4818	4.8182	0.	5219.3
9767	2.3932	4.9091	0.	5188.3
9768	2.4818	4.9091	5.e-002	56.357
9769	2.4818	4.6364	0.	5377.6
9770	2.3932	4.7273	0.	5316.9
9771	2.4818	4.7273	5.e-002	53.76
9772	2.4818	4.4545	0.	5541.1
9773	2.3932	4.5455	0.	5454.2
9774	2.4818	4.5455	5.e-002	50.699
9775	2.4818	4.2727	0.	5704.6
9776	2.3932	4.3636	0.	5595.1
9777	2.4818	4.3636	5.e-002	47.404
9778	2.4818	4.0909	0.	5863.9
9779	2.3932	4.1818	0.	5735.3
9780	2.4818	4.1818	5.e-002	44.042
9781	2.4818	3.9091	0.	6014.7
9782	2.3932	4.	0.	5871.1
9783	2.4818	4.	5.e-002	40.807
9784	2.4818	3.7273	0.	6151.8
9785	2.3932	3.8182	0.	5998.2
9786	2.4818	3.8182	5.e-002	38.117
9787	2.4818	3.5455	0.	6268.6
9788	2.3932	3.6364	0.	6111.
9789	2.4818	3.6364	5.e-002	36.487
9790	2.4818	3.3636	0.	6358.2
9791	2.3932	3.4545	0.	6203.2
9792	2.4818	3.4545	5.e-002	36.038
9793	2.4818	3.1818	0.	6414.6
9794	2.3932	3.2727	0.	6268.6
9795	2.4818	3.2727	5.e-002	36.301
9796	2.4818	3.	0.	6433.9
9797	2.3932	3.0909	0.	6302.6
9798	2.4818	3.0909	5.e-002	36.629
9799	2.4818	2.8182	0.	6414.6
9800	2.3932	2.9091	0.	6302.6
9801	2.4818	2.9091	5.e-002	36.629
9802	2.4818	2.6364	0.	6358.2
9803	2.3932	2.7273	0.	6268.6
9804	2.4818	2.7273	5.e-002	36.301
9805	2.4818	2.4545	0.	6268.6
9806	2.3932	2.5455	0.	6203.2
9807	2.4818	2.5455	5.e-002	36.038
9808	2.4818	2.2727	0.	6151.8
9809	2.3932	2.3636	0.	6111.
9810	2.4818	2.3636	5.e-002	36.487
9811	2.4818	2.0909	0.	6014.7
9812	2.3932	2.1818	0.	5998.2
9813	2.4818	2.1818	5.e-002	38.117
9814	2.4818	1.9091	0.	5863.9
9815	2.3932	2.	0.	5871.1
9816	2.4818	2.	5.e-002	40.807
9817	2.4818	1.7273	0.	5704.6
9818	2.3932	1.8182	0.	5735.3
9819	2.4818	1.8182	5.e-002	44.042
9820	2.4818	1.5455	0.	5541.1
9821	2.3932	1.6364	0.	5595.1
9822	2.4818	1.6364	5.e-002	47.404
9823	2.4818	1.3636	0.	5377.6
9824	2.3932	1.4545	0.	5454.2
9825	2.4818	1.4545	5.e-002	50.699
9826	2.4818	1.1818	0.	5219.3
9827	2.3932	1.2727	0.	5316.9
9828	2.4818	1.2727	5.e-002	53.76
9829	2.4818	1.	0.	5072.4
9830	2.3932	1.0909	0.	5188.3
9831	2.4818	1.0909	5.e-002	56.357
9832	2.4818	0.81818	0.	4943.2
9833	2.3932	0.90909	0.	5073.5
9834	2.4818	0.90909	5.e-002	58.271
9835	2.4818	0.63636	0.	4837.2
9836	2.3932	0.72727	0.	4977.7
9837	2.4818	0.72727	5.e-002	59.401
9838	2.4818	0.45455	0.	4758.3
9839	2.3932	0.54545	0.	4904.2
9840	2.4818	0.54545	5.e-002	59.854
9841	2.4818	0.27273	0.	4716.9
9842	2.3932	0.36364	0.	4855.8
9843	2.4818	0.36364	5.e-002	61.32
9844	2.3932	0.18182	0.	4848.8
9845	2.4818	0.18182	5.e-002	88.94
9846	2.4818	9.0909e-002	0.	4626.3
9847	2.3045	5.7273	0.	4987.8
9848	2.2159	5.8182	0.	5109.3
9849	2.3045	5.8182	5.e-002	81.193
9850	2.3045	5.9091	0.	4919.1
9851	2.3045	5.5455	0.	5001.8
9852	2.2159	5.6364	0.	5092.8
9853	2.3045	5.6364	5.e-002	53.439
9854	2.3045	5.3636	0.	5045.5
9855	2.2159	5.4545	0.	5111.5
9856	2.3045	5.4545	5.e-002	52.466
9857	2.3045	5.1818	0.	5109.4
9858	2.2159	5.2727	0.	5149.2
9859	2.3045	5.2727	5.e-002	52.573
9860	2.3045	5.	0.	5191.2
9861	2.2159	5.0909	0.	5204.4
9862	2.3045	5.0909	5.e-002	52.059
9863	2.3045	4.8182	0.	5287.9
9864	2.2159	4.9091	0.	5275.3
9865	2.3045	4.9091	5.e-002	50.796
9866	2.3045	4.6364	0.	5395.4
9867	2.2159	4.7273	0.	5359.1
9868	2.3045	4.7273	5.e-002	48.818
9869	2.3045	4.4545	0.	5509.6
9870	2.2159	4.5455	0.	5452.3
9871	2.3045	4.5455	5.e-002	46.199
9872	2.3045	4.2727	0.	5626.7
9873	2.2159	4.3636	0.	5551.3
9874	2.3045	4.3636	5.e-002	43.019
9875	2.3045	4.0909	0.	5743.1
9876	2.2159	4.1818	0.	5652.6
9877	2.3045	4.1818	5.e-002	39.361
9878	2.3045	3.9091	0.	5854.7
9879	2.2159	4.	0.	5752.6
9880	2.3045	4.	5.e-002	35.399
9881	2.3045	3.7273	0.	5957.
9882	2.2159	3.8182	0.	5847.3
9883	2.3045	3.8182	5.e-002	31.509
9884	2.3045	3.5455	0.	6044.7
9885	2.2159	3.6364	0.	5931.9
9886	2.3045	3.6364	5.e-002	28.227
9887	2.3045	3.3636	0.	6112.3
9888	2.2159	3.4545	0.	6001.5
9889	2.3045	3.4545	5.e-002	25.983
9890	2.3045	3.1818	0.	6155.1
9891	2.2159	3.2727	0.	6051.
9892	2.3045	3.2727	5.e-002	24.808
9893	2.3045	3.	0.	6169.7
9894	2.2159	3.0909	0.	6076.8
9895	2.3045	3.0909	5.e-002	24.375
9896	2.3045	2.8182	0.	6155.1
9897	2.2159	2.9091	0.	6076.8
9898	2.3045	2.9091	5.e-002	24.375
9899	2.3045	2.6364	0.	6112.3
9900	2.2159	2.7273	0.	6051.
9901	2.3045	2.7273	5.e-002	24.808
9902	2.3045	2.4545	0.	6044.7
9903	2.2159	2.5455	0.	6001.5
9904	2.3045	2.5455	5.e-002	25.983
9905	2.3045	2.2727	0.	5957.
9906	2.2159	2.3636	0.	5931.9
9907	2.3045	2.3636	5.e-002	28.227
9908	2.3045	2.0909	0.	5854.7
9909	2.2159	2.1818	0.	5847.3
9910	2.3045	2.1818	5.e-002	31.509
9911	2.3045	1.9091	0.	5743.1
9912	2.2159	2.	0.	5752.6
9913	2.3045	2.	5.e-002	35.399
9914	2.3045	1.7273	0.	5626.7
9915	2.2159	1.8182	0.	5652.6
9916	2.3045	1.8182	5.e-002	39.361
9917	2.3045	1.5455	0.	5509.6
9918	2.2159	1.6364	0.	5551.3
9919	2.3045	1.6364	5.e-002	43.019
9920	2.3045	1.3636	0.	5395.4
9921	2.2159	1.4545	0.	5452.3
9922	2.3045	1.4545	5.e-002	46.199
9923	2.3045	1.1818	0.	5287.9
9924	2.2159	1.2727	0.	5359.1
9925	2.3045	1.2727	5.e-002	48.818
9926	2.3045	1.	0.	5191.2
9927	2.2159	1.0909	0.	5275.3
9928	2.3045	1.0909	5.e-002	50.796
9929	2.3045	0.81818	0.	5109.4
9930	2.2159	0.90909	0.	5204.4
9931	2.3045	0.90909	5.e-002	52.059
9932	2.3045	0.63636	0.	5045.5
9933	2.2159	0.72727	0.	5149.2
9934	2.3045	0.72727	5.e-002	52.573
9935	2.3045	0.45455	0.	5001.8
9936	2.2159	0.54545	0.	5111.5
9937	2.3045	0.54545	5.e-002	52.466
9938	2.3045	0.27273	0.	4987.8
9939	2.2159	0.36364	0.	5092.8
9940	2.3045	0.36364	5.e-002	53.439
9941	2.2159	0.18182	0.	5109.3
9942	2.3045	0.18182	5.e-002	81.193
9943	2.3045	9.0909e-002	0.	4919.1
9944	2.1273	5.7273	0.	5214.2
9945	2.0386	5.8182	0.	5327.9
9946	2.1273	5.8182	5.e-002	74.732
9947	2.1273	5.9091	0.	5165.7
9948	2.1273	5.5455	0.	5202.4
9949	2.0386	5.6364	0.	5287.9
9950	2.1273	5.6364	5.e-002	46.861
9951	2.1273	5.3636	0.	5215.5
9952	2.0386	5.4545	0.	5279.9
9953	2.1273	5.4545	5.e-002	46.527
9954	2.1273	5.1818	0.	5244.7
9955	2.0386	5.2727	0.	5287.3
9956	2.1273	5.2727	5.e-002	47.291
9957	2.1273	5.	0.	5289.2
9958	2.0386	5.0909	0.	5309.9
9959	2.1273	5.0909	5.e-002	47.423
9960	2.1273	4.8182	0.	5347.3
9961	2.0386	4.9091	0.	5347.
9962	2.1273	4.9091	5.e-002	46.762
9963	2.1273	4.6364	0.	5416.7
9964	2.0386	4.7273	0.	5397.2
9965	2.1273	4.7273	5.e-002	45.287
9966	2.1273	4.4545	0.	5494.5
9967	2.0386	4.5455	0.	5458.1
9968	2.1273	4.5455	5.e-002	43.013
9969	2.1273	4.2727	0.	5577.4
9970	2.0386	4.3636	0.	5526.7
9971	2.1273	4.3636	5.e-002	39.971
9972	2.1273	4.0909	0.	5662.2
9973	2.0386	4.1818	0.	5600.
9974	2.1273	4.1818	5.e-002	36.219
9975	2.1273	3.9091	0.	5745.1
9976	2.0386	4.	0.	5674.2
9977	2.1273	4.	5.e-002	31.892
9978	2.1273	3.7273	0.	5821.9
9979	2.0386	3.8182	0.	5745.6
9980	2.1273	3.8182	5.e-002	27.25
9981	2.1273	3.5455	0.	5888.1
9982	2.0386	3.6364	0.	5810.
9983	2.1273	3.6364	5.e-002	22.687
9984	2.1273	3.3636	0.	5939.3
9985	2.0386	3.4545	0.	5863.
9986	2.1273	3.4545	5.e-002	18.678
9987	2.1273	3.1818	0.	5971.7
9988	2.0386	3.2727	0.	5900.9
9989	2.1273	3.2727	5.e-002	15.684
9990	2.1273	3.	0.	5982.8
9991	2.0386	3.0909	0.	5920.7
9992	2.1273	3.0909	5.e-002	14.079
9993	2.1273	2.8182	0.	5971.7
9994	2.0386	2.9091	0.	5920.7
9995	2.1273	2.9091	5.e-002	14.079
9996	2.1273	2.6364	0.	5939.3
9997	2.0386	2.7273	0.	5900.9
9998	2.1273	2.7273	5.e-002	15.684
9999	2.1273	2.4545	0.	5888.1
10000	2.0386	2.5455	0.	5863.
10001	2.1273	2.5455	5.e-002	18.678
10002	2.1273	2.2727	0.	5821.9
10003	2.0386	2.3636	0.	5810.
10004	2.1273	2.3636	5.e-002	22.687
10005	2.1273	2.0909	0.	5745.1
10006	2.0386	2.1818	0.	5745.6
10007	2.1273	2.1818	5.e-002	27.25
10008	2.1273	1.9091	0.	5662.2
10009	2.0386	2.	0.	5674.2
10010	2.1273	2.	5.e-002	31.892
10011	2.1273	1.7273	0.	5577.4
10012	2.0386	1.8182	0.	5600.
10013	2.1273	1.8182	5.e-002	36.219
10014	2.1273	1.5455	0.	5494.5
10015	2.0386	1.6364	0.	5526.7
10016	2.1273	1.6364	5.e-002	39.971
10017	2.1273	1.3636	0.	5416.7
10018	2.0386	1.4545	0.	5458.1
10019	2.1273	1.4545	5.e-002	43.013
10020	2.1273	1.1818	0.	5347.3
10021	2.0386	1.2727	0.	5397.2
10022	2.1273	1.2727	5.e-002	45.287
10023	2.1273	1.	0.	5289.2
10024	2.0386	1.0909	0.	5347.
10025	2.1273	1.0909	5.e-002	46.762
10026	2.1273	0.81818	0.	5244.7
10027	2.0386	0.90909	0.	5309.9
10028	2.1273	0.90909	5.e-002	47.423
10029	2.1273	0.63636	0.	5215.5
10030	2.0386	0.72727	0.	5287.3
10031	2.1273	0.72727	5.e-002	47.291
10032	2.1273	0.45455	0.	5202.4
10033	2.0386	0.54545	0.	5279.9
10034	2.1273	0.54545	5.e-002	46.527
10035	2.1273	0.27273	0.	5214.2
10036	2.0386	0.36364	0.	5287.9
10037	2.1273	0.36364	5.e-002	46.861
10038	2.0386	0.18182	0.	5327.9
10039	2.1273	0.18182	5.e-002	74.732
10040	2.1273	9.0909e-002	0.	5165.7
10041	1.95	5.7273	0.	5401.3
10042	1.8614	5.8182	0.	5509.
10043	1.95	5.8182	5.e-002	69.545
10044	1.95	5.9091	0.	5370.8
10045	1.95	5.5455	0.	5365.1
10046	1.8614	5.6364	0.	5445.7
10047	1.95	5.6364	5.e-002	41.63
10048	1.95	5.3636	0.	5351.5
10049	1.8614	5.4545	0.	5413.5
10050	1.95	5.4545	5.e-002	42.04
10051	1.95	5.1818	0.	5352.4
10052	1.8614	5.2727	0.	5395.5
10053	1.95	5.2727	5.e-002	43.467
10054	1.95	5.	0.	5367.6
10055	1.8614	5.0909	0.	5392.1
10056	1.95	5.0909	5.e-002	44.179
10057	1.95	4.8182	0.	5396.8
10058	1.8614	4.9091	0.	5403.8
10059	1.95	4.9091	5.e-002	43.999
10060	1.95	4.6364	0.	5438.5
10061	1.8614	4.7273	0.	5429.9
10062	1.95	4.7273	5.e-002	42.895
10063	1.95	4.4545	0.	5490.2
10064	1.8614	4.5455	0.	5468.3
10065	1.95	4.5455	5.e-002	40.881
10066	1.95	4.2727	0.	5549.1
10067	1.8614	4.3636	0.	5516.3
10068	1.95	4.3636	5.e-002	37.992
10069	1.95	4.0909	0.	5611.8
10070	1.8614	4.1818	0.	5570.5
10071	1.95	4.1818	5.e-002	34.298
10072	1.95	3.9091	0.	5674.5
10073	1.8614	4.	0.	5627.4
10074	1.95	4.	5.e-002	29.91
10075	1.95	3.7273	0.	5733.4
10076	1.8614	3.8182	0.	5683.
10077	1.95	3.8182	5.e-002	25.
10078	1.95	3.5455	0.	5784.5
10079	1.8614	3.6364	0.	5733.6
10080	1.95	3.6364	5.e-002	19.791
10081	1.95	3.3636	0.	5824.1
10082	1.8614	3.4545	0.	5775.4
10083	1.95	3.4545	5.e-002	14.539
10084	1.95	3.1818	0.	5849.3
10085	1.8614	3.2727	0.	5805.3
10086	1.95	3.2727	5.e-002	9.5597
10087	1.95	3.	0.	5857.9
10088	1.8614	3.0909	0.	5820.9
10089	1.95	3.0909	5.e-002	5.672
10090	1.95	2.8182	0.	5849.3
10091	1.8614	2.9091	0.	5820.9
10092	1.95	2.9091	5.e-002	5.672
10093	1.95	2.6364	0.	5824.1
10094	1.8614	2.7273	0.	5805.3
10095	1.95	2.7273	5.e-002	9.5597
10096	1.95	2.4545	0.	5784.5
10097	1.8614	2.5455	0.	5775.4
10098	1.95	2.5455	5.e-002	14.539
10099	1.95	2.2727	0.	5733.4
10100	1.8614	2.3636	0.	5733.6
10101	1.95	2.3636	5.e-002	19.791
10102	1.95	2.0909	0.	5674.5
10103	1.8614	2.1818	0.	5683.
10104	1.95	2.1818	5.e-002	25.
10105	1.95	1.9091	0.	5611.8
10106	1.8614	2.	0.	5627.4
10107	1.95	2.	5.e-002	29.91
10108	1.95	1.7273	0.	5549.1
10109	1.8614	1.8182	0.	5570.5
10110	1.95	1.8182	5.e-002	34.298
10111	1.95	1.5455	0.	5490.2
10112	1.8614	1.6364	0.	5516.3
10113	1.95	1.6364	5.e-002	37.992
10114	1.95	1.3636	0.	5438.5
10115	1.8614	1.4545	0.	5468.3
10116	1.95	1.4545	5.e-002	40.881
10117	1.95	1.1818	0.	5396.8
10118	1.8614	1.2727	0.	5429.9
10119	1.95	1.2727	5.e-002	42.895
10120	1.95	1.	0.	5367.6
10121	1.8614	1.0909	0.	5403.8
10122	1.95	1.0909	5.e-002	43.999
10123	1.95	0.81818	0.	5352.4
10124	1.8614	0.90909	0.	5392.1
10125	1.95	0.90909	5.e-002	44.179
10126	1.95	0.63636	0.	5351.5
10127	1.8614	0.72727	0.	5395.5
10128	1.95	0.72727	5.e-002	43.467
10129	1.95	0.45455	0.	5365.1
10130	1.8614	0.54545	0.	5413.5
10131	1.95	0.54545	5.e-002	42.04
10132	1.95	0.27273	0.	5401.3
10133	1.8614	0.36364	0.	5445.7
10134	1.95	0.36364	5.e-002	41.63
10135	1.8614	0.18182	0.	5509.
10136	1.95	0.18182	5.e-002	69.545
10137	1.95	9.0909e-002	0.	5370.8
10138	1.7727	5.7273	0.	5552.9
10139	1.6841	5.8182	0.	5655.9
10140	1.7727	5.8182	5.e-002	65.527
10141	1.7727	5.9091	0.	5538.3
10142	1.7727	5.5455	0.	5493.6
10143	1.6841	5.6364	0.	5569.2
10144	1.7727	5.6364	5.e-002	37.81
10145	1.7727	5.3636	0.	5456.9
10146	1.6841	5.4545	0.	5515.
10147	1.7727	5.4545	5.e-002	39.042
10148	1.7727	5.1818	0.	5434.7
10149	1.6841	5.2727	0.	5475.8
10150	1.7727	5.2727	5.e-002	41.058
10151	1.7727	5.	0.	5427.8
10152	1.6841	5.0909	0.	5452.6
10153	1.7727	5.0909	5.e-002	42.212
10154	1.7727	4.8182	0.	5436.4
10155	1.6841	4.9091	0.	5446.5
10156	1.7727	4.9091	5.e-002	42.349
10157	1.7727	4.6364	0.	5459.2
10158	1.6841	4.7273	0.	5456.9
10159	1.7727	4.7273	5.e-002	41.475
10160	1.7727	4.4545	0.	5493.9
10161	1.6841	4.5455	0.	5481.4
10162	1.7727	4.5455	5.e-002	39.636
10163	1.7727	4.2727	0.	5537.3
10164	1.6841	4.3636	0.	5517.1
10165	1.7727	4.3636	5.e-002	36.906
10166	1.7727	4.0909	0.	5585.8
10167	1.6841	4.1818	0.	5560.2
10168	1.7727	4.1818	5.e-002	33.379
10169	1.7727	3.9091	0.	5635.5
10170	1.6841	4.	0.	5606.7
10171	1.7727	4.	5.e-002	29.175
10172	1.7727	3.7273	0.	5682.8
10173	1.6841	3.8182	0.	5652.8
10174	1.7727	3.8182	5.e-002	24.439
10175	1.7727	3.5455	0.	5724.1
10176	1.6841	3.6364	0.	5694.8
10177	1.7727	3.6364	5.e-002	19.336
10178	1.7727	3.3636	0.	5756.1
10179	1.6841	3.4545	0.	5729.6
10180	1.7727	3.4545	5.e-002	14.033
10181	1.7727	3.1818	0.	5776.4
10182	1.6841	3.2727	0.	5754.4
10183	1.7727	3.2727	5.e-002	8.7096
10184	1.7727	3.	0.	5783.4
10185	1.6841	3.0909	0.	5767.3
10186	1.7727	3.0909	5.e-002	3.841
10187	1.7727	2.8182	0.	5776.4
10188	1.6841	2.9091	0.	5767.3
10189	1.7727	2.9091	5.e-002	3.841
10190	1.7727	2.6364	0.	5756.1
10191	1.6841	2.7273	0.	5754.4
10192	1.7727	2.7273	5.e-002	8.7096
10193	1.7727	2.4545	0.	5724.1
10194	1.6841	2.5455	0.	5729.6
10195	1.7727	2.5455	5.e-002	14.033
10196	1.7727	2.2727	0.	5682.8
10197	1.6841	2.3636	0.	5694.8
10198	1.7727	2.3636	5.e-002	19.336
10199	1.7727	2.0909	0.	5635.5
10200	1.6841	2.1818	0.	5652.8
10201	1.7727	2.1818	5.e-002	24.439
10202	1.7727	1.9091	0.	5585.8
10203	1.6841	2.	0.	5606.7
10204	1.7727	2.	5.e-002	29.175
10205	1.7727	1.7273	0.	5537.3
10206	1.6841	1.8182	0.	5560.2
10207	1.7727	1.8182	5.e-002	33.379
10208	1.7727	1.5455	0.	5493.9
10209	1.6841	1.6364	0.	5517.1
10210	1.7727	1.6364	5.e-002	36.906
10211	1.7727	1.3636	0.	5459.2
10212	1.6841	1.4545	0.	5481.4
10213	1.7727	1.4545	5.e-002	39.636
10214	1.7727	1.1818	0.	5436.4
10215	1.6841	1.2727	0.	5456.9
10216	1.7727	1.2727	5.e-002	41.475
10217	1.7727	1.	0.	5427.8
10218	1.6841	1.0909	0.	5446.5
10219	1.7727	1.0909	5.e-002	42.349
10220	1.7727	0.81818	0.	5434.7
10221	1.6841	0.90909	0.	5452.6
10222	1.7727	0.90909	5.e-002	42.212
10223	1.7727	0.63636	0.	5456.9
10224	1.6841	0.72727	0.	5475.8
10225	1.7727	0.72727	5.e-002	41.058
10226	1.7727	0.45455	0.	5493.6
10227	1.6841	0.54545	0.	5515.
10228	1.7727	0.54545	5.e-002	39.042
10229	1.7727	0.27273	0.	5552.9
10230	1.6841	0.36364	0.	5569.2
10231	1.7727	0.36364	5.e-002	37.81
10232	1.6841	0.18182	0.	5655.9
10233	1.7727	0.18182	5.e-002	65.527
10234	1.7727	9.0909e-002	0.	5538.3
10235	1.5955	5.7273	0.	5671.4
10236	1.5068	5.8182	0.	5769.8
10237	1.5955	5.8182	5.e-002	62.502
10238	1.5955	5.9091	0.	5670.5
10239	1.5955	5.5455	0.	5590.
10240	1.5068	5.6364	0.	5659.5
10241	1.5955	5.6364	5.e-002	35.55
10242	1.5955	5.3636	0.	5533.2
10243	1.5068	5.4545	0.	5585.6
10244	1.5955	5.4545	5.e-002	37.639
10245	1.5955	5.1818	0.	5493.
10246	1.5068	5.2727	0.	5529.3
10247	1.5955	5.2727	5.e-002	40.082
10248	1.5955	5.	0.	5470.6
10249	1.5068	5.0909	0.	5492.3
10250	1.5955	5.0909	5.e-002	41.467
10251	1.5955	4.8182	0.	5466.2
10252	1.5068	4.9091	0.	5475.7
10253	1.5955	4.9091	5.e-002	41.723
10254	1.5955	4.6364	0.	5478.4
10255	1.5068	4.7273	0.	5478.4
10256	1.5955	4.7273	5.e-002	40.925
10257	1.5955	4.4545	0.	5504.1
10258	1.5068	4.5455	0.	5497.3
10259	1.5955	4.5455	5.e-002	39.179
10260	1.5955	4.2727	0.	5539.5
10261	1.5068	4.3636	0.	5528.3
10262	1.5955	4.3636	5.e-002	36.6
10263	1.5955	4.0909	0.	5580.7
10264	1.5068	4.1818	0.	5567.
10265	1.5955	4.1818	5.e-002	33.315
10266	1.5955	3.9091	0.	5623.6
10267	1.5068	4.	0.	5609.1
10268	1.5955	4.	5.e-002	29.463
10269	1.5955	3.7273	0.	5664.5
10270	1.5068	3.8182	0.	5650.8
10271	1.5955	3.8182	5.e-002	25.204
10272	1.5955	3.5455	0.	5700.1
10273	1.5068	3.6364	0.	5688.6
10274	1.5955	3.6364	5.e-002	20.733
10275	1.5955	3.3636	0.	5727.6
10276	1.5068	3.4545	0.	5719.6
10277	1.5955	3.4545	5.e-002	16.304
10278	1.5955	3.1818	0.	5745.
10279	1.5068	3.2727	0.	5741.5
10280	1.5955	3.2727	5.e-002	12.345
10281	1.5955	3.	0.	5751.
10282	1.5068	3.0909	0.	5752.9
10283	1.5955	3.0909	5.e-002	9.7289
10284	1.5955	2.8182	0.	5745.
10285	1.5068	2.9091	0.	5752.9
10286	1.5955	2.9091	5.e-002	9.7289
10287	1.5955	2.6364	0.	5727.6
10288	1.5068	2.7273	0.	5741.5
10289	1.5955	2.7273	5.e-002	12.345
10290	1.5955	2.4545	0.	5700.1
10291	1.5068	2.5455	0.	5719.6
10292	1.5955	2.5455	5.e-002	16.304
10293	1.5955	2.2727	0.	5664.5
10294	1.5068	2.3636	0.	5688.6
10295	1.5955	2.3636	5.e-002	20.733
10296	1.5955	2.0909	0.	5623.6
10297	1.5068	2.1818	0.	5650.8
10298	1.5955	2.1818	5.e-002	25.204
10299	1.5955	1.9091	0.	5580.7
10300	1.5068	2.	0.	5609.1
10301	1.5955	2.	5.e-002	29.463
10302	1.5955	1.7273	0.	5539.5
10303	1.5068	1.8182	0.	5567.
10304	1.5955	1.8182	5.e-002	33.315
10305	1.5955	1.5455	0.	5504.1
10306	1.5068	1.6364	0.	5528.3
10307	1.5955	1.6364	5.e-002	36.6
10308	1.5955	1.3636	0.	5478.4
10309	1.5068	1.4545	0.	5497.3
10310	1.5955	1.4545	5.e-002	39.179
10311	1.5955	1.1818	0.	5466.2
10312	1.5068	1.2727	0.	5478.4
10313	1.5955	1.2727	5.e-002	40.925
10314	1.5955	1.	0.	5470.6
10315	1.5068	1.0909	0.	5475.7
10316	1.5955	1.0909	5.e-002	41.723
10317	1.5955	0.81818	0.	5493.
10318	1.5068	0.90909	0.	5492.3
10319	1.5955	0.90909	5.e-002	41.467
10320	1.5955	0.63636	0.	5533.2
10321	1.5068	0.72727	0.	5529.3
10322	1.5955	0.72727	5.e-002	40.082
10323	1.5955	0.45455	0.	5590.
10324	1.5068	0.54545	0.	5585.6
10325	1.5955	0.54545	5.e-002	37.639
10326	1.5955	0.27273	0.	5671.4
10327	1.5068	0.36364	0.	5659.5
10328	1.5955	0.36364	5.e-002	35.55
10329	1.5068	0.18182	0.	5769.8
10330	1.5955	0.18182	5.e-002	62.502
10331	1.5955	9.0909e-002	0.	5670.5
10332	1.4182	5.7273	0.	5757.
10333	1.3295	5.8182	0.	5849.9
10334	1.4182	5.8182	5.e-002	60.25
10335	1.4182	5.9091	0.	5767.7
10336	1.4182	5.5455	0.	5654.3
10337	1.3295	5.6364	0.	5715.5
10338	1.4182	5.6364	5.e-002	35.138
10339	1.4182	5.3636	0.	5580.6
10340	1.3295	5.4545	0.	5624.
10341	1.4182	5.4545	5.e-002	38.033
10342	1.4182	5.1818	0.	5527.5
10343	1.3295	5.2727	0.	5555.2
10344	1.4182	5.2727	5.e-002	40.622
10345	1.4182	5.	0.	5496.4
10346	1.3295	5.0909	0.	5511.2
10347	1.4182	5.0909	5.e-002	41.944
10348	1.4182	4.8182	0.	5487.
10349	1.3295	4.9091	0.	5492.4
10350	1.4182	4.9091	5.e-002	42.077
10351	1.4182	4.6364	0.	5496.5
10352	1.3295	4.7273	0.	5495.9
10353	1.4182	4.7273	5.e-002	41.195
10354	1.4182	4.4545	0.	5520.8
10355	1.3295	4.5455	0.	5517.
10356	1.4182	4.5455	5.e-002	39.459
10357	1.4182	4.2727	0.	5555.2
10358	1.3295	4.3636	0.	5550.4
10359	1.4182	4.3636	5.e-002	37.018
10360	1.4182	4.0909	0.	5595.
10361	1.3295	4.1818	0.	5590.7
10362	1.4182	4.1818	5.e-002	34.014
10363	1.4182	3.9091	0.	5636.
10364	1.3295	4.	0.	5633.5
10365	1.4182	4.	5.e-002	30.599
10366	1.4182	3.7273	0.	5674.6
10367	1.3295	3.8182	0.	5674.8
10368	1.4182	3.8182	5.e-002	26.948
10369	1.4182	3.5455	0.	5707.8
10370	1.3295	3.6364	0.	5711.5
10371	1.4182	3.6364	5.e-002	23.275
10372	1.4182	3.3636	0.	5733.3
10373	1.3295	3.4545	0.	5741.2
10374	1.4182	3.4545	5.e-002	19.862
10375	1.4182	3.1818	0.	5749.2
10376	1.3295	3.2727	0.	5762.
10377	1.4182	3.2727	5.e-002	17.102
10378	1.4182	3.	0.	5754.7
10379	1.3295	3.0909	0.	5772.7
10380	1.4182	3.0909	5.e-002	15.506
10381	1.4182	2.8182	0.	5749.2
10382	1.3295	2.9091	0.	5772.7
10383	1.4182	2.9091	5.e-002	15.506
10384	1.4182	2.6364	0.	5733.3
10385	1.3295	2.7273	0.	5762.
10386	1.4182	2.7273	5.e-002	17.102
10387	1.4182	2.4545	0.	5707.8
10388	1.3295	2.5455	0.	5741.2
10389	1.4182	2.5455	5.e-002	19.862
10390	1.4182	2.2727	0.	5674.6
10391	1.3295	2.3636	0.	5711.5
10392	1.4182	2.3636	5.e-002	23.275
10393	1.4182	2.0909	0.	5636.
10394	1.3295	2.1818	0.	5674.8
10395	1.4182	2.1818	5.e-002	26.948
10396	1.4182	1.9091	0.	5595.
10397	1.3295	2.	0.	5633.5
10398	1.4182	2.	5.e-002	30.599
10399	1.4182	1.7273	0.	5555.2
10400	1.3295	1.8182	0.	5590.7
10401	1.4182	1.8182	5.e-002	34.014
10402	1.4182	1.5455	0.	5520.8
10403	1.3295	1.6364	0.	5550.4
10404	1.4182	1.6364	5.e-002	37.018
10405	1.4182	1.3636	0.	5496.5
10406	1.3295	1.4545	0.	5517.
10407	1.4182	1.4545	5.e-002	39.459
10408	1.4182	1.1818	0.	5487.
10409	1.3295	1.2727	0.	5495.9
10410	1.4182	1.2727	5.e-002	41.195
10411	1.4182	1.	0.	5496.4
10412	1.3295	1.0909	0.	5492.4
10413	1.4182	1.0909	5.e-002	42.077
10414	1.4182	0.81818	0.	5527.5
10415	1.3295	0.90909	0.	5511.2
10416	1.4182	0.90909	5.e-002	41.944
10417	1.4182	0.63636	0.	5580.6
10418	1.3295	0.72727	0.	5555.2
10419	1.4182	0.72727	5.e-002	40.622
10420	1.4182	0.45455	0.	5654.3
10421	1.3295	0.54545	0.	5624.
10422	1.4182	0.54545	5.e-002	38.033
10423	1.4182	0.27273	0.	5757.
10424	1.3295	0.36364	0.	5715.5
10425	1.4182	0.36364	5.e-002	35.138
10426	1.3295	0.18182	0.	5849.9
10427	1.4182	0.18182	5.e-002	60.25
10428	1.4182	9.0909e-002	0.	5767.7
10429	1.2409	5.7273	0.	5807.2
10430	1.1523	5.8182	0.	5891.8
10431	1.2409	5.8182	5.e-002	58.536
10432	1.2409	5.9091	0.	5827.2
10433	1.2409	5.5455	0.	5684.1
10434	1.1523	5.6364	0.	5732.2
10435	1.2409	5.6364	5.e-002	37.056
10436	1.2409	5.3636	0.	5597.2
10437	1.1523	5.4545	0.	5626.
10438	1.2409	5.4545	5.e-002	40.53
10439	1.2409	5.1818	0.	5537.5
10440	1.1523	5.2727	0.	5551.
10441	1.2409	5.2727	5.e-002	42.817
10442	1.2409	5.	0.	5505.9
10443	1.1523	5.0909	0.	5508.9
10444	1.2409	5.0909	5.e-002	43.675
10445	1.2409	4.8182	0.	5500.2
10446	1.1523	4.9091	0.	5497.7
10447	1.2409	4.9091	5.e-002	43.403
10448	1.2409	4.6364	0.	5515.6
10449	1.1523	4.7273	0.	5511.5
10450	1.2409	4.7273	5.e-002	42.274
10451	1.2409	4.4545	0.	5546.
10452	1.1523	4.5455	0.	5543.
10453	1.2409	4.5455	5.e-002	40.475
10454	1.2409	4.2727	0.	5585.5
10455	1.1523	4.3636	0.	5585.2
10456	1.2409	4.3636	5.e-002	38.149
10457	1.2409	4.0909	0.	5628.9
10458	1.1523	4.1818	0.	5632.3
10459	1.2409	4.1818	5.e-002	35.428
10460	1.2409	3.9091	0.	5672.1
10461	1.1523	4.	0.	5679.6
10462	1.2409	4.	5.e-002	32.454
10463	1.2409	3.7273	0.	5711.5
10464	1.1523	3.8182	0.	5723.4
10465	1.2409	3.8182	5.e-002	29.395
10466	1.2409	3.5455	0.	5744.7
10467	1.1523	3.6364	0.	5761.3
10468	1.2409	3.6364	5.e-002	26.448
10469	1.2409	3.3636	0.	5769.8
10470	1.1523	3.4545	0.	5791.2
10471	1.2409	3.4545	5.e-002	23.85
10472	1.2409	3.1818	0.	5785.3
10473	1.1523	3.2727	0.	5811.9
10474	1.2409	3.2727	5.e-002	21.875
10475	1.2409	3.	0.	5790.5
10476	1.1523	3.0909	0.	5822.4
10477	1.2409	3.0909	5.e-002	20.795
10478	1.2409	2.8182	0.	5785.3
10479	1.1523	2.9091	0.	5822.4
10480	1.2409	2.9091	5.e-002	20.795
10481	1.2409	2.6364	0.	5769.8
10482	1.1523	2.7273	0.	5811.9
10483	1.2409	2.7273	5.e-002	21.875
10484	1.2409	2.4545	0.	5744.7
10485	1.1523	2.5455	0.	5791.2
10486	1.2409	2.5455	5.e-002	23.85
10487	1.2409	2.2727	0.	5711.5
10488	1.1523	2.3636	0.	5761.3
10489	1.2409	2.3636	5.e-002	26.448
10490	1.2409	2.0909	0.	5672.1
10491	1.1523	2.1818	0.	5723.4
10492	1.2409	2.1818	5.e-002	29.395
10493	1.2409	1.9091	0.	5628.9
10494	1.1523	2.	0.	5679.6
10495	1.2409	2.	5.e-002	32.454
10496	1.2409	1.7273	0.	5585.5
10497	1.1523	1.8182	0.	5632.3
10498	1.2409	1.8182	5.e-002	35.428
10499	1.2409	1.5455	0.	5546.
10500	1.1523	1.6364	0.	5585.2
10501	1.2409	1.6364	5.e-002	38.149
10502	1.2409	1.3636	0.	5515.6
10503	1.1523	1.4545	0.	5543.
10504	1.2409	1.4545	5.e-002	40.475
10505	1.2409	1.1818	0.	5500.2
10506	1.1523	1.2727	0.	5511.5
10507	1.2409	1.2727	5.e-002	42.274
10508	1.2409	1.	0.	5505.9
10509	1.1523	1.0909	0.	5497.7
10510	1.2409	1.0909	5.e-002	43.403
10511	1.2409	0.81818	0.	5537.5
10512	1.1523	0.90909	0.	5508.9
10513	1.2409	0.90909	5.e-002	43.675
10514	1.2409	0.63636	0.	5597.2
10515	1.1523	0.72727	0.	5551.
10516	1.2409	0.72727	5.e-002	42.817
10517	1.2409	0.45455	0.	5684.1
10518	1.1523	0.54545	0.	5626.
10519	1.2409	0.54545	5.e-002	40.53
10520	1.2409	0.27273	0.	5807.2
10521	1.1523	0.36364	0.	5732.2
10522	1.2409	0.36364	5.e-002	37.056
10523	1.1523	0.18182	0.	5891.8
10524	1.2409	0.18182	5.e-002	58.536
10525	1.2409	9.0909e-002	0.	5827.2
10526	1.0636	5.7273	0.	5815.1
10527	0.975	5.8182	0.	5886.3
10528	1.0636	5.8182	5.e-002	57.246
10529	1.0636	5.9091	0.	5842.5
10530	1.0636	5.5455	0.	5672.6
10531	0.975	5.6364	0.	5701.2
10532	1.0636	5.6364	5.e-002	42.084
10533	1.0636	5.3636	0.	5577.9
10534	0.975	5.4545	0.	5585.7
10535	1.0636	5.4545	5.e-002	45.58
10536	1.0636	5.1818	0.	5520.6
10537	0.975	5.2727	0.	5515.
10538	1.0636	5.2727	5.e-002	46.864
10539	1.0636	5.	0.	5499.2
10540	0.975	5.0909	0.	5488.1
10541	1.0636	5.0909	5.e-002	46.725
10542	1.0636	4.8182	0.	5507.8
10543	0.975	4.9091	0.	5497.4
10544	1.0636	4.9091	5.e-002	45.743
10545	1.0636	4.6364	0.	5538.
10546	0.975	4.7273	0.	5532.2
10547	1.0636	4.7273	5.e-002	44.227
10548	1.0636	4.4545	0.	5581.7
10549	0.975	4.5455	0.	5582.1
10550	1.0636	4.5455	5.e-002	42.307
10551	1.0636	4.2727	0.	5631.7
10552	0.975	4.3636	0.	5638.9
10553	1.0636	4.3636	5.e-002	40.059
10554	1.0636	4.0909	0.	5682.7
10555	0.975	4.1818	0.	5696.6
10556	1.0636	4.1818	5.e-002	37.575
10557	1.0636	3.9091	0.	5730.8
10558	0.975	4.	0.	5750.8
10559	1.0636	4.	5.e-002	34.968
10560	1.0636	3.7273	0.	5773.1
10561	0.975	3.8182	0.	5798.9
10562	1.0636	3.8182	5.e-002	32.384
10563	1.0636	3.5455	0.	5807.7
10564	0.975	3.6364	0.	5839.1
10565	1.0636	3.6364	5.e-002	29.984
10566	1.0636	3.3636	0.	5833.3
10567	0.975	3.4545	0.	5870.
10568	1.0636	3.4545	5.e-002	27.949
10569	1.0636	3.1818	0.	5848.9
10570	0.975	3.2727	0.	5891.1
10571	1.0636	3.2727	5.e-002	26.458
10572	1.0636	3.	0.	5854.2
10573	0.975	3.0909	0.	5901.7
10574	1.0636	3.0909	5.e-002	25.666
10575	1.0636	2.8182	0.	5848.9
10576	0.975	2.9091	0.	5901.7
10577	1.0636	2.9091	5.e-002	25.666
10578	1.0636	2.6364	0.	5833.3
10579	0.975	2.7273	0.	5891.1
10580	1.0636	2.7273	5.e-002	26.458
10581	1.0636	2.4545	0.	5807.7
10582	0.975	2.5455	0.	5870.
10583	1.0636	2.5455	5.e-002	27.949
10584	1.0636	2.2727	0.	5773.1
10585	0.975	2.3636	0.	5839.1
10586	1.0636	2.3636	5.e-002	29.984
10587	1.0636	2.0909	0.	5730.8
10588	0.975	2.1818	0.	5798.9
10589	1.0636	2.1818	5.e-002	32.384
10590	1.0636	1.9091	0.	5682.7
10591	0.975	2.	0.	5750.8
10592	1.0636	2.	5.e-002	34.968
10593	1.0636	1.7273	0.	5631.7
10594	0.975	1.8182	0.	5696.6
10595	1.0636	1.8182	5.e-002	37.575
10596	1.0636	1.5455	0.	5581.7
10597	0.975	1.6364	0.	5638.9
10598	1.0636	1.6364	5.e-002	40.059
10599	1.0636	1.3636	0.	5538.
10600	0.975	1.4545	0.	5582.1
10601	1.0636	1.4545	5.e-002	42.307
10602	1.0636	1.1818	0.	5507.8
10603	0.975	1.2727	0.	5532.2
10604	1.0636	1.2727	5.e-002	44.227
10605	1.0636	1.	0.	5499.2
10606	0.975	1.0909	0.	5497.4
10607	1.0636	1.0909	5.e-002	45.743
10608	1.0636	0.81818	0.	5520.6
10609	0.975	0.90909	0.	5488.1
10610	1.0636	0.90909	5.e-002	46.725
10611	1.0636	0.63636	0.	5577.9
10612	0.975	0.72727	0.	5515.
10613	1.0636	0.72727	5.e-002	46.864
10614	1.0636	0.45455	0.	5672.6
10615	0.975	0.54545	0.	5585.7
10616	1.0636	0.54545	5.e-002	45.58
10617	1.0636	0.27273	0.	5815.1
10618	0.975	0.36364	0.	5701.2
10619	1.0636	0.36364	5.e-002	42.084
10620	0.975	0.18182	0.	5886.2
10621	1.0636	0.18182	5.e-002	57.246
10622	1.0636	9.0909e-002	0.	5842.5
10623	0.88636	5.7273	0.	5769.8
10624	0.79773	5.8182	0.	5812.9
10625	0.88636	5.8182	5.e-002	56.608
10626	0.88636	5.9091	0.	5801.
10627	0.88636	5.5455	0.	5611.9
10628	0.79773	5.6364	0.	5601.2
10629	0.88636	5.6364	5.e-002	51.412
10630	0.88636	5.3636	0.	5520.1
10631	0.79773	5.4545	0.	5486.6
10632	0.88636	5.4545	5.e-002	53.786
10633	0.88636	5.1818	0.	5480.2
10634	0.79773	5.2727	0.	5438.7
10635	0.88636	5.2727	5.e-002	52.938
10636	0.88636	5.	0.	5484.6
10637	0.79773	5.0909	0.	5446.7
10638	0.88636	5.0909	5.e-002	51.128
10639	0.88636	4.8182	0.	5520.7
10640	0.79773	4.9091	0.	5492.7
10641	0.88636	4.9091	5.e-002	49.152
10642	0.88636	4.6364	0.	5575.7
10643	0.79773	4.7273	0.	5559.7
10644	0.88636	4.7273	5.e-002	47.144
10645	0.88636	4.4545	0.	5639.1
10646	0.79773	4.5455	0.	5634.8
10647	0.88636	4.5455	5.e-002	45.033
10648	0.88636	4.2727	0.	5703.7
10649	0.79773	4.3636	0.	5709.7
10650	0.88636	4.3636	5.e-002	42.776
10651	0.88636	4.0909	0.	5764.6
10652	0.79773	4.1818	0.	5779.5
10653	0.88636	4.1818	5.e-002	40.404
10654	0.88636	3.9091	0.	5819.
10655	0.79773	4.	0.	5841.4
10656	0.88636	4.	5.e-002	38.007
10657	0.88636	3.7273	0.	5864.9
10658	0.79773	3.8182	0.	5893.8
10659	0.88636	3.8182	5.e-002	35.704
10660	0.88636	3.5455	0.	5901.4
10661	0.79773	3.6364	0.	5936.1
10662	0.88636	3.6364	5.e-002	33.63
10663	0.88636	3.3636	0.	5927.8
10664	0.79773	3.4545	0.	5968.
10665	0.88636	3.4545	5.e-002	31.919
10666	0.88636	3.1818	0.	5943.8
10667	0.79773	3.2727	0.	5989.2
10668	0.88636	3.2727	5.e-002	30.696
10669	0.88636	3.	0.	5949.1
10670	0.79773	3.0909	0.	5999.8
10671	0.88636	3.0909	5.e-002	30.057
10672	0.88636	2.8182	0.	5943.8
10673	0.79773	2.9091	0.	5999.8
10674	0.88636	2.9091	5.e-002	30.057
10675	0.88636	2.6364	0.	5927.8
10676	0.79773	2.7273	0.	5989.2
10677	0.88636	2.7273	5.e-002	30.696
10678	0.88636	2.4545	0.	5901.4
10679	0.79773	2.5455	0.	5968.
10680	0.88636	2.5455	5.e-002	31.919
10681	0.88636	2.2727	0.	5864.9
10682	0.79773	2.3636	0.	5936.1
10683	0.88636	2.3636	5.e-002	33.63
10684	0.88636	2.0909	0.	5819.
10685	0.79773	2.1818	0.	5893.8
10686	0.88636	2.1818	5.e-002	35.704
10687	0.88636	1.9091	0.	5764.6
10688	0.79773	2.	0.	5841.4
10689	0.88636	2.	5.e-002	38.007
10690	0.88636	1.7273	0.	5703.7
10691	0.79773	1.8182	0.	5779.5
10692	0.88636	1.8182	5.e-002	40.404
10693	0.88636	1.5455	0.	5639.1
10694	0.79773	1.6364	0.	5709.7
10695	0.88636	1.6364	5.e-002	42.776
10696	0.88636	1.3636	0.	5575.7
10697	0.79773	1.4545	0.	5634.8
10698	0.88636	1.4545	5.e-002	45.033
10699	0.88636	1.1818	0.	5520.7
10700	0.79773	1.2727	0.	5559.7
10701	0.88636	1.2727	5.e-002	47.144
10702	0.88636	1.	0.	5484.6
10703	0.79773	1.0909	0.	5492.7
10704	0.88636	1.0909	5.e-002	49.152
10705	0.88636	0.81818	0.	5480.2
10706	0.79773	0.90909	0.	5446.7
10707	0.88636	0.90909	5.e-002	51.128
10708	0.88636	0.63636	0.	5520.1
10709	0.79773	0.72727	0.	5438.7
10710	0.88636	0.72727	5.e-002	52.938
10711	0.88636	0.45455	0.	5611.9
10712	0.79773	0.54545	0.	5486.6
10713	0.88636	0.54545	5.e-002	53.786
10714	0.88636	0.27273	0.	5769.8
10715	0.79773	0.36364	0.	5601.2
10716	0.88636	0.36364	5.e-002	51.412
10717	0.79773	0.18182	0.	5812.9
10718	0.88636	0.18182	5.e-002	56.608
10719	0.88636	9.0909e-002	0.	5801.
10720	0.70909	5.7273	0.	5640.3
10721	0.62045	5.8182	0.	5640.3
10722	0.70909	5.8182	5.e-002	59.169
10723	0.70909	5.9091	0.	5675.2
10724	0.70909	5.5455	0.	5472.
10725	0.62045	5.6364	0.	5416.9
10726	0.70909	5.6364	5.e-002	67.214
10727	0.70909	5.3636	0.	5401.2
10728	0.62045	5.4545	0.	5336.8
10729	0.70909	5.4545	5.e-002	65.919
10730	0.70909	5.1818	0.	5402.3
10731	0.62045	5.2727	0.	5351.3
10732	0.70909	5.2727	5.e-002	61.26
10733	0.70909	5.	0.	5453.1
10734	0.62045	5.0909	0.	5426.4
10735	0.70909	5.0909	5.e-002	57.19
10736	0.70909	4.8182	0.	5530.8
10737	0.62045	4.9091	0.	5529.4
10738	0.70909	4.9091	5.e-002	54.117
10739	0.70909	4.6364	0.	5618.4
10740	0.62045	4.7273	0.	5639.
10741	0.70909	4.7273	5.e-002	51.571
10742	0.70909	4.4545	0.	5705.3
10743	0.62045	4.5455	0.	5743.4
10744	0.70909	4.5455	5.e-002	49.158
10745	0.70909	4.2727	0.	5785.5
10746	0.62045	4.3636	0.	5837.4
10747	0.70909	4.3636	5.e-002	46.717
10748	0.70909	4.0909	0.	5856.3
10749	0.62045	4.1818	0.	5918.6
10750	0.70909	4.1818	5.e-002	44.25
10751	0.70909	3.9091	0.	5916.3
10752	0.62045	4.	0.	5986.8
10753	0.70909	4.	5.e-002	41.837
10754	0.70909	3.7273	0.	5965.
10755	0.62045	3.8182	0.	6042.1
10756	0.70909	3.8182	5.e-002	39.586
10757	0.70909	3.5455	0.	6002.7
10758	0.62045	3.6364	0.	6085.3
10759	0.70909	3.6364	5.e-002	37.613
10760	0.70909	3.3636	0.	6029.3
10761	0.62045	3.4545	0.	6117.1
10762	0.70909	3.4545	5.e-002	36.023
10763	0.70909	3.1818	0.	6045.2
10764	0.62045	3.2727	0.	6137.9
10765	0.70909	3.2727	5.e-002	34.907
10766	0.70909	3.	0.	6050.5
10767	0.62045	3.0909	0.	6148.2
10768	0.70909	3.0909	5.e-002	34.331
10769	0.70909	2.8182	0.	6045.2
10770	0.62045	2.9091	0.	6148.2
10771	0.70909	2.9091	5.e-002	34.331
10772	0.70909	2.6364	0.	6029.3
10773	0.62045	2.7273	0.	6137.9
10774	0.70909	2.7273	5.e-002	34.907
10775	0.70909	2.4545	0.	6002.7
10776	0.62045	2.5455	0.	6117.1
10777	0.70909	2.5455	5.e-002	36.023
10778	0.70909	2.2727	0.	5965.
10779	0.62045	2.3636	0.	6085.3
10780	0.70909	2.3636	5.e-002	37.613
10781	0.70909	2.0909	0.	5916.3
10782	0.62045	2.1818	0.	6042.1
10783	0.70909	2.1818	5.e-002	39.586
10784	0.70909	1.9091	0.	5856.3
10785	0.62045	2.	0.	5986.8
10786	0.70909	2.	5.e-002	41.837
10787	0.70909	1.7273	0.	5785.5
10788	0.62045	1.8182	0.	5918.6
10789	0.70909	1.8182	5.e-002	44.25
10790	0.70909	1.5455	0.	5705.3
10791	0.62045	1.6364	0.	5837.4
10792	0.70909	1.6364	5.e-002	46.717
10793	0.70909	1.3636	0.	5618.4
10794	0.62045	1.4545	0.	5743.4
10795	0.70909	1.4545	5.e-002	49.158
10796	0.70909	1.1818	0.	5530.8
10797	0.62045	1.2727	0.	5639.
10798	0.70909	1.2727	5.e-002	51.571
10799	0.70909	1.	0.	5453.1
10800	0.62045	1.0909	0.	5529.4
10801	0.70909	1.0909	5.e-002	54.117
10802	0.70909	0.81818	0.	5402.3
10803	0.62045	0.90909	0.	5426.4
10804	0.70909	0.90909	5.e-002	57.19
10805	0.70909	0.63636	0.	5401.2
10806	0.62045	0.72727	0.	5351.3
10807	0.70909	0.72727	5.e-002	61.26
10808	0.70909	0.45455	0.	5472.
10809	0.62045	0.54545	0.	5336.8
10810	0.70909	0.54545	5.e-002	65.919
10811	0.70909	0.27273	0.	5640.3
10812	0.62045	0.36364	0.	5416.9
10813	0.70909	0.36364	5.e-002	67.214
10814	0.62045	0.18182	0.	5640.3
10815	0.70909	0.18182	5.e-002	59.169
10816	0.70909	9.0909e-002	0.	5675.2
10817	0.53182	5.7273	0.	5409.
10818	0.44318	5.8182	0.	5264.2
10819	0.53182	5.8182	5.e-002	72.074
10820	0.53182	5.9091	0.	5422.4
10821	0.53182	5.5455	0.	5275.
10822	0.44318	5.6364	0.	5034.7
10823	0.53182	5.6364	5.e-002	93.149
10824	0.53182	5.3636	0.	5282.4
10825	0.44318	5.4545	0.	5048.1
10826	0.53182	5.4545	5.e-002	82.281
10827	0.53182	5.1818	0.	5373.8
10828	0.44318	5.2727	0.	5180.5
10829	0.53182	5.2727	5.e-002	71.487
10830	0.53182	5.	0.	5502.7
10831	0.44318	5.0909	0.	5350.6
10832	0.53182	5.0909	5.e-002	64.743
10833	0.53182	4.8182	0.	5638.2
10834	0.44318	4.9091	0.	5518.5
10835	0.53182	4.9091	5.e-002	60.328
10836	0.53182	4.6364	0.	5764.8
10837	0.44318	4.7273	0.	5668.6
10838	0.53182	4.7273	5.e-002	56.889
10839	0.53182	4.4545	0.	5876.2
10840	0.44318	4.5455	0.	5796.7
10841	0.53182	4.5455	5.e-002	53.743
10842	0.53182	4.2727	0.	5971.
10843	0.44318	4.3636	0.	5903.1
10844	0.53182	4.3636	5.e-002	50.696
10845	0.53182	4.0909	0.	6049.5
10846	0.44318	4.1818	0.	5989.8
10847	0.53182	4.1818	5.e-002	47.752
10848	0.53182	3.9091	0.	6112.9
10849	0.44318	4.	0.	6059.2
10850	0.53182	4.	5.e-002	44.988
10851	0.53182	3.7273	0.	6162.7
10852	0.44318	3.8182	0.	6113.4
10853	0.53182	3.8182	5.e-002	42.498
10854	0.53182	3.5455	0.	6199.9
10855	0.44318	3.6364	0.	6154.5
10856	0.53182	3.6364	5.e-002	40.376
10857	0.53182	3.3636	0.	6225.7
10858	0.44318	3.4545	0.	6183.9
10859	0.53182	3.4545	5.e-002	38.703
10860	0.53182	3.1818	0.	6240.9
10861	0.44318	3.2727	0.	6202.9
10862	0.53182	3.2727	5.e-002	37.548
10863	0.53182	3.	0.	6245.9
10864	0.44318	3.0909	0.	6212.2
10865	0.53182	3.0909	5.e-002	36.958
10866	0.53182	2.8182	0.	6240.9
10867	0.44318	2.9091	0.	6212.2
10868	0.53182	2.9091	5.e-002	36.958
10869	0.53182	2.6364	0.	6225.7
10870	0.44318	2.7273	0.	6202.9
10871	0.53182	2.7273	5.e-002	37.548
10872	0.53182	2.4545	0.	6199.9
10873	0.44318	2.5455	0.	6183.9
10874	0.53182	2.5455	5.e-002	38.703
10875	0.53182	2.2727	0.	6162.7
10876	0.44318	2.3636	0.	6154.5
10877	0.53182	2.3636	5.e-002	40.376
10878	0.53182	2.0909	0.	6112.9
10879	0.44318	2.1818	0.	6113.4
10880	0.53182	2.1818	5.e-002	42.498
10881	0.53182	1.9091	0.	6049.5
10882	0.44318	2.	0.	6059.2
10883	0.53182	2.	5.e-002	44.988
10884	0.53182	1.7273	0.	5971.
10885	0.44318	1.8182	0.	5989.8
10886	0.53182	1.8182	5.e-002	47.752
10887	0.53182	1.5455	0.	5876.2
10888	0.44318	1.6364	0.	5903.1
10889	0.53182	1.6364	5.e-002	50.696
10890	0.53182	1.3636	0.	5764.8
10891	0.44318	1.4545	0.	5796.7
10892	0.53182	1.4545	5.e-002	53.743
10893	0.53182	1.1818	0.	5638.2
10894	0.44318	1.2727	0.	5668.6
10895	0.53182	1.2727	5.e-002	56.889
10896	0.53182	1.	0.	5502.7
10897	0.44318	1.0909	0.	5518.5
10898	0.53182	1.0909	5.e-002	60.328
10899	0.53182	0.81818	0.	5373.8
10900	0.44318	0.90909	0.	5350.6
10901	0.53182	0.90909	5.e-002	64.743
10902	0.53182	0.63636	0.	5282.4
10903	0.44318	0.72727	0.	5180.5
10904	0.53182	0.72727	5.e-002	71.487
10905	0.53182	0.45455	0.	5275.
10906	0.44318	0.54545	0.	5048.1
10907	0.53182	0.54545	5.e-002	82.281
10908	0.53182	0.27273	0.	5409.
10909	0.44318	0.36364	0.	5034.7
10910	0.53182	0.36364	5.e-002	93.149
10911	0.44318	0.18182	0.	5264.2
10912	0.53182	0.18182	5.e-002	72.074
10913	0.53182	9.0909e-002	0.	5422.4
10914	0.35455	5.7273	0.	4873.1
10915	0.26591	5.8182	0.	4540.9
10916	0.35455	5.8182	5.e-002	123.89
10917	0.35455	5.9091	0.	4905.8
10918	0.35455	5.5455	0.	4794.
10919	0.26591	5.6364	0.	4674.1
10920	0.35455	5.6364	5.e-002	134.85
10921	0.35455	5.3636	0.	4939.5
10922	0.26591	5.4545	0.	5053.1
10923	0.35455	5.4545	5.e-002	104.28
10924	0.35455	5.1818	0.	5155.4
10925	0.26591	5.2727	0.	5421.2
10926	0.35455	5.2727	5.e-002	87.729
10927	0.35455	5.	0.	5366.3
10928	0.26591	5.0909	0.	5726.9
10929	0.35455	5.0909	5.e-002	78.675
10930	0.35455	4.8182	0.	5549.4
10931	0.26591	4.9091	0.	5969.6
10932	0.35455	4.9091	5.e-002	72.917
10933	0.35455	4.6364	0.	5701.1
10934	0.26591	4.7273	0.	6159.7
10935	0.35455	4.7273	5.e-002	68.178
10936	0.35455	4.4545	0.	5824.1
10937	0.26591	4.5455	0.	6307.5
10938	0.35455	4.5455	5.e-002	63.871
10939	0.35455	4.2727	0.	5922.4
10940	0.26591	4.3636	0.	6422.1
10941	0.35455	4.3636	5.e-002	59.859
10942	0.35455	4.0909	0.	5999.9
10943	0.26591	4.1818	0.	6510.2
10944	0.35455	4.1818	5.e-002	56.154
10945	0.35455	3.9091	0.	6060.
10946	0.26591	4.	0.	6577.2
10947	0.35455	4.	5.e-002	52.807
10948	0.35455	3.7273	0.	6105.6
10949	0.26591	3.8182	0.	6627.3
10950	0.35455	3.8182	5.e-002	49.886
10951	0.35455	3.5455	0.	6138.9
10952	0.26591	3.6364	0.	6663.8
10953	0.35455	3.6364	5.e-002	47.456
10954	0.35455	3.3636	0.	6161.4
10955	0.26591	3.4545	0.	6689.1
10956	0.35455	3.4545	5.e-002	45.576
10957	0.35455	3.1818	0.	6174.5
10958	0.26591	3.2727	0.	6705.
10959	0.35455	3.2727	5.e-002	44.294
10960	0.35455	3.	0.	6178.8
10961	0.26591	3.0909	0.	6712.7
10962	0.35455	3.0909	5.e-002	43.644
10963	0.35455	2.8182	0.	6174.5
10964	0.26591	2.9091	0.	6712.7
10965	0.35455	2.9091	5.e-002	43.644
10966	0.35455	2.6364	0.	6161.4
10967	0.26591	2.7273	0.	6705.
10968	0.35455	2.7273	5.e-002	44.294
10969	0.35455	2.4545	0.	6138.9
10970	0.26591	2.5455	0.	6689.1
10971	0.35455	2.5455	5.e-002	45.576
10972	0.35455	2.2727	0.	6105.6
10973	0.26591	2.3636	0.	6663.8
10974	0.35455	2.3636	5.e-002	47.456
10975	0.35455	2.0909	0.	6060.
10976	0.26591	2.1818	0.	6627.3
10977	0.35455	2.1818	5.e-002	49.886
10978	0.35455	1.9091	0.	5999.9
10979	0.26591	2.	0.	6577.2
10980	0.35455	2.	5.e-002	52.807
10981	0.35455	1.7273	0.	5922.4
10982	0.26591	1.8182	0.	6510.2
10983	0.35455	1.8182	5.e-002	56.154
10984	0.35455	1.5455	0.	5824.1
10985	0.26591	1.6364	0.	6422.1
10986	0.35455	1.6364	5.e-002	59.859
10987	0.35455	1.3636	0.	5701.1
10988	0.26591	1.4545	0.	6307.5
10989	0.35455	1.4545	5.e-002	63.871
10990	0.35455	1.1818	0.	5549.4
10991	0.26591	1.2727	0.	6159.7
10992	0.35455	1.2727	5.e-002	68.178
10993	0.35455	1.	0.	5366.3
10994	0.26591	1.0909	0.	5969.6
10995	0.35455	1.0909	5.e-002	72.917
10996	0.35455	0.81818	0.	5155.4
10997	0.26591	0.90909	0.	5726.9
10998	0.35455	0.90909	5.e-002	78.675
10999	0.35455	0.63636	0.	4939.5
11000	0.26591	0.72727	0.	5421.2
11001	0.35455	0.72727	5.e-002	87.729
11002	0.35455	0.45455	0.	4794.
11003	0.26591	0.54545	0.	5053.1
11004	0.35455	0.54545	5.e-002	104.28
11005	0.35455	0.27273	0.	4873.1
11006	0.26591	0.36364	0.	4674.1
11007	0.35455	0.36364	5.e-002	134.85
11008	0.26591	0.18182	0.	4540.9
11009	0.35455	0.18182	5.e-002	123.89
11010	0.35455	9.0909e-002	0.	4905.8
11011	0.17727	5.7273	0.	4309.3
11012	0.17727	5.8182	5.e-002	297.97
11013	0.17727	5.9091	0.	3868.3
11014	8.8636e-002	5.8182	0.	2758.
11015	0.17727	5.5455	0.	4959.9
11016	0.17727	5.6364	5.e-002	187.3
11017	8.8636e-002	5.6364	0.	3481.5
11018	0.17727	5.3636	0.	5564.1
11019	0.17727	5.4545	5.e-002	130.28
11020	8.8636e-002	5.4545	0.	4062.7
11021	0.17727	5.1818	0.	6014.6
11022	0.17727	5.2727	5.e-002	101.74
11023	8.8636e-002	5.2727	0.	4472.
11024	0.17727	5.	0.	6346.2
11025	0.17727	5.0909	5.e-002	86.331
11026	8.8636e-002	5.0909	0.	4761.5
11027	0.17727	4.8182	0.	6592.2
11028	0.17727	4.9091	5.e-002	75.125
11029	8.8636e-002	4.9091	0.	4971.3
11030	0.17727	4.6364	0.	6776.1
11031	0.17727	4.7273	5.e-002	66.317
11032	8.8636e-002	4.7273	0.	5125.5
11033	0.17727	4.4545	0.	6914.2
11034	0.17727	4.5455	5.e-002	59.015
11035	8.8636e-002	4.5455	0.	5239.8
11036	0.17727	4.2727	0.	7017.7
11037	0.17727	4.3636	5.e-002	52.802
11038	8.8636e-002	4.3636	0.	5324.4
11039	0.17727	4.0909	0.	7094.7
11040	0.17727	4.1818	5.e-002	47.467
11041	8.8636e-002	4.1818	0.	5386.8
11042	0.17727	3.9091	0.	7151.4
11043	0.17727	4.	5.e-002	42.91
11044	8.8636e-002	4.	0.	5432.3
11045	0.17727	3.7273	0.	7192.2
11046	0.17727	3.8182	5.e-002	39.092
11047	8.8636e-002	3.8182	0.	5464.8
11048	0.17727	3.5455	0.	7220.6
11049	0.17727	3.6364	5.e-002	36.008
11050	8.8636e-002	3.6364	0.	5487.4
11051	0.17727	3.3636	0.	7239.1
11052	0.17727	3.4545	5.e-002	33.672
11053	8.8636e-002	3.4545	0.	5502.5
11054	0.17727	3.1818	0.	7249.6
11055	0.17727	3.2727	5.e-002	32.1
11056	8.8636e-002	3.2727	0.	5511.7
11057	0.17727	3.	0.	7253.
11058	0.17727	3.0909	5.e-002	31.31
11059	8.8636e-002	3.0909	0.	5516.
11060	0.17727	2.8182	0.	7249.6
11061	0.17727	2.9091	5.e-002	31.31
11062	8.8636e-002	2.9091	0.	5516.
11063	0.17727	2.6364	0.	7239.1
11064	0.17727	2.7273	5.e-002	32.1
11065	8.8636e-002	2.7273	0.	5511.7
11066	0.17727	2.4545	0.	7220.6
11067	0.17727	2.5455	5.e-002	33.672
11068	8.8636e-002	2.5455	0.	5502.5
11069	0.17727	2.2727	0.	7192.2
11070	0.17727	2.3636	5.e-002	36.008
11071	8.8636e-002	2.3636	0.	5487.4
11072	0.17727	2.0909	0.	7151.4
11073	0.17727	2.1818	5.e-002	39.092
11074	8.8636e-002	2.1818	0.	5464.8
11075	0.17727	1.9091	0.	7094.7
11076	0.17727	2.	5.e-002	42.91
11077	8.8636e-002	2.	0.	5432.3
11078	0.17727	1.7273	0.	7017.7
11079	0.17727	1.8182	5.e-002	47.467
11080	8.8636e-002	1.8182	0.	5386.8
11081	0.17727	1.5455	0.	6914.2
11082	0.17727	1.6364	5.e-002	52.802
11083	8.8636e-002	1.6364	0.	5324.4
11084	0.17727	1.3636	0.	6776.1
11085	0.17727	1.4545	5.e-002	59.015
11086	8.8636e-002	1.4545	0.	5239.8
11087	0.17727	1.1818	0.	6592.2
11088	0.17727	1.2727	5.e-002	66.317
11089	8.8636e-002	1.2727	0.	5125.5
11090	0.17727	1.	0.	6346.2
11091	0.17727	1.0909	5.e-002	75.125
11092	8.8636e-002	1.0909	0.	4971.3
11093	0.17727	0.81818	0.	6014.6
11094	0.17727	0.90909	5.e-002	86.331
11095	8.8636e-002	0.90909	0.	4761.5
11096	0.17727	0.63636	0.	5564.1
11097	0.17727	0.72727	5.e-002	101.74
11098	8.8636e-002	0.72727	0.	4472.
11099	0.17727	0.45455	0.	4959.9
11100	0.17727	0.54545	5.e-002	130.28
11101	8.8636e-002	0.54545	0.	4062.7
11102	0.17727	0.27273	0.	4309.3
11103	0.17727	0.36364	5.e-002	187.3
11104	8.8636e-002	0.36364	0.	3481.5
11105	0.17727	0.18182	5.e-002	297.97
11106	0.17727	9.0909e-002	0.	3868.3
11107	8.8636e-002	0.18182	0.	2758.
11108	4.3435	5.8182	0.	1199.
11109	4.2512	5.7273	0.	1193.6
11110	4.2512	5.8182	5.e-002	128.71
11111	4.2512	5.9091	0.	765.48
11112	4.159	5.8182	0.	680.06
11113	4.5281	5.8182	0.	1721.9
11114	4.4358	5.7273	0.	1579.1
11115	4.4358	5.8182	5.e-002	114.31
11116	4.4358	5.9091	0.	1339.7
11117	4.7127	5.8182	0.	2214.1
11118	4.6204	5.7273	0.	2064.7
11119	4.6204	5.8182	5.e-002	105.42
11120	4.6204	5.9091	0.	1878.8
11121	4.8972	5.8182	0.	2643.6
11122	4.8049	5.7273	0.	2514.8
11123	4.8049	5.8182	5.e-002	94.606
11124	4.8049	5.9091	0.	2355.4
11125	5.0818	5.8182	0.	3006.3
11126	4.9895	5.7273	0.	2903.4
11127	4.9895	5.8182	5.e-002	82.593
11128	4.9895	5.9091	0.	2764.
11129	5.2664	5.8182	0.	3304.7
11130	5.1741	5.7273	0.	3226.5
11131	5.1741	5.8182	5.e-002	70.33
11132	5.1741	5.9091	0.	3105.4
11133	5.4509	5.8182	0.	3543.8
11134	5.3586	5.7273	0.	3487.
11135	5.3586	5.8182	5.e-002	58.567
11136	5.3586	5.9091	0.	3383.4
11137	5.6355	5.8182	0.	3730.6
11138	5.5432	5.7273	0.	3691.4
11139	5.5432	5.8182	5.e-002	47.804
11140	5.5432	5.9091	0.	3604.3
11141	5.8201	5.8182	0.	3872.2
11142	5.7278	5.7273	0.	3847.1
11143	5.7278	5.8182	5.e-002	38.299
11144	5.7278	5.9091	0.	3775.1
11145	6.0046	5.8182	0.	3975.7
11146	5.9123	5.7273	0.	3961.6
11147	5.9123	5.8182	5.e-002	30.131
11148	5.9123	5.9091	0.	3903.2
11149	6.1892	5.8182	0.	4047.6
11150	6.0969	5.7273	0.	4042.
11151	6.0969	5.8182	5.e-002	23.259
11152	6.0969	5.9091	0.	3995.4
11153	6.3738	5.8182	0.	4093.5
11154	6.2815	5.7273	0.	4094.5
11155	6.2815	5.8182	5.e-002	17.579
11156	6.2815	5.9091	0.	4058.
11157	6.5583	5.8182	0.	4118.4
11158	6.466	5.7273	0.	4124.5
11159	6.466	5.8182	5.e-002	12.953
11160	6.466	5.9091	0.	4096.4
11161	6.7429	5.8182	0.	4126.4
11162	6.6506	5.7273	0.	4136.3
11163	6.6506	5.8182	5.e-002	9.2349
11164	6.6506	5.9091	0.	4115.3
11165	6.9275	5.8182	0.	4120.9
11166	6.8352	5.7273	0.	4133.7
11167	6.8352	5.8182	5.e-002	6.2875
11168	6.8352	5.9091	0.	4118.4
11169	7.112	5.8182	0.	4104.6
11170	7.0198	5.7273	0.	4119.6
11171	7.0198	5.8182	5.e-002	3.9885
11172	7.0198	5.9091	0.	4109.1
11173	7.2966	5.8182	0.	4079.9
11174	7.2043	5.7273	0.	4096.6
11175	7.2043	5.8182	5.e-002	2.2445
11176	7.2043	5.9091	0.	4089.8
11177	7.4812	5.8182	0.	4048.6
11178	7.3889	5.7273	0.	4066.5
11179	7.3889	5.8182	5.e-002	1.0539
11180	7.3889	5.9091	0.	4062.6
11181	7.6657	5.8182	0.	4012.
11182	7.5735	5.7273	0.	4031.
11183	7.5735	5.8182	5.e-002	0.80636
11184	7.5735	5.9091	0.	4029.4
11185	7.8503	5.8182	0.	3971.5
11186	7.758	5.7273	0.	3991.2
11187	7.758	5.8182	5.e-002	1.2903
11188	7.758	5.9091	0.	3991.3
11189	8.0349	5.8182	0.	3927.9
11190	7.9426	5.7273	0.	3948.2
11191	7.9426	5.8182	5.e-002	1.7552
11192	7.9426	5.9091	0.	3949.5
11193	8.2194	5.8182	0.	3882.
11194	8.1272	5.7273	0.	3902.7
11195	8.1272	5.8182	5.e-002	2.0904
11196	8.1272	5.9091	0.	3904.9
11197	8.404	5.8182	0.	3834.3
11198	8.3117	5.7273	0.	3855.3
11199	8.3117	5.8182	5.e-002	2.306
11200	8.3117	5.9091	0.	3858.1
11201	8.5886	5.8182	0.	3785.2
11202	8.4963	5.7273	0.	3806.5
11203	8.4963	5.8182	5.e-002	2.4242
11204	8.4963	5.9091	0.	3809.7
11205	8.7731	5.8182	0.	3735.2
11206	8.6809	5.7273	0.	3756.7
11207	8.6809	5.8182	5.e-002	2.4666
11208	8.6809	5.9091	0.	3760.1
11209	8.9577	5.8182	0.	3684.5
11210	8.8654	5.7273	0.	3706.2
11211	8.8654	5.8182	5.e-002	2.4511
11212	8.8654	5.9091	0.	3709.5
11213	9.1423	5.8182	0.	3633.3
11214	9.05	5.7273	0.	3655.1
11215	9.05	5.8182	5.e-002	2.3926
11216	9.05	5.9091	0.	3658.4
11217	9.3269	5.8182	0.	3581.8
11218	9.2346	5.7273	0.	3603.7
11219	9.2346	5.8182	5.e-002	2.3029
11220	9.2346	5.9091	0.	3606.8
11221	9.5114	5.8182	0.	3530.1
11222	9.4191	5.7273	0.	3552.1
11223	9.4191	5.8182	5.e-002	2.1915
11224	9.4191	5.9091	0.	3554.9
11225	9.696	5.8182	0.	3478.4
11226	9.6037	5.7273	0.	3500.4
11227	9.6037	5.8182	5.e-002	2.0657
11228	9.6037	5.9091	0.	3502.9
11229	9.8806	5.8182	0.	3426.6
11230	9.7883	5.7273	0.	3448.7
11231	9.7883	5.8182	5.e-002	1.9313
11232	9.7883	5.9091	0.	3450.8
11233	10.065	5.8182	0.	3374.8
11234	9.9728	5.7273	0.	3397.
11235	9.9728	5.8182	5.e-002	1.7926
11236	9.9728	5.9091	0.	3398.7
11237	10.25	5.8182	0.	3323.2
11238	10.157	5.7273	0.	3345.4
11239	10.157	5.8182	5.e-002	1.6529
11240	10.157	5.9091	0.	3346.7
11241	10.434	5.8182	0.	3271.7
11242	10.342	5.7273	0.	3293.9
11243	10.342	5.8182	5.e-002	1.5148
11244	10.342	5.9091	0.	3294.8
11245	10.619	5.8182	0.	3220.3
11246	10.527	5.7273	0.	3242.5
11247	10.527	5.8182	5.e-002	1.38
11248	10.527	5.9091	0.	3243.1
11249	10.803	5.8182	0.	3169.1
11250	10.711	5.7273	0.	3191.3
11251	10.711	5.8182	5.e-002	1.2499
11252	10.711	5.9091	0.	3191.5
11253	10.988	5.8182	0.	3118.
11254	10.896	5.7273	0.	3140.3
11255	10.896	5.8182	5.e-002	1.1255
11256	10.896	5.9091	0.	3140.1
11257	11.173	5.8182	0.	3067.2
11258	11.08	5.7273	0.	3089.4
11259	11.08	5.8182	5.e-002	1.0071
11260	11.08	5.9091	0.	3088.8
11261	11.357	5.8182	0.	3016.6
11262	11.265	5.7273	0.	3038.8
11263	11.265	5.8182	5.e-002	0.89525
11264	11.265	5.9091	0.	3037.8
11265	11.542	5.8182	0.	2966.1
11266	11.449	5.7273	0.	2988.3
11267	11.449	5.8182	5.e-002	0.79003
11268	11.449	5.9091	0.	2987.
11269	11.726	5.8182	0.	2915.9
11270	11.634	5.7273	0.	2938.
11271	11.634	5.8182	5.e-002	0.69138
11272	11.634	5.9091	0.	2936.4
11273	11.911	5.8182	0.	2865.9
11274	11.819	5.7273	0.	2888.
11275	11.819	5.8182	5.e-002	0.59921
11276	11.819	5.9091	0.	2886.1
11277	12.095	5.8182	0.	2816.1
11278	12.003	5.7273	0.	2838.1
11279	12.003	5.8182	5.e-002	0.51345
11280	12.003	5.9091	0.	2835.9
11281	12.28	5.8182	0.	2766.5
11282	12.188	5.7273	0.	2788.5
11283	12.188	5.8182	5.e-002	0.43384
11284	12.188	5.9091	0.	2786.
11285	12.465	5.8182	0.	2717.1
11286	12.372	5.7273	0.	2739.
11287	12.372	5.8182	5.e-002	0.36018
11288	12.372	5.9091	0.	2736.3
11289	12.649	5.8182	0.	2667.9
11290	12.557	5.7273	0.	2689.8
11291	12.557	5.8182	5.e-002	0.2921
11292	12.557	5.9091	0.	2686.8
11293	12.834	5.8182	0.	2618.9
11294	12.741	5.7273	0.	2640.8
11295	12.741	5.8182	5.e-002	0.22933
11296	12.741	5.9091	0.	2637.5
11297	13.018	5.8182	0.	2570.2
11298	12.926	5.7273	0.	2591.9
11299	12.926	5.8182	5.e-002	0.17173
11300	12.926	5.9091	0.	2588.4
11301	13.203	5.8182	0.	2521.6
11302	13.11	5.7273	0.	2543.3
11303	13.11	5.8182	5.e-002	0.11906
11304	13.11	5.9091	0.	2539.6
11305	13.387	5.8182	0.	2473.3
11306	13.295	5.7273	0.	2494.9
11307	13.295	5.8182	5.e-002	7.1364e-002
11308	13.295	5.9091	0.	2491.
11309	13.572	5.8182	0.	2425.2
11310	13.48	5.7273	0.	2446.7
11311	13.48	5.8182	5.e-002	3.0469e-002
11312	13.48	5.9091	0.	2442.5
11313	13.756	5.8182	0.	2377.3
11314	13.664	5.7273	0.	2398.7
11315	13.664	5.8182	5.e-002	2.4108e-002
11316	13.664	5.9091	0.	2394.3
11317	13.941	5.8182	0.	2329.6
11318	13.849	5.7273	0.	2350.9
11319	13.849	5.8182	5.e-002	5.5789e-002
11320	13.849	5.9091	0.	2346.4
11321	14.126	5.8182	0.	2282.1
11322	14.033	5.7273	0.	2303.3
11323	14.033	5.8182	5.e-002	8.8057e-002
11324	14.033	5.9091	0.	2298.6
11325	14.31	5.8182	0.	2234.8
11326	14.218	5.7273	0.	2256.
11327	14.218	5.8182	5.e-002	0.11776
11328	14.218	5.9091	0.	2251.
11329	14.495	5.8182	0.	2187.7
11330	14.402	5.7273	0.	2208.8
11331	14.402	5.8182	5.e-002	0.14465
11332	14.402	5.9091	0.	2203.7
11333	14.679	5.8182	0.	2140.9
11334	14.587	5.7273	0.	2161.8
11335	14.587	5.8182	5.e-002	0.16888
11336	14.587	5.9091	0.	2156.6
11337	14.864	5.8182	0.	2094.2
11338	14.772	5.7273	0.	2115.1
11339	14.772	5.8182	5.e-002	0.19059
11340	14.772	5.9091	0.	2109.6
11341	15.048	5.8182	0.	2047.8
11342	14.956	5.7273	0.	2068.5
11343	14.956	5.8182	5.e-002	0.20989
11344	14.956	5.9091	0.	2062.9
11345	15.233	5.8182	0.	2001.5
11346	15.141	5.7273	0.	2022.1
11347	15.141	5.8182	5.e-002	0.22699
11348	15.141	5.9091	0.	2016.4
11349	15.418	5.8182	0.	1955.5
11350	15.325	5.7273	0.	1976.
11351	15.325	5.8182	5.e-002	0.24207
11352	15.325	5.9091	0.	1970.1
11353	15.602	5.8182	0.	1909.6
11354	15.51	5.7273	0.	1930.1
11355	15.51	5.8182	5.e-002	0.25534
11356	15.51	5.9091	0.	1924.
11357	15.787	5.8182	0.	1864.
11358	15.694	5.7273	0.	1884.3
11359	15.694	5.8182	5.e-002	0.26695
11360	15.694	5.9091	0.	1878.1
11361	15.971	5.8182	0.	1818.6
11362	15.879	5.7273	0.	1838.8
11363	15.879	5.8182	5.e-002	0.27709
11364	15.879	5.9091	0.	1832.4
11365	16.156	5.8182	0.	1773.4
11366	16.064	5.7273	0.	1793.4
11367	16.064	5.8182	5.e-002	0.28605
11368	16.064	5.9091	0.	1786.9
11369	16.34	5.8182	0.	1728.3
11370	16.248	5.7273	0.	1748.3
11371	16.248	5.8182	5.e-002	0.29404
11372	16.248	5.9091	0.	1741.6
11373	16.525	5.8182	0.	1683.5
11374	16.433	5.7273	0.	1703.4
11375	16.433	5.8182	5.e-002	0.30134
11376	16.433	5.9091	0.	1696.6
11377	16.71	5.8182	0.	1638.9
11378	16.617	5.7273	0.	1658.6
11379	16.617	5.8182	5.e-002	0.30828
11380	16.617	5.9091	0.	1651.7
11381	16.894	5.8182	0.	1594.5
11382	16.802	5.7273	0.	1614.1
11383	16.802	5.8182	5.e-002	0.31524
11384	16.802	5.9091	0.	1607.
11385	17.079	5.8182	0.	1550.3
11386	16.986	5.7273	0.	1569.8
11387	16.986	5.8182	5.e-002	0.32258
11388	16.986	5.9091	0.	1562.5
11389	17.263	5.8182	0.	1506.3
11390	17.171	5.7273	0.	1525.7
11391	17.171	5.8182	5.e-002	0.33078
11392	17.171	5.9091	0.	1518.2
11393	17.448	5.8182	0.	1462.4
11394	17.356	5.7273	0.	1481.7
11395	17.356	5.8182	5.e-002	0.34035
11396	17.356	5.9091	0.	1474.1
11397	17.632	5.8182	0.	1418.8
11398	17.54	5.7273	0.	1438.
11399	17.54	5.8182	5.e-002	0.35186
11400	17.54	5.9091	0.	1430.2
11401	17.817	5.8182	0.	1375.4
11402	17.725	5.7273	0.	1394.5
11403	17.725	5.8182	5.e-002	0.36588
11404	17.725	5.9091	0.	1386.5
11405	18.002	5.8182	0.	1332.1
11406	17.909	5.7273	0.	1351.1
11407	17.909	5.8182	5.e-002	0.383
11408	17.909	5.9091	0.	1343.
11409	18.186	5.8182	0.	1289.1
11410	18.094	5.7273	0.	1308.
11411	18.094	5.8182	5.e-002	0.40379
11412	18.094	5.9091	0.	1299.7
11413	18.371	5.8182	0.	1246.2
11414	18.278	5.7273	0.	1265.
11415	18.278	5.8182	5.e-002	0.42882
11416	18.278	5.9091	0.	1256.5
11417	18.555	5.8182	0.	1203.6
11418	18.463	5.7273	0.	1222.2
11419	18.463	5.8182	5.e-002	0.45857
11420	18.463	5.9091	0.	1213.6
11421	18.74	5.8182	0.	1161.1
11422	18.648	5.7273	0.	1179.7
11423	18.648	5.8182	5.e-002	0.49353
11424	18.648	5.9091	0.	1170.8
11425	18.924	5.8182	0.	1118.8
11426	18.832	5.7273	0.	1137.3
11427	18.832	5.8182	5.e-002	0.53411
11428	18.832	5.9091	0.	1128.2
11429	19.109	5.8182	0.	1076.7
11430	19.017	5.7273	0.	1095.1
11431	19.017	5.8182	5.e-002	0.58068
11432	19.017	5.9091	0.	1085.8
11433	19.294	5.8182	0.	1034.7
11434	19.201	5.7273	0.	1053.1
11435	19.201	5.8182	5.e-002	0.63359
11436	19.201	5.9091	0.	1043.6
11437	19.478	5.8182	0.	992.97
11438	19.386	5.7273	0.	1011.2
11439	19.386	5.8182	5.e-002	0.69321
11440	19.386	5.9091	0.	1001.6
11441	19.663	5.8182	0.	951.37
11442	19.57	5.7273	0.	969.56
11443	19.57	5.8182	5.e-002	0.75988
11444	19.57	5.9091	0.	959.68
11445	19.847	5.8182	0.	909.94
11446	19.755	5.7273	0.	928.07
11447	19.755	5.8182	5.e-002	0.83397
11448	19.755	5.9091	0.	917.97
11449	20.032	5.8182	0.	868.67
11450	19.94	5.7273	0.	886.75
11451	19.94	5.8182	5.e-002	0.91591
11452	19.94	5.9091	0.	876.43
11453	20.216	5.8182	0.	827.56
11454	20.124	5.7273	0.	845.6
11455	20.124	5.8182	5.e-002	1.0061
11456	20.124	5.9091	0.	835.06
11457	20.401	5.8182	0.	786.6
11458	20.309	5.7273	0.	804.61
11459	20.309	5.8182	5.e-002	1.1051
11460	20.309	5.9091	0.	793.84
11461	20.585	5.8182	0.	745.79
11462	20.493	5.7273	0.	763.78
11463	20.493	5.8182	5.e-002	1.2135
11464	20.493	5.9091	0.	752.78
11465	20.77	5.8182	0.	705.13
11466	20.678	5.7273	0.	723.11
11467	20.678	5.8182	5.e-002	1.3317
11468	20.678	5.9091	0.	711.87
11469	20.955	5.8182	0.	664.6
11470	20.862	5.7273	0.	682.59
11471	20.862	5.8182	5.e-002	1.4605
11472	20.862	5.9091	0.	671.12
11473	21.139	5.8182	0.	624.2
11474	21.047	5.7273	0.	642.22
11475	21.047	5.8182	5.e-002	1.6006
11476	21.047	5.9091	0.	630.51
11477	21.324	5.8182	0.	583.94
11478	21.231	5.7273	0.	601.99
11479	21.231	5.8182	5.e-002	1.7529
11480	21.231	5.9091	0.	590.05
11481	21.508	5.8182	0.	543.79
11482	21.416	5.7273	0.	561.91
11483	21.416	5.8182	5.e-002	1.9182
11484	21.416	5.9091	0.	549.74
11485	21.693	5.8182	0.	503.77
11486	21.601	5.7273	0.	521.97
11487	21.601	5.8182	5.e-002	2.0976
11488	21.601	5.9091	0.	509.57
11489	21.877	5.8182	0.	463.86
11490	21.785	5.7273	0.	482.17
11491	21.785	5.8182	5.e-002	2.2922
11492	21.785	5.9091	0.	469.55
11493	22.062	5.8182	0.	424.07
11494	21.97	5.7273	0.	442.52
11495	21.97	5.8182	5.e-002	2.5033
11496	21.97	5.9091	0.	429.68
11497	22.247	5.8182	0.	384.39
11498	22.154	5.7273	0.	403.02
11499	22.154	5.8182	5.e-002	2.7327
11500	22.154	5.9091	0.	389.97
11501	22.431	5.8182	0.	344.83
11502	22.339	5.7273	0.	363.68
11503	22.339	5.8182	5.e-002	2.982
11504	22.339	5.9091	0.	350.43
11505	22.616	5.8182	0.	305.41
11506	22.523	5.7273	0.	324.53
11507	22.523	5.8182	5.e-002	3.2536
11508	22.523	5.9091	0.	311.08
11509	22.8	5.8182	0.	266.14
11510	22.708	5.7273	0.	285.6
11511	22.708	5.8182	5.e-002	3.5505
11512	22.708	5.9091	0.	271.95
11513	22.985	5.8182	0.	227.07
11514	22.893	5.7273	0.	246.96
11515	22.893	5.8182	5.e-002	3.8766
11516	22.893	5.9091	0.	233.08
11517	23.169	5.8182	0.	188.26
11518	23.077	5.7273	0.	208.72
11519	23.077	5.8182	5.e-002	4.2375
11520	23.077	5.9091	0.	194.54
11521	23.354	5.8182	0.	149.88
11522	23.262	5.7273	0.	171.1
11523	23.262	5.8182	5.e-002	4.6428
11524	23.262	5.9091	0.	156.44
11525	23.539	5.8182	0.	112.36
11526	23.446	5.7273	0.	134.53
11527	23.446	5.8182	5.e-002	5.1055
11528	23.446	5.9091	0.	118.97
11529	23.723	5.8182	0.	77.516
11530	23.631	5.7273	0.	100.21
11531	23.631	5.8182	5.e-002	5.6857
11532	23.631	5.9091	0.	82.655
11533	23.815	5.7273	0.	71.88
11534	23.815	5.8182	5.e-002	6.926
11535	23.908	5.8182	0.	48.606
11536	23.815	5.9091	0.	48.958
11537	4.3435	5.6364	0.	1523.7
11538	4.2512	5.5455	0.	1708.3
11539	4.2512	5.6364	5.e-002	116.47
11540	4.159	5.6364	0.	1118.6
11541	4.5281	5.6364	0.	1910.7
11542	4.4358	5.5455	0.	1897.4
11543	4.4358	5.6364	5.e-002	98.821
11544	4.7127	5.6364	0.	2360.3
11545	4.6204	5.5455	0.	2294.6
11546	4.6204	5.6364	5.e-002	89.742
11547	4.8972	5.6364	0.	2771.4
11548	4.8049	5.5455	0.	2700.1
11549	4.8049	5.6364	5.e-002	78.454
11550	5.0818	5.6364	0.	3121.3
11551	4.9895	5.5455	0.	3060.3
11552	4.9895	5.6364	5.e-002	66.575
11553	5.2664	5.6364	0.	3407.2
11554	5.1741	5.5455	0.	3360.7
11555	5.1741	5.6364	5.e-002	54.995
11556	5.4509	5.6364	0.	3633.4
11557	5.3586	5.5455	0.	3601.
11558	5.3586	5.6364	5.e-002	44.312
11559	5.6355	5.6364	0.	3807.1
11560	5.5432	5.5455	0.	3786.7
11561	5.5432	5.6364	5.e-002	34.839
11562	5.8201	5.6364	0.	3935.9
11563	5.7278	5.5455	0.	3925.5
11564	5.7278	5.6364	5.e-002	26.677
11565	6.0046	5.6364	0.	4027.6
11566	5.9123	5.5455	0.	4025.
11567	5.9123	5.6364	5.e-002	19.794
11568	6.1892	5.6364	0.	4088.8
11569	6.0969	5.5455	0.	4092.2
11570	6.0969	5.6364	5.e-002	14.086
11571	6.3738	5.6364	0.	4125.4
11572	6.2815	5.5455	0.	4133.5
11573	6.2815	5.6364	5.e-002	9.4249
11574	6.5583	5.6364	0.	4142.3
11575	6.466	5.5455	0.	4153.9
11576	6.466	5.6364	5.e-002	5.6912
11577	6.7429	5.6364	0.	4143.6
11578	6.6506	5.5455	0.	4157.8
11579	6.6506	5.6364	5.e-002	2.8677
11580	6.9275	5.6364	0.	4132.4
11581	6.8352	5.5455	0.	4148.7
11582	6.8352	5.6364	5.e-002	1.6205
11583	7.112	5.6364	0.	4111.6
11584	7.0198	5.5455	0.	4129.4
11585	7.0198	5.6364	5.e-002	2.6306
11586	7.2966	5.6364	0.	4083.3
11587	7.2043	5.5455	0.	4102.1
11588	7.2043	5.6364	5.e-002	3.9761
11589	7.4812	5.6364	0.	4049.
11590	7.3889	5.5455	0.	4068.7
11591	7.3889	5.6364	5.e-002	5.1188
11592	7.6657	5.6364	0.	4010.2
11593	7.5735	5.5455	0.	4030.5
11594	7.5735	5.6364	5.e-002	6.0329
11595	7.8503	5.6364	0.	3967.9
11596	7.758	5.5455	0.	3988.7
11597	7.758	5.6364	5.e-002	6.7487
11598	8.0349	5.6364	0.	3923.
11599	7.9426	5.5455	0.	3944.2
11600	7.9426	5.6364	5.e-002	7.3012
11601	8.2194	5.6364	0.	3876.
11602	8.1272	5.5455	0.	3897.5
11603	8.1272	5.6364	5.e-002	7.722
11604	8.404	5.6364	0.	3827.6
11605	8.3117	5.5455	0.	3849.4
11606	8.3117	5.6364	5.e-002	8.0376
11607	8.5886	5.6364	0.	3778.1
11608	8.4963	5.5455	0.	3800.
11609	8.4963	5.6364	5.e-002	8.2697
11610	8.7731	5.6364	0.	3727.8
11611	8.6809	5.5455	0.	3749.9
11612	8.6809	5.6364	5.e-002	8.436
11613	8.9577	5.6364	0.	3676.9
11614	8.8654	5.5455	0.	3699.2
11615	8.8654	5.6364	5.e-002	8.5507
11616	9.1423	5.6364	0.	3625.7
11617	9.05	5.5455	0.	3648.1
11618	9.05	5.6364	5.e-002	8.6253
11619	9.3269	5.6364	0.	3574.2
11620	9.2346	5.5455	0.	3596.7
11621	9.2346	5.6364	5.e-002	8.6688
11622	9.5114	5.6364	0.	3522.6
11623	9.4191	5.5455	0.	3545.2
11624	9.4191	5.6364	5.e-002	8.6883
11625	9.696	5.6364	0.	3470.9
11626	9.6037	5.5455	0.	3493.6
11627	9.6037	5.6364	5.e-002	8.6896
11628	9.8806	5.6364	0.	3419.3
11629	9.7883	5.5455	0.	3442.1
11630	9.7883	5.6364	5.e-002	8.6771
11631	10.065	5.6364	0.	3367.7
11632	9.9728	5.5455	0.	3390.6
11633	9.9728	5.6364	5.e-002	8.6542
11634	10.25	5.6364	0.	3316.2
11635	10.157	5.5455	0.	3339.2
11636	10.157	5.6364	5.e-002	8.6237
11637	10.434	5.6364	0.	3264.9
11638	10.342	5.5455	0.	3287.9
11639	10.342	5.6364	5.e-002	8.5877
11640	10.619	5.6364	0.	3213.7
11641	10.527	5.5455	0.	3236.7
11642	10.527	5.6364	5.e-002	8.5478
11643	10.803	5.6364	0.	3162.7
11644	10.711	5.5455	0.	3185.7
11645	10.711	5.6364	5.e-002	8.5053
11646	10.988	5.6364	0.	3111.8
11647	10.896	5.5455	0.	3134.9
11648	10.896	5.6364	5.e-002	8.4612
11649	11.173	5.6364	0.	3061.1
11650	11.08	5.5455	0.	3084.3
11651	11.08	5.6364	5.e-002	8.416
11652	11.357	5.6364	0.	3010.7
11653	11.265	5.5455	0.	3033.8
11654	11.265	5.6364	5.e-002	8.3704
11655	11.542	5.6364	0.	2960.4
11656	11.449	5.5455	0.	2983.5
11657	11.449	5.6364	5.e-002	8.3247
11658	11.726	5.6364	0.	2910.3
11659	11.634	5.5455	0.	2933.4
11660	11.634	5.6364	5.e-002	8.2793
11661	11.911	5.6364	0.	2860.4
11662	11.819	5.5455	0.	2883.5
11663	11.819	5.6364	5.e-002	8.2342
11664	12.095	5.6364	0.	2810.7
11665	12.003	5.5455	0.	2833.8
11666	12.003	5.6364	5.e-002	8.1897
11667	12.28	5.6364	0.	2761.2
11668	12.188	5.5455	0.	2784.2
11669	12.188	5.6364	5.e-002	8.1459
11670	12.465	5.6364	0.	2711.9
11671	12.372	5.5455	0.	2734.9
11672	12.372	5.6364	5.e-002	8.1029
11673	12.649	5.6364	0.	2662.8
11674	12.557	5.5455	0.	2685.8
11675	12.557	5.6364	5.e-002	8.0605
11676	12.834	5.6364	0.	2613.9
11677	12.741	5.5455	0.	2636.9
11678	12.741	5.6364	5.e-002	8.0188
11679	13.018	5.6364	0.	2565.2
11680	12.926	5.5455	0.	2588.1
11681	12.926	5.6364	5.e-002	7.9779
11682	13.203	5.6364	0.	2516.7
11683	13.11	5.5455	0.	2539.6
11684	13.11	5.6364	5.e-002	7.9377
11685	13.387	5.6364	0.	2468.4
11686	13.295	5.5455	0.	2491.3
11687	13.295	5.6364	5.e-002	7.8982
11688	13.572	5.6364	0.	2420.4
11689	13.48	5.5455	0.	2443.1
11690	13.48	5.6364	5.e-002	7.8594
11691	13.756	5.6364	0.	2372.5
11692	13.664	5.5455	0.	2395.2
11693	13.664	5.6364	5.e-002	7.8212
11694	13.941	5.6364	0.	2324.8
11695	13.849	5.5455	0.	2347.4
11696	13.849	5.6364	5.e-002	7.7838
11697	14.126	5.6364	0.	2277.4
11698	14.033	5.5455	0.	2299.9
11699	14.033	5.6364	5.e-002	7.7468
11700	14.31	5.6364	0.	2230.1
11701	14.218	5.5455	0.	2252.6
11702	14.218	5.6364	5.e-002	7.7105
11703	14.495	5.6364	0.	2183.
11704	14.402	5.5455	0.	2205.4
11705	14.402	5.6364	5.e-002	7.6747
11706	14.679	5.6364	0.	2136.2
11707	14.587	5.5455	0.	2158.5
11708	14.587	5.6364	5.e-002	7.6394
11709	14.864	5.6364	0.	2089.5
11710	14.772	5.5455	0.	2111.8
11711	14.772	5.6364	5.e-002	7.6045
11712	15.048	5.6364	0.	2043.1
11713	14.956	5.5455	0.	2065.2
11714	14.956	5.6364	5.e-002	7.5702
11715	15.233	5.6364	0.	1996.8
11716	15.141	5.5455	0.	2018.9
11717	15.141	5.6364	5.e-002	7.5364
11718	15.418	5.6364	0.	1950.8
11719	15.325	5.5455	0.	1972.8
11720	15.325	5.6364	5.e-002	7.503
11721	15.602	5.6364	0.	1904.9
11722	15.51	5.5455	0.	1926.8
11723	15.51	5.6364	5.e-002	7.4701
11724	15.787	5.6364	0.	1859.3
11725	15.694	5.5455	0.	1881.1
11726	15.694	5.6364	5.e-002	7.4376
11727	15.971	5.6364	0.	1813.8
11728	15.879	5.5455	0.	1835.6
11729	15.879	5.6364	5.e-002	7.4056
11730	16.156	5.6364	0.	1768.6
11731	16.064	5.5455	0.	1790.2
11732	16.064	5.6364	5.e-002	7.374
11733	16.34	5.6364	0.	1723.5
11734	16.248	5.5455	0.	1745.1
11735	16.248	5.6364	5.e-002	7.3428
11736	16.525	5.6364	0.	1678.7
11737	16.433	5.5455	0.	1700.2
11738	16.433	5.6364	5.e-002	7.3122
11739	16.71	5.6364	0.	1634.1
11740	16.617	5.5455	0.	1655.5
11741	16.617	5.6364	5.e-002	7.282
11742	16.894	5.6364	0.	1589.6
11743	16.802	5.5455	0.	1610.9
11744	16.802	5.6364	5.e-002	7.2522
11745	17.079	5.6364	0.	1545.4
11746	16.986	5.5455	0.	1566.6
11747	16.986	5.6364	5.e-002	7.2229
11748	17.263	5.6364	0.	1501.3
11749	17.171	5.5455	0.	1522.5
11750	17.171	5.6364	5.e-002	7.1941
11751	17.448	5.6364	0.	1457.5
11752	17.356	5.5455	0.	1478.6
11753	17.356	5.6364	5.e-002	7.1659
11754	17.632	5.6364	0.	1413.9
11755	17.54	5.5455	0.	1434.9
11756	17.54	5.6364	5.e-002	7.1383
11757	17.817	5.6364	0.	1370.4
11758	17.725	5.5455	0.	1391.3
11759	17.725	5.6364	5.e-002	7.1111
11760	18.002	5.6364	0.	1327.2
11761	17.909	5.5455	0.	1348.
11762	17.909	5.6364	5.e-002	7.0847
11763	18.186	5.6364	0.	1284.1
11764	18.094	5.5455	0.	1304.9
11765	18.094	5.6364	5.e-002	7.0588
11766	18.371	5.6364	0.	1241.3
11767	18.278	5.5455	0.	1262.
11768	18.278	5.6364	5.e-002	7.0337
11769	18.555	5.6364	0.	1198.6
11770	18.463	5.5455	0.	1219.2
11771	18.463	5.6364	5.e-002	7.0093
11772	18.74	5.6364	0.	1156.1
11773	18.648	5.5455	0.	1176.7
11774	18.648	5.6364	5.e-002	6.9857
11775	18.924	5.6364	0.	1113.8
11776	18.832	5.5455	0.	1134.3
11777	18.832	5.6364	5.e-002	6.963
11778	19.109	5.6364	0.	1071.7
11779	19.017	5.5455	0.	1092.2
11780	19.017	5.6364	5.e-002	6.9411
11781	19.294	5.6364	0.	1029.8
11782	19.201	5.5455	0.	1050.2
11783	19.201	5.6364	5.e-002	6.9202
11784	19.478	5.6364	0.	988.1
11785	19.386	5.5455	0.	1008.5
11786	19.386	5.6364	5.e-002	6.9004
11787	19.663	5.6364	0.	946.55
11788	19.57	5.5455	0.	966.87
11789	19.57	5.6364	5.e-002	6.8816
11790	19.847	5.6364	0.	905.18
11791	19.755	5.5455	0.	925.47
11792	19.755	5.6364	5.e-002	6.864
11793	20.032	5.6364	0.	863.98
11794	19.94	5.5455	0.	884.25
11795	19.94	5.6364	5.e-002	6.8477
11796	20.216	5.6364	0.	822.96
11797	20.124	5.5455	0.	843.21
11798	20.124	5.6364	5.e-002	6.8327
11799	20.401	5.6364	0.	782.11
11800	20.309	5.5455	0.	802.36
11801	20.309	5.6364	5.e-002	6.8192
11802	20.585	5.6364	0.	741.43
11803	20.493	5.5455	0.	761.69
11804	20.493	5.6364	5.e-002	6.8072
11805	20.77	5.6364	0.	700.91
11806	20.678	5.5455	0.	721.19
11807	20.678	5.6364	5.e-002	6.7968
11808	20.955	5.6364	0.	660.56
11809	20.862	5.5455	0.	680.87
11810	20.862	5.6364	5.e-002	6.7881
11811	21.139	5.6364	0.	620.37
11812	21.047	5.5455	0.	640.72
11813	21.047	5.6364	5.e-002	6.7812
11814	21.324	5.6364	0.	580.35
11815	21.231	5.5455	0.	600.75
11816	21.231	5.6364	5.e-002	6.7763
11817	21.508	5.6364	0.	540.49
11818	21.416	5.5455	0.	560.97
11819	21.416	5.6364	5.e-002	6.7735
11820	21.693	5.6364	0.	500.79
11821	21.601	5.5455	0.	521.37
11822	21.601	5.6364	5.e-002	6.7728
11823	21.877	5.6364	0.	461.28
11824	21.785	5.5455	0.	481.96
11825	21.785	5.6364	5.e-002	6.7744
11826	22.062	5.6364	0.	421.94
11827	21.97	5.5455	0.	442.77
11828	21.97	5.6364	5.e-002	6.7785
11829	22.247	5.6364	0.	382.82
11830	22.154	5.5455	0.	403.81
11831	22.154	5.6364	5.e-002	6.7853
11832	22.431	5.6364	0.	343.94
11833	22.339	5.5455	0.	365.12
11834	22.339	5.6364	5.e-002	6.7952
11835	22.616	5.6364	0.	305.34
11836	22.523	5.5455	0.	326.75
11837	22.523	5.6364	5.e-002	6.8085
11838	22.8	5.6364	0.	267.12
11839	22.708	5.5455	0.	288.79
11840	22.708	5.6364	5.e-002	6.8263
11841	22.985	5.6364	0.	229.41
11842	22.893	5.5455	0.	251.38
11843	22.893	5.6364	5.e-002	6.8498
11844	23.169	5.6364	0.	192.47
11845	23.077	5.5455	0.	214.74
11846	23.077	5.6364	5.e-002	6.8822
11847	23.354	5.6364	0.	156.8
11848	23.262	5.5455	0.	179.31
11849	23.262	5.6364	5.e-002	6.9297
11850	23.539	5.6364	0.	123.48
11851	23.446	5.5455	0.	145.84
11852	23.446	5.6364	5.e-002	7.0104
11853	23.723	5.6364	0.	95.034
11854	23.631	5.5455	0.	115.97
11855	23.631	5.6364	5.e-002	7.1949
11856	23.815	5.5455	0.	92.906
11857	23.815	5.6364	5.e-002	7.8527
11858	23.908	5.6364	0.	73.549
11859	4.3435	5.4545	0.	2006.3
11860	4.2512	5.3636	0.	2315.4
11861	4.2512	5.4545	5.e-002	124.34
11862	4.159	5.4545	0.	1601.2
11863	4.5281	5.4545	0.	2252.
11864	4.4358	5.3636	0.	2354.7
11865	4.4358	5.4545	5.e-002	99.943
11866	4.7127	5.4545	0.	2621.5
11867	4.6204	5.3636	0.	2647.
11868	4.6204	5.4545	5.e-002	90.051
11869	4.8972	5.4545	0.	2982.2
11870	4.8049	5.3636	0.	2978.8
11871	4.8049	5.4545	5.e-002	77.894
11872	5.0818	5.4545	0.	3295.6
11873	4.9895	5.3636	0.	3284.9
11874	4.9895	5.4545	5.e-002	65.194
11875	5.2664	5.4545	0.	3551.8
11876	5.1741	5.3636	0.	3542.9
11877	5.1741	5.4545	5.e-002	53.084
11878	5.4509	5.4545	0.	3752.5
11879	5.3586	5.3636	0.	3748.3
11880	5.3586	5.4545	5.e-002	42.211
11881	5.6355	5.4545	0.	3904.
11882	5.5432	5.3636	0.	3905.
11883	5.5432	5.4545	5.e-002	32.809
11884	5.8201	5.4545	0.	4013.8
11885	5.7278	5.3636	0.	4019.5
11886	5.7278	5.4545	5.e-002	24.889
11887	6.0046	5.4545	0.	4089.2
11888	5.9123	5.3636	0.	4098.8
11889	5.9123	5.4545	5.e-002	18.349
11890	6.1892	5.4545	0.	4136.7
11891	6.0969	5.3636	0.	4149.4
11892	6.0969	5.4545	5.e-002	13.05
11893	6.3738	5.4545	0.	4161.8
11894	6.2815	5.3636	0.	4177.
11895	6.2815	5.4545	5.e-002	8.8712
11896	6.5583	5.4545	0.	4169.3
11897	6.466	5.3636	0.	4186.3
11898	6.466	5.4545	5.e-002	5.7794
11899	6.7429	5.4545	0.	4162.9
11900	6.6506	5.3636	0.	4181.2
11901	6.6506	5.4545	5.e-002	3.9493
11902	6.9275	5.4545	0.	4145.6
11903	6.8352	5.3636	0.	4164.9
11904	6.8352	5.4545	5.e-002	3.64
11905	7.112	5.4545	0.	4119.8
11906	7.0198	5.3636	0.	4139.8
11907	7.0198	5.4545	5.e-002	4.3465
11908	7.2966	5.4545	0.	4087.5
11909	7.2043	5.3636	0.	4108.1
11910	7.2043	5.4545	5.e-002	5.2959
11911	7.4812	5.4545	0.	4050.2
11912	7.3889	5.3636	0.	4071.2
11913	7.3889	5.4545	5.e-002	6.1761
11914	7.6657	5.4545	0.	4009.1
11915	7.5735	5.3636	0.	4030.3
11916	7.5735	5.4545	5.e-002	6.914
11917	7.8503	5.4545	0.	3965.
11918	7.758	5.3636	0.	3986.5
11919	7.758	5.4545	5.e-002	7.5072
11920	8.0349	5.4545	0.	3918.8
11921	7.9426	5.3636	0.	3940.4
11922	7.9426	5.4545	5.e-002	7.9727
11923	8.2194	5.4545	0.	3870.9
11924	8.1272	5.3636	0.	3892.7
11925	8.1272	5.4545	5.e-002	8.3312
11926	8.404	5.4545	0.	3821.8
11927	8.3117	5.3636	0.	3843.8
11928	8.3117	5.4545	5.e-002	8.6023
11929	8.5886	5.4545	0.	3771.9
11930	8.4963	5.3636	0.	3794.
11931	8.4963	5.4545	5.e-002	8.803
11932	8.7731	5.4545	0.	3721.3
11933	8.6809	5.3636	0.	3743.5
11934	8.6809	5.4545	5.e-002	8.9476
11935	8.9577	5.4545	0.	3670.4
11936	8.8654	5.3636	0.	3692.7
11937	8.8654	5.4545	5.e-002	9.0477
11938	9.1423	5.4545	0.	3619.1
11939	9.05	5.3636	0.	3641.6
11940	9.05	5.4545	5.e-002	9.1131
11941	9.3269	5.4545	0.	3567.8
11942	9.2346	5.3636	0.	3590.3
11943	9.2346	5.4545	5.e-002	9.1512
11944	9.5114	5.4545	0.	3516.3
11945	9.4191	5.3636	0.	3538.9
11946	9.4191	5.4545	5.e-002	9.1683
11947	9.696	5.4545	0.	3464.8
11948	9.6037	5.3636	0.	3487.5
11949	9.6037	5.4545	5.e-002	9.1691
11950	9.8806	5.4545	0.	3413.4
11951	9.7883	5.3636	0.	3436.2
11952	9.7883	5.4545	5.e-002	9.1576
11953	10.065	5.4545	0.	3362.1
11954	9.9728	5.3636	0.	3384.9
11955	9.9728	5.4545	5.e-002	9.1366
11956	10.25	5.4545	0.	3310.9
11957	10.157	5.3636	0.	3333.8
11958	10.157	5.4545	5.e-002	9.1087
11959	10.434	5.4545	0.	3259.8
11960	10.342	5.3636	0.	3282.7
11961	10.342	5.4545	5.e-002	9.0757
11962	10.619	5.4545	0.	3208.8
11963	10.527	5.3636	0.	3231.8
11964	10.527	5.4545	5.e-002	9.0388
11965	10.803	5.4545	0.	3158.
11966	10.711	5.3636	0.	3181.1
11967	10.711	5.4545	5.e-002	8.9994
11968	10.988	5.4545	0.	3107.4
11969	10.896	5.3636	0.	3130.5
11970	10.896	5.4545	5.e-002	8.9582
11971	11.173	5.4545	0.	3056.9
11972	11.08	5.3636	0.	3080.1
11973	11.08	5.4545	5.e-002	8.9159
11974	11.357	5.4545	0.	3006.6
11975	11.265	5.3636	0.	3029.8
11976	11.265	5.4545	5.e-002	8.8729
11977	11.542	5.4545	0.	2956.5
11978	11.449	5.3636	0.	2979.7
11979	11.449	5.4545	5.e-002	8.8296
11980	11.726	5.4545	0.	2906.6
11981	11.634	5.3636	0.	2929.8
11982	11.634	5.4545	5.e-002	8.7862
11983	11.911	5.4545	0.	2856.9
11984	11.819	5.3636	0.	2880.1
11985	11.819	5.4545	5.e-002	8.743
11986	12.095	5.4545	0.	2807.4
11987	12.003	5.3636	0.	2830.5
11988	12.003	5.4545	5.e-002	8.7001
11989	12.28	5.4545	0.	2758.
11990	12.188	5.3636	0.	2781.1
11991	12.188	5.4545	5.e-002	8.6576
11992	12.465	5.4545	0.	2708.9
11993	12.372	5.3636	0.	2732.
11994	12.372	5.4545	5.e-002	8.6155
11995	12.649	5.4545	0.	2659.9
11996	12.557	5.3636	0.	2683.
11997	12.557	5.4545	5.e-002	8.5739
11998	12.834	5.4545	0.	2611.1
11999	12.741	5.3636	0.	2634.2
12000	12.741	5.4545	5.e-002	8.5328
12001	13.018	5.4545	0.	2562.5
12002	12.926	5.3636	0.	2585.5
12003	12.926	5.4545	5.e-002	8.4922
12004	13.203	5.4545	0.	2514.2
12005	13.11	5.3636	0.	2537.1
12006	13.11	5.4545	5.e-002	8.4521
12007	13.387	5.4545	0.	2466.
12008	13.295	5.3636	0.	2488.9
12009	13.295	5.4545	5.e-002	8.4125
12010	13.572	5.4545	0.	2418.
12011	13.48	5.3636	0.	2440.8
12012	13.48	5.4545	5.e-002	8.3733
12013	13.756	5.4545	0.	2370.2
12014	13.664	5.3636	0.	2393.
12015	13.664	5.4545	5.e-002	8.3347
12016	13.941	5.4545	0.	2322.6
12017	13.849	5.3636	0.	2345.3
12018	13.849	5.4545	5.e-002	8.2965
12019	14.126	5.4545	0.	2275.2
12020	14.033	5.3636	0.	2297.8
12021	14.033	5.4545	5.e-002	8.2587
12022	14.31	5.4545	0.	2228.
12023	14.218	5.3636	0.	2250.6
12024	14.218	5.4545	5.e-002	8.2213
12025	14.495	5.4545	0.	2181.
12026	14.402	5.3636	0.	2203.5
12027	14.402	5.4545	5.e-002	8.1844
12028	14.679	5.4545	0.	2134.1
12029	14.587	5.3636	0.	2156.6
12030	14.587	5.4545	5.e-002	8.1478
12031	14.864	5.4545	0.	2087.5
12032	14.772	5.3636	0.	2109.9
12033	14.772	5.4545	5.e-002	8.1115
12034	15.048	5.4545	0.	2041.1
12035	14.956	5.3636	0.	2063.4
12036	14.956	5.4545	5.e-002	8.0756
12037	15.233	5.4545	0.	1994.9
12038	15.141	5.3636	0.	2017.1
12039	15.141	5.4545	5.e-002	8.04
12040	15.418	5.4545	0.	1948.9
12041	15.325	5.3636	0.	1971.
12042	15.325	5.4545	5.e-002	8.0048
12043	15.602	5.4545	0.	1903.1
12044	15.51	5.3636	0.	1925.1
12045	15.51	5.4545	5.e-002	7.9699
12046	15.787	5.4545	0.	1857.5
12047	15.694	5.3636	0.	1879.4
12048	15.694	5.4545	5.e-002	7.9353
12049	15.971	5.4545	0.	1812.1
12050	15.879	5.3636	0.	1834.
12051	15.879	5.4545	5.e-002	7.9011
12052	16.156	5.4545	0.	1766.8
12053	16.064	5.3636	0.	1788.7
12054	16.064	5.4545	5.e-002	7.8672
12055	16.34	5.4545	0.	1721.8
12056	16.248	5.3636	0.	1743.6
12057	16.248	5.4545	5.e-002	7.8337
12058	16.525	5.4545	0.	1677.
12059	16.433	5.3636	0.	1698.7
12060	16.433	5.4545	5.e-002	7.8004
12061	16.71	5.4545	0.	1632.4
12062	16.617	5.3636	0.	1654.
12063	16.617	5.4545	5.e-002	7.7675
12064	16.894	5.4545	0.	1588.
12065	16.802	5.3636	0.	1609.5
12066	16.802	5.4545	5.e-002	7.7349
12067	17.079	5.4545	0.	1543.8
12068	16.986	5.3636	0.	1565.2
12069	16.986	5.4545	5.e-002	7.7027
12070	17.263	5.4545	0.	1499.8
12071	17.171	5.3636	0.	1521.1
12072	17.171	5.4545	5.e-002	7.6709
12073	17.448	5.4545	0.	1456.
12074	17.356	5.3636	0.	1477.2
12075	17.356	5.4545	5.e-002	7.6395
12076	17.632	5.4545	0.	1412.4
12077	17.54	5.3636	0.	1433.6
12078	17.54	5.4545	5.e-002	7.6084
12079	17.817	5.4545	0.	1369.
12080	17.725	5.3636	0.	1390.1
12081	17.725	5.4545	5.e-002	7.5778
12082	18.002	5.4545	0.	1325.8
12083	17.909	5.3636	0.	1346.8
12084	17.909	5.4545	5.e-002	7.5477
12085	18.186	5.4545	0.	1282.8
12086	18.094	5.3636	0.	1303.7
12087	18.094	5.4545	5.e-002	7.518
12088	18.371	5.4545	0.	1240.
12089	18.278	5.3636	0.	1260.8
12090	18.278	5.4545	5.e-002	7.4888
12091	18.555	5.4545	0.	1197.4
12092	18.463	5.3636	0.	1218.2
12093	18.463	5.4545	5.e-002	7.4602
12094	18.74	5.4545	0.	1155.
12095	18.648	5.3636	0.	1175.7
12096	18.648	5.4545	5.e-002	7.4322
12097	18.924	5.4545	0.	1112.8
12098	18.832	5.3636	0.	1133.4
12099	18.832	5.4545	5.e-002	7.4048
12100	19.109	5.4545	0.	1070.7
12101	19.017	5.3636	0.	1091.4
12102	19.017	5.4545	5.e-002	7.3781
12103	19.294	5.4545	0.	1028.9
12104	19.201	5.3636	0.	1049.5
12105	19.201	5.4545	5.e-002	7.3521
12106	19.478	5.4545	0.	987.3
12107	19.386	5.3636	0.	1007.8
12108	19.386	5.4545	5.e-002	7.3268
12109	19.663	5.4545	0.	945.87
12110	19.57	5.3636	0.	966.37
12111	19.57	5.4545	5.e-002	7.3024
12112	19.847	5.4545	0.	904.62
12113	19.755	5.3636	0.	925.09
12114	19.755	5.4545	5.e-002	7.2788
12115	20.032	5.4545	0.	863.57
12116	19.94	5.3636	0.	884.02
12117	19.94	5.4545	5.e-002	7.2562
12118	20.216	5.4545	0.	822.71
12119	20.124	5.3636	0.	843.15
12120	20.124	5.4545	5.e-002	7.2345
12121	20.401	5.4545	0.	782.03
12122	20.309	5.3636	0.	802.47
12123	20.309	5.4545	5.e-002	7.2139
12124	20.585	5.4545	0.	741.55
12125	20.493	5.3636	0.	761.99
12126	20.493	5.4545	5.e-002	7.1945
12127	20.77	5.4545	0.	701.25
12128	20.678	5.3636	0.	721.71
12129	20.678	5.4545	5.e-002	7.1762
12130	20.955	5.4545	0.	661.14
12131	20.862	5.3636	0.	681.63
12132	20.862	5.4545	5.e-002	7.1593
12133	21.139	5.4545	0.	621.22
12134	21.047	5.3636	0.	641.76
12135	21.047	5.4545	5.e-002	7.1437
12136	21.324	5.4545	0.	581.51
12137	21.231	5.3636	0.	602.1
12138	21.231	5.4545	5.e-002	7.1296
12139	21.508	5.4545	0.	541.99
12140	21.416	5.3636	0.	562.66
12141	21.416	5.4545	5.e-002	7.117
12142	21.693	5.4545	0.	502.69
12143	21.601	5.3636	0.	523.45
12144	21.601	5.4545	5.e-002	7.1061
12145	21.877	5.4545	0.	463.63
12146	21.785	5.3636	0.	484.49
12147	21.785	5.4545	5.e-002	7.0971
12148	22.062	5.4545	0.	424.82
12149	21.97	5.3636	0.	445.81
12150	21.97	5.4545	5.e-002	7.0901
12151	22.247	5.4545	0.	386.32
12152	22.154	5.3636	0.	407.44
12153	22.154	5.4545	5.e-002	7.0854
12154	22.431	5.4545	0.	348.17
12155	22.339	5.3636	0.	369.45
12156	22.339	5.4545	5.e-002	7.0836
12157	22.616	5.4545	0.	310.46
12158	22.523	5.3636	0.	331.91
12159	22.523	5.4545	5.e-002	7.0854
12160	22.8	5.4545	0.	273.34
12161	22.708	5.3636	0.	294.95
12162	22.708	5.4545	5.e-002	7.0919
12163	22.985	5.4545	0.	237.02
12164	22.893	5.3636	0.	258.77
12165	22.893	5.4545	5.e-002	7.1055
12166	23.169	5.4545	0.	201.89
12167	23.077	5.3636	0.	223.68
12168	23.077	5.4545	5.e-002	7.1304
12169	23.354	5.4545	0.	168.6
12170	23.262	5.3636	0.	190.19
12171	23.262	5.4545	5.e-002	7.1757
12172	23.539	5.4545	0.	138.28
12173	23.446	5.3636	0.	159.13
12174	23.446	5.4545	5.e-002	7.2596
12175	23.723	5.4545	0.	112.98
12176	23.631	5.3636	0.	131.95
12177	23.631	5.4545	5.e-002	7.4289
12178	23.815	5.3636	0.	111.01
12179	23.815	5.4545	5.e-002	7.9489
12180	23.908	5.4545	0.	94.048
12181	4.3435	5.2727	0.	2582.2
12182	4.2512	5.1818	0.	3005.2
12183	4.2512	5.2727	5.e-002	139.93
12184	4.159	5.2727	0.	2128.
12185	4.5281	5.2727	0.	2704.8
12186	4.4358	5.1818	0.	2915.7
12187	4.4358	5.2727	5.e-002	105.78
12188	4.7127	5.2727	0.	2980.5
12189	4.6204	5.1818	0.	3101.7
12190	4.6204	5.2727	5.e-002	93.164
12191	4.8972	5.2727	0.	3268.4
12192	4.8049	5.1818	0.	3341.2
12193	4.8049	5.2727	5.e-002	78.767
12194	5.0818	5.2727	0.	3524.7
12195	4.9895	5.1818	0.	3572.1
12196	4.9895	5.2727	5.e-002	64.547
12197	5.2664	5.2727	0.	3734.9
12198	5.1741	5.1818	0.	3769.4
12199	5.1741	5.2727	5.e-002	51.669
12200	5.4509	5.2727	0.	3898.1
12201	5.3586	5.1818	0.	3926.2
12202	5.3586	5.2727	5.e-002	40.602
12203	5.6355	5.2727	0.	4018.9
12204	5.5432	5.1818	0.	4043.9
12205	5.5432	5.2727	5.e-002	31.379
12206	5.8201	5.2727	0.	4103.5
12207	5.7278	5.1818	0.	4127.1
12208	5.7278	5.2727	5.e-002	23.846
12209	6.0046	5.2727	0.	4158.4
12210	5.9123	5.1818	0.	4181.3
12211	5.9123	5.2727	5.e-002	17.802
12212	6.1892	5.2727	0.	4189.4
12213	6.0969	5.1818	0.	4212.
12214	6.0969	5.2727	5.e-002	13.069
12215	6.3738	5.2727	0.	4201.2
12216	6.2815	5.1818	0.	4223.7
12217	6.2815	5.2727	5.e-002	9.5262
12218	6.5583	5.2727	0.	4198.
12219	6.466	5.1818	0.	4220.4
12220	6.466	5.2727	5.e-002	7.1364
12221	6.7429	5.2727	0.	4183.1
12222	6.6506	5.1818	0.	4205.5
12223	6.6506	5.2727	5.e-002	5.896
12224	6.9275	5.2727	0.	4159.1
12225	6.8352	5.1818	0.	4181.4
12226	6.8352	5.2727	5.e-002	5.6432
12227	7.112	5.2727	0.	4128.1
12228	7.0198	5.1818	0.	4150.3
12229	7.0198	5.2727	5.e-002	5.9828
12230	7.2966	5.2727	0.	4091.7
12231	7.2043	5.1818	0.	4113.8
12232	7.2043	5.2727	5.e-002	6.5423
12233	7.4812	5.2727	0.	4051.3
12234	7.3889	5.1818	0.	4073.3
12235	7.3889	5.2727	5.e-002	7.1198
12236	7.6657	5.2727	0.	4007.7
12237	7.5735	5.1818	0.	4029.7
12238	7.5735	5.2727	5.e-002	7.6347
12239	7.8503	5.2727	0.	3961.9
12240	7.758	5.1818	0.	3983.9
12241	7.758	5.2727	5.e-002	8.0636
12242	8.0349	5.2727	0.	3914.4
12243	7.9426	5.1818	0.	3936.4
12244	7.9426	5.2727	5.e-002	8.4068
12245	8.2194	5.2727	0.	3865.6
12246	8.1272	5.1818	0.	3887.6
12247	8.1272	5.2727	5.e-002	8.6734
12248	8.404	5.2727	0.	3816.
12249	8.3117	5.1818	0.	3838.
12250	8.3117	5.2727	5.e-002	8.8748
12251	8.5886	5.2727	0.	3765.7
12252	8.4963	5.1818	0.	3787.8
12253	8.4963	5.2727	5.e-002	9.0224
12254	8.7731	5.2727	0.	3714.9
12255	8.6809	5.1818	0.	3737.1
12256	8.6809	5.2727	5.e-002	9.1264
12257	8.9577	5.2727	0.	3663.9
12258	8.8654	5.1818	0.	3686.2
12259	8.8654	5.2727	5.e-002	9.1953
12260	9.1423	5.2727	0.	3612.7
12261	9.05	5.1818	0.	3635.1
12262	9.05	5.2727	5.e-002	9.2366
12263	9.3269	5.2727	0.	3561.5
12264	9.2346	5.1818	0.	3583.9
12265	9.2346	5.2727	5.e-002	9.2562
12266	9.5114	5.2727	0.	3510.2
12267	9.4191	5.1818	0.	3532.7
12268	9.4191	5.2727	5.e-002	9.2589
12269	9.696	5.2727	0.	3458.9
12270	9.6037	5.1818	0.	3481.6
12271	9.6037	5.2727	5.e-002	9.2486
12272	9.8806	5.2727	0.	3407.7
12273	9.7883	5.1818	0.	3430.5
12274	9.7883	5.2727	5.e-002	9.2285
12275	10.065	5.2727	0.	3356.7
12276	9.9728	5.1818	0.	3379.5
12277	9.9728	5.2727	5.e-002	9.2008
12278	10.25	5.2727	0.	3305.7
12279	10.157	5.1818	0.	3328.6
12280	10.157	5.2727	5.e-002	9.1677
12281	10.434	5.2727	0.	3254.8
12282	10.342	5.1818	0.	3277.8
12283	10.342	5.2727	5.e-002	9.1305
12284	10.619	5.2727	0.	3204.1
12285	10.527	5.1818	0.	3227.1
12286	10.527	5.2727	5.e-002	9.0904
12287	10.803	5.2727	0.	3153.6
12288	10.711	5.1818	0.	3176.6
12289	10.711	5.2727	5.e-002	9.0484
12290	10.988	5.2727	0.	3103.2
12291	10.896	5.1818	0.	3126.3
12292	10.896	5.2727	5.e-002	9.0052
12293	11.173	5.2727	0.	3053.
12294	11.08	5.1818	0.	3076.1
12295	11.08	5.2727	5.e-002	8.9612
12296	11.357	5.2727	0.	3002.9
12297	11.265	5.1818	0.	3026.
12298	11.265	5.2727	5.e-002	8.9169
12299	11.542	5.2727	0.	2953.
12300	11.449	5.1818	0.	2976.1
12301	11.449	5.2727	5.e-002	8.8725
12302	11.726	5.2727	0.	2903.3
12303	11.634	5.1818	0.	2926.4
12304	11.634	5.2727	5.e-002	8.8282
12305	11.911	5.2727	0.	2853.7
12306	11.819	5.1818	0.	2876.9
12307	11.819	5.2727	5.e-002	8.7842
12308	12.095	5.2727	0.	2804.3
12309	12.003	5.1818	0.	2827.5
12310	12.003	5.2727	5.e-002	8.7406
12311	12.28	5.2727	0.	2755.1
12312	12.188	5.1818	0.	2778.3
12313	12.188	5.2727	5.e-002	8.6975
12314	12.465	5.2727	0.	2706.1
12315	12.372	5.1818	0.	2729.2
12316	12.372	5.2727	5.e-002	8.655
12317	12.649	5.2727	0.	2657.3
12318	12.557	5.1818	0.	2680.4
12319	12.557	5.2727	5.e-002	8.6129
12320	12.834	5.2727	0.	2608.6
12321	12.741	5.1818	0.	2631.7
12322	12.741	5.2727	5.e-002	8.5714
12323	13.018	5.2727	0.	2560.1
12324	12.926	5.1818	0.	2583.2
12325	12.926	5.2727	5.e-002	8.5304
12326	13.203	5.2727	0.	2511.9
12327	13.11	5.1818	0.	2534.8
12328	13.11	5.2727	5.e-002	8.4899
12329	13.387	5.2727	0.	2463.8
12330	13.295	5.1818	0.	2486.7
12331	13.295	5.2727	5.e-002	8.45
12332	13.572	5.2727	0.	2415.9
12333	13.48	5.1818	0.	2438.7
12334	13.48	5.2727	5.e-002	8.4105
12335	13.756	5.2727	0.	2368.1
12336	13.664	5.1818	0.	2391.
12337	13.664	5.2727	5.e-002	8.3716
12338	13.941	5.2727	0.	2320.6
12339	13.849	5.1818	0.	2343.4
12340	13.849	5.2727	5.e-002	8.3331
12341	14.126	5.2727	0.	2273.3
12342	14.033	5.1818	0.	2296.
12343	14.033	5.2727	5.e-002	8.2951
12344	14.31	5.2727	0.	2226.1
12345	14.218	5.1818	0.	2248.8
12346	14.218	5.2727	5.e-002	8.2574
12347	14.495	5.2727	0.	2179.2
12348	14.402	5.1818	0.	2201.7
12349	14.402	5.2727	5.e-002	8.2203
12350	14.679	5.2727	0.	2132.4
12351	14.587	5.1818	0.	2154.9
12352	14.587	5.2727	5.e-002	8.1834
12353	14.864	5.2727	0.	2085.8
12354	14.772	5.1818	0.	2108.3
12355	14.772	5.2727	5.e-002	8.1469
12356	15.048	5.2727	0.	2039.5
12357	14.956	5.1818	0.	2061.8
12358	14.956	5.2727	5.e-002	8.1108
12359	15.233	5.2727	0.	1993.3
12360	15.141	5.1818	0.	2015.6
12361	15.141	5.2727	5.e-002	8.075
12362	15.418	5.2727	0.	1947.3
12363	15.325	5.1818	0.	1969.5
12364	15.325	5.2727	5.e-002	8.0396
12365	15.602	5.2727	0.	1901.6
12366	15.51	5.1818	0.	1923.7
12367	15.51	5.2727	5.e-002	8.0045
12368	15.787	5.2727	0.	1856.
12369	15.694	5.1818	0.	1878.
12370	15.694	5.2727	5.e-002	7.9698
12371	15.971	5.2727	0.	1810.6
12372	15.879	5.1818	0.	1832.5
12373	15.879	5.2727	5.e-002	7.9354
12374	16.156	5.2727	0.	1765.4
12375	16.064	5.1818	0.	1787.3
12376	16.064	5.2727	5.e-002	7.9013
12377	16.34	5.2727	0.	1720.4
12378	16.248	5.1818	0.	1742.2
12379	16.248	5.2727	5.e-002	7.8675
12380	16.525	5.2727	0.	1675.7
12381	16.433	5.1818	0.	1697.4
12382	16.433	5.2727	5.e-002	7.8342
12383	16.71	5.2727	0.	1631.1
12384	16.617	5.1818	0.	1652.7
12385	16.617	5.2727	5.e-002	7.8011
12386	16.894	5.2727	0.	1586.7
12387	16.802	5.1818	0.	1608.3
12388	16.802	5.2727	5.e-002	7.7683
12389	17.079	5.2727	0.	1542.6
12390	16.986	5.1818	0.	1564.
12391	16.986	5.2727	5.e-002	7.736
12392	17.263	5.2727	0.	1498.6
12393	17.171	5.1818	0.	1520.
12394	17.171	5.2727	5.e-002	7.704
12395	17.448	5.2727	0.	1454.8
12396	17.356	5.1818	0.	1476.1
12397	17.356	5.2727	5.e-002	7.6724
12398	17.632	5.2727	0.	1411.3
12399	17.54	5.1818	0.	1432.5
12400	17.54	5.2727	5.e-002	7.6412
12401	17.817	5.2727	0.	1367.9
12402	17.725	5.1818	0.	1389.1
12403	17.725	5.2727	5.e-002	7.6105
12404	18.002	5.2727	0.	1324.8
12405	17.909	5.1818	0.	1345.8
12406	17.909	5.2727	5.e-002	7.5802
12407	18.186	5.2727	0.	1281.8
12408	18.094	5.1818	0.	1302.8
12409	18.094	5.2727	5.e-002	7.5504
12410	18.371	5.2727	0.	1239.1
12411	18.278	5.1818	0.	1260.
12412	18.278	5.2727	5.e-002	7.5211
12413	18.555	5.2727	0.	1196.6
12414	18.463	5.1818	0.	1217.4
12415	18.463	5.2727	5.e-002	7.4924
12416	18.74	5.2727	0.	1154.2
12417	18.648	5.1818	0.	1175.
12418	18.648	5.2727	5.e-002	7.4643
12419	18.924	5.2727	0.	1112.1
12420	18.832	5.1818	0.	1132.8
12421	18.832	5.2727	5.e-002	7.4368
12422	19.109	5.2727	0.	1070.2
12423	19.017	5.1818	0.	1090.9
12424	19.017	5.2727	5.e-002	7.41
12425	19.294	5.2727	0.	1028.5
12426	19.201	5.1818	0.	1049.1
12427	19.201	5.2727	5.e-002	7.3839
12428	19.478	5.2727	0.	986.97
12429	19.386	5.1818	0.	1007.6
12430	19.386	5.2727	5.e-002	7.3586
12431	19.663	5.2727	0.	945.67
12432	19.57	5.1818	0.	966.21
12433	19.57	5.2727	5.e-002	7.3341
12434	19.847	5.2727	0.	904.57
12435	19.755	5.1818	0.	925.08
12436	19.755	5.2727	5.e-002	7.3105
12437	20.032	5.2727	0.	863.67
12438	19.94	5.1818	0.	884.16
12439	19.94	5.2727	5.e-002	7.2879
12440	20.216	5.2727	0.	822.99
12441	20.124	5.1818	0.	843.46
12442	20.124	5.2727	5.e-002	7.2663
12443	20.401	5.2727	0.	782.51
12444	20.309	5.1818	0.	802.97
12445	20.309	5.2727	5.e-002	7.2458
12446	20.585	5.2727	0.	742.24
12447	20.493	5.1818	0.	762.71
12448	20.493	5.2727	5.e-002	7.2265
12449	20.77	5.2727	0.	702.18
12450	20.678	5.1818	0.	722.67
12451	20.678	5.2727	5.e-002	7.2085
12452	20.955	5.2727	0.	662.35
12453	20.862	5.1818	0.	682.85
12454	20.862	5.2727	5.e-002	7.1919
12455	21.139	5.2727	0.	622.74
12456	21.047	5.1818	0.	643.28
12457	21.047	5.2727	5.e-002	7.1768
12458	21.324	5.2727	0.	583.36
12459	21.231	5.1818	0.	603.95
12460	21.231	5.2727	5.e-002	7.1632
12461	21.508	5.2727	0.	544.23
12462	21.416	5.1818	0.	564.88
12463	21.416	5.2727	5.e-002	7.1515
12464	21.693	5.2727	0.	505.37
12465	21.601	5.1818	0.	526.09
12466	21.601	5.2727	5.e-002	7.1417
12467	21.877	5.2727	0.	466.8
12468	21.785	5.1818	0.	487.6
12469	21.785	5.2727	5.e-002	7.134
12470	22.062	5.2727	0.	428.57
12471	21.97	5.1818	0.	449.46
12472	21.97	5.2727	5.e-002	7.1289
12473	22.247	5.2727	0.	390.73
12474	22.154	5.1818	0.	411.72
12475	22.154	5.2727	5.e-002	7.1267
12476	22.431	5.2727	0.	353.36
12477	22.339	5.1818	0.	374.45
12478	22.339	5.2727	5.e-002	7.1282
12479	22.616	5.2727	0.	316.58
12480	22.523	5.1818	0.	337.75
12481	22.523	5.2727	5.e-002	7.1344
12482	22.8	5.2727	0.	280.57
12483	22.708	5.1818	0.	301.78
12484	22.708	5.2727	5.e-002	7.1469
12485	22.985	5.2727	0.	245.59
12486	22.893	5.1818	0.	266.76
12487	22.893	5.2727	5.e-002	7.1687
12488	23.169	5.2727	0.	212.07
12489	23.077	5.1818	0.	233.04
12490	23.077	5.2727	5.e-002	7.2044
12491	23.354	5.2727	0.	180.65
12492	23.262	5.1818	0.	201.12
12493	23.262	5.2727	5.e-002	7.2624
12494	23.539	5.2727	0.	152.36
12495	23.446	5.1818	0.	171.8
12496	23.446	5.2727	5.e-002	7.3567
12497	23.723	5.2727	0.	128.84
12498	23.631	5.1818	0.	146.27
12499	23.631	5.2727	5.e-002	7.5196
12500	23.815	5.1818	0.	126.49
12501	23.815	5.2727	5.e-002	7.9558
12502	23.908	5.2727	0.	111.3
12503	4.3435	5.0909	0.	3252.4
12504	4.2512	5.	0.	3808.4
12505	4.2512	5.0909	5.e-002	163.25
12506	4.159	5.0909	0.	2723.1
12507	4.5281	5.0909	0.	3256.9
12508	4.4358	5.	0.	3582.3
12509	4.4358	5.0909	5.e-002	116.
12510	4.7127	5.0909	0.	3429.1
12511	4.6204	5.	0.	3651.7
12512	4.6204	5.0909	5.e-002	98.126
12513	4.8972	5.0909	0.	3625.6
12514	4.8049	5.	0.	3780.1
12515	4.8049	5.0909	5.e-002	79.863
12516	5.0818	5.0909	0.	3805.8
12517	4.9895	5.	0.	3915.5
12518	4.9895	5.0909	5.e-002	63.489
12519	5.2664	5.0909	0.	3954.4
12520	5.1741	5.	0.	4035.4
12521	5.1741	5.0909	5.e-002	49.817
12522	5.4509	5.0909	0.	4068.3
12523	5.3586	5.	0.	4130.8
12524	5.3586	5.0909	5.e-002	38.802
12525	5.6355	5.0909	0.	4150.
12526	5.5432	5.	0.	4200.4
12527	5.5432	5.0909	5.e-002	30.058
12528	5.8201	5.0909	0.	4203.7
12529	5.7278	5.	0.	4246.
12530	5.7278	5.0909	5.e-002	23.182
12531	6.0046	5.0909	0.	4234.2
12532	5.9123	5.	0.	4271.
12533	5.9123	5.0909	5.e-002	17.847
12534	6.1892	5.0909	0.	4246.
12535	6.0969	5.	0.	4278.8
12536	6.0969	5.0909	5.e-002	13.815
12537	6.3738	5.0909	0.	4242.8
12538	6.2815	5.	0.	4272.8
12539	6.2815	5.0909	5.e-002	10.921
12540	6.5583	5.0909	0.	4227.8
12541	6.466	5.	0.	4255.7
12542	6.466	5.0909	5.e-002	9.0395
12543	6.7429	5.0909	0.	4203.7
12544	6.6506	5.	0.	4230.
12545	6.6506	5.0909	5.e-002	8.0187
12546	6.9275	5.0909	0.	4172.5
12547	6.8352	5.	0.	4197.7
12548	6.8352	5.0909	5.e-002	7.6425
12549	7.112	5.0909	0.	4136.
12550	7.0198	5.	0.	4160.3
12551	7.0198	5.0909	5.e-002	7.6638
12552	7.2966	5.0909	0.	4095.4
12553	7.2043	5.	0.	4119.
12554	7.2043	5.0909	5.e-002	7.8795
12555	7.4812	5.0909	0.	4051.8
12556	7.3889	5.	0.	4074.9
12557	7.3889	5.0909	5.e-002	8.1609
12558	7.6657	5.0909	0.	4006.
12559	7.5735	5.	0.	4028.7
12560	7.5735	5.0909	5.e-002	8.4403
12561	7.8503	5.0909	0.	3958.4
12562	7.758	5.	0.	3980.9
12563	7.758	5.0909	5.e-002	8.6869
12564	8.0349	5.0909	0.	3909.7
12565	7.9426	5.	0.	3932.
12566	7.9426	5.0909	5.e-002	8.8902
12567	8.2194	5.0909	0.	3860.1
12568	8.1272	5.	0.	3882.3
12569	8.1272	5.0909	5.e-002	9.0496
12570	8.404	5.0909	0.	3809.9
12571	8.3117	5.	0.	3832.
12572	8.3117	5.0909	5.e-002	9.1687
12573	8.5886	5.0909	0.	3759.3
12574	8.4963	5.	0.	3781.4
12575	8.4963	5.0909	5.e-002	9.2528
12576	8.7731	5.0909	0.	3708.4
12577	8.6809	5.	0.	3730.6
12578	8.6809	5.0909	5.e-002	9.3078
12579	8.9577	5.0909	0.	3657.4
12580	8.8654	5.	0.	3679.7
12581	8.8654	5.0909	5.e-002	9.3389
12582	9.1423	5.0909	0.	3606.3
12583	9.05	5.	0.	3628.6
12584	9.05	5.0909	5.e-002	9.3509
12585	9.3269	5.0909	0.	3555.2
12586	9.2346	5.	0.	3577.6
12587	9.2346	5.0909	5.e-002	9.3477
12588	9.5114	5.0909	0.	3504.1
12589	9.4191	5.	0.	3526.6
12590	9.4191	5.0909	5.e-002	9.3326
12591	9.696	5.0909	0.	3453.1
12592	9.6037	5.	0.	3475.7
12593	9.6037	5.0909	5.e-002	9.3085
12594	9.8806	5.0909	0.	3402.2
12595	9.7883	5.	0.	3424.9
12596	9.7883	5.0909	5.e-002	9.2774
12597	10.065	5.0909	0.	3351.4
12598	9.9728	5.	0.	3374.1
12599	9.9728	5.0909	5.e-002	9.2413
12600	10.25	5.0909	0.	3300.7
12601	10.157	5.	0.	3323.5
12602	10.157	5.0909	5.e-002	9.2014
12603	10.434	5.0909	0.	3250.1
12604	10.342	5.	0.	3273.
12605	10.342	5.0909	5.e-002	9.1589
12606	10.619	5.0909	0.	3199.6
12607	10.527	5.	0.	3222.6
12608	10.527	5.0909	5.e-002	9.1146
12609	10.803	5.0909	0.	3149.3
12610	10.711	5.	0.	3172.3
12611	10.711	5.0909	5.e-002	9.0693
12612	10.988	5.0909	0.	3099.2
12613	10.896	5.	0.	3122.2
12614	10.896	5.0909	5.e-002	9.0234
12615	11.173	5.0909	0.	3049.2
12616	11.08	5.	0.	3072.3
12617	11.08	5.0909	5.e-002	8.9772
12618	11.357	5.0909	0.	2999.3
12619	11.265	5.	0.	3022.4
12620	11.265	5.0909	5.e-002	8.9311
12621	11.542	5.0909	0.	2949.6
12622	11.449	5.	0.	2972.7
12623	11.449	5.0909	5.e-002	8.8852
12624	11.726	5.0909	0.	2900.
12625	11.634	5.	0.	2923.2
12626	11.634	5.0909	5.e-002	8.8398
12627	11.911	5.0909	0.	2850.7
12628	11.819	5.	0.	2873.8
12629	11.819	5.0909	5.e-002	8.7947
12630	12.095	5.0909	0.	2801.4
12631	12.003	5.	0.	2824.6
12632	12.003	5.0909	5.e-002	8.7503
12633	12.28	5.0909	0.	2752.4
12634	12.188	5.	0.	2775.5
12635	12.188	5.0909	5.e-002	8.7064
12636	12.465	5.0909	0.	2703.5
12637	12.372	5.	0.	2726.6
12638	12.372	5.0909	5.e-002	8.6633
12639	12.649	5.0909	0.	2654.8
12640	12.557	5.	0.	2677.9
12641	12.557	5.0909	5.e-002	8.6207
12642	12.834	5.0909	0.	2606.3
12643	12.741	5.	0.	2629.3
12644	12.741	5.0909	5.e-002	8.5786
12645	13.018	5.0909	0.	2557.9
12646	12.926	5.	0.	2580.9
12647	12.926	5.0909	5.e-002	8.5373
12648	13.203	5.0909	0.	2509.7
12649	13.11	5.	0.	2532.7
12650	13.11	5.0909	5.e-002	8.4964
12651	13.387	5.0909	0.	2461.7
12652	13.295	5.	0.	2484.7
12653	13.295	5.0909	5.e-002	8.4562
12654	13.572	5.0909	0.	2413.9
12655	13.48	5.	0.	2436.8
12656	13.48	5.0909	5.e-002	8.4164
12657	13.756	5.0909	0.	2366.2
12658	13.664	5.	0.	2389.1
12659	13.664	5.0909	5.e-002	8.3772
12660	13.941	5.0909	0.	2318.8
12661	13.849	5.	0.	2341.6
12662	13.849	5.0909	5.e-002	8.3385
12663	14.126	5.0909	0.	2271.5
12664	14.033	5.	0.	2294.2
12665	14.033	5.0909	5.e-002	8.3003
12666	14.31	5.0909	0.	2224.4
12667	14.218	5.	0.	2247.1
12668	14.218	5.0909	5.e-002	8.2624
12669	14.495	5.0909	0.	2177.5
12670	14.402	5.	0.	2200.1
12671	14.402	5.0909	5.e-002	8.2251
12672	14.679	5.0909	0.	2130.8
12673	14.587	5.	0.	2153.3
12674	14.587	5.0909	5.e-002	8.1881
12675	14.864	5.0909	0.	2084.3
12676	14.772	5.	0.	2106.7
12677	14.772	5.0909	5.e-002	8.1514
12678	15.048	5.0909	0.	2038.
12679	14.956	5.	0.	2060.4
12680	14.956	5.0909	5.e-002	8.1152
12681	15.233	5.0909	0.	1991.8
12682	15.141	5.	0.	2014.1
12683	15.141	5.0909	5.e-002	8.0793
12684	15.418	5.0909	0.	1945.9
12685	15.325	5.	0.	1968.1
12686	15.325	5.0909	5.e-002	8.0438
12687	15.602	5.0909	0.	1900.2
12688	15.51	5.	0.	1922.3
12689	15.51	5.0909	5.e-002	8.0086
12690	15.787	5.0909	0.	1854.6
12691	15.694	5.	0.	1876.7
12692	15.694	5.0909	5.e-002	7.9738
12693	15.971	5.0909	0.	1809.3
12694	15.879	5.	0.	1831.3
12695	15.879	5.0909	5.e-002	7.9394
12696	16.156	5.0909	0.	1764.1
12697	16.064	5.	0.	1786.1
12698	16.064	5.0909	5.e-002	7.9053
12699	16.34	5.0909	0.	1719.2
12700	16.248	5.	0.	1741.
12701	16.248	5.0909	5.e-002	7.8715
12702	16.525	5.0909	0.	1674.5
12703	16.433	5.	0.	1696.2
12704	16.433	5.0909	5.e-002	7.8381
12705	16.71	5.0909	0.	1629.9
12706	16.617	5.	0.	1651.6
12707	16.617	5.0909	5.e-002	7.805
12708	16.894	5.0909	0.	1585.6
12709	16.802	5.	0.	1607.2
12710	16.802	5.0909	5.e-002	7.7723
12711	17.079	5.0909	0.	1541.5
12712	16.986	5.	0.	1563.
12713	16.986	5.0909	5.e-002	7.7399
12714	17.263	5.0909	0.	1497.6
12715	17.171	5.	0.	1519.
12716	17.171	5.0909	5.e-002	7.708
12717	17.448	5.0909	0.	1453.8
12718	17.356	5.	0.	1475.2
12719	17.356	5.0909	5.e-002	7.6764
12720	17.632	5.0909	0.	1410.3
12721	17.54	5.	0.	1431.6
12722	17.54	5.0909	5.e-002	7.6453
12723	17.817	5.0909	0.	1367.
12724	17.725	5.	0.	1388.2
12725	17.725	5.0909	5.e-002	7.6146
12726	18.002	5.0909	0.	1323.9
12727	17.909	5.	0.	1345.
12728	17.909	5.0909	5.e-002	7.5844
12729	18.186	5.0909	0.	1281.1
12730	18.094	5.	0.	1302.1
12731	18.094	5.0909	5.e-002	7.5548
12732	18.371	5.0909	0.	1238.4
12733	18.278	5.	0.	1259.4
12734	18.278	5.0909	5.e-002	7.5256
12735	18.555	5.0909	0.	1195.9
12736	18.463	5.	0.	1216.8
12737	18.463	5.0909	5.e-002	7.497
12738	18.74	5.0909	0.	1153.7
12739	18.648	5.	0.	1174.5
12740	18.648	5.0909	5.e-002	7.4691
12741	18.924	5.0909	0.	1111.7
12742	18.832	5.	0.	1132.4
12743	18.832	5.0909	5.e-002	7.4418
12744	19.109	5.0909	0.	1069.8
12745	19.017	5.	0.	1090.5
12746	19.017	5.0909	5.e-002	7.4152
12747	19.294	5.0909	0.	1028.2
12748	19.201	5.	0.	1048.9
12749	19.201	5.0909	5.e-002	7.3893
12750	19.478	5.0909	0.	986.86
12751	19.386	5.	0.	1007.5
12752	19.386	5.0909	5.e-002	7.3643
12753	19.663	5.0909	0.	945.69
12754	19.57	5.	0.	966.25
12755	19.57	5.0909	5.e-002	7.3401
12756	19.847	5.0909	0.	904.75
12757	19.755	5.	0.	925.27
12758	19.755	5.0909	5.e-002	7.3169
12759	20.032	5.0909	0.	864.02
12760	19.94	5.	0.	884.51
12761	19.94	5.0909	5.e-002	7.2947
12762	20.216	5.0909	0.	823.52
12763	20.124	5.	0.	843.99
12764	20.124	5.0909	5.e-002	7.2736
12765	20.401	5.0909	0.	783.25
12766	20.309	5.	0.	803.71
12767	20.309	5.0909	5.e-002	7.2536
12768	20.585	5.0909	0.	743.22
12769	20.493	5.	0.	763.66
12770	20.493	5.0909	5.e-002	7.235
12771	20.77	5.0909	0.	703.42
12772	20.678	5.	0.	723.87
12773	20.678	5.0909	5.e-002	7.2177
12774	20.955	5.0909	0.	663.87
12775	20.862	5.	0.	684.33
12776	20.862	5.0909	5.e-002	7.202
12777	21.139	5.0909	0.	624.58
12778	21.047	5.	0.	645.06
12779	21.047	5.0909	5.e-002	7.1879
12780	21.324	5.0909	0.	585.56
12781	21.231	5.	0.	606.07
12782	21.231	5.0909	5.e-002	7.1756
12783	21.508	5.0909	0.	546.84
12784	21.416	5.	0.	567.38
12785	21.416	5.0909	5.e-002	7.1654
12786	21.693	5.0909	0.	508.43
12787	21.601	5.	0.	529.02
12788	21.601	5.0909	5.e-002	7.1573
12789	21.877	5.0909	0.	470.38
12790	21.785	5.	0.	491.02
12791	21.785	5.0909	5.e-002	7.1519
12792	22.062	5.0909	0.	432.73
12793	21.97	5.	0.	453.42
12794	21.97	5.0909	5.e-002	7.1495
12795	22.247	5.0909	0.	395.56
12796	22.154	5.	0.	416.29
12797	22.154	5.0909	5.e-002	7.1507
12798	22.431	5.0909	0.	358.95
12799	22.339	5.	0.	379.71
12800	22.339	5.0909	5.e-002	7.1563
12801	22.616	5.0909	0.	323.05
12802	22.523	5.	0.	343.8
12803	22.523	5.0909	5.e-002	7.1676
12804	22.8	5.0909	0.	288.06
12805	22.708	5.	0.	308.72
12806	22.708	5.0909	5.e-002	7.1865
12807	22.985	5.0909	0.	254.24
12808	22.893	5.	0.	274.72
12809	22.893	5.0909	5.e-002	7.2159
12810	23.169	5.0909	0.	222.03
12811	23.077	5.	0.	242.13
12812	23.077	5.0909	5.e-002	7.2604
12813	23.354	5.0909	0.	192.01
12814	23.262	5.	0.	211.43
12815	23.262	5.0909	5.e-002	7.3268
12816	23.539	5.0909	0.	165.1
12817	23.446	5.	0.	183.33
12818	23.446	5.0909	5.e-002	7.4244
12819	23.723	5.0909	0.	142.7
12820	23.631	5.	0.	158.91
12821	23.631	5.0909	5.e-002	7.5741
12822	23.815	5.	0.	139.84
12823	23.815	5.0909	5.e-002	7.9491
12824	23.908	5.0909	0.	126.06
12825	4.3435	4.9091	0.	4042.3
12826	4.2512	4.8182	0.	4781.8
12827	4.2512	4.9091	5.e-002	196.3
12828	4.159	4.9091	0.	3424.1
12829	4.5281	4.9091	0.	3912.3
12830	4.4358	4.8182	0.	4377.9
12831	4.4358	4.9091	5.e-002	131.31
12832	4.7127	4.9091	0.	3961.9
12833	4.6204	4.8182	0.	4295.8
12834	4.6204	4.9091	5.e-002	104.43
12835	4.8972	4.9091	0.	4045.9
12836	4.8049	4.8182	0.	4285.4
12837	4.8049	4.9091	5.e-002	80.474
12838	5.0818	4.9091	0.	4131.3
12839	4.9895	4.8182	0.	4304.3
12840	4.9895	4.9091	5.e-002	61.725
12841	5.2664	4.9091	0.	4204.
12842	5.1741	4.8182	0.	4331.6
12843	5.1741	4.9091	5.e-002	47.7
12844	5.4509	4.9091	0.	4258.5
12845	5.3586	4.8182	0.	4355.3
12846	5.3586	4.9091	5.e-002	37.224
12847	5.6355	4.9091	0.	4293.9
12848	5.5432	4.8182	0.	4369.7
12849	5.5432	4.9091	5.e-002	29.321
12850	5.8201	4.9091	0.	4311.9
12851	5.7278	4.8182	0.	4373.
12852	5.7278	4.9091	5.e-002	23.308
12853	6.0046	4.9091	0.	4314.9
12854	5.9123	4.8182	0.	4365.5
12855	5.9123	4.9091	5.e-002	18.745
12856	6.1892	4.9091	0.	4305.3
12857	6.0969	4.8182	0.	4348.3
12858	6.0969	4.9091	5.e-002	15.343
12859	6.3738	4.9091	0.	4285.6
12860	6.2815	4.8182	0.	4323.1
12861	6.2815	4.9091	5.e-002	12.897
12862	6.5583	4.9091	0.	4257.9
12863	6.466	4.8182	0.	4291.3
12864	6.466	4.9091	5.e-002	11.236
12865	6.7429	4.9091	0.	4224.
12866	6.6506	4.8182	0.	4254.4
12867	6.6506	4.9091	5.e-002	10.196
12868	6.9275	4.9091	0.	4185.5
12869	6.8352	4.8182	0.	4213.5
12870	6.8352	4.9091	5.e-002	9.6118
12871	7.112	4.9091	0.	4143.3
12872	7.0198	4.8182	0.	4169.6
12873	7.0198	4.9091	5.e-002	9.3335
12874	7.2966	4.9091	0.	4098.5
12875	7.2043	4.8182	0.	4123.5
12876	7.2043	4.9091	5.e-002	9.2395
12877	7.4812	4.9091	0.	4051.8
12878	7.3889	4.8182	0.	4075.8
12879	7.3889	4.9091	5.e-002	9.2442
12880	7.6657	4.9091	0.	4003.6
12881	7.5735	4.8182	0.	4027.
12882	7.5735	4.9091	5.e-002	9.2932
12883	7.8503	4.9091	0.	3954.5
12884	7.758	4.8182	0.	3977.3
12885	7.758	4.9091	5.e-002	9.3551
12886	8.0349	4.9091	0.	3904.6
12887	7.9426	4.8182	0.	3927.2
12888	7.9426	4.9091	5.e-002	9.4127
12889	8.2194	4.9091	0.	3854.3
12890	8.1272	4.8182	0.	3876.6
12891	8.1272	4.9091	5.e-002	9.4581
12892	8.404	4.9091	0.	3803.6
12893	8.3117	4.8182	0.	3825.9
12894	8.3117	4.9091	5.e-002	9.4885
12895	8.5886	4.9091	0.	3752.8
12896	8.4963	4.8182	0.	3775.
12897	8.4963	4.9091	5.e-002	9.5037
12898	8.7731	4.9091	0.	3701.9
12899	8.6809	4.8182	0.	3724.1
12900	8.6809	4.9091	5.e-002	9.5051
12901	8.9577	4.9091	0.	3650.9
12902	8.8654	4.8182	0.	3673.1
12903	8.8654	4.9091	5.e-002	9.4945
12904	9.1423	4.9091	0.	3600.
12905	9.05	4.8182	0.	3622.2
12906	9.05	4.9091	5.e-002	9.4741
12907	9.3269	4.9091	0.	3549.1
12908	9.2346	4.8182	0.	3571.4
12909	9.2346	4.9091	5.e-002	9.4456
12910	9.5114	4.9091	0.	3498.2
12911	9.4191	4.8182	0.	3520.7
12912	9.4191	4.9091	5.e-002	9.4108
12913	9.696	4.9091	0.	3447.5
12914	9.6037	4.8182	0.	3470.
12915	9.6037	4.9091	5.e-002	9.3712
12916	9.8806	4.9091	0.	3396.8
12917	9.7883	4.8182	0.	3419.4
12918	9.7883	4.9091	5.e-002	9.3281
12919	10.065	4.9091	0.	3346.3
12920	9.9728	4.8182	0.	3369.
12921	9.9728	4.9091	5.e-002	9.2825
12922	10.25	4.9091	0.	3295.8
12923	10.157	4.8182	0.	3318.6
12924	10.157	4.9091	5.e-002	9.2352
12925	10.434	4.9091	0.	3245.5
12926	10.342	4.8182	0.	3268.4
12927	10.342	4.9091	5.e-002	9.1868
12928	10.619	4.9091	0.	3195.3
12929	10.527	4.8182	0.	3218.3
12930	10.527	4.9091	5.e-002	9.1378
12931	10.803	4.9091	0.	3145.3
12932	10.711	4.8182	0.	3168.3
12933	10.711	4.9091	5.e-002	9.0888
12934	10.988	4.9091	0.	3095.3
12935	10.896	4.8182	0.	3118.4
12936	10.896	4.9091	5.e-002	9.0399
12937	11.173	4.9091	0.	3045.6
12938	11.08	4.8182	0.	3068.6
12939	11.08	4.9091	5.e-002	8.9913
12940	11.357	4.9091	0.	2995.9
12941	11.265	4.8182	0.	3019.
12942	11.265	4.9091	5.e-002	8.9433
12943	11.542	4.9091	0.	2946.4
12944	11.449	4.8182	0.	2969.5
12945	11.449	4.9091	5.e-002	8.8959
12946	11.726	4.9091	0.	2897.
12947	11.634	4.8182	0.	2920.2
12948	11.634	4.9091	5.e-002	8.8491
12949	11.911	4.9091	0.	2847.8
12950	11.819	4.8182	0.	2871.
12951	11.819	4.9091	5.e-002	8.803
12952	12.095	4.9091	0.	2798.7
12953	12.003	4.8182	0.	2821.9
12954	12.003	4.9091	5.e-002	8.7577
12955	12.28	4.9091	0.	2749.8
12956	12.188	4.8182	0.	2773.
12957	12.188	4.9091	5.e-002	8.7131
12958	12.465	4.9091	0.	2701.1
12959	12.372	4.8182	0.	2724.2
12960	12.372	4.9091	5.e-002	8.6693
12961	12.649	4.9091	0.	2652.5
12962	12.557	4.8182	0.	2675.6
12963	12.557	4.9091	5.e-002	8.6261
12964	12.834	4.9091	0.	2604.1
12965	12.741	4.8182	0.	2627.2
12966	12.741	4.9091	5.e-002	8.5836
12967	13.018	4.9091	0.	2555.8
12968	12.926	4.8182	0.	2578.9
12969	12.926	4.9091	5.e-002	8.5418
12970	13.203	4.9091	0.	2507.7
12971	13.11	4.8182	0.	2530.7
12972	13.11	4.9091	5.e-002	8.5006
12973	13.387	4.9091	0.	2459.8
12974	13.295	4.8182	0.	2482.8
12975	13.295	4.9091	5.e-002	8.4601
12976	13.572	4.9091	0.	2412.
12977	13.48	4.8182	0.	2435.
12978	13.48	4.9091	5.e-002	8.42
12979	13.756	4.9091	0.	2364.5
12980	13.664	4.8182	0.	2387.4
12981	13.664	4.9091	5.e-002	8.3806
12982	13.941	4.9091	0.	2317.1
12983	13.849	4.8182	0.	2339.9
12984	13.849	4.9091	5.e-002	8.3417
12985	14.126	4.9091	0.	2269.9
12986	14.033	4.8182	0.	2292.6
12987	14.033	4.9091	5.e-002	8.3032
12988	14.31	4.9091	0.	2222.8
12989	14.218	4.8182	0.	2245.5
12990	14.218	4.9091	5.e-002	8.2652
12991	14.495	4.9091	0.	2176.
12992	14.402	4.8182	0.	2198.6
12993	14.402	4.9091	5.e-002	8.2277
12994	14.679	4.9091	0.	2129.3
12995	14.587	4.8182	0.	2151.9
12996	14.587	4.9091	5.e-002	8.1906
12997	14.864	4.9091	0.	2082.9
12998	14.772	4.8182	0.	2105.4
12999	14.772	4.9091	5.e-002	8.1538
13000	15.048	4.9091	0.	2036.6
13001	14.956	4.8182	0.	2059.
13002	14.956	4.9091	5.e-002	8.1175
13003	15.233	4.9091	0.	1990.5
13004	15.141	4.8182	0.	2012.9
13005	15.141	4.9091	5.e-002	8.0815
13006	15.418	4.9091	0.	1944.6
13007	15.325	4.8182	0.	1966.9
13008	15.325	4.9091	5.e-002	8.0459
13009	15.602	4.9091	0.	1898.9
13010	15.51	4.8182	0.	1921.1
13011	15.51	4.9091	5.e-002	8.0106
13012	15.787	4.9091	0.	1853.4
13013	15.694	4.8182	0.	1875.5
13014	15.694	4.9091	5.e-002	7.9758
13015	15.971	4.9091	0.	1808.1
13016	15.879	4.8182	0.	1830.1
13017	15.879	4.9091	5.e-002	7.9413
13018	16.156	4.9091	0.	1763.
13019	16.064	4.8182	0.	1785.
13020	16.064	4.9091	5.e-002	7.9071
13021	16.34	4.9091	0.	1718.1
13022	16.248	4.8182	0.	1740.
13023	16.248	4.9091	5.e-002	7.8733
13024	16.525	4.9091	0.	1673.4
13025	16.433	4.8182	0.	1695.2
13026	16.433	4.9091	5.e-002	7.8399
13027	16.71	4.9091	0.	1628.9
13028	16.617	4.8182	0.	1650.6
13029	16.617	4.9091	5.e-002	7.8069
13030	16.894	4.9091	0.	1584.6
13031	16.802	4.8182	0.	1606.2
13032	16.802	4.9091	5.e-002	7.7741
13033	17.079	4.9091	0.	1540.5
13034	16.986	4.8182	0.	1562.1
13035	16.986	4.9091	5.e-002	7.7418
13036	17.263	4.9091	0.	1496.6
13037	17.171	4.8182	0.	1518.1
13038	17.171	4.9091	5.e-002	7.7099
13039	17.448	4.9091	0.	1453.
13040	17.356	4.8182	0.	1474.4
13041	17.356	4.9091	5.e-002	7.6784
13042	17.632	4.9091	0.	1409.5
13043	17.54	4.8182	0.	1430.8
13044	17.54	4.9091	5.e-002	7.6474
13045	17.817	4.9091	0.	1366.3
13046	17.725	4.8182	0.	1387.5
13047	17.725	4.9091	5.e-002	7.6168
13048	18.002	4.9091	0.	1323.2
13049	17.909	4.8182	0.	1344.4
13050	17.909	4.9091	5.e-002	7.5867
13051	18.186	4.9091	0.	1280.4
13052	18.094	4.8182	0.	1301.5
13053	18.094	4.9091	5.e-002	7.5571
13054	18.371	4.9091	0.	1237.8
13055	18.278	4.8182	0.	1258.8
13056	18.278	4.9091	5.e-002	7.5281
13057	18.555	4.9091	0.	1195.5
13058	18.463	4.8182	0.	1216.4
13059	18.463	4.9091	5.e-002	7.4996
13060	18.74	4.9091	0.	1153.3
13061	18.648	4.8182	0.	1174.1
13062	18.648	4.9091	5.e-002	7.4718
13063	18.924	4.9091	0.	1111.4
13064	18.832	4.8182	0.	1132.1
13065	18.832	4.9091	5.e-002	7.4447
13066	19.109	4.9091	0.	1069.7
13067	19.017	4.8182	0.	1090.4
13068	19.017	4.9091	5.e-002	7.4183
13069	19.294	4.9091	0.	1028.2
13070	19.201	4.8182	0.	1048.8
13071	19.201	4.9091	5.e-002	7.3927
13072	19.478	4.9091	0.	986.91
13073	19.386	4.8182	0.	1007.5
13074	19.386	4.9091	5.e-002	7.368
13075	19.663	4.9091	0.	945.89
13076	19.57	4.8182	0.	966.44
13077	19.57	4.9091	5.e-002	7.3441
13078	19.847	4.9091	0.	905.1
13079	19.755	4.8182	0.	925.6
13080	19.755	4.9091	5.e-002	7.3212
13081	20.032	4.9091	0.	864.55
13082	19.94	4.8182	0.	885.02
13083	19.94	4.9091	5.e-002	7.2995
13084	20.216	4.9091	0.	824.25
13085	20.124	4.8182	0.	844.68
13086	20.124	4.9091	5.e-002	7.2788
13087	20.401	4.9091	0.	784.19
13088	20.309	4.8182	0.	804.6
13089	20.309	4.9091	5.e-002	7.2595
13090	20.585	4.9091	0.	744.39
13091	20.493	4.8182	0.	764.78
13092	20.493	4.9091	5.e-002	7.2415
13093	20.77	4.9091	0.	704.86
13094	20.678	4.8182	0.	725.23
13095	20.678	4.9091	5.e-002	7.225
13096	20.955	4.9091	0.	665.6
13097	20.862	4.8182	0.	685.97
13098	20.862	4.9091	5.e-002	7.2101
13099	21.139	4.9091	0.	626.63
13100	21.047	4.8182	0.	647.
13101	21.047	4.9091	5.e-002	7.1971
13102	21.324	4.9091	0.	587.98
13103	21.231	4.8182	0.	608.35
13104	21.231	4.9091	5.e-002	7.1861
13105	21.508	4.9091	0.	549.65
13106	21.416	4.8182	0.	570.04
13107	21.416	4.9091	5.e-002	7.1774
13108	21.693	4.9091	0.	511.7
13109	21.601	4.8182	0.	532.09
13110	21.601	4.9091	5.e-002	7.1712
13111	21.877	4.9091	0.	474.15
13112	21.785	4.8182	0.	494.55
13113	21.785	4.9091	5.e-002	7.168
13114	22.062	4.9091	0.	437.06
13115	21.97	4.8182	0.	457.47
13116	21.97	4.9091	5.e-002	7.1683
13117	22.247	4.9091	0.	400.52
13118	22.154	4.8182	0.	420.91
13119	22.154	4.9091	5.e-002	7.1727
13120	22.431	4.9091	0.	364.63
13121	22.339	4.8182	0.	384.97
13122	22.339	4.9091	5.e-002	7.1822
13123	22.616	4.9091	0.	329.52
13124	22.523	4.8182	0.	349.77
13125	22.523	4.9091	5.e-002	7.1982
13126	22.8	4.9091	0.	295.4
13127	22.708	4.8182	0.	315.47
13128	22.708	4.9091	5.e-002	7.2225
13129	22.985	4.9091	0.	262.55
13130	22.893	4.8182	0.	282.31
13131	22.893	4.9091	5.e-002	7.258
13132	23.169	4.9091	0.	231.35
13133	23.077	4.8182	0.	250.62
13134	23.077	4.9091	5.e-002	7.3084
13135	23.354	4.9091	0.	202.37
13136	23.262	4.8182	0.	220.84
13137	23.262	4.9091	5.e-002	7.3789
13138	23.539	4.9091	0.	176.43
13139	23.446	4.8182	0.	193.63
13140	23.446	4.9091	5.e-002	7.4754
13141	23.723	4.9091	0.	154.81
13142	23.631	4.8182	0.	169.99
13143	23.631	4.9091	5.e-002	7.612
13144	23.815	4.8182	0.	151.42
13145	23.815	4.9091	5.e-002	7.9342
13146	23.908	4.9091	0.	138.81
13147	4.3435	4.7273	0.	5002.1
13148	4.2512	4.6364	0.	6023.2
13149	4.2512	4.7273	5.e-002	247.11
13150	4.159	4.7273	0.	4292.6
13151	4.5281	4.7273	0.	4687.1
13152	4.4358	4.6364	0.	5331.
13153	4.4358	4.7273	5.e-002	150.57
13154	4.7127	4.7273	0.	4573.8
13155	4.6204	4.6364	0.	5031.8
13156	4.6204	4.7273	5.e-002	110.67
13157	4.8972	4.7273	0.	4517.3
13158	4.8049	4.6364	0.	4841.2
13159	4.8049	4.7273	5.e-002	79.69
13160	5.0818	4.7273	0.	4489.6
13161	4.9895	4.6364	0.	4722.8
13162	4.9895	4.7273	5.e-002	59.69
13163	5.2664	4.7273	0.	4474.6
13164	5.1741	4.6364	0.	4646.1
13165	5.1741	4.7273	5.e-002	46.235
13166	5.4509	4.7273	0.	4461.9
13167	5.3586	4.6364	0.	4591.2
13168	5.3586	4.7273	5.e-002	36.825
13169	5.6355	4.7273	0.	4446.2
13170	5.5432	4.6364	0.	4546.1
13171	5.5432	4.7273	5.e-002	29.902
13172	5.8201	4.7273	0.	4425.2
13173	5.7278	4.6364	0.	4504.2
13174	5.7278	4.7273	5.e-002	24.657
13175	6.0046	4.7273	0.	4398.2
13176	5.9123	4.6364	0.	4462.2
13177	5.9123	4.7273	5.e-002	20.639
13178	6.1892	4.7273	0.	4365.8
13179	6.0969	4.6364	0.	4418.8
13180	6.0969	4.7273	5.e-002	17.571
13181	6.3738	4.7273	0.	4328.7
13182	6.2815	4.6364	0.	4373.6
13183	6.2815	4.7273	5.e-002	15.265
13184	6.5583	4.7273	0.	4287.8
13185	6.466	4.6364	0.	4326.6
13186	6.466	4.7273	5.e-002	13.569
13187	6.7429	4.7273	0.	4243.9
13188	6.6506	4.6364	0.	4278.1
13189	6.6506	4.7273	5.e-002	12.357
13190	6.9275	4.7273	0.	4197.7
13191	6.8352	4.6364	0.	4228.5
13192	6.8352	4.7273	5.e-002	11.515
13193	7.112	4.7273	0.	4149.9
13194	7.0198	4.6364	0.	4178.2
13195	7.0198	4.7273	5.e-002	10.945
13196	7.2966	4.7273	0.	4100.9
13197	7.2043	4.6364	0.	4127.3
13198	7.2043	4.7273	5.e-002	10.566
13199	7.4812	4.7273	0.	4051.1
13200	7.3889	4.6364	0.	4076.1
13201	7.3889	4.7273	5.e-002	10.316
13202	7.6657	4.7273	0.	4000.7
13203	7.5735	4.6364	0.	4024.8
13204	7.5735	4.7273	5.e-002	10.149
13205	7.8503	4.7273	0.	3950.1
13206	7.758	4.6364	0.	3973.4
13207	7.758	4.7273	5.e-002	10.033
13208	8.0349	4.7273	0.	3899.2
13209	7.9426	4.6364	0.	3922.
13210	7.9426	4.7273	5.e-002	9.947
13211	8.2194	4.7273	0.	3848.2
13212	8.1272	4.6364	0.	3870.7
13213	8.1272	4.7273	5.e-002	9.8787
13214	8.404	4.7273	0.	3797.2
13215	8.3117	4.6364	0.	3819.5
13216	8.3117	4.7273	5.e-002	9.8193
13217	8.5886	4.7273	0.	3746.2
13218	8.4963	4.6364	0.	3768.4
13219	8.4963	4.7273	5.e-002	9.7641
13220	8.7731	4.7273	0.	3695.3
13221	8.6809	4.6364	0.	3717.5
13222	8.6809	4.7273	5.e-002	9.7103
13223	8.9577	4.7273	0.	3644.5
13224	8.8654	4.6364	0.	3666.7
13225	8.8654	4.7273	5.e-002	9.6566
13226	9.1423	4.7273	0.	3593.7
13227	9.05	4.6364	0.	3616.
13228	9.05	4.7273	5.e-002	9.6023
13229	9.3269	4.7273	0.	3543.
13230	9.2346	4.6364	0.	3565.4
13231	9.2346	4.7273	5.e-002	9.5474
13232	9.5114	4.7273	0.	3492.5
13233	9.4191	4.6364	0.	3514.9
13234	9.4191	4.7273	5.e-002	9.4919
13235	9.696	4.7273	0.	3442.
13236	9.6037	4.6364	0.	3464.5
13237	9.6037	4.7273	5.e-002	9.4362
13238	9.8806	4.7273	0.	3391.6
13239	9.7883	4.6364	0.	3414.2
13240	9.7883	4.7273	5.e-002	9.3803
13241	10.065	4.7273	0.	3341.4
13242	9.9728	4.6364	0.	3364.1
13243	9.9728	4.7273	5.e-002	9.3247
13244	10.25	4.7273	0.	3291.2
13245	10.157	4.6364	0.	3314.
13246	10.157	4.7273	5.e-002	9.2696
13247	10.434	4.7273	0.	3241.2
13248	10.342	4.6364	0.	3264.1
13249	10.342	4.7273	5.e-002	9.215
13250	10.619	4.7273	0.	3191.2
13251	10.527	4.6364	0.	3214.2
13252	10.527	4.7273	5.e-002	9.1611
13253	10.803	4.7273	0.	3141.4
13254	10.711	4.6364	0.	3164.4
13255	10.711	4.7273	5.e-002	9.1082
13256	10.988	4.7273	0.	3091.7
13257	10.896	4.6364	0.	3114.8
13258	10.896	4.7273	5.e-002	9.0562
13259	11.173	4.7273	0.	3042.2
13260	11.08	4.6364	0.	3065.3
13261	11.08	4.7273	5.e-002	9.0051
13262	11.357	4.7273	0.	2992.7
13263	11.265	4.6364	0.	3015.9
13264	11.265	4.7273	5.e-002	8.9551
13265	11.542	4.7273	0.	2943.4
13266	11.449	4.6364	0.	2966.6
13267	11.449	4.7273	5.e-002	8.9061
13268	11.726	4.7273	0.	2894.2
13269	11.634	4.6364	0.	2917.4
13270	11.634	4.7273	5.e-002	8.858
13271	11.911	4.7273	0.	2845.1
13272	11.819	4.6364	0.	2868.3
13273	11.819	4.7273	5.e-002	8.8108
13274	12.095	4.7273	0.	2796.2
13275	12.003	4.6364	0.	2819.4
13276	12.003	4.7273	5.e-002	8.7645
13277	12.28	4.7273	0.	2747.4
13278	12.188	4.6364	0.	2770.6
13279	12.188	4.7273	5.e-002	8.7192
13280	12.465	4.7273	0.	2698.8
13281	12.372	4.6364	0.	2722.
13282	12.372	4.7273	5.e-002	8.6748
13283	12.649	4.7273	0.	2650.3
13284	12.557	4.6364	0.	2673.5
13285	12.557	4.7273	5.e-002	8.6311
13286	12.834	4.7273	0.	2602.
13287	12.741	4.6364	0.	2625.2
13288	12.741	4.7273	5.e-002	8.5881
13289	13.018	4.7273	0.	2553.8
13290	12.926	4.6364	0.	2577.
13291	12.926	4.7273	5.e-002	8.5459
13292	13.203	4.7273	0.	2505.8
13293	13.11	4.6364	0.	2528.9
13294	13.11	4.7273	5.e-002	8.5044
13295	13.387	4.7273	0.	2458.
13296	13.295	4.6364	0.	2481.
13297	13.295	4.7273	5.e-002	8.4635
13298	13.572	4.7273	0.	2410.3
13299	13.48	4.6364	0.	2433.3
13300	13.48	4.7273	5.e-002	8.4232
13301	13.756	4.7273	0.	2362.8
13302	13.664	4.6364	0.	2385.8
13303	13.664	4.7273	5.e-002	8.3835
13304	13.941	4.7273	0.	2315.5
13305	13.849	4.6364	0.	2338.4
13306	13.849	4.7273	5.e-002	8.3444
13307	14.126	4.7273	0.	2268.4
13308	14.033	4.6364	0.	2291.2
13309	14.033	4.7273	5.e-002	8.3058
13310	14.31	4.7273	0.	2221.4
13311	14.218	4.6364	0.	2244.1
13312	14.218	4.7273	5.e-002	8.2676
13313	14.495	4.7273	0.	2174.6
13314	14.402	4.6364	0.	2197.3
13315	14.402	4.7273	5.e-002	8.23
13316	14.679	4.7273	0.	2128.
13317	14.587	4.6364	0.	2150.6
13318	14.587	4.7273	5.e-002	8.1927
13319	14.864	4.7273	0.	2081.6
13320	14.772	4.6364	0.	2104.1
13321	14.772	4.7273	5.e-002	8.1558
13322	15.048	4.7273	0.	2035.3
13323	14.956	4.6364	0.	2057.8
13324	14.956	4.7273	5.e-002	8.1194
13325	15.233	4.7273	0.	1989.3
13326	15.141	4.6364	0.	2011.7
13327	15.141	4.7273	5.e-002	8.0833
13328	15.418	4.7273	0.	1943.4
13329	15.325	4.6364	0.	1965.8
13330	15.325	4.7273	5.e-002	8.0477
13331	15.602	4.7273	0.	1897.8
13332	15.51	4.6364	0.	1920.
13333	15.51	4.7273	5.e-002	8.0123
13334	15.787	4.7273	0.	1852.3
13335	15.694	4.6364	0.	1874.5
13336	15.694	4.7273	5.e-002	7.9774
13337	15.971	4.7273	0.	1807.
13338	15.879	4.6364	0.	1829.1
13339	15.879	4.7273	5.e-002	7.9429
13340	16.156	4.7273	0.	1762.
13341	16.064	4.6364	0.	1784.
13342	16.064	4.7273	5.e-002	7.9087
13343	16.34	4.7273	0.	1717.1
13344	16.248	4.6364	0.	1739.
13345	16.248	4.7273	5.e-002	7.8749
13346	16.525	4.7273	0.	1672.4
13347	16.433	4.6364	0.	1694.3
13348	16.433	4.7273	5.e-002	7.8415
13349	16.71	4.7273	0.	1628.
13350	16.617	4.6364	0.	1649.7
13351	16.617	4.7273	5.e-002	7.8084
13352	16.894	4.7273	0.	1583.7
13353	16.802	4.6364	0.	1605.4
13354	16.802	4.7273	5.e-002	7.7757
13355	17.079	4.7273	0.	1539.7
13356	16.986	4.6364	0.	1561.3
13357	16.986	4.7273	5.e-002	7.7434
13358	17.263	4.7273	0.	1495.9
13359	17.171	4.6364	0.	1517.3
13360	17.171	4.7273	5.e-002	7.7115
13361	17.448	4.7273	0.	1452.2
13362	17.356	4.6364	0.	1473.6
13363	17.356	4.7273	5.e-002	7.6801
13364	17.632	4.7273	0.	1408.8
13365	17.54	4.6364	0.	1430.2
13366	17.54	4.7273	5.e-002	7.6491
13367	17.817	4.7273	0.	1365.6
13368	17.725	4.6364	0.	1386.9
13369	17.725	4.7273	5.e-002	7.6186
13370	18.002	4.7273	0.	1322.7
13371	17.909	4.6364	0.	1343.8
13372	17.909	4.7273	5.e-002	7.5885
13373	18.186	4.7273	0.	1279.9
13374	18.094	4.6364	0.	1301.
13375	18.094	4.7273	5.e-002	7.5591
13376	18.371	4.7273	0.	1237.4
13377	18.278	4.6364	0.	1258.4
13378	18.278	4.7273	5.e-002	7.5302
13379	18.555	4.7273	0.	1195.1
13380	18.463	4.6364	0.	1216.
13381	18.463	4.7273	5.e-002	7.5018
13382	18.74	4.7273	0.	1153.
13383	18.648	4.6364	0.	1173.9
13384	18.648	4.7273	5.e-002	7.4742
13385	18.924	4.7273	0.	1111.2
13386	18.832	4.6364	0.	1132.
13387	18.832	4.7273	5.e-002	7.4472
13388	19.109	4.7273	0.	1069.6
13389	19.017	4.6364	0.	1090.3
13390	19.017	4.7273	5.e-002	7.4211
13391	19.294	4.7273	0.	1028.2
13392	19.201	4.6364	0.	1048.9
13393	19.201	4.7273	5.e-002	7.3957
13394	19.478	4.7273	0.	987.1
13395	19.386	4.6364	0.	1007.7
13396	19.386	4.7273	5.e-002	7.3712
13397	19.663	4.7273	0.	946.22
13398	19.57	4.6364	0.	966.73
13399	19.57	4.7273	5.e-002	7.3476
13400	19.847	4.7273	0.	905.58
13401	19.755	4.6364	0.	926.05
13402	19.755	4.7273	5.e-002	7.3251
13403	20.032	4.7273	0.	865.21
13404	19.94	4.6364	0.	885.62
13405	19.94	4.7273	5.e-002	7.3037
13406	20.216	4.7273	0.	825.1
13407	20.124	4.6364	0.	845.47
13408	20.124	4.7273	5.e-002	7.2836
13409	20.401	4.7273	0.	785.25
13410	20.309	4.6364	0.	805.58
13411	20.309	4.7273	5.e-002	7.2647
13412	20.585	4.7273	0.	745.69
13413	20.493	4.6364	0.	765.98
13414	20.493	4.7273	5.e-002	7.2474
13415	20.77	4.7273	0.	706.41
13416	20.678	4.6364	0.	726.68
13417	20.678	4.7273	5.e-002	7.2316
13418	20.955	4.7273	0.	667.44
13419	20.862	4.6364	0.	687.68
13420	20.862	4.7273	5.e-002	7.2177
13421	21.139	4.7273	0.	628.79
13422	21.047	4.6364	0.	649.01
13423	21.047	4.7273	5.e-002	7.2057
13424	21.324	4.7273	0.	590.49
13425	21.231	4.6364	0.	610.69
13426	21.231	4.7273	5.e-002	7.196
13427	21.508	4.7273	0.	552.55
13428	21.416	4.6364	0.	572.73
13429	21.416	4.7273	5.e-002	7.1888
13430	21.693	4.7273	0.	515.02
13431	21.601	4.6364	0.	535.18
13432	21.601	4.7273	5.e-002	7.1844
13433	21.877	4.7273	0.	477.95
13434	21.785	4.6364	0.	498.07
13435	21.785	4.7273	5.e-002	7.1833
13436	22.062	4.7273	0.	441.38
13437	21.97	4.6364	0.	461.46
13438	21.97	4.7273	5.e-002	7.1861
13439	22.247	4.7273	0.	405.42
13440	22.154	4.6364	0.	425.43
13441	22.154	4.7273	5.e-002	7.1935
13442	22.431	4.7273	0.	370.15
13443	22.339	4.6364	0.	390.05
13444	22.339	4.7273	5.e-002	7.2066
13445	22.616	4.7273	0.	335.73
13446	22.523	4.6364	0.	355.46
13447	22.523	4.7273	5.e-002	7.2266
13448	22.8	4.7273	0.	302.34
13449	22.708	4.6364	0.	321.81
13450	22.708	4.7273	5.e-002	7.2553
13451	22.985	4.7273	0.	270.26
13452	22.893	4.6364	0.	289.34
13453	22.893	4.7273	5.e-002	7.2952
13454	23.169	4.7273	0.	239.86
13455	23.077	4.6364	0.	258.35
13456	23.077	4.7273	5.e-002	7.3493
13457	23.354	4.7273	0.	211.65
13458	23.262	4.6364	0.	229.28
13459	23.262	4.7273	5.e-002	7.4212
13460	23.539	4.7273	0.	186.43
13461	23.446	4.6364	0.	202.74
13462	23.446	4.7273	5.e-002	7.5145
13463	23.723	4.7273	0.	165.36
13464	23.631	4.6364	0.	179.67
13465	23.631	4.7273	5.e-002	7.639
13466	23.815	4.6364	0.	161.47
13467	23.815	4.7273	5.e-002	7.9159
13468	23.908	4.7273	0.	149.87
13469	4.3435	4.5455	0.	6204.5
13470	4.2512	4.4545	0.	7744.5
13471	4.2512	4.5455	5.e-002	311.97
13472	4.159	4.5455	0.	5451.6
13473	4.5281	4.5455	0.	5593.4
13474	4.4358	4.4545	0.	6470.6
13475	4.4358	4.5455	5.e-002	187.23
13476	4.7127	4.5455	0.	5253.9
13477	4.6204	4.4545	0.	5830.6
13478	4.6204	4.5455	5.e-002	111.93
13479	4.8972	4.5455	0.	5021.3
13480	4.8049	4.4545	0.	5422.8
13481	4.8049	4.5455	5.e-002	78.906
13482	5.0818	4.5455	0.	4865.1
13483	4.9895	4.4545	0.	5151.5
13484	4.9895	4.5455	5.e-002	59.263
13485	5.2664	4.5455	0.	4754.8
13486	5.1741	4.4545	0.	4965.6
13487	5.1741	4.5455	5.e-002	47.258
13488	5.4509	4.5455	0.	4671.
13489	5.3586	4.4545	0.	4829.7
13490	5.3586	4.5455	5.e-002	38.731
13491	5.6355	4.5455	0.	4601.7
13492	5.5432	4.4545	0.	4723.8
13493	5.5432	4.5455	5.e-002	32.334
13494	5.8201	4.5455	0.	4540.
13495	5.7278	4.4545	0.	4635.8
13496	5.7278	4.5455	5.e-002	27.347
13497	6.0046	4.5455	0.	4482.2
13498	5.9123	4.4545	0.	4558.7
13499	5.9123	4.5455	5.e-002	23.41
13500	6.1892	4.5455	0.	4426.3
13501	6.0969	4.4545	0.	4488.6
13502	6.0969	4.5455	5.e-002	20.295
13503	6.3738	4.5455	0.	4371.3
13504	6.2815	4.4545	0.	4423.1
13505	6.2815	4.5455	5.e-002	17.841
13506	6.5583	4.5455	0.	4316.9
13507	6.466	4.4545	0.	4360.8
13508	6.466	4.5455	5.e-002	15.924
13509	6.7429	4.5455	0.	4262.8
13510	6.6506	4.4545	0.	4300.8
13511	6.6506	4.5455	5.e-002	14.445
13512	6.9275	4.5455	0.	4209.1
13513	6.8352	4.4545	0.	4242.6
13514	6.8352	4.5455	5.e-002	13.316
13515	7.112	4.5455	0.	4155.6
13516	7.0198	4.4545	0.	4185.8
13517	7.0198	4.5455	5.e-002	12.462
13518	7.2966	4.5455	0.	4102.5
13519	7.2043	4.4545	0.	4130.3
13520	7.2043	4.5455	5.e-002	11.82
13521	7.4812	4.5455	0.	4049.8
13522	7.3889	4.4545	0.	4075.8
13523	7.3889	4.5455	5.e-002	11.336
13524	7.6657	4.5455	0.	3997.4
13525	7.5735	4.4545	0.	4022.
13526	7.5735	4.5455	5.e-002	10.97
13527	7.8503	4.5455	0.	3945.3
13528	7.758	4.4545	0.	3969.
13529	7.758	4.5455	5.e-002	10.689
13530	8.0349	4.5455	0.	3893.5
13531	7.9426	4.4545	0.	3916.6
13532	7.9426	4.5455	5.e-002	10.469
13533	8.2194	4.5455	0.	3842.
13534	8.1272	4.4545	0.	3864.7
13535	8.1272	4.5455	5.e-002	10.292
13536	8.404	4.5455	0.	3790.8
13537	8.3117	4.4545	0.	3813.2
13538	8.3117	4.5455	5.e-002	10.146
13539	8.5886	4.5455	0.	3739.7
13540	8.4963	4.4545	0.	3762.
13541	8.4963	4.5455	5.e-002	10.023
13542	8.7731	4.5455	0.	3688.9
13543	8.6809	4.4545	0.	3711.1
13544	8.6809	4.5455	5.e-002	9.9147
13545	8.9577	4.5455	0.	3638.2
13546	8.8654	4.4545	0.	3660.4
13547	8.8654	4.5455	5.e-002	9.8183
13548	9.1423	4.5455	0.	3587.6
13549	9.05	4.4545	0.	3609.9
13550	9.05	4.5455	5.e-002	9.7305
13551	9.3269	4.5455	0.	3537.2
13552	9.2346	4.4545	0.	3559.6
13553	9.2346	4.5455	5.e-002	9.6492
13554	9.5114	4.5455	0.	3486.9
13555	9.4191	4.4545	0.	3509.4
13556	9.4191	4.5455	5.e-002	9.573
13557	9.696	4.5455	0.	3436.8
13558	9.6037	4.4545	0.	3459.3
13559	9.6037	4.5455	5.e-002	9.501
13560	9.8806	4.5455	0.	3386.7
13561	9.7883	4.4545	0.	3409.3
13562	9.7883	4.5455	5.e-002	9.4324
13563	10.065	4.5455	0.	3336.7
13564	9.9728	4.4545	0.	3359.5
13565	9.9728	4.5455	5.e-002	9.3667
13566	10.25	4.5455	0.	3286.9
13567	10.157	4.4545	0.	3309.7
13568	10.157	4.5455	5.e-002	9.3036
13569	10.434	4.5455	0.	3237.1
13570	10.342	4.4545	0.	3260.
13571	10.342	4.5455	5.e-002	9.2428
13572	10.619	4.5455	0.	3187.4
13573	10.527	4.4545	0.	3210.4
13574	10.527	4.5455	5.e-002	9.184
13575	10.803	4.5455	0.	3137.8
13576	10.711	4.4545	0.	3160.9
13577	10.711	4.5455	5.e-002	9.1271
13578	10.988	4.5455	0.	3088.4
13579	10.896	4.4545	0.	3111.5
13580	10.896	4.5455	5.e-002	9.072
13581	11.173	4.5455	0.	3039.
13582	11.08	4.4545	0.	3062.1
13583	11.08	4.5455	5.e-002	9.0184
13584	11.357	4.5455	0.	2989.7
13585	11.265	4.4545	0.	3012.9
13586	11.265	4.5455	5.e-002	8.9664
13587	11.542	4.5455	0.	2940.6
13588	11.449	4.4545	0.	2963.8
13589	11.449	4.5455	5.e-002	8.9157
13590	11.726	4.5455	0.	2891.6
13591	11.634	4.4545	0.	2914.8
13592	11.634	4.5455	5.e-002	8.8663
13593	11.911	4.5455	0.	2842.7
13594	11.819	4.4545	0.	2865.9
13595	11.819	4.5455	5.e-002	8.8181
13596	12.095	4.5455	0.	2793.9
13597	12.003	4.4545	0.	2817.1
13598	12.003	4.5455	5.e-002	8.771
13599	12.28	4.5455	0.	2745.2
13600	12.188	4.4545	0.	2768.5
13601	12.188	4.5455	5.e-002	8.7249
13602	12.465	4.5455	0.	2696.7
13603	12.372	4.4545	0.	2720.
13604	12.372	4.5455	5.e-002	8.6798
13605	12.649	4.5455	0.	2648.4
13606	12.557	4.4545	0.	2671.6
13607	12.557	4.5455	5.e-002	8.6357
13608	12.834	4.5455	0.	2600.1
13609	12.741	4.4545	0.	2623.3
13610	12.741	4.5455	5.e-002	8.5922
13611	13.018	4.5455	0.	2552.1
13612	12.926	4.4545	0.	2575.2
13613	12.926	4.5455	5.e-002	8.5497
13614	13.203	4.5455	0.	2504.2
13615	13.11	4.4545	0.	2527.3
13616	13.11	4.5455	5.e-002	8.5078
13617	13.387	4.5455	0.	2456.4
13618	13.295	4.4545	0.	2479.5
13619	13.295	4.5455	5.e-002	8.4667
13620	13.572	4.5455	0.	2408.8
13621	13.48	4.4545	0.	2431.8
13622	13.48	4.5455	5.e-002	8.4261
13623	13.756	4.5455	0.	2361.4
13624	13.664	4.4545	0.	2384.3
13625	13.664	4.5455	5.e-002	8.3862
13626	13.941	4.5455	0.	2314.1
13627	13.849	4.4545	0.	2337.
13628	13.849	4.5455	5.e-002	8.3469
13629	14.126	4.5455	0.	2267.
13630	14.033	4.4545	0.	2289.9
13631	14.033	4.5455	5.e-002	8.3081
13632	14.31	4.5455	0.	2220.1
13633	14.218	4.4545	0.	2242.9
13634	14.218	4.5455	5.e-002	8.2698
13635	14.495	4.5455	0.	2173.3
13636	14.402	4.4545	0.	2196.1
13637	14.402	4.5455	5.e-002	8.232
13638	14.679	4.5455	0.	2126.8
13639	14.587	4.4545	0.	2149.4
13640	14.587	4.5455	5.e-002	8.1946
13641	14.864	4.5455	0.	2080.4
13642	14.772	4.4545	0.	2103.
13643	14.772	4.5455	5.e-002	8.1576
13644	15.048	4.5455	0.	2034.2
13645	14.956	4.4545	0.	2056.7
13646	14.956	4.5455	5.e-002	8.1211
13647	15.233	4.5455	0.	1988.2
13648	15.141	4.4545	0.	2010.6
13649	15.141	4.5455	5.e-002	8.085
13650	15.418	4.5455	0.	1942.4
13651	15.325	4.4545	0.	1964.7
13652	15.325	4.5455	5.e-002	8.0493
13653	15.602	4.5455	0.	1896.8
13654	15.51	4.4545	0.	1919.
13655	15.51	4.5455	5.e-002	8.0139
13656	15.787	4.5455	0.	1851.3
13657	15.694	4.4545	0.	1873.5
13658	15.694	4.5455	5.e-002	7.9789
13659	15.971	4.5455	0.	1806.1
13660	15.879	4.4545	0.	1828.2
13661	15.879	4.5455	5.e-002	7.9444
13662	16.156	4.5455	0.	1761.1
13663	16.064	4.4545	0.	1783.1
13664	16.064	4.5455	5.e-002	7.9101
13665	16.34	4.5455	0.	1716.2
13666	16.248	4.4545	0.	1738.2
13667	16.248	4.5455	5.e-002	7.8763
13668	16.525	4.5455	0.	1671.6
13669	16.433	4.4545	0.	1693.5
13670	16.433	4.5455	5.e-002	7.8429
13671	16.71	4.5455	0.	1627.2
13672	16.617	4.4545	0.	1649.
13673	16.617	4.5455	5.e-002	7.8098
13674	16.894	4.5455	0.	1583.
13675	16.802	4.4545	0.	1604.7
13676	16.802	4.5455	5.e-002	7.7771
13677	17.079	4.5455	0.	1539.
13678	16.986	4.4545	0.	1560.6
13679	16.986	4.5455	5.e-002	7.7448
13680	17.263	4.5455	0.	1495.2
13681	17.171	4.4545	0.	1516.7
13682	17.171	4.5455	5.e-002	7.713
13683	17.448	4.5455	0.	1451.6
13684	17.356	4.4545	0.	1473.
13685	17.356	4.5455	5.e-002	7.6816
13686	17.632	4.5455	0.	1408.3
13687	17.54	4.4545	0.	1429.6
13688	17.54	4.5455	5.e-002	7.6506
13689	17.817	4.5455	0.	1365.1
13690	17.725	4.4545	0.	1386.4
13691	17.725	4.5455	5.e-002	7.6202
13692	18.002	4.5455	0.	1322.2
13693	17.909	4.4545	0.	1343.4
13694	17.909	4.5455	5.e-002	7.5902
13695	18.186	4.5455	0.	1279.5
13696	18.094	4.4545	0.	1300.6
13697	18.094	4.5455	5.e-002	7.5608
13698	18.371	4.5455	0.	1237.1
13699	18.278	4.4545	0.	1258.1
13700	18.278	4.5455	5.e-002	7.532
13701	18.555	4.5455	0.	1194.9
13702	18.463	4.4545	0.	1215.8
13703	18.463	4.5455	5.e-002	7.5038
13704	18.74	4.5455	0.	1152.9
13705	18.648	4.4545	0.	1173.7
13706	18.648	4.5455	5.e-002	7.4763
13707	18.924	4.5455	0.	1111.1
13708	18.832	4.4545	0.	1131.9
13709	18.832	4.5455	5.e-002	7.4495
13710	19.109	4.5455	0.	1069.6
13711	19.017	4.4545	0.	1090.3
13712	19.017	4.5455	5.e-002	7.4235
13713	19.294	4.5455	0.	1028.4
13714	19.201	4.4545	0.	1049.
13715	19.201	4.5455	5.e-002	7.3983
13716	19.478	4.5455	0.	987.37
13717	19.386	4.4545	0.	1007.9
13718	19.386	4.5455	5.e-002	7.3741
13719	19.663	4.5455	0.	946.63
13720	19.57	4.4545	0.	967.1
13721	19.57	4.5455	5.e-002	7.3508
13722	19.847	4.5455	0.	906.15
13723	19.755	4.4545	0.	926.56
13724	19.755	4.5455	5.e-002	7.3286
13725	20.032	4.5455	0.	865.95
13726	19.94	4.4545	0.	886.29
13727	19.94	4.5455	5.e-002	7.3076
13728	20.216	4.5455	0.	826.02
13729	20.124	4.4545	0.	846.31
13730	20.124	4.5455	5.e-002	7.2878
13731	20.401	4.5455	0.	786.38
13732	20.309	4.4545	0.	806.61
13733	20.309	4.5455	5.e-002	7.2695
13734	20.585	4.5455	0.	747.04
13735	20.493	4.4545	0.	767.22
13736	20.493	4.5455	5.e-002	7.2528
13737	20.77	4.5455	0.	708.02
13738	20.678	4.4545	0.	728.15
13739	20.678	4.5455	5.e-002	7.2378
13740	20.955	4.5455	0.	669.32
13741	20.862	4.4545	0.	689.4
13742	20.862	4.5455	5.e-002	7.2247
13743	21.139	4.5455	0.	630.97
13744	21.047	4.4545	0.	651.01
13745	21.047	4.5455	5.e-002	7.2138
13746	21.324	4.5455	0.	592.99
13747	21.231	4.4545	0.	612.99
13748	21.231	4.5455	5.e-002	7.2052
13749	21.508	4.5455	0.	555.42
13750	21.416	4.4545	0.	575.36
13751	21.416	4.5455	5.e-002	7.1994
13752	21.693	4.5455	0.	518.29
13753	21.601	4.4545	0.	538.17
13754	21.601	4.5455	5.e-002	7.1968
13755	21.877	4.5455	0.	481.64
13756	21.785	4.4545	0.	501.46
13757	21.785	4.5455	5.e-002	7.1977
13758	22.062	4.5455	0.	445.55
13759	21.97	4.4545	0.	465.27
13760	21.97	4.5455	5.e-002	7.2028
13761	22.247	4.5455	0.	410.08
13762	22.154	4.4545	0.	429.69
13763	22.154	4.5455	5.e-002	7.213
13764	22.431	4.5455	0.	375.36
13765	22.339	4.4545	0.	394.8
13766	22.339	4.5455	5.e-002	7.2291
13767	22.616	4.5455	0.	341.51
13768	22.523	4.4545	0.	360.72
13769	22.523	4.5455	5.e-002	7.2524
13770	22.8	4.5455	0.	308.73
13771	22.708	4.4545	0.	327.62
13772	22.708	4.5455	5.e-002	7.2846
13773	22.985	4.5455	0.	277.26
13774	22.893	4.4545	0.	295.7
13775	22.893	4.5455	5.e-002	7.3276
13776	23.169	4.5455	0.	247.47
13777	23.077	4.4545	0.	265.26
13778	23.077	4.5455	5.e-002	7.3837
13779	23.354	4.5455	0.	219.86
13780	23.262	4.4545	0.	236.73
13781	23.262	4.5455	5.e-002	7.4554
13782	23.539	4.5455	0.	195.18
13783	23.446	4.4545	0.	210.7
13784	23.446	4.5455	5.e-002	7.5447
13785	23.723	4.5455	0.	174.54
13786	23.631	4.4545	0.	188.07
13787	23.631	4.5455	5.e-002	7.6588
13788	23.815	4.4545	0.	170.15
13789	23.815	4.5455	5.e-002	7.8965
13790	23.908	4.5455	0.	159.44
13791	4.3435	4.3636	0.	7792.1
13792	4.2512	4.2727	0.	10220
13793	4.2512	4.3636	5.e-002	475.64
13794	4.159	4.3636	0.	7019.1
13795	4.5281	4.3636	0.	6633.4
13796	4.4358	4.2727	0.	7766.2
13797	4.4358	4.3636	5.e-002	187.71
13798	4.7127	4.3636	0.	5961.6
13799	4.6204	4.2727	0.	6637.4
13800	4.6204	4.3636	5.e-002	116.4
13801	4.8972	4.3636	0.	5532.4
13802	4.8049	4.2727	0.	5996.9
13803	4.8049	4.3636	5.e-002	83.136
13804	5.0818	4.3636	0.	5240.3
13805	4.9895	4.2727	0.	5572.6
13806	4.9895	4.3636	5.e-002	64.063
13807	5.2664	4.3636	0.	5033.9
13808	5.1741	4.2727	0.	5279.2
13809	5.1741	4.3636	5.e-002	52.173
13810	5.4509	4.3636	0.	4878.7
13811	5.3586	4.2727	0.	5063.8
13812	5.3586	4.3636	5.e-002	43.295
13813	5.6355	4.3636	0.	4755.8
13814	5.5432	4.2727	0.	4898.
13815	5.5432	4.3636	5.e-002	36.465
13816	5.8201	4.3636	0.	4653.4
13817	5.7278	4.2727	0.	4764.5
13818	5.7278	4.3636	5.e-002	31.069
13819	6.0046	4.3636	0.	4564.7
13820	5.9123	4.2727	0.	4652.8
13821	5.9123	4.3636	5.e-002	26.748
13822	6.1892	4.3636	0.	4485.2
13823	6.0969	4.2727	0.	4556.3
13824	6.0969	4.3636	5.e-002	23.266
13825	6.3738	4.3636	0.	4412.5
13826	6.2815	4.2727	0.	4470.8
13827	6.2815	4.3636	5.e-002	20.461
13828	6.5583	4.3636	0.	4344.7
13829	6.466	4.2727	0.	4393.3
13830	6.466	4.3636	5.e-002	18.208
13831	6.7429	4.3636	0.	4280.6
13832	6.6506	4.2727	0.	4322.
13833	6.6506	4.3636	5.e-002	16.408
13834	6.9275	4.3636	0.	4219.4
13835	6.8352	4.2727	0.	4255.5
13836	6.8352	4.3636	5.e-002	14.98
13837	7.112	4.3636	0.	4160.6
13838	7.0198	4.2727	0.	4192.6
13839	7.0198	4.3636	5.e-002	13.854
13840	7.2966	4.3636	0.	4103.6
13841	7.2043	4.2727	0.	4132.6
13842	7.2043	4.3636	5.e-002	12.969
13843	7.4812	4.3636	0.	4048.
13844	7.3889	4.2727	0.	4074.9
13845	7.3889	4.3636	5.e-002	12.276
13846	7.6657	4.3636	0.	3993.7
13847	7.5735	4.2727	0.	4019.
13848	7.5735	4.3636	5.e-002	11.731
13849	7.8503	4.3636	0.	3940.4
13850	7.758	4.2727	0.	3964.6
13851	7.758	4.3636	5.e-002	11.301
13852	8.0349	4.3636	0.	3887.8
13853	7.9426	4.2727	0.	3911.2
13854	7.9426	4.3636	5.e-002	10.959
13855	8.2194	4.3636	0.	3835.9
13856	8.1272	4.2727	0.	3858.7
13857	8.1272	4.3636	5.e-002	10.683
13858	8.404	4.3636	0.	3784.4
13859	8.3117	4.2727	0.	3807.
13860	8.3117	4.3636	5.e-002	10.457
13861	8.5886	4.3636	0.	3733.3
13862	8.4963	4.2727	0.	3755.7
13863	8.4963	4.3636	5.e-002	10.269
13864	8.7731	4.3636	0.	3682.6
13865	8.6809	4.2727	0.	3704.9
13866	8.6809	4.3636	5.e-002	10.11
13867	8.9577	4.3636	0.	3632.1
13868	8.8654	4.2727	0.	3654.4
13869	8.8654	4.3636	5.e-002	9.9736
13870	9.1423	4.3636	0.	3581.8
13871	9.05	4.2727	0.	3604.1
13872	9.05	4.3636	5.e-002	9.8538
13873	9.3269	4.3636	0.	3531.7
13874	9.2346	4.2727	0.	3554.1
13875	9.2346	4.3636	5.e-002	9.7473
13876	9.5114	4.3636	0.	3481.7
13877	9.4191	4.2727	0.	3504.2
13878	9.4191	4.3636	5.e-002	9.6513
13879	9.696	4.3636	0.	3431.9
13880	9.6037	4.2727	0.	3454.4
13881	9.6037	4.3636	5.e-002	9.5636
13882	9.8806	4.3636	0.	3382.1
13883	9.7883	4.2727	0.	3404.7
13884	9.7883	4.3636	5.e-002	9.4826
13885	10.065	4.3636	0.	3332.4
13886	9.9728	4.2727	0.	3355.2
13887	9.9728	4.3636	5.e-002	9.4072
13888	10.25	4.3636	0.	3282.8
13889	10.157	4.2727	0.	3305.7
13890	10.157	4.3636	5.e-002	9.3363
13891	10.434	4.3636	0.	3233.3
13892	10.342	4.2727	0.	3256.2
13893	10.342	4.3636	5.e-002	9.2694
13894	10.619	4.3636	0.	3183.9
13895	10.527	4.2727	0.	3206.9
13896	10.527	4.3636	5.e-002	9.2058
13897	10.803	4.3636	0.	3134.5
13898	10.711	4.2727	0.	3157.6
13899	10.711	4.3636	5.e-002	9.1451
13900	10.988	4.3636	0.	3085.3
13901	10.896	4.2727	0.	3108.4
13902	10.896	4.3636	5.e-002	9.087
13903	11.173	4.3636	0.	3036.1
13904	11.08	4.2727	0.	3059.3
13905	11.08	4.3636	5.e-002	9.031
13906	11.357	4.3636	0.	2987.
13907	11.265	4.2727	0.	3010.3
13908	11.265	4.3636	5.e-002	8.977
13909	11.542	4.3636	0.	2938.
13910	11.449	4.2727	0.	2961.3
13911	11.449	4.3636	5.e-002	8.9248
13912	11.726	4.3636	0.	2889.2
13913	11.634	4.2727	0.	2912.5
13914	11.634	4.3636	5.e-002	8.8741
13915	11.911	4.3636	0.	2840.4
13916	11.819	4.2727	0.	2863.7
13917	11.819	4.3636	5.e-002	8.8248
13918	12.095	4.3636	0.	2791.8
13919	12.003	4.2727	0.	2815.1
13920	12.003	4.3636	5.e-002	8.7769
13921	12.28	4.3636	0.	2743.2
13922	12.188	4.2727	0.	2766.5
13923	12.188	4.3636	5.e-002	8.7301
13924	12.465	4.3636	0.	2694.8
13925	12.372	4.2727	0.	2718.1
13926	12.372	4.3636	5.e-002	8.6845
13927	12.649	4.3636	0.	2646.6
13928	12.557	4.2727	0.	2669.9
13929	12.557	4.3636	5.e-002	8.6398
13930	12.834	4.3636	0.	2598.5
13931	12.741	4.2727	0.	2621.7
13932	12.741	4.3636	5.e-002	8.596
13933	13.018	4.3636	0.	2550.5
13934	12.926	4.2727	0.	2573.7
13935	12.926	4.3636	5.e-002	8.5531
13936	13.203	4.3636	0.	2502.6
13937	13.11	4.2727	0.	2525.8
13938	13.11	4.3636	5.e-002	8.5109
13939	13.387	4.3636	0.	2454.9
13940	13.295	4.2727	0.	2478.1
13941	13.295	4.3636	5.e-002	8.4695
13942	13.572	4.3636	0.	2407.4
13943	13.48	4.2727	0.	2430.5
13944	13.48	4.3636	5.e-002	8.4287
13945	13.756	4.3636	0.	2360.
13946	13.664	4.2727	0.	2383.1
13947	13.664	4.3636	5.e-002	8.3886
13948	13.941	4.3636	0.	2312.8
13949	13.849	4.2727	0.	2335.8
13950	13.849	4.3636	5.e-002	8.3491
13951	14.126	4.3636	0.	2265.8
13952	14.033	4.2727	0.	2288.7
13953	14.033	4.3636	5.e-002	8.3102
13954	14.31	4.3636	0.	2218.9
13955	14.218	4.2727	0.	2241.8
13956	14.218	4.3636	5.e-002	8.2717
13957	14.495	4.3636	0.	2172.2
13958	14.402	4.2727	0.	2195.
13959	14.402	4.3636	5.e-002	8.2338
13960	14.679	4.3636	0.	2125.7
13961	14.587	4.2727	0.	2148.4
13962	14.587	4.3636	5.e-002	8.1963
13963	14.864	4.3636	0.	2079.4
13964	14.772	4.2727	0.	2102.
13965	14.772	4.3636	5.e-002	8.1592
13966	15.048	4.3636	0.	2033.2
13967	14.956	4.2727	0.	2055.8
13968	14.956	4.3636	5.e-002	8.1226
13969	15.233	4.3636	0.	1987.2
13970	15.141	4.2727	0.	2009.7
13971	15.141	4.3636	5.e-002	8.0865
13972	15.418	4.3636	0.	1941.4
13973	15.325	4.2727	0.	1963.9
13974	15.325	4.3636	5.e-002	8.0507
13975	15.602	4.3636	0.	1895.9
13976	15.51	4.2727	0.	1918.2
13977	15.51	4.3636	5.e-002	8.0152
13978	15.787	4.3636	0.	1850.5
13979	15.694	4.2727	0.	1872.7
13980	15.694	4.3636	5.e-002	7.9802
13981	15.971	4.3636	0.	1805.3
13982	15.879	4.2727	0.	1827.4
13983	15.879	4.3636	5.e-002	7.9456
13984	16.156	4.3636	0.	1760.3
13985	16.064	4.2727	0.	1782.3
13986	16.064	4.3636	5.e-002	7.9114
13987	16.34	4.3636	0.	1715.5
13988	16.248	4.2727	0.	1737.5
13989	16.248	4.3636	5.e-002	7.8775
13990	16.525	4.3636	0.	1670.9
13991	16.433	4.2727	0.	1692.8
13992	16.433	4.3636	5.e-002	7.8441
13993	16.71	4.3636	0.	1626.5
13994	16.617	4.2727	0.	1648.3
13995	16.617	4.3636	5.e-002	7.811
13996	16.894	4.3636	0.	1582.3
13997	16.802	4.2727	0.	1604.
13998	16.802	4.3636	5.e-002	7.7783
13999	17.079	4.3636	0.	1538.4
14000	16.986	4.2727	0.	1560.
14001	16.986	4.3636	5.e-002	7.7461
14002	17.263	4.3636	0.	1494.6
14003	17.171	4.2727	0.	1516.2
14004	17.171	4.3636	5.e-002	7.7142
14005	17.448	4.3636	0.	1451.1
14006	17.356	4.2727	0.	1472.5
14007	17.356	4.3636	5.e-002	7.6829
14008	17.632	4.3636	0.	1407.8
14009	17.54	4.2727	0.	1429.1
14010	17.54	4.3636	5.e-002	7.652
14011	17.817	4.3636	0.	1364.7
14012	17.725	4.2727	0.	1386.
14013	17.725	4.3636	5.e-002	7.6216
14014	18.002	4.3636	0.	1321.8
14015	17.909	4.2727	0.	1343.
14016	17.909	4.3636	5.e-002	7.5917
14017	18.186	4.3636	0.	1279.2
14018	18.094	4.2727	0.	1300.3
14019	18.094	4.3636	5.e-002	7.5624
14020	18.371	4.3636	0.	1236.8
14021	18.278	4.2727	0.	1257.8
14022	18.278	4.3636	5.e-002	7.5336
14023	18.555	4.3636	0.	1194.7
14024	18.463	4.2727	0.	1215.6
14025	18.463	4.3636	5.e-002	7.5055
14026	18.74	4.3636	0.	1152.8
14027	18.648	4.2727	0.	1173.6
14028	18.648	4.3636	5.e-002	7.4781
14029	18.924	4.3636	0.	1111.1
14030	18.832	4.2727	0.	1131.9
14031	18.832	4.3636	5.e-002	7.4515
14032	19.109	4.3636	0.	1069.7
14033	19.017	4.2727	0.	1090.4
14034	19.017	4.3636	5.e-002	7.4256
14035	19.294	4.3636	0.	1028.6
14036	19.201	4.2727	0.	1049.2
14037	19.201	4.3636	5.e-002	7.4006
14038	19.478	4.3636	0.	987.7
14039	19.386	4.2727	0.	1008.2
14040	19.386	4.3636	5.e-002	7.3766
14041	19.663	4.3636	0.	947.09
14042	19.57	4.2727	0.	967.51
14043	19.57	4.3636	5.e-002	7.3536
14044	19.847	4.3636	0.	906.76
14045	19.755	4.2727	0.	927.1
14046	19.755	4.3636	5.e-002	7.3317
14047	20.032	4.3636	0.	866.71
14048	19.94	4.2727	0.	886.98
14049	19.94	4.3636	5.e-002	7.311
14050	20.216	4.3636	0.	826.96
14051	20.124	4.2727	0.	847.16
14052	20.124	4.3636	5.e-002	7.2917
14053	20.401	4.3636	0.	787.52
14054	20.309	4.2727	0.	807.64
14055	20.309	4.3636	5.e-002	7.2739
14056	20.585	4.3636	0.	748.39
14057	20.493	4.2727	0.	768.44
14058	20.493	4.3636	5.e-002	7.2577
14059	20.77	4.3636	0.	709.6
14060	20.678	4.2727	0.	729.58
14061	20.678	4.3636	5.e-002	7.2434
14062	20.955	4.3636	0.	671.16
14063	20.862	4.2727	0.	691.07
14064	20.862	4.3636	5.e-002	7.2311
14065	21.139	4.3636	0.	633.08
14066	21.047	4.2727	0.	652.93
14067	21.047	4.3636	5.e-002	7.2211
14068	21.324	4.3636	0.	595.41
14069	21.231	4.2727	0.	615.18
14070	21.231	4.3636	5.e-002	7.2137
14071	21.508	4.3636	0.	558.16
14072	21.416	4.2727	0.	577.85
14073	21.416	4.3636	5.e-002	7.2093
14074	21.693	4.3636	0.	521.39
14075	21.601	4.2727	0.	540.98
14076	21.601	4.3636	5.e-002	7.2082
14077	21.877	4.3636	0.	485.12
14078	21.785	4.2727	0.	504.61
14079	21.785	4.3636	5.e-002	7.2109
14080	22.062	4.3636	0.	449.44
14081	21.97	4.2727	0.	468.8
14082	21.97	4.3636	5.e-002	7.2182
14083	22.247	4.3636	0.	414.41
14084	22.154	4.2727	0.	433.6
14085	22.154	4.3636	5.e-002	7.2307
14086	22.431	4.3636	0.	380.14
14087	22.339	4.2727	0.	399.13
14088	22.339	4.3636	5.e-002	7.2494
14089	22.616	4.3636	0.	346.77
14090	22.523	4.2727	0.	365.47
14091	22.523	4.3636	5.e-002	7.2755
14092	22.8	4.3636	0.	314.47
14093	22.708	4.2727	0.	332.8
14094	22.708	4.3636	5.e-002	7.3102
14095	22.985	4.3636	0.	283.49
14096	22.893	4.2727	0.	301.33
14097	22.893	4.3636	5.e-002	7.3553
14098	23.169	4.3636	0.	254.18
14099	23.077	4.2727	0.	271.33
14100	23.077	4.3636	5.e-002	7.4123
14101	23.354	4.3636	0.	227.03
14102	23.262	4.2727	0.	243.22
14103	23.262	4.3636	5.e-002	7.4829
14104	23.539	4.3636	0.	202.78
14105	23.446	4.2727	0.	217.59
14106	23.446	4.3636	5.e-002	7.5683
14107	23.723	4.3636	0.	182.46
14108	23.631	4.2727	0.	195.3
14109	23.631	4.3636	5.e-002	7.6734
14110	23.815	4.2727	0.	177.6
14111	23.815	4.3636	5.e-002	7.8774
14112	23.908	4.3636	0.	167.69
14113	4.3435	4.1818	0.	9999.7
14114	4.2512	4.0909	0.	12838
14115	4.2512	4.1818	5.e-002	863.26
14116	4.159	4.1818	0.	10142
14117	4.5281	4.1818	0.	7719.8
14118	4.4358	4.0909	0.	8930.3
14119	4.4358	4.1818	5.e-002	290.06
14120	4.7127	4.1818	0.	6650.1
14121	4.6204	4.0909	0.	7403.8
14122	4.6204	4.1818	5.e-002	133.63
14123	4.8972	4.1818	0.	6023.1
14124	4.8049	4.0909	0.	6541.4
14125	4.8049	4.1818	5.e-002	96.365
14126	5.0818	4.1818	0.	5602.9
14127	4.9895	4.0909	0.	5974.7
14128	4.9895	4.1818	5.e-002	75.078
14129	5.2664	4.1818	0.	5304.
14130	5.1741	4.0909	0.	5579.8
14131	5.1741	4.1818	5.e-002	60.239
14132	5.4509	4.1818	0.	5080.1
14133	5.3586	4.0909	0.	5288.5
14134	5.3586	4.1818	5.e-002	49.635
14135	5.6355	4.1818	0.	4905.
14136	5.5432	4.0909	0.	5065.2
14137	5.5432	4.1818	5.e-002	41.596
14138	5.8201	4.1818	0.	4763.
14139	5.7278	4.0909	0.	4887.7
14140	5.7278	4.1818	5.e-002	35.315
14141	6.0046	4.1818	0.	4644.
14142	5.9123	4.0909	0.	4742.5
14143	5.9123	4.1818	5.e-002	30.305
14144	6.1892	4.1818	0.	4541.6
14145	6.0969	4.0909	0.	4620.4
14146	6.0969	4.1818	5.e-002	26.266
14147	6.3738	4.1818	0.	4451.5
14148	6.2815	4.0909	0.	4515.6
14149	6.2815	4.1818	5.e-002	22.994
14150	6.5583	4.1818	0.	4370.7
14151	6.466	4.0909	0.	4423.7
14152	6.466	4.1818	5.e-002	20.344
14153	6.7429	4.1818	0.	4297.
14154	6.6506	4.0909	0.	4341.6
14155	6.6506	4.1818	5.e-002	18.203
14156	6.9275	4.1818	0.	4228.7
14157	6.8352	4.0909	0.	4267.1
14158	6.8352	4.1818	5.e-002	16.479
14159	7.112	4.1818	0.	4164.7
14160	7.0198	4.0909	0.	4198.4
14161	7.0198	4.1818	5.e-002	15.098
14162	7.2966	4.1818	0.	4104.
14163	7.2043	4.0909	0.	4134.3
14164	7.2043	4.1818	5.e-002	13.994
14165	7.4812	4.1818	0.	4045.9
14166	7.3889	4.0909	0.	4073.7
14167	7.3889	4.1818	5.e-002	13.114
14168	7.6657	4.1818	0.	3989.9
14169	7.5735	4.0909	0.	4015.9
14170	7.5735	4.1818	5.e-002	12.412
14171	7.8503	4.1818	0.	3935.4
14172	7.758	4.0909	0.	3960.1
14173	7.758	4.1818	5.e-002	11.852
14174	8.0349	4.1818	0.	3882.2
14175	7.9426	4.0909	0.	3905.9
14176	7.9426	4.1818	5.e-002	11.401
14177	8.2194	4.1818	0.	3829.9
14178	8.1272	4.0909	0.	3853.
14179	8.1272	4.1818	5.e-002	11.038
14180	8.404	4.1818	0.	3778.3
14181	8.3117	4.0909	0.	3801.1
14182	8.3117	4.1818	5.e-002	10.741
14183	8.5886	4.1818	0.	3727.3
14184	8.4963	4.0909	0.	3749.8
14185	8.4963	4.1818	5.e-002	10.496
14186	8.7731	4.1818	0.	3676.7
14187	8.6809	4.0909	0.	3699.1
14188	8.6809	4.1818	5.e-002	10.291
14189	8.9577	4.1818	0.	3626.4
14190	8.8654	4.0909	0.	3648.8
14191	8.8654	4.1818	5.e-002	10.117
14192	9.1423	4.1818	0.	3576.4
14193	9.05	4.0909	0.	3598.8
14194	9.05	4.1818	5.e-002	9.9683
14195	9.3269	4.1818	0.	3526.6
14196	9.2346	4.0909	0.	3549.
14197	9.2346	4.1818	5.e-002	9.8386
14198	9.5114	4.1818	0.	3476.9
14199	9.4191	4.0909	0.	3499.4
14200	9.4191	4.1818	5.e-002	9.7242
14201	9.696	4.1818	0.	3427.3
14202	9.6037	4.0909	0.	3450.
14203	9.6037	4.1818	5.e-002	9.6219
14204	9.8806	4.1818	0.	3377.8
14205	9.7883	4.0909	0.	3400.6
14206	9.7883	4.1818	5.e-002	9.5294
14207	10.065	4.1818	0.	3328.4
14208	9.9728	4.0909	0.	3351.3
14209	9.9728	4.1818	5.e-002	9.4448
14210	10.25	4.1818	0.	3279.1
14211	10.157	4.0909	0.	3302.
14212	10.157	4.1818	5.e-002	9.3668
14213	10.434	4.1818	0.	3229.9
14214	10.342	4.0909	0.	3252.9
14215	10.342	4.1818	5.e-002	9.2942
14216	10.619	4.1818	0.	3180.7
14217	10.527	4.0909	0.	3203.8
14218	10.527	4.1818	5.e-002	9.226
14219	10.803	4.1818	0.	3131.5
14220	10.711	4.0909	0.	3154.7
14221	10.711	4.1818	5.e-002	9.1617
14222	10.988	4.1818	0.	3082.5
14223	10.896	4.0909	0.	3105.7
14224	10.896	4.1818	5.e-002	9.1008
14225	11.173	4.1818	0.	3033.5
14226	11.08	4.0909	0.	3056.8
14227	11.08	4.1818	5.e-002	9.0425
14228	11.357	4.1818	0.	2984.6
14229	11.265	4.0909	0.	3007.9
14230	11.265	4.1818	5.e-002	8.9867
14231	11.542	4.1818	0.	2935.8
14232	11.449	4.0909	0.	2959.1
14233	11.449	4.1818	5.e-002	8.933
14234	11.726	4.1818	0.	2887.
14235	11.634	4.0909	0.	2910.4
14236	11.634	4.1818	5.e-002	8.8812
14237	11.911	4.1818	0.	2838.4
14238	11.819	4.0909	0.	2861.8
14239	11.819	4.1818	5.e-002	8.8309
14240	12.095	4.1818	0.	2789.9
14241	12.003	4.0909	0.	2813.3
14242	12.003	4.1818	5.e-002	8.7822
14243	12.28	4.1818	0.	2741.5
14244	12.188	4.0909	0.	2764.8
14245	12.188	4.1818	5.e-002	8.7348
14246	12.465	4.1818	0.	2693.2
14247	12.372	4.0909	0.	2716.5
14248	12.372	4.1818	5.e-002	8.6886
14249	12.649	4.1818	0.	2645.
14250	12.557	4.0909	0.	2668.3
14251	12.557	4.1818	5.e-002	8.6435
14252	12.834	4.1818	0.	2597.
14253	12.741	4.0909	0.	2620.3
14254	12.741	4.1818	5.e-002	8.5993
14255	13.018	4.1818	0.	2549.1
14256	12.926	4.0909	0.	2572.3
14257	12.926	4.1818	5.e-002	8.5561
14258	13.203	4.1818	0.	2501.3
14259	13.11	4.0909	0.	2524.5
14260	13.11	4.1818	5.e-002	8.5136
14261	13.387	4.1818	0.	2453.7
14262	13.295	4.0909	0.	2476.9
14263	13.295	4.1818	5.e-002	8.472
14264	13.572	4.1818	0.	2406.2
14265	13.48	4.0909	0.	2429.3
14266	13.48	4.1818	5.e-002	8.431
14267	13.756	4.1818	0.	2358.9
14268	13.664	4.0909	0.	2382.
14269	13.664	4.1818	5.e-002	8.3907
14270	13.941	4.1818	0.	2311.7
14271	13.849	4.0909	0.	2334.7
14272	13.849	4.1818	5.e-002	8.3511
14273	14.126	4.1818	0.	2264.7
14274	14.033	4.0909	0.	2287.7
14275	14.033	4.1818	5.e-002	8.312
14276	14.31	4.1818	0.	2217.9
14277	14.218	4.0909	0.	2240.8
14278	14.218	4.1818	5.e-002	8.2734
14279	14.495	4.1818	0.	2171.2
14280	14.402	4.0909	0.	2194.1
14281	14.402	4.1818	5.e-002	8.2354
14282	14.679	4.1818	0.	2124.8
14283	14.587	4.0909	0.	2147.5
14284	14.587	4.1818	5.e-002	8.1978
14285	14.864	4.1818	0.	2078.5
14286	14.772	4.0909	0.	2101.1
14287	14.772	4.1818	5.e-002	8.1607
14288	15.048	4.1818	0.	2032.3
14289	14.956	4.0909	0.	2054.9
14290	14.956	4.1818	5.e-002	8.124
14291	15.233	4.1818	0.	1986.4
14292	15.141	4.0909	0.	2008.9
14293	15.141	4.1818	5.e-002	8.0877
14294	15.418	4.1818	0.	1940.6
14295	15.325	4.0909	0.	1963.1
14296	15.325	4.1818	5.e-002	8.0519
14297	15.602	4.1818	0.	1895.1
14298	15.51	4.0909	0.	1917.5
14299	15.51	4.1818	5.e-002	8.0164
14300	15.787	4.1818	0.	1849.7
14301	15.694	4.0909	0.	1872.
14302	15.694	4.1818	5.e-002	7.9814
14303	15.971	4.1818	0.	1804.5
14304	15.879	4.0909	0.	1826.8
14305	15.879	4.1818	5.e-002	7.9468
14306	16.156	4.1818	0.	1759.6
14307	16.064	4.0909	0.	1781.7
14308	16.064	4.1818	5.e-002	7.9125
14309	16.34	4.1818	0.	1714.8
14310	16.248	4.0909	0.	1736.8
14311	16.248	4.1818	5.e-002	7.8786
14312	16.525	4.1818	0.	1670.3
14313	16.433	4.0909	0.	1692.2
14314	16.433	4.1818	5.e-002	7.8452
14315	16.71	4.1818	0.	1625.9
14316	16.617	4.0909	0.	1647.7
14317	16.617	4.1818	5.e-002	7.8121
14318	16.894	4.1818	0.	1581.8
14319	16.802	4.0909	0.	1603.5
14320	16.802	4.1818	5.e-002	7.7794
14321	17.079	4.1818	0.	1537.8
14322	16.986	4.0909	0.	1559.5
14323	16.986	4.1818	5.e-002	7.7472
14324	17.263	4.1818	0.	1494.1
14325	17.171	4.0909	0.	1515.7
14326	17.171	4.1818	5.e-002	7.7153
14327	17.448	4.1818	0.	1450.6
14328	17.356	4.0909	0.	1472.1
14329	17.356	4.1818	5.e-002	7.684
14330	17.632	4.1818	0.	1407.4
14331	17.54	4.0909	0.	1428.8
14332	17.54	4.1818	5.e-002	7.6532
14333	17.817	4.1818	0.	1364.4
14334	17.725	4.0909	0.	1385.6
14335	17.725	4.1818	5.e-002	7.6228
14336	18.002	4.1818	0.	1321.6
14337	17.909	4.0909	0.	1342.7
14338	17.909	4.1818	5.e-002	7.5929
14339	18.186	4.1818	0.	1279.
14340	18.094	4.0909	0.	1300.1
14341	18.094	4.1818	5.e-002	7.5637
14342	18.371	4.1818	0.	1236.7
14343	18.278	4.0909	0.	1257.7
14344	18.278	4.1818	5.e-002	7.535
14345	18.555	4.1818	0.	1194.6
14346	18.463	4.0909	0.	1215.5
14347	18.463	4.1818	5.e-002	7.507
14348	18.74	4.1818	0.	1152.8
14349	18.648	4.0909	0.	1173.6
14350	18.648	4.1818	5.e-002	7.4797
14351	18.924	4.1818	0.	1111.2
14352	18.832	4.0909	0.	1131.9
14353	18.832	4.1818	5.e-002	7.4532
14354	19.109	4.1818	0.	1069.9
14355	19.017	4.0909	0.	1090.5
14356	19.017	4.1818	5.e-002	7.4275
14357	19.294	4.1818	0.	1028.8
14358	19.201	4.0909	0.	1049.4
14359	19.201	4.1818	5.e-002	7.4027
14360	19.478	4.1818	0.	988.06
14361	19.386	4.0909	0.	1008.5
14362	19.386	4.1818	5.e-002	7.3788
14363	19.663	4.1818	0.	947.58
14364	19.57	4.0909	0.	967.93
14365	19.57	4.1818	5.e-002	7.3561
14366	19.847	4.1818	0.	907.38
14367	19.755	4.0909	0.	927.64
14368	19.755	4.1818	5.e-002	7.3344
14369	20.032	4.1818	0.	867.48
14370	19.94	4.0909	0.	887.65
14371	19.94	4.1818	5.e-002	7.3141
14372	20.216	4.1818	0.	827.89
14373	20.124	4.0909	0.	847.97
14374	20.124	4.1818	5.e-002	7.2951
14375	20.401	4.1818	0.	788.62
14376	20.309	4.0909	0.	808.61
14377	20.309	4.1818	5.e-002	7.2778
14378	20.585	4.1818	0.	749.69
14379	20.493	4.0909	0.	769.59
14380	20.493	4.1818	5.e-002	7.2621
14381	20.77	4.1818	0.	711.1
14382	20.678	4.0909	0.	730.92
14383	20.678	4.1818	5.e-002	7.2484
14384	20.955	4.1818	0.	672.89
14385	20.862	4.0909	0.	692.62
14386	20.862	4.1818	5.e-002	7.2369
14387	21.139	4.1818	0.	635.07
14388	21.047	4.0909	0.	654.7
14389	21.047	4.1818	5.e-002	7.2278
14390	21.324	4.1818	0.	597.66
14391	21.231	4.0909	0.	617.19
14392	21.231	4.1818	5.e-002	7.2214
14393	21.508	4.1818	0.	560.71
14394	21.416	4.0909	0.	580.13
14395	21.416	4.1818	5.e-002	7.2182
14396	21.693	4.1818	0.	524.24
14397	21.601	4.0909	0.	543.54
14398	21.601	4.1818	5.e-002	7.2185
14399	21.877	4.1818	0.	488.31
14400	21.785	4.0909	0.	507.46
14401	21.785	4.1818	5.e-002	7.2229
14402	22.062	4.1818	0.	452.97
14403	21.97	4.0909	0.	471.96
14404	21.97	4.1818	5.e-002	7.232
14405	22.247	4.1818	0.	418.31
14406	22.154	4.0909	0.	437.1
14407	22.154	4.1818	5.e-002	7.2466
14408	22.431	4.1818	0.	384.41
14409	22.339	4.0909	0.	402.96
14410	22.339	4.1818	5.e-002	7.2674
14411	22.616	4.1818	0.	351.43
14412	22.523	4.0909	0.	369.65
14413	22.523	4.1818	5.e-002	7.2956
14414	22.8	4.1818	0.	319.51
14415	22.708	4.0909	0.	337.33
14416	22.708	4.1818	5.e-002	7.3322
14417	22.985	4.1818	0.	288.92
14418	22.893	4.0909	0.	306.2
14419	22.893	4.1818	5.e-002	7.3786
14420	23.169	4.1818	0.	259.99
14421	23.077	4.0909	0.	276.54
14422	23.077	4.1818	5.e-002	7.4358
14423	23.354	4.1818	0.	233.21
14424	23.262	4.0909	0.	248.77
14425	23.262	4.1818	5.e-002	7.5051
14426	23.539	4.1818	0.	209.29
14427	23.446	4.0909	0.	223.45
14428	23.446	4.1818	5.e-002	7.5868
14429	23.723	4.1818	0.	189.23
14430	23.631	4.0909	0.	201.44
14431	23.631	4.1818	5.e-002	7.6844
14432	23.815	4.0909	0.	183.9
14433	23.815	4.1818	5.e-002	7.8595
14434	23.908	4.1818	0.	174.71
14435	4.3435	4.	0.	11794
14436	4.2512	3.9091	0.	13882
14437	4.2512	4.	5.e-002	1569.2
14438	4.159	4.	0.	20764
14439	4.5281	4.	0.	8616.3
14440	4.4358	3.9091	0.	9880.1
14441	4.4358	4.	5.e-002	270.81
14442	4.7127	4.	0.	7285.1
14443	4.6204	3.9091	0.	8081.6
14444	4.6204	4.	5.e-002	174.96
14445	4.8972	4.	0.	6484.8
14446	4.8049	3.9091	0.	7044.5
14447	4.8049	4.	5.e-002	116.7
14448	5.0818	4.	0.	5945.8
14449	4.9895	3.9091	0.	6350.5
14450	4.9895	4.	5.e-002	87.849
14451	5.2664	4.	0.	5560.6
14452	5.1741	3.9091	0.	5862.2
14453	5.1741	4.	5.e-002	69.32
14454	5.4509	4.	0.	5271.4
14455	5.3586	3.9091	0.	5499.9
14456	5.3586	4.	5.e-002	56.523
14457	5.6355	4.	0.	5046.6
14458	5.5432	3.9091	0.	5222.1
14459	5.5432	4.	5.e-002	47.003
14460	5.8201	4.	0.	4866.5
14461	5.7278	3.9091	0.	5002.9
14462	5.7278	4.	5.e-002	39.644
14463	6.0046	4.	0.	4718.6
14464	5.9123	3.9091	0.	4825.9
14465	5.9123	4.	5.e-002	33.813
14466	6.1892	4.	0.	4594.3
14467	6.0969	3.9091	0.	4679.7
14468	6.0969	4.	5.e-002	29.129
14469	6.3738	4.	0.	4487.7
14470	6.2815	3.9091	0.	4556.7
14471	6.2815	4.	5.e-002	25.344
14472	6.5583	4.	0.	4394.6
14473	6.466	3.9091	0.	4451.3
14474	6.466	4.	5.e-002	22.278
14475	6.7429	4.	0.	4311.8
14476	6.6506	3.9091	0.	4359.2
14477	6.6506	4.	5.e-002	19.797
14478	6.9275	4.	0.	4236.9
14479	6.8352	3.9091	0.	4277.4
14480	6.8352	4.	5.e-002	17.793
14481	7.112	4.	0.	4168.1
14482	7.0198	3.9091	0.	4203.4
14483	7.0198	4.	5.e-002	16.178
14484	7.2966	4.	0.	4104.1
14485	7.2043	3.9091	0.	4135.6
14486	7.2043	4.	5.e-002	14.88
14487	7.4812	4.	0.	4043.7
14488	7.3889	3.9091	0.	4072.4
14489	7.3889	4.	5.e-002	13.838
14490	7.6657	4.	0.	3986.1
14491	7.5735	3.9091	0.	4012.7
14492	7.5735	4.	5.e-002	13.002
14493	7.8503	4.	0.	3930.6
14494	7.758	3.9091	0.	3955.8
14495	7.758	4.	5.e-002	12.33
14496	8.0349	4.	0.	3876.8
14497	7.9426	3.9091	0.	3901.
14498	7.9426	4.	5.e-002	11.788
14499	8.2194	4.	0.	3824.2
14500	8.1272	3.9091	0.	3847.8
14501	8.1272	4.	5.e-002	11.349
14502	8.404	4.	0.	3772.6
14503	8.3117	3.9091	0.	3795.7
14504	8.3117	4.	5.e-002	10.99
14505	8.5886	4.	0.	3721.7
14506	8.4963	3.9091	0.	3744.5
14507	8.4963	4.	5.e-002	10.696
14508	8.7731	4.	0.	3671.2
14509	8.6809	3.9091	0.	3693.9
14510	8.6809	4.	5.e-002	10.451
14511	8.9577	4.	0.	3621.2
14512	8.8654	3.9091	0.	3643.8
14513	8.8654	4.	5.e-002	10.245
14514	9.1423	4.	0.	3571.5
14515	9.05	3.9091	0.	3594.
14516	9.05	4.	5.e-002	10.071
14517	9.3269	4.	0.	3521.9
14518	9.2346	3.9091	0.	3544.5
14519	9.2346	4.	5.e-002	9.9204
14520	9.5114	4.	0.	3472.5
14521	9.4191	3.9091	0.	3495.2
14522	9.4191	4.	5.e-002	9.7896
14523	9.696	4.	0.	3423.2
14524	9.6037	3.9091	0.	3446.
14525	9.6037	4.	5.e-002	9.6744
14526	9.8806	4.	0.	3374.
14527	9.7883	3.9091	0.	3396.9
14528	9.7883	4.	5.e-002	9.5715
14529	10.065	4.	0.	3324.9
14530	9.9728	3.9091	0.	3347.9
14531	9.9728	4.	5.e-002	9.4788
14532	10.25	4.	0.	3275.8
14533	10.157	3.9091	0.	3298.9
14534	10.157	4.	5.e-002	9.3943
14535	10.434	4.	0.	3226.8
14536	10.342	3.9091	0.	3249.9
14537	10.342	4.	5.e-002	9.3165
14538	10.619	4.	0.	3177.8
14539	10.527	3.9091	0.	3201.
14540	10.527	4.	5.e-002	9.2442
14541	10.803	4.	0.	3128.9
14542	10.711	3.9091	0.	3152.2
14543	10.711	4.	5.e-002	9.1767
14544	10.988	4.	0.	3080.
14545	10.896	3.9091	0.	3103.3
14546	10.896	4.	5.e-002	9.1131
14547	11.173	4.	0.	3031.2
14548	11.08	3.9091	0.	3054.6
14549	11.08	4.	5.e-002	9.0528
14550	11.357	4.	0.	2982.4
14551	11.265	3.9091	0.	3005.8
14552	11.265	4.	5.e-002	8.9953
14553	11.542	4.	0.	2933.8
14554	11.449	3.9091	0.	2957.2
14555	11.449	4.	5.e-002	8.9403
14556	11.726	4.	0.	2885.2
14557	11.634	3.9091	0.	2908.6
14558	11.634	4.	5.e-002	8.8874
14559	11.911	4.	0.	2836.7
14560	11.819	3.9091	0.	2860.1
14561	11.819	4.	5.e-002	8.8363
14562	12.095	4.	0.	2788.2
14563	12.003	3.9091	0.	2811.7
14564	12.003	4.	5.e-002	8.7868
14565	12.28	4.	0.	2739.9
14566	12.188	3.9091	0.	2763.4
14567	12.188	4.	5.e-002	8.7389
14568	12.465	4.	0.	2691.7
14569	12.372	3.9091	0.	2715.1
14570	12.372	4.	5.e-002	8.6922
14571	12.649	4.	0.	2643.6
14572	12.557	3.9091	0.	2667.
14573	12.557	4.	5.e-002	8.6467
14574	12.834	4.	0.	2595.7
14575	12.741	3.9091	0.	2619.
14576	12.741	4.	5.e-002	8.6022
14577	13.018	4.	0.	2547.8
14578	12.926	3.9091	0.	2571.2
14579	12.926	4.	5.e-002	8.5587
14580	13.203	4.	0.	2500.1
14581	13.11	3.9091	0.	2523.4
14582	13.11	4.	5.e-002	8.516
14583	13.387	4.	0.	2452.6
14584	13.295	3.9091	0.	2475.8
14585	13.295	4.	5.e-002	8.4742
14586	13.572	4.	0.	2405.1
14587	13.48	3.9091	0.	2428.3
14588	13.48	4.	5.e-002	8.433
14589	13.756	4.	0.	2357.9
14590	13.664	3.9091	0.	2381.
14591	13.664	4.	5.e-002	8.3925
14592	13.941	4.	0.	2310.8
14593	13.849	3.9091	0.	2333.8
14594	13.849	4.	5.e-002	8.3528
14595	14.126	4.	0.	2263.8
14596	14.033	3.9091	0.	2286.8
14597	14.033	4.	5.e-002	8.3136
14598	14.31	4.	0.	2217.
14599	14.218	3.9091	0.	2240.
14600	14.218	4.	5.e-002	8.2749
14601	14.495	4.	0.	2170.4
14602	14.402	3.9091	0.	2193.3
14603	14.402	4.	5.e-002	8.2368
14604	14.679	4.	0.	2123.9
14605	14.587	3.9091	0.	2146.8
14606	14.587	4.	5.e-002	8.1991
14607	14.864	4.	0.	2077.7
14608	14.772	3.9091	0.	2100.4
14609	14.772	4.	5.e-002	8.1619
14610	15.048	4.	0.	2031.6
14611	14.956	3.9091	0.	2054.2
14612	14.956	4.	5.e-002	8.1252
14613	15.233	4.	0.	1985.7
14614	15.141	3.9091	0.	2008.3
14615	15.141	4.	5.e-002	8.0888
14616	15.418	4.	0.	1940.
14617	15.325	3.9091	0.	1962.5
14618	15.325	4.	5.e-002	8.053
14619	15.602	4.	0.	1894.4
14620	15.51	3.9091	0.	1916.8
14621	15.51	4.	5.e-002	8.0174
14622	15.787	4.	0.	1849.1
14623	15.694	3.9091	0.	1871.4
14624	15.694	4.	5.e-002	7.9824
14625	15.971	4.	0.	1803.9
14626	15.879	3.9091	0.	1826.2
14627	15.879	4.	5.e-002	7.9477
14628	16.156	4.	0.	1759.
14629	16.064	3.9091	0.	1781.2
14630	16.064	4.	5.e-002	7.9134
14631	16.34	4.	0.	1714.3
14632	16.248	3.9091	0.	1736.3
14633	16.248	4.	5.e-002	7.8796
14634	16.525	4.	0.	1669.7
14635	16.433	3.9091	0.	1691.7
14636	16.433	4.	5.e-002	7.8461
14637	16.71	4.	0.	1625.4
14638	16.617	3.9091	0.	1647.3
14639	16.617	4.	5.e-002	7.813
14640	16.894	4.	0.	1581.3
14641	16.802	3.9091	0.	1603.1
14642	16.802	4.	5.e-002	7.7803
14643	17.079	4.	0.	1537.4
14644	16.986	3.9091	0.	1559.1
14645	16.986	4.	5.e-002	7.7481
14646	17.263	4.	0.	1493.7
14647	17.171	3.9091	0.	1515.3
14648	17.171	4.	5.e-002	7.7163
14649	17.448	4.	0.	1450.3
14650	17.356	3.9091	0.	1471.8
14651	17.356	4.	5.e-002	7.685
14652	17.632	4.	0.	1407.1
14653	17.54	3.9091	0.	1428.5
14654	17.54	4.	5.e-002	7.6542
14655	17.817	4.	0.	1364.1
14656	17.725	3.9091	0.	1385.4
14657	17.725	4.	5.e-002	7.6238
14658	18.002	4.	0.	1321.3
14659	17.909	3.9091	0.	1342.5
14660	17.909	4.	5.e-002	7.594
14661	18.186	4.	0.	1278.8
14662	18.094	3.9091	0.	1299.9
14663	18.094	4.	5.e-002	7.5648
14664	18.371	4.	0.	1236.5
14665	18.278	3.9091	0.	1257.5
14666	18.278	4.	5.e-002	7.5362
14667	18.555	4.	0.	1194.5
14668	18.463	3.9091	0.	1215.4
14669	18.463	4.	5.e-002	7.5083
14670	18.74	4.	0.	1152.8
14671	18.648	3.9091	0.	1173.6
14672	18.648	4.	5.e-002	7.4811
14673	18.924	4.	0.	1111.3
14674	18.832	3.9091	0.	1132.
14675	18.832	4.	5.e-002	7.4547
14676	19.109	4.	0.	1070.
14677	19.017	3.9091	0.	1090.6
14678	19.017	4.	5.e-002	7.4291
14679	19.294	4.	0.	1029.1
14680	19.201	3.9091	0.	1049.6
14681	19.201	4.	5.e-002	7.4044
14682	19.478	4.	0.	988.43
14683	19.386	3.9091	0.	1008.8
14684	19.386	4.	5.e-002	7.3807
14685	19.663	4.	0.	948.05
14686	19.57	3.9091	0.	968.33
14687	19.57	4.	5.e-002	7.3582
14688	19.847	4.	0.	907.97
14689	19.755	3.9091	0.	928.14
14690	19.755	4.	5.e-002	7.3368
14691	20.032	4.	0.	868.2
14692	19.94	3.9091	0.	888.27
14693	19.94	4.	5.e-002	7.3167
14694	20.216	4.	0.	828.75
14695	20.124	3.9091	0.	848.72
14696	20.124	4.	5.e-002	7.2981
14697	20.401	4.	0.	789.64
14698	20.309	3.9091	0.	809.5
14699	20.309	4.	5.e-002	7.2811
14700	20.585	4.	0.	750.88
14701	20.493	3.9091	0.	770.63
14702	20.493	4.	5.e-002	7.266
14703	20.77	4.	0.	712.48
14704	20.678	3.9091	0.	732.13
14705	20.678	4.	5.e-002	7.2528
14706	20.955	4.	0.	674.47
14707	20.862	3.9091	0.	694.
14708	20.862	4.	5.e-002	7.242
14709	21.139	4.	0.	636.86
14710	21.047	3.9091	0.	656.28
14711	21.047	4.	5.e-002	7.2337
14712	21.324	4.	0.	599.69
14713	21.231	3.9091	0.	618.98
14714	21.231	4.	5.e-002	7.2282
14715	21.508	4.	0.	562.99
14716	21.416	3.9091	0.	582.13
14717	21.416	4.	5.e-002	7.2261
14718	21.693	4.	0.	526.78
14719	21.601	3.9091	0.	545.78
14720	21.601	4.	5.e-002	7.2277
14721	21.877	4.	0.	491.13
14722	21.785	3.9091	0.	509.95
14723	21.785	4.	5.e-002	7.2335
14724	22.062	4.	0.	456.08
14725	21.97	3.9091	0.	474.71
14726	21.97	4.	5.e-002	7.2441
14727	22.247	4.	0.	421.72
14728	22.154	3.9091	0.	440.11
14729	22.154	4.	5.e-002	7.2604
14730	22.431	4.	0.	388.13
14731	22.339	3.9091	0.	406.25
14732	22.339	4.	5.e-002	7.2829
14733	22.616	4.	0.	355.45
14734	22.523	3.9091	0.	373.22
14735	22.523	4.	5.e-002	7.3127
14736	22.8	4.	0.	323.85
14737	22.708	3.9091	0.	341.17
14738	22.708	4.	5.e-002	7.3507
14739	22.985	4.	0.	293.56
14740	22.893	3.9091	0.	310.32
14741	22.893	4.	5.e-002	7.3978
14742	23.169	4.	0.	264.93
14743	23.077	3.9091	0.	280.93
14744	23.077	4.	5.e-002	7.4549
14745	23.354	4.	0.	238.43
14746	23.262	3.9091	0.	253.41
14747	23.262	4.	5.e-002	7.5226
14748	23.539	4.	0.	214.77
14749	23.446	3.9091	0.	228.34
14750	23.446	4.	5.e-002	7.6011
14751	23.723	4.	0.	194.92
14752	23.631	3.9091	0.	206.54
14753	23.631	4.	5.e-002	7.6926
14754	23.815	3.9091	0.	189.14
14755	23.815	4.	5.e-002	7.8435
14756	23.908	4.	0.	180.61
14757	4.3435	3.8182	0.	12139
14758	4.2512	3.7273	0.	13511
14759	4.2512	3.8182	5.e-002	817.43
14760	4.5281	3.8182	0.	9361.
14761	4.4358	3.7273	0.	10457
14762	4.4358	3.8182	5.e-002	382.33
14763	4.7127	3.8182	0.	7839.8
14764	4.6204	3.7273	0.	8630.5
14765	4.6204	3.8182	5.e-002	194.84
14766	4.8972	3.8182	0.	6906.5
14767	4.8049	3.7273	0.	7481.1
14768	4.8049	3.8182	5.e-002	133.5
14769	5.0818	3.8182	0.	6263.5
14770	4.9895	3.7273	0.	6688.8
14771	4.9895	3.8182	5.e-002	99.23
14772	5.2664	3.8182	0.	5799.1
14773	5.1741	3.7273	0.	6118.6
14774	5.1741	3.8182	5.e-002	77.937
14775	5.4509	3.8182	0.	5449.
14776	5.3586	3.7273	0.	5692.1
14777	5.3586	3.8182	5.e-002	63.177
14778	5.6355	3.8182	0.	5177.5
14779	5.5432	3.7273	0.	5364.3
14780	5.5432	3.8182	5.e-002	52.229
14781	5.8201	3.8182	0.	4961.8
14782	5.7278	3.7273	0.	5106.8
14783	5.7278	3.8182	5.e-002	43.773
14784	6.0046	3.8182	0.	4786.8
14785	5.9123	3.7273	0.	4900.6
14786	5.9123	3.8182	5.e-002	37.091
14787	6.1892	3.8182	0.	4642.1
14788	6.0969	3.7273	0.	4732.5
14789	6.0969	3.8182	5.e-002	31.745
14790	6.3738	3.8182	0.	4520.3
14791	6.2815	3.7273	0.	4593.1
14792	6.2815	3.8182	5.e-002	27.442
14793	6.5583	3.8182	0.	4415.9
14794	6.466	3.7273	0.	4475.5
14795	6.466	3.8182	5.e-002	23.97
14796	6.7429	3.8182	0.	4324.8
14797	6.6506	3.7273	0.	4374.5
14798	6.6506	3.8182	5.e-002	21.168
14799	6.9275	3.8182	0.	4244.
14800	6.8352	3.7273	0.	4286.2
14801	6.8352	3.8182	5.e-002	18.907
14802	7.112	3.8182	0.	4170.9
14803	7.0198	3.7273	0.	4207.6
14804	7.0198	3.8182	5.e-002	17.087
14805	7.2966	3.8182	0.	4103.9
14806	7.2043	3.7273	0.	4136.5
14807	7.2043	3.8182	5.e-002	15.621
14808	7.4812	3.8182	0.	4041.5
14809	7.3889	3.7273	0.	4071.
14810	7.3889	3.8182	5.e-002	14.442
14811	7.6657	3.8182	0.	3982.5
14812	7.5735	3.7273	0.	4009.9
14813	7.5735	3.8182	5.e-002	13.493
14814	7.8503	3.8182	0.	3926.2
14815	7.758	3.7273	0.	3952.
14816	7.758	3.8182	5.e-002	12.729
14817	8.0349	3.8182	0.	3872.
14818	7.9426	3.7273	0.	3896.7
14819	7.9426	3.8182	5.e-002	12.111
14820	8.2194	3.8182	0.	3819.2
14821	8.1272	3.7273	0.	3843.1
14822	8.1272	3.8182	5.e-002	11.61
14823	8.404	3.8182	0.	3767.5
14824	8.3117	3.7273	0.	3790.9
14825	8.3117	3.8182	5.e-002	11.201
14826	8.5886	3.8182	0.	3716.7
14827	8.4963	3.7273	0.	3739.8
14828	8.4963	3.8182	5.e-002	10.865
14829	8.7731	3.8182	0.	3666.4
14830	8.6809	3.7273	0.	3689.4
14831	8.6809	3.8182	5.e-002	10.587
14832	8.9577	3.8182	0.	3616.6
14833	8.8654	3.7273	0.	3639.5
14834	8.8654	3.8182	5.e-002	10.355
14835	9.1423	3.8182	0.	3567.1
14836	9.05	3.7273	0.	3590.
14837	9.05	3.8182	5.e-002	10.158
14838	9.3269	3.8182	0.	3517.9
14839	9.2346	3.7273	0.	3540.7
14840	9.2346	3.8182	5.e-002	9.9908
14841	9.5114	3.8182	0.	3468.7
14842	9.4191	3.7273	0.	3491.6
14843	9.4191	3.8182	5.e-002	9.8461
14844	9.696	3.8182	0.	3419.7
14845	9.6037	3.7273	0.	3442.7
14846	9.6037	3.8182	5.e-002	9.7197
14847	9.8806	3.8182	0.	3370.8
14848	9.7883	3.7273	0.	3393.8
14849	9.7883	3.8182	5.e-002	9.608
14850	10.065	3.8182	0.	3321.9
14851	9.9728	3.7273	0.	3345.
14852	9.9728	3.8182	5.e-002	9.5082
14853	10.25	3.8182	0.	3273.
14854	10.157	3.7273	0.	3296.2
14855	10.157	3.8182	5.e-002	9.418
14856	10.434	3.8182	0.	3224.2
14857	10.342	3.7273	0.	3247.4
14858	10.342	3.8182	5.e-002	9.3358
14859	10.619	3.8182	0.	3175.4
14860	10.527	3.7273	0.	3198.7
14861	10.527	3.8182	5.e-002	9.26
14862	10.803	3.8182	0.	3126.6
14863	10.711	3.7273	0.	3150.
14864	10.711	3.8182	5.e-002	9.1896
14865	10.988	3.8182	0.	3077.9
14866	10.896	3.7273	0.	3101.4
14867	10.896	3.8182	5.e-002	9.1238
14868	11.173	3.8182	0.	3029.2
14869	11.08	3.7273	0.	3052.7
14870	11.08	3.8182	5.e-002	9.0616
14871	11.357	3.8182	0.	2980.6
14872	11.265	3.7273	0.	3004.1
14873	11.265	3.8182	5.e-002	9.0027
14874	11.542	3.8182	0.	2932.1
14875	11.449	3.7273	0.	2955.6
14876	11.449	3.8182	5.e-002	8.9466
14877	11.726	3.8182	0.	2883.6
14878	11.634	3.7273	0.	2907.1
14879	11.634	3.8182	5.e-002	8.8927
14880	11.911	3.8182	0.	2835.2
14881	11.819	3.7273	0.	2858.7
14882	11.819	3.8182	5.e-002	8.8408
14883	12.095	3.8182	0.	2786.8
14884	12.003	3.7273	0.	2810.4
14885	12.003	3.8182	5.e-002	8.7908
14886	12.28	3.8182	0.	2738.6
14887	12.188	3.7273	0.	2762.1
14888	12.188	3.8182	5.e-002	8.7423
14889	12.465	3.8182	0.	2690.5
14890	12.372	3.7273	0.	2714.
14891	12.372	3.8182	5.e-002	8.6953
14892	12.649	3.8182	0.	2642.5
14893	12.557	3.7273	0.	2666.
14894	12.557	3.8182	5.e-002	8.6494
14895	12.834	3.8182	0.	2594.6
14896	12.741	3.7273	0.	2618.
14897	12.741	3.8182	5.e-002	8.6046
14898	13.018	3.8182	0.	2546.8
14899	12.926	3.7273	0.	2570.2
14900	12.926	3.8182	5.e-002	8.5608
14901	13.203	3.8182	0.	2499.1
14902	13.11	3.7273	0.	2522.5
14903	13.11	3.8182	5.e-002	8.518
14904	13.387	3.8182	0.	2451.6
14905	13.295	3.7273	0.	2474.9
14906	13.295	3.8182	5.e-002	8.476
14907	13.572	3.8182	0.	2404.3
14908	13.48	3.7273	0.	2427.5
14909	13.48	3.8182	5.e-002	8.4346
14910	13.756	3.8182	0.	2357.
14911	13.664	3.7273	0.	2380.2
14912	13.664	3.8182	5.e-002	8.3941
14913	13.941	3.8182	0.	2310.
14914	13.849	3.7273	0.	2333.1
14915	13.849	3.8182	5.e-002	8.3542
14916	14.126	3.8182	0.	2263.
14917	14.033	3.7273	0.	2286.1
14918	14.033	3.8182	5.e-002	8.3149
14919	14.31	3.8182	0.	2216.3
14920	14.218	3.7273	0.	2239.3
14921	14.218	3.8182	5.e-002	8.2761
14922	14.495	3.8182	0.	2169.7
14923	14.402	3.7273	0.	2192.6
14924	14.402	3.8182	5.e-002	8.2379
14925	14.679	3.8182	0.	2123.3
14926	14.587	3.7273	0.	2146.1
14927	14.587	3.8182	5.e-002	8.2002
14928	14.864	3.8182	0.	2077.
14929	14.772	3.7273	0.	2099.8
14930	14.772	3.8182	5.e-002	8.1629
14931	15.048	3.8182	0.	2031.
14932	14.956	3.7273	0.	2053.7
14933	14.956	3.8182	5.e-002	8.1261
14934	15.233	3.8182	0.	1985.1
14935	15.141	3.7273	0.	2007.7
14936	15.141	3.8182	5.e-002	8.0898
14937	15.418	3.8182	0.	1939.4
14938	15.325	3.7273	0.	1961.9
14939	15.325	3.8182	5.e-002	8.0538
14940	15.602	3.8182	0.	1893.9
14941	15.51	3.7273	0.	1916.3
14942	15.51	3.8182	5.e-002	8.0183
14943	15.787	3.8182	0.	1848.6
14944	15.694	3.7273	0.	1870.9
14945	15.694	3.8182	5.e-002	7.9832
14946	15.971	3.8182	0.	1803.4
14947	15.879	3.7273	0.	1825.7
14948	15.879	3.8182	5.e-002	7.9485
14949	16.156	3.8182	0.	1758.5
14950	16.064	3.7273	0.	1780.7
14951	16.064	3.8182	5.e-002	7.9142
14952	16.34	3.8182	0.	1713.8
14953	16.248	3.7273	0.	1735.9
14954	16.248	3.8182	5.e-002	7.8803
14955	16.525	3.8182	0.	1669.3
14956	16.433	3.7273	0.	1691.3
14957	16.433	3.8182	5.e-002	7.8469
14958	16.71	3.8182	0.	1625.
14959	16.617	3.7273	0.	1646.9
14960	16.617	3.8182	5.e-002	7.8138
14961	16.894	3.8182	0.	1580.9
14962	16.802	3.7273	0.	1602.7
14963	16.802	3.8182	5.e-002	7.7811
14964	17.079	3.8182	0.	1537.1
14965	16.986	3.7273	0.	1558.8
14966	16.986	3.8182	5.e-002	7.7488
14967	17.263	3.8182	0.	1493.4
14968	17.171	3.7273	0.	1515.
14969	17.171	3.8182	5.e-002	7.7171
14970	17.448	3.8182	0.	1450.
14971	17.356	3.7273	0.	1471.5
14972	17.356	3.8182	5.e-002	7.6858
14973	17.632	3.8182	0.	1406.8
14974	17.54	3.7273	0.	1428.2
14975	17.54	3.8182	5.e-002	7.655
14976	17.817	3.8182	0.	1363.9
14977	17.725	3.7273	0.	1385.2
14978	17.725	3.8182	5.e-002	7.6247
14979	18.002	3.8182	0.	1321.2
14980	17.909	3.7273	0.	1342.4
14981	17.909	3.8182	5.e-002	7.5949
14982	18.186	3.8182	0.	1278.7
14983	18.094	3.7273	0.	1299.8
14984	18.094	3.8182	5.e-002	7.5658
14985	18.371	3.8182	0.	1236.5
14986	18.278	3.7273	0.	1257.5
14987	18.278	3.8182	5.e-002	7.5372
14988	18.555	3.8182	0.	1194.5
14989	18.463	3.7273	0.	1215.4
14990	18.463	3.8182	5.e-002	7.5093
14991	18.74	3.8182	0.	1152.8
14992	18.648	3.7273	0.	1173.6
14993	18.648	3.8182	5.e-002	7.4822
14994	18.924	3.8182	0.	1111.4
14995	18.832	3.7273	0.	1132.
14996	18.832	3.8182	5.e-002	7.4559
14997	19.109	3.8182	0.	1070.2
14998	19.017	3.7273	0.	1090.8
14999	19.017	3.8182	5.e-002	7.4304
15000	19.294	3.8182	0.	1029.3
15001	19.201	3.7273	0.	1049.8
15002	19.201	3.8182	5.e-002	7.4059
15003	19.478	3.8182	0.	988.76
15004	19.386	3.7273	0.	1009.1
15005	19.386	3.8182	5.e-002	7.3823
15006	19.663	3.8182	0.	948.48
15007	19.57	3.7273	0.	968.68
15008	19.57	3.8182	5.e-002	7.3599
15009	19.847	3.8182	0.	908.5
15010	19.755	3.7273	0.	928.59
15011	19.755	3.8182	5.e-002	7.3387
15012	20.032	3.8182	0.	868.85
15013	19.94	3.7273	0.	888.82
15014	19.94	3.8182	5.e-002	7.3189
15015	20.216	3.8182	0.	829.52
15016	20.124	3.7273	0.	849.37
15017	20.124	3.8182	5.e-002	7.3006
15018	20.401	3.8182	0.	790.55
15019	20.309	3.7273	0.	810.27
15020	20.309	3.8182	5.e-002	7.284
15021	20.585	3.8182	0.	751.93
15022	20.493	3.7273	0.	771.53
15023	20.493	3.8182	5.e-002	7.2692
15024	20.77	3.8182	0.	713.69
15025	20.678	3.7273	0.	733.16
15026	20.678	3.8182	5.e-002	7.2566
15027	20.955	3.8182	0.	675.85
15028	20.862	3.7273	0.	695.18
15029	20.862	3.8182	5.e-002	7.2463
15030	21.139	3.8182	0.	638.43
15031	21.047	3.7273	0.	657.62
15032	21.047	3.8182	5.e-002	7.2387
15033	21.324	3.8182	0.	601.45
15034	21.231	3.7273	0.	620.49
15035	21.231	3.8182	5.e-002	7.2341
15036	21.508	3.8182	0.	564.95
15037	21.416	3.7273	0.	583.83
15038	21.416	3.8182	5.e-002	7.2328
15039	21.693	3.8182	0.	528.96
15040	21.601	3.7273	0.	547.67
15041	21.601	3.8182	5.e-002	7.2355
15042	21.877	3.8182	0.	493.54
15043	21.785	3.7273	0.	512.04
15044	21.785	3.8182	5.e-002	7.2425
15045	22.062	3.8182	0.	458.73
15046	21.97	3.7273	0.	477.
15047	21.97	3.8182	5.e-002	7.2544
15048	22.247	3.8182	0.	424.6
15049	22.154	3.7273	0.	442.62
15050	22.154	3.8182	5.e-002	7.272
15051	22.431	3.8182	0.	391.26
15052	22.339	3.7273	0.	408.97
15053	22.339	3.8182	5.e-002	7.2959
15054	22.616	3.8182	0.	358.82
15055	22.523	3.7273	0.	376.15
15056	22.523	3.8182	5.e-002	7.3269
15057	22.8	3.8182	0.	327.46
15058	22.708	3.7273	0.	344.32
15059	22.708	3.8182	5.e-002	7.3658
15060	22.985	3.8182	0.	297.41
15061	22.893	3.7273	0.	313.67
15062	22.893	3.8182	5.e-002	7.4133
15063	23.169	3.8182	0.	269.
15064	23.077	3.7273	0.	284.49
15065	23.077	3.8182	5.e-002	7.47
15066	23.354	3.8182	0.	242.73
15067	23.262	3.7273	0.	257.17
15068	23.262	3.8182	5.e-002	7.5364
15069	23.539	3.8182	0.	219.27
15070	23.446	3.7273	0.	232.29
15071	23.446	3.8182	5.e-002	7.6121
15072	23.723	3.8182	0.	199.58
15073	23.631	3.7273	0.	210.66
15074	23.631	3.8182	5.e-002	7.6987
15075	23.815	3.7273	0.	193.35
15076	23.815	3.8182	5.e-002	7.8296
15077	23.908	3.8182	0.	185.44
15078	4.3435	3.6364	0.	11905
15079	4.2512	3.5455	0.	12690
15080	4.2512	3.6364	5.e-002	358.43
15081	4.5281	3.6364	0.	9755.
15082	4.4358	3.5455	0.	10605
15083	4.4358	3.6364	5.e-002	280.41
15084	4.7127	3.6364	0.	8278.2
15085	4.6204	3.5455	0.	8992.3
15086	4.6204	3.6364	5.e-002	202.13
15087	4.8972	3.6364	0.	7263.8
15088	4.8049	3.5455	0.	7821.4
15089	4.8049	3.6364	5.e-002	142.04
15090	5.0818	3.6364	0.	6542.9
15091	4.9895	3.5455	0.	6969.8
15092	4.9895	3.6364	5.e-002	107.83
15093	5.2664	3.6364	0.	6010.6
15094	5.1741	3.5455	0.	6336.6
15095	5.1741	3.6364	5.e-002	85.311
15096	5.4509	3.6364	0.	5606.6
15097	5.3586	3.5455	0.	5856.5
15098	5.3586	3.6364	5.e-002	69.167
15099	5.6355	3.6364	0.	5293.2
15100	5.5432	3.5455	0.	5485.9
15101	5.5432	3.6364	5.e-002	56.979
15102	5.8201	3.6364	0.	5045.4
15103	5.7278	3.5455	0.	5195.3
15104	5.7278	3.6364	5.e-002	47.5
15105	6.0046	3.6364	0.	4846.3
15106	5.9123	3.5455	0.	4963.9
15107	5.9123	3.6364	5.e-002	40.002
15108	6.1892	3.6364	0.	4683.5
15109	6.0969	3.5455	0.	4776.9
15110	6.0969	3.6364	5.e-002	34.022
15111	6.3738	3.6364	0.	4548.3
15112	6.2815	3.5455	0.	4623.5
15113	6.2815	3.6364	5.e-002	29.232
15114	6.5583	3.6364	0.	4434.1
15115	6.466	3.5455	0.	4495.5
15116	6.466	3.6364	5.e-002	25.386
15117	6.7429	3.6364	0.	4335.8
15118	6.6506	3.5455	0.	4387.
15119	6.6506	3.6364	5.e-002	22.296
15120	6.9275	3.6364	0.	4249.8
15121	6.8352	3.5455	0.	4293.3
15122	6.8352	3.6364	5.e-002	19.813
15123	7.112	3.6364	0.	4173.2
15124	7.0198	3.5455	0.	4210.9
15125	7.0198	3.6364	5.e-002	17.817
15126	7.2966	3.6364	0.	4103.6
15127	7.2043	3.5455	0.	4137.1
15128	7.2043	3.6364	5.e-002	16.213
15129	7.4812	3.6364	0.	4039.5
15130	7.3889	3.5455	0.	4069.8
15131	7.3889	3.6364	5.e-002	14.923
15132	7.6657	3.6364	0.	3979.4
15133	7.5735	3.5455	0.	4007.5
15134	7.5735	3.6364	5.e-002	13.885
15135	7.8503	3.6364	0.	3922.5
15136	7.758	3.5455	0.	3948.9
15137	7.758	3.6364	5.e-002	13.047
15138	8.0349	3.6364	0.	3867.8
15139	7.9426	3.5455	0.	3893.
15140	7.9426	3.6364	5.e-002	12.37
15141	8.2194	3.6364	0.	3814.9
15142	8.1272	3.5455	0.	3839.3
15143	8.1272	3.6364	5.e-002	11.82
15144	8.404	3.6364	0.	3763.2
15145	8.3117	3.5455	0.	3787.1
15146	8.3117	3.6364	5.e-002	11.371
15147	8.5886	3.6364	0.	3712.5
15148	8.4963	3.5455	0.	3736.
15149	8.4963	3.6364	5.e-002	11.002
15150	8.7731	3.6364	0.	3662.4
15151	8.6809	3.5455	0.	3685.7
15152	8.6809	3.6364	5.e-002	10.698
15153	8.9577	3.6364	0.	3612.8
15154	8.8654	3.5455	0.	3636.
15155	8.8654	3.6364	5.e-002	10.444
15156	9.1423	3.6364	0.	3563.5
15157	9.05	3.5455	0.	3586.7
15158	9.05	3.6364	5.e-002	10.23
15159	9.3269	3.6364	0.	3514.5
15160	9.2346	3.5455	0.	3537.6
15161	9.2346	3.6364	5.e-002	10.048
15162	9.5114	3.6364	0.	3465.6
15163	9.4191	3.5455	0.	3488.7
15164	9.4191	3.6364	5.e-002	9.8923
15165	9.696	3.6364	0.	3416.8
15166	9.6037	3.5455	0.	3440.
15167	9.6037	3.6364	5.e-002	9.7568
15168	9.8806	3.6364	0.	3368.
15169	9.7883	3.5455	0.	3391.3
15170	9.7883	3.6364	5.e-002	9.6379
15171	10.065	3.6364	0.	3319.3
15172	9.9728	3.5455	0.	3342.7
15173	9.9728	3.6364	5.e-002	9.5323
15174	10.25	3.6364	0.	3270.7
15175	10.157	3.5455	0.	3294.1
15176	10.157	3.6364	5.e-002	9.4376
15177	10.434	3.6364	0.	3222.
15178	10.342	3.5455	0.	3245.5
15179	10.342	3.6364	5.e-002	9.3517
15180	10.619	3.6364	0.	3173.4
15181	10.527	3.5455	0.	3196.9
15182	10.527	3.6364	5.e-002	9.2729
15183	10.803	3.6364	0.	3124.8
15184	10.711	3.5455	0.	3148.3
15185	10.711	3.6364	5.e-002	9.2002
15186	10.988	3.6364	0.	3076.2
15187	10.896	3.5455	0.	3099.8
15188	10.896	3.6364	5.e-002	9.1325
15189	11.173	3.6364	0.	3027.6
15190	11.08	3.5455	0.	3051.3
15191	11.08	3.6364	5.e-002	9.0689
15192	11.357	3.6364	0.	2979.1
15193	11.265	3.5455	0.	3002.8
15194	11.265	3.6364	5.e-002	9.0088
15195	11.542	3.6364	0.	2930.7
15196	11.449	3.5455	0.	2954.3
15197	11.449	3.6364	5.e-002	8.9517
15198	11.726	3.6364	0.	2882.3
15199	11.634	3.5455	0.	2906.
15200	11.634	3.6364	5.e-002	8.8971
15201	11.911	3.6364	0.	2834.
15202	11.819	3.5455	0.	2857.6
15203	11.819	3.6364	5.e-002	8.8446
15204	12.095	3.6364	0.	2785.7
15205	12.003	3.5455	0.	2809.4
15206	12.003	3.6364	5.e-002	8.794
15207	12.28	3.6364	0.	2737.6
15208	12.188	3.5455	0.	2761.2
15209	12.188	3.6364	5.e-002	8.7451
15210	12.465	3.6364	0.	2689.5
15211	12.372	3.5455	0.	2713.1
15212	12.372	3.6364	5.e-002	8.6977
15213	12.649	3.6364	0.	2641.5
15214	12.557	3.5455	0.	2665.1
15215	12.557	3.6364	5.e-002	8.6516
15216	12.834	3.6364	0.	2593.7
15217	12.741	3.5455	0.	2617.2
15218	12.741	3.6364	5.e-002	8.6066
15219	13.018	3.6364	0.	2546.
15220	12.926	3.5455	0.	2569.4
15221	12.926	3.6364	5.e-002	8.5626
15222	13.203	3.6364	0.	2498.3
15223	13.11	3.5455	0.	2521.8
15224	13.11	3.6364	5.e-002	8.5196
15225	13.387	3.6364	0.	2450.9
15226	13.295	3.5455	0.	2474.3
15227	13.295	3.6364	5.e-002	8.4774
15228	13.572	3.6364	0.	2403.5
15229	13.48	3.5455	0.	2426.9
15230	13.48	3.6364	5.e-002	8.436
15231	13.756	3.6364	0.	2356.3
15232	13.664	3.5455	0.	2379.6
15233	13.664	3.6364	5.e-002	8.3953
15234	13.941	3.6364	0.	2309.3
15235	13.849	3.5455	0.	2332.5
15236	13.849	3.6364	5.e-002	8.3553
15237	14.126	3.6364	0.	2262.4
15238	14.033	3.5455	0.	2285.6
15239	14.033	3.6364	5.e-002	8.3159
15240	14.31	3.6364	0.	2215.7
15241	14.218	3.5455	0.	2238.8
15242	14.218	3.6364	5.e-002	8.2771
15243	14.495	3.6364	0.	2169.1
15244	14.402	3.5455	0.	2192.1
15245	14.402	3.6364	5.e-002	8.2389
15246	14.679	3.6364	0.	2122.7
15247	14.587	3.5455	0.	2145.7
15248	14.587	3.6364	5.e-002	8.2011
15249	14.864	3.6364	0.	2076.5
15250	14.772	3.5455	0.	2099.4
15251	14.772	3.6364	5.e-002	8.1637
15252	15.048	3.6364	0.	2030.5
15253	14.956	3.5455	0.	2053.2
15254	14.956	3.6364	5.e-002	8.1269
15255	15.233	3.6364	0.	1984.6
15256	15.141	3.5455	0.	2007.3
15257	15.141	3.6364	5.e-002	8.0905
15258	15.418	3.6364	0.	1938.9
15259	15.325	3.5455	0.	1961.5
15260	15.325	3.6364	5.e-002	8.0545
15261	15.602	3.6364	0.	1893.4
15262	15.51	3.5455	0.	1915.9
15263	15.51	3.6364	5.e-002	8.019
15264	15.787	3.6364	0.	1848.1
15265	15.694	3.5455	0.	1870.6
15266	15.694	3.6364	5.e-002	7.9838
15267	15.971	3.6364	0.	1803.
15268	15.879	3.5455	0.	1825.4
15269	15.879	3.6364	5.e-002	7.9492
15270	16.156	3.6364	0.	1758.1
15271	16.064	3.5455	0.	1780.4
15272	16.064	3.6364	5.e-002	7.9148
15273	16.34	3.6364	0.	1713.4
15274	16.248	3.5455	0.	1735.6
15275	16.248	3.6364	5.e-002	7.8809
15276	16.525	3.6364	0.	1669.
15277	16.433	3.5455	0.	1691.
15278	16.433	3.6364	5.e-002	7.8475
15279	16.71	3.6364	0.	1624.7
15280	16.617	3.5455	0.	1646.6
15281	16.617	3.6364	5.e-002	7.8144
15282	16.894	3.6364	0.	1580.6
15283	16.802	3.5455	0.	1602.5
15284	16.802	3.6364	5.e-002	7.7817
15285	17.079	3.6364	0.	1536.8
15286	16.986	3.5455	0.	1558.5
15287	16.986	3.6364	5.e-002	7.7495
15288	17.263	3.6364	0.	1493.2
15289	17.171	3.5455	0.	1514.8
15290	17.171	3.6364	5.e-002	7.7177
15291	17.448	3.6364	0.	1449.8
15292	17.356	3.5455	0.	1471.3
15293	17.356	3.6364	5.e-002	7.6864
15294	17.632	3.6364	0.	1406.6
15295	17.54	3.5455	0.	1428.
15296	17.54	3.6364	5.e-002	7.6556
15297	17.817	3.6364	0.	1363.7
15298	17.725	3.5455	0.	1385.
15299	17.725	3.6364	5.e-002	7.6253
15300	18.002	3.6364	0.	1321.
15301	17.909	3.5455	0.	1342.2
15302	17.909	3.6364	5.e-002	7.5956
15303	18.186	3.6364	0.	1278.6
15304	18.094	3.5455	0.	1299.7
15305	18.094	3.6364	5.e-002	7.5665
15306	18.371	3.6364	0.	1236.4
15307	18.278	3.5455	0.	1257.4
15308	18.278	3.6364	5.e-002	7.538
15309	18.555	3.6364	0.	1194.5
15310	18.463	3.5455	0.	1215.4
15311	18.463	3.6364	5.e-002	7.5102
15312	18.74	3.6364	0.	1152.9
15313	18.648	3.5455	0.	1173.6
15314	18.648	3.6364	5.e-002	7.4831
15315	18.924	3.6364	0.	1111.5
15316	18.832	3.5455	0.	1132.1
15317	18.832	3.6364	5.e-002	7.4569
15318	19.109	3.6364	0.	1070.4
15319	19.017	3.5455	0.	1090.9
15320	19.017	3.6364	5.e-002	7.4315
15321	19.294	3.6364	0.	1029.6
15322	19.201	3.5455	0.	1050.
15323	19.201	3.6364	5.e-002	7.407
15324	19.478	3.6364	0.	989.06
15325	19.386	3.5455	0.	1009.3
15326	19.386	3.6364	5.e-002	7.3836
15327	19.663	3.6364	0.	948.85
15328	19.57	3.5455	0.	968.98
15329	19.57	3.6364	5.e-002	7.3613
15330	19.847	3.6364	0.	908.96
15331	19.755	3.5455	0.	928.96
15332	19.755	3.6364	5.e-002	7.3403
15333	20.032	3.6364	0.	869.4
15334	19.94	3.5455	0.	889.27
15335	19.94	3.6364	5.e-002	7.3207
15336	20.216	3.6364	0.	830.17
15337	20.124	3.5455	0.	849.91
15338	20.124	3.6364	5.e-002	7.3026
15339	20.401	3.6364	0.	791.31
15340	20.309	3.5455	0.	810.9
15341	20.309	3.6364	5.e-002	7.2863
15342	20.585	3.6364	0.	752.81
15343	20.493	3.5455	0.	772.26
15344	20.493	3.6364	5.e-002	7.2719
15345	20.77	3.6364	0.	714.7
15346	20.678	3.5455	0.	734.
15347	20.678	3.6364	5.e-002	7.2596
15348	20.955	3.6364	0.	676.99
15349	20.862	3.5455	0.	696.14
15350	20.862	3.6364	5.e-002	7.2498
15351	21.139	3.6364	0.	639.72
15352	21.047	3.5455	0.	658.7
15353	21.047	3.6364	5.e-002	7.2428
15354	21.324	3.6364	0.	602.9
15355	21.231	3.5455	0.	621.7
15356	21.231	3.6364	5.e-002	7.2388
15357	21.508	3.6364	0.	566.56
15358	21.416	3.5455	0.	585.18
15359	21.416	3.6364	5.e-002	7.2383
15360	21.693	3.6364	0.	530.75
15361	21.601	3.5455	0.	549.16
15362	21.601	3.6364	5.e-002	7.2418
15363	21.877	3.6364	0.	495.5
15364	21.785	3.5455	0.	513.69
15365	21.785	3.6364	5.e-002	7.2498
15366	22.062	3.6364	0.	460.87
15367	21.97	3.5455	0.	478.81
15368	21.97	3.6364	5.e-002	7.2627
15369	22.247	3.6364	0.	426.93
15370	22.154	3.5455	0.	444.59
15371	22.154	3.6364	5.e-002	7.2814
15372	22.431	3.6364	0.	393.78
15373	22.339	3.5455	0.	411.1
15374	22.339	3.6364	5.e-002	7.3063
15375	22.616	3.6364	0.	361.52
15376	22.523	3.5455	0.	378.44
15377	22.523	3.6364	5.e-002	7.3382
15378	22.8	3.6364	0.	330.34
15379	22.708	3.5455	0.	346.77
15380	22.708	3.6364	5.e-002	7.3777
15381	22.985	3.6364	0.	300.47
15382	22.893	3.5455	0.	316.28
15383	22.893	3.6364	5.e-002	7.4254
15384	23.169	3.6364	0.	272.24
15385	23.077	3.5455	0.	287.24
15386	23.077	3.6364	5.e-002	7.4817
15387	23.354	3.6364	0.	246.13
15388	23.262	3.5455	0.	260.07
15389	23.262	3.6364	5.e-002	7.5468
15390	23.539	3.6364	0.	222.84
15391	23.446	3.5455	0.	235.33
15392	23.446	3.6364	5.e-002	7.6204
15393	23.723	3.6364	0.	203.26
15394	23.631	3.5455	0.	213.83
15395	23.631	3.6364	5.e-002	7.7031
15396	23.815	3.5455	0.	196.6
15397	23.815	3.6364	5.e-002	7.8183
15398	23.908	3.6364	0.	189.25
15399	4.3435	3.4545	0.	11419
15400	4.2512	3.3636	0.	11943
15401	4.2512	3.4545	5.e-002	204.11
15402	4.5281	3.4545	0.	9869.1
15403	4.4358	3.3636	0.	10532
15404	4.4358	3.4545	5.e-002	214.17
15405	4.7127	3.4545	0.	8547.7
15406	4.6204	3.3636	0.	9169.1
15407	4.6204	3.4545	5.e-002	176.42
15408	4.8972	3.4545	0.	7531.9
15409	4.8049	3.3636	0.	8049.7
15410	4.8049	3.4545	5.e-002	141.21
15411	5.0818	3.4545	0.	6765.1
15412	4.9895	3.3636	0.	7175.7
15413	4.9895	3.4545	5.e-002	112.59
15414	5.2664	3.4545	0.	6183.
15415	5.1741	3.3636	0.	6502.4
15416	5.1741	3.4545	5.e-002	90.791
15417	5.4509	3.4545	0.	5735.9
15418	5.3586	3.3636	0.	5983.1
15419	5.3586	3.4545	5.e-002	74.038
15420	5.6355	3.4545	0.	5387.9
15421	5.5432	3.3636	0.	5579.7
15422	5.5432	3.4545	5.e-002	60.946
15423	5.8201	3.4545	0.	5113.6
15424	5.7278	3.3636	0.	5263.3
15425	5.7278	3.4545	5.e-002	50.608
15426	6.0046	3.4545	0.	4894.5
15427	5.9123	3.3636	0.	5012.3
15428	5.9123	3.4545	5.e-002	42.402
15429	6.1892	3.4545	0.	4716.8
15430	6.0969	3.3636	0.	4810.7
15431	6.0969	3.4545	5.e-002	35.868
15432	6.3738	3.4545	0.	4570.7
15433	6.2815	3.3636	0.	4646.4
15434	6.2815	3.4545	5.e-002	30.656
15435	6.5583	3.4545	0.	4448.5
15436	6.466	3.3636	0.	4510.6
15437	6.466	3.4545	5.e-002	26.493
15438	6.7429	3.4545	0.	4344.5
15439	6.6506	3.3636	0.	4396.4
15440	6.6506	3.4545	5.e-002	23.165
15441	6.9275	3.4545	0.	4254.4
15442	6.8352	3.3636	0.	4298.6
15443	6.8352	3.4545	5.e-002	20.501
15444	7.112	3.4545	0.	4174.8
15445	7.0198	3.3636	0.	4213.3
15446	7.0198	3.4545	5.e-002	18.367
15447	7.2966	3.4545	0.	4103.3
15448	7.2043	3.3636	0.	4137.5
15449	7.2043	3.4545	5.e-002	16.656
15450	7.4812	3.4545	0.	4037.8
15451	7.3889	3.3636	0.	4068.9
15452	7.3889	3.4545	5.e-002	15.282
15453	7.6657	3.4545	0.	3976.9
15454	7.5735	3.3636	0.	4005.6
15455	7.5735	3.4545	5.e-002	14.176
15456	7.8503	3.4545	0.	3919.5
15457	7.758	3.3636	0.	3946.5
15458	7.758	3.4545	5.e-002	13.284
15459	8.0349	3.4545	0.	3864.5
15460	7.9426	3.3636	0.	3890.3
15461	7.9426	3.4545	5.e-002	12.562
15462	8.2194	3.4545	0.	3811.5
15463	8.1272	3.3636	0.	3836.5
15464	8.1272	3.4545	5.e-002	11.976
15465	8.404	3.4545	0.	3759.9
15466	8.3117	3.3636	0.	3784.2
15467	8.3117	3.4545	5.e-002	11.498
15468	8.5886	3.4545	0.	3709.2
15469	8.4963	3.3636	0.	3733.2
15470	8.4963	3.4545	5.e-002	11.105
15471	8.7731	3.4545	0.	3659.3
15472	8.6809	3.3636	0.	3683.
15473	8.6809	3.4545	5.e-002	10.781
15474	8.9577	3.4545	0.	3609.8
15475	8.8654	3.3636	0.	3633.4
15476	8.8654	3.4545	5.e-002	10.511
15477	9.1423	3.4545	0.	3560.7
15478	9.05	3.3636	0.	3584.2
15479	9.05	3.4545	5.e-002	10.284
15480	9.3269	3.4545	0.	3511.9
15481	9.2346	3.3636	0.	3535.3
15482	9.2346	3.4545	5.e-002	10.092
15483	9.5114	3.4545	0.	3463.2
15484	9.4191	3.3636	0.	3486.6
15485	9.4191	3.4545	5.e-002	9.9275
15486	9.696	3.4545	0.	3414.5
15487	9.6037	3.3636	0.	3438.
15488	9.6037	3.4545	5.e-002	9.7852
15489	9.8806	3.4545	0.	3366.
15490	9.7883	3.3636	0.	3389.5
15491	9.7883	3.4545	5.e-002	9.6608
15492	10.065	3.4545	0.	3317.4
15493	9.9728	3.3636	0.	3341.
15494	9.9728	3.4545	5.e-002	9.5508
15495	10.25	3.4545	0.	3268.9
15496	10.157	3.3636	0.	3292.5
15497	10.157	3.4545	5.e-002	9.4525
15498	10.434	3.4545	0.	3220.4
15499	10.342	3.3636	0.	3244.
15500	10.342	3.4545	5.e-002	9.3638
15501	10.619	3.4545	0.	3171.9
15502	10.527	3.3636	0.	3195.6
15503	10.527	3.4545	5.e-002	9.2828
15504	10.803	3.4545	0.	3123.4
15505	10.711	3.3636	0.	3147.1
15506	10.711	3.4545	5.e-002	9.2083
15507	10.988	3.4545	0.	3074.9
15508	10.896	3.3636	0.	3098.7
15509	10.896	3.4545	5.e-002	9.1392
15510	11.173	3.4545	0.	3026.4
15511	11.08	3.3636	0.	3050.2
15512	11.08	3.4545	5.e-002	9.0744
15513	11.357	3.4545	0.	2978.
15514	11.265	3.3636	0.	3001.8
15515	11.265	3.4545	5.e-002	9.0134
15516	11.542	3.4545	0.	2929.6
15517	11.449	3.3636	0.	2953.4
15518	11.449	3.4545	5.e-002	8.9556
15519	11.726	3.4545	0.	2881.3
15520	11.634	3.3636	0.	2905.1
15521	11.634	3.4545	5.e-002	8.9004
15522	11.911	3.4545	0.	2833.1
15523	11.819	3.3636	0.	2856.8
15524	11.819	3.4545	5.e-002	8.8474
15525	12.095	3.4545	0.	2784.9
15526	12.003	3.3636	0.	2808.6
15527	12.003	3.4545	5.e-002	8.7965
15528	12.28	3.4545	0.	2736.8
15529	12.188	3.3636	0.	2760.5
15530	12.188	3.4545	5.e-002	8.7473
15531	12.465	3.4545	0.	2688.7
15532	12.372	3.3636	0.	2712.5
15533	12.372	3.4545	5.e-002	8.6996
15534	12.649	3.4545	0.	2640.8
15535	12.557	3.3636	0.	2664.5
15536	12.557	3.4545	5.e-002	8.6533
15537	12.834	3.4545	0.	2593.
15538	12.741	3.3636	0.	2616.6
15539	12.741	3.4545	5.e-002	8.608
15540	13.018	3.4545	0.	2545.3
15541	12.926	3.3636	0.	2568.9
15542	12.926	3.4545	5.e-002	8.5639
15543	13.203	3.4545	0.	2497.8
15544	13.11	3.3636	0.	2521.3
15545	13.11	3.4545	5.e-002	8.5208
15546	13.387	3.4545	0.	2450.3
15547	13.295	3.3636	0.	2473.8
15548	13.295	3.4545	5.e-002	8.4785
15549	13.572	3.4545	0.	2403.
15550	13.48	3.3636	0.	2426.4
15551	13.48	3.4545	5.e-002	8.437
15552	13.756	3.4545	0.	2355.8
15553	13.664	3.3636	0.	2379.2
15554	13.664	3.4545	5.e-002	8.3962
15555	13.941	3.4545	0.	2308.8
15556	13.849	3.3636	0.	2332.1
15557	13.849	3.4545	5.e-002	8.3562
15558	14.126	3.4545	0.	2262.
15559	14.033	3.3636	0.	2285.2
15560	14.033	3.4545	5.e-002	8.3167
15561	14.31	3.4545	0.	2215.2
15562	14.218	3.3636	0.	2238.4
15563	14.218	3.4545	5.e-002	8.2778
15564	14.495	3.4545	0.	2168.7
15565	14.402	3.3636	0.	2191.8
15566	14.402	3.4545	5.e-002	8.2395
15567	14.679	3.4545	0.	2122.3
15568	14.587	3.3636	0.	2145.3
15569	14.587	3.4545	5.e-002	8.2017
15570	14.864	3.4545	0.	2076.1
15571	14.772	3.3636	0.	2099.
15572	14.772	3.4545	5.e-002	8.1643
15573	15.048	3.4545	0.	2030.1
15574	14.956	3.3636	0.	2052.9
15575	14.956	3.4545	5.e-002	8.1275
15576	15.233	3.4545	0.	1984.2
15577	15.141	3.3636	0.	2007.
15578	15.141	3.4545	5.e-002	8.0911
15579	15.418	3.4545	0.	1938.6
15580	15.325	3.3636	0.	1961.2
15581	15.325	3.4545	5.e-002	8.0551
15582	15.602	3.4545	0.	1893.1
15583	15.51	3.3636	0.	1915.7
15584	15.51	3.4545	5.e-002	8.0195
15585	15.787	3.4545	0.	1847.8
15586	15.694	3.3636	0.	1870.3
15587	15.694	3.4545	5.e-002	7.9843
15588	15.971	3.4545	0.	1802.7
15589	15.879	3.3636	0.	1825.1
15590	15.879	3.4545	5.e-002	7.9496
15591	16.156	3.4545	0.	1757.9
15592	16.064	3.3636	0.	1780.1
15593	16.064	3.4545	5.e-002	7.9153
15594	16.34	3.4545	0.	1713.2
15595	16.248	3.3636	0.	1735.4
15596	16.248	3.4545	5.e-002	7.8814
15597	16.525	3.4545	0.	1668.7
15598	16.433	3.3636	0.	1690.8
15599	16.433	3.4545	5.e-002	7.8479
15600	16.71	3.4545	0.	1624.5
15601	16.617	3.3636	0.	1646.4
15602	16.617	3.4545	5.e-002	7.8148
15603	16.894	3.4545	0.	1580.4
15604	16.802	3.3636	0.	1602.3
15605	16.802	3.4545	5.e-002	7.7821
15606	17.079	3.4545	0.	1536.6
15607	16.986	3.3636	0.	1558.3
15608	16.986	3.4545	5.e-002	7.7499
15609	17.263	3.4545	0.	1493.
15610	17.171	3.3636	0.	1514.6
15611	17.171	3.4545	5.e-002	7.7182
15612	17.448	3.4545	0.	1449.6
15613	17.356	3.3636	0.	1471.2
15614	17.356	3.4545	5.e-002	7.6869
15615	17.632	3.4545	0.	1406.5
15616	17.54	3.3636	0.	1427.9
15617	17.54	3.4545	5.e-002	7.6561
15618	17.817	3.4545	0.	1363.6
15619	17.725	3.3636	0.	1384.9
15620	17.725	3.4545	5.e-002	7.6258
15621	18.002	3.4545	0.	1320.9
15622	17.909	3.3636	0.	1342.1
15623	17.909	3.4545	5.e-002	7.5961
15624	18.186	3.4545	0.	1278.5
15625	18.094	3.3636	0.	1299.6
15626	18.094	3.4545	5.e-002	7.567
15627	18.371	3.4545	0.	1236.4
15628	18.278	3.3636	0.	1257.4
15629	18.278	3.4545	5.e-002	7.5386
15630	18.555	3.4545	0.	1194.5
15631	18.463	3.3636	0.	1215.4
15632	18.463	3.4545	5.e-002	7.5108
15633	18.74	3.4545	0.	1152.9
15634	18.648	3.3636	0.	1173.6
15635	18.648	3.4545	5.e-002	7.4838
15636	18.924	3.4545	0.	1111.6
15637	18.832	3.3636	0.	1132.2
15638	18.832	3.4545	5.e-002	7.4576
15639	19.109	3.4545	0.	1070.5
15640	19.017	3.3636	0.	1091.
15641	19.017	3.4545	5.e-002	7.4323
15642	19.294	3.4545	0.	1029.8
15643	19.201	3.3636	0.	1050.1
15644	19.201	3.4545	5.e-002	7.4079
15645	19.478	3.4545	0.	989.29
15646	19.386	3.3636	0.	1009.5
15647	19.386	3.4545	5.e-002	7.3846
15648	19.663	3.4545	0.	949.14
15649	19.57	3.3636	0.	969.2
15650	19.57	3.4545	5.e-002	7.3624
15651	19.847	3.4545	0.	909.32
15652	19.755	3.3636	0.	929.24
15653	19.755	3.4545	5.e-002	7.3415
15654	20.032	3.4545	0.	869.83
15655	19.94	3.3636	0.	889.6
15656	19.94	3.4545	5.e-002	7.322
15657	20.216	3.4545	0.	830.68
15658	20.124	3.3636	0.	850.3
15659	20.124	3.4545	5.e-002	7.3042
15660	20.401	3.4545	0.	791.9
15661	20.309	3.3636	0.	811.36
15662	20.309	3.4545	5.e-002	7.288
15663	20.585	3.4545	0.	753.49
15664	20.493	3.3636	0.	772.79
15665	20.493	3.4545	5.e-002	7.2739
15666	20.77	3.4545	0.	715.48
15667	20.678	3.3636	0.	734.61
15668	20.678	3.4545	5.e-002	7.262
15669	20.955	3.4545	0.	677.88
15670	20.862	3.3636	0.	696.83
15671	20.862	3.4545	5.e-002	7.2525
15672	21.139	3.4545	0.	640.71
15673	21.047	3.3636	0.	659.48
15674	21.047	3.4545	5.e-002	7.2459
15675	21.324	3.4545	0.	604.01
15676	21.231	3.3636	0.	622.58
15677	21.231	3.4545	5.e-002	7.2424
15678	21.508	3.4545	0.	567.8
15679	21.416	3.3636	0.	586.16
15680	21.416	3.4545	5.e-002	7.2425
15681	21.693	3.4545	0.	532.11
15682	21.601	3.3636	0.	550.25
15683	21.601	3.4545	5.e-002	7.2467
15684	21.877	3.4545	0.	496.99
15685	21.785	3.3636	0.	514.89
15686	21.785	3.4545	5.e-002	7.2553
15687	22.062	3.4545	0.	462.5
15688	21.97	3.3636	0.	480.12
15689	21.97	3.4545	5.e-002	7.269
15690	22.247	3.4545	0.	428.69
15691	22.154	3.3636	0.	446.01
15692	22.154	3.4545	5.e-002	7.2884
15693	22.431	3.4545	0.	395.67
15694	22.339	3.3636	0.	412.63
15695	22.339	3.4545	5.e-002	7.3141
15696	22.616	3.4545	0.	363.55
15697	22.523	3.3636	0.	380.08
15698	22.523	3.4545	5.e-002	7.3466
15699	22.8	3.4545	0.	332.5
15700	22.708	3.3636	0.	348.52
15701	22.708	3.4545	5.e-002	7.3865
15702	22.985	3.4545	0.	302.76
15703	22.893	3.3636	0.	318.13
15704	22.893	3.4545	5.e-002	7.4343
15705	23.169	3.4545	0.	274.65
15706	23.077	3.3636	0.	289.2
15707	23.077	3.4545	5.e-002	7.4901
15708	23.354	3.4545	0.	248.67
15709	23.262	3.3636	0.	262.14
15710	23.262	3.4545	5.e-002	7.5543
15711	23.539	3.4545	0.	225.48
15712	23.446	3.3636	0.	237.49
15713	23.446	3.4545	5.e-002	7.6262
15714	23.723	3.4545	0.	206.
15715	23.631	3.3636	0.	216.07
15716	23.631	3.4545	5.e-002	7.7062
15717	23.815	3.3636	0.	198.89
15718	23.815	3.4545	5.e-002	7.8096
15719	23.908	3.4545	0.	192.08
15720	4.3435	3.2727	0.	11071
15721	4.2512	3.1818	0.	11531
15722	4.2512	3.2727	5.e-002	129.54
15723	4.5281	3.2727	0.	9851.7
15724	4.4358	3.1818	0.	10423
15725	4.4358	3.2727	5.e-002	159.17
15726	4.7127	3.2727	0.	8684.4
15727	4.6204	3.1818	0.	9236.1
15728	4.6204	3.2727	5.e-002	154.68
15729	4.8972	3.2727	0.	7700.8
15730	4.8049	3.1818	0.	8173.5
15731	4.8049	3.2727	5.e-002	135.5
15732	5.0818	3.2727	0.	6916.8
15733	4.9895	3.1818	0.	7299.
15734	4.9895	3.2727	5.e-002	113.83
15735	5.2664	3.2727	0.	6304.4
15736	5.1741	3.1818	0.	6605.5
15737	5.1741	3.2727	5.e-002	94.073
15738	5.4509	3.2727	0.	5827.9
15739	5.3586	3.1818	0.	6063.
15740	5.3586	3.2727	5.e-002	77.4
15741	5.6355	3.2727	0.	5455.5
15742	5.5432	3.1818	0.	5639.1
15743	5.5432	3.2727	5.e-002	63.794
15744	5.8201	3.2727	0.	5162.1
15745	5.7278	3.1818	0.	5306.3
15746	5.7278	3.2727	5.e-002	52.857
15747	6.0046	3.2727	0.	4928.6
15748	5.9123	3.1818	0.	5042.8
15749	5.9123	3.2727	5.e-002	44.127
15750	6.1892	3.2727	0.	4740.3
15751	6.0969	3.1818	0.	4831.9
15752	6.0969	3.2727	5.e-002	37.179
15753	6.3738	3.2727	0.	4586.4
15754	6.2815	3.1818	0.	4660.8
15755	6.2815	3.2727	5.e-002	31.654
15756	6.5583	3.2727	0.	4458.5
15757	6.466	3.1818	0.	4520.
15758	6.466	3.2727	5.e-002	27.258
15759	6.7429	3.2727	0.	4350.5
15760	6.6506	3.1818	0.	4402.2
15761	6.6506	3.2727	5.e-002	23.758
15762	6.9275	3.2727	0.	4257.5
15763	6.8352	3.1818	0.	4301.9
15764	6.8352	3.2727	5.e-002	20.966
15765	7.112	3.2727	0.	4176.
15766	7.0198	3.1818	0.	4214.8
15767	7.0198	3.2727	5.e-002	18.735
15768	7.2966	3.2727	0.	4103.
15769	7.2043	3.1818	0.	4137.7
15770	7.2043	3.2727	5.e-002	16.951
15771	7.4812	3.2727	0.	4036.7
15772	7.3889	3.1818	0.	4068.3
15773	7.3889	3.2727	5.e-002	15.519
15774	7.6657	3.2727	0.	3975.2
15775	7.5735	3.1818	0.	4004.5
15776	7.5735	3.2727	5.e-002	14.368
15777	7.8503	3.2727	0.	3917.4
15778	7.758	3.1818	0.	3945.
15779	7.758	3.2727	5.e-002	13.44
15780	8.0349	3.2727	0.	3862.3
15781	7.9426	3.1818	0.	3888.7
15782	7.9426	3.2727	5.e-002	12.69
15783	8.2194	3.2727	0.	3809.2
15784	8.1272	3.1818	0.	3834.7
15785	8.1272	3.2727	5.e-002	12.08
15786	8.404	3.2727	0.	3757.5
15787	8.3117	3.1818	0.	3782.5
15788	8.3117	3.2727	5.e-002	11.582
15789	8.5886	3.2727	0.	3707.
15790	8.4963	3.1818	0.	3731.4
15791	8.4963	3.2727	5.e-002	11.174
15792	8.7731	3.2727	0.	3657.1
15793	8.6809	3.1818	0.	3681.3
15794	8.6809	3.2727	5.e-002	10.837
15795	8.9577	3.2727	0.	3607.8
15796	8.8654	3.1818	0.	3631.8
15797	8.8654	3.2727	5.e-002	10.556
15798	9.1423	3.2727	0.	3558.8
15799	9.05	3.1818	0.	3582.7
15800	9.05	3.2727	5.e-002	10.321
15801	9.3269	3.2727	0.	3510.1
15802	9.2346	3.1818	0.	3533.9
15803	9.2346	3.2727	5.e-002	10.121
15804	9.5114	3.2727	0.	3461.5
15805	9.4191	3.1818	0.	3485.3
15806	9.4191	3.2727	5.e-002	9.9512
15807	9.696	3.2727	0.	3413.
15808	9.6037	3.1818	0.	3436.8
15809	9.6037	3.2727	5.e-002	9.8043
15810	9.8806	3.2727	0.	3364.5
15811	9.7883	3.1818	0.	3388.4
15812	9.7883	3.2727	5.e-002	9.6762
15813	10.065	3.2727	0.	3316.1
15814	9.9728	3.1818	0.	3340.
15815	9.9728	3.2727	5.e-002	9.5633
15816	10.25	3.2727	0.	3267.7
15817	10.157	3.1818	0.	3291.6
15818	10.157	3.2727	5.e-002	9.4626
15819	10.434	3.2727	0.	3219.3
15820	10.342	3.1818	0.	3243.2
15821	10.342	3.2727	5.e-002	9.372
15822	10.619	3.2727	0.	3170.8
15823	10.527	3.1818	0.	3194.8
15824	10.527	3.2727	5.e-002	9.2895
15825	10.803	3.2727	0.	3122.4
15826	10.711	3.1818	0.	3146.4
15827	10.711	3.2727	5.e-002	9.2138
15828	10.988	3.2727	0.	3074.
15829	10.896	3.1818	0.	3098.
15830	10.896	3.2727	5.e-002	9.1437
15831	11.173	3.2727	0.	3025.6
15832	11.08	3.1818	0.	3049.6
15833	11.08	3.2727	5.e-002	9.0782
15834	11.357	3.2727	0.	2977.3
15835	11.265	3.1818	0.	3001.2
15836	11.265	3.2727	5.e-002	9.0165
15837	11.542	3.2727	0.	2928.9
15838	11.449	3.1818	0.	2952.9
15839	11.449	3.2727	5.e-002	8.9582
15840	11.726	3.2727	0.	2880.7
15841	11.634	3.1818	0.	2904.6
15842	11.634	3.2727	5.e-002	8.9026
15843	11.911	3.2727	0.	2832.4
15844	11.819	3.1818	0.	2856.4
15845	11.819	3.2727	5.e-002	8.8493
15846	12.095	3.2727	0.	2784.3
15847	12.003	3.1818	0.	2808.2
15848	12.003	3.2727	5.e-002	8.7981
15849	12.28	3.2727	0.	2736.2
15850	12.188	3.1818	0.	2760.1
15851	12.188	3.2727	5.e-002	8.7487
15852	12.465	3.2727	0.	2688.2
15853	12.372	3.1818	0.	2712.1
15854	12.372	3.2727	5.e-002	8.7009
15855	12.649	3.2727	0.	2640.4
15856	12.557	3.1818	0.	2664.1
15857	12.557	3.2727	5.e-002	8.6544
15858	12.834	3.2727	0.	2592.6
15859	12.741	3.1818	0.	2616.3
15860	12.741	3.2727	5.e-002	8.609
15861	13.018	3.2727	0.	2544.9
15862	12.926	3.1818	0.	2568.6
15863	12.926	3.2727	5.e-002	8.5648
15864	13.203	3.2727	0.	2497.4
15865	13.11	3.1818	0.	2521.
15866	13.11	3.2727	5.e-002	8.5216
15867	13.387	3.2727	0.	2449.9
15868	13.295	3.1818	0.	2473.5
15869	13.295	3.2727	5.e-002	8.4792
15870	13.572	3.2727	0.	2402.6
15871	13.48	3.1818	0.	2426.1
15872	13.48	3.2727	5.e-002	8.4376
15873	13.756	3.2727	0.	2355.5
15874	13.664	3.1818	0.	2378.9
15875	13.664	3.2727	5.e-002	8.3968
15876	13.941	3.2727	0.	2308.5
15877	13.849	3.1818	0.	2331.9
15878	13.849	3.2727	5.e-002	8.3567
15879	14.126	3.2727	0.	2261.6
15880	14.033	3.1818	0.	2284.9
15881	14.033	3.2727	5.e-002	8.3172
15882	14.31	3.2727	0.	2214.9
15883	14.218	3.1818	0.	2238.2
15884	14.218	3.2727	5.e-002	8.2783
15885	14.495	3.2727	0.	2168.4
15886	14.402	3.1818	0.	2191.5
15887	14.402	3.2727	5.e-002	8.24
15888	14.679	3.2727	0.	2122.1
15889	14.587	3.1818	0.	2145.1
15890	14.587	3.2727	5.e-002	8.2022
15891	14.864	3.2727	0.	2075.9
15892	14.772	3.1818	0.	2098.8
15893	14.772	3.2727	5.e-002	8.1648
15894	15.048	3.2727	0.	2029.8
15895	14.956	3.1818	0.	2052.7
15896	14.956	3.2727	5.e-002	8.1279
15897	15.233	3.2727	0.	1984.
15898	15.141	3.1818	0.	2006.8
15899	15.141	3.2727	5.e-002	8.0914
15900	15.418	3.2727	0.	1938.4
15901	15.325	3.1818	0.	1961.1
15902	15.325	3.2727	5.e-002	8.0554
15903	15.602	3.2727	0.	1892.9
15904	15.51	3.1818	0.	1915.5
15905	15.51	3.2727	5.e-002	8.0198
15906	15.787	3.2727	0.	1847.6
15907	15.694	3.1818	0.	1870.1
15908	15.694	3.2727	5.e-002	7.9847
15909	15.971	3.2727	0.	1802.5
15910	15.879	3.1818	0.	1825.
15911	15.879	3.2727	5.e-002	7.95
15912	16.156	3.2727	0.	1757.7
15913	16.064	3.1818	0.	1780.
15914	16.064	3.2727	5.e-002	7.9156
15915	16.34	3.2727	0.	1713.
15916	16.248	3.1818	0.	1735.2
15917	16.248	3.2727	5.e-002	7.8817
15918	16.525	3.2727	0.	1668.5
15919	16.433	3.1818	0.	1690.7
15920	16.433	3.2727	5.e-002	7.8482
15921	16.71	3.2727	0.	1624.3
15922	16.617	3.1818	0.	1646.3
15923	16.617	3.2727	5.e-002	7.8151
15924	16.894	3.2727	0.	1580.3
15925	16.802	3.1818	0.	1602.2
15926	16.802	3.2727	5.e-002	7.7824
15927	17.079	3.2727	0.	1536.5
15928	16.986	3.1818	0.	1558.2
15929	16.986	3.2727	5.e-002	7.7502
15930	17.263	3.2727	0.	1492.9
15931	17.171	3.1818	0.	1514.6
15932	17.171	3.2727	5.e-002	7.7185
15933	17.448	3.2727	0.	1449.5
15934	17.356	3.1818	0.	1471.1
15935	17.356	3.2727	5.e-002	7.6872
15936	17.632	3.2727	0.	1406.4
15937	17.54	3.1818	0.	1427.9
15938	17.54	3.2727	5.e-002	7.6564
15939	17.817	3.2727	0.	1363.5
15940	17.725	3.1818	0.	1384.9
15941	17.725	3.2727	5.e-002	7.6262
15942	18.002	3.2727	0.	1320.9
15943	17.909	3.1818	0.	1342.1
15944	17.909	3.2727	5.e-002	7.5965
15945	18.186	3.2727	0.	1278.5
15946	18.094	3.1818	0.	1299.6
15947	18.094	3.2727	5.e-002	7.5674
15948	18.371	3.2727	0.	1236.4
15949	18.278	3.1818	0.	1257.4
15950	18.278	3.2727	5.e-002	7.539
15951	18.555	3.2727	0.	1194.5
15952	18.463	3.1818	0.	1215.4
15953	18.463	3.2727	5.e-002	7.5112
15954	18.74	3.2727	0.	1152.9
15955	18.648	3.1818	0.	1173.6
15956	18.648	3.2727	5.e-002	7.4842
15957	18.924	3.2727	0.	1111.6
15958	18.832	3.1818	0.	1132.2
15959	18.832	3.2727	5.e-002	7.4581
15960	19.109	3.2727	0.	1070.6
15961	19.017	3.1818	0.	1091.
15962	19.017	3.2727	5.e-002	7.4328
15963	19.294	3.2727	0.	1029.9
15964	19.201	3.1818	0.	1050.2
15965	19.201	3.2727	5.e-002	7.4085
15966	19.478	3.2727	0.	989.46
15967	19.386	3.1818	0.	1009.6
15968	19.386	3.2727	5.e-002	7.3852
15969	19.663	3.2727	0.	949.35
15970	19.57	3.1818	0.	969.34
15971	19.57	3.2727	5.e-002	7.3631
15972	19.847	3.2727	0.	909.57
15973	19.755	3.1818	0.	929.41
15974	19.755	3.2727	5.e-002	7.3423
15975	20.032	3.2727	0.	870.12
15976	19.94	3.1818	0.	889.8
15977	19.94	3.2727	5.e-002	7.3229
15978	20.216	3.2727	0.	831.03
15979	20.124	3.1818	0.	850.54
15980	20.124	3.2727	5.e-002	7.3052
15981	20.401	3.2727	0.	792.3
15982	20.309	3.1818	0.	811.64
15983	20.309	3.2727	5.e-002	7.2892
15984	20.585	3.2727	0.	753.95
15985	20.493	3.1818	0.	773.12
15986	20.493	3.2727	5.e-002	7.2752
15987	20.77	3.2727	0.	716.
15988	20.678	3.1818	0.	734.98
15989	20.678	3.2727	5.e-002	7.2635
15990	20.955	3.2727	0.	678.47
15991	20.862	3.1818	0.	697.26
15992	20.862	3.2727	5.e-002	7.2543
15993	21.139	3.2727	0.	641.38
15994	21.047	3.1818	0.	659.96
15995	21.047	3.2727	5.e-002	7.248
15996	21.324	3.2727	0.	604.76
15997	21.231	3.1818	0.	623.12
15998	21.231	3.2727	5.e-002	7.2449
15999	21.508	3.2727	0.	568.63
16000	21.416	3.1818	0.	586.76
16001	21.416	3.2727	5.e-002	7.2454
16002	21.693	3.2727	0.	533.03
16003	21.601	3.1818	0.	550.91
16004	21.601	3.2727	5.e-002	7.2499
16005	21.877	3.2727	0.	498.
16006	21.785	3.1818	0.	515.61
16007	21.785	3.2727	5.e-002	7.259
16008	22.062	3.2727	0.	463.59
16009	21.97	3.1818	0.	480.91
16010	21.97	3.2727	5.e-002	7.2733
16011	22.247	3.2727	0.	429.87
16012	22.154	3.1818	0.	446.86
16013	22.154	3.2727	5.e-002	7.2932
16014	22.431	3.2727	0.	396.94
16015	22.339	3.1818	0.	413.55
16016	22.339	3.2727	5.e-002	7.3193
16017	22.616	3.2727	0.	364.9
16018	22.523	3.1818	0.	381.07
16019	22.523	3.2727	5.e-002	7.3522
16020	22.8	3.2727	0.	333.94
16021	22.708	3.1818	0.	349.57
16022	22.708	3.2727	5.e-002	7.3923
16023	22.985	3.2727	0.	304.28
16024	22.893	3.1818	0.	319.24
16025	22.893	3.2727	5.e-002	7.4401
16026	23.169	3.2727	0.	276.25
16027	23.077	3.1818	0.	290.38
16028	23.077	3.2727	5.e-002	7.4957
16029	23.354	3.2727	0.	250.35
16030	23.262	3.1818	0.	263.37
16031	23.262	3.2727	5.e-002	7.5592
16032	23.539	3.2727	0.	227.24
16033	23.446	3.1818	0.	238.78
16034	23.446	3.2727	5.e-002	7.63
16035	23.723	3.2727	0.	207.81
16036	23.631	3.1818	0.	217.41
16037	23.631	3.2727	5.e-002	7.7082
16038	23.815	3.1818	0.	200.26
16039	23.815	3.2727	5.e-002	7.8038
16040	23.908	3.2727	0.	193.95
16041	4.3435	3.0909	0.	10893
16042	4.2512	3.	0.	11397
16043	4.2512	3.0909	5.e-002	103.64
16044	4.5281	3.0909	0.	9822.1
16045	4.4358	3.	0.	10379
16046	4.4358	3.0909	5.e-002	135.57
16047	4.7127	3.0909	0.	8737.8
16048	4.6204	3.	0.	9251.4
16049	4.6204	3.0909	5.e-002	141.71
16050	4.8972	3.0909	0.	7780.2
16051	4.8049	3.	0.	8211.9
16052	4.8049	3.0909	5.e-002	131.12
16053	5.0818	3.0909	0.	6992.8
16054	4.9895	3.	0.	7339.7
16055	4.9895	3.0909	5.e-002	113.72
16056	5.2664	3.0909	0.	6366.9
16057	5.1741	3.	0.	6640.4
16058	5.1741	3.0909	5.e-002	95.492
16059	5.4509	3.0909	0.	5875.7
16060	5.3586	3.	0.	6090.2
16061	5.3586	3.0909	5.e-002	79.08
16062	5.6355	3.0909	0.	5490.7
16063	5.5432	3.	0.	5659.4
16064	5.5432	3.0909	5.e-002	65.277
16065	5.8201	3.0909	0.	5187.4
16066	5.7278	3.	0.	5321.1
16067	5.7278	3.0909	5.e-002	54.04
16068	6.0046	3.0909	0.	4946.3
16069	5.9123	3.	0.	5053.3
16070	5.9123	3.0909	5.e-002	45.033
16071	6.1892	3.0909	0.	4752.5
16072	6.0969	3.	0.	4839.1
16073	6.0969	3.0909	5.e-002	37.863
16074	6.3738	3.0909	0.	4594.5
16075	6.2815	3.	0.	4665.7
16076	6.2815	3.0909	5.e-002	32.169
16077	6.5583	3.0909	0.	4463.7
16078	6.466	3.	0.	4523.2
16079	6.466	3.0909	5.e-002	27.65
16080	6.7429	3.0909	0.	4353.6
16081	6.6506	3.	0.	4404.2
16082	6.6506	3.0909	5.e-002	24.058
16083	6.9275	3.0909	0.	4259.1
16084	6.8352	3.	0.	4303.
16085	6.8352	3.0909	5.e-002	21.2
16086	7.112	3.0909	0.	4176.5
16087	7.0198	3.	0.	4215.3
16088	7.0198	3.0909	5.e-002	18.92
16089	7.2966	3.0909	0.	4102.9
16090	7.2043	3.	0.	4137.8
16091	7.2043	3.0909	5.e-002	17.098
16092	7.4812	3.0909	0.	4036.1
16093	7.3889	3.	0.	4068.
16094	7.3889	3.0909	5.e-002	15.637
16095	7.6657	3.0909	0.	3974.3
16096	7.5735	3.	0.	4004.1
16097	7.5735	3.0909	5.e-002	14.464
16098	7.8503	3.0909	0.	3916.3
16099	7.758	3.	0.	3944.5
16100	7.758	3.0909	5.e-002	13.518
16101	8.0349	3.0909	0.	3861.1
16102	7.9426	3.	0.	3888.1
16103	7.9426	3.0909	5.e-002	12.753
16104	8.2194	3.0909	0.	3808.
16105	8.1272	3.	0.	3834.1
16106	8.1272	3.0909	5.e-002	12.132
16107	8.404	3.0909	0.	3756.4
16108	8.3117	3.	0.	3781.9
16109	8.3117	3.0909	5.e-002	11.625
16110	8.5886	3.0909	0.	3705.8
16111	8.4963	3.	0.	3730.9
16112	8.4963	3.0909	5.e-002	11.208
16113	8.7731	3.0909	0.	3656.
16114	8.6809	3.	0.	3680.8
16115	8.6809	3.0909	5.e-002	10.864
16116	8.9577	3.0909	0.	3606.8
16117	8.8654	3.	0.	3631.3
16118	8.8654	3.0909	5.e-002	10.578
16119	9.1423	3.0909	0.	3557.9
16120	9.05	3.	0.	3582.2
16121	9.05	3.0909	5.e-002	10.339
16122	9.3269	3.0909	0.	3509.2
16123	9.2346	3.	0.	3533.5
16124	9.2346	3.0909	5.e-002	10.136
16125	9.5114	3.0909	0.	3460.7
16126	9.4191	3.	0.	3484.9
16127	9.4191	3.0909	5.e-002	9.9631
16128	9.696	3.0909	0.	3412.2
16129	9.6037	3.	0.	3436.4
16130	9.6037	3.0909	5.e-002	9.8139
16131	9.8806	3.0909	0.	3363.8
16132	9.7883	3.	0.	3388.
16133	9.7883	3.0909	5.e-002	9.684
16134	10.065	3.0909	0.	3315.4
16135	9.9728	3.	0.	3339.6
16136	9.9728	3.0909	5.e-002	9.5696
16137	10.25	3.0909	0.	3267.1
16138	10.157	3.	0.	3291.3
16139	10.157	3.0909	5.e-002	9.4677
16140	10.434	3.0909	0.	3218.7
16141	10.342	3.	0.	3242.9
16142	10.342	3.0909	5.e-002	9.3762
16143	10.619	3.0909	0.	3170.3
16144	10.527	3.	0.	3194.5
16145	10.527	3.0909	5.e-002	9.2929
16146	10.803	3.0909	0.	3121.9
16147	10.711	3.	0.	3146.1
16148	10.711	3.0909	5.e-002	9.2166
16149	10.988	3.0909	0.	3073.6
16150	10.896	3.	0.	3097.7
16151	10.896	3.0909	5.e-002	9.146
16152	11.173	3.0909	0.	3025.2
16153	11.08	3.	0.	3049.4
16154	11.08	3.0909	5.e-002	9.0801
16155	11.357	3.0909	0.	2976.9
16156	11.265	3.	0.	3001.
16157	11.265	3.0909	5.e-002	9.0181
16158	11.542	3.0909	0.	2928.6
16159	11.449	3.	0.	2952.7
16160	11.449	3.0909	5.e-002	8.9595
16161	11.726	3.0909	0.	2880.3
16162	11.634	3.	0.	2904.4
16163	11.634	3.0909	5.e-002	8.9037
16164	11.911	3.0909	0.	2832.1
16165	11.819	3.	0.	2856.2
16166	11.819	3.0909	5.e-002	8.8503
16167	12.095	3.0909	0.	2784.
16168	12.003	3.	0.	2808.
16169	12.003	3.0909	5.e-002	8.7989
16170	12.28	3.0909	0.	2736.
16171	12.188	3.	0.	2759.9
16172	12.188	3.0909	5.e-002	8.7494
16173	12.465	3.0909	0.	2688.
16174	12.372	3.	0.	2711.9
16175	12.372	3.0909	5.e-002	8.7015
16176	12.649	3.0909	0.	2640.1
16177	12.557	3.	0.	2664.
16178	12.557	3.0909	5.e-002	8.6549
16179	12.834	3.0909	0.	2592.3
16180	12.741	3.	0.	2616.2
16181	12.741	3.0909	5.e-002	8.6095
16182	13.018	3.0909	0.	2544.7
16183	12.926	3.	0.	2568.5
16184	12.926	3.0909	5.e-002	8.5653
16185	13.203	3.0909	0.	2497.2
16186	13.11	3.	0.	2520.9
16187	13.11	3.0909	5.e-002	8.522
16188	13.387	3.0909	0.	2449.7
16189	13.295	3.	0.	2473.4
16190	13.295	3.0909	5.e-002	8.4796
16191	13.572	3.0909	0.	2402.5
16192	13.48	3.	0.	2426.
16193	13.48	3.0909	5.e-002	8.438
16194	13.756	3.0909	0.	2355.3
16195	13.664	3.	0.	2378.8
16196	13.664	3.0909	5.e-002	8.3971
16197	13.941	3.0909	0.	2308.3
16198	13.849	3.	0.	2331.8
16199	13.849	3.0909	5.e-002	8.357
16200	14.126	3.0909	0.	2261.5
16201	14.033	3.	0.	2284.9
16202	14.033	3.0909	5.e-002	8.3175
16203	14.31	3.0909	0.	2214.8
16204	14.218	3.	0.	2238.1
16205	14.218	3.0909	5.e-002	8.2786
16206	14.495	3.0909	0.	2168.3
16207	14.402	3.	0.	2191.5
16208	14.402	3.0909	5.e-002	8.2402
16209	14.679	3.0909	0.	2121.9
16210	14.587	3.	0.	2145.
16211	14.587	3.0909	5.e-002	8.2024
16212	14.864	3.0909	0.	2075.7
16213	14.772	3.	0.	2098.8
16214	14.772	3.0909	5.e-002	8.165
16215	15.048	3.0909	0.	2029.7
16216	14.956	3.	0.	2052.7
16217	14.956	3.0909	5.e-002	8.1281
16218	15.233	3.0909	0.	1983.9
16219	15.141	3.	0.	2006.7
16220	15.141	3.0909	5.e-002	8.0916
16221	15.418	3.0909	0.	1938.2
16222	15.325	3.	0.	1961.
16223	15.325	3.0909	5.e-002	8.0556
16224	15.602	3.0909	0.	1892.8
16225	15.51	3.	0.	1915.4
16226	15.51	3.0909	5.e-002	8.02
16227	15.787	3.0909	0.	1847.5
16228	15.694	3.	0.	1870.1
16229	15.694	3.0909	5.e-002	7.9848
16230	15.971	3.0909	0.	1802.4
16231	15.879	3.	0.	1824.9
16232	15.879	3.0909	5.e-002	7.9501
16233	16.156	3.0909	0.	1757.6
16234	16.064	3.	0.	1779.9
16235	16.064	3.0909	5.e-002	7.9158
16236	16.34	3.0909	0.	1712.9
16237	16.248	3.	0.	1735.2
16238	16.248	3.0909	5.e-002	7.8819
16239	16.525	3.0909	0.	1668.5
16240	16.433	3.	0.	1690.6
16241	16.433	3.0909	5.e-002	7.8484
16242	16.71	3.0909	0.	1624.2
16243	16.617	3.	0.	1646.3
16244	16.617	3.0909	5.e-002	7.8153
16245	16.894	3.0909	0.	1580.2
16246	16.802	3.	0.	1602.1
16247	16.802	3.0909	5.e-002	7.7826
16248	17.079	3.0909	0.	1536.4
16249	16.986	3.	0.	1558.2
16250	16.986	3.0909	5.e-002	7.7504
16251	17.263	3.0909	0.	1492.8
16252	17.171	3.	0.	1514.5
16253	17.171	3.0909	5.e-002	7.7186
16254	17.448	3.0909	0.	1449.5
16255	17.356	3.	0.	1471.1
16256	17.356	3.0909	5.e-002	7.6874
16257	17.632	3.0909	0.	1406.4
16258	17.54	3.	0.	1427.8
16259	17.54	3.0909	5.e-002	7.6566
16260	17.817	3.0909	0.	1363.5
16261	17.725	3.	0.	1384.8
16262	17.725	3.0909	5.e-002	7.6263
16263	18.002	3.0909	0.	1320.9
16264	17.909	3.	0.	1342.1
16265	17.909	3.0909	5.e-002	7.5967
16266	18.186	3.0909	0.	1278.5
16267	18.094	3.	0.	1299.6
16268	18.094	3.0909	5.e-002	7.5676
16269	18.371	3.0909	0.	1236.4
16270	18.278	3.	0.	1257.3
16271	18.278	3.0909	5.e-002	7.5392
16272	18.555	3.0909	0.	1194.5
16273	18.463	3.	0.	1215.4
16274	18.463	3.0909	5.e-002	7.5114
16275	18.74	3.0909	0.	1153.
16276	18.648	3.	0.	1173.6
16277	18.648	3.0909	5.e-002	7.4844
16278	18.924	3.0909	0.	1111.7
16279	18.832	3.	0.	1132.2
16280	18.832	3.0909	5.e-002	7.4583
16281	19.109	3.0909	0.	1070.7
16282	19.017	3.	0.	1091.1
16283	19.017	3.0909	5.e-002	7.433
16284	19.294	3.0909	0.	1029.9
16285	19.201	3.	0.	1050.2
16286	19.201	3.0909	5.e-002	7.4087
16287	19.478	3.0909	0.	989.54
16288	19.386	3.	0.	1009.6
16289	19.386	3.0909	5.e-002	7.3855
16290	19.663	3.0909	0.	949.45
16291	19.57	3.	0.	969.39
16292	19.57	3.0909	5.e-002	7.3635
16293	19.847	3.0909	0.	909.69
16294	19.755	3.	0.	929.46
16295	19.755	3.0909	5.e-002	7.3427
16296	20.032	3.0909	0.	870.27
16297	19.94	3.	0.	889.87
16298	19.94	3.0909	5.e-002	7.3234
16299	20.216	3.0909	0.	831.2
16300	20.124	3.	0.	850.62
16301	20.124	3.0909	5.e-002	7.3057
16302	20.401	3.0909	0.	792.5
16303	20.309	3.	0.	811.74
16304	20.309	3.0909	5.e-002	7.2898
16305	20.585	3.0909	0.	754.19
16306	20.493	3.	0.	773.23
16307	20.493	3.0909	5.e-002	7.2759
16308	20.77	3.0909	0.	716.27
16309	20.678	3.	0.	735.11
16310	20.678	3.0909	5.e-002	7.2643
16311	20.955	3.0909	0.	678.78
16312	20.862	3.	0.	697.4
16313	20.862	3.0909	5.e-002	7.2553
16314	21.139	3.0909	0.	641.72
16315	21.047	3.	0.	660.12
16316	21.047	3.0909	5.e-002	7.2491
16317	21.324	3.0909	0.	605.14
16318	21.231	3.	0.	623.3
16319	21.231	3.0909	5.e-002	7.2461
16320	21.508	3.0909	0.	569.05
16321	21.416	3.	0.	586.96
16322	21.416	3.0909	5.e-002	7.2468
16323	21.693	3.0909	0.	533.49
16324	21.601	3.	0.	551.13
16325	21.601	3.0909	5.e-002	7.2516
16326	21.877	3.0909	0.	498.5
16327	21.785	3.	0.	515.85
16328	21.785	3.0909	5.e-002	7.2609
16329	22.062	3.0909	0.	464.14
16330	21.97	3.	0.	481.17
16331	21.97	3.0909	5.e-002	7.2754
16332	22.247	3.0909	0.	430.46
16333	22.154	3.	0.	447.14
16334	22.154	3.0909	5.e-002	7.2955
16335	22.431	3.0909	0.	397.57
16336	22.339	3.	0.	413.85
16337	22.339	3.0909	5.e-002	7.3219
16338	22.616	3.0909	0.	365.58
16339	22.523	3.	0.	381.4
16340	22.523	3.0909	5.e-002	7.3549
16341	22.8	3.0909	0.	334.66
16342	22.708	3.	0.	349.92
16343	22.708	3.0909	5.e-002	7.3952
16344	22.985	3.0909	0.	305.04
16345	22.893	3.	0.	319.61
16346	22.893	3.0909	5.e-002	7.4429
16347	23.169	3.0909	0.	277.05
16348	23.077	3.	0.	290.77
16349	23.077	3.0909	5.e-002	7.4984
16350	23.354	3.0909	0.	251.19
16351	23.262	3.	0.	263.78
16352	23.262	3.0909	5.e-002	7.5616
16353	23.539	3.0909	0.	228.11
16354	23.446	3.	0.	239.21
16355	23.446	3.0909	5.e-002	7.6319
16356	23.723	3.0909	0.	208.71
16357	23.631	3.	0.	217.86
16358	23.631	3.0909	5.e-002	7.7091
16359	23.815	3.	0.	200.72
16360	23.815	3.0909	5.e-002	7.8008
16361	23.908	3.0909	0.	194.88
16362	4.3435	2.9091	0.	10893
16363	4.2512	2.8182	0.	11531
16364	4.2512	2.9091	5.e-002	103.64
16365	4.5281	2.9091	0.	9822.1
16366	4.4358	2.8182	0.	10423
16367	4.4358	2.9091	5.e-002	135.57
16368	4.7127	2.9091	0.	8737.8
16369	4.6204	2.8182	0.	9236.1
16370	4.6204	2.9091	5.e-002	141.71
16371	4.8972	2.9091	0.	7780.2
16372	4.8049	2.8182	0.	8173.5
16373	4.8049	2.9091	5.e-002	131.12
16374	5.0818	2.9091	0.	6992.8
16375	4.9895	2.8182	0.	7299.
16376	4.9895	2.9091	5.e-002	113.72
16377	5.2664	2.9091	0.	6366.9
16378	5.1741	2.8182	0.	6605.5
16379	5.1741	2.9091	5.e-002	95.492
16380	5.4509	2.9091	0.	5875.7
16381	5.3586	2.8182	0.	6063.
16382	5.3586	2.9091	5.e-002	79.08
16383	5.6355	2.9091	0.	5490.7
16384	5.5432	2.8182	0.	5639.1
16385	5.5432	2.9091	5.e-002	65.277
16386	5.8201	2.9091	0.	5187.4
16387	5.7278	2.8182	0.	5306.3
16388	5.7278	2.9091	5.e-002	54.04
16389	6.0046	2.9091	0.	4946.3
16390	5.9123	2.8182	0.	5042.8
16391	5.9123	2.9091	5.e-002	45.033
16392	6.1892	2.9091	0.	4752.5
16393	6.0969	2.8182	0.	4831.9
16394	6.0969	2.9091	5.e-002	37.863
16395	6.3738	2.9091	0.	4594.5
16396	6.2815	2.8182	0.	4660.8
16397	6.2815	2.9091	5.e-002	32.169
16398	6.5583	2.9091	0.	4463.7
16399	6.466	2.8182	0.	4520.
16400	6.466	2.9091	5.e-002	27.65
16401	6.7429	2.9091	0.	4353.6
16402	6.6506	2.8182	0.	4402.2
16403	6.6506	2.9091	5.e-002	24.058
16404	6.9275	2.9091	0.	4259.1
16405	6.8352	2.8182	0.	4301.9
16406	6.8352	2.9091	5.e-002	21.2
16407	7.112	2.9091	0.	4176.5
16408	7.0198	2.8182	0.	4214.8
16409	7.0198	2.9091	5.e-002	18.92
16410	7.2966	2.9091	0.	4102.9
16411	7.2043	2.8182	0.	4137.7
16412	7.2043	2.9091	5.e-002	17.098
16413	7.4812	2.9091	0.	4036.1
16414	7.3889	2.8182	0.	4068.3
16415	7.3889	2.9091	5.e-002	15.637
16416	7.6657	2.9091	0.	3974.3
16417	7.5735	2.8182	0.	4004.5
16418	7.5735	2.9091	5.e-002	14.464
16419	7.8503	2.9091	0.	3916.3
16420	7.758	2.8182	0.	3945.
16421	7.758	2.9091	5.e-002	13.518
16422	8.0349	2.9091	0.	3861.1
16423	7.9426	2.8182	0.	3888.7
16424	7.9426	2.9091	5.e-002	12.753
16425	8.2194	2.9091	0.	3808.
16426	8.1272	2.8182	0.	3834.7
16427	8.1272	2.9091	5.e-002	12.132
16428	8.404	2.9091	0.	3756.4
16429	8.3117	2.8182	0.	3782.5
16430	8.3117	2.9091	5.e-002	11.625
16431	8.5886	2.9091	0.	3705.8
16432	8.4963	2.8182	0.	3731.4
16433	8.4963	2.9091	5.e-002	11.208
16434	8.7731	2.9091	0.	3656.
16435	8.6809	2.8182	0.	3681.3
16436	8.6809	2.9091	5.e-002	10.864
16437	8.9577	2.9091	0.	3606.8
16438	8.8654	2.8182	0.	3631.8
16439	8.8654	2.9091	5.e-002	10.578
16440	9.1423	2.9091	0.	3557.9
16441	9.05	2.8182	0.	3582.7
16442	9.05	2.9091	5.e-002	10.339
16443	9.3269	2.9091	0.	3509.2
16444	9.2346	2.8182	0.	3533.9
16445	9.2346	2.9091	5.e-002	10.136
16446	9.5114	2.9091	0.	3460.7
16447	9.4191	2.8182	0.	3485.3
16448	9.4191	2.9091	5.e-002	9.9631
16449	9.696	2.9091	0.	3412.2
16450	9.6037	2.8182	0.	3436.8
16451	9.6037	2.9091	5.e-002	9.8139
16452	9.8806	2.9091	0.	3363.8
16453	9.7883	2.8182	0.	3388.4
16454	9.7883	2.9091	5.e-002	9.684
16455	10.065	2.9091	0.	3315.4
16456	9.9728	2.8182	0.	3340.
16457	9.9728	2.9091	5.e-002	9.5696
16458	10.25	2.9091	0.	3267.1
16459	10.157	2.8182	0.	3291.6
16460	10.157	2.9091	5.e-002	9.4677
16461	10.434	2.9091	0.	3218.7
16462	10.342	2.8182	0.	3243.2
16463	10.342	2.9091	5.e-002	9.3762
16464	10.619	2.9091	0.	3170.3
16465	10.527	2.8182	0.	3194.8
16466	10.527	2.9091	5.e-002	9.2929
16467	10.803	2.9091	0.	3121.9
16468	10.711	2.8182	0.	3146.4
16469	10.711	2.9091	5.e-002	9.2166
16470	10.988	2.9091	0.	3073.6
16471	10.896	2.8182	0.	3098.
16472	10.896	2.9091	5.e-002	9.146
16473	11.173	2.9091	0.	3025.2
16474	11.08	2.8182	0.	3049.6
16475	11.08	2.9091	5.e-002	9.0801
16476	11.357	2.9091	0.	2976.9
16477	11.265	2.8182	0.	3001.2
16478	11.265	2.9091	5.e-002	9.0181
16479	11.542	2.9091	0.	2928.6
16480	11.449	2.8182	0.	2952.9
16481	11.449	2.9091	5.e-002	8.9595
16482	11.726	2.9091	0.	2880.3
16483	11.634	2.8182	0.	2904.6
16484	11.634	2.9091	5.e-002	8.9037
16485	11.911	2.9091	0.	2832.1
16486	11.819	2.8182	0.	2856.4
16487	11.819	2.9091	5.e-002	8.8503
16488	12.095	2.9091	0.	2784.
16489	12.003	2.8182	0.	2808.2
16490	12.003	2.9091	5.e-002	8.7989
16491	12.28	2.9091	0.	2736.
16492	12.188	2.8182	0.	2760.1
16493	12.188	2.9091	5.e-002	8.7494
16494	12.465	2.9091	0.	2688.
16495	12.372	2.8182	0.	2712.1
16496	12.372	2.9091	5.e-002	8.7015
16497	12.649	2.9091	0.	2640.1
16498	12.557	2.8182	0.	2664.1
16499	12.557	2.9091	5.e-002	8.6549
16500	12.834	2.9091	0.	2592.3
16501	12.741	2.8182	0.	2616.3
16502	12.741	2.9091	5.e-002	8.6095
16503	13.018	2.9091	0.	2544.7
16504	12.926	2.8182	0.	2568.6
16505	12.926	2.9091	5.e-002	8.5653
16506	13.203	2.9091	0.	2497.2
16507	13.11	2.8182	0.	2521.
16508	13.11	2.9091	5.e-002	8.522
16509	13.387	2.9091	0.	2449.7
16510	13.295	2.8182	0.	2473.5
16511	13.295	2.9091	5.e-002	8.4796
16512	13.572	2.9091	0.	2402.5
16513	13.48	2.8182	0.	2426.1
16514	13.48	2.9091	5.e-002	8.438
16515	13.756	2.9091	0.	2355.3
16516	13.664	2.8182	0.	2378.9
16517	13.664	2.9091	5.e-002	8.3971
16518	13.941	2.9091	0.	2308.3
16519	13.849	2.8182	0.	2331.9
16520	13.849	2.9091	5.e-002	8.357
16521	14.126	2.9091	0.	2261.5
16522	14.033	2.8182	0.	2284.9
16523	14.033	2.9091	5.e-002	8.3175
16524	14.31	2.9091	0.	2214.8
16525	14.218	2.8182	0.	2238.2
16526	14.218	2.9091	5.e-002	8.2786
16527	14.495	2.9091	0.	2168.3
16528	14.402	2.8182	0.	2191.5
16529	14.402	2.9091	5.e-002	8.2402
16530	14.679	2.9091	0.	2121.9
16531	14.587	2.8182	0.	2145.1
16532	14.587	2.9091	5.e-002	8.2024
16533	14.864	2.9091	0.	2075.7
16534	14.772	2.8182	0.	2098.8
16535	14.772	2.9091	5.e-002	8.165
16536	15.048	2.9091	0.	2029.7
16537	14.956	2.8182	0.	2052.7
16538	14.956	2.9091	5.e-002	8.1281
16539	15.233	2.9091	0.	1983.9
16540	15.141	2.8182	0.	2006.8
16541	15.141	2.9091	5.e-002	8.0916
16542	15.418	2.9091	0.	1938.2
16543	15.325	2.8182	0.	1961.1
16544	15.325	2.9091	5.e-002	8.0556
16545	15.602	2.9091	0.	1892.8
16546	15.51	2.8182	0.	1915.5
16547	15.51	2.9091	5.e-002	8.02
16548	15.787	2.9091	0.	1847.5
16549	15.694	2.8182	0.	1870.1
16550	15.694	2.9091	5.e-002	7.9848
16551	15.971	2.9091	0.	1802.4
16552	15.879	2.8182	0.	1825.
16553	15.879	2.9091	5.e-002	7.9501
16554	16.156	2.9091	0.	1757.6
16555	16.064	2.8182	0.	1780.
16556	16.064	2.9091	5.e-002	7.9158
16557	16.34	2.9091	0.	1712.9
16558	16.248	2.8182	0.	1735.2
16559	16.248	2.9091	5.e-002	7.8819
16560	16.525	2.9091	0.	1668.5
16561	16.433	2.8182	0.	1690.7
16562	16.433	2.9091	5.e-002	7.8484
16563	16.71	2.9091	0.	1624.2
16564	16.617	2.8182	0.	1646.3
16565	16.617	2.9091	5.e-002	7.8153
16566	16.894	2.9091	0.	1580.2
16567	16.802	2.8182	0.	1602.2
16568	16.802	2.9091	5.e-002	7.7826
16569	17.079	2.9091	0.	1536.4
16570	16.986	2.8182	0.	1558.2
16571	16.986	2.9091	5.e-002	7.7504
16572	17.263	2.9091	0.	1492.8
16573	17.171	2.8182	0.	1514.6
16574	17.171	2.9091	5.e-002	7.7186
16575	17.448	2.9091	0.	1449.5
16576	17.356	2.8182	0.	1471.1
16577	17.356	2.9091	5.e-002	7.6874
16578	17.632	2.9091	0.	1406.4
16579	17.54	2.8182	0.	1427.9
16580	17.54	2.9091	5.e-002	7.6566
16581	17.817	2.9091	0.	1363.5
16582	17.725	2.8182	0.	1384.9
16583	17.725	2.9091	5.e-002	7.6263
16584	18.002	2.9091	0.	1320.9
16585	17.909	2.8182	0.	1342.1
16586	17.909	2.9091	5.e-002	7.5967
16587	18.186	2.9091	0.	1278.5
16588	18.094	2.8182	0.	1299.6
16589	18.094	2.9091	5.e-002	7.5676
16590	18.371	2.9091	0.	1236.4
16591	18.278	2.8182	0.	1257.4
16592	18.278	2.9091	5.e-002	7.5392
16593	18.555	2.9091	0.	1194.5
16594	18.463	2.8182	0.	1215.4
16595	18.463	2.9091	5.e-002	7.5114
16596	18.74	2.9091	0.	1153.
16597	18.648	2.8182	0.	1173.6
16598	18.648	2.9091	5.e-002	7.4844
16599	18.924	2.9091	0.	1111.7
16600	18.832	2.8182	0.	1132.2
16601	18.832	2.9091	5.e-002	7.4583
16602	19.109	2.9091	0.	1070.7
16603	19.017	2.8182	0.	1091.
16604	19.017	2.9091	5.e-002	7.433
16605	19.294	2.9091	0.	1029.9
16606	19.201	2.8182	0.	1050.2
16607	19.201	2.9091	5.e-002	7.4087
16608	19.478	2.9091	0.	989.54
16609	19.386	2.8182	0.	1009.6
16610	19.386	2.9091	5.e-002	7.3855
16611	19.663	2.9091	0.	949.45
16612	19.57	2.8182	0.	969.34
16613	19.57	2.9091	5.e-002	7.3635
16614	19.847	2.9091	0.	909.69
16615	19.755	2.8182	0.	929.41
16616	19.755	2.9091	5.e-002	7.3427
16617	20.032	2.9091	0.	870.27
16618	19.94	2.8182	0.	889.8
16619	19.94	2.9091	5.e-002	7.3234
16620	20.216	2.9091	0.	831.2
16621	20.124	2.8182	0.	850.54
16622	20.124	2.9091	5.e-002	7.3057
16623	20.401	2.9091	0.	792.5
16624	20.309	2.8182	0.	811.64
16625	20.309	2.9091	5.e-002	7.2898
16626	20.585	2.9091	0.	754.19
16627	20.493	2.8182	0.	773.12
16628	20.493	2.9091	5.e-002	7.2759
16629	20.77	2.9091	0.	716.27
16630	20.678	2.8182	0.	734.98
16631	20.678	2.9091	5.e-002	7.2643
16632	20.955	2.9091	0.	678.78
16633	20.862	2.8182	0.	697.26
16634	20.862	2.9091	5.e-002	7.2553
16635	21.139	2.9091	0.	641.72
16636	21.047	2.8182	0.	659.96
16637	21.047	2.9091	5.e-002	7.2491
16638	21.324	2.9091	0.	605.14
16639	21.231	2.8182	0.	623.12
16640	21.231	2.9091	5.e-002	7.2461
16641	21.508	2.9091	0.	569.05
16642	21.416	2.8182	0.	586.76
16643	21.416	2.9091	5.e-002	7.2468
16644	21.693	2.9091	0.	533.49
16645	21.601	2.8182	0.	550.91
16646	21.601	2.9091	5.e-002	7.2516
16647	21.877	2.9091	0.	498.5
16648	21.785	2.8182	0.	515.61
16649	21.785	2.9091	5.e-002	7.2609
16650	22.062	2.9091	0.	464.14
16651	21.97	2.8182	0.	480.91
16652	21.97	2.9091	5.e-002	7.2754
16653	22.247	2.9091	0.	430.46
16654	22.154	2.8182	0.	446.86
16655	22.154	2.9091	5.e-002	7.2955
16656	22.431	2.9091	0.	397.57
16657	22.339	2.8182	0.	413.55
16658	22.339	2.9091	5.e-002	7.3219
16659	22.616	2.9091	0.	365.58
16660	22.523	2.8182	0.	381.07
16661	22.523	2.9091	5.e-002	7.3549
16662	22.8	2.9091	0.	334.66
16663	22.708	2.8182	0.	349.57
16664	22.708	2.9091	5.e-002	7.3952
16665	22.985	2.9091	0.	305.04
16666	22.893	2.8182	0.	319.24
16667	22.893	2.9091	5.e-002	7.4429
16668	23.169	2.9091	0.	277.05
16669	23.077	2.8182	0.	290.38
16670	23.077	2.9091	5.e-002	7.4984
16671	23.354	2.9091	0.	251.19
16672	23.262	2.8182	0.	263.37
16673	23.262	2.9091	5.e-002	7.5616
16674	23.539	2.9091	0.	228.11
16675	23.446	2.8182	0.	238.78
16676	23.446	2.9091	5.e-002	7.6319
16677	23.723	2.9091	0.	208.71
16678	23.631	2.8182	0.	217.41
16679	23.631	2.9091	5.e-002	7.7091
16680	23.815	2.8182	0.	200.26
16681	23.815	2.9091	5.e-002	7.8008
16682	23.908	2.9091	0.	194.88
16683	4.3435	2.7273	0.	11071
16684	4.2512	2.6364	0.	11943
16685	4.2512	2.7273	5.e-002	129.54
16686	4.5281	2.7273	0.	9851.7
16687	4.4358	2.6364	0.	10532
16688	4.4358	2.7273	5.e-002	159.17
16689	4.7127	2.7273	0.	8684.4
16690	4.6204	2.6364	0.	9169.1
16691	4.6204	2.7273	5.e-002	154.68
16692	4.8972	2.7273	0.	7700.8
16693	4.8049	2.6364	0.	8049.7
16694	4.8049	2.7273	5.e-002	135.5
16695	5.0818	2.7273	0.	6916.8
16696	4.9895	2.6364	0.	7175.7
16697	4.9895	2.7273	5.e-002	113.83
16698	5.2664	2.7273	0.	6304.4
16699	5.1741	2.6364	0.	6502.4
16700	5.1741	2.7273	5.e-002	94.073
16701	5.4509	2.7273	0.	5827.9
16702	5.3586	2.6364	0.	5983.1
16703	5.3586	2.7273	5.e-002	77.4
16704	5.6355	2.7273	0.	5455.5
16705	5.5432	2.6364	0.	5579.7
16706	5.5432	2.7273	5.e-002	63.794
16707	5.8201	2.7273	0.	5162.1
16708	5.7278	2.6364	0.	5263.3
16709	5.7278	2.7273	5.e-002	52.857
16710	6.0046	2.7273	0.	4928.6
16711	5.9123	2.6364	0.	5012.3
16712	5.9123	2.7273	5.e-002	44.127
16713	6.1892	2.7273	0.	4740.3
16714	6.0969	2.6364	0.	4810.7
16715	6.0969	2.7273	5.e-002	37.179
16716	6.3738	2.7273	0.	4586.4
16717	6.2815	2.6364	0.	4646.4
16718	6.2815	2.7273	5.e-002	31.654
16719	6.5583	2.7273	0.	4458.5
16720	6.466	2.6364	0.	4510.6
16721	6.466	2.7273	5.e-002	27.258
16722	6.7429	2.7273	0.	4350.5
16723	6.6506	2.6364	0.	4396.4
16724	6.6506	2.7273	5.e-002	23.758
16725	6.9275	2.7273	0.	4257.5
16726	6.8352	2.6364	0.	4298.6
16727	6.8352	2.7273	5.e-002	20.966
16728	7.112	2.7273	0.	4176.
16729	7.0198	2.6364	0.	4213.3
16730	7.0198	2.7273	5.e-002	18.735
16731	7.2966	2.7273	0.	4103.
16732	7.2043	2.6364	0.	4137.5
16733	7.2043	2.7273	5.e-002	16.951
16734	7.4812	2.7273	0.	4036.7
16735	7.3889	2.6364	0.	4068.9
16736	7.3889	2.7273	5.e-002	15.519
16737	7.6657	2.7273	0.	3975.2
16738	7.5735	2.6364	0.	4005.6
16739	7.5735	2.7273	5.e-002	14.368
16740	7.8503	2.7273	0.	3917.4
16741	7.758	2.6364	0.	3946.5
16742	7.758	2.7273	5.e-002	13.44
16743	8.0349	2.7273	0.	3862.3
16744	7.9426	2.6364	0.	3890.3
16745	7.9426	2.7273	5.e-002	12.69
16746	8.2194	2.7273	0.	3809.2
16747	8.1272	2.6364	0.	3836.5
16748	8.1272	2.7273	5.e-002	12.08
16749	8.404	2.7273	0.	3757.5
16750	8.3117	2.6364	0.	3784.2
16751	8.3117	2.7273	5.e-002	11.582
16752	8.5886	2.7273	0.	3707.
16753	8.4963	2.6364	0.	3733.2
16754	8.4963	2.7273	5.e-002	11.174
16755	8.7731	2.7273	0.	3657.1
16756	8.6809	2.6364	0.	3683.
16757	8.6809	2.7273	5.e-002	10.837
16758	8.9577	2.7273	0.	3607.8
16759	8.8654	2.6364	0.	3633.4
16760	8.8654	2.7273	5.e-002	10.556
16761	9.1423	2.7273	0.	3558.8
16762	9.05	2.6364	0.	3584.2
16763	9.05	2.7273	5.e-002	10.321
16764	9.3269	2.7273	0.	3510.1
16765	9.2346	2.6364	0.	3535.3
16766	9.2346	2.7273	5.e-002	10.121
16767	9.5114	2.7273	0.	3461.5
16768	9.4191	2.6364	0.	3486.6
16769	9.4191	2.7273	5.e-002	9.9512
16770	9.696	2.7273	0.	3413.
16771	9.6037	2.6364	0.	3438.
16772	9.6037	2.7273	5.e-002	9.8043
16773	9.8806	2.7273	0.	3364.5
16774	9.7883	2.6364	0.	3389.5
16775	9.7883	2.7273	5.e-002	9.6762
16776	10.065	2.7273	0.	3316.1
16777	9.9728	2.6364	0.	3341.
16778	9.9728	2.7273	5.e-002	9.5633
16779	10.25	2.7273	0.	3267.7
16780	10.157	2.6364	0.	3292.5
16781	10.157	2.7273	5.e-002	9.4626
16782	10.434	2.7273	0.	3219.3
16783	10.342	2.6364	0.	3244.
16784	10.342	2.7273	5.e-002	9.372
16785	10.619	2.7273	0.	3170.8
16786	10.527	2.6364	0.	3195.6
16787	10.527	2.7273	5.e-002	9.2895
16788	10.803	2.7273	0.	3122.4
16789	10.711	2.6364	0.	3147.1
16790	10.711	2.7273	5.e-002	9.2138
16791	10.988	2.7273	0.	3074.
16792	10.896	2.6364	0.	3098.7
16793	10.896	2.7273	5.e-002	9.1437
16794	11.173	2.7273	0.	3025.6
16795	11.08	2.6364	0.	3050.2
16796	11.08	2.7273	5.e-002	9.0782
16797	11.357	2.7273	0.	2977.3
16798	11.265	2.6364	0.	3001.8
16799	11.265	2.7273	5.e-002	9.0165
16800	11.542	2.7273	0.	2928.9
16801	11.449	2.6364	0.	2953.4
16802	11.449	2.7273	5.e-002	8.9582
16803	11.726	2.7273	0.	2880.7
16804	11.634	2.6364	0.	2905.1
16805	11.634	2.7273	5.e-002	8.9026
16806	11.911	2.7273	0.	2832.4
16807	11.819	2.6364	0.	2856.8
16808	11.819	2.7273	5.e-002	8.8493
16809	12.095	2.7273	0.	2784.3
16810	12.003	2.6364	0.	2808.6
16811	12.003	2.7273	5.e-002	8.7981
16812	12.28	2.7273	0.	2736.2
16813	12.188	2.6364	0.	2760.5
16814	12.188	2.7273	5.e-002	8.7487
16815	12.465	2.7273	0.	2688.2
16816	12.372	2.6364	0.	2712.5
16817	12.372	2.7273	5.e-002	8.7009
16818	12.649	2.7273	0.	2640.4
16819	12.557	2.6364	0.	2664.5
16820	12.557	2.7273	5.e-002	8.6544
16821	12.834	2.7273	0.	2592.6
16822	12.741	2.6364	0.	2616.6
16823	12.741	2.7273	5.e-002	8.609
16824	13.018	2.7273	0.	2544.9
16825	12.926	2.6364	0.	2568.9
16826	12.926	2.7273	5.e-002	8.5648
16827	13.203	2.7273	0.	2497.4
16828	13.11	2.6364	0.	2521.3
16829	13.11	2.7273	5.e-002	8.5216
16830	13.387	2.7273	0.	2449.9
16831	13.295	2.6364	0.	2473.8
16832	13.295	2.7273	5.e-002	8.4792
16833	13.572	2.7273	0.	2402.6
16834	13.48	2.6364	0.	2426.4
16835	13.48	2.7273	5.e-002	8.4376
16836	13.756	2.7273	0.	2355.5
16837	13.664	2.6364	0.	2379.2
16838	13.664	2.7273	5.e-002	8.3968
16839	13.941	2.7273	0.	2308.5
16840	13.849	2.6364	0.	2332.1
16841	13.849	2.7273	5.e-002	8.3567
16842	14.126	2.7273	0.	2261.6
16843	14.033	2.6364	0.	2285.2
16844	14.033	2.7273	5.e-002	8.3172
16845	14.31	2.7273	0.	2214.9
16846	14.218	2.6364	0.	2238.4
16847	14.218	2.7273	5.e-002	8.2783
16848	14.495	2.7273	0.	2168.4
16849	14.402	2.6364	0.	2191.8
16850	14.402	2.7273	5.e-002	8.24
16851	14.679	2.7273	0.	2122.1
16852	14.587	2.6364	0.	2145.3
16853	14.587	2.7273	5.e-002	8.2022
16854	14.864	2.7273	0.	2075.9
16855	14.772	2.6364	0.	2099.
16856	14.772	2.7273	5.e-002	8.1648
16857	15.048	2.7273	0.	2029.8
16858	14.956	2.6364	0.	2052.9
16859	14.956	2.7273	5.e-002	8.1279
16860	15.233	2.7273	0.	1984.
16861	15.141	2.6364	0.	2007.
16862	15.141	2.7273	5.e-002	8.0914
16863	15.418	2.7273	0.	1938.4
16864	15.325	2.6364	0.	1961.2
16865	15.325	2.7273	5.e-002	8.0554
16866	15.602	2.7273	0.	1892.9
16867	15.51	2.6364	0.	1915.7
16868	15.51	2.7273	5.e-002	8.0198
16869	15.787	2.7273	0.	1847.6
16870	15.694	2.6364	0.	1870.3
16871	15.694	2.7273	5.e-002	7.9847
16872	15.971	2.7273	0.	1802.5
16873	15.879	2.6364	0.	1825.1
16874	15.879	2.7273	5.e-002	7.95
16875	16.156	2.7273	0.	1757.7
16876	16.064	2.6364	0.	1780.1
16877	16.064	2.7273	5.e-002	7.9156
16878	16.34	2.7273	0.	1713.
16879	16.248	2.6364	0.	1735.4
16880	16.248	2.7273	5.e-002	7.8817
16881	16.525	2.7273	0.	1668.5
16882	16.433	2.6364	0.	1690.8
16883	16.433	2.7273	5.e-002	7.8482
16884	16.71	2.7273	0.	1624.3
16885	16.617	2.6364	0.	1646.4
16886	16.617	2.7273	5.e-002	7.8151
16887	16.894	2.7273	0.	1580.3
16888	16.802	2.6364	0.	1602.3
16889	16.802	2.7273	5.e-002	7.7824
16890	17.079	2.7273	0.	1536.5
16891	16.986	2.6364	0.	1558.3
16892	16.986	2.7273	5.e-002	7.7502
16893	17.263	2.7273	0.	1492.9
16894	17.171	2.6364	0.	1514.6
16895	17.171	2.7273	5.e-002	7.7185
16896	17.448	2.7273	0.	1449.5
16897	17.356	2.6364	0.	1471.2
16898	17.356	2.7273	5.e-002	7.6872
16899	17.632	2.7273	0.	1406.4
16900	17.54	2.6364	0.	1427.9
16901	17.54	2.7273	5.e-002	7.6564
16902	17.817	2.7273	0.	1363.5
16903	17.725	2.6364	0.	1384.9
16904	17.725	2.7273	5.e-002	7.6262
16905	18.002	2.7273	0.	1320.9
16906	17.909	2.6364	0.	1342.1
16907	17.909	2.7273	5.e-002	7.5965
16908	18.186	2.7273	0.	1278.5
16909	18.094	2.6364	0.	1299.6
16910	18.094	2.7273	5.e-002	7.5674
16911	18.371	2.7273	0.	1236.4
16912	18.278	2.6364	0.	1257.4
16913	18.278	2.7273	5.e-002	7.539
16914	18.555	2.7273	0.	1194.5
16915	18.463	2.6364	0.	1215.4
16916	18.463	2.7273	5.e-002	7.5112
16917	18.74	2.7273	0.	1152.9
16918	18.648	2.6364	0.	1173.6
16919	18.648	2.7273	5.e-002	7.4842
16920	18.924	2.7273	0.	1111.6
16921	18.832	2.6364	0.	1132.2
16922	18.832	2.7273	5.e-002	7.4581
16923	19.109	2.7273	0.	1070.6
16924	19.017	2.6364	0.	1091.
16925	19.017	2.7273	5.e-002	7.4328
16926	19.294	2.7273	0.	1029.9
16927	19.201	2.6364	0.	1050.1
16928	19.201	2.7273	5.e-002	7.4085
16929	19.478	2.7273	0.	989.46
16930	19.386	2.6364	0.	1009.5
16931	19.386	2.7273	5.e-002	7.3852
16932	19.663	2.7273	0.	949.35
16933	19.57	2.6364	0.	969.2
16934	19.57	2.7273	5.e-002	7.3631
16935	19.847	2.7273	0.	909.57
16936	19.755	2.6364	0.	929.24
16937	19.755	2.7273	5.e-002	7.3423
16938	20.032	2.7273	0.	870.12
16939	19.94	2.6364	0.	889.6
16940	19.94	2.7273	5.e-002	7.3229
16941	20.216	2.7273	0.	831.03
16942	20.124	2.6364	0.	850.3
16943	20.124	2.7273	5.e-002	7.3052
16944	20.401	2.7273	0.	792.3
16945	20.309	2.6364	0.	811.36
16946	20.309	2.7273	5.e-002	7.2892
16947	20.585	2.7273	0.	753.95
16948	20.493	2.6364	0.	772.79
16949	20.493	2.7273	5.e-002	7.2752
16950	20.77	2.7273	0.	716.
16951	20.678	2.6364	0.	734.61
16952	20.678	2.7273	5.e-002	7.2635
16953	20.955	2.7273	0.	678.47
16954	20.862	2.6364	0.	696.83
16955	20.862	2.7273	5.e-002	7.2543
16956	21.139	2.7273	0.	641.38
16957	21.047	2.6364	0.	659.48
16958	21.047	2.7273	5.e-002	7.248
16959	21.324	2.7273	0.	604.76
16960	21.231	2.6364	0.	622.58
16961	21.231	2.7273	5.e-002	7.2449
16962	21.508	2.7273	0.	568.63
16963	21.416	2.6364	0.	586.16
16964	21.416	2.7273	5.e-002	7.2454
16965	21.693	2.7273	0.	533.03
16966	21.601	2.6364	0.	550.25
16967	21.601	2.7273	5.e-002	7.2499
16968	21.877	2.7273	0.	498.
16969	21.785	2.6364	0.	514.89
16970	21.785	2.7273	5.e-002	7.259
16971	22.062	2.7273	0.	463.59
16972	21.97	2.6364	0.	480.12
16973	21.97	2.7273	5.e-002	7.2733
16974	22.247	2.7273	0.	429.87
16975	22.154	2.6364	0.	446.01
16976	22.154	2.7273	5.e-002	7.2932
16977	22.431	2.7273	0.	396.94
16978	22.339	2.6364	0.	412.63
16979	22.339	2.7273	5.e-002	7.3193
16980	22.616	2.7273	0.	364.9
16981	22.523	2.6364	0.	380.08
16982	22.523	2.7273	5.e-002	7.3522
16983	22.8	2.7273	0.	333.94
16984	22.708	2.6364	0.	348.52
16985	22.708	2.7273	5.e-002	7.3923
16986	22.985	2.7273	0.	304.28
16987	22.893	2.6364	0.	318.13
16988	22.893	2.7273	5.e-002	7.4401
16989	23.169	2.7273	0.	276.25
16990	23.077	2.6364	0.	289.2
16991	23.077	2.7273	5.e-002	7.4957
16992	23.354	2.7273	0.	250.35
16993	23.262	2.6364	0.	262.14
16994	23.262	2.7273	5.e-002	7.5592
16995	23.539	2.7273	0.	227.24
16996	23.446	2.6364	0.	237.49
16997	23.446	2.7273	5.e-002	7.63
16998	23.723	2.7273	0.	207.81
16999	23.631	2.6364	0.	216.07
17000	23.631	2.7273	5.e-002	7.7082
17001	23.815	2.6364	0.	198.89
17002	23.815	2.7273	5.e-002	7.8038
17003	23.908	2.7273	0.	193.95
17004	4.3435	2.5455	0.	11419
17005	4.2512	2.4545	0.	12690
17006	4.2512	2.5455	5.e-002	204.11
17007	4.5281	2.5455	0.	9869.1
17008	4.4358	2.4545	0.	10605
17009	4.4358	2.5455	5.e-002	214.17
17010	4.7127	2.5455	0.	8547.7
17011	4.6204	2.4545	0.	8992.3
17012	4.6204	2.5455	5.e-002	176.42
17013	4.8972	2.5455	0.	7531.9
17014	4.8049	2.4545	0.	7821.4
17015	4.8049	2.5455	5.e-002	141.21
17016	5.0818	2.5455	0.	6765.1
17017	4.9895	2.4545	0.	6969.8
17018	4.9895	2.5455	5.e-002	112.59
17019	5.2664	2.5455	0.	6183.
17020	5.1741	2.4545	0.	6336.6
17021	5.1741	2.5455	5.e-002	90.791
17022	5.4509	2.5455	0.	5735.9
17023	5.3586	2.4545	0.	5856.5
17024	5.3586	2.5455	5.e-002	74.038
17025	5.6355	2.5455	0.	5387.9
17026	5.5432	2.4545	0.	5485.9
17027	5.5432	2.5455	5.e-002	60.946
17028	5.8201	2.5455	0.	5113.6
17029	5.7278	2.4545	0.	5195.2
17030	5.7278	2.5455	5.e-002	50.608
17031	6.0046	2.5455	0.	4894.5
17032	5.9123	2.4545	0.	4963.9
17033	5.9123	2.5455	5.e-002	42.402
17034	6.1892	2.5455	0.	4716.8
17035	6.0969	2.4545	0.	4776.9
17036	6.0969	2.5455	5.e-002	35.868
17037	6.3738	2.5455	0.	4570.7
17038	6.2815	2.4545	0.	4623.5
17039	6.2815	2.5455	5.e-002	30.656
17040	6.5583	2.5455	0.	4448.5
17041	6.466	2.4545	0.	4495.5
17042	6.466	2.5455	5.e-002	26.493
17043	6.7429	2.5455	0.	4344.5
17044	6.6506	2.4545	0.	4387.
17045	6.6506	2.5455	5.e-002	23.165
17046	6.9275	2.5455	0.	4254.4
17047	6.8352	2.4545	0.	4293.3
17048	6.8352	2.5455	5.e-002	20.501
17049	7.112	2.5455	0.	4174.8
17050	7.0198	2.4545	0.	4210.9
17051	7.0198	2.5455	5.e-002	18.367
17052	7.2966	2.5455	0.	4103.3
17053	7.2043	2.4545	0.	4137.1
17054	7.2043	2.5455	5.e-002	16.656
17055	7.4812	2.5455	0.	4037.8
17056	7.3889	2.4545	0.	4069.8
17057	7.3889	2.5455	5.e-002	15.282
17058	7.6657	2.5455	0.	3976.9
17059	7.5735	2.4545	0.	4007.5
17060	7.5735	2.5455	5.e-002	14.176
17061	7.8503	2.5455	0.	3919.5
17062	7.758	2.4545	0.	3948.9
17063	7.758	2.5455	5.e-002	13.284
17064	8.0349	2.5455	0.	3864.5
17065	7.9426	2.4545	0.	3893.
17066	7.9426	2.5455	5.e-002	12.562
17067	8.2194	2.5455	0.	3811.5
17068	8.1272	2.4545	0.	3839.3
17069	8.1272	2.5455	5.e-002	11.976
17070	8.404	2.5455	0.	3759.9
17071	8.3117	2.4545	0.	3787.1
17072	8.3117	2.5455	5.e-002	11.498
17073	8.5886	2.5455	0.	3709.2
17074	8.4963	2.4545	0.	3736.
17075	8.4963	2.5455	5.e-002	11.105
17076	8.7731	2.5455	0.	3659.3
17077	8.6809	2.4545	0.	3685.7
17078	8.6809	2.5455	5.e-002	10.781
17079	8.9577	2.5455	0.	3609.8
17080	8.8654	2.4545	0.	3636.
17081	8.8654	2.5455	5.e-002	10.511
17082	9.1423	2.5455	0.	3560.7
17083	9.05	2.4545	0.	3586.7
17084	9.05	2.5455	5.e-002	10.284
17085	9.3269	2.5455	0.	3511.9
17086	9.2346	2.4545	0.	3537.6
17087	9.2346	2.5455	5.e-002	10.092
17088	9.5114	2.5455	0.	3463.2
17089	9.4191	2.4545	0.	3488.7
17090	9.4191	2.5455	5.e-002	9.9275
17091	9.696	2.5455	0.	3414.5
17092	9.6037	2.4545	0.	3440.
17093	9.6037	2.5455	5.e-002	9.7852
17094	9.8806	2.5455	0.	3366.
17095	9.7883	2.4545	0.	3391.3
17096	9.7883	2.5455	5.e-002	9.6608
17097	10.065	2.5455	0.	3317.4
17098	9.9728	2.4545	0.	3342.7
17099	9.9728	2.5455	5.e-002	9.5508
17100	10.25	2.5455	0.	3268.9
17101	10.157	2.4545	0.	3294.1
17102	10.157	2.5455	5.e-002	9.4525
17103	10.434	2.5455	0.	3220.4
17104	10.342	2.4545	0.	3245.5
17105	10.342	2.5455	5.e-002	9.3638
17106	10.619	2.5455	0.	3171.9
17107	10.527	2.4545	0.	3196.9
17108	10.527	2.5455	5.e-002	9.2828
17109	10.803	2.5455	0.	3123.4
17110	10.711	2.4545	0.	3148.3
17111	10.711	2.5455	5.e-002	9.2083
17112	10.988	2.5455	0.	3074.9
17113	10.896	2.4545	0.	3099.8
17114	10.896	2.5455	5.e-002	9.1392
17115	11.173	2.5455	0.	3026.4
17116	11.08	2.4545	0.	3051.3
17117	11.08	2.5455	5.e-002	9.0744
17118	11.357	2.5455	0.	2978.
17119	11.265	2.4545	0.	3002.8
17120	11.265	2.5455	5.e-002	9.0134
17121	11.542	2.5455	0.	2929.6
17122	11.449	2.4545	0.	2954.3
17123	11.449	2.5455	5.e-002	8.9556
17124	11.726	2.5455	0.	2881.3
17125	11.634	2.4545	0.	2906.
17126	11.634	2.5455	5.e-002	8.9004
17127	11.911	2.5455	0.	2833.1
17128	11.819	2.4545	0.	2857.6
17129	11.819	2.5455	5.e-002	8.8474
17130	12.095	2.5455	0.	2784.9
17131	12.003	2.4545	0.	2809.4
17132	12.003	2.5455	5.e-002	8.7965
17133	12.28	2.5455	0.	2736.8
17134	12.188	2.4545	0.	2761.2
17135	12.188	2.5455	5.e-002	8.7473
17136	12.465	2.5455	0.	2688.7
17137	12.372	2.4545	0.	2713.1
17138	12.372	2.5455	5.e-002	8.6996
17139	12.649	2.5455	0.	2640.8
17140	12.557	2.4545	0.	2665.1
17141	12.557	2.5455	5.e-002	8.6533
17142	12.834	2.5455	0.	2593.
17143	12.741	2.4545	0.	2617.2
17144	12.741	2.5455	5.e-002	8.608
17145	13.018	2.5455	0.	2545.3
17146	12.926	2.4545	0.	2569.4
17147	12.926	2.5455	5.e-002	8.5639
17148	13.203	2.5455	0.	2497.8
17149	13.11	2.4545	0.	2521.8
17150	13.11	2.5455	5.e-002	8.5208
17151	13.387	2.5455	0.	2450.3
17152	13.295	2.4545	0.	2474.3
17153	13.295	2.5455	5.e-002	8.4785
17154	13.572	2.5455	0.	2403.
17155	13.48	2.4545	0.	2426.9
17156	13.48	2.5455	5.e-002	8.437
17157	13.756	2.5455	0.	2355.8
17158	13.664	2.4545	0.	2379.6
17159	13.664	2.5455	5.e-002	8.3962
17160	13.941	2.5455	0.	2308.8
17161	13.849	2.4545	0.	2332.5
17162	13.849	2.5455	5.e-002	8.3562
17163	14.126	2.5455	0.	2262.
17164	14.033	2.4545	0.	2285.6
17165	14.033	2.5455	5.e-002	8.3167
17166	14.31	2.5455	0.	2215.2
17167	14.218	2.4545	0.	2238.8
17168	14.218	2.5455	5.e-002	8.2778
17169	14.495	2.5455	0.	2168.7
17170	14.402	2.4545	0.	2192.1
17171	14.402	2.5455	5.e-002	8.2395
17172	14.679	2.5455	0.	2122.3
17173	14.587	2.4545	0.	2145.7
17174	14.587	2.5455	5.e-002	8.2017
17175	14.864	2.5455	0.	2076.1
17176	14.772	2.4545	0.	2099.4
17177	14.772	2.5455	5.e-002	8.1643
17178	15.048	2.5455	0.	2030.1
17179	14.956	2.4545	0.	2053.2
17180	14.956	2.5455	5.e-002	8.1275
17181	15.233	2.5455	0.	1984.2
17182	15.141	2.4545	0.	2007.3
17183	15.141	2.5455	5.e-002	8.0911
17184	15.418	2.5455	0.	1938.6
17185	15.325	2.4545	0.	1961.5
17186	15.325	2.5455	5.e-002	8.0551
17187	15.602	2.5455	0.	1893.1
17188	15.51	2.4545	0.	1915.9
17189	15.51	2.5455	5.e-002	8.0195
17190	15.787	2.5455	0.	1847.8
17191	15.694	2.4545	0.	1870.6
17192	15.694	2.5455	5.e-002	7.9843
17193	15.971	2.5455	0.	1802.7
17194	15.879	2.4545	0.	1825.4
17195	15.879	2.5455	5.e-002	7.9496
17196	16.156	2.5455	0.	1757.9
17197	16.064	2.4545	0.	1780.4
17198	16.064	2.5455	5.e-002	7.9153
17199	16.34	2.5455	0.	1713.2
17200	16.248	2.4545	0.	1735.6
17201	16.248	2.5455	5.e-002	7.8814
17202	16.525	2.5455	0.	1668.7
17203	16.433	2.4545	0.	1691.
17204	16.433	2.5455	5.e-002	7.8479
17205	16.71	2.5455	0.	1624.5
17206	16.617	2.4545	0.	1646.6
17207	16.617	2.5455	5.e-002	7.8148
17208	16.894	2.5455	0.	1580.4
17209	16.802	2.4545	0.	1602.5
17210	16.802	2.5455	5.e-002	7.7821
17211	17.079	2.5455	0.	1536.6
17212	16.986	2.4545	0.	1558.5
17213	16.986	2.5455	5.e-002	7.7499
17214	17.263	2.5455	0.	1493.
17215	17.171	2.4545	0.	1514.8
17216	17.171	2.5455	5.e-002	7.7182
17217	17.448	2.5455	0.	1449.6
17218	17.356	2.4545	0.	1471.3
17219	17.356	2.5455	5.e-002	7.6869
17220	17.632	2.5455	0.	1406.5
17221	17.54	2.4545	0.	1428.
17222	17.54	2.5455	5.e-002	7.6561
17223	17.817	2.5455	0.	1363.6
17224	17.725	2.4545	0.	1385.
17225	17.725	2.5455	5.e-002	7.6258
17226	18.002	2.5455	0.	1320.9
17227	17.909	2.4545	0.	1342.2
17228	17.909	2.5455	5.e-002	7.5961
17229	18.186	2.5455	0.	1278.5
17230	18.094	2.4545	0.	1299.7
17231	18.094	2.5455	5.e-002	7.567
17232	18.371	2.5455	0.	1236.4
17233	18.278	2.4545	0.	1257.4
17234	18.278	2.5455	5.e-002	7.5386
17235	18.555	2.5455	0.	1194.5
17236	18.463	2.4545	0.	1215.4
17237	18.463	2.5455	5.e-002	7.5108
17238	18.74	2.5455	0.	1152.9
17239	18.648	2.4545	0.	1173.6
17240	18.648	2.5455	5.e-002	7.4838
17241	18.924	2.5455	0.	1111.6
17242	18.832	2.4545	0.	1132.1
17243	18.832	2.5455	5.e-002	7.4576
17244	19.109	2.5455	0.	1070.5
17245	19.017	2.4545	0.	1090.9
17246	19.017	2.5455	5.e-002	7.4323
17247	19.294	2.5455	0.	1029.8
17248	19.201	2.4545	0.	1050.
17249	19.201	2.5455	5.e-002	7.4079
17250	19.478	2.5455	0.	989.29
17251	19.386	2.4545	0.	1009.3
17252	19.386	2.5455	5.e-002	7.3846
17253	19.663	2.5455	0.	949.14
17254	19.57	2.4545	0.	968.98
17255	19.57	2.5455	5.e-002	7.3624
17256	19.847	2.5455	0.	909.32
17257	19.755	2.4545	0.	928.96
17258	19.755	2.5455	5.e-002	7.3415
17259	20.032	2.5455	0.	869.83
17260	19.94	2.4545	0.	889.27
17261	19.94	2.5455	5.e-002	7.322
17262	20.216	2.5455	0.	830.68
17263	20.124	2.4545	0.	849.91
17264	20.124	2.5455	5.e-002	7.3042
17265	20.401	2.5455	0.	791.9
17266	20.309	2.4545	0.	810.9
17267	20.309	2.5455	5.e-002	7.288
17268	20.585	2.5455	0.	753.49
17269	20.493	2.4545	0.	772.26
17270	20.493	2.5455	5.e-002	7.2739
17271	20.77	2.5455	0.	715.48
17272	20.678	2.4545	0.	734.
17273	20.678	2.5455	5.e-002	7.262
17274	20.955	2.5455	0.	677.88
17275	20.862	2.4545	0.	696.14
17276	20.862	2.5455	5.e-002	7.2525
17277	21.139	2.5455	0.	640.71
17278	21.047	2.4545	0.	658.7
17279	21.047	2.5455	5.e-002	7.2459
17280	21.324	2.5455	0.	604.01
17281	21.231	2.4545	0.	621.7
17282	21.231	2.5455	5.e-002	7.2424
17283	21.508	2.5455	0.	567.8
17284	21.416	2.4545	0.	585.18
17285	21.416	2.5455	5.e-002	7.2425
17286	21.693	2.5455	0.	532.11
17287	21.601	2.4545	0.	549.16
17288	21.601	2.5455	5.e-002	7.2467
17289	21.877	2.5455	0.	496.99
17290	21.785	2.4545	0.	513.69
17291	21.785	2.5455	5.e-002	7.2553
17292	22.062	2.5455	0.	462.5
17293	21.97	2.4545	0.	478.81
17294	21.97	2.5455	5.e-002	7.269
17295	22.247	2.5455	0.	428.69
17296	22.154	2.4545	0.	444.59
17297	22.154	2.5455	5.e-002	7.2884
17298	22.431	2.5455	0.	395.67
17299	22.339	2.4545	0.	411.1
17300	22.339	2.5455	5.e-002	7.3141
17301	22.616	2.5455	0.	363.55
17302	22.523	2.4545	0.	378.44
17303	22.523	2.5455	5.e-002	7.3466
17304	22.8	2.5455	0.	332.5
17305	22.708	2.4545	0.	346.77
17306	22.708	2.5455	5.e-002	7.3865
17307	22.985	2.5455	0.	302.76
17308	22.893	2.4545	0.	316.28
17309	22.893	2.5455	5.e-002	7.4343
17310	23.169	2.5455	0.	274.65
17311	23.077	2.4545	0.	287.24
17312	23.077	2.5455	5.e-002	7.4901
17313	23.354	2.5455	0.	248.67
17314	23.262	2.4545	0.	260.07
17315	23.262	2.5455	5.e-002	7.5543
17316	23.539	2.5455	0.	225.48
17317	23.446	2.4545	0.	235.33
17318	23.446	2.5455	5.e-002	7.6263
17319	23.723	2.5455	0.	206.
17320	23.631	2.4545	0.	213.83
17321	23.631	2.5455	5.e-002	7.7062
17322	23.815	2.4545	0.	196.6
17323	23.815	2.5455	5.e-002	7.8096
17324	23.908	2.5455	0.	192.08
17325	4.3435	2.3636	0.	11905
17326	4.2512	2.2727	0.	13511
17327	4.2512	2.3636	5.e-002	358.43
17328	4.5281	2.3636	0.	9755.
17329	4.4358	2.2727	0.	10457
17330	4.4358	2.3636	5.e-002	280.41
17331	4.7127	2.3636	0.	8278.2
17332	4.6204	2.2727	0.	8630.5
17333	4.6204	2.3636	5.e-002	202.13
17334	4.8972	2.3636	0.	7263.8
17335	4.8049	2.2727	0.	7481.
17336	4.8049	2.3636	5.e-002	142.04
17337	5.0818	2.3636	0.	6542.9
17338	4.9895	2.2727	0.	6688.8
17339	4.9895	2.3636	5.e-002	107.83
17340	5.2664	2.3636	0.	6010.6
17341	5.1741	2.2727	0.	6118.6
17342	5.1741	2.3636	5.e-002	85.311
17343	5.4509	2.3636	0.	5606.6
17344	5.3586	2.2727	0.	5692.1
17345	5.3586	2.3636	5.e-002	69.167
17346	5.6355	2.3636	0.	5293.2
17347	5.5432	2.2727	0.	5364.3
17348	5.5432	2.3636	5.e-002	56.979
17349	5.8201	2.3636	0.	5045.4
17350	5.7278	2.2727	0.	5106.8
17351	5.7278	2.3636	5.e-002	47.5
17352	6.0046	2.3636	0.	4846.3
17353	5.9123	2.2727	0.	4900.6
17354	5.9123	2.3636	5.e-002	40.002
17355	6.1892	2.3636	0.	4683.5
17356	6.0969	2.2727	0.	4732.5
17357	6.0969	2.3636	5.e-002	34.022
17358	6.3738	2.3636	0.	4548.3
17359	6.2815	2.2727	0.	4593.1
17360	6.2815	2.3636	5.e-002	29.232
17361	6.5583	2.3636	0.	4434.1
17362	6.466	2.2727	0.	4475.5
17363	6.466	2.3636	5.e-002	25.386
17364	6.7429	2.3636	0.	4335.8
17365	6.6506	2.2727	0.	4374.5
17366	6.6506	2.3636	5.e-002	22.296
17367	6.9275	2.3636	0.	4249.8
17368	6.8352	2.2727	0.	4286.2
17369	6.8352	2.3636	5.e-002	19.813
17370	7.112	2.3636	0.	4173.2
17371	7.0198	2.2727	0.	4207.6
17372	7.0198	2.3636	5.e-002	17.817
17373	7.2966	2.3636	0.	4103.6
17374	7.2043	2.2727	0.	4136.5
17375	7.2043	2.3636	5.e-002	16.213
17376	7.4812	2.3636	0.	4039.5
17377	7.3889	2.2727	0.	4071.
17378	7.3889	2.3636	5.e-002	14.923
17379	7.6657	2.3636	0.	3979.4
17380	7.5735	2.2727	0.	4009.9
17381	7.5735	2.3636	5.e-002	13.885
17382	7.8503	2.3636	0.	3922.5
17383	7.758	2.2727	0.	3952.
17384	7.758	2.3636	5.e-002	13.047
17385	8.0349	2.3636	0.	3867.8
17386	7.9426	2.2727	0.	3896.7
17387	7.9426	2.3636	5.e-002	12.37
17388	8.2194	2.3636	0.	3814.9
17389	8.1272	2.2727	0.	3843.1
17390	8.1272	2.3636	5.e-002	11.82
17391	8.404	2.3636	0.	3763.2
17392	8.3117	2.2727	0.	3790.9
17393	8.3117	2.3636	5.e-002	11.371
17394	8.5886	2.3636	0.	3712.5
17395	8.4963	2.2727	0.	3739.8
17396	8.4963	2.3636	5.e-002	11.002
17397	8.7731	2.3636	0.	3662.4
17398	8.6809	2.2727	0.	3689.4
17399	8.6809	2.3636	5.e-002	10.698
17400	8.9577	2.3636	0.	3612.8
17401	8.8654	2.2727	0.	3639.5
17402	8.8654	2.3636	5.e-002	10.444
17403	9.1423	2.3636	0.	3563.5
17404	9.05	2.2727	0.	3590.
17405	9.05	2.3636	5.e-002	10.23
17406	9.3269	2.3636	0.	3514.5
17407	9.2346	2.2727	0.	3540.7
17408	9.2346	2.3636	5.e-002	10.048
17409	9.5114	2.3636	0.	3465.6
17410	9.4191	2.2727	0.	3491.6
17411	9.4191	2.3636	5.e-002	9.8923
17412	9.696	2.3636	0.	3416.8
17413	9.6037	2.2727	0.	3442.7
17414	9.6037	2.3636	5.e-002	9.7568
17415	9.8806	2.3636	0.	3368.
17416	9.7883	2.2727	0.	3393.8
17417	9.7883	2.3636	5.e-002	9.6379
17418	10.065	2.3636	0.	3319.3
17419	9.9728	2.2727	0.	3345.
17420	9.9728	2.3636	5.e-002	9.5323
17421	10.25	2.3636	0.	3270.7
17422	10.157	2.2727	0.	3296.2
17423	10.157	2.3636	5.e-002	9.4376
17424	10.434	2.3636	0.	3222.
17425	10.342	2.2727	0.	3247.4
17426	10.342	2.3636	5.e-002	9.3517
17427	10.619	2.3636	0.	3173.4
17428	10.527	2.2727	0.	3198.7
17429	10.527	2.3636	5.e-002	9.2729
17430	10.803	2.3636	0.	3124.8
17431	10.711	2.2727	0.	3150.
17432	10.711	2.3636	5.e-002	9.2002
17433	10.988	2.3636	0.	3076.2
17434	10.896	2.2727	0.	3101.4
17435	10.896	2.3636	5.e-002	9.1325
17436	11.173	2.3636	0.	3027.6
17437	11.08	2.2727	0.	3052.7
17438	11.08	2.3636	5.e-002	9.0689
17439	11.357	2.3636	0.	2979.1
17440	11.265	2.2727	0.	3004.1
17441	11.265	2.3636	5.e-002	9.0088
17442	11.542	2.3636	0.	2930.7
17443	11.449	2.2727	0.	2955.6
17444	11.449	2.3636	5.e-002	8.9517
17445	11.726	2.3636	0.	2882.3
17446	11.634	2.2727	0.	2907.1
17447	11.634	2.3636	5.e-002	8.8971
17448	11.911	2.3636	0.	2834.
17449	11.819	2.2727	0.	2858.7
17450	11.819	2.3636	5.e-002	8.8446
17451	12.095	2.3636	0.	2785.7
17452	12.003	2.2727	0.	2810.4
17453	12.003	2.3636	5.e-002	8.794
17454	12.28	2.3636	0.	2737.6
17455	12.188	2.2727	0.	2762.1
17456	12.188	2.3636	5.e-002	8.7451
17457	12.465	2.3636	0.	2689.5
17458	12.372	2.2727	0.	2714.
17459	12.372	2.3636	5.e-002	8.6977
17460	12.649	2.3636	0.	2641.5
17461	12.557	2.2727	0.	2666.
17462	12.557	2.3636	5.e-002	8.6516
17463	12.834	2.3636	0.	2593.7
17464	12.741	2.2727	0.	2618.
17465	12.741	2.3636	5.e-002	8.6066
17466	13.018	2.3636	0.	2546.
17467	12.926	2.2727	0.	2570.2
17468	12.926	2.3636	5.e-002	8.5626
17469	13.203	2.3636	0.	2498.3
17470	13.11	2.2727	0.	2522.5
17471	13.11	2.3636	5.e-002	8.5196
17472	13.387	2.3636	0.	2450.9
17473	13.295	2.2727	0.	2474.9
17474	13.295	2.3636	5.e-002	8.4774
17475	13.572	2.3636	0.	2403.5
17476	13.48	2.2727	0.	2427.5
17477	13.48	2.3636	5.e-002	8.436
17478	13.756	2.3636	0.	2356.3
17479	13.664	2.2727	0.	2380.2
17480	13.664	2.3636	5.e-002	8.3953
17481	13.941	2.3636	0.	2309.3
17482	13.849	2.2727	0.	2333.1
17483	13.849	2.3636	5.e-002	8.3553
17484	14.126	2.3636	0.	2262.4
17485	14.033	2.2727	0.	2286.1
17486	14.033	2.3636	5.e-002	8.3159
17487	14.31	2.3636	0.	2215.7
17488	14.218	2.2727	0.	2239.3
17489	14.218	2.3636	5.e-002	8.2771
17490	14.495	2.3636	0.	2169.1
17491	14.402	2.2727	0.	2192.6
17492	14.402	2.3636	5.e-002	8.2389
17493	14.679	2.3636	0.	2122.7
17494	14.587	2.2727	0.	2146.1
17495	14.587	2.3636	5.e-002	8.2011
17496	14.864	2.3636	0.	2076.5
17497	14.772	2.2727	0.	2099.8
17498	14.772	2.3636	5.e-002	8.1637
17499	15.048	2.3636	0.	2030.5
17500	14.956	2.2727	0.	2053.7
17501	14.956	2.3636	5.e-002	8.1269
17502	15.233	2.3636	0.	1984.6
17503	15.141	2.2727	0.	2007.7
17504	15.141	2.3636	5.e-002	8.0905
17505	15.418	2.3636	0.	1938.9
17506	15.325	2.2727	0.	1961.9
17507	15.325	2.3636	5.e-002	8.0546
17508	15.602	2.3636	0.	1893.4
17509	15.51	2.2727	0.	1916.3
17510	15.51	2.3636	5.e-002	8.019
17511	15.787	2.3636	0.	1848.1
17512	15.694	2.2727	0.	1870.9
17513	15.694	2.3636	5.e-002	7.9838
17514	15.971	2.3636	0.	1803.
17515	15.879	2.2727	0.	1825.7
17516	15.879	2.3636	5.e-002	7.9492
17517	16.156	2.3636	0.	1758.1
17518	16.064	2.2727	0.	1780.7
17519	16.064	2.3636	5.e-002	7.9148
17520	16.34	2.3636	0.	1713.4
17521	16.248	2.2727	0.	1735.9
17522	16.248	2.3636	5.e-002	7.8809
17523	16.525	2.3636	0.	1669.
17524	16.433	2.2727	0.	1691.3
17525	16.433	2.3636	5.e-002	7.8475
17526	16.71	2.3636	0.	1624.7
17527	16.617	2.2727	0.	1646.9
17528	16.617	2.3636	5.e-002	7.8144
17529	16.894	2.3636	0.	1580.6
17530	16.802	2.2727	0.	1602.7
17531	16.802	2.3636	5.e-002	7.7817
17532	17.079	2.3636	0.	1536.8
17533	16.986	2.2727	0.	1558.8
17534	16.986	2.3636	5.e-002	7.7495
17535	17.263	2.3636	0.	1493.2
17536	17.171	2.2727	0.	1515.
17537	17.171	2.3636	5.e-002	7.7177
17538	17.448	2.3636	0.	1449.8
17539	17.356	2.2727	0.	1471.5
17540	17.356	2.3636	5.e-002	7.6864
17541	17.632	2.3636	0.	1406.6
17542	17.54	2.2727	0.	1428.2
17543	17.54	2.3636	5.e-002	7.6556
17544	17.817	2.3636	0.	1363.7
17545	17.725	2.2727	0.	1385.2
17546	17.725	2.3636	5.e-002	7.6253
17547	18.002	2.3636	0.	1321.
17548	17.909	2.2727	0.	1342.4
17549	17.909	2.3636	5.e-002	7.5956
17550	18.186	2.3636	0.	1278.6
17551	18.094	2.2727	0.	1299.8
17552	18.094	2.3636	5.e-002	7.5665
17553	18.371	2.3636	0.	1236.4
17554	18.278	2.2727	0.	1257.5
17555	18.278	2.3636	5.e-002	7.538
17556	18.555	2.3636	0.	1194.5
17557	18.463	2.2727	0.	1215.4
17558	18.463	2.3636	5.e-002	7.5102
17559	18.74	2.3636	0.	1152.9
17560	18.648	2.2727	0.	1173.6
17561	18.648	2.3636	5.e-002	7.4831
17562	18.924	2.3636	0.	1111.5
17563	18.832	2.2727	0.	1132.
17564	18.832	2.3636	5.e-002	7.4569
17565	19.109	2.3636	0.	1070.4
17566	19.017	2.2727	0.	1090.8
17567	19.017	2.3636	5.e-002	7.4315
17568	19.294	2.3636	0.	1029.6
17569	19.201	2.2727	0.	1049.8
17570	19.201	2.3636	5.e-002	7.407
17571	19.478	2.3636	0.	989.06
17572	19.386	2.2727	0.	1009.1
17573	19.386	2.3636	5.e-002	7.3836
17574	19.663	2.3636	0.	948.85
17575	19.57	2.2727	0.	968.68
17576	19.57	2.3636	5.e-002	7.3613
17577	19.847	2.3636	0.	908.96
17578	19.755	2.2727	0.	928.59
17579	19.755	2.3636	5.e-002	7.3403
17580	20.032	2.3636	0.	869.4
17581	19.94	2.2727	0.	888.82
17582	19.94	2.3636	5.e-002	7.3207
17583	20.216	2.3636	0.	830.17
17584	20.124	2.2727	0.	849.37
17585	20.124	2.3636	5.e-002	7.3026
17586	20.401	2.3636	0.	791.31
17587	20.309	2.2727	0.	810.27
17588	20.309	2.3636	5.e-002	7.2863
17589	20.585	2.3636	0.	752.81
17590	20.493	2.2727	0.	771.53
17591	20.493	2.3636	5.e-002	7.2719
17592	20.77	2.3636	0.	714.7
17593	20.678	2.2727	0.	733.16
17594	20.678	2.3636	5.e-002	7.2596
17595	20.955	2.3636	0.	676.99
17596	20.862	2.2727	0.	695.18
17597	20.862	2.3636	5.e-002	7.2498
17598	21.139	2.3636	0.	639.72
17599	21.047	2.2727	0.	657.62
17600	21.047	2.3636	5.e-002	7.2428
17601	21.324	2.3636	0.	602.9
17602	21.231	2.2727	0.	620.49
17603	21.231	2.3636	5.e-002	7.2388
17604	21.508	2.3636	0.	566.56
17605	21.416	2.2727	0.	583.83
17606	21.416	2.3636	5.e-002	7.2383
17607	21.693	2.3636	0.	530.75
17608	21.601	2.2727	0.	547.67
17609	21.601	2.3636	5.e-002	7.2418
17610	21.877	2.3636	0.	495.5
17611	21.785	2.2727	0.	512.04
17612	21.785	2.3636	5.e-002	7.2498
17613	22.062	2.3636	0.	460.87
17614	21.97	2.2727	0.	477.
17615	21.97	2.3636	5.e-002	7.2627
17616	22.247	2.3636	0.	426.93
17617	22.154	2.2727	0.	442.62
17618	22.154	2.3636	5.e-002	7.2814
17619	22.431	2.3636	0.	393.78
17620	22.339	2.2727	0.	408.97
17621	22.339	2.3636	5.e-002	7.3063
17622	22.616	2.3636	0.	361.52
17623	22.523	2.2727	0.	376.15
17624	22.523	2.3636	5.e-002	7.3382
17625	22.8	2.3636	0.	330.34
17626	22.708	2.2727	0.	344.32
17627	22.708	2.3636	5.e-002	7.3777
17628	22.985	2.3636	0.	300.47
17629	22.893	2.2727	0.	313.67
17630	22.893	2.3636	5.e-002	7.4254
17631	23.169	2.3636	0.	272.24
17632	23.077	2.2727	0.	284.49
17633	23.077	2.3636	5.e-002	7.4817
17634	23.354	2.3636	0.	246.13
17635	23.262	2.2727	0.	257.17
17636	23.262	2.3636	5.e-002	7.5468
17637	23.539	2.3636	0.	222.84
17638	23.446	2.2727	0.	232.29
17639	23.446	2.3636	5.e-002	7.6204
17640	23.723	2.3636	0.	203.26
17641	23.631	2.2727	0.	210.66
17642	23.631	2.3636	5.e-002	7.7031
17643	23.815	2.2727	0.	193.35
17644	23.815	2.3636	5.e-002	7.8183
17645	23.908	2.3636	0.	189.25
17646	4.3435	2.1818	0.	12139
17647	4.2512	2.0909	0.	13882
17648	4.2512	2.1818	5.e-002	817.43
17649	4.5281	2.1818	0.	9361.
17650	4.4358	2.0909	0.	9880.1
17651	4.4358	2.1818	5.e-002	382.33
17652	4.7127	2.1818	0.	7839.8
17653	4.6204	2.0909	0.	8081.6
17654	4.6204	2.1818	5.e-002	194.84
17655	4.8972	2.1818	0.	6906.5
17656	4.8049	2.0909	0.	7044.5
17657	4.8049	2.1818	5.e-002	133.5
17658	5.0818	2.1818	0.	6263.5
17659	4.9895	2.0909	0.	6350.5
17660	4.9895	2.1818	5.e-002	99.23
17661	5.2664	2.1818	0.	5799.1
17662	5.1741	2.0909	0.	5862.2
17663	5.1741	2.1818	5.e-002	77.937
17664	5.4509	2.1818	0.	5449.
17665	5.3586	2.0909	0.	5499.9
17666	5.3586	2.1818	5.e-002	63.177
17667	5.6355	2.1818	0.	5177.5
17668	5.5432	2.0909	0.	5222.1
17669	5.5432	2.1818	5.e-002	52.229
17670	5.8201	2.1818	0.	4961.8
17671	5.7278	2.0909	0.	5002.9
17672	5.7278	2.1818	5.e-002	43.773
17673	6.0046	2.1818	0.	4786.8
17674	5.9123	2.0909	0.	4825.9
17675	5.9123	2.1818	5.e-002	37.091
17676	6.1892	2.1818	0.	4642.1
17677	6.0969	2.0909	0.	4679.7
17678	6.0969	2.1818	5.e-002	31.745
17679	6.3738	2.1818	0.	4520.3
17680	6.2815	2.0909	0.	4556.7
17681	6.2815	2.1818	5.e-002	27.442
17682	6.5583	2.1818	0.	4415.9
17683	6.466	2.0909	0.	4451.3
17684	6.466	2.1818	5.e-002	23.97
17685	6.7429	2.1818	0.	4324.8
17686	6.6506	2.0909	0.	4359.2
17687	6.6506	2.1818	5.e-002	21.168
17688	6.9275	2.1818	0.	4244.
17689	6.8352	2.0909	0.	4277.4
17690	6.8352	2.1818	5.e-002	18.907
17691	7.112	2.1818	0.	4170.9
17692	7.0198	2.0909	0.	4203.4
17693	7.0198	2.1818	5.e-002	17.087
17694	7.2966	2.1818	0.	4103.9
17695	7.2043	2.0909	0.	4135.6
17696	7.2043	2.1818	5.e-002	15.621
17697	7.4812	2.1818	0.	4041.5
17698	7.3889	2.0909	0.	4072.4
17699	7.3889	2.1818	5.e-002	14.442
17700	7.6657	2.1818	0.	3982.5
17701	7.5735	2.0909	0.	4012.7
17702	7.5735	2.1818	5.e-002	13.493
17703	7.8503	2.1818	0.	3926.2
17704	7.758	2.0909	0.	3955.8
17705	7.758	2.1818	5.e-002	12.729
17706	8.0349	2.1818	0.	3872.
17707	7.9426	2.0909	0.	3901.
17708	7.9426	2.1818	5.e-002	12.111
17709	8.2194	2.1818	0.	3819.2
17710	8.1272	2.0909	0.	3847.8
17711	8.1272	2.1818	5.e-002	11.61
17712	8.404	2.1818	0.	3767.5
17713	8.3117	2.0909	0.	3795.7
17714	8.3117	2.1818	5.e-002	11.201
17715	8.5886	2.1818	0.	3716.7
17716	8.4963	2.0909	0.	3744.5
17717	8.4963	2.1818	5.e-002	10.865
17718	8.7731	2.1818	0.	3666.4
17719	8.6809	2.0909	0.	3693.9
17720	8.6809	2.1818	5.e-002	10.587
17721	8.9577	2.1818	0.	3616.6
17722	8.8654	2.0909	0.	3643.8
17723	8.8654	2.1818	5.e-002	10.355
17724	9.1423	2.1818	0.	3567.1
17725	9.05	2.0909	0.	3594.
17726	9.05	2.1818	5.e-002	10.158
17727	9.3269	2.1818	0.	3517.9
17728	9.2346	2.0909	0.	3544.5
17729	9.2346	2.1818	5.e-002	9.9908
17730	9.5114	2.1818	0.	3468.7
17731	9.4191	2.0909	0.	3495.2
17732	9.4191	2.1818	5.e-002	9.8461
17733	9.696	2.1818	0.	3419.7
17734	9.6037	2.0909	0.	3446.
17735	9.6037	2.1818	5.e-002	9.7197
17736	9.8806	2.1818	0.	3370.8
17737	9.7883	2.0909	0.	3396.9
17738	9.7883	2.1818	5.e-002	9.608
17739	10.065	2.1818	0.	3321.9
17740	9.9728	2.0909	0.	3347.9
17741	9.9728	2.1818	5.e-002	9.5082
17742	10.25	2.1818	0.	3273.
17743	10.157	2.0909	0.	3298.9
17744	10.157	2.1818	5.e-002	9.418
17745	10.434	2.1818	0.	3224.2
17746	10.342	2.0909	0.	3249.9
17747	10.342	2.1818	5.e-002	9.3358
17748	10.619	2.1818	0.	3175.4
17749	10.527	2.0909	0.	3201.
17750	10.527	2.1818	5.e-002	9.26
17751	10.803	2.1818	0.	3126.6
17752	10.711	2.0909	0.	3152.2
17753	10.711	2.1818	5.e-002	9.1896
17754	10.988	2.1818	0.	3077.9
17755	10.896	2.0909	0.	3103.3
17756	10.896	2.1818	5.e-002	9.1238
17757	11.173	2.1818	0.	3029.2
17758	11.08	2.0909	0.	3054.6
17759	11.08	2.1818	5.e-002	9.0616
17760	11.357	2.1818	0.	2980.6
17761	11.265	2.0909	0.	3005.8
17762	11.265	2.1818	5.e-002	9.0027
17763	11.542	2.1818	0.	2932.1
17764	11.449	2.0909	0.	2957.2
17765	11.449	2.1818	5.e-002	8.9466
17766	11.726	2.1818	0.	2883.6
17767	11.634	2.0909	0.	2908.6
17768	11.634	2.1818	5.e-002	8.8927
17769	11.911	2.1818	0.	2835.2
17770	11.819	2.0909	0.	2860.1
17771	11.819	2.1818	5.e-002	8.8408
17772	12.095	2.1818	0.	2786.8
17773	12.003	2.0909	0.	2811.7
17774	12.003	2.1818	5.e-002	8.7908
17775	12.28	2.1818	0.	2738.6
17776	12.188	2.0909	0.	2763.4
17777	12.188	2.1818	5.e-002	8.7423
17778	12.465	2.1818	0.	2690.5
17779	12.372	2.0909	0.	2715.1
17780	12.372	2.1818	5.e-002	8.6953
17781	12.649	2.1818	0.	2642.5
17782	12.557	2.0909	0.	2667.
17783	12.557	2.1818	5.e-002	8.6494
17784	12.834	2.1818	0.	2594.6
17785	12.741	2.0909	0.	2619.
17786	12.741	2.1818	5.e-002	8.6046
17787	13.018	2.1818	0.	2546.8
17788	12.926	2.0909	0.	2571.2
17789	12.926	2.1818	5.e-002	8.5608
17790	13.203	2.1818	0.	2499.1
17791	13.11	2.0909	0.	2523.4
17792	13.11	2.1818	5.e-002	8.518
17793	13.387	2.1818	0.	2451.6
17794	13.295	2.0909	0.	2475.8
17795	13.295	2.1818	5.e-002	8.476
17796	13.572	2.1818	0.	2404.3
17797	13.48	2.0909	0.	2428.3
17798	13.48	2.1818	5.e-002	8.4346
17799	13.756	2.1818	0.	2357.
17800	13.664	2.0909	0.	2381.
17801	13.664	2.1818	5.e-002	8.3941
17802	13.941	2.1818	0.	2310.
17803	13.849	2.0909	0.	2333.8
17804	13.849	2.1818	5.e-002	8.3542
17805	14.126	2.1818	0.	2263.
17806	14.033	2.0909	0.	2286.8
17807	14.033	2.1818	5.e-002	8.3149
17808	14.31	2.1818	0.	2216.3
17809	14.218	2.0909	0.	2240.
17810	14.218	2.1818	5.e-002	8.2761
17811	14.495	2.1818	0.	2169.7
17812	14.402	2.0909	0.	2193.3
17813	14.402	2.1818	5.e-002	8.2379
17814	14.679	2.1818	0.	2123.3
17815	14.587	2.0909	0.	2146.8
17816	14.587	2.1818	5.e-002	8.2002
17817	14.864	2.1818	0.	2077.
17818	14.772	2.0909	0.	2100.4
17819	14.772	2.1818	5.e-002	8.1629
17820	15.048	2.1818	0.	2031.
17821	14.956	2.0909	0.	2054.2
17822	14.956	2.1818	5.e-002	8.1261
17823	15.233	2.1818	0.	1985.1
17824	15.141	2.0909	0.	2008.3
17825	15.141	2.1818	5.e-002	8.0898
17826	15.418	2.1818	0.	1939.4
17827	15.325	2.0909	0.	1962.5
17828	15.325	2.1818	5.e-002	8.0538
17829	15.602	2.1818	0.	1893.9
17830	15.51	2.0909	0.	1916.8
17831	15.51	2.1818	5.e-002	8.0183
17832	15.787	2.1818	0.	1848.6
17833	15.694	2.0909	0.	1871.4
17834	15.694	2.1818	5.e-002	7.9832
17835	15.971	2.1818	0.	1803.4
17836	15.879	2.0909	0.	1826.2
17837	15.879	2.1818	5.e-002	7.9485
17838	16.156	2.1818	0.	1758.5
17839	16.064	2.0909	0.	1781.2
17840	16.064	2.1818	5.e-002	7.9142
17841	16.34	2.1818	0.	1713.8
17842	16.248	2.0909	0.	1736.3
17843	16.248	2.1818	5.e-002	7.8803
17844	16.525	2.1818	0.	1669.3
17845	16.433	2.0909	0.	1691.7
17846	16.433	2.1818	5.e-002	7.8469
17847	16.71	2.1818	0.	1625.
17848	16.617	2.0909	0.	1647.3
17849	16.617	2.1818	5.e-002	7.8138
17850	16.894	2.1818	0.	1580.9
17851	16.802	2.0909	0.	1603.1
17852	16.802	2.1818	5.e-002	7.7811
17853	17.079	2.1818	0.	1537.1
17854	16.986	2.0909	0.	1559.1
17855	16.986	2.1818	5.e-002	7.7488
17856	17.263	2.1818	0.	1493.4
17857	17.171	2.0909	0.	1515.3
17858	17.171	2.1818	5.e-002	7.7171
17859	17.448	2.1818	0.	1450.
17860	17.356	2.0909	0.	1471.8
17861	17.356	2.1818	5.e-002	7.6858
17862	17.632	2.1818	0.	1406.8
17863	17.54	2.0909	0.	1428.5
17864	17.54	2.1818	5.e-002	7.655
17865	17.817	2.1818	0.	1363.9
17866	17.725	2.0909	0.	1385.4
17867	17.725	2.1818	5.e-002	7.6247
17868	18.002	2.1818	0.	1321.2
17869	17.909	2.0909	0.	1342.5
17870	17.909	2.1818	5.e-002	7.5949
17871	18.186	2.1818	0.	1278.7
17872	18.094	2.0909	0.	1299.9
17873	18.094	2.1818	5.e-002	7.5658
17874	18.371	2.1818	0.	1236.5
17875	18.278	2.0909	0.	1257.5
17876	18.278	2.1818	5.e-002	7.5372
17877	18.555	2.1818	0.	1194.5
17878	18.463	2.0909	0.	1215.4
17879	18.463	2.1818	5.e-002	7.5093
17880	18.74	2.1818	0.	1152.8
17881	18.648	2.0909	0.	1173.6
17882	18.648	2.1818	5.e-002	7.4822
17883	18.924	2.1818	0.	1111.4
17884	18.832	2.0909	0.	1132.
17885	18.832	2.1818	5.e-002	7.4559
17886	19.109	2.1818	0.	1070.2
17887	19.017	2.0909	0.	1090.6
17888	19.017	2.1818	5.e-002	7.4304
17889	19.294	2.1818	0.	1029.3
17890	19.201	2.0909	0.	1049.6
17891	19.201	2.1818	5.e-002	7.4059
17892	19.478	2.1818	0.	988.76
17893	19.386	2.0909	0.	1008.8
17894	19.386	2.1818	5.e-002	7.3823
17895	19.663	2.1818	0.	948.48
17896	19.57	2.0909	0.	968.33
17897	19.57	2.1818	5.e-002	7.3599
17898	19.847	2.1818	0.	908.5
17899	19.755	2.0909	0.	928.14
17900	19.755	2.1818	5.e-002	7.3387
17901	20.032	2.1818	0.	868.85
17902	19.94	2.0909	0.	888.27
17903	19.94	2.1818	5.e-002	7.3189
17904	20.216	2.1818	0.	829.52
17905	20.124	2.0909	0.	848.72
17906	20.124	2.1818	5.e-002	7.3006
17907	20.401	2.1818	0.	790.55
17908	20.309	2.0909	0.	809.5
17909	20.309	2.1818	5.e-002	7.284
17910	20.585	2.1818	0.	751.93
17911	20.493	2.0909	0.	770.63
17912	20.493	2.1818	5.e-002	7.2692
17913	20.77	2.1818	0.	713.69
17914	20.678	2.0909	0.	732.13
17915	20.678	2.1818	5.e-002	7.2566
17916	20.955	2.1818	0.	675.85
17917	20.862	2.0909	0.	694.
17918	20.862	2.1818	5.e-002	7.2463
17919	21.139	2.1818	0.	638.43
17920	21.047	2.0909	0.	656.28
17921	21.047	2.1818	5.e-002	7.2387
17922	21.324	2.1818	0.	601.45
17923	21.231	2.0909	0.	618.98
17924	21.231	2.1818	5.e-002	7.2341
17925	21.508	2.1818	0.	564.95
17926	21.416	2.0909	0.	582.13
17927	21.416	2.1818	5.e-002	7.2328
17928	21.693	2.1818	0.	528.96
17929	21.601	2.0909	0.	545.78
17930	21.601	2.1818	5.e-002	7.2355
17931	21.877	2.1818	0.	493.54
17932	21.785	2.0909	0.	509.95
17933	21.785	2.1818	5.e-002	7.2425
17934	22.062	2.1818	0.	458.73
17935	21.97	2.0909	0.	474.71
17936	21.97	2.1818	5.e-002	7.2544
17937	22.247	2.1818	0.	424.6
17938	22.154	2.0909	0.	440.11
17939	22.154	2.1818	5.e-002	7.272
17940	22.431	2.1818	0.	391.26
17941	22.339	2.0909	0.	406.25
17942	22.339	2.1818	5.e-002	7.2959
17943	22.616	2.1818	0.	358.82
17944	22.523	2.0909	0.	373.22
17945	22.523	2.1818	5.e-002	7.3269
17946	22.8	2.1818	0.	327.46
17947	22.708	2.0909	0.	341.17
17948	22.708	2.1818	5.e-002	7.3658
17949	22.985	2.1818	0.	297.41
17950	22.893	2.0909	0.	310.32
17951	22.893	2.1818	5.e-002	7.4133
17952	23.169	2.1818	0.	269.
17953	23.077	2.0909	0.	280.93
17954	23.077	2.1818	5.e-002	7.47
17955	23.354	2.1818	0.	242.73
17956	23.262	2.0909	0.	253.41
17957	23.262	2.1818	5.e-002	7.5364
17958	23.539	2.1818	0.	219.27
17959	23.446	2.0909	0.	228.34
17960	23.446	2.1818	5.e-002	7.6121
17961	23.723	2.1818	0.	199.58
17962	23.631	2.0909	0.	206.54
17963	23.631	2.1818	5.e-002	7.6987
17964	23.815	2.0909	0.	189.14
17965	23.815	2.1818	5.e-002	7.8296
17966	23.908	2.1818	0.	185.44
17967	4.3435	2.	0.	11794
17968	4.2512	1.9091	0.	12838
17969	4.2512	2.	5.e-002	1569.2
17970	4.159	2.	0.	20764
17971	4.5281	2.	0.	8616.3
17972	4.4358	1.9091	0.	8930.3
17973	4.4358	2.	5.e-002	270.81
17974	4.7127	2.	0.	7285.1
17975	4.6204	1.9091	0.	7403.8
17976	4.6204	2.	5.e-002	174.96
17977	4.8972	2.	0.	6484.8
17978	4.8049	1.9091	0.	6541.4
17979	4.8049	2.	5.e-002	116.7
17980	5.0818	2.	0.	5945.8
17981	4.9895	1.9091	0.	5974.7
17982	4.9895	2.	5.e-002	87.849
17983	5.2664	2.	0.	5560.6
17984	5.1741	1.9091	0.	5579.8
17985	5.1741	2.	5.e-002	69.32
17986	5.4509	2.	0.	5271.4
17987	5.3586	1.9091	0.	5288.5
17988	5.3586	2.	5.e-002	56.523
17989	5.6355	2.	0.	5046.6
17990	5.5432	1.9091	0.	5065.2
17991	5.5432	2.	5.e-002	47.003
17992	5.8201	2.	0.	4866.5
17993	5.7278	1.9091	0.	4887.7
17994	5.7278	2.	5.e-002	39.644
17995	6.0046	2.	0.	4718.6
17996	5.9123	1.9091	0.	4742.5
17997	5.9123	2.	5.e-002	33.813
17998	6.1892	2.	0.	4594.3
17999	6.0969	1.9091	0.	4620.4
18000	6.0969	2.	5.e-002	29.129
18001	6.3738	2.	0.	4487.7
18002	6.2815	1.9091	0.	4515.6
18003	6.2815	2.	5.e-002	25.344
18004	6.5583	2.	0.	4394.6
18005	6.466	1.9091	0.	4423.7
18006	6.466	2.	5.e-002	22.278
18007	6.7429	2.	0.	4311.8
18008	6.6506	1.9091	0.	4341.6
18009	6.6506	2.	5.e-002	19.797
18010	6.9275	2.	0.	4236.9
18011	6.8352	1.9091	0.	4267.1
18012	6.8352	2.	5.e-002	17.793
18013	7.112	2.	0.	4168.1
18014	7.0198	1.9091	0.	4198.4
18015	7.0198	2.	5.e-002	16.178
18016	7.2966	2.	0.	4104.1
18017	7.2043	1.9091	0.	4134.3
18018	7.2043	2.	5.e-002	14.88
18019	7.4812	2.	0.	4043.7
18020	7.3889	1.9091	0.	4073.7
18021	7.3889	2.	5.e-002	13.838
18022	7.6657	2.	0.	3986.1
18023	7.5735	1.9091	0.	4015.9
18024	7.5735	2.	5.e-002	13.002
18025	7.8503	2.	0.	3930.6
18026	7.758	1.9091	0.	3960.1
18027	7.758	2.	5.e-002	12.33
18028	8.0349	2.	0.	3876.8
18029	7.9426	1.9091	0.	3905.9
18030	7.9426	2.	5.e-002	11.788
18031	8.2194	2.	0.	3824.2
18032	8.1272	1.9091	0.	3853.
18033	8.1272	2.	5.e-002	11.349
18034	8.404	2.	0.	3772.6
18035	8.3117	1.9091	0.	3801.1
18036	8.3117	2.	5.e-002	10.99
18037	8.5886	2.	0.	3721.7
18038	8.4963	1.9091	0.	3749.8
18039	8.4963	2.	5.e-002	10.696
18040	8.7731	2.	0.	3671.2
18041	8.6809	1.9091	0.	3699.1
18042	8.6809	2.	5.e-002	10.451
18043	8.9577	2.	0.	3621.2
18044	8.8654	1.9091	0.	3648.8
18045	8.8654	2.	5.e-002	10.245
18046	9.1423	2.	0.	3571.5
18047	9.05	1.9091	0.	3598.8
18048	9.05	2.	5.e-002	10.071
18049	9.3269	2.	0.	3521.9
18050	9.2346	1.9091	0.	3549.
18051	9.2346	2.	5.e-002	9.9204
18052	9.5114	2.	0.	3472.5
18053	9.4191	1.9091	0.	3499.4
18054	9.4191	2.	5.e-002	9.7896
18055	9.696	2.	0.	3423.2
18056	9.6037	1.9091	0.	3450.
18057	9.6037	2.	5.e-002	9.6744
18058	9.8806	2.	0.	3374.
18059	9.7883	1.9091	0.	3400.6
18060	9.7883	2.	5.e-002	9.5715
18061	10.065	2.	0.	3324.9
18062	9.9728	1.9091	0.	3351.3
18063	9.9728	2.	5.e-002	9.4788
18064	10.25	2.	0.	3275.8
18065	10.157	1.9091	0.	3302.
18066	10.157	2.	5.e-002	9.3943
18067	10.434	2.	0.	3226.8
18068	10.342	1.9091	0.	3252.9
18069	10.342	2.	5.e-002	9.3165
18070	10.619	2.	0.	3177.8
18071	10.527	1.9091	0.	3203.8
18072	10.527	2.	5.e-002	9.2442
18073	10.803	2.	0.	3128.9
18074	10.711	1.9091	0.	3154.7
18075	10.711	2.	5.e-002	9.1767
18076	10.988	2.	0.	3080.
18077	10.896	1.9091	0.	3105.7
18078	10.896	2.	5.e-002	9.1131
18079	11.173	2.	0.	3031.2
18080	11.08	1.9091	0.	3056.8
18081	11.08	2.	5.e-002	9.0528
18082	11.357	2.	0.	2982.4
18083	11.265	1.9091	0.	3007.9
18084	11.265	2.	5.e-002	8.9953
18085	11.542	2.	0.	2933.8
18086	11.449	1.9091	0.	2959.1
18087	11.449	2.	5.e-002	8.9403
18088	11.726	2.	0.	2885.2
18089	11.634	1.9091	0.	2910.4
18090	11.634	2.	5.e-002	8.8874
18091	11.911	2.	0.	2836.7
18092	11.819	1.9091	0.	2861.8
18093	11.819	2.	5.e-002	8.8363
18094	12.095	2.	0.	2788.2
18095	12.003	1.9091	0.	2813.3
18096	12.003	2.	5.e-002	8.7868
18097	12.28	2.	0.	2739.9
18098	12.188	1.9091	0.	2764.8
18099	12.188	2.	5.e-002	8.7389
18100	12.465	2.	0.	2691.7
18101	12.372	1.9091	0.	2716.5
18102	12.372	2.	5.e-002	8.6922
18103	12.649	2.	0.	2643.6
18104	12.557	1.9091	0.	2668.3
18105	12.557	2.	5.e-002	8.6467
18106	12.834	2.	0.	2595.7
18107	12.741	1.9091	0.	2620.3
18108	12.741	2.	5.e-002	8.6022
18109	13.018	2.	0.	2547.8
18110	12.926	1.9091	0.	2572.3
18111	12.926	2.	5.e-002	8.5587
18112	13.203	2.	0.	2500.1
18113	13.11	1.9091	0.	2524.5
18114	13.11	2.	5.e-002	8.516
18115	13.387	2.	0.	2452.6
18116	13.295	1.9091	0.	2476.9
18117	13.295	2.	5.e-002	8.4742
18118	13.572	2.	0.	2405.1
18119	13.48	1.9091	0.	2429.3
18120	13.48	2.	5.e-002	8.433
18121	13.756	2.	0.	2357.9
18122	13.664	1.9091	0.	2382.
18123	13.664	2.	5.e-002	8.3925
18124	13.941	2.	0.	2310.8
18125	13.849	1.9091	0.	2334.7
18126	13.849	2.	5.e-002	8.3528
18127	14.126	2.	0.	2263.8
18128	14.033	1.9091	0.	2287.7
18129	14.033	2.	5.e-002	8.3136
18130	14.31	2.	0.	2217.
18131	14.218	1.9091	0.	2240.8
18132	14.218	2.	5.e-002	8.2749
18133	14.495	2.	0.	2170.4
18134	14.402	1.9091	0.	2194.1
18135	14.402	2.	5.e-002	8.2368
18136	14.679	2.	0.	2123.9
18137	14.587	1.9091	0.	2147.5
18138	14.587	2.	5.e-002	8.1991
18139	14.864	2.	0.	2077.7
18140	14.772	1.9091	0.	2101.1
18141	14.772	2.	5.e-002	8.1619
18142	15.048	2.	0.	2031.6
18143	14.956	1.9091	0.	2054.9
18144	14.956	2.	5.e-002	8.1252
18145	15.233	2.	0.	1985.7
18146	15.141	1.9091	0.	2008.9
18147	15.141	2.	5.e-002	8.0888
18148	15.418	2.	0.	1940.
18149	15.325	1.9091	0.	1963.1
18150	15.325	2.	5.e-002	8.053
18151	15.602	2.	0.	1894.4
18152	15.51	1.9091	0.	1917.5
18153	15.51	2.	5.e-002	8.0174
18154	15.787	2.	0.	1849.1
18155	15.694	1.9091	0.	1872.
18156	15.694	2.	5.e-002	7.9824
18157	15.971	2.	0.	1803.9
18158	15.879	1.9091	0.	1826.7
18159	15.879	2.	5.e-002	7.9477
18160	16.156	2.	0.	1759.
18161	16.064	1.9091	0.	1781.7
18162	16.064	2.	5.e-002	7.9134
18163	16.34	2.	0.	1714.3
18164	16.248	1.9091	0.	1736.8
18165	16.248	2.	5.e-002	7.8796
18166	16.525	2.	0.	1669.7
18167	16.433	1.9091	0.	1692.2
18168	16.433	2.	5.e-002	7.8461
18169	16.71	2.	0.	1625.4
18170	16.617	1.9091	0.	1647.7
18171	16.617	2.	5.e-002	7.813
18172	16.894	2.	0.	1581.3
18173	16.802	1.9091	0.	1603.5
18174	16.802	2.	5.e-002	7.7803
18175	17.079	2.	0.	1537.4
18176	16.986	1.9091	0.	1559.5
18177	16.986	2.	5.e-002	7.7481
18178	17.263	2.	0.	1493.7
18179	17.171	1.9091	0.	1515.7
18180	17.171	2.	5.e-002	7.7163
18181	17.448	2.	0.	1450.3
18182	17.356	1.9091	0.	1472.1
18183	17.356	2.	5.e-002	7.685
18184	17.632	2.	0.	1407.1
18185	17.54	1.9091	0.	1428.8
18186	17.54	2.	5.e-002	7.6542
18187	17.817	2.	0.	1364.1
18188	17.725	1.9091	0.	1385.6
18189	17.725	2.	5.e-002	7.6238
18190	18.002	2.	0.	1321.3
18191	17.909	1.9091	0.	1342.7
18192	17.909	2.	5.e-002	7.594
18193	18.186	2.	0.	1278.8
18194	18.094	1.9091	0.	1300.1
18195	18.094	2.	5.e-002	7.5648
18196	18.371	2.	0.	1236.5
18197	18.278	1.9091	0.	1257.7
18198	18.278	2.	5.e-002	7.5362
18199	18.555	2.	0.	1194.5
18200	18.463	1.9091	0.	1215.5
18201	18.463	2.	5.e-002	7.5083
18202	18.74	2.	0.	1152.8
18203	18.648	1.9091	0.	1173.6
18204	18.648	2.	5.e-002	7.4811
18205	18.924	2.	0.	1111.3
18206	18.832	1.9091	0.	1131.9
18207	18.832	2.	5.e-002	7.4547
18208	19.109	2.	0.	1070.
18209	19.017	1.9091	0.	1090.5
18210	19.017	2.	5.e-002	7.4291
18211	19.294	2.	0.	1029.1
18212	19.201	1.9091	0.	1049.4
18213	19.201	2.	5.e-002	7.4044
18214	19.478	2.	0.	988.43
18215	19.386	1.9091	0.	1008.5
18216	19.386	2.	5.e-002	7.3807
18217	19.663	2.	0.	948.05
18218	19.57	1.9091	0.	967.93
18219	19.57	2.	5.e-002	7.3582
18220	19.847	2.	0.	907.97
18221	19.755	1.9091	0.	927.64
18222	19.755	2.	5.e-002	7.3368
18223	20.032	2.	0.	868.2
18224	19.94	1.9091	0.	887.65
18225	19.94	2.	5.e-002	7.3167
18226	20.216	2.	0.	828.75
18227	20.124	1.9091	0.	847.97
18228	20.124	2.	5.e-002	7.2981
18229	20.401	2.	0.	789.64
18230	20.309	1.9091	0.	808.61
18231	20.309	2.	5.e-002	7.2811
18232	20.585	2.	0.	750.88
18233	20.493	1.9091	0.	769.59
18234	20.493	2.	5.e-002	7.266
18235	20.77	2.	0.	712.48
18236	20.678	1.9091	0.	730.92
18237	20.678	2.	5.e-002	7.2528
18238	20.955	2.	0.	674.47
18239	20.862	1.9091	0.	692.62
18240	20.862	2.	5.e-002	7.242
18241	21.139	2.	0.	636.86
18242	21.047	1.9091	0.	654.7
18243	21.047	2.	5.e-002	7.2337
18244	21.324	2.	0.	599.69
18245	21.231	1.9091	0.	617.19
18246	21.231	2.	5.e-002	7.2282
18247	21.508	2.	0.	562.99
18248	21.416	1.9091	0.	580.13
18249	21.416	2.	5.e-002	7.2261
18250	21.693	2.	0.	526.78
18251	21.601	1.9091	0.	543.54
18252	21.601	2.	5.e-002	7.2277
18253	21.877	2.	0.	491.13
18254	21.785	1.9091	0.	507.46
18255	21.785	2.	5.e-002	7.2335
18256	22.062	2.	0.	456.08
18257	21.97	1.9091	0.	471.96
18258	21.97	2.	5.e-002	7.2441
18259	22.247	2.	0.	421.72
18260	22.154	1.9091	0.	437.1
18261	22.154	2.	5.e-002	7.2604
18262	22.431	2.	0.	388.13
18263	22.339	1.9091	0.	402.96
18264	22.339	2.	5.e-002	7.2829
18265	22.616	2.	0.	355.45
18266	22.523	1.9091	0.	369.65
18267	22.523	2.	5.e-002	7.3127
18268	22.8	2.	0.	323.85
18269	22.708	1.9091	0.	337.33
18270	22.708	2.	5.e-002	7.3507
18271	22.985	2.	0.	293.56
18272	22.893	1.9091	0.	306.2
18273	22.893	2.	5.e-002	7.3978
18274	23.169	2.	0.	264.93
18275	23.077	1.9091	0.	276.54
18276	23.077	2.	5.e-002	7.4549
18277	23.354	2.	0.	238.43
18278	23.262	1.9091	0.	248.77
18279	23.262	2.	5.e-002	7.5226
18280	23.539	2.	0.	214.77
18281	23.446	1.9091	0.	223.45
18282	23.446	2.	5.e-002	7.6011
18283	23.723	2.	0.	194.92
18284	23.631	1.9091	0.	201.44
18285	23.631	2.	5.e-002	7.6926
18286	23.815	1.9091	0.	183.9
18287	23.815	2.	5.e-002	7.8435
18288	23.908	2.	0.	180.61
18289	4.3435	1.8182	0.	9999.7
18290	4.2512	1.7273	0.	10220
18291	4.2512	1.8182	5.e-002	863.26
18292	4.159	1.8182	0.	10142
18293	4.5281	1.8182	0.	7719.8
18294	4.4358	1.7273	0.	7766.2
18295	4.4358	1.8182	5.e-002	290.06
18296	4.7127	1.8182	0.	6650.1
18297	4.6204	1.7273	0.	6637.4
18298	4.6204	1.8182	5.e-002	133.63
18299	4.8972	1.8182	0.	6023.1
18300	4.8049	1.7273	0.	5996.9
18301	4.8049	1.8182	5.e-002	96.365
18302	5.0818	1.8182	0.	5602.9
18303	4.9895	1.7273	0.	5572.6
18304	4.9895	1.8182	5.e-002	75.078
18305	5.2664	1.8182	0.	5304.
18306	5.1741	1.7273	0.	5279.2
18307	5.1741	1.8182	5.e-002	60.239
18308	5.4509	1.8182	0.	5080.1
18309	5.3586	1.7273	0.	5063.8
18310	5.3586	1.8182	5.e-002	49.635
18311	5.6355	1.8182	0.	4905.
18312	5.5432	1.7273	0.	4898.
18313	5.5432	1.8182	5.e-002	41.596
18314	5.8201	1.8182	0.	4763.
18315	5.7278	1.7273	0.	4764.5
18316	5.7278	1.8182	5.e-002	35.315
18317	6.0046	1.8182	0.	4644.
18318	5.9123	1.7273	0.	4652.8
18319	5.9123	1.8182	5.e-002	30.305
18320	6.1892	1.8182	0.	4541.6
18321	6.0969	1.7273	0.	4556.3
18322	6.0969	1.8182	5.e-002	26.266
18323	6.3738	1.8182	0.	4451.5
18324	6.2815	1.7273	0.	4470.8
18325	6.2815	1.8182	5.e-002	22.994
18326	6.5583	1.8182	0.	4370.7
18327	6.466	1.7273	0.	4393.3
18328	6.466	1.8182	5.e-002	20.344
18329	6.7429	1.8182	0.	4297.
18330	6.6506	1.7273	0.	4322.
18331	6.6506	1.8182	5.e-002	18.203
18332	6.9275	1.8182	0.	4228.7
18333	6.8352	1.7273	0.	4255.5
18334	6.8352	1.8182	5.e-002	16.479
18335	7.112	1.8182	0.	4164.7
18336	7.0198	1.7273	0.	4192.6
18337	7.0198	1.8182	5.e-002	15.098
18338	7.2966	1.8182	0.	4104.
18339	7.2043	1.7273	0.	4132.6
18340	7.2043	1.8182	5.e-002	13.994
18341	7.4812	1.8182	0.	4045.9
18342	7.3889	1.7273	0.	4074.9
18343	7.3889	1.8182	5.e-002	13.114
18344	7.6657	1.8182	0.	3989.9
18345	7.5735	1.7273	0.	4019.
18346	7.5735	1.8182	5.e-002	12.412
18347	7.8503	1.8182	0.	3935.4
18348	7.758	1.7273	0.	3964.6
18349	7.758	1.8182	5.e-002	11.852
18350	8.0349	1.8182	0.	3882.2
18351	7.9426	1.7273	0.	3911.2
18352	7.9426	1.8182	5.e-002	11.401
18353	8.2194	1.8182	0.	3829.9
18354	8.1272	1.7273	0.	3858.7
18355	8.1272	1.8182	5.e-002	11.038
18356	8.404	1.8182	0.	3778.3
18357	8.3117	1.7273	0.	3807.
18358	8.3117	1.8182	5.e-002	10.741
18359	8.5886	1.8182	0.	3727.3
18360	8.4963	1.7273	0.	3755.7
18361	8.4963	1.8182	5.e-002	10.496
18362	8.7731	1.8182	0.	3676.7
18363	8.6809	1.7273	0.	3704.9
18364	8.6809	1.8182	5.e-002	10.291
18365	8.9577	1.8182	0.	3626.4
18366	8.8654	1.7273	0.	3654.4
18367	8.8654	1.8182	5.e-002	10.117
18368	9.1423	1.8182	0.	3576.4
18369	9.05	1.7273	0.	3604.1
18370	9.05	1.8182	5.e-002	9.9683
18371	9.3269	1.8182	0.	3526.6
18372	9.2346	1.7273	0.	3554.1
18373	9.2346	1.8182	5.e-002	9.8386
18374	9.5114	1.8182	0.	3476.9
18375	9.4191	1.7273	0.	3504.2
18376	9.4191	1.8182	5.e-002	9.7242
18377	9.696	1.8182	0.	3427.3
18378	9.6037	1.7273	0.	3454.4
18379	9.6037	1.8182	5.e-002	9.6219
18380	9.8806	1.8182	0.	3377.8
18381	9.7883	1.7273	0.	3404.7
18382	9.7883	1.8182	5.e-002	9.5294
18383	10.065	1.8182	0.	3328.4
18384	9.9728	1.7273	0.	3355.2
18385	9.9728	1.8182	5.e-002	9.4448
18386	10.25	1.8182	0.	3279.1
18387	10.157	1.7273	0.	3305.7
18388	10.157	1.8182	5.e-002	9.3668
18389	10.434	1.8182	0.	3229.9
18390	10.342	1.7273	0.	3256.2
18391	10.342	1.8182	5.e-002	9.2942
18392	10.619	1.8182	0.	3180.7
18393	10.527	1.7273	0.	3206.9
18394	10.527	1.8182	5.e-002	9.226
18395	10.803	1.8182	0.	3131.5
18396	10.711	1.7273	0.	3157.6
18397	10.711	1.8182	5.e-002	9.1617
18398	10.988	1.8182	0.	3082.5
18399	10.896	1.7273	0.	3108.4
18400	10.896	1.8182	5.e-002	9.1008
18401	11.173	1.8182	0.	3033.5
18402	11.08	1.7273	0.	3059.3
18403	11.08	1.8182	5.e-002	9.0425
18404	11.357	1.8182	0.	2984.6
18405	11.265	1.7273	0.	3010.3
18406	11.265	1.8182	5.e-002	8.9867
18407	11.542	1.8182	0.	2935.8
18408	11.449	1.7273	0.	2961.3
18409	11.449	1.8182	5.e-002	8.933
18410	11.726	1.8182	0.	2887.
18411	11.634	1.7273	0.	2912.5
18412	11.634	1.8182	5.e-002	8.8812
18413	11.911	1.8182	0.	2838.4
18414	11.819	1.7273	0.	2863.7
18415	11.819	1.8182	5.e-002	8.8309
18416	12.095	1.8182	0.	2789.9
18417	12.003	1.7273	0.	2815.1
18418	12.003	1.8182	5.e-002	8.7822
18419	12.28	1.8182	0.	2741.5
18420	12.188	1.7273	0.	2766.5
18421	12.188	1.8182	5.e-002	8.7348
18422	12.465	1.8182	0.	2693.2
18423	12.372	1.7273	0.	2718.1
18424	12.372	1.8182	5.e-002	8.6886
18425	12.649	1.8182	0.	2645.
18426	12.557	1.7273	0.	2669.9
18427	12.557	1.8182	5.e-002	8.6435
18428	12.834	1.8182	0.	2597.
18429	12.741	1.7273	0.	2621.7
18430	12.741	1.8182	5.e-002	8.5993
18431	13.018	1.8182	0.	2549.1
18432	12.926	1.7273	0.	2573.7
18433	12.926	1.8182	5.e-002	8.5561
18434	13.203	1.8182	0.	2501.3
18435	13.11	1.7273	0.	2525.8
18436	13.11	1.8182	5.e-002	8.5136
18437	13.387	1.8182	0.	2453.7
18438	13.295	1.7273	0.	2478.1
18439	13.295	1.8182	5.e-002	8.472
18440	13.572	1.8182	0.	2406.2
18441	13.48	1.7273	0.	2430.5
18442	13.48	1.8182	5.e-002	8.431
18443	13.756	1.8182	0.	2358.9
18444	13.664	1.7273	0.	2383.1
18445	13.664	1.8182	5.e-002	8.3907
18446	13.941	1.8182	0.	2311.7
18447	13.849	1.7273	0.	2335.8
18448	13.849	1.8182	5.e-002	8.3511
18449	14.126	1.8182	0.	2264.7
18450	14.033	1.7273	0.	2288.7
18451	14.033	1.8182	5.e-002	8.312
18452	14.31	1.8182	0.	2217.9
18453	14.218	1.7273	0.	2241.8
18454	14.218	1.8182	5.e-002	8.2734
18455	14.495	1.8182	0.	2171.2
18456	14.402	1.7273	0.	2195.
18457	14.402	1.8182	5.e-002	8.2354
18458	14.679	1.8182	0.	2124.8
18459	14.587	1.7273	0.	2148.4
18460	14.587	1.8182	5.e-002	8.1978
18461	14.864	1.8182	0.	2078.5
18462	14.772	1.7273	0.	2102.
18463	14.772	1.8182	5.e-002	8.1607
18464	15.048	1.8182	0.	2032.3
18465	14.956	1.7273	0.	2055.8
18466	14.956	1.8182	5.e-002	8.124
18467	15.233	1.8182	0.	1986.4
18468	15.141	1.7273	0.	2009.7
18469	15.141	1.8182	5.e-002	8.0877
18470	15.418	1.8182	0.	1940.6
18471	15.325	1.7273	0.	1963.9
18472	15.325	1.8182	5.e-002	8.0519
18473	15.602	1.8182	0.	1895.1
18474	15.51	1.7273	0.	1918.2
18475	15.51	1.8182	5.e-002	8.0164
18476	15.787	1.8182	0.	1849.7
18477	15.694	1.7273	0.	1872.7
18478	15.694	1.8182	5.e-002	7.9814
18479	15.971	1.8182	0.	1804.5
18480	15.879	1.7273	0.	1827.4
18481	15.879	1.8182	5.e-002	7.9468
18482	16.156	1.8182	0.	1759.6
18483	16.064	1.7273	0.	1782.3
18484	16.064	1.8182	5.e-002	7.9125
18485	16.34	1.8182	0.	1714.8
18486	16.248	1.7273	0.	1737.5
18487	16.248	1.8182	5.e-002	7.8786
18488	16.525	1.8182	0.	1670.3
18489	16.433	1.7273	0.	1692.8
18490	16.433	1.8182	5.e-002	7.8452
18491	16.71	1.8182	0.	1625.9
18492	16.617	1.7273	0.	1648.3
18493	16.617	1.8182	5.e-002	7.8121
18494	16.894	1.8182	0.	1581.8
18495	16.802	1.7273	0.	1604.
18496	16.802	1.8182	5.e-002	7.7794
18497	17.079	1.8182	0.	1537.8
18498	16.986	1.7273	0.	1560.
18499	16.986	1.8182	5.e-002	7.7472
18500	17.263	1.8182	0.	1494.1
18501	17.171	1.7273	0.	1516.2
18502	17.171	1.8182	5.e-002	7.7153
18503	17.448	1.8182	0.	1450.6
18504	17.356	1.7273	0.	1472.5
18505	17.356	1.8182	5.e-002	7.684
18506	17.632	1.8182	0.	1407.4
18507	17.54	1.7273	0.	1429.1
18508	17.54	1.8182	5.e-002	7.6532
18509	17.817	1.8182	0.	1364.4
18510	17.725	1.7273	0.	1386.
18511	17.725	1.8182	5.e-002	7.6228
18512	18.002	1.8182	0.	1321.6
18513	17.909	1.7273	0.	1343.
18514	17.909	1.8182	5.e-002	7.5929
18515	18.186	1.8182	0.	1279.
18516	18.094	1.7273	0.	1300.3
18517	18.094	1.8182	5.e-002	7.5637
18518	18.371	1.8182	0.	1236.7
18519	18.278	1.7273	0.	1257.8
18520	18.278	1.8182	5.e-002	7.535
18521	18.555	1.8182	0.	1194.6
18522	18.463	1.7273	0.	1215.6
18523	18.463	1.8182	5.e-002	7.507
18524	18.74	1.8182	0.	1152.8
18525	18.648	1.7273	0.	1173.6
18526	18.648	1.8182	5.e-002	7.4797
18527	18.924	1.8182	0.	1111.2
18528	18.832	1.7273	0.	1131.9
18529	18.832	1.8182	5.e-002	7.4532
18530	19.109	1.8182	0.	1069.9
18531	19.017	1.7273	0.	1090.4
18532	19.017	1.8182	5.e-002	7.4275
18533	19.294	1.8182	0.	1028.8
18534	19.201	1.7273	0.	1049.2
18535	19.201	1.8182	5.e-002	7.4027
18536	19.478	1.8182	0.	988.06
18537	19.386	1.7273	0.	1008.2
18538	19.386	1.8182	5.e-002	7.3788
18539	19.663	1.8182	0.	947.58
18540	19.57	1.7273	0.	967.51
18541	19.57	1.8182	5.e-002	7.3561
18542	19.847	1.8182	0.	907.38
18543	19.755	1.7273	0.	927.1
18544	19.755	1.8182	5.e-002	7.3344
18545	20.032	1.8182	0.	867.48
18546	19.94	1.7273	0.	886.98
18547	19.94	1.8182	5.e-002	7.3141
18548	20.216	1.8182	0.	827.89
18549	20.124	1.7273	0.	847.16
18550	20.124	1.8182	5.e-002	7.2951
18551	20.401	1.8182	0.	788.62
18552	20.309	1.7273	0.	807.64
18553	20.309	1.8182	5.e-002	7.2778
18554	20.585	1.8182	0.	749.69
18555	20.493	1.7273	0.	768.44
18556	20.493	1.8182	5.e-002	7.2621
18557	20.77	1.8182	0.	711.1
18558	20.678	1.7273	0.	729.58
18559	20.678	1.8182	5.e-002	7.2484
18560	20.955	1.8182	0.	672.89
18561	20.862	1.7273	0.	691.07
18562	20.862	1.8182	5.e-002	7.2369
18563	21.139	1.8182	0.	635.07
18564	21.047	1.7273	0.	652.93
18565	21.047	1.8182	5.e-002	7.2278
18566	21.324	1.8182	0.	597.66
18567	21.231	1.7273	0.	615.18
18568	21.231	1.8182	5.e-002	7.2214
18569	21.508	1.8182	0.	560.71
18570	21.416	1.7273	0.	577.85
18571	21.416	1.8182	5.e-002	7.2182
18572	21.693	1.8182	0.	524.24
18573	21.601	1.7273	0.	540.98
18574	21.601	1.8182	5.e-002	7.2185
18575	21.877	1.8182	0.	488.31
18576	21.785	1.7273	0.	504.61
18577	21.785	1.8182	5.e-002	7.2229
18578	22.062	1.8182	0.	452.97
18579	21.97	1.7273	0.	468.8
18580	21.97	1.8182	5.e-002	7.232
18581	22.247	1.8182	0.	418.31
18582	22.154	1.7273	0.	433.6
18583	22.154	1.8182	5.e-002	7.2466
18584	22.431	1.8182	0.	384.41
18585	22.339	1.7273	0.	399.13
18586	22.339	1.8182	5.e-002	7.2674
18587	22.616	1.8182	0.	351.43
18588	22.523	1.7273	0.	365.47
18589	22.523	1.8182	5.e-002	7.2956
18590	22.8	1.8182	0.	319.51
18591	22.708	1.7273	0.	332.8
18592	22.708	1.8182	5.e-002	7.3322
18593	22.985	1.8182	0.	288.92
18594	22.893	1.7273	0.	301.33
18595	22.893	1.8182	5.e-002	7.3786
18596	23.169	1.8182	0.	259.99
18597	23.077	1.7273	0.	271.33
18598	23.077	1.8182	5.e-002	7.4358
18599	23.354	1.8182	0.	233.21
18600	23.262	1.7273	0.	243.22
18601	23.262	1.8182	5.e-002	7.5051
18602	23.539	1.8182	0.	209.29
18603	23.446	1.7273	0.	217.59
18604	23.446	1.8182	5.e-002	7.5868
18605	23.723	1.8182	0.	189.23
18606	23.631	1.7273	0.	195.3
18607	23.631	1.8182	5.e-002	7.6844
18608	23.815	1.7273	0.	177.6
18609	23.815	1.8182	5.e-002	7.8595
18610	23.908	1.8182	0.	174.71
18611	4.3435	1.6364	0.	7792.1
18612	4.2512	1.5455	0.	7744.5
18613	4.2512	1.6364	5.e-002	475.64
18614	4.159	1.6364	0.	7019.1
18615	4.5281	1.6364	0.	6633.4
18616	4.4358	1.5455	0.	6470.6
18617	4.4358	1.6364	5.e-002	187.71
18618	4.7127	1.6364	0.	5961.6
18619	4.6204	1.5455	0.	5830.6
18620	4.6204	1.6364	5.e-002	116.4
18621	4.8972	1.6364	0.	5532.3
18622	4.8049	1.5455	0.	5422.8
18623	4.8049	1.6364	5.e-002	83.136
18624	5.0818	1.6364	0.	5240.3
18625	4.9895	1.5455	0.	5151.5
18626	4.9895	1.6364	5.e-002	64.063
18627	5.2664	1.6364	0.	5033.9
18628	5.1741	1.5455	0.	4965.6
18629	5.1741	1.6364	5.e-002	52.173
18630	5.4509	1.6364	0.	4878.7
18631	5.3586	1.5455	0.	4829.7
18632	5.3586	1.6364	5.e-002	43.295
18633	5.6355	1.6364	0.	4755.8
18634	5.5432	1.5455	0.	4723.8
18635	5.5432	1.6364	5.e-002	36.465
18636	5.8201	1.6364	0.	4653.4
18637	5.7278	1.5455	0.	4635.8
18638	5.7278	1.6364	5.e-002	31.069
18639	6.0046	1.6364	0.	4564.7
18640	5.9123	1.5455	0.	4558.7
18641	5.9123	1.6364	5.e-002	26.748
18642	6.1892	1.6364	0.	4485.2
18643	6.0969	1.5455	0.	4488.6
18644	6.0969	1.6364	5.e-002	23.266
18645	6.3738	1.6364	0.	4412.5
18646	6.2815	1.5455	0.	4423.1
18647	6.2815	1.6364	5.e-002	20.461
18648	6.5583	1.6364	0.	4344.7
18649	6.466	1.5455	0.	4360.8
18650	6.466	1.6364	5.e-002	18.208
18651	6.7429	1.6364	0.	4280.6
18652	6.6506	1.5455	0.	4300.8
18653	6.6506	1.6364	5.e-002	16.408
18654	6.9275	1.6364	0.	4219.4
18655	6.8352	1.5455	0.	4242.6
18656	6.8352	1.6364	5.e-002	14.98
18657	7.112	1.6364	0.	4160.6
18658	7.0198	1.5455	0.	4185.8
18659	7.0198	1.6364	5.e-002	13.854
18660	7.2966	1.6364	0.	4103.5
18661	7.2043	1.5455	0.	4130.3
18662	7.2043	1.6364	5.e-002	12.969
18663	7.4812	1.6364	0.	4048.
18664	7.3889	1.5455	0.	4075.8
18665	7.3889	1.6364	5.e-002	12.276
18666	7.6657	1.6364	0.	3993.7
18667	7.5735	1.5455	0.	4022.
18668	7.5735	1.6364	5.e-002	11.731
18669	7.8503	1.6364	0.	3940.4
18670	7.758	1.5455	0.	3969.
18671	7.758	1.6364	5.e-002	11.301
18672	8.0349	1.6364	0.	3887.8
18673	7.9426	1.5455	0.	3916.6
18674	7.9426	1.6364	5.e-002	10.959
18675	8.2194	1.6364	0.	3835.9
18676	8.1272	1.5455	0.	3864.7
18677	8.1272	1.6364	5.e-002	10.683
18678	8.404	1.6364	0.	3784.4
18679	8.3117	1.5455	0.	3813.2
18680	8.3117	1.6364	5.e-002	10.457
18681	8.5886	1.6364	0.	3733.3
18682	8.4963	1.5455	0.	3762.
18683	8.4963	1.6364	5.e-002	10.269
18684	8.7731	1.6364	0.	3682.6
18685	8.6809	1.5455	0.	3711.1
18686	8.6809	1.6364	5.e-002	10.11
18687	8.9577	1.6364	0.	3632.1
18688	8.8654	1.5455	0.	3660.4
18689	8.8654	1.6364	5.e-002	9.9736
18690	9.1423	1.6364	0.	3581.8
18691	9.05	1.5455	0.	3609.9
18692	9.05	1.6364	5.e-002	9.8538
18693	9.3269	1.6364	0.	3531.7
18694	9.2346	1.5455	0.	3559.6
18695	9.2346	1.6364	5.e-002	9.7473
18696	9.5114	1.6364	0.	3481.7
18697	9.4191	1.5455	0.	3509.4
18698	9.4191	1.6364	5.e-002	9.6513
18699	9.696	1.6364	0.	3431.9
18700	9.6037	1.5455	0.	3459.3
18701	9.6037	1.6364	5.e-002	9.5636
18702	9.8806	1.6364	0.	3382.1
18703	9.7883	1.5455	0.	3409.3
18704	9.7883	1.6364	5.e-002	9.4826
18705	10.065	1.6364	0.	3332.4
18706	9.9728	1.5455	0.	3359.5
18707	9.9728	1.6364	5.e-002	9.4072
18708	10.25	1.6364	0.	3282.8
18709	10.157	1.5455	0.	3309.7
18710	10.157	1.6364	5.e-002	9.3363
18711	10.434	1.6364	0.	3233.3
18712	10.342	1.5455	0.	3260.
18713	10.342	1.6364	5.e-002	9.2694
18714	10.619	1.6364	0.	3183.9
18715	10.527	1.5455	0.	3210.4
18716	10.527	1.6364	5.e-002	9.2058
18717	10.803	1.6364	0.	3134.5
18718	10.711	1.5455	0.	3160.9
18719	10.711	1.6364	5.e-002	9.1451
18720	10.988	1.6364	0.	3085.3
18721	10.896	1.5455	0.	3111.5
18722	10.896	1.6364	5.e-002	9.087
18723	11.173	1.6364	0.	3036.1
18724	11.08	1.5455	0.	3062.1
18725	11.08	1.6364	5.e-002	9.031
18726	11.357	1.6364	0.	2987.
18727	11.265	1.5455	0.	3012.9
18728	11.265	1.6364	5.e-002	8.977
18729	11.542	1.6364	0.	2938.
18730	11.449	1.5455	0.	2963.8
18731	11.449	1.6364	5.e-002	8.9248
18732	11.726	1.6364	0.	2889.2
18733	11.634	1.5455	0.	2914.8
18734	11.634	1.6364	5.e-002	8.8741
18735	11.911	1.6364	0.	2840.4
18736	11.819	1.5455	0.	2865.9
18737	11.819	1.6364	5.e-002	8.8248
18738	12.095	1.6364	0.	2791.8
18739	12.003	1.5455	0.	2817.1
18740	12.003	1.6364	5.e-002	8.7769
18741	12.28	1.6364	0.	2743.2
18742	12.188	1.5455	0.	2768.5
18743	12.188	1.6364	5.e-002	8.7301
18744	12.465	1.6364	0.	2694.8
18745	12.372	1.5455	0.	2720.
18746	12.372	1.6364	5.e-002	8.6845
18747	12.649	1.6364	0.	2646.6
18748	12.557	1.5455	0.	2671.6
18749	12.557	1.6364	5.e-002	8.6398
18750	12.834	1.6364	0.	2598.5
18751	12.741	1.5455	0.	2623.3
18752	12.741	1.6364	5.e-002	8.596
18753	13.018	1.6364	0.	2550.5
18754	12.926	1.5455	0.	2575.2
18755	12.926	1.6364	5.e-002	8.5531
18756	13.203	1.6364	0.	2502.6
18757	13.11	1.5455	0.	2527.3
18758	13.11	1.6364	5.e-002	8.5109
18759	13.387	1.6364	0.	2454.9
18760	13.295	1.5455	0.	2479.5
18761	13.295	1.6364	5.e-002	8.4695
18762	13.572	1.6364	0.	2407.4
18763	13.48	1.5455	0.	2431.8
18764	13.48	1.6364	5.e-002	8.4287
18765	13.756	1.6364	0.	2360.
18766	13.664	1.5455	0.	2384.3
18767	13.664	1.6364	5.e-002	8.3886
18768	13.941	1.6364	0.	2312.8
18769	13.849	1.5455	0.	2337.
18770	13.849	1.6364	5.e-002	8.3491
18771	14.126	1.6364	0.	2265.8
18772	14.033	1.5455	0.	2289.9
18773	14.033	1.6364	5.e-002	8.3102
18774	14.31	1.6364	0.	2218.9
18775	14.218	1.5455	0.	2242.9
18776	14.218	1.6364	5.e-002	8.2717
18777	14.495	1.6364	0.	2172.2
18778	14.402	1.5455	0.	2196.1
18779	14.402	1.6364	5.e-002	8.2338
18780	14.679	1.6364	0.	2125.7
18781	14.587	1.5455	0.	2149.4
18782	14.587	1.6364	5.e-002	8.1963
18783	14.864	1.6364	0.	2079.4
18784	14.772	1.5455	0.	2103.
18785	14.772	1.6364	5.e-002	8.1592
18786	15.048	1.6364	0.	2033.2
18787	14.956	1.5455	0.	2056.7
18788	14.956	1.6364	5.e-002	8.1226
18789	15.233	1.6364	0.	1987.2
18790	15.141	1.5455	0.	2010.6
18791	15.141	1.6364	5.e-002	8.0865
18792	15.418	1.6364	0.	1941.4
18793	15.325	1.5455	0.	1964.7
18794	15.325	1.6364	5.e-002	8.0507
18795	15.602	1.6364	0.	1895.9
18796	15.51	1.5455	0.	1919.
18797	15.51	1.6364	5.e-002	8.0152
18798	15.787	1.6364	0.	1850.5
18799	15.694	1.5455	0.	1873.5
18800	15.694	1.6364	5.e-002	7.9802
18801	15.971	1.6364	0.	1805.3
18802	15.879	1.5455	0.	1828.2
18803	15.879	1.6364	5.e-002	7.9456
18804	16.156	1.6364	0.	1760.3
18805	16.064	1.5455	0.	1783.1
18806	16.064	1.6364	5.e-002	7.9114
18807	16.34	1.6364	0.	1715.5
18808	16.248	1.5455	0.	1738.2
18809	16.248	1.6364	5.e-002	7.8775
18810	16.525	1.6364	0.	1670.9
18811	16.433	1.5455	0.	1693.5
18812	16.433	1.6364	5.e-002	7.8441
18813	16.71	1.6364	0.	1626.5
18814	16.617	1.5455	0.	1649.
18815	16.617	1.6364	5.e-002	7.811
18816	16.894	1.6364	0.	1582.3
18817	16.802	1.5455	0.	1604.7
18818	16.802	1.6364	5.e-002	7.7783
18819	17.079	1.6364	0.	1538.4
18820	16.986	1.5455	0.	1560.6
18821	16.986	1.6364	5.e-002	7.7461
18822	17.263	1.6364	0.	1494.6
18823	17.171	1.5455	0.	1516.7
18824	17.171	1.6364	5.e-002	7.7142
18825	17.448	1.6364	0.	1451.1
18826	17.356	1.5455	0.	1473.
18827	17.356	1.6364	5.e-002	7.6829
18828	17.632	1.6364	0.	1407.8
18829	17.54	1.5455	0.	1429.6
18830	17.54	1.6364	5.e-002	7.652
18831	17.817	1.6364	0.	1364.7
18832	17.725	1.5455	0.	1386.4
18833	17.725	1.6364	5.e-002	7.6216
18834	18.002	1.6364	0.	1321.8
18835	17.909	1.5455	0.	1343.4
18836	17.909	1.6364	5.e-002	7.5917
18837	18.186	1.6364	0.	1279.2
18838	18.094	1.5455	0.	1300.6
18839	18.094	1.6364	5.e-002	7.5624
18840	18.371	1.6364	0.	1236.8
18841	18.278	1.5455	0.	1258.1
18842	18.278	1.6364	5.e-002	7.5336
18843	18.555	1.6364	0.	1194.7
18844	18.463	1.5455	0.	1215.8
18845	18.463	1.6364	5.e-002	7.5055
18846	18.74	1.6364	0.	1152.8
18847	18.648	1.5455	0.	1173.7
18848	18.648	1.6364	5.e-002	7.4781
18849	18.924	1.6364	0.	1111.1
18850	18.832	1.5455	0.	1131.9
18851	18.832	1.6364	5.e-002	7.4515
18852	19.109	1.6364	0.	1069.7
18853	19.017	1.5455	0.	1090.3
18854	19.017	1.6364	5.e-002	7.4256
18855	19.294	1.6364	0.	1028.6
18856	19.201	1.5455	0.	1049.
18857	19.201	1.6364	5.e-002	7.4006
18858	19.478	1.6364	0.	987.7
18859	19.386	1.5455	0.	1007.9
18860	19.386	1.6364	5.e-002	7.3766
18861	19.663	1.6364	0.	947.09
18862	19.57	1.5455	0.	967.1
18863	19.57	1.6364	5.e-002	7.3536
18864	19.847	1.6364	0.	906.76
18865	19.755	1.5455	0.	926.56
18866	19.755	1.6364	5.e-002	7.3317
18867	20.032	1.6364	0.	866.71
18868	19.94	1.5455	0.	886.29
18869	19.94	1.6364	5.e-002	7.311
18870	20.216	1.6364	0.	826.96
18871	20.124	1.5455	0.	846.31
18872	20.124	1.6364	5.e-002	7.2917
18873	20.401	1.6364	0.	787.52
18874	20.309	1.5455	0.	806.61
18875	20.309	1.6364	5.e-002	7.2739
18876	20.585	1.6364	0.	748.39
18877	20.493	1.5455	0.	767.22
18878	20.493	1.6364	5.e-002	7.2577
18879	20.77	1.6364	0.	709.6
18880	20.678	1.5455	0.	728.15
18881	20.678	1.6364	5.e-002	7.2434
18882	20.955	1.6364	0.	671.16
18883	20.862	1.5455	0.	689.4
18884	20.862	1.6364	5.e-002	7.2311
18885	21.139	1.6364	0.	633.08
18886	21.047	1.5455	0.	651.01
18887	21.047	1.6364	5.e-002	7.2211
18888	21.324	1.6364	0.	595.41
18889	21.231	1.5455	0.	612.99
18890	21.231	1.6364	5.e-002	7.2137
18891	21.508	1.6364	0.	558.16
18892	21.416	1.5455	0.	575.36
18893	21.416	1.6364	5.e-002	7.2093
18894	21.693	1.6364	0.	521.39
18895	21.601	1.5455	0.	538.17
18896	21.601	1.6364	5.e-002	7.2082
18897	21.877	1.6364	0.	485.12
18898	21.785	1.5455	0.	501.46
18899	21.785	1.6364	5.e-002	7.2109
18900	22.062	1.6364	0.	449.44
18901	21.97	1.5455	0.	465.27
18902	21.97	1.6364	5.e-002	7.2182
18903	22.247	1.6364	0.	414.41
18904	22.154	1.5455	0.	429.69
18905	22.154	1.6364	5.e-002	7.2307
18906	22.431	1.6364	0.	380.14
18907	22.339	1.5455	0.	394.8
18908	22.339	1.6364	5.e-002	7.2494
18909	22.616	1.6364	0.	346.77
18910	22.523	1.5455	0.	360.72
18911	22.523	1.6364	5.e-002	7.2755
18912	22.8	1.6364	0.	314.47
18913	22.708	1.5455	0.	327.62
18914	22.708	1.6364	5.e-002	7.3102
18915	22.985	1.6364	0.	283.49
18916	22.893	1.5455	0.	295.7
18917	22.893	1.6364	5.e-002	7.3553
18918	23.169	1.6364	0.	254.18
18919	23.077	1.5455	0.	265.26
18920	23.077	1.6364	5.e-002	7.4123
18921	23.354	1.6364	0.	227.03
18922	23.262	1.5455	0.	236.73
18923	23.262	1.6364	5.e-002	7.4829
18924	23.539	1.6364	0.	202.78
18925	23.446	1.5455	0.	210.7
18926	23.446	1.6364	5.e-002	7.5683
18927	23.723	1.6364	0.	182.46
18928	23.631	1.5455	0.	188.07
18929	23.631	1.6364	5.e-002	7.6734
18930	23.815	1.5455	0.	170.15
18931	23.815	1.6364	5.e-002	7.8774
18932	23.908	1.6364	0.	167.69
18933	4.3435	1.4545	0.	6204.5
18934	4.2512	1.3636	0.	6023.2
18935	4.2512	1.4545	5.e-002	311.97
18936	4.159	1.4545	0.	5451.6
18937	4.5281	1.4545	0.	5593.4
18938	4.4358	1.3636	0.	5331.
18939	4.4358	1.4545	5.e-002	187.23
18940	4.7127	1.4545	0.	5253.9
18941	4.6204	1.3636	0.	5031.8
18942	4.6204	1.4545	5.e-002	111.93
18943	4.8972	1.4545	0.	5021.3
18944	4.8049	1.3636	0.	4841.2
18945	4.8049	1.4545	5.e-002	78.906
18946	5.0818	1.4545	0.	4865.1
18947	4.9895	1.3636	0.	4722.8
18948	4.9895	1.4545	5.e-002	59.263
18949	5.2664	1.4545	0.	4754.8
18950	5.1741	1.3636	0.	4646.1
18951	5.1741	1.4545	5.e-002	47.258
18952	5.4509	1.4545	0.	4671.
18953	5.3586	1.3636	0.	4591.2
18954	5.3586	1.4545	5.e-002	38.731
18955	5.6355	1.4545	0.	4601.7
18956	5.5432	1.3636	0.	4546.1
18957	5.5432	1.4545	5.e-002	32.334
18958	5.8201	1.4545	0.	4540.
18959	5.7278	1.3636	0.	4504.2
18960	5.7278	1.4545	5.e-002	27.347
18961	6.0046	1.4545	0.	4482.2
18962	5.9123	1.3636	0.	4462.2
18963	5.9123	1.4545	5.e-002	23.41
18964	6.1892	1.4545	0.	4426.3
18965	6.0969	1.3636	0.	4418.8
18966	6.0969	1.4545	5.e-002	20.295
18967	6.3738	1.4545	0.	4371.3
18968	6.2815	1.3636	0.	4373.6
18969	6.2815	1.4545	5.e-002	17.841
18970	6.5583	1.4545	0.	4316.9
18971	6.466	1.3636	0.	4326.6
18972	6.466	1.4545	5.e-002	15.924
18973	6.7429	1.4545	0.	4262.8
18974	6.6506	1.3636	0.	4278.1
18975	6.6506	1.4545	5.e-002	14.445
18976	6.9275	1.4545	0.	4209.1
18977	6.8352	1.3636	0.	4228.5
18978	6.8352	1.4545	5.e-002	13.316
18979	7.112	1.4545	0.	4155.6
18980	7.0198	1.3636	0.	4178.2
18981	7.0198	1.4545	5.e-002	12.462
18982	7.2966	1.4545	0.	4102.5
18983	7.2043	1.3636	0.	4127.3
18984	7.2043	1.4545	5.e-002	11.82
18985	7.4812	1.4545	0.	4049.8
18986	7.3889	1.3636	0.	4076.1
18987	7.3889	1.4545	5.e-002	11.336
18988	7.6657	1.4545	0.	3997.4
18989	7.5735	1.3636	0.	4024.8
18990	7.5735	1.4545	5.e-002	10.97
18991	7.8503	1.4545	0.	3945.3
18992	7.758	1.3636	0.	3973.4
18993	7.758	1.4545	5.e-002	10.689
18994	8.0349	1.4545	0.	3893.5
18995	7.9426	1.3636	0.	3922.
18996	7.9426	1.4545	5.e-002	10.469
18997	8.2194	1.4545	0.	3842.
18998	8.1272	1.3636	0.	3870.7
18999	8.1272	1.4545	5.e-002	10.292
19000	8.404	1.4545	0.	3790.8
19001	8.3117	1.3636	0.	3819.5
19002	8.3117	1.4545	5.e-002	10.146
19003	8.5886	1.4545	0.	3739.7
19004	8.4963	1.3636	0.	3768.4
19005	8.4963	1.4545	5.e-002	10.023
19006	8.7731	1.4545	0.	3688.9
19007	8.6809	1.3636	0.	3717.5
19008	8.6809	1.4545	5.e-002	9.9147
19009	8.9577	1.4545	0.	3638.2
19010	8.8654	1.3636	0.	3666.7
19011	8.8654	1.4545	5.e-002	9.8183
19012	9.1423	1.4545	0.	3587.6
19013	9.05	1.3636	0.	3616.
19014	9.05	1.4545	5.e-002	9.7305
19015	9.3269	1.4545	0.	3537.2
19016	9.2346	1.3636	0.	3565.4
19017	9.2346	1.4545	5.e-002	9.6492
19018	9.5114	1.4545	0.	3486.9
19019	9.4191	1.3636	0.	3514.9
19020	9.4191	1.4545	5.e-002	9.573
19021	9.696	1.4545	0.	3436.8
19022	9.6037	1.3636	0.	3464.5
19023	9.6037	1.4545	5.e-002	9.501
19024	9.8806	1.4545	0.	3386.7
19025	9.7883	1.3636	0.	3414.2
19026	9.7883	1.4545	5.e-002	9.4324
19027	10.065	1.4545	0.	3336.7
19028	9.9728	1.3636	0.	3364.1
19029	9.9728	1.4545	5.e-002	9.3667
19030	10.25	1.4545	0.	3286.9
19031	10.157	1.3636	0.	3314.
19032	10.157	1.4545	5.e-002	9.3036
19033	10.434	1.4545	0.	3237.1
19034	10.342	1.3636	0.	3264.1
19035	10.342	1.4545	5.e-002	9.2428
19036	10.619	1.4545	0.	3187.4
19037	10.527	1.3636	0.	3214.2
19038	10.527	1.4545	5.e-002	9.184
19039	10.803	1.4545	0.	3137.8
19040	10.711	1.3636	0.	3164.4
19041	10.711	1.4545	5.e-002	9.1271
19042	10.988	1.4545	0.	3088.4
19043	10.896	1.3636	0.	3114.8
19044	10.896	1.4545	5.e-002	9.072
19045	11.173	1.4545	0.	3039.
19046	11.08	1.3636	0.	3065.3
19047	11.08	1.4545	5.e-002	9.0184
19048	11.357	1.4545	0.	2989.7
19049	11.265	1.3636	0.	3015.9
19050	11.265	1.4545	5.e-002	8.9664
19051	11.542	1.4545	0.	2940.6
19052	11.449	1.3636	0.	2966.6
19053	11.449	1.4545	5.e-002	8.9157
19054	11.726	1.4545	0.	2891.6
19055	11.634	1.3636	0.	2917.4
19056	11.634	1.4545	5.e-002	8.8663
19057	11.911	1.4545	0.	2842.7
19058	11.819	1.3636	0.	2868.3
19059	11.819	1.4545	5.e-002	8.8181
19060	12.095	1.4545	0.	2793.9
19061	12.003	1.3636	0.	2819.4
19062	12.003	1.4545	5.e-002	8.771
19063	12.28	1.4545	0.	2745.2
19064	12.188	1.3636	0.	2770.6
19065	12.188	1.4545	5.e-002	8.7249
19066	12.465	1.4545	0.	2696.7
19067	12.372	1.3636	0.	2722.
19068	12.372	1.4545	5.e-002	8.6798
19069	12.649	1.4545	0.	2648.4
19070	12.557	1.3636	0.	2673.5
19071	12.557	1.4545	5.e-002	8.6357
19072	12.834	1.4545	0.	2600.1
19073	12.741	1.3636	0.	2625.2
19074	12.741	1.4545	5.e-002	8.5922
19075	13.018	1.4545	0.	2552.1
19076	12.926	1.3636	0.	2577.
19077	12.926	1.4545	5.e-002	8.5497
19078	13.203	1.4545	0.	2504.2
19079	13.11	1.3636	0.	2528.9
19080	13.11	1.4545	5.e-002	8.5078
19081	13.387	1.4545	0.	2456.4
19082	13.295	1.3636	0.	2481.
19083	13.295	1.4545	5.e-002	8.4667
19084	13.572	1.4545	0.	2408.8
19085	13.48	1.3636	0.	2433.3
19086	13.48	1.4545	5.e-002	8.4261
19087	13.756	1.4545	0.	2361.4
19088	13.664	1.3636	0.	2385.8
19089	13.664	1.4545	5.e-002	8.3862
19090	13.941	1.4545	0.	2314.1
19091	13.849	1.3636	0.	2338.4
19092	13.849	1.4545	5.e-002	8.3469
19093	14.126	1.4545	0.	2267.
19094	14.033	1.3636	0.	2291.2
19095	14.033	1.4545	5.e-002	8.3081
19096	14.31	1.4545	0.	2220.1
19097	14.218	1.3636	0.	2244.1
19098	14.218	1.4545	5.e-002	8.2698
19099	14.495	1.4545	0.	2173.3
19100	14.402	1.3636	0.	2197.3
19101	14.402	1.4545	5.e-002	8.232
19102	14.679	1.4545	0.	2126.8
19103	14.587	1.3636	0.	2150.6
19104	14.587	1.4545	5.e-002	8.1946
19105	14.864	1.4545	0.	2080.4
19106	14.772	1.3636	0.	2104.1
19107	14.772	1.4545	5.e-002	8.1576
19108	15.048	1.4545	0.	2034.2
19109	14.956	1.3636	0.	2057.8
19110	14.956	1.4545	5.e-002	8.1211
19111	15.233	1.4545	0.	1988.2
19112	15.141	1.3636	0.	2011.7
19113	15.141	1.4545	5.e-002	8.085
19114	15.418	1.4545	0.	1942.4
19115	15.325	1.3636	0.	1965.8
19116	15.325	1.4545	5.e-002	8.0493
19117	15.602	1.4545	0.	1896.8
19118	15.51	1.3636	0.	1920.
19119	15.51	1.4545	5.e-002	8.0139
19120	15.787	1.4545	0.	1851.3
19121	15.694	1.3636	0.	1874.5
19122	15.694	1.4545	5.e-002	7.9789
19123	15.971	1.4545	0.	1806.1
19124	15.879	1.3636	0.	1829.1
19125	15.879	1.4545	5.e-002	7.9444
19126	16.156	1.4545	0.	1761.1
19127	16.064	1.3636	0.	1784.
19128	16.064	1.4545	5.e-002	7.9101
19129	16.34	1.4545	0.	1716.2
19130	16.248	1.3636	0.	1739.
19131	16.248	1.4545	5.e-002	7.8763
19132	16.525	1.4545	0.	1671.6
19133	16.433	1.3636	0.	1694.3
19134	16.433	1.4545	5.e-002	7.8429
19135	16.71	1.4545	0.	1627.2
19136	16.617	1.3636	0.	1649.7
19137	16.617	1.4545	5.e-002	7.8098
19138	16.894	1.4545	0.	1583.
19139	16.802	1.3636	0.	1605.4
19140	16.802	1.4545	5.e-002	7.7771
19141	17.079	1.4545	0.	1539.
19142	16.986	1.3636	0.	1561.3
19143	16.986	1.4545	5.e-002	7.7448
19144	17.263	1.4545	0.	1495.2
19145	17.171	1.3636	0.	1517.3
19146	17.171	1.4545	5.e-002	7.713
19147	17.448	1.4545	0.	1451.6
19148	17.356	1.3636	0.	1473.6
19149	17.356	1.4545	5.e-002	7.6816
19150	17.632	1.4545	0.	1408.3
19151	17.54	1.3636	0.	1430.2
19152	17.54	1.4545	5.e-002	7.6506
19153	17.817	1.4545	0.	1365.1
19154	17.725	1.3636	0.	1386.9
19155	17.725	1.4545	5.e-002	7.6202
19156	18.002	1.4545	0.	1322.2
19157	17.909	1.3636	0.	1343.8
19158	17.909	1.4545	5.e-002	7.5902
19159	18.186	1.4545	0.	1279.5
19160	18.094	1.3636	0.	1301.
19161	18.094	1.4545	5.e-002	7.5608
19162	18.371	1.4545	0.	1237.1
19163	18.278	1.3636	0.	1258.4
19164	18.278	1.4545	5.e-002	7.532
19165	18.555	1.4545	0.	1194.9
19166	18.463	1.3636	0.	1216.
19167	18.463	1.4545	5.e-002	7.5038
19168	18.74	1.4545	0.	1152.9
19169	18.648	1.3636	0.	1173.9
19170	18.648	1.4545	5.e-002	7.4763
19171	18.924	1.4545	0.	1111.1
19172	18.832	1.3636	0.	1132.
19173	18.832	1.4545	5.e-002	7.4495
19174	19.109	1.4545	0.	1069.6
19175	19.017	1.3636	0.	1090.3
19176	19.017	1.4545	5.e-002	7.4235
19177	19.294	1.4545	0.	1028.4
19178	19.201	1.3636	0.	1048.9
19179	19.201	1.4545	5.e-002	7.3983
19180	19.478	1.4545	0.	987.37
19181	19.386	1.3636	0.	1007.7
19182	19.386	1.4545	5.e-002	7.3741
19183	19.663	1.4545	0.	946.63
19184	19.57	1.3636	0.	966.73
19185	19.57	1.4545	5.e-002	7.3508
19186	19.847	1.4545	0.	906.15
19187	19.755	1.3636	0.	926.05
19188	19.755	1.4545	5.e-002	7.3286
19189	20.032	1.4545	0.	865.94
19190	19.94	1.3636	0.	885.62
19191	19.94	1.4545	5.e-002	7.3076
19192	20.216	1.4545	0.	826.02
19193	20.124	1.3636	0.	845.47
19194	20.124	1.4545	5.e-002	7.2878
19195	20.401	1.4545	0.	786.38
19196	20.309	1.3636	0.	805.58
19197	20.309	1.4545	5.e-002	7.2695
19198	20.585	1.4545	0.	747.04
19199	20.493	1.3636	0.	765.98
19200	20.493	1.4545	5.e-002	7.2528
19201	20.77	1.4545	0.	708.02
19202	20.678	1.3636	0.	726.68
19203	20.678	1.4545	5.e-002	7.2378
19204	20.955	1.4545	0.	669.32
19205	20.862	1.3636	0.	687.68
19206	20.862	1.4545	5.e-002	7.2247
19207	21.139	1.4545	0.	630.97
19208	21.047	1.3636	0.	649.01
19209	21.047	1.4545	5.e-002	7.2138
19210	21.324	1.4545	0.	592.99
19211	21.231	1.3636	0.	610.69
19212	21.231	1.4545	5.e-002	7.2052
19213	21.508	1.4545	0.	555.42
19214	21.416	1.3636	0.	572.73
19215	21.416	1.4545	5.e-002	7.1994
19216	21.693	1.4545	0.	518.29
19217	21.601	1.3636	0.	535.18
19218	21.601	1.4545	5.e-002	7.1968
19219	21.877	1.4545	0.	481.64
19220	21.785	1.3636	0.	498.07
19221	21.785	1.4545	5.e-002	7.1977
19222	22.062	1.4545	0.	445.55
19223	21.97	1.3636	0.	461.46
19224	21.97	1.4545	5.e-002	7.2028
19225	22.247	1.4545	0.	410.08
19226	22.154	1.3636	0.	425.43
19227	22.154	1.4545	5.e-002	7.213
19228	22.431	1.4545	0.	375.36
19229	22.339	1.3636	0.	390.05
19230	22.339	1.4545	5.e-002	7.2291
19231	22.616	1.4545	0.	341.51
19232	22.523	1.3636	0.	355.46
19233	22.523	1.4545	5.e-002	7.2524
19234	22.8	1.4545	0.	308.73
19235	22.708	1.3636	0.	321.81
19236	22.708	1.4545	5.e-002	7.2846
19237	22.985	1.4545	0.	277.26
19238	22.893	1.3636	0.	289.34
19239	22.893	1.4545	5.e-002	7.3276
19240	23.169	1.4545	0.	247.47
19241	23.077	1.3636	0.	258.35
19242	23.077	1.4545	5.e-002	7.3837
19243	23.354	1.4545	0.	219.86
19244	23.262	1.3636	0.	229.28
19245	23.262	1.4545	5.e-002	7.4554
19246	23.539	1.4545	0.	195.18
19247	23.446	1.3636	0.	202.74
19248	23.446	1.4545	5.e-002	7.5447
19249	23.723	1.4545	0.	174.54
19250	23.631	1.3636	0.	179.66
19251	23.631	1.4545	5.e-002	7.6588
19252	23.815	1.3636	0.	161.47
19253	23.815	1.4545	5.e-002	7.8965
19254	23.908	1.4545	0.	159.44
19255	4.3435	1.2727	0.	5002.1
19256	4.2512	1.1818	0.	4781.8
19257	4.2512	1.2727	5.e-002	247.11
19258	4.159	1.2727	0.	4292.6
19259	4.5281	1.2727	0.	4687.1
19260	4.4358	1.1818	0.	4377.9
19261	4.4358	1.2727	5.e-002	150.57
19262	4.7127	1.2727	0.	4573.8
19263	4.6204	1.1818	0.	4295.8
19264	4.6204	1.2727	5.e-002	110.67
19265	4.8972	1.2727	0.	4517.3
19266	4.8049	1.1818	0.	4285.4
19267	4.8049	1.2727	5.e-002	79.69
19268	5.0818	1.2727	0.	4489.6
19269	4.9895	1.1818	0.	4304.3
19270	4.9895	1.2727	5.e-002	59.69
19271	5.2664	1.2727	0.	4474.6
19272	5.1741	1.1818	0.	4331.6
19273	5.1741	1.2727	5.e-002	46.235
19274	5.4509	1.2727	0.	4461.9
19275	5.3586	1.1818	0.	4355.3
19276	5.3586	1.2727	5.e-002	36.825
19277	5.6355	1.2727	0.	4446.2
19278	5.5432	1.1818	0.	4369.7
19279	5.5432	1.2727	5.e-002	29.902
19280	5.8201	1.2727	0.	4425.2
19281	5.7278	1.1818	0.	4373.
19282	5.7278	1.2727	5.e-002	24.657
19283	6.0046	1.2727	0.	4398.2
19284	5.9123	1.1818	0.	4365.5
19285	5.9123	1.2727	5.e-002	20.639
19286	6.1892	1.2727	0.	4365.8
19287	6.0969	1.1818	0.	4348.3
19288	6.0969	1.2727	5.e-002	17.571
19289	6.3738	1.2727	0.	4328.7
19290	6.2815	1.1818	0.	4323.1
19291	6.2815	1.2727	5.e-002	15.265
19292	6.5583	1.2727	0.	4287.8
19293	6.466	1.1818	0.	4291.3
19294	6.466	1.2727	5.e-002	13.569
19295	6.7429	1.2727	0.	4243.9
19296	6.6506	1.1818	0.	4254.4
19297	6.6506	1.2727	5.e-002	12.357
19298	6.9275	1.2727	0.	4197.7
19299	6.8352	1.1818	0.	4213.5
19300	6.8352	1.2727	5.e-002	11.515
19301	7.112	1.2727	0.	4149.9
19302	7.0198	1.1818	0.	4169.6
19303	7.0198	1.2727	5.e-002	10.945
19304	7.2966	1.2727	0.	4100.9
19305	7.2043	1.1818	0.	4123.5
19306	7.2043	1.2727	5.e-002	10.566
19307	7.4812	1.2727	0.	4051.1
19308	7.3889	1.1818	0.	4075.8
19309	7.3889	1.2727	5.e-002	10.316
19310	7.6657	1.2727	0.	4000.7
19311	7.5735	1.1818	0.	4027.
19312	7.5735	1.2727	5.e-002	10.149
19313	7.8503	1.2727	0.	3950.1
19314	7.758	1.1818	0.	3977.3
19315	7.758	1.2727	5.e-002	10.033
19316	8.0349	1.2727	0.	3899.2
19317	7.9426	1.1818	0.	3927.2
19318	7.9426	1.2727	5.e-002	9.947
19319	8.2194	1.2727	0.	3848.2
19320	8.1272	1.1818	0.	3876.6
19321	8.1272	1.2727	5.e-002	9.8787
19322	8.404	1.2727	0.	3797.2
19323	8.3117	1.1818	0.	3825.9
19324	8.3117	1.2727	5.e-002	9.8193
19325	8.5886	1.2727	0.	3746.2
19326	8.4963	1.1818	0.	3775.
19327	8.4963	1.2727	5.e-002	9.7641
19328	8.7731	1.2727	0.	3695.3
19329	8.6809	1.1818	0.	3724.1
19330	8.6809	1.2727	5.e-002	9.7103
19331	8.9577	1.2727	0.	3644.5
19332	8.8654	1.1818	0.	3673.1
19333	8.8654	1.2727	5.e-002	9.6566
19334	9.1423	1.2727	0.	3593.7
19335	9.05	1.1818	0.	3622.2
19336	9.05	1.2727	5.e-002	9.6023
19337	9.3269	1.2727	0.	3543.
19338	9.2346	1.1818	0.	3571.4
19339	9.2346	1.2727	5.e-002	9.5474
19340	9.5114	1.2727	0.	3492.5
19341	9.4191	1.1818	0.	3520.7
19342	9.4191	1.2727	5.e-002	9.4919
19343	9.696	1.2727	0.	3442.
19344	9.6037	1.1818	0.	3470.
19345	9.6037	1.2727	5.e-002	9.4362
19346	9.8806	1.2727	0.	3391.6
19347	9.7883	1.1818	0.	3419.4
19348	9.7883	1.2727	5.e-002	9.3803
19349	10.065	1.2727	0.	3341.4
19350	9.9728	1.1818	0.	3369.
19351	9.9728	1.2727	5.e-002	9.3247
19352	10.25	1.2727	0.	3291.2
19353	10.157	1.1818	0.	3318.6
19354	10.157	1.2727	5.e-002	9.2696
19355	10.434	1.2727	0.	3241.2
19356	10.342	1.1818	0.	3268.4
19357	10.342	1.2727	5.e-002	9.215
19358	10.619	1.2727	0.	3191.2
19359	10.527	1.1818	0.	3218.3
19360	10.527	1.2727	5.e-002	9.1611
19361	10.803	1.2727	0.	3141.4
19362	10.711	1.1818	0.	3168.3
19363	10.711	1.2727	5.e-002	9.1082
19364	10.988	1.2727	0.	3091.7
19365	10.896	1.1818	0.	3118.4
19366	10.896	1.2727	5.e-002	9.0562
19367	11.173	1.2727	0.	3042.2
19368	11.08	1.1818	0.	3068.6
19369	11.08	1.2727	5.e-002	9.0051
19370	11.357	1.2727	0.	2992.7
19371	11.265	1.1818	0.	3019.
19372	11.265	1.2727	5.e-002	8.9551
19373	11.542	1.2727	0.	2943.4
19374	11.449	1.1818	0.	2969.5
19375	11.449	1.2727	5.e-002	8.9061
19376	11.726	1.2727	0.	2894.2
19377	11.634	1.1818	0.	2920.2
19378	11.634	1.2727	5.e-002	8.858
19379	11.911	1.2727	0.	2845.1
19380	11.819	1.1818	0.	2871.
19381	11.819	1.2727	5.e-002	8.8108
19382	12.095	1.2727	0.	2796.2
19383	12.003	1.1818	0.	2821.9
19384	12.003	1.2727	5.e-002	8.7645
19385	12.28	1.2727	0.	2747.4
19386	12.188	1.1818	0.	2773.
19387	12.188	1.2727	5.e-002	8.7192
19388	12.465	1.2727	0.	2698.8
19389	12.372	1.1818	0.	2724.2
19390	12.372	1.2727	5.e-002	8.6748
19391	12.649	1.2727	0.	2650.3
19392	12.557	1.1818	0.	2675.6
19393	12.557	1.2727	5.e-002	8.6311
19394	12.834	1.2727	0.	2602.
19395	12.741	1.1818	0.	2627.2
19396	12.741	1.2727	5.e-002	8.5881
19397	13.018	1.2727	0.	2553.8
19398	12.926	1.1818	0.	2578.9
19399	12.926	1.2727	5.e-002	8.5459
19400	13.203	1.2727	0.	2505.8
19401	13.11	1.1818	0.	2530.7
19402	13.11	1.2727	5.e-002	8.5044
19403	13.387	1.2727	0.	2458.
19404	13.295	1.1818	0.	2482.8
19405	13.295	1.2727	5.e-002	8.4635
19406	13.572	1.2727	0.	2410.3
19407	13.48	1.1818	0.	2435.
19408	13.48	1.2727	5.e-002	8.4232
19409	13.756	1.2727	0.	2362.8
19410	13.664	1.1818	0.	2387.4
19411	13.664	1.2727	5.e-002	8.3835
19412	13.941	1.2727	0.	2315.5
19413	13.849	1.1818	0.	2339.9
19414	13.849	1.2727	5.e-002	8.3444
19415	14.126	1.2727	0.	2268.4
19416	14.033	1.1818	0.	2292.6
19417	14.033	1.2727	5.e-002	8.3058
19418	14.31	1.2727	0.	2221.4
19419	14.218	1.1818	0.	2245.5
19420	14.218	1.2727	5.e-002	8.2676
19421	14.495	1.2727	0.	2174.6
19422	14.402	1.1818	0.	2198.6
19423	14.402	1.2727	5.e-002	8.23
19424	14.679	1.2727	0.	2128.
19425	14.587	1.1818	0.	2151.9
19426	14.587	1.2727	5.e-002	8.1927
19427	14.864	1.2727	0.	2081.6
19428	14.772	1.1818	0.	2105.4
19429	14.772	1.2727	5.e-002	8.1558
19430	15.048	1.2727	0.	2035.3
19431	14.956	1.1818	0.	2059.
19432	14.956	1.2727	5.e-002	8.1194
19433	15.233	1.2727	0.	1989.3
19434	15.141	1.1818	0.	2012.9
19435	15.141	1.2727	5.e-002	8.0833
19436	15.418	1.2727	0.	1943.4
19437	15.325	1.1818	0.	1966.9
19438	15.325	1.2727	5.e-002	8.0477
19439	15.602	1.2727	0.	1897.8
19440	15.51	1.1818	0.	1921.1
19441	15.51	1.2727	5.e-002	8.0123
19442	15.787	1.2727	0.	1852.3
19443	15.694	1.1818	0.	1875.5
19444	15.694	1.2727	5.e-002	7.9774
19445	15.971	1.2727	0.	1807.
19446	15.879	1.1818	0.	1830.1
19447	15.879	1.2727	5.e-002	7.9429
19448	16.156	1.2727	0.	1762.
19449	16.064	1.1818	0.	1785.
19450	16.064	1.2727	5.e-002	7.9087
19451	16.34	1.2727	0.	1717.1
19452	16.248	1.1818	0.	1740.
19453	16.248	1.2727	5.e-002	7.8749
19454	16.525	1.2727	0.	1672.4
19455	16.433	1.1818	0.	1695.2
19456	16.433	1.2727	5.e-002	7.8415
19457	16.71	1.2727	0.	1628.
19458	16.617	1.1818	0.	1650.6
19459	16.617	1.2727	5.e-002	7.8084
19460	16.894	1.2727	0.	1583.7
19461	16.802	1.1818	0.	1606.2
19462	16.802	1.2727	5.e-002	7.7757
19463	17.079	1.2727	0.	1539.7
19464	16.986	1.1818	0.	1562.1
19465	16.986	1.2727	5.e-002	7.7434
19466	17.263	1.2727	0.	1495.9
19467	17.171	1.1818	0.	1518.1
19468	17.171	1.2727	5.e-002	7.7115
19469	17.448	1.2727	0.	1452.2
19470	17.356	1.1818	0.	1474.3
19471	17.356	1.2727	5.e-002	7.6801
19472	17.632	1.2727	0.	1408.8
19473	17.54	1.1818	0.	1430.8
19474	17.54	1.2727	5.e-002	7.6491
19475	17.817	1.2727	0.	1365.6
19476	17.725	1.1818	0.	1387.5
19477	17.725	1.2727	5.e-002	7.6186
19478	18.002	1.2727	0.	1322.7
19479	17.909	1.1818	0.	1344.4
19480	17.909	1.2727	5.e-002	7.5885
19481	18.186	1.2727	0.	1279.9
19482	18.094	1.1818	0.	1301.5
19483	18.094	1.2727	5.e-002	7.5591
19484	18.371	1.2727	0.	1237.4
19485	18.278	1.1818	0.	1258.8
19486	18.278	1.2727	5.e-002	7.5302
19487	18.555	1.2727	0.	1195.1
19488	18.463	1.1818	0.	1216.4
19489	18.463	1.2727	5.e-002	7.5018
19490	18.74	1.2727	0.	1153.
19491	18.648	1.1818	0.	1174.1
19492	18.648	1.2727	5.e-002	7.4742
19493	18.924	1.2727	0.	1111.2
19494	18.832	1.1818	0.	1132.1
19495	18.832	1.2727	5.e-002	7.4472
19496	19.109	1.2727	0.	1069.6
19497	19.017	1.1818	0.	1090.4
19498	19.017	1.2727	5.e-002	7.421
19499	19.294	1.2727	0.	1028.2
19500	19.201	1.1818	0.	1048.8
19501	19.201	1.2727	5.e-002	7.3957
19502	19.478	1.2727	0.	987.1
19503	19.386	1.1818	0.	1007.5
19504	19.386	1.2727	5.e-002	7.3712
19505	19.663	1.2727	0.	946.22
19506	19.57	1.1818	0.	966.44
19507	19.57	1.2727	5.e-002	7.3476
19508	19.847	1.2727	0.	905.58
19509	19.755	1.1818	0.	925.6
19510	19.755	1.2727	5.e-002	7.3251
19511	20.032	1.2727	0.	865.21
19512	19.94	1.1818	0.	885.02
19513	19.94	1.2727	5.e-002	7.3037
19514	20.216	1.2727	0.	825.1
19515	20.124	1.1818	0.	844.68
19516	20.124	1.2727	5.e-002	7.2835
19517	20.401	1.2727	0.	785.25
19518	20.309	1.1818	0.	804.6
19519	20.309	1.2727	5.e-002	7.2647
19520	20.585	1.2727	0.	745.69
19521	20.493	1.1818	0.	764.78
19522	20.493	1.2727	5.e-002	7.2474
19523	20.77	1.2727	0.	706.41
19524	20.678	1.1818	0.	725.23
19525	20.678	1.2727	5.e-002	7.2316
19526	20.955	1.2727	0.	667.44
19527	20.862	1.1818	0.	685.97
19528	20.862	1.2727	5.e-002	7.2177
19529	21.139	1.2727	0.	628.79
19530	21.047	1.1818	0.	647.
19531	21.047	1.2727	5.e-002	7.2057
19532	21.324	1.2727	0.	590.49
19533	21.231	1.1818	0.	608.35
19534	21.231	1.2727	5.e-002	7.196
19535	21.508	1.2727	0.	552.55
19536	21.416	1.1818	0.	570.04
19537	21.416	1.2727	5.e-002	7.1888
19538	21.693	1.2727	0.	515.02
19539	21.601	1.1818	0.	532.09
19540	21.601	1.2727	5.e-002	7.1844
19541	21.877	1.2727	0.	477.95
19542	21.785	1.1818	0.	494.55
19543	21.785	1.2727	5.e-002	7.1833
19544	22.062	1.2727	0.	441.38
19545	21.97	1.1818	0.	457.47
19546	21.97	1.2727	5.e-002	7.1861
19547	22.247	1.2727	0.	405.42
19548	22.154	1.1818	0.	420.91
19549	22.154	1.2727	5.e-002	7.1935
19550	22.431	1.2727	0.	370.15
19551	22.339	1.1818	0.	384.97
19552	22.339	1.2727	5.e-002	7.2066
19553	22.616	1.2727	0.	335.73
19554	22.523	1.1818	0.	349.77
19555	22.523	1.2727	5.e-002	7.2266
19556	22.8	1.2727	0.	302.34
19557	22.708	1.1818	0.	315.47
19558	22.708	1.2727	5.e-002	7.2553
19559	22.985	1.2727	0.	270.26
19560	22.893	1.1818	0.	282.31
19561	22.893	1.2727	5.e-002	7.2952
19562	23.169	1.2727	0.	239.86
19563	23.077	1.1818	0.	250.62
19564	23.077	1.2727	5.e-002	7.3493
19565	23.354	1.2727	0.	211.65
19566	23.262	1.1818	0.	220.84
19567	23.262	1.2727	5.e-002	7.4212
19568	23.539	1.2727	0.	186.43
19569	23.446	1.1818	0.	193.63
19570	23.446	1.2727	5.e-002	7.5145
19571	23.723	1.2727	0.	165.36
19572	23.631	1.1818	0.	169.99
19573	23.631	1.2727	5.e-002	7.639
19574	23.815	1.1818	0.	151.42
19575	23.815	1.2727	5.e-002	7.9159
19576	23.908	1.2727	0.	149.87
19577	4.3435	1.0909	0.	4042.3
19578	4.2512	1.	0.	3808.4
19579	4.2512	1.0909	5.e-002	196.3
19580	4.159	1.0909	0.	3424.1
19581	4.5281	1.0909	0.	3912.3
19582	4.4358	1.	0.	3582.3
19583	4.4358	1.0909	5.e-002	131.31
19584	4.7127	1.0909	0.	3961.9
19585	4.6204	1.	0.	3651.7
19586	4.6204	1.0909	5.e-002	104.43
19587	4.8972	1.0909	0.	4045.9
19588	4.8049	1.	0.	3780.1
19589	4.8049	1.0909	5.e-002	80.474
19590	5.0818	1.0909	0.	4131.3
19591	4.9895	1.	0.	3915.5
19592	4.9895	1.0909	5.e-002	61.725
19593	5.2664	1.0909	0.	4204.
19594	5.1741	1.	0.	4035.4
19595	5.1741	1.0909	5.e-002	47.7
19596	5.4509	1.0909	0.	4258.5
19597	5.3586	1.	0.	4130.8
19598	5.3586	1.0909	5.e-002	37.224
19599	5.6355	1.0909	0.	4293.9
19600	5.5432	1.	0.	4200.4
19601	5.5432	1.0909	5.e-002	29.321
19602	5.8201	1.0909	0.	4311.9
19603	5.7278	1.	0.	4246.
19604	5.7278	1.0909	5.e-002	23.308
19605	6.0046	1.0909	0.	4314.9
19606	5.9123	1.	0.	4271.
19607	5.9123	1.0909	5.e-002	18.745
19608	6.1892	1.0909	0.	4305.3
19609	6.0969	1.	0.	4278.8
19610	6.0969	1.0909	5.e-002	15.343
19611	6.3738	1.0909	0.	4285.6
19612	6.2815	1.	0.	4272.8
19613	6.2815	1.0909	5.e-002	12.897
19614	6.5583	1.0909	0.	4257.9
19615	6.466	1.	0.	4255.7
19616	6.466	1.0909	5.e-002	11.236
19617	6.7429	1.0909	0.	4224.
19618	6.6506	1.	0.	4230.
19619	6.6506	1.0909	5.e-002	10.196
19620	6.9275	1.0909	0.	4185.5
19621	6.8352	1.	0.	4197.7
19622	6.8352	1.0909	5.e-002	9.6118
19623	7.112	1.0909	0.	4143.3
19624	7.0198	1.	0.	4160.3
19625	7.0198	1.0909	5.e-002	9.3335
19626	7.2966	1.0909	0.	4098.5
19627	7.2043	1.	0.	4119.
19628	7.2043	1.0909	5.e-002	9.2395
19629	7.4812	1.0909	0.	4051.8
19630	7.3889	1.	0.	4074.9
19631	7.3889	1.0909	5.e-002	9.2442
19632	7.6657	1.0909	0.	4003.6
19633	7.5735	1.	0.	4028.7
19634	7.5735	1.0909	5.e-002	9.2932
19635	7.8503	1.0909	0.	3954.5
19636	7.758	1.	0.	3980.9
19637	7.758	1.0909	5.e-002	9.3551
19638	8.0349	1.0909	0.	3904.6
19639	7.9426	1.	0.	3932.
19640	7.9426	1.0909	5.e-002	9.4127
19641	8.2194	1.0909	0.	3854.3
19642	8.1272	1.	0.	3882.3
19643	8.1272	1.0909	5.e-002	9.4581
19644	8.404	1.0909	0.	3803.6
19645	8.3117	1.	0.	3832.
19646	8.3117	1.0909	5.e-002	9.4885
19647	8.5886	1.0909	0.	3752.8
19648	8.4963	1.	0.	3781.4
19649	8.4963	1.0909	5.e-002	9.5037
19650	8.7731	1.0909	0.	3701.9
19651	8.6809	1.	0.	3730.6
19652	8.6809	1.0909	5.e-002	9.5051
19653	8.9577	1.0909	0.	3650.9
19654	8.8654	1.	0.	3679.7
19655	8.8654	1.0909	5.e-002	9.4945
19656	9.1423	1.0909	0.	3600.
19657	9.05	1.	0.	3628.6
19658	9.05	1.0909	5.e-002	9.4741
19659	9.3269	1.0909	0.	3549.1
19660	9.2346	1.	0.	3577.6
19661	9.2346	1.0909	5.e-002	9.4456
19662	9.5114	1.0909	0.	3498.2
19663	9.4191	1.	0.	3526.6
19664	9.4191	1.0909	5.e-002	9.4108
19665	9.696	1.0909	0.	3447.5
19666	9.6037	1.	0.	3475.7
19667	9.6037	1.0909	5.e-002	9.3712
19668	9.8806	1.0909	0.	3396.8
19669	9.7883	1.	0.	3424.9
19670	9.7883	1.0909	5.e-002	9.3281
19671	10.065	1.0909	0.	3346.3
19672	9.9728	1.	0.	3374.1
19673	9.9728	1.0909	5.e-002	9.2825
19674	10.25	1.0909	0.	3295.8
19675	10.157	1.	0.	3323.5
19676	10.157	1.0909	5.e-002	9.2352
19677	10.434	1.0909	0.	3245.5
19678	10.342	1.	0.	3273.
19679	10.342	1.0909	5.e-002	9.1868
19680	10.619	1.0909	0.	3195.3
19681	10.527	1.	0.	3222.6
19682	10.527	1.0909	5.e-002	9.1378
19683	10.803	1.0909	0.	3145.3
19684	10.711	1.	0.	3172.3
19685	10.711	1.0909	5.e-002	9.0888
19686	10.988	1.0909	0.	3095.3
19687	10.896	1.	0.	3122.2
19688	10.896	1.0909	5.e-002	9.0399
19689	11.173	1.0909	0.	3045.5
19690	11.08	1.	0.	3072.3
19691	11.08	1.0909	5.e-002	8.9913
19692	11.357	1.0909	0.	2995.9
19693	11.265	1.	0.	3022.4
19694	11.265	1.0909	5.e-002	8.9433
19695	11.542	1.0909	0.	2946.4
19696	11.449	1.	0.	2972.7
19697	11.449	1.0909	5.e-002	8.8959
19698	11.726	1.0909	0.	2897.
19699	11.634	1.	0.	2923.2
19700	11.634	1.0909	5.e-002	8.8491
19701	11.911	1.0909	0.	2847.8
19702	11.819	1.	0.	2873.8
19703	11.819	1.0909	5.e-002	8.803
19704	12.095	1.0909	0.	2798.7
19705	12.003	1.	0.	2824.6
19706	12.003	1.0909	5.e-002	8.7577
19707	12.28	1.0909	0.	2749.8
19708	12.188	1.	0.	2775.5
19709	12.188	1.0909	5.e-002	8.7131
19710	12.465	1.0909	0.	2701.1
19711	12.372	1.	0.	2726.6
19712	12.372	1.0909	5.e-002	8.6693
19713	12.649	1.0909	0.	2652.5
19714	12.557	1.	0.	2677.9
19715	12.557	1.0909	5.e-002	8.6261
19716	12.834	1.0909	0.	2604.1
19717	12.741	1.	0.	2629.3
19718	12.741	1.0909	5.e-002	8.5836
19719	13.018	1.0909	0.	2555.8
19720	12.926	1.	0.	2580.9
19721	12.926	1.0909	5.e-002	8.5418
19722	13.203	1.0909	0.	2507.7
19723	13.11	1.	0.	2532.7
19724	13.11	1.0909	5.e-002	8.5006
19725	13.387	1.0909	0.	2459.8
19726	13.295	1.	0.	2484.7
19727	13.295	1.0909	5.e-002	8.4601
19728	13.572	1.0909	0.	2412.
19729	13.48	1.	0.	2436.8
19730	13.48	1.0909	5.e-002	8.42
19731	13.756	1.0909	0.	2364.5
19732	13.664	1.	0.	2389.1
19733	13.664	1.0909	5.e-002	8.3806
19734	13.941	1.0909	0.	2317.1
19735	13.849	1.	0.	2341.6
19736	13.849	1.0909	5.e-002	8.3417
19737	14.126	1.0909	0.	2269.9
19738	14.033	1.	0.	2294.2
19739	14.033	1.0909	5.e-002	8.3032
19740	14.31	1.0909	0.	2222.8
19741	14.218	1.	0.	2247.1
19742	14.218	1.0909	5.e-002	8.2652
19743	14.495	1.0909	0.	2176.
19744	14.402	1.	0.	2200.1
19745	14.402	1.0909	5.e-002	8.2277
19746	14.679	1.0909	0.	2129.3
19747	14.587	1.	0.	2153.3
19748	14.587	1.0909	5.e-002	8.1906
19749	14.864	1.0909	0.	2082.9
19750	14.772	1.	0.	2106.7
19751	14.772	1.0909	5.e-002	8.1538
19752	15.048	1.0909	0.	2036.6
19753	14.956	1.	0.	2060.4
19754	14.956	1.0909	5.e-002	8.1175
19755	15.233	1.0909	0.	1990.5
19756	15.141	1.	0.	2014.1
19757	15.141	1.0909	5.e-002	8.0815
19758	15.418	1.0909	0.	1944.6
19759	15.325	1.	0.	1968.1
19760	15.325	1.0909	5.e-002	8.0459
19761	15.602	1.0909	0.	1898.9
19762	15.51	1.	0.	1922.3
19763	15.51	1.0909	5.e-002	8.0106
19764	15.787	1.0909	0.	1853.4
19765	15.694	1.	0.	1876.7
19766	15.694	1.0909	5.e-002	7.9758
19767	15.971	1.0909	0.	1808.1
19768	15.879	1.	0.	1831.3
19769	15.879	1.0909	5.e-002	7.9413
19770	16.156	1.0909	0.	1763.
19771	16.064	1.	0.	1786.1
19772	16.064	1.0909	5.e-002	7.9071
19773	16.34	1.0909	0.	1718.1
19774	16.248	1.	0.	1741.
19775	16.248	1.0909	5.e-002	7.8733
19776	16.525	1.0909	0.	1673.4
19777	16.433	1.	0.	1696.2
19778	16.433	1.0909	5.e-002	7.8399
19779	16.71	1.0909	0.	1628.9
19780	16.617	1.	0.	1651.6
19781	16.617	1.0909	5.e-002	7.8069
19782	16.894	1.0909	0.	1584.6
19783	16.802	1.	0.	1607.2
19784	16.802	1.0909	5.e-002	7.7741
19785	17.079	1.0909	0.	1540.5
19786	16.986	1.	0.	1563.
19787	16.986	1.0909	5.e-002	7.7418
19788	17.263	1.0909	0.	1496.6
19789	17.171	1.	0.	1519.
19790	17.171	1.0909	5.e-002	7.7099
19791	17.448	1.0909	0.	1453.
19792	17.356	1.	0.	1475.2
19793	17.356	1.0909	5.e-002	7.6784
19794	17.632	1.0909	0.	1409.5
19795	17.54	1.	0.	1431.6
19796	17.54	1.0909	5.e-002	7.6474
19797	17.817	1.0909	0.	1366.3
19798	17.725	1.	0.	1388.2
19799	17.725	1.0909	5.e-002	7.6168
19800	18.002	1.0909	0.	1323.2
19801	17.909	1.	0.	1345.
19802	17.909	1.0909	5.e-002	7.5867
19803	18.186	1.0909	0.	1280.4
19804	18.094	1.	0.	1302.1
19805	18.094	1.0909	5.e-002	7.5571
19806	18.371	1.0909	0.	1237.8
19807	18.278	1.	0.	1259.4
19808	18.278	1.0909	5.e-002	7.5281
19809	18.555	1.0909	0.	1195.5
19810	18.463	1.	0.	1216.8
19811	18.463	1.0909	5.e-002	7.4996
19812	18.74	1.0909	0.	1153.3
19813	18.648	1.	0.	1174.5
19814	18.648	1.0909	5.e-002	7.4718
19815	18.924	1.0909	0.	1111.4
19816	18.832	1.	0.	1132.4
19817	18.832	1.0909	5.e-002	7.4447
19818	19.109	1.0909	0.	1069.7
19819	19.017	1.	0.	1090.5
19820	19.017	1.0909	5.e-002	7.4183
19821	19.294	1.0909	0.	1028.2
19822	19.201	1.	0.	1048.9
19823	19.201	1.0909	5.e-002	7.3927
19824	19.478	1.0909	0.	986.91
19825	19.386	1.	0.	1007.5
19826	19.386	1.0909	5.e-002	7.368
19827	19.663	1.0909	0.	945.89
19828	19.57	1.	0.	966.25
19829	19.57	1.0909	5.e-002	7.3441
19830	19.847	1.0909	0.	905.1
19831	19.755	1.	0.	925.27
19832	19.755	1.0909	5.e-002	7.3212
19833	20.032	1.0909	0.	864.55
19834	19.94	1.	0.	884.51
19835	19.94	1.0909	5.e-002	7.2994
19836	20.216	1.0909	0.	824.25
19837	20.124	1.	0.	843.99
19838	20.124	1.0909	5.e-002	7.2788
19839	20.401	1.0909	0.	784.19
19840	20.309	1.	0.	803.71
19841	20.309	1.0909	5.e-002	7.2595
19842	20.585	1.0909	0.	744.39
19843	20.493	1.	0.	763.66
19844	20.493	1.0909	5.e-002	7.2415
19845	20.77	1.0909	0.	704.86
19846	20.678	1.	0.	723.87
19847	20.678	1.0909	5.e-002	7.225
19848	20.955	1.0909	0.	665.6
19849	20.862	1.	0.	684.33
19850	20.862	1.0909	5.e-002	7.2101
19851	21.139	1.0909	0.	626.63
19852	21.047	1.	0.	645.06
19853	21.047	1.0909	5.e-002	7.1971
19854	21.324	1.0909	0.	587.98
19855	21.231	1.	0.	606.07
19856	21.231	1.0909	5.e-002	7.1861
19857	21.508	1.0909	0.	549.65
19858	21.416	1.	0.	567.38
19859	21.416	1.0909	5.e-002	7.1774
19860	21.693	1.0909	0.	511.7
19861	21.601	1.	0.	529.02
19862	21.601	1.0909	5.e-002	7.1712
19863	21.877	1.0909	0.	474.15
19864	21.785	1.	0.	491.02
19865	21.785	1.0909	5.e-002	7.168
19866	22.062	1.0909	0.	437.06
19867	21.97	1.	0.	453.42
19868	21.97	1.0909	5.e-002	7.1683
19869	22.247	1.0909	0.	400.52
19870	22.154	1.	0.	416.29
19871	22.154	1.0909	5.e-002	7.1727
19872	22.431	1.0909	0.	364.63
19873	22.339	1.	0.	379.71
19874	22.339	1.0909	5.e-002	7.1822
19875	22.616	1.0909	0.	329.52
19876	22.523	1.	0.	343.8
19877	22.523	1.0909	5.e-002	7.1982
19878	22.8	1.0909	0.	295.4
19879	22.708	1.	0.	308.72
19880	22.708	1.0909	5.e-002	7.2225
19881	22.985	1.0909	0.	262.55
19882	22.893	1.	0.	274.72
19883	22.893	1.0909	5.e-002	7.258
19884	23.169	1.0909	0.	231.35
19885	23.077	1.	0.	242.13
19886	23.077	1.0909	5.e-002	7.3084
19887	23.354	1.0909	0.	202.37
19888	23.262	1.	0.	211.43
19889	23.262	1.0909	5.e-002	7.3789
19890	23.539	1.0909	0.	176.43
19891	23.446	1.	0.	183.33
19892	23.446	1.0909	5.e-002	7.4754
19893	23.723	1.0909	0.	154.81
19894	23.631	1.	0.	158.91
19895	23.631	1.0909	5.e-002	7.612
19896	23.815	1.	0.	139.84
19897	23.815	1.0909	5.e-002	7.9342
19898	23.908	1.0909	0.	138.81
19899	4.3435	0.90909	0.	3252.4
19900	4.2512	0.81818	0.	3005.2
19901	4.2512	0.90909	5.e-002	163.25
19902	4.159	0.90909	0.	2723.1
19903	4.5281	0.90909	0.	3256.9
19904	4.4358	0.81818	0.	2915.7
19905	4.4358	0.90909	5.e-002	116.
19906	4.7127	0.90909	0.	3429.1
19907	4.6204	0.81818	0.	3101.7
19908	4.6204	0.90909	5.e-002	98.126
19909	4.8972	0.90909	0.	3625.6
19910	4.8049	0.81818	0.	3341.2
19911	4.8049	0.90909	5.e-002	79.863
19912	5.0818	0.90909	0.	3805.8
19913	4.9895	0.81818	0.	3572.1
19914	4.9895	0.90909	5.e-002	63.489
19915	5.2664	0.90909	0.	3954.4
19916	5.1741	0.81818	0.	3769.4
19917	5.1741	0.90909	5.e-002	49.817
19918	5.4509	0.90909	0.	4068.3
19919	5.3586	0.81818	0.	3926.2
19920	5.3586	0.90909	5.e-002	38.802
19921	5.6355	0.90909	0.	4150.
19922	5.5432	0.81818	0.	4043.9
19923	5.5432	0.90909	5.e-002	30.058
19924	5.8201	0.90909	0.	4203.7
19925	5.7278	0.81818	0.	4127.1
19926	5.7278	0.90909	5.e-002	23.182
19927	6.0046	0.90909	0.	4234.2
19928	5.9123	0.81818	0.	4181.3
19929	5.9123	0.90909	5.e-002	17.847
19930	6.1892	0.90909	0.	4246.
19931	6.0969	0.81818	0.	4212.
19932	6.0969	0.90909	5.e-002	13.815
19933	6.3738	0.90909	0.	4242.8
19934	6.2815	0.81818	0.	4223.7
19935	6.2815	0.90909	5.e-002	10.921
19936	6.5583	0.90909	0.	4227.8
19937	6.466	0.81818	0.	4220.4
19938	6.466	0.90909	5.e-002	9.0395
19939	6.7429	0.90909	0.	4203.7
19940	6.6506	0.81818	0.	4205.5
19941	6.6506	0.90909	5.e-002	8.0187
19942	6.9275	0.90909	0.	4172.5
19943	6.8352	0.81818	0.	4181.4
19944	6.8352	0.90909	5.e-002	7.6425
19945	7.112	0.90909	0.	4136.
19946	7.0198	0.81818	0.	4150.3
19947	7.0198	0.90909	5.e-002	7.6638
19948	7.2966	0.90909	0.	4095.4
19949	7.2043	0.81818	0.	4113.8
19950	7.2043	0.90909	5.e-002	7.8795
19951	7.4812	0.90909	0.	4051.8
19952	7.3889	0.81818	0.	4073.3
19953	7.3889	0.90909	5.e-002	8.1609
19954	7.6657	0.90909	0.	4006.
19955	7.5735	0.81818	0.	4029.7
19956	7.5735	0.90909	5.e-002	8.4403
19957	7.8503	0.90909	0.	3958.4
19958	7.758	0.81818	0.	3983.9
19959	7.758	0.90909	5.e-002	8.6869
19960	8.0349	0.90909	0.	3909.7
19961	7.9426	0.81818	0.	3936.4
19962	7.9426	0.90909	5.e-002	8.8902
19963	8.2194	0.90909	0.	3860.1
19964	8.1272	0.81818	0.	3887.6
19965	8.1272	0.90909	5.e-002	9.0496
19966	8.404	0.90909	0.	3809.9
19967	8.3117	0.81818	0.	3838.
19968	8.3117	0.90909	5.e-002	9.1687
19969	8.5886	0.90909	0.	3759.3
19970	8.4963	0.81818	0.	3787.8
19971	8.4963	0.90909	5.e-002	9.2528
19972	8.7731	0.90909	0.	3708.4
19973	8.6809	0.81818	0.	3737.1
19974	8.6809	0.90909	5.e-002	9.3078
19975	8.9577	0.90909	0.	3657.4
19976	8.8654	0.81818	0.	3686.2
19977	8.8654	0.90909	5.e-002	9.3389
19978	9.1423	0.90909	0.	3606.3
19979	9.05	0.81818	0.	3635.1
19980	9.05	0.90909	5.e-002	9.3509
19981	9.3269	0.90909	0.	3555.2
19982	9.2346	0.81818	0.	3583.9
19983	9.2346	0.90909	5.e-002	9.3477
19984	9.5114	0.90909	0.	3504.1
19985	9.4191	0.81818	0.	3532.7
19986	9.4191	0.90909	5.e-002	9.3326
19987	9.696	0.90909	0.	3453.1
19988	9.6037	0.81818	0.	3481.6
19989	9.6037	0.90909	5.e-002	9.3085
19990	9.8806	0.90909	0.	3402.2
19991	9.7883	0.81818	0.	3430.5
19992	9.7883	0.90909	5.e-002	9.2774
19993	10.065	0.90909	0.	3351.4
19994	9.9728	0.81818	0.	3379.5
19995	9.9728	0.90909	5.e-002	9.2413
19996	10.25	0.90909	0.	3300.7
19997	10.157	0.81818	0.	3328.6
19998	10.157	0.90909	5.e-002	9.2014
19999	10.434	0.90909	0.	3250.1
20000	10.342	0.81818	0.	3277.8
20001	10.342	0.90909	5.e-002	9.1589
20002	10.619	0.90909	0.	3199.6
20003	10.527	0.81818	0.	3227.1
20004	10.527	0.90909	5.e-002	9.1146
20005	10.803	0.90909	0.	3149.3
20006	10.711	0.81818	0.	3176.6
20007	10.711	0.90909	5.e-002	9.0693
20008	10.988	0.90909	0.	3099.2
20009	10.896	0.81818	0.	3126.3
20010	10.896	0.90909	5.e-002	9.0234
20011	11.173	0.90909	0.	3049.2
20012	11.08	0.81818	0.	3076.1
20013	11.08	0.90909	5.e-002	8.9772
20014	11.357	0.90909	0.	2999.3
20015	11.265	0.81818	0.	3026.
20016	11.265	0.90909	5.e-002	8.9311
20017	11.542	0.90909	0.	2949.6
20018	11.449	0.81818	0.	2976.1
20019	11.449	0.90909	5.e-002	8.8852
20020	11.726	0.90909	0.	2900.
20021	11.634	0.81818	0.	2926.4
20022	11.634	0.90909	5.e-002	8.8398
20023	11.911	0.90909	0.	2850.7
20024	11.819	0.81818	0.	2876.9
20025	11.819	0.90909	5.e-002	8.7947
20026	12.095	0.90909	0.	2801.4
20027	12.003	0.81818	0.	2827.5
20028	12.003	0.90909	5.e-002	8.7503
20029	12.28	0.90909	0.	2752.4
20030	12.188	0.81818	0.	2778.3
20031	12.188	0.90909	5.e-002	8.7064
20032	12.465	0.90909	0.	2703.5
20033	12.372	0.81818	0.	2729.2
20034	12.372	0.90909	5.e-002	8.6633
20035	12.649	0.90909	0.	2654.8
20036	12.557	0.81818	0.	2680.4
20037	12.557	0.90909	5.e-002	8.6207
20038	12.834	0.90909	0.	2606.3
20039	12.741	0.81818	0.	2631.7
20040	12.741	0.90909	5.e-002	8.5786
20041	13.018	0.90909	0.	2557.9
20042	12.926	0.81818	0.	2583.2
20043	12.926	0.90909	5.e-002	8.5373
20044	13.203	0.90909	0.	2509.7
20045	13.11	0.81818	0.	2534.8
20046	13.11	0.90909	5.e-002	8.4964
20047	13.387	0.90909	0.	2461.7
20048	13.295	0.81818	0.	2486.7
20049	13.295	0.90909	5.e-002	8.4562
20050	13.572	0.90909	0.	2413.9
20051	13.48	0.81818	0.	2438.7
20052	13.48	0.90909	5.e-002	8.4164
20053	13.756	0.90909	0.	2366.2
20054	13.664	0.81818	0.	2391.
20055	13.664	0.90909	5.e-002	8.3772
20056	13.941	0.90909	0.	2318.8
20057	13.849	0.81818	0.	2343.4
20058	13.849	0.90909	5.e-002	8.3385
20059	14.126	0.90909	0.	2271.5
20060	14.033	0.81818	0.	2296.
20061	14.033	0.90909	5.e-002	8.3003
20062	14.31	0.90909	0.	2224.4
20063	14.218	0.81818	0.	2248.8
20064	14.218	0.90909	5.e-002	8.2624
20065	14.495	0.90909	0.	2177.5
20066	14.402	0.81818	0.	2201.7
20067	14.402	0.90909	5.e-002	8.2251
20068	14.679	0.90909	0.	2130.8
20069	14.587	0.81818	0.	2154.9
20070	14.587	0.90909	5.e-002	8.1881
20071	14.864	0.90909	0.	2084.3
20072	14.772	0.81818	0.	2108.3
20073	14.772	0.90909	5.e-002	8.1514
20074	15.048	0.90909	0.	2038.
20075	14.956	0.81818	0.	2061.8
20076	14.956	0.90909	5.e-002	8.1152
20077	15.233	0.90909	0.	1991.8
20078	15.141	0.81818	0.	2015.6
20079	15.141	0.90909	5.e-002	8.0793
20080	15.418	0.90909	0.	1945.9
20081	15.325	0.81818	0.	1969.5
20082	15.325	0.90909	5.e-002	8.0438
20083	15.602	0.90909	0.	1900.2
20084	15.51	0.81818	0.	1923.7
20085	15.51	0.90909	5.e-002	8.0086
20086	15.787	0.90909	0.	1854.6
20087	15.694	0.81818	0.	1878.
20088	15.694	0.90909	5.e-002	7.9738
20089	15.971	0.90909	0.	1809.3
20090	15.879	0.81818	0.	1832.5
20091	15.879	0.90909	5.e-002	7.9394
20092	16.156	0.90909	0.	1764.1
20093	16.064	0.81818	0.	1787.3
20094	16.064	0.90909	5.e-002	7.9053
20095	16.34	0.90909	0.	1719.2
20096	16.248	0.81818	0.	1742.2
20097	16.248	0.90909	5.e-002	7.8715
20098	16.525	0.90909	0.	1674.5
20099	16.433	0.81818	0.	1697.4
20100	16.433	0.90909	5.e-002	7.8381
20101	16.71	0.90909	0.	1629.9
20102	16.617	0.81818	0.	1652.7
20103	16.617	0.90909	5.e-002	7.805
20104	16.894	0.90909	0.	1585.6
20105	16.802	0.81818	0.	1608.3
20106	16.802	0.90909	5.e-002	7.7723
20107	17.079	0.90909	0.	1541.5
20108	16.986	0.81818	0.	1564.
20109	16.986	0.90909	5.e-002	7.7399
20110	17.263	0.90909	0.	1497.6
20111	17.171	0.81818	0.	1520.
20112	17.171	0.90909	5.e-002	7.708
20113	17.448	0.90909	0.	1453.8
20114	17.356	0.81818	0.	1476.1
20115	17.356	0.90909	5.e-002	7.6764
20116	17.632	0.90909	0.	1410.3
20117	17.54	0.81818	0.	1432.5
20118	17.54	0.90909	5.e-002	7.6453
20119	17.817	0.90909	0.	1367.
20120	17.725	0.81818	0.	1389.1
20121	17.725	0.90909	5.e-002	7.6146
20122	18.002	0.90909	0.	1323.9
20123	17.909	0.81818	0.	1345.8
20124	17.909	0.90909	5.e-002	7.5845
20125	18.186	0.90909	0.	1281.1
20126	18.094	0.81818	0.	1302.8
20127	18.094	0.90909	5.e-002	7.5548
20128	18.371	0.90909	0.	1238.4
20129	18.278	0.81818	0.	1260.
20130	18.278	0.90909	5.e-002	7.5256
20131	18.555	0.90909	0.	1195.9
20132	18.463	0.81818	0.	1217.4
20133	18.463	0.90909	5.e-002	7.497
20134	18.74	0.90909	0.	1153.7
20135	18.648	0.81818	0.	1175.
20136	18.648	0.90909	5.e-002	7.4691
20137	18.924	0.90909	0.	1111.7
20138	18.832	0.81818	0.	1132.8
20139	18.832	0.90909	5.e-002	7.4418
20140	19.109	0.90909	0.	1069.8
20141	19.017	0.81818	0.	1090.9
20142	19.017	0.90909	5.e-002	7.4152
20143	19.294	0.90909	0.	1028.2
20144	19.201	0.81818	0.	1049.1
20145	19.201	0.90909	5.e-002	7.3893
20146	19.478	0.90909	0.	986.86
20147	19.386	0.81818	0.	1007.6
20148	19.386	0.90909	5.e-002	7.3643
20149	19.663	0.90909	0.	945.69
20150	19.57	0.81818	0.	966.21
20151	19.57	0.90909	5.e-002	7.3401
20152	19.847	0.90909	0.	904.75
20153	19.755	0.81818	0.	925.08
20154	19.755	0.90909	5.e-002	7.3169
20155	20.032	0.90909	0.	864.02
20156	19.94	0.81818	0.	884.16
20157	19.94	0.90909	5.e-002	7.2947
20158	20.216	0.90909	0.	823.52
20159	20.124	0.81818	0.	843.46
20160	20.124	0.90909	5.e-002	7.2736
20161	20.401	0.90909	0.	783.25
20162	20.309	0.81818	0.	802.97
20163	20.309	0.90909	5.e-002	7.2536
20164	20.585	0.90909	0.	743.22
20165	20.493	0.81818	0.	762.71
20166	20.493	0.90909	5.e-002	7.235
20167	20.77	0.90909	0.	703.42
20168	20.678	0.81818	0.	722.67
20169	20.678	0.90909	5.e-002	7.2177
20170	20.955	0.90909	0.	663.87
20171	20.862	0.81818	0.	682.85
20172	20.862	0.90909	5.e-002	7.202
20173	21.139	0.90909	0.	624.58
20174	21.047	0.81818	0.	643.28
20175	21.047	0.90909	5.e-002	7.1879
20176	21.324	0.90909	0.	585.56
20177	21.231	0.81818	0.	603.95
20178	21.231	0.90909	5.e-002	7.1756
20179	21.508	0.90909	0.	546.84
20180	21.416	0.81818	0.	564.88
20181	21.416	0.90909	5.e-002	7.1654
20182	21.693	0.90909	0.	508.43
20183	21.601	0.81818	0.	526.09
20184	21.601	0.90909	5.e-002	7.1573
20185	21.877	0.90909	0.	470.38
20186	21.785	0.81818	0.	487.6
20187	21.785	0.90909	5.e-002	7.1519
20188	22.062	0.90909	0.	432.73
20189	21.97	0.81818	0.	449.46
20190	21.97	0.90909	5.e-002	7.1495
20191	22.247	0.90909	0.	395.56
20192	22.154	0.81818	0.	411.72
20193	22.154	0.90909	5.e-002	7.1507
20194	22.431	0.90909	0.	358.95
20195	22.339	0.81818	0.	374.45
20196	22.339	0.90909	5.e-002	7.1563
20197	22.616	0.90909	0.	323.05
20198	22.523	0.81818	0.	337.75
20199	22.523	0.90909	5.e-002	7.1676
20200	22.8	0.90909	0.	288.06
20201	22.708	0.81818	0.	301.78
20202	22.708	0.90909	5.e-002	7.1865
20203	22.985	0.90909	0.	254.24
20204	22.893	0.81818	0.	266.76
20205	22.893	0.90909	5.e-002	7.2159
20206	23.169	0.90909	0.	222.03
20207	23.077	0.81818	0.	233.04
20208	23.077	0.90909	5.e-002	7.2604
20209	23.354	0.90909	0.	192.01
20210	23.262	0.81818	0.	201.12
20211	23.262	0.90909	5.e-002	7.3268
20212	23.539	0.90909	0.	165.1
20213	23.446	0.81818	0.	171.8
20214	23.446	0.90909	5.e-002	7.4244
20215	23.723	0.90909	0.	142.7
20216	23.631	0.81818	0.	146.27
20217	23.631	0.90909	5.e-002	7.5741
20218	23.815	0.81818	0.	126.49
20219	23.815	0.90909	5.e-002	7.9491
20220	23.908	0.90909	0.	126.06
20221	4.3435	0.72727	0.	2582.2
20222	4.2512	0.63636	0.	2315.4
20223	4.2512	0.72727	5.e-002	139.93
20224	4.159	0.72727	0.	2128.
20225	4.5281	0.72727	0.	2704.8
20226	4.4358	0.63636	0.	2354.7
20227	4.4358	0.72727	5.e-002	105.78
20228	4.7127	0.72727	0.	2980.5
20229	4.6204	0.63636	0.	2647.
20230	4.6204	0.72727	5.e-002	93.164
20231	4.8972	0.72727	0.	3268.4
20232	4.8049	0.63636	0.	2978.8
20233	4.8049	0.72727	5.e-002	78.767
20234	5.0818	0.72727	0.	3524.7
20235	4.9895	0.63636	0.	3284.9
20236	4.9895	0.72727	5.e-002	64.547
20237	5.2664	0.72727	0.	3734.9
20238	5.1741	0.63636	0.	3542.9
20239	5.1741	0.72727	5.e-002	51.669
20240	5.4509	0.72727	0.	3898.1
20241	5.3586	0.63636	0.	3748.3
20242	5.3586	0.72727	5.e-002	40.602
20243	5.6355	0.72727	0.	4018.9
20244	5.5432	0.63636	0.	3905.
20245	5.5432	0.72727	5.e-002	31.379
20246	5.8201	0.72727	0.	4103.5
20247	5.7278	0.63636	0.	4019.5
20248	5.7278	0.72727	5.e-002	23.846
20249	6.0046	0.72727	0.	4158.4
20250	5.9123	0.63636	0.	4098.8
20251	5.9123	0.72727	5.e-002	17.802
20252	6.1892	0.72727	0.	4189.4
20253	6.0969	0.63636	0.	4149.4
20254	6.0969	0.72727	5.e-002	13.069
20255	6.3738	0.72727	0.	4201.2
20256	6.2815	0.63636	0.	4177.
20257	6.2815	0.72727	5.e-002	9.5262
20258	6.5583	0.72727	0.	4198.
20259	6.466	0.63636	0.	4186.3
20260	6.466	0.72727	5.e-002	7.1364
20261	6.7429	0.72727	0.	4183.1
20262	6.6506	0.63636	0.	4181.2
20263	6.6506	0.72727	5.e-002	5.896
20264	6.9275	0.72727	0.	4159.1
20265	6.8352	0.63636	0.	4164.9
20266	6.8352	0.72727	5.e-002	5.6432
20267	7.112	0.72727	0.	4128.1
20268	7.0198	0.63636	0.	4139.8
20269	7.0198	0.72727	5.e-002	5.9828
20270	7.2966	0.72727	0.	4091.7
20271	7.2043	0.63636	0.	4108.1
20272	7.2043	0.72727	5.e-002	6.5423
20273	7.4812	0.72727	0.	4051.3
20274	7.3889	0.63636	0.	4071.2
20275	7.3889	0.72727	5.e-002	7.1198
20276	7.6657	0.72727	0.	4007.7
20277	7.5735	0.63636	0.	4030.3
20278	7.5735	0.72727	5.e-002	7.6347
20279	7.8503	0.72727	0.	3961.9
20280	7.758	0.63636	0.	3986.5
20281	7.758	0.72727	5.e-002	8.0636
20282	8.0349	0.72727	0.	3914.4
20283	7.9426	0.63636	0.	3940.4
20284	7.9426	0.72727	5.e-002	8.4068
20285	8.2194	0.72727	0.	3865.6
20286	8.1272	0.63636	0.	3892.7
20287	8.1272	0.72727	5.e-002	8.6734
20288	8.404	0.72727	0.	3816.
20289	8.3117	0.63636	0.	3843.8
20290	8.3117	0.72727	5.e-002	8.8748
20291	8.5886	0.72727	0.	3765.7
20292	8.4963	0.63636	0.	3794.
20293	8.4963	0.72727	5.e-002	9.0224
20294	8.7731	0.72727	0.	3714.9
20295	8.6809	0.63636	0.	3743.5
20296	8.6809	0.72727	5.e-002	9.1264
20297	8.9577	0.72727	0.	3663.9
20298	8.8654	0.63636	0.	3692.7
20299	8.8654	0.72727	5.e-002	9.1953
20300	9.1423	0.72727	0.	3612.7
20301	9.05	0.63636	0.	3641.6
20302	9.05	0.72727	5.e-002	9.2366
20303	9.3269	0.72727	0.	3561.5
20304	9.2346	0.63636	0.	3590.3
20305	9.2346	0.72727	5.e-002	9.2562
20306	9.5114	0.72727	0.	3510.2
20307	9.4191	0.63636	0.	3538.9
20308	9.4191	0.72727	5.e-002	9.2589
20309	9.696	0.72727	0.	3458.9
20310	9.6037	0.63636	0.	3487.5
20311	9.6037	0.72727	5.e-002	9.2486
20312	9.8806	0.72727	0.	3407.7
20313	9.7883	0.63636	0.	3436.2
20314	9.7883	0.72727	5.e-002	9.2285
20315	10.065	0.72727	0.	3356.7
20316	9.9728	0.63636	0.	3384.9
20317	9.9728	0.72727	5.e-002	9.2008
20318	10.25	0.72727	0.	3305.7
20319	10.157	0.63636	0.	3333.8
20320	10.157	0.72727	5.e-002	9.1677
20321	10.434	0.72727	0.	3254.8
20322	10.342	0.63636	0.	3282.7
20323	10.342	0.72727	5.e-002	9.1305
20324	10.619	0.72727	0.	3204.1
20325	10.527	0.63636	0.	3231.8
20326	10.527	0.72727	5.e-002	9.0904
20327	10.803	0.72727	0.	3153.6
20328	10.711	0.63636	0.	3181.1
20329	10.711	0.72727	5.e-002	9.0484
20330	10.988	0.72727	0.	3103.2
20331	10.896	0.63636	0.	3130.5
20332	10.896	0.72727	5.e-002	9.0052
20333	11.173	0.72727	0.	3053.
20334	11.08	0.63636	0.	3080.1
20335	11.08	0.72727	5.e-002	8.9612
20336	11.357	0.72727	0.	3002.9
20337	11.265	0.63636	0.	3029.8
20338	11.265	0.72727	5.e-002	8.9169
20339	11.542	0.72727	0.	2953.
20340	11.449	0.63636	0.	2979.7
20341	11.449	0.72727	5.e-002	8.8725
20342	11.726	0.72727	0.	2903.3
20343	11.634	0.63636	0.	2929.8
20344	11.634	0.72727	5.e-002	8.8282
20345	11.911	0.72727	0.	2853.7
20346	11.819	0.63636	0.	2880.1
20347	11.819	0.72727	5.e-002	8.7842
20348	12.095	0.72727	0.	2804.3
20349	12.003	0.63636	0.	2830.5
20350	12.003	0.72727	5.e-002	8.7406
20351	12.28	0.72727	0.	2755.1
20352	12.188	0.63636	0.	2781.1
20353	12.188	0.72727	5.e-002	8.6975
20354	12.465	0.72727	0.	2706.1
20355	12.372	0.63636	0.	2732.
20356	12.372	0.72727	5.e-002	8.655
20357	12.649	0.72727	0.	2657.3
20358	12.557	0.63636	0.	2683.
20359	12.557	0.72727	5.e-002	8.6129
20360	12.834	0.72727	0.	2608.6
20361	12.741	0.63636	0.	2634.2
20362	12.741	0.72727	5.e-002	8.5714
20363	13.018	0.72727	0.	2560.1
20364	12.926	0.63636	0.	2585.5
20365	12.926	0.72727	5.e-002	8.5304
20366	13.203	0.72727	0.	2511.9
20367	13.11	0.63636	0.	2537.1
20368	13.11	0.72727	5.e-002	8.4899
20369	13.387	0.72727	0.	2463.8
20370	13.295	0.63636	0.	2488.9
20371	13.295	0.72727	5.e-002	8.45
20372	13.572	0.72727	0.	2415.9
20373	13.48	0.63636	0.	2440.8
20374	13.48	0.72727	5.e-002	8.4105
20375	13.756	0.72727	0.	2368.1
20376	13.664	0.63636	0.	2393.
20377	13.664	0.72727	5.e-002	8.3716
20378	13.941	0.72727	0.	2320.6
20379	13.849	0.63636	0.	2345.3
20380	13.849	0.72727	5.e-002	8.3331
20381	14.126	0.72727	0.	2273.3
20382	14.033	0.63636	0.	2297.8
20383	14.033	0.72727	5.e-002	8.2951
20384	14.31	0.72727	0.	2226.1
20385	14.218	0.63636	0.	2250.6
20386	14.218	0.72727	5.e-002	8.2574
20387	14.495	0.72727	0.	2179.2
20388	14.402	0.63636	0.	2203.5
20389	14.402	0.72727	5.e-002	8.2203
20390	14.679	0.72727	0.	2132.4
20391	14.587	0.63636	0.	2156.6
20392	14.587	0.72727	5.e-002	8.1834
20393	14.864	0.72727	0.	2085.8
20394	14.772	0.63636	0.	2109.9
20395	14.772	0.72727	5.e-002	8.1469
20396	15.048	0.72727	0.	2039.5
20397	14.956	0.63636	0.	2063.4
20398	14.956	0.72727	5.e-002	8.1108
20399	15.233	0.72727	0.	1993.3
20400	15.141	0.63636	0.	2017.1
20401	15.141	0.72727	5.e-002	8.075
20402	15.418	0.72727	0.	1947.3
20403	15.325	0.63636	0.	1971.
20404	15.325	0.72727	5.e-002	8.0396
20405	15.602	0.72727	0.	1901.6
20406	15.51	0.63636	0.	1925.1
20407	15.51	0.72727	5.e-002	8.0045
20408	15.787	0.72727	0.	1856.
20409	15.694	0.63636	0.	1879.4
20410	15.694	0.72727	5.e-002	7.9698
20411	15.971	0.72727	0.	1810.6
20412	15.879	0.63636	0.	1834.
20413	15.879	0.72727	5.e-002	7.9354
20414	16.156	0.72727	0.	1765.4
20415	16.064	0.63636	0.	1788.7
20416	16.064	0.72727	5.e-002	7.9013
20417	16.34	0.72727	0.	1720.4
20418	16.248	0.63636	0.	1743.6
20419	16.248	0.72727	5.e-002	7.8675
20420	16.525	0.72727	0.	1675.7
20421	16.433	0.63636	0.	1698.7
20422	16.433	0.72727	5.e-002	7.8342
20423	16.71	0.72727	0.	1631.1
20424	16.617	0.63636	0.	1654.
20425	16.617	0.72727	5.e-002	7.8011
20426	16.894	0.72727	0.	1586.7
20427	16.802	0.63636	0.	1609.5
20428	16.802	0.72727	5.e-002	7.7683
20429	17.079	0.72727	0.	1542.6
20430	16.986	0.63636	0.	1565.2
20431	16.986	0.72727	5.e-002	7.736
20432	17.263	0.72727	0.	1498.6
20433	17.171	0.63636	0.	1521.1
20434	17.171	0.72727	5.e-002	7.704
20435	17.448	0.72727	0.	1454.8
20436	17.356	0.63636	0.	1477.2
20437	17.356	0.72727	5.e-002	7.6724
20438	17.632	0.72727	0.	1411.3
20439	17.54	0.63636	0.	1433.6
20440	17.54	0.72727	5.e-002	7.6412
20441	17.817	0.72727	0.	1367.9
20442	17.725	0.63636	0.	1390.1
20443	17.725	0.72727	5.e-002	7.6105
20444	18.002	0.72727	0.	1324.8
20445	17.909	0.63636	0.	1346.8
20446	17.909	0.72727	5.e-002	7.5802
20447	18.186	0.72727	0.	1281.8
20448	18.094	0.63636	0.	1303.7
20449	18.094	0.72727	5.e-002	7.5504
20450	18.371	0.72727	0.	1239.1
20451	18.278	0.63636	0.	1260.8
20452	18.278	0.72727	5.e-002	7.5211
20453	18.555	0.72727	0.	1196.6
20454	18.463	0.63636	0.	1218.2
20455	18.463	0.72727	5.e-002	7.4924
20456	18.74	0.72727	0.	1154.2
20457	18.648	0.63636	0.	1175.7
20458	18.648	0.72727	5.e-002	7.4643
20459	18.924	0.72727	0.	1112.1
20460	18.832	0.63636	0.	1133.4
20461	18.832	0.72727	5.e-002	7.4368
20462	19.109	0.72727	0.	1070.2
20463	19.017	0.63636	0.	1091.4
20464	19.017	0.72727	5.e-002	7.41
20465	19.294	0.72727	0.	1028.5
20466	19.201	0.63636	0.	1049.5
20467	19.201	0.72727	5.e-002	7.3839
20468	19.478	0.72727	0.	986.97
20469	19.386	0.63636	0.	1007.8
20470	19.386	0.72727	5.e-002	7.3586
20471	19.663	0.72727	0.	945.67
20472	19.57	0.63636	0.	966.37
20473	19.57	0.72727	5.e-002	7.3341
20474	19.847	0.72727	0.	904.57
20475	19.755	0.63636	0.	925.09
20476	19.755	0.72727	5.e-002	7.3105
20477	20.032	0.72727	0.	863.67
20478	19.94	0.63636	0.	884.02
20479	19.94	0.72727	5.e-002	7.2879
20480	20.216	0.72727	0.	822.99
20481	20.124	0.63636	0.	843.15
20482	20.124	0.72727	5.e-002	7.2663
20483	20.401	0.72727	0.	782.51
20484	20.309	0.63636	0.	802.47
20485	20.309	0.72727	5.e-002	7.2458
20486	20.585	0.72727	0.	742.24
20487	20.493	0.63636	0.	761.99
20488	20.493	0.72727	5.e-002	7.2265
20489	20.77	0.72727	0.	702.18
20490	20.678	0.63636	0.	721.71
20491	20.678	0.72727	5.e-002	7.2085
20492	20.955	0.72727	0.	662.35
20493	20.862	0.63636	0.	681.63
20494	20.862	0.72727	5.e-002	7.1919
20495	21.139	0.72727	0.	622.74
20496	21.047	0.63636	0.	641.76
20497	21.047	0.72727	5.e-002	7.1768
20498	21.324	0.72727	0.	583.36
20499	21.231	0.63636	0.	602.1
20500	21.231	0.72727	5.e-002	7.1632
20501	21.508	0.72727	0.	544.23
20502	21.416	0.63636	0.	562.66
20503	21.416	0.72727	5.e-002	7.1515
20504	21.693	0.72727	0.	505.37
20505	21.601	0.63636	0.	523.45
20506	21.601	0.72727	5.e-002	7.1417
20507	21.877	0.72727	0.	466.8
20508	21.785	0.63636	0.	484.49
20509	21.785	0.72727	5.e-002	7.134
20510	22.062	0.72727	0.	428.57
20511	21.97	0.63636	0.	445.81
20512	21.97	0.72727	5.e-002	7.1289
20513	22.247	0.72727	0.	390.73
20514	22.154	0.63636	0.	407.44
20515	22.154	0.72727	5.e-002	7.1267
20516	22.431	0.72727	0.	353.36
20517	22.339	0.63636	0.	369.45
20518	22.339	0.72727	5.e-002	7.1282
20519	22.616	0.72727	0.	316.58
20520	22.523	0.63636	0.	331.91
20521	22.523	0.72727	5.e-002	7.1344
20522	22.8	0.72727	0.	280.57
20523	22.708	0.63636	0.	294.95
20524	22.708	0.72727	5.e-002	7.1469
20525	22.985	0.72727	0.	245.59
20526	22.893	0.63636	0.	258.77
20527	22.893	0.72727	5.e-002	7.1687
20528	23.169	0.72727	0.	212.07
20529	23.077	0.63636	0.	223.68
20530	23.077	0.72727	5.e-002	7.2044
20531	23.354	0.72727	0.	180.65
20532	23.262	0.63636	0.	190.19
20533	23.262	0.72727	5.e-002	7.2624
20534	23.539	0.72727	0.	152.36
20535	23.446	0.63636	0.	159.13
20536	23.446	0.72727	5.e-002	7.3567
20537	23.723	0.72727	0.	128.84
20538	23.631	0.63636	0.	131.95
20539	23.631	0.72727	5.e-002	7.5196
20540	23.815	0.63636	0.	111.01
20541	23.815	0.72727	5.e-002	7.9558
20542	23.908	0.72727	0.	111.3
20543	4.3435	0.54545	0.	2006.3
20544	4.2512	0.45455	0.	1708.3
20545	4.2512	0.54545	5.e-002	124.34
20546	4.159	0.54545	0.	1601.2
20547	4.5281	0.54545	0.	2252.
20548	4.4358	0.45455	0.	1897.4
20549	4.4358	0.54545	5.e-002	99.943
20550	4.7127	0.54545	0.	2621.5
20551	4.6204	0.45455	0.	2294.6
20552	4.6204	0.54545	5.e-002	90.051
20553	4.8972	0.54545	0.	2982.2
20554	4.8049	0.45455	0.	2700.1
20555	4.8049	0.54545	5.e-002	77.894
20556	5.0818	0.54545	0.	3295.6
20557	4.9895	0.45455	0.	3060.3
20558	4.9895	0.54545	5.e-002	65.194
20559	5.2664	0.54545	0.	3551.8
20560	5.1741	0.45455	0.	3360.7
20561	5.1741	0.54545	5.e-002	53.084
20562	5.4509	0.54545	0.	3752.5
20563	5.3586	0.45455	0.	3601.
20564	5.3586	0.54545	5.e-002	42.211
20565	5.6355	0.54545	0.	3904.
20566	5.5432	0.45455	0.	3786.7
20567	5.5432	0.54545	5.e-002	32.809
20568	5.8201	0.54545	0.	4013.8
20569	5.7278	0.45455	0.	3925.5
20570	5.7278	0.54545	5.e-002	24.889
20571	6.0046	0.54545	0.	4089.2
20572	5.9123	0.45455	0.	4025.
20573	5.9123	0.54545	5.e-002	18.349
20574	6.1892	0.54545	0.	4136.7
20575	6.0969	0.45455	0.	4092.2
20576	6.0969	0.54545	5.e-002	13.05
20577	6.3738	0.54545	0.	4161.8
20578	6.2815	0.45455	0.	4133.5
20579	6.2815	0.54545	5.e-002	8.8712
20580	6.5583	0.54545	0.	4169.3
20581	6.466	0.45455	0.	4153.9
20582	6.466	0.54545	5.e-002	5.7794
20583	6.7429	0.54545	0.	4162.9
20584	6.6506	0.45455	0.	4157.8
20585	6.6506	0.54545	5.e-002	3.9493
20586	6.9275	0.54545	0.	4145.6
20587	6.8352	0.45455	0.	4148.7
20588	6.8352	0.54545	5.e-002	3.64
20589	7.112	0.54545	0.	4119.8
20590	7.0198	0.45455	0.	4129.4
20591	7.0198	0.54545	5.e-002	4.3465
20592	7.2966	0.54545	0.	4087.5
20593	7.2043	0.45455	0.	4102.1
20594	7.2043	0.54545	5.e-002	5.2959
20595	7.4812	0.54545	0.	4050.2
20596	7.3889	0.45455	0.	4068.7
20597	7.3889	0.54545	5.e-002	6.1761
20598	7.6657	0.54545	0.	4009.1
20599	7.5735	0.45455	0.	4030.5
20600	7.5735	0.54545	5.e-002	6.914
20601	7.8503	0.54545	0.	3965.
20602	7.758	0.45455	0.	3988.7
20603	7.758	0.54545	5.e-002	7.5072
20604	8.0349	0.54545	0.	3918.8
20605	7.9426	0.45455	0.	3944.2
20606	7.9426	0.54545	5.e-002	7.9727
20607	8.2194	0.54545	0.	3870.9
20608	8.1272	0.45455	0.	3897.5
20609	8.1272	0.54545	5.e-002	8.3312
20610	8.404	0.54545	0.	3821.8
20611	8.3117	0.45455	0.	3849.4
20612	8.3117	0.54545	5.e-002	8.6023
20613	8.5886	0.54545	0.	3771.9
20614	8.4963	0.45455	0.	3800.
20615	8.4963	0.54545	5.e-002	8.803
20616	8.7731	0.54545	0.	3721.3
20617	8.6809	0.45455	0.	3749.9
20618	8.6809	0.54545	5.e-002	8.9476
20619	8.9577	0.54545	0.	3670.4
20620	8.8654	0.45455	0.	3699.2
20621	8.8654	0.54545	5.e-002	9.0477
20622	9.1423	0.54545	0.	3619.1
20623	9.05	0.45455	0.	3648.1
20624	9.05	0.54545	5.e-002	9.1131
20625	9.3269	0.54545	0.	3567.8
20626	9.2346	0.45455	0.	3596.7
20627	9.2346	0.54545	5.e-002	9.1512
20628	9.5114	0.54545	0.	3516.3
20629	9.4191	0.45455	0.	3545.2
20630	9.4191	0.54545	5.e-002	9.1683
20631	9.696	0.54545	0.	3464.8
20632	9.6037	0.45455	0.	3493.6
20633	9.6037	0.54545	5.e-002	9.1691
20634	9.8806	0.54545	0.	3413.4
20635	9.7883	0.45455	0.	3442.1
20636	9.7883	0.54545	5.e-002	9.1576
20637	10.065	0.54545	0.	3362.1
20638	9.9728	0.45455	0.	3390.6
20639	9.9728	0.54545	5.e-002	9.1366
20640	10.25	0.54545	0.	3310.9
20641	10.157	0.45455	0.	3339.2
20642	10.157	0.54545	5.e-002	9.1087
20643	10.434	0.54545	0.	3259.8
20644	10.342	0.45455	0.	3287.9
20645	10.342	0.54545	5.e-002	9.0757
20646	10.619	0.54545	0.	3208.8
20647	10.527	0.45455	0.	3236.7
20648	10.527	0.54545	5.e-002	9.0388
20649	10.803	0.54545	0.	3158.
20650	10.711	0.45455	0.	3185.7
20651	10.711	0.54545	5.e-002	8.9994
20652	10.988	0.54545	0.	3107.4
20653	10.896	0.45455	0.	3134.9
20654	10.896	0.54545	5.e-002	8.9582
20655	11.173	0.54545	0.	3056.9
20656	11.08	0.45455	0.	3084.3
20657	11.08	0.54545	5.e-002	8.9159
20658	11.357	0.54545	0.	3006.6
20659	11.265	0.45455	0.	3033.8
20660	11.265	0.54545	5.e-002	8.8729
20661	11.542	0.54545	0.	2956.5
20662	11.449	0.45455	0.	2983.5
20663	11.449	0.54545	5.e-002	8.8296
20664	11.726	0.54545	0.	2906.6
20665	11.634	0.45455	0.	2933.4
20666	11.634	0.54545	5.e-002	8.7862
20667	11.911	0.54545	0.	2856.9
20668	11.819	0.45455	0.	2883.5
20669	11.819	0.54545	5.e-002	8.743
20670	12.095	0.54545	0.	2807.4
20671	12.003	0.45455	0.	2833.8
20672	12.003	0.54545	5.e-002	8.7001
20673	12.28	0.54545	0.	2758.
20674	12.188	0.45455	0.	2784.2
20675	12.188	0.54545	5.e-002	8.6576
20676	12.465	0.54545	0.	2708.9
20677	12.372	0.45455	0.	2734.9
20678	12.372	0.54545	5.e-002	8.6155
20679	12.649	0.54545	0.	2659.9
20680	12.557	0.45455	0.	2685.8
20681	12.557	0.54545	5.e-002	8.5739
20682	12.834	0.54545	0.	2611.1
20683	12.741	0.45455	0.	2636.9
20684	12.741	0.54545	5.e-002	8.5328
20685	13.018	0.54545	0.	2562.5
20686	12.926	0.45455	0.	2588.1
20687	12.926	0.54545	5.e-002	8.4922
20688	13.203	0.54545	0.	2514.2
20689	13.11	0.45455	0.	2539.6
20690	13.11	0.54545	5.e-002	8.4521
20691	13.387	0.54545	0.	2466.
20692	13.295	0.45455	0.	2491.3
20693	13.295	0.54545	5.e-002	8.4125
20694	13.572	0.54545	0.	2418.
20695	13.48	0.45455	0.	2443.1
20696	13.48	0.54545	5.e-002	8.3733
20697	13.756	0.54545	0.	2370.2
20698	13.664	0.45455	0.	2395.2
20699	13.664	0.54545	5.e-002	8.3347
20700	13.941	0.54545	0.	2322.6
20701	13.849	0.45455	0.	2347.4
20702	13.849	0.54545	5.e-002	8.2965
20703	14.126	0.54545	0.	2275.2
20704	14.033	0.45455	0.	2299.9
20705	14.033	0.54545	5.e-002	8.2587
20706	14.31	0.54545	0.	2228.
20707	14.218	0.45455	0.	2252.6
20708	14.218	0.54545	5.e-002	8.2213
20709	14.495	0.54545	0.	2181.
20710	14.402	0.45455	0.	2205.4
20711	14.402	0.54545	5.e-002	8.1844
20712	14.679	0.54545	0.	2134.1
20713	14.587	0.45455	0.	2158.5
20714	14.587	0.54545	5.e-002	8.1478
20715	14.864	0.54545	0.	2087.5
20716	14.772	0.45455	0.	2111.8
20717	14.772	0.54545	5.e-002	8.1115
20718	15.048	0.54545	0.	2041.1
20719	14.956	0.45455	0.	2065.2
20720	14.956	0.54545	5.e-002	8.0756
20721	15.233	0.54545	0.	1994.9
20722	15.141	0.45455	0.	2018.9
20723	15.141	0.54545	5.e-002	8.04
20724	15.418	0.54545	0.	1948.9
20725	15.325	0.45455	0.	1972.8
20726	15.325	0.54545	5.e-002	8.0048
20727	15.602	0.54545	0.	1903.1
20728	15.51	0.45455	0.	1926.8
20729	15.51	0.54545	5.e-002	7.9699
20730	15.787	0.54545	0.	1857.5
20731	15.694	0.45455	0.	1881.1
20732	15.694	0.54545	5.e-002	7.9353
20733	15.971	0.54545	0.	1812.1
20734	15.879	0.45455	0.	1835.6
20735	15.879	0.54545	5.e-002	7.9011
20736	16.156	0.54545	0.	1766.8
20737	16.064	0.45455	0.	1790.2
20738	16.064	0.54545	5.e-002	7.8672
20739	16.34	0.54545	0.	1721.8
20740	16.248	0.45455	0.	1745.1
20741	16.248	0.54545	5.e-002	7.8337
20742	16.525	0.54545	0.	1677.
20743	16.433	0.45455	0.	1700.2
20744	16.433	0.54545	5.e-002	7.8004
20745	16.71	0.54545	0.	1632.4
20746	16.617	0.45455	0.	1655.5
20747	16.617	0.54545	5.e-002	7.7675
20748	16.894	0.54545	0.	1588.
20749	16.802	0.45455	0.	1610.9
20750	16.802	0.54545	5.e-002	7.7349
20751	17.079	0.54545	0.	1543.8
20752	16.986	0.45455	0.	1566.6
20753	16.986	0.54545	5.e-002	7.7027
20754	17.263	0.54545	0.	1499.8
20755	17.171	0.45455	0.	1522.5
20756	17.171	0.54545	5.e-002	7.6709
20757	17.448	0.54545	0.	1456.
20758	17.356	0.45455	0.	1478.6
20759	17.356	0.54545	5.e-002	7.6395
20760	17.632	0.54545	0.	1412.4
20761	17.54	0.45455	0.	1434.9
20762	17.54	0.54545	5.e-002	7.6084
20763	17.817	0.54545	0.	1369.
20764	17.725	0.45455	0.	1391.3
20765	17.725	0.54545	5.e-002	7.5778
20766	18.002	0.54545	0.	1325.8
20767	17.909	0.45455	0.	1348.
20768	17.909	0.54545	5.e-002	7.5477
20769	18.186	0.54545	0.	1282.8
20770	18.094	0.45455	0.	1304.9
20771	18.094	0.54545	5.e-002	7.518
20772	18.371	0.54545	0.	1240.
20773	18.278	0.45455	0.	1262.
20774	18.278	0.54545	5.e-002	7.4888
20775	18.555	0.54545	0.	1197.4
20776	18.463	0.45455	0.	1219.2
20777	18.463	0.54545	5.e-002	7.4602
20778	18.74	0.54545	0.	1155.
20779	18.648	0.45455	0.	1176.7
20780	18.648	0.54545	5.e-002	7.4322
20781	18.924	0.54545	0.	1112.8
20782	18.832	0.45455	0.	1134.3
20783	18.832	0.54545	5.e-002	7.4048
20784	19.109	0.54545	0.	1070.7
20785	19.017	0.45455	0.	1092.2
20786	19.017	0.54545	5.e-002	7.3781
20787	19.294	0.54545	0.	1028.9
20788	19.201	0.45455	0.	1050.2
20789	19.201	0.54545	5.e-002	7.3521
20790	19.478	0.54545	0.	987.3
20791	19.386	0.45455	0.	1008.5
20792	19.386	0.54545	5.e-002	7.3268
20793	19.663	0.54545	0.	945.87
20794	19.57	0.45455	0.	966.87
20795	19.57	0.54545	5.e-002	7.3024
20796	19.847	0.54545	0.	904.62
20797	19.755	0.45455	0.	925.47
20798	19.755	0.54545	5.e-002	7.2788
20799	20.032	0.54545	0.	863.57
20800	19.94	0.45455	0.	884.25
20801	19.94	0.54545	5.e-002	7.2562
20802	20.216	0.54545	0.	822.71
20803	20.124	0.45455	0.	843.21
20804	20.124	0.54545	5.e-002	7.2345
20805	20.401	0.54545	0.	782.03
20806	20.309	0.45455	0.	802.36
20807	20.309	0.54545	5.e-002	7.2139
20808	20.585	0.54545	0.	741.55
20809	20.493	0.45455	0.	761.69
20810	20.493	0.54545	5.e-002	7.1945
20811	20.77	0.54545	0.	701.25
20812	20.678	0.45455	0.	721.19
20813	20.678	0.54545	5.e-002	7.1762
20814	20.955	0.54545	0.	661.14
20815	20.862	0.45455	0.	680.87
20816	20.862	0.54545	5.e-002	7.1593
20817	21.139	0.54545	0.	621.22
20818	21.047	0.45455	0.	640.72
20819	21.047	0.54545	5.e-002	7.1437
20820	21.324	0.54545	0.	581.51
20821	21.231	0.45455	0.	600.75
20822	21.231	0.54545	5.e-002	7.1296
20823	21.508	0.54545	0.	541.99
20824	21.416	0.45455	0.	560.97
20825	21.416	0.54545	5.e-002	7.117
20826	21.693	0.54545	0.	502.69
20827	21.601	0.45455	0.	521.37
20828	21.601	0.54545	5.e-002	7.1061
20829	21.877	0.54545	0.	463.63
20830	21.785	0.45455	0.	481.96
20831	21.785	0.54545	5.e-002	7.0971
20832	22.062	0.54545	0.	424.82
20833	21.97	0.45455	0.	442.77
20834	21.97	0.54545	5.e-002	7.0901
20835	22.247	0.54545	0.	386.32
20836	22.154	0.45455	0.	403.81
20837	22.154	0.54545	5.e-002	7.0854
20838	22.431	0.54545	0.	348.17
20839	22.339	0.45455	0.	365.12
20840	22.339	0.54545	5.e-002	7.0836
20841	22.616	0.54545	0.	310.46
20842	22.523	0.45455	0.	326.75
20843	22.523	0.54545	5.e-002	7.0854
20844	22.8	0.54545	0.	273.34
20845	22.708	0.45455	0.	288.79
20846	22.708	0.54545	5.e-002	7.0919
20847	22.985	0.54545	0.	237.02
20848	22.893	0.45455	0.	251.38
20849	22.893	0.54545	5.e-002	7.1055
20850	23.169	0.54545	0.	201.89
20851	23.077	0.45455	0.	214.74
20852	23.077	0.54545	5.e-002	7.1304
20853	23.354	0.54545	0.	168.6
20854	23.262	0.45455	0.	179.31
20855	23.262	0.54545	5.e-002	7.1757
20856	23.539	0.54545	0.	138.28
20857	23.446	0.45455	0.	145.84
20858	23.446	0.54545	5.e-002	7.2596
20859	23.723	0.54545	0.	112.98
20860	23.631	0.45455	0.	115.97
20861	23.631	0.54545	5.e-002	7.4289
20862	23.815	0.45455	0.	92.906
20863	23.815	0.54545	5.e-002	7.9489
20864	23.908	0.54545	0.	94.048
20865	4.3435	0.36364	0.	1523.7
20866	4.2512	0.27273	0.	1193.6
20867	4.2512	0.36364	5.e-002	116.47
20868	4.159	0.36364	0.	1118.6
20869	4.5281	0.36364	0.	1910.7
20870	4.4358	0.27273	0.	1579.1
20871	4.4358	0.36364	5.e-002	98.821
20872	4.7127	0.36364	0.	2360.3
20873	4.6204	0.27273	0.	2064.7
20874	4.6204	0.36364	5.e-002	89.742
20875	4.8972	0.36364	0.	2771.4
20876	4.8049	0.27273	0.	2514.8
20877	4.8049	0.36364	5.e-002	78.454
20878	5.0818	0.36364	0.	3121.3
20879	4.9895	0.27273	0.	2903.4
20880	4.9895	0.36364	5.e-002	66.575
20881	5.2664	0.36364	0.	3407.2
20882	5.1741	0.27273	0.	3226.5
20883	5.1741	0.36364	5.e-002	54.995
20884	5.4509	0.36364	0.	3633.4
20885	5.3586	0.27273	0.	3487.
20886	5.3586	0.36364	5.e-002	44.312
20887	5.6355	0.36364	0.	3807.1
20888	5.5432	0.27273	0.	3691.4
20889	5.5432	0.36364	5.e-002	34.839
20890	5.8201	0.36364	0.	3935.9
20891	5.7278	0.27273	0.	3847.1
20892	5.7278	0.36364	5.e-002	26.677
20893	6.0046	0.36364	0.	4027.6
20894	5.9123	0.27273	0.	3961.6
20895	5.9123	0.36364	5.e-002	19.794
20896	6.1892	0.36364	0.	4088.8
20897	6.0969	0.27273	0.	4042.
20898	6.0969	0.36364	5.e-002	14.086
20899	6.3738	0.36364	0.	4125.4
20900	6.2815	0.27273	0.	4094.5
20901	6.2815	0.36364	5.e-002	9.4249
20902	6.5583	0.36364	0.	4142.3
20903	6.466	0.27273	0.	4124.5
20904	6.466	0.36364	5.e-002	5.6912
20905	6.7429	0.36364	0.	4143.6
20906	6.6506	0.27273	0.	4136.3
20907	6.6506	0.36364	5.e-002	2.8677
20908	6.9275	0.36364	0.	4132.4
20909	6.8352	0.27273	0.	4133.7
20910	6.8352	0.36364	5.e-002	1.6205
20911	7.112	0.36364	0.	4111.6
20912	7.0198	0.27273	0.	4119.6
20913	7.0198	0.36364	5.e-002	2.6306
20914	7.2966	0.36364	0.	4083.2
20915	7.2043	0.27273	0.	4096.6
20916	7.2043	0.36364	5.e-002	3.9761
20917	7.4812	0.36364	0.	4049.
20918	7.3889	0.27273	0.	4066.5
20919	7.3889	0.36364	5.e-002	5.1188
20920	7.6657	0.36364	0.	4010.2
20921	7.5735	0.27273	0.	4031.
20922	7.5735	0.36364	5.e-002	6.0329
20923	7.8503	0.36364	0.	3967.9
20924	7.758	0.27273	0.	3991.2
20925	7.758	0.36364	5.e-002	6.7487
20926	8.0349	0.36364	0.	3923.
20927	7.9426	0.27273	0.	3948.2
20928	7.9426	0.36364	5.e-002	7.3012
20929	8.2194	0.36364	0.	3876.
20930	8.1272	0.27273	0.	3902.7
20931	8.1272	0.36364	5.e-002	7.722
20932	8.404	0.36364	0.	3827.6
20933	8.3117	0.27273	0.	3855.3
20934	8.3117	0.36364	5.e-002	8.0376
20935	8.5886	0.36364	0.	3778.1
20936	8.4963	0.27273	0.	3806.5
20937	8.4963	0.36364	5.e-002	8.2697
20938	8.7731	0.36364	0.	3727.8
20939	8.6809	0.27273	0.	3756.7
20940	8.6809	0.36364	5.e-002	8.436
20941	8.9577	0.36364	0.	3676.9
20942	8.8654	0.27273	0.	3706.2
20943	8.8654	0.36364	5.e-002	8.5507
20944	9.1423	0.36364	0.	3625.7
20945	9.05	0.27273	0.	3655.1
20946	9.05	0.36364	5.e-002	8.6253
20947	9.3269	0.36364	0.	3574.2
20948	9.2346	0.27273	0.	3603.7
20949	9.2346	0.36364	5.e-002	8.6688
20950	9.5114	0.36364	0.	3522.6
20951	9.4191	0.27273	0.	3552.1
20952	9.4191	0.36364	5.e-002	8.6883
20953	9.696	0.36364	0.	3470.9
20954	9.6037	0.27273	0.	3500.4
20955	9.6037	0.36364	5.e-002	8.6896
20956	9.8806	0.36364	0.	3419.3
20957	9.7883	0.27273	0.	3448.7
20958	9.7883	0.36364	5.e-002	8.6771
20959	10.065	0.36364	0.	3367.7
20960	9.9728	0.27273	0.	3397.
20961	9.9728	0.36364	5.e-002	8.6542
20962	10.25	0.36364	0.	3316.2
20963	10.157	0.27273	0.	3345.4
20964	10.157	0.36364	5.e-002	8.6237
20965	10.434	0.36364	0.	3264.9
20966	10.342	0.27273	0.	3293.9
20967	10.342	0.36364	5.e-002	8.5877
20968	10.619	0.36364	0.	3213.7
20969	10.527	0.27273	0.	3242.5
20970	10.527	0.36364	5.e-002	8.5478
20971	10.803	0.36364	0.	3162.7
20972	10.711	0.27273	0.	3191.3
20973	10.711	0.36364	5.e-002	8.5053
20974	10.988	0.36364	0.	3111.8
20975	10.896	0.27273	0.	3140.3
20976	10.896	0.36364	5.e-002	8.4612
20977	11.173	0.36364	0.	3061.1
20978	11.08	0.27273	0.	3089.4
20979	11.08	0.36364	5.e-002	8.416
20980	11.357	0.36364	0.	3010.7
20981	11.265	0.27273	0.	3038.8
20982	11.265	0.36364	5.e-002	8.3703
20983	11.542	0.36364	0.	2960.4
20984	11.449	0.27273	0.	2988.3
20985	11.449	0.36364	5.e-002	8.3247
20986	11.726	0.36364	0.	2910.3
20987	11.634	0.27273	0.	2938.
20988	11.634	0.36364	5.e-002	8.2793
20989	11.911	0.36364	0.	2860.4
20990	11.819	0.27273	0.	2888.
20991	11.819	0.36364	5.e-002	8.2342
20992	12.095	0.36364	0.	2810.7
20993	12.003	0.27273	0.	2838.1
20994	12.003	0.36364	5.e-002	8.1897
20995	12.28	0.36364	0.	2761.2
20996	12.188	0.27273	0.	2788.5
20997	12.188	0.36364	5.e-002	8.1459
20998	12.465	0.36364	0.	2711.9
20999	12.372	0.27273	0.	2739.
21000	12.372	0.36364	5.e-002	8.1029
21001	12.649	0.36364	0.	2662.8
21002	12.557	0.27273	0.	2689.8
21003	12.557	0.36364	5.e-002	8.0605
21004	12.834	0.36364	0.	2613.9
21005	12.741	0.27273	0.	2640.7
21006	12.741	0.36364	5.e-002	8.0188
21007	13.018	0.36364	0.	2565.2
21008	12.926	0.27273	0.	2591.9
21009	12.926	0.36364	5.e-002	7.9779
21010	13.203	0.36364	0.	2516.7
21011	13.11	0.27273	0.	2543.3
21012	13.11	0.36364	5.e-002	7.9377
21013	13.387	0.36364	0.	2468.4
21014	13.295	0.27273	0.	2494.9
21015	13.295	0.36364	5.e-002	7.8982
21016	13.572	0.36364	0.	2420.4
21017	13.48	0.27273	0.	2446.7
21018	13.48	0.36364	5.e-002	7.8594
21019	13.756	0.36364	0.	2372.5
21020	13.664	0.27273	0.	2398.7
21021	13.664	0.36364	5.e-002	7.8212
21022	13.941	0.36364	0.	2324.8
21023	13.849	0.27273	0.	2350.9
21024	13.849	0.36364	5.e-002	7.7838
21025	14.126	0.36364	0.	2277.4
21026	14.033	0.27273	0.	2303.3
21027	14.033	0.36364	5.e-002	7.7468
21028	14.31	0.36364	0.	2230.1
21029	14.218	0.27273	0.	2256.
21030	14.218	0.36364	5.e-002	7.7105
21031	14.495	0.36364	0.	2183.
21032	14.402	0.27273	0.	2208.8
21033	14.402	0.36364	5.e-002	7.6747
21034	14.679	0.36364	0.	2136.2
21035	14.587	0.27273	0.	2161.8
21036	14.587	0.36364	5.e-002	7.6394
21037	14.864	0.36364	0.	2089.5
21038	14.772	0.27273	0.	2115.1
21039	14.772	0.36364	5.e-002	7.6045
21040	15.048	0.36364	0.	2043.1
21041	14.956	0.27273	0.	2068.5
21042	14.956	0.36364	5.e-002	7.5702
21043	15.233	0.36364	0.	1996.8
21044	15.141	0.27273	0.	2022.1
21045	15.141	0.36364	5.e-002	7.5364
21046	15.418	0.36364	0.	1950.8
21047	15.325	0.27273	0.	1976.
21048	15.325	0.36364	5.e-002	7.503
21049	15.602	0.36364	0.	1904.9
21050	15.51	0.27273	0.	1930.1
21051	15.51	0.36364	5.e-002	7.4701
21052	15.787	0.36364	0.	1859.3
21053	15.694	0.27273	0.	1884.3
21054	15.694	0.36364	5.e-002	7.4376
21055	15.971	0.36364	0.	1813.8
21056	15.879	0.27273	0.	1838.8
21057	15.879	0.36364	5.e-002	7.4056
21058	16.156	0.36364	0.	1768.6
21059	16.064	0.27273	0.	1793.4
21060	16.064	0.36364	5.e-002	7.374
21061	16.34	0.36364	0.	1723.5
21062	16.248	0.27273	0.	1748.3
21063	16.248	0.36364	5.e-002	7.3428
21064	16.525	0.36364	0.	1678.7
21065	16.433	0.27273	0.	1703.4
21066	16.433	0.36364	5.e-002	7.3122
21067	16.71	0.36364	0.	1634.1
21068	16.617	0.27273	0.	1658.6
21069	16.617	0.36364	5.e-002	7.282
21070	16.894	0.36364	0.	1589.6
21071	16.802	0.27273	0.	1614.1
21072	16.802	0.36364	5.e-002	7.2522
21073	17.079	0.36364	0.	1545.4
21074	16.986	0.27273	0.	1569.8
21075	16.986	0.36364	5.e-002	7.2229
21076	17.263	0.36364	0.	1501.3
21077	17.171	0.27273	0.	1525.7
21078	17.171	0.36364	5.e-002	7.1941
21079	17.448	0.36364	0.	1457.5
21080	17.356	0.27273	0.	1481.7
21081	17.356	0.36364	5.e-002	7.1659
21082	17.632	0.36364	0.	1413.9
21083	17.54	0.27273	0.	1438.
21084	17.54	0.36364	5.e-002	7.1383
21085	17.817	0.36364	0.	1370.4
21086	17.725	0.27273	0.	1394.5
21087	17.725	0.36364	5.e-002	7.1111
21088	18.002	0.36364	0.	1327.2
21089	17.909	0.27273	0.	1351.1
21090	17.909	0.36364	5.e-002	7.0847
21091	18.186	0.36364	0.	1284.1
21092	18.094	0.27273	0.	1308.
21093	18.094	0.36364	5.e-002	7.0589
21094	18.371	0.36364	0.	1241.3
21095	18.278	0.27273	0.	1265.
21096	18.278	0.36364	5.e-002	7.0337
21097	18.555	0.36364	0.	1198.6
21098	18.463	0.27273	0.	1222.2
21099	18.463	0.36364	5.e-002	7.0093
21100	18.74	0.36364	0.	1156.1
21101	18.648	0.27273	0.	1179.7
21102	18.648	0.36364	5.e-002	6.9857
21103	18.924	0.36364	0.	1113.8
21104	18.832	0.27273	0.	1137.3
21105	18.832	0.36364	5.e-002	6.963
21106	19.109	0.36364	0.	1071.7
21107	19.017	0.27273	0.	1095.1
21108	19.017	0.36364	5.e-002	6.9411
21109	19.294	0.36364	0.	1029.8
21110	19.201	0.27273	0.	1053.1
21111	19.201	0.36364	5.e-002	6.9202
21112	19.478	0.36364	0.	988.09
21113	19.386	0.27273	0.	1011.2
21114	19.386	0.36364	5.e-002	6.9004
21115	19.663	0.36364	0.	946.55
21116	19.57	0.27273	0.	969.56
21117	19.57	0.36364	5.e-002	6.8816
21118	19.847	0.36364	0.	905.18
21119	19.755	0.27273	0.	928.07
21120	19.755	0.36364	5.e-002	6.864
21121	20.032	0.36364	0.	863.98
21122	19.94	0.27273	0.	886.75
21123	19.94	0.36364	5.e-002	6.8477
21124	20.216	0.36364	0.	822.96
21125	20.124	0.27273	0.	845.6
21126	20.124	0.36364	5.e-002	6.8327
21127	20.401	0.36364	0.	782.11
21128	20.309	0.27273	0.	804.61
21129	20.309	0.36364	5.e-002	6.8192
21130	20.585	0.36364	0.	741.43
21131	20.493	0.27273	0.	763.78
21132	20.493	0.36364	5.e-002	6.8072
21133	20.77	0.36364	0.	700.91
21134	20.678	0.27273	0.	723.11
21135	20.678	0.36364	5.e-002	6.7968
21136	20.955	0.36364	0.	660.56
21137	20.862	0.27273	0.	682.59
21138	20.862	0.36364	5.e-002	6.7881
21139	21.139	0.36364	0.	620.37
21140	21.047	0.27273	0.	642.22
21141	21.047	0.36364	5.e-002	6.7812
21142	21.324	0.36364	0.	580.35
21143	21.231	0.27273	0.	601.99
21144	21.231	0.36364	5.e-002	6.7763
21145	21.508	0.36364	0.	540.49
21146	21.416	0.27273	0.	561.91
21147	21.416	0.36364	5.e-002	6.7735
21148	21.693	0.36364	0.	500.79
21149	21.601	0.27273	0.	521.97
21150	21.601	0.36364	5.e-002	6.7728
21151	21.877	0.36364	0.	461.28
21152	21.785	0.27273	0.	482.17
21153	21.785	0.36364	5.e-002	6.7744
21154	22.062	0.36364	0.	421.94
21155	21.97	0.27273	0.	442.52
21156	21.97	0.36364	5.e-002	6.7785
21157	22.247	0.36364	0.	382.82
21158	22.154	0.27273	0.	403.02
21159	22.154	0.36364	5.e-002	6.7853
21160	22.431	0.36364	0.	343.94
21161	22.339	0.27273	0.	363.68
21162	22.339	0.36364	5.e-002	6.7952
21163	22.616	0.36364	0.	305.34
21164	22.523	0.27273	0.	324.53
21165	22.523	0.36364	5.e-002	6.8085
21166	22.8	0.36364	0.	267.12
21167	22.708	0.27273	0.	285.6
21168	22.708	0.36364	5.e-002	6.8262
21169	22.985	0.36364	0.	229.41
21170	22.893	0.27273	0.	246.96
21171	22.893	0.36364	5.e-002	6.8498
21172	23.169	0.36364	0.	192.47
21173	23.077	0.27273	0.	208.72
21174	23.077	0.36364	5.e-002	6.8822
21175	23.354	0.36364	0.	156.8
21176	23.262	0.27273	0.	171.1
21177	23.262	0.36364	5.e-002	6.9297
21178	23.539	0.36364	0.	123.48
21179	23.446	0.27273	0.	134.53
21180	23.446	0.36364	5.e-002	7.0104
21181	23.723	0.36364	0.	95.033
21182	23.631	0.27273	0.	100.21
21183	23.631	0.36364	5.e-002	7.1949
21184	23.815	0.27273	0.	71.88
21185	23.815	0.36364	5.e-002	7.8527
21186	23.908	0.36364	0.	73.549
21187	4.3435	0.18182	0.	1199.
21188	4.2512	0.18182	5.e-002	128.71
21189	4.2512	9.0909e-002	0.	765.48
21190	4.159	0.18182	0.	680.07
21191	4.5281	0.18182	0.	1721.9
21192	4.4358	0.18182	5.e-002	114.31
21193	4.4358	9.0909e-002	0.	1339.7
21194	4.7127	0.18182	0.	2214.1
21195	4.6204	0.18182	5.e-002	105.42
21196	4.6204	9.0909e-002	0.	1878.8
21197	4.8972	0.18182	0.	2643.6
21198	4.8049	0.18182	5.e-002	94.606
21199	4.8049	9.0909e-002	0.	2355.4
21200	5.0818	0.18182	0.	3006.3
21201	4.9895	0.18182	5.e-002	82.593
21202	4.9895	9.0909e-002	0.	2764.
21203	5.2664	0.18182	0.	3304.7
21204	5.1741	0.18182	5.e-002	70.33
21205	5.1741	9.0909e-002	0.	3105.4
21206	5.4509	0.18182	0.	3543.8
21207	5.3586	0.18182	5.e-002	58.567
21208	5.3586	9.0909e-002	0.	3383.4
21209	5.6355	0.18182	0.	3730.6
21210	5.5432	0.18182	5.e-002	47.804
21211	5.5432	9.0909e-002	0.	3604.3
21212	5.8201	0.18182	0.	3872.2
21213	5.7278	0.18182	5.e-002	38.299
21214	5.7278	9.0909e-002	0.	3775.1
21215	6.0046	0.18182	0.	3975.7
21216	5.9123	0.18182	5.e-002	30.131
21217	5.9123	9.0909e-002	0.	3903.2
21218	6.1892	0.18182	0.	4047.6
21219	6.0969	0.18182	5.e-002	23.259
21220	6.0969	9.0909e-002	0.	3995.4
21221	6.3738	0.18182	0.	4093.5
21222	6.2815	0.18182	5.e-002	17.579
21223	6.2815	9.0909e-002	0.	4058.
21224	6.5583	0.18182	0.	4118.4
21225	6.466	0.18182	5.e-002	12.953
21226	6.466	9.0909e-002	0.	4096.4
21227	6.7429	0.18182	0.	4126.4
21228	6.6506	0.18182	5.e-002	9.2349
21229	6.6506	9.0909e-002	0.	4115.3
21230	6.9275	0.18182	0.	4120.9
21231	6.8352	0.18182	5.e-002	6.2875
21232	6.8352	9.0909e-002	0.	4118.4
21233	7.112	0.18182	0.	4104.6
21234	7.0198	0.18182	5.e-002	3.9885
21235	7.0198	9.0909e-002	0.	4109.1
21236	7.2966	0.18182	0.	4079.9
21237	7.2043	0.18182	5.e-002	2.2445
21238	7.2043	9.0909e-002	0.	4089.8
21239	7.4812	0.18182	0.	4048.6
21240	7.3889	0.18182	5.e-002	1.0539
21241	7.3889	9.0909e-002	0.	4062.6
21242	7.6657	0.18182	0.	4012.
21243	7.5735	0.18182	5.e-002	0.80636
21244	7.5735	9.0909e-002	0.	4029.4
21245	7.8503	0.18182	0.	3971.5
21246	7.758	0.18182	5.e-002	1.2903
21247	7.758	9.0909e-002	0.	3991.3
21248	8.0349	0.18182	0.	3927.9
21249	7.9426	0.18182	5.e-002	1.7552
21250	7.9426	9.0909e-002	0.	3949.5
21251	8.2194	0.18182	0.	3882.
21252	8.1272	0.18182	5.e-002	2.0904
21253	8.1272	9.0909e-002	0.	3904.9
21254	8.404	0.18182	0.	3834.3
21255	8.3117	0.18182	5.e-002	2.306
21256	8.3117	9.0909e-002	0.	3858.1
21257	8.5886	0.18182	0.	3785.2
21258	8.4963	0.18182	5.e-002	2.4242
21259	8.4963	9.0909e-002	0.	3809.7
21260	8.7731	0.18182	0.	3735.2
21261	8.6809	0.18182	5.e-002	2.4666
21262	8.6809	9.0909e-002	0.	3760.1
21263	8.9577	0.18182	0.	3684.5
21264	8.8654	0.18182	5.e-002	2.4511
21265	8.8654	9.0909e-002	0.	3709.5
21266	9.1423	0.18182	0.	3633.3
21267	9.05	0.18182	5.e-002	2.3926
21268	9.05	9.0909e-002	0.	3658.4
21269	9.3269	0.18182	0.	3581.8
21270	9.2346	0.18182	5.e-002	2.3029
21271	9.2346	9.0909e-002	0.	3606.8
21272	9.5114	0.18182	0.	3530.1
21273	9.4191	0.18182	5.e-002	2.1915
21274	9.4191	9.0909e-002	0.	3554.9
21275	9.696	0.18182	0.	3478.3
21276	9.6037	0.18182	5.e-002	2.0657
21277	9.6037	9.0909e-002	0.	3502.9
21278	9.8806	0.18182	0.	3426.6
21279	9.7883	0.18182	5.e-002	1.9313
21280	9.7883	9.0909e-002	0.	3450.8
21281	10.065	0.18182	0.	3374.8
21282	9.9728	0.18182	5.e-002	1.7925
21283	9.9728	9.0909e-002	0.	3398.7
21284	10.25	0.18182	0.	3323.2
21285	10.157	0.18182	5.e-002	1.6529
21286	10.157	9.0909e-002	0.	3346.7
21287	10.434	0.18182	0.	3271.7
21288	10.342	0.18182	5.e-002	1.5148
21289	10.342	9.0909e-002	0.	3294.8
21290	10.619	0.18182	0.	3220.3
21291	10.527	0.18182	5.e-002	1.38
21292	10.527	9.0909e-002	0.	3243.1
21293	10.803	0.18182	0.	3169.1
21294	10.711	0.18182	5.e-002	1.2499
21295	10.711	9.0909e-002	0.	3191.5
21296	10.988	0.18182	0.	3118.
21297	10.896	0.18182	5.e-002	1.1255
21298	10.896	9.0909e-002	0.	3140.1
21299	11.173	0.18182	0.	3067.2
21300	11.08	0.18182	5.e-002	1.0071
21301	11.08	9.0909e-002	0.	3088.8
21302	11.357	0.18182	0.	3016.6
21303	11.265	0.18182	5.e-002	0.89524
21304	11.265	9.0909e-002	0.	3037.8
21305	11.542	0.18182	0.	2966.1
21306	11.449	0.18182	5.e-002	0.79002
21307	11.449	9.0909e-002	0.	2987.
21308	11.726	0.18182	0.	2915.9
21309	11.634	0.18182	5.e-002	0.69138
21310	11.634	9.0909e-002	0.	2936.4
21311	11.911	0.18182	0.	2865.9
21312	11.819	0.18182	5.e-002	0.5992
21313	11.819	9.0909e-002	0.	2886.1
21314	12.095	0.18182	0.	2816.1
21315	12.003	0.18182	5.e-002	0.51344
21316	12.003	9.0909e-002	0.	2835.9
21317	12.28	0.18182	0.	2766.5
21318	12.188	0.18182	5.e-002	0.43383
21319	12.188	9.0909e-002	0.	2786.
21320	12.465	0.18182	0.	2717.1
21321	12.372	0.18182	5.e-002	0.36017
21322	12.372	9.0909e-002	0.	2736.3
21323	12.649	0.18182	0.	2667.9
21324	12.557	0.18182	5.e-002	0.29209
21325	12.557	9.0909e-002	0.	2686.8
21326	12.834	0.18182	0.	2618.9
21327	12.741	0.18182	5.e-002	0.22932
21328	12.741	9.0909e-002	0.	2637.5
21329	13.018	0.18182	0.	2570.2
21330	12.926	0.18182	5.e-002	0.17172
21331	12.926	9.0909e-002	0.	2588.4
21332	13.203	0.18182	0.	2521.6
21333	13.11	0.18182	5.e-002	0.11905
21334	13.11	9.0909e-002	0.	2539.6
21335	13.387	0.18182	0.	2473.3
21336	13.295	0.18182	5.e-002	7.1356e-002
21337	13.295	9.0909e-002	0.	2490.9
21338	13.572	0.18182	0.	2425.2
21339	13.48	0.18182	5.e-002	3.0461e-002
21340	13.48	9.0909e-002	0.	2442.5
21341	13.756	0.18182	0.	2377.3
21342	13.664	0.18182	5.e-002	2.4109e-002
21343	13.664	9.0909e-002	0.	2394.3
21344	13.941	0.18182	0.	2329.6
21345	13.849	0.18182	5.e-002	5.5795e-002
21346	13.849	9.0909e-002	0.	2346.4
21347	14.126	0.18182	0.	2282.1
21348	14.033	0.18182	5.e-002	8.8058e-002
21349	14.033	9.0909e-002	0.	2298.6
21350	14.31	0.18182	0.	2234.8
21351	14.218	0.18182	5.e-002	0.11777
21352	14.218	9.0909e-002	0.	2251.
21353	14.495	0.18182	0.	2187.7
21354	14.402	0.18182	5.e-002	0.14466
21355	14.402	9.0909e-002	0.	2203.7
21356	14.679	0.18182	0.	2140.9
21357	14.587	0.18182	5.e-002	0.16888
21358	14.587	9.0909e-002	0.	2156.6
21359	14.864	0.18182	0.	2094.2
21360	14.772	0.18182	5.e-002	0.19059
21361	14.772	9.0909e-002	0.	2109.6
21362	15.048	0.18182	0.	2047.8
21363	14.956	0.18182	5.e-002	0.20989
21364	14.956	9.0909e-002	0.	2062.9
21365	15.233	0.18182	0.	2001.5
21366	15.141	0.18182	5.e-002	0.227
21367	15.141	9.0909e-002	0.	2016.4
21368	15.418	0.18182	0.	1955.5
21369	15.325	0.18182	5.e-002	0.24207
21370	15.325	9.0909e-002	0.	1970.1
21371	15.602	0.18182	0.	1909.6
21372	15.51	0.18182	5.e-002	0.25535
21373	15.51	9.0909e-002	0.	1924.
21374	15.787	0.18182	0.	1864.
21375	15.694	0.18182	5.e-002	0.26695
21376	15.694	9.0909e-002	0.	1878.1
21377	15.971	0.18182	0.	1818.6
21378	15.879	0.18182	5.e-002	0.2771
21379	15.879	9.0909e-002	0.	1832.4
21380	16.156	0.18182	0.	1773.4
21381	16.064	0.18182	5.e-002	0.28605
21382	16.064	9.0909e-002	0.	1786.9
21383	16.34	0.18182	0.	1728.3
21384	16.248	0.18182	5.e-002	0.29405
21385	16.248	9.0909e-002	0.	1741.6
21386	16.525	0.18182	0.	1683.5
21387	16.433	0.18182	5.e-002	0.30134
21388	16.433	9.0909e-002	0.	1696.6
21389	16.71	0.18182	0.	1638.9
21390	16.617	0.18182	5.e-002	0.30829
21391	16.617	9.0909e-002	0.	1651.7
21392	16.894	0.18182	0.	1594.5
21393	16.802	0.18182	5.e-002	0.31524
21394	16.802	9.0909e-002	0.	1607.
21395	17.079	0.18182	0.	1550.3
21396	16.986	0.18182	5.e-002	0.32257
21397	16.986	9.0909e-002	0.	1562.5
21398	17.263	0.18182	0.	1506.3
21399	17.171	0.18182	5.e-002	0.33078
21400	17.171	9.0909e-002	0.	1518.2
21401	17.448	0.18182	0.	1462.4
21402	17.356	0.18182	5.e-002	0.34035
21403	17.356	9.0909e-002	0.	1474.1
21404	17.632	0.18182	0.	1418.8
21405	17.54	0.18182	5.e-002	0.35187
21406	17.54	9.0909e-002	0.	1430.2
21407	17.817	0.18182	0.	1375.4
21408	17.725	0.18182	5.e-002	0.36588
21409	17.725	9.0909e-002	0.	1386.5
21410	18.002	0.18182	0.	1332.1
21411	17.909	0.18182	5.e-002	0.383
21412	17.909	9.0909e-002	0.	1343.
21413	18.186	0.18182	0.	1289.1
21414	18.094	0.18182	5.e-002	0.40379
21415	18.094	9.0909e-002	0.	1299.7
21416	18.371	0.18182	0.	1246.2
21417	18.278	0.18182	5.e-002	0.42881
21418	18.278	9.0909e-002	0.	1256.5
21419	18.555	0.18182	0.	1203.6
21420	18.463	0.18182	5.e-002	0.45857
21421	18.463	9.0909e-002	0.	1213.6
21422	18.74	0.18182	0.	1161.1
21423	18.648	0.18182	5.e-002	0.49353
21424	18.648	9.0909e-002	0.	1170.8
21425	18.924	0.18182	0.	1118.8
21426	18.832	0.18182	5.e-002	0.53411
21427	18.832	9.0909e-002	0.	1128.2
21428	19.109	0.18182	0.	1076.7
21429	19.017	0.18182	5.e-002	0.58067
21430	19.017	9.0909e-002	0.	1085.8
21431	19.294	0.18182	0.	1034.7
21432	19.201	0.18182	5.e-002	0.63359
21433	19.201	9.0909e-002	0.	1043.6
21434	19.478	0.18182	0.	992.97
21435	19.386	0.18182	5.e-002	0.6932
21436	19.386	9.0909e-002	0.	1001.6
21437	19.663	0.18182	0.	951.37
21438	19.57	0.18182	5.e-002	0.75988
21439	19.57	9.0909e-002	0.	959.68
21440	19.847	0.18182	0.	909.94
21441	19.755	0.18182	5.e-002	0.83396
21442	19.755	9.0909e-002	0.	917.97
21443	20.032	0.18182	0.	868.67
21444	19.94	0.18182	5.e-002	0.91591
21445	19.94	9.0909e-002	0.	876.43
21446	20.216	0.18182	0.	827.56
21447	20.124	0.18182	5.e-002	1.0061
21448	20.124	9.0909e-002	0.	835.06
21449	20.401	0.18182	0.	786.6
21450	20.309	0.18182	5.e-002	1.1051
21451	20.309	9.0909e-002	0.	793.84
21452	20.585	0.18182	0.	745.79
21453	20.493	0.18182	5.e-002	1.2135
21454	20.493	9.0909e-002	0.	752.78
21455	20.77	0.18182	0.	705.13
21456	20.678	0.18182	5.e-002	1.3317
21457	20.678	9.0909e-002	0.	711.87
21458	20.955	0.18182	0.	664.6
21459	20.862	0.18182	5.e-002	1.4605
21460	20.862	9.0909e-002	0.	671.12
21461	21.139	0.18182	0.	624.2
21462	21.047	0.18182	5.e-002	1.6006
21463	21.047	9.0909e-002	0.	630.51
21464	21.324	0.18182	0.	583.94
21465	21.231	0.18182	5.e-002	1.7529
21466	21.231	9.0909e-002	0.	590.05
21467	21.508	0.18182	0.	543.79
21468	21.416	0.18182	5.e-002	1.9182
21469	21.416	9.0909e-002	0.	549.74
21470	21.693	0.18182	0.	503.77
21471	21.601	0.18182	5.e-002	2.0976
21472	21.601	9.0909e-002	0.	509.57
21473	21.877	0.18182	0.	463.86
21474	21.785	0.18182	5.e-002	2.2922
21475	21.785	9.0909e-002	0.	469.55
21476	22.062	0.18182	0.	424.07
21477	21.97	0.18182	5.e-002	2.5033
21478	21.97	9.0909e-002	0.	429.68
21479	22.247	0.18182	0.	384.39
21480	22.154	0.18182	5.e-002	2.7326
21481	22.154	9.0909e-002	0.	389.97
21482	22.431	0.18182	0.	344.83
21483	22.339	0.18182	5.e-002	2.982
21484	22.339	9.0909e-002	0.	350.43
21485	22.616	0.18182	0.	305.41
21486	22.523	0.18182	5.e-002	3.2536
21487	22.523	9.0909e-002	0.	311.08
21488	22.8	0.18182	0.	266.14
21489	22.708	0.18182	5.e-002	3.5505
21490	22.708	9.0909e-002	0.	271.95
21491	22.985	0.18182	0.	227.07
21492	22.893	0.18182	5.e-002	3.8766
21493	22.893	9.0909e-002	0.	233.08
21494	23.169	0.18182	0.	188.26
21495	23.077	0.18182	5.e-002	4.2375
21496	23.077	9.0909e-002	0.	194.54
21497	23.354	0.18182	0.	149.88
21498	23.262	0.18182	5.e-002	4.6428
21499	23.262	9.0909e-002	0.	156.44
21500	23.539	0.18182	0.	112.36
21501	23.446	0.18182	5.e-002	5.1055
21502	23.446	9.0909e-002	0.	118.97
21503	23.723	0.18182	0.	77.516
21504	23.631	0.18182	5.e-002	5.6857
21505	23.631	9.0909e-002	0.	82.655
21506	23.815	0.18182	5.e-002	6.926
21507	23.815	9.0909e-002	0.	48.958
21508	23.908	0.18182	0.	48.606
21509	23.723	0.18182	0.1	77.516
21510	23.815	0.27273	0.1	71.88
21511	23.908	0.18182	0.1	48.606
21512	23.815	9.0909e-002	0.1	48.958
21513	23.539	0.18182	0.1	112.36
21514	23.631	0.27273	0.1	100.21
21515	23.631	9.0909e-002	0.1	82.655
21516	23.354	0.18182	0.1	149.88
21517	23.446	0.27273	0.1	134.53
21518	23.446	9.0909e-002	0.1	118.97
21519	23.169	0.18182	0.1	188.26
21520	23.262	0.27273	0.1	171.1
21521	23.262	9.0909e-002	0.1	156.44
21522	22.985	0.18182	0.1	227.07
21523	23.077	0.27273	0.1	208.72
21524	23.077	9.0909e-002	0.1	194.54
21525	22.8	0.18182	0.1	266.14
21526	22.893	0.27273	0.1	246.96
21527	22.893	9.0909e-002	0.1	233.08
21528	22.616	0.18182	0.1	305.41
21529	22.708	0.27273	0.1	285.6
21530	22.708	9.0909e-002	0.1	271.95
21531	22.431	0.18182	0.1	344.83
21532	22.523	0.27273	0.1	324.53
21533	22.523	9.0909e-002	0.1	311.08
21534	22.247	0.18182	0.1	384.39
21535	22.339	0.27273	0.1	363.68
21536	22.339	9.0909e-002	0.1	350.43
21537	22.062	0.18182	0.1	424.07
21538	22.154	0.27273	0.1	403.02
21539	22.154	9.0909e-002	0.1	389.97
21540	21.877	0.18182	0.1	463.86
21541	21.97	0.27273	0.1	442.52
21542	21.97	9.0909e-002	0.1	429.68
21543	21.693	0.18182	0.1	503.77
21544	21.785	0.27273	0.1	482.17
21545	21.785	9.0909e-002	0.1	469.55
21546	21.508	0.18182	0.1	543.79
21547	21.601	0.27273	0.1	521.97
21548	21.601	9.0909e-002	0.1	509.57
21549	21.324	0.18182	0.1	583.94
21550	21.416	0.27273	0.1	561.91
21551	21.416	9.0909e-002	0.1	549.74
21552	21.139	0.18182	0.1	624.2
21553	21.231	0.27273	0.1	601.99
21554	21.231	9.0909e-002	0.1	590.05
21555	20.955	0.18182	0.1	664.6
21556	21.047	0.27273	0.1	642.22
21557	21.047	9.0909e-002	0.1	630.51
21558	20.77	0.18182	0.1	705.13
21559	20.862	0.27273	0.1	682.59
21560	20.862	9.0909e-002	0.1	671.12
21561	20.585	0.18182	0.1	745.79
21562	20.678	0.27273	0.1	723.11
21563	20.678	9.0909e-002	0.1	711.87
21564	20.401	0.18182	0.1	786.6
21565	20.493	0.27273	0.1	763.78
21566	20.493	9.0909e-002	0.1	752.78
21567	20.216	0.18182	0.1	827.56
21568	20.309	0.27273	0.1	804.61
21569	20.309	9.0909e-002	0.1	793.84
21570	20.032	0.18182	0.1	868.67
21571	20.124	0.27273	0.1	845.6
21572	20.124	9.0909e-002	0.1	835.06
21573	19.847	0.18182	0.1	909.94
21574	19.94	0.27273	0.1	886.75
21575	19.94	9.0909e-002	0.1	876.43
21576	19.663	0.18182	0.1	951.37
21577	19.755	0.27273	0.1	928.07
21578	19.755	9.0909e-002	0.1	917.97
21579	19.478	0.18182	0.1	992.97
21580	19.57	0.27273	0.1	969.56
21581	19.57	9.0909e-002	0.1	959.68
21582	19.294	0.18182	0.1	1034.7
21583	19.386	0.27273	0.1	1011.2
21584	19.386	9.0909e-002	0.1	1001.6
21585	19.109	0.18182	0.1	1076.7
21586	19.201	0.27273	0.1	1053.1
21587	19.201	9.0909e-002	0.1	1043.6
21588	18.924	0.18182	0.1	1118.8
21589	19.017	0.27273	0.1	1095.1
21590	19.017	9.0909e-002	0.1	1085.8
21591	18.74	0.18182	0.1	1161.1
21592	18.832	0.27273	0.1	1137.3
21593	18.832	9.0909e-002	0.1	1128.2
21594	18.555	0.18182	0.1	1203.6
21595	18.648	0.27273	0.1	1179.7
21596	18.648	9.0909e-002	0.1	1170.8
21597	18.371	0.18182	0.1	1246.2
21598	18.463	0.27273	0.1	1222.2
21599	18.463	9.0909e-002	0.1	1213.6
21600	18.186	0.18182	0.1	1289.1
21601	18.278	0.27273	0.1	1265.
21602	18.278	9.0909e-002	0.1	1256.5
21603	18.002	0.18182	0.1	1332.1
21604	18.094	0.27273	0.1	1308.
21605	18.094	9.0909e-002	0.1	1299.7
21606	17.817	0.18182	0.1	1375.4
21607	17.909	0.27273	0.1	1351.1
21608	17.909	9.0909e-002	0.1	1343.
21609	17.632	0.18182	0.1	1418.8
21610	17.725	0.27273	0.1	1394.5
21611	17.725	9.0909e-002	0.1	1386.5
21612	17.448	0.18182	0.1	1462.4
21613	17.54	0.27273	0.1	1438.
21614	17.54	9.0909e-002	0.1	1430.2
21615	17.263	0.18182	0.1	1506.3
21616	17.356	0.27273	0.1	1481.7
21617	17.356	9.0909e-002	0.1	1474.1
21618	17.079	0.18182	0.1	1550.3
21619	17.171	0.27273	0.1	1525.7
21620	17.171	9.0909e-002	0.1	1518.2
21621	16.894	0.18182	0.1	1594.5
21622	16.986	0.27273	0.1	1569.8
21623	16.986	9.0909e-002	0.1	1562.5
21624	16.71	0.18182	0.1	1638.9
21625	16.802	0.27273	0.1	1614.1
21626	16.802	9.0909e-002	0.1	1607.
21627	16.525	0.18182	0.1	1683.5
21628	16.617	0.27273	0.1	1658.6
21629	16.617	9.0909e-002	0.1	1651.7
21630	16.34	0.18182	0.1	1728.3
21631	16.433	0.27273	0.1	1703.4
21632	16.433	9.0909e-002	0.1	1696.6
21633	16.156	0.18182	0.1	1773.4
21634	16.248	0.27273	0.1	1748.3
21635	16.248	9.0909e-002	0.1	1741.6
21636	15.971	0.18182	0.1	1818.6
21637	16.064	0.27273	0.1	1793.4
21638	16.064	9.0909e-002	0.1	1786.9
21639	15.787	0.18182	0.1	1864.
21640	15.879	0.27273	0.1	1838.8
21641	15.879	9.0909e-002	0.1	1832.4
21642	15.602	0.18182	0.1	1909.6
21643	15.694	0.27273	0.1	1884.3
21644	15.694	9.0909e-002	0.1	1878.1
21645	15.418	0.18182	0.1	1955.5
21646	15.51	0.27273	0.1	1930.1
21647	15.51	9.0909e-002	0.1	1924.
21648	15.233	0.18182	0.1	2001.5
21649	15.325	0.27273	0.1	1976.
21650	15.325	9.0909e-002	0.1	1970.1
21651	15.048	0.18182	0.1	2047.8
21652	15.141	0.27273	0.1	2022.1
21653	15.141	9.0909e-002	0.1	2016.4
21654	14.864	0.18182	0.1	2094.2
21655	14.956	0.27273	0.1	2068.5
21656	14.956	9.0909e-002	0.1	2062.9
21657	14.679	0.18182	0.1	2140.9
21658	14.772	0.27273	0.1	2115.1
21659	14.772	9.0909e-002	0.1	2109.6
21660	14.495	0.18182	0.1	2187.7
21661	14.587	0.27273	0.1	2161.8
21662	14.587	9.0909e-002	0.1	2156.6
21663	14.31	0.18182	0.1	2234.8
21664	14.402	0.27273	0.1	2208.8
21665	14.402	9.0909e-002	0.1	2203.7
21666	14.126	0.18182	0.1	2282.1
21667	14.218	0.27273	0.1	2256.
21668	14.218	9.0909e-002	0.1	2251.
21669	13.941	0.18182	0.1	2329.6
21670	14.033	0.27273	0.1	2303.3
21671	14.033	9.0909e-002	0.1	2298.6
21672	13.756	0.18182	0.1	2377.3
21673	13.849	0.27273	0.1	2350.9
21674	13.849	9.0909e-002	0.1	2346.4
21675	13.572	0.18182	0.1	2425.2
21676	13.664	0.27273	0.1	2398.7
21677	13.664	9.0909e-002	0.1	2394.3
21678	13.387	0.18182	0.1	2473.3
21679	13.48	0.27273	0.1	2446.7
21680	13.48	9.0909e-002	0.1	2442.5
21681	13.203	0.18182	0.1	2521.6
21682	13.295	0.27273	0.1	2494.9
21683	13.295	9.0909e-002	0.1	2491.
21684	13.018	0.18182	0.1	2570.2
21685	13.11	0.27273	0.1	2543.3
21686	13.11	9.0909e-002	0.1	2539.6
21687	12.834	0.18182	0.1	2618.9
21688	12.926	0.27273	0.1	2591.9
21689	12.926	9.0909e-002	0.1	2588.4
21690	12.649	0.18182	0.1	2667.9
21691	12.741	0.27273	0.1	2640.8
21692	12.741	9.0909e-002	0.1	2637.5
21693	12.465	0.18182	0.1	2717.1
21694	12.557	0.27273	0.1	2689.8
21695	12.557	9.0909e-002	0.1	2686.8
21696	12.28	0.18182	0.1	2766.5
21697	12.372	0.27273	0.1	2739.
21698	12.372	9.0909e-002	0.1	2736.3
21699	12.095	0.18182	0.1	2816.1
21700	12.188	0.27273	0.1	2788.5
21701	12.188	9.0909e-002	0.1	2786.
21702	11.911	0.18182	0.1	2865.9
21703	12.003	0.27273	0.1	2838.1
21704	12.003	9.0909e-002	0.1	2835.9
21705	11.726	0.18182	0.1	2915.9
21706	11.819	0.27273	0.1	2888.
21707	11.819	9.0909e-002	0.1	2886.1
21708	11.542	0.18182	0.1	2966.1
21709	11.634	0.27273	0.1	2938.
21710	11.634	9.0909e-002	0.1	2936.4
21711	11.357	0.18182	0.1	3016.6
21712	11.449	0.27273	0.1	2988.3
21713	11.449	9.0909e-002	0.1	2987.
21714	11.173	0.18182	0.1	3067.2
21715	11.265	0.27273	0.1	3038.8
21716	11.265	9.0909e-002	0.1	3037.8
21717	10.988	0.18182	0.1	3118.
21718	11.08	0.27273	0.1	3089.4
21719	11.08	9.0909e-002	0.1	3088.8
21720	10.803	0.18182	0.1	3169.1
21721	10.896	0.27273	0.1	3140.3
21722	10.896	9.0909e-002	0.1	3140.1
21723	10.619	0.18182	0.1	3220.3
21724	10.711	0.27273	0.1	3191.3
21725	10.711	9.0909e-002	0.1	3191.5
21726	10.434	0.18182	0.1	3271.7
21727	10.527	0.27273	0.1	3242.5
21728	10.527	9.0909e-002	0.1	3243.1
21729	10.25	0.18182	0.1	3323.2
21730	10.342	0.27273	0.1	3293.9
21731	10.342	9.0909e-002	0.1	3294.8
21732	10.065	0.18182	0.1	3374.8
21733	10.157	0.27273	0.1	3345.4
21734	10.157	9.0909e-002	0.1	3346.7
21735	9.8806	0.18182	0.1	3426.6
21736	9.9728	0.27273	0.1	3397.
21737	9.9728	9.0909e-002	0.1	3398.7
21738	9.696	0.18182	0.1	3478.4
21739	9.7883	0.27273	0.1	3448.7
21740	9.7883	9.0909e-002	0.1	3450.8
21741	9.5114	0.18182	0.1	3530.1
21742	9.6037	0.27273	0.1	3500.4
21743	9.6037	9.0909e-002	0.1	3502.9
21744	9.3269	0.18182	0.1	3581.8
21745	9.4191	0.27273	0.1	3552.1
21746	9.4191	9.0909e-002	0.1	3554.9
21747	9.1423	0.18182	0.1	3633.3
21748	9.2346	0.27273	0.1	3603.7
21749	9.2346	9.0909e-002	0.1	3606.8
21750	8.9577	0.18182	0.1	3684.5
21751	9.05	0.27273	0.1	3655.1
21752	9.05	9.0909e-002	0.1	3658.4
21753	8.7731	0.18182	0.1	3735.2
21754	8.8654	0.27273	0.1	3706.2
21755	8.8654	9.0909e-002	0.1	3709.5
21756	8.5886	0.18182	0.1	3785.2
21757	8.6809	0.27273	0.1	3756.7
21758	8.6809	9.0909e-002	0.1	3760.1
21759	8.404	0.18182	0.1	3834.3
21760	8.4963	0.27273	0.1	3806.5
21761	8.4963	9.0909e-002	0.1	3809.7
21762	8.2194	0.18182	0.1	3882.
21763	8.3117	0.27273	0.1	3855.3
21764	8.3117	9.0909e-002	0.1	3858.1
21765	8.0349	0.18182	0.1	3927.9
21766	8.1272	0.27273	0.1	3902.7
21767	8.1272	9.0909e-002	0.1	3904.9
21768	7.8503	0.18182	0.1	3971.5
21769	7.9426	0.27273	0.1	3948.2
21770	7.9426	9.0909e-002	0.1	3949.5
21771	7.6657	0.18182	0.1	4012.
21772	7.758	0.27273	0.1	3991.2
21773	7.758	9.0909e-002	0.1	3991.3
21774	7.4812	0.18182	0.1	4048.6
21775	7.5735	0.27273	0.1	4031.
21776	7.5735	9.0909e-002	0.1	4029.4
21777	7.2966	0.18182	0.1	4079.9
21778	7.3889	0.27273	0.1	4066.5
21779	7.3889	9.0909e-002	0.1	4062.6
21780	7.112	0.18182	0.1	4104.6
21781	7.2043	0.27273	0.1	4096.6
21782	7.2043	9.0909e-002	0.1	4089.8
21783	6.9275	0.18182	0.1	4120.9
21784	7.0198	0.27273	0.1	4119.6
21785	7.0198	9.0909e-002	0.1	4109.1
21786	6.7429	0.18182	0.1	4126.4
21787	6.8352	0.27273	0.1	4133.7
21788	6.8352	9.0909e-002	0.1	4118.4
21789	6.5583	0.18182	0.1	4118.4
21790	6.6506	0.27273	0.1	4136.3
21791	6.6506	9.0909e-002	0.1	4115.3
21792	6.3738	0.18182	0.1	4093.5
21793	6.466	0.27273	0.1	4124.5
21794	6.466	9.0909e-002	0.1	4096.4
21795	6.1892	0.18182	0.1	4047.6
21796	6.2815	0.27273	0.1	4094.5
21797	6.2815	9.0909e-002	0.1	4058.
21798	6.0046	0.18182	0.1	3975.7
21799	6.0969	0.27273	0.1	4042.
21800	6.0969	9.0909e-002	0.1	3995.4
21801	5.8201	0.18182	0.1	3872.2
21802	5.9123	0.27273	0.1	3961.6
21803	5.9123	9.0909e-002	0.1	3903.2
21804	5.6355	0.18182	0.1	3730.6
21805	5.7278	0.27273	0.1	3847.1
21806	5.7278	9.0909e-002	0.1	3775.1
21807	5.4509	0.18182	0.1	3543.8
21808	5.5432	0.27273	0.1	3691.4
21809	5.5432	9.0909e-002	0.1	3604.3
21810	5.2664	0.18182	0.1	3304.7
21811	5.3586	0.27273	0.1	3487.
21812	5.3586	9.0909e-002	0.1	3383.4
21813	5.0818	0.18182	0.1	3006.3
21814	5.1741	0.27273	0.1	3226.5
21815	5.1741	9.0909e-002	0.1	3105.4
21816	4.8972	0.18182	0.1	2643.6
21817	4.9895	0.27273	0.1	2903.4
21818	4.9895	9.0909e-002	0.1	2764.
21819	4.7127	0.18182	0.1	2214.1
21820	4.8049	0.27273	0.1	2514.8
21821	4.8049	9.0909e-002	0.1	2355.4
21822	4.5281	0.18182	0.1	1721.9
21823	4.6204	0.27273	0.1	2064.7
21824	4.6204	9.0909e-002	0.1	1878.8
21825	4.3435	0.18182	0.1	1199.
21826	4.4358	0.27273	0.1	1579.1
21827	4.4358	9.0909e-002	0.1	1339.7
21828	4.2512	0.27273	0.1	1193.6
21829	4.159	0.18182	0.1	680.06
21830	4.2512	9.0909e-002	0.1	765.48
21831	23.723	0.36364	0.1	95.033
21832	23.815	0.45455	0.1	92.906
21833	23.908	0.36364	0.1	73.549
21834	23.539	0.36364	0.1	123.48
21835	23.631	0.45455	0.1	115.97
21836	23.354	0.36364	0.1	156.8
21837	23.446	0.45455	0.1	145.84
21838	23.169	0.36364	0.1	192.47
21839	23.262	0.45455	0.1	179.31
21840	22.985	0.36364	0.1	229.41
21841	23.077	0.45455	0.1	214.74
21842	22.8	0.36364	0.1	267.12
21843	22.893	0.45455	0.1	251.38
21844	22.616	0.36364	0.1	305.34
21845	22.708	0.45455	0.1	288.79
21846	22.431	0.36364	0.1	343.94
21847	22.523	0.45455	0.1	326.75
21848	22.247	0.36364	0.1	382.82
21849	22.339	0.45455	0.1	365.12
21850	22.062	0.36364	0.1	421.94
21851	22.154	0.45455	0.1	403.81
21852	21.877	0.36364	0.1	461.28
21853	21.97	0.45455	0.1	442.77
21854	21.693	0.36364	0.1	500.79
21855	21.785	0.45455	0.1	481.96
21856	21.508	0.36364	0.1	540.49
21857	21.601	0.45455	0.1	521.37
21858	21.324	0.36364	0.1	580.35
21859	21.416	0.45455	0.1	560.97
21860	21.139	0.36364	0.1	620.37
21861	21.231	0.45455	0.1	600.75
21862	20.955	0.36364	0.1	660.56
21863	21.047	0.45455	0.1	640.72
21864	20.77	0.36364	0.1	700.91
21865	20.862	0.45455	0.1	680.87
21866	20.585	0.36364	0.1	741.43
21867	20.678	0.45455	0.1	721.19
21868	20.401	0.36364	0.1	782.11
21869	20.493	0.45455	0.1	761.69
21870	20.216	0.36364	0.1	822.96
21871	20.309	0.45455	0.1	802.36
21872	20.032	0.36364	0.1	863.98
21873	20.124	0.45455	0.1	843.21
21874	19.847	0.36364	0.1	905.18
21875	19.94	0.45455	0.1	884.25
21876	19.663	0.36364	0.1	946.55
21877	19.755	0.45455	0.1	925.47
21878	19.478	0.36364	0.1	988.09
21879	19.57	0.45455	0.1	966.87
21880	19.294	0.36364	0.1	1029.8
21881	19.386	0.45455	0.1	1008.5
21882	19.109	0.36364	0.1	1071.7
21883	19.201	0.45455	0.1	1050.2
21884	18.924	0.36364	0.1	1113.8
21885	19.017	0.45455	0.1	1092.2
21886	18.74	0.36364	0.1	1156.1
21887	18.832	0.45455	0.1	1134.3
21888	18.555	0.36364	0.1	1198.6
21889	18.648	0.45455	0.1	1176.7
21890	18.371	0.36364	0.1	1241.3
21891	18.463	0.45455	0.1	1219.2
21892	18.186	0.36364	0.1	1284.1
21893	18.278	0.45455	0.1	1262.
21894	18.002	0.36364	0.1	1327.2
21895	18.094	0.45455	0.1	1304.9
21896	17.817	0.36364	0.1	1370.4
21897	17.909	0.45455	0.1	1348.
21898	17.632	0.36364	0.1	1413.9
21899	17.725	0.45455	0.1	1391.3
21900	17.448	0.36364	0.1	1457.5
21901	17.54	0.45455	0.1	1434.9
21902	17.263	0.36364	0.1	1501.3
21903	17.356	0.45455	0.1	1478.6
21904	17.079	0.36364	0.1	1545.4
21905	17.171	0.45455	0.1	1522.5
21906	16.894	0.36364	0.1	1589.6
21907	16.986	0.45455	0.1	1566.6
21908	16.71	0.36364	0.1	1634.1
21909	16.802	0.45455	0.1	1610.9
21910	16.525	0.36364	0.1	1678.7
21911	16.617	0.45455	0.1	1655.5
21912	16.34	0.36364	0.1	1723.5
21913	16.433	0.45455	0.1	1700.2
21914	16.156	0.36364	0.1	1768.6
21915	16.248	0.45455	0.1	1745.1
21916	15.971	0.36364	0.1	1813.8
21917	16.064	0.45455	0.1	1790.2
21918	15.787	0.36364	0.1	1859.3
21919	15.879	0.45455	0.1	1835.6
21920	15.602	0.36364	0.1	1904.9
21921	15.694	0.45455	0.1	1881.1
21922	15.418	0.36364	0.1	1950.8
21923	15.51	0.45455	0.1	1926.8
21924	15.233	0.36364	0.1	1996.8
21925	15.325	0.45455	0.1	1972.8
21926	15.048	0.36364	0.1	2043.1
21927	15.141	0.45455	0.1	2018.9
21928	14.864	0.36364	0.1	2089.5
21929	14.956	0.45455	0.1	2065.2
21930	14.679	0.36364	0.1	2136.2
21931	14.772	0.45455	0.1	2111.8
21932	14.495	0.36364	0.1	2183.
21933	14.587	0.45455	0.1	2158.5
21934	14.31	0.36364	0.1	2230.1
21935	14.402	0.45455	0.1	2205.4
21936	14.126	0.36364	0.1	2277.4
21937	14.218	0.45455	0.1	2252.6
21938	13.941	0.36364	0.1	2324.8
21939	14.033	0.45455	0.1	2299.9
21940	13.756	0.36364	0.1	2372.5
21941	13.849	0.45455	0.1	2347.4
21942	13.572	0.36364	0.1	2420.4
21943	13.664	0.45455	0.1	2395.2
21944	13.387	0.36364	0.1	2468.4
21945	13.48	0.45455	0.1	2443.1
21946	13.203	0.36364	0.1	2516.7
21947	13.295	0.45455	0.1	2491.3
21948	13.018	0.36364	0.1	2565.2
21949	13.11	0.45455	0.1	2539.6
21950	12.834	0.36364	0.1	2613.9
21951	12.926	0.45455	0.1	2588.1
21952	12.649	0.36364	0.1	2662.8
21953	12.741	0.45455	0.1	2636.9
21954	12.465	0.36364	0.1	2711.9
21955	12.557	0.45455	0.1	2685.8
21956	12.28	0.36364	0.1	2761.2
21957	12.372	0.45455	0.1	2734.9
21958	12.095	0.36364	0.1	2810.7
21959	12.188	0.45455	0.1	2784.2
21960	11.911	0.36364	0.1	2860.4
21961	12.003	0.45455	0.1	2833.8
21962	11.726	0.36364	0.1	2910.3
21963	11.819	0.45455	0.1	2883.5
21964	11.542	0.36364	0.1	2960.4
21965	11.634	0.45455	0.1	2933.4
21966	11.357	0.36364	0.1	3010.7
21967	11.449	0.45455	0.1	2983.5
21968	11.173	0.36364	0.1	3061.1
21969	11.265	0.45455	0.1	3033.8
21970	10.988	0.36364	0.1	3111.8
21971	11.08	0.45455	0.1	3084.3
21972	10.803	0.36364	0.1	3162.7
21973	10.896	0.45455	0.1	3134.9
21974	10.619	0.36364	0.1	3213.7
21975	10.711	0.45455	0.1	3185.7
21976	10.434	0.36364	0.1	3264.9
21977	10.527	0.45455	0.1	3236.7
21978	10.25	0.36364	0.1	3316.2
21979	10.342	0.45455	0.1	3287.9
21980	10.065	0.36364	0.1	3367.7
21981	10.157	0.45455	0.1	3339.2
21982	9.8806	0.36364	0.1	3419.3
21983	9.9728	0.45455	0.1	3390.6
21984	9.696	0.36364	0.1	3470.9
21985	9.7883	0.45455	0.1	3442.1
21986	9.5114	0.36364	0.1	3522.6
21987	9.6037	0.45455	0.1	3493.6
21988	9.3269	0.36364	0.1	3574.2
21989	9.4191	0.45455	0.1	3545.2
21990	9.1423	0.36364	0.1	3625.7
21991	9.2346	0.45455	0.1	3596.7
21992	8.9577	0.36364	0.1	3676.9
21993	9.05	0.45455	0.1	3648.1
21994	8.7731	0.36364	0.1	3727.8
21995	8.8654	0.45455	0.1	3699.2
21996	8.5886	0.36364	0.1	3778.1
21997	8.6809	0.45455	0.1	3749.9
21998	8.404	0.36364	0.1	3827.6
21999	8.4963	0.45455	0.1	3800.
22000	8.2194	0.36364	0.1	3876.
22001	8.3117	0.45455	0.1	3849.4
22002	8.0349	0.36364	0.1	3923.
22003	8.1272	0.45455	0.1	3897.5
22004	7.8503	0.36364	0.1	3967.9
22005	7.9426	0.45455	0.1	3944.2
22006	7.6657	0.36364	0.1	4010.2
22007	7.758	0.45455	0.1	3988.7
22008	7.4812	0.36364	0.1	4049.
22009	7.5735	0.45455	0.1	4030.5
22010	7.2966	0.36364	0.1	4083.3
22011	7.3889	0.45455	0.1	4068.7
22012	7.112	0.36364	0.1	4111.6
22013	7.2043	0.45455	0.1	4102.1
22014	6.9275	0.36364	0.1	4132.4
22015	7.0198	0.45455	0.1	4129.4
22016	6.7429	0.36364	0.1	4143.6
22017	6.8352	0.45455	0.1	4148.7
22018	6.5583	0.36364	0.1	4142.3
22019	6.6506	0.45455	0.1	4157.8
22020	6.3738	0.36364	0.1	4125.4
22021	6.466	0.45455	0.1	4153.9
22022	6.1892	0.36364	0.1	4088.8
22023	6.2815	0.45455	0.1	4133.5
22024	6.0046	0.36364	0.1	4027.6
22025	6.0969	0.45455	0.1	4092.2
22026	5.8201	0.36364	0.1	3935.9
22027	5.9123	0.45455	0.1	4025.
22028	5.6355	0.36364	0.1	3807.1
22029	5.7278	0.45455	0.1	3925.5
22030	5.4509	0.36364	0.1	3633.4
22031	5.5432	0.45455	0.1	3786.7
22032	5.2664	0.36364	0.1	3407.2
22033	5.3586	0.45455	0.1	3601.
22034	5.0818	0.36364	0.1	3121.3
22035	5.1741	0.45455	0.1	3360.7
22036	4.8972	0.36364	0.1	2771.4
22037	4.9895	0.45455	0.1	3060.3
22038	4.7127	0.36364	0.1	2360.3
22039	4.8049	0.45455	0.1	2700.1
22040	4.5281	0.36364	0.1	1910.7
22041	4.6204	0.45455	0.1	2294.6
22042	4.3435	0.36364	0.1	1523.7
22043	4.4358	0.45455	0.1	1897.4
22044	4.2512	0.45455	0.1	1708.3
22045	4.159	0.36364	0.1	1118.6
22046	23.723	0.54545	0.1	112.98
22047	23.815	0.63636	0.1	111.01
22048	23.908	0.54545	0.1	94.048
22049	23.539	0.54545	0.1	138.28
22050	23.631	0.63636	0.1	131.95
22051	23.354	0.54545	0.1	168.6
22052	23.446	0.63636	0.1	159.13
22053	23.169	0.54545	0.1	201.89
22054	23.262	0.63636	0.1	190.19
22055	22.985	0.54545	0.1	237.02
22056	23.077	0.63636	0.1	223.68
22057	22.8	0.54545	0.1	273.34
22058	22.893	0.63636	0.1	258.77
22059	22.616	0.54545	0.1	310.46
22060	22.708	0.63636	0.1	294.95
22061	22.431	0.54545	0.1	348.17
22062	22.523	0.63636	0.1	331.91
22063	22.247	0.54545	0.1	386.32
22064	22.339	0.63636	0.1	369.45
22065	22.062	0.54545	0.1	424.82
22066	22.154	0.63636	0.1	407.44
22067	21.877	0.54545	0.1	463.63
22068	21.97	0.63636	0.1	445.81
22069	21.693	0.54545	0.1	502.69
22070	21.785	0.63636	0.1	484.49
22071	21.508	0.54545	0.1	541.99
22072	21.601	0.63636	0.1	523.45
22073	21.324	0.54545	0.1	581.51
22074	21.416	0.63636	0.1	562.66
22075	21.139	0.54545	0.1	621.22
22076	21.231	0.63636	0.1	602.1
22077	20.955	0.54545	0.1	661.14
22078	21.047	0.63636	0.1	641.76
22079	20.77	0.54545	0.1	701.25
22080	20.862	0.63636	0.1	681.63
22081	20.585	0.54545	0.1	741.55
22082	20.678	0.63636	0.1	721.71
22083	20.401	0.54545	0.1	782.03
22084	20.493	0.63636	0.1	761.99
22085	20.216	0.54545	0.1	822.71
22086	20.309	0.63636	0.1	802.47
22087	20.032	0.54545	0.1	863.57
22088	20.124	0.63636	0.1	843.15
22089	19.847	0.54545	0.1	904.62
22090	19.94	0.63636	0.1	884.02
22091	19.663	0.54545	0.1	945.87
22092	19.755	0.63636	0.1	925.09
22093	19.478	0.54545	0.1	987.3
22094	19.57	0.63636	0.1	966.37
22095	19.294	0.54545	0.1	1028.9
22096	19.386	0.63636	0.1	1007.8
22097	19.109	0.54545	0.1	1070.7
22098	19.201	0.63636	0.1	1049.5
22099	18.924	0.54545	0.1	1112.8
22100	19.017	0.63636	0.1	1091.4
22101	18.74	0.54545	0.1	1155.
22102	18.832	0.63636	0.1	1133.4
22103	18.555	0.54545	0.1	1197.4
22104	18.648	0.63636	0.1	1175.7
22105	18.371	0.54545	0.1	1240.
22106	18.463	0.63636	0.1	1218.2
22107	18.186	0.54545	0.1	1282.8
22108	18.278	0.63636	0.1	1260.8
22109	18.002	0.54545	0.1	1325.8
22110	18.094	0.63636	0.1	1303.7
22111	17.817	0.54545	0.1	1369.
22112	17.909	0.63636	0.1	1346.8
22113	17.632	0.54545	0.1	1412.4
22114	17.725	0.63636	0.1	1390.1
22115	17.448	0.54545	0.1	1456.
22116	17.54	0.63636	0.1	1433.6
22117	17.263	0.54545	0.1	1499.8
22118	17.356	0.63636	0.1	1477.2
22119	17.079	0.54545	0.1	1543.8
22120	17.171	0.63636	0.1	1521.1
22121	16.894	0.54545	0.1	1588.
22122	16.986	0.63636	0.1	1565.2
22123	16.71	0.54545	0.1	1632.4
22124	16.802	0.63636	0.1	1609.5
22125	16.525	0.54545	0.1	1677.
22126	16.617	0.63636	0.1	1654.
22127	16.34	0.54545	0.1	1721.8
22128	16.433	0.63636	0.1	1698.7
22129	16.156	0.54545	0.1	1766.8
22130	16.248	0.63636	0.1	1743.6
22131	15.971	0.54545	0.1	1812.1
22132	16.064	0.63636	0.1	1788.7
22133	15.787	0.54545	0.1	1857.5
22134	15.879	0.63636	0.1	1834.
22135	15.602	0.54545	0.1	1903.1
22136	15.694	0.63636	0.1	1879.4
22137	15.418	0.54545	0.1	1948.9
22138	15.51	0.63636	0.1	1925.1
22139	15.233	0.54545	0.1	1994.9
22140	15.325	0.63636	0.1	1971.
22141	15.048	0.54545	0.1	2041.1
22142	15.141	0.63636	0.1	2017.1
22143	14.864	0.54545	0.1	2087.5
22144	14.956	0.63636	0.1	2063.4
22145	14.679	0.54545	0.1	2134.1
22146	14.772	0.63636	0.1	2109.9
22147	14.495	0.54545	0.1	2181.
22148	14.587	0.63636	0.1	2156.6
22149	14.31	0.54545	0.1	2228.
22150	14.402	0.63636	0.1	2203.5
22151	14.126	0.54545	0.1	2275.2
22152	14.218	0.63636	0.1	2250.6
22153	13.941	0.54545	0.1	2322.6
22154	14.033	0.63636	0.1	2297.8
22155	13.756	0.54545	0.1	2370.2
22156	13.849	0.63636	0.1	2345.3
22157	13.572	0.54545	0.1	2418.
22158	13.664	0.63636	0.1	2393.
22159	13.387	0.54545	0.1	2466.
22160	13.48	0.63636	0.1	2440.8
22161	13.203	0.54545	0.1	2514.2
22162	13.295	0.63636	0.1	2488.9
22163	13.018	0.54545	0.1	2562.5
22164	13.11	0.63636	0.1	2537.1
22165	12.834	0.54545	0.1	2611.1
22166	12.926	0.63636	0.1	2585.5
22167	12.649	0.54545	0.1	2659.9
22168	12.741	0.63636	0.1	2634.2
22169	12.465	0.54545	0.1	2708.9
22170	12.557	0.63636	0.1	2683.
22171	12.28	0.54545	0.1	2758.
22172	12.372	0.63636	0.1	2732.
22173	12.095	0.54545	0.1	2807.4
22174	12.188	0.63636	0.1	2781.1
22175	11.911	0.54545	0.1	2856.9
22176	12.003	0.63636	0.1	2830.5
22177	11.726	0.54545	0.1	2906.6
22178	11.819	0.63636	0.1	2880.1
22179	11.542	0.54545	0.1	2956.5
22180	11.634	0.63636	0.1	2929.8
22181	11.357	0.54545	0.1	3006.6
22182	11.449	0.63636	0.1	2979.7
22183	11.173	0.54545	0.1	3056.9
22184	11.265	0.63636	0.1	3029.8
22185	10.988	0.54545	0.1	3107.4
22186	11.08	0.63636	0.1	3080.1
22187	10.803	0.54545	0.1	3158.
22188	10.896	0.63636	0.1	3130.5
22189	10.619	0.54545	0.1	3208.8
22190	10.711	0.63636	0.1	3181.1
22191	10.434	0.54545	0.1	3259.8
22192	10.527	0.63636	0.1	3231.8
22193	10.25	0.54545	0.1	3310.9
22194	10.342	0.63636	0.1	3282.7
22195	10.065	0.54545	0.1	3362.1
22196	10.157	0.63636	0.1	3333.8
22197	9.8806	0.54545	0.1	3413.4
22198	9.9728	0.63636	0.1	3384.9
22199	9.696	0.54545	0.1	3464.8
22200	9.7883	0.63636	0.1	3436.2
22201	9.5114	0.54545	0.1	3516.3
22202	9.6037	0.63636	0.1	3487.5
22203	9.3269	0.54545	0.1	3567.8
22204	9.4191	0.63636	0.1	3538.9
22205	9.1423	0.54545	0.1	3619.1
22206	9.2346	0.63636	0.1	3590.3
22207	8.9577	0.54545	0.1	3670.4
22208	9.05	0.63636	0.1	3641.6
22209	8.7731	0.54545	0.1	3721.3
22210	8.8654	0.63636	0.1	3692.7
22211	8.5886	0.54545	0.1	3771.9
22212	8.6809	0.63636	0.1	3743.5
22213	8.404	0.54545	0.1	3821.8
22214	8.4963	0.63636	0.1	3794.
22215	8.2194	0.54545	0.1	3870.9
22216	8.3117	0.63636	0.1	3843.8
22217	8.0349	0.54545	0.1	3918.8
22218	8.1272	0.63636	0.1	3892.7
22219	7.8503	0.54545	0.1	3965.
22220	7.9426	0.63636	0.1	3940.4
22221	7.6657	0.54545	0.1	4009.1
22222	7.758	0.63636	0.1	3986.5
22223	7.4812	0.54545	0.1	4050.2
22224	7.5735	0.63636	0.1	4030.3
22225	7.2966	0.54545	0.1	4087.5
22226	7.3889	0.63636	0.1	4071.2
22227	7.112	0.54545	0.1	4119.8
22228	7.2043	0.63636	0.1	4108.1
22229	6.9275	0.54545	0.1	4145.6
22230	7.0198	0.63636	0.1	4139.8
22231	6.7429	0.54545	0.1	4162.9
22232	6.8352	0.63636	0.1	4164.9
22233	6.5583	0.54545	0.1	4169.3
22234	6.6506	0.63636	0.1	4181.2
22235	6.3738	0.54545	0.1	4161.8
22236	6.466	0.63636	0.1	4186.3
22237	6.1892	0.54545	0.1	4136.7
22238	6.2815	0.63636	0.1	4177.
22239	6.0046	0.54545	0.1	4089.2
22240	6.0969	0.63636	0.1	4149.4
22241	5.8201	0.54545	0.1	4013.8
22242	5.9123	0.63636	0.1	4098.8
22243	5.6355	0.54545	0.1	3904.
22244	5.7278	0.63636	0.1	4019.5
22245	5.4509	0.54545	0.1	3752.5
22246	5.5432	0.63636	0.1	3905.
22247	5.2664	0.54545	0.1	3551.8
22248	5.3586	0.63636	0.1	3748.3
22249	5.0818	0.54545	0.1	3295.6
22250	5.1741	0.63636	0.1	3542.9
22251	4.8972	0.54545	0.1	2982.2
22252	4.9895	0.63636	0.1	3284.9
22253	4.7127	0.54545	0.1	2621.5
22254	4.8049	0.63636	0.1	2978.8
22255	4.5281	0.54545	0.1	2252.
22256	4.6204	0.63636	0.1	2647.
22257	4.3435	0.54545	0.1	2006.3
22258	4.4358	0.63636	0.1	2354.7
22259	4.2512	0.63636	0.1	2315.4
22260	4.159	0.54545	0.1	1601.2
22261	23.723	0.72727	0.1	128.84
22262	23.815	0.81818	0.1	126.49
22263	23.908	0.72727	0.1	111.3
22264	23.539	0.72727	0.1	152.36
22265	23.631	0.81818	0.1	146.27
22266	23.354	0.72727	0.1	180.65
22267	23.446	0.81818	0.1	171.8
22268	23.169	0.72727	0.1	212.07
22269	23.262	0.81818	0.1	201.12
22270	22.985	0.72727	0.1	245.59
22271	23.077	0.81818	0.1	233.04
22272	22.8	0.72727	0.1	280.57
22273	22.893	0.81818	0.1	266.76
22274	22.616	0.72727	0.1	316.58
22275	22.708	0.81818	0.1	301.78
22276	22.431	0.72727	0.1	353.36
22277	22.523	0.81818	0.1	337.75
22278	22.247	0.72727	0.1	390.73
22279	22.339	0.81818	0.1	374.45
22280	22.062	0.72727	0.1	428.57
22281	22.154	0.81818	0.1	411.72
22282	21.877	0.72727	0.1	466.8
22283	21.97	0.81818	0.1	449.46
22284	21.693	0.72727	0.1	505.37
22285	21.785	0.81818	0.1	487.6
22286	21.508	0.72727	0.1	544.23
22287	21.601	0.81818	0.1	526.09
22288	21.324	0.72727	0.1	583.36
22289	21.416	0.81818	0.1	564.88
22290	21.139	0.72727	0.1	622.74
22291	21.231	0.81818	0.1	603.95
22292	20.955	0.72727	0.1	662.35
22293	21.047	0.81818	0.1	643.28
22294	20.77	0.72727	0.1	702.18
22295	20.862	0.81818	0.1	682.85
22296	20.585	0.72727	0.1	742.24
22297	20.678	0.81818	0.1	722.67
22298	20.401	0.72727	0.1	782.51
22299	20.493	0.81818	0.1	762.71
22300	20.216	0.72727	0.1	822.99
22301	20.309	0.81818	0.1	802.97
22302	20.032	0.72727	0.1	863.67
22303	20.124	0.81818	0.1	843.46
22304	19.847	0.72727	0.1	904.57
22305	19.94	0.81818	0.1	884.16
22306	19.663	0.72727	0.1	945.67
22307	19.755	0.81818	0.1	925.08
22308	19.478	0.72727	0.1	986.97
22309	19.57	0.81818	0.1	966.21
22310	19.294	0.72727	0.1	1028.5
22311	19.386	0.81818	0.1	1007.6
22312	19.109	0.72727	0.1	1070.2
22313	19.201	0.81818	0.1	1049.1
22314	18.924	0.72727	0.1	1112.1
22315	19.017	0.81818	0.1	1090.9
22316	18.74	0.72727	0.1	1154.2
22317	18.832	0.81818	0.1	1132.8
22318	18.555	0.72727	0.1	1196.6
22319	18.648	0.81818	0.1	1175.
22320	18.371	0.72727	0.1	1239.1
22321	18.463	0.81818	0.1	1217.4
22322	18.186	0.72727	0.1	1281.8
22323	18.278	0.81818	0.1	1260.
22324	18.002	0.72727	0.1	1324.8
22325	18.094	0.81818	0.1	1302.8
22326	17.817	0.72727	0.1	1367.9
22327	17.909	0.81818	0.1	1345.8
22328	17.632	0.72727	0.1	1411.3
22329	17.725	0.81818	0.1	1389.1
22330	17.448	0.72727	0.1	1454.8
22331	17.54	0.81818	0.1	1432.5
22332	17.263	0.72727	0.1	1498.6
22333	17.356	0.81818	0.1	1476.1
22334	17.079	0.72727	0.1	1542.6
22335	17.171	0.81818	0.1	1520.
22336	16.894	0.72727	0.1	1586.7
22337	16.986	0.81818	0.1	1564.
22338	16.71	0.72727	0.1	1631.1
22339	16.802	0.81818	0.1	1608.3
22340	16.525	0.72727	0.1	1675.7
22341	16.617	0.81818	0.1	1652.7
22342	16.34	0.72727	0.1	1720.4
22343	16.433	0.81818	0.1	1697.4
22344	16.156	0.72727	0.1	1765.4
22345	16.248	0.81818	0.1	1742.2
22346	15.971	0.72727	0.1	1810.6
22347	16.064	0.81818	0.1	1787.3
22348	15.787	0.72727	0.1	1856.
22349	15.879	0.81818	0.1	1832.5
22350	15.602	0.72727	0.1	1901.6
22351	15.694	0.81818	0.1	1878.
22352	15.418	0.72727	0.1	1947.3
22353	15.51	0.81818	0.1	1923.7
22354	15.233	0.72727	0.1	1993.3
22355	15.325	0.81818	0.1	1969.5
22356	15.048	0.72727	0.1	2039.5
22357	15.141	0.81818	0.1	2015.6
22358	14.864	0.72727	0.1	2085.8
22359	14.956	0.81818	0.1	2061.8
22360	14.679	0.72727	0.1	2132.4
22361	14.772	0.81818	0.1	2108.3
22362	14.495	0.72727	0.1	2179.2
22363	14.587	0.81818	0.1	2154.9
22364	14.31	0.72727	0.1	2226.1
22365	14.402	0.81818	0.1	2201.7
22366	14.126	0.72727	0.1	2273.3
22367	14.218	0.81818	0.1	2248.8
22368	13.941	0.72727	0.1	2320.6
22369	14.033	0.81818	0.1	2296.
22370	13.756	0.72727	0.1	2368.1
22371	13.849	0.81818	0.1	2343.4
22372	13.572	0.72727	0.1	2415.9
22373	13.664	0.81818	0.1	2391.
22374	13.387	0.72727	0.1	2463.8
22375	13.48	0.81818	0.1	2438.7
22376	13.203	0.72727	0.1	2511.9
22377	13.295	0.81818	0.1	2486.7
22378	13.018	0.72727	0.1	2560.1
22379	13.11	0.81818	0.1	2534.8
22380	12.834	0.72727	0.1	2608.6
22381	12.926	0.81818	0.1	2583.2
22382	12.649	0.72727	0.1	2657.3
22383	12.741	0.81818	0.1	2631.7
22384	12.465	0.72727	0.1	2706.1
22385	12.557	0.81818	0.1	2680.4
22386	12.28	0.72727	0.1	2755.1
22387	12.372	0.81818	0.1	2729.2
22388	12.095	0.72727	0.1	2804.3
22389	12.188	0.81818	0.1	2778.3
22390	11.911	0.72727	0.1	2853.7
22391	12.003	0.81818	0.1	2827.5
22392	11.726	0.72727	0.1	2903.3
22393	11.819	0.81818	0.1	2876.9
22394	11.542	0.72727	0.1	2953.
22395	11.634	0.81818	0.1	2926.4
22396	11.357	0.72727	0.1	3002.9
22397	11.449	0.81818	0.1	2976.1
22398	11.173	0.72727	0.1	3053.
22399	11.265	0.81818	0.1	3026.
22400	10.988	0.72727	0.1	3103.2
22401	11.08	0.81818	0.1	3076.1
22402	10.803	0.72727	0.1	3153.6
22403	10.896	0.81818	0.1	3126.3
22404	10.619	0.72727	0.1	3204.1
22405	10.711	0.81818	0.1	3176.6
22406	10.434	0.72727	0.1	3254.8
22407	10.527	0.81818	0.1	3227.1
22408	10.25	0.72727	0.1	3305.7
22409	10.342	0.81818	0.1	3277.8
22410	10.065	0.72727	0.1	3356.7
22411	10.157	0.81818	0.1	3328.6
22412	9.8806	0.72727	0.1	3407.7
22413	9.9728	0.81818	0.1	3379.5
22414	9.696	0.72727	0.1	3458.9
22415	9.7883	0.81818	0.1	3430.5
22416	9.5114	0.72727	0.1	3510.2
22417	9.6037	0.81818	0.1	3481.6
22418	9.3269	0.72727	0.1	3561.5
22419	9.4191	0.81818	0.1	3532.7
22420	9.1423	0.72727	0.1	3612.7
22421	9.2346	0.81818	0.1	3583.9
22422	8.9577	0.72727	0.1	3663.9
22423	9.05	0.81818	0.1	3635.1
22424	8.7731	0.72727	0.1	3714.9
22425	8.8654	0.81818	0.1	3686.2
22426	8.5886	0.72727	0.1	3765.7
22427	8.6809	0.81818	0.1	3737.1
22428	8.404	0.72727	0.1	3816.
22429	8.4963	0.81818	0.1	3787.8
22430	8.2194	0.72727	0.1	3865.6
22431	8.3117	0.81818	0.1	3838.
22432	8.0349	0.72727	0.1	3914.4
22433	8.1272	0.81818	0.1	3887.6
22434	7.8503	0.72727	0.1	3961.9
22435	7.9426	0.81818	0.1	3936.4
22436	7.6657	0.72727	0.1	4007.7
22437	7.758	0.81818	0.1	3983.9
22438	7.4812	0.72727	0.1	4051.3
22439	7.5735	0.81818	0.1	4029.7
22440	7.2966	0.72727	0.1	4091.7
22441	7.3889	0.81818	0.1	4073.3
22442	7.112	0.72727	0.1	4128.1
22443	7.2043	0.81818	0.1	4113.8
22444	6.9275	0.72727	0.1	4159.1
22445	7.0198	0.81818	0.1	4150.3
22446	6.7429	0.72727	0.1	4183.1
22447	6.8352	0.81818	0.1	4181.4
22448	6.5583	0.72727	0.1	4198.
22449	6.6506	0.81818	0.1	4205.5
22450	6.3738	0.72727	0.1	4201.2
22451	6.466	0.81818	0.1	4220.4
22452	6.1892	0.72727	0.1	4189.4
22453	6.2815	0.81818	0.1	4223.7
22454	6.0046	0.72727	0.1	4158.4
22455	6.0969	0.81818	0.1	4212.
22456	5.8201	0.72727	0.1	4103.5
22457	5.9123	0.81818	0.1	4181.3
22458	5.6355	0.72727	0.1	4018.9
22459	5.7278	0.81818	0.1	4127.1
22460	5.4509	0.72727	0.1	3898.1
22461	5.5432	0.81818	0.1	4043.9
22462	5.2664	0.72727	0.1	3734.9
22463	5.3586	0.81818	0.1	3926.2
22464	5.0818	0.72727	0.1	3524.7
22465	5.1741	0.81818	0.1	3769.4
22466	4.8972	0.72727	0.1	3268.4
22467	4.9895	0.81818	0.1	3572.1
22468	4.7127	0.72727	0.1	2980.5
22469	4.8049	0.81818	0.1	3341.2
22470	4.5281	0.72727	0.1	2704.8
22471	4.6204	0.81818	0.1	3101.7
22472	4.3435	0.72727	0.1	2582.2
22473	4.4358	0.81818	0.1	2915.7
22474	4.2512	0.81818	0.1	3005.2
22475	4.159	0.72727	0.1	2128.
22476	23.723	0.90909	0.1	142.7
22477	23.815	1.	0.1	139.84
22478	23.908	0.90909	0.1	126.06
22479	23.539	0.90909	0.1	165.1
22480	23.631	1.	0.1	158.91
22481	23.354	0.90909	0.1	192.01
22482	23.446	1.	0.1	183.33
22483	23.169	0.90909	0.1	222.03
22484	23.262	1.	0.1	211.43
22485	22.985	0.90909	0.1	254.24
22486	23.077	1.	0.1	242.13
22487	22.8	0.90909	0.1	288.06
22488	22.893	1.	0.1	274.72
22489	22.616	0.90909	0.1	323.05
22490	22.708	1.	0.1	308.72
22491	22.431	0.90909	0.1	358.95
22492	22.523	1.	0.1	343.8
22493	22.247	0.90909	0.1	395.56
22494	22.339	1.	0.1	379.71
22495	22.062	0.90909	0.1	432.73
22496	22.154	1.	0.1	416.29
22497	21.877	0.90909	0.1	470.38
22498	21.97	1.	0.1	453.42
22499	21.693	0.90909	0.1	508.43
22500	21.785	1.	0.1	491.02
22501	21.508	0.90909	0.1	546.84
22502	21.601	1.	0.1	529.02
22503	21.324	0.90909	0.1	585.56
22504	21.416	1.	0.1	567.38
22505	21.139	0.90909	0.1	624.58
22506	21.231	1.	0.1	606.07
22507	20.955	0.90909	0.1	663.87
22508	21.047	1.	0.1	645.06
22509	20.77	0.90909	0.1	703.42
22510	20.862	1.	0.1	684.33
22511	20.585	0.90909	0.1	743.22
22512	20.678	1.	0.1	723.87
22513	20.401	0.90909	0.1	783.25
22514	20.493	1.	0.1	763.66
22515	20.216	0.90909	0.1	823.52
22516	20.309	1.	0.1	803.71
22517	20.032	0.90909	0.1	864.02
22518	20.124	1.	0.1	843.99
22519	19.847	0.90909	0.1	904.75
22520	19.94	1.	0.1	884.51
22521	19.663	0.90909	0.1	945.69
22522	19.755	1.	0.1	925.27
22523	19.478	0.90909	0.1	986.86
22524	19.57	1.	0.1	966.25
22525	19.294	0.90909	0.1	1028.2
22526	19.386	1.	0.1	1007.5
22527	19.109	0.90909	0.1	1069.8
22528	19.201	1.	0.1	1048.9
22529	18.924	0.90909	0.1	1111.7
22530	19.017	1.	0.1	1090.5
22531	18.74	0.90909	0.1	1153.7
22532	18.832	1.	0.1	1132.4
22533	18.555	0.90909	0.1	1195.9
22534	18.648	1.	0.1	1174.5
22535	18.371	0.90909	0.1	1238.4
22536	18.463	1.	0.1	1216.8
22537	18.186	0.90909	0.1	1281.1
22538	18.278	1.	0.1	1259.4
22539	18.002	0.90909	0.1	1323.9
22540	18.094	1.	0.1	1302.1
22541	17.817	0.90909	0.1	1367.
22542	17.909	1.	0.1	1345.
22543	17.632	0.90909	0.1	1410.3
22544	17.725	1.	0.1	1388.2
22545	17.448	0.90909	0.1	1453.8
22546	17.54	1.	0.1	1431.6
22547	17.263	0.90909	0.1	1497.6
22548	17.356	1.	0.1	1475.2
22549	17.079	0.90909	0.1	1541.5
22550	17.171	1.	0.1	1519.
22551	16.894	0.90909	0.1	1585.6
22552	16.986	1.	0.1	1563.
22553	16.71	0.90909	0.1	1629.9
22554	16.802	1.	0.1	1607.2
22555	16.525	0.90909	0.1	1674.5
22556	16.617	1.	0.1	1651.6
22557	16.34	0.90909	0.1	1719.2
22558	16.433	1.	0.1	1696.2
22559	16.156	0.90909	0.1	1764.1
22560	16.248	1.	0.1	1741.
22561	15.971	0.90909	0.1	1809.3
22562	16.064	1.	0.1	1786.1
22563	15.787	0.90909	0.1	1854.6
22564	15.879	1.	0.1	1831.3
22565	15.602	0.90909	0.1	1900.2
22566	15.694	1.	0.1	1876.7
22567	15.418	0.90909	0.1	1945.9
22568	15.51	1.	0.1	1922.3
22569	15.233	0.90909	0.1	1991.8
22570	15.325	1.	0.1	1968.1
22571	15.048	0.90909	0.1	2038.
22572	15.141	1.	0.1	2014.1
22573	14.864	0.90909	0.1	2084.3
22574	14.956	1.	0.1	2060.4
22575	14.679	0.90909	0.1	2130.8
22576	14.772	1.	0.1	2106.7
22577	14.495	0.90909	0.1	2177.5
22578	14.587	1.	0.1	2153.3
22579	14.31	0.90909	0.1	2224.4
22580	14.402	1.	0.1	2200.1
22581	14.126	0.90909	0.1	2271.5
22582	14.218	1.	0.1	2247.1
22583	13.941	0.90909	0.1	2318.8
22584	14.033	1.	0.1	2294.2
22585	13.756	0.90909	0.1	2366.2
22586	13.849	1.	0.1	2341.6
22587	13.572	0.90909	0.1	2413.9
22588	13.664	1.	0.1	2389.1
22589	13.387	0.90909	0.1	2461.7
22590	13.48	1.	0.1	2436.8
22591	13.203	0.90909	0.1	2509.7
22592	13.295	1.	0.1	2484.7
22593	13.018	0.90909	0.1	2557.9
22594	13.11	1.	0.1	2532.7
22595	12.834	0.90909	0.1	2606.3
22596	12.926	1.	0.1	2580.9
22597	12.649	0.90909	0.1	2654.8
22598	12.741	1.	0.1	2629.3
22599	12.465	0.90909	0.1	2703.5
22600	12.557	1.	0.1	2677.9
22601	12.28	0.90909	0.1	2752.4
22602	12.372	1.	0.1	2726.6
22603	12.095	0.90909	0.1	2801.4
22604	12.188	1.	0.1	2775.5
22605	11.911	0.90909	0.1	2850.7
22606	12.003	1.	0.1	2824.6
22607	11.726	0.90909	0.1	2900.
22608	11.819	1.	0.1	2873.8
22609	11.542	0.90909	0.1	2949.6
22610	11.634	1.	0.1	2923.2
22611	11.357	0.90909	0.1	2999.3
22612	11.449	1.	0.1	2972.7
22613	11.173	0.90909	0.1	3049.2
22614	11.265	1.	0.1	3022.4
22615	10.988	0.90909	0.1	3099.2
22616	11.08	1.	0.1	3072.3
22617	10.803	0.90909	0.1	3149.3
22618	10.896	1.	0.1	3122.2
22619	10.619	0.90909	0.1	3199.6
22620	10.711	1.	0.1	3172.3
22621	10.434	0.90909	0.1	3250.1
22622	10.527	1.	0.1	3222.6
22623	10.25	0.90909	0.1	3300.7
22624	10.342	1.	0.1	3273.
22625	10.065	0.90909	0.1	3351.4
22626	10.157	1.	0.1	3323.5
22627	9.8806	0.90909	0.1	3402.2
22628	9.9728	1.	0.1	3374.1
22629	9.696	0.90909	0.1	3453.1
22630	9.7883	1.	0.1	3424.9
22631	9.5114	0.90909	0.1	3504.1
22632	9.6037	1.	0.1	3475.7
22633	9.3269	0.90909	0.1	3555.2
22634	9.4191	1.	0.1	3526.6
22635	9.1423	0.90909	0.1	3606.3
22636	9.2346	1.	0.1	3577.6
22637	8.9577	0.90909	0.1	3657.4
22638	9.05	1.	0.1	3628.6
22639	8.7731	0.90909	0.1	3708.4
22640	8.8654	1.	0.1	3679.7
22641	8.5886	0.90909	0.1	3759.3
22642	8.6809	1.	0.1	3730.6
22643	8.404	0.90909	0.1	3809.9
22644	8.4963	1.	0.1	3781.4
22645	8.2194	0.90909	0.1	3860.1
22646	8.3117	1.	0.1	3832.
22647	8.0349	0.90909	0.1	3909.7
22648	8.1272	1.	0.1	3882.3
22649	7.8503	0.90909	0.1	3958.4
22650	7.9426	1.	0.1	3932.
22651	7.6657	0.90909	0.1	4006.
22652	7.758	1.	0.1	3980.9
22653	7.4812	0.90909	0.1	4051.8
22654	7.5735	1.	0.1	4028.7
22655	7.2966	0.90909	0.1	4095.4
22656	7.3889	1.	0.1	4074.9
22657	7.112	0.90909	0.1	4136.
22658	7.2043	1.	0.1	4119.
22659	6.9275	0.90909	0.1	4172.5
22660	7.0198	1.	0.1	4160.3
22661	6.7429	0.90909	0.1	4203.7
22662	6.8352	1.	0.1	4197.7
22663	6.5583	0.90909	0.1	4227.8
22664	6.6506	1.	0.1	4230.
22665	6.3738	0.90909	0.1	4242.8
22666	6.466	1.	0.1	4255.7
22667	6.1892	0.90909	0.1	4246.
22668	6.2815	1.	0.1	4272.8
22669	6.0046	0.90909	0.1	4234.2
22670	6.0969	1.	0.1	4278.8
22671	5.8201	0.90909	0.1	4203.7
22672	5.9123	1.	0.1	4271.
22673	5.6355	0.90909	0.1	4150.
22674	5.7278	1.	0.1	4246.
22675	5.4509	0.90909	0.1	4068.3
22676	5.5432	1.	0.1	4200.4
22677	5.2664	0.90909	0.1	3954.4
22678	5.3586	1.	0.1	4130.8
22679	5.0818	0.90909	0.1	3805.8
22680	5.1741	1.	0.1	4035.4
22681	4.8972	0.90909	0.1	3625.6
22682	4.9895	1.	0.1	3915.5
22683	4.7127	0.90909	0.1	3429.1
22684	4.8049	1.	0.1	3780.1
22685	4.5281	0.90909	0.1	3256.9
22686	4.6204	1.	0.1	3651.7
22687	4.3435	0.90909	0.1	3252.4
22688	4.4358	1.	0.1	3582.3
22689	4.2512	1.	0.1	3808.4
22690	4.159	0.90909	0.1	2723.1
22691	23.723	1.0909	0.1	154.81
22692	23.815	1.1818	0.1	151.42
22693	23.908	1.0909	0.1	138.81
22694	23.539	1.0909	0.1	176.43
22695	23.631	1.1818	0.1	169.99
22696	23.354	1.0909	0.1	202.37
22697	23.446	1.1818	0.1	193.63
22698	23.169	1.0909	0.1	231.35
22699	23.262	1.1818	0.1	220.84
22700	22.985	1.0909	0.1	262.55
22701	23.077	1.1818	0.1	250.62
22702	22.8	1.0909	0.1	295.4
22703	22.893	1.1818	0.1	282.31
22704	22.616	1.0909	0.1	329.52
22705	22.708	1.1818	0.1	315.47
22706	22.431	1.0909	0.1	364.63
22707	22.523	1.1818	0.1	349.77
22708	22.247	1.0909	0.1	400.52
22709	22.339	1.1818	0.1	384.97
22710	22.062	1.0909	0.1	437.06
22711	22.154	1.1818	0.1	420.91
22712	21.877	1.0909	0.1	474.15
22713	21.97	1.1818	0.1	457.47
22714	21.693	1.0909	0.1	511.7
22715	21.785	1.1818	0.1	494.55
22716	21.508	1.0909	0.1	549.65
22717	21.601	1.1818	0.1	532.09
22718	21.324	1.0909	0.1	587.98
22719	21.416	1.1818	0.1	570.04
22720	21.139	1.0909	0.1	626.63
22721	21.231	1.1818	0.1	608.35
22722	20.955	1.0909	0.1	665.6
22723	21.047	1.1818	0.1	647.
22724	20.77	1.0909	0.1	704.86
22725	20.862	1.1818	0.1	685.97
22726	20.585	1.0909	0.1	744.39
22727	20.678	1.1818	0.1	725.23
22728	20.401	1.0909	0.1	784.19
22729	20.493	1.1818	0.1	764.78
22730	20.216	1.0909	0.1	824.25
22731	20.309	1.1818	0.1	804.6
22732	20.032	1.0909	0.1	864.55
22733	20.124	1.1818	0.1	844.68
22734	19.847	1.0909	0.1	905.1
22735	19.94	1.1818	0.1	885.02
22736	19.663	1.0909	0.1	945.89
22737	19.755	1.1818	0.1	925.6
22738	19.478	1.0909	0.1	986.91
22739	19.57	1.1818	0.1	966.44
22740	19.294	1.0909	0.1	1028.2
22741	19.386	1.1818	0.1	1007.5
22742	19.109	1.0909	0.1	1069.7
22743	19.201	1.1818	0.1	1048.8
22744	18.924	1.0909	0.1	1111.4
22745	19.017	1.1818	0.1	1090.4
22746	18.74	1.0909	0.1	1153.3
22747	18.832	1.1818	0.1	1132.1
22748	18.555	1.0909	0.1	1195.5
22749	18.648	1.1818	0.1	1174.1
22750	18.371	1.0909	0.1	1237.8
22751	18.463	1.1818	0.1	1216.4
22752	18.186	1.0909	0.1	1280.4
22753	18.278	1.1818	0.1	1258.8
22754	18.002	1.0909	0.1	1323.2
22755	18.094	1.1818	0.1	1301.5
22756	17.817	1.0909	0.1	1366.3
22757	17.909	1.1818	0.1	1344.4
22758	17.632	1.0909	0.1	1409.5
22759	17.725	1.1818	0.1	1387.5
22760	17.448	1.0909	0.1	1453.
22761	17.54	1.1818	0.1	1430.8
22762	17.263	1.0909	0.1	1496.6
22763	17.356	1.1818	0.1	1474.3
22764	17.079	1.0909	0.1	1540.5
22765	17.171	1.1818	0.1	1518.1
22766	16.894	1.0909	0.1	1584.6
22767	16.986	1.1818	0.1	1562.1
22768	16.71	1.0909	0.1	1628.9
22769	16.802	1.1818	0.1	1606.2
22770	16.525	1.0909	0.1	1673.4
22771	16.617	1.1818	0.1	1650.6
22772	16.34	1.0909	0.1	1718.1
22773	16.433	1.1818	0.1	1695.2
22774	16.156	1.0909	0.1	1763.
22775	16.248	1.1818	0.1	1740.
22776	15.971	1.0909	0.1	1808.1
22777	16.064	1.1818	0.1	1785.
22778	15.787	1.0909	0.1	1853.4
22779	15.879	1.1818	0.1	1830.1
22780	15.602	1.0909	0.1	1898.9
22781	15.694	1.1818	0.1	1875.5
22782	15.418	1.0909	0.1	1944.6
22783	15.51	1.1818	0.1	1921.1
22784	15.233	1.0909	0.1	1990.5
22785	15.325	1.1818	0.1	1966.9
22786	15.048	1.0909	0.1	2036.6
22787	15.141	1.1818	0.1	2012.9
22788	14.864	1.0909	0.1	2082.9
22789	14.956	1.1818	0.1	2059.
22790	14.679	1.0909	0.1	2129.3
22791	14.772	1.1818	0.1	2105.4
22792	14.495	1.0909	0.1	2176.
22793	14.587	1.1818	0.1	2151.9
22794	14.31	1.0909	0.1	2222.8
22795	14.402	1.1818	0.1	2198.6
22796	14.126	1.0909	0.1	2269.9
22797	14.218	1.1818	0.1	2245.5
22798	13.941	1.0909	0.1	2317.1
22799	14.033	1.1818	0.1	2292.6
22800	13.756	1.0909	0.1	2364.5
22801	13.849	1.1818	0.1	2339.9
22802	13.572	1.0909	0.1	2412.
22803	13.664	1.1818	0.1	2387.4
22804	13.387	1.0909	0.1	2459.8
22805	13.48	1.1818	0.1	2435.
22806	13.203	1.0909	0.1	2507.7
22807	13.295	1.1818	0.1	2482.8
22808	13.018	1.0909	0.1	2555.8
22809	13.11	1.1818	0.1	2530.7
22810	12.834	1.0909	0.1	2604.1
22811	12.926	1.1818	0.1	2578.9
22812	12.649	1.0909	0.1	2652.5
22813	12.741	1.1818	0.1	2627.2
22814	12.465	1.0909	0.1	2701.1
22815	12.557	1.1818	0.1	2675.6
22816	12.28	1.0909	0.1	2749.8
22817	12.372	1.1818	0.1	2724.2
22818	12.095	1.0909	0.1	2798.7
22819	12.188	1.1818	0.1	2773.
22820	11.911	1.0909	0.1	2847.8
22821	12.003	1.1818	0.1	2821.9
22822	11.726	1.0909	0.1	2897.
22823	11.819	1.1818	0.1	2871.
22824	11.542	1.0909	0.1	2946.4
22825	11.634	1.1818	0.1	2920.2
22826	11.357	1.0909	0.1	2995.9
22827	11.449	1.1818	0.1	2969.5
22828	11.173	1.0909	0.1	3045.6
22829	11.265	1.1818	0.1	3019.
22830	10.988	1.0909	0.1	3095.3
22831	11.08	1.1818	0.1	3068.6
22832	10.803	1.0909	0.1	3145.3
22833	10.896	1.1818	0.1	3118.4
22834	10.619	1.0909	0.1	3195.3
22835	10.711	1.1818	0.1	3168.3
22836	10.434	1.0909	0.1	3245.5
22837	10.527	1.1818	0.1	3218.3
22838	10.25	1.0909	0.1	3295.8
22839	10.342	1.1818	0.1	3268.4
22840	10.065	1.0909	0.1	3346.3
22841	10.157	1.1818	0.1	3318.6
22842	9.8806	1.0909	0.1	3396.8
22843	9.9728	1.1818	0.1	3369.
22844	9.696	1.0909	0.1	3447.5
22845	9.7883	1.1818	0.1	3419.4
22846	9.5114	1.0909	0.1	3498.2
22847	9.6037	1.1818	0.1	3470.
22848	9.3269	1.0909	0.1	3549.1
22849	9.4191	1.1818	0.1	3520.7
22850	9.1423	1.0909	0.1	3600.
22851	9.2346	1.1818	0.1	3571.4
22852	8.9577	1.0909	0.1	3650.9
22853	9.05	1.1818	0.1	3622.2
22854	8.7731	1.0909	0.1	3701.9
22855	8.8654	1.1818	0.1	3673.1
22856	8.5886	1.0909	0.1	3752.8
22857	8.6809	1.1818	0.1	3724.1
22858	8.404	1.0909	0.1	3803.6
22859	8.4963	1.1818	0.1	3775.
22860	8.2194	1.0909	0.1	3854.3
22861	8.3117	1.1818	0.1	3825.9
22862	8.0349	1.0909	0.1	3904.6
22863	8.1272	1.1818	0.1	3876.6
22864	7.8503	1.0909	0.1	3954.5
22865	7.9426	1.1818	0.1	3927.2
22866	7.6657	1.0909	0.1	4003.6
22867	7.758	1.1818	0.1	3977.3
22868	7.4812	1.0909	0.1	4051.8
22869	7.5735	1.1818	0.1	4027.
22870	7.2966	1.0909	0.1	4098.5
22871	7.3889	1.1818	0.1	4075.8
22872	7.112	1.0909	0.1	4143.3
22873	7.2043	1.1818	0.1	4123.5
22874	6.9275	1.0909	0.1	4185.5
22875	7.0198	1.1818	0.1	4169.6
22876	6.7429	1.0909	0.1	4224.
22877	6.8352	1.1818	0.1	4213.5
22878	6.5583	1.0909	0.1	4257.9
22879	6.6506	1.1818	0.1	4254.4
22880	6.3738	1.0909	0.1	4285.6
22881	6.466	1.1818	0.1	4291.3
22882	6.1892	1.0909	0.1	4305.3
22883	6.2815	1.1818	0.1	4323.1
22884	6.0046	1.0909	0.1	4314.9
22885	6.0969	1.1818	0.1	4348.3
22886	5.8201	1.0909	0.1	4311.9
22887	5.9123	1.1818	0.1	4365.5
22888	5.6355	1.0909	0.1	4293.9
22889	5.7278	1.1818	0.1	4373.
22890	5.4509	1.0909	0.1	4258.5
22891	5.5432	1.1818	0.1	4369.7
22892	5.2664	1.0909	0.1	4204.
22893	5.3586	1.1818	0.1	4355.3
22894	5.0818	1.0909	0.1	4131.3
22895	5.1741	1.1818	0.1	4331.6
22896	4.8972	1.0909	0.1	4045.9
22897	4.9895	1.1818	0.1	4304.3
22898	4.7127	1.0909	0.1	3961.9
22899	4.8049	1.1818	0.1	4285.4
22900	4.5281	1.0909	0.1	3912.3
22901	4.6204	1.1818	0.1	4295.8
22902	4.3435	1.0909	0.1	4042.3
22903	4.4358	1.1818	0.1	4377.9
22904	4.2512	1.1818	0.1	4781.8
22905	4.159	1.0909	0.1	3424.1
22906	23.723	1.2727	0.1	165.36
22907	23.815	1.3636	0.1	161.47
22908	23.908	1.2727	0.1	149.87
22909	23.539	1.2727	0.1	186.43
22910	23.631	1.3636	0.1	179.66
22911	23.354	1.2727	0.1	211.65
22912	23.446	1.3636	0.1	202.74
22913	23.169	1.2727	0.1	239.86
22914	23.262	1.3636	0.1	229.28
22915	22.985	1.2727	0.1	270.26
22916	23.077	1.3636	0.1	258.35
22917	22.8	1.2727	0.1	302.34
22918	22.893	1.3636	0.1	289.34
22919	22.616	1.2727	0.1	335.73
22920	22.708	1.3636	0.1	321.81
22921	22.431	1.2727	0.1	370.15
22922	22.523	1.3636	0.1	355.46
22923	22.247	1.2727	0.1	405.42
22924	22.339	1.3636	0.1	390.05
22925	22.062	1.2727	0.1	441.38
22926	22.154	1.3636	0.1	425.43
22927	21.877	1.2727	0.1	477.95
22928	21.97	1.3636	0.1	461.46
22929	21.693	1.2727	0.1	515.02
22930	21.785	1.3636	0.1	498.07
22931	21.508	1.2727	0.1	552.55
22932	21.601	1.3636	0.1	535.18
22933	21.324	1.2727	0.1	590.49
22934	21.416	1.3636	0.1	572.73
22935	21.139	1.2727	0.1	628.79
22936	21.231	1.3636	0.1	610.69
22937	20.955	1.2727	0.1	667.44
22938	21.047	1.3636	0.1	649.01
22939	20.77	1.2727	0.1	706.41
22940	20.862	1.3636	0.1	687.68
22941	20.585	1.2727	0.1	745.69
22942	20.678	1.3636	0.1	726.68
22943	20.401	1.2727	0.1	785.25
22944	20.493	1.3636	0.1	765.98
22945	20.216	1.2727	0.1	825.1
22946	20.309	1.3636	0.1	805.58
22947	20.032	1.2727	0.1	865.21
22948	20.124	1.3636	0.1	845.47
22949	19.847	1.2727	0.1	905.58
22950	19.94	1.3636	0.1	885.62
22951	19.663	1.2727	0.1	946.22
22952	19.755	1.3636	0.1	926.05
22953	19.478	1.2727	0.1	987.1
22954	19.57	1.3636	0.1	966.73
22955	19.294	1.2727	0.1	1028.2
22956	19.386	1.3636	0.1	1007.7
22957	19.109	1.2727	0.1	1069.6
22958	19.201	1.3636	0.1	1048.9
22959	18.924	1.2727	0.1	1111.2
22960	19.017	1.3636	0.1	1090.3
22961	18.74	1.2727	0.1	1153.
22962	18.832	1.3636	0.1	1132.
22963	18.555	1.2727	0.1	1195.1
22964	18.648	1.3636	0.1	1173.9
22965	18.371	1.2727	0.1	1237.4
22966	18.463	1.3636	0.1	1216.
22967	18.186	1.2727	0.1	1279.9
22968	18.278	1.3636	0.1	1258.4
22969	18.002	1.2727	0.1	1322.7
22970	18.094	1.3636	0.1	1301.
22971	17.817	1.2727	0.1	1365.6
22972	17.909	1.3636	0.1	1343.8
22973	17.632	1.2727	0.1	1408.8
22974	17.725	1.3636	0.1	1386.9
22975	17.448	1.2727	0.1	1452.2
22976	17.54	1.3636	0.1	1430.2
22977	17.263	1.2727	0.1	1495.9
22978	17.356	1.3636	0.1	1473.6
22979	17.079	1.2727	0.1	1539.7
22980	17.171	1.3636	0.1	1517.3
22981	16.894	1.2727	0.1	1583.7
22982	16.986	1.3636	0.1	1561.3
22983	16.71	1.2727	0.1	1628.
22984	16.802	1.3636	0.1	1605.4
22985	16.525	1.2727	0.1	1672.4
22986	16.617	1.3636	0.1	1649.7
22987	16.34	1.2727	0.1	1717.1
22988	16.433	1.3636	0.1	1694.3
22989	16.156	1.2727	0.1	1762.
22990	16.248	1.3636	0.1	1739.
22991	15.971	1.2727	0.1	1807.
22992	16.064	1.3636	0.1	1784.
22993	15.787	1.2727	0.1	1852.3
22994	15.879	1.3636	0.1	1829.1
22995	15.602	1.2727	0.1	1897.8
22996	15.694	1.3636	0.1	1874.5
22997	15.418	1.2727	0.1	1943.4
22998	15.51	1.3636	0.1	1920.
22999	15.233	1.2727	0.1	1989.3
23000	15.325	1.3636	0.1	1965.8
23001	15.048	1.2727	0.1	2035.3
23002	15.141	1.3636	0.1	2011.7
23003	14.864	1.2727	0.1	2081.6
23004	14.956	1.3636	0.1	2057.8
23005	14.679	1.2727	0.1	2128.
23006	14.772	1.3636	0.1	2104.1
23007	14.495	1.2727	0.1	2174.6
23008	14.587	1.3636	0.1	2150.6
23009	14.31	1.2727	0.1	2221.4
23010	14.402	1.3636	0.1	2197.3
23011	14.126	1.2727	0.1	2268.4
23012	14.218	1.3636	0.1	2244.1
23013	13.941	1.2727	0.1	2315.5
23014	14.033	1.3636	0.1	2291.2
23015	13.756	1.2727	0.1	2362.8
23016	13.849	1.3636	0.1	2338.4
23017	13.572	1.2727	0.1	2410.3
23018	13.664	1.3636	0.1	2385.8
23019	13.387	1.2727	0.1	2458.
23020	13.48	1.3636	0.1	2433.3
23021	13.203	1.2727	0.1	2505.8
23022	13.295	1.3636	0.1	2481.
23023	13.018	1.2727	0.1	2553.8
23024	13.11	1.3636	0.1	2528.9
23025	12.834	1.2727	0.1	2602.
23026	12.926	1.3636	0.1	2577.
23027	12.649	1.2727	0.1	2650.3
23028	12.741	1.3636	0.1	2625.2
23029	12.465	1.2727	0.1	2698.8
23030	12.557	1.3636	0.1	2673.5
23031	12.28	1.2727	0.1	2747.4
23032	12.372	1.3636	0.1	2722.
23033	12.095	1.2727	0.1	2796.2
23034	12.188	1.3636	0.1	2770.6
23035	11.911	1.2727	0.1	2845.1
23036	12.003	1.3636	0.1	2819.4
23037	11.726	1.2727	0.1	2894.2
23038	11.819	1.3636	0.1	2868.3
23039	11.542	1.2727	0.1	2943.4
23040	11.634	1.3636	0.1	2917.4
23041	11.357	1.2727	0.1	2992.7
23042	11.449	1.3636	0.1	2966.6
23043	11.173	1.2727	0.1	3042.2
23044	11.265	1.3636	0.1	3015.9
23045	10.988	1.2727	0.1	3091.7
23046	11.08	1.3636	0.1	3065.3
23047	10.803	1.2727	0.1	3141.4
23048	10.896	1.3636	0.1	3114.8
23049	10.619	1.2727	0.1	3191.2
23050	10.711	1.3636	0.1	3164.4
23051	10.434	1.2727	0.1	3241.2
23052	10.527	1.3636	0.1	3214.2
23053	10.25	1.2727	0.1	3291.2
23054	10.342	1.3636	0.1	3264.1
23055	10.065	1.2727	0.1	3341.4
23056	10.157	1.3636	0.1	3314.
23057	9.8806	1.2727	0.1	3391.6
23058	9.9728	1.3636	0.1	3364.1
23059	9.696	1.2727	0.1	3442.
23060	9.7883	1.3636	0.1	3414.2
23061	9.5114	1.2727	0.1	3492.5
23062	9.6037	1.3636	0.1	3464.5
23063	9.3269	1.2727	0.1	3543.
23064	9.4191	1.3636	0.1	3514.9
23065	9.1423	1.2727	0.1	3593.7
23066	9.2346	1.3636	0.1	3565.4
23067	8.9577	1.2727	0.1	3644.5
23068	9.05	1.3636	0.1	3616.
23069	8.7731	1.2727	0.1	3695.3
23070	8.8654	1.3636	0.1	3666.7
23071	8.5886	1.2727	0.1	3746.2
23072	8.6809	1.3636	0.1	3717.5
23073	8.404	1.2727	0.1	3797.2
23074	8.4963	1.3636	0.1	3768.4
23075	8.2194	1.2727	0.1	3848.2
23076	8.3117	1.3636	0.1	3819.5
23077	8.0349	1.2727	0.1	3899.2
23078	8.1272	1.3636	0.1	3870.7
23079	7.8503	1.2727	0.1	3950.1
23080	7.9426	1.3636	0.1	3922.
23081	7.6657	1.2727	0.1	4000.7
23082	7.758	1.3636	0.1	3973.4
23083	7.4812	1.2727	0.1	4051.1
23084	7.5735	1.3636	0.1	4024.8
23085	7.2966	1.2727	0.1	4100.9
23086	7.3889	1.3636	0.1	4076.1
23087	7.112	1.2727	0.1	4149.9
23088	7.2043	1.3636	0.1	4127.3
23089	6.9275	1.2727	0.1	4197.7
23090	7.0198	1.3636	0.1	4178.2
23091	6.7429	1.2727	0.1	4243.9
23092	6.8352	1.3636	0.1	4228.5
23093	6.5583	1.2727	0.1	4287.8
23094	6.6506	1.3636	0.1	4278.1
23095	6.3738	1.2727	0.1	4328.7
23096	6.466	1.3636	0.1	4326.6
23097	6.1892	1.2727	0.1	4365.8
23098	6.2815	1.3636	0.1	4373.6
23099	6.0046	1.2727	0.1	4398.2
23100	6.0969	1.3636	0.1	4418.8
23101	5.8201	1.2727	0.1	4425.2
23102	5.9123	1.3636	0.1	4462.2
23103	5.6355	1.2727	0.1	4446.2
23104	5.7278	1.3636	0.1	4504.2
23105	5.4509	1.2727	0.1	4461.9
23106	5.5432	1.3636	0.1	4546.1
23107	5.2664	1.2727	0.1	4474.6
23108	5.3586	1.3636	0.1	4591.2
23109	5.0818	1.2727	0.1	4489.6
23110	5.1741	1.3636	0.1	4646.1
23111	4.8972	1.2727	0.1	4517.3
23112	4.9895	1.3636	0.1	4722.8
23113	4.7127	1.2727	0.1	4573.8
23114	4.8049	1.3636	0.1	4841.2
23115	4.5281	1.2727	0.1	4687.1
23116	4.6204	1.3636	0.1	5031.8
23117	4.3435	1.2727	0.1	5002.1
23118	4.4358	1.3636	0.1	5331.
23119	4.2512	1.3636	0.1	6023.2
23120	4.159	1.2727	0.1	4292.6
23121	23.723	1.4545	0.1	174.54
23122	23.815	1.5455	0.1	170.15
23123	23.908	1.4545	0.1	159.44
23124	23.539	1.4545	0.1	195.18
23125	23.631	1.5455	0.1	188.07
23126	23.354	1.4545	0.1	219.86
23127	23.446	1.5455	0.1	210.7
23128	23.169	1.4545	0.1	247.47
23129	23.262	1.5455	0.1	236.73
23130	22.985	1.4545	0.1	277.26
23131	23.077	1.5455	0.1	265.26
23132	22.8	1.4545	0.1	308.73
23133	22.893	1.5455	0.1	295.7
23134	22.616	1.4545	0.1	341.51
23135	22.708	1.5455	0.1	327.62
23136	22.431	1.4545	0.1	375.36
23137	22.523	1.5455	0.1	360.72
23138	22.247	1.4545	0.1	410.08
23139	22.339	1.5455	0.1	394.8
23140	22.062	1.4545	0.1	445.55
23141	22.154	1.5455	0.1	429.69
23142	21.877	1.4545	0.1	481.64
23143	21.97	1.5455	0.1	465.27
23144	21.693	1.4545	0.1	518.29
23145	21.785	1.5455	0.1	501.46
23146	21.508	1.4545	0.1	555.42
23147	21.601	1.5455	0.1	538.17
23148	21.324	1.4545	0.1	592.99
23149	21.416	1.5455	0.1	575.36
23150	21.139	1.4545	0.1	630.97
23151	21.231	1.5455	0.1	612.99
23152	20.955	1.4545	0.1	669.32
23153	21.047	1.5455	0.1	651.01
23154	20.77	1.4545	0.1	708.02
23155	20.862	1.5455	0.1	689.4
23156	20.585	1.4545	0.1	747.04
23157	20.678	1.5455	0.1	728.15
23158	20.401	1.4545	0.1	786.38
23159	20.493	1.5455	0.1	767.22
23160	20.216	1.4545	0.1	826.02
23161	20.309	1.5455	0.1	806.61
23162	20.032	1.4545	0.1	865.95
23163	20.124	1.5455	0.1	846.31
23164	19.847	1.4545	0.1	906.15
23165	19.94	1.5455	0.1	886.29
23166	19.663	1.4545	0.1	946.63
23167	19.755	1.5455	0.1	926.56
23168	19.478	1.4545	0.1	987.37
23169	19.57	1.5455	0.1	967.1
23170	19.294	1.4545	0.1	1028.4
23171	19.386	1.5455	0.1	1007.9
23172	19.109	1.4545	0.1	1069.6
23173	19.201	1.5455	0.1	1049.
23174	18.924	1.4545	0.1	1111.1
23175	19.017	1.5455	0.1	1090.3
23176	18.74	1.4545	0.1	1152.9
23177	18.832	1.5455	0.1	1131.9
23178	18.555	1.4545	0.1	1194.9
23179	18.648	1.5455	0.1	1173.7
23180	18.371	1.4545	0.1	1237.1
23181	18.463	1.5455	0.1	1215.8
23182	18.186	1.4545	0.1	1279.5
23183	18.278	1.5455	0.1	1258.1
23184	18.002	1.4545	0.1	1322.2
23185	18.094	1.5455	0.1	1300.6
23186	17.817	1.4545	0.1	1365.1
23187	17.909	1.5455	0.1	1343.4
23188	17.632	1.4545	0.1	1408.3
23189	17.725	1.5455	0.1	1386.4
23190	17.448	1.4545	0.1	1451.6
23191	17.54	1.5455	0.1	1429.6
23192	17.263	1.4545	0.1	1495.2
23193	17.356	1.5455	0.1	1473.
23194	17.079	1.4545	0.1	1539.
23195	17.171	1.5455	0.1	1516.7
23196	16.894	1.4545	0.1	1583.
23197	16.986	1.5455	0.1	1560.6
23198	16.71	1.4545	0.1	1627.2
23199	16.802	1.5455	0.1	1604.7
23200	16.525	1.4545	0.1	1671.6
23201	16.617	1.5455	0.1	1649.
23202	16.34	1.4545	0.1	1716.2
23203	16.433	1.5455	0.1	1693.5
23204	16.156	1.4545	0.1	1761.1
23205	16.248	1.5455	0.1	1738.2
23206	15.971	1.4545	0.1	1806.1
23207	16.064	1.5455	0.1	1783.1
23208	15.787	1.4545	0.1	1851.3
23209	15.879	1.5455	0.1	1828.2
23210	15.602	1.4545	0.1	1896.8
23211	15.694	1.5455	0.1	1873.5
23212	15.418	1.4545	0.1	1942.4
23213	15.51	1.5455	0.1	1919.
23214	15.233	1.4545	0.1	1988.2
23215	15.325	1.5455	0.1	1964.7
23216	15.048	1.4545	0.1	2034.2
23217	15.141	1.5455	0.1	2010.6
23218	14.864	1.4545	0.1	2080.4
23219	14.956	1.5455	0.1	2056.7
23220	14.679	1.4545	0.1	2126.8
23221	14.772	1.5455	0.1	2103.
23222	14.495	1.4545	0.1	2173.3
23223	14.587	1.5455	0.1	2149.4
23224	14.31	1.4545	0.1	2220.1
23225	14.402	1.5455	0.1	2196.1
23226	14.126	1.4545	0.1	2267.
23227	14.218	1.5455	0.1	2242.9
23228	13.941	1.4545	0.1	2314.1
23229	14.033	1.5455	0.1	2289.9
23230	13.756	1.4545	0.1	2361.4
23231	13.849	1.5455	0.1	2337.
23232	13.572	1.4545	0.1	2408.8
23233	13.664	1.5455	0.1	2384.3
23234	13.387	1.4545	0.1	2456.4
23235	13.48	1.5455	0.1	2431.8
23236	13.203	1.4545	0.1	2504.2
23237	13.295	1.5455	0.1	2479.5
23238	13.018	1.4545	0.1	2552.1
23239	13.11	1.5455	0.1	2527.3
23240	12.834	1.4545	0.1	2600.1
23241	12.926	1.5455	0.1	2575.2
23242	12.649	1.4545	0.1	2648.4
23243	12.741	1.5455	0.1	2623.3
23244	12.465	1.4545	0.1	2696.7
23245	12.557	1.5455	0.1	2671.6
23246	12.28	1.4545	0.1	2745.2
23247	12.372	1.5455	0.1	2720.
23248	12.095	1.4545	0.1	2793.9
23249	12.188	1.5455	0.1	2768.5
23250	11.911	1.4545	0.1	2842.7
23251	12.003	1.5455	0.1	2817.1
23252	11.726	1.4545	0.1	2891.6
23253	11.819	1.5455	0.1	2865.9
23254	11.542	1.4545	0.1	2940.6
23255	11.634	1.5455	0.1	2914.8
23256	11.357	1.4545	0.1	2989.7
23257	11.449	1.5455	0.1	2963.8
23258	11.173	1.4545	0.1	3039.
23259	11.265	1.5455	0.1	3012.9
23260	10.988	1.4545	0.1	3088.4
23261	11.08	1.5455	0.1	3062.1
23262	10.803	1.4545	0.1	3137.8
23263	10.896	1.5455	0.1	3111.5
23264	10.619	1.4545	0.1	3187.4
23265	10.711	1.5455	0.1	3160.9
23266	10.434	1.4545	0.1	3237.1
23267	10.527	1.5455	0.1	3210.4
23268	10.25	1.4545	0.1	3286.9
23269	10.342	1.5455	0.1	3260.
23270	10.065	1.4545	0.1	3336.7
23271	10.157	1.5455	0.1	3309.7
23272	9.8806	1.4545	0.1	3386.7
23273	9.9728	1.5455	0.1	3359.5
23274	9.696	1.4545	0.1	3436.8
23275	9.7883	1.5455	0.1	3409.3
23276	9.5114	1.4545	0.1	3486.9
23277	9.6037	1.5455	0.1	3459.3
23278	9.3269	1.4545	0.1	3537.2
23279	9.4191	1.5455	0.1	3509.4
23280	9.1423	1.4545	0.1	3587.6
23281	9.2346	1.5455	0.1	3559.6
23282	8.9577	1.4545	0.1	3638.2
23283	9.05	1.5455	0.1	3609.9
23284	8.7731	1.4545	0.1	3688.9
23285	8.8654	1.5455	0.1	3660.4
23286	8.5886	1.4545	0.1	3739.7
23287	8.6809	1.5455	0.1	3711.1
23288	8.404	1.4545	0.1	3790.8
23289	8.4963	1.5455	0.1	3762.
23290	8.2194	1.4545	0.1	3842.
23291	8.3117	1.5455	0.1	3813.2
23292	8.0349	1.4545	0.1	3893.5
23293	8.1272	1.5455	0.1	3864.7
23294	7.8503	1.4545	0.1	3945.3
23295	7.9426	1.5455	0.1	3916.6
23296	7.6657	1.4545	0.1	3997.4
23297	7.758	1.5455	0.1	3969.
23298	7.4812	1.4545	0.1	4049.8
23299	7.5735	1.5455	0.1	4022.
23300	7.2966	1.4545	0.1	4102.5
23301	7.3889	1.5455	0.1	4075.8
23302	7.112	1.4545	0.1	4155.6
23303	7.2043	1.5455	0.1	4130.3
23304	6.9275	1.4545	0.1	4209.1
23305	7.0198	1.5455	0.1	4185.8
23306	6.7429	1.4545	0.1	4262.8
23307	6.8352	1.5455	0.1	4242.6
23308	6.5583	1.4545	0.1	4316.9
23309	6.6506	1.5455	0.1	4300.8
23310	6.3738	1.4545	0.1	4371.3
23311	6.466	1.5455	0.1	4360.8
23312	6.1892	1.4545	0.1	4426.3
23313	6.2815	1.5455	0.1	4423.1
23314	6.0046	1.4545	0.1	4482.2
23315	6.0969	1.5455	0.1	4488.6
23316	5.8201	1.4545	0.1	4540.
23317	5.9123	1.5455	0.1	4558.7
23318	5.6355	1.4545	0.1	4601.7
23319	5.7278	1.5455	0.1	4635.8
23320	5.4509	1.4545	0.1	4671.
23321	5.5432	1.5455	0.1	4723.8
23322	5.2664	1.4545	0.1	4754.8
23323	5.3586	1.5455	0.1	4829.7
23324	5.0818	1.4545	0.1	4865.1
23325	5.1741	1.5455	0.1	4965.6
23326	4.8972	1.4545	0.1	5021.3
23327	4.9895	1.5455	0.1	5151.5
23328	4.7127	1.4545	0.1	5253.9
23329	4.8049	1.5455	0.1	5422.8
23330	4.5281	1.4545	0.1	5593.4
23331	4.6204	1.5455	0.1	5830.6
23332	4.3435	1.4545	0.1	6204.5
23333	4.4358	1.5455	0.1	6470.6
23334	4.2512	1.5455	0.1	7744.5
23335	4.159	1.4545	0.1	5451.6
23336	23.723	1.6364	0.1	182.46
23337	23.815	1.7273	0.1	177.6
23338	23.908	1.6364	0.1	167.69
23339	23.539	1.6364	0.1	202.78
23340	23.631	1.7273	0.1	195.3
23341	23.354	1.6364	0.1	227.03
23342	23.446	1.7273	0.1	217.59
23343	23.169	1.6364	0.1	254.18
23344	23.262	1.7273	0.1	243.22
23345	22.985	1.6364	0.1	283.49
23346	23.077	1.7273	0.1	271.33
23347	22.8	1.6364	0.1	314.47
23348	22.893	1.7273	0.1	301.33
23349	22.616	1.6364	0.1	346.77
23350	22.708	1.7273	0.1	332.8
23351	22.431	1.6364	0.1	380.14
23352	22.523	1.7273	0.1	365.47
23353	22.247	1.6364	0.1	414.41
23354	22.339	1.7273	0.1	399.13
23355	22.062	1.6364	0.1	449.44
23356	22.154	1.7273	0.1	433.6
23357	21.877	1.6364	0.1	485.12
23358	21.97	1.7273	0.1	468.8
23359	21.693	1.6364	0.1	521.39
23360	21.785	1.7273	0.1	504.61
23361	21.508	1.6364	0.1	558.16
23362	21.601	1.7273	0.1	540.98
23363	21.324	1.6364	0.1	595.41
23364	21.416	1.7273	0.1	577.85
23365	21.139	1.6364	0.1	633.08
23366	21.231	1.7273	0.1	615.18
23367	20.955	1.6364	0.1	671.16
23368	21.047	1.7273	0.1	652.93
23369	20.77	1.6364	0.1	709.6
23370	20.862	1.7273	0.1	691.07
23371	20.585	1.6364	0.1	748.39
23372	20.678	1.7273	0.1	729.58
23373	20.401	1.6364	0.1	787.52
23374	20.493	1.7273	0.1	768.44
23375	20.216	1.6364	0.1	826.96
23376	20.309	1.7273	0.1	807.64
23377	20.032	1.6364	0.1	866.71
23378	20.124	1.7273	0.1	847.16
23379	19.847	1.6364	0.1	906.76
23380	19.94	1.7273	0.1	886.98
23381	19.663	1.6364	0.1	947.09
23382	19.755	1.7273	0.1	927.1
23383	19.478	1.6364	0.1	987.7
23384	19.57	1.7273	0.1	967.51
23385	19.294	1.6364	0.1	1028.6
23386	19.386	1.7273	0.1	1008.2
23387	19.109	1.6364	0.1	1069.7
23388	19.201	1.7273	0.1	1049.2
23389	18.924	1.6364	0.1	1111.1
23390	19.017	1.7273	0.1	1090.4
23391	18.74	1.6364	0.1	1152.8
23392	18.832	1.7273	0.1	1131.9
23393	18.555	1.6364	0.1	1194.7
23394	18.648	1.7273	0.1	1173.6
23395	18.371	1.6364	0.1	1236.8
23396	18.463	1.7273	0.1	1215.6
23397	18.186	1.6364	0.1	1279.2
23398	18.278	1.7273	0.1	1257.8
23399	18.002	1.6364	0.1	1321.8
23400	18.094	1.7273	0.1	1300.3
23401	17.817	1.6364	0.1	1364.7
23402	17.909	1.7273	0.1	1343.
23403	17.632	1.6364	0.1	1407.8
23404	17.725	1.7273	0.1	1386.
23405	17.448	1.6364	0.1	1451.1
23406	17.54	1.7273	0.1	1429.1
23407	17.263	1.6364	0.1	1494.6
23408	17.356	1.7273	0.1	1472.5
23409	17.079	1.6364	0.1	1538.4
23410	17.171	1.7273	0.1	1516.2
23411	16.894	1.6364	0.1	1582.3
23412	16.986	1.7273	0.1	1560.
23413	16.71	1.6364	0.1	1626.5
23414	16.802	1.7273	0.1	1604.
23415	16.525	1.6364	0.1	1670.9
23416	16.617	1.7273	0.1	1648.3
23417	16.34	1.6364	0.1	1715.5
23418	16.433	1.7273	0.1	1692.8
23419	16.156	1.6364	0.1	1760.3
23420	16.248	1.7273	0.1	1737.5
23421	15.971	1.6364	0.1	1805.3
23422	16.064	1.7273	0.1	1782.3
23423	15.787	1.6364	0.1	1850.5
23424	15.879	1.7273	0.1	1827.4
23425	15.602	1.6364	0.1	1895.9
23426	15.694	1.7273	0.1	1872.7
23427	15.418	1.6364	0.1	1941.4
23428	15.51	1.7273	0.1	1918.2
23429	15.233	1.6364	0.1	1987.2
23430	15.325	1.7273	0.1	1963.9
23431	15.048	1.6364	0.1	2033.2
23432	15.141	1.7273	0.1	2009.7
23433	14.864	1.6364	0.1	2079.4
23434	14.956	1.7273	0.1	2055.8
23435	14.679	1.6364	0.1	2125.7
23436	14.772	1.7273	0.1	2102.
23437	14.495	1.6364	0.1	2172.2
23438	14.587	1.7273	0.1	2148.4
23439	14.31	1.6364	0.1	2218.9
23440	14.402	1.7273	0.1	2195.
23441	14.126	1.6364	0.1	2265.8
23442	14.218	1.7273	0.1	2241.8
23443	13.941	1.6364	0.1	2312.8
23444	14.033	1.7273	0.1	2288.7
23445	13.756	1.6364	0.1	2360.
23446	13.849	1.7273	0.1	2335.8
23447	13.572	1.6364	0.1	2407.4
23448	13.664	1.7273	0.1	2383.1
23449	13.387	1.6364	0.1	2454.9
23450	13.48	1.7273	0.1	2430.5
23451	13.203	1.6364	0.1	2502.6
23452	13.295	1.7273	0.1	2478.1
23453	13.018	1.6364	0.1	2550.5
23454	13.11	1.7273	0.1	2525.8
23455	12.834	1.6364	0.1	2598.5
23456	12.926	1.7273	0.1	2573.7
23457	12.649	1.6364	0.1	2646.6
23458	12.741	1.7273	0.1	2621.7
23459	12.465	1.6364	0.1	2694.8
23460	12.557	1.7273	0.1	2669.9
23461	12.28	1.6364	0.1	2743.2
23462	12.372	1.7273	0.1	2718.1
23463	12.095	1.6364	0.1	2791.8
23464	12.188	1.7273	0.1	2766.5
23465	11.911	1.6364	0.1	2840.4
23466	12.003	1.7273	0.1	2815.1
23467	11.726	1.6364	0.1	2889.2
23468	11.819	1.7273	0.1	2863.7
23469	11.542	1.6364	0.1	2938.
23470	11.634	1.7273	0.1	2912.5
23471	11.357	1.6364	0.1	2987.
23472	11.449	1.7273	0.1	2961.3
23473	11.173	1.6364	0.1	3036.1
23474	11.265	1.7273	0.1	3010.3
23475	10.988	1.6364	0.1	3085.3
23476	11.08	1.7273	0.1	3059.3
23477	10.803	1.6364	0.1	3134.5
23478	10.896	1.7273	0.1	3108.4
23479	10.619	1.6364	0.1	3183.9
23480	10.711	1.7273	0.1	3157.6
23481	10.434	1.6364	0.1	3233.3
23482	10.527	1.7273	0.1	3206.9
23483	10.25	1.6364	0.1	3282.8
23484	10.342	1.7273	0.1	3256.2
23485	10.065	1.6364	0.1	3332.4
23486	10.157	1.7273	0.1	3305.7
23487	9.8806	1.6364	0.1	3382.1
23488	9.9728	1.7273	0.1	3355.2
23489	9.696	1.6364	0.1	3431.9
23490	9.7883	1.7273	0.1	3404.7
23491	9.5114	1.6364	0.1	3481.7
23492	9.6037	1.7273	0.1	3454.4
23493	9.3269	1.6364	0.1	3531.7
23494	9.4191	1.7273	0.1	3504.2
23495	9.1423	1.6364	0.1	3581.8
23496	9.2346	1.7273	0.1	3554.1
23497	8.9577	1.6364	0.1	3632.1
23498	9.05	1.7273	0.1	3604.1
23499	8.7731	1.6364	0.1	3682.6
23500	8.8654	1.7273	0.1	3654.4
23501	8.5886	1.6364	0.1	3733.3
23502	8.6809	1.7273	0.1	3704.9
23503	8.404	1.6364	0.1	3784.4
23504	8.4963	1.7273	0.1	3755.7
23505	8.2194	1.6364	0.1	3835.9
23506	8.3117	1.7273	0.1	3807.
23507	8.0349	1.6364	0.1	3887.8
23508	8.1272	1.7273	0.1	3858.7
23509	7.8503	1.6364	0.1	3940.4
23510	7.9426	1.7273	0.1	3911.2
23511	7.6657	1.6364	0.1	3993.7
23512	7.758	1.7273	0.1	3964.6
23513	7.4812	1.6364	0.1	4048.
23514	7.5735	1.7273	0.1	4019.
23515	7.2966	1.6364	0.1	4103.6
23516	7.3889	1.7273	0.1	4074.9
23517	7.112	1.6364	0.1	4160.6
23518	7.2043	1.7273	0.1	4132.6
23519	6.9275	1.6364	0.1	4219.4
23520	7.0198	1.7273	0.1	4192.6
23521	6.7429	1.6364	0.1	4280.6
23522	6.8352	1.7273	0.1	4255.5
23523	6.5583	1.6364	0.1	4344.7
23524	6.6506	1.7273	0.1	4322.
23525	6.3738	1.6364	0.1	4412.5
23526	6.466	1.7273	0.1	4393.3
23527	6.1892	1.6364	0.1	4485.2
23528	6.2815	1.7273	0.1	4470.8
23529	6.0046	1.6364	0.1	4564.7
23530	6.0969	1.7273	0.1	4556.3
23531	5.8201	1.6364	0.1	4653.4
23532	5.9123	1.7273	0.1	4652.8
23533	5.6355	1.6364	0.1	4755.8
23534	5.7278	1.7273	0.1	4764.5
23535	5.4509	1.6364	0.1	4878.7
23536	5.5432	1.7273	0.1	4898.
23537	5.2664	1.6364	0.1	5033.9
23538	5.3586	1.7273	0.1	5063.8
23539	5.0818	1.6364	0.1	5240.3
23540	5.1741	1.7273	0.1	5279.2
23541	4.8972	1.6364	0.1	5532.4
23542	4.9895	1.7273	0.1	5572.6
23543	4.7127	1.6364	0.1	5961.6
23544	4.8049	1.7273	0.1	5996.9
23545	4.5281	1.6364	0.1	6633.4
23546	4.6204	1.7273	0.1	6637.4
23547	4.3435	1.6364	0.1	7792.1
23548	4.4358	1.7273	0.1	7766.2
23549	4.2512	1.7273	0.1	10220
23550	4.159	1.6364	0.1	7019.1
23551	23.723	1.8182	0.1	189.23
23552	23.815	1.9091	0.1	183.9
23553	23.908	1.8182	0.1	174.71
23554	23.539	1.8182	0.1	209.29
23555	23.631	1.9091	0.1	201.44
23556	23.354	1.8182	0.1	233.21
23557	23.446	1.9091	0.1	223.45
23558	23.169	1.8182	0.1	259.99
23559	23.262	1.9091	0.1	248.77
23560	22.985	1.8182	0.1	288.92
23561	23.077	1.9091	0.1	276.54
23562	22.8	1.8182	0.1	319.51
23563	22.893	1.9091	0.1	306.2
23564	22.616	1.8182	0.1	351.43
23565	22.708	1.9091	0.1	337.33
23566	22.431	1.8182	0.1	384.41
23567	22.523	1.9091	0.1	369.65
23568	22.247	1.8182	0.1	418.31
23569	22.339	1.9091	0.1	402.96
23570	22.062	1.8182	0.1	452.97
23571	22.154	1.9091	0.1	437.1
23572	21.877	1.8182	0.1	488.31
23573	21.97	1.9091	0.1	471.96
23574	21.693	1.8182	0.1	524.24
23575	21.785	1.9091	0.1	507.46
23576	21.508	1.8182	0.1	560.71
23577	21.601	1.9091	0.1	543.54
23578	21.324	1.8182	0.1	597.66
23579	21.416	1.9091	0.1	580.13
23580	21.139	1.8182	0.1	635.07
23581	21.231	1.9091	0.1	617.19
23582	20.955	1.8182	0.1	672.89
23583	21.047	1.9091	0.1	654.7
23584	20.77	1.8182	0.1	711.1
23585	20.862	1.9091	0.1	692.62
23586	20.585	1.8182	0.1	749.69
23587	20.678	1.9091	0.1	730.92
23588	20.401	1.8182	0.1	788.62
23589	20.493	1.9091	0.1	769.59
23590	20.216	1.8182	0.1	827.89
23591	20.309	1.9091	0.1	808.61
23592	20.032	1.8182	0.1	867.48
23593	20.124	1.9091	0.1	847.97
23594	19.847	1.8182	0.1	907.38
23595	19.94	1.9091	0.1	887.65
23596	19.663	1.8182	0.1	947.58
23597	19.755	1.9091	0.1	927.64
23598	19.478	1.8182	0.1	988.06
23599	19.57	1.9091	0.1	967.93
23600	19.294	1.8182	0.1	1028.8
23601	19.386	1.9091	0.1	1008.5
23602	19.109	1.8182	0.1	1069.9
23603	19.201	1.9091	0.1	1049.4
23604	18.924	1.8182	0.1	1111.2
23605	19.017	1.9091	0.1	1090.5
23606	18.74	1.8182	0.1	1152.8
23607	18.832	1.9091	0.1	1131.9
23608	18.555	1.8182	0.1	1194.6
23609	18.648	1.9091	0.1	1173.6
23610	18.371	1.8182	0.1	1236.7
23611	18.463	1.9091	0.1	1215.5
23612	18.186	1.8182	0.1	1279.
23613	18.278	1.9091	0.1	1257.7
23614	18.002	1.8182	0.1	1321.6
23615	18.094	1.9091	0.1	1300.1
23616	17.817	1.8182	0.1	1364.4
23617	17.909	1.9091	0.1	1342.7
23618	17.632	1.8182	0.1	1407.4
23619	17.725	1.9091	0.1	1385.6
23620	17.448	1.8182	0.1	1450.6
23621	17.54	1.9091	0.1	1428.8
23622	17.263	1.8182	0.1	1494.1
23623	17.356	1.9091	0.1	1472.1
23624	17.079	1.8182	0.1	1537.8
23625	17.171	1.9091	0.1	1515.7
23626	16.894	1.8182	0.1	1581.8
23627	16.986	1.9091	0.1	1559.5
23628	16.71	1.8182	0.1	1625.9
23629	16.802	1.9091	0.1	1603.5
23630	16.525	1.8182	0.1	1670.3
23631	16.617	1.9091	0.1	1647.7
23632	16.34	1.8182	0.1	1714.8
23633	16.433	1.9091	0.1	1692.2
23634	16.156	1.8182	0.1	1759.6
23635	16.248	1.9091	0.1	1736.8
23636	15.971	1.8182	0.1	1804.5
23637	16.064	1.9091	0.1	1781.7
23638	15.787	1.8182	0.1	1849.7
23639	15.879	1.9091	0.1	1826.7
23640	15.602	1.8182	0.1	1895.1
23641	15.694	1.9091	0.1	1872.
23642	15.418	1.8182	0.1	1940.6
23643	15.51	1.9091	0.1	1917.5
23644	15.233	1.8182	0.1	1986.4
23645	15.325	1.9091	0.1	1963.1
23646	15.048	1.8182	0.1	2032.3
23647	15.141	1.9091	0.1	2008.9
23648	14.864	1.8182	0.1	2078.5
23649	14.956	1.9091	0.1	2054.9
23650	14.679	1.8182	0.1	2124.8
23651	14.772	1.9091	0.1	2101.1
23652	14.495	1.8182	0.1	2171.2
23653	14.587	1.9091	0.1	2147.5
23654	14.31	1.8182	0.1	2217.9
23655	14.402	1.9091	0.1	2194.1
23656	14.126	1.8182	0.1	2264.7
23657	14.218	1.9091	0.1	2240.8
23658	13.941	1.8182	0.1	2311.7
23659	14.033	1.9091	0.1	2287.7
23660	13.756	1.8182	0.1	2358.9
23661	13.849	1.9091	0.1	2334.7
23662	13.572	1.8182	0.1	2406.2
23663	13.664	1.9091	0.1	2382.
23664	13.387	1.8182	0.1	2453.7
23665	13.48	1.9091	0.1	2429.3
23666	13.203	1.8182	0.1	2501.3
23667	13.295	1.9091	0.1	2476.9
23668	13.018	1.8182	0.1	2549.1
23669	13.11	1.9091	0.1	2524.5
23670	12.834	1.8182	0.1	2597.
23671	12.926	1.9091	0.1	2572.3
23672	12.649	1.8182	0.1	2645.
23673	12.741	1.9091	0.1	2620.3
23674	12.465	1.8182	0.1	2693.2
23675	12.557	1.9091	0.1	2668.3
23676	12.28	1.8182	0.1	2741.5
23677	12.372	1.9091	0.1	2716.5
23678	12.095	1.8182	0.1	2789.9
23679	12.188	1.9091	0.1	2764.8
23680	11.911	1.8182	0.1	2838.4
23681	12.003	1.9091	0.1	2813.3
23682	11.726	1.8182	0.1	2887.
23683	11.819	1.9091	0.1	2861.8
23684	11.542	1.8182	0.1	2935.8
23685	11.634	1.9091	0.1	2910.4
23686	11.357	1.8182	0.1	2984.6
23687	11.449	1.9091	0.1	2959.1
23688	11.173	1.8182	0.1	3033.5
23689	11.265	1.9091	0.1	3007.9
23690	10.988	1.8182	0.1	3082.5
23691	11.08	1.9091	0.1	3056.8
23692	10.803	1.8182	0.1	3131.5
23693	10.896	1.9091	0.1	3105.7
23694	10.619	1.8182	0.1	3180.7
23695	10.711	1.9091	0.1	3154.7
23696	10.434	1.8182	0.1	3229.9
23697	10.527	1.9091	0.1	3203.8
23698	10.25	1.8182	0.1	3279.1
23699	10.342	1.9091	0.1	3252.9
23700	10.065	1.8182	0.1	3328.4
23701	10.157	1.9091	0.1	3302.
23702	9.8806	1.8182	0.1	3377.8
23703	9.9728	1.9091	0.1	3351.3
23704	9.696	1.8182	0.1	3427.3
23705	9.7883	1.9091	0.1	3400.6
23706	9.5114	1.8182	0.1	3476.9
23707	9.6037	1.9091	0.1	3450.
23708	9.3269	1.8182	0.1	3526.6
23709	9.4191	1.9091	0.1	3499.4
23710	9.1423	1.8182	0.1	3576.4
23711	9.2346	1.9091	0.1	3549.
23712	8.9577	1.8182	0.1	3626.4
23713	9.05	1.9091	0.1	3598.8
23714	8.7731	1.8182	0.1	3676.7
23715	8.8654	1.9091	0.1	3648.8
23716	8.5886	1.8182	0.1	3727.3
23717	8.6809	1.9091	0.1	3699.1
23718	8.404	1.8182	0.1	3778.3
23719	8.4963	1.9091	0.1	3749.8
23720	8.2194	1.8182	0.1	3829.9
23721	8.3117	1.9091	0.1	3801.1
23722	8.0349	1.8182	0.1	3882.2
23723	8.1272	1.9091	0.1	3853.
23724	7.8503	1.8182	0.1	3935.4
23725	7.9426	1.9091	0.1	3905.9
23726	7.6657	1.8182	0.1	3989.9
23727	7.758	1.9091	0.1	3960.1
23728	7.4812	1.8182	0.1	4045.9
23729	7.5735	1.9091	0.1	4015.9
23730	7.2966	1.8182	0.1	4104.
23731	7.3889	1.9091	0.1	4073.7
23732	7.112	1.8182	0.1	4164.7
23733	7.2043	1.9091	0.1	4134.3
23734	6.9275	1.8182	0.1	4228.7
23735	7.0198	1.9091	0.1	4198.4
23736	6.7429	1.8182	0.1	4297.
23737	6.8352	1.9091	0.1	4267.1
23738	6.5583	1.8182	0.1	4370.7
23739	6.6506	1.9091	0.1	4341.6
23740	6.3738	1.8182	0.1	4451.5
23741	6.466	1.9091	0.1	4423.7
23742	6.1892	1.8182	0.1	4541.6
23743	6.2815	1.9091	0.1	4515.6
23744	6.0046	1.8182	0.1	4644.
23745	6.0969	1.9091	0.1	4620.4
23746	5.8201	1.8182	0.1	4763.
23747	5.9123	1.9091	0.1	4742.5
23748	5.6355	1.8182	0.1	4905.
23749	5.7278	1.9091	0.1	4887.7
23750	5.4509	1.8182	0.1	5080.1
23751	5.5432	1.9091	0.1	5065.2
23752	5.2664	1.8182	0.1	5304.
23753	5.3586	1.9091	0.1	5288.5
23754	5.0818	1.8182	0.1	5602.9
23755	5.1741	1.9091	0.1	5579.8
23756	4.8972	1.8182	0.1	6023.1
23757	4.9895	1.9091	0.1	5974.7
23758	4.7127	1.8182	0.1	6650.1
23759	4.8049	1.9091	0.1	6541.4
23760	4.5281	1.8182	0.1	7719.8
23761	4.6204	1.9091	0.1	7403.8
23762	4.3435	1.8182	0.1	9999.7
23763	4.4358	1.9091	0.1	8930.3
23764	4.2512	1.9091	0.1	12838
23765	4.159	1.8182	0.1	10142
23766	23.723	2.	0.1	194.92
23767	23.815	2.0909	0.1	189.14
23768	23.908	2.	0.1	180.61
23769	23.539	2.	0.1	214.77
23770	23.631	2.0909	0.1	206.54
23771	23.354	2.	0.1	238.43
23772	23.446	2.0909	0.1	228.34
23773	23.169	2.	0.1	264.93
23774	23.262	2.0909	0.1	253.41
23775	22.985	2.	0.1	293.56
23776	23.077	2.0909	0.1	280.93
23777	22.8	2.	0.1	323.85
23778	22.893	2.0909	0.1	310.32
23779	22.616	2.	0.1	355.45
23780	22.708	2.0909	0.1	341.17
23781	22.431	2.	0.1	388.13
23782	22.523	2.0909	0.1	373.22
23783	22.247	2.	0.1	421.72
23784	22.339	2.0909	0.1	406.25
23785	22.062	2.	0.1	456.08
23786	22.154	2.0909	0.1	440.11
23787	21.877	2.	0.1	491.13
23788	21.97	2.0909	0.1	474.71
23789	21.693	2.	0.1	526.78
23790	21.785	2.0909	0.1	509.95
23791	21.508	2.	0.1	562.99
23792	21.601	2.0909	0.1	545.78
23793	21.324	2.	0.1	599.69
23794	21.416	2.0909	0.1	582.13
23795	21.139	2.	0.1	636.86
23796	21.231	2.0909	0.1	618.98
23797	20.955	2.	0.1	674.47
23798	21.047	2.0909	0.1	656.28
23799	20.77	2.	0.1	712.48
23800	20.862	2.0909	0.1	694.
23801	20.585	2.	0.1	750.88
23802	20.678	2.0909	0.1	732.13
23803	20.401	2.	0.1	789.64
23804	20.493	2.0909	0.1	770.63
23805	20.216	2.	0.1	828.75
23806	20.309	2.0909	0.1	809.5
23807	20.032	2.	0.1	868.2
23808	20.124	2.0909	0.1	848.72
23809	19.847	2.	0.1	907.97
23810	19.94	2.0909	0.1	888.27
23811	19.663	2.	0.1	948.05
23812	19.755	2.0909	0.1	928.14
23813	19.478	2.	0.1	988.43
23814	19.57	2.0909	0.1	968.33
23815	19.294	2.	0.1	1029.1
23816	19.386	2.0909	0.1	1008.8
23817	19.109	2.	0.1	1070.
23818	19.201	2.0909	0.1	1049.6
23819	18.924	2.	0.1	1111.3
23820	19.017	2.0909	0.1	1090.6
23821	18.74	2.	0.1	1152.8
23822	18.832	2.0909	0.1	1132.
23823	18.555	2.	0.1	1194.5
23824	18.648	2.0909	0.1	1173.6
23825	18.371	2.	0.1	1236.5
23826	18.463	2.0909	0.1	1215.4
23827	18.186	2.	0.1	1278.8
23828	18.278	2.0909	0.1	1257.5
23829	18.002	2.	0.1	1321.3
23830	18.094	2.0909	0.1	1299.9
23831	17.817	2.	0.1	1364.1
23832	17.909	2.0909	0.1	1342.5
23833	17.632	2.	0.1	1407.1
23834	17.725	2.0909	0.1	1385.4
23835	17.448	2.	0.1	1450.3
23836	17.54	2.0909	0.1	1428.5
23837	17.263	2.	0.1	1493.7
23838	17.356	2.0909	0.1	1471.8
23839	17.079	2.	0.1	1537.4
23840	17.171	2.0909	0.1	1515.3
23841	16.894	2.	0.1	1581.3
23842	16.986	2.0909	0.1	1559.1
23843	16.71	2.	0.1	1625.4
23844	16.802	2.0909	0.1	1603.1
23845	16.525	2.	0.1	1669.7
23846	16.617	2.0909	0.1	1647.3
23847	16.34	2.	0.1	1714.3
23848	16.433	2.0909	0.1	1691.7
23849	16.156	2.	0.1	1759.
23850	16.248	2.0909	0.1	1736.3
23851	15.971	2.	0.1	1803.9
23852	16.064	2.0909	0.1	1781.2
23853	15.787	2.	0.1	1849.1
23854	15.879	2.0909	0.1	1826.2
23855	15.602	2.	0.1	1894.4
23856	15.694	2.0909	0.1	1871.4
23857	15.418	2.	0.1	1940.
23858	15.51	2.0909	0.1	1916.8
23859	15.233	2.	0.1	1985.7
23860	15.325	2.0909	0.1	1962.5
23861	15.048	2.	0.1	2031.6
23862	15.141	2.0909	0.1	2008.3
23863	14.864	2.	0.1	2077.7
23864	14.956	2.0909	0.1	2054.2
23865	14.679	2.	0.1	2123.9
23866	14.772	2.0909	0.1	2100.4
23867	14.495	2.	0.1	2170.4
23868	14.587	2.0909	0.1	2146.8
23869	14.31	2.	0.1	2217.
23870	14.402	2.0909	0.1	2193.3
23871	14.126	2.	0.1	2263.8
23872	14.218	2.0909	0.1	2240.
23873	13.941	2.	0.1	2310.8
23874	14.033	2.0909	0.1	2286.8
23875	13.756	2.	0.1	2357.9
23876	13.849	2.0909	0.1	2333.8
23877	13.572	2.	0.1	2405.1
23878	13.664	2.0909	0.1	2381.
23879	13.387	2.	0.1	2452.6
23880	13.48	2.0909	0.1	2428.3
23881	13.203	2.	0.1	2500.1
23882	13.295	2.0909	0.1	2475.8
23883	13.018	2.	0.1	2547.8
23884	13.11	2.0909	0.1	2523.4
23885	12.834	2.	0.1	2595.7
23886	12.926	2.0909	0.1	2571.2
23887	12.649	2.	0.1	2643.6
23888	12.741	2.0909	0.1	2619.
23889	12.465	2.	0.1	2691.7
23890	12.557	2.0909	0.1	2667.
23891	12.28	2.	0.1	2739.9
23892	12.372	2.0909	0.1	2715.1
23893	12.095	2.	0.1	2788.2
23894	12.188	2.0909	0.1	2763.4
23895	11.911	2.	0.1	2836.7
23896	12.003	2.0909	0.1	2811.7
23897	11.726	2.	0.1	2885.2
23898	11.819	2.0909	0.1	2860.1
23899	11.542	2.	0.1	2933.8
23900	11.634	2.0909	0.1	2908.6
23901	11.357	2.	0.1	2982.4
23902	11.449	2.0909	0.1	2957.2
23903	11.173	2.	0.1	3031.2
23904	11.265	2.0909	0.1	3005.8
23905	10.988	2.	0.1	3080.
23906	11.08	2.0909	0.1	3054.6
23907	10.803	2.	0.1	3128.9
23908	10.896	2.0909	0.1	3103.3
23909	10.619	2.	0.1	3177.8
23910	10.711	2.0909	0.1	3152.2
23911	10.434	2.	0.1	3226.8
23912	10.527	2.0909	0.1	3201.
23913	10.25	2.	0.1	3275.8
23914	10.342	2.0909	0.1	3249.9
23915	10.065	2.	0.1	3324.9
23916	10.157	2.0909	0.1	3298.9
23917	9.8806	2.	0.1	3374.
23918	9.9728	2.0909	0.1	3347.9
23919	9.696	2.	0.1	3423.2
23920	9.7883	2.0909	0.1	3396.9
23921	9.5114	2.	0.1	3472.5
23922	9.6037	2.0909	0.1	3446.
23923	9.3269	2.	0.1	3521.9
23924	9.4191	2.0909	0.1	3495.2
23925	9.1423	2.	0.1	3571.5
23926	9.2346	2.0909	0.1	3544.5
23927	8.9577	2.	0.1	3621.2
23928	9.05	2.0909	0.1	3594.
23929	8.7731	2.	0.1	3671.2
23930	8.8654	2.0909	0.1	3643.8
23931	8.5886	2.	0.1	3721.7
23932	8.6809	2.0909	0.1	3693.9
23933	8.404	2.	0.1	3772.6
23934	8.4963	2.0909	0.1	3744.5
23935	8.2194	2.	0.1	3824.2
23936	8.3117	2.0909	0.1	3795.7
23937	8.0349	2.	0.1	3876.8
23938	8.1272	2.0909	0.1	3847.8
23939	7.8503	2.	0.1	3930.6
23940	7.9426	2.0909	0.1	3901.
23941	7.6657	2.	0.1	3986.1
23942	7.758	2.0909	0.1	3955.8
23943	7.4812	2.	0.1	4043.7
23944	7.5735	2.0909	0.1	4012.7
23945	7.2966	2.	0.1	4104.1
23946	7.3889	2.0909	0.1	4072.4
23947	7.112	2.	0.1	4168.1
23948	7.2043	2.0909	0.1	4135.6
23949	6.9275	2.	0.1	4236.9
23950	7.0198	2.0909	0.1	4203.4
23951	6.7429	2.	0.1	4311.8
23952	6.8352	2.0909	0.1	4277.4
23953	6.5583	2.	0.1	4394.6
23954	6.6506	2.0909	0.1	4359.2
23955	6.3738	2.	0.1	4487.7
23956	6.466	2.0909	0.1	4451.3
23957	6.1892	2.	0.1	4594.3
23958	6.2815	2.0909	0.1	4556.7
23959	6.0046	2.	0.1	4718.6
23960	6.0969	2.0909	0.1	4679.7
23961	5.8201	2.	0.1	4866.5
23962	5.9123	2.0909	0.1	4825.9
23963	5.6355	2.	0.1	5046.6
23964	5.7278	2.0909	0.1	5002.9
23965	5.4509	2.	0.1	5271.4
23966	5.5432	2.0909	0.1	5222.1
23967	5.2664	2.	0.1	5560.6
23968	5.3586	2.0909	0.1	5499.9
23969	5.0818	2.	0.1	5945.8
23970	5.1741	2.0909	0.1	5862.2
23971	4.8972	2.	0.1	6484.8
23972	4.9895	2.0909	0.1	6350.5
23973	4.7127	2.	0.1	7285.1
23974	4.8049	2.0909	0.1	7044.5
23975	4.5281	2.	0.1	8616.3
23976	4.6204	2.0909	0.1	8081.6
23977	4.3435	2.	0.1	11794
23978	4.4358	2.0909	0.1	9880.1
23979	4.2512	2.0909	0.1	13882
23980	4.159	2.	0.1	20764
23981	23.723	2.1818	0.1	199.58
23982	23.815	2.2727	0.1	193.35
23983	23.908	2.1818	0.1	185.44
23984	23.539	2.1818	0.1	219.27
23985	23.631	2.2727	0.1	210.66
23986	23.354	2.1818	0.1	242.73
23987	23.446	2.2727	0.1	232.29
23988	23.169	2.1818	0.1	269.
23989	23.262	2.2727	0.1	257.17
23990	22.985	2.1818	0.1	297.41
23991	23.077	2.2727	0.1	284.49
23992	22.8	2.1818	0.1	327.46
23993	22.893	2.2727	0.1	313.67
23994	22.616	2.1818	0.1	358.82
23995	22.708	2.2727	0.1	344.32
23996	22.431	2.1818	0.1	391.26
23997	22.523	2.2727	0.1	376.15
23998	22.247	2.1818	0.1	424.6
23999	22.339	2.2727	0.1	408.97
24000	22.062	2.1818	0.1	458.73
24001	22.154	2.2727	0.1	442.62
24002	21.877	2.1818	0.1	493.54
24003	21.97	2.2727	0.1	477.
24004	21.693	2.1818	0.1	528.96
24005	21.785	2.2727	0.1	512.04
24006	21.508	2.1818	0.1	564.95
24007	21.601	2.2727	0.1	547.67
24008	21.324	2.1818	0.1	601.45
24009	21.416	2.2727	0.1	583.83
24010	21.139	2.1818	0.1	638.43
24011	21.231	2.2727	0.1	620.49
24012	20.955	2.1818	0.1	675.85
24013	21.047	2.2727	0.1	657.62
24014	20.77	2.1818	0.1	713.69
24015	20.862	2.2727	0.1	695.18
24016	20.585	2.1818	0.1	751.93
24017	20.678	2.2727	0.1	733.16
24018	20.401	2.1818	0.1	790.55
24019	20.493	2.2727	0.1	771.53
24020	20.216	2.1818	0.1	829.52
24021	20.309	2.2727	0.1	810.27
24022	20.032	2.1818	0.1	868.85
24023	20.124	2.2727	0.1	849.37
24024	19.847	2.1818	0.1	908.5
24025	19.94	2.2727	0.1	888.82
24026	19.663	2.1818	0.1	948.48
24027	19.755	2.2727	0.1	928.59
24028	19.478	2.1818	0.1	988.76
24029	19.57	2.2727	0.1	968.68
24030	19.294	2.1818	0.1	1029.3
24031	19.386	2.2727	0.1	1009.1
24032	19.109	2.1818	0.1	1070.2
24033	19.201	2.2727	0.1	1049.8
24034	18.924	2.1818	0.1	1111.4
24035	19.017	2.2727	0.1	1090.8
24036	18.74	2.1818	0.1	1152.8
24037	18.832	2.2727	0.1	1132.
24038	18.555	2.1818	0.1	1194.5
24039	18.648	2.2727	0.1	1173.6
24040	18.371	2.1818	0.1	1236.5
24041	18.463	2.2727	0.1	1215.4
24042	18.186	2.1818	0.1	1278.7
24043	18.278	2.2727	0.1	1257.5
24044	18.002	2.1818	0.1	1321.2
24045	18.094	2.2727	0.1	1299.8
24046	17.817	2.1818	0.1	1363.9
24047	17.909	2.2727	0.1	1342.4
24048	17.632	2.1818	0.1	1406.8
24049	17.725	2.2727	0.1	1385.2
24050	17.448	2.1818	0.1	1450.
24051	17.54	2.2727	0.1	1428.2
24052	17.263	2.1818	0.1	1493.4
24053	17.356	2.2727	0.1	1471.5
24054	17.079	2.1818	0.1	1537.1
24055	17.171	2.2727	0.1	1515.
24056	16.894	2.1818	0.1	1580.9
24057	16.986	2.2727	0.1	1558.8
24058	16.71	2.1818	0.1	1625.
24059	16.802	2.2727	0.1	1602.7
24060	16.525	2.1818	0.1	1669.3
24061	16.617	2.2727	0.1	1646.9
24062	16.34	2.1818	0.1	1713.8
24063	16.433	2.2727	0.1	1691.3
24064	16.156	2.1818	0.1	1758.5
24065	16.248	2.2727	0.1	1735.9
24066	15.971	2.1818	0.1	1803.4
24067	16.064	2.2727	0.1	1780.7
24068	15.787	2.1818	0.1	1848.6
24069	15.879	2.2727	0.1	1825.7
24070	15.602	2.1818	0.1	1893.9
24071	15.694	2.2727	0.1	1870.9
24072	15.418	2.1818	0.1	1939.4
24073	15.51	2.2727	0.1	1916.3
24074	15.233	2.1818	0.1	1985.1
24075	15.325	2.2727	0.1	1961.9
24076	15.048	2.1818	0.1	2031.
24077	15.141	2.2727	0.1	2007.7
24078	14.864	2.1818	0.1	2077.
24079	14.956	2.2727	0.1	2053.7
24080	14.679	2.1818	0.1	2123.3
24081	14.772	2.2727	0.1	2099.8
24082	14.495	2.1818	0.1	2169.7
24083	14.587	2.2727	0.1	2146.1
24084	14.31	2.1818	0.1	2216.3
24085	14.402	2.2727	0.1	2192.6
24086	14.126	2.1818	0.1	2263.
24087	14.218	2.2727	0.1	2239.3
24088	13.941	2.1818	0.1	2310.
24089	14.033	2.2727	0.1	2286.1
24090	13.756	2.1818	0.1	2357.
24091	13.849	2.2727	0.1	2333.1
24092	13.572	2.1818	0.1	2404.3
24093	13.664	2.2727	0.1	2380.2
24094	13.387	2.1818	0.1	2451.6
24095	13.48	2.2727	0.1	2427.5
24096	13.203	2.1818	0.1	2499.1
24097	13.295	2.2727	0.1	2474.9
24098	13.018	2.1818	0.1	2546.8
24099	13.11	2.2727	0.1	2522.5
24100	12.834	2.1818	0.1	2594.6
24101	12.926	2.2727	0.1	2570.2
24102	12.649	2.1818	0.1	2642.5
24103	12.741	2.2727	0.1	2618.
24104	12.465	2.1818	0.1	2690.5
24105	12.557	2.2727	0.1	2666.
24106	12.28	2.1818	0.1	2738.6
24107	12.372	2.2727	0.1	2714.
24108	12.095	2.1818	0.1	2786.8
24109	12.188	2.2727	0.1	2762.1
24110	11.911	2.1818	0.1	2835.2
24111	12.003	2.2727	0.1	2810.4
24112	11.726	2.1818	0.1	2883.6
24113	11.819	2.2727	0.1	2858.7
24114	11.542	2.1818	0.1	2932.1
24115	11.634	2.2727	0.1	2907.1
24116	11.357	2.1818	0.1	2980.6
24117	11.449	2.2727	0.1	2955.6
24118	11.173	2.1818	0.1	3029.2
24119	11.265	2.2727	0.1	3004.1
24120	10.988	2.1818	0.1	3077.9
24121	11.08	2.2727	0.1	3052.7
24122	10.803	2.1818	0.1	3126.6
24123	10.896	2.2727	0.1	3101.4
24124	10.619	2.1818	0.1	3175.4
24125	10.711	2.2727	0.1	3150.
24126	10.434	2.1818	0.1	3224.2
24127	10.527	2.2727	0.1	3198.7
24128	10.25	2.1818	0.1	3273.
24129	10.342	2.2727	0.1	3247.4
24130	10.065	2.1818	0.1	3321.9
24131	10.157	2.2727	0.1	3296.2
24132	9.8806	2.1818	0.1	3370.8
24133	9.9728	2.2727	0.1	3345.
24134	9.696	2.1818	0.1	3419.7
24135	9.7883	2.2727	0.1	3393.8
24136	9.5114	2.1818	0.1	3468.7
24137	9.6037	2.2727	0.1	3442.7
24138	9.3269	2.1818	0.1	3517.9
24139	9.4191	2.2727	0.1	3491.6
24140	9.1423	2.1818	0.1	3567.1
24141	9.2346	2.2727	0.1	3540.7
24142	8.9577	2.1818	0.1	3616.6
24143	9.05	2.2727	0.1	3590.
24144	8.7731	2.1818	0.1	3666.4
24145	8.8654	2.2727	0.1	3639.5
24146	8.5886	2.1818	0.1	3716.7
24147	8.6809	2.2727	0.1	3689.4
24148	8.404	2.1818	0.1	3767.5
24149	8.4963	2.2727	0.1	3739.8
24150	8.2194	2.1818	0.1	3819.2
24151	8.3117	2.2727	0.1	3790.9
24152	8.0349	2.1818	0.1	3872.
24153	8.1272	2.2727	0.1	3843.1
24154	7.8503	2.1818	0.1	3926.2
24155	7.9426	2.2727	0.1	3896.7
24156	7.6657	2.1818	0.1	3982.5
24157	7.758	2.2727	0.1	3952.
24158	7.4812	2.1818	0.1	4041.5
24159	7.5735	2.2727	0.1	4009.9
24160	7.2966	2.1818	0.1	4103.9
24161	7.3889	2.2727	0.1	4071.
24162	7.112	2.1818	0.1	4170.9
24163	7.2043	2.2727	0.1	4136.5
24164	6.9275	2.1818	0.1	4244.
24165	7.0198	2.2727	0.1	4207.6
24166	6.7429	2.1818	0.1	4324.8
24167	6.8352	2.2727	0.1	4286.2
24168	6.5583	2.1818	0.1	4415.9
24169	6.6506	2.2727	0.1	4374.5
24170	6.3738	2.1818	0.1	4520.3
24171	6.466	2.2727	0.1	4475.5
24172	6.1892	2.1818	0.1	4642.1
24173	6.2815	2.2727	0.1	4593.1
24174	6.0046	2.1818	0.1	4786.8
24175	6.0969	2.2727	0.1	4732.5
24176	5.8201	2.1818	0.1	4961.8
24177	5.9123	2.2727	0.1	4900.6
24178	5.6355	2.1818	0.1	5177.5
24179	5.7278	2.2727	0.1	5106.8
24180	5.4509	2.1818	0.1	5449.
24181	5.5432	2.2727	0.1	5364.3
24182	5.2664	2.1818	0.1	5799.1
24183	5.3586	2.2727	0.1	5692.1
24184	5.0818	2.1818	0.1	6263.5
24185	5.1741	2.2727	0.1	6118.6
24186	4.8972	2.1818	0.1	6906.5
24187	4.9895	2.2727	0.1	6688.8
24188	4.7127	2.1818	0.1	7839.8
24189	4.8049	2.2727	0.1	7481.1
24190	4.5281	2.1818	0.1	9361.
24191	4.6204	2.2727	0.1	8630.5
24192	4.3435	2.1818	0.1	12139
24193	4.4358	2.2727	0.1	10457
24194	4.2512	2.2727	0.1	13511
24195	4.159	2.1818	0.1	16397
24196	23.723	2.3636	0.1	203.26
24197	23.815	2.4545	0.1	196.6
24198	23.908	2.3636	0.1	189.25
24199	23.539	2.3636	0.1	222.84
24200	23.631	2.4545	0.1	213.83
24201	23.354	2.3636	0.1	246.13
24202	23.446	2.4545	0.1	235.33
24203	23.169	2.3636	0.1	272.24
24204	23.262	2.4545	0.1	260.07
24205	22.985	2.3636	0.1	300.47
24206	23.077	2.4545	0.1	287.24
24207	22.8	2.3636	0.1	330.34
24208	22.893	2.4545	0.1	316.28
24209	22.616	2.3636	0.1	361.52
24210	22.708	2.4545	0.1	346.77
24211	22.431	2.3636	0.1	393.78
24212	22.523	2.4545	0.1	378.44
24213	22.247	2.3636	0.1	426.93
24214	22.339	2.4545	0.1	411.1
24215	22.062	2.3636	0.1	460.87
24216	22.154	2.4545	0.1	444.59
24217	21.877	2.3636	0.1	495.5
24218	21.97	2.4545	0.1	478.81
24219	21.693	2.3636	0.1	530.75
24220	21.785	2.4545	0.1	513.69
24221	21.508	2.3636	0.1	566.56
24222	21.601	2.4545	0.1	549.16
24223	21.324	2.3636	0.1	602.9
24224	21.416	2.4545	0.1	585.18
24225	21.139	2.3636	0.1	639.72
24226	21.231	2.4545	0.1	621.7
24227	20.955	2.3636	0.1	676.99
24228	21.047	2.4545	0.1	658.7
24229	20.77	2.3636	0.1	714.7
24230	20.862	2.4545	0.1	696.14
24231	20.585	2.3636	0.1	752.81
24232	20.678	2.4545	0.1	734.
24233	20.401	2.3636	0.1	791.31
24234	20.493	2.4545	0.1	772.26
24235	20.216	2.3636	0.1	830.17
24236	20.309	2.4545	0.1	810.9
24237	20.032	2.3636	0.1	869.4
24238	20.124	2.4545	0.1	849.91
24239	19.847	2.3636	0.1	908.96
24240	19.94	2.4545	0.1	889.27
24241	19.663	2.3636	0.1	948.85
24242	19.755	2.4545	0.1	928.96
24243	19.478	2.3636	0.1	989.06
24244	19.57	2.4545	0.1	968.98
24245	19.294	2.3636	0.1	1029.6
24246	19.386	2.4545	0.1	1009.3
24247	19.109	2.3636	0.1	1070.4
24248	19.201	2.4545	0.1	1050.
24249	18.924	2.3636	0.1	1111.5
24250	19.017	2.4545	0.1	1090.9
24251	18.74	2.3636	0.1	1152.9
24252	18.832	2.4545	0.1	1132.1
24253	18.555	2.3636	0.1	1194.5
24254	18.648	2.4545	0.1	1173.6
24255	18.371	2.3636	0.1	1236.4
24256	18.463	2.4545	0.1	1215.4
24257	18.186	2.3636	0.1	1278.6
24258	18.278	2.4545	0.1	1257.4
24259	18.002	2.3636	0.1	1321.
24260	18.094	2.4545	0.1	1299.7
24261	17.817	2.3636	0.1	1363.7
24262	17.909	2.4545	0.1	1342.2
24263	17.632	2.3636	0.1	1406.6
24264	17.725	2.4545	0.1	1385.
24265	17.448	2.3636	0.1	1449.8
24266	17.54	2.4545	0.1	1428.
24267	17.263	2.3636	0.1	1493.2
24268	17.356	2.4545	0.1	1471.3
24269	17.079	2.3636	0.1	1536.8
24270	17.171	2.4545	0.1	1514.8
24271	16.894	2.3636	0.1	1580.6
24272	16.986	2.4545	0.1	1558.5
24273	16.71	2.3636	0.1	1624.7
24274	16.802	2.4545	0.1	1602.5
24275	16.525	2.3636	0.1	1669.
24276	16.617	2.4545	0.1	1646.6
24277	16.34	2.3636	0.1	1713.4
24278	16.433	2.4545	0.1	1691.
24279	16.156	2.3636	0.1	1758.1
24280	16.248	2.4545	0.1	1735.6
24281	15.971	2.3636	0.1	1803.
24282	16.064	2.4545	0.1	1780.4
24283	15.787	2.3636	0.1	1848.1
24284	15.879	2.4545	0.1	1825.4
24285	15.602	2.3636	0.1	1893.4
24286	15.694	2.4545	0.1	1870.6
24287	15.418	2.3636	0.1	1938.9
24288	15.51	2.4545	0.1	1915.9
24289	15.233	2.3636	0.1	1984.6
24290	15.325	2.4545	0.1	1961.5
24291	15.048	2.3636	0.1	2030.5
24292	15.141	2.4545	0.1	2007.3
24293	14.864	2.3636	0.1	2076.5
24294	14.956	2.4545	0.1	2053.2
24295	14.679	2.3636	0.1	2122.7
24296	14.772	2.4545	0.1	2099.4
24297	14.495	2.3636	0.1	2169.1
24298	14.587	2.4545	0.1	2145.7
24299	14.31	2.3636	0.1	2215.7
24300	14.402	2.4545	0.1	2192.1
24301	14.126	2.3636	0.1	2262.4
24302	14.218	2.4545	0.1	2238.8
24303	13.941	2.3636	0.1	2309.3
24304	14.033	2.4545	0.1	2285.6
24305	13.756	2.3636	0.1	2356.3
24306	13.849	2.4545	0.1	2332.5
24307	13.572	2.3636	0.1	2403.5
24308	13.664	2.4545	0.1	2379.6
24309	13.387	2.3636	0.1	2450.9
24310	13.48	2.4545	0.1	2426.9
24311	13.203	2.3636	0.1	2498.3
24312	13.295	2.4545	0.1	2474.3
24313	13.018	2.3636	0.1	2546.
24314	13.11	2.4545	0.1	2521.8
24315	12.834	2.3636	0.1	2593.7
24316	12.926	2.4545	0.1	2569.4
24317	12.649	2.3636	0.1	2641.5
24318	12.741	2.4545	0.1	2617.2
24319	12.465	2.3636	0.1	2689.5
24320	12.557	2.4545	0.1	2665.1
24321	12.28	2.3636	0.1	2737.6
24322	12.372	2.4545	0.1	2713.1
24323	12.095	2.3636	0.1	2785.7
24324	12.188	2.4545	0.1	2761.2
24325	11.911	2.3636	0.1	2834.
24326	12.003	2.4545	0.1	2809.4
24327	11.726	2.3636	0.1	2882.3
24328	11.819	2.4545	0.1	2857.6
24329	11.542	2.3636	0.1	2930.7
24330	11.634	2.4545	0.1	2906.
24331	11.357	2.3636	0.1	2979.1
24332	11.449	2.4545	0.1	2954.3
24333	11.173	2.3636	0.1	3027.6
24334	11.265	2.4545	0.1	3002.8
24335	10.988	2.3636	0.1	3076.2
24336	11.08	2.4545	0.1	3051.3
24337	10.803	2.3636	0.1	3124.8
24338	10.896	2.4545	0.1	3099.8
24339	10.619	2.3636	0.1	3173.4
24340	10.711	2.4545	0.1	3148.3
24341	10.434	2.3636	0.1	3222.
24342	10.527	2.4545	0.1	3196.9
24343	10.25	2.3636	0.1	3270.7
24344	10.342	2.4545	0.1	3245.5
24345	10.065	2.3636	0.1	3319.3
24346	10.157	2.4545	0.1	3294.1
24347	9.8806	2.3636	0.1	3368.
24348	9.9728	2.4545	0.1	3342.7
24349	9.696	2.3636	0.1	3416.8
24350	9.7883	2.4545	0.1	3391.3
24351	9.5114	2.3636	0.1	3465.6
24352	9.6037	2.4545	0.1	3440.
24353	9.3269	2.3636	0.1	3514.5
24354	9.4191	2.4545	0.1	3488.7
24355	9.1423	2.3636	0.1	3563.5
24356	9.2346	2.4545	0.1	3537.6
24357	8.9577	2.3636	0.1	3612.8
24358	9.05	2.4545	0.1	3586.7
24359	8.7731	2.3636	0.1	3662.4
24360	8.8654	2.4545	0.1	3636.
24361	8.5886	2.3636	0.1	3712.5
24362	8.6809	2.4545	0.1	3685.7
24363	8.404	2.3636	0.1	3763.2
24364	8.4963	2.4545	0.1	3736.
24365	8.2194	2.3636	0.1	3814.9
24366	8.3117	2.4545	0.1	3787.1
24367	8.0349	2.3636	0.1	3867.8
24368	8.1272	2.4545	0.1	3839.3
24369	7.8503	2.3636	0.1	3922.5
24370	7.9426	2.4545	0.1	3893.
24371	7.6657	2.3636	0.1	3979.4
24372	7.758	2.4545	0.1	3948.9
24373	7.4812	2.3636	0.1	4039.5
24374	7.5735	2.4545	0.1	4007.5
24375	7.2966	2.3636	0.1	4103.6
24376	7.3889	2.4545	0.1	4069.8
24377	7.112	2.3636	0.1	4173.2
24378	7.2043	2.4545	0.1	4137.1
24379	6.9275	2.3636	0.1	4249.8
24380	7.0198	2.4545	0.1	4210.9
24381	6.7429	2.3636	0.1	4335.8
24382	6.8352	2.4545	0.1	4293.3
24383	6.5583	2.3636	0.1	4434.1
24384	6.6506	2.4545	0.1	4387.
24385	6.3738	2.3636	0.1	4548.3
24386	6.466	2.4545	0.1	4495.5
24387	6.1892	2.3636	0.1	4683.5
24388	6.2815	2.4545	0.1	4623.5
24389	6.0046	2.3636	0.1	4846.3
24390	6.0969	2.4545	0.1	4776.9
24391	5.8201	2.3636	0.1	5045.4
24392	5.9123	2.4545	0.1	4963.9
24393	5.6355	2.3636	0.1	5293.2
24394	5.7278	2.4545	0.1	5195.3
24395	5.4509	2.3636	0.1	5606.6
24396	5.5432	2.4545	0.1	5485.9
24397	5.2664	2.3636	0.1	6010.6
24398	5.3586	2.4545	0.1	5856.5
24399	5.0818	2.3636	0.1	6542.9
24400	5.1741	2.4545	0.1	6336.6
24401	4.8972	2.3636	0.1	7263.8
24402	4.9895	2.4545	0.1	6969.8
24403	4.7127	2.3636	0.1	8278.2
24404	4.8049	2.4545	0.1	7821.4
24405	4.5281	2.3636	0.1	9755.
24406	4.6204	2.4545	0.1	8992.3
24407	4.3435	2.3636	0.1	11905
24408	4.4358	2.4545	0.1	10605
24409	4.2512	2.4545	0.1	12690
24410	4.159	2.3636	0.1	14147
24411	23.723	2.5455	0.1	206.
24412	23.815	2.6364	0.1	198.89
24413	23.908	2.5455	0.1	192.08
24414	23.539	2.5455	0.1	225.48
24415	23.631	2.6364	0.1	216.07
24416	23.354	2.5455	0.1	248.67
24417	23.446	2.6364	0.1	237.49
24418	23.169	2.5455	0.1	274.65
24419	23.262	2.6364	0.1	262.14
24420	22.985	2.5455	0.1	302.76
24421	23.077	2.6364	0.1	289.2
24422	22.8	2.5455	0.1	332.5
24423	22.893	2.6364	0.1	318.13
24424	22.616	2.5455	0.1	363.55
24425	22.708	2.6364	0.1	348.52
24426	22.431	2.5455	0.1	395.67
24427	22.523	2.6364	0.1	380.08
24428	22.247	2.5455	0.1	428.69
24429	22.339	2.6364	0.1	412.63
24430	22.062	2.5455	0.1	462.5
24431	22.154	2.6364	0.1	446.01
24432	21.877	2.5455	0.1	496.99
24433	21.97	2.6364	0.1	480.12
24434	21.693	2.5455	0.1	532.11
24435	21.785	2.6364	0.1	514.89
24436	21.508	2.5455	0.1	567.8
24437	21.601	2.6364	0.1	550.25
24438	21.324	2.5455	0.1	604.01
24439	21.416	2.6364	0.1	586.16
24440	21.139	2.5455	0.1	640.71
24441	21.231	2.6364	0.1	622.58
24442	20.955	2.5455	0.1	677.88
24443	21.047	2.6364	0.1	659.48
24444	20.77	2.5455	0.1	715.48
24445	20.862	2.6364	0.1	696.83
24446	20.585	2.5455	0.1	753.49
24447	20.678	2.6364	0.1	734.61
24448	20.401	2.5455	0.1	791.9
24449	20.493	2.6364	0.1	772.79
24450	20.216	2.5455	0.1	830.68
24451	20.309	2.6364	0.1	811.36
24452	20.032	2.5455	0.1	869.83
24453	20.124	2.6364	0.1	850.3
24454	19.847	2.5455	0.1	909.32
24455	19.94	2.6364	0.1	889.6
24456	19.663	2.5455	0.1	949.14
24457	19.755	2.6364	0.1	929.24
24458	19.478	2.5455	0.1	989.29
24459	19.57	2.6364	0.1	969.2
24460	19.294	2.5455	0.1	1029.8
24461	19.386	2.6364	0.1	1009.5
24462	19.109	2.5455	0.1	1070.5
24463	19.201	2.6364	0.1	1050.1
24464	18.924	2.5455	0.1	1111.6
24465	19.017	2.6364	0.1	1091.
24466	18.74	2.5455	0.1	1152.9
24467	18.832	2.6364	0.1	1132.2
24468	18.555	2.5455	0.1	1194.5
24469	18.648	2.6364	0.1	1173.6
24470	18.371	2.5455	0.1	1236.4
24471	18.463	2.6364	0.1	1215.4
24472	18.186	2.5455	0.1	1278.5
24473	18.278	2.6364	0.1	1257.4
24474	18.002	2.5455	0.1	1320.9
24475	18.094	2.6364	0.1	1299.6
24476	17.817	2.5455	0.1	1363.6
24477	17.909	2.6364	0.1	1342.1
24478	17.632	2.5455	0.1	1406.5
24479	17.725	2.6364	0.1	1384.9
24480	17.448	2.5455	0.1	1449.6
24481	17.54	2.6364	0.1	1427.9
24482	17.263	2.5455	0.1	1493.
24483	17.356	2.6364	0.1	1471.2
24484	17.079	2.5455	0.1	1536.6
24485	17.171	2.6364	0.1	1514.6
24486	16.894	2.5455	0.1	1580.4
24487	16.986	2.6364	0.1	1558.3
24488	16.71	2.5455	0.1	1624.5
24489	16.802	2.6364	0.1	1602.3
24490	16.525	2.5455	0.1	1668.7
24491	16.617	2.6364	0.1	1646.4
24492	16.34	2.5455	0.1	1713.2
24493	16.433	2.6364	0.1	1690.8
24494	16.156	2.5455	0.1	1757.9
24495	16.248	2.6364	0.1	1735.4
24496	15.971	2.5455	0.1	1802.7
24497	16.064	2.6364	0.1	1780.1
24498	15.787	2.5455	0.1	1847.8
24499	15.879	2.6364	0.1	1825.1
24500	15.602	2.5455	0.1	1893.1
24501	15.694	2.6364	0.1	1870.3
24502	15.418	2.5455	0.1	1938.6
24503	15.51	2.6364	0.1	1915.7
24504	15.233	2.5455	0.1	1984.2
24505	15.325	2.6364	0.1	1961.2
24506	15.048	2.5455	0.1	2030.1
24507	15.141	2.6364	0.1	2007.
24508	14.864	2.5455	0.1	2076.1
24509	14.956	2.6364	0.1	2052.9
24510	14.679	2.5455	0.1	2122.3
24511	14.772	2.6364	0.1	2099.
24512	14.495	2.5455	0.1	2168.7
24513	14.587	2.6364	0.1	2145.3
24514	14.31	2.5455	0.1	2215.2
24515	14.402	2.6364	0.1	2191.8
24516	14.126	2.5455	0.1	2262.
24517	14.218	2.6364	0.1	2238.4
24518	13.941	2.5455	0.1	2308.8
24519	14.033	2.6364	0.1	2285.2
24520	13.756	2.5455	0.1	2355.8
24521	13.849	2.6364	0.1	2332.1
24522	13.572	2.5455	0.1	2403.
24523	13.664	2.6364	0.1	2379.2
24524	13.387	2.5455	0.1	2450.3
24525	13.48	2.6364	0.1	2426.4
24526	13.203	2.5455	0.1	2497.8
24527	13.295	2.6364	0.1	2473.8
24528	13.018	2.5455	0.1	2545.3
24529	13.11	2.6364	0.1	2521.3
24530	12.834	2.5455	0.1	2593.
24531	12.926	2.6364	0.1	2568.9
24532	12.649	2.5455	0.1	2640.8
24533	12.741	2.6364	0.1	2616.6
24534	12.465	2.5455	0.1	2688.7
24535	12.557	2.6364	0.1	2664.5
24536	12.28	2.5455	0.1	2736.8
24537	12.372	2.6364	0.1	2712.5
24538	12.095	2.5455	0.1	2784.9
24539	12.188	2.6364	0.1	2760.5
24540	11.911	2.5455	0.1	2833.1
24541	12.003	2.6364	0.1	2808.6
24542	11.726	2.5455	0.1	2881.3
24543	11.819	2.6364	0.1	2856.8
24544	11.542	2.5455	0.1	2929.6
24545	11.634	2.6364	0.1	2905.1
24546	11.357	2.5455	0.1	2978.
24547	11.449	2.6364	0.1	2953.4
24548	11.173	2.5455	0.1	3026.4
24549	11.265	2.6364	0.1	3001.8
24550	10.988	2.5455	0.1	3074.9
24551	11.08	2.6364	0.1	3050.2
24552	10.803	2.5455	0.1	3123.4
24553	10.896	2.6364	0.1	3098.7
24554	10.619	2.5455	0.1	3171.9
24555	10.711	2.6364	0.1	3147.1
24556	10.434	2.5455	0.1	3220.4
24557	10.527	2.6364	0.1	3195.6
24558	10.25	2.5455	0.1	3268.9
24559	10.342	2.6364	0.1	3244.
24560	10.065	2.5455	0.1	3317.4
24561	10.157	2.6364	0.1	3292.5
24562	9.8806	2.5455	0.1	3366.
24563	9.9728	2.6364	0.1	3341.
24564	9.696	2.5455	0.1	3414.5
24565	9.7883	2.6364	0.1	3389.5
24566	9.5114	2.5455	0.1	3463.2
24567	9.6037	2.6364	0.1	3438.
24568	9.3269	2.5455	0.1	3511.9
24569	9.4191	2.6364	0.1	3486.6
24570	9.1423	2.5455	0.1	3560.7
24571	9.2346	2.6364	0.1	3535.3
24572	8.9577	2.5455	0.1	3609.8
24573	9.05	2.6364	0.1	3584.2
24574	8.7731	2.5455	0.1	3659.3
24575	8.8654	2.6364	0.1	3633.4
24576	8.5886	2.5455	0.1	3709.2
24577	8.6809	2.6364	0.1	3683.
24578	8.404	2.5455	0.1	3759.9
24579	8.4963	2.6364	0.1	3733.2
24580	8.2194	2.5455	0.1	3811.5
24581	8.3117	2.6364	0.1	3784.2
24582	8.0349	2.5455	0.1	3864.5
24583	8.1272	2.6364	0.1	3836.5
24584	7.8503	2.5455	0.1	3919.5
24585	7.9426	2.6364	0.1	3890.3
24586	7.6657	2.5455	0.1	3976.9
24587	7.758	2.6364	0.1	3946.5
24588	7.4812	2.5455	0.1	4037.8
24589	7.5735	2.6364	0.1	4005.6
24590	7.2966	2.5455	0.1	4103.3
24591	7.3889	2.6364	0.1	4068.9
24592	7.112	2.5455	0.1	4174.8
24593	7.2043	2.6364	0.1	4137.5
24594	6.9275	2.5455	0.1	4254.4
24595	7.0198	2.6364	0.1	4213.3
24596	6.7429	2.5455	0.1	4344.5
24597	6.8352	2.6364	0.1	4298.6
24598	6.5583	2.5455	0.1	4448.5
24599	6.6506	2.6364	0.1	4396.4
24600	6.3738	2.5455	0.1	4570.7
24601	6.466	2.6364	0.1	4510.6
24602	6.1892	2.5455	0.1	4716.8
24603	6.2815	2.6364	0.1	4646.4
24604	6.0046	2.5455	0.1	4894.5
24605	6.0969	2.6364	0.1	4810.7
24606	5.8201	2.5455	0.1	5113.6
24607	5.9123	2.6364	0.1	5012.3
24608	5.6355	2.5455	0.1	5387.9
24609	5.7278	2.6364	0.1	5263.3
24610	5.4509	2.5455	0.1	5735.9
24611	5.5432	2.6364	0.1	5579.7
24612	5.2664	2.5455	0.1	6183.
24613	5.3586	2.6364	0.1	5983.1
24614	5.0818	2.5455	0.1	6765.1
24615	5.1741	2.6364	0.1	6502.4
24616	4.8972	2.5455	0.1	7531.9
24617	4.9895	2.6364	0.1	7175.7
24618	4.7127	2.5455	0.1	8547.7
24619	4.8049	2.6364	0.1	8049.7
24620	4.5281	2.5455	0.1	9869.1
24621	4.6204	2.6364	0.1	9169.1
24622	4.3435	2.5455	0.1	11419
24623	4.4358	2.6364	0.1	10532
24624	4.2512	2.6364	0.1	11943
24625	4.159	2.5455	0.1	12788
24626	23.723	2.7273	0.1	207.81
24627	23.815	2.8182	0.1	200.26
24628	23.908	2.7273	0.1	193.95
24629	23.539	2.7273	0.1	227.24
24630	23.631	2.8182	0.1	217.41
24631	23.354	2.7273	0.1	250.35
24632	23.446	2.8182	0.1	238.78
24633	23.169	2.7273	0.1	276.25
24634	23.262	2.8182	0.1	263.37
24635	22.985	2.7273	0.1	304.28
24636	23.077	2.8182	0.1	290.38
24637	22.8	2.7273	0.1	333.94
24638	22.893	2.8182	0.1	319.24
24639	22.616	2.7273	0.1	364.9
24640	22.708	2.8182	0.1	349.57
24641	22.431	2.7273	0.1	396.94
24642	22.523	2.8182	0.1	381.07
24643	22.247	2.7273	0.1	429.87
24644	22.339	2.8182	0.1	413.55
24645	22.062	2.7273	0.1	463.59
24646	22.154	2.8182	0.1	446.86
24647	21.877	2.7273	0.1	498.
24648	21.97	2.8182	0.1	480.91
24649	21.693	2.7273	0.1	533.03
24650	21.785	2.8182	0.1	515.61
24651	21.508	2.7273	0.1	568.63
24652	21.601	2.8182	0.1	550.91
24653	21.324	2.7273	0.1	604.76
24654	21.416	2.8182	0.1	586.76
24655	21.139	2.7273	0.1	641.38
24656	21.231	2.8182	0.1	623.12
24657	20.955	2.7273	0.1	678.47
24658	21.047	2.8182	0.1	659.96
24659	20.77	2.7273	0.1	716.
24660	20.862	2.8182	0.1	697.26
24661	20.585	2.7273	0.1	753.95
24662	20.678	2.8182	0.1	734.98
24663	20.401	2.7273	0.1	792.3
24664	20.493	2.8182	0.1	773.12
24665	20.216	2.7273	0.1	831.03
24666	20.309	2.8182	0.1	811.64
24667	20.032	2.7273	0.1	870.12
24668	20.124	2.8182	0.1	850.54
24669	19.847	2.7273	0.1	909.57
24670	19.94	2.8182	0.1	889.8
24671	19.663	2.7273	0.1	949.35
24672	19.755	2.8182	0.1	929.41
24673	19.478	2.7273	0.1	989.46
24674	19.57	2.8182	0.1	969.34
24675	19.294	2.7273	0.1	1029.9
24676	19.386	2.8182	0.1	1009.6
24677	19.109	2.7273	0.1	1070.6
24678	19.201	2.8182	0.1	1050.2
24679	18.924	2.7273	0.1	1111.6
24680	19.017	2.8182	0.1	1091.
24681	18.74	2.7273	0.1	1152.9
24682	18.832	2.8182	0.1	1132.2
24683	18.555	2.7273	0.1	1194.5
24684	18.648	2.8182	0.1	1173.6
24685	18.371	2.7273	0.1	1236.4
24686	18.463	2.8182	0.1	1215.4
24687	18.186	2.7273	0.1	1278.5
24688	18.278	2.8182	0.1	1257.4
24689	18.002	2.7273	0.1	1320.9
24690	18.094	2.8182	0.1	1299.6
24691	17.817	2.7273	0.1	1363.5
24692	17.909	2.8182	0.1	1342.1
24693	17.632	2.7273	0.1	1406.4
24694	17.725	2.8182	0.1	1384.9
24695	17.448	2.7273	0.1	1449.5
24696	17.54	2.8182	0.1	1427.9
24697	17.263	2.7273	0.1	1492.9
24698	17.356	2.8182	0.1	1471.1
24699	17.079	2.7273	0.1	1536.5
24700	17.171	2.8182	0.1	1514.6
24701	16.894	2.7273	0.1	1580.3
24702	16.986	2.8182	0.1	1558.2
24703	16.71	2.7273	0.1	1624.3
24704	16.802	2.8182	0.1	1602.2
24705	16.525	2.7273	0.1	1668.5
24706	16.617	2.8182	0.1	1646.3
24707	16.34	2.7273	0.1	1713.
24708	16.433	2.8182	0.1	1690.7
24709	16.156	2.7273	0.1	1757.7
24710	16.248	2.8182	0.1	1735.2
24711	15.971	2.7273	0.1	1802.5
24712	16.064	2.8182	0.1	1780.
24713	15.787	2.7273	0.1	1847.6
24714	15.879	2.8182	0.1	1825.
24715	15.602	2.7273	0.1	1892.9
24716	15.694	2.8182	0.1	1870.1
24717	15.418	2.7273	0.1	1938.4
24718	15.51	2.8182	0.1	1915.5
24719	15.233	2.7273	0.1	1984.
24720	15.325	2.8182	0.1	1961.1
24721	15.048	2.7273	0.1	2029.8
24722	15.141	2.8182	0.1	2006.8
24723	14.864	2.7273	0.1	2075.9
24724	14.956	2.8182	0.1	2052.7
24725	14.679	2.7273	0.1	2122.1
24726	14.772	2.8182	0.1	2098.8
24727	14.495	2.7273	0.1	2168.4
24728	14.587	2.8182	0.1	2145.1
24729	14.31	2.7273	0.1	2214.9
24730	14.402	2.8182	0.1	2191.5
24731	14.126	2.7273	0.1	2261.6
24732	14.218	2.8182	0.1	2238.2
24733	13.941	2.7273	0.1	2308.5
24734	14.033	2.8182	0.1	2284.9
24735	13.756	2.7273	0.1	2355.5
24736	13.849	2.8182	0.1	2331.9
24737	13.572	2.7273	0.1	2402.6
24738	13.664	2.8182	0.1	2378.9
24739	13.387	2.7273	0.1	2449.9
24740	13.48	2.8182	0.1	2426.1
24741	13.203	2.7273	0.1	2497.4
24742	13.295	2.8182	0.1	2473.5
24743	13.018	2.7273	0.1	2544.9
24744	13.11	2.8182	0.1	2521.
24745	12.834	2.7273	0.1	2592.6
24746	12.926	2.8182	0.1	2568.6
24747	12.649	2.7273	0.1	2640.4
24748	12.741	2.8182	0.1	2616.3
24749	12.465	2.7273	0.1	2688.2
24750	12.557	2.8182	0.1	2664.1
24751	12.28	2.7273	0.1	2736.2
24752	12.372	2.8182	0.1	2712.1
24753	12.095	2.7273	0.1	2784.3
24754	12.188	2.8182	0.1	2760.1
24755	11.911	2.7273	0.1	2832.4
24756	12.003	2.8182	0.1	2808.2
24757	11.726	2.7273	0.1	2880.7
24758	11.819	2.8182	0.1	2856.4
24759	11.542	2.7273	0.1	2928.9
24760	11.634	2.8182	0.1	2904.6
24761	11.357	2.7273	0.1	2977.3
24762	11.449	2.8182	0.1	2952.9
24763	11.173	2.7273	0.1	3025.6
24764	11.265	2.8182	0.1	3001.2
24765	10.988	2.7273	0.1	3074.
24766	11.08	2.8182	0.1	3049.6
24767	10.803	2.7273	0.1	3122.4
24768	10.896	2.8182	0.1	3098.
24769	10.619	2.7273	0.1	3170.8
24770	10.711	2.8182	0.1	3146.4
24771	10.434	2.7273	0.1	3219.3
24772	10.527	2.8182	0.1	3194.8
24773	10.25	2.7273	0.1	3267.7
24774	10.342	2.8182	0.1	3243.2
24775	10.065	2.7273	0.1	3316.1
24776	10.157	2.8182	0.1	3291.6
24777	9.8806	2.7273	0.1	3364.5
24778	9.9728	2.8182	0.1	3340.
24779	9.696	2.7273	0.1	3413.
24780	9.7883	2.8182	0.1	3388.4
24781	9.5114	2.7273	0.1	3461.5
24782	9.6037	2.8182	0.1	3436.8
24783	9.3269	2.7273	0.1	3510.1
24784	9.4191	2.8182	0.1	3485.3
24785	9.1423	2.7273	0.1	3558.8
24786	9.2346	2.8182	0.1	3533.9
24787	8.9577	2.7273	0.1	3607.8
24788	9.05	2.8182	0.1	3582.7
24789	8.7731	2.7273	0.1	3657.1
24790	8.8654	2.8182	0.1	3631.8
24791	8.5886	2.7273	0.1	3707.
24792	8.6809	2.8182	0.1	3681.3
24793	8.404	2.7273	0.1	3757.5
24794	8.4963	2.8182	0.1	3731.4
24795	8.2194	2.7273	0.1	3809.2
24796	8.3117	2.8182	0.1	3782.5
24797	8.0349	2.7273	0.1	3862.3
24798	8.1272	2.8182	0.1	3834.7
24799	7.8503	2.7273	0.1	3917.4
24800	7.9426	2.8182	0.1	3888.7
24801	7.6657	2.7273	0.1	3975.2
24802	7.758	2.8182	0.1	3945.
24803	7.4812	2.7273	0.1	4036.7
24804	7.5735	2.8182	0.1	4004.5
24805	7.2966	2.7273	0.1	4103.
24806	7.3889	2.8182	0.1	4068.3
24807	7.112	2.7273	0.1	4176.
24808	7.2043	2.8182	0.1	4137.7
24809	6.9275	2.7273	0.1	4257.5
24810	7.0198	2.8182	0.1	4214.8
24811	6.7429	2.7273	0.1	4350.5
24812	6.8352	2.8182	0.1	4301.9
24813	6.5583	2.7273	0.1	4458.5
24814	6.6506	2.8182	0.1	4402.2
24815	6.3738	2.7273	0.1	4586.4
24816	6.466	2.8182	0.1	4520.
24817	6.1892	2.7273	0.1	4740.3
24818	6.2815	2.8182	0.1	4660.8
24819	6.0046	2.7273	0.1	4928.6
24820	6.0969	2.8182	0.1	4831.9
24821	5.8201	2.7273	0.1	5162.1
24822	5.9123	2.8182	0.1	5042.8
24823	5.6355	2.7273	0.1	5455.5
24824	5.7278	2.8182	0.1	5306.3
24825	5.4509	2.7273	0.1	5827.9
24826	5.5432	2.8182	0.1	5639.1
24827	5.2664	2.7273	0.1	6304.4
24828	5.3586	2.8182	0.1	6063.
24829	5.0818	2.7273	0.1	6916.8
24830	5.1741	2.8182	0.1	6605.5
24831	4.8972	2.7273	0.1	7700.8
24832	4.9895	2.8182	0.1	7299.
24833	4.7127	2.7273	0.1	8684.4
24834	4.8049	2.8182	0.1	8173.5
24835	4.5281	2.7273	0.1	9851.7
24836	4.6204	2.8182	0.1	9236.1
24837	4.3435	2.7273	0.1	11071
24838	4.4358	2.8182	0.1	10423
24839	4.2512	2.8182	0.1	11531
24840	4.159	2.7273	0.1	12043
24841	23.723	2.9091	0.1	208.71
24842	23.815	3.	0.1	200.72
24843	23.908	2.9091	0.1	194.88
24844	23.539	2.9091	0.1	228.11
24845	23.631	3.	0.1	217.86
24846	23.354	2.9091	0.1	251.19
24847	23.446	3.	0.1	239.21
24848	23.169	2.9091	0.1	277.05
24849	23.262	3.	0.1	263.78
24850	22.985	2.9091	0.1	305.04
24851	23.077	3.	0.1	290.77
24852	22.8	2.9091	0.1	334.66
24853	22.893	3.	0.1	319.61
24854	22.616	2.9091	0.1	365.58
24855	22.708	3.	0.1	349.92
24856	22.431	2.9091	0.1	397.57
24857	22.523	3.	0.1	381.4
24858	22.247	2.9091	0.1	430.46
24859	22.339	3.	0.1	413.85
24860	22.062	2.9091	0.1	464.14
24861	22.154	3.	0.1	447.14
24862	21.877	2.9091	0.1	498.5
24863	21.97	3.	0.1	481.17
24864	21.693	2.9091	0.1	533.49
24865	21.785	3.	0.1	515.85
24866	21.508	2.9091	0.1	569.05
24867	21.601	3.	0.1	551.13
24868	21.324	2.9091	0.1	605.14
24869	21.416	3.	0.1	586.96
24870	21.139	2.9091	0.1	641.72
24871	21.231	3.	0.1	623.3
24872	20.955	2.9091	0.1	678.78
24873	21.047	3.	0.1	660.12
24874	20.77	2.9091	0.1	716.27
24875	20.862	3.	0.1	697.4
24876	20.585	2.9091	0.1	754.19
24877	20.678	3.	0.1	735.11
24878	20.401	2.9091	0.1	792.5
24879	20.493	3.	0.1	773.23
24880	20.216	2.9091	0.1	831.2
24881	20.309	3.	0.1	811.74
24882	20.032	2.9091	0.1	870.27
24883	20.124	3.	0.1	850.62
24884	19.847	2.9091	0.1	909.69
24885	19.94	3.	0.1	889.87
24886	19.663	2.9091	0.1	949.45
24887	19.755	3.	0.1	929.46
24888	19.478	2.9091	0.1	989.54
24889	19.57	3.	0.1	969.39
24890	19.294	2.9091	0.1	1029.9
24891	19.386	3.	0.1	1009.6
24892	19.109	2.9091	0.1	1070.7
24893	19.201	3.	0.1	1050.2
24894	18.924	2.9091	0.1	1111.7
24895	19.017	3.	0.1	1091.1
24896	18.74	2.9091	0.1	1153.
24897	18.832	3.	0.1	1132.2
24898	18.555	2.9091	0.1	1194.5
24899	18.648	3.	0.1	1173.6
24900	18.371	2.9091	0.1	1236.4
24901	18.463	3.	0.1	1215.4
24902	18.186	2.9091	0.1	1278.5
24903	18.278	3.	0.1	1257.3
24904	18.002	2.9091	0.1	1320.9
24905	18.094	3.	0.1	1299.6
24906	17.817	2.9091	0.1	1363.5
24907	17.909	3.	0.1	1342.1
24908	17.632	2.9091	0.1	1406.4
24909	17.725	3.	0.1	1384.8
24910	17.448	2.9091	0.1	1449.5
24911	17.54	3.	0.1	1427.8
24912	17.263	2.9091	0.1	1492.8
24913	17.356	3.	0.1	1471.1
24914	17.079	2.9091	0.1	1536.4
24915	17.171	3.	0.1	1514.5
24916	16.894	2.9091	0.1	1580.2
24917	16.986	3.	0.1	1558.2
24918	16.71	2.9091	0.1	1624.2
24919	16.802	3.	0.1	1602.1
24920	16.525	2.9091	0.1	1668.5
24921	16.617	3.	0.1	1646.3
24922	16.34	2.9091	0.1	1712.9
24923	16.433	3.	0.1	1690.6
24924	16.156	2.9091	0.1	1757.6
24925	16.248	3.	0.1	1735.2
24926	15.971	2.9091	0.1	1802.4
24927	16.064	3.	0.1	1779.9
24928	15.787	2.9091	0.1	1847.5
24929	15.879	3.	0.1	1824.9
24930	15.602	2.9091	0.1	1892.8
24931	15.694	3.	0.1	1870.1
24932	15.418	2.9091	0.1	1938.2
24933	15.51	3.	0.1	1915.4
24934	15.233	2.9091	0.1	1983.9
24935	15.325	3.	0.1	1961.
24936	15.048	2.9091	0.1	2029.7
24937	15.141	3.	0.1	2006.7
24938	14.864	2.9091	0.1	2075.7
24939	14.956	3.	0.1	2052.7
24940	14.679	2.9091	0.1	2121.9
24941	14.772	3.	0.1	2098.8
24942	14.495	2.9091	0.1	2168.3
24943	14.587	3.	0.1	2145.
24944	14.31	2.9091	0.1	2214.8
24945	14.402	3.	0.1	2191.5
24946	14.126	2.9091	0.1	2261.5
24947	14.218	3.	0.1	2238.1
24948	13.941	2.9091	0.1	2308.3
24949	14.033	3.	0.1	2284.9
24950	13.756	2.9091	0.1	2355.3
24951	13.849	3.	0.1	2331.8
24952	13.572	2.9091	0.1	2402.5
24953	13.664	3.	0.1	2378.8
24954	13.387	2.9091	0.1	2449.7
24955	13.48	3.	0.1	2426.
24956	13.203	2.9091	0.1	2497.2
24957	13.295	3.	0.1	2473.4
24958	13.018	2.9091	0.1	2544.7
24959	13.11	3.	0.1	2520.9
24960	12.834	2.9091	0.1	2592.3
24961	12.926	3.	0.1	2568.5
24962	12.649	2.9091	0.1	2640.1
24963	12.741	3.	0.1	2616.2
24964	12.465	2.9091	0.1	2688.
24965	12.557	3.	0.1	2664.
24966	12.28	2.9091	0.1	2736.
24967	12.372	3.	0.1	2711.9
24968	12.095	2.9091	0.1	2784.
24969	12.188	3.	0.1	2759.9
24970	11.911	2.9091	0.1	2832.1
24971	12.003	3.	0.1	2808.
24972	11.726	2.9091	0.1	2880.3
24973	11.819	3.	0.1	2856.2
24974	11.542	2.9091	0.1	2928.6
24975	11.634	3.	0.1	2904.4
24976	11.357	2.9091	0.1	2976.9
24977	11.449	3.	0.1	2952.7
24978	11.173	2.9091	0.1	3025.2
24979	11.265	3.	0.1	3001.
24980	10.988	2.9091	0.1	3073.6
24981	11.08	3.	0.1	3049.4
24982	10.803	2.9091	0.1	3121.9
24983	10.896	3.	0.1	3097.7
24984	10.619	2.9091	0.1	3170.3
24985	10.711	3.	0.1	3146.1
24986	10.434	2.9091	0.1	3218.7
24987	10.527	3.	0.1	3194.5
24988	10.25	2.9091	0.1	3267.1
24989	10.342	3.	0.1	3242.9
24990	10.065	2.9091	0.1	3315.4
24991	10.157	3.	0.1	3291.2
24992	9.8806	2.9091	0.1	3363.8
24993	9.9728	3.	0.1	3339.6
24994	9.696	2.9091	0.1	3412.2
24995	9.7883	3.	0.1	3388.
24996	9.5114	2.9091	0.1	3460.7
24997	9.6037	3.	0.1	3436.4
24998	9.3269	2.9091	0.1	3509.2
24999	9.4191	3.	0.1	3484.9
25000	9.1423	2.9091	0.1	3557.9
25001	9.2346	3.	0.1	3533.5
25002	8.9577	2.9091	0.1	3606.8
25003	9.05	3.	0.1	3582.2
25004	8.7731	2.9091	0.1	3656.
25005	8.8654	3.	0.1	3631.3
25006	8.5886	2.9091	0.1	3705.8
25007	8.6809	3.	0.1	3680.8
25008	8.404	2.9091	0.1	3756.4
25009	8.4963	3.	0.1	3730.9
25010	8.2194	2.9091	0.1	3808.
25011	8.3117	3.	0.1	3781.9
25012	8.0349	2.9091	0.1	3861.1
25013	8.1272	3.	0.1	3834.1
25014	7.8503	2.9091	0.1	3916.3
25015	7.9426	3.	0.1	3888.1
25016	7.6657	2.9091	0.1	3974.3
25017	7.758	3.	0.1	3944.5
25018	7.4812	2.9091	0.1	4036.1
25019	7.5735	3.	0.1	4004.1
25020	7.2966	2.9091	0.1	4102.9
25021	7.3889	3.	0.1	4068.
25022	7.112	2.9091	0.1	4176.5
25023	7.2043	3.	0.1	4137.8
25024	6.9275	2.9091	0.1	4259.1
25025	7.0198	3.	0.1	4215.3
25026	6.7429	2.9091	0.1	4353.6
25027	6.8352	3.	0.1	4303.
25028	6.5583	2.9091	0.1	4463.7
25029	6.6506	3.	0.1	4404.2
25030	6.3738	2.9091	0.1	4594.5
25031	6.466	3.	0.1	4523.2
25032	6.1892	2.9091	0.1	4752.5
25033	6.2815	3.	0.1	4665.7
25034	6.0046	2.9091	0.1	4946.3
25035	6.0969	3.	0.1	4839.1
25036	5.8201	2.9091	0.1	5187.4
25037	5.9123	3.	0.1	5053.3
25038	5.6355	2.9091	0.1	5490.7
25039	5.7278	3.	0.1	5321.1
25040	5.4509	2.9091	0.1	5875.7
25041	5.5432	3.	0.1	5659.4
25042	5.2664	2.9091	0.1	6366.9
25043	5.3586	3.	0.1	6090.2
25044	5.0818	2.9091	0.1	6992.8
25045	5.1741	3.	0.1	6640.4
25046	4.8972	2.9091	0.1	7780.2
25047	4.9895	3.	0.1	7339.7
25048	4.7127	2.9091	0.1	8737.8
25049	4.8049	3.	0.1	8211.9
25050	4.5281	2.9091	0.1	9822.1
25051	4.6204	3.	0.1	9251.4
25052	4.3435	2.9091	0.1	10893
25053	4.4358	3.	0.1	10379
25054	4.2512	3.	0.1	11397
25055	4.159	2.9091	0.1	11709
25056	23.723	3.0909	0.1	208.71
25057	23.815	3.1818	0.1	200.26
25058	23.908	3.0909	0.1	194.88
25059	23.539	3.0909	0.1	228.11
25060	23.631	3.1818	0.1	217.41
25061	23.354	3.0909	0.1	251.19
25062	23.446	3.1818	0.1	238.78
25063	23.169	3.0909	0.1	277.05
25064	23.262	3.1818	0.1	263.37
25065	22.985	3.0909	0.1	305.04
25066	23.077	3.1818	0.1	290.38
25067	22.8	3.0909	0.1	334.66
25068	22.893	3.1818	0.1	319.24
25069	22.616	3.0909	0.1	365.58
25070	22.708	3.1818	0.1	349.57
25071	22.431	3.0909	0.1	397.57
25072	22.523	3.1818	0.1	381.07
25073	22.247	3.0909	0.1	430.46
25074	22.339	3.1818	0.1	413.55
25075	22.062	3.0909	0.1	464.14
25076	22.154	3.1818	0.1	446.86
25077	21.877	3.0909	0.1	498.5
25078	21.97	3.1818	0.1	480.91
25079	21.693	3.0909	0.1	533.49
25080	21.785	3.1818	0.1	515.61
25081	21.508	3.0909	0.1	569.05
25082	21.601	3.1818	0.1	550.91
25083	21.324	3.0909	0.1	605.14
25084	21.416	3.1818	0.1	586.76
25085	21.139	3.0909	0.1	641.72
25086	21.231	3.1818	0.1	623.12
25087	20.955	3.0909	0.1	678.78
25088	21.047	3.1818	0.1	659.96
25089	20.77	3.0909	0.1	716.27
25090	20.862	3.1818	0.1	697.26
25091	20.585	3.0909	0.1	754.19
25092	20.678	3.1818	0.1	734.98
25093	20.401	3.0909	0.1	792.5
25094	20.493	3.1818	0.1	773.12
25095	20.216	3.0909	0.1	831.2
25096	20.309	3.1818	0.1	811.64
25097	20.032	3.0909	0.1	870.27
25098	20.124	3.1818	0.1	850.54
25099	19.847	3.0909	0.1	909.69
25100	19.94	3.1818	0.1	889.8
25101	19.663	3.0909	0.1	949.45
25102	19.755	3.1818	0.1	929.41
25103	19.478	3.0909	0.1	989.54
25104	19.57	3.1818	0.1	969.34
25105	19.294	3.0909	0.1	1029.9
25106	19.386	3.1818	0.1	1009.6
25107	19.109	3.0909	0.1	1070.7
25108	19.201	3.1818	0.1	1050.2
25109	18.924	3.0909	0.1	1111.7
25110	19.017	3.1818	0.1	1091.
25111	18.74	3.0909	0.1	1153.
25112	18.832	3.1818	0.1	1132.2
25113	18.555	3.0909	0.1	1194.5
25114	18.648	3.1818	0.1	1173.6
25115	18.371	3.0909	0.1	1236.4
25116	18.463	3.1818	0.1	1215.4
25117	18.186	3.0909	0.1	1278.5
25118	18.278	3.1818	0.1	1257.4
25119	18.002	3.0909	0.1	1320.9
25120	18.094	3.1818	0.1	1299.6
25121	17.817	3.0909	0.1	1363.5
25122	17.909	3.1818	0.1	1342.1
25123	17.632	3.0909	0.1	1406.4
25124	17.725	3.1818	0.1	1384.9
25125	17.448	3.0909	0.1	1449.5
25126	17.54	3.1818	0.1	1427.9
25127	17.263	3.0909	0.1	1492.8
25128	17.356	3.1818	0.1	1471.1
25129	17.079	3.0909	0.1	1536.4
25130	17.171	3.1818	0.1	1514.6
25131	16.894	3.0909	0.1	1580.2
25132	16.986	3.1818	0.1	1558.2
25133	16.71	3.0909	0.1	1624.2
25134	16.802	3.1818	0.1	1602.2
25135	16.525	3.0909	0.1	1668.5
25136	16.617	3.1818	0.1	1646.3
25137	16.34	3.0909	0.1	1712.9
25138	16.433	3.1818	0.1	1690.7
25139	16.156	3.0909	0.1	1757.6
25140	16.248	3.1818	0.1	1735.2
25141	15.971	3.0909	0.1	1802.4
25142	16.064	3.1818	0.1	1780.
25143	15.787	3.0909	0.1	1847.5
25144	15.879	3.1818	0.1	1825.
25145	15.602	3.0909	0.1	1892.8
25146	15.694	3.1818	0.1	1870.1
25147	15.418	3.0909	0.1	1938.2
25148	15.51	3.1818	0.1	1915.5
25149	15.233	3.0909	0.1	1983.9
25150	15.325	3.1818	0.1	1961.1
25151	15.048	3.0909	0.1	2029.7
25152	15.141	3.1818	0.1	2006.8
25153	14.864	3.0909	0.1	2075.7
25154	14.956	3.1818	0.1	2052.7
25155	14.679	3.0909	0.1	2121.9
25156	14.772	3.1818	0.1	2098.8
25157	14.495	3.0909	0.1	2168.3
25158	14.587	3.1818	0.1	2145.1
25159	14.31	3.0909	0.1	2214.8
25160	14.402	3.1818	0.1	2191.5
25161	14.126	3.0909	0.1	2261.5
25162	14.218	3.1818	0.1	2238.2
25163	13.941	3.0909	0.1	2308.3
25164	14.033	3.1818	0.1	2284.9
25165	13.756	3.0909	0.1	2355.3
25166	13.849	3.1818	0.1	2331.9
25167	13.572	3.0909	0.1	2402.5
25168	13.664	3.1818	0.1	2378.9
25169	13.387	3.0909	0.1	2449.7
25170	13.48	3.1818	0.1	2426.1
25171	13.203	3.0909	0.1	2497.2
25172	13.295	3.1818	0.1	2473.5
25173	13.018	3.0909	0.1	2544.7
25174	13.11	3.1818	0.1	2521.
25175	12.834	3.0909	0.1	2592.3
25176	12.926	3.1818	0.1	2568.6
25177	12.649	3.0909	0.1	2640.1
25178	12.741	3.1818	0.1	2616.3
25179	12.465	3.0909	0.1	2688.
25180	12.557	3.1818	0.1	2664.1
25181	12.28	3.0909	0.1	2736.
25182	12.372	3.1818	0.1	2712.1
25183	12.095	3.0909	0.1	2784.
25184	12.188	3.1818	0.1	2760.1
25185	11.911	3.0909	0.1	2832.1
25186	12.003	3.1818	0.1	2808.2
25187	11.726	3.0909	0.1	2880.3
25188	11.819	3.1818	0.1	2856.4
25189	11.542	3.0909	0.1	2928.6
25190	11.634	3.1818	0.1	2904.6
25191	11.357	3.0909	0.1	2976.9
25192	11.449	3.1818	0.1	2952.9
25193	11.173	3.0909	0.1	3025.2
25194	11.265	3.1818	0.1	3001.2
25195	10.988	3.0909	0.1	3073.6
25196	11.08	3.1818	0.1	3049.6
25197	10.803	3.0909	0.1	3121.9
25198	10.896	3.1818	0.1	3098.
25199	10.619	3.0909	0.1	3170.3
25200	10.711	3.1818	0.1	3146.4
25201	10.434	3.0909	0.1	3218.7
25202	10.527	3.1818	0.1	3194.8
25203	10.25	3.0909	0.1	3267.1
25204	10.342	3.1818	0.1	3243.2
25205	10.065	3.0909	0.1	3315.4
25206	10.157	3.1818	0.1	3291.6
25207	9.8806	3.0909	0.1	3363.8
25208	9.9728	3.1818	0.1	3340.
25209	9.696	3.0909	0.1	3412.2
25210	9.7883	3.1818	0.1	3388.4
25211	9.5114	3.0909	0.1	3460.7
25212	9.6037	3.1818	0.1	3436.8
25213	9.3269	3.0909	0.1	3509.2
25214	9.4191	3.1818	0.1	3485.3
25215	9.1423	3.0909	0.1	3557.9
25216	9.2346	3.1818	0.1	3533.9
25217	8.9577	3.0909	0.1	3606.8
25218	9.05	3.1818	0.1	3582.7
25219	8.7731	3.0909	0.1	3656.
25220	8.8654	3.1818	0.1	3631.8
25221	8.5886	3.0909	0.1	3705.8
25222	8.6809	3.1818	0.1	3681.3
25223	8.404	3.0909	0.1	3756.4
25224	8.4963	3.1818	0.1	3731.4
25225	8.2194	3.0909	0.1	3808.
25226	8.3117	3.1818	0.1	3782.5
25227	8.0349	3.0909	0.1	3861.1
25228	8.1272	3.1818	0.1	3834.7
25229	7.8503	3.0909	0.1	3916.3
25230	7.9426	3.1818	0.1	3888.7
25231	7.6657	3.0909	0.1	3974.3
25232	7.758	3.1818	0.1	3945.
25233	7.4812	3.0909	0.1	4036.1
25234	7.5735	3.1818	0.1	4004.5
25235	7.2966	3.0909	0.1	4102.9
25236	7.3889	3.1818	0.1	4068.3
25237	7.112	3.0909	0.1	4176.5
25238	7.2043	3.1818	0.1	4137.7
25239	6.9275	3.0909	0.1	4259.1
25240	7.0198	3.1818	0.1	4214.8
25241	6.7429	3.0909	0.1	4353.6
25242	6.8352	3.1818	0.1	4301.9
25243	6.5583	3.0909	0.1	4463.7
25244	6.6506	3.1818	0.1	4402.2
25245	6.3738	3.0909	0.1	4594.5
25246	6.466	3.1818	0.1	4520.
25247	6.1892	3.0909	0.1	4752.5
25248	6.2815	3.1818	0.1	4660.8
25249	6.0046	3.0909	0.1	4946.3
25250	6.0969	3.1818	0.1	4831.9
25251	5.8201	3.0909	0.1	5187.4
25252	5.9123	3.1818	0.1	5042.8
25253	5.6355	3.0909	0.1	5490.7
25254	5.7278	3.1818	0.1	5306.3
25255	5.4509	3.0909	0.1	5875.7
25256	5.5432	3.1818	0.1	5639.1
25257	5.2664	3.0909	0.1	6366.9
25258	5.3586	3.1818	0.1	6063.
25259	5.0818	3.0909	0.1	6992.8
25260	5.1741	3.1818	0.1	6605.5
25261	4.8972	3.0909	0.1	7780.2
25262	4.9895	3.1818	0.1	7299.
25263	4.7127	3.0909	0.1	8737.8
25264	4.8049	3.1818	0.1	8173.5
25265	4.5281	3.0909	0.1	9822.1
25266	4.6204	3.1818	0.1	9236.1
25267	4.3435	3.0909	0.1	10893
25268	4.4358	3.1818	0.1	10423
25269	4.2512	3.1818	0.1	11531
25270	4.159	3.0909	0.1	11709
25271	23.723	3.2727	0.1	207.81
25272	23.815	3.3636	0.1	198.89
25273	23.908	3.2727	0.1	193.95
25274	23.539	3.2727	0.1	227.24
25275	23.631	3.3636	0.1	216.07
25276	23.354	3.2727	0.1	250.35
25277	23.446	3.3636	0.1	237.49
25278	23.169	3.2727	0.1	276.25
25279	23.262	3.3636	0.1	262.14
25280	22.985	3.2727	0.1	304.28
25281	23.077	3.3636	0.1	289.2
25282	22.8	3.2727	0.1	333.94
25283	22.893	3.3636	0.1	318.13
25284	22.616	3.2727	0.1	364.9
25285	22.708	3.3636	0.1	348.52
25286	22.431	3.2727	0.1	396.94
25287	22.523	3.3636	0.1	380.08
25288	22.247	3.2727	0.1	429.87
25289	22.339	3.3636	0.1	412.63
25290	22.062	3.2727	0.1	463.59
25291	22.154	3.3636	0.1	446.01
25292	21.877	3.2727	0.1	498.
25293	21.97	3.3636	0.1	480.12
25294	21.693	3.2727	0.1	533.03
25295	21.785	3.3636	0.1	514.89
25296	21.508	3.2727	0.1	568.63
25297	21.601	3.3636	0.1	550.25
25298	21.324	3.2727	0.1	604.76
25299	21.416	3.3636	0.1	586.16
25300	21.139	3.2727	0.1	641.38
25301	21.231	3.3636	0.1	622.58
25302	20.955	3.2727	0.1	678.47
25303	21.047	3.3636	0.1	659.48
25304	20.77	3.2727	0.1	716.
25305	20.862	3.3636	0.1	696.83
25306	20.585	3.2727	0.1	753.95
25307	20.678	3.3636	0.1	734.61
25308	20.401	3.2727	0.1	792.3
25309	20.493	3.3636	0.1	772.79
25310	20.216	3.2727	0.1	831.03
25311	20.309	3.3636	0.1	811.36
25312	20.032	3.2727	0.1	870.12
25313	20.124	3.3636	0.1	850.3
25314	19.847	3.2727	0.1	909.57
25315	19.94	3.3636	0.1	889.6
25316	19.663	3.2727	0.1	949.35
25317	19.755	3.3636	0.1	929.24
25318	19.478	3.2727	0.1	989.46
25319	19.57	3.3636	0.1	969.2
25320	19.294	3.2727	0.1	1029.9
25321	19.386	3.3636	0.1	1009.5
25322	19.109	3.2727	0.1	1070.6
25323	19.201	3.3636	0.1	1050.1
25324	18.924	3.2727	0.1	1111.6
25325	19.017	3.3636	0.1	1091.
25326	18.74	3.2727	0.1	1152.9
25327	18.832	3.3636	0.1	1132.2
25328	18.555	3.2727	0.1	1194.5
25329	18.648	3.3636	0.1	1173.6
25330	18.371	3.2727	0.1	1236.4
25331	18.463	3.3636	0.1	1215.4
25332	18.186	3.2727	0.1	1278.5
25333	18.278	3.3636	0.1	1257.4
25334	18.002	3.2727	0.1	1320.9
25335	18.094	3.3636	0.1	1299.6
25336	17.817	3.2727	0.1	1363.5
25337	17.909	3.3636	0.1	1342.1
25338	17.632	3.2727	0.1	1406.4
25339	17.725	3.3636	0.1	1384.9
25340	17.448	3.2727	0.1	1449.5
25341	17.54	3.3636	0.1	1427.9
25342	17.263	3.2727	0.1	1492.9
25343	17.356	3.3636	0.1	1471.2
25344	17.079	3.2727	0.1	1536.5
25345	17.171	3.3636	0.1	1514.6
25346	16.894	3.2727	0.1	1580.3
25347	16.986	3.3636	0.1	1558.3
25348	16.71	3.2727	0.1	1624.3
25349	16.802	3.3636	0.1	1602.3
25350	16.525	3.2727	0.1	1668.5
25351	16.617	3.3636	0.1	1646.4
25352	16.34	3.2727	0.1	1713.
25353	16.433	3.3636	0.1	1690.8
25354	16.156	3.2727	0.1	1757.7
25355	16.248	3.3636	0.1	1735.4
25356	15.971	3.2727	0.1	1802.5
25357	16.064	3.3636	0.1	1780.1
25358	15.787	3.2727	0.1	1847.6
25359	15.879	3.3636	0.1	1825.1
25360	15.602	3.2727	0.1	1892.9
25361	15.694	3.3636	0.1	1870.3
25362	15.418	3.2727	0.1	1938.4
25363	15.51	3.3636	0.1	1915.7
25364	15.233	3.2727	0.1	1984.
25365	15.325	3.3636	0.1	1961.2
25366	15.048	3.2727	0.1	2029.8
25367	15.141	3.3636	0.1	2007.
25368	14.864	3.2727	0.1	2075.9
25369	14.956	3.3636	0.1	2052.9
25370	14.679	3.2727	0.1	2122.1
25371	14.772	3.3636	0.1	2099.
25372	14.495	3.2727	0.1	2168.4
25373	14.587	3.3636	0.1	2145.3
25374	14.31	3.2727	0.1	2214.9
25375	14.402	3.3636	0.1	2191.8
25376	14.126	3.2727	0.1	2261.6
25377	14.218	3.3636	0.1	2238.4
25378	13.941	3.2727	0.1	2308.5
25379	14.033	3.3636	0.1	2285.2
25380	13.756	3.2727	0.1	2355.5
25381	13.849	3.3636	0.1	2332.1
25382	13.572	3.2727	0.1	2402.6
25383	13.664	3.3636	0.1	2379.2
25384	13.387	3.2727	0.1	2449.9
25385	13.48	3.3636	0.1	2426.4
25386	13.203	3.2727	0.1	2497.4
25387	13.295	3.3636	0.1	2473.8
25388	13.018	3.2727	0.1	2544.9
25389	13.11	3.3636	0.1	2521.3
25390	12.834	3.2727	0.1	2592.6
25391	12.926	3.3636	0.1	2568.9
25392	12.649	3.2727	0.1	2640.4
25393	12.741	3.3636	0.1	2616.6
25394	12.465	3.2727	0.1	2688.2
25395	12.557	3.3636	0.1	2664.5
25396	12.28	3.2727	0.1	2736.2
25397	12.372	3.3636	0.1	2712.5
25398	12.095	3.2727	0.1	2784.3
25399	12.188	3.3636	0.1	2760.5
25400	11.911	3.2727	0.1	2832.4
25401	12.003	3.3636	0.1	2808.6
25402	11.726	3.2727	0.1	2880.7
25403	11.819	3.3636	0.1	2856.8
25404	11.542	3.2727	0.1	2928.9
25405	11.634	3.3636	0.1	2905.1
25406	11.357	3.2727	0.1	2977.3
25407	11.449	3.3636	0.1	2953.4
25408	11.173	3.2727	0.1	3025.6
25409	11.265	3.3636	0.1	3001.8
25410	10.988	3.2727	0.1	3074.
25411	11.08	3.3636	0.1	3050.2
25412	10.803	3.2727	0.1	3122.4
25413	10.896	3.3636	0.1	3098.7
25414	10.619	3.2727	0.1	3170.8
25415	10.711	3.3636	0.1	3147.1
25416	10.434	3.2727	0.1	3219.3
25417	10.527	3.3636	0.1	3195.6
25418	10.25	3.2727	0.1	3267.7
25419	10.342	3.3636	0.1	3244.
25420	10.065	3.2727	0.1	3316.1
25421	10.157	3.3636	0.1	3292.5
25422	9.8806	3.2727	0.1	3364.5
25423	9.9728	3.3636	0.1	3341.
25424	9.696	3.2727	0.1	3413.
25425	9.7883	3.3636	0.1	3389.5
25426	9.5114	3.2727	0.1	3461.5
25427	9.6037	3.3636	0.1	3438.
25428	9.3269	3.2727	0.1	3510.1
25429	9.4191	3.3636	0.1	3486.6
25430	9.1423	3.2727	0.1	3558.8
25431	9.2346	3.3636	0.1	3535.3
25432	8.9577	3.2727	0.1	3607.8
25433	9.05	3.3636	0.1	3584.2
25434	8.7731	3.2727	0.1	3657.1
25435	8.8654	3.3636	0.1	3633.4
25436	8.5886	3.2727	0.1	3707.
25437	8.6809	3.3636	0.1	3683.
25438	8.404	3.2727	0.1	3757.5
25439	8.4963	3.3636	0.1	3733.2
25440	8.2194	3.2727	0.1	3809.2
25441	8.3117	3.3636	0.1	3784.2
25442	8.0349	3.2727	0.1	3862.3
25443	8.1272	3.3636	0.1	3836.5
25444	7.8503	3.2727	0.1	3917.4
25445	7.9426	3.3636	0.1	3890.3
25446	7.6657	3.2727	0.1	3975.2
25447	7.758	3.3636	0.1	3946.5
25448	7.4812	3.2727	0.1	4036.7
25449	7.5735	3.3636	0.1	4005.6
25450	7.2966	3.2727	0.1	4103.
25451	7.3889	3.3636	0.1	4068.9
25452	7.112	3.2727	0.1	4176.
25453	7.2043	3.3636	0.1	4137.5
25454	6.9275	3.2727	0.1	4257.5
25455	7.0198	3.3636	0.1	4213.3
25456	6.7429	3.2727	0.1	4350.5
25457	6.8352	3.3636	0.1	4298.6
25458	6.5583	3.2727	0.1	4458.5
25459	6.6506	3.3636	0.1	4396.4
25460	6.3738	3.2727	0.1	4586.4
25461	6.466	3.3636	0.1	4510.6
25462	6.1892	3.2727	0.1	4740.3
25463	6.2815	3.3636	0.1	4646.4
25464	6.0046	3.2727	0.1	4928.6
25465	6.0969	3.3636	0.1	4810.7
25466	5.8201	3.2727	0.1	5162.1
25467	5.9123	3.3636	0.1	5012.3
25468	5.6355	3.2727	0.1	5455.5
25469	5.7278	3.3636	0.1	5263.3
25470	5.4509	3.2727	0.1	5827.9
25471	5.5432	3.3636	0.1	5579.7
25472	5.2664	3.2727	0.1	6304.4
25473	5.3586	3.3636	0.1	5983.1
25474	5.0818	3.2727	0.1	6916.8
25475	5.1741	3.3636	0.1	6502.4
25476	4.8972	3.2727	0.1	7700.8
25477	4.9895	3.3636	0.1	7175.7
25478	4.7127	3.2727	0.1	8684.4
25479	4.8049	3.3636	0.1	8049.7
25480	4.5281	3.2727	0.1	9851.7
25481	4.6204	3.3636	0.1	9169.1
25482	4.3435	3.2727	0.1	11071
25483	4.4358	3.3636	0.1	10532
25484	4.2512	3.3636	0.1	11943
25485	4.159	3.2727	0.1	12043
25486	23.723	3.4545	0.1	206.
25487	23.815	3.5455	0.1	196.6
25488	23.908	3.4545	0.1	192.08
25489	23.539	3.4545	0.1	225.48
25490	23.631	3.5455	0.1	213.83
25491	23.354	3.4545	0.1	248.67
25492	23.446	3.5455	0.1	235.33
25493	23.169	3.4545	0.1	274.65
25494	23.262	3.5455	0.1	260.07
25495	22.985	3.4545	0.1	302.76
25496	23.077	3.5455	0.1	287.24
25497	22.8	3.4545	0.1	332.5
25498	22.893	3.5455	0.1	316.28
25499	22.616	3.4545	0.1	363.55
25500	22.708	3.5455	0.1	346.77
25501	22.431	3.4545	0.1	395.67
25502	22.523	3.5455	0.1	378.44
25503	22.247	3.4545	0.1	428.69
25504	22.339	3.5455	0.1	411.1
25505	22.062	3.4545	0.1	462.5
25506	22.154	3.5455	0.1	444.59
25507	21.877	3.4545	0.1	496.99
25508	21.97	3.5455	0.1	478.81
25509	21.693	3.4545	0.1	532.11
25510	21.785	3.5455	0.1	513.69
25511	21.508	3.4545	0.1	567.8
25512	21.601	3.5455	0.1	549.16
25513	21.324	3.4545	0.1	604.01
25514	21.416	3.5455	0.1	585.18
25515	21.139	3.4545	0.1	640.71
25516	21.231	3.5455	0.1	621.7
25517	20.955	3.4545	0.1	677.88
25518	21.047	3.5455	0.1	658.7
25519	20.77	3.4545	0.1	715.48
25520	20.862	3.5455	0.1	696.14
25521	20.585	3.4545	0.1	753.49
25522	20.678	3.5455	0.1	734.
25523	20.401	3.4545	0.1	791.9
25524	20.493	3.5455	0.1	772.26
25525	20.216	3.4545	0.1	830.68
25526	20.309	3.5455	0.1	810.9
25527	20.032	3.4545	0.1	869.83
25528	20.124	3.5455	0.1	849.91
25529	19.847	3.4545	0.1	909.32
25530	19.94	3.5455	0.1	889.27
25531	19.663	3.4545	0.1	949.14
25532	19.755	3.5455	0.1	928.96
25533	19.478	3.4545	0.1	989.29
25534	19.57	3.5455	0.1	968.98
25535	19.294	3.4545	0.1	1029.8
25536	19.386	3.5455	0.1	1009.3
25537	19.109	3.4545	0.1	1070.5
25538	19.201	3.5455	0.1	1050.
25539	18.924	3.4545	0.1	1111.6
25540	19.017	3.5455	0.1	1090.9
25541	18.74	3.4545	0.1	1152.9
25542	18.832	3.5455	0.1	1132.1
25543	18.555	3.4545	0.1	1194.5
25544	18.648	3.5455	0.1	1173.6
25545	18.371	3.4545	0.1	1236.4
25546	18.463	3.5455	0.1	1215.4
25547	18.186	3.4545	0.1	1278.5
25548	18.278	3.5455	0.1	1257.4
25549	18.002	3.4545	0.1	1320.9
25550	18.094	3.5455	0.1	1299.7
25551	17.817	3.4545	0.1	1363.6
25552	17.909	3.5455	0.1	1342.2
25553	17.632	3.4545	0.1	1406.5
25554	17.725	3.5455	0.1	1385.
25555	17.448	3.4545	0.1	1449.6
25556	17.54	3.5455	0.1	1428.
25557	17.263	3.4545	0.1	1493.
25558	17.356	3.5455	0.1	1471.3
25559	17.079	3.4545	0.1	1536.6
25560	17.171	3.5455	0.1	1514.8
25561	16.894	3.4545	0.1	1580.4
25562	16.986	3.5455	0.1	1558.5
25563	16.71	3.4545	0.1	1624.5
25564	16.802	3.5455	0.1	1602.5
25565	16.525	3.4545	0.1	1668.7
25566	16.617	3.5455	0.1	1646.6
25567	16.34	3.4545	0.1	1713.2
25568	16.433	3.5455	0.1	1691.
25569	16.156	3.4545	0.1	1757.9
25570	16.248	3.5455	0.1	1735.6
25571	15.971	3.4545	0.1	1802.7
25572	16.064	3.5455	0.1	1780.4
25573	15.787	3.4545	0.1	1847.8
25574	15.879	3.5455	0.1	1825.4
25575	15.602	3.4545	0.1	1893.1
25576	15.694	3.5455	0.1	1870.6
25577	15.418	3.4545	0.1	1938.6
25578	15.51	3.5455	0.1	1915.9
25579	15.233	3.4545	0.1	1984.2
25580	15.325	3.5455	0.1	1961.5
25581	15.048	3.4545	0.1	2030.1
25582	15.141	3.5455	0.1	2007.3
25583	14.864	3.4545	0.1	2076.1
25584	14.956	3.5455	0.1	2053.2
25585	14.679	3.4545	0.1	2122.3
25586	14.772	3.5455	0.1	2099.4
25587	14.495	3.4545	0.1	2168.7
25588	14.587	3.5455	0.1	2145.7
25589	14.31	3.4545	0.1	2215.2
25590	14.402	3.5455	0.1	2192.1
25591	14.126	3.4545	0.1	2262.
25592	14.218	3.5455	0.1	2238.8
25593	13.941	3.4545	0.1	2308.8
25594	14.033	3.5455	0.1	2285.6
25595	13.756	3.4545	0.1	2355.8
25596	13.849	3.5455	0.1	2332.5
25597	13.572	3.4545	0.1	2403.
25598	13.664	3.5455	0.1	2379.6
25599	13.387	3.4545	0.1	2450.3
25600	13.48	3.5455	0.1	2426.9
25601	13.203	3.4545	0.1	2497.8
25602	13.295	3.5455	0.1	2474.3
25603	13.018	3.4545	0.1	2545.3
25604	13.11	3.5455	0.1	2521.8
25605	12.834	3.4545	0.1	2593.
25606	12.926	3.5455	0.1	2569.4
25607	12.649	3.4545	0.1	2640.8
25608	12.741	3.5455	0.1	2617.2
25609	12.465	3.4545	0.1	2688.7
25610	12.557	3.5455	0.1	2665.1
25611	12.28	3.4545	0.1	2736.8
25612	12.372	3.5455	0.1	2713.1
25613	12.095	3.4545	0.1	2784.9
25614	12.188	3.5455	0.1	2761.2
25615	11.911	3.4545	0.1	2833.1
25616	12.003	3.5455	0.1	2809.4
25617	11.726	3.4545	0.1	2881.3
25618	11.819	3.5455	0.1	2857.6
25619	11.542	3.4545	0.1	2929.6
25620	11.634	3.5455	0.1	2906.
25621	11.357	3.4545	0.1	2978.
25622	11.449	3.5455	0.1	2954.3
25623	11.173	3.4545	0.1	3026.4
25624	11.265	3.5455	0.1	3002.8
25625	10.988	3.4545	0.1	3074.9
25626	11.08	3.5455	0.1	3051.3
25627	10.803	3.4545	0.1	3123.4
25628	10.896	3.5455	0.1	3099.8
25629	10.619	3.4545	0.1	3171.9
25630	10.711	3.5455	0.1	3148.3
25631	10.434	3.4545	0.1	3220.4
25632	10.527	3.5455	0.1	3196.9
25633	10.25	3.4545	0.1	3268.9
25634	10.342	3.5455	0.1	3245.5
25635	10.065	3.4545	0.1	3317.4
25636	10.157	3.5455	0.1	3294.1
25637	9.8806	3.4545	0.1	3366.
25638	9.9728	3.5455	0.1	3342.7
25639	9.696	3.4545	0.1	3414.5
25640	9.7883	3.5455	0.1	3391.3
25641	9.5114	3.4545	0.1	3463.2
25642	9.6037	3.5455	0.1	3440.
25643	9.3269	3.4545	0.1	3511.9
25644	9.4191	3.5455	0.1	3488.7
25645	9.1423	3.4545	0.1	3560.7
25646	9.2346	3.5455	0.1	3537.6
25647	8.9577	3.4545	0.1	3609.8
25648	9.05	3.5455	0.1	3586.7
25649	8.7731	3.4545	0.1	3659.3
25650	8.8654	3.5455	0.1	3636.
25651	8.5886	3.4545	0.1	3709.2
25652	8.6809	3.5455	0.1	3685.7
25653	8.404	3.4545	0.1	3759.9
25654	8.4963	3.5455	0.1	3736.
25655	8.2194	3.4545	0.1	3811.5
25656	8.3117	3.5455	0.1	3787.1
25657	8.0349	3.4545	0.1	3864.5
25658	8.1272	3.5455	0.1	3839.3
25659	7.8503	3.4545	0.1	3919.5
25660	7.9426	3.5455	0.1	3893.
25661	7.6657	3.4545	0.1	3976.9
25662	7.758	3.5455	0.1	3948.9
25663	7.4812	3.4545	0.1	4037.8
25664	7.5735	3.5455	0.1	4007.5
25665	7.2966	3.4545	0.1	4103.3
25666	7.3889	3.5455	0.1	4069.8
25667	7.112	3.4545	0.1	4174.8
25668	7.2043	3.5455	0.1	4137.1
25669	6.9275	3.4545	0.1	4254.4
25670	7.0198	3.5455	0.1	4210.9
25671	6.7429	3.4545	0.1	4344.5
25672	6.8352	3.5455	0.1	4293.3
25673	6.5583	3.4545	0.1	4448.5
25674	6.6506	3.5455	0.1	4387.
25675	6.3738	3.4545	0.1	4570.7
25676	6.466	3.5455	0.1	4495.5
25677	6.1892	3.4545	0.1	4716.8
25678	6.2815	3.5455	0.1	4623.5
25679	6.0046	3.4545	0.1	4894.5
25680	6.0969	3.5455	0.1	4776.9
25681	5.8201	3.4545	0.1	5113.6
25682	5.9123	3.5455	0.1	4963.9
25683	5.6355	3.4545	0.1	5387.9
25684	5.7278	3.5455	0.1	5195.2
25685	5.4509	3.4545	0.1	5735.9
25686	5.5432	3.5455	0.1	5485.9
25687	5.2664	3.4545	0.1	6183.
25688	5.3586	3.5455	0.1	5856.5
25689	5.0818	3.4545	0.1	6765.1
25690	5.1741	3.5455	0.1	6336.6
25691	4.8972	3.4545	0.1	7531.9
25692	4.9895	3.5455	0.1	6969.8
25693	4.7127	3.4545	0.1	8547.7
25694	4.8049	3.5455	0.1	7821.4
25695	4.5281	3.4545	0.1	9869.1
25696	4.6204	3.5455	0.1	8992.3
25697	4.3435	3.4545	0.1	11419
25698	4.4358	3.5455	0.1	10605
25699	4.2512	3.5455	0.1	12690
25700	4.159	3.4545	0.1	12788
25701	23.723	3.6364	0.1	203.26
25702	23.815	3.7273	0.1	193.35
25703	23.908	3.6364	0.1	189.25
25704	23.539	3.6364	0.1	222.84
25705	23.631	3.7273	0.1	210.66
25706	23.354	3.6364	0.1	246.13
25707	23.446	3.7273	0.1	232.29
25708	23.169	3.6364	0.1	272.24
25709	23.262	3.7273	0.1	257.17
25710	22.985	3.6364	0.1	300.47
25711	23.077	3.7273	0.1	284.49
25712	22.8	3.6364	0.1	330.34
25713	22.893	3.7273	0.1	313.67
25714	22.616	3.6364	0.1	361.52
25715	22.708	3.7273	0.1	344.32
25716	22.431	3.6364	0.1	393.78
25717	22.523	3.7273	0.1	376.15
25718	22.247	3.6364	0.1	426.93
25719	22.339	3.7273	0.1	408.97
25720	22.062	3.6364	0.1	460.87
25721	22.154	3.7273	0.1	442.62
25722	21.877	3.6364	0.1	495.5
25723	21.97	3.7273	0.1	477.
25724	21.693	3.6364	0.1	530.75
25725	21.785	3.7273	0.1	512.04
25726	21.508	3.6364	0.1	566.56
25727	21.601	3.7273	0.1	547.67
25728	21.324	3.6364	0.1	602.9
25729	21.416	3.7273	0.1	583.83
25730	21.139	3.6364	0.1	639.72
25731	21.231	3.7273	0.1	620.49
25732	20.955	3.6364	0.1	676.99
25733	21.047	3.7273	0.1	657.62
25734	20.77	3.6364	0.1	714.7
25735	20.862	3.7273	0.1	695.18
25736	20.585	3.6364	0.1	752.81
25737	20.678	3.7273	0.1	733.16
25738	20.401	3.6364	0.1	791.31
25739	20.493	3.7273	0.1	771.53
25740	20.216	3.6364	0.1	830.17
25741	20.309	3.7273	0.1	810.27
25742	20.032	3.6364	0.1	869.4
25743	20.124	3.7273	0.1	849.37
25744	19.847	3.6364	0.1	908.96
25745	19.94	3.7273	0.1	888.82
25746	19.663	3.6364	0.1	948.85
25747	19.755	3.7273	0.1	928.59
25748	19.478	3.6364	0.1	989.06
25749	19.57	3.7273	0.1	968.68
25750	19.294	3.6364	0.1	1029.6
25751	19.386	3.7273	0.1	1009.1
25752	19.109	3.6364	0.1	1070.4
25753	19.201	3.7273	0.1	1049.8
25754	18.924	3.6364	0.1	1111.5
25755	19.017	3.7273	0.1	1090.8
25756	18.74	3.6364	0.1	1152.9
25757	18.832	3.7273	0.1	1132.
25758	18.555	3.6364	0.1	1194.5
25759	18.648	3.7273	0.1	1173.6
25760	18.371	3.6364	0.1	1236.4
25761	18.463	3.7273	0.1	1215.4
25762	18.186	3.6364	0.1	1278.6
25763	18.278	3.7273	0.1	1257.5
25764	18.002	3.6364	0.1	1321.
25765	18.094	3.7273	0.1	1299.8
25766	17.817	3.6364	0.1	1363.7
25767	17.909	3.7273	0.1	1342.4
25768	17.632	3.6364	0.1	1406.6
25769	17.725	3.7273	0.1	1385.2
25770	17.448	3.6364	0.1	1449.8
25771	17.54	3.7273	0.1	1428.2
25772	17.263	3.6364	0.1	1493.2
25773	17.356	3.7273	0.1	1471.5
25774	17.079	3.6364	0.1	1536.8
25775	17.171	3.7273	0.1	1515.
25776	16.894	3.6364	0.1	1580.6
25777	16.986	3.7273	0.1	1558.8
25778	16.71	3.6364	0.1	1624.7
25779	16.802	3.7273	0.1	1602.7
25780	16.525	3.6364	0.1	1669.
25781	16.617	3.7273	0.1	1646.9
25782	16.34	3.6364	0.1	1713.4
25783	16.433	3.7273	0.1	1691.3
25784	16.156	3.6364	0.1	1758.1
25785	16.248	3.7273	0.1	1735.9
25786	15.971	3.6364	0.1	1803.
25787	16.064	3.7273	0.1	1780.7
25788	15.787	3.6364	0.1	1848.1
25789	15.879	3.7273	0.1	1825.7
25790	15.602	3.6364	0.1	1893.4
25791	15.694	3.7273	0.1	1870.9
25792	15.418	3.6364	0.1	1938.9
25793	15.51	3.7273	0.1	1916.3
25794	15.233	3.6364	0.1	1984.6
25795	15.325	3.7273	0.1	1961.9
25796	15.048	3.6364	0.1	2030.5
25797	15.141	3.7273	0.1	2007.7
25798	14.864	3.6364	0.1	2076.5
25799	14.956	3.7273	0.1	2053.7
25800	14.679	3.6364	0.1	2122.7
25801	14.772	3.7273	0.1	2099.8
25802	14.495	3.6364	0.1	2169.1
25803	14.587	3.7273	0.1	2146.1
25804	14.31	3.6364	0.1	2215.7
25805	14.402	3.7273	0.1	2192.6
25806	14.126	3.6364	0.1	2262.4
25807	14.218	3.7273	0.1	2239.3
25808	13.941	3.6364	0.1	2309.3
25809	14.033	3.7273	0.1	2286.1
25810	13.756	3.6364	0.1	2356.3
25811	13.849	3.7273	0.1	2333.1
25812	13.572	3.6364	0.1	2403.5
25813	13.664	3.7273	0.1	2380.2
25814	13.387	3.6364	0.1	2450.9
25815	13.48	3.7273	0.1	2427.5
25816	13.203	3.6364	0.1	2498.3
25817	13.295	3.7273	0.1	2474.9
25818	13.018	3.6364	0.1	2546.
25819	13.11	3.7273	0.1	2522.5
25820	12.834	3.6364	0.1	2593.7
25821	12.926	3.7273	0.1	2570.2
25822	12.649	3.6364	0.1	2641.5
25823	12.741	3.7273	0.1	2618.
25824	12.465	3.6364	0.1	2689.5
25825	12.557	3.7273	0.1	2666.
25826	12.28	3.6364	0.1	2737.6
25827	12.372	3.7273	0.1	2714.
25828	12.095	3.6364	0.1	2785.7
25829	12.188	3.7273	0.1	2762.1
25830	11.911	3.6364	0.1	2834.
25831	12.003	3.7273	0.1	2810.4
25832	11.726	3.6364	0.1	2882.3
25833	11.819	3.7273	0.1	2858.7
25834	11.542	3.6364	0.1	2930.7
25835	11.634	3.7273	0.1	2907.1
25836	11.357	3.6364	0.1	2979.1
25837	11.449	3.7273	0.1	2955.6
25838	11.173	3.6364	0.1	3027.6
25839	11.265	3.7273	0.1	3004.1
25840	10.988	3.6364	0.1	3076.2
25841	11.08	3.7273	0.1	3052.7
25842	10.803	3.6364	0.1	3124.8
25843	10.896	3.7273	0.1	3101.4
25844	10.619	3.6364	0.1	3173.4
25845	10.711	3.7273	0.1	3150.
25846	10.434	3.6364	0.1	3222.
25847	10.527	3.7273	0.1	3198.7
25848	10.25	3.6364	0.1	3270.7
25849	10.342	3.7273	0.1	3247.4
25850	10.065	3.6364	0.1	3319.3
25851	10.157	3.7273	0.1	3296.2
25852	9.8806	3.6364	0.1	3368.
25853	9.9728	3.7273	0.1	3345.
25854	9.696	3.6364	0.1	3416.8
25855	9.7883	3.7273	0.1	3393.8
25856	9.5114	3.6364	0.1	3465.6
25857	9.6037	3.7273	0.1	3442.7
25858	9.3269	3.6364	0.1	3514.5
25859	9.4191	3.7273	0.1	3491.6
25860	9.1423	3.6364	0.1	3563.5
25861	9.2346	3.7273	0.1	3540.7
25862	8.9577	3.6364	0.1	3612.8
25863	9.05	3.7273	0.1	3590.
25864	8.7731	3.6364	0.1	3662.4
25865	8.8654	3.7273	0.1	3639.5
25866	8.5886	3.6364	0.1	3712.5
25867	8.6809	3.7273	0.1	3689.4
25868	8.404	3.6364	0.1	3763.2
25869	8.4963	3.7273	0.1	3739.8
25870	8.2194	3.6364	0.1	3814.9
25871	8.3117	3.7273	0.1	3790.9
25872	8.0349	3.6364	0.1	3867.8
25873	8.1272	3.7273	0.1	3843.1
25874	7.8503	3.6364	0.1	3922.5
25875	7.9426	3.7273	0.1	3896.7
25876	7.6657	3.6364	0.1	3979.4
25877	7.758	3.7273	0.1	3952.
25878	7.4812	3.6364	0.1	4039.5
25879	7.5735	3.7273	0.1	4009.9
25880	7.2966	3.6364	0.1	4103.6
25881	7.3889	3.7273	0.1	4071.
25882	7.112	3.6364	0.1	4173.2
25883	7.2043	3.7273	0.1	4136.5
25884	6.9275	3.6364	0.1	4249.8
25885	7.0198	3.7273	0.1	4207.6
25886	6.7429	3.6364	0.1	4335.8
25887	6.8352	3.7273	0.1	4286.2
25888	6.5583	3.6364	0.1	4434.1
25889	6.6506	3.7273	0.1	4374.5
25890	6.3738	3.6364	0.1	4548.3
25891	6.466	3.7273	0.1	4475.5
25892	6.1892	3.6364	0.1	4683.5
25893	6.2815	3.7273	0.1	4593.1
25894	6.0046	3.6364	0.1	4846.3
25895	6.0969	3.7273	0.1	4732.5
25896	5.8201	3.6364	0.1	5045.4
25897	5.9123	3.7273	0.1	4900.6
25898	5.6355	3.6364	0.1	5293.2
25899	5.7278	3.7273	0.1	5106.8
25900	5.4509	3.6364	0.1	5606.6
25901	5.5432	3.7273	0.1	5364.3
25902	5.2664	3.6364	0.1	6010.6
25903	5.3586	3.7273	0.1	5692.1
25904	5.0818	3.6364	0.1	6542.9
25905	5.1741	3.7273	0.1	6118.6
25906	4.8972	3.6364	0.1	7263.8
25907	4.9895	3.7273	0.1	6688.8
25908	4.7127	3.6364	0.1	8278.2
25909	4.8049	3.7273	0.1	7481.
25910	4.5281	3.6364	0.1	9755.
25911	4.6204	3.7273	0.1	8630.5
25912	4.3435	3.6364	0.1	11905
25913	4.4358	3.7273	0.1	10457
25914	4.2512	3.7273	0.1	13511
25915	4.159	3.6364	0.1	14147
25916	23.723	3.8182	0.1	199.58
25917	23.815	3.9091	0.1	189.14
25918	23.908	3.8182	0.1	185.44
25919	23.539	3.8182	0.1	219.27
25920	23.631	3.9091	0.1	206.54
25921	23.354	3.8182	0.1	242.73
25922	23.446	3.9091	0.1	228.34
25923	23.169	3.8182	0.1	269.
25924	23.262	3.9091	0.1	253.41
25925	22.985	3.8182	0.1	297.41
25926	23.077	3.9091	0.1	280.93
25927	22.8	3.8182	0.1	327.46
25928	22.893	3.9091	0.1	310.32
25929	22.616	3.8182	0.1	358.82
25930	22.708	3.9091	0.1	341.17
25931	22.431	3.8182	0.1	391.26
25932	22.523	3.9091	0.1	373.22
25933	22.247	3.8182	0.1	424.6
25934	22.339	3.9091	0.1	406.25
25935	22.062	3.8182	0.1	458.73
25936	22.154	3.9091	0.1	440.11
25937	21.877	3.8182	0.1	493.54
25938	21.97	3.9091	0.1	474.71
25939	21.693	3.8182	0.1	528.96
25940	21.785	3.9091	0.1	509.95
25941	21.508	3.8182	0.1	564.95
25942	21.601	3.9091	0.1	545.78
25943	21.324	3.8182	0.1	601.45
25944	21.416	3.9091	0.1	582.13
25945	21.139	3.8182	0.1	638.43
25946	21.231	3.9091	0.1	618.98
25947	20.955	3.8182	0.1	675.85
25948	21.047	3.9091	0.1	656.28
25949	20.77	3.8182	0.1	713.69
25950	20.862	3.9091	0.1	694.
25951	20.585	3.8182	0.1	751.93
25952	20.678	3.9091	0.1	732.13
25953	20.401	3.8182	0.1	790.55
25954	20.493	3.9091	0.1	770.63
25955	20.216	3.8182	0.1	829.52
25956	20.309	3.9091	0.1	809.5
25957	20.032	3.8182	0.1	868.85
25958	20.124	3.9091	0.1	848.72
25959	19.847	3.8182	0.1	908.5
25960	19.94	3.9091	0.1	888.27
25961	19.663	3.8182	0.1	948.48
25962	19.755	3.9091	0.1	928.14
25963	19.478	3.8182	0.1	988.76
25964	19.57	3.9091	0.1	968.33
25965	19.294	3.8182	0.1	1029.3
25966	19.386	3.9091	0.1	1008.8
25967	19.109	3.8182	0.1	1070.2
25968	19.201	3.9091	0.1	1049.6
25969	18.924	3.8182	0.1	1111.4
25970	19.017	3.9091	0.1	1090.6
25971	18.74	3.8182	0.1	1152.8
25972	18.832	3.9091	0.1	1132.
25973	18.555	3.8182	0.1	1194.5
25974	18.648	3.9091	0.1	1173.6
25975	18.371	3.8182	0.1	1236.5
25976	18.463	3.9091	0.1	1215.4
25977	18.186	3.8182	0.1	1278.7
25978	18.278	3.9091	0.1	1257.5
25979	18.002	3.8182	0.1	1321.2
25980	18.094	3.9091	0.1	1299.9
25981	17.817	3.8182	0.1	1363.9
25982	17.909	3.9091	0.1	1342.5
25983	17.632	3.8182	0.1	1406.8
25984	17.725	3.9091	0.1	1385.4
25985	17.448	3.8182	0.1	1450.
25986	17.54	3.9091	0.1	1428.5
25987	17.263	3.8182	0.1	1493.4
25988	17.356	3.9091	0.1	1471.8
25989	17.079	3.8182	0.1	1537.1
25990	17.171	3.9091	0.1	1515.3
25991	16.894	3.8182	0.1	1580.9
25992	16.986	3.9091	0.1	1559.1
25993	16.71	3.8182	0.1	1625.
25994	16.802	3.9091	0.1	1603.1
25995	16.525	3.8182	0.1	1669.3
25996	16.617	3.9091	0.1	1647.3
25997	16.34	3.8182	0.1	1713.8
25998	16.433	3.9091	0.1	1691.7
25999	16.156	3.8182	0.1	1758.5
26000	16.248	3.9091	0.1	1736.3
26001	15.971	3.8182	0.1	1803.4
26002	16.064	3.9091	0.1	1781.2
26003	15.787	3.8182	0.1	1848.6
26004	15.879	3.9091	0.1	1826.2
26005	15.602	3.8182	0.1	1893.9
26006	15.694	3.9091	0.1	1871.4
26007	15.418	3.8182	0.1	1939.4
26008	15.51	3.9091	0.1	1916.8
26009	15.233	3.8182	0.1	1985.1
26010	15.325	3.9091	0.1	1962.5
26011	15.048	3.8182	0.1	2031.
26012	15.141	3.9091	0.1	2008.3
26013	14.864	3.8182	0.1	2077.
26014	14.956	3.9091	0.1	2054.2
26015	14.679	3.8182	0.1	2123.3
26016	14.772	3.9091	0.1	2100.4
26017	14.495	3.8182	0.1	2169.7
26018	14.587	3.9091	0.1	2146.8
26019	14.31	3.8182	0.1	2216.3
26020	14.402	3.9091	0.1	2193.3
26021	14.126	3.8182	0.1	2263.
26022	14.218	3.9091	0.1	2240.
26023	13.941	3.8182	0.1	2310.
26024	14.033	3.9091	0.1	2286.8
26025	13.756	3.8182	0.1	2357.
26026	13.849	3.9091	0.1	2333.8
26027	13.572	3.8182	0.1	2404.3
26028	13.664	3.9091	0.1	2381.
26029	13.387	3.8182	0.1	2451.6
26030	13.48	3.9091	0.1	2428.3
26031	13.203	3.8182	0.1	2499.1
26032	13.295	3.9091	0.1	2475.8
26033	13.018	3.8182	0.1	2546.8
26034	13.11	3.9091	0.1	2523.4
26035	12.834	3.8182	0.1	2594.6
26036	12.926	3.9091	0.1	2571.2
26037	12.649	3.8182	0.1	2642.5
26038	12.741	3.9091	0.1	2619.
26039	12.465	3.8182	0.1	2690.5
26040	12.557	3.9091	0.1	2667.
26041	12.28	3.8182	0.1	2738.6
26042	12.372	3.9091	0.1	2715.1
26043	12.095	3.8182	0.1	2786.8
26044	12.188	3.9091	0.1	2763.4
26045	11.911	3.8182	0.1	2835.2
26046	12.003	3.9091	0.1	2811.7
26047	11.726	3.8182	0.1	2883.6
26048	11.819	3.9091	0.1	2860.1
26049	11.542	3.8182	0.1	2932.1
26050	11.634	3.9091	0.1	2908.6
26051	11.357	3.8182	0.1	2980.6
26052	11.449	3.9091	0.1	2957.2
26053	11.173	3.8182	0.1	3029.2
26054	11.265	3.9091	0.1	3005.8
26055	10.988	3.8182	0.1	3077.9
26056	11.08	3.9091	0.1	3054.6
26057	10.803	3.8182	0.1	3126.6
26058	10.896	3.9091	0.1	3103.3
26059	10.619	3.8182	0.1	3175.4
26060	10.711	3.9091	0.1	3152.2
26061	10.434	3.8182	0.1	3224.2
26062	10.527	3.9091	0.1	3201.
26063	10.25	3.8182	0.1	3273.
26064	10.342	3.9091	0.1	3249.9
26065	10.065	3.8182	0.1	3321.9
26066	10.157	3.9091	0.1	3298.9
26067	9.8806	3.8182	0.1	3370.8
26068	9.9728	3.9091	0.1	3347.9
26069	9.696	3.8182	0.1	3419.7
26070	9.7883	3.9091	0.1	3396.9
26071	9.5114	3.8182	0.1	3468.7
26072	9.6037	3.9091	0.1	3446.
26073	9.3269	3.8182	0.1	3517.9
26074	9.4191	3.9091	0.1	3495.2
26075	9.1423	3.8182	0.1	3567.1
26076	9.2346	3.9091	0.1	3544.5
26077	8.9577	3.8182	0.1	3616.6
26078	9.05	3.9091	0.1	3594.
26079	8.7731	3.8182	0.1	3666.4
26080	8.8654	3.9091	0.1	3643.8
26081	8.5886	3.8182	0.1	3716.7
26082	8.6809	3.9091	0.1	3693.9
26083	8.404	3.8182	0.1	3767.5
26084	8.4963	3.9091	0.1	3744.5
26085	8.2194	3.8182	0.1	3819.2
26086	8.3117	3.9091	0.1	3795.7
26087	8.0349	3.8182	0.1	3872.
26088	8.1272	3.9091	0.1	3847.8
26089	7.8503	3.8182	0.1	3926.2
26090	7.9426	3.9091	0.1	3901.
26091	7.6657	3.8182	0.1	3982.5
26092	7.758	3.9091	0.1	3955.8
26093	7.4812	3.8182	0.1	4041.5
26094	7.5735	3.9091	0.1	4012.7
26095	7.2966	3.8182	0.1	4103.9
26096	7.3889	3.9091	0.1	4072.4
26097	7.112	3.8182	0.1	4170.9
26098	7.2043	3.9091	0.1	4135.6
26099	6.9275	3.8182	0.1	4244.
26100	7.0198	3.9091	0.1	4203.4
26101	6.7429	3.8182	0.1	4324.8
26102	6.8352	3.9091	0.1	4277.4
26103	6.5583	3.8182	0.1	4415.9
26104	6.6506	3.9091	0.1	4359.2
26105	6.3738	3.8182	0.1	4520.3
26106	6.466	3.9091	0.1	4451.3
26107	6.1892	3.8182	0.1	4642.1
26108	6.2815	3.9091	0.1	4556.7
26109	6.0046	3.8182	0.1	4786.8
26110	6.0969	3.9091	0.1	4679.7
26111	5.8201	3.8182	0.1	4961.8
26112	5.9123	3.9091	0.1	4825.9
26113	5.6355	3.8182	0.1	5177.5
26114	5.7278	3.9091	0.1	5002.9
26115	5.4509	3.8182	0.1	5449.
26116	5.5432	3.9091	0.1	5222.1
26117	5.2664	3.8182	0.1	5799.1
26118	5.3586	3.9091	0.1	5499.9
26119	5.0818	3.8182	0.1	6263.5
26120	5.1741	3.9091	0.1	5862.2
26121	4.8972	3.8182	0.1	6906.5
26122	4.9895	3.9091	0.1	6350.5
26123	4.7127	3.8182	0.1	7839.8
26124	4.8049	3.9091	0.1	7044.5
26125	4.5281	3.8182	0.1	9361.
26126	4.6204	3.9091	0.1	8081.6
26127	4.3435	3.8182	0.1	12139
26128	4.4358	3.9091	0.1	9880.1
26129	4.2512	3.9091	0.1	13882
26130	4.159	3.8182	0.1	16397
26131	23.723	4.	0.1	194.92
26132	23.815	4.0909	0.1	183.9
26133	23.908	4.	0.1	180.61
26134	23.539	4.	0.1	214.77
26135	23.631	4.0909	0.1	201.44
26136	23.354	4.	0.1	238.43
26137	23.446	4.0909	0.1	223.45
26138	23.169	4.	0.1	264.93
26139	23.262	4.0909	0.1	248.77
26140	22.985	4.	0.1	293.56
26141	23.077	4.0909	0.1	276.54
26142	22.8	4.	0.1	323.85
26143	22.893	4.0909	0.1	306.2
26144	22.616	4.	0.1	355.45
26145	22.708	4.0909	0.1	337.33
26146	22.431	4.	0.1	388.13
26147	22.523	4.0909	0.1	369.65
26148	22.247	4.	0.1	421.72
26149	22.339	4.0909	0.1	402.96
26150	22.062	4.	0.1	456.08
26151	22.154	4.0909	0.1	437.1
26152	21.877	4.	0.1	491.13
26153	21.97	4.0909	0.1	471.96
26154	21.693	4.	0.1	526.78
26155	21.785	4.0909	0.1	507.46
26156	21.508	4.	0.1	562.99
26157	21.601	4.0909	0.1	543.54
26158	21.324	4.	0.1	599.69
26159	21.416	4.0909	0.1	580.13
26160	21.139	4.	0.1	636.86
26161	21.231	4.0909	0.1	617.19
26162	20.955	4.	0.1	674.47
26163	21.047	4.0909	0.1	654.7
26164	20.77	4.	0.1	712.48
26165	20.862	4.0909	0.1	692.62
26166	20.585	4.	0.1	750.88
26167	20.678	4.0909	0.1	730.92
26168	20.401	4.	0.1	789.64
26169	20.493	4.0909	0.1	769.59
26170	20.216	4.	0.1	828.75
26171	20.309	4.0909	0.1	808.61
26172	20.032	4.	0.1	868.2
26173	20.124	4.0909	0.1	847.97
26174	19.847	4.	0.1	907.97
26175	19.94	4.0909	0.1	887.65
26176	19.663	4.	0.1	948.05
26177	19.755	4.0909	0.1	927.64
26178	19.478	4.	0.1	988.43
26179	19.57	4.0909	0.1	967.93
26180	19.294	4.	0.1	1029.1
26181	19.386	4.0909	0.1	1008.5
26182	19.109	4.	0.1	1070.
26183	19.201	4.0909	0.1	1049.4
26184	18.924	4.	0.1	1111.3
26185	19.017	4.0909	0.1	1090.5
26186	18.74	4.	0.1	1152.8
26187	18.832	4.0909	0.1	1131.9
26188	18.555	4.	0.1	1194.5
26189	18.648	4.0909	0.1	1173.6
26190	18.371	4.	0.1	1236.5
26191	18.463	4.0909	0.1	1215.5
26192	18.186	4.	0.1	1278.8
26193	18.278	4.0909	0.1	1257.7
26194	18.002	4.	0.1	1321.3
26195	18.094	4.0909	0.1	1300.1
26196	17.817	4.	0.1	1364.1
26197	17.909	4.0909	0.1	1342.7
26198	17.632	4.	0.1	1407.1
26199	17.725	4.0909	0.1	1385.6
26200	17.448	4.	0.1	1450.3
26201	17.54	4.0909	0.1	1428.8
26202	17.263	4.	0.1	1493.7
26203	17.356	4.0909	0.1	1472.1
26204	17.079	4.	0.1	1537.4
26205	17.171	4.0909	0.1	1515.7
26206	16.894	4.	0.1	1581.3
26207	16.986	4.0909	0.1	1559.5
26208	16.71	4.	0.1	1625.4
26209	16.802	4.0909	0.1	1603.5
26210	16.525	4.	0.1	1669.7
26211	16.617	4.0909	0.1	1647.7
26212	16.34	4.	0.1	1714.3
26213	16.433	4.0909	0.1	1692.2
26214	16.156	4.	0.1	1759.
26215	16.248	4.0909	0.1	1736.8
26216	15.971	4.	0.1	1803.9
26217	16.064	4.0909	0.1	1781.7
26218	15.787	4.	0.1	1849.1
26219	15.879	4.0909	0.1	1826.7
26220	15.602	4.	0.1	1894.4
26221	15.694	4.0909	0.1	1872.
26222	15.418	4.	0.1	1940.
26223	15.51	4.0909	0.1	1917.5
26224	15.233	4.	0.1	1985.7
26225	15.325	4.0909	0.1	1963.1
26226	15.048	4.	0.1	2031.6
26227	15.141	4.0909	0.1	2008.9
26228	14.864	4.	0.1	2077.7
26229	14.956	4.0909	0.1	2054.9
26230	14.679	4.	0.1	2123.9
26231	14.772	4.0909	0.1	2101.1
26232	14.495	4.	0.1	2170.4
26233	14.587	4.0909	0.1	2147.5
26234	14.31	4.	0.1	2217.
26235	14.402	4.0909	0.1	2194.1
26236	14.126	4.	0.1	2263.8
26237	14.218	4.0909	0.1	2240.8
26238	13.941	4.	0.1	2310.8
26239	14.033	4.0909	0.1	2287.7
26240	13.756	4.	0.1	2357.9
26241	13.849	4.0909	0.1	2334.7
26242	13.572	4.	0.1	2405.1
26243	13.664	4.0909	0.1	2382.
26244	13.387	4.	0.1	2452.6
26245	13.48	4.0909	0.1	2429.3
26246	13.203	4.	0.1	2500.1
26247	13.295	4.0909	0.1	2476.9
26248	13.018	4.	0.1	2547.8
26249	13.11	4.0909	0.1	2524.5
26250	12.834	4.	0.1	2595.7
26251	12.926	4.0909	0.1	2572.3
26252	12.649	4.	0.1	2643.6
26253	12.741	4.0909	0.1	2620.3
26254	12.465	4.	0.1	2691.7
26255	12.557	4.0909	0.1	2668.3
26256	12.28	4.	0.1	2739.9
26257	12.372	4.0909	0.1	2716.5
26258	12.095	4.	0.1	2788.2
26259	12.188	4.0909	0.1	2764.8
26260	11.911	4.	0.1	2836.7
26261	12.003	4.0909	0.1	2813.3
26262	11.726	4.	0.1	2885.2
26263	11.819	4.0909	0.1	2861.8
26264	11.542	4.	0.1	2933.8
26265	11.634	4.0909	0.1	2910.4
26266	11.357	4.	0.1	2982.4
26267	11.449	4.0909	0.1	2959.1
26268	11.173	4.	0.1	3031.2
26269	11.265	4.0909	0.1	3007.9
26270	10.988	4.	0.1	3080.
26271	11.08	4.0909	0.1	3056.8
26272	10.803	4.	0.1	3128.9
26273	10.896	4.0909	0.1	3105.7
26274	10.619	4.	0.1	3177.8
26275	10.711	4.0909	0.1	3154.7
26276	10.434	4.	0.1	3226.8
26277	10.527	4.0909	0.1	3203.8
26278	10.25	4.	0.1	3275.8
26279	10.342	4.0909	0.1	3252.9
26280	10.065	4.	0.1	3324.9
26281	10.157	4.0909	0.1	3302.
26282	9.8806	4.	0.1	3374.
26283	9.9728	4.0909	0.1	3351.3
26284	9.696	4.	0.1	3423.2
26285	9.7883	4.0909	0.1	3400.6
26286	9.5114	4.	0.1	3472.5
26287	9.6037	4.0909	0.1	3450.
26288	9.3269	4.	0.1	3521.9
26289	9.4191	4.0909	0.1	3499.4
26290	9.1423	4.	0.1	3571.5
26291	9.2346	4.0909	0.1	3549.
26292	8.9577	4.	0.1	3621.2
26293	9.05	4.0909	0.1	3598.8
26294	8.7731	4.	0.1	3671.2
26295	8.8654	4.0909	0.1	3648.8
26296	8.5886	4.	0.1	3721.7
26297	8.6809	4.0909	0.1	3699.1
26298	8.404	4.	0.1	3772.6
26299	8.4963	4.0909	0.1	3749.8
26300	8.2194	4.	0.1	3824.2
26301	8.3117	4.0909	0.1	3801.1
26302	8.0349	4.	0.1	3876.8
26303	8.1272	4.0909	0.1	3853.
26304	7.8503	4.	0.1	3930.6
26305	7.9426	4.0909	0.1	3905.9
26306	7.6657	4.	0.1	3986.1
26307	7.758	4.0909	0.1	3960.1
26308	7.4812	4.	0.1	4043.7
26309	7.5735	4.0909	0.1	4015.9
26310	7.2966	4.	0.1	4104.1
26311	7.3889	4.0909	0.1	4073.7
26312	7.112	4.	0.1	4168.1
26313	7.2043	4.0909	0.1	4134.3
26314	6.9275	4.	0.1	4236.9
26315	7.0198	4.0909	0.1	4198.4
26316	6.7429	4.	0.1	4311.8
26317	6.8352	4.0909	0.1	4267.1
26318	6.5583	4.	0.1	4394.6
26319	6.6506	4.0909	0.1	4341.6
26320	6.3738	4.	0.1	4487.7
26321	6.466	4.0909	0.1	4423.7
26322	6.1892	4.	0.1	4594.3
26323	6.2815	4.0909	0.1	4515.6
26324	6.0046	4.	0.1	4718.6
26325	6.0969	4.0909	0.1	4620.4
26326	5.8201	4.	0.1	4866.5
26327	5.9123	4.0909	0.1	4742.5
26328	5.6355	4.	0.1	5046.6
26329	5.7278	4.0909	0.1	4887.7
26330	5.4509	4.	0.1	5271.4
26331	5.5432	4.0909	0.1	5065.2
26332	5.2664	4.	0.1	5560.6
26333	5.3586	4.0909	0.1	5288.5
26334	5.0818	4.	0.1	5945.8
26335	5.1741	4.0909	0.1	5579.8
26336	4.8972	4.	0.1	6484.8
26337	4.9895	4.0909	0.1	5974.7
26338	4.7127	4.	0.1	7285.1
26339	4.8049	4.0909	0.1	6541.4
26340	4.5281	4.	0.1	8616.3
26341	4.6204	4.0909	0.1	7403.8
26342	4.3435	4.	0.1	11794
26343	4.4358	4.0909	0.1	8930.3
26344	4.2512	4.0909	0.1	12838
26345	4.159	4.	0.1	20764
26346	23.723	4.1818	0.1	189.23
26347	23.815	4.2727	0.1	177.6
26348	23.908	4.1818	0.1	174.71
26349	23.539	4.1818	0.1	209.29
26350	23.631	4.2727	0.1	195.3
26351	23.354	4.1818	0.1	233.21
26352	23.446	4.2727	0.1	217.59
26353	23.169	4.1818	0.1	259.99
26354	23.262	4.2727	0.1	243.22
26355	22.985	4.1818	0.1	288.92
26356	23.077	4.2727	0.1	271.33
26357	22.8	4.1818	0.1	319.51
26358	22.893	4.2727	0.1	301.33
26359	22.616	4.1818	0.1	351.43
26360	22.708	4.2727	0.1	332.8
26361	22.431	4.1818	0.1	384.41
26362	22.523	4.2727	0.1	365.47
26363	22.247	4.1818	0.1	418.31
26364	22.339	4.2727	0.1	399.13
26365	22.062	4.1818	0.1	452.97
26366	22.154	4.2727	0.1	433.6
26367	21.877	4.1818	0.1	488.31
26368	21.97	4.2727	0.1	468.8
26369	21.693	4.1818	0.1	524.24
26370	21.785	4.2727	0.1	504.61
26371	21.508	4.1818	0.1	560.71
26372	21.601	4.2727	0.1	540.98
26373	21.324	4.1818	0.1	597.66
26374	21.416	4.2727	0.1	577.85
26375	21.139	4.1818	0.1	635.07
26376	21.231	4.2727	0.1	615.18
26377	20.955	4.1818	0.1	672.89
26378	21.047	4.2727	0.1	652.93
26379	20.77	4.1818	0.1	711.1
26380	20.862	4.2727	0.1	691.07
26381	20.585	4.1818	0.1	749.69
26382	20.678	4.2727	0.1	729.58
26383	20.401	4.1818	0.1	788.62
26384	20.493	4.2727	0.1	768.44
26385	20.216	4.1818	0.1	827.89
26386	20.309	4.2727	0.1	807.64
26387	20.032	4.1818	0.1	867.48
26388	20.124	4.2727	0.1	847.16
26389	19.847	4.1818	0.1	907.38
26390	19.94	4.2727	0.1	886.98
26391	19.663	4.1818	0.1	947.58
26392	19.755	4.2727	0.1	927.1
26393	19.478	4.1818	0.1	988.06
26394	19.57	4.2727	0.1	967.51
26395	19.294	4.1818	0.1	1028.8
26396	19.386	4.2727	0.1	1008.2
26397	19.109	4.1818	0.1	1069.9
26398	19.201	4.2727	0.1	1049.2
26399	18.924	4.1818	0.1	1111.2
26400	19.017	4.2727	0.1	1090.4
26401	18.74	4.1818	0.1	1152.8
26402	18.832	4.2727	0.1	1131.9
26403	18.555	4.1818	0.1	1194.6
26404	18.648	4.2727	0.1	1173.6
26405	18.371	4.1818	0.1	1236.7
26406	18.463	4.2727	0.1	1215.6
26407	18.186	4.1818	0.1	1279.
26408	18.278	4.2727	0.1	1257.8
26409	18.002	4.1818	0.1	1321.6
26410	18.094	4.2727	0.1	1300.3
26411	17.817	4.1818	0.1	1364.4
26412	17.909	4.2727	0.1	1343.
26413	17.632	4.1818	0.1	1407.4
26414	17.725	4.2727	0.1	1386.
26415	17.448	4.1818	0.1	1450.6
26416	17.54	4.2727	0.1	1429.1
26417	17.263	4.1818	0.1	1494.1
26418	17.356	4.2727	0.1	1472.5
26419	17.079	4.1818	0.1	1537.8
26420	17.171	4.2727	0.1	1516.2
26421	16.894	4.1818	0.1	1581.8
26422	16.986	4.2727	0.1	1560.
26423	16.71	4.1818	0.1	1625.9
26424	16.802	4.2727	0.1	1604.
26425	16.525	4.1818	0.1	1670.3
26426	16.617	4.2727	0.1	1648.3
26427	16.34	4.1818	0.1	1714.8
26428	16.433	4.2727	0.1	1692.8
26429	16.156	4.1818	0.1	1759.6
26430	16.248	4.2727	0.1	1737.5
26431	15.971	4.1818	0.1	1804.5
26432	16.064	4.2727	0.1	1782.3
26433	15.787	4.1818	0.1	1849.7
26434	15.879	4.2727	0.1	1827.4
26435	15.602	4.1818	0.1	1895.1
26436	15.694	4.2727	0.1	1872.7
26437	15.418	4.1818	0.1	1940.6
26438	15.51	4.2727	0.1	1918.2
26439	15.233	4.1818	0.1	1986.4
26440	15.325	4.2727	0.1	1963.9
26441	15.048	4.1818	0.1	2032.3
26442	15.141	4.2727	0.1	2009.7
26443	14.864	4.1818	0.1	2078.5
26444	14.956	4.2727	0.1	2055.8
26445	14.679	4.1818	0.1	2124.8
26446	14.772	4.2727	0.1	2102.
26447	14.495	4.1818	0.1	2171.2
26448	14.587	4.2727	0.1	2148.4
26449	14.31	4.1818	0.1	2217.9
26450	14.402	4.2727	0.1	2195.
26451	14.126	4.1818	0.1	2264.7
26452	14.218	4.2727	0.1	2241.8
26453	13.941	4.1818	0.1	2311.7
26454	14.033	4.2727	0.1	2288.7
26455	13.756	4.1818	0.1	2358.9
26456	13.849	4.2727	0.1	2335.8
26457	13.572	4.1818	0.1	2406.2
26458	13.664	4.2727	0.1	2383.1
26459	13.387	4.1818	0.1	2453.7
26460	13.48	4.2727	0.1	2430.5
26461	13.203	4.1818	0.1	2501.3
26462	13.295	4.2727	0.1	2478.1
26463	13.018	4.1818	0.1	2549.1
26464	13.11	4.2727	0.1	2525.8
26465	12.834	4.1818	0.1	2597.
26466	12.926	4.2727	0.1	2573.7
26467	12.649	4.1818	0.1	2645.
26468	12.741	4.2727	0.1	2621.7
26469	12.465	4.1818	0.1	2693.2
26470	12.557	4.2727	0.1	2669.9
26471	12.28	4.1818	0.1	2741.5
26472	12.372	4.2727	0.1	2718.1
26473	12.095	4.1818	0.1	2789.9
26474	12.188	4.2727	0.1	2766.5
26475	11.911	4.1818	0.1	2838.4
26476	12.003	4.2727	0.1	2815.1
26477	11.726	4.1818	0.1	2887.
26478	11.819	4.2727	0.1	2863.7
26479	11.542	4.1818	0.1	2935.8
26480	11.634	4.2727	0.1	2912.5
26481	11.357	4.1818	0.1	2984.6
26482	11.449	4.2727	0.1	2961.3
26483	11.173	4.1818	0.1	3033.5
26484	11.265	4.2727	0.1	3010.3
26485	10.988	4.1818	0.1	3082.5
26486	11.08	4.2727	0.1	3059.3
26487	10.803	4.1818	0.1	3131.5
26488	10.896	4.2727	0.1	3108.4
26489	10.619	4.1818	0.1	3180.7
26490	10.711	4.2727	0.1	3157.6
26491	10.434	4.1818	0.1	3229.9
26492	10.527	4.2727	0.1	3206.9
26493	10.25	4.1818	0.1	3279.1
26494	10.342	4.2727	0.1	3256.2
26495	10.065	4.1818	0.1	3328.4
26496	10.157	4.2727	0.1	3305.7
26497	9.8806	4.1818	0.1	3377.8
26498	9.9728	4.2727	0.1	3355.2
26499	9.696	4.1818	0.1	3427.3
26500	9.7883	4.2727	0.1	3404.7
26501	9.5114	4.1818	0.1	3476.9
26502	9.6037	4.2727	0.1	3454.4
26503	9.3269	4.1818	0.1	3526.6
26504	9.4191	4.2727	0.1	3504.2
26505	9.1423	4.1818	0.1	3576.4
26506	9.2346	4.2727	0.1	3554.1
26507	8.9577	4.1818	0.1	3626.4
26508	9.05	4.2727	0.1	3604.1
26509	8.7731	4.1818	0.1	3676.7
26510	8.8654	4.2727	0.1	3654.4
26511	8.5886	4.1818	0.1	3727.3
26512	8.6809	4.2727	0.1	3704.9
26513	8.404	4.1818	0.1	3778.3
26514	8.4963	4.2727	0.1	3755.7
26515	8.2194	4.1818	0.1	3829.9
26516	8.3117	4.2727	0.1	3807.
26517	8.0349	4.1818	0.1	3882.2
26518	8.1272	4.2727	0.1	3858.7
26519	7.8503	4.1818	0.1	3935.4
26520	7.9426	4.2727	0.1	3911.2
26521	7.6657	4.1818	0.1	3989.9
26522	7.758	4.2727	0.1	3964.6
26523	7.4812	4.1818	0.1	4045.9
26524	7.5735	4.2727	0.1	4019.
26525	7.2966	4.1818	0.1	4104.
26526	7.3889	4.2727	0.1	4074.9
26527	7.112	4.1818	0.1	4164.7
26528	7.2043	4.2727	0.1	4132.6
26529	6.9275	4.1818	0.1	4228.7
26530	7.0198	4.2727	0.1	4192.6
26531	6.7429	4.1818	0.1	4297.
26532	6.8352	4.2727	0.1	4255.5
26533	6.5583	4.1818	0.1	4370.7
26534	6.6506	4.2727	0.1	4322.
26535	6.3738	4.1818	0.1	4451.5
26536	6.466	4.2727	0.1	4393.3
26537	6.1892	4.1818	0.1	4541.6
26538	6.2815	4.2727	0.1	4470.8
26539	6.0046	4.1818	0.1	4644.
26540	6.0969	4.2727	0.1	4556.3
26541	5.8201	4.1818	0.1	4763.
26542	5.9123	4.2727	0.1	4652.8
26543	5.6355	4.1818	0.1	4905.
26544	5.7278	4.2727	0.1	4764.5
26545	5.4509	4.1818	0.1	5080.1
26546	5.5432	4.2727	0.1	4898.
26547	5.2664	4.1818	0.1	5304.
26548	5.3586	4.2727	0.1	5063.8
26549	5.0818	4.1818	0.1	5602.9
26550	5.1741	4.2727	0.1	5279.2
26551	4.8972	4.1818	0.1	6023.1
26552	4.9895	4.2727	0.1	5572.6
26553	4.7127	4.1818	0.1	6650.1
26554	4.8049	4.2727	0.1	5996.9
26555	4.5281	4.1818	0.1	7719.8
26556	4.6204	4.2727	0.1	6637.4
26557	4.3435	4.1818	0.1	9999.7
26558	4.4358	4.2727	0.1	7766.2
26559	4.2512	4.2727	0.1	10220
26560	4.159	4.1818	0.1	10142
26561	23.723	4.3636	0.1	182.46
26562	23.815	4.4545	0.1	170.15
26563	23.908	4.3636	0.1	167.69
26564	23.539	4.3636	0.1	202.78
26565	23.631	4.4545	0.1	188.07
26566	23.354	4.3636	0.1	227.03
26567	23.446	4.4545	0.1	210.7
26568	23.169	4.3636	0.1	254.18
26569	23.262	4.4545	0.1	236.73
26570	22.985	4.3636	0.1	283.49
26571	23.077	4.4545	0.1	265.26
26572	22.8	4.3636	0.1	314.47
26573	22.893	4.4545	0.1	295.7
26574	22.616	4.3636	0.1	346.77
26575	22.708	4.4545	0.1	327.62
26576	22.431	4.3636	0.1	380.14
26577	22.523	4.4545	0.1	360.72
26578	22.247	4.3636	0.1	414.41
26579	22.339	4.4545	0.1	394.8
26580	22.062	4.3636	0.1	449.44
26581	22.154	4.4545	0.1	429.69
26582	21.877	4.3636	0.1	485.12
26583	21.97	4.4545	0.1	465.27
26584	21.693	4.3636	0.1	521.39
26585	21.785	4.4545	0.1	501.46
26586	21.508	4.3636	0.1	558.16
26587	21.601	4.4545	0.1	538.17
26588	21.324	4.3636	0.1	595.41
26589	21.416	4.4545	0.1	575.36
26590	21.139	4.3636	0.1	633.08
26591	21.231	4.4545	0.1	612.99
26592	20.955	4.3636	0.1	671.16
26593	21.047	4.4545	0.1	651.01
26594	20.77	4.3636	0.1	709.6
26595	20.862	4.4545	0.1	689.4
26596	20.585	4.3636	0.1	748.39
26597	20.678	4.4545	0.1	728.15
26598	20.401	4.3636	0.1	787.52
26599	20.493	4.4545	0.1	767.22
26600	20.216	4.3636	0.1	826.96
26601	20.309	4.4545	0.1	806.61
26602	20.032	4.3636	0.1	866.71
26603	20.124	4.4545	0.1	846.31
26604	19.847	4.3636	0.1	906.76
26605	19.94	4.4545	0.1	886.29
26606	19.663	4.3636	0.1	947.09
26607	19.755	4.4545	0.1	926.56
26608	19.478	4.3636	0.1	987.7
26609	19.57	4.4545	0.1	967.1
26610	19.294	4.3636	0.1	1028.6
26611	19.386	4.4545	0.1	1007.9
26612	19.109	4.3636	0.1	1069.7
26613	19.201	4.4545	0.1	1049.
26614	18.924	4.3636	0.1	1111.1
26615	19.017	4.4545	0.1	1090.3
26616	18.74	4.3636	0.1	1152.8
26617	18.832	4.4545	0.1	1131.9
26618	18.555	4.3636	0.1	1194.7
26619	18.648	4.4545	0.1	1173.7
26620	18.371	4.3636	0.1	1236.8
26621	18.463	4.4545	0.1	1215.8
26622	18.186	4.3636	0.1	1279.2
26623	18.278	4.4545	0.1	1258.1
26624	18.002	4.3636	0.1	1321.8
26625	18.094	4.4545	0.1	1300.6
26626	17.817	4.3636	0.1	1364.7
26627	17.909	4.4545	0.1	1343.4
26628	17.632	4.3636	0.1	1407.8
26629	17.725	4.4545	0.1	1386.4
26630	17.448	4.3636	0.1	1451.1
26631	17.54	4.4545	0.1	1429.6
26632	17.263	4.3636	0.1	1494.6
26633	17.356	4.4545	0.1	1473.
26634	17.079	4.3636	0.1	1538.4
26635	17.171	4.4545	0.1	1516.7
26636	16.894	4.3636	0.1	1582.3
26637	16.986	4.4545	0.1	1560.6
26638	16.71	4.3636	0.1	1626.5
26639	16.802	4.4545	0.1	1604.7
26640	16.525	4.3636	0.1	1670.9
26641	16.617	4.4545	0.1	1649.
26642	16.34	4.3636	0.1	1715.5
26643	16.433	4.4545	0.1	1693.5
26644	16.156	4.3636	0.1	1760.3
26645	16.248	4.4545	0.1	1738.2
26646	15.971	4.3636	0.1	1805.3
26647	16.064	4.4545	0.1	1783.1
26648	15.787	4.3636	0.1	1850.5
26649	15.879	4.4545	0.1	1828.2
26650	15.602	4.3636	0.1	1895.9
26651	15.694	4.4545	0.1	1873.5
26652	15.418	4.3636	0.1	1941.4
26653	15.51	4.4545	0.1	1919.
26654	15.233	4.3636	0.1	1987.2
26655	15.325	4.4545	0.1	1964.7
26656	15.048	4.3636	0.1	2033.2
26657	15.141	4.4545	0.1	2010.6
26658	14.864	4.3636	0.1	2079.4
26659	14.956	4.4545	0.1	2056.7
26660	14.679	4.3636	0.1	2125.7
26661	14.772	4.4545	0.1	2103.
26662	14.495	4.3636	0.1	2172.2
26663	14.587	4.4545	0.1	2149.4
26664	14.31	4.3636	0.1	2218.9
26665	14.402	4.4545	0.1	2196.1
26666	14.126	4.3636	0.1	2265.8
26667	14.218	4.4545	0.1	2242.9
26668	13.941	4.3636	0.1	2312.8
26669	14.033	4.4545	0.1	2289.9
26670	13.756	4.3636	0.1	2360.
26671	13.849	4.4545	0.1	2337.
26672	13.572	4.3636	0.1	2407.4
26673	13.664	4.4545	0.1	2384.3
26674	13.387	4.3636	0.1	2454.9
26675	13.48	4.4545	0.1	2431.8
26676	13.203	4.3636	0.1	2502.6
26677	13.295	4.4545	0.1	2479.5
26678	13.018	4.3636	0.1	2550.5
26679	13.11	4.4545	0.1	2527.3
26680	12.834	4.3636	0.1	2598.5
26681	12.926	4.4545	0.1	2575.2
26682	12.649	4.3636	0.1	2646.6
26683	12.741	4.4545	0.1	2623.3
26684	12.465	4.3636	0.1	2694.8
26685	12.557	4.4545	0.1	2671.6
26686	12.28	4.3636	0.1	2743.2
26687	12.372	4.4545	0.1	2720.
26688	12.095	4.3636	0.1	2791.8
26689	12.188	4.4545	0.1	2768.5
26690	11.911	4.3636	0.1	2840.4
26691	12.003	4.4545	0.1	2817.1
26692	11.726	4.3636	0.1	2889.2
26693	11.819	4.4545	0.1	2865.9
26694	11.542	4.3636	0.1	2938.
26695	11.634	4.4545	0.1	2914.8
26696	11.357	4.3636	0.1	2987.
26697	11.449	4.4545	0.1	2963.8
26698	11.173	4.3636	0.1	3036.1
26699	11.265	4.4545	0.1	3012.9
26700	10.988	4.3636	0.1	3085.3
26701	11.08	4.4545	0.1	3062.1
26702	10.803	4.3636	0.1	3134.5
26703	10.896	4.4545	0.1	3111.5
26704	10.619	4.3636	0.1	3183.9
26705	10.711	4.4545	0.1	3160.9
26706	10.434	4.3636	0.1	3233.3
26707	10.527	4.4545	0.1	3210.4
26708	10.25	4.3636	0.1	3282.8
26709	10.342	4.4545	0.1	3260.
26710	10.065	4.3636	0.1	3332.4
26711	10.157	4.4545	0.1	3309.7
26712	9.8806	4.3636	0.1	3382.1
26713	9.9728	4.4545	0.1	3359.5
26714	9.696	4.3636	0.1	3431.9
26715	9.7883	4.4545	0.1	3409.3
26716	9.5114	4.3636	0.1	3481.7
26717	9.6037	4.4545	0.1	3459.3
26718	9.3269	4.3636	0.1	3531.7
26719	9.4191	4.4545	0.1	3509.4
26720	9.1423	4.3636	0.1	3581.8
26721	9.2346	4.4545	0.1	3559.6
26722	8.9577	4.3636	0.1	3632.1
26723	9.05	4.4545	0.1	3609.9
26724	8.7731	4.3636	0.1	3682.6
26725	8.8654	4.4545	0.1	3660.4
26726	8.5886	4.3636	0.1	3733.3
26727	8.6809	4.4545	0.1	3711.1
26728	8.404	4.3636	0.1	3784.4
26729	8.4963	4.4545	0.1	3762.
26730	8.2194	4.3636	0.1	3835.9
26731	8.3117	4.4545	0.1	3813.2
26732	8.0349	4.3636	0.1	3887.8
26733	8.1272	4.4545	0.1	3864.7
26734	7.8503	4.3636	0.1	3940.4
26735	7.9426	4.4545	0.1	3916.6
26736	7.6657	4.3636	0.1	3993.7
26737	7.758	4.4545	0.1	3969.
26738	7.4812	4.3636	0.1	4048.
26739	7.5735	4.4545	0.1	4022.
26740	7.2966	4.3636	0.1	4103.5
26741	7.3889	4.4545	0.1	4075.8
26742	7.112	4.3636	0.1	4160.6
26743	7.2043	4.4545	0.1	4130.3
26744	6.9275	4.3636	0.1	4219.4
26745	7.0198	4.4545	0.1	4185.8
26746	6.7429	4.3636	0.1	4280.6
26747	6.8352	4.4545	0.1	4242.6
26748	6.5583	4.3636	0.1	4344.7
26749	6.6506	4.4545	0.1	4300.8
26750	6.3738	4.3636	0.1	4412.5
26751	6.466	4.4545	0.1	4360.8
26752	6.1892	4.3636	0.1	4485.2
26753	6.2815	4.4545	0.1	4423.1
26754	6.0046	4.3636	0.1	4564.7
26755	6.0969	4.4545	0.1	4488.6
26756	5.8201	4.3636	0.1	4653.4
26757	5.9123	4.4545	0.1	4558.7
26758	5.6355	4.3636	0.1	4755.8
26759	5.7278	4.4545	0.1	4635.8
26760	5.4509	4.3636	0.1	4878.7
26761	5.5432	4.4545	0.1	4723.8
26762	5.2664	4.3636	0.1	5033.9
26763	5.3586	4.4545	0.1	4829.7
26764	5.0818	4.3636	0.1	5240.3
26765	5.1741	4.4545	0.1	4965.6
26766	4.8972	4.3636	0.1	5532.3
26767	4.9895	4.4545	0.1	5151.5
26768	4.7127	4.3636	0.1	5961.6
26769	4.8049	4.4545	0.1	5422.8
26770	4.5281	4.3636	0.1	6633.4
26771	4.6204	4.4545	0.1	5830.6
26772	4.3435	4.3636	0.1	7792.1
26773	4.4358	4.4545	0.1	6470.6
26774	4.2512	4.4545	0.1	7744.5
26775	4.159	4.3636	0.1	7019.1
26776	23.723	4.5455	0.1	174.54
26777	23.815	4.6364	0.1	161.47
26778	23.908	4.5455	0.1	159.44
26779	23.539	4.5455	0.1	195.18
26780	23.631	4.6364	0.1	179.67
26781	23.354	4.5455	0.1	219.86
26782	23.446	4.6364	0.1	202.74
26783	23.169	4.5455	0.1	247.47
26784	23.262	4.6364	0.1	229.28
26785	22.985	4.5455	0.1	277.26
26786	23.077	4.6364	0.1	258.35
26787	22.8	4.5455	0.1	308.73
26788	22.893	4.6364	0.1	289.34
26789	22.616	4.5455	0.1	341.51
26790	22.708	4.6364	0.1	321.81
26791	22.431	4.5455	0.1	375.36
26792	22.523	4.6364	0.1	355.46
26793	22.247	4.5455	0.1	410.08
26794	22.339	4.6364	0.1	390.05
26795	22.062	4.5455	0.1	445.55
26796	22.154	4.6364	0.1	425.43
26797	21.877	4.5455	0.1	481.64
26798	21.97	4.6364	0.1	461.46
26799	21.693	4.5455	0.1	518.29
26800	21.785	4.6364	0.1	498.07
26801	21.508	4.5455	0.1	555.42
26802	21.601	4.6364	0.1	535.18
26803	21.324	4.5455	0.1	592.99
26804	21.416	4.6364	0.1	572.73
26805	21.139	4.5455	0.1	630.97
26806	21.231	4.6364	0.1	610.69
26807	20.955	4.5455	0.1	669.32
26808	21.047	4.6364	0.1	649.01
26809	20.77	4.5455	0.1	708.02
26810	20.862	4.6364	0.1	687.68
26811	20.585	4.5455	0.1	747.04
26812	20.678	4.6364	0.1	726.68
26813	20.401	4.5455	0.1	786.38
26814	20.493	4.6364	0.1	765.98
26815	20.216	4.5455	0.1	826.02
26816	20.309	4.6364	0.1	805.58
26817	20.032	4.5455	0.1	865.94
26818	20.124	4.6364	0.1	845.47
26819	19.847	4.5455	0.1	906.15
26820	19.94	4.6364	0.1	885.62
26821	19.663	4.5455	0.1	946.63
26822	19.755	4.6364	0.1	926.05
26823	19.478	4.5455	0.1	987.37
26824	19.57	4.6364	0.1	966.73
26825	19.294	4.5455	0.1	1028.4
26826	19.386	4.6364	0.1	1007.7
26827	19.109	4.5455	0.1	1069.6
26828	19.201	4.6364	0.1	1048.9
26829	18.924	4.5455	0.1	1111.1
26830	19.017	4.6364	0.1	1090.3
26831	18.74	4.5455	0.1	1152.9
26832	18.832	4.6364	0.1	1132.
26833	18.555	4.5455	0.1	1194.9
26834	18.648	4.6364	0.1	1173.9
26835	18.371	4.5455	0.1	1237.1
26836	18.463	4.6364	0.1	1216.
26837	18.186	4.5455	0.1	1279.5
26838	18.278	4.6364	0.1	1258.4
26839	18.002	4.5455	0.1	1322.2
26840	18.094	4.6364	0.1	1301.
26841	17.817	4.5455	0.1	1365.1
26842	17.909	4.6364	0.1	1343.8
26843	17.632	4.5455	0.1	1408.3
26844	17.725	4.6364	0.1	1386.9
26845	17.448	4.5455	0.1	1451.6
26846	17.54	4.6364	0.1	1430.2
26847	17.263	4.5455	0.1	1495.2
26848	17.356	4.6364	0.1	1473.6
26849	17.079	4.5455	0.1	1539.
26850	17.171	4.6364	0.1	1517.3
26851	16.894	4.5455	0.1	1583.
26852	16.986	4.6364	0.1	1561.3
26853	16.71	4.5455	0.1	1627.2
26854	16.802	4.6364	0.1	1605.4
26855	16.525	4.5455	0.1	1671.6
26856	16.617	4.6364	0.1	1649.7
26857	16.34	4.5455	0.1	1716.2
26858	16.433	4.6364	0.1	1694.3
26859	16.156	4.5455	0.1	1761.1
26860	16.248	4.6364	0.1	1739.
26861	15.971	4.5455	0.1	1806.1
26862	16.064	4.6364	0.1	1784.
26863	15.787	4.5455	0.1	1851.3
26864	15.879	4.6364	0.1	1829.1
26865	15.602	4.5455	0.1	1896.8
26866	15.694	4.6364	0.1	1874.5
26867	15.418	4.5455	0.1	1942.4
26868	15.51	4.6364	0.1	1920.
26869	15.233	4.5455	0.1	1988.2
26870	15.325	4.6364	0.1	1965.8
26871	15.048	4.5455	0.1	2034.2
26872	15.141	4.6364	0.1	2011.7
26873	14.864	4.5455	0.1	2080.4
26874	14.956	4.6364	0.1	2057.8
26875	14.679	4.5455	0.1	2126.8
26876	14.772	4.6364	0.1	2104.1
26877	14.495	4.5455	0.1	2173.3
26878	14.587	4.6364	0.1	2150.6
26879	14.31	4.5455	0.1	2220.1
26880	14.402	4.6364	0.1	2197.3
26881	14.126	4.5455	0.1	2267.
26882	14.218	4.6364	0.1	2244.1
26883	13.941	4.5455	0.1	2314.1
26884	14.033	4.6364	0.1	2291.2
26885	13.756	4.5455	0.1	2361.4
26886	13.849	4.6364	0.1	2338.4
26887	13.572	4.5455	0.1	2408.8
26888	13.664	4.6364	0.1	2385.8
26889	13.387	4.5455	0.1	2456.4
26890	13.48	4.6364	0.1	2433.3
26891	13.203	4.5455	0.1	2504.2
26892	13.295	4.6364	0.1	2481.
26893	13.018	4.5455	0.1	2552.1
26894	13.11	4.6364	0.1	2528.9
26895	12.834	4.5455	0.1	2600.1
26896	12.926	4.6364	0.1	2577.
26897	12.649	4.5455	0.1	2648.4
26898	12.741	4.6364	0.1	2625.2
26899	12.465	4.5455	0.1	2696.7
26900	12.557	4.6364	0.1	2673.5
26901	12.28	4.5455	0.1	2745.2
26902	12.372	4.6364	0.1	2722.
26903	12.095	4.5455	0.1	2793.9
26904	12.188	4.6364	0.1	2770.6
26905	11.911	4.5455	0.1	2842.7
26906	12.003	4.6364	0.1	2819.4
26907	11.726	4.5455	0.1	2891.6
26908	11.819	4.6364	0.1	2868.3
26909	11.542	4.5455	0.1	2940.6
26910	11.634	4.6364	0.1	2917.4
26911	11.357	4.5455	0.1	2989.7
26912	11.449	4.6364	0.1	2966.6
26913	11.173	4.5455	0.1	3039.
26914	11.265	4.6364	0.1	3015.9
26915	10.988	4.5455	0.1	3088.4
26916	11.08	4.6364	0.1	3065.3
26917	10.803	4.5455	0.1	3137.8
26918	10.896	4.6364	0.1	3114.8
26919	10.619	4.5455	0.1	3187.4
26920	10.711	4.6364	0.1	3164.4
26921	10.434	4.5455	0.1	3237.1
26922	10.527	4.6364	0.1	3214.2
26923	10.25	4.5455	0.1	3286.9
26924	10.342	4.6364	0.1	3264.1
26925	10.065	4.5455	0.1	3336.7
26926	10.157	4.6364	0.1	3314.
26927	9.8806	4.5455	0.1	3386.7
26928	9.9728	4.6364	0.1	3364.1
26929	9.696	4.5455	0.1	3436.8
26930	9.7883	4.6364	0.1	3414.2
26931	9.5114	4.5455	0.1	3486.9
26932	9.6037	4.6364	0.1	3464.5
26933	9.3269	4.5455	0.1	3537.2
26934	9.4191	4.6364	0.1	3514.9
26935	9.1423	4.5455	0.1	3587.6
26936	9.2346	4.6364	0.1	3565.4
26937	8.9577	4.5455	0.1	3638.2
26938	9.05	4.6364	0.1	3616.
26939	8.7731	4.5455	0.1	3688.9
26940	8.8654	4.6364	0.1	3666.7
26941	8.5886	4.5455	0.1	3739.7
26942	8.6809	4.6364	0.1	3717.5
26943	8.404	4.5455	0.1	3790.8
26944	8.4963	4.6364	0.1	3768.4
26945	8.2194	4.5455	0.1	3842.
26946	8.3117	4.6364	0.1	3819.5
26947	8.0349	4.5455	0.1	3893.5
26948	8.1272	4.6364	0.1	3870.7
26949	7.8503	4.5455	0.1	3945.3
26950	7.9426	4.6364	0.1	3922.
26951	7.6657	4.5455	0.1	3997.4
26952	7.758	4.6364	0.1	3973.4
26953	7.4812	4.5455	0.1	4049.8
26954	7.5735	4.6364	0.1	4024.8
26955	7.2966	4.5455	0.1	4102.5
26956	7.3889	4.6364	0.1	4076.1
26957	7.112	4.5455	0.1	4155.6
26958	7.2043	4.6364	0.1	4127.3
26959	6.9275	4.5455	0.1	4209.1
26960	7.0198	4.6364	0.1	4178.2
26961	6.7429	4.5455	0.1	4262.8
26962	6.8352	4.6364	0.1	4228.5
26963	6.5583	4.5455	0.1	4316.9
26964	6.6506	4.6364	0.1	4278.1
26965	6.3738	4.5455	0.1	4371.3
26966	6.466	4.6364	0.1	4326.6
26967	6.1892	4.5455	0.1	4426.3
26968	6.2815	4.6364	0.1	4373.6
26969	6.0046	4.5455	0.1	4482.2
26970	6.0969	4.6364	0.1	4418.8
26971	5.8201	4.5455	0.1	4540.
26972	5.9123	4.6364	0.1	4462.2
26973	5.6355	4.5455	0.1	4601.7
26974	5.7278	4.6364	0.1	4504.2
26975	5.4509	4.5455	0.1	4671.
26976	5.5432	4.6364	0.1	4546.1
26977	5.2664	4.5455	0.1	4754.8
26978	5.3586	4.6364	0.1	4591.2
26979	5.0818	4.5455	0.1	4865.1
26980	5.1741	4.6364	0.1	4646.1
26981	4.8972	4.5455	0.1	5021.3
26982	4.9895	4.6364	0.1	4722.8
26983	4.7127	4.5455	0.1	5253.9
26984	4.8049	4.6364	0.1	4841.2
26985	4.5281	4.5455	0.1	5593.4
26986	4.6204	4.6364	0.1	5031.8
26987	4.3435	4.5455	0.1	6204.5
26988	4.4358	4.6364	0.1	5331.
26989	4.2512	4.6364	0.1	6023.2
26990	4.159	4.5455	0.1	5451.6
26991	23.723	4.7273	0.1	165.36
26992	23.815	4.8182	0.1	151.42
26993	23.908	4.7273	0.1	149.87
26994	23.539	4.7273	0.1	186.43
26995	23.631	4.8182	0.1	169.99
26996	23.354	4.7273	0.1	211.65
26997	23.446	4.8182	0.1	193.63
26998	23.169	4.7273	0.1	239.86
26999	23.262	4.8182	0.1	220.84
27000	22.985	4.7273	0.1	270.26
27001	23.077	4.8182	0.1	250.62
27002	22.8	4.7273	0.1	302.34
27003	22.893	4.8182	0.1	282.31
27004	22.616	4.7273	0.1	335.73
27005	22.708	4.8182	0.1	315.47
27006	22.431	4.7273	0.1	370.15
27007	22.523	4.8182	0.1	349.77
27008	22.247	4.7273	0.1	405.42
27009	22.339	4.8182	0.1	384.97
27010	22.062	4.7273	0.1	441.38
27011	22.154	4.8182	0.1	420.91
27012	21.877	4.7273	0.1	477.95
27013	21.97	4.8182	0.1	457.47
27014	21.693	4.7273	0.1	515.02
27015	21.785	4.8182	0.1	494.55
27016	21.508	4.7273	0.1	552.55
27017	21.601	4.8182	0.1	532.09
27018	21.324	4.7273	0.1	590.49
27019	21.416	4.8182	0.1	570.04
27020	21.139	4.7273	0.1	628.79
27021	21.231	4.8182	0.1	608.35
27022	20.955	4.7273	0.1	667.44
27023	21.047	4.8182	0.1	647.
27024	20.77	4.7273	0.1	706.41
27025	20.862	4.8182	0.1	685.97
27026	20.585	4.7273	0.1	745.69
27027	20.678	4.8182	0.1	725.23
27028	20.401	4.7273	0.1	785.25
27029	20.493	4.8182	0.1	764.78
27030	20.216	4.7273	0.1	825.1
27031	20.309	4.8182	0.1	804.6
27032	20.032	4.7273	0.1	865.21
27033	20.124	4.8182	0.1	844.68
27034	19.847	4.7273	0.1	905.58
27035	19.94	4.8182	0.1	885.02
27036	19.663	4.7273	0.1	946.22
27037	19.755	4.8182	0.1	925.6
27038	19.478	4.7273	0.1	987.1
27039	19.57	4.8182	0.1	966.44
27040	19.294	4.7273	0.1	1028.2
27041	19.386	4.8182	0.1	1007.5
27042	19.109	4.7273	0.1	1069.6
27043	19.201	4.8182	0.1	1048.8
27044	18.924	4.7273	0.1	1111.2
27045	19.017	4.8182	0.1	1090.4
27046	18.74	4.7273	0.1	1153.
27047	18.832	4.8182	0.1	1132.1
27048	18.555	4.7273	0.1	1195.1
27049	18.648	4.8182	0.1	1174.1
27050	18.371	4.7273	0.1	1237.4
27051	18.463	4.8182	0.1	1216.4
27052	18.186	4.7273	0.1	1279.9
27053	18.278	4.8182	0.1	1258.8
27054	18.002	4.7273	0.1	1322.7
27055	18.094	4.8182	0.1	1301.5
27056	17.817	4.7273	0.1	1365.6
27057	17.909	4.8182	0.1	1344.4
27058	17.632	4.7273	0.1	1408.8
27059	17.725	4.8182	0.1	1387.5
27060	17.448	4.7273	0.1	1452.2
27061	17.54	4.8182	0.1	1430.8
27062	17.263	4.7273	0.1	1495.9
27063	17.356	4.8182	0.1	1474.3
27064	17.079	4.7273	0.1	1539.7
27065	17.171	4.8182	0.1	1518.1
27066	16.894	4.7273	0.1	1583.7
27067	16.986	4.8182	0.1	1562.1
27068	16.71	4.7273	0.1	1628.
27069	16.802	4.8182	0.1	1606.2
27070	16.525	4.7273	0.1	1672.4
27071	16.617	4.8182	0.1	1650.6
27072	16.34	4.7273	0.1	1717.1
27073	16.433	4.8182	0.1	1695.2
27074	16.156	4.7273	0.1	1762.
27075	16.248	4.8182	0.1	1740.
27076	15.971	4.7273	0.1	1807.
27077	16.064	4.8182	0.1	1785.
27078	15.787	4.7273	0.1	1852.3
27079	15.879	4.8182	0.1	1830.1
27080	15.602	4.7273	0.1	1897.8
27081	15.694	4.8182	0.1	1875.5
27082	15.418	4.7273	0.1	1943.4
27083	15.51	4.8182	0.1	1921.1
27084	15.233	4.7273	0.1	1989.3
27085	15.325	4.8182	0.1	1966.9
27086	15.048	4.7273	0.1	2035.3
27087	15.141	4.8182	0.1	2012.9
27088	14.864	4.7273	0.1	2081.6
27089	14.956	4.8182	0.1	2059.
27090	14.679	4.7273	0.1	2128.
27091	14.772	4.8182	0.1	2105.4
27092	14.495	4.7273	0.1	2174.6
27093	14.587	4.8182	0.1	2151.9
27094	14.31	4.7273	0.1	2221.4
27095	14.402	4.8182	0.1	2198.6
27096	14.126	4.7273	0.1	2268.4
27097	14.218	4.8182	0.1	2245.5
27098	13.941	4.7273	0.1	2315.5
27099	14.033	4.8182	0.1	2292.6
27100	13.756	4.7273	0.1	2362.8
27101	13.849	4.8182	0.1	2339.9
27102	13.572	4.7273	0.1	2410.3
27103	13.664	4.8182	0.1	2387.4
27104	13.387	4.7273	0.1	2458.
27105	13.48	4.8182	0.1	2435.
27106	13.203	4.7273	0.1	2505.8
27107	13.295	4.8182	0.1	2482.8
27108	13.018	4.7273	0.1	2553.8
27109	13.11	4.8182	0.1	2530.7
27110	12.834	4.7273	0.1	2602.
27111	12.926	4.8182	0.1	2578.9
27112	12.649	4.7273	0.1	2650.3
27113	12.741	4.8182	0.1	2627.2
27114	12.465	4.7273	0.1	2698.8
27115	12.557	4.8182	0.1	2675.6
27116	12.28	4.7273	0.1	2747.4
27117	12.372	4.8182	0.1	2724.2
27118	12.095	4.7273	0.1	2796.2
27119	12.188	4.8182	0.1	2773.
27120	11.911	4.7273	0.1	2845.1
27121	12.003	4.8182	0.1	2821.9
27122	11.726	4.7273	0.1	2894.2
27123	11.819	4.8182	0.1	2871.
27124	11.542	4.7273	0.1	2943.4
27125	11.634	4.8182	0.1	2920.2
27126	11.357	4.7273	0.1	2992.7
27127	11.449	4.8182	0.1	2969.5
27128	11.173	4.7273	0.1	3042.2
27129	11.265	4.8182	0.1	3019.
27130	10.988	4.7273	0.1	3091.7
27131	11.08	4.8182	0.1	3068.6
27132	10.803	4.7273	0.1	3141.4
27133	10.896	4.8182	0.1	3118.4
27134	10.619	4.7273	0.1	3191.2
27135	10.711	4.8182	0.1	3168.3
27136	10.434	4.7273	0.1	3241.2
27137	10.527	4.8182	0.1	3218.3
27138	10.25	4.7273	0.1	3291.2
27139	10.342	4.8182	0.1	3268.4
27140	10.065	4.7273	0.1	3341.4
27141	10.157	4.8182	0.1	3318.6
27142	9.8806	4.7273	0.1	3391.6
27143	9.9728	4.8182	0.1	3369.
27144	9.696	4.7273	0.1	3442.
27145	9.7883	4.8182	0.1	3419.4
27146	9.5114	4.7273	0.1	3492.5
27147	9.6037	4.8182	0.1	3470.
27148	9.3269	4.7273	0.1	3543.
27149	9.4191	4.8182	0.1	3520.7
27150	9.1423	4.7273	0.1	3593.7
27151	9.2346	4.8182	0.1	3571.4
27152	8.9577	4.7273	0.1	3644.5
27153	9.05	4.8182	0.1	3622.2
27154	8.7731	4.7273	0.1	3695.3
27155	8.8654	4.8182	0.1	3673.1
27156	8.5886	4.7273	0.1	3746.2
27157	8.6809	4.8182	0.1	3724.1
27158	8.404	4.7273	0.1	3797.2
27159	8.4963	4.8182	0.1	3775.
27160	8.2194	4.7273	0.1	3848.2
27161	8.3117	4.8182	0.1	3825.9
27162	8.0349	4.7273	0.1	3899.2
27163	8.1272	4.8182	0.1	3876.6
27164	7.8503	4.7273	0.1	3950.1
27165	7.9426	4.8182	0.1	3927.2
27166	7.6657	4.7273	0.1	4000.7
27167	7.758	4.8182	0.1	3977.3
27168	7.4812	4.7273	0.1	4051.1
27169	7.5735	4.8182	0.1	4027.
27170	7.2966	4.7273	0.1	4100.9
27171	7.3889	4.8182	0.1	4075.8
27172	7.112	4.7273	0.1	4149.9
27173	7.2043	4.8182	0.1	4123.5
27174	6.9275	4.7273	0.1	4197.7
27175	7.0198	4.8182	0.1	4169.6
27176	6.7429	4.7273	0.1	4243.9
27177	6.8352	4.8182	0.1	4213.5
27178	6.5583	4.7273	0.1	4287.8
27179	6.6506	4.8182	0.1	4254.4
27180	6.3738	4.7273	0.1	4328.7
27181	6.466	4.8182	0.1	4291.3
27182	6.1892	4.7273	0.1	4365.8
27183	6.2815	4.8182	0.1	4323.1
27184	6.0046	4.7273	0.1	4398.2
27185	6.0969	4.8182	0.1	4348.3
27186	5.8201	4.7273	0.1	4425.2
27187	5.9123	4.8182	0.1	4365.5
27188	5.6355	4.7273	0.1	4446.2
27189	5.7278	4.8182	0.1	4373.
27190	5.4509	4.7273	0.1	4461.9
27191	5.5432	4.8182	0.1	4369.7
27192	5.2664	4.7273	0.1	4474.6
27193	5.3586	4.8182	0.1	4355.3
27194	5.0818	4.7273	0.1	4489.6
27195	5.1741	4.8182	0.1	4331.6
27196	4.8972	4.7273	0.1	4517.3
27197	4.9895	4.8182	0.1	4304.3
27198	4.7127	4.7273	0.1	4573.8
27199	4.8049	4.8182	0.1	4285.4
27200	4.5281	4.7273	0.1	4687.1
27201	4.6204	4.8182	0.1	4295.8
27202	4.3435	4.7273	0.1	5002.1
27203	4.4358	4.8182	0.1	4377.9
27204	4.2512	4.8182	0.1	4781.8
27205	4.159	4.7273	0.1	4292.6
27206	23.723	4.9091	0.1	154.81
27207	23.815	5.	0.1	139.84
27208	23.908	4.9091	0.1	138.81
27209	23.539	4.9091	0.1	176.43
27210	23.631	5.	0.1	158.91
27211	23.354	4.9091	0.1	202.37
27212	23.446	5.	0.1	183.33
27213	23.169	4.9091	0.1	231.35
27214	23.262	5.	0.1	211.43
27215	22.985	4.9091	0.1	262.55
27216	23.077	5.	0.1	242.13
27217	22.8	4.9091	0.1	295.4
27218	22.893	5.	0.1	274.72
27219	22.616	4.9091	0.1	329.52
27220	22.708	5.	0.1	308.72
27221	22.431	4.9091	0.1	364.63
27222	22.523	5.	0.1	343.8
27223	22.247	4.9091	0.1	400.52
27224	22.339	5.	0.1	379.71
27225	22.062	4.9091	0.1	437.06
27226	22.154	5.	0.1	416.29
27227	21.877	4.9091	0.1	474.15
27228	21.97	5.	0.1	453.42
27229	21.693	4.9091	0.1	511.7
27230	21.785	5.	0.1	491.02
27231	21.508	4.9091	0.1	549.65
27232	21.601	5.	0.1	529.02
27233	21.324	4.9091	0.1	587.98
27234	21.416	5.	0.1	567.38
27235	21.139	4.9091	0.1	626.63
27236	21.231	5.	0.1	606.07
27237	20.955	4.9091	0.1	665.6
27238	21.047	5.	0.1	645.06
27239	20.77	4.9091	0.1	704.86
27240	20.862	5.	0.1	684.33
27241	20.585	4.9091	0.1	744.39
27242	20.678	5.	0.1	723.87
27243	20.401	4.9091	0.1	784.19
27244	20.493	5.	0.1	763.66
27245	20.216	4.9091	0.1	824.25
27246	20.309	5.	0.1	803.71
27247	20.032	4.9091	0.1	864.55
27248	20.124	5.	0.1	843.99
27249	19.847	4.9091	0.1	905.1
27250	19.94	5.	0.1	884.51
27251	19.663	4.9091	0.1	945.89
27252	19.755	5.	0.1	925.27
27253	19.478	4.9091	0.1	986.91
27254	19.57	5.	0.1	966.25
27255	19.294	4.9091	0.1	1028.2
27256	19.386	5.	0.1	1007.5
27257	19.109	4.9091	0.1	1069.7
27258	19.201	5.	0.1	1048.9
27259	18.924	4.9091	0.1	1111.4
27260	19.017	5.	0.1	1090.5
27261	18.74	4.9091	0.1	1153.3
27262	18.832	5.	0.1	1132.4
27263	18.555	4.9091	0.1	1195.5
27264	18.648	5.	0.1	1174.5
27265	18.371	4.9091	0.1	1237.8
27266	18.463	5.	0.1	1216.8
27267	18.186	4.9091	0.1	1280.4
27268	18.278	5.	0.1	1259.4
27269	18.002	4.9091	0.1	1323.2
27270	18.094	5.	0.1	1302.1
27271	17.817	4.9091	0.1	1366.3
27272	17.909	5.	0.1	1345.
27273	17.632	4.9091	0.1	1409.5
27274	17.725	5.	0.1	1388.2
27275	17.448	4.9091	0.1	1453.
27276	17.54	5.	0.1	1431.6
27277	17.263	4.9091	0.1	1496.6
27278	17.356	5.	0.1	1475.2
27279	17.079	4.9091	0.1	1540.5
27280	17.171	5.	0.1	1519.
27281	16.894	4.9091	0.1	1584.6
27282	16.986	5.	0.1	1563.
27283	16.71	4.9091	0.1	1628.9
27284	16.802	5.	0.1	1607.2
27285	16.525	4.9091	0.1	1673.4
27286	16.617	5.	0.1	1651.6
27287	16.34	4.9091	0.1	1718.1
27288	16.433	5.	0.1	1696.2
27289	16.156	4.9091	0.1	1763.
27290	16.248	5.	0.1	1741.
27291	15.971	4.9091	0.1	1808.1
27292	16.064	5.	0.1	1786.1
27293	15.787	4.9091	0.1	1853.4
27294	15.879	5.	0.1	1831.3
27295	15.602	4.9091	0.1	1898.9
27296	15.694	5.	0.1	1876.7
27297	15.418	4.9091	0.1	1944.6
27298	15.51	5.	0.1	1922.3
27299	15.233	4.9091	0.1	1990.5
27300	15.325	5.	0.1	1968.1
27301	15.048	4.9091	0.1	2036.6
27302	15.141	5.	0.1	2014.1
27303	14.864	4.9091	0.1	2082.9
27304	14.956	5.	0.1	2060.4
27305	14.679	4.9091	0.1	2129.3
27306	14.772	5.	0.1	2106.7
27307	14.495	4.9091	0.1	2176.
27308	14.587	5.	0.1	2153.3
27309	14.31	4.9091	0.1	2222.8
27310	14.402	5.	0.1	2200.1
27311	14.126	4.9091	0.1	2269.9
27312	14.218	5.	0.1	2247.1
27313	13.941	4.9091	0.1	2317.1
27314	14.033	5.	0.1	2294.2
27315	13.756	4.9091	0.1	2364.5
27316	13.849	5.	0.1	2341.6
27317	13.572	4.9091	0.1	2412.
27318	13.664	5.	0.1	2389.1
27319	13.387	4.9091	0.1	2459.8
27320	13.48	5.	0.1	2436.8
27321	13.203	4.9091	0.1	2507.7
27322	13.295	5.	0.1	2484.7
27323	13.018	4.9091	0.1	2555.8
27324	13.11	5.	0.1	2532.7
27325	12.834	4.9091	0.1	2604.1
27326	12.926	5.	0.1	2580.9
27327	12.649	4.9091	0.1	2652.5
27328	12.741	5.	0.1	2629.3
27329	12.465	4.9091	0.1	2701.1
27330	12.557	5.	0.1	2677.9
27331	12.28	4.9091	0.1	2749.8
27332	12.372	5.	0.1	2726.6
27333	12.095	4.9091	0.1	2798.7
27334	12.188	5.	0.1	2775.5
27335	11.911	4.9091	0.1	2847.8
27336	12.003	5.	0.1	2824.6
27337	11.726	4.9091	0.1	2897.
27338	11.819	5.	0.1	2873.8
27339	11.542	4.9091	0.1	2946.4
27340	11.634	5.	0.1	2923.2
27341	11.357	4.9091	0.1	2995.9
27342	11.449	5.	0.1	2972.7
27343	11.173	4.9091	0.1	3045.5
27344	11.265	5.	0.1	3022.4
27345	10.988	4.9091	0.1	3095.3
27346	11.08	5.	0.1	3072.3
27347	10.803	4.9091	0.1	3145.3
27348	10.896	5.	0.1	3122.2
27349	10.619	4.9091	0.1	3195.3
27350	10.711	5.	0.1	3172.3
27351	10.434	4.9091	0.1	3245.5
27352	10.527	5.	0.1	3222.6
27353	10.25	4.9091	0.1	3295.8
27354	10.342	5.	0.1	3273.
27355	10.065	4.9091	0.1	3346.3
27356	10.157	5.	0.1	3323.5
27357	9.8806	4.9091	0.1	3396.8
27358	9.9728	5.	0.1	3374.1
27359	9.696	4.9091	0.1	3447.5
27360	9.7883	5.	0.1	3424.9
27361	9.5114	4.9091	0.1	3498.2
27362	9.6037	5.	0.1	3475.7
27363	9.3269	4.9091	0.1	3549.1
27364	9.4191	5.	0.1	3526.6
27365	9.1423	4.9091	0.1	3600.
27366	9.2346	5.	0.1	3577.6
27367	8.9577	4.9091	0.1	3650.9
27368	9.05	5.	0.1	3628.6
27369	8.7731	4.9091	0.1	3701.9
27370	8.8654	5.	0.1	3679.7
27371	8.5886	4.9091	0.1	3752.8
27372	8.6809	5.	0.1	3730.6
27373	8.404	4.9091	0.1	3803.6
27374	8.4963	5.	0.1	3781.4
27375	8.2194	4.9091	0.1	3854.3
27376	8.3117	5.	0.1	3832.
27377	8.0349	4.9091	0.1	3904.6
27378	8.1272	5.	0.1	3882.3
27379	7.8503	4.9091	0.1	3954.5
27380	7.9426	5.	0.1	3932.
27381	7.6657	4.9091	0.1	4003.6
27382	7.758	5.	0.1	3980.9
27383	7.4812	4.9091	0.1	4051.8
27384	7.5735	5.	0.1	4028.7
27385	7.2966	4.9091	0.1	4098.5
27386	7.3889	5.	0.1	4074.9
27387	7.112	4.9091	0.1	4143.3
27388	7.2043	5.	0.1	4119.
27389	6.9275	4.9091	0.1	4185.5
27390	7.0198	5.	0.1	4160.3
27391	6.7429	4.9091	0.1	4224.
27392	6.8352	5.	0.1	4197.7
27393	6.5583	4.9091	0.1	4257.9
27394	6.6506	5.	0.1	4230.
27395	6.3738	4.9091	0.1	4285.6
27396	6.466	5.	0.1	4255.7
27397	6.1892	4.9091	0.1	4305.3
27398	6.2815	5.	0.1	4272.8
27399	6.0046	4.9091	0.1	4314.9
27400	6.0969	5.	0.1	4278.8
27401	5.8201	4.9091	0.1	4311.9
27402	5.9123	5.	0.1	4271.
27403	5.6355	4.9091	0.1	4293.9
27404	5.7278	5.	0.1	4246.
27405	5.4509	4.9091	0.1	4258.5
27406	5.5432	5.	0.1	4200.4
27407	5.2664	4.9091	0.1	4204.
27408	5.3586	5.	0.1	4130.8
27409	5.0818	4.9091	0.1	4131.3
27410	5.1741	5.	0.1	4035.4
27411	4.8972	4.9091	0.1	4045.9
27412	4.9895	5.	0.1	3915.5
27413	4.7127	4.9091	0.1	3961.9
27414	4.8049	5.	0.1	3780.1
27415	4.5281	4.9091	0.1	3912.3
27416	4.6204	5.	0.1	3651.7
27417	4.3435	4.9091	0.1	4042.3
27418	4.4358	5.	0.1	3582.3
27419	4.2512	5.	0.1	3808.4
27420	4.159	4.9091	0.1	3424.1
27421	23.723	5.0909	0.1	142.7
27422	23.815	5.1818	0.1	126.49
27423	23.908	5.0909	0.1	126.06
27424	23.539	5.0909	0.1	165.1
27425	23.631	5.1818	0.1	146.27
27426	23.354	5.0909	0.1	192.01
27427	23.446	5.1818	0.1	171.8
27428	23.169	5.0909	0.1	222.03
27429	23.262	5.1818	0.1	201.12
27430	22.985	5.0909	0.1	254.24
27431	23.077	5.1818	0.1	233.04
27432	22.8	5.0909	0.1	288.06
27433	22.893	5.1818	0.1	266.76
27434	22.616	5.0909	0.1	323.05
27435	22.708	5.1818	0.1	301.78
27436	22.431	5.0909	0.1	358.95
27437	22.523	5.1818	0.1	337.75
27438	22.247	5.0909	0.1	395.56
27439	22.339	5.1818	0.1	374.45
27440	22.062	5.0909	0.1	432.73
27441	22.154	5.1818	0.1	411.72
27442	21.877	5.0909	0.1	470.38
27443	21.97	5.1818	0.1	449.46
27444	21.693	5.0909	0.1	508.43
27445	21.785	5.1818	0.1	487.6
27446	21.508	5.0909	0.1	546.84
27447	21.601	5.1818	0.1	526.09
27448	21.324	5.0909	0.1	585.56
27449	21.416	5.1818	0.1	564.88
27450	21.139	5.0909	0.1	624.58
27451	21.231	5.1818	0.1	603.95
27452	20.955	5.0909	0.1	663.87
27453	21.047	5.1818	0.1	643.28
27454	20.77	5.0909	0.1	703.42
27455	20.862	5.1818	0.1	682.85
27456	20.585	5.0909	0.1	743.22
27457	20.678	5.1818	0.1	722.67
27458	20.401	5.0909	0.1	783.25
27459	20.493	5.1818	0.1	762.71
27460	20.216	5.0909	0.1	823.52
27461	20.309	5.1818	0.1	802.97
27462	20.032	5.0909	0.1	864.02
27463	20.124	5.1818	0.1	843.46
27464	19.847	5.0909	0.1	904.75
27465	19.94	5.1818	0.1	884.16
27466	19.663	5.0909	0.1	945.69
27467	19.755	5.1818	0.1	925.08
27468	19.478	5.0909	0.1	986.86
27469	19.57	5.1818	0.1	966.21
27470	19.294	5.0909	0.1	1028.2
27471	19.386	5.1818	0.1	1007.6
27472	19.109	5.0909	0.1	1069.8
27473	19.201	5.1818	0.1	1049.1
27474	18.924	5.0909	0.1	1111.7
27475	19.017	5.1818	0.1	1090.9
27476	18.74	5.0909	0.1	1153.7
27477	18.832	5.1818	0.1	1132.8
27478	18.555	5.0909	0.1	1195.9
27479	18.648	5.1818	0.1	1175.
27480	18.371	5.0909	0.1	1238.4
27481	18.463	5.1818	0.1	1217.4
27482	18.186	5.0909	0.1	1281.1
27483	18.278	5.1818	0.1	1260.
27484	18.002	5.0909	0.1	1323.9
27485	18.094	5.1818	0.1	1302.8
27486	17.817	5.0909	0.1	1367.
27487	17.909	5.1818	0.1	1345.8
27488	17.632	5.0909	0.1	1410.3
27489	17.725	5.1818	0.1	1389.1
27490	17.448	5.0909	0.1	1453.8
27491	17.54	5.1818	0.1	1432.5
27492	17.263	5.0909	0.1	1497.6
27493	17.356	5.1818	0.1	1476.1
27494	17.079	5.0909	0.1	1541.5
27495	17.171	5.1818	0.1	1520.
27496	16.894	5.0909	0.1	1585.6
27497	16.986	5.1818	0.1	1564.
27498	16.71	5.0909	0.1	1629.9
27499	16.802	5.1818	0.1	1608.3
27500	16.525	5.0909	0.1	1674.5
27501	16.617	5.1818	0.1	1652.7
27502	16.34	5.0909	0.1	1719.2
27503	16.433	5.1818	0.1	1697.4
27504	16.156	5.0909	0.1	1764.1
27505	16.248	5.1818	0.1	1742.2
27506	15.971	5.0909	0.1	1809.3
27507	16.064	5.1818	0.1	1787.3
27508	15.787	5.0909	0.1	1854.6
27509	15.879	5.1818	0.1	1832.5
27510	15.602	5.0909	0.1	1900.2
27511	15.694	5.1818	0.1	1878.
27512	15.418	5.0909	0.1	1945.9
27513	15.51	5.1818	0.1	1923.7
27514	15.233	5.0909	0.1	1991.8
27515	15.325	5.1818	0.1	1969.5
27516	15.048	5.0909	0.1	2038.
27517	15.141	5.1818	0.1	2015.6
27518	14.864	5.0909	0.1	2084.3
27519	14.956	5.1818	0.1	2061.8
27520	14.679	5.0909	0.1	2130.8
27521	14.772	5.1818	0.1	2108.3
27522	14.495	5.0909	0.1	2177.5
27523	14.587	5.1818	0.1	2154.9
27524	14.31	5.0909	0.1	2224.4
27525	14.402	5.1818	0.1	2201.7
27526	14.126	5.0909	0.1	2271.5
27527	14.218	5.1818	0.1	2248.8
27528	13.941	5.0909	0.1	2318.8
27529	14.033	5.1818	0.1	2296.
27530	13.756	5.0909	0.1	2366.2
27531	13.849	5.1818	0.1	2343.4
27532	13.572	5.0909	0.1	2413.9
27533	13.664	5.1818	0.1	2391.
27534	13.387	5.0909	0.1	2461.7
27535	13.48	5.1818	0.1	2438.7
27536	13.203	5.0909	0.1	2509.7
27537	13.295	5.1818	0.1	2486.7
27538	13.018	5.0909	0.1	2557.9
27539	13.11	5.1818	0.1	2534.8
27540	12.834	5.0909	0.1	2606.3
27541	12.926	5.1818	0.1	2583.2
27542	12.649	5.0909	0.1	2654.8
27543	12.741	5.1818	0.1	2631.7
27544	12.465	5.0909	0.1	2703.5
27545	12.557	5.1818	0.1	2680.4
27546	12.28	5.0909	0.1	2752.4
27547	12.372	5.1818	0.1	2729.2
27548	12.095	5.0909	0.1	2801.4
27549	12.188	5.1818	0.1	2778.3
27550	11.911	5.0909	0.1	2850.7
27551	12.003	5.1818	0.1	2827.5
27552	11.726	5.0909	0.1	2900.
27553	11.819	5.1818	0.1	2876.9
27554	11.542	5.0909	0.1	2949.6
27555	11.634	5.1818	0.1	2926.4
27556	11.357	5.0909	0.1	2999.3
27557	11.449	5.1818	0.1	2976.1
27558	11.173	5.0909	0.1	3049.2
27559	11.265	5.1818	0.1	3026.
27560	10.988	5.0909	0.1	3099.2
27561	11.08	5.1818	0.1	3076.1
27562	10.803	5.0909	0.1	3149.3
27563	10.896	5.1818	0.1	3126.3
27564	10.619	5.0909	0.1	3199.6
27565	10.711	5.1818	0.1	3176.6
27566	10.434	5.0909	0.1	3250.1
27567	10.527	5.1818	0.1	3227.1
27568	10.25	5.0909	0.1	3300.7
27569	10.342	5.1818	0.1	3277.8
27570	10.065	5.0909	0.1	3351.4
27571	10.157	5.1818	0.1	3328.6
27572	9.8806	5.0909	0.1	3402.2
27573	9.9728	5.1818	0.1	3379.5
27574	9.696	5.0909	0.1	3453.1
27575	9.7883	5.1818	0.1	3430.5
27576	9.5114	5.0909	0.1	3504.1
27577	9.6037	5.1818	0.1	3481.6
27578	9.3269	5.0909	0.1	3555.2
27579	9.4191	5.1818	0.1	3532.7
27580	9.1423	5.0909	0.1	3606.3
27581	9.2346	5.1818	0.1	3583.9
27582	8.9577	5.0909	0.1	3657.4
27583	9.05	5.1818	0.1	3635.1
27584	8.7731	5.0909	0.1	3708.4
27585	8.8654	5.1818	0.1	3686.2
27586	8.5886	5.0909	0.1	3759.3
27587	8.6809	5.1818	0.1	3737.1
27588	8.404	5.0909	0.1	3809.9
27589	8.4963	5.1818	0.1	3787.8
27590	8.2194	5.0909	0.1	3860.1
27591	8.3117	5.1818	0.1	3838.
27592	8.0349	5.0909	0.1	3909.7
27593	8.1272	5.1818	0.1	3887.6
27594	7.8503	5.0909	0.1	3958.4
27595	7.9426	5.1818	0.1	3936.4
27596	7.6657	5.0909	0.1	4006.
27597	7.758	5.1818	0.1	3983.9
27598	7.4812	5.0909	0.1	4051.8
27599	7.5735	5.1818	0.1	4029.7
27600	7.2966	5.0909	0.1	4095.4
27601	7.3889	5.1818	0.1	4073.3
27602	7.112	5.0909	0.1	4136.
27603	7.2043	5.1818	0.1	4113.8
27604	6.9275	5.0909	0.1	4172.5
27605	7.0198	5.1818	0.1	4150.3
27606	6.7429	5.0909	0.1	4203.7
27607	6.8352	5.1818	0.1	4181.4
27608	6.5583	5.0909	0.1	4227.8
27609	6.6506	5.1818	0.1	4205.5
27610	6.3738	5.0909	0.1	4242.8
27611	6.466	5.1818	0.1	4220.4
27612	6.1892	5.0909	0.1	4246.
27613	6.2815	5.1818	0.1	4223.7
27614	6.0046	5.0909	0.1	4234.2
27615	6.0969	5.1818	0.1	4212.
27616	5.8201	5.0909	0.1	4203.7
27617	5.9123	5.1818	0.1	4181.3
27618	5.6355	5.0909	0.1	4150.
27619	5.7278	5.1818	0.1	4127.1
27620	5.4509	5.0909	0.1	4068.3
27621	5.5432	5.1818	0.1	4043.9
27622	5.2664	5.0909	0.1	3954.4
27623	5.3586	5.1818	0.1	3926.2
27624	5.0818	5.0909	0.1	3805.8
27625	5.1741	5.1818	0.1	3769.4
27626	4.8972	5.0909	0.1	3625.6
27627	4.9895	5.1818	0.1	3572.1
27628	4.7127	5.0909	0.1	3429.1
27629	4.8049	5.1818	0.1	3341.2
27630	4.5281	5.0909	0.1	3256.9
27631	4.6204	5.1818	0.1	3101.7
27632	4.3435	5.0909	0.1	3252.4
27633	4.4358	5.1818	0.1	2915.7
27634	4.2512	5.1818	0.1	3005.2
27635	4.159	5.0909	0.1	2723.1
27636	23.723	5.2727	0.1	128.84
27637	23.815	5.3636	0.1	111.01
27638	23.908	5.2727	0.1	111.3
27639	23.539	5.2727	0.1	152.36
27640	23.631	5.3636	0.1	131.95
27641	23.354	5.2727	0.1	180.65
27642	23.446	5.3636	0.1	159.13
27643	23.169	5.2727	0.1	212.07
27644	23.262	5.3636	0.1	190.19
27645	22.985	5.2727	0.1	245.59
27646	23.077	5.3636	0.1	223.68
27647	22.8	5.2727	0.1	280.57
27648	22.893	5.3636	0.1	258.77
27649	22.616	5.2727	0.1	316.58
27650	22.708	5.3636	0.1	294.95
27651	22.431	5.2727	0.1	353.36
27652	22.523	5.3636	0.1	331.91
27653	22.247	5.2727	0.1	390.73
27654	22.339	5.3636	0.1	369.45
27655	22.062	5.2727	0.1	428.57
27656	22.154	5.3636	0.1	407.44
27657	21.877	5.2727	0.1	466.8
27658	21.97	5.3636	0.1	445.81
27659	21.693	5.2727	0.1	505.37
27660	21.785	5.3636	0.1	484.49
27661	21.508	5.2727	0.1	544.23
27662	21.601	5.3636	0.1	523.45
27663	21.324	5.2727	0.1	583.36
27664	21.416	5.3636	0.1	562.66
27665	21.139	5.2727	0.1	622.74
27666	21.231	5.3636	0.1	602.1
27667	20.955	5.2727	0.1	662.35
27668	21.047	5.3636	0.1	641.76
27669	20.77	5.2727	0.1	702.18
27670	20.862	5.3636	0.1	681.63
27671	20.585	5.2727	0.1	742.24
27672	20.678	5.3636	0.1	721.71
27673	20.401	5.2727	0.1	782.51
27674	20.493	5.3636	0.1	761.99
27675	20.216	5.2727	0.1	822.99
27676	20.309	5.3636	0.1	802.47
27677	20.032	5.2727	0.1	863.67
27678	20.124	5.3636	0.1	843.15
27679	19.847	5.2727	0.1	904.57
27680	19.94	5.3636	0.1	884.02
27681	19.663	5.2727	0.1	945.67
27682	19.755	5.3636	0.1	925.09
27683	19.478	5.2727	0.1	986.97
27684	19.57	5.3636	0.1	966.37
27685	19.294	5.2727	0.1	1028.5
27686	19.386	5.3636	0.1	1007.8
27687	19.109	5.2727	0.1	1070.2
27688	19.201	5.3636	0.1	1049.5
27689	18.924	5.2727	0.1	1112.1
27690	19.017	5.3636	0.1	1091.4
27691	18.74	5.2727	0.1	1154.2
27692	18.832	5.3636	0.1	1133.4
27693	18.555	5.2727	0.1	1196.6
27694	18.648	5.3636	0.1	1175.7
27695	18.371	5.2727	0.1	1239.1
27696	18.463	5.3636	0.1	1218.2
27697	18.186	5.2727	0.1	1281.8
27698	18.278	5.3636	0.1	1260.8
27699	18.002	5.2727	0.1	1324.8
27700	18.094	5.3636	0.1	1303.7
27701	17.817	5.2727	0.1	1367.9
27702	17.909	5.3636	0.1	1346.8
27703	17.632	5.2727	0.1	1411.3
27704	17.725	5.3636	0.1	1390.1
27705	17.448	5.2727	0.1	1454.8
27706	17.54	5.3636	0.1	1433.6
27707	17.263	5.2727	0.1	1498.6
27708	17.356	5.3636	0.1	1477.2
27709	17.079	5.2727	0.1	1542.6
27710	17.171	5.3636	0.1	1521.1
27711	16.894	5.2727	0.1	1586.7
27712	16.986	5.3636	0.1	1565.2
27713	16.71	5.2727	0.1	1631.1
27714	16.802	5.3636	0.1	1609.5
27715	16.525	5.2727	0.1	1675.7
27716	16.617	5.3636	0.1	1654.
27717	16.34	5.2727	0.1	1720.4
27718	16.433	5.3636	0.1	1698.7
27719	16.156	5.2727	0.1	1765.4
27720	16.248	5.3636	0.1	1743.6
27721	15.971	5.2727	0.1	1810.6
27722	16.064	5.3636	0.1	1788.7
27723	15.787	5.2727	0.1	1856.
27724	15.879	5.3636	0.1	1834.
27725	15.602	5.2727	0.1	1901.6
27726	15.694	5.3636	0.1	1879.4
27727	15.418	5.2727	0.1	1947.3
27728	15.51	5.3636	0.1	1925.1
27729	15.233	5.2727	0.1	1993.3
27730	15.325	5.3636	0.1	1971.
27731	15.048	5.2727	0.1	2039.5
27732	15.141	5.3636	0.1	2017.1
27733	14.864	5.2727	0.1	2085.8
27734	14.956	5.3636	0.1	2063.4
27735	14.679	5.2727	0.1	2132.4
27736	14.772	5.3636	0.1	2109.9
27737	14.495	5.2727	0.1	2179.2
27738	14.587	5.3636	0.1	2156.6
27739	14.31	5.2727	0.1	2226.1
27740	14.402	5.3636	0.1	2203.5
27741	14.126	5.2727	0.1	2273.3
27742	14.218	5.3636	0.1	2250.6
27743	13.941	5.2727	0.1	2320.6
27744	14.033	5.3636	0.1	2297.8
27745	13.756	5.2727	0.1	2368.1
27746	13.849	5.3636	0.1	2345.3
27747	13.572	5.2727	0.1	2415.9
27748	13.664	5.3636	0.1	2393.
27749	13.387	5.2727	0.1	2463.8
27750	13.48	5.3636	0.1	2440.8
27751	13.203	5.2727	0.1	2511.9
27752	13.295	5.3636	0.1	2488.9
27753	13.018	5.2727	0.1	2560.1
27754	13.11	5.3636	0.1	2537.1
27755	12.834	5.2727	0.1	2608.6
27756	12.926	5.3636	0.1	2585.5
27757	12.649	5.2727	0.1	2657.3
27758	12.741	5.3636	0.1	2634.2
27759	12.465	5.2727	0.1	2706.1
27760	12.557	5.3636	0.1	2683.
27761	12.28	5.2727	0.1	2755.1
27762	12.372	5.3636	0.1	2732.
27763	12.095	5.2727	0.1	2804.3
27764	12.188	5.3636	0.1	2781.1
27765	11.911	5.2727	0.1	2853.7
27766	12.003	5.3636	0.1	2830.5
27767	11.726	5.2727	0.1	2903.3
27768	11.819	5.3636	0.1	2880.1
27769	11.542	5.2727	0.1	2953.
27770	11.634	5.3636	0.1	2929.8
27771	11.357	5.2727	0.1	3002.9
27772	11.449	5.3636	0.1	2979.7
27773	11.173	5.2727	0.1	3053.
27774	11.265	5.3636	0.1	3029.8
27775	10.988	5.2727	0.1	3103.2
27776	11.08	5.3636	0.1	3080.1
27777	10.803	5.2727	0.1	3153.6
27778	10.896	5.3636	0.1	3130.5
27779	10.619	5.2727	0.1	3204.1
27780	10.711	5.3636	0.1	3181.1
27781	10.434	5.2727	0.1	3254.8
27782	10.527	5.3636	0.1	3231.8
27783	10.25	5.2727	0.1	3305.7
27784	10.342	5.3636	0.1	3282.7
27785	10.065	5.2727	0.1	3356.7
27786	10.157	5.3636	0.1	3333.8
27787	9.8806	5.2727	0.1	3407.7
27788	9.9728	5.3636	0.1	3384.9
27789	9.696	5.2727	0.1	3458.9
27790	9.7883	5.3636	0.1	3436.2
27791	9.5114	5.2727	0.1	3510.2
27792	9.6037	5.3636	0.1	3487.5
27793	9.3269	5.2727	0.1	3561.5
27794	9.4191	5.3636	0.1	3538.9
27795	9.1423	5.2727	0.1	3612.7
27796	9.2346	5.3636	0.1	3590.3
27797	8.9577	5.2727	0.1	3663.9
27798	9.05	5.3636	0.1	3641.6
27799	8.7731	5.2727	0.1	3714.9
27800	8.8654	5.3636	0.1	3692.7
27801	8.5886	5.2727	0.1	3765.7
27802	8.6809	5.3636	0.1	3743.5
27803	8.404	5.2727	0.1	3816.
27804	8.4963	5.3636	0.1	3794.
27805	8.2194	5.2727	0.1	3865.6
27806	8.3117	5.3636	0.1	3843.8
27807	8.0349	5.2727	0.1	3914.4
27808	8.1272	5.3636	0.1	3892.7
27809	7.8503	5.2727	0.1	3961.9
27810	7.9426	5.3636	0.1	3940.4
27811	7.6657	5.2727	0.1	4007.7
27812	7.758	5.3636	0.1	3986.5
27813	7.4812	5.2727	0.1	4051.3
27814	7.5735	5.3636	0.1	4030.3
27815	7.2966	5.2727	0.1	4091.7
27816	7.3889	5.3636	0.1	4071.2
27817	7.112	5.2727	0.1	4128.1
27818	7.2043	5.3636	0.1	4108.1
27819	6.9275	5.2727	0.1	4159.1
27820	7.0198	5.3636	0.1	4139.8
27821	6.7429	5.2727	0.1	4183.1
27822	6.8352	5.3636	0.1	4164.9
27823	6.5583	5.2727	0.1	4198.
27824	6.6506	5.3636	0.1	4181.2
27825	6.3738	5.2727	0.1	4201.2
27826	6.466	5.3636	0.1	4186.3
27827	6.1892	5.2727	0.1	4189.4
27828	6.2815	5.3636	0.1	4177.
27829	6.0046	5.2727	0.1	4158.4
27830	6.0969	5.3636	0.1	4149.4
27831	5.8201	5.2727	0.1	4103.5
27832	5.9123	5.3636	0.1	4098.8
27833	5.6355	5.2727	0.1	4018.9
27834	5.7278	5.3636	0.1	4019.5
27835	5.4509	5.2727	0.1	3898.1
27836	5.5432	5.3636	0.1	3905.
27837	5.2664	5.2727	0.1	3734.9
27838	5.3586	5.3636	0.1	3748.3
27839	5.0818	5.2727	0.1	3524.7
27840	5.1741	5.3636	0.1	3542.9
27841	4.8972	5.2727	0.1	3268.4
27842	4.9895	5.3636	0.1	3284.9
27843	4.7127	5.2727	0.1	2980.5
27844	4.8049	5.3636	0.1	2978.8
27845	4.5281	5.2727	0.1	2704.8
27846	4.6204	5.3636	0.1	2647.
27847	4.3435	5.2727	0.1	2582.2
27848	4.4358	5.3636	0.1	2354.7
27849	4.2512	5.3636	0.1	2315.4
27850	4.159	5.2727	0.1	2128.
27851	23.723	5.4545	0.1	112.98
27852	23.815	5.5455	0.1	92.906
27853	23.908	5.4545	0.1	94.048
27854	23.539	5.4545	0.1	138.28
27855	23.631	5.5455	0.1	115.97
27856	23.354	5.4545	0.1	168.6
27857	23.446	5.5455	0.1	145.84
27858	23.169	5.4545	0.1	201.89
27859	23.262	5.5455	0.1	179.31
27860	22.985	5.4545	0.1	237.02
27861	23.077	5.5455	0.1	214.74
27862	22.8	5.4545	0.1	273.34
27863	22.893	5.5455	0.1	251.38
27864	22.616	5.4545	0.1	310.46
27865	22.708	5.5455	0.1	288.79
27866	22.431	5.4545	0.1	348.17
27867	22.523	5.5455	0.1	326.75
27868	22.247	5.4545	0.1	386.32
27869	22.339	5.5455	0.1	365.12
27870	22.062	5.4545	0.1	424.82
27871	22.154	5.5455	0.1	403.81
27872	21.877	5.4545	0.1	463.63
27873	21.97	5.5455	0.1	442.77
27874	21.693	5.4545	0.1	502.69
27875	21.785	5.5455	0.1	481.96
27876	21.508	5.4545	0.1	541.99
27877	21.601	5.5455	0.1	521.37
27878	21.324	5.4545	0.1	581.51
27879	21.416	5.5455	0.1	560.97
27880	21.139	5.4545	0.1	621.22
27881	21.231	5.5455	0.1	600.75
27882	20.955	5.4545	0.1	661.14
27883	21.047	5.5455	0.1	640.72
27884	20.77	5.4545	0.1	701.25
27885	20.862	5.5455	0.1	680.87
27886	20.585	5.4545	0.1	741.55
27887	20.678	5.5455	0.1	721.19
27888	20.401	5.4545	0.1	782.03
27889	20.493	5.5455	0.1	761.69
27890	20.216	5.4545	0.1	822.71
27891	20.309	5.5455	0.1	802.36
27892	20.032	5.4545	0.1	863.57
27893	20.124	5.5455	0.1	843.21
27894	19.847	5.4545	0.1	904.62
27895	19.94	5.5455	0.1	884.25
27896	19.663	5.4545	0.1	945.87
27897	19.755	5.5455	0.1	925.47
27898	19.478	5.4545	0.1	987.3
27899	19.57	5.5455	0.1	966.87
27900	19.294	5.4545	0.1	1028.9
27901	19.386	5.5455	0.1	1008.5
27902	19.109	5.4545	0.1	1070.7
27903	19.201	5.5455	0.1	1050.2
27904	18.924	5.4545	0.1	1112.8
27905	19.017	5.5455	0.1	1092.2
27906	18.74	5.4545	0.1	1155.
27907	18.832	5.5455	0.1	1134.3
27908	18.555	5.4545	0.1	1197.4
27909	18.648	5.5455	0.1	1176.7
27910	18.371	5.4545	0.1	1240.
27911	18.463	5.5455	0.1	1219.2
27912	18.186	5.4545	0.1	1282.8
27913	18.278	5.5455	0.1	1262.
27914	18.002	5.4545	0.1	1325.8
27915	18.094	5.5455	0.1	1304.9
27916	17.817	5.4545	0.1	1369.
27917	17.909	5.5455	0.1	1348.
27918	17.632	5.4545	0.1	1412.4
27919	17.725	5.5455	0.1	1391.3
27920	17.448	5.4545	0.1	1456.
27921	17.54	5.5455	0.1	1434.9
27922	17.263	5.4545	0.1	1499.8
27923	17.356	5.5455	0.1	1478.6
27924	17.079	5.4545	0.1	1543.8
27925	17.171	5.5455	0.1	1522.5
27926	16.894	5.4545	0.1	1588.
27927	16.986	5.5455	0.1	1566.6
27928	16.71	5.4545	0.1	1632.4
27929	16.802	5.5455	0.1	1610.9
27930	16.525	5.4545	0.1	1677.
27931	16.617	5.5455	0.1	1655.5
27932	16.34	5.4545	0.1	1721.8
27933	16.433	5.5455	0.1	1700.2
27934	16.156	5.4545	0.1	1766.8
27935	16.248	5.5455	0.1	1745.1
27936	15.971	5.4545	0.1	1812.1
27937	16.064	5.5455	0.1	1790.2
27938	15.787	5.4545	0.1	1857.5
27939	15.879	5.5455	0.1	1835.6
27940	15.602	5.4545	0.1	1903.1
27941	15.694	5.5455	0.1	1881.1
27942	15.418	5.4545	0.1	1948.9
27943	15.51	5.5455	0.1	1926.8
27944	15.233	5.4545	0.1	1994.9
27945	15.325	5.5455	0.1	1972.8
27946	15.048	5.4545	0.1	2041.1
27947	15.141	5.5455	0.1	2018.9
27948	14.864	5.4545	0.1	2087.5
27949	14.956	5.5455	0.1	2065.2
27950	14.679	5.4545	0.1	2134.1
27951	14.772	5.5455	0.1	2111.8
27952	14.495	5.4545	0.1	2181.
27953	14.587	5.5455	0.1	2158.5
27954	14.31	5.4545	0.1	2228.
27955	14.402	5.5455	0.1	2205.4
27956	14.126	5.4545	0.1	2275.2
27957	14.218	5.5455	0.1	2252.6
27958	13.941	5.4545	0.1	2322.6
27959	14.033	5.5455	0.1	2299.9
27960	13.756	5.4545	0.1	2370.2
27961	13.849	5.5455	0.1	2347.4
27962	13.572	5.4545	0.1	2418.
27963	13.664	5.5455	0.1	2395.2
27964	13.387	5.4545	0.1	2466.
27965	13.48	5.5455	0.1	2443.1
27966	13.203	5.4545	0.1	2514.2
27967	13.295	5.5455	0.1	2491.3
27968	13.018	5.4545	0.1	2562.5
27969	13.11	5.5455	0.1	2539.6
27970	12.834	5.4545	0.1	2611.1
27971	12.926	5.5455	0.1	2588.1
27972	12.649	5.4545	0.1	2659.9
27973	12.741	5.5455	0.1	2636.9
27974	12.465	5.4545	0.1	2708.9
27975	12.557	5.5455	0.1	2685.8
27976	12.28	5.4545	0.1	2758.
27977	12.372	5.5455	0.1	2734.9
27978	12.095	5.4545	0.1	2807.4
27979	12.188	5.5455	0.1	2784.2
27980	11.911	5.4545	0.1	2856.9
27981	12.003	5.5455	0.1	2833.8
27982	11.726	5.4545	0.1	2906.6
27983	11.819	5.5455	0.1	2883.5
27984	11.542	5.4545	0.1	2956.5
27985	11.634	5.5455	0.1	2933.4
27986	11.357	5.4545	0.1	3006.6
27987	11.449	5.5455	0.1	2983.5
27988	11.173	5.4545	0.1	3056.9
27989	11.265	5.5455	0.1	3033.8
27990	10.988	5.4545	0.1	3107.4
27991	11.08	5.5455	0.1	3084.3
27992	10.803	5.4545	0.1	3158.
27993	10.896	5.5455	0.1	3134.9
27994	10.619	5.4545	0.1	3208.8
27995	10.711	5.5455	0.1	3185.7
27996	10.434	5.4545	0.1	3259.8
27997	10.527	5.5455	0.1	3236.7
27998	10.25	5.4545	0.1	3310.9
27999	10.342	5.5455	0.1	3287.9
28000	10.065	5.4545	0.1	3362.1
28001	10.157	5.5455	0.1	3339.2
28002	9.8806	5.4545	0.1	3413.4
28003	9.9728	5.5455	0.1	3390.6
28004	9.696	5.4545	0.1	3464.8
28005	9.7883	5.5455	0.1	3442.1
28006	9.5114	5.4545	0.1	3516.3
28007	9.6037	5.5455	0.1	3493.6
28008	9.3269	5.4545	0.1	3567.8
28009	9.4191	5.5455	0.1	3545.2
28010	9.1423	5.4545	0.1	3619.1
28011	9.2346	5.5455	0.1	3596.7
28012	8.9577	5.4545	0.1	3670.4
28013	9.05	5.5455	0.1	3648.1
28014	8.7731	5.4545	0.1	3721.3
28015	8.8654	5.5455	0.1	3699.2
28016	8.5886	5.4545	0.1	3771.9
28017	8.6809	5.5455	0.1	3749.9
28018	8.404	5.4545	0.1	3821.8
28019	8.4963	5.5455	0.1	3800.
28020	8.2194	5.4545	0.1	3870.9
28021	8.3117	5.5455	0.1	3849.4
28022	8.0349	5.4545	0.1	3918.8
28023	8.1272	5.5455	0.1	3897.5
28024	7.8503	5.4545	0.1	3965.
28025	7.9426	5.5455	0.1	3944.2
28026	7.6657	5.4545	0.1	4009.1
28027	7.758	5.5455	0.1	3988.7
28028	7.4812	5.4545	0.1	4050.2
28029	7.5735	5.5455	0.1	4030.5
28030	7.2966	5.4545	0.1	4087.5
28031	7.3889	5.5455	0.1	4068.7
28032	7.112	5.4545	0.1	4119.8
28033	7.2043	5.5455	0.1	4102.1
28034	6.9275	5.4545	0.1	4145.6
28035	7.0198	5.5455	0.1	4129.4
28036	6.7429	5.4545	0.1	4162.9
28037	6.8352	5.5455	0.1	4148.7
28038	6.5583	5.4545	0.1	4169.3
28039	6.6506	5.5455	0.1	4157.8
28040	6.3738	5.4545	0.1	4161.8
28041	6.466	5.5455	0.1	4153.9
28042	6.1892	5.4545	0.1	4136.7
28043	6.2815	5.5455	0.1	4133.5
28044	6.0046	5.4545	0.1	4089.2
28045	6.0969	5.5455	0.1	4092.2
28046	5.8201	5.4545	0.1	4013.8
28047	5.9123	5.5455	0.1	4025.
28048	5.6355	5.4545	0.1	3904.
28049	5.7278	5.5455	0.1	3925.5
28050	5.4509	5.4545	0.1	3752.5
28051	5.5432	5.5455	0.1	3786.7
28052	5.2664	5.4545	0.1	3551.8
28053	5.3586	5.5455	0.1	3601.
28054	5.0818	5.4545	0.1	3295.6
28055	5.1741	5.5455	0.1	3360.7
28056	4.8972	5.4545	0.1	2982.2
28057	4.9895	5.5455	0.1	3060.3
28058	4.7127	5.4545	0.1	2621.5
28059	4.8049	5.5455	0.1	2700.1
28060	4.5281	5.4545	0.1	2252.
28061	4.6204	5.5455	0.1	2294.6
28062	4.3435	5.4545	0.1	2006.3
28063	4.4358	5.5455	0.1	1897.4
28064	4.2512	5.5455	0.1	1708.3
28065	4.159	5.4545	0.1	1601.2
28066	23.723	5.6364	0.1	95.033
28067	23.815	5.7273	0.1	71.88
28068	23.908	5.6364	0.1	73.549
28069	23.539	5.6364	0.1	123.48
28070	23.631	5.7273	0.1	100.21
28071	23.354	5.6364	0.1	156.8
28072	23.446	5.7273	0.1	134.53
28073	23.169	5.6364	0.1	192.47
28074	23.262	5.7273	0.1	171.1
28075	22.985	5.6364	0.1	229.41
28076	23.077	5.7273	0.1	208.72
28077	22.8	5.6364	0.1	267.12
28078	22.893	5.7273	0.1	246.96
28079	22.616	5.6364	0.1	305.34
28080	22.708	5.7273	0.1	285.6
28081	22.431	5.6364	0.1	343.94
28082	22.523	5.7273	0.1	324.53
28083	22.247	5.6364	0.1	382.82
28084	22.339	5.7273	0.1	363.68
28085	22.062	5.6364	0.1	421.94
28086	22.154	5.7273	0.1	403.02
28087	21.877	5.6364	0.1	461.28
28088	21.97	5.7273	0.1	442.52
28089	21.693	5.6364	0.1	500.79
28090	21.785	5.7273	0.1	482.17
28091	21.508	5.6364	0.1	540.49
28092	21.601	5.7273	0.1	521.97
28093	21.324	5.6364	0.1	580.35
28094	21.416	5.7273	0.1	561.91
28095	21.139	5.6364	0.1	620.37
28096	21.231	5.7273	0.1	601.99
28097	20.955	5.6364	0.1	660.56
28098	21.047	5.7273	0.1	642.22
28099	20.77	5.6364	0.1	700.91
28100	20.862	5.7273	0.1	682.59
28101	20.585	5.6364	0.1	741.43
28102	20.678	5.7273	0.1	723.11
28103	20.401	5.6364	0.1	782.11
28104	20.493	5.7273	0.1	763.78
28105	20.216	5.6364	0.1	822.96
28106	20.309	5.7273	0.1	804.61
28107	20.032	5.6364	0.1	863.98
28108	20.124	5.7273	0.1	845.6
28109	19.847	5.6364	0.1	905.18
28110	19.94	5.7273	0.1	886.75
28111	19.663	5.6364	0.1	946.55
28112	19.755	5.7273	0.1	928.07
28113	19.478	5.6364	0.1	988.09
28114	19.57	5.7273	0.1	969.56
28115	19.294	5.6364	0.1	1029.8
28116	19.386	5.7273	0.1	1011.2
28117	19.109	5.6364	0.1	1071.7
28118	19.201	5.7273	0.1	1053.1
28119	18.924	5.6364	0.1	1113.8
28120	19.017	5.7273	0.1	1095.1
28121	18.74	5.6364	0.1	1156.1
28122	18.832	5.7273	0.1	1137.3
28123	18.555	5.6364	0.1	1198.6
28124	18.648	5.7273	0.1	1179.7
28125	18.371	5.6364	0.1	1241.3
28126	18.463	5.7273	0.1	1222.2
28127	18.186	5.6364	0.1	1284.1
28128	18.278	5.7273	0.1	1265.
28129	18.002	5.6364	0.1	1327.2
28130	18.094	5.7273	0.1	1308.
28131	17.817	5.6364	0.1	1370.4
28132	17.909	5.7273	0.1	1351.1
28133	17.632	5.6364	0.1	1413.9
28134	17.725	5.7273	0.1	1394.5
28135	17.448	5.6364	0.1	1457.5
28136	17.54	5.7273	0.1	1438.
28137	17.263	5.6364	0.1	1501.3
28138	17.356	5.7273	0.1	1481.7
28139	17.079	5.6364	0.1	1545.4
28140	17.171	5.7273	0.1	1525.7
28141	16.894	5.6364	0.1	1589.6
28142	16.986	5.7273	0.1	1569.8
28143	16.71	5.6364	0.1	1634.1
28144	16.802	5.7273	0.1	1614.1
28145	16.525	5.6364	0.1	1678.7
28146	16.617	5.7273	0.1	1658.6
28147	16.34	5.6364	0.1	1723.5
28148	16.433	5.7273	0.1	1703.4
28149	16.156	5.6364	0.1	1768.6
28150	16.248	5.7273	0.1	1748.3
28151	15.971	5.6364	0.1	1813.8
28152	16.064	5.7273	0.1	1793.4
28153	15.787	5.6364	0.1	1859.3
28154	15.879	5.7273	0.1	1838.8
28155	15.602	5.6364	0.1	1904.9
28156	15.694	5.7273	0.1	1884.3
28157	15.418	5.6364	0.1	1950.8
28158	15.51	5.7273	0.1	1930.1
28159	15.233	5.6364	0.1	1996.8
28160	15.325	5.7273	0.1	1976.
28161	15.048	5.6364	0.1	2043.1
28162	15.141	5.7273	0.1	2022.1
28163	14.864	5.6364	0.1	2089.5
28164	14.956	5.7273	0.1	2068.5
28165	14.679	5.6364	0.1	2136.2
28166	14.772	5.7273	0.1	2115.1
28167	14.495	5.6364	0.1	2183.
28168	14.587	5.7273	0.1	2161.8
28169	14.31	5.6364	0.1	2230.1
28170	14.402	5.7273	0.1	2208.8
28171	14.126	5.6364	0.1	2277.4
28172	14.218	5.7273	0.1	2256.
28173	13.941	5.6364	0.1	2324.8
28174	14.033	5.7273	0.1	2303.3
28175	13.756	5.6364	0.1	2372.5
28176	13.849	5.7273	0.1	2350.9
28177	13.572	5.6364	0.1	2420.4
28178	13.664	5.7273	0.1	2398.7
28179	13.387	5.6364	0.1	2468.4
28180	13.48	5.7273	0.1	2446.7
28181	13.203	5.6364	0.1	2516.7
28182	13.295	5.7273	0.1	2494.9
28183	13.018	5.6364	0.1	2565.2
28184	13.11	5.7273	0.1	2543.3
28185	12.834	5.6364	0.1	2613.9
28186	12.926	5.7273	0.1	2591.9
28187	12.649	5.6364	0.1	2662.8
28188	12.741	5.7273	0.1	2640.7
28189	12.465	5.6364	0.1	2711.9
28190	12.557	5.7273	0.1	2689.8
28191	12.28	5.6364	0.1	2761.2
28192	12.372	5.7273	0.1	2739.
28193	12.095	5.6364	0.1	2810.7
28194	12.188	5.7273	0.1	2788.5
28195	11.911	5.6364	0.1	2860.4
28196	12.003	5.7273	0.1	2838.1
28197	11.726	5.6364	0.1	2910.3
28198	11.819	5.7273	0.1	2888.
28199	11.542	5.6364	0.1	2960.4
28200	11.634	5.7273	0.1	2938.
28201	11.357	5.6364	0.1	3010.7
28202	11.449	5.7273	0.1	2988.3
28203	11.173	5.6364	0.1	3061.1
28204	11.265	5.7273	0.1	3038.8
28205	10.988	5.6364	0.1	3111.8
28206	11.08	5.7273	0.1	3089.4
28207	10.803	5.6364	0.1	3162.7
28208	10.896	5.7273	0.1	3140.3
28209	10.619	5.6364	0.1	3213.7
28210	10.711	5.7273	0.1	3191.3
28211	10.434	5.6364	0.1	3264.9
28212	10.527	5.7273	0.1	3242.5
28213	10.25	5.6364	0.1	3316.2
28214	10.342	5.7273	0.1	3293.9
28215	10.065	5.6364	0.1	3367.7
28216	10.157	5.7273	0.1	3345.4
28217	9.8806	5.6364	0.1	3419.3
28218	9.9728	5.7273	0.1	3397.
28219	9.696	5.6364	0.1	3470.9
28220	9.7883	5.7273	0.1	3448.7
28221	9.5114	5.6364	0.1	3522.6
28222	9.6037	5.7273	0.1	3500.4
28223	9.3269	5.6364	0.1	3574.2
28224	9.4191	5.7273	0.1	3552.1
28225	9.1423	5.6364	0.1	3625.7
28226	9.2346	5.7273	0.1	3603.7
28227	8.9577	5.6364	0.1	3676.9
28228	9.05	5.7273	0.1	3655.1
28229	8.7731	5.6364	0.1	3727.8
28230	8.8654	5.7273	0.1	3706.2
28231	8.5886	5.6364	0.1	3778.1
28232	8.6809	5.7273	0.1	3756.7
28233	8.404	5.6364	0.1	3827.6
28234	8.4963	5.7273	0.1	3806.5
28235	8.2194	5.6364	0.1	3876.
28236	8.3117	5.7273	0.1	3855.3
28237	8.0349	5.6364	0.1	3923.
28238	8.1272	5.7273	0.1	3902.7
28239	7.8503	5.6364	0.1	3967.9
28240	7.9426	5.7273	0.1	3948.2
28241	7.6657	5.6364	0.1	4010.2
28242	7.758	5.7273	0.1	3991.2
28243	7.4812	5.6364	0.1	4049.
28244	7.5735	5.7273	0.1	4031.
28245	7.2966	5.6364	0.1	4083.2
28246	7.3889	5.7273	0.1	4066.5
28247	7.112	5.6364	0.1	4111.6
28248	7.2043	5.7273	0.1	4096.6
28249	6.9275	5.6364	0.1	4132.4
28250	7.0198	5.7273	0.1	4119.6
28251	6.7429	5.6364	0.1	4143.6
28252	6.8352	5.7273	0.1	4133.7
28253	6.5583	5.6364	0.1	4142.3
28254	6.6506	5.7273	0.1	4136.3
28255	6.3738	5.6364	0.1	4125.4
28256	6.466	5.7273	0.1	4124.5
28257	6.1892	5.6364	0.1	4088.8
28258	6.2815	5.7273	0.1	4094.5
28259	6.0046	5.6364	0.1	4027.6
28260	6.0969	5.7273	0.1	4042.
28261	5.8201	5.6364	0.1	3935.9
28262	5.9123	5.7273	0.1	3961.6
28263	5.6355	5.6364	0.1	3807.1
28264	5.7278	5.7273	0.1	3847.1
28265	5.4509	5.6364	0.1	3633.4
28266	5.5432	5.7273	0.1	3691.4
28267	5.2664	5.6364	0.1	3407.2
28268	5.3586	5.7273	0.1	3487.
28269	5.0818	5.6364	0.1	3121.3
28270	5.1741	5.7273	0.1	3226.5
28271	4.8972	5.6364	0.1	2771.4
28272	4.9895	5.7273	0.1	2903.4
28273	4.7127	5.6364	0.1	2360.3
28274	4.8049	5.7273	0.1	2514.8
28275	4.5281	5.6364	0.1	1910.7
28276	4.6204	5.7273	0.1	2064.7
28277	4.3435	5.6364	0.1	1523.7
28278	4.4358	5.7273	0.1	1579.1
28279	4.2512	5.7273	0.1	1193.6
28280	4.159	5.6364	0.1	1118.6
28281	23.723	5.8182	0.1	77.516
28282	23.815	5.9091	0.1	48.958
28283	23.908	5.8182	0.1	48.606
28284	23.539	5.8182	0.1	112.36
28285	23.631	5.9091	0.1	82.655
28286	23.354	5.8182	0.1	149.88
28287	23.446	5.9091	0.1	118.97
28288	23.169	5.8182	0.1	188.26
28289	23.262	5.9091	0.1	156.44
28290	22.985	5.8182	0.1	227.07
28291	23.077	5.9091	0.1	194.54
28292	22.8	5.8182	0.1	266.14
28293	22.893	5.9091	0.1	233.08
28294	22.616	5.8182	0.1	305.41
28295	22.708	5.9091	0.1	271.95
28296	22.431	5.8182	0.1	344.83
28297	22.523	5.9091	0.1	311.08
28298	22.247	5.8182	0.1	384.39
28299	22.339	5.9091	0.1	350.43
28300	22.062	5.8182	0.1	424.07
28301	22.154	5.9091	0.1	389.97
28302	21.877	5.8182	0.1	463.86
28303	21.97	5.9091	0.1	429.68
28304	21.693	5.8182	0.1	503.77
28305	21.785	5.9091	0.1	469.55
28306	21.508	5.8182	0.1	543.79
28307	21.601	5.9091	0.1	509.57
28308	21.324	5.8182	0.1	583.94
28309	21.416	5.9091	0.1	549.74
28310	21.139	5.8182	0.1	624.2
28311	21.231	5.9091	0.1	590.05
28312	20.955	5.8182	0.1	664.6
28313	21.047	5.9091	0.1	630.51
28314	20.77	5.8182	0.1	705.13
28315	20.862	5.9091	0.1	671.12
28316	20.585	5.8182	0.1	745.79
28317	20.678	5.9091	0.1	711.87
28318	20.401	5.8182	0.1	786.6
28319	20.493	5.9091	0.1	752.78
28320	20.216	5.8182	0.1	827.56
28321	20.309	5.9091	0.1	793.84
28322	20.032	5.8182	0.1	868.67
28323	20.124	5.9091	0.1	835.06
28324	19.847	5.8182	0.1	909.94
28325	19.94	5.9091	0.1	876.43
28326	19.663	5.8182	0.1	951.37
28327	19.755	5.9091	0.1	917.97
28328	19.478	5.8182	0.1	992.97
28329	19.57	5.9091	0.1	959.68
28330	19.294	5.8182	0.1	1034.7
28331	19.386	5.9091	0.1	1001.6
28332	19.109	5.8182	0.1	1076.7
28333	19.201	5.9091	0.1	1043.6
28334	18.924	5.8182	0.1	1118.8
28335	19.017	5.9091	0.1	1085.8
28336	18.74	5.8182	0.1	1161.1
28337	18.832	5.9091	0.1	1128.2
28338	18.555	5.8182	0.1	1203.6
28339	18.648	5.9091	0.1	1170.8
28340	18.371	5.8182	0.1	1246.2
28341	18.463	5.9091	0.1	1213.6
28342	18.186	5.8182	0.1	1289.1
28343	18.278	5.9091	0.1	1256.5
28344	18.002	5.8182	0.1	1332.1
28345	18.094	5.9091	0.1	1299.7
28346	17.817	5.8182	0.1	1375.4
28347	17.909	5.9091	0.1	1343.
28348	17.632	5.8182	0.1	1418.8
28349	17.725	5.9091	0.1	1386.5
28350	17.448	5.8182	0.1	1462.4
28351	17.54	5.9091	0.1	1430.2
28352	17.263	5.8182	0.1	1506.3
28353	17.356	5.9091	0.1	1474.1
28354	17.079	5.8182	0.1	1550.3
28355	17.171	5.9091	0.1	1518.2
28356	16.894	5.8182	0.1	1594.5
28357	16.986	5.9091	0.1	1562.5
28358	16.71	5.8182	0.1	1638.9
28359	16.802	5.9091	0.1	1607.
28360	16.525	5.8182	0.1	1683.5
28361	16.617	5.9091	0.1	1651.7
28362	16.34	5.8182	0.1	1728.3
28363	16.433	5.9091	0.1	1696.6
28364	16.156	5.8182	0.1	1773.4
28365	16.248	5.9091	0.1	1741.6
28366	15.971	5.8182	0.1	1818.6
28367	16.064	5.9091	0.1	1786.9
28368	15.787	5.8182	0.1	1864.
28369	15.879	5.9091	0.1	1832.4
28370	15.602	5.8182	0.1	1909.6
28371	15.694	5.9091	0.1	1878.1
28372	15.418	5.8182	0.1	1955.5
28373	15.51	5.9091	0.1	1924.
28374	15.233	5.8182	0.1	2001.5
28375	15.325	5.9091	0.1	1970.1
28376	15.048	5.8182	0.1	2047.8
28377	15.141	5.9091	0.1	2016.4
28378	14.864	5.8182	0.1	2094.2
28379	14.956	5.9091	0.1	2062.9
28380	14.679	5.8182	0.1	2140.9
28381	14.772	5.9091	0.1	2109.6
28382	14.495	5.8182	0.1	2187.7
28383	14.587	5.9091	0.1	2156.6
28384	14.31	5.8182	0.1	2234.8
28385	14.402	5.9091	0.1	2203.7
28386	14.126	5.8182	0.1	2282.1
28387	14.218	5.9091	0.1	2251.
28388	13.941	5.8182	0.1	2329.6
28389	14.033	5.9091	0.1	2298.6
28390	13.756	5.8182	0.1	2377.3
28391	13.849	5.9091	0.1	2346.4
28392	13.572	5.8182	0.1	2425.2
28393	13.664	5.9091	0.1	2394.3
28394	13.387	5.8182	0.1	2473.3
28395	13.48	5.9091	0.1	2442.5
28396	13.203	5.8182	0.1	2521.6
28397	13.295	5.9091	0.1	2490.9
28398	13.018	5.8182	0.1	2570.2
28399	13.11	5.9091	0.1	2539.6
28400	12.834	5.8182	0.1	2618.9
28401	12.926	5.9091	0.1	2588.4
28402	12.649	5.8182	0.1	2667.9
28403	12.741	5.9091	0.1	2637.5
28404	12.465	5.8182	0.1	2717.1
28405	12.557	5.9091	0.1	2686.8
28406	12.28	5.8182	0.1	2766.5
28407	12.372	5.9091	0.1	2736.3
28408	12.095	5.8182	0.1	2816.1
28409	12.188	5.9091	0.1	2786.
28410	11.911	5.8182	0.1	2865.9
28411	12.003	5.9091	0.1	2835.9
28412	11.726	5.8182	0.1	2915.9
28413	11.819	5.9091	0.1	2886.1
28414	11.542	5.8182	0.1	2966.1
28415	11.634	5.9091	0.1	2936.4
28416	11.357	5.8182	0.1	3016.6
28417	11.449	5.9091	0.1	2987.
28418	11.173	5.8182	0.1	3067.2
28419	11.265	5.9091	0.1	3037.8
28420	10.988	5.8182	0.1	3118.
28421	11.08	5.9091	0.1	3088.8
28422	10.803	5.8182	0.1	3169.1
28423	10.896	5.9091	0.1	3140.1
28424	10.619	5.8182	0.1	3220.3
28425	10.711	5.9091	0.1	3191.5
28426	10.434	5.8182	0.1	3271.7
28427	10.527	5.9091	0.1	3243.1
28428	10.25	5.8182	0.1	3323.2
28429	10.342	5.9091	0.1	3294.8
28430	10.065	5.8182	0.1	3374.8
28431	10.157	5.9091	0.1	3346.7
28432	9.8806	5.8182	0.1	3426.6
28433	9.9728	5.9091	0.1	3398.7
28434	9.696	5.8182	0.1	3478.3
28435	9.7883	5.9091	0.1	3450.8
28436	9.5114	5.8182	0.1	3530.1
28437	9.6037	5.9091	0.1	3502.9
28438	9.3269	5.8182	0.1	3581.8
28439	9.4191	5.9091	0.1	3554.9
28440	9.1423	5.8182	0.1	3633.3
28441	9.2346	5.9091	0.1	3606.8
28442	8.9577	5.8182	0.1	3684.5
28443	9.05	5.9091	0.1	3658.4
28444	8.7731	5.8182	0.1	3735.2
28445	8.8654	5.9091	0.1	3709.5
28446	8.5886	5.8182	0.1	3785.2
28447	8.6809	5.9091	0.1	3760.1
28448	8.404	5.8182	0.1	3834.3
28449	8.4963	5.9091	0.1	3809.7
28450	8.2194	5.8182	0.1	3882.
28451	8.3117	5.9091	0.1	3858.1
28452	8.0349	5.8182	0.1	3927.9
28453	8.1272	5.9091	0.1	3904.9
28454	7.8503	5.8182	0.1	3971.5
28455	7.9426	5.9091	0.1	3949.5
28456	7.6657	5.8182	0.1	4012.
28457	7.758	5.9091	0.1	3991.3
28458	7.4812	5.8182	0.1	4048.6
28459	7.5735	5.9091	0.1	4029.4
28460	7.2966	5.8182	0.1	4079.9
28461	7.3889	5.9091	0.1	4062.6
28462	7.112	5.8182	0.1	4104.6
28463	7.2043	5.9091	0.1	4089.8
28464	6.9275	5.8182	0.1	4120.9
28465	7.0198	5.9091	0.1	4109.1
28466	6.7429	5.8182	0.1	4126.4
28467	6.8352	5.9091	0.1	4118.4
28468	6.5583	5.8182	0.1	4118.4
28469	6.6506	5.9091	0.1	4115.3
28470	6.3738	5.8182	0.1	4093.5
28471	6.466	5.9091	0.1	4096.4
28472	6.1892	5.8182	0.1	4047.6
28473	6.2815	5.9091	0.1	4058.
28474	6.0046	5.8182	0.1	3975.7
28475	6.0969	5.9091	0.1	3995.4
28476	5.8201	5.8182	0.1	3872.2
28477	5.9123	5.9091	0.1	3903.2
28478	5.6355	5.8182	0.1	3730.6
28479	5.7278	5.9091	0.1	3775.1
28480	5.4509	5.8182	0.1	3543.8
28481	5.5432	5.9091	0.1	3604.3
28482	5.2664	5.8182	0.1	3304.7
28483	5.3586	5.9091	0.1	3383.4
28484	5.0818	5.8182	0.1	3006.3
28485	5.1741	5.9091	0.1	3105.4
28486	4.8972	5.8182	0.1	2643.6
28487	4.9895	5.9091	0.1	2764.
28488	4.7127	5.8182	0.1	2214.1
28489	4.8049	5.9091	0.1	2355.4
28490	4.5281	5.8182	0.1	1721.9
28491	4.6204	5.9091	0.1	1878.8
28492	4.3435	5.8182	0.1	1199.
28493	4.4358	5.9091	0.1	1339.7
28494	4.159	5.8182	0.1	680.06
28495	4.2512	5.9091	0.1	765.48
28496	0.17727	0.27273	0.1	4309.3
28497	0.26591	0.18182	0.1	4540.9
28498	8.8636e-002	0.18182	0.1	2758.
28499	0.17727	9.0909e-002	0.1	3868.3
28500	0.17727	0.45455	0.1	4959.9
28501	0.26591	0.36364	0.1	4674.1
28502	8.8636e-002	0.36364	0.1	3481.5
28503	0.17727	0.63636	0.1	5564.1
28504	0.26591	0.54545	0.1	5053.1
28505	8.8636e-002	0.54545	0.1	4062.7
28506	0.17727	0.81818	0.1	6014.6
28507	0.26591	0.72727	0.1	5421.2
28508	8.8636e-002	0.72727	0.1	4472.1
28509	0.17727	1.	0.1	6346.2
28510	0.26591	0.90909	0.1	5726.9
28511	8.8636e-002	0.90909	0.1	4761.5
28512	0.17727	1.1818	0.1	6592.2
28513	0.26591	1.0909	0.1	5969.6
28514	8.8636e-002	1.0909	0.1	4971.3
28515	0.17727	1.3636	0.1	6776.1
28516	0.26591	1.2727	0.1	6159.7
28517	8.8636e-002	1.2727	0.1	5125.5
28518	0.17727	1.5455	0.1	6914.2
28519	0.26591	1.4545	0.1	6307.5
28520	8.8636e-002	1.4545	0.1	5239.8
28521	0.17727	1.7273	0.1	7017.7
28522	0.26591	1.6364	0.1	6422.1
28523	8.8636e-002	1.6364	0.1	5324.4
28524	0.17727	1.9091	0.1	7094.7
28525	0.26591	1.8182	0.1	6510.2
28526	8.8636e-002	1.8182	0.1	5386.8
28527	0.17727	2.0909	0.1	7151.4
28528	0.26591	2.	0.1	6577.2
28529	8.8636e-002	2.	0.1	5432.3
28530	0.17727	2.2727	0.1	7192.2
28531	0.26591	2.1818	0.1	6627.3
28532	8.8636e-002	2.1818	0.1	5464.8
28533	0.17727	2.4545	0.1	7220.6
28534	0.26591	2.3636	0.1	6663.8
28535	8.8636e-002	2.3636	0.1	5487.4
28536	0.17727	2.6364	0.1	7239.1
28537	0.26591	2.5455	0.1	6689.1
28538	8.8636e-002	2.5455	0.1	5502.5
28539	0.17727	2.8182	0.1	7249.6
28540	0.26591	2.7273	0.1	6705.
28541	8.8636e-002	2.7273	0.1	5511.7
28542	0.17727	3.	0.1	7253.
28543	0.26591	2.9091	0.1	6712.7
28544	8.8636e-002	2.9091	0.1	5516.
28545	0.17727	3.1818	0.1	7249.6
28546	0.26591	3.0909	0.1	6712.7
28547	8.8636e-002	3.0909	0.1	5516.
28548	0.17727	3.3636	0.1	7239.1
28549	0.26591	3.2727	0.1	6705.
28550	8.8636e-002	3.2727	0.1	5511.7
28551	0.17727	3.5455	0.1	7220.6
28552	0.26591	3.4545	0.1	6689.1
28553	8.8636e-002	3.4545	0.1	5502.5
28554	0.17727	3.7273	0.1	7192.2
28555	0.26591	3.6364	0.1	6663.8
28556	8.8636e-002	3.6364	0.1	5487.4
28557	0.17727	3.9091	0.1	7151.4
28558	0.26591	3.8182	0.1	6627.3
28559	8.8636e-002	3.8182	0.1	5464.8
28560	0.17727	4.0909	0.1	7094.7
28561	0.26591	4.	0.1	6577.2
28562	8.8636e-002	4.	0.1	5432.3
28563	0.17727	4.2727	0.1	7017.7
28564	0.26591	4.1818	0.1	6510.2
28565	8.8636e-002	4.1818	0.1	5386.8
28566	0.17727	4.4545	0.1	6914.2
28567	0.26591	4.3636	0.1	6422.1
28568	8.8636e-002	4.3636	0.1	5324.4
28569	0.17727	4.6364	0.1	6776.1
28570	0.26591	4.5455	0.1	6307.5
28571	8.8636e-002	4.5455	0.1	5239.8
28572	0.17727	4.8182	0.1	6592.2
28573	0.26591	4.7273	0.1	6159.7
28574	8.8636e-002	4.7273	0.1	5125.5
28575	0.17727	5.	0.1	6346.2
28576	0.26591	4.9091	0.1	5969.6
28577	8.8636e-002	4.9091	0.1	4971.3
28578	0.17727	5.1818	0.1	6014.6
28579	0.26591	5.0909	0.1	5726.9
28580	8.8636e-002	5.0909	0.1	4761.5
28581	0.17727	5.3636	0.1	5564.1
28582	0.26591	5.2727	0.1	5421.2
28583	8.8636e-002	5.2727	0.1	4472.
28584	0.17727	5.5455	0.1	4959.9
28585	0.26591	5.4545	0.1	5053.1
28586	8.8636e-002	5.4545	0.1	4062.7
28587	0.17727	5.7273	0.1	4309.3
28588	0.26591	5.6364	0.1	4674.1
28589	8.8636e-002	5.6364	0.1	3481.5
28590	0.26591	5.8182	0.1	4540.9
28591	8.8636e-002	5.8182	0.1	2758.
28592	0.17727	5.9091	0.1	3868.3
28593	0.35455	0.27273	0.1	4873.1
28594	0.44318	0.18182	0.1	5264.2
28595	0.35455	9.0909e-002	0.1	4905.8
28596	0.35455	0.45455	0.1	4794.
28597	0.44318	0.36364	0.1	5034.7
28598	0.35455	0.63636	0.1	4939.5
28599	0.44318	0.54545	0.1	5048.1
28600	0.35455	0.81818	0.1	5155.4
28601	0.44318	0.72727	0.1	5180.5
28602	0.35455	1.	0.1	5366.3
28603	0.44318	0.90909	0.1	5350.6
28604	0.35455	1.1818	0.1	5549.4
28605	0.44318	1.0909	0.1	5518.5
28606	0.35455	1.3636	0.1	5701.2
28607	0.44318	1.2727	0.1	5668.6
28608	0.35455	1.5455	0.1	5824.1
28609	0.44318	1.4545	0.1	5796.7
28610	0.35455	1.7273	0.1	5922.4
28611	0.44318	1.6364	0.1	5903.1
28612	0.35455	1.9091	0.1	5999.9
28613	0.44318	1.8182	0.1	5989.8
28614	0.35455	2.0909	0.1	6060.
28615	0.44318	2.	0.1	6059.2
28616	0.35455	2.2727	0.1	6105.6
28617	0.44318	2.1818	0.1	6113.4
28618	0.35455	2.4545	0.1	6138.9
28619	0.44318	2.3636	0.1	6154.5
28620	0.35455	2.6364	0.1	6161.4
28621	0.44318	2.5455	0.1	6183.9
28622	0.35455	2.8182	0.1	6174.5
28623	0.44318	2.7273	0.1	6202.9
28624	0.35455	3.	0.1	6178.8
28625	0.44318	2.9091	0.1	6212.2
28626	0.35455	3.1818	0.1	6174.5
28627	0.44318	3.0909	0.1	6212.2
28628	0.35455	3.3636	0.1	6161.4
28629	0.44318	3.2727	0.1	6202.9
28630	0.35455	3.5455	0.1	6138.9
28631	0.44318	3.4545	0.1	6183.9
28632	0.35455	3.7273	0.1	6105.6
28633	0.44318	3.6364	0.1	6154.5
28634	0.35455	3.9091	0.1	6060.
28635	0.44318	3.8182	0.1	6113.4
28636	0.35455	4.0909	0.1	5999.9
28637	0.44318	4.	0.1	6059.2
28638	0.35455	4.2727	0.1	5922.4
28639	0.44318	4.1818	0.1	5989.8
28640	0.35455	4.4545	0.1	5824.1
28641	0.44318	4.3636	0.1	5903.1
28642	0.35455	4.6364	0.1	5701.1
28643	0.44318	4.5455	0.1	5796.7
28644	0.35455	4.8182	0.1	5549.4
28645	0.44318	4.7273	0.1	5668.6
28646	0.35455	5.	0.1	5366.3
28647	0.44318	4.9091	0.1	5518.5
28648	0.35455	5.1818	0.1	5155.4
28649	0.44318	5.0909	0.1	5350.6
28650	0.35455	5.3636	0.1	4939.5
28651	0.44318	5.2727	0.1	5180.5
28652	0.35455	5.5455	0.1	4794.
28653	0.44318	5.4545	0.1	5048.1
28654	0.35455	5.7273	0.1	4873.1
28655	0.44318	5.6364	0.1	5034.7
28656	0.44318	5.8182	0.1	5264.2
28657	0.35455	5.9091	0.1	4905.8
28658	0.53182	0.27273	0.1	5409.
28659	0.62045	0.18182	0.1	5640.3
28660	0.53182	9.0909e-002	0.1	5422.4
28661	0.53182	0.45455	0.1	5275.
28662	0.62045	0.36364	0.1	5416.9
28663	0.53182	0.63636	0.1	5282.4
28664	0.62045	0.54545	0.1	5336.8
28665	0.53182	0.81818	0.1	5373.8
28666	0.62045	0.72727	0.1	5351.3
28667	0.53182	1.	0.1	5502.7
28668	0.62045	0.90909	0.1	5426.4
28669	0.53182	1.1818	0.1	5638.2
28670	0.62045	1.0909	0.1	5529.4
28671	0.53182	1.3636	0.1	5764.8
28672	0.62045	1.2727	0.1	5639.
28673	0.53182	1.5455	0.1	5876.2
28674	0.62045	1.4545	0.1	5743.4
28675	0.53182	1.7273	0.1	5971.
28676	0.62045	1.6364	0.1	5837.4
28677	0.53182	1.9091	0.1	6049.5
28678	0.62045	1.8182	0.1	5918.6
28679	0.53182	2.0909	0.1	6112.9
28680	0.62045	2.	0.1	5986.8
28681	0.53182	2.2727	0.1	6162.7
28682	0.62045	2.1818	0.1	6042.1
28683	0.53182	2.4545	0.1	6199.9
28684	0.62045	2.3636	0.1	6085.3
28685	0.53182	2.6364	0.1	6225.7
28686	0.62045	2.5455	0.1	6117.1
28687	0.53182	2.8182	0.1	6240.9
28688	0.62045	2.7273	0.1	6137.9
28689	0.53182	3.	0.1	6245.9
28690	0.62045	2.9091	0.1	6148.2
28691	0.53182	3.1818	0.1	6240.9
28692	0.62045	3.0909	0.1	6148.2
28693	0.53182	3.3636	0.1	6225.7
28694	0.62045	3.2727	0.1	6137.9
28695	0.53182	3.5455	0.1	6199.9
28696	0.62045	3.4545	0.1	6117.1
28697	0.53182	3.7273	0.1	6162.7
28698	0.62045	3.6364	0.1	6085.3
28699	0.53182	3.9091	0.1	6112.9
28700	0.62045	3.8182	0.1	6042.1
28701	0.53182	4.0909	0.1	6049.5
28702	0.62045	4.	0.1	5986.8
28703	0.53182	4.2727	0.1	5971.
28704	0.62045	4.1818	0.1	5918.6
28705	0.53182	4.4545	0.1	5876.2
28706	0.62045	4.3636	0.1	5837.4
28707	0.53182	4.6364	0.1	5764.8
28708	0.62045	4.5455	0.1	5743.4
28709	0.53182	4.8182	0.1	5638.2
28710	0.62045	4.7273	0.1	5639.
28711	0.53182	5.	0.1	5502.7
28712	0.62045	4.9091	0.1	5529.4
28713	0.53182	5.1818	0.1	5373.8
28714	0.62045	5.0909	0.1	5426.4
28715	0.53182	5.3636	0.1	5282.4
28716	0.62045	5.2727	0.1	5351.3
28717	0.53182	5.5455	0.1	5275.
28718	0.62045	5.4545	0.1	5336.8
28719	0.53182	5.7273	0.1	5409.
28720	0.62045	5.6364	0.1	5416.9
28721	0.62045	5.8182	0.1	5640.3
28722	0.53182	5.9091	0.1	5422.4
28723	0.70909	0.27273	0.1	5640.3
28724	0.79773	0.18182	0.1	5812.9
28725	0.70909	9.0909e-002	0.1	5675.2
28726	0.70909	0.45455	0.1	5472.
28727	0.79773	0.36364	0.1	5601.2
28728	0.70909	0.63636	0.1	5401.2
28729	0.79773	0.54545	0.1	5486.6
28730	0.70909	0.81818	0.1	5402.3
28731	0.79773	0.72727	0.1	5438.7
28732	0.70909	1.	0.1	5453.1
28733	0.79773	0.90909	0.1	5446.7
28734	0.70909	1.1818	0.1	5530.8
28735	0.79773	1.0909	0.1	5492.7
28736	0.70909	1.3636	0.1	5618.4
28737	0.79773	1.2727	0.1	5559.7
28738	0.70909	1.5455	0.1	5705.3
28739	0.79773	1.4545	0.1	5634.8
28740	0.70909	1.7273	0.1	5785.5
28741	0.79773	1.6364	0.1	5709.7
28742	0.70909	1.9091	0.1	5856.3
28743	0.79773	1.8182	0.1	5779.5
28744	0.70909	2.0909	0.1	5916.3
28745	0.79773	2.	0.1	5841.4
28746	0.70909	2.2727	0.1	5965.
28747	0.79773	2.1818	0.1	5893.8
28748	0.70909	2.4545	0.1	6002.7
28749	0.79773	2.3636	0.1	5936.1
28750	0.70909	2.6364	0.1	6029.3
28751	0.79773	2.5455	0.1	5968.
28752	0.70909	2.8182	0.1	6045.2
28753	0.79773	2.7273	0.1	5989.2
28754	0.70909	3.	0.1	6050.5
28755	0.79773	2.9091	0.1	5999.8
28756	0.70909	3.1818	0.1	6045.2
28757	0.79773	3.0909	0.1	5999.8
28758	0.70909	3.3636	0.1	6029.3
28759	0.79773	3.2727	0.1	5989.2
28760	0.70909	3.5455	0.1	6002.7
28761	0.79773	3.4545	0.1	5968.
28762	0.70909	3.7273	0.1	5965.
28763	0.79773	3.6364	0.1	5936.1
28764	0.70909	3.9091	0.1	5916.3
28765	0.79773	3.8182	0.1	5893.8
28766	0.70909	4.0909	0.1	5856.3
28767	0.79773	4.	0.1	5841.4
28768	0.70909	4.2727	0.1	5785.5
28769	0.79773	4.1818	0.1	5779.5
28770	0.70909	4.4545	0.1	5705.3
28771	0.79773	4.3636	0.1	5709.7
28772	0.70909	4.6364	0.1	5618.4
28773	0.79773	4.5455	0.1	5634.8
28774	0.70909	4.8182	0.1	5530.8
28775	0.79773	4.7273	0.1	5559.7
28776	0.70909	5.	0.1	5453.1
28777	0.79773	4.9091	0.1	5492.7
28778	0.70909	5.1818	0.1	5402.3
28779	0.79773	5.0909	0.1	5446.7
28780	0.70909	5.3636	0.1	5401.2
28781	0.79773	5.2727	0.1	5438.7
28782	0.70909	5.5455	0.1	5472.
28783	0.79773	5.4545	0.1	5486.6
28784	0.70909	5.7273	0.1	5640.3
28785	0.79773	5.6364	0.1	5601.2
28786	0.79773	5.8182	0.1	5812.9
28787	0.70909	5.9091	0.1	5675.2
28788	0.88636	0.27273	0.1	5769.8
28789	0.975	0.18182	0.1	5886.3
28790	0.88636	9.0909e-002	0.1	5801.
28791	0.88636	0.45455	0.1	5611.9
28792	0.975	0.36364	0.1	5701.2
28793	0.88636	0.63636	0.1	5520.1
28794	0.975	0.54545	0.1	5585.7
28795	0.88636	0.81818	0.1	5480.2
28796	0.975	0.72727	0.1	5515.
28797	0.88636	1.	0.1	5484.6
28798	0.975	0.90909	0.1	5488.1
28799	0.88636	1.1818	0.1	5520.7
28800	0.975	1.0909	0.1	5497.4
28801	0.88636	1.3636	0.1	5575.7
28802	0.975	1.2727	0.1	5532.2
28803	0.88636	1.5455	0.1	5639.1
28804	0.975	1.4545	0.1	5582.1
28805	0.88636	1.7273	0.1	5703.7
28806	0.975	1.6364	0.1	5638.9
28807	0.88636	1.9091	0.1	5764.6
28808	0.975	1.8182	0.1	5696.6
28809	0.88636	2.0909	0.1	5819.
28810	0.975	2.	0.1	5750.8
28811	0.88636	2.2727	0.1	5864.9
28812	0.975	2.1818	0.1	5798.9
28813	0.88636	2.4545	0.1	5901.4
28814	0.975	2.3636	0.1	5839.1
28815	0.88636	2.6364	0.1	5927.8
28816	0.975	2.5455	0.1	5870.
28817	0.88636	2.8182	0.1	5943.8
28818	0.975	2.7273	0.1	5891.1
28819	0.88636	3.	0.1	5949.1
28820	0.975	2.9091	0.1	5901.7
28821	0.88636	3.1818	0.1	5943.8
28822	0.975	3.0909	0.1	5901.7
28823	0.88636	3.3636	0.1	5927.8
28824	0.975	3.2727	0.1	5891.1
28825	0.88636	3.5455	0.1	5901.4
28826	0.975	3.4545	0.1	5870.
28827	0.88636	3.7273	0.1	5864.9
28828	0.975	3.6364	0.1	5839.1
28829	0.88636	3.9091	0.1	5819.
28830	0.975	3.8182	0.1	5798.9
28831	0.88636	4.0909	0.1	5764.6
28832	0.975	4.	0.1	5750.8
28833	0.88636	4.2727	0.1	5703.7
28834	0.975	4.1818	0.1	5696.6
28835	0.88636	4.4545	0.1	5639.1
28836	0.975	4.3636	0.1	5638.9
28837	0.88636	4.6364	0.1	5575.7
28838	0.975	4.5455	0.1	5582.1
28839	0.88636	4.8182	0.1	5520.7
28840	0.975	4.7273	0.1	5532.2
28841	0.88636	5.	0.1	5484.6
28842	0.975	4.9091	0.1	5497.4
28843	0.88636	5.1818	0.1	5480.2
28844	0.975	5.0909	0.1	5488.1
28845	0.88636	5.3636	0.1	5520.1
28846	0.975	5.2727	0.1	5515.
28847	0.88636	5.5455	0.1	5611.9
28848	0.975	5.4545	0.1	5585.7
28849	0.88636	5.7273	0.1	5769.8
28850	0.975	5.6364	0.1	5701.2
28851	0.975	5.8182	0.1	5886.2
28852	0.88636	5.9091	0.1	5801.
28853	1.0636	0.27273	0.1	5815.1
28854	1.1523	0.18182	0.1	5891.8
28855	1.0636	9.0909e-002	0.1	5842.5
28856	1.0636	0.45455	0.1	5672.6
28857	1.1523	0.36364	0.1	5732.2
28858	1.0636	0.63636	0.1	5577.9
28859	1.1523	0.54545	0.1	5626.
28860	1.0636	0.81818	0.1	5520.6
28861	1.1523	0.72727	0.1	5551.
28862	1.0636	1.	0.1	5499.2
28863	1.1523	0.90909	0.1	5508.9
28864	1.0636	1.1818	0.1	5507.8
28865	1.1523	1.0909	0.1	5497.7
28866	1.0636	1.3636	0.1	5538.
28867	1.1523	1.2727	0.1	5511.5
28868	1.0636	1.5455	0.1	5581.7
28869	1.1523	1.4545	0.1	5543.
28870	1.0636	1.7273	0.1	5631.7
28871	1.1523	1.6364	0.1	5585.2
28872	1.0636	1.9091	0.1	5682.7
28873	1.1523	1.8182	0.1	5632.3
28874	1.0636	2.0909	0.1	5730.8
28875	1.1523	2.	0.1	5679.6
28876	1.0636	2.2727	0.1	5773.1
28877	1.1523	2.1818	0.1	5723.4
28878	1.0636	2.4545	0.1	5807.7
28879	1.1523	2.3636	0.1	5761.3
28880	1.0636	2.6364	0.1	5833.3
28881	1.1523	2.5455	0.1	5791.2
28882	1.0636	2.8182	0.1	5848.9
28883	1.1523	2.7273	0.1	5811.9
28884	1.0636	3.	0.1	5854.2
28885	1.1523	2.9091	0.1	5822.4
28886	1.0636	3.1818	0.1	5848.9
28887	1.1523	3.0909	0.1	5822.4
28888	1.0636	3.3636	0.1	5833.3
28889	1.1523	3.2727	0.1	5811.9
28890	1.0636	3.5455	0.1	5807.7
28891	1.1523	3.4545	0.1	5791.2
28892	1.0636	3.7273	0.1	5773.1
28893	1.1523	3.6364	0.1	5761.3
28894	1.0636	3.9091	0.1	5730.8
28895	1.1523	3.8182	0.1	5723.4
28896	1.0636	4.0909	0.1	5682.7
28897	1.1523	4.	0.1	5679.6
28898	1.0636	4.2727	0.1	5631.7
28899	1.1523	4.1818	0.1	5632.3
28900	1.0636	4.4545	0.1	5581.7
28901	1.1523	4.3636	0.1	5585.2
28902	1.0636	4.6364	0.1	5538.
28903	1.1523	4.5455	0.1	5543.
28904	1.0636	4.8182	0.1	5507.8
28905	1.1523	4.7273	0.1	5511.5
28906	1.0636	5.	0.1	5499.2
28907	1.1523	4.9091	0.1	5497.7
28908	1.0636	5.1818	0.1	5520.6
28909	1.1523	5.0909	0.1	5508.9
28910	1.0636	5.3636	0.1	5577.9
28911	1.1523	5.2727	0.1	5551.
28912	1.0636	5.5455	0.1	5672.6
28913	1.1523	5.4545	0.1	5626.
28914	1.0636	5.7273	0.1	5815.1
28915	1.1523	5.6364	0.1	5732.2
28916	1.1523	5.8182	0.1	5891.8
28917	1.0636	5.9091	0.1	5842.5
28918	1.2409	0.27273	0.1	5807.2
28919	1.3295	0.18182	0.1	5849.9
28920	1.2409	9.0909e-002	0.1	5827.2
28921	1.2409	0.45455	0.1	5684.1
28922	1.3295	0.36364	0.1	5715.5
28923	1.2409	0.63636	0.1	5597.2
28924	1.3295	0.54545	0.1	5624.
28925	1.2409	0.81818	0.1	5537.5
28926	1.3295	0.72727	0.1	5555.2
28927	1.2409	1.	0.1	5505.9
28928	1.3295	0.90909	0.1	5511.2
28929	1.2409	1.1818	0.1	5500.2
28930	1.3295	1.0909	0.1	5492.4
28931	1.2409	1.3636	0.1	5515.6
28932	1.3295	1.2727	0.1	5495.9
28933	1.2409	1.5455	0.1	5546.
28934	1.3295	1.4545	0.1	5517.
28935	1.2409	1.7273	0.1	5585.5
28936	1.3295	1.6364	0.1	5550.4
28937	1.2409	1.9091	0.1	5628.9
28938	1.3295	1.8182	0.1	5590.7
28939	1.2409	2.0909	0.1	5672.1
28940	1.3295	2.	0.1	5633.5
28941	1.2409	2.2727	0.1	5711.5
28942	1.3295	2.1818	0.1	5674.8
28943	1.2409	2.4545	0.1	5744.7
28944	1.3295	2.3636	0.1	5711.5
28945	1.2409	2.6364	0.1	5769.8
28946	1.3295	2.5455	0.1	5741.2
28947	1.2409	2.8182	0.1	5785.3
28948	1.3295	2.7273	0.1	5762.
28949	1.2409	3.	0.1	5790.5
28950	1.3295	2.9091	0.1	5772.7
28951	1.2409	3.1818	0.1	5785.3
28952	1.3295	3.0909	0.1	5772.7
28953	1.2409	3.3636	0.1	5769.8
28954	1.3295	3.2727	0.1	5762.
28955	1.2409	3.5455	0.1	5744.7
28956	1.3295	3.4545	0.1	5741.2
28957	1.2409	3.7273	0.1	5711.5
28958	1.3295	3.6364	0.1	5711.5
28959	1.2409	3.9091	0.1	5672.1
28960	1.3295	3.8182	0.1	5674.8
28961	1.2409	4.0909	0.1	5628.9
28962	1.3295	4.	0.1	5633.5
28963	1.2409	4.2727	0.1	5585.5
28964	1.3295	4.1818	0.1	5590.7
28965	1.2409	4.4545	0.1	5546.
28966	1.3295	4.3636	0.1	5550.4
28967	1.2409	4.6364	0.1	5515.6
28968	1.3295	4.5455	0.1	5517.
28969	1.2409	4.8182	0.1	5500.2
28970	1.3295	4.7273	0.1	5495.9
28971	1.2409	5.	0.1	5505.9
28972	1.3295	4.9091	0.1	5492.4
28973	1.2409	5.1818	0.1	5537.5
28974	1.3295	5.0909	0.1	5511.2
28975	1.2409	5.3636	0.1	5597.2
28976	1.3295	5.2727	0.1	5555.2
28977	1.2409	5.5455	0.1	5684.1
28978	1.3295	5.4545	0.1	5624.
28979	1.2409	5.7273	0.1	5807.2
28980	1.3295	5.6364	0.1	5715.5
28981	1.3295	5.8182	0.1	5849.9
28982	1.2409	5.9091	0.1	5827.2
28983	1.4182	0.27273	0.1	5757.
28984	1.5068	0.18182	0.1	5769.8
28985	1.4182	9.0909e-002	0.1	5767.7
28986	1.4182	0.45455	0.1	5654.3
28987	1.5068	0.36364	0.1	5659.5
28988	1.4182	0.63636	0.1	5580.6
28989	1.5068	0.54545	0.1	5585.6
28990	1.4182	0.81818	0.1	5527.5
28991	1.5068	0.72727	0.1	5529.3
28992	1.4182	1.	0.1	5496.4
28993	1.5068	0.90909	0.1	5492.3
28994	1.4182	1.1818	0.1	5487.
28995	1.5068	1.0909	0.1	5475.7
28996	1.4182	1.3636	0.1	5496.5
28997	1.5068	1.2727	0.1	5478.4
28998	1.4182	1.5455	0.1	5520.8
28999	1.5068	1.4545	0.1	5497.3
29000	1.4182	1.7273	0.1	5555.2
29001	1.5068	1.6364	0.1	5528.3
29002	1.4182	1.9091	0.1	5595.
29003	1.5068	1.8182	0.1	5567.
29004	1.4182	2.0909	0.1	5636.
29005	1.5068	2.	0.1	5609.1
29006	1.4182	2.2727	0.1	5674.6
29007	1.5068	2.1818	0.1	5650.8
29008	1.4182	2.4545	0.1	5707.8
29009	1.5068	2.3636	0.1	5688.6
29010	1.4182	2.6364	0.1	5733.3
29011	1.5068	2.5455	0.1	5719.6
29012	1.4182	2.8182	0.1	5749.2
29013	1.5068	2.7273	0.1	5741.5
29014	1.4182	3.	0.1	5754.7
29015	1.5068	2.9091	0.1	5752.9
29016	1.4182	3.1818	0.1	5749.2
29017	1.5068	3.0909	0.1	5752.9
29018	1.4182	3.3636	0.1	5733.3
29019	1.5068	3.2727	0.1	5741.5
29020	1.4182	3.5455	0.1	5707.8
29021	1.5068	3.4545	0.1	5719.6
29022	1.4182	3.7273	0.1	5674.6
29023	1.5068	3.6364	0.1	5688.6
29024	1.4182	3.9091	0.1	5636.
29025	1.5068	3.8182	0.1	5650.8
29026	1.4182	4.0909	0.1	5595.
29027	1.5068	4.	0.1	5609.1
29028	1.4182	4.2727	0.1	5555.2
29029	1.5068	4.1818	0.1	5567.
29030	1.4182	4.4545	0.1	5520.8
29031	1.5068	4.3636	0.1	5528.3
29032	1.4182	4.6364	0.1	5496.5
29033	1.5068	4.5455	0.1	5497.3
29034	1.4182	4.8182	0.1	5487.
29035	1.5068	4.7273	0.1	5478.4
29036	1.4182	5.	0.1	5496.4
29037	1.5068	4.9091	0.1	5475.7
29038	1.4182	5.1818	0.1	5527.5
29039	1.5068	5.0909	0.1	5492.3
29040	1.4182	5.3636	0.1	5580.6
29041	1.5068	5.2727	0.1	5529.3
29042	1.4182	5.5455	0.1	5654.3
29043	1.5068	5.4545	0.1	5585.6
29044	1.4182	5.7273	0.1	5757.
29045	1.5068	5.6364	0.1	5659.5
29046	1.5068	5.8182	0.1	5769.8
29047	1.4182	5.9091	0.1	5767.7
29048	1.5955	0.27273	0.1	5671.4
29049	1.6841	0.18182	0.1	5655.9
29050	1.5955	9.0909e-002	0.1	5670.5
29051	1.5955	0.45455	0.1	5590.
29052	1.6841	0.36364	0.1	5569.2
29053	1.5955	0.63636	0.1	5533.2
29054	1.6841	0.54545	0.1	5515.
29055	1.5955	0.81818	0.1	5493.
29056	1.6841	0.72727	0.1	5475.8
29057	1.5955	1.	0.1	5470.6
29058	1.6841	0.90909	0.1	5452.6
29059	1.5955	1.1818	0.1	5466.2
29060	1.6841	1.0909	0.1	5446.5
29061	1.5955	1.3636	0.1	5478.4
29062	1.6841	1.2727	0.1	5456.9
29063	1.5955	1.5455	0.1	5504.1
29064	1.6841	1.4545	0.1	5481.4
29065	1.5955	1.7273	0.1	5539.5
29066	1.6841	1.6364	0.1	5517.1
29067	1.5955	1.9091	0.1	5580.7
29068	1.6841	1.8182	0.1	5560.2
29069	1.5955	2.0909	0.1	5623.6
29070	1.6841	2.	0.1	5606.7
29071	1.5955	2.2727	0.1	5664.5
29072	1.6841	2.1818	0.1	5652.8
29073	1.5955	2.4545	0.1	5700.1
29074	1.6841	2.3636	0.1	5694.8
29075	1.5955	2.6364	0.1	5727.6
29076	1.6841	2.5455	0.1	5729.6
29077	1.5955	2.8182	0.1	5745.
29078	1.6841	2.7273	0.1	5754.4
29079	1.5955	3.	0.1	5751.
29080	1.6841	2.9091	0.1	5767.3
29081	1.5955	3.1818	0.1	5745.
29082	1.6841	3.0909	0.1	5767.3
29083	1.5955	3.3636	0.1	5727.6
29084	1.6841	3.2727	0.1	5754.4
29085	1.5955	3.5455	0.1	5700.1
29086	1.6841	3.4545	0.1	5729.6
29087	1.5955	3.7273	0.1	5664.5
29088	1.6841	3.6364	0.1	5694.8
29089	1.5955	3.9091	0.1	5623.6
29090	1.6841	3.8182	0.1	5652.8
29091	1.5955	4.0909	0.1	5580.7
29092	1.6841	4.	0.1	5606.7
29093	1.5955	4.2727	0.1	5539.5
29094	1.6841	4.1818	0.1	5560.2
29095	1.5955	4.4545	0.1	5504.1
29096	1.6841	4.3636	0.1	5517.1
29097	1.5955	4.6364	0.1	5478.4
29098	1.6841	4.5455	0.1	5481.4
29099	1.5955	4.8182	0.1	5466.2
29100	1.6841	4.7273	0.1	5456.9
29101	1.5955	5.	0.1	5470.6
29102	1.6841	4.9091	0.1	5446.5
29103	1.5955	5.1818	0.1	5493.
29104	1.6841	5.0909	0.1	5452.6
29105	1.5955	5.3636	0.1	5533.2
29106	1.6841	5.2727	0.1	5475.8
29107	1.5955	5.5455	0.1	5590.
29108	1.6841	5.4545	0.1	5515.
29109	1.5955	5.7273	0.1	5671.4
29110	1.6841	5.6364	0.1	5569.2
29111	1.6841	5.8182	0.1	5655.9
29112	1.5955	5.9091	0.1	5670.5
29113	1.7727	0.27273	0.1	5552.9
29114	1.8614	0.18182	0.1	5509.
29115	1.7727	9.0909e-002	0.1	5538.3
29116	1.7727	0.45455	0.1	5493.6
29117	1.8614	0.36364	0.1	5445.7
29118	1.7727	0.63636	0.1	5456.9
29119	1.8614	0.54545	0.1	5413.5
29120	1.7727	0.81818	0.1	5434.7
29121	1.8614	0.72727	0.1	5395.5
29122	1.7727	1.	0.1	5427.8
29123	1.8614	0.90909	0.1	5392.1
29124	1.7727	1.1818	0.1	5436.4
29125	1.8614	1.0909	0.1	5403.8
29126	1.7727	1.3636	0.1	5459.2
29127	1.8614	1.2727	0.1	5429.9
29128	1.7727	1.5455	0.1	5493.9
29129	1.8614	1.4545	0.1	5468.3
29130	1.7727	1.7273	0.1	5537.3
29131	1.8614	1.6364	0.1	5516.3
29132	1.7727	1.9091	0.1	5585.8
29133	1.8614	1.8182	0.1	5570.5
29134	1.7727	2.0909	0.1	5635.5
29135	1.8614	2.	0.1	5627.4
29136	1.7727	2.2727	0.1	5682.8
29137	1.8614	2.1818	0.1	5683.
29138	1.7727	2.4545	0.1	5724.1
29139	1.8614	2.3636	0.1	5733.6
29140	1.7727	2.6364	0.1	5756.1
29141	1.8614	2.5455	0.1	5775.4
29142	1.7727	2.8182	0.1	5776.4
29143	1.8614	2.7273	0.1	5805.3
29144	1.7727	3.	0.1	5783.4
29145	1.8614	2.9091	0.1	5820.9
29146	1.7727	3.1818	0.1	5776.4
29147	1.8614	3.0909	0.1	5820.9
29148	1.7727	3.3636	0.1	5756.1
29149	1.8614	3.2727	0.1	5805.3
29150	1.7727	3.5455	0.1	5724.1
29151	1.8614	3.4545	0.1	5775.4
29152	1.7727	3.7273	0.1	5682.8
29153	1.8614	3.6364	0.1	5733.6
29154	1.7727	3.9091	0.1	5635.5
29155	1.8614	3.8182	0.1	5683.
29156	1.7727	4.0909	0.1	5585.8
29157	1.8614	4.	0.1	5627.4
29158	1.7727	4.2727	0.1	5537.3
29159	1.8614	4.1818	0.1	5570.5
29160	1.7727	4.4545	0.1	5493.9
29161	1.8614	4.3636	0.1	5516.3
29162	1.7727	4.6364	0.1	5459.2
29163	1.8614	4.5455	0.1	5468.3
29164	1.7727	4.8182	0.1	5436.4
29165	1.8614	4.7273	0.1	5429.9
29166	1.7727	5.	0.1	5427.8
29167	1.8614	4.9091	0.1	5403.8
29168	1.7727	5.1818	0.1	5434.7
29169	1.8614	5.0909	0.1	5392.1
29170	1.7727	5.3636	0.1	5456.9
29171	1.8614	5.2727	0.1	5395.5
29172	1.7727	5.5455	0.1	5493.6
29173	1.8614	5.4545	0.1	5413.5
29174	1.7727	5.7273	0.1	5552.9
29175	1.8614	5.6364	0.1	5445.7
29176	1.8614	5.8182	0.1	5509.
29177	1.7727	5.9091	0.1	5538.3
29178	1.95	0.27273	0.1	5401.3
29179	2.0386	0.18182	0.1	5327.9
29180	1.95	9.0909e-002	0.1	5370.8
29181	1.95	0.45455	0.1	5365.1
29182	2.0386	0.36364	0.1	5287.9
29183	1.95	0.63636	0.1	5351.5
29184	2.0386	0.54545	0.1	5279.9
29185	1.95	0.81818	0.1	5352.4
29186	2.0386	0.72727	0.1	5287.3
29187	1.95	1.	0.1	5367.6
29188	2.0386	0.90909	0.1	5309.9
29189	1.95	1.1818	0.1	5396.8
29190	2.0386	1.0909	0.1	5347.
29191	1.95	1.3636	0.1	5438.5
29192	2.0386	1.2727	0.1	5397.2
29193	1.95	1.5455	0.1	5490.2
29194	2.0386	1.4545	0.1	5458.1
29195	1.95	1.7273	0.1	5549.1
29196	2.0386	1.6364	0.1	5526.7
29197	1.95	1.9091	0.1	5611.8
29198	2.0386	1.8182	0.1	5600.
29199	1.95	2.0909	0.1	5674.5
29200	2.0386	2.	0.1	5674.2
29201	1.95	2.2727	0.1	5733.4
29202	2.0386	2.1818	0.1	5745.6
29203	1.95	2.4545	0.1	5784.5
29204	2.0386	2.3636	0.1	5810.
29205	1.95	2.6364	0.1	5824.1
29206	2.0386	2.5455	0.1	5863.
29207	1.95	2.8182	0.1	5849.3
29208	2.0386	2.7273	0.1	5900.9
29209	1.95	3.	0.1	5857.9
29210	2.0386	2.9091	0.1	5920.7
29211	1.95	3.1818	0.1	5849.3
29212	2.0386	3.0909	0.1	5920.7
29213	1.95	3.3636	0.1	5824.1
29214	2.0386	3.2727	0.1	5900.9
29215	1.95	3.5455	0.1	5784.5
29216	2.0386	3.4545	0.1	5863.
29217	1.95	3.7273	0.1	5733.4
29218	2.0386	3.6364	0.1	5810.
29219	1.95	3.9091	0.1	5674.5
29220	2.0386	3.8182	0.1	5745.6
29221	1.95	4.0909	0.1	5611.8
29222	2.0386	4.	0.1	5674.2
29223	1.95	4.2727	0.1	5549.1
29224	2.0386	4.1818	0.1	5600.
29225	1.95	4.4545	0.1	5490.2
29226	2.0386	4.3636	0.1	5526.7
29227	1.95	4.6364	0.1	5438.5
29228	2.0386	4.5455	0.1	5458.1
29229	1.95	4.8182	0.1	5396.8
29230	2.0386	4.7273	0.1	5397.2
29231	1.95	5.	0.1	5367.6
29232	2.0386	4.9091	0.1	5347.
29233	1.95	5.1818	0.1	5352.4
29234	2.0386	5.0909	0.1	5309.9
29235	1.95	5.3636	0.1	5351.5
29236	2.0386	5.2727	0.1	5287.3
29237	1.95	5.5455	0.1	5365.1
29238	2.0386	5.4545	0.1	5279.9
29239	1.95	5.7273	0.1	5401.3
29240	2.0386	5.6364	0.1	5287.9
29241	2.0386	5.8182	0.1	5327.9
29242	1.95	5.9091	0.1	5370.8
29243	2.1273	0.27273	0.1	5214.2
29244	2.2159	0.18182	0.1	5109.3
29245	2.1273	9.0909e-002	0.1	5165.7
29246	2.1273	0.45455	0.1	5202.4
29247	2.2159	0.36364	0.1	5092.8
29248	2.1273	0.63636	0.1	5215.5
29249	2.2159	0.54545	0.1	5111.5
29250	2.1273	0.81818	0.1	5244.7
29251	2.2159	0.72727	0.1	5149.2
29252	2.1273	1.	0.1	5289.2
29253	2.2159	0.90909	0.1	5204.4
29254	2.1273	1.1818	0.1	5347.3
29255	2.2159	1.0909	0.1	5275.3
29256	2.1273	1.3636	0.1	5416.7
29257	2.2159	1.2727	0.1	5359.1
29258	2.1273	1.5455	0.1	5494.5
29259	2.2159	1.4545	0.1	5452.3
29260	2.1273	1.7273	0.1	5577.4
29261	2.2159	1.6364	0.1	5551.3
29262	2.1273	1.9091	0.1	5662.2
29263	2.2159	1.8182	0.1	5652.6
29264	2.1273	2.0909	0.1	5745.1
29265	2.2159	2.	0.1	5752.6
29266	2.1273	2.2727	0.1	5821.9
29267	2.2159	2.1818	0.1	5847.3
29268	2.1273	2.4545	0.1	5888.1
29269	2.2159	2.3636	0.1	5931.9
29270	2.1273	2.6364	0.1	5939.3
29271	2.2159	2.5455	0.1	6001.5
29272	2.1273	2.8182	0.1	5971.7
29273	2.2159	2.7273	0.1	6051.
29274	2.1273	3.	0.1	5982.8
29275	2.2159	2.9091	0.1	6076.8
29276	2.1273	3.1818	0.1	5971.7
29277	2.2159	3.0909	0.1	6076.8
29278	2.1273	3.3636	0.1	5939.3
29279	2.2159	3.2727	0.1	6051.
29280	2.1273	3.5455	0.1	5888.1
29281	2.2159	3.4545	0.1	6001.5
29282	2.1273	3.7273	0.1	5821.9
29283	2.2159	3.6364	0.1	5931.9
29284	2.1273	3.9091	0.1	5745.1
29285	2.2159	3.8182	0.1	5847.3
29286	2.1273	4.0909	0.1	5662.2
29287	2.2159	4.	0.1	5752.6
29288	2.1273	4.2727	0.1	5577.4
29289	2.2159	4.1818	0.1	5652.6
29290	2.1273	4.4545	0.1	5494.5
29291	2.2159	4.3636	0.1	5551.3
29292	2.1273	4.6364	0.1	5416.7
29293	2.2159	4.5455	0.1	5452.3
29294	2.1273	4.8182	0.1	5347.3
29295	2.2159	4.7273	0.1	5359.1
29296	2.1273	5.	0.1	5289.2
29297	2.2159	4.9091	0.1	5275.3
29298	2.1273	5.1818	0.1	5244.7
29299	2.2159	5.0909	0.1	5204.4
29300	2.1273	5.3636	0.1	5215.5
29301	2.2159	5.2727	0.1	5149.2
29302	2.1273	5.5455	0.1	5202.4
29303	2.2159	5.4545	0.1	5111.5
29304	2.1273	5.7273	0.1	5214.2
29305	2.2159	5.6364	0.1	5092.8
29306	2.2159	5.8182	0.1	5109.3
29307	2.1273	5.9091	0.1	5165.7
29308	2.3045	0.27273	0.1	4987.8
29309	2.3932	0.18182	0.1	4848.8
29310	2.3045	9.0909e-002	0.1	4919.1
29311	2.3045	0.45455	0.1	5001.8
29312	2.3932	0.36364	0.1	4855.8
29313	2.3045	0.63636	0.1	5045.5
29314	2.3932	0.54545	0.1	4904.2
29315	2.3045	0.81818	0.1	5109.4
29316	2.3932	0.72727	0.1	4977.7
29317	2.3045	1.	0.1	5191.2
29318	2.3932	0.90909	0.1	5073.5
29319	2.3045	1.1818	0.1	5287.9
29320	2.3932	1.0909	0.1	5188.3
29321	2.3045	1.3636	0.1	5395.4
29322	2.3932	1.2727	0.1	5316.9
29323	2.3045	1.5455	0.1	5509.6
29324	2.3932	1.4545	0.1	5454.2
29325	2.3045	1.7273	0.1	5626.7
29326	2.3932	1.6364	0.1	5595.1
29327	2.3045	1.9091	0.1	5743.1
29328	2.3932	1.8182	0.1	5735.3
29329	2.3045	2.0909	0.1	5854.7
29330	2.3932	2.	0.1	5871.1
29331	2.3045	2.2727	0.1	5957.
29332	2.3932	2.1818	0.1	5998.2
29333	2.3045	2.4545	0.1	6044.7
29334	2.3932	2.3636	0.1	6111.
29335	2.3045	2.6364	0.1	6112.3
29336	2.3932	2.5455	0.1	6203.2
29337	2.3045	2.8182	0.1	6155.1
29338	2.3932	2.7273	0.1	6268.6
29339	2.3045	3.	0.1	6169.7
29340	2.3932	2.9091	0.1	6302.6
29341	2.3045	3.1818	0.1	6155.1
29342	2.3932	3.0909	0.1	6302.6
29343	2.3045	3.3636	0.1	6112.3
29344	2.3932	3.2727	0.1	6268.6
29345	2.3045	3.5455	0.1	6044.7
29346	2.3932	3.4545	0.1	6203.2
29347	2.3045	3.7273	0.1	5957.
29348	2.3932	3.6364	0.1	6111.
29349	2.3045	3.9091	0.1	5854.7
29350	2.3932	3.8182	0.1	5998.2
29351	2.3045	4.0909	0.1	5743.1
29352	2.3932	4.	0.1	5871.1
29353	2.3045	4.2727	0.1	5626.7
29354	2.3932	4.1818	0.1	5735.3
29355	2.3045	4.4545	0.1	5509.6
29356	2.3932	4.3636	0.1	5595.1
29357	2.3045	4.6364	0.1	5395.4
29358	2.3932	4.5455	0.1	5454.2
29359	2.3045	4.8182	0.1	5287.9
29360	2.3932	4.7273	0.1	5316.9
29361	2.3045	5.	0.1	5191.2
29362	2.3932	4.9091	0.1	5188.3
29363	2.3045	5.1818	0.1	5109.4
29364	2.3932	5.0909	0.1	5073.5
29365	2.3045	5.3636	0.1	5045.5
29366	2.3932	5.2727	0.1	4977.7
29367	2.3045	5.5455	0.1	5001.8
29368	2.3932	5.4545	0.1	4904.2
29369	2.3045	5.7273	0.1	4987.8
29370	2.3932	5.6364	0.1	4855.8
29371	2.3932	5.8182	0.1	4848.8
29372	2.3045	5.9091	0.1	4919.1
29373	2.4818	0.27273	0.1	4716.9
29374	2.5705	0.18182	0.1	4540.8
29375	2.4818	9.0909e-002	0.1	4626.3
29376	2.4818	0.45455	0.1	4758.3
29377	2.5705	0.36364	0.1	4571.
29378	2.4818	0.63636	0.1	4837.2
29379	2.5705	0.54545	0.1	4652.7
29380	2.4818	0.81818	0.1	4943.2
29381	2.5705	0.72727	0.1	4768.6
29382	2.4818	1.	0.1	5072.4
29383	2.5705	0.90909	0.1	4914.8
29384	2.4818	1.1818	0.1	5219.3
29385	2.5705	1.0909	0.1	5085.7
29386	2.4818	1.3636	0.1	5377.6
29387	2.5705	1.2727	0.1	5273.3
29388	2.4818	1.5455	0.1	5541.1
29389	2.5705	1.4545	0.1	5469.5
29390	2.4818	1.7273	0.1	5704.6
29391	2.5705	1.6364	0.1	5666.7
29392	2.4818	1.9091	0.1	5863.9
29393	2.5705	1.8182	0.1	5859.3
29394	2.4818	2.0909	0.1	6014.7
29395	2.5705	2.	0.1	6043.1
29396	2.4818	2.2727	0.1	6151.8
29397	2.5705	2.1818	0.1	6213.5
29398	2.4818	2.4545	0.1	6268.6
29399	2.5705	2.3636	0.1	6363.8
29400	2.4818	2.6364	0.1	6358.2
29401	2.5705	2.5455	0.1	6485.8
29402	2.4818	2.8182	0.1	6414.6
29403	2.5705	2.7273	0.1	6571.7
29404	2.4818	3.	0.1	6433.9
29405	2.5705	2.9091	0.1	6616.
29406	2.4818	3.1818	0.1	6414.6
29407	2.5705	3.0909	0.1	6616.
29408	2.4818	3.3636	0.1	6358.2
29409	2.5705	3.2727	0.1	6571.7
29410	2.4818	3.5455	0.1	6268.6
29411	2.5705	3.4545	0.1	6485.8
29412	2.4818	3.7273	0.1	6151.8
29413	2.5705	3.6364	0.1	6363.8
29414	2.4818	3.9091	0.1	6014.7
29415	2.5705	3.8182	0.1	6213.5
29416	2.4818	4.0909	0.1	5863.9
29417	2.5705	4.	0.1	6043.1
29418	2.4818	4.2727	0.1	5704.6
29419	2.5705	4.1818	0.1	5859.3
29420	2.4818	4.4545	0.1	5541.1
29421	2.5705	4.3636	0.1	5666.7
29422	2.4818	4.6364	0.1	5377.6
29423	2.5705	4.5455	0.1	5469.5
29424	2.4818	4.8182	0.1	5219.3
29425	2.5705	4.7273	0.1	5273.3
29426	2.4818	5.	0.1	5072.4
29427	2.5705	4.9091	0.1	5085.7
29428	2.4818	5.1818	0.1	4943.2
29429	2.5705	5.0909	0.1	4914.8
29430	2.4818	5.3636	0.1	4837.2
29431	2.5705	5.2727	0.1	4768.6
29432	2.4818	5.5455	0.1	4758.3
29433	2.5705	5.4545	0.1	4652.7
29434	2.4818	5.7273	0.1	4716.9
29435	2.5705	5.6364	0.1	4571.
29436	2.5705	5.8182	0.1	4540.8
29437	2.4818	5.9091	0.1	4626.3
29438	2.6591	0.27273	0.1	4395.4
29439	2.7477	0.18182	0.1	4179.3
29440	2.6591	9.0909e-002	0.1	4281.4
29441	2.6591	0.45455	0.1	4466.1
29442	2.7477	0.36364	0.1	4232.6
29443	2.6591	0.63636	0.1	4585.9
29444	2.7477	0.54545	0.1	4351.6
29445	2.6591	0.81818	0.1	4743.3
29446	2.7477	0.72727	0.1	4518.2
29447	2.6591	1.	0.1	4932.1
29448	2.7477	0.90909	0.1	4726.8
29449	2.6591	1.1818	0.1	5144.
29450	2.7477	1.0909	0.1	4969.
29451	2.6591	1.3636	0.1	5369.1
29452	2.7477	1.2727	0.1	5233.6
29453	2.6591	1.5455	0.1	5598.2
29454	2.7477	1.4545	0.1	5507.9
29455	2.6591	1.7273	0.1	5823.4
29456	2.7477	1.6364	0.1	5780.3
29457	2.6591	1.9091	0.1	6039.7
29458	2.7477	1.8182	0.1	6042.5
29459	2.6591	2.0909	0.1	6242.3
29460	2.7477	2.	0.1	6289.7
29461	2.6591	2.2727	0.1	6425.2
29462	2.7477	2.1818	0.1	6516.9
29463	2.6591	2.4545	0.1	6579.8
29464	2.7477	2.3636	0.1	6715.2
29465	2.6591	2.6364	0.1	6697.3
29466	2.7477	2.5455	0.1	6873.9
29467	2.6591	2.8182	0.1	6770.5
29468	2.7477	2.7273	0.1	6983.5
29469	2.6591	3.	0.1	6795.4
29470	2.7477	2.9091	0.1	7039.1
29471	2.6591	3.1818	0.1	6770.5
29472	2.7477	3.0909	0.1	7039.1
29473	2.6591	3.3636	0.1	6697.3
29474	2.7477	3.2727	0.1	6983.5
29475	2.6591	3.5455	0.1	6579.8
29476	2.7477	3.4545	0.1	6873.9
29477	2.6591	3.7273	0.1	6425.2
29478	2.7477	3.6364	0.1	6715.2
29479	2.6591	3.9091	0.1	6242.3
29480	2.7477	3.8182	0.1	6516.9
29481	2.6591	4.0909	0.1	6039.7
29482	2.7477	4.	0.1	6289.7
29483	2.6591	4.2727	0.1	5823.4
29484	2.7477	4.1818	0.1	6042.5
29485	2.6591	4.4545	0.1	5598.2
29486	2.7477	4.3636	0.1	5780.3
29487	2.6591	4.6364	0.1	5369.1
29488	2.7477	4.5455	0.1	5507.9
29489	2.6591	4.8182	0.1	5144.
29490	2.7477	4.7273	0.1	5233.6
29491	2.6591	5.	0.1	4932.1
29492	2.7477	4.9091	0.1	4969.
29493	2.6591	5.1818	0.1	4743.3
29494	2.7477	5.0909	0.1	4726.8
29495	2.6591	5.3636	0.1	4585.9
29496	2.7477	5.2727	0.1	4518.2
29497	2.6591	5.5455	0.1	4466.1
29498	2.7477	5.4545	0.1	4351.6
29499	2.6591	5.7273	0.1	4395.4
29500	2.7477	5.6364	0.1	4232.6
29501	2.7477	5.8182	0.1	4179.3
29502	2.6591	5.9091	0.1	4281.4
29503	2.8364	0.27273	0.1	4017.3
29504	2.925	0.18182	0.1	3758.8
29505	2.8364	9.0909e-002	0.1	3879.1
29506	2.8364	0.45455	0.1	4119.6
29507	2.925	0.36364	0.1	3835.
29508	2.8364	0.63636	0.1	4287.7
29509	2.925	0.54545	0.1	3997.4
29510	2.8364	0.81818	0.1	4507.8
29511	2.925	0.72727	0.1	4225.3
29512	2.8364	1.	0.1	4771.5
29513	2.925	0.90909	0.1	4510.9
29514	2.8364	1.1818	0.1	5066.9
29515	2.925	1.0909	0.1	4843.
29516	2.8364	1.3636	0.1	5379.9
29517	2.925	1.2727	0.1	5207.
29518	2.8364	1.5455	0.1	5696.
29519	2.925	1.4545	0.1	5585.3
29520	2.8364	1.7273	0.1	6003.4
29521	2.925	1.6364	0.1	5959.1
29522	2.8364	1.9091	0.1	6294.9
29523	2.925	1.8182	0.1	6314.8
29524	2.8364	2.0909	0.1	6565.2
29525	2.925	2.	0.1	6645.5
29526	2.8364	2.2727	0.1	6806.4
29527	2.925	2.1818	0.1	6945.7
29528	2.8364	2.4545	0.1	7007.3
29529	2.925	2.3636	0.1	7203.
29530	2.8364	2.6364	0.1	7156.8
29531	2.925	2.5455	0.1	7401.5
29532	2.8364	2.8182	0.1	7248.
29533	2.925	2.7273	0.1	7532.8
29534	2.8364	3.	0.1	7278.4
29535	2.925	2.9091	0.1	7597.1
29536	2.8364	3.1818	0.1	7248.
29537	2.925	3.0909	0.1	7597.1
29538	2.8364	3.3636	0.1	7156.8
29539	2.925	3.2727	0.1	7532.8
29540	2.8364	3.5455	0.1	7007.3
29541	2.925	3.4545	0.1	7401.5
29542	2.8364	3.7273	0.1	6806.4
29543	2.925	3.6364	0.1	7203.
29544	2.8364	3.9091	0.1	6565.2
29545	2.925	3.8182	0.1	6945.7
29546	2.8364	4.0909	0.1	6294.9
29547	2.925	4.	0.1	6645.5
29548	2.8364	4.2727	0.1	6003.4
29549	2.925	4.1818	0.1	6314.8
29550	2.8364	4.4545	0.1	5696.
29551	2.925	4.3636	0.1	5959.1
29552	2.8364	4.6364	0.1	5379.9
29553	2.925	4.5455	0.1	5585.3
29554	2.8364	4.8182	0.1	5066.9
29555	2.925	4.7273	0.1	5207.
29556	2.8364	5.	0.1	4771.5
29557	2.925	4.9091	0.1	4843.
29558	2.8364	5.1818	0.1	4507.8
29559	2.925	5.0909	0.1	4510.9
29560	2.8364	5.3636	0.1	4287.7
29561	2.925	5.2727	0.1	4225.3
29562	2.8364	5.5455	0.1	4119.6
29563	2.925	5.4545	0.1	3997.4
29564	2.8364	5.7273	0.1	4017.3
29565	2.925	5.6364	0.1	3835.
29566	2.925	5.8182	0.1	3758.8
29567	2.8364	5.9091	0.1	3879.1
29568	3.0136	0.27273	0.1	3577.8
29569	3.1023	0.18182	0.1	3274.9
29570	3.0136	9.0909e-002	0.1	3414.3
29571	3.0136	0.45455	0.1	3715.8
29572	3.1023	0.36364	0.1	3376.5
29573	3.0136	0.63636	0.1	3942.2
29574	3.1023	0.54545	0.1	3592.2
29575	3.0136	0.81818	0.1	4239.7
29576	3.1023	0.72727	0.1	3895.9
29577	3.0136	1.	0.1	4596.6
29578	3.1023	0.90909	0.1	4275.5
29579	3.0136	1.1818	0.1	4998.3
29580	3.1023	1.0909	0.1	4718.3
29581	3.0136	1.3636	0.1	5426.5
29582	3.1023	1.2727	0.1	5209.
29583	3.0136	1.5455	0.1	5859.4
29584	3.1023	1.4545	0.1	5726.7
29585	3.0136	1.7273	0.1	6277.5
29586	3.1023	1.6364	0.1	6243.4
29587	3.0136	1.9091	0.1	6669.
29588	3.1023	1.8182	0.1	6728.7
29589	3.0136	2.0909	0.1	7027.
29590	3.1023	2.	0.1	7172.7
29591	3.0136	2.2727	0.1	7340.9
29592	3.1023	2.1818	0.1	7566.2
29593	3.0136	2.4545	0.1	7593.4
29594	3.1023	2.3636	0.1	7886.5
29595	3.0136	2.6364	0.1	7771.8
29596	3.1023	2.5455	0.1	8114.7
29597	3.0136	2.8182	0.1	7875.1
29598	3.1023	2.7273	0.1	8250.2
29599	3.0136	3.	0.1	7908.6
29600	3.1023	2.9091	0.1	8311.
29601	3.0136	3.1818	0.1	7875.1
29602	3.1023	3.0909	0.1	8311.
29603	3.0136	3.3636	0.1	7771.8
29604	3.1023	3.2727	0.1	8250.2
29605	3.0136	3.5455	0.1	7593.4
29606	3.1023	3.4545	0.1	8114.7
29607	3.0136	3.7273	0.1	7340.9
29608	3.1023	3.6364	0.1	7886.5
29609	3.0136	3.9091	0.1	7027.
29610	3.1023	3.8182	0.1	7566.2
29611	3.0136	4.0909	0.1	6669.
29612	3.1023	4.	0.1	7172.7
29613	3.0136	4.2727	0.1	6277.5
29614	3.1023	4.1818	0.1	6728.7
29615	3.0136	4.4545	0.1	5859.4
29616	3.1023	4.3636	0.1	6243.4
29617	3.0136	4.6364	0.1	5426.5
29618	3.1023	4.5455	0.1	5726.7
29619	3.0136	4.8182	0.1	4998.3
29620	3.1023	4.7273	0.1	5209.
29621	3.0136	5.	0.1	4596.6
29622	3.1023	4.9091	0.1	4718.3
29623	3.0136	5.1818	0.1	4239.7
29624	3.1023	5.0909	0.1	4275.5
29625	3.0136	5.3636	0.1	3942.2
29626	3.1023	5.2727	0.1	3895.9
29627	3.0136	5.5455	0.1	3715.8
29628	3.1023	5.4545	0.1	3592.2
29629	3.0136	5.7273	0.1	3577.8
29630	3.1023	5.6364	0.1	3376.5
29631	3.1023	5.8182	0.1	3274.9
29632	3.0136	5.9091	0.1	3414.3
29633	3.1909	0.27273	0.1	3075.4
29634	3.2795	0.18182	0.1	2725.5
29635	3.1909	9.0909e-002	0.1	2884.
29636	3.1909	0.45455	0.1	3258.7
29637	3.2795	0.36364	0.1	2863.2
29638	3.1909	0.63636	0.1	3559.2
29639	3.2795	0.54545	0.1	3152.
29640	3.1909	0.81818	0.1	3952.
29641	3.2795	0.72727	0.1	3551.4
29642	3.1909	1.	0.1	4422.3
29643	3.2795	0.90909	0.1	4042.8
29644	3.1909	1.1818	0.1	4956.1
29645	3.2795	1.0909	0.1	4615.5
29646	3.1909	1.3636	0.1	5534.5
29647	3.2795	1.2727	0.1	5261.6
29648	3.1909	1.5455	0.1	6130.2
29649	3.2795	1.4545	0.1	5969.
29650	3.1909	1.7273	0.1	6705.9
29651	3.2795	1.6364	0.1	6693.7
29652	3.1909	1.9091	0.1	7236.8
29653	3.2795	1.8182	0.1	7378.7
29654	3.1909	2.0909	0.1	7711.5
29655	3.2795	2.	0.1	7987.1
29656	3.1909	2.2727	0.1	8107.6
29657	3.2795	2.1818	0.1	8491.9
29658	3.1909	2.4545	0.1	8400.1
29659	3.2795	2.3636	0.1	8866.5
29660	3.1909	2.6364	0.1	8583.4
29661	3.2795	2.5455	0.1	9069.3
29662	3.1909	2.8182	0.1	8675.6
29663	3.2795	2.7273	0.1	9155.2
29664	3.1909	3.	0.1	8702.8
29665	3.2795	2.9091	0.1	9182.1
29666	3.1909	3.1818	0.1	8675.6
29667	3.2795	3.0909	0.1	9182.1
29668	3.1909	3.3636	0.1	8583.4
29669	3.2795	3.2727	0.1	9155.2
29670	3.1909	3.5455	0.1	8400.1
29671	3.2795	3.4545	0.1	9069.3
29672	3.1909	3.7273	0.1	8107.6
29673	3.2795	3.6364	0.1	8866.5
29674	3.1909	3.9091	0.1	7711.5
29675	3.2795	3.8182	0.1	8491.9
29676	3.1909	4.0909	0.1	7236.8
29677	3.2795	4.	0.1	7987.1
29678	3.1909	4.2727	0.1	6705.9
29679	3.2795	4.1818	0.1	7378.7
29680	3.1909	4.4545	0.1	6130.2
29681	3.2795	4.3636	0.1	6693.7
29682	3.1909	4.6364	0.1	5534.5
29683	3.2795	4.5455	0.1	5969.
29684	3.1909	4.8182	0.1	4956.
29685	3.2795	4.7273	0.1	5261.6
29686	3.1909	5.	0.1	4422.3
29687	3.2795	4.9091	0.1	4615.5
29688	3.1909	5.1818	0.1	3952.
29689	3.2795	5.0909	0.1	4042.8
29690	3.1909	5.3636	0.1	3559.2
29691	3.2795	5.2727	0.1	3551.4
29692	3.1909	5.5455	0.1	3258.7
29693	3.2795	5.4545	0.1	3152.
29694	3.1909	5.7273	0.1	3075.4
29695	3.2795	5.6364	0.1	2863.2
29696	3.2795	5.8182	0.1	2725.5
29697	3.1909	5.9091	0.1	2884.
29698	3.3682	0.27273	0.1	2516.5
29699	3.4568	0.18182	0.1	2115.5
29700	3.3682	9.0909e-002	0.1	2287.1
29701	3.3682	0.45455	0.1	2769.2
29702	3.4568	0.36364	0.1	2325.4
29703	3.3682	0.63636	0.1	3169.5
29704	3.4568	0.54545	0.1	2726.1
29705	3.3682	0.81818	0.1	3677.5
29706	3.4568	0.72727	0.1	3245.8
29707	3.3682	1.	0.1	4278.2
29708	3.4568	0.90909	0.1	3861.5
29709	3.3682	1.1818	0.1	4966.9
29710	3.4568	1.0909	0.1	4574.
29711	3.3682	1.3636	0.1	5740.6
29712	3.4568	1.2727	0.1	5398.8
29713	3.3682	1.5455	0.1	6568.
29714	3.4568	1.4545	0.1	6349.
29715	3.3682	1.7273	0.1	7384.2
29716	3.4568	1.6364	0.1	7421.9
29717	3.3682	1.9091	0.1	8132.
29718	3.4568	1.8182	0.1	8532.9
29719	3.3682	2.0909	0.1	8761.6
29720	3.4568	2.	0.1	9371.2
29721	3.3682	2.2727	0.1	9238.4
29722	3.4568	2.1818	0.1	10028
29723	3.3682	2.4545	0.1	9519.6
29724	3.4568	2.3636	0.1	10296
29725	3.3682	2.6364	0.1	9625.4
29726	3.4568	2.5455	0.1	10305
29727	3.3682	2.8182	0.1	9647.1
29728	3.4568	2.7273	0.1	10221
29729	3.3682	3.	0.1	9647.3
29730	3.4568	2.9091	0.1	10160
29731	3.3682	3.1818	0.1	9647.1
29732	3.4568	3.0909	0.1	10160
29733	3.3682	3.3636	0.1	9625.4
29734	3.4568	3.2727	0.1	10221
29735	3.3682	3.5455	0.1	9519.6
29736	3.4568	3.4545	0.1	10305
29737	3.3682	3.7273	0.1	9238.4
29738	3.4568	3.6364	0.1	10296
29739	3.3682	3.9091	0.1	8761.6
29740	3.4568	3.8182	0.1	10028
29741	3.3682	4.0909	0.1	8132.
29742	3.4568	4.	0.1	9371.2
29743	3.3682	4.2727	0.1	7384.2
29744	3.4568	4.1818	0.1	8532.9
29745	3.3682	4.4545	0.1	6568.
29746	3.4568	4.3636	0.1	7421.9
29747	3.3682	4.6364	0.1	5740.6
29748	3.4568	4.5455	0.1	6349.
29749	3.3682	4.8182	0.1	4966.9
29750	3.4568	4.7273	0.1	5398.8
29751	3.3682	5.	0.1	4278.2
29752	3.4568	4.9091	0.1	4574.
29753	3.3682	5.1818	0.1	3677.5
29754	3.4568	5.0909	0.1	3861.5
29755	3.3682	5.3636	0.1	3169.5
29756	3.4568	5.2727	0.1	3245.8
29757	3.3682	5.5455	0.1	2769.2
29758	3.4568	5.4545	0.1	2726.1
29759	3.3682	5.7273	0.1	2516.5
29760	3.4568	5.6364	0.1	2325.4
29761	3.4568	5.8182	0.1	2115.5
29762	3.3682	5.9091	0.1	2287.1
29763	3.5455	0.27273	0.1	1933.8
29764	3.6341	0.18182	0.1	1487.
29765	3.5455	9.0909e-002	0.1	1628.7
29766	3.5455	0.45455	0.1	2314.
29767	3.6341	0.36364	0.1	1890.8
29768	3.5455	0.63636	0.1	2850.5
29769	3.6341	0.54545	0.1	2472.9
29770	3.5455	0.81818	0.1	3487.6
29771	3.6341	0.72727	0.1	3142.7
29772	3.5455	1.	0.1	4222.6
29773	3.6341	0.90909	0.1	3897.4
29774	3.5455	1.1818	0.1	5078.5
29775	3.6341	1.0909	0.1	4763.
29776	3.5455	1.3636	0.1	6085.9
29777	3.6341	1.2727	0.1	5791.9
29778	3.5455	1.5455	0.1	7271.4
29779	3.6341	1.4545	0.1	7059.2
29780	3.5455	1.7273	0.1	8610.2
29781	3.6341	1.6364	0.1	8720.4
29782	3.5455	1.9091	0.1	9753.1
29783	3.6341	1.8182	0.1	11004
29784	3.5455	2.0909	0.1	10607
29785	3.6341	2.	0.1	12814
29786	3.5455	2.2727	0.1	11048
29787	3.6341	2.1818	0.1	12789
29788	3.5455	2.4545	0.1	11051
29789	3.6341	2.3636	0.1	12329
29790	3.5455	2.6364	0.1	10880
29791	3.6341	2.5455	0.1	11723
29792	3.5455	2.8182	0.1	10718
29793	3.6341	2.7273	0.1	11312
29794	3.5455	3.	0.1	10658
29795	3.6341	2.9091	0.1	11108
29796	3.5455	3.1818	0.1	10718
29797	3.6341	3.0909	0.1	11108
29798	3.5455	3.3636	0.1	10880
29799	3.6341	3.2727	0.1	11312
29800	3.5455	3.5455	0.1	11051
29801	3.6341	3.4545	0.1	11723
29802	3.5455	3.7273	0.1	11048
29803	3.6341	3.6364	0.1	12329
29804	3.5455	3.9091	0.1	10607
29805	3.6341	3.8182	0.1	12789
29806	3.5455	4.0909	0.1	9753.1
29807	3.6341	4.	0.1	12814
29808	3.5455	4.2727	0.1	8610.2
29809	3.6341	4.1818	0.1	11004
29810	3.5455	4.4545	0.1	7271.4
29811	3.6341	4.3636	0.1	8720.4
29812	3.5455	4.6364	0.1	6085.9
29813	3.6341	4.5455	0.1	7059.2
29814	3.5455	4.8182	0.1	5078.5
29815	3.6341	4.7273	0.1	5791.9
29816	3.5455	5.	0.1	4222.6
29817	3.6341	4.9091	0.1	4763.
29818	3.5455	5.1818	0.1	3487.6
29819	3.6341	5.0909	0.1	3897.4
29820	3.5455	5.3636	0.1	2850.5
29821	3.6341	5.2727	0.1	3142.7
29822	3.5455	5.5455	0.1	2314.
29823	3.6341	5.4545	0.1	2472.9
29824	3.5455	5.7273	0.1	1933.8
29825	3.6341	5.6364	0.1	1890.8
29826	3.6341	5.8182	0.1	1487.
29827	3.5455	5.9091	0.1	1628.7
29828	3.7227	0.27273	0.1	1497.9
29829	3.8114	0.18182	0.1	862.15
29830	3.7227	9.0909e-002	0.1	942.27
29831	3.7227	0.45455	0.1	2130.7
29832	3.8114	0.36364	0.1	1415.
29833	3.7227	0.63636	0.1	2848.7
29834	3.8114	0.54545	0.1	1996.8
29835	3.7227	0.81818	0.1	3637.7
29836	3.8114	0.72727	0.1	2607.6
29837	3.7227	1.	0.1	4529.7
29838	3.8114	0.90909	0.1	3273.7
29839	3.7227	1.1818	0.1	5584.2
29840	3.8114	1.0909	0.1	4034.8
29841	3.7227	1.3636	0.1	6900.9
29842	3.8114	1.2727	0.1	4954.6
29843	3.7227	1.5455	0.1	8709.
29844	3.8114	1.4545	0.1	6161.9
29845	3.7227	1.7273	0.1	11289
29846	3.8114	1.6364	0.1	7772.7
29847	3.7227	1.9091	0.1	13984
29848	3.8114	1.8182	0.1	10996
29849	3.7227	2.0909	0.1	14779
29850	3.8114	2.	0.1	21799
29851	3.7227	2.2727	0.1	13996
29852	3.8114	2.1818	0.1	16801
29853	3.7227	2.4545	0.1	12975
29854	3.8114	2.3636	0.1	14369
29855	3.7227	2.6364	0.1	12142
29856	3.8114	2.5455	0.1	12931
29857	3.7227	2.8182	0.1	11691
29858	3.8114	2.7273	0.1	12152
29859	3.7227	3.	0.1	11547
29860	3.8114	2.9091	0.1	11804
29861	3.7227	3.1818	0.1	11691
29862	3.8114	3.0909	0.1	11804
29863	3.7227	3.3636	0.1	12142
29864	3.8114	3.2727	0.1	12152
29865	3.7227	3.5455	0.1	12975
29866	3.8114	3.4545	0.1	12931
29867	3.7227	3.7273	0.1	13996
29868	3.8114	3.6364	0.1	14369
29869	3.7227	3.9091	0.1	14779
29870	3.8114	3.8182	0.1	16801
29871	3.7227	4.0909	0.1	13984
29872	3.8114	4.	0.1	21799
29873	3.7227	4.2727	0.1	11289
29874	3.8114	4.1818	0.1	10996
29875	3.7227	4.4545	0.1	8709.
29876	3.8114	4.3636	0.1	7772.7
29877	3.7227	4.6364	0.1	6900.9
29878	3.8114	4.5455	0.1	6161.9
29879	3.7227	4.8182	0.1	5584.2
29880	3.8114	4.7273	0.1	4954.6
29881	3.7227	5.	0.1	4529.7
29882	3.8114	4.9091	0.1	4034.8
29883	3.7227	5.1818	0.1	3637.7
29884	3.8114	5.0909	0.1	3273.7
29885	3.7227	5.3636	0.1	2848.7
29886	3.8114	5.2727	0.1	2607.6
29887	3.7227	5.5455	0.1	2130.7
29888	3.8114	5.4545	0.1	1996.8
29889	3.7227	5.7273	0.1	1497.9
29890	3.8114	5.6364	0.1	1415.
29891	3.8114	5.8182	0.1	862.15
29892	3.7227	5.9091	0.1	942.27
29893	4.0667	3.7273	0.1	17191
29894	3.9833	3.8182	0.1	19022
29895	4.0667	3.9091	0.1	22959
29896	4.0667	3.5455	0.1	14294
29897	3.9833	3.6364	0.1	15181
29898	4.0667	3.3636	0.1	12902
29899	3.9833	3.4545	0.1	13387
29900	4.0667	3.1818	0.1	12221
29901	3.9833	3.2727	0.1	12443
29902	4.0667	3.	0.1	12018
29903	3.9833	3.0909	0.1	12037
29904	4.0667	2.8182	0.1	12221
29905	3.9833	2.9091	0.1	12037
29906	4.0667	2.6364	0.1	12902
29907	3.9833	2.7273	0.1	12443
29908	4.0667	2.4545	0.1	14294
29909	3.9833	2.5455	0.1	13387
29910	4.0667	2.2727	0.1	17191
29911	3.9833	2.3636	0.1	15181
29912	3.9833	2.1818	0.1	19022
29913	4.0667	2.0909	0.1	22959
29914	3.9	3.7273	0.1	17354
29915	3.9	3.9091	0.1	23553
29916	3.9	3.5455	0.1	14375
29917	3.9	3.3636	0.1	12955
29918	3.9	3.1818	0.1	12264
29919	3.9	3.	0.1	12057
29920	3.9	2.8182	0.1	12264
29921	3.9	2.6364	0.1	12955
29922	3.9	2.4545	0.1	14375
29923	3.9	2.2727	0.1	17354
29924	3.9	2.0909	0.1	23553
29925	4.0667	5.7273	0.1	758.46
29926	4.0667	5.9091	0.1	274.05
29927	4.0667	5.8182	5.e-002	196.54
29928	4.0667	5.5455	0.1	1194.1
29929	4.0667	5.6364	5.e-002	418.88
29930	4.0667	5.3636	0.1	1631.5
29931	4.0667	5.4545	5.e-002	639.22
29932	4.0667	5.1818	0.1	2109.3
29933	4.0667	5.2727	5.e-002	877.54
29934	4.0667	5.	0.1	2660.9
29935	4.0667	5.0909	5.e-002	1146.5
29936	4.0667	4.8182	0.1	3334.2
29937	4.0667	4.9091	5.e-002	1464.3
29938	4.0667	4.6364	0.1	4229.1
29939	4.0667	4.7273	5.e-002	1862.8
29940	4.0667	4.4545	0.1	5403.5
29941	4.0667	4.5455	5.e-002	2395.6
29942	4.0667	4.2727	0.1	8294.7
29943	4.0667	4.3636	5.e-002	3246.9
29944	4.0667	4.0909	0.1	16636
29945	4.0667	4.1818	5.e-002	5391.7
29946	3.9833	4.	0.1	24004
29947	4.0667	4.	5.e-002	4633.5
29948	3.9	4.0909	0.1	17236
29949	3.9	4.	5.e-002	5173.3
29950	3.9	4.2727	0.1	8936.8
29951	3.9	4.1818	5.e-002	5991.4
29952	3.9	4.4545	0.1	6004.1
29953	3.9	4.3636	5.e-002	3699.7
29954	3.9	4.6364	0.1	4813.8
29955	3.9	4.5455	5.e-002	2788.1
29956	3.9	4.8182	0.1	3885.7
29957	3.9	4.7273	5.e-002	2198.9
29958	3.9	5.	0.1	3172.2
29959	3.9	4.9091	5.e-002	1752.2
29960	3.9	5.1818	0.1	2568.7
29961	3.9	5.0909	5.e-002	1388.3
29962	3.9	5.3636	0.1	2025.9
29963	3.9	5.2727	5.e-002	1074.1
29964	3.9	5.5455	0.1	1507.7
29965	3.9	5.4545	5.e-002	789.63
29966	3.9	5.7273	0.1	968.61
29967	3.9	5.6364	5.e-002	521.29
29968	3.9	5.9091	0.1	349.85
29969	3.9	5.8182	5.e-002	243.72
29970	4.0667	0.27273	0.1	758.46
29971	4.0667	9.0909e-002	0.1	274.05
29972	4.0667	0.18182	5.e-002	196.54
29973	4.0667	0.45455	0.1	1194.1
29974	4.0667	0.36364	5.e-002	418.88
29975	4.0667	0.63636	0.1	1631.5
29976	4.0667	0.54545	5.e-002	639.22
29977	4.0667	0.81818	0.1	2109.3
29978	4.0667	0.72727	5.e-002	877.54
29979	4.0667	1.	0.1	2660.9
29980	4.0667	0.90909	5.e-002	1146.5
29981	4.0667	1.1818	0.1	3334.2
29982	4.0667	1.0909	5.e-002	1464.3
29983	4.0667	1.3636	0.1	4229.1
29984	4.0667	1.2727	5.e-002	1862.8
29985	4.0667	1.5455	0.1	5403.5
29986	4.0667	1.4545	5.e-002	2395.6
29987	4.0667	1.7273	0.1	8294.7
29988	4.0667	1.6364	5.e-002	3246.9
29989	4.0667	1.9091	0.1	16636
29990	4.0667	1.8182	5.e-002	5391.7
29991	3.9833	2.	0.1	24004
29992	4.0667	2.	5.e-002	4633.5
29993	3.9	1.9091	0.1	17236
29994	3.9	2.	5.e-002	5173.3
29995	3.9	1.7273	0.1	8936.8
29996	3.9	1.8182	5.e-002	5991.4
29997	3.9	1.5455	0.1	6004.1
29998	3.9	1.6364	5.e-002	3699.7
29999	3.9	1.3636	0.1	4813.8
30000	3.9	1.4545	5.e-002	2788.1
30001	3.9	1.1818	0.1	3885.7
30002	3.9	1.2727	5.e-002	2198.9
30003	3.9	1.	0.1	3172.2
30004	3.9	1.0909	5.e-002	1752.2
30005	3.9	0.81818	0.1	2568.7
30006	3.9	0.90909	5.e-002	1388.3
30007	3.9	0.63636	0.1	2025.9
30008	3.9	0.72727	5.e-002	1074.1
30009	3.9	0.45455	0.1	1507.7
30010	3.9	0.54545	5.e-002	789.63
30011	3.9	0.27273	0.1	968.61
30012	3.9	0.36364	5.e-002	521.29
30013	3.9	9.0909e-002	0.1	349.85
30014	3.9	0.18182	5.e-002	243.72
30015	4.159	6.	0.1	335.44
30016	4.0667	6.	5.e-002	61.113
30017	4.3435	6.	0.1	959.11
30018	4.2512	6.	5.e-002	43.655
30019	4.5281	6.	0.1	1542.8
30020	4.4358	6.	5.e-002	114.6
30021	4.7127	6.	0.1	2055.4
30022	4.6204	6.	5.e-002	148.54
30023	4.8972	6.	0.1	2502.2
30024	4.8049	6.	5.e-002	164.4
30025	5.0818	6.	0.1	2882.4
30026	4.9895	6.	5.e-002	167.51
30027	5.2664	6.	0.1	3198.2
30028	5.1741	6.	5.e-002	162.81
30029	5.4509	6.	0.1	3454.
30030	5.3586	6.	5.e-002	153.7
30031	5.6355	6.	0.1	3656.1
30032	5.5432	6.	5.e-002	142.66
30033	5.8201	6.	0.1	3811.3
30034	5.7278	6.	5.e-002	131.35
30035	6.0046	6.	0.1	3926.7
30036	5.9123	6.	5.e-002	120.81
30037	6.1892	6.	0.1	4008.7
30038	6.0969	6.	5.e-002	111.62
30039	6.3738	6.	0.1	4063.1
30040	6.2815	6.	5.e-002	104.04
30041	6.5583	6.	0.1	4095.
30042	6.466	6.	5.e-002	98.092
30043	6.7429	6.	0.1	4108.8
30044	6.6506	6.	5.e-002	93.707
30045	6.9275	6.	0.1	4107.9
30046	6.8352	6.	5.e-002	90.725
30047	7.112	6.	0.1	4095.3
30048	7.0198	6.	5.e-002	88.956
30049	7.2966	6.	0.1	4073.5
30050	7.2043	6.	5.e-002	88.207
30051	7.4812	6.	0.1	4044.4
30052	7.3889	6.	5.e-002	88.29
30053	7.6657	6.	0.1	4009.6
30054	7.5735	6.	5.e-002	89.033
30055	7.8503	6.	0.1	3970.3
30056	7.758	6.	5.e-002	90.284
30057	8.0349	6.	0.1	3927.6
30058	7.9426	6.	5.e-002	91.914
30059	8.2194	6.	0.1	3882.1
30060	8.1272	6.	5.e-002	93.813
30061	8.404	6.	0.1	3834.7
30062	8.3117	6.	5.e-002	95.888
30063	8.5886	6.	0.1	3785.7
30064	8.4963	6.	5.e-002	98.065
30065	8.7731	6.	0.1	3735.6
30066	8.6809	6.	5.e-002	100.29
30067	8.9577	6.	0.1	3684.7
30068	8.8654	6.	5.e-002	102.5
30069	9.1423	6.	0.1	3633.2
30070	9.05	6.	5.e-002	104.67
30071	9.3269	6.	0.1	3581.4
30072	9.2346	6.	5.e-002	106.78
30073	9.5114	6.	0.1	3529.2
30074	9.4191	6.	5.e-002	108.79
30075	9.696	6.	0.1	3477.
30076	9.6037	6.	5.e-002	110.7
30077	9.8806	6.	0.1	3424.7
30078	9.7883	6.	5.e-002	112.49
30079	10.065	6.	0.1	3372.5
30080	9.9728	6.	5.e-002	114.16
30081	10.25	6.	0.1	3320.3
30082	10.157	6.	5.e-002	115.71
30083	10.434	6.	0.1	3268.3
30084	10.342	6.	5.e-002	117.14
30085	10.619	6.	0.1	3216.4
30086	10.527	6.	5.e-002	118.45
30087	10.803	6.	0.1	3164.7
30088	10.711	6.	5.e-002	119.63
30089	10.988	6.	0.1	3113.2
30090	10.896	6.	5.e-002	120.7
30091	11.173	6.	0.1	3061.9
30092	11.08	6.	5.e-002	121.66
30093	11.357	6.	0.1	3010.8
30094	11.265	6.	5.e-002	122.51
30095	11.542	6.	0.1	2959.9
30096	11.449	6.	5.e-002	123.27
30097	11.726	6.	0.1	2909.2
30098	11.634	6.	5.e-002	123.92
30099	11.911	6.	0.1	2858.8
30100	11.819	6.	5.e-002	124.49
30101	12.095	6.	0.1	2808.6
30102	12.003	6.	5.e-002	124.97
30103	12.28	6.	0.1	2758.6
30104	12.188	6.	5.e-002	125.37
30105	12.465	6.	0.1	2708.9
30106	12.372	6.	5.e-002	125.69
30107	12.649	6.	0.1	2659.3
30108	12.557	6.	5.e-002	125.94
30109	12.834	6.	0.1	2610.
30110	12.741	6.	5.e-002	126.13
30111	13.018	6.	0.1	2560.9
30112	12.926	6.	5.e-002	126.25
30113	13.203	6.	0.1	2512.1
30114	13.11	6.	5.e-002	126.32
30115	13.387	6.	0.1	2463.4
30116	13.295	6.	5.e-002	126.33
30117	13.572	6.	0.1	2415.
30118	13.48	6.	5.e-002	126.28
30119	13.756	6.	0.1	2366.8
30120	13.664	6.	5.e-002	126.19
30121	13.941	6.	0.1	2318.8
30122	13.849	6.	5.e-002	126.06
30123	14.126	6.	0.1	2271.1
30124	14.033	6.	5.e-002	125.87
30125	14.31	6.	0.1	2223.5
30126	14.218	6.	5.e-002	125.65
30127	14.495	6.	0.1	2176.2
30128	14.402	6.	5.e-002	125.39
30129	14.679	6.	0.1	2129.
30130	14.587	6.	5.e-002	125.09
30131	14.864	6.	0.1	2082.1
30132	14.772	6.	5.e-002	124.76
30133	15.048	6.	0.1	2035.4
30134	14.956	6.	5.e-002	124.39
30135	15.233	6.	0.1	1988.9
30136	15.141	6.	5.e-002	123.99
30137	15.418	6.	0.1	1942.6
30138	15.325	6.	5.e-002	123.55
30139	15.602	6.	0.1	1896.5
30140	15.51	6.	5.e-002	123.09
30141	15.787	6.	0.1	1850.6
30142	15.694	6.	5.e-002	122.59
30143	15.971	6.	0.1	1804.9
30144	15.879	6.	5.e-002	122.06
30145	16.156	6.	0.1	1759.4
30146	16.064	6.	5.e-002	121.5
30147	16.34	6.	0.1	1714.1
30148	16.248	6.	5.e-002	120.91
30149	16.525	6.	0.1	1669.1
30150	16.433	6.	5.e-002	120.29
30151	16.71	6.	0.1	1624.2
30152	16.617	6.	5.e-002	119.64
30153	16.894	6.	0.1	1579.5
30154	16.802	6.	5.e-002	118.96
30155	17.079	6.	0.1	1535.
30156	16.986	6.	5.e-002	118.24
30157	17.263	6.	0.1	1490.7
30158	17.171	6.	5.e-002	117.49
30159	17.448	6.	0.1	1446.6
30160	17.356	6.	5.e-002	116.7
30161	17.632	6.	0.1	1402.7
30162	17.54	6.	5.e-002	115.88
30163	17.817	6.	0.1	1359.
30164	17.725	6.	5.e-002	115.02
30165	18.002	6.	0.1	1315.4
30166	17.909	6.	5.e-002	114.12
30167	18.186	6.	0.1	1272.1
30168	18.094	6.	5.e-002	113.18
30169	18.371	6.	0.1	1228.9
30170	18.278	6.	5.e-002	112.19
30171	18.555	6.	0.1	1185.9
30172	18.463	6.	5.e-002	111.16
30173	18.74	6.	0.1	1143.1
30174	18.648	6.	5.e-002	110.07
30175	18.924	6.	0.1	1100.5
30176	18.832	6.	5.e-002	108.93
30177	19.109	6.	0.1	1058.1
30178	19.017	6.	5.e-002	107.73
30179	19.294	6.	0.1	1015.8
30180	19.201	6.	5.e-002	106.47
30181	19.478	6.	0.1	973.73
30182	19.386	6.	5.e-002	105.14
30183	19.663	6.	0.1	931.8
30184	19.57	6.	5.e-002	103.74
30185	19.847	6.	0.1	890.05
30186	19.755	6.	5.e-002	102.26
30187	20.032	6.	0.1	848.45
30188	19.94	6.	5.e-002	100.7
30189	20.216	6.	0.1	807.02
30190	20.124	6.	5.e-002	99.052
30191	20.401	6.	0.1	765.74
30192	20.309	6.	5.e-002	97.304
30193	20.585	6.	0.1	724.63
30194	20.493	6.	5.e-002	95.451
30195	20.77	6.	0.1	683.66
30196	20.678	6.	5.e-002	93.483
30197	20.955	6.	0.1	642.85
30198	20.862	6.	5.e-002	91.392
30199	21.139	6.	0.1	602.19
30200	21.047	6.	5.e-002	89.165
30201	21.324	6.	0.1	561.68
30202	21.231	6.	5.e-002	86.791
30203	21.508	6.	0.1	521.33
30204	21.416	6.	5.e-002	84.257
30205	21.693	6.	0.1	481.13
30206	21.601	6.	5.e-002	81.546
30207	21.877	6.	0.1	441.1
30208	21.785	6.	5.e-002	78.641
30209	22.062	6.	0.1	401.23
30210	21.97	6.	5.e-002	75.521
30211	22.247	6.	0.1	361.55
30212	22.154	6.	5.e-002	72.162
30213	22.431	6.	0.1	322.07
30214	22.339	6.	5.e-002	68.534
30215	22.616	6.	0.1	282.83
30216	22.523	6.	5.e-002	64.602
30217	22.8	6.	0.1	243.87
30218	22.708	6.	5.e-002	60.321
30219	22.985	6.	0.1	205.24
30220	22.893	6.	5.e-002	55.633
30221	23.169	6.	0.1	167.06
30222	23.077	6.	5.e-002	50.457
30223	23.354	6.	0.1	129.46
30224	23.262	6.	5.e-002	44.678
30225	23.539	6.	0.1	92.773
30226	23.446	6.	5.e-002	38.115
30227	23.723	6.	0.1	57.265
30228	23.631	6.	5.e-002	30.421
30229	23.908	6.	0.1	23.991
30230	23.815	6.	5.e-002	20.503
30231	24.	5.9091	0.1	23.217
30232	24.	6.	5.e-002	7.8611
30233	24.	5.7273	0.1	53.299
30234	24.	5.8182	5.e-002	6.998
30235	24.	5.5455	0.1	77.57
30236	24.	5.6364	5.e-002	8.0158
30237	24.	5.3636	0.1	96.886
30238	24.	5.4545	5.e-002	8.9003
30239	24.	5.1818	0.1	113.15
30240	24.	5.2727	5.e-002	9.3797
30241	24.	5.	0.1	127.08
30242	24.	5.0909	5.e-002	9.5978
30243	24.	4.8182	0.1	139.13
30244	24.	4.9091	5.e-002	9.6353
30245	24.	4.6364	0.1	149.56
30246	24.	4.7273	5.e-002	9.5465
30247	24.	4.4545	0.1	158.57
30248	24.	4.5455	5.e-002	9.3715
30249	24.	4.2727	0.1	166.29
30250	24.	4.3636	5.e-002	9.1412
30251	24.	4.0909	0.1	172.82
30252	24.	4.1818	5.e-002	8.8809
30253	24.	3.9091	0.1	178.24
30254	24.	4.	5.e-002	8.6124
30255	24.	3.7273	0.1	182.6
30256	24.	3.8182	5.e-002	8.3547
30257	24.	3.5455	0.1	185.96
30258	24.	3.6364	5.e-002	8.1249
30259	24.	3.3636	0.1	188.33
30260	24.	3.4545	5.e-002	7.938
30261	24.	3.1818	0.1	189.75
30262	24.	3.2727	5.e-002	7.806
30263	24.	3.	0.1	190.22
30264	24.	3.0909	5.e-002	7.7376
30265	24.	2.8182	0.1	189.75
30266	24.	2.9091	5.e-002	7.7376
30267	24.	2.6364	0.1	188.33
30268	24.	2.7273	5.e-002	7.806
30269	24.	2.4545	0.1	185.96
30270	24.	2.5455	5.e-002	7.938
30271	24.	2.2727	0.1	182.6
30272	24.	2.3636	5.e-002	8.1249
30273	24.	2.0909	0.1	178.24
30274	24.	2.1818	5.e-002	8.3547
30275	24.	1.9091	0.1	172.82
30276	24.	2.	5.e-002	8.6124
30277	24.	1.7273	0.1	166.29
30278	24.	1.8182	5.e-002	8.8809
30279	24.	1.5455	0.1	158.57
30280	24.	1.6364	5.e-002	9.1412
30281	24.	1.3636	0.1	149.56
30282	24.	1.4545	5.e-002	9.3715
30283	24.	1.1818	0.1	139.13
30284	24.	1.2727	5.e-002	9.5465
30285	24.	1.	0.1	127.08
30286	24.	1.0909	5.e-002	9.6353
30287	24.	0.81818	0.1	113.15
30288	24.	0.90909	5.e-002	9.5978
30289	24.	0.63636	0.1	96.886
30290	24.	0.72727	5.e-002	9.3797
30291	24.	0.45455	0.1	77.57
30292	24.	0.54545	5.e-002	8.9003
30293	24.	0.27273	0.1	53.299
30294	24.	0.36364	5.e-002	8.0158
30295	24.	9.0909e-002	0.1	23.217
30296	24.	0.18182	5.e-002	6.998
30297	2.3842e-015	0.27273	0.1	1903.
30298	7.9472e-016	9.0909e-002	0.1	1417.9
30299	1.6109e-015	0.18182	5.e-002	144.21
30300	3.9736e-015	0.45455	0.1	2688.
30301	3.2219e-015	0.36364	5.e-002	96.108
30302	5.563e-015	0.63636	0.1	3102.5
30303	4.8328e-015	0.54545	5.e-002	88.602
30304	7.1525e-015	0.81818	0.1	3366.7
30305	6.4438e-015	0.72727	5.e-002	79.048
30306	8.7419e-015	1.	0.1	3544.2
30307	8.0547e-015	0.90909	5.e-002	68.091
30308	1.0331e-014	1.1818	0.1	3669.
30309	9.6657e-015	1.0909	5.e-002	58.345
30310	1.1921e-014	1.3636	0.1	3758.4
30311	1.1277e-014	1.2727	5.e-002	49.925
30312	1.351e-014	1.5455	0.1	3822.7
30313	1.2888e-014	1.4545	5.e-002	42.557
30314	1.51e-014	1.7273	0.1	3868.8
30315	1.4498e-014	1.6364	5.e-002	36.084
30316	1.6689e-014	1.9091	0.1	3901.4
30317	1.6109e-014	1.8182	5.e-002	30.414
30318	1.8279e-014	2.0909	0.1	3924.
30319	1.772e-014	2.	5.e-002	25.506
30320	1.9868e-014	2.2727	0.1	3939.3
30321	1.9331e-014	2.1818	5.e-002	21.356
30322	2.1457e-014	2.4545	0.1	3949.2
30323	2.0942e-014	2.3636	5.e-002	17.982
30324	2.3047e-014	2.6364	0.1	3955.3
30325	2.2553e-014	2.5455	5.e-002	15.415
30326	2.4636e-014	2.8182	0.1	3958.5
30327	2.4164e-014	2.7273	5.e-002	13.684
30328	2.6226e-014	3.	0.1	3959.6
30329	2.5775e-014	2.9091	5.e-002	12.812
30330	2.7815e-014	3.1818	0.1	3958.5
30331	2.7386e-014	3.0909	5.e-002	12.812
30332	2.9405e-014	3.3636	0.1	3955.3
30333	2.8997e-014	3.2727	5.e-002	13.684
30334	3.0994e-014	3.5455	0.1	3949.2
30335	3.0608e-014	3.4545	5.e-002	15.415
30336	3.2583e-014	3.7273	0.1	3939.3
30337	3.2219e-014	3.6364	5.e-002	17.982
30338	3.4173e-014	3.9091	0.1	3924.
30339	3.383e-014	3.8182	5.e-002	21.356
30340	3.5762e-014	4.0909	0.1	3901.4
30341	3.5441e-014	4.	5.e-002	25.506
30342	3.7352e-014	4.2727	0.1	3868.8
30343	3.7052e-014	4.1818	5.e-002	30.414
30344	3.8941e-014	4.4545	0.1	3822.7
30345	3.8663e-014	4.3636	5.e-002	36.084
30346	4.0531e-014	4.6364	0.1	3758.4
30347	4.0274e-014	4.5455	5.e-002	42.557
30348	4.212e-014	4.8182	0.1	3669.
30349	4.1885e-014	4.7273	5.e-002	49.925
30350	4.371e-014	5.	0.1	3544.2
30351	4.3495e-014	4.9091	5.e-002	58.345
30352	4.5299e-014	5.1818	0.1	3366.7
30353	4.5106e-014	5.0909	5.e-002	68.091
30354	4.6888e-014	5.3636	0.1	3102.5
30355	4.6717e-014	5.2727	5.e-002	79.048
30356	4.8478e-014	5.5455	0.1	2688.
30357	4.8328e-014	5.4545	5.e-002	88.602
30358	5.0067e-014	5.7273	0.1	1903.
30359	4.9939e-014	5.6364	5.e-002	96.108
30360	5.1657e-014	5.9091	0.1	1417.9
30361	5.155e-014	5.8182	5.e-002	144.21
30362	23.908	0.	0.1	23.991
30363	24.	0.	5.e-002	7.8611
30364	23.723	0.	0.1	57.265
30365	23.815	0.	5.e-002	20.503
30366	23.539	0.	0.1	92.773
30367	23.631	0.	5.e-002	30.421
30368	23.354	0.	0.1	129.46
30369	23.446	0.	5.e-002	38.115
30370	23.169	0.	0.1	167.06
30371	23.262	0.	5.e-002	44.678
30372	22.985	0.	0.1	205.24
30373	23.077	0.	5.e-002	50.457
30374	22.8	0.	0.1	243.87
30375	22.893	0.	5.e-002	55.633
30376	22.616	0.	0.1	282.83
30377	22.708	0.	5.e-002	60.321
30378	22.431	0.	0.1	322.07
30379	22.523	0.	5.e-002	64.602
30380	22.247	0.	0.1	361.55
30381	22.339	0.	5.e-002	68.534
30382	22.062	0.	0.1	401.23
30383	22.154	0.	5.e-002	72.162
30384	21.877	0.	0.1	441.1
30385	21.97	0.	5.e-002	75.521
30386	21.693	0.	0.1	481.13
30387	21.785	0.	5.e-002	78.641
30388	21.508	0.	0.1	521.33
30389	21.601	0.	5.e-002	81.546
30390	21.324	0.	0.1	561.68
30391	21.416	0.	5.e-002	84.257
30392	21.139	0.	0.1	602.19
30393	21.231	0.	5.e-002	86.791
30394	20.955	0.	0.1	642.85
30395	21.047	0.	5.e-002	89.165
30396	20.77	0.	0.1	683.66
30397	20.862	0.	5.e-002	91.392
30398	20.585	0.	0.1	724.63
30399	20.678	0.	5.e-002	93.483
30400	20.401	0.	0.1	765.74
30401	20.493	0.	5.e-002	95.451
30402	20.216	0.	0.1	807.02
30403	20.309	0.	5.e-002	97.304
30404	20.032	0.	0.1	848.45
30405	20.124	0.	5.e-002	99.052
30406	19.847	0.	0.1	890.05
30407	19.94	0.	5.e-002	100.7
30408	19.663	0.	0.1	931.8
30409	19.755	0.	5.e-002	102.26
30410	19.478	0.	0.1	973.73
30411	19.57	0.	5.e-002	103.74
30412	19.294	0.	0.1	1015.8
30413	19.386	0.	5.e-002	105.14
30414	19.109	0.	0.1	1058.1
30415	19.201	0.	5.e-002	106.47
30416	18.924	0.	0.1	1100.5
30417	19.017	0.	5.e-002	107.73
30418	18.74	0.	0.1	1143.1
30419	18.832	0.	5.e-002	108.93
30420	18.555	0.	0.1	1185.9
30421	18.648	0.	5.e-002	110.07
30422	18.371	0.	0.1	1228.9
30423	18.463	0.	5.e-002	111.16
30424	18.186	0.	0.1	1272.1
30425	18.278	0.	5.e-002	112.19
30426	18.002	0.	0.1	1315.4
30427	18.094	0.	5.e-002	113.18
30428	17.817	0.	0.1	1359.
30429	17.909	0.	5.e-002	114.12
30430	17.632	0.	0.1	1402.7
30431	17.725	0.	5.e-002	115.02
30432	17.448	0.	0.1	1446.6
30433	17.54	0.	5.e-002	115.88
30434	17.263	0.	0.1	1490.7
30435	17.356	0.	5.e-002	116.71
30436	17.079	0.	0.1	1535.
30437	17.171	0.	5.e-002	117.49
30438	16.894	0.	0.1	1579.5
30439	16.986	0.	5.e-002	118.24
30440	16.71	0.	0.1	1624.2
30441	16.802	0.	5.e-002	118.96
30442	16.525	0.	0.1	1669.1
30443	16.617	0.	5.e-002	119.64
30444	16.34	0.	0.1	1714.1
30445	16.433	0.	5.e-002	120.29
30446	16.156	0.	0.1	1759.4
30447	16.248	0.	5.e-002	120.91
30448	15.971	0.	0.1	1804.9
30449	16.064	0.	5.e-002	121.5
30450	15.787	0.	0.1	1850.6
30451	15.879	0.	5.e-002	122.06
30452	15.602	0.	0.1	1896.5
30453	15.694	0.	5.e-002	122.59
30454	15.418	0.	0.1	1942.6
30455	15.51	0.	5.e-002	123.09
30456	15.233	0.	0.1	1988.9
30457	15.325	0.	5.e-002	123.55
30458	15.048	0.	0.1	2035.4
30459	15.141	0.	5.e-002	123.99
30460	14.864	0.	0.1	2082.1
30461	14.956	0.	5.e-002	124.39
30462	14.679	0.	0.1	2129.
30463	14.772	0.	5.e-002	124.76
30464	14.495	0.	0.1	2176.2
30465	14.587	0.	5.e-002	125.09
30466	14.31	0.	0.1	2223.5
30467	14.402	0.	5.e-002	125.39
30468	14.126	0.	0.1	2271.1
30469	14.218	0.	5.e-002	125.65
30470	13.941	0.	0.1	2318.8
30471	14.033	0.	5.e-002	125.88
30472	13.756	0.	0.1	2366.8
30473	13.849	0.	5.e-002	126.06
30474	13.572	0.	0.1	2415.
30475	13.664	0.	5.e-002	126.19
30476	13.387	0.	0.1	2463.4
30477	13.48	0.	5.e-002	126.28
30478	13.203	0.	0.1	2512.1
30479	13.295	0.	5.e-002	126.33
30480	13.018	0.	0.1	2561.
30481	13.11	0.	5.e-002	126.32
30482	12.834	0.	0.1	2610.
30483	12.926	0.	5.e-002	126.25
30484	12.649	0.	0.1	2659.3
30485	12.741	0.	5.e-002	126.13
30486	12.465	0.	0.1	2708.9
30487	12.557	0.	5.e-002	125.94
30488	12.28	0.	0.1	2758.6
30489	12.372	0.	5.e-002	125.69
30490	12.095	0.	0.1	2808.6
30491	12.188	0.	5.e-002	125.37
30492	11.911	0.	0.1	2858.8
30493	12.003	0.	5.e-002	124.97
30494	11.726	0.	0.1	2909.2
30495	11.819	0.	5.e-002	124.49
30496	11.542	0.	0.1	2959.9
30497	11.634	0.	5.e-002	123.92
30498	11.357	0.	0.1	3010.8
30499	11.449	0.	5.e-002	123.27
30500	11.173	0.	0.1	3061.9
30501	11.265	0.	5.e-002	122.51
30502	10.988	0.	0.1	3113.2
30503	11.08	0.	5.e-002	121.66
30504	10.803	0.	0.1	3164.7
30505	10.896	0.	5.e-002	120.7
30506	10.619	0.	0.1	3216.4
30507	10.711	0.	5.e-002	119.63
30508	10.434	0.	0.1	3268.3
30509	10.527	0.	5.e-002	118.45
30510	10.25	0.	0.1	3320.3
30511	10.342	0.	5.e-002	117.14
30512	10.065	0.	0.1	3372.5
30513	10.157	0.	5.e-002	115.71
30514	9.8806	0.	0.1	3424.7
30515	9.9728	0.	5.e-002	114.16
30516	9.696	0.	0.1	3477.
30517	9.7883	0.	5.e-002	112.49
30518	9.5114	0.	0.1	3529.2
30519	9.6037	0.	5.e-002	110.7
30520	9.3269	0.	0.1	3581.4
30521	9.4191	0.	5.e-002	108.79
30522	9.1423	0.	0.1	3633.2
30523	9.2346	0.	5.e-002	106.78
30524	8.9577	0.	0.1	3684.7
30525	9.05	0.	5.e-002	104.67
30526	8.7731	0.	0.1	3735.6
30527	8.8654	0.	5.e-002	102.5
30528	8.5886	0.	0.1	3785.7
30529	8.6809	0.	5.e-002	100.29
30530	8.404	0.	0.1	3834.7
30531	8.4963	0.	5.e-002	98.066
30532	8.2194	0.	0.1	3882.1
30533	8.3117	0.	5.e-002	95.888
30534	8.0349	0.	0.1	3927.6
30535	8.1272	0.	5.e-002	93.813
30536	7.8503	0.	0.1	3970.3
30537	7.9426	0.	5.e-002	91.915
30538	7.6657	0.	0.1	4009.6
30539	7.758	0.	5.e-002	90.284
30540	7.4812	0.	0.1	4044.4
30541	7.5735	0.	5.e-002	89.033
30542	7.2966	0.	0.1	4073.5
30543	7.3889	0.	5.e-002	88.29
30544	7.112	0.	0.1	4095.3
30545	7.2043	0.	5.e-002	88.207
30546	6.9275	0.	0.1	4107.9
30547	7.0198	0.	5.e-002	88.957
30548	6.7429	0.	0.1	4108.8
30549	6.8352	0.	5.e-002	90.725
30550	6.5583	0.	0.1	4095.
30551	6.6506	0.	5.e-002	93.707
30552	6.3738	0.	0.1	4063.1
30553	6.466	0.	5.e-002	98.092
30554	6.1892	0.	0.1	4008.7
30555	6.2815	0.	5.e-002	104.04
30556	6.0046	0.	0.1	3926.7
30557	6.0969	0.	5.e-002	111.62
30558	5.8201	0.	0.1	3811.3
30559	5.9123	0.	5.e-002	120.81
30560	5.6355	0.	0.1	3656.1
30561	5.7278	0.	5.e-002	131.35
30562	5.4509	0.	0.1	3454.
30563	5.5432	0.	5.e-002	142.66
30564	5.2664	0.	0.1	3198.2
30565	5.3586	0.	5.e-002	153.7
30566	5.0818	0.	0.1	2882.4
30567	5.1741	0.	5.e-002	162.81
30568	4.8972	0.	0.1	2502.2
30569	4.9895	0.	5.e-002	167.51
30570	4.7127	0.	0.1	2055.4
30571	4.8049	0.	5.e-002	164.4
30572	4.5281	0.	0.1	1542.8
30573	4.6204	0.	5.e-002	148.54
30574	4.3435	0.	0.1	959.11
30575	4.4358	0.	5.e-002	114.6
30576	4.159	0.	0.1	335.44
30577	4.2512	0.	5.e-002	43.655
30578	4.0667	0.	5.e-002	61.113
30579	3.8114	-1.0078e-030	0.1	403.02
30580	3.9	-1.0312e-030	5.e-002	75.539
30581	3.6341	-9.609e-031	0.1	1164.3
30582	3.7227	0.	5.e-002	69.91
30583	3.4568	-9.1402e-031	0.1	1875.1
30584	3.5455	0.	5.e-002	176.36
30585	3.2795	-8.6715e-031	0.1	2509.
30586	3.3682	0.	5.e-002	239.86
30587	3.1023	-8.2028e-031	0.1	3077.7
30588	3.1909	0.	5.e-002	283.86
30589	2.925	-7.734e-031	0.1	3581.6
30590	3.0136	0.	5.e-002	314.5
30591	2.7477	-7.2653e-031	0.1	4022.8
30592	2.8364	0.	5.e-002	337.51
30593	2.5705	-6.7966e-031	0.1	4404.6
30594	2.6591	0.	5.e-002	356.91
30595	2.3932	-6.3279e-031	0.1	4731.7
30596	2.4818	0.	5.e-002	375.76
30597	2.2159	-5.8591e-031	0.1	5009.3
30598	2.3045	0.	5.e-002	396.33
30599	2.0386	-5.3904e-031	0.1	5242.2
30600	2.1273	0.	5.e-002	420.27
30601	1.8614	-4.9217e-031	0.1	5434.8
30602	1.95	0.	5.e-002	448.78
30603	1.6841	-4.4529e-031	0.1	5589.7
30604	1.7727	0.	5.e-002	482.82
30605	1.5068	-3.9842e-031	0.1	5708.3
30606	1.5955	0.	5.e-002	523.19
30607	1.3295	-3.5155e-031	0.1	5789.3
30608	1.4182	0.	5.e-002	570.75
30609	1.1523	-3.0467e-031	0.1	5828.1
30610	1.2409	0.	5.e-002	626.51
30611	0.975	-2.578e-031	0.1	5814.7
30612	1.0636	0.	5.e-002	691.94
30613	0.79773	-2.1093e-031	0.1	5729.5
30614	0.88636	0.	5.e-002	769.11
30615	0.62045	-1.6406e-031	0.1	5533.6
30616	0.70909	0.	5.e-002	862.28
30617	0.44318	-1.1718e-031	0.1	5149.6
30618	0.53182	0.	5.e-002	977.32
30619	0.26591	-7.031e-032	0.1	4330.1
30620	0.35455	0.	5.e-002	1135.4
30621	8.8636e-002	-2.3437e-032	0.1	2587.2
30622	0.17727	0.	5.e-002	1451.8
30623	0.	0.	5.e-002	1937.7
30624	8.8636e-002	6.	0.1	2587.2
30625	5.2451e-014	6.	5.e-002	1937.7
30626	0.26591	6.	0.1	4330.1
30627	0.17727	6.	5.e-002	1451.8
30628	0.44318	6.	0.1	5149.6
30629	0.35455	6.	5.e-002	1135.4
30630	0.62045	6.	0.1	5533.6
30631	0.53182	6.	5.e-002	977.32
30632	0.79773	6.	0.1	5729.5
30633	0.70909	6.	5.e-002	862.28
30634	0.975	6.	0.1	5814.7
30635	0.88636	6.	5.e-002	769.11
30636	1.1523	6.	0.1	5828.1
30637	1.0636	6.	5.e-002	691.94
30638	1.3295	6.	0.1	5789.3
30639	1.2409	6.	5.e-002	626.51
30640	1.5068	6.	0.1	5708.3
30641	1.4182	6.	5.e-002	570.75
30642	1.6841	6.	0.1	5589.7
30643	1.5955	6.	5.e-002	523.19
30644	1.8614	6.	0.1	5434.8
30645	1.7727	6.	5.e-002	482.82
30646	2.0386	6.	0.1	5242.2
30647	1.95	6.	5.e-002	448.78
30648	2.2159	6.	0.1	5009.3
30649	2.1273	6.	5.e-002	420.27
30650	2.3932	6.	0.1	4731.7
30651	2.3045	6.	5.e-002	396.33
30652	2.5705	6.	0.1	4404.6
30653	2.4818	6.	5.e-002	375.76
30654	2.7477	6.	0.1	4022.8
30655	2.6591	6.	5.e-002	356.91
30656	2.925	6.	0.1	3581.6
30657	2.8364	6.	5.e-002	337.51
30658	3.1023	6.	0.1	3077.7
30659	3.0136	6.	5.e-002	314.5
30660	3.2795	6.	0.1	2509.
30661	3.1909	6.	5.e-002	283.86
30662	3.4568	6.	0.1	1875.1
30663	3.3682	6.	5.e-002	239.86
30664	3.6341	6.	0.1	1164.3
30665	3.5455	6.	5.e-002	176.36
30666	3.8114	6.	0.1	403.02
30667	3.7227	6.	5.e-002	69.91
30668	3.9	6.	5.e-002	75.539
30669	3.6341	6.	0.	1164.3
30670	3.8114	6.	0.	403.02
30671	3.4568	6.	0.	1875.1
30672	3.2795	6.	0.	2509.
30673	3.1023	6.	0.	3077.7
30674	2.925	6.	0.	3581.6
30675	2.7477	6.	0.	4022.8
30676	2.5705	6.	0.	4404.6
30677	2.3932	6.	0.	4731.7
30678	2.2159	6.	0.	5009.3
30679	2.0386	6.	0.	5242.2
30680	1.8614	6.	0.	5434.8
30681	1.6841	6.	0.	5589.7
30682	1.5068	6.	0.	5708.3
30683	1.3295	6.	0.	5789.3
30684	1.1523	6.	0.	5828.1
30685	0.975	6.	0.	5814.7
30686	0.79773	6.	0.	5729.5
30687	0.62045	6.	0.	5533.6
30688	0.44318	6.	0.	5149.6
30689	0.26591	6.	0.	4330.1
30690	8.8636e-002	6.	0.	2587.2
30691	3.9	5.9091	0.	349.85
30692	5.1657e-014	5.9091	0.	1417.9
30693	0.26591	-7.031e-032	0.	4330.1
30694	8.8636e-002	-2.3437e-032	0.	2587.2
30695	0.44318	-1.1718e-031	0.	5149.6
30696	0.62045	-1.6406e-031	0.	5533.6
30697	0.79773	-2.1093e-031	0.	5729.5
30698	0.975	-2.578e-031	0.	5814.7
30699	1.1523	-3.0467e-031	0.	5828.1
30700	1.3295	-3.5155e-031	0.	5789.3
30701	1.5068	-3.9842e-031	0.	5708.3
30702	1.6841	-4.4529e-031	0.	5589.7
30703	1.8614	-4.9217e-031	0.	5434.8
30704	2.0386	-5.3904e-031	0.	5242.2
30705	2.2159	-5.8591e-031	0.	5009.3
30706	2.3932	-6.3279e-031	0.	4731.7
30707	2.5705	-6.7966e-031	0.	4404.6
30708	2.7477	-7.2653e-031	0.	4022.8
30709	2.925	-7.734e-031	0.	3581.6
30710	3.1023	-8.2028e-031	0.	3077.7
30711	3.2795	-8.6715e-031	0.	2509.
30712	3.4568	-9.1402e-031	0.	1875.1
30713	3.6341	-9.609e-031	0.	1164.3
30714	3.8114	-1.0078e-030	0.	403.02
30715	3.9	9.0909e-002	0.	349.85
30716	7.9472e-016	9.0909e-002	0.	1417.9
30717	4.3435	0.	0.	959.11
30718	4.159	0.	0.	335.44
30719	4.5281	0.	0.	1542.8
30720	4.7127	0.	0.	2055.4
30721	4.8972	0.	0.	2502.2
30722	5.0818	0.	0.	2882.4
30723	5.2664	0.	0.	3198.2
30724	5.4509	0.	0.	3454.
30725	5.6355	0.	0.	3656.1
30726	5.8201	0.	0.	3811.3
30727	6.0046	0.	0.	3926.7
30728	6.1892	0.	0.	4008.7
30729	6.3738	0.	0.	4063.1
30730	6.5583	0.	0.	4095.
30731	6.7429	0.	0.	4108.8
30732	6.9275	0.	0.	4107.9
30733	7.112	0.	0.	4095.3
30734	7.2966	0.	0.	4073.5
30735	7.4812	0.	0.	4044.4
30736	7.6657	0.	0.	4009.6
30737	7.8503	0.	0.	3970.3
30738	8.0349	0.	0.	3927.6
30739	8.2194	0.	0.	3882.1
30740	8.404	0.	0.	3834.7
30741	8.5886	0.	0.	3785.7
30742	8.7731	0.	0.	3735.6
30743	8.9577	0.	0.	3684.7
30744	9.1423	0.	0.	3633.2
30745	9.3269	0.	0.	3581.4
30746	9.5114	0.	0.	3529.2
30747	9.696	0.	0.	3477.
30748	9.8806	0.	0.	3424.7
30749	10.065	0.	0.	3372.5
30750	10.25	0.	0.	3320.3
30751	10.434	0.	0.	3268.3
30752	10.619	0.	0.	3216.4
30753	10.803	0.	0.	3164.7
30754	10.988	0.	0.	3113.2
30755	11.173	0.	0.	3061.9
30756	11.357	0.	0.	3010.8
30757	11.542	0.	0.	2959.9
30758	11.726	0.	0.	2909.2
30759	11.911	0.	0.	2858.8
30760	12.095	0.	0.	2808.6
30761	12.28	0.	0.	2758.6
30762	12.465	0.	0.	2708.9
30763	12.649	0.	0.	2659.3
30764	12.834	0.	0.	2610.
30765	13.018	0.	0.	2560.9
30766	13.203	0.	0.	2512.1
30767	13.387	0.	0.	2463.4
30768	13.572	0.	0.	2415.
30769	13.756	0.	0.	2366.8
30770	13.941	0.	0.	2318.8
30771	14.126	0.	0.	2271.1
30772	14.31	0.	0.	2223.5
30773	14.495	0.	0.	2176.2
30774	14.679	0.	0.	2129.
30775	14.864	0.	0.	2082.1
30776	15.048	0.	0.	2035.4
30777	15.233	0.	0.	1988.9
30778	15.418	0.	0.	1942.6
30779	15.602	0.	0.	1896.5
30780	15.787	0.	0.	1850.6
30781	15.971	0.	0.	1804.9
30782	16.156	0.	0.	1759.4
30783	16.34	0.	0.	1714.1
30784	16.525	0.	0.	1669.1
30785	16.71	0.	0.	1624.2
30786	16.894	0.	0.	1579.5
30787	17.079	0.	0.	1535.
30788	17.263	0.	0.	1490.7
30789	17.448	0.	0.	1446.6
30790	17.632	0.	0.	1402.7
30791	17.817	0.	0.	1359.
30792	18.002	0.	0.	1315.4
30793	18.186	0.	0.	1272.1
30794	18.371	0.	0.	1228.9
30795	18.555	0.	0.	1185.9
30796	18.74	0.	0.	1143.1
30797	18.924	0.	0.	1100.5
30798	19.109	0.	0.	1058.1
30799	19.294	0.	0.	1015.8
30800	19.478	0.	0.	973.73
30801	19.663	0.	0.	931.8
30802	19.847	0.	0.	890.05
30803	20.032	0.	0.	848.45
30804	20.216	0.	0.	807.02
30805	20.401	0.	0.	765.74
30806	20.585	0.	0.	724.63
30807	20.77	0.	0.	683.66
30808	20.955	0.	0.	642.85
30809	21.139	0.	0.	602.19
30810	21.324	0.	0.	561.68
30811	21.508	0.	0.	521.33
30812	21.693	0.	0.	481.13
30813	21.877	0.	0.	441.1
30814	22.062	0.	0.	401.23
30815	22.247	0.	0.	361.55
30816	22.431	0.	0.	322.07
30817	22.616	0.	0.	282.83
30818	22.8	0.	0.	243.87
30819	22.985	0.	0.	205.24
30820	23.169	0.	0.	167.06
30821	23.354	0.	0.	129.46
30822	23.539	0.	0.	92.773
30823	23.723	0.	0.	57.265
30824	23.908	0.	0.	23.991
30825	4.0667	9.0909e-002	0.	274.05
30826	24.	9.0909e-002	0.	23.217
30827	5.0067e-014	5.7273	0.	1903.
30828	4.8478e-014	5.5455	0.	2688.
30829	4.6888e-014	5.3636	0.	3102.5
30830	4.5299e-014	5.1818	0.	3366.7
30831	4.371e-014	5.	0.	3544.2
30832	4.212e-014	4.8182	0.	3669.
30833	4.0531e-014	4.6364	0.	3758.4
30834	3.8941e-014	4.4545	0.	3822.7
30835	3.7352e-014	4.2727	0.	3868.8
30836	3.5762e-014	4.0909	0.	3901.4
30837	3.4173e-014	3.9091	0.	3924.
30838	3.2583e-014	3.7273	0.	3939.3
30839	3.0994e-014	3.5455	0.	3949.2
30840	2.9405e-014	3.3636	0.	3955.3
30841	2.7815e-014	3.1818	0.	3958.5
30842	2.6226e-014	3.	0.	3959.6
30843	2.4636e-014	2.8182	0.	3958.5
30844	2.3047e-014	2.6364	0.	3955.3
30845	2.1457e-014	2.4545	0.	3949.2
30846	1.9868e-014	2.2727	0.	3939.3
30847	1.8279e-014	2.0909	0.	3924.
30848	1.6689e-014	1.9091	0.	3901.4
30849	1.51e-014	1.7273	0.	3868.8
30850	1.351e-014	1.5455	0.	3822.7
30851	1.1921e-014	1.3636	0.	3758.4
30852	1.0331e-014	1.1818	0.	3669.
30853	8.7419e-015	1.	0.	3544.2
30854	7.1525e-015	0.81818	0.	3366.7
30855	5.563e-015	0.63636	0.	3102.5
30856	3.9736e-015	0.45455	0.	2688.
30857	2.3842e-015	0.27273	0.	1903.
30858	24.	0.27273	0.	53.299
30859	24.	0.45455	0.	77.57
30860	24.	0.63636	0.	96.886
30861	24.	0.81818	0.	113.15
30862	24.	1.	0.	127.08
30863	24.	1.1818	0.	139.13
30864	24.	1.3636	0.	149.56
30865	24.	1.5455	0.	158.57
30866	24.	1.7273	0.	166.29
30867	24.	1.9091	0.	172.82
30868	24.	2.0909	0.	178.24
30869	24.	2.2727	0.	182.6
30870	24.	2.4545	0.	185.96
30871	24.	2.6364	0.	188.33
30872	24.	2.8182	0.	189.75
30873	24.	3.	0.	190.22
30874	24.	3.1818	0.	189.75
30875	24.	3.3636	0.	188.33
30876	24.	3.5455	0.	185.96
30877	24.	3.7273	0.	182.6
30878	24.	3.9091	0.	178.24
30879	24.	4.0909	0.	172.82
30880	24.	4.2727	0.	166.29
30881	24.	4.4545	0.	158.57
30882	24.	4.6364	0.	149.56
30883	24.	4.8182	0.	139.13
30884	24.	5.	0.	127.08
30885	24.	5.1818	0.	113.15
30886	24.	5.3636	0.	96.886
30887	24.	5.5455	0.	77.57
30888	24.	5.7273	0.	53.299
30889	24.	5.9091	0.	23.217
30890	23.908	6.	0.	23.991
30891	23.723	6.	0.	57.265
30892	23.539	6.	0.	92.773
30893	23.354	6.	0.	129.46
30894	23.169	6.	0.	167.06
30895	22.985	6.	0.	205.24
30896	22.8	6.	0.	243.87
30897	22.616	6.	0.	282.83
30898	22.431	6.	0.	322.07
30899	22.247	6.	0.	361.55
30900	22.062	6.	0.	401.23
30901	21.877	6.	0.	441.1
30902	21.693	6.	0.	481.13
30903	21.508	6.	0.	521.33
30904	21.324	6.	0.	561.68
30905	21.139	6.	0.	602.19
30906	20.955	6.	0.	642.85
30907	20.77	6.	0.	683.66
30908	20.585	6.	0.	724.63
30909	20.401	6.	0.	765.74
30910	20.216	6.	0.	807.02
30911	20.032	6.	0.	848.45
30912	19.847	6.	0.	890.05
30913	19.663	6.	0.	931.8
30914	19.478	6.	0.	973.73
30915	19.294	6.	0.	1015.8
30916	19.109	6.	0.	1058.1
30917	18.924	6.	0.	1100.5
30918	18.74	6.	0.	1143.1
30919	18.555	6.	0.	1185.9
30920	18.371	6.	0.	1228.9
30921	18.186	6.	0.	1272.1
30922	18.002	6.	0.	1315.4
30923	17.817	6.	0.	1359.
30924	17.632	6.	0.	1402.7
30925	17.448	6.	0.	1446.6
30926	17.263	6.	0.	1490.7
30927	17.079	6.	0.	1535.
30928	16.894	6.	0.	1579.5
30929	16.71	6.	0.	1624.2
30930	16.525	6.	0.	1669.1
30931	16.34	6.	0.	1714.1
30932	16.156	6.	0.	1759.4
30933	15.971	6.	0.	1804.9
30934	15.787	6.	0.	1850.6
30935	15.602	6.	0.	1896.5
30936	15.418	6.	0.	1942.6
30937	15.233	6.	0.	1988.9
30938	15.048	6.	0.	2035.4
30939	14.864	6.	0.	2082.1
30940	14.679	6.	0.	2129.
30941	14.495	6.	0.	2176.2
30942	14.31	6.	0.	2223.5
30943	14.126	6.	0.	2271.1
30944	13.941	6.	0.	2318.8
30945	13.756	6.	0.	2366.8
30946	13.572	6.	0.	2415.
30947	13.387	6.	0.	2463.4
30948	13.203	6.	0.	2512.1
30949	13.018	6.	0.	2561.
30950	12.834	6.	0.	2610.
30951	12.649	6.	0.	2659.3
30952	12.465	6.	0.	2708.9
30953	12.28	6.	0.	2758.6
30954	12.095	6.	0.	2808.6
30955	11.911	6.	0.	2858.8
30956	11.726	6.	0.	2909.2
30957	11.542	6.	0.	2959.9
30958	11.357	6.	0.	3010.8
30959	11.173	6.	0.	3061.9
30960	10.988	6.	0.	3113.2
30961	10.803	6.	0.	3164.7
30962	10.619	6.	0.	3216.4
30963	10.434	6.	0.	3268.3
30964	10.25	6.	0.	3320.3
30965	10.065	6.	0.	3372.5
30966	9.8806	6.	0.	3424.7
30967	9.696	6.	0.	3477.
30968	9.5114	6.	0.	3529.2
30969	9.3269	6.	0.	3581.4
30970	9.1423	6.	0.	3633.2
30971	8.9577	6.	0.	3684.7
30972	8.7731	6.	0.	3735.6
30973	8.5886	6.	0.	3785.7
30974	8.404	6.	0.	3834.7
30975	8.2194	6.	0.	3882.1
30976	8.0349	6.	0.	3927.6
30977	7.8503	6.	0.	3970.3
30978	7.6657	6.	0.	4009.6
30979	7.4812	6.	0.	4044.4
30980	7.2966	6.	0.	4073.5
30981	7.112	6.	0.	4095.3
30982	6.9275	6.	0.	4107.9
30983	6.7429	6.	0.	4108.8
30984	6.5583	6.	0.	4095.
30985	6.3738	6.	0.	4063.1
30986	6.1892	6.	0.	4008.7
30987	6.0046	6.	0.	3926.7
30988	5.8201	6.	0.	3811.3
30989	5.6355	6.	0.	3656.1
30990	5.4509	6.	0.	3454.
30991	5.2664	6.	0.	3198.2
30992	5.0818	6.	0.	2882.4
30993	4.8972	6.	0.	2502.2
30994	4.7127	6.	0.	2055.4
30995	4.5281	6.	0.	1542.8
30996	4.3435	6.	0.	959.11
30997	4.159	6.	0.	335.44
30998	4.0667	5.9091	0.	274.05
30999	3.9	1.7273	0.	8936.8
31000	3.9	1.9091	0.	17236
31001	3.9	1.5455	0.	6004.1
31002	3.9	1.3636	0.	4813.8
31003	3.9	1.1818	0.	3885.7
31004	3.9	1.	0.	3172.2
31005	3.9	0.81818	0.	2568.7
31006	3.9	0.63636	0.	2025.9
31007	3.9	0.45455	0.	1507.7
31008	3.9	0.27273	0.	968.61
31009	3.9833	2.	0.	24004
31010	4.0667	0.27273	0.	758.46
31011	4.0667	0.45455	0.	1194.1
31012	4.0667	0.63636	0.	1631.5
31013	4.0667	0.81818	0.	2109.3
31014	4.0667	1.	0.	2660.9
31015	4.0667	1.1818	0.	3334.2
31016	4.0667	1.3636	0.	4229.1
31017	4.0667	1.5455	0.	5403.5
31018	4.0667	1.7273	0.	8294.7
31019	4.0667	1.9091	0.	16636
31020	3.9	4.2727	0.	8936.8
31021	3.9	4.0909	0.	17236
31022	3.9	4.4545	0.	6004.1
31023	3.9	4.6364	0.	4813.8
31024	3.9	4.8182	0.	3885.7
31025	3.9	5.	0.	3172.2
31026	3.9	5.1818	0.	2568.7
31027	3.9	5.3636	0.	2025.9
31028	3.9	5.5455	0.	1507.7
31029	3.9	5.7273	0.	968.61
31030	3.9833	4.	0.	24004
31031	4.0667	5.7273	0.	758.46
31032	4.0667	5.5455	0.	1194.1
31033	4.0667	5.3636	0.	1631.5
31034	4.0667	5.1818	0.	2109.3
31035	4.0667	5.	0.	2660.9
31036	4.0667	4.8182	0.	3334.2
31037	4.0667	4.6364	0.	4229.1
31038	4.0667	4.4545	0.	5403.5
31039	4.0667	4.2727	0.	8294.7
31040	4.0667	4.0909	0.	16636
