Node Number	X Location (in)	Y Location (in)	Z Location (in)	Middle Principal Stress (psi)
1	3.9	2.1818	0.	146.67
2	3.9	2.3636	0.	-51.055
3	3.9	2.5455	0.	-0.62892
4	3.9	2.7273	0.	-6.0951
5	3.9	2.9091	0.	-3.2658
6	3.9	3.0909	0.	-3.2658
7	3.9	3.2727	0.	-6.0951
8	3.9	3.4545	0.	-0.6289
9	3.9	3.6364	0.	-51.055
10	3.9	3.8182	0.	146.67
11	4.0667	2.1818	0.	131.23
12	4.0667	2.3636	0.	-48.905
13	4.0667	2.5455	0.	0.62171
14	4.0667	2.7273	0.	-5.397
15	4.0667	2.9091	0.	-2.7168
16	4.0667	3.0909	0.	-2.7168
17	4.0667	3.2727	0.	-5.397
18	4.0667	3.4545	0.	0.62172
19	4.0667	3.6364	0.	-48.905
20	4.0667	3.8182	0.	131.23
21	3.7227	5.8182	0.	-39.131
22	3.7227	5.6364	0.	-18.315
23	3.7227	5.4545	0.	-13.162
24	3.7227	5.2727	0.	-10.962
25	3.7227	5.0909	0.	-10.389
26	3.7227	4.9091	0.	-12.535
27	3.7227	4.7273	0.	-9.8506
28	3.7227	4.5455	0.	-33.614
29	3.7227	4.3636	0.	20.093
30	3.7227	4.1818	0.	-202.54
31	3.7227	4.	0.	-755.19
32	3.7227	3.8182	0.	5.8063
33	3.7227	3.6364	0.	-26.562
34	3.7227	3.4545	0.	3.89
35	3.7227	3.2727	0.	-5.5385
36	3.7227	3.0909	0.	-1.6324
37	3.7227	2.9091	0.	-1.6324
38	3.7227	2.7273	0.	-5.5385
39	3.7227	2.5455	0.	3.89
40	3.7227	2.3636	0.	-26.562
41	3.7227	2.1818	0.	5.8064
42	3.7227	2.	0.	-755.19
43	3.7227	1.8182	0.	-202.54
44	3.7227	1.6364	0.	20.093
45	3.7227	1.4545	0.	-33.614
46	3.7227	1.2727	0.	-9.8506
47	3.7227	1.0909	0.	-12.535
48	3.7227	0.90909	0.	-10.389
49	3.7227	0.72727	0.	-10.962
50	3.7227	0.54545	0.	-13.162
51	3.7227	0.36364	0.	-18.315
52	3.7227	0.18182	0.	-39.131
53	3.5455	5.8182	0.	-17.002
54	3.5455	5.6364	0.	-12.347
55	3.5455	5.4545	0.	-6.6443
56	3.5455	5.2727	0.	-3.5728
57	3.5455	5.0909	0.	-2.3877
58	3.5455	4.9091	0.	-1.7362
59	3.5455	4.7273	0.	-1.9825
60	3.5455	4.5455	0.	-3.8796
61	3.5455	4.3636	0.	-0.34362
62	3.5455	4.1818	0.	13.619
63	3.5455	4.	0.	96.764
64	3.5455	3.8182	0.	53.314
65	3.5455	3.6364	0.	-11.443
66	3.5455	3.4545	0.	-0.92894
67	3.5455	3.2727	0.	-1.5349
68	3.5455	3.0909	0.	-0.61837
69	3.5455	2.9091	0.	-0.61837
70	3.5455	2.7273	0.	-1.5349
71	3.5455	2.5455	0.	-0.92893
72	3.5455	2.3636	0.	-11.443
73	3.5455	2.1818	0.	53.314
74	3.5455	2.	0.	96.764
75	3.5455	1.8182	0.	13.619
76	3.5455	1.6364	0.	-0.34364
77	3.5455	1.4545	0.	-3.8795
78	3.5455	1.2727	0.	-1.9825
79	3.5455	1.0909	0.	-1.7362
80	3.5455	0.90909	0.	-2.3877
81	3.5455	0.72727	0.	-3.5728
82	3.5455	0.54545	0.	-6.6443
83	3.5455	0.36364	0.	-12.347
84	3.5455	0.18182	0.	-17.002
85	3.3682	5.8182	0.	-9.8032
86	3.3682	5.6364	0.	-10.502
87	3.3682	5.4545	0.	-8.1681
88	3.3682	5.2727	0.	-6.0826
89	3.3682	5.0909	0.	-5.1752
90	3.3682	4.9091	0.	-5.2611
91	3.3682	4.7273	0.	-5.7542
92	3.3682	4.5455	0.	-5.9343
93	3.3682	4.3636	0.	-15.906
94	3.3682	4.1818	0.	-12.567
95	3.3682	4.	0.	-22.222
96	3.3682	3.8182	0.	-34.331
97	3.3682	3.6364	0.	-152.91
98	3.3682	3.4545	0.	-190.29
99	3.3682	3.2727	0.	-198.73
100	3.3682	3.0909	0.	-200.32
101	3.3682	2.9091	0.	-200.32
102	3.3682	2.7273	0.	-198.73
103	3.3682	2.5455	0.	-190.29
104	3.3682	2.3636	0.	-152.91
105	3.3682	2.1818	0.	-34.331
106	3.3682	2.	0.	-22.222
107	3.3682	1.8182	0.	-12.567
108	3.3682	1.6364	0.	-15.906
109	3.3682	1.4545	0.	-5.9343
110	3.3682	1.2727	0.	-5.7542
111	3.3682	1.0909	0.	-5.2611
112	3.3682	0.90909	0.	-5.1752
113	3.3682	0.72727	0.	-6.0826
114	3.3682	0.54545	0.	-8.1681
115	3.3682	0.36364	0.	-10.502
116	3.3682	0.18182	0.	-9.8031
117	3.1909	5.8182	0.	-5.2033
118	3.1909	5.6364	0.	-6.7687
119	3.1909	5.4545	0.	-6.9428
120	3.1909	5.2727	0.	-5.9617
121	3.1909	5.0909	0.	-5.3109
122	3.1909	4.9091	0.	-5.1027
123	3.1909	4.7273	0.	-5.5602
124	3.1909	4.5455	0.	-6.7198
125	3.1909	4.3636	0.	-6.7615
126	3.1909	4.1818	0.	-14.469
127	3.1909	4.	0.	-123.83
128	3.1909	3.8182	0.	-340.37
129	3.1909	3.6364	0.	-469.09
130	3.1909	3.4545	0.	-518.26
131	3.1909	3.2727	0.	-531.15
132	3.1909	3.0909	0.	-533.22
133	3.1909	2.9091	0.	-533.22
134	3.1909	2.7273	0.	-531.15
135	3.1909	2.5455	0.	-518.26
136	3.1909	2.3636	0.	-469.09
137	3.1909	2.1818	0.	-340.37
138	3.1909	2.	0.	-123.83
139	3.1909	1.8182	0.	-14.469
140	3.1909	1.6364	0.	-6.7615
141	3.1909	1.4545	0.	-6.7198
142	3.1909	1.2727	0.	-5.5602
143	3.1909	1.0909	0.	-5.1027
144	3.1909	0.90909	0.	-5.3109
145	3.1909	0.72727	0.	-5.9617
146	3.1909	0.54545	0.	-6.9428
147	3.1909	0.36364	0.	-6.7687
148	3.1909	0.18182	0.	-5.2033
149	3.0136	5.8182	0.	-3.3377
150	3.0136	5.6364	0.	-5.0091
151	3.0136	5.4545	0.	-6.531
152	3.0136	5.2727	0.	-6.9644
153	3.0136	5.0909	0.	-7.11
154	3.0136	4.9091	0.	-7.5773
155	3.0136	4.7273	0.	-9.0562
156	3.0136	4.5455	0.	-14.211
157	3.0136	4.3636	0.	-50.783
158	3.0136	4.1818	0.	-209.43
159	3.0136	4.	0.	-413.24
160	3.0136	3.8182	0.	-590.35
161	3.0136	3.6364	0.	-707.91
162	3.0136	3.4545	0.	-769.49
163	3.0136	3.2727	0.	-795.47
164	3.0136	3.0909	0.	-804.07
165	3.0136	2.9091	0.	-804.07
166	3.0136	2.7273	0.	-795.47
167	3.0136	2.5455	0.	-769.49
168	3.0136	2.3636	0.	-707.91
169	3.0136	2.1818	0.	-590.35
170	3.0136	2.	0.	-413.25
171	3.0136	1.8182	0.	-209.43
172	3.0136	1.6364	0.	-50.783
173	3.0136	1.4545	0.	-14.211
174	3.0136	1.2727	0.	-9.0562
175	3.0136	1.0909	0.	-7.5773
176	3.0136	0.90909	0.	-7.11
177	3.0136	0.72727	0.	-6.9644
178	3.0136	0.54545	0.	-6.531
179	3.0136	0.36364	0.	-5.0091
180	3.0136	0.18182	0.	-3.3377
181	2.8364	5.8182	0.	-2.4239
182	2.8364	5.6364	0.	-4.1964
183	2.8364	5.4545	0.	-7.0279
184	2.8364	5.2727	0.	-10.521
185	2.8364	5.0909	0.	-15.973
186	2.8364	4.9091	0.	-29.368
187	2.8364	4.7273	0.	-70.752
188	2.8364	4.5455	0.	-158.93
189	2.8364	4.3636	0.	-292.4
190	2.8364	4.1818	0.	-458.36
191	2.8364	4.	0.	-631.57
192	2.8364	3.8182	0.	-783.13
193	2.8364	3.6364	0.	-894.62
194	2.8364	3.4545	0.	-964.14
195	2.8364	3.2727	0.	-1001.1
196	2.8364	3.0909	0.	-1016.4
197	2.8364	2.9091	0.	-1016.4
198	2.8364	2.7273	0.	-1001.1
199	2.8364	2.5455	0.	-964.14
200	2.8364	2.3636	0.	-894.62
201	2.8364	2.1818	0.	-783.14
202	2.8364	2.	0.	-631.57
203	2.8364	1.8182	0.	-458.36
204	2.8364	1.6364	0.	-292.4
205	2.8364	1.4545	0.	-158.93
206	2.8364	1.2727	0.	-70.752
207	2.8364	1.0909	0.	-29.368
208	2.8364	0.90909	0.	-15.973
209	2.8364	0.72727	0.	-10.521
210	2.8364	0.54545	0.	-7.0279
211	2.8364	0.36364	0.	-4.1964
212	2.8364	0.18182	0.	-2.4239
213	2.6591	5.8182	0.	-2.0962
214	2.6591	5.6364	0.	-4.2227
215	2.6591	5.4545	0.	-10.53
216	2.6591	5.2727	0.	-31.832
217	2.6591	5.0909	0.	-78.768
218	2.6591	4.9091	0.	-146.62
219	2.6591	4.7273	0.	-236.98
220	2.6591	4.5455	0.	-352.97
221	2.6591	4.3636	0.	-493.2
222	2.6591	4.1818	0.	-648.58
223	2.6591	4.	0.	-803.21
224	2.6591	3.8182	0.	-939.71
225	2.6591	3.6364	0.	-1046.2
226	2.6591	3.4545	0.	-1119.4
227	2.6591	3.2727	0.	-1163.2
228	2.6591	3.0909	0.	-1183.2
229	2.6591	2.9091	0.	-1183.2
230	2.6591	2.7273	0.	-1163.2
231	2.6591	2.5455	0.	-1119.4
232	2.6591	2.3636	0.	-1046.2
233	2.6591	2.1818	0.	-939.71
234	2.6591	2.	0.	-803.21
235	2.6591	1.8182	0.	-648.58
236	2.6591	1.6364	0.	-493.2
237	2.6591	1.4545	0.	-352.97
238	2.6591	1.2727	0.	-236.98
239	2.6591	1.0909	0.	-146.62
240	2.6591	0.90909	0.	-78.768
241	2.6591	0.72727	0.	-31.832
242	2.6591	0.54545	0.	-10.53
243	2.6591	0.36364	0.	-4.2227
244	2.6591	0.18182	0.	-2.0962
245	2.4818	5.8182	0.	-2.1149
246	2.4818	5.6364	0.	-5.4308
247	2.4818	5.4545	0.	-28.279
248	2.4818	5.2727	0.	-90.714
249	2.4818	5.0909	0.	-171.92
250	2.4818	4.9091	0.	-268.53
251	2.4818	4.7273	0.	-381.61
252	2.4818	4.5455	0.	-511.18
253	2.4818	4.3636	0.	-653.97
254	2.4818	4.1818	0.	-802.39
255	2.4818	4.	0.	-945.56
256	2.4818	3.8182	0.	-1072.2
257	2.4818	3.6364	0.	-1174.2
258	2.4818	3.4545	0.	-1248.3
259	2.4818	3.2727	0.	-1295.2
260	2.4818	3.0909	0.	-1317.7
261	2.4818	2.9091	0.	-1317.7
262	2.4818	2.7273	0.	-1295.2
263	2.4818	2.5455	0.	-1248.3
264	2.4818	2.3636	0.	-1174.2
265	2.4818	2.1818	0.	-1072.2
266	2.4818	2.	0.	-945.56
267	2.4818	1.8182	0.	-802.39
268	2.4818	1.6364	0.	-653.97
269	2.4818	1.4545	0.	-511.18
270	2.4818	1.2727	0.	-381.61
271	2.4818	1.0909	0.	-268.53
272	2.4818	0.90909	0.	-171.92
273	2.4818	0.72727	0.	-90.714
274	2.4818	0.54545	0.	-28.279
275	2.4818	0.36364	0.	-5.4308
276	2.4818	0.18182	0.	-2.1149
277	2.3045	5.8182	0.	-2.425
278	2.3045	5.6364	0.	-10.499
279	2.3045	5.4545	0.	-69.701
280	2.3045	5.2727	0.	-158.81
281	2.3045	5.0909	0.	-262.74
282	2.3045	4.9091	0.	-379.62
283	2.3045	4.7273	0.	-508.34
284	2.3045	4.5455	0.	-646.83
285	2.3045	4.3636	0.	-791.06
286	2.3045	4.1818	0.	-934.77
287	2.3045	4.	0.	-1070.2
288	2.3045	3.8182	0.	-1189.5
289	2.3045	3.6364	0.	-1287.1
290	2.3045	3.4545	0.	-1359.9
291	2.3045	3.2727	0.	-1407.6
292	2.3045	3.0909	0.	-1430.9
293	2.3045	2.9091	0.	-1430.9
294	2.3045	2.7273	0.	-1407.6
295	2.3045	2.5455	0.	-1359.9
296	2.3045	2.3636	0.	-1287.1
297	2.3045	2.1818	0.	-1189.5
298	2.3045	2.	0.	-1070.2
299	2.3045	1.8182	0.	-934.77
300	2.3045	1.6364	0.	-791.06
301	2.3045	1.4545	0.	-646.83
302	2.3045	1.2727	0.	-508.34
303	2.3045	1.0909	0.	-379.62
304	2.3045	0.90909	0.	-262.74
305	2.3045	0.72727	0.	-158.81
306	2.3045	0.54545	0.	-69.701
307	2.3045	0.36364	0.	-10.499
308	2.3045	0.18182	0.	-2.425
309	2.1273	5.8182	0.	-3.0423
310	2.1273	5.6364	0.	-28.454
311	2.1273	5.4545	0.	-118.9
312	2.1273	5.2727	0.	-228.54
313	2.1273	5.0909	0.	-351.36
314	2.1273	4.9091	0.	-484.44
315	2.1273	4.7273	0.	-625.05
316	2.1273	4.5455	0.	-769.97
317	2.1273	4.3636	0.	-915.05
318	2.1273	4.1818	0.	-1055.1
319	2.1273	4.	0.	-1184.5
320	2.1273	3.8182	0.	-1297.7
321	2.1273	3.6364	0.	-1390.7
322	2.1273	3.4545	0.	-1461.
323	2.1273	3.2727	0.	-1507.6
324	2.1273	3.0909	0.	-1530.8
325	2.1273	2.9091	0.	-1530.8
326	2.1273	2.7273	0.	-1507.6
327	2.1273	2.5455	0.	-1461.
328	2.1273	2.3636	0.	-1390.7
329	2.1273	2.1818	0.	-1297.7
330	2.1273	2.	0.	-1184.5
331	2.1273	1.8182	0.	-1055.1
332	2.1273	1.6364	0.	-915.05
333	2.1273	1.4545	0.	-769.97
334	2.1273	1.2727	0.	-625.05
335	2.1273	1.0909	0.	-484.44
336	2.1273	0.90909	0.	-351.36
337	2.1273	0.72727	0.	-228.54
338	2.1273	0.54545	0.	-118.9
339	2.1273	0.36364	0.	-28.455
340	2.1273	0.18182	0.	-3.0423
341	1.95	5.8182	0.	-4.0256
342	1.95	5.6364	0.	-57.159
343	1.95	5.4545	0.	-170.53
344	1.95	5.2727	0.	-299.62
345	1.95	5.0909	0.	-439.82
346	1.95	4.9091	0.	-587.05
347	1.95	4.7273	0.	-737.5
348	1.95	4.5455	0.	-887.4
349	1.95	4.3636	0.	-1032.8
350	1.95	4.1818	0.	-1169.6
351	1.95	4.	0.	-1293.6
352	1.95	3.8182	0.	-1401.1
353	1.95	3.6364	0.	-1489.2
354	1.95	3.4545	0.	-1555.9
355	1.95	3.2727	0.	-1600.5
356	1.95	3.0909	0.	-1622.8
357	1.95	2.9091	0.	-1622.8
358	1.95	2.7273	0.	-1600.5
359	1.95	2.5455	0.	-1555.9
360	1.95	2.3636	0.	-1489.2
361	1.95	2.1818	0.	-1401.1
362	1.95	2.	0.	-1293.6
363	1.95	1.8182	0.	-1169.6
364	1.95	1.6364	0.	-1032.8
365	1.95	1.4545	0.	-887.41
366	1.95	1.2727	0.	-737.5
367	1.95	1.0909	0.	-587.05
368	1.95	0.90909	0.	-439.82
369	1.95	0.72727	0.	-299.62
370	1.95	0.54545	0.	-170.53
371	1.95	0.36364	0.	-57.159
372	1.95	0.18182	0.	-4.0256
373	1.7727	5.8182	0.	-5.4219
374	1.7727	5.6364	0.	-88.338
375	1.7727	5.4545	0.	-223.91
376	1.7727	5.2727	0.	-372.97
377	1.7727	5.0909	0.	-530.36
378	1.7727	4.9091	0.	-690.91
379	1.7727	4.7273	0.	-850.08
380	1.7727	4.5455	0.	-1003.9
381	1.7727	4.3636	0.	-1149.1
382	1.7727	4.1818	0.	-1282.3
383	1.7727	4.	0.	-1401.
384	1.7727	3.8182	0.	-1502.5
385	1.7727	3.6364	0.	-1585.2
386	1.7727	3.4545	0.	-1647.8
387	1.7727	3.2727	0.	-1689.7
388	1.7727	3.0909	0.	-1710.7
389	1.7727	2.9091	0.	-1710.7
390	1.7727	2.7273	0.	-1689.7
391	1.7727	2.5455	0.	-1647.8
392	1.7727	2.3636	0.	-1585.2
393	1.7727	2.1818	0.	-1502.5
394	1.7727	2.	0.	-1401.
395	1.7727	1.8182	0.	-1282.3
396	1.7727	1.6364	0.	-1149.1
397	1.7727	1.4545	0.	-1003.9
398	1.7727	1.2727	0.	-850.08
399	1.7727	1.0909	0.	-690.91
400	1.7727	0.90909	0.	-530.36
401	1.7727	0.72727	0.	-372.97
402	1.7727	0.54545	0.	-223.91
403	1.7727	0.36364	0.	-88.338
404	1.7727	0.18182	0.	-5.4219
405	1.5955	5.8182	0.	-7.1716
406	1.5955	5.6364	0.	-120.1
407	1.5955	5.4545	0.	-279.63
408	1.5955	5.2727	0.	-450.26
409	1.5955	5.0909	0.	-625.59
410	1.5955	4.9091	0.	-799.29
411	1.5955	4.7273	0.	-966.38
412	1.5955	4.5455	0.	-1123.2
413	1.5955	4.3636	0.	-1267.1
414	1.5955	4.1818	0.	-1396.1
415	1.5955	4.	0.	-1508.7
416	1.5955	3.8182	0.	-1603.9
417	1.5955	3.6364	0.	-1680.7
418	1.5955	3.4545	0.	-1738.5
419	1.5955	3.2727	0.	-1777.1
420	1.5955	3.0909	0.	-1796.4
421	1.5955	2.9091	0.	-1796.4
422	1.5955	2.7273	0.	-1777.1
423	1.5955	2.5455	0.	-1738.5
424	1.5955	2.3636	0.	-1680.7
425	1.5955	2.1818	0.	-1603.9
426	1.5955	2.	0.	-1508.7
427	1.5955	1.8182	0.	-1396.1
428	1.5955	1.6364	0.	-1267.1
429	1.5955	1.4545	0.	-1123.2
430	1.5955	1.2727	0.	-966.38
431	1.5955	1.0909	0.	-799.29
432	1.5955	0.90909	0.	-625.59
433	1.5955	0.72727	0.	-450.26
434	1.5955	0.54545	0.	-279.63
435	1.5955	0.36364	0.	-120.1
436	1.5955	0.18182	0.	-7.1716
437	1.4182	5.8182	0.	-9.1166
438	1.4182	5.6364	0.	-152.62
439	1.4182	5.4545	0.	-339.33
440	1.4182	5.2727	0.	-534.18
441	1.4182	5.0909	0.	-728.79
442	1.4182	4.9091	0.	-915.66
443	1.4182	4.7273	0.	-1089.7
444	1.4182	4.5455	0.	-1248.
445	1.4182	4.3636	0.	-1389.1
446	1.4182	4.1818	0.	-1512.6
447	1.4182	4.	0.	-1618.3
448	1.4182	3.8182	0.	-1706.2
449	1.4182	3.6364	0.	-1776.4
450	1.4182	3.4545	0.	-1828.9
451	1.4182	3.2727	0.	-1863.8
452	1.4182	3.0909	0.	-1881.3
453	1.4182	2.9091	0.	-1881.3
454	1.4182	2.7273	0.	-1863.8
455	1.4182	2.5455	0.	-1828.9
456	1.4182	2.3636	0.	-1776.4
457	1.4182	2.1818	0.	-1706.2
458	1.4182	2.	0.	-1618.3
459	1.4182	1.8182	0.	-1512.6
460	1.4182	1.6364	0.	-1389.1
461	1.4182	1.4545	0.	-1248.
462	1.4182	1.2727	0.	-1089.7
463	1.4182	1.0909	0.	-915.66
464	1.4182	0.90909	0.	-728.79
465	1.4182	0.72727	0.	-534.18
466	1.4182	0.54545	0.	-339.33
467	1.4182	0.36364	0.	-152.62
468	1.4182	0.18182	0.	-9.1166
469	1.2409	5.8182	0.	-10.874
470	1.2409	5.6364	0.	-186.97
471	1.2409	5.4545	0.	-405.79
472	1.2409	5.2727	0.	-628.55
473	1.2409	5.0909	0.	-844.02
474	1.2409	4.9091	0.	-1043.6
475	1.2409	4.7273	0.	-1222.9
476	1.2409	4.5455	0.	-1380.4
477	1.2409	4.3636	0.	-1516.6
478	1.2409	4.1818	0.	-1632.7
479	1.2409	4.	0.	-1730.1
480	1.2409	3.8182	0.	-1809.7
481	1.2409	3.6364	0.	-1872.6
482	1.2409	3.4545	0.	-1919.2
483	1.2409	3.2727	0.	-1950.1
484	1.2409	3.0909	0.	-1965.5
485	1.2409	2.9091	0.	-1965.5
486	1.2409	2.7273	0.	-1950.1
487	1.2409	2.5455	0.	-1919.2
488	1.2409	2.3636	0.	-1872.6
489	1.2409	2.1818	0.	-1809.7
490	1.2409	2.	0.	-1730.1
491	1.2409	1.8182	0.	-1632.7
492	1.2409	1.6364	0.	-1516.6
493	1.2409	1.4545	0.	-1380.4
494	1.2409	1.2727	0.	-1222.9
495	1.2409	1.0909	0.	-1043.6
496	1.2409	0.90909	0.	-844.02
497	1.2409	0.72727	0.	-628.55
498	1.2409	0.54545	0.	-405.79
499	1.2409	0.36364	0.	-186.97
500	1.2409	0.18182	0.	-10.874
501	1.0636	5.8182	0.	-12.821
502	1.0636	5.6364	0.	-226.03
503	1.0636	5.4545	0.	-484.47
504	1.0636	5.2727	0.	-739.92
505	1.0636	5.0909	0.	-977.36
506	1.0636	4.9091	0.	-1187.9
507	1.0636	4.7273	0.	-1369.1
508	1.0636	4.5455	0.	-1522.4
509	1.0636	4.3636	0.	-1650.7
510	1.0636	4.1818	0.	-1757.1
511	1.0636	4.	0.	-1844.4
512	1.0636	3.8182	0.	-1914.7
513	1.0636	3.6364	0.	-1969.5
514	1.0636	3.4545	0.	-2009.9
515	1.0636	3.2727	0.	-2036.5
516	1.0636	3.0909	0.	-2049.7
517	1.0636	2.9091	0.	-2049.7
518	1.0636	2.7273	0.	-2036.5
519	1.0636	2.5455	0.	-2009.9
520	1.0636	2.3636	0.	-1969.5
521	1.0636	2.1818	0.	-1914.7
522	1.0636	2.	0.	-1844.4
523	1.0636	1.8182	0.	-1757.1
524	1.0636	1.6364	0.	-1650.7
525	1.0636	1.4545	0.	-1522.4
526	1.0636	1.2727	0.	-1369.1
527	1.0636	1.0909	0.	-1187.9
528	1.0636	0.90909	0.	-977.36
529	1.0636	0.72727	0.	-739.92
530	1.0636	0.54545	0.	-484.47
531	1.0636	0.36364	0.	-226.03
532	1.0636	0.18182	0.	-12.821
533	0.88636	5.8182	0.	-13.053
534	0.88636	5.6364	0.	-273.01
535	0.88636	5.4545	0.	-581.62
536	0.88636	5.2727	0.	-874.59
537	0.88636	5.0909	0.	-1132.7
538	0.88636	4.9091	0.	-1349.5
539	0.88636	4.7273	0.	-1527.1
540	0.88636	4.5455	0.	-1671.1
541	0.88636	4.3636	0.	-1787.6
542	0.88636	4.1818	0.	-1881.7
543	0.88636	4.	0.	-1957.3
544	0.88636	3.8182	0.	-2017.3
545	0.88636	3.6364	0.	-2063.5
546	0.88636	3.4545	0.	-2097.3
547	0.88636	3.2727	0.	-2119.4
548	0.88636	3.0909	0.	-2130.3
549	0.88636	2.9091	0.	-2130.3
550	0.88636	2.7273	0.	-2119.4
551	0.88636	2.5455	0.	-2097.3
552	0.88636	2.3636	0.	-2063.5
553	0.88636	2.1818	0.	-2017.3
554	0.88636	2.	0.	-1957.3
555	0.88636	1.8182	0.	-1881.7
556	0.88636	1.6364	0.	-1787.6
557	0.88636	1.4545	0.	-1671.1
558	0.88636	1.2727	0.	-1527.1
559	0.88636	1.0909	0.	-1349.5
560	0.88636	0.90909	0.	-1132.7
561	0.88636	0.72727	0.	-874.59
562	0.88636	0.54545	0.	-581.62
563	0.88636	0.36364	0.	-273.01
564	0.88636	0.18182	0.	-13.053
565	0.70909	5.8182	0.	-20.052
566	0.70909	5.6364	0.	-344.06
567	0.70909	5.4545	0.	-720.33
568	0.70909	5.2727	0.	-1054.3
569	0.70909	5.0909	0.	-1327.1
570	0.70909	4.9091	0.	-1541.
571	0.70909	4.7273	0.	-1706.8
572	0.70909	4.5455	0.	-1835.7
573	0.70909	4.3636	0.	-1936.7
574	0.70909	4.1818	0.	-2016.3
575	0.70909	4.	0.	-2079.1
576	0.70909	3.8182	0.	-2128.1
577	0.70909	3.6364	0.	-2165.5
578	0.70909	3.4545	0.	-2192.6
579	0.70909	3.2727	0.	-2210.2
580	0.70909	3.0909	0.	-2218.9
581	0.70909	2.9091	0.	-2218.9
582	0.70909	2.7273	0.	-2210.2
583	0.70909	2.5455	0.	-2192.6
584	0.70909	2.3636	0.	-2165.5
585	0.70909	2.1818	0.	-2128.1
586	0.70909	2.	0.	-2079.1
587	0.70909	1.8182	0.	-2016.3
588	0.70909	1.6364	0.	-1936.7
589	0.70909	1.4545	0.	-1835.7
590	0.70909	1.2727	0.	-1706.8
591	0.70909	1.0909	0.	-1541.
592	0.70909	0.90909	0.	-1327.1
593	0.70909	0.72727	0.	-1054.3
594	0.70909	0.54545	0.	-720.33
595	0.70909	0.36364	0.	-344.06
596	0.70909	0.18182	0.	-20.052
597	0.53182	5.8182	0.	-3.7184
598	0.53182	5.6364	0.	-436.68
599	0.53182	5.4545	0.	-891.98
600	0.53182	5.2727	0.	-1254.4
601	0.53182	5.0909	0.	-1521.8
602	0.53182	4.9091	0.	-1716.
603	0.53182	4.7273	0.	-1858.8
604	0.53182	4.5455	0.	-1966.
605	0.53182	4.3636	0.	-2047.9
606	0.53182	4.1818	0.	-2111.2
607	0.53182	4.	0.	-2160.4
608	0.53182	3.8182	0.	-2198.3
609	0.53182	3.6364	0.	-2226.9
610	0.53182	3.4545	0.	-2247.4
611	0.53182	3.2727	0.	-2260.6
612	0.53182	3.0909	0.	-2267.1
613	0.53182	2.9091	0.	-2267.1
614	0.53182	2.7273	0.	-2260.6
615	0.53182	2.5455	0.	-2247.4
616	0.53182	2.3636	0.	-2226.9
617	0.53182	2.1818	0.	-2198.3
618	0.53182	2.	0.	-2160.4
619	0.53182	1.8182	0.	-2111.2
620	0.53182	1.6364	0.	-2047.9
621	0.53182	1.4545	0.	-1966.
622	0.53182	1.2727	0.	-1858.8
623	0.53182	1.0909	0.	-1716.
624	0.53182	0.90909	0.	-1521.8
625	0.53182	0.72727	0.	-1254.4
626	0.53182	0.54545	0.	-891.98
627	0.53182	0.36364	0.	-436.68
628	0.53182	0.18182	0.	-3.7184
629	0.35455	5.8182	0.	-92.741
630	0.35455	5.6364	0.	-706.83
631	0.35455	5.4545	0.	-1265.
632	0.35455	5.2727	0.	-1630.
633	0.35455	5.0909	0.	-1869.9
634	0.35455	4.9091	0.	-2033.4
635	0.35455	4.7273	0.	-2149.8
636	0.35455	4.5455	0.	-2235.3
637	0.35455	4.3636	0.	-2299.6
638	0.35455	4.1818	0.	-2348.4
639	0.35455	4.	0.	-2385.6
640	0.35455	3.8182	0.	-2413.7
641	0.35455	3.6364	0.	-2434.5
642	0.35455	3.4545	0.	-2449.2
643	0.35455	3.2727	0.	-2458.5
644	0.35455	3.0909	0.	-2463.1
645	0.35455	2.9091	0.	-2463.1
646	0.35455	2.7273	0.	-2458.5
647	0.35455	2.5455	0.	-2449.2
648	0.35455	2.3636	0.	-2434.5
649	0.35455	2.1818	0.	-2413.7
650	0.35455	2.	0.	-2385.6
651	0.35455	1.8182	0.	-2348.4
652	0.35455	1.6364	0.	-2299.6
653	0.35455	1.4545	0.	-2235.3
654	0.35455	1.2727	0.	-2149.8
655	0.35455	1.0909	0.	-2033.4
656	0.35455	0.90909	0.	-1869.9
657	0.35455	0.72727	0.	-1630.
658	0.35455	0.54545	0.	-1265.
659	0.35455	0.36364	0.	-706.83
660	0.35455	0.18182	0.	-92.741
661	0.17727	5.8182	0.	-43.791
662	0.17727	5.6364	0.	-870.45
663	0.17727	5.4545	0.	-1296.7
664	0.17727	5.2727	0.	-1538.7
665	0.17727	5.0909	0.	-1690.4
666	0.17727	4.9091	0.	-1794.1
667	0.17727	4.7273	0.	-1868.4
668	0.17727	4.5455	0.	-1923.
669	0.17727	4.3636	0.	-1963.8
670	0.17727	4.1818	0.	-1994.4
671	0.17727	4.	0.	-2017.2
672	0.17727	3.8182	0.	-2034.2
673	0.17727	3.6364	0.	-2046.4
674	0.17727	3.4545	0.	-2054.8
675	0.17727	3.2727	0.	-2060.1
676	0.17727	3.0909	0.	-2062.6
677	0.17727	2.9091	0.	-2062.6
678	0.17727	2.7273	0.	-2060.1
679	0.17727	2.5455	0.	-2054.8
680	0.17727	2.3636	0.	-2046.4
681	0.17727	2.1818	0.	-2034.2
682	0.17727	2.	0.	-2017.2
683	0.17727	1.8182	0.	-1994.4
684	0.17727	1.6364	0.	-1963.8
685	0.17727	1.4545	0.	-1923.
686	0.17727	1.2727	0.	-1868.4
687	0.17727	1.0909	0.	-1794.1
688	0.17727	0.90909	0.	-1690.4
689	0.17727	0.72727	0.	-1538.7
690	0.17727	0.54545	0.	-1296.7
691	0.17727	0.36364	0.	-870.45
692	0.17727	0.18182	0.	-43.791
693	4.2512	5.8182	0.	-28.121
694	4.4358	5.8182	0.	-8.5213
695	4.6204	5.8182	0.	-3.9019
696	4.8049	5.8182	0.	-0.99674
697	4.9895	5.8182	0.	-0.12232
698	5.1741	5.8182	0.	0.2117
699	5.3586	5.8182	0.	0.26149
700	5.5432	5.8182	0.	0.22618
701	5.7278	5.8182	0.	0.16847
702	5.9123	5.8182	0.	0.11699
703	6.0969	5.8182	0.	7.8513e-002
704	6.2815	5.8182	0.	5.2603e-002
705	6.466	5.8182	0.	3.603e-002
706	6.6506	5.8182	0.	2.5174e-002
707	6.8352	5.8182	0.	1.6642e-002
708	7.0198	5.8182	0.	7.1596e-003
709	7.2043	5.8182	0.	-7.2693e-003
710	7.3889	5.8182	0.	-3.3608e-002
711	7.5735	5.8182	0.	-8.8583e-002
712	7.758	5.8182	0.	-0.22005
713	7.9426	5.8182	0.	-0.50779
714	8.1272	5.8182	0.	-0.84685
715	8.3117	5.8182	0.	-1.043
716	8.4963	5.8182	0.	-1.0578
717	8.6809	5.8182	0.	-0.92319
718	8.8654	5.8182	0.	-0.6965
719	9.05	5.8182	0.	-0.45671
720	9.2346	5.8182	0.	-0.27793
721	9.4191	5.8182	0.	-0.17291
722	9.6037	5.8182	0.	-0.1143
723	9.7883	5.8182	0.	-7.9954e-002
724	9.9728	5.8182	0.	-5.8449e-002
725	10.157	5.8182	0.	-4.4192e-002
726	10.342	5.8182	0.	-3.433e-002
727	10.527	5.8182	0.	-2.7243e-002
728	10.711	5.8182	0.	-2.1968e-002
729	10.896	5.8182	0.	-1.8002e-002
730	11.08	5.8182	0.	-1.4956e-002
731	11.265	5.8182	0.	-1.2534e-002
732	11.449	5.8182	0.	-1.0615e-002
733	11.634	5.8182	0.	-9.0946e-003
734	11.819	5.8182	0.	-7.8256e-003
735	12.003	5.8182	0.	-6.7718e-003
736	12.188	5.8182	0.	-5.8931e-003
737	12.372	5.8182	0.	-5.1541e-003
738	12.557	5.8182	0.	-4.5558e-003
739	12.741	5.8182	0.	-4.0166e-003
740	12.926	5.8182	0.	-3.5441e-003
741	13.11	5.8182	0.	-3.1423e-003
742	13.295	5.8182	0.	-2.7973e-003
743	13.48	5.8182	0.	-2.4895e-003
744	13.664	5.8182	0.	-2.1881e-003
745	13.849	5.8182	0.	-1.9426e-003
746	14.033	5.8182	0.	-1.7301e-003
747	14.218	5.8182	0.	-1.5149e-003
748	14.402	5.8182	0.	-1.3259e-003
749	14.587	5.8182	0.	-1.1746e-003
750	14.772	5.8182	0.	-1.0134e-003
751	14.956	5.8182	0.	-8.587e-004
752	15.141	5.8182	0.	-7.2114e-004
753	15.325	5.8182	0.	-5.9999e-004
754	15.51	5.8182	0.	-4.8188e-004
755	15.694	5.8182	0.	-3.4737e-004
756	15.879	5.8182	0.	-2.4092e-004
757	16.064	5.8182	0.	-1.4728e-004
758	16.248	5.8182	0.	-3.7233e-005
759	16.433	5.8182	0.	5.8921e-005
760	16.617	5.8182	0.	1.337e-004
761	16.802	5.8182	0.	2.2409e-004
762	16.986	5.8182	0.	3.1099e-004
763	17.171	5.8182	0.	3.9339e-004
764	17.356	5.8182	0.	4.684e-004
765	17.54	5.8182	0.	5.2162e-004
766	17.725	5.8182	0.	5.8345e-004
767	17.909	5.8182	0.	6.3994e-004
768	18.094	5.8182	0.	6.8254e-004
769	18.278	5.8182	0.	7.0925e-004
770	18.463	5.8182	0.	7.2183e-004
771	18.648	5.8182	0.	7.3384e-004
772	18.832	5.8182	0.	7.0998e-004
773	19.017	5.8182	0.	6.5667e-004
774	19.201	5.8182	0.	5.8549e-004
775	19.386	5.8182	0.	4.7015e-004
776	19.57	5.8182	0.	3.0304e-004
777	19.755	5.8182	0.	8.7781e-005
778	19.94	5.8182	0.	-1.9001e-004
779	20.124	5.8182	0.	-5.5289e-004
780	20.309	5.8182	0.	-1.0157e-003
781	20.493	5.8182	0.	-1.5945e-003
782	20.678	5.8182	0.	-2.312e-003
783	20.862	5.8182	0.	-3.2135e-003
784	21.047	5.8182	0.	-4.332e-003
785	21.231	5.8182	0.	-5.7066e-003
786	21.416	5.8182	0.	-7.4118e-003
787	21.601	5.8182	0.	-9.5223e-003
788	21.785	5.8182	0.	-1.2137e-002
789	21.97	5.8182	0.	-1.5387e-002
790	22.154	5.8182	0.	-1.9447e-002
791	22.339	5.8182	0.	-2.4568e-002
792	22.523	5.8182	0.	-3.1042e-002
793	22.708	5.8182	0.	-3.944e-002
794	22.893	5.8182	0.	-5.0023e-002
795	23.077	5.8182	0.	-6.531e-002
796	23.262	5.8182	0.	-8.0903e-002
797	23.446	5.8182	0.	-0.12103
798	23.631	5.8182	0.	-0.11051
799	23.815	5.8182	0.	-0.50912
800	4.2512	5.6364	0.	-13.835
801	4.4358	5.6364	0.	-5.6486
802	4.6204	5.6364	0.	-4.0799
803	4.8049	5.6364	0.	-1.799
804	4.9895	5.6364	0.	-1.0426
805	5.1741	5.6364	0.	-0.65325
806	5.3586	5.6364	0.	-0.48023
807	5.5432	5.6364	0.	-0.37701
808	5.7278	5.6364	0.	-0.30695
809	5.9123	5.6364	0.	-0.2518
810	6.0969	5.6364	0.	-0.20642
811	6.2815	5.6364	0.	-0.16901
812	6.466	5.6364	0.	-0.1395
813	6.6506	5.6364	0.	-0.11875
814	6.8352	5.6364	0.	-0.10945
815	7.0198	5.6364	0.	-0.1207
816	7.2043	5.6364	0.	-0.19929
817	7.3889	5.6364	0.	-1.0231
818	7.5735	5.6364	0.	-3.8527
819	7.758	5.6364	0.	-6.2361
820	7.9426	5.6364	0.	-7.912
821	8.1272	5.6364	0.	-8.9771
822	8.3117	5.6364	0.	-9.5378
823	8.4963	5.6364	0.	-9.6907
824	8.6809	5.6364	0.	-9.5191
825	8.8654	5.6364	0.	-9.0941
826	9.05	5.6364	0.	-8.4755
827	9.2346	5.6364	0.	-7.7128
828	9.4191	5.6364	0.	-6.8468
829	9.6037	5.6364	0.	-5.9105
830	9.7883	5.6364	0.	-4.9309
831	9.9728	5.6364	0.	-3.929
832	10.157	5.6364	0.	-2.9218
833	10.342	5.6364	0.	-1.9223
834	10.527	5.6364	0.	-0.94213
835	10.711	5.6364	0.	-5.7665e-002
836	10.896	5.6364	0.	1.097e-002
837	11.08	5.6364	0.	1.2143e-002
838	11.265	5.6364	0.	1.1306e-002
839	11.449	5.6364	0.	1.0032e-002
840	11.634	5.6364	0.	8.6225e-003
841	11.819	5.6364	0.	7.2473e-003
842	12.003	5.6364	0.	5.9196e-003
843	12.188	5.6364	0.	4.6509e-003
844	12.372	5.6364	0.	3.4449e-003
845	12.557	5.6364	0.	2.2782e-003
846	12.741	5.6364	0.	1.2063e-003
847	12.926	5.6364	0.	2.0741e-004
848	13.11	5.6364	0.	-7.4251e-004
849	13.295	5.6364	0.	-1.6443e-003
850	13.48	5.6364	0.	-2.4871e-003
851	13.664	5.6364	0.	-3.2555e-003
852	13.849	5.6364	0.	-4.0066e-003
853	14.033	5.6364	0.	-4.7242e-003
854	14.218	5.6364	0.	-5.3843e-003
855	14.402	5.6364	0.	-6.0202e-003
856	14.587	5.6364	0.	-6.6518e-003
857	14.772	5.6364	0.	-7.2354e-003
858	14.956	5.6364	0.	-7.7931e-003
859	15.141	5.6364	0.	-8.3412e-003
860	15.325	5.6364	0.	-8.8841e-003
861	15.51	5.6364	0.	-9.4121e-003
862	15.694	5.6364	0.	-9.9132e-003
863	15.879	5.6364	0.	-1.043e-002
864	16.064	5.6364	0.	-1.0954e-002
865	16.248	5.6364	0.	-1.1463e-002
866	16.433	5.6364	0.	-1.1987e-002
867	16.617	5.6364	0.	-1.2538e-002
868	16.802	5.6364	0.	-1.3085e-002
869	16.986	5.6364	0.	-1.3646e-002
870	17.171	5.6364	0.	-1.4231e-002
871	17.356	5.6364	0.	-1.4844e-002
872	17.54	5.6364	0.	-1.5502e-002
873	17.725	5.6364	0.	-1.6178e-002
874	17.909	5.6364	0.	-1.689e-002
875	18.094	5.6364	0.	-1.7649e-002
876	18.278	5.6364	0.	-1.8464e-002
877	18.463	5.6364	0.	-1.9333e-002
878	18.648	5.6364	0.	-2.0245e-002
879	18.832	5.6364	0.	-2.1241e-002
880	19.017	5.6364	0.	-2.2314e-002
881	19.201	5.6364	0.	-2.3459e-002
882	19.386	5.6364	0.	-2.4699e-002
883	19.57	5.6364	0.	-2.6049e-002
884	19.755	5.6364	0.	-2.7498e-002
885	19.94	5.6364	0.	-2.9065e-002
886	20.124	5.6364	0.	-3.0771e-002
887	20.309	5.6364	0.	-3.2622e-002
888	20.493	5.6364	0.	-3.4638e-002
889	20.678	5.6364	0.	-3.6817e-002
890	20.862	5.6364	0.	-3.9198e-002
891	21.047	5.6364	0.	-4.1796e-002
892	21.231	5.6364	0.	-4.462e-002
893	21.416	5.6364	0.	-4.7699e-002
894	21.601	5.6364	0.	-5.1064e-002
895	21.785	5.6364	0.	-5.4723e-002
896	21.97	5.6364	0.	-5.8696e-002
897	22.154	5.6364	0.	-6.2995e-002
898	22.339	5.6364	0.	-6.7613e-002
899	22.523	5.6364	0.	-7.2473e-002
900	22.708	5.6364	0.	-7.7549e-002
901	22.893	5.6364	0.	-8.1998e-002
902	23.077	5.6364	0.	-8.7073e-002
903	23.262	5.6364	0.	-8.3261e-002
904	23.446	5.6364	0.	-9.6604e-002
905	23.631	5.6364	0.	3.5008e-003
906	23.815	5.6364	0.	-0.288
907	4.2512	5.4545	0.	-10.537
908	4.4358	5.4545	0.	-3.1038
909	4.6204	5.4545	0.	-3.5816
910	4.8049	5.4545	0.	-2.0653
911	4.9895	5.4545	0.	-1.4022
912	5.1741	5.4545	0.	-0.9256
913	5.3586	5.4545	0.	-0.65391
914	5.5432	5.4545	0.	-0.47648
915	5.7278	5.4545	0.	-0.36201
916	5.9123	5.4545	0.	-0.2868
917	6.0969	5.4545	0.	-0.23951
918	6.2815	5.4545	0.	-0.21398
919	6.466	5.4545	0.	-0.20928
920	6.6506	5.4545	0.	-0.23284
921	6.8352	5.4545	0.	-0.32128
922	7.0198	5.4545	0.	-0.75118
923	7.2043	5.4545	0.	-4.1549
924	7.3889	5.4545	0.	-9.0826
925	7.5735	5.4545	0.	-12.951
926	7.758	5.4545	0.	-15.74
927	7.9426	5.4545	0.	-17.6
928	8.1272	5.4545	0.	-18.686
929	8.3117	5.4545	0.	-19.141
930	8.4963	5.4545	0.	-19.088
931	8.6809	5.4545	0.	-18.637
932	8.8654	5.4545	0.	-17.876
933	9.05	5.4545	0.	-16.883
934	9.2346	5.4545	0.	-15.722
935	9.4191	5.4545	0.	-14.443
936	9.6037	5.4545	0.	-13.089
937	9.7883	5.4545	0.	-11.694
938	9.9728	5.4545	0.	-10.283
939	10.157	5.4545	0.	-8.8789
940	10.342	5.4545	0.	-7.4959
941	10.527	5.4545	0.	-6.1463
942	10.711	5.4545	0.	-4.8385
943	10.896	5.4545	0.	-3.5786
944	11.08	5.4545	0.	-2.3703
945	11.265	5.4545	0.	-1.216
946	11.449	5.4545	0.	-0.12981
947	11.634	5.4545	0.	-4.413e-004
948	11.819	5.4545	0.	2.3558e-004
949	12.003	5.4545	0.	1.2693e-004
950	12.188	5.4545	0.	-1.3351e-004
951	12.372	5.4545	0.	-4.3449e-004
952	12.557	5.4545	0.	-7.7144e-004
953	12.741	5.4545	0.	-1.0675e-003
954	12.926	5.4545	0.	-1.3452e-003
955	13.11	5.4545	0.	-1.6184e-003
956	13.295	5.4545	0.	-1.8844e-003
957	13.48	5.4545	0.	-2.131e-003
958	13.664	5.4545	0.	-2.3361e-003
959	13.849	5.4545	0.	-2.5549e-003
960	14.033	5.4545	0.	-2.7702e-003
961	14.218	5.4545	0.	-2.951e-003
962	14.402	5.4545	0.	-3.132e-003
963	14.587	5.4545	0.	-3.3272e-003
964	14.772	5.4545	0.	-3.4901e-003
965	14.956	5.4545	0.	-3.6433e-003
966	15.141	5.4545	0.	-3.7988e-003
967	15.325	5.4545	0.	-3.9576e-003
968	15.51	5.4545	0.	-4.1079e-003
969	15.694	5.4545	0.	-4.2356e-003
970	15.879	5.4545	0.	-4.3805e-003
971	16.064	5.4545	0.	-4.5328e-003
972	16.248	5.4545	0.	-4.6661e-003
973	16.433	5.4545	0.	-4.8082e-003
974	16.617	5.4545	0.	-4.9715e-003
975	16.802	5.4545	0.	-5.1162e-003
976	16.986	5.4545	0.	-5.2644e-003
977	17.171	5.4545	0.	-5.4177e-003
978	17.356	5.4545	0.	-5.5776e-003
979	17.54	5.4545	0.	-5.761e-003
980	17.725	5.4545	0.	-5.9345e-003
981	17.909	5.4545	0.	-6.1145e-003
982	18.094	5.4545	0.	-6.3092e-003
983	18.278	5.4545	0.	-6.5191e-003
984	18.463	5.4545	0.	-6.7376e-003
985	18.648	5.4545	0.	-6.9551e-003
986	18.832	5.4545	0.	-7.1998e-003
987	19.017	5.4545	0.	-7.4611e-003
988	19.201	5.4545	0.	-7.7271e-003
989	19.386	5.4545	0.	-8.0151e-003
990	19.57	5.4545	0.	-8.3268e-003
991	19.755	5.4545	0.	-8.644e-003
992	19.94	5.4545	0.	-8.9769e-003
993	20.124	5.4545	0.	-9.3293e-003
994	20.309	5.4545	0.	-9.696e-003
995	20.493	5.4545	0.	-1.0068e-002
996	20.678	5.4545	0.	-1.0442e-002
997	20.862	5.4545	0.	-1.0817e-002
998	21.047	5.4545	0.	-1.1187e-002
999	21.231	5.4545	0.	-1.1516e-002
1000	21.416	5.4545	0.	-1.1799e-002
1001	21.601	5.4545	0.	-1.2e-002
1002	21.785	5.4545	0.	-1.2056e-002
1003	21.97	5.4545	0.	-1.1898e-002
1004	22.154	5.4545	0.	-1.141e-002
1005	22.339	5.4545	0.	-1.042e-002
1006	22.523	5.4545	0.	-8.6095e-003
1007	22.708	5.4545	0.	-5.6483e-003
1008	22.893	5.4545	0.	-1.7118e-004
1009	23.077	5.4545	0.	7.0069e-003
1010	23.262	5.4545	0.	2.7906e-002
1011	23.446	5.4545	0.	3.1165e-002
1012	23.631	5.4545	0.	0.18308
1013	23.815	5.4545	0.	-3.5452e-002
1014	4.2512	5.2727	0.	-9.3787
1015	4.4358	5.2727	0.	-1.5854
1016	4.6204	5.2727	0.	-3.1934
1017	4.8049	5.2727	0.	-2.1986
1018	4.9895	5.2727	0.	-1.7939
1019	5.1741	5.2727	0.	-1.3783
1020	5.3586	5.2727	0.	-1.0922
1021	5.5432	5.2727	0.	-0.87997
1022	5.7278	5.2727	0.	-0.73288
1023	5.9123	5.2727	0.	-0.6363
1024	6.0969	5.2727	0.	-0.58582
1025	6.2815	5.2727	0.	-0.5876
1026	6.466	5.2727	0.	-0.67859
1027	6.6506	5.2727	0.	-1.0487
1028	6.8352	5.2727	0.	-3.4165
1029	7.0198	5.2727	0.	-10.358
1030	7.2043	5.2727	0.	-16.904
1031	7.3889	5.2727	0.	-21.966
1032	7.5735	5.2727	0.	-25.634
1033	7.758	5.2727	0.	-28.099
1034	7.9426	5.2727	0.	-29.553
1035	8.1272	5.2727	0.	-30.176
1036	8.3117	5.2727	0.	-30.128
1037	8.4963	5.2727	0.	-29.546
1038	8.6809	5.2727	0.	-28.551
1039	8.8654	5.2727	0.	-27.243
1040	9.05	5.2727	0.	-25.706
1041	9.2346	5.2727	0.	-24.01
1042	9.4191	5.2727	0.	-22.211
1043	9.6037	5.2727	0.	-20.354
1044	9.7883	5.2727	0.	-18.477
1045	9.9728	5.2727	0.	-16.607
1046	10.157	5.2727	0.	-14.767
1047	10.342	5.2727	0.	-12.971
1048	10.527	5.2727	0.	-11.233
1049	10.711	5.2727	0.	-9.5608
1050	10.896	5.2727	0.	-7.9592
1051	11.08	5.2727	0.	-6.4316
1052	11.265	5.2727	0.	-4.9791
1053	11.449	5.2727	0.	-3.6016
1054	11.634	5.2727	0.	-2.2985
1055	11.819	5.2727	0.	-1.0702
1056	12.003	5.2727	0.	-6.1941e-002
1057	12.188	5.2727	0.	-7.3887e-003
1058	12.372	5.2727	0.	-3.7222e-003
1059	12.557	5.2727	0.	-2.6568e-003
1060	12.741	5.2727	0.	-2.2354e-003
1061	12.926	5.2727	0.	-2.0713e-003
1062	13.11	5.2727	0.	-2.0417e-003
1063	13.295	5.2727	0.	-2.0857e-003
1064	13.48	5.2727	0.	-2.1591e-003
1065	13.664	5.2727	0.	-2.2261e-003
1066	13.849	5.2727	0.	-2.3296e-003
1067	14.033	5.2727	0.	-2.4456e-003
1068	14.218	5.2727	0.	-2.5417e-003
1069	14.402	5.2727	0.	-2.6447e-003
1070	14.587	5.2727	0.	-2.7705e-003
1071	14.772	5.2727	0.	-2.8721e-003
1072	14.956	5.2727	0.	-2.9628e-003
1073	15.141	5.2727	0.	-3.0629e-003
1074	15.325	5.2727	0.	-3.1663e-003
1075	15.51	5.2727	0.	-3.2638e-003
1076	15.694	5.2727	0.	-3.3387e-003
1077	15.879	5.2727	0.	-3.433e-003
1078	16.064	5.2727	0.	-3.5325e-003
1079	16.248	5.2727	0.	-3.6134e-003
1080	16.433	5.2727	0.	-3.7008e-003
1081	16.617	5.2727	0.	-3.8047e-003
1082	16.802	5.2727	0.	-3.8927e-003
1083	16.986	5.2727	0.	-3.9787e-003
1084	17.171	5.2727	0.	-4.065e-003
1085	17.356	5.2727	0.	-4.1563e-003
1086	17.54	5.2727	0.	-4.2664e-003
1087	17.725	5.2727	0.	-4.3633e-003
1088	17.909	5.2727	0.	-4.4571e-003
1089	18.094	5.2727	0.	-4.5592e-003
1090	18.278	5.2727	0.	-4.6694e-003
1091	18.463	5.2727	0.	-4.7783e-003
1092	18.648	5.2727	0.	-4.8778e-003
1093	18.832	5.2727	0.	-4.9887e-003
1094	19.017	5.2727	0.	-5.11e-003
1095	19.201	5.2727	0.	-5.2175e-003
1096	19.386	5.2727	0.	-5.3312e-003
1097	19.57	5.2727	0.	-5.4511e-003
1098	19.755	5.2727	0.	-5.5534e-003
1099	19.94	5.2727	0.	-5.6456e-003
1100	20.124	5.2727	0.	-5.7283e-003
1101	20.309	5.2727	0.	-5.7963e-003
1102	20.493	5.2727	0.	-5.8334e-003
1103	20.678	5.2727	0.	-5.8222e-003
1104	20.862	5.2727	0.	-5.7634e-003
1105	21.047	5.2727	0.	-5.6378e-003
1106	21.231	5.2727	0.	-5.4004e-003
1107	21.416	5.2727	0.	-5.0272e-003
1108	21.601	5.2727	0.	-4.468e-003
1109	21.785	5.2727	0.	-3.642e-003
1110	21.97	5.2727	0.	-2.4488e-003
1111	22.154	5.2727	0.	-7.4031e-004
1112	22.339	5.2727	0.	1.695e-003
1113	22.523	5.2727	0.	5.2321e-003
1114	22.708	5.2727	0.	1.0249e-002
1115	22.893	5.2727	0.	1.8223e-002
1116	23.077	5.2727	0.	2.828e-002
1117	23.262	5.2727	0.	5.2848e-002
1118	23.446	5.2727	0.	6.166e-002
1119	23.631	5.2727	0.	0.22057
1120	23.815	5.2727	0.	1.9322e-002
1121	4.2512	5.0909	0.	-9.3653
1122	4.4358	5.0909	0.	-1.0308
1123	4.6204	5.0909	0.	-3.1487
1124	4.8049	5.0909	0.	-2.3756
1125	4.9895	5.0909	0.	-2.1524
1126	5.1741	5.0909	0.	-1.8197
1127	5.3586	5.0909	0.	-1.5896
1128	5.5432	5.0909	0.	-1.4172
1129	5.7278	5.0909	0.	-1.3189
1130	5.9123	5.0909	0.	-1.3084
1131	6.0969	5.0909	0.	-1.4454
1132	6.2815	5.0909	0.	-1.9715
1133	6.466	5.0909	0.	-4.3884
1134	6.6506	5.0909	0.	-12.497
1135	6.8352	5.0909	0.	-21.717
1136	7.0198	5.0909	0.	-29.257
1137	7.2043	5.0909	0.	-34.972
1138	7.3889	5.0909	0.	-39.046
1139	7.5735	5.0909	0.	-41.708
1140	7.758	5.0909	0.	-43.183
1141	7.9426	5.0909	0.	-43.679
1142	8.1272	5.0909	0.	-43.38
1143	8.3117	5.0909	0.	-42.45
1144	8.4963	5.0909	0.	-41.03
1145	8.6809	5.0909	0.	-39.24
1146	8.8654	5.0909	0.	-37.182
1147	9.05	5.0909	0.	-34.938
1148	9.2346	5.0909	0.	-32.577
1149	9.4191	5.0909	0.	-30.155
1150	9.6037	5.0909	0.	-27.716
1151	9.7883	5.0909	0.	-25.295
1152	9.9728	5.0909	0.	-22.919
1153	10.157	5.0909	0.	-20.606
1154	10.342	5.0909	0.	-18.372
1155	10.527	5.0909	0.	-16.227
1156	10.711	5.0909	0.	-14.176
1157	10.896	5.0909	0.	-12.225
1158	11.08	5.0909	0.	-10.373
1159	11.265	5.0909	0.	-8.6202
1160	11.449	5.0909	0.	-6.965
1161	11.634	5.0909	0.	-5.4044
1162	11.819	5.0909	0.	-3.935
1163	12.003	5.0909	0.	-2.5533
1164	12.188	5.0909	0.	-1.2581
1165	12.372	5.0909	0.	-0.14034
1166	12.557	5.0909	0.	-1.3548e-002
1167	12.741	5.0909	0.	-6.4985e-003
1168	12.926	5.0909	0.	-4.2454e-003
1169	13.11	5.0909	0.	-3.1981e-003
1170	13.295	5.0909	0.	-2.6312e-003
1171	13.48	5.0909	0.	-2.2859e-003
1172	13.664	5.0909	0.	-2.0415e-003
1173	13.849	5.0909	0.	-1.8988e-003
1174	14.033	5.0909	0.	-1.8122e-003
1175	14.218	5.0909	0.	-1.7327e-003
1176	14.402	5.0909	0.	-1.6845e-003
1177	14.587	5.0909	0.	-1.6711e-003
1178	14.772	5.0909	0.	-1.6465e-003
1179	14.956	5.0909	0.	-1.6226e-003
1180	15.141	5.0909	0.	-1.6105e-003
1181	15.325	5.0909	0.	-1.6096e-003
1182	15.51	5.0909	0.	-1.6042e-003
1183	15.694	5.0909	0.	-1.5801e-003
1184	15.879	5.0909	0.	-1.5746e-003
1185	16.064	5.0909	0.	-1.5761e-003
1186	16.248	5.0909	0.	-1.5596e-003
1187	16.433	5.0909	0.	-1.5469e-003
1188	16.617	5.0909	0.	-1.55e-003
1189	16.802	5.0909	0.	-1.5316e-003
1190	16.986	5.0909	0.	-1.5108e-003
1191	17.171	5.0909	0.	-1.4854e-003
1192	17.356	5.0909	0.	-1.4598e-003
1193	17.54	5.0909	0.	-1.4446e-003
1194	17.725	5.0909	0.	-1.408e-003
1195	17.909	5.0909	0.	-1.3643e-003
1196	18.094	5.0909	0.	-1.3199e-003
1197	18.278	5.0909	0.	-1.2745e-003
1198	18.463	5.0909	0.	-1.2146e-003
1199	18.648	5.0909	0.	-1.1341e-003
1200	18.832	5.0909	0.	-1.053e-003
1201	19.017	5.0909	0.	-9.6591e-004
1202	19.201	5.0909	0.	-8.5062e-004
1203	19.386	5.0909	0.	-7.1672e-004
1204	19.57	5.0909	0.	-5.7467e-004
1205	19.755	5.0909	0.	-3.8766e-004
1206	19.94	5.0909	0.	-1.6664e-004
1207	20.124	5.0909	0.	9.1092e-005
1208	20.309	5.0909	0.	4.0013e-004
1209	20.493	5.0909	0.	7.7534e-004
1210	20.678	5.0909	0.	1.2371e-003
1211	20.862	5.0909	0.	1.7951e-003
1212	21.047	5.0909	0.	2.4747e-003
1213	21.231	5.0909	0.	3.3248e-003
1214	21.416	5.0909	0.	4.3813e-003
1215	21.601	5.0909	0.	5.7026e-003
1216	21.785	5.0909	0.	7.3891e-003
1217	21.97	5.0909	0.	9.5505e-003
1218	22.154	5.0909	0.	1.2348e-002
1219	22.339	5.0909	0.	1.6025e-002
1220	22.523	5.0909	0.	2.0963e-002
1221	22.708	5.0909	0.	2.7571e-002
1222	22.893	5.0909	0.	3.7357e-002
1223	23.077	5.0909	0.	4.9491e-002
1224	23.262	5.0909	0.	7.6614e-002
1225	23.446	5.0909	0.	8.8356e-002
1226	23.631	5.0909	0.	0.25552
1227	23.815	5.0909	0.	7.1728e-002
1228	4.2512	4.9091	0.	-11.824
1229	4.4358	4.9091	0.	-0.57539
1230	4.6204	4.9091	0.	-3.6777
1231	4.8049	4.9091	0.	-2.6509
1232	4.9895	4.9091	0.	-2.5911
1233	5.1741	4.9091	0.	-2.3887
1234	5.3586	4.9091	0.	-2.3453
1235	5.5432	4.9091	0.	-2.4331
1236	5.7278	4.9091	0.	-2.7748
1237	5.9123	4.9091	0.	-3.7969
1238	6.0969	4.9091	0.	-7.6191
1239	6.2815	4.9091	0.	-18.266
1240	6.466	4.9091	0.	-30.43
1241	6.6506	4.9091	0.	-40.503
1242	6.8352	4.9091	0.	-48.222
1243	7.0198	4.9091	0.	-53.824
1244	7.2043	4.9091	0.	-57.599
1245	7.3889	4.9091	0.	-59.83
1246	7.5735	4.9091	0.	-60.775
1247	7.758	4.9091	0.	-60.663
1248	7.9426	4.9091	0.	-59.699
1249	8.1272	4.9091	0.	-58.064
1250	8.3117	4.9091	0.	-55.911
1251	8.4963	4.9091	0.	-53.373
1252	8.6809	4.9091	0.	-50.562
1253	8.8654	4.9091	0.	-47.57
1254	9.05	4.9091	0.	-44.473
1255	9.2346	4.9091	0.	-41.332
1256	9.4191	4.9091	0.	-38.197
1257	9.6037	4.9091	0.	-35.105
1258	9.7883	4.9091	0.	-32.087
1259	9.9728	4.9091	0.	-29.163
1260	10.157	4.9091	0.	-26.349
1261	10.342	4.9091	0.	-23.655
1262	10.527	4.9091	0.	-21.089
1263	10.711	4.9091	0.	-18.652
1264	10.896	4.9091	0.	-16.345
1265	11.08	4.9091	0.	-14.168
1266	11.265	4.9091	0.	-12.116
1267	11.449	4.9091	0.	-10.186
1268	11.634	4.9091	0.	-8.3721
1269	11.819	4.9091	0.	-6.6698
1270	12.003	4.9091	0.	-5.0731
1271	12.188	4.9091	0.	-3.5761
1272	12.372	4.9091	0.	-2.1739
1273	12.557	4.9091	0.	-0.86893
1274	12.741	4.9091	0.	-4.4623e-002
1275	12.926	4.9091	0.	-1.1037e-002
1276	13.11	4.9091	0.	-5.7867e-003
1277	13.295	4.9091	0.	-3.7321e-003
1278	13.48	4.9091	0.	-2.6527e-003
1279	13.664	4.9091	0.	-1.9722e-003
1280	13.849	4.9091	0.	-1.5369e-003
1281	14.033	4.9091	0.	-1.2383e-003
1282	14.218	4.9091	0.	-9.9346e-004
1283	14.402	4.9091	0.	-8.0816e-004
1284	14.587	4.9091	0.	-6.8296e-004
1285	14.772	4.9091	0.	-5.5598e-004
1286	14.956	4.9091	0.	-4.4108e-004
1287	15.141	4.9091	0.	-3.4629e-004
1288	15.325	4.9091	0.	-2.6683e-004
1289	15.51	4.9091	0.	-1.8723e-004
1290	15.694	4.9091	0.	-9.1447e-005
1291	15.879	4.9091	0.	-1.6439e-005
1292	16.064	4.9091	0.	5.1883e-005
1293	16.248	4.9091	0.	1.4064e-004
1294	16.433	4.9091	0.	2.2242e-004
1295	16.617	4.9091	0.	2.9174e-004
1296	16.802	4.9091	0.	3.8274e-004
1297	16.986	4.9091	0.	4.8149e-004
1298	17.171	4.9091	0.	5.8579e-004
1299	17.356	4.9091	0.	6.9341e-004
1300	17.54	4.9091	0.	7.9486e-004
1301	17.725	4.9091	0.	9.207e-004
1302	17.909	4.9091	0.	1.0584e-003
1303	18.094	4.9091	0.	1.206e-003
1304	18.278	4.9091	0.	1.3597e-003
1305	18.463	4.9091	0.	1.5314e-003
1306	18.648	4.9091	0.	1.7348e-003
1307	18.832	4.9091	0.	1.9445e-003
1308	19.017	4.9091	0.	2.1755e-003
1309	19.201	4.9091	0.	2.4404e-003
1310	19.386	4.9091	0.	2.7354e-003
1311	19.57	4.9091	0.	3.0537e-003
1312	19.755	4.9091	0.	3.4275e-003
1313	19.94	4.9091	0.	3.8499e-003
1314	20.124	4.9091	0.	4.3293e-003
1315	20.309	4.9091	0.	4.8776e-003
1316	20.493	4.9091	0.	5.5115e-003
1317	20.678	4.9091	0.	6.2604e-003
1318	20.862	4.9091	0.	7.1262e-003
1319	21.047	4.9091	0.	8.1516e-003
1320	21.231	4.9091	0.	9.3685e-003
1321	21.416	4.9091	0.	1.0838e-002
1322	21.601	4.9091	0.	1.2612e-002
1323	21.785	4.9091	0.	1.4794e-002
1324	21.97	4.9091	0.	1.7505e-002
1325	22.154	4.9091	0.	2.0911e-002
1326	22.339	4.9091	0.	2.5247e-002
1327	22.523	4.9091	0.	3.0913e-002
1328	22.708	4.9091	0.	3.831e-002
1329	22.893	4.9091	0.	4.8961e-002
1330	23.077	4.9091	0.	6.2065e-002
1331	23.262	4.9091	0.	9.05e-002
1332	23.446	4.9091	0.	0.1037
1333	23.631	4.9091	0.	0.27588
1334	23.815	4.9091	0.	0.10459
1335	4.2512	4.7273	0.	-9.9418
1336	4.4358	4.7273	0.	-1.0157
1337	4.6204	4.7273	0.	-4.2156
1338	4.8049	4.7273	0.	-3.3143
1339	4.9895	4.7273	0.	-3.1749
1340	5.1741	4.7273	0.	-3.2974
1341	5.3586	4.7273	0.	-3.8756
1342	5.5432	4.7273	0.	-5.487
1343	5.7278	4.7273	0.	-11.244
1344	5.9123	4.7273	0.	-27.296
1345	6.0969	4.7273	0.	-44.921
1346	6.2815	4.7273	0.	-58.693
1347	6.466	4.7273	0.	-68.755
1348	6.6506	4.7273	0.	-75.786
1349	6.8352	4.7273	0.	-80.37
1350	7.0198	4.7273	0.	-82.967
1351	7.2043	4.7273	0.	-83.95
1352	7.3889	4.7273	0.	-83.624
1353	7.5735	4.7273	0.	-82.249
1354	7.758	4.7273	0.	-80.045
1355	7.9426	4.7273	0.	-77.202
1356	8.1272	4.7273	0.	-73.881
1357	8.3117	4.7273	0.	-70.219
1358	8.4963	4.7273	0.	-66.33
1359	8.6809	4.7273	0.	-62.308
1360	8.8654	4.7273	0.	-58.231
1361	9.05	4.7273	0.	-54.161
1362	9.2346	4.7273	0.	-50.147
1363	9.4191	4.7273	0.	-46.226
1364	9.6037	4.7273	0.	-42.427
1365	9.7883	4.7273	0.	-38.77
1366	9.9728	4.7273	0.	-35.269
1367	10.157	4.7273	0.	-31.933
1368	10.342	4.7273	0.	-28.767
1369	10.527	4.7273	0.	-25.772
1370	10.711	4.7273	0.	-22.945
1371	10.896	4.7273	0.	-20.284
1372	11.08	4.7273	0.	-17.783
1373	11.265	4.7273	0.	-15.437
1374	11.449	4.7273	0.	-13.237
1375	11.634	4.7273	0.	-11.178
1376	11.819	4.7273	0.	-9.2502
1377	12.003	4.7273	0.	-7.4469
1378	12.188	4.7273	0.	-5.7601
1379	12.372	4.7273	0.	-4.1821
1380	12.557	4.7273	0.	-2.7064
1381	12.741	4.7273	0.	-1.3293
1382	12.926	4.7273	0.	-0.15149
1383	13.11	4.7273	0.	-1.4535e-002
1384	13.295	4.7273	0.	-6.2052e-003
1385	13.48	4.7273	0.	-3.4179e-003
1386	13.664	4.7273	0.	-2.0015e-003
1387	13.849	4.7273	0.	-1.1671e-003
1388	14.033	4.7273	0.	-6.1585e-004
1389	14.218	4.7273	0.	-1.9435e-004
1390	14.402	4.7273	0.	1.2282e-004
1391	14.587	4.7273	0.	3.5733e-004
1392	14.772	4.7273	0.	5.7632e-004
1393	14.956	4.7273	0.	7.6983e-004
1394	15.141	4.7273	0.	9.3687e-004
1395	15.325	4.7273	0.	1.0827e-003
1396	15.51	4.7273	0.	1.2266e-003
1397	15.694	4.7273	0.	1.3846e-003
1398	15.879	4.7273	0.	1.5198e-003
1399	16.064	4.7273	0.	1.6477e-003
1400	16.248	4.7273	0.	1.7938e-003
1401	16.433	4.7273	0.	1.9364e-003
1402	16.617	4.7273	0.	2.0661e-003
1403	16.802	4.7273	0.	2.2205e-003
1404	16.986	4.7273	0.	2.383e-003
1405	17.171	4.7273	0.	2.5528e-003
1406	17.356	4.7273	0.	2.7311e-003
1407	17.54	4.7273	0.	2.9029e-003
1408	17.725	4.7273	0.	3.1058e-003
1409	17.909	4.7273	0.	3.3235e-003
1410	18.094	4.7273	0.	3.5542e-003
1411	18.278	4.7273	0.	3.7966e-003
1412	18.463	4.7273	0.	4.0642e-003
1413	18.648	4.7273	0.	4.3656e-003
1414	18.832	4.7273	0.	4.6828e-003
1415	19.017	4.7273	0.	5.0244e-003
1416	19.201	4.7273	0.	5.413e-003
1417	19.386	4.7273	0.	5.8341e-003
1418	19.57	4.7273	0.	6.2919e-003
1419	19.755	4.7273	0.	6.813e-003
1420	19.94	4.7273	0.	7.3971e-003
1421	20.124	4.7273	0.	8.0459e-003
1422	20.309	4.7273	0.	8.7798e-003
1423	20.493	4.7273	0.	9.6134e-003
1424	20.678	4.7273	0.	1.0575e-002
1425	20.862	4.7273	0.	1.1675e-002
1426	21.047	4.7273	0.	1.2945e-002
1427	21.231	4.7273	0.	1.4444e-002
1428	21.416	4.7273	0.	1.6205e-002
1429	21.601	4.7273	0.	1.83e-002
1430	21.785	4.7273	0.	2.0828e-002
1431	21.97	4.7273	0.	2.3908e-002
1432	22.154	4.7273	0.	2.7712e-002
1433	22.339	4.7273	0.	3.2476e-002
1434	22.523	4.7273	0.	3.8595e-002
1435	22.708	4.7273	0.	4.648e-002
1436	22.893	4.7273	0.	5.7675e-002
1437	23.077	4.7273	0.	7.14e-002
1438	23.262	4.7273	0.	0.10074
1439	23.446	4.7273	0.	0.1151
1440	23.631	4.7273	0.	0.29116
1441	23.815	4.7273	0.	0.1303
1442	4.2512	4.5455	0.	-31.932
1443	4.4358	4.5455	0.	-2.1905
1444	4.6204	4.5455	0.	-4.7487
1445	4.8049	4.5455	0.	-4.2684
1446	4.9895	4.5455	0.	-4.2666
1447	5.1741	4.5455	0.	-5.2543
1448	5.3586	4.5455	0.	-9.4537
1449	5.5432	4.5455	0.	-28.972
1450	5.7278	4.5455	0.	-60.041
1451	5.9123	4.5455	0.	-83.131
1452	6.0969	4.5455	0.	-98.378
1453	6.2815	4.5455	0.	-107.98
1454	6.466	4.5455	0.	-113.57
1455	6.6506	4.5455	0.	-116.21
1456	6.8352	4.5455	0.	-116.67
1457	7.0198	4.5455	0.	-115.47
1458	7.2043	4.5455	0.	-112.99
1459	7.3889	4.5455	0.	-109.55
1460	7.5735	4.5455	0.	-105.39
1461	7.758	4.5455	0.	-100.71
1462	7.9426	4.5455	0.	-95.662
1463	8.1272	4.5455	0.	-90.39
1464	8.3117	4.5455	0.	-85.003
1465	8.4963	4.5455	0.	-79.588
1466	8.6809	4.5455	0.	-74.216
1467	8.8654	4.5455	0.	-68.945
1468	9.05	4.5455	0.	-63.817
1469	9.2346	4.5455	0.	-58.864
1470	9.4191	4.5455	0.	-54.108
1471	9.6037	4.5455	0.	-49.566
1472	9.7883	4.5455	0.	-45.247
1473	9.9728	4.5455	0.	-41.154
1474	10.157	4.5455	0.	-37.288
1475	10.342	4.5455	0.	-33.646
1476	10.527	4.5455	0.	-30.222
1477	10.711	4.5455	0.	-27.01
1478	10.896	4.5455	0.	-24.
1479	11.08	4.5455	0.	-21.184
1480	11.265	4.5455	0.	-18.551
1481	11.449	4.5455	0.	-16.092
1482	11.634	4.5455	0.	-13.797
1483	11.819	4.5455	0.	-11.654
1484	12.003	4.5455	0.	-9.6546
1485	12.188	4.5455	0.	-7.7882
1486	12.372	4.5455	0.	-6.0456
1487	12.557	4.5455	0.	-4.4181
1488	12.741	4.5455	0.	-2.8974
1489	12.926	4.5455	0.	-1.4783
1490	13.11	4.5455	0.	-0.21839
1491	13.295	4.5455	0.	-1.3921e-002
1492	13.48	4.5455	0.	-5.0439e-003
1493	13.664	4.5455	0.	-2.1957e-003
1494	13.849	4.5455	0.	-7.9559e-004
1495	14.033	4.5455	0.	4.7048e-005
1496	14.218	4.5455	0.	6.4152e-004
1497	14.402	4.5455	0.	1.0784e-003
1498	14.587	4.5455	0.	1.4034e-003
1499	14.772	4.5455	0.	1.6899e-003
1500	14.956	4.5455	0.	1.9478e-003
1501	15.141	4.5455	0.	2.1704e-003
1502	15.325	4.5455	0.	2.3665e-003
1503	15.51	4.5455	0.	2.5571e-003
1504	15.694	4.5455	0.	2.7615e-003
1505	15.879	4.5455	0.	2.9407e-003
1506	16.064	4.5455	0.	3.1143e-003
1507	16.248	4.5455	0.	3.3074e-003
1508	16.433	4.5455	0.	3.4963e-003
1509	16.617	4.5455	0.	3.671e-003
1510	16.802	4.5455	0.	3.8729e-003
1511	16.986	4.5455	0.	4.0832e-003
1512	17.171	4.5455	0.	4.3051e-003
1513	17.356	4.5455	0.	4.5377e-003
1514	17.54	4.5455	0.	4.7644e-003
1515	17.725	4.5455	0.	5.0223e-003
1516	17.909	4.5455	0.	5.3035e-003
1517	18.094	4.5455	0.	5.5974e-003
1518	18.278	4.5455	0.	5.9065e-003
1519	18.463	4.5455	0.	6.2458e-003
1520	18.648	4.5455	0.	6.6235e-003
1521	18.832	4.5455	0.	7.0212e-003
1522	19.017	4.5455	0.	7.4482e-003
1523	19.201	4.5455	0.	7.9257e-003
1524	19.386	4.5455	0.	8.4422e-003
1525	19.57	4.5455	0.	9.0017e-003
1526	19.755	4.5455	0.	9.6322e-003
1527	19.94	4.5455	0.	1.0333e-002
1528	20.124	4.5455	0.	1.1104e-002
1529	20.309	4.5455	0.	1.1972e-002
1530	20.493	4.5455	0.	1.295e-002
1531	20.678	4.5455	0.	1.4062e-002
1532	20.862	4.5455	0.	1.5327e-002
1533	21.047	4.5455	0.	1.6773e-002
1534	21.231	4.5455	0.	1.8454e-002
1535	21.416	4.5455	0.	2.0416e-002
1536	21.601	4.5455	0.	2.2717e-002
1537	21.785	4.5455	0.	2.5466e-002
1538	21.97	4.5455	0.	2.8783e-002
1539	22.154	4.5455	0.	3.2833e-002
1540	22.339	4.5455	0.	3.785e-002
1541	22.523	4.5455	0.	4.4242e-002
1542	22.708	4.5455	0.	5.2415e-002
1543	22.893	4.5455	0.	6.395e-002
1544	23.077	4.5455	0.	7.809e-002
1545	23.262	4.5455	0.	0.10808
1546	23.446	4.5455	0.	0.12328
1547	23.631	4.5455	0.	0.30233
1548	23.815	4.5455	0.	0.15005
1549	4.2512	4.3636	0.	14.724
1550	4.4358	4.3636	0.	2.9539
1551	4.6204	4.3636	0.	-14.491
1552	4.8049	4.3636	0.	-3.4853
1553	4.9895	4.3636	0.	-6.9155
1554	5.1741	4.3636	0.	-13.497
1555	5.3586	4.3636	0.	-53.941
1556	5.5432	4.3636	0.	-101.82
1557	5.7278	4.3636	0.	-132.19
1558	5.9123	4.3636	0.	-149.73
1559	6.0969	4.3636	0.	-158.87
1560	6.2815	4.3636	0.	-162.5
1561	6.466	4.3636	0.	-162.42
1562	6.6506	4.3636	0.	-159.81
1563	6.8352	4.3636	0.	-155.47
1564	7.0198	4.3636	0.	-149.91
1565	7.2043	4.3636	0.	-143.53
1566	7.3889	4.3636	0.	-136.6
1567	7.5735	4.3636	0.	-129.34
1568	7.758	4.3636	0.	-121.92
1569	7.9426	4.3636	0.	-114.47
1570	8.1272	4.3636	0.	-107.08
1571	8.3117	4.3636	0.	-99.83
1572	8.4963	4.3636	0.	-92.784
1573	8.6809	4.3636	0.	-85.982
1574	8.8654	4.3636	0.	-79.455
1575	9.05	4.3636	0.	-73.224
1576	9.2346	4.3636	0.	-67.301
1577	9.4191	4.3636	0.	-61.692
1578	9.6037	4.3636	0.	-56.396
1579	9.7883	4.3636	0.	-51.41
1580	9.9728	4.3636	0.	-46.726
1581	10.157	4.3636	0.	-42.334
1582	10.342	4.3636	0.	-38.224
1583	10.527	4.3636	0.	-34.382
1584	10.711	4.3636	0.	-30.796
1585	10.896	4.3636	0.	-27.45
1586	11.08	4.3636	0.	-24.332
1587	11.265	4.3636	0.	-21.428
1588	11.449	4.3636	0.	-18.723
1589	11.634	4.3636	0.	-16.205
1590	11.819	4.3636	0.	-13.86
1591	12.003	4.3636	0.	-11.677
1592	12.188	4.3636	0.	-9.643
1593	12.372	4.3636	0.	-7.7476
1594	12.557	4.3636	0.	-5.9802
1595	12.741	4.3636	0.	-4.3307
1596	12.926	4.3636	0.	-2.7902
1597	13.11	4.3636	0.	-1.353
1598	13.295	4.3636	0.	-0.12344
1599	13.48	4.3636	0.	-9.2249e-003
1600	13.664	4.3636	0.	-2.6632e-003
1601	13.849	4.3636	0.	-3.9923e-004
1602	14.033	4.3636	0.	7.6943e-004
1603	14.218	4.3636	0.	1.527e-003
1604	14.402	4.3636	0.	2.0617e-003
1605	14.587	4.3636	0.	2.45e-003
1606	14.772	4.3636	0.	2.7917e-003
1607	14.956	4.3636	0.	3.09e-003
1608	15.141	4.3636	0.	3.349e-003
1609	15.325	4.3636	0.	3.5803e-003
1610	15.51	4.3636	0.	3.8031e-003
1611	15.694	4.3636	0.	4.0416e-003
1612	15.879	4.3636	0.	4.2533e-003
1613	16.064	4.3636	0.	4.4589e-003
1614	16.248	4.3636	0.	4.6838e-003
1615	16.433	4.3636	0.	4.9061e-003
1616	16.617	4.3636	0.	5.1157e-003
1617	16.802	4.3636	0.	5.3536e-003
1618	16.986	4.3636	0.	5.6036e-003
1619	17.171	4.3636	0.	5.8647e-003
1620	17.356	4.3636	0.	6.135e-003
1621	17.54	4.3636	0.	6.4061e-003
1622	17.725	4.3636	0.	6.7081e-003
1623	17.909	4.3636	0.	7.0356e-003
1624	18.094	4.3636	0.	7.3781e-003
1625	18.278	4.3636	0.	7.7392e-003
1626	18.463	4.3636	0.	8.1314e-003
1627	18.648	4.3636	0.	8.5656e-003
1628	18.832	4.3636	0.	9.0252e-003
1629	19.017	4.3636	0.	9.5148e-003
1630	19.201	4.3636	0.	1.0062e-002
1631	19.386	4.3636	0.	1.0651e-002
1632	19.57	4.3636	0.	1.129e-002
1633	19.755	4.3636	0.	1.1997e-002
1634	19.94	4.3636	0.	1.2784e-002
1635	20.124	4.3636	0.	1.3653e-002
1636	20.309	4.3636	0.	1.4615e-002
1637	20.493	4.3636	0.	1.5696e-002
1638	20.678	4.3636	0.	1.6918e-002
1639	20.862	4.3636	0.	1.8296e-002
1640	21.047	4.3636	0.	1.9867e-002
1641	21.231	4.3636	0.	2.1675e-002
1642	21.416	4.3636	0.	2.3772e-002
1643	21.601	4.3636	0.	2.6215e-002
1644	21.785	4.3636	0.	2.9113e-002
1645	21.97	4.3636	0.	3.2579e-002
1646	22.154	4.3636	0.	3.6783e-002
1647	22.339	4.3636	0.	4.1964e-002
1648	22.523	4.3636	0.	4.8522e-002
1649	22.708	4.3636	0.	5.6892e-002
1650	22.893	4.3636	0.	6.8654e-002
1651	23.077	4.3636	0.	8.3103e-002
1652	23.262	4.3636	0.	0.1136
1653	23.446	4.3636	0.	0.12947
1654	23.631	4.3636	0.	0.3109
1655	23.815	4.3636	0.	0.16577
1656	4.2512	4.1818	0.	-189.67
1657	4.4358	4.1818	0.	11.713
1658	4.6204	4.1818	0.	-10.137
1659	4.8049	4.1818	0.	-6.8474
1660	4.9895	4.1818	0.	-17.206
1661	5.1741	4.1818	0.	-82.45
1662	5.3586	4.1818	0.	-150.54
1663	5.5432	4.1818	0.	-190.56
1664	5.7278	4.1818	0.	-211.68
1665	5.9123	4.1818	0.	-220.82
1666	6.0969	4.1818	0.	-222.38
1667	6.2815	4.1818	0.	-219.1
1668	6.466	4.1818	0.	-212.74
1669	6.6506	4.1818	0.	-204.43
1670	6.8352	4.1818	0.	-194.93
1671	7.0198	4.1818	0.	-184.75
1672	7.2043	4.1818	0.	-174.24
1673	7.3889	4.1818	0.	-163.65
1674	7.5735	4.1818	0.	-153.16
1675	7.758	4.1818	0.	-142.9
1676	7.9426	4.1818	0.	-132.95
1677	8.1272	4.1818	0.	-123.38
1678	8.3117	4.1818	0.	-114.23
1679	8.4963	4.1818	0.	-105.53
1680	8.6809	4.1818	0.	-97.275
1681	8.8654	4.1818	0.	-89.485
1682	9.05	4.1818	0.	-82.152
1683	9.2346	4.1818	0.	-75.266
1684	9.4191	4.1818	0.	-68.813
1685	9.6037	4.1818	0.	-62.778
1686	9.7883	4.1818	0.	-57.142
1687	9.9728	4.1818	0.	-51.885
1688	10.157	4.1818	0.	-46.989
1689	10.342	4.1818	0.	-42.431
1690	10.527	4.1818	0.	-38.192
1691	10.711	4.1818	0.	-34.252
1692	10.896	4.1818	0.	-30.591
1693	11.08	4.1818	0.	-27.191
1694	11.265	4.1818	0.	-24.033
1695	11.449	4.1818	0.	-21.1
1696	11.634	4.1818	0.	-18.376
1697	11.819	4.1818	0.	-15.846
1698	12.003	4.1818	0.	-13.494
1699	12.188	4.1818	0.	-11.308
1700	12.372	4.1818	0.	-9.2735
1701	12.557	4.1818	0.	-7.3791
1702	12.741	4.1818	0.	-5.6133
1703	12.926	4.1818	0.	-3.9656
1704	13.11	4.1818	0.	-2.4267
1705	13.295	4.1818	0.	-0.99223
1706	13.48	4.1818	0.	-3.0452e-002
1707	13.664	4.1818	0.	-3.702e-003
1708	13.849	4.1818	0.	4.4819e-005
1709	14.033	4.1818	0.	1.5739e-003
1710	14.218	4.1818	0.	2.4627e-003
1711	14.402	4.1818	0.	3.058e-003
1712	14.587	4.1818	0.	3.4837e-003
1713	14.772	4.1818	0.	3.8498e-003
1714	14.956	4.1818	0.	4.1695e-003
1715	15.141	4.1818	0.	4.4495e-003
1716	15.325	4.1818	0.	4.6995e-003
1717	15.51	4.1818	0.	4.9436e-003
1718	15.694	4.1818	0.	5.2002e-003
1719	15.879	4.1818	0.	5.4328e-003
1720	16.064	4.1818	0.	5.6616e-003
1721	16.248	4.1818	0.	5.9078e-003
1722	16.433	4.1818	0.	6.1548e-003
1723	16.617	4.1818	0.	6.3909e-003
1724	16.802	4.1818	0.	6.6531e-003
1725	16.986	4.1818	0.	6.9297e-003
1726	17.171	4.1818	0.	7.2178e-003
1727	17.356	4.1818	0.	7.5204e-003
1728	17.54	4.1818	0.	7.8212e-003
1729	17.725	4.1818	0.	8.1579e-003
1730	17.909	4.1818	0.	8.5185e-003
1731	18.094	4.1818	0.	8.8979e-003
1732	18.278	4.1818	0.	9.2983e-003
1733	18.463	4.1818	0.	9.7309e-003
1734	18.648	4.1818	0.	1.021e-002
1735	18.832	4.1818	0.	1.0713e-002
1736	19.017	4.1818	0.	1.1249e-002
1737	19.201	4.1818	0.	1.1847e-002
1738	19.386	4.1818	0.	1.249e-002
1739	19.57	4.1818	0.	1.3184e-002
1740	19.755	4.1818	0.	1.3954e-002
1741	19.94	4.1818	0.	1.4804e-002
1742	20.124	4.1818	0.	1.5736e-002
1743	20.309	4.1818	0.	1.677e-002
1744	20.493	4.1818	0.	1.7925e-002
1745	20.678	4.1818	0.	1.9227e-002
1746	20.862	4.1818	0.	2.0688e-002
1747	21.047	4.1818	0.	2.2341e-002
1748	21.231	4.1818	0.	2.4239e-002
1749	21.416	4.1818	0.	2.6425e-002
1750	21.601	4.1818	0.	2.8965e-002
1751	21.785	4.1818	0.	3.1954e-002
1752	21.97	4.1818	0.	3.5515e-002
1753	22.154	4.1818	0.	3.9821e-002
1754	22.339	4.1818	0.	4.5101e-002
1755	22.523	4.1818	0.	5.1776e-002
1756	22.708	4.1818	0.	6.0269e-002
1757	22.893	4.1818	0.	7.2211e-002
1758	23.077	4.1818	0.	8.6893e-002
1759	23.262	4.1818	0.	0.11778
1760	23.446	4.1818	0.	0.1342
1761	23.631	4.1818	0.	0.3175
1762	23.815	4.1818	0.	0.17834
1763	4.2512	4.	0.	-723.76
1764	4.4358	4.	0.	95.653
1765	4.6204	4.	0.	-22.477
1766	4.8049	4.	0.	-14.148
1767	4.9895	4.	0.	-111.87
1768	5.1741	4.	0.	-201.72
1769	5.3586	4.	0.	-253.74
1770	5.5432	4.	0.	-280.36
1771	5.7278	4.	0.	-290.85
1772	5.9123	4.	0.	-291.06
1773	6.0969	4.	0.	-284.79
1774	6.2815	4.	0.	-274.51
1775	6.466	4.	0.	-261.83
1776	6.6506	4.	0.	-247.81
1777	6.8352	4.	0.	-233.16
1778	7.0198	4.	0.	-218.38
1779	7.2043	4.	0.	-203.78
1780	7.3889	4.	0.	-189.57
1781	7.5735	4.	0.	-175.89
1782	7.758	4.	0.	-162.82
1783	7.9426	4.	0.	-150.43
1784	8.1272	4.	0.	-138.73
1785	8.3117	4.	0.	-127.73
1786	8.4963	4.	0.	-117.41
1787	8.6809	4.	0.	-107.76
1788	8.8654	4.	0.	-98.752
1789	9.05	4.	0.	-90.363
1790	9.2346	4.	0.	-82.558
1791	9.4191	4.	0.	-75.305
1792	9.6037	4.	0.	-68.572
1793	9.7883	4.	0.	-62.326
1794	9.9728	4.	0.	-56.535
1795	10.157	4.	0.	-51.168
1796	10.342	4.	0.	-46.197
1797	10.527	4.	0.	-41.592
1798	10.711	4.	0.	-37.328
1799	10.896	4.	0.	-33.38
1800	11.08	4.	0.	-29.723
1801	11.265	4.	0.	-26.335
1802	11.449	4.	0.	-23.197
1803	11.634	4.	0.	-20.289
1804	11.819	4.	0.	-17.592
1805	12.003	4.	0.	-15.09
1806	12.188	4.	0.	-12.768
1807	12.372	4.	0.	-10.61
1808	12.557	4.	0.	-8.6027
1809	12.741	4.	0.	-6.7341
1810	12.926	4.	0.	-4.9922
1811	13.11	4.	0.	-3.3663
1812	13.295	4.	0.	-1.8471
1813	13.48	4.	0.	-0.43952
1814	13.664	4.	0.	-6.3208e-003
1815	13.849	4.	0.	5.8002e-004
1816	14.033	4.	0.	2.4735e-003
1817	14.218	4.	0.	3.4363e-003
1818	14.402	4.	0.	4.0496e-003
1819	14.587	4.	0.	4.4785e-003
1820	14.772	4.	0.	4.846e-003
1821	14.956	4.	0.	5.1675e-003
1822	15.141	4.	0.	5.4503e-003
1823	15.325	4.	0.	5.7087e-003
1824	15.51	4.	0.	5.9593e-003
1825	15.694	4.	0.	6.2264e-003
1826	15.879	4.	0.	6.4719e-003
1827	16.064	4.	0.	6.7112e-003
1828	16.248	4.	0.	6.9728e-003
1829	16.433	4.	0.	7.236e-003
1830	16.617	4.	0.	7.4866e-003
1831	16.802	4.	0.	7.7686e-003
1832	16.986	4.	0.	8.0648e-003
1833	17.171	4.	0.	8.3728e-003
1834	17.356	4.	0.	8.6961e-003
1835	17.54	4.	0.	9.0201e-003
1836	17.725	4.	0.	9.3813e-003
1837	17.909	4.	0.	9.7659e-003
1838	18.094	4.	0.	1.0173e-002
1839	18.278	4.	0.	1.0601e-002
1840	18.463	4.	0.	1.1064e-002
1841	18.648	4.	0.	1.1572e-002
1842	18.832	4.	0.	1.2109e-002
1843	19.017	4.	0.	1.2684e-002
1844	19.201	4.	0.	1.3316e-002
1845	19.386	4.	0.	1.4e-002
1846	19.57	4.	0.	1.4735e-002
1847	19.755	4.	0.	1.5548e-002
1848	19.94	4.	0.	1.6444e-002
1849	20.124	4.	0.	1.7426e-002
1850	20.309	4.	0.	1.851e-002
1851	20.493	4.	0.	1.9717e-002
1852	20.678	4.	0.	2.1075e-002
1853	20.862	4.	0.	2.259e-002
1854	21.047	4.	0.	2.4305e-002
1855	21.231	4.	0.	2.6262e-002
1856	21.416	4.	0.	2.8512e-002
1857	21.601	4.	0.	3.1108e-002
1858	21.785	4.	0.	3.4162e-002
1859	21.97	4.	0.	3.7783e-002
1860	22.154	4.	0.	4.215e-002
1861	22.339	4.	0.	4.7498e-002
1862	22.523	4.	0.	5.4248e-002
1863	22.708	4.	0.	6.2839e-002
1864	22.893	4.	0.	7.4911e-002
1865	23.077	4.	0.	8.9783e-002
1866	23.262	4.	0.	0.12099
1867	23.446	4.	0.	0.13783
1868	23.631	4.	0.	0.32263
1869	23.815	4.	0.	0.18839
1870	4.2512	3.8182	0.	-4.8706
1871	4.4358	3.8182	0.	45.546
1872	4.6204	3.8182	0.	-13.965
1873	4.8049	3.8182	0.	-113.33
1874	4.9895	3.8182	0.	-236.12
1875	5.1741	3.8182	0.	-306.96
1876	5.3586	3.8182	0.	-344.96
1877	5.5432	3.8182	0.	-360.99
1878	5.7278	3.8182	0.	-362.76
1879	5.9123	3.8182	0.	-355.33
1880	6.0969	3.8182	0.	-342.15
1881	6.2815	3.8182	0.	-325.53
1882	6.466	3.8182	0.	-307.03
1883	6.6506	3.8182	0.	-287.72
1884	6.8352	3.8182	0.	-268.3
1885	7.0198	3.8182	0.	-249.23
1886	7.2043	3.8182	0.	-230.8
1887	7.3889	3.8182	0.	-213.21
1888	7.5735	3.8182	0.	-196.56
1889	7.758	3.8182	0.	-180.89
1890	7.9426	3.8182	0.	-166.23
1891	8.1272	3.8182	0.	-152.55
1892	8.3117	3.8182	0.	-139.83
1893	8.4963	3.8182	0.	-128.03
1894	8.6809	3.8182	0.	-117.1
1895	8.8654	3.8182	0.	-106.98
1896	9.05	3.8182	0.	-97.625
1897	9.2346	3.8182	0.	-88.985
1898	9.4191	3.8182	0.	-81.007
1899	9.6037	3.8182	0.	-73.644
1900	9.7883	3.8182	0.	-66.849
1901	9.9728	3.8182	0.	-60.579
1902	10.157	3.8182	0.	-54.794
1903	10.342	3.8182	0.	-49.454
1904	10.527	3.8182	0.	-44.526
1905	10.711	3.8182	0.	-39.976
1906	10.896	3.8182	0.	-35.774
1907	11.08	3.8182	0.	-31.893
1908	11.265	3.8182	0.	-28.306
1909	11.449	3.8182	0.	-24.989
1910	11.634	3.8182	0.	-21.92
1911	11.819	3.8182	0.	-19.079
1912	12.003	3.8182	0.	-16.448
1913	12.188	3.8182	0.	-14.008
1914	12.372	3.8182	0.	-11.744
1915	12.557	3.8182	0.	-9.6401
1916	12.741	3.8182	0.	-7.6836
1917	12.926	3.8182	0.	-5.8614
1918	13.11	3.8182	0.	-4.1616
1919	13.295	3.8182	0.	-2.5736
1920	13.48	3.8182	0.	-1.0893
1921	13.664	3.8182	0.	-1.7422e-002
1922	13.849	3.8182	0.	1.27e-003
1923	14.033	3.8182	0.	3.4681e-003
1924	14.218	3.8182	0.	4.4223e-003
1925	14.402	3.8182	0.	4.9991e-003
1926	14.587	3.8182	0.	5.4006e-003
1927	14.772	3.8182	0.	5.7462e-003
1928	14.956	3.8182	0.	6.0541e-003
1929	15.141	3.8182	0.	6.3299e-003
1930	15.325	3.8182	0.	6.5832e-003
1931	15.51	3.8182	0.	6.8344e-003
1932	15.694	3.8182	0.	7.1032e-003
1933	15.879	3.8182	0.	7.3533e-003
1934	16.064	3.8182	0.	7.5991e-003
1935	16.248	3.8182	0.	7.869e-003
1936	16.433	3.8182	0.	8.1394e-003
1937	16.617	3.8182	0.	8.4033e-003
1938	16.802	3.8182	0.	8.696e-003
1939	16.986	3.8182	0.	9.0049e-003
1940	17.171	3.8182	0.	9.3274e-003
1941	17.356	3.8182	0.	9.6639e-003
1942	17.54	3.8182	0.	1.0005e-002
1943	17.725	3.8182	0.	1.0385e-002
1944	17.909	3.8182	0.	1.0788e-002
1945	18.094	3.8182	0.	1.1213e-002
1946	18.278	3.8182	0.	1.1662e-002
1947	18.463	3.8182	0.	1.2144e-002
1948	18.648	3.8182	0.	1.2679e-002
1949	18.832	3.8182	0.	1.3237e-002
1950	19.017	3.8182	0.	1.3838e-002
1951	19.201	3.8182	0.	1.4501e-002
1952	19.386	3.8182	0.	1.5209e-002
1953	19.57	3.8182	0.	1.5974e-002
1954	19.755	3.8182	0.	1.682e-002
1955	19.94	3.8182	0.	1.775e-002
1956	20.124	3.8182	0.	1.8767e-002
1957	20.309	3.8182	0.	1.9886e-002
1958	20.493	3.8182	0.	2.1133e-002
1959	20.678	3.8182	0.	2.2526e-002
1960	20.862	3.8182	0.	2.4085e-002
1961	21.047	3.8182	0.	2.5838e-002
1962	21.231	3.8182	0.	2.7836e-002
1963	21.416	3.8182	0.	3.0122e-002
1964	21.601	3.8182	0.	3.2758e-002
1965	21.785	3.8182	0.	3.585e-002
1966	21.97	3.8182	0.	3.9514e-002
1967	22.154	3.8182	0.	4.3917e-002
1968	22.339	3.8182	0.	4.9315e-002
1969	22.523	3.8182	0.	5.6115e-002
1970	22.708	3.8182	0.	6.4783e-002
1971	22.893	3.8182	0.	7.6951e-002
1972	23.077	3.8182	0.	9.1971e-002
1973	23.262	3.8182	0.	0.12342
1974	23.446	3.8182	0.	0.14059
1975	23.631	3.8182	0.	0.32658
1976	23.815	3.8182	0.	0.19631
1977	4.2512	3.6364	0.	-22.592
1978	4.4358	3.6364	0.	-11.698
1979	4.6204	3.6364	0.	1.0199
1980	4.8049	3.6364	0.	-191.31
1981	4.9895	3.6364	0.	-311.51
1982	5.1741	3.6364	0.	-379.81
1983	5.3586	3.6364	0.	-413.93
1984	5.5432	3.6364	0.	-425.46
1985	5.7278	3.6364	0.	-422.21
1986	5.9123	3.6364	0.	-409.54
1987	6.0969	3.6364	0.	-391.09
1988	6.2815	3.6364	0.	-369.35
1989	6.466	3.6364	0.	-346.
1990	6.6506	3.6364	0.	-322.18
1991	6.8352	3.6364	0.	-298.63
1992	7.0198	3.6364	0.	-275.83
1993	7.2043	3.6364	0.	-254.08
1994	7.3889	3.6364	0.	-233.54
1995	7.5735	3.6364	0.	-214.29
1996	7.758	3.6364	0.	-196.36
1997	7.9426	3.6364	0.	-179.72
1998	8.1272	3.6364	0.	-164.33
1999	8.3117	3.6364	0.	-150.12
2000	8.4963	3.6364	0.	-137.03
2001	8.6809	3.6364	0.	-124.98
2002	8.8654	3.6364	0.	-113.91
2003	9.05	3.6364	0.	-103.72
2004	9.2346	3.6364	0.	-94.368
2005	9.4191	3.6364	0.	-85.77
2006	9.6037	3.6364	0.	-77.87
2007	9.7883	3.6364	0.	-70.608
2008	9.9728	3.6364	0.	-63.932
2009	10.157	3.6364	0.	-57.792
2010	10.342	3.6364	0.	-52.142
2011	10.527	3.6364	0.	-46.942
2012	10.711	3.6364	0.	-42.152
2013	10.896	3.6364	0.	-37.739
2014	11.08	3.6364	0.	-33.67
2015	11.265	3.6364	0.	-29.917
2016	11.449	3.6364	0.	-26.451
2017	11.634	3.6364	0.	-23.25
2018	11.819	3.6364	0.	-20.291
2019	12.003	3.6364	0.	-17.552
2020	12.188	3.6364	0.	-15.016
2021	12.372	3.6364	0.	-12.665
2022	12.557	3.6364	0.	-10.482
2023	12.741	3.6364	0.	-8.4537
2024	12.926	3.6364	0.	-6.5658
2025	13.11	3.6364	0.	-4.8059
2026	13.295	3.6364	0.	-3.1623
2027	13.48	3.6364	0.	-1.6249
2028	13.664	3.6364	0.	-0.20144
2029	13.849	3.6364	0.	2.2166e-003
2030	14.033	3.6364	0.	4.5276e-003
2031	14.218	3.6364	0.	5.368e-003
2032	14.402	3.6364	0.	5.8631e-003
2033	14.587	3.6364	0.	6.2111e-003
2034	14.772	3.6364	0.	6.5215e-003
2035	14.956	3.6364	0.	6.8062e-003
2036	15.141	3.6364	0.	7.0653e-003
2037	15.325	3.6364	0.	7.3086e-003
2038	15.51	3.6364	0.	7.5548e-003
2039	15.694	3.6364	0.	7.8207e-003
2040	15.879	3.6364	0.	8.0693e-003
2041	16.064	3.6364	0.	8.318e-003
2042	16.248	3.6364	0.	8.5917e-003
2043	16.433	3.6364	0.	8.8684e-003
2044	16.617	3.6364	0.	9.137e-003
2045	16.802	3.6364	0.	9.4378e-003
2046	16.986	3.6364	0.	9.7542e-003
2047	17.171	3.6364	0.	1.0086e-002
2048	17.356	3.6364	0.	1.0435e-002
2049	17.54	3.6364	0.	1.0786e-002
2050	17.725	3.6364	0.	1.1173e-002
2051	17.909	3.6364	0.	1.1591e-002
2052	18.094	3.6364	0.	1.203e-002
2053	18.278	3.6364	0.	1.2494e-002
2054	18.463	3.6364	0.	1.2992e-002
2055	18.648	3.6364	0.	1.3541e-002
2056	18.832	3.6364	0.	1.4119e-002
2057	19.017	3.6364	0.	1.4737e-002
2058	19.201	3.6364	0.	1.5417e-002
2059	19.386	3.6364	0.	1.6148e-002
2060	19.57	3.6364	0.	1.6934e-002
2061	19.755	3.6364	0.	1.7802e-002
2062	19.94	3.6364	0.	1.8756e-002
2063	20.124	3.6364	0.	1.9798e-002
2064	20.309	3.6364	0.	2.094e-002
2065	20.493	3.6364	0.	2.2213e-002
2066	20.678	3.6364	0.	2.3635e-002
2067	20.862	3.6364	0.	2.5218e-002
2068	21.047	3.6364	0.	2.6996e-002
2069	21.231	3.6364	0.	2.9021e-002
2070	21.416	3.6364	0.	3.1336e-002
2071	21.601	3.6364	0.	3.4e-002
2072	21.785	3.6364	0.	3.711e-002
2073	21.97	3.6364	0.	4.08e-002
2074	22.154	3.6364	0.	4.5233e-002
2075	22.339	3.6364	0.	5.0657e-002
2076	22.523	3.6364	0.	5.75e-002
2077	22.708	3.6364	0.	6.6215e-002
2078	22.893	3.6364	0.	7.8468e-002
2079	23.077	3.6364	0.	9.3595e-002
2080	23.262	3.6364	0.	0.12523
2081	23.446	3.6364	0.	0.14266
2082	23.631	3.6364	0.	0.32954
2083	23.815	3.6364	0.	0.20239
2084	4.2512	3.4545	0.	5.5507
2085	4.4358	3.4545	0.	0.14136
2086	4.6204	3.4545	0.	-5.1543
2087	4.8049	3.4545	0.	-202.72
2088	4.9895	3.4545	0.	-340.78
2089	5.1741	3.4545	0.	-419.69
2090	5.3586	3.4545	0.	-458.64
2091	5.5432	3.4545	0.	-471.14
2092	5.7278	3.4545	0.	-466.51
2093	5.9123	3.4545	0.	-451.1
2094	6.0969	3.4545	0.	-429.23
2095	6.2815	3.4545	0.	-403.82
2096	6.466	3.4545	0.	-376.81
2097	6.6506	3.4545	0.	-349.5
2098	6.8352	3.4545	0.	-322.7
2099	7.0198	3.4545	0.	-296.94
2100	7.2043	3.4545	0.	-272.54
2101	7.3889	3.4545	0.	-249.64
2102	7.5735	3.4545	0.	-228.32
2103	7.758	3.4545	0.	-208.57
2104	7.9426	3.4545	0.	-190.35
2105	8.1272	3.4545	0.	-173.59
2106	8.3117	3.4545	0.	-158.2
2107	8.4963	3.4545	0.	-144.08
2108	8.6809	3.4545	0.	-131.15
2109	8.8654	3.4545	0.	-119.31
2110	9.05	3.4545	0.	-108.47
2111	9.2346	3.4545	0.	-98.551
2112	9.4191	3.4545	0.	-89.464
2113	9.6037	3.4545	0.	-81.14
2114	9.7883	3.4545	0.	-73.512
2115	9.9728	3.4545	0.	-66.517
2116	10.157	3.4545	0.	-60.099
2117	10.342	3.4545	0.	-54.207
2118	10.527	3.4545	0.	-48.795
2119	10.711	3.4545	0.	-43.819
2120	10.896	3.4545	0.	-39.242
2121	11.08	3.4545	0.	-35.028
2122	11.265	3.4545	0.	-31.146
2123	11.449	3.4545	0.	-27.566
2124	11.634	3.4545	0.	-24.263
2125	11.819	3.4545	0.	-21.212
2126	12.003	3.4545	0.	-18.392
2127	12.188	3.4545	0.	-15.782
2128	12.372	3.4545	0.	-13.364
2129	12.557	3.4545	0.	-11.121
2130	12.741	3.4545	0.	-9.0374
2131	12.926	3.4545	0.	-7.0994
2132	13.11	3.4545	0.	-5.2937
2133	13.295	3.4545	0.	-3.608
2134	13.48	3.4545	0.	-2.0313
2135	13.664	3.4545	0.	-0.5552
2136	13.849	3.4545	0.	3.5379e-003
2137	14.033	3.4545	0.	5.5701e-003
2138	14.218	3.4545	0.	6.2034e-003
2139	14.402	3.4545	0.	6.5896e-003
2140	14.587	3.4545	0.	6.87e-003
2141	14.772	3.4545	0.	7.1389e-003
2142	14.956	3.4545	0.	7.3961e-003
2143	15.141	3.4545	0.	7.6382e-003
2144	15.325	3.4545	0.	7.8695e-003
2145	15.51	3.4545	0.	8.1055e-003
2146	15.694	3.4545	0.	8.3688e-003
2147	15.879	3.4545	0.	8.6174e-003
2148	16.064	3.4545	0.	8.8628e-003
2149	16.248	3.4545	0.	9.1385e-003
2150	16.433	3.4545	0.	9.4152e-003
2151	16.617	3.4545	0.	9.6886e-003
2152	16.802	3.4545	0.	9.9929e-003
2153	16.986	3.4545	0.	1.0314e-002
2154	17.171	3.4545	0.	1.0653e-002
2155	17.356	3.4545	0.	1.1003e-002
2156	17.54	3.4545	0.	1.1363e-002
2157	17.725	3.4545	0.	1.1763e-002
2158	17.909	3.4545	0.	1.2187e-002
2159	18.094	3.4545	0.	1.2635e-002
2160	18.278	3.4545	0.	1.3108e-002
2161	18.463	3.4545	0.	1.3617e-002
2162	18.648	3.4545	0.	1.4178e-002
2163	18.832	3.4545	0.	1.4766e-002
2164	19.017	3.4545	0.	1.5395e-002
2165	19.201	3.4545	0.	1.609e-002
2166	19.386	3.4545	0.	1.6835e-002
2167	19.57	3.4545	0.	1.7636e-002
2168	19.755	3.4545	0.	1.8518e-002
2169	19.94	3.4545	0.	1.9487e-002
2170	20.124	3.4545	0.	2.0545e-002
2171	20.309	3.4545	0.	2.1706e-002
2172	20.493	3.4545	0.	2.2994e-002
2173	20.678	3.4545	0.	2.4435e-002
2174	20.862	3.4545	0.	2.6036e-002
2175	21.047	3.4545	0.	2.7832e-002
2176	21.231	3.4545	0.	2.9873e-002
2177	21.416	3.4545	0.	3.22e-002
2178	21.601	3.4545	0.	3.488e-002
2179	21.785	3.4545	0.	3.8011e-002
2180	21.97	3.4545	0.	4.1714e-002
2181	22.154	3.4545	0.	4.6161e-002
2182	22.339	3.4545	0.	5.1606e-002
2183	22.523	3.4545	0.	5.8478e-002
2184	22.708	3.4545	0.	6.7232e-002
2185	22.893	3.4545	0.	7.9538e-002
2186	23.077	3.4545	0.	9.4746e-002
2187	23.262	3.4545	0.	0.12652
2188	23.446	3.4545	0.	0.14413
2189	23.631	3.4545	0.	0.33166
2190	23.815	3.4545	0.	0.2068
2191	4.2512	3.2727	0.	-3.9671
2192	4.4358	3.2727	0.	-0.3952
2193	4.6204	3.2727	0.	-0.46108
2194	4.8049	3.2727	0.	-189.21
2195	4.9895	3.2727	0.	-344.54
2196	5.1741	3.2727	0.	-436.56
2197	5.3586	3.2727	0.	-483.19
2198	5.5432	3.2727	0.	-499.16
2199	5.7278	3.2727	0.	-495.23
2200	5.9123	3.2727	0.	-478.87
2201	6.0969	3.2727	0.	-455.16
2202	6.2815	3.2727	0.	-427.49
2203	6.466	3.2727	0.	-398.08
2204	6.6506	3.2727	0.	-368.4
2205	6.8352	3.2727	0.	-339.38
2206	7.0198	3.2727	0.	-311.58
2207	7.2043	3.2727	0.	-285.33
2208	7.3889	3.2727	0.	-260.8
2209	7.5735	3.2727	0.	-238.04
2210	7.758	3.2727	0.	-217.02
2211	7.9426	3.2727	0.	-197.7
2212	8.1272	3.2727	0.	-179.98
2213	8.3117	3.2727	0.	-163.76
2214	8.4963	3.2727	0.	-148.94
2215	8.6809	3.2727	0.	-135.39
2216	8.8654	3.2727	0.	-123.02
2217	9.05	3.2727	0.	-111.73
2218	9.2346	3.2727	0.	-101.41
2219	9.4191	3.2727	0.	-91.987
2220	9.6037	3.2727	0.	-83.371
2221	9.7883	3.2727	0.	-75.489
2222	9.9728	3.2727	0.	-68.275
2223	10.157	3.2727	0.	-61.666
2224	10.342	3.2727	0.	-55.608
2225	10.527	3.2727	0.	-50.051
2226	10.711	3.2727	0.	-44.948
2227	10.896	3.2727	0.	-40.258
2228	11.08	3.2727	0.	-35.945
2229	11.265	3.2727	0.	-31.976
2230	11.449	3.2727	0.	-28.318
2231	11.634	3.2727	0.	-24.946
2232	11.819	3.2727	0.	-21.833
2233	12.003	3.2727	0.	-18.957
2234	12.188	3.2727	0.	-16.297
2235	12.372	3.2727	0.	-13.834
2236	12.557	3.2727	0.	-11.55
2237	12.741	3.2727	0.	-9.4295
2238	12.926	3.2727	0.	-7.4578
2239	13.11	3.2727	0.	-5.6212
2240	13.295	3.2727	0.	-3.9072
2241	13.48	3.2727	0.	-2.3041
2242	13.664	3.2727	0.	-0.80164
2243	13.849	3.2727	0.	5.2018e-003
2244	14.033	3.2727	0.	6.4392e-003
2245	14.218	3.2727	0.	6.8352e-003
2246	14.402	3.2727	0.	7.1142e-003
2247	14.587	3.2727	0.	7.3358e-003
2248	14.772	3.2727	0.	7.5695e-003
2249	14.956	3.2727	0.	7.8035e-003
2250	15.141	3.2727	0.	8.0287e-003
2251	15.325	3.2727	0.	8.2494e-003
2252	15.51	3.2727	0.	8.4811e-003
2253	15.694	3.2727	0.	8.737e-003
2254	15.879	3.2727	0.	8.983e-003
2255	16.064	3.2727	0.	9.2285e-003
2256	16.248	3.2727	0.	9.5019e-003
2257	16.433	3.2727	0.	9.7822e-003
2258	16.617	3.2727	0.	1.0055e-002
2259	16.802	3.2727	0.	1.0362e-002
2260	16.986	3.2727	0.	1.0686e-002
2261	17.171	3.2727	0.	1.1027e-002
2262	17.356	3.2727	0.	1.1383e-002
2263	17.54	3.2727	0.	1.1748e-002
2264	17.725	3.2727	0.	1.2149e-002
2265	17.909	3.2727	0.	1.2579e-002
2266	18.094	3.2727	0.	1.3034e-002
2267	18.278	3.2727	0.	1.3512e-002
2268	18.463	3.2727	0.	1.4026e-002
2269	18.648	3.2727	0.	1.4595e-002
2270	18.832	3.2727	0.	1.5192e-002
2271	19.017	3.2727	0.	1.5827e-002
2272	19.201	3.2727	0.	1.6528e-002
2273	19.386	3.2727	0.	1.7285e-002
2274	19.57	3.2727	0.	1.8091e-002
2275	19.755	3.2727	0.	1.8986e-002
2276	19.94	3.2727	0.	1.9966e-002
2277	20.124	3.2727	0.	2.1032e-002
2278	20.309	3.2727	0.	2.2203e-002
2279	20.493	3.2727	0.	2.3503e-002
2280	20.678	3.2727	0.	2.4953e-002
2281	20.862	3.2727	0.	2.6563e-002
2282	21.047	3.2727	0.	2.8374e-002
2283	21.231	3.2727	0.	3.0424e-002
2284	21.416	3.2727	0.	3.276e-002
2285	21.601	3.2727	0.	3.5446e-002
2286	21.785	3.2727	0.	3.8585e-002
2287	21.97	3.2727	0.	4.2296e-002
2288	22.154	3.2727	0.	4.6756e-002
2289	22.339	3.2727	0.	5.2216e-002
2290	22.523	3.2727	0.	5.9101e-002
2291	22.708	3.2727	0.	6.788e-002
2292	22.893	3.2727	0.	8.0223e-002
2293	23.077	3.2727	0.	9.5485e-002
2294	23.262	3.2727	0.	0.12735
2295	23.446	3.2727	0.	0.14508
2296	23.631	3.2727	0.	0.33303
2297	23.815	3.2727	0.	0.20968
2298	4.2512	3.0909	0.	-0.42158
2299	4.4358	3.0909	0.	-9.8054e-003
2300	4.6204	3.0909	0.	1.0072
2301	4.8049	3.0909	0.	-177.64
2302	4.9895	3.0909	0.	-341.7
2303	5.1741	3.0909	0.	-441.66
2304	5.3586	3.0909	0.	-493.5
2305	5.5432	3.0909	0.	-512.17
2306	5.7278	3.0909	0.	-509.19
2307	5.9123	3.0909	0.	-492.7
2308	6.0969	3.0909	0.	-468.23
2309	6.2815	3.0909	0.	-439.5
2310	6.466	3.0909	0.	-408.92
2311	6.6506	3.0909	0.	-378.06
2312	6.8352	3.0909	0.	-347.91
2313	7.0198	3.0909	0.	-319.07
2314	7.2043	3.0909	0.	-291.88
2315	7.3889	3.0909	0.	-266.51
2316	7.5735	3.0909	0.	-243.
2317	7.758	3.0909	0.	-221.34
2318	7.9426	3.0909	0.	-201.45
2319	8.1272	3.0909	0.	-183.24
2320	8.3117	3.0909	0.	-166.6
2321	8.4963	3.0909	0.	-151.41
2322	8.6809	3.0909	0.	-137.55
2323	8.8654	3.0909	0.	-124.91
2324	9.05	3.0909	0.	-113.38
2325	9.2346	3.0909	0.	-102.87
2326	9.4191	3.0909	0.	-93.267
2327	9.6037	3.0909	0.	-84.501
2328	9.7883	3.0909	0.	-76.491
2329	9.9728	3.0909	0.	-69.165
2330	10.157	3.0909	0.	-62.459
2331	10.342	3.0909	0.	-56.316
2332	10.527	3.0909	0.	-50.685
2333	10.711	3.0909	0.	-45.517
2334	10.896	3.0909	0.	-40.771
2335	11.08	3.0909	0.	-36.408
2336	11.265	3.0909	0.	-32.394
2337	11.449	3.0909	0.	-28.697
2338	11.634	3.0909	0.	-25.289
2339	11.819	3.0909	0.	-22.145
2340	12.003	3.0909	0.	-19.241
2341	12.188	3.0909	0.	-16.556
2342	12.372	3.0909	0.	-14.07
2343	12.557	3.0909	0.	-11.766
2344	12.741	3.0909	0.	-9.6265
2345	12.926	3.0909	0.	-7.6378
2346	13.11	3.0909	0.	-5.7856
2347	13.295	3.0909	0.	-4.0573
2348	13.48	3.0909	0.	-2.4411
2349	13.664	3.0909	0.	-0.92593
2350	13.849	3.0909	0.	6.6035e-003
2351	14.033	3.0909	0.	6.9445e-003
2352	14.218	3.0909	0.	7.1782e-003
2353	14.402	3.0909	0.	7.3908e-003
2354	14.587	3.0909	0.	7.5765e-003
2355	14.772	3.0909	0.	7.7906e-003
2356	14.956	3.0909	0.	8.0111e-003
2357	15.141	3.0909	0.	8.2275e-003
2358	15.325	3.0909	0.	8.4432e-003
2359	15.51	3.0909	0.	8.6678e-003
2360	15.694	3.0909	0.	8.9234e-003
2361	15.879	3.0909	0.	9.1659e-003
2362	16.064	3.0909	0.	9.4115e-003
2363	16.248	3.0909	0.	9.686e-003
2364	16.433	3.0909	0.	9.9635e-003
2365	16.617	3.0909	0.	1.0239e-002
2366	16.802	3.0909	0.	1.0546e-002
2367	16.986	3.0909	0.	1.0873e-002
2368	17.171	3.0909	0.	1.1215e-002
2369	17.356	3.0909	0.	1.1575e-002
2370	17.54	3.0909	0.	1.1939e-002
2371	17.725	3.0909	0.	1.2343e-002
2372	17.909	3.0909	0.	1.2776e-002
2373	18.094	3.0909	0.	1.3231e-002
2374	18.278	3.0909	0.	1.3712e-002
2375	18.463	3.0909	0.	1.4232e-002
2376	18.648	3.0909	0.	1.4802e-002
2377	18.832	3.0909	0.	1.54e-002
2378	19.017	3.0909	0.	1.6042e-002
2379	19.201	3.0909	0.	1.6748e-002
2380	19.386	3.0909	0.	1.7505e-002
2381	19.57	3.0909	0.	1.832e-002
2382	19.755	3.0909	0.	1.9217e-002
2383	19.94	3.0909	0.	2.02e-002
2384	20.124	3.0909	0.	2.1272e-002
2385	20.309	3.0909	0.	2.245e-002
2386	20.493	3.0909	0.	2.3753e-002
2387	20.678	3.0909	0.	2.5209e-002
2388	20.862	3.0909	0.	2.6826e-002
2389	21.047	3.0909	0.	2.8634e-002
2390	21.231	3.0909	0.	3.069e-002
2391	21.416	3.0909	0.	3.3033e-002
2392	21.601	3.0909	0.	3.5724e-002
2393	21.785	3.0909	0.	3.8866e-002
2394	21.97	3.0909	0.	4.2584e-002
2395	22.154	3.0909	0.	4.7047e-002
2396	22.339	3.0909	0.	5.2512e-002
2397	22.523	3.0909	0.	5.9407e-002
2398	22.708	3.0909	0.	6.8196e-002
2399	22.893	3.0909	0.	8.056e-002
2400	23.077	3.0909	0.	9.5848e-002
2401	23.262	3.0909	0.	0.12775
2402	23.446	3.0909	0.	0.14555
2403	23.631	3.0909	0.	0.3337
2404	23.815	3.0909	0.	0.21111
2405	4.2512	2.9091	0.	-0.42158
2406	4.4358	2.9091	0.	-9.8058e-003
2407	4.6204	2.9091	0.	1.0072
2408	4.8049	2.9091	0.	-177.64
2409	4.9895	2.9091	0.	-341.7
2410	5.1741	2.9091	0.	-441.67
2411	5.3586	2.9091	0.	-493.5
2412	5.5432	2.9091	0.	-512.17
2413	5.7278	2.9091	0.	-509.19
2414	5.9123	2.9091	0.	-492.7
2415	6.0969	2.9091	0.	-468.23
2416	6.2815	2.9091	0.	-439.5
2417	6.466	2.9091	0.	-408.92
2418	6.6506	2.9091	0.	-378.06
2419	6.8352	2.9091	0.	-347.91
2420	7.0198	2.9091	0.	-319.07
2421	7.2043	2.9091	0.	-291.88
2422	7.3889	2.9091	0.	-266.51
2423	7.5735	2.9091	0.	-243.
2424	7.758	2.9091	0.	-221.34
2425	7.9426	2.9091	0.	-201.45
2426	8.1272	2.9091	0.	-183.24
2427	8.3117	2.9091	0.	-166.6
2428	8.4963	2.9091	0.	-151.41
2429	8.6809	2.9091	0.	-137.55
2430	8.8654	2.9091	0.	-124.91
2431	9.05	2.9091	0.	-113.38
2432	9.2346	2.9091	0.	-102.87
2433	9.4191	2.9091	0.	-93.267
2434	9.6037	2.9091	0.	-84.501
2435	9.7883	2.9091	0.	-76.491
2436	9.9728	2.9091	0.	-69.165
2437	10.157	2.9091	0.	-62.459
2438	10.342	2.9091	0.	-56.316
2439	10.527	2.9091	0.	-50.685
2440	10.711	2.9091	0.	-45.517
2441	10.896	2.9091	0.	-40.771
2442	11.08	2.9091	0.	-36.408
2443	11.265	2.9091	0.	-32.394
2444	11.449	2.9091	0.	-28.697
2445	11.634	2.9091	0.	-25.289
2446	11.819	2.9091	0.	-22.145
2447	12.003	2.9091	0.	-19.241
2448	12.188	2.9091	0.	-16.556
2449	12.372	2.9091	0.	-14.07
2450	12.557	2.9091	0.	-11.766
2451	12.741	2.9091	0.	-9.6265
2452	12.926	2.9091	0.	-7.6378
2453	13.11	2.9091	0.	-5.7856
2454	13.295	2.9091	0.	-4.0573
2455	13.48	2.9091	0.	-2.4411
2456	13.664	2.9091	0.	-0.92594
2457	13.849	2.9091	0.	6.6038e-003
2458	14.033	2.9091	0.	6.944e-003
2459	14.218	2.9091	0.	7.1773e-003
2460	14.402	2.9091	0.	7.3897e-003
2461	14.587	2.9091	0.	7.5788e-003
2462	14.772	2.9091	0.	7.7893e-003
2463	14.956	2.9091	0.	8.011e-003
2464	15.141	2.9091	0.	8.2277e-003
2465	15.325	2.9091	0.	8.4421e-003
2466	15.51	2.9091	0.	8.6691e-003
2467	15.694	2.9091	0.	8.9229e-003
2468	15.879	2.9091	0.	9.1661e-003
2469	16.064	2.9091	0.	9.4109e-003
2470	16.248	2.9091	0.	9.6859e-003
2471	16.433	2.9091	0.	9.9645e-003
2472	16.617	2.9091	0.	1.0239e-002
2473	16.802	2.9091	0.	1.0546e-002
2474	16.986	2.9091	0.	1.0872e-002
2475	17.171	2.9091	0.	1.1215e-002
2476	17.356	2.9091	0.	1.1575e-002
2477	17.54	2.9091	0.	1.1938e-002
2478	17.725	2.9091	0.	1.2344e-002
2479	17.909	2.9091	0.	1.2775e-002
2480	18.094	2.9091	0.	1.323e-002
2481	18.278	2.9091	0.	1.3713e-002
2482	18.463	2.9091	0.	1.423e-002
2483	18.648	2.9091	0.	1.4802e-002
2484	18.832	2.9091	0.	1.5401e-002
2485	19.017	2.9091	0.	1.6043e-002
2486	19.201	2.9091	0.	1.6747e-002
2487	19.386	2.9091	0.	1.7505e-002
2488	19.57	2.9091	0.	1.8319e-002
2489	19.755	2.9091	0.	1.9217e-002
2490	19.94	2.9091	0.	2.0199e-002
2491	20.124	2.9091	0.	2.1271e-002
2492	20.309	2.9091	0.	2.2448e-002
2493	20.493	2.9091	0.	2.3754e-002
2494	20.678	2.9091	0.	2.5208e-002
2495	20.862	2.9091	0.	2.6824e-002
2496	21.047	2.9091	0.	2.8636e-002
2497	21.231	2.9091	0.	3.0692e-002
2498	21.416	2.9091	0.	3.3033e-002
2499	21.601	2.9091	0.	3.5724e-002
2500	21.785	2.9091	0.	3.8868e-002
2501	21.97	2.9091	0.	4.258e-002
2502	22.154	2.9091	0.	4.7049e-002
2503	22.339	2.9091	0.	5.2508e-002
2504	22.523	2.9091	0.	5.9406e-002
2505	22.708	2.9091	0.	6.8198e-002
2506	22.893	2.9091	0.	8.0556e-002
2507	23.077	2.9091	0.	9.5846e-002
2508	23.262	2.9091	0.	0.12775
2509	23.446	2.9091	0.	0.14554
2510	23.631	2.9091	0.	0.3337
2511	23.815	2.9091	0.	0.21111
2512	4.2512	2.7273	0.	-3.9671
2513	4.4358	2.7273	0.	-0.3952
2514	4.6204	2.7273	0.	-0.46108
2515	4.8049	2.7273	0.	-189.21
2516	4.9895	2.7273	0.	-344.54
2517	5.1741	2.7273	0.	-436.56
2518	5.3586	2.7273	0.	-483.19
2519	5.5432	2.7273	0.	-499.16
2520	5.7278	2.7273	0.	-495.23
2521	5.9123	2.7273	0.	-478.87
2522	6.0969	2.7273	0.	-455.16
2523	6.2815	2.7273	0.	-427.49
2524	6.466	2.7273	0.	-398.08
2525	6.6506	2.7273	0.	-368.4
2526	6.8352	2.7273	0.	-339.38
2527	7.0198	2.7273	0.	-311.58
2528	7.2043	2.7273	0.	-285.33
2529	7.3889	2.7273	0.	-260.8
2530	7.5735	2.7273	0.	-238.04
2531	7.758	2.7273	0.	-217.02
2532	7.9426	2.7273	0.	-197.7
2533	8.1272	2.7273	0.	-179.98
2534	8.3117	2.7273	0.	-163.76
2535	8.4963	2.7273	0.	-148.94
2536	8.6809	2.7273	0.	-135.39
2537	8.8654	2.7273	0.	-123.02
2538	9.05	2.7273	0.	-111.73
2539	9.2346	2.7273	0.	-101.41
2540	9.4191	2.7273	0.	-91.987
2541	9.6037	2.7273	0.	-83.371
2542	9.7883	2.7273	0.	-75.489
2543	9.9728	2.7273	0.	-68.275
2544	10.157	2.7273	0.	-61.666
2545	10.342	2.7273	0.	-55.608
2546	10.527	2.7273	0.	-50.051
2547	10.711	2.7273	0.	-44.948
2548	10.896	2.7273	0.	-40.258
2549	11.08	2.7273	0.	-35.945
2550	11.265	2.7273	0.	-31.976
2551	11.449	2.7273	0.	-28.318
2552	11.634	2.7273	0.	-24.946
2553	11.819	2.7273	0.	-21.833
2554	12.003	2.7273	0.	-18.957
2555	12.188	2.7273	0.	-16.297
2556	12.372	2.7273	0.	-13.834
2557	12.557	2.7273	0.	-11.55
2558	12.741	2.7273	0.	-9.4295
2559	12.926	2.7273	0.	-7.4578
2560	13.11	2.7273	0.	-5.6212
2561	13.295	2.7273	0.	-3.9072
2562	13.48	2.7273	0.	-2.3041
2563	13.664	2.7273	0.	-0.80166
2564	13.849	2.7273	0.	5.2016e-003
2565	14.033	2.7273	0.	6.4394e-003
2566	14.218	2.7273	0.	6.8358e-003
2567	14.402	2.7273	0.	7.114e-003
2568	14.587	2.7273	0.	7.3352e-003
2569	14.772	2.7273	0.	7.5689e-003
2570	14.956	2.7273	0.	7.8029e-003
2571	15.141	2.7273	0.	8.0294e-003
2572	15.325	2.7273	0.	8.2497e-003
2573	15.51	2.7273	0.	8.4813e-003
2574	15.694	2.7273	0.	8.736e-003
2575	15.879	2.7273	0.	8.9821e-003
2576	16.064	2.7273	0.	9.229e-003
2577	16.248	2.7273	0.	9.5027e-003
2578	16.433	2.7273	0.	9.7816e-003
2579	16.617	2.7273	0.	1.0057e-002
2580	16.802	2.7273	0.	1.0361e-002
2581	16.986	2.7273	0.	1.0687e-002
2582	17.171	2.7273	0.	1.1029e-002
2583	17.356	2.7273	0.	1.1385e-002
2584	17.54	2.7273	0.	1.1748e-002
2585	17.725	2.7273	0.	1.2149e-002
2586	17.909	2.7273	0.	1.258e-002
2587	18.094	2.7273	0.	1.3034e-002
2588	18.278	2.7273	0.	1.3511e-002
2589	18.463	2.7273	0.	1.4028e-002
2590	18.648	2.7273	0.	1.4594e-002
2591	18.832	2.7273	0.	1.519e-002
2592	19.017	2.7273	0.	1.5827e-002
2593	19.201	2.7273	0.	1.6529e-002
2594	19.386	2.7273	0.	1.7284e-002
2595	19.57	2.7273	0.	1.809e-002
2596	19.755	2.7273	0.	1.8987e-002
2597	19.94	2.7273	0.	1.9964e-002
2598	20.124	2.7273	0.	2.1032e-002
2599	20.309	2.7273	0.	2.2206e-002
2600	20.493	2.7273	0.	2.3503e-002
2601	20.678	2.7273	0.	2.4953e-002
2602	20.862	2.7273	0.	2.6565e-002
2603	21.047	2.7273	0.	2.8371e-002
2604	21.231	2.7273	0.	3.0421e-002
2605	21.416	2.7273	0.	3.2759e-002
2606	21.601	2.7273	0.	3.5448e-002
2607	21.785	2.7273	0.	3.8585e-002
2608	21.97	2.7273	0.	4.2297e-002
2609	22.154	2.7273	0.	4.6757e-002
2610	22.339	2.7273	0.	5.2214e-002
2611	22.523	2.7273	0.	5.9102e-002
2612	22.708	2.7273	0.	6.788e-002
2613	22.893	2.7273	0.	8.0223e-002
2614	23.077	2.7273	0.	9.5485e-002
2615	23.262	2.7273	0.	0.12735
2616	23.446	2.7273	0.	0.14508
2617	23.631	2.7273	0.	0.33303
2618	23.815	2.7273	0.	0.20969
2619	4.2512	2.5455	0.	5.5507
2620	4.4358	2.5455	0.	0.14136
2621	4.6204	2.5455	0.	-5.1543
2622	4.8049	2.5455	0.	-202.72
2623	4.9895	2.5455	0.	-340.78
2624	5.1741	2.5455	0.	-419.69
2625	5.3586	2.5455	0.	-458.64
2626	5.5432	2.5455	0.	-471.14
2627	5.7278	2.5455	0.	-466.51
2628	5.9123	2.5455	0.	-451.1
2629	6.0969	2.5455	0.	-429.23
2630	6.2815	2.5455	0.	-403.82
2631	6.466	2.5455	0.	-376.81
2632	6.6506	2.5455	0.	-349.5
2633	6.8352	2.5455	0.	-322.7
2634	7.0198	2.5455	0.	-296.94
2635	7.2043	2.5455	0.	-272.54
2636	7.3889	2.5455	0.	-249.64
2637	7.5735	2.5455	0.	-228.32
2638	7.758	2.5455	0.	-208.57
2639	7.9426	2.5455	0.	-190.35
2640	8.1272	2.5455	0.	-173.59
2641	8.3117	2.5455	0.	-158.2
2642	8.4963	2.5455	0.	-144.08
2643	8.6809	2.5455	0.	-131.15
2644	8.8654	2.5455	0.	-119.31
2645	9.05	2.5455	0.	-108.47
2646	9.2346	2.5455	0.	-98.552
2647	9.4191	2.5455	0.	-89.464
2648	9.6037	2.5455	0.	-81.14
2649	9.7883	2.5455	0.	-73.512
2650	9.9728	2.5455	0.	-66.517
2651	10.157	2.5455	0.	-60.099
2652	10.342	2.5455	0.	-54.207
2653	10.527	2.5455	0.	-48.795
2654	10.711	2.5455	0.	-43.819
2655	10.896	2.5455	0.	-39.242
2656	11.08	2.5455	0.	-35.028
2657	11.265	2.5455	0.	-31.146
2658	11.449	2.5455	0.	-27.566
2659	11.634	2.5455	0.	-24.263
2660	11.819	2.5455	0.	-21.212
2661	12.003	2.5455	0.	-18.392
2662	12.188	2.5455	0.	-15.782
2663	12.372	2.5455	0.	-13.364
2664	12.557	2.5455	0.	-11.121
2665	12.741	2.5455	0.	-9.0374
2666	12.926	2.5455	0.	-7.0995
2667	13.11	2.5455	0.	-5.2937
2668	13.295	2.5455	0.	-3.608
2669	13.48	2.5455	0.	-2.0313
2670	13.664	2.5455	0.	-0.55522
2671	13.849	2.5455	0.	3.5372e-003
2672	14.033	2.5455	0.	5.5706e-003
2673	14.218	2.5455	0.	6.2031e-003
2674	14.402	2.5455	0.	6.5892e-003
2675	14.587	2.5455	0.	6.8705e-003
2676	14.772	2.5455	0.	7.14e-003
2677	14.956	2.5455	0.	7.3961e-003
2678	15.141	2.5455	0.	7.6384e-003
2679	15.325	2.5455	0.	7.8695e-003
2680	15.51	2.5455	0.	8.1071e-003
2681	15.694	2.5455	0.	8.3685e-003
2682	15.879	2.5455	0.	8.6167e-003
2683	16.064	2.5455	0.	8.8631e-003
2684	16.248	2.5455	0.	9.1371e-003
2685	16.433	2.5455	0.	9.4163e-003
2686	16.617	2.5455	0.	9.6869e-003
2687	16.802	2.5455	0.	9.9925e-003
2688	16.986	2.5455	0.	1.0314e-002
2689	17.171	2.5455	0.	1.0653e-002
2690	17.356	2.5455	0.	1.1006e-002
2691	17.54	2.5455	0.	1.1365e-002
2692	17.725	2.5455	0.	1.1762e-002
2693	17.909	2.5455	0.	1.2187e-002
2694	18.094	2.5455	0.	1.2635e-002
2695	18.278	2.5455	0.	1.3108e-002
2696	18.463	2.5455	0.	1.3618e-002
2697	18.648	2.5455	0.	1.4176e-002
2698	18.832	2.5455	0.	1.4765e-002
2699	19.017	2.5455	0.	1.5395e-002
2700	19.201	2.5455	0.	1.609e-002
2701	19.386	2.5455	0.	1.6835e-002
2702	19.57	2.5455	0.	1.7636e-002
2703	19.755	2.5455	0.	1.8517e-002
2704	19.94	2.5455	0.	1.9486e-002
2705	20.124	2.5455	0.	2.0543e-002
2706	20.309	2.5455	0.	2.1708e-002
2707	20.493	2.5455	0.	2.2995e-002
2708	20.678	2.5455	0.	2.4436e-002
2709	20.862	2.5455	0.	2.6038e-002
2710	21.047	2.5455	0.	2.783e-002
2711	21.231	2.5455	0.	2.9873e-002
2712	21.416	2.5455	0.	3.2203e-002
2713	21.601	2.5455	0.	3.4882e-002
2714	21.785	2.5455	0.	3.8008e-002
2715	21.97	2.5455	0.	4.1712e-002
2716	22.154	2.5455	0.	4.6162e-002
2717	22.339	2.5455	0.	5.1608e-002
2718	22.523	2.5455	0.	5.8476e-002
2719	22.708	2.5455	0.	6.7232e-002
2720	22.893	2.5455	0.	7.9537e-002
2721	23.077	2.5455	0.	9.4748e-002
2722	23.262	2.5455	0.	0.12652
2723	23.446	2.5455	0.	0.14414
2724	23.631	2.5455	0.	0.33166
2725	23.815	2.5455	0.	0.2068
2726	4.2512	2.3636	0.	-22.592
2727	4.4358	2.3636	0.	-11.698
2728	4.6204	2.3636	0.	1.0199
2729	4.8049	2.3636	0.	-191.31
2730	4.9895	2.3636	0.	-311.51
2731	5.1741	2.3636	0.	-379.81
2732	5.3586	2.3636	0.	-413.93
2733	5.5432	2.3636	0.	-425.46
2734	5.7278	2.3636	0.	-422.21
2735	5.9123	2.3636	0.	-409.54
2736	6.0969	2.3636	0.	-391.09
2737	6.2815	2.3636	0.	-369.35
2738	6.466	2.3636	0.	-346.
2739	6.6506	2.3636	0.	-322.18
2740	6.8352	2.3636	0.	-298.63
2741	7.0198	2.3636	0.	-275.83
2742	7.2043	2.3636	0.	-254.08
2743	7.3889	2.3636	0.	-233.54
2744	7.5735	2.3636	0.	-214.29
2745	7.758	2.3636	0.	-196.36
2746	7.9426	2.3636	0.	-179.72
2747	8.1272	2.3636	0.	-164.33
2748	8.3117	2.3636	0.	-150.12
2749	8.4963	2.3636	0.	-137.03
2750	8.6809	2.3636	0.	-124.98
2751	8.8654	2.3636	0.	-113.91
2752	9.05	2.3636	0.	-103.72
2753	9.2346	2.3636	0.	-94.368
2754	9.4191	2.3636	0.	-85.77
2755	9.6037	2.3636	0.	-77.87
2756	9.7883	2.3636	0.	-70.608
2757	9.9728	2.3636	0.	-63.932
2758	10.157	2.3636	0.	-57.792
2759	10.342	2.3636	0.	-52.142
2760	10.527	2.3636	0.	-46.942
2761	10.711	2.3636	0.	-42.152
2762	10.896	2.3636	0.	-37.739
2763	11.08	2.3636	0.	-33.67
2764	11.265	2.3636	0.	-29.917
2765	11.449	2.3636	0.	-26.451
2766	11.634	2.3636	0.	-23.25
2767	11.819	2.3636	0.	-20.291
2768	12.003	2.3636	0.	-17.552
2769	12.188	2.3636	0.	-15.016
2770	12.372	2.3636	0.	-12.665
2771	12.557	2.3636	0.	-10.482
2772	12.741	2.3636	0.	-8.4537
2773	12.926	2.3636	0.	-6.5658
2774	13.11	2.3636	0.	-4.8059
2775	13.295	2.3636	0.	-3.1623
2776	13.48	2.3636	0.	-1.6249
2777	13.664	2.3636	0.	-0.20146
2778	13.849	2.3636	0.	2.217e-003
2779	14.033	2.3636	0.	4.5284e-003
2780	14.218	2.3636	0.	5.3687e-003
2781	14.402	2.3636	0.	5.8646e-003
2782	14.587	2.3636	0.	6.2106e-003
2783	14.772	2.3636	0.	6.5212e-003
2784	14.956	2.3636	0.	6.8057e-003
2785	15.141	2.3636	0.	7.0658e-003
2786	15.325	2.3636	0.	7.3086e-003
2787	15.51	2.3636	0.	7.5537e-003
2788	15.694	2.3636	0.	7.8195e-003
2789	15.879	2.3636	0.	8.0706e-003
2790	16.064	2.3636	0.	8.3182e-003
2791	16.248	2.3636	0.	8.5929e-003
2792	16.433	2.3636	0.	8.8687e-003
2793	16.617	2.3636	0.	9.1352e-003
2794	16.802	2.3636	0.	9.4384e-003
2795	16.986	2.3636	0.	9.7549e-003
2796	17.171	2.3636	0.	1.0087e-002
2797	17.356	2.3636	0.	1.0435e-002
2798	17.54	2.3636	0.	1.0784e-002
2799	17.725	2.3636	0.	1.1174e-002
2800	17.909	2.3636	0.	1.1592e-002
2801	18.094	2.3636	0.	1.203e-002
2802	18.278	2.3636	0.	1.2493e-002
2803	18.463	2.3636	0.	1.2993e-002
2804	18.648	2.3636	0.	1.3541e-002
2805	18.832	2.3636	0.	1.4119e-002
2806	19.017	2.3636	0.	1.4737e-002
2807	19.201	2.3636	0.	1.5417e-002
2808	19.386	2.3636	0.	1.6148e-002
2809	19.57	2.3636	0.	1.6932e-002
2810	19.755	2.3636	0.	1.7805e-002
2811	19.94	2.3636	0.	1.8755e-002
2812	20.124	2.3636	0.	1.9798e-002
2813	20.309	2.3636	0.	2.0941e-002
2814	20.493	2.3636	0.	2.2215e-002
2815	20.678	2.3636	0.	2.3635e-002
2816	20.862	2.3636	0.	2.5218e-002
2817	21.047	2.3636	0.	2.6996e-002
2818	21.231	2.3636	0.	2.9023e-002
2819	21.416	2.3636	0.	3.1335e-002
2820	21.601	2.3636	0.	3.3996e-002
2821	21.785	2.3636	0.	3.7114e-002
2822	21.97	2.3636	0.	4.0799e-002
2823	22.154	2.3636	0.	4.5234e-002
2824	22.339	2.3636	0.	5.0657e-002
2825	22.523	2.3636	0.	5.7498e-002
2826	22.708	2.3636	0.	6.6217e-002
2827	22.893	2.3636	0.	7.8466e-002
2828	23.077	2.3636	0.	9.3595e-002
2829	23.262	2.3636	0.	0.12523
2830	23.446	2.3636	0.	0.14266
2831	23.631	2.3636	0.	0.32954
2832	23.815	2.3636	0.	0.20238
2833	4.2512	2.1818	0.	-4.8706
2834	4.4358	2.1818	0.	45.546
2835	4.6204	2.1818	0.	-13.965
2836	4.8049	2.1818	0.	-113.33
2837	4.9895	2.1818	0.	-236.12
2838	5.1741	2.1818	0.	-306.96
2839	5.3586	2.1818	0.	-344.96
2840	5.5432	2.1818	0.	-361.
2841	5.7278	2.1818	0.	-362.76
2842	5.9123	2.1818	0.	-355.33
2843	6.0969	2.1818	0.	-342.15
2844	6.2815	2.1818	0.	-325.53
2845	6.466	2.1818	0.	-307.03
2846	6.6506	2.1818	0.	-287.72
2847	6.8352	2.1818	0.	-268.3
2848	7.0198	2.1818	0.	-249.23
2849	7.2043	2.1818	0.	-230.8
2850	7.3889	2.1818	0.	-213.21
2851	7.5735	2.1818	0.	-196.56
2852	7.758	2.1818	0.	-180.89
2853	7.9426	2.1818	0.	-166.23
2854	8.1272	2.1818	0.	-152.55
2855	8.3117	2.1818	0.	-139.83
2856	8.4963	2.1818	0.	-128.03
2857	8.6809	2.1818	0.	-117.1
2858	8.8654	2.1818	0.	-106.98
2859	9.05	2.1818	0.	-97.625
2860	9.2346	2.1818	0.	-88.985
2861	9.4191	2.1818	0.	-81.007
2862	9.6037	2.1818	0.	-73.644
2863	9.7883	2.1818	0.	-66.849
2864	9.9728	2.1818	0.	-60.579
2865	10.157	2.1818	0.	-54.794
2866	10.342	2.1818	0.	-49.454
2867	10.527	2.1818	0.	-44.526
2868	10.711	2.1818	0.	-39.976
2869	10.896	2.1818	0.	-35.774
2870	11.08	2.1818	0.	-31.893
2871	11.265	2.1818	0.	-28.306
2872	11.449	2.1818	0.	-24.989
2873	11.634	2.1818	0.	-21.92
2874	11.819	2.1818	0.	-19.079
2875	12.003	2.1818	0.	-16.448
2876	12.188	2.1818	0.	-14.008
2877	12.372	2.1818	0.	-11.744
2878	12.557	2.1818	0.	-9.6402
2879	12.741	2.1818	0.	-7.6837
2880	12.926	2.1818	0.	-5.8614
2881	13.11	2.1818	0.	-4.1617
2882	13.295	2.1818	0.	-2.5736
2883	13.48	2.1818	0.	-1.0893
2884	13.664	2.1818	0.	-1.7425e-002
2885	13.849	2.1818	0.	1.2704e-003
2886	14.033	2.1818	0.	3.4676e-003
2887	14.218	2.1818	0.	4.4217e-003
2888	14.402	2.1818	0.	4.9999e-003
2889	14.587	2.1818	0.	5.3993e-003
2890	14.772	2.1818	0.	5.7466e-003
2891	14.956	2.1818	0.	6.0545e-003
2892	15.141	2.1818	0.	6.3301e-003
2893	15.325	2.1818	0.	6.5842e-003
2894	15.51	2.1818	0.	6.8355e-003
2895	15.694	2.1818	0.	7.1036e-003
2896	15.879	2.1818	0.	7.3542e-003
2897	16.064	2.1818	0.	7.5989e-003
2898	16.248	2.1818	0.	7.8702e-003
2899	16.433	2.1818	0.	8.1408e-003
2900	16.617	2.1818	0.	8.4046e-003
2901	16.802	2.1818	0.	8.6964e-003
2902	16.986	2.1818	0.	9.005e-003
2903	17.171	2.1818	0.	9.328e-003
2904	17.356	2.1818	0.	9.664e-003
2905	17.54	2.1818	0.	1.0005e-002
2906	17.725	2.1818	0.	1.0384e-002
2907	17.909	2.1818	0.	1.0787e-002
2908	18.094	2.1818	0.	1.1213e-002
2909	18.278	2.1818	0.	1.1661e-002
2910	18.463	2.1818	0.	1.2145e-002
2911	18.648	2.1818	0.	1.2679e-002
2912	18.832	2.1818	0.	1.3239e-002
2913	19.017	2.1818	0.	1.3838e-002
2914	19.201	2.1818	0.	1.45e-002
2915	19.386	2.1818	0.	1.5211e-002
2916	19.57	2.1818	0.	1.5975e-002
2917	19.755	2.1818	0.	1.682e-002
2918	19.94	2.1818	0.	1.7751e-002
2919	20.124	2.1818	0.	1.8765e-002
2920	20.309	2.1818	0.	1.9889e-002
2921	20.493	2.1818	0.	2.1132e-002
2922	20.678	2.1818	0.	2.2528e-002
2923	20.862	2.1818	0.	2.4084e-002
2924	21.047	2.1818	0.	2.584e-002
2925	21.231	2.1818	0.	2.7835e-002
2926	21.416	2.1818	0.	3.0123e-002
2927	21.601	2.1818	0.	3.2761e-002
2928	21.785	2.1818	0.	3.5853e-002
2929	21.97	2.1818	0.	3.9512e-002
2930	22.154	2.1818	0.	4.3919e-002
2931	22.339	2.1818	0.	4.9314e-002
2932	22.523	2.1818	0.	5.6117e-002
2933	22.708	2.1818	0.	6.4781e-002
2934	22.893	2.1818	0.	7.6954e-002
2935	23.077	2.1818	0.	9.197e-002
2936	23.262	2.1818	0.	0.12342
2937	23.446	2.1818	0.	0.1406
2938	23.631	2.1818	0.	0.32657
2939	23.815	2.1818	0.	0.19631
2940	4.2512	2.	0.	-723.76
2941	4.4358	2.	0.	95.653
2942	4.6204	2.	0.	-22.477
2943	4.8049	2.	0.	-14.148
2944	4.9895	2.	0.	-111.87
2945	5.1741	2.	0.	-201.72
2946	5.3586	2.	0.	-253.74
2947	5.5432	2.	0.	-280.36
2948	5.7278	2.	0.	-290.85
2949	5.9123	2.	0.	-291.06
2950	6.0969	2.	0.	-284.79
2951	6.2815	2.	0.	-274.51
2952	6.466	2.	0.	-261.83
2953	6.6506	2.	0.	-247.81
2954	6.8352	2.	0.	-233.16
2955	7.0198	2.	0.	-218.38
2956	7.2043	2.	0.	-203.78
2957	7.3889	2.	0.	-189.57
2958	7.5735	2.	0.	-175.89
2959	7.758	2.	0.	-162.82
2960	7.9426	2.	0.	-150.43
2961	8.1272	2.	0.	-138.73
2962	8.3117	2.	0.	-127.73
2963	8.4963	2.	0.	-117.41
2964	8.6809	2.	0.	-107.76
2965	8.8654	2.	0.	-98.752
2966	9.05	2.	0.	-90.363
2967	9.2346	2.	0.	-82.558
2968	9.4191	2.	0.	-75.305
2969	9.6037	2.	0.	-68.572
2970	9.7883	2.	0.	-62.326
2971	9.9728	2.	0.	-56.535
2972	10.157	2.	0.	-51.168
2973	10.342	2.	0.	-46.197
2974	10.527	2.	0.	-41.592
2975	10.711	2.	0.	-37.328
2976	10.896	2.	0.	-33.38
2977	11.08	2.	0.	-29.723
2978	11.265	2.	0.	-26.335
2979	11.449	2.	0.	-23.197
2980	11.634	2.	0.	-20.289
2981	11.819	2.	0.	-17.592
2982	12.003	2.	0.	-15.09
2983	12.188	2.	0.	-12.768
2984	12.372	2.	0.	-10.61
2985	12.557	2.	0.	-8.6027
2986	12.741	2.	0.	-6.7341
2987	12.926	2.	0.	-4.9923
2988	13.11	2.	0.	-3.3664
2989	13.295	2.	0.	-1.8472
2990	13.48	2.	0.	-0.43955
2991	13.664	2.	0.	-6.3215e-003
2992	13.849	2.	0.	5.793e-004
2993	14.033	2.	0.	2.4735e-003
2994	14.218	2.	0.	3.4374e-003
2995	14.402	2.	0.	4.0504e-003
2996	14.587	2.	0.	4.4788e-003
2997	14.772	2.	0.	4.8463e-003
2998	14.956	2.	0.	5.168e-003
2999	15.141	2.	0.	5.4513e-003
3000	15.325	2.	0.	5.7088e-003
3001	15.51	2.	0.	5.9597e-003
3002	15.694	2.	0.	6.2256e-003
3003	15.879	2.	0.	6.4707e-003
3004	16.064	2.	0.	6.7105e-003
3005	16.248	2.	0.	6.9736e-003
3006	16.433	2.	0.	7.2357e-003
3007	16.617	2.	0.	7.4866e-003
3008	16.802	2.	0.	7.769e-003
3009	16.986	2.	0.	8.0641e-003
3010	17.171	2.	0.	8.3734e-003
3011	17.356	2.	0.	8.6954e-003
3012	17.54	2.	0.	9.0206e-003
3013	17.725	2.	0.	9.3825e-003
3014	17.909	2.	0.	9.7673e-003
3015	18.094	2.	0.	1.0172e-002
3016	18.278	2.	0.	1.0602e-002
3017	18.463	2.	0.	1.1064e-002
3018	18.648	2.	0.	1.1574e-002
3019	18.832	2.	0.	1.2108e-002
3020	19.017	2.	0.	1.2682e-002
3021	19.201	2.	0.	1.3316e-002
3022	19.386	2.	0.	1.3998e-002
3023	19.57	2.	0.	1.4736e-002
3024	19.755	2.	0.	1.5549e-002
3025	19.94	2.	0.	1.6444e-002
3026	20.124	2.	0.	1.7426e-002
3027	20.309	2.	0.	1.8511e-002
3028	20.493	2.	0.	1.9719e-002
3029	20.678	2.	0.	2.1076e-002
3030	20.862	2.	0.	2.2593e-002
3031	21.047	2.	0.	2.4307e-002
3032	21.231	2.	0.	2.6266e-002
3033	21.416	2.	0.	2.851e-002
3034	21.601	2.	0.	3.111e-002
3035	21.785	2.	0.	3.4158e-002
3036	21.97	2.	0.	3.7786e-002
3037	22.154	2.	0.	4.2147e-002
3038	22.339	2.	0.	4.7499e-002
3039	22.523	2.	0.	5.4249e-002
3040	22.708	2.	0.	6.284e-002
3041	22.893	2.	0.	7.491e-002
3042	23.077	2.	0.	8.9785e-002
3043	23.262	2.	0.	0.12099
3044	23.446	2.	0.	0.13783
3045	23.631	2.	0.	0.32263
3046	23.815	2.	0.	0.18839
3047	4.2512	1.8182	0.	-189.67
3048	4.4358	1.8182	0.	11.713
3049	4.6204	1.8182	0.	-10.137
3050	4.8049	1.8182	0.	-6.8474
3051	4.9895	1.8182	0.	-17.206
3052	5.1741	1.8182	0.	-82.45
3053	5.3586	1.8182	0.	-150.54
3054	5.5432	1.8182	0.	-190.56
3055	5.7278	1.8182	0.	-211.68
3056	5.9123	1.8182	0.	-220.82
3057	6.0969	1.8182	0.	-222.38
3058	6.2815	1.8182	0.	-219.1
3059	6.466	1.8182	0.	-212.74
3060	6.6506	1.8182	0.	-204.43
3061	6.8352	1.8182	0.	-194.93
3062	7.0198	1.8182	0.	-184.75
3063	7.2043	1.8182	0.	-174.24
3064	7.3889	1.8182	0.	-163.65
3065	7.5735	1.8182	0.	-153.16
3066	7.758	1.8182	0.	-142.9
3067	7.9426	1.8182	0.	-132.95
3068	8.1272	1.8182	0.	-123.38
3069	8.3117	1.8182	0.	-114.23
3070	8.4963	1.8182	0.	-105.53
3071	8.6809	1.8182	0.	-97.275
3072	8.8654	1.8182	0.	-89.485
3073	9.05	1.8182	0.	-82.152
3074	9.2346	1.8182	0.	-75.266
3075	9.4191	1.8182	0.	-68.813
3076	9.6037	1.8182	0.	-62.778
3077	9.7883	1.8182	0.	-57.142
3078	9.9728	1.8182	0.	-51.885
3079	10.157	1.8182	0.	-46.989
3080	10.342	1.8182	0.	-42.431
3081	10.527	1.8182	0.	-38.192
3082	10.711	1.8182	0.	-34.252
3083	10.896	1.8182	0.	-30.591
3084	11.08	1.8182	0.	-27.191
3085	11.265	1.8182	0.	-24.033
3086	11.449	1.8182	0.	-21.1
3087	11.634	1.8182	0.	-18.377
3088	11.819	1.8182	0.	-15.846
3089	12.003	1.8182	0.	-13.495
3090	12.188	1.8182	0.	-11.308
3091	12.372	1.8182	0.	-9.2735
3092	12.557	1.8182	0.	-7.3791
3093	12.741	1.8182	0.	-5.6133
3094	12.926	1.8182	0.	-3.9656
3095	13.11	1.8182	0.	-2.4268
3096	13.295	1.8182	0.	-0.99226
3097	13.48	1.8182	0.	-3.0456e-002
3098	13.664	1.8182	0.	-3.7019e-003
3099	13.849	1.8182	0.	4.5454e-005
3100	14.033	1.8182	0.	1.5744e-003
3101	14.218	1.8182	0.	2.4631e-003
3102	14.402	1.8182	0.	3.0593e-003
3103	14.587	1.8182	0.	3.485e-003
3104	14.772	1.8182	0.	3.85e-003
3105	14.956	1.8182	0.	4.17e-003
3106	15.141	1.8182	0.	4.4492e-003
3107	15.325	1.8182	0.	4.7009e-003
3108	15.51	1.8182	0.	4.9435e-003
3109	15.694	1.8182	0.	5.1997e-003
3110	15.879	1.8182	0.	5.4339e-003
3111	16.064	1.8182	0.	5.661e-003
3112	16.248	1.8182	0.	5.9089e-003
3113	16.433	1.8182	0.	6.1543e-003
3114	16.617	1.8182	0.	6.3894e-003
3115	16.802	1.8182	0.	6.6528e-003
3116	16.986	1.8182	0.	6.9299e-003
3117	17.171	1.8182	0.	7.219e-003
3118	17.356	1.8182	0.	7.5196e-003
3119	17.54	1.8182	0.	7.8219e-003
3120	17.725	1.8182	0.	8.1575e-003
3121	17.909	1.8182	0.	8.5202e-003
3122	18.094	1.8182	0.	8.8984e-003
3123	18.278	1.8182	0.	9.2987e-003
3124	18.463	1.8182	0.	9.7318e-003
3125	18.648	1.8182	0.	1.0208e-002
3126	18.832	1.8182	0.	1.0712e-002
3127	19.017	1.8182	0.	1.1252e-002
3128	19.201	1.8182	0.	1.1847e-002
3129	19.386	1.8182	0.	1.249e-002
3130	19.57	1.8182	0.	1.3185e-002
3131	19.755	1.8182	0.	1.3953e-002
3132	19.94	1.8182	0.	1.4804e-002
3133	20.124	1.8182	0.	1.5737e-002
3134	20.309	1.8182	0.	1.677e-002
3135	20.493	1.8182	0.	1.7924e-002
3136	20.678	1.8182	0.	1.9227e-002
3137	20.862	1.8182	0.	2.0686e-002
3138	21.047	1.8182	0.	2.2342e-002
3139	21.231	1.8182	0.	2.424e-002
3140	21.416	1.8182	0.	2.6426e-002
3141	21.601	1.8182	0.	2.8963e-002
3142	21.785	1.8182	0.	3.1955e-002
3143	21.97	1.8182	0.	3.5516e-002
3144	22.154	1.8182	0.	3.982e-002
3145	22.339	1.8182	0.	4.5102e-002
3146	22.523	1.8182	0.	5.1775e-002
3147	22.708	1.8182	0.	6.0272e-002
3148	22.893	1.8182	0.	7.221e-002
3149	23.077	1.8182	0.	8.6894e-002
3150	23.262	1.8182	0.	0.11779
3151	23.446	1.8182	0.	0.1342
3152	23.631	1.8182	0.	0.3175
3153	23.815	1.8182	0.	0.17834
3154	4.2512	1.6364	0.	14.724
3155	4.4358	1.6364	0.	2.9539
3156	4.6204	1.6364	0.	-14.491
3157	4.8049	1.6364	0.	-3.4853
3158	4.9895	1.6364	0.	-6.9155
3159	5.1741	1.6364	0.	-13.497
3160	5.3586	1.6364	0.	-53.941
3161	5.5432	1.6364	0.	-101.82
3162	5.7278	1.6364	0.	-132.19
3163	5.9123	1.6364	0.	-149.73
3164	6.0969	1.6364	0.	-158.87
3165	6.2815	1.6364	0.	-162.5
3166	6.466	1.6364	0.	-162.42
3167	6.6506	1.6364	0.	-159.82
3168	6.8352	1.6364	0.	-155.47
3169	7.0198	1.6364	0.	-149.91
3170	7.2043	1.6364	0.	-143.53
3171	7.3889	1.6364	0.	-136.6
3172	7.5735	1.6364	0.	-129.34
3173	7.758	1.6364	0.	-121.92
3174	7.9426	1.6364	0.	-114.47
3175	8.1272	1.6364	0.	-107.08
3176	8.3117	1.6364	0.	-99.83
3177	8.4963	1.6364	0.	-92.784
3178	8.6809	1.6364	0.	-85.982
3179	8.8654	1.6364	0.	-79.455
3180	9.05	1.6364	0.	-73.224
3181	9.2346	1.6364	0.	-67.301
3182	9.4191	1.6364	0.	-61.692
3183	9.6037	1.6364	0.	-56.396
3184	9.7883	1.6364	0.	-51.41
3185	9.9728	1.6364	0.	-46.726
3186	10.157	1.6364	0.	-42.334
3187	10.342	1.6364	0.	-38.224
3188	10.527	1.6364	0.	-34.382
3189	10.711	1.6364	0.	-30.796
3190	10.896	1.6364	0.	-27.45
3191	11.08	1.6364	0.	-24.332
3192	11.265	1.6364	0.	-21.428
3193	11.449	1.6364	0.	-18.723
3194	11.634	1.6364	0.	-16.205
3195	11.819	1.6364	0.	-13.86
3196	12.003	1.6364	0.	-11.677
3197	12.188	1.6364	0.	-9.643
3198	12.372	1.6364	0.	-7.7477
3199	12.557	1.6364	0.	-5.9803
3200	12.741	1.6364	0.	-4.3307
3201	12.926	1.6364	0.	-2.7902
3202	13.11	1.6364	0.	-1.353
3203	13.295	1.6364	0.	-0.12346
3204	13.48	1.6364	0.	-9.2247e-003
3205	13.664	1.6364	0.	-2.664e-003
3206	13.849	1.6364	0.	-3.9897e-004
3207	14.033	1.6364	0.	7.6988e-004
3208	14.218	1.6364	0.	1.5273e-003
3209	14.402	1.6364	0.	2.0614e-003
3210	14.587	1.6364	0.	2.4505e-003
3211	14.772	1.6364	0.	2.7911e-003
3212	14.956	1.6364	0.	3.0888e-003
3213	15.141	1.6364	0.	3.3489e-003
3214	15.325	1.6364	0.	3.5805e-003
3215	15.51	1.6364	0.	3.8036e-003
3216	15.694	1.6364	0.	4.0416e-003
3217	15.879	1.6364	0.	4.2527e-003
3218	16.064	1.6364	0.	4.4585e-003
3219	16.248	1.6364	0.	4.6842e-003
3220	16.433	1.6364	0.	4.9062e-003
3221	16.617	1.6364	0.	5.1161e-003
3222	16.802	1.6364	0.	5.3551e-003
3223	16.986	1.6364	0.	5.6031e-003
3224	17.171	1.6364	0.	5.8637e-003
3225	17.356	1.6364	0.	6.1349e-003
3226	17.54	1.6364	0.	6.4047e-003
3227	17.725	1.6364	0.	6.7083e-003
3228	17.909	1.6364	0.	7.0354e-003
3229	18.094	1.6364	0.	7.3775e-003
3230	18.278	1.6364	0.	7.7402e-003
3231	18.463	1.6364	0.	8.1314e-003
3232	18.648	1.6364	0.	8.5688e-003
3233	18.832	1.6364	0.	9.0237e-003
3234	19.017	1.6364	0.	9.5162e-003
3235	19.201	1.6364	0.	1.0062e-002
3236	19.386	1.6364	0.	1.0651e-002
3237	19.57	1.6364	0.	1.129e-002
3238	19.755	1.6364	0.	1.1998e-002
3239	19.94	1.6364	0.	1.2786e-002
3240	20.124	1.6364	0.	1.3651e-002
3241	20.309	1.6364	0.	1.4614e-002
3242	20.493	1.6364	0.	1.5695e-002
3243	20.678	1.6364	0.	1.6918e-002
3244	20.862	1.6364	0.	1.8297e-002
3245	21.047	1.6364	0.	1.987e-002
3246	21.231	1.6364	0.	2.1676e-002
3247	21.416	1.6364	0.	2.3773e-002
3248	21.601	1.6364	0.	2.6216e-002
3249	21.785	1.6364	0.	2.9112e-002
3250	21.97	1.6364	0.	3.2578e-002
3251	22.154	1.6364	0.	3.6783e-002
3252	22.339	1.6364	0.	4.1965e-002
3253	22.523	1.6364	0.	4.8524e-002
3254	22.708	1.6364	0.	5.6889e-002
3255	22.893	1.6364	0.	6.8656e-002
3256	23.077	1.6364	0.	8.3104e-002
3257	23.262	1.6364	0.	0.1136
3258	23.446	1.6364	0.	0.12947
3259	23.631	1.6364	0.	0.3109
3260	23.815	1.6364	0.	0.16577
3261	4.2512	1.4545	0.	-31.932
3262	4.4358	1.4545	0.	-2.1905
3263	4.6204	1.4545	0.	-4.7487
3264	4.8049	1.4545	0.	-4.2684
3265	4.9895	1.4545	0.	-4.2666
3266	5.1741	1.4545	0.	-5.2543
3267	5.3586	1.4545	0.	-9.4538
3268	5.5432	1.4545	0.	-28.972
3269	5.7278	1.4545	0.	-60.041
3270	5.9123	1.4545	0.	-83.131
3271	6.0969	1.4545	0.	-98.378
3272	6.2815	1.4545	0.	-107.98
3273	6.466	1.4545	0.	-113.57
3274	6.6506	1.4545	0.	-116.21
3275	6.8352	1.4545	0.	-116.67
3276	7.0198	1.4545	0.	-115.47
3277	7.2043	1.4545	0.	-112.99
3278	7.3889	1.4545	0.	-109.55
3279	7.5735	1.4545	0.	-105.39
3280	7.758	1.4545	0.	-100.71
3281	7.9426	1.4545	0.	-95.662
3282	8.1272	1.4545	0.	-90.391
3283	8.3117	1.4545	0.	-85.003
3284	8.4963	1.4545	0.	-79.588
3285	8.6809	1.4545	0.	-74.216
3286	8.8654	1.4545	0.	-68.945
3287	9.05	1.4545	0.	-63.817
3288	9.2346	1.4545	0.	-58.864
3289	9.4191	1.4545	0.	-54.108
3290	9.6037	1.4545	0.	-49.566
3291	9.7883	1.4545	0.	-45.247
3292	9.9728	1.4545	0.	-41.154
3293	10.157	1.4545	0.	-37.288
3294	10.342	1.4545	0.	-33.646
3295	10.527	1.4545	0.	-30.222
3296	10.711	1.4545	0.	-27.01
3297	10.896	1.4545	0.	-24.
3298	11.08	1.4545	0.	-21.184
3299	11.265	1.4545	0.	-18.551
3300	11.449	1.4545	0.	-16.093
3301	11.634	1.4545	0.	-13.797
3302	11.819	1.4545	0.	-11.654
3303	12.003	1.4545	0.	-9.6546
3304	12.188	1.4545	0.	-7.7882
3305	12.372	1.4545	0.	-6.0456
3306	12.557	1.4545	0.	-4.4181
3307	12.741	1.4545	0.	-2.8974
3308	12.926	1.4545	0.	-1.4784
3309	13.11	1.4545	0.	-0.21842
3310	13.295	1.4545	0.	-1.3922e-002
3311	13.48	1.4545	0.	-5.0433e-003
3312	13.664	1.4545	0.	-2.1959e-003
3313	13.849	1.4545	0.	-7.941e-004
3314	14.033	1.4545	0.	4.7005e-005
3315	14.218	1.4545	0.	6.4147e-004
3316	14.402	1.4545	0.	1.078e-003
3317	14.587	1.4545	0.	1.4035e-003
3318	14.772	1.4545	0.	1.6924e-003
3319	14.956	1.4545	0.	1.9489e-003
3320	15.141	1.4545	0.	2.1704e-003
3321	15.325	1.4545	0.	2.3679e-003
3322	15.51	1.4545	0.	2.558e-003
3323	15.694	1.4545	0.	2.7628e-003
3324	15.879	1.4545	0.	2.9419e-003
3325	16.064	1.4545	0.	3.1146e-003
3326	16.248	1.4545	0.	3.3073e-003
3327	16.433	1.4545	0.	3.4958e-003
3328	16.617	1.4545	0.	3.6701e-003
3329	16.802	1.4545	0.	3.8723e-003
3330	16.986	1.4545	0.	4.0848e-003
3331	17.171	1.4545	0.	4.3058e-003
3332	17.356	1.4545	0.	4.5368e-003
3333	17.54	1.4545	0.	4.7641e-003
3334	17.725	1.4545	0.	5.0248e-003
3335	17.909	1.4545	0.	5.3023e-003
3336	18.094	1.4545	0.	5.5985e-003
3337	18.278	1.4545	0.	5.9067e-003
3338	18.463	1.4545	0.	6.246e-003
3339	18.648	1.4545	0.	6.622e-003
3340	18.832	1.4545	0.	7.0231e-003
3341	19.017	1.4545	0.	7.4467e-003
3342	19.201	1.4545	0.	7.9259e-003
3343	19.386	1.4545	0.	8.4437e-003
3344	19.57	1.4545	0.	9.0055e-003
3345	19.755	1.4545	0.	9.633e-003
3346	19.94	1.4545	0.	1.0331e-002
3347	20.124	1.4545	0.	1.1108e-002
3348	20.309	1.4545	0.	1.1972e-002
3349	20.493	1.4545	0.	1.295e-002
3350	20.678	1.4545	0.	1.4064e-002
3351	20.862	1.4545	0.	1.5326e-002
3352	21.047	1.4545	0.	1.6766e-002
3353	21.231	1.4545	0.	1.8453e-002
3354	21.416	1.4545	0.	2.0416e-002
3355	21.601	1.4545	0.	2.2717e-002
3356	21.785	1.4545	0.	2.5468e-002
3357	21.97	1.4545	0.	2.8782e-002
3358	22.154	1.4545	0.	3.2833e-002
3359	22.339	1.4545	0.	3.7851e-002
3360	22.523	1.4545	0.	4.4241e-002
3361	22.708	1.4545	0.	5.2417e-002
3362	22.893	1.4545	0.	6.3947e-002
3363	23.077	1.4545	0.	7.8089e-002
3364	23.262	1.4545	0.	0.10808
3365	23.446	1.4545	0.	0.12328
3366	23.631	1.4545	0.	0.30233
3367	23.815	1.4545	0.	0.15004
3368	4.2512	1.2727	0.	-9.9418
3369	4.4358	1.2727	0.	-1.0157
3370	4.6204	1.2727	0.	-4.2156
3371	4.8049	1.2727	0.	-3.3143
3372	4.9895	1.2727	0.	-3.1749
3373	5.1741	1.2727	0.	-3.2974
3374	5.3586	1.2727	0.	-3.8756
3375	5.5432	1.2727	0.	-5.487
3376	5.7278	1.2727	0.	-11.244
3377	5.9123	1.2727	0.	-27.296
3378	6.0969	1.2727	0.	-44.921
3379	6.2815	1.2727	0.	-58.694
3380	6.466	1.2727	0.	-68.755
3381	6.6506	1.2727	0.	-75.786
3382	6.8352	1.2727	0.	-80.37
3383	7.0198	1.2727	0.	-82.968
3384	7.2043	1.2727	0.	-83.95
3385	7.3889	1.2727	0.	-83.624
3386	7.5735	1.2727	0.	-82.249
3387	7.758	1.2727	0.	-80.045
3388	7.9426	1.2727	0.	-77.202
3389	8.1272	1.2727	0.	-73.881
3390	8.3117	1.2727	0.	-70.219
3391	8.4963	1.2727	0.	-66.33
3392	8.6809	1.2727	0.	-62.308
3393	8.8654	1.2727	0.	-58.232
3394	9.05	1.2727	0.	-54.161
3395	9.2346	1.2727	0.	-50.147
3396	9.4191	1.2727	0.	-46.226
3397	9.6037	1.2727	0.	-42.427
3398	9.7883	1.2727	0.	-38.77
3399	9.9728	1.2727	0.	-35.269
3400	10.157	1.2727	0.	-31.934
3401	10.342	1.2727	0.	-28.767
3402	10.527	1.2727	0.	-25.772
3403	10.711	1.2727	0.	-22.945
3404	10.896	1.2727	0.	-20.284
3405	11.08	1.2727	0.	-17.783
3406	11.265	1.2727	0.	-15.437
3407	11.449	1.2727	0.	-13.237
3408	11.634	1.2727	0.	-11.178
3409	11.819	1.2727	0.	-9.2503
3410	12.003	1.2727	0.	-7.447
3411	12.188	1.2727	0.	-5.7601
3412	12.372	1.2727	0.	-4.1822
3413	12.557	1.2727	0.	-2.7065
3414	12.741	1.2727	0.	-1.3293
3415	12.926	1.2727	0.	-0.15151
3416	13.11	1.2727	0.	-1.4535e-002
3417	13.295	1.2727	0.	-6.2052e-003
3418	13.48	1.2727	0.	-3.417e-003
3419	13.664	1.2727	0.	-2.001e-003
3420	13.849	1.2727	0.	-1.1664e-003
3421	14.033	1.2727	0.	-6.1466e-004
3422	14.218	1.2727	0.	-1.9435e-004
3423	14.402	1.2727	0.	1.2432e-004
3424	14.587	1.2727	0.	3.5752e-004
3425	14.772	1.2727	0.	5.7539e-004
3426	14.956	1.2727	0.	7.6903e-004
3427	15.141	1.2727	0.	9.3702e-004
3428	15.325	1.2727	0.	1.0841e-003
3429	15.51	1.2727	0.	1.2264e-003
3430	15.694	1.2727	0.	1.3848e-003
3431	15.879	1.2727	0.	1.5203e-003
3432	16.064	1.2727	0.	1.6462e-003
3433	16.248	1.2727	0.	1.7945e-003
3434	16.433	1.2727	0.	1.9363e-003
3435	16.617	1.2727	0.	2.0655e-003
3436	16.802	1.2727	0.	2.2208e-003
3437	16.986	1.2727	0.	2.3827e-003
3438	17.171	1.2727	0.	2.5534e-003
3439	17.356	1.2727	0.	2.7318e-003
3440	17.54	1.2727	0.	2.9034e-003
3441	17.725	1.2727	0.	3.1055e-003
3442	17.909	1.2727	0.	3.3243e-003
3443	18.094	1.2727	0.	3.5551e-003
3444	18.278	1.2727	0.	3.7958e-003
3445	18.463	1.2727	0.	4.0657e-003
3446	18.648	1.2727	0.	4.3662e-003
3447	18.832	1.2727	0.	4.6819e-003
3448	19.017	1.2727	0.	5.026e-003
3449	19.201	1.2727	0.	5.4112e-003
3450	19.386	1.2727	0.	5.8342e-003
3451	19.57	1.2727	0.	6.2907e-003
3452	19.755	1.2727	0.	6.8127e-003
3453	19.94	1.2727	0.	7.3953e-003
3454	20.124	1.2727	0.	8.0472e-003
3455	20.309	1.2727	0.	8.7787e-003
3456	20.493	1.2727	0.	9.6145e-003
3457	20.678	1.2727	0.	1.0576e-002
3458	20.862	1.2727	0.	1.1676e-002
3459	21.047	1.2727	0.	1.2946e-002
3460	21.231	1.2727	0.	1.4444e-002
3461	21.416	1.2727	0.	1.6206e-002
3462	21.601	1.2727	0.	1.8299e-002
3463	21.785	1.2727	0.	2.0826e-002
3464	21.97	1.2727	0.	2.3909e-002
3465	22.154	1.2727	0.	2.7713e-002
3466	22.339	1.2727	0.	3.2477e-002
3467	22.523	1.2727	0.	3.8595e-002
3468	22.708	1.2727	0.	4.6479e-002
3469	22.893	1.2727	0.	5.7677e-002
3470	23.077	1.2727	0.	7.1401e-002
3471	23.262	1.2727	0.	0.10075
3472	23.446	1.2727	0.	0.1151
3473	23.631	1.2727	0.	0.29116
3474	23.815	1.2727	0.	0.1303
3475	4.2512	1.0909	0.	-11.824
3476	4.4358	1.0909	0.	-0.57539
3477	4.6204	1.0909	0.	-3.6777
3478	4.8049	1.0909	0.	-2.6509
3479	4.9895	1.0909	0.	-2.5911
3480	5.1741	1.0909	0.	-2.3887
3481	5.3586	1.0909	0.	-2.3453
3482	5.5432	1.0909	0.	-2.4331
3483	5.7278	1.0909	0.	-2.7748
3484	5.9123	1.0909	0.	-3.7969
3485	6.0969	1.0909	0.	-7.6192
3486	6.2815	1.0909	0.	-18.266
3487	6.466	1.0909	0.	-30.43
3488	6.6506	1.0909	0.	-40.503
3489	6.8352	1.0909	0.	-48.222
3490	7.0198	1.0909	0.	-53.824
3491	7.2043	1.0909	0.	-57.599
3492	7.3889	1.0909	0.	-59.831
3493	7.5735	1.0909	0.	-60.775
3494	7.758	1.0909	0.	-60.663
3495	7.9426	1.0909	0.	-59.699
3496	8.1272	1.0909	0.	-58.064
3497	8.3117	1.0909	0.	-55.911
3498	8.4963	1.0909	0.	-53.373
3499	8.6809	1.0909	0.	-50.562
3500	8.8654	1.0909	0.	-47.57
3501	9.05	1.0909	0.	-44.473
3502	9.2346	1.0909	0.	-41.332
3503	9.4191	1.0909	0.	-38.197
3504	9.6037	1.0909	0.	-35.105
3505	9.7883	1.0909	0.	-32.087
3506	9.9728	1.0909	0.	-29.163
3507	10.157	1.0909	0.	-26.349
3508	10.342	1.0909	0.	-23.655
3509	10.527	1.0909	0.	-21.089
3510	10.711	1.0909	0.	-18.652
3511	10.896	1.0909	0.	-16.345
3512	11.08	1.0909	0.	-14.168
3513	11.265	1.0909	0.	-12.116
3514	11.449	1.0909	0.	-10.186
3515	11.634	1.0909	0.	-8.3722
3516	11.819	1.0909	0.	-6.6699
3517	12.003	1.0909	0.	-5.0731
3518	12.188	1.0909	0.	-3.5761
3519	12.372	1.0909	0.	-2.1739
3520	12.557	1.0909	0.	-0.86897
3521	12.741	1.0909	0.	-4.4627e-002
3522	12.926	1.0909	0.	-1.1038e-002
3523	13.11	1.0909	0.	-5.7864e-003
3524	13.295	1.0909	0.	-3.7329e-003
3525	13.48	1.0909	0.	-2.6537e-003
3526	13.664	1.0909	0.	-1.9716e-003
3527	13.849	1.0909	0.	-1.5358e-003
3528	14.033	1.0909	0.	-1.2372e-003
3529	14.218	1.0909	0.	-9.9248e-004
3530	14.402	1.0909	0.	-8.0833e-004
3531	14.587	1.0909	0.	-6.8192e-004
3532	14.772	1.0909	0.	-5.5583e-004
3533	14.956	1.0909	0.	-4.4022e-004
3534	15.141	1.0909	0.	-3.4635e-004
3535	15.325	1.0909	0.	-2.6603e-004
3536	15.51	1.0909	0.	-1.8847e-004
3537	15.694	1.0909	0.	-9.095e-005
3538	15.879	1.0909	0.	-1.5484e-005
3539	16.064	1.0909	0.	5.2774e-005
3540	16.248	1.0909	0.	1.4036e-004
3541	16.433	1.0909	0.	2.2435e-004
3542	16.617	1.0909	0.	2.904e-004
3543	16.802	1.0909	0.	3.8204e-004
3544	16.986	1.0909	0.	4.8135e-004
3545	17.171	1.0909	0.	5.859e-004
3546	17.356	1.0909	0.	6.9376e-004
3547	17.54	1.0909	0.	7.9479e-004
3548	17.725	1.0909	0.	9.2044e-004
3549	17.909	1.0909	0.	1.0597e-003
3550	18.094	1.0909	0.	1.2057e-003
3551	18.278	1.0909	0.	1.3595e-003
3552	18.463	1.0909	0.	1.5318e-003
3553	18.648	1.0909	0.	1.7369e-003
3554	18.832	1.0909	0.	1.9456e-003
3555	19.017	1.0909	0.	2.1756e-003
3556	19.201	1.0909	0.	2.4424e-003
3557	19.386	1.0909	0.	2.7349e-003
3558	19.57	1.0909	0.	3.0542e-003
3559	19.755	1.0909	0.	3.4272e-003
3560	19.94	1.0909	0.	3.85e-003
3561	20.124	1.0909	0.	4.3282e-003
3562	20.309	1.0909	0.	4.8766e-003
3563	20.493	1.0909	0.	5.5122e-003
3564	20.678	1.0909	0.	6.2596e-003
3565	20.862	1.0909	0.	7.1258e-003
3566	21.047	1.0909	0.	8.1483e-003
3567	21.231	1.0909	0.	9.3712e-003
3568	21.416	1.0909	0.	1.0838e-002
3569	21.601	1.0909	0.	1.2614e-002
3570	21.785	1.0909	0.	1.4796e-002
3571	21.97	1.0909	0.	1.7505e-002
3572	22.154	1.0909	0.	2.091e-002
3573	22.339	1.0909	0.	2.5246e-002
3574	22.523	1.0909	0.	3.0913e-002
3575	22.708	1.0909	0.	3.8311e-002
3576	22.893	1.0909	0.	4.8962e-002
3577	23.077	1.0909	0.	6.2062e-002
3578	23.262	1.0909	0.	9.0502e-002
3579	23.446	1.0909	0.	0.1037
3580	23.631	1.0909	0.	0.27588
3581	23.815	1.0909	0.	0.10459
3582	4.2512	0.90909	0.	-9.3653
3583	4.4358	0.90909	0.	-1.0308
3584	4.6204	0.90909	0.	-3.1487
3585	4.8049	0.90909	0.	-2.3756
3586	4.9895	0.90909	0.	-2.1524
3587	5.1741	0.90909	0.	-1.8197
3588	5.3586	0.90909	0.	-1.5896
3589	5.5432	0.90909	0.	-1.4172
3590	5.7278	0.90909	0.	-1.3189
3591	5.9123	0.90909	0.	-1.3084
3592	6.0969	0.90909	0.	-1.4454
3593	6.2815	0.90909	0.	-1.9715
3594	6.466	0.90909	0.	-4.3885
3595	6.6506	0.90909	0.	-12.497
3596	6.8352	0.90909	0.	-21.717
3597	7.0198	0.90909	0.	-29.257
3598	7.2043	0.90909	0.	-34.972
3599	7.3889	0.90909	0.	-39.046
3600	7.5735	0.90909	0.	-41.708
3601	7.758	0.90909	0.	-43.184
3602	7.9426	0.90909	0.	-43.679
3603	8.1272	0.90909	0.	-43.38
3604	8.3117	0.90909	0.	-42.45
3605	8.4963	0.90909	0.	-41.03
3606	8.6809	0.90909	0.	-39.24
3607	8.8654	0.90909	0.	-37.182
3608	9.05	0.90909	0.	-34.938
3609	9.2346	0.90909	0.	-32.577
3610	9.4191	0.90909	0.	-30.155
3611	9.6037	0.90909	0.	-27.716
3612	9.7883	0.90909	0.	-25.295
3613	9.9728	0.90909	0.	-22.919
3614	10.157	0.90909	0.	-20.606
3615	10.342	0.90909	0.	-18.372
3616	10.527	0.90909	0.	-16.227
3617	10.711	0.90909	0.	-14.176
3618	10.896	0.90909	0.	-12.225
3619	11.08	0.90909	0.	-10.373
3620	11.265	0.90909	0.	-8.6202
3621	11.449	0.90909	0.	-6.965
3622	11.634	0.90909	0.	-5.4045
3623	11.819	0.90909	0.	-3.935
3624	12.003	0.90909	0.	-2.5533
3625	12.188	0.90909	0.	-1.2581
3626	12.372	0.90909	0.	-0.14036
3627	12.557	0.90909	0.	-1.3547e-002
3628	12.741	0.90909	0.	-6.4972e-003
3629	12.926	0.90909	0.	-4.2435e-003
3630	13.11	0.90909	0.	-3.1971e-003
3631	13.295	0.90909	0.	-2.6287e-003
3632	13.48	0.90909	0.	-2.2834e-003
3633	13.664	0.90909	0.	-2.0405e-003
3634	13.849	0.90909	0.	-1.8974e-003
3635	14.033	0.90909	0.	-1.8107e-003
3636	14.218	0.90909	0.	-1.7312e-003
3637	14.402	0.90909	0.	-1.6819e-003
3638	14.587	0.90909	0.	-1.6708e-003
3639	14.772	0.90909	0.	-1.6459e-003
3640	14.956	0.90909	0.	-1.621e-003
3641	15.141	0.90909	0.	-1.6084e-003
3642	15.325	0.90909	0.	-1.6055e-003
3643	15.51	0.90909	0.	-1.603e-003
3644	15.694	0.90909	0.	-1.5774e-003
3645	15.879	0.90909	0.	-1.5728e-003
3646	16.064	0.90909	0.	-1.5759e-003
3647	16.248	0.90909	0.	-1.5571e-003
3648	16.433	0.90909	0.	-1.5443e-003
3649	16.617	0.90909	0.	-1.5489e-003
3650	16.802	0.90909	0.	-1.531e-003
3651	16.986	0.90909	0.	-1.5078e-003
3652	17.171	0.90909	0.	-1.4837e-003
3653	17.356	0.90909	0.	-1.456e-003
3654	17.54	0.90909	0.	-1.4437e-003
3655	17.725	0.90909	0.	-1.4056e-003
3656	17.909	0.90909	0.	-1.3657e-003
3657	18.094	0.90909	0.	-1.3181e-003
3658	18.278	0.90909	0.	-1.2723e-003
3659	18.463	0.90909	0.	-1.2124e-003
3660	18.648	0.90909	0.	-1.1334e-003
3661	18.832	0.90909	0.	-1.054e-003
3662	19.017	0.90909	0.	-9.6252e-004
3663	19.201	0.90909	0.	-8.468e-004
3664	19.386	0.90909	0.	-7.1519e-004
3665	19.57	0.90909	0.	-5.6995e-004
3666	19.755	0.90909	0.	-3.8486e-004
3667	19.94	0.90909	0.	-1.6255e-004
3668	20.124	0.90909	0.	9.7635e-005
3669	20.309	0.90909	0.	4.0141e-004
3670	20.493	0.90909	0.	7.7715e-004
3671	20.678	0.90909	0.	1.239e-003
3672	20.862	0.90909	0.	1.7974e-003
3673	21.047	0.90909	0.	2.4773e-003
3674	21.231	0.90909	0.	3.3274e-003
3675	21.416	0.90909	0.	4.3846e-003
3676	21.601	0.90909	0.	5.7059e-003
3677	21.785	0.90909	0.	7.3889e-003
3678	21.97	0.90909	0.	9.5482e-003
3679	22.154	0.90909	0.	1.2353e-002
3680	22.339	0.90909	0.	1.6026e-002
3681	22.523	0.90909	0.	2.0963e-002
3682	22.708	0.90909	0.	2.7572e-002
3683	22.893	0.90909	0.	3.7354e-002
3684	23.077	0.90909	0.	4.9497e-002
3685	23.262	0.90909	0.	7.6616e-002
3686	23.446	0.90909	0.	8.8357e-002
3687	23.631	0.90909	0.	0.25553
3688	23.815	0.90909	0.	7.1728e-002
3689	4.2512	0.72727	0.	-9.3787
3690	4.4358	0.72727	0.	-1.5854
3691	4.6204	0.72727	0.	-3.1934
3692	4.8049	0.72727	0.	-2.1986
3693	4.9895	0.72727	0.	-1.7939
3694	5.1741	0.72727	0.	-1.3783
3695	5.3586	0.72727	0.	-1.0922
3696	5.5432	0.72727	0.	-0.87997
3697	5.7278	0.72727	0.	-0.73288
3698	5.9123	0.72727	0.	-0.6363
3699	6.0969	0.72727	0.	-0.58582
3700	6.2815	0.72727	0.	-0.5876
3701	6.466	0.72727	0.	-0.67859
3702	6.6506	0.72727	0.	-1.0487
3703	6.8352	0.72727	0.	-3.4166
3704	7.0198	0.72727	0.	-10.358
3705	7.2043	0.72727	0.	-16.904
3706	7.3889	0.72727	0.	-21.966
3707	7.5735	0.72727	0.	-25.634
3708	7.758	0.72727	0.	-28.099
3709	7.9426	0.72727	0.	-29.553
3710	8.1272	0.72727	0.	-30.176
3711	8.3117	0.72727	0.	-30.128
3712	8.4963	0.72727	0.	-29.546
3713	8.6809	0.72727	0.	-28.551
3714	8.8654	0.72727	0.	-27.243
3715	9.05	0.72727	0.	-25.706
3716	9.2346	0.72727	0.	-24.01
3717	9.4191	0.72727	0.	-22.211
3718	9.6037	0.72727	0.	-20.354
3719	9.7883	0.72727	0.	-18.477
3720	9.9728	0.72727	0.	-16.607
3721	10.157	0.72727	0.	-14.767
3722	10.342	0.72727	0.	-12.971
3723	10.527	0.72727	0.	-11.233
3724	10.711	0.72727	0.	-9.5608
3725	10.896	0.72727	0.	-7.9593
3726	11.08	0.72727	0.	-6.4316
3727	11.265	0.72727	0.	-4.9791
3728	11.449	0.72727	0.	-3.6016
3729	11.634	0.72727	0.	-2.2985
3730	11.819	0.72727	0.	-1.0702
3731	12.003	0.72727	0.	-6.1948e-002
3732	12.188	0.72727	0.	-7.3885e-003
3733	12.372	0.72727	0.	-3.7212e-003
3734	12.557	0.72727	0.	-2.6565e-003
3735	12.741	0.72727	0.	-2.2328e-003
3736	12.926	0.72727	0.	-2.0694e-003
3737	13.11	0.72727	0.	-2.0399e-003
3738	13.295	0.72727	0.	-2.0839e-003
3739	13.48	0.72727	0.	-2.158e-003
3740	13.664	0.72727	0.	-2.2238e-003
3741	13.849	0.72727	0.	-2.3277e-003
3742	14.033	0.72727	0.	-2.444e-003
3743	14.218	0.72727	0.	-2.5389e-003
3744	14.402	0.72727	0.	-2.6436e-003
3745	14.587	0.72727	0.	-2.7687e-003
3746	14.772	0.72727	0.	-2.8694e-003
3747	14.956	0.72727	0.	-2.9601e-003
3748	15.141	0.72727	0.	-3.0614e-003
3749	15.325	0.72727	0.	-3.1648e-003
3750	15.51	0.72727	0.	-3.2614e-003
3751	15.694	0.72727	0.	-3.3375e-003
3752	15.879	0.72727	0.	-3.4303e-003
3753	16.064	0.72727	0.	-3.5302e-003
3754	16.248	0.72727	0.	-3.6097e-003
3755	16.433	0.72727	0.	-3.699e-003
3756	16.617	0.72727	0.	-3.8045e-003
3757	16.802	0.72727	0.	-3.8912e-003
3758	16.986	0.72727	0.	-3.9764e-003
3759	17.171	0.72727	0.	-4.063e-003
3760	17.356	0.72727	0.	-4.1553e-003
3761	17.54	0.72727	0.	-4.266e-003
3762	17.725	0.72727	0.	-4.359e-003
3763	17.909	0.72727	0.	-4.4537e-003
3764	18.094	0.72727	0.	-4.5562e-003
3765	18.278	0.72727	0.	-4.6661e-003
3766	18.463	0.72727	0.	-4.7756e-003
3767	18.648	0.72727	0.	-4.8752e-003
3768	18.832	0.72727	0.	-4.9875e-003
3769	19.017	0.72727	0.	-5.1084e-003
3770	19.201	0.72727	0.	-5.2141e-003
3771	19.386	0.72727	0.	-5.3272e-003
3772	19.57	0.72727	0.	-5.4514e-003
3773	19.755	0.72727	0.	-5.5518e-003
3774	19.94	0.72727	0.	-5.6441e-003
3775	20.124	0.72727	0.	-5.7276e-003
3776	20.309	0.72727	0.	-5.7958e-003
3777	20.493	0.72727	0.	-5.8293e-003
3778	20.678	0.72727	0.	-5.8196e-003
3779	20.862	0.72727	0.	-5.7626e-003
3780	21.047	0.72727	0.	-5.6369e-003
3781	21.231	0.72727	0.	-5.3965e-003
3782	21.416	0.72727	0.	-5.0251e-003
3783	21.601	0.72727	0.	-4.4663e-003
3784	21.785	0.72727	0.	-3.6419e-003
3785	21.97	0.72727	0.	-2.4482e-003
3786	22.154	0.72727	0.	-7.4028e-004
3787	22.339	0.72727	0.	1.6993e-003
3788	22.523	0.72727	0.	5.2349e-003
3789	22.708	0.72727	0.	1.025e-002
3790	22.893	0.72727	0.	1.8224e-002
3791	23.077	0.72727	0.	2.8281e-002
3792	23.262	0.72727	0.	5.2851e-002
3793	23.446	0.72727	0.	6.1661e-002
3794	23.631	0.72727	0.	0.22057
3795	23.815	0.72727	0.	1.9321e-002
3796	4.2512	0.54545	0.	-10.537
3797	4.4358	0.54545	0.	-3.1038
3798	4.6204	0.54545	0.	-3.5816
3799	4.8049	0.54545	0.	-2.0653
3800	4.9895	0.54545	0.	-1.4022
3801	5.1741	0.54545	0.	-0.9256
3802	5.3586	0.54545	0.	-0.65391
3803	5.5432	0.54545	0.	-0.47647
3804	5.7278	0.54545	0.	-0.36201
3805	5.9123	0.54545	0.	-0.28679
3806	6.0969	0.54545	0.	-0.23951
3807	6.2815	0.54545	0.	-0.21398
3808	6.466	0.54545	0.	-0.20928
3809	6.6506	0.54545	0.	-0.23284
3810	6.8352	0.54545	0.	-0.32128
3811	7.0198	0.54545	0.	-0.75118
3812	7.2043	0.54545	0.	-4.155
3813	7.3889	0.54545	0.	-9.0826
3814	7.5735	0.54545	0.	-12.951
3815	7.758	0.54545	0.	-15.74
3816	7.9426	0.54545	0.	-17.6
3817	8.1272	0.54545	0.	-18.686
3818	8.3117	0.54545	0.	-19.141
3819	8.4963	0.54545	0.	-19.089
3820	8.6809	0.54545	0.	-18.637
3821	8.8654	0.54545	0.	-17.876
3822	9.05	0.54545	0.	-16.883
3823	9.2346	0.54545	0.	-15.722
3824	9.4191	0.54545	0.	-14.443
3825	9.6037	0.54545	0.	-13.089
3826	9.7883	0.54545	0.	-11.694
3827	9.9728	0.54545	0.	-10.283
3828	10.157	0.54545	0.	-8.8789
3829	10.342	0.54545	0.	-7.4959
3830	10.527	0.54545	0.	-6.1463
3831	10.711	0.54545	0.	-4.8385
3832	10.896	0.54545	0.	-3.5786
3833	11.08	0.54545	0.	-2.3703
3834	11.265	0.54545	0.	-1.216
3835	11.449	0.54545	0.	-0.12982
3836	11.634	0.54545	0.	-4.4168e-004
3837	11.819	0.54545	0.	2.3596e-004
3838	12.003	0.54545	0.	1.28e-004
3839	12.188	0.54545	0.	-1.3249e-004
3840	12.372	0.54545	0.	-4.3408e-004
3841	12.557	0.54545	0.	-7.7006e-004
3842	12.741	0.54545	0.	-1.0675e-003
3843	12.926	0.54545	0.	-1.3462e-003
3844	13.11	0.54545	0.	-1.6176e-003
3845	13.295	0.54545	0.	-1.8846e-003
3846	13.48	0.54545	0.	-2.1307e-003
3847	13.664	0.54545	0.	-2.3366e-003
3848	13.849	0.54545	0.	-2.5546e-003
3849	14.033	0.54545	0.	-2.77e-003
3850	14.218	0.54545	0.	-2.9505e-003
3851	14.402	0.54545	0.	-3.1317e-003
3852	14.587	0.54545	0.	-3.3258e-003
3853	14.772	0.54545	0.	-3.4888e-003
3854	14.956	0.54545	0.	-3.641e-003
3855	15.141	0.54545	0.	-3.799e-003
3856	15.325	0.54545	0.	-3.96e-003
3857	15.51	0.54545	0.	-4.1081e-003
3858	15.694	0.54545	0.	-4.2339e-003
3859	15.879	0.54545	0.	-4.3815e-003
3860	16.064	0.54545	0.	-4.533e-003
3861	16.248	0.54545	0.	-4.6651e-003
3862	16.433	0.54545	0.	-4.8075e-003
3863	16.617	0.54545	0.	-4.9712e-003
3864	16.802	0.54545	0.	-5.1148e-003
3865	16.986	0.54545	0.	-5.2626e-003
3866	17.171	0.54545	0.	-5.4174e-003
3867	17.356	0.54545	0.	-5.5756e-003
3868	17.54	0.54545	0.	-5.7592e-003
3869	17.725	0.54545	0.	-5.9355e-003
3870	17.909	0.54545	0.	-6.1166e-003
3871	18.094	0.54545	0.	-6.3082e-003
3872	18.278	0.54545	0.	-6.5186e-003
3873	18.463	0.54545	0.	-6.7372e-003
3874	18.648	0.54545	0.	-6.9547e-003
3875	18.832	0.54545	0.	-7.1984e-003
3876	19.017	0.54545	0.	-7.4617e-003
3877	19.201	0.54545	0.	-7.7275e-003
3878	19.386	0.54545	0.	-8.0127e-003
3879	19.57	0.54545	0.	-8.326e-003
3880	19.755	0.54545	0.	-8.6449e-003
3881	19.94	0.54545	0.	-8.9761e-003
3882	20.124	0.54545	0.	-9.3309e-003
3883	20.309	0.54545	0.	-9.6927e-003
3884	20.493	0.54545	0.	-1.0067e-002
3885	20.678	0.54545	0.	-1.0442e-002
3886	20.862	0.54545	0.	-1.0818e-002
3887	21.047	0.54545	0.	-1.1184e-002
3888	21.231	0.54545	0.	-1.1519e-002
3889	21.416	0.54545	0.	-1.1804e-002
3890	21.601	0.54545	0.	-1.2e-002
3891	21.785	0.54545	0.	-1.2058e-002
3892	21.97	0.54545	0.	-1.1898e-002
3893	22.154	0.54545	0.	-1.1409e-002
3894	22.339	0.54545	0.	-1.0421e-002
3895	22.523	0.54545	0.	-8.6088e-003
3896	22.708	0.54545	0.	-5.6471e-003
3897	22.893	0.54545	0.	-1.6852e-004
3898	23.077	0.54545	0.	7.0077e-003
3899	23.262	0.54545	0.	2.7907e-002
3900	23.446	0.54545	0.	3.1165e-002
3901	23.631	0.54545	0.	0.18308
3902	23.815	0.54545	0.	-3.5454e-002
3903	4.2512	0.36364	0.	-13.835
3904	4.4358	0.36364	0.	-5.6486
3905	4.6204	0.36364	0.	-4.0799
3906	4.8049	0.36364	0.	-1.799
3907	4.9895	0.36364	0.	-1.0426
3908	5.1741	0.36364	0.	-0.65325
3909	5.3586	0.36364	0.	-0.48023
3910	5.5432	0.36364	0.	-0.377
3911	5.7278	0.36364	0.	-0.30694
3912	5.9123	0.36364	0.	-0.2518
3913	6.0969	0.36364	0.	-0.20642
3914	6.2815	0.36364	0.	-0.16901
3915	6.466	0.36364	0.	-0.1395
3916	6.6506	0.36364	0.	-0.11874
3917	6.8352	0.36364	0.	-0.10945
3918	7.0198	0.36364	0.	-0.1207
3919	7.2043	0.36364	0.	-0.19929
3920	7.3889	0.36364	0.	-1.0231
3921	7.5735	0.36364	0.	-3.8527
3922	7.758	0.36364	0.	-6.2361
3923	7.9426	0.36364	0.	-7.912
3924	8.1272	0.36364	0.	-8.9771
3925	8.3117	0.36364	0.	-9.5378
3926	8.4963	0.36364	0.	-9.6907
3927	8.6809	0.36364	0.	-9.5191
3928	8.8654	0.36364	0.	-9.0941
3929	9.05	0.36364	0.	-8.4755
3930	9.2346	0.36364	0.	-7.7128
3931	9.4191	0.36364	0.	-6.8468
3932	9.6037	0.36364	0.	-5.9105
3933	9.7883	0.36364	0.	-4.9309
3934	9.9728	0.36364	0.	-3.929
3935	10.157	0.36364	0.	-2.9218
3936	10.342	0.36364	0.	-1.9223
3937	10.527	0.36364	0.	-0.94212
3938	10.711	0.36364	0.	-5.7656e-002
3939	10.896	0.36364	0.	1.0971e-002
3940	11.08	0.36364	0.	1.2143e-002
3941	11.265	0.36364	0.	1.1308e-002
3942	11.449	0.36364	0.	1.0031e-002
3943	11.634	0.36364	0.	8.624e-003
3944	11.819	0.36364	0.	7.2465e-003
3945	12.003	0.36364	0.	5.9197e-003
3946	12.188	0.36364	0.	4.6511e-003
3947	12.372	0.36364	0.	3.446e-003
3948	12.557	0.36364	0.	2.2758e-003
3949	12.741	0.36364	0.	1.2073e-003
3950	12.926	0.36364	0.	2.0896e-004
3951	13.11	0.36364	0.	-7.4163e-004
3952	13.295	0.36364	0.	-1.6455e-003
3953	13.48	0.36364	0.	-2.4883e-003
3954	13.664	0.36364	0.	-3.2558e-003
3955	13.849	0.36364	0.	-4.0054e-003
3956	14.033	0.36364	0.	-4.7251e-003
3957	14.218	0.36364	0.	-5.3855e-003
3958	14.402	0.36364	0.	-6.02e-003
3959	14.587	0.36364	0.	-6.6528e-003
3960	14.772	0.36364	0.	-7.235e-003
3961	14.956	0.36364	0.	-7.7946e-003
3962	15.141	0.36364	0.	-8.3429e-003
3963	15.325	0.36364	0.	-8.8848e-003
3964	15.51	0.36364	0.	-9.4128e-003
3965	15.694	0.36364	0.	-9.9132e-003
3966	15.879	0.36364	0.	-1.043e-002
3967	16.064	0.36364	0.	-1.0955e-002
3968	16.248	0.36364	0.	-1.1464e-002
3969	16.433	0.36364	0.	-1.1988e-002
3970	16.617	0.36364	0.	-1.254e-002
3971	16.802	0.36364	0.	-1.3085e-002
3972	16.986	0.36364	0.	-1.3649e-002
3973	17.171	0.36364	0.	-1.4232e-002
3974	17.356	0.36364	0.	-1.4846e-002
3975	17.54	0.36364	0.	-1.5504e-002
3976	17.725	0.36364	0.	-1.618e-002
3977	17.909	0.36364	0.	-1.689e-002
3978	18.094	0.36364	0.	-1.7651e-002
3979	18.278	0.36364	0.	-1.8467e-002
3980	18.463	0.36364	0.	-1.9333e-002
3981	18.648	0.36364	0.	-2.0247e-002
3982	18.832	0.36364	0.	-2.1241e-002
3983	19.017	0.36364	0.	-2.2314e-002
3984	19.201	0.36364	0.	-2.3459e-002
3985	19.386	0.36364	0.	-2.4702e-002
3986	19.57	0.36364	0.	-2.6045e-002
3987	19.755	0.36364	0.	-2.7501e-002
3988	19.94	0.36364	0.	-2.9066e-002
3989	20.124	0.36364	0.	-3.0771e-002
3990	20.309	0.36364	0.	-3.2625e-002
3991	20.493	0.36364	0.	-3.4639e-002
3992	20.678	0.36364	0.	-3.6819e-002
3993	20.862	0.36364	0.	-3.9201e-002
3994	21.047	0.36364	0.	-4.1795e-002
3995	21.231	0.36364	0.	-4.4622e-002
3996	21.416	0.36364	0.	-4.7701e-002
3997	21.601	0.36364	0.	-5.1067e-002
3998	21.785	0.36364	0.	-5.4722e-002
3999	21.97	0.36364	0.	-5.8695e-002
4000	22.154	0.36364	0.	-6.2996e-002
4001	22.339	0.36364	0.	-6.7615e-002
4002	22.523	0.36364	0.	-7.2474e-002
4003	22.708	0.36364	0.	-7.7553e-002
4004	22.893	0.36364	0.	-8.1998e-002
4005	23.077	0.36364	0.	-8.7081e-002
4006	23.262	0.36364	0.	-8.3263e-002
4007	23.446	0.36364	0.	-9.6608e-002
4008	23.631	0.36364	0.	3.497e-003
4009	23.815	0.36364	0.	-0.28801
4010	4.2512	0.18182	0.	-28.121
4011	4.4358	0.18182	0.	-8.5213
4012	4.6204	0.18182	0.	-3.9019
4013	4.8049	0.18182	0.	-0.99674
4014	4.9895	0.18182	0.	-0.12232
4015	5.1741	0.18182	0.	0.2117
4016	5.3586	0.18182	0.	0.26149
4017	5.5432	0.18182	0.	0.22618
4018	5.7278	0.18182	0.	0.16847
4019	5.9123	0.18182	0.	0.11699
4020	6.0969	0.18182	0.	7.8515e-002
4021	6.2815	0.18182	0.	5.2604e-002
4022	6.466	0.18182	0.	3.6032e-002
4023	6.6506	0.18182	0.	2.5175e-002
4024	6.8352	0.18182	0.	1.6643e-002
4025	7.0198	0.18182	0.	7.1607e-003
4026	7.2043	0.18182	0.	-7.2678e-003
4027	7.3889	0.18182	0.	-3.3607e-002
4028	7.5735	0.18182	0.	-8.8582e-002
4029	7.758	0.18182	0.	-0.22005
4030	7.9426	0.18182	0.	-0.50778
4031	8.1272	0.18182	0.	-0.84685
4032	8.3117	0.18182	0.	-1.043
4033	8.4963	0.18182	0.	-1.0578
4034	8.6809	0.18182	0.	-0.92318
4035	8.8654	0.18182	0.	-0.69649
4036	9.05	0.18182	0.	-0.45671
4037	9.2346	0.18182	0.	-0.27793
4038	9.4191	0.18182	0.	-0.17291
4039	9.6037	0.18182	0.	-0.1143
4040	9.7883	0.18182	0.	-7.9953e-002
4041	9.9728	0.18182	0.	-5.8448e-002
4042	10.157	0.18182	0.	-4.4192e-002
4043	10.342	0.18182	0.	-3.433e-002
4044	10.527	0.18182	0.	-2.7242e-002
4045	10.711	0.18182	0.	-2.1967e-002
4046	10.896	0.18182	0.	-1.8002e-002
4047	11.08	0.18182	0.	-1.4953e-002
4048	11.265	0.18182	0.	-1.2538e-002
4049	11.449	0.18182	0.	-1.0611e-002
4050	11.634	0.18182	0.	-9.0971e-003
4051	11.819	0.18182	0.	-7.822e-003
4052	12.003	0.18182	0.	-6.7731e-003
4053	12.188	0.18182	0.	-5.8917e-003
4054	12.372	0.18182	0.	-5.1548e-003
4055	12.557	0.18182	0.	-4.5556e-003
4056	12.741	0.18182	0.	-4.0162e-003
4057	12.926	0.18182	0.	-3.5432e-003
4058	13.11	0.18182	0.	-3.1402e-003
4059	13.295	0.18182	0.	-2.7987e-003
4060	13.48	0.18182	0.	-2.4882e-003
4061	13.664	0.18182	0.	-2.189e-003
4062	13.849	0.18182	0.	-1.9417e-003
4063	14.033	0.18182	0.	-1.7302e-003
4064	14.218	0.18182	0.	-1.5146e-003
4065	14.402	0.18182	0.	-1.3263e-003
4066	14.587	0.18182	0.	-1.1757e-003
4067	14.772	0.18182	0.	-1.0139e-003
4068	14.956	0.18182	0.	-8.5908e-004
4069	15.141	0.18182	0.	-7.2072e-004
4070	15.325	0.18182	0.	-5.9856e-004
4071	15.51	0.18182	0.	-4.8047e-004
4072	15.694	0.18182	0.	-3.5157e-004
4073	15.879	0.18182	0.	-2.4136e-004
4074	16.064	0.18182	0.	-1.4543e-004
4075	16.248	0.18182	0.	-3.9263e-005
4076	16.433	0.18182	0.	5.6075e-005
4077	16.617	0.18182	0.	1.3357e-004
4078	16.802	0.18182	0.	2.2216e-004
4079	16.986	0.18182	0.	3.0959e-004
4080	17.171	0.18182	0.	3.9256e-004
4081	17.356	0.18182	0.	4.6674e-004
4082	17.54	0.18182	0.	5.1883e-004
4083	17.725	0.18182	0.	5.8362e-004
4084	17.909	0.18182	0.	6.3864e-004
4085	18.094	0.18182	0.	6.8207e-004
4086	18.278	0.18182	0.	7.0593e-004
4087	18.463	0.18182	0.	7.2144e-004
4088	18.648	0.18182	0.	7.3253e-004
4089	18.832	0.18182	0.	7.087e-004
4090	19.017	0.18182	0.	6.564e-004
4091	19.201	0.18182	0.	5.8528e-004
4092	19.386	0.18182	0.	4.7091e-004
4093	19.57	0.18182	0.	3.0007e-004
4094	19.755	0.18182	0.	8.7541e-005
4095	19.94	0.18182	0.	-1.9116e-004
4096	20.124	0.18182	0.	-5.5798e-004
4097	20.309	0.18182	0.	-1.0159e-003
4098	20.493	0.18182	0.	-1.5977e-003
4099	20.678	0.18182	0.	-2.3145e-003
4100	20.862	0.18182	0.	-3.2147e-003
4101	21.047	0.18182	0.	-4.3364e-003
4102	21.231	0.18182	0.	-5.7085e-003
4103	21.416	0.18182	0.	-7.4101e-003
4104	21.601	0.18182	0.	-9.524e-003
4105	21.785	0.18182	0.	-1.2137e-002
4106	21.97	0.18182	0.	-1.5385e-002
4107	22.154	0.18182	0.	-1.9449e-002
4108	22.339	0.18182	0.	-2.4569e-002
4109	22.523	0.18182	0.	-3.1049e-002
4110	22.708	0.18182	0.	-3.9444e-002
4111	22.893	0.18182	0.	-5.0026e-002
4112	23.077	0.18182	0.	-6.531e-002
4113	23.262	0.18182	0.	-8.0906e-002
4114	23.446	0.18182	0.	-0.12103
4115	23.631	0.18182	0.	-0.11051
4116	23.815	0.18182	0.	-0.50912
4117	23.815	0.18182	0.1	0.50912
4118	23.631	0.18182	0.1	0.11051
4119	23.446	0.18182	0.1	0.12103
4120	23.262	0.18182	0.1	8.0907e-002
4121	23.077	0.18182	0.1	6.5308e-002
4122	22.893	0.18182	0.1	5.0027e-002
4123	22.708	0.18182	0.1	3.9443e-002
4124	22.523	0.18182	0.1	3.1049e-002
4125	22.339	0.18182	0.1	2.4569e-002
4126	22.154	0.18182	0.1	1.9449e-002
4127	21.97	0.18182	0.1	1.5384e-002
4128	21.785	0.18182	0.1	1.2137e-002
4129	21.601	0.18182	0.1	9.523e-003
4130	21.416	0.18182	0.1	7.4119e-003
4131	21.231	0.18182	0.1	5.7078e-003
4132	21.047	0.18182	0.1	4.3339e-003
4133	20.862	0.18182	0.1	3.215e-003
4134	20.678	0.18182	0.1	2.3149e-003
4135	20.493	0.18182	0.1	1.5988e-003
4136	20.309	0.18182	0.1	1.017e-003
4137	20.124	0.18182	0.1	5.5427e-004
4138	19.94	0.18182	0.1	1.9023e-004
4139	19.755	0.18182	0.1	-8.7723e-005
4140	19.57	0.18182	0.1	-2.9984e-004
4141	19.386	0.18182	0.1	-4.6967e-004
4142	19.201	0.18182	0.1	-5.8475e-004
4143	19.017	0.18182	0.1	-6.5611e-004
4144	18.832	0.18182	0.1	-7.0796e-004
4145	18.648	0.18182	0.1	-7.3263e-004
4146	18.463	0.18182	0.1	-7.2191e-004
4147	18.278	0.18182	0.1	-7.0617e-004
4148	18.094	0.18182	0.1	-6.8148e-004
4149	17.909	0.18182	0.1	-6.3915e-004
4150	17.725	0.18182	0.1	-5.8254e-004
4151	17.54	0.18182	0.1	-5.1992e-004
4152	17.356	0.18182	0.1	-4.6723e-004
4153	17.171	0.18182	0.1	-3.9224e-004
4154	16.986	0.18182	0.1	-3.1e-004
4155	16.802	0.18182	0.1	-2.2217e-004
4156	16.617	0.18182	0.1	-1.337e-004
4157	16.433	0.18182	0.1	-5.7187e-005
4158	16.248	0.18182	0.1	3.95e-005
4159	16.064	0.18182	0.1	1.4575e-004
4160	15.879	0.18182	0.1	2.3958e-004
4161	15.694	0.18182	0.1	3.5085e-004
4162	15.51	0.18182	0.1	4.8032e-004
4163	15.325	0.18182	0.1	5.9808e-004
4164	15.141	0.18182	0.1	7.2085e-004
4165	14.956	0.18182	0.1	8.5873e-004
4166	14.772	0.18182	0.1	1.0146e-003
4167	14.587	0.18182	0.1	1.1751e-003
4168	14.402	0.18182	0.1	1.3261e-003
4169	14.218	0.18182	0.1	1.5145e-003
4170	14.033	0.18182	0.1	1.7302e-003
4171	13.849	0.18182	0.1	1.9413e-003
4172	13.664	0.18182	0.1	2.1889e-003
4173	13.48	0.18182	0.1	2.4888e-003
4174	13.295	0.18182	0.1	2.798e-003
4175	13.11	0.18182	0.1	3.1397e-003
4176	12.926	0.18182	0.1	3.5426e-003
4177	12.741	0.18182	0.1	4.0168e-003
4178	12.557	0.18182	0.1	4.5551e-003
4179	12.372	0.18182	0.1	5.1545e-003
4180	12.188	0.18182	0.1	5.8917e-003
4181	12.003	0.18182	0.1	6.7729e-003
4182	11.819	0.18182	0.1	7.8218e-003
4183	11.634	0.18182	0.1	9.0972e-003
4184	11.449	0.18182	0.1	1.0611e-002
4185	11.265	0.18182	0.1	1.2538e-002
4186	11.08	0.18182	0.1	1.4953e-002
4187	10.896	0.18182	0.1	1.8002e-002
4188	10.711	0.18182	0.1	2.1967e-002
4189	10.527	0.18182	0.1	2.7242e-002
4190	10.342	0.18182	0.1	3.433e-002
4191	10.157	0.18182	0.1	4.4191e-002
4192	9.9728	0.18182	0.1	5.8448e-002
4193	9.7883	0.18182	0.1	7.9953e-002
4194	9.6037	0.18182	0.1	0.1143
4195	9.4191	0.18182	0.1	0.17291
4196	9.2346	0.18182	0.1	0.27793
4197	9.05	0.18182	0.1	0.45671
4198	8.8654	0.18182	0.1	0.6965
4199	8.6809	0.18182	0.1	0.92318
4200	8.4963	0.18182	0.1	1.0578
4201	8.3117	0.18182	0.1	1.043
4202	8.1272	0.18182	0.1	0.84685
4203	7.9426	0.18182	0.1	0.50779
4204	7.758	0.18182	0.1	0.22005
4205	7.5735	0.18182	0.1	8.8582e-002
4206	7.3889	0.18182	0.1	3.3607e-002
4207	7.2043	0.18182	0.1	7.2679e-003
4208	7.0198	0.18182	0.1	-7.1609e-003
4209	6.8352	0.18182	0.1	-1.6643e-002
4210	6.6506	0.18182	0.1	-2.5175e-002
4211	6.466	0.18182	0.1	-3.6032e-002
4212	6.2815	0.18182	0.1	-5.2604e-002
4213	6.0969	0.18182	0.1	-7.8515e-002
4214	5.9123	0.18182	0.1	-0.11699
4215	5.7278	0.18182	0.1	-0.16847
4216	5.5432	0.18182	0.1	-0.22618
4217	5.3586	0.18182	0.1	-0.26149
4218	5.1741	0.18182	0.1	-0.2117
4219	4.9895	0.18182	0.1	0.12232
4220	4.8049	0.18182	0.1	0.99674
4221	4.6204	0.18182	0.1	3.9019
4222	4.4358	0.18182	0.1	8.5213
4223	4.2512	0.18182	0.1	28.121
4224	23.815	0.36364	0.1	0.288
4225	23.631	0.36364	0.1	-3.4961e-003
4226	23.446	0.36364	0.1	9.661e-002
4227	23.262	0.36364	0.1	8.3263e-002
4228	23.077	0.36364	0.1	8.7081e-002
4229	22.893	0.36364	0.1	8.1999e-002
4230	22.708	0.36364	0.1	7.7551e-002
4231	22.523	0.36364	0.1	7.2478e-002
4232	22.339	0.36364	0.1	6.7617e-002
4233	22.154	0.36364	0.1	6.2996e-002
4234	21.97	0.36364	0.1	5.8697e-002
4235	21.785	0.36364	0.1	5.4723e-002
4236	21.601	0.36364	0.1	5.1068e-002
4237	21.416	0.36364	0.1	4.7702e-002
4238	21.231	0.36364	0.1	4.4623e-002
4239	21.047	0.36364	0.1	4.1796e-002
4240	20.862	0.36364	0.1	3.9202e-002
4241	20.678	0.36364	0.1	3.6818e-002
4242	20.493	0.36364	0.1	3.4641e-002
4243	20.309	0.36364	0.1	3.2626e-002
4244	20.124	0.36364	0.1	3.077e-002
4245	19.94	0.36364	0.1	2.9069e-002
4246	19.755	0.36364	0.1	2.7501e-002
4247	19.57	0.36364	0.1	2.6048e-002
4248	19.386	0.36364	0.1	2.4702e-002
4249	19.201	0.36364	0.1	2.346e-002
4250	19.017	0.36364	0.1	2.2315e-002
4251	18.832	0.36364	0.1	2.1241e-002
4252	18.648	0.36364	0.1	2.0247e-002
4253	18.463	0.36364	0.1	1.9333e-002
4254	18.278	0.36364	0.1	1.8466e-002
4255	18.094	0.36364	0.1	1.7652e-002
4256	17.909	0.36364	0.1	1.689e-002
4257	17.725	0.36364	0.1	1.618e-002
4258	17.54	0.36364	0.1	1.5502e-002
4259	17.356	0.36364	0.1	1.4845e-002
4260	17.171	0.36364	0.1	1.4233e-002
4261	16.986	0.36364	0.1	1.365e-002
4262	16.802	0.36364	0.1	1.3088e-002
4263	16.617	0.36364	0.1	1.2539e-002
4264	16.433	0.36364	0.1	1.1989e-002
4265	16.248	0.36364	0.1	1.1465e-002
4266	16.064	0.36364	0.1	1.0955e-002
4267	15.879	0.36364	0.1	1.043e-002
4268	15.694	0.36364	0.1	9.9127e-003
4269	15.51	0.36364	0.1	9.413e-003
4270	15.325	0.36364	0.1	8.8855e-003
4271	15.141	0.36364	0.1	8.3415e-003
4272	14.956	0.36364	0.1	7.7949e-003
4273	14.772	0.36364	0.1	7.2352e-003
4274	14.587	0.36364	0.1	6.653e-003
4275	14.402	0.36364	0.1	6.0214e-003
4276	14.218	0.36364	0.1	5.385e-003
4277	14.033	0.36364	0.1	4.7263e-003
4278	13.849	0.36364	0.1	4.0052e-003
4279	13.664	0.36364	0.1	3.2557e-003
4280	13.48	0.36364	0.1	2.4888e-003
4281	13.295	0.36364	0.1	1.6447e-003
4282	13.11	0.36364	0.1	7.4245e-004
4283	12.926	0.36364	0.1	-2.083e-004
4284	12.741	0.36364	0.1	-1.2079e-003
4285	12.557	0.36364	0.1	-2.2755e-003
4286	12.372	0.36364	0.1	-3.4456e-003
4287	12.188	0.36364	0.1	-4.6513e-003
4288	12.003	0.36364	0.1	-5.9194e-003
4289	11.819	0.36364	0.1	-7.247e-003
4290	11.634	0.36364	0.1	-8.6237e-003
4291	11.449	0.36364	0.1	-1.003e-002
4292	11.265	0.36364	0.1	-1.1308e-002
4293	11.08	0.36364	0.1	-1.2143e-002
4294	10.896	0.36364	0.1	-1.0971e-002
4295	10.711	0.36364	0.1	5.7659e-002
4296	10.527	0.36364	0.1	0.94212
4297	10.342	0.36364	0.1	1.9223
4298	10.157	0.36364	0.1	2.9218
4299	9.9728	0.36364	0.1	3.929
4300	9.7883	0.36364	0.1	4.9309
4301	9.6037	0.36364	0.1	5.9105
4302	9.4191	0.36364	0.1	6.8468
4303	9.2346	0.36364	0.1	7.7128
4304	9.05	0.36364	0.1	8.4755
4305	8.8654	0.36364	0.1	9.0941
4306	8.6809	0.36364	0.1	9.5191
4307	8.4963	0.36364	0.1	9.6907
4308	8.3117	0.36364	0.1	9.5378
4309	8.1272	0.36364	0.1	8.9771
4310	7.9426	0.36364	0.1	7.912
4311	7.758	0.36364	0.1	6.2361
4312	7.5735	0.36364	0.1	3.8527
4313	7.3889	0.36364	0.1	1.0231
4314	7.2043	0.36364	0.1	0.19929
4315	7.0198	0.36364	0.1	0.1207
4316	6.8352	0.36364	0.1	0.10945
4317	6.6506	0.36364	0.1	0.11874
4318	6.466	0.36364	0.1	0.1395
4319	6.2815	0.36364	0.1	0.16901
4320	6.0969	0.36364	0.1	0.20642
4321	5.9123	0.36364	0.1	0.2518
4322	5.7278	0.36364	0.1	0.30694
4323	5.5432	0.36364	0.1	0.377
4324	5.3586	0.36364	0.1	0.48023
4325	5.1741	0.36364	0.1	0.65325
4326	4.9895	0.36364	0.1	1.0426
4327	4.8049	0.36364	0.1	1.799
4328	4.6204	0.36364	0.1	4.0799
4329	4.4358	0.36364	0.1	5.6486
4330	4.2512	0.36364	0.1	13.835
4331	23.815	0.54545	0.1	3.5455e-002
4332	23.631	0.54545	0.1	-0.18308
4333	23.446	0.54545	0.1	-3.1168e-002
4334	23.262	0.54545	0.1	-2.7905e-002
4335	23.077	0.54545	0.1	-7.0075e-003
4336	22.893	0.54545	0.1	1.6844e-004
4337	22.708	0.54545	0.1	5.6465e-003
4338	22.523	0.54545	0.1	8.6108e-003
4339	22.339	0.54545	0.1	1.0419e-002
4340	22.154	0.54545	0.1	1.1408e-002
4341	21.97	0.54545	0.1	1.1899e-002
4342	21.785	0.54545	0.1	1.2057e-002
4343	21.601	0.54545	0.1	1.2e-002
4344	21.416	0.54545	0.1	1.1803e-002
4345	21.231	0.54545	0.1	1.1517e-002
4346	21.047	0.54545	0.1	1.1184e-002
4347	20.862	0.54545	0.1	1.0819e-002
4348	20.678	0.54545	0.1	1.0441e-002
4349	20.493	0.54545	0.1	1.0068e-002
4350	20.309	0.54545	0.1	9.6944e-003
4351	20.124	0.54545	0.1	9.3285e-003
4352	19.94	0.54545	0.1	8.9765e-003
4353	19.755	0.54545	0.1	8.6449e-003
4354	19.57	0.54545	0.1	8.3257e-003
4355	19.386	0.54545	0.1	8.013e-003
4356	19.201	0.54545	0.1	7.7284e-003
4357	19.017	0.54545	0.1	7.4602e-003
4358	18.832	0.54545	0.1	7.1982e-003
4359	18.648	0.54545	0.1	6.9554e-003
4360	18.463	0.54545	0.1	6.7373e-003
4361	18.278	0.54545	0.1	6.5184e-003
4362	18.094	0.54545	0.1	6.3097e-003
4363	17.909	0.54545	0.1	6.1155e-003
4364	17.725	0.54545	0.1	5.9346e-003
4365	17.54	0.54545	0.1	5.7597e-003
4366	17.356	0.54545	0.1	5.5754e-003
4367	17.171	0.54545	0.1	5.4167e-003
4368	16.986	0.54545	0.1	5.2618e-003
4369	16.802	0.54545	0.1	5.1156e-003
4370	16.617	0.54545	0.1	4.9704e-003
4371	16.433	0.54545	0.1	4.8081e-003
4372	16.248	0.54545	0.1	4.6656e-003
4373	16.064	0.54545	0.1	4.5316e-003
4374	15.879	0.54545	0.1	4.3825e-003
4375	15.694	0.54545	0.1	4.2328e-003
4376	15.51	0.54545	0.1	4.1076e-003
4377	15.325	0.54545	0.1	3.9605e-003
4378	15.141	0.54545	0.1	3.7986e-003
4379	14.956	0.54545	0.1	3.6417e-003
4380	14.772	0.54545	0.1	3.4889e-003
4381	14.587	0.54545	0.1	3.326e-003
4382	14.402	0.54545	0.1	3.1316e-003
4383	14.218	0.54545	0.1	2.9509e-003
4384	14.033	0.54545	0.1	2.7704e-003
4385	13.849	0.54545	0.1	2.5543e-003
4386	13.664	0.54545	0.1	2.3362e-003
4387	13.48	0.54545	0.1	2.1312e-003
4388	13.295	0.54545	0.1	1.884e-003
4389	13.11	0.54545	0.1	1.6184e-003
4390	12.926	0.54545	0.1	1.3461e-003
4391	12.741	0.54545	0.1	1.0672e-003
4392	12.557	0.54545	0.1	7.7068e-004
4393	12.372	0.54545	0.1	4.344e-004
4394	12.188	0.54545	0.1	1.326e-004
4395	12.003	0.54545	0.1	-1.2821e-004
4396	11.819	0.54545	0.1	-2.3582e-004
4397	11.634	0.54545	0.1	4.4149e-004
4398	11.449	0.54545	0.1	0.12982
4399	11.265	0.54545	0.1	1.216
4400	11.08	0.54545	0.1	2.3703
4401	10.896	0.54545	0.1	3.5786
4402	10.711	0.54545	0.1	4.8385
4403	10.527	0.54545	0.1	6.1463
4404	10.342	0.54545	0.1	7.4959
4405	10.157	0.54545	0.1	8.8789
4406	9.9728	0.54545	0.1	10.283
4407	9.7883	0.54545	0.1	11.694
4408	9.6037	0.54545	0.1	13.089
4409	9.4191	0.54545	0.1	14.443
4410	9.2346	0.54545	0.1	15.722
4411	9.05	0.54545	0.1	16.883
4412	8.8654	0.54545	0.1	17.876
4413	8.6809	0.54545	0.1	18.637
4414	8.4963	0.54545	0.1	19.089
4415	8.3117	0.54545	0.1	19.141
4416	8.1272	0.54545	0.1	18.686
4417	7.9426	0.54545	0.1	17.6
4418	7.758	0.54545	0.1	15.74
4419	7.5735	0.54545	0.1	12.951
4420	7.3889	0.54545	0.1	9.0826
4421	7.2043	0.54545	0.1	4.1549
4422	7.0198	0.54545	0.1	0.75118
4423	6.8352	0.54545	0.1	0.32128
4424	6.6506	0.54545	0.1	0.23284
4425	6.466	0.54545	0.1	0.20927
4426	6.2815	0.54545	0.1	0.21398
4427	6.0969	0.54545	0.1	0.23951
4428	5.9123	0.54545	0.1	0.2868
4429	5.7278	0.54545	0.1	0.36201
4430	5.5432	0.54545	0.1	0.47647
4431	5.3586	0.54545	0.1	0.65391
4432	5.1741	0.54545	0.1	0.9256
4433	4.9895	0.54545	0.1	1.4022
4434	4.8049	0.54545	0.1	2.0653
4435	4.6204	0.54545	0.1	3.5816
4436	4.4358	0.54545	0.1	3.1038
4437	4.2512	0.54545	0.1	10.537
4438	23.815	0.72727	0.1	-1.9325e-002
4439	23.631	0.72727	0.1	-0.22057
4440	23.446	0.72727	0.1	-6.1661e-002
4441	23.262	0.72727	0.1	-5.2849e-002
4442	23.077	0.72727	0.1	-2.8283e-002
4443	22.893	0.72727	0.1	-1.8225e-002
4444	22.708	0.72727	0.1	-1.0251e-002
4445	22.523	0.72727	0.1	-5.2338e-003
4446	22.339	0.72727	0.1	-1.7009e-003
4447	22.154	0.72727	0.1	7.3966e-004
4448	21.97	0.72727	0.1	2.447e-003
4449	21.785	0.72727	0.1	3.6401e-003
4450	21.601	0.72727	0.1	4.4664e-003
4451	21.416	0.72727	0.1	5.0257e-003
4452	21.231	0.72727	0.1	5.3979e-003
4453	21.047	0.72727	0.1	5.6367e-003
4454	20.862	0.72727	0.1	5.7615e-003
4455	20.678	0.72727	0.1	5.8201e-003
4456	20.493	0.72727	0.1	5.8305e-003
4457	20.309	0.72727	0.1	5.7954e-003
4458	20.124	0.72727	0.1	5.7278e-003
4459	19.94	0.72727	0.1	5.6432e-003
4460	19.755	0.72727	0.1	5.552e-003
4461	19.57	0.72727	0.1	5.4498e-003
4462	19.386	0.72727	0.1	5.326e-003
4463	19.201	0.72727	0.1	5.2164e-003
4464	19.017	0.72727	0.1	5.1081e-003
4465	18.832	0.72727	0.1	4.9885e-003
4466	18.648	0.72727	0.1	4.8747e-003
4467	18.463	0.72727	0.1	4.7763e-003
4468	18.278	0.72727	0.1	4.6666e-003
4469	18.094	0.72727	0.1	4.5565e-003
4470	17.909	0.72727	0.1	4.4539e-003
4471	17.725	0.72727	0.1	4.3585e-003
4472	17.54	0.72727	0.1	4.2638e-003
4473	17.356	0.72727	0.1	4.1543e-003
4474	17.171	0.72727	0.1	4.0647e-003
4475	16.986	0.72727	0.1	3.9772e-003
4476	16.802	0.72727	0.1	3.891e-003
4477	16.617	0.72727	0.1	3.8044e-003
4478	16.433	0.72727	0.1	3.6988e-003
4479	16.248	0.72727	0.1	3.6109e-003
4480	16.064	0.72727	0.1	3.5295e-003
4481	15.879	0.72727	0.1	3.4296e-003
4482	15.694	0.72727	0.1	3.3368e-003
4483	15.51	0.72727	0.1	3.2624e-003
4484	15.325	0.72727	0.1	3.1649e-003
4485	15.141	0.72727	0.1	3.0614e-003
4486	14.956	0.72727	0.1	2.9604e-003
4487	14.772	0.72727	0.1	2.8689e-003
4488	14.587	0.72727	0.1	2.7694e-003
4489	14.402	0.72727	0.1	2.6435e-003
4490	14.218	0.72727	0.1	2.5393e-003
4491	14.033	0.72727	0.1	2.4449e-003
4492	13.849	0.72727	0.1	2.3272e-003
4493	13.664	0.72727	0.1	2.2247e-003
4494	13.48	0.72727	0.1	2.1578e-003
4495	13.295	0.72727	0.1	2.084e-003
4496	13.11	0.72727	0.1	2.0393e-003
4497	12.926	0.72727	0.1	2.0694e-003
4498	12.741	0.72727	0.1	2.2333e-003
4499	12.557	0.72727	0.1	2.6559e-003
4500	12.372	0.72727	0.1	3.7213e-003
4501	12.188	0.72727	0.1	7.3882e-003
4502	12.003	0.72727	0.1	6.1948e-002
4503	11.819	0.72727	0.1	1.0702
4504	11.634	0.72727	0.1	2.2985
4505	11.449	0.72727	0.1	3.6016
4506	11.265	0.72727	0.1	4.9791
4507	11.08	0.72727	0.1	6.4316
4508	10.896	0.72727	0.1	7.9593
4509	10.711	0.72727	0.1	9.5608
4510	10.527	0.72727	0.1	11.233
4511	10.342	0.72727	0.1	12.971
4512	10.157	0.72727	0.1	14.767
4513	9.9728	0.72727	0.1	16.607
4514	9.7883	0.72727	0.1	18.477
4515	9.6037	0.72727	0.1	20.354
4516	9.4191	0.72727	0.1	22.211
4517	9.2346	0.72727	0.1	24.01
4518	9.05	0.72727	0.1	25.706
4519	8.8654	0.72727	0.1	27.243
4520	8.6809	0.72727	0.1	28.551
4521	8.4963	0.72727	0.1	29.546
4522	8.3117	0.72727	0.1	30.128
4523	8.1272	0.72727	0.1	30.176
4524	7.9426	0.72727	0.1	29.553
4525	7.758	0.72727	0.1	28.099
4526	7.5735	0.72727	0.1	25.634
4527	7.3889	0.72727	0.1	21.966
4528	7.2043	0.72727	0.1	16.904
4529	7.0198	0.72727	0.1	10.358
4530	6.8352	0.72727	0.1	3.4166
4531	6.6506	0.72727	0.1	1.0487
4532	6.466	0.72727	0.1	0.67859
4533	6.2815	0.72727	0.1	0.5876
4534	6.0969	0.72727	0.1	0.58582
4535	5.9123	0.72727	0.1	0.6363
4536	5.7278	0.72727	0.1	0.73288
4537	5.5432	0.72727	0.1	0.87997
4538	5.3586	0.72727	0.1	1.0922
4539	5.1741	0.72727	0.1	1.3783
4540	4.9895	0.72727	0.1	1.7939
4541	4.8049	0.72727	0.1	2.1986
4542	4.6204	0.72727	0.1	3.1934
4543	4.4358	0.72727	0.1	1.5854
4544	4.2512	0.72727	0.1	9.3787
4545	23.815	0.90909	0.1	-7.173e-002
4546	23.631	0.90909	0.1	-0.25552
4547	23.446	0.90909	0.1	-8.8358e-002
4548	23.262	0.90909	0.1	-7.6614e-002
4549	23.077	0.90909	0.1	-4.9497e-002
4550	22.893	0.90909	0.1	-3.7354e-002
4551	22.708	0.90909	0.1	-2.7573e-002
4552	22.523	0.90909	0.1	-2.0964e-002
4553	22.339	0.90909	0.1	-1.6026e-002
4554	22.154	0.90909	0.1	-1.2352e-002
4555	21.97	0.90909	0.1	-9.5497e-003
4556	21.785	0.90909	0.1	-7.3882e-003
4557	21.601	0.90909	0.1	-5.7072e-003
4558	21.416	0.90909	0.1	-4.3838e-003
4559	21.231	0.90909	0.1	-3.3293e-003
4560	21.047	0.90909	0.1	-2.4766e-003
4561	20.862	0.90909	0.1	-1.7979e-003
4562	20.678	0.90909	0.1	-1.2409e-003
4563	20.493	0.90909	0.1	-7.7743e-004
4564	20.309	0.90909	0.1	-4.024e-004
4565	20.124	0.90909	0.1	-9.6549e-005
4566	19.94	0.90909	0.1	1.6441e-004
4567	19.755	0.90909	0.1	3.8613e-004
4568	19.57	0.90909	0.1	5.7096e-004
4569	19.386	0.90909	0.1	7.1395e-004
4570	19.201	0.90909	0.1	8.4721e-004
4571	19.017	0.90909	0.1	9.6349e-004
4572	18.832	0.90909	0.1	1.0523e-003
4573	18.648	0.90909	0.1	1.1318e-003
4574	18.463	0.90909	0.1	1.2131e-003
4575	18.278	0.90909	0.1	1.2723e-003
4576	18.094	0.90909	0.1	1.3202e-003
4577	17.909	0.90909	0.1	1.3628e-003
4578	17.725	0.90909	0.1	1.4072e-003
4579	17.54	0.90909	0.1	1.4427e-003
4580	17.356	0.90909	0.1	1.4561e-003
4581	17.171	0.90909	0.1	1.483e-003
4582	16.986	0.90909	0.1	1.5087e-003
4583	16.802	0.90909	0.1	1.531e-003
4584	16.617	0.90909	0.1	1.5481e-003
4585	16.433	0.90909	0.1	1.544e-003
4586	16.248	0.90909	0.1	1.5575e-003
4587	16.064	0.90909	0.1	1.5762e-003
4588	15.879	0.90909	0.1	1.5733e-003
4589	15.694	0.90909	0.1	1.5774e-003
4590	15.51	0.90909	0.1	1.6032e-003
4591	15.325	0.90909	0.1	1.6063e-003
4592	15.141	0.90909	0.1	1.6077e-003
4593	14.956	0.90909	0.1	1.6216e-003
4594	14.772	0.90909	0.1	1.6463e-003
4595	14.587	0.90909	0.1	1.6702e-003
4596	14.402	0.90909	0.1	1.682e-003
4597	14.218	0.90909	0.1	1.7309e-003
4598	14.033	0.90909	0.1	1.8108e-003
4599	13.849	0.90909	0.1	1.8973e-003
4600	13.664	0.90909	0.1	2.0395e-003
4601	13.48	0.90909	0.1	2.2842e-003
4602	13.295	0.90909	0.1	2.6289e-003
4603	13.11	0.90909	0.1	3.1967e-003
4604	12.926	0.90909	0.1	4.2441e-003
4605	12.741	0.90909	0.1	6.4968e-003
4606	12.557	0.90909	0.1	1.3547e-002
4607	12.372	0.90909	0.1	0.14037
4608	12.188	0.90909	0.1	1.2582
4609	12.003	0.90909	0.1	2.5533
4610	11.819	0.90909	0.1	3.935
4611	11.634	0.90909	0.1	5.4045
4612	11.449	0.90909	0.1	6.965
4613	11.265	0.90909	0.1	8.6203
4614	11.08	0.90909	0.1	10.373
4615	10.896	0.90909	0.1	12.225
4616	10.711	0.90909	0.1	14.176
4617	10.527	0.90909	0.1	16.227
4618	10.342	0.90909	0.1	18.372
4619	10.157	0.90909	0.1	20.606
4620	9.9728	0.90909	0.1	22.919
4621	9.7883	0.90909	0.1	25.295
4622	9.6037	0.90909	0.1	27.716
4623	9.4191	0.90909	0.1	30.155
4624	9.2346	0.90909	0.1	32.577
4625	9.05	0.90909	0.1	34.938
4626	8.8654	0.90909	0.1	37.182
4627	8.6809	0.90909	0.1	39.24
4628	8.4963	0.90909	0.1	41.03
4629	8.3117	0.90909	0.1	42.45
4630	8.1272	0.90909	0.1	43.38
4631	7.9426	0.90909	0.1	43.679
4632	7.758	0.90909	0.1	43.184
4633	7.5735	0.90909	0.1	41.708
4634	7.3889	0.90909	0.1	39.046
4635	7.2043	0.90909	0.1	34.972
4636	7.0198	0.90909	0.1	29.257
4637	6.8352	0.90909	0.1	21.717
4638	6.6506	0.90909	0.1	12.497
4639	6.466	0.90909	0.1	4.3885
4640	6.2815	0.90909	0.1	1.9715
4641	6.0969	0.90909	0.1	1.4454
4642	5.9123	0.90909	0.1	1.3084
4643	5.7278	0.90909	0.1	1.3189
4644	5.5432	0.90909	0.1	1.4172
4645	5.3586	0.90909	0.1	1.5896
4646	5.1741	0.90909	0.1	1.8197
4647	4.9895	0.90909	0.1	2.1524
4648	4.8049	0.90909	0.1	2.3756
4649	4.6204	0.90909	0.1	3.1487
4650	4.4358	0.90909	0.1	1.0308
4651	4.2512	0.90909	0.1	9.3653
4652	23.815	1.0909	0.1	-0.10459
4653	23.631	1.0909	0.1	-0.27588
4654	23.446	1.0909	0.1	-0.1037
4655	23.262	1.0909	0.1	-9.0502e-002
4656	23.077	1.0909	0.1	-6.2064e-002
4657	22.893	1.0909	0.1	-4.8963e-002
4658	22.708	1.0909	0.1	-3.8312e-002
4659	22.523	1.0909	0.1	-3.0912e-002
4660	22.339	1.0909	0.1	-2.5247e-002
4661	22.154	1.0909	0.1	-2.0911e-002
4662	21.97	1.0909	0.1	-1.7504e-002
4663	21.785	1.0909	0.1	-1.4796e-002
4664	21.601	1.0909	0.1	-1.2614e-002
4665	21.416	1.0909	0.1	-1.0838e-002
4666	21.231	1.0909	0.1	-9.371e-003
4667	21.047	1.0909	0.1	-8.1472e-003
4668	20.862	1.0909	0.1	-7.1268e-003
4669	20.678	1.0909	0.1	-6.2589e-003
4670	20.493	1.0909	0.1	-5.5124e-003
4671	20.309	1.0909	0.1	-4.8768e-003
4672	20.124	1.0909	0.1	-4.3298e-003
4673	19.94	1.0909	0.1	-3.8507e-003
4674	19.755	1.0909	0.1	-3.4265e-003
4675	19.57	1.0909	0.1	-3.0554e-003
4676	19.386	1.0909	0.1	-2.7337e-003
4677	19.201	1.0909	0.1	-2.4414e-003
4678	19.017	1.0909	0.1	-2.1759e-003
4679	18.832	1.0909	0.1	-1.9451e-003
4680	18.648	1.0909	0.1	-1.7359e-003
4681	18.463	1.0909	0.1	-1.5317e-003
4682	18.278	1.0909	0.1	-1.3595e-003
4683	18.094	1.0909	0.1	-1.2045e-003
4684	17.909	1.0909	0.1	-1.06e-003
4685	17.725	1.0909	0.1	-9.2075e-004
4686	17.54	1.0909	0.1	-7.9457e-004
4687	17.356	1.0909	0.1	-6.9507e-004
4688	17.171	1.0909	0.1	-5.8568e-004
4689	16.986	1.0909	0.1	-4.8032e-004
4690	16.802	1.0909	0.1	-3.8408e-004
4691	16.617	1.0909	0.1	-2.92e-004
4692	16.433	1.0909	0.1	-2.2332e-004
4693	16.248	1.0909	0.1	-1.3971e-004
4694	16.064	1.0909	0.1	-5.2864e-005
4695	15.879	1.0909	0.1	1.5351e-005
4696	15.694	1.0909	0.1	9.1562e-005
4697	15.51	1.0909	0.1	1.8755e-004
4698	15.325	1.0909	0.1	2.6638e-004
4699	15.141	1.0909	0.1	3.4512e-004
4700	14.956	1.0909	0.1	4.4036e-004
4701	14.772	1.0909	0.1	5.5511e-004
4702	14.587	1.0909	0.1	6.8224e-004
4703	14.402	1.0909	0.1	8.088e-004
4704	14.218	1.0909	0.1	9.9253e-004
4705	14.033	1.0909	0.1	1.2375e-003
4706	13.849	1.0909	0.1	1.5363e-003
4707	13.664	1.0909	0.1	1.9729e-003
4708	13.48	1.0909	0.1	2.6536e-003
4709	13.295	1.0909	0.1	3.7321e-003
4710	13.11	1.0909	0.1	5.786e-003
4711	12.926	1.0909	0.1	1.1039e-002
4712	12.741	1.0909	0.1	4.4628e-002
4713	12.557	1.0909	0.1	0.86898
4714	12.372	1.0909	0.1	2.174
4715	12.188	1.0909	0.1	3.5761
4716	12.003	1.0909	0.1	5.0731
4717	11.819	1.0909	0.1	6.6699
4718	11.634	1.0909	0.1	8.3722
4719	11.449	1.0909	0.1	10.186
4720	11.265	1.0909	0.1	12.116
4721	11.08	1.0909	0.1	14.168
4722	10.896	1.0909	0.1	16.345
4723	10.711	1.0909	0.1	18.652
4724	10.527	1.0909	0.1	21.089
4725	10.342	1.0909	0.1	23.655
4726	10.157	1.0909	0.1	26.349
4727	9.9728	1.0909	0.1	29.163
4728	9.7883	1.0909	0.1	32.087
4729	9.6037	1.0909	0.1	35.105
4730	9.4191	1.0909	0.1	38.197
4731	9.2346	1.0909	0.1	41.332
4732	9.05	1.0909	0.1	44.473
4733	8.8654	1.0909	0.1	47.57
4734	8.6809	1.0909	0.1	50.562
4735	8.4963	1.0909	0.1	53.373
4736	8.3117	1.0909	0.1	55.911
4737	8.1272	1.0909	0.1	58.064
4738	7.9426	1.0909	0.1	59.699
4739	7.758	1.0909	0.1	60.663
4740	7.5735	1.0909	0.1	60.775
4741	7.3889	1.0909	0.1	59.831
4742	7.2043	1.0909	0.1	57.599
4743	7.0198	1.0909	0.1	53.824
4744	6.8352	1.0909	0.1	48.222
4745	6.6506	1.0909	0.1	40.503
4746	6.466	1.0909	0.1	30.43
4747	6.2815	1.0909	0.1	18.266
4748	6.0969	1.0909	0.1	7.6192
4749	5.9123	1.0909	0.1	3.7969
4750	5.7278	1.0909	0.1	2.7748
4751	5.5432	1.0909	0.1	2.4331
4752	5.3586	1.0909	0.1	2.3453
4753	5.1741	1.0909	0.1	2.3887
4754	4.9895	1.0909	0.1	2.5911
4755	4.8049	1.0909	0.1	2.6509
4756	4.6204	1.0909	0.1	3.6777
4757	4.4358	1.0909	0.1	0.57539
4758	4.2512	1.0909	0.1	11.824
4759	23.815	1.2727	0.1	-0.1303
4760	23.631	1.2727	0.1	-0.29116
4761	23.446	1.2727	0.1	-0.1151
4762	23.262	1.2727	0.1	-0.10074
4763	23.077	1.2727	0.1	-7.1403e-002
4764	22.893	1.2727	0.1	-5.7677e-002
4765	22.708	1.2727	0.1	-4.6481e-002
4766	22.523	1.2727	0.1	-3.8594e-002
4767	22.339	1.2727	0.1	-3.2478e-002
4768	22.154	1.2727	0.1	-2.7713e-002
4769	21.97	1.2727	0.1	-2.3911e-002
4770	21.785	1.2727	0.1	-2.0827e-002
4771	21.601	1.2727	0.1	-1.83e-002
4772	21.416	1.2727	0.1	-1.6206e-002
4773	21.231	1.2727	0.1	-1.4443e-002
4774	21.047	1.2727	0.1	-1.2948e-002
4775	20.862	1.2727	0.1	-1.1675e-002
4776	20.678	1.2727	0.1	-1.0576e-002
4777	20.493	1.2727	0.1	-9.6132e-003
4778	20.309	1.2727	0.1	-8.7795e-003
4779	20.124	1.2727	0.1	-8.0468e-003
4780	19.94	1.2727	0.1	-7.3955e-003
4781	19.755	1.2727	0.1	-6.813e-003
4782	19.57	1.2727	0.1	-6.2925e-003
4783	19.386	1.2727	0.1	-5.8344e-003
4784	19.201	1.2727	0.1	-5.4125e-003
4785	19.017	1.2727	0.1	-5.0252e-003
4786	18.832	1.2727	0.1	-4.6822e-003
4787	18.648	1.2727	0.1	-4.367e-003
4788	18.463	1.2727	0.1	-4.0638e-003
4789	18.278	1.2727	0.1	-3.7965e-003
4790	18.094	1.2727	0.1	-3.553e-003
4791	17.909	1.2727	0.1	-3.324e-003
4792	17.725	1.2727	0.1	-3.1049e-003
4793	17.54	1.2727	0.1	-2.9046e-003
4794	17.356	1.2727	0.1	-2.7312e-003
4795	17.171	1.2727	0.1	-2.5538e-003
4796	16.986	1.2727	0.1	-2.3825e-003
4797	16.802	1.2727	0.1	-2.2195e-003
4798	16.617	1.2727	0.1	-2.0662e-003
4799	16.433	1.2727	0.1	-1.937e-003
4800	16.248	1.2727	0.1	-1.7934e-003
4801	16.064	1.2727	0.1	-1.6472e-003
4802	15.879	1.2727	0.1	-1.5199e-003
4803	15.694	1.2727	0.1	-1.385e-003
4804	15.51	1.2727	0.1	-1.2269e-003
4805	15.325	1.2727	0.1	-1.0836e-003
4806	15.141	1.2727	0.1	-9.3743e-004
4807	14.956	1.2727	0.1	-7.6977e-004
4808	14.772	1.2727	0.1	-5.7505e-004
4809	14.587	1.2727	0.1	-3.578e-004
4810	14.402	1.2727	0.1	-1.2378e-004
4811	14.218	1.2727	0.1	1.9378e-004
4812	14.033	1.2727	0.1	6.1457e-004
4813	13.849	1.2727	0.1	1.1659e-003
4814	13.664	1.2727	0.1	2.0011e-003
4815	13.48	1.2727	0.1	3.4176e-003
4816	13.295	1.2727	0.1	6.2052e-003
4817	13.11	1.2727	0.1	1.4535e-002
4818	12.926	1.2727	0.1	0.15151
4819	12.741	1.2727	0.1	1.3293
4820	12.557	1.2727	0.1	2.7065
4821	12.372	1.2727	0.1	4.1822
4822	12.188	1.2727	0.1	5.7601
4823	12.003	1.2727	0.1	7.447
4824	11.819	1.2727	0.1	9.2503
4825	11.634	1.2727	0.1	11.178
4826	11.449	1.2727	0.1	13.237
4827	11.265	1.2727	0.1	15.437
4828	11.08	1.2727	0.1	17.783
4829	10.896	1.2727	0.1	20.284
4830	10.711	1.2727	0.1	22.945
4831	10.527	1.2727	0.1	25.772
4832	10.342	1.2727	0.1	28.767
4833	10.157	1.2727	0.1	31.934
4834	9.9728	1.2727	0.1	35.269
4835	9.7883	1.2727	0.1	38.77
4836	9.6037	1.2727	0.1	42.427
4837	9.4191	1.2727	0.1	46.226
4838	9.2346	1.2727	0.1	50.147
4839	9.05	1.2727	0.1	54.161
4840	8.8654	1.2727	0.1	58.232
4841	8.6809	1.2727	0.1	62.308
4842	8.4963	1.2727	0.1	66.33
4843	8.3117	1.2727	0.1	70.219
4844	8.1272	1.2727	0.1	73.881
4845	7.9426	1.2727	0.1	77.202
4846	7.758	1.2727	0.1	80.045
4847	7.5735	1.2727	0.1	82.249
4848	7.3889	1.2727	0.1	83.624
4849	7.2043	1.2727	0.1	83.95
4850	7.0198	1.2727	0.1	82.967
4851	6.8352	1.2727	0.1	80.37
4852	6.6506	1.2727	0.1	75.786
4853	6.466	1.2727	0.1	68.755
4854	6.2815	1.2727	0.1	58.693
4855	6.0969	1.2727	0.1	44.921
4856	5.9123	1.2727	0.1	27.296
4857	5.7278	1.2727	0.1	11.244
4858	5.5432	1.2727	0.1	5.487
4859	5.3586	1.2727	0.1	3.8756
4860	5.1741	1.2727	0.1	3.2974
4861	4.9895	1.2727	0.1	3.1749
4862	4.8049	1.2727	0.1	3.3143
4863	4.6204	1.2727	0.1	4.2156
4864	4.4358	1.2727	0.1	1.0157
4865	4.2512	1.2727	0.1	9.9418
4866	23.815	1.4545	0.1	-0.15004
4867	23.631	1.4545	0.1	-0.30233
4868	23.446	1.4545	0.1	-0.12328
4869	23.262	1.4545	0.1	-0.10808
4870	23.077	1.4545	0.1	-7.809e-002
4871	22.893	1.4545	0.1	-6.3948e-002
4872	22.708	1.4545	0.1	-5.2417e-002
4873	22.523	1.4545	0.1	-4.4239e-002
4874	22.339	1.4545	0.1	-3.7852e-002
4875	22.154	1.4545	0.1	-3.2833e-002
4876	21.97	1.4545	0.1	-2.8783e-002
4877	21.785	1.4545	0.1	-2.5469e-002
4878	21.601	1.4545	0.1	-2.2718e-002
4879	21.416	1.4545	0.1	-2.0413e-002
4880	21.231	1.4545	0.1	-1.8455e-002
4881	21.047	1.4545	0.1	-1.6766e-002
4882	20.862	1.4545	0.1	-1.5325e-002
4883	20.678	1.4545	0.1	-1.4064e-002
4884	20.493	1.4545	0.1	-1.295e-002
4885	20.309	1.4545	0.1	-1.1972e-002
4886	20.124	1.4545	0.1	-1.1107e-002
4887	19.94	1.4545	0.1	-1.0332e-002
4888	19.755	1.4545	0.1	-9.6329e-003
4889	19.57	1.4545	0.1	-9.0041e-003
4890	19.386	1.4545	0.1	-8.4435e-003
4891	19.201	1.4545	0.1	-7.9266e-003
4892	19.017	1.4545	0.1	-7.4482e-003
4893	18.832	1.4545	0.1	-7.0216e-003
4894	18.648	1.4545	0.1	-6.6239e-003
4895	18.463	1.4545	0.1	-6.2454e-003
4896	18.278	1.4545	0.1	-5.9079e-003
4897	18.094	1.4545	0.1	-5.5969e-003
4898	17.909	1.4545	0.1	-5.3038e-003
4899	17.725	1.4545	0.1	-5.0249e-003
4900	17.54	1.4545	0.1	-4.7654e-003
4901	17.356	1.4545	0.1	-4.5373e-003
4902	17.171	1.4545	0.1	-4.306e-003
4903	16.986	1.4545	0.1	-4.0847e-003
4904	16.802	1.4545	0.1	-3.8717e-003
4905	16.617	1.4545	0.1	-3.671e-003
4906	16.433	1.4545	0.1	-3.495e-003
4907	16.248	1.4545	0.1	-3.3068e-003
4908	16.064	1.4545	0.1	-3.1154e-003
4909	15.879	1.4545	0.1	-2.9424e-003
4910	15.694	1.4545	0.1	-2.7628e-003
4911	15.51	1.4545	0.1	-2.5577e-003
4912	15.325	1.4545	0.1	-2.3673e-003
4913	15.141	1.4545	0.1	-2.1713e-003
4914	14.956	1.4545	0.1	-1.9491e-003
4915	14.772	1.4545	0.1	-1.692e-003
4916	14.587	1.4545	0.1	-1.403e-003
4917	14.402	1.4545	0.1	-1.0786e-003
4918	14.218	1.4545	0.1	-6.4156e-004
4919	14.033	1.4545	0.1	-4.5994e-005
4920	13.849	1.4545	0.1	7.9457e-004
4921	13.664	1.4545	0.1	2.1949e-003
4922	13.48	1.4545	0.1	5.0443e-003
4923	13.295	1.4545	0.1	1.3921e-002
4924	13.11	1.4545	0.1	0.21842
4925	12.926	1.4545	0.1	1.4784
4926	12.741	1.4545	0.1	2.8974
4927	12.557	1.4545	0.1	4.4182
4928	12.372	1.4545	0.1	6.0457
4929	12.188	1.4545	0.1	7.7882
4930	12.003	1.4545	0.1	9.6546
4931	11.819	1.4545	0.1	11.654
4932	11.634	1.4545	0.1	13.797
4933	11.449	1.4545	0.1	16.093
4934	11.265	1.4545	0.1	18.551
4935	11.08	1.4545	0.1	21.184
4936	10.896	1.4545	0.1	24.
4937	10.711	1.4545	0.1	27.01
4938	10.527	1.4545	0.1	30.222
4939	10.342	1.4545	0.1	33.646
4940	10.157	1.4545	0.1	37.288
4941	9.9728	1.4545	0.1	41.154
4942	9.7883	1.4545	0.1	45.247
4943	9.6037	1.4545	0.1	49.567
4944	9.4191	1.4545	0.1	54.108
4945	9.2346	1.4545	0.1	58.864
4946	9.05	1.4545	0.1	63.817
4947	8.8654	1.4545	0.1	68.945
4948	8.6809	1.4545	0.1	74.216
4949	8.4963	1.4545	0.1	79.588
4950	8.3117	1.4545	0.1	85.003
4951	8.1272	1.4545	0.1	90.391
4952	7.9426	1.4545	0.1	95.662
4953	7.758	1.4545	0.1	100.71
4954	7.5735	1.4545	0.1	105.39
4955	7.3889	1.4545	0.1	109.55
4956	7.2043	1.4545	0.1	112.99
4957	7.0198	1.4545	0.1	115.47
4958	6.8352	1.4545	0.1	116.67
4959	6.6506	1.4545	0.1	116.21
4960	6.466	1.4545	0.1	113.57
4961	6.2815	1.4545	0.1	107.98
4962	6.0969	1.4545	0.1	98.378
4963	5.9123	1.4545	0.1	83.131
4964	5.7278	1.4545	0.1	60.041
4965	5.5432	1.4545	0.1	28.972
4966	5.3586	1.4545	0.1	9.4537
4967	5.1741	1.4545	0.1	5.2543
4968	4.9895	1.4545	0.1	4.2666
4969	4.8049	1.4545	0.1	4.2684
4970	4.6204	1.4545	0.1	4.7487
4971	4.4358	1.4545	0.1	2.1905
4972	4.2512	1.4545	0.1	31.932
4973	23.815	1.6364	0.1	-0.16577
4974	23.631	1.6364	0.1	-0.3109
4975	23.446	1.6364	0.1	-0.12947
4976	23.262	1.6364	0.1	-0.1136
4977	23.077	1.6364	0.1	-8.3105e-002
4978	22.893	1.6364	0.1	-6.8655e-002
4979	22.708	1.6364	0.1	-5.6891e-002
4980	22.523	1.6364	0.1	-4.8522e-002
4981	22.339	1.6364	0.1	-4.1964e-002
4982	22.154	1.6364	0.1	-3.6783e-002
4983	21.97	1.6364	0.1	-3.2577e-002
4984	21.785	1.6364	0.1	-2.9115e-002
4985	21.601	1.6364	0.1	-2.6217e-002
4986	21.416	1.6364	0.1	-2.3772e-002
4987	21.231	1.6364	0.1	-2.1677e-002
4988	21.047	1.6364	0.1	-1.9867e-002
4989	20.862	1.6364	0.1	-1.8297e-002
4990	20.678	1.6364	0.1	-1.6918e-002
4991	20.493	1.6364	0.1	-1.5693e-002
4992	20.309	1.6364	0.1	-1.4615e-002
4993	20.124	1.6364	0.1	-1.3652e-002
4994	19.94	1.6364	0.1	-1.2786e-002
4995	19.755	1.6364	0.1	-1.1998e-002
4996	19.57	1.6364	0.1	-1.1289e-002
4997	19.386	1.6364	0.1	-1.0651e-002
4998	19.201	1.6364	0.1	-1.0061e-002
4999	19.017	1.6364	0.1	-9.5159e-003
5000	18.832	1.6364	0.1	-9.0246e-003
5001	18.648	1.6364	0.1	-8.5676e-003
5002	18.463	1.6364	0.1	-8.1325e-003
5003	18.278	1.6364	0.1	-7.7395e-003
5004	18.094	1.6364	0.1	-7.3778e-003
5005	17.909	1.6364	0.1	-7.0357e-003
5006	17.725	1.6364	0.1	-6.709e-003
5007	17.54	1.6364	0.1	-6.4059e-003
5008	17.356	1.6364	0.1	-6.1354e-003
5009	17.171	1.6364	0.1	-5.8638e-003
5010	16.986	1.6364	0.1	-5.603e-003
5011	16.802	1.6364	0.1	-5.3534e-003
5012	16.617	1.6364	0.1	-5.1163e-003
5013	16.433	1.6364	0.1	-4.9064e-003
5014	16.248	1.6364	0.1	-4.6829e-003
5015	16.064	1.6364	0.1	-4.4583e-003
5016	15.879	1.6364	0.1	-4.2534e-003
5017	15.694	1.6364	0.1	-4.0406e-003
5018	15.51	1.6364	0.1	-3.8039e-003
5019	15.325	1.6364	0.1	-3.58e-003
5020	15.141	1.6364	0.1	-3.3488e-003
5021	14.956	1.6364	0.1	-3.0889e-003
5022	14.772	1.6364	0.1	-2.7919e-003
5023	14.587	1.6364	0.1	-2.4505e-003
5024	14.402	1.6364	0.1	-2.0614e-003
5025	14.218	1.6364	0.1	-1.5277e-003
5026	14.033	1.6364	0.1	-7.6929e-004
5027	13.849	1.6364	0.1	3.9841e-004
5028	13.664	1.6364	0.1	2.664e-003
5029	13.48	1.6364	0.1	9.2251e-003
5030	13.295	1.6364	0.1	0.12347
5031	13.11	1.6364	0.1	1.353
5032	12.926	1.6364	0.1	2.7902
5033	12.741	1.6364	0.1	4.3307
5034	12.557	1.6364	0.1	5.9803
5035	12.372	1.6364	0.1	7.7477
5036	12.188	1.6364	0.1	9.643
5037	12.003	1.6364	0.1	11.677
5038	11.819	1.6364	0.1	13.86
5039	11.634	1.6364	0.1	16.205
5040	11.449	1.6364	0.1	18.723
5041	11.265	1.6364	0.1	21.428
5042	11.08	1.6364	0.1	24.332
5043	10.896	1.6364	0.1	27.45
5044	10.711	1.6364	0.1	30.796
5045	10.527	1.6364	0.1	34.382
5046	10.342	1.6364	0.1	38.224
5047	10.157	1.6364	0.1	42.334
5048	9.9728	1.6364	0.1	46.726
5049	9.7883	1.6364	0.1	51.41
5050	9.6037	1.6364	0.1	56.396
5051	9.4191	1.6364	0.1	61.692
5052	9.2346	1.6364	0.1	67.301
5053	9.05	1.6364	0.1	73.224
5054	8.8654	1.6364	0.1	79.455
5055	8.6809	1.6364	0.1	85.982
5056	8.4963	1.6364	0.1	92.784
5057	8.3117	1.6364	0.1	99.83
5058	8.1272	1.6364	0.1	107.08
5059	7.9426	1.6364	0.1	114.47
5060	7.758	1.6364	0.1	121.92
5061	7.5735	1.6364	0.1	129.34
5062	7.3889	1.6364	0.1	136.6
5063	7.2043	1.6364	0.1	143.53
5064	7.0198	1.6364	0.1	149.91
5065	6.8352	1.6364	0.1	155.47
5066	6.6506	1.6364	0.1	159.81
5067	6.466	1.6364	0.1	162.42
5068	6.2815	1.6364	0.1	162.5
5069	6.0969	1.6364	0.1	158.87
5070	5.9123	1.6364	0.1	149.73
5071	5.7278	1.6364	0.1	132.19
5072	5.5432	1.6364	0.1	101.82
5073	5.3586	1.6364	0.1	53.941
5074	5.1741	1.6364	0.1	13.497
5075	4.9895	1.6364	0.1	6.9155
5076	4.8049	1.6364	0.1	3.4853
5077	4.6204	1.6364	0.1	14.491
5078	4.4358	1.6364	0.1	-2.9539
5079	4.2512	1.6364	0.1	-14.724
5080	23.815	1.8182	0.1	-0.17834
5081	23.631	1.8182	0.1	-0.3175
5082	23.446	1.8182	0.1	-0.1342
5083	23.262	1.8182	0.1	-0.11779
5084	23.077	1.8182	0.1	-8.6894e-002
5085	22.893	1.8182	0.1	-7.221e-002
5086	22.708	1.8182	0.1	-6.027e-002
5087	22.523	1.8182	0.1	-5.1774e-002
5088	22.339	1.8182	0.1	-4.5102e-002
5089	22.154	1.8182	0.1	-3.9819e-002
5090	21.97	1.8182	0.1	-3.5516e-002
5091	21.785	1.8182	0.1	-3.1955e-002
5092	21.601	1.8182	0.1	-2.8963e-002
5093	21.416	1.8182	0.1	-2.6426e-002
5094	21.231	1.8182	0.1	-2.424e-002
5095	21.047	1.8182	0.1	-2.2342e-002
5096	20.862	1.8182	0.1	-2.0687e-002
5097	20.678	1.8182	0.1	-1.9228e-002
5098	20.493	1.8182	0.1	-1.7924e-002
5099	20.309	1.8182	0.1	-1.6771e-002
5100	20.124	1.8182	0.1	-1.5738e-002
5101	19.94	1.8182	0.1	-1.4804e-002
5102	19.755	1.8182	0.1	-1.3953e-002
5103	19.57	1.8182	0.1	-1.3184e-002
5104	19.386	1.8182	0.1	-1.2491e-002
5105	19.201	1.8182	0.1	-1.1847e-002
5106	19.017	1.8182	0.1	-1.1251e-002
5107	18.832	1.8182	0.1	-1.0711e-002
5108	18.648	1.8182	0.1	-1.021e-002
5109	18.463	1.8182	0.1	-9.7312e-003
5110	18.278	1.8182	0.1	-9.2966e-003
5111	18.094	1.8182	0.1	-8.8982e-003
5112	17.909	1.8182	0.1	-8.5195e-003
5113	17.725	1.8182	0.1	-8.1589e-003
5114	17.54	1.8182	0.1	-7.822e-003
5115	17.356	1.8182	0.1	-7.5202e-003
5116	17.171	1.8182	0.1	-7.2182e-003
5117	16.986	1.8182	0.1	-6.9293e-003
5118	16.802	1.8182	0.1	-6.6538e-003
5119	16.617	1.8182	0.1	-6.3903e-003
5120	16.433	1.8182	0.1	-6.1541e-003
5121	16.248	1.8182	0.1	-5.9087e-003
5122	16.064	1.8182	0.1	-5.6613e-003
5123	15.879	1.8182	0.1	-5.4346e-003
5124	15.694	1.8182	0.1	-5.2004e-003
5125	15.51	1.8182	0.1	-4.9439e-003
5126	15.325	1.8182	0.1	-4.7014e-003
5127	15.141	1.8182	0.1	-4.4497e-003
5128	14.956	1.8182	0.1	-4.1708e-003
5129	14.772	1.8182	0.1	-3.8502e-003
5130	14.587	1.8182	0.1	-3.4847e-003
5131	14.402	1.8182	0.1	-3.0589e-003
5132	14.218	1.8182	0.1	-2.4633e-003
5133	14.033	1.8182	0.1	-1.5736e-003
5134	13.849	1.8182	0.1	-4.5886e-005
5135	13.664	1.8182	0.1	3.7024e-003
5136	13.48	1.8182	0.1	3.0457e-002
5137	13.295	1.8182	0.1	0.99227
5138	13.11	1.8182	0.1	2.4268
5139	12.926	1.8182	0.1	3.9656
5140	12.741	1.8182	0.1	5.6133
5141	12.557	1.8182	0.1	7.3791
5142	12.372	1.8182	0.1	9.2735
5143	12.188	1.8182	0.1	11.308
5144	12.003	1.8182	0.1	13.495
5145	11.819	1.8182	0.1	15.846
5146	11.634	1.8182	0.1	18.377
5147	11.449	1.8182	0.1	21.1
5148	11.265	1.8182	0.1	24.033
5149	11.08	1.8182	0.1	27.191
5150	10.896	1.8182	0.1	30.591
5151	10.711	1.8182	0.1	34.252
5152	10.527	1.8182	0.1	38.192
5153	10.342	1.8182	0.1	42.431
5154	10.157	1.8182	0.1	46.989
5155	9.9728	1.8182	0.1	51.885
5156	9.7883	1.8182	0.1	57.142
5157	9.6037	1.8182	0.1	62.778
5158	9.4191	1.8182	0.1	68.813
5159	9.2346	1.8182	0.1	75.266
5160	9.05	1.8182	0.1	82.152
5161	8.8654	1.8182	0.1	89.485
5162	8.6809	1.8182	0.1	97.275
5163	8.4963	1.8182	0.1	105.53
5164	8.3117	1.8182	0.1	114.23
5165	8.1272	1.8182	0.1	123.38
5166	7.9426	1.8182	0.1	132.95
5167	7.758	1.8182	0.1	142.9
5168	7.5735	1.8182	0.1	153.16
5169	7.3889	1.8182	0.1	163.65
5170	7.2043	1.8182	0.1	174.24
5171	7.0198	1.8182	0.1	184.75
5172	6.8352	1.8182	0.1	194.93
5173	6.6506	1.8182	0.1	204.43
5174	6.466	1.8182	0.1	212.74
5175	6.2815	1.8182	0.1	219.1
5176	6.0969	1.8182	0.1	222.38
5177	5.9123	1.8182	0.1	220.82
5178	5.7278	1.8182	0.1	211.68
5179	5.5432	1.8182	0.1	190.56
5180	5.3586	1.8182	0.1	150.54
5181	5.1741	1.8182	0.1	82.45
5182	4.9895	1.8182	0.1	17.206
5183	4.8049	1.8182	0.1	6.8474
5184	4.6204	1.8182	0.1	10.137
5185	4.4358	1.8182	0.1	-11.713
5186	4.2512	1.8182	0.1	189.67
5187	23.815	2.	0.1	-0.18839
5188	23.631	2.	0.1	-0.32263
5189	23.446	2.	0.1	-0.13783
5190	23.262	2.	0.1	-0.12099
5191	23.077	2.	0.1	-8.9784e-002
5192	22.893	2.	0.1	-7.4912e-002
5193	22.708	2.	0.1	-6.2842e-002
5194	22.523	2.	0.1	-5.4247e-002
5195	22.339	2.	0.1	-4.7499e-002
5196	22.154	2.	0.1	-4.215e-002
5197	21.97	2.	0.1	-3.7783e-002
5198	21.785	2.	0.1	-3.4161e-002
5199	21.601	2.	0.1	-3.111e-002
5200	21.416	2.	0.1	-2.8511e-002
5201	21.231	2.	0.1	-2.6265e-002
5202	21.047	2.	0.1	-2.4308e-002
5203	20.862	2.	0.1	-2.2593e-002
5204	20.678	2.	0.1	-2.1077e-002
5205	20.493	2.	0.1	-1.9718e-002
5206	20.309	2.	0.1	-1.8509e-002
5207	20.124	2.	0.1	-1.7428e-002
5208	19.94	2.	0.1	-1.6445e-002
5209	19.755	2.	0.1	-1.5549e-002
5210	19.57	2.	0.1	-1.4734e-002
5211	19.386	2.	0.1	-1.4e-002
5212	19.201	2.	0.1	-1.3317e-002
5213	19.017	2.	0.1	-1.2683e-002
5214	18.832	2.	0.1	-1.211e-002
5215	18.648	2.	0.1	-1.1574e-002
5216	18.463	2.	0.1	-1.1063e-002
5217	18.278	2.	0.1	-1.0602e-002
5218	18.094	2.	0.1	-1.0173e-002
5219	17.909	2.	0.1	-9.7677e-003
5220	17.725	2.	0.1	-9.3804e-003
5221	17.54	2.	0.1	-9.0205e-003
5222	17.356	2.	0.1	-8.6969e-003
5223	17.171	2.	0.1	-8.3732e-003
5224	16.986	2.	0.1	-8.064e-003
5225	16.802	2.	0.1	-7.7681e-003
5226	16.617	2.	0.1	-7.4879e-003
5227	16.433	2.	0.1	-7.2357e-003
5228	16.248	2.	0.1	-6.9735e-003
5229	16.064	2.	0.1	-6.7109e-003
5230	15.879	2.	0.1	-6.4717e-003
5231	15.694	2.	0.1	-6.2267e-003
5232	15.51	2.	0.1	-5.9599e-003
5233	15.325	2.	0.1	-5.7086e-003
5234	15.141	2.	0.1	-5.4515e-003
5235	14.956	2.	0.1	-5.1677e-003
5236	14.772	2.	0.1	-4.8457e-003
5237	14.587	2.	0.1	-4.4791e-003
5238	14.402	2.	0.1	-4.0496e-003
5239	14.218	2.	0.1	-3.4367e-003
5240	14.033	2.	0.1	-2.4735e-003
5241	13.849	2.	0.1	-5.802e-004
5242	13.664	2.	0.1	6.3222e-003
5243	13.48	2.	0.1	0.43956
5244	13.295	2.	0.1	1.8472
5245	13.11	2.	0.1	3.3664
5246	12.926	2.	0.1	4.9923
5247	12.741	2.	0.1	6.7341
5248	12.557	2.	0.1	8.6027
5249	12.372	2.	0.1	10.61
5250	12.188	2.	0.1	12.768
5251	12.003	2.	0.1	15.09
5252	11.819	2.	0.1	17.592
5253	11.634	2.	0.1	20.289
5254	11.449	2.	0.1	23.197
5255	11.265	2.	0.1	26.335
5256	11.08	2.	0.1	29.723
5257	10.896	2.	0.1	33.38
5258	10.711	2.	0.1	37.328
5259	10.527	2.	0.1	41.592
5260	10.342	2.	0.1	46.197
5261	10.157	2.	0.1	51.168
5262	9.9728	2.	0.1	56.535
5263	9.7883	2.	0.1	62.326
5264	9.6037	2.	0.1	68.572
5265	9.4191	2.	0.1	75.305
5266	9.2346	2.	0.1	82.558
5267	9.05	2.	0.1	90.363
5268	8.8654	2.	0.1	98.752
5269	8.6809	2.	0.1	107.76
5270	8.4963	2.	0.1	117.41
5271	8.3117	2.	0.1	127.73
5272	8.1272	2.	0.1	138.73
5273	7.9426	2.	0.1	150.43
5274	7.758	2.	0.1	162.82
5275	7.5735	2.	0.1	175.89
5276	7.3889	2.	0.1	189.57
5277	7.2043	2.	0.1	203.78
5278	7.0198	2.	0.1	218.38
5279	6.8352	2.	0.1	233.16
5280	6.6506	2.	0.1	247.81
5281	6.466	2.	0.1	261.83
5282	6.2815	2.	0.1	274.51
5283	6.0969	2.	0.1	284.79
5284	5.9123	2.	0.1	291.06
5285	5.7278	2.	0.1	290.85
5286	5.5432	2.	0.1	280.36
5287	5.3586	2.	0.1	253.74
5288	5.1741	2.	0.1	201.72
5289	4.9895	2.	0.1	111.87
5290	4.8049	2.	0.1	14.148
5291	4.6204	2.	0.1	22.477
5292	4.4358	2.	0.1	-95.653
5293	4.2512	2.	0.1	723.76
5294	23.815	2.1818	0.1	-0.19631
5295	23.631	2.1818	0.1	-0.32658
5296	23.446	2.1818	0.1	-0.14059
5297	23.262	2.1818	0.1	-0.12342
5298	23.077	2.1818	0.1	-9.1971e-002
5299	22.893	2.1818	0.1	-7.6954e-002
5300	22.708	2.1818	0.1	-6.4781e-002
5301	22.523	2.1818	0.1	-5.6116e-002
5302	22.339	2.1818	0.1	-4.9315e-002
5303	22.154	2.1818	0.1	-4.392e-002
5304	21.97	2.1818	0.1	-3.9512e-002
5305	21.785	2.1818	0.1	-3.5852e-002
5306	21.601	2.1818	0.1	-3.276e-002
5307	21.416	2.1818	0.1	-3.0122e-002
5308	21.231	2.1818	0.1	-2.7835e-002
5309	21.047	2.1818	0.1	-2.5839e-002
5310	20.862	2.1818	0.1	-2.4084e-002
5311	20.678	2.1818	0.1	-2.2528e-002
5312	20.493	2.1818	0.1	-2.1132e-002
5313	20.309	2.1818	0.1	-1.9888e-002
5314	20.124	2.1818	0.1	-1.8767e-002
5315	19.94	2.1818	0.1	-1.7751e-002
5316	19.755	2.1818	0.1	-1.6821e-002
5317	19.57	2.1818	0.1	-1.5975e-002
5318	19.386	2.1818	0.1	-1.5211e-002
5319	19.201	2.1818	0.1	-1.4498e-002
5320	19.017	2.1818	0.1	-1.3839e-002
5321	18.832	2.1818	0.1	-1.3239e-002
5322	18.648	2.1818	0.1	-1.2679e-002
5323	18.463	2.1818	0.1	-1.2146e-002
5324	18.278	2.1818	0.1	-1.1661e-002
5325	18.094	2.1818	0.1	-1.1213e-002
5326	17.909	2.1818	0.1	-1.0788e-002
5327	17.725	2.1818	0.1	-1.0383e-002
5328	17.54	2.1818	0.1	-1.0005e-002
5329	17.356	2.1818	0.1	-9.6661e-003
5330	17.171	2.1818	0.1	-9.3259e-003
5331	16.986	2.1818	0.1	-9.0044e-003
5332	16.802	2.1818	0.1	-8.6961e-003
5333	16.617	2.1818	0.1	-8.4026e-003
5334	16.433	2.1818	0.1	-8.1395e-003
5335	16.248	2.1818	0.1	-7.8695e-003
5336	16.064	2.1818	0.1	-7.599e-003
5337	15.879	2.1818	0.1	-7.3542e-003
5338	15.694	2.1818	0.1	-7.1037e-003
5339	15.51	2.1818	0.1	-6.8347e-003
5340	15.325	2.1818	0.1	-6.583e-003
5341	15.141	2.1818	0.1	-6.3298e-003
5342	14.956	2.1818	0.1	-6.0548e-003
5343	14.772	2.1818	0.1	-5.7466e-003
5344	14.587	2.1818	0.1	-5.3991e-003
5345	14.402	2.1818	0.1	-4.9997e-003
5346	14.218	2.1818	0.1	-4.4216e-003
5347	14.033	2.1818	0.1	-3.4682e-003
5348	13.849	2.1818	0.1	-1.2706e-003
5349	13.664	2.1818	0.1	1.7425e-002
5350	13.48	2.1818	0.1	1.0894
5351	13.295	2.1818	0.1	2.5736
5352	13.11	2.1818	0.1	4.1617
5353	12.926	2.1818	0.1	5.8615
5354	12.741	2.1818	0.1	7.6837
5355	12.557	2.1818	0.1	9.6402
5356	12.372	2.1818	0.1	11.744
5357	12.188	2.1818	0.1	14.008
5358	12.003	2.1818	0.1	16.448
5359	11.819	2.1818	0.1	19.079
5360	11.634	2.1818	0.1	21.92
5361	11.449	2.1818	0.1	24.989
5362	11.265	2.1818	0.1	28.306
5363	11.08	2.1818	0.1	31.893
5364	10.896	2.1818	0.1	35.774
5365	10.711	2.1818	0.1	39.976
5366	10.527	2.1818	0.1	44.526
5367	10.342	2.1818	0.1	49.454
5368	10.157	2.1818	0.1	54.794
5369	9.9728	2.1818	0.1	60.58
5370	9.7883	2.1818	0.1	66.849
5371	9.6037	2.1818	0.1	73.644
5372	9.4191	2.1818	0.1	81.007
5373	9.2346	2.1818	0.1	88.985
5374	9.05	2.1818	0.1	97.625
5375	8.8654	2.1818	0.1	106.98
5376	8.6809	2.1818	0.1	117.1
5377	8.4963	2.1818	0.1	128.03
5378	8.3117	2.1818	0.1	139.83
5379	8.1272	2.1818	0.1	152.55
5380	7.9426	2.1818	0.1	166.23
5381	7.758	2.1818	0.1	180.89
5382	7.5735	2.1818	0.1	196.56
5383	7.3889	2.1818	0.1	213.21
5384	7.2043	2.1818	0.1	230.8
5385	7.0198	2.1818	0.1	249.23
5386	6.8352	2.1818	0.1	268.3
5387	6.6506	2.1818	0.1	287.72
5388	6.466	2.1818	0.1	307.03
5389	6.2815	2.1818	0.1	325.53
5390	6.0969	2.1818	0.1	342.15
5391	5.9123	2.1818	0.1	355.33
5392	5.7278	2.1818	0.1	362.76
5393	5.5432	2.1818	0.1	361.
5394	5.3586	2.1818	0.1	344.96
5395	5.1741	2.1818	0.1	306.96
5396	4.9895	2.1818	0.1	236.12
5397	4.8049	2.1818	0.1	113.33
5398	4.6204	2.1818	0.1	13.965
5399	4.4358	2.1818	0.1	-45.546
5400	4.2512	2.1818	0.1	4.8706
5401	23.815	2.3636	0.1	-0.20239
5402	23.631	2.3636	0.1	-0.32954
5403	23.446	2.3636	0.1	-0.14266
5404	23.262	2.3636	0.1	-0.12523
5405	23.077	2.3636	0.1	-9.3597e-002
5406	22.893	2.3636	0.1	-7.8467e-002
5407	22.708	2.3636	0.1	-6.6217e-002
5408	22.523	2.3636	0.1	-5.7499e-002
5409	22.339	2.3636	0.1	-5.0657e-002
5410	22.154	2.3636	0.1	-4.5234e-002
5411	21.97	2.3636	0.1	-4.0799e-002
5412	21.785	2.3636	0.1	-3.7113e-002
5413	21.601	2.3636	0.1	-3.3997e-002
5414	21.416	2.3636	0.1	-3.1335e-002
5415	21.231	2.3636	0.1	-2.9024e-002
5416	21.047	2.3636	0.1	-2.6997e-002
5417	20.862	2.3636	0.1	-2.5218e-002
5418	20.678	2.3636	0.1	-2.3635e-002
5419	20.493	2.3636	0.1	-2.2213e-002
5420	20.309	2.3636	0.1	-2.0942e-002
5421	20.124	2.3636	0.1	-1.9797e-002
5422	19.94	2.3636	0.1	-1.8755e-002
5423	19.755	2.3636	0.1	-1.7803e-002
5424	19.57	2.3636	0.1	-1.6933e-002
5425	19.386	2.3636	0.1	-1.6148e-002
5426	19.201	2.3636	0.1	-1.5416e-002
5427	19.017	2.3636	0.1	-1.4737e-002
5428	18.832	2.3636	0.1	-1.4119e-002
5429	18.648	2.3636	0.1	-1.3541e-002
5430	18.463	2.3636	0.1	-1.2993e-002
5431	18.278	2.3636	0.1	-1.2493e-002
5432	18.094	2.3636	0.1	-1.203e-002
5433	17.909	2.3636	0.1	-1.1592e-002
5434	17.725	2.3636	0.1	-1.1175e-002
5435	17.54	2.3636	0.1	-1.0785e-002
5436	17.356	2.3636	0.1	-1.0434e-002
5437	17.171	2.3636	0.1	-1.0086e-002
5438	16.986	2.3636	0.1	-9.7543e-003
5439	16.802	2.3636	0.1	-9.4369e-003
5440	16.617	2.3636	0.1	-9.1368e-003
5441	16.433	2.3636	0.1	-8.8685e-003
5442	16.248	2.3636	0.1	-8.5922e-003
5443	16.064	2.3636	0.1	-8.3185e-003
5444	15.879	2.3636	0.1	-8.0705e-003
5445	15.694	2.3636	0.1	-7.8214e-003
5446	15.51	2.3636	0.1	-7.5551e-003
5447	15.325	2.3636	0.1	-7.3085e-003
5448	15.141	2.3636	0.1	-7.0661e-003
5449	14.956	2.3636	0.1	-6.8059e-003
5450	14.772	2.3636	0.1	-6.5219e-003
5451	14.587	2.3636	0.1	-6.2103e-003
5452	14.402	2.3636	0.1	-5.8648e-003
5453	14.218	2.3636	0.1	-5.3683e-003
5454	14.033	2.3636	0.1	-4.5283e-003
5455	13.849	2.3636	0.1	-2.2179e-003
5456	13.664	2.3636	0.1	0.20147
5457	13.48	2.3636	0.1	1.6249
5458	13.295	2.3636	0.1	3.1623
5459	13.11	2.3636	0.1	4.8059
5460	12.926	2.3636	0.1	6.5658
5461	12.741	2.3636	0.1	8.4537
5462	12.557	2.3636	0.1	10.482
5463	12.372	2.3636	0.1	12.665
5464	12.188	2.3636	0.1	15.016
5465	12.003	2.3636	0.1	17.552
5466	11.819	2.3636	0.1	20.291
5467	11.634	2.3636	0.1	23.25
5468	11.449	2.3636	0.1	26.451
5469	11.265	2.3636	0.1	29.917
5470	11.08	2.3636	0.1	33.67
5471	10.896	2.3636	0.1	37.739
5472	10.711	2.3636	0.1	42.152
5473	10.527	2.3636	0.1	46.942
5474	10.342	2.3636	0.1	52.142
5475	10.157	2.3636	0.1	57.792
5476	9.9728	2.3636	0.1	63.932
5477	9.7883	2.3636	0.1	70.608
5478	9.6037	2.3636	0.1	77.87
5479	9.4191	2.3636	0.1	85.77
5480	9.2346	2.3636	0.1	94.368
5481	9.05	2.3636	0.1	103.72
5482	8.8654	2.3636	0.1	113.91
5483	8.6809	2.3636	0.1	124.98
5484	8.4963	2.3636	0.1	137.03
5485	8.3117	2.3636	0.1	150.12
5486	8.1272	2.3636	0.1	164.33
5487	7.9426	2.3636	0.1	179.72
5488	7.758	2.3636	0.1	196.36
5489	7.5735	2.3636	0.1	214.29
5490	7.3889	2.3636	0.1	233.54
5491	7.2043	2.3636	0.1	254.08
5492	7.0198	2.3636	0.1	275.83
5493	6.8352	2.3636	0.1	298.63
5494	6.6506	2.3636	0.1	322.18
5495	6.466	2.3636	0.1	346.
5496	6.2815	2.3636	0.1	369.35
5497	6.0969	2.3636	0.1	391.09
5498	5.9123	2.3636	0.1	409.54
5499	5.7278	2.3636	0.1	422.21
5500	5.5432	2.3636	0.1	425.46
5501	5.3586	2.3636	0.1	413.93
5502	5.1741	2.3636	0.1	379.81
5503	4.9895	2.3636	0.1	311.51
5504	4.8049	2.3636	0.1	191.31
5505	4.6204	2.3636	0.1	-1.0199
5506	4.4358	2.3636	0.1	11.698
5507	4.2512	2.3636	0.1	22.592
5508	23.815	2.5455	0.1	-0.2068
5509	23.631	2.5455	0.1	-0.33166
5510	23.446	2.5455	0.1	-0.14413
5511	23.262	2.5455	0.1	-0.12652
5512	23.077	2.5455	0.1	-9.4747e-002
5513	22.893	2.5455	0.1	-7.9539e-002
5514	22.708	2.5455	0.1	-6.7232e-002
5515	22.523	2.5455	0.1	-5.8477e-002
5516	22.339	2.5455	0.1	-5.1608e-002
5517	22.154	2.5455	0.1	-4.6162e-002
5518	21.97	2.5455	0.1	-4.1712e-002
5519	21.785	2.5455	0.1	-3.8011e-002
5520	21.601	2.5455	0.1	-3.4881e-002
5521	21.416	2.5455	0.1	-3.2201e-002
5522	21.231	2.5455	0.1	-2.9874e-002
5523	21.047	2.5455	0.1	-2.7831e-002
5524	20.862	2.5455	0.1	-2.6037e-002
5525	20.678	2.5455	0.1	-2.4435e-002
5526	20.493	2.5455	0.1	-2.2995e-002
5527	20.309	2.5455	0.1	-2.1708e-002
5528	20.124	2.5455	0.1	-2.0545e-002
5529	19.94	2.5455	0.1	-1.9487e-002
5530	19.755	2.5455	0.1	-1.8519e-002
5531	19.57	2.5455	0.1	-1.7635e-002
5532	19.386	2.5455	0.1	-1.6834e-002
5533	19.201	2.5455	0.1	-1.609e-002
5534	19.017	2.5455	0.1	-1.5396e-002
5535	18.832	2.5455	0.1	-1.4765e-002
5536	18.648	2.5455	0.1	-1.4177e-002
5537	18.463	2.5455	0.1	-1.3617e-002
5538	18.278	2.5455	0.1	-1.3108e-002
5539	18.094	2.5455	0.1	-1.2635e-002
5540	17.909	2.5455	0.1	-1.2187e-002
5541	17.725	2.5455	0.1	-1.1762e-002
5542	17.54	2.5455	0.1	-1.1366e-002
5543	17.356	2.5455	0.1	-1.1008e-002
5544	17.171	2.5455	0.1	-1.0652e-002
5545	16.986	2.5455	0.1	-1.0314e-002
5546	16.802	2.5455	0.1	-9.9928e-003
5547	16.617	2.5455	0.1	-9.6889e-003
5548	16.433	2.5455	0.1	-9.4152e-003
5549	16.248	2.5455	0.1	-9.1378e-003
5550	16.064	2.5455	0.1	-8.8632e-003
5551	15.879	2.5455	0.1	-8.6163e-003
5552	15.694	2.5455	0.1	-8.3686e-003
5553	15.51	2.5455	0.1	-8.1071e-003
5554	15.325	2.5455	0.1	-7.8694e-003
5555	15.141	2.5455	0.1	-7.638e-003
5556	14.956	2.5455	0.1	-7.3966e-003
5557	14.772	2.5455	0.1	-7.1388e-003
5558	14.587	2.5455	0.1	-6.87e-003
5559	14.402	2.5455	0.1	-6.5879e-003
5560	14.218	2.5455	0.1	-6.204e-003
5561	14.033	2.5455	0.1	-5.5695e-003
5562	13.849	2.5455	0.1	-3.5376e-003
5563	13.664	2.5455	0.1	0.55523
5564	13.48	2.5455	0.1	2.0313
5565	13.295	2.5455	0.1	3.608
5566	13.11	2.5455	0.1	5.2937
5567	12.926	2.5455	0.1	7.0995
5568	12.741	2.5455	0.1	9.0374
5569	12.557	2.5455	0.1	11.121
5570	12.372	2.5455	0.1	13.364
5571	12.188	2.5455	0.1	15.782
5572	12.003	2.5455	0.1	18.392
5573	11.819	2.5455	0.1	21.212
5574	11.634	2.5455	0.1	24.263
5575	11.449	2.5455	0.1	27.566
5576	11.265	2.5455	0.1	31.146
5577	11.08	2.5455	0.1	35.028
5578	10.896	2.5455	0.1	39.242
5579	10.711	2.5455	0.1	43.819
5580	10.527	2.5455	0.1	48.795
5581	10.342	2.5455	0.1	54.207
5582	10.157	2.5455	0.1	60.099
5583	9.9728	2.5455	0.1	66.517
5584	9.7883	2.5455	0.1	73.512
5585	9.6037	2.5455	0.1	81.14
5586	9.4191	2.5455	0.1	89.464
5587	9.2346	2.5455	0.1	98.552
5588	9.05	2.5455	0.1	108.47
5589	8.8654	2.5455	0.1	119.31
5590	8.6809	2.5455	0.1	131.15
5591	8.4963	2.5455	0.1	144.08
5592	8.3117	2.5455	0.1	158.2
5593	8.1272	2.5455	0.1	173.59
5594	7.9426	2.5455	0.1	190.35
5595	7.758	2.5455	0.1	208.57
5596	7.5735	2.5455	0.1	228.32
5597	7.3889	2.5455	0.1	249.64
5598	7.2043	2.5455	0.1	272.54
5599	7.0198	2.5455	0.1	296.94
5600	6.8352	2.5455	0.1	322.7
5601	6.6506	2.5455	0.1	349.5
5602	6.466	2.5455	0.1	376.81
5603	6.2815	2.5455	0.1	403.82
5604	6.0969	2.5455	0.1	429.23
5605	5.9123	2.5455	0.1	451.1
5606	5.7278	2.5455	0.1	466.51
5607	5.5432	2.5455	0.1	471.14
5608	5.3586	2.5455	0.1	458.64
5609	5.1741	2.5455	0.1	419.69
5610	4.9895	2.5455	0.1	340.78
5611	4.8049	2.5455	0.1	202.72
5612	4.6204	2.5455	0.1	5.1543
5613	4.4358	2.5455	0.1	-0.14136
5614	4.2512	2.5455	0.1	-5.5507
5615	23.815	2.7273	0.1	-0.20969
5616	23.631	2.7273	0.1	-0.33303
5617	23.446	2.7273	0.1	-0.14508
5618	23.262	2.7273	0.1	-0.12735
5619	23.077	2.7273	0.1	-9.5486e-002
5620	22.893	2.7273	0.1	-8.0224e-002
5621	22.708	2.7273	0.1	-6.7881e-002
5622	22.523	2.7273	0.1	-5.91e-002
5623	22.339	2.7273	0.1	-5.2217e-002
5624	22.154	2.7273	0.1	-4.6755e-002
5625	21.97	2.7273	0.1	-4.2298e-002
5626	21.785	2.7273	0.1	-3.8586e-002
5627	21.601	2.7273	0.1	-3.5447e-002
5628	21.416	2.7273	0.1	-3.276e-002
5629	21.231	2.7273	0.1	-3.0423e-002
5630	21.047	2.7273	0.1	-2.8372e-002
5631	20.862	2.7273	0.1	-2.6565e-002
5632	20.678	2.7273	0.1	-2.4955e-002
5633	20.493	2.7273	0.1	-2.3504e-002
5634	20.309	2.7273	0.1	-2.2205e-002
5635	20.124	2.7273	0.1	-2.1033e-002
5636	19.94	2.7273	0.1	-1.9965e-002
5637	19.755	2.7273	0.1	-1.8985e-002
5638	19.57	2.7273	0.1	-1.8093e-002
5639	19.386	2.7273	0.1	-1.7284e-002
5640	19.201	2.7273	0.1	-1.653e-002
5641	19.017	2.7273	0.1	-1.5828e-002
5642	18.832	2.7273	0.1	-1.5191e-002
5643	18.648	2.7273	0.1	-1.4595e-002
5644	18.463	2.7273	0.1	-1.4027e-002
5645	18.278	2.7273	0.1	-1.3511e-002
5646	18.094	2.7273	0.1	-1.3032e-002
5647	17.909	2.7273	0.1	-1.2581e-002
5648	17.725	2.7273	0.1	-1.215e-002
5649	17.54	2.7273	0.1	-1.1748e-002
5650	17.356	2.7273	0.1	-1.1386e-002
5651	17.171	2.7273	0.1	-1.1028e-002
5652	16.986	2.7273	0.1	-1.0686e-002
5653	16.802	2.7273	0.1	-1.0362e-002
5654	16.617	2.7273	0.1	-1.0056e-002
5655	16.433	2.7273	0.1	-9.782e-003
5656	16.248	2.7273	0.1	-9.503e-003
5657	16.064	2.7273	0.1	-9.2282e-003
5658	15.879	2.7273	0.1	-8.9824e-003
5659	15.694	2.7273	0.1	-8.7378e-003
5660	15.51	2.7273	0.1	-8.4809e-003
5661	15.325	2.7273	0.1	-8.2499e-003
5662	15.141	2.7273	0.1	-8.029e-003
5663	14.956	2.7273	0.1	-7.8038e-003
5664	14.772	2.7273	0.1	-7.5697e-003
5665	14.587	2.7273	0.1	-7.3351e-003
5666	14.402	2.7273	0.1	-7.1143e-003
5667	14.218	2.7273	0.1	-6.8357e-003
5668	14.033	2.7273	0.1	-6.4394e-003
5669	13.849	2.7273	0.1	-5.2029e-003
5670	13.664	2.7273	0.1	0.80166
5671	13.48	2.7273	0.1	2.3041
5672	13.295	2.7273	0.1	3.9072
5673	13.11	2.7273	0.1	5.6212
5674	12.926	2.7273	0.1	7.4578
5675	12.741	2.7273	0.1	9.4295
5676	12.557	2.7273	0.1	11.55
5677	12.372	2.7273	0.1	13.834
5678	12.188	2.7273	0.1	16.297
5679	12.003	2.7273	0.1	18.957
5680	11.819	2.7273	0.1	21.833
5681	11.634	2.7273	0.1	24.946
5682	11.449	2.7273	0.1	28.318
5683	11.265	2.7273	0.1	31.976
5684	11.08	2.7273	0.1	35.945
5685	10.896	2.7273	0.1	40.258
5686	10.711	2.7273	0.1	44.948
5687	10.527	2.7273	0.1	50.051
5688	10.342	2.7273	0.1	55.608
5689	10.157	2.7273	0.1	61.666
5690	9.9728	2.7273	0.1	68.275
5691	9.7883	2.7273	0.1	75.489
5692	9.6037	2.7273	0.1	83.371
5693	9.4191	2.7273	0.1	91.987
5694	9.2346	2.7273	0.1	101.41
5695	9.05	2.7273	0.1	111.73
5696	8.8654	2.7273	0.1	123.02
5697	8.6809	2.7273	0.1	135.39
5698	8.4963	2.7273	0.1	148.94
5699	8.3117	2.7273	0.1	163.76
5700	8.1272	2.7273	0.1	179.98
5701	7.9426	2.7273	0.1	197.7
5702	7.758	2.7273	0.1	217.02
5703	7.5735	2.7273	0.1	238.04
5704	7.3889	2.7273	0.1	260.8
5705	7.2043	2.7273	0.1	285.33
5706	7.0198	2.7273	0.1	311.58
5707	6.8352	2.7273	0.1	339.38
5708	6.6506	2.7273	0.1	368.4
5709	6.466	2.7273	0.1	398.08
5710	6.2815	2.7273	0.1	427.49
5711	6.0969	2.7273	0.1	455.16
5712	5.9123	2.7273	0.1	478.87
5713	5.7278	2.7273	0.1	495.23
5714	5.5432	2.7273	0.1	499.16
5715	5.3586	2.7273	0.1	483.19
5716	5.1741	2.7273	0.1	436.56
5717	4.9895	2.7273	0.1	344.54
5718	4.8049	2.7273	0.1	189.21
5719	4.6204	2.7273	0.1	0.46108
5720	4.4358	2.7273	0.1	0.3952
5721	4.2512	2.7273	0.1	3.9671
5722	23.815	2.9091	0.1	-0.21111
5723	23.631	2.9091	0.1	-0.3337
5724	23.446	2.9091	0.1	-0.14554
5725	23.262	2.9091	0.1	-0.12775
5726	23.077	2.9091	0.1	-9.5846e-002
5727	22.893	2.9091	0.1	-8.0558e-002
5728	22.708	2.9091	0.1	-6.8198e-002
5729	22.523	2.9091	0.1	-5.9404e-002
5730	22.339	2.9091	0.1	-5.2511e-002
5731	22.154	2.9091	0.1	-4.7048e-002
5732	21.97	2.9091	0.1	-4.2581e-002
5733	21.785	2.9091	0.1	-3.8867e-002
5734	21.601	2.9091	0.1	-3.5725e-002
5735	21.416	2.9091	0.1	-3.3032e-002
5736	21.231	2.9091	0.1	-3.0692e-002
5737	21.047	2.9091	0.1	-2.8634e-002
5738	20.862	2.9091	0.1	-2.6824e-002
5739	20.678	2.9091	0.1	-2.5208e-002
5740	20.493	2.9091	0.1	-2.3753e-002
5741	20.309	2.9091	0.1	-2.2449e-002
5742	20.124	2.9091	0.1	-2.1272e-002
5743	19.94	2.9091	0.1	-2.0199e-002
5744	19.755	2.9091	0.1	-1.9217e-002
5745	19.57	2.9091	0.1	-1.8319e-002
5746	19.386	2.9091	0.1	-1.7506e-002
5747	19.201	2.9091	0.1	-1.6747e-002
5748	19.017	2.9091	0.1	-1.6043e-002
5749	18.832	2.9091	0.1	-1.5402e-002
5750	18.648	2.9091	0.1	-1.4801e-002
5751	18.463	2.9091	0.1	-1.4231e-002
5752	18.278	2.9091	0.1	-1.3713e-002
5753	18.094	2.9091	0.1	-1.3231e-002
5754	17.909	2.9091	0.1	-1.2776e-002
5755	17.725	2.9091	0.1	-1.2343e-002
5756	17.54	2.9091	0.1	-1.1939e-002
5757	17.356	2.9091	0.1	-1.1574e-002
5758	17.171	2.9091	0.1	-1.1214e-002
5759	16.986	2.9091	0.1	-1.0872e-002
5760	16.802	2.9091	0.1	-1.0546e-002
5761	16.617	2.9091	0.1	-1.0239e-002
5762	16.433	2.9091	0.1	-9.9643e-003
5763	16.248	2.9091	0.1	-9.6853e-003
5764	16.064	2.9091	0.1	-9.4119e-003
5765	15.879	2.9091	0.1	-9.1657e-003
5766	15.694	2.9091	0.1	-8.9236e-003
5767	15.51	2.9091	0.1	-8.6683e-003
5768	15.325	2.9091	0.1	-8.4428e-003
5769	15.141	2.9091	0.1	-8.2277e-003
5770	14.956	2.9091	0.1	-8.0112e-003
5771	14.772	2.9091	0.1	-7.7901e-003
5772	14.587	2.9091	0.1	-7.5777e-003
5773	14.402	2.9091	0.1	-7.3904e-003
5774	14.218	2.9091	0.1	-7.1773e-003
5775	14.033	2.9091	0.1	-6.9444e-003
5776	13.849	2.9091	0.1	-6.6036e-003
5777	13.664	2.9091	0.1	0.92595
5778	13.48	2.9091	0.1	2.4411
5779	13.295	2.9091	0.1	4.0573
5780	13.11	2.9091	0.1	5.7856
5781	12.926	2.9091	0.1	7.6378
5782	12.741	2.9091	0.1	9.6265
5783	12.557	2.9091	0.1	11.766
5784	12.372	2.9091	0.1	14.07
5785	12.188	2.9091	0.1	16.556
5786	12.003	2.9091	0.1	19.241
5787	11.819	2.9091	0.1	22.145
5788	11.634	2.9091	0.1	25.289
5789	11.449	2.9091	0.1	28.697
5790	11.265	2.9091	0.1	32.394
5791	11.08	2.9091	0.1	36.408
5792	10.896	2.9091	0.1	40.771
5793	10.711	2.9091	0.1	45.517
5794	10.527	2.9091	0.1	50.685
5795	10.342	2.9091	0.1	56.316
5796	10.157	2.9091	0.1	62.459
5797	9.9728	2.9091	0.1	69.165
5798	9.7883	2.9091	0.1	76.491
5799	9.6037	2.9091	0.1	84.501
5800	9.4191	2.9091	0.1	93.267
5801	9.2346	2.9091	0.1	102.87
5802	9.05	2.9091	0.1	113.38
5803	8.8654	2.9091	0.1	124.91
5804	8.6809	2.9091	0.1	137.55
5805	8.4963	2.9091	0.1	151.41
5806	8.3117	2.9091	0.1	166.6
5807	8.1272	2.9091	0.1	183.24
5808	7.9426	2.9091	0.1	201.45
5809	7.758	2.9091	0.1	221.34
5810	7.5735	2.9091	0.1	243.
5811	7.3889	2.9091	0.1	266.51
5812	7.2043	2.9091	0.1	291.88
5813	7.0198	2.9091	0.1	319.07
5814	6.8352	2.9091	0.1	347.91
5815	6.6506	2.9091	0.1	378.06
5816	6.466	2.9091	0.1	408.92
5817	6.2815	2.9091	0.1	439.5
5818	6.0969	2.9091	0.1	468.23
5819	5.9123	2.9091	0.1	492.7
5820	5.7278	2.9091	0.1	509.19
5821	5.5432	2.9091	0.1	512.17
5822	5.3586	2.9091	0.1	493.5
5823	5.1741	2.9091	0.1	441.66
5824	4.9895	2.9091	0.1	341.7
5825	4.8049	2.9091	0.1	177.64
5826	4.6204	2.9091	0.1	-1.0072
5827	4.4358	2.9091	0.1	9.8056e-003
5828	4.2512	2.9091	0.1	0.42158
5829	23.815	3.0909	0.1	-0.21111
5830	23.631	3.0909	0.1	-0.3337
5831	23.446	3.0909	0.1	-0.14554
5832	23.262	3.0909	0.1	-0.12775
5833	23.077	3.0909	0.1	-9.5846e-002
5834	22.893	3.0909	0.1	-8.056e-002
5835	22.708	3.0909	0.1	-6.8198e-002
5836	22.523	3.0909	0.1	-5.9404e-002
5837	22.339	3.0909	0.1	-5.2512e-002
5838	22.154	3.0909	0.1	-4.7046e-002
5839	21.97	3.0909	0.1	-4.2582e-002
5840	21.785	3.0909	0.1	-3.8869e-002
5841	21.601	3.0909	0.1	-3.5725e-002
5842	21.416	3.0909	0.1	-3.3033e-002
5843	21.231	3.0909	0.1	-3.069e-002
5844	21.047	3.0909	0.1	-2.8635e-002
5845	20.862	3.0909	0.1	-2.6825e-002
5846	20.678	3.0909	0.1	-2.5208e-002
5847	20.493	3.0909	0.1	-2.3754e-002
5848	20.309	3.0909	0.1	-2.245e-002
5849	20.124	3.0909	0.1	-2.1273e-002
5850	19.94	3.0909	0.1	-2.0199e-002
5851	19.755	3.0909	0.1	-1.9217e-002
5852	19.57	3.0909	0.1	-1.832e-002
5853	19.386	3.0909	0.1	-1.7505e-002
5854	19.201	3.0909	0.1	-1.6747e-002
5855	19.017	3.0909	0.1	-1.6042e-002
5856	18.832	3.0909	0.1	-1.54e-002
5857	18.648	3.0909	0.1	-1.4802e-002
5858	18.463	3.0909	0.1	-1.4232e-002
5859	18.278	3.0909	0.1	-1.3711e-002
5860	18.094	3.0909	0.1	-1.3231e-002
5861	17.909	3.0909	0.1	-1.2775e-002
5862	17.725	3.0909	0.1	-1.2342e-002
5863	17.54	3.0909	0.1	-1.1939e-002
5864	17.356	3.0909	0.1	-1.1575e-002
5865	17.171	3.0909	0.1	-1.1215e-002
5866	16.986	3.0909	0.1	-1.0871e-002
5867	16.802	3.0909	0.1	-1.0546e-002
5868	16.617	3.0909	0.1	-1.0238e-002
5869	16.433	3.0909	0.1	-9.9642e-003
5870	16.248	3.0909	0.1	-9.6849e-003
5871	16.064	3.0909	0.1	-9.4108e-003
5872	15.879	3.0909	0.1	-9.1659e-003
5873	15.694	3.0909	0.1	-8.9231e-003
5874	15.51	3.0909	0.1	-8.6682e-003
5875	15.325	3.0909	0.1	-8.4422e-003
5876	15.141	3.0909	0.1	-8.228e-003
5877	14.956	3.0909	0.1	-8.011e-003
5878	14.772	3.0909	0.1	-7.7908e-003
5879	14.587	3.0909	0.1	-7.577e-003
5880	14.402	3.0909	0.1	-7.3902e-003
5881	14.218	3.0909	0.1	-7.1788e-003
5882	14.033	3.0909	0.1	-6.9445e-003
5883	13.849	3.0909	0.1	-6.6039e-003
5884	13.664	3.0909	0.1	0.92594
5885	13.48	3.0909	0.1	2.4411
5886	13.295	3.0909	0.1	4.0573
5887	13.11	3.0909	0.1	5.7856
5888	12.926	3.0909	0.1	7.6378
5889	12.741	3.0909	0.1	9.6265
5890	12.557	3.0909	0.1	11.766
5891	12.372	3.0909	0.1	14.07
5892	12.188	3.0909	0.1	16.556
5893	12.003	3.0909	0.1	19.241
5894	11.819	3.0909	0.1	22.145
5895	11.634	3.0909	0.1	25.289
5896	11.449	3.0909	0.1	28.697
5897	11.265	3.0909	0.1	32.394
5898	11.08	3.0909	0.1	36.408
5899	10.896	3.0909	0.1	40.771
5900	10.711	3.0909	0.1	45.517
5901	10.527	3.0909	0.1	50.685
5902	10.342	3.0909	0.1	56.316
5903	10.157	3.0909	0.1	62.459
5904	9.9728	3.0909	0.1	69.165
5905	9.7883	3.0909	0.1	76.491
5906	9.6037	3.0909	0.1	84.501
5907	9.4191	3.0909	0.1	93.267
5908	9.2346	3.0909	0.1	102.87
5909	9.05	3.0909	0.1	113.38
5910	8.8654	3.0909	0.1	124.91
5911	8.6809	3.0909	0.1	137.55
5912	8.4963	3.0909	0.1	151.41
5913	8.3117	3.0909	0.1	166.6
5914	8.1272	3.0909	0.1	183.24
5915	7.9426	3.0909	0.1	201.45
5916	7.758	3.0909	0.1	221.34
5917	7.5735	3.0909	0.1	243.
5918	7.3889	3.0909	0.1	266.51
5919	7.2043	3.0909	0.1	291.88
5920	7.0198	3.0909	0.1	319.07
5921	6.8352	3.0909	0.1	347.91
5922	6.6506	3.0909	0.1	378.06
5923	6.466	3.0909	0.1	408.92
5924	6.2815	3.0909	0.1	439.5
5925	6.0969	3.0909	0.1	468.23
5926	5.9123	3.0909	0.1	492.7
5927	5.7278	3.0909	0.1	509.19
5928	5.5432	3.0909	0.1	512.17
5929	5.3586	3.0909	0.1	493.5
5930	5.1741	3.0909	0.1	441.66
5931	4.9895	3.0909	0.1	341.7
5932	4.8049	3.0909	0.1	177.64
5933	4.6204	3.0909	0.1	-1.0072
5934	4.4358	3.0909	0.1	9.8056e-003
5935	4.2512	3.0909	0.1	0.42158
5936	23.815	3.2727	0.1	-0.20968
5937	23.631	3.2727	0.1	-0.33303
5938	23.446	3.2727	0.1	-0.14508
5939	23.262	3.2727	0.1	-0.12734
5940	23.077	3.2727	0.1	-9.5486e-002
5941	22.893	3.2727	0.1	-8.0224e-002
5942	22.708	3.2727	0.1	-6.7881e-002
5943	22.523	3.2727	0.1	-5.91e-002
5944	22.339	3.2727	0.1	-5.2216e-002
5945	22.154	3.2727	0.1	-4.6756e-002
5946	21.97	3.2727	0.1	-4.2297e-002
5947	21.785	3.2727	0.1	-3.8586e-002
5948	21.601	3.2727	0.1	-3.5447e-002
5949	21.416	3.2727	0.1	-3.2759e-002
5950	21.231	3.2727	0.1	-3.0423e-002
5951	21.047	3.2727	0.1	-2.8371e-002
5952	20.862	3.2727	0.1	-2.6564e-002
5953	20.678	3.2727	0.1	-2.4953e-002
5954	20.493	3.2727	0.1	-2.3503e-002
5955	20.309	3.2727	0.1	-2.2205e-002
5956	20.124	3.2727	0.1	-2.1034e-002
5957	19.94	3.2727	0.1	-1.9964e-002
5958	19.755	3.2727	0.1	-1.8985e-002
5959	19.57	3.2727	0.1	-1.8092e-002
5960	19.386	3.2727	0.1	-1.7284e-002
5961	19.201	3.2727	0.1	-1.6529e-002
5962	19.017	3.2727	0.1	-1.5827e-002
5963	18.832	3.2727	0.1	-1.5192e-002
5964	18.648	3.2727	0.1	-1.4593e-002
5965	18.463	3.2727	0.1	-1.4028e-002
5966	18.278	3.2727	0.1	-1.3511e-002
5967	18.094	3.2727	0.1	-1.3032e-002
5968	17.909	3.2727	0.1	-1.258e-002
5969	17.725	3.2727	0.1	-1.215e-002
5970	17.54	3.2727	0.1	-1.1748e-002
5971	17.356	3.2727	0.1	-1.1385e-002
5972	17.171	3.2727	0.1	-1.1027e-002
5973	16.986	3.2727	0.1	-1.0686e-002
5974	16.802	3.2727	0.1	-1.0362e-002
5975	16.617	3.2727	0.1	-1.0056e-002
5976	16.433	3.2727	0.1	-9.7822e-003
5977	16.248	3.2727	0.1	-9.502e-003
5978	16.064	3.2727	0.1	-9.2287e-003
5979	15.879	3.2727	0.1	-8.9822e-003
5980	15.694	3.2727	0.1	-8.737e-003
5981	15.51	3.2727	0.1	-8.4806e-003
5982	15.325	3.2727	0.1	-8.249e-003
5983	15.141	3.2727	0.1	-8.0291e-003
5984	14.956	3.2727	0.1	-7.8037e-003
5985	14.772	3.2727	0.1	-7.5692e-003
5986	14.587	3.2727	0.1	-7.336e-003
5987	14.402	3.2727	0.1	-7.1135e-003
5988	14.218	3.2727	0.1	-6.8354e-003
5989	14.033	3.2727	0.1	-6.4395e-003
5990	13.849	3.2727	0.1	-5.2022e-003
5991	13.664	3.2727	0.1	0.80165
5992	13.48	3.2727	0.1	2.3041
5993	13.295	3.2727	0.1	3.9072
5994	13.11	3.2727	0.1	5.6212
5995	12.926	3.2727	0.1	7.4578
5996	12.741	3.2727	0.1	9.4295
5997	12.557	3.2727	0.1	11.55
5998	12.372	3.2727	0.1	13.834
5999	12.188	3.2727	0.1	16.297
6000	12.003	3.2727	0.1	18.957
6001	11.819	3.2727	0.1	21.833
6002	11.634	3.2727	0.1	24.946
6003	11.449	3.2727	0.1	28.318
6004	11.265	3.2727	0.1	31.976
6005	11.08	3.2727	0.1	35.945
6006	10.896	3.2727	0.1	40.258
6007	10.711	3.2727	0.1	44.948
6008	10.527	3.2727	0.1	50.051
6009	10.342	3.2727	0.1	55.608
6010	10.157	3.2727	0.1	61.666
6011	9.9728	3.2727	0.1	68.275
6012	9.7883	3.2727	0.1	75.489
6013	9.6037	3.2727	0.1	83.371
6014	9.4191	3.2727	0.1	91.987
6015	9.2346	3.2727	0.1	101.41
6016	9.05	3.2727	0.1	111.73
6017	8.8654	3.2727	0.1	123.02
6018	8.6809	3.2727	0.1	135.39
6019	8.4963	3.2727	0.1	148.94
6020	8.3117	3.2727	0.1	163.76
6021	8.1272	3.2727	0.1	179.98
6022	7.9426	3.2727	0.1	197.7
6023	7.758	3.2727	0.1	217.02
6024	7.5735	3.2727	0.1	238.04
6025	7.3889	3.2727	0.1	260.8
6026	7.2043	3.2727	0.1	285.33
6027	7.0198	3.2727	0.1	311.58
6028	6.8352	3.2727	0.1	339.38
6029	6.6506	3.2727	0.1	368.4
6030	6.466	3.2727	0.1	398.08
6031	6.2815	3.2727	0.1	427.49
6032	6.0969	3.2727	0.1	455.16
6033	5.9123	3.2727	0.1	478.87
6034	5.7278	3.2727	0.1	495.23
6035	5.5432	3.2727	0.1	499.16
6036	5.3586	3.2727	0.1	483.19
6037	5.1741	3.2727	0.1	436.56
6038	4.9895	3.2727	0.1	344.54
6039	4.8049	3.2727	0.1	189.21
6040	4.6204	3.2727	0.1	0.46107
6041	4.4358	3.2727	0.1	0.3952
6042	4.2512	3.2727	0.1	3.9671
6043	23.815	3.4545	0.1	-0.2068
6044	23.631	3.4545	0.1	-0.33166
6045	23.446	3.4545	0.1	-0.14413
6046	23.262	3.4545	0.1	-0.12652
6047	23.077	3.4545	0.1	-9.4747e-002
6048	22.893	3.4545	0.1	-7.954e-002
6049	22.708	3.4545	0.1	-6.7232e-002
6050	22.523	3.4545	0.1	-5.8476e-002
6051	22.339	3.4545	0.1	-5.1608e-002
6052	22.154	3.4545	0.1	-4.6161e-002
6053	21.97	3.4545	0.1	-4.1713e-002
6054	21.785	3.4545	0.1	-3.801e-002
6055	21.601	3.4545	0.1	-3.488e-002
6056	21.416	3.4545	0.1	-3.2201e-002
6057	21.231	3.4545	0.1	-2.9874e-002
6058	21.047	3.4545	0.1	-2.7832e-002
6059	20.862	3.4545	0.1	-2.6035e-002
6060	20.678	3.4545	0.1	-2.4436e-002
6061	20.493	3.4545	0.1	-2.2995e-002
6062	20.309	3.4545	0.1	-2.1707e-002
6063	20.124	3.4545	0.1	-2.0545e-002
6064	19.94	3.4545	0.1	-1.9487e-002
6065	19.755	3.4545	0.1	-1.8519e-002
6066	19.57	3.4545	0.1	-1.7635e-002
6067	19.386	3.4545	0.1	-1.6835e-002
6068	19.201	3.4545	0.1	-1.6089e-002
6069	19.017	3.4545	0.1	-1.5397e-002
6070	18.832	3.4545	0.1	-1.4765e-002
6071	18.648	3.4545	0.1	-1.4178e-002
6072	18.463	3.4545	0.1	-1.3617e-002
6073	18.278	3.4545	0.1	-1.3108e-002
6074	18.094	3.4545	0.1	-1.2635e-002
6075	17.909	3.4545	0.1	-1.2187e-002
6076	17.725	3.4545	0.1	-1.1762e-002
6077	17.54	3.4545	0.1	-1.1364e-002
6078	17.356	3.4545	0.1	-1.1006e-002
6079	17.171	3.4545	0.1	-1.0653e-002
6080	16.986	3.4545	0.1	-1.0314e-002
6081	16.802	3.4545	0.1	-9.9929e-003
6082	16.617	3.4545	0.1	-9.6876e-003
6083	16.433	3.4545	0.1	-9.4161e-003
6084	16.248	3.4545	0.1	-9.1372e-003
6085	16.064	3.4545	0.1	-8.8637e-003
6086	15.879	3.4545	0.1	-8.6166e-003
6087	15.694	3.4545	0.1	-8.369e-003
6088	15.51	3.4545	0.1	-8.107e-003
6089	15.325	3.4545	0.1	-7.8688e-003
6090	15.141	3.4545	0.1	-7.6385e-003
6091	14.956	3.4545	0.1	-7.3962e-003
6092	14.772	3.4545	0.1	-7.1393e-003
6093	14.587	3.4545	0.1	-6.8704e-003
6094	14.402	3.4545	0.1	-6.5891e-003
6095	14.218	3.4545	0.1	-6.2032e-003
6096	14.033	3.4545	0.1	-5.5703e-003
6097	13.849	3.4545	0.1	-3.5384e-003
6098	13.664	3.4545	0.1	0.55521
6099	13.48	3.4545	0.1	2.0313
6100	13.295	3.4545	0.1	3.608
6101	13.11	3.4545	0.1	5.2937
6102	12.926	3.4545	0.1	7.0995
6103	12.741	3.4545	0.1	9.0374
6104	12.557	3.4545	0.1	11.121
6105	12.372	3.4545	0.1	13.364
6106	12.188	3.4545	0.1	15.782
6107	12.003	3.4545	0.1	18.392
6108	11.819	3.4545	0.1	21.212
6109	11.634	3.4545	0.1	24.263
6110	11.449	3.4545	0.1	27.566
6111	11.265	3.4545	0.1	31.146
6112	11.08	3.4545	0.1	35.028
6113	10.896	3.4545	0.1	39.242
6114	10.711	3.4545	0.1	43.819
6115	10.527	3.4545	0.1	48.795
6116	10.342	3.4545	0.1	54.207
6117	10.157	3.4545	0.1	60.099
6118	9.9728	3.4545	0.1	66.517
6119	9.7883	3.4545	0.1	73.512
6120	9.6037	3.4545	0.1	81.14
6121	9.4191	3.4545	0.1	89.464
6122	9.2346	3.4545	0.1	98.552
6123	9.05	3.4545	0.1	108.47
6124	8.8654	3.4545	0.1	119.31
6125	8.6809	3.4545	0.1	131.15
6126	8.4963	3.4545	0.1	144.08
6127	8.3117	3.4545	0.1	158.2
6128	8.1272	3.4545	0.1	173.59
6129	7.9426	3.4545	0.1	190.35
6130	7.758	3.4545	0.1	208.57
6131	7.5735	3.4545	0.1	228.32
6132	7.3889	3.4545	0.1	249.64
6133	7.2043	3.4545	0.1	272.54
6134	7.0198	3.4545	0.1	296.94
6135	6.8352	3.4545	0.1	322.7
6136	6.6506	3.4545	0.1	349.5
6137	6.466	3.4545	0.1	376.81
6138	6.2815	3.4545	0.1	403.82
6139	6.0969	3.4545	0.1	429.23
6140	5.9123	3.4545	0.1	451.1
6141	5.7278	3.4545	0.1	466.51
6142	5.5432	3.4545	0.1	471.14
6143	5.3586	3.4545	0.1	458.64
6144	5.1741	3.4545	0.1	419.69
6145	4.9895	3.4545	0.1	340.78
6146	4.8049	3.4545	0.1	202.72
6147	4.6204	3.4545	0.1	5.1543
6148	4.4358	3.4545	0.1	-0.14137
6149	4.2512	3.4545	0.1	-5.5507
6150	23.815	3.6364	0.1	-0.20239
6151	23.631	3.6364	0.1	-0.32954
6152	23.446	3.6364	0.1	-0.14266
6153	23.262	3.6364	0.1	-0.12523
6154	23.077	3.6364	0.1	-9.3595e-002
6155	22.893	3.6364	0.1	-7.8469e-002
6156	22.708	3.6364	0.1	-6.6218e-002
6157	22.523	3.6364	0.1	-5.7498e-002
6158	22.339	3.6364	0.1	-5.0658e-002
6159	22.154	3.6364	0.1	-4.5234e-002
6160	21.97	3.6364	0.1	-4.0799e-002
6161	21.785	3.6364	0.1	-3.7111e-002
6162	21.601	3.6364	0.1	-3.3998e-002
6163	21.416	3.6364	0.1	-3.1335e-002
6164	21.231	3.6364	0.1	-2.9023e-002
6165	21.047	3.6364	0.1	-2.6997e-002
6166	20.862	3.6364	0.1	-2.5219e-002
6167	20.678	3.6364	0.1	-2.3635e-002
6168	20.493	3.6364	0.1	-2.2212e-002
6169	20.309	3.6364	0.1	-2.094e-002
6170	20.124	3.6364	0.1	-1.9797e-002
6171	19.94	3.6364	0.1	-1.8754e-002
6172	19.755	3.6364	0.1	-1.7802e-002
6173	19.57	3.6364	0.1	-1.6934e-002
6174	19.386	3.6364	0.1	-1.6149e-002
6175	19.201	3.6364	0.1	-1.5416e-002
6176	19.017	3.6364	0.1	-1.4736e-002
6177	18.832	3.6364	0.1	-1.412e-002
6178	18.648	3.6364	0.1	-1.3542e-002
6179	18.463	3.6364	0.1	-1.2993e-002
6180	18.278	3.6364	0.1	-1.2493e-002
6181	18.094	3.6364	0.1	-1.2029e-002
6182	17.909	3.6364	0.1	-1.1592e-002
6183	17.725	3.6364	0.1	-1.1174e-002
6184	17.54	3.6364	0.1	-1.0786e-002
6185	17.356	3.6364	0.1	-1.0435e-002
6186	17.171	3.6364	0.1	-1.0085e-002
6187	16.986	3.6364	0.1	-9.7536e-003
6188	16.802	3.6364	0.1	-9.4378e-003
6189	16.617	3.6364	0.1	-9.137e-003
6190	16.433	3.6364	0.1	-8.8683e-003
6191	16.248	3.6364	0.1	-8.5915e-003
6192	16.064	3.6364	0.1	-8.3185e-003
6193	15.879	3.6364	0.1	-8.07e-003
6194	15.694	3.6364	0.1	-7.8211e-003
6195	15.51	3.6364	0.1	-7.5545e-003
6196	15.325	3.6364	0.1	-7.3086e-003
6197	15.141	3.6364	0.1	-7.0658e-003
6198	14.956	3.6364	0.1	-6.8063e-003
6199	14.772	3.6364	0.1	-6.5213e-003
6200	14.587	3.6364	0.1	-6.2108e-003
6201	14.402	3.6364	0.1	-5.8638e-003
6202	14.218	3.6364	0.1	-5.368e-003
6203	14.033	3.6364	0.1	-4.5288e-003
6204	13.849	3.6364	0.1	-2.218e-003
6205	13.664	3.6364	0.1	0.20145
6206	13.48	3.6364	0.1	1.6249
6207	13.295	3.6364	0.1	3.1623
6208	13.11	3.6364	0.1	4.8059
6209	12.926	3.6364	0.1	6.5658
6210	12.741	3.6364	0.1	8.4537
6211	12.557	3.6364	0.1	10.482
6212	12.372	3.6364	0.1	12.665
6213	12.188	3.6364	0.1	15.016
6214	12.003	3.6364	0.1	17.552
6215	11.819	3.6364	0.1	20.291
6216	11.634	3.6364	0.1	23.25
6217	11.449	3.6364	0.1	26.451
6218	11.265	3.6364	0.1	29.917
6219	11.08	3.6364	0.1	33.67
6220	10.896	3.6364	0.1	37.739
6221	10.711	3.6364	0.1	42.152
6222	10.527	3.6364	0.1	46.942
6223	10.342	3.6364	0.1	52.142
6224	10.157	3.6364	0.1	57.792
6225	9.9728	3.6364	0.1	63.932
6226	9.7883	3.6364	0.1	70.608
6227	9.6037	3.6364	0.1	77.87
6228	9.4191	3.6364	0.1	85.77
6229	9.2346	3.6364	0.1	94.368
6230	9.05	3.6364	0.1	103.72
6231	8.8654	3.6364	0.1	113.91
6232	8.6809	3.6364	0.1	124.98
6233	8.4963	3.6364	0.1	137.03
6234	8.3117	3.6364	0.1	150.12
6235	8.1272	3.6364	0.1	164.33
6236	7.9426	3.6364	0.1	179.72
6237	7.758	3.6364	0.1	196.36
6238	7.5735	3.6364	0.1	214.29
6239	7.3889	3.6364	0.1	233.54
6240	7.2043	3.6364	0.1	254.08
6241	7.0198	3.6364	0.1	275.83
6242	6.8352	3.6364	0.1	298.63
6243	6.6506	3.6364	0.1	322.18
6244	6.466	3.6364	0.1	346.
6245	6.2815	3.6364	0.1	369.35
6246	6.0969	3.6364	0.1	391.09
6247	5.9123	3.6364	0.1	409.54
6248	5.7278	3.6364	0.1	422.21
6249	5.5432	3.6364	0.1	425.46
6250	5.3586	3.6364	0.1	413.93
6251	5.1741	3.6364	0.1	379.81
6252	4.9895	3.6364	0.1	311.51
6253	4.8049	3.6364	0.1	191.31
6254	4.6204	3.6364	0.1	-1.02
6255	4.4358	3.6364	0.1	11.698
6256	4.2512	3.6364	0.1	22.592
6257	23.815	3.8182	0.1	-0.19631
6258	23.631	3.8182	0.1	-0.32658
6259	23.446	3.8182	0.1	-0.14059
6260	23.262	3.8182	0.1	-0.12342
6261	23.077	3.8182	0.1	-9.1972e-002
6262	22.893	3.8182	0.1	-7.6953e-002
6263	22.708	3.8182	0.1	-6.4781e-002
6264	22.523	3.8182	0.1	-5.6115e-002
6265	22.339	3.8182	0.1	-4.9314e-002
6266	22.154	3.8182	0.1	-4.392e-002
6267	21.97	3.8182	0.1	-3.9512e-002
6268	21.785	3.8182	0.1	-3.5853e-002
6269	21.601	3.8182	0.1	-3.2761e-002
6270	21.416	3.8182	0.1	-3.0121e-002
6271	21.231	3.8182	0.1	-2.7836e-002
6272	21.047	3.8182	0.1	-2.5838e-002
6273	20.862	3.8182	0.1	-2.4084e-002
6274	20.678	3.8182	0.1	-2.2528e-002
6275	20.493	3.8182	0.1	-2.1133e-002
6276	20.309	3.8182	0.1	-1.9886e-002
6277	20.124	3.8182	0.1	-1.8768e-002
6278	19.94	3.8182	0.1	-1.775e-002
6279	19.755	3.8182	0.1	-1.6822e-002
6280	19.57	3.8182	0.1	-1.5975e-002
6281	19.386	3.8182	0.1	-1.521e-002
6282	19.201	3.8182	0.1	-1.4498e-002
6283	19.017	3.8182	0.1	-1.3838e-002
6284	18.832	3.8182	0.1	-1.3239e-002
6285	18.648	3.8182	0.1	-1.2677e-002
6286	18.463	3.8182	0.1	-1.2145e-002
6287	18.278	3.8182	0.1	-1.1662e-002
6288	18.094	3.8182	0.1	-1.1212e-002
6289	17.909	3.8182	0.1	-1.0788e-002
6290	17.725	3.8182	0.1	-1.0384e-002
6291	17.54	3.8182	0.1	-1.0007e-002
6292	17.356	3.8182	0.1	-9.6647e-003
6293	17.171	3.8182	0.1	-9.3282e-003
6294	16.986	3.8182	0.1	-9.0052e-003
6295	16.802	3.8182	0.1	-8.6955e-003
6296	16.617	3.8182	0.1	-8.4031e-003
6297	16.433	3.8182	0.1	-8.1409e-003
6298	16.248	3.8182	0.1	-7.8691e-003
6299	16.064	3.8182	0.1	-7.5988e-003
6300	15.879	3.8182	0.1	-7.354e-003
6301	15.694	3.8182	0.1	-7.1043e-003
6302	15.51	3.8182	0.1	-6.8343e-003
6303	15.325	3.8182	0.1	-6.5841e-003
6304	15.141	3.8182	0.1	-6.3305e-003
6305	14.956	3.8182	0.1	-6.0543e-003
6306	14.772	3.8182	0.1	-5.7469e-003
6307	14.587	3.8182	0.1	-5.3993e-003
6308	14.402	3.8182	0.1	-4.9992e-003
6309	14.218	3.8182	0.1	-4.4218e-003
6310	14.033	3.8182	0.1	-3.4676e-003
6311	13.849	3.8182	0.1	-1.2704e-003
6312	13.664	3.8182	0.1	1.7422e-002
6313	13.48	3.8182	0.1	1.0893
6314	13.295	3.8182	0.1	2.5736
6315	13.11	3.8182	0.1	4.1616
6316	12.926	3.8182	0.1	5.8614
6317	12.741	3.8182	0.1	7.6837
6318	12.557	3.8182	0.1	9.6401
6319	12.372	3.8182	0.1	11.744
6320	12.188	3.8182	0.1	14.008
6321	12.003	3.8182	0.1	16.448
6322	11.819	3.8182	0.1	19.079
6323	11.634	3.8182	0.1	21.92
6324	11.449	3.8182	0.1	24.989
6325	11.265	3.8182	0.1	28.306
6326	11.08	3.8182	0.1	31.893
6327	10.896	3.8182	0.1	35.774
6328	10.711	3.8182	0.1	39.976
6329	10.527	3.8182	0.1	44.526
6330	10.342	3.8182	0.1	49.454
6331	10.157	3.8182	0.1	54.794
6332	9.9728	3.8182	0.1	60.579
6333	9.7883	3.8182	0.1	66.849
6334	9.6037	3.8182	0.1	73.644
6335	9.4191	3.8182	0.1	81.007
6336	9.2346	3.8182	0.1	88.985
6337	9.05	3.8182	0.1	97.625
6338	8.8654	3.8182	0.1	106.98
6339	8.6809	3.8182	0.1	117.1
6340	8.4963	3.8182	0.1	128.03
6341	8.3117	3.8182	0.1	139.83
6342	8.1272	3.8182	0.1	152.55
6343	7.9426	3.8182	0.1	166.23
6344	7.758	3.8182	0.1	180.89
6345	7.5735	3.8182	0.1	196.56
6346	7.3889	3.8182	0.1	213.21
6347	7.2043	3.8182	0.1	230.8
6348	7.0198	3.8182	0.1	249.23
6349	6.8352	3.8182	0.1	268.3
6350	6.6506	3.8182	0.1	287.72
6351	6.466	3.8182	0.1	307.03
6352	6.2815	3.8182	0.1	325.53
6353	6.0969	3.8182	0.1	342.15
6354	5.9123	3.8182	0.1	355.33
6355	5.7278	3.8182	0.1	362.76
6356	5.5432	3.8182	0.1	361.
6357	5.3586	3.8182	0.1	344.96
6358	5.1741	3.8182	0.1	306.96
6359	4.9895	3.8182	0.1	236.12
6360	4.8049	3.8182	0.1	113.33
6361	4.6204	3.8182	0.1	13.965
6362	4.4358	3.8182	0.1	-45.546
6363	4.2512	3.8182	0.1	4.8705
6364	23.815	4.	0.1	-0.18839
6365	23.631	4.	0.1	-0.32263
6366	23.446	4.	0.1	-0.13782
6367	23.262	4.	0.1	-0.12099
6368	23.077	4.	0.1	-8.9782e-002
6369	22.893	4.	0.1	-7.4911e-002
6370	22.708	4.	0.1	-6.2841e-002
6371	22.523	4.	0.1	-5.4247e-002
6372	22.339	4.	0.1	-4.7499e-002
6373	22.154	4.	0.1	-4.2152e-002
6374	21.97	4.	0.1	-3.7782e-002
6375	21.785	4.	0.1	-3.4161e-002
6376	21.601	4.	0.1	-3.1109e-002
6377	21.416	4.	0.1	-2.851e-002
6378	21.231	4.	0.1	-2.6264e-002
6379	21.047	4.	0.1	-2.4305e-002
6380	20.862	4.	0.1	-2.2592e-002
6381	20.678	4.	0.1	-2.1076e-002
6382	20.493	4.	0.1	-1.9718e-002
6383	20.309	4.	0.1	-1.8511e-002
6384	20.124	4.	0.1	-1.7428e-002
6385	19.94	4.	0.1	-1.6443e-002
6386	19.755	4.	0.1	-1.555e-002
6387	19.57	4.	0.1	-1.4734e-002
6388	19.386	4.	0.1	-1.4e-002
6389	19.201	4.	0.1	-1.3316e-002
6390	19.017	4.	0.1	-1.2684e-002
6391	18.832	4.	0.1	-1.2109e-002
6392	18.648	4.	0.1	-1.1574e-002
6393	18.463	4.	0.1	-1.1065e-002
6394	18.278	4.	0.1	-1.0601e-002
6395	18.094	4.	0.1	-1.0172e-002
6396	17.909	4.	0.1	-9.7663e-003
6397	17.725	4.	0.1	-9.3803e-003
6398	17.54	4.	0.1	-9.0197e-003
6399	17.356	4.	0.1	-8.6959e-003
6400	17.171	4.	0.1	-8.3726e-003
6401	16.986	4.	0.1	-8.0634e-003
6402	16.802	4.	0.1	-7.768e-003
6403	16.617	4.	0.1	-7.4864e-003
6404	16.433	4.	0.1	-7.2351e-003
6405	16.248	4.	0.1	-6.9728e-003
6406	16.064	4.	0.1	-6.712e-003
6407	15.879	4.	0.1	-6.47e-003
6408	15.694	4.	0.1	-6.2269e-003
6409	15.51	4.	0.1	-5.9591e-003
6410	15.325	4.	0.1	-5.7079e-003
6411	15.141	4.	0.1	-5.4517e-003
6412	14.956	4.	0.1	-5.1666e-003
6413	14.772	4.	0.1	-4.8463e-003
6414	14.587	4.	0.1	-4.4785e-003
6415	14.402	4.	0.1	-4.0495e-003
6416	14.218	4.	0.1	-3.4366e-003
6417	14.033	4.	0.1	-2.4729e-003
6418	13.849	4.	0.1	-5.8049e-004
6419	13.664	4.	0.1	6.3217e-003
6420	13.48	4.	0.1	0.43952
6421	13.295	4.	0.1	1.8471
6422	13.11	4.	0.1	3.3663
6423	12.926	4.	0.1	4.9922
6424	12.741	4.	0.1	6.7341
6425	12.557	4.	0.1	8.6027
6426	12.372	4.	0.1	10.61
6427	12.188	4.	0.1	12.768
6428	12.003	4.	0.1	15.09
6429	11.819	4.	0.1	17.592
6430	11.634	4.	0.1	20.289
6431	11.449	4.	0.1	23.197
6432	11.265	4.	0.1	26.335
6433	11.08	4.	0.1	29.723
6434	10.896	4.	0.1	33.38
6435	10.711	4.	0.1	37.328
6436	10.527	4.	0.1	41.592
6437	10.342	4.	0.1	46.197
6438	10.157	4.	0.1	51.168
6439	9.9728	4.	0.1	56.535
6440	9.7883	4.	0.1	62.326
6441	9.6037	4.	0.1	68.572
6442	9.4191	4.	0.1	75.305
6443	9.2346	4.	0.1	82.558
6444	9.05	4.	0.1	90.363
6445	8.8654	4.	0.1	98.752
6446	8.6809	4.	0.1	107.76
6447	8.4963	4.	0.1	117.41
6448	8.3117	4.	0.1	127.73
6449	8.1272	4.	0.1	138.73
6450	7.9426	4.	0.1	150.43
6451	7.758	4.	0.1	162.82
6452	7.5735	4.	0.1	175.89
6453	7.3889	4.	0.1	189.57
6454	7.2043	4.	0.1	203.78
6455	7.0198	4.	0.1	218.38
6456	6.8352	4.	0.1	233.16
6457	6.6506	4.	0.1	247.81
6458	6.466	4.	0.1	261.83
6459	6.2815	4.	0.1	274.51
6460	6.0969	4.	0.1	284.79
6461	5.9123	4.	0.1	291.06
6462	5.7278	4.	0.1	290.85
6463	5.5432	4.	0.1	280.36
6464	5.3586	4.	0.1	253.74
6465	5.1741	4.	0.1	201.72
6466	4.9895	4.	0.1	111.87
6467	4.8049	4.	0.1	14.148
6468	4.6204	4.	0.1	22.477
6469	4.4358	4.	0.1	-95.653
6470	4.2512	4.	0.1	723.76
6471	23.815	4.1818	0.1	-0.17834
6472	23.631	4.1818	0.1	-0.3175
6473	23.446	4.1818	0.1	-0.1342
6474	23.262	4.1818	0.1	-0.11778
6475	23.077	4.1818	0.1	-8.6895e-002
6476	22.893	4.1818	0.1	-7.221e-002
6477	22.708	4.1818	0.1	-6.027e-002
6478	22.523	4.1818	0.1	-5.1774e-002
6479	22.339	4.1818	0.1	-4.5102e-002
6480	22.154	4.1818	0.1	-3.9819e-002
6481	21.97	4.1818	0.1	-3.5516e-002
6482	21.785	4.1818	0.1	-3.1955e-002
6483	21.601	4.1818	0.1	-2.8963e-002
6484	21.416	4.1818	0.1	-2.6425e-002
6485	21.231	4.1818	0.1	-2.424e-002
6486	21.047	4.1818	0.1	-2.2341e-002
6487	20.862	4.1818	0.1	-2.0687e-002
6488	20.678	4.1818	0.1	-1.9228e-002
6489	20.493	4.1818	0.1	-1.7924e-002
6490	20.309	4.1818	0.1	-1.6771e-002
6491	20.124	4.1818	0.1	-1.5737e-002
6492	19.94	4.1818	0.1	-1.4804e-002
6493	19.755	4.1818	0.1	-1.3953e-002
6494	19.57	4.1818	0.1	-1.3184e-002
6495	19.386	4.1818	0.1	-1.2492e-002
6496	19.201	4.1818	0.1	-1.1847e-002
6497	19.017	4.1818	0.1	-1.1251e-002
6498	18.832	4.1818	0.1	-1.0712e-002
6499	18.648	4.1818	0.1	-1.021e-002
6500	18.463	4.1818	0.1	-9.7313e-003
6501	18.278	4.1818	0.1	-9.2988e-003
6502	18.094	4.1818	0.1	-8.8979e-003
6503	17.909	4.1818	0.1	-8.52e-003
6504	17.725	4.1818	0.1	-8.158e-003
6505	17.54	4.1818	0.1	-7.8229e-003
6506	17.356	4.1818	0.1	-7.5205e-003
6507	17.171	4.1818	0.1	-7.2182e-003
6508	16.986	4.1818	0.1	-6.9305e-003
6509	16.802	4.1818	0.1	-6.6521e-003
6510	16.617	4.1818	0.1	-6.3906e-003
6511	16.433	4.1818	0.1	-6.1543e-003
6512	16.248	4.1818	0.1	-5.908e-003
6513	16.064	4.1818	0.1	-5.6608e-003
6514	15.879	4.1818	0.1	-5.4335e-003
6515	15.694	4.1818	0.1	-5.2003e-003
6516	15.51	4.1818	0.1	-4.9432e-003
6517	15.325	4.1818	0.1	-4.7001e-003
6518	15.141	4.1818	0.1	-4.4495e-003
6519	14.956	4.1818	0.1	-4.1701e-003
6520	14.772	4.1818	0.1	-3.8507e-003
6521	14.587	4.1818	0.1	-3.4839e-003
6522	14.402	4.1818	0.1	-3.0579e-003
6523	14.218	4.1818	0.1	-2.4624e-003
6524	14.033	4.1818	0.1	-1.5737e-003
6525	13.849	4.1818	0.1	-4.5457e-005
6526	13.664	4.1818	0.1	3.7026e-003
6527	13.48	4.1818	0.1	3.0453e-002
6528	13.295	4.1818	0.1	0.99223
6529	13.11	4.1818	0.1	2.4267
6530	12.926	4.1818	0.1	3.9656
6531	12.741	4.1818	0.1	5.6133
6532	12.557	4.1818	0.1	7.3791
6533	12.372	4.1818	0.1	9.2735
6534	12.188	4.1818	0.1	11.308
6535	12.003	4.1818	0.1	13.494
6536	11.819	4.1818	0.1	15.846
6537	11.634	4.1818	0.1	18.376
6538	11.449	4.1818	0.1	21.1
6539	11.265	4.1818	0.1	24.033
6540	11.08	4.1818	0.1	27.191
6541	10.896	4.1818	0.1	30.591
6542	10.711	4.1818	0.1	34.252
6543	10.527	4.1818	0.1	38.192
6544	10.342	4.1818	0.1	42.431
6545	10.157	4.1818	0.1	46.989
6546	9.9728	4.1818	0.1	51.885
6547	9.7883	4.1818	0.1	57.142
6548	9.6037	4.1818	0.1	62.778
6549	9.4191	4.1818	0.1	68.813
6550	9.2346	4.1818	0.1	75.266
6551	9.05	4.1818	0.1	82.152
6552	8.8654	4.1818	0.1	89.485
6553	8.6809	4.1818	0.1	97.275
6554	8.4963	4.1818	0.1	105.53
6555	8.3117	4.1818	0.1	114.23
6556	8.1272	4.1818	0.1	123.38
6557	7.9426	4.1818	0.1	132.95
6558	7.758	4.1818	0.1	142.9
6559	7.5735	4.1818	0.1	153.16
6560	7.3889	4.1818	0.1	163.65
6561	7.2043	4.1818	0.1	174.24
6562	7.0198	4.1818	0.1	184.75
6563	6.8352	4.1818	0.1	194.93
6564	6.6506	4.1818	0.1	204.43
6565	6.466	4.1818	0.1	212.74
6566	6.2815	4.1818	0.1	219.1
6567	6.0969	4.1818	0.1	222.38
6568	5.9123	4.1818	0.1	220.82
6569	5.7278	4.1818	0.1	211.68
6570	5.5432	4.1818	0.1	190.56
6571	5.3586	4.1818	0.1	150.54
6572	5.1741	4.1818	0.1	82.45
6573	4.9895	4.1818	0.1	17.206
6574	4.8049	4.1818	0.1	6.8474
6575	4.6204	4.1818	0.1	10.137
6576	4.4358	4.1818	0.1	-11.713
6577	4.2512	4.1818	0.1	189.67
6578	23.815	4.3636	0.1	-0.16577
6579	23.631	4.3636	0.1	-0.3109
6580	23.446	4.3636	0.1	-0.12947
6581	23.262	4.3636	0.1	-0.1136
6582	23.077	4.3636	0.1	-8.3103e-002
6583	22.893	4.3636	0.1	-6.8657e-002
6584	22.708	4.3636	0.1	-5.6891e-002
6585	22.523	4.3636	0.1	-4.8521e-002
6586	22.339	4.3636	0.1	-4.1967e-002
6587	22.154	4.3636	0.1	-3.6783e-002
6588	21.97	4.3636	0.1	-3.2579e-002
6589	21.785	4.3636	0.1	-2.9112e-002
6590	21.601	4.3636	0.1	-2.6216e-002
6591	21.416	4.3636	0.1	-2.3771e-002
6592	21.231	4.3636	0.1	-2.1677e-002
6593	21.047	4.3636	0.1	-1.9865e-002
6594	20.862	4.3636	0.1	-1.8296e-002
6595	20.678	4.3636	0.1	-1.6919e-002
6596	20.493	4.3636	0.1	-1.5694e-002
6597	20.309	4.3636	0.1	-1.4615e-002
6598	20.124	4.3636	0.1	-1.3653e-002
6599	19.94	4.3636	0.1	-1.2785e-002
6600	19.755	4.3636	0.1	-1.1997e-002
6601	19.57	4.3636	0.1	-1.1288e-002
6602	19.386	4.3636	0.1	-1.0652e-002
6603	19.201	4.3636	0.1	-1.0061e-002
6604	19.017	4.3636	0.1	-9.5162e-003
6605	18.832	4.3636	0.1	-9.0256e-003
6606	18.648	4.3636	0.1	-8.5661e-003
6607	18.463	4.3636	0.1	-8.1323e-003
6608	18.278	4.3636	0.1	-7.7393e-003
6609	18.094	4.3636	0.1	-7.3784e-003
6610	17.909	4.3636	0.1	-7.0343e-003
6611	17.725	4.3636	0.1	-6.7083e-003
6612	17.54	4.3636	0.1	-6.406e-003
6613	17.356	4.3636	0.1	-6.1352e-003
6614	17.171	4.3636	0.1	-5.8634e-003
6615	16.986	4.3636	0.1	-5.6024e-003
6616	16.802	4.3636	0.1	-5.3544e-003
6617	16.617	4.3636	0.1	-5.116e-003
6618	16.433	4.3636	0.1	-4.9063e-003
6619	16.248	4.3636	0.1	-4.6827e-003
6620	16.064	4.3636	0.1	-4.4583e-003
6621	15.879	4.3636	0.1	-4.2535e-003
6622	15.694	4.3636	0.1	-4.0414e-003
6623	15.51	4.3636	0.1	-3.8039e-003
6624	15.325	4.3636	0.1	-3.5804e-003
6625	15.141	4.3636	0.1	-3.3482e-003
6626	14.956	4.3636	0.1	-3.0886e-003
6627	14.772	4.3636	0.1	-2.7907e-003
6628	14.587	4.3636	0.1	-2.4508e-003
6629	14.402	4.3636	0.1	-2.0618e-003
6630	14.218	4.3636	0.1	-1.5261e-003
6631	14.033	4.3636	0.1	-7.6922e-004
6632	13.849	4.3636	0.1	3.9952e-004
6633	13.664	4.3636	0.1	2.6633e-003
6634	13.48	4.3636	0.1	9.2246e-003
6635	13.295	4.3636	0.1	0.12344
6636	13.11	4.3636	0.1	1.353
6637	12.926	4.3636	0.1	2.7902
6638	12.741	4.3636	0.1	4.3307
6639	12.557	4.3636	0.1	5.9802
6640	12.372	4.3636	0.1	7.7476
6641	12.188	4.3636	0.1	9.643
6642	12.003	4.3636	0.1	11.677
6643	11.819	4.3636	0.1	13.86
6644	11.634	4.3636	0.1	16.205
6645	11.449	4.3636	0.1	18.723
6646	11.265	4.3636	0.1	21.428
6647	11.08	4.3636	0.1	24.332
6648	10.896	4.3636	0.1	27.45
6649	10.711	4.3636	0.1	30.796
6650	10.527	4.3636	0.1	34.382
6651	10.342	4.3636	0.1	38.224
6652	10.157	4.3636	0.1	42.334
6653	9.9728	4.3636	0.1	46.726
6654	9.7883	4.3636	0.1	51.41
6655	9.6037	4.3636	0.1	56.396
6656	9.4191	4.3636	0.1	61.692
6657	9.2346	4.3636	0.1	67.301
6658	9.05	4.3636	0.1	73.224
6659	8.8654	4.3636	0.1	79.455
6660	8.6809	4.3636	0.1	85.982
6661	8.4963	4.3636	0.1	92.784
6662	8.3117	4.3636	0.1	99.83
6663	8.1272	4.3636	0.1	107.08
6664	7.9426	4.3636	0.1	114.47
6665	7.758	4.3636	0.1	121.92
6666	7.5735	4.3636	0.1	129.34
6667	7.3889	4.3636	0.1	136.6
6668	7.2043	4.3636	0.1	143.53
6669	7.0198	4.3636	0.1	149.91
6670	6.8352	4.3636	0.1	155.47
6671	6.6506	4.3636	0.1	159.82
6672	6.466	4.3636	0.1	162.42
6673	6.2815	4.3636	0.1	162.5
6674	6.0969	4.3636	0.1	158.87
6675	5.9123	4.3636	0.1	149.73
6676	5.7278	4.3636	0.1	132.19
6677	5.5432	4.3636	0.1	101.82
6678	5.3586	4.3636	0.1	53.941
6679	5.1741	4.3636	0.1	13.497
6680	4.9895	4.3636	0.1	6.9155
6681	4.8049	4.3636	0.1	3.4853
6682	4.6204	4.3636	0.1	14.491
6683	4.4358	4.3636	0.1	-2.9539
6684	4.2512	4.3636	0.1	-14.724
6685	23.815	4.5455	0.1	-0.15005
6686	23.631	4.5455	0.1	-0.30233
6687	23.446	4.5455	0.1	-0.12328
6688	23.262	4.5455	0.1	-0.10808
6689	23.077	4.5455	0.1	-7.8089e-002
6690	22.893	4.5455	0.1	-6.3949e-002
6691	22.708	4.5455	0.1	-5.2415e-002
6692	22.523	4.5455	0.1	-4.4241e-002
6693	22.339	4.5455	0.1	-3.7851e-002
6694	22.154	4.5455	0.1	-3.2833e-002
6695	21.97	4.5455	0.1	-2.8782e-002
6696	21.785	4.5455	0.1	-2.5468e-002
6697	21.601	4.5455	0.1	-2.2717e-002
6698	21.416	4.5455	0.1	-2.0415e-002
6699	21.231	4.5455	0.1	-1.8454e-002
6700	21.047	4.5455	0.1	-1.6766e-002
6701	20.862	4.5455	0.1	-1.5326e-002
6702	20.678	4.5455	0.1	-1.4063e-002
6703	20.493	4.5455	0.1	-1.2948e-002
6704	20.309	4.5455	0.1	-1.1973e-002
6705	20.124	4.5455	0.1	-1.1106e-002
6706	19.94	4.5455	0.1	-1.0332e-002
6707	19.755	4.5455	0.1	-9.6311e-003
6708	19.57	4.5455	0.1	-9.0037e-003
6709	19.386	4.5455	0.1	-8.4437e-003
6710	19.201	4.5455	0.1	-7.9252e-003
6711	19.017	4.5455	0.1	-7.448e-003
6712	18.832	4.5455	0.1	-7.0208e-003
6713	18.648	4.5455	0.1	-6.6243e-003
6714	18.463	4.5455	0.1	-6.2459e-003
6715	18.278	4.5455	0.1	-5.9074e-003
6716	18.094	4.5455	0.1	-5.5975e-003
6717	17.909	4.5455	0.1	-5.3035e-003
6718	17.725	4.5455	0.1	-5.0241e-003
6719	17.54	4.5455	0.1	-4.7655e-003
6720	17.356	4.5455	0.1	-4.5374e-003
6721	17.171	4.5455	0.1	-4.3069e-003
6722	16.986	4.5455	0.1	-4.084e-003
6723	16.802	4.5455	0.1	-3.8721e-003
6724	16.617	4.5455	0.1	-3.672e-003
6725	16.433	4.5455	0.1	-3.4944e-003
6726	16.248	4.5455	0.1	-3.307e-003
6727	16.064	4.5455	0.1	-3.1147e-003
6728	15.879	4.5455	0.1	-2.9411e-003
6729	15.694	4.5455	0.1	-2.7619e-003
6730	15.51	4.5455	0.1	-2.557e-003
6731	15.325	4.5455	0.1	-2.3668e-003
6732	15.141	4.5455	0.1	-2.1706e-003
6733	14.956	4.5455	0.1	-1.9484e-003
6734	14.772	4.5455	0.1	-1.6919e-003
6735	14.587	4.5455	0.1	-1.403e-003
6736	14.402	4.5455	0.1	-1.0784e-003
6737	14.218	4.5455	0.1	-6.414e-004
6738	14.033	4.5455	0.1	-4.6594e-005
6739	13.849	4.5455	0.1	7.9475e-004
6740	13.664	4.5455	0.1	2.1949e-003
6741	13.48	4.5455	0.1	5.0444e-003
6742	13.295	4.5455	0.1	1.3921e-002
6743	13.11	4.5455	0.1	0.21839
6744	12.926	4.5455	0.1	1.4783
6745	12.741	4.5455	0.1	2.8974
6746	12.557	4.5455	0.1	4.4181
6747	12.372	4.5455	0.1	6.0456
6748	12.188	4.5455	0.1	7.7882
6749	12.003	4.5455	0.1	9.6546
6750	11.819	4.5455	0.1	11.654
6751	11.634	4.5455	0.1	13.797
6752	11.449	4.5455	0.1	16.092
6753	11.265	4.5455	0.1	18.551
6754	11.08	4.5455	0.1	21.184
6755	10.896	4.5455	0.1	24.
6756	10.711	4.5455	0.1	27.01
6757	10.527	4.5455	0.1	30.222
6758	10.342	4.5455	0.1	33.646
6759	10.157	4.5455	0.1	37.288
6760	9.9728	4.5455	0.1	41.154
6761	9.7883	4.5455	0.1	45.247
6762	9.6037	4.5455	0.1	49.566
6763	9.4191	4.5455	0.1	54.108
6764	9.2346	4.5455	0.1	58.864
6765	9.05	4.5455	0.1	63.817
6766	8.8654	4.5455	0.1	68.945
6767	8.6809	4.5455	0.1	74.216
6768	8.4963	4.5455	0.1	79.588
6769	8.3117	4.5455	0.1	85.003
6770	8.1272	4.5455	0.1	90.39
6771	7.9426	4.5455	0.1	95.662
6772	7.758	4.5455	0.1	100.71
6773	7.5735	4.5455	0.1	105.39
6774	7.3889	4.5455	0.1	109.55
6775	7.2043	4.5455	0.1	112.99
6776	7.0198	4.5455	0.1	115.47
6777	6.8352	4.5455	0.1	116.67
6778	6.6506	4.5455	0.1	116.21
6779	6.466	4.5455	0.1	113.57
6780	6.2815	4.5455	0.1	107.98
6781	6.0969	4.5455	0.1	98.378
6782	5.9123	4.5455	0.1	83.131
6783	5.7278	4.5455	0.1	60.041
6784	5.5432	4.5455	0.1	28.972
6785	5.3586	4.5455	0.1	9.4537
6786	5.1741	4.5455	0.1	5.2543
6787	4.9895	4.5455	0.1	4.2666
6788	4.8049	4.5455	0.1	4.2684
6789	4.6204	4.5455	0.1	4.7487
6790	4.4358	4.5455	0.1	2.1905
6791	4.2512	4.5455	0.1	31.932
6792	23.815	4.7273	0.1	-0.1303
6793	23.631	4.7273	0.1	-0.29116
6794	23.446	4.7273	0.1	-0.1151
6795	23.262	4.7273	0.1	-0.10074
6796	23.077	4.7273	0.1	-7.1402e-002
6797	22.893	4.7273	0.1	-5.7676e-002
6798	22.708	4.7273	0.1	-4.6481e-002
6799	22.523	4.7273	0.1	-3.8593e-002
6800	22.339	4.7273	0.1	-3.2478e-002
6801	22.154	4.7273	0.1	-2.7713e-002
6802	21.97	4.7273	0.1	-2.3909e-002
6803	21.785	4.7273	0.1	-2.0828e-002
6804	21.601	4.7273	0.1	-1.8301e-002
6805	21.416	4.7273	0.1	-1.6206e-002
6806	21.231	4.7273	0.1	-1.4444e-002
6807	21.047	4.7273	0.1	-1.2948e-002
6808	20.862	4.7273	0.1	-1.1675e-002
6809	20.678	4.7273	0.1	-1.0575e-002
6810	20.493	4.7273	0.1	-9.614e-003
6811	20.309	4.7273	0.1	-8.7779e-003
6812	20.124	4.7273	0.1	-8.048e-003
6813	19.94	4.7273	0.1	-7.3954e-003
6814	19.755	4.7273	0.1	-6.8126e-003
6815	19.57	4.7273	0.1	-6.2914e-003
6816	19.386	4.7273	0.1	-5.8346e-003
6817	19.201	4.7273	0.1	-5.4124e-003
6818	19.017	4.7273	0.1	-5.0248e-003
6819	18.832	4.7273	0.1	-4.6833e-003
6820	18.648	4.7273	0.1	-4.3658e-003
6821	18.463	4.7273	0.1	-4.0632e-003
6822	18.278	4.7273	0.1	-3.7968e-003
6823	18.094	4.7273	0.1	-3.5534e-003
6824	17.909	4.7273	0.1	-3.3246e-003
6825	17.725	4.7273	0.1	-3.1054e-003
6826	17.54	4.7273	0.1	-2.9039e-003
6827	17.356	4.7273	0.1	-2.7311e-003
6828	17.171	4.7273	0.1	-2.5533e-003
6829	16.986	4.7273	0.1	-2.3824e-003
6830	16.802	4.7273	0.1	-2.2179e-003
6831	16.617	4.7273	0.1	-2.0672e-003
6832	16.433	4.7273	0.1	-1.9367e-003
6833	16.248	4.7273	0.1	-1.7947e-003
6834	16.064	4.7273	0.1	-1.647e-003
6835	15.879	4.7273	0.1	-1.5193e-003
6836	15.694	4.7273	0.1	-1.3848e-003
6837	15.51	4.7273	0.1	-1.2265e-003
6838	15.325	4.7273	0.1	-1.0833e-003
6839	15.141	4.7273	0.1	-9.3677e-004
6840	14.956	4.7273	0.1	-7.6932e-004
6841	14.772	4.7273	0.1	-5.7487e-004
6842	14.587	4.7273	0.1	-3.5734e-004
6843	14.402	4.7273	0.1	-1.2306e-004
6844	14.218	4.7273	0.1	1.9452e-004
6845	14.033	4.7273	0.1	6.1564e-004
6846	13.849	4.7273	0.1	1.1663e-003
6847	13.664	4.7273	0.1	2.0022e-003
6848	13.48	4.7273	0.1	3.4178e-003
6849	13.295	4.7273	0.1	6.205e-003
6850	13.11	4.7273	0.1	1.4535e-002
6851	12.926	4.7273	0.1	0.15148
6852	12.741	4.7273	0.1	1.3293
6853	12.557	4.7273	0.1	2.7064
6854	12.372	4.7273	0.1	4.1821
6855	12.188	4.7273	0.1	5.7601
6856	12.003	4.7273	0.1	7.4469
6857	11.819	4.7273	0.1	9.2502
6858	11.634	4.7273	0.1	11.178
6859	11.449	4.7273	0.1	13.237
6860	11.265	4.7273	0.1	15.437
6861	11.08	4.7273	0.1	17.783
6862	10.896	4.7273	0.1	20.284
6863	10.711	4.7273	0.1	22.945
6864	10.527	4.7273	0.1	25.772
6865	10.342	4.7273	0.1	28.767
6866	10.157	4.7273	0.1	31.933
6867	9.9728	4.7273	0.1	35.269
6868	9.7883	4.7273	0.1	38.77
6869	9.6037	4.7273	0.1	42.427
6870	9.4191	4.7273	0.1	46.226
6871	9.2346	4.7273	0.1	50.147
6872	9.05	4.7273	0.1	54.161
6873	8.8654	4.7273	0.1	58.231
6874	8.6809	4.7273	0.1	62.308
6875	8.4963	4.7273	0.1	66.33
6876	8.3117	4.7273	0.1	70.219
6877	8.1272	4.7273	0.1	73.881
6878	7.9426	4.7273	0.1	77.202
6879	7.758	4.7273	0.1	80.045
6880	7.5735	4.7273	0.1	82.249
6881	7.3889	4.7273	0.1	83.624
6882	7.2043	4.7273	0.1	83.95
6883	7.0198	4.7273	0.1	82.968
6884	6.8352	4.7273	0.1	80.37
6885	6.6506	4.7273	0.1	75.786
6886	6.466	4.7273	0.1	68.755
6887	6.2815	4.7273	0.1	58.693
6888	6.0969	4.7273	0.1	44.921
6889	5.9123	4.7273	0.1	27.296
6890	5.7278	4.7273	0.1	11.244
6891	5.5432	4.7273	0.1	5.487
6892	5.3586	4.7273	0.1	3.8756
6893	5.1741	4.7273	0.1	3.2974
6894	4.9895	4.7273	0.1	3.1749
6895	4.8049	4.7273	0.1	3.3143
6896	4.6204	4.7273	0.1	4.2156
6897	4.4358	4.7273	0.1	1.0157
6898	4.2512	4.7273	0.1	9.9418
6899	23.815	4.9091	0.1	-0.10459
6900	23.631	4.9091	0.1	-0.27588
6901	23.446	4.9091	0.1	-0.1037
6902	23.262	4.9091	0.1	-9.05e-002
6903	23.077	4.9091	0.1	-6.2064e-002
6904	22.893	4.9091	0.1	-4.8965e-002
6905	22.708	4.9091	0.1	-3.831e-002
6906	22.523	4.9091	0.1	-3.0912e-002
6907	22.339	4.9091	0.1	-2.5247e-002
6908	22.154	4.9091	0.1	-2.0912e-002
6909	21.97	4.9091	0.1	-1.7503e-002
6910	21.785	4.9091	0.1	-1.4795e-002
6911	21.601	4.9091	0.1	-1.2612e-002
6912	21.416	4.9091	0.1	-1.0837e-002
6913	21.231	4.9091	0.1	-9.3698e-003
6914	21.047	4.9091	0.1	-8.1492e-003
6915	20.862	4.9091	0.1	-7.126e-003
6916	20.678	4.9091	0.1	-6.2602e-003
6917	20.493	4.9091	0.1	-5.5116e-003
6918	20.309	4.9091	0.1	-4.8774e-003
6919	20.124	4.9091	0.1	-4.3303e-003
6920	19.94	4.9091	0.1	-3.8498e-003
6921	19.755	4.9091	0.1	-3.4265e-003
6922	19.57	4.9091	0.1	-3.0534e-003
6923	19.386	4.9091	0.1	-2.7351e-003
6924	19.201	4.9091	0.1	-2.4409e-003
6925	19.017	4.9091	0.1	-2.1764e-003
6926	18.832	4.9091	0.1	-1.9468e-003
6927	18.648	4.9091	0.1	-1.7349e-003
6928	18.463	4.9091	0.1	-1.5328e-003
6929	18.278	4.9091	0.1	-1.3594e-003
6930	18.094	4.9091	0.1	-1.2049e-003
6931	17.909	4.9091	0.1	-1.0597e-003
6932	17.725	4.9091	0.1	-9.2025e-004
6933	17.54	4.9091	0.1	-7.9459e-004
6934	17.356	4.9091	0.1	-6.9453e-004
6935	17.171	4.9091	0.1	-5.856e-004
6936	16.986	4.9091	0.1	-4.8148e-004
6937	16.802	4.9091	0.1	-3.8227e-004
6938	16.617	4.9091	0.1	-2.9192e-004
6939	16.433	4.9091	0.1	-2.2302e-004
6940	16.248	4.9091	0.1	-1.3972e-004
6941	16.064	4.9091	0.1	-5.2455e-005
6942	15.879	4.9091	0.1	1.6077e-005
6943	15.694	4.9091	0.1	9.1219e-005
6944	15.51	4.9091	0.1	1.878e-004
6945	15.325	4.9091	0.1	2.6708e-004
6946	15.141	4.9091	0.1	3.4618e-004
6947	14.956	4.9091	0.1	4.4053e-004
6948	14.772	4.9091	0.1	5.5577e-004
6949	14.587	4.9091	0.1	6.819e-004
6950	14.402	4.9091	0.1	8.0824e-004
6951	14.218	4.9091	0.1	9.9287e-004
6952	14.033	4.9091	0.1	1.2379e-003
6953	13.849	4.9091	0.1	1.536e-003
6954	13.664	4.9091	0.1	1.9727e-003
6955	13.48	4.9091	0.1	2.6535e-003
6956	13.295	4.9091	0.1	3.7327e-003
6957	13.11	4.9091	0.1	5.7866e-003
6958	12.926	4.9091	0.1	1.1038e-002
6959	12.741	4.9091	0.1	4.4623e-002
6960	12.557	4.9091	0.1	0.86893
6961	12.372	4.9091	0.1	2.1739
6962	12.188	4.9091	0.1	3.5761
6963	12.003	4.9091	0.1	5.0731
6964	11.819	4.9091	0.1	6.6698
6965	11.634	4.9091	0.1	8.3721
6966	11.449	4.9091	0.1	10.186
6967	11.265	4.9091	0.1	12.116
6968	11.08	4.9091	0.1	14.168
6969	10.896	4.9091	0.1	16.345
6970	10.711	4.9091	0.1	18.652
6971	10.527	4.9091	0.1	21.089
6972	10.342	4.9091	0.1	23.655
6973	10.157	4.9091	0.1	26.349
6974	9.9728	4.9091	0.1	29.163
6975	9.7883	4.9091	0.1	32.087
6976	9.6037	4.9091	0.1	35.105
6977	9.4191	4.9091	0.1	38.197
6978	9.2346	4.9091	0.1	41.332
6979	9.05	4.9091	0.1	44.473
6980	8.8654	4.9091	0.1	47.57
6981	8.6809	4.9091	0.1	50.562
6982	8.4963	4.9091	0.1	53.373
6983	8.3117	4.9091	0.1	55.911
6984	8.1272	4.9091	0.1	58.064
6985	7.9426	4.9091	0.1	59.699
6986	7.758	4.9091	0.1	60.663
6987	7.5735	4.9091	0.1	60.775
6988	7.3889	4.9091	0.1	59.831
6989	7.2043	4.9091	0.1	57.599
6990	7.0198	4.9091	0.1	53.824
6991	6.8352	4.9091	0.1	48.222
6992	6.6506	4.9091	0.1	40.503
6993	6.466	4.9091	0.1	30.43
6994	6.2815	4.9091	0.1	18.266
6995	6.0969	4.9091	0.1	7.6192
6996	5.9123	4.9091	0.1	3.7969
6997	5.7278	4.9091	0.1	2.7748
6998	5.5432	4.9091	0.1	2.4331
6999	5.3586	4.9091	0.1	2.3453
7000	5.1741	4.9091	0.1	2.3887
7001	4.9895	4.9091	0.1	2.5911
7002	4.8049	4.9091	0.1	2.6509
7003	4.6204	4.9091	0.1	3.6777
7004	4.4358	4.9091	0.1	0.57539
7005	4.2512	4.9091	0.1	11.824
7006	23.815	5.0909	0.1	-7.173e-002
7007	23.631	5.0909	0.1	-0.25553
7008	23.446	5.0909	0.1	-8.8357e-002
7009	23.262	5.0909	0.1	-7.6612e-002
7010	23.077	5.0909	0.1	-4.9493e-002
7011	22.893	5.0909	0.1	-3.7355e-002
7012	22.708	5.0909	0.1	-2.7572e-002
7013	22.523	5.0909	0.1	-2.0962e-002
7014	22.339	5.0909	0.1	-1.6026e-002
7015	22.154	5.0909	0.1	-1.2351e-002
7016	21.97	5.0909	0.1	-9.5486e-003
7017	21.785	5.0909	0.1	-7.3885e-003
7018	21.601	5.0909	0.1	-5.7043e-003
7019	21.416	5.0909	0.1	-4.3818e-003
7020	21.231	5.0909	0.1	-3.3257e-003
7021	21.047	5.0909	0.1	-2.4749e-003
7022	20.862	5.0909	0.1	-1.7934e-003
7023	20.678	5.0909	0.1	-1.237e-003
7024	20.493	5.0909	0.1	-7.7505e-004
7025	20.309	5.0909	0.1	-4.0016e-004
7026	20.124	5.0909	0.1	-9.2097e-005
7027	19.94	5.0909	0.1	1.6611e-004
7028	19.755	5.0909	0.1	3.8724e-004
7029	19.57	5.0909	0.1	5.7218e-004
7030	19.386	5.0909	0.1	7.1629e-004
7031	19.201	5.0909	0.1	8.4926e-004
7032	19.017	5.0909	0.1	9.6462e-004
7033	18.832	5.0909	0.1	1.055e-003
7034	18.648	5.0909	0.1	1.134e-003
7035	18.463	5.0909	0.1	1.2151e-003
7036	18.278	5.0909	0.1	1.2739e-003
7037	18.094	5.0909	0.1	1.3212e-003
7038	17.909	5.0909	0.1	1.3645e-003
7039	17.725	5.0909	0.1	1.4093e-003
7040	17.54	5.0909	0.1	1.4443e-003
7041	17.356	5.0909	0.1	1.4585e-003
7042	17.171	5.0909	0.1	1.4855e-003
7043	16.986	5.0909	0.1	1.5107e-003
7044	16.802	5.0909	0.1	1.532e-003
7045	16.617	5.0909	0.1	1.5503e-003
7046	16.433	5.0909	0.1	1.5464e-003
7047	16.248	5.0909	0.1	1.5588e-003
7048	16.064	5.0909	0.1	1.5767e-003
7049	15.879	5.0909	0.1	1.5751e-003
7050	15.694	5.0909	0.1	1.5794e-003
7051	15.51	5.0909	0.1	1.6045e-003
7052	15.325	5.0909	0.1	1.609e-003
7053	15.141	5.0909	0.1	1.6103e-003
7054	14.956	5.0909	0.1	1.6218e-003
7055	14.772	5.0909	0.1	1.6455e-003
7056	14.587	5.0909	0.1	1.6719e-003
7057	14.402	5.0909	0.1	1.684e-003
7058	14.218	5.0909	0.1	1.733e-003
7059	14.033	5.0909	0.1	1.8118e-003
7060	13.849	5.0909	0.1	1.8986e-003
7061	13.664	5.0909	0.1	2.042e-003
7062	13.48	5.0909	0.1	2.286e-003
7063	13.295	5.0909	0.1	2.6308e-003
7064	13.11	5.0909	0.1	3.1977e-003
7065	12.926	5.0909	0.1	4.2449e-003
7066	12.741	5.0909	0.1	6.4981e-003
7067	12.557	5.0909	0.1	1.3548e-002
7068	12.372	5.0909	0.1	0.14034
7069	12.188	5.0909	0.1	1.2581
7070	12.003	5.0909	0.1	2.5533
7071	11.819	5.0909	0.1	3.935
7072	11.634	5.0909	0.1	5.4044
7073	11.449	5.0909	0.1	6.965
7074	11.265	5.0909	0.1	8.6202
7075	11.08	5.0909	0.1	10.373
7076	10.896	5.0909	0.1	12.225
7077	10.711	5.0909	0.1	14.176
7078	10.527	5.0909	0.1	16.227
7079	10.342	5.0909	0.1	18.372
7080	10.157	5.0909	0.1	20.606
7081	9.9728	5.0909	0.1	22.919
7082	9.7883	5.0909	0.1	25.295
7083	9.6037	5.0909	0.1	27.716
7084	9.4191	5.0909	0.1	30.155
7085	9.2346	5.0909	0.1	32.577
7086	9.05	5.0909	0.1	34.938
7087	8.8654	5.0909	0.1	37.182
7088	8.6809	5.0909	0.1	39.24
7089	8.4963	5.0909	0.1	41.03
7090	8.3117	5.0909	0.1	42.45
7091	8.1272	5.0909	0.1	43.38
7092	7.9426	5.0909	0.1	43.679
7093	7.758	5.0909	0.1	43.184
7094	7.5735	5.0909	0.1	41.708
7095	7.3889	5.0909	0.1	39.046
7096	7.2043	5.0909	0.1	34.972
7097	7.0198	5.0909	0.1	29.257
7098	6.8352	5.0909	0.1	21.717
7099	6.6506	5.0909	0.1	12.497
7100	6.466	5.0909	0.1	4.3885
7101	6.2815	5.0909	0.1	1.9715
7102	6.0969	5.0909	0.1	1.4454
7103	5.9123	5.0909	0.1	1.3084
7104	5.7278	5.0909	0.1	1.3189
7105	5.5432	5.0909	0.1	1.4172
7106	5.3586	5.0909	0.1	1.5896
7107	5.1741	5.0909	0.1	1.8197
7108	4.9895	5.0909	0.1	2.1524
7109	4.8049	5.0909	0.1	2.3756
7110	4.6204	5.0909	0.1	3.1487
7111	4.4358	5.0909	0.1	1.0308
7112	4.2512	5.0909	0.1	9.3653
7113	23.815	5.2727	0.1	-1.9324e-002
7114	23.631	5.2727	0.1	-0.22057
7115	23.446	5.2727	0.1	-6.1658e-002
7116	23.262	5.2727	0.1	-5.2848e-002
7117	23.077	5.2727	0.1	-2.8278e-002
7118	22.893	5.2727	0.1	-1.8223e-002
7119	22.708	5.2727	0.1	-1.0252e-002
7120	22.523	5.2727	0.1	-5.2314e-003
7121	22.339	5.2727	0.1	-1.6976e-003
7122	22.154	5.2727	0.1	7.3912e-004
7123	21.97	5.2727	0.1	2.4489e-003
7124	21.785	5.2727	0.1	3.6418e-003
7125	21.601	5.2727	0.1	4.4705e-003
7126	21.416	5.2727	0.1	5.027e-003
7127	21.231	5.2727	0.1	5.3993e-003
7128	21.047	5.2727	0.1	5.6386e-003
7129	20.862	5.2727	0.1	5.7641e-003
7130	20.678	5.2727	0.1	5.8218e-003
7131	20.493	5.2727	0.1	5.8334e-003
7132	20.309	5.2727	0.1	5.7954e-003
7133	20.124	5.2727	0.1	5.7282e-003
7134	19.94	5.2727	0.1	5.6455e-003
7135	19.755	5.2727	0.1	5.5538e-003
7136	19.57	5.2727	0.1	5.451e-003
7137	19.386	5.2727	0.1	5.3315e-003
7138	19.201	5.2727	0.1	5.2192e-003
7139	19.017	5.2727	0.1	5.1101e-003
7140	18.832	5.2727	0.1	4.9903e-003
7141	18.648	5.2727	0.1	4.8772e-003
7142	18.463	5.2727	0.1	4.7777e-003
7143	18.278	5.2727	0.1	4.6695e-003
7144	18.094	5.2727	0.1	4.5587e-003
7145	17.909	5.2727	0.1	4.457e-003
7146	17.725	5.2727	0.1	4.3625e-003
7147	17.54	5.2727	0.1	4.2666e-003
7148	17.356	5.2727	0.1	4.1563e-003
7149	17.171	5.2727	0.1	4.0663e-003
7150	16.986	5.2727	0.1	3.9782e-003
7151	16.802	5.2727	0.1	3.8928e-003
7152	16.617	5.2727	0.1	3.8055e-003
7153	16.433	5.2727	0.1	3.7008e-003
7154	16.248	5.2727	0.1	3.613e-003
7155	16.064	5.2727	0.1	3.5313e-003
7156	15.879	5.2727	0.1	3.4327e-003
7157	15.694	5.2727	0.1	3.3394e-003
7158	15.51	5.2727	0.1	3.2635e-003
7159	15.325	5.2727	0.1	3.1674e-003
7160	15.141	5.2727	0.1	3.0616e-003
7161	14.956	5.2727	0.1	2.9637e-003
7162	14.772	5.2727	0.1	2.8714e-003
7163	14.587	5.2727	0.1	2.7714e-003
7164	14.402	5.2727	0.1	2.6448e-003
7165	14.218	5.2727	0.1	2.5418e-003
7166	14.033	5.2727	0.1	2.4467e-003
7167	13.849	5.2727	0.1	2.329e-003
7168	13.664	5.2727	0.1	2.2262e-003
7169	13.48	5.2727	0.1	2.159e-003
7170	13.295	5.2727	0.1	2.0853e-003
7171	13.11	5.2727	0.1	2.0416e-003
7172	12.926	5.2727	0.1	2.0711e-003
7173	12.741	5.2727	0.1	2.2351e-003
7174	12.557	5.2727	0.1	2.6569e-003
7175	12.372	5.2727	0.1	3.7228e-003
7176	12.188	5.2727	0.1	7.389e-003
7177	12.003	5.2727	0.1	6.1941e-002
7178	11.819	5.2727	0.1	1.0702
7179	11.634	5.2727	0.1	2.2985
7180	11.449	5.2727	0.1	3.6016
7181	11.265	5.2727	0.1	4.9791
7182	11.08	5.2727	0.1	6.4316
7183	10.896	5.2727	0.1	7.9592
7184	10.711	5.2727	0.1	9.5608
7185	10.527	5.2727	0.1	11.233
7186	10.342	5.2727	0.1	12.971
7187	10.157	5.2727	0.1	14.767
7188	9.9728	5.2727	0.1	16.607
7189	9.7883	5.2727	0.1	18.477
7190	9.6037	5.2727	0.1	20.354
7191	9.4191	5.2727	0.1	22.211
7192	9.2346	5.2727	0.1	24.01
7193	9.05	5.2727	0.1	25.706
7194	8.8654	5.2727	0.1	27.243
7195	8.6809	5.2727	0.1	28.551
7196	8.4963	5.2727	0.1	29.546
7197	8.3117	5.2727	0.1	30.128
7198	8.1272	5.2727	0.1	30.176
7199	7.9426	5.2727	0.1	29.553
7200	7.758	5.2727	0.1	28.099
7201	7.5735	5.2727	0.1	25.634
7202	7.3889	5.2727	0.1	21.966
7203	7.2043	5.2727	0.1	16.904
7204	7.0198	5.2727	0.1	10.358
7205	6.8352	5.2727	0.1	3.4166
7206	6.6506	5.2727	0.1	1.0487
7207	6.466	5.2727	0.1	0.67859
7208	6.2815	5.2727	0.1	0.5876
7209	6.0969	5.2727	0.1	0.58582
7210	5.9123	5.2727	0.1	0.6363
7211	5.7278	5.2727	0.1	0.73288
7212	5.5432	5.2727	0.1	0.87997
7213	5.3586	5.2727	0.1	1.0922
7214	5.1741	5.2727	0.1	1.3783
7215	4.9895	5.2727	0.1	1.7939
7216	4.8049	5.2727	0.1	2.1986
7217	4.6204	5.2727	0.1	3.1934
7218	4.4358	5.2727	0.1	1.5854
7219	4.2512	5.2727	0.1	9.3787
7220	23.815	5.4545	0.1	3.5451e-002
7221	23.631	5.4545	0.1	-0.18308
7222	23.446	5.4545	0.1	-3.1166e-002
7223	23.262	5.4545	0.1	-2.7906e-002
7224	23.077	5.4545	0.1	-7.008e-003
7225	22.893	5.4545	0.1	1.6944e-004
7226	22.708	5.4545	0.1	5.6488e-003
7227	22.523	5.4545	0.1	8.6119e-003
7228	22.339	5.4545	0.1	1.042e-002
7229	22.154	5.4545	0.1	1.1409e-002
7230	21.97	5.4545	0.1	1.1899e-002
7231	21.785	5.4545	0.1	1.2055e-002
7232	21.601	5.4545	0.1	1.2e-002
7233	21.416	5.4545	0.1	1.1799e-002
7234	21.231	5.4545	0.1	1.1518e-002
7235	21.047	5.4545	0.1	1.1185e-002
7236	20.862	5.4545	0.1	1.0819e-002
7237	20.678	5.4545	0.1	1.044e-002
7238	20.493	5.4545	0.1	1.0069e-002
7239	20.309	5.4545	0.1	9.6944e-003
7240	20.124	5.4545	0.1	9.328e-003
7241	19.94	5.4545	0.1	8.9768e-003
7242	19.755	5.4545	0.1	8.6443e-003
7243	19.57	5.4545	0.1	8.3261e-003
7244	19.386	5.4545	0.1	8.0142e-003
7245	19.201	5.4545	0.1	7.7286e-003
7246	19.017	5.4545	0.1	7.4613e-003
7247	18.832	5.4545	0.1	7.1986e-003
7248	18.648	5.4545	0.1	6.9554e-003
7249	18.463	5.4545	0.1	6.7371e-003
7250	18.278	5.4545	0.1	6.5192e-003
7251	18.094	5.4545	0.1	6.3102e-003
7252	17.909	5.4545	0.1	6.1145e-003
7253	17.725	5.4545	0.1	5.9339e-003
7254	17.54	5.4545	0.1	5.7603e-003
7255	17.356	5.4545	0.1	5.5772e-003
7256	17.171	5.4545	0.1	5.4167e-003
7257	16.986	5.4545	0.1	5.2645e-003
7258	16.802	5.4545	0.1	5.1159e-003
7259	16.617	5.4545	0.1	4.971e-003
7260	16.433	5.4545	0.1	4.8085e-003
7261	16.248	5.4545	0.1	4.6666e-003
7262	16.064	5.4545	0.1	4.5326e-003
7263	15.879	5.4545	0.1	4.3805e-003
7264	15.694	5.4545	0.1	4.2339e-003
7265	15.51	5.4545	0.1	4.1078e-003
7266	15.325	5.4545	0.1	3.9575e-003
7267	15.141	5.4545	0.1	3.7982e-003
7268	14.956	5.4545	0.1	3.6429e-003
7269	14.772	5.4545	0.1	3.4898e-003
7270	14.587	5.4545	0.1	3.3262e-003
7271	14.402	5.4545	0.1	3.1314e-003
7272	14.218	5.4545	0.1	2.9509e-003
7273	14.033	5.4545	0.1	2.7701e-003
7274	13.849	5.4545	0.1	2.5543e-003
7275	13.664	5.4545	0.1	2.3366e-003
7276	13.48	5.4545	0.1	2.1309e-003
7277	13.295	5.4545	0.1	1.885e-003
7278	13.11	5.4545	0.1	1.6183e-003
7279	12.926	5.4545	0.1	1.3455e-003
7280	12.741	5.4545	0.1	1.0679e-003
7281	12.557	5.4545	0.1	7.7091e-004
7282	12.372	5.4545	0.1	4.3475e-004
7283	12.188	5.4545	0.1	1.3305e-004
7284	12.003	5.4545	0.1	-1.2717e-004
7285	11.819	5.4545	0.1	-2.3565e-004
7286	11.634	5.4545	0.1	4.4109e-004
7287	11.449	5.4545	0.1	0.12981
7288	11.265	5.4545	0.1	1.216
7289	11.08	5.4545	0.1	2.3703
7290	10.896	5.4545	0.1	3.5786
7291	10.711	5.4545	0.1	4.8385
7292	10.527	5.4545	0.1	6.1463
7293	10.342	5.4545	0.1	7.4959
7294	10.157	5.4545	0.1	8.8789
7295	9.9728	5.4545	0.1	10.283
7296	9.7883	5.4545	0.1	11.694
7297	9.6037	5.4545	0.1	13.089
7298	9.4191	5.4545	0.1	14.443
7299	9.2346	5.4545	0.1	15.722
7300	9.05	5.4545	0.1	16.883
7301	8.8654	5.4545	0.1	17.876
7302	8.6809	5.4545	0.1	18.637
7303	8.4963	5.4545	0.1	19.088
7304	8.3117	5.4545	0.1	19.141
7305	8.1272	5.4545	0.1	18.686
7306	7.9426	5.4545	0.1	17.6
7307	7.758	5.4545	0.1	15.74
7308	7.5735	5.4545	0.1	12.951
7309	7.3889	5.4545	0.1	9.0826
7310	7.2043	5.4545	0.1	4.1549
7311	7.0198	5.4545	0.1	0.75118
7312	6.8352	5.4545	0.1	0.32128
7313	6.6506	5.4545	0.1	0.23284
7314	6.466	5.4545	0.1	0.20928
7315	6.2815	5.4545	0.1	0.21398
7316	6.0969	5.4545	0.1	0.23951
7317	5.9123	5.4545	0.1	0.2868
7318	5.7278	5.4545	0.1	0.36201
7319	5.5432	5.4545	0.1	0.47648
7320	5.3586	5.4545	0.1	0.65391
7321	5.1741	5.4545	0.1	0.9256
7322	4.9895	5.4545	0.1	1.4022
7323	4.8049	5.4545	0.1	2.0653
7324	4.6204	5.4545	0.1	3.5816
7325	4.4358	5.4545	0.1	3.1038
7326	4.2512	5.4545	0.1	10.537
7327	23.815	5.6364	0.1	0.288
7328	23.631	5.6364	0.1	-3.501e-003
7329	23.446	5.6364	0.1	9.6605e-002
7330	23.262	5.6364	0.1	8.326e-002
7331	23.077	5.6364	0.1	8.7077e-002
7332	22.893	5.6364	0.1	8.1997e-002
7333	22.708	5.6364	0.1	7.7549e-002
7334	22.523	5.6364	0.1	7.2475e-002
7335	22.339	5.6364	0.1	6.7613e-002
7336	22.154	5.6364	0.1	6.2993e-002
7337	21.97	5.6364	0.1	5.8696e-002
7338	21.785	5.6364	0.1	5.4721e-002
7339	21.601	5.6364	0.1	5.1064e-002
7340	21.416	5.6364	0.1	4.7701e-002
7341	21.231	5.6364	0.1	4.462e-002
7342	21.047	5.6364	0.1	4.1797e-002
7343	20.862	5.6364	0.1	3.9199e-002
7344	20.678	5.6364	0.1	3.6817e-002
7345	20.493	5.6364	0.1	3.4638e-002
7346	20.309	5.6364	0.1	3.2625e-002
7347	20.124	5.6364	0.1	3.077e-002
7348	19.94	5.6364	0.1	2.9065e-002
7349	19.755	5.6364	0.1	2.7497e-002
7350	19.57	5.6364	0.1	2.6049e-002
7351	19.386	5.6364	0.1	2.4698e-002
7352	19.201	5.6364	0.1	2.3458e-002
7353	19.017	5.6364	0.1	2.2313e-002
7354	18.832	5.6364	0.1	2.124e-002
7355	18.648	5.6364	0.1	2.0246e-002
7356	18.463	5.6364	0.1	1.9331e-002
7357	18.278	5.6364	0.1	1.8465e-002
7358	18.094	5.6364	0.1	1.7651e-002
7359	17.909	5.6364	0.1	1.689e-002
7360	17.725	5.6364	0.1	1.6178e-002
7361	17.54	5.6364	0.1	1.55e-002
7362	17.356	5.6364	0.1	1.4844e-002
7363	17.171	5.6364	0.1	1.4232e-002
7364	16.986	5.6364	0.1	1.3648e-002
7365	16.802	5.6364	0.1	1.3086e-002
7366	16.617	5.6364	0.1	1.2539e-002
7367	16.433	5.6364	0.1	1.1988e-002
7368	16.248	5.6364	0.1	1.1464e-002
7369	16.064	5.6364	0.1	1.0955e-002
7370	15.879	5.6364	0.1	1.043e-002
7371	15.694	5.6364	0.1	9.9133e-003
7372	15.51	5.6364	0.1	9.4121e-003
7373	15.325	5.6364	0.1	8.8855e-003
7374	15.141	5.6364	0.1	8.3413e-003
7375	14.956	5.6364	0.1	7.7924e-003
7376	14.772	5.6364	0.1	7.235e-003
7377	14.587	5.6364	0.1	6.6516e-003
7378	14.402	5.6364	0.1	6.0216e-003
7379	14.218	5.6364	0.1	5.3841e-003
7380	14.033	5.6364	0.1	4.7247e-003
7381	13.849	5.6364	0.1	4.0063e-003
7382	13.664	5.6364	0.1	3.256e-003
7383	13.48	5.6364	0.1	2.4876e-003
7384	13.295	5.6364	0.1	1.6449e-003
7385	13.11	5.6364	0.1	7.4255e-004
7386	12.926	5.6364	0.1	-2.067e-004
7387	12.741	5.6364	0.1	-1.2067e-003
7388	12.557	5.6364	0.1	-2.2773e-003
7389	12.372	5.6364	0.1	-3.4449e-003
7390	12.188	5.6364	0.1	-4.6509e-003
7391	12.003	5.6364	0.1	-5.9192e-003
7392	11.819	5.6364	0.1	-7.2469e-003
7393	11.634	5.6364	0.1	-8.622e-003
7394	11.449	5.6364	0.1	-1.0032e-002
7395	11.265	5.6364	0.1	-1.1306e-002
7396	11.08	5.6364	0.1	-1.2143e-002
7397	10.896	5.6364	0.1	-1.097e-002
7398	10.711	5.6364	0.1	5.7667e-002
7399	10.527	5.6364	0.1	0.94213
7400	10.342	5.6364	0.1	1.9223
7401	10.157	5.6364	0.1	2.9218
7402	9.9728	5.6364	0.1	3.929
7403	9.7883	5.6364	0.1	4.9309
7404	9.6037	5.6364	0.1	5.9105
7405	9.4191	5.6364	0.1	6.8468
7406	9.2346	5.6364	0.1	7.7128
7407	9.05	5.6364	0.1	8.4755
7408	8.8654	5.6364	0.1	9.0941
7409	8.6809	5.6364	0.1	9.5191
7410	8.4963	5.6364	0.1	9.6907
7411	8.3117	5.6364	0.1	9.5378
7412	8.1272	5.6364	0.1	8.9771
7413	7.9426	5.6364	0.1	7.912
7414	7.758	5.6364	0.1	6.2361
7415	7.5735	5.6364	0.1	3.8527
7416	7.3889	5.6364	0.1	1.0231
7417	7.2043	5.6364	0.1	0.19929
7418	7.0198	5.6364	0.1	0.1207
7419	6.8352	5.6364	0.1	0.10945
7420	6.6506	5.6364	0.1	0.11875
7421	6.466	5.6364	0.1	0.1395
7422	6.2815	5.6364	0.1	0.16901
7423	6.0969	5.6364	0.1	0.20642
7424	5.9123	5.6364	0.1	0.2518
7425	5.7278	5.6364	0.1	0.30695
7426	5.5432	5.6364	0.1	0.37701
7427	5.3586	5.6364	0.1	0.48023
7428	5.1741	5.6364	0.1	0.65325
7429	4.9895	5.6364	0.1	1.0426
7430	4.8049	5.6364	0.1	1.799
7431	4.6204	5.6364	0.1	4.0799
7432	4.4358	5.6364	0.1	5.6486
7433	4.2512	5.6364	0.1	13.835
7434	23.815	5.8182	0.1	0.50912
7435	23.631	5.8182	0.1	0.11051
7436	23.446	5.8182	0.1	0.12103
7437	23.262	5.8182	0.1	8.0902e-002
7438	23.077	5.8182	0.1	6.5308e-002
7439	22.893	5.8182	0.1	5.0022e-002
7440	22.708	5.8182	0.1	3.944e-002
7441	22.523	5.8182	0.1	3.1046e-002
7442	22.339	5.8182	0.1	2.4567e-002
7443	22.154	5.8182	0.1	1.9449e-002
7444	21.97	5.8182	0.1	1.5386e-002
7445	21.785	5.8182	0.1	1.2135e-002
7446	21.601	5.8182	0.1	9.5232e-003
7447	21.416	5.8182	0.1	7.4117e-003
7448	21.231	5.8182	0.1	5.7061e-003
7449	21.047	5.8182	0.1	4.3308e-003
7450	20.862	5.8182	0.1	3.212e-003
7451	20.678	5.8182	0.1	2.3133e-003
7452	20.493	5.8182	0.1	1.5954e-003
7453	20.309	5.8182	0.1	1.0164e-003
7454	20.124	5.8182	0.1	5.523e-004
7455	19.94	5.8182	0.1	1.8885e-004
7456	19.755	5.8182	0.1	-8.7987e-005
7457	19.57	5.8182	0.1	-3.0222e-004
7458	19.386	5.8182	0.1	-4.711e-004
7459	19.201	5.8182	0.1	-5.85e-004
7460	19.017	5.8182	0.1	-6.5842e-004
7461	18.832	5.8182	0.1	-7.1077e-004
7462	18.648	5.8182	0.1	-7.3313e-004
7463	18.463	5.8182	0.1	-7.2349e-004
7464	18.278	5.8182	0.1	-7.0915e-004
7465	18.094	5.8182	0.1	-6.8163e-004
7466	17.909	5.8182	0.1	-6.4022e-004
7467	17.725	5.8182	0.1	-5.8358e-004
7468	17.54	5.8182	0.1	-5.2124e-004
7469	17.356	5.8182	0.1	-4.6787e-004
7470	17.171	5.8182	0.1	-3.9345e-004
7471	16.986	5.8182	0.1	-3.1143e-004
7472	16.802	5.8182	0.1	-2.2324e-004
7473	16.617	5.8182	0.1	-1.3375e-004
7474	16.433	5.8182	0.1	-5.8983e-005
7475	16.248	5.8182	0.1	3.8258e-005
7476	16.064	5.8182	0.1	1.4726e-004
7477	15.879	5.8182	0.1	2.4087e-004
7478	15.694	5.8182	0.1	3.4787e-004
7479	15.51	5.8182	0.1	4.812e-004
7480	15.325	5.8182	0.1	5.9993e-004
7481	15.141	5.8182	0.1	7.2087e-004
7482	14.956	5.8182	0.1	8.587e-004
7483	14.772	5.8182	0.1	1.0123e-003
7484	14.587	5.8182	0.1	1.1749e-003
7485	14.402	5.8182	0.1	1.3259e-003
7486	14.218	5.8182	0.1	1.5147e-003
7487	14.033	5.8182	0.1	1.7303e-003
7488	13.849	5.8182	0.1	1.9427e-003
7489	13.664	5.8182	0.1	2.1883e-003
7490	13.48	5.8182	0.1	2.4893e-003
7491	13.295	5.8182	0.1	2.7975e-003
7492	13.11	5.8182	0.1	3.1413e-003
7493	12.926	5.8182	0.1	3.5436e-003
7494	12.741	5.8182	0.1	4.0155e-003
7495	12.557	5.8182	0.1	4.5553e-003
7496	12.372	5.8182	0.1	5.1532e-003
7497	12.188	5.8182	0.1	5.893e-003
7498	12.003	5.8182	0.1	6.7724e-003
7499	11.819	5.8182	0.1	7.8254e-003
7500	11.634	5.8182	0.1	9.0944e-003
7501	11.449	5.8182	0.1	1.0614e-002
7502	11.265	5.8182	0.1	1.2535e-002
7503	11.08	5.8182	0.1	1.4955e-002
7504	10.896	5.8182	0.1	1.8003e-002
7505	10.711	5.8182	0.1	2.1968e-002
7506	10.527	5.8182	0.1	2.7242e-002
7507	10.342	5.8182	0.1	3.433e-002
7508	10.157	5.8182	0.1	4.4192e-002
7509	9.9728	5.8182	0.1	5.8448e-002
7510	9.7883	5.8182	0.1	7.9953e-002
7511	9.6037	5.8182	0.1	0.1143
7512	9.4191	5.8182	0.1	0.17291
7513	9.2346	5.8182	0.1	0.27793
7514	9.05	5.8182	0.1	0.45671
7515	8.8654	5.8182	0.1	0.6965
7516	8.6809	5.8182	0.1	0.92319
7517	8.4963	5.8182	0.1	1.0578
7518	8.3117	5.8182	0.1	1.043
7519	8.1272	5.8182	0.1	0.84685
7520	7.9426	5.8182	0.1	0.50779
7521	7.758	5.8182	0.1	0.22005
7522	7.5735	5.8182	0.1	8.8583e-002
7523	7.3889	5.8182	0.1	3.3608e-002
7524	7.2043	5.8182	0.1	7.2692e-003
7525	7.0198	5.8182	0.1	-7.1597e-003
7526	6.8352	5.8182	0.1	-1.6642e-002
7527	6.6506	5.8182	0.1	-2.5174e-002
7528	6.466	5.8182	0.1	-3.6031e-002
7529	6.2815	5.8182	0.1	-5.2603e-002
7530	6.0969	5.8182	0.1	-7.8513e-002
7531	5.9123	5.8182	0.1	-0.11699
7532	5.7278	5.8182	0.1	-0.16847
7533	5.5432	5.8182	0.1	-0.22618
7534	5.3586	5.8182	0.1	-0.26149
7535	5.1741	5.8182	0.1	-0.2117
7536	4.9895	5.8182	0.1	0.12233
7537	4.8049	5.8182	0.1	0.99674
7538	4.6204	5.8182	0.1	3.9019
7539	4.4358	5.8182	0.1	8.5213
7540	4.2512	5.8182	0.1	28.121
7541	0.17727	0.18182	0.1	43.791
7542	0.17727	0.36364	0.1	870.45
7543	0.17727	0.54545	0.1	1296.7
7544	0.17727	0.72727	0.1	1538.7
7545	0.17727	0.90909	0.1	1690.4
7546	0.17727	1.0909	0.1	1794.1
7547	0.17727	1.2727	0.1	1868.4
7548	0.17727	1.4545	0.1	1923.
7549	0.17727	1.6364	0.1	1963.8
7550	0.17727	1.8182	0.1	1994.4
7551	0.17727	2.	0.1	2017.2
7552	0.17727	2.1818	0.1	2034.2
7553	0.17727	2.3636	0.1	2046.4
7554	0.17727	2.5455	0.1	2054.8
7555	0.17727	2.7273	0.1	2060.1
7556	0.17727	2.9091	0.1	2062.6
7557	0.17727	3.0909	0.1	2062.6
7558	0.17727	3.2727	0.1	2060.1
7559	0.17727	3.4545	0.1	2054.8
7560	0.17727	3.6364	0.1	2046.4
7561	0.17727	3.8182	0.1	2034.2
7562	0.17727	4.	0.1	2017.2
7563	0.17727	4.1818	0.1	1994.4
7564	0.17727	4.3636	0.1	1963.8
7565	0.17727	4.5455	0.1	1923.
7566	0.17727	4.7273	0.1	1868.4
7567	0.17727	4.9091	0.1	1794.1
7568	0.17727	5.0909	0.1	1690.4
7569	0.17727	5.2727	0.1	1538.7
7570	0.17727	5.4545	0.1	1296.7
7571	0.17727	5.6364	0.1	870.45
7572	0.17727	5.8182	0.1	43.791
7573	0.35455	0.18182	0.1	92.741
7574	0.35455	0.36364	0.1	706.83
7575	0.35455	0.54545	0.1	1265.
7576	0.35455	0.72727	0.1	1630.
7577	0.35455	0.90909	0.1	1869.9
7578	0.35455	1.0909	0.1	2033.4
7579	0.35455	1.2727	0.1	2149.8
7580	0.35455	1.4545	0.1	2235.3
7581	0.35455	1.6364	0.1	2299.6
7582	0.35455	1.8182	0.1	2348.4
7583	0.35455	2.	0.1	2385.6
7584	0.35455	2.1818	0.1	2413.7
7585	0.35455	2.3636	0.1	2434.5
7586	0.35455	2.5455	0.1	2449.2
7587	0.35455	2.7273	0.1	2458.5
7588	0.35455	2.9091	0.1	2463.1
7589	0.35455	3.0909	0.1	2463.1
7590	0.35455	3.2727	0.1	2458.5
7591	0.35455	3.4545	0.1	2449.2
7592	0.35455	3.6364	0.1	2434.5
7593	0.35455	3.8182	0.1	2413.7
7594	0.35455	4.	0.1	2385.6
7595	0.35455	4.1818	0.1	2348.4
7596	0.35455	4.3636	0.1	2299.6
7597	0.35455	4.5455	0.1	2235.3
7598	0.35455	4.7273	0.1	2149.8
7599	0.35455	4.9091	0.1	2033.4
7600	0.35455	5.0909	0.1	1869.9
7601	0.35455	5.2727	0.1	1630.
7602	0.35455	5.4545	0.1	1265.
7603	0.35455	5.6364	0.1	706.83
7604	0.35455	5.8182	0.1	92.741
7605	0.53182	0.18182	0.1	3.7184
7606	0.53182	0.36364	0.1	436.68
7607	0.53182	0.54545	0.1	891.98
7608	0.53182	0.72727	0.1	1254.4
7609	0.53182	0.90909	0.1	1521.8
7610	0.53182	1.0909	0.1	1716.
7611	0.53182	1.2727	0.1	1858.8
7612	0.53182	1.4545	0.1	1966.
7613	0.53182	1.6364	0.1	2047.9
7614	0.53182	1.8182	0.1	2111.2
7615	0.53182	2.	0.1	2160.4
7616	0.53182	2.1818	0.1	2198.3
7617	0.53182	2.3636	0.1	2226.9
7618	0.53182	2.5455	0.1	2247.4
7619	0.53182	2.7273	0.1	2260.6
7620	0.53182	2.9091	0.1	2267.1
7621	0.53182	3.0909	0.1	2267.1
7622	0.53182	3.2727	0.1	2260.6
7623	0.53182	3.4545	0.1	2247.4
7624	0.53182	3.6364	0.1	2226.9
7625	0.53182	3.8182	0.1	2198.3
7626	0.53182	4.	0.1	2160.4
7627	0.53182	4.1818	0.1	2111.2
7628	0.53182	4.3636	0.1	2047.9
7629	0.53182	4.5455	0.1	1966.
7630	0.53182	4.7273	0.1	1858.8
7631	0.53182	4.9091	0.1	1716.
7632	0.53182	5.0909	0.1	1521.8
7633	0.53182	5.2727	0.1	1254.4
7634	0.53182	5.4545	0.1	891.98
7635	0.53182	5.6364	0.1	436.68
7636	0.53182	5.8182	0.1	3.7184
7637	0.70909	0.18182	0.1	20.052
7638	0.70909	0.36364	0.1	344.06
7639	0.70909	0.54545	0.1	720.33
7640	0.70909	0.72727	0.1	1054.3
7641	0.70909	0.90909	0.1	1327.1
7642	0.70909	1.0909	0.1	1541.
7643	0.70909	1.2727	0.1	1706.8
7644	0.70909	1.4545	0.1	1835.7
7645	0.70909	1.6364	0.1	1936.7
7646	0.70909	1.8182	0.1	2016.3
7647	0.70909	2.	0.1	2079.1
7648	0.70909	2.1818	0.1	2128.1
7649	0.70909	2.3636	0.1	2165.5
7650	0.70909	2.5455	0.1	2192.6
7651	0.70909	2.7273	0.1	2210.2
7652	0.70909	2.9091	0.1	2218.9
7653	0.70909	3.0909	0.1	2218.9
7654	0.70909	3.2727	0.1	2210.2
7655	0.70909	3.4545	0.1	2192.6
7656	0.70909	3.6364	0.1	2165.5
7657	0.70909	3.8182	0.1	2128.1
7658	0.70909	4.	0.1	2079.1
7659	0.70909	4.1818	0.1	2016.3
7660	0.70909	4.3636	0.1	1936.7
7661	0.70909	4.5455	0.1	1835.7
7662	0.70909	4.7273	0.1	1706.8
7663	0.70909	4.9091	0.1	1541.
7664	0.70909	5.0909	0.1	1327.1
7665	0.70909	5.2727	0.1	1054.3
7666	0.70909	5.4545	0.1	720.33
7667	0.70909	5.6364	0.1	344.06
7668	0.70909	5.8182	0.1	20.052
7669	0.88636	0.18182	0.1	13.053
7670	0.88636	0.36364	0.1	273.01
7671	0.88636	0.54545	0.1	581.62
7672	0.88636	0.72727	0.1	874.59
7673	0.88636	0.90909	0.1	1132.7
7674	0.88636	1.0909	0.1	1349.5
7675	0.88636	1.2727	0.1	1527.1
7676	0.88636	1.4545	0.1	1671.1
7677	0.88636	1.6364	0.1	1787.6
7678	0.88636	1.8182	0.1	1881.7
7679	0.88636	2.	0.1	1957.3
7680	0.88636	2.1818	0.1	2017.3
7681	0.88636	2.3636	0.1	2063.5
7682	0.88636	2.5455	0.1	2097.3
7683	0.88636	2.7273	0.1	2119.4
7684	0.88636	2.9091	0.1	2130.3
7685	0.88636	3.0909	0.1	2130.3
7686	0.88636	3.2727	0.1	2119.4
7687	0.88636	3.4545	0.1	2097.3
7688	0.88636	3.6364	0.1	2063.5
7689	0.88636	3.8182	0.1	2017.3
7690	0.88636	4.	0.1	1957.3
7691	0.88636	4.1818	0.1	1881.7
7692	0.88636	4.3636	0.1	1787.6
7693	0.88636	4.5455	0.1	1671.1
7694	0.88636	4.7273	0.1	1527.1
7695	0.88636	4.9091	0.1	1349.5
7696	0.88636	5.0909	0.1	1132.7
7697	0.88636	5.2727	0.1	874.59
7698	0.88636	5.4545	0.1	581.62
7699	0.88636	5.6364	0.1	273.01
7700	0.88636	5.8182	0.1	13.053
7701	1.0636	0.18182	0.1	12.821
7702	1.0636	0.36364	0.1	226.03
7703	1.0636	0.54545	0.1	484.47
7704	1.0636	0.72727	0.1	739.92
7705	1.0636	0.90909	0.1	977.36
7706	1.0636	1.0909	0.1	1187.9
7707	1.0636	1.2727	0.1	1369.1
7708	1.0636	1.4545	0.1	1522.4
7709	1.0636	1.6364	0.1	1650.7
7710	1.0636	1.8182	0.1	1757.1
7711	1.0636	2.	0.1	1844.4
7712	1.0636	2.1818	0.1	1914.7
7713	1.0636	2.3636	0.1	1969.5
7714	1.0636	2.5455	0.1	2009.9
7715	1.0636	2.7273	0.1	2036.5
7716	1.0636	2.9091	0.1	2049.7
7717	1.0636	3.0909	0.1	2049.7
7718	1.0636	3.2727	0.1	2036.5
7719	1.0636	3.4545	0.1	2009.9
7720	1.0636	3.6364	0.1	1969.5
7721	1.0636	3.8182	0.1	1914.7
7722	1.0636	4.	0.1	1844.4
7723	1.0636	4.1818	0.1	1757.1
7724	1.0636	4.3636	0.1	1650.7
7725	1.0636	4.5455	0.1	1522.4
7726	1.0636	4.7273	0.1	1369.1
7727	1.0636	4.9091	0.1	1187.9
7728	1.0636	5.0909	0.1	977.36
7729	1.0636	5.2727	0.1	739.92
7730	1.0636	5.4545	0.1	484.47
7731	1.0636	5.6364	0.1	226.03
7732	1.0636	5.8182	0.1	12.821
7733	1.2409	0.18182	0.1	10.874
7734	1.2409	0.36364	0.1	186.97
7735	1.2409	0.54545	0.1	405.79
7736	1.2409	0.72727	0.1	628.55
7737	1.2409	0.90909	0.1	844.02
7738	1.2409	1.0909	0.1	1043.6
7739	1.2409	1.2727	0.1	1222.9
7740	1.2409	1.4545	0.1	1380.4
7741	1.2409	1.6364	0.1	1516.6
7742	1.2409	1.8182	0.1	1632.7
7743	1.2409	2.	0.1	1730.1
7744	1.2409	2.1818	0.1	1809.7
7745	1.2409	2.3636	0.1	1872.6
7746	1.2409	2.5455	0.1	1919.2
7747	1.2409	2.7273	0.1	1950.1
7748	1.2409	2.9091	0.1	1965.5
7749	1.2409	3.0909	0.1	1965.5
7750	1.2409	3.2727	0.1	1950.1
7751	1.2409	3.4545	0.1	1919.2
7752	1.2409	3.6364	0.1	1872.6
7753	1.2409	3.8182	0.1	1809.7
7754	1.2409	4.	0.1	1730.1
7755	1.2409	4.1818	0.1	1632.7
7756	1.2409	4.3636	0.1	1516.6
7757	1.2409	4.5455	0.1	1380.4
7758	1.2409	4.7273	0.1	1222.9
7759	1.2409	4.9091	0.1	1043.6
7760	1.2409	5.0909	0.1	844.02
7761	1.2409	5.2727	0.1	628.55
7762	1.2409	5.4545	0.1	405.79
7763	1.2409	5.6364	0.1	186.97
7764	1.2409	5.8182	0.1	10.874
7765	1.4182	0.18182	0.1	9.1166
7766	1.4182	0.36364	0.1	152.62
7767	1.4182	0.54545	0.1	339.33
7768	1.4182	0.72727	0.1	534.18
7769	1.4182	0.90909	0.1	728.79
7770	1.4182	1.0909	0.1	915.66
7771	1.4182	1.2727	0.1	1089.7
7772	1.4182	1.4545	0.1	1248.
7773	1.4182	1.6364	0.1	1389.1
7774	1.4182	1.8182	0.1	1512.6
7775	1.4182	2.	0.1	1618.3
7776	1.4182	2.1818	0.1	1706.2
7777	1.4182	2.3636	0.1	1776.4
7778	1.4182	2.5455	0.1	1828.9
7779	1.4182	2.7273	0.1	1863.8
7780	1.4182	2.9091	0.1	1881.3
7781	1.4182	3.0909	0.1	1881.3
7782	1.4182	3.2727	0.1	1863.8
7783	1.4182	3.4545	0.1	1828.9
7784	1.4182	3.6364	0.1	1776.4
7785	1.4182	3.8182	0.1	1706.2
7786	1.4182	4.	0.1	1618.3
7787	1.4182	4.1818	0.1	1512.6
7788	1.4182	4.3636	0.1	1389.1
7789	1.4182	4.5455	0.1	1248.
7790	1.4182	4.7273	0.1	1089.7
7791	1.4182	4.9091	0.1	915.66
7792	1.4182	5.0909	0.1	728.79
7793	1.4182	5.2727	0.1	534.18
7794	1.4182	5.4545	0.1	339.33
7795	1.4182	5.6364	0.1	152.62
7796	1.4182	5.8182	0.1	9.1166
7797	1.5955	0.18182	0.1	7.1716
7798	1.5955	0.36364	0.1	120.1
7799	1.5955	0.54545	0.1	279.63
7800	1.5955	0.72727	0.1	450.26
7801	1.5955	0.90909	0.1	625.59
7802	1.5955	1.0909	0.1	799.29
7803	1.5955	1.2727	0.1	966.38
7804	1.5955	1.4545	0.1	1123.2
7805	1.5955	1.6364	0.1	1267.1
7806	1.5955	1.8182	0.1	1396.1
7807	1.5955	2.	0.1	1508.7
7808	1.5955	2.1818	0.1	1603.9
7809	1.5955	2.3636	0.1	1680.7
7810	1.5955	2.5455	0.1	1738.5
7811	1.5955	2.7273	0.1	1777.1
7812	1.5955	2.9091	0.1	1796.4
7813	1.5955	3.0909	0.1	1796.4
7814	1.5955	3.2727	0.1	1777.1
7815	1.5955	3.4545	0.1	1738.5
7816	1.5955	3.6364	0.1	1680.7
7817	1.5955	3.8182	0.1	1603.9
7818	1.5955	4.	0.1	1508.7
7819	1.5955	4.1818	0.1	1396.1
7820	1.5955	4.3636	0.1	1267.1
7821	1.5955	4.5455	0.1	1123.2
7822	1.5955	4.7273	0.1	966.38
7823	1.5955	4.9091	0.1	799.29
7824	1.5955	5.0909	0.1	625.59
7825	1.5955	5.2727	0.1	450.26
7826	1.5955	5.4545	0.1	279.63
7827	1.5955	5.6364	0.1	120.1
7828	1.5955	5.8182	0.1	7.1716
7829	1.7727	0.18182	0.1	5.4219
7830	1.7727	0.36364	0.1	88.338
7831	1.7727	0.54545	0.1	223.91
7832	1.7727	0.72727	0.1	372.97
7833	1.7727	0.90909	0.1	530.36
7834	1.7727	1.0909	0.1	690.91
7835	1.7727	1.2727	0.1	850.08
7836	1.7727	1.4545	0.1	1003.9
7837	1.7727	1.6364	0.1	1149.1
7838	1.7727	1.8182	0.1	1282.3
7839	1.7727	2.	0.1	1401.
7840	1.7727	2.1818	0.1	1502.5
7841	1.7727	2.3636	0.1	1585.2
7842	1.7727	2.5455	0.1	1647.8
7843	1.7727	2.7273	0.1	1689.7
7844	1.7727	2.9091	0.1	1710.7
7845	1.7727	3.0909	0.1	1710.7
7846	1.7727	3.2727	0.1	1689.7
7847	1.7727	3.4545	0.1	1647.8
7848	1.7727	3.6364	0.1	1585.2
7849	1.7727	3.8182	0.1	1502.5
7850	1.7727	4.	0.1	1401.
7851	1.7727	4.1818	0.1	1282.3
7852	1.7727	4.3636	0.1	1149.1
7853	1.7727	4.5455	0.1	1003.9
7854	1.7727	4.7273	0.1	850.08
7855	1.7727	4.9091	0.1	690.91
7856	1.7727	5.0909	0.1	530.36
7857	1.7727	5.2727	0.1	372.97
7858	1.7727	5.4545	0.1	223.91
7859	1.7727	5.6364	0.1	88.338
7860	1.7727	5.8182	0.1	5.4219
7861	1.95	0.18182	0.1	4.0256
7862	1.95	0.36364	0.1	57.159
7863	1.95	0.54545	0.1	170.53
7864	1.95	0.72727	0.1	299.62
7865	1.95	0.90909	0.1	439.82
7866	1.95	1.0909	0.1	587.05
7867	1.95	1.2727	0.1	737.5
7868	1.95	1.4545	0.1	887.4
7869	1.95	1.6364	0.1	1032.8
7870	1.95	1.8182	0.1	1169.6
7871	1.95	2.	0.1	1293.6
7872	1.95	2.1818	0.1	1401.1
7873	1.95	2.3636	0.1	1489.2
7874	1.95	2.5455	0.1	1555.9
7875	1.95	2.7273	0.1	1600.5
7876	1.95	2.9091	0.1	1622.8
7877	1.95	3.0909	0.1	1622.8
7878	1.95	3.2727	0.1	1600.5
7879	1.95	3.4545	0.1	1555.9
7880	1.95	3.6364	0.1	1489.2
7881	1.95	3.8182	0.1	1401.1
7882	1.95	4.	0.1	1293.6
7883	1.95	4.1818	0.1	1169.6
7884	1.95	4.3636	0.1	1032.8
7885	1.95	4.5455	0.1	887.41
7886	1.95	4.7273	0.1	737.5
7887	1.95	4.9091	0.1	587.05
7888	1.95	5.0909	0.1	439.82
7889	1.95	5.2727	0.1	299.62
7890	1.95	5.4545	0.1	170.53
7891	1.95	5.6364	0.1	57.159
7892	1.95	5.8182	0.1	4.0256
7893	2.1273	0.18182	0.1	3.0423
7894	2.1273	0.36364	0.1	28.454
7895	2.1273	0.54545	0.1	118.9
7896	2.1273	0.72727	0.1	228.54
7897	2.1273	0.90909	0.1	351.36
7898	2.1273	1.0909	0.1	484.44
7899	2.1273	1.2727	0.1	625.05
7900	2.1273	1.4545	0.1	769.97
7901	2.1273	1.6364	0.1	915.05
7902	2.1273	1.8182	0.1	1055.1
7903	2.1273	2.	0.1	1184.5
7904	2.1273	2.1818	0.1	1297.7
7905	2.1273	2.3636	0.1	1390.7
7906	2.1273	2.5455	0.1	1461.
7907	2.1273	2.7273	0.1	1507.6
7908	2.1273	2.9091	0.1	1530.8
7909	2.1273	3.0909	0.1	1530.8
7910	2.1273	3.2727	0.1	1507.6
7911	2.1273	3.4545	0.1	1461.
7912	2.1273	3.6364	0.1	1390.7
7913	2.1273	3.8182	0.1	1297.7
7914	2.1273	4.	0.1	1184.5
7915	2.1273	4.1818	0.1	1055.1
7916	2.1273	4.3636	0.1	915.05
7917	2.1273	4.5455	0.1	769.97
7918	2.1273	4.7273	0.1	625.05
7919	2.1273	4.9091	0.1	484.44
7920	2.1273	5.0909	0.1	351.36
7921	2.1273	5.2727	0.1	228.54
7922	2.1273	5.4545	0.1	118.9
7923	2.1273	5.6364	0.1	28.455
7924	2.1273	5.8182	0.1	3.0423
7925	2.3045	0.18182	0.1	2.425
7926	2.3045	0.36364	0.1	10.499
7927	2.3045	0.54545	0.1	69.701
7928	2.3045	0.72727	0.1	158.81
7929	2.3045	0.90909	0.1	262.74
7930	2.3045	1.0909	0.1	379.62
7931	2.3045	1.2727	0.1	508.34
7932	2.3045	1.4545	0.1	646.83
7933	2.3045	1.6364	0.1	791.06
7934	2.3045	1.8182	0.1	934.77
7935	2.3045	2.	0.1	1070.2
7936	2.3045	2.1818	0.1	1189.5
7937	2.3045	2.3636	0.1	1287.1
7938	2.3045	2.5455	0.1	1359.9
7939	2.3045	2.7273	0.1	1407.6
7940	2.3045	2.9091	0.1	1430.9
7941	2.3045	3.0909	0.1	1430.9
7942	2.3045	3.2727	0.1	1407.6
7943	2.3045	3.4545	0.1	1359.9
7944	2.3045	3.6364	0.1	1287.1
7945	2.3045	3.8182	0.1	1189.5
7946	2.3045	4.	0.1	1070.2
7947	2.3045	4.1818	0.1	934.77
7948	2.3045	4.3636	0.1	791.06
7949	2.3045	4.5455	0.1	646.83
7950	2.3045	4.7273	0.1	508.34
7951	2.3045	4.9091	0.1	379.62
7952	2.3045	5.0909	0.1	262.74
7953	2.3045	5.2727	0.1	158.81
7954	2.3045	5.4545	0.1	69.701
7955	2.3045	5.6364	0.1	10.499
7956	2.3045	5.8182	0.1	2.425
7957	2.4818	0.18182	0.1	2.1149
7958	2.4818	0.36364	0.1	5.4308
7959	2.4818	0.54545	0.1	28.279
7960	2.4818	0.72727	0.1	90.714
7961	2.4818	0.90909	0.1	171.92
7962	2.4818	1.0909	0.1	268.53
7963	2.4818	1.2727	0.1	381.61
7964	2.4818	1.4545	0.1	511.18
7965	2.4818	1.6364	0.1	653.97
7966	2.4818	1.8182	0.1	802.39
7967	2.4818	2.	0.1	945.56
7968	2.4818	2.1818	0.1	1072.2
7969	2.4818	2.3636	0.1	1174.2
7970	2.4818	2.5455	0.1	1248.3
7971	2.4818	2.7273	0.1	1295.2
7972	2.4818	2.9091	0.1	1317.7
7973	2.4818	3.0909	0.1	1317.7
7974	2.4818	3.2727	0.1	1295.2
7975	2.4818	3.4545	0.1	1248.3
7976	2.4818	3.6364	0.1	1174.2
7977	2.4818	3.8182	0.1	1072.2
7978	2.4818	4.	0.1	945.56
7979	2.4818	4.1818	0.1	802.39
7980	2.4818	4.3636	0.1	653.97
7981	2.4818	4.5455	0.1	511.18
7982	2.4818	4.7273	0.1	381.61
7983	2.4818	4.9091	0.1	268.53
7984	2.4818	5.0909	0.1	171.92
7985	2.4818	5.2727	0.1	90.714
7986	2.4818	5.4545	0.1	28.279
7987	2.4818	5.6364	0.1	5.4308
7988	2.4818	5.8182	0.1	2.1149
7989	2.6591	0.18182	0.1	2.0962
7990	2.6591	0.36364	0.1	4.2227
7991	2.6591	0.54545	0.1	10.53
7992	2.6591	0.72727	0.1	31.832
7993	2.6591	0.90909	0.1	78.768
7994	2.6591	1.0909	0.1	146.62
7995	2.6591	1.2727	0.1	236.98
7996	2.6591	1.4545	0.1	352.97
7997	2.6591	1.6364	0.1	493.2
7998	2.6591	1.8182	0.1	648.58
7999	2.6591	2.	0.1	803.21
8000	2.6591	2.1818	0.1	939.71
8001	2.6591	2.3636	0.1	1046.2
8002	2.6591	2.5455	0.1	1119.4
8003	2.6591	2.7273	0.1	1163.2
8004	2.6591	2.9091	0.1	1183.2
8005	2.6591	3.0909	0.1	1183.2
8006	2.6591	3.2727	0.1	1163.2
8007	2.6591	3.4545	0.1	1119.4
8008	2.6591	3.6364	0.1	1046.2
8009	2.6591	3.8182	0.1	939.71
8010	2.6591	4.	0.1	803.21
8011	2.6591	4.1818	0.1	648.58
8012	2.6591	4.3636	0.1	493.2
8013	2.6591	4.5455	0.1	352.97
8014	2.6591	4.7273	0.1	236.98
8015	2.6591	4.9091	0.1	146.62
8016	2.6591	5.0909	0.1	78.768
8017	2.6591	5.2727	0.1	31.832
8018	2.6591	5.4545	0.1	10.53
8019	2.6591	5.6364	0.1	4.2227
8020	2.6591	5.8182	0.1	2.0962
8021	2.8364	0.18182	0.1	2.4239
8022	2.8364	0.36364	0.1	4.1964
8023	2.8364	0.54545	0.1	7.0279
8024	2.8364	0.72727	0.1	10.521
8025	2.8364	0.90909	0.1	15.973
8026	2.8364	1.0909	0.1	29.368
8027	2.8364	1.2727	0.1	70.752
8028	2.8364	1.4545	0.1	158.93
8029	2.8364	1.6364	0.1	292.4
8030	2.8364	1.8182	0.1	458.36
8031	2.8364	2.	0.1	631.57
8032	2.8364	2.1818	0.1	783.13
8033	2.8364	2.3636	0.1	894.62
8034	2.8364	2.5455	0.1	964.14
8035	2.8364	2.7273	0.1	1001.1
8036	2.8364	2.9091	0.1	1016.4
8037	2.8364	3.0909	0.1	1016.4
8038	2.8364	3.2727	0.1	1001.1
8039	2.8364	3.4545	0.1	964.14
8040	2.8364	3.6364	0.1	894.62
8041	2.8364	3.8182	0.1	783.14
8042	2.8364	4.	0.1	631.57
8043	2.8364	4.1818	0.1	458.36
8044	2.8364	4.3636	0.1	292.4
8045	2.8364	4.5455	0.1	158.93
8046	2.8364	4.7273	0.1	70.752
8047	2.8364	4.9091	0.1	29.368
8048	2.8364	5.0909	0.1	15.973
8049	2.8364	5.2727	0.1	10.521
8050	2.8364	5.4545	0.1	7.0279
8051	2.8364	5.6364	0.1	4.1964
8052	2.8364	5.8182	0.1	2.4239
8053	3.0136	0.18182	0.1	3.3377
8054	3.0136	0.36364	0.1	5.0091
8055	3.0136	0.54545	0.1	6.531
8056	3.0136	0.72727	0.1	6.9644
8057	3.0136	0.90909	0.1	7.11
8058	3.0136	1.0909	0.1	7.5773
8059	3.0136	1.2727	0.1	9.0562
8060	3.0136	1.4545	0.1	14.211
8061	3.0136	1.6364	0.1	50.783
8062	3.0136	1.8182	0.1	209.43
8063	3.0136	2.	0.1	413.24
8064	3.0136	2.1818	0.1	590.35
8065	3.0136	2.3636	0.1	707.91
8066	3.0136	2.5455	0.1	769.49
8067	3.0136	2.7273	0.1	795.47
8068	3.0136	2.9091	0.1	804.07
8069	3.0136	3.0909	0.1	804.07
8070	3.0136	3.2727	0.1	795.47
8071	3.0136	3.4545	0.1	769.49
8072	3.0136	3.6364	0.1	707.91
8073	3.0136	3.8182	0.1	590.35
8074	3.0136	4.	0.1	413.25
8075	3.0136	4.1818	0.1	209.43
8076	3.0136	4.3636	0.1	50.783
8077	3.0136	4.5455	0.1	14.211
8078	3.0136	4.7273	0.1	9.0562
8079	3.0136	4.9091	0.1	7.5773
8080	3.0136	5.0909	0.1	7.11
8081	3.0136	5.2727	0.1	6.9644
8082	3.0136	5.4545	0.1	6.531
8083	3.0136	5.6364	0.1	5.0091
8084	3.0136	5.8182	0.1	3.3377
8085	3.1909	0.18182	0.1	5.2033
8086	3.1909	0.36364	0.1	6.7687
8087	3.1909	0.54545	0.1	6.9428
8088	3.1909	0.72727	0.1	5.9617
8089	3.1909	0.90909	0.1	5.3109
8090	3.1909	1.0909	0.1	5.1027
8091	3.1909	1.2727	0.1	5.5602
8092	3.1909	1.4545	0.1	6.7198
8093	3.1909	1.6364	0.1	6.7615
8094	3.1909	1.8182	0.1	14.469
8095	3.1909	2.	0.1	123.83
8096	3.1909	2.1818	0.1	340.37
8097	3.1909	2.3636	0.1	469.09
8098	3.1909	2.5455	0.1	518.26
8099	3.1909	2.7273	0.1	531.15
8100	3.1909	2.9091	0.1	533.22
8101	3.1909	3.0909	0.1	533.22
8102	3.1909	3.2727	0.1	531.15
8103	3.1909	3.4545	0.1	518.26
8104	3.1909	3.6364	0.1	469.09
8105	3.1909	3.8182	0.1	340.37
8106	3.1909	4.	0.1	123.83
8107	3.1909	4.1818	0.1	14.469
8108	3.1909	4.3636	0.1	6.7615
8109	3.1909	4.5455	0.1	6.7198
8110	3.1909	4.7273	0.1	5.5602
8111	3.1909	4.9091	0.1	5.1027
8112	3.1909	5.0909	0.1	5.3109
8113	3.1909	5.2727	0.1	5.9617
8114	3.1909	5.4545	0.1	6.9428
8115	3.1909	5.6364	0.1	6.7687
8116	3.1909	5.8182	0.1	5.2033
8117	3.3682	0.18182	0.1	9.8031
8118	3.3682	0.36364	0.1	10.502
8119	3.3682	0.54545	0.1	8.1681
8120	3.3682	0.72727	0.1	6.0826
8121	3.3682	0.90909	0.1	5.1752
8122	3.3682	1.0909	0.1	5.2611
8123	3.3682	1.2727	0.1	5.7542
8124	3.3682	1.4545	0.1	5.9343
8125	3.3682	1.6364	0.1	15.906
8126	3.3682	1.8182	0.1	12.567
8127	3.3682	2.	0.1	22.222
8128	3.3682	2.1818	0.1	34.331
8129	3.3682	2.3636	0.1	152.91
8130	3.3682	2.5455	0.1	190.29
8131	3.3682	2.7273	0.1	198.73
8132	3.3682	2.9091	0.1	200.32
8133	3.3682	3.0909	0.1	200.32
8134	3.3682	3.2727	0.1	198.73
8135	3.3682	3.4545	0.1	190.29
8136	3.3682	3.6364	0.1	152.91
8137	3.3682	3.8182	0.1	34.331
8138	3.3682	4.	0.1	22.222
8139	3.3682	4.1818	0.1	12.567
8140	3.3682	4.3636	0.1	15.906
8141	3.3682	4.5455	0.1	5.9343
8142	3.3682	4.7273	0.1	5.7542
8143	3.3682	4.9091	0.1	5.2611
8144	3.3682	5.0909	0.1	5.1752
8145	3.3682	5.2727	0.1	6.0826
8146	3.3682	5.4545	0.1	8.1681
8147	3.3682	5.6364	0.1	10.502
8148	3.3682	5.8182	0.1	9.8032
8149	3.5455	0.18182	0.1	17.002
8150	3.5455	0.36364	0.1	12.347
8151	3.5455	0.54545	0.1	6.6443
8152	3.5455	0.72727	0.1	3.5728
8153	3.5455	0.90909	0.1	2.3877
8154	3.5455	1.0909	0.1	1.7362
8155	3.5455	1.2727	0.1	1.9825
8156	3.5455	1.4545	0.1	3.8795
8157	3.5455	1.6364	0.1	0.34362
8158	3.5455	1.8182	0.1	-13.619
8159	3.5455	2.	0.1	-96.764
8160	3.5455	2.1818	0.1	-53.314
8161	3.5455	2.3636	0.1	11.443
8162	3.5455	2.5455	0.1	0.92894
8163	3.5455	2.7273	0.1	1.5349
8164	3.5455	2.9091	0.1	0.61837
8165	3.5455	3.0909	0.1	0.61837
8166	3.5455	3.2727	0.1	1.5349
8167	3.5455	3.4545	0.1	0.92893
8168	3.5455	3.6364	0.1	11.443
8169	3.5455	3.8182	0.1	-53.314
8170	3.5455	4.	0.1	-96.764
8171	3.5455	4.1818	0.1	-13.619
8172	3.5455	4.3636	0.1	0.34364
8173	3.5455	4.5455	0.1	3.8795
8174	3.5455	4.7273	0.1	1.9825
8175	3.5455	4.9091	0.1	1.7362
8176	3.5455	5.0909	0.1	2.3877
8177	3.5455	5.2727	0.1	3.5728
8178	3.5455	5.4545	0.1	6.6443
8179	3.5455	5.6364	0.1	12.347
8180	3.5455	5.8182	0.1	17.002
8181	3.7227	0.18182	0.1	39.131
8182	3.7227	0.36364	0.1	18.315
8183	3.7227	0.54545	0.1	13.162
8184	3.7227	0.72727	0.1	10.962
8185	3.7227	0.90909	0.1	10.389
8186	3.7227	1.0909	0.1	12.535
8187	3.7227	1.2727	0.1	9.8506
8188	3.7227	1.4545	0.1	33.614
8189	3.7227	1.6364	0.1	-20.093
8190	3.7227	1.8182	0.1	202.54
8191	3.7227	2.	0.1	755.19
8192	3.7227	2.1818	0.1	-5.8063
8193	3.7227	2.3636	0.1	26.562
8194	3.7227	2.5455	0.1	-3.89
8195	3.7227	2.7273	0.1	5.5385
8196	3.7227	2.9091	0.1	1.6324
8197	3.7227	3.0909	0.1	1.6324
8198	3.7227	3.2727	0.1	5.5385
8199	3.7227	3.4545	0.1	-3.89
8200	3.7227	3.6364	0.1	26.562
8201	3.7227	3.8182	0.1	-5.8063
8202	3.7227	4.	0.1	755.19
8203	3.7227	4.1818	0.1	202.54
8204	3.7227	4.3636	0.1	-20.093
8205	3.7227	4.5455	0.1	33.614
8206	3.7227	4.7273	0.1	9.8506
8207	3.7227	4.9091	0.1	12.535
8208	3.7227	5.0909	0.1	10.389
8209	3.7227	5.2727	0.1	10.962
8210	3.7227	5.4545	0.1	13.162
8211	3.7227	5.6364	0.1	18.315
8212	3.7227	5.8182	0.1	39.131
8213	4.0667	3.8182	0.1	-131.23
8214	4.0667	3.6364	0.1	48.905
8215	4.0667	3.4545	0.1	-0.62171
8216	4.0667	3.2727	0.1	5.397
8217	4.0667	3.0909	0.1	2.7168
8218	4.0667	2.9091	0.1	2.7168
8219	4.0667	2.7273	0.1	5.397
8220	4.0667	2.5455	0.1	-0.62172
8221	4.0667	2.3636	0.1	48.905
8222	4.0667	2.1818	0.1	-131.23
8223	3.9	3.8182	0.1	-146.67
8224	3.9	3.6364	0.1	51.055
8225	3.9	3.4545	0.1	0.62892
8226	3.9	3.2727	0.1	6.0951
8227	3.9	3.0909	0.1	3.2658
8228	3.9	2.9091	0.1	3.2658
8229	3.9	2.7273	0.1	6.0951
8230	3.9	2.5455	0.1	0.6289
8231	3.9	2.3636	0.1	51.055
8232	3.9	2.1818	0.1	-146.67
8233	4.0667	5.8182	0.1	-13.31
8234	4.0667	5.6364	0.1	-19.064
8235	4.0667	5.4545	0.1	-19.419
8236	4.0667	5.2727	0.1	-21.615
8237	4.0667	5.0909	0.1	-25.202
8238	4.0667	4.9091	0.1	-28.278
8239	4.0667	4.7273	0.1	-41.61
8240	4.0667	4.5455	0.1	-36.946
8241	4.0667	4.3636	0.1	-141.94
8242	4.0667	4.1818	0.1	23.376
8243	4.0667	4.	0.1	1365.3
8244	3.9	4.	0.1	1366.2
8245	3.9	4.1818	0.1	4.3473
8246	3.9	4.3636	0.1	-164.65
8247	3.9	4.5455	0.1	-43.651
8248	3.9	4.7273	0.1	-48.327
8249	3.9	4.9091	0.1	-33.868
8250	3.9	5.0909	0.1	-30.452
8251	3.9	5.2727	0.1	-26.687
8252	3.9	5.4545	0.1	-24.405
8253	3.9	5.6364	0.1	-24.562
8254	3.9	5.8182	0.1	-17.058
8255	4.0667	0.18182	0.1	-13.31
8256	4.0667	0.36364	0.1	-19.064
8257	4.0667	0.54545	0.1	-19.419
8258	4.0667	0.72727	0.1	-21.615
8259	4.0667	0.90909	0.1	-25.202
8260	4.0667	1.0909	0.1	-28.278
8261	4.0667	1.2727	0.1	-41.61
8262	4.0667	1.4545	0.1	-36.946
8263	4.0667	1.6364	0.1	-141.94
8264	4.0667	1.8182	0.1	23.376
8265	4.0667	2.	0.1	1365.3
8266	3.9	2.	0.1	1366.2
8267	3.9	1.8182	0.1	4.3469
8268	3.9	1.6364	0.1	-164.65
8269	3.9	1.4545	0.1	-43.651
8270	3.9	1.2727	0.1	-48.327
8271	3.9	1.0909	0.1	-33.868
8272	3.9	0.90909	0.1	-30.452
8273	3.9	0.72727	0.1	-26.687
8274	3.9	0.54545	0.1	-24.405
8275	3.9	0.36364	0.1	-24.562
8276	3.9	0.18182	0.1	-17.058
8277	4.0667	6.	0.1	42.317
8278	4.2512	6.	0.1	4.6875
8279	4.4358	6.	0.1	-3.3703
8280	4.6204	6.	0.1	-0.5976
8281	4.8049	6.	0.1	4.7299e-002
8282	4.9895	6.	0.1	0.87255
8283	5.1741	6.	0.1	1.2743
8284	5.3586	6.	0.1	1.4593
8285	5.5432	6.	0.1	1.4622
8286	5.7278	6.	0.1	1.3558
8287	5.9123	6.	0.1	1.1877
8288	6.0969	6.	0.1	0.99378
8289	6.2815	6.	0.1	0.79712
8290	6.466	6.	0.1	0.61178
8291	6.6506	6.	0.1	0.44533
8292	6.8352	6.	0.1	0.30102
8293	7.0198	6.	0.1	0.1794
8294	7.2043	6.	0.1	7.9394e-002
8295	7.3889	6.	0.1	-9.2876e-004
8296	7.5735	6.	0.1	-6.3874e-002
8297	7.758	6.	0.1	-0.11183
8298	7.9426	6.	0.1	-0.1471
8299	8.1272	6.	0.1	-0.1718
8300	8.3117	6.	0.1	-0.18786
8301	8.4963	6.	0.1	-0.19696
8302	8.6809	6.	0.1	-0.20053
8303	8.8654	6.	0.1	-0.19978
8304	9.05	6.	0.1	-0.19574
8305	9.2346	6.	0.1	-0.18923
8306	9.4191	6.	0.1	-0.18092
8307	9.6037	6.	0.1	-0.17137
8308	9.7883	6.	0.1	-0.16099
8309	9.9728	6.	0.1	-0.15014
8310	10.157	6.	0.1	-0.1391
8311	10.342	6.	0.1	-0.12804
8312	10.527	6.	0.1	-0.11713
8313	10.711	6.	0.1	-0.10653
8314	10.896	6.	0.1	-9.6252e-002
8315	11.08	6.	0.1	-8.6374e-002
8316	11.265	6.	0.1	-7.6965e-002
8317	11.449	6.	0.1	-6.8014e-002
8318	11.634	6.	0.1	-5.9507e-002
8319	11.819	6.	0.1	-5.15e-002
8320	12.003	6.	0.1	-4.3959e-002
8321	12.188	6.	0.1	-3.6863e-002
8322	12.372	6.	0.1	-3.0194e-002
8323	12.557	6.	0.1	-2.3906e-002
8324	12.741	6.	0.1	-1.8029e-002
8325	12.926	6.	0.1	-1.2519e-002
8326	13.11	6.	0.1	-7.3367e-003
8327	13.295	6.	0.1	-2.4588e-003
8328	13.48	6.	0.1	2.1262e-003
8329	13.664	6.	0.1	6.4234e-003
8330	13.849	6.	0.1	1.0503e-002
8331	14.033	6.	0.1	1.4368e-002
8332	14.218	6.	0.1	1.8021e-002
8333	14.402	6.	0.1	2.1506e-002
8334	14.587	6.	0.1	2.4855e-002
8335	14.772	6.	0.1	2.8052e-002
8336	14.956	6.	0.1	3.1128e-002
8337	15.141	6.	0.1	3.4116e-002
8338	15.325	6.	0.1	3.7033e-002
8339	15.51	6.	0.1	3.989e-002
8340	15.694	6.	0.1	4.2687e-002
8341	15.879	6.	0.1	4.5479e-002
8342	16.064	6.	0.1	4.8269e-002
8343	16.248	6.	0.1	5.106e-002
8344	16.433	6.	0.1	5.3886e-002
8345	16.617	6.	0.1	5.6775e-002
8346	16.802	6.	0.1	5.9716e-002
8347	16.986	6.	0.1	6.2742e-002
8348	17.171	6.	0.1	6.5874e-002
8349	17.356	6.	0.1	6.9131e-002
8350	17.54	6.	0.1	7.2549e-002
8351	17.725	6.	0.1	7.6121e-002
8352	17.909	6.	0.1	7.9883e-002
8353	18.094	6.	0.1	8.3865e-002
8354	18.278	6.	0.1	8.8092e-002
8355	18.463	6.	0.1	9.2581e-002
8356	18.648	6.	0.1	9.7361e-002
8357	18.832	6.	0.1	0.10248
8358	19.017	6.	0.1	0.10796
8359	19.201	6.	0.1	0.11382
8360	19.386	6.	0.1	0.12013
8361	19.57	6.	0.1	0.12693
8362	19.755	6.	0.1	0.13424
8363	19.94	6.	0.1	0.14212
8364	20.124	6.	0.1	0.15064
8365	20.309	6.	0.1	0.15985
8366	20.493	6.	0.1	0.16982
8367	20.678	6.	0.1	0.18063
8368	20.862	6.	0.1	0.19238
8369	21.047	6.	0.1	0.20517
8370	21.231	6.	0.1	0.21911
8371	21.416	6.	0.1	0.23436
8372	21.601	6.	0.1	0.2511
8373	21.785	6.	0.1	0.26954
8374	21.97	6.	0.1	0.28994
8375	22.154	6.	0.1	0.31268
8376	22.339	6.	0.1	0.3382
8377	22.523	6.	0.1	0.3671
8378	22.708	6.	0.1	0.40031
8379	22.893	6.	0.1	0.43883
8380	23.077	6.	0.1	0.48549
8381	23.262	6.	0.1	0.53928
8382	23.446	6.	0.1	0.62396
8383	23.631	6.	0.1	0.69923
8384	23.815	6.	0.1	1.0599
8385	24.	6.	0.1	-1.0459
8386	24.	5.8182	0.1	-2.1321
8387	24.	5.6364	0.1	-2.1655
8388	24.	5.4545	0.1	-2.3698
8389	24.	5.2727	0.1	-2.4027
8390	24.	5.0909	0.1	-2.4403
8391	24.	4.9091	0.1	-2.4623
8392	24.	4.7273	0.1	-2.4798
8393	24.	4.5455	0.1	-2.4929
8394	24.	4.3636	0.1	-2.5031
8395	24.	4.1818	0.1	-2.5112
8396	24.	4.	0.1	-2.5175
8397	24.	3.8182	0.1	-2.5224
8398	24.	3.6364	0.1	-2.5261
8399	24.	3.4545	0.1	-2.5288
8400	24.	3.2727	0.1	-2.5305
8401	24.	3.0909	0.1	-2.5313
8402	24.	2.9091	0.1	-2.5313
8403	24.	2.7273	0.1	-2.5305
8404	24.	2.5455	0.1	-2.5288
8405	24.	2.3636	0.1	-2.5261
8406	24.	2.1818	0.1	-2.5224
8407	24.	2.	0.1	-2.5175
8408	24.	1.8182	0.1	-2.5112
8409	24.	1.6364	0.1	-2.5031
8410	24.	1.4545	0.1	-2.4929
8411	24.	1.2727	0.1	-2.4798
8412	24.	1.0909	0.1	-2.4623
8413	24.	0.90909	0.1	-2.4403
8414	24.	0.72727	0.1	-2.4027
8415	24.	0.54545	0.1	-2.3698
8416	24.	0.36364	0.1	-2.1655
8417	24.	0.18182	0.1	-2.1321
8418	1.5894e-015	0.18182	0.1	1273.2
8419	3.1789e-015	0.36364	0.1	2376.2
8420	4.7683e-015	0.54545	0.1	2882.1
8421	6.3578e-015	0.72727	0.1	3182.
8422	7.9472e-015	0.90909	0.1	3379.9
8423	9.5366e-015	1.0909	0.1	3518.1
8424	1.1126e-014	1.2727	0.1	3616.9
8425	1.2716e-014	1.4545	0.1	3688.
8426	1.4305e-014	1.6364	0.1	3739.2
8427	1.5894e-014	1.8182	0.1	3775.7
8428	1.7484e-014	2.	0.1	3801.2
8429	1.9073e-014	2.1818	0.1	3818.6
8430	2.0663e-014	2.3636	0.1	3830.1
8431	2.2252e-014	2.5455	0.1	3837.4
8432	2.3842e-014	2.7273	0.1	3841.5
8433	2.5431e-014	2.9091	0.1	3843.4
8434	2.702e-014	3.0909	0.1	3843.4
8435	2.861e-014	3.2727	0.1	3841.5
8436	3.0199e-014	3.4545	0.1	3837.4
8437	3.1789e-014	3.6364	0.1	3830.1
8438	3.3378e-014	3.8182	0.1	3818.6
8439	3.4968e-014	4.	0.1	3801.2
8440	3.6557e-014	4.1818	0.1	3775.7
8441	3.8147e-014	4.3636	0.1	3739.2
8442	3.9736e-014	4.5455	0.1	3688.
8443	4.1325e-014	4.7273	0.1	3616.9
8444	4.2915e-014	4.9091	0.1	3518.1
8445	4.4504e-014	5.0909	0.1	3379.9
8446	4.6094e-014	5.2727	0.1	3182.
8447	4.7683e-014	5.4545	0.1	2882.1
8448	4.9273e-014	5.6364	0.1	2376.2
8449	5.0862e-014	5.8182	0.1	1273.2
8450	24.	0.	0.1	-1.0459
8451	23.815	0.	0.1	1.0599
8452	23.631	0.	0.1	0.69923
8453	23.446	0.	0.1	0.62397
8454	23.262	0.	0.1	0.53928
8455	23.077	0.	0.1	0.48549
8456	22.893	0.	0.1	0.43883
8457	22.708	0.	0.1	0.40031
8458	22.523	0.	0.1	0.3671
8459	22.339	0.	0.1	0.3382
8460	22.154	0.	0.1	0.31268
8461	21.97	0.	0.1	0.28995
8462	21.785	0.	0.1	0.26954
8463	21.601	0.	0.1	0.2511
8464	21.416	0.	0.1	0.23437
8465	21.231	0.	0.1	0.21911
8466	21.047	0.	0.1	0.20517
8467	20.862	0.	0.1	0.19238
8468	20.678	0.	0.1	0.18063
8469	20.493	0.	0.1	0.16983
8470	20.309	0.	0.1	0.15985
8471	20.124	0.	0.1	0.15064
8472	19.94	0.	0.1	0.14212
8473	19.755	0.	0.1	0.13424
8474	19.57	0.	0.1	0.12693
8475	19.386	0.	0.1	0.12013
8476	19.201	0.	0.1	0.11383
8477	19.017	0.	0.1	0.10796
8478	18.832	0.	0.1	0.10248
8479	18.648	0.	0.1	9.7362e-002
8480	18.463	0.	0.1	9.2584e-002
8481	18.278	0.	0.1	8.8091e-002
8482	18.094	0.	0.1	8.3866e-002
8483	17.909	0.	0.1	7.9885e-002
8484	17.725	0.	0.1	7.6124e-002
8485	17.54	0.	0.1	7.2552e-002
8486	17.356	0.	0.1	6.9131e-002
8487	17.171	0.	0.1	6.5874e-002
8488	16.986	0.	0.1	6.2742e-002
8489	16.802	0.	0.1	5.9717e-002
8490	16.617	0.	0.1	5.6775e-002
8491	16.433	0.	0.1	5.3886e-002
8492	16.248	0.	0.1	5.1062e-002
8493	16.064	0.	0.1	4.8271e-002
8494	15.879	0.	0.1	4.5479e-002
8495	15.694	0.	0.1	4.2686e-002
8496	15.51	0.	0.1	3.989e-002
8497	15.325	0.	0.1	3.7034e-002
8498	15.141	0.	0.1	3.4117e-002
8499	14.956	0.	0.1	3.1129e-002
8500	14.772	0.	0.1	2.8051e-002
8501	14.587	0.	0.1	2.4856e-002
8502	14.402	0.	0.1	2.1506e-002
8503	14.218	0.	0.1	1.8022e-002
8504	14.033	0.	0.1	1.4369e-002
8505	13.849	0.	0.1	1.0503e-002
8506	13.664	0.	0.1	6.4234e-003
8507	13.48	0.	0.1	2.127e-003
8508	13.295	0.	0.1	-2.4595e-003
8509	13.11	0.	0.1	-7.3347e-003
8510	12.926	0.	0.1	-1.2514e-002
8511	12.741	0.	0.1	-1.8029e-002
8512	12.557	0.	0.1	-2.3908e-002
8513	12.372	0.	0.1	-3.0194e-002
8514	12.188	0.	0.1	-3.6864e-002
8515	12.003	0.	0.1	-4.3957e-002
8516	11.819	0.	0.1	-5.151e-002
8517	11.634	0.	0.1	-5.9535e-002
8518	11.449	0.	0.1	-6.7983e-002
8519	11.265	0.	0.1	-7.6955e-002
8520	11.08	0.	0.1	-8.6376e-002
8521	10.896	0.	0.1	-9.6251e-002
8522	10.711	0.	0.1	-0.10653
8523	10.527	0.	0.1	-0.11713
8524	10.342	0.	0.1	-0.12804
8525	10.157	0.	0.1	-0.1391
8526	9.9728	0.	0.1	-0.15015
8527	9.7883	0.	0.1	-0.16099
8528	9.6037	0.	0.1	-0.17137
8529	9.4191	0.	0.1	-0.18092
8530	9.2346	0.	0.1	-0.18923
8531	9.05	0.	0.1	-0.19574
8532	8.8654	0.	0.1	-0.19978
8533	8.6809	0.	0.1	-0.20053
8534	8.4963	0.	0.1	-0.19696
8535	8.3117	0.	0.1	-0.18786
8536	8.1272	0.	0.1	-0.1718
8537	7.9426	0.	0.1	-0.1471
8538	7.758	0.	0.1	-0.11183
8539	7.5735	0.	0.1	-6.3875e-002
8540	7.3889	0.	0.1	-9.2864e-004
8541	7.2043	0.	0.1	7.9393e-002
8542	7.0198	0.	0.1	0.1794
8543	6.8352	0.	0.1	0.30102
8544	6.6506	0.	0.1	0.44533
8545	6.466	0.	0.1	0.61178
8546	6.2815	0.	0.1	0.79712
8547	6.0969	0.	0.1	0.99378
8548	5.9123	0.	0.1	1.1877
8549	5.7278	0.	0.1	1.3558
8550	5.5432	0.	0.1	1.4622
8551	5.3586	0.	0.1	1.4593
8552	5.1741	0.	0.1	1.2743
8553	4.9895	0.	0.1	0.87255
8554	4.8049	0.	0.1	4.7297e-002
8555	4.6204	0.	0.1	-0.5976
8556	4.4358	0.	0.1	-3.3703
8557	4.2512	0.	0.1	4.6875
8558	4.0667	0.	0.1	42.317
8559	3.9	0.	0.1	47.951
8560	3.7227	-9.8433e-031	0.1	5.2006
8561	3.5455	-9.3746e-031	0.1	-5.5465
8562	3.3682	-8.9059e-031	0.1	-2.638
8563	3.1909	-8.4371e-031	0.1	-2.0823
8564	3.0136	-7.9684e-031	0.1	-1.2751
8565	2.8364	-7.4997e-031	0.1	-0.95092
8566	2.6591	-7.031e-031	0.1	-0.88979
8567	2.4818	-6.5622e-031	0.1	-1.0658
8568	2.3045	-6.0935e-031	0.1	-1.405
8569	2.1273	-5.6248e-031	0.1	-1.8595
8570	1.95	-5.156e-031	0.1	-2.3943
8571	1.7727	-4.6873e-031	0.1	-2.9875
8572	1.5955	-4.2186e-031	0.1	-3.6343
8573	1.4182	-3.7498e-031	0.1	-4.3209
8574	1.2409	-3.2811e-031	0.1	-5.1109
8575	1.0636	-2.8124e-031	0.1	-5.8391
8576	0.88636	-2.3437e-031	0.1	-7.1396
8577	0.70909	-1.8749e-031	0.1	-7.1617
8578	0.53182	-1.4062e-031	0.1	-10.926
8579	0.35455	-9.3746e-032	0.1	-13.092
8580	0.17727	-4.6873e-032	0.1	38.695
8581	0.	0.	0.1	-304.57
8582	3.937e-014	6.	0.1	-304.57
8583	0.17727	6.	0.1	38.695
8584	0.35455	6.	0.1	-13.092
8585	0.53182	6.	0.1	-10.926
8586	0.70909	6.	0.1	-7.1617
8587	0.88636	6.	0.1	-7.1396
8588	1.0636	6.	0.1	-5.8391
8589	1.2409	6.	0.1	-5.1109
8590	1.4182	6.	0.1	-4.3209
8591	1.5955	6.	0.1	-3.6343
8592	1.7727	6.	0.1	-2.9875
8593	1.95	6.	0.1	-2.3943
8594	2.1273	6.	0.1	-1.8595
8595	2.3045	6.	0.1	-1.405
8596	2.4818	6.	0.1	-1.0658
8597	2.6591	6.	0.1	-0.88979
8598	2.8364	6.	0.1	-0.95091
8599	3.0136	6.	0.1	-1.2751
8600	3.1909	6.	0.1	-2.0823
8601	3.3682	6.	0.1	-2.638
8602	3.5455	6.	0.1	-5.5465
8603	3.7227	6.	0.1	5.2006
8604	3.9	6.	0.1	47.951
8605	3.7227	6.	0.	-5.2006
8606	3.5455	6.	0.	5.5465
8607	3.3682	6.	0.	2.638
8608	3.1909	6.	0.	2.0823
8609	3.0136	6.	0.	1.2751
8610	2.8364	6.	0.	0.95092
8611	2.6591	6.	0.	0.88979
8612	2.4818	6.	0.	1.0658
8613	2.3045	6.	0.	1.405
8614	2.1273	6.	0.	1.8595
8615	1.95	6.	0.	2.3943
8616	1.7727	6.	0.	2.9875
8617	1.5955	6.	0.	3.6343
8618	1.4182	6.	0.	4.3209
8619	1.2409	6.	0.	5.1109
8620	1.0636	6.	0.	5.8391
8621	0.88636	6.	0.	7.1396
8622	0.70909	6.	0.	7.1617
8623	0.53182	6.	0.	10.926
8624	0.35455	6.	0.	13.092
8625	0.17727	6.	0.	-38.695
8626	3.9	6.	0.	-47.951
8627	3.937e-014	6.	0.	304.57
8628	0.17727	-4.6873e-032	0.	-38.695
8629	0.35455	-9.3746e-032	0.	13.092
8630	0.53182	-1.4062e-031	0.	10.926
8631	0.70909	-1.8749e-031	0.	7.1617
8632	0.88636	-2.3437e-031	0.	7.1396
8633	1.0636	-2.8124e-031	0.	5.8391
8634	1.2409	-3.2811e-031	0.	5.1109
8635	1.4182	-3.7498e-031	0.	4.3209
8636	1.5955	-4.2186e-031	0.	3.6343
8637	1.7727	-4.6873e-031	0.	2.9875
8638	1.95	-5.156e-031	0.	2.3943
8639	2.1273	-5.6248e-031	0.	1.8595
8640	2.3045	-6.0935e-031	0.	1.405
8641	2.4818	-6.5622e-031	0.	1.0658
8642	2.6591	-7.031e-031	0.	0.88979
8643	2.8364	-7.4997e-031	0.	0.95092
8644	3.0136	-7.9684e-031	0.	1.2751
8645	3.1909	-8.4371e-031	0.	2.0823
8646	3.3682	-8.9059e-031	0.	2.638
8647	3.5455	-9.3746e-031	0.	5.5465
8648	3.7227	-9.8433e-031	0.	-5.2006
8649	3.9	0.	0.	-47.951
8650	0.	0.	0.	304.57
8651	4.2512	0.	0.	-4.6875
8652	4.4358	0.	0.	3.3703
8653	4.6204	0.	0.	0.5976
8654	4.8049	0.	0.	-4.7298e-002
8655	4.9895	0.	0.	-0.87255
8656	5.1741	0.	0.	-1.2743
8657	5.3586	0.	0.	-1.4593
8658	5.5432	0.	0.	-1.4622
8659	5.7278	0.	0.	-1.3558
8660	5.9123	0.	0.	-1.1877
8661	6.0969	0.	0.	-0.99378
8662	6.2815	0.	0.	-0.79712
8663	6.466	0.	0.	-0.61178
8664	6.6506	0.	0.	-0.44533
8665	6.8352	0.	0.	-0.30102
8666	7.0198	0.	0.	-0.1794
8667	7.2043	0.	0.	-7.9393e-002
8668	7.3889	0.	0.	9.2916e-004
8669	7.5735	0.	0.	6.3875e-002
8670	7.758	0.	0.	0.11183
8671	7.9426	0.	0.	0.1471
8672	8.1272	0.	0.	0.1718
8673	8.3117	0.	0.	0.18786
8674	8.4963	0.	0.	0.19696
8675	8.6809	0.	0.	0.20053
8676	8.8654	0.	0.	0.19978
8677	9.05	0.	0.	0.19574
8678	9.2346	0.	0.	0.18923
8679	9.4191	0.	0.	0.18092
8680	9.6037	0.	0.	0.17137
8681	9.7883	0.	0.	0.16099
8682	9.9728	0.	0.	0.15015
8683	10.157	0.	0.	0.1391
8684	10.342	0.	0.	0.12804
8685	10.527	0.	0.	0.11713
8686	10.711	0.	0.	0.10653
8687	10.896	0.	0.	9.6251e-002
8688	11.08	0.	0.	8.6375e-002
8689	11.265	0.	0.	7.6955e-002
8690	11.449	0.	0.	6.7984e-002
8691	11.634	0.	0.	5.9536e-002
8692	11.819	0.	0.	5.151e-002
8693	12.003	0.	0.	4.3957e-002
8694	12.188	0.	0.	3.6864e-002
8695	12.372	0.	0.	3.0194e-002
8696	12.557	0.	0.	2.3911e-002
8697	12.741	0.	0.	1.8029e-002
8698	12.926	0.	0.	1.2516e-002
8699	13.11	0.	0.	7.3362e-003
8700	13.295	0.	0.	2.4595e-003
8701	13.48	0.	0.	-2.1253e-003
8702	13.664	0.	0.	-6.4236e-003
8703	13.849	0.	0.	-1.0503e-002
8704	14.033	0.	0.	-1.4368e-002
8705	14.218	0.	0.	-1.8022e-002
8706	14.402	0.	0.	-2.1504e-002
8707	14.587	0.	0.	-2.4855e-002
8708	14.772	0.	0.	-2.8052e-002
8709	14.956	0.	0.	-3.1129e-002
8710	15.141	0.	0.	-3.4117e-002
8711	15.325	0.	0.	-3.7035e-002
8712	15.51	0.	0.	-3.9888e-002
8713	15.694	0.	0.	-4.2686e-002
8714	15.879	0.	0.	-4.548e-002
8715	16.064	0.	0.	-4.8272e-002
8716	16.248	0.	0.	-5.106e-002
8717	16.433	0.	0.	-5.3884e-002
8718	16.617	0.	0.	-5.6775e-002
8719	16.802	0.	0.	-5.9715e-002
8720	16.986	0.	0.	-6.2741e-002
8721	17.171	0.	0.	-6.5874e-002
8722	17.356	0.	0.	-6.9131e-002
8723	17.54	0.	0.	-7.255e-002
8724	17.725	0.	0.	-7.6121e-002
8725	17.909	0.	0.	-7.9884e-002
8726	18.094	0.	0.	-8.3866e-002
8727	18.278	0.	0.	-8.8091e-002
8728	18.463	0.	0.	-9.2584e-002
8729	18.648	0.	0.	-9.7362e-002
8730	18.832	0.	0.	-0.10248
8731	19.017	0.	0.	-0.10796
8732	19.201	0.	0.	-0.11383
8733	19.386	0.	0.	-0.12013
8734	19.57	0.	0.	-0.12693
8735	19.755	0.	0.	-0.13424
8736	19.94	0.	0.	-0.14212
8737	20.124	0.	0.	-0.15064
8738	20.309	0.	0.	-0.15985
8739	20.493	0.	0.	-0.16982
8740	20.678	0.	0.	-0.18063
8741	20.862	0.	0.	-0.19238
8742	21.047	0.	0.	-0.20517
8743	21.231	0.	0.	-0.21911
8744	21.416	0.	0.	-0.23436
8745	21.601	0.	0.	-0.2511
8746	21.785	0.	0.	-0.26954
8747	21.97	0.	0.	-0.28994
8748	22.154	0.	0.	-0.31268
8749	22.339	0.	0.	-0.3382
8750	22.523	0.	0.	-0.36709
8751	22.708	0.	0.	-0.4003
8752	22.893	0.	0.	-0.43883
8753	23.077	0.	0.	-0.48548
8754	23.262	0.	0.	-0.53927
8755	23.446	0.	0.	-0.62396
8756	23.631	0.	0.	-0.69923
8757	23.815	0.	0.	-1.0599
8758	4.0667	0.	0.	-42.317
8759	24.	0.	0.	1.0459
8760	5.0862e-014	5.8182	0.	-1273.2
8761	4.9273e-014	5.6364	0.	-2376.2
8762	4.7683e-014	5.4545	0.	-2882.1
8763	4.6094e-014	5.2727	0.	-3182.
8764	4.4504e-014	5.0909	0.	-3379.9
8765	4.2915e-014	4.9091	0.	-3518.1
8766	4.1325e-014	4.7273	0.	-3616.9
8767	3.9736e-014	4.5455	0.	-3688.
8768	3.8147e-014	4.3636	0.	-3739.2
8769	3.6557e-014	4.1818	0.	-3775.7
8770	3.4968e-014	4.	0.	-3801.2
8771	3.3378e-014	3.8182	0.	-3818.6
8772	3.1789e-014	3.6364	0.	-3830.1
8773	3.0199e-014	3.4545	0.	-3837.4
8774	2.861e-014	3.2727	0.	-3841.5
8775	2.702e-014	3.0909	0.	-3843.4
8776	2.5431e-014	2.9091	0.	-3843.4
8777	2.3842e-014	2.7273	0.	-3841.5
8778	2.2252e-014	2.5455	0.	-3837.4
8779	2.0663e-014	2.3636	0.	-3830.1
8780	1.9073e-014	2.1818	0.	-3818.6
8781	1.7484e-014	2.	0.	-3801.2
8782	1.5894e-014	1.8182	0.	-3775.7
8783	1.4305e-014	1.6364	0.	-3739.2
8784	1.2716e-014	1.4545	0.	-3688.
8785	1.1126e-014	1.2727	0.	-3616.9
8786	9.5366e-015	1.0909	0.	-3518.1
8787	7.9472e-015	0.90909	0.	-3379.9
8788	6.3578e-015	0.72727	0.	-3182.
8789	4.7683e-015	0.54545	0.	-2882.1
8790	3.1789e-015	0.36364	0.	-2376.2
8791	1.5894e-015	0.18182	0.	-1273.2
8792	24.	0.18182	0.	2.1321
8793	24.	0.36364	0.	2.1655
8794	24.	0.54545	0.	2.3698
8795	24.	0.72727	0.	2.4027
8796	24.	0.90909	0.	2.4403
8797	24.	1.0909	0.	2.4623
8798	24.	1.2727	0.	2.4798
8799	24.	1.4545	0.	2.4929
8800	24.	1.6364	0.	2.5031
8801	24.	1.8182	0.	2.5112
8802	24.	2.	0.	2.5175
8803	24.	2.1818	0.	2.5224
8804	24.	2.3636	0.	2.5261
8805	24.	2.5455	0.	2.5288
8806	24.	2.7273	0.	2.5305
8807	24.	2.9091	0.	2.5313
8808	24.	3.0909	0.	2.5313
8809	24.	3.2727	0.	2.5305
8810	24.	3.4545	0.	2.5288
8811	24.	3.6364	0.	2.5261
8812	24.	3.8182	0.	2.5224
8813	24.	4.	0.	2.5175
8814	24.	4.1818	0.	2.5112
8815	24.	4.3636	0.	2.5031
8816	24.	4.5455	0.	2.4929
8817	24.	4.7273	0.	2.4798
8818	24.	4.9091	0.	2.4623
8819	24.	5.0909	0.	2.4403
8820	24.	5.2727	0.	2.4027
8821	24.	5.4545	0.	2.3698
8822	24.	5.6364	0.	2.1655
8823	24.	5.8182	0.	2.1321
8824	24.	6.	0.	1.0459
8825	23.815	6.	0.	-1.0599
8826	23.631	6.	0.	-0.69922
8827	23.446	6.	0.	-0.62397
8828	23.262	6.	0.	-0.53928
8829	23.077	6.	0.	-0.48549
8830	22.893	6.	0.	-0.43883
8831	22.708	6.	0.	-0.40031
8832	22.523	6.	0.	-0.3671
8833	22.339	6.	0.	-0.33819
8834	22.154	6.	0.	-0.31268
8835	21.97	6.	0.	-0.28995
8836	21.785	6.	0.	-0.26953
8837	21.601	6.	0.	-0.2511
8838	21.416	6.	0.	-0.23436
8839	21.231	6.	0.	-0.21911
8840	21.047	6.	0.	-0.20516
8841	20.862	6.	0.	-0.19238
8842	20.678	6.	0.	-0.18063
8843	20.493	6.	0.	-0.16982
8844	20.309	6.	0.	-0.15985
8845	20.124	6.	0.	-0.15064
8846	19.94	6.	0.	-0.14212
8847	19.755	6.	0.	-0.13424
8848	19.57	6.	0.	-0.12693
8849	19.386	6.	0.	-0.12013
8850	19.201	6.	0.	-0.11382
8851	19.017	6.	0.	-0.10796
8852	18.832	6.	0.	-0.10248
8853	18.648	6.	0.	-9.7358e-002
8854	18.463	6.	0.	-9.2582e-002
8855	18.278	6.	0.	-8.8089e-002
8856	18.094	6.	0.	-8.3864e-002
8857	17.909	6.	0.	-7.9883e-002
8858	17.725	6.	0.	-7.6122e-002
8859	17.54	6.	0.	-7.2549e-002
8860	17.356	6.	0.	-6.9131e-002
8861	17.171	6.	0.	-6.5872e-002
8862	16.986	6.	0.	-6.2742e-002
8863	16.802	6.	0.	-5.9715e-002
8864	16.617	6.	0.	-5.6776e-002
8865	16.433	6.	0.	-5.3886e-002
8866	16.248	6.	0.	-5.1059e-002
8867	16.064	6.	0.	-4.827e-002
8868	15.879	6.	0.	-4.5479e-002
8869	15.694	6.	0.	-4.2686e-002
8870	15.51	6.	0.	-3.989e-002
8871	15.325	6.	0.	-3.7033e-002
8872	15.141	6.	0.	-3.4116e-002
8873	14.956	6.	0.	-3.1127e-002
8874	14.772	6.	0.	-2.805e-002
8875	14.587	6.	0.	-2.4855e-002
8876	14.402	6.	0.	-2.1504e-002
8877	14.218	6.	0.	-1.8022e-002
8878	14.033	6.	0.	-1.4369e-002
8879	13.849	6.	0.	-1.0502e-002
8880	13.664	6.	0.	-6.4236e-003
8881	13.48	6.	0.	-2.1252e-003
8882	13.295	6.	0.	2.4588e-003
8883	13.11	6.	0.	7.3362e-003
8884	12.926	6.	0.	1.2518e-002
8885	12.741	6.	0.	1.803e-002
8886	12.557	6.	0.	2.3906e-002
8887	12.372	6.	0.	3.0194e-002
8888	12.188	6.	0.	3.6863e-002
8889	12.003	6.	0.	4.3959e-002
8890	11.819	6.	0.	5.1501e-002
8891	11.634	6.	0.	5.9508e-002
8892	11.449	6.	0.	6.8013e-002
8893	11.265	6.	0.	7.6966e-002
8894	11.08	6.	0.	8.6374e-002
8895	10.896	6.	0.	9.6251e-002
8896	10.711	6.	0.	0.10653
8897	10.527	6.	0.	0.11713
8898	10.342	6.	0.	0.12804
8899	10.157	6.	0.	0.1391
8900	9.9728	6.	0.	0.15015
8901	9.7883	6.	0.	0.16099
8902	9.6037	6.	0.	0.17137
8903	9.4191	6.	0.	0.18092
8904	9.2346	6.	0.	0.18923
8905	9.05	6.	0.	0.19574
8906	8.8654	6.	0.	0.19978
8907	8.6809	6.	0.	0.20053
8908	8.4963	6.	0.	0.19696
8909	8.3117	6.	0.	0.18786
8910	8.1272	6.	0.	0.1718
8911	7.9426	6.	0.	0.1471
8912	7.758	6.	0.	0.11183
8913	7.5735	6.	0.	6.3874e-002
8914	7.3889	6.	0.	9.2846e-004
8915	7.2043	6.	0.	-7.9394e-002
8916	7.0198	6.	0.	-0.1794
8917	6.8352	6.	0.	-0.30102
8918	6.6506	6.	0.	-0.44533
8919	6.466	6.	0.	-0.61178
8920	6.2815	6.	0.	-0.79712
8921	6.0969	6.	0.	-0.99378
8922	5.9123	6.	0.	-1.1877
8923	5.7278	6.	0.	-1.3558
8924	5.5432	6.	0.	-1.4622
8925	5.3586	6.	0.	-1.4593
8926	5.1741	6.	0.	-1.2743
8927	4.9895	6.	0.	-0.87255
8928	4.8049	6.	0.	-4.7299e-002
8929	4.6204	6.	0.	0.5976
8930	4.4358	6.	0.	3.3703
8931	4.2512	6.	0.	-4.6875
8932	4.0667	6.	0.	-42.317
8933	3.9	1.8182	0.	-4.3473
8934	3.9	1.6364	0.	164.65
8935	3.9	1.4545	0.	43.651
8936	3.9	1.2727	0.	48.327
8937	3.9	1.0909	0.	33.868
8938	3.9	0.90909	0.	30.452
8939	3.9	0.72727	0.	26.687
8940	3.9	0.54545	0.	24.405
8941	3.9	0.36364	0.	24.562
8942	3.9	0.18182	0.	17.058
8943	3.9	2.	0.	-1366.2
8944	4.0667	0.18182	0.	13.31
8945	4.0667	0.36364	0.	19.064
8946	4.0667	0.54545	0.	19.419
8947	4.0667	0.72727	0.	21.615
8948	4.0667	0.90909	0.	25.202
8949	4.0667	1.0909	0.	28.278
8950	4.0667	1.2727	0.	41.61
8951	4.0667	1.4545	0.	36.946
8952	4.0667	1.6364	0.	141.94
8953	4.0667	1.8182	0.	-23.376
8954	4.0667	2.	0.	-1365.3
8955	3.9	4.1818	0.	-4.3469
8956	3.9	4.3636	0.	164.65
8957	3.9	4.5455	0.	43.651
8958	3.9	4.7273	0.	48.327
8959	3.9	4.9091	0.	33.868
8960	3.9	5.0909	0.	30.452
8961	3.9	5.2727	0.	26.687
8962	3.9	5.4545	0.	24.405
8963	3.9	5.6364	0.	24.562
8964	3.9	5.8182	0.	17.058
8965	3.9	4.	0.	-1366.2
8966	4.0667	5.8182	0.	13.31
8967	4.0667	5.6364	0.	19.064
8968	4.0667	5.4545	0.	19.419
8969	4.0667	5.2727	0.	21.615
8970	4.0667	5.0909	0.	25.202
8971	4.0667	4.9091	0.	28.278
8972	4.0667	4.7273	0.	41.61
8973	4.0667	4.5455	0.	36.946
8974	4.0667	4.3636	0.	141.94
8975	4.0667	4.1818	0.	-23.376
8976	4.0667	4.	0.	-1365.3
8977	3.9	2.2727	0.	47.271
8978	3.9833	2.1818	0.	133.73
8979	3.8114	2.1818	0.	73.143
8980	3.9	2.1818	5.e-002	1.3678e-003
8981	3.9	2.0909	0.	-697.73
8982	3.9	2.4545	0.	-25.404
8983	3.9833	2.3636	0.	-49.977
8984	3.8114	2.3636	0.	-38.79
8985	3.9	2.3636	5.e-002	9.2038e-004
8986	3.9	2.6364	0.	-3.335
8987	3.9833	2.5455	0.	-7.3048e-002
8988	3.8114	2.5455	0.	1.8934
8989	3.9	2.5455	5.e-002	5.7018e-004
8990	3.9	2.8182	0.	-4.6325
8991	3.9833	2.7273	0.	-5.7748
8992	3.8114	2.7273	0.	-5.8204
8993	3.9	2.7273	5.e-002	3.6187e-004
8994	3.9	3.	0.	-3.2286
8995	3.9833	2.9091	0.	-3.0172
8996	3.8114	2.9091	0.	-2.4676
8997	3.9	2.9091	5.e-002	1.8083e-005
8998	3.9	3.1818	0.	-4.6325
8999	3.9833	3.0909	0.	-3.0172
9000	3.8114	3.0909	0.	-2.4676
9001	3.9	3.0909	5.e-002	-1.1843e-004
9002	3.9	3.3636	0.	-3.335
9003	3.9833	3.2727	0.	-5.7748
9004	3.8114	3.2727	0.	-5.8204
9005	3.9	3.2727	5.e-002	-3.7784e-004
9006	3.9	3.5455	0.	-25.404
9007	3.9833	3.4545	0.	-7.3036e-002
9008	3.8114	3.4545	0.	1.8934
9009	3.9	3.4545	5.e-002	-6.5878e-004
9010	3.9	3.7273	0.	47.271
9011	3.9833	3.6364	0.	-49.977
9012	3.8114	3.6364	0.	-38.79
9013	3.9	3.6364	5.e-002	-1.0213e-003
9014	3.9833	3.8182	0.	133.73
9015	3.8114	3.8182	0.	73.143
9016	3.9	3.8182	5.e-002	-1.4505e-003
9017	3.9	3.9091	0.	-697.73
9018	4.0667	2.2727	0.	42.309
9019	4.159	2.1818	0.	59.741
9020	4.0667	2.1818	5.e-002	1.2097e-003
9021	4.0667	2.0909	0.	-706.18
9022	4.0667	2.4545	0.	-23.583
9023	4.159	2.3636	0.	-35.732
9024	4.0667	2.3636	5.e-002	8.5398e-004
9025	4.0667	2.6364	0.	-2.3559
9026	4.159	2.5455	0.	3.3317
9027	4.0667	2.5455	5.e-002	4.7793e-004
9028	4.0667	2.8182	0.	-4.0082
9029	4.159	2.7273	0.	-4.6958
9030	4.0667	2.7273	5.e-002	1.7744e-004
9031	4.0667	3.	0.	-2.6798
9032	4.159	2.9091	0.	-1.5935
9033	4.0667	2.9091	5.e-002	1.9566e-005
9034	4.0667	3.1818	0.	-4.0082
9035	4.159	3.0909	0.	-1.5935
9036	4.0667	3.0909	5.e-002	-7.5222e-005
9037	4.0667	3.3636	0.	-2.3559
9038	4.159	3.2727	0.	-4.6958
9039	4.0667	3.2727	5.e-002	-2.1748e-004
9040	4.0667	3.5455	0.	-23.583
9041	4.159	3.4545	0.	3.3317
9042	4.0667	3.4545	5.e-002	-5.2242e-004
9043	4.0667	3.7273	0.	42.309
9044	4.159	3.6364	0.	-35.732
9045	4.0667	3.6364	5.e-002	-9.4894e-004
9046	4.159	3.8182	0.	59.741
9047	4.0667	3.8182	5.e-002	-1.308e-003
9048	4.0667	3.9091	0.	-706.18
9049	3.7227	5.7273	0.	-27.098
9050	3.6341	5.8182	0.	-30.764
9051	3.7227	5.8182	5.e-002	7.8637e-006
9052	3.7227	5.9091	0.	-23.24
9053	3.8114	5.8182	0.	-0.14308
9054	3.7227	5.5455	0.	-14.883
9055	3.6341	5.6364	0.	-17.228
9056	3.7227	5.6364	5.e-002	3.3473e-005
9057	3.8114	5.6364	0.	6.0294
9058	3.7227	5.3636	0.	-11.815
9059	3.6341	5.4545	0.	-10.751
9060	3.7227	5.4545	5.e-002	-2.6955e-006
9061	3.8114	5.4545	0.	4.0435
9062	3.7227	5.1818	0.	-10.586
9063	3.6341	5.2727	0.	-7.8238
9064	3.7227	5.2727	5.e-002	-4.6552e-006
9065	3.8114	5.2727	0.	4.0209
9066	3.7227	5.	0.	-11.427
9067	3.6341	5.0909	0.	-6.8156
9068	3.7227	5.0909	5.e-002	-3.9005e-005
9069	3.8114	5.0909	0.	4.4914
9070	3.7227	4.8182	0.	-11.19
9071	3.6341	4.9091	0.	-7.4909
9072	3.7227	4.9091	5.e-002	-1.2569e-004
9073	3.8114	4.9091	0.	2.614
9074	3.7227	4.6364	0.	-21.748
9075	3.6341	4.7273	0.	-6.1882
9076	3.7227	4.7273	5.e-002	-1.0185e-004
9077	3.8114	4.7273	0.	10.218
9078	3.7227	4.4545	0.	-6.7256
9079	3.6341	4.5455	0.	-19.044
9080	3.7227	4.5455	5.e-002	-2.7125e-004
9081	3.8114	4.5455	0.	-20.433
9082	3.7227	4.2727	0.	-92.103
9083	3.6341	4.3636	0.	9.8274
9084	3.7227	4.3636	5.e-002	-5.3157e-004
9085	3.8114	4.3636	0.	100.31
9086	3.7227	4.0909	0.	-488.03
9087	3.6341	4.1818	0.	-95.002
9088	3.7227	4.1818	5.e-002	-1.4822e-003
9089	3.8114	4.1818	0.	-419.31
9090	3.7227	3.9091	0.	-331.74
9091	3.6341	4.	0.	-335.15
9092	3.7227	4.	5.e-002	-1.0458e-003
9093	3.8114	4.	0.	-550.27
9094	3.7227	3.7273	0.	-7.3456
9095	3.6341	3.8182	0.	33.976
9096	3.7227	3.8182	5.e-002	-3.8694e-004
9097	3.7227	3.5455	0.	-11.303
9098	3.6341	3.6364	0.	-18.766
9099	3.7227	3.6364	5.e-002	-4.5064e-004
9100	3.7227	3.3636	0.	-0.58759
9101	3.6341	3.4545	0.	1.7734
9102	3.7227	3.4545	5.e-002	-2.6939e-004
9103	3.7227	3.1818	0.	-3.5246
9104	3.6341	3.2727	0.	-3.3284
9105	3.7227	3.2727	5.e-002	-1.4515e-004
9106	3.7227	3.	0.	-1.57
9107	3.6341	3.0909	0.	-1.1147
9108	3.7227	3.0909	5.e-002	-4.0948e-005
9109	3.7227	2.8182	0.	-3.5246
9110	3.6341	2.9091	0.	-1.1147
9111	3.7227	2.9091	5.e-002	-1.7732e-006
9112	3.7227	2.6364	0.	-0.58759
9113	3.6341	2.7273	0.	-3.3284
9114	3.7227	2.7273	5.e-002	1.1706e-004
9115	3.7227	2.4545	0.	-11.303
9116	3.6341	2.5455	0.	1.7734
9117	3.7227	2.5455	5.e-002	2.3883e-004
9118	3.7227	2.2727	0.	-7.3456
9119	3.6341	2.3636	0.	-18.766
9120	3.7227	2.3636	5.e-002	4.1525e-004
9121	3.7227	2.0909	0.	-331.74
9122	3.6341	2.1818	0.	33.976
9123	3.7227	2.1818	5.e-002	3.5126e-004
9124	3.7227	1.9091	0.	-488.03
9125	3.6341	2.	0.	-335.15
9126	3.7227	2.	5.e-002	1.1428e-003
9127	3.8114	2.	0.	-550.27
9128	3.7227	1.7273	0.	-92.102
9129	3.6341	1.8182	0.	-95.001
9130	3.7227	1.8182	5.e-002	1.4392e-003
9131	3.8114	1.8182	0.	-419.31
9132	3.7227	1.5455	0.	-6.7256
9133	3.6341	1.6364	0.	9.8274
9134	3.7227	1.6364	5.e-002	4.4315e-004
9135	3.8114	1.6364	0.	100.31
9136	3.7227	1.3636	0.	-21.748
9137	3.6341	1.4545	0.	-19.044
9138	3.7227	1.4545	5.e-002	1.8823e-004
9139	3.8114	1.4545	0.	-20.433
9140	3.7227	1.1818	0.	-11.19
9141	3.6341	1.2727	0.	-6.1882
9142	3.7227	1.2727	5.e-002	1.4445e-004
9143	3.8114	1.2727	0.	10.218
9144	3.7227	1.	0.	-11.427
9145	3.6341	1.0909	0.	-7.4909
9146	3.7227	1.0909	5.e-002	7.1843e-005
9147	3.8114	1.0909	0.	2.614
9148	3.7227	0.81818	0.	-10.586
9149	3.6341	0.90909	0.	-6.8156
9150	3.7227	0.90909	5.e-002	3.9005e-005
9151	3.8114	0.90909	0.	4.4914
9152	3.7227	0.63636	0.	-11.815
9153	3.6341	0.72727	0.	-7.8238
9154	3.7227	0.72727	5.e-002	4.6552e-006
9155	3.8114	0.72727	0.	4.0209
9156	3.7227	0.45455	0.	-14.883
9157	3.6341	0.54545	0.	-10.751
9158	3.7227	0.54545	5.e-002	2.6955e-006
9159	3.8114	0.54545	0.	4.0435
9160	3.7227	0.27273	0.	-27.098
9161	3.6341	0.36364	0.	-17.228
9162	3.7227	0.36364	5.e-002	-2.6423e-005
9163	3.8114	0.36364	0.	6.0294
9164	3.6341	0.18182	0.	-30.764
9165	3.7227	0.18182	5.e-002	-7.8637e-006
9166	3.7227	9.0909e-002	0.	-23.24
9167	3.8114	0.18182	0.	-0.14308
9168	3.5455	5.7273	0.	-15.566
9169	3.4568	5.8182	0.	-13.252
9170	3.5455	5.8182	5.e-002	-1.76e-014
9171	3.5455	5.9091	0.	-2.4472
9172	3.5455	5.5455	0.	-8.6989
9173	3.4568	5.6364	0.	-12.144
9174	3.5455	5.6364	5.e-002	8.667e-007
9175	3.5455	5.3636	0.	-4.7765
9176	3.4568	5.4545	0.	-7.7303
9177	3.5455	5.4545	5.e-002	-1.9973e-005
9178	3.5455	5.1818	0.	-2.8588
9179	3.4568	5.2727	0.	-4.9368
9180	3.5455	5.2727	5.e-002	-4.4774e-005
9181	3.5455	5.	0.	-2.0158
9182	3.4568	5.0909	0.	-3.8204
9183	3.5455	5.0909	5.e-002	-9.4966e-005
9184	3.5455	4.8182	0.	-1.8392
9185	3.4568	4.9091	0.	-3.5096
9186	3.5455	4.9091	5.e-002	-1.644e-004
9187	3.5455	4.6364	0.	-2.9364
9188	3.4568	4.7273	0.	-3.8477
9189	3.5455	4.7273	5.e-002	-2.4796e-004
9190	3.5455	4.4545	0.	-2.1254
9191	3.4568	4.5455	0.	-4.8797
9192	3.5455	4.5455	5.e-002	-4.1138e-004
9193	3.5455	4.2727	0.	7.2006
9194	3.4568	4.3636	0.	-8.0549
9195	3.5455	4.3636	5.e-002	-7.3259e-004
9196	3.5455	4.0909	0.	55.289
9197	3.4568	4.1818	0.	0.41175
9198	3.5455	4.1818	5.e-002	-1.2069e-003
9199	3.5455	3.9091	0.	76.135
9200	3.4568	4.	0.	37.992
9201	3.5455	4.	5.e-002	-3.452e-004
9202	3.5455	3.7273	0.	22.105
9203	3.4568	3.8182	0.	21.709
9204	3.5455	3.8182	5.e-002	-1.4928e-004
9205	3.5455	3.5455	0.	-6.2724
9206	3.4568	3.6364	0.	-6.3302
9207	3.5455	3.6364	5.e-002	-1.3836e-004
9208	3.5455	3.3636	0.	-1.1662
9209	3.4568	3.4545	0.	-12.073
9210	3.5455	3.4545	5.e-002	-1.0527e-004
9211	3.5455	3.1818	0.	-0.93272
9212	3.4568	3.2727	0.	-14.955
9213	3.5455	3.2727	5.e-002	-3.3227e-005
9214	3.5455	3.	0.	-0.47752
9215	3.4568	3.0909	0.	-15.005
9216	3.5455	3.0909	5.e-002	-1.7321e-005
9217	3.5455	2.8182	0.	-0.93272
9218	3.4568	2.9091	0.	-15.005
9219	3.5455	2.9091	5.e-002	-1.665e-005
9220	3.5455	2.6364	0.	-1.1662
9221	3.4568	2.7273	0.	-14.954
9222	3.5455	2.7273	5.e-002	1.8728e-006
9223	3.5455	2.4545	0.	-6.2724
9224	3.4568	2.5455	0.	-12.073
9225	3.5455	2.5455	5.e-002	6.6653e-005
9226	3.5455	2.2727	0.	22.105
9227	3.4568	2.3636	0.	-6.3301
9228	3.5455	2.3636	5.e-002	1.1134e-004
9229	3.5455	2.0909	0.	76.135
9230	3.4568	2.1818	0.	21.709
9231	3.5455	2.1818	5.e-002	1.6189e-004
9232	3.5455	1.9091	0.	55.289
9233	3.4568	2.	0.	37.992
9234	3.5455	2.	5.e-002	3.3017e-004
9235	3.5455	1.7273	0.	7.2006
9236	3.4568	1.8182	0.	0.41176
9237	3.5455	1.8182	5.e-002	1.0766e-003
9238	3.5455	1.5455	0.	-2.1254
9239	3.4568	1.6364	0.	-8.0549
9240	3.5455	1.6364	5.e-002	7.2057e-004
9241	3.5455	1.3636	0.	-2.9364
9242	3.4568	1.4545	0.	-4.8797
9243	3.5455	1.4545	5.e-002	3.9035e-004
9244	3.5455	1.1818	0.	-1.8392
9245	3.4568	1.2727	0.	-3.8477
9246	3.5455	1.2727	5.e-002	2.3353e-004
9247	3.5455	1.	0.	-2.0158
9248	3.4568	1.0909	0.	-3.5096
9249	3.5455	1.0909	5.e-002	1.5717e-004
9250	3.5455	0.81818	0.	-2.8588
9251	3.4568	0.90909	0.	-3.8204
9252	3.5455	0.90909	5.e-002	1.0284e-004
9253	3.5455	0.63636	0.	-4.7765
9254	3.4568	0.72727	0.	-4.9368
9255	3.5455	0.72727	5.e-002	5.3203e-005
9256	3.5455	0.45455	0.	-8.6989
9257	3.4568	0.54545	0.	-7.7303
9258	3.5455	0.54545	5.e-002	1.8774e-005
9259	3.5455	0.27273	0.	-15.566
9260	3.4568	0.36364	0.	-12.144
9261	3.5455	0.36364	5.e-002	6.0845e-006
9262	3.4568	0.18182	0.	-13.252
9263	3.5455	0.18182	5.e-002	-7.7178e-006
9264	3.5455	9.0909e-002	0.	-2.4472
9265	3.3682	5.7273	0.	-10.644
9266	3.2795	5.8182	0.	-7.384
9267	3.3682	5.8182	5.e-002	-1.2959e-006
9268	3.3682	5.9091	0.	-1.0484
9269	3.3682	5.5455	0.	-9.192
9270	3.2795	5.6364	0.	-8.788
9271	3.3682	5.6364	5.e-002	-1.7975e-005
9272	3.3682	5.3636	0.	-6.9011
9273	3.2795	5.4545	0.	-7.7521
9274	3.3682	5.4545	5.e-002	-6.704e-005
9275	3.3682	5.1818	0.	-5.5176
9276	3.2795	5.2727	0.	-6.0793
9277	3.3682	5.2727	5.e-002	-9.0152e-005
9278	3.3682	5.	0.	-5.1709
9279	3.2795	5.0909	0.	-5.2176
9280	3.3682	5.0909	5.e-002	-1.4443e-004
9281	3.3682	4.8182	0.	-5.4961
9282	3.2795	4.9091	0.	-5.1041
9283	3.3682	4.9091	5.e-002	-1.9607e-004
9284	3.3682	4.6364	0.	-5.8443
9285	3.2795	4.7273	0.	-5.5334
9286	3.3682	4.7273	5.e-002	-2.928e-004
9287	3.3682	4.4545	0.	-10.898
9288	3.2795	4.5455	0.	-6.0801
9289	3.3682	4.5455	5.e-002	-4.3407e-004
9290	3.3682	4.2727	0.	-14.097
9291	3.2795	4.3636	0.	-10.722
9292	3.3682	4.3636	5.e-002	-7.7694e-004
9293	3.3682	4.0909	0.	-17.021
9294	3.2795	4.1818	0.	-10.969
9295	3.3682	4.1818	5.e-002	-8.254e-004
9296	3.3682	3.9091	0.	-20.409
9297	3.2795	4.	0.	-22.876
9298	3.3682	4.	5.e-002	-4.2427e-004
9299	3.3682	3.7273	0.	-89.828
9300	3.2795	3.8182	0.	-179.11
9301	3.3682	3.8182	5.e-002	-2.6442e-004
9302	3.3682	3.5455	0.	-180.07
9303	3.2795	3.6364	0.	-311.45
9304	3.3682	3.6364	5.e-002	-5.4485e-005
9305	3.3682	3.3636	0.	-201.93
9306	3.2795	3.4545	0.	-354.12
9307	3.3682	3.4545	5.e-002	-1.7228e-005
9308	3.3682	3.1818	0.	-206.01
9309	3.2795	3.2727	0.	-364.84
9310	3.3682	3.2727	5.e-002	-2.033e-006
9311	3.3682	3.	0.	-206.46
9312	3.2795	3.0909	0.	-366.76
9313	3.3682	3.0909	5.e-002	3.1714e-007
9314	3.3682	2.8182	0.	-206.01
9315	3.2795	2.9091	0.	-366.76
9316	3.3682	2.9091	5.e-002	-2.3094e-005
9317	3.3682	2.6364	0.	-201.93
9318	3.2795	2.7273	0.	-364.84
9319	3.3682	2.7273	5.e-002	-1.6994e-005
9320	3.3682	2.4545	0.	-180.07
9321	3.2795	2.5455	0.	-354.12
9322	3.3682	2.5455	5.e-002	-1.8432e-006
9323	3.3682	2.2727	0.	-89.828
9324	3.2795	2.3636	0.	-311.45
9325	3.3682	2.3636	5.e-002	4.1338e-005
9326	3.3682	2.0909	0.	-20.409
9327	3.2795	2.1818	0.	-179.11
9328	3.3682	2.1818	5.e-002	1.6342e-004
9329	3.3682	1.9091	0.	-17.021
9330	3.2795	2.	0.	-22.876
9331	3.3682	2.	5.e-002	3.6464e-004
9332	3.3682	1.7273	0.	-14.097
9333	3.2795	1.8182	0.	-10.969
9334	3.3682	1.8182	5.e-002	7.6955e-004
9335	3.3682	1.5455	0.	-10.898
9336	3.2795	1.6364	0.	-10.722
9337	3.3682	1.6364	5.e-002	6.4894e-004
9338	3.3682	1.3636	0.	-5.8443
9339	3.2795	1.4545	0.	-6.0801
9340	3.3682	1.4545	5.e-002	4.4737e-004
9341	3.3682	1.1818	0.	-5.4961
9342	3.2795	1.2727	0.	-5.5334
9343	3.3682	1.2727	5.e-002	2.8581e-004
9344	3.3682	1.	0.	-5.1709
9345	3.2795	1.0909	0.	-5.1041
9346	3.3682	1.0909	5.e-002	1.8331e-004
9347	3.3682	0.81818	0.	-5.5176
9348	3.2795	0.90909	0.	-5.2176
9349	3.3682	0.90909	5.e-002	1.2623e-004
9350	3.3682	0.63636	0.	-6.9011
9351	3.2795	0.72727	0.	-6.0793
9352	3.3682	0.72727	5.e-002	8.1024e-005
9353	3.3682	0.45455	0.	-9.192
9354	3.2795	0.54545	0.	-7.7521
9355	3.3682	0.54545	5.e-002	4.8908e-005
9356	3.3682	0.27273	0.	-10.644
9357	3.2795	0.36364	0.	-8.788
9358	3.3682	0.36364	5.e-002	2.3463e-005
9359	3.2795	0.18182	0.	-7.384
9360	3.3682	0.18182	5.e-002	1.8394e-006
9361	3.3682	9.0909e-002	0.	-1.0484
9362	3.1909	5.7273	0.	-6.1693
9363	3.1023	5.8182	0.	-4.2241
9364	3.1909	5.8182	5.e-002	-6.8966e-006
9365	3.1909	5.9091	0.	8.7451e-002
9366	3.1909	5.5455	0.	-6.9412
9367	3.1023	5.6364	0.	-5.9309
9368	3.1909	5.6364	5.e-002	-3.4897e-005
9369	3.1909	5.3636	0.	-6.3935
9370	3.1023	5.4545	0.	-6.8426
9371	3.1909	5.4545	5.e-002	-6.5887e-005
9372	3.1909	5.1818	0.	-5.574
9373	3.1023	5.2727	0.	-6.4405
9374	3.1909	5.2727	5.e-002	-1.064e-004
9375	3.1909	5.	0.	-5.1789
9376	3.1023	5.0909	0.	-6.0094
9377	3.1909	5.0909	5.e-002	-1.6547e-004
9378	3.1909	4.8182	0.	-5.3274
9379	3.1023	4.9091	0.	-5.9323
9380	3.1909	4.9091	5.e-002	-2.3086e-004
9381	3.1909	4.6364	0.	-6.1319
9382	3.1023	4.7273	0.	-6.4891
9383	3.1909	4.7273	5.e-002	-3.4102e-004
9384	3.1909	4.4545	0.	-6.5997
9385	3.1023	4.5455	0.	-8.1587
9386	3.1909	4.5455	5.e-002	-5.0206e-004
9387	3.1909	4.2727	0.	-9.2337
9388	3.1023	4.3636	0.	-12.325
9389	3.1909	4.3636	5.e-002	-7.0481e-004
9390	3.1909	4.0909	0.	-34.968
9391	3.1023	4.1818	0.	-59.291
9392	3.1909	4.1818	5.e-002	-7.7819e-004
9393	3.1909	3.9091	0.	-232.55
9394	3.1023	4.	0.	-268.4
9395	3.1909	4.	5.e-002	-5.4074e-004
9396	3.1909	3.7273	0.	-408.79
9397	3.1023	3.8182	0.	-467.04
9398	3.1909	3.8182	5.e-002	-1.9872e-004
9399	3.1909	3.5455	0.	-498.72
9400	3.1023	3.6364	0.	-589.45
9401	3.1909	3.6364	5.e-002	-8.9026e-005
9402	3.1909	3.3636	0.	-530.07
9403	3.1023	3.4545	0.	-644.24
9404	3.1909	3.4545	5.e-002	-1.9905e-005
9405	3.1909	3.1818	0.	-537.5
9406	3.1023	3.2727	0.	-663.4
9407	3.1909	3.2727	5.e-002	1.88e-006
9408	3.1909	3.	0.	-538.49
9409	3.1023	3.0909	0.	-668.65
9410	3.1909	3.0909	5.e-002	-4.5178e-006
9411	3.1909	2.8182	0.	-537.5
9412	3.1023	2.9091	0.	-668.65
9413	3.1909	2.9091	5.e-002	-1.0744e-005
9414	3.1909	2.6364	0.	-530.07
9415	3.1023	2.7273	0.	-663.4
9416	3.1909	2.7273	5.e-002	-1.6748e-005
9417	3.1909	2.4545	0.	-498.72
9418	3.1023	2.5455	0.	-644.24
9419	3.1909	2.5455	5.e-002	2.743e-005
9420	3.1909	2.2727	0.	-408.79
9421	3.1023	2.3636	0.	-589.45
9422	3.1909	2.3636	5.e-002	9.7638e-005
9423	3.1909	2.0909	0.	-232.55
9424	3.1023	2.1818	0.	-467.04
9425	3.1909	2.1818	5.e-002	2.1285e-004
9426	3.1909	1.9091	0.	-34.968
9427	3.1023	2.	0.	-268.4
9428	3.1909	2.	5.e-002	4.6155e-004
9429	3.1909	1.7273	0.	-9.2337
9430	3.1023	1.8182	0.	-59.291
9431	3.1909	1.8182	5.e-002	6.5866e-004
9432	3.1909	1.5455	0.	-6.5997
9433	3.1023	1.6364	0.	-12.325
9434	3.1909	1.6364	5.e-002	6.7764e-004
9435	3.1909	1.3636	0.	-6.1319
9436	3.1023	1.4545	0.	-8.1587
9437	3.1909	1.4545	5.e-002	4.3316e-004
9438	3.1909	1.1818	0.	-5.3274
9439	3.1023	1.2727	0.	-6.4891
9440	3.1909	1.2727	5.e-002	3.382e-004
9441	3.1909	1.	0.	-5.1789
9442	3.1023	1.0909	0.	-5.9323
9443	3.1909	1.0909	5.e-002	2.1402e-004
9444	3.1909	0.81818	0.	-5.574
9445	3.1023	0.90909	0.	-6.0094
9446	3.1909	0.90909	5.e-002	1.5088e-004
9447	3.1909	0.63636	0.	-6.3935
9448	3.1023	0.72727	0.	-6.4405
9449	3.1909	0.72727	5.e-002	9.3569e-005
9450	3.1909	0.45455	0.	-6.9412
9451	3.1023	0.54545	0.	-6.8426
9452	3.1909	0.54545	5.e-002	5.8759e-005
9453	3.1909	0.27273	0.	-6.1693
9454	3.1023	0.36364	0.	-5.9309
9455	3.1909	0.36364	5.e-002	2.972e-005
9456	3.1023	0.18182	0.	-4.2241
9457	3.1909	0.18182	5.e-002	5.9638e-006
9458	3.1909	9.0909e-002	0.	8.7452e-002
9459	3.0136	5.7273	0.	-4.2321
9460	2.925	5.8182	0.	-2.8685
9461	3.0136	5.8182	5.e-002	-1.1255e-005
9462	3.0136	5.9091	0.	0.1708
9463	3.0136	5.5455	0.	-5.8383
9464	2.925	5.6364	0.	-4.6276
9465	3.0136	5.6364	5.e-002	-3.7858e-005
9466	3.0136	5.3636	0.	-6.7912
9467	2.925	5.4545	0.	-6.784
9468	3.0136	5.4545	5.e-002	-8.8936e-005
9469	3.0136	5.1818	0.	-7.0463
9470	2.925	5.2727	0.	-8.2817
9471	3.0136	5.2727	5.e-002	-1.1197e-004
9472	3.0136	5.	0.	-7.3482
9473	2.925	5.0909	0.	-9.5817
9474	3.0136	5.0909	5.e-002	-1.7375e-004
9475	3.0136	4.8182	0.	-8.291
9476	2.925	4.9091	0.	-11.785
9477	3.0136	4.9091	5.e-002	-2.5655e-004
9478	3.0136	4.6364	0.	-11.197
9479	2.925	4.7273	0.	-18.362
9480	3.0136	4.7273	5.e-002	-3.6115e-004
9481	3.0136	4.4545	0.	-24.804
9482	2.925	4.5455	0.	-51.506
9483	3.0136	4.5455	5.e-002	-5.0132e-004
9484	3.0136	4.2727	0.	-123.45
9485	2.925	4.3636	0.	-163.91
9486	3.0136	4.3636	5.e-002	-6.1159e-004
9487	3.0136	4.0909	0.	-312.22
9488	2.925	4.1818	0.	-335.45
9489	3.0136	4.1818	5.e-002	-5.9379e-004
9490	3.0136	3.9091	0.	-503.65
9491	2.925	4.	0.	-524.16
9492	3.0136	4.	5.e-002	-4.6678e-004
9493	3.0136	3.7273	0.	-651.6
9494	2.925	3.8182	0.	-688.06
9495	3.0136	3.8182	5.e-002	-2.4243e-004
9496	3.0136	3.5455	0.	-741.79
9497	2.925	3.6364	0.	-802.09
9498	3.0136	3.6364	5.e-002	-1.5972e-004
9499	3.0136	3.3636	0.	-786.05
9500	2.925	3.4545	0.	-867.23
9501	3.0136	3.4545	5.e-002	-6.2072e-005
9502	3.0136	3.1818	0.	-803.59
9503	2.925	3.2727	0.	-898.44
9504	3.0136	3.2727	5.e-002	-2.3307e-005
9505	3.0136	3.	0.	-807.96
9506	2.925	3.0909	0.	-910.27
9507	3.0136	3.0909	5.e-002	-1.013e-005
9508	3.0136	2.8182	0.	-803.59
9509	2.925	2.9091	0.	-910.27
9510	3.0136	2.9091	5.e-002	-5.2178e-006
9511	3.0136	2.6364	0.	-786.05
9512	2.925	2.7273	0.	-898.44
9513	3.0136	2.7273	5.e-002	1.601e-005
9514	3.0136	2.4545	0.	-741.79
9515	2.925	2.5455	0.	-867.23
9516	3.0136	2.5455	5.e-002	5.0981e-005
9517	3.0136	2.2727	0.	-651.6
9518	2.925	2.3636	0.	-802.09
9519	3.0136	2.3636	5.e-002	1.0619e-004
9520	3.0136	2.0909	0.	-503.65
9521	2.925	2.1818	0.	-688.06
9522	3.0136	2.1818	5.e-002	2.6861e-004
9523	3.0136	1.9091	0.	-312.22
9524	2.925	2.	0.	-524.16
9525	3.0136	2.	5.e-002	4.7591e-004
9526	3.0136	1.7273	0.	-123.45
9527	2.925	1.8182	0.	-335.45
9528	3.0136	1.8182	5.e-002	5.3388e-004
9529	3.0136	1.5455	0.	-24.804
9530	2.925	1.6364	0.	-163.91
9531	3.0136	1.6364	5.e-002	5.9109e-004
9532	3.0136	1.3636	0.	-11.197
9533	2.925	1.4545	0.	-51.506
9534	3.0136	1.4545	5.e-002	3.9729e-004
9535	3.0136	1.1818	0.	-8.291
9536	2.925	1.2727	0.	-18.362
9537	3.0136	1.2727	5.e-002	3.4431e-004
9538	3.0136	1.	0.	-7.3482
9539	2.925	1.0909	0.	-11.785
9540	3.0136	1.0909	5.e-002	2.4436e-004
9541	3.0136	0.81818	0.	-7.0463
9542	2.925	0.90909	0.	-9.5817
9543	3.0136	0.90909	5.e-002	1.5667e-004
9544	3.0136	0.63636	0.	-6.7912
9545	2.925	0.72727	0.	-8.2817
9546	3.0136	0.72727	5.e-002	1.0854e-004
9547	3.0136	0.45455	0.	-5.8383
9548	2.925	0.54545	0.	-6.784
9549	3.0136	0.54545	5.e-002	6.711e-005
9550	3.0136	0.27273	0.	-4.2321
9551	2.925	0.36364	0.	-4.6276
9552	3.0136	0.36364	5.e-002	3.2758e-005
9553	2.925	0.18182	0.	-2.8685
9554	3.0136	0.18182	5.e-002	1.1723e-005
9555	3.0136	9.0909e-002	0.	0.1708
9556	2.8364	5.7273	0.	-3.2917
9557	2.7477	5.8182	0.	-2.259
9558	2.8364	5.8182	5.e-002	-9.4959e-006
9559	2.8364	5.9091	0.	0.26911
9560	2.8364	5.5455	0.	-5.5315
9561	2.7477	5.6364	0.	-4.207
9562	2.8364	5.6364	5.e-002	-3.9475e-005
9563	2.8364	5.3636	0.	-8.6753
9564	2.7477	5.4545	0.	-8.3515
9565	2.8364	5.4545	5.e-002	-8.7608e-005
9566	2.8364	5.1818	0.	-12.996
9567	2.7477	5.2727	0.	-16.947
9568	2.8364	5.2727	5.e-002	-1.3169e-004
9569	2.8364	5.	0.	-21.606
9570	2.7477	5.0909	0.	-37.905
9571	2.8364	5.0909	5.e-002	-2.1484e-004
9572	2.8364	4.8182	0.	-47.406
9573	2.7477	4.9091	0.	-81.456
9574	2.8364	4.9091	5.e-002	-2.4775e-004
9575	2.8364	4.6364	0.	-113.59
9576	2.7477	4.7273	0.	-153.08
9577	2.8364	4.7273	5.e-002	-3.7279e-004
9578	2.8364	4.4545	0.	-225.7
9579	2.7477	4.5455	0.	-257.32
9580	2.8364	4.5455	5.e-002	-5.1132e-004
9581	2.8364	4.2727	0.	-376.
9582	2.7477	4.3636	0.	-394.5
9583	2.8364	4.3636	5.e-002	-5.6405e-004
9584	2.8364	4.0909	0.	-545.92
9585	2.7477	4.1818	0.	-554.98
9586	2.8364	4.1818	5.e-002	-5.4782e-004
9587	2.8364	3.9091	0.	-708.58
9588	2.7477	4.	0.	-718.61
9589	2.8364	4.	5.e-002	-4.5455e-004
9590	2.8364	3.7273	0.	-840.44
9591	2.7477	3.8182	0.	-862.33
9592	2.8364	3.8182	5.e-002	-3.7884e-004
9593	2.8364	3.5455	0.	-931.35
9594	2.7477	3.6364	0.	-970.99
9595	2.8364	3.6364	5.e-002	-2.1303e-004
9596	2.8364	3.3636	0.	-984.97
9597	2.7477	3.4545	0.	-1042.1
9598	2.8364	3.4545	5.e-002	-9.3762e-005
9599	2.8364	3.1818	0.	-1011.4
9600	2.7477	3.2727	0.	-1082.3
9601	2.8364	3.2727	5.e-002	-5.1894e-005
9602	2.8364	3.	0.	-1019.1
9603	2.7477	3.0909	0.	-1099.8
9604	2.8364	3.0909	5.e-002	-1.6629e-005
9605	2.8364	2.8182	0.	-1011.4
9606	2.7477	2.9091	0.	-1099.8
9607	2.8364	2.9091	5.e-002	-6.8899e-006
9608	2.8364	2.6364	0.	-984.97
9609	2.7477	2.7273	0.	-1082.3
9610	2.8364	2.7273	5.e-002	2.305e-005
9611	2.8364	2.4545	0.	-931.35
9612	2.7477	2.5455	0.	-1042.1
9613	2.8364	2.5455	5.e-002	7.883e-005
9614	2.8364	2.2727	0.	-840.44
9615	2.7477	2.3636	0.	-970.99
9616	2.8364	2.3636	5.e-002	2.1036e-004
9617	2.8364	2.0909	0.	-708.58
9618	2.7477	2.1818	0.	-862.33
9619	2.8364	2.1818	5.e-002	3.5137e-004
9620	2.8364	1.9091	0.	-545.92
9621	2.7477	2.	0.	-718.61
9622	2.8364	2.	5.e-002	4.1151e-004
9623	2.8364	1.7273	0.	-376.
9624	2.7477	1.8182	0.	-554.98
9625	2.8364	1.8182	5.e-002	5.4782e-004
9626	2.8364	1.5455	0.	-225.7
9627	2.7477	1.6364	0.	-394.5
9628	2.8364	1.6364	5.e-002	5.6405e-004
9629	2.8364	1.3636	0.	-113.59
9630	2.7477	1.4545	0.	-257.32
9631	2.8364	1.4545	5.e-002	4.1551e-004
9632	2.8364	1.1818	0.	-47.406
9633	2.7477	1.2727	0.	-153.08
9634	2.8364	1.2727	5.e-002	3.2536e-004
9635	2.8364	1.	0.	-21.606
9636	2.7477	1.0909	0.	-81.456
9637	2.8364	1.0909	5.e-002	2.6466e-004
9638	2.8364	0.81818	0.	-12.996
9639	2.7477	0.90909	0.	-37.905
9640	2.8364	0.90909	5.e-002	1.5251e-004
9641	2.8364	0.63636	0.	-8.6753
9642	2.7477	0.72727	0.	-16.947
9643	2.8364	0.72727	5.e-002	1.2506e-004
9644	2.8364	0.45455	0.	-5.5315
9645	2.7477	0.54545	0.	-8.3515
9646	2.8364	0.54545	5.e-002	7.5412e-005
9647	2.8364	0.27273	0.	-3.2917
9648	2.7477	0.36364	0.	-4.207
9649	2.8364	0.36364	5.e-002	3.8776e-005
9650	2.7477	0.18182	0.	-2.259
9651	2.8364	0.18182	5.e-002	1.1541e-005
9652	2.8364	9.0909e-002	0.	0.26911
9653	2.6591	5.7273	0.	-3.0273
9654	2.5705	5.8182	0.	-2.1044
9655	2.6591	5.8182	5.e-002	-9.1751e-006
9656	2.6591	5.9091	0.	0.32451
9657	2.6591	5.5455	0.	-6.6233
9658	2.5705	5.6364	0.	-4.708
9659	2.6591	5.6364	5.e-002	-4.071e-005
9660	2.6591	5.3636	0.	-18.528
9661	2.5705	5.4545	0.	-16.606
9662	2.6591	5.4545	5.e-002	-8.3753e-005
9663	2.6591	5.1818	0.	-53.719
9664	2.5705	5.2727	0.	-59.355
9665	2.6591	5.2727	5.e-002	-1.3888e-004
9666	2.6591	5.	0.	-112.21
9667	2.5705	5.0909	0.	-125.5
9668	2.6591	5.0909	5.e-002	-1.952e-004
9669	2.6591	4.8182	0.	-191.63
9670	2.5705	4.9091	0.	-208.47
9671	2.6591	4.9091	5.e-002	-2.5546e-004
9672	2.6591	4.6364	0.	-295.03
9673	2.5705	4.7273	0.	-310.47
9674	2.6591	4.7273	5.e-002	-3.814e-004
9675	2.6591	4.4545	0.	-423.37
9676	2.5705	4.5455	0.	-433.29
9677	2.6591	4.5455	5.e-002	-4.842e-004
9678	2.6591	4.2727	0.	-571.38
9679	2.5705	4.3636	0.	-574.7
9680	2.6591	4.3636	5.e-002	-5.4003e-004
9681	2.6591	4.0909	0.	-726.56
9682	2.5705	4.1818	0.	-726.44
9683	2.6591	4.1818	5.e-002	-6.2062e-004
9684	2.6591	3.9091	0.	-872.3
9685	2.5705	4.	0.	-875.16
9686	2.6591	4.	5.e-002	-4.7249e-004
9687	2.6591	3.7273	0.	-993.98
9688	2.5705	3.8182	0.	-1006.6
9689	2.6591	3.8182	5.e-002	-3.7174e-004
9690	2.6591	3.5455	0.	-1084.1
9691	2.5705	3.6364	0.	-1110.6
9692	2.6591	3.6364	5.e-002	-2.6129e-004
9693	2.6591	3.3636	0.	-1142.9
9694	2.5705	3.4545	0.	-1184.1
9695	2.6591	3.4545	5.e-002	-1.3354e-004
9696	2.6591	3.1818	0.	-1174.9
9697	2.5705	3.2727	0.	-1229.3
9698	2.6591	3.2727	5.e-002	-6.7293e-005
9699	2.6591	3.	0.	-1185.
9700	2.5705	3.0909	0.	-1250.5
9701	2.6591	3.0909	5.e-002	-3.2694e-005
9702	2.6591	2.8182	0.	-1174.9
9703	2.5705	2.9091	0.	-1250.5
9704	2.6591	2.9091	5.e-002	4.7527e-005
9705	2.6591	2.6364	0.	-1142.9
9706	2.5705	2.7273	0.	-1229.3
9707	2.6591	2.7273	5.e-002	7.0893e-005
9708	2.6591	2.4545	0.	-1084.1
9709	2.5705	2.5455	0.	-1184.1
9710	2.6591	2.5455	5.e-002	1.3132e-004
9711	2.6591	2.2727	0.	-993.98
9712	2.5705	2.3636	0.	-1110.6
9713	2.6591	2.3636	5.e-002	2.2649e-004
9714	2.6591	2.0909	0.	-872.3
9715	2.5705	2.1818	0.	-1006.6
9716	2.6591	2.1818	5.e-002	3.8599e-004
9717	2.6591	1.9091	0.	-726.56
9718	2.5705	2.	0.	-875.16
9719	2.6591	2.	5.e-002	4.2645e-004
9720	2.6591	1.7273	0.	-571.38
9721	2.5705	1.8182	0.	-726.44
9722	2.6591	1.8182	5.e-002	5.597e-004
9723	2.6591	1.5455	0.	-423.37
9724	2.5705	1.6364	0.	-574.7
9725	2.6591	1.6364	5.e-002	5.3134e-004
9726	2.6591	1.3636	0.	-295.03
9727	2.5705	1.4545	0.	-433.29
9728	2.6591	1.4545	5.e-002	4.5142e-004
9729	2.6591	1.1818	0.	-191.63
9730	2.5705	1.2727	0.	-310.47
9731	2.6591	1.2727	5.e-002	3.2991e-004
9732	2.6591	1.	0.	-112.21
9733	2.5705	1.0909	0.	-208.47
9734	2.6591	1.0909	5.e-002	2.5299e-004
9735	2.6591	0.81818	0.	-53.719
9736	2.5705	0.90909	0.	-125.5
9737	2.6591	0.90909	5.e-002	1.7737e-004
9738	2.6591	0.63636	0.	-18.528
9739	2.5705	0.72727	0.	-59.355
9740	2.6591	0.72727	5.e-002	1.2581e-004
9741	2.6591	0.45455	0.	-6.6233
9742	2.5705	0.54545	0.	-16.606
9743	2.6591	0.54545	5.e-002	7.3681e-005
9744	2.6591	0.27273	0.	-3.0273
9745	2.5705	0.36364	0.	-4.708
9746	2.6591	0.36364	5.e-002	4.4568e-005
9747	2.5705	0.18182	0.	-2.1044
9748	2.6591	0.18182	5.e-002	1.0233e-005
9749	2.6591	9.0909e-002	0.	0.32451
9750	2.4818	5.7273	0.	-3.2977
9751	2.3932	5.8182	0.	-2.2615
9752	2.4818	5.8182	5.e-002	-1.199e-005
9753	2.4818	5.9091	0.	0.4006
9754	2.4818	5.5455	0.	-12.186
9755	2.3932	5.6364	0.	-7.2022
9756	2.4818	5.6364	5.e-002	-4.1506e-005
9757	2.4818	5.3636	0.	-57.737
9758	2.3932	5.4545	0.	-47.698
9759	2.4818	5.4545	5.e-002	-9.3985e-005
9760	2.4818	5.1818	0.	-131.05
9761	2.3932	5.2727	0.	-124.86
9762	2.4818	5.2727	5.e-002	-1.3384e-004
9763	2.4818	5.	0.	-220.12
9764	2.3932	5.0909	0.	-217.77
9765	2.4818	5.0909	5.e-002	-2.0829e-004
9766	2.4818	4.8182	0.	-325.05
9767	2.3932	4.9091	0.	-324.69
9768	2.4818	4.9091	5.e-002	-3.0138e-004
9769	2.4818	4.6364	0.	-446.49
9770	2.3932	4.7273	0.	-445.67
9771	2.4818	4.7273	5.e-002	-3.1527e-004
9772	2.4818	4.4545	0.	-582.8
9773	2.3932	4.5455	0.	-579.7
9774	2.4818	4.5455	5.e-002	-3.9033e-004
9775	2.4818	4.2727	0.	-728.54
9776	2.3932	4.3636	0.	-723.16
9777	2.4818	4.3636	5.e-002	-4.6408e-004
9778	2.4818	4.0909	0.	-874.45
9779	2.3932	4.1818	0.	-869.14
9780	2.4818	4.1818	5.e-002	-5.0497e-004
9781	2.4818	3.9091	0.	-1009.5
9782	2.3932	4.	0.	-1008.3
9783	2.4818	4.	5.e-002	-5.2521e-004
9784	2.4818	3.7273	0.	-1123.9
9785	2.3932	3.8182	0.	-1131.2
9786	2.4818	3.8182	5.e-002	-4.0424e-004
9787	2.4818	3.5455	0.	-1212.1
9788	2.3932	3.6364	0.	-1230.9
9789	2.4818	3.6364	5.e-002	-3.2924e-004
9790	2.4818	3.3636	0.	-1272.8
9791	2.3932	3.4545	0.	-1304.2
9792	2.4818	3.4545	5.e-002	-1.7079e-004
9793	2.4818	3.1818	0.	-1307.6
9794	2.3932	3.2727	0.	-1351.5
9795	2.4818	3.2727	5.e-002	-9.6507e-005
9796	2.4818	3.	0.	-1318.9
9797	2.3932	3.0909	0.	-1374.3
9798	2.4818	3.0909	5.e-002	-2.4924e-005
9799	2.4818	2.8182	0.	-1307.6
9800	2.3932	2.9091	0.	-1374.3
9801	2.4818	2.9091	5.e-002	3.8936e-005
9802	2.4818	2.6364	0.	-1272.8
9803	2.3932	2.7273	0.	-1351.5
9804	2.4818	2.7273	5.e-002	1.065e-004
9805	2.4818	2.4545	0.	-1212.1
9806	2.3932	2.5455	0.	-1304.2
9807	2.4818	2.5455	5.e-002	1.9608e-004
9808	2.4818	2.2727	0.	-1123.9
9809	2.3932	2.3636	0.	-1230.9
9810	2.4818	2.3636	5.e-002	3.3681e-004
9811	2.4818	2.0909	0.	-1009.5
9812	2.3932	2.1818	0.	-1131.2
9813	2.4818	2.1818	5.e-002	4.2201e-004
9814	2.4818	1.9091	0.	-874.45
9815	2.3932	2.	0.	-1008.3
9816	2.4818	2.	5.e-002	4.6962e-004
9817	2.4818	1.7273	0.	-728.54
9818	2.3932	1.8182	0.	-869.14
9819	2.4818	1.8182	5.e-002	3.1722e-004
9820	2.4818	1.5455	0.	-582.8
9821	2.3932	1.6364	0.	-723.16
9822	2.4818	1.6364	5.e-002	4.4422e-004
9823	2.4818	1.3636	0.	-446.49
9824	2.3932	1.4545	0.	-579.7
9825	2.4818	1.4545	5.e-002	3.3956e-004
9826	2.4818	1.1818	0.	-325.05
9827	2.3932	1.2727	0.	-445.67
9828	2.4818	1.2727	5.e-002	3.4919e-004
9829	2.4818	1.	0.	-220.12
9830	2.3932	1.0909	0.	-324.69
9831	2.4818	1.0909	5.e-002	2.4308e-004
9832	2.4818	0.81818	0.	-131.05
9833	2.3932	0.90909	0.	-217.77
9834	2.4818	0.90909	5.e-002	1.9861e-004
9835	2.4818	0.63636	0.	-57.737
9836	2.3932	0.72727	0.	-124.86
9837	2.4818	0.72727	5.e-002	1.3498e-004
9838	2.4818	0.45455	0.	-12.186
9839	2.3932	0.54545	0.	-47.699
9840	2.4818	0.54545	5.e-002	9.2361e-005
9841	2.4818	0.27273	0.	-3.2977
9842	2.3932	0.36364	0.	-7.2022
9843	2.4818	0.36364	5.e-002	3.9758e-005
9844	2.3932	0.18182	0.	-2.2615
9845	2.4818	0.18182	5.e-002	1.1993e-005
9846	2.4818	9.0909e-002	0.	0.4006
9847	2.3045	5.7273	0.	-4.3429
9848	2.2159	5.8182	0.	-2.7123
9849	2.3045	5.8182	5.e-002	-1.6311e-005
9850	2.3045	5.9091	0.	0.48986
9851	2.3045	5.5455	0.	-34.728
9852	2.2159	5.6364	0.	-17.534
9853	2.3045	5.6364	5.e-002	-7.1021e-005
9854	2.3045	5.3636	0.	-113.9
9855	2.2159	5.4545	0.	-94.158
9856	2.3045	5.4545	5.e-002	-1.0837e-004
9857	2.3045	5.1818	0.	-210.69
9858	2.2159	5.2727	0.	-193.79
9859	2.3045	5.2727	5.e-002	-1.7845e-004
9860	2.3045	5.	0.	-321.15
9861	2.2159	5.0909	0.	-307.28
9862	2.3045	5.0909	5.e-002	-2.1388e-004
9863	2.3045	4.8182	0.	-444.01
9864	2.2159	4.9091	0.	-432.34
9865	2.3045	4.9091	5.e-002	-2.45e-004
9866	2.3045	4.6364	0.	-577.69
9867	2.2159	4.7273	0.	-567.05
9868	2.3045	4.7273	5.e-002	-3.0569e-004
9869	2.3045	4.4545	0.	-719.14
9870	2.2159	4.5455	0.	-708.77
9871	2.3045	4.5455	5.e-002	-3.7891e-004
9872	2.3045	4.2727	0.	-863.2
9873	2.2159	4.3636	0.	-853.41
9874	2.3045	4.3636	5.e-002	-4.3192e-004
9875	2.3045	4.0909	0.	-1002.8
9876	2.2159	4.1818	0.	-995.27
9877	2.3045	4.1818	5.e-002	-3.7667e-004
9878	2.3045	3.9091	0.	-1130.3
9879	2.2159	4.	0.	-1127.6
9880	2.3045	4.	5.e-002	-4.2708e-004
9881	2.3045	3.7273	0.	-1238.9
9882	2.2159	3.8182	0.	-1243.9
9883	2.3045	3.8182	5.e-002	-4.6932e-004
9884	2.3045	3.5455	0.	-1324.1
9885	2.2159	3.6364	0.	-1339.1
9886	2.3045	3.6364	5.e-002	-3.3046e-004
9887	2.3045	3.3636	0.	-1384.4
9888	2.2159	3.4545	0.	-1410.5
9889	2.3045	3.4545	5.e-002	-2.5541e-004
9890	2.3045	3.1818	0.	-1420.
9891	2.2159	3.2727	0.	-1457.6
9892	2.3045	3.2727	5.e-002	-1.4774e-004
9893	2.3045	3.	0.	-1431.7
9894	2.2159	3.0909	0.	-1480.9
9895	2.3045	3.0909	5.e-002	-6.472e-005
9896	2.3045	2.8182	0.	-1420.
9897	2.2159	2.9091	0.	-1480.9
9898	2.3045	2.9091	5.e-002	6.4537e-005
9899	2.3045	2.6364	0.	-1384.4
9900	2.2159	2.7273	0.	-1457.6
9901	2.3045	2.7273	5.e-002	1.3809e-004
9902	2.3045	2.4545	0.	-1324.1
9903	2.2159	2.5455	0.	-1410.5
9904	2.3045	2.5455	5.e-002	2.187e-004
9905	2.3045	2.2727	0.	-1238.9
9906	2.2159	2.3636	0.	-1339.1
9907	2.3045	2.3636	5.e-002	3.4035e-004
9908	2.3045	2.0909	0.	-1130.3
9909	2.2159	2.1818	0.	-1243.9
9910	2.3045	2.1818	5.e-002	4.1999e-004
9911	2.3045	1.9091	0.	-1002.8
9912	2.2159	2.	0.	-1127.6
9913	2.3045	2.	5.e-002	4.2724e-004
9914	2.3045	1.7273	0.	-863.2
9915	2.2159	1.8182	0.	-995.27
9916	2.3045	1.8182	5.e-002	3.1207e-004
9917	2.3045	1.5455	0.	-719.14
9918	2.2159	1.6364	0.	-853.41
9919	2.3045	1.6364	5.e-002	2.6221e-004
9920	2.3045	1.3636	0.	-577.69
9921	2.2159	1.4545	0.	-708.77
9922	2.3045	1.4545	5.e-002	3.1412e-004
9923	2.3045	1.1818	0.	-444.01
9924	2.2159	1.2727	0.	-567.05
9925	2.3045	1.2727	5.e-002	3.3018e-004
9926	2.3045	1.	0.	-321.15
9927	2.2159	1.0909	0.	-432.34
9928	2.3045	1.0909	5.e-002	2.3738e-004
9929	2.3045	0.81818	0.	-210.69
9930	2.2159	0.90909	0.	-307.28
9931	2.3045	0.90909	5.e-002	1.9673e-004
9932	2.3045	0.63636	0.	-113.9
9933	2.2159	0.72727	0.	-193.79
9934	2.3045	0.72727	5.e-002	1.7571e-004
9935	2.3045	0.45455	0.	-34.728
9936	2.2159	0.54545	0.	-94.158
9937	2.3045	0.54545	5.e-002	1.0837e-004
9938	2.3045	0.27273	0.	-4.3429
9939	2.2159	0.36364	0.	-17.534
9940	2.3045	0.36364	5.e-002	6.5869e-005
9941	2.2159	0.18182	0.	-2.7123
9942	2.3045	0.18182	5.e-002	1.8674e-005
9943	2.3045	9.0909e-002	0.	0.48986
9944	2.1273	5.7273	0.	-7.1465
9945	2.0386	5.8182	0.	-3.4972
9946	2.1273	5.8182	5.e-002	-1.979e-005
9947	2.1273	5.9091	0.	0.58876
9948	2.1273	5.5455	0.	-72.13
9949	2.0386	5.6364	0.	-42.245
9950	2.1273	5.6364	5.e-002	-9.1976e-005
9951	2.1273	5.3636	0.	-173.59
9952	2.0386	5.4545	0.	-144.69
9953	2.1273	5.4545	5.e-002	-1.4148e-004
9954	2.1273	5.1818	0.	-289.91
9955	2.0386	5.2727	0.	-264.13
9956	2.1273	5.2727	5.e-002	-1.8e-004
9957	2.1273	5.	0.	-417.9
9958	2.0386	5.0909	0.	-395.69
9959	2.1273	5.0909	5.e-002	-2.1442e-004
9960	2.1273	4.8182	0.	-554.79
9961	2.0386	4.9091	0.	-535.88
9962	2.1273	4.9091	5.e-002	-2.3723e-004
9963	2.1273	4.6364	0.	-697.62
9964	2.0386	4.7273	0.	-681.45
9965	2.1273	4.7273	5.e-002	-2.5547e-004
9966	2.1273	4.4545	0.	-842.69
9967	2.0386	4.5455	0.	-828.88
9968	2.1273	4.5455	5.e-002	-3.9773e-004
9969	2.1273	4.2727	0.	-985.34
9970	2.0386	4.3636	0.	-974.13
9971	2.1273	4.3636	5.e-002	-3.5519e-004
9972	2.1273	4.0909	0.	-1120.1
9973	2.0386	4.1818	0.	-1112.6
9974	2.1273	4.1818	5.e-002	-4.1367e-004
9975	2.1273	3.9091	0.	-1241.5
9976	2.0386	4.	0.	-1239.2
9977	2.1273	4.	5.e-002	-4.1987e-004
9978	2.1273	3.7273	0.	-1344.6
9979	2.0386	3.8182	0.	-1349.6
9980	2.1273	3.8182	5.e-002	-3.6775e-004
9981	2.1273	3.5455	0.	-1426.3
9982	2.0386	3.6364	0.	-1440.
9983	2.1273	3.6364	5.e-002	-3.7855e-004
9984	2.1273	3.3636	0.	-1484.8
9985	2.0386	3.4545	0.	-1508.5
9986	2.1273	3.4545	5.e-002	-3.5127e-004
9987	2.1273	3.1818	0.	-1519.8
9988	2.0386	3.2727	0.	-1554.1
9989	2.1273	3.2727	5.e-002	-1.8725e-004
9990	2.1273	3.	0.	-1531.4
9991	2.0386	3.0909	0.	-1576.8
9992	2.1273	3.0909	5.e-002	-6.5473e-005
9993	2.1273	2.8182	0.	-1519.8
9994	2.0386	2.9091	0.	-1576.8
9995	2.1273	2.9091	5.e-002	6.6325e-005
9996	2.1273	2.6364	0.	-1484.8
9997	2.0386	2.7273	0.	-1554.1
9998	2.1273	2.7273	5.e-002	2.0227e-004
9999	2.1273	2.4545	0.	-1426.3
10000	2.0386	2.5455	0.	-1508.5
10001	2.1273	2.5455	5.e-002	9.3069e-005
10002	2.1273	2.2727	0.	-1344.6
10003	2.0386	2.3636	0.	-1440.
10004	2.1273	2.3636	5.e-002	3.8146e-004
10005	2.1273	2.0909	0.	-1241.5
10006	2.0386	2.1818	0.	-1349.6
10007	2.1273	2.1818	5.e-002	3.0785e-004
10008	2.1273	1.9091	0.	-1120.1
10009	2.0386	2.	0.	-1239.2
10010	2.1273	2.	5.e-002	3.5572e-004
10011	2.1273	1.7273	0.	-985.34
10012	2.0386	1.8182	0.	-1112.6
10013	2.1273	1.8182	5.e-002	2.4228e-004
10014	2.1273	1.5455	0.	-842.69
10015	2.0386	1.6364	0.	-974.13
10016	2.1273	1.6364	5.e-002	3.9381e-004
10017	2.1273	1.3636	0.	-697.62
10018	2.0386	1.4545	0.	-828.88
10019	2.1273	1.4545	5.e-002	3.3305e-004
10020	2.1273	1.1818	0.	-554.79
10021	2.0386	1.2727	0.	-681.45
10022	2.1273	1.2727	5.e-002	2.7437e-004
10023	2.1273	1.	0.	-417.9
10024	2.0386	1.0909	0.	-535.88
10025	2.1273	1.0909	5.e-002	2.5489e-004
10026	2.1273	0.81818	0.	-289.91
10027	2.0386	0.90909	0.	-395.69
10028	2.1273	0.90909	5.e-002	2.0684e-004
10029	2.1273	0.63636	0.	-173.59
10030	2.0386	0.72727	0.	-264.13
10031	2.1273	0.72727	5.e-002	1.4353e-004
10032	2.1273	0.45455	0.	-72.131
10033	2.0386	0.54545	0.	-144.69
10034	2.1273	0.54545	5.e-002	1.1937e-004
10035	2.1273	0.27273	0.	-7.1465
10036	2.0386	0.36364	0.	-42.245
10037	2.1273	0.36364	5.e-002	7.5453e-005
10038	2.0386	0.18182	0.	-3.4972
10039	2.1273	0.18182	5.e-002	1.9038e-005
10040	2.1273	9.0909e-002	0.	0.58876
10041	1.95	5.7273	0.	-14.521
10042	1.8614	5.8182	0.	-4.6766
10043	1.95	5.8182	5.e-002	-2.3402e-005
10044	1.95	5.9091	0.	0.68657
10045	1.95	5.5455	0.	-113.29
10046	1.8614	5.6364	0.	-72.625
10047	1.95	5.6364	5.e-002	-1.1284e-004
10048	1.95	5.3636	0.	-235.
10049	1.8614	5.4545	0.	-197.2
10050	1.95	5.4545	5.e-002	-1.3283e-004
10051	1.95	5.1818	0.	-369.7
10052	1.8614	5.2727	0.	-336.3
10053	1.95	5.2727	5.e-002	-2.0923e-004
10054	1.95	5.	0.	-513.45
10055	1.8614	5.0909	0.	-485.12
10056	1.95	5.0909	5.e-002	-2.1095e-004
10057	1.95	4.8182	0.	-662.34
10058	1.8614	4.9091	0.	-639.03
10059	1.95	4.9091	5.e-002	-2.7168e-004
10060	1.95	4.6364	0.	-812.58
10061	1.8614	4.7273	0.	-793.87
10062	1.95	4.7273	5.e-002	-2.6369e-004
10063	1.95	4.4545	0.	-960.3
10064	1.8614	4.5455	0.	-945.77
10065	1.95	4.5455	5.e-002	-2.9743e-004
10066	1.95	4.2727	0.	-1101.5
10067	1.8614	4.3636	0.	-1091.1
10068	1.95	4.3636	5.e-002	-3.7075e-004
10069	1.95	4.0909	0.	-1231.9
10070	1.8614	4.1818	0.	-1226.1
10071	1.95	4.1818	5.e-002	-3.8444e-004
10072	1.95	3.9091	0.	-1347.7
10073	1.8614	4.	0.	-1347.4
10074	1.95	4.	5.e-002	-3.2885e-004
10075	1.95	3.7273	0.	-1445.5
10076	1.8614	3.8182	0.	-1451.9
10077	1.95	3.8182	5.e-002	-2.7978e-004
10078	1.95	3.5455	0.	-1522.9
10079	1.8614	3.6364	0.	-1537.3
10080	1.95	3.6364	5.e-002	-2.9575e-004
10081	1.95	3.3636	0.	-1578.6
10082	1.8614	3.4545	0.	-1601.9
10083	1.95	3.4545	5.e-002	-2.6443e-004
10084	1.95	3.1818	0.	-1612.1
10085	1.8614	3.2727	0.	-1645.1
10086	1.95	3.2727	5.e-002	-2.3775e-004
10087	1.95	3.	0.	-1623.2
10088	1.8614	3.0909	0.	-1666.8
10089	1.95	3.0909	5.e-002	-1.0535e-004
10090	1.95	2.8182	0.	-1612.1
10091	1.8614	2.9091	0.	-1666.8
10092	1.95	2.9091	5.e-002	1.0662e-004
10093	1.95	2.6364	0.	-1578.6
10094	1.8614	2.7273	0.	-1645.1
10095	1.95	2.7273	5.e-002	1.9157e-004
10096	1.95	2.4545	0.	-1522.9
10097	1.8614	2.5455	0.	-1601.9
10098	1.95	2.5455	5.e-002	1.4575e-004
10099	1.95	2.2727	0.	-1445.5
10100	1.8614	2.3636	0.	-1537.3
10101	1.95	2.3636	5.e-002	1.731e-004
10102	1.95	2.0909	0.	-1347.7
10103	1.8614	2.1818	0.	-1451.9
10104	1.95	2.1818	5.e-002	2.1612e-004
10105	1.95	1.9091	0.	-1231.9
10106	1.8614	2.	0.	-1347.4
10107	1.95	2.	5.e-002	2.7031e-004
10108	1.95	1.7273	0.	-1101.5
10109	1.8614	1.8182	0.	-1226.1
10110	1.95	1.8182	5.e-002	3.1856e-004
10111	1.95	1.5455	0.	-960.3
10112	1.8614	1.6364	0.	-1091.1
10113	1.95	1.6364	5.e-002	3.134e-004
10114	1.95	1.3636	0.	-812.58
10115	1.8614	1.4545	0.	-945.78
10116	1.95	1.4545	5.e-002	2.3751e-004
10117	1.95	1.1818	0.	-662.34
10118	1.8614	1.2727	0.	-793.87
10119	1.95	1.2727	5.e-002	3.251e-004
10120	1.95	1.	0.	-513.45
10121	1.8614	1.0909	0.	-639.03
10122	1.95	1.0909	5.e-002	2.3609e-004
10123	1.95	0.81818	0.	-369.7
10124	1.8614	0.90909	0.	-485.12
10125	1.95	0.90909	5.e-002	2.1095e-004
10126	1.95	0.63636	0.	-235.
10127	1.8614	0.72727	0.	-336.3
10128	1.95	0.72727	5.e-002	1.9274e-004
10129	1.95	0.45455	0.	-113.29
10130	1.8614	0.54545	0.	-197.2
10131	1.95	0.54545	5.e-002	1.2783e-004
10132	1.95	0.27273	0.	-14.521
10133	1.8614	0.36364	0.	-72.625
10134	1.95	0.36364	5.e-002	8.323e-005
10135	1.8614	0.18182	0.	-4.6766
10136	1.95	0.18182	5.e-002	2.6914e-005
10137	1.95	9.0909e-002	0.	0.68657
10138	1.7727	5.7273	0.	-28.465
10139	1.6841	5.8182	0.	-6.2559
10140	1.7727	5.8182	5.e-002	-3.6818e-005
10141	1.7727	5.9091	0.	0.76682
10142	1.7727	5.5455	0.	-155.81
10143	1.6841	5.6364	0.	-104.2
10144	1.7727	5.6364	5.e-002	-1.2844e-004
10145	1.7727	5.3636	0.	-298.38
10146	1.6841	5.4545	0.	-251.76
10147	1.7727	5.4545	5.e-002	-1.9158e-004
10148	1.7727	5.1818	0.	-451.66
10149	1.6841	5.2727	0.	-411.61
10150	1.7727	5.2727	5.e-002	-2.1678e-004
10151	1.7727	5.	0.	-610.68
10152	1.6841	5.0909	0.	-577.98
10153	1.7727	5.0909	5.e-002	-2.5963e-004
10154	1.7727	4.8182	0.	-770.59
10155	1.6841	4.9091	0.	-745.12
10156	1.7727	4.9091	5.e-002	-3.1726e-004
10157	1.7727	4.6364	0.	-927.16
10158	1.6841	4.7273	0.	-908.27
10159	1.7727	4.7273	5.e-002	-3.0909e-004
10160	1.7727	4.4545	0.	-1076.7
10161	1.6841	4.5455	0.	-1063.6
10162	1.7727	4.5455	5.e-002	-2.1029e-004
10163	1.7727	4.2727	0.	-1215.9
10164	1.6841	4.3636	0.	-1208.1
10165	1.7727	4.3636	5.e-002	-3.0186e-004
10166	1.7727	4.0909	0.	-1341.9
10167	1.6841	4.1818	0.	-1339.3
10168	1.7727	4.1818	5.e-002	-2.9865e-004
10169	1.7727	3.9091	0.	-1452.
10170	1.6841	4.	0.	-1454.9
10171	1.7727	4.	5.e-002	-2.8488e-004
10172	1.7727	3.7273	0.	-1544.2
10173	1.6841	3.8182	0.	-1553.3
10174	1.7727	3.8182	5.e-002	-2.7051e-004
10175	1.7727	3.5455	0.	-1616.8
10176	1.6841	3.6364	0.	-1633.
10177	1.7727	3.6364	5.e-002	-1.6192e-004
10178	1.7727	3.3636	0.	-1669.
10179	1.6841	3.4545	0.	-1693.2
10180	1.7727	3.4545	5.e-002	-9.2037e-005
10181	1.7727	3.1818	0.	-1700.5
10182	1.6841	3.2727	0.	-1733.4
10183	1.7727	3.2727	5.e-002	-1.4639e-005
10184	1.7727	3.	0.	-1710.9
10185	1.6841	3.0909	0.	-1753.5
10186	1.7727	3.0909	5.e-002	9.4294e-005
10187	1.7727	2.8182	0.	-1700.5
10188	1.6841	2.9091	0.	-1753.5
10189	1.7727	2.9091	5.e-002	-1.1627e-004
10190	1.7727	2.6364	0.	-1669.
10191	1.6841	2.7273	0.	-1733.4
10192	1.7727	2.7273	5.e-002	-9.0596e-005
10193	1.7727	2.4545	0.	-1616.8
10194	1.6841	2.5455	0.	-1693.2
10195	1.7727	2.5455	5.e-002	3.8492e-005
10196	1.7727	2.2727	0.	-1544.2
10197	1.6841	2.3636	0.	-1633.
10198	1.7727	2.3636	5.e-002	1.5393e-004
10199	1.7727	2.0909	0.	-1452.
10200	1.6841	2.1818	0.	-1553.3
10201	1.7727	2.1818	5.e-002	1.6306e-004
10202	1.7727	1.9091	0.	-1341.9
10203	1.6841	2.	0.	-1454.9
10204	1.7727	2.	5.e-002	1.7482e-004
10205	1.7727	1.7273	0.	-1215.9
10206	1.6841	1.8182	0.	-1339.3
10207	1.7727	1.8182	5.e-002	1.9202e-004
10208	1.7727	1.5455	0.	-1076.7
10209	1.6841	1.6364	0.	-1208.1
10210	1.7727	1.6364	5.e-002	2.504e-004
10211	1.7727	1.3636	0.	-927.16
10212	1.6841	1.4545	0.	-1063.6
10213	1.7727	1.4545	5.e-002	2.2893e-004
10214	1.7727	1.1818	0.	-770.59
10215	1.6841	1.2727	0.	-908.27
10216	1.7727	1.2727	5.e-002	2.6857e-004
10217	1.7727	1.	0.	-610.68
10218	1.6841	1.0909	0.	-745.12
10219	1.7727	1.0909	5.e-002	2.2833e-004
10220	1.7727	0.81818	0.	-451.66
10221	1.6841	0.90909	0.	-577.98
10222	1.7727	0.90909	5.e-002	2.2321e-004
10223	1.7727	0.63636	0.	-298.38
10224	1.6841	0.72727	0.	-411.61
10225	1.7727	0.72727	5.e-002	2.0331e-004
10226	1.7727	0.45455	0.	-155.81
10227	1.6841	0.54545	0.	-251.76
10228	1.7727	0.54545	5.e-002	1.5323e-004
10229	1.7727	0.27273	0.	-28.465
10230	1.6841	0.36364	0.	-104.2
10231	1.7727	0.36364	5.e-002	1.4622e-004
10232	1.6841	0.18182	0.	-6.2559
10233	1.7727	0.18182	5.e-002	3.6818e-005
10234	1.7727	9.0909e-002	0.	0.76682
10235	1.5955	5.7273	0.	-45.407
10236	1.5068	5.8182	0.	-8.1303
10237	1.5955	5.8182	5.e-002	-5.2186e-005
10238	1.5955	5.9091	0.	0.82113
10239	1.5955	5.5455	0.	-199.63
10240	1.5068	5.6364	0.	-136.39
10241	1.5955	5.6364	5.e-002	-2.2203e-004
10242	1.5955	5.3636	0.	-364.9
10243	1.5068	5.4545	0.	-309.5
10244	1.5955	5.4545	5.e-002	-2.5891e-004
10245	1.5955	5.1818	0.	-537.94
10246	1.5068	5.2727	0.	-492.22
10247	1.5955	5.2727	5.e-002	-2.3476e-004
10248	1.5955	5.	0.	-712.52
10249	1.5068	5.0909	0.	-677.19
10250	1.5955	5.0909	5.e-002	-2.4035e-004
10251	1.5955	4.8182	0.	-882.98
10252	1.5068	4.9091	0.	-857.48
10253	1.5955	4.9091	5.e-002	-2.3288e-004
10254	1.5955	4.6364	0.	-1045.
10255	1.5068	4.7273	0.	-1028.1
10256	1.5955	4.7273	5.e-002	-2.3029e-004
10257	1.5955	4.4545	0.	-1195.3
10258	1.5068	4.5455	0.	-1185.6
10259	1.5955	4.5455	5.e-002	-2.5732e-004
10260	1.5955	4.2727	0.	-1331.8
10261	1.5068	4.3636	0.	-1328.2
10262	1.5955	4.3636	5.e-002	-2.4006e-004
10263	1.5955	4.0909	0.	-1452.7
10264	1.5068	4.1818	0.	-1454.4
10265	1.5955	4.1818	5.e-002	-1.7634e-004
10266	1.5955	3.9091	0.	-1556.6
10267	1.5068	4.	0.	-1563.6
10268	1.5955	4.	5.e-002	-2.4109e-004
10269	1.5955	3.7273	0.	-1642.5
10270	1.5068	3.8182	0.	-1655.1
10271	1.5955	3.8182	5.e-002	-1.1517e-004
10272	1.5955	3.5455	0.	-1709.8
10273	1.5068	3.6364	0.	-1728.6
10274	1.5955	3.6364	5.e-002	-7.5859e-005
10275	1.5955	3.3636	0.	-1758.
10276	1.5068	3.4545	0.	-1783.7
10277	1.5955	3.4545	5.e-002	-1.8688e-006
10278	1.5955	3.1818	0.	-1787.
10279	1.5068	3.2727	0.	-1820.5
10280	1.5955	3.2727	5.e-002	8.621e-005
10281	1.5955	3.	0.	-1796.6
10282	1.5068	3.0909	0.	-1838.8
10283	1.5955	3.0909	5.e-002	6.4812e-005
10284	1.5955	2.8182	0.	-1787.
10285	1.5068	2.9091	0.	-1838.8
10286	1.5955	2.9091	5.e-002	-7.2915e-005
10287	1.5955	2.6364	0.	-1758.
10288	1.5068	2.7273	0.	-1820.5
10289	1.5955	2.7273	5.e-002	-1.1064e-004
10290	1.5955	2.4545	0.	-1709.8
10291	1.5068	2.5455	0.	-1783.7
10292	1.5955	2.5455	5.e-002	-3.2419e-005
10293	1.5955	2.2727	0.	-1642.5
10294	1.5068	2.3636	0.	-1728.6
10295	1.5955	2.3636	5.e-002	3.8257e-005
10296	1.5955	2.0909	0.	-1556.6
10297	1.5068	2.1818	0.	-1655.1
10298	1.5955	2.1818	5.e-002	1.0432e-004
10299	1.5955	1.9091	0.	-1452.7
10300	1.5068	2.	0.	-1563.6
10301	1.5955	2.	5.e-002	1.4455e-004
10302	1.5955	1.7273	0.	-1331.8
10303	1.5068	1.8182	0.	-1454.4
10304	1.5955	1.8182	5.e-002	1.6071e-004
10305	1.5955	1.5455	0.	-1195.3
10306	1.5068	1.6364	0.	-1328.2
10307	1.5955	1.6364	5.e-002	2.2935e-004
10308	1.5955	1.3636	0.	-1045.
10309	1.5068	1.4545	0.	-1185.6
10310	1.5955	1.4545	5.e-002	2.0187e-004
10311	1.5955	1.1818	0.	-882.98
10312	1.5068	1.2727	0.	-1028.1
10313	1.5955	1.2727	5.e-002	2.2812e-004
10314	1.5955	1.	0.	-712.52
10315	1.5068	1.0909	0.	-857.48
10316	1.5955	1.0909	5.e-002	2.74e-004
10317	1.5955	0.81818	0.	-537.95
10318	1.5068	0.90909	0.	-677.19
10319	1.5955	0.90909	5.e-002	2.3319e-004
10320	1.5955	0.63636	0.	-364.9
10321	1.5068	0.72727	0.	-492.22
10322	1.5955	0.72727	5.e-002	2.2758e-004
10323	1.5955	0.45455	0.	-199.63
10324	1.5068	0.54545	0.	-309.5
10325	1.5955	0.54545	5.e-002	2.1188e-004
10326	1.5955	0.27273	0.	-45.407
10327	1.5068	0.36364	0.	-136.39
10328	1.5955	0.36364	5.e-002	1.8921e-004
10329	1.5068	0.18182	0.	-8.1303
10330	1.5955	0.18182	5.e-002	4.7059e-005
10331	1.5955	9.0909e-002	0.	0.82113
10332	1.4182	5.7273	0.	-62.626
10333	1.3295	5.8182	0.	-10.017
10334	1.4182	5.8182	5.e-002	-8.0907e-005
10335	1.4182	5.9091	0.	0.81685
10336	1.4182	5.5455	0.	-245.77
10337	1.3295	5.6364	0.	-169.88
10338	1.4182	5.6364	5.e-002	-2.2994e-004
10339	1.4182	5.3636	0.	-436.73
10340	1.3295	5.4545	0.	-372.61
10341	1.4182	5.4545	5.e-002	-2.9069e-004
10342	1.4182	5.1818	0.	-631.55
10343	1.3295	5.2727	0.	-581.38
10344	1.4182	5.2727	5.e-002	-2.8694e-004
10345	1.4182	5.	0.	-822.37
10346	1.3295	5.0909	0.	-786.41
10347	1.4182	5.0909	5.e-002	-2.488e-004
10348	1.4182	4.8182	0.	-1002.9
10349	1.3295	4.9091	0.	-979.65
10350	1.4182	4.9091	5.e-002	-2.7672e-004
10351	1.4182	4.6364	0.	-1169.1
10352	1.3295	4.7273	0.	-1156.3
10353	1.4182	4.7273	5.e-002	-2.7435e-004
10354	1.4182	4.4545	0.	-1318.8
10355	1.3295	4.5455	0.	-1314.2
10356	1.4182	4.5455	5.e-002	-2.5084e-004
10357	1.4182	4.2727	0.	-1451.1
10358	1.3295	4.3636	0.	-1452.9
10359	1.4182	4.3636	5.e-002	-1.7401e-004
10360	1.4182	4.0909	0.	-1565.7
10361	1.3295	4.1818	0.	-1572.7
10362	1.4182	4.1818	5.e-002	-1.8269e-004
10363	1.4182	3.9091	0.	-1662.5
10364	1.3295	4.	0.	-1674.3
10365	1.4182	4.	5.e-002	-1.4567e-004
10366	1.4182	3.7273	0.	-1741.5
10367	1.3295	3.8182	0.	-1758.
10368	1.4182	3.8182	5.e-002	-7.686e-005
10369	1.4182	3.5455	0.	-1802.9
10370	1.3295	3.6364	0.	-1824.5
10371	1.4182	3.6364	5.e-002	-3.0657e-005
10372	1.4182	3.3636	0.	-1846.6
10373	1.3295	3.4545	0.	-1874.1
10374	1.4182	3.4545	5.e-002	4.8674e-005
10375	1.4182	3.1818	0.	-1872.7
10376	1.3295	3.2727	0.	-1907.
10377	1.4182	3.2727	5.e-002	7.5307e-005
10378	1.4182	3.	0.	-1881.4
10379	1.3295	3.0909	0.	-1923.4
10380	1.4182	3.0909	5.e-002	4.8609e-005
10381	1.4182	2.8182	0.	-1872.7
10382	1.3295	2.9091	0.	-1923.4
10383	1.4182	2.9091	5.e-002	-3.5135e-005
10384	1.4182	2.6364	0.	-1846.6
10385	1.3295	2.7273	0.	-1907.
10386	1.4182	2.7273	5.e-002	-8.624e-005
10387	1.4182	2.4545	0.	-1802.9
10388	1.3295	2.5455	0.	-1874.1
10389	1.4182	2.5455	5.e-002	-5.5638e-005
10390	1.4182	2.2727	0.	-1741.5
10391	1.3295	2.3636	0.	-1824.5
10392	1.4182	2.3636	5.e-002	2.6903e-005
10393	1.4182	2.0909	0.	-1662.5
10394	1.3295	2.1818	0.	-1758.
10395	1.4182	2.1818	5.e-002	3.9365e-005
10396	1.4182	1.9091	0.	-1565.7
10397	1.3295	2.	0.	-1674.3
10398	1.4182	2.	5.e-002	1.0119e-004
10399	1.4182	1.7273	0.	-1451.1
10400	1.3295	1.8182	0.	-1572.7
10401	1.4182	1.8182	5.e-002	1.3222e-004
10402	1.4182	1.5455	0.	-1318.8
10403	1.3295	1.6364	0.	-1452.9
10404	1.4182	1.6364	5.e-002	1.6286e-004
10405	1.4182	1.3636	0.	-1169.1
10406	1.3295	1.4545	0.	-1314.2
10407	1.4182	1.4545	5.e-002	2.3806e-004
10408	1.4182	1.1818	0.	-1002.9
10409	1.3295	1.2727	0.	-1156.3
10410	1.4182	1.2727	5.e-002	2.5289e-004
10411	1.4182	1.	0.	-822.37
10412	1.3295	1.0909	0.	-979.65
10413	1.4182	1.0909	5.e-002	2.7647e-004
10414	1.4182	0.81818	0.	-631.55
10415	1.3295	0.90909	0.	-786.41
10416	1.4182	0.90909	5.e-002	2.335e-004
10417	1.4182	0.63636	0.	-436.73
10418	1.3295	0.72727	0.	-581.38
10419	1.4182	0.72727	5.e-002	2.84e-004
10420	1.4182	0.45455	0.	-245.77
10421	1.3295	0.54545	0.	-372.61
10422	1.4182	0.54545	5.e-002	2.8914e-004
10423	1.4182	0.27273	0.	-62.626
10424	1.3295	0.36364	0.	-169.88
10425	1.4182	0.36364	5.e-002	2.2336e-004
10426	1.3295	0.18182	0.	-10.017
10427	1.4182	0.18182	5.e-002	6.9725e-005
10428	1.4182	9.0909e-002	0.	0.81685
10429	1.2409	5.7273	0.	-79.595
10430	1.1523	5.8182	0.	-11.903
10431	1.2409	5.8182	5.e-002	-7.3102e-005
10432	1.2409	5.9091	0.	0.86397
10433	1.2409	5.5455	0.	-296.19
10434	1.1523	5.6364	0.	-206.66
10435	1.2409	5.6364	5.e-002	-2.9983e-004
10436	1.2409	5.3636	0.	-517.19
10437	1.1523	5.4545	0.	-445.21
10438	1.2409	5.4545	5.e-002	-3.0776e-004
10439	1.2409	5.1818	0.	-736.41
10440	1.1523	5.2727	0.	-684.26
10441	1.2409	5.2727	5.e-002	-2.5982e-004
10442	1.2409	5.	0.	-944.04
10443	1.1523	5.0909	0.	-910.69
10444	1.2409	5.0909	5.e-002	-2.5294e-004
10445	1.2409	4.8182	0.	-1133.5
10446	1.1523	4.9091	0.	-1115.8
10447	1.2409	4.9091	5.e-002	-3.6425e-004
10448	1.2409	4.6364	0.	-1301.9
10449	1.1523	4.7273	0.	-1296.
10450	1.2409	4.7273	5.e-002	-2.5141e-004
10451	1.2409	4.4545	0.	-1448.8
10452	1.1523	4.5455	0.	-1451.5
10453	1.2409	4.5455	5.e-002	-2.6677e-004
10454	1.2409	4.2727	0.	-1574.9
10455	1.1523	4.3636	0.	-1583.7
10456	1.2409	4.3636	5.e-002	-1.4922e-004
10457	1.2409	4.0909	0.	-1681.6
10458	1.1523	4.1818	0.	-1695.
10459	1.2409	4.1818	5.e-002	-1.4961e-004
10460	1.2409	3.9091	0.	-1770.1
10461	1.1523	4.	0.	-1787.3
10462	1.2409	4.	5.e-002	-8.2236e-005
10463	1.2409	3.7273	0.	-1841.3
10464	1.1523	3.8182	0.	-1862.3
10465	1.2409	3.8182	5.e-002	-4.2049e-005
10466	1.2409	3.5455	0.	-1896.
10467	1.1523	3.6364	0.	-1921.1
10468	1.2409	3.6364	5.e-002	5.1741e-006
10469	1.2409	3.3636	0.	-1934.8
10470	1.1523	3.4545	0.	-1964.6
10471	1.2409	3.4545	5.e-002	2.302e-005
10472	1.2409	3.1818	0.	-1957.9
10473	1.1523	3.2727	0.	-1993.3
10474	1.2409	3.2727	5.e-002	2.5292e-005
10475	1.2409	3.	0.	-1965.6
10476	1.1523	3.0909	0.	-2007.6
10477	1.2409	3.0909	5.e-002	1.0361e-005
10478	1.2409	2.8182	0.	-1957.9
10479	1.1523	2.9091	0.	-2007.6
10480	1.2409	2.9091	5.e-002	-1.0631e-005
10481	1.2409	2.6364	0.	-1934.8
10482	1.1523	2.7273	0.	-1993.3
10483	1.2409	2.7273	5.e-002	-2.7276e-005
10484	1.2409	2.4545	0.	-1896.
10485	1.1523	2.5455	0.	-1964.6
10486	1.2409	2.5455	5.e-002	-2.5879e-005
10487	1.2409	2.2727	0.	-1841.3
10488	1.1523	2.3636	0.	-1921.1
10489	1.2409	2.3636	5.e-002	-3.9338e-005
10490	1.2409	2.0909	0.	-1770.1
10491	1.1523	2.1818	0.	-1862.3
10492	1.2409	2.1818	5.e-002	4.1057e-005
10493	1.2409	1.9091	0.	-1681.6
10494	1.1523	2.	0.	-1787.3
10495	1.2409	2.	5.e-002	7.6022e-005
10496	1.2409	1.7273	0.	-1574.9
10497	1.1523	1.8182	0.	-1695.
10498	1.2409	1.8182	5.e-002	7.5582e-005
10499	1.2409	1.5455	0.	-1448.8
10500	1.1523	1.6364	0.	-1583.7
10501	1.2409	1.6364	5.e-002	1.4484e-004
10502	1.2409	1.3636	0.	-1301.9
10503	1.1523	1.4545	0.	-1451.5
10504	1.2409	1.4545	5.e-002	1.7875e-004
10505	1.2409	1.1818	0.	-1133.5
10506	1.1523	1.2727	0.	-1296.
10507	1.2409	1.2727	5.e-002	2.3903e-004
10508	1.2409	1.	0.	-944.04
10509	1.1523	1.0909	0.	-1115.8
10510	1.2409	1.0909	5.e-002	2.6021e-004
10511	1.2409	0.81818	0.	-736.41
10512	1.1523	0.90909	0.	-910.69
10513	1.2409	0.90909	5.e-002	2.924e-004
10514	1.2409	0.63636	0.	-517.19
10515	1.1523	0.72727	0.	-684.26
10516	1.2409	0.72727	5.e-002	2.4189e-004
10517	1.2409	0.45455	0.	-296.19
10518	1.1523	0.54545	0.	-445.21
10519	1.2409	0.54545	5.e-002	2.5215e-004
10520	1.2409	0.27273	0.	-79.595
10521	1.1523	0.36364	0.	-206.66
10522	1.2409	0.36364	5.e-002	2.3987e-004
10523	1.1523	0.18182	0.	-11.903
10524	1.2409	0.18182	5.e-002	1.0277e-004
10525	1.2409	9.0909e-002	0.	0.86397
10526	1.0636	5.7273	0.	-97.492
10527	0.975	5.8182	0.	-13.026
10528	1.0636	5.8182	5.e-002	-1.362e-004
10529	1.0636	5.9091	0.	0.61835
10530	1.0636	5.5455	0.	-355.08
10531	0.975	5.6364	0.	-249.76
10532	1.0636	5.6364	5.e-002	-3.0945e-004
10533	1.0636	5.3636	0.	-612.28
10534	0.975	5.4545	0.	-533.15
10535	1.0636	5.4545	5.e-002	-2.5418e-004
10536	1.0636	5.1818	0.	-858.89
10537	0.975	5.2727	0.	-807.27
10538	1.0636	5.2727	5.e-002	-3.6872e-004
10539	1.0636	5.	0.	-1083.
10540	0.975	5.0909	0.	-1055.1
10541	1.0636	5.0909	5.e-002	-2.5447e-004
10542	1.0636	4.8182	0.	-1278.9
10543	0.975	4.9091	0.	-1268.8
10544	1.0636	4.9091	5.e-002	-3.2036e-004
10545	1.0636	4.6364	0.	-1446.1
10546	0.975	4.7273	0.	-1448.2
10547	1.0636	4.7273	5.e-002	-2.5312e-004
10548	1.0636	4.4545	0.	-1586.8
10549	0.975	4.5455	0.	-1596.8
10550	1.0636	4.5455	5.e-002	-1.8168e-004
10551	1.0636	4.2727	0.	-1704.1
10552	0.975	4.3636	0.	-1719.2
10553	1.0636	4.3636	5.e-002	-1.4915e-004
10554	1.0636	4.0909	0.	-1801.
10555	0.975	4.1818	0.	-1819.5
10556	1.0636	4.1818	5.e-002	-9.154e-005
10557	1.0636	3.9091	0.	-1879.7
10558	0.975	4.	0.	-1901.
10559	1.0636	4.	5.e-002	-4.8842e-005
10560	1.0636	3.7273	0.	-1942.3
10561	0.975	3.8182	0.	-1966.1
10562	1.0636	3.8182	5.e-002	-2.1334e-005
10563	1.0636	3.5455	0.	-1989.8
10564	0.975	3.6364	0.	-2016.6
10565	1.0636	3.6364	5.e-002	1.5975e-005
10566	1.0636	3.3636	0.	-2023.3
10567	0.975	3.4545	0.	-2053.6
10568	1.0636	3.4545	5.e-002	3.3004e-005
10569	1.0636	3.1818	0.	-2043.1
10570	0.975	3.2727	0.	-2077.9
10571	1.0636	3.2727	5.e-002	2.6793e-005
10572	1.0636	3.	0.	-2049.7
10573	0.975	3.0909	0.	-2090.
10574	1.0636	3.0909	5.e-002	5.5688e-006
10575	1.0636	2.8182	0.	-2043.1
10576	0.975	2.9091	0.	-2090.
10577	1.0636	2.9091	5.e-002	-5.9885e-006
10578	1.0636	2.6364	0.	-2023.3
10579	0.975	2.7273	0.	-2077.9
10580	1.0636	2.7273	5.e-002	-1.3643e-005
10581	1.0636	2.4545	0.	-1989.8
10582	0.975	2.5455	0.	-2053.6
10583	1.0636	2.5455	5.e-002	-3.4148e-005
10584	1.0636	2.2727	0.	-1942.3
10585	0.975	2.3636	0.	-2016.6
10586	1.0636	2.3636	5.e-002	-2.1713e-005
10587	1.0636	2.0909	0.	-1879.7
10588	0.975	2.1818	0.	-1966.1
10589	1.0636	2.1818	5.e-002	-1.6915e-008
10590	1.0636	1.9091	0.	-1801.
10591	0.975	2.	0.	-1901.
10592	1.0636	2.	5.e-002	3.9948e-005
10593	1.0636	1.7273	0.	-1704.1
10594	0.975	1.8182	0.	-1819.5
10595	1.0636	1.8182	5.e-002	8.7829e-005
10596	1.0636	1.5455	0.	-1586.8
10597	0.975	1.6364	0.	-1719.2
10598	1.0636	1.6364	5.e-002	1.2567e-004
10599	1.0636	1.3636	0.	-1446.1
10600	0.975	1.4545	0.	-1596.8
10601	1.0636	1.4545	5.e-002	1.6324e-004
10602	1.0636	1.1818	0.	-1278.9
10603	0.975	1.2727	0.	-1448.2
10604	1.0636	1.2727	5.e-002	2.3103e-004
10605	1.0636	1.	0.	-1083.
10606	0.975	1.0909	0.	-1268.8
10607	1.0636	1.0909	5.e-002	2.2581e-004
10608	1.0636	0.81818	0.	-858.89
10609	0.975	0.90909	0.	-1055.1
10610	1.0636	0.90909	5.e-002	2.4364e-004
10611	1.0636	0.63636	0.	-612.28
10612	0.975	0.72727	0.	-807.27
10613	1.0636	0.72727	5.e-002	2.5232e-004
10614	1.0636	0.45455	0.	-355.08
10615	0.975	0.54545	0.	-533.15
10616	1.0636	0.54545	5.e-002	3.7134e-004
10617	1.0636	0.27273	0.	-97.493
10618	0.975	0.36364	0.	-249.76
10619	1.0636	0.36364	5.e-002	3.0812e-004
10620	0.975	0.18182	0.	-13.026
10621	1.0636	0.18182	5.e-002	1.2124e-004
10622	1.0636	9.0909e-002	0.	0.61835
10623	0.88636	5.7273	0.	-117.29
10624	0.79773	5.8182	0.	-16.677
10625	0.88636	5.8182	5.e-002	-1.7511e-004
10626	0.88636	5.9091	0.	1.4844
10627	0.88636	5.5455	0.	-427.21
10628	0.79773	5.6364	0.	-308.87
10629	0.88636	5.6364	5.e-002	-2.9179e-004
10630	0.88636	5.3636	0.	-728.36
10631	0.79773	5.4545	0.	-651.06
10632	0.88636	5.4545	5.e-002	-2.4714e-004
10633	0.88636	5.1818	0.	-1004.1
10634	0.79773	5.2727	0.	-964.45
10635	0.88636	5.2727	5.e-002	-3.1654e-004
10636	0.88636	5.	0.	-1241.7
10637	0.79773	5.0909	0.	-1230.
10638	0.88636	5.0909	5.e-002	-3.0686e-004
10639	0.88636	4.8182	0.	-1438.8
10640	0.79773	4.9091	0.	-1445.4
10641	0.88636	4.9091	5.e-002	-2.7104e-004
10642	0.88636	4.6364	0.	-1599.5
10643	0.79773	4.7273	0.	-1617.1
10644	0.88636	4.7273	5.e-002	-1.9435e-004
10645	0.88636	4.4545	0.	-1729.6
10646	0.79773	4.5455	0.	-1753.6
10647	0.88636	4.5455	5.e-002	-1.5438e-004
10648	0.88636	4.2727	0.	-1834.9
10649	0.79773	4.3636	0.	-1862.3
10650	0.88636	4.3636	5.e-002	-1.2137e-004
10651	0.88636	4.0909	0.	-1919.7
10652	0.79773	4.1818	0.	-1949.1
10653	0.88636	4.1818	5.e-002	-8.4978e-005
10654	0.88636	3.9091	0.	-1987.5
10655	0.79773	4.	0.	-2018.3
10656	0.88636	4.	5.e-002	-1.6931e-005
10657	0.88636	3.7273	0.	-2040.5
10658	0.79773	3.8182	0.	-2072.8
10659	0.88636	3.8182	5.e-002	-1.6049e-005
10660	0.88636	3.5455	0.	-2080.5
10661	0.79773	3.6364	0.	-2114.5
10662	0.88636	3.6364	5.e-002	-6.169e-006
10663	0.88636	3.3636	0.	-2108.4
10664	0.79773	3.4545	0.	-2144.9
10665	0.88636	3.4545	5.e-002	5.9961e-005
10666	0.88636	3.1818	0.	-2124.9
10667	0.79773	3.2727	0.	-2164.8
10668	0.88636	3.2727	5.e-002	5.929e-006
10669	0.88636	3.	0.	-2130.4
10670	0.79773	3.0909	0.	-2174.6
10671	0.88636	3.0909	5.e-002	3.2994e-006
10672	0.88636	2.8182	0.	-2124.9
10673	0.79773	2.9091	0.	-2174.6
10674	0.88636	2.9091	5.e-002	-3.5492e-006
10675	0.88636	2.6364	0.	-2108.4
10676	0.79773	2.7273	0.	-2164.8
10677	0.88636	2.7273	5.e-002	-8.2109e-006
10678	0.88636	2.4545	0.	-2080.5
10679	0.79773	2.5455	0.	-2144.9
10680	0.88636	2.5455	5.e-002	-3.6802e-005
10681	0.88636	2.2727	0.	-2040.5
10682	0.79773	2.3636	0.	-2114.5
10683	0.88636	2.3636	5.e-002	8.6592e-006
10684	0.88636	2.0909	0.	-1987.5
10685	0.79773	2.1818	0.	-2072.8
10686	0.88636	2.1818	5.e-002	-2.1122e-005
10687	0.88636	1.9091	0.	-1919.7
10688	0.79773	2.	0.	-2018.3
10689	0.88636	2.	5.e-002	2.2379e-005
10690	0.88636	1.7273	0.	-1834.9
10691	0.79773	1.8182	0.	-1949.1
10692	0.88636	1.8182	5.e-002	7.8035e-005
10693	0.88636	1.5455	0.	-1729.6
10694	0.79773	1.6364	0.	-1862.3
10695	0.88636	1.6364	5.e-002	7.0727e-005
10696	0.88636	1.3636	0.	-1599.5
10697	0.79773	1.4545	0.	-1753.6
10698	0.88636	1.4545	5.e-002	1.3039e-004
10699	0.88636	1.1818	0.	-1438.8
10700	0.79773	1.2727	0.	-1617.1
10701	0.88636	1.2727	5.e-002	1.8575e-004
10702	0.88636	1.	0.	-1241.7
10703	0.79773	1.0909	0.	-1445.4
10704	0.88636	1.0909	5.e-002	2.071e-004
10705	0.88636	0.81818	0.	-1004.1
10706	0.79773	0.90909	0.	-1230.
10707	0.88636	0.90909	5.e-002	2.4437e-004
10708	0.88636	0.63636	0.	-728.36
10709	0.79773	0.72727	0.	-964.45
10710	0.88636	0.72727	5.e-002	2.5854e-004
10711	0.88636	0.45455	0.	-427.21
10712	0.79773	0.54545	0.	-651.06
10713	0.88636	0.54545	5.e-002	2.4576e-004
10714	0.88636	0.27273	0.	-117.29
10715	0.79773	0.36364	0.	-308.87
10716	0.88636	0.36364	5.e-002	2.3474e-004
10717	0.79773	0.18182	0.	-16.677
10718	0.88636	0.18182	5.e-002	2.6898e-004
10719	0.88636	9.0909e-002	0.	1.4844
10720	0.70909	5.7273	0.	-149.32
10721	0.62045	5.8182	0.	-12.077
10722	0.70909	5.8182	5.e-002	-3.87e-004
10723	0.70909	5.9091	0.	-1.5991
10724	0.70909	5.5455	0.	-532.28
10725	0.62045	5.6364	0.	-390.68
10726	0.70909	5.6364	5.e-002	-3.2006e-004
10727	0.70909	5.3636	0.	-887.95
10728	0.62045	5.4545	0.	-806.15
10729	0.70909	5.4545	5.e-002	-3.0014e-004
10730	0.70909	5.1818	0.	-1191.5
10731	0.62045	5.2727	0.	-1154.5
10732	0.70909	5.2727	5.e-002	-3.1666e-004
10733	0.70909	5.	0.	-1434.8
10734	0.62045	5.0909	0.	-1424.8
10735	0.70909	5.0909	5.e-002	-3.4715e-004
10736	0.70909	4.8182	0.	-1624.5
10737	0.62045	4.9091	0.	-1628.9
10738	0.70909	4.9091	5.e-002	-2.5316e-004
10739	0.70909	4.6364	0.	-1771.7
10740	0.62045	4.7273	0.	-1783.3
10741	0.70909	4.7273	5.e-002	-1.7605e-004
10742	0.70909	4.4545	0.	-1886.5
10743	0.62045	4.5455	0.	-1901.2
10744	0.70909	4.5455	5.e-002	-1.3386e-004
10745	0.70909	4.2727	0.	-1976.7
10746	0.62045	4.3636	0.	-1992.6
10747	0.70909	4.3636	5.e-002	-9.8473e-005
10748	0.70909	4.0909	0.	-2047.8
10749	0.62045	4.1818	0.	-2064.
10750	0.70909	4.1818	5.e-002	-6.9289e-005
10751	0.70909	3.9091	0.	-2103.7
10752	0.62045	4.	0.	-2119.9
10753	0.70909	4.	5.e-002	-3.6026e-005
10754	0.70909	3.7273	0.	-2146.9
10755	0.62045	3.8182	0.	-2163.3
10756	0.70909	3.8182	5.e-002	-1.348e-005
10757	0.70909	3.5455	0.	-2179.1
10758	0.62045	3.6364	0.	-2196.2
10759	0.70909	3.6364	5.e-002	3.8137e-006
10760	0.70909	3.3636	0.	-2201.4
10761	0.62045	3.4545	0.	-2220.
10762	0.70909	3.4545	5.e-002	3.1435e-005
10763	0.70909	3.1818	0.	-2214.6
10764	0.62045	3.2727	0.	-2235.4
10765	0.70909	3.2727	5.e-002	4.7689e-006
10766	0.70909	3.	0.	-2218.9
10767	0.62045	3.0909	0.	-2243.
10768	0.70909	3.0909	5.e-002	1.9387e-006
10769	0.70909	2.8182	0.	-2214.6
10770	0.62045	2.9091	0.	-2243.
10771	0.70909	2.9091	5.e-002	-2.1886e-006
10772	0.70909	2.6364	0.	-2201.4
10773	0.62045	2.7273	0.	-2235.4
10774	0.70909	2.7273	5.e-002	-6.1319e-006
10775	0.70909	2.4545	0.	-2179.1
10776	0.62045	2.5455	0.	-2220.
10777	0.70909	2.5455	5.e-002	-3.7396e-005
10778	0.70909	2.2727	0.	-2146.9
10779	0.62045	2.3636	0.	-2196.2
10780	0.70909	2.3636	5.e-002	-3.5148e-005
10781	0.70909	2.0909	0.	-2103.7
10782	0.62045	2.1818	0.	-2163.3
10783	0.70909	2.1818	5.e-002	-3.1398e-005
10784	0.70909	1.9091	0.	-2047.8
10785	0.62045	2.	0.	-2119.9
10786	0.70909	2.	5.e-002	3.0549e-005
10787	0.70909	1.7273	0.	-1976.7
10788	0.62045	1.8182	0.	-2064.
10789	0.70909	1.8182	5.e-002	2.5651e-005
10790	0.70909	1.5455	0.	-1886.5
10791	0.62045	1.6364	0.	-1992.6
10792	0.70909	1.6364	5.e-002	7.3783e-005
10793	0.70909	1.3636	0.	-1771.7
10794	0.62045	1.4545	0.	-1901.2
10795	0.70909	1.4545	5.e-002	1.1915e-004
10796	0.70909	1.1818	0.	-1624.5
10797	0.62045	1.2727	0.	-1783.3
10798	0.70909	1.2727	5.e-002	1.5677e-004
10799	0.70909	1.	0.	-1434.8
10800	0.62045	1.0909	0.	-1628.9
10801	0.70909	1.0909	5.e-002	2.1427e-004
10802	0.70909	0.81818	0.	-1191.5
10803	0.62045	0.90909	0.	-1424.8
10804	0.70909	0.90909	5.e-002	2.3349e-004
10805	0.70909	0.63636	0.	-887.95
10806	0.62045	0.72727	0.	-1154.5
10807	0.70909	0.72727	5.e-002	3.0767e-004
10808	0.70909	0.45455	0.	-532.28
10809	0.62045	0.54545	0.	-806.15
10810	0.70909	0.54545	5.e-002	3.0186e-004
10811	0.70909	0.27273	0.	-149.32
10812	0.62045	0.36364	0.	-390.68
10813	0.70909	0.36364	5.e-002	2.7846e-004
10814	0.62045	0.18182	0.	-12.077
10815	0.70909	0.18182	5.e-002	2.8311e-004
10816	0.70909	9.0909e-002	0.	-1.5991
10817	0.53182	5.7273	0.	-186.92
10818	0.44318	5.8182	0.	-48.545
10819	0.53182	5.8182	5.e-002	-3.6461e-004
10820	0.53182	5.9091	0.	9.9384
10821	0.53182	5.5455	0.	-665.15
10822	0.44318	5.6364	0.	-571.89
10823	0.53182	5.6364	5.e-002	-3.0454e-004
10824	0.53182	5.3636	0.	-1074.6
10825	0.44318	5.4545	0.	-1078.6
10826	0.53182	5.4545	5.e-002	-4.8304e-004
10827	0.53182	5.1818	0.	-1389.3
10828	0.44318	5.2727	0.	-1443.
10829	0.53182	5.2727	5.e-002	-3.7423e-004
10830	0.53182	5.	0.	-1619.7
10831	0.44318	5.0909	0.	-1696.8
10832	0.53182	5.0909	5.e-002	-2.3791e-004
10833	0.53182	4.8182	0.	-1788.
10834	0.44318	4.9091	0.	-1875.5
10835	0.53182	4.9091	5.e-002	-2.4122e-004
10836	0.53182	4.6364	0.	-1912.8
10837	0.44318	4.7273	0.	-2005.
10838	0.53182	4.7273	5.e-002	-1.6618e-004
10839	0.53182	4.4545	0.	-2007.2
10840	0.44318	4.5455	0.	-2101.1
10841	0.53182	4.5455	5.e-002	-1.1237e-004
10842	0.53182	4.2727	0.	-2079.7
10843	0.44318	4.3636	0.	-2174.
10844	0.53182	4.3636	5.e-002	-4.4098e-005
10845	0.53182	4.0909	0.	-2135.9
10846	0.44318	4.1818	0.	-2230.
10847	0.53182	4.1818	5.e-002	-4.9649e-005
10848	0.53182	3.9091	0.	-2179.4
10849	0.44318	4.	0.	-2273.1
10850	0.53182	4.	5.e-002	-2.4186e-005
10851	0.53182	3.7273	0.	-2212.6
10852	0.44318	3.8182	0.	-2306.1
10853	0.53182	3.8182	5.e-002	-8.2491e-006
10854	0.53182	3.5455	0.	-2237.1
10855	0.44318	3.6364	0.	-2330.7
10856	0.53182	3.6364	5.e-002	-1.4495e-006
10857	0.53182	3.3636	0.	-2254.
10858	0.44318	3.4545	0.	-2348.3
10859	0.53182	3.4545	5.e-002	3.1167e-006
10860	0.53182	3.1818	0.	-2263.9
10861	0.44318	3.2727	0.	-2359.6
10862	0.53182	3.2727	5.e-002	2.7926e-006
10863	0.53182	3.	0.	-2267.1
10864	0.44318	3.0909	0.	-2365.1
10865	0.53182	3.0909	5.e-002	1.3934e-006
10866	0.53182	2.8182	0.	-2263.9
10867	0.44318	2.9091	0.	-2365.1
10868	0.53182	2.9091	5.e-002	-3.2038e-005
10869	0.53182	2.6364	0.	-2254.
10870	0.44318	2.7273	0.	-2359.6
10871	0.53182	2.7273	5.e-002	-4.1789e-006
10872	0.53182	2.4545	0.	-2237.1
10873	0.44318	2.5455	0.	-2348.3
10874	0.53182	2.5455	5.e-002	-1.8695e-006
10875	0.53182	2.2727	0.	-2212.6
10876	0.44318	2.3636	0.	-2330.7
10877	0.53182	2.3636	5.e-002	-2.9514e-005
10878	0.53182	2.0909	0.	-2179.4
10879	0.44318	2.1818	0.	-2306.1
10880	0.53182	2.1818	5.e-002	1.2519e-006
10881	0.53182	1.9091	0.	-2135.9
10882	0.44318	2.	0.	-2273.1
10883	0.53182	2.	5.e-002	1.3445e-005
10884	0.53182	1.7273	0.	-2079.7
10885	0.44318	1.8182	0.	-2230.
10886	0.53182	1.8182	5.e-002	2.4156e-005
10887	0.53182	1.5455	0.	-2007.2
10888	0.44318	1.6364	0.	-2174.
10889	0.53182	1.6364	5.e-002	6.6873e-005
10890	0.53182	1.3636	0.	-1912.8
10891	0.44318	1.4545	0.	-2101.1
10892	0.53182	1.4545	5.e-002	1.2426e-004
10893	0.53182	1.1818	0.	-1788.
10894	0.44318	1.2727	0.	-2005.
10895	0.53182	1.2727	5.e-002	1.1286e-004
10896	0.53182	1.	0.	-1619.7
10897	0.44318	1.0909	0.	-1875.5
10898	0.53182	1.0909	5.e-002	1.7588e-004
10899	0.53182	0.81818	0.	-1389.3
10900	0.44318	0.90909	0.	-1696.8
10901	0.53182	0.90909	5.e-002	2.27e-004
10902	0.53182	0.63636	0.	-1074.6
10903	0.44318	0.72727	0.	-1443.
10904	0.53182	0.72727	5.e-002	2.5506e-004
10905	0.53182	0.45455	0.	-665.15
10906	0.44318	0.54545	0.	-1078.6
10907	0.53182	0.54545	5.e-002	2.4039e-004
10908	0.53182	0.27273	0.	-186.92
10909	0.44318	0.36364	0.	-571.89
10910	0.53182	0.36364	5.e-002	3.0454e-004
10911	0.44318	0.18182	0.	-48.545
10912	0.53182	0.18182	5.e-002	3.0253e-004
10913	0.53182	9.0909e-002	0.	9.9384
10914	0.35455	5.7273	0.	-343.63
10915	0.26591	5.8182	0.	-31.439
10916	0.35455	5.8182	5.e-002	-2.6509e-004
10917	0.35455	5.9091	0.	-28.66
10918	0.35455	5.5455	0.	-988.64
10919	0.26591	5.6364	0.	-791.53
10920	0.35455	5.6364	5.e-002	-1.9751e-004
10921	0.35455	5.3636	0.	-1450.
10922	0.26591	5.4545	0.	-1287.1
10923	0.35455	5.4545	5.e-002	-3.7646e-004
10924	0.35455	5.1818	0.	-1751.3
10925	0.26591	5.2727	0.	-1589.3
10926	0.35455	5.2727	5.e-002	-2.9815e-004
10927	0.35455	5.	0.	-1952.4
10928	0.26591	5.0909	0.	-1783.3
10929	0.35455	5.0909	5.e-002	-2.4795e-004
10930	0.35455	4.8182	0.	-2092.
10931	0.26591	4.9091	0.	-1915.6
10932	0.35455	4.9091	5.e-002	-1.4773e-004
10933	0.35455	4.6364	0.	-2192.8
10934	0.26591	4.7273	0.	-2010.2
10935	0.35455	4.7273	5.e-002	-9.5965e-005
10936	0.35455	4.4545	0.	-2267.6
10937	0.26591	4.5455	0.	-2079.8
10938	0.35455	4.5455	5.e-002	-5.4011e-005
10939	0.35455	4.2727	0.	-2324.1
10940	0.26591	4.3636	0.	-2132.1
10941	0.35455	4.3636	5.e-002	-7.0275e-005
10942	0.35455	4.0909	0.	-2367.
10943	0.26591	4.1818	0.	-2171.6
10944	0.35455	4.1818	5.e-002	-7.8061e-005
10945	0.35455	3.9091	0.	-2399.7
10946	0.26591	4.	0.	-2201.5
10947	0.35455	4.	5.e-002	-1.2358e-005
10948	0.35455	3.7273	0.	-2424.1
10949	0.26591	3.8182	0.	-2224.
10950	0.35455	3.8182	5.e-002	-6.9717e-006
10951	0.35455	3.5455	0.	-2441.8
10952	0.26591	3.6364	0.	-2240.5
10953	0.35455	3.6364	5.e-002	-2.9264e-005
10954	0.35455	3.3636	0.	-2453.8
10955	0.26591	3.4545	0.	-2252.
10956	0.35455	3.4545	5.e-002	2.1736e-006
10957	0.35455	3.1818	0.	-2460.8
10958	0.26591	3.2727	0.	-2259.3
10959	0.35455	3.2727	5.e-002	2.3177e-006
10960	0.35455	3.	0.	-2463.1
10961	0.26591	3.0909	0.	-2262.9
10962	0.35455	3.0909	5.e-002	9.4689e-007
10963	0.35455	2.8182	0.	-2460.8
10964	0.26591	2.9091	0.	-2262.9
10965	0.35455	2.9091	5.e-002	-9.7691e-007
10966	0.35455	2.6364	0.	-2453.8
10967	0.26591	2.7273	0.	-2259.3
10968	0.35455	2.7273	5.e-002	-2.5675e-006
10969	0.35455	2.4545	0.	-2441.8
10970	0.26591	2.5455	0.	-2252.
10971	0.35455	2.5455	5.e-002	-3.4063e-006
10972	0.35455	2.2727	0.	-2424.1
10973	0.26591	2.3636	0.	-2240.5
10974	0.35455	2.3636	5.e-002	-4.3118e-006
10975	0.35455	2.0909	0.	-2399.7
10976	0.26591	2.1818	0.	-2224.
10977	0.35455	2.1818	5.e-002	9.407e-007
10978	0.35455	1.9091	0.	-2367.
10979	0.26591	2.	0.	-2201.5
10980	0.35455	2.	5.e-002	3.438e-005
10981	0.35455	1.7273	0.	-2324.1
10982	0.26591	1.8182	0.	-2171.6
10983	0.35455	1.8182	5.e-002	4.4809e-005
10984	0.35455	1.5455	0.	-2267.6
10985	0.26591	1.6364	0.	-2132.1
10986	0.35455	1.6364	5.e-002	6.4243e-005
10987	0.35455	1.3636	0.	-2192.8
10988	0.26591	1.4545	0.	-2079.8
10989	0.35455	1.4545	5.e-002	4.695e-005
10990	0.35455	1.1818	0.	-2092.
10991	0.26591	1.2727	0.	-2010.2
10992	0.35455	1.2727	5.e-002	1.5581e-004
10993	0.35455	1.	0.	-1952.4
10994	0.26591	1.0909	0.	-1915.6
10995	0.35455	1.0909	5.e-002	1.4296e-004
10996	0.35455	0.81818	0.	-1751.3
10997	0.26591	0.90909	0.	-1783.3
10998	0.35455	0.90909	5.e-002	1.9693e-004
10999	0.35455	0.63636	0.	-1450.
11000	0.26591	0.72727	0.	-1589.3
11001	0.35455	0.72727	5.e-002	2.5413e-004
11002	0.35455	0.45455	0.	-988.64
11003	0.26591	0.54545	0.	-1287.1
11004	0.35455	0.54545	5.e-002	2.5202e-004
11005	0.35455	0.27273	0.	-343.63
11006	0.26591	0.36364	0.	-791.53
11007	0.35455	0.36364	5.e-002	3.7865e-004
11008	0.26591	0.18182	0.	-31.439
11009	0.35455	0.18182	5.e-002	2.6578e-004
11010	0.35455	9.0909e-002	0.	-28.66
11011	0.17727	5.7273	0.	-460.69
11012	0.17727	5.8182	5.e-002	-2.8866e-004
11013	0.17727	5.9091	0.	94.163
11014	8.8636e-002	5.8182	0.	-630.5
11015	0.17727	5.5455	0.	-1088.8
11016	0.17727	5.6364	5.e-002	-3.6197e-004
11017	8.8636e-002	5.6364	0.	-1622.
11018	0.17727	5.3636	0.	-1419.2
11019	0.17727	5.4545	5.e-002	-3.7037e-004
11020	8.8636e-002	5.4545	0.	-2088.2
11021	0.17727	5.1818	0.	-1615.1
11022	0.17727	5.2727	5.e-002	-3.0467e-004
11023	8.8636e-002	5.2727	0.	-2358.6
11024	0.17727	5.	0.	-1742.5
11025	0.17727	5.0909	5.e-002	-2.0866e-004
11026	8.8636e-002	5.0909	0.	-2533.5
11027	0.17727	4.8182	0.	-1831.3
11028	0.17727	4.9091	5.e-002	-1.551e-004
11029	8.8636e-002	4.9091	0.	-2654.7
11030	0.17727	4.6364	0.	-1895.7
11031	0.17727	4.7273	5.e-002	-1.2872e-004
11032	8.8636e-002	4.7273	0.	-2741.5
11033	0.17727	4.4545	0.	-1943.4
11034	0.17727	4.5455	5.e-002	-9.4013e-005
11035	8.8636e-002	4.5455	0.	-2804.6
11036	0.17727	4.2727	0.	-1979.1
11037	0.17727	4.3636	5.e-002	-6.5303e-005
11038	8.8636e-002	4.3636	0.	-2850.9
11039	0.17727	4.0909	0.	-2005.8
11040	0.17727	4.1818	5.e-002	-4.63e-005
11041	8.8636e-002	4.1818	0.	-2884.6
11042	0.17727	3.9091	0.	-2025.7
11043	0.17727	4.	5.e-002	-5.2594e-005
11044	8.8636e-002	4.	0.	-2908.9
11045	0.17727	3.7273	0.	-2040.3
11046	0.17727	3.8182	5.e-002	-6.2167e-005
11047	8.8636e-002	3.8182	0.	-2926.2
11048	0.17727	3.5455	0.	-2050.6
11049	0.17727	3.6364	5.e-002	2.7647e-006
11050	8.8636e-002	3.6364	0.	-2938.1
11051	0.17727	3.3636	0.	-2057.4
11052	0.17727	3.4545	5.e-002	-2.749e-005
11053	8.8636e-002	3.4545	0.	-2946.
11054	0.17727	3.1818	0.	-2061.3
11055	0.17727	3.2727	5.e-002	-1.2822e-005
11056	8.8636e-002	3.2727	0.	-2950.8
11057	0.17727	3.	0.	-2062.6
11058	0.17727	3.0909	5.e-002	9.9193e-007
11059	8.8636e-002	3.0909	0.	-2953.
11060	0.17727	2.8182	0.	-2061.3
11061	0.17727	2.9091	5.e-002	-1.0593e-006
11062	8.8636e-002	2.9091	0.	-2953.
11063	0.17727	2.6364	0.	-2057.4
11064	0.17727	2.7273	5.e-002	4.2814e-005
11065	8.8636e-002	2.7273	0.	-2950.8
11066	0.17727	2.4545	0.	-2050.6
11067	0.17727	2.5455	5.e-002	-4.4819e-006
11068	8.8636e-002	2.5455	0.	-2946.
11069	0.17727	2.2727	0.	-2040.3
11070	0.17727	2.3636	5.e-002	9.8137e-006
11071	8.8636e-002	2.3636	0.	-2938.1
11072	0.17727	2.0909	0.	-2025.7
11073	0.17727	2.1818	5.e-002	2.6639e-005
11074	8.8636e-002	2.1818	0.	-2926.2
11075	0.17727	1.9091	0.	-2005.8
11076	0.17727	2.	5.e-002	4.9249e-005
11077	8.8636e-002	2.	0.	-2908.9
11078	0.17727	1.7273	0.	-1979.1
11079	0.17727	1.8182	5.e-002	6.065e-005
11080	8.8636e-002	1.8182	0.	-2884.6
11081	0.17727	1.5455	0.	-1943.4
11082	0.17727	1.6364	5.e-002	6.5522e-005
11083	8.8636e-002	1.6364	0.	-2850.9
11084	0.17727	1.3636	0.	-1895.7
11085	0.17727	1.4545	5.e-002	8.358e-005
11086	8.8636e-002	1.4545	0.	-2804.6
11087	0.17727	1.1818	0.	-1831.3
11088	0.17727	1.2727	5.e-002	1.1864e-004
11089	8.8636e-002	1.2727	0.	-2741.5
11090	0.17727	1.	0.	-1742.5
11091	0.17727	1.0909	5.e-002	1.4466e-004
11092	8.8636e-002	1.0909	0.	-2654.7
11093	0.17727	0.81818	0.	-1615.1
11094	0.17727	0.90909	5.e-002	1.7971e-004
11095	8.8636e-002	0.90909	0.	-2533.5
11096	0.17727	0.63636	0.	-1419.2
11097	0.17727	0.72727	5.e-002	2.9953e-004
11098	8.8636e-002	0.72727	0.	-2358.6
11099	0.17727	0.45455	0.	-1088.8
11100	0.17727	0.54545	5.e-002	2.541e-004
11101	8.8636e-002	0.54545	0.	-2088.2
11102	0.17727	0.27273	0.	-460.69
11103	0.17727	0.36364	5.e-002	2.4037e-004
11104	8.8636e-002	0.36364	0.	-1622.
11105	0.17727	0.18182	5.e-002	3.2491e-004
11106	0.17727	9.0909e-002	0.	94.163
11107	8.8636e-002	0.18182	0.	-630.5
11108	4.3435	5.8182	0.	-19.881
11109	4.2512	5.7273	0.	-19.683
11110	4.2512	5.8182	5.e-002	1.1599e-005
11111	4.2512	5.9091	0.	-17.038
11112	4.159	5.8182	0.	0.34393
11113	4.5281	5.8182	0.	-5.9254
11114	4.4358	5.7273	0.	-7.3345
11115	4.4358	5.8182	5.e-002	8.6328e-008
11116	4.4358	5.9091	0.	-0.99226
11117	4.7127	5.8182	0.	-2.2975
11118	4.6204	5.7273	0.	-4.1401
11119	4.6204	5.8182	5.e-002	-7.2121e-007
11120	4.6204	5.9091	0.	-0.64135
11121	4.8972	5.8182	0.	-0.49304
11122	4.8049	5.7273	0.	-1.4581
11123	4.8049	5.8182	5.e-002	-3.5625e-006
11124	4.8049	5.9091	0.	0.10744
11125	5.0818	5.8182	0.	7.1679e-002
11126	4.9895	5.7273	0.	-0.61094
11127	4.9895	5.8182	5.e-002	-3.6392e-006
11128	4.9895	5.9091	0.	5.3339e-002
11129	5.2664	5.8182	0.	0.2466
11130	5.1741	5.7273	0.	-0.2337
11131	5.1741	5.8182	5.e-002	-1.547e-006
11132	5.1741	5.9091	0.	5.1082e-002
11133	5.4509	5.8182	0.	0.24661
11134	5.3586	5.7273	0.	-0.1113
11135	5.3586	5.8182	5.e-002	1.4406e-006
11136	5.3586	5.9091	0.	1.843e-002
11137	5.6355	5.8182	0.	0.19725
11138	5.5432	5.7273	0.	-6.9045e-002
11139	5.5432	5.8182	5.e-002	3.3505e-006
11140	5.5432	5.9091	0.	4.0846e-003
11141	5.8201	5.8182	0.	0.14175
11142	5.7278	5.7273	0.	-5.7294e-002
11143	5.7278	5.8182	5.e-002	4.752e-006
11144	5.7278	5.9091	0.	-1.0082e-003
11145	6.0046	5.8182	0.	9.6673e-002
11146	5.9123	5.7273	0.	-5.2488e-002
11147	5.9123	5.8182	5.e-002	4.9762e-006
11148	5.9123	5.9091	0.	2.241e-003
11149	6.1892	5.8182	0.	6.4683e-002
11150	6.0969	5.7273	0.	-4.817e-002
11151	6.0969	5.8182	5.e-002	4.6816e-006
11152	6.0969	5.9091	0.	1.018e-002
11153	6.3738	5.8182	0.	4.3733e-002
11154	6.2815	5.7273	0.	-4.2983e-002
11155	6.2815	5.8182	5.e-002	4.8178e-006
11156	6.2815	5.9091	0.	2.0571e-002
11157	6.5583	5.8182	0.	3.0329e-002
11158	6.466	5.7273	0.	-3.7792e-002
11159	6.466	5.8182	5.e-002	3.1155e-006
11160	6.466	5.9091	0.	3.1719e-002
11161	6.7429	5.8182	0.	2.0973e-002
11162	6.6506	5.7273	0.	-3.4131e-002
11163	6.6506	5.8182	5.e-002	3.6281e-006
11164	6.6506	5.9091	0.	4.2535e-002
11165	6.9275	5.8182	0.	1.2413e-002
11166	6.8352	5.7273	0.	-3.4137e-002
11167	6.8352	5.8182	5.e-002	3.1496e-006
11168	6.8352	5.9091	0.	5.2289e-002
11169	7.112	5.8182	0.	1.2164e-003
11170	7.0198	5.7273	0.	-4.1695e-002
11171	7.0198	5.8182	5.e-002	1.8276e-006
11172	7.0198	5.9091	0.	6.0421e-002
11173	7.2966	5.8182	0.	-1.7523e-002
11174	7.2043	5.7273	0.	-6.8062e-002
11175	7.2043	5.8182	5.e-002	-6.8821e-006
11176	7.2043	5.9091	0.	6.6288e-002
11177	7.4812	5.8182	0.	-5.3787e-002
11178	7.3889	5.7273	0.	-0.17528
11179	7.3889	5.8182	5.e-002	-8.3452e-005
11180	7.3889	5.9091	0.	6.8719e-002
11181	7.6657	5.8182	0.	-0.13413
11182	7.5735	5.7273	0.	-1.0352
11183	7.5735	5.8182	5.e-002	-2.3377e-004
11184	7.5735	5.9091	0.	6.5128e-002
11185	7.8503	5.8182	0.	-0.32782
11186	7.758	5.7273	0.	-2.7186
11187	7.758	5.8182	5.e-002	-1.2206e-004
11188	7.758	5.9091	0.	4.9514e-002
11189	8.0349	5.8182	0.	-0.66167
11190	7.9426	5.7273	0.	-3.9873
11191	7.9426	5.8182	5.e-002	-7.9274e-005
11192	7.9426	5.9091	0.	1.0741e-002
11193	8.2194	5.8182	0.	-0.94324
11194	8.1272	5.7273	0.	-4.7892
11195	8.1272	5.8182	5.e-002	-6.3566e-005
11196	8.1272	5.9091	0.	-5.3919e-002
11197	8.404	5.8182	0.	-1.0514
11198	8.3117	5.7273	0.	-5.1957
11199	8.3117	5.8182	5.e-002	-5.7279e-005
11200	8.3117	5.9091	0.	-0.1122
11201	8.5886	5.8182	0.	-0.99071
11202	8.4963	5.7273	0.	-5.2803
11203	8.4963	5.8182	5.e-002	-5.1194e-005
11204	8.4963	5.9091	0.	-0.13386
11205	8.7731	5.8182	0.	-0.80648
11206	8.6809	5.7273	0.	-5.108
11207	8.6809	5.8182	5.e-002	-4.6952e-005
11208	8.6809	5.9091	0.	-0.12356
11209	8.9577	5.8182	0.	-0.56683
11210	8.8654	5.7273	0.	-4.7346
11211	8.8654	5.8182	5.e-002	-4.4866e-005
11212	8.8654	5.9091	0.	-9.9701e-002
11213	9.1423	5.8182	0.	-0.35468
11214	9.05	5.7273	0.	-4.2075
11215	9.05	5.8182	5.e-002	-4.6675e-005
11216	9.05	5.9091	0.	-7.5478e-002
11217	9.3269	5.8182	0.	-0.2169
11218	9.2346	5.7273	0.	-3.5661
11219	9.2346	5.8182	5.e-002	-4.3158e-005
11220	9.2346	5.9091	0.	-5.576e-002
11221	9.5114	5.8182	0.	-0.13925
11222	9.4191	5.7273	0.	-2.8438
11223	9.4191	5.8182	5.e-002	-4.712e-005
11224	9.4191	5.9091	0.	-4.0934e-002
11225	9.696	5.8182	0.	-9.4947e-002
11226	9.6037	5.7273	0.	-2.0696
11227	9.6037	5.8182	5.e-002	-4.5212e-005
11228	9.6037	5.9091	0.	-3.0064e-002
11229	9.8806	5.8182	0.	-6.8042e-002
11230	9.7883	5.7273	0.	-1.2736
11231	9.7883	5.8182	5.e-002	-4.2278e-005
11232	9.7883	5.9091	0.	-2.2132e-002
11233	10.065	5.8182	0.	-5.0662e-002
11234	9.9728	5.7273	0.	-0.52399
11235	9.9728	5.8182	5.e-002	-4.3499e-005
11236	9.9728	5.9091	0.	-1.632e-002
11237	10.25	5.8182	0.	-3.8865e-002
11238	10.157	5.7273	0.	-0.11889
11239	10.157	5.8182	5.e-002	-4.3712e-005
11240	10.157	5.9091	0.	-1.2036e-002
11241	10.434	5.8182	0.	-3.0536e-002
11242	10.342	5.7273	0.	-3.97e-002
11243	10.342	5.8182	5.e-002	-4.3907e-005
11244	10.342	5.9091	0.	-8.8937e-003
11245	10.619	5.8182	0.	-2.4441e-002
11246	10.527	5.7273	0.	-1.7894e-002
11247	10.527	5.8182	5.e-002	-3.8425e-005
11248	10.527	5.9091	0.	-6.572e-003
11249	10.803	5.8182	0.	-1.9874e-002
11250	10.711	5.7273	0.	-8.8548e-003
11251	10.711	5.8182	5.e-002	-4.686e-005
11252	10.711	5.9091	0.	-4.829e-003
11253	10.988	5.8182	0.	-1.6401e-002
11254	10.896	5.7273	0.	-4.4273e-003
11255	10.896	5.8182	5.e-002	-3.8449e-005
11256	10.896	5.9091	0.	-3.5825e-003
11257	11.173	5.8182	0.	-1.369e-002
11258	11.08	5.7273	0.	-2.1015e-003
11259	11.08	5.8182	5.e-002	-3.9387e-005
11260	11.08	5.9091	0.	-2.6949e-003
11261	11.357	5.8182	0.	-1.1534e-002
11262	11.265	5.7273	0.	-8.3725e-004
11263	11.265	5.8182	5.e-002	-4.048e-005
11264	11.265	5.9091	0.	-2.0432e-003
11265	11.542	5.8182	0.	-9.8252e-003
11266	11.449	5.7273	0.	-2.0902e-004
11267	11.449	5.8182	5.e-002	-4.2254e-005
11268	11.449	5.9091	0.	-1.6044e-003
11269	11.726	5.8182	0.	-8.4381e-003
11270	11.634	5.7273	0.	1.3e-005
11271	11.634	5.8182	5.e-002	-4.6203e-005
11272	11.634	5.9091	0.	-1.3496e-003
11273	11.911	5.8182	0.	-7.2821e-003
11274	11.819	5.7273	0.	3.4649e-005
11275	11.819	5.8182	5.e-002	-3.0627e-005
11276	11.819	5.9091	0.	-1.1802e-003
11277	12.095	5.8182	0.	-6.3198e-003
11278	12.003	5.7273	0.	-8.5207e-005
11279	12.003	5.8182	5.e-002	-3.9607e-005
11280	12.003	5.9091	0.	-1.0962e-003
11281	12.28	5.8182	0.	-5.5139e-003
11282	12.188	5.7273	0.	-2.9869e-004
11283	12.188	5.8182	5.e-002	-4.8344e-005
11284	12.188	5.9091	0.	-1.0815e-003
11285	12.465	5.8182	0.	-4.8474e-003
11286	12.372	5.7273	0.	-5.7211e-004
11287	12.372	5.8182	5.e-002	-2.723e-005
11288	12.372	5.9091	0.	-1.1186e-003
11289	12.649	5.8182	0.	-4.2803e-003
11290	12.557	5.7273	0.	-9.0868e-004
11291	12.557	5.8182	5.e-002	-3.5192e-005
11292	12.557	5.9091	0.	-1.2248e-003
11293	12.834	5.8182	0.	-3.7757e-003
11294	12.741	5.7273	0.	-1.2341e-003
11295	12.741	5.8182	5.e-002	-3.1511e-005
11296	12.741	5.9091	0.	-1.3275e-003
11297	13.018	5.8182	0.	-3.3395e-003
11298	12.926	5.7273	0.	-1.5594e-003
11299	12.926	5.8182	5.e-002	-2.8616e-005
11300	12.926	5.9091	0.	-1.4457e-003
11301	13.203	5.8182	0.	-2.9669e-003
11302	13.11	5.7273	0.	-1.8964e-003
11303	13.11	5.8182	5.e-002	-2.0487e-005
11304	13.11	5.9091	0.	-1.5869e-003
11305	13.387	5.8182	0.	-2.641e-003
11306	13.295	5.7273	0.	-2.237e-003
11307	13.295	5.8182	5.e-002	-1.5281e-005
11308	13.295	5.9091	0.	-1.7453e-003
11309	13.572	5.8182	0.	-2.3369e-003
11310	13.48	5.7273	0.	-2.5651e-003
11311	13.48	5.8182	5.e-002	3.3059e-006
11312	13.48	5.9091	0.	-1.9039e-003
11313	13.756	5.8182	0.	-2.0638e-003
11314	13.664	5.7273	0.	-2.8574e-003
11315	13.664	5.8182	5.e-002	-1.5081e-004
11316	13.664	5.9091	0.	-2.0396e-003
11317	13.941	5.8182	0.	-1.8351e-003
11318	13.849	5.7273	0.	-3.1666e-003
11319	13.849	5.8182	5.e-002	-9.2158e-005
11320	13.849	5.9091	0.	-2.201e-003
11321	14.126	5.8182	0.	-1.6215e-003
11322	14.033	5.7273	0.	-3.4735e-003
11323	14.033	5.8182	5.e-002	-1.2527e-004
11324	14.033	5.9091	0.	-2.3709e-003
11325	14.31	5.8182	0.	-1.4195e-003
11326	14.218	5.7273	0.	-3.748e-003
11327	14.218	5.8182	5.e-002	-7.2815e-005
11328	14.218	5.9091	0.	-2.5158e-003
11329	14.495	5.8182	0.	-1.2495e-003
11330	14.402	5.7273	0.	-4.0215e-003
11331	14.402	5.8182	5.e-002	-7.0272e-005
11332	14.402	5.9091	0.	-2.6665e-003
11333	14.679	5.8182	0.	-1.0934e-003
11334	14.587	5.7273	0.	-4.3099e-003
11335	14.587	5.8182	5.e-002	-7.2817e-005
11336	14.587	5.9091	0.	-2.8372e-003
11337	14.864	5.8182	0.	-9.3551e-004
11338	14.772	5.7273	0.	-4.5676e-003
11339	14.772	5.8182	5.e-002	-7.3252e-005
11340	14.772	5.9091	0.	-2.9816e-003
11341	15.048	5.8182	0.	-7.8945e-004
11342	14.956	5.7273	0.	-4.8143e-003
11343	14.956	5.8182	5.e-002	-6.1224e-005
11344	14.956	5.9091	0.	-3.12e-003
11345	15.233	5.8182	0.	-6.6015e-004
11346	15.141	5.7273	0.	-5.0636e-003
11347	15.141	5.8182	5.e-002	-8.2036e-005
11348	15.141	5.9091	0.	-3.2623e-003
11349	15.418	5.8182	0.	-5.4056e-004
11350	15.325	5.7273	0.	-5.3176e-003
11351	15.325	5.8182	5.e-002	-7.1605e-005
11352	15.325	5.9091	0.	-3.4101e-003
11353	15.602	5.8182	0.	-4.1427e-004
11354	15.51	5.7273	0.	-5.565e-003
11355	15.51	5.8182	5.e-002	-7.6888e-005
11356	15.51	5.9091	0.	-3.5512e-003
11357	15.787	5.8182	0.	-2.9381e-004
11358	15.694	5.7273	0.	-5.7905e-003
11359	15.694	5.8182	5.e-002	-7.5778e-005
11360	15.694	5.9091	0.	-3.6694e-003
11361	15.971	5.8182	0.	-1.9378e-004
11362	15.879	5.7273	0.	-6.0378e-003
11363	15.879	5.8182	5.e-002	-7.6749e-005
11364	15.879	5.9091	0.	-3.8082e-003
11365	16.156	5.8182	0.	-9.1936e-005
11366	16.064	5.7273	0.	-6.2954e-003
11367	16.064	5.8182	5.e-002	-7.913e-005
11368	16.064	5.9091	0.	-3.9521e-003
11369	16.34	5.8182	0.	1.1174e-005
11370	16.248	5.7273	0.	-6.538e-003
11371	16.248	5.8182	5.e-002	-8.4459e-005
11372	16.248	5.9091	0.	-4.0771e-003
11373	16.525	5.8182	0.	9.6655e-005
11374	16.433	5.7273	0.	-6.7953e-003
11375	16.433	5.8182	5.e-002	-8.994e-005
11376	16.433	5.9091	0.	-4.211e-003
11377	16.71	5.8182	0.	1.7926e-004
11378	16.617	5.7273	0.	-7.0785e-003
11379	16.617	5.8182	5.e-002	-8.3767e-005
11380	16.617	5.9091	0.	-4.3623e-003
11381	16.894	5.8182	0.	2.6794e-004
11382	16.802	5.7273	0.	-7.3528e-003
11383	16.802	5.8182	5.e-002	-8.8742e-005
11384	16.802	5.9091	0.	-4.4967e-003
11385	17.079	5.8182	0.	3.5263e-004
11386	16.986	5.7273	0.	-7.6384e-003
11387	16.986	5.8182	5.e-002	-9.2625e-005
11388	16.986	5.9091	0.	-4.6325e-003
11389	17.263	5.8182	0.	4.3139e-004
11390	17.171	5.7273	0.	-7.94e-003
11391	17.171	5.8182	5.e-002	-9.9251e-005
11392	17.171	5.9091	0.	-4.7709e-003
11393	17.448	5.8182	0.	4.9557e-004
11394	17.356	5.7273	0.	-8.2619e-003
11395	17.356	5.8182	5.e-002	-1.0212e-004
11396	17.356	5.9091	0.	-4.9156e-003
11397	17.632	5.8182	0.	5.5318e-004
11398	17.54	5.7273	0.	-8.6198e-003
11399	17.54	5.8182	5.e-002	-1.0439e-004
11400	17.54	5.9091	0.	-5.0795e-003
11401	17.817	5.8182	0.	6.1244e-004
11402	17.725	5.7273	0.	-8.9859e-003
11403	17.725	5.8182	5.e-002	-9.1821e-005
11404	17.725	5.9091	0.	-5.233e-003
11405	18.002	5.8182	0.	6.621e-004
11406	17.909	5.7273	0.	-9.3768e-003
11407	17.909	5.8182	5.e-002	-1.2209e-004
11408	17.909	5.9091	0.	-5.3886e-003
11409	18.186	5.8182	0.	6.969e-004
11410	18.094	5.7273	0.	-9.8023e-003
11411	18.094	5.8182	5.e-002	-1.0483e-004
11412	18.094	5.9091	0.	-5.5549e-003
11413	18.371	5.8182	0.	7.1672e-004
11414	18.278	5.7273	0.	-1.0269e-002
11415	18.278	5.8182	5.e-002	-7.2898e-005
11416	18.278	5.9091	0.	-5.732e-003
11417	18.555	5.8182	0.	7.2923e-004
11418	18.463	5.7273	0.	-1.0774e-002
11419	18.463	5.8182	5.e-002	-8.4158e-005
11420	18.463	5.9091	0.	-5.9149e-003
11421	18.74	5.8182	0.	7.2356e-004
11422	18.648	5.7273	0.	-1.1308e-002
11423	18.648	5.8182	5.e-002	-6.5671e-005
11424	18.648	5.9091	0.	-6.0883e-003
11425	18.924	5.8182	0.	6.8528e-004
11426	18.832	5.7273	0.	-1.1908e-002
11427	18.832	5.8182	5.e-002	-4.9675e-005
11428	18.832	5.9091	0.	-6.2834e-003
11429	19.109	5.8182	0.	6.2339e-004
11430	19.017	5.7273	0.	-1.257e-002
11431	19.017	5.8182	5.e-002	-5.692e-005
11432	19.017	5.9091	0.	-6.4892e-003
11433	19.294	5.8182	0.	5.3057e-004
11434	19.201	5.7273	0.	-1.3284e-002
11435	19.201	5.8182	5.e-002	-5.7608e-005
11436	19.201	5.9091	0.	-6.6882e-003
11437	19.478	5.8182	0.	3.8987e-004
11438	19.386	5.7273	0.	-1.4078e-002
11439	19.386	5.8182	5.e-002	-3.7422e-005
11440	19.386	5.9091	0.	-6.9018e-003
11441	19.663	5.8182	0.	1.9933e-004
11442	19.57	5.7273	0.	-1.4962e-002
11443	19.57	5.8182	5.e-002	-3.5383e-005
11444	19.57	5.9091	0.	-7.1244e-003
11445	19.847	5.8182	0.	-4.6423e-005
11446	19.755	5.7273	0.	-1.5932e-002
11447	19.755	5.8182	5.e-002	-2.0098e-005
11448	19.755	5.9091	0.	-7.3446e-003
11449	20.032	5.8182	0.	-3.6581e-004
11450	19.94	5.7273	0.	-1.7005e-002
11451	19.94	5.8182	5.e-002	-2.3935e-005
11452	19.94	5.9091	0.	-7.5604e-003
11453	20.216	5.8182	0.	-7.7753e-004
11454	20.124	5.7273	0.	-1.8204e-002
11455	20.124	5.8182	5.e-002	-1.1885e-005
11456	20.124	5.9091	0.	-7.7793e-003
11457	20.401	5.8182	0.	-1.2969e-003
11458	20.309	5.7273	0.	-1.9541e-002
11459	20.309	5.8182	5.e-002	-9.0379e-006
11460	20.309	5.9091	0.	-7.9931e-003
11461	20.585	5.8182	0.	-1.9433e-003
11462	20.493	5.7273	0.	-2.1035e-002
11463	20.493	5.8182	5.e-002	-2.2295e-006
11464	20.493	5.9091	0.	-8.1909e-003
11465	20.77	5.8182	0.	-2.7507e-003
11466	20.678	5.7273	0.	-2.27e-002
11467	20.678	5.8182	5.e-002	-5.571e-006
11468	20.678	5.9091	0.	-8.362e-003
11469	20.955	5.8182	0.	-3.7579e-003
11470	20.862	5.7273	0.	-2.458e-002
11471	20.862	5.8182	5.e-002	-4.4499e-006
11472	20.862	5.9091	0.	-8.5073e-003
11473	21.139	5.8182	0.	-5.0011e-003
11474	21.047	5.7273	0.	-2.67e-002
11475	21.047	5.8182	5.e-002	1.5357e-006
11476	21.047	5.9091	0.	-8.6078e-003
11477	21.324	5.8182	0.	-6.5366e-003
11478	21.231	5.7273	0.	-2.9088e-002
11479	21.231	5.8182	5.e-002	4.39e-006
11480	21.231	5.9091	0.	-8.6354e-003
11481	21.508	5.8182	0.	-8.4389e-003
11482	21.416	5.7273	0.	-3.1798e-002
11483	21.416	5.8182	5.e-002	6.4222e-006
11484	21.416	5.9091	0.	-8.5712e-003
11485	21.693	5.8182	0.	-1.0794e-002
11486	21.601	5.7273	0.	-3.4886e-002
11487	21.601	5.8182	5.e-002	5.8477e-006
11488	21.601	5.9091	0.	-8.3762e-003
11489	21.877	5.8182	0.	-1.3717e-002
11490	21.785	5.7273	0.	-3.8408e-002
11491	21.785	5.8182	5.e-002	1.4576e-006
11492	21.785	5.9091	0.	-7.9923e-003
11493	22.062	5.8182	0.	-1.7359e-002
11494	21.97	5.7273	0.	-4.2443e-002
11495	21.97	5.8182	5.e-002	2.2257e-006
11496	21.97	5.9091	0.	-7.3426e-003
11497	22.247	5.8182	0.	-2.1931e-002
11498	22.154	5.7273	0.	-4.7085e-002
11499	22.154	5.8182	5.e-002	3.5456e-007
11500	22.154	5.9091	0.	-6.3145e-003
11501	22.431	5.8182	0.	-2.7704e-002
11502	22.339	5.7273	0.	-5.2453e-002
11503	22.339	5.8182	5.e-002	4.1177e-006
11504	22.339	5.9091	0.	-4.7434e-003
11505	22.616	5.8182	0.	-3.5104e-002
11506	22.523	5.7273	0.	-5.8647e-002
11507	22.523	5.8182	5.e-002	6.4747e-006
11508	22.523	5.9091	0.	-2.3433e-003
11509	22.8	5.8182	0.	-4.4542e-002
11510	22.708	5.7273	0.	-6.5915e-002
11511	22.708	5.8182	5.e-002	1.5182e-006
11512	22.708	5.9091	0.	1.2377e-003
11513	22.985	5.8182	0.	-5.7401e-002
11514	22.893	5.7273	0.	-7.3908e-002
11515	22.893	5.8182	5.e-002	4.2075e-006
11516	22.893	5.9091	0.	7.097e-003
11517	23.169	5.8182	0.	-7.2733e-002
11518	23.077	5.7273	0.	-8.4376e-002
11519	23.077	5.8182	5.e-002	-2.88e-006
11520	23.077	5.9091	0.	1.5245e-002
11521	23.354	5.8182	0.	-0.1005
11522	23.262	5.7273	0.	-9.0029e-002
11523	23.262	5.8182	5.e-002	4.8012e-007
11524	23.262	5.9091	0.	3.3936e-002
11525	23.539	5.8182	0.	-0.11553
11526	23.446	5.7273	0.	-0.11522
11527	23.446	5.8182	5.e-002	2.5385e-006
11528	23.446	5.9091	0.	4.7403e-002
11529	23.723	5.8182	0.	-0.31067
11530	23.631	5.7273	0.	-5.4871e-002
11531	23.631	5.8182	5.e-002	3.8736e-006
11532	23.631	5.9091	0.	0.14217
11533	23.815	5.7273	0.	-0.38622
11534	23.815	5.8182	5.e-002	1.0818e-005
11535	23.908	5.8182	0.	-3.7982e-002
11536	23.815	5.9091	0.	-7.4072e-002
11537	4.3435	5.6364	0.	-11.086
11538	4.2512	5.5455	0.	-11.595
11539	4.2512	5.6364	5.e-002	1.5203e-005
11540	4.159	5.6364	0.	3.8612
11541	4.5281	5.6364	0.	-4.9963
11542	4.4358	5.5455	0.	-4.0078
11543	4.4358	5.6364	5.e-002	-7.2194e-006
11544	4.7127	5.6364	0.	-2.8683
11545	4.6204	5.5455	0.	-3.7826
11546	4.6204	5.6364	5.e-002	-1.2946e-005
11547	4.8972	5.6364	0.	-1.3748
11548	4.8049	5.5455	0.	-1.9477
11549	4.8049	5.6364	5.e-002	-2.2278e-005
11550	5.0818	5.6364	0.	-0.82838
11551	4.9895	5.5455	0.	-1.2341
11552	4.9895	5.6364	5.e-002	-2.2733e-005
11553	5.2664	5.6364	0.	-0.55947
11554	5.1741	5.5455	0.	-0.79151
11555	5.1741	5.6364	5.e-002	-2.0518e-005
11556	5.4509	5.6364	0.	-0.42634
11557	5.3586	5.5455	0.	-0.56239
11558	5.3586	5.6364	5.e-002	-1.5934e-005
11559	5.6355	5.6364	0.	-0.34158
11560	5.5432	5.5455	0.	-0.41799
11561	5.5432	5.6364	5.e-002	-1.0211e-005
11562	5.8201	5.6364	0.	-0.27958
11563	5.7278	5.5455	0.	-0.32346
11564	5.7278	5.6364	5.e-002	-8.2994e-006
11565	6.0046	5.6364	0.	-0.22942
11566	5.9123	5.5455	0.	-0.25706
11567	5.9123	5.6364	5.e-002	-7.8248e-006
11568	6.1892	5.6364	0.	-0.18792
11569	6.0969	5.5455	0.	-0.20995
11570	6.0969	5.6364	5.e-002	-9.2636e-006
11571	6.3738	5.6364	0.	-0.15422
11572	6.2815	5.5455	0.	-0.17756
11573	6.2815	5.6364	5.e-002	-1.3946e-005
11574	6.5583	5.6364	0.	-0.12868
11575	6.466	5.5455	0.	-0.1585
11576	6.466	5.6364	5.e-002	-2.7311e-005
11577	6.7429	5.6364	0.	-0.1128
11578	6.6506	5.5455	0.	-0.15478
11579	6.6506	5.6364	5.e-002	-9.7555e-005
11580	6.9275	5.6364	0.	-0.1112
11581	6.8352	5.5455	0.	-0.17677
11582	6.8352	5.6364	5.e-002	-2.4026e-004
11583	7.112	5.6364	0.	-0.14186
11584	7.0198	5.5455	0.	-0.2765
11585	7.0198	5.6364	5.e-002	-4.8069e-005
11586	7.2966	5.6364	0.	-0.3451
11587	7.2043	5.5455	0.	-1.0962
11588	7.2043	5.6364	5.e-002	-2.5728e-005
11589	7.4812	5.6364	0.	-2.301
11590	7.3889	5.5455	0.	-4.8623
11591	7.3889	5.6364	5.e-002	-1.3216e-005
11592	7.6657	5.6364	0.	-5.0359
11593	7.5735	5.5455	0.	-8.3918
11594	7.5735	5.6364	5.e-002	-8.2328e-006
11595	7.8503	5.6364	0.	-7.0726
11596	7.758	5.5455	0.	-10.991
11597	7.758	5.6364	5.e-002	-6.9142e-006
11598	8.0349	5.6364	0.	-8.4445
11599	7.9426	5.5455	0.	-12.762
11600	7.9426	5.6364	5.e-002	-6.0565e-006
11601	8.2194	5.6364	0.	-9.258
11602	8.1272	5.5455	0.	-13.839
11603	8.1272	5.6364	5.e-002	-5.4274e-006
11604	8.404	5.6364	0.	-9.6152
11605	8.3117	5.5455	0.	-14.348
11606	8.3117	5.6364	5.e-002	-4.9056e-006
11607	8.5886	5.6364	0.	-9.6061
11608	8.4963	5.5455	0.	-14.398
11609	8.4963	5.6364	5.e-002	-3.841e-006
11610	8.7731	5.6364	0.	-9.308
11611	8.6809	5.5455	0.	-14.087
11612	8.6809	5.6364	5.e-002	-2.9548e-006
11613	8.9577	5.6364	0.	-8.7864
11614	8.8654	5.5455	0.	-13.494
11615	8.8654	5.6364	5.e-002	-2.3659e-006
11616	9.1423	5.6364	0.	-8.0958
11617	9.05	5.5455	0.	-12.689
11618	9.05	5.6364	5.e-002	-1.7469e-006
11619	9.3269	5.6364	0.	-7.2815
11620	9.2346	5.5455	0.	-11.727
11621	9.2346	5.6364	5.e-002	-2.1046e-006
11622	9.5114	5.6364	0.	-6.3803
11623	9.4191	5.5455	0.	-10.654
11624	9.4191	5.6364	5.e-002	-1.6336e-006
11625	9.696	5.6364	0.	-5.4224
11626	9.6037	5.5455	0.	-9.5094
11627	9.6037	5.6364	5.e-002	-6.6314e-007
11628	9.8806	5.6364	0.	-4.4316
11629	9.7883	5.5455	0.	-8.3219
11630	9.7883	5.6364	5.e-002	-2.4031e-007
11631	10.065	5.6364	0.	-3.4269
11632	9.9728	5.5455	0.	-7.1159
11633	9.9728	5.6364	5.e-002	-1.0052e-007
11634	10.25	5.6364	0.	-2.4235
11635	10.157	5.5455	0.	-5.9099
11636	10.157	5.6364	5.e-002	8.523e-007
11637	10.434	5.6364	0.	-1.4332
11638	10.342	5.5455	0.	-4.7183
11639	10.342	5.6364	5.e-002	4.5092e-007
11640	10.619	5.6364	0.	-0.47018
11641	10.527	5.5455	0.	-3.552
11642	10.527	5.6364	5.e-002	9.5604e-007
11643	10.803	5.6364	0.	5.6418e-003
11644	10.711	5.5455	0.	-2.4185
11645	10.711	5.6364	5.e-002	1.7535e-006
11646	10.988	5.6364	0.	1.2071e-002
11647	10.896	5.5455	0.	-1.3237
11648	10.896	5.6364	5.e-002	2.6102e-006
11649	11.173	5.6364	0.	1.1824e-002
11650	11.08	5.5455	0.	-0.27103
11651	11.08	5.6364	5.e-002	3.1364e-006
11652	11.357	5.6364	0.	1.0703e-002
11653	11.265	5.5455	0.	7.738e-003
11654	11.265	5.6364	5.e-002	2.8291e-006
11655	11.542	5.6364	0.	9.3419e-003
11656	11.449	5.5455	0.	6.5307e-003
11657	11.449	5.6364	5.e-002	2.4199e-006
11658	11.726	5.6364	0.	7.9423e-003
11659	11.634	5.5455	0.	5.386e-003
11660	11.634	5.6364	5.e-002	3.2729e-006
11661	11.911	5.6364	0.	6.5875e-003
11662	11.819	5.5455	0.	4.3508e-003
11663	11.819	5.6364	5.e-002	3.538e-006
11664	12.095	5.6364	0.	5.2877e-003
11665	12.003	5.5455	0.	3.3921e-003
11666	12.003	5.6364	5.e-002	2.9421e-006
11667	12.28	5.6364	0.	4.0494e-003
11668	12.188	5.5455	0.	2.5004e-003
11669	12.188	5.6364	5.e-002	3.3699e-006
11670	12.465	5.6364	0.	2.8625e-003
11671	12.372	5.5455	0.	1.6681e-003
11672	12.372	5.6364	5.e-002	3.3949e-006
11673	12.649	5.6364	0.	1.7428e-003
11674	12.557	5.5455	0.	8.6322e-004
11675	12.557	5.6364	5.e-002	3.8756e-006
11676	12.834	5.6364	0.	7.0726e-004
11677	12.741	5.5455	0.	1.4173e-004
11678	12.741	5.6364	5.e-002	3.5008e-006
11679	13.018	5.6364	0.	-2.6726e-004
11680	12.926	5.5455	0.	-5.2407e-004
11681	12.926	5.6364	5.e-002	3.4116e-006
11682	13.203	5.6364	0.	-1.1932e-003
11683	13.11	5.5455	0.	-1.1563e-003
11684	13.11	5.6364	5.e-002	3.404e-006
11685	13.387	5.6364	0.	-2.0656e-003
11686	13.295	5.5455	0.	-1.756e-003
11687	13.295	5.6364	5.e-002	4.5334e-006
11688	13.572	5.6364	0.	-2.8712e-003
11689	13.48	5.5455	0.	-2.3131e-003
11690	13.48	5.6364	5.e-002	5.2356e-006
11691	13.756	5.6364	0.	-3.631e-003
11692	13.664	5.5455	0.	-2.8095e-003
11693	13.664	5.6364	5.e-002	5.1751e-006
11694	13.941	5.6364	0.	-4.3653e-003
11695	13.849	5.5455	0.	-3.3023e-003
11696	13.849	5.6364	5.e-002	4.6493e-006
11697	14.126	5.6364	0.	-5.0542e-003
11698	14.033	5.5455	0.	-3.775e-003
11699	14.033	5.6364	5.e-002	5.2618e-006
11700	14.31	5.6364	0.	-5.7022e-003
11701	14.218	5.5455	0.	-4.2006e-003
11702	14.218	5.6364	5.e-002	5.5703e-006
11703	14.495	5.6364	0.	-6.336e-003
11704	14.402	5.5455	0.	-4.6134e-003
11705	14.402	5.6364	5.e-002	6.9049e-006
11706	14.679	5.6364	0.	-6.9436e-003
11707	14.587	5.5455	0.	-5.0303e-003
11708	14.587	5.6364	5.e-002	6.2202e-006
11709	14.864	5.6364	0.	-7.5143e-003
11710	14.772	5.5455	0.	-5.4066e-003
11711	14.772	5.6364	5.e-002	6.5676e-006
11712	15.048	5.6364	0.	-8.0672e-003
11713	14.956	5.5455	0.	-5.7647e-003
11714	14.956	5.6364	5.e-002	6.5007e-006
11715	15.233	5.6364	0.	-8.6126e-003
11716	15.141	5.5455	0.	-6.1188e-003
11717	15.141	5.6364	5.e-002	6.8365e-006
11718	15.418	5.6364	0.	-9.1481e-003
11719	15.325	5.5455	0.	-6.4716e-003
11720	15.325	5.6364	5.e-002	7.8736e-006
11721	15.602	5.6364	0.	-9.6626e-003
11722	15.51	5.5455	0.	-6.8126e-003
11723	15.51	5.6364	5.e-002	7.2255e-006
11724	15.787	5.6364	0.	-1.0172e-002
11725	15.694	5.5455	0.	-7.1286e-003
11726	15.694	5.6364	5.e-002	7.4757e-006
11727	15.971	5.6364	0.	-1.0692e-002
11728	15.879	5.5455	0.	-7.4609e-003
11729	15.879	5.6364	5.e-002	7.2136e-006
11730	16.156	5.6364	0.	-1.1209e-002
11731	16.064	5.5455	0.	-7.8005e-003
11732	16.064	5.6364	5.e-002	7.7255e-006
11733	16.34	5.6364	0.	-1.1725e-002
11734	16.248	5.5455	0.	-8.1231e-003
11735	16.248	5.6364	5.e-002	7.3841e-006
11736	16.525	5.6364	0.	-1.2262e-002
11737	16.433	5.5455	0.	-8.457e-003
11738	16.433	5.6364	5.e-002	7.1558e-006
11739	16.71	5.6364	0.	-1.2811e-002
11740	16.617	5.5455	0.	-8.8155e-003
11741	16.617	5.6364	5.e-002	7.3449e-006
11742	16.894	5.6364	0.	-1.3365e-002
11743	16.802	5.5455	0.	-9.1621e-003
11744	16.802	5.6364	5.e-002	7.7881e-006
11745	17.079	5.6364	0.	-1.3939e-002
11746	16.986	5.5455	0.	-9.518e-003
11747	16.986	5.6364	5.e-002	7.1277e-006
11748	17.263	5.6364	0.	-1.4538e-002
11749	17.171	5.5455	0.	-9.8881e-003
11750	17.171	5.6364	5.e-002	8.4331e-006
11751	17.448	5.6364	0.	-1.5173e-002
11752	17.356	5.5455	0.	-1.0275e-002
11753	17.356	5.6364	5.e-002	7.1603e-006
11754	17.632	5.6364	0.	-1.584e-002
11755	17.54	5.5455	0.	-1.0696e-002
11756	17.54	5.6364	5.e-002	7.4882e-006
11757	17.817	5.6364	0.	-1.6534e-002
11758	17.725	5.5455	0.	-1.1122e-002
11759	17.725	5.6364	5.e-002	8.6633e-006
11760	18.002	5.6364	0.	-1.7269e-002
11761	17.909	5.5455	0.	-1.1568e-002
11762	17.909	5.6364	5.e-002	7.5813e-006
11763	18.186	5.6364	0.	-1.8056e-002
11764	18.094	5.5455	0.	-1.2045e-002
11765	18.094	5.6364	5.e-002	1.0054e-005
11766	18.371	5.6364	0.	-1.8898e-002
11767	18.278	5.5455	0.	-1.2558e-002
11768	18.278	5.6364	5.e-002	8.5387e-006
11769	18.555	5.6364	0.	-1.9789e-002
11770	18.463	5.5455	0.	-1.3101e-002
11771	18.463	5.6364	5.e-002	7.5748e-006
11772	18.74	5.6364	0.	-2.0743e-002
11773	18.648	5.5455	0.	-1.3665e-002
11774	18.648	5.6364	5.e-002	1.021e-005
11775	18.924	5.6364	0.	-2.1777e-002
11776	18.832	5.5455	0.	-1.4284e-002
11777	18.832	5.6364	5.e-002	9.9951e-006
11778	19.109	5.6364	0.	-2.2886e-002
11779	19.017	5.5455	0.	-1.495e-002
11780	19.017	5.6364	5.e-002	9.1999e-006
11781	19.294	5.6364	0.	-2.4078e-002
11782	19.201	5.5455	0.	-1.5653e-002
11783	19.201	5.6364	5.e-002	1.0216e-005
11784	19.478	5.6364	0.	-2.5373e-002
11785	19.386	5.5455	0.	-1.6414e-002
11786	19.386	5.6364	5.e-002	9.3221e-006
11787	19.663	5.6364	0.	-2.6773e-002
11788	19.57	5.5455	0.	-1.724e-002
11789	19.57	5.6364	5.e-002	9.8196e-006
11790	19.847	5.6364	0.	-2.8281e-002
11791	19.755	5.5455	0.	-1.8118e-002
11792	19.755	5.6364	5.e-002	1.0506e-005
11793	20.032	5.6364	0.	-2.9917e-002
11794	19.94	5.5455	0.	-1.9061e-002
11795	19.94	5.6364	5.e-002	9.5781e-006
11796	20.216	5.6364	0.	-3.1696e-002
11797	20.124	5.5455	0.	-2.0081e-002
11798	20.124	5.6364	5.e-002	7.6779e-006
11799	20.401	5.6364	0.	-3.3629e-002
11800	20.309	5.5455	0.	-2.1179e-002
11801	20.309	5.6364	5.e-002	9.4939e-006
11802	20.585	5.6364	0.	-3.5726e-002
11803	20.493	5.5455	0.	-2.2358e-002
11804	20.493	5.6364	5.e-002	1.2389e-005
11805	20.77	5.6364	0.	-3.8007e-002
11806	20.678	5.5455	0.	-2.3618e-002
11807	20.678	5.6364	5.e-002	1.1136e-005
11808	20.955	5.6364	0.	-4.0496e-002
11809	20.862	5.5455	0.	-2.4973e-002
11810	20.862	5.6364	5.e-002	1.1497e-005
11811	21.139	5.6364	0.	-4.3208e-002
11812	21.047	5.5455	0.	-2.643e-002
11813	21.047	5.6364	5.e-002	1.0197e-005
11814	21.324	5.6364	0.	-4.6161e-002
11815	21.231	5.5455	0.	-2.7972e-002
11816	21.231	5.6364	5.e-002	1.3025e-005
11817	21.508	5.6364	0.	-4.9384e-002
11818	21.416	5.5455	0.	-2.9609e-002
11819	21.416	5.6364	5.e-002	1.4591e-005
11820	21.693	5.6364	0.	-5.2898e-002
11821	21.601	5.5455	0.	-3.1336e-002
11822	21.601	5.6364	5.e-002	1.3617e-005
11823	21.877	5.6364	0.	-5.6718e-002
11824	21.785	5.5455	0.	-3.3122e-002
11825	21.785	5.6364	5.e-002	1.0341e-005
11826	22.062	5.6364	0.	-6.086e-002
11827	21.97	5.5455	0.	-3.4938e-002
11828	21.97	5.6364	5.e-002	1.0077e-005
11829	22.247	5.6364	0.	-6.533e-002
11830	22.154	5.5455	0.	-3.6725e-002
11831	22.154	5.6364	5.e-002	6.8672e-006
11832	22.431	5.6364	0.	-7.0089e-002
11833	22.339	5.5455	0.	-3.8381e-002
11834	22.339	5.6364	5.e-002	8.1825e-006
11835	22.616	5.6364	0.	-7.5093e-002
11836	22.523	5.5455	0.	-3.9697e-002
11837	22.523	5.6364	5.e-002	1.2114e-005
11838	22.8	5.6364	0.	-7.9926e-002
11839	22.708	5.5455	0.	-4.0468e-002
11840	22.708	5.6364	5.e-002	7.6551e-006
11841	22.985	5.6364	0.	-8.4832e-002
11842	22.893	5.5455	0.	-3.9557e-002
11843	22.893	5.6364	5.e-002	1.0311e-005
11844	23.169	5.6364	0.	-8.5794e-002
11845	23.077	5.5455	0.	-3.7942e-002
11846	23.077	5.6364	5.e-002	6.4632e-006
11847	23.354	5.6364	0.	-9.143e-002
11848	23.262	5.5455	0.	-2.4781e-002
11849	23.262	5.6364	5.e-002	7.6802e-006
11850	23.539	5.6364	0.	-5.1076e-002
11851	23.446	5.5455	0.	-2.8641e-002
11852	23.446	5.6364	5.e-002	1.0276e-005
11853	23.723	5.6364	0.	-0.16335
11854	23.631	5.5455	0.	9.8995e-002
11855	23.631	5.6364	5.e-002	1.1553e-005
11856	23.815	5.5455	0.	-0.15353
11857	23.815	5.6364	5.e-002	1.3113e-005
11858	23.908	5.6364	0.	0.15984
11859	4.3435	5.4545	0.	-7.4452
11860	4.2512	5.3636	0.	-9.7928
11861	4.2512	5.4545	5.e-002	9.6425e-006
11862	4.159	5.4545	0.	2.4249
11863	4.5281	5.4545	0.	-3.4726
11864	4.4358	5.3636	0.	-2.1954
11865	4.4358	5.4545	5.e-002	-2.1691e-005
11866	4.7127	5.4545	0.	-2.8377
11867	4.6204	5.3636	0.	-3.3332
11868	4.6204	5.4545	5.e-002	-3.5247e-005
11869	4.8972	5.4545	0.	-1.7236
11870	4.8049	5.3636	0.	-2.1311
11871	4.8049	5.4545	5.e-002	-5.2731e-005
11872	5.0818	5.4545	0.	-1.1562
11873	4.9895	5.3636	0.	-1.6067
11874	4.9895	5.4545	5.e-002	-5.329e-005
11875	5.2664	5.4545	0.	-0.78621
11876	5.1741	5.3636	0.	-1.1548
11877	5.1741	5.4545	5.e-002	-5.096e-005
11878	5.4509	5.4545	0.	-0.56398
11879	5.3586	5.3636	0.	-0.86826
11880	5.3586	5.4545	5.e-002	-4.7952e-005
11881	5.6355	5.4545	0.	-0.419
11882	5.5432	5.3636	0.	-0.66731
11883	5.5432	5.4545	5.e-002	-5.1292e-005
11884	5.8201	5.4545	0.	-0.32442
11885	5.7278	5.3636	0.	-0.53186
11886	5.7278	5.4545	5.e-002	-5.2958e-005
11887	6.0046	5.4545	0.	-0.26304
11888	5.9123	5.3636	0.	-0.44173
11889	5.9123	5.4545	5.e-002	-5.6034e-005
11890	6.1892	5.4545	0.	-0.22616
11891	6.0969	5.3636	0.	-0.38754
11892	6.0969	5.4545	5.e-002	-6.6311e-005
11893	6.3738	5.4545	0.	-0.21
11894	6.2815	5.3636	0.	-0.36613
11895	6.2815	5.4545	5.e-002	-9.4157e-005
11896	6.5583	5.4545	0.	-0.21668
11897	6.466	5.3636	0.	-0.38548
11898	6.466	5.4545	5.e-002	-1.3919e-004
11899	6.7429	5.4545	0.	-0.26215
11900	6.6506	5.3636	0.	-0.4871
11901	6.6506	5.4545	5.e-002	-1.8821e-004
11902	6.9275	5.4545	0.	-0.431
11903	6.8352	5.3636	0.	-0.93556
11904	6.8352	5.4545	5.e-002	-1.9472e-004
11905	7.112	5.4545	0.	-1.7243
11906	7.0198	5.3636	0.	-4.3045
11907	7.0198	5.4545	5.e-002	-6.4484e-005
11908	7.2966	5.4545	0.	-6.5546
11909	7.2043	5.3636	0.	-10.443
11910	7.2043	5.4545	5.e-002	-4.6419e-005
11911	7.4812	5.4545	0.	-11.009
11912	7.3889	5.3636	0.	-15.519
11913	7.3889	5.4545	5.e-002	-2.6056e-005
11914	7.6657	5.4545	0.	-14.343
11915	7.5735	5.3636	0.	-19.298
11916	7.5735	5.4545	5.e-002	-1.2982e-005
11917	7.8503	5.4545	0.	-16.669
11918	7.758	5.3636	0.	-21.927
11919	7.758	5.4545	5.e-002	-9.178e-006
11920	8.0349	5.4545	0.	-18.143
11921	7.9426	5.3636	0.	-23.585
11922	7.9426	5.4545	5.e-002	-6.9884e-006
11923	8.2194	5.4545	0.	-18.914
11924	8.1272	5.3636	0.	-24.44
11925	8.1272	5.4545	5.e-002	-8.3203e-006
11926	8.404	5.4545	0.	-19.116
11927	8.3117	5.3636	0.	-24.643
11928	8.3117	5.4545	5.e-002	-5.9705e-006
11929	8.5886	5.4545	0.	-18.864
11930	8.4963	5.3636	0.	-24.326
11931	8.4963	5.4545	5.e-002	-5.8513e-006
11932	8.7731	5.4545	0.	-18.258
11933	8.6809	5.3636	0.	-23.603
11934	8.6809	5.4545	5.e-002	-5.4394e-006
11935	8.9577	5.4545	0.	-17.381
11936	8.8654	5.3636	0.	-22.568
11937	8.8654	5.4545	5.e-002	-3.7239e-006
11938	9.1423	5.4545	0.	-16.304
11939	9.05	5.3636	0.	-21.304
11940	9.05	5.4545	5.e-002	-3.4425e-006
11941	9.3269	5.4545	0.	-15.084
11942	9.2346	5.3636	0.	-19.875
11943	9.2346	5.4545	5.e-002	-3.2778e-006
11944	9.5114	5.4545	0.	-13.768
11945	9.4191	5.3636	0.	-18.336
11946	9.4191	5.4545	5.e-002	-2.0108e-006
11947	9.696	5.4545	0.	-12.393
11948	9.6037	5.3636	0.	-16.731
11949	9.6037	5.4545	5.e-002	-1.7789e-006
11950	9.8806	5.4545	0.	-10.99
11951	9.7883	5.3636	0.	-15.095
11952	9.7883	5.4545	5.e-002	-1.5925e-006
11953	10.065	5.4545	0.	-9.5826
11954	9.9728	5.3636	0.	-13.455
11955	9.9728	5.4545	5.e-002	-1.1848e-006
11956	10.25	5.4545	0.	-8.1888
11957	10.157	5.3636	0.	-11.832
11958	10.157	5.4545	5.e-002	-7.9855e-007
11959	10.434	5.4545	0.	-6.8225
11960	10.342	5.3636	0.	-10.244
11961	10.342	5.4545	5.e-002	-1.0383e-007
11962	10.619	5.4545	0.	-5.4937
11963	10.527	5.3636	0.	-8.7
11964	10.527	5.4545	5.e-002	-5.7294e-008
11965	10.803	5.4545	0.	-4.2098
11966	10.711	5.3636	0.	-7.21
11967	10.711	5.4545	5.e-002	1.2293e-006
11968	10.988	5.4545	0.	-2.9756
11969	10.896	5.3636	0.	-5.7795
11970	10.896	5.4545	5.e-002	1.1659e-006
11971	11.173	5.4545	0.	-1.7941
11972	11.08	5.3636	0.	-4.4117
11973	11.08	5.4545	5.e-002	8.7929e-007
11974	11.357	5.4545	0.	-0.66811
11975	11.265	5.3636	0.	-3.1084
11976	11.265	5.4545	5.e-002	1.1298e-006
11977	11.542	5.4545	0.	-3.0914e-003
11978	11.449	5.3636	0.	-1.8704
11979	11.449	5.4545	5.e-002	1.1888e-006
11980	11.726	5.4545	0.	1.0664e-004
11981	11.634	5.3636	0.	-0.70048
11982	11.634	5.4545	5.e-002	1.8643e-006
11983	11.911	5.4545	0.	2.1807e-004
11984	11.819	5.3636	0.	-1.296e-002
11985	11.819	5.4545	5.e-002	2.0952e-006
11986	12.095	5.4545	0.	9.0119e-006
11987	12.003	5.3636	0.	-3.0822e-003
11988	12.003	5.4545	5.e-002	1.1463e-006
11989	12.28	5.4545	0.	-2.7855e-004
11990	12.188	5.3636	0.	-1.7622e-003
11991	12.188	5.4545	5.e-002	1.695e-006
11992	12.465	5.4545	0.	-6.0014e-004
11993	12.372	5.3636	0.	-1.433e-003
11994	12.372	5.4545	5.e-002	1.5957e-006
11995	12.649	5.4545	0.	-9.1782e-004
11996	12.557	5.3636	0.	-1.4284e-003
11997	12.557	5.4545	5.e-002	1.9003e-006
11998	12.834	5.4545	0.	-1.2053e-003
11999	12.741	5.3636	0.	-1.5089e-003
12000	12.741	5.4545	5.e-002	1.8427e-006
12001	13.018	5.4545	0.	-1.4811e-003
12002	12.926	5.3636	0.	-1.6348e-003
12003	12.926	5.4545	5.e-002	1.6645e-006
12004	13.203	5.4545	0.	-1.7509e-003
12005	13.11	5.3636	0.	-1.7938e-003
12006	13.11	5.4545	5.e-002	1.7227e-006
12007	13.387	5.4545	0.	-2.0074e-003
12008	13.295	5.3636	0.	-1.9703e-003
12009	13.295	5.4545	5.e-002	2.9277e-006
12010	13.572	5.4545	0.	-2.2333e-003
12011	13.48	5.3636	0.	-2.1433e-003
12012	13.48	5.4545	5.e-002	3.2987e-006
12013	13.756	5.4545	0.	-2.4454e-003
12014	13.664	5.3636	0.	-2.2871e-003
12015	13.664	5.4545	5.e-002	3.7676e-006
12016	13.941	5.4545	0.	-2.6625e-003
12017	13.849	5.3636	0.	-2.4531e-003
12018	13.849	5.4545	5.e-002	2.6907e-006
12019	14.126	5.4545	0.	-2.8605e-003
12020	14.033	5.3636	0.	-2.6215e-003
12021	14.033	5.4545	5.e-002	3.6705e-006
12022	14.31	5.4545	0.	-3.0414e-003
12023	14.218	5.3636	0.	-2.7615e-003
12024	14.218	5.4545	5.e-002	3.9084e-006
12025	14.495	5.4545	0.	-3.2296e-003
12026	14.402	5.3636	0.	-2.9041e-003
12027	14.402	5.4545	5.e-002	4.6236e-006
12028	14.679	5.4545	0.	-3.4086e-003
12029	14.587	5.3636	0.	-3.0647e-003
12030	14.587	5.4545	5.e-002	4.5925e-006
12031	14.864	5.4545	0.	-3.5667e-003
12032	14.772	5.3636	0.	-3.1966e-003
12033	14.772	5.4545	5.e-002	4.5539e-006
12034	15.048	5.4545	0.	-3.721e-003
12035	14.956	5.3636	0.	-3.3179e-003
12036	14.956	5.4545	5.e-002	4.8826e-006
12037	15.233	5.4545	0.	-3.8782e-003
12038	15.141	5.3636	0.	-3.4449e-003
12039	15.141	5.4545	5.e-002	4.6185e-006
12040	15.418	5.4545	0.	-4.0328e-003
12041	15.325	5.3636	0.	-3.575e-003
12042	15.325	5.4545	5.e-002	6.3316e-006
12043	15.602	5.4545	0.	-4.1718e-003
12044	15.51	5.3636	0.	-3.6978e-003
12045	15.51	5.4545	5.e-002	4.9314e-006
12046	15.787	5.4545	0.	-4.3081e-003
12047	15.694	5.3636	0.	-3.7979e-003
12048	15.694	5.4545	5.e-002	5.4359e-006
12049	15.971	5.4545	0.	-4.4567e-003
12050	15.879	5.3636	0.	-3.9162e-003
12051	15.879	5.4545	5.e-002	4.5899e-006
12052	16.156	5.4545	0.	-4.5995e-003
12053	16.064	5.3636	0.	-4.0407e-003
12054	16.064	5.4545	5.e-002	5.3388e-006
12055	16.34	5.4545	0.	-4.7371e-003
12056	16.248	5.3636	0.	-4.1463e-003
12057	16.248	5.4545	5.e-002	5.1566e-006
12058	16.525	5.4545	0.	-4.8898e-003
12059	16.433	5.3636	0.	-4.2595e-003
12060	16.433	5.4545	5.e-002	5.2277e-006
12061	16.71	5.4545	0.	-5.0439e-003
12062	16.617	5.3636	0.	-4.3915e-003
12063	16.617	5.4545	5.e-002	5.3546e-006
12064	16.894	5.4545	0.	-5.1904e-003
12065	16.802	5.3636	0.	-4.506e-003
12066	16.802	5.4545	5.e-002	5.4833e-006
12067	17.079	5.4545	0.	-5.3411e-003
12068	16.986	5.3636	0.	-4.6213e-003
12069	16.986	5.4545	5.e-002	5.3e-006
12070	17.263	5.4545	0.	-5.4977e-003
12071	17.171	5.3636	0.	-4.7389e-003
12072	17.171	5.4545	5.e-002	5.8767e-006
12073	17.448	5.4545	0.	-5.6694e-003
12074	17.356	5.3636	0.	-4.8623e-003
12075	17.356	5.4545	5.e-002	3.9911e-006
12076	17.632	5.4545	0.	-5.8479e-003
12077	17.54	5.3636	0.	-5.0066e-003
12078	17.54	5.4545	5.e-002	4.5581e-006
12079	17.817	5.4545	0.	-6.0246e-003
12080	17.725	5.3636	0.	-5.139e-003
12081	17.725	5.4545	5.e-002	6.5209e-006
12082	18.002	5.4545	0.	-6.212e-003
12083	17.909	5.3636	0.	-5.2729e-003
12084	17.909	5.4545	5.e-002	5.0506e-006
12085	18.186	5.4545	0.	-6.4144e-003
12086	18.094	5.3636	0.	-5.418e-003
12087	18.094	5.4545	5.e-002	8.0435e-006
12088	18.371	5.4545	0.	-6.6286e-003
12089	18.278	5.3636	0.	-5.5742e-003
12090	18.278	5.4545	5.e-002	6.062e-006
12091	18.555	5.4545	0.	-6.8466e-003
12092	18.463	5.3636	0.	-5.7337e-003
12093	18.463	5.4545	5.e-002	5.3907e-006
12094	18.74	5.4545	0.	-7.0778e-003
12095	18.648	5.3636	0.	-5.8874e-003
12096	18.648	5.4545	5.e-002	7.2859e-006
12097	18.924	5.4545	0.	-7.3309e-003
12098	18.832	5.3636	0.	-6.0599e-003
12099	18.832	5.4545	5.e-002	6.5297e-006
12100	19.109	5.4545	0.	-7.5947e-003
12101	19.017	5.3636	0.	-6.245e-003
12102	19.017	5.4545	5.e-002	6.239e-006
12103	19.294	5.4545	0.	-7.8718e-003
12104	19.201	5.3636	0.	-6.4249e-003
12105	19.201	5.4545	5.e-002	8.3184e-006
12106	19.478	5.4545	0.	-8.1718e-003
12107	19.386	5.3636	0.	-6.6179e-003
12108	19.386	5.4545	5.e-002	6.7645e-006
12109	19.663	5.4545	0.	-8.4865e-003
12110	19.57	5.3636	0.	-6.8247e-003
12111	19.57	5.4545	5.e-002	7.5768e-006
12112	19.847	5.4545	0.	-8.8119e-003
12113	19.755	5.3636	0.	-7.0242e-003
12114	19.755	5.4545	5.e-002	7.5382e-006
12115	20.032	5.4545	0.	-9.1549e-003
12116	19.94	5.3636	0.	-7.225e-003
12117	19.94	5.4545	5.e-002	7.3768e-006
12118	20.216	5.4545	0.	-9.5149e-003
12119	20.124	5.3636	0.	-7.4289e-003
12120	20.124	5.4545	5.e-002	5.0205e-006
12121	20.401	5.4545	0.	-9.8849e-003
12122	20.309	5.3636	0.	-7.6307e-003
12123	20.309	5.4545	5.e-002	7.9292e-006
12124	20.585	5.4545	0.	-1.0259e-002
12125	20.493	5.3636	0.	-7.8171e-003
12126	20.493	5.4545	5.e-002	1.0287e-005
12127	20.77	5.4545	0.	-1.0635e-002
12128	20.678	5.3636	0.	-7.9778e-003
12129	20.678	5.4545	5.e-002	8.6469e-006
12130	20.955	5.4545	0.	-1.1009e-002
12131	20.862	5.3636	0.	-8.1112e-003
12132	20.862	5.4545	5.e-002	9.691e-006
12133	21.139	5.4545	0.	-1.1361e-002
12134	21.047	5.3636	0.	-8.205e-003
12135	21.047	5.4545	5.e-002	9.5172e-006
12136	21.324	5.4545	0.	-1.167e-002
12137	21.231	5.3636	0.	-8.2173e-003
12138	21.231	5.4545	5.e-002	1.0295e-005
12139	21.508	5.4545	0.	-1.1916e-002
12140	21.416	5.3636	0.	-8.1325e-003
12141	21.416	5.4545	5.e-002	1.2771e-005
12142	21.693	5.4545	0.	-1.2051e-002
12143	21.601	5.3636	0.	-7.9058e-003
12144	21.601	5.4545	5.e-002	1.0108e-005
12145	21.877	5.4545	0.	-1.201e-002
12146	21.785	5.3636	0.	-7.4643e-003
12147	21.785	5.4545	5.e-002	8.0917e-006
12148	22.062	5.4545	0.	-1.1701e-002
12149	21.97	5.3636	0.	-6.7205e-003
12150	21.97	5.4545	5.e-002	7.116e-006
12151	22.247	5.4545	0.	-1.0984e-002
12152	22.154	5.3636	0.	-5.5392e-003
12153	22.154	5.4545	5.e-002	5.3657e-006
12154	22.431	5.4545	0.	-9.62e-003
12155	22.339	5.3636	0.	-3.7242e-003
12156	22.339	5.4545	5.e-002	5.9595e-006
12157	22.616	5.4545	0.	-7.2946e-003
12158	22.523	5.3636	0.	-9.2418e-004
12159	22.523	5.4545	5.e-002	1.1204e-005
12160	22.8	5.4545	0.	-3.1827e-003
12161	22.708	5.3636	0.	3.2228e-003
12162	22.708	5.4545	5.e-002	4.079e-006
12163	22.985	5.4545	0.	2.9388e-003
12164	22.893	5.3636	0.	1.0146e-002
12165	22.893	5.4545	5.e-002	6.9205e-006
12166	23.169	5.4545	0.	1.6535e-002
12167	23.077	5.3636	0.	1.9011e-002
12168	23.077	5.4545	5.e-002	5.2017e-006
12169	23.354	5.4545	0.	2.7489e-002
12170	23.262	5.3636	0.	4.2049e-002
12171	23.262	5.4545	5.e-002	7.4248e-006
12172	23.539	5.4545	0.	0.10134
12173	23.446	5.3636	0.	4.8438e-002
12174	23.446	5.4545	5.e-002	1.0133e-005
12175	23.723	5.4545	0.	4.7219e-002
12176	23.631	5.3636	0.	0.20425
12177	23.631	5.4545	5.e-002	1.2155e-005
12178	23.815	5.3636	0.	-4.9027e-003
12179	23.815	5.4545	5.e-002	1.6376e-005
12180	23.908	5.4545	0.	0.35396
12181	4.3435	5.2727	0.	-5.8764
12182	4.2512	5.1818	0.	-9.3147
12183	4.2512	5.2727	5.e-002	-1.7136e-014
12184	4.159	5.2727	0.	2.368
12185	4.5281	5.2727	0.	-2.4581
12186	4.4358	5.1818	0.	-1.2528
12187	4.4358	5.2727	5.e-002	-3.3362e-005
12188	4.7127	5.2727	0.	-2.7214
12189	4.6204	5.1818	0.	-3.1437
12190	4.6204	5.2727	5.e-002	-5.9544e-005
12191	4.8972	5.2727	0.	-2.0051
12192	4.8049	5.1818	0.	-2.2851
12193	4.8049	5.2727	5.e-002	-7.9776e-005
12194	5.0818	5.2727	0.	-1.5894
12195	4.9895	5.1818	0.	-1.9796
12196	4.9895	5.2727	5.e-002	-8.9813e-005
12197	5.2664	5.2727	0.	-1.2369
12198	5.1741	5.1818	0.	-1.6005
12199	5.1741	5.2727	5.e-002	-9.6492e-005
12200	5.4509	5.2727	0.	-0.98703
12201	5.3586	5.1818	0.	-1.3315
12202	5.3586	5.2727	5.e-002	-1.0014e-004
12203	5.6355	5.2727	0.	-0.80679
12204	5.5432	5.1818	0.	-1.1261
12205	5.5432	5.2727	5.e-002	-9.5099e-005
12206	5.8201	5.2727	0.	-0.68413
12207	5.7278	5.1818	0.	-0.9879
12208	5.7278	5.2727	5.e-002	-1.1766e-004
12209	6.0046	5.2727	0.	-0.60907
12210	5.9123	5.1818	0.	-0.91155
12211	5.9123	5.2727	5.e-002	-1.3783e-004
12212	6.1892	5.2727	0.	-0.58122
12213	6.0969	5.1818	0.	-0.90834
12214	6.0969	5.2727	5.e-002	-1.4746e-004
12215	6.3738	5.2727	0.	-0.61684
12216	6.2815	5.1818	0.	-1.0283
12217	6.2815	5.2727	5.e-002	-1.7292e-004
12218	6.5583	5.2727	0.	-0.79248
12219	6.466	5.1818	0.	-1.5085
12220	6.466	5.2727	5.e-002	-1.9062e-004
12221	6.7429	5.2727	0.	-1.619
12222	6.6506	5.1818	0.	-4.133
12223	6.6506	5.2727	5.e-002	-1.7715e-004
12224	6.9275	5.2727	0.	-6.4827
12225	6.8352	5.1818	0.	-11.938
12226	6.8352	5.2727	5.e-002	-1.732e-004
12227	7.112	5.2727	0.	-13.594
12228	7.0198	5.1818	0.	-19.75
12229	7.0198	5.2727	5.e-002	-6.9998e-005
12230	7.2966	5.2727	0.	-19.427
12231	7.2043	5.1818	0.	-25.933
12232	7.2043	5.2727	5.e-002	-6.0815e-005
12233	7.4812	5.2727	0.	-23.798
12234	7.3889	5.1818	0.	-30.511
12235	7.3889	5.2727	5.e-002	-2.8505e-005
12236	7.6657	5.2727	0.	-26.865
12237	7.5735	5.1818	0.	-33.679
12238	7.5735	5.2727	5.e-002	-1.4536e-005
12239	7.8503	5.2727	0.	-28.826
12240	7.758	5.1818	0.	-35.649
12241	7.758	5.2727	5.e-002	-1.7387e-005
12242	8.0349	5.2727	0.	-29.865
12243	7.9426	5.1818	0.	-36.624
12244	7.9426	5.2727	5.e-002	-1.0282e-005
12245	8.2194	5.2727	0.	-30.153
12246	8.1272	5.1818	0.	-36.787
12247	8.1272	5.2727	5.e-002	-6.0714e-006
12248	8.404	5.2727	0.	-29.838
12249	8.3117	5.1818	0.	-36.297
12250	8.3117	5.2727	5.e-002	-8.061e-006
12251	8.5886	5.2727	0.	-29.05
12252	8.4963	5.1818	0.	-35.297
12253	8.4963	5.2727	5.e-002	-5.8242e-006
12254	8.7731	5.2727	0.	-27.898
12255	8.6809	5.1818	0.	-33.904
12256	8.6809	5.2727	5.e-002	-4.5149e-006
12257	8.9577	5.2727	0.	-26.476
12258	8.8654	5.1818	0.	-32.221
12259	8.8654	5.2727	5.e-002	-4.6343e-006
12260	9.1423	5.2727	0.	-24.859
12261	9.05	5.1818	0.	-30.33
12262	9.05	5.2727	5.e-002	-2.8823e-006
12263	9.3269	5.2727	0.	-23.112
12264	9.2346	5.1818	0.	-28.302
12265	9.2346	5.2727	5.e-002	-3.0764e-006
12266	9.5114	5.2727	0.	-21.284
12267	9.4191	5.1818	0.	-26.192
12268	9.4191	5.2727	5.e-002	-3.3325e-006
12269	9.696	5.2727	0.	-19.417
12270	9.6037	5.1818	0.	-24.044
12271	9.6037	5.2727	5.e-002	-1.3489e-006
12272	9.8806	5.2727	0.	-17.544
12273	9.7883	5.1818	0.	-21.895
12274	9.7883	5.2727	5.e-002	-1.8104e-006
12275	10.065	5.2727	0.	-15.688
12276	9.9728	5.1818	0.	-19.772
12277	9.9728	5.2727	5.e-002	-1.8331e-006
12278	10.25	5.2727	0.	-13.87
12279	10.157	5.1818	0.	-17.696
12280	10.157	5.2727	5.e-002	-1.2306e-006
12281	10.434	5.2727	0.	-12.104
12282	10.342	5.1818	0.	-15.681
12283	10.342	5.2727	5.e-002	-5.244e-007
12284	10.619	5.2727	0.	-10.398
12285	10.527	5.1818	0.	-13.74
12286	10.527	5.2727	5.e-002	-4.2399e-007
12287	10.803	5.2727	0.	-8.7611
12288	10.711	5.1818	0.	-11.878
12289	10.711	5.2727	5.e-002	1.1653e-006
12290	10.988	5.2727	0.	-7.1965
12291	10.896	5.1818	0.	-10.102
12292	10.896	5.2727	5.e-002	8.1706e-007
12293	11.173	5.2727	0.	-5.7063
12294	11.08	5.1818	0.	-8.4125
12295	11.08	5.2727	5.e-002	6.2326e-007
12296	11.357	5.2727	0.	-4.2913
12297	11.265	5.1818	0.	-6.8101
12298	11.265	5.2727	5.e-002	7.1377e-007
12299	11.542	5.2727	0.	-2.9508
12300	11.449	5.1818	0.	-5.2939
12301	11.449	5.2727	5.e-002	1.2134e-006
12302	11.726	5.2727	0.	-1.6843
12303	11.634	5.1818	0.	-3.8621
12304	11.634	5.2727	5.e-002	1.5201e-006
12305	11.911	5.2727	0.	-0.49983
12306	11.819	5.1818	0.	-2.5122
12307	11.819	5.2727	5.e-002	1.7131e-006
12308	12.095	5.2727	0.	-1.4318e-002
12309	12.003	5.1818	0.	-1.2437
12310	12.003	5.2727	5.e-002	1.0185e-006
12311	12.28	5.2727	0.	-4.9558e-003
12312	12.188	5.1818	0.	-0.13573
12313	12.188	5.2727	5.e-002	1.4716e-006
12314	12.465	5.2727	0.	-3.0619e-003
12315	12.372	5.1818	0.	-1.1572e-002
12316	12.372	5.2727	5.e-002	1.3627e-006
12317	12.649	5.2727	0.	-2.4004e-003
12318	12.557	5.1818	0.	-5.5876e-003
12319	12.557	5.2727	5.e-002	1.4112e-006
12320	12.834	5.2727	0.	-2.1324e-003
12321	12.741	5.1818	0.	-3.7534e-003
12322	12.741	5.2727	5.e-002	1.4365e-006
12323	13.018	5.2727	0.	-2.0453e-003
12324	12.926	5.1818	0.	-2.9384e-003
12325	12.926	5.2727	5.e-002	1.2254e-006
12326	13.203	5.2727	0.	-2.0571e-003
12327	13.11	5.1818	0.	-2.5312e-003
12328	13.11	5.2727	5.e-002	1.5406e-006
12329	13.387	5.2727	0.	-2.1183e-003
12330	13.295	5.1818	0.	-2.3242e-003
12331	13.295	5.2727	5.e-002	2.3725e-006
12332	13.572	5.2727	0.	-2.1899e-003
12333	13.48	5.1818	0.	-2.2138e-003
12334	13.48	5.2727	5.e-002	3.0735e-006
12335	13.756	5.2727	0.	-2.276e-003
12336	13.664	5.1818	0.	-2.1377e-003
12337	13.664	5.2727	5.e-002	3.3628e-006
12338	13.941	5.2727	0.	-2.3863e-003
12339	13.849	5.1818	0.	-2.1244e-003
12340	13.849	5.2727	5.e-002	2.5776e-006
12341	14.126	5.2727	0.	-2.4927e-003
12342	14.033	5.1818	0.	-2.142e-003
12343	14.033	5.2727	5.e-002	3.7845e-006
12344	14.31	5.2727	0.	-2.5925e-003
12345	14.218	5.1818	0.	-2.1514e-003
12346	14.218	5.2727	5.e-002	4.0573e-006
12347	14.495	5.2727	0.	-2.7071e-003
12348	14.402	5.1818	0.	-2.1788e-003
12349	14.402	5.2727	5.e-002	4.6153e-006
12350	14.679	5.2727	0.	-2.8209e-003
12351	14.587	5.1818	0.	-2.2343e-003
12352	14.587	5.2727	5.e-002	4.743e-006
12353	14.864	5.2727	0.	-2.9171e-003
12354	14.772	5.1818	0.	-2.2718e-003
12355	14.772	5.2727	5.e-002	4.3742e-006
12356	15.048	5.2727	0.	-3.0126e-003
12357	14.956	5.1818	0.	-2.3039e-003
12358	14.956	5.2727	5.e-002	4.4191e-006
12359	15.233	5.2727	0.	-3.1144e-003
12360	15.141	5.1818	0.	-2.3465e-003
12361	15.141	5.2727	5.e-002	4.1053e-006
12362	15.418	5.2727	0.	-3.2149e-003
12363	15.325	5.1818	0.	-2.3962e-003
12364	15.325	5.2727	5.e-002	5.8108e-006
12365	15.602	5.2727	0.	-3.3012e-003
12366	15.51	5.1818	0.	-2.4407e-003
12367	15.51	5.2727	5.e-002	4.4228e-006
12368	15.787	5.2727	0.	-3.3858e-003
12369	15.694	5.1818	0.	-2.4645e-003
12370	15.694	5.2727	5.e-002	4.8896e-006
12371	15.971	5.2727	0.	-3.4827e-003
12372	15.879	5.1818	0.	-2.5072e-003
12373	15.879	5.2727	5.e-002	3.9914e-006
12374	16.156	5.2727	0.	-3.573e-003
12375	16.064	5.1818	0.	-2.5561e-003
12376	16.064	5.2727	5.e-002	4.9329e-006
12377	16.34	5.2727	0.	-3.6571e-003
12378	16.248	5.1818	0.	-2.5865e-003
12379	16.248	5.2727	5.e-002	5.0989e-006
12380	16.525	5.2727	0.	-3.7528e-003
12381	16.433	5.1818	0.	-2.622e-003
12382	16.433	5.2727	5.e-002	5.0995e-006
12383	16.71	5.2727	0.	-3.8488e-003
12384	16.617	5.1818	0.	-2.6736e-003
12385	16.617	5.2727	5.e-002	5.5188e-006
12386	16.894	5.2727	0.	-3.9358e-003
12387	16.802	5.1818	0.	-2.7065e-003
12388	16.802	5.2727	5.e-002	5.9275e-006
12389	17.079	5.2727	0.	-4.022e-003
12390	16.986	5.1818	0.	-2.737e-003
12391	16.986	5.2727	5.e-002	5.3152e-006
12392	17.263	5.2727	0.	-4.1108e-003
12393	17.171	5.1818	0.	-2.7652e-003
12394	17.171	5.2727	5.e-002	6.0236e-006
12395	17.448	5.2727	0.	-4.2116e-003
12396	17.356	5.1818	0.	-2.7957e-003
12397	17.356	5.2727	5.e-002	3.3246e-006
12398	17.632	5.2727	0.	-4.3151e-003
12399	17.54	5.1818	0.	-2.8406e-003
12400	17.54	5.2727	5.e-002	3.5556e-006
12401	17.817	5.2727	0.	-4.4106e-003
12402	17.725	5.1818	0.	-2.868e-003
12403	17.725	5.2727	5.e-002	5.9825e-006
12404	18.002	5.2727	0.	-4.5086e-003
12405	17.909	5.1818	0.	-2.89e-003
12406	17.909	5.2727	5.e-002	4.5957e-006
12407	18.186	5.2727	0.	-4.6148e-003
12408	18.094	5.1818	0.	-2.9157e-003
12409	18.094	5.2727	5.e-002	7.532e-006
12410	18.371	5.2727	0.	-4.7245e-003
12411	18.278	5.1818	0.	-2.9445e-003
12412	18.278	5.2727	5.e-002	5.9564e-006
12413	18.555	5.2727	0.	-4.8288e-003
12414	18.463	5.1818	0.	-2.965e-003
12415	18.463	5.2727	5.e-002	5.3078e-006
12416	18.74	5.2727	0.	-4.9341e-003
12417	18.648	5.1818	0.	-2.9701e-003
12418	18.648	5.2727	5.e-002	6.5615e-006
12419	18.924	5.2727	0.	-5.0504e-003
12420	18.832	5.1818	0.	-2.9802e-003
12421	18.832	5.2727	5.e-002	6.4976e-006
12422	19.109	5.2727	0.	-5.165e-003
12423	19.017	5.1818	0.	-2.9919e-003
12424	19.017	5.2727	5.e-002	5.8627e-006
12425	19.294	5.2727	0.	-5.2759e-003
12426	19.201	5.1818	0.	-2.982e-003
12427	19.201	5.2727	5.e-002	8.3805e-006
12428	19.478	5.2727	0.	-5.3931e-003
12429	19.386	5.1818	0.	-2.9653e-003
12430	19.386	5.2727	5.e-002	6.6506e-006
12431	19.663	5.2727	0.	-5.5046e-003
12432	19.57	5.1818	0.	-2.9467e-003
12433	19.57	5.2727	5.e-002	7.2176e-006
12434	19.847	5.2727	0.	-5.6025e-003
12435	19.755	5.1818	0.	-2.896e-003
12436	19.755	5.2727	5.e-002	7.5774e-006
12437	20.032	5.2727	0.	-5.6906e-003
12438	19.94	5.1818	0.	-2.8221e-003
12439	19.94	5.2727	5.e-002	7.5466e-006
12440	20.216	5.2727	0.	-5.7668e-003
12441	20.124	5.1818	0.	-2.724e-003
12442	20.124	5.2727	5.e-002	5.5379e-006
12443	20.401	5.2727	0.	-5.8205e-003
12444	20.309	5.1818	0.	-2.5915e-003
12445	20.309	5.2727	5.e-002	8.4545e-006
12446	20.585	5.2727	0.	-5.8348e-003
12447	20.493	5.1818	0.	-2.4088e-003
12448	20.493	5.2727	5.e-002	1.0752e-005
12449	20.77	5.2727	0.	-5.8017e-003
12450	20.678	5.1818	0.	-2.1569e-003
12451	20.678	5.2727	5.e-002	8.2689e-006
12452	20.955	5.2727	0.	-5.712e-003
12453	20.862	5.1818	0.	-1.831e-003
12454	20.862	5.2727	5.e-002	1.0082e-005
12455	21.139	5.2727	0.	-5.5339e-003
12456	21.047	5.1818	0.	-1.4082e-003
12457	21.047	5.2727	5.e-002	1.0077e-005
12458	21.324	5.2727	0.	-5.2331e-003
12459	21.231	5.1818	0.	-8.4144e-004
12460	21.231	5.2727	5.e-002	9.3022e-006
12461	21.508	5.2727	0.	-4.7731e-003
12462	21.416	5.1818	0.	-1.0002e-004
12463	21.416	5.2727	5.e-002	1.3121e-005
12464	21.693	5.2727	0.	-4.0893e-003
12465	21.601	5.1818	0.	8.709e-004
12466	21.601	5.2727	5.e-002	1.0049e-005
12467	21.877	5.2727	0.	-3.0921e-003
12468	21.785	5.1818	0.	2.1628e-003
12469	21.785	5.2727	5.e-002	7.7666e-006
12470	22.062	5.2727	0.	-1.6595e-003
12471	21.97	5.1818	0.	3.8818e-003
12472	21.97	5.2727	5.e-002	7.665e-006
12473	22.247	5.2727	0.	3.8489e-004
12474	22.154	5.1818	0.	6.1836e-003
12475	22.154	5.2727	5.e-002	4.3203e-006
12476	22.431	5.2727	0.	3.328e-003
12477	22.339	5.1818	0.	9.297e-003
12478	22.339	5.2727	5.e-002	5.3229e-006
12479	22.616	5.2727	0.	7.5344e-003
12480	22.523	5.1818	0.	1.3602e-002
12481	22.523	5.2727	5.e-002	1.095e-005
12482	22.8	5.2727	0.	1.3907e-002
12483	22.708	5.1818	0.	1.9494e-002
12484	22.708	5.2727	5.e-002	3.485e-006
12485	22.985	5.2727	0.	2.2689e-002
12486	22.893	5.1818	0.	2.8466e-002
12487	22.893	5.2727	5.e-002	6.8097e-006
12488	23.169	5.2727	0.	3.9506e-002
12489	23.077	5.1818	0.	3.9667e-002
12490	23.077	5.2727	5.e-002	5.2805e-006
12491	23.354	5.2727	0.	5.494e-002
12492	23.262	5.1818	0.	6.5627e-002
12493	23.262	5.2727	5.e-002	1.0581e-005
12494	23.539	5.2727	0.	0.13461
12495	23.446	5.1818	0.	7.6021e-002
12496	23.446	5.2727	5.e-002	1.1892e-005
12497	23.723	5.2727	0.	8.9987e-002
12498	23.631	5.1818	0.	0.23919
12499	23.631	5.2727	5.e-002	1.1897e-005
12500	23.815	5.1818	0.	4.7069e-002
12501	23.815	5.2727	5.e-002	1.5366e-005
12502	23.908	5.2727	0.	0.36666
12503	4.3435	5.0909	0.	-5.4936
12504	4.2512	5.	0.	-10.573
12505	4.2512	5.0909	5.e-002	-9.5823e-006
12506	4.159	5.0909	0.	2.775
12507	4.5281	5.0909	0.	-2.1258
12508	4.4358	5.	0.	-0.78322
12509	4.4358	5.0909	5.e-002	-7.9905e-005
12510	4.7127	5.0909	0.	-2.778
12511	4.6204	5.	0.	-3.4028
12512	4.6204	5.0909	5.e-002	-1.0733e-004
12513	4.8972	5.0909	0.	-2.2738
12514	4.8049	5.	0.	-2.5152
12515	4.8049	5.0909	5.e-002	-1.5319e-004
12516	5.0818	5.0909	0.	-1.9924
12517	4.9895	5.	0.	-2.3762
12518	4.9895	5.0909	5.e-002	-1.4979e-004
12519	5.2664	5.0909	0.	-1.7084
12520	5.1741	5.	0.	-2.0989
12521	5.1741	5.0909	5.e-002	-1.6932e-004
12522	5.4509	5.0909	0.	-1.5047
12523	5.3586	5.	0.	-1.9386
12524	5.3586	5.0909	5.e-002	-1.5923e-004
12525	5.6355	5.0909	0.	-1.366
12526	5.5432	5.	0.	-1.8521
12527	5.5432	5.0909	5.e-002	-1.6156e-004
12528	5.8201	5.0909	0.	-1.3056
12529	5.7278	5.	0.	-1.8803
12530	5.7278	5.0909	5.e-002	-1.8403e-004
12531	6.0046	5.0909	0.	-1.3529
12532	5.9123	5.	0.	-2.1139
12533	5.9123	5.0909	5.e-002	-1.8925e-004
12534	6.1892	5.0909	0.	-1.6195
12535	6.0969	5.	0.	-2.9144
12536	6.0969	5.0909	5.e-002	-2.4987e-004
12537	6.3738	5.0909	0.	-2.6543
12538	6.2815	5.	0.	-6.2488
12539	6.2815	5.0909	5.e-002	-2.5633e-004
12540	6.5583	5.0909	0.	-7.6349
12541	6.466	5.	0.	-15.754
12542	6.466	5.0909	5.e-002	-1.8358e-004
12543	6.7429	5.0909	0.	-17.003
12544	6.6506	5.	0.	-26.278
12545	6.6506	5.0909	5.e-002	-2.0469e-004
12546	6.9275	5.0909	0.	-25.471
12547	6.8352	5.	0.	-34.931
12548	6.8352	5.0909	5.e-002	-1.4989e-004
12549	7.112	5.0909	0.	-32.111
12550	7.0198	5.	0.	-41.535
12551	7.0198	5.0909	5.e-002	-1.0137e-004
12552	7.2966	5.0909	0.	-37.007
12553	7.2043	5.	0.	-46.29
12554	7.2043	5.0909	5.e-002	-4.2449e-005
12555	7.4812	5.0909	0.	-40.376
12556	7.3889	5.	0.	-49.445
12557	7.3889	5.0909	5.e-002	-3.5895e-005
12558	7.6657	5.0909	0.	-42.445
12559	7.5735	5.	0.	-51.249
12560	7.5735	5.0909	5.e-002	-1.2292e-005
12561	7.8503	5.0909	0.	-43.431
12562	7.758	5.	0.	-51.931
12563	7.758	5.0909	5.e-002	-1.2857e-005
12564	8.0349	5.0909	0.	-43.529
12565	7.9426	5.	0.	-51.697
12566	7.9426	5.0909	5.e-002	-1.3043e-005
12567	8.2194	5.0909	0.	-42.915
12568	8.1272	5.	0.	-50.73
12569	8.1272	5.0909	5.e-002	-1.3272e-005
12570	8.404	5.0909	0.	-41.741
12571	8.3117	5.	0.	-49.188
12572	8.3117	5.0909	5.e-002	-7.8544e-006
12573	8.5886	5.0909	0.	-40.136
12574	8.4963	5.	0.	-47.21
12575	8.4963	5.0909	5.e-002	-5.3428e-006
12576	8.7731	5.0909	0.	-38.212
12577	8.6809	5.	0.	-44.909
12578	8.6809	5.0909	5.e-002	-6.7608e-006
12579	8.9577	5.0909	0.	-36.061
12580	8.8654	5.	0.	-42.384
12581	8.8654	5.0909	5.e-002	-5.7603e-006
12582	9.1423	5.0909	0.	-33.759
12583	9.05	5.	0.	-39.713
12584	9.05	5.0909	5.e-002	-3.9417e-006
12585	9.3269	5.0909	0.	-31.367
12586	9.2346	5.	0.	-36.962
12587	9.2346	5.0909	5.e-002	-2.9877e-006
12588	9.5114	5.0909	0.	-28.937
12589	9.4191	5.	0.	-34.184
12590	9.4191	5.0909	5.e-002	-2.497e-006
12591	9.696	5.0909	0.	-26.507
12592	9.6037	5.	0.	-31.419
12593	9.6037	5.0909	5.e-002	-1.9268e-006
12594	9.8806	5.0909	0.	-24.108
12595	9.7883	5.	0.	-28.699
12596	9.7883	5.0909	5.e-002	-2.112e-006
12597	10.065	5.0909	0.	-21.763
12598	9.9728	5.	0.	-26.049
12599	9.9728	5.0909	5.e-002	-1.5156e-006
12600	10.25	5.0909	0.	-19.49
12601	10.157	5.	0.	-23.486
12602	10.157	5.0909	5.e-002	-1.2062e-006
12603	10.434	5.0909	0.	-17.3
12604	10.342	5.	0.	-21.023
12605	10.342	5.0909	5.e-002	-9.038e-007
12606	10.619	5.0909	0.	-15.203
12607	10.527	5.	0.	-18.667
12608	10.527	5.0909	5.e-002	-7.8355e-007
12609	10.803	5.0909	0.	-13.202
12610	10.711	5.	0.	-16.423
12611	10.711	5.0909	5.e-002	4.9532e-007
12612	10.988	5.0909	0.	-11.3
12613	10.896	5.	0.	-14.295
12614	10.896	5.0909	5.e-002	4.1026e-007
12615	11.173	5.0909	0.	-9.4974
12616	11.08	5.	0.	-12.28
12617	11.08	5.0909	5.e-002	2.261e-007
12618	11.357	5.0909	0.	-7.7934
12619	11.265	5.	0.	-10.378
12620	11.265	5.0909	5.e-002	2.2775e-007
12621	11.542	5.0909	0.	-6.1855
12622	11.449	5.	0.	-8.5855
12623	11.449	5.0909	5.e-002	7.8923e-007
12624	11.726	5.0909	0.	-4.6704
12625	11.634	5.	0.	-6.8988
12626	11.634	5.0909	5.e-002	9.6003e-007
12627	11.911	5.0909	0.	-3.2447
12628	11.819	5.	0.	-5.3131
12629	11.819	5.0909	5.e-002	1.2004e-006
12630	12.095	5.0909	0.	-1.9053
12631	12.003	5.	0.	-3.8238
12632	12.003	5.0909	5.e-002	5.5441e-007
12633	12.28	5.0909	0.	-0.6588
12634	12.188	5.	0.	-2.4266
12635	12.188	5.0909	5.e-002	1.1781e-006
12636	12.465	5.0909	0.	-2.7828e-002
12637	12.372	5.	0.	-1.1207
12638	12.372	5.0909	5.e-002	6.4502e-007
12639	12.649	5.0909	0.	-8.8757e-003
12640	12.557	5.	0.	-8.6258e-002
12641	12.557	5.0909	5.e-002	1.0453e-006
12642	12.834	5.0909	0.	-5.148e-003
12643	12.741	5.	0.	-1.3041e-002
12644	12.741	5.0909	5.e-002	9.8171e-007
12645	13.018	5.0909	0.	-3.6445e-003
12646	12.926	5.	0.	-6.4968e-003
12647	12.926	5.0909	5.e-002	6.2312e-007
12648	13.203	5.0909	0.	-2.8799e-003
12649	13.11	5.	0.	-4.2136e-003
12650	13.11	5.0909	5.e-002	8.1661e-007
12651	13.387	5.0909	0.	-2.4402e-003
12652	13.295	5.	0.	-3.0966e-003
12653	13.295	5.0909	5.e-002	1.8581e-006
12654	13.572	5.0909	0.	-2.153e-003
12655	13.48	5.	0.	-2.4467e-003
12656	13.48	5.0909	5.e-002	2.5611e-006
12657	13.756	5.0909	0.	-1.9635e-003
12658	13.664	5.	0.	-2.0079e-003
12659	13.664	5.0909	5.e-002	2.9881e-006
12660	13.941	5.0909	0.	-1.8511e-003
12661	13.849	5.	0.	-1.7282e-003
12662	13.849	5.0909	5.e-002	2.1034e-006
12663	14.126	5.0909	0.	-1.7694e-003
12664	14.033	5.	0.	-1.539e-003
12665	14.033	5.0909	5.e-002	3.245e-006
12666	14.31	5.0909	0.	-1.7065e-003
12667	14.218	5.	0.	-1.3775e-003
12668	14.218	5.0909	5.e-002	3.6363e-006
12669	14.495	5.0909	0.	-1.6762e-003
12670	14.402	5.	0.	-1.26e-003
12671	14.402	5.0909	5.e-002	4.193e-006
12672	14.679	5.0909	0.	-1.6577e-003
12673	14.587	5.	0.	-1.1894e-003
12674	14.587	5.0909	5.e-002	4.2668e-006
12675	14.864	5.0909	0.	-1.6337e-003
12676	14.772	5.	0.	-1.112e-003
12677	14.772	5.0909	5.e-002	3.7428e-006
12678	15.048	5.0909	0.	-1.6159e-003
12679	14.956	5.	0.	-1.0408e-003
12680	14.956	5.0909	5.e-002	3.582e-006
12681	15.233	5.0909	0.	-1.6095e-003
12682	15.141	5.	0.	-9.8551e-004
12683	15.141	5.0909	5.e-002	3.4193e-006
12684	15.418	5.0909	0.	-1.6065e-003
12685	15.325	5.	0.	-9.4351e-004
12686	15.325	5.0909	5.e-002	4.8095e-006
12687	15.602	5.0909	0.	-1.5919e-003
12688	15.51	5.	0.	-8.992e-004
12689	15.51	5.0909	5.e-002	3.6549e-006
12690	15.787	5.0909	0.	-1.5772e-003
12691	15.694	5.	0.	-8.3743e-004
12692	15.694	5.0909	5.e-002	4.0733e-006
12693	15.971	5.0909	0.	-1.5752e-003
12694	15.879	5.	0.	-7.9539e-004
12695	15.879	5.0909	5.e-002	3.4214e-006
12696	16.156	5.0909	0.	-1.5678e-003
12697	16.064	5.	0.	-7.6015e-004
12698	16.064	5.0909	5.e-002	4.57e-006
12699	16.34	5.0909	0.	-1.5533e-003
12700	16.248	5.	0.	-7.057e-004
12701	16.248	5.0909	5.e-002	4.7484e-006
12702	16.525	5.0909	0.	-1.5485e-003
12703	16.433	5.	0.	-6.5662e-004
12704	16.433	5.0909	5.e-002	4.7815e-006
12705	16.71	5.0909	0.	-1.5409e-003
12706	16.617	5.	0.	-6.2162e-004
12707	16.617	5.0909	5.e-002	5.1829e-006
12708	16.894	5.0909	0.	-1.5214e-003
12709	16.802	5.	0.	-5.65e-004
12710	16.802	5.0909	5.e-002	5.5676e-006
12711	17.079	5.0909	0.	-1.4983e-003
12712	16.986	5.	0.	-5.0319e-004
12713	16.986	5.0909	5.e-002	4.9477e-006
12714	17.263	5.0909	0.	-1.4729e-003
12715	17.171	5.	0.	-4.362e-004
12716	17.171	5.0909	5.e-002	5.2155e-006
12717	17.448	5.0909	0.	-1.4525e-003
12718	17.356	5.	0.	-3.6738e-004
12719	17.356	5.0909	5.e-002	2.1956e-006
12720	17.632	5.0909	0.	-1.4267e-003
12721	17.54	5.	0.	-3.0671e-004
12722	17.54	5.0909	5.e-002	2.5661e-006
12723	17.817	5.0909	0.	-1.3867e-003
12724	17.725	5.	0.	-2.2297e-004
12725	17.725	5.0909	5.e-002	5.3027e-006
12726	18.002	5.0909	0.	-1.3427e-003
12727	17.909	5.	0.	-1.2958e-004
12728	17.909	5.0909	5.e-002	3.9276e-006
12729	18.186	5.0909	0.	-1.298e-003
12730	18.094	5.	0.	-3.0697e-005
12731	18.094	5.0909	5.e-002	7.3012e-006
12732	18.371	5.0909	0.	-1.2455e-003
12733	18.278	5.	0.	7.1996e-005
12734	18.278	5.0909	5.e-002	5.4633e-006
12735	18.555	5.0909	0.	-1.1755e-003
12736	18.463	5.	0.	1.912e-004
12737	18.463	5.0909	5.e-002	4.9055e-006
12738	18.74	5.0909	0.	-1.0949e-003
12739	18.648	5.	0.	3.3686e-004
12740	18.648	5.0909	5.e-002	6.2013e-006
12741	18.924	5.0909	0.	-1.0111e-003
12742	18.832	5.	0.	4.8633e-004
12743	18.832	5.0909	5.e-002	5.6648e-006
12744	19.109	5.0909	0.	-9.102e-004
12745	19.017	5.	0.	6.4984e-004
12746	19.017	5.0909	5.e-002	5.0533e-006
12747	19.294	5.0909	0.	-7.86e-004
12748	19.201	5.	0.	8.4478e-004
12749	19.201	5.0909	5.e-002	7.1139e-006
12750	19.478	5.0909	0.	-6.485e-004
12751	19.386	5.	0.	1.0646e-003
12752	19.386	5.0909	5.e-002	6.2426e-006
12753	19.663	5.0909	0.	-4.8455e-004
12754	19.57	5.	0.	1.3007e-003
12755	19.57	5.0909	5.e-002	6.3722e-006
12756	19.847	5.0909	0.	-2.8126e-004
12757	19.755	5.	0.	1.5876e-003
12758	19.755	5.0909	5.e-002	6.2035e-006
12759	20.032	5.0909	0.	-4.2786e-005
12760	19.94	5.	0.	1.9165e-003
12761	19.94	5.0909	5.e-002	6.8741e-006
12762	20.216	5.0909	0.	2.3948e-004
12763	20.124	5.	0.	2.2931e-003
12764	20.124	5.0909	5.e-002	5.2719e-006
12765	20.401	5.0909	0.	5.8018e-004
12766	20.309	5.	0.	2.7306e-003
12767	20.309	5.0909	5.e-002	8.4636e-006
12768	20.585	5.0909	0.	9.9682e-004
12769	20.493	5.	0.	3.245e-003
12770	20.493	5.0909	5.e-002	1.0781e-005
12771	20.77	5.0909	0.	1.5043e-003
12772	20.678	5.	0.	3.8614e-003
12773	20.678	5.0909	5.e-002	7.8876e-006
12774	20.955	5.0909	0.	2.1201e-003
12775	20.862	5.	0.	4.5856e-003
12776	20.862	5.0909	5.e-002	1.0227e-005
12777	21.139	5.0909	0.	2.881e-003
12778	21.047	5.	0.	5.4519e-003
12779	21.047	5.0909	5.e-002	1.0298e-005
12780	21.324	5.0909	0.	3.829e-003
12781	21.231	5.	0.	6.501e-003
12782	21.231	5.0909	5.e-002	8.7946e-006
12783	21.508	5.0909	0.	5.0106e-003
12784	21.416	5.	0.	7.7814e-003
12785	21.416	5.0909	5.e-002	1.2051e-005
12786	21.693	5.0909	0.	6.5045e-003
12787	21.601	5.	0.	9.349e-003
12788	21.601	5.0909	5.e-002	8.3166e-006
12789	21.877	5.0909	0.	8.4144e-003
12790	21.785	5.	0.	1.1305e-002
12791	21.785	5.0909	5.e-002	6.7401e-006
12792	22.062	5.0909	0.	1.0874e-002
12793	21.97	5.	0.	1.3767e-002
12794	21.97	5.0909	5.e-002	7.3194e-006
12795	22.247	5.0909	0.	1.408e-002
12796	22.154	5.	0.	1.6897e-002
12797	22.154	5.0909	5.e-002	4.2186e-006
12798	22.431	5.0909	0.	1.8341e-002
12799	22.339	5.	0.	2.0936e-002
12800	22.339	5.0909	5.e-002	5.1306e-006
12801	22.616	5.0909	0.	2.4037e-002
12802	22.523	5.	0.	2.6275e-002
12803	22.523	5.0909	5.e-002	1.0462e-005
12804	22.8	5.0909	0.	3.2102e-002
12805	22.708	5.	0.	3.3318e-002
12806	22.708	5.0909	5.e-002	3.5819e-006
12807	22.985	5.0909	0.	4.2812e-002
12808	22.893	5.	0.	4.3581e-002
12809	22.893	5.0909	5.e-002	6.5057e-006
12810	23.169	5.0909	0.	6.1909e-002
12811	23.077	5.	0.	5.6247e-002
12812	23.077	5.0909	5.e-002	5.208e-006
12813	23.354	5.0909	0.	7.9992e-002
12814	23.262	5.	0.	8.4073e-002
12815	23.262	5.0909	5.e-002	9.7909e-006
12816	23.539	5.0909	0.	0.16497
12817	23.446	5.	0.	9.6589e-002
12818	23.446	5.0909	5.e-002	9.9762e-006
12819	23.723	5.0909	0.	0.13103
12820	23.631	5.	0.	0.26633
12821	23.631	5.0909	5.e-002	1.0335e-005
12822	23.815	5.	0.	8.9059e-002
12823	23.815	5.0909	5.e-002	1.3986e-005
12824	23.908	5.0909	0.	0.39005
12825	4.3435	4.9091	0.	-6.443
12826	4.2512	4.8182	0.	-10.882
12827	4.2512	4.9091	5.e-002	-4.836e-005
12828	4.159	4.9091	0.	0.85659
12829	4.5281	4.9091	0.	-2.1453
12830	4.4358	4.8182	0.	-0.78757
12831	4.4358	4.9091	5.e-002	-1.3049e-004
12832	4.7127	4.9091	0.	-3.1661
12833	4.6204	4.8182	0.	-3.9477
12834	4.6204	4.9091	5.e-002	-1.7402e-004
12835	4.8972	4.9091	0.	-2.6201
12836	4.8049	4.8182	0.	-2.9861
12837	4.8049	4.9091	5.e-002	-2.1607e-004
12838	5.0818	4.9091	0.	-2.4863
12839	4.9895	4.8182	0.	-2.8795
12840	4.9895	4.9091	5.e-002	-2.3774e-004
12841	5.2664	4.9091	0.	-2.3592
12842	5.1741	4.8182	0.	-2.8108
12843	5.1741	4.9091	5.e-002	-2.6015e-004
12844	5.4509	4.9091	0.	-2.3712
12845	5.3586	4.8182	0.	-2.9895
12846	5.3586	4.9091	5.e-002	-2.2904e-004
12847	5.6355	4.9091	0.	-2.557
12848	5.5432	4.8182	0.	-3.5205
12849	5.5432	4.9091	5.e-002	-2.7198e-004
12850	5.8201	4.9091	0.	-3.1282
12851	5.7278	4.8182	0.	-5.0147
12852	5.7278	4.9091	5.e-002	-2.6704e-004
12853	6.0046	4.9091	0.	-4.9865
12854	5.9123	4.8182	0.	-10.391
12855	5.9123	4.9091	5.e-002	-2.7056e-004
12856	6.1892	4.9091	0.	-11.974
12857	6.0969	4.8182	0.	-23.773
12858	6.0969	4.9091	5.e-002	-2.5936e-004
12859	6.3738	4.9091	0.	-24.208
12860	6.2815	4.8182	0.	-38.026
12861	6.2815	4.9091	5.e-002	-2.4048e-004
12862	6.5583	4.9091	0.	-35.459
12863	6.466	4.8182	0.	-49.493
12864	6.466	4.9091	5.e-002	-2.0908e-004
12865	6.7429	4.9091	0.	-44.368
12866	6.6506	4.8182	0.	-58.119
12867	6.6506	4.9091	5.e-002	-1.1841e-004
12868	6.9275	4.9091	0.	-51.026
12869	6.8352	4.8182	0.	-64.292
12870	6.8352	4.9091	5.e-002	-8.6394e-005
12871	7.112	4.9091	0.	-55.712
12872	7.0198	4.8182	0.	-68.399
12873	7.0198	4.9091	5.e-002	-6.1267e-005
12874	7.2966	4.9091	0.	-58.715
12875	7.2043	4.8182	0.	-70.781
12876	7.2043	4.9091	5.e-002	-4.2425e-005
12877	7.4812	4.9091	0.	-60.302
12878	7.3889	4.8182	0.	-71.734
12879	7.3889	4.9091	5.e-002	-1.0681e-005
12880	7.6657	4.9091	0.	-60.718
12881	7.5735	4.8182	0.	-71.519
12882	7.5735	4.9091	5.e-002	-2.0215e-005
12883	7.8503	4.9091	0.	-60.181
12884	7.758	4.8182	0.	-70.361
12885	7.758	4.9091	5.e-002	-1.0142e-005
12886	8.0349	4.9091	0.	-58.882
12887	7.9426	4.8182	0.	-68.458
12888	7.9426	4.9091	5.e-002	-1.3176e-005
12889	8.2194	4.9091	0.	-56.988
12890	8.1272	4.8182	0.	-65.98
12891	8.1272	4.9091	5.e-002	-1.1133e-005
12892	8.404	4.9091	0.	-54.643
12893	8.3117	4.8182	0.	-63.072
12894	8.3117	4.9091	5.e-002	-5.487e-006
12895	8.5886	4.9091	0.	-51.969
12896	8.4963	4.8182	0.	-59.859
12897	8.4963	4.9091	5.e-002	-4.334e-006
12898	8.7731	4.9091	0.	-49.067
12899	8.6809	4.8182	0.	-56.442
12900	8.6809	4.9091	5.e-002	-4.188e-006
12901	8.9577	4.9091	0.	-46.023
12902	8.8654	4.8182	0.	-52.908
12903	8.8654	4.9091	5.e-002	-4.1046e-006
12904	9.1423	4.9091	0.	-42.904
12905	9.05	4.8182	0.	-49.324
12906	9.05	4.9091	5.e-002	-3.942e-006
12907	9.3269	4.9091	0.	-39.766
12908	9.2346	4.8182	0.	-45.747
12909	9.2346	4.9091	5.e-002	-1.8496e-006
12910	9.5114	4.9091	0.	-36.652
12911	9.4191	4.8182	0.	-42.219
12912	9.4191	4.9091	5.e-002	-1.9134e-006
12913	9.696	4.9091	0.	-33.597
12914	9.6037	4.8182	0.	-38.774
12915	9.6037	4.9091	5.e-002	-2.0609e-006
12916	9.8806	4.9091	0.	-30.626
12917	9.7883	4.8182	0.	-35.436
12918	9.7883	4.9091	5.e-002	-1.9681e-006
12919	10.065	4.9091	0.	-27.757
12920	9.9728	4.8182	0.	-32.224
12921	9.9728	4.9091	5.e-002	-6.5034e-007
12922	10.25	4.9091	0.	-25.003
12923	10.157	4.8182	0.	-29.149
12924	10.157	4.9091	5.e-002	-1.08e-006
12925	10.434	4.9091	0.	-22.373
12926	10.342	4.8182	0.	-26.22
12927	10.342	4.9091	5.e-002	-6.3782e-007
12928	10.619	4.9091	0.	-19.871
12929	10.527	4.8182	0.	-23.439
12930	10.527	4.9091	5.e-002	-6.2321e-007
12931	10.803	4.9091	0.	-17.499
12932	10.711	4.8182	0.	-20.807
12933	10.711	4.9091	5.e-002	6.5436e-007
12934	10.988	4.9091	0.	-15.257
12935	10.896	4.8182	0.	-18.324
12936	10.896	4.9091	5.e-002	4.4813e-007
12937	11.173	4.9091	0.	-13.143
12938	11.08	4.8182	0.	-15.985
12939	11.08	4.9091	5.e-002	4.034e-007
12940	11.357	4.9091	0.	-11.151
12941	11.265	4.8182	0.	-13.786
12942	11.265	4.9091	5.e-002	3.4126e-007
12943	11.542	4.9091	0.	-9.2796
12944	11.449	4.8182	0.	-11.721
12945	11.449	4.9091	5.e-002	9.7255e-007
12946	11.726	4.9091	0.	-7.5217
12947	11.634	4.8182	0.	-9.7851
12948	11.634	4.9091	5.e-002	1.459e-006
12949	11.911	4.9091	0.	-5.8721
12950	11.819	4.8182	0.	-7.9704
12951	11.819	4.9091	5.e-002	1.4442e-006
12952	12.095	4.9091	0.	-4.3251
12953	12.003	4.8182	0.	-6.2706
12954	12.003	4.9091	5.e-002	6.1232e-007
12955	12.28	4.9091	0.	-2.8752
12956	12.188	4.8182	0.	-4.6788
12957	12.188	4.9091	5.e-002	1.4028e-006
12958	12.465	4.9091	0.	-1.519
12959	12.372	4.8182	0.	-3.1886
12960	12.372	4.9091	5.e-002	1.1824e-006
12961	12.649	4.9091	0.	-0.2955
12962	12.557	4.8182	0.	-1.7952
12963	12.557	4.9091	5.e-002	1.2482e-006
12964	12.834	4.9091	0.	-1.8541e-002
12965	12.741	4.8182	0.	-0.51282
12966	12.741	4.9091	5.e-002	1.2952e-006
12967	13.018	4.9091	0.	-7.728e-003
12968	12.926	4.8182	0.	-2.4506e-002
12969	12.926	4.9091	5.e-002	1.2515e-006
12970	13.203	4.9091	0.	-4.5866e-003
12971	13.11	4.8182	0.	-8.6021e-003
12972	13.11	4.9091	5.e-002	1.2814e-006
12973	13.387	4.9091	0.	-3.1258e-003
12974	13.295	4.8182	0.	-4.7124e-003
12975	13.295	4.9091	5.e-002	2.3945e-006
12976	13.572	4.9091	0.	-2.2806e-003
12977	13.48	4.8182	0.	-2.9804e-003
12978	13.48	4.9091	5.e-002	3.1704e-006
12979	13.756	4.9091	0.	-1.7371e-003
12980	13.664	4.8182	0.	-1.9828e-003
12981	13.664	4.9091	5.e-002	3.4709e-006
12982	13.941	4.9091	0.	-1.3771e-003
12983	13.849	4.8182	0.	-1.3628e-003
12984	13.849	4.9091	5.e-002	2.5833e-006
12985	14.126	4.9091	0.	-1.1092e-003
12986	14.033	4.8182	0.	-9.4175e-004
12987	14.033	4.9091	5.e-002	3.7554e-006
12988	14.31	4.9091	0.	-8.9633e-004
12989	14.218	4.8182	0.	-6.0847e-004
12990	14.218	4.9091	5.e-002	4.2421e-006
12991	14.495	4.9091	0.	-7.4245e-004
12992	14.402	4.8182	0.	-3.5565e-004
12993	14.402	4.9091	5.e-002	4.9716e-006
12994	14.679	4.9091	0.	-6.1724e-004
12995	14.587	4.8182	0.	-1.737e-004
12996	14.587	4.9091	5.e-002	4.5979e-006
12997	14.864	4.9091	0.	-4.9691e-004
12998	14.772	4.8182	0.	1.5406e-006
12999	14.772	4.9091	5.e-002	4.4602e-006
13000	15.048	4.9091	0.	-3.9249e-004
13001	14.956	4.8182	0.	1.5798e-004
13002	14.956	4.9091	5.e-002	3.9662e-006
13003	15.233	4.9091	0.	-3.0567e-004
13004	15.141	4.8182	0.	2.9105e-004
13005	15.141	4.9091	5.e-002	3.9119e-006
13006	15.418	4.9091	0.	-2.2637e-004
13007	15.325	4.8182	0.	4.0578e-004
13008	15.325	4.9091	5.e-002	5.2063e-006
13009	15.602	4.9091	0.	-1.3886e-004
13010	15.51	4.8182	0.	5.195e-004
13011	15.51	4.9091	5.e-002	4.0897e-006
13012	15.787	4.9091	0.	-5.3606e-005
13013	15.694	4.8182	0.	6.4829e-004
13014	15.694	4.9091	5.e-002	4.4608e-006
13015	15.971	4.9091	0.	1.7941e-005
13016	15.879	4.8182	0.	7.5521e-004
13017	15.879	4.9091	5.e-002	3.8693e-006
13018	16.156	4.9091	0.	9.6378e-005
13019	16.064	4.8182	0.	8.5512e-004
13020	16.064	4.9091	5.e-002	4.8689e-006
13021	16.34	4.9091	0.	1.8156e-004
13022	16.248	4.8182	0.	9.7433e-004
13023	16.248	4.9091	5.e-002	5.7334e-006
13024	16.525	4.9091	0.	2.5702e-004
13025	16.433	4.8182	0.	1.0883e-003
13026	16.433	4.9091	5.e-002	5.7274e-006
13027	16.71	4.9091	0.	3.3709e-004
13028	16.617	4.8182	0.	1.1896e-003
13029	16.617	4.9091	5.e-002	6.2169e-006
13030	16.894	4.9091	0.	4.3188e-004
13031	16.802	4.8182	0.	1.3141e-003
13032	16.802	4.9091	5.e-002	6.6848e-006
13033	17.079	4.9091	0.	5.3332e-004
13034	16.986	4.8182	0.	1.4466e-003
13035	16.986	4.9091	5.e-002	5.5943e-006
13036	17.263	4.9091	0.	6.3919e-004
13037	17.171	4.8182	0.	1.5855e-003
13038	17.171	4.9091	5.e-002	5.7957e-006
13039	17.448	4.9091	0.	7.4362e-004
13040	17.356	4.8182	0.	1.7305e-003
13041	17.356	4.9091	5.e-002	2.7247e-006
13042	17.632	4.9091	0.	8.5715e-004
13043	17.54	4.8182	0.	1.8692e-003
13044	17.54	4.9091	5.e-002	3.3441e-006
13045	17.817	4.9091	0.	9.8877e-004
13046	17.725	4.8182	0.	2.0358e-003
13047	17.725	4.9091	5.e-002	5.8505e-006
13048	18.002	4.9091	0.	1.1313e-003
13049	17.909	4.8182	0.	2.2158e-003
13050	17.909	4.9091	5.e-002	4.3892e-006
13051	18.186	4.9091	0.	1.2817e-003
13052	18.094	4.8182	0.	2.4074e-003
13053	18.094	4.9091	5.e-002	8.1519e-006
13054	18.371	4.9091	0.	1.4442e-003
13055	18.278	4.8182	0.	2.6081e-003
13056	18.278	4.9091	5.e-002	6.3655e-006
13057	18.555	4.9091	0.	1.6316e-003
13058	18.463	4.8182	0.	2.8306e-003
13059	18.463	4.9091	5.e-002	5.9284e-006
13060	18.74	4.9091	0.	1.8379e-003
13061	18.648	4.8182	0.	3.0861e-003
13062	18.648	4.9091	5.e-002	7.1482e-006
13063	18.924	4.9091	0.	2.0579e-003
13064	18.832	4.8182	0.	3.3528e-003
13065	18.832	4.9091	5.e-002	5.8933e-006
13066	19.109	4.9091	0.	2.3054e-003
13067	19.017	4.8182	0.	3.6427e-003
13068	19.017	4.9091	5.e-002	5.5486e-006
13069	19.294	4.9091	0.	2.5849e-003
13070	19.201	4.8182	0.	3.9732e-003
13071	19.201	4.9091	5.e-002	8.2358e-006
13072	19.478	4.9091	0.	2.891e-003
13073	19.386	4.8182	0.	4.3355e-003
13074	19.386	4.9091	5.e-002	7.0462e-006
13075	19.663	4.9091	0.	3.2364e-003
13076	19.57	4.8182	0.	4.7281e-003
13077	19.57	4.9091	5.e-002	7.9508e-006
13078	19.847	4.9091	0.	3.6336e-003
13079	19.755	4.8182	0.	5.1805e-003
13080	19.755	4.9091	5.e-002	7.8165e-006
13081	20.032	4.9091	0.	4.0834e-003
13082	19.94	4.8182	0.	5.6892e-003
13083	19.94	4.9091	5.e-002	8.2021e-006
13084	20.216	4.9091	0.	4.596e-003
13085	20.124	4.8182	0.	6.2592e-003
13086	20.124	4.9091	5.e-002	6.3998e-006
13087	20.401	4.9091	0.	5.1854e-003
13088	20.309	4.8182	0.	6.9067e-003
13089	20.309	4.9091	5.e-002	9.6027e-006
13090	20.585	4.9091	0.	5.8748e-003
13091	20.493	4.8182	0.	7.6475e-003
13092	20.493	4.9091	5.e-002	1.2017e-005
13093	20.77	4.9091	0.	6.6795e-003
13094	20.678	4.8182	0.	8.5107e-003
13095	20.678	4.9091	5.e-002	9.6711e-006
13096	20.955	4.9091	0.	7.6217e-003
13097	20.862	4.8182	0.	9.5021e-003
13098	20.862	4.9091	5.e-002	1.1809e-005
13099	21.139	4.9091	0.	8.7384e-003
13100	21.047	4.8182	0.	1.0659e-002
13101	21.047	4.9091	5.e-002	1.1652e-005
13102	21.324	4.9091	0.	1.0076e-002
13103	21.231	4.8182	0.	1.2028e-002
13104	21.231	4.9091	5.e-002	9.5352e-006
13105	21.508	4.9091	0.	1.169e-002
13106	21.416	4.8182	0.	1.3654e-002
13107	21.416	4.9091	5.e-002	1.2668e-005
13108	21.693	4.9091	0.	1.3657e-002
13109	21.601	4.8182	0.	1.5602e-002
13110	21.601	4.9091	5.e-002	1.0268e-005
13111	21.877	4.9091	0.	1.6088e-002
13112	21.785	4.8182	0.	1.7971e-002
13113	21.785	4.9091	5.e-002	8.0491e-006
13114	22.062	4.9091	0.	1.9125e-002
13115	21.97	4.8182	0.	2.0881e-002
13116	21.97	4.9091	5.e-002	8.402e-006
13117	22.247	4.9091	0.	2.2964e-002
13118	22.154	4.8182	0.	2.4503e-002
13119	22.154	4.9091	5.e-002	7.3697e-006
13120	22.431	4.9091	0.	2.7915e-002
13121	22.339	4.8182	0.	2.9072e-002
13122	22.339	4.9091	5.e-002	6.845e-006
13123	22.616	4.9091	0.	3.4366e-002
13124	22.523	4.8182	0.	3.4985e-002
13125	22.523	4.9091	5.e-002	1.2377e-005
13126	22.8	4.9091	0.	4.3251e-002
13127	22.708	4.8182	0.	4.2647e-002
13128	22.708	4.9091	5.e-002	5.6731e-006
13129	22.985	4.9091	0.	5.4865e-002
13130	22.893	4.8182	0.	5.3592e-002
13131	22.893	4.9091	5.e-002	7.579e-006
13132	23.169	4.9091	0.	7.5075e-002
13133	23.077	4.8182	0.	6.7029e-002
13134	23.077	4.9091	5.e-002	8.1148e-006
13135	23.354	4.9091	0.	9.4473e-002
13136	23.262	4.8182	0.	9.5941e-002
13137	23.262	4.9091	5.e-002	1.1668e-005
13138	23.539	4.9091	0.	0.18247
13139	23.446	4.8182	0.	0.10974
13140	23.446	4.9091	5.e-002	1.2726e-005
13141	23.723	4.9091	0.	0.15551
13142	23.631	4.8182	0.	0.2839
13143	23.631	4.9091	5.e-002	1.2965e-005
13144	23.815	4.8182	0.	0.11804
13145	23.815	4.9091	5.e-002	1.4163e-005
13146	23.908	4.9091	0.	0.40036
13147	4.3435	4.7273	0.	-5.6539
13148	4.2512	4.6364	0.	-20.946
13149	4.2512	4.7273	5.e-002	-1.1055e-004
13150	4.159	4.7273	0.	7.6627
13151	4.5281	4.7273	0.	-2.617
13152	4.4358	4.6364	0.	-1.6004
13153	4.4358	4.7273	5.e-002	-1.9747e-004
13154	4.7127	4.7273	0.	-3.7531
13155	4.6204	4.6364	0.	-4.4852
13156	4.6204	4.7273	5.e-002	-2.8789e-004
13157	4.8972	4.7273	0.	-3.2174
13158	4.8049	4.6364	0.	-3.7827
13159	4.8049	4.7273	5.e-002	-3.275e-004
13160	5.0818	4.7273	0.	-3.194
13161	4.9895	4.6364	0.	-3.681
13162	4.9895	4.7273	5.e-002	-3.3625e-004
13163	5.2664	4.7273	0.	-3.5003
13164	5.1741	4.6364	0.	-4.105
13165	5.1741	4.7273	5.e-002	-3.1352e-004
13166	5.4509	4.7273	0.	-4.4284
13167	5.3586	4.6364	0.	-5.7158
13168	5.3586	4.7273	5.e-002	-3.0859e-004
13169	5.6355	4.7273	0.	-7.26
13170	5.5432	4.6364	0.	-11.688
13171	5.5432	4.7273	5.e-002	-2.8846e-004
13172	5.8201	4.7273	0.	-17.763
13173	5.7278	4.6364	0.	-31.617
13174	5.7278	4.7273	5.e-002	-2.656e-004
13175	6.0046	4.7273	0.	-36.006
13176	5.9123	4.6364	0.	-54.456
13177	5.9123	4.7273	5.e-002	-3.0886e-004
13178	6.1892	4.7273	0.	-51.877
13179	6.0969	4.6364	0.	-71.472
13180	6.0969	4.7273	5.e-002	-2.2469e-004
13181	6.3738	4.7273	0.	-63.779
13182	6.2815	4.6364	0.	-83.285
13183	6.2815	4.7273	5.e-002	-1.978e-004
13184	6.5583	4.7273	0.	-72.302
13185	6.466	4.6364	0.	-91.144
13186	6.466	4.7273	5.e-002	-1.6834e-004
13187	6.7429	4.7273	0.	-78.093
13188	6.6506	4.6364	0.	-95.997
13189	6.6506	4.7273	5.e-002	-1.3815e-004
13190	6.9275	4.7273	0.	-81.675
13191	6.8352	4.6364	0.	-98.523
13192	6.8352	4.7273	5.e-002	-7.2445e-005
13193	7.112	4.7273	0.	-83.461
13194	7.0198	4.6364	0.	-99.222
13195	7.0198	4.7273	5.e-002	-8.2677e-005
13196	7.2966	4.7273	0.	-83.787
13197	7.2043	4.6364	0.	-98.477
13198	7.2043	4.7273	5.e-002	-3.8048e-005
13199	7.4812	4.7273	0.	-82.936
13200	7.3889	4.6364	0.	-96.594
13201	7.3889	4.7273	5.e-002	-2.9576e-005
13202	7.6657	4.7273	0.	-81.147
13203	7.5735	4.6364	0.	-93.826
13204	7.5735	4.7273	5.e-002	-2.7614e-005
13205	7.8503	4.7273	0.	-78.623
13206	7.758	4.6364	0.	-90.382
13207	7.758	4.7273	5.e-002	-1.5947e-005
13208	8.0349	4.7273	0.	-75.542
13209	7.9426	4.6364	0.	-86.438
13210	7.9426	4.7273	5.e-002	-1.4899e-005
13211	8.2194	4.7273	0.	-72.051
13212	8.1272	4.6364	0.	-82.142
13213	8.1272	4.7273	5.e-002	-9.7133e-006
13214	8.404	4.7273	0.	-68.275
13215	8.3117	4.6364	0.	-77.617
13216	8.3117	4.7273	5.e-002	-4.9814e-006
13217	8.5886	4.7273	0.	-64.32
13218	8.4963	4.6364	0.	-72.965
13219	8.4963	4.7273	5.e-002	-3.9148e-006
13220	8.7731	4.7273	0.	-60.271
13221	8.6809	4.6364	0.	-68.268
13222	8.6809	4.7273	5.e-002	-6.6922e-006
13223	8.9577	4.7273	0.	-56.198
13224	8.8654	4.6364	0.	-63.594
13225	8.8654	4.7273	5.e-002	-4.0206e-006
13226	9.1423	4.7273	0.	-52.155
13227	9.05	4.6364	0.	-58.995
13228	9.05	4.7273	5.e-002	-3.6996e-006
13229	9.3269	4.7273	0.	-48.188
13230	9.2346	4.6364	0.	-54.512
13231	9.2346	4.7273	5.e-002	-2.5125e-006
13232	9.5114	4.7273	0.	-44.327
13233	9.4191	4.6364	0.	-50.174
13234	9.4191	4.7273	5.e-002	-1.8781e-006
13235	9.696	4.7273	0.	-40.599
13236	9.6037	4.6364	0.	-46.003
13237	9.6037	4.7273	5.e-002	-9.756e-007
13238	9.8806	4.7273	0.	-37.021
13239	9.7883	4.6364	0.	-42.016
13240	9.7883	4.7273	5.e-002	-1.6579e-006
13241	10.065	4.7273	0.	-33.602
13242	9.9728	4.6364	0.	-38.219
13243	9.9728	4.7273	5.e-002	-1.8345e-006
13244	10.25	4.7273	0.	-30.351
13245	10.157	4.6364	0.	-34.618
13246	10.157	4.7273	5.e-002	-1.4284e-006
13247	10.434	4.7273	0.	-27.27
13248	10.342	4.6364	0.	-31.215
13249	10.342	4.7273	5.e-002	-4.1575e-007
13250	10.619	4.7273	0.	-24.359
13251	10.527	4.6364	0.	-28.005
13252	10.527	4.7273	5.e-002	-5.1442e-007
13253	10.803	4.7273	0.	-21.615
13254	10.711	4.6364	0.	-24.986
13255	10.711	4.7273	5.e-002	3.0997e-007
13256	10.988	4.7273	0.	-19.034
13257	10.896	4.6364	0.	-22.151
13258	10.896	4.7273	5.e-002	4.9577e-007
13259	11.173	4.7273	0.	-16.611
13260	11.08	4.6364	0.	-19.493
13261	11.08	4.7273	5.e-002	1.9724e-007
13262	11.357	4.7273	0.	-14.338
13263	11.265	4.6364	0.	-17.003
13264	11.265	4.7273	5.e-002	-9.9604e-008
13265	11.542	4.7273	0.	-12.208
13266	11.449	4.6364	0.	-14.674
13267	11.449	4.7273	5.e-002	7.6041e-007
13268	11.726	4.7273	0.	-10.215
13269	11.634	4.6364	0.	-12.497
13270	11.634	4.7273	5.e-002	1.244e-006
13271	11.911	4.7273	0.	-8.3491
13272	11.819	4.6364	0.	-10.462
13273	11.819	4.7273	5.e-002	1.0002e-006
13274	12.095	4.7273	0.	-6.604
13275	12.003	4.6364	0.	-8.5611
13276	12.003	4.7273	5.e-002	1.859e-007
13277	12.28	4.7273	0.	-4.9715
13278	12.188	4.6364	0.	-6.7847
13279	12.188	4.7273	5.e-002	1.1859e-006
13280	12.465	4.7273	0.	-3.4445
13281	12.372	4.6364	0.	-5.1247
13282	12.372	4.7273	5.e-002	6.7863e-007
13283	12.649	4.7273	0.	-2.017
13284	12.557	4.6364	0.	-3.5731
13285	12.557	4.7273	5.e-002	8.3034e-007
13286	12.834	4.7273	0.	-0.69477
13287	12.741	4.6364	0.	-2.1232
13288	12.741	4.7273	5.e-002	9.803e-007
13289	13.018	4.7273	0.	-3.0963e-002
13290	12.926	4.6364	0.	-0.77796
13291	12.926	4.7273	5.e-002	8.109e-007
13292	13.203	4.7273	0.	-9.0507e-003
13293	13.11	4.6364	0.	-3.3861e-002
13294	13.11	4.7273	5.e-002	9.4827e-007
13295	13.387	4.7273	0.	-4.5522e-003
13296	13.295	4.6364	0.	-8.7853e-003
13297	13.295	4.7273	5.e-002	2.1045e-006
13298	13.572	4.7273	0.	-2.6199e-003
13299	13.48	4.6364	0.	-4.0827e-003
13300	13.48	4.7273	5.e-002	2.6334e-006
13301	13.756	4.7273	0.	-1.5438e-003
13302	13.664	4.6364	0.	-2.0845e-003
13303	13.664	4.7273	5.e-002	3.1304e-006
13304	13.941	4.7273	0.	-8.7011e-004
13305	13.849	4.6364	0.	-9.9297e-004
13306	13.849	4.7273	5.e-002	2.2532e-006
13307	14.126	4.7273	0.	-3.9264e-004
13308	14.033	4.6364	0.	-3.0017e-004
13309	14.033	4.7273	5.e-002	3.5036e-006
13310	14.31	4.7273	0.	-2.7961e-005
13311	14.218	4.6364	0.	2.0914e-004
13312	14.218	4.7273	5.e-002	3.9304e-006
13313	14.495	4.7273	0.	2.4522e-004
13314	14.402	4.6364	0.	5.8892e-004
13315	14.402	4.7273	5.e-002	4.6515e-006
13316	14.679	4.7273	0.	4.7036e-004
13317	14.587	4.6364	0.	8.7159e-004
13318	14.587	4.7273	5.e-002	4.3379e-006
13319	14.864	4.7273	0.	6.7557e-004
13320	14.772	4.6364	0.	1.1271e-003
13321	14.772	4.7273	5.e-002	4.0942e-006
13322	15.048	4.7273	0.	8.5514e-004
13323	14.956	4.6364	0.	1.3555e-003
13324	14.956	4.7273	5.e-002	3.6025e-006
13325	15.233	4.7273	0.	1.0111e-003
13326	15.141	4.6364	0.	1.5526e-003
13327	15.141	4.7273	5.e-002	3.1649e-006
13328	15.418	4.7273	0.	1.1556e-003
13329	15.325	4.6364	0.	1.7258e-003
13330	15.325	4.7273	5.e-002	4.2804e-006
13331	15.602	4.7273	0.	1.3063e-003
13332	15.51	4.6364	0.	1.8951e-003
13333	15.51	4.7273	5.e-002	3.351e-006
13334	15.787	4.7273	0.	1.4526e-003
13335	15.694	4.6364	0.	2.0781e-003
13336	15.694	4.7273	5.e-002	3.7304e-006
13337	15.971	4.7273	0.	1.584e-003
13338	15.879	4.6364	0.	2.2371e-003
13339	15.879	4.7273	5.e-002	3.3822e-006
13340	16.156	4.7273	0.	1.7209e-003
13341	16.064	4.6364	0.	2.3895e-003
13342	16.064	4.7273	5.e-002	4.522e-006
13343	16.34	4.7273	0.	1.8651e-003
13344	16.248	4.6364	0.	2.5608e-003
13345	16.248	4.7273	5.e-002	5.1667e-006
13346	16.525	4.7273	0.	2.0012e-003
13347	16.433	4.6364	0.	2.7282e-003
13348	16.433	4.7273	5.e-002	5.4452e-006
13349	16.71	4.7273	0.	2.1431e-003
13350	16.617	4.6364	0.	2.8819e-003
13351	16.617	4.7273	5.e-002	5.6985e-006
13352	16.894	4.7273	0.	2.3014e-003
13353	16.802	4.6364	0.	3.0617e-003
13354	16.802	4.7273	5.e-002	6.6674e-006
13355	17.079	4.7273	0.	2.4675e-003
13356	16.986	4.6364	0.	3.2498e-003
13357	16.986	4.7273	5.e-002	5.7138e-006
13358	17.263	4.7273	0.	2.6414e-003
13359	17.171	4.6364	0.	3.4473e-003
13360	17.171	4.7273	5.e-002	5.1076e-006
13361	17.448	4.7273	0.	2.8163e-003
13362	17.356	4.6364	0.	3.6544e-003
13363	17.356	4.7273	5.e-002	2.4229e-006
13364	17.632	4.7273	0.	3.0035e-003
13365	17.54	4.6364	0.	3.8554e-003
13366	17.54	4.7273	5.e-002	2.4303e-006
13367	17.817	4.7273	0.	3.2136e-003
13368	17.725	4.6364	0.	4.0877e-003
13369	17.725	4.7273	5.e-002	5.0559e-006
13370	18.002	4.7273	0.	3.4377e-003
13371	17.909	4.6364	0.	4.3391e-003
13372	17.909	4.7273	5.e-002	4.1753e-006
13373	18.186	4.7273	0.	3.674e-003
13374	18.094	4.6364	0.	4.6035e-003
13375	18.094	4.7273	5.e-002	7.7042e-006
13376	18.371	4.7273	0.	3.9288e-003
13377	18.278	4.6364	0.	4.8814e-003
13378	18.278	4.7273	5.e-002	5.9968e-006
13379	18.555	4.7273	0.	4.2131e-003
13380	18.463	4.6364	0.	5.1871e-003
13381	18.463	4.7273	5.e-002	5.4129e-006
13382	18.74	4.7273	0.	4.522e-003
13383	18.648	4.6364	0.	5.5291e-003
13384	18.648	4.7273	5.e-002	6.4381e-006
13385	18.924	4.7273	0.	4.8511e-003
13386	18.832	4.6364	0.	5.8892e-003
13387	18.832	4.7273	5.e-002	5.708e-006
13388	19.109	4.7273	0.	5.2157e-003
13389	19.017	4.6364	0.	6.2763e-003
13390	19.017	4.7273	5.e-002	5.2715e-006
13391	19.294	4.7273	0.	5.62e-003
13392	19.201	4.6364	0.	6.7122e-003
13393	19.201	4.7273	5.e-002	7.4948e-006
13394	19.478	4.7273	0.	6.0588e-003
13395	19.386	4.6364	0.	7.1843e-003
13396	19.386	4.7273	5.e-002	6.1845e-006
13397	19.663	4.7273	0.	6.5475e-003
13398	19.57	4.6364	0.	7.6964e-003
13399	19.57	4.7273	5.e-002	6.9393e-006
13400	19.847	4.7273	0.	7.0991e-003
13401	19.755	4.6364	0.	8.2759e-003
13402	19.755	4.7273	5.e-002	7.0819e-006
13403	20.032	4.7273	0.	7.7144e-003
13404	19.94	4.6364	0.	8.9221e-003
13405	19.94	4.7273	5.e-002	7.4659e-006
13406	20.216	4.7273	0.	8.4043e-003
13407	20.124	4.6364	0.	9.6365e-003
13408	20.124	4.7273	5.e-002	5.6964e-006
13409	20.401	4.7273	0.	9.1862e-003
13410	20.309	4.6364	0.	1.0442e-002
13411	20.309	4.7273	5.e-002	1.0062e-005
13412	20.585	4.7273	0.	1.0082e-002
13413	20.493	4.6364	0.	1.1353e-002
13414	20.493	4.7273	5.e-002	1.1269e-005
13415	20.77	4.7273	0.	1.111e-002
13416	20.678	4.6364	0.	1.2395e-002
13417	20.678	4.7273	5.e-002	8.914e-006
13418	20.955	4.7273	0.	1.2291e-002
13419	20.862	4.6364	0.	1.3584e-002
13420	20.862	4.7273	5.e-002	1.147e-005
13421	21.139	4.7273	0.	1.3671e-002
13422	21.047	4.6364	0.	1.4948e-002
13423	21.047	4.7273	5.e-002	1.0196e-005
13424	21.324	4.7273	0.	1.5295e-002
13425	21.231	4.6364	0.	1.6545e-002
13426	21.231	4.7273	5.e-002	9.8494e-006
13427	21.508	4.7273	0.	1.7214e-002
13428	21.416	4.6364	0.	1.8415e-002
13429	21.416	4.7273	5.e-002	1.3339e-005
13430	21.693	4.7273	0.	1.9515e-002
13431	21.601	4.6364	0.	2.0621e-002
13432	21.601	4.7273	5.e-002	7.963e-006
13433	21.877	4.7273	0.	2.2303e-002
13434	21.785	4.6364	0.	2.3268e-002
13435	21.785	4.7273	5.e-002	7.4792e-006
13436	22.062	4.7273	0.	2.5721e-002
13437	21.97	4.6364	0.	2.6476e-002
13438	21.97	4.7273	5.e-002	7.9915e-006
13439	22.247	4.7273	0.	2.9972e-002
13440	22.154	4.6364	0.	3.0413e-002
13441	22.154	4.7273	5.e-002	6.3107e-006
13442	22.431	4.7273	0.	3.5362e-002
13443	22.339	4.6364	0.	3.5315e-002
13444	22.339	4.7273	5.e-002	6.3863e-006
13445	22.616	4.7273	0.	4.2281e-002
13446	22.523	4.6364	0.	4.1582e-002
13447	22.523	4.7273	5.e-002	1.2421e-005
13448	22.8	4.7273	0.	5.1675e-002
13449	22.708	4.6364	0.	4.9623e-002
13450	22.708	4.7273	5.e-002	6.0892e-006
13451	22.985	4.7273	0.	6.3861e-002
13452	22.893	4.6364	0.	6.0999e-002
13453	22.893	4.7273	5.e-002	7.046e-006
13454	23.169	4.7273	0.	8.4815e-002
13455	23.077	4.6364	0.	7.4943e-002
13456	23.077	4.7273	5.e-002	6.969e-006
13457	23.354	4.7273	0.	0.10519
13458	23.262	4.6364	0.	0.10462
13459	23.262	4.7273	5.e-002	1.1962e-005
13460	23.539	4.7273	0.	0.19553
13461	23.446	4.6364	0.	0.11941
13462	23.446	4.7273	5.e-002	1.4269e-005
13463	23.723	4.7273	0.	0.17422
13464	23.631	4.6364	0.	0.297
13465	23.631	4.7273	5.e-002	1.2883e-005
13466	23.815	4.6364	0.	0.1406
13467	23.815	4.7273	5.e-002	1.5308e-005
13468	23.908	4.7273	0.	0.40851
13469	4.3435	4.5455	0.	-17.292
13470	4.2512	4.4545	0.	-8.5112
13471	4.2512	4.5455	5.e-002	-1.8357e-004
13472	4.159	4.5455	0.	-20.959
13473	4.5281	4.5455	0.	-3.4655
13474	4.4358	4.4545	0.	0.35668
13475	4.4358	4.5455	5.e-002	-3.5552e-004
13476	4.7127	4.5455	0.	-4.4596
13477	4.6204	4.4545	0.	-9.5901
13478	4.6204	4.5455	5.e-002	-4.6666e-004
13479	4.8972	4.5455	0.	-4.1839
13480	4.8049	4.4545	0.	-3.8043
13481	4.8049	4.5455	5.e-002	-4.2729e-004
13482	5.0818	4.5455	0.	-4.5516
13483	4.9895	4.4545	0.	-5.3587
13484	4.9895	4.5455	5.e-002	-3.587e-004
13485	5.2664	4.5455	0.	-6.4997
13486	5.1741	4.4545	0.	-7.7511
13487	5.1741	4.5455	5.e-002	-4.2713e-004
13488	5.4509	4.5455	0.	-15.349
13489	5.3586	4.4545	0.	-22.89
13490	5.3586	4.5455	5.e-002	-5.1236e-004
13491	5.6355	4.5455	0.	-43.998
13492	5.5432	4.4545	0.	-63.342
13493	5.5432	4.5455	5.e-002	-3.6126e-004
13494	5.8201	4.5455	0.	-71.877
13495	5.7278	4.4545	0.	-95.781
13496	5.7278	4.5455	5.e-002	-2.7593e-004
13497	6.0046	4.5455	0.	-90.975
13498	5.9123	4.4545	0.	-116.34
13499	5.9123	4.5455	5.e-002	-2.5252e-004
13500	6.1892	4.5455	0.	-103.31
13501	6.0969	4.4545	0.	-128.6
13502	6.0969	4.5455	5.e-002	-2.2811e-004
13503	6.3738	4.5455	0.	-110.84
13504	6.2815	4.4545	0.	-135.23
13505	6.2815	4.5455	5.e-002	-1.5673e-004
13506	6.5583	4.5455	0.	-114.93
13507	6.466	4.4545	0.	-137.99
13508	6.466	4.5455	5.e-002	-1.335e-004
13509	6.7429	4.5455	0.	-116.46
13510	6.6506	4.4545	0.	-138.02
13511	6.6506	4.5455	5.e-002	-7.443e-005
13512	6.9275	4.5455	0.	-116.08
13513	6.8352	4.4545	0.	-136.07
13514	6.8352	4.5455	5.e-002	-9.1936e-005
13515	7.112	4.5455	0.	-114.23
13516	7.0198	4.4545	0.	-132.69
13517	7.0198	4.5455	5.e-002	-7.1193e-005
13518	7.2966	4.5455	0.	-111.27
13519	7.2043	4.4545	0.	-128.26
13520	7.2043	4.5455	5.e-002	-5.5111e-005
13521	7.4812	4.5455	0.	-107.47
13522	7.3889	4.4545	0.	-123.08
13523	7.3889	4.5455	5.e-002	-4.259e-005
13524	7.6657	4.5455	0.	-103.05
13525	7.5735	4.4545	0.	-117.37
13526	7.5735	4.5455	5.e-002	-2.0803e-005
13527	7.8503	4.5455	0.	-98.184
13528	7.758	4.4545	0.	-111.32
13529	7.758	4.5455	5.e-002	-1.9703e-005
13530	8.0349	4.5455	0.	-93.026
13531	7.9426	4.4545	0.	-105.07
13532	7.9426	4.5455	5.e-002	-1.1485e-005
13533	8.2194	4.5455	0.	-87.697
13534	8.1272	4.4545	0.	-98.739
13535	8.1272	4.5455	5.e-002	-9.3835e-006
13536	8.404	4.5455	0.	-82.296
13537	8.3117	4.4545	0.	-92.421
13538	8.3117	4.5455	5.e-002	-5.7199e-006
13539	8.5886	4.5455	0.	-76.903
13540	8.4963	4.4545	0.	-86.191
13541	8.4963	4.5455	5.e-002	-4.7286e-006
13542	8.7731	4.5455	0.	-71.582
13543	8.6809	4.4545	0.	-80.104
13544	8.6809	4.5455	5.e-002	-5.9417e-006
13545	8.9577	4.5455	0.	-66.382
13546	8.8654	4.4545	0.	-74.205
13547	8.8654	4.5455	5.e-002	-3.993e-006
13548	9.1423	4.5455	0.	-61.341
13549	9.05	4.4545	0.	-68.526
13550	9.05	4.5455	5.e-002	-1.7908e-006
13551	9.3269	4.5455	0.	-56.487
13552	9.2346	4.4545	0.	-63.088
13553	9.2346	4.5455	5.e-002	-1.563e-006
13554	9.5114	4.5455	0.	-51.838
13555	9.4191	4.4545	0.	-57.906
13556	9.4191	4.5455	5.e-002	-1.4347e-006
13557	9.696	4.5455	0.	-47.408
13558	9.6037	4.4545	0.	-52.987
13559	9.6037	4.5455	5.e-002	-5.5604e-007
13560	9.8806	4.5455	0.	-43.202
13561	9.7883	4.4545	0.	-48.335
13562	9.7883	4.5455	5.e-002	-9.5083e-007
13563	10.065	4.5455	0.	-39.222
13564	9.9728	4.4545	0.	-43.947
13565	9.9728	4.5455	5.e-002	-1.7396e-006
13566	10.25	4.5455	0.	-35.468
13567	10.157	4.4545	0.	-39.818
13568	10.157	4.5455	5.e-002	-1.2068e-006
13569	10.434	4.5455	0.	-31.935
13570	10.342	4.4545	0.	-35.942
13571	10.342	4.5455	5.e-002	-7.5187e-007
13572	10.619	4.5455	0.	-28.617
13573	10.527	4.4545	0.	-32.31
13574	10.527	4.5455	5.e-002	-3.6061e-007
13575	10.803	4.5455	0.	-25.505
13576	10.711	4.4545	0.	-28.911
13577	10.711	4.5455	5.e-002	-2.5943e-007
13578	10.988	4.5455	0.	-22.593
13579	10.896	4.4545	0.	-25.733
13580	10.896	4.5455	5.e-002	2.7383e-007
13581	11.173	4.5455	0.	-19.868
13582	11.08	4.4545	0.	-22.767
13583	11.08	4.5455	5.e-002	-7.9593e-008
13584	11.357	4.5455	0.	-17.322
13585	11.265	4.4545	0.	-19.998
13586	11.265	4.5455	5.e-002	3.893e-009
13587	11.542	4.5455	0.	-14.945
13588	11.449	4.4545	0.	-17.417
13589	11.449	4.5455	5.e-002	8.4588e-007
13590	11.726	4.5455	0.	-12.726
13591	11.634	4.4545	0.	-15.01
13592	11.634	4.5455	5.e-002	6.4907e-007
13593	11.911	4.5455	0.	-10.655
13594	11.819	4.4545	0.	-12.767
13595	11.819	4.5455	5.e-002	7.8224e-007
13596	12.095	4.5455	0.	-8.7218
13597	12.003	4.4545	0.	-10.676
13598	12.003	4.5455	5.e-002	2.1969e-007
13599	12.28	4.5455	0.	-6.9173
13600	12.188	4.4545	0.	-8.726
13601	12.188	4.5455	5.e-002	9.9073e-007
13602	12.465	4.5455	0.	-5.2322
13603	12.372	4.4545	0.	-6.9073
13604	12.372	4.5455	5.e-002	3.9089e-007
13605	12.649	4.5455	0.	-3.6579
13606	12.557	4.4545	0.	-5.21
13607	12.557	4.5455	5.e-002	6.2917e-007
13608	12.834	4.5455	0.	-2.1872
13609	12.741	4.4545	0.	-3.625
13610	12.741	4.5455	5.e-002	7.753e-007
13611	13.018	4.5455	0.	-0.8213
13612	12.926	4.4545	0.	-2.1447
13613	12.926	4.5455	5.e-002	4.4442e-007
13614	13.203	4.5455	0.	-3.3883e-002
13615	13.11	4.4545	0.	-0.77045
13616	13.11	4.5455	5.e-002	7.9632e-007
13617	13.387	4.5455	0.	-7.9928e-003
13618	13.295	4.4545	0.	-2.8249e-002
13619	13.295	4.5455	5.e-002	1.7587e-006
13620	13.572	4.5455	0.	-3.3511e-003
13621	13.48	4.4545	0.	-6.584e-003
13622	13.48	4.5455	5.e-002	2.5421e-006
13623	13.756	4.5455	0.	-1.4057e-003
13624	13.664	4.4545	0.	-2.393e-003
13625	13.664	4.5455	5.e-002	2.8135e-006
13626	13.941	4.5455	0.	-3.3435e-004
13627	13.849	4.4545	0.	-6.1049e-004
13628	13.849	4.5455	5.e-002	2.1496e-006
13629	14.126	4.5455	0.	3.651e-004
13630	14.033	4.4545	0.	3.9128e-004
13631	14.033	4.5455	5.e-002	3.486e-006
13632	14.31	4.5455	0.	8.7203e-004
13633	14.218	4.4545	0.	1.0705e-003
13634	14.218	4.5455	5.e-002	3.9933e-006
13635	14.495	4.5455	0.	1.2484e-003
13636	14.402	4.4545	0.	1.5604e-003
13637	14.402	4.5455	5.e-002	4.3097e-006
13638	14.679	4.5455	0.	1.5515e-003
13639	14.587	4.4545	0.	1.9208e-003
13640	14.587	4.5455	5.e-002	4.1051e-006
13641	14.864	4.5455	0.	1.8222e-003
13642	14.772	4.4545	0.	2.2382e-003
13643	14.772	4.5455	5.e-002	3.3393e-006
13644	15.048	4.5455	0.	2.0614e-003
13645	14.956	4.4545	0.	2.5191e-003
13646	14.956	4.5455	5.e-002	3.0342e-006
13647	15.233	4.5455	0.	2.2701e-003
13648	15.141	4.4545	0.	2.7623e-003
13649	15.141	4.5455	5.e-002	2.7897e-006
13650	15.418	4.5455	0.	2.4629e-003
13651	15.325	4.4545	0.	2.9781e-003
13652	15.325	4.5455	5.e-002	3.8154e-006
13653	15.602	4.5455	0.	2.6601e-003
13654	15.51	4.4545	0.	3.1867e-003
13655	15.51	4.5455	5.e-002	2.6908e-006
13656	15.787	4.5455	0.	2.8516e-003
13657	15.694	4.4545	0.	3.4099e-003
13658	15.694	4.5455	5.e-002	3.4065e-006
13659	15.971	4.5455	0.	3.0278e-003
13660	15.879	4.4545	0.	3.607e-003
13661	15.879	4.5455	5.e-002	2.5549e-006
13662	16.156	4.5455	0.	3.211e-003
13663	16.064	4.4545	0.	3.7981e-003
13664	16.064	4.5455	5.e-002	4.3577e-006
13665	16.34	4.5455	0.	3.4018e-003
13666	16.248	4.4545	0.	4.0085e-003
13667	16.248	4.5455	5.e-002	4.9631e-006
13668	16.525	4.5455	0.	3.5834e-003
13669	16.433	4.4545	0.	4.2155e-003
13670	16.433	4.5455	5.e-002	5.6328e-006
13671	16.71	4.5455	0.	3.7716e-003
13672	16.617	4.4545	0.	4.4091e-003
13673	16.617	4.5455	5.e-002	5.4427e-006
13674	16.894	4.5455	0.	3.9776e-003
13675	16.802	4.4545	0.	4.6303e-003
13676	16.802	4.5455	5.e-002	6.2414e-006
13677	17.079	4.5455	0.	4.1936e-003
13678	16.986	4.4545	0.	4.8619e-003
13679	16.986	4.5455	5.e-002	5.2174e-006
13680	17.263	4.5455	0.	4.4207e-003
13681	17.171	4.4545	0.	5.1047e-003
13682	17.171	4.5455	5.e-002	4.4697e-006
13683	17.448	4.5455	0.	4.6502e-003
13684	17.356	4.4545	0.	5.3576e-003
13685	17.356	4.5455	5.e-002	1.9501e-006
13686	17.632	4.5455	0.	4.8923e-003
13687	17.54	4.4545	0.	5.608e-003
13688	17.54	4.5455	5.e-002	1.7209e-006
13689	17.817	4.5455	0.	5.1617e-003
13690	17.725	4.4545	0.	5.8894e-003
13691	17.725	4.5455	5.e-002	4.4543e-006
13692	18.002	4.5455	0.	5.449e-003
13693	17.909	4.4545	0.	6.1954e-003
13694	17.909	4.5455	5.e-002	3.6992e-006
13695	18.186	4.5455	0.	5.7503e-003
13696	18.094	4.4545	0.	6.5152e-003
13697	18.094	4.5455	5.e-002	6.6883e-006
13698	18.371	4.5455	0.	6.0743e-003
13699	18.278	4.4545	0.	6.8521e-003
13700	18.278	4.5455	5.e-002	5.7119e-006
13701	18.555	4.5455	0.	6.4325e-003
13702	18.463	4.4545	0.	7.2196e-003
13703	18.463	4.5455	5.e-002	5.3695e-006
13704	18.74	4.5455	0.	6.8198e-003
13705	18.648	4.4545	0.	7.6275e-003
13706	18.648	4.5455	5.e-002	6.3637e-006
13707	18.924	4.5455	0.	7.2317e-003
13708	18.832	4.4545	0.	8.0582e-003
13709	18.832	4.5455	5.e-002	5.0319e-006
13710	19.109	4.5455	0.	7.6834e-003
13711	19.017	4.4545	0.	8.5186e-003
13712	19.017	4.5455	5.e-002	4.7696e-006
13713	19.294	4.5455	0.	8.1798e-003
13714	19.201	4.4545	0.	9.0331e-003
13715	19.201	4.5455	5.e-002	7.2522e-006
13716	19.478	4.5455	0.	8.7171e-003
13717	19.386	4.4545	0.	9.5884e-003
13718	19.386	4.5455	5.e-002	5.9503e-006
13719	19.663	4.5455	0.	9.3113e-003
13720	19.57	4.4545	0.	1.019e-002
13721	19.57	4.5455	5.e-002	6.1631e-006
13722	19.847	4.5455	0.	9.9756e-003
13723	19.755	4.4545	0.	1.0862e-002
13724	19.755	4.5455	5.e-002	7.1819e-006
13725	20.032	4.5455	0.	1.071e-002
13726	19.94	4.4545	0.	1.1608e-002
13727	19.94	4.5455	5.e-002	6.7727e-006
13728	20.216	4.5455	0.	1.1528e-002
13729	20.124	4.4545	0.	1.2432e-002
13730	20.124	4.5455	5.e-002	4.4933e-006
13731	20.401	4.5455	0.	1.2449e-002
13732	20.309	4.4545	0.	1.335e-002
13733	20.309	4.5455	5.e-002	8.688e-006
13734	20.585	4.5455	0.	1.3492e-002
13735	20.493	4.4545	0.	1.4383e-002
13736	20.493	4.5455	5.e-002	1.1267e-005
13737	20.77	4.5455	0.	1.4678e-002
13738	20.678	4.4545	0.	1.5554e-002
13739	20.678	4.5455	5.e-002	8.44e-006
13740	20.955	4.5455	0.	1.6029e-002
13741	20.862	4.4545	0.	1.688e-002
13742	20.862	4.5455	5.e-002	9.671e-006
13743	21.139	4.5455	0.	1.7588e-002
13744	21.047	4.4545	0.	1.8392e-002
13745	21.047	4.5455	5.e-002	1.0303e-005
13746	21.324	4.5455	0.	1.9403e-002
13747	21.231	4.4545	0.	2.0142e-002
13748	21.231	4.5455	5.e-002	9.5879e-006
13749	21.508	4.5455	0.	2.1526e-002
13750	21.416	4.4545	0.	2.2177e-002
13751	21.416	4.5455	5.e-002	1.206e-005
13752	21.693	4.5455	0.	2.4039e-002
13753	21.601	4.4545	0.	2.4554e-002
13754	21.601	4.5455	5.e-002	8.8018e-006
13755	21.877	4.5455	0.	2.7056e-002
13756	21.785	4.4545	0.	2.7383e-002
13757	21.785	4.5455	5.e-002	7.8232e-006
13758	22.062	4.5455	0.	3.0716e-002
13759	21.97	4.4545	0.	3.0781e-002
13760	21.97	4.5455	5.e-002	6.8793e-006
13761	22.247	4.5455	0.	3.5215e-002
13762	22.154	4.4545	0.	3.4914e-002
13763	22.154	4.5455	5.e-002	6.2465e-006
13764	22.431	4.5455	0.	4.0867e-002
13765	22.339	4.4545	0.	4.002e-002
13766	22.339	4.5455	5.e-002	7.5524e-006
13767	22.616	4.5455	0.	4.8063e-002
13768	22.523	4.4545	0.	4.6502e-002
13769	22.523	4.5455	5.e-002	1.2814e-005
13770	22.8	4.5455	0.	5.7767e-002
13771	22.708	4.4545	0.	5.478e-002
13772	22.708	4.5455	5.e-002	6.2382e-006
13773	22.985	4.5455	0.	7.0322e-002
13774	22.893	4.4545	0.	6.6435e-002
13775	22.893	4.5455	5.e-002	9.3135e-006
13776	23.169	4.5455	0.	9.1789e-002
13777	23.077	4.4545	0.	8.0736e-002
13778	23.077	4.5455	5.e-002	8.4671e-006
13779	23.354	4.5455	0.	0.11287
13780	23.262	4.4545	0.	0.11099
13781	23.262	4.5455	5.e-002	1.1348e-005
13782	23.539	4.5455	0.	0.20499
13783	23.446	4.4545	0.	0.12653
13784	23.446	4.5455	5.e-002	1.3485e-005
13785	23.723	4.5455	0.	0.18817
13786	23.631	4.4545	0.	0.3068
13787	23.631	4.5455	5.e-002	1.1045e-005
13788	23.815	4.4545	0.	0.15824
13789	23.815	4.5455	5.e-002	1.3483e-005
13790	23.908	4.5455	0.	0.41402
13791	4.3435	4.3636	0.	8.8771
13792	4.2512	4.2727	0.	-87.991
13793	4.2512	4.3636	5.e-002	-4.6083e-004
13794	4.159	4.3636	0.	86.439
13795	4.5281	4.3636	0.	-5.7563
13796	4.4358	4.2727	0.	8.0353
13797	4.4358	4.3636	5.e-002	-6.7431e-004
13798	4.7127	4.3636	0.	-8.8493
13799	4.6204	4.2727	0.	-12.211
13800	4.6204	4.3636	5.e-002	-6.8727e-004
13801	4.8972	4.3636	0.	-4.9136
13802	4.8049	4.2727	0.	-4.848
13803	4.8049	4.3636	5.e-002	-5.7452e-004
13804	5.0818	4.3636	0.	-8.4379
13805	4.9895	4.2727	0.	-9.6181
13806	4.9895	4.3636	5.e-002	-4.9233e-004
13807	5.2664	4.3636	0.	-26.242
13808	5.1741	4.2727	0.	-35.606
13809	5.1741	4.3636	5.e-002	-4.3536e-004
13810	5.4509	4.3636	0.	-78.14
13811	5.3586	4.2727	0.	-100.91
13812	5.3586	4.3636	5.e-002	-2.8863e-004
13813	5.6355	4.3636	0.	-117.63
13814	5.5432	4.2727	0.	-146.02
13815	5.5432	4.3636	5.e-002	-2.7162e-004
13816	5.8201	4.3636	0.	-141.36
13817	5.7278	4.2727	0.	-171.9
13818	5.7278	4.3636	5.e-002	-3.0519e-004
13819	6.0046	4.3636	0.	-154.54
13820	5.9123	4.2727	0.	-185.27
13821	5.9123	4.3636	5.e-002	-2.3255e-004
13822	6.1892	4.3636	0.	-160.81
13823	6.0969	4.2727	0.	-190.63
13824	6.0969	4.3636	5.e-002	-1.31e-004
13825	6.3738	4.3636	0.	-162.52
13826	6.2815	4.2727	0.	-190.8
13827	6.2815	4.3636	5.e-002	-1.1575e-004
13828	6.5583	4.3636	0.	-161.15
13829	6.466	4.2727	0.	-187.58
13830	6.466	4.3636	5.e-002	-1.0313e-004
13831	6.7429	4.3636	0.	-157.66
13832	6.6506	4.2727	0.	-182.13
13833	6.6506	4.3636	5.e-002	-8.8764e-005
13834	6.9275	4.3636	0.	-152.69
13835	6.8352	4.2727	0.	-175.2
13836	6.8352	4.3636	5.e-002	-2.2532e-005
13837	7.112	4.3636	0.	-146.72
13838	7.0198	4.2727	0.	-167.33
13839	7.0198	4.3636	5.e-002	-6.1193e-005
13840	7.2966	4.3636	0.	-140.06
13841	7.2043	4.2727	0.	-158.89
13842	7.2043	4.3636	5.e-002	-5.0436e-005
13843	7.4812	4.3636	0.	-132.97
13844	7.3889	4.2727	0.	-150.13
13845	7.3889	4.3636	5.e-002	-1.0917e-005
13846	7.6657	4.3636	0.	-125.63
13847	7.5735	4.2727	0.	-141.26
13848	7.5735	4.3636	5.e-002	-1.7686e-005
13849	7.8503	4.3636	0.	-118.2
13850	7.758	4.2727	0.	-132.41
13851	7.758	4.3636	5.e-002	-1.3321e-005
13852	8.0349	4.3636	0.	-110.77
13853	7.9426	4.2727	0.	-123.71
13854	7.9426	4.3636	5.e-002	-4.4658e-006
13855	8.2194	4.3636	0.	-103.45
13856	8.1272	4.2727	0.	-115.23
13857	8.1272	4.3636	5.e-002	-7.7963e-006
13858	8.404	4.3636	0.	-96.308
13859	8.3117	4.2727	0.	-107.04
13860	8.3117	4.3636	5.e-002	-5.3089e-006
13861	8.5886	4.3636	0.	-89.384
13862	8.4963	4.2727	0.	-99.159
13863	8.4963	4.3636	5.e-002	-2.6789e-006
13864	8.7731	4.3636	0.	-82.719
13865	8.6809	4.2727	0.	-91.633
13866	8.6809	4.3636	5.e-002	-2.4765e-006
13867	8.9577	4.3636	0.	-76.341
13868	8.8654	4.2727	0.	-84.475
13869	8.8654	4.3636	5.e-002	-2.3681e-006
13870	9.1423	4.3636	0.	-70.264
13871	9.05	4.2727	0.	-77.693
13872	9.05	4.3636	5.e-002	-1.0679e-006
13873	9.3269	4.3636	0.	-64.497
13874	9.2346	4.2727	0.	-71.288
13875	9.2346	4.3636	5.e-002	-2.2639e-006
13876	9.5114	4.3636	0.	-59.045
13877	9.4191	4.2727	0.	-65.257
13878	9.4191	4.3636	5.e-002	-1.1679e-007
13879	9.696	4.3636	0.	-53.904
13880	9.6037	4.2727	0.	-59.592
13881	9.6037	4.3636	5.e-002	-1.1663e-006
13882	9.8806	4.3636	0.	-49.068
13883	9.7883	4.2727	0.	-54.281
13884	9.7883	4.3636	5.e-002	-5.0212e-007
13885	10.065	4.3636	0.	-44.531
13886	9.9728	4.2727	0.	-49.312
13887	9.9728	4.3636	5.e-002	-3.368e-007
13888	10.25	4.3636	0.	-40.28
13889	10.157	4.2727	0.	-44.668
13890	10.157	4.3636	5.e-002	-7.4546e-007
13891	10.434	4.3636	0.	-36.304
13892	10.342	4.2727	0.	-40.334
13893	10.342	4.3636	5.e-002	-6.4059e-007
13894	10.619	4.3636	0.	-32.59
13895	10.527	4.2727	0.	-36.295
13896	10.527	4.3636	5.e-002	2.1558e-007
13897	10.803	4.3636	0.	-29.124
13898	10.711	4.2727	0.	-32.531
13899	10.711	4.3636	5.e-002	3.5404e-007
13900	10.988	4.3636	0.	-25.892
13901	10.896	4.2727	0.	-29.029
13902	10.896	4.3636	5.e-002	6.5361e-007
13903	11.173	4.3636	0.	-22.88
13904	11.08	4.2727	0.	-25.77
13905	11.08	4.3636	5.e-002	3.6725e-007
13906	11.357	4.3636	0.	-20.076
13907	11.265	4.2727	0.	-22.739
13908	11.265	4.3636	5.e-002	6.9164e-007
13909	11.542	4.3636	0.	-17.464
13910	11.449	4.2727	0.	-19.92
13911	11.449	4.3636	5.e-002	1.1696e-006
13912	11.726	4.3636	0.	-15.033
13913	11.634	4.2727	0.	-17.3
13914	11.634	4.3636	5.e-002	1.2983e-006
13915	11.911	4.3636	0.	-12.769
13916	11.819	4.2727	0.	-14.863
13917	11.819	4.3636	5.e-002	1.4038e-006
13918	12.095	4.3636	0.	-10.66
13919	12.003	4.2727	0.	-12.595
13920	12.003	4.3636	5.e-002	4.5513e-007
13921	12.28	4.3636	0.	-8.6956
13922	12.188	4.2727	0.	-10.486
13923	12.188	4.3636	5.e-002	1.4258e-006
13924	12.465	4.3636	0.	-6.8642
13925	12.372	4.2727	0.	-8.521
13926	12.372	4.3636	5.e-002	1.0731e-006
13927	12.649	4.3636	0.	-5.1557
13928	12.557	4.2727	0.	-6.6904
13929	12.557	4.3636	5.e-002	1.047e-006
13930	12.834	4.3636	0.	-3.5605
13931	12.741	4.2727	0.	-4.9829
13932	12.741	4.3636	5.e-002	1.2722e-006
13933	13.018	4.3636	0.	-2.0707
13934	12.926	4.2727	0.	-3.389
13935	12.926	4.3636	5.e-002	9.7996e-007
13936	13.203	4.3636	0.	-0.68886
13937	13.11	4.2727	0.	-1.9004
13938	13.11	4.3636	5.e-002	1.1025e-006
13939	13.387	4.3636	0.	-2.1806e-002
13940	13.295	4.2727	0.	-0.5243
13941	13.295	4.3636	5.e-002	2.272e-006
13942	13.572	4.3636	0.	-4.932e-003
13943	13.48	4.2727	0.	-1.4611e-002
13944	13.48	4.3636	5.e-002	2.9188e-006
13945	13.756	4.3636	0.	-1.3297e-003
13946	13.664	4.2727	0.	-3.0851e-003
13947	13.664	4.3636	5.e-002	3.3938e-006
13948	13.941	4.3636	0.	2.5537e-004
13949	13.849	4.2727	0.	-1.9288e-004
13950	13.849	4.3636	5.e-002	2.8236e-006
13951	14.126	4.3636	0.	1.1801e-003
13952	14.033	4.2727	0.	1.1538e-003
13953	14.033	4.3636	5.e-002	4.1396e-006
13954	14.31	4.3636	0.	1.8111e-003
13955	14.218	4.2727	0.	1.9829e-003
13956	14.218	4.3636	5.e-002	4.4374e-006
13957	14.495	4.3636	0.	2.2656e-003
13958	14.402	4.2727	0.	2.5534e-003
13959	14.402	4.3636	5.e-002	4.8447e-006
13960	14.679	4.3636	0.	2.627e-003
13961	14.587	4.2727	0.	2.9648e-003
13962	14.587	4.3636	5.e-002	4.4062e-006
13963	14.864	4.3636	0.	2.9448e-003
13964	14.772	4.2727	0.	3.3221e-003
13965	14.772	4.3636	5.e-002	4.0771e-006
13966	15.048	4.3636	0.	3.2222e-003
13967	14.956	4.2727	0.	3.6339e-003
13968	14.956	4.3636	5.e-002	3.7609e-006
13969	15.233	4.3636	0.	3.4665e-003
13970	15.141	4.2727	0.	3.9057e-003
13971	15.141	4.3636	5.e-002	3.2459e-006
13972	15.418	4.3636	0.	3.6929e-003
13973	15.325	4.2727	0.	4.1482e-003
13974	15.325	4.3636	5.e-002	4.2934e-006
13975	15.602	4.3636	0.	3.9231e-003
13976	15.51	4.2727	0.	4.3833e-003
13977	15.51	4.3636	5.e-002	3.0899e-006
13978	15.787	4.3636	0.	4.148e-003
13979	15.694	4.2727	0.	4.6324e-003
13980	15.694	4.3636	5.e-002	3.586e-006
13981	15.971	4.3636	0.	4.3563e-003
13982	15.879	4.2727	0.	4.8559e-003
13983	15.879	4.3636	5.e-002	3.1988e-006
13984	16.156	4.3636	0.	4.5713e-003
13985	16.064	4.2727	0.	5.0743e-003
13986	16.064	4.3636	5.e-002	4.7061e-006
13987	16.34	4.3636	0.	4.7948e-003
13988	16.248	4.2727	0.	5.3111e-003
13989	16.248	4.3636	5.e-002	5.7047e-006
13990	16.525	4.3636	0.	5.0106e-003
13991	16.433	4.2727	0.	5.5469e-003
13992	16.433	4.3636	5.e-002	5.986e-006
13993	16.71	4.3636	0.	5.2342e-003
13994	16.617	4.2727	0.	5.7709e-003
13995	16.617	4.3636	5.e-002	6.7774e-006
13996	16.894	4.3636	0.	5.478e-003
13997	16.802	4.2727	0.	6.0221e-003
13998	16.802	4.3636	5.e-002	6.8593e-006
13999	17.079	4.3636	0.	5.7334e-003
14000	16.986	4.2727	0.	6.2865e-003
14001	16.986	4.3636	5.e-002	5.9644e-006
14002	17.263	4.3636	0.	5.9989e-003
14003	17.171	4.2727	0.	6.5622e-003
14004	17.171	4.3636	5.e-002	6.2481e-006
14005	17.448	4.3636	0.	6.2695e-003
14006	17.356	4.2727	0.	6.8498e-003
14007	17.356	4.3636	5.e-002	2.7211e-006
14008	17.632	4.3636	0.	6.5558e-003
14009	17.54	4.2727	0.	7.1369e-003
14010	17.54	4.3636	5.e-002	2.5481e-006
14011	17.817	4.3636	0.	6.8704e-003
14012	17.725	4.2727	0.	7.4575e-003
14013	17.725	4.3636	5.e-002	5.2774e-006
14014	18.002	4.3636	0.	7.2051e-003
14015	17.909	4.2727	0.	7.8027e-003
14016	17.909	4.3636	5.e-002	4.6117e-006
14017	18.186	4.3636	0.	7.5567e-003
14018	18.094	4.2727	0.	8.1649e-003
14019	18.094	4.3636	5.e-002	8.036e-006
14020	18.371	4.3636	0.	7.9331e-003
14021	18.278	4.2727	0.	8.5471e-003
14022	18.278	4.3636	5.e-002	6.5749e-006
14023	18.555	4.3636	0.	8.3459e-003
14024	18.463	4.2727	0.	8.9609e-003
14025	18.463	4.3636	5.e-002	5.825e-006
14026	18.74	4.3636	0.	8.7924e-003
14027	18.648	4.2727	0.	9.4189e-003
14028	18.648	4.3636	5.e-002	7.0626e-006
14029	18.924	4.3636	0.	9.2666e-003
14030	18.832	4.2727	0.	9.902e-003
14031	18.832	4.3636	5.e-002	5.8013e-006
14032	19.109	4.3636	0.	9.7843e-003
14033	19.017	4.2727	0.	1.0416e-002
14034	19.017	4.3636	5.e-002	5.4632e-006
14035	19.294	4.3636	0.	1.0352e-002
14036	19.201	4.2727	0.	1.099e-002
14037	19.201	4.3636	5.e-002	8.3579e-006
14038	19.478	4.3636	0.	1.0965e-002
14039	19.386	4.2727	0.	1.1608e-002
14040	19.386	4.3636	5.e-002	6.4501e-006
14041	19.663	4.3636	0.	1.1637e-002
14042	19.57	4.2727	0.	1.2277e-002
14043	19.57	4.3636	5.e-002	7.8232e-006
14044	19.847	4.3636	0.	1.2383e-002
14045	19.755	4.2727	0.	1.3017e-002
14046	19.755	4.3636	5.e-002	7.0556e-006
14047	20.032	4.3636	0.	1.321e-002
14048	19.94	4.2727	0.	1.3838e-002
14049	19.94	4.3636	5.e-002	7.5794e-006
14050	20.216	4.3636	0.	1.4123e-002
14051	20.124	4.2727	0.	1.4741e-002
14052	20.124	4.3636	5.e-002	6.7281e-006
14053	20.401	4.3636	0.	1.5143e-002
14054	20.309	4.2727	0.	1.5741e-002
14055	20.309	4.3636	5.e-002	9.6521e-006
14056	20.585	4.3636	0.	1.6292e-002
14057	20.493	4.2727	0.	1.6862e-002
14058	20.493	4.3636	5.e-002	1.1754e-005
14059	20.77	4.3636	0.	1.7589e-002
14060	20.678	4.2727	0.	1.8127e-002
14061	20.678	4.3636	5.e-002	1.0348e-005
14062	20.955	4.3636	0.	1.906e-002
14063	20.862	4.2727	0.	1.9549e-002
14064	20.862	4.3636	5.e-002	1.1559e-005
14065	21.139	4.3636	0.	2.0744e-002
14066	21.047	4.2727	0.	2.1164e-002
14067	21.047	4.3636	5.e-002	1.1841e-005
14068	21.324	4.3636	0.	2.269e-002
14069	21.231	4.2727	0.	2.302e-002
14070	21.231	4.3636	5.e-002	1.0141e-005
14071	21.508	4.3636	0.	2.4952e-002
14072	21.416	4.2727	0.	2.5166e-002
14073	21.416	4.3636	5.e-002	1.2679e-005
14074	21.693	4.3636	0.	2.761e-002
14075	21.601	4.2727	0.	2.766e-002
14076	21.601	4.3636	5.e-002	9.8855e-006
14077	21.877	4.3636	0.	3.0775e-002
14078	21.785	4.2727	0.	3.0608e-002
14079	21.785	4.3636	5.e-002	1.005e-005
14080	22.062	4.3636	0.	3.4586e-002
14081	21.97	4.2727	0.	3.4125e-002
14082	21.97	4.3636	5.e-002	9.6043e-006
14083	22.247	4.3636	0.	3.9243e-002
14084	22.154	4.2727	0.	3.8385e-002
14085	22.154	4.3636	5.e-002	6.6128e-006
14086	22.431	4.3636	0.	4.5058e-002
14087	22.339	4.2727	0.	4.3619e-002
14088	22.339	4.3636	5.e-002	7.0888e-006
14089	22.616	4.3636	0.	5.2434e-002
14090	22.523	4.2727	0.	5.024e-002
14091	22.523	4.3636	5.e-002	1.3859e-005
14092	22.8	4.3636	0.	6.2347e-002
14093	22.708	4.2727	0.	5.8676e-002
14094	22.708	4.3636	5.e-002	7.6962e-006
14095	22.985	4.3636	0.	7.5163e-002
14096	22.893	4.2727	0.	7.0531e-002
14097	22.893	4.3636	5.e-002	9.2895e-006
14098	23.169	4.3636	0.	9.7024e-002
14099	23.077	4.2727	0.	8.5101e-002
14100	23.077	4.3636	5.e-002	1.044e-005
14101	23.354	4.3636	0.	0.11867
14102	23.262	4.2727	0.	0.1158
14103	23.262	4.3636	5.e-002	1.2606e-005
14104	23.539	4.3636	0.	0.21219
14105	23.446	4.2727	0.	0.13195
14106	23.446	4.3636	5.e-002	1.2555e-005
14107	23.723	4.3636	0.	0.19902
14108	23.631	4.2727	0.	0.31434
14109	23.631	4.3636	5.e-002	1.1221e-005
14110	23.815	4.2727	0.	0.17232
14111	23.815	4.3636	5.e-002	1.5772e-005
14112	23.908	4.3636	0.	0.41814
14113	4.3435	4.1818	0.	-89.368
14114	4.2512	4.0909	0.	-463.89
14115	4.2512	4.1818	5.e-002	-1.3918e-003
14116	4.159	4.1818	0.	-389.49
14117	4.5281	4.1818	0.	0.64285
14118	4.4358	4.0909	0.	53.883
14119	4.4358	4.1818	5.e-002	-8.9427e-004
14120	4.7127	4.1818	0.	-8.1638
14121	4.6204	4.0909	0.	-16.107
14122	4.6204	4.1818	5.e-002	-6.1933e-004
14123	4.8972	4.1818	0.	-9.3957
14124	4.8049	4.0909	0.	-7.2675
14125	4.8049	4.1818	5.e-002	-3.4806e-004
14126	5.0818	4.1818	0.	-38.012
14127	4.9895	4.0909	0.	-47.419
14128	4.9895	4.1818	5.e-002	-4.4523e-004
14129	5.2664	4.1818	0.	-117.39
14130	5.1741	4.0909	0.	-141.17
14131	5.1741	4.1818	5.e-002	-3.2352e-004
14132	5.4509	4.1818	0.	-171.55
14133	5.3586	4.0909	0.	-202.14
14134	5.3586	4.1818	5.e-002	-2.7683e-004
14135	5.6355	4.1818	0.	-201.75
14136	5.5432	4.0909	0.	-235.51
14137	5.5432	4.1818	5.e-002	-2.7408e-004
14138	5.8201	4.1818	0.	-216.63
14139	5.7278	4.0909	0.	-251.3
14140	5.7278	4.1818	5.e-002	-1.8342e-004
14141	6.0046	4.1818	0.	-221.81
14142	5.9123	4.0909	0.	-255.96
14143	5.9123	4.1818	5.e-002	-1.3869e-004
14144	6.1892	4.1818	0.	-220.86
14145	6.0969	4.0909	0.	-253.6
14146	6.0969	4.1818	5.e-002	-9.6256e-005
14147	6.3738	4.1818	0.	-215.98
14148	6.2815	4.0909	0.	-246.82
14149	6.2815	4.1818	5.e-002	-8.8543e-005
14150	6.5583	4.1818	0.	-208.62
14151	6.466	4.0909	0.	-237.29
14152	6.466	4.1818	5.e-002	-8.0877e-005
14153	6.7429	4.1818	0.	-199.7
14154	6.6506	4.0909	0.	-226.12
14155	6.6506	4.1818	5.e-002	-7.0779e-005
14156	6.9275	4.1818	0.	-189.85
14157	6.8352	4.0909	0.	-214.05
14158	6.8352	4.1818	5.e-002	-5.9739e-005
14159	7.112	4.1818	0.	-179.5
14160	7.0198	4.0909	0.	-201.57
14161	7.0198	4.1818	5.e-002	-3.6829e-005
14162	7.2966	4.1818	0.	-168.95
14163	7.2043	4.0909	0.	-189.01
14164	7.2043	4.1818	5.e-002	-2.6312e-005
14165	7.4812	4.1818	0.	-158.41
14166	7.3889	4.0909	0.	-176.61
14167	7.3889	4.1818	5.e-002	-3.2852e-005
14168	7.6657	4.1818	0.	-148.03
14169	7.5735	4.0909	0.	-164.53
14170	7.5735	4.1818	5.e-002	-1.1944e-005
14171	7.8503	4.1818	0.	-137.93
14172	7.758	4.0909	0.	-152.86
14173	7.758	4.1818	5.e-002	-9.6776e-006
14174	8.0349	4.1818	0.	-128.17
14175	7.9426	4.0909	0.	-141.69
14176	7.9426	4.1818	5.e-002	-7.2403e-006
14177	8.2194	4.1818	0.	-118.81
14178	8.1272	4.0909	0.	-131.06
14179	8.1272	4.1818	5.e-002	-4.9359e-006
14180	8.404	4.1818	0.	-109.88
14181	8.3117	4.0909	0.	-120.98
14182	8.3117	4.1818	5.e-002	-5.8944e-006
14183	8.5886	4.1818	0.	-101.4
14184	8.4963	4.0909	0.	-111.47
14185	8.4963	4.1818	5.e-002	-2.1161e-006
14186	8.7731	4.1818	0.	-93.381
14187	8.6809	4.0909	0.	-102.52
14188	8.6809	4.1818	5.e-002	-6.8042e-007
14189	8.9577	4.1818	0.	-85.82
14190	8.8654	4.0909	0.	-94.122
14191	8.8654	4.1818	5.e-002	-6.1628e-007
14192	9.1423	4.1818	0.	-78.71
14193	9.05	4.0909	0.	-86.261
14194	9.05	4.1818	5.e-002	-1.856e-006
14195	9.3269	4.1818	0.	-72.04
14196	9.2346	4.0909	0.	-78.916
14197	9.2346	4.1818	5.e-002	-6.9378e-007
14198	9.5114	4.1818	0.	-65.796
14199	9.4191	4.0909	0.	-72.064
14200	9.4191	4.1818	5.e-002	-1.218e-007
14201	9.696	4.1818	0.	-59.96
14202	9.6037	4.0909	0.	-65.68
14203	9.6037	4.1818	5.e-002	-1.0115e-006
14204	9.8806	4.1818	0.	-54.514
14205	9.7883	4.0909	0.	-59.739
14206	9.7883	4.1818	5.e-002	-2.0546e-007
14207	10.065	4.1818	0.	-49.438
14208	9.9728	4.0909	0.	-54.216
14209	9.9728	4.1818	5.e-002	-7.6103e-007
14210	10.25	4.1818	0.	-44.71
14211	10.157	4.0909	0.	-49.085
14212	10.157	4.1818	5.e-002	9.1796e-008
14213	10.434	4.1818	0.	-40.312
14214	10.342	4.0909	0.	-44.32
14215	10.342	4.1818	5.e-002	-9.8869e-007
14216	10.619	4.1818	0.	-36.223
14217	10.527	4.0909	0.	-39.899
14218	10.527	4.1818	5.e-002	2.3719e-007
14219	10.803	4.1818	0.	-32.422
14220	10.711	4.0909	0.	-35.797
14221	10.711	4.1818	5.e-002	6.2619e-007
14222	10.988	4.1818	0.	-28.891
14223	10.896	4.0909	0.	-31.993
14224	10.896	4.1818	5.e-002	1.1724e-006
14225	11.173	4.1818	0.	-25.612
14226	11.08	4.0909	0.	-28.465
14227	11.08	4.1818	5.e-002	4.1335e-007
14228	11.357	4.1818	0.	-22.567
14229	11.265	4.0909	0.	-25.192
14230	11.265	4.1818	5.e-002	3.2823e-007
14231	11.542	4.1818	0.	-19.739
14232	11.449	4.0909	0.	-22.157
14233	11.449	4.1818	5.e-002	9.7387e-007
14234	11.726	4.1818	0.	-17.112
14235	11.634	4.0909	0.	-19.342
14236	11.634	4.1818	5.e-002	1.1938e-006
14237	11.911	4.1818	0.	-14.671
14238	11.819	4.0909	0.	-16.728
14239	11.819	4.1818	5.e-002	1.0244e-006
14240	12.095	4.1818	0.	-12.401
14241	12.003	4.0909	0.	-14.302
14242	12.003	4.1818	5.e-002	2.4352e-007
14243	12.28	4.1818	0.	-10.291
14244	12.188	4.0909	0.	-12.048
14245	12.188	4.1818	5.e-002	9.7075e-007
14246	12.465	4.1818	0.	-8.3265
14247	12.372	4.0909	0.	-9.9518
14248	12.372	4.1818	5.e-002	8.8465e-007
14249	12.649	4.1818	0.	-6.4964
14250	12.557	4.0909	0.	-8.0014
14251	12.557	4.1818	5.e-002	9.3739e-007
14252	12.834	4.1818	0.	-4.7896
14253	12.741	4.0909	0.	-6.1845
14254	12.741	4.1818	5.e-002	8.9997e-007
14255	13.018	4.1818	0.	-3.1961
14256	12.926	4.0909	0.	-4.49
14257	12.926	4.1818	5.e-002	6.2876e-007
14258	13.203	4.1818	0.	-1.7079
14259	13.11	4.0909	0.	-2.9077
14260	13.11	4.1818	5.e-002	9.6701e-007
14261	13.387	4.1818	0.	-0.34252
14262	13.295	4.0909	0.	-1.4301
14263	13.295	4.1818	5.e-002	2.0142e-006
14264	13.572	4.1818	0.	-9.1309e-003
14265	13.48	4.0909	0.	-0.12729
14266	13.48	4.1818	5.e-002	2.8026e-006
14267	13.756	4.1818	0.	-1.3467e-003
14268	13.664	4.0909	0.	-4.6757e-003
14269	13.664	4.1818	5.e-002	3.182e-006
14270	13.941	4.1818	0.	9.2728e-004
14271	13.849	4.0909	0.	2.9215e-004
14272	13.849	4.1818	5.e-002	2.3823e-006
14273	14.126	4.1818	0.	2.0632e-003
14274	14.033	4.0909	0.	2.0059e-003
14275	14.033	4.1818	5.e-002	3.4316e-006
14276	14.31	4.1818	0.	2.7817e-003
14277	14.218	4.0909	0.	2.9411e-003
14278	14.218	4.1818	5.e-002	4.0169e-006
14279	14.495	4.1818	0.	3.2824e-003
14280	14.402	4.0909	0.	3.552e-003
14281	14.402	4.1818	5.e-002	4.3986e-006
14282	14.679	4.1818	0.	3.6735e-003
14283	14.587	4.0909	0.	3.9838e-003
14284	14.587	4.1818	5.e-002	4.0186e-006
14285	14.864	4.1818	0.	4.0139e-003
14286	14.772	4.0909	0.	4.3539e-003
14287	14.772	4.1818	5.e-002	3.2169e-006
14288	15.048	4.1818	0.	4.3122e-003
14289	14.956	4.0909	0.	4.6769e-003
14290	14.956	4.1818	5.e-002	3.0017e-006
14291	15.233	4.1818	0.	4.5762e-003
14292	15.141	4.0909	0.	4.9602e-003
14293	15.141	4.1818	5.e-002	2.3129e-006
14294	15.418	4.1818	0.	4.8226e-003
14295	15.325	4.0909	0.	5.2159e-003
14296	15.325	4.1818	5.e-002	3.6436e-006
14297	15.602	4.1818	0.	5.0725e-003
14298	15.51	4.0909	0.	5.4647e-003
14299	15.51	4.1818	5.e-002	2.5262e-006
14300	15.787	4.1818	0.	5.3168e-003
14301	15.694	4.0909	0.	5.7277e-003
14302	15.694	4.1818	5.e-002	3.1318e-006
14303	15.971	4.1818	0.	5.5473e-003
14304	15.879	4.0909	0.	5.9678e-003
14305	15.879	4.1818	5.e-002	2.4755e-006
14306	16.156	4.1818	0.	5.7845e-003
14307	16.064	4.0909	0.	6.2028e-003
14308	16.064	4.1818	5.e-002	4.0864e-006
14309	16.34	4.1818	0.	6.031e-003
14310	16.248	4.0909	0.	6.4577e-003
14311	16.248	4.1818	5.e-002	4.9642e-006
14312	16.525	4.1818	0.	6.2724e-003
14313	16.433	4.0909	0.	6.7137e-003
14314	16.433	4.1818	5.e-002	5.7212e-006
14315	16.71	4.1818	0.	6.5213e-003
14316	16.617	4.0909	0.	6.9579e-003
14317	16.617	4.1818	5.e-002	5.8831e-006
14318	16.894	4.1818	0.	6.7906e-003
14319	16.802	4.0909	0.	7.2308e-003
14320	16.802	4.1818	5.e-002	6.5307e-006
14321	17.079	4.1818	0.	7.0728e-003
14322	16.986	4.0909	0.	7.5181e-003
14323	16.986	4.1818	5.e-002	5.3484e-006
14324	17.263	4.1818	0.	7.368e-003
14325	17.171	4.0909	0.	7.817e-003
14326	17.171	4.1818	5.e-002	4.8968e-006
14327	17.448	4.1818	0.	7.6694e-003
14328	17.356	4.0909	0.	8.1308e-003
14329	17.356	4.1818	5.e-002	2.1273e-006
14330	17.632	4.1818	0.	7.988e-003
14331	17.54	4.0909	0.	8.4441e-003
14332	17.54	4.1818	5.e-002	1.7092e-006
14333	17.817	4.1818	0.	8.3365e-003
14334	17.725	4.0909	0.	8.794e-003
14335	17.725	4.1818	5.e-002	4.6722e-006
14336	18.002	4.1818	0.	8.7062e-003
14337	17.909	4.0909	0.	9.1675e-003
14338	17.909	4.1818	5.e-002	3.7947e-006
14339	18.186	4.1818	0.	9.0958e-003
14340	18.094	4.0909	0.	9.5615e-003
14341	18.094	4.1818	5.e-002	7.2029e-006
14342	18.371	4.1818	0.	9.512e-003
14343	18.278	4.0909	0.	9.9768e-003
14344	18.278	4.1818	5.e-002	6.0633e-006
14345	18.555	4.1818	0.	9.9674e-003
14346	18.463	4.0909	0.	1.0426e-002
14347	18.463	4.1818	5.e-002	5.4434e-006
14348	18.74	4.1818	0.	1.0458e-002
14349	18.648	4.0909	0.	1.0921e-002
14350	18.648	4.1818	5.e-002	6.2991e-006
14351	18.924	4.1818	0.	1.0977e-002
14352	18.832	4.0909	0.	1.1442e-002
14353	18.832	4.1818	5.e-002	5.4282e-006
14354	19.109	4.1818	0.	1.1544e-002
14355	19.017	4.0909	0.	1.1998e-002
14356	19.017	4.1818	5.e-002	5.0853e-006
14357	19.294	4.1818	0.	1.2163e-002
14358	19.201	4.0909	0.	1.2615e-002
14359	19.201	4.1818	5.e-002	7.3591e-006
14360	19.478	4.1818	0.	1.2831e-002
14361	19.386	4.0909	0.	1.3279e-002
14362	19.386	4.1818	5.e-002	5.6676e-006
14363	19.663	4.1818	0.	1.3562e-002
14364	19.57	4.0909	0.	1.3996e-002
14365	19.57	4.1818	5.e-002	6.6624e-006
14366	19.847	4.1818	0.	1.4371e-002
14367	19.755	4.0909	0.	1.4789e-002
14368	19.755	4.1818	5.e-002	6.5194e-006
14369	20.032	4.1818	0.	1.5261e-002
14370	19.94	4.0909	0.	1.5663e-002
14371	19.94	4.1818	5.e-002	7.4127e-006
14372	20.216	4.1818	0.	1.6242e-002
14373	20.124	4.0909	0.	1.6622e-002
14374	20.124	4.1818	5.e-002	5.6079e-006
14375	20.401	4.1818	0.	1.7334e-002
14376	20.309	4.0909	0.	1.7683e-002
14377	20.309	4.1818	5.e-002	8.1097e-006
14378	20.585	4.1818	0.	1.856e-002
14379	20.493	4.0909	0.	1.8865e-002
14380	20.493	4.1818	5.e-002	1.115e-005
14381	20.77	4.1818	0.	1.9939e-002
14382	20.678	4.0909	0.	2.0197e-002
14383	20.678	4.1818	5.e-002	8.8352e-006
14384	20.955	4.1818	0.	2.1492e-002
14385	20.862	4.0909	0.	2.1687e-002
14386	20.862	4.1818	5.e-002	9.1801e-006
14387	21.139	4.1818	0.	2.3262e-002
14388	21.047	4.0909	0.	2.3374e-002
14389	21.047	4.1818	5.e-002	1.0412e-005
14390	21.324	4.1818	0.	2.5297e-002
14391	21.231	4.0909	0.	2.5303e-002
14392	21.231	4.1818	5.e-002	8.748e-006
14393	21.508	4.1818	0.	2.7651e-002
14394	21.416	4.0909	0.	2.7524e-002
14395	21.416	4.1818	5.e-002	1.3047e-005
14396	21.693	4.1818	0.	3.0403e-002
14397	21.601	4.0909	0.	3.0094e-002
14398	21.601	4.1818	5.e-002	1.0463e-005
14399	21.877	4.1818	0.	3.3662e-002
14400	21.785	4.0909	0.	3.3119e-002
14401	21.785	4.1818	5.e-002	7.244e-006
14402	22.062	4.1818	0.	3.7571e-002
14403	21.97	4.0909	0.	3.6712e-002
14404	21.97	4.1818	5.e-002	7.8288e-006
14405	22.247	4.1818	0.	4.2328e-002
14406	22.154	4.0909	0.	4.1052e-002
14407	22.154	4.1818	5.e-002	6.7636e-006
14408	22.431	4.1818	0.	4.8249e-002
14409	22.339	4.0909	0.	4.6368e-002
14410	22.339	4.1818	5.e-002	7.1382e-006
14411	22.616	4.1818	0.	5.5743e-002
14412	22.523	4.0909	0.	5.3083e-002
14413	22.523	4.1818	5.e-002	1.3124e-005
14414	22.8	4.1818	0.	6.5805e-002
14415	22.708	4.0909	0.	6.1628e-002
14416	22.708	4.1818	5.e-002	6.9298e-006
14417	22.985	4.1818	0.	7.8823e-002
14418	22.893	4.0909	0.	7.3638e-002
14419	22.893	4.1818	5.e-002	1.0386e-005
14420	23.169	4.1818	0.	0.10099
14421	23.077	4.0909	0.	8.8418e-002
14422	23.077	4.1818	5.e-002	9.7145e-006
14423	23.354	4.1818	0.	0.12307
14424	23.262	4.0909	0.	0.11947
14425	23.262	4.1818	5.e-002	1.1768e-005
14426	23.539	4.1818	0.	0.21771
14427	23.446	4.0909	0.	0.1361
14428	23.446	4.1818	5.e-002	1.1542e-005
14429	23.723	4.1818	0.	0.20752
14430	23.631	4.0909	0.	0.32018
14431	23.631	4.1818	5.e-002	9.329e-006
14432	23.815	4.0909	0.	0.18359
14433	23.815	4.1818	5.e-002	1.2295e-005
14434	23.908	4.1818	0.	0.4212
14435	4.3435	4.	0.	-319.47
14436	4.2512	3.9091	0.	-313.53
14437	4.2512	4.	5.e-002	-1.0576e-003
14438	4.159	4.	0.	-562.74
14439	4.5281	4.	0.	36.931
14440	4.4358	3.9091	0.	71.37
14441	4.4358	4.	5.e-002	-2.9237e-004
14442	4.7127	4.	0.	-14.613
14443	4.6204	3.9091	0.	-18.015
14444	4.6204	4.	5.e-002	-2.9725e-004
14445	4.8972	4.	0.	-47.63
14446	4.8049	3.9091	0.	-43.66
14447	4.8049	4.	5.e-002	-3.3029e-004
14448	5.0818	4.	0.	-158.31
14449	4.9895	3.9091	0.	-173.84
14450	4.9895	4.	5.e-002	-2.4897e-004
14451	5.2664	4.	0.	-229.13
14452	5.1741	3.9091	0.	-254.68
14453	5.1741	4.	5.e-002	-2.1915e-004
14454	5.4509	4.	0.	-267.95
14455	5.3586	3.9091	0.	-299.58
14456	5.3586	4.	5.e-002	-2.0532e-004
14457	5.6355	4.	0.	-286.15
14458	5.5432	3.9091	0.	-320.81
14459	5.5432	4.	5.e-002	-1.5411e-004
14460	5.8201	4.	0.	-291.27
14461	5.7278	3.9091	0.	-326.88
14462	5.7278	4.	5.e-002	-1.8777e-004
14463	6.0046	4.	0.	-288.1
14464	5.9123	3.9091	0.	-323.24
14465	5.9123	4.	5.e-002	-9.8864e-005
14466	6.1892	4.	0.	-279.75
14467	6.0969	3.9091	0.	-313.49
14468	6.0969	4.	5.e-002	-7.6103e-005
14469	6.3738	4.	0.	-268.22
14470	6.2815	3.9091	0.	-300.03
14471	6.2815	4.	5.e-002	-7.0277e-005
14472	6.5583	4.	0.	-254.84
14473	6.466	3.9091	0.	-284.44
14474	6.466	4.	5.e-002	-4.4394e-005
14475	6.7429	4.	0.	-240.5
14476	6.6506	3.9091	0.	-267.77
14477	6.6506	4.	5.e-002	-3.8854e-005
14478	6.9275	4.	0.	-225.78
14479	6.8352	3.9091	0.	-250.73
14480	6.8352	4.	5.e-002	-3.2938e-005
14481	7.112	4.	0.	-211.08
14482	7.0198	3.9091	0.	-233.8
14483	7.0198	4.	5.e-002	-4.2415e-005
14484	7.2966	4.	0.	-196.67
14485	7.2043	3.9091	0.	-217.29
14486	7.2043	4.	5.e-002	-2.1251e-005
14487	7.4812	4.	0.	-182.73
14488	7.3889	3.9091	0.	-201.39
14489	7.3889	4.	5.e-002	-1.734e-005
14490	7.6657	4.	0.	-169.36
14491	7.5735	3.9091	0.	-186.22
14492	7.5735	4.	5.e-002	-9.7317e-006
14493	7.8503	4.	0.	-156.63
14494	7.758	3.9091	0.	-171.86
14495	7.758	4.	5.e-002	-6.937e-006
14496	8.0349	4.	0.	-144.58
14497	7.9426	3.9091	0.	-158.33
14498	7.9426	4.	5.e-002	-3.5877e-006
14499	8.2194	4.	0.	-133.23
14500	8.1272	3.9091	0.	-145.64
14501	8.1272	4.	5.e-002	-2.9736e-006
14502	8.404	4.	0.	-122.57
14503	8.3117	3.9091	0.	-133.78
14504	8.3117	4.	5.e-002	-1.4044e-006
14505	8.5886	4.	0.	-112.58
14506	8.4963	3.9091	0.	-122.72
14507	8.4963	4.	5.e-002	-1.2617e-006
14508	8.7731	4.	0.	-103.26
14509	8.6809	3.9091	0.	-112.43
14510	8.6809	4.	5.e-002	-1.7702e-006
14511	8.9577	4.	0.	-94.558
14512	8.8654	3.9091	0.	-102.87
14513	8.8654	4.	5.e-002	-1.0312e-006
14514	9.1423	4.	0.	-86.461
14515	9.05	3.9091	0.	-93.997
14516	9.05	4.	5.e-002	5.5335e-008
14517	9.3269	4.	0.	-78.932
14518	9.2346	3.9091	0.	-85.775
14519	9.2346	4.	5.e-002	-6.6377e-008
14520	9.5114	4.	0.	-71.939
14521	9.4191	3.9091	0.	-78.16
14522	9.4191	4.	5.e-002	1.7565e-006
14523	9.696	4.	0.	-65.45
14524	9.6037	3.9091	0.	-71.113
14525	9.6037	4.	5.e-002	3.019e-008
14526	9.8806	4.	0.	-59.431
14527	9.7883	3.9091	0.	-64.593
14528	9.7883	4.	5.e-002	-1.2466e-007
14529	10.065	4.	0.	-53.852
14530	9.9728	3.9091	0.	-58.562
14531	9.9728	4.	5.e-002	1.0592e-006
14532	10.25	4.	0.	-48.683
14533	10.157	3.9091	0.	-52.987
14534	10.157	4.	5.e-002	9.0452e-007
14535	10.434	4.	0.	-43.895
14536	10.342	3.9091	0.	-47.832
14537	10.342	4.	5.e-002	8.1439e-007
14538	10.619	4.	0.	-39.461
14539	10.527	3.9091	0.	-43.066
14540	10.527	4.	5.e-002	1.0083e-006
14541	10.803	4.	0.	-35.354
14542	10.711	3.9091	0.	-38.659
14543	10.711	4.	5.e-002	1.7359e-006
14544	10.988	4.	0.	-31.551
14545	10.896	3.9091	0.	-34.584
14546	10.896	4.	5.e-002	1.8653e-006
14547	11.173	4.	0.	-28.029
14548	11.08	3.9091	0.	-30.815
14549	11.08	4.	5.e-002	1.0557e-006
14550	11.357	4.	0.	-24.767
14551	11.265	3.9091	0.	-27.329
14552	11.265	4.	5.e-002	1.1948e-006
14553	11.542	4.	0.	-21.743
14554	11.449	3.9091	0.	-24.101
14555	11.449	4.	5.e-002	1.6284e-006
14556	11.726	4.	0.	-18.941
14557	11.634	3.9091	0.	-21.113
14558	11.634	4.	5.e-002	2.2374e-006
14559	11.911	4.	0.	-16.341
14560	11.819	3.9091	0.	-18.345
14561	11.819	4.	5.e-002	2.359e-006
14562	12.095	4.	0.	-13.929
14563	12.003	3.9091	0.	-15.778
14564	12.003	4.	5.e-002	1.6762e-006
14565	12.28	4.	0.	-11.689
14566	12.188	3.9091	0.	-13.397
14567	12.188	4.	5.e-002	2.0136e-006
14568	12.465	4.	0.	-9.6063
14569	12.372	3.9091	0.	-11.187
14570	12.372	4.	5.e-002	1.512e-006
14571	12.649	4.	0.	-7.6685
14572	12.557	3.9091	0.	-9.1318
14573	12.557	4.	5.e-002	2.0166e-006
14574	12.834	4.	0.	-5.8633
14575	12.741	3.9091	0.	-7.2196
14576	12.741	4.	5.e-002	1.8142e-006
14577	13.018	4.	0.	-4.1794
14578	12.926	3.9091	0.	-5.4378
14579	12.926	4.	5.e-002	1.8944e-006
14580	13.203	4.	0.	-2.6065
14581	13.11	3.9091	0.	-3.7752
14582	13.11	4.	5.e-002	1.9961e-006
14583	13.387	4.	0.	-1.1378
14584	13.295	3.9091	0.	-2.2217
14585	13.295	4.	5.e-002	3.1394e-006
14586	13.572	4.	0.	-3.2785e-002
14587	13.48	3.9091	0.	-0.77239
14588	13.48	4.	5.e-002	3.7167e-006
14589	13.756	4.	0.	-1.5147e-003
14590	13.664	3.9091	0.	-9.4492e-003
14591	13.664	4.	5.e-002	4.2869e-006
14592	13.941	4.	0.	1.7153e-003
14593	13.849	3.9091	0.	8.9692e-004
14594	13.849	4.	5.e-002	3.4794e-006
14595	14.126	4.	0.	3.0126e-003
14596	14.033	3.9091	0.	2.9558e-003
14597	14.033	4.	5.e-002	4.9118e-006
14598	14.31	4.	0.	3.7673e-003
14599	14.218	3.9091	0.	3.927e-003
14600	14.218	4.	5.e-002	4.9782e-006
14601	14.495	4.	0.	4.2762e-003
14602	14.402	3.9091	0.	4.5287e-003
14603	14.402	4.	5.e-002	5.531e-006
14604	14.679	4.	0.	4.669e-003
14605	14.587	3.9091	0.	4.948e-003
14606	14.587	4.	5.e-002	5.0646e-006
14607	14.864	4.	0.	5.0108e-003
14608	14.772	3.9091	0.	5.3071e-003
14609	14.772	4.	5.e-002	4.4618e-006
14610	15.048	4.	0.	5.3114e-003
14611	14.956	3.9091	0.	5.6236e-003
14612	14.956	4.	5.e-002	4.0331e-006
14613	15.233	4.	0.	5.581e-003
14614	15.141	3.9091	0.	5.9042e-003
14615	15.141	4.	5.e-002	3.413e-006
14616	15.418	4.	0.	5.8349e-003
14617	15.325	3.9091	0.	6.1612e-003
14618	15.325	4.	5.e-002	4.5897e-006
14619	15.602	4.	0.	6.0933e-003
14620	15.51	3.9091	0.	6.413e-003
14621	15.51	4.	5.e-002	3.6056e-006
14622	15.787	4.	0.	6.3492e-003
14623	15.694	3.9091	0.	6.6818e-003
14624	15.694	4.	5.e-002	4.1596e-006
14625	15.971	4.	0.	6.5914e-003
14626	15.879	3.9091	0.	6.9303e-003
14627	15.879	4.	5.e-002	4.1114e-006
14628	16.156	4.	0.	6.8416e-003
14629	16.064	3.9091	0.	7.1735e-003
14630	16.064	4.	5.e-002	5.58e-006
14631	16.34	4.	0.	7.1038e-003
14632	16.248	3.9091	0.	7.4399e-003
14633	16.248	4.	5.e-002	6.4552e-006
14634	16.525	4.	0.	7.3606e-003
14635	16.433	3.9091	0.	7.7073e-003
14636	16.433	4.	5.e-002	6.9662e-006
14637	16.71	4.	0.	7.6267e-003
14638	16.617	3.9091	0.	7.9652e-003
14639	16.617	4.	5.e-002	7.5056e-006
14640	16.894	4.	0.	7.9156e-003
14641	16.802	3.9091	0.	8.2532e-003
14642	16.802	4.	5.e-002	7.8039e-006
14643	17.079	4.	0.	8.2176e-003
14644	16.986	3.9091	0.	8.5564e-003
14645	16.986	4.	5.e-002	7.0918e-006
14646	17.263	4.	0.	8.5331e-003
14647	17.171	3.9091	0.	8.8723e-003
14648	17.171	4.	5.e-002	6.6916e-006
14649	17.448	4.	0.	8.8565e-003
14650	17.356	3.9091	0.	9.2029e-003
14651	17.356	4.	5.e-002	3.8981e-006
14652	17.632	4.	0.	9.1989e-003
14653	17.54	3.9091	0.	9.5359e-003
14654	17.54	4.	5.e-002	3.5054e-006
14655	17.817	4.	0.	9.5716e-003
14656	17.725	3.9091	0.	9.9071e-003
14657	17.725	4.	5.e-002	6.7001e-006
14658	18.002	4.	0.	9.967e-003
14659	17.909	3.9091	0.	1.0302e-002
14660	17.909	4.	5.e-002	5.3315e-006
14661	18.186	4.	0.	1.0384e-002
14662	18.094	3.9091	0.	1.0718e-002
14663	18.094	4.	5.e-002	9.2228e-006
14664	18.371	4.	0.	1.0829e-002
14665	18.278	3.9091	0.	1.1157e-002
14666	18.278	4.	5.e-002	7.5889e-006
14667	18.555	4.	0.	1.1315e-002
14668	18.463	3.9091	0.	1.1631e-002
14669	18.463	4.	5.e-002	6.9461e-006
14670	18.74	4.	0.	1.1837e-002
14671	18.648	3.9091	0.	1.2154e-002
14672	18.648	4.	5.e-002	7.5238e-006
14673	18.924	4.	0.	1.2392e-002
14674	18.832	3.9091	0.	1.2702e-002
14675	18.832	4.	5.e-002	6.9187e-006
14676	19.109	4.	0.	1.2996e-002
14677	19.017	3.9091	0.	1.3291e-002
14678	19.017	4.	5.e-002	6.574e-006
14679	19.294	4.	0.	1.3653e-002
14680	19.201	3.9091	0.	1.394e-002
14681	19.201	4.	5.e-002	9.3101e-006
14682	19.478	4.	0.	1.4361e-002
14683	19.386	3.9091	0.	1.4636e-002
14684	19.386	4.	5.e-002	7.9293e-006
14685	19.663	4.	0.	1.5134e-002
14686	19.57	3.9091	0.	1.5387e-002
14687	19.57	4.	5.e-002	8.4016e-006
14688	19.847	4.	0.	1.5988e-002
14689	19.755	3.9091	0.	1.6218e-002
14690	19.755	4.	5.e-002	7.6814e-006
14691	20.032	4.	0.	1.6925e-002
14692	19.94	3.9091	0.	1.7132e-002
14693	19.94	4.	5.e-002	8.6631e-006
14694	20.216	4.	0.	1.7957e-002
14695	20.124	3.9091	0.	1.8133e-002
14696	20.124	4.	5.e-002	6.7989e-006
14697	20.401	4.	0.	1.91e-002
14698	20.309	3.9091	0.	1.9236e-002
14699	20.309	4.	5.e-002	1.0284e-005
14700	20.585	4.	0.	2.038e-002
14701	20.493	3.9091	0.	2.0464e-002
14702	20.493	4.	5.e-002	1.2214e-005
14703	20.77	4.	0.	2.1813e-002
14704	20.678	3.9091	0.	2.1841e-002
14705	20.678	4.	5.e-002	1.089e-005
14706	20.955	4.	0.	2.3424e-002
14707	20.862	3.9091	0.	2.338e-002
14708	20.862	4.	5.e-002	1.1281e-005
14709	21.139	4.	0.	2.5255e-002
14710	21.047	3.9091	0.	2.5115e-002
14711	21.047	4.	5.e-002	1.1654e-005
14712	21.324	4.	0.	2.7351e-002
14713	21.231	3.9091	0.	2.7094e-002
14714	21.231	4.	5.e-002	1.045e-005
14715	21.508	4.	0.	2.9765e-002
14716	21.416	3.9091	0.	2.9364e-002
14717	21.416	4.	5.e-002	1.3228e-005
14718	21.693	4.	0.	3.2578e-002
14719	21.601	3.9091	0.	3.1982e-002
14720	21.601	4.	5.e-002	1.034e-005
14721	21.877	4.	0.	3.5898e-002
14722	21.785	3.9091	0.	3.5057e-002
14723	21.785	4.	5.e-002	1.0004e-005
14724	22.062	4.	0.	3.9867e-002
14725	21.97	3.9091	0.	3.8701e-002
14726	21.97	4.	5.e-002	1.0639e-005
14727	22.247	4.	0.	4.4688e-002
14728	22.154	3.9091	0.	4.3088e-002
14729	22.154	4.	5.e-002	8.6701e-006
14730	22.431	4.	0.	5.068e-002
14731	22.339	3.9091	0.	4.8463e-002
14732	22.339	4.	5.e-002	9.9421e-006
14733	22.616	4.	0.	5.8259e-002
14734	22.523	3.9091	0.	5.5239e-002
14735	22.523	4.	5.e-002	1.5839e-005
14736	22.8	4.	0.	6.8432e-002
14737	22.708	3.9091	0.	6.3871e-002
14738	22.708	4.	5.e-002	9.6814e-006
14739	22.985	4.	0.	8.1606e-002
14740	22.893	3.9091	0.	7.5993e-002
14741	22.893	4.	5.e-002	1.2019e-005
14742	23.169	4.	0.	0.10401
14743	23.077	3.9091	0.	9.0942e-002
14744	23.077	4.	5.e-002	1.2473e-005
14745	23.354	4.	0.	0.12644
14746	23.262	3.9091	0.	0.12227
14747	23.262	4.	5.e-002	1.438e-005
14748	23.539	4.	0.	0.22198
14749	23.446	3.9091	0.	0.13928
14750	23.446	4.	5.e-002	1.3204e-005
14751	23.723	4.	0.	0.2142
14752	23.631	3.9091	0.	0.3247
14753	23.631	4.	5.e-002	1.4685e-005
14754	23.815	3.9091	0.	0.19255
14755	23.815	4.	5.e-002	1.7668e-005
14756	23.908	4.	0.	0.42351
14757	4.3435	3.8182	0.	26.779
14758	4.2512	3.7273	0.	-9.3526
14759	4.2512	3.8182	5.e-002	-2.3305e-004
14760	4.5281	3.8182	0.	17.669
14761	4.4358	3.7273	0.	18.02
14762	4.4358	3.8182	5.e-002	-1.1107e-004
14763	4.7127	3.8182	0.	-29.903
14764	4.6204	3.7273	0.	-1.4825
14765	4.6204	3.8182	5.e-002	-1.6882e-004
14766	4.8972	3.8182	0.	-176.76
14767	4.8049	3.7273	0.	-154.38
14768	4.8049	3.8182	5.e-002	-9.5183e-005
14769	5.0818	3.8182	0.	-273.19
14770	4.9895	3.7273	0.	-275.06
14771	4.9895	3.8182	5.e-002	-1.2087e-004
14772	5.2664	3.8182	0.	-327.08
14773	5.1741	3.7273	0.	-344.06
14774	5.1741	3.8182	5.e-002	-1.0312e-004
14775	5.4509	3.8182	0.	-353.68
14776	5.3586	3.7273	0.	-379.82
14777	5.3586	3.8182	5.e-002	-1.1265e-004
14778	5.6355	3.8182	0.	-362.31
14779	5.5432	3.7273	0.	-393.42
14780	5.5432	3.8182	5.e-002	-8.1812e-005
14781	5.8201	3.8182	0.	-359.3
14782	5.7278	3.7273	0.	-392.59
14783	5.7278	3.8182	5.e-002	-1.1152e-004
14784	6.0046	3.8182	0.	-348.88
14785	5.9123	3.7273	0.	-382.49
14786	5.9123	3.8182	5.e-002	-9.3194e-005
14787	6.1892	3.8182	0.	-333.91
14788	6.0969	3.7273	0.	-366.65
14789	6.0969	3.8182	5.e-002	-7.9192e-005
14790	6.3738	3.8182	0.	-316.32
14791	6.2815	3.7273	0.	-347.45
14792	6.2815	3.8182	5.e-002	-5.6125e-005
14793	6.5583	3.8182	0.	-297.4
14794	6.466	3.7273	0.	-326.52
14795	6.466	3.8182	5.e-002	-4.8979e-005
14796	6.7429	3.8182	0.	-278.02
14797	6.6506	3.7273	0.	-304.95
14798	6.6506	3.8182	5.e-002	-3.2208e-005
14799	6.9275	3.8182	0.	-258.77
14800	6.8352	3.7273	0.	-283.47
14801	6.8352	3.8182	5.e-002	-3.1291e-005
14802	7.112	3.8182	0.	-240.01
14803	7.0198	3.7273	0.	-262.53
14804	7.0198	3.8182	5.e-002	-2.1579e-005
14805	7.2966	3.8182	0.	-222.01
14806	7.2043	3.7273	0.	-242.44
14807	7.2043	3.8182	5.e-002	-1.7229e-005
14808	7.4812	3.8182	0.	-204.88
14809	7.3889	3.7273	0.	-223.37
14810	7.3889	3.8182	5.e-002	-1.1149e-005
14811	7.6657	3.8182	0.	-188.72
14812	7.5735	3.7273	0.	-205.42
14813	7.5735	3.8182	5.e-002	-3.2131e-006
14814	7.8503	3.8182	0.	-173.56
14815	7.758	3.7273	0.	-188.63
14816	7.758	3.8182	5.e-002	-4.2107e-006
14817	8.0349	3.8182	0.	-159.39
14818	7.9426	3.7273	0.	-172.97
14819	7.9426	3.8182	5.e-002	2.938e-007
14820	8.2194	3.8182	0.	-146.19
14821	8.1272	3.7273	0.	-158.44
14822	8.1272	3.8182	5.e-002	-2.843e-006
14823	8.404	3.8182	0.	-133.93
14824	8.3117	3.7273	0.	-144.98
14825	8.3117	3.8182	5.e-002	-2.385e-006
14826	8.5886	3.8182	0.	-122.56
14827	8.4963	3.7273	0.	-132.53
14828	8.4963	3.8182	5.e-002	-1.7613e-006
14829	8.7731	3.8182	0.	-112.04
14830	8.6809	3.7273	0.	-121.04
14831	8.6809	3.8182	5.e-002	-9.2914e-007
14832	8.9577	3.8182	0.	-102.3
14833	8.8654	3.7273	0.	-110.44
14834	8.8654	3.8182	5.e-002	1.708e-007
14835	9.1423	3.8182	0.	-93.305
14836	9.05	3.7273	0.	-100.68
14837	9.05	3.8182	5.e-002	5.0644e-007
14838	9.3269	3.8182	0.	-84.997
14839	9.2346	3.7273	0.	-91.679
14840	9.2346	3.8182	5.e-002	7.6212e-007
14841	9.5114	3.8182	0.	-77.326
14842	9.4191	3.7273	0.	-83.392
14843	9.4191	3.8182	5.e-002	-9.4538e-008
14844	9.696	3.8182	0.	-70.247
14845	9.6037	3.7273	0.	-75.761
14846	9.6037	3.8182	5.e-002	7.4843e-007
14847	9.8806	3.8182	0.	-63.715
14848	9.7883	3.7273	0.	-68.733
14849	9.7883	3.8182	5.e-002	1.2622e-006
14850	10.065	3.8182	0.	-57.687
14851	9.9728	3.7273	0.	-62.261
14852	9.9728	3.8182	5.e-002	7.103e-007
14853	10.25	3.8182	0.	-52.124
14854	10.157	3.7273	0.	-56.298
14855	10.157	3.8182	5.e-002	7.0115e-007
14856	10.434	3.8182	0.	-46.99
14857	10.342	3.7273	0.	-50.804
14858	10.342	3.8182	5.e-002	1.0223e-006
14859	10.619	3.8182	0.	-42.251
14860	10.527	3.7273	0.	-45.74
14861	10.527	3.8182	5.e-002	4.2203e-007
14862	10.803	3.8182	0.	-37.876
14863	10.711	3.7273	0.	-41.071
14864	10.711	3.8182	5.e-002	1.6444e-006
14865	10.988	3.8182	0.	-33.834
14866	10.896	3.7273	0.	-36.764
14867	10.896	3.8182	5.e-002	2.2357e-006
14868	11.173	3.8182	0.	-30.099
14869	11.08	3.7273	0.	-32.789
14870	11.08	3.8182	5.e-002	1.0211e-006
14871	11.357	3.8182	0.	-26.647
14872	11.265	3.7273	0.	-29.119
14873	11.265	3.8182	5.e-002	9.0832e-007
14874	11.542	3.8182	0.	-23.454
14875	11.449	3.7273	0.	-25.728
14876	11.449	3.8182	5.e-002	1.2728e-006
14877	11.726	3.8182	0.	-20.5
14878	11.634	3.7273	0.	-22.594
14879	11.634	3.8182	5.e-002	1.4553e-006
14880	11.911	3.8182	0.	-17.764
14881	11.819	3.7273	0.	-19.694
14882	11.819	3.8182	5.e-002	1.5565e-006
14883	12.095	3.8182	0.	-15.228
14884	12.003	3.7273	0.	-17.009
14885	12.003	3.8182	5.e-002	8.039e-007
14886	12.28	3.8182	0.	-12.876
14887	12.188	3.7273	0.	-14.521
14888	12.188	3.8182	5.e-002	1.4075e-006
14889	12.465	3.8182	0.	-10.692
14890	12.372	3.7273	0.	-12.214
14891	12.372	3.8182	5.e-002	1.0012e-006
14892	12.649	3.8182	0.	-8.662
14893	12.557	3.7273	0.	-10.071
14894	12.557	3.8182	5.e-002	1.1974e-006
14895	12.834	3.8182	0.	-6.7726
14896	12.741	3.7273	0.	-8.0792
14897	12.741	3.8182	5.e-002	1.2616e-006
14898	13.018	3.8182	0.	-5.0116
14899	12.926	3.7273	0.	-6.2245
14900	12.926	3.8182	5.e-002	1.0399e-006
14901	13.203	3.8182	0.	-3.3676
14902	13.11	3.7273	0.	-4.4949
14903	13.11	3.8182	5.e-002	1.1665e-006
14904	13.387	3.8182	0.	-1.8307
14905	13.295	3.7273	0.	-2.8793
14906	13.295	3.8182	5.e-002	2.3098e-006
14907	13.572	3.8182	0.	-0.40267
14908	13.48	3.7273	0.	-1.3684
14909	13.48	3.8182	5.e-002	3.0778e-006
14910	13.756	3.8182	0.	-1.9989e-003
14911	13.664	3.7273	0.	-5.1735e-002
14912	13.664	3.8182	5.e-002	3.3822e-006
14913	13.941	3.8182	0.	2.651e-003
14914	13.849	3.7273	0.	1.7035e-003
14915	13.849	3.8182	5.e-002	2.6296e-006
14916	14.126	3.8182	0.	4.0112e-003
14917	14.033	3.7273	0.	3.9911e-003
14918	14.033	3.8182	5.e-002	3.8089e-006
14919	14.31	3.8182	0.	4.7352e-003
14920	14.218	3.7273	0.	4.9019e-003
14921	14.218	3.8182	5.e-002	4.1473e-006
14922	14.495	3.8182	0.	5.2112e-003
14923	14.402	3.7273	0.	5.4432e-003
14924	14.402	3.8182	5.e-002	4.5081e-006
14925	14.679	3.8182	0.	5.5794e-003
14926	14.587	3.7273	0.	5.8205e-003
14927	14.587	3.8182	5.e-002	4.1671e-006
14928	14.864	3.8182	0.	5.9035e-003
14929	14.772	3.7273	0.	6.15e-003
14930	14.772	3.8182	5.e-002	3.2637e-006
14931	15.048	3.8182	0.	6.1939e-003
14932	14.956	3.7273	0.	6.4472e-003
14933	14.956	3.8182	5.e-002	2.7959e-006
14934	15.233	3.8182	0.	6.4576e-003
14935	15.141	3.7273	0.	6.7153e-003
14936	15.141	3.8182	5.e-002	2.1665e-006
14937	15.418	3.8182	0.	6.7093e-003
14938	15.325	3.7273	0.	6.9642e-003
14939	15.325	3.8182	5.e-002	3.2771e-006
14940	15.602	3.8182	0.	6.9689e-003
14941	15.51	3.7273	0.	7.2134e-003
14942	15.51	3.8182	5.e-002	2.1757e-006
14943	15.787	3.8182	0.	7.228e-003
14944	15.694	3.7273	0.	7.4811e-003
14945	15.694	3.8182	5.e-002	2.7284e-006
14946	15.971	3.8182	0.	7.4758e-003
14947	15.879	3.7273	0.	7.7309e-003
14948	15.879	3.8182	5.e-002	2.3903e-006
14949	16.156	3.8182	0.	7.7334e-003
14950	16.064	3.7273	0.	7.9785e-003
14951	16.064	3.8182	5.e-002	4.2042e-006
14952	16.34	3.8182	0.	8.0034e-003
14953	16.248	3.7273	0.	8.2508e-003
14954	16.248	3.8182	5.e-002	5.0699e-006
14955	16.525	3.8182	0.	8.2704e-003
14956	16.433	3.7273	0.	8.5247e-003
14957	16.433	3.8182	5.e-002	5.3334e-006
14958	16.71	3.8182	0.	8.5485e-003
14959	16.617	3.7273	0.	8.7913e-003
14960	16.617	3.8182	5.e-002	5.9724e-006
14961	16.894	3.8182	0.	8.8491e-003
14962	16.802	3.7273	0.	9.0885e-003
14963	16.802	3.8182	5.e-002	6.4964e-006
14964	17.079	3.8182	0.	9.1647e-003
14965	16.986	3.7273	0.	9.4016e-003
14966	16.986	3.8182	5.e-002	5.8296e-006
14967	17.263	3.8182	0.	9.494e-003
14968	17.171	3.7273	0.	9.7291e-003
14969	17.171	3.8182	5.e-002	5.1512e-006
14970	17.448	3.8182	0.	9.8325e-003
14971	17.356	3.7273	0.	1.0073e-002
14972	17.356	3.8182	5.e-002	1.8804e-006
14973	17.632	3.8182	0.	1.0193e-002
14974	17.54	3.7273	0.	1.0419e-002
14975	17.54	3.8182	5.e-002	1.7034e-006
14976	17.817	3.8182	0.	1.0584e-002
14977	17.725	3.7273	0.	1.0803e-002
14978	17.725	3.8182	5.e-002	5.1399e-006
14979	18.002	3.8182	0.	1.0998e-002
14980	17.909	3.7273	0.	1.1214e-002
14981	17.909	3.8182	5.e-002	4.2089e-006
14982	18.186	3.8182	0.	1.1434e-002
14983	18.094	3.7273	0.	1.1647e-002
14984	18.094	3.8182	5.e-002	7.6355e-006
14985	18.371	3.8182	0.	1.19e-002
14986	18.278	3.7273	0.	1.2103e-002
14987	18.278	3.8182	5.e-002	6.0059e-006
14988	18.555	3.8182	0.	1.2408e-002
14989	18.463	3.7273	0.	1.2595e-002
14990	18.463	3.8182	5.e-002	5.3677e-006
14991	18.74	3.8182	0.	1.2954e-002
14992	18.648	3.7273	0.	1.3137e-002
14993	18.648	3.8182	5.e-002	6.3899e-006
14994	18.924	3.8182	0.	1.3533e-002
14995	18.832	3.7273	0.	1.3706e-002
14996	18.832	3.8182	5.e-002	5.0627e-006
14997	19.109	3.8182	0.	1.4165e-002
14998	19.017	3.7273	0.	1.4316e-002
14999	19.017	3.8182	5.e-002	5.6035e-006
15000	19.294	3.8182	0.	1.4849e-002
15001	19.201	3.7273	0.	1.4988e-002
15002	19.201	3.8182	5.e-002	7.3618e-006
15003	19.478	3.8182	0.	1.5585e-002
15004	19.386	3.7273	0.	1.5708e-002
15005	19.386	3.8182	5.e-002	6.2475e-006
15006	19.663	3.8182	0.	1.6389e-002
15007	19.57	3.7273	0.	1.6484e-002
15008	19.57	3.8182	5.e-002	6.7334e-006
15009	19.847	3.8182	0.	1.7276e-002
15010	19.755	3.7273	0.	1.7342e-002
15011	19.755	3.8182	5.e-002	5.4701e-006
15012	20.032	3.8182	0.	1.8249e-002
15013	19.94	3.7273	0.	1.8285e-002
15014	19.94	3.8182	5.e-002	5.9808e-006
15015	20.216	3.8182	0.	1.9315e-002
15016	20.124	3.7273	0.	1.9316e-002
15017	20.124	3.8182	5.e-002	5.6019e-006
15018	20.401	3.8182	0.	2.0496e-002
15019	20.309	3.7273	0.	2.0447e-002
15020	20.309	3.8182	5.e-002	8.5201e-006
15021	20.585	3.8182	0.	2.181e-002
15022	20.493	3.7273	0.	2.1708e-002
15023	20.493	3.8182	5.e-002	1.0487e-005
15024	20.77	3.8182	0.	2.3285e-002
15025	20.678	3.7273	0.	2.3117e-002
15026	20.678	3.8182	5.e-002	7.7013e-006
15027	20.955	3.8182	0.	2.4937e-002
15028	20.862	3.7273	0.	2.4689e-002
15029	20.862	3.8182	5.e-002	8.5914e-006
15030	21.139	3.8182	0.	2.6808e-002
15031	21.047	3.7273	0.	2.6455e-002
15032	21.047	3.8182	5.e-002	9.3909e-006
15033	21.324	3.8182	0.	2.8943e-002
15034	21.231	3.7273	0.	2.8468e-002
15035	21.231	3.8182	5.e-002	9.2285e-006
15036	21.508	3.8182	0.	3.1394e-002
15037	21.416	3.7273	0.	3.077e-002
15038	21.416	3.8182	5.e-002	1.1211e-005
15039	21.693	3.8182	0.	3.4246e-002
15040	21.601	3.7273	0.	3.3421e-002
15041	21.601	3.8182	5.e-002	8.2116e-006
15042	21.877	3.8182	0.	3.7606e-002
15043	21.785	3.7273	0.	3.6524e-002
15044	21.785	3.8182	5.e-002	6.0568e-006
15045	22.062	3.8182	0.	4.1615e-002
15046	21.97	3.7273	0.	4.0202e-002
15047	21.97	3.8182	5.e-002	8.707e-006
15048	22.247	3.8182	0.	4.6478e-002
15049	22.154	3.7273	0.	4.4622e-002
15050	22.154	3.8182	5.e-002	6.6645e-006
15051	22.431	3.8182	0.	5.252e-002
15052	22.339	3.7273	0.	5.0034e-002
15053	22.339	3.8182	5.e-002	8.8328e-006
15054	22.616	3.8182	0.	6.0161e-002
15055	22.523	3.7273	0.	5.6856e-002
15056	22.523	3.8182	5.e-002	1.2784e-005
15057	22.8	3.8182	0.	7.0419e-002
15058	22.708	3.7273	0.	6.5549e-002
15059	22.708	3.8182	5.e-002	8.6273e-006
15060	22.985	3.8182	0.	8.3712e-002
15061	22.893	3.7273	0.	7.7762e-002
15062	22.893	3.8182	5.e-002	9.0342e-006
15063	23.169	3.8182	0.	0.10631
15064	23.077	3.7273	0.	9.2837e-002
15065	23.077	3.8182	5.e-002	8.5581e-006
15066	23.354	3.8182	0.	0.12901
15067	23.262	3.7273	0.	0.12438
15068	23.262	3.8182	5.e-002	1.2319e-005
15069	23.539	3.8182	0.	0.22524
15070	23.446	3.7273	0.	0.14169
15071	23.446	3.8182	5.e-002	1.2863e-005
15072	23.723	3.8182	0.	0.21939
15073	23.631	3.7273	0.	0.32814
15074	23.631	3.8182	5.e-002	1.0675e-005
15075	23.815	3.7273	0.	0.19953
15076	23.815	3.8182	5.e-002	1.382e-005
15077	23.908	3.8182	0.	0.42525
15078	4.3435	3.6364	0.	-17.08
15079	4.2512	3.5455	0.	-8.431
15080	4.2512	3.6364	5.e-002	-3.2831e-004
15081	4.5281	3.6364	0.	-2.5635
15082	4.4358	3.5455	0.	-5.744
15083	4.4358	3.6364	5.e-002	-6.5729e-005
15084	4.7127	3.6364	0.	-92.145
15085	4.6204	3.5455	0.	-3.7995
15086	4.6204	3.6364	5.e-002	-2.2308e-006
15087	4.8972	3.6364	0.	-252.78
15088	4.8049	3.5455	0.	-200.48
15089	4.8049	3.6364	5.e-002	-2.639e-005
15090	5.0818	3.6364	0.	-346.76
15091	4.9895	3.5455	0.	-327.98
15092	4.9895	3.6364	5.e-002	-4.8358e-005
15093	5.2664	3.6364	0.	-397.64
15094	5.1741	3.5455	0.	-400.74
15095	5.1741	3.6364	5.e-002	-5.8336e-005
15096	5.4509	3.6364	0.	-420.18
15097	5.3586	3.5455	0.	-436.81
15098	5.3586	3.6364	5.e-002	-5.922e-005
15099	5.6355	3.6364	0.	-424.13
15100	5.5432	3.5455	0.	-448.57
15101	5.5432	3.6364	5.e-002	-7.1734e-005
15102	5.8201	3.6364	0.	-416.05
15103	5.7278	3.5455	0.	-444.5
15104	5.7278	3.6364	5.e-002	-5.441e-005
15105	6.0046	3.6364	0.	-400.41
15106	5.9123	3.5455	0.	-430.39
15107	5.9123	3.6364	5.e-002	-4.4103e-005
15108	6.1892	3.6364	0.	-380.27
15109	6.0969	3.5455	0.	-410.2
15110	6.0969	3.6364	5.e-002	-4.3586e-005
15111	6.3738	3.6364	0.	-357.7
15112	6.2815	3.5455	0.	-386.6
15113	6.2815	3.6364	5.e-002	-1.4551e-005
15114	6.5583	3.6364	0.	-334.1
15115	6.466	3.5455	0.	-361.41
15116	6.466	3.6364	5.e-002	-3.7829e-005
15117	6.7429	3.6364	0.	-310.41
15118	6.6506	3.5455	0.	-335.84
15119	6.6506	3.6364	5.e-002	-1.2521e-005
15120	6.9275	3.6364	0.	-287.23
15121	6.8352	3.5455	0.	-310.66
15122	6.8352	3.6364	5.e-002	-1.8728e-005
15123	7.112	3.6364	0.	-264.95
15124	7.0198	3.5455	0.	-286.39
15125	7.0198	3.6364	5.e-002	-3.4209e-006
15126	7.2966	3.6364	0.	-243.81
15127	7.2043	3.5455	0.	-263.31
15128	7.2043	3.6364	5.e-002	-9.4586e-006
15129	7.4812	3.6364	0.	-223.92
15130	7.3889	3.5455	0.	-241.59
15131	7.3889	3.6364	5.e-002	-5.7468e-006
15132	7.6657	3.6364	0.	-205.33
15133	7.5735	3.5455	0.	-221.31
15134	7.5735	3.6364	5.e-002	7.3505e-008
15135	7.8503	3.6364	0.	-188.04
15136	7.758	3.5455	0.	-202.47
15137	7.758	3.6364	5.e-002	-3.6503e-006
15138	8.0349	3.6364	0.	-172.02
15139	7.9426	3.5455	0.	-185.04
15140	7.9426	3.6364	5.e-002	2.5897e-006
15141	8.2194	3.6364	0.	-157.22
15142	8.1272	3.5455	0.	-168.96
15143	8.1272	3.6364	5.e-002	1.5843e-007
15144	8.404	3.6364	0.	-143.58
15145	8.3117	3.5455	0.	-154.16
15146	8.3117	3.6364	5.e-002	9.833e-007
15147	8.5886	3.6364	0.	-131.01
15148	8.4963	3.5455	0.	-140.56
15149	8.4963	3.6364	5.e-002	5.0401e-007
15150	8.7731	3.6364	0.	-119.45
15151	8.6809	3.5455	0.	-128.07
15152	8.6809	3.6364	5.e-002	1.582e-006
15153	8.9577	3.6364	0.	-108.82
15154	8.8654	3.5455	0.	-116.61
15155	8.8654	3.6364	5.e-002	1.3258e-006
15156	9.1423	3.6364	0.	-99.046
15157	9.05	3.5455	0.	-106.1
15158	9.05	3.6364	5.e-002	1.2655e-006
15159	9.3269	3.6364	0.	-90.069
15160	9.2346	3.5455	0.	-96.462
15161	9.2346	3.6364	5.e-002	2.1257e-006
15162	9.5114	3.6364	0.	-81.82
15163	9.4191	3.5455	0.	-87.621
15164	9.4191	3.6364	5.e-002	3.0489e-006
15165	9.696	3.6364	0.	-74.239
15166	9.6037	3.5455	0.	-79.509
15167	9.6037	3.6364	5.e-002	3.2687e-006
15168	9.8806	3.6364	0.	-67.27
15169	9.7883	3.5455	0.	-72.064
15170	9.7883	3.6364	5.e-002	9.6217e-007
15171	10.065	3.6364	0.	-60.862
15172	9.9728	3.5455	0.	-65.229
15173	9.9728	3.6364	5.e-002	1.4017e-006
15174	10.25	3.6364	0.	-54.967
15175	10.157	3.5455	0.	-58.95
15176	10.157	3.6364	5.e-002	1.5984e-006
15177	10.434	3.6364	0.	-49.542
15178	10.342	3.5455	0.	-53.18
15179	10.342	3.6364	5.e-002	1.4464e-006
15180	10.619	3.6364	0.	-44.547
15181	10.527	3.5455	0.	-47.874
15182	10.527	3.6364	5.e-002	7.8306e-007
15183	10.803	3.6364	0.	-39.946
15184	10.711	3.5455	0.	-42.992
15185	10.711	3.6364	5.e-002	1.9148e-006
15186	10.988	3.6364	0.	-35.705
15187	10.896	3.5455	0.	-38.497
15188	10.896	3.6364	5.e-002	1.6305e-006
15189	11.173	3.6364	0.	-31.793
15190	11.08	3.5455	0.	-34.356
15191	11.08	3.6364	5.e-002	1.2864e-006
15192	11.357	3.6364	0.	-28.184
15193	11.265	3.5455	0.	-30.539
15194	11.265	3.6364	5.e-002	1.1698e-006
15195	11.542	3.6364	0.	-24.851
15196	11.449	3.5455	0.	-27.017
15197	11.449	3.6364	5.e-002	1.5289e-006
15198	11.726	3.6364	0.	-21.77
15199	11.634	3.5455	0.	-23.765
15200	11.634	3.6364	5.e-002	2.3487e-006
15201	11.911	3.6364	0.	-18.921
15202	11.819	3.5455	0.	-20.76
15203	11.819	3.6364	5.e-002	2.1749e-006
15204	12.095	3.6364	0.	-16.284
15205	12.003	3.5455	0.	-17.981
15206	12.003	3.6364	5.e-002	1.3074e-006
15207	12.28	3.6364	0.	-13.84
15208	12.188	3.5455	0.	-15.408
15209	12.188	3.6364	5.e-002	1.8797e-006
15210	12.465	3.6364	0.	-11.573
15211	12.372	3.5455	0.	-13.024
15212	12.372	3.6364	5.e-002	1.6923e-006
15213	12.649	3.6364	0.	-9.468
15214	12.557	3.5455	0.	-10.812
15215	12.557	3.6364	5.e-002	1.6378e-006
15216	12.834	3.6364	0.	-7.5098
15217	12.741	3.5455	0.	-8.756
15218	12.741	3.6364	5.e-002	1.6938e-006
15219	13.018	3.6364	0.	-5.6859
15220	12.926	3.5455	0.	-6.8434
15221	12.926	3.6364	5.e-002	1.6392e-006
15222	13.203	3.6364	0.	-3.9841
15223	13.11	3.5455	0.	-5.0609
15224	13.11	3.6364	5.e-002	1.7262e-006
15225	13.387	3.6364	0.	-2.3934
15226	13.295	3.5455	0.	-3.3965
15227	13.295	3.6364	5.e-002	2.7076e-006
15228	13.572	3.6364	0.	-0.90536
15229	13.48	3.5455	0.	-1.8396
15230	13.48	3.6364	5.e-002	3.7219e-006
15231	13.756	3.6364	0.	-3.3841e-003
15232	13.664	3.5455	0.	-0.38555
15233	13.664	3.6364	5.e-002	3.8447e-006
15234	13.941	3.6364	0.	3.7493e-003
15235	13.849	3.5455	0.	2.8284e-003
15236	13.849	3.6364	5.e-002	2.9757e-006
15237	14.126	3.6364	0.	5.0119e-003
15238	14.033	3.5455	0.	5.0583e-003
15239	14.033	3.6364	5.e-002	4.0119e-006
15240	14.31	3.6364	0.	5.6364e-003
15241	14.218	3.5455	0.	5.8042e-003
15242	14.218	3.6364	5.e-002	4.5332e-006
15243	14.495	3.6364	0.	6.046e-003
15244	14.402	3.5455	0.	6.2468e-003
15245	14.402	3.6364	5.e-002	4.7561e-006
15246	14.679	3.6364	0.	6.3707e-003
15247	14.587	3.5455	0.	6.5614e-003
15248	14.587	3.6364	5.e-002	4.4648e-006
15249	14.864	3.6364	0.	6.6661e-003
15250	14.772	3.5455	0.	6.8511e-003
15251	14.772	3.6364	5.e-002	3.6984e-006
15252	15.048	3.6364	0.	6.9369e-003
15253	14.956	3.5455	0.	7.122e-003
15254	14.956	3.6364	5.e-002	3.041e-006
15255	15.233	3.6364	0.	7.1874e-003
15256	15.141	3.5455	0.	7.3726e-003
15257	15.141	3.6364	5.e-002	2.5955e-006
15258	15.418	3.6364	0.	7.4317e-003
15259	15.325	3.5455	0.	7.6099e-003
15260	15.325	3.6364	5.e-002	3.6399e-006
15261	15.602	3.6364	0.	7.6875e-003
15262	15.51	3.5455	0.	7.851e-003
15263	15.51	3.6364	5.e-002	2.5843e-006
15264	15.787	3.6364	0.	7.9445e-003
15265	15.694	3.5455	0.	8.1158e-003
15266	15.694	3.6364	5.e-002	3.1344e-006
15267	15.971	3.6364	0.	8.1929e-003
15268	15.879	3.5455	0.	8.3644e-003
15269	15.879	3.6364	5.e-002	2.7979e-006
15270	16.156	3.6364	0.	8.4539e-003
15271	16.064	3.5455	0.	8.6116e-003
15272	16.064	3.6364	5.e-002	4.3635e-006
15273	16.34	3.6364	0.	8.729e-003
15274	16.248	3.5455	0.	8.8865e-003
15275	16.248	3.6364	5.e-002	5.35e-006
15276	16.525	3.6364	0.	9.0015e-003
15277	16.433	3.5455	0.	9.1634e-003
15278	16.433	3.6364	5.e-002	6.0854e-006
15279	16.71	3.6364	0.	9.2861e-003
15280	16.617	3.5455	0.	9.4346e-003
15281	16.617	3.6364	5.e-002	6.7077e-006
15282	16.894	3.6364	0.	9.5945e-003
15283	16.802	3.5455	0.	9.7375e-003
15284	16.802	3.6364	5.e-002	6.7452e-006
15285	17.079	3.6364	0.	9.9183e-003
15286	16.986	3.5455	0.	1.0057e-002
15287	16.986	3.6364	5.e-002	6.6455e-006
15288	17.263	3.6364	0.	1.0259e-002
15289	17.171	3.5455	0.	1.0392e-002
15290	17.171	3.6364	5.e-002	5.9903e-006
15291	17.448	3.6364	0.	1.0609e-002
15292	17.356	3.5455	0.	1.0742e-002
15293	17.356	3.6364	5.e-002	2.7066e-006
15294	17.632	3.6364	0.	1.0977e-002
15295	17.54	3.5455	0.	1.1098e-002
15296	17.54	3.6364	5.e-002	2.5136e-006
15297	17.817	3.6364	0.	1.138e-002
15298	17.725	3.5455	0.	1.1492e-002
15299	17.725	3.6364	5.e-002	5.4476e-006
15300	18.002	3.6364	0.	1.1808e-002
15301	17.909	3.5455	0.	1.1913e-002
15302	17.909	3.6364	5.e-002	4.3114e-006
15303	18.186	3.6364	0.	1.2259e-002
15304	18.094	3.5455	0.	1.2357e-002
15305	18.094	3.6364	5.e-002	8.1751e-006
15306	18.371	3.6364	0.	1.274e-002
15307	18.278	3.5455	0.	1.2826e-002
15308	18.278	3.6364	5.e-002	6.76e-006
15309	18.555	3.6364	0.	1.3263e-002
15310	18.463	3.5455	0.	1.333e-002
15311	18.463	3.6364	5.e-002	5.8694e-006
15312	18.74	3.6364	0.	1.3826e-002
15313	18.648	3.5455	0.	1.3886e-002
15314	18.648	3.6364	5.e-002	6.1949e-006
15315	18.924	3.6364	0.	1.4423e-002
15316	18.832	3.5455	0.	1.4469e-002
15317	18.832	3.6364	5.e-002	5.5241e-006
15318	19.109	3.6364	0.	1.5071e-002
15319	19.017	3.5455	0.	1.5093e-002
15320	19.017	3.6364	5.e-002	5.5993e-006
15321	19.294	3.6364	0.	1.5777e-002
15322	19.201	3.5455	0.	1.5781e-002
15323	19.201	3.6364	5.e-002	7.8401e-006
15324	19.478	3.6364	0.	1.6534e-002
15325	19.386	3.5455	0.	1.652e-002
15326	19.386	3.6364	5.e-002	5.4979e-006
15327	19.663	3.6364	0.	1.736e-002
15328	19.57	3.5455	0.	1.7314e-002
15329	19.57	3.6364	5.e-002	5.9801e-006
15330	19.847	3.6364	0.	1.827e-002
15331	19.755	3.5455	0.	1.8189e-002
15332	19.755	3.6364	5.e-002	6.6012e-006
15333	20.032	3.6364	0.	1.9266e-002
15334	19.94	3.5455	0.	1.9151e-002
15335	19.94	3.6364	5.e-002	7.1111e-006
15336	20.216	3.6364	0.	2.0356e-002
15337	20.124	3.5455	0.	2.0202e-002
15338	20.124	3.6364	5.e-002	5.7108e-006
15339	20.401	3.6364	0.	2.1562e-002
15340	20.309	3.5455	0.	2.1354e-002
15341	20.309	3.6364	5.e-002	9.1286e-006
15342	20.585	3.6364	0.	2.2907e-002
15343	20.493	3.5455	0.	2.2636e-002
15344	20.493	3.6364	5.e-002	1.0639e-005
15345	20.77	3.6364	0.	2.4406e-002
15346	20.678	3.5455	0.	2.4068e-002
15347	20.678	3.6364	5.e-002	7.8022e-006
15348	20.955	3.6364	0.	2.6082e-002
15349	20.862	3.5455	0.	2.5661e-002
15350	20.862	3.6364	5.e-002	9.6379e-006
15351	21.139	3.6364	0.	2.7978e-002
15352	21.047	3.5455	0.	2.7449e-002
15353	21.047	3.6364	5.e-002	9.5772e-006
15354	21.324	3.6364	0.	3.0141e-002
15355	21.231	3.5455	0.	2.9483e-002
15356	21.231	3.6364	5.e-002	8.9312e-006
15357	21.508	3.6364	0.	3.2621e-002
15358	21.416	3.5455	0.	3.1805e-002
15359	21.416	3.6364	5.e-002	1.1819e-005
15360	21.693	3.6364	0.	3.5496e-002
15361	21.601	3.5455	0.	3.4478e-002
15362	21.601	3.6364	5.e-002	9.8062e-006
15363	21.877	3.6364	0.	3.8878e-002
15364	21.785	3.5455	0.	3.7599e-002
15365	21.785	3.6364	5.e-002	7.7217e-006
15366	22.062	3.6364	0.	4.2914e-002
15367	21.97	3.5455	0.	4.1297e-002
15368	21.97	3.6364	5.e-002	8.4763e-006
15369	22.247	3.6364	0.	4.7806e-002
15370	22.154	3.5455	0.	4.5738e-002
15371	22.154	3.6364	5.e-002	6.5034e-006
15372	22.431	3.6364	0.	5.3881e-002
15373	22.339	3.5455	0.	5.1173e-002
15374	22.339	3.6364	5.e-002	8.6306e-006
15375	22.616	3.6364	0.	6.1566e-002
15376	22.523	3.5455	0.	5.8032e-002
15377	22.523	3.6364	5.e-002	1.2556e-005
15378	22.8	3.6364	0.	7.1889e-002
15379	22.708	3.5455	0.	6.6768e-002
15380	22.708	3.6364	5.e-002	8.4129e-006
15381	22.985	3.6364	0.	8.5276e-002
15382	22.893	3.5455	0.	7.9049e-002
15383	22.893	3.6364	5.e-002	1.0629e-005
15384	23.169	3.6364	0.	0.10802
15385	23.077	3.5455	0.	9.4218e-002
15386	23.077	3.6364	5.e-002	1.0234e-005
15387	23.354	3.6364	0.	0.13093
15388	23.262	3.5455	0.	0.12593
15389	23.262	3.6364	5.e-002	1.211e-005
15390	23.539	3.6364	0.	0.22768
15391	23.446	3.5455	0.	0.14345
15392	23.446	3.6364	5.e-002	1.4435e-005
15393	23.723	3.6364	0.	0.22333
15394	23.631	3.5455	0.	0.33067
15395	23.631	3.6364	5.e-002	8.4838e-006
15396	23.815	3.5455	0.	0.20476
15397	23.815	3.6364	5.e-002	1.374e-005
15398	23.908	3.6364	0.	0.42653
15399	4.3435	3.4545	0.	2.8988
15400	4.2512	3.3636	0.	1.0663
15401	4.2512	3.4545	5.e-002	-1.9807e-004
15402	4.5281	3.4545	0.	-0.3897
15403	4.4358	3.3636	0.	3.5005e-003
15404	4.4358	3.4545	5.e-002	-3.8489e-005
15405	4.7127	3.4545	0.	-91.961
15406	4.6204	3.3636	0.	-2.7506
15407	4.6204	3.4545	5.e-002	1.9823e-005
15408	4.8972	3.4545	0.	-272.32
15409	4.8049	3.3636	0.	-199.9
15410	4.8049	3.4545	5.e-002	1.6414e-005
15411	5.0818	3.4545	0.	-380.8
15412	4.9895	3.3636	0.	-344.94
15413	4.9895	3.4545	5.e-002	-3.6466e-007
15414	5.2664	3.4545	0.	-439.59
15415	5.1741	3.3636	0.	-429.39
15416	5.1741	3.4545	5.e-002	-1.8721e-005
15417	5.4509	3.4545	0.	-465.17
15418	5.3586	3.3636	0.	-471.59
15419	5.3586	3.4545	5.e-002	-2.9214e-005
15420	5.6355	3.4545	0.	-468.99
15421	5.5432	3.3636	0.	-485.5
15422	5.5432	3.4545	5.e-002	-3.9839e-005
15423	5.8201	3.4545	0.	-458.9
15424	5.7278	3.3636	0.	-481.04
15425	5.7278	3.4545	5.e-002	-3.2479e-005
15426	6.0046	3.4545	0.	-440.22
15427	5.9123	3.3636	0.	-465.07
15428	5.9123	3.4545	5.e-002	-2.8361e-005
15429	6.1892	3.4545	0.	-416.56
15430	6.0969	3.3636	0.	-442.24
15431	6.0969	3.4545	5.e-002	-1.7731e-005
15432	6.3738	3.4545	0.	-390.33
15433	6.2815	3.3636	0.	-415.67
15434	6.2815	3.4545	5.e-002	-2.3465e-005
15435	6.5583	3.4545	0.	-363.16
15436	6.466	3.3636	0.	-387.45
15437	6.466	3.4545	5.e-002	-1.4413e-005
15438	6.7429	3.4545	0.	-336.1
15439	6.6506	3.3636	0.	-358.95
15440	6.6506	3.4545	5.e-002	-1.1081e-005
15441	6.9275	3.4545	0.	-309.82
15442	6.8352	3.3636	0.	-331.04
15443	6.8352	3.4545	5.e-002	-8.986e-006
15444	7.112	3.4545	0.	-284.74
15445	7.0198	3.3636	0.	-304.26
15446	7.0198	3.4545	5.e-002	-1.1301e-005
15447	7.2966	3.4545	0.	-261.09
15448	7.2043	3.3636	0.	-278.94
15449	7.2043	3.4545	5.e-002	-1.4556e-006
15450	7.4812	3.4545	0.	-238.98
15451	7.3889	3.3636	0.	-255.22
15452	7.3889	3.4545	5.e-002	-7.2643e-006
15453	7.6657	3.4545	0.	-218.45
15454	7.5735	3.3636	0.	-233.18
15455	7.5735	3.4545	5.e-002	3.4873e-006
15456	7.8503	3.4545	0.	-199.46
15457	7.758	3.3636	0.	-212.8
15458	7.758	3.4545	5.e-002	1.7379e-007
15459	8.0349	3.4545	0.	-181.97
15460	7.9426	3.3636	0.	-194.03
15461	7.9426	3.4545	5.e-002	1.3194e-006
15462	8.2194	3.4545	0.	-165.89
15463	8.1272	3.3636	0.	-176.79
15464	8.1272	3.4545	5.e-002	1.6136e-006
15465	8.404	3.4545	0.	-151.14
15466	8.3117	3.3636	0.	-160.98
15467	8.3117	3.4545	5.e-002	-7.2661e-007
15468	8.5886	3.4545	0.	-137.62
15469	8.4963	3.3636	0.	-146.51
15470	8.4963	3.4545	5.e-002	7.4327e-007
15471	8.7731	3.4545	0.	-125.23
15472	8.6809	3.3636	0.	-133.27
15473	8.6809	3.4545	5.e-002	1.7142e-006
15474	8.9577	3.4545	0.	-113.89
15475	8.8654	3.3636	0.	-121.17
15476	8.8654	3.4545	5.e-002	1.084e-006
15477	9.1423	3.4545	0.	-103.51
15478	9.05	3.3636	0.	-110.1
15479	9.05	3.4545	5.e-002	2.7766e-006
15480	9.3269	3.4545	0.	-94.008
15481	9.2346	3.3636	0.	-99.985
15482	9.2346	3.4545	5.e-002	1.3847e-006
15483	9.5114	3.4545	0.	-85.303
15484	9.4191	3.3636	0.	-90.729
15485	9.4191	3.4545	5.e-002	2.8196e-006
15486	9.696	3.4545	0.	-77.326
15487	9.6037	3.3636	0.	-82.259
15488	9.6037	3.4545	5.e-002	1.3516e-006
15489	9.8806	3.4545	0.	-70.014
15490	9.7883	3.3636	0.	-74.504
15491	9.7883	3.4545	5.e-002	1.685e-006
15492	10.065	3.4545	0.	-63.308
15493	9.9728	3.3636	0.	-67.4
15494	9.9728	3.4545	5.e-002	1.9656e-006
15495	10.25	3.4545	0.	-57.153
15496	10.157	3.3636	0.	-60.888
15497	10.157	3.4545	5.e-002	1.7945e-006
15498	10.434	3.4545	0.	-51.501
15499	10.342	3.3636	0.	-54.913
15500	10.342	3.4545	5.e-002	1.4286e-006
15501	10.619	3.4545	0.	-46.307
15502	10.527	3.3636	0.	-49.429
15503	10.527	3.4545	5.e-002	1.1795e-006
15504	10.803	3.4545	0.	-41.531
15505	10.711	3.3636	0.	-44.39
15506	10.711	3.4545	5.e-002	2.7667e-006
15507	10.988	3.4545	0.	-37.135
15508	10.896	3.3636	0.	-39.757
15509	10.896	3.4545	5.e-002	1.9733e-006
15510	11.173	3.4545	0.	-33.087
15511	11.08	3.3636	0.	-35.494
15512	11.08	3.4545	5.e-002	1.5707e-006
15513	11.357	3.4545	0.	-29.356
15514	11.265	3.3636	0.	-31.568
15515	11.265	3.4545	5.e-002	1.1901e-006
15516	11.542	3.4545	0.	-25.915
15517	11.449	3.3636	0.	-27.95
15518	11.449	3.4545	5.e-002	1.9794e-006
15519	11.726	3.4545	0.	-22.738
15520	11.634	3.3636	0.	-24.613
15521	11.634	3.4545	5.e-002	1.8191e-006
15522	11.911	3.4545	0.	-19.802
15523	11.819	3.3636	0.	-21.531
15524	11.819	3.4545	5.e-002	2.1135e-006
15525	12.095	3.4545	0.	-17.087
15526	12.003	3.3636	0.	-18.683
15527	12.003	3.4545	5.e-002	1.468e-006
15528	12.28	3.4545	0.	-14.573
15529	12.188	3.3636	0.	-16.049
15530	12.188	3.4545	5.e-002	1.7667e-006
15531	12.465	3.4545	0.	-12.242
15532	12.372	3.3636	0.	-13.608
15533	12.372	3.4545	5.e-002	1.6938e-006
15534	12.649	3.4545	0.	-10.079
15535	12.557	3.3636	0.	-11.345
15536	12.557	3.4545	5.e-002	1.9802e-006
15537	12.834	3.4545	0.	-8.0684
15538	12.741	3.3636	0.	-9.2438
15539	12.741	3.4545	5.e-002	1.7848e-006
15540	13.018	3.4545	0.	-6.1966
15541	12.926	3.3636	0.	-7.2893
15542	12.926	3.4545	5.e-002	1.6448e-006
15543	13.203	3.4545	0.	-4.4509
15544	13.11	3.3636	0.	-5.4685
15545	13.11	3.4545	5.e-002	1.9264e-006
15546	13.387	3.4545	0.	-2.8196
15547	13.295	3.3636	0.	-3.7689
15548	13.295	3.4545	5.e-002	2.6765e-006
15549	13.572	3.4545	0.	-1.2923
15550	13.48	3.3636	0.	-2.1792
15551	13.48	3.4545	5.e-002	3.5609e-006
15552	13.756	3.4545	0.	-9.9814e-003
15553	13.664	3.3636	0.	-0.68984
15554	13.664	3.4545	5.e-002	3.6827e-006
15555	13.941	3.4545	0.	4.9612e-003
15556	13.849	3.3636	0.	4.3494e-003
15557	13.849	3.4545	5.e-002	3.0132e-006
15558	14.126	3.4545	0.	5.9349e-003
15559	14.033	3.3636	0.	6.0383e-003
15560	14.033	3.4545	5.e-002	4.0611e-006
15561	14.31	3.4545	0.	6.4103e-003
15562	14.218	3.3636	0.	6.5504e-003
15563	14.218	3.4545	5.e-002	4.3789e-006
15564	14.495	3.4545	0.	6.7351e-003
15565	14.402	3.3636	0.	6.8801e-003
15566	14.402	3.4545	5.e-002	4.8378e-006
15567	14.679	3.4545	0.	7.0068e-003
15568	14.587	3.3636	0.	7.1291e-003
15569	14.587	3.4545	5.e-002	4.1931e-006
15570	14.864	3.4545	0.	7.2685e-003
15571	14.772	3.3636	0.	7.379e-003
15572	14.772	3.4545	5.e-002	3.4155e-006
15573	15.048	3.4545	0.	7.5174e-003
15574	14.956	3.3636	0.	7.6237e-003
15575	14.956	3.4545	5.e-002	2.8141e-006
15576	15.233	3.4545	0.	7.7537e-003
15577	15.141	3.3636	0.	7.8567e-003
15578	15.141	3.4545	5.e-002	2.1783e-006
15579	15.418	3.4545	0.	7.987e-003
15580	15.325	3.3636	0.	8.0822e-003
15581	15.325	3.4545	5.e-002	3.5092e-006
15582	15.602	3.4545	0.	8.2365e-003
15583	15.51	3.3636	0.	8.3158e-003
15584	15.51	3.4545	5.e-002	1.8622e-006
15585	15.787	3.4545	0.	8.4923e-003
15586	15.694	3.3636	0.	8.5752e-003
15587	15.694	3.4545	5.e-002	2.9389e-006
15588	15.971	3.4545	0.	8.7391e-003
15589	15.879	3.3636	0.	8.8224e-003
15590	15.879	3.4545	5.e-002	2.715e-006
15591	16.156	3.4545	0.	8.9996e-003
15592	16.064	3.3636	0.	9.0678e-003
15593	16.064	3.4545	5.e-002	4.1619e-006
15594	16.34	3.4545	0.	9.2756e-003
15595	16.248	3.3636	0.	9.3424e-003
15596	16.248	3.4545	5.e-002	5.4957e-006
15597	16.525	3.4545	0.	9.5505e-003
15598	16.433	3.3636	0.	9.6209e-003
15599	16.433	3.4545	5.e-002	5.3961e-006
15600	16.71	3.4545	0.	9.8392e-003
15601	16.617	3.3636	0.	9.8943e-003
15602	16.617	3.4545	5.e-002	6.6096e-006
15603	16.894	3.4545	0.	1.0152e-002
15604	16.802	3.3636	0.	1.02e-002
15605	16.802	3.4545	5.e-002	6.5146e-006
15606	17.079	3.4545	0.	1.0482e-002
15607	16.986	3.3636	0.	1.0523e-002
15608	16.986	3.4545	5.e-002	6.0491e-006
15609	17.263	3.4545	0.	1.0826e-002
15610	17.171	3.3636	0.	1.0863e-002
15611	17.171	3.4545	5.e-002	5.8541e-006
15612	17.448	3.4545	0.	1.1181e-002
15613	17.356	3.3636	0.	1.1216e-002
15614	17.356	3.4545	5.e-002	2.3154e-006
15615	17.632	3.4545	0.	1.1561e-002
15616	17.54	3.3636	0.	1.1579e-002
15617	17.54	3.4545	5.e-002	2.5776e-006
15618	17.817	3.4545	0.	1.1973e-002
15619	17.725	3.3636	0.	1.198e-002
15620	17.725	3.4545	5.e-002	5.7429e-006
15621	18.002	3.4545	0.	1.2408e-002
15622	17.909	3.3636	0.	1.2407e-002
15623	17.909	3.4545	5.e-002	4.339e-006
15624	18.186	3.4545	0.	1.2868e-002
15625	18.094	3.3636	0.	1.2858e-002
15626	18.094	3.4545	5.e-002	7.4794e-006
15627	18.371	3.4545	0.	1.3359e-002
15628	18.278	3.3636	0.	1.3334e-002
15629	18.278	3.4545	5.e-002	6.0658e-006
15630	18.555	3.4545	0.	1.3894e-002
15631	18.463	3.3636	0.	1.3846e-002
15632	18.463	3.4545	5.e-002	5.1533e-006
15633	18.74	3.4545	0.	1.4468e-002
15634	18.648	3.3636	0.	1.4412e-002
15635	18.648	3.4545	5.e-002	6.4026e-006
15636	18.924	3.4545	0.	1.5075e-002
15637	18.832	3.3636	0.	1.5005e-002
15638	18.832	3.4545	5.e-002	5.2491e-006
15639	19.109	3.4545	0.	1.5737e-002
15640	19.017	3.3636	0.	1.5637e-002
15641	19.017	3.4545	5.e-002	5.0899e-006
15642	19.294	3.4545	0.	1.6456e-002
15643	19.201	3.3636	0.	1.6335e-002
15644	19.201	3.4545	5.e-002	7.0529e-006
15645	19.478	3.4545	0.	1.7229e-002
15646	19.386	3.3636	0.	1.7087e-002
15647	19.386	3.4545	5.e-002	5.176e-006
15648	19.663	3.4545	0.	1.8069e-002
15649	19.57	3.3636	0.	1.7891e-002
15650	19.57	3.4545	5.e-002	6.6175e-006
15651	19.847	3.4545	0.	1.8993e-002
15652	19.755	3.3636	0.	1.878e-002
15653	19.755	3.4545	5.e-002	5.2733e-006
15654	20.032	3.4545	0.	2.0005e-002
15655	19.94	3.3636	0.	1.9755e-002
15656	19.94	3.4545	5.e-002	6.2675e-006
15657	20.216	3.4545	0.	2.1113e-002
15658	20.124	3.3636	0.	2.0818e-002
15659	20.124	3.4545	5.e-002	5.3438e-006
15660	20.401	3.4545	0.	2.2335e-002
15661	20.309	3.3636	0.	2.1984e-002
15662	20.309	3.4545	5.e-002	8.2563e-006
15663	20.585	3.4545	0.	2.3697e-002
15664	20.493	3.3636	0.	2.3279e-002
15665	20.493	3.4545	5.e-002	9.7306e-006
15666	20.77	3.4545	0.	2.5215e-002
15667	20.678	3.3636	0.	2.4725e-002
15668	20.678	3.4545	5.e-002	6.8934e-006
15669	20.955	3.4545	0.	2.6909e-002
15670	20.862	3.3636	0.	2.6331e-002
15671	20.862	3.4545	5.e-002	9.2457e-006
15672	21.139	3.4545	0.	2.8822e-002
15673	21.047	3.3636	0.	2.8135e-002
15674	21.047	3.4545	5.e-002	9.1781e-006
15675	21.324	3.4545	0.	3.0999e-002
15676	21.231	3.3636	0.	3.0182e-002
15677	21.231	3.4545	5.e-002	8.6114e-006
15678	21.508	3.4545	0.	3.3493e-002
15679	21.416	3.3636	0.	3.2514e-002
15680	21.416	3.4545	5.e-002	1.0537e-005
15681	21.693	3.4545	0.	3.6386e-002
15682	21.601	3.3636	0.	3.5198e-002
15683	21.601	3.4545	5.e-002	7.5992e-006
15684	21.877	3.4545	0.	3.9785e-002
15685	21.785	3.3636	0.	3.8334e-002
15686	21.785	3.4545	5.e-002	6.5159e-006
15687	22.062	3.4545	0.	4.3834e-002
15688	21.97	3.3636	0.	4.2041e-002
15689	21.97	3.4545	5.e-002	7.3483e-006
15690	22.247	3.4545	0.	4.8742e-002
15691	22.154	3.3636	0.	4.6496e-002
15692	22.154	3.4545	5.e-002	7.2841e-006
15693	22.431	3.4545	0.	5.4843e-002
15694	22.339	3.3636	0.	5.1949e-002
15695	22.339	3.4545	5.e-002	9.3499e-006
15696	22.616	3.4545	0.	6.2562e-002
15697	22.523	3.3636	0.	5.8829e-002
15698	22.523	3.4545	5.e-002	1.3225e-005
15699	22.8	3.4545	0.	7.293e-002
15700	22.708	3.3636	0.	6.7597e-002
15701	22.708	3.4545	5.e-002	7.2988e-006
15702	22.985	3.4545	0.	8.6381e-002
15703	22.893	3.3636	0.	7.9922e-002
15704	22.893	3.4545	5.e-002	8.4385e-006
15705	23.169	3.4545	0.	0.10923
15706	23.077	3.3636	0.	9.5159e-002
15707	23.077	3.4545	5.e-002	1.0054e-005
15708	23.354	3.4545	0.	0.13229
15709	23.262	3.3636	0.	0.12698
15710	23.262	3.4545	5.e-002	1.382e-005
15711	23.539	3.4545	0.	0.22943
15712	23.446	3.3636	0.	0.14466
15713	23.446	3.4545	5.e-002	1.2222e-005
15714	23.723	3.4545	0.	0.22616
15715	23.631	3.3636	0.	0.33241
15716	23.631	3.4545	5.e-002	1.2046e-005
15717	23.815	3.3636	0.	0.2084
15718	23.815	3.4545	5.e-002	1.1735e-005
15719	23.908	3.4545	0.	0.42743
15720	4.3435	3.2727	0.	-2.1338
15721	4.2512	3.1818	0.	-2.1299
15722	4.2512	3.2727	5.e-002	-1.2287e-004
15723	4.5281	3.2727	0.	0.12116
15724	4.4358	3.1818	0.	-8.851e-002
15725	4.4358	3.2727	5.e-002	-6.981e-006
15726	4.7127	3.2727	0.	-72.878
15727	4.6204	3.1818	0.	0.50559
15728	4.6204	3.2727	5.e-002	2.4263e-005
15729	4.8972	3.2727	0.	-267.03
15730	4.8049	3.1818	0.	-187.41
15731	4.8049	3.2727	5.e-002	1.939e-005
15732	5.0818	3.2727	0.	-390.75
15733	4.9895	3.1818	0.	-345.65
15734	4.9895	3.2727	5.e-002	9.0863e-006
15735	5.2664	3.2727	0.	-460.03
15736	5.1741	3.1818	0.	-440.58
15737	5.1741	3.2727	5.e-002	-2.387e-006
15738	5.4509	3.2727	0.	-491.28
15739	5.3586	3.1818	0.	-489.14
15740	5.3586	3.2727	5.e-002	-1.4874e-005
15741	5.6355	3.2727	0.	-497.26
15742	5.5432	3.1818	0.	-506.08
15743	5.5432	3.2727	5.e-002	-1.0938e-005
15744	5.8201	3.2727	0.	-487.09
15745	5.7278	3.1818	0.	-502.41
15746	5.7278	3.2727	5.e-002	-9.0121e-006
15747	6.0046	3.2727	0.	-467.04
15748	5.9123	3.1818	0.	-485.88
15749	5.9123	3.2727	5.e-002	-1.1771e-005
15750	6.1892	3.2727	0.	-441.34
15751	6.0969	3.1818	0.	-461.74
15752	6.0969	3.2727	5.e-002	-1.0357e-005
15753	6.3738	3.2727	0.	-412.79
15754	6.2815	3.1818	0.	-433.51
15755	6.2815	3.2727	5.e-002	-1.117e-005
15756	6.5583	3.2727	0.	-383.24
15757	6.466	3.1818	0.	-403.51
15758	6.466	3.2727	5.e-002	-2.5993e-006
15759	6.7429	3.2727	0.	-353.89
15760	6.6506	3.1818	0.	-373.23
15761	6.6506	3.2727	5.e-002	-5.1719e-006
15762	6.9275	3.2727	0.	-325.48
15763	6.8352	3.1818	0.	-343.65
15764	6.8352	3.2727	5.e-002	-1.4332e-006
15765	7.112	3.2727	0.	-298.46
15766	7.0198	3.1818	0.	-315.33
15767	7.0198	3.2727	5.e-002	3.7095e-006
15768	7.2966	3.2727	0.	-273.07
15769	7.2043	3.1818	0.	-288.61
15770	7.2043	3.2727	5.e-002	-4.6583e-007
15771	7.4812	3.2727	0.	-249.42
15772	7.3889	3.1818	0.	-263.65
15773	7.3889	3.2727	5.e-002	-5.2594e-007
15774	7.6657	3.2727	0.	-227.53
15775	7.5735	3.1818	0.	-240.52
15776	7.5735	3.2727	5.e-002	1.252e-006
15777	7.8503	3.2727	0.	-207.36
15778	7.758	3.1818	0.	-219.18
15779	7.758	3.2727	5.e-002	-2.3627e-006
15780	8.0349	3.2727	0.	-188.84
15781	7.9426	3.1818	0.	-199.58
15782	7.9426	3.2727	5.e-002	1.6549e-006
15783	8.2194	3.2727	0.	-171.87
15784	8.1272	3.1818	0.	-181.61
15785	8.1272	3.2727	5.e-002	1.5443e-006
15786	8.404	3.2727	0.	-156.35
15787	8.3117	3.1818	0.	-165.18
15788	8.3117	3.2727	5.e-002	2.5404e-006
15789	8.5886	3.2727	0.	-142.16
15790	8.4963	3.1818	0.	-150.17
15791	8.4963	3.2727	5.e-002	3.4465e-006
15792	8.7731	3.2727	0.	-129.21
15793	8.6809	3.1818	0.	-136.47
15794	8.6809	3.2727	5.e-002	2.2529e-006
15795	8.9577	3.2727	0.	-117.38
15796	8.8654	3.1818	0.	-123.97
15797	8.8654	3.2727	5.e-002	2.8215e-006
15798	9.1423	3.2727	0.	-106.57
15799	9.05	3.1818	0.	-112.56
15800	9.05	3.2727	5.e-002	2.3233e-006
15801	9.3269	3.2727	0.	-96.7
15802	9.2346	3.1818	0.	-102.14
15803	9.2346	3.2727	5.e-002	2.6657e-006
15804	9.5114	3.2727	0.	-87.679
15805	9.4191	3.1818	0.	-92.63
15806	9.4191	3.2727	5.e-002	2.0297e-006
15807	9.696	3.2727	0.	-79.43
15808	9.6037	3.1818	0.	-83.939
15809	9.6037	3.2727	5.e-002	3.2733e-006
15810	9.8806	3.2727	0.	-71.882
15811	9.7883	3.1818	0.	-75.994
15812	9.7883	3.2727	5.e-002	2.5137e-006
15813	10.065	3.2727	0.	-64.971
15814	9.9728	3.1818	0.	-68.724
15815	9.9728	3.2727	5.e-002	2.6962e-006
15816	10.25	3.2727	0.	-58.638
15817	10.157	3.1818	0.	-62.067
15818	10.157	3.2727	5.e-002	1.4137e-006
15819	10.434	3.2727	0.	-52.83
15820	10.342	3.1818	0.	-55.968
15821	10.342	3.2727	5.e-002	2.4869e-006
15822	10.619	3.2727	0.	-47.499
15823	10.527	3.1818	0.	-50.373
15824	10.527	3.2727	5.e-002	1.6538e-006
15825	10.803	3.2727	0.	-42.603
15826	10.711	3.1818	0.	-45.238
15827	10.711	3.2727	5.e-002	2.6992e-006
15828	10.988	3.2727	0.	-38.102
15829	10.896	3.1818	0.	-40.521
15830	10.896	3.2727	5.e-002	2.7794e-006
15831	11.173	3.2727	0.	-33.96
15832	11.08	3.1818	0.	-36.184
15833	11.08	3.2727	5.e-002	1.4192e-006
15834	11.357	3.2727	0.	-30.147
15835	11.265	3.1818	0.	-32.192
15836	11.265	3.2727	5.e-002	1.9498e-006
15837	11.542	3.2727	0.	-26.632
15838	11.449	3.1818	0.	-28.515
15839	11.449	3.2727	5.e-002	2.4679e-006
15840	11.726	3.2727	0.	-23.389
15841	11.634	3.1818	0.	-25.126
15842	11.634	3.2727	5.e-002	2.9914e-006
15843	11.911	3.2727	0.	-20.395
15844	11.819	3.1818	0.	-21.998
15845	11.819	3.2727	5.e-002	3.0295e-006
15846	12.095	3.2727	0.	-17.627
15847	12.003	3.1818	0.	-19.108
15848	12.003	3.2727	5.e-002	2.1149e-006
15849	12.28	3.2727	0.	-15.065
15850	12.188	3.1818	0.	-16.436
15851	12.188	3.2727	5.e-002	2.6296e-006
15852	12.465	3.2727	0.	-12.692
15853	12.372	3.1818	0.	-13.961
15854	12.372	3.2727	5.e-002	2.3021e-006
15855	12.649	3.2727	0.	-10.49
15856	12.557	3.1818	0.	-11.668
15857	12.557	3.2727	5.e-002	2.3268e-006
15858	12.834	3.2727	0.	-8.4437
15859	12.741	3.1818	0.	-9.5383
15860	12.741	3.2727	5.e-002	2.4728e-006
15861	13.018	3.2727	0.	-6.5395
15862	12.926	3.1818	0.	-7.5585
15863	12.926	3.2727	5.e-002	2.1999e-006
15864	13.203	3.2727	0.	-4.7642
15865	13.11	3.1818	0.	-5.7144
15866	13.11	3.2727	5.e-002	2.4647e-006
15867	13.387	3.2727	0.	-3.1056
15868	13.295	3.1818	0.	-3.9935
15869	13.295	3.2727	5.e-002	3.5589e-006
15870	13.572	3.2727	0.	-1.5527
15871	13.48	3.1818	0.	-2.3841
15872	13.48	3.2727	5.e-002	4.1524e-006
15873	13.756	3.2727	0.	-0.10248
15874	13.664	3.1818	0.	-0.87549
15875	13.664	3.2727	5.e-002	4.4644e-006
15876	13.941	3.2727	0.	6.0958e-003
15877	13.849	3.1818	0.	6.0111e-003
15878	13.849	3.2727	5.e-002	3.5591e-006
15879	14.126	3.2727	0.	6.6598e-003
15880	14.033	3.1818	0.	6.7493e-003
15881	14.033	3.2727	5.e-002	4.6338e-006
15882	14.31	3.2727	0.	6.9802e-003
15883	14.218	3.1818	0.	7.0478e-003
15884	14.218	3.2727	5.e-002	4.9782e-006
15885	14.495	3.2727	0.	7.2268e-003
15886	14.402	3.1818	0.	7.2864e-003
15887	14.402	3.2727	5.e-002	5.4563e-006
15888	14.679	3.2727	0.	7.4531e-003
15889	14.587	3.1818	0.	7.486e-003
15890	14.587	3.2727	5.e-002	4.7275e-006
15891	14.864	3.2727	0.	7.6863e-003
15892	14.772	3.1818	0.	7.7075e-003
15893	14.772	3.2727	5.e-002	3.9392e-006
15894	15.048	3.2727	0.	7.9156e-003
15895	14.956	3.1818	0.	7.9331e-003
15896	14.956	3.2727	5.e-002	3.3574e-006
15897	15.233	3.2727	0.	8.1384e-003
15898	15.141	3.1818	0.	8.1528e-003
15899	15.141	3.2727	5.e-002	2.7738e-006
15900	15.418	3.2727	0.	8.3644e-003
15901	15.325	3.1818	0.	8.3703e-003
15902	15.325	3.2727	5.e-002	4.0986e-006
15903	15.602	3.2727	0.	8.6081e-003
15904	15.51	3.1818	0.	8.5979e-003
15905	15.51	3.2727	5.e-002	2.7396e-006
15906	15.787	3.2727	0.	8.8589e-003
15907	15.694	3.1818	0.	8.8533e-003
15908	15.694	3.2727	5.e-002	3.698e-006
15909	15.971	3.2727	0.	9.1046e-003
15910	15.879	3.1818	0.	9.0973e-003
15911	15.879	3.2727	5.e-002	3.1084e-006
15912	16.156	3.2727	0.	9.3639e-003
15913	16.064	3.1818	0.	9.3427e-003
15914	16.064	3.2727	5.e-002	5.0282e-006
15915	16.34	3.2727	0.	9.6407e-003
15916	16.248	3.1818	0.	9.6165e-003
15917	16.248	3.2727	5.e-002	5.9934e-006
15918	16.525	3.2727	0.	9.9173e-003
15919	16.433	3.1818	0.	9.8954e-003
15920	16.433	3.2727	5.e-002	6.7215e-006
15921	16.71	3.2727	0.	1.0207e-002
15922	16.617	3.1818	0.	1.017e-002
15923	16.617	3.2727	5.e-002	7.2103e-006
15924	16.894	3.2727	0.	1.0522e-002
15925	16.802	3.1818	0.	1.0477e-002
15926	16.802	3.2727	5.e-002	7.1078e-006
15927	17.079	3.2727	0.	1.0855e-002
15928	16.986	3.1818	0.	1.0802e-002
15929	16.986	3.2727	5.e-002	6.8762e-006
15930	17.263	3.2727	0.	1.1203e-002
15931	17.171	3.1818	0.	1.1144e-002
15932	17.171	3.2727	5.e-002	5.9472e-006
15933	17.448	3.2727	0.	1.1563e-002
15934	17.356	3.1818	0.	1.1502e-002
15935	17.356	3.2727	5.e-002	2.873e-006
15936	17.632	3.2727	0.	1.1946e-002
15937	17.54	3.1818	0.	1.1867e-002
15938	17.54	3.2727	5.e-002	3.3695e-006
15939	17.817	3.2727	0.	1.2361e-002
15940	17.725	3.1818	0.	1.2269e-002
15941	17.725	3.2727	5.e-002	5.7873e-006
15942	18.002	3.2727	0.	1.2803e-002
15943	17.909	3.1818	0.	1.2701e-002
15944	17.909	3.2727	5.e-002	4.8508e-006
15945	18.186	3.2727	0.	1.3269e-002
15946	18.094	3.1818	0.	1.3156e-002
15947	18.094	3.2727	5.e-002	8.4529e-006
15948	18.371	3.2727	0.	1.3765e-002
15949	18.278	3.1818	0.	1.3636e-002
15950	18.278	3.2727	5.e-002	6.7962e-006
15951	18.555	3.2727	0.	1.4306e-002
15952	18.463	3.1818	0.	1.4153e-002
15953	18.463	3.2727	5.e-002	5.63e-006
15954	18.74	3.2727	0.	1.4889e-002
15955	18.648	3.1818	0.	1.4723e-002
15956	18.648	3.2727	5.e-002	7.094e-006
15957	18.924	3.2727	0.	1.5505e-002
15958	18.832	3.1818	0.	1.5321e-002
15959	18.832	3.2727	5.e-002	5.9304e-006
15960	19.109	3.2727	0.	1.6172e-002
15961	19.017	3.1818	0.	1.596e-002
15962	19.017	3.2727	5.e-002	5.7273e-006
15963	19.294	3.2727	0.	1.69e-002
15964	19.201	3.1818	0.	1.6664e-002
15965	19.201	3.2727	5.e-002	7.1941e-006
15966	19.478	3.2727	0.	1.7681e-002
15967	19.386	3.1818	0.	1.7421e-002
15968	19.386	3.2727	5.e-002	6.2617e-006
15969	19.663	3.2727	0.	1.853e-002
15970	19.57	3.1818	0.	1.8232e-002
15971	19.57	3.2727	5.e-002	6.7479e-006
15972	19.847	3.2727	0.	1.9466e-002
15973	19.755	3.1818	0.	1.9128e-002
15974	19.755	3.2727	5.e-002	6.3304e-006
15975	20.032	3.2727	0.	2.0488e-002
15976	19.94	3.1818	0.	2.011e-002
15977	19.94	3.2727	5.e-002	7.3063e-006
15978	20.216	3.2727	0.	2.1605e-002
15979	20.124	3.1818	0.	2.118e-002
15980	20.124	3.2727	5.e-002	5.4137e-006
15981	20.401	3.2727	0.	2.2838e-002
15982	20.309	3.1818	0.	2.2355e-002
15983	20.309	3.2727	5.e-002	8.7838e-006
15984	20.585	3.2727	0.	2.421e-002
15985	20.493	3.1818	0.	2.3657e-002
15986	20.493	3.2727	5.e-002	1.0719e-005
15987	20.77	3.2727	0.	2.5737e-002
15988	20.678	3.1818	0.	2.511e-002
15989	20.678	3.2727	5.e-002	7.394e-006
15990	20.955	3.2727	0.	2.7443e-002
15991	20.862	3.1818	0.	2.6725e-002
15992	20.862	3.2727	5.e-002	9.2853e-006
15993	21.139	3.2727	0.	2.9369e-002
15994	21.047	3.1818	0.	2.8535e-002
15995	21.047	3.2727	5.e-002	1.0195e-005
15996	21.324	3.2727	0.	3.1554e-002
15997	21.231	3.1818	0.	3.0589e-002
15998	21.231	3.2727	5.e-002	8.2349e-006
15999	21.508	3.2727	0.	3.4056e-002
16000	21.416	3.1818	0.	3.2929e-002
16001	21.416	3.2727	5.e-002	1.206e-005
16002	21.693	3.2727	0.	3.6956e-002
16003	21.601	3.1818	0.	3.5618e-002
16004	21.601	3.2727	5.e-002	9.1508e-006
16005	21.877	3.2727	0.	4.0362e-002
16006	21.785	3.1818	0.	3.8759e-002
16007	21.785	3.2727	5.e-002	8.123e-006
16008	22.062	3.2727	0.	4.4422e-002
16009	21.97	3.1818	0.	4.2474e-002
16010	21.97	3.2727	5.e-002	9.9513e-006
16011	22.247	3.2727	0.	4.9345e-002
16012	22.154	3.1818	0.	4.6937e-002
16013	22.154	3.2727	5.e-002	8.0158e-006
16014	22.431	3.2727	0.	5.5459e-002
16015	22.339	3.1818	0.	5.24e-002
16016	22.339	3.2727	5.e-002	8.0952e-006
16017	22.616	3.2727	0.	6.3197e-002
16018	22.523	3.1818	0.	5.9291e-002
16019	22.523	3.2727	5.e-002	1.3837e-005
16020	22.8	3.2727	0.	7.3595e-002
16021	22.708	3.1818	0.	6.8076e-002
16022	22.708	3.2727	5.e-002	9.9046e-006
16023	22.985	3.2727	0.	8.709e-002
16024	22.893	3.1818	0.	8.0431e-002
16025	22.893	3.2727	5.e-002	9.0695e-006
16026	23.169	3.2727	0.	0.11
16027	23.077	3.1818	0.	9.5707e-002
16028	23.077	3.2727	5.e-002	7.9488e-006
16029	23.354	3.2727	0.	0.13317
16030	23.262	3.1818	0.	0.12759
16031	23.262	3.2727	5.e-002	1.5536e-005
16032	23.539	3.2727	0.	0.23055
16033	23.446	3.1818	0.	0.14536
16034	23.446	3.2727	5.e-002	1.1905e-005
16035	23.723	3.2727	0.	0.228
16036	23.631	3.1818	0.	0.33343
16037	23.631	3.2727	5.e-002	1.1801e-005
16038	23.815	3.1818	0.	0.21055
16039	23.815	3.2727	5.e-002	1.1627e-005
16040	23.908	3.2727	0.	0.428
16041	4.3435	3.0909	0.	-0.2248
16042	4.2512	3.	0.	-0.36117
16043	4.2512	3.0909	5.e-002	-3.5828e-005
16044	4.5281	3.0909	0.	0.54635
16045	4.4358	3.	0.	7.554e-002
16046	4.4358	3.0909	5.e-002	-1.0764e-005
16047	4.7127	3.0909	0.	-59.421
16048	4.6204	3.	0.	1.2223
16049	4.6204	3.0909	5.e-002	6.1375e-006
16050	4.8972	3.0909	0.	-259.69
16051	4.8049	3.	0.	-181.61
16052	4.8049	3.0909	5.e-002	6.3246e-006
16053	5.0818	3.0909	0.	-391.71
16054	4.9895	3.	0.	-344.31
16055	4.9895	3.0909	5.e-002	2.8197e-006
16056	5.2664	3.0909	0.	-467.6
16057	5.1741	3.	0.	-443.2
16058	5.1741	3.0909	5.e-002	2.7271e-006
16059	5.4509	3.0909	0.	-502.85
16060	5.3586	3.	0.	-494.34
16061	5.3586	3.0909	5.e-002	-7.211e-006
16062	5.6355	3.0909	0.	-510.69
16063	5.5432	3.	0.	-512.61
16064	5.5432	3.0909	5.e-002	1.2733e-006
16065	5.8201	3.0909	0.	-500.95
16066	5.7278	3.	0.	-509.41
16067	5.7278	3.0909	5.e-002	3.522e-006
16068	6.0046	3.0909	0.	-480.47
16069	5.9123	3.	0.	-492.8
16070	5.9123	3.0909	5.e-002	-4.4512e-006
16071	6.1892	3.0909	0.	-453.87
16072	6.0969	3.	0.	-468.28
16073	6.0969	3.0909	5.e-002	6.2537e-006
16074	6.3738	3.0909	0.	-424.21
16075	6.2815	3.	0.	-439.52
16076	6.2815	3.0909	5.e-002	-1.9976e-006
16077	6.5583	3.0909	0.	-393.49
16078	6.466	3.	0.	-408.93
16079	6.466	3.0909	5.e-002	1.0039e-006
16080	6.7429	3.0909	0.	-362.99
16081	6.6506	3.	0.	-378.06
16082	6.6506	3.0909	5.e-002	3.5029e-006
16083	6.9275	3.0909	0.	-333.49
16084	6.8352	3.	0.	-347.91
16085	6.8352	3.0909	5.e-002	1.9774e-006
16086	7.112	3.0909	0.	-305.48
16087	7.0198	3.	0.	-319.07
16088	7.0198	3.0909	5.e-002	7.3308e-006
16089	7.2966	3.0909	0.	-279.2
16090	7.2043	3.	0.	-291.88
16091	7.2043	3.0909	5.e-002	1.4416e-006
16092	7.4812	3.0909	0.	-254.75
16093	7.3889	3.	0.	-266.51
16094	7.3889	3.0909	5.e-002	-1.1572e-006
16095	7.6657	3.0909	0.	-232.17
16096	7.5735	3.	0.	-243.
16097	7.5735	3.0909	5.e-002	3.5515e-006
16098	7.8503	3.0909	0.	-211.39
16099	7.758	3.	0.	-221.34
16100	7.758	3.0909	5.e-002	4.3756e-006
16101	8.0349	3.0909	0.	-192.35
16102	7.9426	3.	0.	-201.45
16103	7.9426	3.0909	5.e-002	5.0036e-006
16104	8.2194	3.0909	0.	-174.92
16105	8.1272	3.	0.	-183.24
16106	8.1272	3.0909	5.e-002	3.5679e-006
16107	8.404	3.0909	0.	-159.
16108	8.3117	3.	0.	-166.6
16109	8.3117	3.0909	5.e-002	5.8929e-006
16110	8.5886	3.0909	0.	-144.48
16111	8.4963	3.	0.	-151.41
16112	8.4963	3.0909	5.e-002	2.3927e-006
16113	8.7731	3.0909	0.	-131.23
16114	8.6809	3.	0.	-137.55
16115	8.6809	3.0909	5.e-002	2.6373e-006
16116	8.9577	3.0909	0.	-119.15
16117	8.8654	3.	0.	-124.91
16118	8.8654	3.0909	5.e-002	3.7836e-006
16119	9.1423	3.0909	0.	-108.12
16120	9.05	3.	0.	-113.38
16121	9.05	3.0909	5.e-002	3.9449e-006
16122	9.3269	3.0909	0.	-98.066
16123	9.2346	3.	0.	-102.87
16124	9.2346	3.0909	5.e-002	3.1207e-006
16125	9.5114	3.0909	0.	-88.884
16126	9.4191	3.	0.	-93.27
16127	9.4191	3.0909	5.e-002	4.1726e-006
16128	9.696	3.0909	0.	-80.496
16129	9.6037	3.	0.	-84.505
16130	9.6037	3.0909	5.e-002	4.26e-006
16131	9.8806	3.0909	0.	-72.828
16132	9.7883	3.	0.	-76.494
16133	9.7883	3.0909	5.e-002	3.3775e-006
16134	10.065	3.0909	0.	-65.812
16135	9.9728	3.	0.	-69.169
16136	9.9728	3.0909	5.e-002	3.4375e-006
16137	10.25	3.0909	0.	-59.388
16138	10.157	3.	0.	-62.464
16139	10.157	3.0909	5.e-002	3.0108e-006
16140	10.434	3.0909	0.	-53.501
16141	10.342	3.	0.	-56.322
16142	10.342	3.0909	5.e-002	3.5306e-006
16143	10.619	3.0909	0.	-48.101
16144	10.527	3.	0.	-50.69
16145	10.527	3.0909	5.e-002	2.6144e-006
16146	10.803	3.0909	0.	-43.144
16147	10.711	3.	0.	-45.523
16148	10.711	3.0909	5.e-002	3.6004e-006
16149	10.988	3.0909	0.	-38.589
16150	10.896	3.	0.	-40.777
16151	10.896	3.0909	5.e-002	3.6265e-006
16152	11.173	3.0909	0.	-34.401
16153	11.08	3.	0.	-36.415
16154	11.08	3.0909	5.e-002	3.6503e-006
16155	11.357	3.0909	0.	-30.545
16156	11.265	3.	0.	-32.401
16157	11.265	3.0909	5.e-002	3.1904e-006
16158	11.542	3.0909	0.	-26.993
16159	11.449	3.	0.	-28.705
16160	11.449	3.0909	5.e-002	3.4438e-006
16161	11.726	3.0909	0.	-23.717
16162	11.634	3.	0.	-25.298
16163	11.634	3.0909	5.e-002	3.6986e-006
16164	11.911	3.0909	0.	-20.693
16165	11.819	3.	0.	-22.154
16166	11.819	3.0909	5.e-002	3.7104e-006
16167	12.095	3.0909	0.	-17.898
16168	12.003	3.	0.	-19.25
16169	12.003	3.0909	5.e-002	2.7704e-006
16170	12.28	3.0909	0.	-15.313
16171	12.188	3.	0.	-16.565
16172	12.188	3.0909	5.e-002	3.6177e-006
16173	12.465	3.0909	0.	-12.918
16174	12.372	3.	0.	-14.079
16175	12.372	3.0909	5.e-002	2.9122e-006
16176	12.649	3.0909	0.	-10.696
16177	12.557	3.	0.	-11.776
16178	12.557	3.0909	5.e-002	3.1594e-006
16179	12.834	3.0909	0.	-8.6321
16180	12.741	3.	0.	-9.6368
16181	12.741	3.0909	5.e-002	3.347e-006
16182	13.018	3.0909	0.	-6.7117
16183	12.926	3.	0.	-7.6484
16184	12.926	3.0909	5.e-002	2.9981e-006
16185	13.203	3.0909	0.	-4.9215
16186	13.11	3.	0.	-5.7966
16187	13.11	3.0909	5.e-002	3.3047e-006
16188	13.387	3.0909	0.	-3.2492
16189	13.295	3.	0.	-4.0686
16190	13.295	3.0909	5.e-002	4.1761e-006
16191	13.572	3.0909	0.	-1.6835
16192	13.48	3.	0.	-2.4526
16193	13.48	3.0909	5.e-002	4.8707e-006
16194	13.756	3.0909	0.	-0.21416
16195	13.664	3.	0.	-0.93768
16196	13.664	3.0909	5.e-002	5.3672e-006
16197	13.941	3.0909	0.	6.8183e-003
16198	13.849	3.	0.	6.8269e-003
16199	13.849	3.0909	5.e-002	4.3452e-006
16200	14.126	3.0909	0.	7.0637e-003
16201	14.033	3.	0.	7.0122e-003
16202	14.033	3.0909	5.e-002	5.3045e-006
16203	14.31	3.0909	0.	7.2845e-003
16204	14.218	3.	0.	7.2227e-003
16205	14.218	3.0909	5.e-002	5.5485e-006
16206	14.495	3.0909	0.	7.4832e-003
16207	14.402	3.	0.	7.4262e-003
16208	14.402	3.0909	5.e-002	6.0457e-006
16209	14.679	3.0909	0.	7.6829e-003
16210	14.587	3.	0.	7.6088e-003
16211	14.587	3.0909	5.e-002	5.2317e-006
16212	14.864	3.0909	0.	7.9e-003
16213	14.772	3.	0.	7.8183e-003
16214	14.772	3.0909	5.e-002	4.4921e-006
16215	15.048	3.0909	0.	8.1184e-003
16216	14.956	3.	0.	8.0376e-003
16217	14.956	3.0909	5.e-002	3.9009e-006
16218	15.233	3.0909	0.	8.3344e-003
16219	15.141	3.	0.	8.2529e-003
16220	15.141	3.0909	5.e-002	3.4283e-006
16221	15.418	3.0909	0.	8.5545e-003
16222	15.325	3.	0.	8.467e-003
16223	15.325	3.0909	5.e-002	4.5652e-006
16224	15.602	3.0909	0.	8.7945e-003
16225	15.51	3.	0.	8.6922e-003
16226	15.51	3.0909	5.e-002	3.1386e-006
16227	15.787	3.0909	0.	9.0435e-003
16228	15.694	3.	0.	8.9465e-003
16229	15.694	3.0909	5.e-002	3.9747e-006
16230	15.971	3.0909	0.	9.2875e-003
16231	15.879	3.	0.	9.1891e-003
16232	15.879	3.0909	5.e-002	3.7383e-006
16233	16.156	3.0909	0.	9.5474e-003
16234	16.064	3.	0.	9.4341e-003
16235	16.064	3.0909	5.e-002	5.531e-006
16236	16.34	3.0909	0.	9.8233e-003
16237	16.248	3.	0.	9.7087e-003
16238	16.248	3.0909	5.e-002	6.8461e-006
16239	16.525	3.0909	0.	1.01e-002
16240	16.433	3.	0.	9.9867e-003
16241	16.433	3.0909	5.e-002	7.566e-006
16242	16.71	3.0909	0.	1.0391e-002
16243	16.617	3.	0.	1.0262e-002
16244	16.617	3.0909	5.e-002	7.9272e-006
16245	16.894	3.0909	0.	1.0708e-002
16246	16.802	3.	0.	1.0569e-002
16247	16.802	3.0909	5.e-002	8.2902e-006
16248	17.079	3.0909	0.	1.1042e-002
16249	16.986	3.	0.	1.0895e-002
16250	16.986	3.0909	5.e-002	7.4589e-006
16251	17.263	3.0909	0.	1.1393e-002
16252	17.171	3.	0.	1.1238e-002
16253	17.171	3.0909	5.e-002	7.2288e-006
16254	17.448	3.0909	0.	1.1754e-002
16255	17.356	3.	0.	1.1598e-002
16256	17.356	3.0909	5.e-002	4.1367e-006
16257	17.632	3.0909	0.	1.2138e-002
16258	17.54	3.	0.	1.1962e-002
16259	17.54	3.0909	5.e-002	4.1431e-006
16260	17.817	3.0909	0.	1.2557e-002
16261	17.725	3.	0.	1.2366e-002
16262	17.725	3.0909	5.e-002	7.016e-006
16263	18.002	3.0909	0.	1.3e-002
16264	17.909	3.	0.	1.2799e-002
16265	17.909	3.0909	5.e-002	5.5917e-006
16266	18.186	3.0909	0.	1.3468e-002
16267	18.094	3.	0.	1.3254e-002
16268	18.094	3.0909	5.e-002	9.1761e-006
16269	18.371	3.0909	0.	1.3968e-002
16270	18.278	3.	0.	1.3737e-002
16271	18.278	3.0909	5.e-002	7.9892e-006
16272	18.555	3.0909	0.	1.4513e-002
16273	18.463	3.	0.	1.4255e-002
16274	18.463	3.0909	5.e-002	6.8054e-006
16275	18.74	3.0909	0.	1.5096e-002
16276	18.648	3.	0.	1.4826e-002
16277	18.648	3.0909	5.e-002	8.0083e-006
16278	18.924	3.0909	0.	1.5716e-002
16279	18.832	3.	0.	1.5425e-002
16280	18.832	3.0909	5.e-002	6.3494e-006
16281	19.109	3.0909	0.	1.6389e-002
16282	19.017	3.	0.	1.6068e-002
16283	19.017	3.0909	5.e-002	6.6004e-006
16284	19.294	3.0909	0.	1.712e-002
16285	19.201	3.	0.	1.6773e-002
16286	19.201	3.0909	5.e-002	8.281e-006
16287	19.478	3.0909	0.	1.7905e-002
16288	19.386	3.	0.	1.7531e-002
16289	19.386	3.0909	5.e-002	7.8105e-006
16290	19.663	3.0909	0.	1.876e-002
16291	19.57	3.	0.	1.8346e-002
16292	19.57	3.0909	5.e-002	7.3378e-006
16293	19.847	3.0909	0.	1.9699e-002
16294	19.755	3.	0.	1.9244e-002
16295	19.755	3.0909	5.e-002	6.4032e-006
16296	20.032	3.0909	0.	2.0725e-002
16297	19.94	3.	0.	2.0227e-002
16298	19.94	3.0909	5.e-002	7.8408e-006
16299	20.216	3.0909	0.	2.1848e-002
16300	20.124	3.	0.	2.1299e-002
16301	20.124	3.0909	5.e-002	5.4619e-006
16302	20.401	3.0909	0.	2.3086e-002
16303	20.309	3.	0.	2.2477e-002
16304	20.309	3.0909	5.e-002	9.289e-006
16305	20.585	3.0909	0.	2.4463e-002
16306	20.493	3.	0.	2.3783e-002
16307	20.493	3.0909	5.e-002	1.0729e-005
16308	20.77	3.0909	0.	2.5996e-002
16309	20.678	3.	0.	2.5238e-002
16310	20.678	3.0909	5.e-002	8.3499e-006
16311	20.955	3.0909	0.	2.7705e-002
16312	20.862	3.	0.	2.6855e-002
16313	20.862	3.0909	5.e-002	9.7741e-006
16314	21.139	3.0909	0.	2.9631e-002
16315	21.047	3.	0.	2.8665e-002
16316	21.047	3.0909	5.e-002	1.0712e-005
16317	21.324	3.0909	0.	3.1824e-002
16318	21.231	3.	0.	3.0722e-002
16319	21.231	3.0909	5.e-002	9.7422e-006
16320	21.508	3.0909	0.	3.4331e-002
16321	21.416	3.	0.	3.3065e-002
16322	21.416	3.0909	5.e-002	1.1654e-005
16323	21.693	3.0909	0.	3.7235e-002
16324	21.601	3.	0.	3.5757e-002
16325	21.601	3.0909	5.e-002	9.7299e-006
16326	21.877	3.0909	0.	4.0647e-002
16327	21.785	3.	0.	3.8901e-002
16328	21.785	3.0909	5.e-002	8.7511e-006
16329	22.062	3.0909	0.	4.4712e-002
16330	21.97	3.	0.	4.2616e-002
16331	21.97	3.0909	5.e-002	1.0633e-005
16332	22.247	3.0909	0.	4.9638e-002
16333	22.154	3.	0.	4.7083e-002
16334	22.154	3.0909	5.e-002	9.6664e-006
16335	22.431	3.0909	0.	5.5759e-002
16336	22.339	3.	0.	5.2546e-002
16337	22.339	3.0909	5.e-002	1.0648e-005
16338	22.616	3.0909	0.	6.3507e-002
16339	22.523	3.	0.	5.9443e-002
16340	22.523	3.0909	5.e-002	1.5421e-005
16341	22.8	3.0909	0.	7.392e-002
16342	22.708	3.	0.	6.8235e-002
16343	22.708	3.0909	5.e-002	8.7085e-006
16344	22.985	3.0909	0.	8.7439e-002
16345	22.893	3.	0.	8.0597e-002
16346	22.893	3.0909	5.e-002	9.6993e-006
16347	23.169	3.0909	0.	0.11039
16348	23.077	3.	0.	9.5887e-002
16349	23.077	3.0909	5.e-002	9.6411e-006
16350	23.354	3.0909	0.	0.13359
16351	23.262	3.	0.	0.12779
16352	23.262	3.0909	5.e-002	1.3444e-005
16353	23.539	3.0909	0.	0.2311
16354	23.446	3.	0.	0.14559
16355	23.446	3.0909	5.e-002	1.5412e-005
16356	23.723	3.0909	0.	0.22891
16357	23.631	3.	0.	0.33377
16358	23.631	3.0909	5.e-002	9.6569e-006
16359	23.815	3.	0.	0.21126
16360	23.815	3.0909	5.e-002	1.5314e-005
16361	23.908	3.0909	0.	0.42829
16362	4.3435	2.9091	0.	-0.2248
16363	4.2512	2.8182	0.	-2.1299
16364	4.2512	2.9091	5.e-002	-2.0294e-006
16365	4.5281	2.9091	0.	0.54635
16366	4.4358	2.8182	0.	-8.8509e-002
16367	4.4358	2.9091	5.e-002	-1.9866e-005
16368	4.7127	2.9091	0.	-59.421
16369	4.6204	2.8182	0.	0.50558
16370	4.6204	2.9091	5.e-002	-2.7917e-005
16371	4.8972	2.9091	0.	-259.69
16372	4.8049	2.8182	0.	-187.41
16373	4.8049	2.9091	5.e-002	-1.8722e-005
16374	5.0818	2.9091	0.	-391.71
16375	4.9895	2.8182	0.	-345.65
16376	4.9895	2.9091	5.e-002	-1.0473e-005
16377	5.2664	2.9091	0.	-467.6
16378	5.1741	2.8182	0.	-440.58
16379	5.1741	2.9091	5.e-002	-2.7323e-006
16380	5.4509	2.9091	0.	-502.85
16381	5.3586	2.8182	0.	-489.14
16382	5.3586	2.9091	5.e-002	-3.237e-007
16383	5.6355	2.9091	0.	-510.69
16384	5.5432	2.8182	0.	-506.08
16385	5.5432	2.9091	5.e-002	2.1603e-005
16386	5.8201	2.9091	0.	-500.95
16387	5.7278	2.8182	0.	-502.41
16388	5.7278	2.9091	5.e-002	1.1399e-005
16389	6.0046	2.9091	0.	-480.47
16390	5.9123	2.8182	0.	-485.88
16391	5.9123	2.9091	5.e-002	8.2313e-006
16392	6.1892	2.9091	0.	-453.87
16393	6.0969	2.8182	0.	-461.74
16394	6.0969	2.9091	5.e-002	1.2555e-005
16395	6.3738	2.9091	0.	-424.21
16396	6.2815	2.8182	0.	-433.51
16397	6.2815	2.9091	5.e-002	1.7938e-006
16398	6.5583	2.9091	0.	-393.49
16399	6.466	2.8182	0.	-403.51
16400	6.466	2.9091	5.e-002	6.5466e-006
16401	6.7429	2.9091	0.	-362.99
16402	6.6506	2.8182	0.	-373.23
16403	6.6506	2.9091	5.e-002	1.1667e-005
16404	6.9275	2.9091	0.	-333.49
16405	6.8352	2.8182	0.	-343.65
16406	6.8352	2.9091	5.e-002	9.5378e-006
16407	7.112	2.9091	0.	-305.48
16408	7.0198	2.8182	0.	-315.33
16409	7.0198	2.9091	5.e-002	7.7306e-006
16410	7.2966	2.9091	0.	-279.2
16411	7.2043	2.8182	0.	-288.61
16412	7.2043	2.9091	5.e-002	6.2473e-006
16413	7.4812	2.9091	0.	-254.75
16414	7.3889	2.8182	0.	-263.65
16415	7.3889	2.9091	5.e-002	5.0271e-006
16416	7.6657	2.9091	0.	-232.17
16417	7.5735	2.8182	0.	-240.52
16418	7.5735	2.9091	5.e-002	7.8566e-006
16419	7.8503	2.9091	0.	-211.39
16420	7.758	2.8182	0.	-219.18
16421	7.758	2.9091	5.e-002	5.1342e-006
16422	8.0349	2.9091	0.	-192.35
16423	7.9426	2.8182	0.	-199.58
16424	7.9426	2.9091	5.e-002	6.4432e-006
16425	8.2194	2.9091	0.	-174.92
16426	8.1272	2.8182	0.	-181.61
16427	8.1272	2.9091	5.e-002	2.1406e-006
16428	8.404	2.9091	0.	-159.
16429	8.3117	2.8182	0.	-165.18
16430	8.3117	2.9091	5.e-002	3.6356e-006
16431	8.5886	2.9091	0.	-144.48
16432	8.4963	2.8182	0.	-150.17
16433	8.4963	2.9091	5.e-002	3.3349e-006
16434	8.7731	2.9091	0.	-131.23
16435	8.6809	2.8182	0.	-136.47
16436	8.6809	2.9091	5.e-002	6.896e-006
16437	8.9577	2.9091	0.	-119.15
16438	8.8654	2.8182	0.	-123.97
16439	8.8654	2.9091	5.e-002	2.8981e-006
16440	9.1423	2.9091	0.	-108.12
16441	9.05	2.8182	0.	-112.56
16442	9.05	2.9091	5.e-002	2.7397e-006
16443	9.3269	2.9091	0.	-98.066
16444	9.2346	2.8182	0.	-102.14
16445	9.2346	2.9091	5.e-002	4.5171e-006
16446	9.5114	2.9091	0.	-88.884
16447	9.4191	2.8182	0.	-92.63
16448	9.4191	2.9091	5.e-002	4.4131e-006
16449	9.696	2.9091	0.	-80.496
16450	9.6037	2.8182	0.	-83.939
16451	9.6037	2.9091	5.e-002	3.3751e-006
16452	9.8806	2.9091	0.	-72.828
16453	9.7883	2.8182	0.	-75.994
16454	9.7883	2.9091	5.e-002	4.256e-006
16455	10.065	2.9091	0.	-65.812
16456	9.9728	2.8182	0.	-68.724
16457	9.9728	2.9091	5.e-002	3.2415e-006
16458	10.25	2.9091	0.	-59.388
16459	10.157	2.8182	0.	-62.067
16460	10.157	2.9091	5.e-002	4.1414e-006
16461	10.434	2.9091	0.	-53.501
16462	10.342	2.8182	0.	-55.968
16463	10.342	2.9091	5.e-002	3.1472e-006
16464	10.619	2.9091	0.	-48.101
16465	10.527	2.8182	0.	-50.373
16466	10.527	2.9091	5.e-002	3.1091e-006
16467	10.803	2.9091	0.	-43.144
16468	10.711	2.8182	0.	-45.238
16469	10.711	2.9091	5.e-002	3.553e-006
16470	10.988	2.9091	0.	-38.589
16471	10.896	2.8182	0.	-40.521
16472	10.896	2.9091	5.e-002	3.5257e-006
16473	11.173	2.9091	0.	-34.401
16474	11.08	2.8182	0.	-36.184
16475	11.08	2.9091	5.e-002	2.5493e-006
16476	11.357	2.9091	0.	-30.545
16477	11.265	2.8182	0.	-32.192
16478	11.265	2.9091	5.e-002	2.2941e-006
16479	11.542	2.9091	0.	-26.993
16480	11.449	2.8182	0.	-28.515
16481	11.449	2.9091	5.e-002	3.2321e-006
16482	11.726	2.9091	0.	-23.717
16483	11.634	2.8182	0.	-25.126
16484	11.634	2.9091	5.e-002	3.2164e-006
16485	11.911	2.9091	0.	-20.693
16486	11.819	2.8182	0.	-21.998
16487	11.819	2.9091	5.e-002	3.2039e-006
16488	12.095	2.9091	0.	-17.898
16489	12.003	2.8182	0.	-19.108
16490	12.003	2.9091	5.e-002	2.2373e-006
16491	12.28	2.9091	0.	-15.313
16492	12.188	2.8182	0.	-16.436
16493	12.188	2.9091	5.e-002	2.5814e-006
16494	12.465	2.9091	0.	-12.918
16495	12.372	2.8182	0.	-13.961
16496	12.372	2.9091	5.e-002	2.5718e-006
16497	12.649	2.9091	0.	-10.696
16498	12.557	2.8182	0.	-11.668
16499	12.557	2.9091	5.e-002	2.5629e-006
16500	12.834	2.9091	0.	-8.6321
16501	12.741	2.8182	0.	-9.5383
16502	12.741	2.9091	5.e-002	2.6138e-006
16503	13.018	2.9091	0.	-6.7117
16504	12.926	2.8182	0.	-7.5585
16505	12.926	2.9091	5.e-002	2.3071e-006
16506	13.203	2.9091	0.	-4.9215
16507	13.11	2.8182	0.	-5.7144
16508	13.11	2.9091	5.e-002	2.4772e-006
16509	13.387	2.9091	0.	-3.2492
16510	13.295	2.8182	0.	-3.9935
16511	13.295	2.9091	5.e-002	3.4535e-006
16512	13.572	2.9091	0.	-1.6835
16513	13.48	2.8182	0.	-2.3842
16514	13.48	2.9091	5.e-002	3.7983e-006
16515	13.756	2.9091	0.	-0.21417
16516	13.664	2.8182	0.	-0.8755
16517	13.664	2.9091	5.e-002	4.2889e-006
16518	13.941	2.9091	0.	6.8182e-003
16519	13.849	2.8182	0.	6.0111e-003
16520	13.849	2.9091	5.e-002	3.463e-006
16521	14.126	2.9091	0.	7.063e-003
16522	14.033	2.8182	0.	6.7491e-003
16523	14.033	2.9091	5.e-002	4.2918e-006
16524	14.31	2.9091	0.	7.2836e-003
16525	14.218	2.8182	0.	7.0477e-003
16526	14.218	2.9091	5.e-002	4.5172e-006
16527	14.495	2.9091	0.	7.4838e-003
16528	14.402	2.8182	0.	7.2857e-003
16529	14.402	2.9091	5.e-002	4.8022e-006
16530	14.679	2.9091	0.	7.6834e-003
16531	14.587	2.8182	0.	7.4869e-003
16532	14.587	2.9091	5.e-002	4.3943e-006
16533	14.864	2.9091	0.	7.8994e-003
16534	14.772	2.8182	0.	7.7066e-003
16535	14.772	2.9091	5.e-002	3.3754e-006
16536	15.048	2.9091	0.	8.1185e-003
16537	14.956	2.8182	0.	7.9328e-003
16538	14.956	2.9091	5.e-002	2.5361e-006
16539	15.233	2.9091	0.	8.334e-003
16540	15.141	2.8182	0.	8.1533e-003
16541	15.141	2.9091	5.e-002	1.9953e-006
16542	15.418	2.9091	0.	8.5545e-003
16543	15.325	2.8182	0.	8.3699e-003
16544	15.325	2.9091	5.e-002	3.0636e-006
16545	15.602	2.9091	0.	8.7949e-003
16546	15.51	2.8182	0.	8.5986e-003
16547	15.51	2.9091	5.e-002	1.8674e-006
16548	15.787	2.9091	0.	9.0433e-003
16549	15.694	2.8182	0.	8.8525e-003
16550	15.694	2.9091	5.e-002	2.5811e-006
16551	15.971	2.9091	0.	9.2872e-003
16552	15.879	2.8182	0.	9.097e-003
16553	15.879	2.9091	5.e-002	2.5789e-006
16554	16.156	2.9091	0.	9.547e-003
16555	16.064	2.8182	0.	9.3426e-003
16556	16.064	2.9091	5.e-002	4.1242e-006
16557	16.34	2.9091	0.	9.8237e-003
16558	16.248	2.8182	0.	9.6169e-003
16559	16.248	2.9091	5.e-002	5.074e-006
16560	16.525	2.9091	0.	1.01e-002
16561	16.433	2.8182	0.	9.8956e-003
16562	16.433	2.9091	5.e-002	5.7847e-006
16563	16.71	2.9091	0.	1.0391e-002
16564	16.617	2.8182	0.	1.0171e-002
16565	16.617	2.9091	5.e-002	6.4959e-006
16566	16.894	2.9091	0.	1.0707e-002
16567	16.802	2.8182	0.	1.0476e-002
16568	16.802	2.9091	5.e-002	6.7291e-006
16569	17.079	2.9091	0.	1.1041e-002
16570	16.986	2.8182	0.	1.0802e-002
16571	16.986	2.9091	5.e-002	6.1296e-006
16572	17.263	2.9091	0.	1.1393e-002
16573	17.171	2.8182	0.	1.1145e-002
16574	17.171	2.9091	5.e-002	5.6444e-006
16575	17.448	2.9091	0.	1.1754e-002
16576	17.356	2.8182	0.	1.1503e-002
16577	17.356	2.9091	5.e-002	2.5372e-006
16578	17.632	2.9091	0.	1.2138e-002
16579	17.54	2.8182	0.	1.1866e-002
16580	17.54	2.9091	5.e-002	2.7695e-006
16581	17.817	2.9091	0.	1.2557e-002
16582	17.725	2.8182	0.	1.227e-002
16583	17.725	2.9091	5.e-002	4.9033e-006
16584	18.002	2.9091	0.	1.3e-002
16585	17.909	2.8182	0.	1.2701e-002
16586	17.909	2.9091	5.e-002	4.4199e-006
16587	18.186	2.9091	0.	1.3468e-002
16588	18.094	2.8182	0.	1.3156e-002
16589	18.094	2.9091	5.e-002	7.2727e-006
16590	18.371	2.9091	0.	1.3968e-002
16591	18.278	2.8182	0.	1.3636e-002
16592	18.278	2.9091	5.e-002	6.3137e-006
16593	18.555	2.9091	0.	1.4512e-002
16594	18.463	2.8182	0.	1.4154e-002
16595	18.463	2.9091	5.e-002	5.1132e-006
16596	18.74	2.9091	0.	1.5097e-002
16597	18.648	2.8182	0.	1.4723e-002
16598	18.648	2.9091	5.e-002	5.8164e-006
16599	18.924	2.9091	0.	1.5717e-002
16600	18.832	2.8182	0.	1.5321e-002
16601	18.832	2.9091	5.e-002	5.3296e-006
16602	19.109	2.9091	0.	1.6389e-002
16603	19.017	2.8182	0.	1.596e-002
16604	19.017	2.9091	5.e-002	4.8399e-006
16605	19.294	2.9091	0.	1.712e-002
16606	19.201	2.8182	0.	1.6664e-002
16607	19.201	2.9091	5.e-002	6.0199e-006
16608	19.478	2.9091	0.	1.7905e-002
16609	19.386	2.8182	0.	1.7421e-002
16610	19.386	2.9091	5.e-002	4.5825e-006
16611	19.663	2.9091	0.	1.876e-002
16612	19.57	2.8182	0.	1.8231e-002
16613	19.57	2.9091	5.e-002	5.5317e-006
16614	19.847	2.9091	0.	1.9698e-002
16615	19.755	2.8182	0.	1.9129e-002
16616	19.755	2.9091	5.e-002	4.5595e-006
16617	20.032	2.9091	0.	2.0724e-002
16618	19.94	2.8182	0.	2.0109e-002
16619	19.94	2.9091	5.e-002	5.0287e-006
16620	20.216	2.9091	0.	2.1847e-002
16621	20.124	2.8182	0.	2.118e-002
16622	20.124	2.9091	5.e-002	3.115e-006
16623	20.401	2.9091	0.	2.3086e-002
16624	20.309	2.8182	0.	2.2355e-002
16625	20.309	2.9091	5.e-002	6.4399e-006
16626	20.585	2.9091	0.	2.4463e-002
16627	20.493	2.8182	0.	2.3658e-002
16628	20.493	2.9091	5.e-002	8.3378e-006
16629	20.77	2.9091	0.	2.5995e-002
16630	20.678	2.8182	0.	2.511e-002
16631	20.678	2.9091	5.e-002	5.9464e-006
16632	20.955	2.9091	0.	2.7705e-002
16633	20.862	2.8182	0.	2.6725e-002
16634	20.862	2.9091	5.e-002	7.3841e-006
16635	21.139	2.9091	0.	2.9633e-002
16636	21.047	2.8182	0.	2.8534e-002
16637	21.047	2.9091	5.e-002	8.3516e-006
16638	21.324	2.9091	0.	3.1824e-002
16639	21.231	2.8182	0.	3.0588e-002
16640	21.231	2.9091	5.e-002	7.414e-006
16641	21.508	2.9091	0.	3.4331e-002
16642	21.416	2.8182	0.	3.2928e-002
16643	21.416	2.9091	5.e-002	9.318e-006
16644	21.693	2.9091	0.	3.7236e-002
16645	21.601	2.8182	0.	3.5619e-002
16646	21.601	2.9091	5.e-002	7.424e-006
16647	21.877	2.9091	0.	4.0646e-002
16648	21.785	2.8182	0.	3.876e-002
16649	21.785	2.9091	5.e-002	5.5399e-006
16650	22.062	2.9091	0.	4.471e-002
16651	21.97	2.8182	0.	4.2473e-002
16652	21.97	2.9091	5.e-002	6.5205e-006
16653	22.247	2.9091	0.	4.9637e-002
16654	22.154	2.8182	0.	4.6938e-002
16655	22.154	2.9091	5.e-002	7.4843e-006
16656	22.431	2.9091	0.	5.5757e-002
16657	22.339	2.8182	0.	5.2398e-002
16658	22.339	2.9091	5.e-002	8.4103e-006
16659	22.616	2.9091	0.	6.3507e-002
16660	22.523	2.8182	0.	5.9291e-002
16661	22.523	2.9091	5.e-002	1.1268e-005
16662	22.8	2.9091	0.	7.3919e-002
16663	22.708	2.8182	0.	6.8077e-002
16664	22.708	2.9091	5.e-002	6.535e-006
16665	22.985	2.9091	0.	8.7436e-002
16666	22.893	2.8182	0.	8.0429e-002
16667	22.893	2.9091	5.e-002	8.406e-006
16668	23.169	2.9091	0.	0.11038
16669	23.077	2.8182	0.	9.5706e-002
16670	23.077	2.9091	5.e-002	9.4175e-006
16671	23.354	2.9091	0.	0.13359
16672	23.262	2.8182	0.	0.12759
16673	23.262	2.9091	5.e-002	1.3244e-005
16674	23.539	2.9091	0.	0.2311
16675	23.446	2.8182	0.	0.14536
16676	23.446	2.9091	5.e-002	7.4614e-006
16677	23.723	2.9091	0.	0.2289
16678	23.631	2.8182	0.	0.33343
16679	23.631	2.9091	5.e-002	1.1307e-005
16680	23.815	2.8182	0.	0.21055
16681	23.815	2.9091	5.e-002	9.4572e-006
16682	23.908	2.9091	0.	0.42828
16683	4.3435	2.7273	0.	-2.1338
16684	4.2512	2.6364	0.	1.0663
16685	4.2512	2.7273	5.e-002	8.7316e-005
16686	4.5281	2.7273	0.	0.12116
16687	4.4358	2.6364	0.	3.5035e-003
16688	4.4358	2.7273	5.e-002	-2.6781e-005
16689	4.7127	2.7273	0.	-72.878
16690	4.6204	2.6364	0.	-2.7506
16691	4.6204	2.7273	5.e-002	-4.5689e-005
16692	4.8972	2.7273	0.	-267.03
16693	4.8049	2.6364	0.	-199.9
16694	4.8049	2.7273	5.e-002	-3.5497e-005
16695	5.0818	2.7273	0.	-390.75
16696	4.9895	2.6364	0.	-344.94
16697	4.9895	2.7273	5.e-002	-1.7375e-005
16698	5.2664	2.7273	0.	-460.03
16699	5.1741	2.6364	0.	-429.39
16700	5.1741	2.7273	5.e-002	4.0662e-006
16701	5.4509	2.7273	0.	-491.28
16702	5.3586	2.6364	0.	-471.59
16703	5.3586	2.7273	5.e-002	1.155e-005
16704	5.6355	2.7273	0.	-497.26
16705	5.5432	2.6364	0.	-485.5
16706	5.5432	2.7273	5.e-002	2.0092e-005
16707	5.8201	2.7273	0.	-487.09
16708	5.7278	2.6364	0.	-481.04
16709	5.7278	2.7273	5.e-002	2.2288e-005
16710	6.0046	2.7273	0.	-467.04
16711	5.9123	2.6364	0.	-465.07
16712	5.9123	2.7273	5.e-002	2.1476e-005
16713	6.1892	2.7273	0.	-441.34
16714	6.0969	2.6364	0.	-442.24
16715	6.0969	2.7273	5.e-002	2.1068e-005
16716	6.3738	2.7273	0.	-412.79
16717	6.2815	2.6364	0.	-415.67
16718	6.2815	2.7273	5.e-002	1.0773e-005
16719	6.5583	2.7273	0.	-383.24
16720	6.466	2.6364	0.	-387.45
16721	6.466	2.7273	5.e-002	1.3411e-005
16722	6.7429	2.7273	0.	-353.89
16723	6.6506	2.6364	0.	-358.95
16724	6.6506	2.7273	5.e-002	1.5938e-005
16725	6.9275	2.7273	0.	-325.48
16726	6.8352	2.6364	0.	-331.04
16727	6.8352	2.7273	5.e-002	1.2201e-005
16728	7.112	2.7273	0.	-298.46
16729	7.0198	2.6364	0.	-304.26
16730	7.0198	2.7273	5.e-002	7.1071e-006
16731	7.2966	2.7273	0.	-273.07
16732	7.2043	2.6364	0.	-278.94
16733	7.2043	2.7273	5.e-002	1.1364e-005
16734	7.4812	2.7273	0.	-249.42
16735	7.3889	2.6364	0.	-255.22
16736	7.3889	2.7273	5.e-002	1.5284e-005
16737	7.6657	2.7273	0.	-227.53
16738	7.5735	2.6364	0.	-233.18
16739	7.5735	2.7273	5.e-002	6.0445e-006
16740	7.8503	2.7273	0.	-207.36
16741	7.758	2.6364	0.	-212.8
16742	7.758	2.7273	5.e-002	9.733e-006
16743	8.0349	2.7273	0.	-188.84
16744	7.9426	2.6364	0.	-194.03
16745	7.9426	2.7273	5.e-002	3.8795e-006
16746	8.2194	2.7273	0.	-171.87
16747	8.1272	2.6364	0.	-176.79
16748	8.1272	2.7273	5.e-002	4.3652e-006
16749	8.404	2.7273	0.	-156.35
16750	8.3117	2.6364	0.	-160.98
16751	8.3117	2.7273	5.e-002	5.2343e-006
16752	8.5886	2.7273	0.	-142.16
16753	8.4963	2.6364	0.	-146.51
16754	8.4963	2.7273	5.e-002	4.2082e-006
16755	8.7731	2.7273	0.	-129.21
16756	8.6809	2.6364	0.	-133.27
16757	8.6809	2.7273	5.e-002	3.4856e-006
16758	8.9577	2.7273	0.	-117.38
16759	8.8654	2.6364	0.	-121.17
16760	8.8654	2.7273	5.e-002	3.861e-006
16761	9.1423	2.7273	0.	-106.57
16762	9.05	2.6364	0.	-110.1
16763	9.05	2.7273	5.e-002	4.3616e-006
16764	9.3269	2.7273	0.	-96.7
16765	9.2346	2.6364	0.	-99.985
16766	9.2346	2.7273	5.e-002	3.9815e-006
16767	9.5114	2.7273	0.	-87.679
16768	9.4191	2.6364	0.	-90.729
16769	9.4191	2.7273	5.e-002	4.6433e-006
16770	9.696	2.7273	0.	-79.43
16771	9.6037	2.6364	0.	-82.259
16772	9.6037	2.7273	5.e-002	4.3818e-006
16773	9.8806	2.7273	0.	-71.882
16774	9.7883	2.6364	0.	-74.504
16775	9.7883	2.7273	5.e-002	2.2636e-006
16776	10.065	2.7273	0.	-64.971
16777	9.9728	2.6364	0.	-67.4
16778	9.9728	2.7273	5.e-002	3.0352e-006
16779	10.25	2.7273	0.	-58.638
16780	10.157	2.6364	0.	-60.888
16781	10.157	2.7273	5.e-002	2.8796e-006
16782	10.434	2.7273	0.	-52.83
16783	10.342	2.6364	0.	-54.913
16784	10.342	2.7273	5.e-002	2.7572e-006
16785	10.619	2.7273	0.	-47.499
16786	10.527	2.6364	0.	-49.429
16787	10.527	2.7273	5.e-002	3.121e-006
16788	10.803	2.7273	0.	-42.603
16789	10.711	2.6364	0.	-44.39
16790	10.711	2.7273	5.e-002	3.0233e-006
16791	10.988	2.7273	0.	-38.102
16792	10.896	2.6364	0.	-39.757
16793	10.896	2.7273	5.e-002	3.8947e-006
16794	11.173	2.7273	0.	-33.961
16795	11.08	2.6364	0.	-35.494
16796	11.08	2.7273	5.e-002	2.8783e-006
16797	11.357	2.7273	0.	-30.147
16798	11.265	2.6364	0.	-31.568
16799	11.265	2.7273	5.e-002	2.5837e-006
16800	11.542	2.7273	0.	-26.632
16801	11.449	2.6364	0.	-27.95
16802	11.449	2.7273	5.e-002	2.7788e-006
16803	11.726	2.7273	0.	-23.389
16804	11.634	2.6364	0.	-24.613
16805	11.634	2.7273	5.e-002	3.2095e-006
16806	11.911	2.7273	0.	-20.395
16807	11.819	2.6364	0.	-21.531
16808	11.819	2.7273	5.e-002	3.1718e-006
16809	12.095	2.7273	0.	-17.627
16810	12.003	2.6364	0.	-18.683
16811	12.003	2.7273	5.e-002	2.4147e-006
16812	12.28	2.7273	0.	-15.065
16813	12.188	2.6364	0.	-16.049
16814	12.188	2.7273	5.e-002	2.7336e-006
16815	12.465	2.7273	0.	-12.692
16816	12.372	2.6364	0.	-13.608
16817	12.372	2.7273	5.e-002	2.5885e-006
16818	12.649	2.7273	0.	-10.49
16819	12.557	2.6364	0.	-11.345
16820	12.557	2.7273	5.e-002	2.6792e-006
16821	12.834	2.7273	0.	-8.4437
16822	12.741	2.6364	0.	-9.2438
16823	12.741	2.7273	5.e-002	2.7145e-006
16824	13.018	2.7273	0.	-6.5395
16825	12.926	2.6364	0.	-7.2894
16826	12.926	2.7273	5.e-002	2.3909e-006
16827	13.203	2.7273	0.	-4.7642
16828	13.11	2.6364	0.	-5.4685
16829	13.11	2.7273	5.e-002	2.3944e-006
16830	13.387	2.7273	0.	-3.1056
16831	13.295	2.6364	0.	-3.7689
16832	13.295	2.7273	5.e-002	3.4607e-006
16833	13.572	2.7273	0.	-1.5527
16834	13.48	2.6364	0.	-2.1792
16835	13.48	2.7273	5.e-002	4.2679e-006
16836	13.756	2.7273	0.	-0.1025
16837	13.664	2.6364	0.	-0.68985
16838	13.664	2.7273	5.e-002	4.2236e-006
16839	13.941	2.7273	0.	6.0959e-003
16840	13.849	2.6364	0.	4.349e-003
16841	13.849	2.7273	5.e-002	3.3256e-006
16842	14.126	2.7273	0.	6.6602e-003
16843	14.033	2.6364	0.	6.0386e-003
16844	14.033	2.7273	5.e-002	4.2696e-006
16845	14.31	2.7273	0.	6.9805e-003
16846	14.218	2.6364	0.	6.5505e-003
16847	14.218	2.7273	5.e-002	4.4317e-006
16848	14.495	2.7273	0.	7.2264e-003
16849	14.402	2.6364	0.	6.8798e-003
16850	14.402	2.7273	5.e-002	4.6758e-006
16851	14.679	2.7273	0.	7.4525e-003
16852	14.587	2.6364	0.	7.1291e-003
16853	14.587	2.7273	5.e-002	4.0933e-006
16854	14.864	2.7273	0.	7.6858e-003
16855	14.772	2.6364	0.	7.3792e-003
16856	14.772	2.7273	5.e-002	3.0332e-006
16857	15.048	2.7273	0.	7.9157e-003
16858	14.956	2.6364	0.	7.6234e-003
16859	14.956	2.7273	5.e-002	2.1242e-006
16860	15.233	2.7273	0.	8.1389e-003
16861	15.141	2.6364	0.	7.8571e-003
16862	15.141	2.7273	5.e-002	1.9922e-006
16863	15.418	2.7273	0.	8.3647e-003
16864	15.325	2.6364	0.	8.0824e-003
16865	15.325	2.7273	5.e-002	2.6941e-006
16866	15.602	2.7273	0.	8.6077e-003
16867	15.51	2.6364	0.	8.3166e-003
16868	15.51	2.7273	5.e-002	1.549e-006
16869	15.787	2.7273	0.	8.858e-003
16870	15.694	2.6364	0.	8.5745e-003
16871	15.694	2.7273	5.e-002	2.2607e-006
16872	15.971	2.7273	0.	9.1044e-003
16873	15.879	2.6364	0.	8.8216e-003
16874	15.879	2.7273	5.e-002	2.1337e-006
16875	16.156	2.7273	0.	9.3645e-003
16876	16.064	2.6364	0.	9.0682e-003
16877	16.064	2.7273	5.e-002	3.7884e-006
16878	16.34	2.7273	0.	9.6407e-003
16879	16.248	2.6364	0.	9.342e-003
16880	16.248	2.7273	5.e-002	4.7316e-006
16881	16.525	2.7273	0.	9.918e-003
16882	16.433	2.6364	0.	9.6212e-003
16883	16.433	2.7273	5.e-002	5.3135e-006
16884	16.71	2.7273	0.	1.0208e-002
16885	16.617	2.6364	0.	9.8944e-003
16886	16.617	2.7273	5.e-002	6.1366e-006
16887	16.894	2.7273	0.	1.0522e-002
16888	16.802	2.6364	0.	1.0199e-002
16889	16.802	2.7273	5.e-002	6.4783e-006
16890	17.079	2.7273	0.	1.0856e-002
16891	16.986	2.6364	0.	1.0523e-002
16892	16.986	2.7273	5.e-002	6.2307e-006
16893	17.263	2.7273	0.	1.1205e-002
16894	17.171	2.6364	0.	1.0863e-002
16895	17.171	2.7273	5.e-002	5.7284e-006
16896	17.448	2.7273	0.	1.1564e-002
16897	17.356	2.6364	0.	1.1219e-002
16898	17.356	2.7273	5.e-002	2.366e-006
16899	17.632	2.7273	0.	1.1946e-002
16900	17.54	2.6364	0.	1.158e-002
16901	17.54	2.7273	5.e-002	2.3486e-006
16902	17.817	2.7273	0.	1.2362e-002
16903	17.725	2.6364	0.	1.1979e-002
16904	17.725	2.7273	5.e-002	4.4566e-006
16905	18.002	2.7273	0.	1.2804e-002
16906	17.909	2.6364	0.	1.2407e-002
16907	17.909	2.7273	5.e-002	3.9603e-006
16908	18.186	2.7273	0.	1.3269e-002
16909	18.094	2.6364	0.	1.2858e-002
16910	18.094	2.7273	5.e-002	7.5122e-006
16911	18.371	2.7273	0.	1.3766e-002
16912	18.278	2.6364	0.	1.3334e-002
16913	18.278	2.7273	5.e-002	6.0645e-006
16914	18.555	2.7273	0.	1.4307e-002
16915	18.463	2.6364	0.	1.3848e-002
16916	18.463	2.7273	5.e-002	5.3266e-006
16917	18.74	2.7273	0.	1.4888e-002
16918	18.648	2.6364	0.	1.441e-002
16919	18.648	2.7273	5.e-002	5.5289e-006
16920	18.924	2.7273	0.	1.5504e-002
16921	18.832	2.6364	0.	1.5003e-002
16922	18.832	2.7273	5.e-002	4.0664e-006
16923	19.109	2.7273	0.	1.6172e-002
16924	19.017	2.6364	0.	1.5637e-002
16925	19.017	2.7273	5.e-002	4.0288e-006
16926	19.294	2.7273	0.	1.69e-002
16927	19.201	2.6364	0.	1.6336e-002
16928	19.201	2.7273	5.e-002	6.1378e-006
16929	19.478	2.7273	0.	1.768e-002
16930	19.386	2.6364	0.	1.7086e-002
16931	19.386	2.7273	5.e-002	4.2096e-006
16932	19.663	2.7273	0.	1.853e-002
16933	19.57	2.6364	0.	1.7891e-002
16934	19.57	2.7273	5.e-002	4.1973e-006
16935	19.847	2.7273	0.	1.9466e-002
16936	19.755	2.6364	0.	1.878e-002
16937	19.755	2.7273	5.e-002	4.6189e-006
16938	20.032	2.7273	0.	2.0487e-002
16939	19.94	2.6364	0.	1.9753e-002
16940	19.94	2.7273	5.e-002	4.5889e-006
16941	20.216	2.7273	0.	2.1606e-002
16942	20.124	2.6364	0.	2.0817e-002
16943	20.124	2.7273	5.e-002	2.6628e-006
16944	20.401	2.7273	0.	2.2839e-002
16945	20.309	2.6364	0.	2.1986e-002
16946	20.309	2.7273	5.e-002	5.4914e-006
16947	20.585	2.7273	0.	2.421e-002
16948	20.493	2.6364	0.	2.3279e-002
16949	20.493	2.7273	5.e-002	6.8883e-006
16950	20.77	2.7273	0.	2.5738e-002
16951	20.678	2.6364	0.	2.4725e-002
16952	20.678	2.7273	5.e-002	4.9609e-006
16953	20.955	2.7273	0.	2.7443e-002
16954	20.862	2.6364	0.	2.6333e-002
16955	20.862	2.7273	5.e-002	6.8875e-006
16956	21.139	2.7273	0.	2.9365e-002
16957	21.047	2.6364	0.	2.8133e-002
16958	21.047	2.7273	5.e-002	5.9727e-006
16959	21.324	2.7273	0.	3.1552e-002
16960	21.231	2.6364	0.	3.018e-002
16961	21.231	2.7273	5.e-002	5.0719e-006
16962	21.508	2.7273	0.	3.4056e-002
16963	21.416	2.6364	0.	3.2515e-002
16964	21.416	2.7273	5.e-002	8.8671e-006
16965	21.693	2.7273	0.	3.6956e-002
16966	21.601	2.6364	0.	3.52e-002
16967	21.601	2.7273	5.e-002	6.0512e-006
16968	21.877	2.7273	0.	4.0363e-002
16969	21.785	2.6364	0.	3.8332e-002
16970	21.785	2.7273	5.e-002	4.2119e-006
16971	22.062	2.7273	0.	4.4424e-002
16972	21.97	2.6364	0.	4.2041e-002
16973	21.97	2.7273	5.e-002	7.1534e-006
16974	22.247	2.7273	0.	4.9344e-002
16975	22.154	2.6364	0.	4.6497e-002
16976	22.154	2.7273	5.e-002	6.2376e-006
16977	22.431	2.7273	0.	5.5458e-002
16978	22.339	2.6364	0.	5.1949e-002
16979	22.339	2.7273	5.e-002	6.1473e-006
16980	22.616	2.7273	0.	6.3197e-002
16981	22.523	2.6364	0.	5.8828e-002
16982	22.523	2.7273	5.e-002	1.1866e-005
16983	22.8	2.7273	0.	7.3594e-002
16984	22.708	2.6364	0.	6.7596e-002
16985	22.708	2.7273	5.e-002	6.2512e-006
16986	22.985	2.7273	0.	8.709e-002
16987	22.893	2.6364	0.	7.9922e-002
16988	22.893	2.7273	5.e-002	8.9943e-006
16989	23.169	2.7273	0.	0.11
16990	23.077	2.6364	0.	9.5159e-002
16991	23.077	2.7273	5.e-002	3.4523e-006
16992	23.354	2.7273	0.	0.13317
16993	23.262	2.6364	0.	0.12698
16994	23.262	2.7273	5.e-002	9.2131e-006
16995	23.539	2.7273	0.	0.23055
16996	23.446	2.6364	0.	0.14466
16997	23.446	2.7273	5.e-002	1.093e-005
16998	23.723	2.7273	0.	0.228
16999	23.631	2.6364	0.	0.33241
17000	23.631	2.7273	5.e-002	9.1118e-006
17001	23.815	2.6364	0.	0.2084
17002	23.815	2.7273	5.e-002	1.1186e-005
17003	23.908	2.7273	0.	0.42801
17004	4.3435	2.5455	0.	2.8988
17005	4.2512	2.4545	0.	-8.431
17006	4.2512	2.5455	5.e-002	1.3355e-004
17007	4.5281	2.5455	0.	-0.3897
17008	4.4358	2.4545	0.	-5.744
17009	4.4358	2.5455	5.e-002	9.4696e-006
17010	4.7127	2.5455	0.	-91.961
17011	4.6204	2.4545	0.	-3.7995
17012	4.6204	2.5455	5.e-002	-3.7903e-005
17013	4.8972	2.5455	0.	-272.32
17014	4.8049	2.4545	0.	-200.48
17015	4.8049	2.5455	5.e-002	-2.9297e-005
17016	5.0818	2.5455	0.	-380.8
17017	4.9895	2.4545	0.	-327.98
17018	4.9895	2.5455	5.e-002	1.1795e-006
17019	5.2664	2.5455	0.	-439.59
17020	5.1741	2.4545	0.	-400.74
17021	5.1741	2.5455	5.e-002	1.3868e-005
17022	5.4509	2.5455	0.	-465.17
17023	5.3586	2.4545	0.	-436.81
17024	5.3586	2.5455	5.e-002	3.6434e-005
17025	5.6355	2.5455	0.	-468.99
17026	5.5432	2.4545	0.	-448.57
17027	5.5432	2.5455	5.e-002	3.6762e-005
17028	5.8201	2.5455	0.	-458.9
17029	5.7278	2.4545	0.	-444.5
17030	5.7278	2.5455	5.e-002	3.9036e-005
17031	6.0046	2.5455	0.	-440.22
17032	5.9123	2.4545	0.	-430.39
17033	5.9123	2.5455	5.e-002	3.8745e-005
17034	6.1892	2.5455	0.	-416.56
17035	6.0969	2.4545	0.	-410.2
17036	6.0969	2.5455	5.e-002	2.6609e-005
17037	6.3738	2.5455	0.	-390.33
17038	6.2815	2.4545	0.	-386.6
17039	6.2815	2.5455	5.e-002	2.7931e-005
17040	6.5583	2.5455	0.	-363.16
17041	6.466	2.4545	0.	-361.41
17042	6.466	2.5455	5.e-002	2.7855e-005
17043	6.7429	2.5455	0.	-336.1
17044	6.6506	2.4545	0.	-335.84
17045	6.6506	2.5455	5.e-002	2.4244e-005
17046	6.9275	2.5455	0.	-309.82
17047	6.8352	2.4545	0.	-310.66
17048	6.8352	2.5455	5.e-002	2.1879e-005
17049	7.112	2.5455	0.	-284.74
17050	7.0198	2.4545	0.	-286.39
17051	7.0198	2.5455	5.e-002	1.0702e-005
17052	7.2966	2.5455	0.	-261.09
17053	7.2043	2.4545	0.	-263.31
17054	7.2043	2.5455	5.e-002	5.089e-006
17055	7.4812	2.5455	0.	-238.98
17056	7.3889	2.4545	0.	-241.59
17057	7.3889	2.5455	5.e-002	1.958e-005
17058	7.6657	2.5455	0.	-218.45
17059	7.5735	2.4545	0.	-221.31
17060	7.5735	2.5455	5.e-002	8.6542e-006
17061	7.8503	2.5455	0.	-199.46
17062	7.758	2.4545	0.	-202.47
17063	7.758	2.5455	5.e-002	7.1513e-006
17064	8.0349	2.5455	0.	-181.97
17065	7.9426	2.4545	0.	-185.04
17066	7.9426	2.5455	5.e-002	6.3124e-006
17067	8.2194	2.5455	0.	-165.89
17068	8.1272	2.4545	0.	-168.96
17069	8.1272	2.5455	5.e-002	6.0191e-006
17070	8.404	2.5455	0.	-151.14
17071	8.3117	2.4545	0.	-154.16
17072	8.3117	2.5455	5.e-002	6.4935e-006
17073	8.5886	2.5455	0.	-137.62
17074	8.4963	2.4545	0.	-140.56
17075	8.4963	2.5455	5.e-002	6.9085e-006
17076	8.7731	2.5455	0.	-125.23
17077	8.6809	2.4545	0.	-128.07
17078	8.6809	2.5455	5.e-002	5.7275e-006
17079	8.9577	2.5455	0.	-113.89
17080	8.8654	2.4545	0.	-116.61
17081	8.8654	2.5455	5.e-002	4.6222e-006
17082	9.1423	2.5455	0.	-103.51
17083	9.05	2.4545	0.	-106.1
17084	9.05	2.5455	5.e-002	3.9168e-006
17085	9.3269	2.5455	0.	-94.008
17086	9.2346	2.4545	0.	-96.462
17087	9.2346	2.5455	5.e-002	5.3094e-006
17088	9.5114	2.5455	0.	-85.303
17089	9.4191	2.4545	0.	-87.621
17090	9.4191	2.5455	5.e-002	6.7868e-006
17091	9.696	2.5455	0.	-77.326
17092	9.6037	2.4545	0.	-79.509
17093	9.6037	2.5455	5.e-002	5.3525e-006
17094	9.8806	2.5455	0.	-70.014
17095	9.7883	2.4545	0.	-72.064
17096	9.7883	2.5455	5.e-002	5.9624e-006
17097	10.065	2.5455	0.	-63.308
17098	9.9728	2.4545	0.	-65.229
17099	9.9728	2.5455	5.e-002	5.145e-006
17100	10.25	2.5455	0.	-57.153
17101	10.157	2.4545	0.	-58.95
17102	10.157	2.5455	5.e-002	3.9503e-006
17103	10.434	2.5455	0.	-51.501
17104	10.342	2.4545	0.	-53.18
17105	10.342	2.5455	5.e-002	3.7493e-006
17106	10.619	2.5455	0.	-46.307
17107	10.527	2.4545	0.	-47.874
17108	10.527	2.5455	5.e-002	3.577e-006
17109	10.803	2.5455	0.	-41.531
17110	10.711	2.4545	0.	-42.992
17111	10.711	2.5455	5.e-002	4.8571e-006
17112	10.988	2.5455	0.	-37.135
17113	10.896	2.4545	0.	-38.497
17114	10.896	2.5455	5.e-002	3.7553e-006
17115	11.173	2.5455	0.	-33.087
17116	11.08	2.4545	0.	-34.356
17117	11.08	2.5455	5.e-002	3.6586e-006
17118	11.357	2.5455	0.	-29.356
17119	11.265	2.4545	0.	-30.539
17120	11.265	2.5455	5.e-002	3.0949e-006
17121	11.542	2.5455	0.	-25.915
17122	11.449	2.4545	0.	-27.017
17123	11.449	2.5455	5.e-002	3.4932e-006
17124	11.726	2.5455	0.	-22.738
17125	11.634	2.4545	0.	-23.765
17126	11.634	2.5455	5.e-002	3.8989e-006
17127	11.911	2.5455	0.	-19.802
17128	11.819	2.4545	0.	-20.76
17129	11.819	2.5455	5.e-002	3.8385e-006
17130	12.095	2.5455	0.	-17.087
17131	12.003	2.4545	0.	-17.981
17132	12.003	2.5455	5.e-002	2.4675e-006
17133	12.28	2.5455	0.	-14.573
17134	12.188	2.4545	0.	-15.408
17135	12.188	2.5455	5.e-002	3.4752e-006
17136	12.465	2.5455	0.	-12.242
17137	12.372	2.4545	0.	-13.024
17138	12.372	2.5455	5.e-002	3.3095e-006
17139	12.649	2.5455	0.	-10.079
17140	12.557	2.4545	0.	-10.812
17141	12.557	2.5455	5.e-002	3.7425e-006
17142	12.834	2.5455	0.	-8.0685
17143	12.741	2.4545	0.	-8.756
17144	12.741	2.5455	5.e-002	3.4627e-006
17145	13.018	2.5455	0.	-6.1966
17146	12.926	2.4545	0.	-6.8434
17147	12.926	2.5455	5.e-002	3.4805e-006
17148	13.203	2.5455	0.	-4.4509
17149	13.11	2.4545	0.	-5.0609
17150	13.11	2.5455	5.e-002	3.3801e-006
17151	13.387	2.5455	0.	-2.8196
17152	13.295	2.4545	0.	-3.3965
17153	13.295	2.5455	5.e-002	4.1482e-006
17154	13.572	2.5455	0.	-1.2923
17155	13.48	2.4545	0.	-1.8396
17156	13.48	2.5455	5.e-002	4.8682e-006
17157	13.756	2.5455	0.	-9.9842e-003
17158	13.664	2.4545	0.	-0.38557
17159	13.664	2.5455	5.e-002	4.9002e-006
17160	13.941	2.5455	0.	4.9611e-003
17161	13.849	2.4545	0.	2.8283e-003
17162	13.849	2.5455	5.e-002	4.0204e-006
17163	14.126	2.5455	0.	5.935e-003
17164	14.033	2.4545	0.	5.059e-003
17165	14.033	2.5455	5.e-002	5.1627e-006
17166	14.31	2.5455	0.	6.4099e-003
17167	14.218	2.4545	0.	5.8043e-003
17168	14.218	2.5455	5.e-002	4.9716e-006
17169	14.495	2.5455	0.	6.7352e-003
17170	14.402	2.4545	0.	6.2473e-003
17171	14.402	2.5455	5.e-002	5.4137e-006
17172	14.679	2.5455	0.	7.0075e-003
17173	14.587	2.4545	0.	6.5614e-003
17174	14.587	2.5455	5.e-002	4.656e-006
17175	14.864	2.5455	0.	7.269e-003
17176	14.772	2.4545	0.	6.8515e-003
17177	14.772	2.5455	5.e-002	3.8849e-006
17178	15.048	2.5455	0.	7.5175e-003
17179	14.956	2.4545	0.	7.1218e-003
17180	14.956	2.5455	5.e-002	2.847e-006
17181	15.233	2.5455	0.	7.7538e-003
17182	15.141	2.4545	0.	7.373e-003
17183	15.141	2.5455	5.e-002	2.35e-006
17184	15.418	2.5455	0.	7.9879e-003
17185	15.325	2.4545	0.	7.6099e-003
17186	15.325	2.5455	5.e-002	3.2226e-006
17187	15.602	2.5455	0.	8.2371e-003
17188	15.51	2.4545	0.	7.8513e-003
17189	15.51	2.5455	5.e-002	2.1865e-006
17190	15.787	2.5455	0.	8.4918e-003
17191	15.694	2.4545	0.	8.115e-003
17192	15.694	2.5455	5.e-002	2.8961e-006
17193	15.971	2.5455	0.	8.7389e-003
17194	15.879	2.4545	0.	8.3648e-003
17195	15.879	2.5455	5.e-002	2.7663e-006
17196	16.156	2.5455	0.	8.999e-003
17197	16.064	2.4545	0.	8.6119e-003
17198	16.064	2.5455	5.e-002	4.0556e-006
17199	16.34	2.5455	0.	9.2755e-003
17200	16.248	2.4545	0.	8.8864e-003
17201	16.248	2.5455	5.e-002	5.4682e-006
17202	16.525	2.5455	0.	9.5502e-003
17203	16.433	2.4545	0.	9.1641e-003
17204	16.433	2.5455	5.e-002	6.163e-006
17205	16.71	2.5455	0.	9.8382e-003
17206	16.617	2.4545	0.	9.4329e-003
17207	16.617	2.5455	5.e-002	6.7353e-006
17208	16.894	2.5455	0.	1.0151e-002
17209	16.802	2.4545	0.	9.7375e-003
17210	16.802	2.5455	5.e-002	7.3066e-006
17211	17.079	2.5455	0.	1.0481e-002
17212	16.986	2.4545	0.	1.0057e-002
17213	16.986	2.5455	5.e-002	6.6973e-006
17214	17.263	2.5455	0.	1.0828e-002
17215	17.171	2.4545	0.	1.0393e-002
17216	17.171	2.5455	5.e-002	6.5314e-006
17217	17.448	2.5455	0.	1.1184e-002
17218	17.356	2.4545	0.	1.0744e-002
17219	17.356	2.5455	5.e-002	3.1572e-006
17220	17.632	2.5455	0.	1.1561e-002
17221	17.54	2.4545	0.	1.1098e-002
17222	17.54	2.5455	5.e-002	3.1275e-006
17223	17.817	2.5455	0.	1.1972e-002
17224	17.725	2.4545	0.	1.1492e-002
17225	17.725	2.5455	5.e-002	5.9283e-006
17226	18.002	2.5455	0.	1.2408e-002
17227	17.909	2.4545	0.	1.1913e-002
17228	17.909	2.5455	5.e-002	4.9446e-006
17229	18.186	2.5455	0.	1.2868e-002
17230	18.094	2.4545	0.	1.2357e-002
17231	18.094	2.5455	5.e-002	8.0055e-006
17232	18.371	2.5455	0.	1.3359e-002
17233	18.278	2.4545	0.	1.2825e-002
17234	18.278	2.5455	5.e-002	6.786e-006
17235	18.555	2.5455	0.	1.3893e-002
17236	18.463	2.4545	0.	1.3331e-002
17237	18.463	2.5455	5.e-002	6.0261e-006
17238	18.74	2.5455	0.	1.4466e-002
17239	18.648	2.4545	0.	1.3885e-002
17240	18.648	2.5455	5.e-002	6.4435e-006
17241	18.924	2.5455	0.	1.5075e-002
17242	18.832	2.4545	0.	1.4468e-002
17243	18.832	2.5455	5.e-002	5.6793e-006
17244	19.109	2.5455	0.	1.5737e-002
17245	19.017	2.4545	0.	1.5093e-002
17246	19.017	2.5455	5.e-002	4.6625e-006
17247	19.294	2.5455	0.	1.6457e-002
17248	19.201	2.4545	0.	1.5781e-002
17249	19.201	2.5455	5.e-002	7.2189e-006
17250	19.478	2.5455	0.	1.7229e-002
17251	19.386	2.4545	0.	1.652e-002
17252	19.386	2.5455	5.e-002	5.7506e-006
17253	19.663	2.5455	0.	1.8069e-002
17254	19.57	2.4545	0.	1.7313e-002
17255	19.57	2.5455	5.e-002	5.2419e-006
17256	19.847	2.5455	0.	1.8992e-002
17257	19.755	2.4545	0.	1.819e-002
17258	19.755	2.5455	5.e-002	5.1595e-006
17259	20.032	2.5455	0.	2.0004e-002
17260	19.94	2.4545	0.	1.915e-002
17261	19.94	2.5455	5.e-002	5.1407e-006
17262	20.216	2.5455	0.	2.1113e-002
17263	20.124	2.4545	0.	2.0201e-002
17264	20.124	2.5455	5.e-002	2.7091e-006
17265	20.401	2.5455	0.	2.2337e-002
17266	20.309	2.4545	0.	2.1356e-002
17267	20.309	2.5455	5.e-002	6.4717e-006
17268	20.585	2.5455	0.	2.3698e-002
17269	20.493	2.4545	0.	2.2636e-002
17270	20.493	2.5455	5.e-002	7.8419e-006
17271	20.77	2.5455	0.	2.5216e-002
17272	20.678	2.4545	0.	2.4068e-002
17273	20.678	2.5455	5.e-002	4.9507e-006
17274	20.955	2.5455	0.	2.6909e-002
17275	20.862	2.4545	0.	2.5662e-002
17276	20.862	2.5455	5.e-002	7.3628e-006
17277	21.139	2.5455	0.	2.8821e-002
17278	21.047	2.4545	0.	2.7448e-002
17279	21.047	2.5455	5.e-002	6.4846e-006
17280	21.324	2.5455	0.	3.1001e-002
17281	21.231	2.4545	0.	2.9484e-002
17282	21.231	2.5455	5.e-002	6.5692e-006
17283	21.508	2.5455	0.	3.3496e-002
17284	21.416	2.4545	0.	3.1806e-002
17285	21.416	2.5455	5.e-002	9.4093e-006
17286	21.693	2.5455	0.	3.6386e-002
17287	21.601	2.4545	0.	3.4477e-002
17288	21.601	2.5455	5.e-002	6.6003e-006
17289	21.877	2.5455	0.	3.9783e-002
17290	21.785	2.4545	0.	3.76e-002
17291	21.785	2.5455	5.e-002	4.8235e-006
17292	22.062	2.5455	0.	4.3834e-002
17293	21.97	2.4545	0.	4.1295e-002
17294	21.97	2.5455	5.e-002	5.9089e-006
17295	22.247	2.5455	0.	4.8744e-002
17296	22.154	2.4545	0.	4.5739e-002
17297	22.154	2.5455	5.e-002	5.9451e-006
17298	22.431	2.5455	0.	5.4843e-002
17299	22.339	2.4545	0.	5.1174e-002
17300	22.339	2.5455	5.e-002	6.7652e-006
17301	22.616	2.5455	0.	6.2561e-002
17302	22.523	2.4545	0.	5.803e-002
17303	22.523	2.5455	5.e-002	1.0599e-005
17304	22.8	2.5455	0.	7.2929e-002
17305	22.708	2.4545	0.	6.6769e-002
17306	22.708	2.5455	5.e-002	5.998e-006
17307	22.985	2.5455	0.	8.6381e-002
17308	22.893	2.4545	0.	7.9047e-002
17309	22.893	2.5455	5.e-002	7.7232e-006
17310	23.169	2.5455	0.	0.10923
17311	23.077	2.4545	0.	9.4219e-002
17312	23.077	2.5455	5.e-002	8.9655e-006
17313	23.354	2.5455	0.	0.13229
17314	23.262	2.4545	0.	0.12593
17315	23.262	2.5455	5.e-002	1.0944e-005
17316	23.539	2.5455	0.	0.22943
17317	23.446	2.4545	0.	0.14345
17318	23.446	2.5455	5.e-002	8.7045e-006
17319	23.723	2.5455	0.	0.22616
17320	23.631	2.4545	0.	0.33067
17321	23.631	2.5455	5.e-002	8.8465e-006
17322	23.815	2.4545	0.	0.20476
17323	23.815	2.5455	5.e-002	9.1294e-006
17324	23.908	2.5455	0.	0.42743
17325	4.3435	2.3636	0.	-17.08
17326	4.2512	2.2727	0.	-9.3526
17327	4.2512	2.3636	5.e-002	2.9981e-004
17328	4.5281	2.3636	0.	-2.5635
17329	4.4358	2.2727	0.	18.02
17330	4.4358	2.3636	5.e-002	3.8756e-005
17331	4.7127	2.3636	0.	-92.146
17332	4.6204	2.2727	0.	-1.4825
17333	4.6204	2.3636	5.e-002	-3.8179e-006
17334	4.8972	2.3636	0.	-252.78
17335	4.8049	2.2727	0.	-154.38
17336	4.8049	2.3636	5.e-002	1.5758e-005
17337	5.0818	2.3636	0.	-346.76
17338	4.9895	2.2727	0.	-275.06
17339	4.9895	2.3636	5.e-002	5.3957e-005
17340	5.2664	2.3636	0.	-397.64
17341	5.1741	2.2727	0.	-344.07
17342	5.1741	2.3636	5.e-002	6.5824e-005
17343	5.4509	2.3636	0.	-420.19
17344	5.3586	2.2727	0.	-379.82
17345	5.3586	2.3636	5.e-002	6.843e-005
17346	5.6355	2.3636	0.	-424.13
17347	5.5432	2.2727	0.	-393.42
17348	5.5432	2.3636	5.e-002	8.0514e-005
17349	5.8201	2.3636	0.	-416.05
17350	5.7278	2.2727	0.	-392.59
17351	5.7278	2.3636	5.e-002	5.9318e-005
17352	6.0046	2.3636	0.	-400.41
17353	5.9123	2.2727	0.	-382.49
17354	5.9123	2.3636	5.e-002	6.072e-005
17355	6.1892	2.3636	0.	-380.27
17356	6.0969	2.2727	0.	-366.65
17357	6.0969	2.3636	5.e-002	4.6693e-005
17358	6.3738	2.3636	0.	-357.7
17359	6.2815	2.2727	0.	-347.45
17360	6.2815	2.3636	5.e-002	2.4578e-005
17361	6.5583	2.3636	0.	-334.1
17362	6.466	2.2727	0.	-326.52
17363	6.466	2.3636	5.e-002	4.1297e-005
17364	6.7429	2.3636	0.	-310.41
17365	6.6506	2.2727	0.	-304.95
17366	6.6506	2.3636	5.e-002	1.9703e-005
17367	6.9275	2.3636	0.	-287.23
17368	6.8352	2.2727	0.	-283.47
17369	6.8352	2.3636	5.e-002	3.2641e-005
17370	7.112	2.3636	0.	-264.95
17371	7.0198	2.2727	0.	-262.53
17372	7.0198	2.3636	5.e-002	1.7131e-005
17373	7.2966	2.3636	0.	-243.81
17374	7.2043	2.2727	0.	-242.44
17375	7.2043	2.3636	5.e-002	1.7472e-005
17376	7.4812	2.3636	0.	-223.92
17377	7.3889	2.2727	0.	-223.37
17378	7.3889	2.3636	5.e-002	1.6447e-005
17379	7.6657	2.3636	0.	-205.33
17380	7.5735	2.2727	0.	-205.42
17381	7.5735	2.3636	5.e-002	7.5354e-006
17382	7.8503	2.3636	0.	-188.04
17383	7.758	2.2727	0.	-188.63
17384	7.758	2.3636	5.e-002	1.1657e-005
17385	8.0349	2.3636	0.	-172.02
17386	7.9426	2.2727	0.	-172.97
17387	7.9426	2.3636	5.e-002	9.6552e-006
17388	8.2194	2.3636	0.	-157.22
17389	8.1272	2.2727	0.	-158.44
17390	8.1272	2.3636	5.e-002	7.6262e-006
17391	8.404	2.3636	0.	-143.58
17392	8.3117	2.2727	0.	-144.98
17393	8.3117	2.3636	5.e-002	4.6553e-006
17394	8.5886	2.3636	0.	-131.01
17395	8.4963	2.2727	0.	-132.53
17396	8.4963	2.3636	5.e-002	7.6329e-006
17397	8.7731	2.3636	0.	-119.45
17398	8.6809	2.2727	0.	-121.04
17399	8.6809	2.3636	5.e-002	5.1338e-006
17400	8.9577	2.3636	0.	-108.82
17401	8.8654	2.2727	0.	-110.44
17402	8.8654	2.3636	5.e-002	6.3571e-006
17403	9.1423	2.3636	0.	-99.046
17404	9.05	2.2727	0.	-100.68
17405	9.05	2.3636	5.e-002	5.3415e-006
17406	9.3269	2.3636	0.	-90.069
17407	9.2346	2.2727	0.	-91.679
17408	9.2346	2.3636	5.e-002	5.3675e-006
17409	9.5114	2.3636	0.	-81.82
17410	9.4191	2.2727	0.	-83.392
17411	9.4191	2.3636	5.e-002	5.6848e-006
17412	9.696	2.3636	0.	-74.239
17413	9.6037	2.2727	0.	-75.761
17414	9.6037	2.3636	5.e-002	5.3764e-006
17415	9.8806	2.3636	0.	-67.27
17416	9.7883	2.2727	0.	-68.733
17417	9.7883	2.3636	5.e-002	6.6897e-006
17418	10.065	2.3636	0.	-60.862
17419	9.9728	2.2727	0.	-62.261
17420	9.9728	2.3636	5.e-002	4.8487e-006
17421	10.25	2.3636	0.	-54.967
17422	10.157	2.2727	0.	-56.298
17423	10.157	2.3636	5.e-002	4.5334e-006
17424	10.434	2.3636	0.	-49.542
17425	10.342	2.2727	0.	-50.804
17426	10.342	2.3636	5.e-002	4.261e-006
17427	10.619	2.3636	0.	-44.547
17428	10.527	2.2727	0.	-45.74
17429	10.527	2.3636	5.e-002	3.9665e-006
17430	10.803	2.3636	0.	-39.946
17431	10.711	2.2727	0.	-41.071
17432	10.711	2.3636	5.e-002	5.2098e-006
17433	10.988	2.3636	0.	-35.705
17434	10.896	2.2727	0.	-36.764
17435	10.896	2.3636	5.e-002	4.0758e-006
17436	11.173	2.3636	0.	-31.793
17437	11.08	2.2727	0.	-32.789
17438	11.08	2.3636	5.e-002	3.2e-006
17439	11.357	2.3636	0.	-28.184
17440	11.265	2.2727	0.	-29.119
17441	11.265	2.3636	5.e-002	3.1237e-006
17442	11.542	2.3636	0.	-24.851
17443	11.449	2.2727	0.	-25.728
17444	11.449	2.3636	5.e-002	4.1748e-006
17445	11.726	2.3636	0.	-21.77
17446	11.634	2.2727	0.	-22.594
17447	11.634	2.3636	5.e-002	4.1159e-006
17448	11.911	2.3636	0.	-18.921
17449	11.819	2.2727	0.	-19.694
17450	11.819	2.3636	5.e-002	4.2513e-006
17451	12.095	2.3636	0.	-16.284
17452	12.003	2.2727	0.	-17.009
17453	12.003	2.3636	5.e-002	3.446e-006
17454	12.28	2.3636	0.	-13.84
17455	12.188	2.2727	0.	-14.521
17456	12.188	2.3636	5.e-002	3.8268e-006
17457	12.465	2.3636	0.	-11.573
17458	12.372	2.2727	0.	-12.214
17459	12.372	2.3636	5.e-002	3.5441e-006
17460	12.649	2.3636	0.	-9.468
17461	12.557	2.2727	0.	-10.071
17462	12.557	2.3636	5.e-002	3.9617e-006
17463	12.834	2.3636	0.	-7.5098
17464	12.741	2.2727	0.	-8.0793
17465	12.741	2.3636	5.e-002	3.7829e-006
17466	13.018	2.3636	0.	-5.6859
17467	12.926	2.2727	0.	-6.2245
17468	12.926	2.3636	5.e-002	3.5495e-006
17469	13.203	2.3636	0.	-3.9841
17470	13.11	2.2727	0.	-4.4949
17471	13.11	2.3636	5.e-002	3.7527e-006
17472	13.387	2.3636	0.	-2.3934
17473	13.295	2.2727	0.	-2.8793
17474	13.295	2.3636	5.e-002	4.489e-006
17475	13.572	2.3636	0.	-0.90538
17476	13.48	2.2727	0.	-1.3684
17477	13.48	2.3636	5.e-002	4.9711e-006
17478	13.756	2.3636	0.	-3.384e-003
17479	13.664	2.2727	0.	-5.1745e-002
17480	13.664	2.3636	5.e-002	5.3356e-006
17481	13.941	2.3636	0.	3.75e-003
17482	13.849	2.2727	0.	1.7039e-003
17483	13.849	2.3636	5.e-002	4.2216e-006
17484	14.126	2.3636	0.	5.0126e-003
17485	14.033	2.2727	0.	3.9913e-003
17486	14.033	2.3636	5.e-002	5.115e-006
17487	14.31	2.3636	0.	5.6375e-003
17488	14.218	2.2727	0.	4.9019e-003
17489	14.218	2.3636	5.e-002	5.3313e-006
17490	14.495	2.3636	0.	6.0465e-003
17491	14.402	2.2727	0.	5.4443e-003
17492	14.402	2.3636	5.e-002	5.271e-006
17493	14.679	2.3636	0.	6.3702e-003
17494	14.587	2.2727	0.	5.8196e-003
17495	14.587	2.3636	5.e-002	4.6249e-006
17496	14.864	2.3636	0.	6.6657e-003
17497	14.772	2.2727	0.	6.15e-003
17498	14.772	2.3636	5.e-002	3.6623e-006
17499	15.048	2.3636	0.	6.9369e-003
17500	14.956	2.2727	0.	6.4472e-003
17501	14.956	2.3636	5.e-002	2.8564e-006
17502	15.233	2.3636	0.	7.1876e-003
17503	15.141	2.2727	0.	6.7157e-003
17504	15.141	2.3636	5.e-002	2.3507e-006
17505	15.418	2.3636	0.	7.4312e-003
17506	15.325	2.2727	0.	6.9647e-003
17507	15.325	2.3636	5.e-002	3.3963e-006
17508	15.602	2.3636	0.	7.6863e-003
17509	15.51	2.2727	0.	7.2133e-003
17510	15.51	2.3636	5.e-002	1.995e-006
17511	15.787	2.3636	0.	7.9446e-003
17512	15.694	2.2727	0.	7.4808e-003
17513	15.694	2.3636	5.e-002	2.5862e-006
17514	15.971	2.3636	0.	8.1937e-003
17515	15.879	2.2727	0.	7.732e-003
17516	15.879	2.3636	5.e-002	2.5698e-006
17517	16.156	2.3636	0.	8.4546e-003
17518	16.064	2.2727	0.	7.9785e-003
17519	16.064	2.3636	5.e-002	4.3256e-006
17520	16.34	2.3636	0.	8.7297e-003
17521	16.248	2.2727	0.	8.2519e-003
17522	16.248	2.3636	5.e-002	5.4967e-006
17523	16.525	2.3636	0.	9.0007e-003
17524	16.433	2.2727	0.	8.5255e-003
17525	16.433	2.3636	5.e-002	6.4157e-006
17526	16.71	2.3636	0.	9.2854e-003
17527	16.617	2.2727	0.	8.7911e-003
17528	16.617	2.3636	5.e-002	6.759e-006
17529	16.894	2.3636	0.	9.5951e-003
17530	16.802	2.2727	0.	9.089e-003
17531	16.802	2.3636	5.e-002	7.4385e-006
17532	17.079	2.3636	0.	9.9193e-003
17533	16.986	2.2727	0.	9.402e-003
17534	16.986	2.3636	5.e-002	6.82e-006
17535	17.263	2.3636	0.	1.0259e-002
17536	17.171	2.2727	0.	9.73e-003
17537	17.171	2.3636	5.e-002	6.6416e-006
17538	17.448	2.3636	0.	1.0608e-002
17539	17.356	2.2727	0.	1.0073e-002
17540	17.356	2.3636	5.e-002	3.4781e-006
17541	17.632	2.3636	0.	1.0977e-002
17542	17.54	2.2727	0.	1.0418e-002
17543	17.54	2.3636	5.e-002	2.9615e-006
17544	17.817	2.3636	0.	1.1381e-002
17545	17.725	2.2727	0.	1.0803e-002
17546	17.725	2.3636	5.e-002	5.7613e-006
17547	18.002	2.3636	0.	1.1808e-002
17548	17.909	2.2727	0.	1.1214e-002
17549	17.909	2.3636	5.e-002	5.4547e-006
17550	18.186	2.3636	0.	1.2259e-002
17551	18.094	2.2727	0.	1.1647e-002
17552	18.094	2.3636	5.e-002	8.0287e-006
17553	18.371	2.3636	0.	1.274e-002
17554	18.278	2.2727	0.	1.2103e-002
17555	18.278	2.3636	5.e-002	7.0516e-006
17556	18.555	2.3636	0.	1.3263e-002
17557	18.463	2.2727	0.	1.2596e-002
17558	18.463	2.3636	5.e-002	6.0157e-006
17559	18.74	2.3636	0.	1.3826e-002
17560	18.648	2.2727	0.	1.3137e-002
17561	18.648	2.3636	5.e-002	6.8948e-006
17562	18.924	2.3636	0.	1.4423e-002
17563	18.832	2.2727	0.	1.3706e-002
17564	18.832	2.3636	5.e-002	4.9324e-006
17565	19.109	2.3636	0.	1.5071e-002
17566	19.017	2.2727	0.	1.4316e-002
17567	19.017	2.3636	5.e-002	4.6082e-006
17568	19.294	2.3636	0.	1.5776e-002
17569	19.201	2.2727	0.	1.4987e-002
17570	19.201	2.3636	5.e-002	6.6597e-006
17571	19.478	2.3636	0.	1.6533e-002
17572	19.386	2.2727	0.	1.5709e-002
17573	19.386	2.3636	5.e-002	5.8936e-006
17574	19.663	2.3636	0.	1.7361e-002
17575	19.57	2.2727	0.	1.6484e-002
17576	19.57	2.3636	5.e-002	5.3854e-006
17577	19.847	2.3636	0.	1.8271e-002
17578	19.755	2.2727	0.	1.7344e-002
17579	19.755	2.3636	5.e-002	4.7855e-006
17580	20.032	2.3636	0.	1.9266e-002
17581	19.94	2.2727	0.	1.8285e-002
17582	19.94	2.3636	5.e-002	4.7473e-006
17583	20.216	2.3636	0.	2.0357e-002
17584	20.124	2.2727	0.	1.9315e-002
17585	20.124	2.3636	5.e-002	3.7291e-006
17586	20.401	2.3636	0.	2.1564e-002
17587	20.309	2.2727	0.	2.0449e-002
17588	20.309	2.3636	5.e-002	6.5225e-006
17589	20.585	2.3636	0.	2.2907e-002
17590	20.493	2.2727	0.	2.1708e-002
17591	20.493	2.3636	5.e-002	8.3621e-006
17592	20.77	2.3636	0.	2.4406e-002
17593	20.678	2.2727	0.	2.3117e-002
17594	20.678	2.3636	5.e-002	5.9291e-006
17595	20.955	2.3636	0.	2.6082e-002
17596	20.862	2.2727	0.	2.4689e-002
17597	20.862	2.3636	5.e-002	6.8907e-006
17598	21.139	2.3636	0.	2.7979e-002
17599	21.047	2.2727	0.	2.6456e-002
17600	21.047	2.3636	5.e-002	7.0427e-006
17601	21.324	2.3636	0.	3.0142e-002
17602	21.231	2.2727	0.	2.8469e-002
17603	21.231	2.3636	5.e-002	6.1822e-006
17604	21.508	2.3636	0.	3.2619e-002
17605	21.416	2.2727	0.	3.077e-002
17606	21.416	2.3636	5.e-002	8.0384e-006
17607	21.693	2.3636	0.	3.5496e-002
17608	21.601	2.2727	0.	3.3421e-002
17609	21.601	2.3636	5.e-002	6.2202e-006
17610	21.877	2.3636	0.	3.888e-002
17611	21.785	2.2727	0.	3.6527e-002
17612	21.785	2.3636	5.e-002	5.4708e-006
17613	22.062	2.3636	0.	4.2914e-002
17614	21.97	2.2727	0.	4.0201e-002
17615	21.97	2.3636	5.e-002	7.5215e-006
17616	22.247	2.3636	0.	4.7806e-002
17617	22.154	2.2727	0.	4.4623e-002
17618	22.154	2.3636	5.e-002	6.7213e-006
17619	22.431	2.3636	0.	5.388e-002
17620	22.339	2.2727	0.	5.0033e-002
17621	22.339	2.3636	5.e-002	7.4509e-006
17622	22.616	2.3636	0.	6.1567e-002
17623	22.523	2.2727	0.	5.6857e-002
17624	22.523	2.3636	5.e-002	1.0288e-005
17625	22.8	2.3636	0.	7.1889e-002
17626	22.708	2.2727	0.	6.5549e-002
17627	22.708	2.3636	5.e-002	6.7175e-006
17628	22.985	2.3636	0.	8.5275e-002
17629	22.893	2.2727	0.	7.7763e-002
17630	22.893	2.3636	5.e-002	6.4934e-006
17631	23.169	2.3636	0.	0.10802
17632	23.077	2.2727	0.	9.2837e-002
17633	23.077	2.3636	5.e-002	8.7917e-006
17634	23.354	2.3636	0.	0.13093
17635	23.262	2.2727	0.	0.12438
17636	23.262	2.3636	5.e-002	1.2738e-005
17637	23.539	2.3636	0.	0.22768
17638	23.446	2.2727	0.	0.14169
17639	23.446	2.3636	5.e-002	8.4375e-006
17640	23.723	2.3636	0.	0.22333
17641	23.631	2.2727	0.	0.32814
17642	23.631	2.3636	5.e-002	6.7417e-006
17643	23.815	2.2727	0.	0.19953
17644	23.815	2.3636	5.e-002	1.089e-005
17645	23.908	2.3636	0.	0.42653
17646	4.3435	2.1818	0.	26.779
17647	4.2512	2.0909	0.	-313.53
17648	4.2512	2.1818	5.e-002	2.3273e-004
17649	4.5281	2.1818	0.	17.669
17650	4.4358	2.0909	0.	71.37
17651	4.4358	2.1818	5.e-002	7.3488e-005
17652	4.7127	2.1818	0.	-29.903
17653	4.6204	2.0909	0.	-18.015
17654	4.6204	2.1818	5.e-002	1.6332e-004
17655	4.8972	2.1818	0.	-176.76
17656	4.8049	2.0909	0.	-43.66
17657	4.8049	2.1818	5.e-002	9.4845e-005
17658	5.0818	2.1818	0.	-273.19
17659	4.9895	2.0909	0.	-173.85
17660	4.9895	2.1818	5.e-002	1.4102e-004
17661	5.2664	2.1818	0.	-327.08
17662	5.1741	2.0909	0.	-254.68
17663	5.1741	2.1818	5.e-002	9.9474e-005
17664	5.4509	2.1818	0.	-353.69
17665	5.3586	2.0909	0.	-299.58
17666	5.3586	2.1818	5.e-002	1.1657e-004
17667	5.6355	2.1818	0.	-362.31
17668	5.5432	2.0909	0.	-320.81
17669	5.5432	2.1818	5.e-002	1.0461e-004
17670	5.8201	2.1818	0.	-359.3
17671	5.7278	2.0909	0.	-326.88
17672	5.7278	2.1818	5.e-002	8.9992e-005
17673	6.0046	2.1818	0.	-348.88
17674	5.9123	2.0909	0.	-323.24
17675	5.9123	2.1818	5.e-002	7.5723e-005
17676	6.1892	2.1818	0.	-333.91
17677	6.0969	2.0909	0.	-313.49
17678	6.0969	2.1818	5.e-002	5.8852e-005
17679	6.3738	2.1818	0.	-316.32
17680	6.2815	2.0909	0.	-300.03
17681	6.2815	2.1818	5.e-002	7.1738e-005
17682	6.5583	2.1818	0.	-297.4
17683	6.466	2.0909	0.	-284.44
17684	6.466	2.1818	5.e-002	4.0964e-005
17685	6.7429	2.1818	0.	-278.02
17686	6.6506	2.0909	0.	-267.77
17687	6.6506	2.1818	5.e-002	4.9753e-005
17688	6.9275	2.1818	0.	-258.77
17689	6.8352	2.0909	0.	-250.73
17690	6.8352	2.1818	5.e-002	2.9355e-005
17691	7.112	2.1818	0.	-240.01
17692	7.0198	2.0909	0.	-233.81
17693	7.0198	2.1818	5.e-002	1.5687e-005
17694	7.2966	2.1818	0.	-222.01
17695	7.2043	2.0909	0.	-217.29
17696	7.2043	2.1818	5.e-002	1.42e-005
17697	7.4812	2.1818	0.	-204.88
17698	7.3889	2.0909	0.	-201.39
17699	7.3889	2.1818	5.e-002	1.3773e-005
17700	7.6657	2.1818	0.	-188.72
17701	7.5735	2.0909	0.	-186.22
17702	7.5735	2.1818	5.e-002	4.2836e-006
17703	7.8503	2.1818	0.	-173.56
17704	7.758	2.0909	0.	-171.86
17705	7.758	2.1818	5.e-002	1.3715e-005
17706	8.0349	2.1818	0.	-159.39
17707	7.9426	2.0909	0.	-158.33
17708	7.9426	2.1818	5.e-002	1.05e-005
17709	8.2194	2.1818	0.	-146.19
17710	8.1272	2.0909	0.	-145.64
17711	8.1272	2.1818	5.e-002	7.2786e-006
17712	8.404	2.1818	0.	-133.93
17713	8.3117	2.0909	0.	-133.78
17714	8.3117	2.1818	5.e-002	5.2993e-006
17715	8.5886	2.1818	0.	-122.56
17716	8.4963	2.0909	0.	-122.72
17717	8.4963	2.1818	5.e-002	6.4435e-006
17718	8.7731	2.1818	0.	-112.04
17719	8.6809	2.0909	0.	-112.43
17720	8.6809	2.1818	5.e-002	6.035e-006
17721	8.9577	2.1818	0.	-102.3
17722	8.8654	2.0909	0.	-102.87
17723	8.8654	2.1818	5.e-002	7.0934e-006
17724	9.1423	2.1818	0.	-93.305
17725	9.05	2.0909	0.	-93.997
17726	9.05	2.1818	5.e-002	6.3634e-006
17727	9.3269	2.1818	0.	-84.997
17728	9.2346	2.0909	0.	-85.775
17729	9.2346	2.1818	5.e-002	5.7268e-006
17730	9.5114	2.1818	0.	-77.326
17731	9.4191	2.0909	0.	-78.16
17732	9.4191	2.1818	5.e-002	4.8996e-006
17733	9.696	2.1818	0.	-70.247
17734	9.6037	2.0909	0.	-71.113
17735	9.6037	2.1818	5.e-002	5.7158e-006
17736	9.8806	2.1818	0.	-63.715
17737	9.7883	2.0909	0.	-64.593
17738	9.7883	2.1818	5.e-002	4.4356e-006
17739	10.065	2.1818	0.	-57.687
17740	9.9728	2.0909	0.	-58.562
17741	9.9728	2.1818	5.e-002	5.3333e-006
17742	10.25	2.1818	0.	-52.124
17743	10.157	2.0909	0.	-52.987
17744	10.157	2.1818	5.e-002	4.9802e-006
17745	10.434	2.1818	0.	-46.991
17746	10.342	2.0909	0.	-47.832
17747	10.342	2.1818	5.e-002	4.1392e-006
17748	10.619	2.1818	0.	-42.251
17749	10.527	2.0909	0.	-43.066
17750	10.527	2.1818	5.e-002	4.3308e-006
17751	10.803	2.1818	0.	-37.876
17752	10.711	2.0909	0.	-38.659
17753	10.711	2.1818	5.e-002	5.4645e-006
17754	10.988	2.1818	0.	-33.834
17755	10.896	2.0909	0.	-34.584
17756	10.896	2.1818	5.e-002	4.8826e-006
17757	11.173	2.1818	0.	-30.099
17758	11.08	2.0909	0.	-30.815
17759	11.08	2.1818	5.e-002	4.177e-006
17760	11.357	2.1818	0.	-26.647
17761	11.265	2.0909	0.	-27.329
17762	11.265	2.1818	5.e-002	3.7786e-006
17763	11.542	2.1818	0.	-23.454
17764	11.449	2.0909	0.	-24.101
17765	11.449	2.1818	5.e-002	4.1358e-006
17766	11.726	2.1818	0.	-20.5
17767	11.634	2.0909	0.	-21.113
17768	11.634	2.1818	5.e-002	4.7415e-006
17769	11.911	2.1818	0.	-17.764
17770	11.819	2.0909	0.	-18.345
17771	11.819	2.1818	5.e-002	4.6404e-006
17772	12.095	2.1818	0.	-15.228
17773	12.003	2.0909	0.	-15.778
17774	12.003	2.1818	5.e-002	3.813e-006
17775	12.28	2.1818	0.	-12.876
17776	12.188	2.0909	0.	-13.397
17777	12.188	2.1818	5.e-002	4.4284e-006
17778	12.465	2.1818	0.	-10.692
17779	12.372	2.0909	0.	-11.187
17780	12.372	2.1818	5.e-002	3.8659e-006
17781	12.649	2.1818	0.	-8.662
17782	12.557	2.0909	0.	-9.1318
17783	12.557	2.1818	5.e-002	4.2834e-006
17784	12.834	2.1818	0.	-6.7727
17785	12.741	2.0909	0.	-7.2196
17786	12.741	2.1818	5.e-002	4.027e-006
17787	13.018	2.1818	0.	-5.0116
17788	12.926	2.0909	0.	-5.4378
17789	12.926	2.1818	5.e-002	3.7798e-006
17790	13.203	2.1818	0.	-3.3676
17791	13.11	2.0909	0.	-3.7752
17792	13.11	2.1818	5.e-002	4.136e-006
17793	13.387	2.1818	0.	-1.8308
17794	13.295	2.0909	0.	-2.2217
17795	13.295	2.1818	5.e-002	4.9618e-006
17796	13.572	2.1818	0.	-0.4027
17797	13.48	2.0909	0.	-0.77242
17798	13.48	2.1818	5.e-002	5.4109e-006
17799	13.756	2.1818	0.	-1.9993e-003
17800	13.664	2.0909	0.	-9.4506e-003
17801	13.664	2.1818	5.e-002	5.5568e-006
17802	13.941	2.1818	0.	2.651e-003
17803	13.849	2.0909	0.	8.9675e-004
17804	13.849	2.1818	5.e-002	4.5378e-006
17805	14.126	2.1818	0.	4.0107e-003
17806	14.033	2.0909	0.	2.9556e-003
17807	14.033	2.1818	5.e-002	5.348e-006
17808	14.31	2.1818	0.	4.7353e-003
17809	14.218	2.0909	0.	3.9271e-003
17810	14.218	2.1818	5.e-002	5.5355e-006
17811	14.495	2.1818	0.	5.2109e-003
17812	14.402	2.0909	0.	4.5296e-003
17813	14.402	2.1818	5.e-002	5.5649e-006
17814	14.679	2.1818	0.	5.5789e-003
17815	14.587	2.0909	0.	4.9474e-003
17816	14.587	2.1818	5.e-002	4.8302e-006
17817	14.864	2.1818	0.	5.9039e-003
17818	14.772	2.0909	0.	5.3074e-003
17819	14.772	2.1818	5.e-002	3.8288e-006
17820	15.048	2.1818	0.	6.1942e-003
17821	14.956	2.0909	0.	5.6241e-003
17822	14.956	2.1818	5.e-002	3.0408e-006
17823	15.233	2.1818	0.	6.4582e-003
17824	15.141	2.0909	0.	5.9049e-003
17825	15.141	2.1818	5.e-002	2.5358e-006
17826	15.418	2.1818	0.	6.7103e-003
17827	15.325	2.0909	0.	6.1617e-003
17828	15.325	2.1818	5.e-002	3.5701e-006
17829	15.602	2.1818	0.	6.9696e-003
17830	15.51	2.0909	0.	6.4138e-003
17831	15.51	2.1818	5.e-002	2.2868e-006
17832	15.787	2.1818	0.	7.2287e-003
17833	15.694	2.0909	0.	6.6816e-003
17834	15.694	2.1818	5.e-002	2.8779e-006
17835	15.971	2.1818	0.	7.4761e-003
17836	15.879	2.0909	0.	6.9302e-003
17837	15.879	2.1818	5.e-002	2.5008e-006
17838	16.156	2.1818	0.	7.7339e-003
17839	16.064	2.0909	0.	7.1731e-003
17840	16.064	2.1818	5.e-002	4.3841e-006
17841	16.34	2.1818	0.	8.0047e-003
17842	16.248	2.0909	0.	7.4409e-003
17843	16.248	2.1818	5.e-002	5.6447e-006
17844	16.525	2.1818	0.	8.2717e-003
17845	16.433	2.0909	0.	7.7079e-003
17846	16.433	2.1818	5.e-002	6.4446e-006
17847	16.71	2.1818	0.	8.5494e-003
17848	16.617	2.0909	0.	7.9659e-003
17849	16.617	2.1818	5.e-002	7.4935e-006
17850	16.894	2.1818	0.	8.8494e-003
17851	16.802	2.0909	0.	8.2536e-003
17852	16.802	2.1818	5.e-002	7.3264e-006
17853	17.079	2.1818	0.	9.165e-003
17854	16.986	2.0909	0.	8.5561e-003
17855	16.986	2.1818	5.e-002	7.0864e-006
17856	17.263	2.1818	0.	9.4944e-003
17857	17.171	2.0909	0.	8.8729e-003
17858	17.171	2.1818	5.e-002	6.775e-006
17859	17.448	2.1818	0.	9.8325e-003
17860	17.356	2.0909	0.	9.2025e-003
17861	17.356	2.1818	5.e-002	3.3684e-006
17862	17.632	2.1818	0.	1.0192e-002
17863	17.54	2.0909	0.	9.5361e-003
17864	17.54	2.1818	5.e-002	3.5619e-006
17865	17.817	2.1818	0.	1.0583e-002
17866	17.725	2.0909	0.	9.9075e-003
17867	17.725	2.1818	5.e-002	6.32e-006
17868	18.002	2.1818	0.	1.0997e-002
17869	17.909	2.0909	0.	1.0302e-002
17870	17.909	2.1818	5.e-002	5.7546e-006
17871	18.186	2.1818	0.	1.1434e-002
17872	18.094	2.0909	0.	1.0718e-002
17873	18.094	2.1818	5.e-002	8.7938e-006
17874	18.371	2.1818	0.	1.19e-002
17875	18.278	2.0909	0.	1.1158e-002
17876	18.278	2.1818	5.e-002	7.5741e-006
17877	18.555	2.1818	0.	1.2408e-002
17878	18.463	2.0909	0.	1.1632e-002
17879	18.463	2.1818	5.e-002	6.2796e-006
17880	18.74	2.1818	0.	1.2955e-002
17881	18.648	2.0909	0.	1.2154e-002
17882	18.648	2.1818	5.e-002	7.1405e-006
17883	18.924	2.1818	0.	1.3534e-002
17884	18.832	2.0909	0.	1.2703e-002
17885	18.832	2.1818	5.e-002	5.3935e-006
17886	19.109	2.1818	0.	1.4164e-002
17887	19.017	2.0909	0.	1.329e-002
17888	19.017	2.1818	5.e-002	5.0251e-006
17889	19.294	2.1818	0.	1.4849e-002
17890	19.201	2.0909	0.	1.3939e-002
17891	19.201	2.1818	5.e-002	7.0996e-006
17892	19.478	2.1818	0.	1.5586e-002
17893	19.386	2.0909	0.	1.4636e-002
17894	19.386	2.1818	5.e-002	6.0467e-006
17895	19.663	2.1818	0.	1.639e-002
17896	19.57	2.0909	0.	1.5388e-002
17897	19.57	2.1818	5.e-002	6.5176e-006
17898	19.847	2.1818	0.	1.7277e-002
17899	19.755	2.0909	0.	1.6219e-002
17900	19.755	2.1818	5.e-002	4.453e-006
17901	20.032	2.1818	0.	1.8248e-002
17902	19.94	2.0909	0.	1.7133e-002
17903	19.94	2.1818	5.e-002	4.4267e-006
17904	20.216	2.1818	0.	1.9315e-002
17905	20.124	2.0909	0.	1.8132e-002
17906	20.124	2.1818	5.e-002	3.3843e-006
17907	20.401	2.1818	0.	2.0497e-002
17908	20.309	2.0909	0.	1.9238e-002
17909	20.309	2.1818	5.e-002	6.1467e-006
17910	20.585	2.1818	0.	2.181e-002
17911	20.493	2.0909	0.	2.0465e-002
17912	20.493	2.1818	5.e-002	7.525e-006
17913	20.77	2.1818	0.	2.3286e-002
17914	20.678	2.0909	0.	2.1842e-002
17915	20.678	2.1818	5.e-002	5.0457e-006
17916	20.955	2.1818	0.	2.4938e-002
17917	20.862	2.0909	0.	2.3381e-002
17918	20.862	2.1818	5.e-002	6.0645e-006
17919	21.139	2.1818	0.	2.6808e-002
17920	21.047	2.0909	0.	2.5117e-002
17921	21.047	2.1818	5.e-002	7.6333e-006
17922	21.324	2.1818	0.	2.8943e-002
17923	21.231	2.0909	0.	2.7096e-002
17924	21.231	2.1818	5.e-002	5.8567e-006
17925	21.508	2.1818	0.	3.1396e-002
17926	21.416	2.0909	0.	2.9363e-002
17927	21.416	2.1818	5.e-002	7.7147e-006
17928	21.693	2.1818	0.	3.4249e-002
17929	21.601	2.0909	0.	3.1984e-002
17930	21.601	2.1818	5.e-002	5.9385e-006
17931	21.877	2.1818	0.	3.7606e-002
17932	21.785	2.0909	0.	3.5056e-002
17933	21.785	2.1818	5.e-002	5.0929e-006
17934	22.062	2.1818	0.	4.1614e-002
17935	21.97	2.0909	0.	3.8702e-002
17936	21.97	2.1818	5.e-002	7.3156e-006
17937	22.247	2.1818	0.	4.6479e-002
17938	22.154	2.0909	0.	4.3088e-002
17939	22.154	2.1818	5.e-002	6.442e-006
17940	22.431	2.1818	0.	5.2521e-002
17941	22.339	2.0909	0.	4.8463e-002
17942	22.339	2.1818	5.e-002	7.241e-006
17943	22.616	2.1818	0.	6.0161e-002
17944	22.523	2.0909	0.	5.5241e-002
17945	22.523	2.1818	5.e-002	1.2931e-005
17946	22.8	2.1818	0.	7.042e-002
17947	22.708	2.0909	0.	6.387e-002
17948	22.708	2.1818	5.e-002	6.576e-006
17949	22.985	2.1818	0.	8.3713e-002
17950	22.893	2.0909	0.	7.5994e-002
17951	22.893	2.1818	5.e-002	8.1712e-006
17952	23.169	2.1818	0.	0.10631
17953	23.077	2.0909	0.	9.0942e-002
17954	23.077	2.1818	5.e-002	9.6857e-006
17955	23.354	2.1818	0.	0.12901
17956	23.262	2.0909	0.	0.12227
17957	23.262	2.1818	5.e-002	1.0788e-005
17958	23.539	2.1818	0.	0.22524
17959	23.446	2.0909	0.	0.13929
17960	23.446	2.1818	5.e-002	1.0144e-005
17961	23.723	2.1818	0.	0.21939
17962	23.631	2.0909	0.	0.32469
17963	23.631	2.1818	5.e-002	8.469e-006
17964	23.815	2.0909	0.	0.19255
17965	23.815	2.1818	5.e-002	1.0859e-005
17966	23.908	2.1818	0.	0.42525
17967	4.3435	2.	0.	-319.47
17968	4.2512	1.9091	0.	-463.89
17969	4.2512	2.	5.e-002	1.065e-003
17970	4.159	2.	0.	-562.74
17971	4.5281	2.	0.	36.931
17972	4.4358	1.9091	0.	53.883
17973	4.4358	2.	5.e-002	2.3067e-004
17974	4.7127	2.	0.	-14.613
17975	4.6204	1.9091	0.	-16.107
17976	4.6204	2.	5.e-002	3.193e-004
17977	4.8972	2.	0.	-47.63
17978	4.8049	1.9091	0.	-7.2675
17979	4.8049	2.	5.e-002	3.2289e-004
17980	5.0818	2.	0.	-158.31
17981	4.9895	1.9091	0.	-47.419
17982	4.9895	2.	5.e-002	2.7764e-004
17983	5.2664	2.	0.	-229.13
17984	5.1741	1.9091	0.	-141.17
17985	5.1741	2.	5.e-002	2.0417e-004
17986	5.4509	2.	0.	-267.95
17987	5.3586	1.9091	0.	-202.14
17988	5.3586	2.	5.e-002	2.0488e-004
17989	5.6355	2.	0.	-286.15
17990	5.5432	1.9091	0.	-235.51
17991	5.5432	2.	5.e-002	1.7895e-004
17992	5.8201	2.	0.	-291.27
17993	5.7278	1.9091	0.	-251.3
17994	5.7278	2.	5.e-002	1.7689e-004
17995	6.0046	2.	0.	-288.1
17996	5.9123	1.9091	0.	-255.97
17997	5.9123	2.	5.e-002	1.2075e-004
17998	6.1892	2.	0.	-279.75
17999	6.0969	1.9091	0.	-253.6
18000	6.0969	2.	5.e-002	9.3346e-005
18001	6.3738	2.	0.	-268.22
18002	6.2815	1.9091	0.	-246.82
18003	6.2815	2.	5.e-002	6.6725e-005
18004	6.5583	2.	0.	-254.84
18005	6.466	1.9091	0.	-237.29
18006	6.466	2.	5.e-002	1.6924e-005
18007	6.7429	2.	0.	-240.5
18008	6.6506	1.9091	0.	-226.12
18009	6.6506	2.	5.e-002	5.4331e-005
18010	6.9275	2.	0.	-225.78
18011	6.8352	1.9091	0.	-214.05
18012	6.8352	2.	5.e-002	3.0723e-005
18013	7.112	2.	0.	-211.08
18014	7.0198	1.9091	0.	-201.57
18015	7.0198	2.	5.e-002	2.898e-005
18016	7.2966	2.	0.	-196.67
18017	7.2043	1.9091	0.	-189.01
18018	7.2043	2.	5.e-002	2.3352e-005
18019	7.4812	2.	0.	-182.73
18020	7.3889	1.9091	0.	-176.61
18021	7.3889	2.	5.e-002	6.6335e-006
18022	7.6657	2.	0.	-169.36
18023	7.5735	1.9091	0.	-164.53
18024	7.5735	2.	5.e-002	7.6729e-006
18025	7.8503	2.	0.	-156.63
18026	7.758	1.9091	0.	-152.87
18027	7.758	2.	5.e-002	1.5237e-005
18028	8.0349	2.	0.	-144.58
18029	7.9426	1.9091	0.	-141.7
18030	7.9426	2.	5.e-002	8.5934e-006
18031	8.2194	2.	0.	-133.23
18032	8.1272	1.9091	0.	-131.06
18033	8.1272	2.	5.e-002	8.8274e-006
18034	8.404	2.	0.	-122.57
18035	8.3117	1.9091	0.	-120.98
18036	8.3117	2.	5.e-002	8.6398e-006
18037	8.5886	2.	0.	-112.58
18038	8.4963	1.9091	0.	-111.47
18039	8.4963	2.	5.e-002	6.8861e-006
18040	8.7731	2.	0.	-103.26
18041	8.6809	1.9091	0.	-102.52
18042	8.6809	2.	5.e-002	8.1753e-006
18043	8.9577	2.	0.	-94.558
18044	8.8654	1.9091	0.	-94.122
18045	8.8654	2.	5.e-002	8.5706e-006
18046	9.1423	2.	0.	-86.461
18047	9.05	1.9091	0.	-86.261
18048	9.05	2.	5.e-002	7.0556e-006
18049	9.3269	2.	0.	-78.932
18050	9.2346	1.9091	0.	-78.916
18051	9.2346	2.	5.e-002	6.4619e-006
18052	9.5114	2.	0.	-71.939
18053	9.4191	1.9091	0.	-72.064
18054	9.4191	2.	5.e-002	5.336e-006
18055	9.696	2.	0.	-65.45
18056	9.6037	1.9091	0.	-65.68
18057	9.6037	2.	5.e-002	5.8906e-006
18058	9.8806	2.	0.	-59.431
18059	9.7883	1.9091	0.	-59.739
18060	9.7883	2.	5.e-002	5.956e-006
18061	10.065	2.	0.	-53.852
18062	9.9728	1.9091	0.	-54.216
18063	9.9728	2.	5.e-002	5.5202e-006
18064	10.25	2.	0.	-48.683
18065	10.157	1.9091	0.	-49.085
18066	10.157	2.	5.e-002	4.8066e-006
18067	10.434	2.	0.	-43.895
18068	10.342	1.9091	0.	-44.32
18069	10.342	2.	5.e-002	4.844e-006
18070	10.619	2.	0.	-39.461
18071	10.527	1.9091	0.	-39.899
18072	10.527	2.	5.e-002	3.7113e-006
18073	10.803	2.	0.	-35.354
18074	10.711	1.9091	0.	-35.797
18075	10.711	2.	5.e-002	4.929e-006
18076	10.988	2.	0.	-31.551
18077	10.896	1.9091	0.	-31.993
18078	10.896	2.	5.e-002	4.4864e-006
18079	11.173	2.	0.	-28.029
18080	11.08	1.9091	0.	-28.465
18081	11.08	2.	5.e-002	3.6776e-006
18082	11.357	2.	0.	-24.767
18083	11.265	1.9091	0.	-25.193
18084	11.265	2.	5.e-002	3.7605e-006
18085	11.542	2.	0.	-21.743
18086	11.449	1.9091	0.	-22.157
18087	11.449	2.	5.e-002	4.0295e-006
18088	11.726	2.	0.	-18.941
18089	11.634	1.9091	0.	-19.342
18090	11.634	2.	5.e-002	4.8767e-006
18091	11.911	2.	0.	-16.341
18092	11.819	1.9091	0.	-16.728
18093	11.819	2.	5.e-002	4.6134e-006
18094	12.095	2.	0.	-13.929
18095	12.003	1.9091	0.	-14.302
18096	12.003	2.	5.e-002	4.019e-006
18097	12.28	2.	0.	-11.689
18098	12.188	1.9091	0.	-12.048
18099	12.188	2.	5.e-002	4.3885e-006
18100	12.465	2.	0.	-9.6063
18101	12.372	1.9091	0.	-9.9518
18102	12.372	2.	5.e-002	3.8257e-006
18103	12.649	2.	0.	-7.6686
18104	12.557	1.9091	0.	-8.0015
18105	12.557	2.	5.e-002	3.9264e-006
18106	12.834	2.	0.	-5.8633
18107	12.741	1.9091	0.	-6.1845
18108	12.741	2.	5.e-002	4.1327e-006
18109	13.018	2.	0.	-4.1794
18110	12.926	1.9091	0.	-4.49
18111	12.926	2.	5.e-002	3.7959e-006
18112	13.203	2.	0.	-2.6065
18113	13.11	1.9091	0.	-2.9078
18114	13.11	2.	5.e-002	3.9026e-006
18115	13.387	2.	0.	-1.1378
18116	13.295	1.9091	0.	-1.4301
18117	13.295	2.	5.e-002	4.7557e-006
18118	13.572	2.	0.	-3.2789e-002
18119	13.48	1.9091	0.	-0.12731
18120	13.48	2.	5.e-002	5.2483e-006
18121	13.756	2.	0.	-1.5153e-003
18122	13.664	1.9091	0.	-4.676e-003
18123	13.664	2.	5.e-002	5.4898e-006
18124	13.941	2.	0.	1.7149e-003
18125	13.849	1.9091	0.	2.9211e-004
18126	13.849	2.	5.e-002	4.2245e-006
18127	14.126	2.	0.	3.0131e-003
18128	14.033	1.9091	0.	2.0062e-003
18129	14.033	2.	5.e-002	5.0418e-006
18130	14.31	2.	0.	3.7682e-003
18131	14.218	1.9091	0.	2.9418e-003
18132	14.218	2.	5.e-002	5.2476e-006
18133	14.495	2.	0.	4.2768e-003
18134	14.402	1.9091	0.	3.5531e-003
18135	14.402	2.	5.e-002	5.3915e-006
18136	14.679	2.	0.	4.6694e-003
18137	14.587	1.9091	0.	3.9846e-003
18138	14.587	2.	5.e-002	4.29e-006
18139	14.864	2.	0.	5.0112e-003
18140	14.772	1.9091	0.	4.3541e-003
18141	14.772	2.	5.e-002	3.4391e-006
18142	15.048	2.	0.	5.3121e-003
18143	14.956	1.9091	0.	4.6774e-003
18144	14.956	2.	5.e-002	2.582e-006
18145	15.233	2.	0.	5.5816e-003
18146	15.141	1.9091	0.	4.9606e-003
18147	15.141	2.	5.e-002	1.7651e-006
18148	15.418	2.	0.	5.8351e-003
18149	15.325	1.9091	0.	5.2167e-003
18150	15.325	2.	5.e-002	2.9116e-006
18151	15.602	2.	0.	6.0931e-003
18152	15.51	1.9091	0.	5.4648e-003
18153	15.51	2.	5.e-002	1.6818e-006
18154	15.787	2.	0.	6.3483e-003
18155	15.694	1.9091	0.	5.727e-003
18156	15.694	2.	5.e-002	2.2166e-006
18157	15.971	2.	0.	6.5904e-003
18158	15.879	1.9091	0.	5.9677e-003
18159	15.879	2.	5.e-002	2.0716e-006
18160	16.156	2.	0.	6.8417e-003
18161	16.064	1.9091	0.	6.2022e-003
18162	16.064	2.	5.e-002	3.8335e-006
18163	16.34	2.	0.	7.1041e-003
18164	16.248	1.9091	0.	6.4586e-003
18165	16.248	2.	5.e-002	5.0823e-006
18166	16.525	2.	0.	7.3604e-003
18167	16.433	1.9091	0.	6.7132e-003
18168	16.433	2.	5.e-002	5.5294e-006
18169	16.71	2.	0.	7.6269e-003
18170	16.617	1.9091	0.	6.9571e-003
18171	16.617	2.	5.e-002	6.2301e-006
18172	16.894	2.	0.	7.9155e-003
18173	16.802	1.9091	0.	7.2309e-003
18174	16.802	2.	5.e-002	7.2469e-006
18175	17.079	2.	0.	8.2176e-003
18176	16.986	1.9091	0.	7.5178e-003
18177	16.986	2.	5.e-002	6.7474e-006
18178	17.263	2.	0.	8.533e-003
18179	17.171	1.9091	0.	7.8179e-003
18180	17.171	2.	5.e-002	6.2844e-006
18181	17.448	2.	0.	8.8564e-003
18182	17.356	1.9091	0.	8.13e-003
18183	17.356	2.	5.e-002	3.1168e-006
18184	17.632	2.	0.	9.1997e-003
18185	17.54	1.9091	0.	8.4447e-003
18186	17.54	2.	5.e-002	3.6596e-006
18187	17.817	2.	0.	9.5729e-003
18188	17.725	1.9091	0.	8.7944e-003
18189	17.725	2.	5.e-002	6.1647e-006
18190	18.002	2.	0.	9.9675e-003
18191	17.909	1.9091	0.	9.1691e-003
18192	17.909	2.	5.e-002	4.8985e-006
18193	18.186	2.	0.	1.0384e-002
18194	18.094	1.9091	0.	9.5617e-003
18195	18.094	2.	5.e-002	8.1672e-006
18196	18.371	2.	0.	1.083e-002
18197	18.278	1.9091	0.	9.9774e-003
18198	18.278	2.	5.e-002	6.6585e-006
18199	18.555	2.	0.	1.1315e-002
18200	18.463	1.9091	0.	1.0426e-002
18201	18.463	2.	5.e-002	6.0877e-006
18202	18.74	2.	0.	1.1837e-002
18203	18.648	1.9091	0.	1.0921e-002
18204	18.648	2.	5.e-002	6.728e-006
18205	18.924	2.	0.	1.2391e-002
18206	18.832	1.9091	0.	1.1441e-002
18207	18.832	2.	5.e-002	4.9452e-006
18208	19.109	2.	0.	1.2994e-002
18209	19.017	1.9091	0.	1.1999e-002
18210	19.017	2.	5.e-002	4.5821e-006
18211	19.294	2.	0.	1.3651e-002
18212	19.201	1.9091	0.	1.2615e-002
18213	19.201	2.	5.e-002	6.0992e-006
18214	19.478	2.	0.	1.436e-002
18215	19.386	1.9091	0.	1.3279e-002
18216	19.386	2.	5.e-002	4.123e-006
18217	19.663	2.	0.	1.5135e-002
18218	19.57	1.9091	0.	1.3996e-002
18219	19.57	2.	5.e-002	4.7956e-006
18220	19.847	2.	0.	1.5988e-002
18221	19.755	1.9091	0.	1.4789e-002
18222	19.755	2.	5.e-002	3.7145e-006
18223	20.032	2.	0.	1.6925e-002
18224	19.94	1.9091	0.	1.5663e-002
18225	19.94	2.	5.e-002	4.1023e-006
18226	20.216	2.	0.	1.7957e-002
18227	20.124	1.9091	0.	1.6623e-002
18228	20.124	2.	5.e-002	1.6039e-006
18229	20.401	2.	0.	1.9101e-002
18230	20.309	1.9091	0.	1.7683e-002
18231	20.309	2.	5.e-002	6.2669e-006
18232	20.585	2.	0.	2.0381e-002
18233	20.493	1.9091	0.	1.8866e-002
18234	20.493	2.	5.e-002	7.5961e-006
18235	20.77	2.	0.	2.1815e-002
18236	20.678	1.9091	0.	2.0198e-002
18237	20.678	2.	5.e-002	4.1556e-006
18238	20.955	2.	0.	2.3427e-002
18239	20.862	1.9091	0.	2.1688e-002
18240	20.862	2.	5.e-002	5.1115e-006
18241	21.139	2.	0.	2.5258e-002
18242	21.047	1.9091	0.	2.3376e-002
18243	21.047	2.	5.e-002	5.9527e-006
18244	21.324	2.	0.	2.7352e-002
18245	21.231	1.9091	0.	2.5306e-002
18246	21.231	2.	5.e-002	5.5719e-006
18247	21.508	2.	0.	2.9765e-002
18248	21.416	1.9091	0.	2.7523e-002
18249	21.416	2.	5.e-002	7.3245e-006
18250	21.693	2.	0.	3.2577e-002
18251	21.601	1.9091	0.	3.0094e-002
18252	21.601	2.	5.e-002	4.6956e-006
18253	21.877	2.	0.	3.5898e-002
18254	21.785	1.9091	0.	3.3117e-002
18255	21.785	2.	5.e-002	4.0256e-006
18256	22.062	2.	0.	3.9868e-002
18257	21.97	1.9091	0.	3.6715e-002
18258	21.97	2.	5.e-002	6.2477e-006
18259	22.247	2.	0.	4.4687e-002
18260	22.154	1.9091	0.	4.1049e-002
18261	22.154	2.	5.e-002	6.3162e-006
18262	22.431	2.	0.	5.0682e-002
18263	22.339	1.9091	0.	4.6369e-002
18264	22.339	2.	5.e-002	5.0907e-006
18265	22.616	2.	0.	5.826e-002
18266	22.523	1.9091	0.	5.3083e-002
18267	22.523	2.	5.e-002	9.9488e-006
18268	22.8	2.	0.	6.8432e-002
18269	22.708	1.9091	0.	6.163e-002
18270	22.708	2.	5.e-002	5.402e-006
18271	22.985	2.	0.	8.1607e-002
18272	22.893	1.9091	0.	7.3637e-002
18273	22.893	2.	5.e-002	7.0671e-006
18274	23.169	2.	0.	0.10401
18275	23.077	1.9091	0.	8.8419e-002
18276	23.077	2.	5.e-002	7.6829e-006
18277	23.354	2.	0.	0.12644
18278	23.262	1.9091	0.	0.11947
18279	23.262	2.	5.e-002	1.0778e-005
18280	23.539	2.	0.	0.22197
18281	23.446	1.9091	0.	0.1361
18282	23.446	2.	5.e-002	8.1085e-006
18283	23.723	2.	0.	0.2142
18284	23.631	1.9091	0.	0.32018
18285	23.631	2.	5.e-002	6.4569e-006
18286	23.815	1.9091	0.	0.18359
18287	23.815	2.	5.e-002	9.0097e-006
18288	23.908	2.	0.	0.42351
18289	4.3435	1.8182	0.	-89.368
18290	4.2512	1.7273	0.	-87.991
18291	4.2512	1.8182	5.e-002	1.3033e-003
18292	4.159	1.8182	0.	-389.49
18293	4.5281	1.8182	0.	0.64285
18294	4.4358	1.7273	0.	8.0353
18295	4.4358	1.8182	5.e-002	9.0399e-004
18296	4.7127	1.8182	0.	-8.1638
18297	4.6204	1.7273	0.	-12.211
18298	4.6204	1.8182	5.e-002	5.7142e-004
18299	4.8972	1.8182	0.	-9.3957
18300	4.8049	1.7273	0.	-4.848
18301	4.8049	1.8182	5.e-002	3.5614e-004
18302	5.0818	1.8182	0.	-38.012
18303	4.9895	1.7273	0.	-9.6181
18304	4.9895	1.8182	5.e-002	3.3036e-004
18305	5.2664	1.8182	0.	-117.39
18306	5.1741	1.7273	0.	-35.607
18307	5.1741	1.8182	5.e-002	2.9262e-004
18308	5.4509	1.8182	0.	-171.56
18309	5.3586	1.7273	0.	-100.91
18310	5.3586	1.8182	5.e-002	2.4389e-004
18311	5.6355	1.8182	0.	-201.75
18312	5.5432	1.7273	0.	-146.02
18313	5.5432	1.8182	5.e-002	2.4452e-004
18314	5.8201	1.8182	0.	-216.63
18315	5.7278	1.7273	0.	-171.9
18316	5.7278	1.8182	5.e-002	1.5974e-004
18317	6.0046	1.8182	0.	-221.81
18318	5.9123	1.7273	0.	-185.27
18319	5.9123	1.8182	5.e-002	1.547e-004
18320	6.1892	1.8182	0.	-220.86
18321	6.0969	1.7273	0.	-190.63
18322	6.0969	1.8182	5.e-002	1.1309e-004
18323	6.3738	1.8182	0.	-215.98
18324	6.2815	1.7273	0.	-190.8
18325	6.2815	1.8182	5.e-002	1.0568e-004
18326	6.5583	1.8182	0.	-208.62
18327	6.466	1.7273	0.	-187.58
18328	6.466	1.8182	5.e-002	9.7514e-005
18329	6.7429	1.8182	0.	-199.7
18330	6.6506	1.7273	0.	-182.13
18331	6.6506	1.8182	5.e-002	8.7513e-005
18332	6.9275	1.8182	0.	-189.85
18333	6.8352	1.7273	0.	-175.2
18334	6.8352	1.8182	5.e-002	5.5053e-005
18335	7.112	1.8182	0.	-179.5
18336	7.0198	1.7273	0.	-167.33
18337	7.0198	1.8182	5.e-002	4.5703e-005
18338	7.2966	1.8182	0.	-168.95
18339	7.2043	1.7273	0.	-158.89
18340	7.2043	1.8182	5.e-002	2.4295e-005
18341	7.4812	1.8182	0.	-158.41
18342	7.3889	1.7273	0.	-150.13
18343	7.3889	1.8182	5.e-002	3.1495e-005
18344	7.6657	1.8182	0.	-148.03
18345	7.5735	1.7273	0.	-141.26
18346	7.5735	1.8182	5.e-002	1.3783e-005
18347	7.8503	1.8182	0.	-137.93
18348	7.758	1.7273	0.	-132.42
18349	7.758	1.8182	5.e-002	1.5152e-005
18350	8.0349	1.8182	0.	-128.17
18351	7.9426	1.7273	0.	-123.71
18352	7.9426	1.8182	5.e-002	9.0174e-006
18353	8.2194	1.8182	0.	-118.81
18354	8.1272	1.7273	0.	-115.23
18355	8.1272	1.8182	5.e-002	1.0186e-005
18356	8.404	1.8182	0.	-109.88
18357	8.3117	1.7273	0.	-107.04
18358	8.3117	1.8182	5.e-002	9.5797e-006
18359	8.5886	1.8182	0.	-101.4
18360	8.4963	1.7273	0.	-99.159
18361	8.4963	1.8182	5.e-002	8.4852e-006
18362	8.7731	1.8182	0.	-93.381
18363	8.6809	1.7273	0.	-91.633
18364	8.6809	1.8182	5.e-002	6.2529e-006
18365	8.9577	1.8182	0.	-85.82
18366	8.8654	1.7273	0.	-84.475
18367	8.8654	1.8182	5.e-002	7.118e-006
18368	9.1423	1.8182	0.	-78.71
18369	9.05	1.7273	0.	-77.693
18370	9.05	1.8182	5.e-002	6.1607e-006
18371	9.3269	1.8182	0.	-72.04
18372	9.2346	1.7273	0.	-71.288
18373	9.2346	1.8182	5.e-002	7.1697e-006
18374	9.5114	1.8182	0.	-65.796
18375	9.4191	1.7273	0.	-65.257
18376	9.4191	1.8182	5.e-002	5.938e-006
18377	9.696	1.8182	0.	-59.96
18378	9.6037	1.7273	0.	-59.592
18379	9.6037	1.8182	5.e-002	7.0651e-006
18380	9.8806	1.8182	0.	-54.514
18381	9.7883	1.7273	0.	-54.281
18382	9.7883	1.8182	5.e-002	6.3612e-006
18383	10.065	1.8182	0.	-49.438
18384	9.9728	1.7273	0.	-49.312
18385	9.9728	1.8182	5.e-002	5.8134e-006
18386	10.25	1.8182	0.	-44.71
18387	10.157	1.7273	0.	-44.668
18388	10.157	1.8182	5.e-002	4.8726e-006
18389	10.434	1.8182	0.	-40.312
18390	10.342	1.7273	0.	-40.334
18391	10.342	1.8182	5.e-002	4.7988e-006
18392	10.619	1.8182	0.	-36.223
18393	10.527	1.7273	0.	-36.295
18394	10.527	1.8182	5.e-002	3.7535e-006
18395	10.803	1.8182	0.	-32.422
18396	10.711	1.7273	0.	-32.531
18397	10.711	1.8182	5.e-002	4.5015e-006
18398	10.988	1.8182	0.	-28.891
18399	10.896	1.7273	0.	-29.029
18400	10.896	1.8182	5.e-002	4.4518e-006
18401	11.173	1.8182	0.	-25.612
18402	11.08	1.7273	0.	-25.77
18403	11.08	1.8182	5.e-002	3.5611e-006
18404	11.357	1.8182	0.	-22.567
18405	11.265	1.7273	0.	-22.739
18406	11.265	1.8182	5.e-002	3.8059e-006
18407	11.542	1.8182	0.	-19.739
18408	11.449	1.7273	0.	-19.92
18409	11.449	1.8182	5.e-002	4.6179e-006
18410	11.726	1.8182	0.	-17.112
18411	11.634	1.7273	0.	-17.3
18412	11.634	1.8182	5.e-002	4.4873e-006
18413	11.911	1.8182	0.	-14.671
18414	11.819	1.7273	0.	-14.863
18415	11.819	1.8182	5.e-002	4.6662e-006
18416	12.095	1.8182	0.	-12.402
18417	12.003	1.7273	0.	-12.595
18418	12.003	1.8182	5.e-002	3.2155e-006
18419	12.28	1.8182	0.	-10.291
18420	12.188	1.7273	0.	-10.486
18421	12.188	1.8182	5.e-002	4.0978e-006
18422	12.465	1.8182	0.	-8.3266
18423	12.372	1.7273	0.	-8.521
18424	12.372	1.8182	5.e-002	3.8706e-006
18425	12.649	1.8182	0.	-6.4964
18426	12.557	1.7273	0.	-6.6904
18427	12.557	1.8182	5.e-002	4.0694e-006
18428	12.834	1.8182	0.	-4.7896
18429	12.741	1.7273	0.	-4.9829
18430	12.741	1.8182	5.e-002	4.0352e-006
18431	13.018	1.8182	0.	-3.1961
18432	12.926	1.7273	0.	-3.389
18433	12.926	1.8182	5.e-002	3.7423e-006
18434	13.203	1.8182	0.	-1.708
18435	13.11	1.7273	0.	-1.9005
18436	13.11	1.8182	5.e-002	3.9004e-006
18437	13.387	1.8182	0.	-0.34255
18438	13.295	1.7273	0.	-0.52433
18439	13.295	1.8182	5.e-002	4.5991e-006
18440	13.572	1.8182	0.	-9.1316e-003
18441	13.48	1.7273	0.	-1.4612e-002
18442	13.48	1.8182	5.e-002	5.1544e-006
18443	13.756	1.8182	0.	-1.3463e-003
18444	13.664	1.7273	0.	-3.0854e-003
18445	13.664	1.8182	5.e-002	5.2855e-006
18446	13.941	1.8182	0.	9.279e-004
18447	13.849	1.7273	0.	-1.9244e-004
18448	13.849	1.8182	5.e-002	4.1606e-006
18449	14.126	1.8182	0.	2.0636e-003
18450	14.033	1.7273	0.	1.1543e-003
18451	14.033	1.8182	5.e-002	4.9481e-006
18452	14.31	1.8182	0.	2.7825e-003
18453	14.218	1.7273	0.	1.9833e-003
18454	14.218	1.8182	5.e-002	4.7341e-006
18455	14.495	1.8182	0.	3.2837e-003
18456	14.402	1.7273	0.	2.5539e-003
18457	14.402	1.8182	5.e-002	4.7391e-006
18458	14.679	1.8182	0.	3.6743e-003
18459	14.587	1.7273	0.	2.9657e-003
18460	14.587	1.8182	5.e-002	3.8779e-006
18461	14.864	1.8182	0.	4.0142e-003
18462	14.772	1.7273	0.	3.3219e-003
18463	14.772	1.8182	5.e-002	2.8313e-006
18464	15.048	1.8182	0.	4.3123e-003
18465	14.956	1.7273	0.	3.6335e-003
18466	14.956	1.8182	5.e-002	1.8233e-006
18467	15.233	1.8182	0.	4.5768e-003
18468	15.141	1.7273	0.	3.9055e-003
18469	15.141	1.8182	5.e-002	1.1282e-006
18470	15.418	1.8182	0.	4.8233e-003
18471	15.325	1.7273	0.	4.149e-003
18472	15.325	1.8182	5.e-002	2.226e-006
18473	15.602	1.8182	0.	5.0723e-003
18474	15.51	1.7273	0.	4.3835e-003
18475	15.51	1.8182	5.e-002	9.681e-007
18476	15.787	1.8182	0.	5.3171e-003
18477	15.694	1.7273	0.	4.6321e-003
18478	15.694	1.8182	5.e-002	1.6315e-006
18479	15.971	1.8182	0.	5.5475e-003
18480	15.879	1.7273	0.	4.8561e-003
18481	15.879	1.8182	5.e-002	1.409e-006
18482	16.156	1.8182	0.	5.7848e-003
18483	16.064	1.7273	0.	5.0739e-003
18484	16.064	1.8182	5.e-002	3.2971e-006
18485	16.34	1.8182	0.	6.0313e-003
18486	16.248	1.7273	0.	5.3119e-003
18487	16.248	1.8182	5.e-002	4.5389e-006
18488	16.525	1.8182	0.	6.2713e-003
18489	16.433	1.7273	0.	5.5467e-003
18490	16.433	1.8182	5.e-002	5.3808e-006
18491	16.71	1.8182	0.	6.5204e-003
18492	16.617	1.7273	0.	5.7703e-003
18493	16.617	1.8182	5.e-002	5.6959e-006
18494	16.894	1.8182	0.	6.7905e-003
18495	16.802	1.7273	0.	6.0227e-003
18496	16.802	1.8182	5.e-002	6.6094e-006
18497	17.079	1.8182	0.	7.0734e-003
18498	16.986	1.7273	0.	6.2863e-003
18499	16.986	1.8182	5.e-002	5.9924e-006
18500	17.263	1.8182	0.	7.3681e-003
18501	17.171	1.7273	0.	6.5623e-003
18502	17.171	1.8182	5.e-002	5.8776e-006
18503	17.448	1.8182	0.	7.6694e-003
18504	17.356	1.7273	0.	6.8493e-003
18505	17.356	1.8182	5.e-002	2.852e-006
18506	17.632	1.8182	0.	7.9882e-003
18507	17.54	1.7273	0.	7.1365e-003
18508	17.54	1.8182	5.e-002	3.1162e-006
18509	17.817	1.8182	0.	8.3371e-003
18510	17.725	1.7273	0.	7.4573e-003
18511	17.725	1.8182	5.e-002	5.5248e-006
18512	18.002	1.8182	0.	8.7073e-003
18513	17.909	1.7273	0.	7.8035e-003
18514	17.909	1.8182	5.e-002	4.7589e-006
18515	18.186	1.8182	0.	9.0963e-003
18516	18.094	1.7273	0.	8.1649e-003
18517	18.094	1.8182	5.e-002	7.7659e-006
18518	18.371	1.8182	0.	9.5127e-003
18519	18.278	1.7273	0.	8.5477e-003
18520	18.278	1.8182	5.e-002	6.7668e-006
18521	18.555	1.8182	0.	9.9672e-003
18522	18.463	1.7273	0.	8.9613e-003
18523	18.463	1.8182	5.e-002	5.4794e-006
18524	18.74	1.8182	0.	1.0457e-002
18525	18.648	1.7273	0.	9.4198e-003
18526	18.648	1.8182	5.e-002	5.821e-006
18527	18.924	1.8182	0.	1.0978e-002
18528	18.832	1.7273	0.	9.9006e-003
18529	18.832	1.8182	5.e-002	4.7376e-006
18530	19.109	1.8182	0.	1.1545e-002
18531	19.017	1.7273	0.	1.0418e-002
18532	19.017	1.8182	5.e-002	4.1353e-006
18533	19.294	1.8182	0.	1.2164e-002
18534	19.201	1.7273	0.	1.099e-002
18535	19.201	1.8182	5.e-002	6.1246e-006
18536	19.478	1.8182	0.	1.2832e-002
18537	19.386	1.7273	0.	1.1609e-002
18538	19.386	1.8182	5.e-002	3.6748e-006
18539	19.663	1.8182	0.	1.3562e-002
18540	19.57	1.7273	0.	1.2277e-002
18541	19.57	1.8182	5.e-002	4.3034e-006
18542	19.847	1.8182	0.	1.4371e-002
18543	19.755	1.7273	0.	1.3017e-002
18544	19.755	1.8182	5.e-002	2.9552e-006
18545	20.032	1.8182	0.	1.5261e-002
18546	19.94	1.7273	0.	1.3839e-002
18547	19.94	1.8182	5.e-002	2.4118e-006
18548	20.216	1.8182	0.	1.6243e-002
18549	20.124	1.7273	0.	1.4741e-002
18550	20.124	1.8182	5.e-002	1.8497e-006
18551	20.401	1.8182	0.	1.7334e-002
18552	20.309	1.7273	0.	1.574e-002
18553	20.309	1.8182	5.e-002	4.0995e-006
18554	20.585	1.8182	0.	1.856e-002
18555	20.493	1.7273	0.	1.6861e-002
18556	20.493	1.8182	5.e-002	6.2714e-006
18557	20.77	1.8182	0.	1.9939e-002
18558	20.678	1.7273	0.	1.8127e-002
18559	20.678	1.8182	5.e-002	2.9239e-006
18560	20.955	1.8182	0.	2.1491e-002
18561	20.862	1.7273	0.	1.9549e-002
18562	20.862	1.8182	5.e-002	4.9083e-006
18563	21.139	1.8182	0.	2.3263e-002
18564	21.047	1.7273	0.	2.1166e-002
18565	21.047	1.8182	5.e-002	5.1198e-006
18566	21.324	1.8182	0.	2.5298e-002
18567	21.231	1.7273	0.	2.3021e-002
18568	21.231	1.8182	5.e-002	4.3555e-006
18569	21.508	1.8182	0.	2.765e-002
18570	21.416	1.7273	0.	2.5166e-002
18571	21.416	1.8182	5.e-002	6.7679e-006
18572	21.693	1.8182	0.	3.0403e-002
18573	21.601	1.7273	0.	2.766e-002
18574	21.601	1.8182	5.e-002	4.4633e-006
18575	21.877	1.8182	0.	3.3663e-002
18576	21.785	1.7273	0.	3.0608e-002
18577	21.785	1.8182	5.e-002	2.7726e-006
18578	22.062	1.8182	0.	3.7571e-002
18579	21.97	1.7273	0.	3.4126e-002
18580	21.97	1.8182	5.e-002	4.0168e-006
18581	22.247	1.8182	0.	4.2327e-002
18582	22.154	1.7273	0.	3.8384e-002
18583	22.154	1.8182	5.e-002	6.1831e-006
18584	22.431	1.8182	0.	4.8249e-002
18585	22.339	1.7273	0.	4.362e-002
18586	22.339	1.8182	5.e-002	5.7765e-006
18587	22.616	1.8182	0.	5.5744e-002
18588	22.523	1.7273	0.	5.024e-002
18589	22.523	1.8182	5.e-002	7.8198e-006
18590	22.8	1.8182	0.	6.5805e-002
18591	22.708	1.7273	0.	5.8675e-002
18592	22.708	1.8182	5.e-002	4.573e-006
18593	22.985	1.8182	0.	7.8822e-002
18594	22.893	1.7273	0.	7.0532e-002
18595	22.893	1.8182	5.e-002	5.8397e-006
18596	23.169	1.8182	0.	0.10099
18597	23.077	1.7273	0.	8.5102e-002
18598	23.077	1.8182	5.e-002	6.766e-006
18599	23.354	1.8182	0.	0.12307
18600	23.262	1.7273	0.	0.1158
18601	23.262	1.8182	5.e-002	7.882e-006
18602	23.539	1.8182	0.	0.21771
18603	23.446	1.7273	0.	0.13195
18604	23.446	1.8182	5.e-002	6.0626e-006
18605	23.723	1.8182	0.	0.20753
18606	23.631	1.7273	0.	0.31434
18607	23.631	1.8182	5.e-002	6.2869e-006
18608	23.815	1.7273	0.	0.17232
18609	23.815	1.8182	5.e-002	8.7885e-006
18610	23.908	1.8182	0.	0.4212
18611	4.3435	1.6364	0.	8.8771
18612	4.2512	1.5455	0.	-8.5112
18613	4.2512	1.6364	5.e-002	4.5132e-004
18614	4.159	1.6364	0.	86.439
18615	4.5281	1.6364	0.	-5.7563
18616	4.4358	1.5455	0.	0.35667
18617	4.4358	1.6364	5.e-002	6.3211e-004
18618	4.7127	1.6364	0.	-8.8493
18619	4.6204	1.5455	0.	-9.5901
18620	4.6204	1.6364	5.e-002	5.966e-004
18621	4.8972	1.6364	0.	-4.9136
18622	4.8049	1.5455	0.	-3.8043
18623	4.8049	1.6364	5.e-002	5.0954e-004
18624	5.0818	1.6364	0.	-8.4379
18625	4.9895	1.5455	0.	-5.3587
18626	4.9895	1.6364	5.e-002	4.3101e-004
18627	5.2664	1.6364	0.	-26.242
18628	5.1741	1.5455	0.	-7.7511
18629	5.1741	1.6364	5.e-002	3.8293e-004
18630	5.4509	1.6364	0.	-78.141
18631	5.3586	1.5455	0.	-22.89
18632	5.3586	1.6364	5.e-002	2.9861e-004
18633	5.6355	1.6364	0.	-117.63
18634	5.5432	1.5455	0.	-63.342
18635	5.5432	1.6364	5.e-002	2.258e-004
18636	5.8201	1.6364	0.	-141.36
18637	5.7278	1.5455	0.	-95.781
18638	5.7278	1.6364	5.e-002	2.1292e-004
18639	6.0046	1.6364	0.	-154.54
18640	5.9123	1.5455	0.	-116.34
18641	5.9123	1.6364	5.e-002	1.5659e-004
18642	6.1892	1.6364	0.	-160.81
18643	6.0969	1.5455	0.	-128.6
18644	6.0969	1.6364	5.e-002	1.4225e-004
18645	6.3738	1.6364	0.	-162.52
18646	6.2815	1.5455	0.	-135.23
18647	6.2815	1.6364	5.e-002	1.2862e-004
18648	6.5583	1.6364	0.	-161.15
18649	6.466	1.5455	0.	-137.99
18650	6.466	1.6364	5.e-002	1.2114e-004
18651	6.7429	1.6364	0.	-157.66
18652	6.6506	1.5455	0.	-138.02
18653	6.6506	1.6364	5.e-002	4.2957e-005
18654	6.9275	1.6364	0.	-152.69
18655	6.8352	1.5455	0.	-136.07
18656	6.8352	1.6364	5.e-002	3.73e-005
18657	7.112	1.6364	0.	-146.72
18658	7.0198	1.5455	0.	-132.69
18659	7.0198	1.6364	5.e-002	7.4341e-005
18660	7.2966	1.6364	0.	-140.06
18661	7.2043	1.5455	0.	-128.26
18662	7.2043	1.6364	5.e-002	2.3153e-005
18663	7.4812	1.6364	0.	-132.97
18664	7.3889	1.5455	0.	-123.08
18665	7.3889	1.6364	5.e-002	9.2341e-006
18666	7.6657	1.6364	0.	-125.63
18667	7.5735	1.5455	0.	-117.37
18668	7.5735	1.6364	5.e-002	2.4021e-005
18669	7.8503	1.6364	0.	-118.2
18670	7.758	1.5455	0.	-111.32
18671	7.758	1.6364	5.e-002	1.6435e-005
18672	8.0349	1.6364	0.	-110.77
18673	7.9426	1.5455	0.	-105.07
18674	7.9426	1.6364	5.e-002	1.2811e-005
18675	8.2194	1.6364	0.	-103.45
18676	8.1272	1.5455	0.	-98.739
18677	8.1272	1.6364	5.e-002	1.3697e-005
18678	8.404	1.6364	0.	-96.308
18679	8.3117	1.5455	0.	-92.421
18680	8.3117	1.6364	5.e-002	7.8448e-006
18681	8.5886	1.6364	0.	-89.384
18682	8.4963	1.5455	0.	-86.191
18683	8.4963	1.6364	5.e-002	7.0389e-006
18684	8.7731	1.6364	0.	-82.72
18685	8.6809	1.5455	0.	-80.104
18686	8.6809	1.6364	5.e-002	8.3023e-006
18687	8.9577	1.6364	0.	-76.341
18688	8.8654	1.5455	0.	-74.205
18689	8.8654	1.6364	5.e-002	9.1935e-006
18690	9.1423	1.6364	0.	-70.264
18691	9.05	1.5455	0.	-68.526
18692	9.05	1.6364	5.e-002	7.5018e-006
18693	9.3269	1.6364	0.	-64.497
18694	9.2346	1.5455	0.	-63.088
18695	9.2346	1.6364	5.e-002	6.3089e-006
18696	9.5114	1.6364	0.	-59.045
18697	9.4191	1.5455	0.	-57.906
18698	9.4191	1.6364	5.e-002	6.0378e-006
18699	9.696	1.6364	0.	-53.904
18700	9.6037	1.5455	0.	-52.987
18701	9.6037	1.6364	5.e-002	6.8994e-006
18702	9.8806	1.6364	0.	-49.068
18703	9.7883	1.5455	0.	-48.335
18704	9.7883	1.6364	5.e-002	5.3262e-006
18705	10.065	1.6364	0.	-44.531
18706	9.9728	1.5455	0.	-43.947
18707	9.9728	1.6364	5.e-002	5.8526e-006
18708	10.25	1.6364	0.	-40.28
18709	10.157	1.5455	0.	-39.818
18710	10.157	1.6364	5.e-002	4.6085e-006
18711	10.434	1.6364	0.	-36.304
18712	10.342	1.5455	0.	-35.942
18713	10.342	1.6364	5.e-002	5.0337e-006
18714	10.619	1.6364	0.	-32.59
18715	10.527	1.5455	0.	-32.31
18716	10.527	1.6364	5.e-002	4.5588e-006
18717	10.803	1.6364	0.	-29.124
18718	10.711	1.5455	0.	-28.911
18719	10.711	1.6364	5.e-002	4.8486e-006
18720	10.988	1.6364	0.	-25.892
18721	10.896	1.5455	0.	-25.733
18722	10.896	1.6364	5.e-002	4.4281e-006
18723	11.173	1.6364	0.	-22.881
18724	11.08	1.5455	0.	-22.767
18725	11.08	1.6364	5.e-002	3.6593e-006
18726	11.357	1.6364	0.	-20.076
18727	11.265	1.5455	0.	-19.999
18728	11.265	1.6364	5.e-002	3.6237e-006
18729	11.542	1.6364	0.	-17.464
18730	11.449	1.5455	0.	-17.417
18731	11.449	1.6364	5.e-002	3.7437e-006
18732	11.726	1.6364	0.	-15.033
18733	11.634	1.5455	0.	-15.01
18734	11.634	1.6364	5.e-002	4.3214e-006
18735	11.911	1.6364	0.	-12.769
18736	11.819	1.5455	0.	-12.767
18737	11.819	1.6364	5.e-002	4.142e-006
18738	12.095	1.6364	0.	-10.66
18739	12.003	1.5455	0.	-10.676
18740	12.003	1.6364	5.e-002	3.8345e-006
18741	12.28	1.6364	0.	-8.6957
18742	12.188	1.5455	0.	-8.726
18743	12.188	1.6364	5.e-002	4.1203e-006
18744	12.465	1.6364	0.	-6.8643
18745	12.372	1.5455	0.	-6.9073
18746	12.372	1.6364	5.e-002	3.9325e-006
18747	12.649	1.6364	0.	-5.1557
18748	12.557	1.5455	0.	-5.2101
18749	12.557	1.6364	5.e-002	3.9482e-006
18750	12.834	1.6364	0.	-3.5605
18751	12.741	1.5455	0.	-3.625
18752	12.741	1.6364	5.e-002	4.5014e-006
18753	13.018	1.6364	0.	-2.0708
18754	12.926	1.5455	0.	-2.1447
18755	12.926	1.6364	5.e-002	3.9365e-006
18756	13.203	1.6364	0.	-0.6889
18757	13.11	1.5455	0.	-0.77048
18758	13.11	1.6364	5.e-002	4.2601e-006
18759	13.387	1.6364	0.	-2.1808e-002
18760	13.295	1.5455	0.	-2.8252e-002
18761	13.295	1.6364	5.e-002	4.7806e-006
18762	13.572	1.6364	0.	-4.9322e-003
18763	13.48	1.5455	0.	-6.5835e-003
18764	13.48	1.6364	5.e-002	5.3359e-006
18765	13.756	1.6364	0.	-1.3299e-003
18766	13.664	1.5455	0.	-2.3935e-003
18767	13.664	1.6364	5.e-002	5.2489e-006
18768	13.941	1.6364	0.	2.5573e-004
18769	13.849	1.5455	0.	-6.0962e-004
18770	13.849	1.6364	5.e-002	4.1958e-006
18771	14.126	1.6364	0.	1.1805e-003
18772	14.033	1.5455	0.	3.9148e-004
18773	14.033	1.6364	5.e-002	4.9931e-006
18774	14.31	1.6364	0.	1.8112e-003
18775	14.218	1.5455	0.	1.0707e-003
18776	14.218	1.6364	5.e-002	4.7331e-006
18777	14.495	1.6364	0.	2.2657e-003
18778	14.402	1.5455	0.	1.56e-003
18779	14.402	1.6364	5.e-002	4.5801e-006
18780	14.679	1.6364	0.	2.6269e-003
18781	14.587	1.5455	0.	1.9212e-003
18782	14.587	1.6364	5.e-002	3.6901e-006
18783	14.864	1.6364	0.	2.9439e-003
18784	14.772	1.5455	0.	2.2391e-003
18785	14.772	1.6364	5.e-002	2.6456e-006
18786	15.048	1.6364	0.	3.2215e-003
18787	14.956	1.5455	0.	2.519e-003
18788	14.956	1.6364	5.e-002	1.7074e-006
18789	15.233	1.6364	0.	3.4665e-003
18790	15.141	1.5455	0.	2.7623e-003
18791	15.141	1.6364	5.e-002	1.1269e-006
18792	15.418	1.6364	0.	3.6933e-003
18793	15.325	1.5455	0.	2.9789e-003
18794	15.325	1.6364	5.e-002	2.2203e-006
18795	15.602	1.6364	0.	3.9234e-003
18796	15.51	1.5455	0.	3.1874e-003
18797	15.51	1.6364	5.e-002	6.7624e-007
18798	15.787	1.6364	0.	4.1476e-003
18799	15.694	1.5455	0.	3.4105e-003
18800	15.694	1.6364	5.e-002	1.7037e-006
18801	15.971	1.6364	0.	4.3559e-003
18802	15.879	1.5455	0.	3.6073e-003
18803	15.879	1.6364	5.e-002	1.2967e-006
18804	16.156	1.6364	0.	4.5714e-003
18805	16.064	1.5455	0.	3.798e-003
18806	16.064	1.6364	5.e-002	3.1226e-006
18807	16.34	1.6364	0.	4.795e-003
18808	16.248	1.5455	0.	4.0087e-003
18809	16.248	1.6364	5.e-002	4.4191e-006
18810	16.525	1.6364	0.	5.0108e-003
18811	16.433	1.5455	0.	4.2153e-003
18812	16.433	1.6364	5.e-002	4.9442e-006
18813	16.71	1.6364	0.	5.2351e-003
18814	16.617	1.5455	0.	4.4088e-003
18815	16.617	1.6364	5.e-002	5.727e-006
18816	16.894	1.6364	0.	5.4785e-003
18817	16.802	1.5455	0.	4.6308e-003
18818	16.802	1.6364	5.e-002	6.7455e-006
18819	17.079	1.6364	0.	5.7326e-003
18820	16.986	1.5455	0.	4.8624e-003
18821	16.986	1.6364	5.e-002	5.6962e-006
18822	17.263	1.6364	0.	5.9984e-003
18823	17.171	1.5455	0.	5.1046e-003
18824	17.171	1.6364	5.e-002	5.5353e-006
18825	17.448	1.6364	0.	6.2687e-003
18826	17.356	1.5455	0.	5.3571e-003
18827	17.356	1.6364	5.e-002	2.864e-006
18828	17.632	1.6364	0.	6.5552e-003
18829	17.54	1.5455	0.	5.6072e-003
18830	17.54	1.6364	5.e-002	2.743e-006
18831	17.817	1.6364	0.	6.8704e-003
18832	17.725	1.5455	0.	5.8908e-003
18833	17.725	1.6364	5.e-002	5.6065e-006
18834	18.002	1.6364	0.	7.2047e-003
18835	17.909	1.5455	0.	6.1947e-003
18836	17.909	1.6364	5.e-002	4.8858e-006
18837	18.186	1.6364	0.	7.5569e-003
18838	18.094	1.5455	0.	6.5155e-003
18839	18.094	1.6364	5.e-002	8.3355e-006
18840	18.371	1.6364	0.	7.9335e-003
18841	18.278	1.5455	0.	6.8526e-003
18842	18.278	1.6364	5.e-002	6.9613e-006
18843	18.555	1.6364	0.	8.3475e-003
18844	18.463	1.5455	0.	7.2197e-003
18845	18.463	1.6364	5.e-002	5.399e-006
18846	18.74	1.6364	0.	8.7932e-003
18847	18.648	1.5455	0.	7.6283e-003
18848	18.648	1.6364	5.e-002	6.0966e-006
18849	18.924	1.6364	0.	9.2665e-003
18850	18.832	1.5455	0.	8.0583e-003
18851	18.832	1.6364	5.e-002	4.3484e-006
18852	19.109	1.6364	0.	9.7851e-003
18853	19.017	1.5455	0.	8.5185e-003
18854	19.017	1.6364	5.e-002	4.0648e-006
18855	19.294	1.6364	0.	1.0352e-002
18856	19.201	1.5455	0.	9.0333e-003
18857	19.201	1.6364	5.e-002	5.5029e-006
18858	19.478	1.6364	0.	1.0965e-002
18859	19.386	1.5455	0.	9.5893e-003
18860	19.386	1.6364	5.e-002	3.3902e-006
18861	19.663	1.6364	0.	1.1638e-002
18862	19.57	1.5455	0.	1.0192e-002
18863	19.57	1.6364	5.e-002	4.0984e-006
18864	19.847	1.6364	0.	1.2385e-002
18865	19.755	1.5455	0.	1.0863e-002
18866	19.755	1.6364	5.e-002	3.2093e-006
18867	20.032	1.6364	0.	1.321e-002
18868	19.94	1.5455	0.	1.1608e-002
18869	19.94	1.6364	5.e-002	3.6076e-006
18870	20.216	1.6364	0.	1.4122e-002
18871	20.124	1.5455	0.	1.2433e-002
18872	20.124	1.6364	5.e-002	1.1147e-006
18873	20.401	1.6364	0.	1.5142e-002
18874	20.309	1.5455	0.	1.335e-002
18875	20.309	1.6364	5.e-002	3.3595e-006
18876	20.585	1.6364	0.	1.6292e-002
18877	20.493	1.5455	0.	1.4383e-002
18878	20.493	1.6364	5.e-002	6.1052e-006
18879	20.77	1.6364	0.	1.759e-002
18880	20.678	1.5455	0.	1.5555e-002
18881	20.678	1.6364	5.e-002	2.7387e-006
18882	20.955	1.6364	0.	1.9062e-002
18883	20.862	1.5455	0.	1.688e-002
18884	20.862	1.6364	5.e-002	4.1348e-006
18885	21.139	1.6364	0.	2.0746e-002
18886	21.047	1.5455	0.	1.8393e-002
18887	21.047	1.6364	5.e-002	5.279e-006
18888	21.324	1.6364	0.	2.2691e-002
18889	21.231	1.5455	0.	2.0142e-002
18890	21.231	1.6364	5.e-002	3.6236e-006
18891	21.508	1.6364	0.	2.4952e-002
18892	21.416	1.5455	0.	2.2177e-002
18893	21.416	1.6364	5.e-002	6.5264e-006
18894	21.693	1.6364	0.	2.761e-002
18895	21.601	1.5455	0.	2.4554e-002
18896	21.601	1.6364	5.e-002	3.6795e-006
18897	21.877	1.6364	0.	3.0774e-002
18898	21.785	1.5455	0.	2.7384e-002
18899	21.785	1.6364	5.e-002	1.5632e-006
18900	22.062	1.6364	0.	3.4586e-002
18901	21.97	1.5455	0.	3.078e-002
18902	21.97	1.6364	5.e-002	4.8056e-006
18903	22.247	1.6364	0.	3.9243e-002
18904	22.154	1.5455	0.	3.4914e-002
18905	22.154	1.6364	5.e-002	2.9788e-006
18906	22.431	1.6364	0.	4.5059e-002
18907	22.339	1.5455	0.	4.0021e-002
18908	22.339	1.6364	5.e-002	3.5563e-006
18909	22.616	1.6364	0.	5.2433e-002
18910	22.523	1.5455	0.	4.6502e-002
18911	22.523	1.6364	5.e-002	6.8479e-006
18912	22.8	1.6364	0.	6.2346e-002
18913	22.708	1.5455	0.	5.4779e-002
18914	22.708	1.6364	5.e-002	4.4086e-006
18915	22.985	1.6364	0.	7.5165e-002
18916	22.893	1.5455	0.	6.6434e-002
18917	22.893	1.6364	5.e-002	4.7619e-006
18918	23.169	1.6364	0.	9.7024e-002
18919	23.077	1.5455	0.	8.0736e-002
18920	23.077	1.6364	5.e-002	5.8018e-006
18921	23.354	1.6364	0.	0.11867
18922	23.262	1.5455	0.	0.11099
18923	23.262	1.6364	5.e-002	8.9686e-006
18924	23.539	1.6364	0.	0.21219
18925	23.446	1.5455	0.	0.12653
18926	23.446	1.6364	5.e-002	6.884e-006
18927	23.723	1.6364	0.	0.19903
18928	23.631	1.5455	0.	0.3068
18929	23.631	1.6364	5.e-002	7.8825e-006
18930	23.815	1.5455	0.	0.15824
18931	23.815	1.6364	5.e-002	6.798e-006
18932	23.908	1.6364	0.	0.41814
18933	4.3435	1.4545	0.	-17.292
18934	4.2512	1.3636	0.	-20.946
18935	4.2512	1.4545	5.e-002	1.5069e-004
18936	4.159	1.4545	0.	-20.959
18937	4.5281	1.4545	0.	-3.4655
18938	4.4358	1.3636	0.	-1.6004
18939	4.4358	1.4545	5.e-002	3.3834e-004
18940	4.7127	1.4545	0.	-4.4596
18941	4.6204	1.3636	0.	-4.4852
18942	4.6204	1.4545	5.e-002	4.2764e-004
18943	4.8972	1.4545	0.	-4.1839
18944	4.8049	1.3636	0.	-3.7827
18945	4.8049	1.4545	5.e-002	4.076e-004
18946	5.0818	1.4545	0.	-4.5516
18947	4.9895	1.3636	0.	-3.681
18948	4.9895	1.4545	5.e-002	3.4546e-004
18949	5.2664	1.4545	0.	-6.4998
18950	5.1741	1.3636	0.	-4.105
18951	5.1741	1.4545	5.e-002	4.2312e-004
18952	5.4509	1.4545	0.	-15.349
18953	5.3586	1.3636	0.	-5.7158
18954	5.3586	1.4545	5.e-002	4.4724e-004
18955	5.6355	1.4545	0.	-43.998
18956	5.5432	1.3636	0.	-11.688
18957	5.5432	1.4545	5.e-002	3.0091e-004
18958	5.8201	1.4545	0.	-71.877
18959	5.7278	1.3636	0.	-31.618
18960	5.7278	1.4545	5.e-002	2.1908e-004
18961	6.0046	1.4545	0.	-90.975
18962	5.9123	1.3636	0.	-54.456
18963	5.9123	1.4545	5.e-002	2.0242e-004
18964	6.1892	1.4545	0.	-103.31
18965	6.0969	1.3636	0.	-71.472
18966	6.0969	1.4545	5.e-002	1.8216e-004
18967	6.3738	1.4545	0.	-110.84
18968	6.2815	1.3636	0.	-83.285
18969	6.2815	1.4545	5.e-002	1.6525e-004
18970	6.5583	1.4545	0.	-114.93
18971	6.466	1.3636	0.	-91.145
18972	6.466	1.4545	5.e-002	1.4465e-004
18973	6.7429	1.4545	0.	-116.46
18974	6.6506	1.3636	0.	-95.998
18975	6.6506	1.4545	5.e-002	4.8221e-005
18976	6.9275	1.4545	0.	-116.08
18977	6.8352	1.3636	0.	-98.524
18978	6.8352	1.4545	5.e-002	1.0378e-004
18979	7.112	1.4545	0.	-114.23
18980	7.0198	1.3636	0.	-99.222
18981	7.0198	1.4545	5.e-002	5.9986e-005
18982	7.2966	1.4545	0.	-111.27
18983	7.2043	1.3636	0.	-98.477
18984	7.2043	1.4545	5.e-002	6.7206e-005
18985	7.4812	1.4545	0.	-107.47
18986	7.3889	1.3636	0.	-96.594
18987	7.3889	1.4545	5.e-002	5.4637e-005
18988	7.6657	1.4545	0.	-103.05
18989	7.5735	1.3636	0.	-93.826
18990	7.5735	1.4545	5.e-002	2.5402e-005
18991	7.8503	1.4545	0.	-98.184
18992	7.758	1.3636	0.	-90.382
18993	7.758	1.4545	5.e-002	1.6539e-005
18994	8.0349	1.4545	0.	-93.027
18995	7.9426	1.3636	0.	-86.438
18996	7.9426	1.4545	5.e-002	1.4258e-005
18997	8.2194	1.4545	0.	-87.697
18998	8.1272	1.3636	0.	-82.142
18999	8.1272	1.4545	5.e-002	1.1569e-005
19000	8.404	1.4545	0.	-82.296
19001	8.3117	1.3636	0.	-77.617
19002	8.3117	1.4545	5.e-002	1.0735e-005
19003	8.5886	1.4545	0.	-76.903
19004	8.4963	1.3636	0.	-72.965
19005	8.4963	1.4545	5.e-002	1.0264e-005
19006	8.7731	1.4545	0.	-71.582
19007	8.6809	1.3636	0.	-68.268
19008	8.6809	1.4545	5.e-002	9.224e-006
19009	8.9577	1.4545	0.	-66.382
19010	8.8654	1.3636	0.	-63.594
19011	8.8654	1.4545	5.e-002	7.7392e-006
19012	9.1423	1.4545	0.	-61.341
19013	9.05	1.3636	0.	-58.995
19014	9.05	1.4545	5.e-002	7.4648e-006
19015	9.3269	1.4545	0.	-56.487
19016	9.2346	1.3636	0.	-54.512
19017	9.2346	1.4545	5.e-002	7.8234e-006
19018	9.5114	1.4545	0.	-51.838
19019	9.4191	1.3636	0.	-50.174
19020	9.4191	1.4545	5.e-002	6.2595e-006
19021	9.696	1.4545	0.	-47.408
19022	9.6037	1.3636	0.	-46.003
19023	9.6037	1.4545	5.e-002	6.7393e-006
19024	9.8806	1.4545	0.	-43.202
19025	9.7883	1.3636	0.	-42.016
19026	9.7883	1.4545	5.e-002	5.7605e-006
19027	10.065	1.4545	0.	-39.222
19028	9.9728	1.3636	0.	-38.219
19029	9.9728	1.4545	5.e-002	4.9027e-006
19030	10.25	1.4545	0.	-35.468
19031	10.157	1.3636	0.	-34.619
19032	10.157	1.4545	5.e-002	4.6386e-006
19033	10.434	1.4545	0.	-31.935
19034	10.342	1.3636	0.	-31.215
19035	10.342	1.4545	5.e-002	5.0239e-006
19036	10.619	1.4545	0.	-28.617
19037	10.527	1.3636	0.	-28.005
19038	10.527	1.4545	5.e-002	3.8132e-006
19039	10.803	1.4545	0.	-25.505
19040	10.711	1.3636	0.	-24.986
19041	10.711	1.4545	5.e-002	4.674e-006
19042	10.988	1.4545	0.	-22.593
19043	10.896	1.3636	0.	-22.151
19044	10.896	1.4545	5.e-002	4.267e-006
19045	11.173	1.4545	0.	-19.868
19046	11.08	1.3636	0.	-19.493
19047	11.08	1.4545	5.e-002	3.6952e-006
19048	11.357	1.4545	0.	-17.323
19049	11.265	1.3636	0.	-17.003
19050	11.265	1.4545	5.e-002	3.674e-006
19051	11.542	1.4545	0.	-14.945
19052	11.449	1.3636	0.	-14.674
19053	11.449	1.4545	5.e-002	4.1209e-006
19054	11.726	1.4545	0.	-12.726
19055	11.634	1.3636	0.	-12.497
19056	11.634	1.4545	5.e-002	4.4548e-006
19057	11.911	1.4545	0.	-10.655
19058	11.819	1.3636	0.	-10.462
19059	11.819	1.4545	5.e-002	4.4677e-006
19060	12.095	1.4545	0.	-8.7218
19061	12.003	1.3636	0.	-8.5612
19062	12.003	1.4545	5.e-002	3.3547e-006
19063	12.28	1.4545	0.	-6.9173
19064	12.188	1.3636	0.	-6.7848
19065	12.188	1.4545	5.e-002	3.8236e-006
19066	12.465	1.4545	0.	-5.2322
19067	12.372	1.3636	0.	-5.1247
19068	12.372	1.4545	5.e-002	3.5607e-006
19069	12.649	1.4545	0.	-3.658
19070	12.557	1.3636	0.	-3.5731
19071	12.557	1.4545	5.e-002	3.8928e-006
19072	12.834	1.4545	0.	-2.1872
19073	12.741	1.3636	0.	-2.1232
19074	12.741	1.4545	5.e-002	4.2069e-006
19075	13.018	1.4545	0.	-0.82134
19076	12.926	1.3636	0.	-0.77799
19077	12.926	1.4545	5.e-002	4.016e-006
19078	13.203	1.4545	0.	-3.3886e-002
19079	13.11	1.3636	0.	-3.3863e-002
19080	13.11	1.4545	5.e-002	4.3711e-006
19081	13.387	1.4545	0.	-7.9929e-003
19082	13.295	1.3636	0.	-8.7857e-003
19083	13.295	1.4545	5.e-002	4.6223e-006
19084	13.572	1.4545	0.	-3.3509e-003
19085	13.48	1.3636	0.	-4.0819e-003
19086	13.48	1.4545	5.e-002	5.3695e-006
19087	13.756	1.4545	0.	-1.405e-003
19088	13.664	1.3636	0.	-2.0843e-003
19089	13.664	1.4545	5.e-002	5.1175e-006
19090	13.941	1.4545	0.	-3.3362e-004
19091	13.849	1.3636	0.	-9.919e-004
19092	13.849	1.4545	5.e-002	4.1993e-006
19093	14.126	1.4545	0.	3.6505e-004
19094	14.033	1.3636	0.	-2.996e-004
19095	14.033	1.4545	5.e-002	4.8511e-006
19096	14.31	1.4545	0.	8.7177e-004
19097	14.218	1.3636	0.	2.0912e-004
19098	14.218	1.4545	5.e-002	4.5299e-006
19099	14.495	1.4545	0.	1.2482e-003
19100	14.402	1.3636	0.	5.8943e-004
19101	14.402	1.4545	5.e-002	4.2498e-006
19102	14.679	1.4545	0.	1.5529e-003
19103	14.587	1.3636	0.	8.7176e-004
19104	14.587	1.4545	5.e-002	3.5191e-006
19105	14.864	1.4545	0.	1.824e-003
19106	14.772	1.3636	0.	1.1279e-003
19107	14.772	1.4545	5.e-002	2.3416e-006
19108	15.048	1.4545	0.	2.062e-003
19109	14.956	1.3636	0.	1.3556e-003
19110	14.956	1.4545	5.e-002	1.359e-006
19111	15.233	1.4545	0.	2.2708e-003
19112	15.141	1.3636	0.	1.5527e-003
19113	15.141	1.4545	5.e-002	6.4358e-007
19114	15.418	1.4545	0.	2.4641e-003
19115	15.325	1.3636	0.	1.7272e-003
19116	15.325	1.4545	5.e-002	1.7816e-006
19117	15.602	1.4545	0.	2.6612e-003
19118	15.51	1.3636	0.	1.8954e-003
19119	15.51	1.4545	5.e-002	4.6132e-007
19120	15.787	1.4545	0.	2.8528e-003
19121	15.694	1.3636	0.	2.0788e-003
19122	15.694	1.4545	5.e-002	1.45e-006
19123	15.971	1.4545	0.	3.0285e-003
19124	15.879	1.3636	0.	2.2379e-003
19125	15.879	1.4545	5.e-002	7.6859e-007
19126	16.156	1.4545	0.	3.2111e-003
19127	16.064	1.3636	0.	2.3889e-003
19128	16.064	1.4545	5.e-002	2.7821e-006
19129	16.34	1.4545	0.	3.4015e-003
19130	16.248	1.3636	0.	2.5611e-003
19131	16.248	1.4545	5.e-002	3.9027e-006
19132	16.525	1.4545	0.	3.5828e-003
19133	16.433	1.3636	0.	2.7278e-003
19134	16.433	1.4545	5.e-002	4.7252e-006
19135	16.71	1.4545	0.	3.7709e-003
19136	16.617	1.3636	0.	2.8812e-003
19137	16.617	1.4545	5.e-002	5.3645e-006
19138	16.894	1.4545	0.	3.9781e-003
19139	16.802	1.3636	0.	3.0615e-003
19140	16.802	1.4545	5.e-002	6.0647e-006
19141	17.079	1.4545	0.	4.1947e-003
19142	16.986	1.3636	0.	3.2504e-003
19143	16.986	1.4545	5.e-002	5.8416e-006
19144	17.263	1.4545	0.	4.4206e-003
19145	17.171	1.3636	0.	3.4479e-003
19146	17.171	1.4545	5.e-002	5.7795e-006
19147	17.448	1.4545	0.	4.6496e-003
19148	17.356	1.3636	0.	3.6543e-003
19149	17.356	1.4545	5.e-002	2.8249e-006
19150	17.632	1.4545	0.	4.8934e-003
19151	17.54	1.3636	0.	3.8556e-003
19152	17.54	1.4545	5.e-002	2.7341e-006
19153	17.817	1.4545	0.	5.1623e-003
19154	17.725	1.3636	0.	4.0888e-003
19155	17.725	1.4545	5.e-002	5.6879e-006
19156	18.002	1.4545	0.	5.449e-003
19157	17.909	1.3636	0.	4.3389e-003
19158	17.909	1.4545	5.e-002	4.6296e-006
19159	18.186	1.4545	0.	5.7509e-003
19160	18.094	1.3636	0.	4.6044e-003
19161	18.094	1.4545	5.e-002	8.4793e-006
19162	18.371	1.4545	0.	6.0744e-003
19163	18.278	1.3636	0.	4.881e-003
19164	18.278	1.4545	5.e-002	6.3521e-006
19165	18.555	1.4545	0.	6.4318e-003
19166	18.463	1.3636	0.	5.188e-003
19167	18.463	1.4545	5.e-002	5.1991e-006
19168	18.74	1.4545	0.	6.82e-003
19169	18.648	1.3636	0.	5.5286e-003
19170	18.648	1.4545	5.e-002	5.6834e-006
19171	18.924	1.4545	0.	7.2319e-003
19172	18.832	1.3636	0.	5.8897e-003
19173	18.832	1.4545	5.e-002	4.9989e-006
19174	19.109	1.4545	0.	7.6828e-003
19175	19.017	1.3636	0.	6.2763e-003
19176	19.017	1.4545	5.e-002	3.367e-006
19177	19.294	1.4545	0.	8.1807e-003
19178	19.201	1.3636	0.	6.7115e-003
19179	19.201	1.4545	5.e-002	4.9285e-006
19180	19.478	1.4545	0.	8.7198e-003
19181	19.386	1.3636	0.	7.1851e-003
19182	19.386	1.4545	5.e-002	3.2658e-006
19183	19.663	1.4545	0.	9.3136e-003
19184	19.57	1.3636	0.	7.6977e-003
19185	19.57	1.4545	5.e-002	3.7215e-006
19186	19.847	1.4545	0.	9.9752e-003
19187	19.755	1.3636	0.	8.2761e-003
19188	19.755	1.4545	5.e-002	2.7317e-006
19189	20.032	1.4545	0.	1.0711e-002
19190	19.94	1.3636	0.	8.9204e-003
19191	19.94	1.4545	5.e-002	2.9679e-006
19192	20.216	1.4545	0.	1.1531e-002
19193	20.124	1.3636	0.	9.6392e-003
19194	20.124	1.4545	5.e-002	9.2582e-007
19195	20.401	1.4545	0.	1.245e-002
19196	20.309	1.3636	0.	1.0442e-002
19197	20.309	1.4545	5.e-002	3.6093e-006
19198	20.585	1.4545	0.	1.3493e-002
19199	20.493	1.3636	0.	1.1354e-002
19200	20.493	1.4545	5.e-002	5.0971e-006
19201	20.77	1.4545	0.	1.4678e-002
19202	20.678	1.3636	0.	1.2397e-002
19203	20.678	1.4545	5.e-002	2.5914e-006
19204	20.955	1.4545	0.	1.6028e-002
19205	20.862	1.3636	0.	1.3584e-002
19206	20.862	1.4545	5.e-002	3.6634e-006
19207	21.139	1.4545	0.	1.7586e-002
19208	21.047	1.3636	0.	1.4947e-002
19209	21.047	1.4545	5.e-002	3.9348e-006
19210	21.324	1.4545	0.	1.9403e-002
19211	21.231	1.3636	0.	1.6545e-002
19212	21.231	1.4545	5.e-002	4.1285e-006
19213	21.508	1.4545	0.	2.1526e-002
19214	21.416	1.3636	0.	1.8415e-002
19215	21.416	1.4545	5.e-002	6.4833e-006
19216	21.693	1.4545	0.	2.404e-002
19217	21.601	1.3636	0.	2.062e-002
19218	21.601	1.4545	5.e-002	3.2273e-006
19219	21.877	1.4545	0.	2.7056e-002
19220	21.785	1.3636	0.	2.3268e-002
19221	21.785	1.4545	5.e-002	1.6737e-006
19222	22.062	1.4545	0.	3.0715e-002
19223	21.97	1.3636	0.	2.6476e-002
19224	21.97	1.4545	5.e-002	3.6603e-006
19225	22.247	1.4545	0.	3.5215e-002
19226	22.154	1.3636	0.	3.0414e-002
19227	22.154	1.4545	5.e-002	2.3409e-006
19228	22.431	1.4545	0.	4.0866e-002
19229	22.339	1.3636	0.	3.5316e-002
19230	22.339	1.4545	5.e-002	1.0388e-006
19231	22.616	1.4545	0.	4.8063e-002
19232	22.523	1.3636	0.	4.1581e-002
19233	22.523	1.4545	5.e-002	8.7962e-006
19234	22.8	1.4545	0.	5.7766e-002
19235	22.708	1.3636	0.	4.9623e-002
19236	22.708	1.4545	5.e-002	4.2746e-006
19237	22.985	1.4545	0.	7.032e-002
19238	22.893	1.3636	0.	6.0998e-002
19239	22.893	1.4545	5.e-002	3.8164e-006
19240	23.169	1.4545	0.	9.1788e-002
19241	23.077	1.3636	0.	7.4943e-002
19242	23.077	1.4545	5.e-002	5.9996e-006
19243	23.354	1.4545	0.	0.11287
19244	23.262	1.3636	0.	0.10462
19245	23.262	1.4545	5.e-002	7.4111e-006
19246	23.539	1.4545	0.	0.20499
19247	23.446	1.3636	0.	0.11941
19248	23.446	1.4545	5.e-002	7.8999e-006
19249	23.723	1.4545	0.	0.18817
19250	23.631	1.3636	0.	0.297
19251	23.631	1.4545	5.e-002	6.2948e-006
19252	23.815	1.3636	0.	0.1406
19253	23.815	1.4545	5.e-002	7.0415e-006
19254	23.908	1.4545	0.	0.41402
19255	4.3435	1.2727	0.	-5.6539
19256	4.2512	1.1818	0.	-10.882
19257	4.2512	1.2727	5.e-002	7.6111e-005
19258	4.159	1.2727	0.	7.6627
19259	4.5281	1.2727	0.	-2.617
19260	4.4358	1.1818	0.	-0.78757
19261	4.4358	1.2727	5.e-002	2.0155e-004
19262	4.7127	1.2727	0.	-3.7531
19263	4.6204	1.1818	0.	-3.9477
19264	4.6204	1.2727	5.e-002	2.4177e-004
19265	4.8972	1.2727	0.	-3.2174
19266	4.8049	1.1818	0.	-2.9861
19267	4.8049	1.2727	5.e-002	3.0573e-004
19268	5.0818	1.2727	0.	-3.194
19269	4.9895	1.1818	0.	-2.8795
19270	4.9895	1.2727	5.e-002	3.1671e-004
19271	5.2664	1.2727	0.	-3.5003
19272	5.1741	1.1818	0.	-2.8108
19273	5.1741	1.2727	5.e-002	3.1151e-004
19274	5.4509	1.2727	0.	-4.4284
19275	5.3586	1.1818	0.	-2.9895
19276	5.3586	1.2727	5.e-002	3.0195e-004
19277	5.6355	1.2727	0.	-7.26
19278	5.5432	1.1818	0.	-3.5205
19279	5.5432	1.2727	5.e-002	2.7753e-004
19280	5.8201	1.2727	0.	-17.763
19281	5.7278	1.1818	0.	-5.0147
19282	5.7278	1.2727	5.e-002	2.6074e-004
19283	6.0046	1.2727	0.	-36.006
19284	5.9123	1.1818	0.	-10.391
19285	5.9123	1.2727	5.e-002	2.4716e-004
19286	6.1892	1.2727	0.	-51.877
19287	6.0969	1.1818	0.	-23.773
19288	6.0969	1.2727	5.e-002	2.283e-004
19289	6.3738	1.2727	0.	-63.779
19290	6.2815	1.1818	0.	-38.026
19291	6.2815	1.2727	5.e-002	1.4789e-004
19292	6.5583	1.2727	0.	-72.302
19293	6.466	1.1818	0.	-49.493
19294	6.466	1.2727	5.e-002	1.2626e-004
19295	6.7429	1.2727	0.	-78.093
19296	6.6506	1.1818	0.	-58.119
19297	6.6506	1.2727	5.e-002	1.0436e-004
19298	6.9275	1.2727	0.	-81.675
19299	6.8352	1.1818	0.	-64.292
19300	6.8352	1.2727	5.e-002	8.372e-005
19301	7.112	1.2727	0.	-83.461
19302	7.0198	1.1818	0.	-68.399
19303	7.0198	1.2727	5.e-002	9.3252e-005
19304	7.2966	1.2727	0.	-83.787
19305	7.2043	1.1818	0.	-70.781
19306	7.2043	1.2727	5.e-002	2.6868e-005
19307	7.4812	1.2727	0.	-82.936
19308	7.3889	1.1818	0.	-71.734
19309	7.3889	1.2727	5.e-002	2.2056e-005
19310	7.6657	1.2727	0.	-81.147
19311	7.5735	1.1818	0.	-71.519
19312	7.5735	1.2727	5.e-002	2.4265e-005
19313	7.8503	1.2727	0.	-78.624
19314	7.758	1.1818	0.	-70.361
19315	7.758	1.2727	5.e-002	1.9978e-005
19316	8.0349	1.2727	0.	-75.542
19317	7.9426	1.1818	0.	-68.458
19318	7.9426	1.2727	5.e-002	1.6322e-005
19319	8.2194	1.2727	0.	-72.051
19320	8.1272	1.1818	0.	-65.98
19321	8.1272	1.2727	5.e-002	1.3697e-005
19322	8.404	1.2727	0.	-68.275
19323	8.3117	1.1818	0.	-63.072
19324	8.3117	1.2727	5.e-002	1.1194e-005
19325	8.5886	1.2727	0.	-64.32
19326	8.4963	1.1818	0.	-59.859
19327	8.4963	1.2727	5.e-002	9.6633e-006
19328	8.7731	1.2727	0.	-60.271
19329	8.6809	1.1818	0.	-56.442
19330	8.6809	1.2727	5.e-002	8.1219e-006
19331	8.9577	1.2727	0.	-56.198
19332	8.8654	1.1818	0.	-52.908
19333	8.8654	1.2727	5.e-002	7.283e-006
19334	9.1423	1.2727	0.	-52.155
19335	9.05	1.1818	0.	-49.324
19336	9.05	1.2727	5.e-002	6.7971e-006
19337	9.3269	1.2727	0.	-48.188
19338	9.2346	1.1818	0.	-45.747
19339	9.2346	1.2727	5.e-002	6.4493e-006
19340	9.5114	1.2727	0.	-44.328
19341	9.4191	1.1818	0.	-42.219
19342	9.4191	1.2727	5.e-002	6.8078e-006
19343	9.696	1.2727	0.	-40.599
19344	9.6037	1.1818	0.	-38.774
19345	9.6037	1.2727	5.e-002	7.564e-006
19346	9.8806	1.2727	0.	-37.021
19347	9.7883	1.1818	0.	-35.436
19348	9.7883	1.2727	5.e-002	5.8756e-006
19349	10.065	1.2727	0.	-33.602
19350	9.9728	1.1818	0.	-32.224
19351	9.9728	1.2727	5.e-002	4.6721e-006
19352	10.25	1.2727	0.	-30.351
19353	10.157	1.1818	0.	-29.149
19354	10.157	1.2727	5.e-002	3.8921e-006
19355	10.434	1.2727	0.	-27.27
19356	10.342	1.1818	0.	-26.22
19357	10.342	1.2727	5.e-002	4.48e-006
19358	10.619	1.2727	0.	-24.359
19359	10.527	1.1818	0.	-23.439
19360	10.527	1.2727	5.e-002	4.3139e-006
19361	10.803	1.2727	0.	-21.615
19362	10.711	1.1818	0.	-20.807
19363	10.711	1.2727	5.e-002	4.3356e-006
19364	10.988	1.2727	0.	-19.034
19365	10.896	1.1818	0.	-18.324
19366	10.896	1.2727	5.e-002	3.867e-006
19367	11.173	1.2727	0.	-16.611
19368	11.08	1.1818	0.	-15.985
19369	11.08	1.2727	5.e-002	3.6955e-006
19370	11.357	1.2727	0.	-14.338
19371	11.265	1.1818	0.	-13.786
19372	11.265	1.2727	5.e-002	3.1177e-006
19373	11.542	1.2727	0.	-12.208
19374	11.449	1.1818	0.	-11.721
19375	11.449	1.2727	5.e-002	3.8642e-006
19376	11.726	1.2727	0.	-10.215
19377	11.634	1.1818	0.	-9.7852
19378	11.634	1.2727	5.e-002	4.5915e-006
19379	11.911	1.2727	0.	-8.3492
19380	11.819	1.1818	0.	-7.9705
19381	11.819	1.2727	5.e-002	4.2612e-006
19382	12.095	1.2727	0.	-6.604
19383	12.003	1.1818	0.	-6.2707
19384	12.003	1.2727	5.e-002	3.1703e-006
19385	12.28	1.2727	0.	-4.9716
19386	12.188	1.1818	0.	-4.6789
19387	12.188	1.2727	5.e-002	3.5739e-006
19388	12.465	1.2727	0.	-3.4445
19389	12.372	1.1818	0.	-3.1886
19390	12.372	1.2727	5.e-002	3.4647e-006
19391	12.649	1.2727	0.	-2.017
19392	12.557	1.1818	0.	-1.7952
19393	12.557	1.2727	5.e-002	3.8717e-006
19394	12.834	1.2727	0.	-0.69481
19395	12.741	1.1818	0.	-0.51285
19396	12.741	1.2727	5.e-002	4.179e-006
19397	13.018	1.2727	0.	-3.0965e-002
19398	12.926	1.1818	0.	-2.4507e-002
19399	12.926	1.2727	5.e-002	4.1385e-006
19400	13.203	1.2727	0.	-9.0506e-003
19401	13.11	1.1818	0.	-8.6018e-003
19402	13.11	1.2727	5.e-002	4.295e-006
19403	13.387	1.2727	0.	-4.5517e-003
19404	13.295	1.1818	0.	-4.7128e-003
19405	13.295	1.2727	5.e-002	4.7927e-006
19406	13.572	1.2727	0.	-2.6192e-003
19407	13.48	1.1818	0.	-2.9805e-003
19408	13.48	1.2727	5.e-002	5.1135e-006
19409	13.756	1.2727	0.	-1.5432e-003
19410	13.664	1.1818	0.	-1.9822e-003
19411	13.664	1.2727	5.e-002	4.8926e-006
19412	13.941	1.2727	0.	-8.6918e-004
19413	13.849	1.1818	0.	-1.362e-003
19414	13.849	1.2727	5.e-002	4.0945e-006
19415	14.126	1.2727	0.	-3.9204e-004
19416	14.033	1.1818	0.	-9.4059e-004
19417	14.033	1.2727	5.e-002	4.7601e-006
19418	14.31	1.2727	0.	-2.7206e-005
19419	14.218	1.1818	0.	-6.0798e-004
19420	14.218	1.2727	5.e-002	3.9355e-006
19421	14.495	1.2727	0.	2.4607e-004
19422	14.402	1.1818	0.	-3.5499e-004
19423	14.402	1.2727	5.e-002	4.0835e-006
19424	14.679	1.2727	0.	4.6999e-004
19425	14.587	1.1818	0.	-1.7308e-004
19426	14.587	1.2727	5.e-002	2.9672e-006
19427	14.864	1.2727	0.	6.747e-004
19428	14.772	1.1818	0.	1.1499e-006
19429	14.772	1.2727	5.e-002	1.9813e-006
19430	15.048	1.2727	0.	8.5481e-004
19431	14.956	1.1818	0.	1.5801e-004
19432	14.956	1.2727	5.e-002	6.5047e-007
19433	15.233	1.2727	0.	1.0119e-003
19434	15.141	1.1818	0.	2.9109e-004
19435	15.141	1.2727	5.e-002	-5.5636e-008
19436	15.418	1.2727	0.	1.1562e-003
19437	15.325	1.1818	0.	4.0686e-004
19438	15.325	1.2727	5.e-002	1.4275e-006
19439	15.602	1.2727	0.	1.3063e-003
19440	15.51	1.1818	0.	5.1878e-004
19441	15.51	1.2727	5.e-002	4.3644e-008
19442	15.787	1.2727	0.	1.453e-003
19443	15.694	1.1818	0.	6.4863e-004
19444	15.694	1.2727	5.e-002	6.1021e-007
19445	15.971	1.2727	0.	1.5835e-003
19446	15.879	1.1818	0.	7.5594e-004
19447	15.879	1.2727	5.e-002	6.7945e-007
19448	16.156	1.2727	0.	1.7205e-003
19449	16.064	1.1818	0.	8.5483e-004
19450	16.064	1.2727	5.e-002	2.2149e-006
19451	16.34	1.2727	0.	1.8654e-003
19452	16.248	1.1818	0.	9.7456e-004
19453	16.248	1.2727	5.e-002	3.4916e-006
19454	16.525	1.2727	0.	2.0008e-003
19455	16.433	1.1818	0.	1.0892e-003
19456	16.433	1.2727	5.e-002	4.022e-006
19457	16.71	1.2727	0.	2.1429e-003
19458	16.617	1.1818	0.	1.1887e-003
19459	16.617	1.2727	5.e-002	4.6399e-006
19460	16.894	1.2727	0.	2.3014e-003
19461	16.802	1.1818	0.	1.3139e-003
19462	16.802	1.2727	5.e-002	5.7754e-006
19463	17.079	1.2727	0.	2.4676e-003
19464	16.986	1.1818	0.	1.4464e-003
19465	16.986	1.2727	5.e-002	5.7076e-006
19466	17.263	1.2727	0.	2.642e-003
19467	17.171	1.1818	0.	1.5859e-003
19468	17.171	1.2727	5.e-002	5.0371e-006
19469	17.448	1.2727	0.	2.8169e-003
19470	17.356	1.1818	0.	1.731e-003
19471	17.356	1.2727	5.e-002	2.4672e-006
19472	17.632	1.2727	0.	3.0036e-003
19473	17.54	1.1818	0.	1.8694e-003
19474	17.54	1.2727	5.e-002	2.9387e-006
19475	17.817	1.2727	0.	3.2139e-003
19476	17.725	1.1818	0.	2.0355e-003
19477	17.725	1.2727	5.e-002	5.4993e-006
19478	18.002	1.2727	0.	3.4386e-003
19479	17.909	1.1818	0.	2.2169e-003
19480	17.909	1.2727	5.e-002	4.9211e-006
19481	18.186	1.2727	0.	3.6741e-003
19482	18.094	1.1818	0.	2.4077e-003
19483	18.094	1.2727	5.e-002	8.3842e-006
19484	18.371	1.2727	0.	3.9292e-003
19485	18.278	1.1818	0.	2.6076e-003
19486	18.278	1.2727	5.e-002	6.1923e-006
19487	18.555	1.2727	0.	4.2141e-003
19488	18.463	1.1818	0.	2.8316e-003
19489	18.463	1.2727	5.e-002	5.8468e-006
19490	18.74	1.2727	0.	4.5219e-003
19491	18.648	1.1818	0.	3.0874e-003
19492	18.648	1.2727	5.e-002	5.593e-006
19493	18.924	1.2727	0.	4.8514e-003
19494	18.832	1.1818	0.	3.3529e-003
19495	18.832	1.2727	5.e-002	4.14e-006
19496	19.109	1.2727	0.	5.2156e-003
19497	19.017	1.1818	0.	3.6435e-003
19498	19.017	1.2727	5.e-002	3.4398e-006
19499	19.294	1.2727	0.	5.6191e-003
19500	19.201	1.1818	0.	3.9734e-003
19501	19.201	1.2727	5.e-002	4.705e-006
19502	19.478	1.2727	0.	6.0582e-003
19503	19.386	1.1818	0.	4.3353e-003
19504	19.386	1.2727	5.e-002	2.5673e-006
19505	19.663	1.2727	0.	6.5467e-003
19506	19.57	1.1818	0.	4.7278e-003
19507	19.57	1.2727	5.e-002	2.9854e-006
19508	19.847	1.2727	0.	7.0981e-003
19509	19.755	1.1818	0.	5.1802e-003
19510	19.755	1.2727	5.e-002	2.3667e-006
19511	20.032	1.2727	0.	7.7141e-003
19512	19.94	1.1818	0.	5.6883e-003
19513	19.94	1.2727	5.e-002	1.749e-006
19514	20.216	1.2727	0.	8.4044e-003
19515	20.124	1.1818	0.	6.2593e-003
19516	20.124	1.2727	5.e-002	1.0441e-006
19517	20.401	1.2727	0.	9.1862e-003
19518	20.309	1.1818	0.	6.9057e-003
19519	20.309	1.2727	5.e-002	3.8791e-006
19520	20.585	1.2727	0.	1.0083e-002
19521	20.493	1.1818	0.	7.6484e-003
19522	20.493	1.2727	5.e-002	5.4837e-006
19523	20.77	1.2727	0.	1.111e-002
19524	20.678	1.1818	0.	8.5106e-003
19525	20.678	1.2727	5.e-002	2.1208e-006
19526	20.955	1.2727	0.	1.2292e-002
19527	20.862	1.1818	0.	9.5021e-003
19528	20.862	1.2727	5.e-002	3.4363e-006
19529	21.139	1.2727	0.	1.3671e-002
19530	21.047	1.1818	0.	1.0658e-002
19531	21.047	1.2727	5.e-002	4.0301e-006
19532	21.324	1.2727	0.	1.5295e-002
19533	21.231	1.1818	0.	1.2029e-002
19534	21.231	1.2727	5.e-002	4.2515e-006
19535	21.508	1.2727	0.	1.7214e-002
19536	21.416	1.1818	0.	1.3655e-002
19537	21.416	1.2727	5.e-002	6.4521e-006
19538	21.693	1.2727	0.	1.9513e-002
19539	21.601	1.1818	0.	1.5602e-002
19540	21.601	1.2727	5.e-002	2.0422e-006
19541	21.877	1.2727	0.	2.2302e-002
19542	21.785	1.1818	0.	1.7971e-002
19543	21.785	1.2727	5.e-002	1.3e-006
19544	22.062	1.2727	0.	2.5723e-002
19545	21.97	1.1818	0.	2.0882e-002
19546	21.97	1.2727	5.e-002	3.3069e-006
19547	22.247	1.2727	0.	2.9973e-002
19548	22.154	1.1818	0.	2.4504e-002
19549	22.154	1.2727	5.e-002	1.7276e-006
19550	22.431	1.2727	0.	3.5363e-002
19551	22.339	1.1818	0.	2.9072e-002
19552	22.339	1.2727	5.e-002	1.7813e-006
19553	22.616	1.2727	0.	4.228e-002
19554	22.523	1.1818	0.	3.4985e-002
19555	22.523	1.2727	5.e-002	6.9445e-006
19556	22.8	1.2727	0.	5.1676e-002
19557	22.708	1.1818	0.	4.2647e-002
19558	22.708	1.2727	5.e-002	8.0143e-007
19559	22.985	1.2727	0.	6.3863e-002
19560	22.893	1.1818	0.	5.3594e-002
19561	22.893	1.2727	5.e-002	3.7724e-006
19562	23.169	1.2727	0.	8.4816e-002
19563	23.077	1.1818	0.	6.7028e-002
19564	23.077	1.2727	5.e-002	3.2184e-006
19565	23.354	1.2727	0.	0.10519
19566	23.262	1.1818	0.	9.5942e-002
19567	23.262	1.2727	5.e-002	7.9915e-006
19568	23.539	1.2727	0.	0.19553
19569	23.446	1.1818	0.	0.10974
19570	23.446	1.2727	5.e-002	6.6354e-006
19571	23.723	1.2727	0.	0.17422
19572	23.631	1.1818	0.	0.2839
19573	23.631	1.2727	5.e-002	8.8186e-006
19574	23.815	1.1818	0.	0.11804
19575	23.815	1.2727	5.e-002	9.3624e-006
19576	23.908	1.2727	0.	0.40851
19577	4.3435	1.0909	0.	-6.443
19578	4.2512	1.	0.	-10.573
19579	4.2512	1.0909	5.e-002	2.3213e-005
19580	4.159	1.0909	0.	0.85659
19581	4.5281	1.0909	0.	-2.1453
19582	4.4358	1.	0.	-0.78322
19583	4.4358	1.0909	5.e-002	1.0416e-004
19584	4.7127	1.0909	0.	-3.1661
19585	4.6204	1.	0.	-3.4028
19586	4.6204	1.0909	5.e-002	1.4613e-004
19587	4.8972	1.0909	0.	-2.6201
19588	4.8049	1.	0.	-2.5152
19589	4.8049	1.0909	5.e-002	1.8564e-004
19590	5.0818	1.0909	0.	-2.4863
19591	4.9895	1.	0.	-2.3762
19592	4.9895	1.0909	5.e-002	2.154e-004
19593	5.2664	1.0909	0.	-2.3592
19594	5.1741	1.	0.	-2.0989
19595	5.1741	1.0909	5.e-002	2.2958e-004
19596	5.4509	1.0909	0.	-2.3712
19597	5.3586	1.	0.	-1.9386
19598	5.3586	1.0909	5.e-002	2.1196e-004
19599	5.6355	1.0909	0.	-2.5571
19600	5.5432	1.	0.	-1.8521
19601	5.5432	1.0909	5.e-002	1.7528e-004
19602	5.8201	1.0909	0.	-3.1282
19603	5.7278	1.	0.	-1.8803
19604	5.7278	1.0909	5.e-002	2.5765e-004
19605	6.0046	1.0909	0.	-4.9865
19606	5.9123	1.	0.	-2.1139
19607	5.9123	1.0909	5.e-002	2.6147e-004
19608	6.1892	1.0909	0.	-11.975
19609	6.0969	1.	0.	-2.9144
19610	6.0969	1.0909	5.e-002	2.5476e-004
19611	6.3738	1.0909	0.	-24.209
19612	6.2815	1.	0.	-6.2489
19613	6.2815	1.0909	5.e-002	1.192e-004
19614	6.5583	1.0909	0.	-35.46
19615	6.466	1.	0.	-15.755
19616	6.466	1.0909	5.e-002	1.5708e-004
19617	6.7429	1.0909	0.	-44.368
19618	6.6506	1.	0.	-26.278
19619	6.6506	1.0909	5.e-002	1.2678e-004
19620	6.9275	1.0909	0.	-51.026
19621	6.8352	1.	0.	-34.931
19622	6.8352	1.0909	5.e-002	5.5939e-005
19623	7.112	1.0909	0.	-55.712
19624	7.0198	1.	0.	-41.535
19625	7.0198	1.0909	5.e-002	3.9877e-005
19626	7.2966	1.0909	0.	-58.715
19627	7.2043	1.	0.	-46.29
19628	7.2043	1.0909	5.e-002	2.9223e-005
19629	7.4812	1.0909	0.	-60.302
19630	7.3889	1.	0.	-49.445
19631	7.3889	1.0909	5.e-002	2.074e-005
19632	7.6657	1.0909	0.	-60.718
19633	7.5735	1.	0.	-51.249
19634	7.5735	1.0909	5.e-002	2.9038e-005
19635	7.8503	1.0909	0.	-60.181
19636	7.758	1.	0.	-51.931
19637	7.758	1.0909	5.e-002	1.6711e-005
19638	8.0349	1.0909	0.	-58.882
19639	7.9426	1.	0.	-51.697
19640	7.9426	1.0909	5.e-002	1.8891e-005
19641	8.2194	1.0909	0.	-56.988
19642	8.1272	1.	0.	-50.73
19643	8.1272	1.0909	5.e-002	1.2573e-005
19644	8.404	1.0909	0.	-54.643
19645	8.3117	1.	0.	-49.188
19646	8.3117	1.0909	5.e-002	1.0534e-005
19647	8.5886	1.0909	0.	-51.969
19648	8.4963	1.	0.	-47.21
19649	8.4963	1.0909	5.e-002	8.4621e-006
19650	8.7731	1.0909	0.	-49.067
19651	8.6809	1.	0.	-44.909
19652	8.6809	1.0909	5.e-002	8.5025e-006
19653	8.9577	1.0909	0.	-46.023
19654	8.8654	1.	0.	-42.384
19655	8.8654	1.0909	5.e-002	7.2302e-006
19656	9.1423	1.0909	0.	-42.904
19657	9.05	1.	0.	-39.713
19658	9.05	1.0909	5.e-002	7.2373e-006
19659	9.3269	1.0909	0.	-39.766
19660	9.2346	1.	0.	-36.963
19661	9.2346	1.0909	5.e-002	7.1109e-006
19662	9.5114	1.0909	0.	-36.652
19663	9.4191	1.	0.	-34.184
19664	9.4191	1.0909	5.e-002	7.5487e-006
19665	9.696	1.0909	0.	-33.597
19666	9.6037	1.	0.	-31.419
19667	9.6037	1.0909	5.e-002	5.4918e-006
19668	9.8806	1.0909	0.	-30.626
19669	9.7883	1.	0.	-28.699
19670	9.7883	1.0909	5.e-002	6.2909e-006
19671	10.065	1.0909	0.	-27.757
19672	9.9728	1.	0.	-26.049
19673	9.9728	1.0909	5.e-002	4.5293e-006
19674	10.25	1.0909	0.	-25.003
19675	10.157	1.	0.	-23.486
19676	10.157	1.0909	5.e-002	4.7411e-006
19677	10.434	1.0909	0.	-22.373
19678	10.342	1.	0.	-21.023
19679	10.342	1.0909	5.e-002	4.0348e-006
19680	10.619	1.0909	0.	-19.871
19681	10.527	1.	0.	-18.667
19682	10.527	1.0909	5.e-002	3.688e-006
19683	10.803	1.0909	0.	-17.499
19684	10.711	1.	0.	-16.423
19685	10.711	1.0909	5.e-002	4.3353e-006
19686	10.988	1.0909	0.	-15.257
19687	10.896	1.	0.	-14.295
19688	10.896	1.0909	5.e-002	3.732e-006
19689	11.173	1.0909	0.	-13.143
19690	11.08	1.	0.	-12.28
19691	11.08	1.0909	5.e-002	2.7638e-006
19692	11.357	1.0909	0.	-11.151
19693	11.265	1.	0.	-10.378
19694	11.265	1.0909	5.e-002	2.9509e-006
19695	11.542	1.0909	0.	-9.2796
19696	11.449	1.	0.	-8.5856
19697	11.449	1.0909	5.e-002	3.8027e-006
19698	11.726	1.0909	0.	-7.5217
19699	11.634	1.	0.	-6.8988
19700	11.634	1.0909	5.e-002	4.6112e-006
19701	11.911	1.0909	0.	-5.8721
19702	11.819	1.	0.	-5.3131
19703	11.819	1.0909	5.e-002	4.1632e-006
19704	12.095	1.0909	0.	-4.3251
19705	12.003	1.	0.	-3.8239
19706	12.003	1.0909	5.e-002	3.0449e-006
19707	12.28	1.0909	0.	-2.8752
19708	12.188	1.	0.	-2.4266
19709	12.188	1.0909	5.e-002	3.218e-006
19710	12.465	1.0909	0.	-1.5191
19711	12.372	1.	0.	-1.1207
19712	12.372	1.0909	5.e-002	2.9289e-006
19713	12.649	1.0909	0.	-0.29553
19714	12.557	1.	0.	-8.6267e-002
19715	12.557	1.0909	5.e-002	4.0111e-006
19716	12.834	1.0909	0.	-1.8542e-002
19717	12.741	1.	0.	-1.304e-002
19718	12.741	1.0909	5.e-002	4.2928e-006
19719	13.018	1.0909	0.	-7.7282e-003
19720	12.926	1.	0.	-6.4962e-003
19721	12.926	1.0909	5.e-002	4.5532e-006
19722	13.203	1.0909	0.	-4.5868e-003
19723	13.11	1.	0.	-4.2129e-003
19724	13.11	1.0909	5.e-002	4.6137e-006
19725	13.387	1.0909	0.	-3.1267e-003
19726	13.295	1.	0.	-3.0958e-003
19727	13.295	1.0909	5.e-002	5.1592e-006
19728	13.572	1.0909	0.	-2.2807e-003
19729	13.48	1.	0.	-2.4459e-003
19730	13.48	1.0909	5.e-002	5.1657e-006
19731	13.756	1.0909	0.	-1.7362e-003
19732	13.664	1.	0.	-2.007e-003
19733	13.664	1.0909	5.e-002	4.906e-006
19734	13.941	1.0909	0.	-1.3761e-003
19735	13.849	1.	0.	-1.727e-003
19736	13.849	1.0909	5.e-002	3.6178e-006
19737	14.126	1.0909	0.	-1.1082e-003
19738	14.033	1.	0.	-1.5377e-003
19739	14.033	1.0909	5.e-002	3.9089e-006
19740	14.31	1.0909	0.	-8.9593e-004
19741	14.218	1.	0.	-1.3762e-003
19742	14.218	1.0909	5.e-002	4.0617e-006
19743	14.495	1.0909	0.	-7.4202e-004
19744	14.402	1.	0.	-1.2588e-003
19745	14.402	1.0909	5.e-002	4.0451e-006
19746	14.679	1.0909	0.	-6.1665e-004
19747	14.587	1.	0.	-1.1887e-003
19748	14.587	1.0909	5.e-002	2.896e-006
19749	14.864	1.0909	0.	-4.964e-004
19750	14.772	1.	0.	-1.1116e-003
19751	14.772	1.0909	5.e-002	1.6687e-006
19752	15.048	1.0909	0.	-3.9209e-004
19753	14.956	1.	0.	-1.0396e-003
19754	14.956	1.0909	5.e-002	6.2591e-007
19755	15.233	1.0909	0.	-3.053e-004
19756	15.141	1.	0.	-9.8453e-004
19757	15.141	1.0909	5.e-002	-5.4428e-007
19758	15.418	1.0909	0.	-2.2659e-004
19759	15.325	1.	0.	-9.4104e-004
19760	15.325	1.0909	5.e-002	1.2501e-006
19761	15.602	1.0909	0.	-1.3923e-004
19762	15.51	1.	0.	-8.9921e-004
19763	15.51	1.0909	5.e-002	-1.3595e-007
19764	15.787	1.0909	0.	-5.2879e-005
19765	15.694	1.	0.	-8.3581e-004
19766	15.694	1.0909	5.e-002	1.9949e-007
19767	15.971	1.0909	0.	1.8864e-005
19768	15.879	1.	0.	-7.9401e-004
19769	15.879	1.0909	5.e-002	3.3744e-007
19770	16.156	1.0909	0.	9.6682e-005
19771	16.064	1.	0.	-7.5959e-004
19772	16.064	1.0909	5.e-002	2.3581e-006
19773	16.34	1.0909	0.	1.8238e-004
19774	16.248	1.	0.	-7.0458e-004
19775	16.248	1.0909	5.e-002	3.4821e-006
19776	16.525	1.0909	0.	2.5732e-004
19777	16.433	1.	0.	-6.5436e-004
19778	16.433	1.0909	5.e-002	4.192e-006
19779	16.71	1.0909	0.	3.3607e-004
19780	16.617	1.	0.	-6.2174e-004
19781	16.617	1.0909	5.e-002	4.2361e-006
19782	16.894	1.0909	0.	4.3146e-004
19783	16.802	1.	0.	-5.6504e-004
19784	16.802	1.0909	5.e-002	5.0882e-006
19785	17.079	1.0909	0.	5.3331e-004
19786	16.986	1.	0.	-5.0178e-004
19787	16.986	1.0909	5.e-002	5.8879e-006
19788	17.263	1.0909	0.	6.3942e-004
19789	17.171	1.	0.	-4.353e-004
19790	17.171	1.0909	5.e-002	5.4181e-006
19791	17.448	1.0909	0.	7.4376e-004
19792	17.356	1.	0.	-3.6534e-004
19793	17.356	1.0909	5.e-002	2.337e-006
19794	17.632	1.0909	0.	8.5699e-004
19795	17.54	1.	0.	-3.063e-004
19796	17.54	1.0909	5.e-002	3.0583e-006
19797	17.817	1.0909	0.	9.8929e-004
19798	17.725	1.	0.	-2.2188e-004
19799	17.725	1.0909	5.e-002	5.8657e-006
19800	18.002	1.0909	0.	1.1318e-003
19801	17.909	1.	0.	-1.2964e-004
19802	17.909	1.0909	5.e-002	4.7385e-006
19803	18.186	1.0909	0.	1.2815e-003
19804	18.094	1.	0.	-2.9909e-005
19805	18.094	1.0909	5.e-002	8.257e-006
19806	18.371	1.0909	0.	1.4444e-003
19807	18.278	1.	0.	7.3053e-005
19808	18.278	1.0909	5.e-002	7.271e-006
19809	18.555	1.0909	0.	1.6328e-003
19810	18.463	1.	0.	1.9257e-004
19811	18.463	1.0909	5.e-002	5.996e-006
19812	18.74	1.0909	0.	1.8394e-003
19813	18.648	1.	0.	3.3827e-004
19814	18.648	1.0909	5.e-002	6.4769e-006
19815	18.924	1.0909	0.	2.0585e-003
19816	18.832	1.	0.	4.8636e-004
19817	18.832	1.0909	5.e-002	4.399e-006
19818	19.109	1.0909	0.	2.3065e-003
19819	19.017	1.	0.	6.516e-004
19820	19.017	1.0909	5.e-002	3.6674e-006
19821	19.294	1.0909	0.	2.5857e-003
19822	19.201	1.	0.	8.4773e-004
19823	19.201	1.0909	5.e-002	4.6875e-006
19824	19.478	1.0909	0.	2.891e-003
19825	19.386	1.	0.	1.0651e-003
19826	19.386	1.0909	5.e-002	2.3693e-006
19827	19.663	1.0909	0.	3.2365e-003
19828	19.57	1.	0.	1.3033e-003
19829	19.57	1.0909	5.e-002	2.2025e-006
19830	19.847	1.0909	0.	3.6335e-003
19831	19.755	1.	0.	1.5888e-003
19832	19.755	1.0909	5.e-002	1.5441e-006
19833	20.032	1.0909	0.	4.083e-003
19834	19.94	1.	0.	1.9186e-003
19835	19.94	1.0909	5.e-002	2.3e-006
19836	20.216	1.0909	0.	4.595e-003
19837	20.124	1.	0.	2.2958e-003
19838	20.124	1.0909	5.e-002	1.0104e-006
19839	20.401	1.0909	0.	5.1853e-003
19840	20.309	1.	0.	2.7308e-003
19841	20.309	1.0909	5.e-002	4.0978e-006
19842	20.585	1.0909	0.	5.8747e-003
19843	20.493	1.	0.	3.2463e-003
19844	20.493	1.0909	5.e-002	6.1115e-006
19845	20.77	1.0909	0.	6.6789e-003
19846	20.678	1.	0.	3.862e-003
19847	20.678	1.0909	5.e-002	2.037e-006
19848	20.955	1.0909	0.	7.6198e-003
19849	20.862	1.	0.	4.5866e-003
19850	20.862	1.0909	5.e-002	2.5908e-006
19851	21.139	1.0909	0.	8.7381e-003
19852	21.047	1.	0.	5.4516e-003
19853	21.047	1.0909	5.e-002	4.6165e-006
19854	21.324	1.0909	0.	1.0077e-002
19855	21.231	1.	0.	6.5036e-003
19856	21.231	1.0909	5.e-002	4.3024e-006
19857	21.508	1.0909	0.	1.1691e-002
19858	21.416	1.	0.	7.7831e-003
19859	21.416	1.0909	5.e-002	6.0056e-006
19860	21.693	1.0909	0.	1.3659e-002
19861	21.601	1.	0.	9.3516e-003
19862	21.601	1.0909	5.e-002	2.6347e-006
19863	21.877	1.0909	0.	1.6089e-002
19864	21.785	1.	0.	1.1306e-002
19865	21.785	1.0909	5.e-002	1.1412e-006
19866	22.062	1.0909	0.	1.9125e-002
19867	21.97	1.	0.	1.3766e-002
19868	21.97	1.0909	5.e-002	1.9625e-006
19869	22.247	1.0909	0.	2.2963e-002
19870	22.154	1.	0.	1.6899e-002
19871	22.154	1.0909	5.e-002	1.4898e-006
19872	22.431	1.0909	0.	2.7915e-002
19873	22.339	1.	0.	2.0936e-002
19874	22.339	1.0909	5.e-002	1.3543e-006
19875	22.616	1.0909	0.	3.4366e-002
19876	22.523	1.	0.	2.6275e-002
19877	22.523	1.0909	5.e-002	4.8048e-006
19878	22.8	1.0909	0.	4.3251e-002
19879	22.708	1.	0.	3.3318e-002
19880	22.708	1.0909	5.e-002	1.7651e-006
19881	22.985	1.0909	0.	5.4863e-002
19882	22.893	1.	0.	4.358e-002
19883	22.893	1.0909	5.e-002	1.1414e-006
19884	23.169	1.0909	0.	7.5074e-002
19885	23.077	1.	0.	5.6247e-002
19886	23.077	1.0909	5.e-002	4.5151e-007
19887	23.354	1.0909	0.	9.4473e-002
19888	23.262	1.	0.	8.4075e-002
19889	23.262	1.0909	5.e-002	8.5505e-006
19890	23.539	1.0909	0.	0.18247
19891	23.446	1.	0.	9.659e-002
19892	23.446	1.0909	5.e-002	6.4378e-006
19893	23.723	1.0909	0.	0.15551
19894	23.631	1.	0.	0.26633
19895	23.631	1.0909	5.e-002	6.4852e-006
19896	23.815	1.	0.	8.906e-002
19897	23.815	1.0909	5.e-002	1.1256e-005
19898	23.908	1.0909	0.	0.40037
19899	4.3435	0.90909	0.	-5.4936
19900	4.2512	0.81818	0.	-9.3147
19901	4.2512	0.90909	5.e-002	4.7911e-006
19902	4.159	0.90909	0.	2.775
19903	4.5281	0.90909	0.	-2.1258
19904	4.4358	0.81818	0.	-1.2528
19905	4.4358	0.90909	5.e-002	7.9905e-005
19906	4.7127	0.90909	0.	-2.778
19907	4.6204	0.81818	0.	-3.1437
19908	4.6204	0.90909	5.e-002	1.0285e-004
19909	4.8972	0.90909	0.	-2.2738
19910	4.8049	0.81818	0.	-2.2851
19911	4.8049	0.90909	5.e-002	1.1094e-004
19912	5.0818	0.90909	0.	-1.9924
19913	4.9895	0.81818	0.	-1.9796
19914	4.9895	0.90909	5.e-002	1.3304e-004
19915	5.2664	0.90909	0.	-1.7084
19916	5.1741	0.81818	0.	-1.6005
19917	5.1741	0.90909	5.e-002	1.3218e-004
19918	5.4509	0.90909	0.	-1.5047
19919	5.3586	0.81818	0.	-1.3315
19920	5.3586	0.90909	5.e-002	1.5054e-004
19921	5.6355	0.90909	0.	-1.366
19922	5.5432	0.81818	0.	-1.1261
19923	5.5432	0.90909	5.e-002	1.5379e-004
19924	5.8201	0.90909	0.	-1.3056
19925	5.7278	0.81818	0.	-0.9879
19926	5.7278	0.90909	5.e-002	1.7236e-004
19927	6.0046	0.90909	0.	-1.3529
19928	5.9123	0.81818	0.	-0.91155
19929	5.9123	0.90909	5.e-002	1.823e-004
19930	6.1892	0.90909	0.	-1.6195
19931	6.0969	0.81818	0.	-0.90834
19932	6.0969	0.90909	5.e-002	1.9372e-004
19933	6.3738	0.90909	0.	-2.6544
19934	6.2815	0.81818	0.	-1.0283
19935	6.2815	0.90909	5.e-002	2.5181e-004
19936	6.5583	0.90909	0.	-7.635
19937	6.466	0.81818	0.	-1.5085
19938	6.466	0.90909	5.e-002	1.8347e-004
19939	6.7429	0.90909	0.	-17.003
19940	6.6506	0.81818	0.	-4.1331
19941	6.6506	0.90909	5.e-002	2.0975e-004
19942	6.9275	0.90909	0.	-25.472
19943	6.8352	0.81818	0.	-11.938
19944	6.8352	0.90909	5.e-002	1.589e-004
19945	7.112	0.90909	0.	-32.111
19946	7.0198	0.81818	0.	-19.75
19947	7.0198	0.90909	5.e-002	1.1159e-004
19948	7.2966	0.90909	0.	-37.007
19949	7.2043	0.81818	0.	-25.933
19950	7.2043	0.90909	5.e-002	5.1285e-005
19951	7.4812	0.90909	0.	-40.376
19952	7.3889	0.81818	0.	-30.511
19953	7.3889	0.90909	5.e-002	4.5477e-005
19954	7.6657	0.90909	0.	-42.445
19955	7.5735	0.81818	0.	-33.679
19956	7.5735	0.90909	5.e-002	1.9517e-005
19957	7.8503	0.90909	0.	-43.431
19958	7.758	0.81818	0.	-35.649
19959	7.758	0.90909	5.e-002	1.6468e-005
19960	8.0349	0.90909	0.	-43.529
19961	7.9426	0.81818	0.	-36.624
19962	7.9426	0.90909	5.e-002	1.4018e-005
19963	8.2194	0.90909	0.	-42.915
19964	8.1272	0.81818	0.	-36.787
19965	8.1272	0.90909	5.e-002	1.3616e-005
19966	8.404	0.90909	0.	-41.741
19967	8.3117	0.81818	0.	-36.297
19968	8.3117	0.90909	5.e-002	1.0075e-005
19969	8.5886	0.90909	0.	-40.136
19970	8.4963	0.81818	0.	-35.297
19971	8.4963	0.90909	5.e-002	1.0184e-005
19972	8.7731	0.90909	0.	-38.212
19973	8.6809	0.81818	0.	-33.904
19974	8.6809	0.90909	5.e-002	1.0232e-005
19975	8.9577	0.90909	0.	-36.061
19976	8.8654	0.81818	0.	-32.221
19977	8.8654	0.90909	5.e-002	6.2902e-006
19978	9.1423	0.90909	0.	-33.759
19979	9.05	0.81818	0.	-30.33
19980	9.05	0.90909	5.e-002	6.9633e-006
19981	9.3269	0.90909	0.	-31.368
19982	9.2346	0.81818	0.	-28.302
19983	9.2346	0.90909	5.e-002	6.3457e-006
19984	9.5114	0.90909	0.	-28.937
19985	9.4191	0.81818	0.	-26.192
19986	9.4191	0.90909	5.e-002	5.3228e-006
19987	9.696	0.90909	0.	-26.507
19988	9.6037	0.81818	0.	-24.044
19989	9.6037	0.90909	5.e-002	7.0301e-006
19990	9.8806	0.90909	0.	-24.108
19991	9.7883	0.81818	0.	-21.895
19992	9.7883	0.90909	5.e-002	5.66e-006
19993	10.065	0.90909	0.	-21.763
19994	9.9728	0.81818	0.	-19.772
19995	9.9728	0.90909	5.e-002	4.3313e-006
19996	10.25	0.90909	0.	-19.49
19997	10.157	0.81818	0.	-17.696
19998	10.157	0.90909	5.e-002	3.4451e-006
19999	10.434	0.90909	0.	-17.301
20000	10.342	0.81818	0.	-15.681
20001	10.342	0.90909	5.e-002	4.0593e-006
20002	10.619	0.90909	0.	-15.203
20003	10.527	0.81818	0.	-13.74
20004	10.527	0.90909	5.e-002	3.4985e-006
20005	10.803	0.90909	0.	-13.202
20006	10.711	0.81818	0.	-11.878
20007	10.711	0.90909	5.e-002	4.3855e-006
20008	10.988	0.90909	0.	-11.3
20009	10.896	0.81818	0.	-10.102
20010	10.896	0.90909	5.e-002	3.3378e-006
20011	11.173	0.90909	0.	-9.4975
20012	11.08	0.81818	0.	-8.4125
20013	11.08	0.90909	5.e-002	2.6284e-006
20014	11.357	0.90909	0.	-7.7935
20015	11.265	0.81818	0.	-6.8101
20016	11.265	0.90909	5.e-002	3.3311e-006
20017	11.542	0.90909	0.	-6.1855
20018	11.449	0.81818	0.	-5.294
20019	11.449	0.90909	5.e-002	4.0472e-006
20020	11.726	0.90909	0.	-4.6705
20021	11.634	0.81818	0.	-3.8622
20022	11.634	0.90909	5.e-002	4.4575e-006
20023	11.911	0.90909	0.	-3.2447
20024	11.819	0.81818	0.	-2.5123
20025	11.819	0.90909	5.e-002	4.1392e-006
20026	12.095	0.90909	0.	-1.9053
20027	12.003	0.81818	0.	-1.2437
20028	12.003	0.90909	5.e-002	2.5536e-006
20029	12.28	0.90909	0.	-0.65883
20030	12.188	0.81818	0.	-0.13575
20031	12.188	0.90909	5.e-002	3.4688e-006
20032	12.465	0.90909	0.	-2.7828e-002
20033	12.372	0.81818	0.	-1.1571e-002
20034	12.372	0.90909	5.e-002	3.4241e-006
20035	12.649	0.90909	0.	-8.8743e-003
20036	12.557	0.81818	0.	-5.5867e-003
20037	12.557	0.90909	5.e-002	3.4009e-006
20038	12.834	0.90909	0.	-5.1464e-003
20039	12.741	0.81818	0.	-3.7513e-003
20040	12.741	0.90909	5.e-002	4.6423e-006
20041	13.018	0.90909	0.	-3.6431e-003
20042	12.926	0.81818	0.	-2.9365e-003
20043	12.926	0.90909	5.e-002	4.8438e-006
20044	13.203	0.90909	0.	-2.8782e-003
20045	13.11	0.81818	0.	-2.5298e-003
20046	13.11	0.90909	5.e-002	5.079e-006
20047	13.387	0.90909	0.	-2.4378e-003
20048	13.295	0.81818	0.	-2.3222e-003
20049	13.295	0.90909	5.e-002	5.69e-006
20050	13.572	0.90909	0.	-2.1513e-003
20051	13.48	0.81818	0.	-2.212e-003
20052	13.48	0.90909	5.e-002	5.5749e-006
20053	13.756	0.90909	0.	-1.9623e-003
20054	13.664	0.81818	0.	-2.1361e-003
20055	13.664	0.90909	5.e-002	4.2553e-006
20056	13.941	0.90909	0.	-1.8497e-003
20057	13.849	0.81818	0.	-2.1228e-003
20058	13.849	0.90909	5.e-002	1.9495e-006
20059	14.126	0.90909	0.	-1.7679e-003
20060	14.033	0.81818	0.	-2.1405e-003
20061	14.033	0.90909	5.e-002	2.8105e-006
20062	14.31	0.90909	0.	-1.7044e-003
20063	14.218	0.81818	0.	-2.1492e-003
20064	14.218	0.90909	5.e-002	3.1689e-006
20065	14.495	0.90909	0.	-1.6748e-003
20066	14.402	0.81818	0.	-2.1769e-003
20067	14.402	0.90909	5.e-002	3.2956e-006
20068	14.679	0.90909	0.	-1.6572e-003
20069	14.587	0.81818	0.	-2.2333e-003
20070	14.587	0.90909	5.e-002	2.6276e-006
20071	14.864	0.90909	0.	-1.6326e-003
20072	14.772	0.81818	0.	-2.2701e-003
20073	14.772	0.90909	5.e-002	1.9679e-006
20074	15.048	0.90909	0.	-1.6141e-003
20075	14.956	0.81818	0.	-2.3018e-003
20076	14.956	0.90909	5.e-002	3.3883e-007
20077	15.233	0.90909	0.	-1.6064e-003
20078	15.141	0.81818	0.	-2.3447e-003
20079	15.141	0.90909	5.e-002	-1.0419e-006
20080	15.418	0.90909	0.	-1.6039e-003
20081	15.325	0.81818	0.	-2.3934e-003
20082	15.325	0.90909	5.e-002	3.6483e-007
20083	15.602	0.90909	0.	-1.5899e-003
20084	15.51	0.81818	0.	-2.4389e-003
20085	15.51	0.90909	5.e-002	-4.2654e-007
20086	15.787	0.90909	0.	-1.5749e-003
20087	15.694	0.81818	0.	-2.4625e-003
20088	15.694	0.90909	5.e-002	-4.6298e-007
20089	15.971	0.90909	0.	-1.5742e-003
20090	15.879	0.81818	0.	-2.505e-003
20091	15.879	0.90909	5.e-002	-9.2754e-007
20092	16.156	0.90909	0.	-1.5664e-003
20093	16.064	0.81818	0.	-2.5548e-003
20094	16.064	0.90909	5.e-002	1.9506e-006
20095	16.34	0.90909	0.	-1.5507e-003
20096	16.248	0.81818	0.	-2.5834e-003
20097	16.248	0.90909	5.e-002	3.2436e-006
20098	16.525	0.90909	0.	-1.5467e-003
20099	16.433	0.81818	0.	-2.6198e-003
20100	16.433	0.90909	5.e-002	3.6461e-006
20101	16.71	0.90909	0.	-1.5401e-003
20102	16.617	0.81818	0.	-2.673e-003
20103	16.617	0.90909	5.e-002	4.8353e-006
20104	16.894	0.90909	0.	-1.5196e-003
20105	16.802	0.81818	0.	-2.7054e-003
20106	16.802	0.90909	5.e-002	5.317e-006
20107	17.079	0.90909	0.	-1.496e-003
20108	16.986	0.81818	0.	-2.7344e-003
20109	16.986	0.90909	5.e-002	6.5933e-006
20110	17.263	0.90909	0.	-1.4701e-003
20111	17.171	0.81818	0.	-2.7633e-003
20112	17.171	0.90909	5.e-002	6.3216e-006
20113	17.448	0.90909	0.	-1.4502e-003
20114	17.356	0.81818	0.	-2.7933e-003
20115	17.356	0.90909	5.e-002	3.5067e-006
20116	17.632	0.90909	0.	-1.4251e-003
20117	17.54	0.81818	0.	-2.84e-003
20118	17.54	0.90909	5.e-002	3.5227e-006
20119	17.817	0.90909	0.	-1.3862e-003
20120	17.725	0.81818	0.	-2.8646e-003
20121	17.725	0.90909	5.e-002	6.2245e-006
20122	18.002	0.90909	0.	-1.3425e-003
20123	17.909	0.81818	0.	-2.8891e-003
20124	17.909	0.90909	5.e-002	4.8854e-006
20125	18.186	0.90909	0.	-1.296e-003
20126	18.094	0.81818	0.	-2.9132e-003
20127	18.094	0.90909	5.e-002	8.2627e-006
20128	18.371	0.90909	0.	-1.2433e-003
20129	18.278	0.81818	0.	-2.9417e-003
20130	18.278	0.90909	5.e-002	7.7912e-006
20131	18.555	0.90909	0.	-1.174e-003
20132	18.463	0.81818	0.	-2.9625e-003
20133	18.463	0.90909	5.e-002	7.1067e-006
20134	18.74	0.90909	0.	-1.0951e-003
20135	18.648	0.81818	0.	-2.9685e-003
20136	18.648	0.90909	5.e-002	5.7729e-006
20137	18.924	0.90909	0.	-1.0099e-003
20138	18.832	0.81818	0.	-2.9801e-003
20139	18.832	0.90909	5.e-002	4.0422e-006
20140	19.109	0.90909	0.	-9.066e-004
20141	19.017	0.81818	0.	-2.9894e-003
20142	19.017	0.90909	5.e-002	4.5394e-006
20143	19.294	0.90909	0.	-7.8332e-004
20144	19.201	0.81818	0.	-2.9785e-003
20145	19.201	0.90909	5.e-002	4.6402e-006
20146	19.478	0.90909	0.	-6.4537e-004
20147	19.386	0.81818	0.	-2.9625e-003
20148	19.386	0.90909	5.e-002	1.0288e-006
20149	19.663	0.90909	0.	-4.8079e-004
20150	19.57	0.81818	0.	-2.9445e-003
20151	19.57	0.90909	5.e-002	5.5351e-007
20152	19.847	0.90909	0.	-2.7781e-004
20153	19.755	0.81818	0.	-2.8938e-003
20154	19.755	0.90909	5.e-002	1.2329e-006
20155	20.032	0.90909	0.	-3.7466e-005
20156	19.94	0.81818	0.	-2.8193e-003
20157	19.94	0.90909	5.e-002	4.5578e-006
20158	20.216	0.90909	0.	2.4339e-004
20159	20.124	0.81818	0.	-2.7204e-003
20160	20.124	0.90909	5.e-002	3.2703e-006
20161	20.401	0.90909	0.	5.8172e-004
20162	20.309	0.81818	0.	-2.5906e-003
20163	20.309	0.90909	5.e-002	4.1649e-006
20164	20.585	0.90909	0.	9.987e-004
20165	20.493	0.81818	0.	-2.4059e-003
20166	20.493	0.90909	5.e-002	4.2973e-006
20167	20.77	0.90909	0.	1.5065e-003
20168	20.678	0.81818	0.	-2.1547e-003
20169	20.678	0.90909	5.e-002	-8.7732e-007
20170	20.955	0.90909	0.	2.1226e-003
20171	20.862	0.81818	0.	-1.8294e-003
20172	20.862	0.90909	5.e-002	1.3753e-006
20173	21.139	0.90909	0.	2.8836e-003
20174	21.047	0.81818	0.	-1.4065e-003
20175	21.047	0.90909	5.e-002	2.7629e-006
20176	21.324	0.90909	0.	3.8319e-003
20177	21.231	0.81818	0.	-8.3819e-004
20178	21.231	0.90909	5.e-002	2.7216e-006
20179	21.508	0.90909	0.	5.0139e-003
20180	21.416	0.81818	0.	-9.7389e-005
20181	21.416	0.90909	5.e-002	5.9601e-006
20182	21.693	0.90909	0.	6.5061e-003
20183	21.601	0.81818	0.	8.7343e-004
20184	21.601	0.90909	5.e-002	5.4337e-006
20185	21.877	0.90909	0.	8.4131e-003
20186	21.785	0.81818	0.	2.1628e-003
20187	21.785	0.90909	5.e-002	3.8249e-007
20188	22.062	0.90909	0.	1.0875e-002
20189	21.97	0.81818	0.	3.8809e-003
20190	21.97	0.90909	5.e-002	1.2888e-006
20191	22.247	0.90909	0.	1.4083e-002
20192	22.154	0.81818	0.	6.1861e-003
20193	22.154	0.90909	5.e-002	-8.0584e-007
20194	22.431	0.90909	0.	1.8341e-002
20195	22.339	0.81818	0.	9.2996e-003
20196	22.339	0.90909	5.e-002	1.5601e-006
20197	22.616	0.90909	0.	2.4037e-002
20198	22.523	0.81818	0.	1.3604e-002
20199	22.523	0.90909	5.e-002	5.3149e-006
20200	22.8	0.90909	0.	3.2101e-002
20201	22.708	0.81818	0.	1.9495e-002
20202	22.708	0.90909	5.e-002	3.0358e-007
20203	22.985	0.90909	0.	4.2813e-002
20204	22.893	0.81818	0.	2.8465e-002
20205	22.893	0.90909	5.e-002	-8.8926e-007
20206	23.169	0.90909	0.	6.1912e-002
20207	23.077	0.81818	0.	3.967e-002
20208	23.077	0.90909	5.e-002	1.8585e-006
20209	23.354	0.90909	0.	7.9993e-002
20210	23.262	0.81818	0.	6.563e-002
20211	23.262	0.90909	5.e-002	3.9314e-006
20212	23.539	0.90909	0.	0.16497
20213	23.446	0.81818	0.	7.6023e-002
20214	23.446	0.90909	5.e-002	2.318e-006
20215	23.723	0.90909	0.	0.13104
20216	23.631	0.81818	0.	0.2392
20217	23.631	0.90909	5.e-002	3.2822e-006
20218	23.815	0.81818	0.	4.7069e-002
20219	23.815	0.90909	5.e-002	1.2371e-005
20220	23.908	0.90909	0.	0.39005
20221	4.3435	0.72727	0.	-5.8764
20222	4.2512	0.63636	0.	-9.7928
20223	4.2512	0.72727	5.e-002	-1.4434e-005
20224	4.159	0.72727	0.	2.368
20225	4.5281	0.72727	0.	-2.4581
20226	4.4358	0.63636	0.	-2.1954
20227	4.4358	0.72727	5.e-002	2.9741e-005
20228	4.7127	0.72727	0.	-2.7214
20229	4.6204	0.63636	0.	-3.3332
20230	4.6204	0.72727	5.e-002	6.7097e-005
20231	4.8972	0.72727	0.	-2.0051
20232	4.8049	0.63636	0.	-2.1311
20233	4.8049	0.72727	5.e-002	7.2483e-005
20234	5.0818	0.72727	0.	-1.5894
20235	4.9895	0.63636	0.	-1.6067
20236	4.9895	0.72727	5.e-002	8.1558e-005
20237	5.2664	0.72727	0.	-1.2369
20238	5.1741	0.63636	0.	-1.1547
20239	5.1741	0.72727	5.e-002	8.9092e-005
20240	5.4509	0.72727	0.	-0.98703
20241	5.3586	0.63636	0.	-0.86826
20242	5.3586	0.72727	5.e-002	8.5549e-005
20243	5.6355	0.72727	0.	-0.80679
20244	5.5432	0.63636	0.	-0.66731
20245	5.5432	0.72727	5.e-002	9.1299e-005
20246	5.8201	0.72727	0.	-0.68413
20247	5.7278	0.63636	0.	-0.53186
20248	5.7278	0.72727	5.e-002	1.0688e-004
20249	6.0046	0.72727	0.	-0.60907
20250	5.9123	0.63636	0.	-0.44173
20251	5.9123	0.72727	5.e-002	1.3084e-004
20252	6.1892	0.72727	0.	-0.58122
20253	6.0969	0.63636	0.	-0.38754
20254	6.0969	0.72727	5.e-002	1.389e-004
20255	6.3738	0.72727	0.	-0.61684
20256	6.2815	0.63636	0.	-0.36613
20257	6.2815	0.72727	5.e-002	1.6488e-004
20258	6.5583	0.72727	0.	-0.79248
20259	6.466	0.63636	0.	-0.38548
20260	6.466	0.72727	5.e-002	1.8863e-004
20261	6.7429	0.72727	0.	-1.619
20262	6.6506	0.63636	0.	-0.4871
20263	6.6506	0.72727	5.e-002	1.781e-004
20264	6.9275	0.72727	0.	-6.4827
20265	6.8352	0.63636	0.	-0.93557
20266	6.8352	0.72727	5.e-002	1.2869e-004
20267	7.112	0.72727	0.	-13.594
20268	7.0198	0.63636	0.	-4.3045
20269	7.0198	0.72727	5.e-002	7.7102e-005
20270	7.2966	0.72727	0.	-19.428
20271	7.2043	0.63636	0.	-10.443
20272	7.2043	0.72727	5.e-002	4.7214e-005
20273	7.4812	0.72727	0.	-23.798
20274	7.3889	0.63636	0.	-15.519
20275	7.3889	0.72727	5.e-002	2.2251e-005
20276	7.6657	0.72727	0.	-26.865
20277	7.5735	0.63636	0.	-19.298
20278	7.5735	0.72727	5.e-002	2.316e-005
20279	7.8503	0.72727	0.	-28.826
20280	7.758	0.63636	0.	-21.927
20281	7.758	0.72727	5.e-002	1.5714e-005
20282	8.0349	0.72727	0.	-29.865
20283	7.9426	0.63636	0.	-23.585
20284	7.9426	0.72727	5.e-002	1.4716e-005
20285	8.2194	0.72727	0.	-30.153
20286	8.1272	0.63636	0.	-24.44
20287	8.1272	0.72727	5.e-002	8.6266e-006
20288	8.404	0.72727	0.	-29.838
20289	8.3117	0.63636	0.	-24.643
20290	8.3117	0.72727	5.e-002	1.0478e-005
20291	8.5886	0.72727	0.	-29.05
20292	8.4963	0.63636	0.	-24.326
20293	8.4963	0.72727	5.e-002	8.158e-006
20294	8.7731	0.72727	0.	-27.898
20295	8.6809	0.63636	0.	-23.603
20296	8.6809	0.72727	5.e-002	7.8176e-006
20297	8.9577	0.72727	0.	-26.476
20298	8.8654	0.63636	0.	-22.569
20299	8.8654	0.72727	5.e-002	7.6132e-006
20300	9.1423	0.72727	0.	-24.859
20301	9.05	0.63636	0.	-21.304
20302	9.05	0.72727	5.e-002	6.4626e-006
20303	9.3269	0.72727	0.	-23.112
20304	9.2346	0.63636	0.	-19.875
20305	9.2346	0.72727	5.e-002	6.59e-006
20306	9.5114	0.72727	0.	-21.284
20307	9.4191	0.63636	0.	-18.336
20308	9.4191	0.72727	5.e-002	6.6528e-006
20309	9.696	0.72727	0.	-19.417
20310	9.6037	0.63636	0.	-16.731
20311	9.6037	0.72727	5.e-002	5.764e-006
20312	9.8806	0.72727	0.	-17.544
20313	9.7883	0.63636	0.	-15.095
20314	9.7883	0.72727	5.e-002	4.7729e-006
20315	10.065	0.72727	0.	-15.688
20316	9.9728	0.63636	0.	-13.455
20317	9.9728	0.72727	5.e-002	4.1872e-006
20318	10.25	0.72727	0.	-13.87
20319	10.157	0.63636	0.	-11.833
20320	10.157	0.72727	5.e-002	3.5907e-006
20321	10.434	0.72727	0.	-12.104
20322	10.342	0.63636	0.	-10.244
20323	10.342	0.72727	5.e-002	3.4952e-006
20324	10.619	0.72727	0.	-10.398
20325	10.527	0.63636	0.	-8.7
20326	10.527	0.72727	5.e-002	3.8342e-006
20327	10.803	0.72727	0.	-8.7612
20328	10.711	0.63636	0.	-7.21
20329	10.711	0.72727	5.e-002	4.2939e-006
20330	10.988	0.72727	0.	-7.1965
20331	10.896	0.63636	0.	-5.7795
20332	10.896	0.72727	5.e-002	3.6107e-006
20333	11.173	0.72727	0.	-5.7063
20334	11.08	0.63636	0.	-4.4117
20335	11.08	0.72727	5.e-002	3.8265e-006
20336	11.357	0.72727	0.	-4.2913
20337	11.265	0.63636	0.	-3.1085
20338	11.265	0.72727	5.e-002	3.2306e-006
20339	11.542	0.72727	0.	-2.9509
20340	11.449	0.63636	0.	-1.8704
20341	11.449	0.72727	5.e-002	3.2367e-006
20342	11.726	0.72727	0.	-1.6843
20343	11.634	0.63636	0.	-0.7005
20344	11.634	0.72727	5.e-002	3.1021e-006
20345	11.911	0.72727	0.	-0.49986
20346	11.819	0.63636	0.	-1.296e-002
20347	11.819	0.72727	5.e-002	3.2449e-006
20348	12.095	0.72727	0.	-1.4318e-002
20349	12.003	0.63636	0.	-3.0809e-003
20350	12.003	0.72727	5.e-002	3.3182e-006
20351	12.28	0.72727	0.	-4.9552e-003
20352	12.188	0.63636	0.	-1.7615e-003
20353	12.188	0.72727	5.e-002	4.3258e-006
20354	12.465	0.72727	0.	-3.0613e-003
20355	12.372	0.63636	0.	-1.4322e-003
20356	12.372	0.72727	5.e-002	4.8419e-006
20357	12.649	0.72727	0.	-2.3989e-003
20358	12.557	0.63636	0.	-1.4276e-003
20359	12.557	0.72727	5.e-002	4.1526e-006
20360	12.834	0.72727	0.	-2.1301e-003
20361	12.741	0.63636	0.	-1.5076e-003
20362	12.741	0.72727	5.e-002	3.9907e-006
20363	13.018	0.72727	0.	-2.0435e-003
20364	12.926	0.63636	0.	-1.6344e-003
20365	12.926	0.72727	5.e-002	4.1884e-006
20366	13.203	0.72727	0.	-2.0554e-003
20367	13.11	0.63636	0.	-1.7926e-003
20368	13.11	0.72727	5.e-002	3.8533e-006
20369	13.387	0.72727	0.	-2.1169e-003
20370	13.295	0.63636	0.	-1.9696e-003
20371	13.295	0.72727	5.e-002	3.3669e-006
20372	13.572	0.72727	0.	-2.1882e-003
20373	13.48	0.63636	0.	-2.1426e-003
20374	13.48	0.72727	5.e-002	3.9596e-006
20375	13.756	0.72727	0.	-2.2739e-003
20376	13.664	0.63636	0.	-2.2862e-003
20377	13.664	0.72727	5.e-002	4.2368e-006
20378	13.941	0.72727	0.	-2.3845e-003
20379	13.849	0.63636	0.	-2.4519e-003
20380	13.849	0.72727	5.e-002	2.3692e-006
20381	14.126	0.72727	0.	-2.4905e-003
20382	14.033	0.63636	0.	-2.6206e-003
20383	14.033	0.72727	5.e-002	2.4123e-006
20384	14.31	0.72727	0.	-2.5906e-003
20385	14.218	0.63636	0.	-2.7598e-003
20386	14.218	0.72727	5.e-002	2.6528e-006
20387	14.495	0.72727	0.	-2.7056e-003
20388	14.402	0.63636	0.	-2.9034e-003
20389	14.402	0.72727	5.e-002	3.1273e-006
20390	14.679	0.72727	0.	-2.8186e-003
20391	14.587	0.63636	0.	-3.0631e-003
20392	14.587	0.72727	5.e-002	2.7139e-006
20393	14.864	0.72727	0.	-2.9144e-003
20394	14.772	0.63636	0.	-3.1946e-003
20395	14.772	0.72727	5.e-002	1.3879e-006
20396	15.048	0.72727	0.	-3.0105e-003
20397	14.956	0.63636	0.	-3.3154e-003
20398	14.956	0.72727	5.e-002	1.6606e-007
20399	15.233	0.72727	0.	-3.1129e-003
20400	15.141	0.63636	0.	-3.4443e-003
20401	15.141	0.72727	5.e-002	-1.5375e-006
20402	15.418	0.72727	0.	-3.2129e-003
20403	15.325	0.63636	0.	-3.5754e-003
20404	15.325	0.72727	5.e-002	-1.381e-006
20405	15.602	0.72727	0.	-3.2993e-003
20406	15.51	0.63636	0.	-3.6966e-003
20407	15.51	0.72727	5.e-002	-2.3595e-006
20408	15.787	0.72727	0.	-3.3839e-003
20409	15.694	0.63636	0.	-3.7964e-003
20410	15.694	0.72727	5.e-002	-1.0491e-006
20411	15.971	0.72727	0.	-3.4802e-003
20412	15.879	0.63636	0.	-3.9153e-003
20413	15.879	0.72727	5.e-002	-1.2306e-006
20414	16.156	0.72727	0.	-3.57e-003
20415	16.064	0.63636	0.	-4.0396e-003
20416	16.064	0.72727	5.e-002	8.1941e-007
20417	16.34	0.72727	0.	-3.6544e-003
20418	16.248	0.63636	0.	-4.144e-003
20419	16.248	0.72727	5.e-002	3.6785e-006
20420	16.525	0.72727	0.	-3.7518e-003
20421	16.433	0.63636	0.	-4.2583e-003
20422	16.433	0.72727	5.e-002	4.4891e-006
20423	16.71	0.72727	0.	-3.8479e-003
20424	16.617	0.63636	0.	-4.3912e-003
20425	16.617	0.72727	5.e-002	6.3812e-006
20426	16.894	0.72727	0.	-3.9339e-003
20427	16.802	0.63636	0.	-4.5046e-003
20428	16.802	0.72727	5.e-002	7.1736e-006
20429	17.079	0.72727	0.	-4.0198e-003
20430	16.986	0.63636	0.	-4.6192e-003
20431	16.986	0.72727	5.e-002	6.0731e-006
20432	17.263	0.72727	0.	-4.1093e-003
20433	17.171	0.63636	0.	-4.7378e-003
20434	17.171	0.72727	5.e-002	7.7632e-006
20435	17.448	0.72727	0.	-4.2109e-003
20436	17.356	0.63636	0.	-4.8608e-003
20437	17.356	0.72727	5.e-002	3.584e-006
20438	17.632	0.72727	0.	-4.3128e-003
20439	17.54	0.63636	0.	-5.0055e-003
20440	17.54	0.72727	5.e-002	3.2602e-006
20441	17.817	0.72727	0.	-4.4067e-003
20442	17.725	0.63636	0.	-5.1374e-003
20443	17.725	0.72727	5.e-002	6.8762e-006
20444	18.002	0.72727	0.	-4.5054e-003
20445	17.909	0.63636	0.	-5.2722e-003
20446	17.909	0.72727	5.e-002	5.3475e-006
20447	18.186	0.72727	0.	-4.6117e-003
20448	18.094	0.63636	0.	-5.4159e-003
20449	18.094	0.72727	5.e-002	8.4305e-006
20450	18.371	0.72727	0.	-4.7214e-003
20451	18.278	0.63636	0.	-5.5723e-003
20452	18.278	0.72727	5.e-002	7.0647e-006
20453	18.555	0.72727	0.	-4.8261e-003
20454	18.463	0.63636	0.	-5.7321e-003
20455	18.463	0.72727	5.e-002	5.6767e-006
20456	18.74	0.72727	0.	-4.9323e-003
20457	18.648	0.63636	0.	-5.8859e-003
20458	18.648	0.72727	5.e-002	7.1867e-006
20459	18.924	0.72727	0.	-5.049e-003
20460	18.832	0.63636	0.	-6.0586e-003
20461	18.832	0.72727	5.e-002	5.2906e-006
20462	19.109	0.72727	0.	-5.1626e-003
20463	19.017	0.63636	0.	-6.2446e-003
20464	19.017	0.72727	5.e-002	3.9031e-006
20465	19.294	0.72727	0.	-5.2723e-003
20466	19.201	0.63636	0.	-6.4234e-003
20467	19.201	0.72727	5.e-002	5.0939e-006
20468	19.478	0.72727	0.	-5.3913e-003
20469	19.386	0.63636	0.	-6.6147e-003
20470	19.386	0.72727	5.e-002	1.5213e-006
20471	19.663	0.72727	0.	-5.504e-003
20472	19.57	0.63636	0.	-6.8244e-003
20473	19.57	0.72727	5.e-002	1.3313e-006
20474	19.847	0.72727	0.	-5.6009e-003
20475	19.755	0.63636	0.	-7.0238e-003
20476	19.755	0.72727	5.e-002	7.6993e-007
20477	20.032	0.72727	0.	-5.6894e-003
20478	19.94	0.63636	0.	-7.2238e-003
20479	19.94	0.72727	5.e-002	4.0453e-006
20480	20.216	0.72727	0.	-5.7662e-003
20481	20.124	0.63636	0.	-7.4294e-003
20482	20.124	0.72727	5.e-002	3.951e-006
20483	20.401	0.72727	0.	-5.8182e-003
20484	20.309	0.63636	0.	-7.6288e-003
20485	20.309	0.72727	5.e-002	6.0884e-006
20486	20.585	0.72727	0.	-5.8315e-003
20487	20.493	0.63636	0.	-7.8148e-003
20488	20.493	0.72727	5.e-002	6.0497e-006
20489	20.77	0.72727	0.	-5.8e-003
20490	20.678	0.63636	0.	-7.9763e-003
20491	20.678	0.72727	5.e-002	1.2245e-006
20492	20.955	0.72727	0.	-5.7112e-003
20493	20.862	0.63636	0.	-8.1116e-003
20494	20.862	0.72727	5.e-002	3.4167e-007
20495	21.139	0.72727	0.	-5.5315e-003
20496	21.047	0.63636	0.	-8.2029e-003
20497	21.047	0.72727	5.e-002	-1.8412e-006
20498	21.324	0.72727	0.	-5.2301e-003
20499	21.231	0.63636	0.	-8.2166e-003
20500	21.231	0.72727	5.e-002	-2.0678e-006
20501	21.508	0.72727	0.	-4.7712e-003
20502	21.416	0.63636	0.	-8.1338e-003
20503	21.416	0.72727	5.e-002	6.7872e-006
20504	21.693	0.72727	0.	-4.0883e-003
20505	21.601	0.63636	0.	-7.9052e-003
20506	21.601	0.72727	5.e-002	4.852e-006
20507	21.877	0.72727	0.	-3.0917e-003
20508	21.785	0.63636	0.	-7.4653e-003
20509	21.785	0.72727	5.e-002	3.7125e-006
20510	22.062	0.72727	0.	-1.6592e-003
20511	21.97	0.63636	0.	-6.7204e-003
20512	21.97	0.72727	5.e-002	4.6618e-006
20513	22.247	0.72727	0.	3.8704e-004
20514	22.154	0.63636	0.	-5.5388e-003
20515	22.154	0.72727	5.e-002	1.9754e-006
20516	22.431	0.72727	0.	3.3315e-003
20517	22.339	0.63636	0.	-3.7228e-003
20518	22.339	0.72727	5.e-002	1.4793e-006
20519	22.616	0.72727	0.	7.5362e-003
20520	22.523	0.63636	0.	-9.2245e-004
20521	22.523	0.72727	5.e-002	6.2291e-006
20522	22.8	0.72727	0.	1.3908e-002
20523	22.708	0.63636	0.	3.2237e-003
20524	22.708	0.72727	5.e-002	-7.8168e-007
20525	22.985	0.72727	0.	2.269e-002
20526	22.893	0.63636	0.	1.0148e-002
20527	22.893	0.72727	5.e-002	-3.097e-007
20528	23.169	0.72727	0.	3.9509e-002
20529	23.077	0.63636	0.	1.9012e-002
20530	23.077	0.72727	5.e-002	-2.6608e-006
20531	23.354	0.72727	0.	5.4943e-002
20532	23.262	0.63636	0.	4.2051e-002
20533	23.262	0.72727	5.e-002	5.972e-006
20534	23.539	0.72727	0.	0.13462
20535	23.446	0.63636	0.	4.8439e-002
20536	23.446	0.72727	5.e-002	8.8463e-007
20537	23.723	0.72727	0.	8.9989e-002
20538	23.631	0.63636	0.	0.20425
20539	23.631	0.72727	5.e-002	3.8477e-006
20540	23.815	0.63636	0.	-4.904e-003
20541	23.815	0.72727	5.e-002	1.2528e-005
20542	23.908	0.72727	0.	0.36666
20543	4.3435	0.54545	0.	-7.4452
20544	4.2512	0.45455	0.	-11.595
20545	4.2512	0.54545	5.e-002	-1.2339e-005
20546	4.159	0.54545	0.	2.4249
20547	4.5281	0.54545	0.	-3.4726
20548	4.4358	0.45455	0.	-4.0078
20549	4.4358	0.54545	5.e-002	1.5259e-005
20550	4.7127	0.54545	0.	-2.8377
20551	4.6204	0.45455	0.	-3.7826
20552	4.6204	0.54545	5.e-002	3.1966e-005
20553	4.8972	0.54545	0.	-1.7236
20554	4.8049	0.45455	0.	-1.9477
20555	4.8049	0.54545	5.e-002	4.6999e-005
20556	5.0818	0.54545	0.	-1.1562
20557	4.9895	0.45455	0.	-1.2341
20558	4.9895	0.54545	5.e-002	4.7785e-005
20559	5.2664	0.54545	0.	-0.78621
20560	5.1741	0.45455	0.	-0.79151
20561	5.1741	0.54545	5.e-002	4.5682e-005
20562	5.4509	0.54545	0.	-0.56398
20563	5.3586	0.45455	0.	-0.56239
20564	5.3586	0.54545	5.e-002	4.8847e-005
20565	5.6355	0.54545	0.	-0.419
20566	5.5432	0.45455	0.	-0.41799
20567	5.5432	0.54545	5.e-002	4.3182e-005
20568	5.8201	0.54545	0.	-0.32442
20569	5.7278	0.45455	0.	-0.32346
20570	5.7278	0.54545	5.e-002	4.7065e-005
20571	6.0046	0.54545	0.	-0.26304
20572	5.9123	0.45455	0.	-0.25706
20573	5.9123	0.54545	5.e-002	4.8439e-005
20574	6.1892	0.54545	0.	-0.22616
20575	6.0969	0.45455	0.	-0.20995
20576	6.0969	0.54545	5.e-002	5.7723e-005
20577	6.3738	0.54545	0.	-0.21
20578	6.2815	0.45455	0.	-0.17756
20579	6.2815	0.54545	5.e-002	8.9878e-005
20580	6.5583	0.54545	0.	-0.21668
20581	6.466	0.45455	0.	-0.1585
20582	6.466	0.54545	5.e-002	9.6856e-005
20583	6.7429	0.54545	0.	-0.26215
20584	6.6506	0.45455	0.	-0.15478
20585	6.6506	0.54545	5.e-002	1.8458e-004
20586	6.9275	0.54545	0.	-0.431
20587	6.8352	0.45455	0.	-0.17677
20588	6.8352	0.54545	5.e-002	1.9871e-004
20589	7.112	0.54545	0.	-1.7243
20590	7.0198	0.45455	0.	-0.2765
20591	7.0198	0.54545	5.e-002	7.1376e-005
20592	7.2966	0.54545	0.	-6.5547
20593	7.2043	0.45455	0.	-1.0962
20594	7.2043	0.54545	5.e-002	3.5525e-005
20595	7.4812	0.54545	0.	-11.009
20596	7.3889	0.45455	0.	-4.8624
20597	7.3889	0.54545	5.e-002	2.0679e-005
20598	7.6657	0.54545	0.	-14.343
20599	7.5735	0.45455	0.	-8.3919
20600	7.5735	0.54545	5.e-002	1.7946e-005
20601	7.8503	0.54545	0.	-16.669
20602	7.758	0.45455	0.	-10.991
20603	7.758	0.54545	5.e-002	1.1278e-005
20604	8.0349	0.54545	0.	-18.143
20605	7.9426	0.45455	0.	-12.762
20606	7.9426	0.54545	5.e-002	7.9573e-006
20607	8.2194	0.54545	0.	-18.914
20608	8.1272	0.45455	0.	-13.839
20609	8.1272	0.54545	5.e-002	9.9706e-006
20610	8.404	0.54545	0.	-19.116
20611	8.3117	0.45455	0.	-14.348
20612	8.3117	0.54545	5.e-002	1.1162e-005
20613	8.5886	0.54545	0.	-18.864
20614	8.4963	0.45455	0.	-14.398
20615	8.4963	0.54545	5.e-002	8.0222e-006
20616	8.7731	0.54545	0.	-18.258
20617	8.6809	0.45455	0.	-14.087
20618	8.6809	0.54545	5.e-002	9.0669e-006
20619	8.9577	0.54545	0.	-17.381
20620	8.8654	0.45455	0.	-13.494
20621	8.8654	0.54545	5.e-002	6.226e-006
20622	9.1423	0.54545	0.	-16.304
20623	9.05	0.45455	0.	-12.689
20624	9.05	0.54545	5.e-002	6.651e-006
20625	9.3269	0.54545	0.	-15.084
20626	9.2346	0.45455	0.	-11.727
20627	9.2346	0.54545	5.e-002	6.3299e-006
20628	9.5114	0.54545	0.	-13.768
20629	9.4191	0.45455	0.	-10.654
20630	9.4191	0.54545	5.e-002	5.7562e-006
20631	9.696	0.54545	0.	-12.393
20632	9.6037	0.45455	0.	-9.5094
20633	9.6037	0.54545	5.e-002	5.0424e-006
20634	9.8806	0.54545	0.	-10.99
20635	9.7883	0.45455	0.	-8.3219
20636	9.7883	0.54545	5.e-002	4.2543e-006
20637	10.065	0.54545	0.	-9.5826
20638	9.9728	0.45455	0.	-7.1159
20639	9.9728	0.54545	5.e-002	3.4397e-006
20640	10.25	0.54545	0.	-8.1888
20641	10.157	0.45455	0.	-5.9099
20642	10.157	0.54545	5.e-002	4.774e-006
20643	10.434	0.54545	0.	-6.8225
20644	10.342	0.45455	0.	-4.7183
20645	10.342	0.54545	5.e-002	3.9706e-006
20646	10.619	0.54545	0.	-5.4937
20647	10.527	0.45455	0.	-3.552
20648	10.527	0.54545	5.e-002	3.2173e-006
20649	10.803	0.54545	0.	-4.2098
20650	10.711	0.45455	0.	-2.4185
20651	10.711	0.54545	5.e-002	3.8875e-006
20652	10.988	0.54545	0.	-2.9756
20653	10.896	0.45455	0.	-1.3237
20654	10.896	0.54545	5.e-002	4.1248e-006
20655	11.173	0.54545	0.	-1.7941
20656	11.08	0.45455	0.	-0.27103
20657	11.08	0.54545	5.e-002	3.9709e-006
20658	11.357	0.54545	0.	-0.66812
20659	11.265	0.45455	0.	7.738e-003
20660	11.265	0.54545	5.e-002	3.6172e-006
20661	11.542	0.54545	0.	-3.0917e-003
20662	11.449	0.45455	0.	6.5301e-003
20663	11.449	0.54545	5.e-002	2.6953e-006
20664	11.726	0.54545	0.	1.0662e-004
20665	11.634	0.45455	0.	5.3866e-003
20666	11.634	0.54545	5.e-002	2.3092e-006
20667	11.911	0.54545	0.	2.1881e-004
20668	11.819	0.45455	0.	4.3506e-003
20669	11.819	0.54545	5.e-002	2.5633e-006
20670	12.095	0.54545	0.	1.0057e-005
20671	12.003	0.45455	0.	3.3927e-003
20672	12.003	0.54545	5.e-002	3.6822e-006
20673	12.28	0.54545	0.	-2.7783e-004
20674	12.188	0.45455	0.	2.501e-003
20675	12.188	0.54545	5.e-002	4.7506e-006
20676	12.465	0.54545	0.	-5.9924e-004
20677	12.372	0.45455	0.	1.6689e-003
20678	12.372	0.54545	5.e-002	4.1115e-006
20679	12.649	0.54545	0.	-9.1713e-004
20680	12.557	0.45455	0.	8.6273e-004
20681	12.557	0.54545	5.e-002	4.6364e-006
20682	12.834	0.54545	0.	-1.2058e-003
20683	12.741	0.45455	0.	1.4223e-004
20684	12.741	0.54545	5.e-002	3.6428e-006
20685	13.018	0.54545	0.	-1.4813e-003
20686	12.926	0.45455	0.	-5.2378e-004
20687	12.926	0.54545	5.e-002	3.5961e-006
20688	13.203	0.54545	0.	-1.7507e-003
20689	13.11	0.45455	0.	-1.1555e-003
20690	13.11	0.54545	5.e-002	2.3695e-006
20691	13.387	0.54545	0.	-2.0074e-003
20692	13.295	0.45455	0.	-1.7567e-003
20693	13.295	0.54545	5.e-002	1.5112e-006
20694	13.572	0.54545	0.	-2.2334e-003
20695	13.48	0.45455	0.	-2.3135e-003
20696	13.48	0.54545	5.e-002	2.5358e-006
20697	13.756	0.54545	0.	-2.4454e-003
20698	13.664	0.45455	0.	-2.8099e-003
20699	13.664	0.54545	5.e-002	3.6557e-006
20700	13.941	0.54545	0.	-2.6622e-003
20701	13.849	0.45455	0.	-3.3015e-003
20702	13.849	0.54545	5.e-002	3.2802e-006
20703	14.126	0.54545	0.	-2.8602e-003
20704	14.033	0.45455	0.	-3.7754e-003
20705	14.033	0.54545	5.e-002	3.6867e-006
20706	14.31	0.54545	0.	-3.041e-003
20707	14.218	0.45455	0.	-4.201e-003
20708	14.218	0.54545	5.e-002	2.5092e-006
20709	14.495	0.54545	0.	-3.2287e-003
20710	14.402	0.45455	0.	-4.6131e-003
20711	14.402	0.54545	5.e-002	2.6153e-006
20712	14.679	0.54545	0.	-3.4073e-003
20713	14.587	0.45455	0.	-5.0301e-003
20714	14.587	0.54545	5.e-002	2.3472e-006
20715	14.864	0.54545	0.	-3.5648e-003
20716	14.772	0.45455	0.	-5.4058e-003
20717	14.772	0.54545	5.e-002	9.7926e-007
20718	15.048	0.54545	0.	-3.72e-003
20719	14.956	0.45455	0.	-5.7643e-003
20720	14.956	0.54545	5.e-002	4.6802e-007
20721	15.233	0.54545	0.	-3.8795e-003
20722	15.141	0.45455	0.	-6.1197e-003
20723	15.141	0.54545	5.e-002	-2.2498e-006
20724	15.418	0.54545	0.	-4.034e-003
20725	15.325	0.45455	0.	-6.4732e-003
20726	15.325	0.54545	5.e-002	-2.631e-006
20727	15.602	0.54545	0.	-4.171e-003
20728	15.51	0.45455	0.	-6.813e-003
20729	15.51	0.54545	5.e-002	-3.0331e-006
20730	15.787	0.54545	0.	-4.3077e-003
20731	15.694	0.45455	0.	-7.1277e-003
20732	15.694	0.54545	5.e-002	1.4232e-006
20733	15.971	0.54545	0.	-4.4573e-003
20734	15.879	0.45455	0.	-7.4615e-003
20735	15.879	0.54545	5.e-002	2.0343e-007
20736	16.156	0.54545	0.	-4.5991e-003
20737	16.064	0.45455	0.	-7.8011e-003
20738	16.064	0.54545	5.e-002	-3.294e-007
20739	16.34	0.54545	0.	-4.7363e-003
20740	16.248	0.45455	0.	-8.1228e-003
20741	16.248	0.54545	5.e-002	4.4163e-006
20742	16.525	0.54545	0.	-4.8894e-003
20743	16.433	0.45455	0.	-8.4572e-003
20744	16.433	0.54545	5.e-002	6.5406e-006
20745	16.71	0.54545	0.	-5.043e-003
20746	16.617	0.45455	0.	-8.8162e-003
20747	16.617	0.54545	5.e-002	6.3827e-006
20748	16.894	0.54545	0.	-5.1887e-003
20749	16.802	0.45455	0.	-9.1617e-003
20750	16.802	0.54545	5.e-002	9.163e-006
20751	17.079	0.54545	0.	-5.34e-003
20752	16.986	0.45455	0.	-9.5183e-003
20753	16.986	0.54545	5.e-002	7.3697e-006
20754	17.263	0.54545	0.	-5.4965e-003
20755	17.171	0.45455	0.	-9.8881e-003
20756	17.171	0.54545	5.e-002	7.1277e-006
20757	17.448	0.54545	0.	-5.6675e-003
20758	17.356	0.45455	0.	-1.0275e-002
20759	17.356	0.54545	5.e-002	4.8207e-006
20760	17.632	0.54545	0.	-5.8474e-003
20761	17.54	0.45455	0.	-1.0697e-002
20762	17.54	0.54545	5.e-002	2.906e-006
20763	17.817	0.54545	0.	-6.0261e-003
20764	17.725	0.45455	0.	-1.1123e-002
20765	17.725	0.54545	5.e-002	5.5718e-006
20766	18.002	0.54545	0.	-6.2125e-003
20767	17.909	0.45455	0.	-1.1569e-002
20768	17.909	0.54545	5.e-002	5.1232e-006
20769	18.186	0.54545	0.	-6.4136e-003
20770	18.094	0.45455	0.	-1.2046e-002
20771	18.094	0.54545	5.e-002	9.7051e-006
20772	18.371	0.54545	0.	-6.6281e-003
20773	18.278	0.45455	0.	-1.2559e-002
20774	18.278	0.54545	5.e-002	7.2893e-006
20775	18.555	0.54545	0.	-6.8462e-003
20776	18.463	0.45455	0.	-1.3101e-002
20777	18.463	0.54545	5.e-002	6.5537e-006
20778	18.74	0.54545	0.	-7.0769e-003
20779	18.648	0.45455	0.	-1.3666e-002
20780	18.648	0.54545	5.e-002	6.6896e-006
20781	18.924	0.54545	0.	-7.3305e-003
20782	18.832	0.45455	0.	-1.4284e-002
20783	18.832	0.54545	5.e-002	5.5273e-006
20784	19.109	0.54545	0.	-7.5952e-003
20785	19.017	0.45455	0.	-1.495e-002
20786	19.017	0.54545	5.e-002	3.4373e-006
20787	19.294	0.54545	0.	-7.8708e-003
20788	19.201	0.45455	0.	-1.5653e-002
20789	19.201	0.54545	5.e-002	4.772e-006
20790	19.478	0.54545	0.	-8.1702e-003
20791	19.386	0.45455	0.	-1.6414e-002
20792	19.386	0.54545	5.e-002	3.8297e-006
20793	19.663	0.54545	0.	-8.4865e-003
20794	19.57	0.45455	0.	-1.7238e-002
20795	19.57	0.54545	5.e-002	3.8409e-006
20796	19.847	0.54545	0.	-8.8119e-003
20797	19.755	0.45455	0.	-1.812e-002
20798	19.755	0.54545	5.e-002	2.6206e-006
20799	20.032	0.54545	0.	-9.1553e-003
20800	19.94	0.45455	0.	-1.9061e-002
20801	19.94	0.54545	5.e-002	2.4537e-006
20802	20.216	0.54545	0.	-9.5141e-003
20803	20.124	0.45455	0.	-2.0082e-002
20804	20.124	0.54545	5.e-002	1.8219e-006
20805	20.401	0.54545	0.	-9.883e-003
20806	20.309	0.45455	0.	-2.1179e-002
20807	20.309	0.54545	5.e-002	6.8653e-006
20808	20.585	0.54545	0.	-1.0258e-002
20809	20.493	0.45455	0.	-2.2359e-002
20810	20.493	0.54545	5.e-002	8.3435e-006
20811	20.77	0.54545	0.	-1.0635e-002
20812	20.678	0.45455	0.	-2.3618e-002
20813	20.678	0.54545	5.e-002	3.9346e-006
20814	20.955	0.54545	0.	-1.1008e-002
20815	20.862	0.45455	0.	-2.4975e-002
20816	20.862	0.54545	5.e-002	8.3359e-007
20817	21.139	0.54545	0.	-1.136e-002
20818	21.047	0.45455	0.	-2.6428e-002
20819	21.047	0.54545	5.e-002	-3.5704e-006
20820	21.324	0.54545	0.	-1.1674e-002
20821	21.231	0.45455	0.	-2.7974e-002
20822	21.231	0.54545	5.e-002	-2.9212e-006
20823	21.508	0.54545	0.	-1.1919e-002
20824	21.416	0.45455	0.	-2.9612e-002
20825	21.416	0.54545	5.e-002	6.0043e-006
20826	21.693	0.54545	0.	-1.2052e-002
20827	21.601	0.45455	0.	-3.1337e-002
20828	21.601	0.54545	5.e-002	5.0114e-006
20829	21.877	0.54545	0.	-1.2011e-002
20830	21.785	0.45455	0.	-3.3123e-002
20831	21.785	0.54545	5.e-002	8.4122e-006
20832	22.062	0.54545	0.	-1.1701e-002
20833	21.97	0.45455	0.	-3.4938e-002
20834	21.97	0.54545	5.e-002	9.6939e-006
20835	22.247	0.54545	0.	-1.0985e-002
20836	22.154	0.45455	0.	-3.6725e-002
20837	22.154	0.54545	5.e-002	6.4115e-006
20838	22.431	0.54545	0.	-9.6203e-003
20839	22.339	0.45455	0.	-3.8383e-002
20840	22.339	0.54545	5.e-002	3.5208e-006
20841	22.616	0.54545	0.	-7.2936e-003
20842	22.523	0.45455	0.	-3.9697e-002
20843	22.523	0.54545	5.e-002	6.3385e-006
20844	22.8	0.54545	0.	-3.1808e-003
20845	22.708	0.45455	0.	-4.0469e-002
20846	22.708	0.54545	5.e-002	-1.4035e-006
20847	22.985	0.54545	0.	2.9405e-003
20848	22.893	0.45455	0.	-3.9556e-002
20849	22.893	0.54545	5.e-002	-2.2262e-006
20850	23.169	0.54545	0.	1.6536e-002
20851	23.077	0.45455	0.	-3.7946e-002
20852	23.077	0.54545	5.e-002	-9.5302e-007
20853	23.354	0.54545	0.	2.7489e-002
20854	23.262	0.45455	0.	-2.4782e-002
20855	23.262	0.54545	5.e-002	8.1754e-006
20856	23.539	0.54545	0.	0.10134
20857	23.446	0.45455	0.	-2.8644e-002
20858	23.446	0.54545	5.e-002	3.3197e-006
20859	23.723	0.54545	0.	4.7218e-002
20860	23.631	0.45455	0.	9.8993e-002
20861	23.631	0.54545	5.e-002	8.5381e-006
20862	23.815	0.45455	0.	-0.15353
20863	23.815	0.54545	5.e-002	8.2455e-006
20864	23.908	0.54545	0.	0.35396
20865	4.3435	0.36364	0.	-11.086
20866	4.2512	0.27273	0.	-19.683
20867	4.2512	0.36364	5.e-002	-6.5617e-006
20868	4.159	0.36364	0.	3.8612
20869	4.5281	0.36364	0.	-4.9963
20870	4.4358	0.27273	0.	-7.3345
20871	4.4358	0.36364	5.e-002	2.7938e-006
20872	4.7127	0.36364	0.	-2.8683
20873	4.6204	0.27273	0.	-4.1401
20874	4.6204	0.36364	5.e-002	1.5565e-005
20875	4.8972	0.36364	0.	-1.3748
20876	4.8049	0.27273	0.	-1.4581
20877	4.8049	0.36364	5.e-002	2.2776e-005
20878	5.0818	0.36364	0.	-0.82838
20879	4.9895	0.27273	0.	-0.61094
20880	4.9895	0.36364	5.e-002	2.4499e-005
20881	5.2664	0.36364	0.	-0.55947
20882	5.1741	0.27273	0.	-0.2337
20883	5.1741	0.36364	5.e-002	2.0627e-005
20884	5.4509	0.36364	0.	-0.42634
20885	5.3586	0.27273	0.	-0.1113
20886	5.3586	0.36364	5.e-002	1.4839e-005
20887	5.6355	0.36364	0.	-0.34157
20888	5.5432	0.27273	0.	-6.9043e-002
20889	5.5432	0.36364	5.e-002	1.1447e-005
20890	5.8201	0.36364	0.	-0.27958
20891	5.7278	0.27273	0.	-5.7292e-002
20892	5.7278	0.36364	5.e-002	8.9362e-006
20893	6.0046	0.36364	0.	-0.22942
20894	5.9123	0.27273	0.	-5.2486e-002
20895	5.9123	0.36364	5.e-002	7.0727e-006
20896	6.1892	0.36364	0.	-0.18792
20897	6.0969	0.27273	0.	-4.8168e-002
20898	6.0969	0.36364	5.e-002	9.586e-006
20899	6.3738	0.36364	0.	-0.15422
20900	6.2815	0.27273	0.	-4.2982e-002
20901	6.2815	0.36364	5.e-002	1.2401e-005
20902	6.5583	0.36364	0.	-0.12868
20903	6.466	0.27273	0.	-3.779e-002
20904	6.466	0.36364	5.e-002	2.7562e-005
20905	6.7429	0.36364	0.	-0.1128
20906	6.6506	0.27273	0.	-3.4129e-002
20907	6.6506	0.36364	5.e-002	9.738e-005
20908	6.9275	0.36364	0.	-0.11119
20909	6.8352	0.27273	0.	-3.4136e-002
20910	6.8352	0.36364	5.e-002	1.7954e-004
20911	7.112	0.36364	0.	-0.14186
20912	7.0198	0.27273	0.	-4.1694e-002
20913	7.0198	0.36364	5.e-002	5.3365e-005
20914	7.2966	0.36364	0.	-0.3451
20915	7.2043	0.27273	0.	-6.8061e-002
20916	7.2043	0.36364	5.e-002	2.9928e-005
20917	7.4812	0.36364	0.	-2.301
20918	7.3889	0.27273	0.	-0.17528
20919	7.3889	0.36364	5.e-002	1.5141e-005
20920	7.6657	0.36364	0.	-5.0359
20921	7.5735	0.27273	0.	-1.0352
20922	7.5735	0.36364	5.e-002	1.1035e-005
20923	7.8503	0.36364	0.	-7.0726
20924	7.758	0.27273	0.	-2.7186
20925	7.758	0.36364	5.e-002	7.7965e-006
20926	8.0349	0.36364	0.	-8.4445
20927	7.9426	0.27273	0.	-3.9873
20928	7.9426	0.36364	5.e-002	8.1322e-006
20929	8.2194	0.36364	0.	-9.258
20930	8.1272	0.27273	0.	-4.7891
20931	8.1272	0.36364	5.e-002	7.3525e-006
20932	8.404	0.36364	0.	-9.6152
20933	8.3117	0.27273	0.	-5.1957
20934	8.3117	0.36364	5.e-002	7.4216e-006
20935	8.5886	0.36364	0.	-9.6061
20936	8.4963	0.27273	0.	-5.2803
20937	8.4963	0.36364	5.e-002	8.1607e-006
20938	8.7731	0.36364	0.	-9.308
20939	8.6809	0.27273	0.	-5.108
20940	8.6809	0.36364	5.e-002	6.9188e-006
20941	8.9577	0.36364	0.	-8.7864
20942	8.8654	0.27273	0.	-4.7346
20943	8.8654	0.36364	5.e-002	5.4539e-006
20944	9.1423	0.36364	0.	-8.0958
20945	9.05	0.27273	0.	-4.2075
20946	9.05	0.36364	5.e-002	5.6035e-006
20947	9.3269	0.36364	0.	-7.2814
20948	9.2346	0.27273	0.	-3.5661
20949	9.2346	0.36364	5.e-002	5.8702e-006
20950	9.5114	0.36364	0.	-6.3803
20951	9.4191	0.27273	0.	-2.8438
20952	9.4191	0.36364	5.e-002	5.7535e-006
20953	9.696	0.36364	0.	-5.4224
20954	9.6037	0.27273	0.	-2.0696
20955	9.6037	0.36364	5.e-002	4.89e-006
20956	9.8806	0.36364	0.	-4.4316
20957	9.7883	0.27273	0.	-1.2736
20958	9.7883	0.36364	5.e-002	3.8788e-006
20959	10.065	0.36364	0.	-3.4269
20960	9.9728	0.27273	0.	-0.52398
20961	9.9728	0.36364	5.e-002	4.155e-006
20962	10.25	0.36364	0.	-2.4235
20963	10.157	0.27273	0.	-0.11888
20964	10.157	0.36364	5.e-002	4.0765e-006
20965	10.434	0.36364	0.	-1.4331
20966	10.342	0.27273	0.	-3.9699e-002
20967	10.342	0.36364	5.e-002	3.6625e-006
20968	10.619	0.36364	0.	-0.47016
20969	10.527	0.27273	0.	-1.7893e-002
20970	10.527	0.36364	5.e-002	2.6382e-006
20971	10.803	0.36364	0.	5.6434e-003
20972	10.711	0.27273	0.	-8.8536e-003
20973	10.711	0.36364	5.e-002	3.6501e-006
20974	10.988	0.36364	0.	1.2072e-002
20975	10.896	0.27273	0.	-4.4267e-003
20976	10.896	0.36364	5.e-002	4.1846e-006
20977	11.173	0.36364	0.	1.1825e-002
20978	11.08	0.27273	0.	-2.0999e-003
20979	11.08	0.36364	5.e-002	4.0233e-006
20980	11.357	0.36364	0.	1.0703e-002
20981	11.265	0.27273	0.	-8.3816e-004
20982	11.265	0.36364	5.e-002	3.5072e-006
20983	11.542	0.36364	0.	9.342e-003
20984	11.449	0.27273	0.	-2.0782e-004
20985	11.449	0.36364	5.e-002	1.9241e-006
20986	11.726	0.36364	0.	7.9427e-003
20987	11.634	0.27273	0.	1.2609e-005
20988	11.634	0.36364	5.e-002	2.3884e-006
20989	11.911	0.36364	0.	6.5872e-003
20990	11.819	0.27273	0.	3.6135e-005
20991	11.819	0.36364	5.e-002	2.9109e-006
20992	12.095	0.36364	0.	5.2878e-003
20993	12.003	0.27273	0.	-8.5811e-005
20994	12.003	0.36364	5.e-002	2.7804e-006
20995	12.28	0.36364	0.	4.0501e-003
20996	12.188	0.27273	0.	-2.9789e-004
20997	12.188	0.36364	5.e-002	4.7096e-006
20998	12.465	0.36364	0.	2.8619e-003
20999	12.372	0.27273	0.	-5.7188e-004
21000	12.372	0.36364	5.e-002	3.5677e-006
21001	12.649	0.36364	0.	1.7422e-003
21002	12.557	0.27273	0.	-9.0974e-004
21003	12.557	0.36364	5.e-002	4.0573e-006
21004	12.834	0.36364	0.	7.0854e-004
21005	12.741	0.27273	0.	-1.2334e-003
21006	12.741	0.36364	5.e-002	3.7054e-006
21007	13.018	0.36364	0.	-2.6605e-004
21008	12.926	0.27273	0.	-1.5582e-003
21009	12.926	0.36364	5.e-002	1.0864e-006
21010	13.203	0.36364	0.	-1.1934e-003
21011	13.11	0.27273	0.	-1.8949e-003
21012	13.11	0.36364	5.e-002	1.0211e-007
21013	13.387	0.36364	0.	-2.0668e-003
21014	13.295	0.27273	0.	-2.2382e-003
21015	13.295	0.36364	5.e-002	2.8567e-006
21016	13.572	0.36364	0.	-2.8719e-003
21017	13.48	0.27273	0.	-2.5651e-003
21018	13.48	0.36364	5.e-002	4.1553e-006
21019	13.756	0.36364	0.	-3.6305e-003
21020	13.664	0.27273	0.	-2.8579e-003
21021	13.664	0.36364	5.e-002	4.0634e-006
21022	13.941	0.36364	0.	-4.3652e-003
21023	13.849	0.27273	0.	-3.1656e-003
21024	13.849	0.36364	5.e-002	3.6335e-006
21025	14.126	0.36364	0.	-5.0553e-003
21026	14.033	0.27273	0.	-3.474e-003
21027	14.033	0.36364	5.e-002	5.1609e-006
21028	14.31	0.36364	0.	-5.7027e-003
21029	14.218	0.27273	0.	-3.7485e-003
21030	14.218	0.36364	5.e-002	3.4969e-006
21031	14.495	0.36364	0.	-6.3363e-003
21032	14.402	0.27273	0.	-4.0216e-003
21033	14.402	0.36364	5.e-002	2.0356e-006
21034	14.679	0.36364	0.	-6.9439e-003
21035	14.587	0.27273	0.	-4.3109e-003
21036	14.587	0.36364	5.e-002	2.2609e-006
21037	14.864	0.36364	0.	-7.5148e-003
21038	14.772	0.27273	0.	-4.5676e-003
21039	14.772	0.36364	5.e-002	2.885e-006
21040	15.048	0.36364	0.	-8.0687e-003
21041	14.956	0.27273	0.	-4.8152e-003
21042	14.956	0.36364	5.e-002	5.7593e-007
21043	15.233	0.36364	0.	-8.6138e-003
21044	15.141	0.27273	0.	-5.0641e-003
21045	15.141	0.36364	5.e-002	-4.4799e-007
21046	15.418	0.36364	0.	-9.1487e-003
21047	15.325	0.27273	0.	-5.3171e-003
21048	15.325	0.36364	5.e-002	1.3302e-006
21049	15.602	0.36364	0.	-9.6629e-003
21050	15.51	0.27273	0.	-5.5646e-003
21051	15.51	0.36364	5.e-002	4.6897e-007
21052	15.787	0.36364	0.	-1.0172e-002
21053	15.694	0.27273	0.	-5.7927e-003
21054	15.694	0.36364	5.e-002	2.5178e-006
21055	15.971	0.36364	0.	-1.0693e-002
21056	15.879	0.27273	0.	-6.0381e-003
21057	15.879	0.36364	5.e-002	2.8397e-006
21058	16.156	0.36364	0.	-1.1209e-002
21059	16.064	0.27273	0.	-6.2949e-003
21060	16.064	0.36364	5.e-002	3.3487e-006
21061	16.34	0.36364	0.	-1.1726e-002
21062	16.248	0.27273	0.	-6.5391e-003
21063	16.248	0.36364	5.e-002	4.1077e-006
21064	16.525	0.36364	0.	-1.2264e-002
21065	16.433	0.27273	0.	-6.7973e-003
21066	16.433	0.36364	5.e-002	6.1121e-006
21067	16.71	0.36364	0.	-1.2812e-002
21068	16.617	0.27273	0.	-7.0793e-003
21069	16.617	0.36364	5.e-002	7.5717e-006
21070	16.894	0.36364	0.	-1.3367e-002
21071	16.802	0.27273	0.	-7.3542e-003
21072	16.802	0.36364	5.e-002	6.9031e-006
21073	17.079	0.36364	0.	-1.394e-002
21074	16.986	0.27273	0.	-7.6403e-003
21075	16.986	0.36364	5.e-002	7.2158e-006
21076	17.263	0.36364	0.	-1.4539e-002
21077	17.171	0.27273	0.	-7.9407e-003
21078	17.171	0.36364	5.e-002	8.6243e-006
21079	17.448	0.36364	0.	-1.5175e-002
21080	17.356	0.27273	0.	-8.2634e-003
21081	17.356	0.36364	5.e-002	4.7866e-006
21082	17.632	0.36364	0.	-1.5842e-002
21083	17.54	0.27273	0.	-8.6223e-003
21084	17.54	0.36364	5.e-002	2.4504e-006
21085	17.817	0.36364	0.	-1.6535e-002
21086	17.725	0.27273	0.	-8.9869e-003
21087	17.725	0.36364	5.e-002	3.8203e-006
21088	18.002	0.36364	0.	-1.7271e-002
21089	17.909	0.27273	0.	-9.3776e-003
21090	17.909	0.36364	5.e-002	4.2375e-006
21091	18.186	0.36364	0.	-1.8059e-002
21092	18.094	0.27273	0.	-9.8038e-003
21093	18.094	0.36364	5.e-002	8.6989e-006
21094	18.371	0.36364	0.	-1.89e-002
21095	18.278	0.27273	0.	-1.0272e-002
21096	18.278	0.36364	5.e-002	6.7178e-006
21097	18.555	0.36364	0.	-1.979e-002
21098	18.463	0.27273	0.	-1.0775e-002
21099	18.463	0.36364	5.e-002	6.45e-006
21100	18.74	0.36364	0.	-2.0743e-002
21101	18.648	0.27273	0.	-1.131e-002
21102	18.648	0.36364	5.e-002	5.3755e-006
21103	18.924	0.36364	0.	-2.1777e-002
21104	18.832	0.27273	0.	-1.1909e-002
21105	18.832	0.36364	5.e-002	4.0137e-006
21106	19.109	0.36364	0.	-2.2886e-002
21107	19.017	0.27273	0.	-1.257e-002
21108	19.017	0.36364	5.e-002	2.528e-006
21109	19.294	0.36364	0.	-2.408e-002
21110	19.201	0.27273	0.	-1.3284e-002
21111	19.201	0.36364	5.e-002	6.3525e-006
21112	19.478	0.36364	0.	-2.5373e-002
21113	19.386	0.27273	0.	-1.4079e-002
21114	19.386	0.36364	5.e-002	4.1489e-006
21115	19.663	0.36364	0.	-2.6772e-002
21116	19.57	0.27273	0.	-1.4962e-002
21117	19.57	0.36364	5.e-002	6.3467e-006
21118	19.847	0.36364	0.	-2.8283e-002
21119	19.755	0.27273	0.	-1.5934e-002
21120	19.755	0.36364	5.e-002	4.9386e-006
21121	20.032	0.36364	0.	-2.9917e-002
21122	19.94	0.27273	0.	-1.7006e-002
21123	19.94	0.36364	5.e-002	3.3872e-006
21124	20.216	0.36364	0.	-3.1697e-002
21125	20.124	0.27273	0.	-1.8206e-002
21126	20.124	0.36364	5.e-002	3.5589e-006
21127	20.401	0.36364	0.	-3.3631e-002
21128	20.309	0.27273	0.	-1.9542e-002
21129	20.309	0.36364	5.e-002	6.9726e-006
21130	20.585	0.36364	0.	-3.5728e-002
21131	20.493	0.27273	0.	-2.1037e-002
21132	20.493	0.36364	5.e-002	5.9899e-006
21133	20.77	0.36364	0.	-3.8009e-002
21134	20.678	0.27273	0.	-2.2702e-002
21135	20.678	0.36364	5.e-002	3.3288e-006
21136	20.955	0.36364	0.	-4.0497e-002
21137	20.862	0.27273	0.	-2.4582e-002
21138	20.862	0.36364	5.e-002	1.4209e-006
21139	21.139	0.36364	0.	-4.3209e-002
21140	21.047	0.27273	0.	-2.6702e-002
21141	21.047	0.36364	5.e-002	-1.6517e-006
21142	21.324	0.36364	0.	-4.6162e-002
21143	21.231	0.27273	0.	-2.909e-002
21144	21.231	0.36364	5.e-002	-3.022e-006
21145	21.508	0.36364	0.	-4.9386e-002
21146	21.416	0.27273	0.	-3.1798e-002
21147	21.416	0.36364	5.e-002	4.315e-006
21148	21.693	0.36364	0.	-5.2899e-002
21149	21.601	0.27273	0.	-3.4888e-002
21150	21.601	0.36364	5.e-002	2.1067e-006
21151	21.877	0.36364	0.	-5.6717e-002
21152	21.785	0.27273	0.	-3.8408e-002
21153	21.785	0.36364	5.e-002	1.0262e-005
21154	22.062	0.36364	0.	-6.086e-002
21155	21.97	0.27273	0.	-4.2442e-002
21156	21.97	0.36364	5.e-002	9.4153e-006
21157	22.247	0.36364	0.	-6.5331e-002
21158	22.154	0.27273	0.	-4.7086e-002
21159	22.154	0.36364	5.e-002	1.2011e-005
21160	22.431	0.36364	0.	-7.0091e-002
21161	22.339	0.27273	0.	-5.2455e-002
21162	22.339	0.36364	5.e-002	8.3685e-006
21163	22.616	0.36364	0.	-7.5096e-002
21164	22.523	0.27273	0.	-5.8651e-002
21165	22.523	0.36364	5.e-002	7.3694e-006
21166	22.8	0.36364	0.	-7.9927e-002
21167	22.708	0.27273	0.	-6.5918e-002
21168	22.708	0.36364	5.e-002	2.8645e-006
21169	22.985	0.36364	0.	-8.4836e-002
21170	22.893	0.27273	0.	-7.3909e-002
21171	22.893	0.36364	5.e-002	-1.1135e-006
21172	23.169	0.36364	0.	-8.58e-002
21173	23.077	0.27273	0.	-8.438e-002
21174	23.077	0.36364	5.e-002	-3.865e-006
21175	23.354	0.36364	0.	-9.1433e-002
21176	23.262	0.27273	0.	-9.0032e-002
21177	23.262	0.36364	5.e-002	6.6826e-006
21178	23.539	0.36364	0.	-5.108e-002
21179	23.446	0.27273	0.	-0.11522
21180	23.446	0.36364	5.e-002	5.4538e-006
21181	23.723	0.36364	0.	-0.16335
21182	23.631	0.27273	0.	-5.4873e-002
21183	23.631	0.36364	5.e-002	1.3536e-005
21184	23.815	0.27273	0.	-0.38622
21185	23.815	0.36364	5.e-002	-1.104e-006
21186	23.908	0.36364	0.	0.15983
21187	4.3435	0.18182	0.	-19.881
21188	4.2512	0.18182	5.e-002	-2.8972e-006
21189	4.2512	9.0909e-002	0.	-17.038
21190	4.159	0.18182	0.	0.34393
21191	4.5281	0.18182	0.	-5.9254
21192	4.4358	0.18182	5.e-002	-5.0179e-006
21193	4.4358	9.0909e-002	0.	-0.99226
21194	4.7127	0.18182	0.	-2.2975
21195	4.6204	0.18182	5.e-002	3.7645e-006
21196	4.6204	9.0909e-002	0.	-0.64135
21197	4.8972	0.18182	0.	-0.49304
21198	4.8049	0.18182	5.e-002	4.9828e-006
21199	4.8049	9.0909e-002	0.	0.10744
21200	5.0818	0.18182	0.	7.168e-002
21201	4.9895	0.18182	5.e-002	4.2734e-006
21202	4.9895	9.0909e-002	0.	5.334e-002
21203	5.2664	0.18182	0.	0.24661
21204	5.1741	0.18182	5.e-002	2.3151e-006
21205	5.1741	9.0909e-002	0.	5.1083e-002
21206	5.4509	0.18182	0.	0.24661
21207	5.3586	0.18182	5.e-002	3.206e-007
21208	5.3586	9.0909e-002	0.	1.8431e-002
21209	5.6355	0.18182	0.	0.19726
21210	5.5432	0.18182	5.e-002	-2.2969e-006
21211	5.5432	9.0909e-002	0.	4.0864e-003
21212	5.8201	0.18182	0.	0.14175
21213	5.7278	0.18182	5.e-002	-3.8699e-006
21214	5.7278	9.0909e-002	0.	-1.0066e-003
21215	6.0046	0.18182	0.	9.6675e-002
21216	5.9123	0.18182	5.e-002	-3.5129e-006
21217	5.9123	9.0909e-002	0.	2.2424e-003
21218	6.1892	0.18182	0.	6.4685e-002
21219	6.0969	0.18182	5.e-002	-3.9212e-006
21220	6.0969	9.0909e-002	0.	1.0182e-002
21221	6.3738	0.18182	0.	4.3735e-002
21222	6.2815	0.18182	5.e-002	-1.8286e-006
21223	6.2815	9.0909e-002	0.	2.0573e-002
21224	6.5583	0.18182	0.	3.033e-002
21225	6.466	0.18182	5.e-002	-1.7405e-006
21226	6.466	9.0909e-002	0.	3.1721e-002
21227	6.7429	0.18182	0.	2.0975e-002
21228	6.6506	0.18182	5.e-002	-1.3189e-006
21229	6.6506	9.0909e-002	0.	4.2536e-002
21230	6.9275	0.18182	0.	1.2414e-002
21231	6.8352	0.18182	5.e-002	-4.1761e-007
21232	6.8352	9.0909e-002	0.	5.229e-002
21233	7.112	0.18182	0.	1.2177e-003
21234	7.0198	0.18182	5.e-002	6.5248e-007
21235	7.0198	9.0909e-002	0.	6.0423e-002
21236	7.2966	0.18182	0.	-1.7522e-002
21237	7.2043	0.18182	5.e-002	8.7885e-006
21238	7.2043	9.0909e-002	0.	6.6289e-002
21239	7.4812	0.18182	0.	-5.3787e-002
21240	7.3889	0.18182	5.e-002	8.4902e-005
21241	7.3889	9.0909e-002	0.	6.872e-002
21242	7.6657	0.18182	0.	-0.13413
21243	7.5735	0.18182	5.e-002	1.747e-004
21244	7.5735	9.0909e-002	0.	6.5129e-002
21245	7.8503	0.18182	0.	-0.32782
21246	7.758	0.18182	5.e-002	1.1049e-004
21247	7.758	9.0909e-002	0.	4.9516e-002
21248	8.0349	0.18182	0.	-0.66166
21249	7.9426	0.18182	5.e-002	6.2157e-005
21250	7.9426	9.0909e-002	0.	1.0741e-002
21251	8.2194	0.18182	0.	-0.94323
21252	8.1272	0.18182	5.e-002	5.8285e-005
21253	8.1272	9.0909e-002	0.	-5.3918e-002
21254	8.404	0.18182	0.	-1.0514
21255	8.3117	0.18182	5.e-002	4.5108e-005
21256	8.3117	9.0909e-002	0.	-0.1122
21257	8.5886	0.18182	0.	-0.9907
21258	8.4963	0.18182	5.e-002	4.744e-005
21259	8.4963	9.0909e-002	0.	-0.13386
21260	8.7731	0.18182	0.	-0.80647
21261	8.6809	0.18182	5.e-002	5.2765e-005
21262	8.6809	9.0909e-002	0.	-0.12356
21263	8.9577	0.18182	0.	-0.56683
21264	8.8654	0.18182	5.e-002	4.6365e-005
21265	8.8654	9.0909e-002	0.	-9.9699e-002
21266	9.1423	0.18182	0.	-0.35467
21267	9.05	0.18182	5.e-002	4.7982e-005
21268	9.05	9.0909e-002	0.	-7.5477e-002
21269	9.3269	0.18182	0.	-0.21689
21270	9.2346	0.18182	5.e-002	3.4475e-005
21271	9.2346	9.0909e-002	0.	-5.5759e-002
21272	9.5114	0.18182	0.	-0.13925
21273	9.4191	0.18182	5.e-002	4.8506e-005
21274	9.4191	9.0909e-002	0.	-4.0933e-002
21275	9.696	0.18182	0.	-9.4945e-002
21276	9.6037	0.18182	5.e-002	4.2581e-005
21277	9.6037	9.0909e-002	0.	-3.0064e-002
21278	9.8806	0.18182	0.	-6.8041e-002
21279	9.7883	0.18182	5.e-002	3.5703e-005
21280	9.7883	9.0909e-002	0.	-2.2131e-002
21281	10.065	0.18182	0.	-5.0661e-002
21282	9.9728	0.18182	5.e-002	3.7533e-005
21283	9.9728	9.0909e-002	0.	-1.6318e-002
21284	10.25	0.18182	0.	-3.8864e-002
21285	10.157	0.18182	5.e-002	3.1959e-005
21286	10.157	9.0909e-002	0.	-1.2035e-002
21287	10.434	0.18182	0.	-3.0535e-002
21288	10.342	0.18182	5.e-002	4.357e-005
21289	10.342	9.0909e-002	0.	-8.8925e-003
21290	10.619	0.18182	0.	-2.444e-002
21291	10.527	0.18182	5.e-002	3.6086e-005
21292	10.527	9.0909e-002	0.	-6.5712e-003
21293	10.803	0.18182	0.	-1.9873e-002
21294	10.711	0.18182	5.e-002	4.9787e-005
21295	10.711	9.0909e-002	0.	-4.8283e-003
21296	10.988	0.18182	0.	-1.64e-002
21297	10.896	0.18182	5.e-002	3.612e-005
21298	10.896	9.0909e-002	0.	-3.5821e-003
21299	11.173	0.18182	0.	-1.369e-002
21300	11.08	0.18182	5.e-002	3.8315e-005
21301	11.08	9.0909e-002	0.	-2.6928e-003
21302	11.357	0.18182	0.	-1.1534e-002
21303	11.265	0.18182	5.e-002	3.3545e-005
21304	11.265	9.0909e-002	0.	-2.0504e-003
21305	11.542	0.18182	0.	-9.8245e-003
21306	11.449	0.18182	5.e-002	3.5017e-005
21307	11.449	9.0909e-002	0.	-1.6188e-003
21308	11.726	0.18182	0.	-8.4375e-003
21309	11.634	0.18182	5.e-002	3.3925e-005
21310	11.634	9.0909e-002	0.	-1.3335e-003
21311	11.911	0.18182	0.	-7.281e-003
21312	11.819	0.18182	5.e-002	2.8611e-005
21313	11.819	9.0909e-002	0.	-1.1732e-003
21314	12.095	0.18182	0.	-6.3198e-003
21315	12.003	0.18182	5.e-002	3.6711e-005
21316	12.003	9.0909e-002	0.	-1.0975e-003
21317	12.28	0.18182	0.	-5.5135e-003
21318	12.188	0.18182	5.e-002	3.7721e-005
21319	12.188	9.0909e-002	0.	-1.0796e-003
21320	12.465	0.18182	0.	-4.8477e-003
21321	12.372	0.18182	5.e-002	2.7617e-005
21322	12.372	9.0909e-002	0.	-1.1192e-003
21323	12.649	0.18182	0.	-4.28e-003
21324	12.557	0.18182	5.e-002	2.9518e-005
21325	12.557	9.0909e-002	0.	-1.2207e-003
21326	12.834	0.18182	0.	-3.775e-003
21327	12.741	0.18182	5.e-002	3.5638e-005
21328	12.741	9.0909e-002	0.	-1.3282e-003
21329	13.018	0.18182	0.	-3.338e-003
21330	12.926	0.18182	5.e-002	2.1447e-005
21331	12.926	9.0909e-002	0.	-1.4468e-003
21332	13.203	0.18182	0.	-2.9666e-003
21333	13.11	0.18182	5.e-002	2.1094e-005
21334	13.11	9.0909e-002	0.	-1.5865e-003
21335	13.387	0.18182	0.	-2.6411e-003
21336	13.295	0.18182	5.e-002	1.4787e-005
21337	13.295	9.0909e-002	0.	-1.7449e-003
21338	13.572	0.18182	0.	-2.3367e-003
21339	13.48	0.18182	5.e-002	5.2486e-006
21340	13.48	9.0909e-002	0.	-1.9032e-003
21341	13.756	0.18182	0.	-2.0638e-003
21342	13.664	0.18182	5.e-002	1.1947e-004
21343	13.664	9.0909e-002	0.	-2.0399e-003
21344	13.941	0.18182	0.	-1.8347e-003
21345	13.849	0.18182	5.e-002	8.0047e-005
21346	13.849	9.0909e-002	0.	-2.2015e-003
21347	14.126	0.18182	0.	-1.6214e-003
21348	14.033	0.18182	5.e-002	6.7922e-005
21349	14.033	9.0909e-002	0.	-2.3693e-003
21350	14.31	0.18182	0.	-1.4196e-003
21351	14.218	0.18182	5.e-002	6.3304e-005
21352	14.218	9.0909e-002	0.	-2.5153e-003
21353	14.495	0.18182	0.	-1.2503e-003
21354	14.402	0.18182	5.e-002	6.1448e-005
21355	14.402	9.0909e-002	0.	-2.6661e-003
21356	14.679	0.18182	0.	-1.0942e-003
21357	14.587	0.18182	5.e-002	5.9389e-005
21358	14.587	9.0909e-002	0.	-2.8376e-003
21359	14.864	0.18182	0.	-9.3597e-004
21360	14.772	0.18182	5.e-002	6.2524e-005
21361	14.772	9.0909e-002	0.	-2.9827e-003
21362	15.048	0.18182	0.	-7.8943e-004
21363	14.956	0.18182	5.e-002	6.3159e-005
21364	14.956	9.0909e-002	0.	-3.1199e-003
21365	15.233	0.18182	0.	-6.5922e-004
21366	15.141	0.18182	5.e-002	6.1883e-005
21367	15.141	9.0909e-002	0.	-3.2622e-003
21368	15.418	0.18182	0.	-5.3913e-004
21369	15.325	0.18182	5.e-002	5.3561e-005
21370	15.325	9.0909e-002	0.	-3.4086e-003
21371	15.602	0.18182	0.	-4.1567e-004
21372	15.51	0.18182	5.e-002	5.6631e-005
21373	15.51	9.0909e-002	0.	-3.5502e-003
21374	15.787	0.18182	0.	-2.9613e-004
21375	15.694	0.18182	5.e-002	5.2948e-005
21376	15.694	9.0909e-002	0.	-3.6722e-003
21377	15.971	0.18182	0.	-1.9307e-004
21378	15.879	0.18182	5.e-002	4.9473e-005
21379	15.879	9.0909e-002	0.	-3.8081e-003
21380	16.156	0.18182	0.	-9.2022e-005
21381	16.064	0.18182	5.e-002	7.0358e-005
21382	16.064	9.0909e-002	0.	-3.9517e-003
21383	16.34	0.18182	0.	8.7353e-006
21384	16.248	0.18182	5.e-002	5.4887e-005
21385	16.248	9.0909e-002	0.	-4.0779e-003
21386	16.525	0.18182	0.	9.5165e-005
21387	16.433	0.18182	5.e-002	7.0758e-005
21388	16.433	9.0909e-002	0.	-4.2114e-003
21389	16.71	0.18182	0.	1.7823e-004
21390	16.617	0.18182	5.e-002	8.5192e-005
21391	16.617	9.0909e-002	0.	-4.3616e-003
21392	16.894	0.18182	0.	2.6627e-004
21393	16.802	0.18182	5.e-002	1.0029e-004
21394	16.802	9.0909e-002	0.	-4.4968e-003
21395	17.079	0.18182	0.	3.5152e-004
21396	16.986	0.18182	5.e-002	9.2711e-005
21397	16.986	9.0909e-002	0.	-4.6322e-003
21398	17.263	0.18182	0.	4.3014e-004
21399	17.171	0.18182	5.e-002	5.7029e-005
21400	17.171	9.0909e-002	0.	-4.7715e-003
21401	17.448	0.18182	0.	4.9334e-004
21402	17.356	0.18182	5.e-002	6.0434e-005
21403	17.356	9.0909e-002	0.	-4.9158e-003
21404	17.632	0.18182	0.	5.5186e-004
21405	17.54	0.18182	5.e-002	6.0125e-005
21406	17.54	9.0909e-002	0.	-5.0823e-003
21407	17.817	0.18182	0.	6.1187e-004
21408	17.725	0.18182	5.e-002	6.1601e-005
21409	17.725	9.0909e-002	0.	-5.2316e-003
21410	18.002	0.18182	0.	6.6122e-004
21411	17.909	0.18182	5.e-002	6.105e-005
21412	17.909	9.0909e-002	0.	-5.3899e-003
21413	18.186	0.18182	0.	6.9501e-004
21414	18.094	0.18182	5.e-002	5.976e-005
21415	18.094	9.0909e-002	0.	-5.5546e-003
21416	18.371	0.18182	0.	7.1487e-004
21417	18.278	0.18182	5.e-002	5.8371e-005
21418	18.278	9.0909e-002	0.	-5.7331e-003
21419	18.555	0.18182	0.	7.2838e-004
21420	18.463	0.18182	5.e-002	5.5157e-005
21421	18.463	9.0909e-002	0.	-5.9135e-003
21422	18.74	0.18182	0.	7.2226e-004
21423	18.648	0.18182	5.e-002	5.3343e-005
21424	18.648	9.0909e-002	0.	-6.0914e-003
21425	18.924	0.18182	0.	6.845e-004
21426	18.832	0.18182	5.e-002	3.8545e-005
21427	18.832	9.0909e-002	0.	-6.2839e-003
21428	19.109	0.18182	0.	6.2316e-004
21429	19.017	0.18182	5.e-002	3.4536e-005
21430	19.017	9.0909e-002	0.	-6.4909e-003
21431	19.294	0.18182	0.	5.3085e-004
21432	19.201	0.18182	5.e-002	3.8624e-005
21433	19.201	9.0909e-002	0.	-6.6914e-003
21434	19.478	0.18182	0.	3.8878e-004
21435	19.386	0.18182	5.e-002	2.4706e-005
21436	19.386	9.0909e-002	0.	-6.8998e-003
21437	19.663	0.18182	0.	1.9772e-004
21438	19.57	0.18182	5.e-002	1.7064e-005
21439	19.57	9.0909e-002	0.	-7.128e-003
21440	19.847	0.18182	0.	-4.711e-005
21441	19.755	0.18182	5.e-002	1.2718e-005
21442	19.755	9.0909e-002	0.	-7.3419e-003
21443	20.032	0.18182	0.	-3.6894e-004
21444	19.94	0.18182	5.e-002	1.3262e-005
21445	19.94	9.0909e-002	0.	-7.564e-003
21446	20.216	0.18182	0.	-7.8016e-004
21447	20.124	0.18182	5.e-002	1.2757e-005
21448	20.124	9.0909e-002	0.	-7.7804e-003
21449	20.401	0.18182	0.	-1.2986e-003
21450	20.309	0.18182	5.e-002	1.5124e-005
21451	20.309	9.0909e-002	0.	-7.9922e-003
21452	20.585	0.18182	0.	-1.9462e-003
21453	20.493	0.18182	5.e-002	8.6032e-006
21454	20.493	9.0909e-002	0.	-8.1938e-003
21455	20.77	0.18182	0.	-2.7525e-003
21456	20.678	0.18182	5.e-002	4.2368e-006
21457	20.678	9.0909e-002	0.	-8.3631e-003
21458	20.955	0.18182	0.	-3.7607e-003
21459	20.862	0.18182	5.e-002	3.4148e-006
21460	20.862	9.0909e-002	0.	-8.5083e-003
21461	21.139	0.18182	0.	-5.0042e-003
21462	21.047	0.18182	5.e-002	8.7292e-006
21463	21.047	9.0909e-002	0.	-8.611e-003
21464	21.324	0.18182	0.	-6.5368e-003
21465	21.231	0.18182	5.e-002	7.0014e-006
21466	21.231	9.0909e-002	0.	-8.6371e-003
21467	21.508	0.18182	0.	-8.4389e-003
21468	21.416	0.18182	5.e-002	8.064e-006
21469	21.416	9.0909e-002	0.	-8.5712e-003
21470	21.693	0.18182	0.	-1.0795e-002
21471	21.601	0.18182	5.e-002	4.8998e-006
21472	21.601	9.0909e-002	0.	-8.376e-003
21473	21.877	0.18182	0.	-1.3716e-002
21474	21.785	0.18182	5.e-002	7.4115e-006
21475	21.785	9.0909e-002	0.	-7.9935e-003
21476	22.062	0.18182	0.	-1.7359e-002
21477	21.97	0.18182	5.e-002	4.108e-006
21478	21.97	9.0909e-002	0.	-7.3419e-003
21479	22.247	0.18182	0.	-2.1933e-002
21480	22.154	0.18182	5.e-002	9.0188e-006
21481	22.154	9.0909e-002	0.	-6.3111e-003
21482	22.431	0.18182	0.	-2.7708e-002
21483	22.339	0.18182	5.e-002	6.9635e-006
21484	22.339	9.0909e-002	0.	-4.7464e-003
21485	22.616	0.18182	0.	-3.5109e-002
21486	22.523	0.18182	5.e-002	8.5257e-006
21487	22.523	9.0909e-002	0.	-2.3426e-003
21488	22.8	0.18182	0.	-4.4545e-002
21489	22.708	0.18182	5.e-002	8.4111e-006
21490	22.708	9.0909e-002	0.	1.237e-003
21491	22.985	0.18182	0.	-5.7402e-002
21492	22.893	0.18182	5.e-002	1.7023e-006
21493	22.893	9.0909e-002	0.	7.0963e-003
21494	23.169	0.18182	0.	-7.2735e-002
21495	23.077	0.18182	5.e-002	-1.4044e-006
21496	23.077	9.0909e-002	0.	1.5245e-002
21497	23.354	0.18182	0.	-0.1005
21498	23.262	0.18182	5.e-002	1.2511e-005
21499	23.262	9.0909e-002	0.	3.3936e-002
21500	23.539	0.18182	0.	-0.11553
21501	23.446	0.18182	5.e-002	5.6299e-006
21502	23.446	9.0909e-002	0.	4.7403e-002
21503	23.723	0.18182	0.	-0.31067
21504	23.631	0.18182	5.e-002	5.3769e-006
21505	23.631	9.0909e-002	0.	0.14217
21506	23.815	0.18182	5.e-002	5.0444e-006
21507	23.815	9.0909e-002	0.	-7.407e-002
21508	23.908	0.18182	0.	-3.7976e-002
21509	23.723	0.18182	0.1	0.31067
21510	23.815	0.27273	0.1	0.38622
21511	23.908	0.18182	0.1	3.7978e-002
21512	23.815	9.0909e-002	0.1	7.4072e-002
21513	23.539	0.18182	0.1	0.11553
21514	23.631	0.27273	0.1	5.4873e-002
21515	23.631	9.0909e-002	0.1	-0.14217
21516	23.354	0.18182	0.1	0.1005
21517	23.446	0.27273	0.1	0.11522
21518	23.446	9.0909e-002	0.1	-4.7402e-002
21519	23.169	0.18182	0.1	7.2734e-002
21520	23.262	0.27273	0.1	9.0032e-002
21521	23.262	9.0909e-002	0.1	-3.3933e-002
21522	22.985	0.18182	0.1	5.7402e-002
21523	23.077	0.27273	0.1	8.4379e-002
21524	23.077	9.0909e-002	0.1	-1.525e-002
21525	22.8	0.18182	0.1	4.4545e-002
21526	22.893	0.27273	0.1	7.391e-002
21527	22.893	9.0909e-002	0.1	-7.093e-003
21528	22.616	0.18182	0.1	3.5109e-002
21529	22.708	0.27273	0.1	6.5917e-002
21530	22.708	9.0909e-002	0.1	-1.237e-003
21531	22.431	0.18182	0.1	2.7708e-002
21532	22.523	0.27273	0.1	5.8653e-002
21533	22.523	9.0909e-002	0.1	2.3427e-003
21534	22.247	0.18182	0.1	2.1933e-002
21535	22.339	0.27273	0.1	5.2456e-002
21536	22.339	9.0909e-002	0.1	4.7483e-003
21537	22.062	0.18182	0.1	1.7358e-002
21538	22.154	0.27273	0.1	4.7086e-002
21539	22.154	9.0909e-002	0.1	6.3133e-003
21540	21.877	0.18182	0.1	1.3716e-002
21541	21.97	0.27273	0.1	4.2442e-002
21542	21.97	9.0909e-002	0.1	7.3417e-003
21543	21.693	0.18182	0.1	1.0795e-002
21544	21.785	0.27273	0.1	3.8409e-002
21545	21.785	9.0909e-002	0.1	7.9957e-003
21546	21.508	0.18182	0.1	8.4393e-003
21547	21.601	0.27273	0.1	3.4888e-002
21548	21.601	9.0909e-002	0.1	8.3746e-003
21549	21.324	0.18182	0.1	6.5373e-003
21550	21.416	0.27273	0.1	3.18e-002
21551	21.416	9.0909e-002	0.1	8.5736e-003
21552	21.139	0.18182	0.1	5.0027e-003
21553	21.231	0.27273	0.1	2.909e-002
21554	21.231	9.0909e-002	0.1	8.6363e-003
21555	20.955	0.18182	0.1	3.7597e-003
21556	21.047	0.27273	0.1	2.6701e-002
21557	21.047	9.0909e-002	0.1	8.6099e-003
21558	20.77	0.18182	0.1	2.7529e-003
21559	20.862	0.27273	0.1	2.4583e-002
21560	20.862	9.0909e-002	0.1	8.5087e-003
21561	20.585	0.18182	0.1	1.9469e-003
21562	20.678	0.27273	0.1	2.2702e-002
21563	20.678	9.0909e-002	0.1	8.364e-003
21564	20.401	0.18182	0.1	1.2997e-003
21565	20.493	0.27273	0.1	2.1039e-002
21566	20.493	9.0909e-002	0.1	8.1947e-003
21567	20.216	0.18182	0.1	7.7886e-004
21568	20.309	0.27273	0.1	1.9543e-002
21569	20.309	9.0909e-002	0.1	7.9938e-003
21570	20.032	0.18182	0.1	3.6661e-004
21571	20.124	0.27273	0.1	1.8204e-002
21572	20.124	9.0909e-002	0.1	7.7809e-003
21573	19.847	0.18182	0.1	4.6562e-005
21574	19.94	0.27273	0.1	1.7007e-002
21575	19.94	9.0909e-002	0.1	7.5612e-003
21576	19.663	0.18182	0.1	-1.977e-004
21577	19.755	0.27273	0.1	1.5933e-002
21578	19.755	9.0909e-002	0.1	7.3438e-003
21579	19.478	0.18182	0.1	-3.8804e-004
21580	19.57	0.27273	0.1	1.4964e-002
21581	19.57	9.0909e-002	0.1	7.1289e-003
21582	19.294	0.18182	0.1	-5.2996e-004
21583	19.386	0.27273	0.1	1.4079e-002
21584	19.386	9.0909e-002	0.1	6.9007e-003
21585	19.109	0.18182	0.1	-6.2275e-004
21586	19.201	0.27273	0.1	1.3285e-002
21587	19.201	9.0909e-002	0.1	6.6941e-003
21588	18.924	0.18182	0.1	-6.8398e-004
21589	19.017	0.27273	0.1	1.2571e-002
21590	19.017	9.0909e-002	0.1	6.4898e-003
21591	18.74	0.18182	0.1	-7.2194e-004
21592	18.832	0.27273	0.1	1.191e-002
21593	18.832	9.0909e-002	0.1	6.2849e-003
21594	18.555	0.18182	0.1	-7.2866e-004
21595	18.648	0.27273	0.1	1.131e-002
21596	18.648	9.0909e-002	0.1	6.0905e-003
21597	18.371	0.18182	0.1	-7.1522e-004
21598	18.463	0.27273	0.1	1.0775e-002
21599	18.463	9.0909e-002	0.1	5.9146e-003
21600	18.186	0.18182	0.1	-6.9483e-004
21601	18.278	0.27273	0.1	1.0271e-002
21602	18.278	9.0909e-002	0.1	5.7325e-003
21603	18.002	0.18182	0.1	-6.6117e-004
21604	18.094	0.27273	0.1	9.8043e-003
21605	18.094	9.0909e-002	0.1	5.5566e-003
21606	17.817	0.18182	0.1	-6.1158e-004
21607	17.909	0.27273	0.1	9.3773e-003
21608	17.909	9.0909e-002	0.1	5.3896e-003
21609	17.632	0.18182	0.1	-5.5187e-004
21610	17.725	0.27273	0.1	8.9877e-003
21611	17.725	9.0909e-002	0.1	5.2334e-003
21612	17.448	0.18182	0.1	-4.9413e-004
21613	17.54	0.27273	0.1	8.621e-003
21614	17.54	9.0909e-002	0.1	5.0822e-003
21615	17.263	0.18182	0.1	-4.3023e-004
21616	17.356	0.27273	0.1	8.2626e-003
21617	17.356	9.0909e-002	0.1	4.9155e-003
21618	17.079	0.18182	0.1	-3.5156e-004
21619	17.171	0.27273	0.1	7.9417e-003
21620	17.171	9.0909e-002	0.1	4.7739e-003
21621	16.894	0.18182	0.1	-2.6648e-004
21622	16.986	0.27273	0.1	7.6407e-003
21623	16.986	9.0909e-002	0.1	4.6326e-003
21624	16.71	0.18182	0.1	-1.783e-004
21625	16.802	0.27273	0.1	7.3552e-003
21626	16.802	9.0909e-002	0.1	4.4975e-003
21627	16.525	0.18182	0.1	-9.5785e-005
21628	16.617	0.27273	0.1	7.0791e-003
21629	16.617	9.0909e-002	0.1	4.3631e-003
21630	16.34	0.18182	0.1	-9.1724e-006
21631	16.433	0.27273	0.1	6.7973e-003
21632	16.433	9.0909e-002	0.1	4.2106e-003
21633	16.156	0.18182	0.1	9.2304e-005
21634	16.248	0.27273	0.1	6.5396e-003
21635	16.248	9.0909e-002	0.1	4.0792e-003
21636	15.971	0.18182	0.1	1.9234e-004
21637	16.064	0.27273	0.1	6.2951e-003
21638	16.064	9.0909e-002	0.1	3.952e-003
21639	15.787	0.18182	0.1	2.9488e-004
21640	15.879	0.27273	0.1	6.0373e-003
21641	15.879	9.0909e-002	0.1	3.8085e-003
21642	15.602	0.18182	0.1	4.1523e-004
21643	15.694	0.27273	0.1	5.792e-003
21644	15.694	9.0909e-002	0.1	3.6715e-003
21645	15.418	0.18182	0.1	5.3882e-004
21646	15.51	0.27273	0.1	5.5647e-003
21647	15.51	9.0909e-002	0.1	3.5498e-003
21648	15.233	0.18182	0.1	6.5904e-004
21649	15.325	0.27273	0.1	5.3174e-003
21650	15.325	9.0909e-002	0.1	3.4095e-003
21651	15.048	0.18182	0.1	7.8932e-004
21652	15.141	0.27273	0.1	5.0636e-003
21653	15.141	9.0909e-002	0.1	3.2625e-003
21654	14.864	0.18182	0.1	9.3614e-004
21655	14.956	0.27273	0.1	4.8151e-003
21656	14.956	9.0909e-002	0.1	3.1198e-003
21657	14.679	0.18182	0.1	1.0942e-003
21658	14.772	0.27273	0.1	4.5682e-003
21659	14.772	9.0909e-002	0.1	2.9846e-003
21660	14.495	0.18182	0.1	1.2499e-003
21661	14.587	0.27273	0.1	4.3107e-003
21662	14.587	9.0909e-002	0.1	2.8377e-003
21663	14.31	0.18182	0.1	1.4195e-003
21664	14.402	0.27273	0.1	4.0222e-003
21665	14.402	9.0909e-002	0.1	2.6664e-003
21666	14.126	0.18182	0.1	1.6213e-003
21667	14.218	0.27273	0.1	3.7482e-003
21668	14.218	9.0909e-002	0.1	2.5158e-003
21669	13.941	0.18182	0.1	1.8345e-003
21670	14.033	0.27273	0.1	3.4745e-003
21671	14.033	9.0909e-002	0.1	2.37e-003
21672	13.756	0.18182	0.1	2.0636e-003
21673	13.849	0.27273	0.1	3.1654e-003
21674	13.849	9.0909e-002	0.1	2.2018e-003
21675	13.572	0.18182	0.1	2.3369e-003
21676	13.664	0.27273	0.1	2.8579e-003
21677	13.664	9.0909e-002	0.1	2.0401e-003
21678	13.387	0.18182	0.1	2.641e-003
21679	13.48	0.27273	0.1	2.5656e-003
21680	13.48	9.0909e-002	0.1	1.904e-003
21681	13.203	0.18182	0.1	2.9659e-003
21682	13.295	0.27273	0.1	2.2375e-003
21683	13.295	9.0909e-002	0.1	1.7452e-003
21684	13.018	0.18182	0.1	3.3375e-003
21685	13.11	0.27273	0.1	1.895e-003
21686	13.11	9.0909e-002	0.1	1.5857e-003
21687	12.834	0.18182	0.1	3.775e-003
21688	12.926	0.27273	0.1	1.5581e-003
21689	12.926	9.0909e-002	0.1	1.4465e-003
21690	12.649	0.18182	0.1	4.28e-003
21691	12.741	0.27273	0.1	1.2334e-003
21692	12.741	9.0909e-002	0.1	1.3288e-003
21693	12.465	0.18182	0.1	4.8472e-003
21694	12.557	0.27273	0.1	9.0967e-004
21695	12.557	9.0909e-002	0.1	1.2219e-003
21696	12.28	0.18182	0.1	5.5133e-003
21697	12.372	0.27273	0.1	5.7197e-004
21698	12.372	9.0909e-002	0.1	1.1186e-003
21699	12.095	0.18182	0.1	6.3196e-003
21700	12.188	0.27273	0.1	2.9784e-004
21701	12.188	9.0909e-002	0.1	1.0806e-003
21702	11.911	0.18182	0.1	7.2808e-003
21703	12.003	0.27273	0.1	8.5868e-005
21704	12.003	9.0909e-002	0.1	1.0974e-003
21705	11.726	0.18182	0.1	8.4375e-003
21706	11.819	0.27273	0.1	-3.6429e-005
21707	11.819	9.0909e-002	0.1	1.1731e-003
21708	11.542	0.18182	0.1	9.8247e-003
21709	11.634	0.27273	0.1	-1.2434e-005
21710	11.634	9.0909e-002	0.1	1.3342e-003
21711	11.357	0.18182	0.1	1.1534e-002
21712	11.449	0.27273	0.1	2.0821e-004
21713	11.449	9.0909e-002	0.1	1.6189e-003
21714	11.173	0.18182	0.1	1.369e-002
21715	11.265	0.27273	0.1	8.3839e-004
21716	11.265	9.0909e-002	0.1	2.0502e-003
21717	10.988	0.18182	0.1	1.64e-002
21718	11.08	0.27273	0.1	2.1e-003
21719	11.08	9.0909e-002	0.1	2.6939e-003
21720	10.803	0.18182	0.1	1.9873e-002
21721	10.896	0.27273	0.1	4.427e-003
21722	10.896	9.0909e-002	0.1	3.5825e-003
21723	10.619	0.18182	0.1	2.444e-002
21724	10.711	0.27273	0.1	8.854e-003
21725	10.711	9.0909e-002	0.1	4.8289e-003
21726	10.434	0.18182	0.1	3.0535e-002
21727	10.527	0.27273	0.1	1.7893e-002
21728	10.527	9.0909e-002	0.1	6.571e-003
21729	10.25	0.18182	0.1	3.8864e-002
21730	10.342	0.27273	0.1	3.9699e-002
21731	10.342	9.0909e-002	0.1	8.8933e-003
21732	10.065	0.18182	0.1	5.0661e-002
21733	10.157	0.27273	0.1	0.11888
21734	10.157	9.0909e-002	0.1	1.2035e-002
21735	9.8806	0.18182	0.1	6.8041e-002
21736	9.9728	0.27273	0.1	0.52398
21737	9.9728	9.0909e-002	0.1	1.6319e-002
21738	9.696	0.18182	0.1	9.4946e-002
21739	9.7883	0.27273	0.1	1.2736
21740	9.7883	9.0909e-002	0.1	2.2132e-002
21741	9.5114	0.18182	0.1	0.13925
21742	9.6037	0.27273	0.1	2.0696
21743	9.6037	9.0909e-002	0.1	3.0064e-002
21744	9.3269	0.18182	0.1	0.2169
21745	9.4191	0.27273	0.1	2.8438
21746	9.4191	9.0909e-002	0.1	4.0934e-002
21747	9.1423	0.18182	0.1	0.35468
21748	9.2346	0.27273	0.1	3.5661
21749	9.2346	9.0909e-002	0.1	5.5759e-002
21750	8.9577	0.18182	0.1	0.56683
21751	9.05	0.27273	0.1	4.2075
21752	9.05	9.0909e-002	0.1	7.5477e-002
21753	8.7731	0.18182	0.1	0.80648
21754	8.8654	0.27273	0.1	4.7346
21755	8.8654	9.0909e-002	0.1	9.97e-002
21756	8.5886	0.18182	0.1	0.9907
21757	8.6809	0.27273	0.1	5.108
21758	8.6809	9.0909e-002	0.1	0.12356
21759	8.404	0.18182	0.1	1.0514
21760	8.4963	0.27273	0.1	5.2803
21761	8.4963	9.0909e-002	0.1	0.13386
21762	8.2194	0.18182	0.1	0.94324
21763	8.3117	0.27273	0.1	5.1957
21764	8.3117	9.0909e-002	0.1	0.1122
21765	8.0349	0.18182	0.1	0.66166
21766	8.1272	0.27273	0.1	4.7892
21767	8.1272	9.0909e-002	0.1	5.3919e-002
21768	7.8503	0.18182	0.1	0.32782
21769	7.9426	0.27273	0.1	3.9873
21770	7.9426	9.0909e-002	0.1	-1.0741e-002
21771	7.6657	0.18182	0.1	0.13413
21772	7.758	0.27273	0.1	2.7186
21773	7.758	9.0909e-002	0.1	-4.9515e-002
21774	7.4812	0.18182	0.1	5.3786e-002
21775	7.5735	0.27273	0.1	1.0352
21776	7.5735	9.0909e-002	0.1	-6.5129e-002
21777	7.2966	0.18182	0.1	1.7522e-002
21778	7.3889	0.27273	0.1	0.17528
21779	7.3889	9.0909e-002	0.1	-6.872e-002
21780	7.112	0.18182	0.1	-1.2177e-003
21781	7.2043	0.27273	0.1	6.8061e-002
21782	7.2043	9.0909e-002	0.1	-6.6289e-002
21783	6.9275	0.18182	0.1	-1.2414e-002
21784	7.0198	0.27273	0.1	4.1694e-002
21785	7.0198	9.0909e-002	0.1	-6.0423e-002
21786	6.7429	0.18182	0.1	-2.0975e-002
21787	6.8352	0.27273	0.1	3.4136e-002
21788	6.8352	9.0909e-002	0.1	-5.229e-002
21789	6.5583	0.18182	0.1	-3.033e-002
21790	6.6506	0.27273	0.1	3.4129e-002
21791	6.6506	9.0909e-002	0.1	-4.2536e-002
21792	6.3738	0.18182	0.1	-4.3735e-002
21793	6.466	0.27273	0.1	3.779e-002
21794	6.466	9.0909e-002	0.1	-3.1721e-002
21795	6.1892	0.18182	0.1	-6.4685e-002
21796	6.2815	0.27273	0.1	4.2982e-002
21797	6.2815	9.0909e-002	0.1	-2.0573e-002
21798	6.0046	0.18182	0.1	-9.6675e-002
21799	6.0969	0.27273	0.1	4.8169e-002
21800	6.0969	9.0909e-002	0.1	-1.0181e-002
21801	5.8201	0.18182	0.1	-0.14175
21802	5.9123	0.27273	0.1	5.2486e-002
21803	5.9123	9.0909e-002	0.1	-2.2425e-003
21804	5.6355	0.18182	0.1	-0.19726
21805	5.7278	0.27273	0.1	5.7293e-002
21806	5.7278	9.0909e-002	0.1	1.0066e-003
21807	5.4509	0.18182	0.1	-0.24661
21808	5.5432	0.27273	0.1	6.9043e-002
21809	5.5432	9.0909e-002	0.1	-4.0862e-003
21810	5.2664	0.18182	0.1	-0.24661
21811	5.3586	0.27273	0.1	0.1113
21812	5.3586	9.0909e-002	0.1	-1.8431e-002
21813	5.0818	0.18182	0.1	-7.168e-002
21814	5.1741	0.27273	0.1	0.2337
21815	5.1741	9.0909e-002	0.1	-5.1083e-002
21816	4.8972	0.18182	0.1	0.49304
21817	4.9895	0.27273	0.1	0.61094
21818	4.9895	9.0909e-002	0.1	-5.334e-002
21819	4.7127	0.18182	0.1	2.2975
21820	4.8049	0.27273	0.1	1.4581
21821	4.8049	9.0909e-002	0.1	-0.10744
21822	4.5281	0.18182	0.1	5.9254
21823	4.6204	0.27273	0.1	4.1401
21824	4.6204	9.0909e-002	0.1	0.64135
21825	4.3435	0.18182	0.1	19.881
21826	4.4358	0.27273	0.1	7.3345
21827	4.4358	9.0909e-002	0.1	0.99226
21828	4.2512	0.27273	0.1	19.683
21829	4.159	0.18182	0.1	-0.34393
21830	4.2512	9.0909e-002	0.1	17.038
21831	23.723	0.36364	0.1	0.16335
21832	23.815	0.45455	0.1	0.15353
21833	23.908	0.36364	0.1	-0.15983
21834	23.539	0.36364	0.1	5.1082e-002
21835	23.631	0.45455	0.1	-9.8993e-002
21836	23.354	0.36364	0.1	9.1434e-002
21837	23.446	0.45455	0.1	2.8643e-002
21838	23.169	0.36364	0.1	8.5799e-002
21839	23.262	0.45455	0.1	2.4782e-002
21840	22.985	0.36364	0.1	8.4837e-002
21841	23.077	0.45455	0.1	3.7946e-002
21842	22.8	0.36364	0.1	7.9927e-002
21843	22.893	0.45455	0.1	3.9556e-002
21844	22.616	0.36364	0.1	7.5096e-002
21845	22.708	0.45455	0.1	4.0468e-002
21846	22.431	0.36364	0.1	7.0093e-002
21847	22.523	0.45455	0.1	3.97e-002
21848	22.247	0.36364	0.1	6.5333e-002
21849	22.339	0.45455	0.1	3.8383e-002
21850	22.062	0.36364	0.1	6.0861e-002
21851	22.154	0.45455	0.1	3.6724e-002
21852	21.877	0.36364	0.1	5.6718e-002
21853	21.97	0.45455	0.1	3.4939e-002
21854	21.693	0.36364	0.1	5.29e-002
21855	21.785	0.45455	0.1	3.3123e-002
21856	21.508	0.36364	0.1	4.9387e-002
21857	21.601	0.45455	0.1	3.1338e-002
21858	21.324	0.36364	0.1	4.6164e-002
21859	21.416	0.45455	0.1	2.9612e-002
21860	21.139	0.36364	0.1	4.321e-002
21861	21.231	0.45455	0.1	2.7974e-002
21862	20.955	0.36364	0.1	4.0499e-002
21863	21.047	0.45455	0.1	2.6428e-002
21864	20.77	0.36364	0.1	3.8009e-002
21865	20.862	0.45455	0.1	2.4976e-002
21866	20.585	0.36364	0.1	3.5728e-002
21867	20.678	0.45455	0.1	2.3618e-002
21868	20.401	0.36364	0.1	3.3632e-002
21869	20.493	0.45455	0.1	2.236e-002
21870	20.216	0.36364	0.1	3.1697e-002
21871	20.309	0.45455	0.1	2.118e-002
21872	20.032	0.36364	0.1	2.9919e-002
21873	20.124	0.45455	0.1	2.008e-002
21874	19.847	0.36364	0.1	2.8284e-002
21875	19.94	0.45455	0.1	1.9063e-002
21876	19.663	0.36364	0.1	2.6774e-002
21877	19.755	0.45455	0.1	1.812e-002
21878	19.478	0.36364	0.1	2.5374e-002
21879	19.57	0.45455	0.1	1.7239e-002
21880	19.294	0.36364	0.1	2.408e-002
21881	19.386	0.45455	0.1	1.6414e-002
21882	19.109	0.36364	0.1	2.2887e-002
21883	19.201	0.45455	0.1	1.5654e-002
21884	18.924	0.36364	0.1	2.1778e-002
21885	19.017	0.45455	0.1	1.495e-002
21886	18.74	0.36364	0.1	2.0744e-002
21887	18.832	0.45455	0.1	1.4283e-002
21888	18.555	0.36364	0.1	1.979e-002
21889	18.648	0.45455	0.1	1.3666e-002
21890	18.371	0.36364	0.1	1.89e-002
21891	18.463	0.45455	0.1	1.3101e-002
21892	18.186	0.36364	0.1	1.8059e-002
21893	18.278	0.45455	0.1	1.2559e-002
21894	18.002	0.36364	0.1	1.7271e-002
21895	18.094	0.45455	0.1	1.2047e-002
21896	17.817	0.36364	0.1	1.6535e-002
21897	17.909	0.45455	0.1	1.1569e-002
21898	17.632	0.36364	0.1	1.5841e-002
21899	17.725	0.45455	0.1	1.1123e-002
21900	17.448	0.36364	0.1	1.5174e-002
21901	17.54	0.45455	0.1	1.0696e-002
21902	17.263	0.36364	0.1	1.4539e-002
21903	17.356	0.45455	0.1	1.0274e-002
21904	17.079	0.36364	0.1	1.3942e-002
21905	17.171	0.45455	0.1	9.8886e-003
21906	16.894	0.36364	0.1	1.3369e-002
21907	16.986	0.45455	0.1	9.5185e-003
21908	16.71	0.36364	0.1	1.2813e-002
21909	16.802	0.45455	0.1	9.1633e-003
21910	16.525	0.36364	0.1	1.2264e-002
21911	16.617	0.45455	0.1	8.8154e-003
21912	16.34	0.36364	0.1	1.1727e-002
21913	16.433	0.45455	0.1	8.4581e-003
21914	16.156	0.36364	0.1	1.121e-002
21915	16.248	0.45455	0.1	8.1235e-003
21916	15.971	0.36364	0.1	1.0692e-002
21917	16.064	0.45455	0.1	7.8003e-003
21918	15.787	0.36364	0.1	1.0171e-002
21919	15.879	0.45455	0.1	7.462e-003
21920	15.602	0.36364	0.1	9.6628e-003
21921	15.694	0.45455	0.1	7.127e-003
21922	15.418	0.36364	0.1	9.1492e-003
21923	15.51	0.45455	0.1	6.8129e-003
21924	15.233	0.36364	0.1	8.6135e-003
21925	15.325	0.45455	0.1	6.4738e-003
21926	15.048	0.36364	0.1	8.0681e-003
21927	15.141	0.45455	0.1	6.1188e-003
21928	14.864	0.36364	0.1	7.515e-003
21929	14.956	0.45455	0.1	5.7648e-003
21930	14.679	0.36364	0.1	6.944e-003
21931	14.772	0.45455	0.1	5.4059e-003
21932	14.495	0.36364	0.1	6.3371e-003
21933	14.587	0.45455	0.1	5.0303e-003
21934	14.31	0.36364	0.1	5.7031e-003
21935	14.402	0.45455	0.1	4.6137e-003
21936	14.126	0.36364	0.1	5.0556e-003
21937	14.218	0.45455	0.1	4.2009e-003
21938	13.941	0.36364	0.1	4.3657e-003
21939	14.033	0.45455	0.1	3.7762e-003
21940	13.756	0.36364	0.1	3.6304e-003
21941	13.849	0.45455	0.1	3.3013e-003
21942	13.572	0.36364	0.1	2.8722e-003
21943	13.664	0.45455	0.1	2.8097e-003
21944	13.387	0.36364	0.1	2.0666e-003
21945	13.48	0.45455	0.1	2.314e-003
21946	13.203	0.36364	0.1	1.1934e-003
21947	13.295	0.45455	0.1	1.756e-003
21948	13.018	0.36364	0.1	2.6679e-004
21949	13.11	0.45455	0.1	1.1563e-003
21950	12.834	0.36364	0.1	-7.0852e-004
21951	12.926	0.45455	0.1	5.2408e-004
21952	12.649	0.36364	0.1	-1.7423e-003
21953	12.741	0.45455	0.1	-1.4267e-004
21954	12.465	0.36364	0.1	-2.8615e-003
21955	12.557	0.45455	0.1	-8.6227e-004
21956	12.28	0.36364	0.1	-4.0499e-003
21957	12.372	0.45455	0.1	-1.6685e-003
21958	12.095	0.36364	0.1	-5.2877e-003
21959	12.188	0.45455	0.1	-2.501e-003
21960	11.911	0.36364	0.1	-6.5873e-003
21961	12.003	0.45455	0.1	-3.3926e-003
21962	11.726	0.36364	0.1	-7.9428e-003
21963	11.819	0.45455	0.1	-4.3508e-003
21964	11.542	0.36364	0.1	-9.3416e-003
21965	11.634	0.45455	0.1	-5.3866e-003
21966	11.357	0.36364	0.1	-1.0703e-002
21967	11.449	0.45455	0.1	-6.53e-003
21968	11.173	0.36364	0.1	-1.1825e-002
21969	11.265	0.45455	0.1	-7.7379e-003
21970	10.988	0.36364	0.1	-1.2072e-002
21971	11.08	0.45455	0.1	0.27104
21972	10.803	0.36364	0.1	-5.6428e-003
21973	10.896	0.45455	0.1	1.3237
21974	10.619	0.36364	0.1	0.47017
21975	10.711	0.45455	0.1	2.4185
21976	10.434	0.36364	0.1	1.4332
21977	10.527	0.45455	0.1	3.552
21978	10.25	0.36364	0.1	2.4235
21979	10.342	0.45455	0.1	4.7183
21980	10.065	0.36364	0.1	3.4269
21981	10.157	0.45455	0.1	5.9099
21982	9.8806	0.36364	0.1	4.4316
21983	9.9728	0.45455	0.1	7.1159
21984	9.696	0.36364	0.1	5.4224
21985	9.7883	0.45455	0.1	8.3219
21986	9.5114	0.36364	0.1	6.3803
21987	9.6037	0.45455	0.1	9.5094
21988	9.3269	0.36364	0.1	7.2815
21989	9.4191	0.45455	0.1	10.654
21990	9.1423	0.36364	0.1	8.0958
21991	9.2346	0.45455	0.1	11.727
21992	8.9577	0.36364	0.1	8.7864
21993	9.05	0.45455	0.1	12.689
21994	8.7731	0.36364	0.1	9.308
21995	8.8654	0.45455	0.1	13.494
21996	8.5886	0.36364	0.1	9.6061
21997	8.6809	0.45455	0.1	14.087
21998	8.404	0.36364	0.1	9.6152
21999	8.4963	0.45455	0.1	14.398
22000	8.2194	0.36364	0.1	9.258
22001	8.3117	0.45455	0.1	14.348
22002	8.0349	0.36364	0.1	8.4445
22003	8.1272	0.45455	0.1	13.839
22004	7.8503	0.36364	0.1	7.0726
22005	7.9426	0.45455	0.1	12.762
22006	7.6657	0.36364	0.1	5.0359
22007	7.758	0.45455	0.1	10.991
22008	7.4812	0.36364	0.1	2.301
22009	7.5735	0.45455	0.1	8.3918
22010	7.2966	0.36364	0.1	0.3451
22011	7.3889	0.45455	0.1	4.8624
22012	7.112	0.36364	0.1	0.14186
22013	7.2043	0.45455	0.1	1.0962
22014	6.9275	0.36364	0.1	0.11119
22015	7.0198	0.45455	0.1	0.2765
22016	6.7429	0.36364	0.1	0.1128
22017	6.8352	0.45455	0.1	0.17677
22018	6.5583	0.36364	0.1	0.12868
22019	6.6506	0.45455	0.1	0.15478
22020	6.3738	0.36364	0.1	0.15422
22021	6.466	0.45455	0.1	0.1585
22022	6.1892	0.36364	0.1	0.18792
22023	6.2815	0.45455	0.1	0.17756
22024	6.0046	0.36364	0.1	0.22942
22025	6.0969	0.45455	0.1	0.20995
22026	5.8201	0.36364	0.1	0.27958
22027	5.9123	0.45455	0.1	0.25706
22028	5.6355	0.36364	0.1	0.34157
22029	5.7278	0.45455	0.1	0.32346
22030	5.4509	0.36364	0.1	0.42634
22031	5.5432	0.45455	0.1	0.41799
22032	5.2664	0.36364	0.1	0.55947
22033	5.3586	0.45455	0.1	0.56239
22034	5.0818	0.36364	0.1	0.82838
22035	5.1741	0.45455	0.1	0.79151
22036	4.8972	0.36364	0.1	1.3748
22037	4.9895	0.45455	0.1	1.2341
22038	4.7127	0.36364	0.1	2.8683
22039	4.8049	0.45455	0.1	1.9477
22040	4.5281	0.36364	0.1	4.9963
22041	4.6204	0.45455	0.1	3.7826
22042	4.3435	0.36364	0.1	11.086
22043	4.4358	0.45455	0.1	4.0078
22044	4.2512	0.45455	0.1	11.595
22045	4.159	0.36364	0.1	-3.8612
22046	23.723	0.54545	0.1	-4.7218e-002
22047	23.815	0.63636	0.1	4.9028e-003
22048	23.908	0.54545	0.1	-0.35396
22049	23.539	0.54545	0.1	-0.10135
22050	23.631	0.63636	0.1	-0.20425
22051	23.354	0.54545	0.1	-2.749e-002
22052	23.446	0.63636	0.1	-4.844e-002
22053	23.169	0.54545	0.1	-1.6535e-002
22054	23.262	0.63636	0.1	-4.2049e-002
22055	22.985	0.54545	0.1	-2.9404e-003
22056	23.077	0.63636	0.1	-1.9013e-002
22057	22.8	0.54545	0.1	3.1805e-003
22058	22.893	0.63636	0.1	-1.0148e-002
22059	22.616	0.54545	0.1	7.2943e-003
22060	22.708	0.63636	0.1	-3.2246e-003
22061	22.431	0.54545	0.1	9.6204e-003
22062	22.523	0.63636	0.1	9.2402e-004
22063	22.247	0.54545	0.1	1.0983e-002
22064	22.339	0.63636	0.1	3.7211e-003
22065	22.062	0.54545	0.1	1.1701e-002
22066	22.154	0.63636	0.1	5.5379e-003
22067	21.877	0.54545	0.1	1.2011e-002
22068	21.97	0.63636	0.1	6.7203e-003
22069	21.693	0.54545	0.1	1.2052e-002
22070	21.785	0.63636	0.1	7.4638e-003
22071	21.508	0.54545	0.1	1.1918e-002
22072	21.601	0.63636	0.1	7.9052e-003
22073	21.324	0.54545	0.1	1.1672e-002
22074	21.416	0.63636	0.1	8.1338e-003
22075	21.139	0.54545	0.1	1.136e-002
22076	21.231	0.63636	0.1	8.2165e-003
22077	20.955	0.54545	0.1	1.1008e-002
22078	21.047	0.63636	0.1	8.2029e-003
22079	20.77	0.54545	0.1	1.0635e-002
22080	20.862	0.63636	0.1	8.1112e-003
22081	20.585	0.54545	0.1	1.0259e-002
22082	20.678	0.63636	0.1	7.9762e-003
22083	20.401	0.54545	0.1	9.8844e-003
22084	20.493	0.63636	0.1	7.8159e-003
22085	20.216	0.54545	0.1	9.5138e-003
22086	20.309	0.63636	0.1	7.6295e-003
22087	20.032	0.54545	0.1	9.1543e-003
22088	20.124	0.63636	0.1	7.4284e-003
22089	19.847	0.54545	0.1	8.8121e-003
22090	19.94	0.63636	0.1	7.2236e-003
22091	19.663	0.54545	0.1	8.4864e-003
22092	19.755	0.63636	0.1	7.024e-003
22093	19.478	0.54545	0.1	8.1703e-003
22094	19.57	0.63636	0.1	6.8235e-003
22095	19.294	0.54545	0.1	7.8714e-003
22096	19.386	0.63636	0.1	6.6142e-003
22097	19.109	0.54545	0.1	7.5949e-003
22098	19.201	0.63636	0.1	6.425e-003
22099	18.924	0.54545	0.1	7.3296e-003
22100	19.017	0.63636	0.1	6.2437e-003
22101	18.74	0.54545	0.1	7.0771e-003
22102	18.832	0.63636	0.1	6.059e-003
22103	18.555	0.54545	0.1	6.8466e-003
22104	18.648	0.63636	0.1	5.886e-003
22105	18.371	0.54545	0.1	6.6281e-003
22106	18.463	0.63636	0.1	5.7325e-003
22107	18.186	0.54545	0.1	6.4143e-003
22108	18.278	0.63636	0.1	5.5725e-003
22109	18.002	0.54545	0.1	6.2128e-003
22110	18.094	0.63636	0.1	5.4168e-003
22111	17.817	0.54545	0.1	6.0252e-003
22112	17.909	0.63636	0.1	5.2718e-003
22113	17.632	0.54545	0.1	5.8473e-003
22114	17.725	0.63636	0.1	5.1367e-003
22115	17.448	0.54545	0.1	5.6676e-003
22116	17.54	0.63636	0.1	5.0047e-003
22117	17.263	0.54545	0.1	5.4961e-003
22118	17.356	0.63636	0.1	4.8602e-003
22119	17.079	0.54545	0.1	5.3393e-003
22120	17.171	0.63636	0.1	4.7383e-003
22121	16.894	0.54545	0.1	5.1888e-003
22122	16.986	0.63636	0.1	4.6192e-003
22123	16.71	0.54545	0.1	5.043e-003
22124	16.802	0.63636	0.1	4.5049e-003
22125	16.525	0.54545	0.1	4.8892e-003
22126	16.617	0.63636	0.1	4.3908e-003
22127	16.34	0.54545	0.1	4.7369e-003
22128	16.433	0.63636	0.1	4.2585e-003
22129	16.156	0.54545	0.1	4.5986e-003
22130	16.248	0.63636	0.1	4.1448e-003
22131	15.971	0.54545	0.1	4.457e-003
22132	16.064	0.63636	0.1	4.0386e-003
22133	15.787	0.54545	0.1	4.3076e-003
22134	15.879	0.63636	0.1	3.9154e-003
22135	15.602	0.54545	0.1	4.1702e-003
22136	15.694	0.63636	0.1	3.7955e-003
22137	15.418	0.54545	0.1	4.0341e-003
22138	15.51	0.63636	0.1	3.6969e-003
22139	15.233	0.54545	0.1	3.8795e-003
22140	15.325	0.63636	0.1	3.5758e-003
22141	15.048	0.54545	0.1	3.7201e-003
22142	15.141	0.63636	0.1	3.444e-003
22143	14.864	0.54545	0.1	3.5653e-003
22144	14.956	0.63636	0.1	3.3159e-003
22145	14.679	0.54545	0.1	3.4074e-003
22146	14.772	0.63636	0.1	3.1944e-003
22147	14.495	0.54545	0.1	3.2287e-003
22148	14.587	0.63636	0.1	3.0636e-003
22149	14.31	0.54545	0.1	3.0411e-003
22150	14.402	0.63636	0.1	2.9033e-003
22151	14.126	0.54545	0.1	2.8605e-003
22152	14.218	0.63636	0.1	2.7602e-003
22153	13.941	0.54545	0.1	2.6622e-003
22154	14.033	0.63636	0.1	2.6212e-003
22155	13.756	0.54545	0.1	2.4451e-003
22156	13.849	0.63636	0.1	2.4515e-003
22157	13.572	0.54545	0.1	2.2335e-003
22158	13.664	0.63636	0.1	2.2865e-003
22159	13.387	0.54545	0.1	2.0073e-003
22160	13.48	0.63636	0.1	2.1427e-003
22161	13.203	0.54545	0.1	1.7507e-003
22162	13.295	0.63636	0.1	1.9693e-003
22163	13.018	0.54545	0.1	1.4816e-003
22164	13.11	0.63636	0.1	1.7927e-003
22165	12.834	0.54545	0.1	1.2056e-003
22166	12.926	0.63636	0.1	1.6343e-003
22167	12.649	0.54545	0.1	9.173e-004
22168	12.741	0.63636	0.1	1.5077e-003
22169	12.465	0.54545	0.1	5.9971e-004
22170	12.557	0.63636	0.1	1.4276e-003
22171	12.28	0.54545	0.1	2.7805e-004
22172	12.372	0.63636	0.1	1.4325e-003
22173	12.095	0.54545	0.1	-1.0106e-005
22174	12.188	0.63636	0.1	1.7614e-003
22175	11.911	0.54545	0.1	-2.1883e-004
22176	12.003	0.63636	0.1	3.0807e-003
22177	11.726	0.54545	0.1	-1.0667e-004
22178	11.819	0.63636	0.1	1.296e-002
22179	11.542	0.54545	0.1	3.0917e-003
22180	11.634	0.63636	0.1	0.70051
22181	11.357	0.54545	0.1	0.66813
22182	11.449	0.63636	0.1	1.8704
22183	11.173	0.54545	0.1	1.7942
22184	11.265	0.63636	0.1	3.1085
22185	10.988	0.54545	0.1	2.9756
22186	11.08	0.63636	0.1	4.4117
22187	10.803	0.54545	0.1	4.2098
22188	10.896	0.63636	0.1	5.7795
22189	10.619	0.54545	0.1	5.4937
22190	10.711	0.63636	0.1	7.21
22191	10.434	0.54545	0.1	6.8225
22192	10.527	0.63636	0.1	8.7
22193	10.25	0.54545	0.1	8.1888
22194	10.342	0.63636	0.1	10.244
22195	10.065	0.54545	0.1	9.5826
22196	10.157	0.63636	0.1	11.833
22197	9.8806	0.54545	0.1	10.99
22198	9.9728	0.63636	0.1	13.455
22199	9.696	0.54545	0.1	12.393
22200	9.7883	0.63636	0.1	15.095
22201	9.5114	0.54545	0.1	13.768
22202	9.6037	0.63636	0.1	16.731
22203	9.3269	0.54545	0.1	15.084
22204	9.4191	0.63636	0.1	18.336
22205	9.1423	0.54545	0.1	16.304
22206	9.2346	0.63636	0.1	19.875
22207	8.9577	0.54545	0.1	17.381
22208	9.05	0.63636	0.1	21.304
22209	8.7731	0.54545	0.1	18.258
22210	8.8654	0.63636	0.1	22.569
22211	8.5886	0.54545	0.1	18.864
22212	8.6809	0.63636	0.1	23.603
22213	8.404	0.54545	0.1	19.116
22214	8.4963	0.63636	0.1	24.326
22215	8.2194	0.54545	0.1	18.914
22216	8.3117	0.63636	0.1	24.643
22217	8.0349	0.54545	0.1	18.143
22218	8.1272	0.63636	0.1	24.44
22219	7.8503	0.54545	0.1	16.669
22220	7.9426	0.63636	0.1	23.585
22221	7.6657	0.54545	0.1	14.343
22222	7.758	0.63636	0.1	21.927
22223	7.4812	0.54545	0.1	11.009
22224	7.5735	0.63636	0.1	19.298
22225	7.2966	0.54545	0.1	6.5546
22226	7.3889	0.63636	0.1	15.519
22227	7.112	0.54545	0.1	1.7243
22228	7.2043	0.63636	0.1	10.443
22229	6.9275	0.54545	0.1	0.431
22230	7.0198	0.63636	0.1	4.3045
22231	6.7429	0.54545	0.1	0.26215
22232	6.8352	0.63636	0.1	0.93557
22233	6.5583	0.54545	0.1	0.21668
22234	6.6506	0.63636	0.1	0.4871
22235	6.3738	0.54545	0.1	0.21
22236	6.466	0.63636	0.1	0.38548
22237	6.1892	0.54545	0.1	0.22616
22238	6.2815	0.63636	0.1	0.36613
22239	6.0046	0.54545	0.1	0.26304
22240	6.0969	0.63636	0.1	0.38754
22241	5.8201	0.54545	0.1	0.32442
22242	5.9123	0.63636	0.1	0.44173
22243	5.6355	0.54545	0.1	0.419
22244	5.7278	0.63636	0.1	0.53186
22245	5.4509	0.54545	0.1	0.56398
22246	5.5432	0.63636	0.1	0.66731
22247	5.2664	0.54545	0.1	0.78621
22248	5.3586	0.63636	0.1	0.86826
22249	5.0818	0.54545	0.1	1.1562
22250	5.1741	0.63636	0.1	1.1548
22251	4.8972	0.54545	0.1	1.7236
22252	4.9895	0.63636	0.1	1.6067
22253	4.7127	0.54545	0.1	2.8377
22254	4.8049	0.63636	0.1	2.1311
22255	4.5281	0.54545	0.1	3.4726
22256	4.6204	0.63636	0.1	3.3332
22257	4.3435	0.54545	0.1	7.4452
22258	4.4358	0.63636	0.1	2.1954
22259	4.2512	0.63636	0.1	9.7928
22260	4.159	0.54545	0.1	-2.4249
22261	23.723	0.72727	0.1	-8.9991e-002
22262	23.815	0.81818	0.1	-4.7072e-002
22263	23.908	0.72727	0.1	-0.36666
22264	23.539	0.72727	0.1	-0.13462
22265	23.631	0.81818	0.1	-0.2392
22266	23.354	0.72727	0.1	-5.4941e-002
22267	23.446	0.81818	0.1	-7.6023e-002
22268	23.169	0.72727	0.1	-3.9509e-002
22269	23.262	0.81818	0.1	-6.5627e-002
22270	22.985	0.72727	0.1	-2.2692e-002
22271	23.077	0.81818	0.1	-3.9671e-002
22272	22.8	0.72727	0.1	-1.3908e-002
22273	22.893	0.81818	0.1	-2.8465e-002
22274	22.616	0.72727	0.1	-7.5361e-003
22275	22.708	0.81818	0.1	-1.9496e-002
22276	22.431	0.72727	0.1	-3.3317e-003
22277	22.523	0.81818	0.1	-1.3603e-002
22278	22.247	0.72727	0.1	-3.8812e-004
22279	22.339	0.81818	0.1	-9.3003e-003
22280	22.062	0.72727	0.1	1.6583e-003
22281	22.154	0.81818	0.1	-6.1859e-003
22282	21.877	0.72727	0.1	3.0902e-003
22283	21.97	0.81818	0.1	-3.8822e-003
22284	21.693	0.72727	0.1	4.0874e-003
22285	21.785	0.81818	0.1	-2.1633e-003
22286	21.508	0.72727	0.1	4.7716e-003
22287	21.601	0.81818	0.1	-8.7404e-004
22288	21.324	0.72727	0.1	5.2311e-003
22289	21.416	0.81818	0.1	9.8082e-005
22290	21.139	0.72727	0.1	5.5321e-003
22291	21.231	0.81818	0.1	8.3798e-004
22292	20.955	0.72727	0.1	5.7105e-003
22293	21.047	0.81818	0.1	1.4068e-003
22294	20.77	0.72727	0.1	5.7998e-003
22295	20.862	0.81818	0.1	1.8286e-003
22296	20.585	0.72727	0.1	5.8324e-003
22297	20.678	0.81818	0.1	2.154e-003
22298	20.401	0.72727	0.1	5.8186e-003
22299	20.493	0.81818	0.1	2.4064e-003
22300	20.216	0.72727	0.1	5.7661e-003
22301	20.309	0.81818	0.1	2.5899e-003
22302	20.032	0.72727	0.1	5.6891e-003
22303	20.124	0.81818	0.1	2.721e-003
22304	19.847	0.72727	0.1	5.6005e-003
22305	19.94	0.81818	0.1	2.8198e-003
22306	19.663	0.72727	0.1	5.5033e-003
22307	19.755	0.81818	0.1	2.8945e-003
22308	19.478	0.72727	0.1	5.3898e-003
22309	19.57	0.81818	0.1	2.9442e-003
22310	19.294	0.72727	0.1	5.2728e-003
22311	19.386	0.81818	0.1	2.9613e-003
22312	19.109	0.72727	0.1	5.1636e-003
22313	19.201	0.81818	0.1	2.9798e-003
22314	18.924	0.72727	0.1	5.0494e-003
22315	19.017	0.81818	0.1	2.9898e-003
22316	18.74	0.72727	0.1	4.9325e-003
22317	18.832	0.81818	0.1	2.9798e-003
22318	18.555	0.72727	0.1	4.8262e-003
22319	18.648	0.81818	0.1	2.9675e-003
22320	18.371	0.72727	0.1	4.7221e-003
22321	18.463	0.81818	0.1	2.9632e-003
22322	18.186	0.72727	0.1	4.6121e-003
22323	18.278	0.81818	0.1	2.942e-003
22324	18.002	0.72727	0.1	4.5056e-003
22325	18.094	0.81818	0.1	2.9145e-003
22326	17.817	0.72727	0.1	4.4065e-003
22327	17.909	0.81818	0.1	2.8877e-003
22328	17.632	0.72727	0.1	4.3114e-003
22329	17.725	0.81818	0.1	2.8652e-003
22330	17.448	0.72727	0.1	4.2093e-003
22331	17.54	0.81818	0.1	2.8384e-003
22332	17.263	0.72727	0.1	4.1097e-003
22333	17.356	0.81818	0.1	2.7929e-003
22334	17.079	0.72727	0.1	4.0211e-003
22335	17.171	0.81818	0.1	2.7638e-003
22336	16.894	0.72727	0.1	3.9342e-003
22337	16.986	0.81818	0.1	2.7351e-003
22338	16.71	0.72727	0.1	3.8478e-003
22339	16.802	0.81818	0.1	2.7053e-003
22340	16.525	0.72727	0.1	3.7517e-003
22341	16.617	0.81818	0.1	2.6725e-003
22342	16.34	0.72727	0.1	3.6549e-003
22343	16.433	0.81818	0.1	2.6196e-003
22344	16.156	0.72727	0.1	3.5702e-003
22345	16.248	0.81818	0.1	2.5842e-003
22346	15.971	0.72727	0.1	3.4795e-003
22347	16.064	0.81818	0.1	2.5546e-003
22348	15.787	0.72727	0.1	3.3831e-003
22349	15.879	0.81818	0.1	2.5049e-003
22350	15.602	0.72727	0.1	3.2995e-003
22351	15.694	0.81818	0.1	2.4622e-003
22352	15.418	0.72727	0.1	3.2135e-003
22353	15.51	0.81818	0.1	2.4395e-003
22354	15.233	0.72727	0.1	3.113e-003
22355	15.325	0.81818	0.1	2.3939e-003
22356	15.048	0.72727	0.1	3.0106e-003
22357	15.141	0.81818	0.1	2.3443e-003
22358	14.864	0.72727	0.1	2.9143e-003
22359	14.956	0.81818	0.1	2.3022e-003
22360	14.679	0.72727	0.1	2.8187e-003
22361	14.772	0.81818	0.1	2.27e-003
22362	14.495	0.72727	0.1	2.7059e-003
22363	14.587	0.81818	0.1	2.2334e-003
22364	14.31	0.72727	0.1	2.5907e-003
22365	14.402	0.81818	0.1	2.177e-003
22366	14.126	0.72727	0.1	2.4911e-003
22367	14.218	0.81818	0.1	2.1493e-003
22368	13.941	0.72727	0.1	2.3847e-003
22369	14.033	0.81818	0.1	2.141e-003
22370	13.756	0.72727	0.1	2.2741e-003
22371	13.849	0.81818	0.1	2.1225e-003
22372	13.572	0.72727	0.1	2.1885e-003
22373	13.664	0.81818	0.1	2.136e-003
22374	13.387	0.72727	0.1	2.1168e-003
22375	13.48	0.81818	0.1	2.2123e-003
22376	13.203	0.72727	0.1	2.0551e-003
22377	13.295	0.81818	0.1	2.3223e-003
22378	13.018	0.72727	0.1	2.0432e-003
22379	13.11	0.81818	0.1	2.5293e-003
22380	12.834	0.72727	0.1	2.1304e-003
22381	12.926	0.81818	0.1	2.9368e-003
22382	12.649	0.72727	0.1	2.3989e-003
22383	12.741	0.81818	0.1	3.7514e-003
22384	12.465	0.72727	0.1	3.061e-003
22385	12.557	0.81818	0.1	5.5865e-003
22386	12.28	0.72727	0.1	4.9551e-003
22387	12.372	0.81818	0.1	1.1571e-002
22388	12.095	0.72727	0.1	1.4318e-002
22389	12.188	0.81818	0.1	0.13575
22390	11.911	0.72727	0.1	0.49987
22391	12.003	0.81818	0.1	1.2437
22392	11.726	0.72727	0.1	1.6844
22393	11.819	0.81818	0.1	2.5123
22394	11.542	0.72727	0.1	2.9509
22395	11.634	0.81818	0.1	3.8622
22396	11.357	0.72727	0.1	4.2913
22397	11.449	0.81818	0.1	5.294
22398	11.173	0.72727	0.1	5.7064
22399	11.265	0.81818	0.1	6.8101
22400	10.988	0.72727	0.1	7.1965
22401	11.08	0.81818	0.1	8.4125
22402	10.803	0.72727	0.1	8.7612
22403	10.896	0.81818	0.1	10.102
22404	10.619	0.72727	0.1	10.398
22405	10.711	0.81818	0.1	11.878
22406	10.434	0.72727	0.1	12.104
22407	10.527	0.81818	0.1	13.74
22408	10.25	0.72727	0.1	13.87
22409	10.342	0.81818	0.1	15.681
22410	10.065	0.72727	0.1	15.688
22411	10.157	0.81818	0.1	17.696
22412	9.8806	0.72727	0.1	17.544
22413	9.9728	0.81818	0.1	19.772
22414	9.696	0.72727	0.1	19.417
22415	9.7883	0.81818	0.1	21.895
22416	9.5114	0.72727	0.1	21.284
22417	9.6037	0.81818	0.1	24.044
22418	9.3269	0.72727	0.1	23.112
22419	9.4191	0.81818	0.1	26.192
22420	9.1423	0.72727	0.1	24.859
22421	9.2346	0.81818	0.1	28.302
22422	8.9577	0.72727	0.1	26.476
22423	9.05	0.81818	0.1	30.33
22424	8.7731	0.72727	0.1	27.898
22425	8.8654	0.81818	0.1	32.221
22426	8.5886	0.72727	0.1	29.05
22427	8.6809	0.81818	0.1	33.904
22428	8.404	0.72727	0.1	29.838
22429	8.4963	0.81818	0.1	35.297
22430	8.2194	0.72727	0.1	30.153
22431	8.3117	0.81818	0.1	36.297
22432	8.0349	0.72727	0.1	29.865
22433	8.1272	0.81818	0.1	36.787
22434	7.8503	0.72727	0.1	28.826
22435	7.9426	0.81818	0.1	36.624
22436	7.6657	0.72727	0.1	26.865
22437	7.758	0.81818	0.1	35.649
22438	7.4812	0.72727	0.1	23.798
22439	7.5735	0.81818	0.1	33.679
22440	7.2966	0.72727	0.1	19.428
22441	7.3889	0.81818	0.1	30.511
22442	7.112	0.72727	0.1	13.594
22443	7.2043	0.81818	0.1	25.933
22444	6.9275	0.72727	0.1	6.4827
22445	7.0198	0.81818	0.1	19.75
22446	6.7429	0.72727	0.1	1.619
22447	6.8352	0.81818	0.1	11.938
22448	6.5583	0.72727	0.1	0.79248
22449	6.6506	0.81818	0.1	4.1331
22450	6.3738	0.72727	0.1	0.61684
22451	6.466	0.81818	0.1	1.5085
22452	6.1892	0.72727	0.1	0.58122
22453	6.2815	0.81818	0.1	1.0283
22454	6.0046	0.72727	0.1	0.60907
22455	6.0969	0.81818	0.1	0.90834
22456	5.8201	0.72727	0.1	0.68413
22457	5.9123	0.81818	0.1	0.91155
22458	5.6355	0.72727	0.1	0.80679
22459	5.7278	0.81818	0.1	0.9879
22460	5.4509	0.72727	0.1	0.98703
22461	5.5432	0.81818	0.1	1.1261
22462	5.2664	0.72727	0.1	1.2369
22463	5.3586	0.81818	0.1	1.3315
22464	5.0818	0.72727	0.1	1.5894
22465	5.1741	0.81818	0.1	1.6005
22466	4.8972	0.72727	0.1	2.0051
22467	4.9895	0.81818	0.1	1.9796
22468	4.7127	0.72727	0.1	2.7214
22469	4.8049	0.81818	0.1	2.2851
22470	4.5281	0.72727	0.1	2.4581
22471	4.6204	0.81818	0.1	3.1437
22472	4.3435	0.72727	0.1	5.8764
22473	4.4358	0.81818	0.1	1.2528
22474	4.2512	0.81818	0.1	9.3147
22475	4.159	0.72727	0.1	-2.368
22476	23.723	0.90909	0.1	-0.13104
22477	23.815	1.	0.1	-8.9062e-002
22478	23.908	0.90909	0.1	-0.39006
22479	23.539	0.90909	0.1	-0.16497
22480	23.631	1.	0.1	-0.26633
22481	23.354	0.90909	0.1	-7.9993e-002
22482	23.446	1.	0.1	-9.659e-002
22483	23.169	0.90909	0.1	-6.1911e-002
22484	23.262	1.	0.1	-8.4074e-002
22485	22.985	0.90909	0.1	-4.2813e-002
22486	23.077	1.	0.1	-5.6249e-002
22487	22.8	0.90909	0.1	-3.2101e-002
22488	22.893	1.	0.1	-4.358e-002
22489	22.616	0.90909	0.1	-2.4039e-002
22490	22.708	1.	0.1	-3.332e-002
22491	22.431	0.90909	0.1	-1.8342e-002
22492	22.523	1.	0.1	-2.6274e-002
22493	22.247	0.90909	0.1	-1.4083e-002
22494	22.339	1.	0.1	-2.0937e-002
22495	22.062	0.90909	0.1	-1.0875e-002
22496	22.154	1.	0.1	-1.6899e-002
22497	21.877	0.90909	0.1	-8.4135e-003
22498	21.97	1.	0.1	-1.3766e-002
22499	21.693	0.90909	0.1	-6.5063e-003
22500	21.785	1.	0.1	-1.1306e-002
22501	21.508	0.90909	0.1	-5.0142e-003
22502	21.601	1.	0.1	-9.3521e-003
22503	21.324	0.90909	0.1	-3.8324e-003
22504	21.416	1.	0.1	-7.7827e-003
22505	21.139	0.90909	0.1	-2.8842e-003
22506	21.231	1.	0.1	-6.5044e-003
22507	20.955	0.90909	0.1	-2.1225e-003
22508	21.047	1.	0.1	-5.4507e-003
22509	20.77	0.90909	0.1	-1.5077e-003
22510	20.862	1.	0.1	-4.5873e-003
22511	20.585	0.90909	0.1	-9.9976e-004
22512	20.678	1.	0.1	-3.8625e-003
22513	20.401	0.90909	0.1	-5.8235e-004
22514	20.493	1.	0.1	-3.2465e-003
22515	20.216	0.90909	0.1	-2.4334e-004
22516	20.309	1.	0.1	-2.7313e-003
22517	20.032	0.90909	0.1	3.8942e-005
22518	20.124	1.	0.1	-2.296e-003
22519	19.847	0.90909	0.1	2.7938e-004
22520	19.94	1.	0.1	-1.918e-003
22521	19.663	0.90909	0.1	4.8193e-004
22522	19.755	1.	0.1	-1.5879e-003
22523	19.478	0.90909	0.1	6.4526e-004
22524	19.57	1.	0.1	-1.3034e-003
22525	19.294	0.90909	0.1	7.8291e-004
22526	19.386	1.	0.1	-1.0651e-003
22527	19.109	0.90909	0.1	9.0729e-004
22528	19.201	1.	0.1	-8.4698e-004
22529	18.924	0.90909	0.1	1.0095e-003
22530	19.017	1.	0.1	-6.5122e-004
22531	18.74	0.90909	0.1	1.0934e-003
22532	18.832	1.	0.1	-4.8702e-004
22533	18.555	0.90909	0.1	1.1736e-003
22534	18.648	1.	0.1	-3.3858e-004
22535	18.371	0.90909	0.1	1.2437e-003
22536	18.463	1.	0.1	-1.9215e-004
22537	18.186	0.90909	0.1	1.2971e-003
22538	18.278	1.	0.1	-7.3017e-005
22539	18.002	0.90909	0.1	1.3422e-003
22540	18.094	1.	0.1	3.1588e-005
22541	17.817	0.90909	0.1	1.3856e-003
22542	17.909	1.	0.1	1.2804e-004
22543	17.632	0.90909	0.1	1.4254e-003
22544	17.725	1.	0.1	2.2256e-004
22545	17.448	0.90909	0.1	1.4498e-003
22546	17.54	1.	0.1	3.059e-004
22547	17.263	0.90909	0.1	1.4698e-003
22548	17.356	1.	0.1	3.6473e-004
22549	17.079	0.90909	0.1	1.496e-003
22550	17.171	1.	0.1	4.3506e-004
22551	16.894	0.90909	0.1	1.52e-003
22552	16.986	1.	0.1	5.027e-004
22553	16.71	0.90909	0.1	1.5397e-003
22554	16.802	1.	0.1	5.6401e-004
22555	16.525	0.90909	0.1	1.5461e-003
22556	16.617	1.	0.1	6.2055e-004
22557	16.34	0.90909	0.1	1.5508e-003
22558	16.433	1.	0.1	6.5473e-004
22559	16.156	0.90909	0.1	1.5668e-003
22560	16.248	1.	0.1	7.0512e-004
22561	15.971	0.90909	0.1	1.5746e-003
22562	16.064	1.	0.1	7.5969e-004
22563	15.787	0.90909	0.1	1.5751e-003
22564	15.879	1.	0.1	7.9414e-004
22565	15.602	0.90909	0.1	1.59e-003
22566	15.694	1.	0.1	8.3614e-004
22567	15.418	0.90909	0.1	1.6044e-003
22568	15.51	1.	0.1	8.9883e-004
22569	15.233	0.90909	0.1	1.6065e-003
22570	15.325	1.	0.1	9.4164e-004
22571	15.048	0.90909	0.1	1.614e-003
22572	15.141	1.	0.1	9.8352e-004
22573	14.864	0.90909	0.1	1.6331e-003
22574	14.956	1.	0.1	1.04e-003
22575	14.679	0.90909	0.1	1.6571e-003
22576	14.772	1.	0.1	1.1114e-003
22577	14.495	0.90909	0.1	1.6746e-003
22578	14.587	1.	0.1	1.1886e-003
22579	14.31	0.90909	0.1	1.7043e-003
22580	14.402	1.	0.1	1.2591e-003
22581	14.126	0.90909	0.1	1.7678e-003
22582	14.218	1.	0.1	1.3761e-003
22583	13.941	0.90909	0.1	1.8497e-003
22584	14.033	1.	0.1	1.5379e-003
22585	13.756	0.90909	0.1	1.9617e-003
22586	13.849	1.	0.1	1.7272e-003
22587	13.572	0.90909	0.1	2.1512e-003
22588	13.664	1.	0.1	2.0072e-003
22589	13.387	0.90909	0.1	2.4383e-003
22590	13.48	1.	0.1	2.4463e-003
22591	13.203	0.90909	0.1	2.878e-003
22592	13.295	1.	0.1	3.0955e-003
22593	13.018	0.90909	0.1	3.6431e-003
22594	13.11	1.	0.1	4.2125e-003
22595	12.834	0.90909	0.1	5.1465e-003
22596	12.926	1.	0.1	6.4967e-003
22597	12.649	0.90909	0.1	8.8743e-003
22598	12.741	1.	0.1	1.304e-002
22599	12.465	0.90909	0.1	2.7829e-002
22600	12.557	1.	0.1	8.6272e-002
22601	12.28	0.90909	0.1	0.65884
22602	12.372	1.	0.1	1.1207
22603	12.095	0.90909	0.1	1.9053
22604	12.188	1.	0.1	2.4266
22605	11.911	0.90909	0.1	3.2447
22606	12.003	1.	0.1	3.8239
22607	11.726	0.90909	0.1	4.6705
22608	11.819	1.	0.1	5.3131
22609	11.542	0.90909	0.1	6.1855
22610	11.634	1.	0.1	6.8988
22611	11.357	0.90909	0.1	7.7935
22612	11.449	1.	0.1	8.5856
22613	11.173	0.90909	0.1	9.4975
22614	11.265	1.	0.1	10.378
22615	10.988	0.90909	0.1	11.3
22616	11.08	1.	0.1	12.28
22617	10.803	0.90909	0.1	13.202
22618	10.896	1.	0.1	14.295
22619	10.619	0.90909	0.1	15.203
22620	10.711	1.	0.1	16.424
22621	10.434	0.90909	0.1	17.301
22622	10.527	1.	0.1	18.667
22623	10.25	0.90909	0.1	19.49
22624	10.342	1.	0.1	21.023
22625	10.065	0.90909	0.1	21.763
22626	10.157	1.	0.1	23.486
22627	9.8806	0.90909	0.1	24.108
22628	9.9728	1.	0.1	26.049
22629	9.696	0.90909	0.1	26.507
22630	9.7883	1.	0.1	28.699
22631	9.5114	0.90909	0.1	28.937
22632	9.6037	1.	0.1	31.419
22633	9.3269	0.90909	0.1	31.368
22634	9.4191	1.	0.1	34.184
22635	9.1423	0.90909	0.1	33.759
22636	9.2346	1.	0.1	36.963
22637	8.9577	0.90909	0.1	36.061
22638	9.05	1.	0.1	39.713
22639	8.7731	0.90909	0.1	38.212
22640	8.8654	1.	0.1	42.384
22641	8.5886	0.90909	0.1	40.136
22642	8.6809	1.	0.1	44.909
22643	8.404	0.90909	0.1	41.741
22644	8.4963	1.	0.1	47.21
22645	8.2194	0.90909	0.1	42.915
22646	8.3117	1.	0.1	49.188
22647	8.0349	0.90909	0.1	43.529
22648	8.1272	1.	0.1	50.73
22649	7.8503	0.90909	0.1	43.431
22650	7.9426	1.	0.1	51.697
22651	7.6657	0.90909	0.1	42.445
22652	7.758	1.	0.1	51.931
22653	7.4812	0.90909	0.1	40.376
22654	7.5735	1.	0.1	51.249
22655	7.2966	0.90909	0.1	37.007
22656	7.3889	1.	0.1	49.445
22657	7.112	0.90909	0.1	32.111
22658	7.2043	1.	0.1	46.29
22659	6.9275	0.90909	0.1	25.471
22660	7.0198	1.	0.1	41.535
22661	6.7429	0.90909	0.1	17.003
22662	6.8352	1.	0.1	34.931
22663	6.5583	0.90909	0.1	7.6349
22664	6.6506	1.	0.1	26.278
22665	6.3738	0.90909	0.1	2.6544
22666	6.466	1.	0.1	15.754
22667	6.1892	0.90909	0.1	1.6195
22668	6.2815	1.	0.1	6.2489
22669	6.0046	0.90909	0.1	1.3529
22670	6.0969	1.	0.1	2.9144
22671	5.8201	0.90909	0.1	1.3056
22672	5.9123	1.	0.1	2.1139
22673	5.6355	0.90909	0.1	1.366
22674	5.7278	1.	0.1	1.8803
22675	5.4509	0.90909	0.1	1.5047
22676	5.5432	1.	0.1	1.8521
22677	5.2664	0.90909	0.1	1.7084
22678	5.3586	1.	0.1	1.9386
22679	5.0818	0.90909	0.1	1.9924
22680	5.1741	1.	0.1	2.0989
22681	4.8972	0.90909	0.1	2.2738
22682	4.9895	1.	0.1	2.3762
22683	4.7127	0.90909	0.1	2.778
22684	4.8049	1.	0.1	2.5152
22685	4.5281	0.90909	0.1	2.1258
22686	4.6204	1.	0.1	3.4028
22687	4.3435	0.90909	0.1	5.4936
22688	4.4358	1.	0.1	0.78322
22689	4.2512	1.	0.1	10.573
22690	4.159	0.90909	0.1	-2.775
22691	23.723	1.0909	0.1	-0.15551
22692	23.815	1.1818	0.1	-0.11804
22693	23.908	1.0909	0.1	-0.40037
22694	23.539	1.0909	0.1	-0.18247
22695	23.631	1.1818	0.1	-0.2839
22696	23.354	1.0909	0.1	-9.4473e-002
22697	23.446	1.1818	0.1	-0.10974
22698	23.169	1.0909	0.1	-7.5075e-002
22699	23.262	1.1818	0.1	-9.5941e-002
22700	22.985	1.0909	0.1	-5.4865e-002
22701	23.077	1.1818	0.1	-6.703e-002
22702	22.8	1.0909	0.1	-4.3253e-002
22703	22.893	1.1818	0.1	-5.3595e-002
22704	22.616	1.0909	0.1	-3.4367e-002
22705	22.708	1.1818	0.1	-4.2648e-002
22706	22.431	1.0909	0.1	-2.7915e-002
22707	22.523	1.1818	0.1	-3.4984e-002
22708	22.247	1.0909	0.1	-2.2964e-002
22709	22.339	1.1818	0.1	-2.9073e-002
22710	22.062	1.0909	0.1	-1.9125e-002
22711	22.154	1.1818	0.1	-2.4504e-002
22712	21.877	1.0909	0.1	-1.6089e-002
22713	21.97	1.1818	0.1	-2.0883e-002
22714	21.693	1.0909	0.1	-1.3659e-002
22715	21.785	1.1818	0.1	-1.7971e-002
22716	21.508	1.0909	0.1	-1.1691e-002
22717	21.601	1.1818	0.1	-1.5603e-002
22718	21.324	1.0909	0.1	-1.0077e-002
22719	21.416	1.1818	0.1	-1.3655e-002
22720	21.139	1.0909	0.1	-8.7375e-003
22721	21.231	1.1818	0.1	-1.2029e-002
22722	20.955	1.0909	0.1	-7.6198e-003
22723	21.047	1.1818	0.1	-1.0659e-002
22724	20.77	1.0909	0.1	-6.6791e-003
22725	20.862	1.1818	0.1	-9.5023e-003
22726	20.585	1.0909	0.1	-5.8745e-003
22727	20.678	1.1818	0.1	-8.5101e-003
22728	20.401	1.0909	0.1	-5.1855e-003
22729	20.493	1.1818	0.1	-7.6479e-003
22730	20.216	1.0909	0.1	-4.5958e-003
22731	20.309	1.1818	0.1	-6.9062e-003
22732	20.032	1.0909	0.1	-4.0841e-003
22733	20.124	1.1818	0.1	-6.2598e-003
22734	19.847	1.0909	0.1	-3.6335e-003
22735	19.94	1.1818	0.1	-5.6887e-003
22736	19.663	1.0909	0.1	-3.2367e-003
22737	19.755	1.1818	0.1	-5.18e-003
22738	19.478	1.0909	0.1	-2.891e-003
22739	19.57	1.1818	0.1	-4.7293e-003
22740	19.294	1.0909	0.1	-2.5845e-003
22741	19.386	1.1818	0.1	-4.3348e-003
22742	19.109	1.0909	0.1	-2.3061e-003
22743	19.201	1.1818	0.1	-3.9735e-003
22744	18.924	1.0909	0.1	-2.0584e-003
22745	19.017	1.1818	0.1	-3.6432e-003
22746	18.74	1.0909	0.1	-1.8387e-003
22747	18.832	1.1818	0.1	-3.3529e-003
22748	18.555	1.0909	0.1	-1.6323e-003
22749	18.648	1.1818	0.1	-3.0873e-003
22750	18.371	1.0909	0.1	-1.4444e-003
22751	18.463	1.1818	0.1	-2.8306e-003
22752	18.186	1.0909	0.1	-1.2809e-003
22753	18.278	1.1818	0.1	-2.608e-003
22754	18.002	1.0909	0.1	-1.1313e-003
22755	18.094	1.1818	0.1	-2.4061e-003
22756	17.817	1.0909	0.1	-9.8962e-004
22757	17.909	1.1818	0.1	-2.2168e-003
22758	17.632	1.0909	0.1	-8.5704e-004
22759	17.725	1.1818	0.1	-2.0354e-003
22760	17.448	1.0909	0.1	-7.4431e-004
22761	17.54	1.1818	0.1	-1.8699e-003
22762	17.263	1.0909	0.1	-6.3997e-004
22763	17.356	1.1818	0.1	-1.7314e-003
22764	17.079	1.0909	0.1	-5.3269e-004
22765	17.171	1.1818	0.1	-1.586e-003
22766	16.894	1.0909	0.1	-4.3197e-004
22767	16.986	1.1818	0.1	-1.4458e-003
22768	16.71	1.0909	0.1	-3.3789e-004
22769	16.802	1.1818	0.1	-1.3143e-003
22770	16.525	1.0909	0.1	-2.576e-004
22771	16.617	1.1818	0.1	-1.1898e-003
22772	16.34	1.0909	0.1	-1.8154e-004
22773	16.433	1.1818	0.1	-1.0891e-003
22774	16.156	1.0909	0.1	-9.6404e-005
22775	16.248	1.1818	0.1	-9.7369e-004
22776	15.971	1.0909	0.1	-1.8976e-005
22777	16.064	1.1818	0.1	-8.5539e-004
22778	15.787	1.0909	0.1	5.3118e-005
22779	15.879	1.1818	0.1	-7.5585e-004
22780	15.602	1.0909	0.1	1.3907e-004
22781	15.694	1.1818	0.1	-6.4844e-004
22782	15.418	1.0909	0.1	2.263e-004
22783	15.51	1.1818	0.1	-5.1948e-004
22784	15.233	1.0909	0.1	3.0486e-004
22785	15.325	1.1818	0.1	-4.0644e-004
22786	15.048	1.0909	0.1	3.9154e-004
22787	15.141	1.1818	0.1	-2.9192e-004
22788	14.864	1.0909	0.1	4.9611e-004
22789	14.956	1.1818	0.1	-1.5831e-004
22790	14.679	1.0909	0.1	6.1645e-004
22791	14.772	1.1818	0.1	-1.3388e-006
22792	14.495	1.0909	0.1	7.4241e-004
22793	14.587	1.1818	0.1	1.731e-004
22794	14.31	1.0909	0.1	8.9619e-004
22795	14.402	1.1818	0.1	3.5549e-004
22796	14.126	1.0909	0.1	1.1083e-003
22797	14.218	1.1818	0.1	6.0772e-004
22798	13.941	1.0909	0.1	1.3765e-003
22799	14.033	1.1818	0.1	9.407e-004
22800	13.756	1.0909	0.1	1.7371e-003
22801	13.849	1.1818	0.1	1.362e-003
22802	13.572	1.0909	0.1	2.2813e-003
22803	13.664	1.1818	0.1	1.9829e-003
22804	13.387	1.0909	0.1	3.1263e-003
22805	13.48	1.1818	0.1	2.9807e-003
22806	13.203	1.0909	0.1	4.5862e-003
22807	13.295	1.1818	0.1	4.7124e-003
22808	13.018	1.0909	0.1	7.7282e-003
22809	13.11	1.1818	0.1	8.6017e-003
22810	12.834	1.0909	0.1	1.8543e-002
22811	12.926	1.1818	0.1	2.4508e-002
22812	12.649	1.0909	0.1	0.29553
22813	12.741	1.1818	0.1	0.51286
22814	12.465	1.0909	0.1	1.5191
22815	12.557	1.1818	0.1	1.7953
22816	12.28	1.0909	0.1	2.8752
22817	12.372	1.1818	0.1	3.1886
22818	12.095	1.0909	0.1	4.3251
22819	12.188	1.1818	0.1	4.6789
22820	11.911	1.0909	0.1	5.8721
22821	12.003	1.1818	0.1	6.2707
22822	11.726	1.0909	0.1	7.5217
22823	11.819	1.1818	0.1	7.9705
22824	11.542	1.0909	0.1	9.2796
22825	11.634	1.1818	0.1	9.7852
22826	11.357	1.0909	0.1	11.151
22827	11.449	1.1818	0.1	11.721
22828	11.173	1.0909	0.1	13.143
22829	11.265	1.1818	0.1	13.786
22830	10.988	1.0909	0.1	15.257
22831	11.08	1.1818	0.1	15.985
22832	10.803	1.0909	0.1	17.499
22833	10.896	1.1818	0.1	18.324
22834	10.619	1.0909	0.1	19.871
22835	10.711	1.1818	0.1	20.807
22836	10.434	1.0909	0.1	22.373
22837	10.527	1.1818	0.1	23.439
22838	10.25	1.0909	0.1	25.003
22839	10.342	1.1818	0.1	26.22
22840	10.065	1.0909	0.1	27.757
22841	10.157	1.1818	0.1	29.149
22842	9.8806	1.0909	0.1	30.626
22843	9.9728	1.1818	0.1	32.224
22844	9.696	1.0909	0.1	33.597
22845	9.7883	1.1818	0.1	35.436
22846	9.5114	1.0909	0.1	36.652
22847	9.6037	1.1818	0.1	38.774
22848	9.3269	1.0909	0.1	39.766
22849	9.4191	1.1818	0.1	42.219
22850	9.1423	1.0909	0.1	42.904
22851	9.2346	1.1818	0.1	45.747
22852	8.9577	1.0909	0.1	46.023
22853	9.05	1.1818	0.1	49.324
22854	8.7731	1.0909	0.1	49.067
22855	8.8654	1.1818	0.1	52.908
22856	8.5886	1.0909	0.1	51.969
22857	8.6809	1.1818	0.1	56.442
22858	8.404	1.0909	0.1	54.643
22859	8.4963	1.1818	0.1	59.859
22860	8.2194	1.0909	0.1	56.988
22861	8.3117	1.1818	0.1	63.072
22862	8.0349	1.0909	0.1	58.882
22863	8.1272	1.1818	0.1	65.98
22864	7.8503	1.0909	0.1	60.181
22865	7.9426	1.1818	0.1	68.458
22866	7.6657	1.0909	0.1	60.718
22867	7.758	1.1818	0.1	70.361
22868	7.4812	1.0909	0.1	60.302
22869	7.5735	1.1818	0.1	71.519
22870	7.2966	1.0909	0.1	58.715
22871	7.3889	1.1818	0.1	71.734
22872	7.112	1.0909	0.1	55.712
22873	7.2043	1.1818	0.1	70.781
22874	6.9275	1.0909	0.1	51.026
22875	7.0198	1.1818	0.1	68.399
22876	6.7429	1.0909	0.1	44.368
22877	6.8352	1.1818	0.1	64.292
22878	6.5583	1.0909	0.1	35.459
22879	6.6506	1.1818	0.1	58.119
22880	6.3738	1.0909	0.1	24.208
22881	6.466	1.1818	0.1	49.493
22882	6.1892	1.0909	0.1	11.974
22883	6.2815	1.1818	0.1	38.026
22884	6.0046	1.0909	0.1	4.9865
22885	6.0969	1.1818	0.1	23.773
22886	5.8201	1.0909	0.1	3.1282
22887	5.9123	1.1818	0.1	10.391
22888	5.6355	1.0909	0.1	2.5571
22889	5.7278	1.1818	0.1	5.0147
22890	5.4509	1.0909	0.1	2.3712
22891	5.5432	1.1818	0.1	3.5205
22892	5.2664	1.0909	0.1	2.3592
22893	5.3586	1.1818	0.1	2.9895
22894	5.0818	1.0909	0.1	2.4863
22895	5.1741	1.1818	0.1	2.8108
22896	4.8972	1.0909	0.1	2.6201
22897	4.9895	1.1818	0.1	2.8795
22898	4.7127	1.0909	0.1	3.1661
22899	4.8049	1.1818	0.1	2.9861
22900	4.5281	1.0909	0.1	2.1453
22901	4.6204	1.1818	0.1	3.9477
22902	4.3435	1.0909	0.1	6.443
22903	4.4358	1.1818	0.1	0.78757
22904	4.2512	1.1818	0.1	10.882
22905	4.159	1.0909	0.1	-0.85659
22906	23.723	1.2727	0.1	-0.17422
22907	23.815	1.3636	0.1	-0.1406
22908	23.908	1.2727	0.1	-0.40851
22909	23.539	1.2727	0.1	-0.19553
22910	23.631	1.3636	0.1	-0.297
22911	23.354	1.2727	0.1	-0.10519
22912	23.446	1.3636	0.1	-0.11941
22913	23.169	1.2727	0.1	-8.4816e-002
22914	23.262	1.3636	0.1	-0.10462
22915	22.985	1.2727	0.1	-6.3864e-002
22916	23.077	1.3636	0.1	-7.4945e-002
22917	22.8	1.2727	0.1	-5.1677e-002
22918	22.893	1.3636	0.1	-6.0999e-002
22919	22.616	1.2727	0.1	-4.228e-002
22920	22.708	1.3636	0.1	-4.9624e-002
22921	22.431	1.2727	0.1	-3.5363e-002
22922	22.523	1.3636	0.1	-4.158e-002
22923	22.247	1.2727	0.1	-2.9974e-002
22924	22.339	1.3636	0.1	-3.5317e-002
22925	22.062	1.2727	0.1	-2.5724e-002
22926	22.154	1.3636	0.1	-3.0414e-002
22927	21.877	1.2727	0.1	-2.2303e-002
22928	21.97	1.3636	0.1	-2.6478e-002
22929	21.693	1.2727	0.1	-1.9514e-002
22930	21.785	1.3636	0.1	-2.3269e-002
22931	21.508	1.2727	0.1	-1.7215e-002
22932	21.601	1.3636	0.1	-2.0621e-002
22933	21.324	1.2727	0.1	-1.5294e-002
22934	21.416	1.3636	0.1	-1.8413e-002
22935	21.139	1.2727	0.1	-1.3672e-002
22936	21.231	1.3636	0.1	-1.6545e-002
22937	20.955	1.2727	0.1	-1.2293e-002
22938	21.047	1.3636	0.1	-1.4949e-002
22939	20.77	1.2727	0.1	-1.111e-002
22940	20.862	1.3636	0.1	-1.3583e-002
22941	20.585	1.2727	0.1	-1.0082e-002
22942	20.678	1.3636	0.1	-1.2397e-002
22943	20.401	1.2727	0.1	-9.186e-003
22944	20.493	1.3636	0.1	-1.1353e-002
22945	20.216	1.2727	0.1	-8.4046e-003
22946	20.309	1.3636	0.1	-1.0442e-002
22947	20.032	1.2727	0.1	-7.714e-003
22948	20.124	1.3636	0.1	-9.6387e-003
22949	19.847	1.2727	0.1	-7.0983e-003
22950	19.94	1.3636	0.1	-8.9211e-003
22951	19.663	1.2727	0.1	-6.5478e-003
22952	19.755	1.3636	0.1	-8.2762e-003
22953	19.478	1.2727	0.1	-6.0593e-003
22954	19.57	1.3636	0.1	-7.6979e-003
22955	19.294	1.2727	0.1	-5.6199e-003
22956	19.386	1.3636	0.1	-7.1851e-003
22957	19.109	1.2727	0.1	-5.2158e-003
22958	19.201	1.3636	0.1	-6.7125e-003
22959	18.924	1.2727	0.1	-4.8511e-003
22960	19.017	1.3636	0.1	-6.2766e-003
22961	18.74	1.2727	0.1	-4.5224e-003
22962	18.832	1.3636	0.1	-5.8891e-003
22963	18.555	1.2727	0.1	-4.2135e-003
22964	18.648	1.3636	0.1	-5.53e-003
22965	18.371	1.2727	0.1	-3.9286e-003
22966	18.463	1.3636	0.1	-5.1867e-003
22967	18.186	1.2727	0.1	-3.6734e-003
22968	18.278	1.3636	0.1	-4.882e-003
22969	18.002	1.2727	0.1	-3.4373e-003
22970	18.094	1.3636	0.1	-4.6026e-003
22971	17.817	1.2727	0.1	-3.2134e-003
22972	17.909	1.3636	0.1	-4.3395e-003
22973	17.632	1.2727	0.1	-3.0039e-003
22974	17.725	1.3636	0.1	-4.0885e-003
22975	17.448	1.2727	0.1	-2.8172e-003
22976	17.54	1.3636	0.1	-3.8568e-003
22977	17.263	1.2727	0.1	-2.6419e-003
22978	17.356	1.3636	0.1	-3.6543e-003
22979	17.079	1.2727	0.1	-2.4677e-003
22980	17.171	1.3636	0.1	-3.4482e-003
22981	16.894	1.2727	0.1	-2.3007e-003
22982	16.986	1.3636	0.1	-3.2503e-003
22983	16.71	1.2727	0.1	-2.1426e-003
22984	16.802	1.3636	0.1	-3.0606e-003
22985	16.525	1.2727	0.1	-2.0015e-003
22986	16.617	1.3636	0.1	-2.882e-003
22987	16.34	1.2727	0.1	-1.8652e-003
22988	16.433	1.3636	0.1	-2.7278e-003
22989	16.156	1.2727	0.1	-1.7205e-003
22990	16.248	1.3636	0.1	-2.5603e-003
22991	15.971	1.2727	0.1	-1.5839e-003
22992	16.064	1.3636	0.1	-2.3899e-003
22993	15.787	1.2727	0.1	-1.4529e-003
22994	15.879	1.3636	0.1	-2.238e-003
22995	15.602	1.2727	0.1	-1.3066e-003
22996	15.694	1.3636	0.1	-2.079e-003
22997	15.418	1.2727	0.1	-1.1562e-003
22998	15.51	1.3636	0.1	-1.8955e-003
22999	15.233	1.2727	0.1	-1.0118e-003
23000	15.325	1.3636	0.1	-1.7267e-003
23001	15.048	1.2727	0.1	-8.5539e-004
23002	15.141	1.3636	0.1	-1.5534e-003
23003	14.864	1.2727	0.1	-6.749e-004
23004	14.956	1.3636	0.1	-1.3561e-003
23005	14.679	1.2727	0.1	-4.6996e-004
23006	14.772	1.3636	0.1	-1.1276e-003
23007	14.495	1.2727	0.1	-2.4594e-004
23008	14.587	1.3636	0.1	-8.7164e-004
23009	14.31	1.2727	0.1	2.7189e-005
23010	14.402	1.3636	0.1	-5.8949e-004
23011	14.126	1.2727	0.1	3.9171e-004
23012	14.218	1.3636	0.1	-2.0945e-004
23013	13.941	1.2727	0.1	8.6888e-004
23014	14.033	1.3636	0.1	3.0006e-004
23015	13.756	1.2727	0.1	1.543e-003
23016	13.849	1.3636	0.1	9.9188e-004
23017	13.572	1.2727	0.1	2.6196e-003
23018	13.664	1.3636	0.1	2.0839e-003
23019	13.387	1.2727	0.1	4.552e-003
23020	13.48	1.3636	0.1	4.0827e-003
23021	13.203	1.2727	0.1	9.0507e-003
23022	13.295	1.3636	0.1	8.785e-003
23023	13.018	1.2727	0.1	3.0965e-002
23024	13.11	1.3636	0.1	3.3863e-002
23025	12.834	1.2727	0.1	0.69482
23026	12.926	1.3636	0.1	0.778
23027	12.649	1.2727	0.1	2.017
23028	12.741	1.3636	0.1	2.1232
23029	12.465	1.2727	0.1	3.4445
23030	12.557	1.3636	0.1	3.5731
23031	12.28	1.2727	0.1	4.9716
23032	12.372	1.3636	0.1	5.1247
23033	12.095	1.2727	0.1	6.6041
23034	12.188	1.3636	0.1	6.7848
23035	11.911	1.2727	0.1	8.3492
23036	12.003	1.3636	0.1	8.5612
23037	11.726	1.2727	0.1	10.215
23038	11.819	1.3636	0.1	10.462
23039	11.542	1.2727	0.1	12.208
23040	11.634	1.3636	0.1	12.497
23041	11.357	1.2727	0.1	14.338
23042	11.449	1.3636	0.1	14.674
23043	11.173	1.2727	0.1	16.611
23044	11.265	1.3636	0.1	17.003
23045	10.988	1.2727	0.1	19.034
23046	11.08	1.3636	0.1	19.493
23047	10.803	1.2727	0.1	21.615
23048	10.896	1.3636	0.1	22.151
23049	10.619	1.2727	0.1	24.359
23050	10.711	1.3636	0.1	24.986
23051	10.434	1.2727	0.1	27.27
23052	10.527	1.3636	0.1	28.005
23053	10.25	1.2727	0.1	30.351
23054	10.342	1.3636	0.1	31.215
23055	10.065	1.2727	0.1	33.602
23056	10.157	1.3636	0.1	34.619
23057	9.8806	1.2727	0.1	37.021
23058	9.9728	1.3636	0.1	38.219
23059	9.696	1.2727	0.1	40.599
23060	9.7883	1.3636	0.1	42.016
23061	9.5114	1.2727	0.1	44.328
23062	9.6037	1.3636	0.1	46.003
23063	9.3269	1.2727	0.1	48.188
23064	9.4191	1.3636	0.1	50.174
23065	9.1423	1.2727	0.1	52.155
23066	9.2346	1.3636	0.1	54.512
23067	8.9577	1.2727	0.1	56.198
23068	9.05	1.3636	0.1	58.995
23069	8.7731	1.2727	0.1	60.271
23070	8.8654	1.3636	0.1	63.594
23071	8.5886	1.2727	0.1	64.32
23072	8.6809	1.3636	0.1	68.268
23073	8.404	1.2727	0.1	68.275
23074	8.4963	1.3636	0.1	72.965
23075	8.2194	1.2727	0.1	72.051
23076	8.3117	1.3636	0.1	77.617
23077	8.0349	1.2727	0.1	75.542
23078	8.1272	1.3636	0.1	82.142
23079	7.8503	1.2727	0.1	78.624
23080	7.9426	1.3636	0.1	86.438
23081	7.6657	1.2727	0.1	81.147
23082	7.758	1.3636	0.1	90.382
23083	7.4812	1.2727	0.1	82.936
23084	7.5735	1.3636	0.1	93.826
23085	7.2966	1.2727	0.1	83.787
23086	7.3889	1.3636	0.1	96.594
23087	7.112	1.2727	0.1	83.461
23088	7.2043	1.3636	0.1	98.477
23089	6.9275	1.2727	0.1	81.675
23090	7.0198	1.3636	0.1	99.222
23091	6.7429	1.2727	0.1	78.093
23092	6.8352	1.3636	0.1	98.523
23093	6.5583	1.2727	0.1	72.302
23094	6.6506	1.3636	0.1	95.998
23095	6.3738	1.2727	0.1	63.779
23096	6.466	1.3636	0.1	91.144
23097	6.1892	1.2727	0.1	51.877
23098	6.2815	1.3636	0.1	83.285
23099	6.0046	1.2727	0.1	36.006
23100	6.0969	1.3636	0.1	71.472
23101	5.8201	1.2727	0.1	17.763
23102	5.9123	1.3636	0.1	54.456
23103	5.6355	1.2727	0.1	7.26
23104	5.7278	1.3636	0.1	31.618
23105	5.4509	1.2727	0.1	4.4284
23106	5.5432	1.3636	0.1	11.688
23107	5.2664	1.2727	0.1	3.5003
23108	5.3586	1.3636	0.1	5.7158
23109	5.0818	1.2727	0.1	3.194
23110	5.1741	1.3636	0.1	4.105
23111	4.8972	1.2727	0.1	3.2174
23112	4.9895	1.3636	0.1	3.681
23113	4.7127	1.2727	0.1	3.7531
23114	4.8049	1.3636	0.1	3.7827
23115	4.5281	1.2727	0.1	2.617
23116	4.6204	1.3636	0.1	4.4852
23117	4.3435	1.2727	0.1	5.6539
23118	4.4358	1.3636	0.1	1.6004
23119	4.2512	1.3636	0.1	20.946
23120	4.159	1.2727	0.1	-7.6627
23121	23.723	1.4545	0.1	-0.18817
23122	23.815	1.5455	0.1	-0.15824
23123	23.908	1.4545	0.1	-0.41402
23124	23.539	1.4545	0.1	-0.20499
23125	23.631	1.5455	0.1	-0.3068
23126	23.354	1.4545	0.1	-0.11287
23127	23.446	1.5455	0.1	-0.12653
23128	23.169	1.4545	0.1	-9.1788e-002
23129	23.262	1.5455	0.1	-0.11099
23130	22.985	1.4545	0.1	-7.0321e-002
23131	23.077	1.5455	0.1	-8.0737e-002
23132	22.8	1.4545	0.1	-5.7767e-002
23133	22.893	1.5455	0.1	-6.6435e-002
23134	22.616	1.4545	0.1	-4.8062e-002
23135	22.708	1.5455	0.1	-5.478e-002
23136	22.431	1.4545	0.1	-4.0866e-002
23137	22.523	1.5455	0.1	-4.65e-002
23138	22.247	1.4545	0.1	-3.5216e-002
23139	22.339	1.5455	0.1	-4.0021e-002
23140	22.062	1.4545	0.1	-3.0716e-002
23141	22.154	1.5455	0.1	-3.4914e-002
23142	21.877	1.4545	0.1	-2.7057e-002
23143	21.97	1.5455	0.1	-3.078e-002
23144	21.693	1.4545	0.1	-2.4041e-002
23145	21.785	1.5455	0.1	-2.7385e-002
23146	21.508	1.4545	0.1	-2.1525e-002
23147	21.601	1.5455	0.1	-2.4555e-002
23148	21.324	1.4545	0.1	-1.9402e-002
23149	21.416	1.5455	0.1	-2.2175e-002
23150	21.139	1.4545	0.1	-1.7588e-002
23151	21.231	1.5455	0.1	-2.0143e-002
23152	20.955	1.4545	0.1	-1.6028e-002
23153	21.047	1.5455	0.1	-1.8392e-002
23154	20.77	1.4545	0.1	-1.4678e-002
23155	20.862	1.5455	0.1	-1.6879e-002
23156	20.585	1.4545	0.1	-1.3493e-002
23157	20.678	1.5455	0.1	-1.5555e-002
23158	20.401	1.4545	0.1	-1.245e-002
23159	20.493	1.5455	0.1	-1.4382e-002
23160	20.216	1.4545	0.1	-1.153e-002
23161	20.309	1.5455	0.1	-1.335e-002
23162	20.032	1.4545	0.1	-1.0712e-002
23163	20.124	1.5455	0.1	-1.2433e-002
23164	19.847	1.4545	0.1	-9.9758e-003
23165	19.94	1.5455	0.1	-1.1609e-002
23166	19.663	1.4545	0.1	-9.3128e-003
23167	19.755	1.5455	0.1	-1.0863e-002
23168	19.478	1.4545	0.1	-8.719e-003
23169	19.57	1.5455	0.1	-1.0191e-002
23170	19.294	1.4545	0.1	-8.1809e-003
23171	19.386	1.5455	0.1	-9.5891e-003
23172	19.109	1.4545	0.1	-7.6839e-003
23173	19.201	1.5455	0.1	-9.0334e-003
23174	18.924	1.4545	0.1	-7.2318e-003
23175	19.017	1.5455	0.1	-8.5191e-003
23176	18.74	1.4545	0.1	-6.8201e-003
23177	18.832	1.5455	0.1	-8.058e-003
23178	18.555	1.4545	0.1	-6.4324e-003
23179	18.648	1.5455	0.1	-7.6286e-003
23180	18.371	1.4545	0.1	-6.0747e-003
23181	18.463	1.5455	0.1	-7.2199e-003
23182	18.186	1.4545	0.1	-5.7507e-003
23183	18.278	1.5455	0.1	-6.8529e-003
23184	18.002	1.4545	0.1	-5.4489e-003
23185	18.094	1.5455	0.1	-6.5148e-003
23186	17.817	1.4545	0.1	-5.1631e-003
23187	17.909	1.5455	0.1	-6.1955e-003
23188	17.632	1.4545	0.1	-4.8941e-003
23189	17.725	1.5455	0.1	-5.8912e-003
23190	17.448	1.4545	0.1	-4.6505e-003
23191	17.54	1.5455	0.1	-5.6084e-003
23192	17.263	1.4545	0.1	-4.4209e-003
23193	17.356	1.5455	0.1	-5.3576e-003
23194	17.079	1.4545	0.1	-4.1948e-003
23195	17.171	1.5455	0.1	-5.1047e-003
23196	16.894	1.4545	0.1	-3.9777e-003
23197	16.986	1.5455	0.1	-4.8623e-003
23198	16.71	1.4545	0.1	-3.771e-003
23199	16.802	1.5455	0.1	-4.6296e-003
23200	16.525	1.4545	0.1	-3.5828e-003
23201	16.617	1.5455	0.1	-4.4093e-003
23202	16.34	1.4545	0.1	-3.4009e-003
23203	16.433	1.5455	0.1	-4.215e-003
23204	16.156	1.4545	0.1	-3.2112e-003
23205	16.248	1.5455	0.1	-4.0078e-003
23206	15.971	1.4545	0.1	-3.0292e-003
23207	16.064	1.5455	0.1	-3.7983e-003
23208	15.787	1.4545	0.1	-2.8531e-003
23209	15.879	1.5455	0.1	-3.6079e-003
23210	15.602	1.4545	0.1	-2.661e-003
23211	15.694	1.5455	0.1	-3.4101e-003
23212	15.418	1.4545	0.1	-2.4636e-003
23213	15.51	1.5455	0.1	-3.1874e-003
23214	15.233	1.4545	0.1	-2.2709e-003
23215	15.325	1.5455	0.1	-2.9784e-003
23216	15.048	1.4545	0.1	-2.0625e-003
23217	15.141	1.5455	0.1	-2.7626e-003
23218	14.864	1.4545	0.1	-1.8239e-003
23219	14.956	1.5455	0.1	-2.5192e-003
23220	14.679	1.4545	0.1	-1.5524e-003
23221	14.772	1.5455	0.1	-2.2393e-003
23222	14.495	1.4545	0.1	-1.2483e-003
23223	14.587	1.5455	0.1	-1.9209e-003
23224	14.31	1.4545	0.1	-8.7214e-004
23225	14.402	1.5455	0.1	-1.5604e-003
23226	14.126	1.4545	0.1	-3.6459e-004
23227	14.218	1.5455	0.1	-1.0709e-003
23228	13.941	1.4545	0.1	3.3437e-004
23229	14.033	1.5455	0.1	-3.9068e-004
23230	13.756	1.4545	0.1	1.4047e-003
23231	13.849	1.5455	0.1	6.0957e-004
23232	13.572	1.4545	0.1	3.3509e-003
23233	13.664	1.5455	0.1	2.393e-003
23234	13.387	1.4545	0.1	7.9927e-003
23235	13.48	1.5455	0.1	6.5842e-003
23236	13.203	1.4545	0.1	3.3886e-002
23237	13.295	1.5455	0.1	2.8252e-002
23238	13.018	1.4545	0.1	0.82135
23239	13.11	1.5455	0.1	0.77049
23240	12.834	1.4545	0.1	2.1872
23241	12.926	1.5455	0.1	2.1447
23242	12.649	1.4545	0.1	3.658
23243	12.741	1.5455	0.1	3.625
23244	12.465	1.4545	0.1	5.2322
23245	12.557	1.5455	0.1	5.2101
23246	12.28	1.4545	0.1	6.9173
23247	12.372	1.5455	0.1	6.9073
23248	12.095	1.4545	0.1	8.7218
23249	12.188	1.5455	0.1	8.726
23250	11.911	1.4545	0.1	10.655
23251	12.003	1.5455	0.1	10.676
23252	11.726	1.4545	0.1	12.726
23253	11.819	1.5455	0.1	12.767
23254	11.542	1.4545	0.1	14.945
23255	11.634	1.5455	0.1	15.01
23256	11.357	1.4545	0.1	17.323
23257	11.449	1.5455	0.1	17.417
23258	11.173	1.4545	0.1	19.868
23259	11.265	1.5455	0.1	19.999
23260	10.988	1.4545	0.1	22.593
23261	11.08	1.5455	0.1	22.767
23262	10.803	1.4545	0.1	25.505
23263	10.896	1.5455	0.1	25.734
23264	10.619	1.4545	0.1	28.617
23265	10.711	1.5455	0.1	28.911
23266	10.434	1.4545	0.1	31.935
23267	10.527	1.5455	0.1	32.31
23268	10.25	1.4545	0.1	35.468
23269	10.342	1.5455	0.1	35.942
23270	10.065	1.4545	0.1	39.222
23271	10.157	1.5455	0.1	39.818
23272	9.8806	1.4545	0.1	43.202
23273	9.9728	1.5455	0.1	43.947
23274	9.696	1.4545	0.1	47.408
23275	9.7883	1.5455	0.1	48.335
23276	9.5114	1.4545	0.1	51.838
23277	9.6037	1.5455	0.1	52.987
23278	9.3269	1.4545	0.1	56.487
23279	9.4191	1.5455	0.1	57.906
23280	9.1423	1.4545	0.1	61.341
23281	9.2346	1.5455	0.1	63.088
23282	8.9577	1.4545	0.1	66.382
23283	9.05	1.5455	0.1	68.526
23284	8.7731	1.4545	0.1	71.582
23285	8.8654	1.5455	0.1	74.205
23286	8.5886	1.4545	0.1	76.903
23287	8.6809	1.5455	0.1	80.104
23288	8.404	1.4545	0.1	82.296
23289	8.4963	1.5455	0.1	86.191
23290	8.2194	1.4545	0.1	87.697
23291	8.3117	1.5455	0.1	92.421
23292	8.0349	1.4545	0.1	93.027
23293	8.1272	1.5455	0.1	98.739
23294	7.8503	1.4545	0.1	98.184
23295	7.9426	1.5455	0.1	105.07
23296	7.6657	1.4545	0.1	103.05
23297	7.758	1.5455	0.1	111.32
23298	7.4812	1.4545	0.1	107.47
23299	7.5735	1.5455	0.1	117.37
23300	7.2966	1.4545	0.1	111.27
23301	7.3889	1.5455	0.1	123.08
23302	7.112	1.4545	0.1	114.23
23303	7.2043	1.5455	0.1	128.26
23304	6.9275	1.4545	0.1	116.08
23305	7.0198	1.5455	0.1	132.69
23306	6.7429	1.4545	0.1	116.46
23307	6.8352	1.5455	0.1	136.07
23308	6.5583	1.4545	0.1	114.93
23309	6.6506	1.5455	0.1	138.02
23310	6.3738	1.4545	0.1	110.84
23311	6.466	1.5455	0.1	137.99
23312	6.1892	1.4545	0.1	103.31
23313	6.2815	1.5455	0.1	135.23
23314	6.0046	1.4545	0.1	90.975
23315	6.0969	1.5455	0.1	128.6
23316	5.8201	1.4545	0.1	71.877
23317	5.9123	1.5455	0.1	116.34
23318	5.6355	1.4545	0.1	43.998
23319	5.7278	1.5455	0.1	95.781
23320	5.4509	1.4545	0.1	15.349
23321	5.5432	1.5455	0.1	63.342
23322	5.2664	1.4545	0.1	6.4997
23323	5.3586	1.5455	0.1	22.89
23324	5.0818	1.4545	0.1	4.5516
23325	5.1741	1.5455	0.1	7.7511
23326	4.8972	1.4545	0.1	4.1839
23327	4.9895	1.5455	0.1	5.3587
23328	4.7127	1.4545	0.1	4.4596
23329	4.8049	1.5455	0.1	3.8043
23330	4.5281	1.4545	0.1	3.4655
23331	4.6204	1.5455	0.1	9.5901
23332	4.3435	1.4545	0.1	17.292
23333	4.4358	1.5455	0.1	-0.35668
23334	4.2512	1.5455	0.1	8.5112
23335	4.159	1.4545	0.1	20.959
23336	23.723	1.6364	0.1	-0.19903
23337	23.815	1.7273	0.1	-0.17233
23338	23.908	1.6364	0.1	-0.41814
23339	23.539	1.6364	0.1	-0.21219
23340	23.631	1.7273	0.1	-0.31434
23341	23.354	1.6364	0.1	-0.11866
23342	23.446	1.7273	0.1	-0.13195
23343	23.169	1.6364	0.1	-9.7024e-002
23344	23.262	1.7273	0.1	-0.1158
23345	22.985	1.6364	0.1	-7.5165e-002
23346	23.077	1.7273	0.1	-8.5103e-002
23347	22.8	1.6364	0.1	-6.2346e-002
23348	22.893	1.7273	0.1	-7.0532e-002
23349	22.616	1.6364	0.1	-5.2433e-002
23350	22.708	1.7273	0.1	-5.8675e-002
23351	22.431	1.6364	0.1	-4.5058e-002
23352	22.523	1.7273	0.1	-5.0238e-002
23353	22.247	1.6364	0.1	-3.9243e-002
23354	22.339	1.7273	0.1	-4.362e-002
23355	22.062	1.6364	0.1	-3.4585e-002
23356	22.154	1.7273	0.1	-3.8384e-002
23357	21.877	1.6364	0.1	-3.0775e-002
23358	21.97	1.7273	0.1	-3.4125e-002
23359	21.693	1.6364	0.1	-2.7611e-002
23360	21.785	1.7273	0.1	-3.0609e-002
23361	21.508	1.6364	0.1	-2.4952e-002
23362	21.601	1.7273	0.1	-2.766e-002
23363	21.324	1.6364	0.1	-2.2691e-002
23364	21.416	1.7273	0.1	-2.5166e-002
23365	21.139	1.6364	0.1	-2.0745e-002
23366	21.231	1.7273	0.1	-2.3022e-002
23367	20.955	1.6364	0.1	-1.906e-002
23368	21.047	1.7273	0.1	-2.1164e-002
23369	20.77	1.6364	0.1	-1.759e-002
23370	20.862	1.7273	0.1	-1.9549e-002
23371	20.585	1.6364	0.1	-1.6291e-002
23372	20.678	1.7273	0.1	-1.8127e-002
23373	20.401	1.6364	0.1	-1.5142e-002
23374	20.493	1.7273	0.1	-1.686e-002
23375	20.216	1.6364	0.1	-1.4123e-002
23376	20.309	1.7273	0.1	-1.5742e-002
23377	20.032	1.6364	0.1	-1.321e-002
23378	20.124	1.7273	0.1	-1.4742e-002
23379	19.847	1.6364	0.1	-1.2384e-002
23380	19.94	1.7273	0.1	-1.3839e-002
23381	19.663	1.6364	0.1	-1.1637e-002
23382	19.755	1.7273	0.1	-1.3017e-002
23383	19.478	1.6364	0.1	-1.0965e-002
23384	19.57	1.7273	0.1	-1.2276e-002
23385	19.294	1.6364	0.1	-1.0352e-002
23386	19.386	1.7273	0.1	-1.1609e-002
23387	19.109	1.6364	0.1	-9.7847e-003
23388	19.201	1.7273	0.1	-1.099e-002
23389	18.924	1.6364	0.1	-9.2668e-003
23390	19.017	1.7273	0.1	-1.0418e-002
23391	18.74	1.6364	0.1	-8.7931e-003
23392	18.832	1.7273	0.1	-9.9005e-003
23393	18.555	1.6364	0.1	-8.3474e-003
23394	18.648	1.7273	0.1	-9.42e-003
23395	18.371	1.6364	0.1	-7.9337e-003
23396	18.463	1.7273	0.1	-8.9616e-003
23397	18.186	1.6364	0.1	-7.5567e-003
23398	18.278	1.7273	0.1	-8.5463e-003
23399	18.002	1.6364	0.1	-7.205e-003
23400	18.094	1.7273	0.1	-8.165e-003
23401	17.817	1.6364	0.1	-6.8708e-003
23402	17.909	1.7273	0.1	-7.8033e-003
23403	17.632	1.6364	0.1	-6.5562e-003
23404	17.725	1.7273	0.1	-7.4584e-003
23405	17.448	1.6364	0.1	-6.2695e-003
23406	17.54	1.7273	0.1	-7.1372e-003
23407	17.263	1.6364	0.1	-5.9986e-003
23408	17.356	1.7273	0.1	-6.8499e-003
23409	17.079	1.6364	0.1	-5.7326e-003
23410	17.171	1.7273	0.1	-6.5619e-003
23411	16.894	1.6364	0.1	-5.4776e-003
23412	16.986	1.7273	0.1	-6.286e-003
23413	16.71	1.6364	0.1	-5.2344e-003
23414	16.802	1.7273	0.1	-6.0223e-003
23415	16.525	1.6364	0.1	-5.011e-003
23416	16.617	1.7273	0.1	-5.7709e-003
23417	16.34	1.6364	0.1	-4.7945e-003
23418	16.433	1.7273	0.1	-5.5467e-003
23419	16.156	1.6364	0.1	-4.5706e-003
23420	16.248	1.7273	0.1	-5.3111e-003
23421	15.971	1.6364	0.1	-4.356e-003
23422	16.064	1.7273	0.1	-5.0739e-003
23423	15.787	1.6364	0.1	-4.1475e-003
23424	15.879	1.7273	0.1	-4.8568e-003
23425	15.602	1.6364	0.1	-3.9231e-003
23426	15.694	1.7273	0.1	-4.632e-003
23427	15.418	1.6364	0.1	-3.6932e-003
23428	15.51	1.7273	0.1	-4.3839e-003
23429	15.233	1.6364	0.1	-3.4662e-003
23430	15.325	1.7273	0.1	-4.149e-003
23431	15.048	1.6364	0.1	-3.2215e-003
23432	15.141	1.7273	0.1	-3.9056e-003
23433	14.864	1.6364	0.1	-2.9444e-003
23434	14.956	1.7273	0.1	-3.634e-003
23435	14.679	1.6364	0.1	-2.6273e-003
23436	14.772	1.7273	0.1	-3.3224e-003
23437	14.495	1.6364	0.1	-2.2657e-003
23438	14.587	1.7273	0.1	-2.9655e-003
23439	14.31	1.6364	0.1	-1.8114e-003
23440	14.402	1.7273	0.1	-2.5538e-003
23441	14.126	1.6364	0.1	-1.1804e-003
23442	14.218	1.7273	0.1	-1.9836e-003
23443	13.941	1.6364	0.1	-2.5571e-004
23444	14.033	1.7273	0.1	-1.1535e-003
23445	13.756	1.6364	0.1	1.3297e-003
23446	13.849	1.7273	0.1	1.9194e-004
23447	13.572	1.6364	0.1	4.9324e-003
23448	13.664	1.7273	0.1	3.0857e-003
23449	13.387	1.6364	0.1	2.1809e-002
23450	13.48	1.7273	0.1	1.4613e-002
23451	13.203	1.6364	0.1	0.68891
23452	13.295	1.7273	0.1	0.52434
23453	13.018	1.6364	0.1	2.0708
23454	13.11	1.7273	0.1	1.9005
23455	12.834	1.6364	0.1	3.5605
23456	12.926	1.7273	0.1	3.389
23457	12.649	1.6364	0.1	5.1557
23458	12.741	1.7273	0.1	4.9829
23459	12.465	1.6364	0.1	6.8643
23460	12.557	1.7273	0.1	6.6904
23461	12.28	1.6364	0.1	8.6957
23462	12.372	1.7273	0.1	8.521
23463	12.095	1.6364	0.1	10.66
23464	12.188	1.7273	0.1	10.486
23465	11.911	1.6364	0.1	12.769
23466	12.003	1.7273	0.1	12.595
23467	11.726	1.6364	0.1	15.033
23468	11.819	1.7273	0.1	14.863
23469	11.542	1.6364	0.1	17.464
23470	11.634	1.7273	0.1	17.3
23471	11.357	1.6364	0.1	20.076
23472	11.449	1.7273	0.1	19.921
23473	11.173	1.6364	0.1	22.881
23474	11.265	1.7273	0.1	22.739
23475	10.988	1.6364	0.1	25.892
23476	11.08	1.7273	0.1	25.77
23477	10.803	1.6364	0.1	29.124
23478	10.896	1.7273	0.1	29.029
23479	10.619	1.6364	0.1	32.59
23480	10.711	1.7273	0.1	32.531
23481	10.434	1.6364	0.1	36.304
23482	10.527	1.7273	0.1	36.295
23483	10.25	1.6364	0.1	40.28
23484	10.342	1.7273	0.1	40.334
23485	10.065	1.6364	0.1	44.531
23486	10.157	1.7273	0.1	44.668
23487	9.8806	1.6364	0.1	49.068
23488	9.9728	1.7273	0.1	49.312
23489	9.696	1.6364	0.1	53.904
23490	9.7883	1.7273	0.1	54.281
23491	9.5114	1.6364	0.1	59.045
23492	9.6037	1.7273	0.1	59.592
23493	9.3269	1.6364	0.1	64.497
23494	9.4191	1.7273	0.1	65.257
23495	9.1423	1.6364	0.1	70.264
23496	9.2346	1.7273	0.1	71.288
23497	8.9577	1.6364	0.1	76.341
23498	9.05	1.7273	0.1	77.693
23499	8.7731	1.6364	0.1	82.72
23500	8.8654	1.7273	0.1	84.475
23501	8.5886	1.6364	0.1	89.384
23502	8.6809	1.7273	0.1	91.633
23503	8.404	1.6364	0.1	96.308
23504	8.4963	1.7273	0.1	99.159
23505	8.2194	1.6364	0.1	103.45
23506	8.3117	1.7273	0.1	107.04
23507	8.0349	1.6364	0.1	110.77
23508	8.1272	1.7273	0.1	115.23
23509	7.8503	1.6364	0.1	118.2
23510	7.9426	1.7273	0.1	123.71
23511	7.6657	1.6364	0.1	125.63
23512	7.758	1.7273	0.1	132.42
23513	7.4812	1.6364	0.1	132.97
23514	7.5735	1.7273	0.1	141.26
23515	7.2966	1.6364	0.1	140.06
23516	7.3889	1.7273	0.1	150.13
23517	7.112	1.6364	0.1	146.72
23518	7.2043	1.7273	0.1	158.89
23519	6.9275	1.6364	0.1	152.69
23520	7.0198	1.7273	0.1	167.33
23521	6.7429	1.6364	0.1	157.66
23522	6.8352	1.7273	0.1	175.2
23523	6.5583	1.6364	0.1	161.15
23524	6.6506	1.7273	0.1	182.13
23525	6.3738	1.6364	0.1	162.52
23526	6.466	1.7273	0.1	187.58
23527	6.1892	1.6364	0.1	160.81
23528	6.2815	1.7273	0.1	190.8
23529	6.0046	1.6364	0.1	154.54
23530	6.0969	1.7273	0.1	190.63
23531	5.8201	1.6364	0.1	141.36
23532	5.9123	1.7273	0.1	185.27
23533	5.6355	1.6364	0.1	117.63
23534	5.7278	1.7273	0.1	171.9
23535	5.4509	1.6364	0.1	78.141
23536	5.5432	1.7273	0.1	146.02
23537	5.2664	1.6364	0.1	26.242
23538	5.3586	1.7273	0.1	100.91
23539	5.0818	1.6364	0.1	8.4379
23540	5.1741	1.7273	0.1	35.606
23541	4.8972	1.6364	0.1	4.9136
23542	4.9895	1.7273	0.1	9.6181
23543	4.7127	1.6364	0.1	8.8493
23544	4.8049	1.7273	0.1	4.848
23545	4.5281	1.6364	0.1	5.7563
23546	4.6204	1.7273	0.1	12.211
23547	4.3435	1.6364	0.1	-8.8771
23548	4.4358	1.7273	0.1	-8.0353
23549	4.2512	1.7273	0.1	87.991
23550	4.159	1.6364	0.1	-86.439
23551	23.723	1.8182	0.1	-0.20753
23552	23.815	1.9091	0.1	-0.18359
23553	23.908	1.8182	0.1	-0.4212
23554	23.539	1.8182	0.1	-0.21771
23555	23.631	1.9091	0.1	-0.32018
23556	23.354	1.8182	0.1	-0.12307
23557	23.446	1.9091	0.1	-0.1361
23558	23.169	1.8182	0.1	-0.10099
23559	23.262	1.9091	0.1	-0.11947
23560	22.985	1.8182	0.1	-7.8823e-002
23561	23.077	1.9091	0.1	-8.8419e-002
23562	22.8	1.8182	0.1	-6.5805e-002
23563	22.893	1.9091	0.1	-7.3638e-002
23564	22.616	1.8182	0.1	-5.5742e-002
23565	22.708	1.9091	0.1	-6.163e-002
23566	22.431	1.8182	0.1	-4.8249e-002
23567	22.523	1.9091	0.1	-5.3082e-002
23568	22.247	1.8182	0.1	-4.2327e-002
23569	22.339	1.9091	0.1	-4.6369e-002
23570	22.062	1.8182	0.1	-3.757e-002
23571	22.154	1.9091	0.1	-4.1051e-002
23572	21.877	1.8182	0.1	-3.3662e-002
23573	21.97	1.9091	0.1	-3.6713e-002
23574	21.693	1.8182	0.1	-3.0403e-002
23575	21.785	1.9091	0.1	-3.3119e-002
23576	21.508	1.8182	0.1	-2.7651e-002
23577	21.601	1.9091	0.1	-3.0094e-002
23578	21.324	1.8182	0.1	-2.5298e-002
23579	21.416	1.9091	0.1	-2.7524e-002
23580	21.139	1.8182	0.1	-2.3263e-002
23581	21.231	1.9091	0.1	-2.5305e-002
23582	20.955	1.8182	0.1	-2.1492e-002
23583	21.047	1.9091	0.1	-2.3375e-002
23584	20.77	1.8182	0.1	-1.9939e-002
23585	20.862	1.9091	0.1	-2.1688e-002
23586	20.585	1.8182	0.1	-1.856e-002
23587	20.678	1.9091	0.1	-2.0199e-002
23588	20.401	1.8182	0.1	-1.7334e-002
23589	20.493	1.9091	0.1	-1.8865e-002
23590	20.216	1.8182	0.1	-1.6244e-002
23591	20.309	1.9091	0.1	-1.7682e-002
23592	20.032	1.8182	0.1	-1.5262e-002
23593	20.124	1.9091	0.1	-1.6624e-002
23594	19.847	1.8182	0.1	-1.4371e-002
23595	19.94	1.9091	0.1	-1.5663e-002
23596	19.663	1.8182	0.1	-1.3562e-002
23597	19.755	1.9091	0.1	-1.4789e-002
23598	19.478	1.8182	0.1	-1.2831e-002
23599	19.57	1.9091	0.1	-1.3995e-002
23600	19.294	1.8182	0.1	-1.2164e-002
23601	19.386	1.9091	0.1	-1.328e-002
23602	19.109	1.8182	0.1	-1.1545e-002
23603	19.201	1.9091	0.1	-1.2615e-002
23604	18.924	1.8182	0.1	-1.0977e-002
23605	19.017	1.9091	0.1	-1.1999e-002
23606	18.74	1.8182	0.1	-1.0457e-002
23607	18.832	1.9091	0.1	-1.1441e-002
23608	18.555	1.8182	0.1	-9.9677e-003
23609	18.648	1.9091	0.1	-1.0921e-002
23610	18.371	1.8182	0.1	-9.5113e-003
23611	18.463	1.9091	0.1	-1.0425e-002
23612	18.186	1.8182	0.1	-9.0951e-003
23613	18.278	1.9091	0.1	-9.9766e-003
23614	18.002	1.8182	0.1	-8.7068e-003
23615	18.094	1.9091	0.1	-9.5619e-003
23616	17.817	1.8182	0.1	-8.3375e-003
23617	17.909	1.9091	0.1	-9.169e-003
23618	17.632	1.8182	0.1	-7.9889e-003
23619	17.725	1.9091	0.1	-8.7941e-003
23620	17.448	1.8182	0.1	-7.6698e-003
23621	17.54	1.9091	0.1	-8.4447e-003
23622	17.263	1.8182	0.1	-7.368e-003
23623	17.356	1.9091	0.1	-8.1311e-003
23624	17.079	1.8182	0.1	-7.0727e-003
23625	17.171	1.9091	0.1	-7.8173e-003
23626	16.894	1.8182	0.1	-6.7907e-003
23627	16.986	1.9091	0.1	-7.5175e-003
23628	16.71	1.8182	0.1	-6.5213e-003
23629	16.802	1.9091	0.1	-7.2309e-003
23630	16.525	1.8182	0.1	-6.2717e-003
23631	16.617	1.9091	0.1	-6.9582e-003
23632	16.34	1.8182	0.1	-6.031e-003
23633	16.433	1.9091	0.1	-6.7131e-003
23634	16.156	1.8182	0.1	-5.7848e-003
23635	16.248	1.9091	0.1	-6.4584e-003
23636	15.971	1.8182	0.1	-5.548e-003
23637	16.064	1.9091	0.1	-6.2025e-003
23638	15.787	1.8182	0.1	-5.3178e-003
23639	15.879	1.9091	0.1	-5.9686e-003
23640	15.602	1.8182	0.1	-5.0728e-003
23641	15.694	1.9091	0.1	-5.7279e-003
23642	15.418	1.8182	0.1	-4.8238e-003
23643	15.51	1.9091	0.1	-5.4651e-003
23644	15.233	1.8182	0.1	-4.5773e-003
23645	15.325	1.9091	0.1	-5.2169e-003
23646	15.048	1.8182	0.1	-4.313e-003
23647	15.141	1.9091	0.1	-4.9609e-003
23648	14.864	1.8182	0.1	-4.0147e-003
23649	14.956	1.9091	0.1	-4.6776e-003
23650	14.679	1.8182	0.1	-3.6742e-003
23651	14.772	1.9091	0.1	-4.3539e-003
23652	14.495	1.8182	0.1	-3.2833e-003
23653	14.587	1.9091	0.1	-3.9846e-003
23654	14.31	1.8182	0.1	-2.7824e-003
23655	14.402	1.9091	0.1	-3.5525e-003
23656	14.126	1.8182	0.1	-2.0633e-003
23657	14.218	1.9091	0.1	-2.9416e-003
23658	13.941	1.8182	0.1	-9.2769e-004
23659	14.033	1.9091	0.1	-2.0058e-003
23660	13.756	1.8182	0.1	1.3463e-003
23661	13.849	1.9091	0.1	-2.9278e-004
23662	13.572	1.8182	0.1	9.1319e-003
23663	13.664	1.9091	0.1	4.6765e-003
23664	13.387	1.8182	0.1	0.34256
23665	13.48	1.9091	0.1	0.12732
23666	13.203	1.8182	0.1	1.708
23667	13.295	1.9091	0.1	1.4301
23668	13.018	1.8182	0.1	3.1962
23669	13.11	1.9091	0.1	2.9078
23670	12.834	1.8182	0.1	4.7896
23671	12.926	1.9091	0.1	4.49
23672	12.649	1.8182	0.1	6.4964
23673	12.741	1.9091	0.1	6.1845
23674	12.465	1.8182	0.1	8.3266
23675	12.557	1.9091	0.1	8.0015
23676	12.28	1.8182	0.1	10.291
23677	12.372	1.9091	0.1	9.9518
23678	12.095	1.8182	0.1	12.402
23679	12.188	1.9091	0.1	12.048
23680	11.911	1.8182	0.1	14.671
23681	12.003	1.9091	0.1	14.302
23682	11.726	1.8182	0.1	17.112
23683	11.819	1.9091	0.1	16.728
23684	11.542	1.8182	0.1	19.739
23685	11.634	1.9091	0.1	19.342
23686	11.357	1.8182	0.1	22.567
23687	11.449	1.9091	0.1	22.157
23688	11.173	1.8182	0.1	25.612
23689	11.265	1.9091	0.1	25.193
23690	10.988	1.8182	0.1	28.891
23691	11.08	1.9091	0.1	28.465
23692	10.803	1.8182	0.1	32.422
23693	10.896	1.9091	0.1	31.993
23694	10.619	1.8182	0.1	36.223
23695	10.711	1.9091	0.1	35.797
23696	10.434	1.8182	0.1	40.312
23697	10.527	1.9091	0.1	39.899
23698	10.25	1.8182	0.1	44.71
23699	10.342	1.9091	0.1	44.32
23700	10.065	1.8182	0.1	49.438
23701	10.157	1.9091	0.1	49.085
23702	9.8806	1.8182	0.1	54.514
23703	9.9728	1.9091	0.1	54.216
23704	9.696	1.8182	0.1	59.96
23705	9.7883	1.9091	0.1	59.739
23706	9.5114	1.8182	0.1	65.796
23707	9.6037	1.9091	0.1	65.68
23708	9.3269	1.8182	0.1	72.04
23709	9.4191	1.9091	0.1	72.064
23710	9.1423	1.8182	0.1	78.71
23711	9.2346	1.9091	0.1	78.916
23712	8.9577	1.8182	0.1	85.82
23713	9.05	1.9091	0.1	86.261
23714	8.7731	1.8182	0.1	93.381
23715	8.8654	1.9091	0.1	94.122
23716	8.5886	1.8182	0.1	101.4
23717	8.6809	1.9091	0.1	102.52
23718	8.404	1.8182	0.1	109.88
23719	8.4963	1.9091	0.1	111.47
23720	8.2194	1.8182	0.1	118.81
23721	8.3117	1.9091	0.1	120.98
23722	8.0349	1.8182	0.1	128.17
23723	8.1272	1.9091	0.1	131.06
23724	7.8503	1.8182	0.1	137.93
23725	7.9426	1.9091	0.1	141.69
23726	7.6657	1.8182	0.1	148.03
23727	7.758	1.9091	0.1	152.87
23728	7.4812	1.8182	0.1	158.41
23729	7.5735	1.9091	0.1	164.53
23730	7.2966	1.8182	0.1	168.95
23731	7.3889	1.9091	0.1	176.61
23732	7.112	1.8182	0.1	179.5
23733	7.2043	1.9091	0.1	189.01
23734	6.9275	1.8182	0.1	189.85
23735	7.0198	1.9091	0.1	201.57
23736	6.7429	1.8182	0.1	199.7
23737	6.8352	1.9091	0.1	214.05
23738	6.5583	1.8182	0.1	208.62
23739	6.6506	1.9091	0.1	226.12
23740	6.3738	1.8182	0.1	215.98
23741	6.466	1.9091	0.1	237.29
23742	6.1892	1.8182	0.1	220.86
23743	6.2815	1.9091	0.1	246.82
23744	6.0046	1.8182	0.1	221.81
23745	6.0969	1.9091	0.1	253.6
23746	5.8201	1.8182	0.1	216.63
23747	5.9123	1.9091	0.1	255.96
23748	5.6355	1.8182	0.1	201.75
23749	5.7278	1.9091	0.1	251.3
23750	5.4509	1.8182	0.1	171.56
23751	5.5432	1.9091	0.1	235.51
23752	5.2664	1.8182	0.1	117.39
23753	5.3586	1.9091	0.1	202.14
23754	5.0818	1.8182	0.1	38.012
23755	5.1741	1.9091	0.1	141.17
23756	4.8972	1.8182	0.1	9.3957
23757	4.9895	1.9091	0.1	47.419
23758	4.7127	1.8182	0.1	8.1638
23759	4.8049	1.9091	0.1	7.2675
23760	4.5281	1.8182	0.1	-0.64285
23761	4.6204	1.9091	0.1	16.107
23762	4.3435	1.8182	0.1	89.368
23763	4.4358	1.9091	0.1	-53.883
23764	4.2512	1.9091	0.1	463.89
23765	4.159	1.8182	0.1	389.49
23766	23.723	2.	0.1	-0.2142
23767	23.815	2.0909	0.1	-0.19255
23768	23.908	2.	0.1	-0.42351
23769	23.539	2.	0.1	-0.22198
23770	23.631	2.0909	0.1	-0.3247
23771	23.354	2.	0.1	-0.12644
23772	23.446	2.0909	0.1	-0.13929
23773	23.169	2.	0.1	-0.10401
23774	23.262	2.0909	0.1	-0.12227
23775	22.985	2.	0.1	-8.1607e-002
23776	23.077	2.0909	0.1	-9.0942e-002
23777	22.8	2.	0.1	-6.8435e-002
23778	22.893	2.0909	0.1	-7.5995e-002
23779	22.616	2.	0.1	-5.8261e-002
23780	22.708	2.0909	0.1	-6.3872e-002
23781	22.431	2.	0.1	-5.0681e-002
23782	22.523	2.0909	0.1	-5.524e-002
23783	22.247	2.	0.1	-4.4689e-002
23784	22.339	2.0909	0.1	-4.8464e-002
23785	22.062	2.	0.1	-3.9867e-002
23786	22.154	2.0909	0.1	-4.3089e-002
23787	21.877	2.	0.1	-3.5898e-002
23788	21.97	2.0909	0.1	-3.87e-002
23789	21.693	2.	0.1	-3.2578e-002
23790	21.785	2.0909	0.1	-3.5058e-002
23791	21.508	2.	0.1	-2.9765e-002
23792	21.601	2.0909	0.1	-3.1984e-002
23793	21.324	2.	0.1	-2.7352e-002
23794	21.416	2.0909	0.1	-2.9363e-002
23795	21.139	2.	0.1	-2.5257e-002
23796	21.231	2.0909	0.1	-2.7095e-002
23797	20.955	2.	0.1	-2.3427e-002
23798	21.047	2.0909	0.1	-2.5117e-002
23799	20.77	2.	0.1	-2.1816e-002
23800	20.862	2.0909	0.1	-2.338e-002
23801	20.585	2.	0.1	-2.0381e-002
23802	20.678	2.0909	0.1	-2.1843e-002
23803	20.401	2.	0.1	-1.91e-002
23804	20.493	2.0909	0.1	-2.0464e-002
23805	20.216	2.	0.1	-1.7957e-002
23806	20.309	2.0909	0.1	-1.9236e-002
23807	20.032	2.	0.1	-1.6926e-002
23808	20.124	2.0909	0.1	-1.8134e-002
23809	19.847	2.	0.1	-1.5988e-002
23810	19.94	2.0909	0.1	-1.7133e-002
23811	19.663	2.	0.1	-1.5134e-002
23812	19.755	2.0909	0.1	-1.6219e-002
23813	19.478	2.	0.1	-1.4361e-002
23814	19.57	2.0909	0.1	-1.5387e-002
23815	19.294	2.	0.1	-1.3653e-002
23816	19.386	2.0909	0.1	-1.4637e-002
23817	19.109	2.	0.1	-1.2995e-002
23818	19.201	2.0909	0.1	-1.3938e-002
23819	18.924	2.	0.1	-1.2392e-002
23820	19.017	2.0909	0.1	-1.3291e-002
23821	18.74	2.	0.1	-1.1838e-002
23822	18.832	2.0909	0.1	-1.2703e-002
23823	18.555	2.	0.1	-1.1315e-002
23824	18.648	2.0909	0.1	-1.2154e-002
23825	18.371	2.	0.1	-1.083e-002
23826	18.463	2.0909	0.1	-1.1631e-002
23827	18.186	2.	0.1	-1.0385e-002
23828	18.278	2.0909	0.1	-1.1158e-002
23829	18.002	2.	0.1	-9.9681e-003
23830	18.094	2.0909	0.1	-1.0718e-002
23831	17.817	2.	0.1	-9.572e-003
23832	17.909	2.0909	0.1	-1.0303e-002
23833	17.632	2.	0.1	-9.1987e-003
23834	17.725	2.0909	0.1	-9.9061e-003
23835	17.448	2.	0.1	-8.8571e-003
23836	17.54	2.0909	0.1	-9.5364e-003
23837	17.263	2.	0.1	-8.5336e-003
23838	17.356	2.0909	0.1	-9.2043e-003
23839	17.079	2.	0.1	-8.2174e-003
23840	17.171	2.0909	0.1	-8.8717e-003
23841	16.894	2.	0.1	-7.915e-003
23842	16.986	2.0909	0.1	-8.5557e-003
23843	16.71	2.	0.1	-7.6271e-003
23844	16.802	2.0909	0.1	-8.253e-003
23845	16.525	2.	0.1	-7.3611e-003
23846	16.617	2.0909	0.1	-7.9656e-003
23847	16.34	2.	0.1	-7.104e-003
23848	16.433	2.0909	0.1	-7.7072e-003
23849	16.156	2.	0.1	-6.8418e-003
23850	16.248	2.0909	0.1	-7.4405e-003
23851	15.971	2.	0.1	-6.5911e-003
23852	16.064	2.0909	0.1	-7.1733e-003
23853	15.787	2.	0.1	-6.3493e-003
23854	15.879	2.0909	0.1	-6.9307e-003
23855	15.602	2.	0.1	-6.0937e-003
23856	15.694	2.0909	0.1	-6.6821e-003
23857	15.418	2.	0.1	-5.8352e-003
23858	15.51	2.0909	0.1	-6.4135e-003
23859	15.233	2.	0.1	-5.5816e-003
23860	15.325	2.0909	0.1	-6.1611e-003
23861	15.048	2.	0.1	-5.3121e-003
23862	15.141	2.0909	0.1	-5.9048e-003
23863	14.864	2.	0.1	-5.0107e-003
23864	14.956	2.0909	0.1	-5.6241e-003
23865	14.679	2.	0.1	-4.6692e-003
23866	14.772	2.0909	0.1	-5.3071e-003
23867	14.495	2.	0.1	-4.2766e-003
23868	14.587	2.0909	0.1	-4.9475e-003
23869	14.31	2.	0.1	-3.7675e-003
23870	14.402	2.0909	0.1	-4.5291e-003
23871	14.126	2.	0.1	-3.0128e-003
23872	14.218	2.0909	0.1	-3.9268e-003
23873	13.941	2.	0.1	-1.7153e-003
23874	14.033	2.0909	0.1	-2.9559e-003
23875	13.756	2.	0.1	1.5152e-003
23876	13.849	2.0909	0.1	-8.9727e-004
23877	13.572	2.	0.1	3.2791e-002
23878	13.664	2.0909	0.1	9.451e-003
23879	13.387	2.	0.1	1.1378
23880	13.48	2.0909	0.1	0.77243
23881	13.203	2.	0.1	2.6065
23882	13.295	2.0909	0.1	2.2217
23883	13.018	2.	0.1	4.1794
23884	13.11	2.0909	0.1	3.7752
23885	12.834	2.	0.1	5.8633
23886	12.926	2.0909	0.1	5.4378
23887	12.649	2.	0.1	7.6686
23888	12.741	2.0909	0.1	7.2196
23889	12.465	2.	0.1	9.6063
23890	12.557	2.0909	0.1	9.1318
23891	12.28	2.	0.1	11.689
23892	12.372	2.0909	0.1	11.187
23893	12.095	2.	0.1	13.929
23894	12.188	2.0909	0.1	13.397
23895	11.911	2.	0.1	16.341
23896	12.003	2.0909	0.1	15.778
23897	11.726	2.	0.1	18.941
23898	11.819	2.0909	0.1	18.345
23899	11.542	2.	0.1	21.743
23900	11.634	2.0909	0.1	21.113
23901	11.357	2.	0.1	24.767
23902	11.449	2.0909	0.1	24.101
23903	11.173	2.	0.1	28.029
23904	11.265	2.0909	0.1	27.329
23905	10.988	2.	0.1	31.551
23906	11.08	2.0909	0.1	30.815
23907	10.803	2.	0.1	35.354
23908	10.896	2.0909	0.1	34.584
23909	10.619	2.	0.1	39.461
23910	10.711	2.0909	0.1	38.659
23911	10.434	2.	0.1	43.895
23912	10.527	2.0909	0.1	43.066
23913	10.25	2.	0.1	48.683
23914	10.342	2.0909	0.1	47.832
23915	10.065	2.	0.1	53.852
23916	10.157	2.0909	0.1	52.987
23917	9.8806	2.	0.1	59.431
23918	9.9728	2.0909	0.1	58.562
23919	9.696	2.	0.1	65.45
23920	9.7883	2.0909	0.1	64.593
23921	9.5114	2.	0.1	71.939
23922	9.6037	2.0909	0.1	71.113
23923	9.3269	2.	0.1	78.932
23924	9.4191	2.0909	0.1	78.16
23925	9.1423	2.	0.1	86.461
23926	9.2346	2.0909	0.1	85.775
23927	8.9577	2.	0.1	94.558
23928	9.05	2.0909	0.1	93.997
23929	8.7731	2.	0.1	103.26
23930	8.8654	2.0909	0.1	102.87
23931	8.5886	2.	0.1	112.58
23932	8.6809	2.0909	0.1	112.43
23933	8.404	2.	0.1	122.57
23934	8.4963	2.0909	0.1	122.72
23935	8.2194	2.	0.1	133.23
23936	8.3117	2.0909	0.1	133.78
23937	8.0349	2.	0.1	144.58
23938	8.1272	2.0909	0.1	145.64
23939	7.8503	2.	0.1	156.63
23940	7.9426	2.0909	0.1	158.33
23941	7.6657	2.	0.1	169.36
23942	7.758	2.0909	0.1	171.86
23943	7.4812	2.	0.1	182.73
23944	7.5735	2.0909	0.1	186.22
23945	7.2966	2.	0.1	196.67
23946	7.3889	2.0909	0.1	201.39
23947	7.112	2.	0.1	211.08
23948	7.2043	2.0909	0.1	217.29
23949	6.9275	2.	0.1	225.78
23950	7.0198	2.0909	0.1	233.8
23951	6.7429	2.	0.1	240.5
23952	6.8352	2.0909	0.1	250.73
23953	6.5583	2.	0.1	254.84
23954	6.6506	2.0909	0.1	267.77
23955	6.3738	2.	0.1	268.22
23956	6.466	2.0909	0.1	284.44
23957	6.1892	2.	0.1	279.75
23958	6.2815	2.0909	0.1	300.03
23959	6.0046	2.	0.1	288.1
23960	6.0969	2.0909	0.1	313.49
23961	5.8201	2.	0.1	291.27
23962	5.9123	2.0909	0.1	323.24
23963	5.6355	2.	0.1	286.15
23964	5.7278	2.0909	0.1	326.88
23965	5.4509	2.	0.1	267.95
23966	5.5432	2.0909	0.1	320.81
23967	5.2664	2.	0.1	229.13
23968	5.3586	2.0909	0.1	299.58
23969	5.0818	2.	0.1	158.31
23970	5.1741	2.0909	0.1	254.68
23971	4.8972	2.	0.1	47.63
23972	4.9895	2.0909	0.1	173.84
23973	4.7127	2.	0.1	14.613
23974	4.8049	2.0909	0.1	43.66
23975	4.5281	2.	0.1	-36.931
23976	4.6204	2.0909	0.1	18.015
23977	4.3435	2.	0.1	319.47
23978	4.4358	2.0909	0.1	-71.37
23979	4.2512	2.0909	0.1	313.53
23980	4.159	2.	0.1	562.74
23981	23.723	2.1818	0.1	-0.21939
23982	23.815	2.2727	0.1	-0.19953
23983	23.908	2.1818	0.1	-0.42525
23984	23.539	2.1818	0.1	-0.22524
23985	23.631	2.2727	0.1	-0.32814
23986	23.354	2.1818	0.1	-0.12901
23987	23.446	2.2727	0.1	-0.14169
23988	23.169	2.1818	0.1	-0.10631
23989	23.262	2.2727	0.1	-0.12438
23990	22.985	2.1818	0.1	-8.3713e-002
23991	23.077	2.2727	0.1	-9.2838e-002
23992	22.8	2.1818	0.1	-7.0419e-002
23993	22.893	2.2727	0.1	-7.7763e-002
23994	22.616	2.1818	0.1	-6.016e-002
23995	22.708	2.2727	0.1	-6.555e-002
23996	22.431	2.1818	0.1	-5.252e-002
23997	22.523	2.2727	0.1	-5.6856e-002
23998	22.247	2.1818	0.1	-4.648e-002
23999	22.339	2.2727	0.1	-5.0034e-002
24000	22.062	2.1818	0.1	-4.1615e-002
24001	22.154	2.2727	0.1	-4.4623e-002
24002	21.877	2.1818	0.1	-3.7607e-002
24003	21.97	2.2727	0.1	-4.0201e-002
24004	21.693	2.1818	0.1	-3.4248e-002
24005	21.785	2.2727	0.1	-3.6527e-002
24006	21.508	2.1818	0.1	-3.1395e-002
24007	21.601	2.2727	0.1	-3.3421e-002
24008	21.324	2.1818	0.1	-2.8942e-002
24009	21.416	2.2727	0.1	-3.0769e-002
24010	21.139	2.1818	0.1	-2.6808e-002
24011	21.231	2.2727	0.1	-2.8469e-002
24012	20.955	2.1818	0.1	-2.4937e-002
24013	21.047	2.2727	0.1	-2.6456e-002
24014	20.77	2.1818	0.1	-2.3286e-002
24015	20.862	2.2727	0.1	-2.4688e-002
24016	20.585	2.1818	0.1	-2.181e-002
24017	20.678	2.2727	0.1	-2.3118e-002
24018	20.401	2.1818	0.1	-2.0496e-002
24019	20.493	2.2727	0.1	-2.1708e-002
24020	20.216	2.1818	0.1	-1.9315e-002
24021	20.309	2.2727	0.1	-2.0449e-002
24022	20.032	2.1818	0.1	-1.8248e-002
24023	20.124	2.2727	0.1	-1.9315e-002
24024	19.847	2.1818	0.1	-1.7277e-002
24025	19.94	2.2727	0.1	-1.8285e-002
24026	19.663	2.1818	0.1	-1.639e-002
24027	19.755	2.2727	0.1	-1.7343e-002
24028	19.478	2.1818	0.1	-1.5586e-002
24029	19.57	2.2727	0.1	-1.6485e-002
24030	19.294	2.1818	0.1	-1.4848e-002
24031	19.386	2.2727	0.1	-1.5709e-002
24032	19.109	2.1818	0.1	-1.4163e-002
24033	19.201	2.2727	0.1	-1.4986e-002
24034	18.924	2.1818	0.1	-1.3534e-002
24035	19.017	2.2727	0.1	-1.4316e-002
24036	18.74	2.1818	0.1	-1.2955e-002
24037	18.832	2.2727	0.1	-1.3707e-002
24038	18.555	2.1818	0.1	-1.2408e-002
24039	18.648	2.2727	0.1	-1.3137e-002
24040	18.371	2.1818	0.1	-1.19e-002
24041	18.463	2.2727	0.1	-1.2596e-002
24042	18.186	2.1818	0.1	-1.1434e-002
24043	18.278	2.2727	0.1	-1.2103e-002
24044	18.002	2.1818	0.1	-1.0998e-002
24045	18.094	2.2727	0.1	-1.1646e-002
24046	17.817	2.1818	0.1	-1.0584e-002
24047	17.909	2.2727	0.1	-1.1215e-002
24048	17.632	2.1818	0.1	-1.0192e-002
24049	17.725	2.2727	0.1	-1.0803e-002
24050	17.448	2.1818	0.1	-9.8338e-003
24051	17.54	2.2727	0.1	-1.0419e-002
24052	17.263	2.1818	0.1	-9.4944e-003
24053	17.356	2.2727	0.1	-1.0073e-002
24054	17.079	2.1818	0.1	-9.1637e-003
24055	17.171	2.2727	0.1	-9.7286e-003
24056	16.894	2.1818	0.1	-8.8489e-003
24057	16.986	2.2727	0.1	-9.4014e-003
24058	16.71	2.1818	0.1	-8.5482e-003
24059	16.802	2.2727	0.1	-9.0881e-003
24060	16.525	2.1818	0.1	-8.2701e-003
24061	16.617	2.2727	0.1	-8.7909e-003
24062	16.34	2.1818	0.1	-8.0037e-003
24063	16.433	2.2727	0.1	-8.5248e-003
24064	16.156	2.1818	0.1	-7.7336e-003
24065	16.248	2.2727	0.1	-8.2512e-003
24066	15.971	2.1818	0.1	-7.4762e-003
24067	16.064	2.2727	0.1	-7.9787e-003
24068	15.787	2.1818	0.1	-7.2287e-003
24069	15.879	2.2727	0.1	-7.732e-003
24070	15.602	2.1818	0.1	-6.9693e-003
24071	15.694	2.2727	0.1	-7.4817e-003
24072	15.418	2.1818	0.1	-6.7093e-003
24073	15.51	2.2727	0.1	-7.2136e-003
24074	15.233	2.1818	0.1	-6.4574e-003
24075	15.325	2.2727	0.1	-6.9641e-003
24076	15.048	2.1818	0.1	-6.1942e-003
24077	15.141	2.2727	0.1	-6.7157e-003
24078	14.864	2.1818	0.1	-5.904e-003
24079	14.956	2.2727	0.1	-6.4474e-003
24080	14.679	2.1818	0.1	-5.5788e-003
24081	14.772	2.2727	0.1	-6.1503e-003
24082	14.495	2.1818	0.1	-5.2108e-003
24083	14.587	2.2727	0.1	-5.8194e-003
24084	14.31	2.1818	0.1	-4.7351e-003
24085	14.402	2.2727	0.1	-5.4443e-003
24086	14.126	2.1818	0.1	-4.0109e-003
24087	14.218	2.2727	0.1	-4.9017e-003
24088	13.941	2.1818	0.1	-2.6514e-003
24089	14.033	2.2727	0.1	-3.9914e-003
24090	13.756	2.1818	0.1	1.9992e-003
24091	13.849	2.2727	0.1	-1.7044e-003
24092	13.572	2.1818	0.1	0.40271
24093	13.664	2.2727	0.1	5.1749e-002
24094	13.387	2.1818	0.1	1.8308
24095	13.48	2.2727	0.1	1.3684
24096	13.203	2.1818	0.1	3.3676
24097	13.295	2.2727	0.1	2.8793
24098	13.018	2.1818	0.1	5.0116
24099	13.11	2.2727	0.1	4.4949
24100	12.834	2.1818	0.1	6.7727
24101	12.926	2.2727	0.1	6.2245
24102	12.649	2.1818	0.1	8.662
24103	12.741	2.2727	0.1	8.0793
24104	12.465	2.1818	0.1	10.692
24105	12.557	2.2727	0.1	10.071
24106	12.28	2.1818	0.1	12.876
24107	12.372	2.2727	0.1	12.214
24108	12.095	2.1818	0.1	15.228
24109	12.188	2.2727	0.1	14.521
24110	11.911	2.1818	0.1	17.764
24111	12.003	2.2727	0.1	17.009
24112	11.726	2.1818	0.1	20.5
24113	11.819	2.2727	0.1	19.694
24114	11.542	2.1818	0.1	23.454
24115	11.634	2.2727	0.1	22.594
24116	11.357	2.1818	0.1	26.647
24117	11.449	2.2727	0.1	25.728
24118	11.173	2.1818	0.1	30.099
24119	11.265	2.2727	0.1	29.119
24120	10.988	2.1818	0.1	33.834
24121	11.08	2.2727	0.1	32.789
24122	10.803	2.1818	0.1	37.876
24123	10.896	2.2727	0.1	36.764
24124	10.619	2.1818	0.1	42.251
24125	10.711	2.2727	0.1	41.071
24126	10.434	2.1818	0.1	46.991
24127	10.527	2.2727	0.1	45.74
24128	10.25	2.1818	0.1	52.124
24129	10.342	2.2727	0.1	50.804
24130	10.065	2.1818	0.1	57.687
24131	10.157	2.2727	0.1	56.298
24132	9.8806	2.1818	0.1	63.715
24133	9.9728	2.2727	0.1	62.261
24134	9.696	2.1818	0.1	70.247
24135	9.7883	2.2727	0.1	68.733
24136	9.5114	2.1818	0.1	77.326
24137	9.6037	2.2727	0.1	75.761
24138	9.3269	2.1818	0.1	84.997
24139	9.4191	2.2727	0.1	83.392
24140	9.1423	2.1818	0.1	93.305
24141	9.2346	2.2727	0.1	91.679
24142	8.9577	2.1818	0.1	102.3
24143	9.05	2.2727	0.1	100.68
24144	8.7731	2.1818	0.1	112.04
24145	8.8654	2.2727	0.1	110.44
24146	8.5886	2.1818	0.1	122.56
24147	8.6809	2.2727	0.1	121.04
24148	8.404	2.1818	0.1	133.93
24149	8.4963	2.2727	0.1	132.53
24150	8.2194	2.1818	0.1	146.19
24151	8.3117	2.2727	0.1	144.98
24152	8.0349	2.1818	0.1	159.39
24153	8.1272	2.2727	0.1	158.44
24154	7.8503	2.1818	0.1	173.56
24155	7.9426	2.2727	0.1	172.97
24156	7.6657	2.1818	0.1	188.72
24157	7.758	2.2727	0.1	188.63
24158	7.4812	2.1818	0.1	204.88
24159	7.5735	2.2727	0.1	205.42
24160	7.2966	2.1818	0.1	222.01
24161	7.3889	2.2727	0.1	223.37
24162	7.112	2.1818	0.1	240.01
24163	7.2043	2.2727	0.1	242.44
24164	6.9275	2.1818	0.1	258.77
24165	7.0198	2.2727	0.1	262.53
24166	6.7429	2.1818	0.1	278.02
24167	6.8352	2.2727	0.1	283.47
24168	6.5583	2.1818	0.1	297.4
24169	6.6506	2.2727	0.1	304.95
24170	6.3738	2.1818	0.1	316.32
24171	6.466	2.2727	0.1	326.52
24172	6.1892	2.1818	0.1	333.91
24173	6.2815	2.2727	0.1	347.45
24174	6.0046	2.1818	0.1	348.88
24175	6.0969	2.2727	0.1	366.65
24176	5.8201	2.1818	0.1	359.3
24177	5.9123	2.2727	0.1	382.49
24178	5.6355	2.1818	0.1	362.31
24179	5.7278	2.2727	0.1	392.59
24180	5.4509	2.1818	0.1	353.68
24181	5.5432	2.2727	0.1	393.42
24182	5.2664	2.1818	0.1	327.08
24183	5.3586	2.2727	0.1	379.82
24184	5.0818	2.1818	0.1	273.19
24185	5.1741	2.2727	0.1	344.06
24186	4.8972	2.1818	0.1	176.76
24187	4.9895	2.2727	0.1	275.06
24188	4.7127	2.1818	0.1	29.903
24189	4.8049	2.2727	0.1	154.38
24190	4.5281	2.1818	0.1	-17.669
24191	4.6204	2.2727	0.1	1.4825
24192	4.3435	2.1818	0.1	-26.779
24193	4.4358	2.2727	0.1	-18.02
24194	4.2512	2.2727	0.1	9.3526
24195	4.159	2.1818	0.1	-59.741
24196	23.723	2.3636	0.1	-0.22333
24197	23.815	2.4545	0.1	-0.20476
24198	23.908	2.3636	0.1	-0.42653
24199	23.539	2.3636	0.1	-0.22768
24200	23.631	2.4545	0.1	-0.33067
24201	23.354	2.3636	0.1	-0.13093
24202	23.446	2.4545	0.1	-0.14345
24203	23.169	2.3636	0.1	-0.10802
24204	23.262	2.4545	0.1	-0.12593
24205	22.985	2.3636	0.1	-8.5276e-002
24206	23.077	2.4545	0.1	-9.4219e-002
24207	22.8	2.3636	0.1	-7.189e-002
24208	22.893	2.4545	0.1	-7.9049e-002
24209	22.616	2.3636	0.1	-6.1567e-002
24210	22.708	2.4545	0.1	-6.6769e-002
24211	22.431	2.3636	0.1	-5.388e-002
24212	22.523	2.4545	0.1	-5.8031e-002
24213	22.247	2.3636	0.1	-4.7806e-002
24214	22.339	2.4545	0.1	-5.1174e-002
24215	22.062	2.3636	0.1	-4.2914e-002
24216	22.154	2.4545	0.1	-4.5739e-002
24217	21.877	2.3636	0.1	-3.8879e-002
24218	21.97	2.4545	0.1	-4.1295e-002
24219	21.693	2.3636	0.1	-3.5496e-002
24220	21.785	2.4545	0.1	-3.7601e-002
24221	21.508	2.3636	0.1	-3.2619e-002
24222	21.601	2.4545	0.1	-3.4477e-002
24223	21.324	2.3636	0.1	-3.0142e-002
24224	21.416	2.4545	0.1	-3.1805e-002
24225	21.139	2.3636	0.1	-2.798e-002
24226	21.231	2.4545	0.1	-2.9485e-002
24227	20.955	2.3636	0.1	-2.6083e-002
24228	21.047	2.4545	0.1	-2.7449e-002
24229	20.77	2.3636	0.1	-2.4406e-002
24230	20.862	2.4545	0.1	-2.5661e-002
24231	20.585	2.3636	0.1	-2.2907e-002
24232	20.678	2.4545	0.1	-2.4068e-002
24233	20.401	2.3636	0.1	-2.1563e-002
24234	20.493	2.4545	0.1	-2.2636e-002
24235	20.216	2.3636	0.1	-2.0357e-002
24236	20.309	2.4545	0.1	-2.1356e-002
24237	20.032	2.3636	0.1	-1.9265e-002
24238	20.124	2.4545	0.1	-2.0202e-002
24239	19.847	2.3636	0.1	-1.827e-002
24240	19.94	2.4545	0.1	-1.9151e-002
24241	19.663	2.3636	0.1	-1.736e-002
24242	19.755	2.4545	0.1	-1.819e-002
24243	19.478	2.3636	0.1	-1.6534e-002
24244	19.57	2.4545	0.1	-1.7313e-002
24245	19.294	2.3636	0.1	-1.5776e-002
24246	19.386	2.4545	0.1	-1.6519e-002
24247	19.109	2.3636	0.1	-1.5071e-002
24248	19.201	2.4545	0.1	-1.578e-002
24249	18.924	2.3636	0.1	-1.4423e-002
24250	19.017	2.4545	0.1	-1.5093e-002
24251	18.74	2.3636	0.1	-1.3826e-002
24252	18.832	2.4545	0.1	-1.4469e-002
24253	18.555	2.3636	0.1	-1.3264e-002
24254	18.648	2.4545	0.1	-1.3885e-002
24255	18.371	2.3636	0.1	-1.274e-002
24256	18.463	2.4545	0.1	-1.333e-002
24257	18.186	2.3636	0.1	-1.2258e-002
24258	18.278	2.4545	0.1	-1.2825e-002
24259	18.002	2.3636	0.1	-1.1808e-002
24260	18.094	2.4545	0.1	-1.2357e-002
24261	17.817	2.3636	0.1	-1.1381e-002
24262	17.909	2.4545	0.1	-1.1914e-002
24263	17.632	2.3636	0.1	-1.0978e-002
24264	17.725	2.4545	0.1	-1.1492e-002
24265	17.448	2.3636	0.1	-1.0608e-002
24266	17.54	2.4545	0.1	-1.1099e-002
24267	17.263	2.3636	0.1	-1.0258e-002
24268	17.356	2.4545	0.1	-1.0744e-002
24269	17.079	2.3636	0.1	-9.9186e-003
24270	17.171	2.4545	0.1	-1.0392e-002
24271	16.894	2.3636	0.1	-9.5941e-003
24272	16.986	2.4545	0.1	-1.0056e-002
24273	16.71	2.3636	0.1	-9.2855e-003
24274	16.802	2.4545	0.1	-9.737e-003
24275	16.525	2.3636	0.1	-9.0015e-003
24276	16.617	2.4545	0.1	-9.4347e-003
24277	16.34	2.3636	0.1	-8.7293e-003
24278	16.433	2.4545	0.1	-9.1635e-003
24279	16.156	2.3636	0.1	-8.4544e-003
24280	16.248	2.4545	0.1	-8.8864e-003
24281	15.971	2.3636	0.1	-8.1938e-003
24282	16.064	2.4545	0.1	-8.6121e-003
24283	15.787	2.3636	0.1	-7.9455e-003
24284	15.879	2.4545	0.1	-8.3645e-003
24285	15.602	2.3636	0.1	-7.6879e-003
24286	15.694	2.4545	0.1	-8.116e-003
24287	15.418	2.3636	0.1	-7.4318e-003
24288	15.51	2.4545	0.1	-7.8519e-003
24289	15.233	2.3636	0.1	-7.1878e-003
24290	15.325	2.4545	0.1	-7.6098e-003
24291	15.048	2.3636	0.1	-6.9371e-003
24292	15.141	2.4545	0.1	-7.3729e-003
24293	14.864	2.3636	0.1	-6.6661e-003
24294	14.956	2.4545	0.1	-7.1221e-003
24295	14.679	2.3636	0.1	-6.3704e-003
24296	14.772	2.4545	0.1	-6.8512e-003
24297	14.495	2.3636	0.1	-6.0465e-003
24298	14.587	2.4545	0.1	-6.561e-003
24299	14.31	2.3636	0.1	-5.6374e-003
24300	14.402	2.4545	0.1	-6.2468e-003
24301	14.126	2.3636	0.1	-5.0124e-003
24302	14.218	2.4545	0.1	-5.8046e-003
24303	13.941	2.3636	0.1	-3.7503e-003
24304	14.033	2.4545	0.1	-5.0583e-003
24305	13.756	2.3636	0.1	3.384e-003
24306	13.849	2.4545	0.1	-2.8289e-003
24307	13.572	2.3636	0.1	0.90539
24308	13.664	2.4545	0.1	0.38558
24309	13.387	2.3636	0.1	2.3935
24310	13.48	2.4545	0.1	1.8396
24311	13.203	2.3636	0.1	3.9841
24312	13.295	2.4545	0.1	3.3965
24313	13.018	2.3636	0.1	5.6859
24314	13.11	2.4545	0.1	5.0609
24315	12.834	2.3636	0.1	7.5098
24316	12.926	2.4545	0.1	6.8434
24317	12.649	2.3636	0.1	9.468
24318	12.741	2.4545	0.1	8.756
24319	12.465	2.3636	0.1	11.573
24320	12.557	2.4545	0.1	10.812
24321	12.28	2.3636	0.1	13.84
24322	12.372	2.4545	0.1	13.024
24323	12.095	2.3636	0.1	16.284
24324	12.188	2.4545	0.1	15.408
24325	11.911	2.3636	0.1	18.921
24326	12.003	2.4545	0.1	17.981
24327	11.726	2.3636	0.1	21.77
24328	11.819	2.4545	0.1	20.76
24329	11.542	2.3636	0.1	24.851
24330	11.634	2.4545	0.1	23.765
24331	11.357	2.3636	0.1	28.184
24332	11.449	2.4545	0.1	27.017
24333	11.173	2.3636	0.1	31.793
24334	11.265	2.4545	0.1	30.539
24335	10.988	2.3636	0.1	35.705
24336	11.08	2.4545	0.1	34.356
24337	10.803	2.3636	0.1	39.946
24338	10.896	2.4545	0.1	38.497
24339	10.619	2.3636	0.1	44.547
24340	10.711	2.4545	0.1	42.992
24341	10.434	2.3636	0.1	49.542
24342	10.527	2.4545	0.1	47.874
24343	10.25	2.3636	0.1	54.967
24344	10.342	2.4545	0.1	53.18
24345	10.065	2.3636	0.1	60.862
24346	10.157	2.4545	0.1	58.95
24347	9.8806	2.3636	0.1	67.27
24348	9.9728	2.4545	0.1	65.229
24349	9.696	2.3636	0.1	74.239
24350	9.7883	2.4545	0.1	72.064
24351	9.5114	2.3636	0.1	81.82
24352	9.6037	2.4545	0.1	79.509
24353	9.3269	2.3636	0.1	90.069
24354	9.4191	2.4545	0.1	87.621
24355	9.1423	2.3636	0.1	99.046
24356	9.2346	2.4545	0.1	96.462
24357	8.9577	2.3636	0.1	108.82
24358	9.05	2.4545	0.1	106.1
24359	8.7731	2.3636	0.1	119.45
24360	8.8654	2.4545	0.1	116.61
24361	8.5886	2.3636	0.1	131.01
24362	8.6809	2.4545	0.1	128.07
24363	8.404	2.3636	0.1	143.58
24364	8.4963	2.4545	0.1	140.56
24365	8.2194	2.3636	0.1	157.22
24366	8.3117	2.4545	0.1	154.16
24367	8.0349	2.3636	0.1	172.02
24368	8.1272	2.4545	0.1	168.96
24369	7.8503	2.3636	0.1	188.04
24370	7.9426	2.4545	0.1	185.04
24371	7.6657	2.3636	0.1	205.33
24372	7.758	2.4545	0.1	202.47
24373	7.4812	2.3636	0.1	223.92
24374	7.5735	2.4545	0.1	221.31
24375	7.2966	2.3636	0.1	243.81
24376	7.3889	2.4545	0.1	241.59
24377	7.112	2.3636	0.1	264.95
24378	7.2043	2.4545	0.1	263.31
24379	6.9275	2.3636	0.1	287.23
24380	7.0198	2.4545	0.1	286.39
24381	6.7429	2.3636	0.1	310.41
24382	6.8352	2.4545	0.1	310.66
24383	6.5583	2.3636	0.1	334.1
24384	6.6506	2.4545	0.1	335.84
24385	6.3738	2.3636	0.1	357.7
24386	6.466	2.4545	0.1	361.41
24387	6.1892	2.3636	0.1	380.27
24388	6.2815	2.4545	0.1	386.6
24389	6.0046	2.3636	0.1	400.41
24390	6.0969	2.4545	0.1	410.2
24391	5.8201	2.3636	0.1	416.05
24392	5.9123	2.4545	0.1	430.39
24393	5.6355	2.3636	0.1	424.13
24394	5.7278	2.4545	0.1	444.5
24395	5.4509	2.3636	0.1	420.18
24396	5.5432	2.4545	0.1	448.57
24397	5.2664	2.3636	0.1	397.64
24398	5.3586	2.4545	0.1	436.81
24399	5.0818	2.3636	0.1	346.76
24400	5.1741	2.4545	0.1	400.74
24401	4.8972	2.3636	0.1	252.78
24402	4.9895	2.4545	0.1	327.98
24403	4.7127	2.3636	0.1	92.146
24404	4.8049	2.4545	0.1	200.48
24405	4.5281	2.3636	0.1	2.5635
24406	4.6204	2.4545	0.1	3.7996
24407	4.3435	2.3636	0.1	17.08
24408	4.4358	2.4545	0.1	5.744
24409	4.2512	2.4545	0.1	8.431
24410	4.159	2.3636	0.1	35.732
24411	23.723	2.5455	0.1	-0.22616
24412	23.815	2.6364	0.1	-0.2084
24413	23.908	2.5455	0.1	-0.42743
24414	23.539	2.5455	0.1	-0.22943
24415	23.631	2.6364	0.1	-0.33241
24416	23.354	2.5455	0.1	-0.13229
24417	23.446	2.6364	0.1	-0.14466
24418	23.169	2.5455	0.1	-0.10923
24419	23.262	2.6364	0.1	-0.12698
24420	22.985	2.5455	0.1	-8.6382e-002
24421	23.077	2.6364	0.1	-9.516e-002
24422	22.8	2.5455	0.1	-7.293e-002
24423	22.893	2.6364	0.1	-7.9923e-002
24424	22.616	2.5455	0.1	-6.2562e-002
24425	22.708	2.6364	0.1	-6.7597e-002
24426	22.431	2.5455	0.1	-5.4843e-002
24427	22.523	2.6364	0.1	-5.8827e-002
24428	22.247	2.5455	0.1	-4.8744e-002
24429	22.339	2.6364	0.1	-5.1951e-002
24430	22.062	2.5455	0.1	-4.3834e-002
24431	22.154	2.6364	0.1	-4.6496e-002
24432	21.877	2.5455	0.1	-3.9784e-002
24433	21.97	2.6364	0.1	-4.2042e-002
24434	21.693	2.5455	0.1	-3.6386e-002
24435	21.785	2.6364	0.1	-3.8334e-002
24436	21.508	2.5455	0.1	-3.3494e-002
24437	21.601	2.6364	0.1	-3.5199e-002
24438	21.324	2.5455	0.1	-3.1e-002
24439	21.416	2.6364	0.1	-3.2515e-002
24440	21.139	2.5455	0.1	-2.8822e-002
24441	21.231	2.6364	0.1	-3.0182e-002
24442	20.955	2.5455	0.1	-2.6909e-002
24443	21.047	2.6364	0.1	-2.8134e-002
24444	20.77	2.5455	0.1	-2.5215e-002
24445	20.862	2.6364	0.1	-2.6332e-002
24446	20.585	2.5455	0.1	-2.3697e-002
24447	20.678	2.6364	0.1	-2.4726e-002
24448	20.401	2.5455	0.1	-2.2337e-002
24449	20.493	2.6364	0.1	-2.3279e-002
24450	20.216	2.5455	0.1	-2.1114e-002
24451	20.309	2.6364	0.1	-2.1986e-002
24452	20.032	2.5455	0.1	-2.0005e-002
24453	20.124	2.6364	0.1	-2.0818e-002
24454	19.847	2.5455	0.1	-1.8994e-002
24455	19.94	2.6364	0.1	-1.9754e-002
24456	19.663	2.5455	0.1	-1.8069e-002
24457	19.755	2.6364	0.1	-1.878e-002
24458	19.478	2.5455	0.1	-1.7228e-002
24459	19.57	2.6364	0.1	-1.7891e-002
24460	19.294	2.5455	0.1	-1.6456e-002
24461	19.386	2.6364	0.1	-1.7086e-002
24462	19.109	2.5455	0.1	-1.5737e-002
24463	19.201	2.6364	0.1	-1.6336e-002
24464	18.924	2.5455	0.1	-1.5075e-002
24465	19.017	2.6364	0.1	-1.5638e-002
24466	18.74	2.5455	0.1	-1.4467e-002
24467	18.832	2.6364	0.1	-1.5003e-002
24468	18.555	2.5455	0.1	-1.3893e-002
24469	18.648	2.6364	0.1	-1.4411e-002
24470	18.371	2.5455	0.1	-1.3359e-002
24471	18.463	2.6364	0.1	-1.3847e-002
24472	18.186	2.5455	0.1	-1.2868e-002
24473	18.278	2.6364	0.1	-1.3334e-002
24474	18.002	2.5455	0.1	-1.2408e-002
24475	18.094	2.6364	0.1	-1.2857e-002
24476	17.817	2.5455	0.1	-1.1972e-002
24477	17.909	2.6364	0.1	-1.2408e-002
24478	17.632	2.5455	0.1	-1.1562e-002
24479	17.725	2.6364	0.1	-1.198e-002
24480	17.448	2.5455	0.1	-1.1185e-002
24481	17.54	2.6364	0.1	-1.158e-002
24482	17.263	2.5455	0.1	-1.0828e-002
24483	17.356	2.6364	0.1	-1.122e-002
24484	17.079	2.5455	0.1	-1.0481e-002
24485	17.171	2.6364	0.1	-1.0863e-002
24486	16.894	2.5455	0.1	-1.0152e-002
24487	16.986	2.6364	0.1	-1.0522e-002
24488	16.71	2.5455	0.1	-9.8393e-003
24489	16.802	2.6364	0.1	-1.02e-002
24490	16.525	2.5455	0.1	-9.5507e-003
24491	16.617	2.6364	0.1	-9.895e-003
24492	16.34	2.5455	0.1	-9.2753e-003
24493	16.433	2.6364	0.1	-9.6208e-003
24494	16.156	2.5455	0.1	-8.9994e-003
24495	16.248	2.6364	0.1	-9.3426e-003
24496	15.971	2.5455	0.1	-8.7388e-003
24497	16.064	2.6364	0.1	-9.0678e-003
24498	15.787	2.5455	0.1	-8.4916e-003
24499	15.879	2.6364	0.1	-8.8215e-003
24500	15.602	2.5455	0.1	-8.2372e-003
24501	15.694	2.6364	0.1	-8.5755e-003
24502	15.418	2.5455	0.1	-7.9878e-003
24503	15.51	2.6364	0.1	-8.3164e-003
24504	15.233	2.5455	0.1	-7.7535e-003
24505	15.325	2.6364	0.1	-8.0824e-003
24506	15.048	2.5455	0.1	-7.5176e-003
24507	15.141	2.6364	0.1	-7.8567e-003
24508	14.864	2.5455	0.1	-7.2686e-003
24509	14.956	2.6364	0.1	-7.6241e-003
24510	14.679	2.5455	0.1	-7.0067e-003
24511	14.772	2.6364	0.1	-7.3791e-003
24512	14.495	2.5455	0.1	-6.7343e-003
24513	14.587	2.6364	0.1	-7.1288e-003
24514	14.31	2.5455	0.1	-6.4097e-003
24515	14.402	2.6364	0.1	-6.8793e-003
24516	14.126	2.5455	0.1	-5.9349e-003
24517	14.218	2.6364	0.1	-6.5509e-003
24518	13.941	2.5455	0.1	-4.9608e-003
24519	14.033	2.6364	0.1	-6.0382e-003
24520	13.756	2.5455	0.1	9.984e-003
24521	13.849	2.6364	0.1	-4.3498e-003
24522	13.572	2.5455	0.1	1.2924
24523	13.664	2.6364	0.1	0.68986
24524	13.387	2.5455	0.1	2.8196
24525	13.48	2.6364	0.1	2.1793
24526	13.203	2.5455	0.1	4.4509
24527	13.295	2.6364	0.1	3.7689
24528	13.018	2.5455	0.1	6.1966
24529	13.11	2.6364	0.1	5.4685
24530	12.834	2.5455	0.1	8.0685
24531	12.926	2.6364	0.1	7.2894
24532	12.649	2.5455	0.1	10.079
24533	12.741	2.6364	0.1	9.2439
24534	12.465	2.5455	0.1	12.242
24535	12.557	2.6364	0.1	11.345
24536	12.28	2.5455	0.1	14.573
24537	12.372	2.6364	0.1	13.608
24538	12.095	2.5455	0.1	17.087
24539	12.188	2.6364	0.1	16.049
24540	11.911	2.5455	0.1	19.802
24541	12.003	2.6364	0.1	18.683
24542	11.726	2.5455	0.1	22.738
24543	11.819	2.6364	0.1	21.531
24544	11.542	2.5455	0.1	25.915
24545	11.634	2.6364	0.1	24.613
24546	11.357	2.5455	0.1	29.356
24547	11.449	2.6364	0.1	27.95
24548	11.173	2.5455	0.1	33.087
24549	11.265	2.6364	0.1	31.568
24550	10.988	2.5455	0.1	37.135
24551	11.08	2.6364	0.1	35.494
24552	10.803	2.5455	0.1	41.531
24553	10.896	2.6364	0.1	39.757
24554	10.619	2.5455	0.1	46.307
24555	10.711	2.6364	0.1	44.39
24556	10.434	2.5455	0.1	51.501
24557	10.527	2.6364	0.1	49.429
24558	10.25	2.5455	0.1	57.153
24559	10.342	2.6364	0.1	54.913
24560	10.065	2.5455	0.1	63.308
24561	10.157	2.6364	0.1	60.888
24562	9.8806	2.5455	0.1	70.014
24563	9.9728	2.6364	0.1	67.4
24564	9.696	2.5455	0.1	77.326
24565	9.7883	2.6364	0.1	74.504
24566	9.5114	2.5455	0.1	85.303
24567	9.6037	2.6364	0.1	82.259
24568	9.3269	2.5455	0.1	94.008
24569	9.4191	2.6364	0.1	90.729
24570	9.1423	2.5455	0.1	103.51
24571	9.2346	2.6364	0.1	99.985
24572	8.9577	2.5455	0.1	113.89
24573	9.05	2.6364	0.1	110.1
24574	8.7731	2.5455	0.1	125.23
24575	8.8654	2.6364	0.1	121.17
24576	8.5886	2.5455	0.1	137.62
24577	8.6809	2.6364	0.1	133.27
24578	8.404	2.5455	0.1	151.14
24579	8.4963	2.6364	0.1	146.51
24580	8.2194	2.5455	0.1	165.89
24581	8.3117	2.6364	0.1	160.98
24582	8.0349	2.5455	0.1	181.97
24583	8.1272	2.6364	0.1	176.79
24584	7.8503	2.5455	0.1	199.46
24585	7.9426	2.6364	0.1	194.03
24586	7.6657	2.5455	0.1	218.45
24587	7.758	2.6364	0.1	212.8
24588	7.4812	2.5455	0.1	238.98
24589	7.5735	2.6364	0.1	233.18
24590	7.2966	2.5455	0.1	261.09
24591	7.3889	2.6364	0.1	255.22
24592	7.112	2.5455	0.1	284.74
24593	7.2043	2.6364	0.1	278.94
24594	6.9275	2.5455	0.1	309.82
24595	7.0198	2.6364	0.1	304.26
24596	6.7429	2.5455	0.1	336.1
24597	6.8352	2.6364	0.1	331.04
24598	6.5583	2.5455	0.1	363.16
24599	6.6506	2.6364	0.1	358.95
24600	6.3738	2.5455	0.1	390.33
24601	6.466	2.6364	0.1	387.45
24602	6.1892	2.5455	0.1	416.56
24603	6.2815	2.6364	0.1	415.67
24604	6.0046	2.5455	0.1	440.22
24605	6.0969	2.6364	0.1	442.24
24606	5.8201	2.5455	0.1	458.9
24607	5.9123	2.6364	0.1	465.07
24608	5.6355	2.5455	0.1	468.99
24609	5.7278	2.6364	0.1	481.04
24610	5.4509	2.5455	0.1	465.17
24611	5.5432	2.6364	0.1	485.5
24612	5.2664	2.5455	0.1	439.59
24613	5.3586	2.6364	0.1	471.59
24614	5.0818	2.5455	0.1	380.8
24615	5.1741	2.6364	0.1	429.39
24616	4.8972	2.5455	0.1	272.32
24617	4.9895	2.6364	0.1	344.94
24618	4.7127	2.5455	0.1	91.961
24619	4.8049	2.6364	0.1	199.9
24620	4.5281	2.5455	0.1	0.3897
24621	4.6204	2.6364	0.1	2.7506
24622	4.3435	2.5455	0.1	-2.8988
24623	4.4358	2.6364	0.1	-3.5023e-003
24624	4.2512	2.6364	0.1	-1.0663
24625	4.159	2.5455	0.1	-3.3317
24626	23.723	2.7273	0.1	-0.228
24627	23.815	2.8182	0.1	-0.21055
24628	23.908	2.7273	0.1	-0.428
24629	23.539	2.7273	0.1	-0.23055
24630	23.631	2.8182	0.1	-0.33343
24631	23.354	2.7273	0.1	-0.13317
24632	23.446	2.8182	0.1	-0.14536
24633	23.169	2.7273	0.1	-0.11
24634	23.262	2.8182	0.1	-0.12759
24635	22.985	2.7273	0.1	-8.7091e-002
24636	23.077	2.8182	0.1	-9.5707e-002
24637	22.8	2.7273	0.1	-7.3595e-002
24638	22.893	2.8182	0.1	-8.043e-002
24639	22.616	2.7273	0.1	-6.3196e-002
24640	22.708	2.8182	0.1	-6.8078e-002
24641	22.431	2.7273	0.1	-5.5459e-002
24642	22.523	2.8182	0.1	-5.9289e-002
24643	22.247	2.7273	0.1	-4.9345e-002
24644	22.339	2.8182	0.1	-5.24e-002
24645	22.062	2.7273	0.1	-4.4423e-002
24646	22.154	2.8182	0.1	-4.6937e-002
24647	21.877	2.7273	0.1	-4.0364e-002
24648	21.97	2.8182	0.1	-4.2475e-002
24649	21.693	2.7273	0.1	-3.6956e-002
24650	21.785	2.8182	0.1	-3.8761e-002
24651	21.508	2.7273	0.1	-3.4056e-002
24652	21.601	2.8182	0.1	-3.5619e-002
24653	21.324	2.7273	0.1	-3.1554e-002
24654	21.416	2.8182	0.1	-3.2928e-002
24655	21.139	2.7273	0.1	-2.9367e-002
24656	21.231	2.8182	0.1	-3.059e-002
24657	20.955	2.7273	0.1	-2.7443e-002
24658	21.047	2.8182	0.1	-2.8534e-002
24659	20.77	2.7273	0.1	-2.5739e-002
24660	20.862	2.8182	0.1	-2.6725e-002
24661	20.585	2.7273	0.1	-2.4212e-002
24662	20.678	2.8182	0.1	-2.5111e-002
24663	20.401	2.7273	0.1	-2.2839e-002
24664	20.493	2.8182	0.1	-2.3658e-002
24665	20.216	2.7273	0.1	-2.1606e-002
24666	20.309	2.8182	0.1	-2.2356e-002
24667	20.032	2.7273	0.1	-2.0488e-002
24668	20.124	2.8182	0.1	-2.1181e-002
24669	19.847	2.7273	0.1	-1.9466e-002
24670	19.94	2.8182	0.1	-2.011e-002
24671	19.663	2.7273	0.1	-1.8531e-002
24672	19.755	2.8182	0.1	-1.9128e-002
24673	19.478	2.7273	0.1	-1.7681e-002
24674	19.57	2.8182	0.1	-1.8232e-002
24675	19.294	2.7273	0.1	-1.6901e-002
24676	19.386	2.8182	0.1	-1.7421e-002
24677	19.109	2.7273	0.1	-1.6173e-002
24678	19.201	2.8182	0.1	-1.6664e-002
24679	18.924	2.7273	0.1	-1.5504e-002
24680	19.017	2.8182	0.1	-1.5961e-002
24681	18.74	2.7273	0.1	-1.4888e-002
24682	18.832	2.8182	0.1	-1.5321e-002
24683	18.555	2.7273	0.1	-1.4307e-002
24684	18.648	2.8182	0.1	-1.4723e-002
24685	18.371	2.7273	0.1	-1.3766e-002
24686	18.463	2.8182	0.1	-1.4154e-002
24687	18.186	2.7273	0.1	-1.3268e-002
24688	18.278	2.8182	0.1	-1.3636e-002
24689	18.002	2.7273	0.1	-1.2803e-002
24690	18.094	2.8182	0.1	-1.3155e-002
24691	17.817	2.7273	0.1	-1.2363e-002
24692	17.909	2.8182	0.1	-1.2702e-002
24693	17.632	2.7273	0.1	-1.1947e-002
24694	17.725	2.8182	0.1	-1.227e-002
24695	17.448	2.7273	0.1	-1.1565e-002
24696	17.54	2.8182	0.1	-1.1867e-002
24697	17.263	2.7273	0.1	-1.1205e-002
24698	17.356	2.8182	0.1	-1.1503e-002
24699	17.079	2.7273	0.1	-1.0855e-002
24700	17.171	2.8182	0.1	-1.1144e-002
24701	16.894	2.7273	0.1	-1.0522e-002
24702	16.986	2.8182	0.1	-1.0802e-002
24703	16.71	2.7273	0.1	-1.0208e-002
24704	16.802	2.8182	0.1	-1.0477e-002
24705	16.525	2.7273	0.1	-9.9177e-003
24706	16.617	2.8182	0.1	-1.017e-002
24707	16.34	2.7273	0.1	-9.6411e-003
24708	16.433	2.8182	0.1	-9.8957e-003
24709	16.156	2.7273	0.1	-9.3643e-003
24710	16.248	2.8182	0.1	-9.6168e-003
24711	15.971	2.7273	0.1	-9.1041e-003
24712	16.064	2.8182	0.1	-9.3427e-003
24713	15.787	2.7273	0.1	-8.859e-003
24714	15.879	2.8182	0.1	-9.0969e-003
24715	15.602	2.7273	0.1	-8.6084e-003
24716	15.694	2.8182	0.1	-8.8538e-003
24717	15.418	2.7273	0.1	-8.3646e-003
24718	15.51	2.8182	0.1	-8.598e-003
24719	15.233	2.7273	0.1	-8.1388e-003
24720	15.325	2.8182	0.1	-8.3704e-003
24721	15.048	2.7273	0.1	-7.9159e-003
24722	15.141	2.8182	0.1	-8.1531e-003
24723	14.864	2.7273	0.1	-7.6867e-003
24724	14.956	2.8182	0.1	-7.9334e-003
24725	14.679	2.7273	0.1	-7.4529e-003
24726	14.772	2.8182	0.1	-7.7074e-003
24727	14.495	2.7273	0.1	-7.2265e-003
24728	14.587	2.8182	0.1	-7.4863e-003
24729	14.31	2.7273	0.1	-6.9805e-003
24730	14.402	2.8182	0.1	-7.2862e-003
24731	14.126	2.7273	0.1	-6.6602e-003
24732	14.218	2.8182	0.1	-7.0476e-003
24733	13.941	2.7273	0.1	-6.0965e-003
24734	14.033	2.8182	0.1	-6.7495e-003
24735	13.756	2.7273	0.1	0.1025
24736	13.849	2.8182	0.1	-6.0117e-003
24737	13.572	2.7273	0.1	1.5527
24738	13.664	2.8182	0.1	0.87551
24739	13.387	2.7273	0.1	3.1057
24740	13.48	2.8182	0.1	2.3842
24741	13.203	2.7273	0.1	4.7642
24742	13.295	2.8182	0.1	3.9935
24743	13.018	2.7273	0.1	6.5395
24744	13.11	2.8182	0.1	5.7144
24745	12.834	2.7273	0.1	8.4437
24746	12.926	2.8182	0.1	7.5585
24747	12.649	2.7273	0.1	10.49
24748	12.741	2.8182	0.1	9.5383
24749	12.465	2.7273	0.1	12.692
24750	12.557	2.8182	0.1	11.668
24751	12.28	2.7273	0.1	15.065
24752	12.372	2.8182	0.1	13.961
24753	12.095	2.7273	0.1	17.627
24754	12.188	2.8182	0.1	16.436
24755	11.911	2.7273	0.1	20.395
24756	12.003	2.8182	0.1	19.108
24757	11.726	2.7273	0.1	23.389
24758	11.819	2.8182	0.1	21.998
24759	11.542	2.7273	0.1	26.632
24760	11.634	2.8182	0.1	25.126
24761	11.357	2.7273	0.1	30.147
24762	11.449	2.8182	0.1	28.515
24763	11.173	2.7273	0.1	33.961
24764	11.265	2.8182	0.1	32.192
24765	10.988	2.7273	0.1	38.102
24766	11.08	2.8182	0.1	36.184
24767	10.803	2.7273	0.1	42.603
24768	10.896	2.8182	0.1	40.521
24769	10.619	2.7273	0.1	47.499
24770	10.711	2.8182	0.1	45.238
24771	10.434	2.7273	0.1	52.83
24772	10.527	2.8182	0.1	50.373
24773	10.25	2.7273	0.1	58.638
24774	10.342	2.8182	0.1	55.968
24775	10.065	2.7273	0.1	64.971
24776	10.157	2.8182	0.1	62.067
24777	9.8806	2.7273	0.1	71.882
24778	9.9728	2.8182	0.1	68.724
24779	9.696	2.7273	0.1	79.43
24780	9.7883	2.8182	0.1	75.994
24781	9.5114	2.7273	0.1	87.679
24782	9.6037	2.8182	0.1	83.939
24783	9.3269	2.7273	0.1	96.7
24784	9.4191	2.8182	0.1	92.63
24785	9.1423	2.7273	0.1	106.57
24786	9.2346	2.8182	0.1	102.14
24787	8.9577	2.7273	0.1	117.38
24788	9.05	2.8182	0.1	112.56
24789	8.7731	2.7273	0.1	129.21
24790	8.8654	2.8182	0.1	123.97
24791	8.5886	2.7273	0.1	142.16
24792	8.6809	2.8182	0.1	136.47
24793	8.404	2.7273	0.1	156.35
24794	8.4963	2.8182	0.1	150.17
24795	8.2194	2.7273	0.1	171.87
24796	8.3117	2.8182	0.1	165.18
24797	8.0349	2.7273	0.1	188.84
24798	8.1272	2.8182	0.1	181.61
24799	7.8503	2.7273	0.1	207.36
24800	7.9426	2.8182	0.1	199.58
24801	7.6657	2.7273	0.1	227.53
24802	7.758	2.8182	0.1	219.18
24803	7.4812	2.7273	0.1	249.42
24804	7.5735	2.8182	0.1	240.52
24805	7.2966	2.7273	0.1	273.07
24806	7.3889	2.8182	0.1	263.65
24807	7.112	2.7273	0.1	298.46
24808	7.2043	2.8182	0.1	288.61
24809	6.9275	2.7273	0.1	325.48
24810	7.0198	2.8182	0.1	315.33
24811	6.7429	2.7273	0.1	353.89
24812	6.8352	2.8182	0.1	343.65
24813	6.5583	2.7273	0.1	383.24
24814	6.6506	2.8182	0.1	373.23
24815	6.3738	2.7273	0.1	412.79
24816	6.466	2.8182	0.1	403.51
24817	6.1892	2.7273	0.1	441.34
24818	6.2815	2.8182	0.1	433.51
24819	6.0046	2.7273	0.1	467.04
24820	6.0969	2.8182	0.1	461.74
24821	5.8201	2.7273	0.1	487.09
24822	5.9123	2.8182	0.1	485.88
24823	5.6355	2.7273	0.1	497.26
24824	5.7278	2.8182	0.1	502.41
24825	5.4509	2.7273	0.1	491.28
24826	5.5432	2.8182	0.1	506.08
24827	5.2664	2.7273	0.1	460.03
24828	5.3586	2.8182	0.1	489.14
24829	5.0818	2.7273	0.1	390.75
24830	5.1741	2.8182	0.1	440.58
24831	4.8972	2.7273	0.1	267.03
24832	4.9895	2.8182	0.1	345.65
24833	4.7127	2.7273	0.1	72.878
24834	4.8049	2.8182	0.1	187.41
24835	4.5281	2.7273	0.1	-0.12116
24836	4.6204	2.8182	0.1	-0.50559
24837	4.3435	2.7273	0.1	2.1338
24838	4.4358	2.8182	0.1	8.8509e-002
24839	4.2512	2.8182	0.1	2.1299
24840	4.159	2.7273	0.1	4.6958
24841	23.723	2.9091	0.1	-0.22891
24842	23.815	3.	0.1	-0.21126
24843	23.908	2.9091	0.1	-0.42828
24844	23.539	2.9091	0.1	-0.2311
24845	23.631	3.	0.1	-0.33377
24846	23.354	2.9091	0.1	-0.13359
24847	23.446	3.	0.1	-0.14559
24848	23.169	2.9091	0.1	-0.11038
24849	23.262	3.	0.1	-0.12779
24850	22.985	2.9091	0.1	-8.7437e-002
24851	23.077	3.	0.1	-9.5886e-002
24852	22.8	2.9091	0.1	-7.392e-002
24853	22.893	3.	0.1	-8.0598e-002
24854	22.616	2.9091	0.1	-6.3506e-002
24855	22.708	3.	0.1	-6.8235e-002
24856	22.431	2.9091	0.1	-5.5757e-002
24857	22.523	3.	0.1	-5.9441e-002
24858	22.247	2.9091	0.1	-4.9638e-002
24859	22.339	3.	0.1	-5.2547e-002
24860	22.062	2.9091	0.1	-4.4711e-002
24861	22.154	3.	0.1	-4.7082e-002
24862	21.877	2.9091	0.1	-4.0646e-002
24863	21.97	3.	0.1	-4.2616e-002
24864	21.693	2.9091	0.1	-3.7236e-002
24865	21.785	3.	0.1	-3.8901e-002
24866	21.508	2.9091	0.1	-3.4331e-002
24867	21.601	3.	0.1	-3.5757e-002
24868	21.324	2.9091	0.1	-3.1824e-002
24869	21.416	3.	0.1	-3.3064e-002
24870	21.139	2.9091	0.1	-2.9632e-002
24871	21.231	3.	0.1	-3.0722e-002
24872	20.955	2.9091	0.1	-2.7704e-002
24873	21.047	3.	0.1	-2.8665e-002
24874	20.77	2.9091	0.1	-2.5995e-002
24875	20.862	3.	0.1	-2.6854e-002
24876	20.585	2.9091	0.1	-2.4463e-002
24877	20.678	3.	0.1	-2.5238e-002
24878	20.401	2.9091	0.1	-2.3086e-002
24879	20.493	3.	0.1	-2.3782e-002
24880	20.216	2.9091	0.1	-2.1848e-002
24881	20.309	3.	0.1	-2.2478e-002
24882	20.032	2.9091	0.1	-2.0725e-002
24883	20.124	3.	0.1	-2.13e-002
24884	19.847	2.9091	0.1	-1.9699e-002
24885	19.94	3.	0.1	-2.0226e-002
24886	19.663	2.9091	0.1	-1.876e-002
24887	19.755	3.	0.1	-1.9244e-002
24888	19.478	2.9091	0.1	-1.7905e-002
24889	19.57	3.	0.1	-1.8346e-002
24890	19.294	2.9091	0.1	-1.712e-002
24891	19.386	3.	0.1	-1.7531e-002
24892	19.109	2.9091	0.1	-1.6389e-002
24893	19.201	3.	0.1	-1.6772e-002
24894	18.924	2.9091	0.1	-1.5717e-002
24895	19.017	3.	0.1	-1.6068e-002
24896	18.74	2.9091	0.1	-1.5097e-002
24897	18.832	3.	0.1	-1.5426e-002
24898	18.555	2.9091	0.1	-1.4512e-002
24899	18.648	3.	0.1	-1.4826e-002
24900	18.371	2.9091	0.1	-1.3968e-002
24901	18.463	3.	0.1	-1.4256e-002
24902	18.186	2.9091	0.1	-1.3468e-002
24903	18.278	3.	0.1	-1.3736e-002
24904	18.002	2.9091	0.1	-1.3e-002
24905	18.094	3.	0.1	-1.3254e-002
24906	17.817	2.9091	0.1	-1.2556e-002
24907	17.909	3.	0.1	-1.2799e-002
24908	17.632	2.9091	0.1	-1.2138e-002
24909	17.725	3.	0.1	-1.2366e-002
24910	17.448	2.9091	0.1	-1.1754e-002
24911	17.54	3.	0.1	-1.1962e-002
24912	17.263	2.9091	0.1	-1.1392e-002
24913	17.356	3.	0.1	-1.1598e-002
24914	17.079	2.9091	0.1	-1.1041e-002
24915	17.171	3.	0.1	-1.1237e-002
24916	16.894	2.9091	0.1	-1.0707e-002
24917	16.986	3.	0.1	-1.0894e-002
24918	16.71	2.9091	0.1	-1.0391e-002
24919	16.802	3.	0.1	-1.0569e-002
24920	16.525	2.9091	0.1	-1.01e-002
24921	16.617	3.	0.1	-1.0261e-002
24922	16.34	2.9091	0.1	-9.8233e-003
24923	16.433	3.	0.1	-9.9869e-003
24924	16.156	2.9091	0.1	-9.5473e-003
24925	16.248	3.	0.1	-9.7079e-003
24926	15.971	2.9091	0.1	-9.2875e-003
24927	16.064	3.	0.1	-9.4342e-003
24928	15.787	2.9091	0.1	-9.0435e-003
24929	15.879	3.	0.1	-9.1888e-003
24930	15.602	2.9091	0.1	-8.7949e-003
24931	15.694	3.	0.1	-8.9467e-003
24932	15.418	2.9091	0.1	-8.5545e-003
24933	15.51	3.	0.1	-8.692e-003
24934	15.233	2.9091	0.1	-8.3343e-003
24935	15.325	3.	0.1	-8.4669e-003
24936	15.048	2.9091	0.1	-8.1186e-003
24937	15.141	3.	0.1	-8.2532e-003
24938	14.864	2.9091	0.1	-7.8999e-003
24939	14.956	3.	0.1	-8.0376e-003
24940	14.679	2.9091	0.1	-7.6832e-003
24941	14.772	3.	0.1	-7.8188e-003
24942	14.495	2.9091	0.1	-7.4836e-003
24943	14.587	3.	0.1	-7.6086e-003
24944	14.31	2.9091	0.1	-7.2839e-003
24945	14.402	3.	0.1	-7.4262e-003
24946	14.126	2.9091	0.1	-7.0633e-003
24947	14.218	3.	0.1	-7.223e-003
24948	13.941	2.9091	0.1	-6.8184e-003
24949	14.033	3.	0.1	-7.0125e-003
24950	13.756	2.9091	0.1	0.21418
24951	13.849	3.	0.1	-6.827e-003
24952	13.572	2.9091	0.1	1.6835
24953	13.664	3.	0.1	0.93768
24954	13.387	2.9091	0.1	3.2492
24955	13.48	3.	0.1	2.4526
24956	13.203	2.9091	0.1	4.9215
24957	13.295	3.	0.1	4.0686
24958	13.018	2.9091	0.1	6.7117
24959	13.11	3.	0.1	5.7966
24960	12.834	2.9091	0.1	8.6321
24961	12.926	3.	0.1	7.6484
24962	12.649	2.9091	0.1	10.696
24963	12.741	3.	0.1	9.6368
24964	12.465	2.9091	0.1	12.918
24965	12.557	3.	0.1	11.776
24966	12.28	2.9091	0.1	15.313
24967	12.372	3.	0.1	14.079
24968	12.095	2.9091	0.1	17.898
24969	12.188	3.	0.1	16.565
24970	11.911	2.9091	0.1	20.693
24971	12.003	3.	0.1	19.25
24972	11.726	2.9091	0.1	23.717
24973	11.819	3.	0.1	22.154
24974	11.542	2.9091	0.1	26.993
24975	11.634	3.	0.1	25.298
24976	11.357	2.9091	0.1	30.545
24977	11.449	3.	0.1	28.705
24978	11.173	2.9091	0.1	34.401
24979	11.265	3.	0.1	32.401
24980	10.988	2.9091	0.1	38.589
24981	11.08	3.	0.1	36.415
24982	10.803	2.9091	0.1	43.144
24983	10.896	3.	0.1	40.777
24984	10.619	2.9091	0.1	48.101
24985	10.711	3.	0.1	45.523
24986	10.434	2.9091	0.1	53.501
24987	10.527	3.	0.1	50.69
24988	10.25	2.9091	0.1	59.388
24989	10.342	3.	0.1	56.322
24990	10.065	2.9091	0.1	65.812
24991	10.157	3.	0.1	62.464
24992	9.8806	2.9091	0.1	72.828
24993	9.9728	3.	0.1	69.169
24994	9.696	2.9091	0.1	80.496
24995	9.7883	3.	0.1	76.494
24996	9.5114	2.9091	0.1	88.884
24997	9.6037	3.	0.1	84.505
24998	9.3269	2.9091	0.1	98.066
24999	9.4191	3.	0.1	93.27
25000	9.1423	2.9091	0.1	108.12
25001	9.2346	3.	0.1	102.87
25002	8.9577	2.9091	0.1	119.15
25003	9.05	3.	0.1	113.38
25004	8.7731	2.9091	0.1	131.23
25005	8.8654	3.	0.1	124.91
25006	8.5886	2.9091	0.1	144.48
25007	8.6809	3.	0.1	137.55
25008	8.404	2.9091	0.1	159.
25009	8.4963	3.	0.1	151.41
25010	8.2194	2.9091	0.1	174.92
25011	8.3117	3.	0.1	166.6
25012	8.0349	2.9091	0.1	192.35
25013	8.1272	3.	0.1	183.24
25014	7.8503	2.9091	0.1	211.39
25015	7.9426	3.	0.1	201.45
25016	7.6657	2.9091	0.1	232.17
25017	7.758	3.	0.1	221.34
25018	7.4812	2.9091	0.1	254.75
25019	7.5735	3.	0.1	243.
25020	7.2966	2.9091	0.1	279.2
25021	7.3889	3.	0.1	266.51
25022	7.112	2.9091	0.1	305.48
25023	7.2043	3.	0.1	291.88
25024	6.9275	2.9091	0.1	333.49
25025	7.0198	3.	0.1	319.07
25026	6.7429	2.9091	0.1	362.99
25027	6.8352	3.	0.1	347.91
25028	6.5583	2.9091	0.1	393.49
25029	6.6506	3.	0.1	378.06
25030	6.3738	2.9091	0.1	424.21
25031	6.466	3.	0.1	408.93
25032	6.1892	2.9091	0.1	453.87
25033	6.2815	3.	0.1	439.52
25034	6.0046	2.9091	0.1	480.47
25035	6.0969	3.	0.1	468.28
25036	5.8201	2.9091	0.1	500.95
25037	5.9123	3.	0.1	492.8
25038	5.6355	2.9091	0.1	510.69
25039	5.7278	3.	0.1	509.41
25040	5.4509	2.9091	0.1	502.85
25041	5.5432	3.	0.1	512.61
25042	5.2664	2.9091	0.1	467.6
25043	5.3586	3.	0.1	494.34
25044	5.0818	2.9091	0.1	391.71
25045	5.1741	3.	0.1	443.2
25046	4.8972	2.9091	0.1	259.69
25047	4.9895	3.	0.1	344.31
25048	4.7127	2.9091	0.1	59.421
25049	4.8049	3.	0.1	181.61
25050	4.5281	2.9091	0.1	-0.54635
25051	4.6204	3.	0.1	-1.2223
25052	4.3435	2.9091	0.1	0.2248
25053	4.4358	3.	0.1	-7.554e-002
25054	4.2512	3.	0.1	0.36117
25055	4.159	2.9091	0.1	1.5935
25056	23.723	3.0909	0.1	-0.22891
25057	23.815	3.1818	0.1	-0.21055
25058	23.908	3.0909	0.1	-0.42829
25059	23.539	3.0909	0.1	-0.2311
25060	23.631	3.1818	0.1	-0.33343
25061	23.354	3.0909	0.1	-0.13359
25062	23.446	3.1818	0.1	-0.14536
25063	23.169	3.0909	0.1	-0.11038
25064	23.262	3.1818	0.1	-0.12759
25065	22.985	3.0909	0.1	-8.7437e-002
25066	23.077	3.1818	0.1	-9.5707e-002
25067	22.8	3.0909	0.1	-7.392e-002
25068	22.893	3.1818	0.1	-8.0431e-002
25069	22.616	3.0909	0.1	-6.3506e-002
25070	22.708	3.1818	0.1	-6.8077e-002
25071	22.431	3.0909	0.1	-5.5758e-002
25072	22.523	3.1818	0.1	-5.9289e-002
25073	22.247	3.0909	0.1	-4.9637e-002
25074	22.339	3.1818	0.1	-5.24e-002
25075	22.062	3.0909	0.1	-4.471e-002
25076	22.154	3.1818	0.1	-4.6936e-002
25077	21.877	3.0909	0.1	-4.0647e-002
25078	21.97	3.1818	0.1	-4.2474e-002
25079	21.693	3.0909	0.1	-3.7236e-002
25080	21.785	3.1818	0.1	-3.8761e-002
25081	21.508	3.0909	0.1	-3.4332e-002
25082	21.601	3.1818	0.1	-3.5619e-002
25083	21.324	3.0909	0.1	-3.1824e-002
25084	21.416	3.1818	0.1	-3.2929e-002
25085	21.139	3.0909	0.1	-2.9632e-002
25086	21.231	3.1818	0.1	-3.0588e-002
25087	20.955	3.0909	0.1	-2.7704e-002
25088	21.047	3.1818	0.1	-2.8534e-002
25089	20.77	3.0909	0.1	-2.5995e-002
25090	20.862	3.1818	0.1	-2.6725e-002
25091	20.585	3.0909	0.1	-2.4463e-002
25092	20.678	3.1818	0.1	-2.511e-002
25093	20.401	3.0909	0.1	-2.3087e-002
25094	20.493	3.1818	0.1	-2.3657e-002
25095	20.216	3.0909	0.1	-2.1848e-002
25096	20.309	3.1818	0.1	-2.2356e-002
25097	20.032	3.0909	0.1	-2.0725e-002
25098	20.124	3.1818	0.1	-2.1181e-002
25099	19.847	3.0909	0.1	-1.9699e-002
25100	19.94	3.1818	0.1	-2.0109e-002
25101	19.663	3.0909	0.1	-1.876e-002
25102	19.755	3.1818	0.1	-1.9128e-002
25103	19.478	3.0909	0.1	-1.7905e-002
25104	19.57	3.1818	0.1	-1.8233e-002
25105	19.294	3.0909	0.1	-1.712e-002
25106	19.386	3.1818	0.1	-1.7421e-002
25107	19.109	3.0909	0.1	-1.6389e-002
25108	19.201	3.1818	0.1	-1.6664e-002
25109	18.924	3.0909	0.1	-1.5716e-002
25110	19.017	3.1818	0.1	-1.596e-002
25111	18.74	3.0909	0.1	-1.5096e-002
25112	18.832	3.1818	0.1	-1.5321e-002
25113	18.555	3.0909	0.1	-1.4512e-002
25114	18.648	3.1818	0.1	-1.4722e-002
25115	18.371	3.0909	0.1	-1.3968e-002
25116	18.463	3.1818	0.1	-1.4154e-002
25117	18.186	3.0909	0.1	-1.3468e-002
25118	18.278	3.1818	0.1	-1.3635e-002
25119	18.002	3.0909	0.1	-1.3e-002
25120	18.094	3.1818	0.1	-1.3155e-002
25121	17.817	3.0909	0.1	-1.2556e-002
25122	17.909	3.1818	0.1	-1.2701e-002
25123	17.632	3.0909	0.1	-1.2138e-002
25124	17.725	3.1818	0.1	-1.227e-002
25125	17.448	3.0909	0.1	-1.1755e-002
25126	17.54	3.1818	0.1	-1.1867e-002
25127	17.263	3.0909	0.1	-1.1393e-002
25128	17.356	3.1818	0.1	-1.1503e-002
25129	17.079	3.0909	0.1	-1.1041e-002
25130	17.171	3.1818	0.1	-1.1144e-002
25131	16.894	3.0909	0.1	-1.0707e-002
25132	16.986	3.1818	0.1	-1.0801e-002
25133	16.71	3.0909	0.1	-1.039e-002
25134	16.802	3.1818	0.1	-1.0477e-002
25135	16.525	3.0909	0.1	-1.01e-002
25136	16.617	3.1818	0.1	-1.017e-002
25137	16.34	3.0909	0.1	-9.8231e-003
25138	16.433	3.1818	0.1	-9.8957e-003
25139	16.156	3.0909	0.1	-9.5465e-003
25140	16.248	3.1818	0.1	-9.616e-003
25141	15.971	3.0909	0.1	-9.2871e-003
25142	16.064	3.1818	0.1	-9.3424e-003
25143	15.787	3.0909	0.1	-9.0433e-003
25144	15.879	3.1818	0.1	-9.0969e-003
25145	15.602	3.0909	0.1	-8.7945e-003
25146	15.694	3.1818	0.1	-8.8531e-003
25147	15.418	3.0909	0.1	-8.5542e-003
25148	15.51	3.1818	0.1	-8.5978e-003
25149	15.233	3.0909	0.1	-8.3342e-003
25150	15.325	3.1818	0.1	-8.3696e-003
25151	15.048	3.0909	0.1	-8.1187e-003
25152	15.141	3.1818	0.1	-8.1533e-003
25153	14.864	3.0909	0.1	-7.9001e-003
25154	14.956	3.1818	0.1	-7.9332e-003
25155	14.679	3.0909	0.1	-7.6832e-003
25156	14.772	3.1818	0.1	-7.7075e-003
25157	14.495	3.0909	0.1	-7.4832e-003
25158	14.587	3.1818	0.1	-7.4864e-003
25159	14.31	3.0909	0.1	-7.2845e-003
25160	14.402	3.1818	0.1	-7.2858e-003
25161	14.126	3.0909	0.1	-7.064e-003
25162	14.218	3.1818	0.1	-7.0482e-003
25163	13.941	3.0909	0.1	-6.8185e-003
25164	14.033	3.1818	0.1	-6.7494e-003
25165	13.756	3.0909	0.1	0.21417
25166	13.849	3.1818	0.1	-6.0115e-003
25167	13.572	3.0909	0.1	1.6835
25168	13.664	3.1818	0.1	0.8755
25169	13.387	3.0909	0.1	3.2492
25170	13.48	3.1818	0.1	2.3842
25171	13.203	3.0909	0.1	4.9215
25172	13.295	3.1818	0.1	3.9935
25173	13.018	3.0909	0.1	6.7117
25174	13.11	3.1818	0.1	5.7144
25175	12.834	3.0909	0.1	8.6321
25176	12.926	3.1818	0.1	7.5585
25177	12.649	3.0909	0.1	10.696
25178	12.741	3.1818	0.1	9.5383
25179	12.465	3.0909	0.1	12.918
25180	12.557	3.1818	0.1	11.668
25181	12.28	3.0909	0.1	15.313
25182	12.372	3.1818	0.1	13.961
25183	12.095	3.0909	0.1	17.898
25184	12.188	3.1818	0.1	16.436
25185	11.911	3.0909	0.1	20.693
25186	12.003	3.1818	0.1	19.108
25187	11.726	3.0909	0.1	23.717
25188	11.819	3.1818	0.1	21.998
25189	11.542	3.0909	0.1	26.993
25190	11.634	3.1818	0.1	25.126
25191	11.357	3.0909	0.1	30.545
25192	11.449	3.1818	0.1	28.515
25193	11.173	3.0909	0.1	34.401
25194	11.265	3.1818	0.1	32.192
25195	10.988	3.0909	0.1	38.589
25196	11.08	3.1818	0.1	36.184
25197	10.803	3.0909	0.1	43.144
25198	10.896	3.1818	0.1	40.521
25199	10.619	3.0909	0.1	48.101
25200	10.711	3.1818	0.1	45.238
25201	10.434	3.0909	0.1	53.501
25202	10.527	3.1818	0.1	50.373
25203	10.25	3.0909	0.1	59.388
25204	10.342	3.1818	0.1	55.968
25205	10.065	3.0909	0.1	65.812
25206	10.157	3.1818	0.1	62.067
25207	9.8806	3.0909	0.1	72.828
25208	9.9728	3.1818	0.1	68.724
25209	9.696	3.0909	0.1	80.496
25210	9.7883	3.1818	0.1	75.994
25211	9.5114	3.0909	0.1	88.884
25212	9.6037	3.1818	0.1	83.939
25213	9.3269	3.0909	0.1	98.066
25214	9.4191	3.1818	0.1	92.63
25215	9.1423	3.0909	0.1	108.12
25216	9.2346	3.1818	0.1	102.14
25217	8.9577	3.0909	0.1	119.15
25218	9.05	3.1818	0.1	112.56
25219	8.7731	3.0909	0.1	131.23
25220	8.8654	3.1818	0.1	123.97
25221	8.5886	3.0909	0.1	144.48
25222	8.6809	3.1818	0.1	136.47
25223	8.404	3.0909	0.1	159.
25224	8.4963	3.1818	0.1	150.17
25225	8.2194	3.0909	0.1	174.92
25226	8.3117	3.1818	0.1	165.18
25227	8.0349	3.0909	0.1	192.35
25228	8.1272	3.1818	0.1	181.61
25229	7.8503	3.0909	0.1	211.39
25230	7.9426	3.1818	0.1	199.58
25231	7.6657	3.0909	0.1	232.17
25232	7.758	3.1818	0.1	219.18
25233	7.4812	3.0909	0.1	254.75
25234	7.5735	3.1818	0.1	240.52
25235	7.2966	3.0909	0.1	279.2
25236	7.3889	3.1818	0.1	263.65
25237	7.112	3.0909	0.1	305.48
25238	7.2043	3.1818	0.1	288.61
25239	6.9275	3.0909	0.1	333.49
25240	7.0198	3.1818	0.1	315.33
25241	6.7429	3.0909	0.1	362.99
25242	6.8352	3.1818	0.1	343.65
25243	6.5583	3.0909	0.1	393.49
25244	6.6506	3.1818	0.1	373.23
25245	6.3738	3.0909	0.1	424.21
25246	6.466	3.1818	0.1	403.51
25247	6.1892	3.0909	0.1	453.87
25248	6.2815	3.1818	0.1	433.51
25249	6.0046	3.0909	0.1	480.47
25250	6.0969	3.1818	0.1	461.74
25251	5.8201	3.0909	0.1	500.95
25252	5.9123	3.1818	0.1	485.88
25253	5.6355	3.0909	0.1	510.69
25254	5.7278	3.1818	0.1	502.41
25255	5.4509	3.0909	0.1	502.85
25256	5.5432	3.1818	0.1	506.08
25257	5.2664	3.0909	0.1	467.6
25258	5.3586	3.1818	0.1	489.14
25259	5.0818	3.0909	0.1	391.71
25260	5.1741	3.1818	0.1	440.58
25261	4.8972	3.0909	0.1	259.69
25262	4.9895	3.1818	0.1	345.65
25263	4.7127	3.0909	0.1	59.421
25264	4.8049	3.1818	0.1	187.41
25265	4.5281	3.0909	0.1	-0.54635
25266	4.6204	3.1818	0.1	-0.50559
25267	4.3435	3.0909	0.1	0.2248
25268	4.4358	3.1818	0.1	8.8509e-002
25269	4.2512	3.1818	0.1	2.1299
25270	4.159	3.0909	0.1	1.5935
25271	23.723	3.2727	0.1	-0.228
25272	23.815	3.3636	0.1	-0.2084
25273	23.908	3.2727	0.1	-0.428
25274	23.539	3.2727	0.1	-0.23055
25275	23.631	3.3636	0.1	-0.33241
25276	23.354	3.2727	0.1	-0.13317
25277	23.446	3.3636	0.1	-0.14466
25278	23.169	3.2727	0.1	-0.11
25279	23.262	3.3636	0.1	-0.12698
25280	22.985	3.2727	0.1	-8.7091e-002
25281	23.077	3.3636	0.1	-9.516e-002
25282	22.8	3.2727	0.1	-7.3595e-002
25283	22.893	3.3636	0.1	-7.9924e-002
25284	22.616	3.2727	0.1	-6.3196e-002
25285	22.708	3.3636	0.1	-6.7597e-002
25286	22.431	3.2727	0.1	-5.5458e-002
25287	22.523	3.3636	0.1	-5.8827e-002
25288	22.247	3.2727	0.1	-4.9344e-002
25289	22.339	3.3636	0.1	-5.195e-002
25290	22.062	3.2727	0.1	-4.4423e-002
25291	22.154	3.3636	0.1	-4.6496e-002
25292	21.877	3.2727	0.1	-4.0364e-002
25293	21.97	3.3636	0.1	-4.2042e-002
25294	21.693	3.2727	0.1	-3.6956e-002
25295	21.785	3.3636	0.1	-3.8334e-002
25296	21.508	3.2727	0.1	-3.4056e-002
25297	21.601	3.3636	0.1	-3.5198e-002
25298	21.324	3.2727	0.1	-3.1554e-002
25299	21.416	3.3636	0.1	-3.2514e-002
25300	21.139	3.2727	0.1	-2.9367e-002
25301	21.231	3.3636	0.1	-3.0182e-002
25302	20.955	3.2727	0.1	-2.7443e-002
25303	21.047	3.3636	0.1	-2.8134e-002
25304	20.77	3.2727	0.1	-2.5738e-002
25305	20.862	3.3636	0.1	-2.6331e-002
25306	20.585	3.2727	0.1	-2.421e-002
25307	20.678	3.3636	0.1	-2.4726e-002
25308	20.401	3.2727	0.1	-2.2839e-002
25309	20.493	3.3636	0.1	-2.3279e-002
25310	20.216	3.2727	0.1	-2.1607e-002
25311	20.309	3.3636	0.1	-2.1986e-002
25312	20.032	3.2727	0.1	-2.0488e-002
25313	20.124	3.3636	0.1	-2.0818e-002
25314	19.847	3.2727	0.1	-1.9465e-002
25315	19.94	3.3636	0.1	-1.9754e-002
25316	19.663	3.2727	0.1	-1.8531e-002
25317	19.755	3.3636	0.1	-1.878e-002
25318	19.478	3.2727	0.1	-1.7681e-002
25319	19.57	3.3636	0.1	-1.7891e-002
25320	19.294	3.2727	0.1	-1.69e-002
25321	19.386	3.3636	0.1	-1.7086e-002
25322	19.109	3.2727	0.1	-1.6172e-002
25323	19.201	3.3636	0.1	-1.6335e-002
25324	18.924	3.2727	0.1	-1.5504e-002
25325	19.017	3.3636	0.1	-1.5638e-002
25326	18.74	3.2727	0.1	-1.4888e-002
25327	18.832	3.3636	0.1	-1.5004e-002
25328	18.555	3.2727	0.1	-1.4307e-002
25329	18.648	3.3636	0.1	-1.4411e-002
25330	18.371	3.2727	0.1	-1.3766e-002
25331	18.463	3.3636	0.1	-1.3847e-002
25332	18.186	3.2727	0.1	-1.3268e-002
25333	18.278	3.3636	0.1	-1.3334e-002
25334	18.002	3.2727	0.1	-1.2803e-002
25335	18.094	3.3636	0.1	-1.2857e-002
25336	17.817	3.2727	0.1	-1.2362e-002
25337	17.909	3.3636	0.1	-1.2408e-002
25338	17.632	3.2727	0.1	-1.1947e-002
25339	17.725	3.3636	0.1	-1.198e-002
25340	17.448	3.2727	0.1	-1.1565e-002
25341	17.54	3.3636	0.1	-1.158e-002
25342	17.263	3.2727	0.1	-1.1204e-002
25343	17.356	3.3636	0.1	-1.1219e-002
25344	17.079	3.2727	0.1	-1.0855e-002
25345	17.171	3.3636	0.1	-1.0863e-002
25346	16.894	3.2727	0.1	-1.0522e-002
25347	16.986	3.3636	0.1	-1.0522e-002
25348	16.71	3.2727	0.1	-1.0207e-002
25349	16.802	3.3636	0.1	-1.02e-002
25350	16.525	3.2727	0.1	-9.9175e-003
25351	16.617	3.3636	0.1	-9.894e-003
25352	16.34	3.2727	0.1	-9.6407e-003
25353	16.433	3.3636	0.1	-9.6214e-003
25354	16.156	3.2727	0.1	-9.3641e-003
25355	16.248	3.3636	0.1	-9.3417e-003
25356	15.971	3.2727	0.1	-9.1043e-003
25357	16.064	3.3636	0.1	-9.0683e-003
25358	15.787	3.2727	0.1	-8.8585e-003
25359	15.879	3.3636	0.1	-8.8216e-003
25360	15.602	3.2727	0.1	-8.6078e-003
25361	15.694	3.3636	0.1	-8.5753e-003
25362	15.418	3.2727	0.1	-8.3639e-003
25363	15.51	3.3636	0.1	-8.3162e-003
25364	15.233	3.2727	0.1	-8.1384e-003
25365	15.325	3.3636	0.1	-8.0817e-003
25366	15.048	3.2727	0.1	-7.9159e-003
25367	15.141	3.3636	0.1	-7.857e-003
25368	14.864	3.2727	0.1	-7.6863e-003
25369	14.956	3.3636	0.1	-7.6238e-003
25370	14.679	3.2727	0.1	-7.4531e-003
25371	14.772	3.3636	0.1	-7.3791e-003
25372	14.495	3.2727	0.1	-7.2265e-003
25373	14.587	3.3636	0.1	-7.1294e-003
25374	14.31	3.2727	0.1	-6.98e-003
25375	14.402	3.3636	0.1	-6.8796e-003
25376	14.126	3.2727	0.1	-6.66e-003
25377	14.218	3.3636	0.1	-6.5503e-003
25378	13.941	3.2727	0.1	-6.0962e-003
25379	14.033	3.3636	0.1	-6.0385e-003
25380	13.756	3.2727	0.1	0.10249
25381	13.849	3.3636	0.1	-4.3499e-003
25382	13.572	3.2727	0.1	1.5527
25383	13.664	3.3636	0.1	0.68984
25384	13.387	3.2727	0.1	3.1056
25385	13.48	3.3636	0.1	2.1792
25386	13.203	3.2727	0.1	4.7642
25387	13.295	3.3636	0.1	3.7689
25388	13.018	3.2727	0.1	6.5395
25389	13.11	3.3636	0.1	5.4685
25390	12.834	3.2727	0.1	8.4437
25391	12.926	3.3636	0.1	7.2893
25392	12.649	3.2727	0.1	10.49
25393	12.741	3.3636	0.1	9.2438
25394	12.465	3.2727	0.1	12.692
25395	12.557	3.3636	0.1	11.345
25396	12.28	3.2727	0.1	15.065
25397	12.372	3.3636	0.1	13.608
25398	12.095	3.2727	0.1	17.627
25399	12.188	3.3636	0.1	16.049
25400	11.911	3.2727	0.1	20.395
25401	12.003	3.3636	0.1	18.683
25402	11.726	3.2727	0.1	23.389
25403	11.819	3.3636	0.1	21.531
25404	11.542	3.2727	0.1	26.632
25405	11.634	3.3636	0.1	24.613
25406	11.357	3.2727	0.1	30.147
25407	11.449	3.3636	0.1	27.95
25408	11.173	3.2727	0.1	33.96
25409	11.265	3.3636	0.1	31.568
25410	10.988	3.2727	0.1	38.102
25411	11.08	3.3636	0.1	35.494
25412	10.803	3.2727	0.1	42.603
25413	10.896	3.3636	0.1	39.757
25414	10.619	3.2727	0.1	47.499
25415	10.711	3.3636	0.1	44.39
25416	10.434	3.2727	0.1	52.83
25417	10.527	3.3636	0.1	49.429
25418	10.25	3.2727	0.1	58.638
25419	10.342	3.3636	0.1	54.913
25420	10.065	3.2727	0.1	64.971
25421	10.157	3.3636	0.1	60.888
25422	9.8806	3.2727	0.1	71.882
25423	9.9728	3.3636	0.1	67.4
25424	9.696	3.2727	0.1	79.43
25425	9.7883	3.3636	0.1	74.504
25426	9.5114	3.2727	0.1	87.679
25427	9.6037	3.3636	0.1	82.259
25428	9.3269	3.2727	0.1	96.7
25429	9.4191	3.3636	0.1	90.729
25430	9.1423	3.2727	0.1	106.57
25431	9.2346	3.3636	0.1	99.985
25432	8.9577	3.2727	0.1	117.38
25433	9.05	3.3636	0.1	110.1
25434	8.7731	3.2727	0.1	129.21
25435	8.8654	3.3636	0.1	121.17
25436	8.5886	3.2727	0.1	142.16
25437	8.6809	3.3636	0.1	133.27
25438	8.404	3.2727	0.1	156.35
25439	8.4963	3.3636	0.1	146.51
25440	8.2194	3.2727	0.1	171.87
25441	8.3117	3.3636	0.1	160.98
25442	8.0349	3.2727	0.1	188.84
25443	8.1272	3.3636	0.1	176.79
25444	7.8503	3.2727	0.1	207.36
25445	7.9426	3.3636	0.1	194.03
25446	7.6657	3.2727	0.1	227.53
25447	7.758	3.3636	0.1	212.8
25448	7.4812	3.2727	0.1	249.42
25449	7.5735	3.3636	0.1	233.18
25450	7.2966	3.2727	0.1	273.07
25451	7.3889	3.3636	0.1	255.22
25452	7.112	3.2727	0.1	298.46
25453	7.2043	3.3636	0.1	278.94
25454	6.9275	3.2727	0.1	325.48
25455	7.0198	3.3636	0.1	304.26
25456	6.7429	3.2727	0.1	353.89
25457	6.8352	3.3636	0.1	331.04
25458	6.5583	3.2727	0.1	383.24
25459	6.6506	3.3636	0.1	358.95
25460	6.3738	3.2727	0.1	412.79
25461	6.466	3.3636	0.1	387.45
25462	6.1892	3.2727	0.1	441.34
25463	6.2815	3.3636	0.1	415.67
25464	6.0046	3.2727	0.1	467.04
25465	6.0969	3.3636	0.1	442.24
25466	5.8201	3.2727	0.1	487.09
25467	5.9123	3.3636	0.1	465.07
25468	5.6355	3.2727	0.1	497.26
25469	5.7278	3.3636	0.1	481.04
25470	5.4509	3.2727	0.1	491.28
25471	5.5432	3.3636	0.1	485.5
25472	5.2664	3.2727	0.1	460.03
25473	5.3586	3.3636	0.1	471.59
25474	5.0818	3.2727	0.1	390.75
25475	5.1741	3.3636	0.1	429.39
25476	4.8972	3.2727	0.1	267.03
25477	4.9895	3.3636	0.1	344.94
25478	4.7127	3.2727	0.1	72.878
25479	4.8049	3.3636	0.1	199.9
25480	4.5281	3.2727	0.1	-0.12116
25481	4.6204	3.3636	0.1	2.7506
25482	4.3435	3.2727	0.1	2.1338
25483	4.4358	3.3636	0.1	-3.5053e-003
25484	4.2512	3.3636	0.1	-1.0663
25485	4.159	3.2727	0.1	4.6958
25486	23.723	3.4545	0.1	-0.22616
25487	23.815	3.5455	0.1	-0.20476
25488	23.908	3.4545	0.1	-0.42743
25489	23.539	3.4545	0.1	-0.22943
25490	23.631	3.5455	0.1	-0.33067
25491	23.354	3.4545	0.1	-0.13229
25492	23.446	3.5455	0.1	-0.14345
25493	23.169	3.4545	0.1	-0.10923
25494	23.262	3.5455	0.1	-0.12593
25495	22.985	3.4545	0.1	-8.6383e-002
25496	23.077	3.5455	0.1	-9.4219e-002
25497	22.8	3.4545	0.1	-7.2931e-002
25498	22.893	3.5455	0.1	-7.905e-002
25499	22.616	3.4545	0.1	-6.2561e-002
25500	22.708	3.5455	0.1	-6.677e-002
25501	22.431	3.4545	0.1	-5.4843e-002
25502	22.523	3.5455	0.1	-5.803e-002
25503	22.247	3.4545	0.1	-4.8744e-002
25504	22.339	3.5455	0.1	-5.1175e-002
25505	22.062	3.4545	0.1	-4.3834e-002
25506	22.154	3.5455	0.1	-4.5739e-002
25507	21.877	3.4545	0.1	-3.9784e-002
25508	21.97	3.5455	0.1	-4.1296e-002
25509	21.693	3.4545	0.1	-3.6385e-002
25510	21.785	3.5455	0.1	-3.76e-002
25511	21.508	3.4545	0.1	-3.3494e-002
25512	21.601	3.5455	0.1	-3.4477e-002
25513	21.324	3.4545	0.1	-3.1e-002
25514	21.416	3.5455	0.1	-3.1805e-002
25515	21.139	3.4545	0.1	-2.8823e-002
25516	21.231	3.5455	0.1	-2.9484e-002
25517	20.955	3.4545	0.1	-2.6909e-002
25518	21.047	3.5455	0.1	-2.7449e-002
25519	20.77	3.4545	0.1	-2.5215e-002
25520	20.862	3.5455	0.1	-2.5661e-002
25521	20.585	3.4545	0.1	-2.3698e-002
25522	20.678	3.5455	0.1	-2.4068e-002
25523	20.401	3.4545	0.1	-2.2336e-002
25524	20.493	3.5455	0.1	-2.2636e-002
25525	20.216	3.4545	0.1	-2.1113e-002
25526	20.309	3.5455	0.1	-2.1355e-002
25527	20.032	3.4545	0.1	-2.0005e-002
25528	20.124	3.5455	0.1	-2.0202e-002
25529	19.847	3.4545	0.1	-1.8994e-002
25530	19.94	3.5455	0.1	-1.915e-002
25531	19.663	3.4545	0.1	-1.8069e-002
25532	19.755	3.5455	0.1	-1.819e-002
25533	19.478	3.4545	0.1	-1.7228e-002
25534	19.57	3.5455	0.1	-1.7313e-002
25535	19.294	3.4545	0.1	-1.6456e-002
25536	19.386	3.5455	0.1	-1.652e-002
25537	19.109	3.4545	0.1	-1.5737e-002
25538	19.201	3.5455	0.1	-1.578e-002
25539	18.924	3.4545	0.1	-1.5076e-002
25540	19.017	3.5455	0.1	-1.5093e-002
25541	18.74	3.4545	0.1	-1.4467e-002
25542	18.832	3.5455	0.1	-1.4468e-002
25543	18.555	3.4545	0.1	-1.3894e-002
25544	18.648	3.5455	0.1	-1.3886e-002
25545	18.371	3.4545	0.1	-1.3359e-002
25546	18.463	3.5455	0.1	-1.333e-002
25547	18.186	3.4545	0.1	-1.2868e-002
25548	18.278	3.5455	0.1	-1.2825e-002
25549	18.002	3.4545	0.1	-1.2408e-002
25550	18.094	3.5455	0.1	-1.2357e-002
25551	17.817	3.4545	0.1	-1.1972e-002
25552	17.909	3.5455	0.1	-1.1914e-002
25553	17.632	3.4545	0.1	-1.1561e-002
25554	17.725	3.5455	0.1	-1.1492e-002
25555	17.448	3.4545	0.1	-1.1183e-002
25556	17.54	3.5455	0.1	-1.1099e-002
25557	17.263	3.4545	0.1	-1.0827e-002
25558	17.356	3.5455	0.1	-1.0743e-002
25559	17.079	3.4545	0.1	-1.0482e-002
25560	17.171	3.5455	0.1	-1.0392e-002
25561	16.894	3.4545	0.1	-1.0152e-002
25562	16.986	3.5455	0.1	-1.0056e-002
25563	16.71	3.4545	0.1	-9.8388e-003
25564	16.802	3.5455	0.1	-9.7375e-003
25565	16.525	3.4545	0.1	-9.5505e-003
25566	16.617	3.5455	0.1	-9.4342e-003
25567	16.34	3.4545	0.1	-9.2754e-003
25568	16.433	3.5455	0.1	-9.1638e-003
25569	16.156	3.4545	0.1	-8.9993e-003
25570	16.248	3.5455	0.1	-8.8858e-003
25571	15.971	3.4545	0.1	-8.7392e-003
25572	16.064	3.5455	0.1	-8.6124e-003
25573	15.787	3.4545	0.1	-8.492e-003
25574	15.879	3.5455	0.1	-8.3644e-003
25575	15.602	3.4545	0.1	-8.2373e-003
25576	15.694	3.5455	0.1	-8.116e-003
25577	15.418	3.4545	0.1	-7.9874e-003
25578	15.51	3.5455	0.1	-7.8516e-003
25579	15.233	3.4545	0.1	-7.7535e-003
25580	15.325	3.5455	0.1	-7.6095e-003
25581	15.048	3.4545	0.1	-7.5176e-003
25582	15.141	3.5455	0.1	-7.373e-003
25583	14.864	3.4545	0.1	-7.2687e-003
25584	14.956	3.5455	0.1	-7.1222e-003
25585	14.679	3.4545	0.1	-7.0072e-003
25586	14.772	3.5455	0.1	-6.8512e-003
25587	14.495	3.4545	0.1	-6.7351e-003
25588	14.587	3.5455	0.1	-6.5614e-003
25589	14.31	3.4545	0.1	-6.4099e-003
25590	14.402	3.5455	0.1	-6.2469e-003
25591	14.126	3.4545	0.1	-5.9349e-003
25592	14.218	3.5455	0.1	-5.8041e-003
25593	13.941	3.4545	0.1	-4.9616e-003
25594	14.033	3.5455	0.1	-5.059e-003
25595	13.756	3.4545	0.1	9.9816e-003
25596	13.849	3.5455	0.1	-2.8294e-003
25597	13.572	3.4545	0.1	1.2923
25598	13.664	3.5455	0.1	0.38555
25599	13.387	3.4545	0.1	2.8196
25600	13.48	3.5455	0.1	1.8396
25601	13.203	3.4545	0.1	4.4509
25602	13.295	3.5455	0.1	3.3965
25603	13.018	3.4545	0.1	6.1966
25604	13.11	3.5455	0.1	5.0609
25605	12.834	3.4545	0.1	8.0684
25606	12.926	3.5455	0.1	6.8434
25607	12.649	3.4545	0.1	10.079
25608	12.741	3.5455	0.1	8.756
25609	12.465	3.4545	0.1	12.242
25610	12.557	3.5455	0.1	10.812
25611	12.28	3.4545	0.1	14.573
25612	12.372	3.5455	0.1	13.024
25613	12.095	3.4545	0.1	17.087
25614	12.188	3.5455	0.1	15.408
25615	11.911	3.4545	0.1	19.802
25616	12.003	3.5455	0.1	17.981
25617	11.726	3.4545	0.1	22.738
25618	11.819	3.5455	0.1	20.76
25619	11.542	3.4545	0.1	25.915
25620	11.634	3.5455	0.1	23.765
25621	11.357	3.4545	0.1	29.356
25622	11.449	3.5455	0.1	27.017
25623	11.173	3.4545	0.1	33.087
25624	11.265	3.5455	0.1	30.539
25625	10.988	3.4545	0.1	37.135
25626	11.08	3.5455	0.1	34.356
25627	10.803	3.4545	0.1	41.531
25628	10.896	3.5455	0.1	38.497
25629	10.619	3.4545	0.1	46.307
25630	10.711	3.5455	0.1	42.992
25631	10.434	3.4545	0.1	51.501
25632	10.527	3.5455	0.1	47.874
25633	10.25	3.4545	0.1	57.153
25634	10.342	3.5455	0.1	53.18
25635	10.065	3.4545	0.1	63.308
25636	10.157	3.5455	0.1	58.95
25637	9.8806	3.4545	0.1	70.014
25638	9.9728	3.5455	0.1	65.229
25639	9.696	3.4545	0.1	77.326
25640	9.7883	3.5455	0.1	72.064
25641	9.5114	3.4545	0.1	85.303
25642	9.6037	3.5455	0.1	79.509
25643	9.3269	3.4545	0.1	94.008
25644	9.4191	3.5455	0.1	87.621
25645	9.1423	3.4545	0.1	103.51
25646	9.2346	3.5455	0.1	96.462
25647	8.9577	3.4545	0.1	113.89
25648	9.05	3.5455	0.1	106.1
25649	8.7731	3.4545	0.1	125.23
25650	8.8654	3.5455	0.1	116.61
25651	8.5886	3.4545	0.1	137.62
25652	8.6809	3.5455	0.1	128.07
25653	8.404	3.4545	0.1	151.14
25654	8.4963	3.5455	0.1	140.56
25655	8.2194	3.4545	0.1	165.89
25656	8.3117	3.5455	0.1	154.16
25657	8.0349	3.4545	0.1	181.97
25658	8.1272	3.5455	0.1	168.96
25659	7.8503	3.4545	0.1	199.46
25660	7.9426	3.5455	0.1	185.04
25661	7.6657	3.4545	0.1	218.45
25662	7.758	3.5455	0.1	202.47
25663	7.4812	3.4545	0.1	238.98
25664	7.5735	3.5455	0.1	221.31
25665	7.2966	3.4545	0.1	261.09
25666	7.3889	3.5455	0.1	241.59
25667	7.112	3.4545	0.1	284.74
25668	7.2043	3.5455	0.1	263.31
25669	6.9275	3.4545	0.1	309.82
25670	7.0198	3.5455	0.1	286.39
25671	6.7429	3.4545	0.1	336.1
25672	6.8352	3.5455	0.1	310.66
25673	6.5583	3.4545	0.1	363.16
25674	6.6506	3.5455	0.1	335.84
25675	6.3738	3.4545	0.1	390.33
25676	6.466	3.5455	0.1	361.41
25677	6.1892	3.4545	0.1	416.56
25678	6.2815	3.5455	0.1	386.6
25679	6.0046	3.4545	0.1	440.22
25680	6.0969	3.5455	0.1	410.2
25681	5.8201	3.4545	0.1	458.9
25682	5.9123	3.5455	0.1	430.39
25683	5.6355	3.4545	0.1	468.99
25684	5.7278	3.5455	0.1	444.5
25685	5.4509	3.4545	0.1	465.17
25686	5.5432	3.5455	0.1	448.57
25687	5.2664	3.4545	0.1	439.59
25688	5.3586	3.5455	0.1	436.81
25689	5.0818	3.4545	0.1	380.8
25690	5.1741	3.5455	0.1	400.74
25691	4.8972	3.4545	0.1	272.32
25692	4.9895	3.5455	0.1	327.98
25693	4.7127	3.4545	0.1	91.961
25694	4.8049	3.5455	0.1	200.48
25695	4.5281	3.4545	0.1	0.38969
25696	4.6204	3.5455	0.1	3.7995
25697	4.3435	3.4545	0.1	-2.8988
25698	4.4358	3.5455	0.1	5.744
25699	4.2512	3.5455	0.1	8.431
25700	4.159	3.4545	0.1	-3.3317
25701	23.723	3.6364	0.1	-0.22333
25702	23.815	3.7273	0.1	-0.19953
25703	23.908	3.6364	0.1	-0.42653
25704	23.539	3.6364	0.1	-0.22768
25705	23.631	3.7273	0.1	-0.32814
25706	23.354	3.6364	0.1	-0.13093
25707	23.446	3.7273	0.1	-0.14169
25708	23.169	3.6364	0.1	-0.10802
25709	23.262	3.7273	0.1	-0.12438
25710	22.985	3.6364	0.1	-8.5276e-002
25711	23.077	3.7273	0.1	-9.2838e-002
25712	22.8	3.6364	0.1	-7.1891e-002
25713	22.893	3.7273	0.1	-7.7763e-002
25714	22.616	3.6364	0.1	-6.1567e-002
25715	22.708	3.7273	0.1	-6.555e-002
25716	22.431	3.6364	0.1	-5.3881e-002
25717	22.523	3.7273	0.1	-5.6856e-002
25718	22.247	3.6364	0.1	-4.7807e-002
25719	22.339	3.7273	0.1	-5.0034e-002
25720	22.062	3.6364	0.1	-4.2914e-002
25721	22.154	3.7273	0.1	-4.4624e-002
25722	21.877	3.6364	0.1	-3.8878e-002
25723	21.97	3.7273	0.1	-4.0201e-002
25724	21.693	3.6364	0.1	-3.5495e-002
25725	21.785	3.7273	0.1	-3.6526e-002
25726	21.508	3.6364	0.1	-3.262e-002
25727	21.601	3.7273	0.1	-3.3422e-002
25728	21.324	3.6364	0.1	-3.0142e-002
25729	21.416	3.7273	0.1	-3.0769e-002
25730	21.139	3.6364	0.1	-2.798e-002
25731	21.231	3.7273	0.1	-2.8469e-002
25732	20.955	3.6364	0.1	-2.6083e-002
25733	21.047	3.7273	0.1	-2.6456e-002
25734	20.77	3.6364	0.1	-2.4406e-002
25735	20.862	3.7273	0.1	-2.4689e-002
25736	20.585	3.6364	0.1	-2.2906e-002
25737	20.678	3.7273	0.1	-2.3118e-002
25738	20.401	3.6364	0.1	-2.1562e-002
25739	20.493	3.7273	0.1	-2.1707e-002
25740	20.216	3.6364	0.1	-2.0356e-002
25741	20.309	3.7273	0.1	-2.0447e-002
25742	20.032	3.6364	0.1	-1.9265e-002
25743	20.124	3.7273	0.1	-1.9316e-002
25744	19.847	3.6364	0.1	-1.8269e-002
25745	19.94	3.7273	0.1	-1.8284e-002
25746	19.663	3.6364	0.1	-1.736e-002
25747	19.755	3.7273	0.1	-1.7343e-002
25748	19.478	3.6364	0.1	-1.6534e-002
25749	19.57	3.7273	0.1	-1.6485e-002
25750	19.294	3.6364	0.1	-1.5776e-002
25751	19.386	3.7273	0.1	-1.5709e-002
25752	19.109	3.6364	0.1	-1.5071e-002
25753	19.201	3.7273	0.1	-1.4986e-002
25754	18.924	3.6364	0.1	-1.4423e-002
25755	19.017	3.7273	0.1	-1.4315e-002
25756	18.74	3.6364	0.1	-1.3826e-002
25757	18.832	3.7273	0.1	-1.3707e-002
25758	18.555	3.6364	0.1	-1.3263e-002
25759	18.648	3.7273	0.1	-1.3136e-002
25760	18.371	3.6364	0.1	-1.274e-002
25761	18.463	3.7273	0.1	-1.2595e-002
25762	18.186	3.6364	0.1	-1.2258e-002
25763	18.278	3.7273	0.1	-1.2103e-002
25764	18.002	3.6364	0.1	-1.1808e-002
25765	18.094	3.7273	0.1	-1.1646e-002
25766	17.817	3.6364	0.1	-1.138e-002
25767	17.909	3.7273	0.1	-1.1214e-002
25768	17.632	3.6364	0.1	-1.0978e-002
25769	17.725	3.7273	0.1	-1.0803e-002
25770	17.448	3.6364	0.1	-1.0608e-002
25771	17.54	3.7273	0.1	-1.042e-002
25772	17.263	3.6364	0.1	-1.0258e-002
25773	17.356	3.7273	0.1	-1.0073e-002
25774	17.079	3.6364	0.1	-9.9178e-003
25775	17.171	3.7273	0.1	-9.7293e-003
25776	16.894	3.6364	0.1	-9.5942e-003
25777	16.986	3.7273	0.1	-9.4014e-003
25778	16.71	3.6364	0.1	-9.2861e-003
25779	16.802	3.7273	0.1	-9.0882e-003
25780	16.525	3.6364	0.1	-9.0015e-003
25781	16.617	3.7273	0.1	-8.7913e-003
25782	16.34	3.6364	0.1	-8.7289e-003
25783	16.433	3.7273	0.1	-8.5254e-003
25784	16.156	3.6364	0.1	-8.4542e-003
25785	16.248	3.7273	0.1	-8.2507e-003
25786	15.971	3.6364	0.1	-8.1935e-003
25787	16.064	3.7273	0.1	-7.9787e-003
25788	15.787	3.6364	0.1	-7.945e-003
25789	15.879	3.7273	0.1	-7.7316e-003
25790	15.602	3.6364	0.1	-7.6875e-003
25791	15.694	3.7273	0.1	-7.4819e-003
25792	15.418	3.6364	0.1	-7.4315e-003
25793	15.51	3.7273	0.1	-7.2132e-003
25794	15.233	3.6364	0.1	-7.1876e-003
25795	15.325	3.7273	0.1	-6.9646e-003
25796	15.048	3.6364	0.1	-6.9372e-003
25797	15.141	3.7273	0.1	-6.7159e-003
25798	14.864	3.6364	0.1	-6.6661e-003
25799	14.956	3.7273	0.1	-6.4474e-003
25800	14.679	3.6364	0.1	-6.3704e-003
25801	14.772	3.7273	0.1	-6.1502e-003
25802	14.495	3.6364	0.1	-6.0462e-003
25803	14.587	3.7273	0.1	-5.8197e-003
25804	14.31	3.6364	0.1	-5.6367e-003
25805	14.402	3.7273	0.1	-5.4436e-003
25806	14.126	3.6364	0.1	-5.0125e-003
25807	14.218	3.7273	0.1	-4.9016e-003
25808	13.941	3.6364	0.1	-3.7506e-003
25809	14.033	3.7273	0.1	-3.9914e-003
25810	13.756	3.6364	0.1	3.3838e-003
25811	13.849	3.7273	0.1	-1.7044e-003
25812	13.572	3.6364	0.1	0.90536
25813	13.664	3.7273	0.1	5.1737e-002
25814	13.387	3.6364	0.1	2.3934
25815	13.48	3.7273	0.1	1.3684
25816	13.203	3.6364	0.1	3.9841
25817	13.295	3.7273	0.1	2.8793
25818	13.018	3.6364	0.1	5.6859
25819	13.11	3.7273	0.1	4.4949
25820	12.834	3.6364	0.1	7.5098
25821	12.926	3.7273	0.1	6.2245
25822	12.649	3.6364	0.1	9.468
25823	12.741	3.7273	0.1	8.0792
25824	12.465	3.6364	0.1	11.573
25825	12.557	3.7273	0.1	10.071
25826	12.28	3.6364	0.1	13.84
25827	12.372	3.7273	0.1	12.214
25828	12.095	3.6364	0.1	16.284
25829	12.188	3.7273	0.1	14.521
25830	11.911	3.6364	0.1	18.921
25831	12.003	3.7273	0.1	17.009
25832	11.726	3.6364	0.1	21.77
25833	11.819	3.7273	0.1	19.694
25834	11.542	3.6364	0.1	24.851
25835	11.634	3.7273	0.1	22.594
25836	11.357	3.6364	0.1	28.184
25837	11.449	3.7273	0.1	25.728
25838	11.173	3.6364	0.1	31.793
25839	11.265	3.7273	0.1	29.119
25840	10.988	3.6364	0.1	35.705
25841	11.08	3.7273	0.1	32.789
25842	10.803	3.6364	0.1	39.946
25843	10.896	3.7273	0.1	36.764
25844	10.619	3.6364	0.1	44.547
25845	10.711	3.7273	0.1	41.071
25846	10.434	3.6364	0.1	49.542
25847	10.527	3.7273	0.1	45.74
25848	10.25	3.6364	0.1	54.967
25849	10.342	3.7273	0.1	50.804
25850	10.065	3.6364	0.1	60.862
25851	10.157	3.7273	0.1	56.298
25852	9.8806	3.6364	0.1	67.27
25853	9.9728	3.7273	0.1	62.261
25854	9.696	3.6364	0.1	74.239
25855	9.7883	3.7273	0.1	68.733
25856	9.5114	3.6364	0.1	81.82
25857	9.6037	3.7273	0.1	75.761
25858	9.3269	3.6364	0.1	90.069
25859	9.4191	3.7273	0.1	83.392
25860	9.1423	3.6364	0.1	99.046
25861	9.2346	3.7273	0.1	91.679
25862	8.9577	3.6364	0.1	108.82
25863	9.05	3.7273	0.1	100.68
25864	8.7731	3.6364	0.1	119.45
25865	8.8654	3.7273	0.1	110.44
25866	8.5886	3.6364	0.1	131.01
25867	8.6809	3.7273	0.1	121.04
25868	8.404	3.6364	0.1	143.58
25869	8.4963	3.7273	0.1	132.53
25870	8.2194	3.6364	0.1	157.22
25871	8.3117	3.7273	0.1	144.98
25872	8.0349	3.6364	0.1	172.02
25873	8.1272	3.7273	0.1	158.44
25874	7.8503	3.6364	0.1	188.04
25875	7.9426	3.7273	0.1	172.97
25876	7.6657	3.6364	0.1	205.33
25877	7.758	3.7273	0.1	188.63
25878	7.4812	3.6364	0.1	223.92
25879	7.5735	3.7273	0.1	205.42
25880	7.2966	3.6364	0.1	243.81
25881	7.3889	3.7273	0.1	223.37
25882	7.112	3.6364	0.1	264.95
25883	7.2043	3.7273	0.1	242.44
25884	6.9275	3.6364	0.1	287.23
25885	7.0198	3.7273	0.1	262.53
25886	6.7429	3.6364	0.1	310.41
25887	6.8352	3.7273	0.1	283.47
25888	6.5583	3.6364	0.1	334.1
25889	6.6506	3.7273	0.1	304.95
25890	6.3738	3.6364	0.1	357.7
25891	6.466	3.7273	0.1	326.52
25892	6.1892	3.6364	0.1	380.27
25893	6.2815	3.7273	0.1	347.45
25894	6.0046	3.6364	0.1	400.41
25895	6.0969	3.7273	0.1	366.65
25896	5.8201	3.6364	0.1	416.05
25897	5.9123	3.7273	0.1	382.49
25898	5.6355	3.6364	0.1	424.13
25899	5.7278	3.7273	0.1	392.59
25900	5.4509	3.6364	0.1	420.19
25901	5.5432	3.7273	0.1	393.42
25902	5.2664	3.6364	0.1	397.64
25903	5.3586	3.7273	0.1	379.82
25904	5.0818	3.6364	0.1	346.76
25905	5.1741	3.7273	0.1	344.07
25906	4.8972	3.6364	0.1	252.78
25907	4.9895	3.7273	0.1	275.06
25908	4.7127	3.6364	0.1	92.145
25909	4.8049	3.7273	0.1	154.38
25910	4.5281	3.6364	0.1	2.5634
25911	4.6204	3.7273	0.1	1.4825
25912	4.3435	3.6364	0.1	17.08
25913	4.4358	3.7273	0.1	-18.02
25914	4.2512	3.7273	0.1	9.3525
25915	4.159	3.6364	0.1	35.732
25916	23.723	3.8182	0.1	-0.21939
25917	23.815	3.9091	0.1	-0.19255
25918	23.908	3.8182	0.1	-0.42525
25919	23.539	3.8182	0.1	-0.22524
25920	23.631	3.9091	0.1	-0.32469
25921	23.354	3.8182	0.1	-0.12901
25922	23.446	3.9091	0.1	-0.13928
25923	23.169	3.8182	0.1	-0.10631
25924	23.262	3.9091	0.1	-0.12227
25925	22.985	3.8182	0.1	-8.3713e-002
25926	23.077	3.9091	0.1	-9.0941e-002
25927	22.8	3.8182	0.1	-7.0419e-002
25928	22.893	3.9091	0.1	-7.5994e-002
25929	22.616	3.8182	0.1	-6.016e-002
25930	22.708	3.9091	0.1	-6.3871e-002
25931	22.431	3.8182	0.1	-5.2519e-002
25932	22.523	3.9091	0.1	-5.5239e-002
25933	22.247	3.8182	0.1	-4.6479e-002
25934	22.339	3.9091	0.1	-4.8463e-002
25935	22.062	3.8182	0.1	-4.1615e-002
25936	22.154	3.9091	0.1	-4.3091e-002
25937	21.877	3.8182	0.1	-3.7607e-002
25938	21.97	3.9091	0.1	-3.87e-002
25939	21.693	3.8182	0.1	-3.4249e-002
25940	21.785	3.9091	0.1	-3.5058e-002
25941	21.508	3.8182	0.1	-3.1395e-002
25942	21.601	3.9091	0.1	-3.1984e-002
25943	21.324	3.8182	0.1	-2.8942e-002
25944	21.416	3.9091	0.1	-2.9363e-002
25945	21.139	3.8182	0.1	-2.6807e-002
25946	21.231	3.9091	0.1	-2.7095e-002
25947	20.955	3.8182	0.1	-2.4937e-002
25948	21.047	3.9091	0.1	-2.5115e-002
25949	20.77	3.8182	0.1	-2.3286e-002
25950	20.862	3.9091	0.1	-2.338e-002
25951	20.585	3.8182	0.1	-2.181e-002
25952	20.678	3.9091	0.1	-2.1843e-002
25953	20.401	3.8182	0.1	-2.0495e-002
25954	20.493	3.9091	0.1	-2.0464e-002
25955	20.216	3.8182	0.1	-1.9315e-002
25956	20.309	3.9091	0.1	-1.9236e-002
25957	20.032	3.8182	0.1	-1.8249e-002
25958	20.124	3.9091	0.1	-1.8134e-002
25959	19.847	3.8182	0.1	-1.7277e-002
25960	19.94	3.9091	0.1	-1.7132e-002
25961	19.663	3.8182	0.1	-1.6391e-002
25962	19.755	3.9091	0.1	-1.622e-002
25963	19.478	3.8182	0.1	-1.5586e-002
25964	19.57	3.9091	0.1	-1.5387e-002
25965	19.294	3.8182	0.1	-1.4848e-002
25966	19.386	3.9091	0.1	-1.4637e-002
25967	19.109	3.8182	0.1	-1.4163e-002
25968	19.201	3.9091	0.1	-1.3938e-002
25969	18.924	3.8182	0.1	-1.3534e-002
25970	19.017	3.9091	0.1	-1.3291e-002
25971	18.74	3.8182	0.1	-1.2954e-002
25972	18.832	3.9091	0.1	-1.2703e-002
25973	18.555	3.8182	0.1	-1.2408e-002
25974	18.648	3.9091	0.1	-1.2153e-002
25975	18.371	3.8182	0.1	-1.1901e-002
25976	18.463	3.9091	0.1	-1.1632e-002
25977	18.186	3.8182	0.1	-1.1434e-002
25978	18.278	3.9091	0.1	-1.1158e-002
25979	18.002	3.8182	0.1	-1.0998e-002
25980	18.094	3.9091	0.1	-1.0718e-002
25981	17.817	3.8182	0.1	-1.0584e-002
25982	17.909	3.9091	0.1	-1.0302e-002
25983	17.632	3.8182	0.1	-1.0193e-002
25984	17.725	3.9091	0.1	-9.9063e-003
25985	17.448	3.8182	0.1	-9.8338e-003
25986	17.54	3.9091	0.1	-9.5366e-003
25987	17.263	3.8182	0.1	-9.4948e-003
25988	17.356	3.9091	0.1	-9.2031e-003
25989	17.079	3.8182	0.1	-9.1652e-003
25990	17.171	3.9091	0.1	-8.8726e-003
25991	16.894	3.8182	0.1	-8.849e-003
25992	16.986	3.9091	0.1	-8.5558e-003
25993	16.71	3.8182	0.1	-8.5482e-003
25994	16.802	3.9091	0.1	-8.2526e-003
25995	16.525	3.8182	0.1	-8.271e-003
25996	16.617	3.9091	0.1	-7.9651e-003
25997	16.34	3.8182	0.1	-8.0042e-003
25998	16.433	3.9091	0.1	-7.7077e-003
25999	16.156	3.8182	0.1	-7.7333e-003
26000	16.248	3.9091	0.1	-7.44e-003
26001	15.971	3.8182	0.1	-7.4759e-003
26002	16.064	3.9091	0.1	-7.1738e-003
26003	15.787	3.8182	0.1	-7.2289e-003
26004	15.879	3.9091	0.1	-6.9297e-003
26005	15.602	3.8182	0.1	-6.9694e-003
26006	15.694	3.9091	0.1	-6.6825e-003
26007	15.418	3.8182	0.1	-6.7097e-003
26008	15.51	3.9091	0.1	-6.4129e-003
26009	15.233	3.8182	0.1	-6.4583e-003
26010	15.325	3.9091	0.1	-6.1612e-003
26011	15.048	3.8182	0.1	-6.1943e-003
26012	15.141	3.9091	0.1	-5.9053e-003
26013	14.864	3.8182	0.1	-5.9039e-003
26014	14.956	3.9091	0.1	-5.6233e-003
26015	14.679	3.8182	0.1	-5.579e-003
26016	14.772	3.9091	0.1	-5.3076e-003
26017	14.495	3.8182	0.1	-5.2106e-003
26018	14.587	3.9091	0.1	-4.9473e-003
26019	14.31	3.8182	0.1	-4.735e-003
26020	14.402	3.9091	0.1	-4.5288e-003
26021	14.126	3.8182	0.1	-4.0107e-003
26022	14.218	3.9091	0.1	-3.9269e-003
26023	13.941	3.8182	0.1	-2.651e-003
26024	14.033	3.9091	0.1	-2.9553e-003
26025	13.756	3.8182	0.1	1.9986e-003
26026	13.849	3.9091	0.1	-8.9735e-004
26027	13.572	3.8182	0.1	0.40268
26028	13.664	3.9091	0.1	9.4497e-003
26029	13.387	3.8182	0.1	1.8308
26030	13.48	3.9091	0.1	0.7724
26031	13.203	3.8182	0.1	3.3676
26032	13.295	3.9091	0.1	2.2217
26033	13.018	3.8182	0.1	5.0116
26034	13.11	3.9091	0.1	3.7752
26035	12.834	3.8182	0.1	6.7726
26036	12.926	3.9091	0.1	5.4378
26037	12.649	3.8182	0.1	8.662
26038	12.741	3.9091	0.1	7.2196
26039	12.465	3.8182	0.1	10.692
26040	12.557	3.9091	0.1	9.1318
26041	12.28	3.8182	0.1	12.876
26042	12.372	3.9091	0.1	11.187
26043	12.095	3.8182	0.1	15.228
26044	12.188	3.9091	0.1	13.397
26045	11.911	3.8182	0.1	17.764
26046	12.003	3.9091	0.1	15.778
26047	11.726	3.8182	0.1	20.5
26048	11.819	3.9091	0.1	18.345
26049	11.542	3.8182	0.1	23.454
26050	11.634	3.9091	0.1	21.113
26051	11.357	3.8182	0.1	26.647
26052	11.449	3.9091	0.1	24.101
26053	11.173	3.8182	0.1	30.099
26054	11.265	3.9091	0.1	27.329
26055	10.988	3.8182	0.1	33.834
26056	11.08	3.9091	0.1	30.815
26057	10.803	3.8182	0.1	37.876
26058	10.896	3.9091	0.1	34.584
26059	10.619	3.8182	0.1	42.251
26060	10.711	3.9091	0.1	38.659
26061	10.434	3.8182	0.1	46.991
26062	10.527	3.9091	0.1	43.066
26063	10.25	3.8182	0.1	52.124
26064	10.342	3.9091	0.1	47.832
26065	10.065	3.8182	0.1	57.687
26066	10.157	3.9091	0.1	52.987
26067	9.8806	3.8182	0.1	63.715
26068	9.9728	3.9091	0.1	58.562
26069	9.696	3.8182	0.1	70.247
26070	9.7883	3.9091	0.1	64.593
26071	9.5114	3.8182	0.1	77.326
26072	9.6037	3.9091	0.1	71.113
26073	9.3269	3.8182	0.1	84.997
26074	9.4191	3.9091	0.1	78.16
26075	9.1423	3.8182	0.1	93.305
26076	9.2346	3.9091	0.1	85.775
26077	8.9577	3.8182	0.1	102.3
26078	9.05	3.9091	0.1	93.997
26079	8.7731	3.8182	0.1	112.04
26080	8.8654	3.9091	0.1	102.87
26081	8.5886	3.8182	0.1	122.56
26082	8.6809	3.9091	0.1	112.43
26083	8.404	3.8182	0.1	133.93
26084	8.4963	3.9091	0.1	122.72
26085	8.2194	3.8182	0.1	146.19
26086	8.3117	3.9091	0.1	133.78
26087	8.0349	3.8182	0.1	159.39
26088	8.1272	3.9091	0.1	145.64
26089	7.8503	3.8182	0.1	173.56
26090	7.9426	3.9091	0.1	158.33
26091	7.6657	3.8182	0.1	188.72
26092	7.758	3.9091	0.1	171.86
26093	7.4812	3.8182	0.1	204.88
26094	7.5735	3.9091	0.1	186.22
26095	7.2966	3.8182	0.1	222.01
26096	7.3889	3.9091	0.1	201.39
26097	7.112	3.8182	0.1	240.01
26098	7.2043	3.9091	0.1	217.29
26099	6.9275	3.8182	0.1	258.77
26100	7.0198	3.9091	0.1	233.8
26101	6.7429	3.8182	0.1	278.02
26102	6.8352	3.9091	0.1	250.73
26103	6.5583	3.8182	0.1	297.4
26104	6.6506	3.9091	0.1	267.77
26105	6.3738	3.8182	0.1	316.32
26106	6.466	3.9091	0.1	284.44
26107	6.1892	3.8182	0.1	333.91
26108	6.2815	3.9091	0.1	300.03
26109	6.0046	3.8182	0.1	348.88
26110	6.0969	3.9091	0.1	313.49
26111	5.8201	3.8182	0.1	359.3
26112	5.9123	3.9091	0.1	323.24
26113	5.6355	3.8182	0.1	362.31
26114	5.7278	3.9091	0.1	326.88
26115	5.4509	3.8182	0.1	353.69
26116	5.5432	3.9091	0.1	320.81
26117	5.2664	3.8182	0.1	327.08
26118	5.3586	3.9091	0.1	299.58
26119	5.0818	3.8182	0.1	273.19
26120	5.1741	3.9091	0.1	254.68
26121	4.8972	3.8182	0.1	176.76
26122	4.9895	3.9091	0.1	173.84
26123	4.7127	3.8182	0.1	29.903
26124	4.8049	3.9091	0.1	43.66
26125	4.5281	3.8182	0.1	-17.669
26126	4.6204	3.9091	0.1	18.015
26127	4.3435	3.8182	0.1	-26.779
26128	4.4358	3.9091	0.1	-71.37
26129	4.2512	3.9091	0.1	313.53
26130	4.159	3.8182	0.1	-59.741
26131	23.723	4.	0.1	-0.2142
26132	23.815	4.0909	0.1	-0.18359
26133	23.908	4.	0.1	-0.42351
26134	23.539	4.	0.1	-0.22197
26135	23.631	4.0909	0.1	-0.32018
26136	23.354	4.	0.1	-0.12644
26137	23.446	4.0909	0.1	-0.1361
26138	23.169	4.	0.1	-0.10401
26139	23.262	4.0909	0.1	-0.11947
26140	22.985	4.	0.1	-8.1606e-002
26141	23.077	4.0909	0.1	-8.8419e-002
26142	22.8	4.	0.1	-6.8434e-002
26143	22.893	4.0909	0.1	-7.3637e-002
26144	22.616	4.	0.1	-5.826e-002
26145	22.708	4.0909	0.1	-6.163e-002
26146	22.431	4.	0.1	-5.068e-002
26147	22.523	4.0909	0.1	-5.3081e-002
26148	22.247	4.	0.1	-4.469e-002
26149	22.339	4.0909	0.1	-4.6369e-002
26150	22.062	4.	0.1	-3.9868e-002
26151	22.154	4.0909	0.1	-4.1052e-002
26152	21.877	4.	0.1	-3.5897e-002
26153	21.97	4.0909	0.1	-3.6712e-002
26154	21.693	4.	0.1	-3.2578e-002
26155	21.785	4.0909	0.1	-3.3118e-002
26156	21.508	4.	0.1	-2.9765e-002
26157	21.601	4.0909	0.1	-3.0094e-002
26158	21.324	4.	0.1	-2.7351e-002
26159	21.416	4.0909	0.1	-2.7523e-002
26160	21.139	4.	0.1	-2.5256e-002
26161	21.231	4.0909	0.1	-2.5305e-002
26162	20.955	4.	0.1	-2.3425e-002
26163	21.047	4.0909	0.1	-2.3374e-002
26164	20.77	4.	0.1	-2.1815e-002
26165	20.862	4.0909	0.1	-2.1688e-002
26166	20.585	4.	0.1	-2.0381e-002
26167	20.678	4.0909	0.1	-2.0198e-002
26168	20.401	4.	0.1	-1.9101e-002
26169	20.493	4.0909	0.1	-1.8865e-002
26170	20.216	4.	0.1	-1.7958e-002
26171	20.309	4.0909	0.1	-1.7683e-002
26172	20.032	4.	0.1	-1.6926e-002
26173	20.124	4.0909	0.1	-1.6623e-002
26174	19.847	4.	0.1	-1.5988e-002
26175	19.94	4.0909	0.1	-1.5663e-002
26176	19.663	4.	0.1	-1.5135e-002
26177	19.755	4.0909	0.1	-1.4789e-002
26178	19.478	4.	0.1	-1.4361e-002
26179	19.57	4.0909	0.1	-1.3995e-002
26180	19.294	4.	0.1	-1.3652e-002
26181	19.386	4.0909	0.1	-1.328e-002
26182	19.109	4.	0.1	-1.2995e-002
26183	19.201	4.0909	0.1	-1.2615e-002
26184	18.924	4.	0.1	-1.2393e-002
26185	19.017	4.0909	0.1	-1.1999e-002
26186	18.74	4.	0.1	-1.1838e-002
26187	18.832	4.0909	0.1	-1.1441e-002
26188	18.555	4.	0.1	-1.1316e-002
26189	18.648	4.0909	0.1	-1.0921e-002
26190	18.371	4.	0.1	-1.083e-002
26191	18.463	4.0909	0.1	-1.0426e-002
26192	18.186	4.	0.1	-1.0384e-002
26193	18.278	4.0909	0.1	-9.9773e-003
26194	18.002	4.	0.1	-9.9671e-003
26195	18.094	4.0909	0.1	-9.5615e-003
26196	17.817	4.	0.1	-9.5713e-003
26197	17.909	4.0909	0.1	-9.1685e-003
26198	17.632	4.	0.1	-9.1982e-003
26199	17.725	4.0909	0.1	-8.7935e-003
26200	17.448	4.	0.1	-8.8562e-003
26201	17.54	4.0909	0.1	-8.4447e-003
26202	17.263	4.	0.1	-8.5328e-003
26203	17.356	4.0909	0.1	-8.1307e-003
26204	17.079	4.	0.1	-8.2168e-003
26205	17.171	4.0909	0.1	-7.8171e-003
26206	16.894	4.	0.1	-7.9146e-003
26207	16.986	4.0909	0.1	-7.5178e-003
26208	16.71	4.	0.1	-7.6263e-003
26209	16.802	4.0909	0.1	-7.23e-003
26210	16.525	4.	0.1	-7.3601e-003
26211	16.617	4.0909	0.1	-6.9576e-003
26212	16.34	4.	0.1	-7.1034e-003
26213	16.433	4.0909	0.1	-6.713e-003
26214	16.156	4.	0.1	-6.842e-003
26215	16.248	4.0909	0.1	-6.4578e-003
26216	15.971	4.	0.1	-6.5908e-003
26217	16.064	4.0909	0.1	-6.2028e-003
26218	15.787	4.	0.1	-6.3485e-003
26219	15.879	4.0909	0.1	-5.9672e-003
26220	15.602	4.	0.1	-6.0934e-003
26221	15.694	4.0909	0.1	-5.728e-003
26222	15.418	4.	0.1	-5.8344e-003
26223	15.51	4.0909	0.1	-5.4644e-003
26224	15.233	4.	0.1	-5.5813e-003
26225	15.325	4.0909	0.1	-5.2159e-003
26226	15.048	4.	0.1	-5.3116e-003
26227	15.141	4.0909	0.1	-4.9609e-003
26228	14.864	4.	0.1	-5.0105e-003
26229	14.956	4.0909	0.1	-4.6767e-003
26230	14.679	4.	0.1	-4.6692e-003
26231	14.772	4.0909	0.1	-4.3545e-003
26232	14.495	4.	0.1	-4.2762e-003
26233	14.587	4.0909	0.1	-3.984e-003
26234	14.31	4.	0.1	-3.7674e-003
26235	14.402	4.0909	0.1	-3.552e-003
26236	14.126	4.	0.1	-3.0125e-003
26237	14.218	4.0909	0.1	-2.9411e-003
26238	13.941	4.	0.1	-1.7152e-003
26239	14.033	4.0909	0.1	-2.0055e-003
26240	13.756	4.	0.1	1.5149e-003
26241	13.849	4.0909	0.1	-2.927e-004
26242	13.572	4.	0.1	3.2786e-002
26243	13.664	4.0909	0.1	4.6765e-003
26244	13.387	4.	0.1	1.1378
26245	13.48	4.0909	0.1	0.12729
26246	13.203	4.	0.1	2.6065
26247	13.295	4.0909	0.1	1.4301
26248	13.018	4.	0.1	4.1794
26249	13.11	4.0909	0.1	2.9077
26250	12.834	4.	0.1	5.8633
26251	12.926	4.0909	0.1	4.49
26252	12.649	4.	0.1	7.6685
26253	12.741	4.0909	0.1	6.1845
26254	12.465	4.	0.1	9.6063
26255	12.557	4.0909	0.1	8.0014
26256	12.28	4.	0.1	11.689
26257	12.372	4.0909	0.1	9.9518
26258	12.095	4.	0.1	13.929
26259	12.188	4.0909	0.1	12.048
26260	11.911	4.	0.1	16.341
26261	12.003	4.0909	0.1	14.302
26262	11.726	4.	0.1	18.941
26263	11.819	4.0909	0.1	16.728
26264	11.542	4.	0.1	21.743
26265	11.634	4.0909	0.1	19.342
26266	11.357	4.	0.1	24.767
26267	11.449	4.0909	0.1	22.157
26268	11.173	4.	0.1	28.029
26269	11.265	4.0909	0.1	25.192
26270	10.988	4.	0.1	31.551
26271	11.08	4.0909	0.1	28.465
26272	10.803	4.	0.1	35.354
26273	10.896	4.0909	0.1	31.993
26274	10.619	4.	0.1	39.461
26275	10.711	4.0909	0.1	35.797
26276	10.434	4.	0.1	43.895
26277	10.527	4.0909	0.1	39.899
26278	10.25	4.	0.1	48.683
26279	10.342	4.0909	0.1	44.32
26280	10.065	4.	0.1	53.852
26281	10.157	4.0909	0.1	49.085
26282	9.8806	4.	0.1	59.431
26283	9.9728	4.0909	0.1	54.216
26284	9.696	4.	0.1	65.45
26285	9.7883	4.0909	0.1	59.739
26286	9.5114	4.	0.1	71.939
26287	9.6037	4.0909	0.1	65.68
26288	9.3269	4.	0.1	78.932
26289	9.4191	4.0909	0.1	72.064
26290	9.1423	4.	0.1	86.461
26291	9.2346	4.0909	0.1	78.916
26292	8.9577	4.	0.1	94.558
26293	9.05	4.0909	0.1	86.261
26294	8.7731	4.	0.1	103.26
26295	8.8654	4.0909	0.1	94.122
26296	8.5886	4.	0.1	112.58
26297	8.6809	4.0909	0.1	102.52
26298	8.404	4.	0.1	122.57
26299	8.4963	4.0909	0.1	111.47
26300	8.2194	4.	0.1	133.23
26301	8.3117	4.0909	0.1	120.98
26302	8.0349	4.	0.1	144.58
26303	8.1272	4.0909	0.1	131.06
26304	7.8503	4.	0.1	156.63
26305	7.9426	4.0909	0.1	141.69
26306	7.6657	4.	0.1	169.36
26307	7.758	4.0909	0.1	152.87
26308	7.4812	4.	0.1	182.73
26309	7.5735	4.0909	0.1	164.53
26310	7.2966	4.	0.1	196.67
26311	7.3889	4.0909	0.1	176.61
26312	7.112	4.	0.1	211.08
26313	7.2043	4.0909	0.1	189.01
26314	6.9275	4.	0.1	225.78
26315	7.0198	4.0909	0.1	201.57
26316	6.7429	4.	0.1	240.5
26317	6.8352	4.0909	0.1	214.05
26318	6.5583	4.	0.1	254.84
26319	6.6506	4.0909	0.1	226.12
26320	6.3738	4.	0.1	268.22
26321	6.466	4.0909	0.1	237.29
26322	6.1892	4.	0.1	279.75
26323	6.2815	4.0909	0.1	246.82
26324	6.0046	4.	0.1	288.1
26325	6.0969	4.0909	0.1	253.6
26326	5.8201	4.	0.1	291.27
26327	5.9123	4.0909	0.1	255.97
26328	5.6355	4.	0.1	286.15
26329	5.7278	4.0909	0.1	251.3
26330	5.4509	4.	0.1	267.95
26331	5.5432	4.0909	0.1	235.51
26332	5.2664	4.	0.1	229.13
26333	5.3586	4.0909	0.1	202.14
26334	5.0818	4.	0.1	158.31
26335	5.1741	4.0909	0.1	141.17
26336	4.8972	4.	0.1	47.63
26337	4.9895	4.0909	0.1	47.419
26338	4.7127	4.	0.1	14.613
26339	4.8049	4.0909	0.1	7.2675
26340	4.5281	4.	0.1	-36.931
26341	4.6204	4.0909	0.1	16.107
26342	4.3435	4.	0.1	319.47
26343	4.4358	4.0909	0.1	-53.883
26344	4.2512	4.0909	0.1	463.89
26345	4.159	4.	0.1	562.74
26346	23.723	4.1818	0.1	-0.20753
26347	23.815	4.2727	0.1	-0.17233
26348	23.908	4.1818	0.1	-0.4212
26349	23.539	4.1818	0.1	-0.21771
26350	23.631	4.2727	0.1	-0.31434
26351	23.354	4.1818	0.1	-0.12307
26352	23.446	4.2727	0.1	-0.13195
26353	23.169	4.1818	0.1	-0.10099
26354	23.262	4.2727	0.1	-0.1158
26355	22.985	4.1818	0.1	-7.8823e-002
26356	23.077	4.2727	0.1	-8.5103e-002
26357	22.8	4.1818	0.1	-6.5804e-002
26358	22.893	4.2727	0.1	-7.0532e-002
26359	22.616	4.1818	0.1	-5.5742e-002
26360	22.708	4.2727	0.1	-5.8675e-002
26361	22.431	4.1818	0.1	-4.8248e-002
26362	22.523	4.2727	0.1	-5.0238e-002
26363	22.247	4.1818	0.1	-4.2327e-002
26364	22.339	4.2727	0.1	-4.3621e-002
26365	22.062	4.1818	0.1	-3.757e-002
26366	22.154	4.2727	0.1	-3.8383e-002
26367	21.877	4.1818	0.1	-3.3662e-002
26368	21.97	4.2727	0.1	-3.4126e-002
26369	21.693	4.1818	0.1	-3.0403e-002
26370	21.785	4.2727	0.1	-3.0608e-002
26371	21.508	4.1818	0.1	-2.765e-002
26372	21.601	4.2727	0.1	-2.766e-002
26373	21.324	4.1818	0.1	-2.5298e-002
26374	21.416	4.2727	0.1	-2.5165e-002
26375	21.139	4.1818	0.1	-2.3262e-002
26376	21.231	4.2727	0.1	-2.3022e-002
26377	20.955	4.1818	0.1	-2.1491e-002
26378	21.047	4.2727	0.1	-2.1163e-002
26379	20.77	4.1818	0.1	-1.9939e-002
26380	20.862	4.2727	0.1	-1.9549e-002
26381	20.585	4.1818	0.1	-1.856e-002
26382	20.678	4.2727	0.1	-1.8127e-002
26383	20.401	4.1818	0.1	-1.7334e-002
26384	20.493	4.2727	0.1	-1.686e-002
26385	20.216	4.1818	0.1	-1.6243e-002
26386	20.309	4.2727	0.1	-1.5741e-002
26387	20.032	4.1818	0.1	-1.5261e-002
26388	20.124	4.2727	0.1	-1.4741e-002
26389	19.847	4.1818	0.1	-1.4371e-002
26390	19.94	4.2727	0.1	-1.3839e-002
26391	19.663	4.1818	0.1	-1.3562e-002
26392	19.755	4.2727	0.1	-1.3017e-002
26393	19.478	4.1818	0.1	-1.2832e-002
26394	19.57	4.2727	0.1	-1.2276e-002
26395	19.294	4.1818	0.1	-1.2164e-002
26396	19.386	4.2727	0.1	-1.161e-002
26397	19.109	4.1818	0.1	-1.1544e-002
26398	19.201	4.2727	0.1	-1.099e-002
26399	18.924	4.1818	0.1	-1.0977e-002
26400	19.017	4.2727	0.1	-1.0418e-002
26401	18.74	4.1818	0.1	-1.0458e-002
26402	18.832	4.2727	0.1	-9.9013e-003
26403	18.555	4.1818	0.1	-9.9678e-003
26404	18.648	4.2727	0.1	-9.4193e-003
26405	18.371	4.1818	0.1	-9.5125e-003
26406	18.463	4.2727	0.1	-8.9615e-003
26407	18.186	4.1818	0.1	-9.0961e-003
26408	18.278	4.2727	0.1	-8.5474e-003
26409	18.002	4.1818	0.1	-8.7069e-003
26410	18.094	4.2727	0.1	-8.1651e-003
26411	17.817	4.1818	0.1	-8.3372e-003
26412	17.909	4.2727	0.1	-7.8028e-003
26413	17.632	4.1818	0.1	-7.9889e-003
26414	17.725	4.2727	0.1	-7.4576e-003
26415	17.448	4.1818	0.1	-7.6703e-003
26416	17.54	4.2727	0.1	-7.1377e-003
26417	17.263	4.1818	0.1	-7.3682e-003
26418	17.356	4.2727	0.1	-6.8499e-003
26419	17.079	4.1818	0.1	-7.0734e-003
26420	17.171	4.2727	0.1	-6.5617e-003
26421	16.894	4.1818	0.1	-6.7905e-003
26422	16.986	4.2727	0.1	-6.2863e-003
26423	16.71	4.1818	0.1	-6.5207e-003
26424	16.802	4.2727	0.1	-6.0219e-003
26425	16.525	4.1818	0.1	-6.2719e-003
26426	16.617	4.2727	0.1	-5.7709e-003
26427	16.34	4.1818	0.1	-6.0308e-003
26428	16.433	4.2727	0.1	-5.5468e-003
26429	16.156	4.1818	0.1	-5.7843e-003
26430	16.248	4.2727	0.1	-5.3107e-003
26431	15.971	4.1818	0.1	-5.5473e-003
26432	16.064	4.2727	0.1	-5.0737e-003
26433	15.787	4.1818	0.1	-5.3173e-003
26434	15.879	4.2727	0.1	-4.8564e-003
26435	15.602	4.1818	0.1	-5.0724e-003
26436	15.694	4.2727	0.1	-4.6323e-003
26437	15.418	4.1818	0.1	-4.8227e-003
26438	15.51	4.2727	0.1	-4.3835e-003
26439	15.233	4.1818	0.1	-4.5766e-003
26440	15.325	4.2727	0.1	-4.1485e-003
26441	15.048	4.1818	0.1	-4.3125e-003
26442	15.141	4.2727	0.1	-3.9053e-003
26443	14.864	4.1818	0.1	-4.0146e-003
26444	14.956	4.2727	0.1	-3.6335e-003
26445	14.679	4.1818	0.1	-3.6742e-003
26446	14.772	4.2727	0.1	-3.3221e-003
26447	14.495	4.1818	0.1	-3.2825e-003
26448	14.587	4.2727	0.1	-2.9653e-003
26449	14.31	4.1818	0.1	-2.7815e-003
26450	14.402	4.2727	0.1	-2.5535e-003
26451	14.126	4.1818	0.1	-2.0629e-003
26452	14.218	4.2727	0.1	-1.9823e-003
26453	13.941	4.1818	0.1	-9.2753e-004
26454	14.033	4.2727	0.1	-1.1536e-003
26455	13.756	4.1818	0.1	1.3467e-003
26456	13.849	4.2727	0.1	1.9271e-004
26457	13.572	4.1818	0.1	9.1315e-003
26458	13.664	4.2727	0.1	3.0855e-003
26459	13.387	4.1818	0.1	0.34252
26460	13.48	4.2727	0.1	1.4612e-002
26461	13.203	4.1818	0.1	1.7079
26462	13.295	4.2727	0.1	0.5243
26463	13.018	4.1818	0.1	3.1961
26464	13.11	4.2727	0.1	1.9004
26465	12.834	4.1818	0.1	4.7896
26466	12.926	4.2727	0.1	3.389
26467	12.649	4.1818	0.1	6.4964
26468	12.741	4.2727	0.1	4.9829
26469	12.465	4.1818	0.1	8.3265
26470	12.557	4.2727	0.1	6.6904
26471	12.28	4.1818	0.1	10.291
26472	12.372	4.2727	0.1	8.521
26473	12.095	4.1818	0.1	12.401
26474	12.188	4.2727	0.1	10.486
26475	11.911	4.1818	0.1	14.671
26476	12.003	4.2727	0.1	12.595
26477	11.726	4.1818	0.1	17.112
26478	11.819	4.2727	0.1	14.863
26479	11.542	4.1818	0.1	19.739
26480	11.634	4.2727	0.1	17.3
26481	11.357	4.1818	0.1	22.567
26482	11.449	4.2727	0.1	19.92
26483	11.173	4.1818	0.1	25.612
26484	11.265	4.2727	0.1	22.739
26485	10.988	4.1818	0.1	28.891
26486	11.08	4.2727	0.1	25.77
26487	10.803	4.1818	0.1	32.422
26488	10.896	4.2727	0.1	29.029
26489	10.619	4.1818	0.1	36.223
26490	10.711	4.2727	0.1	32.531
26491	10.434	4.1818	0.1	40.312
26492	10.527	4.2727	0.1	36.295
26493	10.25	4.1818	0.1	44.71
26494	10.342	4.2727	0.1	40.334
26495	10.065	4.1818	0.1	49.438
26496	10.157	4.2727	0.1	44.668
26497	9.8806	4.1818	0.1	54.514
26498	9.9728	4.2727	0.1	49.312
26499	9.696	4.1818	0.1	59.96
26500	9.7883	4.2727	0.1	54.281
26501	9.5114	4.1818	0.1	65.796
26502	9.6037	4.2727	0.1	59.592
26503	9.3269	4.1818	0.1	72.04
26504	9.4191	4.2727	0.1	65.257
26505	9.1423	4.1818	0.1	78.71
26506	9.2346	4.2727	0.1	71.288
26507	8.9577	4.1818	0.1	85.82
26508	9.05	4.2727	0.1	77.693
26509	8.7731	4.1818	0.1	93.381
26510	8.8654	4.2727	0.1	84.475
26511	8.5886	4.1818	0.1	101.4
26512	8.6809	4.2727	0.1	91.633
26513	8.404	4.1818	0.1	109.88
26514	8.4963	4.2727	0.1	99.159
26515	8.2194	4.1818	0.1	118.81
26516	8.3117	4.2727	0.1	107.04
26517	8.0349	4.1818	0.1	128.17
26518	8.1272	4.2727	0.1	115.23
26519	7.8503	4.1818	0.1	137.93
26520	7.9426	4.2727	0.1	123.71
26521	7.6657	4.1818	0.1	148.03
26522	7.758	4.2727	0.1	132.42
26523	7.4812	4.1818	0.1	158.41
26524	7.5735	4.2727	0.1	141.26
26525	7.2966	4.1818	0.1	168.95
26526	7.3889	4.2727	0.1	150.13
26527	7.112	4.1818	0.1	179.5
26528	7.2043	4.2727	0.1	158.89
26529	6.9275	4.1818	0.1	189.85
26530	7.0198	4.2727	0.1	167.33
26531	6.7429	4.1818	0.1	199.7
26532	6.8352	4.2727	0.1	175.2
26533	6.5583	4.1818	0.1	208.62
26534	6.6506	4.2727	0.1	182.13
26535	6.3738	4.1818	0.1	215.98
26536	6.466	4.2727	0.1	187.58
26537	6.1892	4.1818	0.1	220.86
26538	6.2815	4.2727	0.1	190.8
26539	6.0046	4.1818	0.1	221.81
26540	6.0969	4.2727	0.1	190.63
26541	5.8201	4.1818	0.1	216.63
26542	5.9123	4.2727	0.1	185.27
26543	5.6355	4.1818	0.1	201.75
26544	5.7278	4.2727	0.1	171.9
26545	5.4509	4.1818	0.1	171.56
26546	5.5432	4.2727	0.1	146.02
26547	5.2664	4.1818	0.1	117.39
26548	5.3586	4.2727	0.1	100.91
26549	5.0818	4.1818	0.1	38.012
26550	5.1741	4.2727	0.1	35.607
26551	4.8972	4.1818	0.1	9.3957
26552	4.9895	4.2727	0.1	9.6181
26553	4.7127	4.1818	0.1	8.1638
26554	4.8049	4.2727	0.1	4.848
26555	4.5281	4.1818	0.1	-0.64286
26556	4.6204	4.2727	0.1	12.211
26557	4.3435	4.1818	0.1	89.368
26558	4.4358	4.2727	0.1	-8.0353
26559	4.2512	4.2727	0.1	87.991
26560	4.159	4.1818	0.1	389.49
26561	23.723	4.3636	0.1	-0.19903
26562	23.815	4.4545	0.1	-0.15824
26563	23.908	4.3636	0.1	-0.41814
26564	23.539	4.3636	0.1	-0.21219
26565	23.631	4.4545	0.1	-0.3068
26566	23.354	4.3636	0.1	-0.11867
26567	23.446	4.4545	0.1	-0.12654
26568	23.169	4.3636	0.1	-9.7024e-002
26569	23.262	4.4545	0.1	-0.11099
26570	22.985	4.3636	0.1	-7.5165e-002
26571	23.077	4.4545	0.1	-8.0736e-002
26572	22.8	4.3636	0.1	-6.2347e-002
26573	22.893	4.4545	0.1	-6.6436e-002
26574	22.616	4.3636	0.1	-5.2433e-002
26575	22.708	4.4545	0.1	-5.4779e-002
26576	22.431	4.3636	0.1	-4.5059e-002
26577	22.523	4.4545	0.1	-4.6501e-002
26578	22.247	4.3636	0.1	-3.9244e-002
26579	22.339	4.4545	0.1	-4.0022e-002
26580	22.062	4.3636	0.1	-3.4586e-002
26581	22.154	4.4545	0.1	-3.4914e-002
26582	21.877	4.3636	0.1	-3.0774e-002
26583	21.97	4.4545	0.1	-3.078e-002
26584	21.693	4.3636	0.1	-2.761e-002
26585	21.785	4.4545	0.1	-2.7384e-002
26586	21.508	4.3636	0.1	-2.4952e-002
26587	21.601	4.4545	0.1	-2.4555e-002
26588	21.324	4.3636	0.1	-2.2691e-002
26589	21.416	4.4545	0.1	-2.2176e-002
26590	21.139	4.3636	0.1	-2.0744e-002
26591	21.231	4.4545	0.1	-2.0143e-002
26592	20.955	4.3636	0.1	-1.9059e-002
26593	21.047	4.4545	0.1	-1.8391e-002
26594	20.77	4.3636	0.1	-1.759e-002
26595	20.862	4.4545	0.1	-1.6879e-002
26596	20.585	4.3636	0.1	-1.6292e-002
26597	20.678	4.4545	0.1	-1.5555e-002
26598	20.401	4.3636	0.1	-1.5142e-002
26599	20.493	4.4545	0.1	-1.4381e-002
26600	20.216	4.3636	0.1	-1.4123e-002
26601	20.309	4.4545	0.1	-1.3351e-002
26602	20.032	4.3636	0.1	-1.321e-002
26603	20.124	4.4545	0.1	-1.2432e-002
26604	19.847	4.3636	0.1	-1.2384e-002
26605	19.94	4.4545	0.1	-1.1609e-002
26606	19.663	4.3636	0.1	-1.1636e-002
26607	19.755	4.4545	0.1	-1.0861e-002
26608	19.478	4.3636	0.1	-1.0965e-002
26609	19.57	4.4545	0.1	-1.019e-002
26610	19.294	4.3636	0.1	-1.0352e-002
26611	19.386	4.4545	0.1	-9.5897e-003
26612	19.109	4.3636	0.1	-9.7844e-003
26613	19.201	4.4545	0.1	-9.0323e-003
26614	18.924	4.3636	0.1	-9.2674e-003
26615	19.017	4.4545	0.1	-8.5192e-003
26616	18.74	4.3636	0.1	-8.7928e-003
26617	18.832	4.4545	0.1	-8.0581e-003
26618	18.555	4.3636	0.1	-8.3466e-003
26619	18.648	4.4545	0.1	-7.6281e-003
26620	18.371	4.3636	0.1	-7.9336e-003
26621	18.463	4.4545	0.1	-7.2201e-003
26622	18.186	4.3636	0.1	-7.5569e-003
26623	18.278	4.4545	0.1	-6.8525e-003
26624	18.002	4.3636	0.1	-7.2046e-003
26625	18.094	4.4545	0.1	-6.5154e-003
26626	17.817	4.3636	0.1	-6.8698e-003
26627	17.909	4.4545	0.1	-6.1947e-003
26628	17.632	4.3636	0.1	-6.5559e-003
26629	17.725	4.4545	0.1	-5.8904e-003
26630	17.448	4.3636	0.1	-6.2695e-003
26631	17.54	4.4545	0.1	-5.6085e-003
26632	17.263	4.3636	0.1	-5.9984e-003
26633	17.356	4.4545	0.1	-5.3576e-003
26634	17.079	4.3636	0.1	-5.7321e-003
26635	17.171	4.4545	0.1	-5.105e-003
26636	16.894	4.3636	0.1	-5.4777e-003
26637	16.986	4.4545	0.1	-4.8617e-003
26638	16.71	4.3636	0.1	-5.2347e-003
26639	16.802	4.4545	0.1	-4.6303e-003
26640	16.525	4.3636	0.1	-5.0108e-003
26641	16.617	4.4545	0.1	-4.4097e-003
26642	16.34	4.3636	0.1	-4.7944e-003
26643	16.433	4.4545	0.1	-4.2147e-003
26644	16.156	4.3636	0.1	-4.5705e-003
26645	16.248	4.4545	0.1	-4.0078e-003
26646	15.971	4.3636	0.1	-4.3561e-003
26647	16.064	4.4545	0.1	-3.798e-003
26648	15.787	4.3636	0.1	-4.1479e-003
26649	15.879	4.4545	0.1	-3.6073e-003
26650	15.602	4.3636	0.1	-3.9234e-003
26651	15.694	4.4545	0.1	-3.41e-003
26652	15.418	4.3636	0.1	-3.6933e-003
26653	15.51	4.4545	0.1	-3.187e-003
26654	15.233	4.3636	0.1	-3.4661e-003
26655	15.325	4.4545	0.1	-2.9783e-003
26656	15.048	4.3636	0.1	-3.2211e-003
26657	15.141	4.4545	0.1	-2.762e-003
26658	14.864	4.3636	0.1	-2.9436e-003
26659	14.956	4.4545	0.1	-2.5187e-003
26660	14.679	4.3636	0.1	-2.6268e-003
26661	14.772	4.4545	0.1	-2.2387e-003
26662	14.495	4.3636	0.1	-2.2661e-003
26663	14.587	4.4545	0.1	-1.921e-003
26664	14.31	4.3636	0.1	-1.8108e-003
26665	14.402	4.4545	0.1	-1.5605e-003
26666	14.126	4.3636	0.1	-1.1795e-003
26667	14.218	4.4545	0.1	-1.07e-003
26668	13.941	4.3636	0.1	-2.5512e-004
26669	14.033	4.4545	0.1	-3.9094e-004
26670	13.756	4.3636	0.1	1.3299e-003
26671	13.849	4.4545	0.1	6.1022e-004
26672	13.572	4.3636	0.1	4.9319e-003
26673	13.664	4.4545	0.1	2.3926e-003
26674	13.387	4.3636	0.1	2.1806e-002
26675	13.48	4.4545	0.1	6.5841e-003
26676	13.203	4.3636	0.1	0.68886
26677	13.295	4.4545	0.1	2.8249e-002
26678	13.018	4.3636	0.1	2.0707
26679	13.11	4.4545	0.1	0.77045
26680	12.834	4.3636	0.1	3.5605
26681	12.926	4.4545	0.1	2.1446
26682	12.649	4.3636	0.1	5.1557
26683	12.741	4.4545	0.1	3.625
26684	12.465	4.3636	0.1	6.8642
26685	12.557	4.4545	0.1	5.21
26686	12.28	4.3636	0.1	8.6956
26687	12.372	4.4545	0.1	6.9073
26688	12.095	4.3636	0.1	10.66
26689	12.188	4.4545	0.1	8.726
26690	11.911	4.3636	0.1	12.769
26691	12.003	4.4545	0.1	10.676
26692	11.726	4.3636	0.1	15.033
26693	11.819	4.4545	0.1	12.767
26694	11.542	4.3636	0.1	17.464
26695	11.634	4.4545	0.1	15.01
26696	11.357	4.3636	0.1	20.076
26697	11.449	4.4545	0.1	17.417
26698	11.173	4.3636	0.1	22.88
26699	11.265	4.4545	0.1	19.998
26700	10.988	4.3636	0.1	25.892
26701	11.08	4.4545	0.1	22.767
26702	10.803	4.3636	0.1	29.124
26703	10.896	4.4545	0.1	25.733
26704	10.619	4.3636	0.1	32.59
26705	10.711	4.4545	0.1	28.911
26706	10.434	4.3636	0.1	36.304
26707	10.527	4.4545	0.1	32.31
26708	10.25	4.3636	0.1	40.28
26709	10.342	4.4545	0.1	35.942
26710	10.065	4.3636	0.1	44.531
26711	10.157	4.4545	0.1	39.818
26712	9.8806	4.3636	0.1	49.068
26713	9.9728	4.4545	0.1	43.947
26714	9.696	4.3636	0.1	53.904
26715	9.7883	4.4545	0.1	48.335
26716	9.5114	4.3636	0.1	59.045
26717	9.6037	4.4545	0.1	52.987
26718	9.3269	4.3636	0.1	64.497
26719	9.4191	4.4545	0.1	57.906
26720	9.1423	4.3636	0.1	70.264
26721	9.2346	4.4545	0.1	63.088
26722	8.9577	4.3636	0.1	76.341
26723	9.05	4.4545	0.1	68.526
26724	8.7731	4.3636	0.1	82.719
26725	8.8654	4.4545	0.1	74.205
26726	8.5886	4.3636	0.1	89.384
26727	8.6809	4.4545	0.1	80.104
26728	8.404	4.3636	0.1	96.308
26729	8.4963	4.4545	0.1	86.191
26730	8.2194	4.3636	0.1	103.45
26731	8.3117	4.4545	0.1	92.421
26732	8.0349	4.3636	0.1	110.77
26733	8.1272	4.4545	0.1	98.739
26734	7.8503	4.3636	0.1	118.2
26735	7.9426	4.4545	0.1	105.07
26736	7.6657	4.3636	0.1	125.63
26737	7.758	4.4545	0.1	111.32
26738	7.4812	4.3636	0.1	132.97
26739	7.5735	4.4545	0.1	117.37
26740	7.2966	4.3636	0.1	140.06
26741	7.3889	4.4545	0.1	123.08
26742	7.112	4.3636	0.1	146.72
26743	7.2043	4.4545	0.1	128.26
26744	6.9275	4.3636	0.1	152.69
26745	7.0198	4.4545	0.1	132.69
26746	6.7429	4.3636	0.1	157.66
26747	6.8352	4.4545	0.1	136.07
26748	6.5583	4.3636	0.1	161.15
26749	6.6506	4.4545	0.1	138.02
26750	6.3738	4.3636	0.1	162.52
26751	6.466	4.4545	0.1	137.99
26752	6.1892	4.3636	0.1	160.81
26753	6.2815	4.4545	0.1	135.23
26754	6.0046	4.3636	0.1	154.54
26755	6.0969	4.4545	0.1	128.6
26756	5.8201	4.3636	0.1	141.36
26757	5.9123	4.4545	0.1	116.34
26758	5.6355	4.3636	0.1	117.63
26759	5.7278	4.4545	0.1	95.781
26760	5.4509	4.3636	0.1	78.141
26761	5.5432	4.4545	0.1	63.342
26762	5.2664	4.3636	0.1	26.242
26763	5.3586	4.4545	0.1	22.89
26764	5.0818	4.3636	0.1	8.4379
26765	5.1741	4.4545	0.1	7.7511
26766	4.8972	4.3636	0.1	4.9136
26767	4.9895	4.4545	0.1	5.3587
26768	4.7127	4.3636	0.1	8.8493
26769	4.8049	4.4545	0.1	3.8043
26770	4.5281	4.3636	0.1	5.7563
26771	4.6204	4.4545	0.1	9.5901
26772	4.3435	4.3636	0.1	-8.8771
26773	4.4358	4.4545	0.1	-0.35667
26774	4.2512	4.4545	0.1	8.5112
26775	4.159	4.3636	0.1	-86.439
26776	23.723	4.5455	0.1	-0.18817
26777	23.815	4.6364	0.1	-0.1406
26778	23.908	4.5455	0.1	-0.41402
26779	23.539	4.5455	0.1	-0.20499
26780	23.631	4.6364	0.1	-0.297
26781	23.354	4.5455	0.1	-0.11287
26782	23.446	4.6364	0.1	-0.11941
26783	23.169	4.5455	0.1	-9.1788e-002
26784	23.262	4.6364	0.1	-0.10462
26785	22.985	4.5455	0.1	-7.0321e-002
26786	23.077	4.6364	0.1	-7.4944e-002
26787	22.8	4.5455	0.1	-5.7766e-002
26788	22.893	4.6364	0.1	-6.0999e-002
26789	22.616	4.5455	0.1	-4.8062e-002
26790	22.708	4.6364	0.1	-4.9623e-002
26791	22.431	4.5455	0.1	-4.0866e-002
26792	22.523	4.6364	0.1	-4.158e-002
26793	22.247	4.5455	0.1	-3.5216e-002
26794	22.339	4.6364	0.1	-3.5316e-002
26795	22.062	4.5455	0.1	-3.0715e-002
26796	22.154	4.6364	0.1	-3.0414e-002
26797	21.877	4.5455	0.1	-2.7056e-002
26798	21.97	4.6364	0.1	-2.6476e-002
26799	21.693	4.5455	0.1	-2.404e-002
26800	21.785	4.6364	0.1	-2.3269e-002
26801	21.508	4.5455	0.1	-2.1525e-002
26802	21.601	4.6364	0.1	-2.0621e-002
26803	21.324	4.5455	0.1	-1.9402e-002
26804	21.416	4.6364	0.1	-1.8414e-002
26805	21.139	4.5455	0.1	-1.7588e-002
26806	21.231	4.6364	0.1	-1.6545e-002
26807	20.955	4.5455	0.1	-1.6029e-002
26808	21.047	4.6364	0.1	-1.4949e-002
26809	20.77	4.5455	0.1	-1.4678e-002
26810	20.862	4.6364	0.1	-1.3583e-002
26811	20.585	4.5455	0.1	-1.3492e-002
26812	20.678	4.6364	0.1	-1.2396e-002
26813	20.401	4.5455	0.1	-1.2449e-002
26814	20.493	4.6364	0.1	-1.1352e-002
26815	20.216	4.5455	0.1	-1.153e-002
26816	20.309	4.6364	0.1	-1.0442e-002
26817	20.032	4.5455	0.1	-1.0711e-002
26818	20.124	4.6364	0.1	-9.6385e-003
26819	19.847	4.5455	0.1	-9.975e-003
26820	19.94	4.6364	0.1	-8.9212e-003
26821	19.663	4.5455	0.1	-9.3117e-003
26822	19.755	4.6364	0.1	-8.2751e-003
26823	19.478	4.5455	0.1	-8.7189e-003
26824	19.57	4.6364	0.1	-7.6971e-003
26825	19.294	4.5455	0.1	-8.1804e-003
26826	19.386	4.6364	0.1	-7.1853e-003
26827	19.109	4.5455	0.1	-7.6831e-003
26828	19.201	4.6364	0.1	-6.7118e-003
26829	18.924	4.5455	0.1	-7.2314e-003
26830	19.017	4.6364	0.1	-6.2763e-003
26831	18.74	4.5455	0.1	-6.82e-003
26832	18.832	4.6364	0.1	-5.8892e-003
26833	18.555	4.5455	0.1	-6.4328e-003
26834	18.648	4.6364	0.1	-5.5296e-003
26835	18.371	4.5455	0.1	-6.0747e-003
26836	18.463	4.6364	0.1	-5.1866e-003
26837	18.186	4.5455	0.1	-5.7508e-003
26838	18.278	4.6364	0.1	-4.8819e-003
26839	18.002	4.5455	0.1	-5.4491e-003
26840	18.094	4.6364	0.1	-4.6031e-003
26841	17.817	4.5455	0.1	-5.1626e-003
26842	17.909	4.6364	0.1	-4.3396e-003
26843	17.632	4.5455	0.1	-4.8937e-003
26844	17.725	4.6364	0.1	-4.0884e-003
26845	17.448	4.5455	0.1	-4.6506e-003
26846	17.54	4.6364	0.1	-3.8565e-003
26847	17.263	4.5455	0.1	-4.4214e-003
26848	17.356	4.6364	0.1	-3.6543e-003
26849	17.079	4.5455	0.1	-4.1949e-003
26850	17.171	4.6364	0.1	-3.4484e-003
26851	16.894	4.5455	0.1	-3.9776e-003
26852	16.986	4.6364	0.1	-3.2499e-003
26853	16.71	4.5455	0.1	-3.7717e-003
26854	16.802	4.6364	0.1	-3.06e-003
26855	16.525	4.5455	0.1	-3.583e-003
26856	16.617	4.6364	0.1	-2.883e-003
26857	16.34	4.5455	0.1	-3.4007e-003
26858	16.433	4.6364	0.1	-2.7274e-003
26859	16.156	4.5455	0.1	-3.2109e-003
26860	16.248	4.6364	0.1	-2.561e-003
26861	15.971	4.5455	0.1	-3.0282e-003
26862	16.064	4.6364	0.1	-2.3894e-003
26863	15.787	4.5455	0.1	-2.852e-003
26864	15.879	4.6364	0.1	-2.237e-003
26865	15.602	4.5455	0.1	-2.6602e-003
26866	15.694	4.6364	0.1	-2.0784e-003
26867	15.418	4.5455	0.1	-2.463e-003
26868	15.51	4.6364	0.1	-1.8949e-003
26869	15.233	4.5455	0.1	-2.2703e-003
26870	15.325	4.6364	0.1	-1.7263e-003
26871	15.048	4.5455	0.1	-2.0618e-003
26872	15.141	4.6364	0.1	-1.5527e-003
26873	14.864	4.5455	0.1	-1.8235e-003
26874	14.956	4.6364	0.1	-1.3555e-003
26875	14.679	4.5455	0.1	-1.5523e-003
26876	14.772	4.6364	0.1	-1.1275e-003
26877	14.495	4.5455	0.1	-1.2482e-003
26878	14.587	4.6364	0.1	-8.7138e-004
26879	14.31	4.5455	0.1	-8.7196e-004
26880	14.402	4.6364	0.1	-5.8902e-004
26881	14.126	4.5455	0.1	-3.6481e-004
26882	14.218	4.6364	0.1	-2.09e-004
26883	13.941	4.5455	0.1	3.3416e-004
26884	14.033	4.6364	0.1	3.0029e-004
26885	13.756	4.5455	0.1	1.4049e-003
26886	13.849	4.6364	0.1	9.9215e-004
26887	13.572	4.5455	0.1	3.351e-003
26888	13.664	4.6364	0.1	2.0844e-003
26889	13.387	4.5455	0.1	7.993e-003
26890	13.48	4.6364	0.1	4.0828e-003
26891	13.203	4.5455	0.1	3.3883e-002
26892	13.295	4.6364	0.1	8.7852e-003
26893	13.018	4.5455	0.1	0.8213
26894	13.11	4.6364	0.1	3.3861e-002
26895	12.834	4.5455	0.1	2.1872
26896	12.926	4.6364	0.1	0.77796
26897	12.649	4.5455	0.1	3.6579
26898	12.741	4.6364	0.1	2.1232
26899	12.465	4.5455	0.1	5.2322
26900	12.557	4.6364	0.1	3.5731
26901	12.28	4.5455	0.1	6.9173
26902	12.372	4.6364	0.1	5.1247
26903	12.095	4.5455	0.1	8.7218
26904	12.188	4.6364	0.1	6.7847
26905	11.911	4.5455	0.1	10.655
26906	12.003	4.6364	0.1	8.5611
26907	11.726	4.5455	0.1	12.726
26908	11.819	4.6364	0.1	10.462
26909	11.542	4.5455	0.1	14.945
26910	11.634	4.6364	0.1	12.497
26911	11.357	4.5455	0.1	17.322
26912	11.449	4.6364	0.1	14.674
26913	11.173	4.5455	0.1	19.868
26914	11.265	4.6364	0.1	17.003
26915	10.988	4.5455	0.1	22.593
26916	11.08	4.6364	0.1	19.493
26917	10.803	4.5455	0.1	25.505
26918	10.896	4.6364	0.1	22.151
26919	10.619	4.5455	0.1	28.617
26920	10.711	4.6364	0.1	24.986
26921	10.434	4.5455	0.1	31.935
26922	10.527	4.6364	0.1	28.005
26923	10.25	4.5455	0.1	35.468
26924	10.342	4.6364	0.1	31.215
26925	10.065	4.5455	0.1	39.222
26926	10.157	4.6364	0.1	34.618
26927	9.8806	4.5455	0.1	43.202
26928	9.9728	4.6364	0.1	38.219
26929	9.696	4.5455	0.1	47.408
26930	9.7883	4.6364	0.1	42.016
26931	9.5114	4.5455	0.1	51.838
26932	9.6037	4.6364	0.1	46.003
26933	9.3269	4.5455	0.1	56.487
26934	9.4191	4.6364	0.1	50.174
26935	9.1423	4.5455	0.1	61.341
26936	9.2346	4.6364	0.1	54.512
26937	8.9577	4.5455	0.1	66.382
26938	9.05	4.6364	0.1	58.995
26939	8.7731	4.5455	0.1	71.582
26940	8.8654	4.6364	0.1	63.594
26941	8.5886	4.5455	0.1	76.903
26942	8.6809	4.6364	0.1	68.268
26943	8.404	4.5455	0.1	82.296
26944	8.4963	4.6364	0.1	72.965
26945	8.2194	4.5455	0.1	87.697
26946	8.3117	4.6364	0.1	77.617
26947	8.0349	4.5455	0.1	93.027
26948	8.1272	4.6364	0.1	82.142
26949	7.8503	4.5455	0.1	98.184
26950	7.9426	4.6364	0.1	86.438
26951	7.6657	4.5455	0.1	103.05
26952	7.758	4.6364	0.1	90.382
26953	7.4812	4.5455	0.1	107.47
26954	7.5735	4.6364	0.1	93.826
26955	7.2966	4.5455	0.1	111.27
26956	7.3889	4.6364	0.1	96.594
26957	7.112	4.5455	0.1	114.23
26958	7.2043	4.6364	0.1	98.477
26959	6.9275	4.5455	0.1	116.08
26960	7.0198	4.6364	0.1	99.222
26961	6.7429	4.5455	0.1	116.46
26962	6.8352	4.6364	0.1	98.524
26963	6.5583	4.5455	0.1	114.93
26964	6.6506	4.6364	0.1	95.998
26965	6.3738	4.5455	0.1	110.84
26966	6.466	4.6364	0.1	91.145
26967	6.1892	4.5455	0.1	103.31
26968	6.2815	4.6364	0.1	83.285
26969	6.0046	4.5455	0.1	90.975
26970	6.0969	4.6364	0.1	71.472
26971	5.8201	4.5455	0.1	71.877
26972	5.9123	4.6364	0.1	54.456
26973	5.6355	4.5455	0.1	43.998
26974	5.7278	4.6364	0.1	31.618
26975	5.4509	4.5455	0.1	15.349
26976	5.5432	4.6364	0.1	11.688
26977	5.2664	4.5455	0.1	6.4997
26978	5.3586	4.6364	0.1	5.7158
26979	5.0818	4.5455	0.1	4.5516
26980	5.1741	4.6364	0.1	4.105
26981	4.8972	4.5455	0.1	4.1839
26982	4.9895	4.6364	0.1	3.681
26983	4.7127	4.5455	0.1	4.4596
26984	4.8049	4.6364	0.1	3.7827
26985	4.5281	4.5455	0.1	3.4655
26986	4.6204	4.6364	0.1	4.4852
26987	4.3435	4.5455	0.1	17.292
26988	4.4358	4.6364	0.1	1.6004
26989	4.2512	4.6364	0.1	20.946
26990	4.159	4.5455	0.1	20.959
26991	23.723	4.7273	0.1	-0.17422
26992	23.815	4.8182	0.1	-0.11804
26993	23.908	4.7273	0.1	-0.40851
26994	23.539	4.7273	0.1	-0.19553
26995	23.631	4.8182	0.1	-0.2839
26996	23.354	4.7273	0.1	-0.10519
26997	23.446	4.8182	0.1	-0.10974
26998	23.169	4.7273	0.1	-8.4816e-002
26999	23.262	4.8182	0.1	-9.594e-002
27000	22.985	4.7273	0.1	-6.3863e-002
27001	23.077	4.8182	0.1	-6.703e-002
27002	22.8	4.7273	0.1	-5.1676e-002
27003	22.893	4.8182	0.1	-5.3595e-002
27004	22.616	4.7273	0.1	-4.228e-002
27005	22.708	4.8182	0.1	-4.2647e-002
27006	22.431	4.7273	0.1	-3.5362e-002
27007	22.523	4.8182	0.1	-3.4983e-002
27008	22.247	4.7273	0.1	-2.9974e-002
27009	22.339	4.8182	0.1	-2.9073e-002
27010	22.062	4.7273	0.1	-2.5723e-002
27011	22.154	4.8182	0.1	-2.4504e-002
27012	21.877	4.7273	0.1	-2.2303e-002
27013	21.97	4.8182	0.1	-2.0881e-002
27014	21.693	4.7273	0.1	-1.9515e-002
27015	21.785	4.8182	0.1	-1.7971e-002
27016	21.508	4.7273	0.1	-1.7215e-002
27017	21.601	4.8182	0.1	-1.5602e-002
27018	21.324	4.7273	0.1	-1.5295e-002
27019	21.416	4.8182	0.1	-1.3654e-002
27020	21.139	4.7273	0.1	-1.3672e-002
27021	21.231	4.8182	0.1	-1.2028e-002
27022	20.955	4.7273	0.1	-1.2292e-002
27023	21.047	4.8182	0.1	-1.066e-002
27024	20.77	4.7273	0.1	-1.1109e-002
27025	20.862	4.8182	0.1	-9.5017e-003
27026	20.585	4.7273	0.1	-1.0082e-002
27027	20.678	4.8182	0.1	-8.5104e-003
27028	20.401	4.7273	0.1	-9.1856e-003
27029	20.493	4.8182	0.1	-7.6479e-003
27030	20.216	4.7273	0.1	-8.4044e-003
27031	20.309	4.8182	0.1	-6.9056e-003
27032	20.032	4.7273	0.1	-7.7146e-003
27033	20.124	4.8182	0.1	-6.2607e-003
27034	19.847	4.7273	0.1	-7.098e-003
27035	19.94	4.8182	0.1	-5.6883e-003
27036	19.663	4.7273	0.1	-6.547e-003
27037	19.755	4.8182	0.1	-5.1798e-003
27038	19.478	4.7273	0.1	-6.0588e-003
27039	19.57	4.8182	0.1	-4.7277e-003
27040	19.294	4.7273	0.1	-5.62e-003
27041	19.386	4.8182	0.1	-4.3356e-003
27042	19.109	4.7273	0.1	-5.2156e-003
27043	19.201	4.8182	0.1	-3.9732e-003
27044	18.924	4.7273	0.1	-4.8515e-003
27045	19.017	4.8182	0.1	-3.6433e-003
27046	18.74	4.7273	0.1	-4.5224e-003
27047	18.832	4.8182	0.1	-3.3542e-003
27048	18.555	4.7273	0.1	-4.2127e-003
27049	18.648	4.8182	0.1	-3.0862e-003
27050	18.371	4.7273	0.1	-3.9284e-003
27051	18.463	4.8182	0.1	-2.8308e-003
27052	18.186	4.7273	0.1	-3.6738e-003
27053	18.278	4.8182	0.1	-2.6081e-003
27054	18.002	4.7273	0.1	-3.4379e-003
27055	18.094	4.8182	0.1	-2.4065e-003
27056	17.817	4.7273	0.1	-3.214e-003
27057	17.909	4.8182	0.1	-2.217e-003
27058	17.632	4.7273	0.1	-3.0038e-003
27059	17.725	4.8182	0.1	-2.0354e-003
27060	17.448	4.7273	0.1	-2.8168e-003
27061	17.54	4.8182	0.1	-1.8696e-003
27062	17.263	4.7273	0.1	-2.6417e-003
27063	17.356	4.8182	0.1	-1.7311e-003
27064	17.079	4.7273	0.1	-2.4674e-003
27065	17.171	4.8182	0.1	-1.5857e-003
27066	16.894	4.7273	0.1	-2.2998e-003
27067	16.986	4.8182	0.1	-1.4463e-003
27068	16.71	4.7273	0.1	-2.1423e-003
27069	16.802	4.8182	0.1	-1.3126e-003
27070	16.525	4.7273	0.1	-2.0018e-003
27071	16.617	4.8182	0.1	-1.1902e-003
27072	16.34	4.7273	0.1	-1.8657e-003
27073	16.433	4.8182	0.1	-1.0888e-003
27074	16.156	4.7273	0.1	-1.721e-003
27075	16.248	4.8182	0.1	-9.7432e-004
27076	15.971	4.7273	0.1	-1.5834e-003
27077	16.064	4.8182	0.1	-8.5508e-004
27078	15.787	4.7273	0.1	-1.4525e-003
27079	15.879	4.8182	0.1	-7.5516e-004
27080	15.602	4.7273	0.1	-1.3063e-003
27081	15.694	4.8182	0.1	-6.4847e-004
27082	15.418	4.7273	0.1	-1.1559e-003
27083	15.51	4.8182	0.1	-5.1915e-004
27084	15.233	4.7273	0.1	-1.0114e-003
27085	15.325	4.8182	0.1	-4.0596e-004
27086	15.048	4.7273	0.1	-8.5484e-004
27087	15.141	4.8182	0.1	-2.9106e-004
27088	14.864	4.7273	0.1	-6.7459e-004
27089	14.956	4.8182	0.1	-1.58e-004
27090	14.679	4.7273	0.1	-4.6964e-004
27091	14.772	4.8182	0.1	-9.194e-007
27092	14.495	4.7273	0.1	-2.4535e-004
27093	14.587	4.8182	0.1	1.7316e-004
27094	14.31	4.7273	0.1	2.7924e-005
27095	14.402	4.8182	0.1	3.5558e-004
27096	14.126	4.7273	0.1	3.9262e-004
27097	14.218	4.8182	0.1	6.0826e-004
27098	13.941	4.7273	0.1	8.696e-004
27099	14.033	4.8182	0.1	9.4145e-004
27100	13.756	4.7273	0.1	1.5437e-003
27101	13.849	4.8182	0.1	1.362e-003
27102	13.572	4.7273	0.1	2.6202e-003
27103	13.664	4.8182	0.1	1.9833e-003
27104	13.387	4.7273	0.1	4.552e-003
27105	13.48	4.8182	0.1	2.9807e-003
27106	13.203	4.7273	0.1	9.0504e-003
27107	13.295	4.8182	0.1	4.7126e-003
27108	13.018	4.7273	0.1	3.0962e-002
27109	13.11	4.8182	0.1	8.6018e-003
27110	12.834	4.7273	0.1	0.69477
27111	12.926	4.8182	0.1	2.4506e-002
27112	12.649	4.7273	0.1	2.017
27113	12.741	4.8182	0.1	0.51282
27114	12.465	4.7273	0.1	3.4445
27115	12.557	4.8182	0.1	1.7952
27116	12.28	4.7273	0.1	4.9715
27117	12.372	4.8182	0.1	3.1886
27118	12.095	4.7273	0.1	6.604
27119	12.188	4.8182	0.1	4.6788
27120	11.911	4.7273	0.1	8.3491
27121	12.003	4.8182	0.1	6.2706
27122	11.726	4.7273	0.1	10.215
27123	11.819	4.8182	0.1	7.9705
27124	11.542	4.7273	0.1	12.208
27125	11.634	4.8182	0.1	9.7851
27126	11.357	4.7273	0.1	14.338
27127	11.449	4.8182	0.1	11.721
27128	11.173	4.7273	0.1	16.611
27129	11.265	4.8182	0.1	13.786
27130	10.988	4.7273	0.1	19.034
27131	11.08	4.8182	0.1	15.985
27132	10.803	4.7273	0.1	21.615
27133	10.896	4.8182	0.1	18.324
27134	10.619	4.7273	0.1	24.359
27135	10.711	4.8182	0.1	20.807
27136	10.434	4.7273	0.1	27.27
27137	10.527	4.8182	0.1	23.439
27138	10.25	4.7273	0.1	30.351
27139	10.342	4.8182	0.1	26.22
27140	10.065	4.7273	0.1	33.602
27141	10.157	4.8182	0.1	29.149
27142	9.8806	4.7273	0.1	37.021
27143	9.9728	4.8182	0.1	32.224
27144	9.696	4.7273	0.1	40.599
27145	9.7883	4.8182	0.1	35.436
27146	9.5114	4.7273	0.1	44.327
27147	9.6037	4.8182	0.1	38.774
27148	9.3269	4.7273	0.1	48.188
27149	9.4191	4.8182	0.1	42.219
27150	9.1423	4.7273	0.1	52.155
27151	9.2346	4.8182	0.1	45.747
27152	8.9577	4.7273	0.1	56.198
27153	9.05	4.8182	0.1	49.324
27154	8.7731	4.7273	0.1	60.271
27155	8.8654	4.8182	0.1	52.908
27156	8.5886	4.7273	0.1	64.32
27157	8.6809	4.8182	0.1	56.442
27158	8.404	4.7273	0.1	68.275
27159	8.4963	4.8182	0.1	59.859
27160	8.2194	4.7273	0.1	72.051
27161	8.3117	4.8182	0.1	63.072
27162	8.0349	4.7273	0.1	75.542
27163	8.1272	4.8182	0.1	65.98
27164	7.8503	4.7273	0.1	78.624
27165	7.9426	4.8182	0.1	68.458
27166	7.6657	4.7273	0.1	81.147
27167	7.758	4.8182	0.1	70.361
27168	7.4812	4.7273	0.1	82.936
27169	7.5735	4.8182	0.1	71.519
27170	7.2966	4.7273	0.1	83.787
27171	7.3889	4.8182	0.1	71.734
27172	7.112	4.7273	0.1	83.461
27173	7.2043	4.8182	0.1	70.781
27174	6.9275	4.7273	0.1	81.675
27175	7.0198	4.8182	0.1	68.399
27176	6.7429	4.7273	0.1	78.093
27177	6.8352	4.8182	0.1	64.292
27178	6.5583	4.7273	0.1	72.302
27179	6.6506	4.8182	0.1	58.119
27180	6.3738	4.7273	0.1	63.779
27181	6.466	4.8182	0.1	49.493
27182	6.1892	4.7273	0.1	51.877
27183	6.2815	4.8182	0.1	38.026
27184	6.0046	4.7273	0.1	36.006
27185	6.0969	4.8182	0.1	23.773
27186	5.8201	4.7273	0.1	17.763
27187	5.9123	4.8182	0.1	10.391
27188	5.6355	4.7273	0.1	7.26
27189	5.7278	4.8182	0.1	5.0147
27190	5.4509	4.7273	0.1	4.4284
27191	5.5432	4.8182	0.1	3.5205
27192	5.2664	4.7273	0.1	3.5003
27193	5.3586	4.8182	0.1	2.9895
27194	5.0818	4.7273	0.1	3.194
27195	5.1741	4.8182	0.1	2.8108
27196	4.8972	4.7273	0.1	3.2174
27197	4.9895	4.8182	0.1	2.8795
27198	4.7127	4.7273	0.1	3.7531
27199	4.8049	4.8182	0.1	2.9861
27200	4.5281	4.7273	0.1	2.617
27201	4.6204	4.8182	0.1	3.9477
27202	4.3435	4.7273	0.1	5.6539
27203	4.4358	4.8182	0.1	0.78757
27204	4.2512	4.8182	0.1	10.882
27205	4.159	4.7273	0.1	-7.6627
27206	23.723	4.9091	0.1	-0.15551
27207	23.815	5.	0.1	-8.9061e-002
27208	23.908	4.9091	0.1	-0.40037
27209	23.539	4.9091	0.1	-0.18247
27210	23.631	5.	0.1	-0.26633
27211	23.354	4.9091	0.1	-9.4473e-002
27212	23.446	5.	0.1	-9.6589e-002
27213	23.169	4.9091	0.1	-7.5074e-002
27214	23.262	5.	0.1	-8.4072e-002
27215	22.985	4.9091	0.1	-5.4866e-002
27216	23.077	5.	0.1	-5.6247e-002
27217	22.8	4.9091	0.1	-4.3253e-002
27218	22.893	5.	0.1	-4.3582e-002
27219	22.616	4.9091	0.1	-3.4365e-002
27220	22.708	5.	0.1	-3.3318e-002
27221	22.431	4.9091	0.1	-2.7915e-002
27222	22.523	5.	0.1	-2.6273e-002
27223	22.247	4.9091	0.1	-2.2964e-002
27224	22.339	5.	0.1	-2.0937e-002
27225	22.062	4.9091	0.1	-1.9125e-002
27226	22.154	5.	0.1	-1.6899e-002
27227	21.877	4.9091	0.1	-1.6088e-002
27228	21.97	5.	0.1	-1.3765e-002
27229	21.693	4.9091	0.1	-1.3657e-002
27230	21.785	5.	0.1	-1.1306e-002
27231	21.508	4.9091	0.1	-1.1689e-002
27232	21.601	5.	0.1	-9.3495e-003
27233	21.324	4.9091	0.1	-1.0076e-002
27234	21.416	5.	0.1	-7.7814e-003
27235	21.139	4.9091	0.1	-8.7378e-003
27236	21.231	5.	0.1	-6.502e-003
27237	20.955	4.9091	0.1	-7.6204e-003
27238	21.047	5.	0.1	-5.4508e-003
27239	20.77	4.9091	0.1	-6.6793e-003
27240	20.862	5.	0.1	-4.5846e-003
27241	20.585	4.9091	0.1	-5.8747e-003
27242	20.678	5.	0.1	-3.8613e-003
27243	20.401	4.9091	0.1	-5.1854e-003
27244	20.493	5.	0.1	-3.2449e-003
27245	20.216	4.9091	0.1	-4.5964e-003
27246	20.309	5.	0.1	-2.7305e-003
27247	20.032	4.9091	0.1	-4.0839e-003
27248	20.124	5.	0.1	-2.2941e-003
27249	19.847	4.9091	0.1	-3.6331e-003
27250	19.94	5.	0.1	-1.9168e-003
27251	19.663	4.9091	0.1	-3.2357e-003
27252	19.755	5.	0.1	-1.5873e-003
27253	19.478	4.9091	0.1	-2.8907e-003
27254	19.57	5.	0.1	-1.3018e-003
27255	19.294	4.9091	0.1	-2.585e-003
27256	19.386	5.	0.1	-1.0647e-003
27257	19.109	4.9091	0.1	-2.3062e-003
27258	19.201	5.	0.1	-8.4572e-004
27259	18.924	4.9091	0.1	-2.0595e-003
27260	19.017	5.	0.1	-6.5095e-004
27261	18.74	4.9091	0.1	-1.839e-003
27262	18.832	5.	0.1	-4.8646e-004
27263	18.555	4.9091	0.1	-1.6323e-003
27264	18.648	5.	0.1	-3.3695e-004
27265	18.371	4.9091	0.1	-1.4448e-003
27266	18.463	5.	0.1	-1.9168e-004
27267	18.186	4.9091	0.1	-1.2811e-003
27268	18.278	5.	0.1	-7.2183e-005
27269	18.002	4.9091	0.1	-1.1314e-003
27270	18.094	5.	0.1	3.1902e-005
27271	17.817	4.9091	0.1	-9.8921e-004
27272	17.909	5.	0.1	1.2903e-004
27273	17.632	4.9091	0.1	-8.568e-004
27274	17.725	5.	0.1	2.2383e-004
27275	17.448	4.9091	0.1	-7.4405e-004
27276	17.54	5.	0.1	3.0668e-004
27277	17.263	4.9091	0.1	-6.3965e-004
27278	17.356	5.	0.1	3.6616e-004
27279	17.079	4.9091	0.1	-5.3322e-004
27280	17.171	5.	0.1	4.3639e-004
27281	16.894	4.9091	0.1	-4.3164e-004
27282	16.986	5.	0.1	5.0314e-004
27283	16.71	4.9091	0.1	-3.3695e-004
27284	16.802	5.	0.1	5.6544e-004
27285	16.525	4.9091	0.1	-2.5741e-004
27286	16.617	5.	0.1	6.2169e-004
27287	16.34	4.9091	0.1	-1.814e-004
27288	16.433	5.	0.1	6.5605e-004
27289	16.156	4.9091	0.1	-9.6204e-005
27290	16.248	5.	0.1	7.0577e-004
27291	15.971	4.9091	0.1	-1.8408e-005
27292	16.064	5.	0.1	7.6017e-004
27293	15.787	4.9091	0.1	5.331e-005
27294	15.879	5.	0.1	7.9545e-004
27295	15.602	4.9091	0.1	1.3903e-004
27296	15.694	5.	0.1	8.3696e-004
27297	15.418	4.9091	0.1	2.2678e-004
27298	15.51	5.	0.1	8.9962e-004
27299	15.233	4.9091	0.1	3.0574e-004
27300	15.325	5.	0.1	9.4331e-004
27301	15.048	4.9091	0.1	3.9216e-004
27302	15.141	5.	0.1	9.8537e-004
27303	14.864	4.9091	0.1	4.9653e-004
27304	14.956	5.	0.1	1.0401e-003
27305	14.679	4.9091	0.1	6.1661e-004
27306	14.772	5.	0.1	1.1114e-003
27307	14.495	4.9091	0.1	7.4196e-004
27308	14.587	5.	0.1	1.1893e-003
27309	14.31	4.9091	0.1	8.9608e-004
27310	14.402	5.	0.1	1.2598e-003
27311	14.126	4.9091	0.1	1.1087e-003
27312	14.218	5.	0.1	1.3773e-003
27313	13.941	4.9091	0.1	1.3765e-003
27314	14.033	5.	0.1	1.5386e-003
27315	13.756	4.9091	0.1	1.7369e-003
27316	13.849	5.	0.1	1.7277e-003
27317	13.572	4.9091	0.1	2.2812e-003
27318	13.664	5.	0.1	2.0083e-003
27319	13.387	4.9091	0.1	3.1265e-003
27320	13.48	5.	0.1	2.4471e-003
27321	13.203	4.9091	0.1	4.5868e-003
27322	13.295	5.	0.1	3.0967e-003
27323	13.018	4.9091	0.1	7.7281e-003
27324	13.11	5.	0.1	4.2133e-003
27325	12.834	4.9091	0.1	1.8541e-002
27326	12.926	5.	0.1	6.4968e-003
27327	12.649	4.9091	0.1	0.2955
27328	12.741	5.	0.1	1.304e-002
27329	12.465	4.9091	0.1	1.519
27330	12.557	5.	0.1	8.6257e-002
27331	12.28	4.9091	0.1	2.8752
27332	12.372	5.	0.1	1.1207
27333	12.095	4.9091	0.1	4.3251
27334	12.188	5.	0.1	2.4266
27335	11.911	4.9091	0.1	5.8721
27336	12.003	5.	0.1	3.8238
27337	11.726	4.9091	0.1	7.5217
27338	11.819	5.	0.1	5.3131
27339	11.542	4.9091	0.1	9.2796
27340	11.634	5.	0.1	6.8988
27341	11.357	4.9091	0.1	11.151
27342	11.449	5.	0.1	8.5855
27343	11.173	4.9091	0.1	13.143
27344	11.265	5.	0.1	10.378
27345	10.988	4.9091	0.1	15.257
27346	11.08	5.	0.1	12.28
27347	10.803	4.9091	0.1	17.499
27348	10.896	5.	0.1	14.295
27349	10.619	4.9091	0.1	19.871
27350	10.711	5.	0.1	16.423
27351	10.434	4.9091	0.1	22.373
27352	10.527	5.	0.1	18.667
27353	10.25	4.9091	0.1	25.003
27354	10.342	5.	0.1	21.023
27355	10.065	4.9091	0.1	27.757
27356	10.157	5.	0.1	23.486
27357	9.8806	4.9091	0.1	30.626
27358	9.9728	5.	0.1	26.049
27359	9.696	4.9091	0.1	33.597
27360	9.7883	5.	0.1	28.699
27361	9.5114	4.9091	0.1	36.652
27362	9.6037	5.	0.1	31.419
27363	9.3269	4.9091	0.1	39.766
27364	9.4191	5.	0.1	34.184
27365	9.1423	4.9091	0.1	42.904
27366	9.2346	5.	0.1	36.962
27367	8.9577	4.9091	0.1	46.023
27368	9.05	5.	0.1	39.713
27369	8.7731	4.9091	0.1	49.067
27370	8.8654	5.	0.1	42.384
27371	8.5886	4.9091	0.1	51.969
27372	8.6809	5.	0.1	44.909
27373	8.404	4.9091	0.1	54.643
27374	8.4963	5.	0.1	47.21
27375	8.2194	4.9091	0.1	56.988
27376	8.3117	5.	0.1	49.188
27377	8.0349	4.9091	0.1	58.882
27378	8.1272	5.	0.1	50.73
27379	7.8503	4.9091	0.1	60.181
27380	7.9426	5.	0.1	51.697
27381	7.6657	4.9091	0.1	60.718
27382	7.758	5.	0.1	51.931
27383	7.4812	4.9091	0.1	60.302
27384	7.5735	5.	0.1	51.249
27385	7.2966	4.9091	0.1	58.715
27386	7.3889	5.	0.1	49.445
27387	7.112	4.9091	0.1	55.712
27388	7.2043	5.	0.1	46.29
27389	6.9275	4.9091	0.1	51.026
27390	7.0198	5.	0.1	41.535
27391	6.7429	4.9091	0.1	44.368
27392	6.8352	5.	0.1	34.931
27393	6.5583	4.9091	0.1	35.459
27394	6.6506	5.	0.1	26.278
27395	6.3738	4.9091	0.1	24.208
27396	6.466	5.	0.1	15.755
27397	6.1892	4.9091	0.1	11.974
27398	6.2815	5.	0.1	6.2489
27399	6.0046	4.9091	0.1	4.9865
27400	6.0969	5.	0.1	2.9144
27401	5.8201	4.9091	0.1	3.1282
27402	5.9123	5.	0.1	2.1139
27403	5.6355	4.9091	0.1	2.5571
27404	5.7278	5.	0.1	1.8803
27405	5.4509	4.9091	0.1	2.3712
27406	5.5432	5.	0.1	1.8521
27407	5.2664	4.9091	0.1	2.3592
27408	5.3586	5.	0.1	1.9386
27409	5.0818	4.9091	0.1	2.4863
27410	5.1741	5.	0.1	2.0989
27411	4.8972	4.9091	0.1	2.6201
27412	4.9895	5.	0.1	2.3762
27413	4.7127	4.9091	0.1	3.1661
27414	4.8049	5.	0.1	2.5152
27415	4.5281	4.9091	0.1	2.1453
27416	4.6204	5.	0.1	3.4028
27417	4.3435	4.9091	0.1	6.443
27418	4.4358	5.	0.1	0.78322
27419	4.2512	5.	0.1	10.573
27420	4.159	4.9091	0.1	-0.85659
27421	23.723	5.0909	0.1	-0.13104
27422	23.815	5.1818	0.1	-4.7071e-002
27423	23.908	5.0909	0.1	-0.39005
27424	23.539	5.0909	0.1	-0.16497
27425	23.631	5.1818	0.1	-0.23919
27426	23.354	5.0909	0.1	-7.9991e-002
27427	23.446	5.1818	0.1	-7.602e-002
27428	23.169	5.0909	0.1	-6.1908e-002
27429	23.262	5.1818	0.1	-6.5626e-002
27430	22.985	5.0909	0.1	-4.2811e-002
27431	23.077	5.1818	0.1	-3.9667e-002
27432	22.8	5.0909	0.1	-3.2101e-002
27433	22.893	5.1818	0.1	-2.8465e-002
27434	22.616	5.0909	0.1	-2.4037e-002
27435	22.708	5.1818	0.1	-1.9496e-002
27436	22.431	5.0909	0.1	-1.8341e-002
27437	22.523	5.1818	0.1	-1.3601e-002
27438	22.247	5.0909	0.1	-1.4082e-002
27439	22.339	5.1818	0.1	-9.2987e-003
27440	22.062	5.0909	0.1	-1.0874e-002
27441	22.154	5.1818	0.1	-6.1854e-003
27442	21.877	5.0909	0.1	-8.4131e-003
27443	21.97	5.1818	0.1	-3.8808e-003
27444	21.693	5.0909	0.1	-6.5051e-003
27445	21.785	5.1818	0.1	-2.1626e-003
27446	21.508	5.0909	0.1	-5.0118e-003
27447	21.601	5.1818	0.1	-8.7055e-004
27448	21.324	5.0909	0.1	-3.8297e-003
27449	21.416	5.1818	0.1	9.97e-005
27450	21.139	5.0909	0.1	-2.8815e-003
27451	21.231	5.1818	0.1	8.4048e-004
27452	20.955	5.0909	0.1	-2.1193e-003
27453	21.047	5.1818	0.1	1.4086e-003
27454	20.77	5.0909	0.1	-1.5035e-003
27455	20.862	5.1818	0.1	1.8322e-003
27456	20.585	5.0909	0.1	-9.9665e-004
27457	20.678	5.1818	0.1	2.1568e-003
27458	20.401	5.0909	0.1	-5.8004e-004
27459	20.493	5.1818	0.1	2.409e-003
27460	20.216	5.0909	0.1	-2.3999e-004
27461	20.309	5.1818	0.1	2.591e-003
27462	20.032	5.0909	0.1	4.2019e-005
27463	20.124	5.1818	0.1	2.7234e-003
27464	19.847	5.0909	0.1	2.8079e-004
27465	19.94	5.1818	0.1	2.8218e-003
27466	19.663	5.0909	0.1	4.831e-004
27467	19.755	5.1818	0.1	2.896e-003
27468	19.478	5.0909	0.1	6.4704e-004
27469	19.57	5.1818	0.1	2.9454e-003
27470	19.294	5.0909	0.1	7.851e-004
27471	19.386	5.1818	0.1	2.9652e-003
27472	19.109	5.0909	0.1	9.0888e-004
27473	19.201	5.1818	0.1	2.9822e-003
27474	18.924	5.0909	0.1	1.0114e-003
27475	19.017	5.1818	0.1	2.9913e-003
27476	18.74	5.0909	0.1	1.0959e-003
27477	18.832	5.1818	0.1	2.982e-003
27478	18.555	5.0909	0.1	1.1757e-003
27479	18.648	5.1818	0.1	2.9698e-003
27480	18.371	5.0909	0.1	1.2454e-003
27481	18.463	5.1818	0.1	2.9649e-003
27482	18.186	5.0909	0.1	1.2984e-003
27483	18.278	5.1818	0.1	2.9442e-003
27484	18.002	5.0909	0.1	1.3435e-003
27485	18.094	5.1818	0.1	2.9161e-003
27486	17.817	5.0909	0.1	1.3874e-003
27487	17.909	5.1818	0.1	2.8901e-003
27488	17.632	5.0909	0.1	1.4272e-003
27489	17.725	5.1818	0.1	2.8683e-003
27490	17.448	5.0909	0.1	1.4517e-003
27491	17.54	5.1818	0.1	2.8405e-003
27492	17.263	5.0909	0.1	1.4723e-003
27493	17.356	5.1818	0.1	2.795e-003
27494	17.079	5.0909	0.1	1.4983e-003
27495	17.171	5.1818	0.1	2.766e-003
27496	16.894	5.0909	0.1	1.5215e-003
27497	16.986	5.1818	0.1	2.7367e-003
27498	16.71	5.0909	0.1	1.5413e-003
27499	16.802	5.1818	0.1	2.7067e-003
27500	16.525	5.0909	0.1	1.5484e-003
27501	16.617	5.1818	0.1	2.6742e-003
27502	16.34	5.0909	0.1	1.5526e-003
27503	16.433	5.1818	0.1	2.6217e-003
27504	16.156	5.0909	0.1	1.5677e-003
27505	16.248	5.1818	0.1	2.5859e-003
27506	15.971	5.0909	0.1	1.5758e-003
27507	16.064	5.1818	0.1	2.5557e-003
27508	15.787	5.0909	0.1	1.5771e-003
27509	15.879	5.1818	0.1	2.5074e-003
27510	15.602	5.0909	0.1	1.5917e-003
27511	15.694	5.1818	0.1	2.4645e-003
27512	15.418	5.0909	0.1	1.6064e-003
27513	15.51	5.1818	0.1	2.4407e-003
27514	15.233	5.0909	0.1	1.6091e-003
27515	15.325	5.1818	0.1	2.3964e-003
27516	15.048	5.0909	0.1	1.6154e-003
27517	15.141	5.1818	0.1	2.3457e-003
27518	14.864	5.0909	0.1	1.6328e-003
27519	14.956	5.1818	0.1	2.304e-003
27520	14.679	5.0909	0.1	1.6576e-003
27521	14.772	5.1818	0.1	2.271e-003
27522	14.495	5.0909	0.1	1.6764e-003
27523	14.587	5.1818	0.1	2.2351e-003
27524	14.31	5.0909	0.1	1.7063e-003
27525	14.402	5.1818	0.1	2.1786e-003
27526	14.126	5.0909	0.1	1.7694e-003
27527	14.218	5.1818	0.1	2.1516e-003
27528	13.941	5.0909	0.1	1.8508e-003
27529	14.033	5.1818	0.1	2.1424e-003
27530	13.756	5.0909	0.1	1.9636e-003
27531	13.849	5.1818	0.1	2.124e-003
27532	13.572	5.0909	0.1	2.1533e-003
27533	13.664	5.1818	0.1	2.138e-003
27534	13.387	5.0909	0.1	2.4401e-003
27535	13.48	5.1818	0.1	2.2138e-003
27536	13.203	5.0909	0.1	2.8795e-003
27537	13.295	5.1818	0.1	2.3239e-003
27538	13.018	5.0909	0.1	3.6441e-003
27539	13.11	5.1818	0.1	2.531e-003
27540	12.834	5.0909	0.1	5.1476e-003
27541	12.926	5.1818	0.1	2.9381e-003
27542	12.649	5.0909	0.1	8.8756e-003
27543	12.741	5.1818	0.1	3.753e-003
27544	12.465	5.0909	0.1	2.7828e-002
27545	12.557	5.1818	0.1	5.5878e-003
27546	12.28	5.0909	0.1	0.6588
27547	12.372	5.1818	0.1	1.1572e-002
27548	12.095	5.0909	0.1	1.9053
27549	12.188	5.1818	0.1	0.13573
27550	11.911	5.0909	0.1	3.2447
27551	12.003	5.1818	0.1	1.2437
27552	11.726	5.0909	0.1	4.6704
27553	11.819	5.1818	0.1	2.5122
27554	11.542	5.0909	0.1	6.1855
27555	11.634	5.1818	0.1	3.8621
27556	11.357	5.0909	0.1	7.7934
27557	11.449	5.1818	0.1	5.2939
27558	11.173	5.0909	0.1	9.4974
27559	11.265	5.1818	0.1	6.8101
27560	10.988	5.0909	0.1	11.3
27561	11.08	5.1818	0.1	8.4125
27562	10.803	5.0909	0.1	13.202
27563	10.896	5.1818	0.1	10.102
27564	10.619	5.0909	0.1	15.203
27565	10.711	5.1818	0.1	11.878
27566	10.434	5.0909	0.1	17.3
27567	10.527	5.1818	0.1	13.74
27568	10.25	5.0909	0.1	19.49
27569	10.342	5.1818	0.1	15.681
27570	10.065	5.0909	0.1	21.763
27571	10.157	5.1818	0.1	17.696
27572	9.8806	5.0909	0.1	24.108
27573	9.9728	5.1818	0.1	19.772
27574	9.696	5.0909	0.1	26.507
27575	9.7883	5.1818	0.1	21.895
27576	9.5114	5.0909	0.1	28.937
27577	9.6037	5.1818	0.1	24.044
27578	9.3269	5.0909	0.1	31.367
27579	9.4191	5.1818	0.1	26.192
27580	9.1423	5.0909	0.1	33.759
27581	9.2346	5.1818	0.1	28.302
27582	8.9577	5.0909	0.1	36.061
27583	9.05	5.1818	0.1	30.33
27584	8.7731	5.0909	0.1	38.212
27585	8.8654	5.1818	0.1	32.221
27586	8.5886	5.0909	0.1	40.136
27587	8.6809	5.1818	0.1	33.904
27588	8.404	5.0909	0.1	41.741
27589	8.4963	5.1818	0.1	35.297
27590	8.2194	5.0909	0.1	42.915
27591	8.3117	5.1818	0.1	36.297
27592	8.0349	5.0909	0.1	43.529
27593	8.1272	5.1818	0.1	36.787
27594	7.8503	5.0909	0.1	43.431
27595	7.9426	5.1818	0.1	36.624
27596	7.6657	5.0909	0.1	42.445
27597	7.758	5.1818	0.1	35.649
27598	7.4812	5.0909	0.1	40.376
27599	7.5735	5.1818	0.1	33.679
27600	7.2966	5.0909	0.1	37.007
27601	7.3889	5.1818	0.1	30.511
27602	7.112	5.0909	0.1	32.111
27603	7.2043	5.1818	0.1	25.933
27604	6.9275	5.0909	0.1	25.471
27605	7.0198	5.1818	0.1	19.75
27606	6.7429	5.0909	0.1	17.003
27607	6.8352	5.1818	0.1	11.938
27608	6.5583	5.0909	0.1	7.635
27609	6.6506	5.1818	0.1	4.1331
27610	6.3738	5.0909	0.1	2.6544
27611	6.466	5.1818	0.1	1.5085
27612	6.1892	5.0909	0.1	1.6195
27613	6.2815	5.1818	0.1	1.0283
27614	6.0046	5.0909	0.1	1.3529
27615	6.0969	5.1818	0.1	0.90834
27616	5.8201	5.0909	0.1	1.3056
27617	5.9123	5.1818	0.1	0.91155
27618	5.6355	5.0909	0.1	1.366
27619	5.7278	5.1818	0.1	0.9879
27620	5.4509	5.0909	0.1	1.5047
27621	5.5432	5.1818	0.1	1.1261
27622	5.2664	5.0909	0.1	1.7084
27623	5.3586	5.1818	0.1	1.3315
27624	5.0818	5.0909	0.1	1.9924
27625	5.1741	5.1818	0.1	1.6005
27626	4.8972	5.0909	0.1	2.2738
27627	4.9895	5.1818	0.1	1.9796
27628	4.7127	5.0909	0.1	2.778
27629	4.8049	5.1818	0.1	2.2851
27630	4.5281	5.0909	0.1	2.1258
27631	4.6204	5.1818	0.1	3.1437
27632	4.3435	5.0909	0.1	5.4936
27633	4.4358	5.1818	0.1	1.2528
27634	4.2512	5.1818	0.1	9.3147
27635	4.159	5.0909	0.1	-2.775
27636	23.723	5.2727	0.1	-8.9989e-002
27637	23.815	5.3636	0.1	4.9015e-003
27638	23.908	5.2727	0.1	-0.36666
27639	23.539	5.2727	0.1	-0.13461
27640	23.631	5.3636	0.1	-0.20425
27641	23.354	5.2727	0.1	-5.4939e-002
27642	23.446	5.3636	0.1	-4.8437e-002
27643	23.169	5.2727	0.1	-3.9506e-002
27644	23.262	5.3636	0.1	-4.2049e-002
27645	22.985	5.2727	0.1	-2.2688e-002
27646	23.077	5.3636	0.1	-1.901e-002
27647	22.8	5.2727	0.1	-1.3908e-002
27648	22.893	5.3636	0.1	-1.0147e-002
27649	22.616	5.2727	0.1	-7.5353e-003
27650	22.708	5.3636	0.1	-3.2238e-003
27651	22.431	5.2727	0.1	-3.3289e-003
27652	22.523	5.3636	0.1	9.2574e-004
27653	22.247	5.2727	0.1	-3.8676e-004
27654	22.339	5.3636	0.1	3.723e-003
27655	22.062	5.2727	0.1	1.6589e-003
27656	22.154	5.3636	0.1	5.5382e-003
27657	21.877	5.2727	0.1	3.092e-003
27658	21.97	5.3636	0.1	6.7212e-003
27659	21.693	5.2727	0.1	4.0904e-003
27660	21.785	5.3636	0.1	7.4639e-003
27661	21.508	5.2727	0.1	4.7743e-003
27662	21.601	5.3636	0.1	7.9072e-003
27663	21.324	5.2727	0.1	5.2325e-003
27664	21.416	5.3636	0.1	8.1321e-003
27665	21.139	5.2727	0.1	5.5337e-003
27666	21.231	5.3636	0.1	8.2175e-003
27667	20.955	5.2727	0.1	5.7128e-003
27668	21.047	5.3636	0.1	8.2044e-003
27669	20.77	5.2727	0.1	5.8019e-003
27670	20.862	5.3636	0.1	8.1125e-003
27671	20.585	5.2727	0.1	5.8347e-003
27672	20.678	5.3636	0.1	7.9765e-003
27673	20.401	5.2727	0.1	5.82e-003
27674	20.493	5.3636	0.1	7.8175e-003
27675	20.216	5.2727	0.1	5.7663e-003
27676	20.309	5.3636	0.1	7.6295e-003
27677	20.032	5.2727	0.1	5.6905e-003
27678	20.124	5.3636	0.1	7.4283e-003
27679	19.847	5.2727	0.1	5.6026e-003
27680	19.94	5.3636	0.1	7.2248e-003
27681	19.663	5.2727	0.1	5.5048e-003
27682	19.755	5.3636	0.1	7.0245e-003
27683	19.478	5.2727	0.1	5.3932e-003
27684	19.57	5.3636	0.1	6.8243e-003
27685	19.294	5.2727	0.1	5.277e-003
27686	19.386	5.3636	0.1	6.6176e-003
27687	19.109	5.2727	0.1	5.166e-003
27688	19.201	5.3636	0.1	6.4265e-003
27689	18.924	5.2727	0.1	5.0513e-003
27690	19.017	5.3636	0.1	6.2452e-003
27691	18.74	5.2727	0.1	4.9346e-003
27692	18.832	5.3636	0.1	6.06e-003
27693	18.555	5.2727	0.1	4.8282e-003
27694	18.648	5.3636	0.1	5.8873e-003
27695	18.371	5.2727	0.1	4.7242e-003
27696	18.463	5.3636	0.1	5.7331e-003
27697	18.186	5.2727	0.1	4.6146e-003
27698	18.278	5.3636	0.1	5.5743e-003
27699	18.002	5.2727	0.1	4.5083e-003
27700	18.094	5.3636	0.1	5.4182e-003
27701	17.817	5.2727	0.1	4.4101e-003
27702	17.909	5.3636	0.1	5.2729e-003
27703	17.632	5.2727	0.1	4.3148e-003
27704	17.725	5.3636	0.1	5.1384e-003
27705	17.448	5.2727	0.1	4.2116e-003
27706	17.54	5.3636	0.1	5.0063e-003
27707	17.263	5.2727	0.1	4.1115e-003
27708	17.356	5.3636	0.1	4.8621e-003
27709	17.079	5.2727	0.1	4.0224e-003
27710	17.171	5.3636	0.1	4.7391e-003
27711	16.894	5.2727	0.1	3.9356e-003
27712	16.986	5.3636	0.1	4.621e-003
27713	16.71	5.2727	0.1	3.8492e-003
27714	16.802	5.3636	0.1	4.506e-003
27715	16.525	5.2727	0.1	3.7532e-003
27716	16.617	5.3636	0.1	4.3916e-003
27717	16.34	5.2727	0.1	3.6569e-003
27718	16.433	5.3636	0.1	4.2597e-003
27719	16.156	5.2727	0.1	3.5721e-003
27720	16.248	5.3636	0.1	4.1464e-003
27721	15.971	5.2727	0.1	3.4819e-003
27722	16.064	5.3636	0.1	4.0399e-003
27723	15.787	5.2727	0.1	3.386e-003
27724	15.879	5.3636	0.1	3.916e-003
27725	15.602	5.2727	0.1	3.3013e-003
27726	15.694	5.3636	0.1	3.7974e-003
27727	15.418	5.2727	0.1	3.2153e-003
27728	15.51	5.3636	0.1	3.6975e-003
27729	15.233	5.2727	0.1	3.1143e-003
27730	15.325	5.3636	0.1	3.5755e-003
27731	15.048	5.2727	0.1	3.0124e-003
27732	15.141	5.3636	0.1	3.4439e-003
27733	14.864	5.2727	0.1	2.9173e-003
27734	14.956	5.3636	0.1	3.3182e-003
27735	14.679	5.2727	0.1	2.821e-003
27736	14.772	5.3636	0.1	3.1961e-003
27737	14.495	5.2727	0.1	2.7075e-003
27738	14.587	5.3636	0.1	3.0646e-003
27739	14.31	5.2727	0.1	2.5926e-003
27740	14.402	5.3636	0.1	2.9039e-003
27741	14.126	5.2727	0.1	2.4933e-003
27742	14.218	5.3636	0.1	2.7615e-003
27743	13.941	5.2727	0.1	2.3865e-003
27744	14.033	5.3636	0.1	2.622e-003
27745	13.756	5.2727	0.1	2.2758e-003
27746	13.849	5.3636	0.1	2.4525e-003
27747	13.572	5.2727	0.1	2.1899e-003
27748	13.664	5.3636	0.1	2.2874e-003
27749	13.387	5.2727	0.1	2.118e-003
27750	13.48	5.3636	0.1	2.1431e-003
27751	13.203	5.2727	0.1	2.0569e-003
27752	13.295	5.3636	0.1	1.9704e-003
27753	13.018	5.2727	0.1	2.0452e-003
27754	13.11	5.3636	0.1	1.7938e-003
27755	12.834	5.2727	0.1	2.1321e-003
27756	12.926	5.3636	0.1	1.6349e-003
27757	12.649	5.2727	0.1	2.4003e-003
27758	12.741	5.3636	0.1	1.509e-003
27759	12.465	5.2727	0.1	3.0623e-003
27760	12.557	5.3636	0.1	1.4282e-003
27761	12.28	5.2727	0.1	4.9563e-003
27762	12.372	5.3636	0.1	1.4334e-003
27763	12.095	5.2727	0.1	1.4319e-002
27764	12.188	5.3636	0.1	1.7621e-003
27765	11.911	5.2727	0.1	0.49984
27766	12.003	5.3636	0.1	3.082e-003
27767	11.726	5.2727	0.1	1.6843
27768	11.819	5.3636	0.1	1.296e-002
27769	11.542	5.2727	0.1	2.9508
27770	11.634	5.3636	0.1	0.70048
27771	11.357	5.2727	0.1	4.2913
27772	11.449	5.3636	0.1	1.8704
27773	11.173	5.2727	0.1	5.7063
27774	11.265	5.3636	0.1	3.1084
27775	10.988	5.2727	0.1	7.1965
27776	11.08	5.3636	0.1	4.4117
27777	10.803	5.2727	0.1	8.7611
27778	10.896	5.3636	0.1	5.7795
27779	10.619	5.2727	0.1	10.398
27780	10.711	5.3636	0.1	7.21
27781	10.434	5.2727	0.1	12.104
27782	10.527	5.3636	0.1	8.7
27783	10.25	5.2727	0.1	13.87
27784	10.342	5.3636	0.1	10.244
27785	10.065	5.2727	0.1	15.688
27786	10.157	5.3636	0.1	11.833
27787	9.8806	5.2727	0.1	17.544
27788	9.9728	5.3636	0.1	13.455
27789	9.696	5.2727	0.1	19.417
27790	9.7883	5.3636	0.1	15.095
27791	9.5114	5.2727	0.1	21.284
27792	9.6037	5.3636	0.1	16.731
27793	9.3269	5.2727	0.1	23.112
27794	9.4191	5.3636	0.1	18.336
27795	9.1423	5.2727	0.1	24.859
27796	9.2346	5.3636	0.1	19.875
27797	8.9577	5.2727	0.1	26.476
27798	9.05	5.3636	0.1	21.304
27799	8.7731	5.2727	0.1	27.898
27800	8.8654	5.3636	0.1	22.568
27801	8.5886	5.2727	0.1	29.05
27802	8.6809	5.3636	0.1	23.603
27803	8.404	5.2727	0.1	29.838
27804	8.4963	5.3636	0.1	24.326
27805	8.2194	5.2727	0.1	30.153
27806	8.3117	5.3636	0.1	24.643
27807	8.0349	5.2727	0.1	29.865
27808	8.1272	5.3636	0.1	24.44
27809	7.8503	5.2727	0.1	28.826
27810	7.9426	5.3636	0.1	23.585
27811	7.6657	5.2727	0.1	26.865
27812	7.758	5.3636	0.1	21.927
27813	7.4812	5.2727	0.1	23.798
27814	7.5735	5.3636	0.1	19.298
27815	7.2966	5.2727	0.1	19.428
27816	7.3889	5.3636	0.1	15.519
27817	7.112	5.2727	0.1	13.594
27818	7.2043	5.3636	0.1	10.443
27819	6.9275	5.2727	0.1	6.4827
27820	7.0198	5.3636	0.1	4.3045
27821	6.7429	5.2727	0.1	1.619
27822	6.8352	5.3636	0.1	0.93557
27823	6.5583	5.2727	0.1	0.79248
27824	6.6506	5.3636	0.1	0.4871
27825	6.3738	5.2727	0.1	0.61684
27826	6.466	5.3636	0.1	0.38548
27827	6.1892	5.2727	0.1	0.58122
27828	6.2815	5.3636	0.1	0.36613
27829	6.0046	5.2727	0.1	0.60907
27830	6.0969	5.3636	0.1	0.38754
27831	5.8201	5.2727	0.1	0.68413
27832	5.9123	5.3636	0.1	0.44174
27833	5.6355	5.2727	0.1	0.80679
27834	5.7278	5.3636	0.1	0.53186
27835	5.4509	5.2727	0.1	0.98703
27836	5.5432	5.3636	0.1	0.66731
27837	5.2664	5.2727	0.1	1.2369
27838	5.3586	5.3636	0.1	0.86826
27839	5.0818	5.2727	0.1	1.5894
27840	5.1741	5.3636	0.1	1.1548
27841	4.8972	5.2727	0.1	2.0051
27842	4.9895	5.3636	0.1	1.6067
27843	4.7127	5.2727	0.1	2.7214
27844	4.8049	5.3636	0.1	2.1311
27845	4.5281	5.2727	0.1	2.4581
27846	4.6204	5.3636	0.1	3.3332
27847	4.3435	5.2727	0.1	5.8764
27848	4.4358	5.3636	0.1	2.1954
27849	4.2512	5.3636	0.1	9.7928
27850	4.159	5.2727	0.1	-2.368
27851	23.723	5.4545	0.1	-4.722e-002
27852	23.815	5.5455	0.1	0.15353
27853	23.908	5.4545	0.1	-0.35396
27854	23.539	5.4545	0.1	-0.10135
27855	23.631	5.5455	0.1	-9.8996e-002
27856	23.354	5.4545	0.1	-2.7489e-002
27857	23.446	5.5455	0.1	2.8642e-002
27858	23.169	5.4545	0.1	-1.6536e-002
27859	23.262	5.5455	0.1	2.4781e-002
27860	22.985	5.4545	0.1	-2.9402e-003
27861	23.077	5.5455	0.1	3.7944e-002
27862	22.8	5.4545	0.1	3.1821e-003
27863	22.893	5.5455	0.1	3.9556e-002
27864	22.616	5.4545	0.1	7.296e-003
27865	22.708	5.5455	0.1	4.0468e-002
27866	22.431	5.4545	0.1	9.6212e-003
27867	22.523	5.5455	0.1	3.9699e-002
27868	22.247	5.4545	0.1	1.0984e-002
27869	22.339	5.5455	0.1	3.8382e-002
27870	22.062	5.4545	0.1	1.1702e-002
27871	22.154	5.5455	0.1	3.6724e-002
27872	21.877	5.4545	0.1	1.201e-002
27873	21.97	5.5455	0.1	3.4939e-002
27874	21.693	5.4545	0.1	1.2051e-002
27875	21.785	5.5455	0.1	3.3121e-002
27876	21.508	5.4545	0.1	1.1916e-002
27877	21.601	5.5455	0.1	3.1336e-002
27878	21.324	5.4545	0.1	1.167e-002
27879	21.416	5.5455	0.1	2.9609e-002
27880	21.139	5.4545	0.1	1.136e-002
27881	21.231	5.5455	0.1	2.7972e-002
27882	20.955	5.4545	0.1	1.1009e-002
27883	21.047	5.5455	0.1	2.6429e-002
27884	20.77	5.4545	0.1	1.0634e-002
27885	20.862	5.5455	0.1	2.4975e-002
27886	20.585	5.4545	0.1	1.0258e-002
27887	20.678	5.5455	0.1	2.3617e-002
27888	20.401	5.4545	0.1	9.8845e-003
27889	20.493	5.5455	0.1	2.2359e-002
27890	20.216	5.4545	0.1	9.5135e-003
27891	20.309	5.5455	0.1	2.1179e-002
27892	20.032	5.4545	0.1	9.1542e-003
27893	20.124	5.5455	0.1	2.008e-002
27894	19.847	5.4545	0.1	8.8119e-003
27895	19.94	5.5455	0.1	1.9061e-002
27896	19.663	5.4545	0.1	8.4863e-003
27897	19.755	5.5455	0.1	1.8118e-002
27898	19.478	5.4545	0.1	8.171e-003
27899	19.57	5.5455	0.1	1.724e-002
27900	19.294	5.4545	0.1	7.8721e-003
27901	19.386	5.5455	0.1	1.6413e-002
27902	19.109	5.4545	0.1	7.5955e-003
27903	19.201	5.5455	0.1	1.5653e-002
27904	18.924	5.4545	0.1	7.3304e-003
27905	19.017	5.5455	0.1	1.4949e-002
27906	18.74	5.4545	0.1	7.0773e-003
27907	18.832	5.5455	0.1	1.4283e-002
27908	18.555	5.4545	0.1	6.8465e-003
27909	18.648	5.5455	0.1	1.3666e-002
27910	18.371	5.4545	0.1	6.6283e-003
27911	18.463	5.5455	0.1	1.31e-002
27912	18.186	5.4545	0.1	6.4149e-003
27913	18.278	5.5455	0.1	1.2558e-002
27914	18.002	5.4545	0.1	6.2125e-003
27915	18.094	5.5455	0.1	1.2047e-002
27916	17.817	5.4545	0.1	6.0243e-003
27917	17.909	5.5455	0.1	1.1568e-002
27918	17.632	5.4545	0.1	5.8472e-003
27919	17.725	5.5455	0.1	1.1122e-002
27920	17.448	5.4545	0.1	5.6688e-003
27921	17.54	5.5455	0.1	1.0695e-002
27922	17.263	5.4545	0.1	5.497e-003
27923	17.356	5.5455	0.1	1.0275e-002
27924	17.079	5.4545	0.1	5.3407e-003
27925	17.171	5.5455	0.1	9.8879e-003
27926	16.894	5.4545	0.1	5.1903e-003
27927	16.986	5.5455	0.1	9.519e-003
27928	16.71	5.4545	0.1	5.0435e-003
27929	16.802	5.5455	0.1	9.1625e-003
27930	16.525	5.4545	0.1	4.8898e-003
27931	16.617	5.5455	0.1	8.8156e-003
27932	16.34	5.4545	0.1	4.7376e-003
27933	16.433	5.5455	0.1	8.4577e-003
27934	16.156	5.4545	0.1	4.5996e-003
27935	16.248	5.5455	0.1	8.1236e-003
27936	15.971	5.4545	0.1	4.4565e-003
27937	16.064	5.5455	0.1	7.8007e-003
27938	15.787	5.4545	0.1	4.3072e-003
27939	15.879	5.5455	0.1	7.4608e-003
27940	15.602	5.4545	0.1	4.1708e-003
27941	15.694	5.5455	0.1	7.1278e-003
27942	15.418	5.4545	0.1	4.0326e-003
27943	15.51	5.5455	0.1	6.8125e-003
27944	15.233	5.4545	0.1	3.8778e-003
27945	15.325	5.5455	0.1	6.4723e-003
27946	15.048	5.4545	0.1	3.7205e-003
27947	15.141	5.5455	0.1	6.1185e-003
27948	14.864	5.4545	0.1	3.5663e-003
27949	14.956	5.5455	0.1	5.7641e-003
27950	14.679	5.4545	0.1	3.408e-003
27951	14.772	5.5455	0.1	5.4063e-003
27952	14.495	5.4545	0.1	3.2288e-003
27953	14.587	5.5455	0.1	5.0298e-003
27954	14.31	5.4545	0.1	3.0411e-003
27955	14.402	5.5455	0.1	4.6137e-003
27956	14.126	5.4545	0.1	2.8604e-003
27957	14.218	5.5455	0.1	4.2005e-003
27958	13.941	5.4545	0.1	2.6621e-003
27959	14.033	5.5455	0.1	3.7752e-003
27960	13.756	5.4545	0.1	2.4453e-003
27961	13.849	5.5455	0.1	3.3018e-003
27962	13.572	5.4545	0.1	2.2335e-003
27963	13.664	5.5455	0.1	2.81e-003
27964	13.387	5.4545	0.1	2.0076e-003
27965	13.48	5.5455	0.1	2.3132e-003
27966	13.203	5.4545	0.1	1.7512e-003
27967	13.295	5.5455	0.1	1.7566e-003
27968	13.018	5.4545	0.1	1.4813e-003
27969	13.11	5.5455	0.1	1.1563e-003
27970	12.834	5.4545	0.1	1.2057e-003
27971	12.926	5.5455	0.1	5.2458e-004
27972	12.649	5.4545	0.1	9.1779e-004
27973	12.741	5.5455	0.1	-1.4171e-004
27974	12.465	5.4545	0.1	6.e-004
27975	12.557	5.5455	0.1	-8.6304e-004
27976	12.28	5.4545	0.1	2.7845e-004
27977	12.372	5.5455	0.1	-1.668e-003
27978	12.095	5.4545	0.1	-9.36e-006
27979	12.188	5.5455	0.1	-2.5006e-003
27980	11.911	5.4545	0.1	-2.1823e-004
27981	12.003	5.5455	0.1	-3.392e-003
27982	11.726	5.4545	0.1	-1.0674e-004
27983	11.819	5.5455	0.1	-4.3506e-003
27984	11.542	5.4545	0.1	3.0915e-003
27985	11.634	5.5455	0.1	-5.3858e-003
27986	11.357	5.4545	0.1	0.66811
27987	11.449	5.5455	0.1	-6.5304e-003
27988	11.173	5.4545	0.1	1.7941
27989	11.265	5.5455	0.1	-7.7381e-003
27990	10.988	5.4545	0.1	2.9756
27991	11.08	5.5455	0.1	0.27104
27992	10.803	5.4545	0.1	4.2098
27993	10.896	5.5455	0.1	1.3237
27994	10.619	5.4545	0.1	5.4937
27995	10.711	5.5455	0.1	2.4185
27996	10.434	5.4545	0.1	6.8225
27997	10.527	5.5455	0.1	3.552
27998	10.25	5.4545	0.1	8.1888
27999	10.342	5.5455	0.1	4.7183
28000	10.065	5.4545	0.1	9.5826
28001	10.157	5.5455	0.1	5.9099
28002	9.8806	5.4545	0.1	10.99
28003	9.9728	5.5455	0.1	7.1159
28004	9.696	5.4545	0.1	12.393
28005	9.7883	5.5455	0.1	8.3219
28006	9.5114	5.4545	0.1	13.768
28007	9.6037	5.5455	0.1	9.5094
28008	9.3269	5.4545	0.1	15.084
28009	9.4191	5.5455	0.1	10.654
28010	9.1423	5.4545	0.1	16.304
28011	9.2346	5.5455	0.1	11.727
28012	8.9577	5.4545	0.1	17.381
28013	9.05	5.5455	0.1	12.689
28014	8.7731	5.4545	0.1	18.258
28015	8.8654	5.5455	0.1	13.494
28016	8.5886	5.4545	0.1	18.864
28017	8.6809	5.5455	0.1	14.087
28018	8.404	5.4545	0.1	19.116
28019	8.4963	5.5455	0.1	14.398
28020	8.2194	5.4545	0.1	18.914
28021	8.3117	5.5455	0.1	14.348
28022	8.0349	5.4545	0.1	18.143
28023	8.1272	5.5455	0.1	13.839
28024	7.8503	5.4545	0.1	16.669
28025	7.9426	5.5455	0.1	12.762
28026	7.6657	5.4545	0.1	14.343
28027	7.758	5.5455	0.1	10.991
28028	7.4812	5.4545	0.1	11.009
28029	7.5735	5.5455	0.1	8.3918
28030	7.2966	5.4545	0.1	6.5546
28031	7.3889	5.5455	0.1	4.8624
28032	7.112	5.4545	0.1	1.7243
28033	7.2043	5.5455	0.1	1.0962
28034	6.9275	5.4545	0.1	0.431
28035	7.0198	5.5455	0.1	0.2765
28036	6.7429	5.4545	0.1	0.26215
28037	6.8352	5.5455	0.1	0.17677
28038	6.5583	5.4545	0.1	0.21668
28039	6.6506	5.5455	0.1	0.15478
28040	6.3738	5.4545	0.1	0.21
28041	6.466	5.5455	0.1	0.1585
28042	6.1892	5.4545	0.1	0.22616
28043	6.2815	5.5455	0.1	0.17756
28044	6.0046	5.4545	0.1	0.26304
28045	6.0969	5.5455	0.1	0.20995
28046	5.8201	5.4545	0.1	0.32442
28047	5.9123	5.5455	0.1	0.25706
28048	5.6355	5.4545	0.1	0.419
28049	5.7278	5.5455	0.1	0.32346
28050	5.4509	5.4545	0.1	0.56398
28051	5.5432	5.5455	0.1	0.41799
28052	5.2664	5.4545	0.1	0.78621
28053	5.3586	5.5455	0.1	0.56239
28054	5.0818	5.4545	0.1	1.1562
28055	5.1741	5.5455	0.1	0.79151
28056	4.8972	5.4545	0.1	1.7236
28057	4.9895	5.5455	0.1	1.2341
28058	4.7127	5.4545	0.1	2.8377
28059	4.8049	5.5455	0.1	1.9477
28060	4.5281	5.4545	0.1	3.4726
28061	4.6204	5.5455	0.1	3.7826
28062	4.3435	5.4545	0.1	7.4452
28063	4.4358	5.5455	0.1	4.0078
28064	4.2512	5.5455	0.1	11.595
28065	4.159	5.4545	0.1	-2.4249
28066	23.723	5.6364	0.1	0.16335
28067	23.815	5.7273	0.1	0.38622
28068	23.908	5.6364	0.1	-0.15984
28069	23.539	5.6364	0.1	5.1077e-002
28070	23.631	5.7273	0.1	5.4871e-002
28071	23.354	5.6364	0.1	9.143e-002
28072	23.446	5.7273	0.1	0.11522
28073	23.169	5.6364	0.1	8.5796e-002
28074	23.262	5.7273	0.1	9.0029e-002
28075	22.985	5.6364	0.1	8.4834e-002
28076	23.077	5.7273	0.1	8.4377e-002
28077	22.8	5.6364	0.1	7.9925e-002
28078	22.893	5.7273	0.1	7.3907e-002
28079	22.616	5.6364	0.1	7.5094e-002
28080	22.708	5.7273	0.1	6.5915e-002
28081	22.431	5.6364	0.1	7.009e-002
28082	22.523	5.7273	0.1	5.865e-002
28083	22.247	5.6364	0.1	6.5329e-002
28084	22.339	5.7273	0.1	5.2452e-002
28085	22.062	5.6364	0.1	6.086e-002
28086	22.154	5.7273	0.1	4.7085e-002
28087	21.877	5.6364	0.1	5.6717e-002
28088	21.97	5.7273	0.1	4.2443e-002
28089	21.693	5.6364	0.1	5.2897e-002
28090	21.785	5.7273	0.1	3.8406e-002
28091	21.508	5.6364	0.1	4.9385e-002
28092	21.601	5.7273	0.1	3.4887e-002
28093	21.324	5.6364	0.1	4.6161e-002
28094	21.416	5.7273	0.1	3.1799e-002
28095	21.139	5.6364	0.1	4.3208e-002
28096	21.231	5.7273	0.1	2.9088e-002
28097	20.955	5.6364	0.1	4.0497e-002
28098	21.047	5.7273	0.1	2.67e-002
28099	20.77	5.6364	0.1	3.8007e-002
28100	20.862	5.7273	0.1	2.458e-002
28101	20.585	5.6364	0.1	3.5727e-002
28102	20.678	5.7273	0.1	2.2701e-002
28103	20.401	5.6364	0.1	3.3631e-002
28104	20.493	5.7273	0.1	2.1036e-002
28105	20.216	5.6364	0.1	3.1696e-002
28106	20.309	5.7273	0.1	1.9542e-002
28107	20.032	5.6364	0.1	2.9917e-002
28108	20.124	5.7273	0.1	1.8203e-002
28109	19.847	5.6364	0.1	2.828e-002
28110	19.94	5.7273	0.1	1.7004e-002
28111	19.663	5.6364	0.1	2.6772e-002
28112	19.755	5.7273	0.1	1.5932e-002
28113	19.478	5.6364	0.1	2.5373e-002
28114	19.57	5.7273	0.1	1.4963e-002
28115	19.294	5.6364	0.1	2.4078e-002
28116	19.386	5.7273	0.1	1.4077e-002
28117	19.109	5.6364	0.1	2.2885e-002
28118	19.201	5.7273	0.1	1.3284e-002
28119	18.924	5.6364	0.1	2.1776e-002
28120	19.017	5.7273	0.1	1.2569e-002
28121	18.74	5.6364	0.1	2.0743e-002
28122	18.832	5.7273	0.1	1.1908e-002
28123	18.555	5.6364	0.1	1.9788e-002
28124	18.648	5.7273	0.1	1.1309e-002
28125	18.371	5.6364	0.1	1.8898e-002
28126	18.463	5.7273	0.1	1.0773e-002
28127	18.186	5.6364	0.1	1.8057e-002
28128	18.278	5.7273	0.1	1.0269e-002
28129	18.002	5.6364	0.1	1.727e-002
28130	18.094	5.7273	0.1	9.8037e-003
28131	17.817	5.6364	0.1	1.6534e-002
28132	17.909	5.7273	0.1	9.3765e-003
28133	17.632	5.6364	0.1	1.5839e-002
28134	17.725	5.7273	0.1	8.9862e-003
28135	17.448	5.6364	0.1	1.5172e-002
28136	17.54	5.7273	0.1	8.6193e-003
28137	17.263	5.6364	0.1	1.4538e-002
28138	17.356	5.7273	0.1	8.2618e-003
28139	17.079	5.6364	0.1	1.394e-002
28140	17.171	5.7273	0.1	7.9404e-003
28141	16.894	5.6364	0.1	1.3367e-002
28142	16.986	5.7273	0.1	7.6391e-003
28143	16.71	5.6364	0.1	1.2812e-002
28144	16.802	5.7273	0.1	7.3538e-003
28145	16.525	5.6364	0.1	1.2263e-002
28146	16.617	5.7273	0.1	7.0788e-003
28147	16.34	5.6364	0.1	1.1726e-002
28148	16.433	5.7273	0.1	6.7958e-003
28149	16.156	5.6364	0.1	1.1209e-002
28150	16.248	5.7273	0.1	6.5387e-003
28151	15.971	5.6364	0.1	1.0692e-002
28152	16.064	5.7273	0.1	6.2957e-003
28153	15.787	5.6364	0.1	1.0171e-002
28154	15.879	5.7273	0.1	6.0377e-003
28155	15.602	5.6364	0.1	9.6627e-003
28156	15.694	5.7273	0.1	5.7909e-003
28157	15.418	5.6364	0.1	9.1488e-003
28158	15.51	5.7273	0.1	5.5647e-003
28159	15.233	5.6364	0.1	8.6134e-003
28160	15.325	5.7273	0.1	5.3183e-003
28161	15.048	5.6364	0.1	8.0668e-003
28162	15.141	5.7273	0.1	5.0635e-003
28163	14.864	5.6364	0.1	7.5137e-003
28164	14.956	5.7273	0.1	4.814e-003
28165	14.679	5.6364	0.1	6.9433e-003
28166	14.772	5.7273	0.1	4.5669e-003
28167	14.495	5.6364	0.1	6.3366e-003
28168	14.587	5.7273	0.1	4.3099e-003
28169	14.31	5.6364	0.1	5.7028e-003
28170	14.402	5.7273	0.1	4.0222e-003
28171	14.126	5.6364	0.1	5.0544e-003
28172	14.218	5.7273	0.1	3.7478e-003
28173	13.941	5.6364	0.1	4.3655e-003
28174	14.033	5.7273	0.1	3.4739e-003
28175	13.756	5.6364	0.1	3.6311e-003
28176	13.849	5.7273	0.1	3.1666e-003
28177	13.572	5.6364	0.1	2.8717e-003
28178	13.664	5.7273	0.1	2.8577e-003
28179	13.387	5.6364	0.1	2.0661e-003
28180	13.48	5.7273	0.1	2.5653e-003
28181	13.203	5.6364	0.1	1.1935e-003
28182	13.295	5.7273	0.1	2.2374e-003
28183	13.018	5.6364	0.1	2.6763e-004
28184	13.11	5.7273	0.1	1.8959e-003
28185	12.834	5.6364	0.1	-7.0712e-004
28186	12.926	5.7273	0.1	1.5595e-003
28187	12.649	5.6364	0.1	-1.7426e-003
28188	12.741	5.7273	0.1	1.2334e-003
28189	12.465	5.6364	0.1	-2.8621e-003
28190	12.557	5.7273	0.1	9.0888e-004
28191	12.28	5.6364	0.1	-4.0494e-003
28192	12.372	5.7273	0.1	5.7172e-004
28193	12.095	5.6364	0.1	-5.2875e-003
28194	12.188	5.7273	0.1	2.9866e-004
28195	11.911	5.6364	0.1	-6.5871e-003
28196	12.003	5.7273	0.1	8.5688e-005
28197	11.726	5.6364	0.1	-7.9418e-003
28198	11.819	5.7273	0.1	-3.4527e-005
28199	11.542	5.6364	0.1	-9.3416e-003
28200	11.634	5.7273	0.1	-1.2815e-005
28201	11.357	5.6364	0.1	-1.0703e-002
28202	11.449	5.7273	0.1	2.089e-004
28203	11.173	5.6364	0.1	-1.1824e-002
28204	11.265	5.7273	0.1	8.3742e-004
28205	10.988	5.6364	0.1	-1.2071e-002
28206	11.08	5.7273	0.1	2.1012e-003
28207	10.803	5.6364	0.1	-5.6415e-003
28208	10.896	5.7273	0.1	4.4275e-003
28209	10.619	5.6364	0.1	0.47018
28210	10.711	5.7273	0.1	8.8548e-003
28211	10.434	5.6364	0.1	1.4332
28212	10.527	5.7273	0.1	1.7894e-002
28213	10.25	5.6364	0.1	2.4235
28214	10.342	5.7273	0.1	3.97e-002
28215	10.065	5.6364	0.1	3.427
28216	10.157	5.7273	0.1	0.11889
28217	9.8806	5.6364	0.1	4.4316
28218	9.9728	5.7273	0.1	0.52399
28219	9.696	5.6364	0.1	5.4224
28220	9.7883	5.7273	0.1	1.2736
28221	9.5114	5.6364	0.1	6.3803
28222	9.6037	5.7273	0.1	2.0696
28223	9.3269	5.6364	0.1	7.2815
28224	9.4191	5.7273	0.1	2.8438
28225	9.1423	5.6364	0.1	8.0958
28226	9.2346	5.7273	0.1	3.5661
28227	8.9577	5.6364	0.1	8.7864
28228	9.05	5.7273	0.1	4.2075
28229	8.7731	5.6364	0.1	9.308
28230	8.8654	5.7273	0.1	4.7346
28231	8.5886	5.6364	0.1	9.6061
28232	8.6809	5.7273	0.1	5.108
28233	8.404	5.6364	0.1	9.6152
28234	8.4963	5.7273	0.1	5.2803
28235	8.2194	5.6364	0.1	9.258
28236	8.3117	5.7273	0.1	5.1957
28237	8.0349	5.6364	0.1	8.4445
28238	8.1272	5.7273	0.1	4.7892
28239	7.8503	5.6364	0.1	7.0726
28240	7.9426	5.7273	0.1	3.9873
28241	7.6657	5.6364	0.1	5.0359
28242	7.758	5.7273	0.1	2.7186
28243	7.4812	5.6364	0.1	2.3011
28244	7.5735	5.7273	0.1	1.0352
28245	7.2966	5.6364	0.1	0.3451
28246	7.3889	5.7273	0.1	0.17528
28247	7.112	5.6364	0.1	0.14186
28248	7.2043	5.7273	0.1	6.8062e-002
28249	6.9275	5.6364	0.1	0.1112
28250	7.0198	5.7273	0.1	4.1695e-002
28251	6.7429	5.6364	0.1	0.1128
28252	6.8352	5.7273	0.1	3.4137e-002
28253	6.5583	5.6364	0.1	0.12868
28254	6.6506	5.7273	0.1	3.4131e-002
28255	6.3738	5.6364	0.1	0.15423
28256	6.466	5.7273	0.1	3.7792e-002
28257	6.1892	5.6364	0.1	0.18792
28258	6.2815	5.7273	0.1	4.2983e-002
28259	6.0046	5.6364	0.1	0.22942
28260	6.0969	5.7273	0.1	4.817e-002
28261	5.8201	5.6364	0.1	0.27958
28262	5.9123	5.7273	0.1	5.2488e-002
28263	5.6355	5.6364	0.1	0.34158
28264	5.7278	5.7273	0.1	5.7294e-002
28265	5.4509	5.6364	0.1	0.42634
28266	5.5432	5.7273	0.1	6.9045e-002
28267	5.2664	5.6364	0.1	0.55947
28268	5.3586	5.7273	0.1	0.1113
28269	5.0818	5.6364	0.1	0.82838
28270	5.1741	5.7273	0.1	0.2337
28271	4.8972	5.6364	0.1	1.3748
28272	4.9895	5.7273	0.1	0.61094
28273	4.7127	5.6364	0.1	2.8683
28274	4.8049	5.7273	0.1	1.4581
28275	4.5281	5.6364	0.1	4.9963
28276	4.6204	5.7273	0.1	4.1401
28277	4.3435	5.6364	0.1	11.086
28278	4.4358	5.7273	0.1	7.3345
28279	4.2512	5.7273	0.1	19.683
28280	4.159	5.6364	0.1	-3.8612
28281	23.723	5.8182	0.1	0.31067
28282	23.815	5.9091	0.1	7.4073e-002
28283	23.908	5.8182	0.1	3.7979e-002
28284	23.539	5.8182	0.1	0.11553
28285	23.631	5.9091	0.1	-0.14217
28286	23.354	5.8182	0.1	0.1005
28287	23.446	5.9091	0.1	-4.7402e-002
28288	23.169	5.8182	0.1	7.2732e-002
28289	23.262	5.9091	0.1	-3.3935e-002
28290	22.985	5.8182	0.1	5.74e-002
28291	23.077	5.9091	0.1	-1.5244e-002
28292	22.8	5.8182	0.1	4.4541e-002
28293	22.893	5.9091	0.1	-7.0982e-003
28294	22.616	5.8182	0.1	3.5106e-002
28295	22.708	5.9091	0.1	-1.2364e-003
28296	22.431	5.8182	0.1	2.7705e-002
28297	22.523	5.9091	0.1	2.3463e-003
28298	22.247	5.8182	0.1	2.1931e-002
28299	22.339	5.9091	0.1	4.7439e-003
28300	22.062	5.8182	0.1	1.7359e-002
28301	22.154	5.9091	0.1	6.3132e-003
28302	21.877	5.8182	0.1	1.3715e-002
28303	21.97	5.9091	0.1	7.3441e-003
28304	21.693	5.8182	0.1	1.0794e-002
28305	21.785	5.9091	0.1	7.9921e-003
28306	21.508	5.8182	0.1	8.4393e-003
28307	21.601	5.9091	0.1	8.3789e-003
28308	21.324	5.8182	0.1	6.5364e-003
28309	21.416	5.9091	0.1	8.5716e-003
28310	21.139	5.8182	0.1	5.0003e-003
28311	21.231	5.9091	0.1	8.6386e-003
28312	20.955	5.8182	0.1	3.7566e-003
28313	21.047	5.9091	0.1	8.6084e-003
28314	20.77	5.8182	0.1	2.7506e-003
28315	20.862	5.9091	0.1	8.5086e-003
28316	20.585	5.8182	0.1	1.9444e-003
28317	20.678	5.9091	0.1	8.3634e-003
28318	20.401	5.8182	0.1	1.2977e-003
28319	20.493	5.9091	0.1	8.1931e-003
28320	20.216	5.8182	0.1	7.7759e-004
28321	20.309	5.9091	0.1	7.9936e-003
28322	20.032	5.8182	0.1	3.6494e-004
28323	20.124	5.9091	0.1	7.78e-003
28324	19.847	5.8182	0.1	4.574e-005
28325	19.94	5.9091	0.1	7.5613e-003
28326	19.663	5.8182	0.1	-1.9902e-004
28327	19.755	5.9091	0.1	7.3447e-003
28328	19.478	5.8182	0.1	-3.8994e-004
28329	19.57	5.9091	0.1	7.1267e-003
28330	19.294	5.8182	0.1	-5.308e-004
28331	19.386	5.9091	0.1	6.9011e-003
28332	19.109	5.8182	0.1	-6.2403e-004
28333	19.201	5.9091	0.1	6.6908e-003
28334	18.924	5.8182	0.1	-6.8654e-004
28335	19.017	5.9091	0.1	6.4883e-003
28336	18.74	5.8182	0.1	-7.2359e-004
28337	18.832	5.9091	0.1	6.284e-003
28338	18.555	5.8182	0.1	-7.297e-004
28339	18.648	5.9091	0.1	6.0896e-003
28340	18.371	5.8182	0.1	-7.175e-004
28341	18.463	5.9091	0.1	5.9133e-003
28342	18.186	5.8182	0.1	-6.9639e-004
28343	18.278	5.9091	0.1	5.7331e-003
28344	18.002	5.8182	0.1	-6.6178e-004
28345	18.094	5.9091	0.1	5.5568e-003
28346	17.817	5.8182	0.1	-6.1264e-004
28347	17.909	5.9091	0.1	5.3895e-003
28348	17.632	5.8182	0.1	-5.5305e-004
28349	17.725	5.9091	0.1	5.2335e-003
28350	17.448	5.8182	0.1	-4.9511e-004
28351	17.54	5.9091	0.1	5.0801e-003
28352	17.263	5.8182	0.1	-4.3115e-004
28353	17.356	5.9091	0.1	4.9163e-003
28354	17.079	5.8182	0.1	-3.5288e-004
28355	17.171	5.9091	0.1	4.7722e-003
28356	16.894	5.8182	0.1	-2.6773e-004
28357	16.986	5.9091	0.1	4.6333e-003
28358	16.71	5.8182	0.1	-1.7886e-004
28359	16.802	5.9091	0.1	4.4977e-003
28360	16.525	5.8182	0.1	-9.6711e-005
28361	16.617	5.9091	0.1	4.3628e-003
28362	16.34	5.8182	0.1	-1.0692e-005
28363	16.433	5.9091	0.1	4.2111e-003
28364	16.156	5.8182	0.1	9.2436e-005
28365	16.248	5.9091	0.1	4.0782e-003
28366	15.971	5.8182	0.1	1.9374e-004
28367	16.064	5.9091	0.1	3.9521e-003
28368	15.787	5.8182	0.1	2.9403e-004
28369	15.879	5.9091	0.1	3.8083e-003
28370	15.602	5.8182	0.1	4.1418e-004
28371	15.694	5.9091	0.1	3.6707e-003
28372	15.418	5.8182	0.1	5.4019e-004
28373	15.51	5.9091	0.1	3.5517e-003
28374	15.233	5.8182	0.1	6.5998e-004
28375	15.325	5.9091	0.1	3.4102e-003
28376	15.048	5.8182	0.1	7.8932e-004
28377	15.141	5.9091	0.1	3.2631e-003
28378	14.864	5.8182	0.1	9.3495e-004
28379	14.956	5.9091	0.1	3.1206e-003
28380	14.679	5.8182	0.1	1.0929e-003
28381	14.772	5.9091	0.1	2.9831e-003
28382	14.495	5.8182	0.1	1.2497e-003
28383	14.587	5.9091	0.1	2.837e-003
28384	14.31	5.8182	0.1	1.4194e-003
28385	14.402	5.9091	0.1	2.6674e-003
28386	14.126	5.8182	0.1	1.6215e-003
28387	14.218	5.9091	0.1	2.5161e-003
28388	13.941	5.8182	0.1	1.8352e-003
28389	14.033	5.9091	0.1	2.3705e-003
28390	13.756	5.8182	0.1	2.0639e-003
28391	13.849	5.9091	0.1	2.2023e-003
28392	13.572	5.8182	0.1	2.3369e-003
28393	13.664	5.9091	0.1	2.0399e-003
28394	13.387	5.8182	0.1	2.6411e-003
28395	13.48	5.9091	0.1	1.9047e-003
28396	13.203	5.8182	0.1	2.9665e-003
28397	13.295	5.9091	0.1	1.7454e-003
28398	13.018	5.8182	0.1	3.3388e-003
28399	13.11	5.9091	0.1	1.5866e-003
28400	12.834	5.8182	0.1	3.7749e-003
28401	12.926	5.9091	0.1	1.4457e-003
28402	12.649	5.8182	0.1	4.2795e-003
28403	12.741	5.9091	0.1	1.3276e-003
28404	12.465	5.8182	0.1	4.8467e-003
28405	12.557	5.9091	0.1	1.2248e-003
28406	12.28	5.8182	0.1	5.5134e-003
28407	12.372	5.9091	0.1	1.1193e-003
28408	12.095	5.8182	0.1	6.32e-003
28409	12.188	5.9091	0.1	1.0812e-003
28410	11.911	5.8182	0.1	7.2823e-003
28411	12.003	5.9091	0.1	1.0967e-003
28412	11.726	5.8182	0.1	8.4379e-003
28413	11.819	5.9091	0.1	1.1806e-003
28414	11.542	5.8182	0.1	9.8249e-003
28415	11.634	5.9091	0.1	1.3499e-003
28416	11.357	5.8182	0.1	1.1534e-002
28417	11.449	5.9091	0.1	1.6049e-003
28418	11.173	5.8182	0.1	1.3689e-002
28419	11.265	5.9091	0.1	2.0438e-003
28420	10.988	5.8182	0.1	1.6401e-002
28421	11.08	5.9091	0.1	2.6951e-003
28422	10.803	5.8182	0.1	1.9874e-002
28423	10.896	5.9091	0.1	3.5828e-003
28424	10.619	5.8182	0.1	2.444e-002
28425	10.711	5.9091	0.1	4.8294e-003
28426	10.434	5.8182	0.1	3.0536e-002
28427	10.527	5.9091	0.1	6.5725e-003
28428	10.25	5.8182	0.1	3.8864e-002
28429	10.342	5.9091	0.1	8.8941e-003
28430	10.065	5.8182	0.1	5.0662e-002
28431	10.157	5.9091	0.1	1.2036e-002
28432	9.8806	5.8182	0.1	6.8041e-002
28433	9.9728	5.9091	0.1	1.632e-002
28434	9.696	5.8182	0.1	9.4946e-002
28435	9.7883	5.9091	0.1	2.2133e-002
28436	9.5114	5.8182	0.1	0.13925
28437	9.6037	5.9091	0.1	3.0065e-002
28438	9.3269	5.8182	0.1	0.2169
28439	9.4191	5.9091	0.1	4.0935e-002
28440	9.1423	5.8182	0.1	0.35468
28441	9.2346	5.9091	0.1	5.5761e-002
28442	8.9577	5.8182	0.1	0.56684
28443	9.05	5.9091	0.1	7.5479e-002
28444	8.7731	5.8182	0.1	0.80648
28445	8.8654	5.9091	0.1	9.9702e-002
28446	8.5886	5.8182	0.1	0.99071
28447	8.6809	5.9091	0.1	0.12356
28448	8.404	5.8182	0.1	1.0514
28449	8.4963	5.9091	0.1	0.13386
28450	8.2194	5.8182	0.1	0.94324
28451	8.3117	5.9091	0.1	0.1122
28452	8.0349	5.8182	0.1	0.66167
28453	8.1272	5.9091	0.1	5.392e-002
28454	7.8503	5.8182	0.1	0.32782
28455	7.9426	5.9091	0.1	-1.074e-002
28456	7.6657	5.8182	0.1	0.13413
28457	7.758	5.9091	0.1	-4.9514e-002
28458	7.4812	5.8182	0.1	5.3787e-002
28459	7.5735	5.9091	0.1	-6.5128e-002
28460	7.2966	5.8182	0.1	1.7523e-002
28461	7.3889	5.9091	0.1	-6.8719e-002
28462	7.112	5.8182	0.1	-1.2165e-003
28463	7.2043	5.9091	0.1	-6.6288e-002
28464	6.9275	5.8182	0.1	-1.2413e-002
28465	7.0198	5.9091	0.1	-6.0421e-002
28466	6.7429	5.8182	0.1	-2.0973e-002
28467	6.8352	5.9091	0.1	-5.2289e-002
28468	6.5583	5.8182	0.1	-3.0329e-002
28469	6.6506	5.9091	0.1	-4.2535e-002
28470	6.3738	5.8182	0.1	-4.3733e-002
28471	6.466	5.9091	0.1	-3.1719e-002
28472	6.1892	5.8182	0.1	-6.4683e-002
28473	6.2815	5.9091	0.1	-2.0572e-002
28474	6.0046	5.8182	0.1	-9.6673e-002
28475	6.0969	5.9091	0.1	-1.018e-002
28476	5.8201	5.8182	0.1	-0.14175
28477	5.9123	5.9091	0.1	-2.241e-003
28478	5.6355	5.8182	0.1	-0.19725
28479	5.7278	5.9091	0.1	1.0079e-003
28480	5.4509	5.8182	0.1	-0.24661
28481	5.5432	5.9091	0.1	-4.0845e-003
28482	5.2664	5.8182	0.1	-0.2466
28483	5.3586	5.9091	0.1	-1.843e-002
28484	5.0818	5.8182	0.1	-7.1679e-002
28485	5.1741	5.9091	0.1	-5.1082e-002
28486	4.8972	5.8182	0.1	0.49304
28487	4.9895	5.9091	0.1	-5.3339e-002
28488	4.7127	5.8182	0.1	2.2975
28489	4.8049	5.9091	0.1	-0.10744
28490	4.5281	5.8182	0.1	5.9254
28491	4.6204	5.9091	0.1	0.64135
28492	4.3435	5.8182	0.1	19.881
28493	4.4358	5.9091	0.1	0.99226
28494	4.159	5.8182	0.1	-0.34393
28495	4.2512	5.9091	0.1	17.038
28496	0.17727	0.27273	0.1	460.69
28497	0.26591	0.18182	0.1	31.439
28498	8.8636e-002	0.18182	0.1	630.5
28499	0.17727	9.0909e-002	0.1	-94.163
28500	0.17727	0.45455	0.1	1088.8
28501	0.26591	0.36364	0.1	791.53
28502	8.8636e-002	0.36364	0.1	1622.
28503	0.17727	0.63636	0.1	1419.2
28504	0.26591	0.54545	0.1	1287.1
28505	8.8636e-002	0.54545	0.1	2088.2
28506	0.17727	0.81818	0.1	1615.1
28507	0.26591	0.72727	0.1	1589.3
28508	8.8636e-002	0.72727	0.1	2358.6
28509	0.17727	1.	0.1	1742.5
28510	0.26591	0.90909	0.1	1783.3
28511	8.8636e-002	0.90909	0.1	2533.5
28512	0.17727	1.1818	0.1	1831.3
28513	0.26591	1.0909	0.1	1915.6
28514	8.8636e-002	1.0909	0.1	2654.7
28515	0.17727	1.3636	0.1	1895.7
28516	0.26591	1.2727	0.1	2010.2
28517	8.8636e-002	1.2727	0.1	2741.5
28518	0.17727	1.5455	0.1	1943.4
28519	0.26591	1.4545	0.1	2079.8
28520	8.8636e-002	1.4545	0.1	2804.6
28521	0.17727	1.7273	0.1	1979.1
28522	0.26591	1.6364	0.1	2132.1
28523	8.8636e-002	1.6364	0.1	2850.9
28524	0.17727	1.9091	0.1	2005.8
28525	0.26591	1.8182	0.1	2171.6
28526	8.8636e-002	1.8182	0.1	2884.6
28527	0.17727	2.0909	0.1	2025.7
28528	0.26591	2.	0.1	2201.5
28529	8.8636e-002	2.	0.1	2908.9
28530	0.17727	2.2727	0.1	2040.3
28531	0.26591	2.1818	0.1	2224.
28532	8.8636e-002	2.1818	0.1	2926.2
28533	0.17727	2.4545	0.1	2050.6
28534	0.26591	2.3636	0.1	2240.5
28535	8.8636e-002	2.3636	0.1	2938.1
28536	0.17727	2.6364	0.1	2057.4
28537	0.26591	2.5455	0.1	2252.
28538	8.8636e-002	2.5455	0.1	2946.
28539	0.17727	2.8182	0.1	2061.3
28540	0.26591	2.7273	0.1	2259.3
28541	8.8636e-002	2.7273	0.1	2950.8
28542	0.17727	3.	0.1	2062.6
28543	0.26591	2.9091	0.1	2262.9
28544	8.8636e-002	2.9091	0.1	2953.
28545	0.17727	3.1818	0.1	2061.3
28546	0.26591	3.0909	0.1	2262.9
28547	8.8636e-002	3.0909	0.1	2953.
28548	0.17727	3.3636	0.1	2057.4
28549	0.26591	3.2727	0.1	2259.3
28550	8.8636e-002	3.2727	0.1	2950.8
28551	0.17727	3.5455	0.1	2050.6
28552	0.26591	3.4545	0.1	2252.
28553	8.8636e-002	3.4545	0.1	2946.
28554	0.17727	3.7273	0.1	2040.3
28555	0.26591	3.6364	0.1	2240.5
28556	8.8636e-002	3.6364	0.1	2938.1
28557	0.17727	3.9091	0.1	2025.7
28558	0.26591	3.8182	0.1	2224.
28559	8.8636e-002	3.8182	0.1	2926.2
28560	0.17727	4.0909	0.1	2005.8
28561	0.26591	4.	0.1	2201.5
28562	8.8636e-002	4.	0.1	2908.9
28563	0.17727	4.2727	0.1	1979.1
28564	0.26591	4.1818	0.1	2171.6
28565	8.8636e-002	4.1818	0.1	2884.6
28566	0.17727	4.4545	0.1	1943.4
28567	0.26591	4.3636	0.1	2132.1
28568	8.8636e-002	4.3636	0.1	2850.9
28569	0.17727	4.6364	0.1	1895.7
28570	0.26591	4.5455	0.1	2079.8
28571	8.8636e-002	4.5455	0.1	2804.6
28572	0.17727	4.8182	0.1	1831.3
28573	0.26591	4.7273	0.1	2010.2
28574	8.8636e-002	4.7273	0.1	2741.5
28575	0.17727	5.	0.1	1742.5
28576	0.26591	4.9091	0.1	1915.6
28577	8.8636e-002	4.9091	0.1	2654.7
28578	0.17727	5.1818	0.1	1615.1
28579	0.26591	5.0909	0.1	1783.3
28580	8.8636e-002	5.0909	0.1	2533.5
28581	0.17727	5.3636	0.1	1419.2
28582	0.26591	5.2727	0.1	1589.3
28583	8.8636e-002	5.2727	0.1	2358.6
28584	0.17727	5.5455	0.1	1088.8
28585	0.26591	5.4545	0.1	1287.1
28586	8.8636e-002	5.4545	0.1	2088.2
28587	0.17727	5.7273	0.1	460.69
28588	0.26591	5.6364	0.1	791.53
28589	8.8636e-002	5.6364	0.1	1622.
28590	0.26591	5.8182	0.1	31.439
28591	8.8636e-002	5.8182	0.1	630.5
28592	0.17727	5.9091	0.1	-94.163
28593	0.35455	0.27273	0.1	343.63
28594	0.44318	0.18182	0.1	48.545
28595	0.35455	9.0909e-002	0.1	28.66
28596	0.35455	0.45455	0.1	988.64
28597	0.44318	0.36364	0.1	571.89
28598	0.35455	0.63636	0.1	1450.
28599	0.44318	0.54545	0.1	1078.6
28600	0.35455	0.81818	0.1	1751.3
28601	0.44318	0.72727	0.1	1443.
28602	0.35455	1.	0.1	1952.4
28603	0.44318	0.90909	0.1	1696.8
28604	0.35455	1.1818	0.1	2092.
28605	0.44318	1.0909	0.1	1875.5
28606	0.35455	1.3636	0.1	2192.8
28607	0.44318	1.2727	0.1	2005.
28608	0.35455	1.5455	0.1	2267.6
28609	0.44318	1.4545	0.1	2101.1
28610	0.35455	1.7273	0.1	2324.1
28611	0.44318	1.6364	0.1	2174.
28612	0.35455	1.9091	0.1	2367.
28613	0.44318	1.8182	0.1	2230.
28614	0.35455	2.0909	0.1	2399.7
28615	0.44318	2.	0.1	2273.1
28616	0.35455	2.2727	0.1	2424.1
28617	0.44318	2.1818	0.1	2306.1
28618	0.35455	2.4545	0.1	2441.8
28619	0.44318	2.3636	0.1	2330.7
28620	0.35455	2.6364	0.1	2453.8
28621	0.44318	2.5455	0.1	2348.3
28622	0.35455	2.8182	0.1	2460.8
28623	0.44318	2.7273	0.1	2359.6
28624	0.35455	3.	0.1	2463.1
28625	0.44318	2.9091	0.1	2365.1
28626	0.35455	3.1818	0.1	2460.8
28627	0.44318	3.0909	0.1	2365.1
28628	0.35455	3.3636	0.1	2453.8
28629	0.44318	3.2727	0.1	2359.6
28630	0.35455	3.5455	0.1	2441.8
28631	0.44318	3.4545	0.1	2348.3
28632	0.35455	3.7273	0.1	2424.1
28633	0.44318	3.6364	0.1	2330.7
28634	0.35455	3.9091	0.1	2399.7
28635	0.44318	3.8182	0.1	2306.1
28636	0.35455	4.0909	0.1	2367.
28637	0.44318	4.	0.1	2273.1
28638	0.35455	4.2727	0.1	2324.1
28639	0.44318	4.1818	0.1	2230.
28640	0.35455	4.4545	0.1	2267.6
28641	0.44318	4.3636	0.1	2174.
28642	0.35455	4.6364	0.1	2192.8
28643	0.44318	4.5455	0.1	2101.1
28644	0.35455	4.8182	0.1	2092.
28645	0.44318	4.7273	0.1	2005.
28646	0.35455	5.	0.1	1952.4
28647	0.44318	4.9091	0.1	1875.5
28648	0.35455	5.1818	0.1	1751.3
28649	0.44318	5.0909	0.1	1696.8
28650	0.35455	5.3636	0.1	1450.
28651	0.44318	5.2727	0.1	1443.
28652	0.35455	5.5455	0.1	988.64
28653	0.44318	5.4545	0.1	1078.6
28654	0.35455	5.7273	0.1	343.63
28655	0.44318	5.6364	0.1	571.89
28656	0.44318	5.8182	0.1	48.545
28657	0.35455	5.9091	0.1	28.66
28658	0.53182	0.27273	0.1	186.92
28659	0.62045	0.18182	0.1	12.077
28660	0.53182	9.0909e-002	0.1	-9.9384
28661	0.53182	0.45455	0.1	665.15
28662	0.62045	0.36364	0.1	390.68
28663	0.53182	0.63636	0.1	1074.6
28664	0.62045	0.54545	0.1	806.15
28665	0.53182	0.81818	0.1	1389.3
28666	0.62045	0.72727	0.1	1154.5
28667	0.53182	1.	0.1	1619.7
28668	0.62045	0.90909	0.1	1424.8
28669	0.53182	1.1818	0.1	1788.
28670	0.62045	1.0909	0.1	1628.9
28671	0.53182	1.3636	0.1	1912.8
28672	0.62045	1.2727	0.1	1783.3
28673	0.53182	1.5455	0.1	2007.2
28674	0.62045	1.4545	0.1	1901.2
28675	0.53182	1.7273	0.1	2079.7
28676	0.62045	1.6364	0.1	1992.6
28677	0.53182	1.9091	0.1	2135.9
28678	0.62045	1.8182	0.1	2064.
28679	0.53182	2.0909	0.1	2179.4
28680	0.62045	2.	0.1	2119.9
28681	0.53182	2.2727	0.1	2212.6
28682	0.62045	2.1818	0.1	2163.3
28683	0.53182	2.4545	0.1	2237.1
28684	0.62045	2.3636	0.1	2196.2
28685	0.53182	2.6364	0.1	2254.
28686	0.62045	2.5455	0.1	2220.
28687	0.53182	2.8182	0.1	2263.9
28688	0.62045	2.7273	0.1	2235.4
28689	0.53182	3.	0.1	2267.1
28690	0.62045	2.9091	0.1	2243.
28691	0.53182	3.1818	0.1	2263.9
28692	0.62045	3.0909	0.1	2243.
28693	0.53182	3.3636	0.1	2254.
28694	0.62045	3.2727	0.1	2235.4
28695	0.53182	3.5455	0.1	2237.1
28696	0.62045	3.4545	0.1	2220.
28697	0.53182	3.7273	0.1	2212.6
28698	0.62045	3.6364	0.1	2196.2
28699	0.53182	3.9091	0.1	2179.4
28700	0.62045	3.8182	0.1	2163.3
28701	0.53182	4.0909	0.1	2135.9
28702	0.62045	4.	0.1	2119.9
28703	0.53182	4.2727	0.1	2079.7
28704	0.62045	4.1818	0.1	2064.
28705	0.53182	4.4545	0.1	2007.2
28706	0.62045	4.3636	0.1	1992.6
28707	0.53182	4.6364	0.1	1912.8
28708	0.62045	4.5455	0.1	1901.2
28709	0.53182	4.8182	0.1	1788.
28710	0.62045	4.7273	0.1	1783.3
28711	0.53182	5.	0.1	1619.7
28712	0.62045	4.9091	0.1	1628.9
28713	0.53182	5.1818	0.1	1389.3
28714	0.62045	5.0909	0.1	1424.8
28715	0.53182	5.3636	0.1	1074.6
28716	0.62045	5.2727	0.1	1154.5
28717	0.53182	5.5455	0.1	665.15
28718	0.62045	5.4545	0.1	806.15
28719	0.53182	5.7273	0.1	186.92
28720	0.62045	5.6364	0.1	390.68
28721	0.62045	5.8182	0.1	12.077
28722	0.53182	5.9091	0.1	-9.9384
28723	0.70909	0.27273	0.1	149.32
28724	0.79773	0.18182	0.1	16.677
28725	0.70909	9.0909e-002	0.1	1.5991
28726	0.70909	0.45455	0.1	532.28
28727	0.79773	0.36364	0.1	308.87
28728	0.70909	0.63636	0.1	887.95
28729	0.79773	0.54545	0.1	651.06
28730	0.70909	0.81818	0.1	1191.5
28731	0.79773	0.72727	0.1	964.45
28732	0.70909	1.	0.1	1434.8
28733	0.79773	0.90909	0.1	1230.
28734	0.70909	1.1818	0.1	1624.5
28735	0.79773	1.0909	0.1	1445.4
28736	0.70909	1.3636	0.1	1771.7
28737	0.79773	1.2727	0.1	1617.1
28738	0.70909	1.5455	0.1	1886.5
28739	0.79773	1.4545	0.1	1753.6
28740	0.70909	1.7273	0.1	1976.7
28741	0.79773	1.6364	0.1	1862.3
28742	0.70909	1.9091	0.1	2047.8
28743	0.79773	1.8182	0.1	1949.1
28744	0.70909	2.0909	0.1	2103.7
28745	0.79773	2.	0.1	2018.3
28746	0.70909	2.2727	0.1	2146.9
28747	0.79773	2.1818	0.1	2072.8
28748	0.70909	2.4545	0.1	2179.1
28749	0.79773	2.3636	0.1	2114.5
28750	0.70909	2.6364	0.1	2201.4
28751	0.79773	2.5455	0.1	2144.9
28752	0.70909	2.8182	0.1	2214.6
28753	0.79773	2.7273	0.1	2164.8
28754	0.70909	3.	0.1	2218.9
28755	0.79773	2.9091	0.1	2174.6
28756	0.70909	3.1818	0.1	2214.6
28757	0.79773	3.0909	0.1	2174.6
28758	0.70909	3.3636	0.1	2201.4
28759	0.79773	3.2727	0.1	2164.8
28760	0.70909	3.5455	0.1	2179.1
28761	0.79773	3.4545	0.1	2144.9
28762	0.70909	3.7273	0.1	2146.9
28763	0.79773	3.6364	0.1	2114.5
28764	0.70909	3.9091	0.1	2103.7
28765	0.79773	3.8182	0.1	2072.8
28766	0.70909	4.0909	0.1	2047.8
28767	0.79773	4.	0.1	2018.3
28768	0.70909	4.2727	0.1	1976.7
28769	0.79773	4.1818	0.1	1949.1
28770	0.70909	4.4545	0.1	1886.5
28771	0.79773	4.3636	0.1	1862.3
28772	0.70909	4.6364	0.1	1771.7
28773	0.79773	4.5455	0.1	1753.6
28774	0.70909	4.8182	0.1	1624.5
28775	0.79773	4.7273	0.1	1617.1
28776	0.70909	5.	0.1	1434.8
28777	0.79773	4.9091	0.1	1445.4
28778	0.70909	5.1818	0.1	1191.5
28779	0.79773	5.0909	0.1	1230.
28780	0.70909	5.3636	0.1	887.95
28781	0.79773	5.2727	0.1	964.45
28782	0.70909	5.5455	0.1	532.28
28783	0.79773	5.4545	0.1	651.06
28784	0.70909	5.7273	0.1	149.32
28785	0.79773	5.6364	0.1	308.87
28786	0.79773	5.8182	0.1	16.677
28787	0.70909	5.9091	0.1	1.5991
28788	0.88636	0.27273	0.1	117.29
28789	0.975	0.18182	0.1	13.026
28790	0.88636	9.0909e-002	0.1	-1.4844
28791	0.88636	0.45455	0.1	427.21
28792	0.975	0.36364	0.1	249.76
28793	0.88636	0.63636	0.1	728.36
28794	0.975	0.54545	0.1	533.15
28795	0.88636	0.81818	0.1	1004.1
28796	0.975	0.72727	0.1	807.27
28797	0.88636	1.	0.1	1241.7
28798	0.975	0.90909	0.1	1055.1
28799	0.88636	1.1818	0.1	1438.8
28800	0.975	1.0909	0.1	1268.8
28801	0.88636	1.3636	0.1	1599.5
28802	0.975	1.2727	0.1	1448.2
28803	0.88636	1.5455	0.1	1729.6
28804	0.975	1.4545	0.1	1596.8
28805	0.88636	1.7273	0.1	1834.9
28806	0.975	1.6364	0.1	1719.2
28807	0.88636	1.9091	0.1	1919.7
28808	0.975	1.8182	0.1	1819.5
28809	0.88636	2.0909	0.1	1987.5
28810	0.975	2.	0.1	1901.
28811	0.88636	2.2727	0.1	2040.5
28812	0.975	2.1818	0.1	1966.1
28813	0.88636	2.4545	0.1	2080.5
28814	0.975	2.3636	0.1	2016.6
28815	0.88636	2.6364	0.1	2108.4
28816	0.975	2.5455	0.1	2053.6
28817	0.88636	2.8182	0.1	2124.9
28818	0.975	2.7273	0.1	2077.9
28819	0.88636	3.	0.1	2130.4
28820	0.975	2.9091	0.1	2090.
28821	0.88636	3.1818	0.1	2124.9
28822	0.975	3.0909	0.1	2090.
28823	0.88636	3.3636	0.1	2108.4
28824	0.975	3.2727	0.1	2077.9
28825	0.88636	3.5455	0.1	2080.5
28826	0.975	3.4545	0.1	2053.6
28827	0.88636	3.7273	0.1	2040.5
28828	0.975	3.6364	0.1	2016.6
28829	0.88636	3.9091	0.1	1987.5
28830	0.975	3.8182	0.1	1966.1
28831	0.88636	4.0909	0.1	1919.7
28832	0.975	4.	0.1	1901.
28833	0.88636	4.2727	0.1	1834.9
28834	0.975	4.1818	0.1	1819.5
28835	0.88636	4.4545	0.1	1729.6
28836	0.975	4.3636	0.1	1719.2
28837	0.88636	4.6364	0.1	1599.5
28838	0.975	4.5455	0.1	1596.8
28839	0.88636	4.8182	0.1	1438.8
28840	0.975	4.7273	0.1	1448.2
28841	0.88636	5.	0.1	1241.7
28842	0.975	4.9091	0.1	1268.8
28843	0.88636	5.1818	0.1	1004.1
28844	0.975	5.0909	0.1	1055.1
28845	0.88636	5.3636	0.1	728.36
28846	0.975	5.2727	0.1	807.27
28847	0.88636	5.5455	0.1	427.21
28848	0.975	5.4545	0.1	533.15
28849	0.88636	5.7273	0.1	117.29
28850	0.975	5.6364	0.1	249.76
28851	0.975	5.8182	0.1	13.026
28852	0.88636	5.9091	0.1	-1.4844
28853	1.0636	0.27273	0.1	97.493
28854	1.1523	0.18182	0.1	11.903
28855	1.0636	9.0909e-002	0.1	-0.61835
28856	1.0636	0.45455	0.1	355.08
28857	1.1523	0.36364	0.1	206.66
28858	1.0636	0.63636	0.1	612.28
28859	1.1523	0.54545	0.1	445.21
28860	1.0636	0.81818	0.1	858.89
28861	1.1523	0.72727	0.1	684.26
28862	1.0636	1.	0.1	1083.
28863	1.1523	0.90909	0.1	910.69
28864	1.0636	1.1818	0.1	1278.9
28865	1.1523	1.0909	0.1	1115.8
28866	1.0636	1.3636	0.1	1446.1
28867	1.1523	1.2727	0.1	1296.
28868	1.0636	1.5455	0.1	1586.8
28869	1.1523	1.4545	0.1	1451.5
28870	1.0636	1.7273	0.1	1704.1
28871	1.1523	1.6364	0.1	1583.7
28872	1.0636	1.9091	0.1	1801.
28873	1.1523	1.8182	0.1	1695.
28874	1.0636	2.0909	0.1	1879.7
28875	1.1523	2.	0.1	1787.3
28876	1.0636	2.2727	0.1	1942.3
28877	1.1523	2.1818	0.1	1862.3
28878	1.0636	2.4545	0.1	1989.8
28879	1.1523	2.3636	0.1	1921.1
28880	1.0636	2.6364	0.1	2023.3
28881	1.1523	2.5455	0.1	1964.6
28882	1.0636	2.8182	0.1	2043.1
28883	1.1523	2.7273	0.1	1993.3
28884	1.0636	3.	0.1	2049.7
28885	1.1523	2.9091	0.1	2007.6
28886	1.0636	3.1818	0.1	2043.1
28887	1.1523	3.0909	0.1	2007.6
28888	1.0636	3.3636	0.1	2023.3
28889	1.1523	3.2727	0.1	1993.3
28890	1.0636	3.5455	0.1	1989.8
28891	1.1523	3.4545	0.1	1964.6
28892	1.0636	3.7273	0.1	1942.3
28893	1.1523	3.6364	0.1	1921.1
28894	1.0636	3.9091	0.1	1879.7
28895	1.1523	3.8182	0.1	1862.3
28896	1.0636	4.0909	0.1	1801.
28897	1.1523	4.	0.1	1787.3
28898	1.0636	4.2727	0.1	1704.1
28899	1.1523	4.1818	0.1	1695.
28900	1.0636	4.4545	0.1	1586.8
28901	1.1523	4.3636	0.1	1583.7
28902	1.0636	4.6364	0.1	1446.1
28903	1.1523	4.5455	0.1	1451.5
28904	1.0636	4.8182	0.1	1278.9
28905	1.1523	4.7273	0.1	1296.
28906	1.0636	5.	0.1	1083.
28907	1.1523	4.9091	0.1	1115.8
28908	1.0636	5.1818	0.1	858.89
28909	1.1523	5.0909	0.1	910.69
28910	1.0636	5.3636	0.1	612.28
28911	1.1523	5.2727	0.1	684.26
28912	1.0636	5.5455	0.1	355.08
28913	1.1523	5.4545	0.1	445.21
28914	1.0636	5.7273	0.1	97.492
28915	1.1523	5.6364	0.1	206.66
28916	1.1523	5.8182	0.1	11.903
28917	1.0636	5.9091	0.1	-0.61835
28918	1.2409	0.27273	0.1	79.595
28919	1.3295	0.18182	0.1	10.017
28920	1.2409	9.0909e-002	0.1	-0.86397
28921	1.2409	0.45455	0.1	296.19
28922	1.3295	0.36364	0.1	169.88
28923	1.2409	0.63636	0.1	517.19
28924	1.3295	0.54545	0.1	372.61
28925	1.2409	0.81818	0.1	736.41
28926	1.3295	0.72727	0.1	581.38
28927	1.2409	1.	0.1	944.04
28928	1.3295	0.90909	0.1	786.41
28929	1.2409	1.1818	0.1	1133.5
28930	1.3295	1.0909	0.1	979.65
28931	1.2409	1.3636	0.1	1301.9
28932	1.3295	1.2727	0.1	1156.3
28933	1.2409	1.5455	0.1	1448.8
28934	1.3295	1.4545	0.1	1314.2
28935	1.2409	1.7273	0.1	1574.9
28936	1.3295	1.6364	0.1	1452.9
28937	1.2409	1.9091	0.1	1681.6
28938	1.3295	1.8182	0.1	1572.7
28939	1.2409	2.0909	0.1	1770.1
28940	1.3295	2.	0.1	1674.3
28941	1.2409	2.2727	0.1	1841.3
28942	1.3295	2.1818	0.1	1758.
28943	1.2409	2.4545	0.1	1896.
28944	1.3295	2.3636	0.1	1824.5
28945	1.2409	2.6364	0.1	1934.8
28946	1.3295	2.5455	0.1	1874.1
28947	1.2409	2.8182	0.1	1957.9
28948	1.3295	2.7273	0.1	1907.
28949	1.2409	3.	0.1	1965.6
28950	1.3295	2.9091	0.1	1923.4
28951	1.2409	3.1818	0.1	1957.9
28952	1.3295	3.0909	0.1	1923.4
28953	1.2409	3.3636	0.1	1934.8
28954	1.3295	3.2727	0.1	1907.
28955	1.2409	3.5455	0.1	1896.
28956	1.3295	3.4545	0.1	1874.1
28957	1.2409	3.7273	0.1	1841.3
28958	1.3295	3.6364	0.1	1824.5
28959	1.2409	3.9091	0.1	1770.1
28960	1.3295	3.8182	0.1	1758.
28961	1.2409	4.0909	0.1	1681.6
28962	1.3295	4.	0.1	1674.3
28963	1.2409	4.2727	0.1	1574.9
28964	1.3295	4.1818	0.1	1572.7
28965	1.2409	4.4545	0.1	1448.8
28966	1.3295	4.3636	0.1	1452.9
28967	1.2409	4.6364	0.1	1301.9
28968	1.3295	4.5455	0.1	1314.2
28969	1.2409	4.8182	0.1	1133.5
28970	1.3295	4.7273	0.1	1156.3
28971	1.2409	5.	0.1	944.04
28972	1.3295	4.9091	0.1	979.65
28973	1.2409	5.1818	0.1	736.41
28974	1.3295	5.0909	0.1	786.41
28975	1.2409	5.3636	0.1	517.19
28976	1.3295	5.2727	0.1	581.38
28977	1.2409	5.5455	0.1	296.19
28978	1.3295	5.4545	0.1	372.61
28979	1.2409	5.7273	0.1	79.595
28980	1.3295	5.6364	0.1	169.88
28981	1.3295	5.8182	0.1	10.017
28982	1.2409	5.9091	0.1	-0.86397
28983	1.4182	0.27273	0.1	62.626
28984	1.5068	0.18182	0.1	8.1303
28985	1.4182	9.0909e-002	0.1	-0.81685
28986	1.4182	0.45455	0.1	245.77
28987	1.5068	0.36364	0.1	136.39
28988	1.4182	0.63636	0.1	436.73
28989	1.5068	0.54545	0.1	309.5
28990	1.4182	0.81818	0.1	631.55
28991	1.5068	0.72727	0.1	492.22
28992	1.4182	1.	0.1	822.37
28993	1.5068	0.90909	0.1	677.19
28994	1.4182	1.1818	0.1	1002.9
28995	1.5068	1.0909	0.1	857.48
28996	1.4182	1.3636	0.1	1169.1
28997	1.5068	1.2727	0.1	1028.1
28998	1.4182	1.5455	0.1	1318.8
28999	1.5068	1.4545	0.1	1185.6
29000	1.4182	1.7273	0.1	1451.1
29001	1.5068	1.6364	0.1	1328.2
29002	1.4182	1.9091	0.1	1565.7
29003	1.5068	1.8182	0.1	1454.4
29004	1.4182	2.0909	0.1	1662.5
29005	1.5068	2.	0.1	1563.6
29006	1.4182	2.2727	0.1	1741.5
29007	1.5068	2.1818	0.1	1655.1
29008	1.4182	2.4545	0.1	1802.9
29009	1.5068	2.3636	0.1	1728.6
29010	1.4182	2.6364	0.1	1846.6
29011	1.5068	2.5455	0.1	1783.7
29012	1.4182	2.8182	0.1	1872.7
29013	1.5068	2.7273	0.1	1820.5
29014	1.4182	3.	0.1	1881.4
29015	1.5068	2.9091	0.1	1838.8
29016	1.4182	3.1818	0.1	1872.7
29017	1.5068	3.0909	0.1	1838.8
29018	1.4182	3.3636	0.1	1846.6
29019	1.5068	3.2727	0.1	1820.5
29020	1.4182	3.5455	0.1	1802.9
29021	1.5068	3.4545	0.1	1783.7
29022	1.4182	3.7273	0.1	1741.5
29023	1.5068	3.6364	0.1	1728.6
29024	1.4182	3.9091	0.1	1662.5
29025	1.5068	3.8182	0.1	1655.1
29026	1.4182	4.0909	0.1	1565.7
29027	1.5068	4.	0.1	1563.6
29028	1.4182	4.2727	0.1	1451.1
29029	1.5068	4.1818	0.1	1454.4
29030	1.4182	4.4545	0.1	1318.8
29031	1.5068	4.3636	0.1	1328.2
29032	1.4182	4.6364	0.1	1169.1
29033	1.5068	4.5455	0.1	1185.6
29034	1.4182	4.8182	0.1	1002.9
29035	1.5068	4.7273	0.1	1028.1
29036	1.4182	5.	0.1	822.37
29037	1.5068	4.9091	0.1	857.48
29038	1.4182	5.1818	0.1	631.55
29039	1.5068	5.0909	0.1	677.19
29040	1.4182	5.3636	0.1	436.73
29041	1.5068	5.2727	0.1	492.22
29042	1.4182	5.5455	0.1	245.77
29043	1.5068	5.4545	0.1	309.5
29044	1.4182	5.7273	0.1	62.626
29045	1.5068	5.6364	0.1	136.39
29046	1.5068	5.8182	0.1	8.1303
29047	1.4182	5.9091	0.1	-0.81685
29048	1.5955	0.27273	0.1	45.407
29049	1.6841	0.18182	0.1	6.2559
29050	1.5955	9.0909e-002	0.1	-0.82113
29051	1.5955	0.45455	0.1	199.63
29052	1.6841	0.36364	0.1	104.2
29053	1.5955	0.63636	0.1	364.9
29054	1.6841	0.54545	0.1	251.76
29055	1.5955	0.81818	0.1	537.94
29056	1.6841	0.72727	0.1	411.61
29057	1.5955	1.	0.1	712.52
29058	1.6841	0.90909	0.1	577.98
29059	1.5955	1.1818	0.1	882.98
29060	1.6841	1.0909	0.1	745.12
29061	1.5955	1.3636	0.1	1045.
29062	1.6841	1.2727	0.1	908.27
29063	1.5955	1.5455	0.1	1195.3
29064	1.6841	1.4545	0.1	1063.6
29065	1.5955	1.7273	0.1	1331.8
29066	1.6841	1.6364	0.1	1208.1
29067	1.5955	1.9091	0.1	1452.7
29068	1.6841	1.8182	0.1	1339.3
29069	1.5955	2.0909	0.1	1556.6
29070	1.6841	2.	0.1	1454.9
29071	1.5955	2.2727	0.1	1642.5
29072	1.6841	2.1818	0.1	1553.3
29073	1.5955	2.4545	0.1	1709.8
29074	1.6841	2.3636	0.1	1633.
29075	1.5955	2.6364	0.1	1758.
29076	1.6841	2.5455	0.1	1693.2
29077	1.5955	2.8182	0.1	1787.
29078	1.6841	2.7273	0.1	1733.4
29079	1.5955	3.	0.1	1796.6
29080	1.6841	2.9091	0.1	1753.5
29081	1.5955	3.1818	0.1	1787.
29082	1.6841	3.0909	0.1	1753.5
29083	1.5955	3.3636	0.1	1758.
29084	1.6841	3.2727	0.1	1733.4
29085	1.5955	3.5455	0.1	1709.8
29086	1.6841	3.4545	0.1	1693.2
29087	1.5955	3.7273	0.1	1642.5
29088	1.6841	3.6364	0.1	1633.
29089	1.5955	3.9091	0.1	1556.6
29090	1.6841	3.8182	0.1	1553.3
29091	1.5955	4.0909	0.1	1452.7
29092	1.6841	4.	0.1	1454.9
29093	1.5955	4.2727	0.1	1331.8
29094	1.6841	4.1818	0.1	1339.3
29095	1.5955	4.4545	0.1	1195.3
29096	1.6841	4.3636	0.1	1208.1
29097	1.5955	4.6364	0.1	1045.
29098	1.6841	4.5455	0.1	1063.6
29099	1.5955	4.8182	0.1	882.98
29100	1.6841	4.7273	0.1	908.27
29101	1.5955	5.	0.1	712.52
29102	1.6841	4.9091	0.1	745.12
29103	1.5955	5.1818	0.1	537.95
29104	1.6841	5.0909	0.1	577.98
29105	1.5955	5.3636	0.1	364.9
29106	1.6841	5.2727	0.1	411.61
29107	1.5955	5.5455	0.1	199.63
29108	1.6841	5.4545	0.1	251.76
29109	1.5955	5.7273	0.1	45.407
29110	1.6841	5.6364	0.1	104.2
29111	1.6841	5.8182	0.1	6.2559
29112	1.5955	5.9091	0.1	-0.82113
29113	1.7727	0.27273	0.1	28.465
29114	1.8614	0.18182	0.1	4.6766
29115	1.7727	9.0909e-002	0.1	-0.76682
29116	1.7727	0.45455	0.1	155.81
29117	1.8614	0.36364	0.1	72.625
29118	1.7727	0.63636	0.1	298.38
29119	1.8614	0.54545	0.1	197.2
29120	1.7727	0.81818	0.1	451.66
29121	1.8614	0.72727	0.1	336.3
29122	1.7727	1.	0.1	610.68
29123	1.8614	0.90909	0.1	485.12
29124	1.7727	1.1818	0.1	770.59
29125	1.8614	1.0909	0.1	639.03
29126	1.7727	1.3636	0.1	927.16
29127	1.8614	1.2727	0.1	793.87
29128	1.7727	1.5455	0.1	1076.7
29129	1.8614	1.4545	0.1	945.77
29130	1.7727	1.7273	0.1	1215.9
29131	1.8614	1.6364	0.1	1091.1
29132	1.7727	1.9091	0.1	1341.9
29133	1.8614	1.8182	0.1	1226.1
29134	1.7727	2.0909	0.1	1452.
29135	1.8614	2.	0.1	1347.4
29136	1.7727	2.2727	0.1	1544.2
29137	1.8614	2.1818	0.1	1451.9
29138	1.7727	2.4545	0.1	1616.8
29139	1.8614	2.3636	0.1	1537.3
29140	1.7727	2.6364	0.1	1669.
29141	1.8614	2.5455	0.1	1601.9
29142	1.7727	2.8182	0.1	1700.5
29143	1.8614	2.7273	0.1	1645.1
29144	1.7727	3.	0.1	1710.9
29145	1.8614	2.9091	0.1	1666.8
29146	1.7727	3.1818	0.1	1700.5
29147	1.8614	3.0909	0.1	1666.8
29148	1.7727	3.3636	0.1	1669.
29149	1.8614	3.2727	0.1	1645.1
29150	1.7727	3.5455	0.1	1616.8
29151	1.8614	3.4545	0.1	1601.9
29152	1.7727	3.7273	0.1	1544.2
29153	1.8614	3.6364	0.1	1537.3
29154	1.7727	3.9091	0.1	1452.
29155	1.8614	3.8182	0.1	1451.9
29156	1.7727	4.0909	0.1	1341.9
29157	1.8614	4.	0.1	1347.4
29158	1.7727	4.2727	0.1	1215.9
29159	1.8614	4.1818	0.1	1226.1
29160	1.7727	4.4545	0.1	1076.7
29161	1.8614	4.3636	0.1	1091.1
29162	1.7727	4.6364	0.1	927.16
29163	1.8614	4.5455	0.1	945.78
29164	1.7727	4.8182	0.1	770.59
29165	1.8614	4.7273	0.1	793.87
29166	1.7727	5.	0.1	610.68
29167	1.8614	4.9091	0.1	639.03
29168	1.7727	5.1818	0.1	451.66
29169	1.8614	5.0909	0.1	485.12
29170	1.7727	5.3636	0.1	298.38
29171	1.8614	5.2727	0.1	336.3
29172	1.7727	5.5455	0.1	155.81
29173	1.8614	5.4545	0.1	197.2
29174	1.7727	5.7273	0.1	28.465
29175	1.8614	5.6364	0.1	72.625
29176	1.8614	5.8182	0.1	4.6766
29177	1.7727	5.9091	0.1	-0.76682
29178	1.95	0.27273	0.1	14.521
29179	2.0386	0.18182	0.1	3.4972
29180	1.95	9.0909e-002	0.1	-0.68657
29181	1.95	0.45455	0.1	113.29
29182	2.0386	0.36364	0.1	42.245
29183	1.95	0.63636	0.1	235.
29184	2.0386	0.54545	0.1	144.69
29185	1.95	0.81818	0.1	369.7
29186	2.0386	0.72727	0.1	264.13
29187	1.95	1.	0.1	513.45
29188	2.0386	0.90909	0.1	395.69
29189	1.95	1.1818	0.1	662.34
29190	2.0386	1.0909	0.1	535.88
29191	1.95	1.3636	0.1	812.58
29192	2.0386	1.2727	0.1	681.45
29193	1.95	1.5455	0.1	960.3
29194	2.0386	1.4545	0.1	828.88
29195	1.95	1.7273	0.1	1101.5
29196	2.0386	1.6364	0.1	974.13
29197	1.95	1.9091	0.1	1231.9
29198	2.0386	1.8182	0.1	1112.6
29199	1.95	2.0909	0.1	1347.7
29200	2.0386	2.	0.1	1239.2
29201	1.95	2.2727	0.1	1445.5
29202	2.0386	2.1818	0.1	1349.6
29203	1.95	2.4545	0.1	1522.9
29204	2.0386	2.3636	0.1	1440.
29205	1.95	2.6364	0.1	1578.6
29206	2.0386	2.5455	0.1	1508.5
29207	1.95	2.8182	0.1	1612.1
29208	2.0386	2.7273	0.1	1554.1
29209	1.95	3.	0.1	1623.2
29210	2.0386	2.9091	0.1	1576.8
29211	1.95	3.1818	0.1	1612.1
29212	2.0386	3.0909	0.1	1576.8
29213	1.95	3.3636	0.1	1578.6
29214	2.0386	3.2727	0.1	1554.1
29215	1.95	3.5455	0.1	1522.9
29216	2.0386	3.4545	0.1	1508.5
29217	1.95	3.7273	0.1	1445.5
29218	2.0386	3.6364	0.1	1440.
29219	1.95	3.9091	0.1	1347.7
29220	2.0386	3.8182	0.1	1349.6
29221	1.95	4.0909	0.1	1231.9
29222	2.0386	4.	0.1	1239.2
29223	1.95	4.2727	0.1	1101.5
29224	2.0386	4.1818	0.1	1112.6
29225	1.95	4.4545	0.1	960.3
29226	2.0386	4.3636	0.1	974.13
29227	1.95	4.6364	0.1	812.58
29228	2.0386	4.5455	0.1	828.88
29229	1.95	4.8182	0.1	662.34
29230	2.0386	4.7273	0.1	681.45
29231	1.95	5.	0.1	513.45
29232	2.0386	4.9091	0.1	535.88
29233	1.95	5.1818	0.1	369.7
29234	2.0386	5.0909	0.1	395.69
29235	1.95	5.3636	0.1	235.
29236	2.0386	5.2727	0.1	264.13
29237	1.95	5.5455	0.1	113.29
29238	2.0386	5.4545	0.1	144.69
29239	1.95	5.7273	0.1	14.521
29240	2.0386	5.6364	0.1	42.245
29241	2.0386	5.8182	0.1	3.4972
29242	1.95	5.9091	0.1	-0.68657
29243	2.1273	0.27273	0.1	7.1465
29244	2.2159	0.18182	0.1	2.7123
29245	2.1273	9.0909e-002	0.1	-0.58876
29246	2.1273	0.45455	0.1	72.131
29247	2.2159	0.36364	0.1	17.534
29248	2.1273	0.63636	0.1	173.59
29249	2.2159	0.54545	0.1	94.158
29250	2.1273	0.81818	0.1	289.91
29251	2.2159	0.72727	0.1	193.79
29252	2.1273	1.	0.1	417.9
29253	2.2159	0.90909	0.1	307.28
29254	2.1273	1.1818	0.1	554.79
29255	2.2159	1.0909	0.1	432.34
29256	2.1273	1.3636	0.1	697.62
29257	2.2159	1.2727	0.1	567.05
29258	2.1273	1.5455	0.1	842.69
29259	2.2159	1.4545	0.1	708.77
29260	2.1273	1.7273	0.1	985.34
29261	2.2159	1.6364	0.1	853.41
29262	2.1273	1.9091	0.1	1120.1
29263	2.2159	1.8182	0.1	995.27
29264	2.1273	2.0909	0.1	1241.5
29265	2.2159	2.	0.1	1127.6
29266	2.1273	2.2727	0.1	1344.6
29267	2.2159	2.1818	0.1	1243.9
29268	2.1273	2.4545	0.1	1426.3
29269	2.2159	2.3636	0.1	1339.1
29270	2.1273	2.6364	0.1	1484.8
29271	2.2159	2.5455	0.1	1410.5
29272	2.1273	2.8182	0.1	1519.8
29273	2.2159	2.7273	0.1	1457.6
29274	2.1273	3.	0.1	1531.4
29275	2.2159	2.9091	0.1	1480.9
29276	2.1273	3.1818	0.1	1519.8
29277	2.2159	3.0909	0.1	1480.9
29278	2.1273	3.3636	0.1	1484.8
29279	2.2159	3.2727	0.1	1457.6
29280	2.1273	3.5455	0.1	1426.3
29281	2.2159	3.4545	0.1	1410.5
29282	2.1273	3.7273	0.1	1344.6
29283	2.2159	3.6364	0.1	1339.1
29284	2.1273	3.9091	0.1	1241.5
29285	2.2159	3.8182	0.1	1243.9
29286	2.1273	4.0909	0.1	1120.1
29287	2.2159	4.	0.1	1127.6
29288	2.1273	4.2727	0.1	985.34
29289	2.2159	4.1818	0.1	995.27
29290	2.1273	4.4545	0.1	842.69
29291	2.2159	4.3636	0.1	853.41
29292	2.1273	4.6364	0.1	697.62
29293	2.2159	4.5455	0.1	708.77
29294	2.1273	4.8182	0.1	554.79
29295	2.2159	4.7273	0.1	567.05
29296	2.1273	5.	0.1	417.9
29297	2.2159	4.9091	0.1	432.34
29298	2.1273	5.1818	0.1	289.91
29299	2.2159	5.0909	0.1	307.28
29300	2.1273	5.3636	0.1	173.59
29301	2.2159	5.2727	0.1	193.79
29302	2.1273	5.5455	0.1	72.131
29303	2.2159	5.4545	0.1	94.158
29304	2.1273	5.7273	0.1	7.1465
29305	2.2159	5.6364	0.1	17.534
29306	2.2159	5.8182	0.1	2.7123
29307	2.1273	5.9091	0.1	-0.58876
29308	2.3045	0.27273	0.1	4.3429
29309	2.3932	0.18182	0.1	2.2615
29310	2.3045	9.0909e-002	0.1	-0.48986
29311	2.3045	0.45455	0.1	34.728
29312	2.3932	0.36364	0.1	7.2022
29313	2.3045	0.63636	0.1	113.9
29314	2.3932	0.54545	0.1	47.698
29315	2.3045	0.81818	0.1	210.69
29316	2.3932	0.72727	0.1	124.86
29317	2.3045	1.	0.1	321.15
29318	2.3932	0.90909	0.1	217.77
29319	2.3045	1.1818	0.1	444.01
29320	2.3932	1.0909	0.1	324.69
29321	2.3045	1.3636	0.1	577.69
29322	2.3932	1.2727	0.1	445.67
29323	2.3045	1.5455	0.1	719.14
29324	2.3932	1.4545	0.1	579.7
29325	2.3045	1.7273	0.1	863.2
29326	2.3932	1.6364	0.1	723.16
29327	2.3045	1.9091	0.1	1002.8
29328	2.3932	1.8182	0.1	869.14
29329	2.3045	2.0909	0.1	1130.3
29330	2.3932	2.	0.1	1008.3
29331	2.3045	2.2727	0.1	1238.9
29332	2.3932	2.1818	0.1	1131.2
29333	2.3045	2.4545	0.1	1324.1
29334	2.3932	2.3636	0.1	1230.9
29335	2.3045	2.6364	0.1	1384.4
29336	2.3932	2.5455	0.1	1304.2
29337	2.3045	2.8182	0.1	1420.
29338	2.3932	2.7273	0.1	1351.5
29339	2.3045	3.	0.1	1431.7
29340	2.3932	2.9091	0.1	1374.3
29341	2.3045	3.1818	0.1	1420.
29342	2.3932	3.0909	0.1	1374.3
29343	2.3045	3.3636	0.1	1384.4
29344	2.3932	3.2727	0.1	1351.5
29345	2.3045	3.5455	0.1	1324.1
29346	2.3932	3.4545	0.1	1304.2
29347	2.3045	3.7273	0.1	1238.9
29348	2.3932	3.6364	0.1	1230.9
29349	2.3045	3.9091	0.1	1130.3
29350	2.3932	3.8182	0.1	1131.2
29351	2.3045	4.0909	0.1	1002.8
29352	2.3932	4.	0.1	1008.3
29353	2.3045	4.2727	0.1	863.2
29354	2.3932	4.1818	0.1	869.14
29355	2.3045	4.4545	0.1	719.14
29356	2.3932	4.3636	0.1	723.16
29357	2.3045	4.6364	0.1	577.69
29358	2.3932	4.5455	0.1	579.7
29359	2.3045	4.8182	0.1	444.01
29360	2.3932	4.7273	0.1	445.67
29361	2.3045	5.	0.1	321.15
29362	2.3932	4.9091	0.1	324.69
29363	2.3045	5.1818	0.1	210.69
29364	2.3932	5.0909	0.1	217.77
29365	2.3045	5.3636	0.1	113.9
29366	2.3932	5.2727	0.1	124.86
29367	2.3045	5.5455	0.1	34.728
29368	2.3932	5.4545	0.1	47.699
29369	2.3045	5.7273	0.1	4.3429
29370	2.3932	5.6364	0.1	7.2022
29371	2.3932	5.8182	0.1	2.2615
29372	2.3045	5.9091	0.1	-0.48986
29373	2.4818	0.27273	0.1	3.2977
29374	2.5705	0.18182	0.1	2.1044
29375	2.4818	9.0909e-002	0.1	-0.4006
29376	2.4818	0.45455	0.1	12.186
29377	2.5705	0.36364	0.1	4.708
29378	2.4818	0.63636	0.1	57.737
29379	2.5705	0.54545	0.1	16.606
29380	2.4818	0.81818	0.1	131.05
29381	2.5705	0.72727	0.1	59.355
29382	2.4818	1.	0.1	220.12
29383	2.5705	0.90909	0.1	125.5
29384	2.4818	1.1818	0.1	325.05
29385	2.5705	1.0909	0.1	208.47
29386	2.4818	1.3636	0.1	446.49
29387	2.5705	1.2727	0.1	310.47
29388	2.4818	1.5455	0.1	582.8
29389	2.5705	1.4545	0.1	433.29
29390	2.4818	1.7273	0.1	728.54
29391	2.5705	1.6364	0.1	574.7
29392	2.4818	1.9091	0.1	874.45
29393	2.5705	1.8182	0.1	726.44
29394	2.4818	2.0909	0.1	1009.5
29395	2.5705	2.	0.1	875.16
29396	2.4818	2.2727	0.1	1123.9
29397	2.5705	2.1818	0.1	1006.6
29398	2.4818	2.4545	0.1	1212.1
29399	2.5705	2.3636	0.1	1110.6
29400	2.4818	2.6364	0.1	1272.8
29401	2.5705	2.5455	0.1	1184.1
29402	2.4818	2.8182	0.1	1307.6
29403	2.5705	2.7273	0.1	1229.3
29404	2.4818	3.	0.1	1318.9
29405	2.5705	2.9091	0.1	1250.5
29406	2.4818	3.1818	0.1	1307.6
29407	2.5705	3.0909	0.1	1250.5
29408	2.4818	3.3636	0.1	1272.8
29409	2.5705	3.2727	0.1	1229.3
29410	2.4818	3.5455	0.1	1212.1
29411	2.5705	3.4545	0.1	1184.1
29412	2.4818	3.7273	0.1	1123.9
29413	2.5705	3.6364	0.1	1110.6
29414	2.4818	3.9091	0.1	1009.5
29415	2.5705	3.8182	0.1	1006.6
29416	2.4818	4.0909	0.1	874.45
29417	2.5705	4.	0.1	875.16
29418	2.4818	4.2727	0.1	728.54
29419	2.5705	4.1818	0.1	726.44
29420	2.4818	4.4545	0.1	582.8
29421	2.5705	4.3636	0.1	574.7
29422	2.4818	4.6364	0.1	446.49
29423	2.5705	4.5455	0.1	433.29
29424	2.4818	4.8182	0.1	325.05
29425	2.5705	4.7273	0.1	310.47
29426	2.4818	5.	0.1	220.12
29427	2.5705	4.9091	0.1	208.47
29428	2.4818	5.1818	0.1	131.05
29429	2.5705	5.0909	0.1	125.5
29430	2.4818	5.3636	0.1	57.737
29431	2.5705	5.2727	0.1	59.355
29432	2.4818	5.5455	0.1	12.186
29433	2.5705	5.4545	0.1	16.606
29434	2.4818	5.7273	0.1	3.2977
29435	2.5705	5.6364	0.1	4.708
29436	2.5705	5.8182	0.1	2.1044
29437	2.4818	5.9091	0.1	-0.4006
29438	2.6591	0.27273	0.1	3.0273
29439	2.7477	0.18182	0.1	2.259
29440	2.6591	9.0909e-002	0.1	-0.32451
29441	2.6591	0.45455	0.1	6.6233
29442	2.7477	0.36364	0.1	4.207
29443	2.6591	0.63636	0.1	18.528
29444	2.7477	0.54545	0.1	8.3515
29445	2.6591	0.81818	0.1	53.719
29446	2.7477	0.72727	0.1	16.947
29447	2.6591	1.	0.1	112.21
29448	2.7477	0.90909	0.1	37.905
29449	2.6591	1.1818	0.1	191.63
29450	2.7477	1.0909	0.1	81.456
29451	2.6591	1.3636	0.1	295.03
29452	2.7477	1.2727	0.1	153.08
29453	2.6591	1.5455	0.1	423.37
29454	2.7477	1.4545	0.1	257.32
29455	2.6591	1.7273	0.1	571.38
29456	2.7477	1.6364	0.1	394.5
29457	2.6591	1.9091	0.1	726.56
29458	2.7477	1.8182	0.1	554.98
29459	2.6591	2.0909	0.1	872.3
29460	2.7477	2.	0.1	718.61
29461	2.6591	2.2727	0.1	993.98
29462	2.7477	2.1818	0.1	862.33
29463	2.6591	2.4545	0.1	1084.1
29464	2.7477	2.3636	0.1	970.99
29465	2.6591	2.6364	0.1	1142.9
29466	2.7477	2.5455	0.1	1042.1
29467	2.6591	2.8182	0.1	1174.9
29468	2.7477	2.7273	0.1	1082.3
29469	2.6591	3.	0.1	1185.
29470	2.7477	2.9091	0.1	1099.8
29471	2.6591	3.1818	0.1	1174.9
29472	2.7477	3.0909	0.1	1099.8
29473	2.6591	3.3636	0.1	1142.9
29474	2.7477	3.2727	0.1	1082.3
29475	2.6591	3.5455	0.1	1084.1
29476	2.7477	3.4545	0.1	1042.1
29477	2.6591	3.7273	0.1	993.98
29478	2.7477	3.6364	0.1	970.99
29479	2.6591	3.9091	0.1	872.3
29480	2.7477	3.8182	0.1	862.33
29481	2.6591	4.0909	0.1	726.56
29482	2.7477	4.	0.1	718.61
29483	2.6591	4.2727	0.1	571.38
29484	2.7477	4.1818	0.1	554.98
29485	2.6591	4.4545	0.1	423.37
29486	2.7477	4.3636	0.1	394.5
29487	2.6591	4.6364	0.1	295.03
29488	2.7477	4.5455	0.1	257.32
29489	2.6591	4.8182	0.1	191.63
29490	2.7477	4.7273	0.1	153.08
29491	2.6591	5.	0.1	112.21
29492	2.7477	4.9091	0.1	81.456
29493	2.6591	5.1818	0.1	53.719
29494	2.7477	5.0909	0.1	37.905
29495	2.6591	5.3636	0.1	18.528
29496	2.7477	5.2727	0.1	16.947
29497	2.6591	5.5455	0.1	6.6233
29498	2.7477	5.4545	0.1	8.3515
29499	2.6591	5.7273	0.1	3.0273
29500	2.7477	5.6364	0.1	4.207
29501	2.7477	5.8182	0.1	2.259
29502	2.6591	5.9091	0.1	-0.32451
29503	2.8364	0.27273	0.1	3.2917
29504	2.925	0.18182	0.1	2.8685
29505	2.8364	9.0909e-002	0.1	-0.26911
29506	2.8364	0.45455	0.1	5.5315
29507	2.925	0.36364	0.1	4.6276
29508	2.8364	0.63636	0.1	8.6753
29509	2.925	0.54545	0.1	6.784
29510	2.8364	0.81818	0.1	12.996
29511	2.925	0.72727	0.1	8.2817
29512	2.8364	1.	0.1	21.606
29513	2.925	0.90909	0.1	9.5817
29514	2.8364	1.1818	0.1	47.406
29515	2.925	1.0909	0.1	11.785
29516	2.8364	1.3636	0.1	113.59
29517	2.925	1.2727	0.1	18.362
29518	2.8364	1.5455	0.1	225.7
29519	2.925	1.4545	0.1	51.506
29520	2.8364	1.7273	0.1	376.
29521	2.925	1.6364	0.1	163.91
29522	2.8364	1.9091	0.1	545.92
29523	2.925	1.8182	0.1	335.45
29524	2.8364	2.0909	0.1	708.58
29525	2.925	2.	0.1	524.16
29526	2.8364	2.2727	0.1	840.44
29527	2.925	2.1818	0.1	688.06
29528	2.8364	2.4545	0.1	931.35
29529	2.925	2.3636	0.1	802.09
29530	2.8364	2.6364	0.1	984.97
29531	2.925	2.5455	0.1	867.23
29532	2.8364	2.8182	0.1	1011.4
29533	2.925	2.7273	0.1	898.44
29534	2.8364	3.	0.1	1019.1
29535	2.925	2.9091	0.1	910.27
29536	2.8364	3.1818	0.1	1011.4
29537	2.925	3.0909	0.1	910.27
29538	2.8364	3.3636	0.1	984.97
29539	2.925	3.2727	0.1	898.44
29540	2.8364	3.5455	0.1	931.35
29541	2.925	3.4545	0.1	867.23
29542	2.8364	3.7273	0.1	840.44
29543	2.925	3.6364	0.1	802.09
29544	2.8364	3.9091	0.1	708.58
29545	2.925	3.8182	0.1	688.06
29546	2.8364	4.0909	0.1	545.92
29547	2.925	4.	0.1	524.16
29548	2.8364	4.2727	0.1	376.
29549	2.925	4.1818	0.1	335.45
29550	2.8364	4.4545	0.1	225.7
29551	2.925	4.3636	0.1	163.91
29552	2.8364	4.6364	0.1	113.59
29553	2.925	4.5455	0.1	51.506
29554	2.8364	4.8182	0.1	47.406
29555	2.925	4.7273	0.1	18.362
29556	2.8364	5.	0.1	21.606
29557	2.925	4.9091	0.1	11.785
29558	2.8364	5.1818	0.1	12.996
29559	2.925	5.0909	0.1	9.5817
29560	2.8364	5.3636	0.1	8.6753
29561	2.925	5.2727	0.1	8.2817
29562	2.8364	5.5455	0.1	5.5315
29563	2.925	5.4545	0.1	6.784
29564	2.8364	5.7273	0.1	3.2917
29565	2.925	5.6364	0.1	4.6276
29566	2.925	5.8182	0.1	2.8685
29567	2.8364	5.9091	0.1	-0.26911
29568	3.0136	0.27273	0.1	4.2321
29569	3.1023	0.18182	0.1	4.2241
29570	3.0136	9.0909e-002	0.1	-0.1708
29571	3.0136	0.45455	0.1	5.8383
29572	3.1023	0.36364	0.1	5.9309
29573	3.0136	0.63636	0.1	6.7912
29574	3.1023	0.54545	0.1	6.8426
29575	3.0136	0.81818	0.1	7.0463
29576	3.1023	0.72727	0.1	6.4405
29577	3.0136	1.	0.1	7.3482
29578	3.1023	0.90909	0.1	6.0094
29579	3.0136	1.1818	0.1	8.291
29580	3.1023	1.0909	0.1	5.9323
29581	3.0136	1.3636	0.1	11.197
29582	3.1023	1.2727	0.1	6.4891
29583	3.0136	1.5455	0.1	24.804
29584	3.1023	1.4545	0.1	8.1587
29585	3.0136	1.7273	0.1	123.45
29586	3.1023	1.6364	0.1	12.325
29587	3.0136	1.9091	0.1	312.22
29588	3.1023	1.8182	0.1	59.291
29589	3.0136	2.0909	0.1	503.65
29590	3.1023	2.	0.1	268.4
29591	3.0136	2.2727	0.1	651.6
29592	3.1023	2.1818	0.1	467.04
29593	3.0136	2.4545	0.1	741.79
29594	3.1023	2.3636	0.1	589.45
29595	3.0136	2.6364	0.1	786.05
29596	3.1023	2.5455	0.1	644.24
29597	3.0136	2.8182	0.1	803.59
29598	3.1023	2.7273	0.1	663.4
29599	3.0136	3.	0.1	807.96
29600	3.1023	2.9091	0.1	668.65
29601	3.0136	3.1818	0.1	803.59
29602	3.1023	3.0909	0.1	668.65
29603	3.0136	3.3636	0.1	786.05
29604	3.1023	3.2727	0.1	663.4
29605	3.0136	3.5455	0.1	741.79
29606	3.1023	3.4545	0.1	644.24
29607	3.0136	3.7273	0.1	651.6
29608	3.1023	3.6364	0.1	589.45
29609	3.0136	3.9091	0.1	503.65
29610	3.1023	3.8182	0.1	467.04
29611	3.0136	4.0909	0.1	312.22
29612	3.1023	4.	0.1	268.4
29613	3.0136	4.2727	0.1	123.45
29614	3.1023	4.1818	0.1	59.291
29615	3.0136	4.4545	0.1	24.804
29616	3.1023	4.3636	0.1	12.325
29617	3.0136	4.6364	0.1	11.197
29618	3.1023	4.5455	0.1	8.1587
29619	3.0136	4.8182	0.1	8.291
29620	3.1023	4.7273	0.1	6.4891
29621	3.0136	5.	0.1	7.3482
29622	3.1023	4.9091	0.1	5.9323
29623	3.0136	5.1818	0.1	7.0463
29624	3.1023	5.0909	0.1	6.0094
29625	3.0136	5.3636	0.1	6.7912
29626	3.1023	5.2727	0.1	6.4405
29627	3.0136	5.5455	0.1	5.8383
29628	3.1023	5.4545	0.1	6.8426
29629	3.0136	5.7273	0.1	4.2321
29630	3.1023	5.6364	0.1	5.9309
29631	3.1023	5.8182	0.1	4.2241
29632	3.0136	5.9091	0.1	-0.1708
29633	3.1909	0.27273	0.1	6.1693
29634	3.2795	0.18182	0.1	7.384
29635	3.1909	9.0909e-002	0.1	-8.7452e-002
29636	3.1909	0.45455	0.1	6.9412
29637	3.2795	0.36364	0.1	8.788
29638	3.1909	0.63636	0.1	6.3935
29639	3.2795	0.54545	0.1	7.7521
29640	3.1909	0.81818	0.1	5.574
29641	3.2795	0.72727	0.1	6.0793
29642	3.1909	1.	0.1	5.1789
29643	3.2795	0.90909	0.1	5.2176
29644	3.1909	1.1818	0.1	5.3274
29645	3.2795	1.0909	0.1	5.1041
29646	3.1909	1.3636	0.1	6.1319
29647	3.2795	1.2727	0.1	5.5334
29648	3.1909	1.5455	0.1	6.5997
29649	3.2795	1.4545	0.1	6.0801
29650	3.1909	1.7273	0.1	9.2337
29651	3.2795	1.6364	0.1	10.722
29652	3.1909	1.9091	0.1	34.968
29653	3.2795	1.8182	0.1	10.969
29654	3.1909	2.0909	0.1	232.55
29655	3.2795	2.	0.1	22.876
29656	3.1909	2.2727	0.1	408.79
29657	3.2795	2.1818	0.1	179.11
29658	3.1909	2.4545	0.1	498.72
29659	3.2795	2.3636	0.1	311.45
29660	3.1909	2.6364	0.1	530.07
29661	3.2795	2.5455	0.1	354.12
29662	3.1909	2.8182	0.1	537.5
29663	3.2795	2.7273	0.1	364.84
29664	3.1909	3.	0.1	538.49
29665	3.2795	2.9091	0.1	366.76
29666	3.1909	3.1818	0.1	537.5
29667	3.2795	3.0909	0.1	366.76
29668	3.1909	3.3636	0.1	530.07
29669	3.2795	3.2727	0.1	364.84
29670	3.1909	3.5455	0.1	498.72
29671	3.2795	3.4545	0.1	354.12
29672	3.1909	3.7273	0.1	408.79
29673	3.2795	3.6364	0.1	311.45
29674	3.1909	3.9091	0.1	232.55
29675	3.2795	3.8182	0.1	179.11
29676	3.1909	4.0909	0.1	34.968
29677	3.2795	4.	0.1	22.876
29678	3.1909	4.2727	0.1	9.2338
29679	3.2795	4.1818	0.1	10.969
29680	3.1909	4.4545	0.1	6.5997
29681	3.2795	4.3636	0.1	10.722
29682	3.1909	4.6364	0.1	6.1319
29683	3.2795	4.5455	0.1	6.0801
29684	3.1909	4.8182	0.1	5.3274
29685	3.2795	4.7273	0.1	5.5334
29686	3.1909	5.	0.1	5.1789
29687	3.2795	4.9091	0.1	5.1041
29688	3.1909	5.1818	0.1	5.574
29689	3.2795	5.0909	0.1	5.2176
29690	3.1909	5.3636	0.1	6.3935
29691	3.2795	5.2727	0.1	6.0793
29692	3.1909	5.5455	0.1	6.9412
29693	3.2795	5.4545	0.1	7.7521
29694	3.1909	5.7273	0.1	6.1693
29695	3.2795	5.6364	0.1	8.788
29696	3.2795	5.8182	0.1	7.384
29697	3.1909	5.9091	0.1	-8.745e-002
29698	3.3682	0.27273	0.1	10.644
29699	3.4568	0.18182	0.1	13.252
29700	3.3682	9.0909e-002	0.1	1.0484
29701	3.3682	0.45455	0.1	9.192
29702	3.4568	0.36364	0.1	12.144
29703	3.3682	0.63636	0.1	6.9011
29704	3.4568	0.54545	0.1	7.7303
29705	3.3682	0.81818	0.1	5.5176
29706	3.4568	0.72727	0.1	4.9368
29707	3.3682	1.	0.1	5.1709
29708	3.4568	0.90909	0.1	3.8204
29709	3.3682	1.1818	0.1	5.4961
29710	3.4568	1.0909	0.1	3.5096
29711	3.3682	1.3636	0.1	5.8443
29712	3.4568	1.2727	0.1	3.8477
29713	3.3682	1.5455	0.1	10.898
29714	3.4568	1.4545	0.1	4.8797
29715	3.3682	1.7273	0.1	14.097
29716	3.4568	1.6364	0.1	8.0549
29717	3.3682	1.9091	0.1	17.021
29718	3.4568	1.8182	0.1	-0.41176
29719	3.3682	2.0909	0.1	20.409
29720	3.4568	2.	0.1	-37.992
29721	3.3682	2.2727	0.1	89.828
29722	3.4568	2.1818	0.1	-21.709
29723	3.3682	2.4545	0.1	180.07
29724	3.4568	2.3636	0.1	6.3302
29725	3.3682	2.6364	0.1	201.93
29726	3.4568	2.5455	0.1	12.073
29727	3.3682	2.8182	0.1	206.01
29728	3.4568	2.7273	0.1	14.955
29729	3.3682	3.	0.1	206.46
29730	3.4568	2.9091	0.1	15.005
29731	3.3682	3.1818	0.1	206.01
29732	3.4568	3.0909	0.1	15.005
29733	3.3682	3.3636	0.1	201.93
29734	3.4568	3.2727	0.1	14.954
29735	3.3682	3.5455	0.1	180.07
29736	3.4568	3.4545	0.1	12.073
29737	3.3682	3.7273	0.1	89.828
29738	3.4568	3.6364	0.1	6.3302
29739	3.3682	3.9091	0.1	20.409
29740	3.4568	3.8182	0.1	-21.709
29741	3.3682	4.0909	0.1	17.021
29742	3.4568	4.	0.1	-37.992
29743	3.3682	4.2727	0.1	14.097
29744	3.4568	4.1818	0.1	-0.41176
29745	3.3682	4.4545	0.1	10.898
29746	3.4568	4.3636	0.1	8.055
29747	3.3682	4.6364	0.1	5.8443
29748	3.4568	4.5455	0.1	4.8797
29749	3.3682	4.8182	0.1	5.4961
29750	3.4568	4.7273	0.1	3.8477
29751	3.3682	5.	0.1	5.1709
29752	3.4568	4.9091	0.1	3.5096
29753	3.3682	5.1818	0.1	5.5176
29754	3.4568	5.0909	0.1	3.8204
29755	3.3682	5.3636	0.1	6.9011
29756	3.4568	5.2727	0.1	4.9368
29757	3.3682	5.5455	0.1	9.192
29758	3.4568	5.4545	0.1	7.7303
29759	3.3682	5.7273	0.1	10.644
29760	3.4568	5.6364	0.1	12.144
29761	3.4568	5.8182	0.1	13.252
29762	3.3682	5.9091	0.1	1.0484
29763	3.5455	0.27273	0.1	15.566
29764	3.6341	0.18182	0.1	30.764
29765	3.5455	9.0909e-002	0.1	2.4472
29766	3.5455	0.45455	0.1	8.6989
29767	3.6341	0.36364	0.1	17.228
29768	3.5455	0.63636	0.1	4.7765
29769	3.6341	0.54545	0.1	10.751
29770	3.5455	0.81818	0.1	2.8588
29771	3.6341	0.72727	0.1	7.8238
29772	3.5455	1.	0.1	2.0158
29773	3.6341	0.90909	0.1	6.8156
29774	3.5455	1.1818	0.1	1.8392
29775	3.6341	1.0909	0.1	7.4909
29776	3.5455	1.3636	0.1	2.9364
29777	3.6341	1.2727	0.1	6.1882
29778	3.5455	1.5455	0.1	2.1254
29779	3.6341	1.4545	0.1	19.044
29780	3.5455	1.7273	0.1	-7.2006
29781	3.6341	1.6364	0.1	-9.8274
29782	3.5455	1.9091	0.1	-55.289
29783	3.6341	1.8182	0.1	95.002
29784	3.5455	2.0909	0.1	-76.135
29785	3.6341	2.	0.1	335.15
29786	3.5455	2.2727	0.1	-22.105
29787	3.6341	2.1818	0.1	-33.976
29788	3.5455	2.4545	0.1	6.2724
29789	3.6341	2.3636	0.1	18.766
29790	3.5455	2.6364	0.1	1.1662
29791	3.6341	2.5455	0.1	-1.7734
29792	3.5455	2.8182	0.1	0.93272
29793	3.6341	2.7273	0.1	3.3284
29794	3.5455	3.	0.1	0.47751
29795	3.6341	2.9091	0.1	1.1147
29796	3.5455	3.1818	0.1	0.93272
29797	3.6341	3.0909	0.1	1.1147
29798	3.5455	3.3636	0.1	1.1662
29799	3.6341	3.2727	0.1	3.3284
29800	3.5455	3.5455	0.1	6.2724
29801	3.6341	3.4545	0.1	-1.7734
29802	3.5455	3.7273	0.1	-22.105
29803	3.6341	3.6364	0.1	18.766
29804	3.5455	3.9091	0.1	-76.135
29805	3.6341	3.8182	0.1	-33.976
29806	3.5455	4.0909	0.1	-55.289
29807	3.6341	4.	0.1	335.15
29808	3.5455	4.2727	0.1	-7.2005
29809	3.6341	4.1818	0.1	95.001
29810	3.5455	4.4545	0.1	2.1254
29811	3.6341	4.3636	0.1	-9.8274
29812	3.5455	4.6364	0.1	2.9364
29813	3.6341	4.5455	0.1	19.044
29814	3.5455	4.8182	0.1	1.8392
29815	3.6341	4.7273	0.1	6.1882
29816	3.5455	5.	0.1	2.0158
29817	3.6341	4.9091	0.1	7.4909
29818	3.5455	5.1818	0.1	2.8588
29819	3.6341	5.0909	0.1	6.8156
29820	3.5455	5.3636	0.1	4.7765
29821	3.6341	5.2727	0.1	7.8238
29822	3.5455	5.5455	0.1	8.6989
29823	3.6341	5.4545	0.1	10.751
29824	3.5455	5.7273	0.1	15.566
29825	3.6341	5.6364	0.1	17.228
29826	3.6341	5.8182	0.1	30.764
29827	3.5455	5.9091	0.1	2.4472
29828	3.7227	0.27273	0.1	27.098
29829	3.8114	0.18182	0.1	0.14308
29830	3.7227	9.0909e-002	0.1	23.24
29831	3.7227	0.45455	0.1	14.883
29832	3.8114	0.36364	0.1	-6.0294
29833	3.7227	0.63636	0.1	11.815
29834	3.8114	0.54545	0.1	-4.0435
29835	3.7227	0.81818	0.1	10.586
29836	3.8114	0.72727	0.1	-4.0209
29837	3.7227	1.	0.1	11.427
29838	3.8114	0.90909	0.1	-4.4914
29839	3.7227	1.1818	0.1	11.19
29840	3.8114	1.0909	0.1	-2.614
29841	3.7227	1.3636	0.1	21.748
29842	3.8114	1.2727	0.1	-10.218
29843	3.7227	1.5455	0.1	6.7256
29844	3.8114	1.4545	0.1	20.433
29845	3.7227	1.7273	0.1	92.103
29846	3.8114	1.6364	0.1	-100.31
29847	3.7227	1.9091	0.1	488.03
29848	3.8114	1.8182	0.1	419.31
29849	3.7227	2.0909	0.1	331.74
29850	3.8114	2.	0.1	550.27
29851	3.7227	2.2727	0.1	7.3456
29852	3.8114	2.1818	0.1	-73.143
29853	3.7227	2.4545	0.1	11.303
29854	3.8114	2.3636	0.1	38.79
29855	3.7227	2.6364	0.1	0.58759
29856	3.8114	2.5455	0.1	-1.8934
29857	3.7227	2.8182	0.1	3.5246
29858	3.8114	2.7273	0.1	5.8204
29859	3.7227	3.	0.1	1.57
29860	3.8114	2.9091	0.1	2.4676
29861	3.7227	3.1818	0.1	3.5246
29862	3.8114	3.0909	0.1	2.4676
29863	3.7227	3.3636	0.1	0.58759
29864	3.8114	3.2727	0.1	5.8204
29865	3.7227	3.5455	0.1	11.303
29866	3.8114	3.4545	0.1	-1.8934
29867	3.7227	3.7273	0.1	7.3456
29868	3.8114	3.6364	0.1	38.79
29869	3.7227	3.9091	0.1	331.74
29870	3.8114	3.8182	0.1	-73.143
29871	3.7227	4.0909	0.1	488.03
29872	3.8114	4.	0.1	550.27
29873	3.7227	4.2727	0.1	92.102
29874	3.8114	4.1818	0.1	419.31
29875	3.7227	4.4545	0.1	6.7256
29876	3.8114	4.3636	0.1	-100.31
29877	3.7227	4.6364	0.1	21.748
29878	3.8114	4.5455	0.1	20.433
29879	3.7227	4.8182	0.1	11.19
29880	3.8114	4.7273	0.1	-10.218
29881	3.7227	5.	0.1	11.427
29882	3.8114	4.9091	0.1	-2.614
29883	3.7227	5.1818	0.1	10.586
29884	3.8114	5.0909	0.1	-4.4914
29885	3.7227	5.3636	0.1	11.815
29886	3.8114	5.2727	0.1	-4.0209
29887	3.7227	5.5455	0.1	14.883
29888	3.8114	5.4545	0.1	-4.0435
29889	3.7227	5.7273	0.1	27.098
29890	3.8114	5.6364	0.1	-6.0294
29891	3.8114	5.8182	0.1	0.14308
29892	3.7227	5.9091	0.1	23.24
29893	4.0667	3.7273	0.1	-42.309
29894	3.9833	3.8182	0.1	-133.73
29895	4.0667	3.9091	0.1	706.18
29896	4.0667	3.5455	0.1	23.583
29897	3.9833	3.6364	0.1	49.977
29898	4.0667	3.3636	0.1	2.3559
29899	3.9833	3.4545	0.1	7.3049e-002
29900	4.0667	3.1818	0.1	4.0082
29901	3.9833	3.2727	0.1	5.7748
29902	4.0667	3.	0.1	2.6798
29903	3.9833	3.0909	0.1	3.0172
29904	4.0667	2.8182	0.1	4.0082
29905	3.9833	2.9091	0.1	3.0172
29906	4.0667	2.6364	0.1	2.3559
29907	3.9833	2.7273	0.1	5.7748
29908	4.0667	2.4545	0.1	23.583
29909	3.9833	2.5455	0.1	7.3036e-002
29910	4.0667	2.2727	0.1	-42.309
29911	3.9833	2.3636	0.1	49.977
29912	3.9833	2.1818	0.1	-133.73
29913	4.0667	2.0909	0.1	706.18
29914	3.9	3.7273	0.1	-47.271
29915	3.9	3.9091	0.1	697.73
29916	3.9	3.5455	0.1	25.404
29917	3.9	3.3636	0.1	3.335
29918	3.9	3.1818	0.1	4.6325
29919	3.9	3.	0.1	3.2286
29920	3.9	2.8182	0.1	4.6325
29921	3.9	2.6364	0.1	3.335
29922	3.9	2.4545	0.1	25.404
29923	3.9	2.2727	0.1	-47.271
29924	3.9	2.0909	0.1	697.73
29925	4.0667	5.7273	0.1	-16.89
29926	4.0667	5.9091	0.1	-1.2878
29927	4.0667	5.8182	5.e-002	-2.407e-014
29928	4.0667	5.5455	0.1	-19.278
29929	4.0667	5.6364	5.e-002	-5.1298e-014
29930	4.0667	5.3636	0.1	-20.524
29931	4.0667	5.4545	5.e-002	6.4142e-007
29932	4.0667	5.1818	0.1	-23.411
29933	4.0667	5.2727	5.e-002	3.1675e-007
29934	4.0667	5.	0.1	-26.74
29935	4.0667	5.0909	5.e-002	4.1306e-007
29936	4.0667	4.8182	0.1	-34.952
29937	4.0667	4.9091	5.e-002	3.7419e-007
29938	4.0667	4.6364	0.1	-39.39
29939	4.0667	4.7273	5.e-002	2.9815e-007
29940	4.0667	4.4545	0.1	-92.866
29941	4.0667	4.5455	5.e-002	4.3786e-005
29942	4.0667	4.2727	0.1	-77.75
29943	4.0667	4.3636	5.e-002	-6.7448e-005
29944	4.0667	4.0909	0.1	1544.3
29945	4.0667	4.1818	5.e-002	5.272e-004
29946	3.9833	4.	0.1	2794.3
29947	4.0667	4.	5.e-002	-3.4882e-003
29948	3.9	4.0909	0.1	1655.7
29949	3.9	4.	5.e-002	-3.4886e-003
29950	3.9	4.2727	0.1	-98.755
29951	3.9	4.1818	5.e-002	5.7839e-004
29952	3.9	4.4545	0.1	-107.95
29953	3.9	4.3636	5.e-002	-8.0802e-005
29954	3.9	4.6364	0.1	-46.095
29955	3.9	4.5455	5.e-002	4.6526e-005
29956	3.9	4.8182	0.1	-41.11
29957	3.9	4.7273	5.e-002	2.2152e-007
29958	3.9	5.	0.1	-32.16
29959	3.9	4.9091	5.e-002	1.1093e-007
29960	3.9	5.1818	0.1	-28.574
29961	3.9	5.0909	5.e-002	2.4955e-007
29962	3.9	5.3636	0.1	-25.558
29963	3.9	5.2727	5.e-002	3.2554e-007
29964	3.9	5.5455	0.1	-24.537
29965	3.9	5.4545	5.e-002	2.5322e-007
29966	3.9	5.7273	0.1	-21.77
29967	3.9	5.6364	5.e-002	5.454e-007
29968	3.9	5.9091	0.1	-1.4384
29969	3.9	5.8182	5.e-002	5.6373e-007
29970	4.0667	0.27273	0.1	-16.89
29971	4.0667	9.0909e-002	0.1	-1.2878
29972	4.0667	0.18182	5.e-002	-6.6994e-007
29973	4.0667	0.45455	0.1	-19.278
29974	4.0667	0.36364	5.e-002	-3.3291e-007
29975	4.0667	0.63636	0.1	-20.524
29976	4.0667	0.54545	5.e-002	-3.2071e-007
29977	4.0667	0.81818	0.1	-23.411
29978	4.0667	0.72727	5.e-002	-3.1675e-007
29979	4.0667	1.	0.1	-26.74
29980	4.0667	0.90909	5.e-002	4.1484e-006
29981	4.0667	1.1818	0.1	-34.952
29982	4.0667	1.0909	5.e-002	-2.9935e-007
29983	4.0667	1.3636	0.1	-39.39
29984	4.0667	1.2727	5.e-002	-2.2361e-007
29985	4.0667	1.5455	0.1	-92.866
29986	4.0667	1.4545	5.e-002	-4.208e-005
29987	4.0667	1.7273	0.1	-77.75
29988	4.0667	1.6364	5.e-002	8.6782e-005
29989	4.0667	1.9091	0.1	1544.3
29990	4.0667	1.8182	5.e-002	-5.1227e-004
29991	3.9833	2.	0.1	2794.3
29992	4.0667	2.	5.e-002	3.5433e-003
29993	3.9	1.9091	0.1	1655.7
29994	3.9	2.	5.e-002	3.2567e-003
29995	3.9	1.7273	0.1	-98.755
29996	3.9	1.8182	5.e-002	-5.4814e-004
29997	3.9	1.5455	0.1	-107.95
29998	3.9	1.6364	5.e-002	8.1128e-005
29999	3.9	1.3636	0.1	-46.095
30000	3.9	1.4545	5.e-002	-4.2594e-005
30001	3.9	1.1818	0.1	-41.11
30002	3.9	1.2727	5.e-002	-2.6929e-013
30003	3.9	1.	0.1	-32.16
30004	3.9	1.0909	5.e-002	-2.2186e-007
30005	3.9	0.81818	0.1	-28.574
30006	3.9	0.90909	5.e-002	-2.4955e-007
30007	3.9	0.63636	0.1	-25.558
30008	3.9	0.72727	5.e-002	-3.2554e-007
30009	3.9	0.45455	0.1	-24.537
30010	3.9	0.54545	5.e-002	-2.5323e-007
30011	3.9	0.27273	0.1	-21.77
30012	3.9	0.36364	5.e-002	-5.454e-007
30013	3.9	9.0909e-002	0.1	-1.4384
30014	3.9	0.18182	5.e-002	-5.6373e-007
30015	4.159	6.	0.1	22.328
30016	4.0667	6.	5.e-002	-3.161e-006
30017	4.3435	6.	0.1	-0.10288
30018	4.2512	6.	5.e-002	2.3533e-006
30019	4.5281	6.	0.1	-2.1389
30020	4.4358	6.	5.e-002	4.8894e-007
30021	4.7127	6.	0.1	-0.3082
30022	4.6204	6.	5.e-002	1.4482e-006
30023	4.8972	6.	0.1	0.45118
30024	4.8049	6.	5.e-002	1.9088e-006
30025	5.0818	6.	0.1	1.0704
30026	4.9895	6.	5.e-002	1.4298e-006
30027	5.2664	6.	0.1	1.3659
30028	5.1741	6.	5.e-002	1.0139e-006
30029	5.4509	6.	0.1	1.4607
30030	5.3586	6.	5.e-002	-1.8823e-014
30031	5.6355	6.	0.1	1.4092
30032	5.5432	6.	5.e-002	7.3776e-007
30033	5.8201	6.	0.1	1.272
30034	5.7278	6.	5.e-002	-1.9027e-007
30035	6.0046	6.	0.1	1.091
30036	5.9123	6.	5.e-002	-1.7165e-007
30037	6.1892	6.	0.1	0.89566
30038	6.0969	6.	5.e-002	-2.1204e-007
30039	6.3738	6.	0.1	0.70461
30040	6.2815	6.	5.e-002	-2.1258e-007
30041	6.5583	6.	0.1	0.52866
30042	6.466	6.	5.e-002	-2.3802e-007
30043	6.7429	6.	0.1	0.37325
30044	6.6506	6.	5.e-002	4.1957e-007
30045	6.9275	6.	0.1	0.24026
30046	6.8352	6.	5.e-002	4.9544e-007
30047	7.112	6.	0.1	0.12943
30048	7.0198	6.	5.e-002	8.5253e-007
30049	7.2966	6.	0.1	3.9251e-002
30050	7.2043	6.	5.e-002	8.1794e-007
30051	7.4812	6.	0.1	-3.2394e-002
30052	7.3889	6.	5.e-002	9.7507e-007
30053	7.6657	6.	0.1	-8.7854e-002
30054	7.5735	6.	5.e-002	1.0704e-006
30055	7.8503	6.	0.1	-0.12947
30056	7.758	6.	5.e-002	1.0614e-006
30057	8.0349	6.	0.1	-0.15946
30058	7.9426	6.	5.e-002	1.5904e-006
30059	8.2194	6.	0.1	-0.17984
30060	8.1272	6.	5.e-002	9.8729e-007
30061	8.404	6.	0.1	-0.19242
30062	8.3117	6.	5.e-002	1.6824e-006
30063	8.5886	6.	0.1	-0.19875
30064	8.4963	6.	5.e-002	1.5019e-006
30065	8.7731	6.	0.1	-0.20016
30066	8.6809	6.	5.e-002	1.5191e-006
30067	8.9577	6.	0.1	-0.19776
30068	8.8654	6.	5.e-002	1.7204e-006
30069	9.1423	6.	0.1	-0.19248
30070	9.05	6.	5.e-002	1.6594e-006
30071	9.3269	6.	0.1	-0.18508
30072	9.2346	6.	5.e-002	1.7794e-006
30073	9.5114	6.	0.1	-0.17615
30074	9.4191	6.	5.e-002	1.8223e-006
30075	9.696	6.	0.1	-0.16618
30076	9.6037	6.	5.e-002	1.9795e-006
30077	9.8806	6.	0.1	-0.15557
30078	9.7883	6.	5.e-002	2.0814e-006
30079	10.065	6.	0.1	-0.14462
30080	9.9728	6.	5.e-002	2.4398e-006
30081	10.25	6.	0.1	-0.13357
30082	10.157	6.	5.e-002	1.8444e-006
30083	10.434	6.	0.1	-0.12258
30084	10.342	6.	5.e-002	2.2026e-006
30085	10.619	6.	0.1	-0.11183
30086	10.527	6.	5.e-002	2.5128e-006
30087	10.803	6.	0.1	-0.10139
30088	10.711	6.	5.e-002	2.8e-006
30089	10.988	6.	0.1	-9.1313e-002
30090	10.896	6.	5.e-002	1.5577e-006
30091	11.173	6.	0.1	-8.1669e-002
30092	11.08	6.	5.e-002	6.6832e-006
30093	11.357	6.	0.1	-7.2489e-002
30094	11.265	6.	5.e-002	2.8601e-006
30095	11.542	6.	0.1	-6.3761e-002
30096	11.449	6.	5.e-002	-1.4311e-006
30097	11.726	6.	0.1	-5.5504e-002
30098	11.634	6.	5.e-002	4.1122e-006
30099	11.911	6.	0.1	-4.7729e-002
30100	11.819	6.	5.e-002	2.9202e-006
30101	12.095	6.	0.1	-4.0411e-002
30102	12.003	6.	5.e-002	3.0311e-006
30103	12.28	6.	0.1	-3.3528e-002
30104	12.188	6.	5.e-002	3.0992e-006
30105	12.465	6.	0.1	-2.705e-002
30106	12.372	6.	5.e-002	3.5166e-006
30107	12.649	6.	0.1	-2.0967e-002
30108	12.557	6.	5.e-002	3.3951e-006
30109	12.834	6.	0.1	-1.5274e-002
30110	12.741	6.	5.e-002	3.159e-006
30111	13.018	6.	0.1	-9.9276e-003
30112	12.926	6.	5.e-002	2.861e-006
30113	13.203	6.	0.1	-4.8977e-003
30114	13.11	6.	5.e-002	3.4586e-006
30115	13.387	6.	0.1	-1.663e-004
30116	13.295	6.	5.e-002	3.9339e-006
30117	13.572	6.	0.1	4.2748e-003
30118	13.48	6.	5.e-002	3.5762e-006
30119	13.756	6.	0.1	8.463e-003
30120	13.664	6.	5.e-002	4.3511e-006
30121	13.941	6.	0.1	1.2436e-002
30122	13.849	6.	5.e-002	3.5763e-006
30123	14.126	6.	0.1	1.6195e-002
30124	14.033	6.	5.e-002	3.3974e-006
30125	14.31	6.	0.1	1.9764e-002
30126	14.218	6.	5.e-002	4.1127e-006
30127	14.495	6.	0.1	2.3181e-002
30128	14.402	6.	5.e-002	4.6491e-006
30129	14.679	6.	0.1	2.6454e-002
30130	14.587	6.	5.e-002	3.3974e-006
30131	14.864	6.	0.1	2.959e-002
30132	14.772	6.	5.e-002	5.3047e-006
30133	15.048	6.	0.1	3.2622e-002
30134	14.956	6.	5.e-002	3.4003e-006
30135	15.233	6.	0.1	3.5575e-002
30136	15.141	6.	5.e-002	5.1823e-006
30137	15.418	6.	0.1	3.8462e-002
30138	15.325	6.	5.e-002	3.8146e-006
30139	15.602	6.	0.1	4.1288e-002
30140	15.51	6.	5.e-002	6.1429e-006
30141	15.787	6.	0.1	4.4083e-002
30142	15.694	6.	5.e-002	4.2318e-006
30143	15.971	6.	0.1	4.6874e-002
30144	15.879	6.	5.e-002	4.7085e-006
30145	16.156	6.	0.1	4.9665e-002
30146	16.064	6.	5.e-002	4.9516e-006
30147	16.34	6.	0.1	5.2473e-002
30148	16.248	6.	5.e-002	4.4701e-006
30149	16.525	6.	0.1	5.5331e-002
30150	16.433	6.	5.e-002	5.6674e-006
30151	16.71	6.	0.1	5.8246e-002
30152	16.617	6.	5.e-002	5.1257e-006
30153	16.894	6.	0.1	6.1229e-002
30154	16.802	6.	5.e-002	6.0198e-006
30155	17.079	6.	0.1	6.4308e-002
30156	16.986	6.	5.e-002	4.5892e-006
30157	17.263	6.	0.1	6.7502e-002
30158	17.171	6.	5.e-002	6.3773e-006
30159	17.448	6.	0.1	7.084e-002
30160	17.356	6.	5.e-002	5.7216e-006
30161	17.632	6.	0.1	7.4335e-002
30162	17.54	6.	5.e-002	6.0792e-006
30163	17.817	6.	0.1	7.8002e-002
30164	17.725	6.	5.e-002	5.066e-006
30165	18.002	6.	0.1	8.1874e-002
30166	17.909	6.	5.e-002	6.3178e-006
30167	18.186	6.	0.1	8.5979e-002
30168	18.094	6.	5.e-002	6.7434e-006
30169	18.371	6.	0.1	9.0336e-002
30170	18.278	6.	5.e-002	7.1612e-006
30171	18.555	6.	0.1	9.4971e-002
30172	18.463	6.	5.e-002	3.8141e-006
30173	18.74	6.	0.1	9.9918e-002
30174	18.648	6.	5.e-002	7.4988e-006
30175	18.924	6.	0.1	0.10522
30176	18.832	6.	5.e-002	6.854e-006
30177	19.109	6.	0.1	0.11089
30178	19.017	6.	5.e-002	5.9595e-006
30179	19.294	6.	0.1	0.11698
30180	19.201	6.	5.e-002	6.6748e-006
30181	19.478	6.	0.1	0.12353
30182	19.386	6.	5.e-002	7.0323e-006
30183	19.663	6.	0.1	0.13058
30184	19.57	6.	5.e-002	6.6748e-006
30185	19.847	6.	0.1	0.13818
30186	19.755	6.	5.e-002	8.1053e-006
30187	20.032	6.	0.1	0.14638
30188	19.94	6.	5.e-002	5.7214e-006
30189	20.216	6.	0.1	0.15524
30190	20.124	6.	5.e-002	7.4728e-006
30191	20.401	6.	0.1	0.16483
30192	20.309	6.	5.e-002	5.593e-006
30193	20.585	6.	0.1	0.17523
30194	20.493	6.	5.e-002	7.9141e-006
30195	20.77	6.	0.1	0.1865
30196	20.678	6.	5.e-002	9.0292e-006
30197	20.955	6.	0.1	0.19877
30198	20.862	6.	5.e-002	7.7128e-006
30199	21.139	6.	0.1	0.21214
30200	21.047	6.	5.e-002	5.8727e-006
30201	21.324	6.	0.1	0.22673
30202	21.231	6.	5.e-002	8.0165e-006
30203	21.508	6.	0.1	0.24273
30204	21.416	6.	5.e-002	1.0132e-005
30205	21.693	6.	0.1	0.26032
30206	21.601	6.	5.e-002	7.0392e-006
30207	21.877	6.	0.1	0.27974
30208	21.785	6.	5.e-002	8.9686e-006
30209	22.062	6.	0.1	0.30131
30210	21.97	6.	5.e-002	9.2148e-006
30211	22.247	6.	0.1	0.32543
30212	22.154	6.	5.e-002	4.051e-006
30213	22.431	6.	0.1	0.35265
30214	22.339	6.	5.e-002	1.2548e-005
30215	22.616	6.	0.1	0.3837
30216	22.523	6.	5.e-002	5.5226e-006
30217	22.8	6.	0.1	0.41957
30218	22.708	6.	5.e-002	9.8665e-006
30219	22.985	6.	0.1	0.46217
30220	22.893	6.	5.e-002	7.5219e-006
30221	23.169	6.	0.1	0.51241
30222	23.077	6.	5.e-002	1.0424e-005
30223	23.354	6.	0.1	0.58175
30224	23.262	6.	5.e-002	7.8029e-006
30225	23.539	6.	0.1	0.66192
30226	23.446	6.	5.e-002	7.0507e-006
30227	23.723	6.	0.1	0.88135
30228	23.631	6.	5.e-002	1.0439e-005
30229	23.908	6.	0.1	0.65839
30230	23.815	6.	5.e-002	7.0644e-006
30231	24.	5.9091	0.1	-2.3726
30232	24.	6.	5.e-002	3.942e-005
30233	24.	5.7273	0.1	-2.1783
30234	24.	5.8182	5.e-002	1.4607e-005
30235	24.	5.5455	0.1	-2.2708
30236	24.	5.6364	5.e-002	2.9954e-005
30237	24.	5.3636	0.1	-2.3871
30238	24.	5.4545	5.e-002	1.6275e-005
30239	24.	5.1818	0.1	-2.4219
30240	24.	5.2727	5.e-002	1.4291e-005
30241	24.	5.	0.1	-2.4515
30242	24.	5.0909	5.e-002	1.3049e-005
30243	24.	4.8182	0.1	-2.4711
30244	24.	4.9091	5.e-002	1.204e-005
30245	24.	4.6364	0.1	-2.4864
30246	24.	4.7273	5.e-002	1.5152e-005
30247	24.	4.4545	0.1	-2.4981
30248	24.	4.5455	5.e-002	1.1707e-005
30249	24.	4.2727	0.1	-2.5072
30250	24.	4.3636	5.e-002	1.5859e-005
30251	24.	4.0909	0.1	-2.5144
30252	24.	4.1818	5.e-002	1.3083e-005
30253	24.	3.9091	0.1	-2.52
30254	24.	4.	5.e-002	1.3698e-005
30255	24.	3.7273	0.1	-2.5243
30256	24.	3.8182	5.e-002	1.4907e-005
30257	24.	3.5455	0.1	-2.5275
30258	24.	3.6364	5.e-002	1.2101e-005
30259	24.	3.3636	0.1	-2.5297
30260	24.	3.4545	5.e-002	9.0834e-006
30261	24.	3.1818	0.1	-2.531
30262	24.	3.2727	5.e-002	1.3611e-005
30263	24.	3.	0.1	-2.5314
30264	24.	3.0909	5.e-002	1.8632e-005
30265	24.	2.8182	0.1	-2.531
30266	24.	2.9091	5.e-002	1.5635e-005
30267	24.	2.6364	0.1	-2.5297
30268	24.	2.7273	5.e-002	2.0295e-005
30269	24.	2.4545	0.1	-2.5275
30270	24.	2.5455	5.e-002	1.3638e-005
30271	24.	2.2727	0.1	-2.5243
30272	24.	2.3636	5.e-002	1.4175e-005
30273	24.	2.0909	0.1	-2.52
30274	24.	2.1818	5.e-002	1.4762e-005
30275	24.	1.9091	0.1	-2.5144
30276	24.	2.	5.e-002	1.7919e-005
30277	24.	1.7273	0.1	-2.5072
30278	24.	1.8182	5.e-002	1.8409e-005
30279	24.	1.5455	0.1	-2.4981
30280	24.	1.6364	5.e-002	1.5722e-005
30281	24.	1.3636	0.1	-2.4864
30282	24.	1.4545	5.e-002	1.5785e-005
30283	24.	1.1818	0.1	-2.4712
30284	24.	1.2727	5.e-002	1.8066e-005
30285	24.	1.	0.1	-2.4515
30286	24.	1.0909	5.e-002	1.7767e-005
30287	24.	0.81818	0.1	-2.4219
30288	24.	0.90909	5.e-002	2.2055e-005
30289	24.	0.63636	0.1	-2.3871
30290	24.	0.72727	5.e-002	2.0568e-005
30291	24.	0.45455	0.1	-2.2708
30292	24.	0.54545	5.e-002	1.7297e-005
30293	24.	0.27273	0.1	-2.1783
30294	24.	0.36364	5.e-002	1.5098e-005
30295	24.	9.0909e-002	0.1	-2.3726
30296	24.	0.18182	5.e-002	2.3926e-005
30297	2.3842e-015	0.27273	0.1	1835.8
30298	7.9472e-016	9.0909e-002	0.1	438.77
30299	1.6109e-015	0.18182	5.e-002	1.781e-004
30300	3.9736e-015	0.45455	0.1	2629.1
30301	3.2219e-015	0.36364	5.e-002	3.3036e-004
30302	5.563e-015	0.63636	0.1	3032.1
30303	4.8328e-015	0.54545	5.e-002	1.7061e-004
30304	7.1525e-015	0.81818	0.1	3281.
30305	6.4438e-015	0.72727	5.e-002	1.4828e-004
30306	8.7419e-015	1.	0.1	3449.
30307	8.0547e-015	0.90909	5.e-002	1.3869e-004
30308	1.0331e-014	1.1818	0.1	3567.5
30309	9.6657e-015	1.0909	5.e-002	1.3278e-004
30310	1.1921e-014	1.3636	0.1	3652.4
30311	1.1277e-014	1.2727	5.e-002	1.2862e-004
30312	1.351e-014	1.5455	0.1	3713.6
30313	1.2888e-014	1.4545	5.e-002	1.2431e-004
30314	1.51e-014	1.7273	0.1	3757.4
30315	1.4498e-014	1.6364	5.e-002	2.3119e-006
30316	1.6689e-014	1.9091	0.1	3788.4
30317	1.6109e-014	1.8182	5.e-002	1.2124e-004
30318	1.8279e-014	2.0909	0.1	3809.9
30319	1.772e-014	2.	5.e-002	1.2045e-004
30320	1.9868e-014	2.2727	0.1	3824.4
30321	1.9331e-014	2.1818	5.e-002	5.9183e-005
30322	2.1457e-014	2.4545	0.1	3833.7
30323	2.0942e-014	2.3636	5.e-002	5.9139e-005
30324	2.3047e-014	2.6364	0.1	3839.4
30325	2.2553e-014	2.5455	5.e-002	-1.5627e-006
30326	2.4636e-014	2.8182	0.1	3842.5
30327	2.4164e-014	2.7273	5.e-002	-1.0755e-006
30328	2.6226e-014	3.	0.1	3843.4
30329	2.5775e-014	2.9091	5.e-002	-3.6961e-007
30330	2.7815e-014	3.1818	0.1	3842.5
30331	2.7386e-014	3.0909	5.e-002	3.6134e-007
30332	2.9405e-014	3.3636	0.1	3839.4
30333	2.8997e-014	3.2727	5.e-002	1.0011e-006
30334	3.0994e-014	3.5455	0.1	3833.7
30335	3.0608e-014	3.4545	5.e-002	-5.9636e-005
30336	3.2583e-014	3.7273	0.1	3824.4
30337	3.2219e-014	3.6364	5.e-002	-5.9537e-005
30338	3.4173e-014	3.9091	0.1	3809.9
30339	3.383e-014	3.8182	5.e-002	-5.9831e-005
30340	3.5762e-014	4.0909	0.1	3788.4
30341	3.5441e-014	4.	5.e-002	-6.1031e-005
30342	3.7352e-014	4.2727	0.1	3757.4
30343	3.7052e-014	4.1818	5.e-002	-1.2258e-004
30344	3.8941e-014	4.4545	0.1	3713.6
30345	3.8663e-014	4.3636	5.e-002	-1.2519e-004
30346	4.0531e-014	4.6364	0.1	3652.4
30347	4.0274e-014	4.5455	5.e-002	-6.7489e-005
30348	4.212e-014	4.8182	0.1	3567.5
30349	4.1885e-014	4.7273	5.e-002	-1.3143e-004
30350	4.371e-014	5.	0.1	3449.
30351	4.3495e-014	4.9091	5.e-002	-1.3616e-004
30352	4.5299e-014	5.1818	0.1	3281.
30353	4.5106e-014	5.0909	5.e-002	-2.0214e-004
30354	4.6888e-014	5.3636	0.1	3032.1
30355	4.6717e-014	5.2727	5.e-002	-1.5444e-004
30356	4.8478e-014	5.5455	0.1	2629.1
30357	4.8328e-014	5.4545	5.e-002	-1.7872e-004
30358	5.0067e-014	5.7273	0.1	1835.8
30359	4.9939e-014	5.6364	5.e-002	-3.8409e-004
30360	5.1657e-014	5.9091	0.1	438.76
30361	5.155e-014	5.8182	5.e-002	-2.6042e-004
30362	23.908	0.	0.1	0.65839
30363	24.	0.	5.e-002	3.3592e-005
30364	23.723	0.	0.1	0.88135
30365	23.815	0.	5.e-002	1.9893e-006
30366	23.539	0.	0.1	0.66192
30367	23.631	0.	5.e-002	9.4466e-006
30368	23.354	0.	0.1	0.58175
30369	23.446	0.	5.e-002	9.733e-006
30370	23.169	0.	0.1	0.51241
30371	23.262	0.	5.e-002	9.2391e-006
30372	22.985	0.	0.1	0.46217
30373	23.077	0.	5.e-002	7.8799e-006
30374	22.8	0.	0.1	0.41957
30375	22.893	0.	5.e-002	7.6083e-006
30376	22.616	0.	0.1	0.3837
30377	22.708	0.	5.e-002	9.2939e-006
30378	22.431	0.	0.1	0.35265
30379	22.523	0.	5.e-002	8.8784e-006
30380	22.247	0.	0.1	0.32543
30381	22.339	0.	5.e-002	9.4808e-006
30382	22.062	0.	0.1	0.30131
30383	22.154	0.	5.e-002	4.7589e-006
30384	21.877	0.	0.1	0.27974
30385	21.97	0.	5.e-002	6.8783e-006
30386	21.693	0.	0.1	0.26032
30387	21.785	0.	5.e-002	1.0142e-005
30388	21.508	0.	0.1	0.24273
30389	21.601	0.	5.e-002	7.7479e-006
30390	21.324	0.	0.1	0.22674
30391	21.416	0.	5.e-002	1.1799e-005
30392	21.139	0.	0.1	0.21214
30393	21.231	0.	5.e-002	8.7315e-006
30394	20.955	0.	0.1	0.19877
30395	21.047	0.	5.e-002	7.898e-006
30396	20.77	0.	0.1	0.18651
30397	20.862	0.	5.e-002	9.8741e-006
30398	20.585	0.	0.1	0.17523
30399	20.678	0.	5.e-002	7.3679e-006
30400	20.401	0.	0.1	0.16484
30401	20.493	0.	5.e-002	8.9115e-006
30402	20.216	0.	0.1	0.15524
30403	20.309	0.	5.e-002	7.4423e-006
30404	20.032	0.	0.1	0.14638
30405	20.124	0.	5.e-002	6.3183e-006
30406	19.847	0.	0.1	0.13818
30407	19.94	0.	5.e-002	7.6628e-006
30408	19.663	0.	0.1	0.13058
30409	19.755	0.	5.e-002	6.2147e-006
30410	19.478	0.	0.1	0.12353
30411	19.57	0.	5.e-002	7.5107e-006
30412	19.294	0.	0.1	0.11698
30413	19.386	0.	5.e-002	5.9012e-006
30414	19.109	0.	0.1	0.11089
30415	19.201	0.	5.e-002	6.7826e-006
30416	18.924	0.	0.1	0.10522
30417	19.017	0.	5.e-002	5.6031e-006
30418	18.74	0.	0.1	9.9919e-002
30419	18.832	0.	5.e-002	6.4599e-006
30420	18.555	0.	0.1	9.4973e-002
30421	18.648	0.	5.e-002	6.1993e-006
30422	18.371	0.	0.1	9.0338e-002
30423	18.463	0.	5.e-002	6.2491e-006
30424	18.186	0.	0.1	8.5979e-002
30425	18.278	0.	5.e-002	5.1859e-006
30426	18.002	0.	0.1	8.1876e-002
30427	18.094	0.	5.e-002	7.5527e-006
30428	17.817	0.	0.1	7.8004e-002
30429	17.909	0.	5.e-002	4.522e-006
30430	17.632	0.	0.1	7.4338e-002
30431	17.725	0.	5.e-002	7.7488e-006
30432	17.448	0.	0.1	7.0842e-002
30433	17.54	0.	5.e-002	5.2381e-006
30434	17.263	0.	0.1	6.7502e-002
30435	17.356	0.	5.e-002	3.643e-006
30436	17.079	0.	0.1	6.4308e-002
30437	17.171	0.	5.e-002	7.1594e-006
30438	16.894	0.	0.1	6.1229e-002
30439	16.986	0.	5.e-002	4.4707e-006
30440	16.71	0.	0.1	5.8246e-002
30441	16.802	0.	5.e-002	6.1931e-006
30442	16.525	0.	0.1	5.5331e-002
30443	16.617	0.	5.e-002	5.3591e-006
30444	16.34	0.	0.1	5.2474e-002
30445	16.433	0.	5.e-002	4.4056e-006
30446	16.156	0.	0.1	4.9667e-002
30447	16.248	0.	5.e-002	5.7818e-006
30448	15.971	0.	0.1	4.6875e-002
30449	16.064	0.	5.e-002	4.6996e-006
30450	15.787	0.	0.1	4.4082e-002
30451	15.879	0.	5.e-002	3.5677e-006
30452	15.602	0.	0.1	4.1288e-002
30453	15.694	0.	5.e-002	4.1128e-006
30454	15.418	0.	0.1	3.8462e-002
30455	15.51	0.	5.e-002	4.4071e-006
30456	15.233	0.	0.1	3.5576e-002
30457	15.325	0.	5.e-002	5.659e-006
30458	15.048	0.	0.1	3.2623e-002
30459	15.141	0.	5.e-002	4.1128e-006
30460	14.864	0.	0.1	2.959e-002
30461	14.956	0.	5.e-002	4.53e-006
30462	14.679	0.	0.1	2.6454e-002
30463	14.772	0.	5.e-002	4.0557e-006
30464	14.495	0.	0.1	2.3181e-002
30465	14.587	0.	5.e-002	4.3557e-006
30466	14.31	0.	0.1	1.9764e-002
30467	14.402	0.	5.e-002	5.7797e-006
30468	14.126	0.	0.1	1.6196e-002
30469	14.218	0.	5.e-002	3.8147e-006
30470	13.941	0.	0.1	1.2436e-002
30471	14.033	0.	5.e-002	4.4108e-006
30472	13.756	0.	0.1	8.4633e-003
30473	13.849	0.	5.e-002	3.0994e-006
30474	13.572	0.	0.1	4.2752e-003
30475	13.664	0.	5.e-002	4.0537e-006
30476	13.387	0.	0.1	-1.6623e-004
30477	13.48	0.	5.e-002	3.8147e-006
30478	13.203	0.	0.1	-4.8971e-003
30479	13.295	0.	5.e-002	3.9935e-006
30480	13.018	0.	0.1	-9.9243e-003
30481	13.11	0.	5.e-002	3.6359e-006
30482	12.834	0.	0.1	-1.5272e-002
30483	12.926	0.	5.e-002	4.53e-006
30484	12.649	0.	0.1	-2.0969e-002
30485	12.741	0.	5.e-002	-2.3246e-006
30486	12.465	0.	0.1	-2.7051e-002
30487	12.557	0.	5.e-002	1.0014e-005
30488	12.28	0.	0.1	-3.3529e-002
30489	12.372	0.	5.e-002	2.3247e-006
30490	12.095	0.	0.1	-4.041e-002
30491	12.188	0.	5.e-002	3.2188e-006
30492	11.911	0.	0.1	-4.7733e-002
30493	12.003	0.	5.e-002	2.5633e-006
30494	11.726	0.	0.1	-5.5522e-002
30495	11.819	0.	5.e-002	3.0948e-006
30496	11.542	0.	0.1	-6.3759e-002
30497	11.634	0.	5.e-002	4.1726e-006
30498	11.357	0.	0.1	-7.2469e-002
30499	11.449	0.	5.e-002	2.5634e-006
30500	11.173	0.	0.1	-8.1665e-002
30501	11.265	0.	5.e-002	2.7423e-006
30502	10.988	0.	0.1	-9.1313e-002
30503	11.08	0.	5.e-002	2.3255e-006
30504	10.803	0.	0.1	-0.10139
30505	10.896	0.	5.e-002	2.1473e-006
30506	10.619	0.	0.1	-0.11183
30507	10.711	0.	5.e-002	3.209e-006
30508	10.434	0.	0.1	-0.12258
30509	10.527	0.	5.e-002	2.2071e-006
30510	10.25	0.	0.1	-0.13357
30511	10.342	0.	5.e-002	2.4458e-006
30512	10.065	0.	0.1	-0.14462
30513	10.157	0.	5.e-002	2.0754e-006
30514	9.8806	0.	0.1	-0.15557
30515	9.9728	0.	5.e-002	2.4477e-006
30516	9.696	0.	0.1	-0.16618
30517	9.7883	0.	5.e-002	2.03e-006
30518	9.5114	0.	0.1	-0.17615
30519	9.6037	0.	5.e-002	2.3896e-006
30520	9.3269	0.	0.1	-0.18508
30521	9.4191	0.	5.e-002	2.0923e-006
30522	9.1423	0.	0.1	-0.19248
30523	9.2346	0.	5.e-002	1.7933e-006
30524	8.9577	0.	0.1	-0.19776
30525	9.05	0.	5.e-002	1.992e-006
30526	8.7731	0.	0.1	-0.20016
30527	8.8654	0.	5.e-002	1.8182e-006
30528	8.5886	0.	0.1	-0.19875
30529	8.6809	0.	5.e-002	1.7347e-006
30530	8.404	0.	0.1	-0.19242
30531	8.4963	0.	5.e-002	1.2974e-006
30532	8.2194	0.	0.1	-0.17984
30533	8.3117	0.	5.e-002	1.4765e-006
30534	8.0349	0.	0.1	-0.15946
30535	8.1272	0.	5.e-002	1.6151e-006
30536	7.8503	0.	0.1	-0.12947
30537	7.9426	0.	5.e-002	1.6727e-006
30538	7.6657	0.	0.1	-8.7854e-002
30539	7.758	0.	5.e-002	1.6804e-006
30540	7.4812	0.	0.1	-3.2395e-002
30541	7.5735	0.	5.e-002	1.4604e-006
30542	7.2966	0.	0.1	3.9251e-002
30543	7.3889	0.	5.e-002	1.7292e-006
30544	7.112	0.	0.1	0.12943
30545	7.2043	0.	5.e-002	-5.1479e-007
30546	6.9275	0.	0.1	0.24026
30547	7.0198	0.	5.e-002	3.38e-006
30548	6.7429	0.	0.1	0.37325
30549	6.8352	0.	5.e-002	1.0669e-006
30550	6.5583	0.	0.1	0.52866
30551	6.6506	0.	5.e-002	1.5038e-006
30552	6.3738	0.	0.1	0.7046
30553	6.466	0.	5.e-002	1.617e-006
30554	6.1892	0.	0.1	0.89566
30555	6.2815	0.	5.e-002	1.3803e-006
30556	6.0046	0.	0.1	1.091
30557	6.0969	0.	5.e-002	1.4028e-006
30558	5.8201	0.	0.1	1.272
30559	5.9123	0.	5.e-002	1.0977e-006
30560	5.6355	0.	0.1	1.4092
30561	5.7278	0.	5.e-002	1.0473e-006
30562	5.4509	0.	0.1	1.4607
30563	5.5432	0.	5.e-002	9.2856e-007
30564	5.2664	0.	0.1	1.3659
30565	5.3586	0.	5.e-002	-1.8823e-014
30566	5.0818	0.	0.1	1.0704
30567	5.1741	0.	5.e-002	-1.9938e-014
30568	4.8972	0.	0.1	0.45118
30569	4.9895	0.	5.e-002	-2.0514e-014
30570	4.7127	0.	0.1	-0.3082
30571	4.8049	0.	5.e-002	-9.5517e-007
30572	4.5281	0.	0.1	-2.1389
30573	4.6204	0.	5.e-002	-1.8551e-008
30574	4.3435	0.	0.1	-0.10288
30575	4.4358	0.	5.e-002	-3.1008e-007
30576	4.159	0.	0.1	22.328
30577	4.2512	0.	5.e-002	5.7691e-007
30578	4.0667	0.	5.e-002	9.8877e-007
30579	3.8114	-1.0078e-030	0.1	28.006
30580	3.9	-1.0312e-030	5.e-002	2.6472e-006
30581	3.6341	-9.609e-031	0.1	-1.3757
30582	3.7227	0.	5.e-002	-8.5615e-015
30583	3.4568	-9.1402e-031	0.1	-4.3038
30584	3.5455	0.	5.e-002	-4.4859e-007
30585	3.2795	-8.6715e-031	0.1	-2.4019
30586	3.3682	0.	5.e-002	-1.6242e-007
30587	3.1023	-8.2028e-031	0.1	-1.6896
30588	3.1909	0.	5.e-002	-3.4763e-014
30589	2.925	-7.734e-031	0.1	-1.1165
30590	3.0136	0.	5.e-002	-2.1372e-007
30591	2.7477	-7.2653e-031	0.1	-0.92116
30592	2.8364	0.	5.e-002	-4.1333e-014
30593	2.5705	-6.7966e-031	0.1	-0.97765
30594	2.6591	0.	5.e-002	-4.3708e-014
30595	2.3932	-6.3279e-031	0.1	-1.2349
30596	2.4818	0.	5.e-002	7.8382e-009
30597	2.2159	-5.8591e-031	0.1	-1.6317
30598	2.3045	0.	5.e-002	1.2701e-008
30599	2.0386	-5.3904e-031	0.1	-2.1263
30600	2.1273	0.	5.e-002	4.1136e-008
30601	1.8614	-4.9217e-031	0.1	-2.6904
30602	1.95	0.	5.e-002	3.0713e-008
30603	1.6841	-4.4529e-031	0.1	-3.3105
30604	1.7727	0.	5.e-002	8.3931e-008
30605	1.5068	-3.9842e-031	0.1	-3.9772
30606	1.5955	0.	5.e-002	1.0625e-007
30607	1.3295	-3.5155e-031	0.1	-4.7155
30608	1.4182	0.	5.e-002	-5.6807e-007
30609	1.1523	-3.0467e-031	0.1	-5.4743
30610	1.2409	0.	5.e-002	1.4372e-007
30611	0.975	-2.578e-031	0.1	-6.4886
30612	1.0636	0.	5.e-002	2.3578e-007
30613	0.79773	-2.1093e-031	0.1	-7.1471
30614	0.88636	0.	5.e-002	1.6631e-007
30615	0.62045	-1.6406e-031	0.1	-9.0344
30616	0.70909	0.	5.e-002	2.5278e-007
30617	0.44318	-1.1718e-031	0.1	-11.988
30618	0.53182	0.	5.e-002	3.277e-007
30619	0.26591	-7.031e-032	0.1	14.241
30620	0.35455	0.	5.e-002	2.5083e-007
30621	8.8636e-002	-2.3437e-032	0.1	-146.42
30622	0.17727	0.	5.e-002	-3.7131e-005
30623	0.	0.	5.e-002	3.1161e-004
30624	8.8636e-002	6.	0.1	-146.42
30625	5.2451e-014	6.	5.e-002	-3.5588e-004
30626	0.26591	6.	0.1	14.241
30627	0.17727	6.	5.e-002	4.1899e-005
30628	0.44318	6.	0.1	-11.988
30629	0.35455	6.	5.e-002	-3.3444e-007
30630	0.62045	6.	0.1	-9.0344
30631	0.53182	6.	5.e-002	-1.6385e-007
30632	0.79773	6.	0.1	-7.1471
30633	0.70909	6.	5.e-002	-2.5278e-007
30634	0.975	6.	0.1	-6.4886
30635	0.88636	6.	5.e-002	-3.3261e-007
30636	1.1523	6.	0.1	-5.4743
30637	1.0636	6.	5.e-002	-2.3578e-007
30638	1.3295	6.	0.1	-4.7155
30639	1.2409	6.	5.e-002	-1.4372e-007
30640	1.5068	6.	0.1	-3.9772
30641	1.4182	6.	5.e-002	-1.2655e-007
30642	1.6841	6.	0.1	-3.3105
30643	1.5955	6.	5.e-002	-1.0625e-007
30644	1.8614	6.	0.1	-2.6904
30645	1.7727	6.	5.e-002	-8.3931e-008
30646	2.0386	6.	0.1	-2.1263
30647	1.95	6.	5.e-002	-6.1427e-008
30648	2.2159	6.	0.1	-1.6317
30649	2.1273	6.	5.e-002	1.5691e-007
30650	2.3932	6.	0.1	-1.2349
30651	2.3045	6.	5.e-002	-1.2701e-008
30652	2.5705	6.	0.1	-0.97765
30653	2.4818	6.	5.e-002	1.1443e-007
30654	2.7477	6.	0.1	-0.92116
30655	2.6591	6.	5.e-002	-6.2271e-009
30656	2.925	6.	0.1	-1.1165
30657	2.8364	6.	5.e-002	-4.1333e-014
30658	3.1023	6.	0.1	-1.6896
30659	3.0136	6.	5.e-002	1.1976e-008
30660	3.2795	6.	0.1	-2.4019
30661	3.1909	6.	5.e-002	-4.0078e-007
30662	3.4568	6.	0.1	-4.3038
30663	3.3682	6.	5.e-002	-6.2367e-007
30664	3.6341	6.	0.1	-1.3757
30665	3.5455	6.	5.e-002	4.4859e-007
30666	3.8114	6.	0.1	28.006
30667	3.7227	6.	5.e-002	2.6903e-006
30668	3.9	6.	5.e-002	-3.116e-006
30669	3.6341	6.	0.	1.3757
30670	3.8114	6.	0.	-28.006
30671	3.4568	6.	0.	4.3038
30672	3.2795	6.	0.	2.4019
30673	3.1023	6.	0.	1.6896
30674	2.925	6.	0.	1.1165
30675	2.7477	6.	0.	0.92116
30676	2.5705	6.	0.	0.97765
30677	2.3932	6.	0.	1.2349
30678	2.2159	6.	0.	1.6317
30679	2.0386	6.	0.	2.1263
30680	1.8614	6.	0.	2.6904
30681	1.6841	6.	0.	3.3105
30682	1.5068	6.	0.	3.9772
30683	1.3295	6.	0.	4.7155
30684	1.1523	6.	0.	5.4743
30685	0.975	6.	0.	6.4886
30686	0.79773	6.	0.	7.1471
30687	0.62045	6.	0.	9.0344
30688	0.44318	6.	0.	11.988
30689	0.26591	6.	0.	-14.241
30690	8.8636e-002	6.	0.	146.42
30691	3.9	5.9091	0.	1.4384
30692	5.1657e-014	5.9091	0.	-438.76
30693	0.26591	-7.031e-032	0.	-14.241
30694	8.8636e-002	-2.3437e-032	0.	146.42
30695	0.44318	-1.1718e-031	0.	11.988
30696	0.62045	-1.6406e-031	0.	9.0344
30697	0.79773	-2.1093e-031	0.	7.1471
30698	0.975	-2.578e-031	0.	6.4886
30699	1.1523	-3.0467e-031	0.	5.4743
30700	1.3295	-3.5155e-031	0.	4.7155
30701	1.5068	-3.9842e-031	0.	3.9772
30702	1.6841	-4.4529e-031	0.	3.3105
30703	1.8614	-4.9217e-031	0.	2.6904
30704	2.0386	-5.3904e-031	0.	2.1263
30705	2.2159	-5.8591e-031	0.	1.6317
30706	2.3932	-6.3279e-031	0.	1.2349
30707	2.5705	-6.7966e-031	0.	0.97765
30708	2.7477	-7.2653e-031	0.	0.92116
30709	2.925	-7.734e-031	0.	1.1165
30710	3.1023	-8.2028e-031	0.	1.6896
30711	3.2795	-8.6715e-031	0.	2.4019
30712	3.4568	-9.1402e-031	0.	4.3038
30713	3.6341	-9.609e-031	0.	1.3757
30714	3.8114	-1.0078e-030	0.	-28.006
30715	3.9	9.0909e-002	0.	1.4384
30716	7.9472e-016	9.0909e-002	0.	-438.76
30717	4.3435	0.	0.	0.10288
30718	4.159	0.	0.	-22.328
30719	4.5281	0.	0.	2.1389
30720	4.7127	0.	0.	0.3082
30721	4.8972	0.	0.	-0.45118
30722	5.0818	0.	0.	-1.0704
30723	5.2664	0.	0.	-1.3659
30724	5.4509	0.	0.	-1.4607
30725	5.6355	0.	0.	-1.4092
30726	5.8201	0.	0.	-1.272
30727	6.0046	0.	0.	-1.091
30728	6.1892	0.	0.	-0.89566
30729	6.3738	0.	0.	-0.7046
30730	6.5583	0.	0.	-0.52866
30731	6.7429	0.	0.	-0.37325
30732	6.9275	0.	0.	-0.24026
30733	7.112	0.	0.	-0.12943
30734	7.2966	0.	0.	-3.925e-002
30735	7.4812	0.	0.	3.2395e-002
30736	7.6657	0.	0.	8.7855e-002
30737	7.8503	0.	0.	0.12947
30738	8.0349	0.	0.	0.15946
30739	8.2194	0.	0.	0.17984
30740	8.404	0.	0.	0.19242
30741	8.5886	0.	0.	0.19875
30742	8.7731	0.	0.	0.20016
30743	8.9577	0.	0.	0.19776
30744	9.1423	0.	0.	0.19248
30745	9.3269	0.	0.	0.18508
30746	9.5114	0.	0.	0.17615
30747	9.696	0.	0.	0.16618
30748	9.8806	0.	0.	0.15557
30749	10.065	0.	0.	0.14462
30750	10.25	0.	0.	0.13357
30751	10.434	0.	0.	0.12258
30752	10.619	0.	0.	0.11183
30753	10.803	0.	0.	0.10139
30754	10.988	0.	0.	9.1313e-002
30755	11.173	0.	0.	8.1665e-002
30756	11.357	0.	0.	7.2469e-002
30757	11.542	0.	0.	6.376e-002
30758	11.726	0.	0.	5.5523e-002
30759	11.911	0.	0.	4.7734e-002
30760	12.095	0.	0.	4.041e-002
30761	12.28	0.	0.	3.3529e-002
30762	12.465	0.	0.	2.7052e-002
30763	12.649	0.	0.	2.097e-002
30764	12.834	0.	0.	1.5272e-002
30765	13.018	0.	0.	9.9259e-003
30766	13.203	0.	0.	4.8978e-003
30767	13.387	0.	0.	1.6707e-004
30768	13.572	0.	0.	-4.2745e-003
30769	13.756	0.	0.	-8.4631e-003
30770	13.941	0.	0.	-1.2436e-002
30771	14.126	0.	0.	-1.6195e-002
30772	14.31	0.	0.	-1.9763e-002
30773	14.495	0.	0.	-2.318e-002
30774	14.679	0.	0.	-2.6453e-002
30775	14.864	0.	0.	-2.959e-002
30776	15.048	0.	0.	-3.2623e-002
30777	15.233	0.	0.	-3.5576e-002
30778	15.418	0.	0.	-3.8462e-002
30779	15.602	0.	0.	-4.1287e-002
30780	15.787	0.	0.	-4.4083e-002
30781	15.971	0.	0.	-4.6876e-002
30782	16.156	0.	0.	-4.9666e-002
30783	16.34	0.	0.	-5.2472e-002
30784	16.525	0.	0.	-5.5329e-002
30785	16.71	0.	0.	-5.8245e-002
30786	16.894	0.	0.	-6.1228e-002
30787	17.079	0.	0.	-6.4308e-002
30788	17.263	0.	0.	-6.7502e-002
30789	17.448	0.	0.	-7.084e-002
30790	17.632	0.	0.	-7.4335e-002
30791	17.817	0.	0.	-7.8002e-002
30792	18.002	0.	0.	-8.1875e-002
30793	18.186	0.	0.	-8.5978e-002
30794	18.371	0.	0.	-9.0338e-002
30795	18.555	0.	0.	-9.4973e-002
30796	18.74	0.	0.	-9.9919e-002
30797	18.924	0.	0.	-0.10522
30798	19.109	0.	0.	-0.11089
30799	19.294	0.	0.	-0.11698
30800	19.478	0.	0.	-0.12353
30801	19.663	0.	0.	-0.13058
30802	19.847	0.	0.	-0.13818
30803	20.032	0.	0.	-0.14638
30804	20.216	0.	0.	-0.15524
30805	20.401	0.	0.	-0.16484
30806	20.585	0.	0.	-0.17523
30807	20.77	0.	0.	-0.1865
30808	20.955	0.	0.	-0.19877
30809	21.139	0.	0.	-0.21214
30810	21.324	0.	0.	-0.22673
30811	21.508	0.	0.	-0.24273
30812	21.693	0.	0.	-0.26032
30813	21.877	0.	0.	-0.27974
30814	22.062	0.	0.	-0.30131
30815	22.247	0.	0.	-0.32544
30816	22.431	0.	0.	-0.35264
30817	22.616	0.	0.	-0.3837
30818	22.8	0.	0.	-0.41957
30819	22.985	0.	0.	-0.46217
30820	23.169	0.	0.	-0.51241
30821	23.354	0.	0.	-0.58174
30822	23.539	0.	0.	-0.66192
30823	23.723	0.	0.	-0.88135
30824	23.908	0.	0.	-0.65839
30825	4.0667	9.0909e-002	0.	1.2878
30826	24.	9.0909e-002	0.	2.3726
30827	5.0067e-014	5.7273	0.	-1835.8
30828	4.8478e-014	5.5455	0.	-2629.1
30829	4.6888e-014	5.3636	0.	-3032.1
30830	4.5299e-014	5.1818	0.	-3281.
30831	4.371e-014	5.	0.	-3449.
30832	4.212e-014	4.8182	0.	-3567.5
30833	4.0531e-014	4.6364	0.	-3652.4
30834	3.8941e-014	4.4545	0.	-3713.6
30835	3.7352e-014	4.2727	0.	-3757.4
30836	3.5762e-014	4.0909	0.	-3788.4
30837	3.4173e-014	3.9091	0.	-3809.9
30838	3.2583e-014	3.7273	0.	-3824.4
30839	3.0994e-014	3.5455	0.	-3833.7
30840	2.9405e-014	3.3636	0.	-3839.4
30841	2.7815e-014	3.1818	0.	-3842.5
30842	2.6226e-014	3.	0.	-3843.4
30843	2.4636e-014	2.8182	0.	-3842.5
30844	2.3047e-014	2.6364	0.	-3839.4
30845	2.1457e-014	2.4545	0.	-3833.7
30846	1.9868e-014	2.2727	0.	-3824.4
30847	1.8279e-014	2.0909	0.	-3809.9
30848	1.6689e-014	1.9091	0.	-3788.4
30849	1.51e-014	1.7273	0.	-3757.4
30850	1.351e-014	1.5455	0.	-3713.6
30851	1.1921e-014	1.3636	0.	-3652.4
30852	1.0331e-014	1.1818	0.	-3567.5
30853	8.7419e-015	1.	0.	-3449.
30854	7.1525e-015	0.81818	0.	-3281.
30855	5.563e-015	0.63636	0.	-3032.1
30856	3.9736e-015	0.45455	0.	-2629.1
30857	2.3842e-015	0.27273	0.	-1835.8
30858	24.	0.27273	0.	2.1783
30859	24.	0.45455	0.	2.2708
30860	24.	0.63636	0.	2.3871
30861	24.	0.81818	0.	2.4219
30862	24.	1.	0.	2.4515
30863	24.	1.1818	0.	2.4712
30864	24.	1.3636	0.	2.4864
30865	24.	1.5455	0.	2.4981
30866	24.	1.7273	0.	2.5072
30867	24.	1.9091	0.	2.5144
30868	24.	2.0909	0.	2.52
30869	24.	2.2727	0.	2.5243
30870	24.	2.4545	0.	2.5275
30871	24.	2.6364	0.	2.5297
30872	24.	2.8182	0.	2.531
30873	24.	3.	0.	2.5314
30874	24.	3.1818	0.	2.531
30875	24.	3.3636	0.	2.5297
30876	24.	3.5455	0.	2.5275
30877	24.	3.7273	0.	2.5243
30878	24.	3.9091	0.	2.52
30879	24.	4.0909	0.	2.5144
30880	24.	4.2727	0.	2.5072
30881	24.	4.4545	0.	2.4981
30882	24.	4.6364	0.	2.4864
30883	24.	4.8182	0.	2.4712
30884	24.	5.	0.	2.4515
30885	24.	5.1818	0.	2.4219
30886	24.	5.3636	0.	2.3871
30887	24.	5.5455	0.	2.2708
30888	24.	5.7273	0.	2.1783
30889	24.	5.9091	0.	2.3726
30890	23.908	6.	0.	-0.65839
30891	23.723	6.	0.	-0.88134
30892	23.539	6.	0.	-0.66192
30893	23.354	6.	0.	-0.58175
30894	23.169	6.	0.	-0.51241
30895	22.985	6.	0.	-0.46217
30896	22.8	6.	0.	-0.41957
30897	22.616	6.	0.	-0.38371
30898	22.431	6.	0.	-0.35265
30899	22.247	6.	0.	-0.32543
30900	22.062	6.	0.	-0.30131
30901	21.877	6.	0.	-0.27974
30902	21.693	6.	0.	-0.26032
30903	21.508	6.	0.	-0.24273
30904	21.324	6.	0.	-0.22673
30905	21.139	6.	0.	-0.21214
30906	20.955	6.	0.	-0.19877
30907	20.77	6.	0.	-0.1865
30908	20.585	6.	0.	-0.17523
30909	20.401	6.	0.	-0.16483
30910	20.216	6.	0.	-0.15524
30911	20.032	6.	0.	-0.14638
30912	19.847	6.	0.	-0.13818
30913	19.663	6.	0.	-0.13058
30914	19.478	6.	0.	-0.12353
30915	19.294	6.	0.	-0.11698
30916	19.109	6.	0.	-0.11089
30917	18.924	6.	0.	-0.10522
30918	18.74	6.	0.	-9.9917e-002
30919	18.555	6.	0.	-9.497e-002
30920	18.371	6.	0.	-9.0336e-002
30921	18.186	6.	0.	-8.5977e-002
30922	18.002	6.	0.	-8.1874e-002
30923	17.817	6.	0.	-7.8003e-002
30924	17.632	6.	0.	-7.4335e-002
30925	17.448	6.	0.	-7.084e-002
30926	17.263	6.	0.	-6.7501e-002
30927	17.079	6.	0.	-6.4307e-002
30928	16.894	6.	0.	-6.1229e-002
30929	16.71	6.	0.	-5.8246e-002
30930	16.525	6.	0.	-5.5331e-002
30931	16.34	6.	0.	-5.2472e-002
30932	16.156	6.	0.	-4.9665e-002
30933	15.971	6.	0.	-4.6874e-002
30934	15.787	6.	0.	-4.4082e-002
30935	15.602	6.	0.	-4.1288e-002
30936	15.418	6.	0.	-3.8461e-002
30937	15.233	6.	0.	-3.5574e-002
30938	15.048	6.	0.	-3.2621e-002
30939	14.864	6.	0.	-2.9588e-002
30940	14.679	6.	0.	-2.6452e-002
30941	14.495	6.	0.	-2.3179e-002
30942	14.31	6.	0.	-1.9763e-002
30943	14.126	6.	0.	-1.6195e-002
30944	13.941	6.	0.	-1.2436e-002
30945	13.756	6.	0.	-8.4629e-003
30946	13.572	6.	0.	-4.2744e-003
30947	13.387	6.	0.	1.6678e-004
30948	13.203	6.	0.	4.8975e-003
30949	13.018	6.	0.	9.9271e-003
30950	12.834	6.	0.	1.5274e-002
30951	12.649	6.	0.	2.0968e-002
30952	12.465	6.	0.	2.705e-002
30953	12.28	6.	0.	3.3529e-002
30954	12.095	6.	0.	4.0411e-002
30955	11.911	6.	0.	4.773e-002
30956	11.726	6.	0.	5.5504e-002
30957	11.542	6.	0.	6.376e-002
30958	11.357	6.	0.	7.2489e-002
30959	11.173	6.	0.	8.167e-002
30960	10.988	6.	0.	9.1313e-002
30961	10.803	6.	0.	0.10139
30962	10.619	6.	0.	0.11183
30963	10.434	6.	0.	0.12258
30964	10.25	6.	0.	0.13357
30965	10.065	6.	0.	0.14462
30966	9.8806	6.	0.	0.15557
30967	9.696	6.	0.	0.16618
30968	9.5114	6.	0.	0.17615
30969	9.3269	6.	0.	0.18508
30970	9.1423	6.	0.	0.19248
30971	8.9577	6.	0.	0.19776
30972	8.7731	6.	0.	0.20016
30973	8.5886	6.	0.	0.19875
30974	8.404	6.	0.	0.19242
30975	8.2194	6.	0.	0.17984
30976	8.0349	6.	0.	0.15946
30977	7.8503	6.	0.	0.12947
30978	7.6657	6.	0.	8.7853e-002
30979	7.4812	6.	0.	3.2394e-002
30980	7.2966	6.	0.	-3.9251e-002
30981	7.112	6.	0.	-0.12943
30982	6.9275	6.	0.	-0.24026
30983	6.7429	6.	0.	-0.37325
30984	6.5583	6.	0.	-0.52866
30985	6.3738	6.	0.	-0.70461
30986	6.1892	6.	0.	-0.89566
30987	6.0046	6.	0.	-1.091
30988	5.8201	6.	0.	-1.272
30989	5.6355	6.	0.	-1.4092
30990	5.4509	6.	0.	-1.4607
30991	5.2664	6.	0.	-1.3659
30992	5.0818	6.	0.	-1.0704
30993	4.8972	6.	0.	-0.45118
30994	4.7127	6.	0.	0.3082
30995	4.5281	6.	0.	2.1389
30996	4.3435	6.	0.	0.10288
30997	4.159	6.	0.	-22.328
30998	4.0667	5.9091	0.	1.2878
30999	3.9	1.7273	0.	98.755
31000	3.9	1.9091	0.	-1655.7
31001	3.9	1.5455	0.	107.95
31002	3.9	1.3636	0.	46.095
31003	3.9	1.1818	0.	41.11
31004	3.9	1.	0.	32.16
31005	3.9	0.81818	0.	28.574
31006	3.9	0.63636	0.	25.558
31007	3.9	0.45455	0.	24.537
31008	3.9	0.27273	0.	21.77
31009	3.9833	2.	0.	-2794.3
31010	4.0667	0.27273	0.	16.89
31011	4.0667	0.45455	0.	19.278
31012	4.0667	0.63636	0.	20.524
31013	4.0667	0.81818	0.	23.411
31014	4.0667	1.	0.	26.74
31015	4.0667	1.1818	0.	34.952
31016	4.0667	1.3636	0.	39.39
31017	4.0667	1.5455	0.	92.866
31018	4.0667	1.7273	0.	77.75
31019	4.0667	1.9091	0.	-1544.3
31020	3.9	4.2727	0.	98.755
31021	3.9	4.0909	0.	-1655.7
31022	3.9	4.4545	0.	107.95
31023	3.9	4.6364	0.	46.095
31024	3.9	4.8182	0.	41.11
31025	3.9	5.	0.	32.16
31026	3.9	5.1818	0.	28.574
31027	3.9	5.3636	0.	25.558
31028	3.9	5.5455	0.	24.537
31029	3.9	5.7273	0.	21.77
31030	3.9833	4.	0.	-2794.3
31031	4.0667	5.7273	0.	16.89
31032	4.0667	5.5455	0.	19.278
31033	4.0667	5.3636	0.	20.524
31034	4.0667	5.1818	0.	23.411
31035	4.0667	5.	0.	26.74
31036	4.0667	4.8182	0.	34.952
31037	4.0667	4.6364	0.	39.39
31038	4.0667	4.4545	0.	92.866
31039	4.0667	4.2727	0.	77.75
31040	4.0667	4.0909	0.	-1544.3
