Node Number	X Location (in)	Y Location (in)	Z Location (in)	Maximum Principal Stress (psi)
1	18.092	3.3064	0.	1179.1
2	17.791	2.8014	0.	507.88
3	17.035	3.0191	0.	711.33
4	15.87	1.8839	0.	243.57
5	18.252	2.9517	0.	1043.5
6	18.005	3.3659	0.	1286.8
7	21.461	2.7178	0.	-0.7515
8	19.848	3.4553	0.	297.12
9	4.8812	3.0877	0.	1076.3
10	9.4175	3.0237	0.	-57.424
11	13.398	3.0613	0.	381.78
12	18.907	3.2631	0.	954.88
13	17.545	3.1044	0.	1237.9
14	17.545	3.1044	0.1	1464.4
15	18.907	3.2631	0.1	1125.2
16	13.398	3.0613	0.1	1355.
17	9.4175	3.0237	0.1	3384.4
18	4.8812	3.0877	0.1	4039.3
19	19.848	3.4553	0.1	685.6
20	21.461	2.7178	0.1	461.24
21	18.005	3.3659	0.1	2353.6
22	18.252	2.9517	0.1	2314.1
23	15.87	1.8839	0.1	1521.2
24	17.035	3.0191	0.1	1736.
25	17.791	2.8014	0.1	2273.2
26	18.092	3.3064	0.1	2628.7
27	18.167	1.	0.1	1427.3
28	18.167	1.5	0.1	2574.9
29	18.167	2.	0.1	4953.8
30	18.	2.	0.1	4152.6
31	18.	1.5	0.1	1854.8
32	18.	1.	0.1	1883.4
33	18.167	5.	0.1	1303.8
34	18.167	4.5	0.1	2491.4
35	18.167	4.	0.1	5485.7
36	18.	4.	0.1	6540.
37	18.	4.5	0.1	2861.1
38	18.	5.	0.1	2630.1
39	18.167	6.	0.1	736.75
40	20.111	6.	0.1	534.12
41	22.056	6.	0.1	302.96
42	24.	6.	0.1	246.57
43	24.	3.	0.1	299.05
44	2.6226e-014	3.	0.1	6998.
45	3.937e-014	6.	0.1	6806.8
46	5.625	6.	0.1	3911.5
47	11.25	6.	0.1	2800.5
48	15.188	6.	0.1	666.85
49	18.	6.	0.1	2184.6
50	24.	0.	0.1	306.42
51	21.083	0.	0.1	412.72
52	18.167	0.	0.1	610.16
53	18.	0.	0.1	1265.8
54	15.75	2.4415e-030	0.1	954.75
55	13.5	2.0927e-030	0.1	1777.6
56	9.	1.3952e-030	0.1	3844.6
57	4.5	6.9758e-031	0.1	4277.7
58	0.	0.	0.1	6470.2
59	4.5	6.9758e-031	0.	974.58
60	9.	1.3952e-030	0.	4.6053
61	13.5	2.0927e-030	0.	479.12
62	15.75	2.4415e-030	0.	371.57
63	18.	0.	0.	275.17
64	0.	0.	0.	-2997.5
65	21.083	0.	0.	61.766
66	18.167	0.	0.	-23.991
67	24.	0.	0.	12.936
68	15.188	6.	0.	1014.
69	11.25	6.	0.	-6.742
70	5.625	6.	0.	1037.7
71	18.	6.	0.	568.72
72	3.937e-014	6.	0.	-3234.3
73	2.6226e-014	3.	0.	-3410.1
74	24.	3.	0.	-1.0644
75	24.	6.	0.	25.672
76	22.056	6.	0.	63.73
77	20.111	6.	0.	171.26
78	18.167	6.	0.	-51.238
79	18.	4.5	0.	447.15
80	18.	5.	0.	478.
81	18.	4.	0.	-318.43
82	18.167	5.	0.	-54.181
83	18.167	4.5	0.	-10.1
84	18.167	4.	0.	-202.89
85	18.	1.5	0.	378.13
86	18.	1.	0.	92.043
87	18.	2.	0.	299.71
88	18.167	1.	0.	-80.9
89	18.167	1.5	0.	-243.61
90	18.167	2.	0.	-69.268
91	18.172	3.1291	0.	1106.3
92	18.049	3.3362	0.	1230.3
93	18.092	3.3064	5.e-002	287.19
94	18.129	3.6532	0.	210.79
95	18.022	2.8766	0.	770.88
96	17.898	3.0837	0.	892.59
97	17.668	2.9529	0.	867.85
98	17.791	2.8014	5.e-002	115.73
99	17.895	2.4007	0.	395.7
100	16.452	2.4515	0.	474.95
101	17.29	3.0618	0.	937.62
102	17.035	3.0191	5.e-002	240.74
103	17.517	3.7595	0.	463.62
104	17.517	4.0095	0.	336.66
105	17.517	2.5095	0.	463.48
106	14.634	2.4726	0.	306.38
107	15.87	1.8839	5.e-002	144.59
108	15.81	0.94195	0.	294.38
109	16.935	1.692	0.	258.82
110	16.935	1.442	0.	38.898
111	18.58	3.1074	0.	996.87
112	18.252	2.9517	5.e-002	61.213
113	18.209	2.4759	0.	30.541
114	18.005	3.3659	5.e-002	198.28
115	18.003	3.683	0.	386.
116	20.655	3.0866	0.	145.31
117	21.461	2.7178	5.e-002	8.5863
118	21.272	1.3589	0.	28.978
119	22.731	2.8589	0.	-1.8056
120	21.758	4.3589	0.	28.843
121	19.814	1.8589	0.	-49.745
122	19.378	3.3592	0.	624.73
123	19.848	3.4553	5.e-002	23.592
124	19.98	4.7276	0.	226.38
125	19.007	4.2276	0.	14.093
126	19.007	3.9776	0.	23.16
127	19.007	2.4776	0.	-95.649
128	7.1493	3.0557	0.	463.85
129	4.8812	3.0877	5.e-002	74.571
130	4.6906	1.5439	0.	1023.7
131	5.2531	4.5439	0.	1056.
132	2.4406	3.0439	0.	-1173.9
133	11.408	3.0425	0.	149.86
134	9.4175	3.0237	5.e-002	43.001
135	9.2087	1.5118	0.	-68.655
136	10.334	4.5118	0.	-34.445
137	13.398	3.0613	5.e-002	31.044
138	13.449	1.5307	0.	425.1
139	14.293	4.5307	0.	674.43
140	15.699	4.0307	0.	328.81
141	18.907	3.2631	5.e-002	65.278
142	18.537	3.6316	0.	180.74
143	18.537	2.6316	0.	-13.524
144	17.545	3.1044	5.e-002	151.72
145	17.773	3.5522	0.	337.38
146	17.29	3.0618	0.1	1592.3
147	17.668	2.9529	0.1	1854.3
148	17.773	3.5522	0.1	3987.5
149	19.378	3.3592	0.1	904.29
150	18.58	3.1074	0.1	1715.5
151	18.537	2.6316	0.1	2927.7
152	18.537	3.6316	0.1	3276.9
153	11.408	3.0425	0.1	2359.4
154	14.634	2.4726	0.1	1435.1
155	15.699	4.0307	0.1	1906.4
156	14.293	4.5307	0.1	990.89
157	13.449	1.5307	0.1	1565.5
158	7.1493	3.0557	0.1	3709.
159	10.334	4.5118	0.1	3091.1
160	9.2087	1.5118	0.1	3614.3
161	2.4406	3.0439	0.1	5508.8
162	5.2531	4.5439	0.1	3968.2
163	4.6906	1.5439	0.1	4154.4
164	20.655	3.0866	0.1	570.74
165	19.007	2.4776	0.1	1532.5
166	19.007	4.2276	0.1	960.8
167	19.007	3.9776	0.1	1507.
168	19.98	4.7276	0.1	602.34
169	19.814	1.8589	0.1	917.58
170	21.758	4.3589	0.1	379.69
171	22.731	2.8589	0.1	380.
172	21.272	1.3589	0.1	435.96
173	17.898	3.0837	0.1	2312.7
174	18.049	3.3362	0.1	2470.6
175	18.003	3.683	0.1	4441.2
176	18.022	2.8766	0.1	2289.9
177	18.172	3.1291	0.1	2462.6
178	18.209	2.4759	0.1	3521.8
179	16.452	2.4515	0.1	1627.3
180	16.935	1.692	0.1	1632.7
181	16.935	1.442	0.1	1639.4
182	15.81	0.94195	0.1	1235.
183	17.517	2.5095	0.1	2939.9
184	17.517	3.7595	0.1	2203.6
185	17.517	4.0095	0.1	2015.6
186	17.895	2.4007	0.1	3208.2
187	18.129	3.6532	0.1	3949.7
188	18.167	1.25	0.1	2000.9
189	18.167	0.5	0.1	1017.9
190	18.167	1.	5.e-002	26.271
191	18.167	1.75	0.1	3753.4
192	18.167	1.5	5.e-002	45.846
193	18.083	2.	0.1	4404.6
194	18.167	2.	5.e-002	213.56
195	18.	1.75	0.1	2954.3
196	18.	2.	5.e-002	77.219
197	18.	1.25	0.1	1867.9
198	18.	1.5	5.e-002	107.1
199	18.	0.5	0.1	1455.8
200	18.	1.	5.e-002	150.41
201	18.167	4.75	0.1	1889.7
202	18.167	5.5	0.1	967.86
203	18.167	5.	5.e-002	67.954
204	18.167	4.25	0.1	3907.3
205	18.167	4.5	5.e-002	84.261
206	18.083	4.	0.1	5828.2
207	18.167	4.	5.e-002	308.68
208	18.	4.25	0.1	4631.6
209	18.	4.	5.e-002	452.53
210	18.	4.75	0.1	2723.
211	18.	4.5	5.e-002	191.57
212	18.	5.5	0.1	2377.
213	18.	5.	5.e-002	194.25
214	19.139	6.	0.1	611.92
215	18.167	6.	5.e-002	35.921
216	21.083	6.	0.1	415.05
217	20.111	6.	5.e-002	24.402
218	23.028	6.	0.1	274.44
219	22.056	6.	5.e-002	2.4753
220	24.	4.5	0.1	272.53
221	24.	6.	5.e-002	16.055
222	24.	1.5	0.1	300.76
223	24.	3.	5.e-002	6.3577
224	3.9339e-014	4.5	0.1	6852.1
225	1.3113e-014	1.5	0.1	6661.7
226	2.6581e-014	3.	5.e-002	340.06
227	2.8125	6.	0.1	5335.8
228	5.2451e-014	6.	5.e-002	500.96
229	8.4375	6.	0.1	3355.9
230	5.625	6.	5.e-002	84.012
231	13.219	6.	0.1	1725.4
232	11.25	6.	5.e-002	41.458
233	16.594	6.	0.1	1106.9
234	15.188	6.	5.e-002	97.783
235	18.	6.	5.e-002	307.77
236	22.542	0.	0.1	359.49
237	24.	0.	5.e-002	7.1159
238	19.625	0.	0.1	503.67
239	21.083	0.	5.e-002	3.3621
240	18.167	0.	5.e-002	13.439
241	16.875	2.6159e-030	0.1	1103.6
242	18.	2.7903e-030	5.e-002	107.75
243	14.625	2.2671e-030	0.1	1364.6
244	15.75	0.	5.e-002	71.406
245	11.25	1.744e-030	0.1	2787.7
246	13.5	0.	5.e-002	38.279
247	6.75	1.0464e-030	0.1	4049.8
248	9.	0.	5.e-002	65.315
249	2.25	3.4879e-031	0.1	5321.1
250	4.5	0.	5.e-002	125.07
251	0.	0.	5.e-002	647.5
252	6.75	1.0464e-030	0.	487.96
253	2.25	3.4879e-031	0.	-1063.9
254	11.25	1.744e-030	0.	178.99
255	14.625	2.2671e-030	0.	420.21
256	16.875	2.6159e-030	0.	92.835
257	18.	0.5	0.	179.4
258	1.3113e-014	1.5	0.	-3276.8
259	19.625	0.	0.	-4.7492
260	22.542	0.	0.	37.094
261	18.167	0.5	0.	-54.314
262	24.	1.5	0.	3.5419
263	13.219	6.	0.	494.64
264	16.594	6.	0.	467.21
265	8.4375	6.	0.	417.96
266	2.8125	6.	0.	-1135.3
267	18.	5.5	0.	489.31
268	3.9339e-014	4.5	0.	-3368.3
269	24.	4.5	0.	11.772
270	23.028	6.	0.	43.333
271	21.083	6.	0.	113.69
272	19.139	6.	0.	3.2445
273	18.167	5.5	0.	-55.228
274	18.	4.75	0.	409.26
275	18.	4.25	0.	-123.11
276	18.083	4.	0.	-290.93
277	18.167	4.75	0.	-36.732
278	18.167	4.25	0.	-167.48
279	18.	1.25	0.	143.59
280	18.	1.75	0.	281.77
281	18.083	2.	0.	-220.21
282	18.167	1.25	0.	-162.65
283	18.167	1.75	0.	-159.66
