Node Numbers,X Locations (inches),Y Locations (inches),Z Locations (inches),Equivalent Elastic Strains (in/in),Equivalent Stress (psi),Max Principal Elastic Strain (in/in),Max Principal Stress (psi),Middle Principal Elastic Strain (in/in),Middle Principal Stress (psi),Min Principal Elastic Strain (in/in),Min Principal Stress (psi),Total Deformation (in)
1,4.9192,2.6759,0,0.00020938,2092.4,9.3716e-05,367.24,6.0121e-05,114.82,-0.00020004,-1839.9,0.030063
2,5.5816,3.5358,0,0.00016003,1599.2,5.6164e-05,31.055,4.9946e-05,-15.664,-0.00015972,-1591,0.039121
3,4.4902,2.6612,0,0.00015227,1521.6,6.5527e-05,156.4,3.782e-05,-51.781,-0.00014941,-1458.6,0.024995
4,6.0559,3.6736,0,0.00011461,1145.3,5.22e-05,158.46,2.7008e-05,-30.826,-0.00011126,-1069.7,0.04687
5,3.8685,2.0742,0,0.00010699,1069.1,3.8566e-05,56.029,3.4903e-05,28.512,-0.00010552,-1026.6,0.018523
6,6.9974,4.0848,0,7.7458e-05,774.04,2.8756e-05,53.511,2.503e-05,25.511,-7.6076e-05,-734.15,0.063664
7,5.3247,3.5168,0,0.00024616,2459.9,9.49e-05,45.06,6.1438e-05,-206.36,-0.00024794,-2530.9,0.035208
8,5.193,2.6303,0,0.00024249,2423.2,0.00011304,353.21,5.388e-05,-91.315,-0.00023496,-2261.5,0.033674
9,19.31,2.9907,0,9.4536e-06,94.471,4.1528e-06,1.4509,1.3521e-06,-19.593,-9.5846e-06,-101.77,0.36698
10,14.6,2.9629,0,2.8771e-05,287.51,9.8884e-06,2.3063,9.036e-06,-4.0976,-2.8796e-05,-288.35,0.23923
11,9.2111,2.7405,0,5.0063e-05,500.28,1.9294e-05,-5.5097,1.1085e-05,-67.19,-5.1013e-05,-533.77,0.10916
12,2.3523,3.8372,0,0.00013198,1318.9,7.7203e-05,317.14,8.9462e-06,-195.72,-0.0001222,-1181.1,0.0068202
13,6.4358,2.2768,0,9.2391e-05,923.28,3.7708e-05,33.072,2.0748e-05,-94.358,-9.2772e-05,-947.3,0.053617
14,5.8334,2.6679,0,0.00014216,1420.6,5.7893e-05,104.83,3.7419e-05,-49.003,-0.00014058,-1386.4,0.043412
15,4.977,3.2218,0,0.00020104,2009,6.8407e-05,-28.632,6.018e-05,-90.44,-0.00020299,-2067.8,0.030652
16,5.2141,3.1016,0,0.0002221,2219.4,7.7975e-05,70.867,7.1837e-05,24.753,-0.00022043,-2171.2,0.033924
17,5.4606,2.9387,0,0.00019811,1979.7,7.4482e-05,92.308,5.8199e-05,-30.041,-0.00019676,-1945.7,0.037557
18,7.2303,1.3948,0,7.2857e-05,728.07,2.7746e-05,45.952,2.1909e-05,2.0913,-7.194e-05,-703.05,0.068079
19,7.2303,1.3948,0.1,7.2857e-05,728.07,7.194e-05,703.05,-2.1909e-05,-2.0913,-2.7746e-05,-45.952,0.068079
20,5.4606,2.9387,0.1,0.00019811,1979.7,0.00019676,1945.7,-5.8199e-05,30.041,-7.4482e-05,-92.308,0.037557
21,5.2141,3.1016,0.1,0.0002221,2219.4,0.00022043,2171.2,-7.1837e-05,-24.753,-7.7975e-05,-70.867,0.033924
22,4.977,3.2218,0.1,0.00020104,2009,0.00020299,2067.8,-6.018e-05,90.44,-6.8407e-05,28.632,0.030652
23,5.8334,2.6679,0.1,0.00014216,1420.6,0.00014058,1386.4,-3.7419e-05,49.003,-5.7893e-05,-104.83,0.043412
24,6.4358,2.2768,0.1,9.2391e-05,923.28,9.2772e-05,947.3,-2.0748e-05,94.358,-3.7708e-05,-33.072,0.053617
25,2.3523,3.8372,0.1,0.00013198,1318.9,0.0001222,1181.1,-8.9462e-06,195.72,-7.7203e-05,-317.14,0.0068202
26,9.2111,2.7405,0.1,5.0063e-05,500.28,5.1013e-05,533.77,-1.1085e-05,67.19,-1.9294e-05,5.5097,0.10916
27,14.6,2.9629,0.1,2.8771e-05,287.51,2.8796e-05,288.35,-9.036e-06,4.0976,-9.8884e-06,-2.3063,0.23923
28,19.31,2.9907,0.1,9.4536e-06,94.471,9.5846e-06,101.77,-1.3521e-06,19.593,-4.1528e-06,-1.4509,0.36698
29,5.193,2.6303,0.1,0.00024249,2423.2,0.00023496,2261.5,-5.388e-05,91.315,-0.00011304,-353.21,0.033674
30,5.3247,3.5168,0.1,0.00024616,2459.9,0.00024794,2530.9,-6.1438e-05,206.36,-9.49e-05,-45.06,0.035208
31,6.9974,4.0848,0.1,7.7458e-05,774.04,7.6076e-05,734.15,-2.503e-05,-25.511,-2.8756e-05,-53.511,0.063664
32,3.8685,2.0742,0.1,0.00010699,1069.1,0.00010552,1026.6,-3.4903e-05,-28.512,-3.8566e-05,-56.029,0.018523
33,6.0559,3.6736,0.1,0.00011461,1145.3,0.00011126,1069.7,-2.7008e-05,30.826,-5.22e-05,-158.46,0.04687
34,4.4902,2.6612,0.1,0.00015227,1521.6,0.00014941,1458.6,-3.782e-05,51.781,-6.5527e-05,-156.4,0.024995
35,5.5816,3.5358,0.1,0.00016003,1599.2,0.00015972,1591,-4.9946e-05,15.664,-5.6164e-05,-31.055,0.039121
36,4.9192,2.6759,0.1,0.00020938,2092.4,0.00020004,1839.9,-6.0121e-05,-114.82,-9.3716e-05,-367.24,0.030063
37,5.2667,5,0.1,0.0001127,1126.2,0.00011674,1250.6,-2.6546e-05,174.01,-3.898e-05,80.591,0.031847
38,5.2667,4.5,0.1,0.00014709,1469.9,0.00015184,1629.9,-2.8857e-05,272.28,-5.591e-05,69.017,0.032772
39,5.2667,4,0.1,0.00046549,4651.7,0.00047713,5001.5,-0.00012657,465.6,-0.0001563,242.19,0.033719
40,5.1,4,0.1,0.00042635,4260.5,0.00043799,4750.3,-5.7391e-05,1028.2,-0.00018048,103.36,0.031441
41,5.1,4.5,0.1,0.00018157,1814.4,0.00015484,1301.4,-1.4173e-05,31.496,-0.00012174,-776.73,0.030798
42,5.1,5,0.1,0.00010867,1086,0.0001126,1219.9,-1.9612e-05,226.54,-4.1713e-05,60.48,0.030217
43,5.2667,1,0.1,9.2403e-05,923.39,9.6419e-05,1043.9,-2.2553e-05,150.02,-3.0058e-05,93.635,0.032408
44,5.2667,1.5,0.1,0.00015842,1583.1,0.000165,1776.7,-4.4253e-05,204.41,-4.7122e-05,182.85,0.033251
45,5.2667,2,0.1,0.00036558,3653.2,0.00038119,4140.3,-7.8085e-05,689.52,-0.0001281,313.71,0.034085
46,5.1,2,0.1,0.00038088,3806.1,0.00039348,4179.7,-0.00010424,439.99,-0.00012149,310.38,0.031783
47,5.1,1.5,0.1,0.00015561,1555,0.00016311,1778.7,-3.8039e-05,267.32,-4.9221e-05,183.3,0.030874
48,5.1,1,0.1,6.2579e-05,625.36,6.812e-05,851.16,4.4767e-06,372.96,-2.6067e-05,143.47,0.030066
49,5.2667,6,0.1,5.5444e-05,554.06,5.8474e-05,650.94,-9.5968e-06,139.49,-1.9862e-05,62.364,0.029927
50,7.6083,6,0.1,5.8096e-05,580.55,5.6988e-05,555.37,-1.4682e-05,16.874,-2.4866e-05,-59.65,0.073948
51,9.95,6,0.1,4.7725e-05,476.92,4.746e-05,469.83,-1.4556e-05,3.8584,-1.7377e-05,-17.337,0.1241
52,14.633,6,0.1,2.8698e-05,286.79,2.8628e-05,284.73,-9.3749e-06,-0.81113,-9.7051e-06,-3.2923,0.23918
53,19.317,6,0.1,1.0194e-05,101.87,1.0094e-05,104.54,-1.2286e-06,19.469,-4.9302e-06,-8.3439,0.3667
54,24,6,0.1,4.052e-06,40.492,4.39e-06,50.864,-6.4172e-07,13.058,-1.2966e-06,8.1371,0.49834
55,24,3,0.1,2.4298e-06,24.281,2.936e-06,39.574,-2.0473e-08,17.36,-5.1401e-07,13.652,0.49845
56,2.6226e-14,3,0.1,9.4648e-05,945.82,0.00012598,1866.7,5.8151e-07,924.52,-3.8331e-07,917.27,0
57,24,0,0.1,3.907e-06,39.043,4.1673e-06,48.166,-3.3947e-07,14.304,-1.5166e-06,5.4593,0.49855
58,19.317,0,0.1,9.9868e-06,99.799,9.9383e-06,103.55,-1.2295e-06,19.636,-4.7495e-06,-6.8125,0.3669
59,14.633,0,0.1,2.8718e-05,286.98,2.8816e-05,290.25,-8.5368e-06,9.5936,-1.0168e-05,-2.6633,0.23939
60,9.95,0,0.1,4.9842e-05,498.08,4.9667e-05,493.45,-1.5343e-05,4.9874,-1.7832e-05,-13.714,0.12439
61,7.6083,0,0.1,5.6649e-05,566.1,5.5511e-05,538.39,-1.4997e-05,8.6195,-2.3881e-05,-58.136,0.074523
62,5.2667,0,0.1,5.6212e-05,561.73,5.8302e-05,627.77,-1.218e-05,98.195,-2.0108e-05,38.628,0.03075
63,5.1,0,0.1,0.00011013,1100.5,0.00010746,1111.9,-8.6094e-06,239.8,-5.7102e-05,-124.56,0.028369
64,2.55,1.0919e-30,0.1,0.00011064,1105.6,9.7615e-05,904.99,-2.7913e-06,150.57,-7.1301e-05,-364.18,0.0078716
65,0,0,0.1,9.3613e-05,935.49,0.0001231,1803,6.1189e-07,882.6,-3.3202e-06,853.06,0
66,3.937e-14,6,0.1,8.5304e-05,852.45,0.00011141,1632.7,6.9792e-06,848.01,-9.3006e-06,725.69,0
67,2.55,6,0.1,0.00012306,1229.8,0.00011466,1098.6,-1.2013e-05,146.78,-7.0144e-05,-290,0.0070996
68,5.1,6,0.1,0.00011308,1130,0.00011813,1287.9,-2.355e-05,223.4,-3.9684e-05,102.17,0.028543
69,2.55,6,0,0.00012306,1229.8,7.0144e-05,290,1.2013e-05,-146.78,-0.00011466,-1098.6,0.0070996
70,5.1,6,0,0.00011308,1130,3.9684e-05,-102.17,2.355e-05,-223.4,-0.00011813,-1287.9,0.028543
71,3.937e-14,6,0,8.5304e-05,852.45,9.3006e-06,-725.69,-6.9792e-06,-848.01,-0.00011141,-1632.7,0
72,2.55,1.0919e-30,0,0.00011064,1105.6,7.1301e-05,364.18,2.7913e-06,-150.57,-9.7615e-05,-904.99,0.0078716
73,5.1,0,0,0.00011013,1100.5,5.7102e-05,124.56,8.6094e-06,-239.8,-0.00010746,-1111.9,0.028369
74,0,0,0,9.3613e-05,935.49,3.3202e-06,-853.06,-6.1189e-07,-882.6,-0.0001231,-1803,0
75,7.6083,0,0,5.6649e-05,566.1,2.3881e-05,58.136,1.4997e-05,-8.6195,-5.5511e-05,-538.39,0.074523
76,9.95,0,0,4.9842e-05,498.08,1.7832e-05,13.714,1.5343e-05,-4.9874,-4.9667e-05,-493.45,0.12439
77,14.633,0,0,2.8718e-05,286.98,1.0168e-05,2.6633,8.5368e-06,-9.5936,-2.8816e-05,-290.25,0.23939
78,19.317,0,0,9.9868e-06,99.799,4.7496e-06,6.8126,1.2295e-06,-19.636,-9.9383e-06,-103.55,0.3669
79,5.2667,0,0,5.6212e-05,561.73,2.0108e-05,-38.628,1.218e-05,-98.195,-5.8302e-05,-627.77,0.03075
80,24,0,0,3.907e-06,39.043,1.5166e-06,-5.4594,3.3947e-07,-14.304,-4.1673e-06,-48.166,0.49855
81,2.6226e-14,3,0,9.4648e-05,945.82,3.8331e-07,-917.27,-5.8151e-07,-924.52,-0.00012598,-1866.7,0
82,24,3,0,2.4298e-06,24.281,5.1401e-07,-13.652,2.0472e-08,-17.36,-2.936e-06,-39.574,0.49845
83,24,6,0,4.052e-06,40.492,1.2966e-06,-8.1372,6.4172e-07,-13.058,-4.39e-06,-50.864,0.49834
84,19.317,6,0,1.0194e-05,101.87,4.9302e-06,8.344,1.2286e-06,-19.469,-1.0094e-05,-104.54,0.3667
85,14.633,6,0,2.8698e-05,286.79,9.7051e-06,3.2923,9.3749e-06,0.81114,-2.8628e-05,-284.73,0.23918
86,9.95,6,0,4.7725e-05,476.92,1.7377e-05,17.337,1.4556e-05,-3.8584,-4.746e-05,-469.83,0.1241
87,7.6083,6,0,5.8096e-05,580.55,2.4866e-05,59.65,1.4682e-05,-16.874,-5.6988e-05,-555.37,0.073948
88,5.2667,6,0,5.5444e-05,554.06,1.9862e-05,-62.364,9.5968e-06,-139.49,-5.8474e-05,-650.94,0.029927
89,5.1,1.5,0,0.00015561,1555,4.9221e-05,-183.3,3.8039e-05,-267.32,-0.00016311,-1778.7,0.030874
90,5.1,1,0,6.2579e-05,625.36,2.6067e-05,-143.47,-4.4767e-06,-372.96,-6.812e-05,-851.16,0.030066
91,5.1,2,0,0.00038088,3806.1,0.00012149,-310.38,0.00010424,-439.99,-0.00039348,-4179.7,0.031783
92,5.2667,1,0,9.2403e-05,923.39,3.0058e-05,-93.635,2.2553e-05,-150.02,-9.6419e-05,-1043.9,0.032408
93,5.2667,1.5,0,0.00015842,1583.1,4.7122e-05,-182.85,4.4253e-05,-204.41,-0.000165,-1776.7,0.033251
94,5.2667,2,0,0.00036558,3653.2,0.0001281,-313.71,7.8085e-05,-689.52,-0.00038119,-4140.3,0.034085
95,5.1,4.5,0,0.00018157,1814.4,0.00012174,776.73,1.4173e-05,-31.496,-0.00015484,-1301.4,0.030798
96,5.1,5,0,0.00010867,1086,4.1713e-05,-60.48,1.9612e-05,-226.54,-0.0001126,-1219.9,0.030217
97,5.1,4,0,0.00042635,4260.5,0.00018048,-103.36,5.7391e-05,-1028.2,-0.00043799,-4750.3,0.031441
98,5.2667,5,0,0.0001127,1126.2,3.898e-05,-80.591,2.6546e-05,-174.01,-0.00011674,-1250.6,0.031847
99,5.2667,4.5,0,0.00014709,1469.9,5.591e-05,-69.017,2.8857e-05,-272.28,-0.00015184,-1629.9,0.032772
100,5.2667,4,0,0.00046549,4651.7,0.0001563,-242.19,0.00012657,-465.6,-0.00047713,-5001.5,0.033719
101,4.7047,2.6685,0,0.00018073,1806.1,7.9224e-05,258.83,4.9339e-05,34.285,-0.0001747,-1649,0.027443
102,5.0561,2.6531,0,0.00022524,2250.8,0.00010282,356.02,5.7059e-05,12.196,-0.000217,-2046.9,0.031828
103,5.0666,2.8887,0,0.00021517,2150.3,8.5078e-05,213.29,6.6467e-05,73.452,-0.00020995,-2003.5,0.031975
104,4.9192,2.6759,0.05,3.2679e-06,32.657,2.5094e-06,18.854,-1.2541e-13,1.6449e-05,-2.5094e-06,-18.854,0.030054
105,5.0096,2.338,0,0.00029271,2925.1,0.00010225,-11.799,8.5802e-05,-135.39,-0.00029502,-2996.7,0.031038
106,5.8188,3.6047,0,0.0001367,1366.1,5.3053e-05,86.275,3.9346e-05,-16.714,-0.00013523,-1328.4,0.042917
107,5.4532,3.5263,0,0.00020252,2023.8,7.3459e-05,22.482,5.7472e-05,-97.641,-0.00020353,-2058.7,0.037129
108,5.5211,3.2373,0,0.00017729,1771.7,6.4591e-05,56.184,5.3243e-05,-29.084,-0.00017668,-1756.6,0.038371
109,5.5816,3.5358,0.05,2.0418e-05,204.03,1.5678e-05,117.8,1.5275e-12,1.7744e-05,-1.5678e-05,-117.8,0.039112
110,5.4242,3.7679,0,0.00030974,3095.2,0.00010256,-133.16,8.9348e-05,-232.45,-0.00031584,-3276.9,0.036435
111,4.1793,2.3677,0,0.00012946,1293.7,5.1955e-05,105.52,3.644e-05,-11.044,-0.00012745,-1242.5,0.021666
112,4.7336,2.9415,0,0.00017582,1756.9,6.5426e-05,52.305,5.0053e-05,-63.198,-0.00017572,-1759.5,0.027754
113,4.4902,2.6612,0.05,7.6697e-06,76.644,5.8893e-06,44.25,2.211e-12,2.6375e-05,-5.8893e-06,-44.25,0.024988
114,4.7951,2.3306,0,0.00026489,2647.1,8.6997e-05,-125.93,7.6528e-05,-204.59,-0.00027043,-2811.5,0.028397
115,4.7951,3.5806,0,0.00014852,1484.2,8.0879e-05,370.73,2.5158e-05,-47.939,-0.00013853,-1277.8,0.028098
116,4.7951,3.3306,0,0.00027763,2774.4,0.00011148,-60.047,5.0049e-05,-521.64,-0.00028463,-3036.3,0.028286
117,6.5266,3.8792,0,9.5683e-05,956.17,3.8838e-05,93.665,2.764e-05,9.5218,-9.3649e-05,-901.8,0.055072
118,5.9447,3.1708,0,0.00012677,1266.9,5.2558e-05,112.94,3.3534e-05,-29.988,-0.00012475,-1219.3,0.045204
119,6.0559,3.6736,0.05,6.1602e-06,61.56,4.7303e-06,35.542,3.6353e-12,4.569e-05,-4.7303e-06,-35.542,0.046862
120,5.6613,4.0868,0,0.0001249,1248.1,4.1466e-05,-49.867,3.6194e-05,-89.478,-0.00012722,-1317.3,0.039857
121,3.1104,2.9557,0,0.00011681,1167.3,5.6048e-05,172.78,2.3058e-05,-75.09,-0.00011316,-1098.6,0.012022
122,3.8685,2.0742,0.05,1.1594e-07,1.1586,8.9027e-08,0.66893,3.8329e-12,4.596e-05,-8.903e-08,-0.66892,0.018516
123,3.2092,1.0371,0,0.00010618,1061,5.3093e-05,196.28,2.0645e-05,-47.526,-0.00010152,-965.45,0.012643
124,4.4842,1.7871,0,0.0001205,1204.2,3.7362e-05,-112.71,3.3492e-05,-141.79,-0.0001248,-1331.2,0.02457
125,4.4842,1.5371,0,7.9203e-05,791.49,2.9847e-05,-62.278,1.3554e-05,-184.7,-8.2691e-05,-907.84,0.024349
126,4.4842,3.5371,0,0.00010507,1050,3.8229e-05,-16.578,2.6931e-05,-101.47,-0.00010682,-1106.4,0.024602
127,8.1042,3.4126,0,6.3306e-05,632.62,2.3654e-05,21.214,1.8076e-05,-20.697,-6.3192e-05,-631.32,0.085678
128,6.7166,3.1808,0,8.2792e-05,827.34,3.2967e-05,41.298,2.1262e-05,-46.649,-8.2531e-05,-826.51,0.058748
129,6.9974,4.0848,0.05,3.4467e-06,34.443,2.6466e-06,19.886,-3.5252e-13,6.4656e-06,-2.6466e-06,-19.886,0.063657
130,7.3028,5.0424,0,6.766e-05,676.13,2.6071e-05,51.017,2.0595e-05,9.8707,-6.653e-05,-644.75,0.068892
131,6.132,4.5424,0,9.283e-05,927.66,3.377e-05,-14.276,2.3839e-05,-88.897,-9.436e-05,-976.99,0.047433
132,5.2694,3.3092,0,0.00023271,2325.5,8.4416e-05,42.774,6.7617e-05,-83.446,-0.00023314,-2343.2,0.034584
133,5.3247,3.5168,0.05,1.1909e-05,119.01,9.1448e-06,68.711,2.4364e-14,2.984e-05,-9.1448e-06,-68.711,0.035198
134,5.2123,3.7584,0,0.00032222,3220,0.00013759,-29.939,4.5935e-05,-718.56,-0.00032938,-3538.5,0.033303
135,5.3268,2.7845,0,0.000219,2188.5,8.5633e-05,161.68,6.4114e-05,-0.0081161,-0.0002158,-2103.2,0.035591
136,5.193,2.6303,0.05,7.6983e-06,76.93,5.9113e-06,44.415,2.0068e-12,7.7238e-06,-5.9113e-06,-44.415,0.033666
137,5.2298,2.3152,0,0.00029772,2975.2,9.9555e-05,-138.16,8.3246e-05,-260.71,-0.00030432,-3172.7,0.033969
138,16.955,2.9768,0,1.9032e-05,190.19,6.6082e-06,-1.2198,5.6064e-06,-8.7472,-1.919e-05,-195.06,0.30221
139,19.31,2.9907,0.05,1.757e-07,1.7558,1.3492e-07,1.0137,-3.0452e-14,4.0149e-06,-1.3492e-07,-1.0137,0.36698
140,19.313,1.4953,0,9.5617e-06,95.551,4.3229e-06,3.1681,1.293e-06,-19.597,-9.6355e-06,-101.71,0.36703
141,21.655,2.9953,0,5.885e-06,58.81,2.0853e-06,-7.9643,9.2946e-07,-16.649,-6.2554e-06,-70.634,0.43255
142,19.313,4.4953,0,9.6059e-06,95.993,4.3673e-06,3.5882,1.291e-06,-19.526,-9.6658e-06,-101.85,0.36693
143,11.906,2.8517,0,3.9373e-05,393.45,1.4578e-05,-1.7019,1.0067e-05,-35.599,-3.9897e-05,-411.01,0.17119
144,14.6,2.9629,0.05,4.5184e-07,4.5153,3.4696e-07,2.6069,1.3454e-13,3.7049e-06,-3.4696e-07,-2.6069,0.23922
145,14.617,1.4814,0,2.8687e-05,286.68,1.0023e-05,2.4423,8.7419e-06,-7.1797,-2.8756e-05,-288.92,0.2395
146,14.617,4.4814,0,2.8648e-05,286.28,9.6474e-06,1.6771,9.2799e-06,-1.0836,-2.8637e-05,-285.98,0.23942
147,8.2207,2.0676,0,6.1261e-05,612.19,2.3317e-05,18.695,1.6554e-05,-32.116,-6.1331e-05,-617.32,0.088037
148,9.2111,2.7405,0.05,1.302e-06,13.011,9.9976e-07,7.5118,-5.3982e-13,1.378e-07,-9.9976e-07,-7.5118,0.10915
149,9.5805,1.3702,0,4.9827e-05,497.93,1.7774e-05,-1.8256,1.3976e-05,-30.365,-5.0313e-05,-513.41,0.117
150,9.5805,4.3702,0,4.8744e-05,487.11,1.7128e-05,-3.157,1.4e-05,-26.662,-4.9209e-05,-501.59,0.11698
151,2.3523,3.8372,0.05,3.3589e-06,33.566,2.5792e-06,19.379,-1.0222e-12,-5.6392e-06,-2.5792e-06,-19.379,0.0068121
152,2.4512,4.9186,0,0.00012702,1269.3,7.3429e-05,301.73,1.0279e-05,-172.75,-0.00011799,-1136.5,0.0070977
153,2.4512,1.9186,0,0.00012087,1207.9,7.4142e-05,339.84,5.5962e-06,-175.19,-0.00010953,-1040.2,0.0074632
154,1.1762,3.4186,0,0.0001116,1115.3,3.8722e-05,-300.6,4.1175e-06,-560.61,-0.00012395,-1522.9,0.0017125
155,3.7262,4.4186,0,0.00011869,1186.1,5.758e-05,114.22,1.5744e-05,-200.12,-0.00011699,-1197.4,0.016663
156,6.1346,2.4724,0,0.0001162,1161.2,4.2024e-05,25.552,3.438e-05,-31.888,-0.0001162,-1163.3,0.048416
157,6.8331,1.8358,0,8.2457e-05,824,3.2233e-05,35.797,2.1762e-05,-42.877,-8.2295e-05,-824.72,0.060737
158,6.4358,2.2768,0.05,2.4695e-06,24.678,1.8962e-06,14.248,3.4508e-12,3.7297e-05,-1.8962e-06,-14.248,0.053609
159,5.8512,1.8884,0,0.00012184,1217.5,4.2092e-05,-77.319,2.9722e-05,-170.26,-0.00012578,-1338.7,0.043311
160,5.647,2.8033,0,0.00016948,1693.7,5.9105e-05,45.353,5.4697e-05,12.237,-0.00016848,-1664.6,0.040423
161,5.8334,2.6679,0.05,1.2937e-05,129.29,9.9344e-06,74.643,2.1124e-12,2.9203e-05,-9.9344e-06,-74.643,0.043403
162,5.55,2.334,0,0.00025059,2504.2,8.2828e-05,-180.85,6.5718e-05,-309.4,-0.00025868,-2746.8,0.038751
163,5.0955,3.1617,0,0.00021151,2113.6,7.2929e-05,19.152,6.6227e-05,-31.206,-0.00021167,-2119.2,0.032261
164,4.977,3.2218,0.05,1.2687e-05,126.78,9.7422e-06,73.199,1.8505e-13,1.6018e-05,-9.7422e-06,-73.199,0.030644
165,5.0385,3.6109,0,0.00030589,3056.8,0.00012306,-76.374,5.3673e-05,-597.74,-0.000314,-3360.3,0.031111
166,5.3373,3.0201,0,0.00020996,2098.1,7.3579e-05,61.678,6.7651e-05,17.141,-0.00020858,-2058.4,0.035716
167,5.2141,3.1016,0.05,4.4426e-06,44.395,3.4113e-06,25.632,9.5201e-13,1.6235e-05,-3.4114e-06,-25.632,0.033915
168,5.4606,2.9387,0.05,3.3571e-06,33.548,2.5779e-06,19.369,2.7036e-12,2.5284e-05,-2.5779e-06,-19.369,0.037548
169,7.2303,1.3948,0.05,3.5953e-06,35.928,2.7607e-06,20.743,6.807e-13,2.2547e-06,-2.7607e-06,-20.743,0.068072
170,7.4193,0.69738,0,6.4613e-05,645.68,2.4271e-05,40.452,1.9993e-05,8.3091,-6.3723e-05,-620.7,0.071376
171,6.2485,1.1974,0,7.8659e-05,786.05,2.8188e-05,-29.205,1.9338e-05,-95.703,-8.0573e-05,-846.39,0.049688
172,6.8331,1.8358,0.1,8.2457e-05,824,8.2295e-05,824.72,-2.1762e-05,42.877,-3.2233e-05,-35.797,0.060737
173,8.2207,2.0676,0.1,6.1261e-05,612.19,6.1331e-05,617.32,-1.6554e-05,32.116,-2.3317e-05,-18.695,0.088037
174,6.2485,1.1974,0.1,7.8659e-05,786.05,8.0573e-05,846.39,-1.9338e-05,95.703,-2.8188e-05,29.205,0.049688
175,7.4193,0.69738,0.1,6.4613e-05,645.68,6.3723e-05,620.7,-1.9993e-05,-8.3091,-2.4271e-05,-40.452,0.071376
176,5.3373,3.0201,0.1,0.00020996,2098.1,0.00020858,2058.4,-6.7651e-05,-17.141,-7.3579e-05,-61.678,0.035716
177,5.647,2.8033,0.1,0.00016948,1693.7,0.00016848,1664.6,-5.4697e-05,-12.237,-5.9105e-05,-45.353,0.040423
178,5.3268,2.7845,0.1,0.000219,2188.5,0.0002158,2103.2,-6.4114e-05,0.0081184,-8.5633e-05,-161.68,0.035591
179,5.5211,3.2373,0.1,0.00017729,1771.7,0.00017668,1756.6,-5.3243e-05,29.084,-6.4591e-05,-56.184,0.038371
180,5.0955,3.1617,0.1,0.00021151,2113.6,0.00021167,2119.2,-6.6227e-05,31.206,-7.2929e-05,-19.152,0.032261
181,5.2694,3.3092,0.1,0.00023271,2325.5,0.00023314,2343.2,-6.7617e-05,83.446,-8.4416e-05,-42.774,0.034584
182,5.0666,2.8887,0.1,0.00021517,2150.3,0.00020995,2003.5,-6.6467e-05,-73.452,-8.5078e-05,-213.29,0.031975
183,4.7336,2.9415,0.1,0.00017582,1756.9,0.00017572,1759.5,-5.0053e-05,63.198,-6.5426e-05,-52.305,0.027754
184,5.0385,3.6109,0.1,0.00030589,3056.8,0.000314,3360.3,-5.3673e-05,597.74,-0.00012306,76.374,0.031111
185,6.1346,2.4724,0.1,0.0001162,1161.2,0.0001162,1163.3,-3.438e-05,31.888,-4.2024e-05,-25.552,0.048416
186,5.9447,3.1708,0.1,0.00012677,1266.9,0.00012475,1219.3,-3.3534e-05,29.988,-5.2558e-05,-112.94,0.045204
187,5.55,2.334,0.1,0.00025059,2504.2,0.00025868,2746.8,-6.5718e-05,309.4,-8.2828e-05,180.85,0.038751
188,6.7166,3.1808,0.1,8.2792e-05,827.34,8.2531e-05,826.51,-2.1262e-05,46.649,-3.2967e-05,-41.298,0.058748
189,5.8512,1.8884,0.1,0.00012184,1217.5,0.00012578,1338.7,-2.9722e-05,170.26,-4.2092e-05,77.319,0.043311
190,3.1104,2.9557,0.1,0.00011681,1167.3,0.00011316,1098.6,-2.3058e-05,75.09,-5.6048e-05,-172.78,0.012022
191,3.7262,4.4186,0.1,0.00011869,1186.1,0.00011699,1197.4,-1.5744e-05,200.12,-5.758e-05,-114.22,0.016663
192,1.1762,3.4186,0.1,0.0001116,1115.3,0.00012395,1522.9,-4.1175e-06,560.61,-3.8722e-05,300.6,0.0017125
193,2.4512,1.9186,0.1,0.00012087,1207.9,0.00010953,1040.2,-5.5962e-06,175.19,-7.4142e-05,-339.84,0.0074632
194,2.4512,4.9186,0.1,0.00012702,1269.3,0.00011799,1136.5,-1.0279e-05,172.75,-7.3429e-05,-301.73,0.0070977
195,11.906,2.8517,0.1,3.9373e-05,393.45,3.9897e-05,411.01,-1.0067e-05,35.599,-1.4578e-05,1.7019,0.17119
196,8.1042,3.4126,0.1,6.3306e-05,632.62,6.3193e-05,631.32,-1.8076e-05,20.697,-2.3654e-05,-21.214,0.085678
197,9.5805,4.3702,0.1,4.8744e-05,487.11,4.9209e-05,501.59,-1.4e-05,26.662,-1.7128e-05,3.157,0.11698
198,9.5805,1.3702,0.1,4.9827e-05,497.93,5.0313e-05,513.41,-1.3976e-05,30.365,-1.7774e-05,1.8256,0.117
199,16.955,2.9768,0.1,1.9032e-05,190.19,1.919e-05,195.06,-5.6064e-06,8.7472,-6.6082e-06,1.2198,0.30221
200,14.617,4.4814,0.1,2.8648e-05,286.28,2.8637e-05,285.98,-9.2799e-06,1.0836,-9.6474e-06,-1.6771,0.23942
201,14.617,1.4814,0.1,2.8687e-05,286.68,2.8756e-05,288.92,-8.7419e-06,7.1797,-1.0023e-05,-2.4423,0.2395
202,19.313,4.4953,0.1,9.6059e-06,95.993,9.6658e-06,101.85,-1.291e-06,19.526,-4.3673e-06,-3.5882,0.36693
203,21.655,2.9953,0.1,5.885e-06,58.81,6.2554e-06,70.634,-9.2946e-07,16.649,-2.0853e-06,7.9643,0.43255
204,19.313,1.4953,0.1,9.5617e-06,95.552,9.6355e-06,101.71,-1.293e-06,19.597,-4.3229e-06,-3.1681,0.36703
205,5.0561,2.6531,0.1,0.00022524,2250.8,0.000217,2046.9,-5.7059e-05,-12.196,-0.00010282,-356.02,0.031828
206,5.2298,2.3152,0.1,0.00029772,2975.2,0.00030432,3172.7,-8.3246e-05,260.71,-9.9555e-05,138.16,0.033969
207,5.4532,3.5263,0.1,0.00020252,2023.8,0.00020353,2058.7,-5.7472e-05,97.641,-7.3459e-05,-22.482,0.037129
208,5.2123,3.7584,0.1,0.00032222,3220,0.00032938,3538.5,-4.5935e-05,718.56,-0.00013759,29.939,0.033303
209,6.5266,3.8792,0.1,9.5683e-05,956.17,9.3649e-05,901.8,-2.764e-05,-9.5218,-3.8838e-05,-93.665,0.055072
210,6.132,4.5424,0.1,9.283e-05,927.66,9.436e-05,976.99,-2.3839e-05,88.897,-3.377e-05,14.276,0.047433
211,7.3028,5.0424,0.1,6.766e-05,676.13,6.653e-05,644.75,-2.0595e-05,-9.8707,-2.6071e-05,-51.017,0.068892
212,4.1793,2.3677,0.1,0.00012946,1293.7,0.00012745,1242.5,-3.644e-05,11.044,-5.1955e-05,-105.52,0.021666
213,4.4842,3.5371,0.1,0.00010507,1050,0.00010682,1106.4,-2.6931e-05,101.47,-3.8229e-05,16.578,0.024602
214,4.4842,1.7871,0.1,0.0001205,1204.2,0.0001248,1331.2,-3.3492e-05,141.79,-3.7362e-05,112.71,0.02457
215,4.4842,1.5371,0.1,7.9203e-05,791.49,8.2691e-05,907.84,-1.3554e-05,184.7,-2.9847e-05,62.278,0.024349
216,3.2092,1.0371,0.1,0.00010618,1061,0.00010152,965.45,-2.0645e-05,47.526,-5.3093e-05,-196.28,0.012643
217,5.8188,3.6047,0.1,0.0001367,1366.1,0.00013523,1328.4,-3.9346e-05,16.714,-5.3053e-05,-86.275,0.042917
218,5.6613,4.0868,0.1,0.0001249,1248.1,0.00012722,1317.3,-3.6194e-05,89.478,-4.1466e-05,49.867,0.039857
219,4.7047,2.6685,0.1,0.00018073,1806.1,0.0001747,1649,-4.9339e-05,-34.285,-7.9224e-05,-258.83,0.027443
220,4.7951,3.3306,0.1,0.00027763,2774.4,0.00028463,3036.3,-5.0049e-05,521.64,-0.00011148,60.048,0.028286
221,4.7951,3.5806,0.1,0.00014852,1484.2,0.00013853,1277.8,-2.5158e-05,47.939,-8.0879e-05,-370.73,0.028098
222,4.7951,2.3306,0.1,0.00026489,2647.1,0.00027043,2811.5,-7.6528e-05,204.59,-8.6997e-05,125.93,0.028397
223,5.4242,3.7679,0.1,0.00030974,3095.2,0.00031584,3276.9,-8.9348e-05,232.45,-0.00010256,133.16,0.036435
224,5.0096,2.338,0.1,0.00029271,2925.1,0.00029502,2996.7,-8.5802e-05,135.39,-0.00010225,11.799,0.031038
225,5.2667,4.75,0.1,0.00012969,1296,0.00013415,1439.2,-2.7668e-05,223.4,-4.7338e-05,75.605,0.032325
226,5.2667,5.5,0.1,8.3652e-05,835.94,8.7269e-05,948.24,-1.8065e-05,156.8,-2.9091e-05,73.959,0.030892
227,5.2667,5,0.05,1.5485e-05,154.74,1.1891e-05,89.341,1.609e-13,-1.8951e-14,-1.1891e-05,-89.341,0.031835
228,5.2667,4.25,0.1,0.00030258,3023.7,0.00031126,3291.5,-7.497e-05,389.56,-0.00010563,159.21,0.033254
229,5.2667,4.5,0.05,1.6053e-05,160.42,1.2327e-05,92.619,1.3204e-13,-2.2298e-05,-1.2327e-05,-92.619,0.032761
230,5.1833,4,0.1,0.00041039,4101.1,0.00042416,4625,-5.9149e-05,993.59,-0.00016783,177.03,0.032545
231,5.2667,4,0.05,7.9133e-05,790.78,6.0764e-05,456.56,-3.6737e-12,1.2119e-05,-6.0764e-05,-456.56,0.033707
232,5.1,4.25,0.1,0.00029987,2996.6,0.00029374,3005.8,-3.3855e-05,544.34,-0.00015037,-331.08,0.031118
233,5.1,4,0.05,5.4702e-05,546.65,4.2005e-05,315.61,4.8903e-12,8.9426e-05,-4.2005e-05,-315.61,0.03143
234,5.1,4.75,0.1,0.00014047,1403.7,0.00013085,1239.1,-1.6484e-05,132.09,-7.9273e-05,-339.68,0.030513
235,5.1,4.5,0.05,8.7906e-06,87.846,6.7501e-06,50.718,-4.0304e-15,1.4853e-05,-6.7501e-06,-50.718,0.030789
236,5.1,5.5,0.1,0.00010999,1099.1,0.00011508,1251.8,-2.6498e-05,188.02,-3.5495e-05,120.42,0.029458
237,5.1,5,0.05,1.1733e-05,117.25,9.0092e-06,67.692,1.9176e-13,2.3827e-06,-9.0092e-06,-67.692,0.03021
238,5.2667,1.25,0.1,0.00012528,1252,0.00013064,1409.8,-3.4424e-05,169.54,-3.7502e-05,146.42,0.032837
239,5.2667,0.5,0.1,7.3715e-05,736.64,7.6895e-05,832.35,-1.7828e-05,120.64,-2.4156e-05,73.094,0.031587
240,5.2667,1,0.05,8.6395e-06,86.335,6.634e-06,49.846,-1.4072e-21,-1.9481e-06,-6.634e-06,-49.846,0.032396
241,5.2667,1.75,0.1,0.00025751,2573.3,0.00026919,2929.1,-5.845e-05,467.39,-8.6425e-05,257.2,0.033669
242,5.2667,1.5,0.05,8.0835e-06,80.779,6.2071e-06,46.638,-1.4639e-12,-2.8669e-14,-6.2071e-06,-46.638,0.033241
243,5.1833,2,0.1,0.0003514,3511.6,0.00036737,4010,-7.311e-05,700.41,-0.00012289,326.37,0.032899
244,5.2667,2,0.05,3.0009e-05,299.88,2.3043e-05,173.14,3.0266e-12,8.8766e-05,-2.3043e-05,-173.14,0.034074
245,5.1,1.75,0.1,0.00025822,2580.4,0.00026944,2912.6,-6.7575e-05,380.45,-8.0071e-05,286.57,0.031334
246,5.1,2,0.05,1.9011e-05,189.98,1.4598e-05,109.69,-2.6839e-12,2.2596e-05,-1.4598e-05,-109.69,0.031773
247,5.1,1.25,0.1,0.00010696,1068.9,0.000115,1310.3,-2.1125e-05,287.51,-3.2687e-05,200.64,0.030466
248,5.1,1.5,0.05,2.1471e-05,214.56,1.6487e-05,123.88,4.7031e-13,5.2604e-06,-1.6487e-05,-123.88,0.030868
249,5.1,0.5,0.1,8.3478e-05,834.2,8.7598e-05,980.08,-1.0556e-05,242.59,-3.29e-05,74.706,0.029323
250,5.1,1,0.05,1.3473e-05,134.64,1.0346e-05,77.734,1.6638e-13,-1.6489e-14,-1.0346e-05,-77.734,0.030061
251,6.4375,6,0.1,5.595e-05,559.11,5.732e-05,600.07,-1.5525e-05,52.744,-1.8568e-05,29.882,0.051145
252,5.2667,6,0.05,3.2367e-06,32.345,2.4854e-06,18.674,-2.1237e-13,1.7743e-06,-2.4854e-06,-18.674,0.029914
253,8.7792,6,0.1,5.2702e-05,526.65,5.2078e-05,511.5,-1.4612e-05,10.418,-2.0983e-05,-37.448,0.098294
254,7.6083,6,0.05,3.7142e-06,37.117,2.8521e-06,21.429,-6.0496e-22,7.4278e-06,-2.8521e-06,-21.429,0.073941
255,12.292,6,0.1,3.8183e-05,381.56,3.8023e-05,377.12,-1.1999e-05,1.2703,-1.3487e-05,-9.907,0.17942
256,9.95,6,0.05,1.5062e-06,15.051,1.1565e-06,8.6898,1.026e-12,4.5857e-06,-1.1565e-06,-8.6898,0.12409
257,16.975,6,0.1,1.9235e-05,192.22,1.9266e-05,193.92,-5.2993e-06,9.3471,-7.2249e-06,-5.1213,0.30205
258,14.633,6,0.05,3.4683e-07,3.4659,2.6632e-07,2.001,-3.0454e-13,1.0217e-06,-2.6632e-07,-2.001,0.23918
259,21.658,6,0.1,6.8111e-06,68.064,6.9968e-06,75.861,-9.2211e-07,16.361,-2.8811e-06,1.642,0.43237
260,19.317,6,0.05,4.8647e-07,4.8613,3.7355e-07,2.8067,9.7861e-13,1.2035e-05,-3.7355e-07,-2.8067,0.36669
261,24,4.5,0.1,2.8491e-06,28.471,3.3306e-06,42.722,-3.2292e-07,15.27,-5.8109e-07,13.33,0.49839
262,24,6,0.05,6.0251e-07,6.0209,4.6265e-07,3.4762,-1.5819e-12,-8.4768e-06,-4.6265e-07,-3.4762,0.49834
263,24,1.5,0.1,2.8948e-06,28.928,3.3507e-06,42.36,-4.2127e-07,14.019,-5.7301e-07,12.879,0.4985
264,24,3,0.05,2.881e-07,2.879,2.2122e-07,1.6622,-4.4658e-13,7.2304e-07,-2.2122e-07,-1.6622,0.49845
265,1.3113e-14,1.5,0.1,9.2638e-05,925.74,0.00012323,1825,7.0215e-07,904.36,-6.4639e-07,894.22,0
266,3.9339e-14,4.5,0.1,8.8118e-05,880.57,0.00011721,1738.5,4.1476e-06,889.03,-3.7239e-06,829.88,0
267,2.6581e-14,3,0.05,9.0306e-06,90.244,6.9344e-06,52.103,-1.2641e-21,1.5258e-05,-6.9344e-06,-52.103,0
268,21.658,0,0.1,6.7111e-06,67.064,6.8615e-06,74.419,-7.7539e-07,17.038,-2.9509e-06,0.69269,0.43257
269,24,0,0.05,4.3102e-07,4.3072,3.3097e-07,2.4868,-1.3718e-12,-7.2812e-06,-3.3097e-07,-2.4868,0.49854
270,16.975,0,0.1,1.9138e-05,191.25,1.9307e-05,196.37,-5.6951e-06,8.5137,-6.5764e-06,1.8921,0.30227
271,19.317,0,0.05,4.5761e-07,4.573,3.5139e-07,2.6402,1.4805e-12,1.4083e-05,-3.5139e-07,-2.6402,0.3669
272,12.292,0,0.1,3.9235e-05,392.08,3.9216e-05,391.65,-1.2361e-05,4.1285,-1.3553e-05,-4.8303,0.17963
273,14.633,0,0.05,7.5139e-07,7.5087,5.7697e-07,4.3352,-4.5675e-13,5.9844e-09,-5.7697e-07,-4.3351,0.23938
274,8.7792,0,0.1,5.3125e-05,530.88,5.2519e-05,515.39,-1.5248e-05,6.2203,-2.0709e-05,-34.817,0.098681
275,9.95,0,0.05,1.4545e-06,14.535,1.1169e-06,8.3917,9.1139e-13,2.2892e-05,-1.1169e-06,-8.3917,0.12438
276,6.4375,0,0.1,5.5132e-05,550.94,5.598e-05,576.12,-1.6414e-05,32.177,-1.8243e-05,18.433,0.051896
277,7.6083,0,0.05,3.5658e-06,35.633,2.7381e-06,20.573,-5.8079e-22,9.0897e-06,-2.7381e-06,-20.573,0.074516
278,5.2667,0,0.05,1.0727e-06,10.72,8.2372e-07,6.1891,-2.2409e-13,-5.6994e-06,-8.2372e-07,-6.1891,0.030737
279,3.825,1.6378e-30,0.1,9.9266e-05,991.98,9.8335e-05,976.87,-2.4266e-05,55.687,-4.1432e-05,-73.288,0.016987
280,5.1,2.1837e-30,0.05,1.6123e-05,161.12,1.2381e-05,93.023,-2.6261e-21,-1.7062e-05,-1.2381e-05,-93.023,0.028365
281,1.275,5.4593e-31,0.1,9.8688e-05,986.2,0.00010921,1345.3,-1.4311e-06,514.02,-3.5817e-05,255.66,0.0019292
282,2.55,0,0.05,9.1191e-06,91.128,7.0023e-06,52.613,3.3273e-13,2.166e-06,-7.0023e-06,-52.613,0.0078636
283,0,0,0.05,2.4069e-05,240.53,1.8482e-05,138.87,7.8768e-14,3.1021e-05,-1.8482e-05,-138.87,0
284,1.275,6,0.1,0.00010085,1007.8,0.00011132,1352.7,-5.2475e-06,476.88,-3.5277e-05,251.25,0.0017297
285,5.2451e-14,6,0.05,2.6604e-05,265.85,2.0428e-05,153.49,4.815e-13,3.8671e-05,-2.0428e-05,-153.49,0
286,3.825,6,0.1,0.00011541,1153.3,0.00011614,1191.4,-2.5527e-05,126.89,-4.6918e-05,-33.832,0.016084
287,2.55,6,0.05,8.8317e-06,88.256,6.7816e-06,50.955,-3.8657e-15,1.9726e-06,-6.7816e-06,-50.955,0.0070921
288,5.1,6,0.05,7.4679e-06,74.627,5.7344e-06,43.086,-3.7215e-21,-9.1392e-15,-5.7344e-06,-43.086,0.028536
289,3.825,6,0,0.00011541,1153.3,4.6918e-05,33.832,2.5527e-05,-126.89,-0.00011614,-1191.4,0.016084
290,1.275,6,0,0.00010085,1007.8,3.5277e-05,-251.25,5.2475e-06,-476.88,-0.00011132,-1352.7,0.0017297
291,5.1,5.5,0,0.00010999,1099.1,3.5495e-05,-120.42,2.6498e-05,-188.02,-0.00011508,-1251.8,0.029458
292,3.9339e-14,4.5,0,8.8118e-05,880.57,3.7239e-06,-829.88,-4.1476e-06,-889.03,-0.00011721,-1738.5,0
293,3.825,1.6378e-30,0,9.9266e-05,991.98,4.1432e-05,73.288,2.4266e-05,-55.687,-9.8335e-05,-976.87,0.016987
294,1.275,5.4593e-31,0,9.8688e-05,986.2,3.5817e-05,-255.66,1.4311e-06,-514.02,-0.00010921,-1345.3,0.0019292
295,5.1,0.5,0,8.3478e-05,834.2,3.29e-05,-74.706,1.0556e-05,-242.59,-8.7598e-05,-980.08,0.029323
296,1.3113e-14,1.5,0,9.2638e-05,925.74,6.4639e-07,-894.22,-7.0215e-07,-904.36,-0.00012323,-1825,0
297,8.7792,0,0,5.3125e-05,530.88,2.0709e-05,34.817,1.5248e-05,-6.2203,-5.2519e-05,-515.39,0.098681
298,6.4375,0,0,5.5132e-05,550.94,1.8243e-05,-18.433,1.6414e-05,-32.177,-5.598e-05,-576.12,0.051896
299,12.292,0,0,3.9235e-05,392.08,1.3553e-05,4.8303,1.2361e-05,-4.1285,-3.9216e-05,-391.65,0.17963
300,16.975,0,0,1.9138e-05,191.25,6.5764e-06,-1.8921,5.6951e-06,-8.5137,-1.9307e-05,-196.37,0.30227
301,21.658,0,0,6.7111e-06,67.064,2.9509e-06,-0.69269,7.7539e-07,-17.038,-6.8615e-06,-74.419,0.43257
302,5.2667,0.5,0,7.3715e-05,736.64,2.4156e-05,-73.094,1.7828e-05,-120.64,-7.6895e-05,-832.35,0.031587
303,24,1.5,0,2.8948e-06,28.928,5.7301e-07,-12.879,4.2127e-07,-14.019,-3.3507e-06,-42.36,0.4985
304,24,4.5,0,2.8491e-06,28.471,5.8109e-07,-13.33,3.2291e-07,-15.27,-3.3306e-06,-42.722,0.49839
305,21.658,6,0,6.8111e-06,68.064,2.8811e-06,-1.642,9.2211e-07,-16.361,-6.9968e-06,-75.861,0.43237
306,16.975,6,0,1.9235e-05,192.22,7.2249e-06,5.1213,5.2993e-06,-9.3471,-1.9266e-05,-193.92,0.30205
307,12.292,6,0,3.8183e-05,381.56,1.3487e-05,9.907,1.1999e-05,-1.2703,-3.8023e-05,-377.12,0.17942
308,8.7792,6,0,5.2702e-05,526.65,2.0983e-05,37.448,1.4612e-05,-10.418,-5.2078e-05,-511.5,0.098294
309,6.4375,6,0,5.595e-05,559.11,1.8568e-05,-29.882,1.5525e-05,-52.744,-5.732e-05,-600.07,0.051145
310,5.2667,5.5,0,8.3652e-05,835.94,2.9091e-05,-73.959,1.8065e-05,-156.8,-8.7269e-05,-948.24,0.030892
311,5.1,1.25,0,0.00010696,1068.9,3.2687e-05,-200.64,2.1125e-05,-287.51,-0.000115,-1310.3,0.030466
312,5.1,1.75,0,0.00025822,2580.4,8.0071e-05,-286.57,6.7575e-05,-380.45,-0.00026944,-2912.6,0.031334
313,5.1833,2,0,0.0003514,3511.6,0.00012289,-326.37,7.311e-05,-700.41,-0.00036737,-4010,0.032899
314,5.2667,1.25,0,0.00012528,1252,3.7502e-05,-146.42,3.4424e-05,-169.54,-0.00013064,-1409.8,0.032837
315,5.2667,1.75,0,0.00025751,2573.3,8.6425e-05,-257.2,5.845e-05,-467.39,-0.00026919,-2929.1,0.033669
316,5.1,4.75,0,0.00014047,1403.7,7.9273e-05,339.68,1.6484e-05,-132.09,-0.00013085,-1239.1,0.030513
317,5.1,4.25,0,0.00029987,2996.6,0.00015037,331.08,3.3855e-05,-544.34,-0.00029374,-3005.8,0.031118
318,5.1833,4,0,0.00041039,4101.1,0.00016783,-177.03,5.9149e-05,-993.59,-0.00042416,-4625,0.032545
319,5.2667,4.75,0,0.00012969,1296,4.7338e-05,-75.605,2.7668e-05,-223.4,-0.00013415,-1439.2,0.032325
320,5.2667,4.25,0,0.00030258,3023.7,0.00010563,-159.21,7.497e-05,-389.56,-0.00031126,-3291.5,0.033254
