Node Number	X Location (in)	Y Location (in)	Z Location (in)	Maximum Principal Stress (psi)
1	15.8	2.1818	0.	921.53
2	15.8	2.3636	0.	697.91
3	15.8	2.5455	0.	586.47
4	15.8	2.7273	0.	528.07
5	15.8	2.9091	0.	502.09
6	15.8	3.0909	0.	502.09
7	15.8	3.2727	0.	528.07
8	15.8	3.4545	0.	586.47
9	15.8	3.6364	0.	697.91
10	15.8	3.8182	0.	921.53
11	15.967	2.1818	0.	661.56
12	15.967	2.3636	0.	616.32
13	15.967	2.5455	0.	532.28
14	15.967	2.7273	0.	485.97
15	15.967	2.9091	0.	464.22
16	15.967	3.0909	0.	464.22
17	15.967	3.2727	0.	485.97
18	15.967	3.4545	0.	532.28
19	15.967	3.6364	0.	616.32
20	15.967	3.8182	0.	661.56
21	15.616	5.8182	0.	64.783
22	15.616	5.6364	0.	150.87
23	15.616	5.4545	0.	279.54
24	15.616	5.2727	0.	432.85
25	15.616	5.0909	0.	610.76
26	15.616	4.9091	0.	818.76
27	15.616	4.7273	0.	1068.8
28	15.616	4.5455	0.	1374.
29	15.616	4.3636	0.	1793.2
30	15.616	4.1818	0.	2115.8
31	15.616	4.	0.	1593.4
32	15.616	3.8182	0.	809.
33	15.616	3.6364	0.	628.23
34	15.616	3.4545	0.	534.28
35	15.616	3.2727	0.	494.37
36	15.616	3.0909	0.	475.45
37	15.616	2.9091	0.	475.45
38	15.616	2.7273	0.	494.37
39	15.616	2.5455	0.	534.28
40	15.616	2.3636	0.	628.22
41	15.616	2.1818	0.	809.
42	15.616	2.	0.	1593.4
43	15.616	1.8182	0.	2115.8
44	15.616	1.6364	0.	1793.2
45	15.616	1.4545	0.	1374.
46	15.616	1.2727	0.	1068.8
47	15.616	1.0909	0.	818.76
48	15.616	0.90909	0.	610.76
49	15.616	0.72727	0.	432.85
50	15.616	0.54545	0.	279.54
51	15.616	0.36364	0.	150.87
52	15.616	0.18182	0.	64.783
53	15.433	5.8182	0.	47.795
54	15.433	5.6364	0.	98.049
55	15.433	5.4545	0.	189.81
56	15.433	5.2727	0.	308.13
57	15.433	5.0909	0.	446.9
58	15.433	4.9091	0.	603.94
59	15.433	4.7273	0.	778.35
60	15.433	4.5455	0.	955.68
61	15.433	4.3636	0.	1107.8
62	15.433	4.1818	0.	1120.7
63	15.433	4.	0.	852.32
64	15.433	3.8182	0.	591.89
65	15.433	3.6364	0.	469.57
66	15.433	3.4545	0.	429.56
67	15.433	3.2727	0.	409.35
68	15.433	3.0909	0.	401.21
69	15.433	2.9091	0.	401.21
70	15.433	2.7273	0.	409.35
71	15.433	2.5455	0.	429.56
72	15.433	2.3636	0.	469.57
73	15.433	2.1818	0.	591.89
74	15.433	2.	0.	852.32
75	15.433	1.8182	0.	1120.7
76	15.433	1.6364	0.	1107.8
77	15.433	1.4545	0.	955.68
78	15.433	1.2727	0.	778.35
79	15.433	1.0909	0.	603.94
80	15.433	0.90909	0.	446.9
81	15.433	0.72727	0.	308.13
82	15.433	0.54545	0.	189.81
83	15.433	0.36364	0.	98.049
84	15.433	0.18182	0.	47.795
85	15.249	5.8182	0.	47.704
86	15.249	5.6364	0.	91.835
87	15.249	5.4545	0.	162.27
88	15.249	5.2727	0.	253.61
89	15.249	5.0909	0.	360.34
90	15.249	4.9091	0.	476.58
91	15.249	4.7273	0.	593.13
92	15.249	4.5455	0.	693.91
93	15.249	4.3636	0.	742.32
94	15.249	4.1818	0.	697.7
95	15.249	4.	0.	570.52
96	15.249	3.8182	0.	434.69
97	15.249	3.6364	0.	357.69
98	15.249	3.4545	0.	328.19
99	15.249	3.2727	0.	317.73
100	15.249	3.0909	0.	314.54
101	15.249	2.9091	0.	314.54
102	15.249	2.7273	0.	317.73
103	15.249	2.5455	0.	328.19
104	15.249	2.3636	0.	357.69
105	15.249	2.1818	0.	434.69
106	15.249	2.	0.	570.52
107	15.249	1.8182	0.	697.7
108	15.249	1.6364	0.	742.32
109	15.249	1.4545	0.	693.91
110	15.249	1.2727	0.	593.13
111	15.249	1.0909	0.	476.58
112	15.249	0.90909	0.	360.34
113	15.249	0.72727	0.	253.61
114	15.249	0.54545	0.	162.27
115	15.249	0.36364	0.	91.835
116	15.249	0.18182	0.	47.704
117	15.065	5.8182	0.	48.192
118	15.065	5.6364	0.	92.624
119	15.065	5.4545	0.	150.86
120	15.065	5.2727	0.	221.62
121	15.065	5.0909	0.	301.32
122	15.065	4.9091	0.	383.71
123	15.065	4.7273	0.	459.2
124	15.065	4.5455	0.	513.52
125	15.065	4.3636	0.	528.25
126	15.065	4.1818	0.	490.06
127	15.065	4.	0.	413.54
128	15.065	3.8182	0.	333.22
129	15.065	3.6364	0.	277.52
130	15.065	3.4545	0.	250.69
131	15.065	3.2727	0.	240.84
132	15.065	3.0909	0.	237.99
133	15.065	2.9091	0.	237.99
134	15.065	2.7273	0.	240.84
135	15.065	2.5455	0.	250.69
136	15.065	2.3636	0.	277.52
137	15.065	2.1818	0.	333.22
138	15.065	2.	0.	413.54
139	15.065	1.8182	0.	490.06
140	15.065	1.6364	0.	528.25
141	15.065	1.4545	0.	513.52
142	15.065	1.2727	0.	459.2
143	15.065	1.0909	0.	383.71
144	15.065	0.90909	0.	301.32
145	15.065	0.72727	0.	221.62
146	15.065	0.54545	0.	150.86
147	15.065	0.36364	0.	92.624
148	15.065	0.18182	0.	48.192
149	14.881	5.8182	0.	47.21
150	14.881	5.6364	0.	92.375
151	14.881	5.4545	0.	142.82
152	14.881	5.2727	0.	198.7
153	14.881	5.0909	0.	257.77
154	14.881	4.9091	0.	314.99
155	14.881	4.7273	0.	362.83
156	14.881	4.5455	0.	391.76
157	14.881	4.3636	0.	392.65
158	14.881	4.1818	0.	363.41
159	14.881	4.	0.	313.08
160	14.881	3.8182	0.	259.72
161	14.881	3.6364	0.	218.7
162	14.881	3.4545	0.	194.41
163	14.881	3.2727	0.	183.02
164	14.881	3.0909	0.	178.95
165	14.881	2.9091	0.	178.95
166	14.881	2.7273	0.	183.02
167	14.881	2.5455	0.	194.41
168	14.881	2.3636	0.	218.7
169	14.881	2.1818	0.	259.72
170	14.881	2.	0.	313.08
171	14.881	1.8182	0.	363.41
172	14.881	1.6364	0.	392.65
173	14.881	1.4545	0.	391.76
174	14.881	1.2727	0.	362.83
175	14.881	1.0909	0.	314.99
176	14.881	0.90909	0.	257.77
177	14.881	0.72727	0.	198.7
178	14.881	0.54545	0.	142.82
179	14.881	0.36364	0.	92.375
180	14.881	0.18182	0.	47.21
181	14.698	5.8182	0.	45.143
182	14.698	5.6364	0.	89.859
183	14.698	5.4545	0.	134.49
184	14.698	5.2727	0.	179.6
185	14.698	5.0909	0.	223.77
186	14.698	4.9091	0.	263.45
187	14.698	4.7273	0.	293.56
188	14.698	4.5455	0.	308.47
189	14.698	4.3636	0.	304.19
190	14.698	4.1818	0.	281.06
191	14.698	4.	0.	245.4
192	14.698	3.8182	0.	207.18
193	14.698	3.6364	0.	175.24
194	14.698	3.4545	0.	153.57
195	14.698	3.2727	0.	141.47
196	14.698	3.0909	0.	136.35
197	14.698	2.9091	0.	136.35
198	14.698	2.7273	0.	141.47
199	14.698	2.5455	0.	153.57
200	14.698	2.3636	0.	175.24
201	14.698	2.1818	0.	207.18
202	14.698	2.	0.	245.4
203	14.698	1.8182	0.	281.06
204	14.698	1.6364	0.	304.19
205	14.698	1.4545	0.	308.47
206	14.698	1.2727	0.	293.56
207	14.698	1.0909	0.	263.45
208	14.698	0.90909	0.	223.77
209	14.698	0.72727	0.	179.6
210	14.698	0.54545	0.	134.49
211	14.698	0.36364	0.	89.859
212	14.698	0.18182	0.	45.143
213	14.514	5.8182	0.	42.383
214	14.514	5.6364	0.	85.332
215	14.514	5.4545	0.	125.07
216	14.514	5.2727	0.	162.18
217	14.514	5.0909	0.	195.82
218	14.514	4.9091	0.	223.7
219	14.514	4.7273	0.	242.69
220	14.514	4.5455	0.	249.76
221	14.514	4.3636	0.	243.31
222	14.514	4.1818	0.	224.49
223	14.514	4.	0.	197.52
224	14.514	3.8182	0.	168.47
225	14.514	3.6364	0.	142.88
226	14.514	3.4545	0.	123.87
227	14.514	3.2727	0.	112.03
228	14.514	3.0909	0.	106.52
229	14.514	2.9091	0.	106.52
230	14.514	2.7273	0.	112.03
231	14.514	2.5455	0.	123.87
232	14.514	2.3636	0.	142.88
233	14.514	2.1818	0.	168.47
234	14.514	2.	0.	197.52
235	14.514	1.8182	0.	224.49
236	14.514	1.6364	0.	243.31
237	14.514	1.4545	0.	249.76
238	14.514	1.2727	0.	242.69
239	14.514	1.0909	0.	223.7
240	14.514	0.90909	0.	195.82
241	14.514	0.72727	0.	162.18
242	14.514	0.54545	0.	125.07
243	14.514	0.36364	0.	85.332
244	14.514	0.18182	0.	42.383
245	14.33	5.8182	0.	39.301
246	14.33	5.6364	0.	79.454
247	14.33	5.4545	0.	114.81
248	14.33	5.2727	0.	145.82
249	14.33	5.0909	0.	172.03
250	14.33	4.9091	0.	192.07
251	14.33	4.7273	0.	204.16
252	14.33	4.5455	0.	206.83
253	14.33	4.3636	0.	199.67
254	14.33	4.1818	0.	183.93
255	14.33	4.	0.	162.59
256	14.33	3.8182	0.	139.58
257	14.33	3.6364	0.	118.6
258	14.33	3.4545	0.	102.12
259	14.33	3.2727	0.	91.168
260	14.33	3.0909	0.	85.799
261	14.33	2.9091	0.	85.799
262	14.33	2.7273	0.	91.168
263	14.33	2.5455	0.	102.12
264	14.33	2.3636	0.	118.6
265	14.33	2.1818	0.	139.58
266	14.33	2.	0.	162.59
267	14.33	1.8182	0.	183.93
268	14.33	1.6364	0.	199.67
269	14.33	1.4545	0.	206.83
270	14.33	1.2727	0.	204.16
271	14.33	1.0909	0.	192.06
272	14.33	0.90909	0.	172.03
273	14.33	0.72727	0.	145.82
274	14.33	0.54545	0.	114.81
275	14.33	0.36364	0.	79.454
276	14.33	0.18182	0.	39.301
277	14.147	5.8182	0.	36.163
278	14.147	5.6364	0.	72.87
279	14.147	5.4545	0.	104.2
280	14.147	5.2727	0.	130.43
281	14.147	5.0909	0.	151.34
282	14.147	4.9091	0.	166.15
283	14.147	4.7273	0.	173.99
284	14.147	4.5455	0.	174.25
285	14.147	4.3636	0.	167.1
286	14.147	4.1818	0.	153.73
287	14.147	4.	0.	136.32
288	14.147	3.8182	0.	117.59
289	14.147	3.6364	0.	100.17
290	14.147	3.4545	0.	86.025
291	14.147	3.2727	0.	76.26
292	14.147	3.0909	0.	71.326
293	14.147	2.9091	0.	71.326
294	14.147	2.7273	0.	76.26
295	14.147	2.5455	0.	86.025
296	14.147	2.3636	0.	100.17
297	14.147	2.1818	0.	117.59
298	14.147	2.	0.	136.32
299	14.147	1.8182	0.	153.73
300	14.147	1.6364	0.	167.1
301	14.147	1.4545	0.	174.25
302	14.147	1.2727	0.	173.99
303	14.147	1.0909	0.	166.15
304	14.147	0.90909	0.	151.34
305	14.147	0.72727	0.	130.43
306	14.147	0.54545	0.	104.2
307	14.147	0.36364	0.	72.87
308	14.147	0.18182	0.	36.163
309	13.963	5.8182	0.	33.143
310	13.963	5.6364	0.	66.091
311	13.963	5.4545	0.	93.709
312	13.963	5.2727	0.	116.08
313	13.963	5.0909	0.	133.12
314	13.963	4.9091	0.	144.43
315	13.963	4.7273	0.	149.65
316	13.963	4.5455	0.	148.68
317	13.963	4.3636	0.	141.94
318	13.963	4.1818	0.	130.5
319	13.963	4.	0.	116.04
320	13.963	3.8182	0.	100.56
321	13.963	3.6364	0.	86.
322	13.963	3.4545	0.	73.938
323	13.963	3.2727	0.	65.432
324	13.963	3.0909	0.	61.061
325	13.963	2.9091	0.	61.061
326	13.963	2.7273	0.	65.432
327	13.963	2.5455	0.	73.938
328	13.963	2.3636	0.	86.
329	13.963	2.1818	0.	100.56
330	13.963	2.	0.	116.04
331	13.963	1.8182	0.	130.5
332	13.963	1.6364	0.	141.94
333	13.963	1.4545	0.	148.68
334	13.963	1.2727	0.	149.65
335	13.963	1.0909	0.	144.43
336	13.963	0.90909	0.	133.12
337	13.963	0.72727	0.	116.08
338	13.963	0.54545	0.	93.709
339	13.963	0.36364	0.	66.091
340	13.963	0.18182	0.	33.143
341	13.779	5.8182	0.	30.339
342	13.779	5.6364	0.	59.472
343	13.779	5.4545	0.	83.685
344	13.779	5.2727	0.	102.87
345	13.779	5.0909	0.	117.
346	13.779	4.9091	0.	125.92
347	13.779	4.7273	0.	129.53
348	13.779	4.5455	0.	128.01
349	13.779	4.3636	0.	121.89
350	13.779	4.1818	0.	112.11
351	13.779	4.	0.	100.
352	13.779	3.8182	0.	87.098
353	13.779	3.6364	0.	74.895
354	13.779	3.4545	0.	64.675
355	13.779	3.2727	0.	57.38
356	13.779	3.0909	0.	53.595
357	13.779	2.9091	0.	53.595
358	13.779	2.7273	0.	57.38
359	13.779	2.5455	0.	64.675
360	13.779	2.3636	0.	74.895
361	13.779	2.1818	0.	87.097
362	13.779	2.	0.	100.
363	13.779	1.8182	0.	112.11
364	13.779	1.6364	0.	121.89
365	13.779	1.4545	0.	128.01
366	13.779	1.2727	0.	129.53
367	13.779	1.0909	0.	125.92
368	13.779	0.90909	0.	117.
369	13.779	0.72727	0.	102.87
370	13.779	0.54545	0.	83.685
371	13.779	0.36364	0.	59.472
372	13.779	0.18182	0.	30.339
373	13.595	5.8182	0.	27.799
374	13.595	5.6364	0.	53.237
375	13.595	5.4545	0.	74.348
376	13.595	5.2727	0.	90.852
377	13.595	5.0909	0.	102.74
378	13.595	4.9091	0.	109.95
379	13.595	4.7273	0.	112.59
380	13.595	4.5455	0.	110.93
381	13.595	4.3636	0.	105.51
382	13.595	4.1818	0.	97.187
383	13.595	4.	0.	87.023
384	13.595	3.8182	0.	76.231
385	13.595	3.6364	0.	66.005
386	13.595	3.4545	0.	57.392
387	13.595	3.2727	0.	51.202
388	13.595	3.0909	0.	47.974
389	13.595	2.9091	0.	47.974
390	13.595	2.7273	0.	51.202
391	13.595	2.5455	0.	57.392
392	13.595	2.3636	0.	66.005
393	13.595	2.1818	0.	76.231
394	13.595	2.	0.	87.023
395	13.595	1.8182	0.	97.187
396	13.595	1.6364	0.	105.51
397	13.595	1.4545	0.	110.93
398	13.595	1.2727	0.	112.59
399	13.595	1.0909	0.	109.95
400	13.595	0.90909	0.	102.74
401	13.595	0.72727	0.	90.852
402	13.595	0.54545	0.	74.348
403	13.595	0.36364	0.	53.237
404	13.595	0.18182	0.	27.799
405	13.412	5.8182	0.	25.532
406	13.412	5.6364	0.	47.507
407	13.412	5.4545	0.	65.815
408	13.412	5.2727	0.	80.021
409	13.412	5.0909	0.	90.11
410	13.412	4.9091	0.	96.096
411	13.412	4.7273	0.	98.133
412	13.412	4.5455	0.	96.546
413	13.412	4.3636	0.	91.863
414	13.412	4.1818	0.	84.813
415	13.412	4.	0.	76.289
416	13.412	3.8182	0.	67.267
417	13.412	3.6364	0.	58.713
418	13.412	3.4545	0.	51.487
419	13.412	3.2727	0.	46.275
420	13.412	3.0909	0.	43.55
421	13.412	2.9091	0.	43.55
422	13.412	2.7273	0.	46.275
423	13.412	2.5455	0.	51.487
424	13.412	2.3636	0.	58.713
425	13.412	2.1818	0.	67.267
426	13.412	2.	0.	76.289
427	13.412	1.8182	0.	84.813
428	13.412	1.6364	0.	91.863
429	13.412	1.4545	0.	96.546
430	13.412	1.2727	0.	98.133
431	13.412	1.0909	0.	96.096
432	13.412	0.90909	0.	90.11
433	13.412	0.72727	0.	80.021
434	13.412	0.54545	0.	65.815
435	13.412	0.36364	0.	47.507
436	13.412	0.18182	0.	25.532
437	13.228	5.8182	0.	23.528
438	13.228	5.6364	0.	42.331
439	13.228	5.4545	0.	58.123
440	13.228	5.2727	0.	70.343
441	13.228	5.0909	0.	78.959
442	13.228	4.9091	0.	84.008
443	13.228	4.7273	0.	85.669
444	13.228	4.5455	0.	84.268
445	13.228	4.3636	0.	80.288
446	13.228	4.1818	0.	74.362
447	13.228	4.	0.	67.235
448	13.228	3.8182	0.	59.707
449	13.228	3.6364	0.	52.569
450	13.228	3.4545	0.	46.532
451	13.228	3.2727	0.	42.17
452	13.228	3.0909	0.	39.886
453	13.228	2.9091	0.	39.886
454	13.228	2.7273	0.	42.17
455	13.228	2.5455	0.	46.532
456	13.228	2.3636	0.	52.569
457	13.228	2.1818	0.	59.707
458	13.228	2.	0.	67.235
459	13.228	1.8182	0.	74.362
460	13.228	1.6364	0.	80.288
461	13.228	1.4545	0.	84.268
462	13.228	1.2727	0.	85.669
463	13.228	1.0909	0.	84.008
464	13.228	0.90909	0.	78.959
465	13.228	0.72727	0.	70.343
466	13.228	0.54545	0.	58.123
467	13.228	0.36364	0.	42.331
468	13.228	0.18182	0.	23.528
469	13.044	5.8182	0.	21.765
470	13.044	5.6364	0.	37.709
471	13.044	5.4545	0.	51.26
472	13.044	5.2727	0.	61.748
473	13.044	5.0909	0.	69.125
474	13.044	4.9091	0.	73.433
475	13.044	4.7273	0.	74.847
476	13.044	4.5455	0.	73.672
477	13.044	4.3636	0.	70.338
478	13.044	4.1818	0.	65.39
479	13.044	4.	0.	59.453
480	13.044	3.8182	0.	53.189
481	13.044	3.6364	0.	47.251
482	13.044	3.4545	0.	42.225
483	13.044	3.2727	0.	38.59
484	13.044	3.0909	0.	36.686
485	13.044	2.9091	0.	36.686
486	13.044	2.7273	0.	38.59
487	13.044	2.5455	0.	42.225
488	13.044	2.3636	0.	47.251
489	13.044	2.1818	0.	53.189
490	13.044	2.	0.	59.453
491	13.044	1.8182	0.	65.39
492	13.044	1.6364	0.	70.338
493	13.044	1.4545	0.	73.671
494	13.044	1.2727	0.	74.847
495	13.044	1.0909	0.	73.433
496	13.044	0.90909	0.	69.125
497	13.044	0.72727	0.	61.748
498	13.044	0.54545	0.	51.26
499	13.044	0.36364	0.	37.709
500	13.044	0.18182	0.	21.765
501	12.86	5.8182	0.	20.216
502	12.86	5.6364	0.	33.615
503	12.86	5.4545	0.	45.178
504	12.86	5.2727	0.	54.149
505	12.86	5.0909	0.	60.463
506	12.86	4.9091	0.	64.159
507	12.86	4.7273	0.	65.394
508	12.86	4.5455	0.	64.443
509	12.86	4.3636	0.	61.682
510	12.86	4.1818	0.	57.575
511	12.86	4.	0.	52.647
512	12.86	3.8182	0.	47.45
513	12.86	3.6364	0.	42.523
514	12.86	3.4545	0.	38.351
515	12.86	3.2727	0.	35.333
516	12.86	3.0909	0.	33.752
517	12.86	2.9091	0.	33.752
518	12.86	2.7273	0.	35.333
519	12.86	2.5455	0.	38.351
520	12.86	2.3636	0.	42.523
521	12.86	2.1818	0.	47.45
522	12.86	2.	0.	52.647
523	12.86	1.8182	0.	57.575
524	12.86	1.6364	0.	61.682
525	12.86	1.4545	0.	64.443
526	12.86	1.2727	0.	65.394
527	12.86	1.0909	0.	64.159
528	12.86	0.90909	0.	60.463
529	12.86	0.72727	0.	54.149
530	12.86	0.54545	0.	45.178
531	12.86	0.36364	0.	33.615
532	12.86	0.18182	0.	20.216
533	12.677	5.8182	0.	18.853
534	12.677	5.6364	0.	30.006
535	12.677	5.4545	0.	39.812
536	12.677	5.2727	0.	47.447
537	12.677	5.0909	0.	52.836
538	12.677	4.9091	0.	56.005
539	12.677	4.7273	0.	57.095
540	12.677	4.5455	0.	56.343
541	12.677	4.3636	0.	54.072
542	12.677	4.1818	0.	50.677
543	12.677	4.	0.	46.598
544	12.677	3.8182	0.	42.295
545	12.677	3.6364	0.	38.215
546	12.677	3.4545	0.	34.76
547	12.677	3.2727	0.	32.26
548	12.677	3.0909	0.	30.95
549	12.677	2.9091	0.	30.95
550	12.677	2.7273	0.	32.26
551	12.677	2.5455	0.	34.76
552	12.677	2.3636	0.	38.215
553	12.677	2.1818	0.	42.295
554	12.677	2.	0.	46.598
555	12.677	1.8182	0.	50.677
556	12.677	1.6364	0.	54.072
557	12.677	1.4545	0.	56.343
558	12.677	1.2727	0.	57.095
559	12.677	1.0909	0.	56.005
560	12.677	0.90909	0.	52.836
561	12.677	0.72727	0.	47.447
562	12.677	0.54545	0.	39.812
563	12.677	0.36364	0.	30.006
564	12.677	0.18182	0.	18.853
565	12.493	5.8182	0.	17.648
566	12.493	5.6364	0.	26.83
567	12.493	5.4545	0.	35.087
568	12.493	5.2727	0.	41.543
569	12.493	5.0909	0.	46.113
570	12.493	4.9091	0.	48.817
571	12.493	4.7273	0.	49.77
572	12.493	4.5455	0.	49.177
573	12.493	4.3636	0.	47.313
574	12.493	4.1818	0.	44.51
575	12.493	4.	0.	41.137
576	12.493	3.8182	0.	37.578
577	12.493	3.6364	0.	34.202
578	12.493	3.4545	0.	31.344
579	12.493	3.2727	0.	29.275
580	12.493	3.0909	0.	28.191
581	12.493	2.9091	0.	28.191
582	12.493	2.7273	0.	29.275
583	12.493	2.5455	0.	31.344
584	12.493	2.3636	0.	34.202
585	12.493	2.1818	0.	37.578
586	12.493	2.	0.	41.137
587	12.493	1.8182	0.	44.51
588	12.493	1.6364	0.	47.313
589	12.493	1.4545	0.	49.177
590	12.493	1.2727	0.	49.77
591	12.493	1.0909	0.	48.816
592	12.493	0.90909	0.	46.113
593	12.493	0.72727	0.	41.543
594	12.493	0.54545	0.	35.087
595	12.493	0.36364	0.	26.83
596	12.493	0.18182	0.	17.648
597	12.309	5.8182	0.	16.576
598	12.309	5.6364	0.	24.033
599	12.309	5.4545	0.	30.926
600	12.309	5.2727	0.	36.336
601	12.309	5.0909	0.	40.175
602	12.309	4.9091	0.	42.453
603	12.309	4.7273	0.	43.268
604	12.309	4.5455	0.	42.79
605	12.309	4.3636	0.	41.251
606	12.309	4.1818	0.	38.931
607	12.309	4.	0.	36.137
608	12.309	3.8182	0.	33.189
609	12.309	3.6364	0.	30.394
610	12.309	3.4545	0.	28.027
611	12.309	3.2727	0.	26.315
612	12.309	3.0909	0.	25.417
613	12.309	2.9091	0.	25.417
614	12.309	2.7273	0.	26.315
615	12.309	2.5455	0.	28.027
616	12.309	2.3636	0.	30.394
617	12.309	2.1818	0.	33.189
618	12.309	2.	0.	36.137
619	12.309	1.8182	0.	38.931
620	12.309	1.6364	0.	41.251
621	12.309	1.4545	0.	42.79
622	12.309	1.2727	0.	43.268
623	12.309	1.0909	0.	42.453
624	12.309	0.90909	0.	40.175
625	12.309	0.72727	0.	36.336
626	12.309	0.54545	0.	30.926
627	12.309	0.36364	0.	24.033
628	12.309	0.18182	0.	16.576
629	12.126	5.8182	0.	15.614
630	12.126	5.6364	0.	21.564
631	12.126	5.4545	0.	27.253
632	12.126	5.2727	0.	31.732
633	12.126	5.0909	0.	34.911
634	12.126	4.9091	0.	36.794
635	12.126	4.7273	0.	37.459
636	12.126	4.5455	0.	37.05
637	12.126	4.3636	0.	35.761
638	12.126	4.1818	0.	33.824
639	12.126	4.	0.	31.497
640	12.126	3.8182	0.	29.045
641	12.126	3.6364	0.	26.722
642	12.126	3.4545	0.	24.756
643	12.126	3.2727	0.	23.335
644	12.126	3.0909	0.	22.59
645	12.126	2.9091	0.	22.59
646	12.126	2.7273	0.	23.335
647	12.126	2.5455	0.	24.756
648	12.126	2.3636	0.	26.722
649	12.126	2.1818	0.	29.045
650	12.126	2.	0.	31.497
651	12.126	1.8182	0.	33.824
652	12.126	1.6364	0.	35.761
653	12.126	1.4545	0.	37.05
654	12.126	1.2727	0.	37.459
655	12.126	1.0909	0.	36.794
656	12.126	0.90909	0.	34.911
657	12.126	0.72727	0.	31.732
658	12.126	0.54545	0.	27.253
659	12.126	0.36364	0.	21.564
660	12.126	0.18182	0.	15.614
661	11.942	5.8182	0.	14.742
662	11.942	5.6364	0.	19.374
663	11.942	5.4545	0.	23.998
664	11.942	5.2727	0.	27.643
665	11.942	5.0909	0.	30.22
666	11.942	4.9091	0.	31.728
667	11.942	4.7273	0.	32.23
668	11.942	4.5455	0.	31.846
669	11.942	4.3636	0.	30.736
670	11.942	4.1818	0.	29.095
671	11.942	4.	0.	27.135
672	11.942	3.8182	0.	25.078
673	11.942	3.6364	0.	23.134
674	11.942	3.4545	0.	21.492
675	11.942	3.2727	0.	20.306
676	11.942	3.0909	0.	19.684
677	11.942	2.9091	0.	19.684
678	11.942	2.7273	0.	20.306
679	11.942	2.5455	0.	21.492
680	11.942	2.3636	0.	23.134
681	11.942	2.1818	0.	25.078
682	11.942	2.	0.	27.135
683	11.942	1.8182	0.	29.095
684	11.942	1.6364	0.	30.736
685	11.942	1.4545	0.	31.846
686	11.942	1.2727	0.	32.23
687	11.942	1.0909	0.	31.728
688	11.942	0.90909	0.	30.22
689	11.942	0.72727	0.	27.643
690	11.942	0.54545	0.	23.998
691	11.942	0.36364	0.	19.374
692	11.942	0.18182	0.	14.742
693	11.758	5.8182	0.	13.941
694	11.758	5.6364	0.	17.417
695	11.758	5.4545	0.	21.095
696	11.758	5.2727	0.	23.989
697	11.758	5.0909	0.	26.012
698	11.758	4.9091	0.	27.159
699	11.758	4.7273	0.	27.484
700	11.758	4.5455	0.	27.082
701	11.758	4.3636	0.	26.089
702	11.758	4.1818	0.	24.664
703	11.758	4.	0.	22.986
704	11.758	3.8182	0.	21.237
705	11.758	3.6364	0.	19.591
706	11.758	3.4545	0.	18.205
707	11.758	3.2727	0.	17.206
708	11.758	3.0909	0.	16.683
709	11.758	2.9091	0.	16.683
710	11.758	2.7273	0.	17.206
711	11.758	2.5455	0.	18.205
712	11.758	2.3636	0.	19.591
713	11.758	2.1818	0.	21.237
714	11.758	2.	0.	22.986
715	11.758	1.8182	0.	24.664
716	11.758	1.6364	0.	26.089
717	11.758	1.4545	0.	27.082
718	11.758	1.2727	0.	27.484
719	11.758	1.0909	0.	27.159
720	11.758	0.90909	0.	26.012
721	11.758	0.72727	0.	23.989
722	11.758	0.54545	0.	21.095
723	11.758	0.36364	0.	17.417
724	11.758	0.18182	0.	13.941
725	11.574	5.8182	0.	13.197
726	11.574	5.6364	0.	15.655
727	11.574	5.4545	0.	18.485
728	11.574	5.2727	0.	20.697
729	11.574	5.0909	0.	22.205
730	11.574	4.9091	0.	23.003
731	11.574	4.7273	0.	23.133
732	11.574	4.5455	0.	22.676
733	11.574	4.3636	0.	21.742
734	11.574	4.1818	0.	20.466
735	11.574	4.	0.	18.995
736	11.574	3.8182	0.	17.478
737	11.574	3.6364	0.	16.061
738	11.574	3.4545	0.	14.873
739	11.574	3.2727	0.	14.019
740	11.574	3.0909	0.	13.573
741	11.574	2.9091	0.	13.573
742	11.574	2.7273	0.	14.019
743	11.574	2.5455	0.	14.873
744	11.574	2.3636	0.	16.061
745	11.574	2.1818	0.	17.478
746	11.574	2.	0.	18.995
747	11.574	1.8182	0.	20.466
748	11.574	1.6364	0.	21.742
749	11.574	1.4545	0.	22.676
750	11.574	1.2727	0.	23.133
751	11.574	1.0909	0.	23.003
752	11.574	0.90909	0.	22.205
753	11.574	0.72727	0.	20.697
754	11.574	0.54545	0.	18.485
755	11.574	0.36364	0.	15.655
756	11.574	0.18182	0.	13.197
757	11.391	5.8182	0.	12.496
758	11.391	5.6364	0.	14.05
759	11.391	5.4545	0.	16.117
760	11.391	5.2727	0.	17.703
761	11.391	5.0909	0.	18.727
762	11.391	4.9091	0.	19.182
763	11.391	4.7273	0.	19.102
764	11.391	4.5455	0.	18.555
765	11.391	4.3636	0.	17.632
766	11.391	4.1818	0.	16.444
767	11.391	4.	0.	15.113
768	11.391	3.8182	0.	13.764
769	11.391	3.6364	0.	12.516
770	11.391	3.4545	0.	11.477
771	11.391	3.2727	0.	10.733
772	11.391	3.0909	0.	10.345
773	11.391	2.9091	0.	10.345
774	11.391	2.7273	0.	10.733
775	11.391	2.5455	0.	11.477
776	11.391	2.3636	0.	12.516
777	11.391	2.1818	0.	13.764
778	11.391	2.	0.	15.113
779	11.391	1.8182	0.	16.444
780	11.391	1.6364	0.	17.632
781	11.391	1.4545	0.	18.555
782	11.391	1.2727	0.	19.102
783	11.391	1.0909	0.	19.182
784	11.391	0.90909	0.	18.727
785	11.391	0.72727	0.	17.703
786	11.391	0.54545	0.	16.117
787	11.391	0.36364	0.	14.05
788	11.391	0.18182	0.	12.496
789	11.207	5.8182	0.	11.826
790	11.207	5.6364	0.	12.571
791	11.207	5.4545	0.	13.944
792	11.207	5.2727	0.	14.951
793	11.207	5.0909	0.	15.515
794	11.207	4.9091	0.	15.63
795	11.207	4.7273	0.	15.326
796	11.207	4.5455	0.	14.657
797	11.207	4.3636	0.	13.7
798	11.207	4.1818	0.	12.547
799	11.207	4.	0.	11.3
800	11.207	3.8182	0.	10.062
801	11.207	3.6364	0.	8.9323
802	11.207	3.4545	0.	7.9995
803	11.207	3.2727	0.	7.3351
804	11.207	3.0909	0.	6.9898
805	11.207	2.9091	0.	6.9898
806	11.207	2.7273	0.	7.3351
807	11.207	2.5455	0.	7.9995
808	11.207	2.3636	0.	8.9323
809	11.207	2.1818	0.	10.062
810	11.207	2.	0.	11.3
811	11.207	1.8182	0.	12.547
812	11.207	1.6364	0.	13.7
813	11.207	1.4545	0.	14.657
814	11.207	1.2727	0.	15.326
815	11.207	1.0909	0.	15.63
816	11.207	0.90909	0.	15.515
817	11.207	0.72727	0.	14.951
818	11.207	0.54545	0.	13.944
819	11.207	0.36364	0.	12.571
820	11.207	0.18182	0.	11.826
821	11.023	5.8182	0.	11.176
822	11.023	5.6364	0.	11.19
823	11.023	5.4545	0.	11.924
824	11.023	5.2727	0.	12.389
825	11.023	5.0909	0.	12.511
826	11.023	4.9091	0.	12.288
827	11.023	4.7273	0.	11.744
828	11.023	4.5455	0.	10.925
829	11.023	4.3636	0.	9.8948
830	11.023	4.1818	0.	8.7314
831	11.023	4.	0.	7.5189
832	11.023	3.8182	0.	6.3436
833	11.023	3.6364	0.	5.2879
834	11.023	3.4545	0.	4.425
835	11.023	3.2727	0.	3.8145
836	11.023	3.0909	0.	3.4984
837	11.023	2.9091	0.	3.4984
838	11.023	2.7273	0.	3.8145
839	11.023	2.5455	0.	4.425
840	11.023	2.3636	0.	5.2879
841	11.023	2.1818	0.	6.3436
842	11.023	2.	0.	7.5189
843	11.023	1.8182	0.	8.7314
844	11.023	1.6364	0.	9.8947
845	11.023	1.4545	0.	10.925
846	11.023	1.2727	0.	11.744
847	11.023	1.0909	0.	12.288
848	11.023	0.90909	0.	12.511
849	11.023	0.72727	0.	12.389
850	11.023	0.54545	0.	11.924
851	11.023	0.36364	0.	11.19
852	11.023	0.18182	0.	11.176
853	10.84	5.8182	0.	10.538
854	10.84	5.6364	0.	9.8841
855	10.84	5.4545	0.	10.022
856	10.84	5.2727	0.	9.9724
857	10.84	5.0909	0.	9.6671
858	10.84	4.9091	0.	9.1038
859	10.84	4.7273	0.	8.3044
860	10.84	4.5455	0.	7.3088
861	10.84	4.3636	0.	6.1713
862	10.84	4.1818	0.	4.9568
863	10.84	4.	0.	3.7362
864	10.84	3.8182	0.	2.5816
865	10.84	3.6364	0.	1.5619
866	10.84	3.4545	0.	0.73812
867	10.84	3.2727	0.	0.16055
868	10.84	3.0909	0.	5.4196e-003
869	10.84	2.9091	0.	5.4191e-003
870	10.84	2.7273	0.	0.16055
871	10.84	2.5455	0.	0.73812
872	10.84	2.3636	0.	1.5619
873	10.84	2.1818	0.	2.5816
874	10.84	2.	0.	3.7362
875	10.84	1.8182	0.	4.9568
876	10.84	1.6364	0.	6.1713
877	10.84	1.4545	0.	7.3088
878	10.84	1.2727	0.	8.3044
879	10.84	1.0909	0.	9.1038
880	10.84	0.90909	0.	9.6671
881	10.84	0.72727	0.	9.9724
882	10.84	0.54545	0.	10.022
883	10.84	0.36364	0.	9.8841
884	10.84	0.18182	0.	10.538
885	10.656	5.8182	0.	9.9043
886	10.656	5.6364	0.	8.6304
887	10.656	5.4545	0.	8.2058
888	10.656	5.2727	0.	7.663
889	10.656	5.0909	0.	6.9378
890	10.656	4.9091	0.	6.0303
891	10.656	4.7273	0.	4.9609
892	10.656	4.5455	0.	3.7646
893	10.656	4.3636	0.	2.4881
894	10.656	4.1818	0.	1.1867
895	10.656	4.	0.	9.4374e-003
896	10.656	3.8182	0.	6.0606e-003
897	10.656	3.6364	0.	5.6096e-003
898	10.656	3.4545	0.	5.27e-003
899	10.656	3.2727	0.	5.0254e-003
900	10.656	3.0909	0.	4.8978e-003
901	10.656	2.9091	0.	4.8975e-003
902	10.656	2.7273	0.	5.0255e-003
903	10.656	2.5455	0.	5.2698e-003
904	10.656	2.3636	0.	5.6107e-003
905	10.656	2.1818	0.	6.0604e-003
906	10.656	2.	0.	9.4383e-003
907	10.656	1.8182	0.	1.1867
908	10.656	1.6364	0.	2.4881
909	10.656	1.4545	0.	3.7646
910	10.656	1.2727	0.	4.9609
911	10.656	1.0909	0.	6.0303
912	10.656	0.90909	0.	6.9377
913	10.656	0.72727	0.	7.663
914	10.656	0.54545	0.	8.2058
915	10.656	0.36364	0.	8.6304
916	10.656	0.18182	0.	9.9043
917	10.472	5.8182	0.	9.2671
918	10.472	5.6364	0.	7.4105
919	10.472	5.4545	0.	6.4478
920	10.472	5.2727	0.	5.4256
921	10.472	5.0909	0.	4.2841
922	10.472	4.9091	0.	3.0263
923	10.472	4.7273	0.	1.6719
924	10.472	4.5455	0.	0.25434
925	10.472	4.3636	0.	6.1083e-003
926	10.472	4.1818	0.	5.8012e-003
927	10.472	4.	0.	5.5864e-003
928	10.472	3.8182	0.	5.3459e-003
929	10.472	3.6364	0.	5.1e-003
930	10.472	3.4545	0.	4.8808e-003
931	10.472	3.2727	0.	4.7169e-003
932	10.472	3.0909	0.	4.6286e-003
933	10.472	2.9091	0.	4.6287e-003
934	10.472	2.7273	0.	4.7169e-003
935	10.472	2.5455	0.	4.8812e-003
936	10.472	2.3636	0.	5.0996e-003
937	10.472	2.1818	0.	5.3463e-003
938	10.472	2.	0.	5.5869e-003
939	10.472	1.8182	0.	5.8017e-003
940	10.472	1.6364	0.	6.1086e-003
941	10.472	1.4545	0.	0.25433
942	10.472	1.2727	0.	1.6719
943	10.472	1.0909	0.	3.0263
944	10.472	0.90909	0.	4.2841
945	10.472	0.72727	0.	5.4256
946	10.472	0.54545	0.	6.4478
947	10.472	0.36364	0.	7.4105
948	10.472	0.18182	0.	9.2671
949	10.288	5.8182	0.	8.6205
950	10.288	5.6364	0.	6.2078
951	10.288	5.4545	0.	4.723
952	10.288	5.2727	0.	3.2295
953	10.288	5.0909	0.	1.6722
954	10.288	4.9091	0.	9.6771e-002
955	10.288	4.7273	0.	6.9892e-003
956	10.288	4.5455	0.	5.9653e-003
957	10.288	4.3636	0.	5.6547e-003
958	10.288	4.1818	0.	5.4349e-003
959	10.288	4.	0.	5.213e-003
960	10.288	3.8182	0.	4.9822e-003
961	10.288	3.6364	0.	4.7607e-003
962	10.288	3.4545	0.	4.5718e-003
963	10.288	3.2727	0.	4.432e-003
964	10.288	3.0909	0.	4.3586e-003
965	10.288	2.9091	0.	4.3584e-003
966	10.288	2.7273	0.	4.4323e-003
967	10.288	2.5455	0.	4.5717e-003
968	10.288	2.3636	0.	4.7609e-003
969	10.288	2.1818	0.	4.9825e-003
970	10.288	2.	0.	5.2132e-003
971	10.288	1.8182	0.	5.4355e-003
972	10.288	1.6364	0.	5.6553e-003
973	10.288	1.4545	0.	5.9658e-003
974	10.288	1.2727	0.	6.9897e-003
975	10.288	1.0909	0.	9.6762e-002
976	10.288	0.90909	0.	1.6722
977	10.288	0.72727	0.	3.2294
978	10.288	0.54545	0.	4.723
979	10.288	0.36364	0.	6.2078
980	10.288	0.18182	0.	8.6205
981	10.105	5.8182	0.	7.9589
982	10.105	5.6364	0.	5.0075
983	10.105	5.4545	0.	3.0094
984	10.105	5.2727	0.	1.0491
985	10.105	5.0909	0.	1.0214e-002
986	10.105	4.9091	0.	6.3879e-003
987	10.105	4.7273	0.	5.7796e-003
988	10.105	4.5455	0.	5.5254e-003
989	10.105	4.3636	0.	5.3231e-003
990	10.105	4.1818	0.	5.1151e-003
991	10.105	4.	0.	4.8939e-003
992	10.105	3.8182	0.	4.6694e-003
993	10.105	3.6364	0.	4.4607e-003
994	10.105	3.4545	0.	4.2855e-003
995	10.105	3.2727	0.	4.1596e-003
996	10.105	3.0909	0.	4.0928e-003
997	10.105	2.9091	0.	4.0928e-003
998	10.105	2.7273	0.	4.1598e-003
999	10.105	2.5455	0.	4.2861e-003
1000	10.105	2.3636	0.	4.4609e-003
1001	10.105	2.1818	0.	4.6696e-003
1002	10.105	2.	0.	4.8941e-003
1003	10.105	1.8182	0.	5.1162e-003
1004	10.105	1.6364	0.	5.3234e-003
1005	10.105	1.4545	0.	5.526e-003
1006	10.105	1.2727	0.	5.7803e-003
1007	10.105	1.0909	0.	6.3886e-003
1008	10.105	0.90909	0.	1.0216e-002
1009	10.105	0.72727	0.	1.0491
1010	10.105	0.54545	0.	3.0094
1011	10.105	0.36364	0.	5.0075
1012	10.105	0.18182	0.	7.9589
1013	9.9209	5.8182	0.	7.2772
1014	9.9209	5.6364	0.	3.7961
1015	9.9209	5.4545	0.	1.2874
1016	9.9209	5.2727	0.	8.3719e-003
1017	9.9209	5.0909	0.	5.9342e-003
1018	9.9209	4.9091	0.	5.59e-003
1019	9.9209	4.7273	0.	5.3947e-003
1020	9.9209	4.5455	0.	5.2258e-003
1021	9.9209	4.3636	0.	5.0309e-003
1022	9.9209	4.1818	0.	4.8163e-003
1023	9.9209	4.	0.	4.5893e-003
1024	9.9209	3.8182	0.	4.3646e-003
1025	9.9209	3.6364	0.	4.1602e-003
1026	9.9209	3.4545	0.	3.9922e-003
1027	9.9209	3.2727	0.	3.8726e-003
1028	9.9209	3.0909	0.	3.809e-003
1029	9.9209	2.9091	0.	3.8092e-003
1030	9.9209	2.7273	0.	3.872e-003
1031	9.9209	2.5455	0.	3.9929e-003
1032	9.9209	2.3636	0.	4.1606e-003
1033	9.9209	2.1818	0.	4.365e-003
1034	9.9209	2.	0.	4.5903e-003
1035	9.9209	1.8182	0.	4.8166e-003
1036	9.9209	1.6364	0.	5.0316e-003
1037	9.9209	1.4545	0.	5.2255e-003
1038	9.9209	1.2727	0.	5.3956e-003
1039	9.9209	1.0909	0.	5.5908e-003
1040	9.9209	0.90909	0.	5.9355e-003
1041	9.9209	0.72727	0.	8.3732e-003
1042	9.9209	0.54545	0.	1.2874
1043	9.9209	0.36364	0.	3.7961
1044	9.9209	0.18182	0.	7.2772
1045	9.7372	5.8182	0.	6.5708
1046	9.7372	5.6364	0.	2.5616
1047	9.7372	5.4545	0.	7.4511e-003
1048	9.7372	5.2727	0.	5.7961e-003
1049	9.7372	5.0909	0.	5.3885e-003
1050	9.7372	4.9091	0.	5.3155e-003
1051	9.7372	4.7273	0.	5.154e-003
1052	9.7372	4.5455	0.	4.9715e-003
1053	9.7372	4.3636	0.	4.7526e-003
1054	9.7372	4.1818	0.	4.5159e-003
1055	9.7372	4.	0.	4.2742e-003
1056	9.7372	3.8182	0.	4.0421e-003
1057	9.7372	3.6364	0.	3.8354e-003
1058	9.7372	3.4545	0.	3.6676e-003
1059	9.7372	3.2727	0.	3.5496e-003
1060	9.7372	3.0909	0.	3.4877e-003
1061	9.7372	2.9091	0.	3.4875e-003
1062	9.7372	2.7273	0.	3.5491e-003
1063	9.7372	2.5455	0.	3.6679e-003
1064	9.7372	2.3636	0.	3.8352e-003
1065	9.7372	2.1818	0.	4.0422e-003
1066	9.7372	2.	0.	4.2745e-003
1067	9.7372	1.8182	0.	4.5165e-003
1068	9.7372	1.6364	0.	4.7539e-003
1069	9.7372	1.4545	0.	4.9722e-003
1070	9.7372	1.2727	0.	5.1547e-003
1071	9.7372	1.0909	0.	5.3159e-003
1072	9.7372	0.90909	0.	5.3901e-003
1073	9.7372	0.72727	0.	5.7973e-003
1074	9.7372	0.54545	0.	7.4514e-003
1075	9.7372	0.36364	0.	2.5616
1076	9.7372	0.18182	0.	6.5708
1077	9.5535	5.8182	0.	5.8355
1078	9.5535	5.6364	0.	1.2932
1079	9.5535	5.4545	0.	4.5569e-003
1080	9.5535	5.2727	0.	5.7289e-003
1081	9.5535	5.0909	0.	5.3273e-003
1082	9.5535	4.9091	0.	5.2367e-003
1083	9.5535	4.7273	0.	5.0161e-003
1084	9.5535	4.5455	0.	4.7821e-003
1085	9.5535	4.3636	0.	4.5194e-003
1086	9.5535	4.1818	0.	4.2488e-003
1087	9.5535	4.	0.	3.983e-003
1088	9.5535	3.8182	0.	3.7352e-003
1089	9.5535	3.6364	0.	3.5179e-003
1090	9.5535	3.4545	0.	3.3456e-003
1091	9.5535	3.2727	0.	3.2243e-003
1092	9.5535	3.0909	0.	3.1613e-003
1093	9.5535	2.9091	0.	3.1617e-003
1094	9.5535	2.7273	0.	3.2245e-003
1095	9.5535	2.5455	0.	3.346e-003
1096	9.5535	2.3636	0.	3.5183e-003
1097	9.5535	2.1818	0.	3.7348e-003
1098	9.5535	2.	0.	3.9836e-003
1099	9.5535	1.8182	0.	4.2491e-003
1100	9.5535	1.6364	0.	4.5194e-003
1101	9.5535	1.4545	0.	4.7831e-003
1102	9.5535	1.2727	0.	5.0163e-003
1103	9.5535	1.0909	0.	5.2372e-003
1104	9.5535	0.90909	0.	5.3287e-003
1105	9.5535	0.72727	0.	5.7302e-003
1106	9.5535	0.54545	0.	4.5573e-003
1107	9.5535	0.36364	0.	1.2932
1108	9.5535	0.18182	0.	5.8355
1109	9.3698	5.8182	0.	5.0677
1110	9.3698	5.6364	0.	4.8368e-002
1111	9.3698	5.4545	0.	4.9432e-003
1112	9.3698	5.2727	0.	6.1095e-003
1113	9.3698	5.0909	0.	5.4677e-003
1114	9.3698	4.9091	0.	5.2735e-003
1115	9.3698	4.7273	0.	4.9526e-003
1116	9.3698	4.5455	0.	4.6446e-003
1117	9.3698	4.3636	0.	4.322e-003
1118	9.3698	4.1818	0.	4.0069e-003
1119	9.3698	4.	0.	3.7077e-003
1120	9.3698	3.8182	0.	3.4354e-003
1121	9.3698	3.6364	0.	3.2026e-003
1122	9.3698	3.4545	0.	3.0201e-003
1123	9.3698	3.2727	0.	2.8923e-003
1124	9.3698	3.0909	0.	2.8276e-003
1125	9.3698	2.9091	0.	2.827e-003
1126	9.3698	2.7273	0.	2.8928e-003
1127	9.3698	2.5455	0.	3.0202e-003
1128	9.3698	2.3636	0.	3.2027e-003
1129	9.3698	2.1818	0.	3.4359e-003
1130	9.3698	2.	0.	3.7083e-003
1131	9.3698	1.8182	0.	4.0075e-003
1132	9.3698	1.6364	0.	4.3228e-003
1133	9.3698	1.4545	0.	4.645e-003
1134	9.3698	1.2727	0.	4.9536e-003
1135	9.3698	1.0909	0.	5.2737e-003
1136	9.3698	0.90909	0.	5.4693e-003
1137	9.3698	0.72727	0.	6.1105e-003
1138	9.3698	0.54545	0.	4.9436e-003
1139	9.3698	0.36364	0.	4.8368e-002
1140	9.3698	0.18182	0.	5.0677
1141	9.186	5.8182	0.	4.2644
1142	9.186	5.6364	0.	2.1023e-002
1143	9.186	5.4545	0.	5.666e-003
1144	9.186	5.2727	0.	6.6867e-003
1145	9.186	5.0909	0.	5.7262e-003
1146	9.186	4.9091	0.	5.3877e-003
1147	9.186	4.7273	0.	4.9421e-003
1148	9.186	4.5455	0.	4.5424e-003
1149	9.186	4.3636	0.	4.1471e-003
1150	9.186	4.1818	0.	3.7763e-003
1151	9.186	4.	0.	3.435e-003
1152	9.186	3.8182	0.	3.131e-003
1153	9.186	3.6364	0.	2.8756e-003
1154	9.186	3.4545	0.	2.6771e-003
1155	9.186	3.2727	0.	2.5407e-003
1156	9.186	3.0909	0.	2.4706e-003
1157	9.186	2.9091	0.	2.4706e-003
1158	9.186	2.7273	0.	2.5404e-003
1159	9.186	2.5455	0.	2.6775e-003
1160	9.186	2.3636	0.	2.8761e-003
1161	9.186	2.1818	0.	3.1313e-003
1162	9.186	2.	0.	3.4351e-003
1163	9.186	1.8182	0.	3.7768e-003
1164	9.186	1.6364	0.	4.1477e-003
1165	9.186	1.4545	0.	4.5434e-003
1166	9.186	1.2727	0.	4.9431e-003
1167	9.186	1.0909	0.	5.3888e-003
1168	9.186	0.90909	0.	5.7278e-003
1169	9.186	0.72727	0.	6.6876e-003
1170	9.186	0.54545	0.	5.6661e-003
1171	9.186	0.36364	0.	2.1024e-002
1172	9.186	0.18182	0.	4.2644
1173	9.0023	5.8182	0.	3.4242
1174	9.0023	5.6364	0.	2.3858e-002
1175	9.0023	5.4545	0.	6.5515e-003
1176	9.0023	5.2727	0.	7.4037e-003
1177	9.0023	5.0909	0.	6.0835e-003
1178	9.0023	4.9091	0.	5.5747e-003
1179	9.0023	4.7273	0.	4.9849e-003
1180	9.0023	4.5455	0.	4.4783e-003
1181	9.0023	4.3636	0.	3.9991e-003
1182	9.0023	4.1818	0.	3.562e-003
1183	9.0023	4.	0.	3.1694e-003
1184	9.0023	3.8182	0.	2.8264e-003
1185	9.0023	3.6364	0.	2.5428e-003
1186	9.0023	3.4545	0.	2.3246e-003
1187	9.0023	3.2727	0.	2.1747e-003
1188	9.0023	3.0909	0.	2.0987e-003
1189	9.0023	2.9091	0.	2.0987e-003
1190	9.0023	2.7273	0.	2.1747e-003
1191	9.0023	2.5455	0.	2.3249e-003
1192	9.0023	2.3636	0.	2.5432e-003
1193	9.0023	2.1818	0.	2.8271e-003
1194	9.0023	2.	0.	3.1702e-003
1195	9.0023	1.8182	0.	3.563e-003
1196	9.0023	1.6364	0.	3.9995e-003
1197	9.0023	1.4545	0.	4.4788e-003
1198	9.0023	1.2727	0.	4.9857e-003
1199	9.0023	1.0909	0.	5.5756e-003
1200	9.0023	0.90909	0.	6.0846e-003
1201	9.0023	0.72727	0.	7.4045e-003
1202	9.0023	0.54545	0.	6.5522e-003
1203	9.0023	0.36364	0.	2.386e-002
1204	9.0023	0.18182	0.	3.4242
1205	8.8186	5.8182	0.	2.5494
1206	8.8186	5.6364	0.	2.7435e-002
1207	8.8186	5.4545	0.	7.5518e-003
1208	8.8186	5.2727	0.	8.2289e-003
1209	8.8186	5.0909	0.	6.5181e-003
1210	8.8186	4.9091	0.	5.8191e-003
1211	8.8186	4.7273	0.	5.0675e-003
1212	8.8186	4.5455	0.	4.4409e-003
1213	8.8186	4.3636	0.	3.8656e-003
1214	8.8186	4.1818	0.	3.3533e-003
1215	8.8186	4.	0.	2.9011e-003
1216	8.8186	3.8182	0.	2.5127e-003
1217	8.8186	3.6364	0.	2.1935e-003
1218	8.8186	3.4545	0.	1.95e-003
1219	8.8186	3.2727	0.	1.7847e-003
1220	8.8186	3.0909	0.	1.7006e-003
1221	8.8186	2.9091	0.	1.7006e-003
1222	8.8186	2.7273	0.	1.7844e-003
1223	8.8186	2.5455	0.	1.9506e-003
1224	8.8186	2.3636	0.	2.1935e-003
1225	8.8186	2.1818	0.	2.5124e-003
1226	8.8186	2.	0.	2.9018e-003
1227	8.8186	1.8182	0.	3.354e-003
1228	8.8186	1.6364	0.	3.8662e-003
1229	8.8186	1.4545	0.	4.4418e-003
1230	8.8186	1.2727	0.	5.0681e-003
1231	8.8186	1.0909	0.	5.8196e-003
1232	8.8186	0.90909	0.	6.5196e-003
1233	8.8186	0.72727	0.	8.23e-003
1234	8.8186	0.54545	0.	7.5524e-003
1235	8.8186	0.36364	0.	2.7436e-002
1236	8.8186	0.18182	0.	2.5494
1237	8.6349	5.8182	0.	1.6559
1238	8.6349	5.6364	0.	3.1382e-002
1239	8.6349	5.4545	0.	8.657e-003
1240	8.6349	5.2727	0.	9.1556e-003
1241	8.6349	5.0909	0.	7.0257e-003
1242	8.6349	4.9091	0.	6.1176e-003
1243	8.6349	4.7273	0.	5.1886e-003
1244	8.6349	4.5455	0.	4.429e-003
1245	8.6349	4.3636	0.	3.7463e-003
1246	8.6349	4.1818	0.	3.1484e-003
1247	8.6349	4.	0.	2.6281e-003
1248	8.6349	3.8182	0.	2.1854e-003
1249	8.6349	3.6364	0.	1.8259e-003
1250	8.6349	3.4545	0.	1.5532e-003
1251	8.6349	3.2727	0.	1.3686e-003
1252	8.6349	3.0909	0.	1.2753e-003
1253	8.6349	2.9091	0.	1.2751e-003
1254	8.6349	2.7273	0.	1.3687e-003
1255	8.6349	2.5455	0.	1.5534e-003
1256	8.6349	2.3636	0.	1.8261e-003
1257	8.6349	2.1818	0.	2.1859e-003
1258	8.6349	2.	0.	2.6283e-003
1259	8.6349	1.8182	0.	3.149e-003
1260	8.6349	1.6364	0.	3.7466e-003
1261	8.6349	1.4545	0.	4.4299e-003
1262	8.6349	1.2727	0.	5.1894e-003
1263	8.6349	1.0909	0.	6.1183e-003
1264	8.6349	0.90909	0.	7.0275e-003
1265	8.6349	0.72727	0.	9.1562e-003
1266	8.6349	0.54545	0.	8.6577e-003
1267	8.6349	0.36364	0.	3.1382e-002
1268	8.6349	0.18182	0.	1.6559
1269	8.4512	5.8182	0.	0.82634
1270	8.4512	5.6364	0.	3.5653e-002
1271	8.4512	5.4545	0.	9.8732e-003
1272	8.4512	5.2727	0.	1.0187e-002
1273	8.4512	5.0909	0.	7.6105e-003
1274	8.4512	4.9091	0.	6.475e-003
1275	8.4512	4.7273	0.	5.3517e-003
1276	8.4512	4.5455	0.	4.4456e-003
1277	8.4512	4.3636	0.	3.6441e-003
1278	8.4512	4.1818	0.	2.9509e-003
1279	8.4512	4.	0.	2.3534e-003
1280	8.4512	3.8182	0.	1.8503e-003
1281	8.4512	3.6364	0.	1.4441e-003
1282	8.4512	3.4545	0.	1.1377e-003
1283	8.4512	3.2727	0.	9.3077e-004
1284	8.4512	3.0909	0.	8.2646e-004
1285	8.4512	2.9091	0.	8.2652e-004
1286	8.4512	2.7273	0.	9.3071e-004
1287	8.4512	2.5455	0.	1.1377e-003
1288	8.4512	2.3636	0.	1.4443e-003
1289	8.4512	2.1818	0.	1.8507e-003
1290	8.4512	2.	0.	2.3539e-003
1291	8.4512	1.8182	0.	2.9512e-003
1292	8.4512	1.6364	0.	3.6448e-003
1293	8.4512	1.4545	0.	4.4462e-003
1294	8.4512	1.2727	0.	5.3529e-003
1295	8.4512	1.0909	0.	6.4757e-003
1296	8.4512	0.90909	0.	7.6116e-003
1297	8.4512	0.72727	0.	1.0189e-002
1298	8.4512	0.54545	0.	9.8734e-003
1299	8.4512	0.36364	0.	3.5655e-002
1300	8.4512	0.18182	0.	0.82634
1301	8.2674	5.8182	0.	0.33982
1302	8.2674	5.6364	0.	4.0258e-002
1303	8.2674	5.4545	0.	1.1206e-002
1304	8.2674	5.2727	0.	1.1328e-002
1305	8.2674	5.0909	0.	8.2728e-003
1306	8.2674	4.9091	0.	6.8912e-003
1307	8.2674	4.7273	0.	5.5577e-003
1308	8.2674	4.5455	0.	4.4911e-003
1309	8.2674	4.3636	0.	3.5588e-003
1310	8.2674	4.1818	0.	2.7594e-003
1311	8.2674	4.	0.	2.0768e-003
1312	8.2674	3.8182	0.	1.5058e-003
1313	8.2674	3.6364	0.	1.0463e-003
1314	8.2674	3.4545	0.	7.0192e-004
1315	8.2674	3.2727	0.	4.6984e-004
1316	8.2674	3.0909	0.	3.5297e-004
1317	8.2674	2.9091	0.	3.5314e-004
1318	8.2674	2.7273	0.	4.6978e-004
1319	8.2674	2.5455	0.	7.0174e-004
1320	8.2674	2.3636	0.	1.0472e-003
1321	8.2674	2.1818	0.	1.5059e-003
1322	8.2674	2.	0.	2.0772e-003
1323	8.2674	1.8182	0.	2.76e-003
1324	8.2674	1.6364	0.	3.5595e-003
1325	8.2674	1.4545	0.	4.4914e-003
1326	8.2674	1.2727	0.	5.5582e-003
1327	8.2674	1.0909	0.	6.8923e-003
1328	8.2674	0.90909	0.	8.2742e-003
1329	8.2674	0.72727	0.	1.1329e-002
1330	8.2674	0.54545	0.	1.1207e-002
1331	8.2674	0.36364	0.	4.0259e-002
1332	8.2674	0.18182	0.	0.33982
1333	8.0837	5.8182	0.	0.19302
1334	8.0837	5.6364	0.	4.521e-002
1335	8.0837	5.4545	0.	1.2654e-002
1336	8.0837	5.2727	0.	1.2575e-002
1337	8.0837	5.0909	0.	9.0074e-003
1338	8.0837	4.9091	0.	7.3603e-003
1339	8.0837	4.7273	0.	5.7981e-003
1340	8.0837	4.5455	0.	4.5568e-003
1341	8.0837	4.3636	0.	3.4812e-003
1342	8.0837	4.1818	0.	2.5656e-003
1343	8.0837	4.	0.	1.7881e-003
1344	8.0837	3.8182	0.	1.1412e-003
1345	8.0837	3.6364	0.	6.2376e-004
1346	8.0837	3.4545	0.	2.3514e-004
1347	8.0837	3.2727	0.	-2.4748e-005
1348	8.0837	3.0909	0.	-1.5534e-004
1349	8.0837	2.9091	0.	-1.5499e-004
1350	8.0837	2.7273	0.	-2.4807e-005
1351	8.0837	2.5455	0.	2.3603e-004
1352	8.0837	2.3636	0.	6.2376e-004
1353	8.0837	2.1818	0.	1.1412e-003
1354	8.0837	2.	0.	1.7883e-003
1355	8.0837	1.8182	0.	2.5664e-003
1356	8.0837	1.6364	0.	3.4818e-003
1357	8.0837	1.4545	0.	4.5573e-003
1358	8.0837	1.2727	0.	5.7987e-003
1359	8.0837	1.0909	0.	7.3613e-003
1360	8.0837	0.90909	0.	9.0088e-003
1361	8.0837	0.72727	0.	1.2576e-002
1362	8.0837	0.54545	0.	1.2655e-002
1363	8.0837	0.36364	0.	4.5212e-002
1364	8.0837	0.18182	0.	0.19302
1365	7.9	5.8182	0.	0.1435
1366	7.9	5.6364	0.	5.0546e-002
1367	7.9	5.4545	0.	1.423e-002
1368	7.9	5.2727	0.	1.3938e-002
1369	7.9	5.0909	0.	9.8206e-003
1370	7.9	4.9091	0.	7.8863e-003
1371	7.9	4.7273	0.	6.0765e-003
1372	7.9	4.5455	0.	4.6455e-003
1373	7.9	4.3636	0.	3.4131e-003
1374	7.9	4.1818	0.	2.3699e-003
1375	7.9	4.	0.	1.4882e-003
1376	7.9	3.8182	0.	7.5747e-004
1377	7.9	3.6364	0.	1.7459e-004
1378	7.9	3.4545	0.	-2.6096e-004
1379	7.9	3.2727	0.	-5.5273e-004
1380	7.9	3.0909	0.	-6.9896e-004
1381	7.9	2.9091	0.	-6.9902e-004
1382	7.9	2.7273	0.	-5.5237e-004
1383	7.9	2.5455	0.	-2.6084e-004
1384	7.9	2.3636	0.	1.7507e-004
1385	7.9	2.1818	0.	7.5801e-004
1386	7.9	2.	0.	1.4884e-003
1387	7.9	1.8182	0.	2.3706e-003
1388	7.9	1.6364	0.	3.4135e-003
1389	7.9	1.4545	0.	4.6458e-003
1390	7.9	1.2727	0.	6.0773e-003
1391	7.9	1.0909	0.	7.887e-003
1392	7.9	0.90909	0.	9.8218e-003
1393	7.9	0.72727	0.	1.3939e-002
1394	7.9	0.54545	0.	1.4231e-002
1395	7.9	0.36364	0.	5.0547e-002
1396	7.9	0.18182	0.	0.1435
1397	7.7163	5.8182	0.	0.12184
1398	7.7163	5.6364	0.	5.6308e-002
1399	7.7163	5.4545	0.	1.5952e-002
1400	7.7163	5.2727	0.	1.543e-002
1401	7.7163	5.0909	0.	1.0722e-002
1402	7.7163	4.9091	0.	8.4778e-003
1403	7.7163	4.7273	0.	6.3997e-003
1404	7.7163	4.5455	0.	4.7617e-003
1405	7.7163	4.3636	0.	3.3594e-003
1406	7.7163	4.1818	0.	2.1766e-003
1407	7.7163	4.	0.	1.1807e-003
1408	7.7163	3.8182	0.	3.5808e-004
1409	7.7163	3.6364	0.	-2.964e-004
1410	7.7163	3.4545	0.	-7.848e-004
1411	7.7163	3.2727	0.	-1.1113e-003
1412	7.7163	3.0909	0.	-1.2749e-003
1413	7.7163	2.9091	0.	-1.2749e-003
1414	7.7163	2.7273	0.	-1.1112e-003
1415	7.7163	2.5455	0.	-7.8474e-004
1416	7.7163	2.3636	0.	-2.9617e-004
1417	7.7163	2.1818	0.	3.5862e-004
1418	7.7163	2.	0.	1.1811e-003
1419	7.7163	1.8182	0.	2.1774e-003
1420	7.7163	1.6364	0.	3.36e-003
1421	7.7163	1.4545	0.	4.7624e-003
1422	7.7163	1.2727	0.	6.4006e-003
1423	7.7163	1.0909	0.	8.4785e-003
1424	7.7163	0.90909	0.	1.0724e-002
1425	7.7163	0.72727	0.	1.5431e-002
1426	7.7163	0.54545	0.	1.5952e-002
1427	7.7163	0.36364	0.	5.6309e-002
1428	7.7163	0.18182	0.	0.12184
1429	7.5326	5.8182	0.	0.11136
1430	7.5326	5.6364	0.	6.2532e-002
1431	7.5326	5.4545	0.	1.7825e-002
1432	7.5326	5.2727	0.	1.7056e-002
1433	7.5326	5.0909	0.	1.1713e-002
1434	7.5326	4.9091	0.	9.1332e-003
1435	7.5326	4.7273	0.	6.7651e-003
1436	7.5326	4.5455	0.	4.9026e-003
1437	7.5326	4.3636	0.	3.3147e-003
1438	7.5326	4.1818	0.	1.9802e-003
1439	7.5326	4.	0.	8.5884e-004
1440	7.5326	3.8182	0.	-6.4149e-005
1441	7.5326	3.6364	0.	-7.9743e-004
1442	7.5326	3.4545	0.	-1.3444e-003
1443	7.5326	3.2727	0.	-1.709e-003
1444	7.5326	3.0909	0.	-1.8916e-003
1445	7.5326	2.9091	0.	-1.8917e-003
1446	7.5326	2.7273	0.	-1.7092e-003
1447	7.5326	2.5455	0.	-1.3436e-003
1448	7.5326	2.3636	0.	-7.9719e-004
1449	7.5326	2.1818	0.	-6.421e-005
1450	7.5326	2.	0.	8.592e-004
1451	7.5326	1.8182	0.	1.9803e-003
1452	7.5326	1.6364	0.	3.3156e-003
1453	7.5326	1.4545	0.	4.9031e-003
1454	7.5326	1.2727	0.	6.766e-003
1455	7.5326	1.0909	0.	9.1335e-003
1456	7.5326	0.90909	0.	1.1715e-002
1457	7.5326	0.72727	0.	1.7057e-002
1458	7.5326	0.54545	0.	1.7826e-002
1459	7.5326	0.36364	0.	6.2533e-002
1460	7.5326	0.18182	0.	0.11136
1461	7.3488	5.8182	0.	0.10663
1462	7.3488	5.6364	0.	6.9262e-002
1463	7.3488	5.4545	0.	1.9863e-002
1464	7.3488	5.2727	0.	1.8825e-002
1465	7.3488	5.0909	0.	1.2797e-002
1466	7.3488	4.9091	0.	9.8539e-003
1467	7.3488	4.7273	0.	7.1717e-003
1468	7.3488	4.5455	0.	5.0661e-003
1469	7.3488	4.3636	0.	3.2763e-003
1470	7.3488	4.1818	0.	1.7756e-003
1471	7.3488	4.	0.	5.1844e-004
1472	7.3488	3.8182	0.	-5.1489e-004
1473	7.3488	3.6364	0.	-1.3344e-003
1474	7.3488	3.4545	0.	-1.9443e-003
1475	7.3488	3.2727	0.	-2.3512e-003
1476	7.3488	3.0909	0.	-2.555e-003
1477	7.3488	2.9091	0.	-2.5548e-003
1478	7.3488	2.7273	0.	-2.3511e-003
1479	7.3488	2.5455	0.	-1.9445e-003
1480	7.3488	2.3636	0.	-1.3341e-003
1481	7.3488	2.1818	0.	-5.1424e-004
1482	7.3488	2.	0.	5.1909e-004
1483	7.3488	1.8182	0.	1.7762e-003
1484	7.3488	1.6364	0.	3.277e-003
1485	7.3488	1.4545	0.	5.0665e-003
1486	7.3488	1.2727	0.	7.1726e-003
1487	7.3488	1.0909	0.	9.8547e-003
1488	7.3488	0.90909	0.	1.2798e-002
1489	7.3488	0.72727	0.	1.8826e-002
1490	7.3488	0.54545	0.	1.9864e-002
1491	7.3488	0.36364	0.	6.9263e-002
1492	7.3488	0.18182	0.	0.10663
1493	7.1651	5.8182	0.	0.10542
1494	7.1651	5.6364	0.	7.6558e-002
1495	7.1651	5.4545	0.	2.2091e-002
1496	7.1651	5.2727	0.	2.0759e-002
1497	7.1651	5.0909	0.	1.3991e-002
1498	7.1651	4.9091	0.	1.0655e-002
1499	7.1651	4.7273	0.	7.632e-003
1500	7.1651	4.5455	0.	5.2617e-003
1501	7.1651	4.3636	0.	3.253e-003
1502	7.1651	4.1818	0.	1.5722e-003
1503	7.1651	4.	0.	1.6645e-004
1504	7.1651	3.8182	0.	-9.8727e-004
1505	7.1651	3.6364	0.	-1.9007e-003
1506	7.1651	3.4545	0.	-2.581e-003
1507	7.1651	3.2727	0.	-3.0333e-003
1508	7.1651	3.0909	0.	-3.2599e-003
1509	7.1651	2.9091	0.	-3.2598e-003
1510	7.1651	2.7273	0.	-3.0333e-003
1511	7.1651	2.5455	0.	-2.5805e-003
1512	7.1651	2.3636	0.	-1.9007e-003
1513	7.1651	2.1818	0.	-9.868e-004
1514	7.1651	2.	0.	1.6687e-004
1515	7.1651	1.8182	0.	1.5724e-003
1516	7.1651	1.6364	0.	3.2537e-003
1517	7.1651	1.4545	0.	5.2624e-003
1518	7.1651	1.2727	0.	7.6328e-003
1519	7.1651	1.0909	0.	1.0655e-002
1520	7.1651	0.90909	0.	1.3992e-002
1521	7.1651	0.72727	0.	2.0759e-002
1522	7.1651	0.54545	0.	2.2092e-002
1523	7.1651	0.36364	0.	7.6559e-002
1524	7.1651	0.18182	0.	0.10542
1525	6.9814	5.8182	0.	0.10671
1526	6.9814	5.6364	0.	8.4474e-002
1527	6.9814	5.4545	0.	2.4527e-002
1528	6.9814	5.2727	0.	2.2871e-002
1529	6.9814	5.0909	0.	1.5303e-002
1530	6.9814	4.9091	0.	1.1541e-002
1531	6.9814	4.7273	0.	8.1492e-003
1532	6.9814	4.5455	0.	5.4919e-003
1533	6.9814	4.3636	0.	3.2453e-003
1534	6.9814	4.1818	0.	1.3679e-003
1535	6.9814	4.	0.	-1.9951e-004
1536	6.9814	3.8182	0.	-1.484e-003
1537	6.9814	3.6364	0.	-2.5006e-003
1538	6.9814	3.4545	0.	-3.2563e-003
1539	6.9814	3.2727	0.	-3.7591e-003
1540	6.9814	3.0909	0.	-4.0105e-003
1541	6.9814	2.9091	0.	-4.0105e-003
1542	6.9814	2.7273	0.	-3.7589e-003
1543	6.9814	2.5455	0.	-3.2561e-003
1544	6.9814	2.3636	0.	-2.5001e-003
1545	6.9814	2.1818	0.	-1.4837e-003
1546	6.9814	2.	0.	-1.9915e-004
1547	6.9814	1.8182	0.	1.3691e-003
1548	6.9814	1.6364	0.	3.2459e-003
1549	6.9814	1.4545	0.	5.4927e-003
1550	6.9814	1.2727	0.	8.1498e-003
1551	6.9814	1.0909	0.	1.1542e-002
1552	6.9814	0.90909	0.	1.5305e-002
1553	6.9814	0.72727	0.	2.2872e-002
1554	6.9814	0.54545	0.	2.4527e-002
1555	6.9814	0.36364	0.	8.4475e-002
1556	6.9814	0.18182	0.	0.10671
1557	6.7977	5.8182	0.	0.11
1558	6.7977	5.6364	0.	9.3065e-002
1559	6.7977	5.4545	0.	2.7185e-002
1560	6.7977	5.2727	0.	2.5172e-002
1561	6.7977	5.0909	0.	1.6738e-002
1562	6.7977	4.9091	0.	1.2514e-002
1563	6.7977	4.7273	0.	8.7216e-003
1564	6.7977	4.5455	0.	5.7535e-003
1565	6.7977	4.3636	0.	3.2477e-003
1566	6.7977	4.1818	0.	1.1574e-003
1567	6.7977	4.	0.	-5.8667e-004
1568	6.7977	3.8182	0.	-2.0133e-003
1569	6.7977	3.6364	0.	-3.1417e-003
1570	6.7977	3.4545	0.	-3.9805e-003
1571	6.7977	3.2727	0.	-4.5382e-003
1572	6.7977	3.0909	0.	-4.8166e-003
1573	6.7977	2.9091	0.	-4.8166e-003
1574	6.7977	2.7273	0.	-4.538e-003
1575	6.7977	2.5455	0.	-3.9802e-003
1576	6.7977	2.3636	0.	-3.1412e-003
1577	6.7977	2.1818	0.	-2.0133e-003
1578	6.7977	2.	0.	-5.859e-004
1579	6.7977	1.8182	0.	1.1576e-003
1580	6.7977	1.6364	0.	3.2484e-003
1581	6.7977	1.4545	0.	5.7542e-003
1582	6.7977	1.2727	0.	8.7227e-003
1583	6.7977	1.0909	0.	1.2515e-002
1584	6.7977	0.90909	0.	1.674e-002
1585	6.7977	0.72727	0.	2.5173e-002
1586	6.7977	0.54545	0.	2.7186e-002
1587	6.7977	0.36364	0.	9.3067e-002
1588	6.7977	0.18182	0.	0.11001
1589	6.614	5.8182	0.	0.11507
1590	6.614	5.6364	0.	0.1024
1591	6.614	5.4545	0.	3.0089e-002
1592	6.614	5.2727	0.	2.7681e-002
1593	6.614	5.0909	0.	1.8308e-002
1594	6.614	4.9091	0.	1.3581e-002
1595	6.614	4.7273	0.	9.3549e-003
1596	6.614	4.5455	0.	6.0482e-003
1597	6.614	4.3636	0.	3.2616e-003
1598	6.614	4.1818	0.	9.3899e-004
1599	6.614	4.	0.	-9.9596e-004
1600	6.614	3.8182	0.	-2.5783e-003
1601	6.614	3.6364	0.	-3.8279e-003
1602	6.614	3.4545	0.	-4.7569e-003
1603	6.614	3.2727	0.	-5.374e-003
1604	6.614	3.0909	0.	-5.6824e-003
1605	6.614	2.9091	0.	-5.6823e-003
1606	6.614	2.7273	0.	-5.3739e-003
1607	6.614	2.5455	0.	-4.7567e-003
1608	6.614	2.3636	0.	-3.8279e-003
1609	6.614	2.1818	0.	-2.5777e-003
1610	6.614	2.	0.	-9.953e-004
1611	6.614	1.8182	0.	9.397e-004
1612	6.614	1.6364	0.	3.2622e-003
1613	6.614	1.4545	0.	6.049e-003
1614	6.614	1.2727	0.	9.3556e-003
1615	6.614	1.0909	0.	1.3582e-002
1616	6.614	0.90909	0.	1.8309e-002
1617	6.614	0.72727	0.	2.7682e-002
1618	6.614	0.54545	0.	3.009e-002
1619	6.614	0.36364	0.	0.1024
1620	6.614	0.18182	0.	0.11507
1621	6.4302	5.8182	0.	0.12185
1622	6.4302	5.6364	0.	0.11255
1623	6.4302	5.4545	0.	3.3275e-002
1624	6.4302	5.2727	0.	3.0427e-002
1625	6.4302	5.0909	0.	2.0035e-002
1626	6.4302	4.9091	0.	1.4763e-002
1627	6.4302	4.7273	0.	1.0064e-002
1628	6.4302	4.5455	0.	6.3904e-003
1629	6.4302	4.3636	0.	3.2982e-003
1630	6.4302	4.1818	0.	7.2377e-004
1631	6.4302	4.	0.	-1.4192e-003
1632	6.4302	3.8182	0.	-3.1702e-003
1633	6.4302	3.6364	0.	-4.5526e-003
1634	6.4302	3.4545	0.	-5.5794e-003
1635	6.4302	3.2727	0.	-6.2614e-003
1636	6.4302	3.0909	0.	-6.6019e-003
1637	6.4302	2.9091	0.	-6.6017e-003
1638	6.4302	2.7273	0.	-6.2614e-003
1639	6.4302	2.5455	0.	-5.5791e-003
1640	6.4302	2.3636	0.	-4.5523e-003
1641	6.4302	2.1818	0.	-3.1698e-003
1642	6.4302	2.	0.	-1.4187e-003
1643	6.4302	1.8182	0.	7.2419e-004
1644	6.4302	1.6364	0.	3.2988e-003
1645	6.4302	1.4545	0.	6.3911e-003
1646	6.4302	1.2727	0.	1.0065e-002
1647	6.4302	1.0909	0.	1.4764e-002
1648	6.4302	0.90909	0.	2.0037e-002
1649	6.4302	0.72727	0.	3.0428e-002
1650	6.4302	0.54545	0.	3.3275e-002
1651	6.4302	0.36364	0.	0.11256
1652	6.4302	0.18182	0.	0.12185
1653	6.2465	5.8182	0.	0.13038
1654	6.2465	5.6364	0.	0.12361
1655	6.2465	5.4545	0.	3.6766e-002
1656	6.2465	5.2727	0.	3.3427e-002
1657	6.2465	5.0909	0.	2.1929e-002
1658	6.2465	4.9091	0.	1.6063e-002
1659	6.2465	4.7273	0.	1.0852e-002
1660	6.2465	4.5455	0.	6.7785e-003
1661	6.2465	4.3636	0.	3.355e-003
1662	6.2465	4.1818	0.	5.0627e-004
1663	6.2465	4.	0.	-1.8627e-003
1664	6.2465	3.8182	0.	-3.7968e-003
1665	6.2465	3.6364	0.	-5.3227e-003
1666	6.2465	3.4545	0.	-6.4562e-003
1667	6.2465	3.2727	0.	-7.2083e-003
1668	6.2465	3.0909	0.	-7.584e-003
1669	6.2465	2.9091	0.	-7.584e-003
1670	6.2465	2.7273	0.	-7.2082e-003
1671	6.2465	2.5455	0.	-6.4559e-003
1672	6.2465	2.3636	0.	-5.3227e-003
1673	6.2465	2.1818	0.	-3.7965e-003
1674	6.2465	2.	0.	-1.8623e-003
1675	6.2465	1.8182	0.	5.0699e-004
1676	6.2465	1.6364	0.	3.3555e-003
1677	6.2465	1.4545	0.	6.7793e-003
1678	6.2465	1.2727	0.	1.0853e-002
1679	6.2465	1.0909	0.	1.6064e-002
1680	6.2465	0.90909	0.	2.193e-002
1681	6.2465	0.72727	0.	3.3428e-002
1682	6.2465	0.54545	0.	3.6767e-002
1683	6.2465	0.36364	0.	0.12361
1684	6.2465	0.18182	0.	0.13038
1685	6.0628	5.8182	0.	0.14077
1686	6.0628	5.6364	0.	0.13566
1687	6.0628	5.4545	0.	4.0597e-002
1688	6.0628	5.2727	0.	3.6708e-002
1689	6.0628	5.0909	0.	2.4008e-002
1690	6.0628	4.9091	0.	1.7495e-002
1691	6.0628	4.7273	0.	1.1727e-002
1692	6.0628	4.5455	0.	7.2192e-003
1693	6.0628	4.3636	0.	3.4349e-003
1694	6.0628	4.1818	0.	2.8886e-004
1695	6.0628	4.	0.	-2.3256e-003
1696	6.0628	3.8182	0.	-4.4585e-003
1697	6.0628	3.6364	0.	-6.1405e-003
1698	6.0628	3.4545	0.	-7.389e-003
1699	6.0628	3.2727	0.	-8.2176e-003
1700	6.0628	3.0909	0.	-8.6309e-003
1701	6.0628	2.9091	0.	-8.6308e-003
1702	6.0628	2.7273	0.	-8.2174e-003
1703	6.0628	2.5455	0.	-7.3888e-003
1704	6.0628	2.3636	0.	-6.1402e-003
1705	6.0628	2.1818	0.	-4.4581e-003
1706	6.0628	2.	0.	-2.3252e-003
1707	6.0628	1.8182	0.	2.8949e-004
1708	6.0628	1.6364	0.	3.4356e-003
1709	6.0628	1.4545	0.	7.22e-003
1710	6.0628	1.2727	0.	1.1727e-002
1711	6.0628	1.0909	0.	1.7496e-002
1712	6.0628	0.90909	0.	2.4009e-002
1713	6.0628	0.72727	0.	3.6709e-002
1714	6.0628	0.54545	0.	4.0598e-002
1715	6.0628	0.36364	0.	0.13567
1716	6.0628	0.18182	0.	0.14078
1717	5.8791	5.8182	0.	0.15323
1718	5.8791	5.6364	0.	0.14881
1719	5.8791	5.4545	0.	4.4813e-002
1720	5.8791	5.2727	0.	4.0306e-002
1721	5.8791	5.0909	0.	2.6297e-002
1722	5.8791	4.9091	0.	1.908e-002
1723	5.8791	4.7273	0.	1.2705e-002
1724	5.8791	4.5455	0.	7.7257e-003
1725	5.8791	4.3636	0.	3.5496e-003
1726	5.8791	4.1818	0.	8.0502e-005
1727	5.8791	4.	0.	-2.8004e-003
1728	5.8791	3.8182	0.	-5.1487e-003
1729	5.8791	3.6364	0.	-6.9995e-003
1730	5.8791	3.4545	0.	-8.3728e-003
1731	5.8791	3.2727	0.	-9.2836e-003
1732	5.8791	3.0909	0.	-9.7379e-003
1733	5.8791	2.9091	0.	-9.7378e-003
1734	5.8791	2.7273	0.	-9.2835e-003
1735	5.8791	2.5455	0.	-8.3726e-003
1736	5.8791	2.3636	0.	-6.9992e-003
1737	5.8791	2.1818	0.	-5.1484e-003
1738	5.8791	2.	0.	-2.7999e-003
1739	5.8791	1.8182	0.	8.0889e-005
1740	5.8791	1.6364	0.	3.5504e-003
1741	5.8791	1.4545	0.	7.7262e-003
1742	5.8791	1.2727	0.	1.2706e-002
1743	5.8791	1.0909	0.	1.908e-002
1744	5.8791	0.90909	0.	2.6298e-002
1745	5.8791	0.72727	0.	4.0307e-002
1746	5.8791	0.54545	0.	4.4813e-002
1747	5.8791	0.36364	0.	0.14882
1748	5.8791	0.18182	0.	0.15324
1749	5.6953	5.8182	0.	0.16801
1750	5.6953	5.6364	0.	0.16316
1751	5.6953	5.4545	0.	4.9445e-002
1752	5.6953	5.2727	0.	4.4243e-002
1753	5.6953	5.0909	0.	2.8809e-002
1754	5.6953	4.9091	0.	2.0823e-002
1755	5.6953	4.7273	0.	1.3788e-002
1756	5.6953	4.5455	0.	8.2957e-003
1757	5.6953	4.3636	0.	3.6938e-003
1758	5.6953	4.1818	0.	-1.2585e-004
1759	5.6953	4.	0.	-3.2951e-003
1760	5.6953	3.8182	0.	-5.8769e-003
1761	5.6953	3.6364	0.	-7.9097e-003
1762	5.6953	3.4545	0.	-9.4178e-003
1763	5.6953	3.2727	0.	-1.0417e-002
1764	5.6953	3.0909	0.	-1.0916e-002
1765	5.6953	2.9091	0.	-1.0916e-002
1766	5.6953	2.7273	0.	-1.0417e-002
1767	5.6953	2.5455	0.	-9.4175e-003
1768	5.6953	2.3636	0.	-7.9095e-003
1769	5.6953	2.1818	0.	-5.8763e-003
1770	5.6953	2.	0.	-3.2946e-003
1771	5.6953	1.8182	0.	-1.2546e-004
1772	5.6953	1.6364	0.	3.6944e-003
1773	5.6953	1.4545	0.	8.2962e-003
1774	5.6953	1.2727	0.	1.3789e-002
1775	5.6953	1.0909	0.	2.0823e-002
1776	5.6953	0.90909	0.	2.881e-002
1777	5.6953	0.72727	0.	4.4244e-002
1778	5.6953	0.54545	0.	4.9445e-002
1779	5.6953	0.36364	0.	0.16317
1780	5.6953	0.18182	0.	0.16802
1781	5.5116	5.8182	0.	0.18546
1782	5.5116	5.6364	0.	0.17885
1783	5.5116	5.4545	0.	5.4546e-002
1784	5.5116	5.2727	0.	4.856e-002
1785	5.5116	5.0909	0.	3.1571e-002
1786	5.5116	4.9091	0.	2.2745e-002
1787	5.5116	4.7273	0.	1.4993e-002
1788	5.5116	4.5455	0.	8.9412e-003
1789	5.5116	4.3636	0.	3.8772e-003
1790	5.5116	4.1818	0.	-3.2271e-004
1791	5.5116	4.	0.	-3.804e-003
1792	5.5116	3.8182	0.	-6.6374e-003
1793	5.5116	3.6364	0.	-8.8669e-003
1794	5.5116	3.4545	0.	-1.052e-002
1795	5.5116	3.2727	0.	-1.1615e-002
1796	5.5116	3.0909	0.	-1.216e-002
1797	5.5116	2.9091	0.	-1.216e-002
1798	5.5116	2.7273	0.	-1.1615e-002
1799	5.5116	2.5455	0.	-1.0519e-002
1800	5.5116	2.3636	0.	-8.8668e-003
1801	5.5116	2.1818	0.	-6.6369e-003
1802	5.5116	2.	0.	-3.8035e-003
1803	5.5116	1.8182	0.	-3.2215e-004
1804	5.5116	1.6364	0.	3.8777e-003
1805	5.5116	1.4545	0.	8.9419e-003
1806	5.5116	1.2727	0.	1.4993e-002
1807	5.5116	1.0909	0.	2.2746e-002
1808	5.5116	0.90909	0.	3.1573e-002
1809	5.5116	0.72727	0.	4.856e-002
1810	5.5116	0.54545	0.	5.4546e-002
1811	5.5116	0.36364	0.	0.17885
1812	5.5116	0.18182	0.	0.18546
1813	5.3279	5.8182	0.	0.20601
1814	5.3279	5.6364	0.	0.19601
1815	5.3279	5.4545	0.	6.0177e-002
1816	5.3279	5.2727	0.	5.3302e-002
1817	5.3279	5.0909	0.	3.4619e-002
1818	5.3279	4.9091	0.	2.4875e-002
1819	5.3279	4.7273	0.	1.6339e-002
1820	5.3279	4.5455	0.	9.6796e-003
1821	5.3279	4.3636	0.	4.1137e-003
1822	5.3279	4.1818	0.	-4.9776e-004
1823	5.3279	4.	0.	-4.3163e-003
1824	5.3279	3.8182	0.	-7.4205e-003
1825	5.3279	3.6364	0.	-9.861e-003
1826	5.3279	3.4545	0.	-1.1669e-002
1827	5.3279	3.2727	0.	-1.2865e-002
1828	5.3279	3.0909	0.	-1.3462e-002
1829	5.3279	2.9091	0.	-1.3462e-002
1830	5.3279	2.7273	0.	-1.2865e-002
1831	5.3279	2.5455	0.	-1.1669e-002
1832	5.3279	2.3636	0.	-9.8609e-003
1833	5.3279	2.1818	0.	-7.4201e-003
1834	5.3279	2.	0.	-4.3159e-003
1835	5.3279	1.8182	0.	-4.9719e-004
1836	5.3279	1.6364	0.	4.1144e-003
1837	5.3279	1.4545	0.	9.6802e-003
1838	5.3279	1.2727	0.	1.634e-002
1839	5.3279	1.0909	0.	2.4875e-002
1840	5.3279	0.90909	0.	3.462e-002
1841	5.3279	0.72727	0.	5.3303e-002
1842	5.3279	0.54545	0.	6.0178e-002
1843	5.3279	0.36364	0.	0.19601
1844	5.3279	0.18182	0.	0.20602
1845	5.1442	5.8182	0.	0.23021
1846	5.1442	5.6364	0.	0.21479
1847	5.1442	5.4545	0.	6.6395e-002
1848	5.1442	5.2727	0.	5.8511e-002
1849	5.1442	5.0909	0.	3.7976e-002
1850	5.1442	4.9091	0.	2.7227e-002
1851	5.1442	4.7273	0.	1.7837e-002
1852	5.1442	4.5455	0.	1.0516e-002
1853	5.1442	4.3636	0.	4.4057e-003
1854	5.1442	4.1818	0.	-6.5086e-004
1855	5.1442	4.	0.	-4.8323e-003
1856	5.1442	3.8182	0.	-8.2271e-003
1857	5.1442	3.6364	0.	-1.0893e-002
1858	5.1442	3.4545	0.	-1.2866e-002
1859	5.1442	3.2727	0.	-1.4171e-002
1860	5.1442	3.0909	0.	-1.482e-002
1861	5.1442	2.9091	0.	-1.482e-002
1862	5.1442	2.7273	0.	-1.4171e-002
1863	5.1442	2.5455	0.	-1.2866e-002
1864	5.1442	2.3636	0.	-1.0893e-002
1865	5.1442	2.1818	0.	-8.2268e-003
1866	5.1442	2.	0.	-4.832e-003
1867	5.1442	1.8182	0.	-6.5027e-004
1868	5.1442	1.6364	0.	4.4063e-003
1869	5.1442	1.4545	0.	1.0517e-002
1870	5.1442	1.2727	0.	1.7838e-002
1871	5.1442	1.0909	0.	2.7227e-002
1872	5.1442	0.90909	0.	3.7977e-002
1873	5.1442	0.72727	0.	5.8512e-002
1874	5.1442	0.54545	0.	6.6396e-002
1875	5.1442	0.36364	0.	0.21479
1876	5.1442	0.18182	0.	0.23021
1877	4.9605	5.8182	0.	0.25873
1878	4.9605	5.6364	0.	0.23539
1879	4.9605	5.4545	0.	7.3267e-002
1880	4.9605	5.2727	0.	6.4234e-002
1881	4.9605	5.0909	0.	4.1673e-002
1882	4.9605	4.9091	0.	2.9823e-002
1883	4.9605	4.7273	0.	1.9502e-002
1884	4.9605	4.5455	0.	1.1461e-002
1885	4.9605	4.3636	0.	4.7605e-003
1886	4.9605	4.1818	0.	-7.7623e-004
1887	4.9605	4.	0.	-5.3473e-003
1888	4.9605	3.8182	0.	-9.0523e-003
1889	4.9605	3.6364	0.	-1.1957e-002
1890	4.9605	3.4545	0.	-1.4104e-002
1891	4.9605	3.2727	0.	-1.5523e-002
1892	4.9605	3.0909	0.	-1.6229e-002
1893	4.9605	2.9091	0.	-1.6229e-002
1894	4.9605	2.7273	0.	-1.5523e-002
1895	4.9605	2.5455	0.	-1.4104e-002
1896	4.9605	2.3636	0.	-1.1957e-002
1897	4.9605	2.1818	0.	-9.0521e-003
1898	4.9605	2.	0.	-5.3469e-003
1899	4.9605	1.8182	0.	-7.7573e-004
1900	4.9605	1.6364	0.	4.761e-003
1901	4.9605	1.4545	0.	1.1462e-002
1902	4.9605	1.2727	0.	1.9502e-002
1903	4.9605	1.0909	0.	2.9824e-002
1904	4.9605	0.90909	0.	4.1674e-002
1905	4.9605	0.72727	0.	6.4235e-002
1906	4.9605	0.54545	0.	7.3268e-002
1907	4.9605	0.36364	0.	0.23539
1908	4.9605	0.18182	0.	0.25873
1909	4.7767	5.8182	0.	0.29241
1910	4.7767	5.6364	0.	0.258
1911	4.7767	5.4545	0.	8.0884e-002
1912	4.7767	5.2727	0.	7.0539e-002
1913	4.7767	5.0909	0.	4.5759e-002
1914	4.7767	4.9091	0.	3.2701e-002
1915	4.7767	4.7273	0.	2.1362e-002
1916	4.7767	4.5455	0.	1.2539e-002
1917	4.7767	4.3636	0.	5.199e-003
1918	4.7767	4.1818	0.	-8.5406e-004
1919	4.7767	4.	0.	-5.8413e-003
1920	4.7767	3.8182	0.	-9.8751e-003
1921	4.7767	3.6364	0.	-1.3032e-002
1922	4.7767	3.4545	0.	-1.5362e-002
1923	4.7767	3.2727	0.	-1.6899e-002
1924	4.7767	3.0909	0.	-1.7663e-002
1925	4.7767	2.9091	0.	-1.7663e-002
1926	4.7767	2.7273	0.	-1.6899e-002
1927	4.7767	2.5455	0.	-1.5361e-002
1928	4.7767	2.3636	0.	-1.3032e-002
1929	4.7767	2.1818	0.	-9.8749e-003
1930	4.7767	2.	0.	-5.8409e-003
1931	4.7767	1.8182	0.	-8.5345e-004
1932	4.7767	1.6364	0.	5.1997e-003
1933	4.7767	1.4545	0.	1.2539e-002
1934	4.7767	1.2727	0.	2.1363e-002
1935	4.7767	1.0909	0.	3.2702e-002
1936	4.7767	0.90909	0.	4.576e-002
1937	4.7767	0.72727	0.	7.054e-002
1938	4.7767	0.54545	0.	8.0885e-002
1939	4.7767	0.36364	0.	0.258
1940	4.7767	0.18182	0.	0.29241
1941	4.593	5.8182	0.	0.33233
1942	4.593	5.6364	0.	0.28285
1943	4.593	5.4545	0.	8.9338e-002
1944	4.593	5.2727	0.	7.749e-002
1945	4.593	5.0909	0.	5.0276e-002
1946	4.593	4.9091	0.	3.589e-002
1947	4.593	4.7273	0.	2.344e-002
1948	4.593	4.5455	0.	1.3764e-002
1949	4.593	4.3636	0.	5.7345e-003
1950	4.593	4.1818	0.	-8.7209e-004
1951	4.593	4.	0.	-6.3014e-003
1952	4.593	3.8182	0.	-1.0681e-002
1953	4.593	3.6364	0.	-1.41e-002
1954	4.593	3.4545	0.	-1.6618e-002
1955	4.593	3.2727	0.	-1.8277e-002
1956	4.593	3.0909	0.	-1.91e-002
1957	4.593	2.9091	0.	-1.91e-002
1958	4.593	2.7273	0.	-1.8277e-002
1959	4.593	2.5455	0.	-1.6618e-002
1960	4.593	2.3636	0.	-1.41e-002
1961	4.593	2.1818	0.	-1.0681e-002
1962	4.593	2.	0.	-6.3009e-003
1963	4.593	1.8182	0.	-8.7167e-004
1964	4.593	1.6364	0.	5.735e-003
1965	4.593	1.4545	0.	1.3765e-002
1966	4.593	1.2727	0.	2.344e-002
1967	4.593	1.0909	0.	3.5891e-002
1968	4.593	0.90909	0.	5.0277e-002
1969	4.593	0.72727	0.	7.7491e-002
1970	4.593	0.54545	0.	8.9338e-002
1971	4.593	0.36364	0.	0.28286
1972	4.593	0.18182	0.	0.33233
1973	4.4093	5.8182	0.	0.37982
1974	4.4093	5.6364	0.	0.31022
1975	4.4093	5.4545	0.	9.8725e-002
1976	4.4093	5.2727	0.	8.5151e-002
1977	4.4093	5.0909	0.	5.5263e-002
1978	4.4093	4.9091	0.	3.9415e-002
1979	4.4093	4.7273	0.	2.5749e-002
1980	4.4093	4.5455	0.	1.5148e-002
1981	4.4093	4.3636	0.	6.3742e-003
1982	4.4093	4.1818	0.	-8.2232e-004
1983	4.4093	4.	0.	-6.7172e-003
1984	4.4093	3.8182	0.	-1.1456e-002
1985	4.4093	3.6364	0.	-1.5145e-002
1986	4.4093	3.4545	0.	-1.7853e-002
1987	4.4093	3.2727	0.	-1.9634e-002
1988	4.4093	3.0909	0.	-2.0517e-002
1989	4.4093	2.9091	0.	-2.0517e-002
1990	4.4093	2.7273	0.	-1.9634e-002
1991	4.4093	2.5455	0.	-1.7853e-002
1992	4.4093	2.3636	0.	-1.5145e-002
1993	4.4093	2.1818	0.	-1.1456e-002
1994	4.4093	2.	0.	-6.7167e-003
1995	4.4093	1.8182	0.	-8.22e-004
1996	4.4093	1.6364	0.	6.375e-003
1997	4.4093	1.4545	0.	1.5148e-002
1998	4.4093	1.2727	0.	2.575e-002
1999	4.4093	1.0909	0.	3.9416e-002
2000	4.4093	0.90909	0.	5.5264e-002
2001	4.4093	0.72727	0.	8.5151e-002
2002	4.4093	0.54545	0.	9.8725e-002
2003	4.4093	0.36364	0.	0.31022
2004	4.4093	0.18182	0.	0.37982
2005	4.2256	5.8182	0.	0.43658
2006	4.2256	5.6364	0.	0.34039
2007	4.2256	5.4545	0.	0.10917
2008	4.2256	5.2727	0.	9.3602e-002
2009	4.2256	5.0909	0.	6.077e-002
2010	4.2256	4.9091	0.	4.331e-002
2011	4.2256	4.7273	0.	2.8313e-002
2012	4.2256	4.5455	0.	1.6707e-002
2013	4.2256	4.3636	0.	7.1347e-003
2014	4.2256	4.1818	0.	-6.8735e-004
2015	4.2256	4.	0.	-7.0673e-003
2016	4.2256	3.8182	0.	-1.2175e-002
2017	4.2256	3.6364	0.	-1.6134e-002
2018	4.2256	3.4545	0.	-1.9032e-002
2019	4.2256	3.2727	0.	-2.0931e-002
2020	4.2256	3.0909	0.	-2.1871e-002
2021	4.2256	2.9091	0.	-2.1871e-002
2022	4.2256	2.7273	0.	-2.0931e-002
2023	4.2256	2.5455	0.	-1.9031e-002
2024	4.2256	2.3636	0.	-1.6134e-002
2025	4.2256	2.1818	0.	-1.2175e-002
2026	4.2256	2.	0.	-7.0668e-003
2027	4.2256	1.8182	0.	-6.8667e-004
2028	4.2256	1.6364	0.	7.1351e-003
2029	4.2256	1.4545	0.	1.6707e-002
2030	4.2256	1.2727	0.	2.8314e-002
2031	4.2256	1.0909	0.	4.3311e-002
2032	4.2256	0.90909	0.	6.0771e-002
2033	4.2256	0.72727	0.	9.3603e-002
2034	4.2256	0.54545	0.	0.10917
2035	4.2256	0.36364	0.	0.34039
2036	4.2256	0.18182	0.	0.43658
2037	4.0419	5.8182	0.	0.50484
2038	4.0419	5.6364	0.	0.37374
2039	4.0419	5.4545	0.	0.12081
2040	4.0419	5.2727	0.	0.10295
2041	4.0419	5.0909	0.	6.6865e-002
2042	4.0419	4.9091	0.	4.7623e-002
2043	4.0419	4.7273	0.	3.1169e-002
2044	4.0419	4.5455	0.	1.8472e-002
2045	4.0419	4.3636	0.	8.0456e-003
2046	4.0419	4.1818	0.	-4.3287e-004
2047	4.0419	4.	0.	-7.3118e-003
2048	4.0419	3.8182	0.	-1.2789e-002
2049	4.0419	3.6364	0.	-1.7014e-002
2050	4.0419	3.4545	0.	-2.0091e-002
2051	4.0419	3.2727	0.	-2.2102e-002
2052	4.0419	3.0909	0.	-2.3095e-002
2053	4.0419	2.9091	0.	-2.3095e-002
2054	4.0419	2.7273	0.	-2.2102e-002
2055	4.0419	2.5455	0.	-2.0091e-002
2056	4.0419	2.3636	0.	-1.7013e-002
2057	4.0419	2.1818	0.	-1.2789e-002
2058	4.0419	2.	0.	-7.3115e-003
2059	4.0419	1.8182	0.	-4.3241e-004
2060	4.0419	1.6364	0.	8.0462e-003
2061	4.0419	1.4545	0.	1.8473e-002
2062	4.0419	1.2727	0.	3.117e-002
2063	4.0419	1.0909	0.	4.7624e-002
2064	4.0419	0.90909	0.	6.6866e-002
2065	4.0419	0.72727	0.	0.10295
2066	4.0419	0.54545	0.	0.12081
2067	4.0419	0.36364	0.	0.37374
2068	4.0419	0.18182	0.	0.50484
2069	3.8581	5.8182	0.	0.58746
2070	3.8581	5.6364	0.	0.41068
2071	3.8581	5.4545	0.	0.13381
2072	3.8581	5.2727	0.	0.11328
2073	3.8581	5.0909	0.	7.3601e-002
2074	3.8581	4.9091	0.	5.2384e-002
2075	3.8581	4.7273	0.	3.4333e-002
2076	3.8581	4.5455	0.	2.0456e-002
2077	3.8581	4.3636	0.	9.1217e-003
2078	3.8581	4.1818	0.	-3.883e-005
2079	3.8581	4.	0.	-7.4211e-003
2080	3.8581	3.8182	0.	-1.3259e-002
2081	3.8581	3.6364	0.	-1.7732e-002
2082	3.8581	3.4545	0.	-2.0972e-002
2083	3.8581	3.2727	0.	-2.3079e-002
2084	3.8581	3.0909	0.	-2.4117e-002
2085	3.8581	2.9091	0.	-2.4117e-002
2086	3.8581	2.7273	0.	-2.3079e-002
2087	3.8581	2.5455	0.	-2.0972e-002
2088	3.8581	2.3636	0.	-1.7732e-002
2089	3.8581	2.1818	0.	-1.3259e-002
2090	3.8581	2.	0.	-7.4207e-003
2091	3.8581	1.8182	0.	-3.8342e-005
2092	3.8581	1.6364	0.	9.1223e-003
2093	3.8581	1.4545	0.	2.0457e-002
2094	3.8581	1.2727	0.	3.4334e-002
2095	3.8581	1.0909	0.	5.2385e-002
2096	3.8581	0.90909	0.	7.3602e-002
2097	3.8581	0.72727	0.	0.11328
2098	3.8581	0.54545	0.	0.13381
2099	3.8581	0.36364	0.	0.41068
2100	3.8581	0.18182	0.	0.58746
2101	3.6744	5.8182	0.	0.68828
2102	3.6744	5.6364	0.	0.45168
2103	3.6744	5.4545	0.	0.14835
2104	3.6744	5.2727	0.	0.12471
2105	3.6744	5.0909	0.	8.1044e-002
2106	3.6744	4.9091	0.	5.7633e-002
2107	3.6744	4.7273	0.	3.7831e-002
2108	3.6744	4.5455	0.	2.2679e-002
2109	3.6744	4.3636	0.	1.0387e-002
2110	3.6744	4.1818	0.	5.2934e-004
2111	3.6744	4.	0.	-7.3476e-003
2112	3.6744	3.8182	0.	-1.3522e-002
2113	3.6744	3.6364	0.	-1.8213e-002
2114	3.6744	3.4545	0.	-2.1587e-002
2115	3.6744	3.2727	0.	-2.3769e-002
2116	3.6744	3.0909	0.	-2.4839e-002
2117	3.6744	2.9091	0.	-2.4839e-002
2118	3.6744	2.7273	0.	-2.3769e-002
2119	3.6744	2.5455	0.	-2.1587e-002
2120	3.6744	2.3636	0.	-1.8213e-002
2121	3.6744	2.1818	0.	-1.3522e-002
2122	3.6744	2.	0.	-7.3472e-003
2123	3.6744	1.8182	0.	5.2979e-004
2124	3.6744	1.6364	0.	1.0388e-002
2125	3.6744	1.4545	0.	2.268e-002
2126	3.6744	1.2727	0.	3.7831e-002
2127	3.6744	1.0909	0.	5.7634e-002
2128	3.6744	0.90909	0.	8.1045e-002
2129	3.6744	0.72727	0.	0.12471
2130	3.6744	0.54545	0.	0.14835
2131	3.6744	0.36364	0.	0.45169
2132	3.6744	0.18182	0.	0.68828
2133	3.4907	5.8182	0.	0.81244
2134	3.4907	5.6364	0.	0.49735
2135	3.4907	5.4545	0.	0.16465
2136	3.4907	5.2727	0.	0.13738
2137	3.4907	5.0909	0.	8.927e-002
2138	3.4907	4.9091	0.	6.3415e-002
2139	3.4907	4.7273	0.	4.1691e-002
2140	3.4907	4.5455	0.	2.5169e-002
2141	3.4907	4.3636	0.	1.1877e-002
2142	3.4907	4.1818	0.	1.3211e-003
2143	3.4907	4.	0.	-7.023e-003
2144	3.4907	3.8182	0.	-1.3491e-002
2145	3.4907	3.6364	0.	-1.8353e-002
2146	3.4907	3.4545	0.	-2.1817e-002
2147	3.4907	3.2727	0.	-2.404e-002
2148	3.4907	3.0909	0.	-2.5126e-002
2149	3.4907	2.9091	0.	-2.5126e-002
2150	3.4907	2.7273	0.	-2.404e-002
2151	3.4907	2.5455	0.	-2.1817e-002
2152	3.4907	2.3636	0.	-1.8353e-002
2153	3.4907	2.1818	0.	-1.3491e-002
2154	3.4907	2.	0.	-7.0226e-003
2155	3.4907	1.8182	0.	1.3215e-003
2156	3.4907	1.6364	0.	1.1877e-002
2157	3.4907	1.4545	0.	2.5169e-002
2158	3.4907	1.2727	0.	4.1691e-002
2159	3.4907	1.0909	0.	6.3416e-002
2160	3.4907	0.90909	0.	8.9271e-002
2161	3.4907	0.72727	0.	0.13738
2162	3.4907	0.54545	0.	0.16465
2163	3.4907	0.36364	0.	0.49735
2164	3.4907	0.18182	0.	0.81244
2165	3.307	5.8182	0.	0.96699
2166	3.307	5.6364	0.	0.54836
2167	3.307	5.4545	0.	0.18296
2168	3.307	5.2727	0.	0.15141
2169	3.307	5.0909	0.	9.834e-002
2170	3.307	4.9091	0.	6.9753e-002
2171	3.307	4.7273	0.	4.5921e-002
2172	3.307	4.5455	0.	2.7933e-002
2173	3.307	4.3636	0.	1.3613e-002
2174	3.307	4.1818	0.	2.3799e-003
2175	3.307	4.	0.	-6.3793e-003
2176	3.307	3.8182	0.	-1.3073e-002
2177	3.307	3.6364	0.	-1.8037e-002
2178	3.307	3.4545	0.	-2.1529e-002
2179	3.307	3.2727	0.	-2.3748e-002
2180	3.307	3.0909	0.	-2.4825e-002
2181	3.307	2.9091	0.	-2.4825e-002
2182	3.307	2.7273	0.	-2.3748e-002
2183	3.307	2.5455	0.	-2.1529e-002
2184	3.307	2.3636	0.	-1.8036e-002
2185	3.307	2.1818	0.	-1.3073e-002
2186	3.307	2.	0.	-6.379e-003
2187	3.307	1.8182	0.	2.3802e-003
2188	3.307	1.6364	0.	1.3613e-002
2189	3.307	1.4545	0.	2.7934e-002
2190	3.307	1.2727	0.	4.5921e-002
2191	3.307	1.0909	0.	6.9754e-002
2192	3.307	0.90909	0.	9.8341e-002
2193	3.307	0.72727	0.	0.15141
2194	3.307	0.54545	0.	0.18296
2195	3.307	0.36364	0.	0.54836
2196	3.307	0.18182	0.	0.967
2197	3.1233	5.8182	0.	1.1619
2198	3.1233	5.6364	0.	0.60555
2199	3.1233	5.4545	0.	0.20356
2200	3.1233	5.2727	0.	0.16698
2201	3.1233	5.0909	0.	0.10833
2202	3.1233	4.9091	0.	7.6681e-002
2203	3.1233	4.7273	0.	5.0537e-002
2204	3.1233	4.5455	0.	3.0995e-002
2205	3.1233	4.3636	0.	1.5638e-002
2206	3.1233	4.1818	0.	3.7781e-003
2207	3.1233	4.	0.	-5.3116e-003
2208	3.1233	3.8182	0.	-1.2133e-002
2209	3.1233	3.6364	0.	-1.7101e-002
2210	3.1233	3.4545	0.	-2.054e-002
2211	3.1233	3.2727	0.	-2.2698e-002
2212	3.1233	3.0909	0.	-2.3736e-002
2213	3.1233	2.9091	0.	-2.3736e-002
2214	3.1233	2.7273	0.	-2.2698e-002
2215	3.1233	2.5455	0.	-2.054e-002
2216	3.1233	2.3636	0.	-1.7101e-002
2217	3.1233	2.1818	0.	-1.2133e-002
2218	3.1233	2.	0.	-5.3112e-003
2219	3.1233	1.8182	0.	3.7785e-003
2220	3.1233	1.6364	0.	1.5639e-002
2221	3.1233	1.4545	0.	3.0995e-002
2222	3.1233	1.2727	0.	5.0538e-002
2223	3.1233	1.0909	0.	7.6681e-002
2224	3.1233	0.90909	0.	0.10833
2225	3.1233	0.72727	0.	0.16698
2226	3.1233	0.54545	0.	0.20356
2227	3.1233	0.36364	0.	0.60555
2228	3.1233	0.18182	0.	1.1619
2229	2.9395	5.8182	0.	1.4114
2230	2.9395	5.6364	0.	0.66995
2231	2.9395	5.4545	0.	0.2268
2232	2.9395	5.2727	0.	0.18426
2233	2.9395	5.0909	0.	0.11932
2234	2.9395	4.9091	0.	8.4228e-002
2235	2.9395	4.7273	0.	5.5557e-002
2236	2.9395	4.5455	0.	3.4384e-002
2237	2.9395	4.3636	0.	1.8015e-002
2238	2.9395	4.1818	0.	5.6183e-003
2239	2.9395	4.	0.	-3.6769e-003
2240	2.9395	3.8182	0.	-1.0491e-002
2241	2.9395	3.6364	0.	-1.5338e-002
2242	2.9395	3.4545	0.	-1.8622e-002
2243	2.9395	3.2727	0.	-2.0645e-002
2244	2.9395	3.0909	0.	-2.1607e-002
2245	2.9395	2.9091	0.	-2.1607e-002
2246	2.9395	2.7273	0.	-2.0645e-002
2247	2.9395	2.5455	0.	-1.8622e-002
2248	2.9395	2.3636	0.	-1.5338e-002
2249	2.9395	2.1818	0.	-1.049e-002
2250	2.9395	2.	0.	-3.6765e-003
2251	2.9395	1.8182	0.	5.6186e-003
2252	2.9395	1.6364	0.	1.8016e-002
2253	2.9395	1.4545	0.	3.4385e-002
2254	2.9395	1.2727	0.	5.5557e-002
2255	2.9395	1.0909	0.	8.4228e-002
2256	2.9395	0.90909	0.	0.11932
2257	2.9395	0.72727	0.	0.18426
2258	2.9395	0.54545	0.	0.2268
2259	2.9395	0.36364	0.	0.66995
2260	2.9395	0.18182	0.	1.4114
2261	2.7558	5.8182	0.	1.7368
2262	2.7558	5.6364	0.	0.7428
2263	2.7558	5.4545	0.	0.25311
2264	2.7558	5.2727	0.	0.20346
2265	2.7558	5.0909	0.	0.13138
2266	2.7558	4.9091	0.	9.2422e-002
2267	2.7558	4.7273	0.	6.0998e-002
2268	2.7558	4.5455	0.	3.8147e-002
2269	2.7558	4.3636	0.	2.0836e-002
2270	2.7558	4.1818	0.	8.0446e-003
2271	2.7558	4.	0.	-1.2818e-003
2272	2.7558	3.8182	0.	-7.9132e-003
2273	2.7558	3.6364	0.	-1.2485e-002
2274	2.7558	3.4545	0.	-1.5491e-002
2275	2.7558	3.2727	0.	-1.7297e-002
2276	2.7558	3.0909	0.	-1.814e-002
2277	2.7558	2.9091	0.	-1.814e-002
2278	2.7558	2.7273	0.	-1.7296e-002
2279	2.7558	2.5455	0.	-1.5491e-002
2280	2.7558	2.3636	0.	-1.2485e-002
2281	2.7558	2.1818	0.	-7.913e-003
2282	2.7558	2.	0.	-1.2815e-003
2283	2.7558	1.8182	0.	8.0449e-003
2284	2.7558	1.6364	0.	2.0836e-002
2285	2.7558	1.4545	0.	3.8148e-002
2286	2.7558	1.2727	0.	6.0999e-002
2287	2.7558	1.0909	0.	9.2422e-002
2288	2.7558	0.90909	0.	0.13138
2289	2.7558	0.72727	0.	0.20346
2290	2.7558	0.54545	0.	0.25311
2291	2.7558	0.36364	0.	0.74281
2292	2.7558	0.18182	0.	1.7368
2293	2.5721	5.8182	0.	2.1706
2294	2.5721	5.6364	0.	0.82565
2295	2.5721	5.4545	0.	0.28293
2296	2.5721	5.2727	0.	0.22478
2297	2.5721	5.0909	0.	0.14456
2298	2.5721	4.9091	0.	0.10123
2299	2.5721	4.7273	0.	6.6835e-002
2300	2.5721	4.5455	0.	4.2303e-002
2301	2.5721	4.3636	0.	2.4183e-002
2302	2.5721	4.1818	0.	1.1205e-002
2303	2.5721	4.	0.	2.076e-003
2304	2.5721	3.8182	0.	-4.159e-003
2305	2.5721	3.6364	0.	-8.2764e-003
2306	2.5721	3.4545	0.	-1.0868e-002
2307	2.5721	3.2727	0.	-1.2366e-002
2308	2.5721	3.0909	0.	-1.3047e-002
2309	2.5721	2.9091	0.	-1.3047e-002
2310	2.5721	2.7273	0.	-1.2366e-002
2311	2.5721	2.5455	0.	-1.0868e-002
2312	2.5721	2.3636	0.	-8.2762e-003
2313	2.5721	2.1818	0.	-4.1588e-003
2314	2.5721	2.	0.	2.0764e-003
2315	2.5721	1.8182	0.	1.1206e-002
2316	2.5721	1.6364	0.	2.4184e-002
2317	2.5721	1.4545	0.	4.2303e-002
2318	2.5721	1.2727	0.	6.6836e-002
2319	2.5721	1.0909	0.	0.10123
2320	2.5721	0.90909	0.	0.14456
2321	2.5721	0.72727	0.	0.22478
2322	2.5721	0.54545	0.	0.28293
2323	2.5721	0.36364	0.	0.82565
2324	2.5721	0.18182	0.	2.1706
2325	2.3884	5.8182	0.	2.7647
2326	2.3884	5.6364	0.	0.92049
2327	2.3884	5.4545	0.	0.31697
2328	2.3884	5.2727	0.	0.24859
2329	2.3884	5.0909	0.	0.15905
2330	2.3884	4.9091	0.	0.11081
2331	2.3884	4.7273	0.	7.3242e-002
2332	2.3884	4.5455	0.	4.7103e-002
2333	2.3884	4.3636	0.	2.84e-002
2334	2.3884	4.1818	0.	1.5521e-002
2335	2.3884	4.	0.	6.8716e-003
2336	2.3884	3.8182	0.	1.2778e-003
2337	2.3884	3.6364	0.	-2.1937e-003
2338	2.3884	3.4545	0.	-4.2359e-003
2339	2.3884	3.2727	0.	-5.3408e-003
2340	2.3884	3.0909	0.	-5.8183e-003
2341	2.3884	2.9091	0.	-5.8183e-003
2342	2.3884	2.7273	0.	-5.3408e-003
2343	2.3884	2.5455	0.	-4.2357e-003
2344	2.3884	2.3636	0.	-2.1936e-003
2345	2.3884	2.1818	0.	1.2779e-003
2346	2.3884	2.	0.	6.8717e-003
2347	2.3884	1.8182	0.	1.5521e-002
2348	2.3884	1.6364	0.	2.84e-002
2349	2.3884	1.4545	0.	4.7104e-002
2350	2.3884	1.2727	0.	7.3243e-002
2351	2.3884	1.0909	0.	0.11081
2352	2.3884	0.90909	0.	0.15905
2353	2.3884	0.72727	0.	0.24859
2354	2.3884	0.54545	0.	0.31697
2355	2.3884	0.36364	0.	0.92049
2356	2.3884	0.18182	0.	2.7647
2357	2.2047	5.8182	0.	3.6053
2358	2.2047	5.6364	0.	1.0295
2359	2.2047	5.4545	0.	0.3556
2360	2.2047	5.2727	0.	0.27479
2361	2.2047	5.0909	0.	0.17447
2362	2.2047	4.9091	0.	0.12071
2363	2.2047	4.7273	0.	7.9836e-002
2364	2.2047	4.5455	0.	5.2265e-002
2365	2.2047	4.3636	0.	3.3302e-002
2366	2.2047	4.1818	0.	2.0877e-002
2367	2.2047	4.	0.	1.3025e-002
2368	2.2047	3.8182	0.	8.3175e-003
2369	2.2047	3.6364	0.	5.6632e-003
2370	2.2047	3.4545	0.	4.2787e-003
2371	2.2047	3.2727	0.	3.6271e-003
2372	2.2047	3.0909	0.	3.3795e-003
2373	2.2047	2.9091	0.	3.3795e-003
2374	2.2047	2.7273	0.	3.6272e-003
2375	2.2047	2.5455	0.	4.2788e-003
2376	2.2047	2.3636	0.	5.6634e-003
2377	2.2047	2.1818	0.	8.3177e-003
2378	2.2047	2.	0.	1.3025e-002
2379	2.2047	1.8182	0.	2.0877e-002
2380	2.2047	1.6364	0.	3.3302e-002
2381	2.2047	1.4545	0.	5.2265e-002
2382	2.2047	1.2727	0.	7.9836e-002
2383	2.2047	1.0909	0.	0.12071
2384	2.2047	0.90909	0.	0.17447
2385	2.2047	0.72727	0.	0.27479
2386	2.2047	0.54545	0.	0.3556
2387	2.2047	0.36364	0.	1.0295
2388	2.2047	0.18182	0.	3.6053
2389	2.0209	5.8182	0.	4.8427
2390	2.0209	5.6364	0.	1.157
2391	2.0209	5.4545	0.	0.40126
2392	2.0209	5.2727	0.	0.30547
2393	2.0209	5.0909	0.	0.19281
2394	2.0209	4.9091	0.	0.13301
2395	2.0209	4.7273	0.	8.887e-002
2396	2.0209	4.5455	0.	6.0249e-002
2397	2.0209	4.3636	0.	4.1508e-002
2398	2.0209	4.1818	0.	2.9981e-002
2399	2.0209	4.	0.	2.3262e-002
2400	2.0209	3.8182	0.	1.966e-002
2401	2.0209	3.6364	0.	1.7944e-002
2402	2.0209	3.4545	0.	1.7271e-002
2403	2.0209	3.2727	0.	1.709e-002
2404	2.0209	3.0909	0.	1.7075e-002
2405	2.0209	2.9091	0.	1.7075e-002
2406	2.0209	2.7273	0.	1.709e-002
2407	2.0209	2.5455	0.	1.7271e-002
2408	2.0209	2.3636	0.	1.7944e-002
2409	2.0209	2.1818	0.	1.966e-002
2410	2.0209	2.	0.	2.3262e-002
2411	2.0209	1.8182	0.	2.9982e-002
2412	2.0209	1.6364	0.	4.1508e-002
2413	2.0209	1.4545	0.	6.0249e-002
2414	2.0209	1.2727	0.	8.887e-002
2415	2.0209	1.0909	0.	0.13301
2416	2.0209	0.90909	0.	0.19281
2417	2.0209	0.72727	0.	0.30547
2418	2.0209	0.54545	0.	0.40126
2419	2.0209	0.36364	0.	1.157
2420	2.0209	0.18182	0.	4.8427
2421	1.8372	5.8182	0.	6.7461
2422	1.8372	5.6364	0.	1.3026
2423	1.8372	5.4545	0.	0.44927
2424	1.8372	5.2727	0.	0.33444
2425	1.8372	5.0909	0.	0.20707
2426	1.8372	4.9091	0.	0.14042
2427	1.8372	4.7273	0.	9.3016e-002
2428	1.8372	4.5455	0.	6.3726e-002
2429	1.8372	4.3636	0.	4.5643e-002
2430	1.8372	4.1818	0.	3.5337e-002
2431	1.8372	4.	0.	2.9914e-002
2432	1.8372	3.8182	0.	2.7443e-002
2433	1.8372	3.6364	0.	2.6603e-002
2434	1.8372	3.4545	0.	2.6545e-002
2435	1.8372	3.2727	0.	2.6747e-002
2436	1.8372	3.0909	0.	2.6914e-002
2437	1.8372	2.9091	0.	2.6914e-002
2438	1.8372	2.7273	0.	2.6747e-002
2439	1.8372	2.5455	0.	2.6545e-002
2440	1.8372	2.3636	0.	2.6603e-002
2441	1.8372	2.1818	0.	2.7443e-002
2442	1.8372	2.	0.	2.9914e-002
2443	1.8372	1.8182	0.	3.5337e-002
2444	1.8372	1.6364	0.	4.5643e-002
2445	1.8372	1.4545	0.	6.3727e-002
2446	1.8372	1.2727	0.	9.3016e-002
2447	1.8372	1.0909	0.	0.14042
2448	1.8372	0.90909	0.	0.20707
2449	1.8372	0.72727	0.	0.33444
2450	1.8372	0.54545	0.	0.44927
2451	1.8372	0.36364	0.	1.3026
2452	1.8372	0.18182	0.	6.7461
2453	1.6535	5.8182	0.	9.8173
2454	1.6535	5.6364	0.	1.4891
2455	1.6535	5.4545	0.	0.52507
2456	1.6535	5.2727	0.	0.38946
2457	1.6535	5.0909	0.	0.24677
2458	1.6535	4.9091	0.	0.17406
2459	1.6535	4.7273	0.	0.12469
2460	1.6535	4.5455	0.	9.6042e-002
2461	1.6535	4.3636	0.	7.9623e-002
2462	1.6535	4.1818	0.	7.1154e-002
2463	1.6535	4.	0.	6.7303e-002
2464	1.6535	3.8182	0.	6.6005e-002
2465	1.6535	3.6364	0.	6.5954e-002
2466	1.6535	3.4545	0.	6.6381e-002
2467	1.6535	3.2727	0.	6.685e-002
2468	1.6535	3.0909	0.	6.7132e-002
2469	1.6535	2.9091	0.	6.7132e-002
2470	1.6535	2.7273	0.	6.685e-002
2471	1.6535	2.5455	0.	6.6381e-002
2472	1.6535	2.3636	0.	6.5954e-002
2473	1.6535	2.1818	0.	6.6005e-002
2474	1.6535	2.	0.	6.7303e-002
2475	1.6535	1.8182	0.	7.1154e-002
2476	1.6535	1.6364	0.	7.9623e-002
2477	1.6535	1.4545	0.	9.6043e-002
2478	1.6535	1.2727	0.	0.12469
2479	1.6535	1.0909	0.	0.17406
2480	1.6535	0.90909	0.	0.24677
2481	1.6535	0.72727	0.	0.38946
2482	1.6535	0.54545	0.	0.52507
2483	1.6535	0.36364	0.	1.4891
2484	1.6535	0.18182	0.	9.8173
2485	1.4698	5.8182	0.	14.872
2486	1.4698	5.6364	0.	1.6545
2487	1.4698	5.4545	0.	0.53788
2488	1.4698	5.2727	0.	0.36603
2489	1.4698	5.0909	0.	0.19935
2490	1.4698	4.9091	0.	0.11624
2491	1.4698	4.7273	0.	6.2495e-002
2492	1.4698	4.5455	0.	3.2818e-002
2493	1.4698	4.3636	0.	1.6512e-002
2494	1.4698	4.1818	0.	8.3132e-003
2495	1.4698	4.	0.	4.4996e-003
2496	1.4698	3.8182	0.	2.9721e-003
2497	1.4698	3.6364	0.	2.5256e-003
2498	1.4698	3.4545	0.	2.5228e-003
2499	1.4698	3.2727	0.	2.6401e-003
2500	1.4698	3.0909	0.	2.7277e-003
2501	1.4698	2.9091	0.	2.7277e-003
2502	1.4698	2.7273	0.	2.6401e-003
2503	1.4698	2.5455	0.	2.5229e-003
2504	1.4698	2.3636	0.	2.5257e-003
2505	1.4698	2.1818	0.	2.9721e-003
2506	1.4698	2.	0.	4.4997e-003
2507	1.4698	1.8182	0.	8.3135e-003
2508	1.4698	1.6364	0.	1.6512e-002
2509	1.4698	1.4545	0.	3.2818e-002
2510	1.4698	1.2727	0.	6.2496e-002
2511	1.4698	1.0909	0.	0.11624
2512	1.4698	0.90909	0.	0.19936
2513	1.4698	0.72727	0.	0.36603
2514	1.4698	0.54545	0.	0.53788
2515	1.4698	0.36364	0.	1.6545
2516	1.4698	0.18182	0.	14.872
2517	1.286	5.8182	0.	23.154
2518	1.286	5.6364	0.	2.0867
2519	1.286	5.4545	0.	0.86511
2520	1.286	5.2727	0.	0.68885
2521	1.286	5.0909	0.	0.52024
2522	1.286	4.9091	0.	0.4441
2523	1.286	4.7273	0.	0.39908
2524	1.286	4.5455	0.	0.37791
2525	1.286	4.3636	0.	0.36835
2526	1.286	4.1818	0.	0.36495
2527	1.286	4.	0.	0.36427
2528	1.286	3.8182	0.	0.36466
2529	1.286	3.6364	0.	0.36531
2530	1.286	3.4545	0.	0.36589
2531	1.286	3.2727	0.	0.36629
2532	1.286	3.0909	0.	0.36649
2533	1.286	2.9091	0.	0.36649
2534	1.286	2.7273	0.	0.36629
2535	1.286	2.5455	0.	0.36589
2536	1.286	2.3636	0.	0.36531
2537	1.286	2.1818	0.	0.36466
2538	1.286	2.	0.	0.36427
2539	1.286	1.8182	0.	0.36495
2540	1.286	1.6364	0.	0.36835
2541	1.286	1.4545	0.	0.37791
2542	1.286	1.2727	0.	0.39908
2543	1.286	1.0909	0.	0.4441
2544	1.286	0.90909	0.	0.52024
2545	1.286	0.72727	0.	0.68885
2546	1.286	0.54545	0.	0.86511
2547	1.286	0.36364	0.	2.0867
2548	1.286	0.18182	0.	23.154
2549	1.1023	5.8182	0.	35.362
2550	1.1023	5.6364	0.	1.6967
2551	1.1023	5.4545	0.	4.0415e-002
2552	1.1023	5.2727	0.	-0.30033
2553	1.1023	5.0909	0.	-0.57001
2554	1.1023	4.9091	0.	-0.70686
2555	1.1023	4.7273	0.	-0.79267
2556	1.1023	4.5455	0.	-0.84381
2557	1.1023	4.3636	0.	-0.8771
2558	1.1023	4.1818	0.	-0.89989
2559	1.1023	4.	0.	-0.91645
2560	1.1023	3.8182	0.	-0.92883
2561	1.1023	3.6364	0.	-0.93808
2562	1.1023	3.4545	0.	-0.94474
2563	1.1023	3.2727	0.	-0.94907
2564	1.1023	3.0909	0.	-0.9512
2565	1.1023	2.9091	0.	-0.9512
2566	1.1023	2.7273	0.	-0.94907
2567	1.1023	2.5455	0.	-0.94474
2568	1.1023	2.3636	0.	-0.93808
2569	1.1023	2.1818	0.	-0.92883
2570	1.1023	2.	0.	-0.91645
2571	1.1023	1.8182	0.	-0.89989
2572	1.1023	1.6364	0.	-0.8771
2573	1.1023	1.4545	0.	-0.84381
2574	1.1023	1.2727	0.	-0.79267
2575	1.1023	1.0909	0.	-0.70686
2576	1.1023	0.90909	0.	-0.57001
2577	1.1023	0.72727	0.	-0.30033
2578	1.1023	0.54545	0.	4.0414e-002
2579	1.1023	0.36364	0.	1.6967
2580	1.1023	0.18182	0.	35.362
2581	0.9186	5.8182	0.	52.986
2582	0.9186	5.6364	0.	4.9331
2583	0.9186	5.4545	0.	3.9628
2584	0.9186	5.2727	0.	4.0229
2585	0.9186	5.0909	0.	4.0195
2586	0.9186	4.9091	0.	4.0808
2587	0.9186	4.7273	0.	4.1424
2588	0.9186	4.5455	0.	4.2015
2589	0.9186	4.3636	0.	4.2511
2590	0.9186	4.1818	0.	4.2909
2591	0.9186	4.	0.	4.3219
2592	0.9186	3.8182	0.	4.3454
2593	0.9186	3.6364	0.	4.3628
2594	0.9186	3.4545	0.	4.375
2595	0.9186	3.2727	0.	4.3828
2596	0.9186	3.0909	0.	4.3866
2597	0.9186	2.9091	0.	4.3866
2598	0.9186	2.7273	0.	4.3828
2599	0.9186	2.5455	0.	4.375
2600	0.9186	2.3636	0.	4.3628
2601	0.9186	2.1818	0.	4.3454
2602	0.9186	2.	0.	4.3219
2603	0.9186	1.8182	0.	4.2909
2604	0.9186	1.6364	0.	4.2511
2605	0.9186	1.4545	0.	4.2015
2606	0.9186	1.2727	0.	4.1424
2607	0.9186	1.0909	0.	4.0808
2608	0.9186	0.90909	0.	4.0195
2609	0.9186	0.72727	0.	4.0229
2610	0.9186	0.54545	0.	3.9628
2611	0.9186	0.36364	0.	4.9331
2612	0.9186	0.18182	0.	52.986
2613	0.73488	5.8182	0.	72.176
2614	0.73488	5.6364	0.	-5.7399
2615	0.73488	5.4545	0.	-10.628
2616	0.73488	5.2727	0.	-12.435
2617	0.73488	5.0909	0.	-13.679
2618	0.73488	4.9091	0.	-14.471
2619	0.73488	4.7273	0.	-15.035
2620	0.73488	4.5455	0.	-15.448
2621	0.73488	4.3636	0.	-15.762
2622	0.73488	4.1818	0.	-16.004
2623	0.73488	4.	0.	-16.192
2624	0.73488	3.8182	0.	-16.336
2625	0.73488	3.6364	0.	-16.444
2626	0.73488	3.4545	0.	-16.52
2627	0.73488	3.2727	0.	-16.57
2628	0.73488	3.0909	0.	-16.594
2629	0.73488	2.9091	0.	-16.594
2630	0.73488	2.7273	0.	-16.57
2631	0.73488	2.5455	0.	-16.52
2632	0.73488	2.3636	0.	-16.444
2633	0.73488	2.1818	0.	-16.336
2634	0.73488	2.	0.	-16.192
2635	0.73488	1.8182	0.	-16.004
2636	0.73488	1.6364	0.	-15.762
2637	0.73488	1.4545	0.	-15.448
2638	0.73488	1.2727	0.	-15.035
2639	0.73488	1.0909	0.	-14.471
2640	0.73488	0.90909	0.	-13.679
2641	0.73488	0.72727	0.	-12.435
2642	0.73488	0.54545	0.	-10.628
2643	0.73488	0.36364	0.	-5.7399
2644	0.73488	0.18182	0.	72.176
2645	0.55116	5.8182	0.	103.95
2646	0.55116	5.6364	0.	40.535
2647	0.55116	5.4545	0.	49.254
2648	0.55116	5.2727	0.	53.907
2649	0.55116	5.0909	0.	57.146
2650	0.55116	4.9091	0.	59.535
2651	0.55116	4.7273	0.	61.314
2652	0.55116	4.5455	0.	62.667
2653	0.55116	4.3636	0.	63.709
2654	0.55116	4.1818	0.	64.517
2655	0.55116	4.	0.	65.144
2656	0.55116	3.8182	0.	65.624
2657	0.55116	3.6364	0.	65.983
2658	0.55116	3.4545	0.	66.24
2659	0.55116	3.2727	0.	66.405
2660	0.55116	3.0909	0.	66.485
2661	0.55116	2.9091	0.	66.485
2662	0.55116	2.7273	0.	66.405
2663	0.55116	2.5455	0.	66.24
2664	0.55116	2.3636	0.	65.983
2665	0.55116	2.1818	0.	65.624
2666	0.55116	2.	0.	65.144
2667	0.55116	1.8182	0.	64.517
2668	0.55116	1.6364	0.	63.709
2669	0.55116	1.4545	0.	62.667
2670	0.55116	1.2727	0.	61.314
2671	0.55116	1.0909	0.	59.535
2672	0.55116	0.90909	0.	57.146
2673	0.55116	0.72727	0.	53.907
2674	0.55116	0.54545	0.	49.254
2675	0.55116	0.36364	0.	40.535
2676	0.55116	0.18182	0.	103.95
2677	0.36744	5.8182	0.	92.466
2678	0.36744	5.6364	0.	-137.99
2679	0.36744	5.4545	0.	-183.86
2680	0.36744	5.2727	0.	-207.02
2681	0.36744	5.0909	0.	-221.94
2682	0.36744	4.9091	0.	-232.41
2683	0.36744	4.7273	0.	-240.06
2684	0.36744	4.5455	0.	-245.82
2685	0.36744	4.3636	0.	-250.24
2686	0.36744	4.1818	0.	-253.66
2687	0.36744	4.	0.	-256.3
2688	0.36744	3.8182	0.	-258.32
2689	0.36744	3.6364	0.	-259.83
2690	0.36744	3.4545	0.	-260.91
2691	0.36744	3.2727	0.	-261.6
2692	0.36744	3.0909	0.	-261.94
2693	0.36744	2.9091	0.	-261.94
2694	0.36744	2.7273	0.	-261.6
2695	0.36744	2.5455	0.	-260.91
2696	0.36744	2.3636	0.	-259.83
2697	0.36744	2.1818	0.	-258.32
2698	0.36744	2.	0.	-256.3
2699	0.36744	1.8182	0.	-253.66
2700	0.36744	1.6364	0.	-250.24
2701	0.36744	1.4545	0.	-245.82
2702	0.36744	1.2727	0.	-240.06
2703	0.36744	1.0909	0.	-232.41
2704	0.36744	0.90909	0.	-221.94
2705	0.36744	0.72727	0.	-207.02
2706	0.36744	0.54545	0.	-183.86
2707	0.36744	0.36364	0.	-137.99
2708	0.36744	0.18182	0.	92.466
2709	0.18372	5.8182	0.	314.41
2710	0.18372	5.6364	0.	610.71
2711	0.18372	5.4545	0.	743.51
2712	0.18372	5.2727	0.	829.03
2713	0.18372	5.0909	0.	883.88
2714	0.18372	4.9091	0.	923.49
2715	0.18372	4.7273	0.	952.57
2716	0.18372	4.5455	0.	974.66
2717	0.18372	4.3636	0.	991.63
2718	0.18372	4.1818	0.	1004.8
2719	0.18372	4.	0.	1015.
2720	0.18372	3.8182	0.	1022.8
2721	0.18372	3.6364	0.	1028.7
2722	0.18372	3.4545	0.	1032.8
2723	0.18372	3.2727	0.	1035.5
2724	0.18372	3.0909	0.	1036.8
2725	0.18372	2.9091	0.	1036.8
2726	0.18372	2.7273	0.	1035.5
2727	0.18372	2.5455	0.	1032.8
2728	0.18372	2.3636	0.	1028.7
2729	0.18372	2.1818	0.	1022.8
2730	0.18372	2.	0.	1015.
2731	0.18372	1.8182	0.	1004.8
2732	0.18372	1.6364	0.	991.63
2733	0.18372	1.4545	0.	974.66
2734	0.18372	1.2727	0.	952.57
2735	0.18372	1.0909	0.	923.49
2736	0.18372	0.90909	0.	883.88
2737	0.18372	0.72727	0.	829.03
2738	0.18372	0.54545	0.	743.51
2739	0.18372	0.36364	0.	610.71
2740	0.18372	0.18182	0.	314.41
2741	16.149	0.18182	0.	48.514
2742	16.149	0.36364	0.	92.904
2743	16.149	0.54545	0.	166.
2744	16.149	0.72727	0.	253.29
2745	16.149	0.90909	0.	354.54
2746	16.149	1.0909	0.	473.41
2747	16.149	1.2727	0.	617.94
2748	16.149	1.4545	0.	792.58
2749	16.149	1.6364	0.	1044.9
2750	16.149	1.8182	0.	1128.3
2751	16.149	2.	0.	698.
2752	16.149	2.1818	0.	356.33
2753	16.149	2.3636	0.	395.46
2754	16.149	2.5455	0.	374.1
2755	16.149	2.7273	0.	364.32
2756	16.149	2.9091	0.	357.53
2757	16.149	3.0909	0.	357.53
2758	16.149	3.2727	0.	364.32
2759	16.149	3.4545	0.	374.1
2760	16.149	3.6364	0.	395.46
2761	16.149	3.8182	0.	356.33
2762	16.149	4.	0.	698.
2763	16.149	4.1818	0.	1128.3
2764	16.149	4.3636	0.	1044.9
2765	16.149	4.5455	0.	792.58
2766	16.149	4.7273	0.	617.94
2767	16.149	4.9091	0.	473.41
2768	16.149	5.0909	0.	354.54
2769	16.149	5.2727	0.	253.29
2770	16.149	5.4545	0.	166.
2771	16.149	5.6364	0.	92.904
2772	16.149	5.8182	0.	48.514
2773	16.332	0.18182	0.	36.246
2774	16.332	0.36364	0.	47.148
2775	16.332	0.54545	0.	87.705
2776	16.332	0.72727	0.	144.15
2777	16.332	0.90909	0.	210.32
2778	16.332	1.0909	0.	283.13
2779	16.332	1.2727	0.	359.62
2780	16.332	1.4545	0.	425.42
2781	16.332	1.6364	0.	451.39
2782	16.332	1.8182	0.	391.21
2783	16.332	2.	0.	182.35
2784	16.332	2.1818	0.	113.13
2785	16.332	2.3636	0.	146.54
2786	16.332	2.5455	0.	188.56
2787	16.332	2.7273	0.	206.89
2788	16.332	2.9091	0.	214.88
2789	16.332	3.0909	0.	214.88
2790	16.332	3.2727	0.	206.89
2791	16.332	3.4545	0.	188.56
2792	16.332	3.6364	0.	146.54
2793	16.332	3.8182	0.	113.13
2794	16.332	4.	0.	182.35
2795	16.332	4.1818	0.	391.21
2796	16.332	4.3636	0.	451.39
2797	16.332	4.5455	0.	425.42
2798	16.332	4.7273	0.	359.62
2799	16.332	4.9091	0.	283.13
2800	16.332	5.0909	0.	210.32
2801	16.332	5.2727	0.	144.15
2802	16.332	5.4545	0.	87.705
2803	16.332	5.6364	0.	47.148
2804	16.332	5.8182	0.	36.246
2805	16.514	0.18182	0.	37.193
2806	16.514	0.36364	0.	39.476
2807	16.514	0.54545	0.	60.721
2808	16.514	0.72727	0.	93.676
2809	16.514	0.90909	0.	132.81
2810	16.514	1.0909	0.	172.46
2811	16.514	1.2727	0.	204.59
2812	16.514	1.4545	0.	217.02
2813	16.514	1.6364	0.	187.8
2814	16.514	1.8182	0.	108.09
2815	16.514	2.	0.	20.69
2816	16.514	2.1818	0.	-2.9754
2817	16.514	2.3636	0.	10.345
2818	16.514	2.5455	0.	36.484
2819	16.514	2.7273	0.	62.408
2820	16.514	2.9091	0.	75.555
2821	16.514	3.0909	0.	75.555
2822	16.514	3.2727	0.	62.408
2823	16.514	3.4545	0.	36.484
2824	16.514	3.6364	0.	10.345
2825	16.514	3.8182	0.	-2.9754
2826	16.514	4.	0.	20.69
2827	16.514	4.1818	0.	108.09
2828	16.514	4.3636	0.	187.8
2829	16.514	4.5455	0.	217.02
2830	16.514	4.7273	0.	204.59
2831	16.514	4.9091	0.	172.46
2832	16.514	5.0909	0.	132.81
2833	16.514	5.2727	0.	93.676
2834	16.514	5.4545	0.	60.721
2835	16.514	5.6364	0.	39.476
2836	16.514	5.8182	0.	37.193
2837	16.697	0.18182	0.	37.993
2838	16.697	0.36364	0.	38.838
2839	16.697	0.54545	0.	49.437
2840	16.697	0.72727	0.	65.606
2841	16.697	0.90909	0.	83.816
2842	16.697	1.0909	0.	98.977
2843	16.697	1.2727	0.	104.23
2844	16.697	1.4545	0.	91.432
2845	16.697	1.6364	0.	54.831
2846	16.697	1.8182	0.	10.195
2847	16.697	2.	0.	3.1
2848	16.697	2.1818	0.	2.1671
2849	16.697	2.3636	0.	0.73955
2850	16.697	2.5455	0.	1.1356
2851	16.697	2.7273	0.	0.96585
2852	16.697	2.9091	0.	0.68576
2853	16.697	3.0909	0.	0.68576
2854	16.697	3.2727	0.	0.96585
2855	16.697	3.4545	0.	1.1356
2856	16.697	3.6364	0.	0.73955
2857	16.697	3.8182	0.	2.1671
2858	16.697	4.	0.	3.1
2859	16.697	4.1818	0.	10.195
2860	16.697	4.3636	0.	54.83
2861	16.697	4.5455	0.	91.431
2862	16.697	4.7273	0.	104.23
2863	16.697	4.9091	0.	98.976
2864	16.697	5.0909	0.	83.816
2865	16.697	5.2727	0.	65.606
2866	16.697	5.4545	0.	49.437
2867	16.697	5.6364	0.	38.838
2868	16.697	5.8182	0.	37.993
2869	16.88	0.18182	0.	36.927
2870	16.88	0.36364	0.	38.295
2871	16.88	0.54545	0.	42.992
2872	16.88	0.72727	0.	48.353
2873	16.88	0.90909	0.	52.379
2874	16.88	1.0909	0.	51.679
2875	16.88	1.2727	0.	42.165
2876	16.88	1.4545	0.	21.668
2877	16.88	1.6364	0.	4.8224
2878	16.88	1.8182	0.	1.5543
2879	16.88	2.	0.	0.45563
2880	16.88	2.1818	0.	0.22521
2881	16.88	2.3636	0.	0.58461
2882	16.88	2.5455	0.	0.6513
2883	16.88	2.7273	0.	0.63625
2884	16.88	2.9091	0.	0.62075
2885	16.88	3.0909	0.	0.62075
2886	16.88	3.2727	0.	0.63625
2887	16.88	3.4545	0.	0.6513
2888	16.88	3.6364	0.	0.58461
2889	16.88	3.8182	0.	0.22521
2890	16.88	4.	0.	0.45563
2891	16.88	4.1818	0.	1.5543
2892	16.88	4.3636	0.	4.8224
2893	16.88	4.5455	0.	21.668
2894	16.88	4.7273	0.	42.165
2895	16.88	4.9091	0.	51.679
2896	16.88	5.0909	0.	52.379
2897	16.88	5.2727	0.	48.353
2898	16.88	5.4545	0.	42.992
2899	16.88	5.6364	0.	38.295
2900	16.88	5.8182	0.	36.927
2901	17.062	0.18182	0.	34.487
2902	17.062	0.36364	0.	36.47
2903	17.062	0.54545	0.	37.766
2904	17.062	0.72727	0.	36.554
2905	17.062	0.90909	0.	31.982
2906	17.062	1.0909	0.	22.613
2907	17.062	1.2727	0.	9.5192
2908	17.062	1.4545	0.	2.961
2909	17.062	1.6364	0.	1.3862
2910	17.062	1.8182	0.	0.78701
2911	17.062	2.	0.	0.56197
2912	17.062	2.1818	0.	0.46389
2913	17.062	2.3636	0.	0.40588
2914	17.062	2.5455	0.	0.45066
2915	17.062	2.7273	0.	0.49941
2916	17.062	2.9091	0.	0.51434
2917	17.062	3.0909	0.	0.51434
2918	17.062	3.2727	0.	0.49941
2919	17.062	3.4545	0.	0.45066
2920	17.062	3.6364	0.	0.40588
2921	17.062	3.8182	0.	0.46389
2922	17.062	4.	0.	0.56197
2923	17.062	4.1818	0.	0.78701
2924	17.062	4.3636	0.	1.3862
2925	17.062	4.5455	0.	2.961
2926	17.062	4.7273	0.	9.5191
2927	17.062	4.9091	0.	22.612
2928	17.062	5.0909	0.	31.982
2929	17.062	5.2727	0.	36.554
2930	17.062	5.4545	0.	37.766
2931	17.062	5.6364	0.	36.47
2932	17.062	5.8182	0.	34.487
2933	17.245	0.18182	0.	31.222
2934	17.245	0.36364	0.	33.392
2935	17.245	0.54545	0.	32.611
2936	17.245	0.72727	0.	27.583
2937	17.245	0.90909	0.	18.406
2938	17.245	1.0909	0.	7.0919
2939	17.245	1.2727	0.	2.2272
2940	17.245	1.4545	0.	1.1242
2941	17.245	1.6364	0.	0.6918
2942	17.245	1.8182	0.	0.46224
2943	17.245	2.	0.	0.3263
2944	17.245	2.1818	0.	0.28011
2945	17.245	2.3636	0.	0.30576
2946	17.245	2.5455	0.	0.3468
2947	17.245	2.7273	0.	0.38305
2948	17.245	2.9091	0.	0.40434
2949	17.245	3.0909	0.	0.40434
2950	17.245	3.2727	0.	0.38305
2951	17.245	3.4545	0.	0.3468
2952	17.245	3.6364	0.	0.30576
2953	17.245	3.8182	0.	0.28011
2954	17.245	4.	0.	0.3263
2955	17.245	4.1818	0.	0.46224
2956	17.245	4.3636	0.	0.6918
2957	17.245	4.5455	0.	1.1242
2958	17.245	4.7273	0.	2.2272
2959	17.245	4.9091	0.	7.0918
2960	17.245	5.0909	0.	18.406
2961	17.245	5.2727	0.	27.583
2962	17.245	5.4545	0.	32.611
2963	17.245	5.6364	0.	33.392
2964	17.245	5.8182	0.	31.222
2965	17.427	0.18182	0.	27.625
2966	17.427	0.36364	0.	29.512
2967	17.427	0.54545	0.	27.379
2968	17.427	0.72727	0.	20.273
2969	17.427	0.90909	0.	9.3262
2970	17.427	1.0909	0.	2.2582
2971	17.427	1.2727	0.	1.0094
2972	17.427	1.4545	0.	0.63024
2973	17.427	1.6364	0.	0.44249
2974	17.427	1.8182	0.	0.33012
2975	17.427	2.	0.	0.26681
2976	17.427	2.1818	0.	0.24014
2977	17.427	2.3636	0.	0.24246
2978	17.427	2.5455	0.	0.26587
2979	17.427	2.7273	0.	0.29248
2980	17.427	2.9091	0.	0.30867
2981	17.427	3.0909	0.	0.30867
2982	17.427	3.2727	0.	0.29248
2983	17.427	3.4545	0.	0.26587
2984	17.427	3.6364	0.	0.24246
2985	17.427	3.8182	0.	0.24014
2986	17.427	4.	0.	0.26681
2987	17.427	4.1818	0.	0.33012
2988	17.427	4.3636	0.	0.44249
2989	17.427	4.5455	0.	0.63024
2990	17.427	4.7273	0.	1.0094
2991	17.427	4.9091	0.	2.2582
2992	17.427	5.0909	0.	9.3261
2993	17.427	5.2727	0.	20.273
2994	17.427	5.4545	0.	27.379
2995	17.427	5.6364	0.	29.512
2996	17.427	5.8182	0.	27.625
2997	17.61	0.18182	0.	24.052
2998	17.61	0.36364	0.	25.303
2999	17.61	0.54545	0.	22.233
3000	17.61	0.72727	0.	14.133
3001	17.61	0.90909	0.	3.8773
3002	17.61	1.0909	0.	1.0491
3003	17.61	1.2727	0.	0.5883
3004	17.61	1.4545	0.	0.40855
3005	17.61	1.6364	0.	0.30783
3006	17.61	1.8182	0.	0.24338
3007	17.61	2.	0.	0.20409
3008	17.61	2.1818	0.	0.18811
3009	17.61	2.3636	0.	0.19164
3010	17.61	2.5455	0.	0.20611
3011	17.61	2.7273	0.	0.22253
3012	17.61	2.9091	0.	0.23302
3013	17.61	3.0909	0.	0.23302
3014	17.61	3.2727	0.	0.22253
3015	17.61	3.4545	0.	0.20611
3016	17.61	3.6364	0.	0.19164
3017	17.61	3.8182	0.	0.18811
3018	17.61	4.	0.	0.20409
3019	17.61	4.1818	0.	0.24338
3020	17.61	4.3636	0.	0.30783
3021	17.61	4.5455	0.	0.40855
3022	17.61	4.7273	0.	0.58829
3023	17.61	4.9091	0.	1.0491
3024	17.61	5.0909	0.	3.8773
3025	17.61	5.2727	0.	14.133
3026	17.61	5.4545	0.	22.233
3027	17.61	5.6364	0.	25.303
3028	17.61	5.8182	0.	24.052
3029	17.792	0.18182	0.	20.733
3030	17.792	0.36364	0.	21.139
3031	17.792	0.54545	0.	17.392
3032	17.792	0.72727	0.	8.9865
3033	17.792	0.90909	0.	1.554
3034	17.792	1.0909	0.	0.5971
3035	17.792	1.2727	0.	0.38394
3036	17.792	1.4545	0.	0.28635
3037	17.792	1.6364	0.	0.22735
3038	17.792	1.8182	0.	0.18816
3039	17.792	2.	0.	0.16386
3040	17.792	2.1818	0.	0.15274
3041	17.792	2.3636	0.	0.15278
3042	17.792	2.5455	0.	0.16022
3043	17.792	2.7273	0.	0.16955
3044	17.792	2.9091	0.	0.1757
3045	17.792	3.0909	0.	0.1757
3046	17.792	3.2727	0.	0.16955
3047	17.792	3.4545	0.	0.16022
3048	17.792	3.6364	0.	0.15278
3049	17.792	3.8182	0.	0.15274
3050	17.792	4.	0.	0.16386
3051	17.792	4.1818	0.	0.18816
3052	17.792	4.3636	0.	0.22735
3053	17.792	4.5455	0.	0.28635
3054	17.792	4.7273	0.	0.38394
3055	17.792	4.9091	0.	0.5971
3056	17.792	5.0909	0.	1.554
3057	17.792	5.2727	0.	8.9865
3058	17.792	5.4545	0.	17.392
3059	17.792	5.6364	0.	21.139
3060	17.792	5.8182	0.	20.733
3061	17.975	0.18182	0.	17.799
3062	17.975	0.36364	0.	17.279
3063	17.975	0.54545	0.	13.032
3064	17.975	0.72727	0.	4.8425
3065	17.975	0.90909	0.	0.74286
3066	17.975	1.0909	0.	0.37636
3067	17.975	1.2727	0.	0.26651
3068	17.975	1.4545	0.	0.2098
3069	17.975	1.6364	0.	0.17324
3070	17.975	1.8182	0.	0.14794
3071	17.975	2.	0.	0.1315
3072	17.975	2.1818	0.	0.12322
3073	17.975	2.3636	0.	0.12189
3074	17.975	2.5455	0.	0.12515
3075	17.975	2.7273	0.	0.12988
3076	17.975	2.9091	0.	0.13315
3077	17.975	3.0909	0.	0.13315
3078	17.975	3.2727	0.	0.12988
3079	17.975	3.4545	0.	0.12515
3080	17.975	3.6364	0.	0.12189
3081	17.975	3.8182	0.	0.12322
3082	17.975	4.	0.	0.1315
3083	17.975	4.1818	0.	0.14794
3084	17.975	4.3636	0.	0.17324
3085	17.975	4.5455	0.	0.2098
3086	17.975	4.7273	0.	0.26651
3087	17.975	4.9091	0.	0.37636
3088	17.975	5.0909	0.	0.74286
3089	17.975	5.2727	0.	4.8425
3090	17.975	5.4545	0.	13.032
3091	17.975	5.6364	0.	17.279
3092	17.975	5.8182	0.	17.799
3093	18.158	0.18182	0.	15.311
3094	18.158	0.36364	0.	13.878
3095	18.158	0.54545	0.	9.2695
3096	18.158	0.72727	0.	1.9753
3097	18.158	0.90909	0.	0.41241
3098	18.158	1.0909	0.	0.25223
3099	18.158	1.2727	0.	0.1925
3100	18.158	1.4545	0.	0.1584
3101	18.158	1.6364	0.	0.13503
3102	18.158	1.8182	0.	0.11815
3103	18.158	2.	0.	0.1066
3104	18.158	2.1818	0.	0.10001
3105	18.158	2.3636	0.	9.7705e-002
3106	18.158	2.5455	0.	9.8418e-002
3107	18.158	2.7273	0.	0.10037
3108	18.158	2.9091	0.	0.10187
3109	18.158	3.0909	0.	0.10187
3110	18.158	3.2727	0.	0.10037
3111	18.158	3.4545	0.	9.8416e-002
3112	18.158	3.6364	0.	9.7706e-002
3113	18.158	3.8182	0.	0.10001
3114	18.158	4.	0.	0.1066
3115	18.158	4.1818	0.	0.11815
3116	18.158	4.3636	0.	0.13503
3117	18.158	4.5455	0.	0.1584
3118	18.158	4.7273	0.	0.1925
3119	18.158	4.9091	0.	0.25223
3120	18.158	5.0909	0.	0.41241
3121	18.158	5.2727	0.	1.9753
3122	18.158	5.4545	0.	9.2695
3123	18.158	5.6364	0.	13.878
3124	18.158	5.8182	0.	15.311
3125	18.34	0.18182	0.	13.283
3126	18.34	0.36364	0.	11.011
3127	18.34	0.54545	0.	6.1622
3128	18.34	0.72727	0.	0.71191
3129	18.34	0.90909	0.	0.25218
3130	18.34	1.0909	0.	0.17645
3131	18.34	1.2727	0.	0.14313
3132	18.34	1.4545	0.	0.12225
3133	18.34	1.6364	0.	0.10699
3134	18.34	1.8182	0.	9.5377e-002
3135	18.34	2.	0.	8.6928e-002
3136	18.34	2.1818	0.	8.1516e-002
3137	18.34	2.3636	0.	7.8819e-002
3138	18.34	2.5455	0.	7.8137e-002
3139	18.34	2.7273	0.	7.8503e-002
3140	18.34	2.9091	0.	7.8975e-002
3141	18.34	3.0909	0.	7.8975e-002
3142	18.34	3.2727	0.	7.8502e-002
3143	18.34	3.4545	0.	7.8138e-002
3144	18.34	3.6364	0.	7.8819e-002
3145	18.34	3.8182	0.	8.1514e-002
3146	18.34	4.	0.	8.6928e-002
3147	18.34	4.1818	0.	9.5377e-002
3148	18.34	4.3636	0.	0.10699
3149	18.34	4.5455	0.	0.12225
3150	18.34	4.7273	0.	0.14313
3151	18.34	4.9091	0.	0.17645
3152	18.34	5.0909	0.	0.25219
3153	18.34	5.2727	0.	0.71192
3154	18.34	5.4545	0.	6.1622
3155	18.34	5.6364	0.	11.011
3156	18.34	5.8182	0.	13.283
3157	18.523	0.18182	0.	11.698
3158	18.523	0.36364	0.	8.7022
3159	18.523	0.54545	0.	3.7277
3160	18.523	0.72727	0.	0.32015
3161	18.523	0.90909	0.	0.16496
3162	18.523	1.0909	0.	0.12771
3163	18.523	1.2727	0.	0.10898
3164	18.523	1.4545	0.	9.6103e-002
3165	18.523	1.6364	0.	8.6e-002
3166	18.523	1.8182	0.	7.7833e-002
3167	18.523	2.	0.	7.1484e-002
3168	18.523	2.1818	0.	6.6979e-002
3169	18.523	2.3636	0.	6.4208e-002
3170	18.523	2.5455	0.	6.2831e-002
3171	18.523	2.7273	0.	6.2349e-002
3172	18.523	2.9091	0.	6.2263e-002
3173	18.523	3.0909	0.	6.2263e-002
3174	18.523	3.2727	0.	6.2349e-002
3175	18.523	3.4545	0.	6.2831e-002
3176	18.523	3.6364	0.	6.4208e-002
3177	18.523	3.8182	0.	6.6981e-002
3178	18.523	4.	0.	7.1486e-002
3179	18.523	4.1818	0.	7.7832e-002
3180	18.523	4.3636	0.	8.6e-002
3181	18.523	4.5455	0.	9.6102e-002
3182	18.523	4.7273	0.	0.10898
3183	18.523	4.9091	0.	0.12771
3184	18.523	5.0909	0.	0.16496
3185	18.523	5.2727	0.	0.32015
3186	18.523	5.4545	0.	3.7277
3187	18.523	5.6364	0.	8.7023
3188	18.523	5.8182	0.	11.698
3189	18.705	0.18182	0.	10.527
3190	18.705	0.36364	0.	6.9373
3191	18.705	0.54545	0.	1.961
3192	18.705	0.72727	0.	0.17494
3193	18.705	0.90909	0.	0.11364
3194	18.705	1.0909	0.	9.5182e-002
3195	18.705	1.2727	0.	8.4764e-002
3196	18.705	1.4545	0.	7.6834e-002
3197	18.705	1.6364	0.	7.0087e-002
3198	18.705	1.8182	0.	6.4247e-002
3199	18.705	2.	0.	5.9391e-002
3200	18.705	2.1818	0.	5.5634e-002
3201	18.705	2.3636	0.	5.2993e-002
3202	18.705	2.5455	0.	5.1347e-002
3203	18.705	2.7273	0.	5.0465e-002
3204	18.705	2.9091	0.	5.0101e-002
3205	18.705	3.0909	0.	5.01e-002
3206	18.705	3.2727	0.	5.0465e-002
3207	18.705	3.4545	0.	5.1347e-002
3208	18.705	3.6364	0.	5.2994e-002
3209	18.705	3.8182	0.	5.5632e-002
3210	18.705	4.	0.	5.9391e-002
3211	18.705	4.1818	0.	6.4248e-002
3212	18.705	4.3636	0.	7.0086e-002
3213	18.705	4.5455	0.	7.6835e-002
3214	18.705	4.7273	0.	8.4764e-002
3215	18.705	4.9091	0.	9.5181e-002
3216	18.705	5.0909	0.	0.11364
3217	18.705	5.2727	0.	0.17494
3218	18.705	5.4545	0.	1.961
3219	18.705	5.6364	0.	6.9373
3220	18.705	5.8182	0.	10.527
3221	18.888	0.18182	0.	9.7291
3222	18.888	0.36364	0.	5.682
3223	18.888	0.54545	0.	0.85645
3224	18.888	0.72727	0.	0.10786
3225	18.888	0.90909	0.	8.1715e-002
3226	18.888	1.0909	0.	7.2872e-002
3227	18.888	1.2727	0.	6.7281e-002
3228	18.888	1.4545	0.	6.2471e-002
3229	18.888	1.6364	0.	5.7955e-002
3230	18.888	1.8182	0.	5.3736e-002
3231	18.888	2.	0.	4.9986e-002
3232	18.888	2.1818	0.	4.6865e-002
3233	18.888	2.3636	0.	4.4469e-002
3234	18.888	2.5455	0.	4.2797e-002
3235	18.888	2.7273	0.	4.1772e-002
3236	18.888	2.9091	0.	4.1293e-002
3237	18.888	3.0909	0.	4.1293e-002
3238	18.888	3.2727	0.	4.1772e-002
3239	18.888	3.4545	0.	4.2798e-002
3240	18.888	3.6364	0.	4.447e-002
3241	18.888	3.8182	0.	4.6865e-002
3242	18.888	4.	0.	4.9986e-002
3243	18.888	4.1818	0.	5.3737e-002
3244	18.888	4.3636	0.	5.7953e-002
3245	18.888	4.5455	0.	6.247e-002
3246	18.888	4.7273	0.	6.7281e-002
3247	18.888	4.9091	0.	7.2871e-002
3248	18.888	5.0909	0.	8.1716e-002
3249	18.888	5.2727	0.	0.10786
3250	18.888	5.4545	0.	0.85647
3251	18.888	5.6364	0.	5.6821
3252	18.888	5.8182	0.	9.7292
3253	19.07	0.18182	0.	9.2637
3254	19.07	0.36364	0.	4.891
3255	19.07	0.54545	0.	0.35411
3256	19.07	0.72727	0.	7.2125e-002
3257	19.07	0.90909	0.	6.0977e-002
3258	19.07	1.0909	0.	5.7231e-002
3259	19.07	1.2727	0.	5.4497e-002
3260	19.07	1.4545	0.	5.1685e-002
3261	19.07	1.6364	0.	4.8686e-002
3262	19.07	1.8182	0.	4.5636e-002
3263	19.07	2.	0.	4.2732e-002
3264	19.07	2.1818	0.	4.0163e-002
3265	19.07	2.3636	0.	3.8063e-002
3266	19.07	2.5455	0.	3.6499e-002
3267	19.07	2.7273	0.	3.5473e-002
3268	19.07	2.9091	0.	3.4973e-002
3269	19.07	3.0909	0.	3.4972e-002
3270	19.07	3.2727	0.	3.5474e-002
3271	19.07	3.4545	0.	3.6497e-002
3272	19.07	3.6364	0.	3.8064e-002
3273	19.07	3.8182	0.	4.0164e-002
3274	19.07	4.	0.	4.2732e-002
3275	19.07	4.1818	0.	4.5636e-002
3276	19.07	4.3636	0.	4.8686e-002
3277	19.07	4.5455	0.	5.1684e-002
3278	19.07	4.7273	0.	5.4495e-002
3279	19.07	4.9091	0.	5.723e-002
3280	19.07	5.0909	0.	6.0977e-002
3281	19.07	5.2727	0.	7.2123e-002
3282	19.07	5.4545	0.	0.35412
3283	19.07	5.6364	0.	4.891
3284	19.07	5.8182	0.	9.2637
3285	19.253	0.18182	0.	9.0886
3286	19.253	0.36364	0.	4.514
3287	19.253	0.54545	0.	0.18982
3288	19.253	0.72727	0.	5.1191e-002
3289	19.253	0.90909	0.	4.7036e-002
3290	19.253	1.0909	0.	4.6069e-002
3291	19.253	1.2727	0.	4.506e-002
3292	19.253	1.4545	0.	4.3561e-002
3293	19.253	1.6364	0.	4.1625e-002
3294	19.253	1.8182	0.	3.9433e-002
3295	19.253	2.	0.	3.7201e-002
3296	19.253	2.1818	0.	3.5114e-002
3297	19.253	2.3636	0.	3.3325e-002
3298	19.253	2.5455	0.	3.1931e-002
3299	19.253	2.7273	0.	3.0985e-002
3300	19.253	2.9091	0.	3.0509e-002
3301	19.253	3.0909	0.	3.0508e-002
3302	19.253	3.2727	0.	3.0985e-002
3303	19.253	3.4545	0.	3.1932e-002
3304	19.253	3.6364	0.	3.3325e-002
3305	19.253	3.8182	0.	3.5113e-002
3306	19.253	4.	0.	3.72e-002
3307	19.253	4.1818	0.	3.9434e-002
3308	19.253	4.3636	0.	4.1624e-002
3309	19.253	4.5455	0.	4.356e-002
3310	19.253	4.7273	0.	4.506e-002
3311	19.253	4.9091	0.	4.6068e-002
3312	19.253	5.0909	0.	4.7035e-002
3313	19.253	5.2727	0.	5.1192e-002
3314	19.253	5.4545	0.	0.18983
3315	19.253	5.6364	0.	4.514
3316	19.253	5.8182	0.	9.0886
3317	19.436	0.18182	0.	9.1643
3318	19.436	0.36364	0.	4.5006
3319	19.436	0.54545	0.	0.16412
3320	19.436	0.72727	0.	3.8048e-002
3321	19.436	0.90909	0.	3.7399e-002
3322	19.436	1.0909	0.	3.7998e-002
3323	19.436	1.2727	0.	3.8059e-002
3324	19.436	1.4545	0.	3.7444e-002
3325	19.436	1.6364	0.	3.6272e-002
3326	19.436	1.8182	0.	3.4741e-002
3327	19.436	2.	0.	3.305e-002
3328	19.436	2.1818	0.	3.1385e-002
3329	19.436	2.3636	0.	2.9899e-002
3330	19.436	2.5455	0.	2.8702e-002
3331	19.436	2.7273	0.	2.7869e-002
3332	19.436	2.9091	0.	2.7441e-002
3333	19.436	3.0909	0.	2.7441e-002
3334	19.436	3.2727	0.	2.7869e-002
3335	19.436	3.4545	0.	2.8701e-002
3336	19.436	3.6364	0.	2.9898e-002
3337	19.436	3.8182	0.	3.1385e-002
3338	19.436	4.	0.	3.3049e-002
3339	19.436	4.1818	0.	3.474e-002
3340	19.436	4.3636	0.	3.6273e-002
3341	19.436	4.5455	0.	3.7444e-002
3342	19.436	4.7273	0.	3.8059e-002
3343	19.436	4.9091	0.	3.7998e-002
3344	19.436	5.0909	0.	3.74e-002
3345	19.436	5.2727	0.	3.8045e-002
3346	19.436	5.4545	0.	0.16413
3347	19.436	5.6364	0.	4.5006
3348	19.436	5.8182	0.	9.1644
3349	19.618	0.18182	0.	9.4542
3350	19.618	0.36364	0.	4.8015
3351	19.618	0.54545	0.	0.4891
3352	19.618	0.72727	0.	2.9332e-002
3353	19.618	0.90909	0.	3.0595e-002
3354	19.618	1.0909	0.	3.2108e-002
3355	19.618	1.2727	0.	3.2861e-002
3356	19.618	1.4545	0.	3.2864e-002
3357	19.618	1.6364	0.	3.2263e-002
3358	19.618	1.8182	0.	3.1245e-002
3359	19.618	2.	0.	3.0005e-002
3360	19.618	2.1818	0.	2.8708e-002
3361	19.618	2.3636	0.	2.7506e-002
3362	19.618	2.5455	0.	2.6509e-002
3363	19.618	2.7273	0.	2.5802e-002
3364	19.618	2.9091	0.	2.5438e-002
3365	19.618	3.0909	0.	2.5439e-002
3366	19.618	3.2727	0.	2.5805e-002
3367	19.618	3.4545	0.	2.651e-002
3368	19.618	3.6364	0.	2.7506e-002
3369	19.618	3.8182	0.	2.8709e-002
3370	19.618	4.	0.	3.0007e-002
3371	19.618	4.1818	0.	3.1246e-002
3372	19.618	4.3636	0.	3.2262e-002
3373	19.618	4.5455	0.	3.2863e-002
3374	19.618	4.7273	0.	3.286e-002
3375	19.618	4.9091	0.	3.2108e-002
3376	19.618	5.0909	0.	3.0595e-002
3377	19.618	5.2727	0.	2.9329e-002
3378	19.618	5.4545	0.	0.48915
3379	19.618	5.6364	0.	4.8016
3380	19.618	5.8182	0.	9.4542
3381	19.801	0.18182	0.	9.9249
3382	19.801	0.36364	0.	5.3703
3383	19.801	0.54545	0.	1.3785
3384	19.801	0.72727	0.	2.3304e-002
3385	19.801	0.90909	0.	2.573e-002
3386	19.801	1.0909	0.	2.7805e-002
3387	19.801	1.2727	0.	2.9022e-002
3388	19.801	1.4545	0.	2.9476e-002
3389	19.801	1.6364	0.	2.9316e-002
3390	19.801	1.8182	0.	2.8719e-002
3391	19.801	2.	0.	2.7853e-002
3392	19.801	2.1818	0.	2.6882e-002
3393	19.801	2.3636	0.	2.5937e-002
3394	19.801	2.5455	0.	2.5135e-002
3395	19.801	2.7273	0.	2.4556e-002
3396	19.801	2.9091	0.	2.4249e-002
3397	19.801	3.0909	0.	2.4251e-002
3398	19.801	3.2727	0.	2.4554e-002
3399	19.801	3.4545	0.	2.5134e-002
3400	19.801	3.6364	0.	2.5937e-002
3401	19.801	3.8182	0.	2.6881e-002
3402	19.801	4.	0.	2.7853e-002
3403	19.801	4.1818	0.	2.8718e-002
3404	19.801	4.3636	0.	2.9316e-002
3405	19.801	4.5455	0.	2.9476e-002
3406	19.801	4.7273	0.	2.9023e-002
3407	19.801	4.9091	0.	2.7805e-002
3408	19.801	5.0909	0.	2.5729e-002
3409	19.801	5.2727	0.	2.3303e-002
3410	19.801	5.4545	0.	1.3786
3411	19.801	5.6364	0.	5.3704
3412	19.801	5.8182	0.	9.9249
3413	19.983	0.18182	0.	10.546
3414	19.983	0.36364	0.	6.1645
3415	19.983	0.54545	0.	2.5664
3416	19.983	0.72727	0.	1.9047e-002
3417	19.983	0.90909	0.	2.228e-002
3418	19.983	1.0909	0.	2.4693e-002
3419	19.983	1.2727	0.	2.6232e-002
3420	19.983	1.4545	0.	2.7026e-002
3421	19.983	1.6364	0.	2.7222e-002
3422	19.983	1.8182	0.	2.6969e-002
3423	19.983	2.	0.	2.6427e-002
3424	19.983	2.1818	0.	2.5737e-002
3425	19.983	2.3636	0.	2.5031e-002
3426	19.983	2.5455	0.	2.4407e-002
3427	19.983	2.7273	0.	2.3946e-002
3428	19.983	2.9091	0.	2.3703e-002
3429	19.983	3.0909	0.	2.3703e-002
3430	19.983	3.2727	0.	2.3945e-002
3431	19.983	3.4545	0.	2.4407e-002
3432	19.983	3.6364	0.	2.5031e-002
3433	19.983	3.8182	0.	2.5739e-002
3434	19.983	4.	0.	2.6428e-002
3435	19.983	4.1818	0.	2.6969e-002
3436	19.983	4.3636	0.	2.722e-002
3437	19.983	4.5455	0.	2.7028e-002
3438	19.983	4.7273	0.	2.6232e-002
3439	19.983	4.9091	0.	2.4693e-002
3440	19.983	5.0909	0.	2.2277e-002
3441	19.983	5.2727	0.	1.9045e-002
3442	19.983	5.4545	0.	2.5664
3443	19.983	5.6364	0.	6.1646
3444	19.983	5.8182	0.	10.546
3445	20.166	0.18182	0.	11.292
3446	20.166	0.36364	0.	7.1465
3447	20.166	0.54545	0.	3.982
3448	20.166	0.72727	0.	0.5304
3449	20.166	0.90909	0.	2.0087e-002
3450	20.166	1.0909	0.	2.2546e-002
3451	20.166	1.2727	0.	2.4287e-002
3452	20.166	1.4545	0.	2.5339e-002
3453	20.166	1.6364	0.	2.5821e-002
3454	20.166	1.8182	0.	2.5862e-002
3455	20.166	2.	0.	2.5599e-002
3456	20.166	2.1818	0.	2.5162e-002
3457	20.166	2.3636	0.	2.4663e-002
3458	20.166	2.5455	0.	2.4203e-002
3459	20.166	2.7273	0.	2.3854e-002
3460	20.166	2.9091	0.	2.3665e-002
3461	20.166	3.0909	0.	2.3665e-002
3462	20.166	3.2727	0.	2.3852e-002
3463	20.166	3.4545	0.	2.4204e-002
3464	20.166	3.6364	0.	2.4663e-002
3465	20.166	3.8182	0.	2.5161e-002
3466	20.166	4.	0.	2.56e-002
3467	20.166	4.1818	0.	2.5862e-002
3468	20.166	4.3636	0.	2.5822e-002
3469	20.166	4.5455	0.	2.534e-002
3470	20.166	4.7273	0.	2.4286e-002
3471	20.166	4.9091	0.	2.2545e-002
3472	20.166	5.0909	0.	2.0087e-002
3473	20.166	5.2727	0.	0.53048
3474	20.166	5.4545	0.	3.9821
3475	20.166	5.6364	0.	7.1465
3476	20.166	5.8182	0.	11.292
3477	20.348	0.18182	0.	12.137
3478	20.348	0.36364	0.	8.2833
3479	20.348	0.54545	0.	5.5854
3480	20.348	0.72727	0.	2.7137
3481	20.348	0.90909	0.	2.5042e-002
3482	20.348	1.0909	0.	2.1447e-002
3483	20.348	1.2727	0.	2.3081e-002
3484	20.348	1.4545	0.	2.4292e-002
3485	20.348	1.6364	0.	2.5003e-002
3486	20.348	1.8182	0.	2.5294e-002
3487	20.348	2.	0.	2.5275e-002
3488	20.348	2.1818	0.	2.5058e-002
3489	20.348	2.3636	0.	2.4748e-002
3490	20.348	2.5455	0.	2.4434e-002
3491	20.348	2.7273	0.	2.4182e-002
3492	20.348	2.9091	0.	2.4046e-002
3493	20.348	3.0909	0.	2.4046e-002
3494	20.348	3.2727	0.	2.4185e-002
3495	20.348	3.4545	0.	2.4433e-002
3496	20.348	3.6364	0.	2.4747e-002
3497	20.348	3.8182	0.	2.5058e-002
3498	20.348	4.	0.	2.5274e-002
3499	20.348	4.1818	0.	2.5294e-002
3500	20.348	4.3636	0.	2.5003e-002
3501	20.348	4.5455	0.	2.4291e-002
3502	20.348	4.7273	0.	2.308e-002
3503	20.348	4.9091	0.	2.1446e-002
3504	20.348	5.0909	0.	2.5042e-002
3505	20.348	5.2727	0.	2.7138
3506	20.348	5.4545	0.	5.5855
3507	20.348	5.6364	0.	8.2834
3508	20.348	5.8182	0.	12.137
3509	20.531	0.18182	0.	13.062
3510	20.531	0.36364	0.	9.5471
3511	20.531	0.54545	0.	7.3446
3512	20.531	0.72727	0.	5.0625
3513	20.531	0.90909	0.	2.6117
3514	20.531	1.0909	0.	7.316e-002
3515	20.531	1.2727	0.	2.2961e-002
3516	20.531	1.4545	0.	2.3862e-002
3517	20.531	1.6364	0.	2.4698e-002
3518	20.531	1.8182	0.	2.5192e-002
3519	20.531	2.	0.	2.5383e-002
3520	20.531	2.1818	0.	2.5363e-002
3521	20.531	2.3636	0.	2.522e-002
3522	20.531	2.5455	0.	2.5035e-002
3523	20.531	2.7273	0.	2.4876e-002
3524	20.531	2.9091	0.	2.4785e-002
3525	20.531	3.0909	0.	2.4784e-002
3526	20.531	3.2727	0.	2.4876e-002
3527	20.531	3.4545	0.	2.5036e-002
3528	20.531	3.6364	0.	2.522e-002
3529	20.531	3.8182	0.	2.5362e-002
3530	20.531	4.	0.	2.5383e-002
3531	20.531	4.1818	0.	2.519e-002
3532	20.531	4.3636	0.	2.4697e-002
3533	20.531	4.5455	0.	2.3863e-002
3534	20.531	4.7273	0.	2.2963e-002
3535	20.531	4.9091	0.	7.3192e-002
3536	20.531	5.0909	0.	2.6118
3537	20.531	5.2727	0.	5.0625
3538	20.531	5.4545	0.	7.3447
3539	20.531	5.6364	0.	9.5471
3540	20.531	5.8182	0.	13.062
3541	20.714	0.18182	0.	14.047
3542	20.714	0.36364	0.	10.914
3543	20.714	0.54545	0.	9.2338
3544	20.714	0.72727	0.	7.5515
3545	20.714	0.90909	0.	5.7636
3546	20.714	1.0909	0.	3.8598
3547	20.714	1.2727	0.	1.8558
3548	20.714	1.4545	0.	3.0767e-002
3549	20.714	1.6364	0.	2.5027e-002
3550	20.714	1.8182	0.	2.552e-002
3551	20.714	2.	0.	2.588e-002
3552	20.714	2.1818	0.	2.6032e-002
3553	20.714	2.3636	0.	2.604e-002
3554	20.714	2.5455	0.	2.5973e-002
3555	20.714	2.7273	0.	2.5892e-002
3556	20.714	2.9091	0.	2.5839e-002
3557	20.714	3.0909	0.	2.584e-002
3558	20.714	3.2727	0.	2.5891e-002
3559	20.714	3.4545	0.	2.5971e-002
3560	20.714	3.6364	0.	2.604e-002
3561	20.714	3.8182	0.	2.6033e-002
3562	20.714	4.	0.	2.588e-002
3563	20.714	4.1818	0.	2.5521e-002
3564	20.714	4.3636	0.	2.5027e-002
3565	20.714	4.5455	0.	3.0768e-002
3566	20.714	4.7273	0.	1.8558
3567	20.714	4.9091	0.	3.8599
3568	20.714	5.0909	0.	5.7637
3569	20.714	5.2727	0.	7.5516
3570	20.714	5.4545	0.	9.2339
3571	20.714	5.6364	0.	10.914
3572	20.714	5.8182	0.	14.047
3573	20.896	0.18182	0.	15.077
3574	20.896	0.36364	0.	12.364
3575	20.896	0.54545	0.	11.232
3576	20.896	0.72727	0.	10.162
3577	20.896	0.90909	0.	9.0362
3578	20.896	1.0909	0.	7.829
3579	20.896	1.2727	0.	6.5389
3580	20.896	1.4545	0.	5.1822
3581	20.896	1.6364	0.	3.7903
3582	20.896	1.8182	0.	2.4063
3583	20.896	2.	0.	1.0809
3584	20.896	2.1818	0.	2.708e-002
3585	20.896	2.3636	0.	2.7209e-002
3586	20.896	2.5455	0.	2.7235e-002
3587	20.896	2.7273	0.	2.7214e-002
3588	20.896	2.9091	0.	2.7193e-002
3589	20.896	3.0909	0.	2.7193e-002
3590	20.896	3.2727	0.	2.7214e-002
3591	20.896	3.4545	0.	2.7235e-002
3592	20.896	3.6364	0.	2.7207e-002
3593	20.896	3.8182	0.	2.7079e-002
3594	20.896	4.	0.	1.0809
3595	20.896	4.1818	0.	2.4064
3596	20.896	4.3636	0.	3.7904
3597	20.896	4.5455	0.	5.1823
3598	20.896	4.7273	0.	6.539
3599	20.896	4.9091	0.	7.8291
3600	20.896	5.0909	0.	9.0363
3601	20.896	5.2727	0.	10.162
3602	20.896	5.4545	0.	11.232
3603	20.896	5.6364	0.	12.364
3604	20.896	5.8182	0.	15.077
3605	21.079	0.18182	0.	16.138
3606	21.079	0.36364	0.	13.882
3607	21.079	0.54545	0.	13.324
3608	21.079	0.72727	0.	12.881
3609	21.079	0.90909	0.	12.42
3610	21.079	1.0909	0.	11.902
3611	21.079	1.2727	0.	11.308
3612	21.079	1.4545	0.	10.639
3613	21.079	1.6364	0.	9.9091
3614	21.079	1.8182	0.	9.1459
3615	21.079	2.	0.	8.385
3616	21.079	2.1818	0.	7.6665
3617	21.079	2.3636	0.	7.0311
3618	21.079	2.5455	0.	6.5168
3619	21.079	2.7273	0.	6.155
3620	21.079	2.9091	0.	5.9683
3621	21.079	3.0909	0.	5.9683
3622	21.079	3.2727	0.	6.1551
3623	21.079	3.4545	0.	6.5169
3624	21.079	3.6364	0.	7.0312
3625	21.079	3.8182	0.	7.6665
3626	21.079	4.	0.	8.3851
3627	21.079	4.1818	0.	9.146
3628	21.079	4.3636	0.	9.9091
3629	21.079	4.5455	0.	10.639
3630	21.079	4.7273	0.	11.308
3631	21.079	4.9091	0.	11.902
3632	21.079	5.0909	0.	12.42
3633	21.079	5.2727	0.	12.881
3634	21.079	5.4545	0.	13.324
3635	21.079	5.6364	0.	13.882
3636	21.079	5.8182	0.	16.138
3637	21.261	0.18182	0.	17.215
3638	21.261	0.36364	0.	15.454
3639	21.261	0.54545	0.	15.497
3640	21.261	0.72727	0.	15.699
3641	21.261	0.90909	0.	15.913
3642	21.261	1.0909	0.	16.081
3643	21.261	1.2727	0.	16.172
3644	21.261	1.4545	0.	16.17
3645	21.261	1.6364	0.	16.076
3646	21.261	1.8182	0.	15.904
3647	21.261	2.	0.	15.675
3648	21.261	2.1818	0.	15.42
3649	21.261	2.3636	0.	15.168
3650	21.261	2.5455	0.	14.949
3651	21.261	2.7273	0.	14.788
3652	21.261	2.9091	0.	14.702
3653	21.261	3.0909	0.	14.702
3654	21.261	3.2727	0.	14.788
3655	21.261	3.4545	0.	14.949
3656	21.261	3.6364	0.	15.168
3657	21.261	3.8182	0.	15.42
3658	21.261	4.	0.	15.675
3659	21.261	4.1818	0.	15.904
3660	21.261	4.3636	0.	16.076
3661	21.261	4.5455	0.	16.17
3662	21.261	4.7273	0.	16.172
3663	21.261	4.9091	0.	16.081
3664	21.261	5.0909	0.	15.913
3665	21.261	5.2727	0.	15.699
3666	21.261	5.4545	0.	15.497
3667	21.261	5.6364	0.	15.454
3668	21.261	5.8182	0.	17.215
3669	21.444	0.18182	0.	18.299
3670	21.444	0.36364	0.	17.071
3671	21.444	0.54545	0.	17.745
3672	21.444	0.72727	0.	18.615
3673	21.444	0.90909	0.	19.516
3674	21.444	1.0909	0.	20.376
3675	21.444	1.2727	0.	21.146
3676	21.444	1.4545	0.	21.798
3677	21.444	1.6364	0.	22.319
3678	21.444	1.8182	0.	22.712
3679	21.444	2.	0.	22.99
3680	21.444	2.1818	0.	23.17
3681	21.444	2.3636	0.	23.278
3682	21.444	2.5455	0.	23.334
3683	21.444	2.7273	0.	23.36
3684	21.444	2.9091	0.	23.368
3685	21.444	3.0909	0.	23.368
3686	21.444	3.2727	0.	23.36
3687	21.444	3.4545	0.	23.334
3688	21.444	3.6364	0.	23.278
3689	21.444	3.8182	0.	23.17
3690	21.444	4.	0.	22.99
3691	21.444	4.1818	0.	22.713
3692	21.444	4.3636	0.	22.32
3693	21.444	4.5455	0.	21.798
3694	21.444	4.7273	0.	21.146
3695	21.444	4.9091	0.	20.376
3696	21.444	5.0909	0.	19.517
3697	21.444	5.2727	0.	18.615
3698	21.444	5.4545	0.	17.745
3699	21.444	5.6364	0.	17.071
3700	21.444	5.8182	0.	18.299
3701	21.627	0.18182	0.	19.377
3702	21.627	0.36364	0.	18.725
3703	21.627	0.54545	0.	20.065
3704	21.627	0.72727	0.	21.632
3705	21.627	0.90909	0.	23.24
3706	21.627	1.0909	0.	24.801
3707	21.627	1.2727	0.	26.25
3708	21.627	1.4545	0.	27.547
3709	21.627	1.6364	0.	28.669
3710	21.627	1.8182	0.	29.607
3711	21.627	2.	0.	30.367
3712	21.627	2.1818	0.	30.961
3713	21.627	2.3636	0.	31.407
3714	21.627	2.5455	0.	31.721
3715	21.627	2.7273	0.	31.921
3716	21.627	2.9091	0.	32.017
3717	21.627	3.0909	0.	32.017
3718	21.627	3.2727	0.	31.921
3719	21.627	3.4545	0.	31.721
3720	21.627	3.6364	0.	31.407
3721	21.627	3.8182	0.	30.961
3722	21.627	4.	0.	30.367
3723	21.627	4.1818	0.	29.607
3724	21.627	4.3636	0.	28.669
3725	21.627	4.5455	0.	27.548
3726	21.627	4.7273	0.	26.25
3727	21.627	4.9091	0.	24.801
3728	21.627	5.0909	0.	23.24
3729	21.627	5.2727	0.	21.632
3730	21.627	5.4545	0.	20.065
3731	21.627	5.6364	0.	18.725
3732	21.627	5.8182	0.	19.377
3733	21.809	0.18182	0.	20.441
3734	21.809	0.36364	0.	20.413
3735	21.809	0.54545	0.	22.46
3736	21.809	0.72727	0.	24.757
3737	21.809	0.90909	0.	27.099
3738	21.809	1.0909	0.	29.377
3739	21.809	1.2727	0.	31.511
3740	21.809	1.4545	0.	33.449
3741	21.809	1.6364	0.	35.159
3742	21.809	1.8182	0.	36.625
3743	21.809	2.	0.	37.848
3744	21.809	2.1818	0.	38.835
3745	21.809	2.3636	0.	39.599
3746	21.809	2.5455	0.	40.155
3747	21.809	2.7273	0.	40.517
3748	21.809	2.9091	0.	40.696
3749	21.809	3.0909	0.	40.696
3750	21.809	3.2727	0.	40.518
3751	21.809	3.4545	0.	40.155
3752	21.809	3.6364	0.	39.599
3753	21.809	3.8182	0.	38.835
3754	21.809	4.	0.	37.848
3755	21.809	4.1818	0.	36.625
3756	21.809	4.3636	0.	35.159
3757	21.809	4.5455	0.	33.449
3758	21.809	4.7273	0.	31.511
3759	21.809	4.9091	0.	29.377
3760	21.809	5.0909	0.	27.099
3761	21.809	5.2727	0.	24.757
3762	21.809	5.4545	0.	22.46
3763	21.809	5.6364	0.	20.413
3764	21.809	5.8182	0.	20.441
3765	21.992	0.18182	0.	21.48
3766	21.992	0.36364	0.	22.132
3767	21.992	0.54545	0.	24.936
3768	21.992	0.72727	0.	28.008
3769	21.992	0.90909	0.	31.117
3770	21.992	1.0909	0.	34.132
3771	21.992	1.2727	0.	36.961
3772	21.992	1.4545	0.	39.538
3773	21.992	1.6364	0.	41.826
3774	21.992	1.8182	0.	43.805
3775	21.992	2.	0.	45.472
3776	21.992	2.1818	0.	46.832
3777	21.992	2.3636	0.	47.897
3778	21.992	2.5455	0.	48.68
3779	21.992	2.7273	0.	49.194
3780	21.992	2.9091	0.	49.448
3781	21.992	3.0909	0.	49.448
3782	21.992	3.2727	0.	49.194
3783	21.992	3.4545	0.	48.68
3784	21.992	3.6364	0.	47.897
3785	21.992	3.8182	0.	46.832
3786	21.992	4.	0.	45.472
3787	21.992	4.1818	0.	43.805
3788	21.992	4.3636	0.	41.826
3789	21.992	4.5455	0.	39.538
3790	21.992	4.7273	0.	36.961
3791	21.992	4.9091	0.	34.132
3792	21.992	5.0909	0.	31.117
3793	21.992	5.2727	0.	28.008
3794	21.992	5.4545	0.	24.936
3795	21.992	5.6364	0.	22.132
3796	21.992	5.8182	0.	21.48
3797	22.174	0.18182	0.	22.484
3798	22.174	0.36364	0.	23.886
3799	22.174	0.54545	0.	27.507
3800	22.174	0.72727	0.	31.408
3801	22.174	0.90909	0.	35.325
3802	22.174	1.0909	0.	39.105
3803	22.174	1.2727	0.	42.639
3804	22.174	1.4545	0.	45.856
3805	22.174	1.6364	0.	48.712
3806	22.174	1.8182	0.	51.188
3807	22.174	2.	0.	53.279
3808	22.174	2.1818	0.	54.993
3809	22.174	2.3636	0.	56.34
3810	22.174	2.5455	0.	57.335
3811	22.174	2.7273	0.	57.99
3812	22.174	2.9091	0.	58.315
3813	22.174	3.0909	0.	58.315
3814	22.174	3.2727	0.	57.99
3815	22.174	3.4545	0.	57.335
3816	22.174	3.6364	0.	56.34
3817	22.174	3.8182	0.	54.993
3818	22.174	4.	0.	53.279
3819	22.174	4.1818	0.	51.188
3820	22.174	4.3636	0.	48.712
3821	22.174	4.5455	0.	45.856
3822	22.174	4.7273	0.	42.639
3823	22.174	4.9091	0.	39.105
3824	22.174	5.0909	0.	35.325
3825	22.174	5.2727	0.	31.408
3826	22.174	5.4545	0.	27.507
3827	22.174	5.6364	0.	23.886
3828	22.174	5.8182	0.	22.484
3829	22.357	0.18182	0.	23.443
3830	22.357	0.36364	0.	25.681
3831	22.357	0.54545	0.	30.196
3832	22.357	0.72727	0.	34.991
3833	22.357	0.90909	0.	39.766
3834	22.357	1.0909	0.	44.34
3835	22.357	1.2727	0.	48.593
3836	22.357	1.4545	0.	52.447
3837	22.357	1.6364	0.	55.86
3838	22.357	1.8182	0.	58.815
3839	22.357	2.	0.	61.31
3840	22.357	2.1818	0.	63.356
3841	22.357	2.3636	0.	64.966
3842	22.357	2.5455	0.	66.157
3843	22.357	2.7273	0.	66.942
3844	22.357	2.9091	0.	67.332
3845	22.357	3.0909	0.	67.332
3846	22.357	3.2727	0.	66.942
3847	22.357	3.4545	0.	66.157
3848	22.357	3.6364	0.	64.966
3849	22.357	3.8182	0.	63.356
3850	22.357	4.	0.	61.31
3851	22.357	4.1818	0.	58.815
3852	22.357	4.3636	0.	55.86
3853	22.357	4.5455	0.	52.447
3854	22.357	4.7273	0.	48.593
3855	22.357	4.9091	0.	44.34
3856	22.357	5.0909	0.	39.766
3857	22.357	5.2727	0.	34.991
3858	22.357	5.4545	0.	30.196
3859	22.357	5.6364	0.	25.681
3860	22.357	5.8182	0.	23.443
3861	22.539	0.18182	0.	24.346
3862	22.539	0.36364	0.	27.53
3863	22.539	0.54545	0.	33.037
3864	22.539	0.72727	0.	38.808
3865	22.539	0.90909	0.	44.497
3866	22.539	1.0909	0.	49.897
3867	22.539	1.2727	0.	54.878
3868	22.539	1.4545	0.	59.363
3869	22.539	1.6364	0.	63.316
3870	22.539	1.8182	0.	66.727
3871	22.539	2.	0.	69.602
3872	22.539	2.1818	0.	71.956
3873	22.539	2.3636	0.	73.809
3874	22.539	2.5455	0.	75.179
3875	22.539	2.7273	0.	76.083
3876	22.539	2.9091	0.	76.531
3877	22.539	3.0909	0.	76.531
3878	22.539	3.2727	0.	76.083
3879	22.539	3.4545	0.	75.179
3880	22.539	3.6364	0.	73.809
3881	22.539	3.8182	0.	71.956
3882	22.539	4.	0.	69.602
3883	22.539	4.1818	0.	66.727
3884	22.539	4.3636	0.	63.316
3885	22.539	4.5455	0.	59.364
3886	22.539	4.7273	0.	54.878
3887	22.539	4.9091	0.	49.897
3888	22.539	5.0909	0.	44.497
3889	22.539	5.2727	0.	38.808
3890	22.539	5.4545	0.	33.037
3891	22.539	5.6364	0.	27.53
3892	22.539	5.8182	0.	24.346
3893	22.722	0.18182	0.	25.182
3894	22.722	0.36364	0.	29.455
3895	22.722	0.54545	0.	36.082
3896	22.722	0.72727	0.	42.927
3897	22.722	0.90909	0.	49.592
3898	22.722	1.0909	0.	55.847
3899	22.722	1.2727	0.	61.558
3900	22.722	1.4545	0.	66.659
3901	22.722	1.6364	0.	71.128
3902	22.722	1.8182	0.	74.965
3903	22.722	2.	0.	78.19
3904	22.722	2.1818	0.	80.826
3905	22.722	2.3636	0.	82.898
3906	22.722	2.5455	0.	84.429
3907	22.722	2.7273	0.	85.439
3908	22.722	2.9091	0.	85.94
3909	22.722	3.0909	0.	85.94
3910	22.722	3.2727	0.	85.439
3911	22.722	3.4545	0.	84.429
3912	22.722	3.6364	0.	82.898
3913	22.722	3.8182	0.	80.826
3914	22.722	4.	0.	78.19
3915	22.722	4.1818	0.	74.966
3916	22.722	4.3636	0.	71.128
3917	22.722	4.5455	0.	66.66
3918	22.722	4.7273	0.	61.558
3919	22.722	4.9091	0.	55.847
3920	22.722	5.0909	0.	49.592
3921	22.722	5.2727	0.	42.927
3922	22.722	5.4545	0.	36.082
3923	22.722	5.6364	0.	29.455
3924	22.722	5.8182	0.	25.182
3925	22.905	0.18182	0.	25.936
3926	22.905	0.36364	0.	31.5
3927	22.905	0.54545	0.	39.411
3928	22.905	0.72727	0.	47.446
3929	22.905	0.90909	0.	55.149
3930	22.905	1.0909	0.	62.274
3931	22.905	1.2727	0.	68.704
3932	22.905	1.4545	0.	74.393
3933	22.905	1.6364	0.	79.34
3934	22.905	1.8182	0.	83.568
3935	22.905	2.	0.	87.108
3936	22.905	2.1818	0.	89.994
3937	22.905	2.3636	0.	92.26
3938	22.905	2.5455	0.	93.932
3939	22.905	2.7273	0.	95.035
3940	22.905	2.9091	0.	95.582
3941	22.905	3.0909	0.	95.582
3942	22.905	3.2727	0.	95.035
3943	22.905	3.4545	0.	93.932
3944	22.905	3.6364	0.	92.26
3945	22.905	3.8182	0.	89.994
3946	22.905	4.	0.	87.108
3947	22.905	4.1818	0.	83.568
3948	22.905	4.3636	0.	79.34
3949	22.905	4.5455	0.	74.393
3950	22.905	4.7273	0.	68.704
3951	22.905	4.9091	0.	62.275
3952	22.905	5.0909	0.	55.149
3953	22.905	5.2727	0.	47.446
3954	22.905	5.4545	0.	39.411
3955	22.905	5.6364	0.	31.5
3956	22.905	5.8182	0.	25.936
3957	23.087	0.18182	0.	26.597
3958	23.087	0.36364	0.	33.734
3959	23.087	0.54545	0.	43.148
3960	23.087	0.72727	0.	52.501
3961	23.087	0.90909	0.	61.288
3962	23.087	1.0909	0.	69.277
3963	23.087	1.2727	0.	76.389
3964	23.087	1.4545	0.	82.618
3965	23.087	1.6364	0.	87.996
3966	23.087	1.8182	0.	92.567
3967	23.087	2.	0.	96.38
3968	23.087	2.1818	0.	99.482
3969	23.087	2.3636	0.	101.91
3970	23.087	2.5455	0.	103.71
3971	23.087	2.7273	0.	104.89
3972	23.087	2.9091	0.	105.47
3973	23.087	3.0909	0.	105.47
3974	23.087	3.2727	0.	104.89
3975	23.087	3.4545	0.	103.71
3976	23.087	3.6364	0.	101.91
3977	23.087	3.8182	0.	99.482
3978	23.087	4.	0.	96.38
3979	23.087	4.1818	0.	92.567
3980	23.087	4.3636	0.	87.996
3981	23.087	4.5455	0.	82.618
3982	23.087	4.7273	0.	76.389
3983	23.087	4.9091	0.	69.277
3984	23.087	5.0909	0.	61.288
3985	23.087	5.2727	0.	52.502
3986	23.087	5.4545	0.	43.148
3987	23.087	5.6364	0.	33.734
3988	23.087	5.8182	0.	26.597
3989	23.27	0.18182	0.	27.16
3990	23.27	0.36364	0.	36.298
3991	23.27	0.54545	0.	47.495
3992	23.27	0.72727	0.	58.283
3993	23.27	0.90909	0.	68.159
3994	23.27	1.0909	0.	76.963
3995	23.27	1.2727	0.	84.689
3996	23.27	1.4545	0.	91.388
3997	23.27	1.6364	0.	97.132
3998	23.27	1.8182	0.	101.99
3999	23.27	2.	0.	106.03
4000	23.27	2.1818	0.	109.31
4001	23.27	2.3636	0.	111.87
4002	23.27	2.5455	0.	113.77
4003	23.27	2.7273	0.	115.01
4004	23.27	2.9091	0.	115.63
4005	23.27	3.0909	0.	115.63
4006	23.27	3.2727	0.	115.01
4007	23.27	3.4545	0.	113.77
4008	23.27	3.6364	0.	111.87
4009	23.27	3.8182	0.	109.31
4010	23.27	4.	0.	106.03
4011	23.27	4.1818	0.	101.99
4012	23.27	4.3636	0.	97.132
4013	23.27	4.5455	0.	91.388
4014	23.27	4.7273	0.	84.689
4015	23.27	4.9091	0.	76.963
4016	23.27	5.0909	0.	68.159
4017	23.27	5.2727	0.	58.283
4018	23.27	5.4545	0.	47.495
4019	23.27	5.6364	0.	36.298
4020	23.27	5.8182	0.	27.16
4021	23.452	0.18182	0.	27.644
4022	23.452	0.36364	0.	39.456
4023	23.452	0.54545	0.	52.754
4024	23.452	0.72727	0.	65.019
4025	23.452	0.90909	0.	75.907
4026	23.452	1.0909	0.	85.416
4027	23.452	1.2727	0.	93.649
4028	23.452	1.4545	0.	100.73
4029	23.452	1.6364	0.	106.76
4030	23.452	1.8182	0.	111.84
4031	23.452	2.	0.	116.06
4032	23.452	2.1818	0.	119.47
4033	23.452	2.3636	0.	122.14
4034	23.452	2.5455	0.	124.11
4035	23.452	2.7273	0.	125.4
4036	23.452	2.9091	0.	126.04
4037	23.452	3.0909	0.	126.04
4038	23.452	3.2727	0.	125.4
4039	23.452	3.4545	0.	124.11
4040	23.452	3.6364	0.	122.14
4041	23.452	3.8182	0.	119.47
4042	23.452	4.	0.	116.06
4043	23.452	4.1818	0.	111.84
4044	23.452	4.3636	0.	106.76
4045	23.452	4.5455	0.	100.73
4046	23.452	4.7273	0.	93.649
4047	23.452	4.9091	0.	85.416
4048	23.452	5.0909	0.	75.907
4049	23.452	5.2727	0.	65.019
4050	23.452	5.4545	0.	52.754
4051	23.452	5.6364	0.	39.456
4052	23.452	5.8182	0.	27.644
4053	23.635	0.18182	0.	28.218
4054	23.635	0.36364	0.	43.858
4055	23.635	0.54545	0.	59.452
4056	23.635	0.72727	0.	73.037
4057	23.635	0.90909	0.	84.732
4058	23.635	1.0909	0.	94.766
4059	23.635	1.2727	0.	103.36
4060	23.635	1.4545	0.	110.71
4061	23.635	1.6364	0.	116.94
4062	23.635	1.8182	0.	122.18
4063	23.635	2.	0.	126.52
4064	23.635	2.1818	0.	130.03
4065	23.635	2.3636	0.	132.77
4066	23.635	2.5455	0.	134.79
4067	23.635	2.7273	0.	136.12
4068	23.635	2.9091	0.	136.78
4069	23.635	3.0909	0.	136.78
4070	23.635	3.2727	0.	136.12
4071	23.635	3.4545	0.	134.79
4072	23.635	3.6364	0.	132.77
4073	23.635	3.8182	0.	130.03
4074	23.635	4.	0.	126.52
4075	23.635	4.1818	0.	122.18
4076	23.635	4.3636	0.	116.94
4077	23.635	4.5455	0.	110.71
4078	23.635	4.7273	0.	103.36
4079	23.635	4.9091	0.	94.766
4080	23.635	5.0909	0.	84.732
4081	23.635	5.2727	0.	73.037
4082	23.635	5.4545	0.	59.452
4083	23.635	5.6364	0.	43.858
4084	23.635	5.8182	0.	28.218
4085	23.817	0.18182	0.	30.062
4086	23.817	0.36364	0.	50.653
4087	23.817	0.54545	0.	68.049
4088	23.817	0.72727	0.	82.456
4089	23.817	0.90909	0.	94.594
4090	23.817	1.0909	0.	104.9
4091	23.817	1.2727	0.	113.68
4092	23.817	1.4545	0.	121.16
4093	23.817	1.6364	0.	127.49
4094	23.817	1.8182	0.	132.81
4095	23.817	2.	0.	137.21
4096	23.817	2.1818	0.	140.77
4097	23.817	2.3636	0.	143.55
4098	23.817	2.5455	0.	145.6
4099	23.817	2.7273	0.	146.94
4100	23.817	2.9091	0.	147.61
4101	23.817	3.0909	0.	147.61
4102	23.817	3.2727	0.	146.94
4103	23.817	3.4545	0.	145.6
4104	23.817	3.6364	0.	143.55
4105	23.817	3.8182	0.	140.77
4106	23.817	4.	0.	137.21
4107	23.817	4.1818	0.	132.81
4108	23.817	4.3636	0.	127.49
4109	23.817	4.5455	0.	121.16
4110	23.817	4.7273	0.	113.68
4111	23.817	4.9091	0.	104.9
4112	23.817	5.0909	0.	94.594
4113	23.817	5.2727	0.	82.456
4114	23.817	5.4545	0.	68.049
4115	23.817	5.6364	0.	50.653
4116	23.817	5.8182	0.	30.062
4117	23.817	5.8182	0.1	36.781
4118	23.817	5.6364	0.1	37.737
4119	23.817	5.4545	0.1	38.417
4120	23.817	5.2727	0.1	38.795
4121	23.817	5.0909	0.1	38.961
4122	23.817	4.9091	0.1	39.02
4123	23.817	4.7273	0.1	39.019
4124	23.817	4.5455	0.1	38.986
4125	23.817	4.3636	0.1	38.936
4126	23.817	4.1818	0.1	38.88
4127	23.817	4.	0.1	38.825
4128	23.817	3.8182	0.1	38.774
4129	23.817	3.6364	0.1	38.73
4130	23.817	3.4545	0.1	38.696
4131	23.817	3.2727	0.1	38.673
4132	23.817	3.0909	0.1	38.661
4133	23.817	2.9091	0.1	38.661
4134	23.817	2.7273	0.1	38.673
4135	23.817	2.5455	0.1	38.696
4136	23.817	2.3636	0.1	38.73
4137	23.817	2.1818	0.1	38.774
4138	23.817	2.	0.1	38.825
4139	23.817	1.8182	0.1	38.88
4140	23.817	1.6364	0.1	38.936
4141	23.817	1.4545	0.1	38.986
4142	23.817	1.2727	0.1	39.019
4143	23.817	1.0909	0.1	39.02
4144	23.817	0.90909	0.1	38.961
4145	23.817	0.72727	0.1	38.795
4146	23.817	0.54545	0.1	38.417
4147	23.817	0.36364	0.1	37.737
4148	23.817	0.18182	0.1	36.781
4149	23.635	5.8182	0.1	72.431
4150	23.635	5.6364	0.1	72.692
4151	23.635	5.4545	0.1	74.013
4152	23.635	5.2727	0.1	75.
4153	23.635	5.0909	0.1	75.646
4154	23.635	4.9091	0.1	76.063
4155	23.635	4.7273	0.1	76.325
4156	23.635	4.5455	0.1	76.485
4157	23.635	4.3636	0.1	76.577
4158	23.635	4.1818	0.1	76.623
4159	23.635	4.	0.1	76.641
4160	23.635	3.8182	0.1	76.642
4161	23.635	3.6364	0.1	76.634
4162	23.635	3.4545	0.1	76.624
4163	23.635	3.2727	0.1	76.615
4164	23.635	3.0909	0.1	76.61
4165	23.635	2.9091	0.1	76.61
4166	23.635	2.7273	0.1	76.615
4167	23.635	2.5455	0.1	76.624
4168	23.635	2.3636	0.1	76.634
4169	23.635	2.1818	0.1	76.642
4170	23.635	2.	0.1	76.641
4171	23.635	1.8182	0.1	76.623
4172	23.635	1.6364	0.1	76.577
4173	23.635	1.4545	0.1	76.485
4174	23.635	1.2727	0.1	76.325
4175	23.635	1.0909	0.1	76.063
4176	23.635	0.90909	0.1	75.646
4177	23.635	0.72727	0.1	75.
4178	23.635	0.54545	0.1	74.013
4179	23.635	0.36364	0.1	72.692
4180	23.635	0.18182	0.1	72.431
4181	23.452	5.8182	0.1	109.93
4182	23.452	5.6364	0.1	109.2
4183	23.452	5.4545	0.1	110.42
4184	23.452	5.2727	0.1	111.62
4185	23.452	5.0909	0.1	112.55
4186	23.452	4.9091	0.1	113.24
4187	23.452	4.7273	0.1	113.72
4188	23.452	4.5455	0.1	114.05
4189	23.452	4.3636	0.1	114.28
4190	23.452	4.1818	0.1	114.43
4191	23.452	4.	0.1	114.53
4192	23.452	3.8182	0.1	114.59
4193	23.452	3.6364	0.1	114.62
4194	23.452	3.4545	0.1	114.64
4195	23.452	3.2727	0.1	114.65
4196	23.452	3.0909	0.1	114.65
4197	23.452	2.9091	0.1	114.65
4198	23.452	2.7273	0.1	114.65
4199	23.452	2.5455	0.1	114.64
4200	23.452	2.3636	0.1	114.62
4201	23.452	2.1818	0.1	114.59
4202	23.452	2.	0.1	114.53
4203	23.452	1.8182	0.1	114.43
4204	23.452	1.6364	0.1	114.28
4205	23.452	1.4545	0.1	114.05
4206	23.452	1.2727	0.1	113.72
4207	23.452	1.0909	0.1	113.24
4208	23.452	0.90909	0.1	112.55
4209	23.452	0.72727	0.1	111.62
4210	23.452	0.54545	0.1	110.42
4211	23.452	0.36364	0.1	109.2
4212	23.452	0.18182	0.1	109.93
4213	23.27	5.8182	0.1	148.01
4214	23.27	5.6364	0.1	146.57
4215	23.27	5.4545	0.1	147.46
4216	23.27	5.2727	0.1	148.6
4217	23.27	5.0909	0.1	149.62
4218	23.27	4.9091	0.1	150.44
4219	23.27	4.7273	0.1	151.08
4220	23.27	4.5455	0.1	151.55
4221	23.27	4.3636	0.1	151.9
4222	23.27	4.1818	0.1	152.15
4223	23.27	4.	0.1	152.32
4224	23.27	3.8182	0.1	152.44
4225	23.27	3.6364	0.1	152.51
4226	23.27	3.4545	0.1	152.56
4227	23.27	3.2727	0.1	152.59
4228	23.27	3.0909	0.1	152.6
4229	23.27	2.9091	0.1	152.6
4230	23.27	2.7273	0.1	152.59
4231	23.27	2.5455	0.1	152.56
4232	23.27	2.3636	0.1	152.51
4233	23.27	2.1818	0.1	152.44
4234	23.27	2.	0.1	152.32
4235	23.27	1.8182	0.1	152.15
4236	23.27	1.6364	0.1	151.9
4237	23.27	1.4545	0.1	151.55
4238	23.27	1.2727	0.1	151.08
4239	23.27	1.0909	0.1	150.44
4240	23.27	0.90909	0.1	149.62
4241	23.27	0.72727	0.1	148.6
4242	23.27	0.54545	0.1	147.46
4243	23.27	0.36364	0.1	146.57
4244	23.27	0.18182	0.1	148.01
4245	23.087	5.8182	0.1	186.44
4246	23.087	5.6364	0.1	184.51
4247	23.087	5.4545	0.1	185.03
4248	23.087	5.2727	0.1	185.98
4249	23.087	5.0909	0.1	186.95
4250	23.087	4.9091	0.1	187.81
4251	23.087	4.7273	0.1	188.52
4252	23.087	4.5455	0.1	189.08
4253	23.087	4.3636	0.1	189.51
4254	23.087	4.1818	0.1	189.83
4255	23.087	4.	0.1	190.07
4256	23.087	3.8182	0.1	190.24
4257	23.087	3.6364	0.1	190.35
4258	23.087	3.4545	0.1	190.43
4259	23.087	3.2727	0.1	190.48
4260	23.087	3.0909	0.1	190.5
4261	23.087	2.9091	0.1	190.5
4262	23.087	2.7273	0.1	190.48
4263	23.087	2.5455	0.1	190.43
4264	23.087	2.3636	0.1	190.35
4265	23.087	2.1818	0.1	190.24
4266	23.087	2.	0.1	190.07
4267	23.087	1.8182	0.1	189.83
4268	23.087	1.6364	0.1	189.51
4269	23.087	1.4545	0.1	189.08
4270	23.087	1.2727	0.1	188.52
4271	23.087	1.0909	0.1	187.81
4272	23.087	0.90909	0.1	186.95
4273	23.087	0.72727	0.1	185.98
4274	23.087	0.54545	0.1	185.03
4275	23.087	0.36364	0.1	184.51
4276	23.087	0.18182	0.1	186.44
4277	22.905	5.8182	0.1	225.11
4278	22.905	5.6364	0.1	222.81
4279	22.905	5.4545	0.1	223.02
4280	22.905	5.2727	0.1	223.73
4281	22.905	5.0909	0.1	224.57
4282	22.905	4.9091	0.1	225.37
4283	22.905	4.7273	0.1	226.08
4284	22.905	4.5455	0.1	226.68
4285	22.905	4.3636	0.1	227.15
4286	22.905	4.1818	0.1	227.53
4287	22.905	4.	0.1	227.81
4288	22.905	3.8182	0.1	228.02
4289	22.905	3.6364	0.1	228.17
4290	22.905	3.4545	0.1	228.27
4291	22.905	3.2727	0.1	228.33
4292	22.905	3.0909	0.1	228.36
4293	22.905	2.9091	0.1	228.36
4294	22.905	2.7273	0.1	228.33
4295	22.905	2.5455	0.1	228.27
4296	22.905	2.3636	0.1	228.17
4297	22.905	2.1818	0.1	228.02
4298	22.905	2.	0.1	227.81
4299	22.905	1.8182	0.1	227.53
4300	22.905	1.6364	0.1	227.15
4301	22.905	1.4545	0.1	226.68
4302	22.905	1.2727	0.1	226.08
4303	22.905	1.0909	0.1	225.37
4304	22.905	0.90909	0.1	224.57
4305	22.905	0.72727	0.1	223.73
4306	22.905	0.54545	0.1	223.02
4307	22.905	0.36364	0.1	222.81
4308	22.905	0.18182	0.1	225.11
4309	22.722	5.8182	0.1	263.98
4310	22.722	5.6364	0.1	261.4
4311	22.722	5.4545	0.1	261.34
4312	22.722	5.2727	0.1	261.8
4313	22.722	5.0909	0.1	262.46
4314	22.722	4.9091	0.1	263.16
4315	22.722	4.7273	0.1	263.82
4316	22.722	4.5455	0.1	264.4
4317	22.722	4.3636	0.1	264.89
4318	22.722	4.1818	0.1	265.28
4319	22.722	4.	0.1	265.58
4320	22.722	3.8182	0.1	265.81
4321	22.722	3.6364	0.1	265.98
4322	22.722	3.4545	0.1	266.1
4323	22.722	3.2727	0.1	266.18
4324	22.722	3.0909	0.1	266.21
4325	22.722	2.9091	0.1	266.21
4326	22.722	2.7273	0.1	266.18
4327	22.722	2.5455	0.1	266.1
4328	22.722	2.3636	0.1	265.98
4329	22.722	2.1818	0.1	265.81
4330	22.722	2.	0.1	265.58
4331	22.722	1.8182	0.1	265.28
4332	22.722	1.6364	0.1	264.89
4333	22.722	1.4545	0.1	264.4
4334	22.722	1.2727	0.1	263.82
4335	22.722	1.0909	0.1	263.16
4336	22.722	0.90909	0.1	262.46
4337	22.722	0.72727	0.1	261.8
4338	22.722	0.54545	0.1	261.34
4339	22.722	0.36364	0.1	261.4
4340	22.722	0.18182	0.1	263.98
4341	22.539	5.8182	0.1	303.
4342	22.539	5.6364	0.1	300.21
4343	22.539	5.4545	0.1	299.91
4344	22.539	5.2727	0.1	300.15
4345	22.539	5.0909	0.1	300.62
4346	22.539	4.9091	0.1	301.18
4347	22.539	4.7273	0.1	301.75
4348	22.539	4.5455	0.1	302.28
4349	22.539	4.3636	0.1	302.74
4350	22.539	4.1818	0.1	303.12
4351	22.539	4.	0.1	303.43
4352	22.539	3.8182	0.1	303.67
4353	22.539	3.6364	0.1	303.85
4354	22.539	3.4545	0.1	303.97
4355	22.539	3.2727	0.1	304.05
4356	22.539	3.0909	0.1	304.09
4357	22.539	2.9091	0.1	304.09
4358	22.539	2.7273	0.1	304.05
4359	22.539	2.5455	0.1	303.97
4360	22.539	2.3636	0.1	303.85
4361	22.539	2.1818	0.1	303.67
4362	22.539	2.	0.1	303.43
4363	22.539	1.8182	0.1	303.12
4364	22.539	1.6364	0.1	302.74
4365	22.539	1.4545	0.1	302.28
4366	22.539	1.2727	0.1	301.75
4367	22.539	1.0909	0.1	301.18
4368	22.539	0.90909	0.1	300.62
4369	22.539	0.72727	0.1	300.15
4370	22.539	0.54545	0.1	299.91
4371	22.539	0.36364	0.1	300.21
4372	22.539	0.18182	0.1	303.
4373	22.357	5.8182	0.1	342.15
4374	22.357	5.6364	0.1	339.21
4375	22.357	5.4545	0.1	338.7
4376	22.357	5.2727	0.1	338.72
4377	22.357	5.0909	0.1	339.
4378	22.357	4.9091	0.1	339.42
4379	22.357	4.7273	0.1	339.87
4380	22.357	4.5455	0.1	340.32
4381	22.357	4.3636	0.1	340.73
4382	22.357	4.1818	0.1	341.08
4383	22.357	4.	0.1	341.38
4384	22.357	3.8182	0.1	341.61
4385	22.357	3.6364	0.1	341.78
4386	22.357	3.4545	0.1	341.91
4387	22.357	3.2727	0.1	341.99
4388	22.357	3.0909	0.1	342.03
4389	22.357	2.9091	0.1	342.03
4390	22.357	2.7273	0.1	341.99
4391	22.357	2.5455	0.1	341.91
4392	22.357	2.3636	0.1	341.78
4393	22.357	2.1818	0.1	341.61
4394	22.357	2.	0.1	341.38
4395	22.357	1.8182	0.1	341.08
4396	22.357	1.6364	0.1	340.73
4397	22.357	1.4545	0.1	340.32
4398	22.357	1.2727	0.1	339.87
4399	22.357	1.0909	0.1	339.42
4400	22.357	0.90909	0.1	339.
4401	22.357	0.72727	0.1	338.72
4402	22.357	0.54545	0.1	338.7
4403	22.357	0.36364	0.1	339.21
4404	22.357	0.18182	0.1	342.15
4405	22.174	5.8182	0.1	381.43
4406	22.174	5.6364	0.1	378.36
4407	22.174	5.4545	0.1	377.67
4408	22.174	5.2727	0.1	377.5
4409	22.174	5.0909	0.1	377.6
4410	22.174	4.9091	0.1	377.86
4411	22.174	4.7273	0.1	378.19
4412	22.174	4.5455	0.1	378.55
4413	22.174	4.3636	0.1	378.89
4414	22.174	4.1818	0.1	379.19
4415	22.174	4.	0.1	379.45
4416	22.174	3.8182	0.1	379.66
4417	22.174	3.6364	0.1	379.82
4418	22.174	3.4545	0.1	379.94
4419	22.174	3.2727	0.1	380.01
4420	22.174	3.0909	0.1	380.05
4421	22.174	2.9091	0.1	380.05
4422	22.174	2.7273	0.1	380.01
4423	22.174	2.5455	0.1	379.94
4424	22.174	2.3636	0.1	379.82
4425	22.174	2.1818	0.1	379.66
4426	22.174	2.	0.1	379.45
4427	22.174	1.8182	0.1	379.19
4428	22.174	1.6364	0.1	378.89
4429	22.174	1.4545	0.1	378.55
4430	22.174	1.2727	0.1	378.19
4431	22.174	1.0909	0.1	377.86
4432	22.174	0.90909	0.1	377.6
4433	22.174	0.72727	0.1	377.5
4434	22.174	0.54545	0.1	377.67
4435	22.174	0.36364	0.1	378.36
4436	22.174	0.18182	0.1	381.43
4437	21.992	5.8182	0.1	420.82
4438	21.992	5.6364	0.1	417.65
4439	21.992	5.4545	0.1	416.8
4440	21.992	5.2727	0.1	416.46
4441	21.992	5.0909	0.1	416.39
4442	21.992	4.9091	0.1	416.5
4443	21.992	4.7273	0.1	416.7
4444	21.992	4.5455	0.1	416.96
4445	21.992	4.3636	0.1	417.22
4446	21.992	4.1818	0.1	417.46
4447	21.992	4.	0.1	417.68
4448	21.992	3.8182	0.1	417.86
4449	21.992	3.6364	0.1	418.
4450	21.992	3.4545	0.1	418.1
4451	21.992	3.2727	0.1	418.17
4452	21.992	3.0909	0.1	418.2
4453	21.992	2.9091	0.1	418.2
4454	21.992	2.7273	0.1	418.17
4455	21.992	2.5455	0.1	418.1
4456	21.992	2.3636	0.1	418.
4457	21.992	2.1818	0.1	417.86
4458	21.992	2.	0.1	417.68
4459	21.992	1.8182	0.1	417.46
4460	21.992	1.6364	0.1	417.22
4461	21.992	1.4545	0.1	416.96
4462	21.992	1.2727	0.1	416.7
4463	21.992	1.0909	0.1	416.5
4464	21.992	0.90909	0.1	416.39
4465	21.992	0.72727	0.1	416.46
4466	21.992	0.54545	0.1	416.8
4467	21.992	0.36364	0.1	417.65
4468	21.992	0.18182	0.1	420.82
4469	21.809	5.8182	0.1	460.31
4470	21.809	5.6364	0.1	457.06
4471	21.809	5.4545	0.1	456.07
4472	21.809	5.2727	0.1	455.57
4473	21.809	5.0909	0.1	455.35
4474	21.809	4.9091	0.1	455.32
4475	21.809	4.7273	0.1	455.4
4476	21.809	4.5455	0.1	455.55
4477	21.809	4.3636	0.1	455.73
4478	21.809	4.1818	0.1	455.91
4479	21.809	4.	0.1	456.08
4480	21.809	3.8182	0.1	456.22
4481	21.809	3.6364	0.1	456.33
4482	21.809	3.4545	0.1	456.41
4483	21.809	3.2727	0.1	456.47
4484	21.809	3.0909	0.1	456.5
4485	21.809	2.9091	0.1	456.5
4486	21.809	2.7273	0.1	456.47
4487	21.809	2.5455	0.1	456.41
4488	21.809	2.3636	0.1	456.33
4489	21.809	2.1818	0.1	456.22
4490	21.809	2.	0.1	456.08
4491	21.809	1.8182	0.1	455.91
4492	21.809	1.6364	0.1	455.73
4493	21.809	1.4545	0.1	455.55
4494	21.809	1.2727	0.1	455.4
4495	21.809	1.0909	0.1	455.32
4496	21.809	0.90909	0.1	455.35
4497	21.809	0.72727	0.1	455.57
4498	21.809	0.54545	0.1	456.07
4499	21.809	0.36364	0.1	457.06
4500	21.809	0.18182	0.1	460.31
4501	21.627	5.8182	0.1	499.88
4502	21.627	5.6364	0.1	496.58
4503	21.627	5.4545	0.1	495.47
4504	21.627	5.2727	0.1	494.84
4505	21.627	5.0909	0.1	494.48
4506	21.627	4.9091	0.1	494.31
4507	21.627	4.7273	0.1	494.28
4508	21.627	4.5455	0.1	494.34
4509	21.627	4.3636	0.1	494.43
4510	21.627	4.1818	0.1	494.55
4511	21.627	4.	0.1	494.66
4512	21.627	3.8182	0.1	494.77
4513	21.627	3.6364	0.1	494.85
4514	21.627	3.4545	0.1	494.91
4515	21.627	3.2727	0.1	494.96
4516	21.627	3.0909	0.1	494.98
4517	21.627	2.9091	0.1	494.98
4518	21.627	2.7273	0.1	494.96
4519	21.627	2.5455	0.1	494.91
4520	21.627	2.3636	0.1	494.85
4521	21.627	2.1818	0.1	494.77
4522	21.627	2.	0.1	494.66
4523	21.627	1.8182	0.1	494.55
4524	21.627	1.6364	0.1	494.43
4525	21.627	1.4545	0.1	494.34
4526	21.627	1.2727	0.1	494.28
4527	21.627	1.0909	0.1	494.31
4528	21.627	0.90909	0.1	494.48
4529	21.627	0.72727	0.1	494.84
4530	21.627	0.54545	0.1	495.47
4531	21.627	0.36364	0.1	496.58
4532	21.627	0.18182	0.1	499.88
4533	21.444	5.8182	0.1	539.52
4534	21.444	5.6364	0.1	536.18
4535	21.444	5.4545	0.1	534.97
4536	21.444	5.2727	0.1	534.22
4537	21.444	5.0909	0.1	533.75
4538	21.444	4.9091	0.1	533.47
4539	21.444	4.7273	0.1	533.34
4540	21.444	4.5455	0.1	533.31
4541	21.444	4.3636	0.1	533.33
4542	21.444	4.1818	0.1	533.39
4543	21.444	4.	0.1	533.46
4544	21.444	3.8182	0.1	533.52
4545	21.444	3.6364	0.1	533.58
4546	21.444	3.4545	0.1	533.63
4547	21.444	3.2727	0.1	533.66
4548	21.444	3.0909	0.1	533.67
4549	21.444	2.9091	0.1	533.67
4550	21.444	2.7273	0.1	533.66
4551	21.444	2.5455	0.1	533.63
4552	21.444	2.3636	0.1	533.58
4553	21.444	2.1818	0.1	533.52
4554	21.444	2.	0.1	533.46
4555	21.444	1.8182	0.1	533.39
4556	21.444	1.6364	0.1	533.33
4557	21.444	1.4545	0.1	533.31
4558	21.444	1.2727	0.1	533.34
4559	21.444	1.0909	0.1	533.47
4560	21.444	0.90909	0.1	533.75
4561	21.444	0.72727	0.1	534.22
4562	21.444	0.54545	0.1	534.97
4563	21.444	0.36364	0.1	536.18
4564	21.444	0.18182	0.1	539.52
4565	21.261	5.8182	0.1	579.21
4566	21.261	5.6364	0.1	575.85
4567	21.261	5.4545	0.1	574.56
4568	21.261	5.2727	0.1	573.72
4569	21.261	5.0909	0.1	573.15
4570	21.261	4.9091	0.1	572.78
4571	21.261	4.7273	0.1	572.57
4572	21.261	4.5455	0.1	572.47
4573	21.261	4.3636	0.1	572.44
4574	21.261	4.1818	0.1	572.45
4575	21.261	4.	0.1	572.48
4576	21.261	3.8182	0.1	572.52
4577	21.261	3.6364	0.1	572.56
4578	21.261	3.4545	0.1	572.59
4579	21.261	3.2727	0.1	572.61
4580	21.261	3.0909	0.1	572.62
4581	21.261	2.9091	0.1	572.62
4582	21.261	2.7273	0.1	572.61
4583	21.261	2.5455	0.1	572.59
4584	21.261	2.3636	0.1	572.56
4585	21.261	2.1818	0.1	572.52
4586	21.261	2.	0.1	572.48
4587	21.261	1.8182	0.1	572.45
4588	21.261	1.6364	0.1	572.44
4589	21.261	1.4545	0.1	572.47
4590	21.261	1.2727	0.1	572.57
4591	21.261	1.0909	0.1	572.78
4592	21.261	0.90909	0.1	573.15
4593	21.261	0.72727	0.1	573.72
4594	21.261	0.54545	0.1	574.56
4595	21.261	0.36364	0.1	575.85
4596	21.261	0.18182	0.1	579.21
4597	21.079	5.8182	0.1	618.91
4598	21.079	5.6364	0.1	615.56
4599	21.079	5.4545	0.1	614.21
4600	21.079	5.2727	0.1	613.3
4601	21.079	5.0909	0.1	612.66
4602	21.079	4.9091	0.1	612.24
4603	21.079	4.7273	0.1	611.97
4604	21.079	4.5455	0.1	611.82
4605	21.079	4.3636	0.1	611.75
4606	21.079	4.1818	0.1	611.74
4607	21.079	4.	0.1	611.75
4608	21.079	3.8182	0.1	611.77
4609	21.079	3.6364	0.1	611.8
4610	21.079	3.4545	0.1	611.83
4611	21.079	3.2727	0.1	611.85
4612	21.079	3.0909	0.1	611.86
4613	21.079	2.9091	0.1	611.86
4614	21.079	2.7273	0.1	611.85
4615	21.079	2.5455	0.1	611.83
4616	21.079	2.3636	0.1	611.8
4617	21.079	2.1818	0.1	611.77
4618	21.079	2.	0.1	611.75
4619	21.079	1.8182	0.1	611.74
4620	21.079	1.6364	0.1	611.75
4621	21.079	1.4545	0.1	611.82
4622	21.079	1.2727	0.1	611.97
4623	21.079	1.0909	0.1	612.24
4624	21.079	0.90909	0.1	612.66
4625	21.079	0.72727	0.1	613.3
4626	21.079	0.54545	0.1	614.21
4627	21.079	0.36364	0.1	615.56
4628	21.079	0.18182	0.1	618.91
4629	20.896	5.8182	0.1	658.6
4630	20.896	5.6364	0.1	655.27
4631	20.896	5.4545	0.1	653.89
4632	20.896	5.2727	0.1	652.94
4633	20.896	5.0909	0.1	652.27
4634	20.896	4.9091	0.1	651.81
4635	20.896	4.7273	0.1	651.53
4636	20.896	4.5455	0.1	651.37
4637	20.896	4.3636	0.1	651.29
4638	20.896	4.1818	0.1	651.27
4639	20.896	4.	0.1	651.29
4640	20.896	3.8182	0.1	651.33
4641	20.896	3.6364	0.1	651.36
4642	20.896	3.4545	0.1	651.4
4643	20.896	3.2727	0.1	651.42
4644	20.896	3.0909	0.1	651.44
4645	20.896	2.9091	0.1	651.44
4646	20.896	2.7273	0.1	651.42
4647	20.896	2.5455	0.1	651.4
4648	20.896	2.3636	0.1	651.36
4649	20.896	2.1818	0.1	651.33
4650	20.896	2.	0.1	651.29
4651	20.896	1.8182	0.1	651.27
4652	20.896	1.6364	0.1	651.29
4653	20.896	1.4545	0.1	651.37
4654	20.896	1.2727	0.1	651.53
4655	20.896	1.0909	0.1	651.81
4656	20.896	0.90909	0.1	652.27
4657	20.896	0.72727	0.1	652.94
4658	20.896	0.54545	0.1	653.89
4659	20.896	0.36364	0.1	655.27
4660	20.896	0.18182	0.1	658.6
4661	20.714	5.8182	0.1	698.21
4662	20.714	5.6364	0.1	694.94
4663	20.714	5.4545	0.1	693.55
4664	20.714	5.2727	0.1	692.6
4665	20.714	5.0909	0.1	691.94
4666	20.714	4.9091	0.1	691.5
4667	20.714	4.7273	0.1	691.23
4668	20.714	4.5455	0.1	691.1
4669	20.714	4.3636	0.1	691.06
4670	20.714	4.1818	0.1	691.09
4671	20.714	4.	0.1	691.14
4672	20.714	3.8182	0.1	691.21
4673	20.714	3.6364	0.1	691.29
4674	20.714	3.4545	0.1	691.35
4675	20.714	3.2727	0.1	691.39
4676	20.714	3.0909	0.1	691.41
4677	20.714	2.9091	0.1	691.41
4678	20.714	2.7273	0.1	691.39
4679	20.714	2.5455	0.1	691.35
4680	20.714	2.3636	0.1	691.29
4681	20.714	2.1818	0.1	691.21
4682	20.714	2.	0.1	691.14
4683	20.714	1.8182	0.1	691.09
4684	20.714	1.6364	0.1	691.06
4685	20.714	1.4545	0.1	691.1
4686	20.714	1.2727	0.1	691.23
4687	20.714	1.0909	0.1	691.5
4688	20.714	0.90909	0.1	691.94
4689	20.714	0.72727	0.1	692.6
4690	20.714	0.54545	0.1	693.56
4691	20.714	0.36364	0.1	694.94
4692	20.714	0.18182	0.1	698.21
4693	20.531	5.8182	0.1	737.7
4694	20.531	5.6364	0.1	734.5
4695	20.531	5.4545	0.1	733.15
4696	20.531	5.2727	0.1	732.24
4697	20.531	5.0909	0.1	731.64
4698	20.531	4.9091	0.1	731.26
4699	20.531	4.7273	0.1	731.08
4700	20.531	4.5455	0.1	731.03
4701	20.531	4.3636	0.1	731.08
4702	20.531	4.1818	0.1	731.2
4703	20.531	4.	0.1	731.34
4704	20.531	3.8182	0.1	731.49
4705	20.531	3.6364	0.1	731.63
4706	20.531	3.4545	0.1	731.74
4707	20.531	3.2727	0.1	731.82
4708	20.531	3.0909	0.1	731.87
4709	20.531	2.9091	0.1	731.87
4710	20.531	2.7273	0.1	731.82
4711	20.531	2.5455	0.1	731.74
4712	20.531	2.3636	0.1	731.63
4713	20.531	2.1818	0.1	731.49
4714	20.531	2.	0.1	731.34
4715	20.531	1.8182	0.1	731.2
4716	20.531	1.6364	0.1	731.08
4717	20.531	1.4545	0.1	731.03
4718	20.531	1.2727	0.1	731.08
4719	20.531	1.0909	0.1	731.26
4720	20.531	0.90909	0.1	731.64
4721	20.531	0.72727	0.1	732.24
4722	20.531	0.54545	0.1	733.15
4723	20.531	0.36364	0.1	734.5
4724	20.531	0.18182	0.1	737.7
4725	20.348	5.8182	0.1	776.96
4726	20.348	5.6364	0.1	773.89
4727	20.348	5.4545	0.1	772.62
4728	20.348	5.2727	0.1	771.81
4729	20.348	5.0909	0.1	771.32
4730	20.348	4.9091	0.1	771.09
4731	20.348	4.7273	0.1	771.05
4732	20.348	4.5455	0.1	771.16
4733	20.348	4.3636	0.1	771.37
4734	20.348	4.1818	0.1	771.64
4735	20.348	4.	0.1	771.93
4736	20.348	3.8182	0.1	772.21
4737	20.348	3.6364	0.1	772.46
4738	20.348	3.4545	0.1	772.67
4739	20.348	3.2727	0.1	772.81
4740	20.348	3.0909	0.1	772.88
4741	20.348	2.9091	0.1	772.88
4742	20.348	2.7273	0.1	772.81
4743	20.348	2.5455	0.1	772.67
4744	20.348	2.3636	0.1	772.46
4745	20.348	2.1818	0.1	772.21
4746	20.348	2.	0.1	771.93
4747	20.348	1.8182	0.1	771.64
4748	20.348	1.6364	0.1	771.37
4749	20.348	1.4545	0.1	771.16
4750	20.348	1.2727	0.1	771.05
4751	20.348	1.0909	0.1	771.09
4752	20.348	0.90909	0.1	771.32
4753	20.348	0.72727	0.1	771.81
4754	20.348	0.54545	0.1	772.62
4755	20.348	0.36364	0.1	773.89
4756	20.348	0.18182	0.1	776.96
4757	20.166	5.8182	0.1	815.9
4758	20.166	5.6364	0.1	812.99
4759	20.166	5.4545	0.1	811.86
4760	20.166	5.2727	0.1	811.22
4761	20.166	5.0909	0.1	810.93
4762	20.166	4.9091	0.1	810.92
4763	20.166	4.7273	0.1	811.12
4764	20.166	4.5455	0.1	811.48
4765	20.166	4.3636	0.1	811.94
4766	20.166	4.1818	0.1	812.45
4767	20.166	4.	0.1	812.97
4768	20.166	3.8182	0.1	813.46
4769	20.166	3.6364	0.1	813.89
4770	20.166	3.4545	0.1	814.23
4771	20.166	3.2727	0.1	814.47
4772	20.166	3.0909	0.1	814.59
4773	20.166	2.9091	0.1	814.59
4774	20.166	2.7273	0.1	814.47
4775	20.166	2.5455	0.1	814.23
4776	20.166	2.3636	0.1	813.89
4777	20.166	2.1818	0.1	813.46
4778	20.166	2.	0.1	812.97
4779	20.166	1.8182	0.1	812.45
4780	20.166	1.6364	0.1	811.94
4781	20.166	1.4545	0.1	811.48
4782	20.166	1.2727	0.1	811.12
4783	20.166	1.0909	0.1	810.92
4784	20.166	0.90909	0.1	810.93
4785	20.166	0.72727	0.1	811.22
4786	20.166	0.54545	0.1	811.86
4787	20.166	0.36364	0.1	812.99
4788	20.166	0.18182	0.1	815.9
4789	19.983	5.8182	0.1	854.37
4790	19.983	5.6364	0.1	851.67
4791	19.983	5.4545	0.1	850.76
4792	19.983	5.2727	0.1	850.38
4793	19.983	5.0909	0.1	850.38
4794	19.983	4.9091	0.1	850.7
4795	19.983	4.7273	0.1	851.26
4796	19.983	4.5455	0.1	851.99
4797	19.983	4.3636	0.1	852.82
4798	19.983	4.1818	0.1	853.69
4799	19.983	4.	0.1	854.55
4800	19.983	3.8182	0.1	855.34
4801	19.983	3.6364	0.1	856.02
4802	19.983	3.4545	0.1	856.56
4803	19.983	3.2727	0.1	856.94
4804	19.983	3.0909	0.1	857.13
4805	19.983	2.9091	0.1	857.13
4806	19.983	2.7273	0.1	856.94
4807	19.983	2.5455	0.1	856.56
4808	19.983	2.3636	0.1	856.02
4809	19.983	2.1818	0.1	855.34
4810	19.983	2.	0.1	854.55
4811	19.983	1.8182	0.1	853.69
4812	19.983	1.6364	0.1	852.82
4813	19.983	1.4545	0.1	851.99
4814	19.983	1.2727	0.1	851.26
4815	19.983	1.0909	0.1	850.7
4816	19.983	0.90909	0.1	850.38
4817	19.983	0.72727	0.1	850.38
4818	19.983	0.54545	0.1	850.76
4819	19.983	0.36364	0.1	851.67
4820	19.983	0.18182	0.1	854.37
4821	19.801	5.8182	0.1	892.19
4822	19.801	5.6364	0.1	889.78
4823	19.801	5.4545	0.1	889.17
4824	19.801	5.2727	0.1	889.15
4825	19.801	5.0909	0.1	889.59
4826	19.801	4.9091	0.1	890.38
4827	19.801	4.7273	0.1	891.44
4828	19.801	4.5455	0.1	892.69
4829	19.801	4.3636	0.1	894.05
4830	19.801	4.1818	0.1	895.43
4831	19.801	4.	0.1	896.76
4832	19.801	3.8182	0.1	897.97
4833	19.801	3.6364	0.1	899.02
4834	19.801	3.4545	0.1	899.85
4835	19.801	3.2727	0.1	900.42
4836	19.801	3.0909	0.1	900.71
4837	19.801	2.9091	0.1	900.71
4838	19.801	2.7273	0.1	900.42
4839	19.801	2.5455	0.1	899.85
4840	19.801	2.3636	0.1	899.02
4841	19.801	2.1818	0.1	897.97
4842	19.801	2.	0.1	896.76
4843	19.801	1.8182	0.1	895.43
4844	19.801	1.6364	0.1	894.05
4845	19.801	1.4545	0.1	892.69
4846	19.801	1.2727	0.1	891.44
4847	19.801	1.0909	0.1	890.38
4848	19.801	0.90909	0.1	889.59
4849	19.801	0.72727	0.1	889.15
4850	19.801	0.54545	0.1	889.17
4851	19.801	0.36364	0.1	889.78
4852	19.801	0.18182	0.1	892.19
4853	19.618	5.8182	0.1	929.13
4854	19.618	5.6364	0.1	927.09
4855	19.618	5.4545	0.1	926.89
4856	19.618	5.2727	0.1	927.39
4857	19.618	5.0909	0.1	928.4
4858	19.618	4.9091	0.1	929.84
4859	19.618	4.7273	0.1	931.6
4860	19.618	4.5455	0.1	933.57
4861	19.618	4.3636	0.1	935.64
4862	19.618	4.1818	0.1	937.73
4863	19.618	4.	0.1	939.72
4864	19.618	3.8182	0.1	941.53
4865	19.618	3.6364	0.1	943.08
4866	19.618	3.4545	0.1	944.3
4867	19.618	3.2727	0.1	945.15
4868	19.618	3.0909	0.1	945.58
4869	19.618	2.9091	0.1	945.58
4870	19.618	2.7273	0.1	945.15
4871	19.618	2.5455	0.1	944.3
4872	19.618	2.3636	0.1	943.08
4873	19.618	2.1818	0.1	941.53
4874	19.618	2.	0.1	939.72
4875	19.618	1.8182	0.1	937.73
4876	19.618	1.6364	0.1	935.64
4877	19.618	1.4545	0.1	933.57
4878	19.618	1.2727	0.1	931.6
4879	19.618	1.0909	0.1	929.84
4880	19.618	0.90909	0.1	928.4
4881	19.618	0.72727	0.1	927.39
4882	19.618	0.54545	0.1	926.9
4883	19.618	0.36364	0.1	927.09
4884	19.618	0.18182	0.1	929.13
4885	19.436	5.8182	0.1	964.91
4886	19.436	5.6364	0.1	963.33
4887	19.436	5.4545	0.1	963.69
4888	19.436	5.2727	0.1	964.86
4889	19.436	5.0909	0.1	966.66
4890	19.436	4.9091	0.1	968.98
4891	19.436	4.7273	0.1	971.67
4892	19.436	4.5455	0.1	974.61
4893	19.436	4.3636	0.1	977.66
4894	19.436	4.1818	0.1	980.7
4895	19.436	4.	0.1	983.58
4896	19.436	3.8182	0.1	986.2
4897	19.436	3.6364	0.1	988.44
4898	19.436	3.4545	0.1	990.21
4899	19.436	3.2727	0.1	991.43
4900	19.436	3.0909	0.1	992.06
4901	19.436	2.9091	0.1	992.06
4902	19.436	2.7273	0.1	991.43
4903	19.436	2.5455	0.1	990.21
4904	19.436	2.3636	0.1	988.44
4905	19.436	2.1818	0.1	986.2
4906	19.436	2.	0.1	983.58
4907	19.436	1.8182	0.1	980.7
4908	19.436	1.6364	0.1	977.66
4909	19.436	1.4545	0.1	974.61
4910	19.436	1.2727	0.1	971.67
4911	19.436	1.0909	0.1	968.98
4912	19.436	0.90909	0.1	966.66
4913	19.436	0.72727	0.1	964.86
4914	19.436	0.54545	0.1	963.69
4915	19.436	0.36364	0.1	963.33
4916	19.436	0.18182	0.1	964.91
4917	19.253	5.8182	0.1	999.15
4918	19.253	5.6364	0.1	998.16
4919	19.253	5.4545	0.1	999.25
4920	19.253	5.2727	0.1	1001.3
4921	19.253	5.0909	0.1	1004.2
4922	19.253	4.9091	0.1	1007.6
4923	19.253	4.7273	0.1	1011.6
4924	19.253	4.5455	0.1	1015.8
4925	19.253	4.3636	0.1	1020.1
4926	19.253	4.1818	0.1	1024.5
4927	19.253	4.	0.1	1028.6
4928	19.253	3.8182	0.1	1032.3
4929	19.253	3.6364	0.1	1035.4
4930	19.253	3.4545	0.1	1037.9
4931	19.253	3.2727	0.1	1039.7
4932	19.253	3.0909	0.1	1040.6
4933	19.253	2.9091	0.1	1040.6
4934	19.253	2.7273	0.1	1039.7
4935	19.253	2.5455	0.1	1037.9
4936	19.253	2.3636	0.1	1035.4
4937	19.253	2.1818	0.1	1032.3
4938	19.253	2.	0.1	1028.6
4939	19.253	1.8182	0.1	1024.5
4940	19.253	1.6364	0.1	1020.1
4941	19.253	1.4545	0.1	1015.8
4942	19.253	1.2727	0.1	1011.6
4943	19.253	1.0909	0.1	1007.6
4944	19.253	0.90909	0.1	1004.2
4945	19.253	0.72727	0.1	1001.3
4946	19.253	0.54545	0.1	999.25
4947	19.253	0.36364	0.1	998.16
4948	19.253	0.18182	0.1	999.15
4949	19.07	5.8182	0.1	1031.4
4950	19.07	5.6364	0.1	1031.1
4951	19.07	5.4545	0.1	1033.2
4952	19.07	5.2727	0.1	1036.4
4953	19.07	5.0909	0.1	1040.6
4954	19.07	4.9091	0.1	1045.6
4955	19.07	4.7273	0.1	1051.1
4956	19.07	4.5455	0.1	1057.1
4957	19.07	4.3636	0.1	1063.2
4958	19.07	4.1818	0.1	1069.2
4959	19.07	4.	0.1	1074.9
4960	19.07	3.8182	0.1	1080.
4961	19.07	3.6364	0.1	1084.5
4962	19.07	3.4545	0.1	1088.
4963	19.07	3.2727	0.1	1090.4
4964	19.07	3.0909	0.1	1091.6
4965	19.07	2.9091	0.1	1091.6
4966	19.07	2.7273	0.1	1090.4
4967	19.07	2.5455	0.1	1088.
4968	19.07	2.3636	0.1	1084.5
4969	19.07	2.1818	0.1	1080.
4970	19.07	2.	0.1	1074.9
4971	19.07	1.8182	0.1	1069.2
4972	19.07	1.6364	0.1	1063.2
4973	19.07	1.4545	0.1	1057.1
4974	19.07	1.2727	0.1	1051.1
4975	19.07	1.0909	0.1	1045.6
4976	19.07	0.90909	0.1	1040.6
4977	19.07	0.72727	0.1	1036.4
4978	19.07	0.54545	0.1	1033.2
4979	19.07	0.36364	0.1	1031.1
4980	19.07	0.18182	0.1	1031.4
4981	18.888	5.8182	0.1	1061.1
4982	18.888	5.6364	0.1	1061.7
4983	18.888	5.4545	0.1	1065.
4984	18.888	5.2727	0.1	1069.7
4985	18.888	5.0909	0.1	1075.6
4986	18.888	4.9091	0.1	1082.6
4987	18.888	4.7273	0.1	1090.3
4988	18.888	4.5455	0.1	1098.4
4989	18.888	4.3636	0.1	1106.8
4990	18.888	4.1818	0.1	1115.
4991	18.888	4.	0.1	1122.9
4992	18.888	3.8182	0.1	1130.
4993	18.888	3.6364	0.1	1136.1
4994	18.888	3.4545	0.1	1140.9
4995	18.888	3.2727	0.1	1144.2
4996	18.888	3.0909	0.1	1146.
4997	18.888	2.9091	0.1	1146.
4998	18.888	2.7273	0.1	1144.2
4999	18.888	2.5455	0.1	1140.9
5000	18.888	2.3636	0.1	1136.1
5001	18.888	2.1818	0.1	1130.
5002	18.888	2.	0.1	1122.9
5003	18.888	1.8182	0.1	1115.
5004	18.888	1.6364	0.1	1106.8
5005	18.888	1.4545	0.1	1098.4
5006	18.888	1.2727	0.1	1090.3
5007	18.888	1.0909	0.1	1082.6
5008	18.888	0.90909	0.1	1075.6
5009	18.888	0.72727	0.1	1069.7
5010	18.888	0.54545	0.1	1065.
5011	18.888	0.36364	0.1	1061.7
5012	18.888	0.18182	0.1	1061.1
5013	18.705	5.8182	0.1	1087.5
5014	18.705	5.6364	0.1	1089.3
5015	18.705	5.4545	0.1	1094.
5016	18.705	5.2727	0.1	1100.7
5017	18.705	5.0909	0.1	1108.8
5018	18.705	4.9091	0.1	1118.3
5019	18.705	4.7273	0.1	1128.7
5020	18.705	4.5455	0.1	1139.8
5021	18.705	4.3636	0.1	1151.1
5022	18.705	4.1818	0.1	1162.3
5023	18.705	4.	0.1	1172.9
5024	18.705	3.8182	0.1	1182.6
5025	18.705	3.6364	0.1	1190.9
5026	18.705	3.4545	0.1	1197.5
5027	18.705	3.2727	0.1	1202.1
5028	18.705	3.0909	0.1	1204.4
5029	18.705	2.9091	0.1	1204.4
5030	18.705	2.7273	0.1	1202.1
5031	18.705	2.5455	0.1	1197.5
5032	18.705	2.3636	0.1	1190.9
5033	18.705	2.1818	0.1	1182.6
5034	18.705	2.	0.1	1172.9
5035	18.705	1.8182	0.1	1162.3
5036	18.705	1.6364	0.1	1151.1
5037	18.705	1.4545	0.1	1139.8
5038	18.705	1.2727	0.1	1128.7
5039	18.705	1.0909	0.1	1118.3
5040	18.705	0.90909	0.1	1108.8
5041	18.705	0.72727	0.1	1100.7
5042	18.705	0.54545	0.1	1094.
5043	18.705	0.36364	0.1	1089.3
5044	18.705	0.18182	0.1	1087.5
5045	18.523	5.8182	0.1	1109.7
5046	18.523	5.6364	0.1	1112.9
5047	18.523	5.4545	0.1	1119.6
5048	18.523	5.2727	0.1	1128.6
5049	18.523	5.0909	0.1	1139.6
5050	18.523	4.9091	0.1	1152.3
5051	18.523	4.7273	0.1	1166.3
5052	18.523	4.5455	0.1	1181.1
5053	18.523	4.3636	0.1	1196.3
5054	18.523	4.1818	0.1	1211.2
5055	18.523	4.	0.1	1225.5
5056	18.523	3.8182	0.1	1238.5
5057	18.523	3.6364	0.1	1249.8
5058	18.523	3.4545	0.1	1258.7
5059	18.523	3.2727	0.1	1265.
5060	18.523	3.0909	0.1	1268.2
5061	18.523	2.9091	0.1	1268.2
5062	18.523	2.7273	0.1	1265.
5063	18.523	2.5455	0.1	1258.7
5064	18.523	2.3636	0.1	1249.8
5065	18.523	2.1818	0.1	1238.5
5066	18.523	2.	0.1	1225.5
5067	18.523	1.8182	0.1	1211.2
5068	18.523	1.6364	0.1	1196.3
5069	18.523	1.4545	0.1	1181.1
5070	18.523	1.2727	0.1	1166.3
5071	18.523	1.0909	0.1	1152.3
5072	18.523	0.90909	0.1	1139.6
5073	18.523	0.72727	0.1	1128.6
5074	18.523	0.54545	0.1	1119.6
5075	18.523	0.36364	0.1	1112.9
5076	18.523	0.18182	0.1	1109.7
5077	18.34	5.8182	0.1	1126.7
5078	18.34	5.6364	0.1	1131.6
5079	18.34	5.4545	0.1	1140.6
5080	18.34	5.2727	0.1	1152.7
5081	18.34	5.0909	0.1	1167.3
5082	18.34	4.9091	0.1	1184.1
5083	18.34	4.7273	0.1	1202.6
5084	18.34	4.5455	0.1	1222.2
5085	18.34	4.3636	0.1	1242.4
5086	18.34	4.1818	0.1	1262.3
5087	18.34	4.	0.1	1281.4
5088	18.34	3.8182	0.1	1298.8
5089	18.34	3.6364	0.1	1313.9
5090	18.34	3.4545	0.1	1325.9
5091	18.34	3.2727	0.1	1334.3
5092	18.34	3.0909	0.1	1338.7
5093	18.34	2.9091	0.1	1338.7
5094	18.34	2.7273	0.1	1334.3
5095	18.34	2.5455	0.1	1325.9
5096	18.34	2.3636	0.1	1313.9
5097	18.34	2.1818	0.1	1298.8
5098	18.34	2.	0.1	1281.4
5099	18.34	1.8182	0.1	1262.3
5100	18.34	1.6364	0.1	1242.4
5101	18.34	1.4545	0.1	1222.2
5102	18.34	1.2727	0.1	1202.6
5103	18.34	1.0909	0.1	1184.1
5104	18.34	0.90909	0.1	1167.3
5105	18.34	0.72727	0.1	1152.7
5106	18.34	0.54545	0.1	1140.6
5107	18.34	0.36364	0.1	1131.6
5108	18.34	0.18182	0.1	1126.7
5109	18.158	5.8182	0.1	1137.2
5110	18.158	5.6364	0.1	1144.1
5111	18.158	5.4545	0.1	1156.
5112	18.158	5.2727	0.1	1171.8
5113	18.158	5.0909	0.1	1191.
5114	18.158	4.9091	0.1	1213.
5115	18.158	4.7273	0.1	1237.3
5116	18.158	4.5455	0.1	1263.1
5117	18.158	4.3636	0.1	1289.7
5118	18.158	4.1818	0.1	1316.
5119	18.158	4.	0.1	1341.3
5120	18.158	3.8182	0.1	1364.5
5121	18.158	3.6364	0.1	1384.6
5122	18.158	3.4545	0.1	1400.7
5123	18.158	3.2727	0.1	1412.
5124	18.158	3.0909	0.1	1417.8
5125	18.158	2.9091	0.1	1417.8
5126	18.158	2.7273	0.1	1412.
5127	18.158	2.5455	0.1	1400.7
5128	18.158	2.3636	0.1	1384.6
5129	18.158	2.1818	0.1	1364.5
5130	18.158	2.	0.1	1341.3
5131	18.158	1.8182	0.1	1316.
5132	18.158	1.6364	0.1	1289.7
5133	18.158	1.4545	0.1	1263.1
5134	18.158	1.2727	0.1	1237.3
5135	18.158	1.0909	0.1	1213.
5136	18.158	0.90909	0.1	1191.
5137	18.158	0.72727	0.1	1171.8
5138	18.158	0.54545	0.1	1156.
5139	18.158	0.36364	0.1	1144.1
5140	18.158	0.18182	0.1	1137.2
5141	17.975	5.8182	0.1	1139.5
5142	17.975	5.6364	0.1	1148.8
5143	17.975	5.4545	0.1	1164.4
5144	17.975	5.2727	0.1	1184.8
5145	17.975	5.0909	0.1	1209.7
5146	17.975	4.9091	0.1	1238.3
5147	17.975	4.7273	0.1	1270.
5148	17.975	4.5455	0.1	1303.7
5149	17.975	4.3636	0.1	1338.5
5150	17.975	4.1818	0.1	1373.1
5151	17.975	4.	0.1	1406.5
5152	17.975	3.8182	0.1	1437.2
5153	17.975	3.6364	0.1	1463.9
5154	17.975	3.4545	0.1	1485.4
5155	17.975	3.2727	0.1	1500.4
5156	17.975	3.0909	0.1	1508.1
5157	17.975	2.9091	0.1	1508.1
5158	17.975	2.7273	0.1	1500.4
5159	17.975	2.5455	0.1	1485.4
5160	17.975	2.3636	0.1	1463.9
5161	17.975	2.1818	0.1	1437.2
5162	17.975	2.	0.1	1406.5
5163	17.975	1.8182	0.1	1373.1
5164	17.975	1.6364	0.1	1338.5
5165	17.975	1.4545	0.1	1303.7
5166	17.975	1.2727	0.1	1270.
5167	17.975	1.0909	0.1	1238.3
5168	17.975	0.90909	0.1	1209.7
5169	17.975	0.72727	0.1	1184.8
5170	17.975	0.54545	0.1	1164.4
5171	17.975	0.36364	0.1	1148.8
5172	17.975	0.18182	0.1	1139.5
5173	17.792	5.8182	0.1	1132.
5174	17.792	5.6364	0.1	1144.1
5175	17.792	5.4545	0.1	1164.
5176	17.792	5.2727	0.1	1190.1
5177	17.792	5.0909	0.1	1222.1
5178	17.792	4.9091	0.1	1259.
5179	17.792	4.7273	0.1	1300.1
5180	17.792	4.5455	0.1	1343.9
5181	17.792	4.3636	0.1	1389.3
5182	17.792	4.1818	0.1	1434.6
5183	17.792	4.	0.1	1478.4
5184	17.792	3.8182	0.1	1518.8
5185	17.792	3.6364	0.1	1554.2
5186	17.792	3.4545	0.1	1582.6
5187	17.792	3.2727	0.1	1602.5
5188	17.792	3.0909	0.1	1612.8
5189	17.792	2.9091	0.1	1612.8
5190	17.792	2.7273	0.1	1602.5
5191	17.792	2.5455	0.1	1582.6
5192	17.792	2.3636	0.1	1554.2
5193	17.792	2.1818	0.1	1518.8
5194	17.792	2.	0.1	1478.4
5195	17.792	1.8182	0.1	1434.6
5196	17.792	1.6364	0.1	1389.3
5197	17.792	1.4545	0.1	1343.9
5198	17.792	1.2727	0.1	1300.1
5199	17.792	1.0909	0.1	1259.
5200	17.792	0.90909	0.1	1222.1
5201	17.792	0.72727	0.1	1190.1
5202	17.792	0.54545	0.1	1164.
5203	17.792	0.36364	0.1	1144.1
5204	17.792	0.18182	0.1	1132.
5205	17.61	5.8182	0.1	1112.4
5206	17.61	5.6364	0.1	1127.8
5207	17.61	5.4545	0.1	1152.8
5208	17.61	5.2727	0.1	1185.9
5209	17.61	5.0909	0.1	1226.6
5210	17.61	4.9091	0.1	1274.1
5211	17.61	4.7273	0.1	1327.
5212	17.61	4.5455	0.1	1383.8
5213	17.61	4.3636	0.1	1442.8
5214	17.61	4.1818	0.1	1502.
5215	17.61	4.	0.1	1559.3
5216	17.61	3.8182	0.1	1612.4
5217	17.61	3.6364	0.1	1658.8
5218	17.61	3.4545	0.1	1696.2
5219	17.61	3.2727	0.1	1722.4
5220	17.61	3.0909	0.1	1735.9
5221	17.61	2.9091	0.1	1735.9
5222	17.61	2.7273	0.1	1722.4
5223	17.61	2.5455	0.1	1696.2
5224	17.61	2.3636	0.1	1658.8
5225	17.61	2.1818	0.1	1612.4
5226	17.61	2.	0.1	1559.3
5227	17.61	1.8182	0.1	1502.
5228	17.61	1.6364	0.1	1442.8
5229	17.61	1.4545	0.1	1383.8
5230	17.61	1.2727	0.1	1327.
5231	17.61	1.0909	0.1	1274.1
5232	17.61	0.90909	0.1	1226.6
5233	17.61	0.72727	0.1	1185.9
5234	17.61	0.54545	0.1	1152.8
5235	17.61	0.36364	0.1	1127.8
5236	17.61	0.18182	0.1	1112.4
5237	17.427	5.8182	0.1	1078.5
5238	17.427	5.6364	0.1	1097.5
5239	17.427	5.4545	0.1	1128.5
5240	17.427	5.2727	0.1	1170.1
5241	17.427	5.0909	0.1	1221.7
5242	17.427	4.9091	0.1	1282.1
5243	17.427	4.7273	0.1	1350.1
5244	17.427	4.5455	0.1	1423.5
5245	17.427	4.3636	0.1	1500.1
5246	17.427	4.1818	0.1	1577.3
5247	17.427	4.	0.1	1652.2
5248	17.427	3.8182	0.1	1721.8
5249	17.427	3.6364	0.1	1782.5
5250	17.427	3.4545	0.1	1831.2
5251	17.427	3.2727	0.1	1865.2
5252	17.427	3.0909	0.1	1882.6
5253	17.427	2.9091	0.1	1882.6
5254	17.427	2.7273	0.1	1865.2
5255	17.427	2.5455	0.1	1831.2
5256	17.427	2.3636	0.1	1782.5
5257	17.427	2.1818	0.1	1721.8
5258	17.427	2.	0.1	1652.2
5259	17.427	1.8182	0.1	1577.3
5260	17.427	1.6364	0.1	1500.1
5261	17.427	1.4545	0.1	1423.5
5262	17.427	1.2727	0.1	1350.1
5263	17.427	1.0909	0.1	1282.1
5264	17.427	0.90909	0.1	1221.7
5265	17.427	0.72727	0.1	1170.1
5266	17.427	0.54545	0.1	1128.5
5267	17.427	0.36364	0.1	1097.5
5268	17.427	0.18182	0.1	1078.5
5269	17.245	5.8182	0.1	1027.7
5270	17.245	5.6364	0.1	1050.7
5271	17.245	5.4545	0.1	1088.8
5272	17.245	5.2727	0.1	1140.5
5273	17.245	5.0909	0.1	1205.2
5274	17.245	4.9091	0.1	1281.8
5275	17.245	4.7273	0.1	1368.7
5276	17.245	4.5455	0.1	1463.5
5277	17.245	4.3636	0.1	1563.
5278	17.245	4.1818	0.1	1663.8
5279	17.245	4.	0.1	1761.9
5280	17.245	3.8182	0.1	1852.8
5281	17.245	3.6364	0.1	1931.8
5282	17.245	3.4545	0.1	1994.4
5283	17.245	3.2727	0.1	2037.5
5284	17.245	3.0909	0.1	2059.3
5285	17.245	2.9091	0.1	2059.3
5286	17.245	2.7273	0.1	2037.5
5287	17.245	2.5455	0.1	1994.4
5288	17.245	2.3636	0.1	1931.8
5289	17.245	2.1818	0.1	1852.8
5290	17.245	2.	0.1	1761.9
5291	17.245	1.8182	0.1	1663.8
5292	17.245	1.6364	0.1	1563.
5293	17.245	1.4545	0.1	1463.5
5294	17.245	1.2727	0.1	1368.7
5295	17.245	1.0909	0.1	1281.8
5296	17.245	0.90909	0.1	1205.2
5297	17.245	0.72727	0.1	1140.5
5298	17.245	0.54545	0.1	1088.8
5299	17.245	0.36364	0.1	1050.7
5300	17.245	0.18182	0.1	1027.7
5301	17.062	5.8182	0.1	957.64
5302	17.062	5.6364	0.1	984.97
5303	17.062	5.4545	0.1	1031.3
5304	17.062	5.2727	0.1	1094.8
5305	17.062	5.0909	0.1	1175.3
5306	17.062	4.9091	0.1	1271.7
5307	17.062	4.7273	0.1	1382.4
5308	17.062	4.5455	0.1	1504.5
5309	17.062	4.3636	0.1	1634.1
5310	17.062	4.1818	0.1	1766.4
5311	17.062	4.	0.1	1895.5
5312	17.062	3.8182	0.1	2014.5
5313	17.062	3.6364	0.1	2116.3
5314	17.062	3.4545	0.1	2194.9
5315	17.062	3.2727	0.1	2247.5
5316	17.062	3.0909	0.1	2273.6
5317	17.062	2.9091	0.1	2273.6
5318	17.062	2.7273	0.1	2247.5
5319	17.062	2.5455	0.1	2194.9
5320	17.062	2.3636	0.1	2116.3
5321	17.062	2.1818	0.1	2014.5
5322	17.062	2.	0.1	1895.5
5323	17.062	1.8182	0.1	1766.4
5324	17.062	1.6364	0.1	1634.1
5325	17.062	1.4545	0.1	1504.5
5326	17.062	1.2727	0.1	1382.4
5327	17.062	1.0909	0.1	1271.7
5328	17.062	0.90909	0.1	1175.3
5329	17.062	0.72727	0.1	1094.8
5330	17.062	0.54545	0.1	1031.3
5331	17.062	0.36364	0.1	984.97
5332	17.062	0.18182	0.1	957.64
5333	16.88	5.8182	0.1	866.16
5334	16.88	5.6364	0.1	898.31
5335	16.88	5.4545	0.1	954.15
5336	16.88	5.2727	0.1	1031.6
5337	16.88	5.0909	0.1	1130.6
5338	16.88	4.9091	0.1	1250.5
5339	16.88	4.7273	0.1	1390.4
5340	16.88	4.5455	0.1	1547.7
5341	16.88	4.3636	0.1	1717.6
5342	16.88	4.1818	0.1	1893.2
5343	16.88	4.	0.1	2065.1
5344	16.88	3.8182	0.1	2221.6
5345	16.88	3.6364	0.1	2350.7
5346	16.88	3.4545	0.1	2445.2
5347	16.88	3.2727	0.1	2504.5
5348	16.88	3.0909	0.1	2532.5
5349	16.88	2.9091	0.1	2532.5
5350	16.88	2.7273	0.1	2504.5
5351	16.88	2.5455	0.1	2445.2
5352	16.88	2.3636	0.1	2350.7
5353	16.88	2.1818	0.1	2221.6
5354	16.88	2.	0.1	2065.1
5355	16.88	1.8182	0.1	1893.2
5356	16.88	1.6364	0.1	1717.6
5357	16.88	1.4545	0.1	1547.7
5358	16.88	1.2727	0.1	1390.4
5359	16.88	1.0909	0.1	1250.5
5360	16.88	0.90909	0.1	1130.6
5361	16.88	0.72727	0.1	1031.6
5362	16.88	0.54545	0.1	954.15
5363	16.88	0.36364	0.1	898.31
5364	16.88	0.18182	0.1	866.16
5365	16.697	5.8182	0.1	751.87
5366	16.697	5.6364	0.1	789.99
5367	16.697	5.4545	0.1	857.54
5368	16.697	5.2727	0.1	951.29
5369	16.697	5.0909	0.1	1071.
5370	16.697	4.9091	0.1	1217.4
5371	16.697	4.7273	0.1	1391.5
5372	16.697	4.5455	0.1	1593.1
5373	16.697	4.3636	0.1	1818.6
5374	16.697	4.1818	0.1	2057.1
5375	16.697	4.	0.1	2291.9
5376	16.697	3.8182	0.1	2499.9
5377	16.697	3.6364	0.1	2659.1
5378	16.697	3.4545	0.1	2761.7
5379	16.697	3.2727	0.1	2817.
5380	16.697	3.0909	0.1	2840.2
5381	16.697	2.9091	0.1	2840.2
5382	16.697	2.7273	0.1	2817.
5383	16.697	2.5455	0.1	2761.7
5384	16.697	2.3636	0.1	2659.1
5385	16.697	2.1818	0.1	2499.9
5386	16.697	2.	0.1	2291.9
5387	16.697	1.8182	0.1	2057.1
5388	16.697	1.6364	0.1	1818.6
5389	16.697	1.4545	0.1	1593.1
5390	16.697	1.2727	0.1	1391.5
5391	16.697	1.0909	0.1	1217.4
5392	16.697	0.90909	0.1	1071.
5393	16.697	0.72727	0.1	951.29
5394	16.697	0.54545	0.1	857.54
5395	16.697	0.36364	0.1	789.99
5396	16.697	0.18182	0.1	751.87
5397	16.514	5.8182	0.1	614.78
5398	16.514	5.6364	0.1	662.35
5399	16.514	5.4545	0.1	745.83
5400	16.514	5.2727	0.1	858.54
5401	16.514	5.0909	0.1	999.74
5402	16.514	4.9091	0.1	1172.5
5403	16.514	4.7273	0.1	1383.
5404	16.514	4.5455	0.1	1639.4
5405	16.514	4.3636	0.1	1942.2
5406	16.514	4.1818	0.1	2281.1
5407	16.514	4.	0.1	2622.
5408	16.514	3.8182	0.1	2901.9
5409	16.514	3.6364	0.1	3082.3
5410	16.514	3.4545	0.1	3162.4
5411	16.514	3.2727	0.1	3186.5
5412	16.514	3.0909	0.1	3190.3
5413	16.514	2.9091	0.1	3190.3
5414	16.514	2.7273	0.1	3186.5
5415	16.514	2.5455	0.1	3162.4
5416	16.514	2.3636	0.1	3082.3
5417	16.514	2.1818	0.1	2901.9
5418	16.514	2.	0.1	2622.
5419	16.514	1.8182	0.1	2281.1
5420	16.514	1.6364	0.1	1942.2
5421	16.514	1.4545	0.1	1639.4
5422	16.514	1.2727	0.1	1383.
5423	16.514	1.0909	0.1	1172.5
5424	16.514	0.90909	0.1	999.74
5425	16.514	0.72727	0.1	858.54
5426	16.514	0.54545	0.1	745.83
5427	16.514	0.36364	0.1	662.35
5428	16.514	0.18182	0.1	614.78
5429	16.332	5.8182	0.1	457.21
5430	16.332	5.6364	0.1	524.9
5431	16.332	5.4545	0.1	632.1
5432	16.332	5.2727	0.1	765.44
5433	16.332	5.0909	0.1	925.36
5434	16.332	4.9091	0.1	1119.1
5435	16.332	4.7273	0.1	1361.1
5436	16.332	4.5455	0.1	1672.3
5437	16.332	4.3636	0.1	2085.1
5438	16.332	4.1818	0.1	2618.4
5439	16.332	4.	0.1	3139.5
5440	16.332	3.8182	0.1	3557.6
5441	16.332	3.6364	0.1	3683.3
5442	16.332	3.4545	0.1	3653.3
5443	16.332	3.2727	0.1	3592.4
5444	16.332	3.0909	0.1	3554.9
5445	16.332	2.9091	0.1	3554.9
5446	16.332	2.7273	0.1	3592.4
5447	16.332	2.5455	0.1	3653.3
5448	16.332	2.3636	0.1	3683.3
5449	16.332	2.1818	0.1	3557.6
5450	16.332	2.	0.1	3139.5
5451	16.332	1.8182	0.1	2618.4
5452	16.332	1.6364	0.1	2085.1
5453	16.332	1.4545	0.1	1672.3
5454	16.332	1.2727	0.1	1361.1
5455	16.332	1.0909	0.1	1119.1
5456	16.332	0.90909	0.1	925.36
5457	16.332	0.72727	0.1	765.44
5458	16.332	0.54545	0.1	632.1
5459	16.332	0.36364	0.1	524.9
5460	16.332	0.18182	0.1	457.21
5461	16.149	5.8182	0.1	298.4
5462	16.149	5.6364	0.1	417.94
5463	16.149	5.4545	0.1	558.65
5464	16.149	5.2727	0.1	713.6
5465	16.149	5.0909	0.1	890.34
5466	16.149	4.9091	0.1	1101.5
5467	16.149	4.7273	0.1	1367.1
5468	16.149	4.5455	0.1	1730.7
5469	16.149	4.3636	0.1	2261.8
5470	16.149	4.1818	0.1	3305.1
5471	16.149	4.	0.1	4631.8
5472	16.149	3.8182	0.1	4788.
5473	16.149	3.6364	0.1	4505.3
5474	16.149	3.4545	0.1	4165.9
5475	16.149	3.2727	0.1	3968.9
5476	16.149	3.0909	0.1	3875.4
5477	16.149	2.9091	0.1	3875.4
5478	16.149	2.7273	0.1	3968.9
5479	16.149	2.5455	0.1	4165.9
5480	16.149	2.3636	0.1	4505.3
5481	16.149	2.1818	0.1	4788.
5482	16.149	2.	0.1	4631.8
5483	16.149	1.8182	0.1	3305.1
5484	16.149	1.6364	0.1	2261.8
5485	16.149	1.4545	0.1	1730.7
5486	16.149	1.2727	0.1	1367.1
5487	16.149	1.0909	0.1	1101.5
5488	16.149	0.90909	0.1	890.34
5489	16.149	0.72727	0.1	713.6
5490	16.149	0.54545	0.1	558.65
5491	16.149	0.36364	0.1	417.94
5492	16.149	0.18182	0.1	298.4
5493	0.18372	0.18182	0.1	3887.8
5494	0.18372	0.36364	0.1	4488.5
5495	0.18372	0.54545	0.1	5182.8
5496	0.18372	0.72727	0.1	5713.6
5497	0.18372	0.90909	0.1	6112.5
5498	0.18372	1.0909	0.1	6412.9
5499	0.18372	1.2727	0.1	6642.8
5500	0.18372	1.4545	0.1	6821.1
5501	0.18372	1.6364	0.1	6960.5
5502	0.18372	1.8182	0.1	7069.9
5503	0.18372	2.	0.1	7155.3
5504	0.18372	2.1818	0.1	7221.4
5505	0.18372	2.3636	0.1	7271.
5506	0.18372	2.5455	0.1	7306.6
5507	0.18372	2.7273	0.1	7329.5
5508	0.18372	2.9091	0.1	7340.8
5509	0.18372	3.0909	0.1	7340.8
5510	0.18372	3.2727	0.1	7329.5
5511	0.18372	3.4545	0.1	7306.6
5512	0.18372	3.6364	0.1	7271.
5513	0.18372	3.8182	0.1	7221.4
5514	0.18372	4.	0.1	7155.3
5515	0.18372	4.1818	0.1	7069.9
5516	0.18372	4.3636	0.1	6960.5
5517	0.18372	4.5455	0.1	6821.1
5518	0.18372	4.7273	0.1	6642.8
5519	0.18372	4.9091	0.1	6412.9
5520	0.18372	5.0909	0.1	6112.5
5521	0.18372	5.2727	0.1	5713.6
5522	0.18372	5.4545	0.1	5182.8
5523	0.18372	5.6364	0.1	4488.5
5524	0.18372	5.8182	0.1	3887.8
5525	0.36744	0.18182	0.1	5028.
5526	0.36744	0.36364	0.1	5159.4
5527	0.36744	0.54545	0.1	5454.4
5528	0.36744	0.72727	0.1	5781.7
5529	0.36744	0.90909	0.1	6081.9
5530	0.36744	1.0909	0.1	6337.9
5531	0.36744	1.2727	0.1	6549.4
5532	0.36744	1.4545	0.1	6721.9
5533	0.36744	1.6364	0.1	6861.7
5534	0.36744	1.8182	0.1	6974.1
5535	0.36744	2.	0.1	7063.7
5536	0.36744	2.1818	0.1	7133.8
5537	0.36744	2.3636	0.1	7187.1
5538	0.36744	2.5455	0.1	7225.6
5539	0.36744	2.7273	0.1	7250.5
5540	0.36744	2.9091	0.1	7262.7
5541	0.36744	3.0909	0.1	7262.7
5542	0.36744	3.2727	0.1	7250.5
5543	0.36744	3.4545	0.1	7225.6
5544	0.36744	3.6364	0.1	7187.1
5545	0.36744	3.8182	0.1	7133.8
5546	0.36744	4.	0.1	7063.7
5547	0.36744	4.1818	0.1	6974.1
5548	0.36744	4.3636	0.1	6861.7
5549	0.36744	4.5455	0.1	6721.9
5550	0.36744	4.7273	0.1	6549.4
5551	0.36744	4.9091	0.1	6337.9
5552	0.36744	5.0909	0.1	6081.9
5553	0.36744	5.2727	0.1	5781.7
5554	0.36744	5.4545	0.1	5454.4
5555	0.36744	5.6364	0.1	5159.4
5556	0.36744	5.8182	0.1	5028.
5557	0.55116	0.18182	0.1	5524.7
5558	0.55116	0.36364	0.1	5520.3
5559	0.55116	0.54545	0.1	5633.1
5560	0.55116	0.72727	0.1	5799.5
5561	0.55116	0.90909	0.1	5985.7
5562	0.55116	1.0909	0.1	6168.
5563	0.55116	1.2727	0.1	6333.9
5564	0.55116	1.4545	0.1	6478.8
5565	0.55116	1.6364	0.1	6602.
5566	0.55116	1.8182	0.1	6704.8
5567	0.55116	2.	0.1	6788.8
5568	0.55116	2.1818	0.1	6856.
5569	0.55116	2.3636	0.1	6907.8
5570	0.55116	2.5455	0.1	6945.5
5571	0.55116	2.7273	0.1	6970.1
5572	0.55116	2.9091	0.1	6982.3
5573	0.55116	3.0909	0.1	6982.3
5574	0.55116	3.2727	0.1	6970.1
5575	0.55116	3.4545	0.1	6945.5
5576	0.55116	3.6364	0.1	6907.8
5577	0.55116	3.8182	0.1	6856.
5578	0.55116	4.	0.1	6788.8
5579	0.55116	4.1818	0.1	6704.8
5580	0.55116	4.3636	0.1	6602.
5581	0.55116	4.5455	0.1	6478.8
5582	0.55116	4.7273	0.1	6333.9
5583	0.55116	4.9091	0.1	6168.
5584	0.55116	5.0909	0.1	5985.7
5585	0.55116	5.2727	0.1	5799.5
5586	0.55116	5.4545	0.1	5633.1
5587	0.55116	5.6364	0.1	5520.3
5588	0.55116	5.8182	0.1	5524.7
5589	0.73488	0.18182	0.1	5809.2
5590	0.73488	0.36364	0.1	5766.8
5591	0.73488	0.54545	0.1	5805.1
5592	0.73488	0.72727	0.1	5884.8
5593	0.73488	0.90909	0.1	5991.5
5594	0.73488	1.0909	0.1	6110.2
5595	0.73488	1.2727	0.1	6229.4
5596	0.73488	1.4545	0.1	6341.3
5597	0.73488	1.6364	0.1	6441.9
5598	0.73488	1.8182	0.1	6529.4
5599	0.73488	2.	0.1	6603.2
5600	0.73488	2.1818	0.1	6663.6
5601	0.73488	2.3636	0.1	6711.
5602	0.73488	2.5455	0.1	6746.
5603	0.73488	2.7273	0.1	6769.
5604	0.73488	2.9091	0.1	6780.5
5605	0.73488	3.0909	0.1	6780.5
5606	0.73488	3.2727	0.1	6769.
5607	0.73488	3.4545	0.1	6746.
5608	0.73488	3.6364	0.1	6711.
5609	0.73488	3.8182	0.1	6663.6
5610	0.73488	4.	0.1	6603.2
5611	0.73488	4.1818	0.1	6529.4
5612	0.73488	4.3636	0.1	6441.9
5613	0.73488	4.5455	0.1	6341.3
5614	0.73488	4.7273	0.1	6229.4
5615	0.73488	4.9091	0.1	6110.2
5616	0.73488	5.0909	0.1	5991.5
5617	0.73488	5.2727	0.1	5884.8
5618	0.73488	5.4545	0.1	5805.1
5619	0.73488	5.6364	0.1	5766.8
5620	0.73488	5.8182	0.1	5809.2
5621	0.9186	0.18182	0.1	5962.
5622	0.9186	0.36364	0.1	5905.7
5623	0.9186	0.54545	0.1	5907.8
5624	0.9186	0.72727	0.1	5939.9
5625	0.9186	0.90909	0.1	5995.6
5626	0.9186	1.0909	0.1	6067.
5627	0.9186	1.2727	0.1	6146.2
5628	0.9186	1.4545	0.1	6226.4
5629	0.9186	1.6364	0.1	6302.8
5630	0.9186	1.8182	0.1	6372.3
5631	0.9186	2.	0.1	6433.1
5632	0.9186	2.1818	0.1	6484.1
5633	0.9186	2.3636	0.1	6525.
5634	0.9186	2.5455	0.1	6555.6
5635	0.9186	2.7273	0.1	6575.9
5636	0.9186	2.9091	0.1	6586.1
5637	0.9186	3.0909	0.1	6586.1
5638	0.9186	3.2727	0.1	6575.9
5639	0.9186	3.4545	0.1	6555.6
5640	0.9186	3.6364	0.1	6525.
5641	0.9186	3.8182	0.1	6484.1
5642	0.9186	4.	0.1	6433.1
5643	0.9186	4.1818	0.1	6372.3
5644	0.9186	4.3636	0.1	6302.8
5645	0.9186	4.5455	0.1	6226.4
5646	0.9186	4.7273	0.1	6146.2
5647	0.9186	4.9091	0.1	6067.
5648	0.9186	5.0909	0.1	5995.6
5649	0.9186	5.2727	0.1	5939.9
5650	0.9186	5.4545	0.1	5907.8
5651	0.9186	5.6364	0.1	5905.7
5652	0.9186	5.8182	0.1	5962.
5653	1.1023	0.18182	0.1	6041.4
5654	1.1023	0.36364	0.1	5982.2
5655	1.1023	0.54545	0.1	5966.7
5656	1.1023	0.72727	0.1	5972.4
5657	1.1023	0.90909	0.1	5996.7
5658	1.1023	1.0909	0.1	6035.5
5659	1.1023	1.2727	0.1	6084.2
5660	1.1023	1.4545	0.1	6137.8
5661	1.1023	1.6364	0.1	6192.1
5662	1.1023	1.8182	0.1	6244.
5663	1.1023	2.	0.1	6291.
5664	1.1023	2.1818	0.1	6331.7
5665	1.1023	2.3636	0.1	6365.
5666	1.1023	2.5455	0.1	6390.4
5667	1.1023	2.7273	0.1	6407.4
5668	1.1023	2.9091	0.1	6416.
5669	1.1023	3.0909	0.1	6416.
5670	1.1023	3.2727	0.1	6407.4
5671	1.1023	3.4545	0.1	6390.4
5672	1.1023	3.6364	0.1	6365.
5673	1.1023	3.8182	0.1	6331.7
5674	1.1023	4.	0.1	6291.
5675	1.1023	4.1818	0.1	6244.
5676	1.1023	4.3636	0.1	6192.1
5677	1.1023	4.5455	0.1	6137.8
5678	1.1023	4.7273	0.1	6084.2
5679	1.1023	4.9091	0.1	6035.5
5680	1.1023	5.0909	0.1	5996.7
5681	1.1023	5.2727	0.1	5972.4
5682	1.1023	5.4545	0.1	5966.7
5683	1.1023	5.6364	0.1	5982.2
5684	1.1023	5.8182	0.1	6041.4
5685	1.286	0.18182	0.1	6073.2
5686	1.286	0.36364	0.1	6015.
5687	1.286	0.54545	0.1	5990.2
5688	1.286	0.72727	0.1	5980.9
5689	1.286	0.90909	0.1	5985.6
5690	1.286	1.0909	0.1	6002.6
5691	1.286	1.2727	0.1	6029.
5692	1.286	1.4545	0.1	6061.7
5693	1.286	1.6364	0.1	6097.5
5694	1.286	1.8182	0.1	6133.6
5695	1.286	2.	0.1	6167.8
5696	1.286	2.1818	0.1	6198.3
5697	1.286	2.3636	0.1	6223.9
5698	1.286	2.5455	0.1	6243.7
5699	1.286	2.7273	0.1	6257.2
5700	1.286	2.9091	0.1	6264.
5701	1.286	3.0909	0.1	6264.
5702	1.286	3.2727	0.1	6257.2
5703	1.286	3.4545	0.1	6243.7
5704	1.286	3.6364	0.1	6223.9
5705	1.286	3.8182	0.1	6198.3
5706	1.286	4.	0.1	6167.8
5707	1.286	4.1818	0.1	6133.6
5708	1.286	4.3636	0.1	6097.5
5709	1.286	4.5455	0.1	6061.7
5710	1.286	4.7273	0.1	6029.
5711	1.286	4.9091	0.1	6002.6
5712	1.286	5.0909	0.1	5985.6
5713	1.286	5.2727	0.1	5980.9
5714	1.286	5.4545	0.1	5990.2
5715	1.286	5.6364	0.1	6015.
5716	1.286	5.8182	0.1	6073.2
5717	1.4698	0.18182	0.1	6073.6
5718	1.4698	0.36364	0.1	6018.1
5719	1.4698	0.54545	0.1	5988.8
5720	1.4698	0.72727	0.1	5970.7
5721	1.4698	0.90909	0.1	5963.3
5722	1.4698	1.0909	0.1	5965.6
5723	1.4698	1.2727	0.1	5976.3
5724	1.4698	1.4545	0.1	5993.2
5725	1.4698	1.6364	0.1	6014.3
5726	1.4698	1.8182	0.1	6037.2
5727	1.4698	2.	0.1	6060.1
5728	1.4698	2.1818	0.1	6081.3
5729	1.4698	2.3636	0.1	6099.7
5730	1.4698	2.5455	0.1	6114.2
5731	1.4698	2.7273	0.1	6124.2
5732	1.4698	2.9091	0.1	6129.3
5733	1.4698	3.0909	0.1	6129.3
5734	1.4698	3.2727	0.1	6124.2
5735	1.4698	3.4545	0.1	6114.2
5736	1.4698	3.6364	0.1	6099.7
5737	1.4698	3.8182	0.1	6081.3
5738	1.4698	4.	0.1	6060.1
5739	1.4698	4.1818	0.1	6037.2
5740	1.4698	4.3636	0.1	6014.3
5741	1.4698	4.5455	0.1	5993.2
5742	1.4698	4.7273	0.1	5976.3
5743	1.4698	4.9091	0.1	5965.6
5744	1.4698	5.0909	0.1	5963.3
5745	1.4698	5.2727	0.1	5970.7
5746	1.4698	5.4545	0.1	5988.8
5747	1.4698	5.6364	0.1	6018.1
5748	1.4698	5.8182	0.1	6073.6
5749	1.6535	0.18182	0.1	6052.5
5750	1.6535	0.36364	0.1	6000.4
5751	1.6535	0.54545	0.1	5969.
5752	1.6535	0.72727	0.1	5945.9
5753	1.6535	0.90909	0.1	5930.9
5754	1.6535	1.0909	0.1	5923.5
5755	1.6535	1.2727	0.1	5923.2
5756	1.6535	1.4545	0.1	5928.6
5757	1.6535	1.6364	0.1	5938.3
5758	1.6535	1.8182	0.1	5950.6
5759	1.6535	2.	0.1	5964.1
5760	1.6535	2.1818	0.1	5977.4
5761	1.6535	2.3636	0.1	5989.4
5762	1.6535	2.5455	0.1	5999.1
5763	1.6535	2.7273	0.1	6006.
5764	1.6535	2.9091	0.1	6009.5
5765	1.6535	3.0909	0.1	6009.5
5766	1.6535	3.2727	0.1	6006.
5767	1.6535	3.4545	0.1	5999.1
5768	1.6535	3.6364	0.1	5989.4
5769	1.6535	3.8182	0.1	5977.4
5770	1.6535	4.	0.1	5964.1
5771	1.6535	4.1818	0.1	5950.6
5772	1.6535	4.3636	0.1	5938.3
5773	1.6535	4.5455	0.1	5928.6
5774	1.6535	4.7273	0.1	5923.2
5775	1.6535	4.9091	0.1	5923.5
5776	1.6535	5.0909	0.1	5930.9
5777	1.6535	5.2727	0.1	5945.9
5778	1.6535	5.4545	0.1	5969.
5779	1.6535	5.6364	0.1	6000.4
5780	1.6535	5.8182	0.1	6052.5
5781	1.8372	0.18182	0.1	6016.5
5782	1.8372	0.36364	0.1	5968.
5783	1.8372	0.54545	0.1	5936.
5784	1.8372	0.72727	0.1	5910.1
5785	1.8372	0.90909	0.1	5890.4
5786	1.8372	1.0909	0.1	5876.7
5787	1.8372	1.2727	0.1	5868.8
5788	1.8372	1.4545	0.1	5865.9
5789	1.8372	1.6364	0.1	5867.1
5790	1.8372	1.8182	0.1	5871.3
5791	1.8372	2.	0.1	5877.3
5792	1.8372	2.1818	0.1	5884.
5793	1.8372	2.3636	0.1	5890.6
5794	1.8372	2.5455	0.1	5896.3
5795	1.8372	2.7273	0.1	5900.3
5796	1.8372	2.9091	0.1	5902.5
5797	1.8372	3.0909	0.1	5902.5
5798	1.8372	3.2727	0.1	5900.3
5799	1.8372	3.4545	0.1	5896.3
5800	1.8372	3.6364	0.1	5890.6
5801	1.8372	3.8182	0.1	5884.
5802	1.8372	4.	0.1	5877.3
5803	1.8372	4.1818	0.1	5871.3
5804	1.8372	4.3636	0.1	5867.1
5805	1.8372	4.5455	0.1	5865.9
5806	1.8372	4.7273	0.1	5868.8
5807	1.8372	4.9091	0.1	5876.7
5808	1.8372	5.0909	0.1	5890.4
5809	1.8372	5.2727	0.1	5910.1
5810	1.8372	5.4545	0.1	5936.
5811	1.8372	5.6364	0.1	5968.
5812	1.8372	5.8182	0.1	6016.5
5813	2.0209	0.18182	0.1	5970.1
5814	2.0209	0.36364	0.1	5925.1
5815	2.0209	0.54545	0.1	5893.3
5816	2.0209	0.72727	0.1	5866.1
5817	2.0209	0.90909	0.1	5843.6
5818	2.0209	1.0909	0.1	5825.9
5819	2.0209	1.2727	0.1	5812.8
5820	2.0209	1.4545	0.1	5804.1
5821	2.0209	1.6364	0.1	5799.1
5822	2.0209	1.8182	0.1	5797.1
5823	2.0209	2.	0.1	5797.4
5824	2.0209	2.1818	0.1	5799.
5825	2.0209	2.3636	0.1	5801.2
5826	2.0209	2.5455	0.1	5803.5
5827	2.0209	2.7273	0.1	5805.3
5828	2.0209	2.9091	0.1	5806.3
5829	2.0209	3.0909	0.1	5806.3
5830	2.0209	3.2727	0.1	5805.3
5831	2.0209	3.4545	0.1	5803.5
5832	2.0209	3.6364	0.1	5801.2
5833	2.0209	3.8182	0.1	5799.
5834	2.0209	4.	0.1	5797.4
5835	2.0209	4.1818	0.1	5797.1
5836	2.0209	4.3636	0.1	5799.1
5837	2.0209	4.5455	0.1	5804.1
5838	2.0209	4.7273	0.1	5812.8
5839	2.0209	4.9091	0.1	5825.9
5840	2.0209	5.0909	0.1	5843.6
5841	2.0209	5.2727	0.1	5866.1
5842	2.0209	5.4545	0.1	5893.3
5843	2.0209	5.6364	0.1	5925.1
5844	2.0209	5.8182	0.1	5970.1
5845	2.2047	0.18182	0.1	5916.4
5846	2.2047	0.36364	0.1	5874.7
5847	2.2047	0.54545	0.1	5843.6
5848	2.2047	0.72727	0.1	5816.
5849	2.2047	0.90909	0.1	5792.
5850	2.2047	1.0909	0.1	5771.8
5851	2.2047	1.2727	0.1	5755.5
5852	2.2047	1.4545	0.1	5742.8
5853	2.2047	1.6364	0.1	5733.4
5854	2.2047	1.8182	0.1	5727.
5855	2.2047	2.	0.1	5722.8
5856	2.2047	2.1818	0.1	5720.5
5857	2.2047	2.3636	0.1	5719.4
5858	2.2047	2.5455	0.1	5719.
5859	2.2047	2.7273	0.1	5718.9
5860	2.2047	2.9091	0.1	5719.
5861	2.2047	3.0909	0.1	5719.
5862	2.2047	3.2727	0.1	5718.9
5863	2.2047	3.4545	0.1	5719.
5864	2.2047	3.6364	0.1	5719.4
5865	2.2047	3.8182	0.1	5720.5
5866	2.2047	4.	0.1	5722.8
5867	2.2047	4.1818	0.1	5727.
5868	2.2047	4.3636	0.1	5733.4
5869	2.2047	4.5455	0.1	5742.8
5870	2.2047	4.7273	0.1	5755.5
5871	2.2047	4.9091	0.1	5771.8
5872	2.2047	5.0909	0.1	5792.
5873	2.2047	5.2727	0.1	5816.
5874	2.2047	5.4545	0.1	5843.6
5875	2.2047	5.6364	0.1	5874.7
5876	2.2047	5.8182	0.1	5916.4
5877	2.3884	0.18182	0.1	5857.5
5878	2.3884	0.36364	0.1	5818.9
5879	2.3884	0.54545	0.1	5788.8
5880	2.3884	0.72727	0.1	5761.5
5881	2.3884	0.90909	0.1	5736.9
5882	2.3884	1.0909	0.1	5715.4
5883	2.3884	1.2727	0.1	5697.
5884	2.3884	1.4545	0.1	5681.7
5885	2.3884	1.6364	0.1	5669.3
5886	2.3884	1.8182	0.1	5659.7
5887	2.3884	2.	0.1	5652.5
5888	2.3884	2.1818	0.1	5647.2
5889	2.3884	2.3636	0.1	5643.6
5890	2.3884	2.5455	0.1	5641.2
5891	2.3884	2.7273	0.1	5639.7
5892	2.3884	2.9091	0.1	5639.1
5893	2.3884	3.0909	0.1	5639.1
5894	2.3884	3.2727	0.1	5639.7
5895	2.3884	3.4545	0.1	5641.2
5896	2.3884	3.6364	0.1	5643.6
5897	2.3884	3.8182	0.1	5647.2
5898	2.3884	4.	0.1	5652.5
5899	2.3884	4.1818	0.1	5659.7
5900	2.3884	4.3636	0.1	5669.3
5901	2.3884	4.5455	0.1	5681.7
5902	2.3884	4.7273	0.1	5697.
5903	2.3884	4.9091	0.1	5715.4
5904	2.3884	5.0909	0.1	5736.9
5905	2.3884	5.2727	0.1	5761.5
5906	2.3884	5.4545	0.1	5788.8
5907	2.3884	5.6364	0.1	5818.9
5908	2.3884	5.8182	0.1	5857.5
5909	2.5721	0.18182	0.1	5795.
5910	2.5721	0.36364	0.1	5759.4
5911	2.5721	0.54545	0.1	5730.6
5912	2.5721	0.72727	0.1	5703.8
5913	2.5721	0.90909	0.1	5679.3
5914	2.5721	1.0909	0.1	5657.2
5915	2.5721	1.2727	0.1	5637.6
5916	2.5721	1.4545	0.1	5620.8
5917	2.5721	1.6364	0.1	5606.5
5918	2.5721	1.8182	0.1	5594.8
5919	2.5721	2.	0.1	5585.4
5920	2.5721	2.1818	0.1	5578.1
5921	2.5721	2.3636	0.1	5572.6
5922	2.5721	2.5455	0.1	5568.7
5923	2.5721	2.7273	0.1	5566.3
5924	2.5721	2.9091	0.1	5565.1
5925	2.5721	3.0909	0.1	5565.1
5926	2.5721	3.2727	0.1	5566.3
5927	2.5721	3.4545	0.1	5568.7
5928	2.5721	3.6364	0.1	5572.6
5929	2.5721	3.8182	0.1	5578.1
5930	2.5721	4.	0.1	5585.4
5931	2.5721	4.1818	0.1	5594.8
5932	2.5721	4.3636	0.1	5606.5
5933	2.5721	4.5455	0.1	5620.8
5934	2.5721	4.7273	0.1	5637.6
5935	2.5721	4.9091	0.1	5657.2
5936	2.5721	5.0909	0.1	5679.3
5937	2.5721	5.2727	0.1	5703.8
5938	2.5721	5.4545	0.1	5730.6
5939	2.5721	5.6364	0.1	5759.4
5940	2.5721	5.8182	0.1	5795.1
5941	2.7558	0.18182	0.1	5730.3
5942	2.7558	0.36364	0.1	5697.3
5943	2.7558	0.54545	0.1	5669.9
5944	2.7558	0.72727	0.1	5644.
5945	2.7558	0.90909	0.1	5619.9
5946	2.7558	1.0909	0.1	5597.8
5947	2.7558	1.2727	0.1	5577.8
5948	2.7558	1.4545	0.1	5560.1
5949	2.7558	1.6364	0.1	5544.7
5950	2.7558	1.8182	0.1	5531.7
5951	2.7558	2.	0.1	5520.9
5952	2.7558	2.1818	0.1	5512.2
5953	2.7558	2.3636	0.1	5505.5
5954	2.7558	2.5455	0.1	5500.6
5955	2.7558	2.7273	0.1	5497.4
5956	2.7558	2.9091	0.1	5495.8
5957	2.7558	3.0909	0.1	5495.8
5958	2.7558	3.2727	0.1	5497.4
5959	2.7558	3.4545	0.1	5500.6
5960	2.7558	3.6364	0.1	5505.5
5961	2.7558	3.8182	0.1	5512.2
5962	2.7558	4.	0.1	5520.9
5963	2.7558	4.1818	0.1	5531.7
5964	2.7558	4.3636	0.1	5544.7
5965	2.7558	4.5455	0.1	5560.1
5966	2.7558	4.7273	0.1	5577.8
5967	2.7558	4.9091	0.1	5597.8
5968	2.7558	5.0909	0.1	5619.9
5969	2.7558	5.2727	0.1	5644.
5970	2.7558	5.4545	0.1	5669.9
5971	2.7558	5.6364	0.1	5697.3
5972	2.7558	5.8182	0.1	5730.3
5973	2.9395	0.18182	0.1	5664.
5974	2.9395	0.36364	0.1	5633.5
5975	2.9395	0.54545	0.1	5607.5
5976	2.9395	0.72727	0.1	5582.7
5977	2.9395	0.90909	0.1	5559.3
5978	2.9395	1.0909	0.1	5537.6
5979	2.9395	1.2727	0.1	5517.6
5980	2.9395	1.4545	0.1	5499.6
5981	2.9395	1.6364	0.1	5483.7
5982	2.9395	1.8182	0.1	5470.
5983	2.9395	2.	0.1	5458.4
5984	2.9395	2.1818	0.1	5448.8
5985	2.9395	2.3636	0.1	5441.3
5986	2.9395	2.5455	0.1	5435.8
5987	2.9395	2.7273	0.1	5432.2
5988	2.9395	2.9091	0.1	5430.3
5989	2.9395	3.0909	0.1	5430.3
5990	2.9395	3.2727	0.1	5432.2
5991	2.9395	3.4545	0.1	5435.8
5992	2.9395	3.6364	0.1	5441.3
5993	2.9395	3.8182	0.1	5448.8
5994	2.9395	4.	0.1	5458.4
5995	2.9395	4.1818	0.1	5470.
5996	2.9395	4.3636	0.1	5483.7
5997	2.9395	4.5455	0.1	5499.6
5998	2.9395	4.7273	0.1	5517.6
5999	2.9395	4.9091	0.1	5537.6
6000	2.9395	5.0909	0.1	5559.3
6001	2.9395	5.2727	0.1	5582.7
6002	2.9395	5.4545	0.1	5607.5
6003	2.9395	5.6364	0.1	5633.5
6004	2.9395	5.8182	0.1	5664.
6005	3.1233	0.18182	0.1	5596.9
6006	3.1233	0.36364	0.1	5568.7
6007	3.1233	0.54545	0.1	5544.2
6008	3.1233	0.72727	0.1	5520.5
6009	3.1233	0.90909	0.1	5498.
6010	3.1233	1.0909	0.1	5476.9
6011	3.1233	1.2727	0.1	5457.3
6012	3.1233	1.4545	0.1	5439.5
6013	3.1233	1.6364	0.1	5423.5
6014	3.1233	1.8182	0.1	5409.5
6015	3.1233	2.	0.1	5397.5
6016	3.1233	2.1818	0.1	5387.5
6017	3.1233	2.3636	0.1	5379.6
6018	3.1233	2.5455	0.1	5373.7
6019	3.1233	2.7273	0.1	5369.8
6020	3.1233	2.9091	0.1	5367.8
6021	3.1233	3.0909	0.1	5367.8
6022	3.1233	3.2727	0.1	5369.8
6023	3.1233	3.4545	0.1	5373.7
6024	3.1233	3.6364	0.1	5379.6
6025	3.1233	3.8182	0.1	5387.5
6026	3.1233	4.	0.1	5397.5
6027	3.1233	4.1818	0.1	5409.5
6028	3.1233	4.3636	0.1	5423.5
6029	3.1233	4.5455	0.1	5439.5
6030	3.1233	4.7273	0.1	5457.3
6031	3.1233	4.9091	0.1	5476.9
6032	3.1233	5.0909	0.1	5498.
6033	3.1233	5.2727	0.1	5520.5
6034	3.1233	5.4545	0.1	5544.2
6035	3.1233	5.6364	0.1	5568.7
6036	3.1233	5.8182	0.1	5596.9
6037	3.307	0.18182	0.1	5529.4
6038	3.307	0.36364	0.1	5503.4
6039	3.307	0.54545	0.1	5480.3
6040	3.307	0.72727	0.1	5457.8
6041	3.307	0.90909	0.1	5436.4
6042	3.307	1.0909	0.1	5416.
6043	3.307	1.2727	0.1	5397.1
6044	3.307	1.4545	0.1	5379.6
6045	3.307	1.6364	0.1	5363.9
6046	3.307	1.8182	0.1	5349.9
6047	3.307	2.	0.1	5337.9
6048	3.307	2.1818	0.1	5327.8
6049	3.307	2.3636	0.1	5319.7
6050	3.307	2.5455	0.1	5313.7
6051	3.307	2.7273	0.1	5309.6
6052	3.307	2.9091	0.1	5307.6
6053	3.307	3.0909	0.1	5307.6
6054	3.307	3.2727	0.1	5309.6
6055	3.307	3.4545	0.1	5313.7
6056	3.307	3.6364	0.1	5319.7
6057	3.307	3.8182	0.1	5327.8
6058	3.307	4.	0.1	5337.9
6059	3.307	4.1818	0.1	5349.9
6060	3.307	4.3636	0.1	5363.9
6061	3.307	4.5455	0.1	5379.6
6062	3.307	4.7273	0.1	5397.1
6063	3.307	4.9091	0.1	5416.
6064	3.307	5.0909	0.1	5436.4
6065	3.307	5.2727	0.1	5457.8
6066	3.307	5.4545	0.1	5480.3
6067	3.307	5.6364	0.1	5503.4
6068	3.307	5.8182	0.1	5529.4
6069	3.4907	0.18182	0.1	5461.8
6070	3.4907	0.36364	0.1	5437.8
6071	3.4907	0.54545	0.1	5416.1
6072	3.4907	0.72727	0.1	5394.9
6073	3.4907	0.90909	0.1	5374.5
6074	3.4907	1.0909	0.1	5355.1
6075	3.4907	1.2727	0.1	5336.9
6076	3.4907	1.4545	0.1	5320.1
6077	3.4907	1.6364	0.1	5304.8
6078	3.4907	1.8182	0.1	5291.2
6079	3.4907	2.	0.1	5279.3
6080	3.4907	2.1818	0.1	5269.4
6081	3.4907	2.3636	0.1	5261.3
6082	3.4907	2.5455	0.1	5255.2
6083	3.4907	2.7273	0.1	5251.2
6084	3.4907	2.9091	0.1	5249.2
6085	3.4907	3.0909	0.1	5249.2
6086	3.4907	3.2727	0.1	5251.2
6087	3.4907	3.4545	0.1	5255.2
6088	3.4907	3.6364	0.1	5261.3
6089	3.4907	3.8182	0.1	5269.4
6090	3.4907	4.	0.1	5279.3
6091	3.4907	4.1818	0.1	5291.2
6092	3.4907	4.3636	0.1	5304.8
6093	3.4907	4.5455	0.1	5320.1
6094	3.4907	4.7273	0.1	5336.9
6095	3.4907	4.9091	0.1	5355.1
6096	3.4907	5.0909	0.1	5374.5
6097	3.4907	5.2727	0.1	5394.9
6098	3.4907	5.4545	0.1	5416.1
6099	3.4907	5.6364	0.1	5437.8
6100	3.4907	5.8182	0.1	5461.8
6101	3.6744	0.18182	0.1	5394.5
6102	3.6744	0.36364	0.1	5372.3
6103	3.6744	0.54545	0.1	5351.9
6104	3.6744	0.72727	0.1	5332.
6105	3.6744	0.90909	0.1	5312.7
6106	3.6744	1.0909	0.1	5294.4
6107	3.6744	1.2727	0.1	5277.
6108	3.6744	1.4545	0.1	5260.9
6109	3.6744	1.6364	0.1	5246.2
6110	3.6744	1.8182	0.1	5233.1
6111	3.6744	2.	0.1	5221.6
6112	3.6744	2.1818	0.1	5211.9
6113	3.6744	2.3636	0.1	5204.
6114	3.6744	2.5455	0.1	5198.1
6115	3.6744	2.7273	0.1	5194.1
6116	3.6744	2.9091	0.1	5192.1
6117	3.6744	3.0909	0.1	5192.1
6118	3.6744	3.2727	0.1	5194.1
6119	3.6744	3.4545	0.1	5198.1
6120	3.6744	3.6364	0.1	5204.
6121	3.6744	3.8182	0.1	5211.9
6122	3.6744	4.	0.1	5221.6
6123	3.6744	4.1818	0.1	5233.1
6124	3.6744	4.3636	0.1	5246.2
6125	3.6744	4.5455	0.1	5260.9
6126	3.6744	4.7273	0.1	5277.
6127	3.6744	4.9091	0.1	5294.4
6128	3.6744	5.0909	0.1	5312.7
6129	3.6744	5.2727	0.1	5332.
6130	3.6744	5.4545	0.1	5351.9
6131	3.6744	5.6364	0.1	5372.3
6132	3.6744	5.8182	0.1	5394.5
6133	3.8581	0.18182	0.1	5327.5
6134	3.8581	0.36364	0.1	5307.
6135	3.8581	0.54545	0.1	5287.9
6136	3.8581	0.72727	0.1	5269.2
6137	3.8581	0.90909	0.1	5251.1
6138	3.8581	1.0909	0.1	5233.8
6139	3.8581	1.2727	0.1	5217.4
6140	3.8581	1.4545	0.1	5202.1
6141	3.8581	1.6364	0.1	5188.1
6142	3.8581	1.8182	0.1	5175.5
6143	3.8581	2.	0.1	5164.5
6144	3.8581	2.1818	0.1	5155.1
6145	3.8581	2.3636	0.1	5147.5
6146	3.8581	2.5455	0.1	5141.8
6147	3.8581	2.7273	0.1	5137.9
6148	3.8581	2.9091	0.1	5136.
6149	3.8581	3.0909	0.1	5136.
6150	3.8581	3.2727	0.1	5137.9
6151	3.8581	3.4545	0.1	5141.8
6152	3.8581	3.6364	0.1	5147.5
6153	3.8581	3.8182	0.1	5155.1
6154	3.8581	4.	0.1	5164.5
6155	3.8581	4.1818	0.1	5175.5
6156	3.8581	4.3636	0.1	5188.1
6157	3.8581	4.5455	0.1	5202.1
6158	3.8581	4.7273	0.1	5217.4
6159	3.8581	4.9091	0.1	5233.8
6160	3.8581	5.0909	0.1	5251.1
6161	3.8581	5.2727	0.1	5269.2
6162	3.8581	5.4545	0.1	5287.9
6163	3.8581	5.6364	0.1	5307.
6164	3.8581	5.8182	0.1	5327.5
6165	4.0419	0.18182	0.1	5261.
6166	4.0419	0.36364	0.1	5242.1
6167	4.0419	0.54545	0.1	5224.3
6168	4.0419	0.72727	0.1	5206.8
6169	4.0419	0.90909	0.1	5189.8
6170	4.0419	1.0909	0.1	5173.4
6171	4.0419	1.2727	0.1	5158.
6172	4.0419	1.4545	0.1	5143.5
6173	4.0419	1.6364	0.1	5130.3
6174	4.0419	1.8182	0.1	5118.4
6175	4.0419	2.	0.1	5107.9
6176	4.0419	2.1818	0.1	5099.
6177	4.0419	2.3636	0.1	5091.8
6178	4.0419	2.5455	0.1	5086.3
6179	4.0419	2.7273	0.1	5082.6
6180	4.0419	2.9091	0.1	5080.7
6181	4.0419	3.0909	0.1	5080.7
6182	4.0419	3.2727	0.1	5082.6
6183	4.0419	3.4545	0.1	5086.3
6184	4.0419	3.6364	0.1	5091.8
6185	4.0419	3.8182	0.1	5099.
6186	4.0419	4.	0.1	5107.9
6187	4.0419	4.1818	0.1	5118.4
6188	4.0419	4.3636	0.1	5130.3
6189	4.0419	4.5455	0.1	5143.5
6190	4.0419	4.7273	0.1	5158.
6191	4.0419	4.9091	0.1	5173.4
6192	4.0419	5.0909	0.1	5189.8
6193	4.0419	5.2727	0.1	5206.8
6194	4.0419	5.4545	0.1	5224.3
6195	4.0419	5.6364	0.1	5242.1
6196	4.0419	5.8182	0.1	5261.
6197	4.2256	0.18182	0.1	5195.1
6198	4.2256	0.36364	0.1	5177.6
6199	4.2256	0.54545	0.1	5161.
6200	4.2256	0.72727	0.1	5144.6
6201	4.2256	0.90909	0.1	5128.7
6202	4.2256	1.0909	0.1	5113.4
6203	4.2256	1.2727	0.1	5098.9
6204	4.2256	1.4545	0.1	5085.4
6205	4.2256	1.6364	0.1	5072.9
6206	4.2256	1.8182	0.1	5061.6
6207	4.2256	2.	0.1	5051.7
6208	4.2256	2.1818	0.1	5043.3
6209	4.2256	2.3636	0.1	5036.5
6210	4.2256	2.5455	0.1	5031.3
6211	4.2256	2.7273	0.1	5027.7
6212	4.2256	2.9091	0.1	5026.
6213	4.2256	3.0909	0.1	5026.
6214	4.2256	3.2727	0.1	5027.7
6215	4.2256	3.4545	0.1	5031.3
6216	4.2256	3.6364	0.1	5036.5
6217	4.2256	3.8182	0.1	5043.3
6218	4.2256	4.	0.1	5051.7
6219	4.2256	4.1818	0.1	5061.6
6220	4.2256	4.3636	0.1	5072.9
6221	4.2256	4.5455	0.1	5085.4
6222	4.2256	4.7273	0.1	5098.9
6223	4.2256	4.9091	0.1	5113.4
6224	4.2256	5.0909	0.1	5128.7
6225	4.2256	5.2727	0.1	5144.6
6226	4.2256	5.4545	0.1	5161.
6227	4.2256	5.6364	0.1	5177.6
6228	4.2256	5.8182	0.1	5195.1
6229	4.4093	0.18182	0.1	5129.9
6230	4.4093	0.36364	0.1	5113.6
6231	4.4093	0.54545	0.1	5098.2
6232	4.4093	0.72727	0.1	5082.9
6233	4.4093	0.90909	0.1	5068.
6234	4.4093	1.0909	0.1	5053.7
6235	4.4093	1.2727	0.1	5040.2
6236	4.4093	1.4545	0.1	5027.5
6237	4.4093	1.6364	0.1	5015.8
6238	4.4093	1.8182	0.1	5005.2
6239	4.4093	2.	0.1	4995.9
6240	4.4093	2.1818	0.1	4988.
6241	4.4093	2.3636	0.1	4981.5
6242	4.4093	2.5455	0.1	4976.6
6243	4.4093	2.7273	0.1	4973.3
6244	4.4093	2.9091	0.1	4971.7
6245	4.4093	3.0909	0.1	4971.7
6246	4.4093	3.2727	0.1	4973.3
6247	4.4093	3.4545	0.1	4976.6
6248	4.4093	3.6364	0.1	4981.5
6249	4.4093	3.8182	0.1	4988.
6250	4.4093	4.	0.1	4995.9
6251	4.4093	4.1818	0.1	5005.2
6252	4.4093	4.3636	0.1	5015.8
6253	4.4093	4.5455	0.1	5027.5
6254	4.4093	4.7273	0.1	5040.2
6255	4.4093	4.9091	0.1	5053.7
6256	4.4093	5.0909	0.1	5068.
6257	4.4093	5.2727	0.1	5082.9
6258	4.4093	5.4545	0.1	5098.2
6259	4.4093	5.6364	0.1	5113.6
6260	4.4093	5.8182	0.1	5129.9
6261	4.593	0.18182	0.1	5065.2
6262	4.593	0.36364	0.1	5050.2
6263	4.593	0.54545	0.1	5035.8
6264	4.593	0.72727	0.1	5021.6
6265	4.593	0.90909	0.1	5007.7
6266	4.593	1.0909	0.1	4994.4
6267	4.593	1.2727	0.1	4981.7
6268	4.593	1.4545	0.1	4969.9
6269	4.593	1.6364	0.1	4958.9
6270	4.593	1.8182	0.1	4949.1
6271	4.593	2.	0.1	4940.4
6272	4.593	2.1818	0.1	4933.
6273	4.593	2.3636	0.1	4926.9
6274	4.593	2.5455	0.1	4922.3
6275	4.593	2.7273	0.1	4919.2
6276	4.593	2.9091	0.1	4917.7
6277	4.593	3.0909	0.1	4917.7
6278	4.593	3.2727	0.1	4919.2
6279	4.593	3.4545	0.1	4922.3
6280	4.593	3.6364	0.1	4926.9
6281	4.593	3.8182	0.1	4933.
6282	4.593	4.	0.1	4940.4
6283	4.593	4.1818	0.1	4949.1
6284	4.593	4.3636	0.1	4958.9
6285	4.593	4.5455	0.1	4969.9
6286	4.593	4.7273	0.1	4981.7
6287	4.593	4.9091	0.1	4994.4
6288	4.593	5.0909	0.1	5007.7
6289	4.593	5.2727	0.1	5021.6
6290	4.593	5.4545	0.1	5035.8
6291	4.593	5.6364	0.1	5050.2
6292	4.593	5.8182	0.1	5065.2
6293	4.7767	0.18182	0.1	5001.3
6294	4.7767	0.36364	0.1	4987.4
6295	4.7767	0.54545	0.1	4974.
6296	4.7767	0.72727	0.1	4960.7
6297	4.7767	0.90909	0.1	4947.8
6298	4.7767	1.0909	0.1	4935.4
6299	4.7767	1.2727	0.1	4923.6
6300	4.7767	1.4545	0.1	4912.6
6301	4.7767	1.6364	0.1	4902.4
6302	4.7767	1.8182	0.1	4893.2
6303	4.7767	2.	0.1	4885.1
6304	4.7767	2.1818	0.1	4878.1
6305	4.7767	2.3636	0.1	4872.5
6306	4.7767	2.5455	0.1	4868.2
6307	4.7767	2.7273	0.1	4865.3
6308	4.7767	2.9091	0.1	4863.9
6309	4.7767	3.0909	0.1	4863.9
6310	4.7767	3.2727	0.1	4865.3
6311	4.7767	3.4545	0.1	4868.2
6312	4.7767	3.6364	0.1	4872.5
6313	4.7767	3.8182	0.1	4878.1
6314	4.7767	4.	0.1	4885.1
6315	4.7767	4.1818	0.1	4893.2
6316	4.7767	4.3636	0.1	4902.4
6317	4.7767	4.5455	0.1	4912.6
6318	4.7767	4.7273	0.1	4923.6
6319	4.7767	4.9091	0.1	4935.4
6320	4.7767	5.0909	0.1	4947.8
6321	4.7767	5.2727	0.1	4960.7
6322	4.7767	5.4545	0.1	4974.
6323	4.7767	5.6364	0.1	4987.4
6324	4.7767	5.8182	0.1	5001.3
6325	4.9605	0.18182	0.1	4938.
6326	4.9605	0.36364	0.1	4925.1
6327	4.9605	0.54545	0.1	4912.6
6328	4.9605	0.72727	0.1	4900.3
6329	4.9605	0.90909	0.1	4888.3
6330	4.9605	1.0909	0.1	4876.8
6331	4.9605	1.2727	0.1	4865.8
6332	4.9605	1.4545	0.1	4855.5
6333	4.9605	1.6364	0.1	4846.
6334	4.9605	1.8182	0.1	4837.5
6335	4.9605	2.	0.1	4829.9
6336	4.9605	2.1818	0.1	4823.5
6337	4.9605	2.3636	0.1	4818.3
6338	4.9605	2.5455	0.1	4814.3
6339	4.9605	2.7273	0.1	4811.6
6340	4.9605	2.9091	0.1	4810.2
6341	4.9605	3.0909	0.1	4810.2
6342	4.9605	3.2727	0.1	4811.6
6343	4.9605	3.4545	0.1	4814.3
6344	4.9605	3.6364	0.1	4818.3
6345	4.9605	3.8182	0.1	4823.5
6346	4.9605	4.	0.1	4829.9
6347	4.9605	4.1818	0.1	4837.5
6348	4.9605	4.3636	0.1	4846.
6349	4.9605	4.5455	0.1	4855.5
6350	4.9605	4.7273	0.1	4865.8
6351	4.9605	4.9091	0.1	4876.8
6352	4.9605	5.0909	0.1	4888.3
6353	4.9605	5.2727	0.1	4900.3
6354	4.9605	5.4545	0.1	4912.6
6355	4.9605	5.6364	0.1	4925.1
6356	4.9605	5.8182	0.1	4938.
6357	5.1442	0.18182	0.1	4875.3
6358	5.1442	0.36364	0.1	4863.3
6359	5.1442	0.54545	0.1	4851.8
6360	5.1442	0.72727	0.1	4840.3
6361	5.1442	0.90909	0.1	4829.2
6362	5.1442	1.0909	0.1	4818.5
6363	5.1442	1.2727	0.1	4808.3
6364	5.1442	1.4545	0.1	4798.7
6365	5.1442	1.6364	0.1	4789.9
6366	5.1442	1.8182	0.1	4782.
6367	5.1442	2.	0.1	4775.
6368	5.1442	2.1818	0.1	4769.
6369	5.1442	2.3636	0.1	4764.2
6370	5.1442	2.5455	0.1	4760.5
6371	5.1442	2.7273	0.1	4758.
6372	5.1442	2.9091	0.1	4756.7
6373	5.1442	3.0909	0.1	4756.7
6374	5.1442	3.2727	0.1	4758.
6375	5.1442	3.4545	0.1	4760.5
6376	5.1442	3.6364	0.1	4764.2
6377	5.1442	3.8182	0.1	4769.
6378	5.1442	4.	0.1	4775.
6379	5.1442	4.1818	0.1	4782.
6380	5.1442	4.3636	0.1	4789.9
6381	5.1442	4.5455	0.1	4798.7
6382	5.1442	4.7273	0.1	4808.3
6383	5.1442	4.9091	0.1	4818.5
6384	5.1442	5.0909	0.1	4829.2
6385	5.1442	5.2727	0.1	4840.3
6386	5.1442	5.4545	0.1	4851.8
6387	5.1442	5.6364	0.1	4863.3
6388	5.1442	5.8182	0.1	4875.3
6389	5.3279	0.18182	0.1	4813.3
6390	5.3279	0.36364	0.1	4802.2
6391	5.3279	0.54545	0.1	4791.4
6392	5.3279	0.72727	0.1	4780.8
6393	5.3279	0.90909	0.1	4770.4
6394	5.3279	1.0909	0.1	4760.5
6395	5.3279	1.2727	0.1	4751.
6396	5.3279	1.4545	0.1	4742.2
6397	5.3279	1.6364	0.1	4734.
6398	5.3279	1.8182	0.1	4726.7
6399	5.3279	2.	0.1	4720.2
6400	5.3279	2.1818	0.1	4714.7
6401	5.3279	2.3636	0.1	4710.2
6402	5.3279	2.5455	0.1	4706.7
6403	5.3279	2.7273	0.1	4704.4
6404	5.3279	2.9091	0.1	4703.2
6405	5.3279	3.0909	0.1	4703.2
6406	5.3279	3.2727	0.1	4704.4
6407	5.3279	3.4545	0.1	4706.7
6408	5.3279	3.6364	0.1	4710.2
6409	5.3279	3.8182	0.1	4714.7
6410	5.3279	4.	0.1	4720.2
6411	5.3279	4.1818	0.1	4726.7
6412	5.3279	4.3636	0.1	4734.
6413	5.3279	4.5455	0.1	4742.2
6414	5.3279	4.7273	0.1	4751.
6415	5.3279	4.9091	0.1	4760.5
6416	5.3279	5.0909	0.1	4770.4
6417	5.3279	5.2727	0.1	4780.8
6418	5.3279	5.4545	0.1	4791.4
6419	5.3279	5.6364	0.1	4802.2
6420	5.3279	5.8182	0.1	4813.3
6421	5.5116	0.18182	0.1	4751.8
6422	5.5116	0.36364	0.1	4741.5
6423	5.5116	0.54545	0.1	4731.5
6424	5.5116	0.72727	0.1	4721.6
6425	5.5116	0.90909	0.1	4712.1
6426	5.5116	1.0909	0.1	4702.8
6427	5.5116	1.2727	0.1	4694.1
6428	5.5116	1.4545	0.1	4685.9
6429	5.5116	1.6364	0.1	4678.3
6430	5.5116	1.8182	0.1	4671.5
6431	5.5116	2.	0.1	4665.5
6432	5.5116	2.1818	0.1	4660.4
6433	5.5116	2.3636	0.1	4656.2
6434	5.5116	2.5455	0.1	4653.1
6435	5.5116	2.7273	0.1	4650.9
6436	5.5116	2.9091	0.1	4649.8
6437	5.5116	3.0909	0.1	4649.8
6438	5.5116	3.2727	0.1	4650.9
6439	5.5116	3.4545	0.1	4653.1
6440	5.5116	3.6364	0.1	4656.2
6441	5.5116	3.8182	0.1	4660.4
6442	5.5116	4.	0.1	4665.5
6443	5.5116	4.1818	0.1	4671.5
6444	5.5116	4.3636	0.1	4678.3
6445	5.5116	4.5455	0.1	4685.9
6446	5.5116	4.7273	0.1	4694.1
6447	5.5116	4.9091	0.1	4702.8
6448	5.5116	5.0909	0.1	4712.1
6449	5.5116	5.2727	0.1	4721.6
6450	5.5116	5.4545	0.1	4731.5
6451	5.5116	5.6364	0.1	4741.5
6452	5.5116	5.8182	0.1	4751.8
6453	5.6953	0.18182	0.1	4691.
6454	5.6953	0.36364	0.1	4681.4
6455	5.6953	0.54545	0.1	4672.1
6456	5.6953	0.72727	0.1	4662.9
6457	5.6953	0.90909	0.1	4654.
6458	5.6953	1.0909	0.1	4645.5
6459	5.6953	1.2727	0.1	4637.4
6460	5.6953	1.4545	0.1	4629.8
6461	5.6953	1.6364	0.1	4622.8
6462	5.6953	1.8182	0.1	4616.5
6463	5.6953	2.	0.1	4611.
6464	5.6953	2.1818	0.1	4606.2
6465	5.6953	2.3636	0.1	4602.4
6466	5.6953	2.5455	0.1	4599.4
6467	5.6953	2.7273	0.1	4597.5
6468	5.6953	2.9091	0.1	4596.5
6469	5.6953	3.0909	0.1	4596.5
6470	5.6953	3.2727	0.1	4597.5
6471	5.6953	3.4545	0.1	4599.4
6472	5.6953	3.6364	0.1	4602.4
6473	5.6953	3.8182	0.1	4606.2
6474	5.6953	4.	0.1	4611.
6475	5.6953	4.1818	0.1	4616.5
6476	5.6953	4.3636	0.1	4622.8
6477	5.6953	4.5455	0.1	4629.8
6478	5.6953	4.7273	0.1	4637.4
6479	5.6953	4.9091	0.1	4645.5
6480	5.6953	5.0909	0.1	4654.
6481	5.6953	5.2727	0.1	4662.9
6482	5.6953	5.4545	0.1	4672.1
6483	5.6953	5.6364	0.1	4681.4
6484	5.6953	5.8182	0.1	4691.
6485	5.8791	0.18182	0.1	4630.7
6486	5.8791	0.36364	0.1	4621.7
6487	5.8791	0.54545	0.1	4613.1
6488	5.8791	0.72727	0.1	4604.6
6489	5.8791	0.90909	0.1	4596.4
6490	5.8791	1.0909	0.1	4588.5
6491	5.8791	1.2727	0.1	4581.
6492	5.8791	1.4545	0.1	4573.9
6493	5.8791	1.6364	0.1	4567.5
6494	5.8791	1.8182	0.1	4561.7
6495	5.8791	2.	0.1	4556.5
6496	5.8791	2.1818	0.1	4552.2
6497	5.8791	2.3636	0.1	4548.6
6498	5.8791	2.5455	0.1	4545.9
6499	5.8791	2.7273	0.1	4544.1
6500	5.8791	2.9091	0.1	4543.1
6501	5.8791	3.0909	0.1	4543.1
6502	5.8791	3.2727	0.1	4544.1
6503	5.8791	3.4545	0.1	4545.9
6504	5.8791	3.6364	0.1	4548.6
6505	5.8791	3.8182	0.1	4552.2
6506	5.8791	4.	0.1	4556.5
6507	5.8791	4.1818	0.1	4561.7
6508	5.8791	4.3636	0.1	4567.5
6509	5.8791	4.5455	0.1	4573.9
6510	5.8791	4.7273	0.1	4581.
6511	5.8791	4.9091	0.1	4588.5
6512	5.8791	5.0909	0.1	4596.4
6513	5.8791	5.2727	0.1	4604.6
6514	5.8791	5.4545	0.1	4613.1
6515	5.8791	5.6364	0.1	4621.7
6516	5.8791	5.8182	0.1	4630.7
6517	6.0628	0.18182	0.1	4571.
6518	6.0628	0.36364	0.1	4562.6
6519	6.0628	0.54545	0.1	4554.6
6520	6.0628	0.72727	0.1	4546.7
6521	6.0628	0.90909	0.1	4539.1
6522	6.0628	1.0909	0.1	4531.7
6523	6.0628	1.2727	0.1	4524.8
6524	6.0628	1.4545	0.1	4518.3
6525	6.0628	1.6364	0.1	4512.3
6526	6.0628	1.8182	0.1	4506.9
6527	6.0628	2.	0.1	4502.2
6528	6.0628	2.1818	0.1	4498.2
6529	6.0628	2.3636	0.1	4494.9
6530	6.0628	2.5455	0.1	4492.4
6531	6.0628	2.7273	0.1	4490.7
6532	6.0628	2.9091	0.1	4489.8
6533	6.0628	3.0909	0.1	4489.8
6534	6.0628	3.2727	0.1	4490.7
6535	6.0628	3.4545	0.1	4492.4
6536	6.0628	3.6364	0.1	4494.9
6537	6.0628	3.8182	0.1	4498.2
6538	6.0628	4.	0.1	4502.2
6539	6.0628	4.1818	0.1	4506.9
6540	6.0628	4.3636	0.1	4512.3
6541	6.0628	4.5455	0.1	4518.3
6542	6.0628	4.7273	0.1	4524.8
6543	6.0628	4.9091	0.1	4531.7
6544	6.0628	5.0909	0.1	4539.1
6545	6.0628	5.2727	0.1	4546.7
6546	6.0628	5.4545	0.1	4554.6
6547	6.0628	5.6364	0.1	4562.6
6548	6.0628	5.8182	0.1	4571.
6549	6.2465	0.18182	0.1	4511.7
6550	6.2465	0.36364	0.1	4503.9
6551	6.2465	0.54545	0.1	4496.4
6552	6.2465	0.72727	0.1	4489.1
6553	6.2465	0.90909	0.1	4482.1
6554	6.2465	1.0909	0.1	4475.3
6555	6.2465	1.2727	0.1	4468.8
6556	6.2465	1.4545	0.1	4462.8
6557	6.2465	1.6364	0.1	4457.3
6558	6.2465	1.8182	0.1	4452.3
6559	6.2465	2.	0.1	4448.
6560	6.2465	2.1818	0.1	4444.3
6561	6.2465	2.3636	0.1	4441.2
6562	6.2465	2.5455	0.1	4438.9
6563	6.2465	2.7273	0.1	4437.4
6564	6.2465	2.9091	0.1	4436.6
6565	6.2465	3.0909	0.1	4436.6
6566	6.2465	3.2727	0.1	4437.4
6567	6.2465	3.4545	0.1	4438.9
6568	6.2465	3.6364	0.1	4441.2
6569	6.2465	3.8182	0.1	4444.3
6570	6.2465	4.	0.1	4448.
6571	6.2465	4.1818	0.1	4452.3
6572	6.2465	4.3636	0.1	4457.3
6573	6.2465	4.5455	0.1	4462.8
6574	6.2465	4.7273	0.1	4468.8
6575	6.2465	4.9091	0.1	4475.3
6576	6.2465	5.0909	0.1	4482.1
6577	6.2465	5.2727	0.1	4489.1
6578	6.2465	5.4545	0.1	4496.4
6579	6.2465	5.6364	0.1	4503.9
6580	6.2465	5.8182	0.1	4511.7
6581	6.4302	0.18182	0.1	4452.9
6582	6.4302	0.36364	0.1	4445.6
6583	6.4302	0.54545	0.1	4438.7
6584	6.4302	0.72727	0.1	4431.9
6585	6.4302	0.90909	0.1	4425.4
6586	6.4302	1.0909	0.1	4419.1
6587	6.4302	1.2727	0.1	4413.1
6588	6.4302	1.4545	0.1	4407.6
6589	6.4302	1.6364	0.1	4402.5
6590	6.4302	1.8182	0.1	4397.9
6591	6.4302	2.	0.1	4393.9
6592	6.4302	2.1818	0.1	4390.4
6593	6.4302	2.3636	0.1	4387.6
6594	6.4302	2.5455	0.1	4385.5
6595	6.4302	2.7273	0.1	4384.1
6596	6.4302	2.9091	0.1	4383.4
6597	6.4302	3.0909	0.1	4383.4
6598	6.4302	3.2727	0.1	4384.1
6599	6.4302	3.4545	0.1	4385.5
6600	6.4302	3.6364	0.1	4387.6
6601	6.4302	3.8182	0.1	4390.4
6602	6.4302	4.	0.1	4393.9
6603	6.4302	4.1818	0.1	4397.9
6604	6.4302	4.3636	0.1	4402.5
6605	6.4302	4.5455	0.1	4407.6
6606	6.4302	4.7273	0.1	4413.1
6607	6.4302	4.9091	0.1	4419.1
6608	6.4302	5.0909	0.1	4425.4
6609	6.4302	5.2727	0.1	4431.9
6610	6.4302	5.4545	0.1	4438.7
6611	6.4302	5.6364	0.1	4445.6
6612	6.4302	5.8182	0.1	4452.9
6613	6.614	0.18182	0.1	4394.6
6614	6.614	0.36364	0.1	4387.8
6615	6.614	0.54545	0.1	4381.3
6616	6.614	0.72727	0.1	4375.1
6617	6.614	0.90909	0.1	4369.
6618	6.614	1.0909	0.1	4363.2
6619	6.614	1.2727	0.1	4357.7
6620	6.614	1.4545	0.1	4352.5
6621	6.614	1.6364	0.1	4347.8
6622	6.614	1.8182	0.1	4343.6
6623	6.614	2.	0.1	4339.9
6624	6.614	2.1818	0.1	4336.7
6625	6.614	2.3636	0.1	4334.1
6626	6.614	2.5455	0.1	4332.2
6627	6.614	2.7273	0.1	4330.8
6628	6.614	2.9091	0.1	4330.2
6629	6.614	3.0909	0.1	4330.2
6630	6.614	3.2727	0.1	4330.8
6631	6.614	3.4545	0.1	4332.2
6632	6.614	3.6364	0.1	4334.1
6633	6.614	3.8182	0.1	4336.7
6634	6.614	4.	0.1	4339.9
6635	6.614	4.1818	0.1	4343.6
6636	6.614	4.3636	0.1	4347.8
6637	6.614	4.5455	0.1	4352.5
6638	6.614	4.7273	0.1	4357.7
6639	6.614	4.9091	0.1	4363.2
6640	6.614	5.0909	0.1	4369.
6641	6.614	5.2727	0.1	4375.1
6642	6.614	5.4545	0.1	4381.3
6643	6.614	5.6364	0.1	4387.8
6644	6.614	5.8182	0.1	4394.6
6645	6.7977	0.18182	0.1	4336.8
6646	6.7977	0.36364	0.1	4330.3
6647	6.7977	0.54545	0.1	4324.3
6648	6.7977	0.72727	0.1	4318.5
6649	6.7977	0.90909	0.1	4312.9
6650	6.7977	1.0909	0.1	4307.5
6651	6.7977	1.2727	0.1	4302.4
6652	6.7977	1.4545	0.1	4297.7
6653	6.7977	1.6364	0.1	4293.3
6654	6.7977	1.8182	0.1	4289.4
6655	6.7977	2.	0.1	4286.
6656	6.7977	2.1818	0.1	4283.1
6657	6.7977	2.3636	0.1	4280.7
6658	6.7977	2.5455	0.1	4278.9
6659	6.7977	2.7273	0.1	4277.7
6660	6.7977	2.9091	0.1	4277.
6661	6.7977	3.0909	0.1	4277.
6662	6.7977	3.2727	0.1	4277.7
6663	6.7977	3.4545	0.1	4278.9
6664	6.7977	3.6364	0.1	4280.7
6665	6.7977	3.8182	0.1	4283.1
6666	6.7977	4.	0.1	4286.
6667	6.7977	4.1818	0.1	4289.4
6668	6.7977	4.3636	0.1	4293.3
6669	6.7977	4.5455	0.1	4297.7
6670	6.7977	4.7273	0.1	4302.4
6671	6.7977	4.9091	0.1	4307.5
6672	6.7977	5.0909	0.1	4312.9
6673	6.7977	5.2727	0.1	4318.5
6674	6.7977	5.4545	0.1	4324.3
6675	6.7977	5.6364	0.1	4330.3
6676	6.7977	5.8182	0.1	4336.8
6677	6.9814	0.18182	0.1	4279.3
6678	6.9814	0.36364	0.1	4273.2
6679	6.9814	0.54545	0.1	4267.7
6680	6.9814	0.72727	0.1	4262.3
6681	6.9814	0.90909	0.1	4257.1
6682	6.9814	1.0909	0.1	4252.1
6683	6.9814	1.2727	0.1	4247.4
6684	6.9814	1.4545	0.1	4243.
6685	6.9814	1.6364	0.1	4239.
6686	6.9814	1.8182	0.1	4235.4
6687	6.9814	2.	0.1	4232.2
6688	6.9814	2.1818	0.1	4229.5
6689	6.9814	2.3636	0.1	4227.3
6690	6.9814	2.5455	0.1	4225.7
6691	6.9814	2.7273	0.1	4224.5
6692	6.9814	2.9091	0.1	4224.
6693	6.9814	3.0909	0.1	4224.
6694	6.9814	3.2727	0.1	4224.5
6695	6.9814	3.4545	0.1	4225.7
6696	6.9814	3.6364	0.1	4227.3
6697	6.9814	3.8182	0.1	4229.5
6698	6.9814	4.	0.1	4232.2
6699	6.9814	4.1818	0.1	4235.4
6700	6.9814	4.3636	0.1	4239.
6701	6.9814	4.5455	0.1	4243.
6702	6.9814	4.7273	0.1	4247.4
6703	6.9814	4.9091	0.1	4252.1
6704	6.9814	5.0909	0.1	4257.1
6705	6.9814	5.2727	0.1	4262.3
6706	6.9814	5.4545	0.1	4267.7
6707	6.9814	5.6364	0.1	4273.2
6708	6.9814	5.8182	0.1	4279.3
6709	7.1651	0.18182	0.1	4222.3
6710	7.1651	0.36364	0.1	4216.5
6711	7.1651	0.54545	0.1	4211.4
6712	7.1651	0.72727	0.1	4206.4
6713	7.1651	0.90909	0.1	4201.5
6714	7.1651	1.0909	0.1	4196.9
6715	7.1651	1.2727	0.1	4192.6
6716	7.1651	1.4545	0.1	4188.5
6717	7.1651	1.6364	0.1	4184.8
6718	7.1651	1.8182	0.1	4181.5
6719	7.1651	2.	0.1	4178.6
6720	7.1651	2.1818	0.1	4176.1
6721	7.1651	2.3636	0.1	4174.1
6722	7.1651	2.5455	0.1	4172.5
6723	7.1651	2.7273	0.1	4171.5
6724	7.1651	2.9091	0.1	4171.
6725	7.1651	3.0909	0.1	4171.
6726	7.1651	3.2727	0.1	4171.5
6727	7.1651	3.4545	0.1	4172.5
6728	7.1651	3.6364	0.1	4174.1
6729	7.1651	3.8182	0.1	4176.1
6730	7.1651	4.	0.1	4178.6
6731	7.1651	4.1818	0.1	4181.5
6732	7.1651	4.3636	0.1	4184.8
6733	7.1651	4.5455	0.1	4188.5
6734	7.1651	4.7273	0.1	4192.6
6735	7.1651	4.9091	0.1	4196.9
6736	7.1651	5.0909	0.1	4201.5
6737	7.1651	5.2727	0.1	4206.4
6738	7.1651	5.4545	0.1	4211.4
6739	7.1651	5.6364	0.1	4216.5
6740	7.1651	5.8182	0.1	4222.3
6741	7.3488	0.18182	0.1	4165.6
6742	7.3488	0.36364	0.1	4160.2
6743	7.3488	0.54545	0.1	4155.4
6744	7.3488	0.72727	0.1	4150.8
6745	7.3488	0.90909	0.1	4146.3
6746	7.3488	1.0909	0.1	4142.
6747	7.3488	1.2727	0.1	4138.
6748	7.3488	1.4545	0.1	4134.2
6749	7.3488	1.6364	0.1	4130.8
6750	7.3488	1.8182	0.1	4127.7
6751	7.3488	2.	0.1	4125.
6752	7.3488	2.1818	0.1	4122.7
6753	7.3488	2.3636	0.1	4120.9
6754	7.3488	2.5455	0.1	4119.5
6755	7.3488	2.7273	0.1	4118.5
6756	7.3488	2.9091	0.1	4118.
6757	7.3488	3.0909	0.1	4118.
6758	7.3488	3.2727	0.1	4118.5
6759	7.3488	3.4545	0.1	4119.5
6760	7.3488	3.6364	0.1	4120.9
6761	7.3488	3.8182	0.1	4122.7
6762	7.3488	4.	0.1	4125.
6763	7.3488	4.1818	0.1	4127.7
6764	7.3488	4.3636	0.1	4130.8
6765	7.3488	4.5455	0.1	4134.2
6766	7.3488	4.7273	0.1	4138.
6767	7.3488	4.9091	0.1	4142.
6768	7.3488	5.0909	0.1	4146.3
6769	7.3488	5.2727	0.1	4150.8
6770	7.3488	5.4545	0.1	4155.4
6771	7.3488	5.6364	0.1	4160.2
6772	7.3488	5.8182	0.1	4165.6
6773	7.5326	0.18182	0.1	4109.3
6774	7.5326	0.36364	0.1	4104.2
6775	7.5326	0.54545	0.1	4099.7
6776	7.5326	0.72727	0.1	4095.4
6777	7.5326	0.90909	0.1	4091.3
6778	7.5326	1.0909	0.1	4087.3
6779	7.5326	1.2727	0.1	4083.6
6780	7.5326	1.4545	0.1	4080.1
6781	7.5326	1.6364	0.1	4077.
6782	7.5326	1.8182	0.1	4074.1
6783	7.5326	2.	0.1	4071.6
6784	7.5326	2.1818	0.1	4069.5
6785	7.5326	2.3636	0.1	4067.8
6786	7.5326	2.5455	0.1	4066.5
6787	7.5326	2.7273	0.1	4065.6
6788	7.5326	2.9091	0.1	4065.2
6789	7.5326	3.0909	0.1	4065.2
6790	7.5326	3.2727	0.1	4065.6
6791	7.5326	3.4545	0.1	4066.5
6792	7.5326	3.6364	0.1	4067.8
6793	7.5326	3.8182	0.1	4069.5
6794	7.5326	4.	0.1	4071.6
6795	7.5326	4.1818	0.1	4074.1
6796	7.5326	4.3636	0.1	4077.
6797	7.5326	4.5455	0.1	4080.1
6798	7.5326	4.7273	0.1	4083.6
6799	7.5326	4.9091	0.1	4087.3
6800	7.5326	5.0909	0.1	4091.3
6801	7.5326	5.2727	0.1	4095.4
6802	7.5326	5.4545	0.1	4099.7
6803	7.5326	5.6364	0.1	4104.2
6804	7.5326	5.8182	0.1	4109.3
6805	7.7163	0.18182	0.1	4053.3
6806	7.7163	0.36364	0.1	4048.5
6807	7.7163	0.54545	0.1	4044.3
6808	7.7163	0.72727	0.1	4040.3
6809	7.7163	0.90909	0.1	4036.5
6810	7.7163	1.0909	0.1	4032.8
6811	7.7163	1.2727	0.1	4029.4
6812	7.7163	1.4545	0.1	4026.2
6813	7.7163	1.6364	0.1	4023.3
6814	7.7163	1.8182	0.1	4020.7
6815	7.7163	2.	0.1	4018.4
6816	7.7163	2.1818	0.1	4016.4
6817	7.7163	2.3636	0.1	4014.8
6818	7.7163	2.5455	0.1	4013.6
6819	7.7163	2.7273	0.1	4012.8
6820	7.7163	2.9091	0.1	4012.4
6821	7.7163	3.0909	0.1	4012.4
6822	7.7163	3.2727	0.1	4012.8
6823	7.7163	3.4545	0.1	4013.6
6824	7.7163	3.6364	0.1	4014.8
6825	7.7163	3.8182	0.1	4016.4
6826	7.7163	4.	0.1	4018.4
6827	7.7163	4.1818	0.1	4020.7
6828	7.7163	4.3636	0.1	4023.3
6829	7.7163	4.5455	0.1	4026.2
6830	7.7163	4.7273	0.1	4029.4
6831	7.7163	4.9091	0.1	4032.8
6832	7.7163	5.0909	0.1	4036.5
6833	7.7163	5.2727	0.1	4040.3
6834	7.7163	5.4545	0.1	4044.3
6835	7.7163	5.6364	0.1	4048.5
6836	7.7163	5.8182	0.1	4053.3
6837	7.9	0.18182	0.1	3997.7
6838	7.9	0.36364	0.1	3993.1
6839	7.9	0.54545	0.1	3989.3
6840	7.9	0.72727	0.1	3985.5
6841	7.9	0.90909	0.1	3982.
6842	7.9	1.0909	0.1	3978.6
6843	7.9	1.2727	0.1	3975.4
6844	7.9	1.4545	0.1	3972.5
6845	7.9	1.6364	0.1	3969.8
6846	7.9	1.8182	0.1	3967.4
6847	7.9	2.	0.1	3965.3
6848	7.9	2.1818	0.1	3963.5
6849	7.9	2.3636	0.1	3962.
6850	7.9	2.5455	0.1	3960.9
6851	7.9	2.7273	0.1	3960.2
6852	7.9	2.9091	0.1	3959.8
6853	7.9	3.0909	0.1	3959.8
6854	7.9	3.2727	0.1	3960.2
6855	7.9	3.4545	0.1	3960.9
6856	7.9	3.6364	0.1	3962.
6857	7.9	3.8182	0.1	3963.5
6858	7.9	4.	0.1	3965.3
6859	7.9	4.1818	0.1	3967.4
6860	7.9	4.3636	0.1	3969.8
6861	7.9	4.5455	0.1	3972.5
6862	7.9	4.7273	0.1	3975.4
6863	7.9	4.9091	0.1	3978.6
6864	7.9	5.0909	0.1	3982.
6865	7.9	5.2727	0.1	3985.5
6866	7.9	5.4545	0.1	3989.3
6867	7.9	5.6364	0.1	3993.1
6868	7.9	5.8182	0.1	3997.7
6869	8.0837	0.18182	0.1	3942.4
6870	8.0837	0.36364	0.1	3938.
6871	8.0837	0.54545	0.1	3934.4
6872	8.0837	0.72727	0.1	3931.
6873	8.0837	0.90909	0.1	3927.7
6874	8.0837	1.0909	0.1	3924.6
6875	8.0837	1.2727	0.1	3921.7
6876	8.0837	1.4545	0.1	3918.9
6877	8.0837	1.6364	0.1	3916.4
6878	8.0837	1.8182	0.1	3914.2
6879	8.0837	2.	0.1	3912.3
6880	8.0837	2.1818	0.1	3910.6
6881	8.0837	2.3636	0.1	3909.3
6882	8.0837	2.5455	0.1	3908.3
6883	8.0837	2.7273	0.1	3907.6
6884	8.0837	2.9091	0.1	3907.2
6885	8.0837	3.0909	0.1	3907.2
6886	8.0837	3.2727	0.1	3907.6
6887	8.0837	3.4545	0.1	3908.3
6888	8.0837	3.6364	0.1	3909.3
6889	8.0837	3.8182	0.1	3910.6
6890	8.0837	4.	0.1	3912.3
6891	8.0837	4.1818	0.1	3914.2
6892	8.0837	4.3636	0.1	3916.4
6893	8.0837	4.5455	0.1	3918.9
6894	8.0837	4.7273	0.1	3921.7
6895	8.0837	4.9091	0.1	3924.6
6896	8.0837	5.0909	0.1	3927.7
6897	8.0837	5.2727	0.1	3931.
6898	8.0837	5.4545	0.1	3934.4
6899	8.0837	5.6364	0.1	3938.
6900	8.0837	5.8182	0.1	3942.4
6901	8.2674	0.18182	0.1	3887.3
6902	8.2674	0.36364	0.1	3883.2
6903	8.2674	0.54545	0.1	3879.9
6904	8.2674	0.72727	0.1	3876.7
6905	8.2674	0.90909	0.1	3873.7
6906	8.2674	1.0909	0.1	3870.8
6907	8.2674	1.2727	0.1	3868.1
6908	8.2674	1.4545	0.1	3865.6
6909	8.2674	1.6364	0.1	3863.3
6910	8.2674	1.8182	0.1	3861.2
6911	8.2674	2.	0.1	3859.4
6912	8.2674	2.1818	0.1	3857.9
6913	8.2674	2.3636	0.1	3856.7
6914	8.2674	2.5455	0.1	3855.7
6915	8.2674	2.7273	0.1	3855.1
6916	8.2674	2.9091	0.1	3854.8
6917	8.2674	3.0909	0.1	3854.8
6918	8.2674	3.2727	0.1	3855.1
6919	8.2674	3.4545	0.1	3855.7
6920	8.2674	3.6364	0.1	3856.7
6921	8.2674	3.8182	0.1	3857.9
6922	8.2674	4.	0.1	3859.4
6923	8.2674	4.1818	0.1	3861.2
6924	8.2674	4.3636	0.1	3863.3
6925	8.2674	4.5455	0.1	3865.6
6926	8.2674	4.7273	0.1	3868.1
6927	8.2674	4.9091	0.1	3870.8
6928	8.2674	5.0909	0.1	3873.7
6929	8.2674	5.2727	0.1	3876.7
6930	8.2674	5.4545	0.1	3879.9
6931	8.2674	5.6364	0.1	3883.2
6932	8.2674	5.8182	0.1	3887.3
6933	8.4512	0.18182	0.1	3832.6
6934	8.4512	0.36364	0.1	3828.7
6935	8.4512	0.54545	0.1	3825.6
6936	8.4512	0.72727	0.1	3822.7
6937	8.4512	0.90909	0.1	3819.9
6938	8.4512	1.0909	0.1	3817.2
6939	8.4512	1.2727	0.1	3814.7
6940	8.4512	1.4545	0.1	3812.4
6941	8.4512	1.6364	0.1	3810.3
6942	8.4512	1.8182	0.1	3808.4
6943	8.4512	2.	0.1	3806.8
6944	8.4512	2.1818	0.1	3805.4
6945	8.4512	2.3636	0.1	3804.2
6946	8.4512	2.5455	0.1	3803.4
6947	8.4512	2.7273	0.1	3802.8
6948	8.4512	2.9091	0.1	3802.5
6949	8.4512	3.0909	0.1	3802.5
6950	8.4512	3.2727	0.1	3802.8
6951	8.4512	3.4545	0.1	3803.4
6952	8.4512	3.6364	0.1	3804.2
6953	8.4512	3.8182	0.1	3805.4
6954	8.4512	4.	0.1	3806.8
6955	8.4512	4.1818	0.1	3808.4
6956	8.4512	4.3636	0.1	3810.3
6957	8.4512	4.5455	0.1	3812.4
6958	8.4512	4.7273	0.1	3814.7
6959	8.4512	4.9091	0.1	3817.2
6960	8.4512	5.0909	0.1	3819.9
6961	8.4512	5.2727	0.1	3822.7
6962	8.4512	5.4545	0.1	3825.6
6963	8.4512	5.6364	0.1	3828.7
6964	8.4512	5.8182	0.1	3832.6
6965	8.6349	0.18182	0.1	3778.1
6966	8.6349	0.36364	0.1	3774.4
6967	8.6349	0.54545	0.1	3771.6
6968	8.6349	0.72727	0.1	3768.8
6969	8.6349	0.90909	0.1	3766.3
6970	8.6349	1.0909	0.1	3763.8
6971	8.6349	1.2727	0.1	3761.5
6972	8.6349	1.4545	0.1	3759.4
6973	8.6349	1.6364	0.1	3757.5
6974	8.6349	1.8182	0.1	3755.7
6975	8.6349	2.	0.1	3754.2
6976	8.6349	2.1818	0.1	3752.9
6977	8.6349	2.3636	0.1	3751.9
6978	8.6349	2.5455	0.1	3751.1
6979	8.6349	2.7273	0.1	3750.6
6980	8.6349	2.9091	0.1	3750.3
6981	8.6349	3.0909	0.1	3750.3
6982	8.6349	3.2727	0.1	3750.6
6983	8.6349	3.4545	0.1	3751.1
6984	8.6349	3.6364	0.1	3751.9
6985	8.6349	3.8182	0.1	3752.9
6986	8.6349	4.	0.1	3754.2
6987	8.6349	4.1818	0.1	3755.7
6988	8.6349	4.3636	0.1	3757.5
6989	8.6349	4.5455	0.1	3759.4
6990	8.6349	4.7273	0.1	3761.5
6991	8.6349	4.9091	0.1	3763.8
6992	8.6349	5.0909	0.1	3766.3
6993	8.6349	5.2727	0.1	3768.8
6994	8.6349	5.4545	0.1	3771.6
6995	8.6349	5.6364	0.1	3774.4
6996	8.6349	5.8182	0.1	3778.1
6997	8.8186	0.18182	0.1	3723.9
6998	8.8186	0.36364	0.1	3720.4
6999	8.8186	0.54545	0.1	3717.8
7000	8.8186	0.72727	0.1	3715.3
7001	8.8186	0.90909	0.1	3712.9
7002	8.8186	1.0909	0.1	3710.6
7003	8.8186	1.2727	0.1	3708.5
7004	8.8186	1.4545	0.1	3706.6
7005	8.8186	1.6364	0.1	3704.8
7006	8.8186	1.8182	0.1	3703.2
7007	8.8186	2.	0.1	3701.9
7008	8.8186	2.1818	0.1	3700.7
7009	8.8186	2.3636	0.1	3699.7
7010	8.8186	2.5455	0.1	3699.
7011	8.8186	2.7273	0.1	3698.5
7012	8.8186	2.9091	0.1	3698.3
7013	8.8186	3.0909	0.1	3698.3
7014	8.8186	3.2727	0.1	3698.5
7015	8.8186	3.4545	0.1	3699.
7016	8.8186	3.6364	0.1	3699.7
7017	8.8186	3.8182	0.1	3700.7
7018	8.8186	4.	0.1	3701.9
7019	8.8186	4.1818	0.1	3703.2
7020	8.8186	4.3636	0.1	3704.8
7021	8.8186	4.5455	0.1	3706.6
7022	8.8186	4.7273	0.1	3708.5
7023	8.8186	4.9091	0.1	3710.6
7024	8.8186	5.0909	0.1	3712.9
7025	8.8186	5.2727	0.1	3715.3
7026	8.8186	5.4545	0.1	3717.8
7027	8.8186	5.6364	0.1	3720.4
7028	8.8186	5.8182	0.1	3723.9
7029	9.0023	0.18182	0.1	3670.
7030	9.0023	0.36364	0.1	3666.6
7031	9.0023	0.54545	0.1	3664.2
7032	9.0023	0.72727	0.1	3661.9
7033	9.0023	0.90909	0.1	3659.7
7034	9.0023	1.0909	0.1	3657.7
7035	9.0023	1.2727	0.1	3655.7
7036	9.0023	1.4545	0.1	3654.
7037	9.0023	1.6364	0.1	3652.4
7038	9.0023	1.8182	0.1	3650.9
7039	9.0023	2.	0.1	3649.7
7040	9.0023	2.1818	0.1	3648.6
7041	9.0023	2.3636	0.1	3647.7
7042	9.0023	2.5455	0.1	3647.1
7043	9.0023	2.7273	0.1	3646.6
7044	9.0023	2.9091	0.1	3646.4
7045	9.0023	3.0909	0.1	3646.4
7046	9.0023	3.2727	0.1	3646.6
7047	9.0023	3.4545	0.1	3647.1
7048	9.0023	3.6364	0.1	3647.7
7049	9.0023	3.8182	0.1	3648.6
7050	9.0023	4.	0.1	3649.7
7051	9.0023	4.1818	0.1	3650.9
7052	9.0023	4.3636	0.1	3652.4
7053	9.0023	4.5455	0.1	3654.
7054	9.0023	4.7273	0.1	3655.7
7055	9.0023	4.9091	0.1	3657.7
7056	9.0023	5.0909	0.1	3659.7
7057	9.0023	5.2727	0.1	3661.9
7058	9.0023	5.4545	0.1	3664.2
7059	9.0023	5.6364	0.1	3666.6
7060	9.0023	5.8182	0.1	3670.
7061	9.186	0.18182	0.1	3616.3
7062	9.186	0.36364	0.1	3613.1
7063	9.186	0.54545	0.1	3610.8
7064	9.186	0.72727	0.1	3608.7
7065	9.186	0.90909	0.1	3606.8
7066	9.186	1.0909	0.1	3604.9
7067	9.186	1.2727	0.1	3603.2
7068	9.186	1.4545	0.1	3601.5
7069	9.186	1.6364	0.1	3600.1
7070	9.186	1.8182	0.1	3598.8
7071	9.186	2.	0.1	3597.6
7072	9.186	2.1818	0.1	3596.7
7073	9.186	2.3636	0.1	3595.9
7074	9.186	2.5455	0.1	3595.3
7075	9.186	2.7273	0.1	3594.9
7076	9.186	2.9091	0.1	3594.7
7077	9.186	3.0909	0.1	3594.7
7078	9.186	3.2727	0.1	3594.9
7079	9.186	3.4545	0.1	3595.3
7080	9.186	3.6364	0.1	3595.9
7081	9.186	3.8182	0.1	3596.7
7082	9.186	4.	0.1	3597.6
7083	9.186	4.1818	0.1	3598.8
7084	9.186	4.3636	0.1	3600.1
7085	9.186	4.5455	0.1	3601.5
7086	9.186	4.7273	0.1	3603.2
7087	9.186	4.9091	0.1	3604.9
7088	9.186	5.0909	0.1	3606.8
7089	9.186	5.2727	0.1	3608.7
7090	9.186	5.4545	0.1	3610.8
7091	9.186	5.6364	0.1	3613.1
7092	9.186	5.8182	0.1	3616.3
7093	9.3698	0.18182	0.1	3562.8
7094	9.3698	0.36364	0.1	3559.7
7095	9.3698	0.54545	0.1	3557.7
7096	9.3698	0.72727	0.1	3555.8
7097	9.3698	0.90909	0.1	3554.
7098	9.3698	1.0909	0.1	3552.3
7099	9.3698	1.2727	0.1	3550.8
7100	9.3698	1.4545	0.1	3549.3
7101	9.3698	1.6364	0.1	3548.
7102	9.3698	1.8182	0.1	3546.8
7103	9.3698	2.	0.1	3545.8
7104	9.3698	2.1818	0.1	3544.9
7105	9.3698	2.3636	0.1	3544.2
7106	9.3698	2.5455	0.1	3543.7
7107	9.3698	2.7273	0.1	3543.3
7108	9.3698	2.9091	0.1	3543.1
7109	9.3698	3.0909	0.1	3543.1
7110	9.3698	3.2727	0.1	3543.3
7111	9.3698	3.4545	0.1	3543.7
7112	9.3698	3.6364	0.1	3544.2
7113	9.3698	3.8182	0.1	3544.9
7114	9.3698	4.	0.1	3545.8
7115	9.3698	4.1818	0.1	3546.8
7116	9.3698	4.3636	0.1	3548.
7117	9.3698	4.5455	0.1	3549.3
7118	9.3698	4.7273	0.1	3550.8
7119	9.3698	4.9091	0.1	3552.3
7120	9.3698	5.0909	0.1	3554.
7121	9.3698	5.2727	0.1	3555.8
7122	9.3698	5.4545	0.1	3557.7
7123	9.3698	5.6364	0.1	3559.7
7124	9.3698	5.8182	0.1	3562.8
7125	9.5535	0.18182	0.1	3509.5
7126	9.5535	0.36364	0.1	3506.6
7127	9.5535	0.54545	0.1	3504.7
7128	9.5535	0.72727	0.1	3503.
7129	9.5535	0.90909	0.1	3501.4
7130	9.5535	1.0909	0.1	3499.9
7131	9.5535	1.2727	0.1	3498.5
7132	9.5535	1.4545	0.1	3497.3
7133	9.5535	1.6364	0.1	3496.1
7134	9.5535	1.8182	0.1	3495.
7135	9.5535	2.	0.1	3494.1
7136	9.5535	2.1818	0.1	3493.3
7137	9.5535	2.3636	0.1	3492.7
7138	9.5535	2.5455	0.1	3492.2
7139	9.5535	2.7273	0.1	3491.9
7140	9.5535	2.9091	0.1	3491.7
7141	9.5535	3.0909	0.1	3491.7
7142	9.5535	3.2727	0.1	3491.9
7143	9.5535	3.4545	0.1	3492.2
7144	9.5535	3.6364	0.1	3492.7
7145	9.5535	3.8182	0.1	3493.3
7146	9.5535	4.	0.1	3494.1
7147	9.5535	4.1818	0.1	3495.
7148	9.5535	4.3636	0.1	3496.1
7149	9.5535	4.5455	0.1	3497.3
7150	9.5535	4.7273	0.1	3498.5
7151	9.5535	4.9091	0.1	3499.9
7152	9.5535	5.0909	0.1	3501.4
7153	9.5535	5.2727	0.1	3503.
7154	9.5535	5.4545	0.1	3504.7
7155	9.5535	5.6364	0.1	3506.6
7156	9.5535	5.8182	0.1	3509.5
7157	9.7372	0.18182	0.1	3456.3
7158	9.7372	0.36364	0.1	3453.6
7159	9.7372	0.54545	0.1	3452.
7160	9.7372	0.72727	0.1	3450.5
7161	9.7372	0.90909	0.1	3449.1
7162	9.7372	1.0909	0.1	3447.7
7163	9.7372	1.2727	0.1	3446.5
7164	9.7372	1.4545	0.1	3445.4
7165	9.7372	1.6364	0.1	3444.4
7166	9.7372	1.8182	0.1	3443.5
7167	9.7372	2.	0.1	3442.6
7168	9.7372	2.1818	0.1	3442.
7169	9.7372	2.3636	0.1	3441.4
7170	9.7372	2.5455	0.1	3441.
7171	9.7372	2.7273	0.1	3440.7
7172	9.7372	2.9091	0.1	3440.5
7173	9.7372	3.0909	0.1	3440.5
7174	9.7372	3.2727	0.1	3440.7
7175	9.7372	3.4545	0.1	3441.
7176	9.7372	3.6364	0.1	3441.4
7177	9.7372	3.8182	0.1	3442.
7178	9.7372	4.	0.1	3442.6
7179	9.7372	4.1818	0.1	3443.5
7180	9.7372	4.3636	0.1	3444.4
7181	9.7372	4.5455	0.1	3445.4
7182	9.7372	4.7273	0.1	3446.5
7183	9.7372	4.9091	0.1	3447.7
7184	9.7372	5.0909	0.1	3449.1
7185	9.7372	5.2727	0.1	3450.5
7186	9.7372	5.4545	0.1	3452.
7187	9.7372	5.6364	0.1	3453.6
7188	9.7372	5.8182	0.1	3456.3
7189	9.9209	0.18182	0.1	3403.4
7190	9.9209	0.36364	0.1	3400.8
7191	9.9209	0.54545	0.1	3399.4
7192	9.9209	0.72727	0.1	3398.1
7193	9.9209	0.90909	0.1	3396.9
7194	9.9209	1.0909	0.1	3395.7
7195	9.9209	1.2727	0.1	3394.7
7196	9.9209	1.4545	0.1	3393.7
7197	9.9209	1.6364	0.1	3392.9
7198	9.9209	1.8182	0.1	3392.1
7199	9.9209	2.	0.1	3391.4
7200	9.9209	2.1818	0.1	3390.8
7201	9.9209	2.3636	0.1	3390.3
7202	9.9209	2.5455	0.1	3389.9
7203	9.9209	2.7273	0.1	3389.7
7204	9.9209	2.9091	0.1	3389.6
7205	9.9209	3.0909	0.1	3389.6
7206	9.9209	3.2727	0.1	3389.7
7207	9.9209	3.4545	0.1	3389.9
7208	9.9209	3.6364	0.1	3390.3
7209	9.9209	3.8182	0.1	3390.8
7210	9.9209	4.	0.1	3391.4
7211	9.9209	4.1818	0.1	3392.1
7212	9.9209	4.3636	0.1	3392.9
7213	9.9209	4.5455	0.1	3393.7
7214	9.9209	4.7273	0.1	3394.7
7215	9.9209	4.9091	0.1	3395.7
7216	9.9209	5.0909	0.1	3396.9
7217	9.9209	5.2727	0.1	3398.1
7218	9.9209	5.4545	0.1	3399.4
7219	9.9209	5.6364	0.1	3400.8
7220	9.9209	5.8182	0.1	3403.4
7221	10.105	0.18182	0.1	3350.5
7222	10.105	0.36364	0.1	3348.2
7223	10.105	0.54545	0.1	3346.9
7224	10.105	0.72727	0.1	3345.8
7225	10.105	0.90909	0.1	3344.8
7226	10.105	1.0909	0.1	3343.9
7227	10.105	1.2727	0.1	3343.
7228	10.105	1.4545	0.1	3342.3
7229	10.105	1.6364	0.1	3341.5
7230	10.105	1.8182	0.1	3340.9
7231	10.105	2.	0.1	3340.3
7232	10.105	2.1818	0.1	3339.8
7233	10.105	2.3636	0.1	3339.4
7234	10.105	2.5455	0.1	3339.1
7235	10.105	2.7273	0.1	3338.9
7236	10.105	2.9091	0.1	3338.8
7237	10.105	3.0909	0.1	3338.8
7238	10.105	3.2727	0.1	3338.9
7239	10.105	3.4545	0.1	3339.1
7240	10.105	3.6364	0.1	3339.4
7241	10.105	3.8182	0.1	3339.8
7242	10.105	4.	0.1	3340.3
7243	10.105	4.1818	0.1	3340.9
7244	10.105	4.3636	0.1	3341.5
7245	10.105	4.5455	0.1	3342.3
7246	10.105	4.7273	0.1	3343.
7247	10.105	4.9091	0.1	3343.9
7248	10.105	5.0909	0.1	3344.8
7249	10.105	5.2727	0.1	3345.8
7250	10.105	5.4545	0.1	3346.9
7251	10.105	5.6364	0.1	3348.2
7252	10.105	5.8182	0.1	3350.5
7253	10.288	0.18182	0.1	3297.8
7254	10.288	0.36364	0.1	3295.6
7255	10.288	0.54545	0.1	3294.6
7256	10.288	0.72727	0.1	3293.7
7257	10.288	0.90909	0.1	3292.9
7258	10.288	1.0909	0.1	3292.2
7259	10.288	1.2727	0.1	3291.6
7260	10.288	1.4545	0.1	3291.
7261	10.288	1.6364	0.1	3290.4
7262	10.288	1.8182	0.1	3289.9
7263	10.288	2.	0.1	3289.5
7264	10.288	2.1818	0.1	3289.1
7265	10.288	2.3636	0.1	3288.8
7266	10.288	2.5455	0.1	3288.6
7267	10.288	2.7273	0.1	3288.4
7268	10.288	2.9091	0.1	3288.3
7269	10.288	3.0909	0.1	3288.3
7270	10.288	3.2727	0.1	3288.4
7271	10.288	3.4545	0.1	3288.6
7272	10.288	3.6364	0.1	3288.8
7273	10.288	3.8182	0.1	3289.1
7274	10.288	4.	0.1	3289.5
7275	10.288	4.1818	0.1	3289.9
7276	10.288	4.3636	0.1	3290.4
7277	10.288	4.5455	0.1	3291.
7278	10.288	4.7273	0.1	3291.6
7279	10.288	4.9091	0.1	3292.2
7280	10.288	5.0909	0.1	3292.9
7281	10.288	5.2727	0.1	3293.7
7282	10.288	5.4545	0.1	3294.6
7283	10.288	5.6364	0.1	3295.6
7284	10.288	5.8182	0.1	3297.8
7285	10.472	0.18182	0.1	3245.1
7286	10.472	0.36364	0.1	3243.2
7287	10.472	0.54545	0.1	3242.4
7288	10.472	0.72727	0.1	3241.7
7289	10.472	0.90909	0.1	3241.2
7290	10.472	1.0909	0.1	3240.7
7291	10.472	1.2727	0.1	3240.3
7292	10.472	1.4545	0.1	3239.9
7293	10.472	1.6364	0.1	3239.5
7294	10.472	1.8182	0.1	3239.2
7295	10.472	2.	0.1	3238.9
7296	10.472	2.1818	0.1	3238.7
7297	10.472	2.3636	0.1	3238.5
7298	10.472	2.5455	0.1	3238.3
7299	10.472	2.7273	0.1	3238.2
7300	10.472	2.9091	0.1	3238.1
7301	10.472	3.0909	0.1	3238.1
7302	10.472	3.2727	0.1	3238.2
7303	10.472	3.4545	0.1	3238.3
7304	10.472	3.6364	0.1	3238.5
7305	10.472	3.8182	0.1	3238.7
7306	10.472	4.	0.1	3238.9
7307	10.472	4.1818	0.1	3239.2
7308	10.472	4.3636	0.1	3239.5
7309	10.472	4.5455	0.1	3239.9
7310	10.472	4.7273	0.1	3240.3
7311	10.472	4.9091	0.1	3240.7
7312	10.472	5.0909	0.1	3241.2
7313	10.472	5.2727	0.1	3241.7
7314	10.472	5.4545	0.1	3242.4
7315	10.472	5.6364	0.1	3243.2
7316	10.472	5.8182	0.1	3245.1
7317	10.656	0.18182	0.1	3192.5
7318	10.656	0.36364	0.1	3190.8
7319	10.656	0.54545	0.1	3190.2
7320	10.656	0.72727	0.1	3189.8
7321	10.656	0.90909	0.1	3189.6
7322	10.656	1.0909	0.1	3189.3
7323	10.656	1.2727	0.1	3189.2
7324	10.656	1.4545	0.1	3189.
7325	10.656	1.6364	0.1	3188.9
7326	10.656	1.8182	0.1	3188.7
7327	10.656	2.	0.1	3188.6
7328	10.656	2.1818	0.1	3188.5
7329	10.656	2.3636	0.1	3188.4
7330	10.656	2.5455	0.1	3188.3
7331	10.656	2.7273	0.1	3188.2
7332	10.656	2.9091	0.1	3188.2
7333	10.656	3.0909	0.1	3188.2
7334	10.656	3.2727	0.1	3188.2
7335	10.656	3.4545	0.1	3188.3
7336	10.656	3.6364	0.1	3188.4
7337	10.656	3.8182	0.1	3188.5
7338	10.656	4.	0.1	3188.6
7339	10.656	4.1818	0.1	3188.7
7340	10.656	4.3636	0.1	3188.9
7341	10.656	4.5455	0.1	3189.
7342	10.656	4.7273	0.1	3189.2
7343	10.656	4.9091	0.1	3189.3
7344	10.656	5.0909	0.1	3189.6
7345	10.656	5.2727	0.1	3189.8
7346	10.656	5.4545	0.1	3190.2
7347	10.656	5.6364	0.1	3190.8
7348	10.656	5.8182	0.1	3192.5
7349	10.84	0.18182	0.1	3139.8
7350	10.84	0.36364	0.1	3138.3
7351	10.84	0.54545	0.1	3138.1
7352	10.84	0.72727	0.1	3138.
7353	10.84	0.90909	0.1	3138.
7354	10.84	1.0909	0.1	3138.1
7355	10.84	1.2727	0.1	3138.2
7356	10.84	1.4545	0.1	3138.3
7357	10.84	1.6364	0.1	3138.4
7358	10.84	1.8182	0.1	3138.5
7359	10.84	2.	0.1	3138.6
7360	10.84	2.1818	0.1	3138.6
7361	10.84	2.3636	0.1	3138.7
7362	10.84	2.5455	0.1	3138.7
7363	10.84	2.7273	0.1	3138.7
7364	10.84	2.9091	0.1	3138.7
7365	10.84	3.0909	0.1	3138.7
7366	10.84	3.2727	0.1	3138.7
7367	10.84	3.4545	0.1	3138.7
7368	10.84	3.6364	0.1	3138.7
7369	10.84	3.8182	0.1	3138.6
7370	10.84	4.	0.1	3138.6
7371	10.84	4.1818	0.1	3138.5
7372	10.84	4.3636	0.1	3138.4
7373	10.84	4.5455	0.1	3138.3
7374	10.84	4.7273	0.1	3138.2
7375	10.84	4.9091	0.1	3138.1
7376	10.84	5.0909	0.1	3138.
7377	10.84	5.2727	0.1	3138.
7378	10.84	5.4545	0.1	3138.1
7379	10.84	5.6364	0.1	3138.3
7380	10.84	5.8182	0.1	3139.8
7381	11.023	0.18182	0.1	3086.9
7382	11.023	0.36364	0.1	3085.8
7383	11.023	0.54545	0.1	3085.9
7384	11.023	0.72727	0.1	3086.1
7385	11.023	0.90909	0.1	3086.5
7386	11.023	1.0909	0.1	3086.9
7387	11.023	1.2727	0.1	3087.4
7388	11.023	1.4545	0.1	3087.8
7389	11.023	1.6364	0.1	3088.2
7390	11.023	1.8182	0.1	3088.6
7391	11.023	2.	0.1	3088.9
7392	11.023	2.1818	0.1	3089.1
7393	11.023	2.3636	0.1	3089.3
7394	11.023	2.5455	0.1	3089.4
7395	11.023	2.7273	0.1	3089.5
7396	11.023	2.9091	0.1	3089.6
7397	11.023	3.0909	0.1	3089.6
7398	11.023	3.2727	0.1	3089.5
7399	11.023	3.4545	0.1	3089.4
7400	11.023	3.6364	0.1	3089.3
7401	11.023	3.8182	0.1	3089.1
7402	11.023	4.	0.1	3088.9
7403	11.023	4.1818	0.1	3088.6
7404	11.023	4.3636	0.1	3088.2
7405	11.023	4.5455	0.1	3087.8
7406	11.023	4.7273	0.1	3087.4
7407	11.023	4.9091	0.1	3086.9
7408	11.023	5.0909	0.1	3086.5
7409	11.023	5.2727	0.1	3086.1
7410	11.023	5.4545	0.1	3085.9
7411	11.023	5.6364	0.1	3085.8
7412	11.023	5.8182	0.1	3086.9
7413	11.207	0.18182	0.1	3033.9
7414	11.207	0.36364	0.1	3033.1
7415	11.207	0.54545	0.1	3033.6
7416	11.207	0.72727	0.1	3034.2
7417	11.207	0.90909	0.1	3035.
7418	11.207	1.0909	0.1	3035.9
7419	11.207	1.2727	0.1	3036.7
7420	11.207	1.4545	0.1	3037.5
7421	11.207	1.6364	0.1	3038.3
7422	11.207	1.8182	0.1	3038.9
7423	11.207	2.	0.1	3039.5
7424	11.207	2.1818	0.1	3040.
7425	11.207	2.3636	0.1	3040.4
7426	11.207	2.5455	0.1	3040.6
7427	11.207	2.7273	0.1	3040.8
7428	11.207	2.9091	0.1	3040.9
7429	11.207	3.0909	0.1	3040.9
7430	11.207	3.2727	0.1	3040.8
7431	11.207	3.4545	0.1	3040.6
7432	11.207	3.6364	0.1	3040.4
7433	11.207	3.8182	0.1	3040.
7434	11.207	4.	0.1	3039.5
7435	11.207	4.1818	0.1	3038.9
7436	11.207	4.3636	0.1	3038.3
7437	11.207	4.5455	0.1	3037.5
7438	11.207	4.7273	0.1	3036.7
7439	11.207	4.9091	0.1	3035.9
7440	11.207	5.0909	0.1	3035.
7441	11.207	5.2727	0.1	3034.2
7442	11.207	5.4545	0.1	3033.6
7443	11.207	5.6364	0.1	3033.1
7444	11.207	5.8182	0.1	3033.9
7445	11.391	0.18182	0.1	2980.6
7446	11.391	0.36364	0.1	2980.2
7447	11.391	0.54545	0.1	2981.1
7448	11.391	0.72727	0.1	2982.2
7449	11.391	0.90909	0.1	2983.5
7450	11.391	1.0909	0.1	2984.8
7451	11.391	1.2727	0.1	2986.1
7452	11.391	1.4545	0.1	2987.4
7453	11.391	1.6364	0.1	2988.6
7454	11.391	1.8182	0.1	2989.6
7455	11.391	2.	0.1	2990.6
7456	11.391	2.1818	0.1	2991.3
7457	11.391	2.3636	0.1	2991.9
7458	11.391	2.5455	0.1	2992.4
7459	11.391	2.7273	0.1	2992.7
7460	11.391	2.9091	0.1	2992.8
7461	11.391	3.0909	0.1	2992.8
7462	11.391	3.2727	0.1	2992.7
7463	11.391	3.4545	0.1	2992.4
7464	11.391	3.6364	0.1	2991.9
7465	11.391	3.8182	0.1	2991.3
7466	11.391	4.	0.1	2990.6
7467	11.391	4.1818	0.1	2989.6
7468	11.391	4.3636	0.1	2988.6
7469	11.391	4.5455	0.1	2987.4
7470	11.391	4.7273	0.1	2986.1
7471	11.391	4.9091	0.1	2984.8
7472	11.391	5.0909	0.1	2983.5
7473	11.391	5.2727	0.1	2982.2
7474	11.391	5.4545	0.1	2981.1
7475	11.391	5.6364	0.1	2980.2
7476	11.391	5.8182	0.1	2980.6
7477	11.574	0.18182	0.1	2926.8
7478	11.574	0.36364	0.1	2926.9
7479	11.574	0.54545	0.1	2928.3
7480	11.574	0.72727	0.1	2930.
7481	11.574	0.90909	0.1	2931.9
7482	11.574	1.0909	0.1	2933.8
7483	11.574	1.2727	0.1	2935.7
7484	11.574	1.4545	0.1	2937.5
7485	11.574	1.6364	0.1	2939.2
7486	11.574	1.8182	0.1	2940.7
7487	11.574	2.	0.1	2942.1
7488	11.574	2.1818	0.1	2943.2
7489	11.574	2.3636	0.1	2944.1
7490	11.574	2.5455	0.1	2944.8
7491	11.574	2.7273	0.1	2945.3
7492	11.574	2.9091	0.1	2945.5
7493	11.574	3.0909	0.1	2945.5
7494	11.574	3.2727	0.1	2945.3
7495	11.574	3.4545	0.1	2944.8
7496	11.574	3.6364	0.1	2944.1
7497	11.574	3.8182	0.1	2943.2
7498	11.574	4.	0.1	2942.1
7499	11.574	4.1818	0.1	2940.7
7500	11.574	4.3636	0.1	2939.2
7501	11.574	4.5455	0.1	2937.5
7502	11.574	4.7273	0.1	2935.7
7503	11.574	4.9091	0.1	2933.8
7504	11.574	5.0909	0.1	2931.9
7505	11.574	5.2727	0.1	2930.
7506	11.574	5.4545	0.1	2928.3
7507	11.574	5.6364	0.1	2926.9
7508	11.574	5.8182	0.1	2926.8
7509	11.758	0.18182	0.1	2872.4
7510	11.758	0.36364	0.1	2873.1
7511	11.758	0.54545	0.1	2875.1
7512	11.758	0.72727	0.1	2877.5
7513	11.758	0.90909	0.1	2880.
7514	11.758	1.0909	0.1	2882.7
7515	11.758	1.2727	0.1	2885.3
7516	11.758	1.4545	0.1	2887.8
7517	11.758	1.6364	0.1	2890.1
7518	11.758	1.8182	0.1	2892.3
7519	11.758	2.	0.1	2894.1
7520	11.758	2.1818	0.1	2895.7
7521	11.758	2.3636	0.1	2897.
7522	11.758	2.5455	0.1	2898.
7523	11.758	2.7273	0.1	2898.6
7524	11.758	2.9091	0.1	2898.9
7525	11.758	3.0909	0.1	2898.9
7526	11.758	3.2727	0.1	2898.6
7527	11.758	3.4545	0.1	2898.
7528	11.758	3.6364	0.1	2897.
7529	11.758	3.8182	0.1	2895.7
7530	11.758	4.	0.1	2894.1
7531	11.758	4.1818	0.1	2892.3
7532	11.758	4.3636	0.1	2890.1
7533	11.758	4.5455	0.1	2887.8
7534	11.758	4.7273	0.1	2885.3
7535	11.758	4.9091	0.1	2882.7
7536	11.758	5.0909	0.1	2880.
7537	11.758	5.2727	0.1	2877.5
7538	11.758	5.4545	0.1	2875.1
7539	11.758	5.6364	0.1	2873.1
7540	11.758	5.8182	0.1	2872.4
7541	11.942	0.18182	0.1	2817.2
7542	11.942	0.36364	0.1	2818.5
7543	11.942	0.54545	0.1	2821.3
7544	11.942	0.72727	0.1	2824.4
7545	11.942	0.90909	0.1	2827.9
7546	11.942	1.0909	0.1	2831.4
7547	11.942	1.2727	0.1	2834.9
7548	11.942	1.4545	0.1	2838.2
7549	11.942	1.6364	0.1	2841.4
7550	11.942	1.8182	0.1	2844.3
7551	11.942	2.	0.1	2846.8
7552	11.942	2.1818	0.1	2849.
7553	11.942	2.3636	0.1	2850.8
7554	11.942	2.5455	0.1	2852.1
7555	11.942	2.7273	0.1	2853.
7556	11.942	2.9091	0.1	2853.4
7557	11.942	3.0909	0.1	2853.4
7558	11.942	3.2727	0.1	2853.
7559	11.942	3.4545	0.1	2852.1
7560	11.942	3.6364	0.1	2850.8
7561	11.942	3.8182	0.1	2849.
7562	11.942	4.	0.1	2846.8
7563	11.942	4.1818	0.1	2844.3
7564	11.942	4.3636	0.1	2841.4
7565	11.942	4.5455	0.1	2838.2
7566	11.942	4.7273	0.1	2834.9
7567	11.942	4.9091	0.1	2831.4
7568	11.942	5.0909	0.1	2827.9
7569	11.942	5.2727	0.1	2824.4
7570	11.942	5.4545	0.1	2821.3
7571	11.942	5.6364	0.1	2818.5
7572	11.942	5.8182	0.1	2817.2
7573	12.126	0.18182	0.1	2760.9
7574	12.126	0.36364	0.1	2763.
7575	12.126	0.54545	0.1	2766.6
7576	12.126	0.72727	0.1	2770.8
7577	12.126	0.90909	0.1	2775.2
7578	12.126	1.0909	0.1	2779.8
7579	12.126	1.2727	0.1	2784.4
7580	12.126	1.4545	0.1	2788.9
7581	12.126	1.6364	0.1	2793.1
7582	12.126	1.8182	0.1	2796.9
7583	12.126	2.	0.1	2800.3
7584	12.126	2.1818	0.1	2803.2
7585	12.126	2.3636	0.1	2805.6
7586	12.126	2.5455	0.1	2807.4
7587	12.126	2.7273	0.1	2808.6
7588	12.126	2.9091	0.1	2809.2
7589	12.126	3.0909	0.1	2809.2
7590	12.126	3.2727	0.1	2808.6
7591	12.126	3.4545	0.1	2807.4
7592	12.126	3.6364	0.1	2805.6
7593	12.126	3.8182	0.1	2803.2
7594	12.126	4.	0.1	2800.3
7595	12.126	4.1818	0.1	2796.9
7596	12.126	4.3636	0.1	2793.1
7597	12.126	4.5455	0.1	2788.9
7598	12.126	4.7273	0.1	2784.4
7599	12.126	4.9091	0.1	2779.8
7600	12.126	5.0909	0.1	2775.2
7601	12.126	5.2727	0.1	2770.8
7602	12.126	5.4545	0.1	2766.6
7603	12.126	5.6364	0.1	2763.
7604	12.126	5.8182	0.1	2760.9
7605	12.309	0.18182	0.1	2703.2
7606	12.309	0.36364	0.1	2706.2
7607	12.309	0.54545	0.1	2710.9
7608	12.309	0.72727	0.1	2716.2
7609	12.309	0.90909	0.1	2722.
7610	12.309	1.0909	0.1	2727.9
7611	12.309	1.2727	0.1	2733.9
7612	12.309	1.4545	0.1	2739.7
7613	12.309	1.6364	0.1	2745.2
7614	12.309	1.8182	0.1	2750.2
7615	12.309	2.	0.1	2754.7
7616	12.309	2.1818	0.1	2758.6
7617	12.309	2.3636	0.1	2761.7
7618	12.309	2.5455	0.1	2764.1
7619	12.309	2.7273	0.1	2765.8
7620	12.309	2.9091	0.1	2766.6
7621	12.309	3.0909	0.1	2766.6
7622	12.309	3.2727	0.1	2765.8
7623	12.309	3.4545	0.1	2764.1
7624	12.309	3.6364	0.1	2761.7
7625	12.309	3.8182	0.1	2758.6
7626	12.309	4.	0.1	2754.7
7627	12.309	4.1818	0.1	2750.2
7628	12.309	4.3636	0.1	2745.2
7629	12.309	4.5455	0.1	2739.7
7630	12.309	4.7273	0.1	2733.9
7631	12.309	4.9091	0.1	2727.9
7632	12.309	5.0909	0.1	2722.
7633	12.309	5.2727	0.1	2716.2
7634	12.309	5.4545	0.1	2710.9
7635	12.309	5.6364	0.1	2706.2
7636	12.309	5.8182	0.1	2703.2
7637	12.493	0.18182	0.1	2643.6
7638	12.493	0.36364	0.1	2647.8
7639	12.493	0.54545	0.1	2653.7
7640	12.493	0.72727	0.1	2660.5
7641	12.493	0.90909	0.1	2667.8
7642	12.493	1.0909	0.1	2675.4
7643	12.493	1.2727	0.1	2683.1
7644	12.493	1.4545	0.1	2690.6
7645	12.493	1.6364	0.1	2697.7
7646	12.493	1.8182	0.1	2704.3
7647	12.493	2.	0.1	2710.2
7648	12.493	2.1818	0.1	2715.3
7649	12.493	2.3636	0.1	2719.5
7650	12.493	2.5455	0.1	2722.7
7651	12.493	2.7273	0.1	2724.8
7652	12.493	2.9091	0.1	2725.9
7653	12.493	3.0909	0.1	2725.9
7654	12.493	3.2727	0.1	2724.8
7655	12.493	3.4545	0.1	2722.7
7656	12.493	3.6364	0.1	2719.5
7657	12.493	3.8182	0.1	2715.3
7658	12.493	4.	0.1	2710.2
7659	12.493	4.1818	0.1	2704.3
7660	12.493	4.3636	0.1	2697.7
7661	12.493	4.5455	0.1	2690.6
7662	12.493	4.7273	0.1	2683.1
7663	12.493	4.9091	0.1	2675.4
7664	12.493	5.0909	0.1	2667.8
7665	12.493	5.2727	0.1	2660.5
7666	12.493	5.4545	0.1	2653.7
7667	12.493	5.6364	0.1	2647.8
7668	12.493	5.8182	0.1	2643.6
7669	12.677	0.18182	0.1	2581.7
7670	12.677	0.36364	0.1	2587.2
7671	12.677	0.54545	0.1	2594.7
7672	12.677	0.72727	0.1	2603.2
7673	12.677	0.90909	0.1	2612.5
7674	12.677	1.0909	0.1	2622.2
7675	12.677	1.2727	0.1	2632.
7676	12.677	1.4545	0.1	2641.6
7677	12.677	1.6364	0.1	2650.9
7678	12.677	1.8182	0.1	2659.4
7679	12.677	2.	0.1	2667.1
7680	12.677	2.1818	0.1	2673.8
7681	12.677	2.3636	0.1	2679.2
7682	12.677	2.5455	0.1	2683.4
7683	12.677	2.7273	0.1	2686.3
7684	12.677	2.9091	0.1	2687.7
7685	12.677	3.0909	0.1	2687.7
7686	12.677	3.2727	0.1	2686.3
7687	12.677	3.4545	0.1	2683.4
7688	12.677	3.6364	0.1	2679.2
7689	12.677	3.8182	0.1	2673.8
7690	12.677	4.	0.1	2667.1
7691	12.677	4.1818	0.1	2659.4
7692	12.677	4.3636	0.1	2650.9
7693	12.677	4.5455	0.1	2641.6
7694	12.677	4.7273	0.1	2632.
7695	12.677	4.9091	0.1	2622.2
7696	12.677	5.0909	0.1	2612.5
7697	12.677	5.2727	0.1	2603.2
7698	12.677	5.4545	0.1	2594.7
7699	12.677	5.6364	0.1	2587.2
7700	12.677	5.8182	0.1	2581.7
7701	12.86	0.18182	0.1	2516.8
7702	12.86	0.36364	0.1	2524.
7703	12.86	0.54545	0.1	2533.3
7704	12.86	0.72727	0.1	2544.
7705	12.86	0.90909	0.1	2555.6
7706	12.86	1.0909	0.1	2567.9
7707	12.86	1.2727	0.1	2580.4
7708	12.86	1.4545	0.1	2592.7
7709	12.86	1.6364	0.1	2604.6
7710	12.86	1.8182	0.1	2615.7
7711	12.86	2.	0.1	2625.7
7712	12.86	2.1818	0.1	2634.3
7713	12.86	2.3636	0.1	2641.5
7714	12.86	2.5455	0.1	2647.
7715	12.86	2.7273	0.1	2650.8
7716	12.86	2.9091	0.1	2652.7
7717	12.86	3.0909	0.1	2652.7
7718	12.86	3.2727	0.1	2650.8
7719	12.86	3.4545	0.1	2647.
7720	12.86	3.6364	0.1	2641.5
7721	12.86	3.8182	0.1	2634.3
7722	12.86	4.	0.1	2625.7
7723	12.86	4.1818	0.1	2615.7
7724	12.86	4.3636	0.1	2604.6
7725	12.86	4.5455	0.1	2592.7
7726	12.86	4.7273	0.1	2580.4
7727	12.86	4.9091	0.1	2567.9
7728	12.86	5.0909	0.1	2555.6
7729	12.86	5.2727	0.1	2544.
7730	12.86	5.4545	0.1	2533.3
7731	12.86	5.6364	0.1	2524.
7732	12.86	5.8182	0.1	2516.8
7733	13.044	0.18182	0.1	2448.2
7734	13.044	0.36364	0.1	2457.3
7735	13.044	0.54545	0.1	2468.8
7736	13.044	0.72727	0.1	2482.1
7737	13.044	0.90909	0.1	2496.7
7738	13.044	1.0909	0.1	2512.2
7739	13.044	1.2727	0.1	2528.1
7740	13.044	1.4545	0.1	2543.9
7741	13.044	1.6364	0.1	2559.1
7742	13.044	1.8182	0.1	2573.4
7743	13.044	2.	0.1	2586.3
7744	13.044	2.1818	0.1	2597.6
7745	13.044	2.3636	0.1	2607.
7746	13.044	2.5455	0.1	2614.2
7747	13.044	2.7273	0.1	2619.1
7748	13.044	2.9091	0.1	2621.6
7749	13.044	3.0909	0.1	2621.6
7750	13.044	3.2727	0.1	2619.1
7751	13.044	3.4545	0.1	2614.2
7752	13.044	3.6364	0.1	2607.
7753	13.044	3.8182	0.1	2597.6
7754	13.044	4.	0.1	2586.3
7755	13.044	4.1818	0.1	2573.4
7756	13.044	4.3636	0.1	2559.1
7757	13.044	4.5455	0.1	2543.9
7758	13.044	4.7273	0.1	2528.1
7759	13.044	4.9091	0.1	2512.2
7760	13.044	5.0909	0.1	2496.7
7761	13.044	5.2727	0.1	2482.1
7762	13.044	5.4545	0.1	2468.8
7763	13.044	5.6364	0.1	2457.3
7764	13.044	5.8182	0.1	2448.2
7765	13.228	0.18182	0.1	2375.
7766	13.228	0.36364	0.1	2386.3
7767	13.228	0.54545	0.1	2400.5
7768	13.228	0.72727	0.1	2417.
7769	13.228	0.90909	0.1	2435.3
7770	13.228	1.0909	0.1	2454.8
7771	13.228	1.2727	0.1	2474.9
7772	13.228	1.4545	0.1	2495.
7773	13.228	1.6364	0.1	2514.5
7774	13.228	1.8182	0.1	2532.9
7775	13.228	2.	0.1	2549.6
7776	13.228	2.1818	0.1	2564.3
7777	13.228	2.3636	0.1	2576.5
7778	13.228	2.5455	0.1	2585.9
7779	13.228	2.7273	0.1	2592.3
7780	13.228	2.9091	0.1	2595.5
7781	13.228	3.0909	0.1	2595.5
7782	13.228	3.2727	0.1	2592.3
7783	13.228	3.4545	0.1	2585.9
7784	13.228	3.6364	0.1	2576.5
7785	13.228	3.8182	0.1	2564.3
7786	13.228	4.	0.1	2549.6
7787	13.228	4.1818	0.1	2532.9
7788	13.228	4.3636	0.1	2514.5
7789	13.228	4.5455	0.1	2495.
7790	13.228	4.7273	0.1	2474.9
7791	13.228	4.9091	0.1	2454.8
7792	13.228	5.0909	0.1	2435.3
7793	13.228	5.2727	0.1	2417.
7794	13.228	5.4545	0.1	2400.5
7795	13.228	5.6364	0.1	2386.3
7796	13.228	5.8182	0.1	2375.
7797	13.412	0.18182	0.1	2296.
7798	13.412	0.36364	0.1	2309.9
7799	13.412	0.54545	0.1	2327.2
7800	13.412	0.72727	0.1	2347.7
7801	13.412	0.90909	0.1	2370.4
7802	13.412	1.0909	0.1	2394.9
7803	13.412	1.2727	0.1	2420.4
7804	13.412	1.4545	0.1	2446.
7805	13.412	1.6364	0.1	2471.
7806	13.412	1.8182	0.1	2494.6
7807	13.412	2.	0.1	2516.2
7808	13.412	2.1818	0.1	2535.2
7809	13.412	2.3636	0.1	2551.
7810	13.412	2.5455	0.1	2563.3
7811	13.412	2.7273	0.1	2571.7
7812	13.412	2.9091	0.1	2575.9
7813	13.412	3.0909	0.1	2575.9
7814	13.412	3.2727	0.1	2571.7
7815	13.412	3.4545	0.1	2563.3
7816	13.412	3.6364	0.1	2551.
7817	13.412	3.8182	0.1	2535.2
7818	13.412	4.	0.1	2516.2
7819	13.412	4.1818	0.1	2494.6
7820	13.412	4.3636	0.1	2471.
7821	13.412	4.5455	0.1	2446.
7822	13.412	4.7273	0.1	2420.4
7823	13.412	4.9091	0.1	2394.9
7824	13.412	5.0909	0.1	2370.4
7825	13.412	5.2727	0.1	2347.7
7826	13.412	5.4545	0.1	2327.2
7827	13.412	5.6364	0.1	2309.9
7828	13.412	5.8182	0.1	2296.
7829	13.595	0.18182	0.1	2209.9
7830	13.595	0.36364	0.1	2226.8
7831	13.595	0.54545	0.1	2248.
7832	13.595	0.72727	0.1	2273.1
7833	13.595	0.90909	0.1	2301.4
7834	13.595	1.0909	0.1	2332.1
7835	13.595	1.2727	0.1	2364.2
7836	13.595	1.4545	0.1	2396.8
7837	13.595	1.6364	0.1	2428.7
7838	13.595	1.8182	0.1	2459.
7839	13.595	2.	0.1	2486.9
7840	13.595	2.1818	0.1	2511.4
7841	13.595	2.3636	0.1	2532.
7842	13.595	2.5455	0.1	2548.
7843	13.595	2.7273	0.1	2559.
7844	13.595	2.9091	0.1	2564.6
7845	13.595	3.0909	0.1	2564.6
7846	13.595	3.2727	0.1	2559.
7847	13.595	3.4545	0.1	2548.
7848	13.595	3.6364	0.1	2532.
7849	13.595	3.8182	0.1	2511.4
7850	13.595	4.	0.1	2486.9
7851	13.595	4.1818	0.1	2459.
7852	13.595	4.3636	0.1	2428.7
7853	13.595	4.5455	0.1	2396.8
7854	13.595	4.7273	0.1	2364.2
7855	13.595	4.9091	0.1	2332.1
7856	13.595	5.0909	0.1	2301.4
7857	13.595	5.2727	0.1	2273.1
7858	13.595	5.4545	0.1	2248.
7859	13.595	5.6364	0.1	2226.8
7860	13.595	5.8182	0.1	2209.9
7861	13.779	0.18182	0.1	2115.1
7862	13.779	0.36364	0.1	2135.5
7863	13.779	0.54545	0.1	2161.1
7864	13.779	0.72727	0.1	2191.9
7865	13.779	0.90909	0.1	2226.9
7866	13.779	1.0909	0.1	2265.4
7867	13.779	1.2727	0.1	2305.9
7868	13.779	1.4545	0.1	2347.3
7869	13.779	1.6364	0.1	2388.1
7870	13.779	1.8182	0.1	2427.
7871	13.779	2.	0.1	2462.8
7872	13.779	2.1818	0.1	2494.5
7873	13.779	2.3636	0.1	2521.2
7874	13.779	2.5455	0.1	2542.1
7875	13.779	2.7273	0.1	2556.4
7876	13.779	2.9091	0.1	2563.7
7877	13.779	3.0909	0.1	2563.7
7878	13.779	3.2727	0.1	2556.4
7879	13.779	3.4545	0.1	2542.1
7880	13.779	3.6364	0.1	2521.2
7881	13.779	3.8182	0.1	2494.5
7882	13.779	4.	0.1	2462.8
7883	13.779	4.1818	0.1	2427.
7884	13.779	4.3636	0.1	2388.1
7885	13.779	4.5455	0.1	2347.3
7886	13.779	4.7273	0.1	2305.9
7887	13.779	4.9091	0.1	2265.4
7888	13.779	5.0909	0.1	2226.9
7889	13.779	5.2727	0.1	2191.9
7890	13.779	5.4545	0.1	2161.1
7891	13.779	5.6364	0.1	2135.5
7892	13.779	5.8182	0.1	2115.1
7893	13.963	0.18182	0.1	2009.9
7894	13.963	0.36364	0.1	2034.1
7895	13.963	0.54545	0.1	2065.
7896	13.963	0.72727	0.1	2102.5
7897	13.963	0.90909	0.1	2145.8
7898	13.963	1.0909	0.1	2193.8
7899	13.963	1.2727	0.1	2244.9
7900	13.963	1.4545	0.1	2297.4
7901	13.963	1.6364	0.1	2349.5
7902	13.963	1.8182	0.1	2399.4
7903	13.963	2.	0.1	2445.5
7904	13.963	2.1818	0.1	2486.5
7905	13.963	2.3636	0.1	2521.
7906	13.963	2.5455	0.1	2548.1
7907	13.963	2.7273	0.1	2566.8
7908	13.963	2.9091	0.1	2576.4
7909	13.963	3.0909	0.1	2576.4
7910	13.963	3.2727	0.1	2566.8
7911	13.963	3.4545	0.1	2548.1
7912	13.963	3.6364	0.1	2521.
7913	13.963	3.8182	0.1	2486.5
7914	13.963	4.	0.1	2445.5
7915	13.963	4.1818	0.1	2399.4
7916	13.963	4.3636	0.1	2349.5
7917	13.963	4.5455	0.1	2297.4
7918	13.963	4.7273	0.1	2244.9
7919	13.963	4.9091	0.1	2193.8
7920	13.963	5.0909	0.1	2145.8
7921	13.963	5.2727	0.1	2102.5
7922	13.963	5.4545	0.1	2065.
7923	13.963	5.6364	0.1	2034.1
7924	13.963	5.8182	0.1	2009.9
7925	14.147	0.18182	0.1	1892.3
7926	14.147	0.36364	0.1	1920.7
7927	14.147	0.54545	0.1	1957.6
7928	14.147	0.72727	0.1	2003.1
7929	14.147	0.90909	0.1	2056.4
7930	14.147	1.0909	0.1	2116.2
7931	14.147	1.2727	0.1	2180.5
7932	14.147	1.4545	0.1	2247.2
7933	14.147	1.6364	0.1	2313.7
7934	14.147	1.8182	0.1	2377.6
7935	14.147	2.	0.1	2436.9
7936	14.147	2.1818	0.1	2489.8
7937	14.147	2.3636	0.1	2534.5
7938	14.147	2.5455	0.1	2569.7
7939	14.147	2.7273	0.1	2594.
7940	14.147	2.9091	0.1	2606.4
7941	14.147	3.0909	0.1	2606.4
7942	14.147	3.2727	0.1	2594.
7943	14.147	3.4545	0.1	2569.7
7944	14.147	3.6364	0.1	2534.5
7945	14.147	3.8182	0.1	2489.8
7946	14.147	4.	0.1	2436.9
7947	14.147	4.1818	0.1	2377.6
7948	14.147	4.3636	0.1	2313.7
7949	14.147	4.5455	0.1	2247.2
7950	14.147	4.7273	0.1	2180.5
7951	14.147	4.9091	0.1	2116.2
7952	14.147	5.0909	0.1	2056.4
7953	14.147	5.2727	0.1	2003.1
7954	14.147	5.4545	0.1	1957.6
7955	14.147	5.6364	0.1	1920.7
7956	14.147	5.8182	0.1	1892.3
7957	14.33	0.18182	0.1	1760.2
7958	14.33	0.36364	0.1	1793.1
7959	14.33	0.54545	0.1	1836.7
7960	14.33	0.72727	0.1	1891.5
7961	14.33	0.90909	0.1	1956.8
7962	14.33	1.0909	0.1	2031.1
7963	14.33	1.2727	0.1	2112.
7964	14.33	1.4545	0.1	2196.5
7965	14.33	1.6364	0.1	2281.5
7966	14.33	1.8182	0.1	2363.6
7967	14.33	2.	0.1	2440.
7968	14.33	2.1818	0.1	2508.1
7969	14.33	2.3636	0.1	2565.9
7970	14.33	2.5455	0.1	2611.3
7971	14.33	2.7273	0.1	2642.7
7972	14.33	2.9091	0.1	2658.7
7973	14.33	3.0909	0.1	2658.7
7974	14.33	3.2727	0.1	2642.7
7975	14.33	3.4545	0.1	2611.3
7976	14.33	3.6364	0.1	2565.9
7977	14.33	3.8182	0.1	2508.1
7978	14.33	4.	0.1	2440.
7979	14.33	4.1818	0.1	2363.6
7980	14.33	4.3636	0.1	2281.5
7981	14.33	4.5455	0.1	2196.5
7982	14.33	4.7273	0.1	2112.
7983	14.33	4.9091	0.1	2031.1
7984	14.33	5.0909	0.1	1956.8
7985	14.33	5.2727	0.1	1891.5
7986	14.33	5.4545	0.1	1836.7
7987	14.33	5.6364	0.1	1793.1
7988	14.33	5.8182	0.1	1760.2
7989	14.514	0.18182	0.1	1611.6
7990	14.514	0.36364	0.1	1648.9
7991	14.514	0.54545	0.1	1700.
7992	14.514	0.72727	0.1	1765.6
7993	14.514	0.90909	0.1	1845.1
7994	14.514	1.0909	0.1	1936.9
7995	14.514	1.2727	0.1	2038.3
7996	14.514	1.4545	0.1	2145.7
7997	14.514	1.6364	0.1	2254.6
7998	14.514	1.8182	0.1	2360.4
7999	14.514	2.	0.1	2458.8
8000	14.514	2.1818	0.1	2546.7
8001	14.514	2.3636	0.1	2620.9
8002	14.514	2.5455	0.1	2679.1
8003	14.514	2.7273	0.1	2719.1
8004	14.514	2.9091	0.1	2739.4
8005	14.514	3.0909	0.1	2739.4
8006	14.514	3.2727	0.1	2719.1
8007	14.514	3.4545	0.1	2679.1
8008	14.514	3.6364	0.1	2620.9
8009	14.514	3.8182	0.1	2546.7
8010	14.514	4.	0.1	2458.8
8011	14.514	4.1818	0.1	2360.4
8012	14.514	4.3636	0.1	2254.6
8013	14.514	4.5455	0.1	2145.7
8014	14.514	4.7273	0.1	2038.3
8015	14.514	4.9091	0.1	1936.9
8016	14.514	5.0909	0.1	1845.1
8017	14.514	5.2727	0.1	1765.6
8018	14.514	5.4545	0.1	1700.
8019	14.514	5.6364	0.1	1648.9
8020	14.514	5.8182	0.1	1611.6
8021	14.698	0.18182	0.1	1444.6
8022	14.698	0.36364	0.1	1486.3
8023	14.698	0.54545	0.1	1545.6
8024	14.698	0.72727	0.1	1623.3
8025	14.698	0.90909	0.1	1719.2
8026	14.698	1.0909	0.1	1831.9
8027	14.698	1.2727	0.1	1958.7
8028	14.698	1.4545	0.1	2095.
8029	14.698	1.6364	0.1	2235.1
8030	14.698	1.8182	0.1	2372.2
8031	14.698	2.	0.1	2499.9
8032	14.698	2.1818	0.1	2613.2
8033	14.698	2.3636	0.1	2708.2
8034	14.698	2.5455	0.1	2781.4
8035	14.698	2.7273	0.1	2831.
8036	14.698	2.9091	0.1	2855.8
8037	14.698	3.0909	0.1	2855.8
8038	14.698	3.2727	0.1	2831.
8039	14.698	3.4545	0.1	2781.4
8040	14.698	3.6364	0.1	2708.2
8041	14.698	3.8182	0.1	2613.2
8042	14.698	4.	0.1	2499.9
8043	14.698	4.1818	0.1	2372.2
8044	14.698	4.3636	0.1	2235.1
8045	14.698	4.5455	0.1	2095.
8046	14.698	4.7273	0.1	1958.7
8047	14.698	4.9091	0.1	1831.9
8048	14.698	5.0909	0.1	1719.2
8049	14.698	5.2727	0.1	1623.3
8050	14.698	5.4545	0.1	1545.6
8051	14.698	5.6364	0.1	1486.3
8052	14.698	5.8182	0.1	1444.6
8053	14.881	0.18182	0.1	1258.1
8054	14.881	0.36364	0.1	1304.1
8055	14.881	0.54545	0.1	1372.4
8056	14.881	0.72727	0.1	1463.7
8057	14.881	0.90909	0.1	1578.1
8058	14.881	1.0909	0.1	1714.7
8059	14.881	1.2727	0.1	1871.6
8060	14.881	1.4545	0.1	2044.7
8061	14.881	1.6364	0.1	2226.3
8062	14.881	1.8182	0.1	2406.2
8063	14.881	2.	0.1	2573.8
8064	14.881	2.1818	0.1	2720.8
8065	14.881	2.3636	0.1	2840.7
8066	14.881	2.5455	0.1	2929.8
8067	14.881	2.7273	0.1	2987.5
8068	14.881	2.9091	0.1	3015.3
8069	14.881	3.0909	0.1	3015.3
8070	14.881	3.2727	0.1	2987.5
8071	14.881	3.4545	0.1	2929.8
8072	14.881	3.6364	0.1	2840.7
8073	14.881	3.8182	0.1	2720.8
8074	14.881	4.	0.1	2573.8
8075	14.881	4.1818	0.1	2406.2
8076	14.881	4.3636	0.1	2226.3
8077	14.881	4.5455	0.1	2044.7
8078	14.881	4.7273	0.1	1871.6
8079	14.881	4.9091	0.1	1714.7
8080	14.881	5.0909	0.1	1578.1
8081	14.881	5.2727	0.1	1463.7
8082	14.881	5.4545	0.1	1372.4
8083	14.881	5.6364	0.1	1304.1
8084	14.881	5.8182	0.1	1258.1
8085	15.065	0.18182	0.1	1052.1
8086	15.065	0.36364	0.1	1102.8
8087	15.065	0.54545	0.1	1181.6
8088	15.065	0.72727	0.1	1288.2
8089	15.065	0.90909	0.1	1422.3
8090	15.065	1.0909	0.1	1584.6
8091	15.065	1.2727	0.1	1775.6
8092	15.065	1.4545	0.1	1993.9
8093	15.065	1.6364	0.1	2232.3
8094	15.065	1.8182	0.1	2474.
8095	15.065	2.	0.1	2699.7
8096	15.065	2.1818	0.1	2892.
8097	15.065	2.3636	0.1	3040.
8098	15.065	2.5455	0.1	3140.
8099	15.065	2.7273	0.1	3197.7
8100	15.065	2.9091	0.1	3223.1
8101	15.065	3.0909	0.1	3223.1
8102	15.065	3.2727	0.1	3197.7
8103	15.065	3.4545	0.1	3140.
8104	15.065	3.6364	0.1	3040.
8105	15.065	3.8182	0.1	2892.
8106	15.065	4.	0.1	2699.7
8107	15.065	4.1818	0.1	2474.
8108	15.065	4.3636	0.1	2232.3
8109	15.065	4.5455	0.1	1993.9
8110	15.065	4.7273	0.1	1775.6
8111	15.065	4.9091	0.1	1584.6
8112	15.065	5.0909	0.1	1422.3
8113	15.065	5.2727	0.1	1288.2
8114	15.065	5.4545	0.1	1181.6
8115	15.065	5.6364	0.1	1102.8
8116	15.065	5.8182	0.1	1052.1
8117	15.249	0.18182	0.1	828.22
8118	15.249	0.36364	0.1	886.43
8119	15.249	0.54545	0.1	979.85
8120	15.249	0.72727	0.1	1103.8
8121	15.249	0.90909	0.1	1257.2
8122	15.249	1.0909	0.1	1443.1
8123	15.249	1.2727	0.1	1667.7
8124	15.249	1.4545	0.1	1939.3
8125	15.249	1.6364	0.1	2255.2
8126	15.249	1.8182	0.1	2596.3
8127	15.249	2.	0.1	2919.1
8128	15.249	2.1818	0.1	3173.3
8129	15.249	2.3636	0.1	3344.7
8130	15.249	2.5455	0.1	3431.6
8131	15.249	2.7273	0.1	3465.4
8132	15.249	2.9091	0.1	3475.2
8133	15.249	3.0909	0.1	3475.2
8134	15.249	3.2727	0.1	3465.4
8135	15.249	3.4545	0.1	3431.6
8136	15.249	3.6364	0.1	3344.7
8137	15.249	3.8182	0.1	3173.3
8138	15.249	4.	0.1	2919.1
8139	15.249	4.1818	0.1	2596.3
8140	15.249	4.3636	0.1	2255.2
8141	15.249	4.5455	0.1	1939.3
8142	15.249	4.7273	0.1	1667.7
8143	15.249	4.9091	0.1	1443.1
8144	15.249	5.0909	0.1	1257.2
8145	15.249	5.2727	0.1	1103.8
8146	15.249	5.4545	0.1	979.85
8147	15.249	5.6364	0.1	886.43
8148	15.249	5.8182	0.1	828.22
8149	15.433	0.18182	0.1	590.82
8150	15.433	0.36364	0.1	667.36
8151	15.433	0.54545	0.1	783.85
8152	15.433	0.72727	0.1	926.87
8153	15.433	0.90909	0.1	1095.8
8154	15.433	1.0909	0.1	1297.3
8155	15.433	1.2727	0.1	1546.1
8156	15.433	1.4545	0.1	1863.4
8157	15.433	1.6364	0.1	2289.1
8158	15.433	1.8182	0.1	2817.3
8159	15.433	2.	0.1	3313.5
8160	15.433	2.1818	0.1	3689.4
8161	15.433	2.3636	0.1	3822.4
8162	15.433	2.5455	0.1	3816.3
8163	15.433	2.7273	0.1	3775.4
8164	15.433	2.9091	0.1	3747.5
8165	15.433	3.0909	0.1	3747.5
8166	15.433	3.2727	0.1	3775.4
8167	15.433	3.4545	0.1	3816.3
8168	15.433	3.6364	0.1	3822.4
8169	15.433	3.8182	0.1	3689.4
8170	15.433	4.	0.1	3313.5
8171	15.433	4.1818	0.1	2817.3
8172	15.433	4.3636	0.1	2289.1
8173	15.433	4.5455	0.1	1863.4
8174	15.433	4.7273	0.1	1546.1
8175	15.433	4.9091	0.1	1297.3
8176	15.433	5.0909	0.1	1095.8
8177	15.433	5.2727	0.1	926.87
8178	15.433	5.4545	0.1	783.85
8179	15.433	5.6364	0.1	667.36
8180	15.433	5.8182	0.1	590.82
8181	15.616	0.18182	0.1	363.7
8182	15.616	0.36364	0.1	495.76
8183	15.616	0.54545	0.1	648.98
8184	15.616	0.72727	0.1	813.9
8185	15.616	0.90909	0.1	996.88
8186	15.616	1.0909	0.1	1209.4
8187	15.616	1.2727	0.1	1469.8
8188	15.616	1.4545	0.1	1821.3
8189	15.616	1.6364	0.1	2324.7
8190	15.616	1.8182	0.1	3343.2
8191	15.616	2.	0.1	4687.2
8192	15.616	2.1818	0.1	4760.9
8193	15.616	2.3636	0.1	4535.5
8194	15.616	2.5455	0.1	4242.7
8195	15.616	2.7273	0.1	4068.6
8196	15.616	2.9091	0.1	3984.5
8197	15.616	3.0909	0.1	3984.5
8198	15.616	3.2727	0.1	4068.6
8199	15.616	3.4545	0.1	4242.7
8200	15.616	3.6364	0.1	4535.5
8201	15.616	3.8182	0.1	4760.9
8202	15.616	4.	0.1	4687.2
8203	15.616	4.1818	0.1	3343.2
8204	15.616	4.3636	0.1	2324.7
8205	15.616	4.5455	0.1	1821.3
8206	15.616	4.7273	0.1	1469.8
8207	15.616	4.9091	0.1	1209.4
8208	15.616	5.0909	0.1	996.88
8209	15.616	5.2727	0.1	813.9
8210	15.616	5.4545	0.1	648.98
8211	15.616	5.6364	0.1	495.76
8212	15.616	5.8182	0.1	363.7
8213	15.967	3.8182	0.1	6481.
8214	15.967	3.6364	0.1	5131.9
8215	15.967	3.4545	0.1	4516.3
8216	15.967	3.2727	0.1	4207.4
8217	15.967	3.0909	0.1	4075.4
8218	15.967	2.9091	0.1	4075.4
8219	15.967	2.7273	0.1	4207.4
8220	15.967	2.5455	0.1	4516.3
8221	15.967	2.3636	0.1	5131.9
8222	15.967	2.1818	0.1	6481.
8223	15.8	3.8182	0.1	6433.1
8224	15.8	3.6364	0.1	5127.7
8225	15.8	3.4545	0.1	4538.8
8226	15.8	3.2727	0.1	4238.2
8227	15.8	3.0909	0.1	4110.
8228	15.8	2.9091	0.1	4110.
8229	15.8	2.7273	0.1	4238.2
8230	15.8	2.5455	0.1	4538.8
8231	15.8	2.3636	0.1	5127.7
8232	15.8	2.1818	0.1	6433.1
8233	15.967	5.8182	0.1	161.65
8234	15.967	5.6364	0.1	286.5
8235	15.967	5.4545	0.1	398.38
8236	15.967	5.2727	0.1	512.49
8237	15.967	5.0909	0.1	637.56
8238	15.967	4.9091	0.1	783.65
8239	15.967	4.7273	0.1	964.62
8240	15.967	4.5455	0.1	1212.8
8241	15.967	4.3636	0.1	1554.8
8242	15.967	4.1818	0.1	2365.9
8243	15.967	4.	0.1	9392.8
8244	15.8	4.	0.1	9115.7
8245	15.8	4.1818	0.1	2111.1
8246	15.8	4.3636	0.1	1404.9
8247	15.8	4.5455	0.1	1123.9
8248	15.8	4.7273	0.1	918.1
8249	15.8	4.9091	0.1	765.98
8250	15.8	5.0909	0.1	639.04
8251	15.8	5.2727	0.1	526.44
8252	15.8	5.4545	0.1	419.48
8253	15.8	5.6364	0.1	310.03
8254	15.8	5.8182	0.1	181.44
8255	15.967	0.18182	0.1	161.65
8256	15.967	0.36364	0.1	286.5
8257	15.967	0.54545	0.1	398.38
8258	15.967	0.72727	0.1	512.49
8259	15.967	0.90909	0.1	637.56
8260	15.967	1.0909	0.1	783.65
8261	15.967	1.2727	0.1	964.62
8262	15.967	1.4545	0.1	1212.8
8263	15.967	1.6364	0.1	1554.8
8264	15.967	1.8182	0.1	2365.9
8265	15.967	2.	0.1	9392.8
8266	15.8	2.	0.1	9115.7
8267	15.8	1.8182	0.1	2111.1
8268	15.8	1.6364	0.1	1404.9
8269	15.8	1.4545	0.1	1123.9
8270	15.8	1.2727	0.1	918.1
8271	15.8	1.0909	0.1	765.98
8272	15.8	0.90909	0.1	639.04
8273	15.8	0.72727	0.1	526.44
8274	15.8	0.54545	0.1	419.48
8275	15.8	0.36364	0.1	310.03
8276	15.8	0.18182	0.1	181.44
8277	15.967	6.	0.1	20.1
8278	16.149	6.	0.1	206.78
8279	16.332	6.	0.1	400.25
8280	16.514	6.	0.1	567.56
8281	16.697	6.	0.1	711.25
8282	16.88	6.	0.1	831.23
8283	17.062	6.	0.1	927.89
8284	17.245	6.	0.1	1002.6
8285	17.427	6.	0.1	1057.5
8286	17.61	6.	0.1	1095.
8287	17.792	6.	0.1	1117.5
8288	17.975	6.	0.1	1127.5
8289	18.158	6.	0.1	1127.1
8290	18.34	6.	0.1	1118.1
8291	18.523	6.	0.1	1102.4
8292	18.705	6.	0.1	1081.1
8293	18.888	6.	0.1	1055.3
8294	19.07	6.	0.1	1026.1
8295	19.253	6.	0.1	994.17
8296	19.436	6.	0.1	960.08
8297	19.618	6.	0.1	924.33
8298	19.801	6.	0.1	887.32
8299	19.983	6.	0.1	849.35
8300	20.166	6.	0.1	810.68
8301	20.348	6.	0.1	771.49
8302	20.531	6.	0.1	731.93
8303	20.714	6.	0.1	692.14
8304	20.896	6.	0.1	652.2
8305	21.079	6.	0.1	612.18
8306	21.261	6.	0.1	572.15
8307	21.444	6.	0.1	532.16
8308	21.627	6.	0.1	492.23
8309	21.809	6.	0.1	452.4
8310	21.992	6.	0.1	412.7
8311	22.174	6.	0.1	373.15
8312	22.357	6.	0.1	333.78
8313	22.539	6.	0.1	294.61
8314	22.722	6.	0.1	255.69
8315	22.905	6.	0.1	217.07
8316	23.087	6.	0.1	178.81
8317	23.27	6.	0.1	141.03
8318	23.452	6.	0.1	103.93
8319	23.635	6.	0.1	67.857
8320	23.817	6.	0.1	33.724
8321	24.	6.	0.1	5.3709
8322	24.	5.8182	0.1	6.6655
8323	24.	5.6364	0.1	6.9476
8324	24.	5.4545	0.1	7.0253
8325	24.	5.2727	0.1	7.0409
8326	24.	5.0909	0.1	7.0121
8327	24.	4.9091	0.1	6.9729
8328	24.	4.7273	0.1	6.9291
8329	24.	4.5455	0.1	6.8863
8330	24.	4.3636	0.1	6.8465
8331	24.	4.1818	0.1	6.811
8332	24.	4.	0.1	6.7803
8333	24.	3.8182	0.1	6.7547
8334	24.	3.6364	0.1	6.7343
8335	24.	3.4545	0.1	6.719
8336	24.	3.2727	0.1	6.7089
8337	24.	3.0909	0.1	6.7039
8338	24.	2.9091	0.1	6.7039
8339	24.	2.7273	0.1	6.7089
8340	24.	2.5455	0.1	6.719
8341	24.	2.3636	0.1	6.7343
8342	24.	2.1818	0.1	6.7547
8343	24.	2.	0.1	6.7803
8344	24.	1.8182	0.1	6.811
8345	24.	1.6364	0.1	6.8465
8346	24.	1.4545	0.1	6.8863
8347	24.	1.2727	0.1	6.9291
8348	24.	1.0909	0.1	6.9729
8349	24.	0.90909	0.1	7.0121
8350	24.	0.72727	0.1	7.0409
8351	24.	0.54545	0.1	7.0253
8352	24.	0.36364	0.1	6.9477
8353	24.	0.18182	0.1	6.6655
8354	1.5894e-015	0.18182	0.1	2497.5
8355	3.1789e-015	0.36364	0.1	4637.3
8356	4.7683e-015	0.54545	0.1	5687.3
8357	6.3578e-015	0.72727	0.1	6332.9
8358	7.9472e-015	0.90909	0.1	6763.8
8359	9.5366e-015	1.0909	0.1	7071.4
8360	1.1126e-014	1.2727	0.1	7299.1
8361	1.2716e-014	1.4545	0.1	7471.9
8362	1.4305e-014	1.6364	0.1	7604.9
8363	1.5894e-014	1.8182	0.1	7708.1
8364	1.7484e-014	2.	0.1	7788.
8365	1.9073e-014	2.1818	0.1	7849.3
8366	2.0663e-014	2.3636	0.1	7895.3
8367	2.2252e-014	2.5455	0.1	7928.
8368	2.3842e-014	2.7273	0.1	7949.
8369	2.5431e-014	2.9091	0.1	7959.4
8370	2.702e-014	3.0909	0.1	7959.4
8371	2.861e-014	3.2727	0.1	7949.
8372	3.0199e-014	3.4545	0.1	7928.
8373	3.1789e-014	3.6364	0.1	7895.3
8374	3.3378e-014	3.8182	0.1	7849.3
8375	3.4968e-014	4.	0.1	7788.
8376	3.6557e-014	4.1818	0.1	7708.1
8377	3.8147e-014	4.3636	0.1	7604.9
8378	3.9736e-014	4.5455	0.1	7471.9
8379	4.1325e-014	4.7273	0.1	7299.1
8380	4.2915e-014	4.9091	0.1	7071.4
8381	4.4504e-014	5.0909	0.1	6763.8
8382	4.6094e-014	5.2727	0.1	6332.9
8383	4.7683e-014	5.4545	0.1	5687.3
8384	4.9273e-014	5.6364	0.1	4637.3
8385	5.0862e-014	5.8182	0.1	2497.5
8386	24.	0.	0.1	5.3709
8387	23.817	0.	0.1	33.724
8388	23.635	0.	0.1	67.857
8389	23.452	0.	0.1	103.93
8390	23.27	0.	0.1	141.03
8391	23.087	0.	0.1	178.81
8392	22.905	0.	0.1	217.07
8393	22.722	0.	0.1	255.69
8394	22.539	0.	0.1	294.61
8395	22.357	0.	0.1	333.78
8396	22.174	0.	0.1	373.15
8397	21.992	0.	0.1	412.7
8398	21.809	0.	0.1	452.4
8399	21.627	0.	0.1	492.23
8400	21.444	0.	0.1	532.16
8401	21.261	0.	0.1	572.15
8402	21.079	0.	0.1	612.18
8403	20.896	0.	0.1	652.2
8404	20.714	0.	0.1	692.14
8405	20.531	0.	0.1	731.93
8406	20.348	0.	0.1	771.49
8407	20.166	0.	0.1	810.68
8408	19.983	0.	0.1	849.35
8409	19.801	0.	0.1	887.32
8410	19.618	0.	0.1	924.33
8411	19.436	0.	0.1	960.08
8412	19.253	0.	0.1	994.17
8413	19.07	0.	0.1	1026.1
8414	18.888	0.	0.1	1055.3
8415	18.705	0.	0.1	1081.1
8416	18.523	0.	0.1	1102.4
8417	18.34	0.	0.1	1118.1
8418	18.158	0.	0.1	1127.1
8419	17.975	0.	0.1	1127.5
8420	17.792	0.	0.1	1117.5
8421	17.61	0.	0.1	1095.
8422	17.427	0.	0.1	1057.5
8423	17.245	0.	0.1	1002.6
8424	17.062	0.	0.1	927.89
8425	16.88	0.	0.1	831.23
8426	16.697	0.	0.1	711.25
8427	16.514	0.	0.1	567.56
8428	16.332	0.	0.1	400.25
8429	16.149	0.	0.1	206.78
8430	15.967	0.	0.1	20.1
8431	15.8	0.	0.1	24.631
8432	15.616	1.6787e-030	0.1	265.32
8433	15.433	1.659e-030	0.1	534.18
8434	15.249	1.6392e-030	0.1	783.98
8435	15.065	1.6195e-030	0.1	1015.7
8436	14.881	1.5997e-030	0.1	1227.8
8437	14.698	1.58e-030	0.1	1419.2
8438	14.514	1.5602e-030	0.1	1590.2
8439	14.33	1.5405e-030	0.1	1742.1
8440	14.147	1.5207e-030	0.1	1876.8
8441	13.963	1.501e-030	0.1	1996.4
8442	13.779	1.4812e-030	0.1	2103.2
8443	13.595	1.4615e-030	0.1	2199.3
8444	13.412	1.4417e-030	0.1	2286.4
8445	13.228	1.422e-030	0.1	2366.1
8446	13.044	1.4022e-030	0.1	2440.
8447	12.86	1.3825e-030	0.1	2509.1
8448	12.677	1.3627e-030	0.1	2574.4
8449	12.493	1.343e-030	0.1	2636.7
8450	12.309	1.3232e-030	0.1	2696.6
8451	12.126	1.3035e-030	0.1	2754.6
8452	11.942	1.2837e-030	0.1	2811.2
8453	11.758	1.264e-030	0.1	2866.6
8454	11.574	1.2442e-030	0.1	2921.2
8455	11.391	1.2245e-030	0.1	2975.2
8456	11.207	1.2047e-030	0.1	3028.7
8457	11.023	1.185e-030	0.1	3082.
8458	10.84	1.1652e-030	0.1	3135.
8459	10.656	1.1455e-030	0.1	3187.9
8460	10.472	1.1257e-030	0.1	3240.8
8461	10.288	1.106e-030	0.1	3293.7
8462	10.105	1.0862e-030	0.1	3346.7
8463	9.9209	1.0665e-030	0.1	3399.7
8464	9.7372	1.0467e-030	0.1	3453.
8465	9.5535	1.027e-030	0.1	3506.4
8466	9.3698	1.0072e-030	0.1	3560.
8467	9.186	9.8748e-031	0.1	3613.8
8468	9.0023	9.6773e-031	0.1	3667.8
8469	8.8186	9.4798e-031	0.1	3722.1
8470	8.6349	9.2823e-031	0.1	3776.7
8471	8.4512	9.0848e-031	0.1	3831.5
8472	8.2674	8.8873e-031	0.1	3886.6
8473	8.0837	8.6898e-031	0.1	3942.1
8474	7.9	8.4923e-031	0.1	3997.8
8475	7.7163	8.2948e-031	0.1	4053.9
8476	7.5326	8.0973e-031	0.1	4110.4
8477	7.3488	7.8998e-031	0.1	4167.2
8478	7.1651	7.7023e-031	0.1	4224.4
8479	6.9814	7.5048e-031	0.1	4282.
8480	6.7977	7.3073e-031	0.1	4340.
8481	6.614	7.1098e-031	0.1	4398.5
8482	6.4302	6.9123e-031	0.1	4457.4
8483	6.2465	6.7148e-031	0.1	4516.8
8484	6.0628	6.5173e-031	0.1	4576.7
8485	5.8791	6.3198e-031	0.1	4637.1
8486	5.6953	6.1223e-031	0.1	4698.
8487	5.5116	5.9249e-031	0.1	4759.5
8488	5.3279	5.7274e-031	0.1	4821.5
8489	5.1442	5.5299e-031	0.1	4884.2
8490	4.9605	5.3324e-031	0.1	4947.4
8491	4.7767	5.1349e-031	0.1	5011.2
8492	4.593	4.9374e-031	0.1	5075.5
8493	4.4093	4.7399e-031	0.1	5140.5
8494	4.2256	4.5424e-031	0.1	5205.9
8495	4.0419	4.3449e-031	0.1	5271.8
8496	3.8581	4.1474e-031	0.1	5338.1
8497	3.6744	3.9499e-031	0.1	5404.7
8498	3.4907	3.7524e-031	0.1	5471.4
8499	3.307	3.5549e-031	0.1	5537.9
8500	3.1233	3.3574e-031	0.1	5603.9
8501	2.9395	3.1599e-031	0.1	5669.1
8502	2.7558	2.9624e-031	0.1	5732.9
8503	2.5721	2.7649e-031	0.1	5794.5
8504	2.3884	2.5674e-031	0.1	5852.9
8505	2.2047	2.3699e-031	0.1	5906.9
8506	2.0209	2.1724e-031	0.1	5954.6
8507	1.8372	1.975e-031	0.1	5993.6
8508	1.6535	1.7775e-031	0.1	6020.5
8509	1.4698	1.58e-031	0.1	6030.4
8510	1.286	1.3825e-031	0.1	6016.4
8511	1.1023	1.185e-031	0.1	5967.6
8512	0.9186	9.8748e-032	0.1	5866.4
8513	0.73488	7.8998e-032	0.1	5683.9
8514	0.55116	5.9249e-032	0.1	5358.7
8515	0.36744	3.9499e-032	0.1	4781.9
8516	0.18372	1.975e-032	0.1	3568.2
8517	0.	0.	0.1	760.4
8518	3.937e-014	6.	0.1	760.4
8519	0.18372	6.	0.1	3568.2
8520	0.36744	6.	0.1	4781.9
8521	0.55116	6.	0.1	5358.7
8522	0.73488	6.	0.1	5683.9
8523	0.9186	6.	0.1	5866.4
8524	1.1023	6.	0.1	5967.6
8525	1.286	6.	0.1	6016.4
8526	1.4698	6.	0.1	6030.4
8527	1.6535	6.	0.1	6020.5
8528	1.8372	6.	0.1	5993.6
8529	2.0209	6.	0.1	5954.6
8530	2.2047	6.	0.1	5906.9
8531	2.3884	6.	0.1	5852.9
8532	2.5721	6.	0.1	5794.5
8533	2.7558	6.	0.1	5732.9
8534	2.9395	6.	0.1	5669.1
8535	3.1233	6.	0.1	5603.9
8536	3.307	6.	0.1	5537.9
8537	3.4907	6.	0.1	5471.4
8538	3.6744	6.	0.1	5404.7
8539	3.8581	6.	0.1	5338.1
8540	4.0419	6.	0.1	5271.8
8541	4.2256	6.	0.1	5205.9
8542	4.4093	6.	0.1	5140.5
8543	4.593	6.	0.1	5075.5
8544	4.7767	6.	0.1	5011.2
8545	4.9605	6.	0.1	4947.4
8546	5.1442	6.	0.1	4884.2
8547	5.3279	6.	0.1	4821.5
8548	5.5116	6.	0.1	4759.5
8549	5.6953	6.	0.1	4698.
8550	5.8791	6.	0.1	4637.1
8551	6.0628	6.	0.1	4576.7
8552	6.2465	6.	0.1	4516.8
8553	6.4302	6.	0.1	4457.4
8554	6.614	6.	0.1	4398.5
8555	6.7977	6.	0.1	4340.
8556	6.9814	6.	0.1	4282.
8557	7.1651	6.	0.1	4224.4
8558	7.3488	6.	0.1	4167.2
8559	7.5326	6.	0.1	4110.4
8560	7.7163	6.	0.1	4053.9
8561	7.9	6.	0.1	3997.8
8562	8.0837	6.	0.1	3942.1
8563	8.2674	6.	0.1	3886.6
8564	8.4512	6.	0.1	3831.5
8565	8.6349	6.	0.1	3776.7
8566	8.8186	6.	0.1	3722.1
8567	9.0023	6.	0.1	3667.8
8568	9.186	6.	0.1	3613.8
8569	9.3698	6.	0.1	3560.
8570	9.5535	6.	0.1	3506.4
8571	9.7372	6.	0.1	3453.
8572	9.9209	6.	0.1	3399.7
8573	10.105	6.	0.1	3346.7
8574	10.288	6.	0.1	3293.7
8575	10.472	6.	0.1	3240.8
8576	10.656	6.	0.1	3187.9
8577	10.84	6.	0.1	3135.
8578	11.023	6.	0.1	3082.
8579	11.207	6.	0.1	3028.7
8580	11.391	6.	0.1	2975.2
8581	11.574	6.	0.1	2921.2
8582	11.758	6.	0.1	2866.6
8583	11.942	6.	0.1	2811.2
8584	12.126	6.	0.1	2754.6
8585	12.309	6.	0.1	2696.6
8586	12.493	6.	0.1	2636.7
8587	12.677	6.	0.1	2574.4
8588	12.86	6.	0.1	2509.1
8589	13.044	6.	0.1	2440.
8590	13.228	6.	0.1	2366.1
8591	13.412	6.	0.1	2286.4
8592	13.595	6.	0.1	2199.3
8593	13.779	6.	0.1	2103.2
8594	13.963	6.	0.1	1996.4
8595	14.147	6.	0.1	1876.8
8596	14.33	6.	0.1	1742.1
8597	14.514	6.	0.1	1590.2
8598	14.698	6.	0.1	1419.2
8599	14.881	6.	0.1	1227.8
8600	15.065	6.	0.1	1015.7
8601	15.249	6.	0.1	783.98
8602	15.433	6.	0.1	534.18
8603	15.616	6.	0.1	265.32
8604	15.8	6.	0.1	24.631
8605	15.616	6.	0.	7.0089
8606	15.433	6.	0.	6.8743
8607	15.249	6.	0.	6.8025
8608	15.065	6.	0.	6.3192
8609	14.881	6.	0.	5.6221
8610	14.698	6.	0.	5.0066
8611	14.514	6.	0.	4.5434
8612	14.33	6.	0.	4.254
8613	14.147	6.	0.	4.116
8614	13.963	6.	0.	4.0959
8615	13.779	6.	0.	4.1578
8616	13.595	6.	0.	4.2707
8617	13.412	6.	0.	4.4095
8618	13.228	6.	0.	4.5556
8619	13.044	6.	0.	4.6962
8620	12.86	6.	0.	4.8227
8621	12.677	6.	0.	4.9303
8622	12.493	6.	0.	5.0165
8623	12.309	6.	0.	5.0805
8624	12.126	6.	0.	5.1226
8625	11.942	6.	0.	5.1436
8626	11.758	6.	0.	5.1449
8627	11.574	6.	0.	5.1277
8628	11.391	6.	0.	5.0932
8629	11.207	6.	0.	5.0428
8630	11.023	6.	0.	4.9774
8631	10.84	6.	0.	4.8979
8632	10.656	6.	0.	4.805
8633	10.472	6.	0.	4.6994
8634	10.288	6.	0.	4.5814
8635	10.105	6.	0.	4.4513
8636	9.9209	6.	0.	4.3095
8637	9.7372	6.	0.	4.1558
8638	9.5535	6.	0.	3.9904
8639	9.3698	6.	0.	3.8132
8640	9.186	6.	0.	3.6241
8641	9.0023	6.	0.	3.4231
8642	8.8186	6.	0.	3.2099
8643	8.6349	6.	0.	2.9844
8644	8.4512	6.	0.	2.7465
8645	8.2674	6.	0.	2.4961
8646	8.0837	6.	0.	2.2332
8647	7.9	6.	0.	1.9579
8648	7.7163	6.	0.	1.6702
8649	7.5326	6.	0.	1.3706
8650	7.3488	6.	0.	1.0595
8651	7.1651	6.	0.	0.73772
8652	6.9814	6.	0.	0.4409
8653	6.7977	6.	0.	0.48119
8654	6.614	6.	0.	0.52658
8655	6.4302	6.	0.	0.57561
8656	6.2465	6.	0.	0.62853
8657	6.0628	6.	0.	0.68566
8658	5.8791	6.	0.	0.74736
8659	5.6953	6.	0.	0.81399
8660	5.5116	6.	0.	0.88597
8661	5.3279	6.	0.	0.96376
8662	5.1442	6.	0.	1.0479
8663	4.9605	6.	0.	1.1388
8664	4.7767	6.	0.	1.2374
8665	4.593	6.	0.	1.3442
8666	4.4093	6.	0.	1.4604
8667	4.2256	6.	0.	1.5871
8668	4.0419	6.	0.	1.7261
8669	3.8581	6.	0.	1.8803
8670	3.6744	6.	0.	2.0548
8671	3.4907	6.	0.	2.2611
8672	3.307	6.	0.	2.5325
8673	3.1233	6.	0.	3.0073
8674	2.9395	6.	0.	4.1817
8675	2.7558	6.	0.	6.3179
8676	2.5721	6.	0.	9.1965
8677	2.3884	6.	0.	12.816
8678	2.2047	6.	0.	17.288
8679	2.0209	6.	0.	22.785
8680	1.8372	6.	0.	29.535
8681	1.6535	6.	0.	37.856
8682	1.4698	6.	0.	48.178
8683	1.286	6.	0.	61.177
8684	1.1023	6.	0.	77.754
8685	0.9186	6.	0.	99.911
8686	0.73488	6.	0.	129.93
8687	0.55116	6.	0.	176.5
8688	0.36744	6.	0.	256.86
8689	0.18372	6.	0.	442.92
8690	15.8	6.	0.	5.7504
8691	3.937e-014	6.	0.	1824.
8692	0.18372	1.975e-032	0.	442.92
8693	0.36744	3.9499e-032	0.	256.86
8694	0.55116	5.9249e-032	0.	176.5
8695	0.73488	7.8998e-032	0.	129.93
8696	0.9186	9.8748e-032	0.	99.911
8697	1.1023	1.185e-031	0.	77.754
8698	1.286	1.3825e-031	0.	61.177
8699	1.4698	1.58e-031	0.	48.178
8700	1.6535	1.7775e-031	0.	37.856
8701	1.8372	1.975e-031	0.	29.535
8702	2.0209	2.1724e-031	0.	22.785
8703	2.2047	2.3699e-031	0.	17.288
8704	2.3884	2.5674e-031	0.	12.816
8705	2.5721	2.7649e-031	0.	9.1965
8706	2.7558	2.9624e-031	0.	6.3179
8707	2.9395	3.1599e-031	0.	4.1817
8708	3.1233	3.3574e-031	0.	3.0073
8709	3.307	3.5549e-031	0.	2.5325
8710	3.4907	3.7524e-031	0.	2.2611
8711	3.6744	3.9499e-031	0.	2.0548
8712	3.8581	4.1474e-031	0.	1.8803
8713	4.0419	4.3449e-031	0.	1.7261
8714	4.2256	4.5424e-031	0.	1.5871
8715	4.4093	4.7399e-031	0.	1.4604
8716	4.593	4.9374e-031	0.	1.3442
8717	4.7767	5.1349e-031	0.	1.2374
8718	4.9605	5.3324e-031	0.	1.1388
8719	5.1442	5.5299e-031	0.	1.0479
8720	5.3279	5.7274e-031	0.	0.96376
8721	5.5116	5.9249e-031	0.	0.88597
8722	5.6953	6.1223e-031	0.	0.81399
8723	5.8791	6.3198e-031	0.	0.74736
8724	6.0628	6.5173e-031	0.	0.68567
8725	6.2465	6.7148e-031	0.	0.62853
8726	6.4302	6.9123e-031	0.	0.57561
8727	6.614	7.1098e-031	0.	0.52658
8728	6.7977	7.3073e-031	0.	0.48119
8729	6.9814	7.5048e-031	0.	0.4409
8730	7.1651	7.7023e-031	0.	0.73772
8731	7.3488	7.8998e-031	0.	1.0595
8732	7.5326	8.0973e-031	0.	1.3706
8733	7.7163	8.2948e-031	0.	1.6702
8734	7.9	8.4923e-031	0.	1.9579
8735	8.0837	8.6898e-031	0.	2.2332
8736	8.2674	8.8873e-031	0.	2.4961
8737	8.4512	9.0848e-031	0.	2.7465
8738	8.6349	9.2823e-031	0.	2.9844
8739	8.8186	9.4798e-031	0.	3.2099
8740	9.0023	9.6773e-031	0.	3.4231
8741	9.186	9.8748e-031	0.	3.6241
8742	9.3698	1.0072e-030	0.	3.8132
8743	9.5535	1.027e-030	0.	3.9904
8744	9.7372	1.0467e-030	0.	4.1558
8745	9.9209	1.0665e-030	0.	4.3095
8746	10.105	1.0862e-030	0.	4.4513
8747	10.288	1.106e-030	0.	4.5814
8748	10.472	1.1257e-030	0.	4.6994
8749	10.656	1.1455e-030	0.	4.805
8750	10.84	1.1652e-030	0.	4.8979
8751	11.023	1.185e-030	0.	4.9774
8752	11.207	1.2047e-030	0.	5.0428
8753	11.391	1.2245e-030	0.	5.0932
8754	11.574	1.2442e-030	0.	5.1277
8755	11.758	1.264e-030	0.	5.1449
8756	11.942	1.2837e-030	0.	5.1436
8757	12.126	1.3035e-030	0.	5.1225
8758	12.309	1.3232e-030	0.	5.0805
8759	12.493	1.343e-030	0.	5.0165
8760	12.677	1.3627e-030	0.	4.9303
8761	12.86	1.3825e-030	0.	4.8227
8762	13.044	1.4022e-030	0.	4.6962
8763	13.228	1.422e-030	0.	4.5556
8764	13.412	1.4417e-030	0.	4.4095
8765	13.595	1.4615e-030	0.	4.2707
8766	13.779	1.4812e-030	0.	4.1578
8767	13.963	1.501e-030	0.	4.0958
8768	14.147	1.5207e-030	0.	4.116
8769	14.33	1.5405e-030	0.	4.254
8770	14.514	1.5602e-030	0.	4.5434
8771	14.698	1.58e-030	0.	5.0066
8772	14.881	1.5997e-030	0.	5.6221
8773	15.065	1.6195e-030	0.	6.3192
8774	15.249	1.6392e-030	0.	6.8025
8775	15.433	1.659e-030	0.	6.8743
8776	15.616	1.6787e-030	0.	7.0089
8777	15.8	0.	0.	5.7504
8778	0.	0.	0.	1824.
8779	16.149	0.	0.	8.2895
8780	16.332	0.	0.	10.408
8781	16.514	0.	0.	11.838
8782	16.697	0.	0.	12.114
8783	16.88	0.	0.	11.587
8784	17.062	0.	0.	10.703
8785	17.245	0.	0.	9.6855
8786	17.427	0.	0.	8.6842
8787	17.61	0.	0.	7.7761
8788	17.792	0.	0.	6.9987
8789	17.975	0.	0.	6.3638
8790	18.158	0.	0.	5.8694
8791	18.34	0.	0.	5.5062
8792	18.523	0.	0.	5.2617
8793	18.705	0.	0.	5.1227
8794	18.888	0.	0.	5.0765
8795	19.07	0.	0.	5.1108
8796	19.253	0.	0.	5.215
8797	19.436	0.	0.	5.379
8798	19.618	0.	0.	5.5941
8799	19.801	0.	0.	5.8522
8800	19.983	0.	0.	6.1463
8801	20.166	0.	0.	6.47
8802	20.348	0.	0.	6.8175
8803	20.531	0.	0.	7.1836
8804	20.714	0.	0.	7.5635
8805	20.896	0.	0.	7.9528
8806	21.079	0.	0.	8.3475
8807	21.261	0.	0.	8.7438
8808	21.444	0.	0.	9.1378
8809	21.627	0.	0.	9.5259
8810	21.809	0.	0.	9.9044
8811	21.992	0.	0.	10.269
8812	22.174	0.	0.	10.615
8813	22.357	0.	0.	10.938
8814	22.539	0.	0.	11.231
8815	22.722	0.	0.	11.486
8816	22.905	0.	0.	11.692
8817	23.087	0.	0.	11.832
8818	23.27	0.	0.	11.883
8819	23.452	0.	0.	11.777
8820	23.635	0.	0.	11.539
8821	23.817	0.	0.	9.9346
8822	15.967	0.	0.	4.6889
8823	24.	0.	0.	5.4818
8824	5.0862e-014	5.8182	0.	-1060.9
8825	4.9273e-014	5.6364	0.	-2242.1
8826	4.7683e-014	5.4545	0.	-2785.5
8827	4.6094e-014	5.2727	0.	-3110.
8828	4.4504e-014	5.0909	0.	-3325.2
8829	4.2915e-014	4.9091	0.	-3478.5
8830	4.1325e-014	4.7273	0.	-3591.8
8831	3.9736e-014	4.5455	0.	-3677.7
8832	3.8147e-014	4.3636	0.	-3743.8
8833	3.6557e-014	4.1818	0.	-3795.
8834	3.4968e-014	4.	0.	-3834.8
8835	3.3378e-014	3.8182	0.	-3865.3
8836	3.1789e-014	3.6364	0.	-3888.1
8837	3.0199e-014	3.4545	0.	-3904.5
8838	2.861e-014	3.2727	0.	-3915.1
8839	2.702e-014	3.0909	0.	-3920.3
8840	2.5431e-014	2.9091	0.	-3920.3
8841	2.3842e-014	2.7273	0.	-3915.1
8842	2.2252e-014	2.5455	0.	-3904.5
8843	2.0663e-014	2.3636	0.	-3888.1
8844	1.9073e-014	2.1818	0.	-3865.3
8845	1.7484e-014	2.	0.	-3834.8
8846	1.5894e-014	1.8182	0.	-3795.
8847	1.4305e-014	1.6364	0.	-3743.8
8848	1.2716e-014	1.4545	0.	-3677.7
8849	1.1126e-014	1.2727	0.	-3591.8
8850	9.5366e-015	1.0909	0.	-3478.5
8851	7.9472e-015	0.90909	0.	-3325.2
8852	6.3578e-015	0.72727	0.	-3110.
8853	4.7683e-015	0.54545	0.	-2785.5
8854	3.1789e-015	0.36364	0.	-2242.1
8855	1.5894e-015	0.18182	0.	-1060.9
8856	24.	0.18182	0.	33.483
8857	24.	0.36364	0.	57.844
8858	24.	0.54545	0.	76.206
8859	24.	0.72727	0.	91.134
8860	24.	0.90909	0.	103.61
8861	24.	1.0909	0.	114.18
8862	24.	1.2727	0.	123.16
8863	24.	1.4545	0.	130.8
8864	24.	1.6364	0.	137.26
8865	24.	1.8182	0.	142.69
8866	24.	2.	0.	147.18
8867	24.	2.1818	0.	150.81
8868	24.	2.3636	0.	153.65
8869	24.	2.5455	0.	155.74
8870	24.	2.7273	0.	157.12
8871	24.	2.9091	0.	157.8
8872	24.	3.0909	0.	157.8
8873	24.	3.2727	0.	157.12
8874	24.	3.4545	0.	155.74
8875	24.	3.6364	0.	153.65
8876	24.	3.8182	0.	150.81
8877	24.	4.	0.	147.18
8878	24.	4.1818	0.	142.69
8879	24.	4.3636	0.	137.26
8880	24.	4.5455	0.	130.8
8881	24.	4.7273	0.	123.16
8882	24.	4.9091	0.	114.18
8883	24.	5.0909	0.	103.61
8884	24.	5.2727	0.	91.134
8885	24.	5.4545	0.	76.206
8886	24.	5.6364	0.	57.844
8887	24.	5.8182	0.	33.483
8888	24.	6.	0.	5.4818
8889	23.817	6.	0.	9.9346
8890	23.635	6.	0.	11.539
8891	23.452	6.	0.	11.777
8892	23.27	6.	0.	11.884
8893	23.087	6.	0.	11.832
8894	22.905	6.	0.	11.692
8895	22.722	6.	0.	11.486
8896	22.539	6.	0.	11.231
8897	22.357	6.	0.	10.938
8898	22.174	6.	0.	10.615
8899	21.992	6.	0.	10.269
8900	21.809	6.	0.	9.9044
8901	21.627	6.	0.	9.526
8902	21.444	6.	0.	9.1378
8903	21.261	6.	0.	8.7438
8904	21.079	6.	0.	8.3476
8905	20.896	6.	0.	7.9528
8906	20.714	6.	0.	7.5635
8907	20.531	6.	0.	7.1836
8908	20.348	6.	0.	6.8175
8909	20.166	6.	0.	6.4701
8910	19.983	6.	0.	6.1464
8911	19.801	6.	0.	5.8522
8912	19.618	6.	0.	5.5941
8913	19.436	6.	0.	5.379
8914	19.253	6.	0.	5.215
8915	19.07	6.	0.	5.1109
8916	18.888	6.	0.	5.0765
8917	18.705	6.	0.	5.1227
8918	18.523	6.	0.	5.2617
8919	18.34	6.	0.	5.5062
8920	18.158	6.	0.	5.8694
8921	17.975	6.	0.	6.3638
8922	17.792	6.	0.	6.9987
8923	17.61	6.	0.	7.7761
8924	17.427	6.	0.	8.6842
8925	17.245	6.	0.	9.6855
8926	17.062	6.	0.	10.703
8927	16.88	6.	0.	11.587
8928	16.697	6.	0.	12.114
8929	16.514	6.	0.	11.838
8930	16.332	6.	0.	10.408
8931	16.149	6.	0.	8.2895
8932	15.967	6.	0.	4.6889
8933	15.8	1.8182	0.	2761.3
8934	15.8	1.6364	0.	1423.
8935	15.8	1.4545	0.	1091.7
8936	15.8	1.2727	0.	812.99
8937	15.8	1.0909	0.	611.8
8938	15.8	0.90909	0.	452.82
8939	15.8	0.72727	0.	322.15
8940	15.8	0.54545	0.	212.75
8941	15.8	0.36364	0.	121.22
8942	15.8	0.18182	0.	46.503
8943	15.8	2.	0.	2350.7
8944	15.967	0.18182	0.	28.978
8945	15.967	0.36364	0.	71.165
8946	15.967	0.54545	0.	120.85
8947	15.967	0.72727	0.	178.99
8948	15.967	0.90909	0.	248.09
8949	15.967	1.0909	0.	332.92
8950	15.967	1.2727	0.	441.76
8951	15.967	1.4545	0.	601.87
8952	15.967	1.6364	0.	753.16
8953	15.967	1.8182	0.	1743.3
8954	15.967	2.	0.	1090.3
8955	15.8	4.1818	0.	2761.3
8956	15.8	4.3636	0.	1423.
8957	15.8	4.5455	0.	1091.7
8958	15.8	4.7273	0.	812.99
8959	15.8	4.9091	0.	611.8
8960	15.8	5.0909	0.	452.82
8961	15.8	5.2727	0.	322.15
8962	15.8	5.4545	0.	212.75
8963	15.8	5.6364	0.	121.22
8964	15.8	5.8182	0.	46.503
8965	15.8	4.	0.	2350.7
8966	15.967	5.8182	0.	28.978
8967	15.967	5.6364	0.	71.165
8968	15.967	5.4545	0.	120.85
8969	15.967	5.2727	0.	178.99
8970	15.967	5.0909	0.	248.09
8971	15.967	4.9091	0.	332.92
8972	15.967	4.7273	0.	441.76
8973	15.967	4.5455	0.	601.87
8974	15.967	4.3636	0.	753.16
8975	15.967	4.1818	0.	1743.3
8976	15.967	4.	0.	1090.3
8977	15.8	2.2727	0.	809.65
8978	15.883	2.1818	0.	725.
8979	15.708	2.1818	0.	821.1
8980	15.8	2.1818	5.e-002	251.14
8981	15.8	2.0909	0.	1526.4
8982	15.8	2.4545	0.	641.86
8983	15.883	2.3636	0.	638.29
8984	15.708	2.3636	0.	651.76
8985	15.8	2.3636	5.e-002	40.099
8986	15.8	2.6364	0.	557.24
8987	15.883	2.5455	0.	554.48
8988	15.708	2.5455	0.	556.54
8989	15.8	2.5455	5.e-002	19.159
8990	15.8	2.8182	0.	515.07
8991	15.883	2.7273	0.	505.75
8992	15.708	2.7273	0.	510.2
8993	15.8	2.7273	5.e-002	9.695
8994	15.8	3.	0.	502.08
8995	15.883	2.9091	0.	483.03
8996	15.708	2.9091	0.	488.67
8997	15.8	2.9091	5.e-002	5.2683
8998	15.8	3.1818	0.	515.07
8999	15.883	3.0909	0.	483.03
9000	15.708	3.0909	0.	488.67
9001	15.8	3.0909	5.e-002	5.2683
9002	15.8	3.3636	0.	557.24
9003	15.883	3.2727	0.	505.75
9004	15.708	3.2727	0.	510.2
9005	15.8	3.2727	5.e-002	9.695
9006	15.8	3.5455	0.	641.86
9007	15.883	3.4545	0.	554.48
9008	15.708	3.4545	0.	556.54
9009	15.8	3.4545	5.e-002	19.159
9010	15.8	3.7273	0.	809.65
9011	15.883	3.6364	0.	638.29
9012	15.708	3.6364	0.	651.76
9013	15.8	3.6364	5.e-002	40.099
9014	15.883	3.8182	0.	725.
9015	15.708	3.8182	0.	821.1
9016	15.8	3.8182	5.e-002	251.14
9017	15.8	3.9091	0.	1526.4
9018	15.967	2.2727	0.	628.73
9019	16.058	2.1818	0.	473.32
9020	15.967	2.1818	5.e-002	211.75
9021	15.967	2.0909	0.	765.64
9022	15.967	2.4545	0.	572.05
9023	16.058	2.3636	0.	493.55
9024	15.967	2.3636	5.e-002	44.522
9025	15.967	2.6364	0.	508.38
9026	16.058	2.5455	0.	448.77
9027	15.967	2.5455	5.e-002	21.201
9028	15.967	2.8182	0.	474.6
9029	16.058	2.7273	0.	424.
9030	15.967	2.7273	5.e-002	11.886
9031	15.967	3.	0.	463.8
9032	16.058	2.9091	0.	410.76
9033	15.967	2.9091	5.e-002	7.9676
9034	15.967	3.1818	0.	474.6
9035	16.058	3.0909	0.	410.76
9036	15.967	3.0909	5.e-002	7.9676
9037	15.967	3.3636	0.	508.38
9038	16.058	3.2727	0.	424.
9039	15.967	3.2727	5.e-002	11.886
9040	15.967	3.5455	0.	572.05
9041	16.058	3.4545	0.	448.77
9042	15.967	3.4545	5.e-002	21.201
9043	15.967	3.7273	0.	628.73
9044	16.058	3.6364	0.	493.55
9045	15.967	3.6364	5.e-002	44.522
9046	16.058	3.8182	0.	473.32
9047	15.967	3.8182	5.e-002	211.75
9048	15.967	3.9091	0.	765.64
9049	15.616	5.7273	0.	105.55
9050	15.524	5.8182	0.	49.682
9051	15.616	5.8182	5.e-002	30.537
9052	15.616	5.9091	0.	24.973
9053	15.708	5.8182	0.	33.872
9054	15.616	5.5455	0.	214.82
9055	15.524	5.6364	0.	114.24
9056	15.616	5.6364	5.e-002	27.633
9057	15.708	5.6364	0.	115.31
9058	15.616	5.3636	0.	356.14
9059	15.524	5.4545	0.	224.31
9060	15.616	5.4545	5.e-002	29.103
9061	15.708	5.4545	0.	223.33
9062	15.616	5.1818	0.	521.78
9063	15.524	5.2727	0.	360.29
9064	15.616	5.2727	5.e-002	32.177
9065	15.708	5.2727	0.	350.78
9066	15.616	5.	0.	714.7
9067	15.524	5.0909	0.	518.23
9068	15.616	5.0909	5.e-002	36.851
9069	15.708	5.0909	0.	499.86
9070	15.616	4.8182	0.	943.62
9071	15.524	4.9091	0.	699.52
9072	15.616	4.9091	5.e-002	43.527
9073	15.708	4.9091	0.	676.87
9074	15.616	4.6364	0.	1220.9
9075	15.524	4.7273	0.	909.06
9076	15.616	4.7273	5.e-002	53.949
9077	15.708	4.7273	0.	893.59
9078	15.616	4.4545	0.	1582.7
9079	15.524	4.5455	0.	1145.9
9080	15.616	4.5455	5.e-002	67.12
9081	15.708	4.5455	0.	1176.2
9082	15.616	4.2727	0.	1941.2
9083	15.524	4.3636	0.	1419.1
9084	15.616	4.3636	5.e-002	101.69
9085	15.708	4.3636	0.	1522.9
9086	15.616	4.0909	0.	1815.8
9087	15.524	4.1818	0.	1592.5
9088	15.616	4.1818	5.e-002	195.57
9089	15.708	4.1818	0.	2293.9
9090	15.616	3.9091	0.	1151.6
9091	15.524	4.	0.	1211.1
9092	15.616	4.	5.e-002	353.
9093	15.708	4.	0.	1789.5
9094	15.616	3.7273	0.	709.71
9095	15.524	3.8182	0.	699.24
9096	15.616	3.8182	5.e-002	150.72
9097	15.616	3.5455	0.	578.42
9098	15.524	3.6364	0.	548.
9099	15.616	3.6364	5.e-002	65.565
9100	15.616	3.3636	0.	513.22
9101	15.524	3.4545	0.	481.2
9102	15.616	3.4545	5.e-002	35.825
9103	15.616	3.1818	0.	484.34
9104	15.524	3.2727	0.	451.58
9105	15.616	3.2727	5.e-002	21.077
9106	15.616	3.	0.	474.99
9107	15.524	3.0909	0.	438.3
9108	15.616	3.0909	5.e-002	15.913
9109	15.616	2.8182	0.	484.34
9110	15.524	2.9091	0.	438.3
9111	15.616	2.9091	5.e-002	15.913
9112	15.616	2.6364	0.	513.22
9113	15.524	2.7273	0.	451.58
9114	15.616	2.7273	5.e-002	21.077
9115	15.616	2.4545	0.	578.42
9116	15.524	2.5455	0.	481.2
9117	15.616	2.5455	5.e-002	35.825
9118	15.616	2.2727	0.	709.71
9119	15.524	2.3636	0.	548.
9120	15.616	2.3636	5.e-002	65.565
9121	15.616	2.0909	0.	1151.6
9122	15.524	2.1818	0.	699.24
9123	15.616	2.1818	5.e-002	150.72
9124	15.616	1.9091	0.	1815.8
9125	15.524	2.	0.	1211.1
9126	15.616	2.	5.e-002	353.
9127	15.708	2.	0.	1789.5
9128	15.616	1.7273	0.	1941.2
9129	15.524	1.8182	0.	1592.5
9130	15.616	1.8182	5.e-002	195.57
9131	15.708	1.8182	0.	2293.9
9132	15.616	1.5455	0.	1582.7
9133	15.524	1.6364	0.	1419.1
9134	15.616	1.6364	5.e-002	101.69
9135	15.708	1.6364	0.	1522.9
9136	15.616	1.3636	0.	1220.9
9137	15.524	1.4545	0.	1145.9
9138	15.616	1.4545	5.e-002	67.12
9139	15.708	1.4545	0.	1176.2
9140	15.616	1.1818	0.	943.62
9141	15.524	1.2727	0.	909.06
9142	15.616	1.2727	5.e-002	53.949
9143	15.708	1.2727	0.	893.59
9144	15.616	1.	0.	714.7
9145	15.524	1.0909	0.	699.52
9146	15.616	1.0909	5.e-002	43.527
9147	15.708	1.0909	0.	676.87
9148	15.616	0.81818	0.	521.78
9149	15.524	0.90909	0.	518.23
9150	15.616	0.90909	5.e-002	36.851
9151	15.708	0.90909	0.	499.86
9152	15.616	0.63636	0.	356.14
9153	15.524	0.72727	0.	360.29
9154	15.616	0.72727	5.e-002	32.177
9155	15.708	0.72727	0.	350.78
9156	15.616	0.45455	0.	214.82
9157	15.524	0.54545	0.	224.31
9158	15.616	0.54545	5.e-002	29.103
9159	15.708	0.54545	0.	223.33
9160	15.616	0.27273	0.	105.55
9161	15.524	0.36364	0.	114.24
9162	15.616	0.36364	5.e-002	27.633
9163	15.708	0.36364	0.	115.31
9164	15.524	0.18182	0.	49.682
9165	15.616	0.18182	5.e-002	30.537
9166	15.616	9.0909e-002	0.	24.973
9167	15.708	0.18182	0.	33.872
9168	15.433	5.7273	0.	71.056
9169	15.341	5.8182	0.	45.579
9170	15.433	5.8182	5.e-002	28.362
9171	15.433	5.9091	0.	20.397
9172	15.433	5.5455	0.	142.9
9173	15.341	5.6364	0.	90.764
9174	15.433	5.6364	5.e-002	25.233
9175	15.433	5.3636	0.	248.63
9176	15.341	5.4545	0.	170.33
9177	15.433	5.4545	5.e-002	25.58
9178	15.433	5.1818	0.	377.45
9179	15.341	5.2727	0.	274.28
9180	15.433	5.2727	5.e-002	26.994
9181	15.433	5.	0.	525.42
9182	15.341	5.0909	0.	396.34
9183	15.433	5.0909	5.e-002	29.399
9184	15.433	4.8182	0.	691.01
9185	15.341	4.9091	0.	532.17
9186	15.433	4.9091	5.e-002	32.937
9187	15.433	4.6364	0.	866.4
9188	15.341	4.7273	0.	676.61
9189	15.433	4.7273	5.e-002	37.448
9190	15.433	4.4545	0.	1029.3
9191	15.341	4.5455	0.	814.57
9192	15.433	4.5455	5.e-002	45.751
9193	15.433	4.2727	0.	1109.3
9194	15.341	4.3636	0.	915.68
9195	15.433	4.3636	5.e-002	42.885
9196	15.433	4.0909	0.	977.35
9197	15.341	4.1818	0.	901.71
9198	15.433	4.1818	5.e-002	61.148
9199	15.433	3.9091	0.	717.19
9200	15.341	4.	0.	709.18
9201	15.433	4.	5.e-002	51.846
9202	15.433	3.7273	0.	526.55
9203	15.341	3.8182	0.	512.54
9204	15.433	3.8182	5.e-002	72.306
9205	15.433	3.5455	0.	446.91
9206	15.341	3.6364	0.	413.53
9207	15.433	3.6364	5.e-002	49.37
9208	15.433	3.3636	0.	417.82
9209	15.341	3.4545	0.	378.86
9210	15.433	3.4545	5.e-002	36.69
9211	15.433	3.1818	0.	404.14
9212	15.341	3.2727	0.	363.53
9213	15.433	3.2727	5.e-002	26.087
9214	15.433	3.	0.	400.22
9215	15.341	3.0909	0.	357.87
9216	15.433	3.0909	5.e-002	21.576
9217	15.433	2.8182	0.	404.14
9218	15.341	2.9091	0.	357.87
9219	15.433	2.9091	5.e-002	21.576
9220	15.433	2.6364	0.	417.82
9221	15.341	2.7273	0.	363.53
9222	15.433	2.7273	5.e-002	26.087
9223	15.433	2.4545	0.	446.91
9224	15.341	2.5455	0.	378.86
9225	15.433	2.5455	5.e-002	36.69
9226	15.433	2.2727	0.	526.55
9227	15.341	2.3636	0.	413.53
9228	15.433	2.3636	5.e-002	49.37
9229	15.433	2.0909	0.	717.19
9230	15.341	2.1818	0.	512.54
9231	15.433	2.1818	5.e-002	72.306
9232	15.433	1.9091	0.	977.34
9233	15.341	2.	0.	709.18
9234	15.433	2.	5.e-002	51.846
9235	15.433	1.7273	0.	1109.3
9236	15.341	1.8182	0.	901.71
9237	15.433	1.8182	5.e-002	61.148
9238	15.433	1.5455	0.	1029.3
9239	15.341	1.6364	0.	915.68
9240	15.433	1.6364	5.e-002	42.885
9241	15.433	1.3636	0.	866.4
9242	15.341	1.4545	0.	814.57
9243	15.433	1.4545	5.e-002	45.751
9244	15.433	1.1818	0.	691.01
9245	15.341	1.2727	0.	676.61
9246	15.433	1.2727	5.e-002	37.448
9247	15.433	1.	0.	525.42
9248	15.341	1.0909	0.	532.17
9249	15.433	1.0909	5.e-002	32.937
9250	15.433	0.81818	0.	377.45
9251	15.341	0.90909	0.	396.34
9252	15.433	0.90909	5.e-002	29.399
9253	15.433	0.63636	0.	248.63
9254	15.341	0.72727	0.	274.28
9255	15.433	0.72727	5.e-002	26.994
9256	15.433	0.45455	0.	142.9
9257	15.341	0.54545	0.	170.33
9258	15.433	0.54545	5.e-002	25.58
9259	15.433	0.27273	0.	71.056
9260	15.341	0.36364	0.	90.764
9261	15.433	0.36364	5.e-002	25.233
9262	15.341	0.18182	0.	45.579
9263	15.433	0.18182	5.e-002	28.362
9264	15.433	9.0909e-002	0.	20.397
9265	15.249	5.7273	0.	68.754
9266	15.157	5.8182	0.	46.85
9267	15.249	5.8182	5.e-002	26.962
9268	15.249	5.9091	0.	22.699
9269	15.249	5.5455	0.	126.15
9270	15.157	5.6364	0.	90.217
9271	15.249	5.6364	5.e-002	24.1
9272	15.249	5.3636	0.	207.48
9273	15.157	5.4545	0.	153.46
9274	15.249	5.4545	5.e-002	24.259
9275	15.249	5.1818	0.	306.83
9276	15.157	5.2727	0.	233.59
9277	15.249	5.2727	5.e-002	25.068
9278	15.249	5.	0.	418.45
9279	15.157	5.0909	0.	326.09
9280	15.249	5.0909	5.e-002	26.314
9281	15.249	4.8182	0.	534.78
9282	15.157	4.9091	0.	424.85
9283	15.249	4.9091	5.e-002	27.856
9284	15.249	4.6364	0.	643.07
9285	15.157	4.7273	0.	520.51
9286	15.249	4.7273	5.e-002	29.128
9287	15.249	4.4545	0.	716.85
9288	15.157	4.5455	0.	598.16
9289	15.249	4.5455	5.e-002	28.59
9290	15.249	4.2727	0.	717.68
9291	15.157	4.3636	0.	630.59
9292	15.249	4.3636	5.e-002	27.785
9293	15.249	4.0909	0.	631.78
9294	15.157	4.1818	0.	590.85
9295	15.249	4.1818	5.e-002	25.033
9296	15.249	3.9091	0.	500.67
9297	15.157	4.	0.	490.32
9298	15.249	4.	5.e-002	32.07
9299	15.249	3.7273	0.	394.51
9300	15.157	3.8182	0.	383.1
9301	15.249	3.8182	5.e-002	34.668
9302	15.249	3.5455	0.	341.39
9303	15.157	3.6364	0.	317.23
9304	15.249	3.6364	5.e-002	34.128
9305	15.249	3.3636	0.	321.63
9306	15.157	3.4545	0.	289.32
9307	15.249	3.4545	5.e-002	28.803
9308	15.249	3.1818	0.	314.99
9309	15.157	3.2727	0.	279.26
9310	15.249	3.2727	5.e-002	24.568
9311	15.249	3.	0.	313.46
9312	15.157	3.0909	0.	276.26
9313	15.249	3.0909	5.e-002	22.121
9314	15.249	2.8182	0.	314.99
9315	15.157	2.9091	0.	276.26
9316	15.249	2.9091	5.e-002	22.121
9317	15.249	2.6364	0.	321.63
9318	15.157	2.7273	0.	279.26
9319	15.249	2.7273	5.e-002	24.568
9320	15.249	2.4545	0.	341.39
9321	15.157	2.5455	0.	289.32
9322	15.249	2.5455	5.e-002	28.803
9323	15.249	2.2727	0.	394.51
9324	15.157	2.3636	0.	317.23
9325	15.249	2.3636	5.e-002	34.128
9326	15.249	2.0909	0.	500.67
9327	15.157	2.1818	0.	383.1
9328	15.249	2.1818	5.e-002	34.668
9329	15.249	1.9091	0.	631.78
9330	15.157	2.	0.	490.32
9331	15.249	2.	5.e-002	32.07
9332	15.249	1.7273	0.	717.68
9333	15.157	1.8182	0.	590.85
9334	15.249	1.8182	5.e-002	25.033
9335	15.249	1.5455	0.	716.85
9336	15.157	1.6364	0.	630.59
9337	15.249	1.6364	5.e-002	27.785
9338	15.249	1.3636	0.	643.07
9339	15.157	1.4545	0.	598.16
9340	15.249	1.4545	5.e-002	28.59
9341	15.249	1.1818	0.	534.78
9342	15.157	1.2727	0.	520.51
9343	15.249	1.2727	5.e-002	29.128
9344	15.249	1.	0.	418.45
9345	15.157	1.0909	0.	424.85
9346	15.249	1.0909	5.e-002	27.856
9347	15.249	0.81818	0.	306.83
9348	15.157	0.90909	0.	326.09
9349	15.249	0.90909	5.e-002	26.314
9350	15.249	0.63636	0.	207.48
9351	15.157	0.72727	0.	233.59
9352	15.249	0.72727	5.e-002	25.068
9353	15.249	0.45455	0.	126.15
9354	15.157	0.54545	0.	153.46
9355	15.249	0.54545	5.e-002	24.259
9356	15.249	0.27273	0.	68.754
9357	15.157	0.36364	0.	90.217
9358	15.249	0.36364	5.e-002	24.1
9359	15.157	0.18182	0.	46.85
9360	15.249	0.18182	5.e-002	26.962
9361	15.249	9.0909e-002	0.	22.699
9362	15.065	5.7273	0.	69.832
9363	14.973	5.8182	0.	47.034
9364	15.065	5.8182	5.e-002	24.937
9365	15.065	5.9091	0.	24.198
9366	15.065	5.5455	0.	121.14
9367	14.973	5.6364	0.	91.374
9368	15.065	5.6364	5.e-002	22.283
9369	15.065	5.3636	0.	185.87
9370	14.973	5.4545	0.	145.08
9371	15.065	5.4545	5.e-002	22.212
9372	15.065	5.1818	0.	261.33
9373	14.973	5.2727	0.	207.77
9374	15.065	5.2727	5.e-002	22.441
9375	15.065	5.	0.	342.51
9376	14.973	5.0909	0.	276.63
9377	15.065	5.0909	5.e-002	22.705
9378	15.065	4.8182	0.	421.43
9379	14.973	4.9091	0.	346.08
9380	15.065	4.9091	5.e-002	22.733
9381	15.065	4.6364	0.	486.13
9382	14.973	4.7273	0.	407.65
9383	15.065	4.7273	5.e-002	22.084
9384	15.065	4.4545	0.	520.28
9385	14.973	4.5455	0.	449.5
9386	15.065	4.5455	5.e-002	20.441
9387	15.065	4.2727	0.	508.23
9388	14.973	4.3636	0.	457.9
9389	15.065	4.3636	5.e-002	18.008
9390	15.065	4.0909	0.	450.83
9391	14.973	4.1818	0.	424.95
9392	15.065	4.1818	5.e-002	17.5
9393	15.065	3.9091	0.	372.53
9394	14.973	4.	0.	362.17
9395	15.065	4.	5.e-002	19.77
9396	15.065	3.7273	0.	304.59
9397	14.973	3.8182	0.	295.78
9398	15.065	3.8182	5.e-002	21.656
9399	15.065	3.5455	0.	263.28
9400	14.973	3.6364	0.	247.72
9401	15.065	3.6364	5.e-002	22.286
9402	15.065	3.3636	0.	244.91
9403	14.973	3.4545	0.	222.36
9404	15.065	3.4545	5.e-002	21.566
9405	15.065	3.1818	0.	238.57
9406	14.973	3.2727	0.	211.87
9407	15.065	3.2727	5.e-002	20.352
9408	15.065	3.	0.	237.16
9409	14.973	3.0909	0.	208.46
9410	15.065	3.0909	5.e-002	19.503
9411	15.065	2.8182	0.	238.57
9412	14.973	2.9091	0.	208.46
9413	15.065	2.9091	5.e-002	19.503
9414	15.065	2.6364	0.	244.91
9415	14.973	2.7273	0.	211.87
9416	15.065	2.7273	5.e-002	20.352
9417	15.065	2.4545	0.	263.28
9418	14.973	2.5455	0.	222.36
9419	15.065	2.5455	5.e-002	21.566
9420	15.065	2.2727	0.	304.59
9421	14.973	2.3636	0.	247.72
9422	15.065	2.3636	5.e-002	22.286
9423	15.065	2.0909	0.	372.53
9424	14.973	2.1818	0.	295.78
9425	15.065	2.1818	5.e-002	21.656
9426	15.065	1.9091	0.	450.83
9427	14.973	2.	0.	362.17
9428	15.065	2.	5.e-002	19.77
9429	15.065	1.7273	0.	508.23
9430	14.973	1.8182	0.	424.95
9431	15.065	1.8182	5.e-002	17.5
9432	15.065	1.5455	0.	520.28
9433	14.973	1.6364	0.	457.9
9434	15.065	1.6364	5.e-002	18.008
9435	15.065	1.3636	0.	486.13
9436	14.973	1.4545	0.	449.5
9437	15.065	1.4545	5.e-002	20.441
9438	15.065	1.1818	0.	421.43
9439	14.973	1.2727	0.	407.65
9440	15.065	1.2727	5.e-002	22.084
9441	15.065	1.	0.	342.51
9442	14.973	1.0909	0.	346.08
9443	15.065	1.0909	5.e-002	22.733
9444	15.065	0.81818	0.	261.33
9445	14.973	0.90909	0.	276.63
9446	15.065	0.90909	5.e-002	22.705
9447	15.065	0.63636	0.	185.87
9448	14.973	0.72727	0.	207.77
9449	15.065	0.72727	5.e-002	22.441
9450	15.065	0.45455	0.	121.14
9451	14.973	0.54545	0.	145.08
9452	15.065	0.54545	5.e-002	22.212
9453	15.065	0.27273	0.	69.832
9454	14.973	0.36364	0.	91.374
9455	15.065	0.36364	5.e-002	22.283
9456	14.973	0.18182	0.	47.034
9457	15.065	0.18182	5.e-002	24.937
9458	15.065	9.0909e-002	0.	24.198
9459	14.881	5.7273	0.	69.434
9460	14.79	5.8182	0.	45.74
9461	14.881	5.8182	5.e-002	22.506
9462	14.881	5.9091	0.	24.32
9463	14.881	5.5455	0.	117.22
9464	14.79	5.6364	0.	90.432
9465	14.881	5.6364	5.e-002	20.201
9466	14.881	5.3636	0.	170.51
9467	14.79	5.4545	0.	137.61
9468	14.881	5.4545	5.e-002	19.914
9469	14.881	5.1818	0.	228.13
9470	14.79	5.2727	0.	187.72
9471	14.881	5.2727	5.e-002	19.708
9472	14.881	5.	0.	286.37
9473	14.79	5.0909	0.	239.02
9474	14.881	5.0909	5.e-002	19.336
9475	14.881	4.8182	0.	338.9
9476	14.79	4.9091	0.	287.27
9477	14.881	4.9091	5.e-002	18.589
9478	14.881	4.6364	0.	377.19
9479	14.79	4.7273	0.	326.22
9480	14.881	4.7273	5.e-002	17.276
9481	14.881	4.4545	0.	391.94
9482	14.79	4.5455	0.	348.31
9483	14.881	4.5455	5.e-002	15.378
9484	14.881	4.2727	0.	377.64
9485	14.79	4.3636	0.	346.95
9486	14.881	4.3636	5.e-002	13.557
9487	14.881	4.0909	0.	337.81
9488	14.79	4.1818	0.	321.15
9489	14.881	4.1818	5.e-002	13.016
9490	14.881	3.9091	0.	285.99
9491	14.79	4.	0.	278.49
9492	14.881	4.	5.e-002	13.758
9493	14.881	3.7273	0.	238.8
9494	14.79	3.8182	0.	232.95
9495	14.881	3.8182	5.e-002	14.73
9496	14.881	3.5455	0.	206.11
9497	14.79	3.6364	0.	196.66
9498	14.881	3.6364	5.e-002	15.418
9499	14.881	3.3636	0.	188.22
9500	14.79	3.4545	0.	173.83
9501	14.881	3.4545	5.e-002	15.772
9502	14.881	3.1818	0.	180.46
9503	14.79	3.2727	0.	162.19
9504	14.881	3.2727	5.e-002	15.788
9505	14.881	3.	0.	178.42
9506	14.79	3.0909	0.	157.65
9507	14.881	3.0909	5.e-002	15.708
9508	14.881	2.8182	0.	180.46
9509	14.79	2.9091	0.	157.65
9510	14.881	2.9091	5.e-002	15.708
9511	14.881	2.6364	0.	188.22
9512	14.79	2.7273	0.	162.19
9513	14.881	2.7273	5.e-002	15.788
9514	14.881	2.4545	0.	206.11
9515	14.79	2.5455	0.	173.83
9516	14.881	2.5455	5.e-002	15.772
9517	14.881	2.2727	0.	238.8
9518	14.79	2.3636	0.	196.66
9519	14.881	2.3636	5.e-002	15.418
9520	14.881	2.0909	0.	285.99
9521	14.79	2.1818	0.	232.95
9522	14.881	2.1818	5.e-002	14.73
9523	14.881	1.9091	0.	337.81
9524	14.79	2.	0.	278.49
9525	14.881	2.	5.e-002	13.758
9526	14.881	1.7273	0.	377.64
9527	14.79	1.8182	0.	321.15
9528	14.881	1.8182	5.e-002	13.016
9529	14.881	1.5455	0.	391.94
9530	14.79	1.6364	0.	346.95
9531	14.881	1.6364	5.e-002	13.557
9532	14.881	1.3636	0.	377.19
9533	14.79	1.4545	0.	348.31
9534	14.881	1.4545	5.e-002	15.378
9535	14.881	1.1818	0.	338.9
9536	14.79	1.2727	0.	326.22
9537	14.881	1.2727	5.e-002	17.276
9538	14.881	1.	0.	286.37
9539	14.79	1.0909	0.	287.27
9540	14.881	1.0909	5.e-002	18.589
9541	14.881	0.81818	0.	228.13
9542	14.79	0.90909	0.	239.02
9543	14.881	0.90909	5.e-002	19.336
9544	14.881	0.63636	0.	170.51
9545	14.79	0.72727	0.	187.72
9546	14.881	0.72727	5.e-002	19.708
9547	14.881	0.45455	0.	117.22
9548	14.79	0.54545	0.	137.61
9549	14.881	0.54545	5.e-002	19.914
9550	14.881	0.27273	0.	69.434
9551	14.79	0.36364	0.	90.432
9552	14.881	0.36364	5.e-002	20.201
9553	14.79	0.18182	0.	45.74
9554	14.881	0.18182	5.e-002	22.506
9555	14.881	9.0909e-002	0.	24.32
9556	14.698	5.7273	0.	67.254
9557	14.606	5.8182	0.	43.468
9558	14.698	5.8182	5.e-002	19.9
9559	14.698	5.9091	0.	23.601
9560	14.698	5.5455	0.	111.94
9561	14.606	5.6364	0.	87.159
9562	14.698	5.6364	5.e-002	18.065
9563	14.698	5.3636	0.	156.89
9564	14.606	5.4545	0.	129.14
9565	14.698	5.4545	5.e-002	17.632
9566	14.698	5.1818	0.	201.61
9567	14.606	5.2727	0.	170.03
9568	14.698	5.2727	5.e-002	17.16
9569	14.698	5.	0.	243.6
9570	14.606	5.0909	0.	208.76
9571	14.698	5.0909	5.e-002	16.462
9572	14.698	4.8182	0.	278.5
9573	14.606	4.9091	0.	242.43
9574	14.698	4.9091	5.e-002	15.425
9575	14.698	4.6364	0.	300.97
9576	14.606	4.7273	0.	266.97
9577	14.698	4.7273	5.e-002	13.999
9578	14.698	4.4545	0.	306.21
9579	14.606	4.5455	0.	278.06
9580	14.698	4.5455	5.e-002	12.329
9581	14.698	4.2727	0.	292.45
9582	14.606	4.3636	0.	272.88
9583	14.698	4.3636	5.e-002	10.848
9584	14.698	4.0909	0.	263.03
9585	14.606	4.1818	0.	252.11
9586	14.698	4.1818	5.e-002	10.09
9587	14.698	3.9091	0.	226.09
9588	14.606	4.	0.	220.98
9589	14.698	4.	5.e-002	10.082
9590	14.698	3.7273	0.	191.
9591	14.606	3.8182	0.	187.49
9592	14.698	3.8182	5.e-002	10.441
9593	14.698	3.5455	0.	164.17
9594	14.606	3.6364	0.	158.84
9595	14.698	3.6364	5.e-002	10.912
9596	14.698	3.3636	0.	147.25
9597	14.606	3.4545	0.	138.6
9598	14.698	3.4545	5.e-002	11.378
9599	14.698	3.1818	0.	138.62
9600	14.606	3.2727	0.	126.7
9601	14.698	3.2727	5.e-002	11.718
9602	14.698	3.	0.	136.05
9603	14.606	3.0909	0.	121.43
9604	14.698	3.0909	5.e-002	11.883
9605	14.698	2.8182	0.	138.62
9606	14.606	2.9091	0.	121.43
9607	14.698	2.9091	5.e-002	11.883
9608	14.698	2.6364	0.	147.25
9609	14.606	2.7273	0.	126.7
9610	14.698	2.7273	5.e-002	11.718
9611	14.698	2.4545	0.	164.17
9612	14.606	2.5455	0.	138.6
9613	14.698	2.5455	5.e-002	11.378
9614	14.698	2.2727	0.	191.
9615	14.606	2.3636	0.	158.84
9616	14.698	2.3636	5.e-002	10.912
9617	14.698	2.0909	0.	226.09
9618	14.606	2.1818	0.	187.49
9619	14.698	2.1818	5.e-002	10.441
9620	14.698	1.9091	0.	263.03
9621	14.606	2.	0.	220.98
9622	14.698	2.	5.e-002	10.082
9623	14.698	1.7273	0.	292.45
9624	14.606	1.8182	0.	252.11
9625	14.698	1.8182	5.e-002	10.09
9626	14.698	1.5455	0.	306.21
9627	14.606	1.6364	0.	272.88
9628	14.698	1.6364	5.e-002	10.848
9629	14.698	1.3636	0.	300.97
9630	14.606	1.4545	0.	278.06
9631	14.698	1.4545	5.e-002	12.329
9632	14.698	1.1818	0.	278.5
9633	14.606	1.2727	0.	266.97
9634	14.698	1.2727	5.e-002	13.999
9635	14.698	1.	0.	243.6
9636	14.606	1.0909	0.	242.43
9637	14.698	1.0909	5.e-002	15.425
9638	14.698	0.81818	0.	201.61
9639	14.606	0.90909	0.	208.76
9640	14.698	0.90909	5.e-002	16.462
9641	14.698	0.63636	0.	156.89
9642	14.606	0.72727	0.	170.03
9643	14.698	0.72727	5.e-002	17.16
9644	14.698	0.45455	0.	111.94
9645	14.606	0.54545	0.	129.14
9646	14.698	0.54545	5.e-002	17.632
9647	14.698	0.27273	0.	67.254
9648	14.606	0.36364	0.	87.159
9649	14.698	0.36364	5.e-002	18.065
9650	14.606	0.18182	0.	43.468
9651	14.698	0.18182	5.e-002	19.9
9652	14.698	9.0909e-002	0.	23.601
9653	14.514	5.7273	0.	63.669
9654	14.422	5.8182	0.	40.641
9655	14.514	5.8182	5.e-002	17.306
9656	14.514	5.9091	0.	22.386
9657	14.514	5.5455	0.	105.06
9658	14.422	5.6364	0.	82.109
9659	14.514	5.6364	5.e-002	16.026
9660	14.514	5.3636	0.	143.53
9661	14.422	5.4545	0.	119.54
9662	14.514	5.4545	5.e-002	15.528
9663	14.514	5.1818	0.	178.96
9664	14.422	5.2727	0.	153.48
9665	14.514	5.2727	5.e-002	14.931
9666	14.514	5.	0.	209.75
9667	14.422	5.0909	0.	183.31
9668	14.514	5.0909	5.e-002	14.118
9669	14.514	4.8182	0.	233.19
9670	14.422	4.9091	0.	207.21
9671	14.514	4.9091	5.e-002	13.042
9672	14.514	4.6364	0.	246.2
9673	14.422	4.7273	0.	222.75
9674	14.514	4.7273	5.e-002	11.723
9675	14.514	4.4545	0.	246.48
9676	14.422	4.5455	0.	227.68
9677	14.514	4.5455	5.e-002	10.292
9678	14.514	4.2727	0.	233.82
9679	14.422	4.3636	0.	220.97
9680	14.514	4.3636	5.e-002	9.0093
9681	14.514	4.0909	0.	210.91
9682	14.422	4.1818	0.	203.8
9683	14.514	4.1818	5.e-002	8.1238
9684	14.514	3.9091	0.	182.9
9685	14.422	4.	0.	179.75
9686	14.514	4.	5.e-002	7.6929
9687	14.514	3.7273	0.	155.57
9688	14.422	3.8182	0.	153.81
9689	14.514	3.8182	5.e-002	7.6046
9690	14.514	3.5455	0.	133.25
9691	14.422	3.6364	0.	130.6
9692	14.514	3.6364	5.e-002	7.7552
9693	14.514	3.3636	0.	117.81
9694	14.422	3.4545	0.	112.92
9695	14.514	3.4545	5.e-002	8.0436
9696	14.514	3.1818	0.	109.12
9697	14.422	3.2727	0.	101.57
9698	14.514	3.2727	5.e-002	8.3367
9699	14.514	3.	0.	106.36
9700	14.422	3.0909	0.	96.158
9701	14.514	3.0909	5.e-002	8.5127
9702	14.514	2.8182	0.	109.12
9703	14.422	2.9091	0.	96.158
9704	14.514	2.9091	5.e-002	8.5127
9705	14.514	2.6364	0.	117.81
9706	14.422	2.7273	0.	101.57
9707	14.514	2.7273	5.e-002	8.3367
9708	14.514	2.4545	0.	133.25
9709	14.422	2.5455	0.	112.92
9710	14.514	2.5455	5.e-002	8.0435
9711	14.514	2.2727	0.	155.57
9712	14.422	2.3636	0.	130.6
9713	14.514	2.3636	5.e-002	7.7552
9714	14.514	2.0909	0.	182.9
9715	14.422	2.1818	0.	153.81
9716	14.514	2.1818	5.e-002	7.6046
9717	14.514	1.9091	0.	210.91
9718	14.422	2.	0.	179.75
9719	14.514	2.	5.e-002	7.6929
9720	14.514	1.7273	0.	233.82
9721	14.422	1.8182	0.	203.8
9722	14.514	1.8182	5.e-002	8.1238
9723	14.514	1.5455	0.	246.48
9724	14.422	1.6364	0.	220.97
9725	14.514	1.6364	5.e-002	9.0093
9726	14.514	1.3636	0.	246.2
9727	14.422	1.4545	0.	227.68
9728	14.514	1.4545	5.e-002	10.292
9729	14.514	1.1818	0.	233.19
9730	14.422	1.2727	0.	222.75
9731	14.514	1.2727	5.e-002	11.723
9732	14.514	1.	0.	209.75
9733	14.422	1.0909	0.	207.21
9734	14.514	1.0909	5.e-002	13.042
9735	14.514	0.81818	0.	178.96
9736	14.422	0.90909	0.	183.31
9737	14.514	0.90909	5.e-002	14.118
9738	14.514	0.63636	0.	143.53
9739	14.422	0.72727	0.	153.48
9740	14.514	0.72727	5.e-002	14.931
9741	14.514	0.45455	0.	105.06
9742	14.422	0.54545	0.	119.54
9743	14.514	0.54545	5.e-002	15.528
9744	14.514	0.27273	0.	63.669
9745	14.422	0.36364	0.	82.109
9746	14.514	0.36364	5.e-002	16.026
9747	14.422	0.18182	0.	40.641
9748	14.514	0.18182	5.e-002	17.306
9749	14.514	9.0909e-002	0.	22.386
9750	14.33	5.7273	0.	59.223
9751	14.238	5.8182	0.	37.594
9752	14.33	5.8182	5.e-002	14.856
9753	14.33	5.9091	0.	20.942
9754	14.33	5.5455	0.	97.034
9755	14.238	5.6364	0.	75.976
9756	14.33	5.6364	5.e-002	14.169
9757	14.33	5.3636	0.	130.25
9758	14.238	5.4545	0.	109.25
9759	14.33	5.4545	5.e-002	13.674
9760	14.33	5.1818	0.	158.9
9761	14.238	5.2727	0.	137.8
9762	14.33	5.2727	5.e-002	13.049
9763	14.33	5.	0.	182.04
9764	14.238	5.0909	0.	161.31
9765	14.33	5.0909	5.e-002	12.241
9766	14.33	4.8182	0.	198.11
9767	14.238	4.9091	0.	178.71
9768	14.33	4.9091	5.e-002	11.24
9769	14.33	4.6364	0.	205.49
9770	14.238	4.7273	0.	188.67
9771	14.33	4.7273	5.e-002	10.083
9772	14.33	4.4545	0.	203.23
9773	14.238	4.5455	0.	190.18
9774	14.33	4.5455	5.e-002	8.8636
9775	14.33	4.2727	0.	191.76
9776	14.238	4.3636	0.	183.08
9777	14.33	4.3636	5.e-002	7.7223
9778	14.33	4.0909	0.	173.21
9779	14.238	4.1818	0.	168.58
9780	14.33	4.1818	5.e-002	6.7841
9781	14.33	3.9091	0.	151.03
9782	14.238	4.	0.	149.27
9783	14.33	4.	5.e-002	6.1028
9784	14.33	3.7273	0.	129.03
9785	14.238	3.8182	0.	128.45
9786	14.33	3.8182	5.e-002	5.6762
9787	14.33	3.5455	0.	110.3
9788	14.238	3.6364	0.	109.3
9789	14.33	3.6364	5.e-002	5.4919
9790	14.33	3.3636	0.	96.573
9791	14.238	3.4545	0.	94.025
9792	14.33	3.4545	5.e-002	5.5087
9793	14.33	3.1818	0.	88.406
9794	14.238	3.2727	0.	83.697
9795	14.33	3.2727	5.e-002	5.6242
9796	14.33	3.	0.	85.719
9797	14.238	3.0909	0.	78.561
9798	14.33	3.0909	5.e-002	5.7189
9799	14.33	2.8182	0.	88.406
9800	14.238	2.9091	0.	78.561
9801	14.33	2.9091	5.e-002	5.7189
9802	14.33	2.6364	0.	96.573
9803	14.238	2.7273	0.	83.697
9804	14.33	2.7273	5.e-002	5.6242
9805	14.33	2.4545	0.	110.3
9806	14.238	2.5455	0.	94.025
9807	14.33	2.5455	5.e-002	5.5087
9808	14.33	2.2727	0.	129.03
9809	14.238	2.3636	0.	109.3
9810	14.33	2.3636	5.e-002	5.4919
9811	14.33	2.0909	0.	151.03
9812	14.238	2.1818	0.	128.45
9813	14.33	2.1818	5.e-002	5.6762
9814	14.33	1.9091	0.	173.21
9815	14.238	2.	0.	149.27
9816	14.33	2.	5.e-002	6.1028
9817	14.33	1.7273	0.	191.76
9818	14.238	1.8182	0.	168.58
9819	14.33	1.8182	5.e-002	6.7841
9820	14.33	1.5455	0.	203.23
9821	14.238	1.6364	0.	183.08
9822	14.33	1.6364	5.e-002	7.7223
9823	14.33	1.3636	0.	205.49
9824	14.238	1.4545	0.	190.18
9825	14.33	1.4545	5.e-002	8.8636
9826	14.33	1.1818	0.	198.11
9827	14.238	1.2727	0.	188.67
9828	14.33	1.2727	5.e-002	10.083
9829	14.33	1.	0.	182.04
9830	14.238	1.0909	0.	178.71
9831	14.33	1.0909	5.e-002	11.24
9832	14.33	0.81818	0.	158.9
9833	14.238	0.90909	0.	161.31
9834	14.33	0.90909	5.e-002	12.241
9835	14.33	0.63636	0.	130.25
9836	14.238	0.72727	0.	137.8
9837	14.33	0.72727	5.e-002	13.049
9838	14.33	0.45455	0.	97.034
9839	14.238	0.54545	0.	109.25
9840	14.33	0.54545	5.e-002	13.674
9841	14.33	0.27273	0.	59.223
9842	14.238	0.36364	0.	75.976
9843	14.33	0.36364	5.e-002	14.169
9844	14.238	0.18182	0.	37.594
9845	14.33	0.18182	5.e-002	14.856
9846	14.33	9.0909e-002	0.	20.942
9847	14.147	5.7273	0.	54.385
9848	14.055	5.8182	0.	34.559
9849	14.147	5.8182	5.e-002	12.628
9850	14.147	5.9091	0.	19.441
9851	14.147	5.5455	0.	88.466
9852	14.055	5.6364	0.	69.357
9853	14.147	5.6364	5.e-002	12.534
9854	14.147	5.3636	0.	117.27
9855	14.055	5.4545	0.	98.793
9856	14.147	5.4545	5.e-002	12.087
9857	14.147	5.1818	0.	140.86
9858	14.055	5.2727	0.	123.06
9859	14.147	5.2727	5.e-002	11.492
9860	14.147	5.	0.	158.74
9861	14.055	5.0909	0.	142.
9862	14.147	5.0909	5.e-002	10.749
9863	14.147	4.8182	0.	170.07
9864	14.055	4.9091	0.	155.05
9865	14.147	4.9091	5.e-002	9.8636
9866	14.147	4.6364	0.	174.12
9867	14.055	4.7273	0.	161.58
9868	14.147	4.7273	5.e-002	8.8705
9869	14.147	4.4545	0.	170.67
9870	14.055	4.5455	0.	161.25
9871	14.147	4.5455	5.e-002	7.83
9872	14.147	4.2727	0.	160.4
9873	14.055	4.3636	0.	154.33
9874	14.147	4.3636	5.e-002	6.8159
9875	14.147	4.0909	0.	145.01
9876	14.055	4.1818	0.	141.97
9877	14.147	4.1818	5.e-002	5.889
9878	14.147	3.9091	0.	126.93
9879	14.055	4.	0.	126.07
9880	14.147	4.	5.e-002	5.0825
9881	14.147	3.7273	0.	108.86
9882	14.055	3.8182	0.	109.
9883	14.147	3.8182	5.e-002	4.4177
9884	14.147	3.5455	0.	93.072
9885	14.055	3.6364	0.	93.036
9886	14.147	3.6364	5.e-002	3.9257
9887	14.147	3.3636	0.	81.111
9888	14.055	3.4545	0.	79.954
9889	14.147	3.4545	5.e-002	3.6302
9890	14.147	3.1818	0.	73.757
9891	14.055	3.2727	0.	70.836
9892	14.147	3.2727	5.e-002	3.5042
9893	14.147	3.	0.	71.289
9894	14.055	3.0909	0.	66.192
9895	14.147	3.0909	5.e-002	3.4725
9896	14.147	2.8182	0.	73.757
9897	14.055	2.9091	0.	66.192
9898	14.147	2.9091	5.e-002	3.4725
9899	14.147	2.6364	0.	81.11
9900	14.055	2.7273	0.	70.836
9901	14.147	2.7273	5.e-002	3.5042
9902	14.147	2.4545	0.	93.072
9903	14.055	2.5455	0.	79.954
9904	14.147	2.5455	5.e-002	3.6302
9905	14.147	2.2727	0.	108.86
9906	14.055	2.3636	0.	93.036
9907	14.147	2.3636	5.e-002	3.9257
9908	14.147	2.0909	0.	126.93
9909	14.055	2.1818	0.	109.
9910	14.147	2.1818	5.e-002	4.4177
9911	14.147	1.9091	0.	145.
9912	14.055	2.	0.	126.07
9913	14.147	2.	5.e-002	5.0825
9914	14.147	1.7273	0.	160.4
9915	14.055	1.8182	0.	141.97
9916	14.147	1.8182	5.e-002	5.889
9917	14.147	1.5455	0.	170.67
9918	14.055	1.6364	0.	154.33
9919	14.147	1.6364	5.e-002	6.8159
9920	14.147	1.3636	0.	174.12
9921	14.055	1.4545	0.	161.25
9922	14.147	1.4545	5.e-002	7.83
9923	14.147	1.1818	0.	170.07
9924	14.055	1.2727	0.	161.58
9925	14.147	1.2727	5.e-002	8.8705
9926	14.147	1.	0.	158.74
9927	14.055	1.0909	0.	155.05
9928	14.147	1.0909	5.e-002	9.8636
9929	14.147	0.81818	0.	140.86
9930	14.055	0.90909	0.	142.
9931	14.147	0.90909	5.e-002	10.749
9932	14.147	0.63636	0.	117.27
9933	14.055	0.72727	0.	123.06
9934	14.147	0.72727	5.e-002	11.492
9935	14.147	0.45455	0.	88.466
9936	14.055	0.54545	0.	98.793
9937	14.147	0.54545	5.e-002	12.087
9938	14.147	0.27273	0.	54.385
9939	14.055	0.36364	0.	69.357
9940	14.147	0.36364	5.e-002	12.534
9941	14.055	0.18182	0.	34.559
9942	14.147	0.18182	5.e-002	12.628
9943	14.147	9.0909e-002	0.	19.441
9944	13.963	5.7273	0.	49.503
9945	13.871	5.8182	0.	31.677
9946	13.963	5.8182	5.e-002	10.657
9947	13.963	5.9091	0.	17.99
9948	13.963	5.5455	0.	79.85
9949	13.871	5.6364	0.	62.701
9950	13.963	5.6364	5.e-002	11.129
9951	13.963	5.3636	0.	104.87
9952	13.871	5.4545	0.	88.594
9953	13.963	5.4545	5.e-002	10.756
9954	13.963	5.1818	0.	124.59
9955	13.871	5.2727	0.	109.35
9956	13.963	5.2727	5.e-002	10.22
9957	13.963	5.	0.	138.77
9958	13.871	5.0909	0.	124.92
9959	13.963	5.0909	5.e-002	9.5644
9960	13.963	4.8182	0.	147.04
9961	13.871	4.9091	0.	135.03
9962	13.963	4.9091	5.e-002	8.8029
9963	13.963	4.6364	0.	149.16
9964	13.871	4.7273	0.	139.45
9965	13.963	4.7273	5.e-002	7.9608
9966	13.963	4.4545	0.	145.3
9967	13.871	4.5455	0.	138.22
9968	13.963	4.5455	5.e-002	7.0753
9969	13.963	4.2727	0.	136.21
9970	13.871	4.3636	0.	131.8
9971	13.963	4.3636	5.e-002	6.185
9972	13.963	4.0909	0.	123.26
9973	13.871	4.1818	0.	121.22
9974	13.963	4.1818	5.e-002	5.3178
9975	13.963	3.9091	0.	108.29
9976	13.871	4.	0.	107.96
9977	13.963	4.	5.e-002	4.488
9978	13.963	3.7273	0.	93.27
9979	13.871	3.8182	0.	93.782
9980	13.963	3.8182	5.e-002	3.7055
9981	13.963	3.5455	0.	79.958
9982	13.871	3.6364	0.	80.417
9983	13.963	3.6364	5.e-002	2.9919
9984	13.963	3.3636	0.	69.672
9985	13.871	3.4545	0.	69.291
9986	13.963	3.4545	5.e-002	2.3865
9987	13.963	3.1818	0.	63.231
9988	13.871	3.2727	0.	61.4
9989	13.963	3.2727	5.e-002	1.9402
9990	13.963	3.	0.	61.044
9991	13.871	3.0909	0.	57.327
9992	13.963	3.0909	5.e-002	1.7015
9993	13.963	2.8182	0.	63.231
9994	13.871	2.9091	0.	57.327
9995	13.963	2.9091	5.e-002	1.7015
9996	13.963	2.6364	0.	69.672
9997	13.871	2.7273	0.	61.4
9998	13.963	2.7273	5.e-002	1.9402
9999	13.963	2.4545	0.	79.958
10000	13.871	2.5455	0.	69.291
10001	13.963	2.5455	5.e-002	2.3866
10002	13.963	2.2727	0.	93.27
10003	13.871	2.3636	0.	80.417
10004	13.963	2.3636	5.e-002	2.9919
10005	13.963	2.0909	0.	108.29
10006	13.871	2.1818	0.	93.782
10007	13.963	2.1818	5.e-002	3.7055
10008	13.963	1.9091	0.	123.26
10009	13.871	2.	0.	107.96
10010	13.963	2.	5.e-002	4.488
10011	13.963	1.7273	0.	136.21
10012	13.871	1.8182	0.	121.22
10013	13.963	1.8182	5.e-002	5.3178
10014	13.963	1.5455	0.	145.3
10015	13.871	1.6364	0.	131.8
10016	13.963	1.6364	5.e-002	6.185
10017	13.963	1.3636	0.	149.16
10018	13.871	1.4545	0.	138.22
10019	13.963	1.4545	5.e-002	7.0753
10020	13.963	1.1818	0.	147.04
10021	13.871	1.2727	0.	139.45
10022	13.963	1.2727	5.e-002	7.9608
10023	13.963	1.	0.	138.77
10024	13.871	1.0909	0.	135.03
10025	13.963	1.0909	5.e-002	8.8029
10026	13.963	0.81818	0.	124.59
10027	13.871	0.90909	0.	124.92
10028	13.963	0.90909	5.e-002	9.5644
10029	13.963	0.63636	0.	104.87
10030	13.871	0.72727	0.	109.35
10031	13.963	0.72727	5.e-002	10.22
10032	13.963	0.45455	0.	79.85
10033	13.871	0.54545	0.	88.594
10034	13.963	0.54545	5.e-002	10.756
10035	13.963	0.27273	0.	49.503
10036	13.871	0.36364	0.	62.701
10037	13.963	0.36364	5.e-002	11.129
10038	13.871	0.18182	0.	31.677
10039	13.963	0.18182	5.e-002	10.657
10040	13.963	9.0909e-002	0.	17.99
10041	13.779	5.7273	0.	44.807
10042	13.687	5.8182	0.	29.026
10043	13.779	5.8182	5.e-002	8.9467
10044	13.779	5.9091	0.	16.645
10045	13.779	5.5455	0.	71.54
10046	13.687	5.6364	0.	56.302
10047	13.779	5.6364	5.e-002	9.9425
10048	13.779	5.3636	0.	93.257
10049	13.687	5.4545	0.	78.951
10050	13.779	5.4545	5.e-002	9.6526
10051	13.779	5.1818	0.	109.93
10052	13.687	5.2727	0.	96.786
10053	13.779	5.2727	5.e-002	9.1881
10054	13.779	5.	0.	121.46
10055	13.687	5.0909	0.	109.79
10056	13.779	5.0909	5.e-002	8.6257
10057	13.779	4.8182	0.	127.72
10058	13.687	4.9091	0.	117.85
10059	13.779	4.9091	5.e-002	7.9812
10060	13.779	4.6364	0.	128.77
10061	13.687	4.7273	0.	120.98
10062	13.779	4.7273	5.e-002	7.2731
10063	13.779	4.4545	0.	124.95
10064	13.687	4.5455	0.	119.4
10065	13.779	4.5455	5.e-002	6.5243
10066	13.779	4.2727	0.	117.
10067	13.687	4.3636	0.	113.64
10068	13.779	4.3636	5.e-002	5.7555
10069	13.779	4.0909	0.	106.06
10070	13.687	4.1818	0.	104.6
10071	13.779	4.1818	5.e-002	4.9798
10072	13.779	3.9091	0.	93.548
10073	13.687	4.	0.	93.475
10074	13.779	4.	5.e-002	4.2023
10075	13.779	3.7273	0.	80.993
10076	13.687	3.8182	0.	81.637
10077	13.779	3.8182	5.e-002	3.424
10078	13.779	3.5455	0.	69.782
10079	13.687	3.6364	0.	70.433
10080	13.779	3.6364	5.e-002	2.6483
10081	13.779	3.3636	0.	61.023
10082	13.687	3.4545	0.	61.025
10083	13.779	3.4545	5.e-002	1.883
10084	13.779	3.1818	0.	55.482
10085	13.687	3.2727	0.	54.288
10086	13.779	3.2727	5.e-002	1.1379
10087	13.779	3.	0.	53.589
10088	13.687	3.0909	0.	50.784
10089	13.779	3.0909	5.e-002	0.44424
10090	13.779	2.8182	0.	55.482
10091	13.687	2.9091	0.	50.784
10092	13.779	2.9091	5.e-002	0.44424
10093	13.779	2.6364	0.	61.023
10094	13.687	2.7273	0.	54.288
10095	13.779	2.7273	5.e-002	1.1379
10096	13.779	2.4545	0.	69.782
10097	13.687	2.5455	0.	61.024
10098	13.779	2.5455	5.e-002	1.883
10099	13.779	2.2727	0.	80.993
10100	13.687	2.3636	0.	70.432
10101	13.779	2.3636	5.e-002	2.6483
10102	13.779	2.0909	0.	93.548
10103	13.687	2.1818	0.	81.637
10104	13.779	2.1818	5.e-002	3.424
10105	13.779	1.9091	0.	106.06
10106	13.687	2.	0.	93.475
10107	13.779	2.	5.e-002	4.2023
10108	13.779	1.7273	0.	117.
10109	13.687	1.8182	0.	104.6
10110	13.779	1.8182	5.e-002	4.9798
10111	13.779	1.5455	0.	124.95
10112	13.687	1.6364	0.	113.64
10113	13.779	1.6364	5.e-002	5.7555
10114	13.779	1.3636	0.	128.77
10115	13.687	1.4545	0.	119.4
10116	13.779	1.4545	5.e-002	6.5243
10117	13.779	1.1818	0.	127.72
10118	13.687	1.2727	0.	120.98
10119	13.779	1.2727	5.e-002	7.2731
10120	13.779	1.	0.	121.46
10121	13.687	1.0909	0.	117.85
10122	13.779	1.0909	5.e-002	7.9811
10123	13.779	0.81818	0.	109.93
10124	13.687	0.90909	0.	109.79
10125	13.779	0.90909	5.e-002	8.6256
10126	13.779	0.63636	0.	93.257
10127	13.687	0.72727	0.	96.786
10128	13.779	0.72727	5.e-002	9.1881
10129	13.779	0.45455	0.	71.54
10130	13.687	0.54545	0.	78.951
10131	13.779	0.54545	5.e-002	9.6525
10132	13.779	0.27273	0.	44.807
10133	13.687	0.36364	0.	56.302
10134	13.779	0.36364	5.e-002	9.9425
10135	13.687	0.18182	0.	29.026
10136	13.779	0.18182	5.e-002	8.9467
10137	13.779	9.0909e-002	0.	16.645
10138	13.595	5.7273	0.	40.432
10139	13.503	5.8182	0.	26.637
10140	13.595	5.8182	5.e-002	7.4858
10141	13.595	5.9091	0.	15.431
10142	13.595	5.5455	0.	63.762
10143	13.503	5.6364	0.	50.338
10144	13.595	5.6364	5.e-002	8.9538
10145	13.595	5.3636	0.	82.583
10146	13.503	5.4545	0.	70.04
10147	13.595	5.4545	5.e-002	8.7478
10148	13.595	5.1818	0.	96.784
10149	13.503	5.2727	0.	85.389
10150	13.595	5.2727	5.e-002	8.3559
10151	13.595	5.	0.	106.34
10152	13.503	5.0909	0.	96.372
10153	13.595	5.0909	5.e-002	7.882
10154	13.595	4.8182	0.	111.27
10155	13.503	4.9091	0.	102.97
10156	13.595	4.9091	5.e-002	7.343
10157	13.595	4.6364	0.	111.76
10158	13.503	4.7273	0.	105.31
10159	13.595	4.7273	5.e-002	6.7521
10160	13.595	4.4545	0.	108.22
10161	13.503	4.5455	0.	103.69
10162	13.595	4.5455	5.e-002	6.1242
10163	13.595	4.2727	0.	101.35
10164	13.503	4.3636	0.	98.651
10165	13.595	4.3636	5.e-002	5.4715
10166	13.595	4.0909	0.	92.104
10167	13.503	4.1818	0.	90.97
10168	13.595	4.1818	5.e-002	4.802
10169	13.595	3.9091	0.	81.626
10170	13.503	4.	0.	81.633
10171	13.595	4.	5.e-002	4.1197
10172	13.595	3.7273	0.	71.118
10173	13.503	3.8182	0.	71.733
10174	13.595	3.8182	5.e-002	3.4275
10175	13.595	3.5455	0.	61.698
10176	13.503	3.6364	0.	62.349
10177	13.595	3.6364	5.e-002	2.7321
10178	13.595	3.3636	0.	54.296
10179	13.503	3.4545	0.	54.434
10180	13.595	3.4545	5.e-002	2.0488
10181	13.595	3.1818	0.	49.586
10182	13.503	3.2727	0.	48.737
10183	13.595	3.2727	5.e-002	1.4148
10184	13.595	3.	0.	47.972
10185	13.503	3.0909	0.	45.762
10186	13.595	3.0909	5.e-002	0.94909
10187	13.595	2.8182	0.	49.586
10188	13.503	2.9091	0.	45.762
10189	13.595	2.9091	5.e-002	0.94909
10190	13.595	2.6364	0.	54.296
10191	13.503	2.7273	0.	48.737
10192	13.595	2.7273	5.e-002	1.4147
10193	13.595	2.4545	0.	61.698
10194	13.503	2.5455	0.	54.434
10195	13.595	2.5455	5.e-002	2.0488
10196	13.595	2.2727	0.	71.118
10197	13.503	2.3636	0.	62.349
10198	13.595	2.3636	5.e-002	2.7322
10199	13.595	2.0909	0.	81.626
10200	13.503	2.1818	0.	71.733
10201	13.595	2.1818	5.e-002	3.4275
10202	13.595	1.9091	0.	92.104
10203	13.503	2.	0.	81.633
10204	13.595	2.	5.e-002	4.1197
10205	13.595	1.7273	0.	101.35
10206	13.503	1.8182	0.	90.97
10207	13.595	1.8182	5.e-002	4.8021
10208	13.595	1.5455	0.	108.22
10209	13.503	1.6364	0.	98.651
10210	13.595	1.6364	5.e-002	5.4715
10211	13.595	1.3636	0.	111.76
10212	13.503	1.4545	0.	103.69
10213	13.595	1.4545	5.e-002	6.1242
10214	13.595	1.1818	0.	111.27
10215	13.503	1.2727	0.	105.31
10216	13.595	1.2727	5.e-002	6.7521
10217	13.595	1.	0.	106.34
10218	13.503	1.0909	0.	102.97
10219	13.595	1.0909	5.e-002	7.3429
10220	13.595	0.81818	0.	96.784
10221	13.503	0.90909	0.	96.372
10222	13.595	0.90909	5.e-002	7.882
10223	13.595	0.63636	0.	82.582
10224	13.503	0.72727	0.	85.389
10225	13.595	0.72727	5.e-002	8.3559
10226	13.595	0.45455	0.	63.762
10227	13.503	0.54545	0.	70.04
10228	13.595	0.54545	5.e-002	8.7478
10229	13.595	0.27273	0.	40.432
10230	13.503	0.36364	0.	50.338
10231	13.595	0.36364	5.e-002	8.9537
10232	13.503	0.18182	0.	26.637
10233	13.595	0.18182	5.e-002	7.4858
10234	13.595	9.0909e-002	0.	15.431
10235	13.412	5.7273	0.	36.444
10236	13.32	5.8182	0.	24.511
10237	13.412	5.8182	5.e-002	6.2516
10238	13.412	5.9091	0.	14.351
10239	13.412	5.5455	0.	56.635
10240	13.32	5.6364	0.	44.897
10241	13.412	5.6364	5.e-002	8.1382
10242	13.412	5.3636	0.	72.903
10243	13.32	5.4545	0.	61.942
10244	13.412	5.4545	5.e-002	8.0112
10245	13.412	5.1818	0.	85.057
10246	13.32	5.2727	0.	75.152
10247	13.412	5.2727	5.e-002	7.6873
10248	13.412	5.	0.	93.099
10249	13.32	5.0909	0.	84.503
10250	13.412	5.0909	5.e-002	7.2936
10251	13.412	4.8182	0.	97.112
10252	13.32	4.9091	0.	90.021
10253	13.412	4.9091	5.e-002	6.8469
10254	13.412	4.6364	0.	97.338
10255	13.32	4.7273	0.	91.872
10256	13.412	4.7273	5.e-002	6.3576
10257	13.412	4.4545	0.	94.204
10258	13.32	4.5455	0.	90.381
10259	13.412	4.5455	5.e-002	5.8357
10260	13.412	4.2727	0.	88.338
10261	13.32	4.3636	0.	86.054
10262	13.412	4.3636	5.e-002	5.2902
10263	13.412	4.0909	0.	80.551
10264	13.32	4.1818	0.	79.571
10265	13.412	4.1818	5.e-002	4.7278
10266	13.412	3.9091	0.	71.778
10267	13.32	4.	0.	71.749
10268	13.412	4.	5.e-002	4.1544
10269	13.412	3.7273	0.	62.99
10270	13.32	3.8182	0.	63.478
10271	13.412	3.8182	5.e-002	3.5782
10272	13.412	3.5455	0.	55.099
10273	13.32	3.6364	0.	55.635
10274	13.412	3.6364	5.e-002	3.0138
10275	13.412	3.3636	0.	48.88
10276	13.32	3.4545	0.	49.006
10277	13.412	3.4545	5.e-002	2.4888
10278	13.412	3.1818	0.	44.911
10279	13.32	3.2727	0.	44.221
10280	13.412	3.2727	5.e-002	2.0545
10281	13.412	3.	0.	43.548
10282	13.32	3.0909	0.	41.718
10283	13.412	3.0909	5.e-002	1.7945
10284	13.412	2.8182	0.	44.911
10285	13.32	2.9091	0.	41.718
10286	13.412	2.9091	5.e-002	1.7945
10287	13.412	2.6364	0.	48.88
10288	13.32	2.7273	0.	44.221
10289	13.412	2.7273	5.e-002	2.0545
10290	13.412	2.4545	0.	55.099
10291	13.32	2.5455	0.	49.006
10292	13.412	2.5455	5.e-002	2.4888
10293	13.412	2.2727	0.	62.99
10294	13.32	2.3636	0.	55.635
10295	13.412	2.3636	5.e-002	3.0138
10296	13.412	2.0909	0.	71.778
10297	13.32	2.1818	0.	63.478
10298	13.412	2.1818	5.e-002	3.5782
10299	13.412	1.9091	0.	80.551
10300	13.32	2.	0.	71.749
10301	13.412	2.	5.e-002	4.1544
10302	13.412	1.7273	0.	88.338
10303	13.32	1.8182	0.	79.571
10304	13.412	1.8182	5.e-002	4.7278
10305	13.412	1.5455	0.	94.204
10306	13.32	1.6364	0.	86.054
10307	13.412	1.6364	5.e-002	5.2902
10308	13.412	1.3636	0.	97.338
10309	13.32	1.4545	0.	90.381
10310	13.412	1.4545	5.e-002	5.8357
10311	13.412	1.1818	0.	97.112
10312	13.32	1.2727	0.	91.872
10313	13.412	1.2727	5.e-002	6.3575
10314	13.412	1.	0.	93.098
10315	13.32	1.0909	0.	90.021
10316	13.412	1.0909	5.e-002	6.8469
10317	13.412	0.81818	0.	85.057
10318	13.32	0.90909	0.	84.503
10319	13.412	0.90909	5.e-002	7.2936
10320	13.412	0.63636	0.	72.903
10321	13.32	0.72727	0.	75.152
10322	13.412	0.72727	5.e-002	7.6873
10323	13.412	0.45455	0.	56.635
10324	13.32	0.54545	0.	61.942
10325	13.412	0.54545	5.e-002	8.0112
10326	13.412	0.27273	0.	36.444
10327	13.32	0.36364	0.	44.897
10328	13.412	0.36364	5.e-002	8.1382
10329	13.32	0.18182	0.	24.511
10330	13.412	0.18182	5.e-002	6.2516
10331	13.412	9.0909e-002	0.	14.351
10332	13.228	5.7273	0.	32.862
10333	13.136	5.8182	0.	22.634
10334	13.228	5.8182	5.e-002	5.2178
10335	13.228	5.9091	0.	13.399
10336	13.228	5.5455	0.	50.204
10337	13.136	5.6364	0.	40.006
10338	13.228	5.6364	5.e-002	7.4711
10339	13.228	5.3636	0.	64.22
10340	13.136	5.4545	0.	54.675
10341	13.228	5.4545	5.e-002	7.4152
10342	13.228	5.1818	0.	74.643
10343	13.136	5.2727	0.	66.027
10344	13.228	5.2727	5.e-002	7.1522
10345	13.228	5.	0.	81.479
10346	13.136	5.0909	0.	74.023
10347	13.228	5.0909	5.e-002	6.8288
10348	13.228	4.8182	0.	84.836
10349	13.136	4.9091	0.	78.702
10350	13.228	4.9091	5.e-002	6.4616
10351	13.228	4.6364	0.	84.967
10352	13.136	4.7273	0.	80.241
10353	13.228	4.7273	5.e-002	6.0592
10354	13.228	4.4545	0.	82.277
10355	13.136	4.5455	0.	78.955
10356	13.228	4.5455	5.e-002	5.6293
10357	13.228	4.2727	0.	77.325
10358	13.136	4.3636	0.	75.301
10359	13.228	4.3636	5.e-002	5.1793
10360	13.228	4.0909	0.	70.798
10361	13.136	4.1818	0.	69.867
10362	13.228	4.1818	5.e-002	4.716
10363	13.228	3.9091	0.	63.47
10364	13.136	4.	0.	63.337
10365	13.228	4.	5.e-002	4.2471
10366	13.228	3.7273	0.	56.137
10367	13.136	3.8182	0.	56.443
10368	13.228	3.8182	5.e-002	3.7836
10369	13.228	3.5455	0.	49.55
10370	13.136	3.6364	0.	49.907
10371	13.228	3.6364	5.e-002	3.3428
10372	13.228	3.3636	0.	44.35
10373	13.136	3.4545	0.	44.377
10374	13.228	3.4545	5.e-002	2.9519
10375	13.228	3.1818	0.	41.026
10376	13.136	3.2727	0.	40.379
10377	13.228	3.2727	5.e-002	2.6494
10378	13.228	3.	0.	39.884
10379	13.136	3.0909	0.	38.286
10380	13.228	3.0909	5.e-002	2.481
10381	13.228	2.8182	0.	41.026
10382	13.136	2.9091	0.	38.286
10383	13.228	2.9091	5.e-002	2.481
10384	13.228	2.6364	0.	44.349
10385	13.136	2.7273	0.	40.379
10386	13.228	2.7273	5.e-002	2.6494
10387	13.228	2.4545	0.	49.55
10388	13.136	2.5455	0.	44.377
10389	13.228	2.5455	5.e-002	2.9519
10390	13.228	2.2727	0.	56.137
10391	13.136	2.3636	0.	49.907
10392	13.228	2.3636	5.e-002	3.3428
10393	13.228	2.0909	0.	63.47
10394	13.136	2.1818	0.	56.443
10395	13.228	2.1818	5.e-002	3.7836
10396	13.228	1.9091	0.	70.798
10397	13.136	2.	0.	63.336
10398	13.228	2.	5.e-002	4.2471
10399	13.228	1.7273	0.	77.325
10400	13.136	1.8182	0.	69.867
10401	13.228	1.8182	5.e-002	4.716
10402	13.228	1.5455	0.	82.277
10403	13.136	1.6364	0.	75.301
10404	13.228	1.6364	5.e-002	5.1793
10405	13.228	1.3636	0.	84.967
10406	13.136	1.4545	0.	78.955
10407	13.228	1.4545	5.e-002	5.6293
10408	13.228	1.1818	0.	84.836
10409	13.136	1.2727	0.	80.241
10410	13.228	1.2727	5.e-002	6.0592
10411	13.228	1.	0.	81.479
10412	13.136	1.0909	0.	78.702
10413	13.228	1.0909	5.e-002	6.4616
10414	13.228	0.81818	0.	74.643
10415	13.136	0.90909	0.	74.023
10416	13.228	0.90909	5.e-002	6.8288
10417	13.228	0.63636	0.	64.22
10418	13.136	0.72727	0.	66.027
10419	13.228	0.72727	5.e-002	7.1522
10420	13.228	0.45455	0.	50.204
10421	13.136	0.54545	0.	54.675
10422	13.228	0.54545	5.e-002	7.4151
10423	13.228	0.27273	0.	32.862
10424	13.136	0.36364	0.	40.006
10425	13.228	0.36364	5.e-002	7.4711
10426	13.136	0.18182	0.	22.634
10427	13.228	0.18182	5.e-002	5.2178
10428	13.228	9.0909e-002	0.	13.399
10429	13.044	5.7273	0.	29.677
10430	12.952	5.8182	0.	20.983
10431	13.044	5.8182	5.e-002	4.3573
10432	13.044	5.9091	0.	12.562
10433	13.044	5.5455	0.	44.464
10434	12.952	5.6364	0.	35.653
10435	13.044	5.6364	5.e-002	6.9295
10436	13.044	5.3636	0.	56.492
10437	12.952	5.4545	0.	48.209
10438	13.044	5.4545	5.e-002	6.9354
10439	13.044	5.1818	0.	65.428
10440	12.952	5.2727	0.	57.937
10441	13.044	5.2727	5.e-002	6.7254
10442	13.044	5.	0.	71.274
10443	12.952	5.0909	0.	64.783
10444	13.044	5.0909	5.e-002	6.4622
10445	13.044	4.8182	0.	74.136
10446	12.952	4.9091	0.	68.785
10447	13.044	4.9091	5.e-002	6.1627
10448	13.044	4.6364	0.	74.257
10449	12.952	4.7273	0.	70.111
10450	13.044	4.7273	5.e-002	5.8341
10451	13.044	4.4545	0.	72.003
10452	12.952	4.5455	0.	69.049
10453	13.044	4.5455	5.e-002	5.4828
10454	13.044	4.2727	0.	67.863
10455	12.952	4.3636	0.	66.003
10456	13.044	4.3636	5.e-002	5.1155
10457	13.044	4.0909	0.	62.42
10458	12.952	4.1818	0.	61.477
10459	13.044	4.1818	5.e-002	4.739
10460	13.044	3.9091	0.	56.32
10461	12.952	4.	0.	56.046
10462	13.044	4.	5.e-002	4.3617
10463	13.044	3.7273	0.	50.218
10464	12.952	3.8182	0.	50.317
10465	13.044	3.8182	5.e-002	3.995
10466	13.044	3.5455	0.	44.736
10467	12.952	3.6364	0.	44.885
10468	13.044	3.6364	5.e-002	3.6548
10469	13.044	3.3636	0.	40.405
10470	12.952	3.4545	0.	40.287
10471	13.044	3.4545	5.e-002	3.3629
10472	13.044	3.1818	0.	37.635
10473	12.952	3.2727	0.	36.962
10474	13.044	3.2727	5.e-002	3.1454
10475	13.044	3.	0.	36.683
10476	12.952	3.0909	0.	35.219
10477	13.044	3.0909	5.e-002	3.0282
10478	13.044	2.8182	0.	37.635
10479	12.952	2.9091	0.	35.219
10480	13.044	2.9091	5.e-002	3.0282
10481	13.044	2.6364	0.	40.405
10482	12.952	2.7273	0.	36.962
10483	13.044	2.7273	5.e-002	3.1454
10484	13.044	2.4545	0.	44.736
10485	12.952	2.5455	0.	40.287
10486	13.044	2.5455	5.e-002	3.3629
10487	13.044	2.2727	0.	50.218
10488	12.952	2.3636	0.	44.885
10489	13.044	2.3636	5.e-002	3.6549
10490	13.044	2.0909	0.	56.32
10491	12.952	2.1818	0.	50.317
10492	13.044	2.1818	5.e-002	3.995
10493	13.044	1.9091	0.	62.42
10494	12.952	2.	0.	56.046
10495	13.044	2.	5.e-002	4.3617
10496	13.044	1.7273	0.	67.863
10497	12.952	1.8182	0.	61.477
10498	13.044	1.8182	5.e-002	4.739
10499	13.044	1.5455	0.	72.003
10500	12.952	1.6364	0.	66.003
10501	13.044	1.6364	5.e-002	5.1154
10502	13.044	1.3636	0.	74.257
10503	12.952	1.4545	0.	69.049
10504	13.044	1.4545	5.e-002	5.4828
10505	13.044	1.1818	0.	74.136
10506	12.952	1.2727	0.	70.111
10507	13.044	1.2727	5.e-002	5.834
10508	13.044	1.	0.	71.274
10509	12.952	1.0909	0.	68.785
10510	13.044	1.0909	5.e-002	6.1627
10511	13.044	0.81818	0.	65.428
10512	12.952	0.90909	0.	64.783
10513	13.044	0.90909	5.e-002	6.4622
10514	13.044	0.63636	0.	56.492
10515	12.952	0.72727	0.	57.937
10516	13.044	0.72727	5.e-002	6.7254
10517	13.044	0.45455	0.	44.464
10518	12.952	0.54545	0.	48.208
10519	13.044	0.54545	5.e-002	6.9354
10520	13.044	0.27273	0.	29.677
10521	12.952	0.36364	0.	35.653
10522	13.044	0.36364	5.e-002	6.9295
10523	12.952	0.18182	0.	20.983
10524	13.044	0.18182	5.e-002	4.3572
10525	13.044	9.0909e-002	0.	12.562
10526	12.86	5.7273	0.	26.861
10527	12.769	5.8182	0.	19.53
10528	12.86	5.8182	5.e-002	3.6446
10529	12.86	5.9091	0.	11.825
10530	12.86	5.5455	0.	39.379
10531	12.769	5.6364	0.	31.805
10532	12.86	5.6364	5.e-002	6.4925
10533	12.86	5.3636	0.	49.652
10534	12.769	5.4545	0.	42.489
10535	12.86	5.4545	5.e-002	6.5513
10536	12.86	5.1818	0.	57.298
10537	12.769	5.2727	0.	50.791
10538	12.86	5.2727	5.e-002	6.3863
10539	12.86	5.	0.	62.305
10540	12.769	5.0909	0.	56.643
10541	12.86	5.0909	5.e-002	6.1739
10542	12.86	4.8182	0.	64.772
10543	12.769	4.9091	0.	60.076
10544	12.86	4.9091	5.e-002	5.9313
10545	12.86	4.6364	0.	64.916
10546	12.769	4.7273	0.	61.239
10547	12.86	4.7273	5.e-002	5.6647
10548	12.86	4.4545	0.	63.06
10549	12.769	4.5455	0.	60.388
10550	12.86	4.5455	5.e-002	5.3797
10551	12.86	4.2727	0.	59.626
10552	12.769	4.3636	0.	57.873
10553	12.86	4.3636	5.e-002	5.0825
10554	12.86	4.0909	0.	55.109
10555	12.769	4.1818	0.	54.123
10556	12.86	4.1818	5.e-002	4.7794
10557	12.86	3.9091	0.	50.046
10558	12.769	4.	0.	49.621
10559	12.86	4.	5.e-002	4.4787
10560	12.86	3.7273	0.	44.984
10561	12.769	3.8182	0.	44.871
10562	12.86	3.8182	5.e-002	4.1907
10563	12.86	3.5455	0.	40.434
10564	12.769	3.6364	0.	40.368
10565	12.86	3.6364	5.e-002	3.9287
10566	12.86	3.3636	0.	36.839
10567	12.769	3.4545	0.	36.555
10568	12.86	3.4545	5.e-002	3.7088
10569	12.86	3.1818	0.	34.539
10570	12.769	3.2727	0.	33.797
10571	12.86	3.2727	5.e-002	3.5486
10572	12.86	3.	0.	33.748
10573	12.769	3.0909	0.	32.351
10574	12.86	3.0909	5.e-002	3.4638
10575	12.86	2.8182	0.	34.539
10576	12.769	2.9091	0.	32.351
10577	12.86	2.9091	5.e-002	3.4638
10578	12.86	2.6364	0.	36.839
10579	12.769	2.7273	0.	33.797
10580	12.86	2.7273	5.e-002	3.5486
10581	12.86	2.4545	0.	40.434
10582	12.769	2.5455	0.	36.555
10583	12.86	2.5455	5.e-002	3.7088
10584	12.86	2.2727	0.	44.984
10585	12.769	2.3636	0.	40.368
10586	12.86	2.3636	5.e-002	3.9287
10587	12.86	2.0909	0.	50.046
10588	12.769	2.1818	0.	44.871
10589	12.86	2.1818	5.e-002	4.1907
10590	12.86	1.9091	0.	55.109
10591	12.769	2.	0.	49.62
10592	12.86	2.	5.e-002	4.4787
10593	12.86	1.7273	0.	59.626
10594	12.769	1.8182	0.	54.123
10595	12.86	1.8182	5.e-002	4.7794
10596	12.86	1.5455	0.	63.06
10597	12.769	1.6364	0.	57.873
10598	12.86	1.6364	5.e-002	5.0824
10599	12.86	1.3636	0.	64.916
10600	12.769	1.4545	0.	60.388
10601	12.86	1.4545	5.e-002	5.3797
10602	12.86	1.1818	0.	64.772
10603	12.769	1.2727	0.	61.239
10604	12.86	1.2727	5.e-002	5.6647
10605	12.86	1.	0.	62.305
10606	12.769	1.0909	0.	60.076
10607	12.86	1.0909	5.e-002	5.9313
10608	12.86	0.81818	0.	57.298
10609	12.769	0.90909	0.	56.643
10610	12.86	0.90909	5.e-002	6.1739
10611	12.86	0.63636	0.	49.652
10612	12.769	0.72727	0.	50.791
10613	12.86	0.72727	5.e-002	6.3862
10614	12.86	0.45455	0.	39.379
10615	12.769	0.54545	0.	42.489
10616	12.86	0.54545	5.e-002	6.5513
10617	12.86	0.27273	0.	26.861
10618	12.769	0.36364	0.	31.805
10619	12.86	0.36364	5.e-002	6.4925
10620	12.769	0.18182	0.	19.53
10621	12.86	0.18182	5.e-002	3.6446
10622	12.86	9.0909e-002	0.	11.825
10623	12.677	5.7273	0.	24.379
10624	12.585	5.8182	0.	18.247
10625	12.677	5.8182	5.e-002	3.0567
10626	12.677	5.9091	0.	11.175
10627	12.677	5.5455	0.	34.892
10628	12.585	5.6364	0.	28.415
10629	12.677	5.6364	5.e-002	6.1424
10630	12.677	5.3636	0.	43.619
10631	12.585	5.4545	0.	37.446
10632	12.677	5.4545	5.e-002	6.2454
10633	12.677	5.1818	0.	50.134
10634	12.585	5.2727	0.	44.491
10635	12.677	5.2727	5.e-002	6.1179
10636	12.677	5.	0.	54.415
10637	12.585	5.0909	0.	49.471
10638	12.677	5.0909	5.e-002	5.9479
10639	12.677	4.8182	0.	56.545
10640	12.585	4.9091	0.	52.407
10641	12.677	4.9091	5.e-002	5.7527
10642	12.677	4.6364	0.	56.715
10643	12.585	4.7273	0.	53.429
10644	12.677	4.7273	5.e-002	5.5378
10645	12.677	4.4545	0.	55.204
10646	12.585	4.5455	0.	52.757
10647	12.677	4.5455	5.e-002	5.3081
10648	12.677	4.2727	0.	52.371
10649	12.585	4.3636	0.	50.69
10650	12.677	4.3636	5.e-002	5.0691
10651	12.677	4.0909	0.	48.634
10652	12.585	4.1818	0.	47.592
10653	12.677	4.1818	5.e-002	4.8269
10654	12.677	3.9091	0.	44.443
10655	12.585	4.	0.	43.866
10656	12.677	4.	5.e-002	4.5886
10657	12.677	3.7273	0.	40.251
10658	12.585	3.8182	0.	39.936
10659	12.677	3.8182	5.e-002	4.3631
10660	12.677	3.5455	0.	36.483
10661	12.585	3.6364	0.	36.208
10662	12.677	3.6364	5.e-002	4.1609
10663	12.677	3.3636	0.	33.506
10664	12.585	3.4545	0.	33.051
10665	12.677	3.4545	5.e-002	3.9939
10666	12.677	3.1818	0.	31.6
10667	12.585	3.2727	0.	30.768
10668	12.677	3.2727	5.e-002	3.874
10669	12.677	3.	0.	30.945
10670	12.585	3.0909	0.	29.57
10671	12.677	3.0909	5.e-002	3.8111
10672	12.677	2.8182	0.	31.6
10673	12.585	2.9091	0.	29.57
10674	12.677	2.9091	5.e-002	3.8111
10675	12.677	2.6364	0.	33.505
10676	12.585	2.7273	0.	30.768
10677	12.677	2.7273	5.e-002	3.874
10678	12.677	2.4545	0.	36.483
10679	12.585	2.5455	0.	33.051
10680	12.677	2.5455	5.e-002	3.9939
10681	12.677	2.2727	0.	40.251
10682	12.585	2.3636	0.	36.208
10683	12.677	2.3636	5.e-002	4.1609
10684	12.677	2.0909	0.	44.443
10685	12.585	2.1818	0.	39.936
10686	12.677	2.1818	5.e-002	4.3631
10687	12.677	1.9091	0.	48.634
10688	12.585	2.	0.	43.866
10689	12.677	2.	5.e-002	4.5886
10690	12.677	1.7273	0.	52.371
10691	12.585	1.8182	0.	47.592
10692	12.677	1.8182	5.e-002	4.8269
10693	12.677	1.5455	0.	55.204
10694	12.585	1.6364	0.	50.69
10695	12.677	1.6364	5.e-002	5.0691
10696	12.677	1.3636	0.	56.715
10697	12.585	1.4545	0.	52.757
10698	12.677	1.4545	5.e-002	5.3081
10699	12.677	1.1818	0.	56.545
10700	12.585	1.2727	0.	53.429
10701	12.677	1.2727	5.e-002	5.5378
10702	12.677	1.	0.	54.415
10703	12.585	1.0909	0.	52.407
10704	12.677	1.0909	5.e-002	5.7527
10705	12.677	0.81818	0.	50.134
10706	12.585	0.90909	0.	49.471
10707	12.677	0.90909	5.e-002	5.9479
10708	12.677	0.63636	0.	43.619
10709	12.585	0.72727	0.	44.491
10710	12.677	0.72727	5.e-002	6.1178
10711	12.677	0.45455	0.	34.892
10712	12.585	0.54545	0.	37.446
10713	12.677	0.54545	5.e-002	6.2454
10714	12.677	0.27273	0.	24.379
10715	12.585	0.36364	0.	28.415
10716	12.677	0.36364	5.e-002	6.1423
10717	12.585	0.18182	0.	18.247
10718	12.677	0.18182	5.e-002	3.0567
10719	12.677	9.0909e-002	0.	11.175
10720	12.493	5.7273	0.	22.191
10721	12.401	5.8182	0.	17.11
10722	12.493	5.8182	5.e-002	2.5733
10723	12.493	5.9091	0.	10.596
10724	12.493	5.5455	0.	30.943
10725	12.401	5.6364	0.	25.43
10726	12.493	5.6364	5.e-002	5.8635
10727	12.493	5.3636	0.	38.304
10728	12.401	5.4545	0.	33.005
10729	12.493	5.4545	5.e-002	6.0033
10730	12.493	5.1818	0.	43.82
10731	12.401	5.2727	0.	38.937
10732	12.493	5.2727	5.e-002	5.9066
10733	12.493	5.	0.	47.458
10734	12.401	5.0909	0.	43.142
10735	12.493	5.0909	5.e-002	5.7717
10736	12.493	4.8182	0.	49.288
10737	12.401	4.9091	0.	45.633
10738	12.493	4.9091	5.e-002	5.6156
10739	12.493	4.6364	0.	49.469
10740	12.401	4.7273	0.	46.517
10741	12.493	4.7273	5.e-002	5.4434
10742	12.493	4.4545	0.	48.241
10743	12.401	4.5455	0.	45.982
10744	12.493	4.5455	5.e-002	5.2593
10745	12.493	4.2727	0.	45.907
10746	12.401	4.3636	0.	44.281
10747	12.493	4.3636	5.e-002	5.0683
10748	12.493	4.0909	0.	42.82
10749	12.401	4.1818	0.	41.72
10750	12.493	4.1818	5.e-002	4.8756
10751	12.493	3.9091	0.	39.353
10752	12.401	4.	0.	38.637
10753	12.493	4.	5.e-002	4.6875
10754	12.493	3.7273	0.	35.885
10755	12.401	3.8182	0.	35.383
10756	12.493	3.8182	5.e-002	4.5111
10757	12.493	3.5455	0.	32.768
10758	12.401	3.6364	0.	32.298
10759	12.493	3.6364	5.e-002	4.3547
10760	12.493	3.3636	0.	30.304
10761	12.401	3.4545	0.	29.685
10762	12.493	3.4545	5.e-002	4.227
10763	12.493	3.1818	0.	28.728
10764	12.401	3.2727	0.	27.795
10765	12.493	3.2727	5.e-002	4.1362
10766	12.493	3.	0.	28.186
10767	12.401	3.0909	0.	26.804
10768	12.493	3.0909	5.e-002	4.0889
10769	12.493	2.8182	0.	28.728
10770	12.401	2.9091	0.	26.804
10771	12.493	2.9091	5.e-002	4.0889
10772	12.493	2.6364	0.	30.304
10773	12.401	2.7273	0.	27.795
10774	12.493	2.7273	5.e-002	4.1362
10775	12.493	2.4545	0.	32.768
10776	12.401	2.5455	0.	29.685
10777	12.493	2.5455	5.e-002	4.227
10778	12.493	2.2727	0.	35.885
10779	12.401	2.3636	0.	32.298
10780	12.493	2.3636	5.e-002	4.3547
10781	12.493	2.0909	0.	39.353
10782	12.401	2.1818	0.	35.383
10783	12.493	2.1818	5.e-002	4.5111
10784	12.493	1.9091	0.	42.82
10785	12.401	2.	0.	38.637
10786	12.493	2.	5.e-002	4.6875
10787	12.493	1.7273	0.	45.907
10788	12.401	1.8182	0.	41.72
10789	12.493	1.8182	5.e-002	4.8756
10790	12.493	1.5455	0.	48.241
10791	12.401	1.6364	0.	44.281
10792	12.493	1.6364	5.e-002	5.0683
10793	12.493	1.3636	0.	49.469
10794	12.401	1.4545	0.	45.982
10795	12.493	1.4545	5.e-002	5.2593
10796	12.493	1.1818	0.	49.288
10797	12.401	1.2727	0.	46.517
10798	12.493	1.2727	5.e-002	5.4433
10799	12.493	1.	0.	47.458
10800	12.401	1.0909	0.	45.633
10801	12.493	1.0909	5.e-002	5.6156
10802	12.493	0.81818	0.	43.82
10803	12.401	0.90909	0.	43.142
10804	12.493	0.90909	5.e-002	5.7717
10805	12.493	0.63636	0.	38.304
10806	12.401	0.72727	0.	38.937
10807	12.493	0.72727	5.e-002	5.9066
10808	12.493	0.45455	0.	30.943
10809	12.401	0.54545	0.	33.005
10810	12.493	0.54545	5.e-002	6.0032
10811	12.493	0.27273	0.	22.191
10812	12.401	0.36364	0.	25.43
10813	12.493	0.36364	5.e-002	5.8635
10814	12.401	0.18182	0.	17.11
10815	12.493	0.18182	5.e-002	2.5733
10816	12.493	9.0909e-002	0.	10.596
10817	12.309	5.7273	0.	20.259
10818	12.217	5.8182	0.	16.094
10819	12.309	5.8182	5.e-002	2.1771
10820	12.309	5.9091	0.	10.076
10821	12.309	5.5455	0.	27.465
10822	12.217	5.6364	0.	22.798
10823	12.309	5.6364	5.e-002	5.6431
10824	12.309	5.3636	0.	33.621
10825	12.217	5.4545	0.	29.088
10826	12.309	5.4545	5.e-002	5.8129
10827	12.309	5.1818	0.	38.247
10828	12.217	5.2727	0.	34.033
10829	12.309	5.2727	5.e-002	5.7414
10830	12.309	5.	0.	41.307
10831	12.217	5.0909	0.	37.542
10832	12.309	5.0909	5.e-002	5.6351
10833	12.309	4.8182	0.	42.855
10834	12.217	4.9091	0.	39.622
10835	12.309	4.9091	5.e-002	5.5111
10836	12.309	4.6364	0.	43.024
10837	12.217	4.7273	0.	40.363
10838	12.309	4.7273	5.e-002	5.3739
10839	12.309	4.4545	0.	42.016
10840	12.217	4.5455	0.	39.919
10841	12.309	4.5455	5.e-002	5.2272
10842	12.309	4.2727	0.	40.086
10843	12.217	4.3636	0.	38.506
10844	12.309	4.3636	5.e-002	5.0753
10845	12.309	4.0909	0.	37.529
10846	12.217	4.1818	0.	36.377
10847	12.309	4.1818	5.e-002	4.9226
10848	12.309	3.9091	0.	34.658
10849	12.217	4.	0.	33.817
10850	12.309	4.	5.e-002	4.7744
10851	12.309	3.7273	0.	31.786
10852	12.217	3.8182	0.	31.117
10853	12.309	3.8182	5.e-002	4.6366
10854	12.309	3.5455	0.	29.205
10855	12.217	3.6364	0.	28.558
10856	12.309	3.6364	5.e-002	4.5154
10857	12.309	3.3636	0.	27.165
10858	12.217	3.4545	0.	26.392
10859	12.309	3.4545	5.e-002	4.4171
10860	12.309	3.1818	0.	25.86
10861	12.217	3.2727	0.	24.825
10862	12.309	3.2727	5.e-002	4.3478
10863	12.309	3.	0.	25.411
10864	12.217	3.0909	0.	24.004
10865	12.309	3.0909	5.e-002	4.3119
10866	12.309	2.8182	0.	25.86
10867	12.217	2.9091	0.	24.004
10868	12.309	2.9091	5.e-002	4.3119
10869	12.309	2.6364	0.	27.165
10870	12.217	2.7273	0.	24.825
10871	12.309	2.7273	5.e-002	4.3478
10872	12.309	2.4545	0.	29.205
10873	12.217	2.5455	0.	26.392
10874	12.309	2.5455	5.e-002	4.4171
10875	12.309	2.2727	0.	31.786
10876	12.217	2.3636	0.	28.557
10877	12.309	2.3636	5.e-002	4.5153
10878	12.309	2.0909	0.	34.658
10879	12.217	2.1818	0.	31.117
10880	12.309	2.1818	5.e-002	4.6366
10881	12.309	1.9091	0.	37.529
10882	12.217	2.	0.	33.817
10883	12.309	2.	5.e-002	4.7744
10884	12.309	1.7273	0.	40.086
10885	12.217	1.8182	0.	36.377
10886	12.309	1.8182	5.e-002	4.9226
10887	12.309	1.5455	0.	42.016
10888	12.217	1.6364	0.	38.506
10889	12.309	1.6364	5.e-002	5.0753
10890	12.309	1.3636	0.	43.024
10891	12.217	1.4545	0.	39.919
10892	12.309	1.4545	5.e-002	5.2272
10893	12.309	1.1818	0.	42.855
10894	12.217	1.2727	0.	40.363
10895	12.309	1.2727	5.e-002	5.3739
10896	12.309	1.	0.	41.307
10897	12.217	1.0909	0.	39.622
10898	12.309	1.0909	5.e-002	5.5111
10899	12.309	0.81818	0.	38.247
10900	12.217	0.90909	0.	37.542
10901	12.309	0.90909	5.e-002	5.6351
10902	12.309	0.63636	0.	33.621
10903	12.217	0.72727	0.	34.033
10904	12.309	0.72727	5.e-002	5.7413
10905	12.309	0.45455	0.	27.465
10906	12.217	0.54545	0.	29.088
10907	12.309	0.54545	5.e-002	5.8129
10908	12.309	0.27273	0.	20.259
10909	12.217	0.36364	0.	22.798
10910	12.309	0.36364	5.e-002	5.6431
10911	12.217	0.18182	0.	16.094
10912	12.309	0.18182	5.e-002	2.177
10913	12.309	9.0909e-002	0.	10.076
10914	12.126	5.7273	0.	18.545
10915	12.034	5.8182	0.	15.177
10916	12.126	5.8182	5.e-002	1.8534
10917	12.126	5.9091	0.	9.605
10918	12.126	5.5455	0.	24.394
10919	12.034	5.6364	0.	20.468
10920	12.126	5.6364	5.e-002	5.4703
10921	12.126	5.3636	0.	29.482
10922	12.034	5.4545	0.	25.625
10923	12.126	5.4545	5.e-002	5.6645
10924	12.126	5.1818	0.	33.313
10925	12.034	5.2727	0.	29.687
10926	12.126	5.2727	5.e-002	5.6133
10927	12.126	5.	0.	35.845
10928	12.034	5.0909	0.	32.565
10929	12.126	5.0909	5.e-002	5.5303
10930	12.126	4.8182	0.	37.12
10931	12.034	4.9091	0.	34.26
10932	12.126	4.9091	5.e-002	5.4324
10933	12.126	4.6364	0.	37.249
10934	12.034	4.7273	0.	34.844
10935	12.126	4.7273	5.e-002	5.3237
10936	12.126	4.4545	0.	36.4
10937	12.034	4.5455	0.	34.448
10938	12.126	4.5455	5.e-002	5.2074
10939	12.126	4.2727	0.	34.787
10940	12.034	4.3636	0.	33.248
10941	12.126	4.3636	5.e-002	5.0871
10942	12.126	4.0909	0.	32.655
10943	12.034	4.1818	0.	31.459
10944	12.126	4.1818	5.e-002	4.9665
10945	12.126	3.9091	0.	30.265
10946	12.034	4.	0.	29.316
10947	12.126	4.	5.e-002	4.8501
10948	12.126	3.7273	0.	27.877
10949	12.034	3.8182	0.	27.061
10950	12.126	3.8182	5.e-002	4.7424
10951	12.126	3.5455	0.	25.733
10952	12.034	3.6364	0.	24.928
10953	12.126	3.6364	5.e-002	4.6482
10954	12.126	3.3636	0.	24.039
10955	12.034	3.4545	0.	23.124
10956	12.126	3.4545	5.e-002	4.5725
10957	12.126	3.1818	0.	22.956
10958	12.034	3.2727	0.	21.82
10959	12.126	3.2727	5.e-002	4.5192
10960	12.126	3.	0.	22.584
10961	12.034	3.0909	0.	21.137
10962	12.126	3.0909	5.e-002	4.4917
10963	12.126	2.8182	0.	22.956
10964	12.034	2.9091	0.	21.137
10965	12.126	2.9091	5.e-002	4.4917
10966	12.126	2.6364	0.	24.039
10967	12.034	2.7273	0.	21.82
10968	12.126	2.7273	5.e-002	4.5192
10969	12.126	2.4545	0.	25.733
10970	12.034	2.5455	0.	23.124
10971	12.126	2.5455	5.e-002	4.5725
10972	12.126	2.2727	0.	27.877
10973	12.034	2.3636	0.	24.928
10974	12.126	2.3636	5.e-002	4.6483
10975	12.126	2.0909	0.	30.265
10976	12.034	2.1818	0.	27.061
10977	12.126	2.1818	5.e-002	4.7424
10978	12.126	1.9091	0.	32.655
10979	12.034	2.	0.	29.316
10980	12.126	2.	5.e-002	4.8501
10981	12.126	1.7273	0.	34.787
10982	12.034	1.8182	0.	31.459
10983	12.126	1.8182	5.e-002	4.9665
10984	12.126	1.5455	0.	36.4
10985	12.034	1.6364	0.	33.248
10986	12.126	1.6364	5.e-002	5.087
10987	12.126	1.3636	0.	37.249
10988	12.034	1.4545	0.	34.448
10989	12.126	1.4545	5.e-002	5.2074
10990	12.126	1.1818	0.	37.12
10991	12.034	1.2727	0.	34.844
10992	12.126	1.2727	5.e-002	5.3237
10993	12.126	1.	0.	35.845
10994	12.034	1.0909	0.	34.26
10995	12.126	1.0909	5.e-002	5.4324
10996	12.126	0.81818	0.	33.313
10997	12.034	0.90909	0.	32.565
10998	12.126	0.90909	5.e-002	5.5303
10999	12.126	0.63636	0.	29.482
11000	12.034	0.72727	0.	29.687
11001	12.126	0.72727	5.e-002	5.6133
11002	12.126	0.45455	0.	24.394
11003	12.034	0.54545	0.	25.625
11004	12.126	0.54545	5.e-002	5.6645
11005	12.126	0.27273	0.	18.545
11006	12.034	0.36364	0.	20.468
11007	12.126	0.36364	5.e-002	5.4703
11008	12.034	0.18182	0.	15.177
11009	12.126	0.18182	5.e-002	1.8533
11010	12.126	9.0909e-002	0.	9.605
11011	11.942	5.7273	0.	17.015
11012	11.85	5.8182	0.	14.341
11013	11.942	5.8182	5.e-002	1.5899
11014	11.942	5.9091	0.	9.1717
11015	11.942	5.5455	0.	21.672
11016	11.85	5.6364	0.	18.395
11017	11.942	5.6364	5.e-002	5.3361
11018	11.942	5.3636	0.	25.81
11019	11.85	5.4545	0.	22.546
11020	11.942	5.4545	5.e-002	5.5502
11021	11.942	5.1818	0.	28.923
11022	11.85	5.2727	0.	25.816
11023	11.942	5.2727	5.e-002	5.5152
11024	11.942	5.	0.	30.966
11025	11.85	5.0909	0.	28.116
11026	11.942	5.0909	5.e-002	5.4509
11027	11.942	4.8182	0.	31.972
11028	11.85	4.9091	0.	29.443
11029	11.942	4.9091	5.e-002	5.3742
11030	11.942	4.6364	0.	32.032
11031	11.85	4.7273	0.	29.857
11032	11.942	4.7273	5.e-002	5.2886
11033	11.942	4.4545	0.	31.285
11034	11.85	4.5455	0.	29.464
11035	11.942	4.5455	5.e-002	5.1969
11036	11.942	4.2727	0.	29.909
11037	11.85	4.3636	0.	28.412
11038	11.942	4.3636	5.e-002	5.102
11039	11.942	4.0909	0.	28.109
11040	11.85	4.1818	0.	26.879
11041	11.942	4.1818	5.e-002	5.0072
11042	11.942	3.9091	0.	26.101
11043	11.85	4.	0.	25.061
11044	11.942	4.	5.e-002	4.9159
11045	11.942	3.7273	0.	24.1
11046	11.85	3.8182	0.	23.158
11047	11.942	3.8182	5.e-002	4.8318
11048	11.942	3.5455	0.	22.307
11049	11.85	3.6364	0.	21.363
11050	11.942	3.6364	5.e-002	4.7586
11051	11.942	3.3636	0.	20.892
11052	11.85	3.4545	0.	19.849
11053	11.942	3.4545	5.e-002	4.7
11054	11.942	3.1818	0.	19.988
11055	11.85	3.2727	0.	18.756
11056	11.942	3.2727	5.e-002	4.6589
11057	11.942	3.	0.	19.678
11058	11.85	3.0909	0.	18.183
11059	11.942	3.0909	5.e-002	4.6377
11060	11.942	2.8182	0.	19.988
11061	11.85	2.9091	0.	18.183
11062	11.942	2.9091	5.e-002	4.6377
11063	11.942	2.6364	0.	20.892
11064	11.85	2.7273	0.	18.756
11065	11.942	2.7273	5.e-002	4.6589
11066	11.942	2.4545	0.	22.307
11067	11.85	2.5455	0.	19.849
11068	11.942	2.5455	5.e-002	4.7
11069	11.942	2.2727	0.	24.1
11070	11.85	2.3636	0.	21.363
11071	11.942	2.3636	5.e-002	4.7586
11072	11.942	2.0909	0.	26.101
11073	11.85	2.1818	0.	23.158
11074	11.942	2.1818	5.e-002	4.8318
11075	11.942	1.9091	0.	28.109
11076	11.85	2.	0.	25.061
11077	11.942	2.	5.e-002	4.9159
11078	11.942	1.7273	0.	29.909
11079	11.85	1.8182	0.	26.879
11080	11.942	1.8182	5.e-002	5.0072
11081	11.942	1.5455	0.	31.285
11082	11.85	1.6364	0.	28.412
11083	11.942	1.6364	5.e-002	5.102
11084	11.942	1.3636	0.	32.032
11085	11.85	1.4545	0.	29.464
11086	11.942	1.4545	5.e-002	5.1969
11087	11.942	1.1818	0.	31.972
11088	11.85	1.2727	0.	29.857
11089	11.942	1.2727	5.e-002	5.2886
11090	11.942	1.	0.	30.966
11091	11.85	1.0909	0.	29.443
11092	11.942	1.0909	5.e-002	5.3742
11093	11.942	0.81818	0.	28.923
11094	11.85	0.90909	0.	28.116
11095	11.942	0.90909	5.e-002	5.4508
11096	11.942	0.63636	0.	25.81
11097	11.85	0.72727	0.	25.816
11098	11.942	0.72727	5.e-002	5.5151
11099	11.942	0.45455	0.	21.672
11100	11.85	0.54545	0.	22.546
11101	11.942	0.54545	5.e-002	5.5501
11102	11.942	0.27273	0.	17.015
11103	11.85	0.36364	0.	18.395
11104	11.942	0.36364	5.e-002	5.3361
11105	11.85	0.18182	0.	14.341
11106	11.942	0.18182	5.e-002	1.5899
11107	11.942	9.0909e-002	0.	9.1717
11108	11.758	5.7273	0.	15.637
11109	11.666	5.8182	0.	13.569
11110	11.758	5.8182	5.e-002	1.3768
11111	11.758	5.9091	0.	8.7683
11112	11.758	5.5455	0.	19.243
11113	11.666	5.6364	0.	16.536
11114	11.758	5.6364	5.e-002	5.2334
11115	11.758	5.3636	0.	22.531
11116	11.666	5.4545	0.	19.79
11117	11.758	5.4545	5.e-002	5.4633
11118	11.758	5.1818	0.	24.991
11119	11.666	5.2727	0.	22.343
11120	11.758	5.2727	5.e-002	5.4412
11121	11.758	5.	0.	26.578
11122	11.666	5.0909	0.	24.108
11123	11.758	5.0909	5.e-002	5.392
11124	11.758	4.8182	0.	27.314
11125	11.666	4.9091	0.	25.081
11126	11.758	4.9091	5.e-002	5.3324
11127	11.758	4.6364	0.	27.276
11128	11.666	4.7273	0.	25.308
11129	11.758	4.7273	5.e-002	5.2654
11130	11.758	4.4545	0.	26.579
11131	11.666	4.5455	0.	24.879
11132	11.758	4.5455	5.e-002	5.1934
11133	11.758	4.2727	0.	25.37
11134	11.666	4.3636	0.	23.915
11135	11.758	4.3636	5.e-002	5.119
11136	11.758	4.0909	0.	23.819
11137	11.666	4.1818	0.	22.565
11138	11.758	4.1818	5.e-002	5.0446
11139	11.758	3.9091	0.	22.105
11140	11.666	4.	0.	20.99
11141	11.758	4.	5.e-002	4.9732
11142	11.758	3.7273	0.	20.408
11143	11.666	3.8182	0.	19.358
11144	11.758	3.8182	5.e-002	4.9076
11145	11.758	3.5455	0.	18.892
11146	11.666	3.6364	0.	17.826
11147	11.758	3.6364	5.e-002	4.8507
11148	11.758	3.3636	0.	17.699
11149	11.666	3.4545	0.	16.539
11150	11.758	3.4545	5.e-002	4.8053
11151	11.758	3.1818	0.	16.937
11152	11.666	3.2727	0.	15.612
11153	11.758	3.2727	5.e-002	4.7736
11154	11.758	3.	0.	16.676
11155	11.666	3.0909	0.	15.128
11156	11.758	3.0909	5.e-002	4.7573
11157	11.758	2.8182	0.	16.937
11158	11.666	2.9091	0.	15.128
11159	11.758	2.9091	5.e-002	4.7573
11160	11.758	2.6364	0.	17.699
11161	11.666	2.7273	0.	15.612
11162	11.758	2.7273	5.e-002	4.7736
11163	11.758	2.4545	0.	18.892
11164	11.666	2.5455	0.	16.539
11165	11.758	2.5455	5.e-002	4.8053
11166	11.758	2.2727	0.	20.408
11167	11.666	2.3636	0.	17.826
11168	11.758	2.3636	5.e-002	4.8507
11169	11.758	2.0909	0.	22.105
11170	11.666	2.1818	0.	19.358
11171	11.758	2.1818	5.e-002	4.9076
11172	11.758	1.9091	0.	23.819
11173	11.666	2.	0.	20.99
11174	11.758	2.	5.e-002	4.9731
11175	11.758	1.7273	0.	25.37
11176	11.666	1.8182	0.	22.565
11177	11.758	1.8182	5.e-002	5.0446
11178	11.758	1.5455	0.	26.579
11179	11.666	1.6364	0.	23.915
11180	11.758	1.6364	5.e-002	5.1189
11181	11.758	1.3636	0.	27.276
11182	11.666	1.4545	0.	24.879
11183	11.758	1.4545	5.e-002	5.1934
11184	11.758	1.1818	0.	27.314
11185	11.666	1.2727	0.	25.308
11186	11.758	1.2727	5.e-002	5.2654
11187	11.758	1.	0.	26.577
11188	11.666	1.0909	0.	25.081
11189	11.758	1.0909	5.e-002	5.3323
11190	11.758	0.81818	0.	24.991
11191	11.666	0.90909	0.	24.108
11192	11.758	0.90909	5.e-002	5.392
11193	11.758	0.63636	0.	22.531
11194	11.666	0.72727	0.	22.343
11195	11.758	0.72727	5.e-002	5.4412
11196	11.758	0.45455	0.	19.243
11197	11.666	0.54545	0.	19.79
11198	11.758	0.54545	5.e-002	5.4632
11199	11.758	0.27273	0.	15.637
11200	11.666	0.36364	0.	16.536
11201	11.758	0.36364	5.e-002	5.2334
11202	11.666	0.18182	0.	13.569
11203	11.758	0.18182	5.e-002	1.3767
11204	11.758	9.0909e-002	0.	8.7683
11205	11.574	5.7273	0.	14.384
11206	11.483	5.8182	0.	12.847
11207	11.574	5.8182	5.e-002	1.2057
11208	11.574	5.9091	0.	8.3873
11209	11.574	5.5455	0.	17.057
11210	11.483	5.6364	0.	14.852
11211	11.574	5.6364	5.e-002	5.156
11212	11.574	5.3636	0.	19.581
11213	11.483	5.4545	0.	17.301
11214	11.574	5.4545	5.e-002	5.3985
11215	11.574	5.1818	0.	21.442
11216	11.483	5.2727	0.	19.2
11217	11.574	5.2727	5.e-002	5.3867
11218	11.574	5.	0.	22.595
11219	11.483	5.0909	0.	20.466
11220	11.574	5.0909	5.e-002	5.3495
11221	11.574	4.8182	0.	23.06
11222	11.483	4.9091	0.	21.092
11223	11.574	4.9091	5.e-002	5.3035
11224	11.574	4.6364	0.	22.897
11225	11.483	4.7273	0.	21.118
11226	11.574	4.7273	5.e-002	5.2515
11227	11.574	4.4545	0.	22.202
11228	11.483	4.5455	0.	20.616
11229	11.574	4.5455	5.e-002	5.1954
11230	11.574	4.2727	0.	21.098
11231	11.483	4.3636	0.	19.687
11232	11.574	4.3636	5.e-002	5.1373
11233	11.574	4.0909	0.	19.724
11234	11.483	4.1818	0.	18.455
11235	11.574	4.1818	5.e-002	5.0792
11236	11.574	3.9091	0.	18.23
11237	11.483	4.	0.	17.054
11238	11.574	4.	5.e-002	5.0235
11239	11.574	3.7273	0.	16.763
11240	11.483	3.8182	0.	15.621
11241	11.574	3.8182	5.e-002	4.9725
11242	11.574	3.5455	0.	15.46
11243	11.483	3.6364	0.	14.289
11244	11.574	3.6364	5.e-002	4.9283
11245	11.574	3.3636	0.	14.439
11246	11.483	3.4545	0.	13.175
11247	11.574	3.4545	5.e-002	4.8931
11248	11.574	3.1818	0.	13.789
11249	11.483	3.2727	0.	12.376
11250	11.574	3.2727	5.e-002	4.8686
11251	11.574	3.	0.	13.565
11252	11.483	3.0909	0.	11.959
11253	11.574	3.0909	5.e-002	4.856
11254	11.574	2.8182	0.	13.789
11255	11.483	2.9091	0.	11.959
11256	11.574	2.9091	5.e-002	4.856
11257	11.574	2.6364	0.	14.439
11258	11.483	2.7273	0.	12.376
11259	11.574	2.7273	5.e-002	4.8686
11260	11.574	2.4545	0.	15.46
11261	11.483	2.5455	0.	13.175
11262	11.574	2.5455	5.e-002	4.8931
11263	11.574	2.2727	0.	16.763
11264	11.483	2.3636	0.	14.289
11265	11.574	2.3636	5.e-002	4.9283
11266	11.574	2.0909	0.	18.23
11267	11.483	2.1818	0.	15.621
11268	11.574	2.1818	5.e-002	4.9725
11269	11.574	1.9091	0.	19.724
11270	11.483	2.	0.	17.054
11271	11.574	2.	5.e-002	5.0235
11272	11.574	1.7273	0.	21.098
11273	11.483	1.8182	0.	18.455
11274	11.574	1.8182	5.e-002	5.0792
11275	11.574	1.5455	0.	22.202
11276	11.483	1.6364	0.	19.687
11277	11.574	1.6364	5.e-002	5.1373
11278	11.574	1.3636	0.	22.897
11279	11.483	1.4545	0.	20.616
11280	11.574	1.4545	5.e-002	5.1954
11281	11.574	1.1818	0.	23.06
11282	11.483	1.2727	0.	21.118
11283	11.574	1.2727	5.e-002	5.2515
11284	11.574	1.	0.	22.595
11285	11.483	1.0909	0.	21.092
11286	11.574	1.0909	5.e-002	5.3035
11287	11.574	0.81818	0.	21.442
11288	11.483	0.90909	0.	20.466
11289	11.574	0.90909	5.e-002	5.3495
11290	11.574	0.63636	0.	19.581
11291	11.483	0.72727	0.	19.2
11292	11.574	0.72727	5.e-002	5.3867
11293	11.574	0.45455	0.	17.057
11294	11.483	0.54545	0.	17.301
11295	11.574	0.54545	5.e-002	5.3985
11296	11.574	0.27273	0.	14.384
11297	11.483	0.36364	0.	14.852
11298	11.574	0.36364	5.e-002	5.1559
11299	11.483	0.18182	0.	12.847
11300	11.574	0.18182	5.e-002	1.2056
11301	11.574	9.0909e-002	0.	8.3873
11302	11.391	5.7273	0.	13.231
11303	11.299	5.8182	0.	12.161
11304	11.391	5.8182	5.e-002	1.0702
11305	11.391	5.9091	0.	8.0224
11306	11.391	5.5455	0.	15.07
11307	11.299	5.6364	0.	13.31
11308	11.391	5.6364	5.e-002	5.099
11309	11.391	5.3636	0.	16.9
11310	11.299	5.4545	0.	15.03
11311	11.391	5.4545	5.e-002	5.3516
11312	11.391	5.1818	0.	18.206
11313	11.299	5.2727	0.	16.327
11314	11.391	5.2727	5.e-002	5.3479
11315	11.391	5.	0.	18.946
11316	11.299	5.0909	0.	17.121
11317	11.391	5.0909	5.e-002	5.3203
11318	11.391	4.8182	0.	19.134
11319	11.299	4.9091	0.	17.406
11320	11.391	4.9091	5.e-002	5.2852
11321	11.391	4.6364	0.	18.821
11322	11.299	4.7273	0.	17.214
11323	11.391	4.7273	5.e-002	5.2452
11324	11.391	4.4545	0.	18.087
11325	11.299	4.5455	0.	16.606
11326	11.391	4.5455	5.e-002	5.2018
11327	11.391	4.2727	0.	17.031
11328	11.299	4.3636	0.	15.666
11329	11.391	4.3636	5.e-002	5.1566
11330	11.391	4.0909	0.	15.772
11331	11.299	4.1818	0.	14.496
11332	11.391	4.1818	5.e-002	5.1115
11333	11.391	3.9091	0.	14.431
11334	11.299	4.	0.	13.206
11335	11.391	4.	5.e-002	5.0683
11336	11.391	3.7273	0.	13.133
11337	11.299	3.8182	0.	11.913
11338	11.391	3.8182	5.e-002	5.0286
11339	11.391	3.5455	0.	11.989
11340	11.299	3.6364	0.	10.724
11341	11.391	3.6364	5.e-002	4.9944
11342	11.391	3.3636	0.	11.098
11343	11.299	3.4545	0.	9.7382
11344	11.391	3.4545	5.e-002	4.9672
11345	11.391	3.1818	0.	10.532
11346	11.299	3.2727	0.	9.0338
11347	11.391	3.2727	5.e-002	4.9482
11348	11.391	3.	0.	10.338
11349	11.299	3.0909	0.	8.6672
11350	11.391	3.0909	5.e-002	4.9385
11351	11.391	2.8182	0.	10.532
11352	11.299	2.9091	0.	8.6672
11353	11.391	2.9091	5.e-002	4.9385
11354	11.391	2.6364	0.	11.098
11355	11.299	2.7273	0.	9.0338
11356	11.391	2.7273	5.e-002	4.9482
11357	11.391	2.4545	0.	11.989
11358	11.299	2.5455	0.	9.7382
11359	11.391	2.5455	5.e-002	4.9672
11360	11.391	2.2727	0.	13.133
11361	11.299	2.3636	0.	10.724
11362	11.391	2.3636	5.e-002	4.9944
11363	11.391	2.0909	0.	14.431
11364	11.299	2.1818	0.	11.913
11365	11.391	2.1818	5.e-002	5.0286
11366	11.391	1.9091	0.	15.771
11367	11.299	2.	0.	13.206
11368	11.391	2.	5.e-002	5.0682
11369	11.391	1.7273	0.	17.031
11370	11.299	1.8182	0.	14.496
11371	11.391	1.8182	5.e-002	5.1115
11372	11.391	1.5455	0.	18.087
11373	11.299	1.6364	0.	15.666
11374	11.391	1.6364	5.e-002	5.1566
11375	11.391	1.3636	0.	18.821
11376	11.299	1.4545	0.	16.606
11377	11.391	1.4545	5.e-002	5.2018
11378	11.391	1.1818	0.	19.134
11379	11.299	1.2727	0.	17.214
11380	11.391	1.2727	5.e-002	5.2452
11381	11.391	1.	0.	18.946
11382	11.299	1.0909	0.	17.406
11383	11.391	1.0909	5.e-002	5.2852
11384	11.391	0.81818	0.	18.206
11385	11.299	0.90909	0.	17.121
11386	11.391	0.90909	5.e-002	5.3203
11387	11.391	0.63636	0.	16.9
11388	11.299	0.72727	0.	16.327
11389	11.391	0.72727	5.e-002	5.3479
11390	11.391	0.45455	0.	15.07
11391	11.299	0.54545	0.	15.03
11392	11.391	0.54545	5.e-002	5.3515
11393	11.391	0.27273	0.	13.231
11394	11.299	0.36364	0.	13.31
11395	11.391	0.36364	5.e-002	5.099
11396	11.299	0.18182	0.	12.161
11397	11.391	0.18182	5.e-002	1.0701
11398	11.391	9.0909e-002	0.	8.0224
11399	11.207	5.7273	0.	12.157
11400	11.115	5.8182	0.	11.501
11401	11.207	5.8182	5.e-002	0.96511
11402	11.207	5.9091	0.	7.668
11403	11.207	5.5455	0.	13.245
11404	11.115	5.6364	0.	11.881
11405	11.207	5.6364	5.e-002	5.0586
11406	11.207	5.3636	0.	14.437
11407	11.115	5.4545	0.	12.934
11408	11.207	5.4545	5.e-002	5.3191
11409	11.207	5.1818	0.	15.223
11410	11.115	5.2727	0.	13.67
11411	11.207	5.2727	5.e-002	5.3219
11412	11.207	5.	0.	15.564
11413	11.115	5.0909	0.	14.013
11414	11.207	5.0909	5.e-002	5.3018
11415	11.207	4.8182	0.	15.47
11416	11.115	4.9091	0.	13.959
11417	11.207	4.9091	5.e-002	5.2755
11418	11.207	4.6364	0.	14.984
11419	11.115	4.7273	0.	13.535
11420	11.207	4.7273	5.e-002	5.245
11421	11.207	4.4545	0.	14.171
11422	11.115	4.5455	0.	12.791
11423	11.207	4.5455	5.e-002	5.2117
11424	11.207	4.2727	0.	13.116
11425	11.115	4.3636	0.	11.797
11426	11.207	4.3636	5.e-002	5.1769
11427	11.207	4.0909	0.	11.916
11428	11.115	4.1818	0.	10.639
11429	11.207	4.1818	5.e-002	5.1421
11430	11.207	3.9091	0.	10.674
11431	11.115	4.	0.	9.4094
11432	11.207	4.	5.e-002	5.1086
11433	11.207	3.7273	0.	9.4901
11434	11.115	3.8182	0.	8.2028
11435	11.207	3.8182	5.e-002	5.078
11436	11.207	3.5455	0.	8.4588
11437	11.115	3.6364	0.	7.1101
11438	11.207	3.6364	5.e-002	5.0516
11439	11.207	3.3636	0.	7.6602
11440	11.115	3.4545	0.	6.2122
11441	11.207	3.4545	5.e-002	5.0305
11442	11.207	3.1818	0.	7.1553
11443	11.115	3.2727	0.	5.5748
11444	11.207	3.2727	5.e-002	5.0159
11445	11.207	3.	0.	6.9826
11446	11.115	3.0909	0.	5.2441
11447	11.207	3.0909	5.e-002	5.0084
11448	11.207	2.8182	0.	7.1553
11449	11.115	2.9091	0.	5.2441
11450	11.207	2.9091	5.e-002	5.0084
11451	11.207	2.6364	0.	7.6602
11452	11.115	2.7273	0.	5.5748
11453	11.207	2.7273	5.e-002	5.0159
11454	11.207	2.4545	0.	8.4588
11455	11.115	2.5455	0.	6.2122
11456	11.207	2.5455	5.e-002	5.0305
11457	11.207	2.2727	0.	9.4901
11458	11.115	2.3636	0.	7.1101
11459	11.207	2.3636	5.e-002	5.0516
11460	11.207	2.0909	0.	10.674
11461	11.115	2.1818	0.	8.2028
11462	11.207	2.1818	5.e-002	5.078
11463	11.207	1.9091	0.	11.916
11464	11.115	2.	0.	9.4094
11465	11.207	2.	5.e-002	5.1086
11466	11.207	1.7273	0.	13.116
11467	11.115	1.8182	0.	10.639
11468	11.207	1.8182	5.e-002	5.1421
11469	11.207	1.5455	0.	14.171
11470	11.115	1.6364	0.	11.797
11471	11.207	1.6364	5.e-002	5.1769
11472	11.207	1.3636	0.	14.984
11473	11.115	1.4545	0.	12.791
11474	11.207	1.4545	5.e-002	5.2117
11475	11.207	1.1818	0.	15.47
11476	11.115	1.2727	0.	13.535
11477	11.207	1.2727	5.e-002	5.245
11478	11.207	1.	0.	15.564
11479	11.115	1.0909	0.	13.959
11480	11.207	1.0909	5.e-002	5.2755
11481	11.207	0.81818	0.	15.223
11482	11.115	0.90909	0.	14.013
11483	11.207	0.90909	5.e-002	5.3018
11484	11.207	0.63636	0.	14.437
11485	11.115	0.72727	0.	13.67
11486	11.207	0.72727	5.e-002	5.3218
11487	11.207	0.45455	0.	13.245
11488	11.115	0.54545	0.	12.934
11489	11.207	0.54545	5.e-002	5.3191
11490	11.207	0.27273	0.	12.157
11491	11.115	0.36364	0.	11.881
11492	11.207	0.36364	5.e-002	5.0586
11493	11.115	0.18182	0.	11.501
11494	11.207	0.18182	5.e-002	0.96507
11495	11.207	9.0909e-002	0.	7.668
11496	11.023	5.7273	0.	11.142
11497	10.931	5.8182	0.	10.857
11498	11.023	5.8182	5.e-002	0.88655
11499	11.023	5.9091	0.	7.3193
11500	11.023	5.5455	0.	11.545
11501	10.931	5.6364	0.	10.537
11502	11.023	5.6364	5.e-002	5.0317
11503	11.023	5.3636	0.	12.146
11504	10.931	5.4545	0.	10.973
11505	11.023	5.4545	5.e-002	5.2984
11506	11.023	5.1818	0.	12.441
11507	10.931	5.2727	0.	11.18
11508	11.023	5.2727	5.e-002	5.3062
11509	11.023	5.	0.	12.391
11510	10.931	5.0909	0.	11.089
11511	11.023	5.0909	5.e-002	5.2921
11512	11.023	4.8182	0.	12.008
11513	10.931	4.9091	0.	10.696
11514	11.023	4.9091	5.e-002	5.2727
11515	11.023	4.6364	0.	11.326
11516	10.931	4.7273	0.	10.024
11517	11.023	4.7273	5.e-002	5.2498
11518	11.023	4.4545	0.	10.402
11519	10.931	4.5455	0.	9.1166
11520	11.023	4.5455	5.e-002	5.2246
11521	11.023	4.2727	0.	9.3058
11522	10.931	4.3636	0.	8.033
11523	11.023	4.3636	5.e-002	5.198
11524	11.023	4.0909	0.	8.118
11525	10.931	4.1818	0.	6.8441
11526	11.023	4.1818	5.e-002	5.1713
11527	11.023	3.9091	0.	6.9242
11528	10.931	4.	0.	5.6275
11529	11.023	4.	5.e-002	5.1457
11530	11.023	3.7273	0.	5.8087
11531	10.931	3.8182	0.	4.4626
11532	11.023	3.8182	5.e-002	5.1221
11533	11.023	3.5455	0.	4.8494
11534	10.931	3.6364	0.	3.4248
11535	11.023	3.6364	5.e-002	5.1018
11536	11.023	3.3636	0.	4.1127
11537	10.931	3.4545	0.	2.5813
11538	11.023	3.4545	5.e-002	5.0856
11539	11.023	3.1818	0.	3.6494
11540	10.931	3.2727	0.	1.9867
11541	11.023	3.2727	5.e-002	5.0744
11542	11.023	3.	0.	3.4913
11543	10.931	3.0909	0.	1.6794
11544	11.023	3.0909	5.e-002	5.0686
11545	11.023	2.8182	0.	3.6494
11546	10.931	2.9091	0.	1.6794
11547	11.023	2.9091	5.e-002	5.0686
11548	11.023	2.6364	0.	4.1127
11549	10.931	2.7273	0.	1.9867
11550	11.023	2.7273	5.e-002	5.0744
11551	11.023	2.4545	0.	4.8494
11552	10.931	2.5455	0.	2.5813
11553	11.023	2.5455	5.e-002	5.0856
11554	11.023	2.2727	0.	5.8087
11555	10.931	2.3636	0.	3.4248
11556	11.023	2.3636	5.e-002	5.1017
11557	11.023	2.0909	0.	6.9242
11558	10.931	2.1818	0.	4.4626
11559	11.023	2.1818	5.e-002	5.1221
11560	11.023	1.9091	0.	8.118
11561	10.931	2.	0.	5.6275
11562	11.023	2.	5.e-002	5.1456
11563	11.023	1.7273	0.	9.3058
11564	10.931	1.8182	0.	6.8441
11565	11.023	1.8182	5.e-002	5.1713
11566	11.023	1.5455	0.	10.402
11567	10.931	1.6364	0.	8.033
11568	11.023	1.6364	5.e-002	5.198
11569	11.023	1.3636	0.	11.326
11570	10.931	1.4545	0.	9.1166
11571	11.023	1.4545	5.e-002	5.2245
11572	11.023	1.1818	0.	12.008
11573	10.931	1.2727	0.	10.024
11574	11.023	1.2727	5.e-002	5.2498
11575	11.023	1.	0.	12.391
11576	10.931	1.0909	0.	10.696
11577	11.023	1.0909	5.e-002	5.2727
11578	11.023	0.81818	0.	12.441
11579	10.931	0.90909	0.	11.089
11580	11.023	0.90909	5.e-002	5.2921
11581	11.023	0.63636	0.	12.146
11582	10.931	0.72727	0.	11.18
11583	11.023	0.72727	5.e-002	5.3061
11584	11.023	0.45455	0.	11.545
11585	10.931	0.54545	0.	10.973
11586	11.023	0.54545	5.e-002	5.2983
11587	11.023	0.27273	0.	11.142
11588	10.931	0.36364	0.	10.537
11589	11.023	0.36364	5.e-002	5.0317
11590	10.931	0.18182	0.	10.857
11591	11.023	0.18182	5.e-002	0.88651
11592	11.023	9.0909e-002	0.	7.3193
11593	10.84	5.7273	0.	10.17
11594	10.748	5.8182	0.	10.221
11595	10.84	5.8182	5.e-002	0.83129
11596	10.84	5.9091	0.	6.972
11597	10.84	5.5455	0.	9.9407
11598	10.748	5.6364	0.	9.2571
11599	10.84	5.6364	5.e-002	5.0158
11600	10.84	5.3636	0.	9.9869
11601	10.748	5.4545	0.	9.1136
11602	10.84	5.4545	5.e-002	5.2872
11603	10.84	5.1818	0.	9.8104
11604	10.748	5.2727	0.	8.8176
11605	10.84	5.2727	5.e-002	5.2989
11606	10.84	5.	0.	9.3768
11607	10.748	5.0909	0.	8.3023
11608	10.84	5.0909	5.e-002	5.2896
11609	10.84	4.8182	0.	8.6959
11610	10.748	4.9091	0.	7.5669
11611	10.84	4.9091	5.e-002	5.2757
11612	10.84	4.6364	0.	7.7988
11613	10.748	4.7273	0.	6.6326
11614	10.84	4.7273	5.e-002	5.2588
11615	10.84	4.4545	0.	6.7326
11616	10.748	4.5455	0.	5.5366
11617	10.84	4.5455	5.e-002	5.24
11618	10.84	4.2727	0.	5.5568
11619	10.748	4.3636	0.	4.3296
11620	10.84	4.3636	5.e-002	5.22
11621	10.84	4.0909	0.	4.3394
11622	10.748	4.1818	0.	3.0717
11623	10.84	4.1818	5.e-002	5.1998
11624	10.84	3.9091	0.	3.1518
11625	10.748	4.	0.	1.8283
11626	10.84	4.	5.e-002	5.1802
11627	10.84	3.7273	0.	2.0647
11628	10.748	3.8182	0.	0.66637
11629	10.84	3.8182	5.e-002	5.1623
11630	10.84	3.5455	0.	1.143
11631	10.748	3.6364	0.	7.7091e-003
11632	10.84	3.6364	5.e-002	5.1467
11633	10.84	3.3636	0.	0.44201
11634	10.748	3.4545	0.	5.7594e-003
11635	10.84	3.4545	5.e-002	5.1344
11636	10.84	3.1818	0.	1.584e-002
11637	10.748	3.2727	0.	5.2533e-003
11638	10.84	3.2727	5.e-002	5.1257
11639	10.84	3.	0.	5.1553e-003
11640	10.748	3.0909	0.	5.0388e-003
11641	10.84	3.0909	5.e-002	5.1213
11642	10.84	2.8182	0.	1.5839e-002
11643	10.748	2.9091	0.	5.0384e-003
11644	10.84	2.9091	5.e-002	5.1213
11645	10.84	2.6364	0.	0.44201
11646	10.748	2.7273	0.	5.2535e-003
11647	10.84	2.7273	5.e-002	5.1257
11648	10.84	2.4545	0.	1.143
11649	10.748	2.5455	0.	5.7593e-003
11650	10.84	2.5455	5.e-002	5.1344
11651	10.84	2.2727	0.	2.0647
11652	10.748	2.3636	0.	7.7094e-003
11653	10.84	2.3636	5.e-002	5.1467
11654	10.84	2.0909	0.	3.1518
11655	10.748	2.1818	0.	0.66637
11656	10.84	2.1818	5.e-002	5.1623
11657	10.84	1.9091	0.	4.3394
11658	10.748	2.	0.	1.8283
11659	10.84	2.	5.e-002	5.1802
11660	10.84	1.7273	0.	5.5568
11661	10.748	1.8182	0.	3.0717
11662	10.84	1.8182	5.e-002	5.1997
11663	10.84	1.5455	0.	6.7326
11664	10.748	1.6364	0.	4.3296
11665	10.84	1.6364	5.e-002	5.22
11666	10.84	1.3636	0.	7.7988
11667	10.748	1.4545	0.	5.5366
11668	10.84	1.4545	5.e-002	5.24
11669	10.84	1.1818	0.	8.6959
11670	10.748	1.2727	0.	6.6325
11671	10.84	1.2727	5.e-002	5.2588
11672	10.84	1.	0.	9.3767
11673	10.748	1.0909	0.	7.5669
11674	10.84	1.0909	5.e-002	5.2757
11675	10.84	0.81818	0.	9.8104
11676	10.748	0.90909	0.	8.3023
11677	10.84	0.90909	5.e-002	5.2896
11678	10.84	0.63636	0.	9.9869
11679	10.748	0.72727	0.	8.8176
11680	10.84	0.72727	5.e-002	5.2988
11681	10.84	0.45455	0.	9.9407
11682	10.748	0.54545	0.	9.1136
11683	10.84	0.54545	5.e-002	5.2871
11684	10.84	0.27273	0.	10.17
11685	10.748	0.36364	0.	9.2571
11686	10.84	0.36364	5.e-002	5.0157
11687	10.748	0.18182	0.	10.221
11688	10.84	0.18182	5.e-002	0.83125
11689	10.84	9.0909e-002	0.	6.972
11690	10.656	5.7273	0.	9.2266
11691	10.564	5.8182	0.	9.5852
11692	10.656	5.8182	5.e-002	0.79691
11693	10.656	5.9091	0.	6.6225
11694	10.656	5.5455	0.	8.406
11695	10.564	5.6364	0.	8.0202
11696	10.656	5.6364	5.e-002	5.0087
11697	10.656	5.3636	0.	7.9243
11698	10.564	5.4545	0.	7.3265
11699	10.656	5.4545	5.e-002	5.2837
11700	10.656	5.1818	0.	7.2911
11701	10.564	5.2727	0.	6.5441
11702	10.656	5.2727	5.e-002	5.2985
11703	10.656	5.	0.	6.4754
11704	10.564	5.0909	0.	5.6107
11705	10.656	5.0909	5.e-002	5.293
11706	10.656	4.8182	0.	5.4875
11707	10.564	4.9091	0.	4.5281
11708	10.656	4.9091	5.e-002	5.2835
11709	10.656	4.6364	0.	4.355
11710	10.564	4.7273	0.	3.3161
11711	10.656	4.7273	5.e-002	5.2714
11712	10.656	4.4545	0.	3.1189
11713	10.564	4.5455	0.	2.0079
11714	10.656	4.5455	5.e-002	5.2577
11715	10.656	4.2727	0.	1.8301
11716	10.564	4.3636	0.	0.64761
11717	10.656	4.3636	5.e-002	5.2429
11718	10.656	4.0909	0.	0.54655
11719	10.564	4.1818	0.	6.0338e-003
11720	10.656	4.1818	5.e-002	5.2277
11721	10.656	3.9091	0.	6.3903e-003
11722	10.564	4.	0.	5.849e-003
11723	10.656	4.	5.e-002	5.2131
11724	10.656	3.7273	0.	5.8066e-003
11725	10.564	3.8182	0.	5.5895e-003
11726	10.656	3.8182	5.e-002	5.1995
11727	10.656	3.5455	0.	5.4284e-003
11728	10.564	3.6364	0.	5.3087e-003
11729	10.656	3.6364	5.e-002	5.1877
11730	10.656	3.3636	0.	5.1399e-003
11731	10.564	3.4545	0.	5.0559e-003
11732	10.656	3.4545	5.e-002	5.1783
11733	10.656	3.1818	0.	4.955e-003
11734	10.564	3.2727	0.	4.8648e-003
11735	10.656	3.2727	5.e-002	5.1718
11736	10.656	3.	0.	4.8913e-003
11737	10.564	3.0909	0.	4.7624e-003
11738	10.656	3.0909	5.e-002	5.1684
11739	10.656	2.8182	0.	4.9548e-003
11740	10.564	2.9091	0.	4.7623e-003
11741	10.656	2.9091	5.e-002	5.1684
11742	10.656	2.6364	0.	5.1398e-003
11743	10.564	2.7273	0.	4.8648e-003
11744	10.656	2.7273	5.e-002	5.1718
11745	10.656	2.4545	0.	5.4288e-003
11746	10.564	2.5455	0.	5.0561e-003
11747	10.656	2.5455	5.e-002	5.1783
11748	10.656	2.2727	0.	5.8071e-003
11749	10.564	2.3636	0.	5.3091e-003
11750	10.656	2.3636	5.e-002	5.1877
11751	10.656	2.0909	0.	6.3906e-003
11752	10.564	2.1818	0.	5.5896e-003
11753	10.656	2.1818	5.e-002	5.1995
11754	10.656	1.9091	0.	0.54654
11755	10.564	2.	0.	5.8496e-003
11756	10.656	2.	5.e-002	5.2131
11757	10.656	1.7273	0.	1.8301
11758	10.564	1.8182	0.	6.0339e-003
11759	10.656	1.8182	5.e-002	5.2277
11760	10.656	1.5455	0.	3.1189
11761	10.564	1.6364	0.	0.6476
11762	10.656	1.6364	5.e-002	5.2428
11763	10.656	1.3636	0.	4.355
11764	10.564	1.4545	0.	2.0079
11765	10.656	1.4545	5.e-002	5.2576
11766	10.656	1.1818	0.	5.4874
11767	10.564	1.2727	0.	3.316
11768	10.656	1.2727	5.e-002	5.2714
11769	10.656	1.	0.	6.4753
11770	10.564	1.0909	0.	4.528
11771	10.656	1.0909	5.e-002	5.2834
11772	10.656	0.81818	0.	7.2911
11773	10.564	0.90909	0.	5.6107
11774	10.656	0.90909	5.e-002	5.293
11775	10.656	0.63636	0.	7.9243
11776	10.564	0.72727	0.	6.5441
11777	10.656	0.72727	5.e-002	5.2984
11778	10.656	0.45455	0.	8.406
11779	10.564	0.54545	0.	7.3265
11780	10.656	0.54545	5.e-002	5.2836
11781	10.656	0.27273	0.	9.2266
11782	10.564	0.36364	0.	8.0202
11783	10.656	0.36364	5.e-002	5.0087
11784	10.564	0.18182	0.	9.5852
11785	10.656	0.18182	5.e-002	0.79688
11786	10.656	9.0909e-002	0.	6.6225
11787	10.472	5.7273	0.	8.2983
11788	10.38	5.8182	0.	8.9432
11789	10.472	5.8182	5.e-002	0.7813
11790	10.472	5.9091	0.	6.2674
11791	10.472	5.5455	0.	6.9172
11792	10.38	5.6364	0.	6.8088
11793	10.472	5.6364	5.e-002	5.0092
11794	10.472	5.3636	0.	5.9267
11795	10.38	5.4545	0.	5.5851
11796	10.472	5.4545	5.e-002	5.2866
11797	10.472	5.1818	0.	4.8457
11798	10.38	5.2727	0.	4.3272
11799	10.472	5.2727	5.e-002	5.3039
11800	10.472	5.	0.	3.6466
11801	10.38	5.0909	0.	2.9775
11802	10.472	5.0909	5.e-002	5.3014
11803	10.472	4.8182	0.	2.341
11804	10.38	4.9091	0.	1.5408
11805	10.472	4.9091	5.e-002	5.2953
11806	10.472	4.6364	0.	0.95458
11807	10.38	4.7273	0.	6.8671e-002
11808	10.472	4.7273	5.e-002	5.2871
11809	10.472	4.4545	0.	6.9335e-003
11810	10.38	4.5455	0.	6.4366e-003
11811	10.472	4.5455	5.e-002	5.2773
11812	10.472	4.2727	0.	5.9142e-003
11813	10.38	4.3636	0.	5.8547e-003
11814	10.472	4.3636	5.e-002	5.2667
11815	10.472	4.0909	0.	5.6916e-003
11816	10.38	4.1818	0.	5.6175e-003
11817	10.472	4.1818	5.e-002	5.2556
11818	10.472	3.9091	0.	5.4661e-003
11819	10.38	4.	0.	5.3956e-003
11820	10.472	4.	5.e-002	5.2447
11821	10.472	3.7273	0.	5.2222e-003
11822	10.38	3.8182	0.	5.1591e-003
11823	10.472	3.8182	5.e-002	5.2346
11824	10.472	3.5455	0.	4.9889e-003
11825	10.38	3.6364	0.	4.9265e-003
11826	10.472	3.6364	5.e-002	5.2258
11827	10.472	3.3636	0.	4.7968e-003
11828	10.38	3.4545	0.	4.724e-003
11829	10.472	3.4545	5.e-002	5.2188
11830	10.472	3.1818	0.	4.6704e-003
11831	10.38	3.2727	0.	4.5735e-003
11832	10.472	3.2727	5.e-002	5.2139
11833	10.472	3.	0.	4.6262e-003
11834	10.38	3.0909	0.	4.4934e-003
11835	10.472	3.0909	5.e-002	5.2114
11836	10.472	2.8182	0.	4.6704e-003
11837	10.38	2.9091	0.	4.4933e-003
11838	10.472	2.9091	5.e-002	5.2114
11839	10.472	2.6364	0.	4.797e-003
11840	10.38	2.7273	0.	4.5736e-003
11841	10.472	2.7273	5.e-002	5.2139
11842	10.472	2.4545	0.	4.989e-003
11843	10.38	2.5455	0.	4.7242e-003
11844	10.472	2.5455	5.e-002	5.2188
11845	10.472	2.2727	0.	5.2223e-003
11846	10.38	2.3636	0.	4.9264e-003
11847	10.472	2.3636	5.e-002	5.2258
11848	10.472	2.0909	0.	5.4665e-003
11849	10.38	2.1818	0.	5.1595e-003
11850	10.472	2.1818	5.e-002	5.2346
11851	10.472	1.9091	0.	5.6921e-003
11852	10.38	2.	0.	5.396e-003
11853	10.472	2.	5.e-002	5.2447
11854	10.472	1.7273	0.	5.9146e-003
11855	10.38	1.8182	0.	5.618e-003
11856	10.472	1.8182	5.e-002	5.2556
11857	10.472	1.5455	0.	6.9342e-003
11858	10.38	1.6364	0.	5.8551e-003
11859	10.472	1.6364	5.e-002	5.2666
11860	10.472	1.3636	0.	0.95456
11861	10.38	1.4545	0.	6.4374e-003
11862	10.472	1.4545	5.e-002	5.2773
11863	10.472	1.1818	0.	2.341
11864	10.38	1.2727	0.	6.8663e-002
11865	10.472	1.2727	5.e-002	5.2871
11866	10.472	1.	0.	3.6466
11867	10.38	1.0909	0.	1.5408
11868	10.472	1.0909	5.e-002	5.2953
11869	10.472	0.81818	0.	4.8457
11870	10.38	0.90909	0.	2.9775
11871	10.472	0.90909	5.e-002	5.3013
11872	10.472	0.63636	0.	5.9267
11873	10.38	0.72727	0.	4.3272
11874	10.472	0.72727	5.e-002	5.3038
11875	10.472	0.45455	0.	6.9172
11876	10.38	0.54545	0.	5.5851
11877	10.472	0.54545	5.e-002	5.2866
11878	10.472	0.27273	0.	8.2983
11879	10.38	0.36364	0.	6.8088
11880	10.472	0.36364	5.e-002	5.0091
11881	10.38	0.18182	0.	8.9432
11882	10.472	0.18182	5.e-002	0.78125
11883	10.472	9.0909e-002	0.	6.2674
11884	10.288	5.7273	0.	7.374
11885	10.197	5.8182	0.	8.289
11886	10.288	5.8182	5.e-002	0.78273
11887	10.288	5.9091	0.	5.9037
11888	10.288	5.5455	0.	5.4536
11889	10.197	5.6364	0.	5.6072
11890	10.288	5.6364	5.e-002	5.0157
11891	10.288	5.3636	0.	3.9663
11892	10.197	5.4545	0.	3.8658
11893	10.288	5.4545	5.e-002	5.2948
11894	10.288	5.1818	0.	2.4415
11895	10.197	5.2727	0.	2.138
11896	10.288	5.2727	5.e-002	5.314
11897	10.288	5.	0.	0.85761
11898	10.197	5.0909	0.	0.38051
11899	10.288	5.0909	5.e-002	5.3139
11900	10.288	4.8182	0.	9.4863e-003
11901	10.197	4.9091	0.	7.8843e-003
11902	10.288	4.9091	5.e-002	5.3106
11903	10.288	4.6364	0.	6.2858e-003
11904	10.197	4.7273	0.	6.1317e-003
11905	10.288	4.7273	5.e-002	5.3054
11906	10.288	4.4545	0.	5.7837e-003
11907	10.197	4.5455	0.	5.7159e-003
11908	10.288	4.5455	5.e-002	5.2989
11909	10.288	4.2727	0.	5.5399e-003
11910	10.197	4.3636	0.	5.4853e-003
11911	10.288	4.3636	5.e-002	5.2914
11912	10.288	4.0909	0.	5.3234e-003
11913	10.197	4.1818	0.	5.2748e-003
11914	10.288	4.1818	5.e-002	5.2836
11915	10.288	3.9091	0.	5.0976e-003
11916	10.197	4.	0.	5.0531e-003
11917	10.288	4.	5.e-002	5.2757
11918	10.288	3.7273	0.	4.8711e-003
11919	10.197	3.8182	0.	4.8251e-003
11920	10.288	3.8182	5.e-002	5.2684
11921	10.288	3.5455	0.	4.6655e-003
11922	10.197	3.6364	0.	4.61e-003
11923	10.288	3.6364	5.e-002	5.2619
11924	10.288	3.3636	0.	4.5007e-003
11925	10.197	3.4545	0.	4.4282e-003
11926	10.288	3.4545	5.e-002	5.2567
11927	10.288	3.1818	0.	4.3938e-003
11928	10.197	3.2727	0.	4.2955e-003
11929	10.288	3.2727	5.e-002	5.2531
11930	10.288	3.	0.	4.357e-003
11931	10.197	3.0909	0.	4.2255e-003
11932	10.288	3.0909	5.e-002	5.2513
11933	10.288	2.8182	0.	4.3939e-003
11934	10.197	2.9091	0.	4.2255e-003
11935	10.288	2.9091	5.e-002	5.2513
11936	10.288	2.6364	0.	4.5008e-003
11937	10.197	2.7273	0.	4.2957e-003
11938	10.288	2.7273	5.e-002	5.2531
11939	10.288	2.4545	0.	4.6655e-003
11940	10.197	2.5455	0.	4.4284e-003
11941	10.288	2.5455	5.e-002	5.2567
11942	10.288	2.2727	0.	4.8714e-003
11943	10.197	2.3636	0.	4.6102e-003
11944	10.288	2.3636	5.e-002	5.2619
11945	10.288	2.0909	0.	5.0979e-003
11946	10.197	2.1818	0.	4.8254e-003
11947	10.288	2.1818	5.e-002	5.2684
11948	10.288	1.9091	0.	5.3237e-003
11949	10.197	2.	0.	5.0533e-003
11950	10.288	2.	5.e-002	5.2757
11951	10.288	1.7273	0.	5.5405e-003
11952	10.197	1.8182	0.	5.2756e-003
11953	10.288	1.8182	5.e-002	5.2836
11954	10.288	1.5455	0.	5.7842e-003
11955	10.197	1.6364	0.	5.4858e-003
11956	10.288	1.6364	5.e-002	5.2914
11957	10.288	1.3636	0.	6.2863e-003
11958	10.197	1.4545	0.	5.7163e-003
11959	10.288	1.4545	5.e-002	5.2988
11960	10.288	1.1818	0.	9.4865e-003
11961	10.197	1.2727	0.	6.1323e-003
11962	10.288	1.2727	5.e-002	5.3054
11963	10.288	1.	0.	0.8576
11964	10.197	1.0909	0.	7.8847e-003
11965	10.288	1.0909	5.e-002	5.3105
11966	10.288	0.81818	0.	2.4415
11967	10.197	0.90909	0.	0.38049
11968	10.288	0.90909	5.e-002	5.3139
11969	10.288	0.63636	0.	3.9663
11970	10.197	0.72727	0.	2.138
11971	10.288	0.72727	5.e-002	5.314
11972	10.288	0.45455	0.	5.4536
11973	10.197	0.54545	0.	3.8657
11974	10.288	0.54545	5.e-002	5.2948
11975	10.288	0.27273	0.	7.374
11976	10.197	0.36364	0.	5.6072
11977	10.288	0.36364	5.e-002	5.0157
11978	10.197	0.18182	0.	8.289
11979	10.288	0.18182	5.e-002	0.78267
11980	10.288	9.0909e-002	0.	5.9037
11981	10.105	5.7273	0.	6.4434
11982	10.013	5.8182	0.	7.6172
11983	10.105	5.8182	5.e-002	0.79961
11984	10.105	5.9091	0.	5.5287
11985	10.105	5.5455	0.	3.9966
11986	10.013	5.6364	0.	4.4012
11987	10.105	5.6364	5.e-002	5.0275
11988	10.105	5.3636	0.	2.0186
11989	10.013	5.4545	0.	2.1477
11990	10.105	5.4545	5.e-002	5.3074
11991	10.105	5.1818	0.	0.10356
11992	10.013	5.2727	0.	5.3326e-002
11993	10.105	5.2727	5.e-002	5.3281
11994	10.105	5.	0.	7.2631e-003
11995	10.013	5.0909	0.	6.7942e-003
11996	10.105	5.0909	5.e-002	5.3299
11997	10.105	4.8182	0.	5.9983e-003
11998	10.013	4.9091	0.	5.8585e-003
11999	10.105	4.9091	5.e-002	5.3288
12000	10.105	4.6364	0.	5.6348e-003
12001	10.013	4.7273	0.	5.5574e-003
12002	10.105	4.7273	5.e-002	5.3261
12003	10.105	4.4545	0.	5.4199e-003
12004	10.013	4.5455	0.	5.3677e-003
12005	10.105	4.5455	5.e-002	5.3221
12006	10.105	4.2727	0.	5.2183e-003
12007	10.013	4.3636	0.	5.175e-003
12008	10.105	4.3636	5.e-002	5.3173
12009	10.105	4.0909	0.	5.0045e-003
12010	10.013	4.1818	0.	4.9653e-003
12011	10.105	4.1818	5.e-002	5.3119
12012	10.105	3.9091	0.	4.7816e-003
12013	10.013	4.	0.	4.7414e-003
12014	10.105	4.	5.e-002	5.3065
12015	10.105	3.7273	0.	4.5646e-003
12016	10.013	3.8182	0.	4.5168e-003
12017	10.105	3.8182	5.e-002	5.3013
12018	10.105	3.5455	0.	4.3723e-003
12019	10.013	3.6364	0.	4.3103e-003
12020	10.105	3.6364	5.e-002	5.2967
12021	10.105	3.3636	0.	4.2215e-003
12022	10.013	3.4545	0.	4.1387e-003
12023	10.105	3.4545	5.e-002	5.293
12024	10.105	3.1818	0.	4.1249e-003
12025	10.013	3.2727	0.	4.0159e-003
12026	10.105	3.2727	5.e-002	5.2903
12027	10.105	3.	0.	4.0915e-003
12028	10.013	3.0909	0.	3.9507e-003
12029	10.105	3.0909	5.e-002	5.289
12030	10.105	2.8182	0.	4.125e-003
12031	10.013	2.9091	0.	3.9508e-003
12032	10.105	2.9091	5.e-002	5.289
12033	10.105	2.6364	0.	4.2219e-003
12034	10.013	2.7273	0.	4.0157e-003
12035	10.105	2.7273	5.e-002	5.2903
12036	10.105	2.4545	0.	4.3727e-003
12037	10.013	2.5455	0.	4.1393e-003
12038	10.105	2.5455	5.e-002	5.293
12039	10.105	2.2727	0.	4.5648e-003
12040	10.013	2.3636	0.	4.3105e-003
12041	10.105	2.3636	5.e-002	5.2967
12042	10.105	2.0909	0.	4.7817e-003
12043	10.013	2.1818	0.	4.5171e-003
12044	10.105	2.1818	5.e-002	5.3013
12045	10.105	1.9091	0.	5.0051e-003
12046	10.013	2.	0.	4.742e-003
12047	10.105	2.	5.e-002	5.3065
12048	10.105	1.7273	0.	5.2189e-003
12049	10.013	1.8182	0.	4.9659e-003
12050	10.105	1.8182	5.e-002	5.3119
12051	10.105	1.5455	0.	5.4204e-003
12052	10.013	1.6364	0.	5.1755e-003
12053	10.105	1.6364	5.e-002	5.3172
12054	10.105	1.3636	0.	5.6354e-003
12055	10.013	1.4545	0.	5.3679e-003
12056	10.105	1.4545	5.e-002	5.3221
12057	10.105	1.1818	0.	5.999e-003
12058	10.013	1.2727	0.	5.5582e-003
12059	10.105	1.2727	5.e-002	5.326
12060	10.105	1.	0.	7.2643e-003
12061	10.013	1.0909	0.	5.8592e-003
12062	10.105	1.0909	5.e-002	5.3288
12063	10.105	0.81818	0.	0.10355
12064	10.013	0.90909	0.	6.7957e-003
12065	10.105	0.90909	5.e-002	5.3299
12066	10.105	0.63636	0.	2.0186
12067	10.013	0.72727	0.	5.3322e-002
12068	10.105	0.72727	5.e-002	5.3281
12069	10.105	0.45455	0.	3.9966
12070	10.013	0.54545	0.	2.1477
12071	10.105	0.54545	5.e-002	5.3074
12072	10.105	0.27273	0.	6.4434
12073	10.013	0.36364	0.	4.4012
12074	10.105	0.36364	5.e-002	5.0274
12075	10.013	0.18182	0.	7.6172
12076	10.105	0.18182	5.e-002	0.79958
12077	10.105	9.0909e-002	0.	5.5287
12078	9.9209	5.7273	0.	5.4974
12079	9.8291	5.8182	0.	6.923
12080	9.9209	5.8182	5.e-002	0.83067
12081	9.9209	5.9091	0.	5.1399
12082	9.9209	5.5455	0.	2.5296
12083	9.8291	5.6364	0.	3.1781
12084	9.9209	5.6364	5.e-002	5.0437
12085	9.9209	5.3636	0.	0.10031
12086	9.8291	5.4545	0.	0.41518
12087	9.9209	5.4545	5.e-002	5.3238
12088	9.9209	5.1818	0.	6.5358e-003
12089	9.8291	5.2727	0.	6.3239e-003
12090	9.9209	5.2727	5.e-002	5.3457
12091	9.9209	5.	0.	5.711e-003
12092	9.8291	5.0909	0.	5.5624e-003
12093	9.9209	5.0909	5.e-002	5.3491
12094	9.9209	4.8182	0.	5.4816e-003
12095	9.8291	4.9091	0.	5.4231e-003
12096	9.9209	4.9091	5.e-002	5.3497
12097	9.9209	4.6364	0.	5.3076e-003
12098	9.8291	4.7273	0.	5.2637e-003
12099	9.9209	4.7273	5.e-002	5.3489
12100	9.9209	4.4545	0.	5.1278e-003
12101	9.8291	4.5455	0.	5.0946e-003
12102	9.9209	4.5455	5.e-002	5.347
12103	9.9209	4.2727	0.	4.9235e-003
12104	9.8291	4.3636	0.	4.8902e-003
12105	9.9209	4.3636	5.e-002	5.3442
12106	9.9209	4.0909	0.	4.7027e-003
12107	9.8291	4.1818	0.	4.6656e-003
12108	9.9209	4.1818	5.e-002	5.3409
12109	9.9209	3.9091	0.	4.4765e-003
12110	9.8291	4.	0.	4.4315e-003
12111	9.9209	4.	5.e-002	5.3373
12112	9.9209	3.7273	0.	4.2617e-003
12113	9.8291	3.8182	0.	4.2032e-003
12114	9.9209	3.8182	5.e-002	5.3339
12115	9.9209	3.5455	0.	4.0752e-003
12116	9.8291	3.6364	0.	3.9977e-003
12117	9.9209	3.6364	5.e-002	5.3307
12118	9.9209	3.3636	0.	3.9312e-003
12119	9.8291	3.4545	0.	3.8298e-003
12120	9.9209	3.4545	5.e-002	5.3281
12121	9.9209	3.1818	0.	3.8394e-003
12122	9.8291	3.2727	0.	3.7109e-003
12123	9.9209	3.2727	5.e-002	5.3263
12124	9.9209	3.	0.	3.8077e-003
12125	9.8291	3.0909	0.	3.6482e-003
12126	9.9209	3.0909	5.e-002	5.3253
12127	9.9209	2.8182	0.	3.8393e-003
12128	9.8291	2.9091	0.	3.6482e-003
12129	9.9209	2.9091	5.e-002	5.3253
12130	9.9209	2.6364	0.	3.9313e-003
12131	9.8291	2.7273	0.	3.7104e-003
12132	9.9209	2.7273	5.e-002	5.3263
12133	9.9209	2.4545	0.	4.0758e-003
12134	9.8291	2.5455	0.	3.8303e-003
12135	9.9209	2.5455	5.e-002	5.3281
12136	9.9209	2.2727	0.	4.2621e-003
12137	9.8291	2.3636	0.	3.9978e-003
12138	9.9209	2.3636	5.e-002	5.3307
12139	9.9209	2.0909	0.	4.4772e-003
12140	9.8291	2.1818	0.	4.2034e-003
12141	9.9209	2.1818	5.e-002	5.3339
12142	9.9209	1.9091	0.	4.7033e-003
12143	9.8291	2.	0.	4.4321e-003
12144	9.9209	2.	5.e-002	5.3373
12145	9.9209	1.7273	0.	4.9241e-003
12146	9.8291	1.8182	0.	4.666e-003
12147	9.9209	1.8182	5.e-002	5.3408
12148	9.9209	1.5455	0.	5.1281e-003
12149	9.8291	1.6364	0.	4.8913e-003
12150	9.9209	1.6364	5.e-002	5.3442
12151	9.9209	1.3636	0.	5.3079e-003
12152	9.8291	1.4545	0.	5.0949e-003
12153	9.9209	1.4545	5.e-002	5.347
12154	9.9209	1.1818	0.	5.4824e-003
12155	9.8291	1.2727	0.	5.2644e-003
12156	9.9209	1.2727	5.e-002	5.3488
12157	9.9209	1.	0.	5.712e-003
12158	9.8291	1.0909	0.	5.4237e-003
12159	9.9209	1.0909	5.e-002	5.3497
12160	9.9209	0.81818	0.	6.537e-003
12161	9.8291	0.90909	0.	5.5639e-003
12162	9.9209	0.90909	5.e-002	5.349
12163	9.9209	0.63636	0.	0.1003
12164	9.8291	0.72727	0.	6.3252e-003
12165	9.9209	0.72727	5.e-002	5.3457
12166	9.9209	0.45455	0.	2.5296
12167	9.8291	0.54545	0.	0.41517
12168	9.9209	0.54545	5.e-002	5.3238
12169	9.9209	0.27273	0.	5.4974
12170	9.8291	0.36364	0.	3.1781
12171	9.9209	0.36364	5.e-002	5.0437
12172	9.8291	0.18182	0.	6.923
12173	9.9209	0.18182	5.e-002	0.83063
12174	9.9209	9.0909e-002	0.	5.1399
12175	9.7372	5.7273	0.	4.5277
12176	9.6453	5.8182	0.	6.202
12177	9.7372	5.8182	5.e-002	0.87482
12178	9.7372	5.9091	0.	4.735
12179	9.7372	5.5455	0.	1.0373
12180	9.6453	5.6364	0.	1.9264
12181	9.7372	5.6364	5.e-002	5.0638
12182	9.7372	5.3636	0.	5.6258e-003
12183	9.6453	5.4545	0.	4.8112e-003
12184	9.7372	5.4545	5.e-002	5.3435
12185	9.7372	5.1818	0.	5.5661e-003
12186	9.6453	5.2727	0.	5.6766e-003
12187	9.7372	5.2727	5.e-002	5.3664
12188	9.7372	5.	0.	5.3478e-003
12189	9.6453	5.0909	0.	5.3288e-003
12190	9.7372	5.0909	5.e-002	5.371
12191	9.7372	4.8182	0.	5.2339e-003
12192	9.6453	4.9091	0.	5.2637e-003
12193	9.7372	4.9091	5.e-002	5.373
12194	9.7372	4.6364	0.	5.0626e-003
12195	9.6453	4.7273	0.	5.0794e-003
12196	9.7372	4.7273	5.e-002	5.3738
12197	9.7372	4.4545	0.	4.8619e-003
12198	9.6453	4.5455	0.	4.8742e-003
12199	9.7372	4.5455	5.e-002	5.3735
12200	9.7372	4.2727	0.	4.634e-003
12201	9.6453	4.3636	0.	4.6348e-003
12202	9.7372	4.3636	5.e-002	5.3723
12203	9.7372	4.0909	0.	4.3945e-003
12204	9.6453	4.1818	0.	4.3818e-003
12205	9.7372	4.1818	5.e-002	5.3706
12206	9.7372	3.9091	0.	4.1573e-003
12207	9.6453	4.	0.	4.1283e-003
12208	9.7372	4.	5.e-002	5.3685
12209	9.7372	3.7273	0.	3.9377e-003
12210	9.6453	3.8182	0.	3.8885e-003
12211	9.7372	3.8182	5.e-002	5.3664
12212	9.7372	3.5455	0.	3.7502e-003
12213	9.6453	3.6364	0.	3.6765e-003
12214	9.7372	3.6364	5.e-002	5.3644
12215	9.7372	3.3636	0.	3.6071e-003
12216	9.6453	3.4545	0.	3.5065e-003
12217	9.7372	3.4545	5.e-002	5.3628
12218	9.7372	3.1818	0.	3.5171e-003
12219	9.6453	3.2727	0.	3.3868e-003
12220	9.7372	3.2727	5.e-002	5.3615
12221	9.7372	3.	0.	3.486e-003
12222	9.6453	3.0909	0.	3.3243e-003
12223	9.7372	3.0909	5.e-002	5.3609
12224	9.7372	2.8182	0.	3.5168e-003
12225	9.6453	2.9091	0.	3.3245e-003
12226	9.7372	2.9091	5.e-002	5.3609
12227	9.7372	2.6364	0.	3.6071e-003
12228	9.6453	2.7273	0.	3.3867e-003
12229	9.7372	2.7273	5.e-002	5.3615
12230	9.7372	2.4545	0.	3.7503e-003
12231	9.6453	2.5455	0.	3.5068e-003
12232	9.7372	2.5455	5.e-002	5.3627
12233	9.7372	2.2727	0.	3.9376e-003
12234	9.6453	2.3636	0.	3.6766e-003
12235	9.7372	2.3636	5.e-002	5.3644
12236	9.7372	2.0909	0.	4.1575e-003
12237	9.6453	2.1818	0.	3.8883e-003
12238	9.7372	2.1818	5.e-002	5.3664
12239	9.7372	1.9091	0.	4.3949e-003
12240	9.6453	2.	0.	4.1287e-003
12241	9.7372	2.	5.e-002	5.3685
12242	9.7372	1.7273	0.	4.6349e-003
12243	9.6453	1.8182	0.	4.3822e-003
12244	9.7372	1.8182	5.e-002	5.3706
12245	9.7372	1.5455	0.	4.8629e-003
12246	9.6453	1.6364	0.	4.6354e-003
12247	9.7372	1.6364	5.e-002	5.3723
12248	9.7372	1.3636	0.	5.0633e-003
12249	9.6453	1.4545	0.	4.875e-003
12250	9.7372	1.4545	5.e-002	5.3734
12251	9.7372	1.1818	0.	5.2345e-003
12252	9.6453	1.2727	0.	5.0798e-003
12253	9.7372	1.2727	5.e-002	5.3737
12254	9.7372	1.	0.	5.3488e-003
12255	9.6453	1.0909	0.	5.2641e-003
12256	9.7372	1.0909	5.e-002	5.373
12257	9.7372	0.81818	0.	5.5675e-003
12258	9.6453	0.90909	0.	5.3303e-003
12259	9.7372	0.90909	5.e-002	5.371
12260	9.7372	0.63636	0.	5.6265e-003
12261	9.6453	0.72727	0.	5.6778e-003
12262	9.7372	0.72727	5.e-002	5.3663
12263	9.7372	0.45455	0.	1.0373
12264	9.6453	0.54545	0.	4.8115e-003
12265	9.7372	0.54545	5.e-002	5.3434
12266	9.7372	0.27273	0.	4.5277
12267	9.6453	0.36364	0.	1.9264
12268	9.7372	0.36364	5.e-002	5.0638
12269	9.6453	0.18182	0.	6.202
12270	9.7372	0.18182	5.e-002	0.87478
12271	9.7372	9.0909e-002	0.	4.735
12272	9.5535	5.7273	0.	3.5273
12273	9.4616	5.8182	0.	5.4502
12274	9.5535	5.8182	5.e-002	0.93129
12275	9.5535	5.9091	0.	4.312
12276	9.5535	5.5455	0.	7.6627e-003
12277	9.4616	5.6364	0.	0.63701
12278	9.5535	5.6364	5.e-002	5.0875
12279	9.5535	5.3636	0.	5.1423e-003
12280	9.4616	5.4545	0.	4.6854e-003
12281	9.5535	5.4545	5.e-002	5.3661
12282	9.5535	5.1818	0.	5.5277e-003
12283	9.4616	5.2727	0.	5.8921e-003
12284	9.5535	5.2727	5.e-002	5.3898
12285	9.5535	5.	0.	5.2815e-003
12286	9.4616	5.0909	0.	5.3843e-003
12287	9.5535	5.0909	5.e-002	5.3954
12288	9.5535	4.8182	0.	5.1258e-003
12289	9.4616	4.9091	0.	5.2482e-003
12290	9.5535	4.9091	5.e-002	5.3986
12291	9.5535	4.6364	0.	4.8983e-003
12292	9.4616	4.7273	0.	4.9807e-003
12293	9.5535	4.7273	5.e-002	5.4006
12294	9.5535	4.4545	0.	4.6498e-003
12295	9.4616	4.5455	0.	4.7114e-003
12296	9.5535	4.5455	5.e-002	5.4016
12297	9.5535	4.2727	0.	4.3829e-003
12298	9.4616	4.3636	0.	4.4196e-003
12299	9.5535	4.3636	5.e-002	5.4018
12300	9.5535	4.0909	0.	4.1146e-003
12301	9.4616	4.1818	0.	4.1273e-003
12302	9.5535	4.1818	5.e-002	5.4013
12303	9.5535	3.9091	0.	3.8576e-003
12304	9.4616	4.	0.	3.845e-003
12305	9.5535	4.	5.e-002	5.4005
12306	9.5535	3.7273	0.	3.6249e-003
12307	9.4616	3.8182	0.	3.5851e-003
12308	9.5535	3.8182	5.e-002	5.3994
12309	9.5535	3.5455	0.	3.43e-003
12310	9.4616	3.6364	0.	3.3601e-003
12311	9.5535	3.6364	5.e-002	5.3983
12312	9.5535	3.3636	0.	3.2831e-003
12313	9.4616	3.4545	0.	3.1827e-003
12314	9.5535	3.4545	5.e-002	5.3973
12315	9.5535	3.1818	0.	3.1909e-003
12316	9.4616	3.2727	0.	3.0582e-003
12317	9.5535	3.2727	5.e-002	5.3966
12318	9.5535	3.	0.	3.1596e-003
12319	9.4616	3.0909	0.	2.9943e-003
12320	9.5535	3.0909	5.e-002	5.3962
12321	9.5535	2.8182	0.	3.1912e-003
12322	9.4616	2.9091	0.	2.9942e-003
12323	9.5535	2.9091	5.e-002	5.3962
12324	9.5535	2.6364	0.	3.2834e-003
12325	9.4616	2.7273	0.	3.0585e-003
12326	9.5535	2.7273	5.e-002	5.3966
12327	9.5535	2.4545	0.	3.4304e-003
12328	9.4616	2.5455	0.	3.1829e-003
12329	9.5535	2.5455	5.e-002	5.3973
12330	9.5535	2.2727	0.	3.6249e-003
12331	9.4616	2.3636	0.	3.3603e-003
12332	9.5535	2.3636	5.e-002	5.3983
12333	9.5535	2.0909	0.	3.8577e-003
12334	9.4616	2.1818	0.	3.5851e-003
12335	9.5535	2.1818	5.e-002	5.3994
12336	9.5535	1.9091	0.	4.115e-003
12337	9.4616	2.	0.	3.8456e-003
12338	9.5535	2.	5.e-002	5.4005
12339	9.5535	1.7273	0.	4.3831e-003
12340	9.4616	1.8182	0.	4.1277e-003
12341	9.5535	1.8182	5.e-002	5.4013
12342	9.5535	1.5455	0.	4.6503e-003
12343	9.4616	1.6364	0.	4.42e-003
12344	9.5535	1.6364	5.e-002	5.4017
12345	9.5535	1.3636	0.	4.8989e-003
12346	9.4616	1.4545	0.	4.7121e-003
12347	9.5535	1.4545	5.e-002	5.4016
12348	9.5535	1.1818	0.	5.1262e-003
12349	9.4616	1.2727	0.	4.9813e-003
12350	9.5535	1.2727	5.e-002	5.4006
12351	9.5535	1.	0.	5.2825e-003
12352	9.4616	1.0909	0.	5.2486e-003
12353	9.5535	1.0909	5.e-002	5.3986
12354	9.5535	0.81818	0.	5.5291e-003
12355	9.4616	0.90909	0.	5.3858e-003
12356	9.5535	0.90909	5.e-002	5.3954
12357	9.5535	0.63636	0.	5.1432e-003
12358	9.4616	0.72727	0.	5.8933e-003
12359	9.5535	0.72727	5.e-002	5.3898
12360	9.5535	0.45455	0.	7.6634e-003
12361	9.4616	0.54545	0.	4.6858e-003
12362	9.5535	0.54545	5.e-002	5.3661
12363	9.5535	0.27273	0.	3.5273
12364	9.4616	0.36364	0.	0.63701
12365	9.5535	0.36364	5.e-002	5.0875
12366	9.4616	0.18182	0.	5.4502
12367	9.5535	0.18182	5.e-002	0.93126
12368	9.5535	9.0909e-002	0.	4.312
12369	9.3698	5.7273	0.	2.4904
12370	9.2779	5.8182	0.	4.6644
12371	9.3698	5.8182	5.e-002	0.99949
12372	9.3698	5.9091	0.	3.8689
12373	9.3698	5.5455	0.	9.5236e-003
12374	9.2779	5.6364	0.	2.0813e-002
12375	9.3698	5.6364	5.e-002	5.1145
12376	9.3698	5.3636	0.	5.4886e-003
12377	9.2779	5.4545	0.	5.2874e-003
12378	9.3698	5.4545	5.e-002	5.3914
12379	9.3698	5.1818	0.	5.7792e-003
12380	9.2779	5.2727	0.	6.3856e-003
12381	9.3698	5.2727	5.e-002	5.4157
12382	9.3698	5.	0.	5.3658e-003
12383	9.2779	5.0909	0.	5.5895e-003
12384	9.3698	5.0909	5.e-002	5.4222
12385	9.3698	4.8182	0.	5.1098e-003
12386	9.2779	4.9091	0.	5.3262e-003
12387	9.3698	4.9091	5.e-002	5.4264
12388	9.3698	4.6364	0.	4.7959e-003
12389	9.2779	4.7273	0.	4.9448e-003
12390	9.3698	4.7273	5.e-002	5.4294
12391	9.3698	4.4545	0.	4.4809e-003
12392	9.2779	4.5455	0.	4.592e-003
12393	9.3698	4.5455	5.e-002	5.4314
12394	9.3698	4.2727	0.	4.1621e-003
12395	9.2779	4.3636	0.	4.2336e-003
12396	9.3698	4.3636	5.e-002	5.4326
12397	9.3698	4.0909	0.	3.855e-003
12398	9.2779	4.1818	0.	3.891e-003
12399	9.3698	4.1818	5.e-002	5.4332
12400	9.3698	3.9091	0.	3.5693e-003
12401	9.2779	4.	0.	3.571e-003
12402	9.3698	4.	5.e-002	5.4332
12403	9.3698	3.7273	0.	3.3167e-003
12404	9.2779	3.8182	0.	3.283e-003
12405	9.3698	3.8182	5.e-002	5.433
12406	9.3698	3.5455	0.	3.109e-003
12407	9.2779	3.6364	0.	3.0389e-003
12408	9.3698	3.6364	5.e-002	5.4326
12409	9.3698	3.3636	0.	2.9539e-003
12410	9.2779	3.4545	0.	2.8485e-003
12411	9.3698	3.4545	5.e-002	5.4322
12412	9.3698	3.1818	0.	2.8576e-003
12413	9.2779	3.2727	0.	2.7164e-003
12414	9.3698	3.2727	5.e-002	5.4318
12415	9.3698	3.	0.	2.8249e-003
12416	9.2779	3.0909	0.	2.6489e-003
12417	9.3698	3.0909	5.e-002	5.4316
12418	9.3698	2.8182	0.	2.8575e-003
12419	9.2779	2.9091	0.	2.6487e-003
12420	9.3698	2.9091	5.e-002	5.4316
12421	9.3698	2.6364	0.	2.9541e-003
12422	9.2779	2.7273	0.	2.7164e-003
12423	9.3698	2.7273	5.e-002	5.4318
12424	9.3698	2.4545	0.	3.1091e-003
12425	9.2779	2.5455	0.	2.8487e-003
12426	9.3698	2.5455	5.e-002	5.4322
12427	9.3698	2.2727	0.	3.317e-003
12428	9.2779	2.3636	0.	3.0392e-003
12429	9.3698	2.3636	5.e-002	5.4326
12430	9.3698	2.0909	0.	3.5698e-003
12431	9.2779	2.1818	0.	3.2834e-003
12432	9.3698	2.1818	5.e-002	5.433
12433	9.3698	1.9091	0.	3.8557e-003
12434	9.2779	2.	0.	3.5714e-003
12435	9.3698	2.	5.e-002	5.4332
12436	9.3698	1.7273	0.	4.1629e-003
12437	9.2779	1.8182	0.	3.8916e-003
12438	9.3698	1.8182	5.e-002	5.4331
12439	9.3698	1.5455	0.	4.4815e-003
12440	9.2779	1.6364	0.	4.2343e-003
12441	9.3698	1.6364	5.e-002	5.4326
12442	9.3698	1.3636	0.	4.7966e-003
12443	9.2779	1.4545	0.	4.5927e-003
12444	9.3698	1.4545	5.e-002	5.4314
12445	9.3698	1.1818	0.	5.1104e-003
12446	9.2779	1.2727	0.	4.9457e-003
12447	9.3698	1.2727	5.e-002	5.4294
12448	9.3698	1.	0.	5.3667e-003
12449	9.2779	1.0909	0.	5.3268e-003
12450	9.3698	1.0909	5.e-002	5.4264
12451	9.3698	0.81818	0.	5.7805e-003
12452	9.2779	0.90909	0.	5.5911e-003
12453	9.3698	0.90909	5.e-002	5.4222
12454	9.3698	0.63636	0.	5.4893e-003
12455	9.2779	0.72727	0.	6.3866e-003
12456	9.3698	0.72727	5.e-002	5.4157
12457	9.3698	0.45455	0.	9.5245e-003
12458	9.2779	0.54545	0.	5.2877e-003
12459	9.3698	0.54545	5.e-002	5.3914
12460	9.3698	0.27273	0.	2.4904
12461	9.2779	0.36364	0.	2.0814e-002
12462	9.3698	0.36364	5.e-002	5.1144
12463	9.2779	0.18182	0.	4.6644
12464	9.3698	0.18182	5.e-002	0.99947
12465	9.3698	9.0909e-002	0.	3.8689
12466	9.186	5.7273	0.	1.418
12467	9.0942	5.8182	0.	3.842
12468	9.186	5.8182	5.e-002	1.0791
12469	9.186	5.9091	0.	3.4041
12470	9.186	5.5455	0.	1.1633e-002
12471	9.0942	5.6364	0.	2.2299e-002
12472	9.186	5.6364	5.e-002	5.1445
12473	9.186	5.3636	0.	6.0915e-003
12474	9.0942	5.4545	0.	6.1015e-003
12475	9.186	5.4545	5.e-002	5.4192
12476	9.186	5.1818	0.	6.1823e-003
12477	9.0942	5.2727	0.	7.0382e-003
12478	9.186	5.2727	5.e-002	5.444
12479	9.186	5.	0.	5.5454e-003
12480	9.0942	5.0909	0.	5.9001e-003
12481	9.186	5.0909	5.e-002	5.4512
12482	9.186	4.8182	0.	5.1577e-003
12483	9.0942	4.9091	0.	5.4781e-003
12484	9.186	4.9091	5.e-002	5.4562
12485	9.186	4.6364	0.	4.737e-003
12486	9.0942	4.7273	0.	4.9615e-003
12487	9.186	4.7273	5.e-002	5.46
12488	9.186	4.4545	0.	4.3405e-003
12489	9.0942	4.5455	0.	4.5091e-003
12490	9.186	4.5455	5.e-002	5.4629
12491	9.186	4.2727	0.	3.958e-003
12492	9.0942	4.3636	0.	4.0723e-003
12493	9.186	4.3636	5.e-002	5.4649
12494	9.186	4.0909	0.	3.6023e-003
12495	9.0942	4.1818	0.	3.6687e-003
12496	9.186	4.1818	5.e-002	5.4662
12497	9.186	3.9091	0.	3.2798e-003
12498	9.0942	4.	0.	3.3019e-003
12499	9.186	4.	5.e-002	5.467
12500	9.186	3.7273	0.	3.0002e-003
12501	9.0942	3.8182	0.	2.9785e-003
12502	9.186	3.8182	5.e-002	5.4675
12503	9.186	3.5455	0.	2.7734e-003
12504	9.0942	3.6364	0.	2.709e-003
12505	9.186	3.6364	5.e-002	5.4676
12506	9.186	3.3636	0.	2.6059e-003
12507	9.0942	3.4545	0.	2.5007e-003
12508	9.186	3.4545	5.e-002	5.4676
12509	9.186	3.1818	0.	2.5027e-003
12510	9.0942	3.2727	0.	2.3575e-003
12511	9.186	3.2727	5.e-002	5.4675
12512	9.186	3.	0.	2.4677e-003
12513	9.0942	3.0909	0.	2.2845e-003
12514	9.186	3.0909	5.e-002	5.4675
12515	9.186	2.8182	0.	2.5025e-003
12516	9.0942	2.9091	0.	2.2846e-003
12517	9.186	2.9091	5.e-002	5.4675
12518	9.186	2.6364	0.	2.606e-003
12519	9.0942	2.7273	0.	2.3574e-003
12520	9.186	2.7273	5.e-002	5.4675
12521	9.186	2.4545	0.	2.7738e-003
12522	9.0942	2.5455	0.	2.5011e-003
12523	9.186	2.5455	5.e-002	5.4676
12524	9.186	2.2727	0.	3.0006e-003
12525	9.0942	2.3636	0.	2.7095e-003
12526	9.186	2.3636	5.e-002	5.4676
12527	9.186	2.0909	0.	3.28e-003
12528	9.0942	2.1818	0.	2.979e-003
12529	9.186	2.1818	5.e-002	5.4674
12530	9.186	1.9091	0.	3.6026e-003
12531	9.0942	2.	0.	3.3023e-003
12532	9.186	2.	5.e-002	5.467
12533	9.186	1.7273	0.	3.9585e-003
12534	9.0942	1.8182	0.	3.6694e-003
12535	9.186	1.8182	5.e-002	5.4662
12536	9.186	1.5455	0.	4.3413e-003
12537	9.0942	1.6364	0.	4.0728e-003
12538	9.186	1.6364	5.e-002	5.4649
12539	9.186	1.3636	0.	4.738e-003
12540	9.0942	1.4545	0.	4.5098e-003
12541	9.186	1.4545	5.e-002	5.4629
12542	9.186	1.1818	0.	5.1587e-003
12543	9.0942	1.2727	0.	4.9624e-003
12544	9.186	1.2727	5.e-002	5.46
12545	9.186	1.	0.	5.5467e-003
12546	9.0942	1.0909	0.	5.4791e-003
12547	9.186	1.0909	5.e-002	5.4562
12548	9.186	0.81818	0.	6.1836e-003
12549	9.0942	0.90909	0.	5.9014e-003
12550	9.186	0.90909	5.e-002	5.4512
12551	9.186	0.63636	0.	6.092e-003
12552	9.0942	0.72727	0.	7.039e-003
12553	9.186	0.72727	5.e-002	5.444
12554	9.186	0.45455	0.	1.1634e-002
12555	9.0942	0.54545	0.	6.1018e-003
12556	9.186	0.54545	5.e-002	5.4192
12557	9.186	0.27273	0.	1.418
12558	9.0942	0.36364	0.	2.23e-002
12559	9.186	0.36364	5.e-002	5.1444
12560	9.0942	0.18182	0.	3.842
12561	9.186	0.18182	5.e-002	1.0791
12562	9.186	9.0909e-002	0.	3.4041
12563	9.0023	5.7273	0.	0.3904
12564	8.9105	5.8182	0.	2.9832
12565	9.0023	5.8182	5.e-002	1.1701
12566	9.0023	5.9091	0.	2.9165
12567	9.0023	5.5455	0.	1.3884e-002
12568	8.9105	5.6364	0.	2.5615e-002
12569	9.0023	5.6364	5.e-002	5.1774
12570	9.0023	5.3636	0.	6.8508e-003
12571	8.9105	5.4545	0.	7.0477e-003
12572	9.0023	5.4545	5.e-002	5.4494
12573	9.0023	5.1818	0.	6.7035e-003
12574	8.9105	5.2727	0.	7.8118e-003
12575	9.0023	5.2727	5.e-002	5.4746
12576	9.0023	5.	0.	5.8096e-003
12577	8.9105	5.0909	0.	6.2975e-003
12578	9.0023	5.0909	5.e-002	5.4825
12579	9.0023	4.8182	0.	5.268e-003
12580	8.9105	4.9091	0.	5.6946e-003
12581	9.0023	4.9091	5.e-002	5.4881
12582	9.0023	4.6364	0.	4.7233e-003
12583	8.9105	4.7273	0.	5.0246e-003
12584	9.0023	4.7273	5.e-002	5.4926
12585	9.0023	4.4545	0.	4.2323e-003
12586	8.9105	4.5455	0.	4.4586e-003
12587	9.0023	4.5455	5.e-002	5.4961
12588	9.0023	4.2727	0.	3.7752e-003
12589	8.9105	4.3636	0.	3.9317e-003
12590	9.0023	4.3636	5.e-002	5.4988
12591	9.0023	4.0909	0.	3.361e-003
12592	8.9105	4.1818	0.	3.4572e-003
12593	9.0023	4.1818	5.e-002	5.5007
12594	9.0023	3.9091	0.	2.9937e-003
12595	8.9105	4.	0.	3.0349e-003
12596	9.0023	4.	5.e-002	5.5021
12597	9.0023	3.7273	0.	2.6806e-003
12598	8.9105	3.8182	0.	2.6693e-003
12599	9.0023	3.8182	5.e-002	5.503
12600	9.0023	3.5455	0.	2.4299e-003
12601	8.9105	3.6364	0.	2.368e-003
12602	9.0023	3.6364	5.e-002	5.5036
12603	9.0023	3.3636	0.	2.246e-003
12604	8.9105	3.4545	0.	2.1372e-003
12605	9.0023	3.4545	5.e-002	5.5039
12606	9.0023	3.1818	0.	2.1331e-003
12607	8.9105	3.2727	0.	1.9796e-003
12608	9.0023	3.2727	5.e-002	5.504
12609	9.0023	3.	0.	2.0951e-003
12610	8.9105	3.0909	0.	1.8995e-003
12611	9.0023	3.0909	5.e-002	5.5041
12612	9.0023	2.8182	0.	2.1331e-003
12613	8.9105	2.9091	0.	1.8995e-003
12614	9.0023	2.9091	5.e-002	5.5041
12615	9.0023	2.6364	0.	2.2461e-003
12616	8.9105	2.7273	0.	1.9795e-003
12617	9.0023	2.7273	5.e-002	5.504
12618	9.0023	2.4545	0.	2.4302e-003
12619	8.9105	2.5455	0.	2.1376e-003
12620	9.0023	2.5455	5.e-002	5.5039
12621	9.0023	2.2727	0.	2.6812e-003
12622	8.9105	2.3636	0.	2.3682e-003
12623	9.0023	2.3636	5.e-002	5.5036
12624	9.0023	2.0909	0.	2.9944e-003
12625	8.9105	2.1818	0.	2.6695e-003
12626	9.0023	2.1818	5.e-002	5.503
12627	9.0023	1.9091	0.	3.3619e-003
12628	8.9105	2.	0.	3.0356e-003
12629	9.0023	2.	5.e-002	5.5021
12630	9.0023	1.7273	0.	3.7759e-003
12631	8.9105	1.8182	0.	3.458e-003
12632	9.0023	1.8182	5.e-002	5.5007
12633	9.0023	1.5455	0.	4.2327e-003
12634	8.9105	1.6364	0.	3.9322e-003
12635	9.0023	1.6364	5.e-002	5.4988
12636	9.0023	1.3636	0.	4.7239e-003
12637	8.9105	1.4545	0.	4.4592e-003
12638	9.0023	1.4545	5.e-002	5.4961
12639	9.0023	1.1818	0.	5.2688e-003
12640	8.9105	1.2727	0.	5.0253e-003
12641	9.0023	1.2727	5.e-002	5.4926
12642	9.0023	1.	0.	5.8106e-003
12643	8.9105	1.0909	0.	5.6952e-003
12644	9.0023	1.0909	5.e-002	5.4881
12645	9.0023	0.81818	0.	6.7044e-003
12646	8.9105	0.90909	0.	6.2988e-003
12647	9.0023	0.90909	5.e-002	5.4824
12648	9.0023	0.63636	0.	6.8515e-003
12649	8.9105	0.72727	0.	7.8127e-003
12650	9.0023	0.72727	5.e-002	5.4746
12651	9.0023	0.45455	0.	1.3885e-002
12652	8.9105	0.54545	0.	7.0483e-003
12653	9.0023	0.54545	5.e-002	5.4494
12654	9.0023	0.27273	0.	0.3904
12655	8.9105	0.36364	0.	2.5616e-002
12656	9.0023	0.36364	5.e-002	5.1774
12657	8.9105	0.18182	0.	2.9832
12658	9.0023	0.18182	5.e-002	1.1701
12659	9.0023	9.0909e-002	0.	2.9165
12660	8.8186	5.7273	0.	8.1058e-002
12661	8.7267	5.8182	0.	2.0949
12662	8.8186	5.8182	5.e-002	1.2726
12663	8.8186	5.9091	0.	2.4059
12664	8.8186	5.5455	0.	1.6275e-002
12665	8.7267	5.6364	0.	2.9395e-002
12666	8.8186	5.6364	5.e-002	5.2133
12667	8.8186	5.3636	0.	7.7247e-003
12668	8.7267	5.4545	0.	8.1018e-003
12669	8.8186	5.4545	5.e-002	5.482
12670	8.8186	5.1818	0.	7.3167e-003
12671	8.7267	5.2727	0.	8.6891e-003
12672	8.8186	5.2727	5.e-002	5.5075
12673	8.8186	5.	0.	6.1405e-003
12674	8.7267	5.0909	0.	6.7694e-003
12675	8.8186	5.0909	5.e-002	5.5159
12676	8.8186	4.8182	0.	5.4263e-003
12677	8.7267	4.9091	0.	5.9665e-003
12678	8.8186	4.9091	5.e-002	5.5221
12679	8.8186	4.6364	0.	4.7425e-003
12680	8.7267	4.7273	0.	5.1267e-003
12681	8.8186	4.7273	5.e-002	5.5271
12682	8.8186	4.4545	0.	4.1444e-003
12683	8.7267	4.5455	0.	4.4341e-003
12684	8.8186	4.5455	5.e-002	5.5312
12685	8.8186	4.2727	0.	3.6023e-003
12686	8.7267	4.3636	0.	3.8053e-003
12687	8.8186	4.3636	5.e-002	5.5344
12688	8.8186	4.0909	0.	3.1211e-003
12689	8.7267	4.1818	0.	3.2504e-003
12690	8.8186	4.1818	5.e-002	5.5368
12691	8.8186	3.9091	0.	2.7015e-003
12692	8.7267	4.	0.	2.7643e-003
12693	8.8186	4.	5.e-002	5.5386
12694	8.8186	3.7273	0.	2.3481e-003
12695	8.7267	3.8182	0.	2.3488e-003
12696	8.8186	3.8182	5.e-002	5.5398
12697	8.8186	3.5455	0.	2.067e-003
12698	8.7267	3.6364	0.	2.0095e-003
12699	8.8186	3.6364	5.e-002	5.5407
12700	8.8186	3.3636	0.	1.8628e-003
12701	8.7267	3.4545	0.	1.7514e-003
12702	8.8186	3.4545	5.e-002	5.5413
12703	8.8186	3.1818	0.	1.7382e-003
12704	8.7267	3.2727	0.	1.5765e-003
12705	8.8186	3.2727	5.e-002	5.5416
12706	8.8186	3.	0.	1.6962e-003
12707	8.7267	3.0909	0.	1.4878e-003
12708	8.8186	3.0909	5.e-002	5.5418
12709	8.8186	2.8182	0.	1.7381e-003
12710	8.7267	2.9091	0.	1.4877e-003
12711	8.8186	2.9091	5.e-002	5.5418
12712	8.8186	2.6364	0.	1.863e-003
12713	8.7267	2.7273	0.	1.5765e-003
12714	8.8186	2.7273	5.e-002	5.5416
12715	8.8186	2.4545	0.	2.0674e-003
12716	8.7267	2.5455	0.	1.7519e-003
12717	8.8186	2.5455	5.e-002	5.5413
12718	8.8186	2.2727	0.	2.348e-003
12719	8.7267	2.3636	0.	2.0097e-003
12720	8.8186	2.3636	5.e-002	5.5407
12721	8.8186	2.0909	0.	2.7016e-003
12722	8.7267	2.1818	0.	2.349e-003
12723	8.8186	2.1818	5.e-002	5.5398
12724	8.8186	1.9091	0.	3.1217e-003
12725	8.7267	2.	0.	2.7647e-003
12726	8.8186	2.	5.e-002	5.5386
12727	8.8186	1.7273	0.	3.6029e-003
12728	8.7267	1.8182	0.	3.251e-003
12729	8.8186	1.8182	5.e-002	5.5368
12730	8.8186	1.5455	0.	4.1452e-003
12731	8.7267	1.6364	0.	3.8058e-003
12732	8.8186	1.6364	5.e-002	5.5343
12733	8.8186	1.3636	0.	4.7433e-003
12734	8.7267	1.4545	0.	4.435e-003
12735	8.8186	1.4545	5.e-002	5.5312
12736	8.8186	1.1818	0.	5.4269e-003
12737	8.7267	1.2727	0.	5.1275e-003
12738	8.8186	1.2727	5.e-002	5.5271
12739	8.8186	1.	0.	6.1415e-003
12740	8.7267	1.0909	0.	5.9671e-003
12741	8.8186	1.0909	5.e-002	5.5221
12742	8.8186	0.81818	0.	7.318e-003
12743	8.7267	0.90909	0.	6.7711e-003
12744	8.8186	0.90909	5.e-002	5.5159
12745	8.8186	0.63636	0.	7.7255e-003
12746	8.7267	0.72727	0.	8.69e-003
12747	8.8186	0.72727	5.e-002	5.5074
12748	8.8186	0.45455	0.	1.6276e-002
12749	8.7267	0.54545	0.	8.1024e-003
12750	8.8186	0.54545	5.e-002	5.482
12751	8.8186	0.27273	0.	8.1059e-002
12752	8.7267	0.36364	0.	2.9396e-002
12753	8.8186	0.36364	5.e-002	5.2133
12754	8.7267	0.18182	0.	2.0949
12755	8.8186	0.18182	5.e-002	1.2725
12756	8.8186	9.0909e-002	0.	2.4059
12757	8.6349	5.7273	0.	5.4249e-002
12758	8.543	5.8182	0.	1.2135
12759	8.6349	5.8182	5.e-002	1.3868
12760	8.6349	5.9091	0.	1.8742
12761	8.6349	5.5455	0.	1.8823e-002
12762	8.543	5.6364	0.	3.351e-002
12763	8.6349	5.6364	5.e-002	5.2522
12764	8.6349	5.3636	0.	8.7033e-003
12765	8.543	5.4545	0.	9.2632e-003
12766	8.6349	5.4545	5.e-002	5.5169
12767	8.6349	5.1818	0.	8.0168e-003
12768	8.543	5.2727	0.	9.669e-003
12769	8.6349	5.2727	5.e-002	5.5427
12770	8.6349	5.	0.	6.5344e-003
12771	8.543	5.0909	0.	7.3162e-003
12772	8.6349	5.0909	5.e-002	5.5516
12773	8.6349	4.8182	0.	5.6305e-003
12774	8.543	4.9091	0.	6.2948e-003
12775	8.6349	4.9091	5.e-002	5.5583
12776	8.6349	4.6364	0.	4.7934e-003
12777	8.543	4.7273	0.	5.2691e-003
12778	8.6349	4.7273	5.e-002	5.5638
12779	8.6349	4.4545	0.	4.0761e-003
12780	8.543	4.5455	0.	4.4365e-003
12781	8.6349	4.5455	5.e-002	5.5682
12782	8.6349	4.2727	0.	3.4381e-003
12783	8.543	4.3636	0.	3.6946e-003
12784	8.6349	4.3636	5.e-002	5.5718
12785	8.6349	4.0909	0.	2.8805e-003
12786	8.543	4.1818	0.	3.0493e-003
12787	8.6349	4.1818	5.e-002	5.5746
12788	8.6349	3.9091	0.	2.3999e-003
12789	8.543	4.	0.	2.4905e-003
12790	8.6349	4.	5.e-002	5.5767
12791	8.6349	3.7273	0.	1.9995e-003
12792	8.543	3.8182	0.	2.0177e-003
12793	8.6349	3.8182	5.e-002	5.5782
12794	8.6349	3.5455	0.	1.6838e-003
12795	8.543	3.6364	0.	1.6348e-003
12796	8.6349	3.6364	5.e-002	5.5793
12797	8.6349	3.3636	0.	1.4554e-003
12798	8.543	3.4545	0.	1.3453e-003
12799	8.6349	3.4545	5.e-002	5.58
12800	8.6349	3.1818	0.	1.3166e-003
12801	8.543	3.2727	0.	1.1496e-003
12802	8.6349	3.2727	5.e-002	5.5805
12803	8.6349	3.	0.	1.2699e-003
12804	8.543	3.0909	0.	1.0508e-003
12805	8.6349	3.0909	5.e-002	5.5807
12806	8.6349	2.8182	0.	1.3166e-003
12807	8.543	2.9091	0.	1.0507e-003
12808	8.6349	2.9091	5.e-002	5.5807
12809	8.6349	2.6364	0.	1.4556e-003
12810	8.543	2.7273	0.	1.1496e-003
12811	8.6349	2.7273	5.e-002	5.5805
12812	8.6349	2.4545	0.	1.684e-003
12813	8.543	2.5455	0.	1.3454e-003
12814	8.6349	2.5455	5.e-002	5.58
12815	8.6349	2.2727	0.	1.9999e-003
12816	8.543	2.3636	0.	1.635e-003
12817	8.6349	2.3636	5.e-002	5.5793
12818	8.6349	2.0909	0.	2.4003e-003
12819	8.543	2.1818	0.	2.0181e-003
12820	8.6349	2.1818	5.e-002	5.5782
12821	8.6349	1.9091	0.	2.8809e-003
12822	8.543	2.	0.	2.4908e-003
12823	8.6349	2.	5.e-002	5.5767
12824	8.6349	1.7273	0.	3.4386e-003
12825	8.543	1.8182	0.	3.0497e-003
12826	8.6349	1.8182	5.e-002	5.5746
12827	8.6349	1.5455	0.	4.0767e-003
12828	8.543	1.6364	0.	3.6952e-003
12829	8.6349	1.6364	5.e-002	5.5718
12830	8.6349	1.3636	0.	4.7942e-003
12831	8.543	1.4545	0.	4.4373e-003
12832	8.6349	1.4545	5.e-002	5.5682
12833	8.6349	1.1818	0.	5.6313e-003
12834	8.543	1.2727	0.	5.2701e-003
12835	8.6349	1.2727	5.e-002	5.5638
12836	8.6349	1.	0.	6.5356e-003
12837	8.543	1.0909	0.	6.2955e-003
12838	8.6349	1.0909	5.e-002	5.5582
12839	8.6349	0.81818	0.	8.018e-003
12840	8.543	0.90909	0.	7.3176e-003
12841	8.6349	0.90909	5.e-002	5.5516
12842	8.6349	0.63636	0.	8.704e-003
12843	8.543	0.72727	0.	9.6701e-003
12844	8.6349	0.72727	5.e-002	5.5426
12845	8.6349	0.45455	0.	1.8824e-002
12846	8.543	0.54545	0.	9.2636e-003
12847	8.6349	0.54545	5.e-002	5.5169
12848	8.6349	0.27273	0.	5.425e-002
12849	8.543	0.36364	0.	3.3511e-002
12850	8.6349	0.36364	5.e-002	5.2521
12851	8.543	0.18182	0.	1.2135
12852	8.6349	0.18182	5.e-002	1.3868
12853	8.6349	9.0909e-002	0.	1.8742
12854	8.4512	5.7273	0.	4.8211e-002
12855	8.3593	5.8182	0.	0.51793
12856	8.4512	5.8182	5.e-002	1.5133
12857	8.4512	5.9091	0.	1.3302
12858	8.4512	5.5455	0.	2.1552e-002
12859	8.3593	5.6364	0.	3.795e-002
12860	8.4512	5.6364	5.e-002	5.2941
12861	8.4512	5.3636	0.	9.79e-003
12862	8.3593	5.4545	0.	1.0538e-002
12863	8.4512	5.4545	5.e-002	5.5544
12864	8.4512	5.1818	0.	8.8072e-003
12865	8.3593	5.2727	0.	1.0756e-002
12866	8.4512	5.2727	5.e-002	5.5803
12867	8.4512	5.	0.	6.9957e-003
12868	8.3593	5.0909	0.	7.9401e-003
12869	8.4512	5.0909	5.e-002	5.5896
12870	8.4512	4.8182	0.	5.8848e-003
12871	8.3593	4.9091	0.	6.6818e-003
12872	8.4512	4.9091	5.e-002	5.5967
12873	8.4512	4.6364	0.	4.8792e-003
12874	8.3593	4.7273	0.	5.4538e-003
12875	8.4512	4.7273	5.e-002	5.6026
12876	8.4512	4.4545	0.	4.0303e-003
12877	8.3593	4.5455	0.	4.4677e-003
12878	8.4512	4.5455	5.e-002	5.6074
12879	8.4512	4.2727	0.	3.286e-003
12880	8.3593	4.3636	0.	3.601e-003
12881	8.4512	4.3636	5.e-002	5.6112
12882	8.4512	4.0909	0.	2.6426e-003
12883	8.3593	4.1818	0.	2.8548e-003
12884	8.4512	4.1818	5.e-002	5.6142
12885	8.4512	3.9091	0.	2.0936e-003
12886	8.3593	4.	0.	2.2149e-003
12887	8.4512	4.	5.e-002	5.6166
12888	8.4512	3.7273	0.	1.6397e-003
12889	8.3593	3.8182	0.	1.6779e-003
12890	8.4512	3.8182	5.e-002	5.6183
12891	8.4512	3.5455	0.	1.284e-003
12892	8.3593	3.6364	0.	1.245e-003
12893	8.4512	3.6364	5.e-002	5.6195
12894	8.4512	3.3636	0.	1.0277e-003
12895	8.3593	3.4545	0.	9.1968e-004
12896	8.4512	3.4545	5.e-002	5.6203
12897	8.4512	3.1818	0.	8.7226e-004
12898	8.3593	3.2727	0.	7.0022e-004
12899	8.4512	3.2727	5.e-002	5.6208
12900	8.4512	3.	0.	8.202e-004
12901	8.3593	3.0909	0.	5.8963e-004
12902	8.4512	3.0909	5.e-002	5.6211
12903	8.4512	2.8182	0.	8.7226e-004
12904	8.3593	2.9091	0.	5.8975e-004
12905	8.4512	2.9091	5.e-002	5.6211
12906	8.4512	2.6364	0.	1.0277e-003
12907	8.3593	2.7273	0.	7.0016e-004
12908	8.4512	2.7273	5.e-002	5.6208
12909	8.4512	2.4545	0.	1.2841e-003
12910	8.3593	2.5455	0.	9.1962e-004
12911	8.4512	2.5455	5.e-002	5.6203
12912	8.4512	2.2727	0.	1.64e-003
12913	8.3593	2.3636	0.	1.2456e-003
12914	8.4512	2.3636	5.e-002	5.6195
12915	8.4512	2.0909	0.	2.094e-003
12916	8.3593	2.1818	0.	1.6781e-003
12917	8.4512	2.1818	5.e-002	5.6183
12918	8.4512	1.9091	0.	2.643e-003
12919	8.3593	2.	0.	2.2153e-003
12920	8.4512	2.	5.e-002	5.6165
12921	8.4512	1.7273	0.	3.2865e-003
12922	8.3593	1.8182	0.	2.8553e-003
12923	8.4512	1.8182	5.e-002	5.6142
12924	8.4512	1.5455	0.	4.031e-003
12925	8.3593	1.6364	0.	3.6016e-003
12926	8.4512	1.6364	5.e-002	5.6112
12927	8.4512	1.3636	0.	4.8801e-003
12928	8.3593	1.4545	0.	4.4681e-003
12929	8.4512	1.4545	5.e-002	5.6074
12930	8.4512	1.1818	0.	5.8857e-003
12931	8.3593	1.2727	0.	5.4547e-003
12932	8.4512	1.2727	5.e-002	5.6026
12933	8.4512	1.	0.	6.9967e-003
12934	8.3593	1.0909	0.	6.6827e-003
12935	8.4512	1.0909	5.e-002	5.5967
12936	8.4512	0.81818	0.	8.8086e-003
12937	8.3593	0.90909	0.	7.9413e-003
12938	8.4512	0.90909	5.e-002	5.5896
12939	8.4512	0.63636	0.	9.7909e-003
12940	8.3593	0.72727	0.	1.0757e-002
12941	8.4512	0.72727	5.e-002	5.5802
12942	8.4512	0.45455	0.	2.1553e-002
12943	8.3593	0.54545	0.	1.0538e-002
12944	8.4512	0.54545	5.e-002	5.5543
12945	8.4512	0.27273	0.	4.8212e-002
12946	8.3593	0.36364	0.	3.7952e-002
12947	8.4512	0.36364	5.e-002	5.2941
12948	8.3593	0.18182	0.	0.51793
12949	8.4512	0.18182	5.e-002	1.5132
12950	8.4512	9.0909e-002	0.	1.3302
12951	8.2674	5.7273	0.	4.7238e-002
12952	8.1756	5.8182	0.	0.24318
12953	8.2674	5.8182	5.e-002	1.6525
12954	8.2674	5.9091	0.	0.8066
12955	8.2674	5.5455	0.	2.4483e-002
12956	8.1756	5.6364	0.	4.273e-002
12957	8.2674	5.6364	5.e-002	5.3394
12958	8.2674	5.3636	0.	1.0989e-002
12959	8.1756	5.4545	0.	1.1928e-002
12960	8.2674	5.4545	5.e-002	5.5944
12961	8.2674	5.1818	0.	9.6905e-003
12962	8.1756	5.2727	0.	1.195e-002
12963	8.2674	5.2727	5.e-002	5.6204
12964	8.2674	5.	0.	7.5247e-003
12965	8.1756	5.0909	0.	8.6387e-003
12966	8.2674	5.0909	5.e-002	5.6301
12967	8.2674	4.8182	0.	6.1894e-003
12968	8.1756	4.9091	0.	7.1247e-003
12969	8.2674	4.9091	5.e-002	5.6376
12970	8.2674	4.6364	0.	5.0006e-003
12971	8.1756	4.7273	0.	5.6771e-003
12972	8.2674	4.7273	5.e-002	5.6437
12973	8.2674	4.4545	0.	4.0073e-003
12974	8.1756	4.5455	0.	4.5234e-003
12975	8.2674	4.5455	5.e-002	5.6488
12976	8.2674	4.2727	0.	3.1452e-003
12977	8.1756	4.3636	0.	3.5196e-003
12978	8.2674	4.3636	5.e-002	5.6528
12979	8.2674	4.0909	0.	2.4066e-003
12980	8.1756	4.1818	0.	2.6622e-003
12981	8.2674	4.1818	5.e-002	5.656
12982	8.2674	3.9091	0.	1.7813e-003
12983	8.1756	4.	0.	1.9322e-003
12984	8.2674	4.	5.e-002	5.6584
12985	8.2674	3.7273	0.	1.2671e-003
12986	8.1756	3.8182	0.	1.3233e-003
12987	8.2674	3.8182	5.e-002	5.6602
12988	8.2674	3.5455	0.	8.6591e-004
12989	8.1756	3.6364	0.	8.349e-004
12990	8.2674	3.6364	5.e-002	5.6615
12991	8.2674	3.3636	0.	5.7814e-004
12992	8.1756	3.4545	0.	4.6843e-004
12993	8.2674	3.4545	5.e-002	5.6624
12994	8.2674	3.1818	0.	4.0391e-004
12995	8.1756	3.2727	0.	2.2247e-004
12996	8.2674	3.2727	5.e-002	5.6629
12997	8.2674	3.	0.	3.4565e-004
12998	8.1756	3.0909	0.	9.874e-005
12999	8.2674	3.0909	5.e-002	5.6632
13000	8.2674	2.8182	0.	4.0397e-004
13001	8.1756	2.9091	0.	9.9008e-005
13002	8.2674	2.9091	5.e-002	5.6632
13003	8.2674	2.6364	0.	5.7802e-004
13004	8.1756	2.7273	0.	2.2241e-004
13005	8.2674	2.7273	5.e-002	5.6629
13006	8.2674	2.4545	0.	8.6627e-004
13007	8.1756	2.5455	0.	4.6879e-004
13008	8.2674	2.5455	5.e-002	5.6624
13009	8.2674	2.2727	0.	1.2677e-003
13010	8.1756	2.3636	0.	8.3535e-004
13011	8.2674	2.3636	5.e-002	5.6615
13012	8.2674	2.0909	0.	1.7816e-003
13013	8.1756	2.1818	0.	1.3234e-003
13014	8.2674	2.1818	5.e-002	5.6602
13015	8.2674	1.9091	0.	2.4071e-003
13016	8.1756	2.	0.	1.9325e-003
13017	8.2674	2.	5.e-002	5.6584
13018	8.2674	1.7273	0.	3.1458e-003
13019	8.1756	1.8182	0.	2.6629e-003
13020	8.2674	1.8182	5.e-002	5.656
13021	8.2674	1.5455	0.	4.0078e-003
13022	8.1756	1.6364	0.	3.5202e-003
13023	8.2674	1.6364	5.e-002	5.6528
13024	8.2674	1.3636	0.	5.001e-003
13025	8.1756	1.4545	0.	4.5238e-003
13026	8.2674	1.4545	5.e-002	5.6487
13027	8.2674	1.1818	0.	6.1903e-003
13028	8.1756	1.2727	0.	5.6777e-003
13029	8.2674	1.2727	5.e-002	5.6437
13030	8.2674	1.	0.	7.5259e-003
13031	8.1756	1.0909	0.	7.1257e-003
13032	8.2674	1.0909	5.e-002	5.6376
13033	8.2674	0.81818	0.	9.6916e-003
13034	8.1756	0.90909	0.	8.6402e-003
13035	8.2674	0.90909	5.e-002	5.6301
13036	8.2674	0.63636	0.	1.099e-002
13037	8.1756	0.72727	0.	1.1951e-002
13038	8.2674	0.72727	5.e-002	5.6204
13039	8.2674	0.45455	0.	2.4484e-002
13040	8.1756	0.54545	0.	1.1929e-002
13041	8.2674	0.54545	5.e-002	5.5943
13042	8.2674	0.27273	0.	4.7239e-002
13043	8.1756	0.36364	0.	4.2731e-002
13044	8.2674	0.36364	5.e-002	5.3393
13045	8.1756	0.18182	0.	0.24318
13046	8.2674	0.18182	5.e-002	1.6525
13047	8.2674	9.0909e-002	0.	0.8066
13048	8.0837	5.7273	0.	4.8401e-002
13049	7.9919	5.8182	0.	0.16224
13050	8.0837	5.8182	5.e-002	1.8053
13051	8.0837	5.9091	0.	0.41148
13052	8.0837	5.5455	0.	2.763e-002
13053	7.9919	5.6364	0.	4.7874e-002
13054	8.0837	5.6364	5.e-002	5.388
13055	8.0837	5.3636	0.	1.2297e-002
13056	7.9919	5.4545	0.	1.3441e-002
13057	8.0837	5.4545	5.e-002	5.6371
13058	8.0837	5.1818	0.	1.0662e-002
13059	7.9919	5.2727	0.	1.3255e-002
13060	8.0837	5.2727	5.e-002	5.6632
13061	8.0837	5.	0.	8.1155e-003
13062	7.9919	5.0909	0.	9.4128e-003
13063	8.0837	5.0909	5.e-002	5.6733
13064	8.0837	4.8182	0.	6.5373e-003
13065	7.9919	4.9091	0.	7.6224e-003
13066	8.0837	4.9091	5.e-002	5.681
13067	8.0837	4.6364	0.	5.1488e-003
13068	7.9919	4.7273	0.	5.9366e-003
13069	8.0837	4.7273	5.e-002	5.6874
13070	8.0837	4.4545	0.	3.9979e-003
13071	7.9919	4.5455	0.	4.6006e-003
13072	8.0837	4.5455	5.e-002	5.6926
13073	8.0837	4.2727	0.	3.0068e-003
13074	7.9919	4.3636	0.	3.4467e-003
13075	8.0837	4.3636	5.e-002	5.6967
13076	8.0837	4.0909	0.	2.1631e-003
13077	7.9919	4.1818	0.	2.4674e-003
13078	8.0837	4.1818	5.e-002	5.7
13079	8.0837	3.9091	0.	1.4529e-003
13080	7.9919	4.	0.	1.6379e-003
13081	8.0837	4.	5.e-002	5.7024
13082	8.0837	3.7273	0.	8.72e-004
13083	7.9919	3.8182	0.	9.4918e-004
13084	8.0837	3.8182	5.e-002	5.7042
13085	8.0837	3.5455	0.	4.1983e-004
13086	7.9919	3.6364	0.	3.9907e-004
13087	8.0837	3.6364	5.e-002	5.7055
13088	8.0837	3.3636	0.	9.6134e-005
13089	7.9919	3.4545	0.	-1.2997e-005
13090	8.0837	3.4545	5.e-002	5.7064
13091	8.0837	3.1818	0.	-9.8798e-005
13092	7.9919	3.2727	0.	-2.8881e-004
13093	8.0837	3.2727	5.e-002	5.707
13094	8.0837	3.	0.	-1.6382e-004
13095	7.9919	3.0909	0.	-4.2721e-004
13096	8.0837	3.0909	5.e-002	5.7072
13097	8.0837	2.8182	0.	-9.8649e-005
13098	7.9919	2.9091	0.	-4.2706e-004
13099	8.0837	2.9091	5.e-002	5.7072
13100	8.0837	2.6364	0.	9.6551e-005
13101	7.9919	2.7273	0.	-2.8866e-004
13102	8.0837	2.7273	5.e-002	5.707
13103	8.0837	2.4545	0.	4.2028e-004
13104	7.9919	2.5455	0.	-1.249e-005
13105	8.0837	2.5455	5.e-002	5.7064
13106	8.0837	2.2727	0.	8.72e-004
13107	7.9919	2.3636	0.	3.9931e-004
13108	8.0837	2.3636	5.e-002	5.7055
13109	8.0837	2.0909	0.	1.453e-003
13110	7.9919	2.1818	0.	9.4945e-004
13111	8.0837	2.1818	5.e-002	5.7042
13112	8.0837	1.9091	0.	2.1637e-003
13113	7.9919	2.	0.	1.6382e-003
13114	8.0837	2.	5.e-002	5.7024
13115	8.0837	1.7273	0.	3.0075e-003
13116	7.9919	1.8182	0.	2.4682e-003
13117	8.0837	1.8182	5.e-002	5.7
13118	8.0837	1.5455	0.	3.9985e-003
13119	7.9919	1.6364	0.	3.4473e-003
13120	8.0837	1.6364	5.e-002	5.6967
13121	8.0837	1.3636	0.	5.1494e-003
13122	7.9919	1.4545	0.	4.6011e-003
13123	8.0837	1.4545	5.e-002	5.6926
13124	8.0837	1.1818	0.	6.5381e-003
13125	7.9919	1.2727	0.	5.9373e-003
13126	8.0837	1.2727	5.e-002	5.6874
13127	8.0837	1.	0.	8.1167e-003
13128	7.9919	1.0909	0.	7.6232e-003
13129	8.0837	1.0909	5.e-002	5.681
13130	8.0837	0.81818	0.	1.0663e-002
13131	7.9919	0.90909	0.	9.4142e-003
13132	8.0837	0.90909	5.e-002	5.6733
13133	8.0837	0.63636	0.	1.2298e-002
13134	7.9919	0.72727	0.	1.3256e-002
13135	8.0837	0.72727	5.e-002	5.6631
13136	8.0837	0.45455	0.	2.763e-002
13137	7.9919	0.54545	0.	1.3441e-002
13138	8.0837	0.54545	5.e-002	5.6371
13139	8.0837	0.27273	0.	4.8403e-002
13140	7.9919	0.36364	0.	4.7875e-002
13141	8.0837	0.36364	5.e-002	5.388
13142	7.9919	0.18182	0.	0.16224
13143	8.0837	0.18182	5.e-002	1.8053
13144	8.0837	9.0909e-002	0.	0.41148
13145	7.9	5.7273	0.	5.0795e-002
13146	7.8081	5.8182	0.	0.13045
13147	7.9	5.8182	5.e-002	1.9726
13148	7.9	5.9091	0.	0.23426
13149	7.9	5.5455	0.	3.1017e-002
13150	7.8081	5.6364	0.	5.3423e-002
13151	7.9	5.6364	5.e-002	5.4403
13152	7.9	5.3636	0.	1.3725e-002
13153	7.8081	5.4545	0.	1.509e-002
13154	7.9	5.4545	5.e-002	5.6828
13155	7.9	5.1818	0.	1.1729e-002
13156	7.8081	5.2727	0.	1.4682e-002
13157	7.9	5.2727	5.e-002	5.7089
13158	7.9	5.	0.	8.7733e-003
13159	7.8081	5.0909	0.	1.027e-002
13160	7.9	5.0909	5.e-002	5.7193
13161	7.9	4.8182	0.	6.932e-003
13162	7.8081	4.9091	0.	8.1812e-003
13163	7.9	4.9091	5.e-002	5.7273
13164	7.9	4.6364	0.	5.3273e-003
13165	7.8081	4.7273	0.	6.2375e-003
13166	7.9	4.7273	5.e-002	5.7338
13167	7.9	4.4545	0.	4.0044e-003
13168	7.8081	4.5455	0.	4.7031e-003
13169	7.9	4.5455	5.e-002	5.7391
13170	7.9	4.2727	0.	2.872e-003
13171	7.8081	4.3636	0.	3.3859e-003
13172	7.9	4.3636	5.e-002	5.7432
13173	7.9	4.0909	0.	1.913e-003
13174	7.8081	4.1818	0.	2.273e-003
13175	7.9	4.1818	5.e-002	5.7465
13176	7.9	3.9091	0.	1.1091e-003
13177	7.8081	4.	0.	1.3342e-003
13178	7.9	4.	5.e-002	5.7489
13179	7.9	3.7273	0.	4.5382e-004
13180	7.8081	3.8182	0.	5.5764e-004
13181	7.9	3.8182	5.e-002	5.7506
13182	7.9	3.5455	0.	-5.4361e-005
13183	7.8081	3.6364	0.	-6.1e-005
13184	7.9	3.6364	5.e-002	5.7518
13185	7.9	3.3636	0.	-4.1736e-004
13186	7.8081	3.4545	0.	-5.2295e-004
13187	7.9	3.4545	5.e-002	5.7527
13188	7.9	3.1818	0.	-6.3599e-004
13189	7.8081	3.2727	0.	-8.3209e-004
13190	7.9	3.2727	5.e-002	5.7531
13191	7.9	3.	0.	-7.0902e-004
13192	7.8081	3.0909	0.	-9.8696e-004
13193	7.9	3.0909	5.e-002	5.7534
13194	7.9	2.8182	0.	-6.3584e-004
13195	7.8081	2.9091	0.	-9.8699e-004
13196	7.9	2.9091	5.e-002	5.7534
13197	7.9	2.6364	0.	-4.1712e-004
13198	7.8081	2.7273	0.	-8.3185e-004
13199	7.9	2.7273	5.e-002	5.7531
13200	7.9	2.4545	0.	-5.4062e-005
13201	7.8081	2.5455	0.	-5.2286e-004
13202	7.9	2.5455	5.e-002	5.7526
13203	7.9	2.2727	0.	4.5433e-004
13204	7.8081	2.3636	0.	-6.0642e-005
13205	7.9	2.3636	5.e-002	5.7518
13206	7.9	2.0909	0.	1.1095e-003
13207	7.8081	2.1818	0.	5.5818e-004
13208	7.9	2.1818	5.e-002	5.7506
13209	7.9	1.9091	0.	1.9135e-003
13210	7.8081	2.	0.	1.3346e-003
13211	7.9	2.	5.e-002	5.7488
13212	7.9	1.7273	0.	2.8726e-003
13213	7.8081	1.8182	0.	2.2738e-003
13214	7.9	1.8182	5.e-002	5.7464
13215	7.9	1.5455	0.	4.0048e-003
13216	7.8081	1.6364	0.	3.3864e-003
13217	7.9	1.6364	5.e-002	5.7432
13218	7.9	1.3636	0.	5.3279e-003
13219	7.8081	1.4545	0.	4.7036e-003
13220	7.9	1.4545	5.e-002	5.7391
13221	7.9	1.1818	0.	6.9328e-003
13222	7.8081	1.2727	0.	6.2384e-003
13223	7.9	1.2727	5.e-002	5.7338
13224	7.9	1.	0.	8.7743e-003
13225	7.8081	1.0909	0.	8.1819e-003
13226	7.9	1.0909	5.e-002	5.7272
13227	7.9	0.81818	0.	1.173e-002
13228	7.8081	0.90909	0.	1.0272e-002
13229	7.9	0.90909	5.e-002	5.7192
13230	7.9	0.63636	0.	1.3726e-002
13231	7.8081	0.72727	0.	1.4683e-002
13232	7.9	0.72727	5.e-002	5.7088
13233	7.9	0.45455	0.	3.1018e-002
13234	7.8081	0.54545	0.	1.509e-002
13235	7.9	0.54545	5.e-002	5.6828
13236	7.9	0.27273	0.	5.0796e-002
13237	7.8081	0.36364	0.	5.3424e-002
13238	7.9	0.36364	5.e-002	5.4403
13239	7.8081	0.18182	0.	0.13045
13240	7.9	0.18182	5.e-002	1.9725
13241	7.9	9.0909e-002	0.	0.23426
13242	7.7163	5.7273	0.	5.4071e-002
13243	7.6244	5.8182	0.	0.11554
13244	7.7163	5.8182	5.e-002	2.1551
13245	7.7163	5.9091	0.	0.16995
13246	7.7163	5.5455	0.	3.4677e-002
13247	7.6244	5.6364	0.	5.9415e-002
13248	7.7163	5.6364	5.e-002	5.4967
13249	7.7163	5.3636	0.	1.5288e-002
13250	7.6244	5.4545	0.	1.6887e-002
13251	7.7163	5.4545	5.e-002	5.7317
13252	7.7163	5.1818	0.	1.2904e-002
13253	7.6244	5.2727	0.	1.6241e-002
13254	7.7163	5.2727	5.e-002	5.7577
13255	7.7163	5.	0.	9.5073e-003
13256	7.6244	5.0909	0.	1.1217e-002
13257	7.7163	5.0909	5.e-002	5.7684
13258	7.7163	4.8182	0.	7.3814e-003
13259	7.6244	4.9091	0.	8.8047e-003
13260	7.7163	4.9091	5.e-002	5.7766
13261	7.7163	4.6364	0.	5.5414e-003
13262	7.6244	4.7273	0.	6.5818e-003
13263	7.7163	4.7273	5.e-002	5.7832
13264	7.7163	4.4545	0.	4.0316e-003
13265	7.6244	4.5455	0.	4.8317e-003
13266	7.7163	4.5455	5.e-002	5.7885
13267	7.7163	4.2727	0.	2.7454e-003
13268	7.6244	4.3636	0.	3.3367e-003
13269	7.7163	4.3636	5.e-002	5.7926
13270	7.7163	4.0909	0.	1.66e-003
13271	7.6244	4.1818	0.	2.0782e-003
13272	7.7163	4.1818	5.e-002	5.7957
13273	7.7163	3.9091	0.	7.5345e-004
13274	7.6244	4.	0.	1.0196e-003
13275	7.7163	4.	5.e-002	5.7979
13276	7.7163	3.7273	0.	1.673e-005
13277	7.6244	3.8182	0.	1.4685e-004
13278	7.7163	3.8182	5.e-002	5.7995
13279	7.7163	3.5455	0.	-5.5349e-004
13280	7.6244	3.6364	0.	-5.47e-004
13281	7.7163	3.6364	5.e-002	5.8006
13282	7.7163	3.3636	0.	-9.6018e-004
13283	7.6244	3.4545	0.	-1.0646e-003
13284	7.7163	3.4545	5.e-002	5.8013
13285	7.7163	3.1818	0.	-1.2048e-003
13286	7.6244	3.2727	0.	-1.4102e-003
13287	7.7163	3.2727	5.e-002	5.8017
13288	7.7163	3.	0.	-1.2864e-003
13289	7.6244	3.0909	0.	-1.5833e-003
13290	7.7163	3.0909	5.e-002	5.8019
13291	7.7163	2.8182	0.	-1.2047e-003
13292	7.6244	2.9091	0.	-1.5833e-003
13293	7.7163	2.9091	5.e-002	5.8019
13294	7.7163	2.6364	0.	-9.6009e-004
13295	7.6244	2.7273	0.	-1.4102e-003
13296	7.7163	2.7273	5.e-002	5.8017
13297	7.7163	2.4545	0.	-5.5334e-004
13298	7.6244	2.5455	0.	-1.0643e-003
13299	7.7163	2.5455	5.e-002	5.8013
13300	7.7163	2.2727	0.	1.7118e-005
13301	7.6244	2.3636	0.	-5.4676e-004
13302	7.7163	2.3636	5.e-002	5.8006
13303	7.7163	2.0909	0.	7.5393e-004
13304	7.6244	2.1818	0.	1.4709e-004
13305	7.7163	2.1818	5.e-002	5.7995
13306	7.7163	1.9091	0.	1.6606e-003
13307	7.6244	2.	0.	1.02e-003
13308	7.7163	2.	5.e-002	5.7979
13309	7.7163	1.7273	0.	2.746e-003
13310	7.6244	1.8182	0.	2.0786e-003
13311	7.7163	1.8182	5.e-002	5.7956
13312	7.7163	1.5455	0.	4.0322e-003
13313	7.6244	1.6364	0.	3.3375e-003
13314	7.7163	1.6364	5.e-002	5.7925
13315	7.7163	1.3636	0.	5.5422e-003
13316	7.6244	1.4545	0.	4.8323e-003
13317	7.7163	1.4545	5.e-002	5.7884
13318	7.7163	1.1818	0.	7.3822e-003
13319	7.6244	1.2727	0.	6.5827e-003
13320	7.7163	1.2727	5.e-002	5.7832
13321	7.7163	1.	0.	9.5084e-003
13322	7.6244	1.0909	0.	8.8052e-003
13323	7.7163	1.0909	5.e-002	5.7766
13324	7.7163	0.81818	0.	1.2905e-002
13325	7.6244	0.90909	0.	1.1218e-002
13326	7.7163	0.90909	5.e-002	5.7684
13327	7.7163	0.63636	0.	1.5288e-002
13328	7.6244	0.72727	0.	1.6242e-002
13329	7.7163	0.72727	5.e-002	5.7577
13330	7.7163	0.45455	0.	3.4678e-002
13331	7.6244	0.54545	0.	1.6887e-002
13332	7.7163	0.54545	5.e-002	5.7316
13333	7.7163	0.27273	0.	5.4073e-002
13334	7.6244	0.36364	0.	5.9417e-002
13335	7.7163	0.36364	5.e-002	5.4966
13336	7.6244	0.18182	0.	0.11555
13337	7.7163	0.18182	5.e-002	2.1551
13338	7.7163	9.0909e-002	0.	0.16995
13339	7.5326	5.7273	0.	5.8076e-002
13340	7.4407	5.8182	0.	0.1084
13341	7.5326	5.8182	5.e-002	2.354
13342	7.5326	5.9091	0.	0.14273
13343	7.5326	5.5455	0.	3.8632e-002
13344	7.4407	5.6364	0.	6.5892e-002
13345	7.5326	5.6364	5.e-002	5.5573
13346	7.5326	5.3636	0.	1.699e-002
13347	7.4407	5.4545	0.	1.8843e-002
13348	7.5326	5.4545	5.e-002	5.7841
13349	7.5326	5.1818	0.	1.4188e-002
13350	7.4407	5.2727	0.	1.7939e-002
13351	7.5326	5.2727	5.e-002	5.81
13352	7.5326	5.	0.	1.0317e-002
13353	7.4407	5.0909	0.	1.2254e-002
13354	7.5326	5.0909	5.e-002	5.8209
13355	7.5326	4.8182	0.	7.8831e-003
13356	7.4407	4.9091	0.	9.4928e-003
13357	7.5326	4.9091	5.e-002	5.8292
13358	7.5326	4.6364	0.	5.7886e-003
13359	7.4407	4.7273	0.	6.9679e-003
13360	7.5326	4.7273	5.e-002	5.8359
13361	7.5326	4.4545	0.	4.0753e-003
13362	7.4407	4.5455	0.	4.9839e-003
13363	7.5326	4.5455	5.e-002	5.841
13364	7.5326	4.2727	0.	2.6213e-003
13365	7.4407	4.3636	0.	3.2952e-003
13366	7.5326	4.3636	5.e-002	5.845
13367	7.5326	4.0909	0.	1.3981e-003
13368	7.4407	4.1818	0.	1.8777e-003
13369	7.5326	4.1818	5.e-002	5.8478
13370	7.5326	3.9091	0.	3.7905e-004
13371	7.4407	4.	0.	6.8849e-004
13372	7.5326	4.	5.e-002	5.8499
13373	7.5326	3.7273	0.	-4.4697e-004
13374	7.4407	3.8182	0.	-2.8962e-004
13375	7.5326	3.8182	5.e-002	5.8512
13376	7.5326	3.5455	0.	-1.0857e-003
13377	7.4407	3.6364	0.	-1.066e-003
13378	7.5326	3.6364	5.e-002	5.8521
13379	7.5326	3.3636	0.	-1.5406e-003
13380	7.4407	3.4545	0.	-1.6444e-003
13381	7.5326	3.4545	5.e-002	5.8527
13382	7.5326	3.1818	0.	-1.8137e-003
13383	7.4407	3.2727	0.	-2.0302e-003
13384	7.5326	3.2727	5.e-002	5.8529
13385	7.5326	3.	0.	-1.9049e-003
13386	7.4407	3.0909	0.	-2.2233e-003
13387	7.5326	3.0909	5.e-002	5.8531
13388	7.5326	2.8182	0.	-1.8138e-003
13389	7.4407	2.9091	0.	-2.2233e-003
13390	7.5326	2.9091	5.e-002	5.8531
13391	7.5326	2.6364	0.	-1.5403e-003
13392	7.4407	2.7273	0.	-2.0301e-003
13393	7.5326	2.7273	5.e-002	5.8529
13394	7.5326	2.4545	0.	-1.0852e-003
13395	7.4407	2.5455	0.	-1.6441e-003
13396	7.5326	2.5455	5.e-002	5.8527
13397	7.5326	2.2727	0.	-4.4688e-004
13398	7.4407	2.3636	0.	-1.0657e-003
13399	7.5326	2.3636	5.e-002	5.8521
13400	7.5326	2.0909	0.	3.792e-004
13401	7.4407	2.1818	0.	-2.8932e-004
13402	7.5326	2.1818	5.e-002	5.8512
13403	7.5326	1.9091	0.	1.3983e-003
13404	7.4407	2.	0.	6.89e-004
13405	7.5326	2.	5.e-002	5.8498
13406	7.5326	1.7273	0.	2.6218e-003
13407	7.4407	1.8182	0.	1.8781e-003
13408	7.5326	1.8182	5.e-002	5.8478
13409	7.5326	1.5455	0.	4.076e-003
13410	7.4407	1.6364	0.	3.296e-003
13411	7.5326	1.6364	5.e-002	5.8449
13412	7.5326	1.3636	0.	5.7893e-003
13413	7.4407	1.4545	0.	4.9844e-003
13414	7.5326	1.4545	5.e-002	5.841
13415	7.5326	1.1818	0.	7.8837e-003
13416	7.4407	1.2727	0.	6.9687e-003
13417	7.5326	1.2727	5.e-002	5.8358
13418	7.5326	1.	0.	1.0318e-002
13419	7.4407	1.0909	0.	9.4934e-003
13420	7.5326	1.0909	5.e-002	5.8292
13421	7.5326	0.81818	0.	1.419e-002
13422	7.4407	0.90909	0.	1.2256e-002
13423	7.5326	0.90909	5.e-002	5.8209
13424	7.5326	0.63636	0.	1.6991e-002
13425	7.4407	0.72727	0.	1.794e-002
13426	7.5326	0.72727	5.e-002	5.8099
13427	7.5326	0.45455	0.	3.8633e-002
13428	7.4407	0.54545	0.	1.8843e-002
13429	7.5326	0.54545	5.e-002	5.7841
13430	7.5326	0.27273	0.	5.8077e-002
13431	7.4407	0.36364	0.	6.5893e-002
13432	7.5326	0.36364	5.e-002	5.5573
13433	7.4407	0.18182	0.	0.1084
13434	7.5326	0.18182	5.e-002	2.3539
13435	7.5326	9.0909e-002	0.	0.14273
13436	7.3488	5.7273	0.	6.2751e-002
13437	7.257	5.8182	0.	0.10564
13438	7.3488	5.8182	5.e-002	2.5704
13439	7.3488	5.9091	0.	0.12989
13440	7.3488	5.5455	0.	4.2909e-002
13441	7.257	5.6364	0.	7.2904e-002
13442	7.3488	5.6364	5.e-002	5.6227
13443	7.3488	5.3636	0.	1.8842e-002
13444	7.257	5.4545	0.	2.0975e-002
13445	7.3488	5.4545	5.e-002	5.8403
13446	7.3488	5.1818	0.	1.559e-002
13447	7.257	5.2727	0.	1.979e-002
13448	7.3488	5.2727	5.e-002	5.866
13449	7.3488	5.	0.	1.1205e-002
13450	7.257	5.0909	0.	1.3393e-002
13451	7.3488	5.0909	5.e-002	5.8771
13452	7.3488	4.8182	0.	8.4374e-003
13453	7.257	4.9091	0.	1.0254e-002
13454	7.3488	4.9091	5.e-002	5.8855
13455	7.3488	4.6364	0.	6.0671e-003
13456	7.257	4.7273	0.	7.4013e-003
13457	7.3488	4.7273	5.e-002	5.892
13458	7.3488	4.4545	0.	4.133e-003
13459	7.257	4.5455	0.	5.1635e-003
13460	7.3488	4.5455	5.e-002	5.897
13461	7.3488	4.2727	0.	2.4961e-003
13462	7.257	4.3636	0.	3.2644e-003
13463	7.3488	4.3636	5.e-002	5.9007
13464	7.3488	4.0909	0.	1.1225e-003
13465	7.257	4.1818	0.	1.6737e-003
13466	7.3488	4.1818	5.e-002	5.9033
13467	7.3488	3.9091	0.	-1.911e-005
13468	7.257	4.	0.	3.4231e-004
13469	7.3488	4.	5.e-002	5.905
13470	7.3488	3.7273	0.	-9.4313e-004
13471	7.257	3.8182	0.	-7.5117e-004
13472	7.3488	3.8182	5.e-002	5.9061
13473	7.3488	3.5455	0.	-1.6562e-003
13474	7.257	3.6364	0.	-1.6176e-003
13475	7.3488	3.6364	5.e-002	5.9067
13476	7.3488	3.3636	0.	-2.1635e-003
13477	7.257	3.4545	0.	-2.2627e-003
13478	7.3488	3.4545	5.e-002	5.9069
13479	7.3488	3.1818	0.	-2.4683e-003
13480	7.257	3.2727	0.	-2.6923e-003
13481	7.3488	3.2727	5.e-002	5.907
13482	7.3488	3.	0.	-2.5699e-003
13483	7.257	3.0909	0.	-2.9074e-003
13484	7.3488	3.0909	5.e-002	5.9071
13485	7.3488	2.8182	0.	-2.4681e-003
13486	7.257	2.9091	0.	-2.9073e-003
13487	7.3488	2.9091	5.e-002	5.9071
13488	7.3488	2.6364	0.	-2.1635e-003
13489	7.257	2.7273	0.	-2.6922e-003
13490	7.3488	2.7273	5.e-002	5.907
13491	7.3488	2.4545	0.	-1.6561e-003
13492	7.257	2.5455	0.	-2.2625e-003
13493	7.3488	2.5455	5.e-002	5.907
13494	7.3488	2.2727	0.	-9.4265e-004
13495	7.257	2.3636	0.	-1.6175e-003
13496	7.3488	2.3636	5.e-002	5.9067
13497	7.3488	2.0909	0.	-1.8455e-005
13498	7.257	2.1818	0.	-7.5061e-004
13499	7.3488	2.1818	5.e-002	5.9061
13500	7.3488	1.9091	0.	1.1232e-003
13501	7.257	2.	0.	3.4285e-004
13502	7.3488	2.	5.e-002	5.905
13503	7.3488	1.7273	0.	2.4968e-003
13504	7.257	1.8182	0.	1.6741e-003
13505	7.3488	1.8182	5.e-002	5.9033
13506	7.3488	1.5455	0.	4.1335e-003
13507	7.257	1.6364	0.	3.2651e-003
13508	7.3488	1.6364	5.e-002	5.9007
13509	7.3488	1.3636	0.	6.0678e-003
13510	7.257	1.4545	0.	5.1641e-003
13511	7.3488	1.4545	5.e-002	5.897
13512	7.3488	1.1818	0.	8.4382e-003
13513	7.257	1.2727	0.	7.4022e-003
13514	7.3488	1.2727	5.e-002	5.892
13515	7.3488	1.	0.	1.1206e-002
13516	7.257	1.0909	0.	1.0254e-002
13517	7.3488	1.0909	5.e-002	5.8855
13518	7.3488	0.81818	0.	1.5591e-002
13519	7.257	0.90909	0.	1.3394e-002
13520	7.3488	0.90909	5.e-002	5.8771
13521	7.3488	0.63636	0.	1.8843e-002
13522	7.257	0.72727	0.	1.9791e-002
13523	7.3488	0.72727	5.e-002	5.8659
13524	7.3488	0.45455	0.	4.291e-002
13525	7.257	0.54545	0.	2.0976e-002
13526	7.3488	0.54545	5.e-002	5.8403
13527	7.3488	0.27273	0.	6.2752e-002
13528	7.257	0.36364	0.	7.2906e-002
13529	7.3488	0.36364	5.e-002	5.6227
13530	7.257	0.18182	0.	0.10564
13531	7.3488	0.18182	5.e-002	2.5704
13532	7.3488	9.0909e-002	0.	0.12989
13533	7.1651	5.7273	0.	6.8097e-002
13534	7.0733	5.8182	0.	0.1058
13535	7.1651	5.8182	5.e-002	2.8056
13536	7.1651	5.9091	0.	0.12401
13537	7.1651	5.5455	0.	4.7548e-002
13538	7.0733	5.6364	0.	8.0509e-002
13539	7.1651	5.6364	5.e-002	5.6932
13540	7.1651	5.3636	0.	2.0868e-002
13541	7.0733	5.4545	0.	2.3307e-002
13542	7.1651	5.4545	5.e-002	5.9008
13543	7.1651	5.1818	0.	1.7126e-002
13544	7.0733	5.2727	0.	2.1813e-002
13545	7.1651	5.2727	5.e-002	5.9262
13546	7.1651	5.	0.	1.2186e-002
13547	7.0733	5.0909	0.	1.4646e-002
13548	7.1651	5.0909	5.e-002	5.9374
13549	7.1651	4.8182	0.	9.0577e-003
13550	7.0733	4.9091	0.	1.1097e-002
13551	7.1651	4.9091	5.e-002	5.9458
13552	7.1651	4.6364	0.	6.388e-003
13553	7.0733	4.7273	0.	7.8901e-003
13554	7.1651	4.7273	5.e-002	5.9522
13555	7.1651	4.4545	0.	4.214e-003
13556	7.0733	4.5455	0.	5.3764e-003
13557	7.1651	4.5455	5.e-002	5.9569
13558	7.1651	4.2727	0.	2.3787e-003
13559	7.0733	4.3636	0.	3.2489e-003
13560	7.1651	4.3636	5.e-002	5.9602
13561	7.1651	4.0909	0.	8.4151e-004
13562	7.0733	4.1818	0.	1.4699e-003
13563	7.1651	4.1818	5.e-002	5.9624
13564	7.1651	3.9091	0.	-4.3412e-004
13565	7.0733	4.	0.	-1.6655e-005
13566	7.1651	4.	5.e-002	5.9637
13567	7.1651	3.7273	0.	-1.4649e-003
13568	7.0733	3.8182	0.	-1.2357e-003
13569	7.1651	3.8182	5.e-002	5.9643
13570	7.1651	3.5455	0.	-2.2599e-003
13571	7.0733	3.6364	0.	-2.2007e-003
13572	7.1651	3.6364	5.e-002	5.9645
13573	7.1651	3.3636	0.	-2.825e-003
13574	7.0733	3.4545	0.	-2.9187e-003
13575	7.1651	3.4545	5.e-002	5.9645
13576	7.1651	3.1818	0.	-3.1638e-003
13577	7.0733	3.2727	0.	-3.3962e-003
13578	7.1651	3.2727	5.e-002	5.9644
13579	7.1651	3.	0.	-3.2768e-003
13580	7.0733	3.0909	0.	-3.6352e-003
13581	7.1651	3.0909	5.e-002	5.9643
13582	7.1651	2.8182	0.	-3.1638e-003
13583	7.0733	2.9091	0.	-3.6352e-003
13584	7.1651	2.9091	5.e-002	5.9643
13585	7.1651	2.6364	0.	-2.8248e-003
13586	7.0733	2.7273	0.	-3.3962e-003
13587	7.1651	2.7273	5.e-002	5.9644
13588	7.1651	2.4545	0.	-2.2597e-003
13589	7.0733	2.5455	0.	-2.9183e-003
13590	7.1651	2.5455	5.e-002	5.9645
13591	7.1651	2.2727	0.	-1.4647e-003
13592	7.0733	2.3636	0.	-2.2004e-003
13593	7.1651	2.3636	5.e-002	5.9645
13594	7.1651	2.0909	0.	-4.3367e-004
13595	7.0733	2.1818	0.	-1.2353e-003
13596	7.1651	2.1818	5.e-002	5.9643
13597	7.1651	1.9091	0.	8.4183e-004
13598	7.0733	2.	0.	-1.6266e-005
13599	7.1651	2.	5.e-002	5.9637
13600	7.1651	1.7273	0.	2.3791e-003
13601	7.0733	1.8182	0.	1.4706e-003
13602	7.1651	1.8182	5.e-002	5.9623
13603	7.1651	1.5455	0.	4.2146e-003
13604	7.0733	1.6364	0.	3.2495e-003
13605	7.1651	1.6364	5.e-002	5.9602
13606	7.1651	1.3636	0.	6.3888e-003
13607	7.0733	1.4545	0.	5.3772e-003
13608	7.1651	1.4545	5.e-002	5.9569
13609	7.1651	1.1818	0.	9.0586e-003
13610	7.0733	1.2727	0.	7.8908e-003
13611	7.1651	1.2727	5.e-002	5.9522
13612	7.1651	1.	0.	1.2187e-002
13613	7.0733	1.0909	0.	1.1098e-002
13614	7.1651	1.0909	5.e-002	5.9458
13615	7.1651	0.81818	0.	1.7127e-002
13616	7.0733	0.90909	0.	1.4648e-002
13617	7.1651	0.90909	5.e-002	5.9374
13618	7.1651	0.63636	0.	2.0868e-002
13619	7.0733	0.72727	0.	2.1814e-002
13620	7.1651	0.72727	5.e-002	5.9261
13621	7.1651	0.45455	0.	4.7549e-002
13622	7.0733	0.54545	0.	2.3307e-002
13623	7.1651	0.54545	5.e-002	5.9008
13624	7.1651	0.27273	0.	6.8099e-002
13625	7.0733	0.36364	0.	8.0511e-002
13626	7.1651	0.36364	5.e-002	5.6932
13627	7.0733	0.18182	0.	0.1058
13628	7.1651	0.18182	5.e-002	2.8056
13629	7.1651	9.0909e-002	0.	0.12401
13630	6.9814	5.7273	0.	7.4139e-002
13631	6.8895	5.8182	0.	0.10815
13632	6.9814	5.8182	5.e-002	3.061
13633	6.9814	5.9091	0.	0.12211
13634	6.9814	5.5455	0.	5.2586e-002
13635	6.8895	5.6364	0.	8.8762e-002
13636	6.9814	5.6364	5.e-002	5.7694
13637	6.9814	5.3636	0.	2.3082e-002
13638	6.8895	5.4545	0.	2.5853e-002
13639	6.9814	5.4545	5.e-002	5.9659
13640	6.9814	5.1818	0.	1.8808e-002
13641	6.8895	5.2727	0.	2.402e-002
13642	6.9814	5.2727	5.e-002	5.9909
13643	6.9814	5.	0.	1.3268e-002
13644	6.8895	5.0909	0.	1.602e-002
13645	6.9814	5.0909	5.e-002	6.0022
13646	6.9814	4.8182	0.	9.7486e-003
13647	6.8895	4.9091	0.	1.2027e-002
13648	6.9814	4.9091	5.e-002	6.0105
13649	6.9814	4.6364	0.	6.7541e-003
13650	6.8895	4.7273	0.	8.4349e-003
13651	6.9814	4.7273	5.e-002	6.0166
13652	6.9814	4.4545	0.	4.3195e-003
13653	6.8895	4.5455	0.	5.6223e-003
13654	6.9814	4.5455	5.e-002	6.0209
13655	6.9814	4.2727	0.	2.2683e-003
13656	6.8895	4.3636	0.	3.2462e-003
13657	6.9814	4.3636	5.e-002	6.0238
13658	6.9814	4.0909	0.	5.5278e-004
13659	6.8895	4.1818	0.	1.2625e-003
13660	6.9814	4.1818	5.e-002	6.0254
13661	6.9814	3.9091	0.	-8.6856e-004
13662	6.8895	4.	0.	-3.9321e-004
13663	6.9814	4.	5.e-002	6.0262
13664	6.9814	3.7273	0.	-2.016e-003
13665	6.8895	3.8182	0.	-1.7487e-003
13666	6.9814	3.8182	5.e-002	6.0263
13667	6.9814	3.5455	0.	-2.9e-003
13668	6.8895	3.6364	0.	-2.8212e-003
13669	6.9814	3.6364	5.e-002	6.026
13670	6.9814	3.3636	0.	-3.5279e-003
13671	6.8895	3.4545	0.	-3.6184e-003
13672	6.9814	3.4545	5.e-002	6.0256
13673	6.9814	3.1818	0.	-3.9042e-003
13674	6.8895	3.2727	0.	-4.1487e-003
13675	6.9814	3.2727	5.e-002	6.0253
13676	6.9814	3.	0.	-4.0297e-003
13677	6.8895	3.0909	0.	-4.4136e-003
13678	6.9814	3.0909	5.e-002	6.025
13679	6.9814	2.8182	0.	-3.9041e-003
13680	6.8895	2.9091	0.	-4.4135e-003
13681	6.9814	2.9091	5.e-002	6.025
13682	6.9814	2.6364	0.	-3.5277e-003
13683	6.8895	2.7273	0.	-4.1485e-003
13684	6.9814	2.7273	5.e-002	6.0253
13685	6.9814	2.4545	0.	-2.8997e-003
13686	6.8895	2.5455	0.	-3.6182e-003
13687	6.9814	2.5455	5.e-002	6.0256
13688	6.9814	2.2727	0.	-2.0156e-003
13689	6.8895	2.3636	0.	-2.8207e-003
13690	6.9814	2.3636	5.e-002	6.026
13691	6.9814	2.0909	0.	-8.6824e-004
13692	6.8895	2.1818	0.	-1.7486e-003
13693	6.9814	2.1818	5.e-002	6.0263
13694	6.9814	1.9091	0.	5.5353e-004
13695	6.8895	2.	0.	-3.9265e-004
13696	6.9814	2.	5.e-002	6.0261
13697	6.9814	1.7273	0.	2.2691e-003
13698	6.8895	1.8182	0.	1.2632e-003
13699	6.9814	1.8182	5.e-002	6.0254
13700	6.9814	1.5455	0.	4.3202e-003
13701	6.8895	1.6364	0.	3.2469e-003
13702	6.9814	1.6364	5.e-002	6.0237
13703	6.9814	1.3636	0.	6.7547e-003
13704	6.8895	1.4545	0.	5.6231e-003
13705	6.9814	1.4545	5.e-002	6.0209
13706	6.9814	1.1818	0.	9.7491e-003
13707	6.8895	1.2727	0.	8.4357e-003
13708	6.9814	1.2727	5.e-002	6.0165
13709	6.9814	1.	0.	1.3269e-002
13710	6.8895	1.0909	0.	1.2027e-002
13711	6.9814	1.0909	5.e-002	6.0104
13712	6.9814	0.81818	0.	1.881e-002
13713	6.8895	0.90909	0.	1.6021e-002
13714	6.9814	0.90909	5.e-002	6.0021
13715	6.9814	0.63636	0.	2.3082e-002
13716	6.8895	0.72727	0.	2.4021e-002
13717	6.9814	0.72727	5.e-002	5.9908
13718	6.9814	0.45455	0.	5.2587e-002
13719	6.8895	0.54545	0.	2.5853e-002
13720	6.9814	0.54545	5.e-002	5.9659
13721	6.9814	0.27273	0.	7.414e-002
13722	6.8895	0.36364	0.	8.8764e-002
13723	6.9814	0.36364	5.e-002	5.7694
13724	6.8895	0.18182	0.	0.10815
13725	6.9814	0.18182	5.e-002	3.0609
13726	6.9814	9.0909e-002	0.	0.12211
13727	6.7977	5.7273	0.	8.0914e-002
13728	6.7058	5.8182	0.	0.11237
13729	6.7977	5.8182	5.e-002	3.338
13730	6.7977	5.9091	0.	0.12279
13731	6.7977	5.5455	0.	5.8057e-002
13732	6.7058	5.6364	0.	9.7722e-002
13733	6.7977	5.6364	5.e-002	5.8518
13734	6.7977	5.3636	0.	2.5496e-002
13735	6.7058	5.4545	0.	2.8634e-002
13736	6.7977	5.4545	5.e-002	6.0361
13737	6.7977	5.1818	0.	2.0644e-002
13738	6.7058	5.2727	0.	2.6425e-002
13739	6.7977	5.2727	5.e-002	6.0605
13740	6.7977	5.	0.	1.4454e-002
13741	6.7058	5.0909	0.	1.7522e-002
13742	6.7977	5.0909	5.e-002	6.0719
13743	6.7977	4.8182	0.	1.0509e-002
13744	6.7058	4.9091	0.	1.3047e-002
13745	6.7977	4.9091	5.e-002	6.08
13746	6.7977	4.6364	0.	7.1627e-003
13747	6.7058	4.7273	0.	9.0377e-003
13748	6.7977	4.7273	5.e-002	6.0858
13749	6.7977	4.4545	0.	4.4453e-003
13750	6.7058	4.5455	0.	5.9004e-003
13751	6.7977	4.5455	5.e-002	6.0896
13752	6.7977	4.2727	0.	2.1593e-003
13753	6.7058	4.3636	0.	3.2544e-003
13754	6.7977	4.3636	5.e-002	6.0919
13755	6.7977	4.0909	0.	2.4994e-004
13756	6.7058	4.1818	0.	1.048e-003
13757	6.7977	4.1818	5.e-002	6.0928
13758	6.7977	3.9091	0.	-1.3301e-003
13759	6.7058	4.	0.	-7.9144e-004
13760	6.7977	4.	5.e-002	6.0929
13761	6.7977	3.7273	0.	-2.6041e-003
13762	6.7058	3.8182	0.	-2.2959e-003
13763	6.7977	3.8182	5.e-002	6.0924
13764	6.7977	3.5455	0.	-3.5853e-003
13765	6.7058	3.6364	0.	-3.4849e-003
13766	6.7977	3.6364	5.e-002	6.0916
13767	6.7977	3.3636	0.	-4.2821e-003
13768	6.7058	3.4545	0.	-4.3687e-003
13769	6.7977	3.4545	5.e-002	6.0907
13770	6.7977	3.1818	0.	-4.6993e-003
13771	6.7058	3.2727	0.	-4.9562e-003
13772	6.7977	3.2727	5.e-002	6.0901
13773	6.7977	3.	0.	-4.8382e-003
13774	6.7058	3.0909	0.	-5.2495e-003
13775	6.7977	3.0909	5.e-002	6.0897
13776	6.7977	2.8182	0.	-4.6991e-003
13777	6.7058	2.9091	0.	-5.2494e-003
13778	6.7977	2.9091	5.e-002	6.0897
13779	6.7977	2.6364	0.	-4.2818e-003
13780	6.7058	2.7273	0.	-4.956e-003
13781	6.7977	2.7273	5.e-002	6.0901
13782	6.7977	2.4545	0.	-3.5849e-003
13783	6.7058	2.5455	0.	-4.3684e-003
13784	6.7977	2.5455	5.e-002	6.0907
13785	6.7977	2.2727	0.	-2.6039e-003
13786	6.7058	2.3636	0.	-3.4846e-003
13787	6.7977	2.3636	5.e-002	6.0915
13788	6.7977	2.0909	0.	-1.3298e-003
13789	6.7058	2.1818	0.	-2.2956e-003
13790	6.7977	2.1818	5.e-002	6.0924
13791	6.7977	1.9091	0.	2.5045e-004
13792	6.7058	2.	0.	-7.9073e-004
13793	6.7977	2.	5.e-002	6.0929
13794	6.7977	1.7273	0.	2.1598e-003
13795	6.7058	1.8182	0.	1.0485e-003
13796	6.7977	1.8182	5.e-002	6.0928
13797	6.7977	1.5455	0.	4.446e-003
13798	6.7058	1.6364	0.	3.255e-003
13799	6.7977	1.6364	5.e-002	6.0918
13800	6.7977	1.3636	0.	7.1636e-003
13801	6.7058	1.4545	0.	5.9012e-003
13802	6.7977	1.4545	5.e-002	6.0896
13803	6.7977	1.1818	0.	1.051e-002
13804	6.7058	1.2727	0.	9.0386e-003
13805	6.7977	1.2727	5.e-002	6.0857
13806	6.7977	1.	0.	1.4455e-002
13807	6.7058	1.0909	0.	1.3048e-002
13808	6.7977	1.0909	5.e-002	6.08
13809	6.7977	0.81818	0.	2.0646e-002
13810	6.7058	0.90909	0.	1.7523e-002
13811	6.7977	0.90909	5.e-002	6.0718
13812	6.7977	0.63636	0.	2.5496e-002
13813	6.7058	0.72727	0.	2.6426e-002
13814	6.7977	0.72727	5.e-002	6.0605
13815	6.7977	0.45455	0.	5.8058e-002
13816	6.7058	0.54545	0.	2.8634e-002
13817	6.7977	0.54545	5.e-002	6.0361
13818	6.7977	0.27273	0.	8.0916e-002
13819	6.7058	0.36364	0.	9.7724e-002
13820	6.7977	0.36364	5.e-002	5.8518
13821	6.7058	0.18182	0.	0.11237
13822	6.7977	0.18182	5.e-002	3.3379
13823	6.7977	9.0909e-002	0.	0.1228
13824	6.614	5.7273	0.	8.8486e-002
13825	6.5221	5.8182	0.	0.11831
13826	6.614	5.8182	5.e-002	3.6383
13827	6.614	5.9091	0.	0.12536
13828	6.614	5.5455	0.	6.4001e-002
13829	6.5221	5.6364	0.	0.10747
13830	6.614	5.6364	5.e-002	5.941
13831	6.614	5.3636	0.	2.813e-002
13832	6.5221	5.4545	0.	3.1678e-002
13833	6.614	5.4545	5.e-002	6.1121
13834	6.614	5.1818	0.	2.2648e-002
13835	6.5221	5.2727	0.	2.9052e-002
13836	6.614	5.2727	5.e-002	6.1358
13837	6.614	5.	0.	1.5752e-002
13838	6.5221	5.0909	0.	1.917e-002
13839	6.614	5.0909	5.e-002	6.1471
13840	6.614	4.8182	0.	1.1346e-002
13841	6.5221	4.9091	0.	1.4171e-002
13842	6.614	4.9091	5.e-002	6.155
13843	6.614	4.6364	0.	7.6176e-003
13844	6.5221	4.7273	0.	9.709e-003
13845	6.614	4.7273	5.e-002	6.1603
13846	6.614	4.4545	0.	4.5928e-003
13847	6.5221	4.5455	0.	6.2189e-003
13848	6.614	4.5455	5.e-002	6.1635
13849	6.614	4.2727	0.	2.0518e-003
13850	6.5221	4.3636	0.	3.2796e-003
13851	6.614	4.3636	5.e-002	6.165
13852	6.614	4.0909	0.	-6.8232e-005
13853	6.5221	4.1818	0.	8.3117e-004
13854	6.614	4.1818	5.e-002	6.1652
13855	6.614	3.9091	0.	-1.821e-003
13856	6.5221	4.	0.	-1.2077e-003
13857	6.614	4.	5.e-002	6.1644
13858	6.614	3.7273	0.	-3.233e-003
13859	6.5221	3.8182	0.	-2.8744e-003
13860	6.614	3.8182	5.e-002	6.1631
13861	6.614	3.5455	0.	-4.3196e-003
13862	6.5221	3.6364	0.	-4.1903e-003
13863	6.614	3.6364	5.e-002	6.1616
13864	6.614	3.3636	0.	-5.0909e-003
13865	6.5221	3.4545	0.	-5.1682e-003
13866	6.614	3.4545	5.e-002	6.1602
13867	6.614	3.1818	0.	-5.5527e-003
13868	6.5221	3.2727	0.	-5.8177e-003
13869	6.614	3.2727	5.e-002	6.1591
13870	6.614	3.	0.	-5.7065e-003
13871	6.5221	3.0909	0.	-6.1421e-003
13872	6.614	3.0909	5.e-002	6.1585
13873	6.614	2.8182	0.	-5.5526e-003
13874	6.5221	2.9091	0.	-6.142e-003
13875	6.614	2.9091	5.e-002	6.1585
13876	6.614	2.6364	0.	-5.0908e-003
13877	6.5221	2.7273	0.	-5.8177e-003
13878	6.614	2.7273	5.e-002	6.1591
13879	6.614	2.4545	0.	-4.3195e-003
13880	6.5221	2.5455	0.	-5.1679e-003
13881	6.614	2.5455	5.e-002	6.1602
13882	6.614	2.2727	0.	-3.2327e-003
13883	6.5221	2.3636	0.	-4.1901e-003
13884	6.614	2.3636	5.e-002	6.1616
13885	6.614	2.0909	0.	-1.8204e-003
13886	6.5221	2.1818	0.	-2.8739e-003
13887	6.614	2.1818	5.e-002	6.1631
13888	6.614	1.9091	0.	-6.7547e-005
13889	6.5221	2.	0.	-1.2071e-003
13890	6.614	2.	5.e-002	6.1643
13891	6.614	1.7273	0.	2.0524e-003
13892	6.5221	1.8182	0.	8.3174e-004
13893	6.614	1.8182	5.e-002	6.1651
13894	6.614	1.5455	0.	4.5935e-003
13895	6.5221	1.6364	0.	3.2802e-003
13896	6.614	1.6364	5.e-002	6.165
13897	6.614	1.3636	0.	7.6183e-003
13898	6.5221	1.4545	0.	6.2196e-003
13899	6.614	1.4545	5.e-002	6.1635
13900	6.614	1.1818	0.	1.1347e-002
13901	6.5221	1.2727	0.	9.7097e-003
13902	6.614	1.2727	5.e-002	6.1602
13903	6.614	1.	0.	1.5753e-002
13904	6.5221	1.0909	0.	1.4172e-002
13905	6.614	1.0909	5.e-002	6.1549
13906	6.614	0.81818	0.	2.2649e-002
13907	6.5221	0.90909	0.	1.9172e-002
13908	6.614	0.90909	5.e-002	6.1471
13909	6.614	0.63636	0.	2.8131e-002
13910	6.5221	0.72727	0.	2.9053e-002
13911	6.614	0.72727	5.e-002	6.1358
13912	6.614	0.45455	0.	6.4002e-002
13913	6.5221	0.54545	0.	3.1678e-002
13914	6.614	0.54545	5.e-002	6.112
13915	6.614	0.27273	0.	8.8487e-002
13916	6.5221	0.36364	0.	0.10747
13917	6.614	0.36364	5.e-002	5.941
13918	6.5221	0.18182	0.	0.11831
13919	6.614	0.18182	5.e-002	3.6383
13920	6.614	9.0909e-002	0.	0.12536
13921	6.4302	5.7273	0.	9.6943e-002
13922	6.3384	5.8182	0.	0.12597
13923	6.4302	5.8182	5.e-002	3.9634
13924	6.4302	5.9091	0.	0.12942
13925	6.4302	5.5455	0.	7.0477e-002
13926	6.3384	5.6364	0.	0.11807
13927	6.4302	5.6364	5.e-002	6.0377
13928	6.4302	5.3636	0.	3.1017e-002
13929	6.3384	5.4545	0.	3.5016e-002
13930	6.4302	5.4545	5.e-002	6.1942
13931	6.4302	5.1818	0.	2.4846e-002
13932	6.3384	5.2727	0.	3.1924e-002
13933	6.4302	5.2727	5.e-002	6.2172
13934	6.4302	5.	0.	1.7184e-002
13935	6.3384	5.0909	0.	2.0981e-002
13936	6.4302	5.0909	5.e-002	6.2284
13937	6.4302	4.8182	0.	1.2278e-002
13938	6.3384	4.9091	0.	1.5412e-002
13939	6.4302	4.9091	5.e-002	6.2359
13940	6.4302	4.6364	0.	8.1335e-003
13941	6.3384	4.7273	0.	1.0458e-002
13942	6.4302	4.7273	5.e-002	6.2406
13943	6.4302	4.4545	0.	4.7748e-003
13944	6.3384	4.5455	0.	6.584e-003
13945	6.4302	4.5455	5.e-002	6.2431
13946	6.4302	4.2727	0.	1.9566e-003
13947	6.3384	4.3636	0.	3.3263e-003
13948	6.4302	4.3636	5.e-002	6.2436
13949	6.4302	4.0909	0.	-3.9222e-004
13950	6.3384	4.1818	0.	6.1479e-004
13951	6.4302	4.1818	5.e-002	6.2428
13952	6.4302	3.9091	0.	-2.3326e-003
13953	6.3384	4.	0.	-1.6411e-003
13954	6.4302	4.	5.e-002	6.2411
13955	6.4302	3.7273	0.	-3.8949e-003
13956	6.3384	3.8182	0.	-3.4836e-003
13957	6.4302	3.8182	5.e-002	6.2389
13958	6.4302	3.5455	0.	-5.0964e-003
13959	6.3384	3.6364	0.	-4.9377e-003
13960	6.4302	3.6364	5.e-002	6.2366
13961	6.4302	3.3636	0.	-5.9489e-003
13962	6.3384	3.4545	0.	-6.0178e-003
13963	6.4302	3.4545	5.e-002	6.2345
13964	6.4302	3.1818	0.	-6.459e-003
13965	6.3384	3.2727	0.	-6.7349e-003
13966	6.4302	3.2727	5.e-002	6.233
13967	6.4302	3.	0.	-6.6289e-003
13968	6.3384	3.0909	0.	-7.0929e-003
13969	6.4302	3.0909	5.e-002	6.2322
13970	6.4302	2.8182	0.	-6.459e-003
13971	6.3384	2.9091	0.	-7.0929e-003
13972	6.4302	2.9091	5.e-002	6.2322
13973	6.4302	2.6364	0.	-5.9488e-003
13974	6.3384	2.7273	0.	-6.7348e-003
13975	6.4302	2.7273	5.e-002	6.233
13976	6.4302	2.4545	0.	-5.0961e-003
13977	6.3384	2.5455	0.	-6.0176e-003
13978	6.4302	2.5455	5.e-002	6.2345
13979	6.4302	2.2727	0.	-3.8945e-003
13980	6.3384	2.3636	0.	-4.9375e-003
13981	6.4302	2.3636	5.e-002	6.2366
13982	6.4302	2.0909	0.	-2.3322e-003
13983	6.3384	2.1818	0.	-3.4832e-003
13984	6.4302	2.1818	5.e-002	6.2388
13985	6.4302	1.9091	0.	-3.9175e-004
13986	6.3384	2.	0.	-1.6407e-003
13987	6.4302	2.	5.e-002	6.2411
13988	6.4302	1.7273	0.	1.9571e-003
13989	6.3384	1.8182	0.	6.1536e-004
13990	6.4302	1.8182	5.e-002	6.2428
13991	6.4302	1.5455	0.	4.7755e-003
13992	6.3384	1.6364	0.	3.3268e-003
13993	6.4302	1.6364	5.e-002	6.2436
13994	6.4302	1.3636	0.	8.1342e-003
13995	6.3384	1.4545	0.	6.5847e-003
13996	6.4302	1.4545	5.e-002	6.2431
13997	6.4302	1.1818	0.	1.2278e-002
13998	6.3384	1.2727	0.	1.0458e-002
13999	6.4302	1.2727	5.e-002	6.2406
14000	6.4302	1.	0.	1.7185e-002
14001	6.3384	1.0909	0.	1.5413e-002
14002	6.4302	1.0909	5.e-002	6.2359
14003	6.4302	0.81818	0.	2.4847e-002
14004	6.3384	0.90909	0.	2.0982e-002
14005	6.4302	0.90909	5.e-002	6.2284
14006	6.4302	0.63636	0.	3.1017e-002
14007	6.3384	0.72727	0.	3.1925e-002
14008	6.4302	0.72727	5.e-002	6.2171
14009	6.4302	0.45455	0.	7.0478e-002
14010	6.3384	0.54545	0.	3.5016e-002
14011	6.4302	0.54545	5.e-002	6.1942
14012	6.4302	0.27273	0.	9.6945e-002
14013	6.3384	0.36364	0.	0.11807
14014	6.4302	0.36364	5.e-002	6.0376
14015	6.3384	0.18182	0.	0.12597
14016	6.4302	0.18182	5.e-002	3.9634
14017	6.4302	9.0909e-002	0.	0.12942
14018	6.2465	5.7273	0.	0.10638
14019	6.1547	5.8182	0.	0.13543
14020	6.2465	5.8182	5.e-002	4.3154
14021	6.2465	5.9091	0.	0.13476
14022	6.2465	5.5455	0.	7.7533e-002
14023	6.1547	5.6364	0.	0.12962
14024	6.2465	5.6364	5.e-002	6.1424
14025	6.2465	5.3636	0.	3.4175e-002
14026	6.1547	5.4545	0.	3.8676e-002
14027	6.2465	5.4545	5.e-002	6.2832
14028	6.2465	5.1818	0.	2.725e-002
14029	6.1547	5.2727	0.	3.5065e-002
14030	6.2465	5.2727	5.e-002	6.3054
14031	6.2465	5.	0.	1.8756e-002
14032	6.1547	5.0909	0.	2.2967e-002
14033	6.2465	5.0909	5.e-002	6.3163
14034	6.2465	4.8182	0.	1.3306e-002
14035	6.1547	4.9091	0.	1.6778e-002
14036	6.2465	4.9091	5.e-002	6.3234
14037	6.2465	4.6364	0.	8.7105e-003
14038	6.1547	4.7273	0.	1.1289e-002
14039	6.2465	4.7273	5.e-002	6.3274
14040	6.2465	4.4545	0.	4.9892e-003
14041	6.1547	4.5455	0.	6.9983e-003
14042	6.2465	4.5455	5.e-002	6.3289
14043	6.2465	4.2727	0.	1.87e-003
14044	6.1547	4.3636	0.	3.3946e-003
14045	6.2465	4.3636	5.e-002	6.3284
14046	6.2465	4.0909	0.	-7.2791e-004
14047	6.1547	4.1818	0.	3.973e-004
14048	6.2465	4.1818	5.e-002	6.3265
14049	6.2465	3.9091	0.	-2.8721e-003
14050	6.1547	4.	0.	-2.0943e-003
14051	6.2465	4.	5.e-002	6.3236
14052	6.2465	3.7273	0.	-4.5971e-003
14053	6.1547	3.8182	0.	-4.1278e-003
14054	6.2465	3.8182	5.e-002	6.3203
14055	6.2465	3.5455	0.	-5.9235e-003
14056	6.1547	3.6364	0.	-5.7317e-003
14057	6.2465	3.6364	5.e-002	6.3171
14058	6.2465	3.3636	0.	-6.8641e-003
14059	6.1547	3.4545	0.	-6.9226e-003
14060	6.2465	3.4545	5.e-002	6.3143
14061	6.2465	3.1818	0.	-7.4268e-003
14062	6.1547	3.2727	0.	-7.713e-003
14063	6.2465	3.2727	5.e-002	6.3122
14064	6.2465	3.	0.	-7.6142e-003
14065	6.1547	3.0909	0.	-8.1075e-003
14066	6.2465	3.0909	5.e-002	6.3111
14067	6.2465	2.8182	0.	-7.4267e-003
14068	6.1547	2.9091	0.	-8.1074e-003
14069	6.2465	2.9091	5.e-002	6.3111
14070	6.2465	2.6364	0.	-6.8639e-003
14071	6.1547	2.7273	0.	-7.7129e-003
14072	6.2465	2.7273	5.e-002	6.3122
14073	6.2465	2.4545	0.	-5.9233e-003
14074	6.1547	2.5455	0.	-6.9224e-003
14075	6.2465	2.5455	5.e-002	6.3143
14076	6.2465	2.2727	0.	-4.597e-003
14077	6.1547	2.3636	0.	-5.7315e-003
14078	6.2465	2.3636	5.e-002	6.3171
14079	6.2465	2.0909	0.	-2.8718e-003
14080	6.1547	2.1818	0.	-4.1274e-003
14081	6.2465	2.1818	5.e-002	6.3203
14082	6.2465	1.9091	0.	-7.2738e-004
14083	6.1547	2.	0.	-2.0939e-003
14084	6.2465	2.	5.e-002	6.3236
14085	6.2465	1.7273	0.	1.8706e-003
14086	6.1547	1.8182	0.	3.9797e-004
14087	6.2465	1.8182	5.e-002	6.3264
14088	6.2465	1.5455	0.	4.9898e-003
14089	6.1547	1.6364	0.	3.3952e-003
14090	6.2465	1.6364	5.e-002	6.3284
14091	6.2465	1.3636	0.	8.7112e-003
14092	6.1547	1.4545	0.	6.9991e-003
14093	6.2465	1.4545	5.e-002	6.3289
14094	6.2465	1.1818	0.	1.3307e-002
14095	6.1547	1.2727	0.	1.1289e-002
14096	6.2465	1.2727	5.e-002	6.3274
14097	6.2465	1.	0.	1.8757e-002
14098	6.1547	1.0909	0.	1.6778e-002
14099	6.2465	1.0909	5.e-002	6.3234
14100	6.2465	0.81818	0.	2.7251e-002
14101	6.1547	0.90909	0.	2.2968e-002
14102	6.2465	0.90909	5.e-002	6.3163
14103	6.2465	0.63636	0.	3.4176e-002
14104	6.1547	0.72727	0.	3.5066e-002
14105	6.2465	0.72727	5.e-002	6.3053
14106	6.2465	0.45455	0.	7.7534e-002
14107	6.1547	0.54545	0.	3.8677e-002
14108	6.2465	0.54545	5.e-002	6.2832
14109	6.2465	0.27273	0.	0.10638
14110	6.1547	0.36364	0.	0.12963
14111	6.2465	0.36364	5.e-002	6.1424
14112	6.1547	0.18182	0.	0.13543
14113	6.2465	0.18182	5.e-002	4.3153
14114	6.2465	9.0909e-002	0.	0.13476
14115	6.0628	5.7273	0.	0.1169
14116	5.9709	5.8182	0.	0.14685
14117	6.0628	5.8182	5.e-002	4.6959
14118	6.0628	5.9091	0.	0.14127
14119	6.0628	5.5455	0.	8.5227e-002
14120	5.9709	5.6364	0.	0.14222
14121	6.0628	5.6364	5.e-002	6.2561
14122	6.0628	5.3636	0.	3.7635e-002
14123	5.9709	5.4545	0.	4.2698e-002
14124	6.0628	5.4545	5.e-002	6.3799
14125	6.0628	5.1818	0.	2.9884e-002
14126	5.9709	5.2727	0.	3.8504e-002
14127	6.0628	5.2727	5.e-002	6.401
14128	6.0628	5.	0.	2.0485e-002
14129	5.9709	5.0909	0.	2.515e-002
14130	6.0628	5.0909	5.e-002	6.4118
14131	6.0628	4.8182	0.	1.4442e-002
14132	5.9709	4.9091	0.	1.8286e-002
14133	6.0628	4.9091	5.e-002	6.4182
14134	6.0628	4.6364	0.	9.3561e-003
14135	5.9709	4.7273	0.	1.2215e-002
14136	6.0628	4.7273	5.e-002	6.4214
14137	6.0628	4.4545	0.	5.2406e-003
14138	5.9709	4.5455	0.	7.4718e-003
14139	6.0628	4.5455	5.e-002	6.4218
14140	6.0628	4.2727	0.	1.7943e-003
14141	5.9709	4.3636	0.	3.4918e-003
14142	6.0628	4.3636	5.e-002	6.4201
14143	6.0628	4.0909	0.	-1.0738e-003
14144	5.9709	4.1818	0.	1.8437e-004
14145	6.0628	4.1818	5.e-002	6.4168
14146	6.0628	3.9091	0.	-3.4393e-003
14147	5.9709	4.	0.	-2.5632e-003
14148	6.0628	4.	5.e-002	6.4126
14149	6.0628	3.7273	0.	-5.3411e-003
14150	5.9709	3.8182	0.	-4.8038e-003
14151	6.0628	3.8182	5.e-002	6.4081
14152	6.0628	3.5455	0.	-6.8026e-003
14153	5.9709	3.6364	0.	-6.57e-003
14154	6.0628	3.6364	5.e-002	6.4037
14155	6.0628	3.3636	0.	-7.8388e-003
14156	5.9709	3.4545	0.	-7.8809e-003
14157	6.0628	3.4545	5.e-002	6.4
14158	6.0628	3.1818	0.	-8.4584e-003
14159	5.9709	3.2727	0.	-8.7506e-003
14160	6.0628	3.2727	5.e-002	6.3974
14161	6.0628	3.	0.	-8.6646e-003
14162	5.9709	3.0909	0.	-9.1844e-003
14163	6.0628	3.0909	5.e-002	6.3959
14164	6.0628	2.8182	0.	-8.4583e-003
14165	5.9709	2.9091	0.	-9.1843e-003
14166	6.0628	2.9091	5.e-002	6.3959
14167	6.0628	2.6364	0.	-7.8386e-003
14168	5.9709	2.7273	0.	-8.7505e-003
14169	6.0628	2.7273	5.e-002	6.3974
14170	6.0628	2.4545	0.	-6.8024e-003
14171	5.9709	2.5455	0.	-7.8807e-003
14172	6.0628	2.5455	5.e-002	6.4
14173	6.0628	2.2727	0.	-5.3408e-003
14174	5.9709	2.3636	0.	-6.5698e-003
14175	6.0628	2.3636	5.e-002	6.4037
14176	6.0628	2.0909	0.	-3.4388e-003
14177	5.9709	2.1818	0.	-4.8033e-003
14178	6.0628	2.1818	5.e-002	6.408
14179	6.0628	1.9091	0.	-1.0732e-003
14180	5.9709	2.	0.	-2.5627e-003
14181	6.0628	2.	5.e-002	6.4126
14182	6.0628	1.7273	0.	1.7949e-003
14183	5.9709	1.8182	0.	1.8488e-004
14184	6.0628	1.8182	5.e-002	6.4168
14185	6.0628	1.5455	0.	5.2413e-003
14186	5.9709	1.6364	0.	3.4925e-003
14187	6.0628	1.6364	5.e-002	6.4201
14188	6.0628	1.3636	0.	9.357e-003
14189	5.9709	1.4545	0.	7.4724e-003
14190	6.0628	1.4545	5.e-002	6.4218
14191	6.0628	1.1818	0.	1.4443e-002
14192	5.9709	1.2727	0.	1.2216e-002
14193	6.0628	1.2727	5.e-002	6.4214
14194	6.0628	1.	0.	2.0486e-002
14195	5.9709	1.0909	0.	1.8286e-002
14196	6.0628	1.0909	5.e-002	6.4182
14197	6.0628	0.81818	0.	2.9885e-002
14198	5.9709	0.90909	0.	2.5152e-002
14199	6.0628	0.90909	5.e-002	6.4117
14200	6.0628	0.63636	0.	3.7636e-002
14201	5.9709	0.72727	0.	3.8505e-002
14202	6.0628	0.72727	5.e-002	6.401
14203	6.0628	0.45455	0.	8.5228e-002
14204	5.9709	0.54545	0.	4.2699e-002
14205	6.0628	0.54545	5.e-002	6.3798
14206	6.0628	0.27273	0.	0.1169
14207	5.9709	0.36364	0.	0.14222
14208	6.0628	0.36364	5.e-002	6.256
14209	5.9709	0.18182	0.	0.14685
14210	6.0628	0.18182	5.e-002	4.6959
14211	6.0628	9.0909e-002	0.	0.14127
14212	5.8791	5.7273	0.	0.12865
14213	5.7872	5.8182	0.	0.16046
14214	5.8791	5.8182	5.e-002	5.1071
14215	5.8791	5.9091	0.	0.14889
14216	5.8791	5.5455	0.	9.3632e-002
14217	5.7872	5.6364	0.	0.15597
14218	5.8791	5.6364	5.e-002	6.3794
14219	5.8791	5.3636	0.	4.1435e-002
14220	5.7872	5.4545	0.	4.7121e-002
14221	5.8791	5.4545	5.e-002	6.4849
14222	5.8791	5.1818	0.	3.2776e-002
14223	5.7872	5.2727	0.	4.2271e-002
14224	5.8791	5.2727	5.e-002	6.5049
14225	5.8791	5.	0.	2.2392e-002
14226	5.7872	5.0909	0.	2.755e-002
14227	5.8791	5.0909	5.e-002	6.5153
14228	5.8791	4.8182	0.	1.5705e-002
14229	5.7872	4.9091	0.	1.9949e-002
14230	5.8791	4.9091	5.e-002	6.5212
14231	5.8791	4.6364	0.	1.0085e-002
14232	5.7872	4.7273	0.	1.3246e-002
14233	5.8791	4.7273	5.e-002	6.5234
14234	5.8791	4.4545	0.	5.5414e-003
14235	5.7872	4.5455	0.	8.0099e-003
14236	5.8791	4.5455	5.e-002	6.5225
14237	5.8791	4.2727	0.	1.7398e-003
14238	5.7872	4.3636	0.	3.6212e-003
14239	5.8791	4.3636	5.e-002	6.5194
14240	5.8791	4.0909	0.	-1.4216e-003
14241	5.7872	4.1818	0.	-2.3045e-005
14242	5.8791	4.1818	5.e-002	6.5146
14243	5.8791	3.9091	0.	-4.0271e-003
14244	5.7872	4.	0.	-3.048e-003
14245	5.8791	4.	5.e-002	6.5088
14246	5.8791	3.7273	0.	-6.1205e-003
14247	5.7872	3.8182	0.	-5.513e-003
14248	5.8791	3.8182	5.e-002	6.5029
14249	5.8791	3.5455	0.	-7.7283e-003
14250	5.7872	3.6364	0.	-7.4547e-003
14251	5.8791	3.6364	5.e-002	6.4972
14252	5.8791	3.3636	0.	-8.8677e-003
14253	5.7872	3.4545	0.	-8.8954e-003
14254	5.8791	3.4545	5.e-002	6.4925
14255	5.8791	3.1818	0.	-9.5488e-003
14256	5.7872	3.2727	0.	-9.8505e-003
14257	5.8791	3.2727	5.e-002	6.4891
14258	5.8791	3.	0.	-9.7754e-003
14259	5.7872	3.0909	0.	-1.0327e-002
14260	5.8791	3.0909	5.e-002	6.4874
14261	5.8791	2.8182	0.	-9.5487e-003
14262	5.7872	2.9091	0.	-1.0327e-002
14263	5.8791	2.9091	5.e-002	6.4873
14264	5.8791	2.6364	0.	-8.8676e-003
14265	5.7872	2.7273	0.	-9.8504e-003
14266	5.8791	2.7273	5.e-002	6.4891
14267	5.8791	2.4545	0.	-7.7281e-003
14268	5.7872	2.5455	0.	-8.8951e-003
14269	5.8791	2.5455	5.e-002	6.4925
14270	5.8791	2.2727	0.	-6.1202e-003
14271	5.7872	2.3636	0.	-7.4545e-003
14272	5.8791	2.3636	5.e-002	6.4972
14273	5.8791	2.0909	0.	-4.0267e-003
14274	5.7872	2.1818	0.	-5.5125e-003
14275	5.8791	2.1818	5.e-002	6.5029
14276	5.8791	1.9091	0.	-1.4212e-003
14277	5.7872	2.	0.	-3.0475e-003
14278	5.8791	2.	5.e-002	6.5088
14279	5.8791	1.7273	0.	1.7403e-003
14280	5.7872	1.8182	0.	-2.2657e-005
14281	5.8791	1.8182	5.e-002	6.5146
14282	5.8791	1.5455	0.	5.5421e-003
14283	5.7872	1.6364	0.	3.6219e-003
14284	5.8791	1.6364	5.e-002	6.5193
14285	5.8791	1.3636	0.	1.0086e-002
14286	5.7872	1.4545	0.	8.0104e-003
14287	5.8791	1.4545	5.e-002	6.5225
14288	5.8791	1.1818	0.	1.5705e-002
14289	5.7872	1.2727	0.	1.3246e-002
14290	5.8791	1.2727	5.e-002	6.5233
14291	5.8791	1.	0.	2.2393e-002
14292	5.7872	1.0909	0.	1.995e-002
14293	5.8791	1.0909	5.e-002	6.5211
14294	5.8791	0.81818	0.	3.2777e-002
14295	5.7872	0.90909	0.	2.7552e-002
14296	5.8791	0.90909	5.e-002	6.5153
14297	5.8791	0.63636	0.	4.1436e-002
14298	5.7872	0.72727	0.	4.2272e-002
14299	5.8791	0.72727	5.e-002	6.5049
14300	5.8791	0.45455	0.	9.3633e-002
14301	5.7872	0.54545	0.	4.7121e-002
14302	5.8791	0.54545	5.e-002	6.4848
14303	5.8791	0.27273	0.	0.12865
14304	5.7872	0.36364	0.	0.15597
14305	5.8791	0.36364	5.e-002	6.3794
14306	5.7872	0.18182	0.	0.16046
14307	5.8791	0.18182	5.e-002	5.107
14308	5.8791	9.0909e-002	0.	0.14889
14309	5.6953	5.7273	0.	0.14178
14310	5.6035	5.8182	0.	0.17655
14311	5.6953	5.8182	5.e-002	5.5511
14312	5.6953	5.9091	0.	0.1576
14313	5.6953	5.5455	0.	0.10281
14314	5.6035	5.6364	0.	0.17098
14315	5.6953	5.6364	5.e-002	6.5133
14316	5.6953	5.3636	0.	4.5602e-002
14317	5.6035	5.4545	0.	5.1986e-002
14318	5.6953	5.4545	5.e-002	6.5991
14319	5.6953	5.1818	0.	3.5944e-002
14320	5.6035	5.2727	0.	4.6397e-002
14321	5.6953	5.2727	5.e-002	6.6179
14322	5.6953	5.	0.	2.4488e-002
14323	5.6035	5.0909	0.	3.0187e-002
14324	5.6953	5.0909	5.e-002	6.6279
14325	5.6953	4.8182	0.	1.7097e-002
14326	5.6035	4.9091	0.	2.1782e-002
14327	5.6953	4.9091	5.e-002	6.6331
14328	5.6953	4.6364	0.	1.0898e-002
14329	5.6035	4.7273	0.	1.4389e-002
14330	5.6953	4.7273	5.e-002	6.6342
14331	5.6953	4.4545	0.	5.8878e-003
14332	5.6035	4.5455	0.	8.6175e-003
14333	5.6953	4.5455	5.e-002	6.632
14334	5.6953	4.2727	0.	1.7003e-003
14335	5.6035	4.3636	0.	3.7849e-003
14336	5.6953	4.3636	5.e-002	6.6271
14337	5.6953	4.0909	0.	-1.7791e-003
14338	5.6035	4.1818	0.	-2.2473e-004
14339	5.6953	4.1818	5.e-002	6.6206
14340	5.6953	3.9091	0.	-4.6445e-003
14341	5.6035	4.	0.	-3.5499e-003
14342	5.6953	4.	5.e-002	6.6131
14343	5.6953	3.7273	0.	-6.9449e-003
14344	5.6035	3.8182	0.	-6.2574e-003
14345	5.6953	3.8182	5.e-002	6.6055
14346	5.6953	3.5455	0.	-8.7107e-003
14347	5.6035	3.6364	0.	-8.3885e-003
14348	5.6953	3.6364	5.e-002	6.5985
14349	5.6953	3.3636	0.	-9.9615e-003
14350	5.6035	3.4545	0.	-9.9688e-003
14351	5.6953	3.4545	5.e-002	6.5926
14352	5.6953	3.1818	0.	-1.0709e-002
14353	5.6035	3.2727	0.	-1.1016e-002
14354	5.6953	3.2727	5.e-002	6.5884
14355	5.6953	3.	0.	-1.0957e-002
14356	5.6035	3.0909	0.	-1.1538e-002
14357	5.6953	3.0909	5.e-002	6.5862
14358	5.6953	2.8182	0.	-1.0709e-002
14359	5.6035	2.9091	0.	-1.1538e-002
14360	5.6953	2.9091	5.e-002	6.5862
14361	5.6953	2.6364	0.	-9.9613e-003
14362	5.6035	2.7273	0.	-1.1016e-002
14363	5.6953	2.7273	5.e-002	6.5884
14364	5.6953	2.4545	0.	-8.7105e-003
14365	5.6035	2.5455	0.	-9.9685e-003
14366	5.6953	2.5455	5.e-002	6.5926
14367	5.6953	2.2727	0.	-6.9445e-003
14368	5.6035	2.3636	0.	-8.3883e-003
14369	5.6953	2.3636	5.e-002	6.5984
14370	5.6953	2.0909	0.	-4.6439e-003
14371	5.6035	2.1818	0.	-6.2568e-003
14372	5.6953	2.1818	5.e-002	6.6055
14373	5.6953	1.9091	0.	-1.7786e-003
14374	5.6035	2.	0.	-3.5494e-003
14375	5.6953	2.	5.e-002	6.6131
14376	5.6953	1.7273	0.	1.7008e-003
14377	5.6035	1.8182	0.	-2.2426e-004
14378	5.6953	1.8182	5.e-002	6.6206
14379	5.6953	1.5455	0.	5.8884e-003
14380	5.6035	1.6364	0.	3.7854e-003
14381	5.6953	1.6364	5.e-002	6.6271
14382	5.6953	1.3636	0.	1.0898e-002
14383	5.6035	1.4545	0.	8.6181e-003
14384	5.6953	1.4545	5.e-002	6.6319
14385	5.6953	1.1818	0.	1.7098e-002
14386	5.6035	1.2727	0.	1.439e-002
14387	5.6953	1.2727	5.e-002	6.6341
14388	5.6953	1.	0.	2.4489e-002
14389	5.6035	1.0909	0.	2.1783e-002
14390	5.6953	1.0909	5.e-002	6.6331
14391	5.6953	0.81818	0.	3.5945e-002
14392	5.6035	0.90909	0.	3.0189e-002
14393	5.6953	0.90909	5.e-002	6.6279
14394	5.6953	0.63636	0.	4.5603e-002
14395	5.6035	0.72727	0.	4.6397e-002
14396	5.6953	0.72727	5.e-002	6.6179
14397	5.6953	0.45455	0.	0.10281
14398	5.6035	0.54545	0.	5.1987e-002
14399	5.6953	0.54545	5.e-002	6.599
14400	5.6953	0.27273	0.	0.14179
14401	5.6035	0.36364	0.	0.17098
14402	5.6953	0.36364	5.e-002	6.5132
14403	5.6035	0.18182	0.	0.17655
14404	5.6953	0.18182	5.e-002	5.5511
14405	5.6953	9.0909e-002	0.	0.1576
14406	5.5116	5.7273	0.	0.15648
14407	5.4198	5.8182	0.	0.19552
14408	5.5116	5.8182	5.e-002	6.0302
14409	5.5116	5.9091	0.	0.16744
14410	5.5116	5.5455	0.	0.11285
14411	5.4198	5.6364	0.	0.1874
14412	5.5116	5.6364	5.e-002	6.6585
14413	5.5116	5.3636	0.	5.018e-002
14414	5.4198	5.4545	0.	5.7351e-002
14415	5.5116	5.4545	5.e-002	6.7233
14416	5.5116	5.1818	0.	3.9421e-002
14417	5.4198	5.2727	0.	5.0925e-002
14418	5.5116	5.2727	5.e-002	6.741
14419	5.5116	5.	0.	2.6795e-002
14420	5.4198	5.0909	0.	3.3091e-002
14421	5.5116	5.0909	5.e-002	6.7506
14422	5.5116	4.8182	0.	1.8638e-002
14423	5.4198	4.9091	0.	2.3808e-002
14424	5.5116	4.9091	5.e-002	6.755
14425	5.5116	4.6364	0.	1.1807e-002
14426	5.4198	4.7273	0.	1.5664e-002
14427	5.5116	4.7273	5.e-002	6.7548
14428	5.5116	4.4545	0.	6.2905e-003
14429	5.4198	4.5455	0.	9.3093e-003
14430	5.5116	4.5455	5.e-002	6.751
14431	5.5116	4.2727	0.	1.6843e-003
14432	5.4198	4.3636	0.	3.9947e-003
14433	5.5116	4.3636	5.e-002	6.7444
14434	5.5116	4.0909	0.	-2.1396e-003
14435	5.4198	4.1818	0.	-4.1079e-004
14436	5.5116	4.1818	5.e-002	6.7359
14437	5.5116	3.9091	0.	-5.2857e-003
14438	5.4198	4.	0.	-4.0605e-003
14439	5.5116	4.	5.e-002	6.7265
14440	5.5116	3.7273	0.	-7.8095e-003
14441	5.4198	3.8182	0.	-7.0292e-003
14442	5.5116	3.8182	5.e-002	6.7171
14443	5.5116	3.5455	0.	-9.7455e-003
14444	5.4198	3.6364	0.	-9.3642e-003
14445	5.5116	3.6364	5.e-002	6.7084
14446	5.5116	3.3636	0.	-1.1116e-002
14447	5.4198	3.4545	0.	-1.1094e-002
14448	5.5116	3.4545	5.e-002	6.7012
14449	5.5116	3.1818	0.	-1.1934e-002
14450	5.4198	3.2727	0.	-1.224e-002
14451	5.5116	3.2727	5.e-002	6.696
14452	5.5116	3.	0.	-1.2207e-002
14453	5.4198	3.0909	0.	-1.2811e-002
14454	5.5116	3.0909	5.e-002	6.6934
14455	5.5116	2.8182	0.	-1.1934e-002
14456	5.4198	2.9091	0.	-1.2811e-002
14457	5.5116	2.9091	5.e-002	6.6934
14458	5.5116	2.6364	0.	-1.1116e-002
14459	5.4198	2.7273	0.	-1.224e-002
14460	5.5116	2.7273	5.e-002	6.696
14461	5.5116	2.4545	0.	-9.7453e-003
14462	5.4198	2.5455	0.	-1.1094e-002
14463	5.5116	2.5455	5.e-002	6.7012
14464	5.5116	2.2727	0.	-7.8092e-003
14465	5.4198	2.3636	0.	-9.364e-003
14466	5.5116	2.3636	5.e-002	6.7084
14467	5.5116	2.0909	0.	-5.2852e-003
14468	5.4198	2.1818	0.	-7.0288e-003
14469	5.5116	2.1818	5.e-002	6.717
14470	5.5116	1.9091	0.	-2.1391e-003
14471	5.4198	2.	0.	-4.0601e-003
14472	5.5116	2.	5.e-002	6.7265
14473	5.5116	1.7273	0.	1.6848e-003
14474	5.4198	1.8182	0.	-4.1022e-004
14475	5.5116	1.8182	5.e-002	6.7359
14476	5.5116	1.5455	0.	6.2911e-003
14477	5.4198	1.6364	0.	3.9953e-003
14478	5.5116	1.6364	5.e-002	6.7443
14479	5.5116	1.3636	0.	1.1808e-002
14480	5.4198	1.4545	0.	9.31e-003
14481	5.5116	1.4545	5.e-002	6.751
14482	5.5116	1.1818	0.	1.8639e-002
14483	5.4198	1.2727	0.	1.5665e-002
14484	5.5116	1.2727	5.e-002	6.7548
14485	5.5116	1.	0.	2.6795e-002
14486	5.4198	1.0909	0.	2.3808e-002
14487	5.5116	1.0909	5.e-002	6.755
14488	5.5116	0.81818	0.	3.9422e-002
14489	5.4198	0.90909	0.	3.3093e-002
14490	5.5116	0.90909	5.e-002	6.7506
14491	5.5116	0.63636	0.	5.018e-002
14492	5.4198	0.72727	0.	5.0926e-002
14493	5.5116	0.72727	5.e-002	6.7409
14494	5.5116	0.45455	0.	0.11285
14495	5.4198	0.54545	0.	5.7351e-002
14496	5.5116	0.54545	5.e-002	6.7233
14497	5.5116	0.27273	0.	0.15648
14498	5.4198	0.36364	0.	0.1874
14499	5.5116	0.36364	5.e-002	6.6585
14500	5.4198	0.18182	0.	0.19552
14501	5.5116	0.18182	5.e-002	6.0301
14502	5.5116	9.0909e-002	0.	0.16744
14503	5.3279	5.7273	0.	0.17296
14504	5.236	5.8182	0.	0.21786
14505	5.3279	5.8182	5.e-002	6.5465
14506	5.3279	5.9091	0.	0.17844
14507	5.3279	5.5455	0.	0.12384
14508	5.236	5.6364	0.	0.20537
14509	5.3279	5.6364	5.e-002	6.8162
14510	5.3279	5.3636	0.	5.5221e-002
14511	5.236	5.4545	0.	6.3274e-002
14512	5.3279	5.4545	5.e-002	6.8586
14513	5.3279	5.1818	0.	4.3246e-002
14514	5.236	5.2727	0.	5.59e-002
14515	5.3279	5.2727	5.e-002	6.8751
14516	5.3279	5.	0.	2.9343e-002
14517	5.236	5.0909	0.	3.6293e-002
14518	5.3279	5.0909	5.e-002	6.8843
14519	5.3279	4.8182	0.	2.0351e-002
14520	5.236	4.9091	0.	2.6048e-002
14521	5.3279	4.9091	5.e-002	6.8879
14522	5.3279	4.6364	0.	1.2832e-002
14523	5.236	4.7273	0.	1.7086e-002
14524	5.3279	4.7273	5.e-002	6.8864
14525	5.3279	4.4545	0.	6.7649e-003
14526	5.236	4.5455	0.	1.0097e-002
14527	5.3279	4.5455	5.e-002	6.8809
14528	5.3279	4.2727	0.	1.7047e-003
14529	5.236	4.3636	0.	4.2588e-003
14530	5.3279	4.3636	5.e-002	6.8723
14531	5.3279	4.0909	0.	-2.4917e-003
14532	5.236	4.1818	0.	-5.7499e-004
14533	5.3279	4.1818	5.e-002	6.8617
14534	5.3279	3.9091	0.	-5.9406e-003
14535	5.236	4.	0.	-4.5748e-003
14536	5.3279	4.	5.e-002	6.8501
14537	5.3279	3.7273	0.	-8.7045e-003
14538	5.236	3.8182	0.	-7.8242e-003
14539	5.3279	3.8182	5.e-002	6.8386
14540	5.3279	3.5455	0.	-1.0823e-002
14541	5.236	3.6364	0.	-1.0377e-002
14542	5.3279	3.6364	5.e-002	6.8281
14543	5.3279	3.3636	0.	-1.2321e-002
14544	5.236	3.4545	0.	-1.2267e-002
14545	5.3279	3.4545	5.e-002	6.8195
14546	5.3279	3.1818	0.	-1.3216e-002
14547	5.236	3.2727	0.	-1.3518e-002
14548	5.3279	3.2727	5.e-002	6.8133
14549	5.3279	3.	0.	-1.3513e-002
14550	5.236	3.0909	0.	-1.4141e-002
14551	5.3279	3.0909	5.e-002	6.8101
14552	5.3279	2.8182	0.	-1.3216e-002
14553	5.236	2.9091	0.	-1.4141e-002
14554	5.3279	2.9091	5.e-002	6.8101
14555	5.3279	2.6364	0.	-1.2321e-002
14556	5.236	2.7273	0.	-1.3518e-002
14557	5.3279	2.7273	5.e-002	6.8133
14558	5.3279	2.4545	0.	-1.0823e-002
14559	5.236	2.5455	0.	-1.2267e-002
14560	5.3279	2.5455	5.e-002	6.8194
14561	5.3279	2.2727	0.	-8.7042e-003
14562	5.236	2.3636	0.	-1.0377e-002
14563	5.3279	2.3636	5.e-002	6.8281
14564	5.3279	2.0909	0.	-5.9402e-003
14565	5.236	2.1818	0.	-7.8238e-003
14566	5.3279	2.1818	5.e-002	6.8386
14567	5.3279	1.9091	0.	-2.4912e-003
14568	5.236	2.	0.	-4.5745e-003
14569	5.3279	2.	5.e-002	6.8501
14570	5.3279	1.7273	0.	1.7054e-003
14571	5.236	1.8182	0.	-5.7441e-004
14572	5.3279	1.8182	5.e-002	6.8617
14573	5.3279	1.5455	0.	6.7656e-003
14574	5.236	1.6364	0.	4.2594e-003
14575	5.3279	1.6364	5.e-002	6.8723
14576	5.3279	1.3636	0.	1.2832e-002
14577	5.236	1.4545	0.	1.0097e-002
14578	5.3279	1.4545	5.e-002	6.8809
14579	5.3279	1.1818	0.	2.0351e-002
14580	5.236	1.2727	0.	1.7087e-002
14581	5.3279	1.2727	5.e-002	6.8864
14582	5.3279	1.	0.	2.9345e-002
14583	5.236	1.0909	0.	2.6049e-002
14584	5.3279	1.0909	5.e-002	6.8878
14585	5.3279	0.81818	0.	4.3248e-002
14586	5.236	0.90909	0.	3.6294e-002
14587	5.3279	0.90909	5.e-002	6.8843
14588	5.3279	0.63636	0.	5.5222e-002
14589	5.236	0.72727	0.	5.5901e-002
14590	5.3279	0.72727	5.e-002	6.875
14591	5.3279	0.45455	0.	0.12384
14592	5.236	0.54545	0.	6.3274e-002
14593	5.3279	0.54545	5.e-002	6.8586
14594	5.3279	0.27273	0.	0.17296
14595	5.236	0.36364	0.	0.20537
14596	5.3279	0.36364	5.e-002	6.8161
14597	5.236	0.18182	0.	0.21786
14598	5.3279	0.18182	5.e-002	6.5465
14599	5.3279	9.0909e-002	0.	0.17845
14600	5.1442	5.7273	0.	0.19147
14601	5.0523	5.8182	0.	0.24416
14602	5.1442	5.8182	5.e-002	7.1025
14603	5.1442	5.9091	0.	0.19069
14604	5.1442	5.5455	0.	0.13589
14605	5.0523	5.6364	0.	0.22505
14606	5.1442	5.6364	5.e-002	6.9871
14607	5.1442	5.3636	0.	6.0772e-002
14608	5.0523	5.4545	0.	6.9817e-002
14609	5.1442	5.4545	5.e-002	7.006
14610	5.1442	5.1818	0.	4.7452e-002
14611	5.0523	5.2727	0.	6.1365e-002
14612	5.1442	5.2727	5.e-002	7.0212
14613	5.1442	5.	0.	3.2154e-002
14614	5.0523	5.0909	0.	3.9819e-002
14615	5.1442	5.0909	5.e-002	7.0303
14616	5.1442	4.8182	0.	2.2248e-002
14617	5.0523	4.9091	0.	2.8522e-002
14618	5.1442	4.9091	5.e-002	7.033
14619	5.1442	4.6364	0.	1.398e-002
14620	5.0523	4.7273	0.	1.8667e-002
14621	5.1442	4.7273	5.e-002	7.0302
14622	5.1442	4.4545	0.	7.3148e-003
14623	5.0523	4.5455	0.	1.0987e-002
14624	5.1442	4.5455	5.e-002	7.0229
14625	5.1442	4.2727	0.	1.7628e-003
14626	5.0523	4.3636	0.	4.5819e-003
14627	5.1442	4.3636	5.e-002	7.0122
14628	5.1442	4.0909	0.	-2.8356e-003
14629	5.0523	4.1818	0.	-7.1439e-004
14630	5.1442	4.1818	5.e-002	6.9992
14631	5.1442	3.9091	0.	-6.6099e-003
14632	5.0523	4.	0.	-5.0904e-003
14633	5.1442	4.	5.e-002	6.9852
14634	5.1442	3.7273	0.	-9.6309e-003
14635	5.0523	3.8182	0.	-8.6402e-003
14636	5.1442	3.8182	5.e-002	6.9715
14637	5.1442	3.5455	0.	-1.1944e-002
14638	5.0523	3.6364	0.	-1.1426e-002
14639	5.1442	3.6364	5.e-002	6.959
14640	5.1442	3.3636	0.	-1.3579e-002
14641	5.0523	3.4545	0.	-1.3485e-002
14642	5.1442	3.4545	5.e-002	6.9487
14643	5.1442	3.1818	0.	-1.4554e-002
14644	5.0523	3.2727	0.	-1.4847e-002
14645	5.1442	3.2727	5.e-002	6.9414
14646	5.1442	3.	0.	-1.4878e-002
14647	5.0523	3.0909	0.	-1.5525e-002
14648	5.1442	3.0909	5.e-002	6.9376
14649	5.1442	2.8182	0.	-1.4554e-002
14650	5.0523	2.9091	0.	-1.5525e-002
14651	5.1442	2.9091	5.e-002	6.9376
14652	5.1442	2.6364	0.	-1.3578e-002
14653	5.0523	2.7273	0.	-1.4847e-002
14654	5.1442	2.7273	5.e-002	6.9414
14655	5.1442	2.4545	0.	-1.1944e-002
14656	5.0523	2.5455	0.	-1.3485e-002
14657	5.1442	2.5455	5.e-002	6.9487
14658	5.1442	2.2727	0.	-9.6306e-003
14659	5.0523	2.3636	0.	-1.1425e-002
14660	5.1442	2.3636	5.e-002	6.9589
14661	5.1442	2.0909	0.	-6.6096e-003
14662	5.0523	2.1818	0.	-8.6399e-003
14663	5.1442	2.1818	5.e-002	6.9714
14664	5.1442	1.9091	0.	-2.8351e-003
14665	5.0523	2.	0.	-5.0901e-003
14666	5.1442	2.	5.e-002	6.9852
14667	5.1442	1.7273	0.	1.7635e-003
14668	5.0523	1.8182	0.	-7.1384e-004
14669	5.1442	1.8182	5.e-002	6.9992
14670	5.1442	1.5455	0.	7.3155e-003
14671	5.0523	1.6364	0.	4.5825e-003
14672	5.1442	1.6364	5.e-002	7.0121
14673	5.1442	1.3636	0.	1.398e-002
14674	5.0523	1.4545	0.	1.0988e-002
14675	5.1442	1.4545	5.e-002	7.0229
14676	5.1442	1.1818	0.	2.2249e-002
14677	5.0523	1.2727	0.	1.8668e-002
14678	5.1442	1.2727	5.e-002	7.0302
14679	5.1442	1.	0.	3.2155e-002
14680	5.0523	1.0909	0.	2.8522e-002
14681	5.1442	1.0909	5.e-002	7.033
14682	5.1442	0.81818	0.	4.7453e-002
14683	5.0523	0.90909	0.	3.9821e-002
14684	5.1442	0.90909	5.e-002	7.0303
14685	5.1442	0.63636	0.	6.0772e-002
14686	5.0523	0.72727	0.	6.1366e-002
14687	5.1442	0.72727	5.e-002	7.0212
14688	5.1442	0.45455	0.	0.13589
14689	5.0523	0.54545	0.	6.9817e-002
14690	5.1442	0.54545	5.e-002	7.006
14691	5.1442	0.27273	0.	0.19147
14692	5.0523	0.36364	0.	0.22505
14693	5.1442	0.36364	5.e-002	6.987
14694	5.0523	0.18182	0.	0.24417
14695	5.1442	0.18182	5.e-002	7.1024
14696	5.1442	9.0909e-002	0.	0.19069
14697	4.9605	5.7273	0.	0.21231
14698	4.8686	5.8182	0.	0.2752
14699	4.9605	5.8182	5.e-002	7.7006
14700	4.9605	5.9091	0.	0.20425
14701	4.9605	5.5455	0.	0.1491
14702	4.8686	5.6364	0.	0.24665
14703	4.9605	5.6364	5.e-002	7.1722
14704	4.9605	5.3636	0.	6.6887e-002
14705	4.8686	5.4545	0.	7.7059e-002
14706	4.9605	5.4545	5.e-002	7.1665
14707	4.9605	5.1818	0.	5.2077e-002
14708	4.8686	5.2727	0.	6.7378e-002
14709	4.9605	5.2727	5.e-002	7.1807
14710	4.9605	5.	0.	3.5253e-002
14711	4.8686	5.0909	0.	4.371e-002
14712	4.9605	5.0909	5.e-002	7.1897
14713	4.9605	4.8182	0.	2.4348e-002
14714	4.8686	4.9091	0.	3.1258e-002
14715	4.9605	4.9091	5.e-002	7.1918
14716	4.9605	4.6364	0.	1.5263e-002
14717	4.8686	4.7273	0.	2.043e-002
14718	4.9605	4.7273	5.e-002	7.1876
14719	4.9605	4.4545	0.	7.9487e-003
14720	4.8686	4.5455	0.	1.1998e-002
14721	4.9605	4.5455	5.e-002	7.1784
14722	4.9605	4.2727	0.	1.865e-003
14723	4.8686	4.3636	0.	4.9783e-003
14724	4.9605	4.3636	5.e-002	7.1654
14725	4.9605	4.0909	0.	-3.1661e-003
14726	4.8686	4.1818	0.	-8.1619e-004
14727	4.9605	4.1818	5.e-002	7.15
14728	4.9605	3.9091	0.	-7.2889e-003
14729	4.8686	4.	0.	-5.5951e-003
14730	4.9605	4.	5.e-002	7.1334
14731	4.9605	3.7273	0.	-1.0583e-002
14732	4.8686	3.8182	0.	-9.4643e-003
14733	4.9605	3.8182	5.e-002	7.1172
14734	4.9605	3.5455	0.	-1.3102e-002
14735	4.8686	3.6364	0.	-1.2495e-002
14736	4.9605	3.6364	5.e-002	7.1025
14737	4.9605	3.3636	0.	-1.4881e-002
14738	4.8686	3.4545	0.	-1.4733e-002
14739	4.9605	3.4545	5.e-002	7.0905
14740	4.9605	3.1818	0.	-1.5941e-002
14741	4.8686	3.2727	0.	-1.6211e-002
14742	4.9605	3.2727	5.e-002	7.0819
14743	4.9605	3.	0.	-1.6293e-002
14744	4.8686	3.0909	0.	-1.6946e-002
14745	4.9605	3.0909	5.e-002	7.0775
14746	4.9605	2.8182	0.	-1.5941e-002
14747	4.8686	2.9091	0.	-1.6946e-002
14748	4.9605	2.9091	5.e-002	7.0775
14749	4.9605	2.6364	0.	-1.4881e-002
14750	4.8686	2.7273	0.	-1.6211e-002
14751	4.9605	2.7273	5.e-002	7.082
14752	4.9605	2.4545	0.	-1.3102e-002
14753	4.8686	2.5455	0.	-1.4733e-002
14754	4.9605	2.5455	5.e-002	7.0905
14755	4.9605	2.2727	0.	-1.0583e-002
14756	4.8686	2.3636	0.	-1.2495e-002
14757	4.9605	2.3636	5.e-002	7.1025
14758	4.9605	2.0909	0.	-7.2885e-003
14759	4.8686	2.1818	0.	-9.4641e-003
14760	4.9605	2.1818	5.e-002	7.1172
14761	4.9605	1.9091	0.	-3.1657e-003
14762	4.8686	2.	0.	-5.5947e-003
14763	4.9605	2.	5.e-002	7.1334
14764	4.9605	1.7273	0.	1.8655e-003
14765	4.8686	1.8182	0.	-8.1563e-004
14766	4.9605	1.8182	5.e-002	7.15
14767	4.9605	1.5455	0.	7.9493e-003
14768	4.8686	1.6364	0.	4.979e-003
14769	4.9605	1.6364	5.e-002	7.1654
14770	4.9605	1.3636	0.	1.5264e-002
14771	4.8686	1.4545	0.	1.1999e-002
14772	4.9605	1.4545	5.e-002	7.1784
14773	4.9605	1.1818	0.	2.4348e-002
14774	4.8686	1.2727	0.	2.043e-002
14775	4.9605	1.2727	5.e-002	7.1876
14776	4.9605	1.	0.	3.5254e-002
14777	4.8686	1.0909	0.	3.1259e-002
14778	4.9605	1.0909	5.e-002	7.1917
14779	4.9605	0.81818	0.	5.2078e-002
14780	4.8686	0.90909	0.	4.3711e-002
14781	4.9605	0.90909	5.e-002	7.1897
14782	4.9605	0.63636	0.	6.6887e-002
14783	4.8686	0.72727	0.	6.7378e-002
14784	4.9605	0.72727	5.e-002	7.1807
14785	4.9605	0.45455	0.	0.1491
14786	4.8686	0.54545	0.	7.7059e-002
14787	4.9605	0.54545	5.e-002	7.1665
14788	4.9605	0.27273	0.	0.21231
14789	4.8686	0.36364	0.	0.24665
14790	4.9605	0.36364	5.e-002	7.1722
14791	4.8686	0.18182	0.	0.2752
14792	4.9605	0.18182	5.e-002	7.7005
14793	4.9605	9.0909e-002	0.	0.20425
14794	4.7767	5.7273	0.	0.23584
14795	4.6849	5.8182	0.	0.31192
14796	4.7767	5.8182	5.e-002	8.3432
14797	4.7767	5.9091	0.	0.21927
14798	4.7767	5.5455	0.	0.16362
14799	4.6849	5.6364	0.	0.27037
14800	4.7767	5.6364	5.e-002	7.3727
14801	4.7767	5.3636	0.	7.3643e-002
14802	4.6849	5.4545	0.	8.509e-002
14803	4.7767	5.4545	5.e-002	7.3413
14804	4.7767	5.1818	0.	5.7178e-002
14805	4.6849	5.2727	0.	7.4004e-002
14806	4.7767	5.2727	5.e-002	7.3549
14807	4.7767	5.	0.	3.8681e-002
14808	4.6849	5.0909	0.	4.8011e-002
14809	4.7767	5.0909	5.e-002	7.3641
14810	4.7767	4.8182	0.	2.6683e-002
14811	4.6849	4.9091	0.	3.4291e-002
14812	4.7767	4.9091	5.e-002	7.3657
14813	4.7767	4.6364	0.	1.6708e-002
14814	4.6849	4.7273	0.	2.2398e-002
14815	4.7767	4.7273	5.e-002	7.3602
14816	4.7767	4.4545	0.	8.6889e-003
14817	4.6849	4.5455	0.	1.3149e-002
14818	4.7767	4.5455	5.e-002	7.3491
14819	4.7767	4.2727	0.	2.0313e-003
14820	4.6849	4.3636	0.	5.4651e-003
14821	4.7767	4.3636	5.e-002	7.3338
14822	4.7767	4.0909	0.	-3.4636e-003
14823	4.6849	4.1818	0.	-8.6436e-004
14824	4.7767	4.1818	5.e-002	7.3157
14825	4.7767	3.9091	0.	-7.9571e-003
14826	4.6849	4.	0.	-6.0723e-003
14827	4.7767	4.	5.e-002	7.2964
14828	4.7767	3.7273	0.	-1.1541e-002
14829	4.6849	3.8182	0.	-1.0279e-002
14830	4.7767	3.8182	5.e-002	7.2776
14831	4.7767	3.5455	0.	-1.4276e-002
14832	4.6849	3.6364	0.	-1.3567e-002
14833	4.7767	3.6364	5.e-002	7.2605
14834	4.7767	3.3636	0.	-1.6205e-002
14835	4.6849	3.4545	0.	-1.599e-002
14836	4.7767	3.4545	5.e-002	7.2466
14837	4.7767	3.1818	0.	-1.7352e-002
14838	4.6849	3.2727	0.	-1.7588e-002
14839	4.7767	3.2727	5.e-002	7.2368
14840	4.7767	3.	0.	-1.7734e-002
14841	4.6849	3.0909	0.	-1.8382e-002
14842	4.7767	3.0909	5.e-002	7.2317
14843	4.7767	2.8182	0.	-1.7352e-002
14844	4.6849	2.9091	0.	-1.8382e-002
14845	4.7767	2.9091	5.e-002	7.2317
14846	4.7767	2.6364	0.	-1.6204e-002
14847	4.6849	2.7273	0.	-1.7588e-002
14848	4.7767	2.7273	5.e-002	7.2368
14849	4.7767	2.4545	0.	-1.4276e-002
14850	4.6849	2.5455	0.	-1.599e-002
14851	4.7767	2.5455	5.e-002	7.2466
14852	4.7767	2.2727	0.	-1.1541e-002
14853	4.6849	2.3636	0.	-1.3567e-002
14854	4.7767	2.3636	5.e-002	7.2605
14855	4.7767	2.0909	0.	-7.9568e-003
14856	4.6849	2.1818	0.	-1.0279e-002
14857	4.7767	2.1818	5.e-002	7.2775
14858	4.7767	1.9091	0.	-3.4631e-003
14859	4.6849	2.	0.	-6.0719e-003
14860	4.7767	2.	5.e-002	7.2964
14861	4.7767	1.7273	0.	2.032e-003
14862	4.6849	1.8182	0.	-8.6384e-004
14863	4.7767	1.8182	5.e-002	7.3157
14864	4.7767	1.5455	0.	8.6895e-003
14865	4.6849	1.6364	0.	5.4657e-003
14866	4.7767	1.6364	5.e-002	7.3338
14867	4.7767	1.3636	0.	1.6709e-002
14868	4.6849	1.4545	0.	1.315e-002
14869	4.7767	1.4545	5.e-002	7.3492
14870	4.7767	1.1818	0.	2.6684e-002
14871	4.6849	1.2727	0.	2.2399e-002
14872	4.7767	1.2727	5.e-002	7.3602
14873	4.7767	1.	0.	3.8682e-002
14874	4.6849	1.0909	0.	3.4292e-002
14875	4.7767	1.0909	5.e-002	7.3656
14876	4.7767	0.81818	0.	5.7178e-002
14877	4.6849	0.90909	0.	4.8012e-002
14878	4.7767	0.90909	5.e-002	7.364
14879	4.7767	0.63636	0.	7.3644e-002
14880	4.6849	0.72727	0.	7.4004e-002
14881	4.7767	0.72727	5.e-002	7.3549
14882	4.7767	0.45455	0.	0.16362
14883	4.6849	0.54545	0.	8.5091e-002
14884	4.7767	0.54545	5.e-002	7.3413
14885	4.7767	0.27273	0.	0.23584
14886	4.6849	0.36364	0.	0.27037
14887	4.7767	0.36364	5.e-002	7.3727
14888	4.6849	0.18182	0.	0.31192
14889	4.7767	0.18182	5.e-002	8.3432
14890	4.7767	9.0909e-002	0.	0.21927
14891	4.593	5.7273	0.	0.26247
14892	4.5012	5.8182	0.	0.35551
14893	4.593	5.8182	5.e-002	9.0328
14894	4.593	5.9091	0.	0.23588
14895	4.593	5.5455	0.	0.1796
14896	4.5012	5.6364	0.	0.29647
14897	4.593	5.6364	5.e-002	7.5894
14898	4.593	5.3636	0.	8.1115e-002
14899	4.5012	5.4545	0.	9.4007e-002
14900	4.593	5.4545	5.e-002	7.5318
14901	4.593	5.1818	0.	6.2805e-002
14902	4.5012	5.2727	0.	8.1308e-002
14903	4.593	5.2727	5.e-002	7.545
14904	4.593	5.	0.	4.2475e-002
14905	4.5012	5.0909	0.	5.2761e-002
14906	4.593	5.0909	5.e-002	7.5549
14907	4.593	4.8182	0.	2.9278e-002
14908	4.5012	4.9091	0.	3.7647e-002
14909	4.593	4.9091	5.e-002	7.5563
14910	4.593	4.6364	0.	1.8333e-002
14911	4.5012	4.7273	0.	2.4591e-002
14912	4.593	4.7273	5.e-002	7.5498
14913	4.593	4.4545	0.	9.5496e-003
14914	4.5012	4.5455	0.	1.4453e-002
14915	4.593	4.5455	5.e-002	7.5369
14916	4.593	4.2727	0.	2.2745e-003
14917	4.5012	4.3636	0.	6.0523e-003
14918	4.593	4.3636	5.e-002	7.5191
14919	4.593	4.0909	0.	-3.7154e-003
14920	4.5012	4.1818	0.	-8.4879e-004
14921	4.593	4.1818	5.e-002	7.4983
14922	4.593	3.9091	0.	-8.601e-003
14923	4.5012	4.	0.	-6.5105e-003
14924	4.593	4.	5.e-002	7.4762
14925	4.593	3.7273	0.	-1.2488e-002
14926	4.5012	3.8182	0.	-1.107e-002
14927	4.593	3.8182	5.e-002	7.4546
14928	4.593	3.5455	0.	-1.5448e-002
14929	4.5012	3.6364	0.	-1.4624e-002
14930	4.593	3.6364	5.e-002	7.4352
14931	4.593	3.3636	0.	-1.753e-002
14932	4.5012	3.4545	0.	-1.7236e-002
14933	4.593	3.4545	5.e-002	7.4193
14934	4.593	3.1818	0.	-1.8768e-002
14935	4.5012	3.2727	0.	-1.8956e-002
14936	4.593	3.2727	5.e-002	7.408
14937	4.593	3.	0.	-1.9179e-002
14938	4.5012	3.0909	0.	-1.9809e-002
14939	4.593	3.0909	5.e-002	7.4022
14940	4.593	2.8182	0.	-1.8768e-002
14941	4.5012	2.9091	0.	-1.9809e-002
14942	4.593	2.9091	5.e-002	7.4022
14943	4.593	2.6364	0.	-1.753e-002
14944	4.5012	2.7273	0.	-1.8956e-002
14945	4.593	2.7273	5.e-002	7.408
14946	4.593	2.4545	0.	-1.5447e-002
14947	4.5012	2.5455	0.	-1.7236e-002
14948	4.593	2.5455	5.e-002	7.4193
14949	4.593	2.2727	0.	-1.2487e-002
14950	4.5012	2.3636	0.	-1.4623e-002
14951	4.593	2.3636	5.e-002	7.4352
14952	4.593	2.0909	0.	-8.6006e-003
14953	4.5012	2.1818	0.	-1.1069e-002
14954	4.593	2.1818	5.e-002	7.4546
14955	4.593	1.9091	0.	-3.715e-003
14956	4.5012	2.	0.	-6.51e-003
14957	4.593	2.	5.e-002	7.4762
14958	4.593	1.7273	0.	2.2749e-003
14959	4.5012	1.8182	0.	-8.4842e-004
14960	4.593	1.8182	5.e-002	7.4983
14961	4.593	1.5455	0.	9.5501e-003
14962	4.5012	1.6364	0.	6.0529e-003
14963	4.593	1.6364	5.e-002	7.5192
14964	4.593	1.3636	0.	1.8334e-002
14965	4.5012	1.4545	0.	1.4454e-002
14966	4.593	1.4545	5.e-002	7.5369
14967	4.593	1.1818	0.	2.9279e-002
14968	4.5012	1.2727	0.	2.4591e-002
14969	4.593	1.2727	5.e-002	7.5498
14970	4.593	1.	0.	4.2476e-002
14971	4.5012	1.0909	0.	3.7648e-002
14972	4.593	1.0909	5.e-002	7.5562
14973	4.593	0.81818	0.	6.2806e-002
14974	4.5012	0.90909	0.	5.2763e-002
14975	4.593	0.90909	5.e-002	7.5549
14976	4.593	0.63636	0.	8.1115e-002
14977	4.5012	0.72727	0.	8.1308e-002
14978	4.593	0.72727	5.e-002	7.545
14979	4.593	0.45455	0.	0.1796
14980	4.5012	0.54545	0.	9.4007e-002
14981	4.593	0.54545	5.e-002	7.5317
14982	4.593	0.27273	0.	0.26247
14983	4.5012	0.36364	0.	0.29647
14984	4.593	0.36364	5.e-002	7.5894
14985	4.5012	0.18182	0.	0.35551
14986	4.593	0.18182	5.e-002	9.0328
14987	4.593	9.0909e-002	0.	0.23589
14988	4.4093	5.7273	0.	0.2927
14989	4.3174	5.8182	0.	0.40748
14990	4.4093	5.8182	5.e-002	9.7717
14991	4.4093	5.9091	0.	0.25427
14992	4.4093	5.5455	0.	0.19719
14993	4.3174	5.6364	0.	0.32523
14994	4.4093	5.6364	5.e-002	7.8234
14995	4.4093	5.3636	0.	8.9379e-002
14996	4.3174	5.4545	0.	0.10392
14997	4.4093	5.4545	5.e-002	7.739
14998	4.4093	5.1818	0.	6.9009e-002
14999	4.3174	5.2727	0.	8.9361e-002
15000	4.4093	5.2727	5.e-002	7.7527
15001	4.4093	5.	0.	4.6664e-002
15002	4.3174	5.0909	0.	5.8007e-002
15003	4.4093	5.0909	5.e-002	7.764
15004	4.4093	4.8182	0.	3.2153e-002
15005	4.3174	4.9091	0.	4.1356e-002
15006	4.4093	4.9091	5.e-002	7.7656
15007	4.4093	4.6364	0.	2.015e-002
15008	4.3174	4.7273	0.	2.7027e-002
15009	4.4093	4.7273	5.e-002	7.7584
15010	4.4093	4.4545	0.	1.0539e-002
15011	4.3174	4.5455	0.	1.5924e-002
15012	4.4093	4.5455	5.e-002	7.7438
15013	4.4093	4.2727	0.	2.6017e-003
15014	4.3174	4.3636	0.	6.7519e-003
15015	4.4093	4.3636	5.e-002	7.7238
15016	4.4093	4.0909	0.	-3.9128e-003
15017	4.3174	4.1818	0.	-7.5679e-004
15018	4.4093	4.1818	5.e-002	7.7002
15019	4.4093	3.9091	0.	-9.209e-003
15020	4.3174	4.	0.	-6.8938e-003
15021	4.4093	4.	5.e-002	7.6752
15022	4.4093	3.7273	0.	-1.3409e-002
15023	4.3174	3.8182	0.	-1.1817e-002
15024	4.4093	3.8182	5.e-002	7.6509
15025	4.4093	3.5455	0.	-1.6597e-002
15026	4.3174	3.6364	0.	-1.5641e-002
15027	4.4093	3.6364	5.e-002	7.6289
15028	4.4093	3.3636	0.	-1.8836e-002
15029	4.3174	3.4545	0.	-1.8444e-002
15030	4.4093	3.4545	5.e-002	7.611
15031	4.4093	3.1818	0.	-2.0164e-002
15032	4.3174	3.2727	0.	-2.0284e-002
15033	4.4093	3.2727	5.e-002	7.5983
15034	4.4093	3.	0.	-2.0605e-002
15035	4.3174	3.0909	0.	-2.1195e-002
15036	4.4093	3.0909	5.e-002	7.5918
15037	4.4093	2.8182	0.	-2.0164e-002
15038	4.3174	2.9091	0.	-2.1195e-002
15039	4.4093	2.9091	5.e-002	7.5918
15040	4.4093	2.6364	0.	-1.8836e-002
15041	4.3174	2.7273	0.	-2.0283e-002
15042	4.4093	2.7273	5.e-002	7.5983
15043	4.4093	2.4545	0.	-1.6597e-002
15044	4.3174	2.5455	0.	-1.8443e-002
15045	4.4093	2.5455	5.e-002	7.611
15046	4.4093	2.2727	0.	-1.3408e-002
15047	4.3174	2.3636	0.	-1.564e-002
15048	4.4093	2.3636	5.e-002	7.6289
15049	4.4093	2.0909	0.	-9.2085e-003
15050	4.3174	2.1818	0.	-1.1817e-002
15051	4.4093	2.1818	5.e-002	7.6509
15052	4.4093	1.9091	0.	-3.9124e-003
15053	4.3174	2.	0.	-6.8933e-003
15054	4.4093	2.	5.e-002	7.6752
15055	4.4093	1.7273	0.	2.6023e-003
15056	4.3174	1.8182	0.	-7.5628e-004
15057	4.4093	1.8182	5.e-002	7.7002
15058	4.4093	1.5455	0.	1.054e-002
15059	4.3174	1.6364	0.	6.7526e-003
15060	4.4093	1.6364	5.e-002	7.7238
15061	4.4093	1.3636	0.	2.0151e-002
15062	4.3174	1.4545	0.	1.5925e-002
15063	4.4093	1.4545	5.e-002	7.7438
15064	4.4093	1.1818	0.	3.2153e-002
15065	4.3174	1.2727	0.	2.7028e-002
15066	4.4093	1.2727	5.e-002	7.7583
15067	4.4093	1.	0.	4.6665e-002
15068	4.3174	1.0909	0.	4.1357e-002
15069	4.4093	1.0909	5.e-002	7.7656
15070	4.4093	0.81818	0.	6.901e-002
15071	4.3174	0.90909	0.	5.8008e-002
15072	4.4093	0.90909	5.e-002	7.7639
15073	4.4093	0.63636	0.	8.938e-002
15074	4.3174	0.72727	0.	8.9362e-002
15075	4.4093	0.72727	5.e-002	7.7527
15076	4.4093	0.45455	0.	0.19719
15077	4.3174	0.54545	0.	0.10392
15078	4.4093	0.54545	5.e-002	7.739
15079	4.4093	0.27273	0.	0.29271
15080	4.3174	0.36364	0.	0.32523
15081	4.4093	0.36364	5.e-002	7.8234
15082	4.3174	0.18182	0.	0.40749
15083	4.4093	0.18182	5.e-002	9.7717
15084	4.4093	9.0909e-002	0.	0.25427
15085	4.2256	5.7273	0.	0.32714
15086	4.1337	5.8182	0.	0.4698
15087	4.2256	5.8182	5.e-002	10.562
15088	4.2256	5.9091	0.	0.27466
15089	4.2256	5.5455	0.	0.21659
15090	4.1337	5.6364	0.	0.35698
15091	4.2256	5.6364	5.e-002	8.0757
15092	4.2256	5.3636	0.	9.8531e-002
15093	4.1337	5.4545	0.	0.11495
15094	4.2256	5.4545	5.e-002	7.9647
15095	4.2256	5.1818	0.	7.5854e-002
15096	4.1337	5.2727	0.	9.8256e-002
15097	4.2256	5.2727	5.e-002	7.9799
15098	4.2256	5.	0.	5.129e-002
15099	4.1337	5.0909	0.	6.3807e-002
15100	4.2256	5.0909	5.e-002	7.9932
15101	4.2256	4.8182	0.	3.5335e-002
15102	4.1337	4.9091	0.	4.5459e-002
15103	4.2256	4.9091	5.e-002	7.9958
15104	4.2256	4.6364	0.	2.2179e-002
15105	4.1337	4.7273	0.	2.9736e-002
15106	4.2256	4.7273	5.e-002	7.9883
15107	4.2256	4.4545	0.	1.1674e-002
15108	4.1337	4.5455	0.	1.7585e-002
15109	4.2256	4.5455	5.e-002	7.9724
15110	4.2256	4.2727	0.	3.03e-003
15111	4.1337	4.3636	0.	7.5871e-003
15112	4.2256	4.3636	5.e-002	7.9502
15113	4.2256	4.0909	0.	-4.0365e-003
15114	4.1337	4.1818	0.	-5.625e-004
15115	4.2256	4.1818	5.e-002	7.924
15116	4.2256	3.9091	0.	-9.7569e-003
15117	4.1337	4.	0.	-7.1915e-003
15118	4.2256	4.	5.e-002	7.8963
15119	4.2256	3.7273	0.	-1.4275e-002
15120	4.1337	3.8182	0.	-1.2484e-002
15121	4.2256	3.8182	5.e-002	7.8691
15122	4.2256	3.5455	0.	-1.7692e-002
15123	4.1337	3.6364	0.	-1.6575e-002
15124	4.2256	3.6364	5.e-002	7.8447
15125	4.2256	3.3636	0.	-2.0084e-002
15126	4.1337	3.4545	0.	-1.9563e-002
15127	4.2256	3.4545	5.e-002	7.8248
15128	4.2256	3.1818	0.	-2.15e-002
15129	4.1337	3.2727	0.	-2.1518e-002
15130	4.2256	3.2727	5.e-002	7.8107
15131	4.2256	3.	0.	-2.1969e-002
15132	4.1337	3.0909	0.	-2.2484e-002
15133	4.2256	3.0909	5.e-002	7.8035
15134	4.2256	2.8182	0.	-2.15e-002
15135	4.1337	2.9091	0.	-2.2484e-002
15136	4.2256	2.9091	5.e-002	7.8035
15137	4.2256	2.6364	0.	-2.0084e-002
15138	4.1337	2.7273	0.	-2.1518e-002
15139	4.2256	2.7273	5.e-002	7.8107
15140	4.2256	2.4545	0.	-1.7692e-002
15141	4.1337	2.5455	0.	-1.9562e-002
15142	4.2256	2.5455	5.e-002	7.8248
15143	4.2256	2.2727	0.	-1.4274e-002
15144	4.1337	2.3636	0.	-1.6575e-002
15145	4.2256	2.3636	5.e-002	7.8447
15146	4.2256	2.0909	0.	-9.7566e-003
15147	4.1337	2.1818	0.	-1.2483e-002
15148	4.2256	2.1818	5.e-002	7.8691
15149	4.2256	1.9091	0.	-4.0359e-003
15150	4.1337	2.	0.	-7.1911e-003
15151	4.2256	2.	5.e-002	7.8962
15152	4.2256	1.7273	0.	3.0305e-003
15153	4.1337	1.8182	0.	-5.6194e-004
15154	4.2256	1.8182	5.e-002	7.924
15155	4.2256	1.5455	0.	1.1675e-002
15156	4.1337	1.6364	0.	7.5876e-003
15157	4.2256	1.6364	5.e-002	7.9502
15158	4.2256	1.3636	0.	2.2179e-002
15159	4.1337	1.4545	0.	1.7586e-002
15160	4.2256	1.4545	5.e-002	7.9724
15161	4.2256	1.1818	0.	3.5335e-002
15162	4.1337	1.2727	0.	2.9737e-002
15163	4.2256	1.2727	5.e-002	7.9883
15164	4.2256	1.	0.	5.129e-002
15165	4.1337	1.0909	0.	4.546e-002
15166	4.2256	1.0909	5.e-002	7.9958
15167	4.2256	0.81818	0.	7.5855e-002
15168	4.1337	0.90909	0.	6.3808e-002
15169	4.2256	0.90909	5.e-002	7.9932
15170	4.2256	0.63636	0.	9.8531e-002
15171	4.1337	0.72727	0.	9.8257e-002
15172	4.2256	0.72727	5.e-002	7.9798
15173	4.2256	0.45455	0.	0.21659
15174	4.1337	0.54545	0.	0.11495
15175	4.2256	0.54545	5.e-002	7.9646
15176	4.2256	0.27273	0.	0.32714
15177	4.1337	0.36364	0.	0.35698
15178	4.2256	0.36364	5.e-002	8.0757
15179	4.1337	0.18182	0.	0.4698
15180	4.2256	0.18182	5.e-002	10.562
15181	4.2256	9.0909e-002	0.	0.27466
15182	4.0419	5.7273	0.	0.36652
15183	3.95	5.8182	0.	0.54497
15184	4.0419	5.8182	5.e-002	11.406
15185	4.0419	5.9091	0.	0.29735
15186	4.0419	5.5455	0.	0.23804
15187	3.95	5.6364	0.	0.3921
15188	4.0419	5.6364	5.e-002	8.3473
15189	4.0419	5.3636	0.	0.10869
15190	3.95	5.4545	0.	0.12727
15191	4.0419	5.4545	5.e-002	8.2103
15192	4.0419	5.1818	0.	8.3422e-002
15193	3.95	5.2727	0.	0.10809
15194	4.0419	5.2727	5.e-002	8.2283
15195	4.0419	5.	0.	5.6409e-002
15196	3.95	5.0909	0.	7.022e-002
15197	4.0419	5.0909	5.e-002	8.245
15198	4.0419	4.8182	0.	3.8865e-002
15199	3.95	4.9091	0.	4.9995e-002
15200	4.0419	4.9091	5.e-002	8.2494
15201	4.0419	4.6364	0.	2.4452e-002
15202	3.95	4.7273	0.	3.2745e-002
15203	4.0419	4.7273	5.e-002	8.2422
15204	4.0419	4.4545	0.	1.2984e-002
15205	3.95	4.5455	0.	1.9459e-002
15206	4.0419	4.5455	5.e-002	8.2254
15207	4.0419	4.2727	0.	3.5907e-003
15208	3.95	4.3636	0.	8.58e-003
15209	4.0419	4.3636	5.e-002	8.2014
15210	4.0419	4.0909	0.	-4.0495e-003
15211	3.95	4.1818	0.	-2.3878e-004
15212	4.0419	4.1818	5.e-002	8.1728
15213	4.0419	3.9091	0.	-1.0202e-002
15214	3.95	4.	0.	-7.3689e-003
15215	4.0419	4.	5.e-002	8.1424
15216	4.0419	3.7273	0.	-1.5035e-002
15217	3.95	3.8182	0.	-1.3026e-002
15218	4.0419	3.8182	5.e-002	8.1127
15219	4.0419	3.5455	0.	-1.8674e-002
15220	3.95	3.6364	0.	-1.7375e-002
15221	4.0419	3.6364	5.e-002	8.086
15222	4.0419	3.3636	0.	-2.121e-002
15223	3.95	3.4545	0.	-2.0533e-002
15224	4.0419	3.4545	5.e-002	8.0643
15225	4.0419	3.1818	0.	-2.2708e-002
15226	3.95	3.2727	0.	-2.2592e-002
15227	4.0419	3.2727	5.e-002	8.049
15228	4.0419	3.	0.	-2.3203e-002
15229	3.95	3.0909	0.	-2.3608e-002
15230	4.0419	3.0909	5.e-002	8.041
15231	4.0419	2.8182	0.	-2.2708e-002
15232	3.95	2.9091	0.	-2.3608e-002
15233	4.0419	2.9091	5.e-002	8.041
15234	4.0419	2.6364	0.	-2.121e-002
15235	3.95	2.7273	0.	-2.2592e-002
15236	4.0419	2.7273	5.e-002	8.049
15237	4.0419	2.4545	0.	-1.8674e-002
15238	3.95	2.5455	0.	-2.0533e-002
15239	4.0419	2.5455	5.e-002	8.0643
15240	4.0419	2.2727	0.	-1.5035e-002
15241	3.95	2.3636	0.	-1.7374e-002
15242	4.0419	2.3636	5.e-002	8.086
15243	4.0419	2.0909	0.	-1.0201e-002
15244	3.95	2.1818	0.	-1.3026e-002
15245	4.0419	2.1818	5.e-002	8.1127
15246	4.0419	1.9091	0.	-4.0492e-003
15247	3.95	2.	0.	-7.3686e-003
15248	4.0419	2.	5.e-002	8.1424
15249	4.0419	1.7273	0.	3.5912e-003
15250	3.95	1.8182	0.	-2.3831e-004
15251	4.0419	1.8182	5.e-002	8.1728
15252	4.0419	1.5455	0.	1.2985e-002
15253	3.95	1.6364	0.	8.5806e-003
15254	4.0419	1.6364	5.e-002	8.2013
15255	4.0419	1.3636	0.	2.4452e-002
15256	3.95	1.4545	0.	1.946e-002
15257	4.0419	1.4545	5.e-002	8.2253
15258	4.0419	1.1818	0.	3.8866e-002
15259	3.95	1.2727	0.	3.2746e-002
15260	4.0419	1.2727	5.e-002	8.2421
15261	4.0419	1.	0.	5.641e-002
15262	3.95	1.0909	0.	4.9996e-002
15263	4.0419	1.0909	5.e-002	8.2494
15264	4.0419	0.81818	0.	8.3423e-002
15265	3.95	0.90909	0.	7.0222e-002
15266	4.0419	0.90909	5.e-002	8.245
15267	4.0419	0.63636	0.	0.10869
15268	3.95	0.72727	0.	0.10809
15269	4.0419	0.72727	5.e-002	8.2282
15270	4.0419	0.45455	0.	0.23804
15271	3.95	0.54545	0.	0.12727
15272	4.0419	0.54545	5.e-002	8.2103
15273	4.0419	0.27273	0.	0.36652
15274	3.95	0.36364	0.	0.3921
15275	4.0419	0.36364	5.e-002	8.3472
15276	3.95	0.18182	0.	0.54498
15277	4.0419	0.18182	5.e-002	11.406
15278	4.0419	9.0909e-002	0.	0.29735
15279	3.8581	5.7273	0.	0.41173
15280	3.7663	5.8182	0.	0.63633
15281	3.8581	5.8182	5.e-002	12.305
15282	3.8581	5.9091	0.	0.32271
15283	3.8581	5.5455	0.	0.26178
15284	3.7663	5.6364	0.	0.43105
15285	3.8581	5.6364	5.e-002	8.6392
15286	3.8581	5.3636	0.	0.11997
15287	3.7663	5.4545	0.	0.14103
15288	3.8581	5.4545	5.e-002	8.4779
15289	3.8581	5.1818	0.	9.1784e-002
15290	3.7663	5.2727	0.	0.11897
15291	3.8581	5.2727	5.e-002	8.5004
15292	3.8581	5.	0.	6.2062e-002
15293	3.7663	5.0909	0.	7.7308e-002
15294	3.8581	5.0909	5.e-002	8.5219
15295	3.8581	4.8182	0.	4.2767e-002
15296	3.7663	4.9091	0.	5.4999e-002
15297	3.8581	4.9091	5.e-002	8.5293
15298	3.8581	4.6364	0.	2.6983e-002
15299	3.7663	4.7273	0.	3.6075e-002
15300	3.8581	4.7273	5.e-002	8.5232
15301	3.8581	4.4545	0.	1.4483e-002
15302	3.7663	4.5455	0.	2.1562e-002
15303	3.8581	4.5455	5.e-002	8.506
15304	3.8581	4.2727	0.	4.301e-003
15305	3.7663	4.3636	0.	9.75e-003
15306	3.8581	4.3636	5.e-002	8.4806
15307	3.8581	4.0909	0.	-3.9275e-003
15308	3.7663	4.1818	0.	2.4167e-004
15309	3.8581	4.1818	5.e-002	8.45
15310	3.8581	3.9091	0.	-1.0509e-002
15311	3.7663	4.	0.	-7.3874e-003
15312	3.8581	4.	5.e-002	8.4174
15313	3.8581	3.7273	0.	-1.5644e-002
15314	3.7663	3.8182	0.	-1.3393e-002
15315	3.8581	3.8182	5.e-002	8.3855
15316	3.8581	3.5455	0.	-1.9487e-002
15317	3.7663	3.6364	0.	-1.7975e-002
15318	3.8581	3.6364	5.e-002	8.3569
15319	3.8581	3.3636	0.	-2.2152e-002
15320	3.7663	3.4545	0.	-2.1282e-002
15321	3.8581	3.4545	5.e-002	8.3336
15322	3.8581	3.1818	0.	-2.372e-002
15323	3.7663	3.2727	0.	-2.3426e-002
15324	3.8581	3.2727	5.e-002	8.3173
15325	3.8581	3.	0.	-2.4237e-002
15326	3.7663	3.0909	0.	-2.4481e-002
15327	3.8581	3.0909	5.e-002	8.3089
15328	3.8581	2.8182	0.	-2.372e-002
15329	3.7663	2.9091	0.	-2.4481e-002
15330	3.8581	2.9091	5.e-002	8.3089
15331	3.8581	2.6364	0.	-2.2152e-002
15332	3.7663	2.7273	0.	-2.3426e-002
15333	3.8581	2.7273	5.e-002	8.3173
15334	3.8581	2.4545	0.	-1.9487e-002
15335	3.7663	2.5455	0.	-2.1282e-002
15336	3.8581	2.5455	5.e-002	8.3336
15337	3.8581	2.2727	0.	-1.5644e-002
15338	3.7663	2.3636	0.	-1.7975e-002
15339	3.8581	2.3636	5.e-002	8.3569
15340	3.8581	2.0909	0.	-1.0508e-002
15341	3.7663	2.1818	0.	-1.3393e-002
15342	3.8581	2.1818	5.e-002	8.3855
15343	3.8581	1.9091	0.	-3.927e-003
15344	3.7663	2.	0.	-7.387e-003
15345	3.8581	2.	5.e-002	8.4173
15346	3.8581	1.7273	0.	4.3016e-003
15347	3.7663	1.8182	0.	2.4214e-004
15348	3.8581	1.8182	5.e-002	8.45
15349	3.8581	1.5455	0.	1.4483e-002
15350	3.7663	1.6364	0.	9.7506e-003
15351	3.8581	1.6364	5.e-002	8.4806
15352	3.8581	1.3636	0.	2.6984e-002
15353	3.7663	1.4545	0.	2.1563e-002
15354	3.8581	1.4545	5.e-002	8.506
15355	3.8581	1.1818	0.	4.2768e-002
15356	3.7663	1.2727	0.	3.6076e-002
15357	3.8581	1.2727	5.e-002	8.5232
15358	3.8581	1.	0.	6.2063e-002
15359	3.7663	1.0909	0.	5.4999e-002
15360	3.8581	1.0909	5.e-002	8.5292
15361	3.8581	0.81818	0.	9.1785e-002
15362	3.7663	0.90909	0.	7.7309e-002
15363	3.8581	0.90909	5.e-002	8.5219
15364	3.8581	0.63636	0.	0.11997
15365	3.7663	0.72727	0.	0.11897
15366	3.8581	0.72727	5.e-002	8.5003
15367	3.8581	0.45455	0.	0.26178
15368	3.7663	0.54545	0.	0.14103
15369	3.8581	0.54545	5.e-002	8.4779
15370	3.8581	0.27273	0.	0.41173
15371	3.7663	0.36364	0.	0.43105
15372	3.8581	0.36364	5.e-002	8.6392
15373	3.7663	0.18182	0.	0.63633
15374	3.8581	0.18182	5.e-002	12.305
15375	3.8581	9.0909e-002	0.	0.32271
15376	3.6744	5.7273	0.	0.46386
15377	3.5826	5.8182	0.	0.74831
15378	3.6744	5.8182	5.e-002	13.261
15379	3.6744	5.9091	0.	0.35123
15380	3.6744	5.5455	0.	0.28811
15381	3.5826	5.6364	0.	0.47436
15382	3.6744	5.6364	5.e-002	8.9528
15383	3.6744	5.3636	0.	0.13252
15384	3.5826	5.4545	0.	0.15645
15385	3.6744	5.4545	5.e-002	8.7695
15386	3.6744	5.1818	0.	0.10103
15387	3.5826	5.2727	0.	0.13101
15388	3.6744	5.2727	5.e-002	8.799
15389	3.6744	5.	0.	6.83e-002
15390	3.5826	5.0909	0.	8.514e-002
15391	3.6744	5.0909	5.e-002	8.8272
15392	3.6744	4.8182	0.	4.7072e-002
15393	3.5826	4.9091	0.	6.0512e-002
15394	3.6744	4.9091	5.e-002	8.8389
15395	3.6744	4.6364	0.	2.9796e-002
15396	3.5826	4.7273	0.	3.9752e-002
15397	3.6744	4.7273	5.e-002	8.8349
15398	3.6744	4.4545	0.	1.6191e-002
15399	3.5826	4.5455	0.	2.3917e-002
15400	3.6744	4.5455	5.e-002	8.8182
15401	3.6744	4.2727	0.	5.1898e-003
15402	3.5826	4.3636	0.	1.1127e-002
15403	3.6744	4.3636	5.e-002	8.7919
15404	3.6744	4.0909	0.	-3.6295e-003
15405	3.5826	4.1818	0.	9.2084e-004
15406	3.6744	4.1818	5.e-002	8.7599
15407	3.6744	3.9091	0.	-1.0623e-002
15408	3.5826	4.	0.	-7.1891e-003
15409	3.6744	4.	5.e-002	8.7255
15410	3.6744	3.7273	0.	-1.6033e-002
15411	3.5826	3.8182	0.	-1.351e-002
15412	3.6744	3.8182	5.e-002	8.692
15413	3.6744	3.5455	0.	-2.0051e-002
15414	3.5826	3.6364	0.	-1.8287e-002
15415	3.6744	3.6364	5.e-002	8.6621
15416	3.6744	3.3636	0.	-2.2819e-002
15417	3.5826	3.4545	0.	-2.1705e-002
15418	3.6744	3.4545	5.e-002	8.6379
15419	3.6744	3.1818	0.	-2.4439e-002
15420	3.5826	3.2727	0.	-2.3907e-002
15421	3.6744	3.2727	5.e-002	8.6209
15422	3.6744	3.	0.	-2.4973e-002
15423	3.5826	3.0909	0.	-2.4986e-002
15424	3.6744	3.0909	5.e-002	8.6122
15425	3.6744	2.8182	0.	-2.4439e-002
15426	3.5826	2.9091	0.	-2.4985e-002
15427	3.6744	2.9091	5.e-002	8.6122
15428	3.6744	2.6364	0.	-2.2819e-002
15429	3.5826	2.7273	0.	-2.3907e-002
15430	3.6744	2.7273	5.e-002	8.6209
15431	3.6744	2.4545	0.	-2.0051e-002
15432	3.5826	2.5455	0.	-2.1705e-002
15433	3.6744	2.5455	5.e-002	8.6379
15434	3.6744	2.2727	0.	-1.6033e-002
15435	3.5826	2.3636	0.	-1.8286e-002
15436	3.6744	2.3636	5.e-002	8.6621
15437	3.6744	2.0909	0.	-1.0622e-002
15438	3.5826	2.1818	0.	-1.351e-002
15439	3.6744	2.1818	5.e-002	8.692
15440	3.6744	1.9091	0.	-3.6291e-003
15441	3.5826	2.	0.	-7.1887e-003
15442	3.6744	2.	5.e-002	8.7255
15443	3.6744	1.7273	0.	5.1903e-003
15444	3.5826	1.8182	0.	9.2131e-004
15445	3.6744	1.8182	5.e-002	8.7599
15446	3.6744	1.5455	0.	1.6192e-002
15447	3.5826	1.6364	0.	1.1127e-002
15448	3.6744	1.6364	5.e-002	8.792
15449	3.6744	1.3636	0.	2.9797e-002
15450	3.5826	1.4545	0.	2.3918e-002
15451	3.6744	1.4545	5.e-002	8.8181
15452	3.6744	1.1818	0.	4.7072e-002
15453	3.5826	1.2727	0.	3.9753e-002
15454	3.6744	1.2727	5.e-002	8.8349
15455	3.6744	1.	0.	6.8301e-002
15456	3.5826	1.0909	0.	6.0513e-002
15457	3.6744	1.0909	5.e-002	8.8389
15458	3.6744	0.81818	0.	0.10103
15459	3.5826	0.90909	0.	8.5141e-002
15460	3.6744	0.90909	5.e-002	8.8272
15461	3.6744	0.63636	0.	0.13252
15462	3.5826	0.72727	0.	0.13101
15463	3.6744	0.72727	5.e-002	8.7989
15464	3.6744	0.45455	0.	0.28811
15465	3.5826	0.54545	0.	0.15645
15466	3.6744	0.54545	5.e-002	8.7695
15467	3.6744	0.27273	0.	0.46386
15468	3.5826	0.36364	0.	0.47436
15469	3.6744	0.36364	5.e-002	8.9528
15470	3.5826	0.18182	0.	0.74831
15471	3.6744	0.18182	5.e-002	13.261
15472	3.6744	9.0909e-002	0.	0.35123
15473	3.4907	5.7273	0.	0.52429
15474	3.3988	5.8182	0.	0.88694
15475	3.4907	5.8182	5.e-002	14.273
15476	3.4907	5.9091	0.	0.38358
15477	3.4907	5.5455	0.	0.31739
15478	3.3988	5.6364	0.	0.52266
15479	3.4907	5.6364	5.e-002	9.2894
15480	3.4907	5.3636	0.	0.1465
15481	3.3988	5.4545	0.	0.17374
15482	3.4907	5.4545	5.e-002	9.0881
15483	3.4907	5.1818	0.	0.11125
15484	3.3988	5.2727	0.	0.14436
15485	3.4907	5.2727	5.e-002	9.1274
15486	3.4907	5.	0.	7.518e-002
15487	3.3988	5.0909	0.	9.3785e-002
15488	3.4907	5.0909	5.e-002	9.1647
15489	3.4907	4.8182	0.	5.1814e-002
15490	3.3988	4.9091	0.	6.657e-002
15491	3.4907	4.9091	5.e-002	9.1823
15492	3.4907	4.6364	0.	3.2916e-002
15493	3.3988	4.7273	0.	4.3796e-002
15494	3.4907	4.7273	5.e-002	9.1817
15495	3.4907	4.4545	0.	1.8141e-002
15496	3.3988	4.5455	0.	2.6543e-002
15497	3.4907	4.5455	5.e-002	9.1662
15498	3.4907	4.2727	0.	6.2988e-003
15499	3.3988	4.3636	0.	1.2739e-002
15500	3.4907	4.3636	5.e-002	9.1399
15501	3.4907	4.0909	0.	-3.0972e-003
15502	3.3988	4.1818	0.	1.8452e-003
15503	3.4907	4.1818	5.e-002	9.1071
15504	3.4907	3.9091	0.	-1.0467e-002
15505	3.3988	4.	0.	-6.7058e-003
15506	3.4907	4.	5.e-002	9.0719
15507	3.4907	3.7273	0.	-1.6107e-002
15508	3.3988	3.8182	0.	-1.3287e-002
15509	3.4907	3.8182	5.e-002	9.0377
15510	3.4907	3.5455	0.	-2.0253e-002
15511	3.3988	3.6364	0.	-1.8199e-002
15512	3.4907	3.6364	5.e-002	9.0073
15513	3.4907	3.3636	0.	-2.3085e-002
15514	3.3988	3.4545	0.	-2.1677e-002
15515	3.4907	3.4545	5.e-002	8.9829
15516	3.4907	3.1818	0.	-2.4733e-002
15517	3.3988	3.2727	0.	-2.3898e-002
15518	3.4907	3.2727	5.e-002	8.9659
15519	3.4907	3.	0.	-2.5274e-002
15520	3.3988	3.0909	0.	-2.498e-002
15521	3.4907	3.0909	5.e-002	8.9571
15522	3.4907	2.8182	0.	-2.4733e-002
15523	3.3988	2.9091	0.	-2.4979e-002
15524	3.4907	2.9091	5.e-002	8.9571
15525	3.4907	2.6364	0.	-2.3085e-002
15526	3.3988	2.7273	0.	-2.3898e-002
15527	3.4907	2.7273	5.e-002	8.9659
15528	3.4907	2.4545	0.	-2.0252e-002
15529	3.3988	2.5455	0.	-2.1677e-002
15530	3.4907	2.5455	5.e-002	8.9828
15531	3.4907	2.2727	0.	-1.6106e-002
15532	3.3988	2.3636	0.	-1.8199e-002
15533	3.4907	2.3636	5.e-002	9.0073
15534	3.4907	2.0909	0.	-1.0466e-002
15535	3.3988	2.1818	0.	-1.3286e-002
15536	3.4907	2.1818	5.e-002	9.0377
15537	3.4907	1.9091	0.	-3.0968e-003
15538	3.3988	2.	0.	-6.7055e-003
15539	3.4907	2.	5.e-002	9.0719
15540	3.4907	1.7273	0.	6.2993e-003
15541	3.3988	1.8182	0.	1.8456e-003
15542	3.4907	1.8182	5.e-002	9.1071
15543	3.4907	1.5455	0.	1.8141e-002
15544	3.3988	1.6364	0.	1.2739e-002
15545	3.4907	1.6364	5.e-002	9.1399
15546	3.4907	1.3636	0.	3.2917e-002
15547	3.3988	1.4545	0.	2.6544e-002
15548	3.4907	1.4545	5.e-002	9.1661
15549	3.4907	1.1818	0.	5.1815e-002
15550	3.3988	1.2727	0.	4.3796e-002
15551	3.4907	1.2727	5.e-002	9.1817
15552	3.4907	1.	0.	7.5181e-002
15553	3.3988	1.0909	0.	6.6571e-002
15554	3.4907	1.0909	5.e-002	9.1823
15555	3.4907	0.81818	0.	0.11125
15556	3.3988	0.90909	0.	9.3786e-002
15557	3.4907	0.90909	5.e-002	9.1646
15558	3.4907	0.63636	0.	0.1465
15559	3.3988	0.72727	0.	0.14436
15560	3.4907	0.72727	5.e-002	9.1274
15561	3.4907	0.45455	0.	0.31739
15562	3.3988	0.54545	0.	0.17374
15563	3.4907	0.54545	5.e-002	9.088
15564	3.4907	0.27273	0.	0.52429
15565	3.3988	0.36364	0.	0.52266
15566	3.4907	0.36364	5.e-002	9.2893
15567	3.3988	0.18182	0.	0.88695
15568	3.4907	0.18182	5.e-002	14.273
15569	3.4907	9.0909e-002	0.	0.38359
15570	3.307	5.7273	0.	0.59472
15571	3.2151	5.8182	0.	1.0606
15572	3.307	5.8182	5.e-002	15.343
15573	3.307	5.9091	0.	0.42071
15574	3.307	5.5455	0.	0.35003
15575	3.2151	5.6364	0.	0.57672
15576	3.307	5.6364	5.e-002	9.6508
15577	3.307	5.3636	0.	0.16209
15578	3.2151	5.4545	0.	0.19318
15579	3.307	5.4545	5.e-002	9.437
15580	3.307	5.1818	0.	0.12254
15581	3.2151	5.2727	0.	0.15916
15582	3.307	5.2727	5.e-002	9.4901
15583	3.307	5.	0.	8.2742e-002
15584	3.2151	5.0909	0.	0.10331
15585	3.307	5.0909	5.e-002	9.5392
15586	3.307	4.8182	0.	5.7009e-002
15587	3.2151	4.9091	0.	7.3201e-002
15588	3.307	4.9091	5.e-002	9.5647
15589	3.307	4.6364	0.	3.6351e-002
15590	3.2151	4.7273	0.	4.8217e-002
15591	3.307	4.7273	5.e-002	9.5685
15592	3.307	4.4545	0.	2.0344e-002
15593	3.2151	4.5455	0.	2.9455e-002
15594	3.307	4.5455	5.e-002	9.5552
15595	3.307	4.2727	0.	7.66e-003
15596	3.2151	4.3636	0.	1.4618e-002
15597	3.307	4.3636	5.e-002	9.5297
15598	3.307	4.0909	0.	-2.2752e-003
15599	3.2151	4.1818	0.	3.0726e-003
15600	3.307	4.1818	5.e-002	9.4972
15601	3.307	3.9091	0.	-9.9605e-003
15602	3.2151	4.	0.	-5.8513e-003
15603	3.307	4.	5.e-002	9.4622
15604	3.307	3.7273	0.	-1.5761e-002
15605	3.2151	3.8182	0.	-1.2609e-002
15606	3.307	3.8182	5.e-002	9.4285
15607	3.307	3.5455	0.	-1.9969e-002
15608	3.2151	3.6364	0.	-1.7574e-002
15609	3.307	3.6364	5.e-002	9.399
15610	3.307	3.3636	0.	-2.2812e-002
15611	3.2151	3.4545	0.	-2.104e-002
15612	3.307	3.4545	5.e-002	9.3755
15613	3.307	3.1818	0.	-2.4453e-002
15614	3.2151	3.2727	0.	-2.3229e-002
15615	3.307	3.2727	5.e-002	9.3593
15616	3.307	3.	0.	-2.4989e-002
15617	3.2151	3.0909	0.	-2.4286e-002
15618	3.307	3.0909	5.e-002	9.351
15619	3.307	2.8182	0.	-2.4453e-002
15620	3.2151	2.9091	0.	-2.4286e-002
15621	3.307	2.9091	5.e-002	9.351
15622	3.307	2.6364	0.	-2.2812e-002
15623	3.2151	2.7273	0.	-2.3229e-002
15624	3.307	2.7273	5.e-002	9.3593
15625	3.307	2.4545	0.	-1.9969e-002
15626	3.2151	2.5455	0.	-2.104e-002
15627	3.307	2.5455	5.e-002	9.3755
15628	3.307	2.2727	0.	-1.576e-002
15629	3.2151	2.3636	0.	-1.7574e-002
15630	3.307	2.3636	5.e-002	9.399
15631	3.307	2.0909	0.	-9.9602e-003
15632	3.2151	2.1818	0.	-1.2608e-002
15633	3.307	2.1818	5.e-002	9.4284
15634	3.307	1.9091	0.	-2.2749e-003
15635	3.2151	2.	0.	-5.8509e-003
15636	3.307	2.	5.e-002	9.4622
15637	3.307	1.7273	0.	7.6604e-003
15638	3.2151	1.8182	0.	3.073e-003
15639	3.307	1.8182	5.e-002	9.4972
15640	3.307	1.5455	0.	2.0345e-002
15641	3.2151	1.6364	0.	1.4619e-002
15642	3.307	1.6364	5.e-002	9.5297
15643	3.307	1.3636	0.	3.6352e-002
15644	3.2151	1.4545	0.	2.9456e-002
15645	3.307	1.4545	5.e-002	9.5552
15646	3.307	1.1818	0.	5.7009e-002
15647	3.2151	1.2727	0.	4.8218e-002
15648	3.307	1.2727	5.e-002	9.5685
15649	3.307	1.	0.	8.2743e-002
15650	3.2151	1.0909	0.	7.3202e-002
15651	3.307	1.0909	5.e-002	9.5646
15652	3.307	0.81818	0.	0.12255
15653	3.2151	0.90909	0.	0.10331
15654	3.307	0.90909	5.e-002	9.5391
15655	3.307	0.63636	0.	0.16209
15656	3.2151	0.72727	0.	0.15916
15657	3.307	0.72727	5.e-002	9.4901
15658	3.307	0.45455	0.	0.35003
15659	3.2151	0.54545	0.	0.19318
15660	3.307	0.54545	5.e-002	9.4371
15661	3.307	0.27273	0.	0.59472
15662	3.2151	0.36364	0.	0.57672
15663	3.307	0.36364	5.e-002	9.6507
15664	3.2151	0.18182	0.	1.0606
15665	3.307	0.18182	5.e-002	15.343
15666	3.307	9.0909e-002	0.	0.42071
15667	3.1233	5.7273	0.	0.67729
15668	3.0314	5.8182	0.	1.2812
15669	3.1233	5.8182	5.e-002	16.468
15670	3.1233	5.9091	0.	0.46397
15671	3.1233	5.5455	0.	0.3865
15672	3.0314	5.6364	0.	0.63746
15673	3.1233	5.6364	5.e-002	10.04
15674	3.1233	5.3636	0.	0.17949
15675	3.0314	5.4545	0.	0.21509
15676	3.1233	5.4545	5.e-002	9.8214
15677	3.1233	5.1818	0.	0.13502
15678	3.0314	5.2727	0.	0.17557
15679	3.1233	5.2727	5.e-002	9.8929
15680	3.1233	5.	0.	9.1036e-002
15681	3.0314	5.0909	0.	0.11379
15682	3.1233	5.0909	5.e-002	9.9568
15683	3.1233	4.8182	0.	6.2677e-002
15684	3.0314	4.9091	0.	8.0436e-002
15685	3.1233	4.9091	5.e-002	9.9921
15686	3.1233	4.6364	0.	4.0118e-002
15687	3.0314	4.7273	0.	5.3034e-002
15688	3.1233	4.7273	5.e-002	10.002
15689	3.1233	4.4545	0.	2.2835e-002
15690	3.0314	4.5455	0.	3.2679e-002
15691	3.1233	4.5455	5.e-002	9.9914
15692	3.1233	4.2727	0.	9.3304e-003
15693	3.0314	4.3636	0.	1.6818e-002
15694	3.1233	4.3636	5.e-002	9.9676
15695	3.1233	4.0909	0.	-1.0754e-003
15696	3.0314	4.1818	0.	4.6906e-003
15697	3.1233	4.1818	5.e-002	9.9365
15698	3.1233	3.9091	0.	-8.9839e-003
15699	3.0314	4.	0.	-4.5014e-003
15700	3.1233	4.	5.e-002	9.9032
15701	3.1233	3.7273	0.	-1.4846e-002
15702	3.0314	3.8182	0.	-1.1319e-002
15703	3.1233	3.8182	5.e-002	9.8717
15704	3.1233	3.5455	0.	-1.9028e-002
15705	3.0314	3.6364	0.	-1.6227e-002
15706	3.1233	3.6364	5.e-002	9.8447
15707	3.1233	3.3636	0.	-2.1811e-002
15708	3.0314	3.4545	0.	-1.9589e-002
15709	3.1233	3.4545	5.e-002	9.8238
15710	3.1233	3.1818	0.	-2.3401e-002
15711	3.0314	3.2727	0.	-2.1679e-002
15712	3.1233	3.2727	5.e-002	9.8096
15713	3.1233	3.	0.	-2.3917e-002
15714	3.0314	3.0909	0.	-2.2679e-002
15715	3.1233	3.0909	5.e-002	9.8025
15716	3.1233	2.8182	0.	-2.3401e-002
15717	3.0314	2.9091	0.	-2.2679e-002
15718	3.1233	2.9091	5.e-002	9.8025
15719	3.1233	2.6364	0.	-2.1811e-002
15720	3.0314	2.7273	0.	-2.1679e-002
15721	3.1233	2.7273	5.e-002	9.8096
15722	3.1233	2.4545	0.	-1.9027e-002
15723	3.0314	2.5455	0.	-1.9588e-002
15724	3.1233	2.5455	5.e-002	9.8237
15725	3.1233	2.2727	0.	-1.4846e-002
15726	3.0314	2.3636	0.	-1.6227e-002
15727	3.1233	2.3636	5.e-002	9.8447
15728	3.1233	2.0909	0.	-8.9835e-003
15729	3.0314	2.1818	0.	-1.1319e-002
15730	3.1233	2.1818	5.e-002	9.8717
15731	3.1233	1.9091	0.	-1.075e-003
15732	3.0314	2.	0.	-4.501e-003
15733	3.1233	2.	5.e-002	9.9032
15734	3.1233	1.7273	0.	9.3309e-003
15735	3.0314	1.8182	0.	4.6909e-003
15736	3.1233	1.8182	5.e-002	9.9364
15737	3.1233	1.5455	0.	2.2835e-002
15738	3.0314	1.6364	0.	1.6818e-002
15739	3.1233	1.6364	5.e-002	9.9675
15740	3.1233	1.3636	0.	4.0118e-002
15741	3.0314	1.4545	0.	3.268e-002
15742	3.1233	1.4545	5.e-002	9.9914
15743	3.1233	1.1818	0.	6.2677e-002
15744	3.0314	1.2727	0.	5.3034e-002
15745	3.1233	1.2727	5.e-002	10.002
15746	3.1233	1.	0.	9.1037e-002
15747	3.0314	1.0909	0.	8.0437e-002
15748	3.1233	1.0909	5.e-002	9.992
15749	3.1233	0.81818	0.	0.13503
15750	3.0314	0.90909	0.	0.1138
15751	3.1233	0.90909	5.e-002	9.9568
15752	3.1233	0.63636	0.	0.17949
15753	3.0314	0.72727	0.	0.17557
15754	3.1233	0.72727	5.e-002	9.8929
15755	3.1233	0.45455	0.	0.3865
15756	3.0314	0.54545	0.	0.21509
15757	3.1233	0.54545	5.e-002	9.8214
15758	3.1233	0.27273	0.	0.67729
15759	3.0314	0.36364	0.	0.63746
15760	3.1233	0.36364	5.e-002	10.04
15761	3.0314	0.18182	0.	1.2812
15762	3.1233	0.18182	5.e-002	16.468
15763	3.1233	9.0909e-002	0.	0.46398
15764	2.9395	5.7273	0.	0.77479
15765	2.8477	5.8182	0.	1.5663
15766	2.9395	5.8182	5.e-002	17.646
15767	2.9395	5.9091	0.	0.51548
15768	2.9395	5.5455	0.	0.4274
15769	2.8477	5.6364	0.	0.70602
15770	2.9395	5.6364	5.e-002	10.46
15771	2.9395	5.3636	0.	0.19895
15772	2.8477	5.4545	0.	0.23985
15773	2.9395	5.4545	5.e-002	10.248
15774	2.9395	5.1818	0.	0.14881
15775	2.8477	5.2727	0.	0.19381
15776	2.9395	5.2727	5.e-002	10.343
15777	2.9395	5.	0.	0.10011
15778	2.8477	5.0909	0.	0.12532
15779	2.9395	5.0909	5.e-002	10.426
15780	2.9395	4.8182	0.	6.884e-002
15781	2.8477	4.9091	0.	8.8304e-002
15782	2.9395	4.9091	5.e-002	10.472
15783	2.9395	4.6364	0.	4.4239e-002
15784	2.8477	4.7273	0.	5.8263e-002
15785	2.9395	4.7273	5.e-002	10.489
15786	2.9395	4.4545	0.	2.5656e-002
15787	2.8477	4.5455	0.	3.6254e-002
15788	2.9395	4.5455	5.e-002	10.482
15789	2.9395	4.2727	0.	1.1392e-002
15790	2.8477	4.3636	0.	1.9415e-002
15791	2.9395	4.3636	5.e-002	10.461
15792	2.9395	4.0909	0.	6.2443e-004
15793	2.8477	4.1818	0.	6.8223e-003
15794	2.9395	4.1818	5.e-002	10.432
15795	2.9395	3.9091	0.	-7.3762e-003
15796	2.8477	4.	0.	-2.4882e-003
15797	2.9395	4.	5.e-002	10.403
15798	2.9395	3.7273	0.	-1.317e-002
15799	2.8477	3.8182	0.	-9.211e-003
15800	2.9395	3.8182	5.e-002	10.376
15801	2.9395	3.5455	0.	-1.721e-002
15802	2.8477	3.6364	0.	-1.3921e-002
15803	2.9395	3.6364	5.e-002	10.353
15804	2.9395	3.3636	0.	-1.9846e-002
15805	2.8477	3.4545	0.	-1.7066e-002
15806	2.9395	3.4545	5.e-002	10.337
15807	2.9395	3.1818	0.	-2.133e-002
15808	2.8477	3.2727	0.	-1.8981e-002
15809	2.9395	3.2727	5.e-002	10.326
15810	2.9395	3.	0.	-2.1808e-002
15811	2.8477	3.0909	0.	-1.9884e-002
15812	2.9395	3.0909	5.e-002	10.321
15813	2.9395	2.8182	0.	-2.133e-002
15814	2.8477	2.9091	0.	-1.9884e-002
15815	2.9395	2.9091	5.e-002	10.321
15816	2.9395	2.6364	0.	-1.9846e-002
15817	2.8477	2.7273	0.	-1.8981e-002
15818	2.9395	2.7273	5.e-002	10.326
15819	2.9395	2.4545	0.	-1.7209e-002
15820	2.8477	2.5455	0.	-1.7066e-002
15821	2.9395	2.5455	5.e-002	10.337
15822	2.9395	2.2727	0.	-1.3169e-002
15823	2.8477	2.3636	0.	-1.3921e-002
15824	2.9395	2.3636	5.e-002	10.353
15825	2.9395	2.0909	0.	-7.3758e-003
15826	2.8477	2.1818	0.	-9.2107e-003
15827	2.9395	2.1818	5.e-002	10.376
15828	2.9395	1.9091	0.	6.2479e-004
15829	2.8477	2.	0.	-2.4879e-003
15830	2.9395	2.	5.e-002	10.403
15831	2.9395	1.7273	0.	1.1392e-002
15832	2.8477	1.8182	0.	6.8226e-003
15833	2.9395	1.8182	5.e-002	10.432
15834	2.9395	1.5455	0.	2.5657e-002
15835	2.8477	1.6364	0.	1.9416e-002
15836	2.9395	1.6364	5.e-002	10.461
15837	2.9395	1.3636	0.	4.4239e-002
15838	2.8477	1.4545	0.	3.6255e-002
15839	2.9395	1.4545	5.e-002	10.482
15840	2.9395	1.1818	0.	6.884e-002
15841	2.8477	1.2727	0.	5.8263e-002
15842	2.9395	1.2727	5.e-002	10.489
15843	2.9395	1.	0.	0.10011
15844	2.8477	1.0909	0.	8.8305e-002
15845	2.9395	1.0909	5.e-002	10.472
15846	2.9395	0.81818	0.	0.14881
15847	2.8477	0.90909	0.	0.12532
15848	2.9395	0.90909	5.e-002	10.426
15849	2.9395	0.63636	0.	0.19895
15850	2.8477	0.72727	0.	0.19381
15851	2.9395	0.72727	5.e-002	10.343
15852	2.9395	0.45455	0.	0.4274
15853	2.8477	0.54545	0.	0.23985
15854	2.9395	0.54545	5.e-002	10.248
15855	2.9395	0.27273	0.	0.77479
15856	2.8477	0.36364	0.	0.70602
15857	2.9395	0.36364	5.e-002	10.46
15858	2.8477	0.18182	0.	1.5663
15859	2.9395	0.18182	5.e-002	17.646
15860	2.9395	9.0909e-002	0.	0.51548
15861	2.7558	5.7273	0.	0.89078
15862	2.664	5.8182	0.	1.9419
15863	2.7558	5.8182	5.e-002	18.872
15864	2.7558	5.9091	0.	0.57862
15865	2.7558	5.5455	0.	0.47343
15866	2.664	5.6364	0.	0.78379
15867	2.7558	5.6364	5.e-002	10.917
15868	2.7558	5.3636	0.	0.22077
15869	2.664	5.4545	0.	0.2679
15870	2.7558	5.4545	5.e-002	10.726
15871	2.7558	5.1818	0.	0.16404
15872	2.664	5.2727	0.	0.21406
15873	2.7558	5.2727	5.e-002	10.852
15874	2.7558	5.	0.	0.11002
15875	2.664	5.0909	0.	0.13794
15876	2.7558	5.0909	5.e-002	10.956
15877	2.7558	4.8182	0.	7.5516e-002
15878	2.664	4.9091	0.	9.6805e-002
15879	2.7558	4.9091	5.e-002	11.016
15880	2.7558	4.6364	0.	4.8744e-002
15881	2.664	4.7273	0.	6.39e-002
15882	2.7558	4.7273	5.e-002	11.039
15883	2.7558	4.4545	0.	2.8877e-002
15884	2.664	4.5455	0.	4.0212e-002
15885	2.7558	4.5455	5.e-002	11.036
15886	2.7558	4.2727	0.	1.3961e-002
15887	2.664	4.3636	0.	2.2498e-002
15888	2.7558	4.3636	5.e-002	11.018
15889	2.7558	4.0909	0.	2.9926e-003
15890	2.664	4.1818	0.	9.6141e-003
15891	2.7558	4.1818	5.e-002	10.994
15892	2.7558	3.9091	0.	-4.9242e-003
15893	2.664	4.	0.	3.861e-004
15894	2.7558	4.	5.e-002	10.97
15895	2.7558	3.7273	0.	-1.0483e-002
15896	2.664	3.8182	0.	-6.0477e-003
15897	2.7558	3.8182	5.e-002	10.95
15898	2.7558	3.5455	0.	-1.4242e-002
15899	2.664	3.6364	0.	-1.0393e-002
15900	2.7558	3.6364	5.e-002	10.935
15901	2.7558	3.3636	0.	-1.6628e-002
15902	2.664	3.4545	0.	-1.3192e-002
15903	2.7558	3.4545	5.e-002	10.926
15904	2.7558	3.1818	0.	-1.7942e-002
15905	2.664	3.2727	0.	-1.4844e-002
15906	2.7558	3.2727	5.e-002	10.921
15907	2.7558	3.	0.	-1.836e-002
15908	2.664	3.0909	0.	-1.5607e-002
15909	2.7558	3.0909	5.e-002	10.918
15910	2.7558	2.8182	0.	-1.7942e-002
15911	2.664	2.9091	0.	-1.5607e-002
15912	2.7558	2.9091	5.e-002	10.918
15913	2.7558	2.6364	0.	-1.6628e-002
15914	2.664	2.7273	0.	-1.4844e-002
15915	2.7558	2.7273	5.e-002	10.921
15916	2.7558	2.4545	0.	-1.4242e-002
15917	2.664	2.5455	0.	-1.3192e-002
15918	2.7558	2.5455	5.e-002	10.926
15919	2.7558	2.2727	0.	-1.0483e-002
15920	2.664	2.3636	0.	-1.0393e-002
15921	2.7558	2.3636	5.e-002	10.935
15922	2.7558	2.0909	0.	-4.924e-003
15923	2.664	2.1818	0.	-6.0474e-003
15924	2.7558	2.1818	5.e-002	10.95
15925	2.7558	1.9091	0.	2.9929e-003
15926	2.664	2.	0.	3.8643e-004
15927	2.7558	2.	5.e-002	10.97
15928	2.7558	1.7273	0.	1.3961e-002
15929	2.664	1.8182	0.	9.6145e-003
15930	2.7558	1.8182	5.e-002	10.993
15931	2.7558	1.5455	0.	2.8877e-002
15932	2.664	1.6364	0.	2.2499e-002
15933	2.7558	1.6364	5.e-002	11.018
15934	2.7558	1.3636	0.	4.8744e-002
15935	2.664	1.4545	0.	4.0212e-002
15936	2.7558	1.4545	5.e-002	11.036
15937	2.7558	1.1818	0.	7.5517e-002
15938	2.664	1.2727	0.	6.3901e-002
15939	2.7558	1.2727	5.e-002	11.039
15940	2.7558	1.	0.	0.11002
15941	2.664	1.0909	0.	9.6805e-002
15942	2.7558	1.0909	5.e-002	11.016
15943	2.7558	0.81818	0.	0.16404
15944	2.664	0.90909	0.	0.13794
15945	2.7558	0.90909	5.e-002	10.956
15946	2.7558	0.63636	0.	0.22077
15947	2.664	0.72727	0.	0.21406
15948	2.7558	0.72727	5.e-002	10.852
15949	2.7558	0.45455	0.	0.47344
15950	2.664	0.54545	0.	0.2679
15951	2.7558	0.54545	5.e-002	10.726
15952	2.7558	0.27273	0.	0.89078
15953	2.664	0.36364	0.	0.7838
15954	2.7558	0.36364	5.e-002	10.917
15955	2.664	0.18182	0.	1.9419
15956	2.7558	0.18182	5.e-002	18.872
15957	2.7558	9.0909e-002	0.	0.57862
15958	2.5721	5.7273	0.	1.0299
15959	2.4802	5.8182	0.	2.4493
15960	2.5721	5.8182	5.e-002	20.14
15961	2.5721	5.9091	0.	0.65926
15962	2.5721	5.5455	0.	0.52542
15963	2.4802	5.6364	0.	0.87254
15964	2.5721	5.6364	5.e-002	11.421
15965	2.5721	5.3636	0.	0.24522
15966	2.4802	5.4545	0.	0.29981
15967	2.5721	5.4545	5.e-002	11.27
15968	2.5721	5.1818	0.	0.18081
15969	2.4802	5.2727	0.	0.23662
15970	2.5721	5.2727	5.e-002	11.434
15971	2.5721	5.	0.	0.12075
15972	2.4802	5.0909	0.	0.15177
15973	2.5721	5.0909	5.e-002	11.562
15974	2.5721	4.8182	0.	8.2674e-002
15975	2.4802	4.9091	0.	0.10599
15976	2.5721	4.9091	5.e-002	11.634
15977	2.5721	4.6364	0.	5.3625e-002
15978	2.4802	4.7273	0.	7.0021e-002
15979	2.5721	4.7273	5.e-002	11.663
15980	2.5721	4.4545	0.	3.2545e-002
15981	2.4802	4.5455	0.	4.4689e-002
15982	2.5721	4.5455	5.e-002	11.663
15983	2.5721	4.2727	0.	1.7153e-002
15984	2.4802	4.3636	0.	2.6279e-002
15985	2.5721	4.3636	5.e-002	11.648
15986	2.5721	4.0909	0.	6.2039e-003
15987	2.4802	4.1818	0.	1.335e-002
15988	2.5721	4.1818	5.e-002	11.63
15989	2.5721	3.9091	0.	-1.4062e-003
15990	2.4802	4.	0.	4.46e-003
15991	2.5721	4.	5.e-002	11.615
15992	2.5721	3.7273	0.	-6.5321e-003
15993	2.4802	3.8182	0.	-1.4555e-003
15994	2.5721	3.8182	5.e-002	11.605
15995	2.5721	3.5455	0.	-9.852e-003
15996	2.4802	3.6364	0.	-5.251e-003
15997	2.5721	3.6364	5.e-002	11.602
15998	2.5721	3.3636	0.	-1.1874e-002
15999	2.4802	3.4545	0.	-7.5689e-003
16000	2.5721	3.4545	5.e-002	11.603
16001	2.5721	3.1818	0.	-1.2951e-002
16002	2.4802	3.2727	0.	-8.8709e-003
16003	2.5721	3.2727	5.e-002	11.605
16004	2.5721	3.	0.	-1.3287e-002
16005	2.4802	3.0909	0.	-9.4505e-003
16006	2.5721	3.0909	5.e-002	11.607
16007	2.5721	2.8182	0.	-1.2951e-002
16008	2.4802	2.9091	0.	-9.4505e-003
16009	2.5721	2.9091	5.e-002	11.607
16010	2.5721	2.6364	0.	-1.1874e-002
16011	2.4802	2.7273	0.	-8.8708e-003
16012	2.5721	2.7273	5.e-002	11.605
16013	2.5721	2.4545	0.	-9.8519e-003
16014	2.4802	2.5455	0.	-7.5688e-003
16015	2.5721	2.5455	5.e-002	11.603
16016	2.5721	2.2727	0.	-6.5319e-003
16017	2.4802	2.3636	0.	-5.2509e-003
16018	2.5721	2.3636	5.e-002	11.602
16019	2.5721	2.0909	0.	-1.4059e-003
16020	2.4802	2.1818	0.	-1.4553e-003
16021	2.5721	2.1818	5.e-002	11.605
16022	2.5721	1.9091	0.	6.2043e-003
16023	2.4802	2.	0.	4.4603e-003
16024	2.5721	2.	5.e-002	11.615
16025	2.5721	1.7273	0.	1.7154e-002
16026	2.4802	1.8182	0.	1.335e-002
16027	2.5721	1.8182	5.e-002	11.63
16028	2.5721	1.5455	0.	3.2546e-002
16029	2.4802	1.6364	0.	2.6279e-002
16030	2.5721	1.6364	5.e-002	11.648
16031	2.5721	1.3636	0.	5.3626e-002
16032	2.4802	1.4545	0.	4.4689e-002
16033	2.5721	1.4545	5.e-002	11.663
16034	2.5721	1.1818	0.	8.2674e-002
16035	2.4802	1.2727	0.	7.0021e-002
16036	2.5721	1.2727	5.e-002	11.663
16037	2.5721	1.	0.	0.12075
16038	2.4802	1.0909	0.	0.106
16039	2.5721	1.0909	5.e-002	11.634
16040	2.5721	0.81818	0.	0.18081
16041	2.4802	0.90909	0.	0.15177
16042	2.5721	0.90909	5.e-002	11.562
16043	2.5721	0.63636	0.	0.24522
16044	2.4802	0.72727	0.	0.23662
16045	2.5721	0.72727	5.e-002	11.434
16046	2.5721	0.45455	0.	0.52542
16047	2.4802	0.54545	0.	0.29981
16048	2.5721	0.54545	5.e-002	11.27
16049	2.5721	0.27273	0.	1.0299
16050	2.4802	0.36364	0.	0.87254
16051	2.5721	0.36364	5.e-002	11.421
16052	2.4802	0.18182	0.	2.4493
16053	2.5721	0.18182	5.e-002	20.14
16054	2.5721	9.0909e-002	0.	0.65926
16055	2.3884	5.7273	0.	1.1984
16056	2.2965	5.8182	0.	3.1551
16057	2.3884	5.8182	5.e-002	21.437
16058	2.3884	5.9091	0.	0.76871
16059	2.3884	5.5455	0.	0.58448
16060	2.2965	5.6364	0.	0.97436
16061	2.3884	5.6364	5.e-002	11.986
16062	2.3884	5.3636	0.	0.2728
16063	2.2965	5.4545	0.	0.33612
16064	2.3884	5.4545	5.e-002	11.901
16065	2.3884	5.1818	0.	0.19939
16066	2.2965	5.2727	0.	0.26162
16067	2.3884	5.2727	5.e-002	12.11
16068	2.3884	5.	0.	0.13247
16069	2.2965	5.0909	0.	0.16672
16070	2.3884	5.0909	5.e-002	12.263
16071	2.3884	4.8182	0.	9.0465e-002
16072	2.2965	4.9091	0.	0.11573
16073	2.3884	4.9091	5.e-002	12.345
16074	2.3884	4.6364	0.	5.9094e-002
16075	2.2965	4.7273	0.	7.652e-002
16076	2.3884	4.7273	5.e-002	12.375
16077	2.3884	4.4545	0.	3.6957e-002
16078	2.2965	4.5455	0.	4.9668e-002
16079	2.3884	4.5455	5.e-002	12.376
16080	2.3884	4.2727	0.	2.1348e-002
16081	2.2965	4.3636	0.	3.0836e-002
16082	2.3884	4.3636	5.e-002	12.364
16083	2.3884	4.0909	0.	1.0705e-002
16084	2.2965	4.1818	0.	1.8183e-002
16085	2.3884	4.1818	5.e-002	12.353
16086	2.3884	3.9091	0.	3.6683e-003
16087	2.2965	4.	0.	9.9306e-003
16088	2.3884	4.	5.e-002	12.35
16089	2.3884	3.7273	0.	-8.0535e-004
16090	2.2965	3.8182	0.	4.7784e-003
16091	2.3884	3.8182	5.e-002	12.355
16092	2.3884	3.5455	0.	-3.5216e-003
16093	2.2965	3.6364	0.	1.7139e-003
16094	2.3884	3.6364	5.e-002	12.367
16095	2.3884	3.3636	0.	-5.0686e-003
16096	2.2965	3.4545	0.	-8.1098e-007
16097	2.3884	3.4545	5.e-002	12.38
16098	2.3884	3.1818	0.	-5.8448e-003
16099	2.2965	3.2727	0.	-8.799e-004
16100	2.3884	3.2727	5.e-002	12.393
16101	2.3884	3.	0.	-6.0787e-003
16102	2.2965	3.0909	0.	-1.2429e-003
16103	2.3884	3.0909	5.e-002	12.4
16104	2.3884	2.8182	0.	-5.8447e-003
16105	2.2965	2.9091	0.	-1.2429e-003
16106	2.3884	2.9091	5.e-002	12.4
16107	2.3884	2.6364	0.	-5.0685e-003
16108	2.2965	2.7273	0.	-8.7987e-004
16109	2.3884	2.7273	5.e-002	12.393
16110	2.3884	2.4545	0.	-3.5215e-003
16111	2.2965	2.5455	0.	-6.6161e-007
16112	2.3884	2.5455	5.e-002	12.38
16113	2.3884	2.2727	0.	-8.0526e-004
16114	2.2965	2.3636	0.	1.714e-003
16115	2.3884	2.3636	5.e-002	12.367
16116	2.3884	2.0909	0.	3.6685e-003
16117	2.2965	2.1818	0.	4.7785e-003
16118	2.3884	2.1818	5.e-002	12.355
16119	2.3884	1.9091	0.	1.0706e-002
16120	2.2965	2.	0.	9.9307e-003
16121	2.3884	2.	5.e-002	12.35
16122	2.3884	1.7273	0.	2.1348e-002
16123	2.2965	1.8182	0.	1.8183e-002
16124	2.3884	1.8182	5.e-002	12.353
16125	2.3884	1.5455	0.	3.6958e-002
16126	2.2965	1.6364	0.	3.0836e-002
16127	2.3884	1.6364	5.e-002	12.364
16128	2.3884	1.3636	0.	5.9094e-002
16129	2.2965	1.4545	0.	4.9669e-002
16130	2.3884	1.4545	5.e-002	12.376
16131	2.3884	1.1818	0.	9.0466e-002
16132	2.2965	1.2727	0.	7.652e-002
16133	2.3884	1.2727	5.e-002	12.375
16134	2.3884	1.	0.	0.13247
16135	2.2965	1.0909	0.	0.11573
16136	2.3884	1.0909	5.e-002	12.345
16137	2.3884	0.81818	0.	0.19939
16138	2.2965	0.90909	0.	0.16672
16139	2.3884	0.90909	5.e-002	12.263
16140	2.3884	0.63636	0.	0.2728
16141	2.2965	0.72727	0.	0.26162
16142	2.3884	0.72727	5.e-002	12.11
16143	2.3884	0.45455	0.	0.58448
16144	2.2965	0.54545	0.	0.33612
16145	2.3884	0.54545	5.e-002	11.901
16146	2.3884	0.27273	0.	1.1984
16147	2.2965	0.36364	0.	0.97436
16148	2.3884	0.36364	5.e-002	11.986
16149	2.2965	0.18182	0.	3.1551
16150	2.3884	0.18182	5.e-002	21.437
16151	2.3884	9.0909e-002	0.	0.76871
16152	2.2047	5.7273	0.	1.4042
16153	2.1128	5.8182	0.	4.1733
16154	2.2047	5.8182	5.e-002	22.749
16155	2.2047	5.9091	0.	0.93156
16156	2.2047	5.5455	0.	0.65158
16157	2.1128	5.6364	0.	1.0925
16158	2.2047	5.6364	5.e-002	12.639
16159	2.2047	5.3636	0.	0.30358
16160	2.1128	5.4545	0.	0.37824
16161	2.2047	5.4545	5.e-002	12.651
16162	2.2047	5.1818	0.	0.21951
16163	2.1128	5.2727	0.	0.29005
16164	2.2047	5.2727	5.e-002	12.909
16165	2.2047	5.	0.	0.14475
16166	2.1128	5.0909	0.	0.1836
16167	2.2047	5.0909	5.e-002	13.084
16168	2.2047	4.8182	0.	9.8474e-002
16169	2.1128	4.9091	0.	0.12683
16170	2.2047	4.9091	5.e-002	13.169
16171	2.2047	4.6364	0.	6.481e-002
16172	2.1128	4.7273	0.	8.4333e-002
16173	2.2047	4.7273	5.e-002	13.194
16174	2.2047	4.4545	0.	4.1875e-002
16175	2.1128	4.5455	0.	5.6239e-002
16176	2.2047	4.5455	5.e-002	13.19
16177	2.2047	4.2727	0.	2.6395e-002
16178	2.1128	4.3636	0.	3.7387e-002
16179	2.2047	4.3636	5.e-002	13.18
16180	2.2047	4.0909	0.	1.64e-002
16181	2.1128	4.1818	0.	2.5409e-002
16182	2.2047	4.1818	5.e-002	13.178
16183	2.2047	3.9091	0.	1.022e-002
16184	2.1128	4.	0.	1.8121e-002
16185	2.2047	4.	5.e-002	13.19
16186	2.2047	3.7273	0.	6.6086e-003
16187	2.1128	3.8182	0.	1.3964e-002
16188	2.2047	3.8182	5.e-002	13.213
16189	2.2047	3.5455	0.	4.6369e-003
16190	2.1128	3.6364	0.	1.1776e-002
16191	2.2047	3.6364	5.e-002	13.244
16192	2.2047	3.3636	0.	3.65e-003
16193	2.1128	3.4545	0.	1.0746e-002
16194	2.2047	3.4545	5.e-002	13.274
16195	2.2047	3.1818	0.	3.218e-003
16196	2.1128	3.2727	0.	1.0329e-002
16197	2.2047	3.2727	5.e-002	13.298
16198	2.2047	3.	0.	3.0998e-003
16199	2.1128	3.0909	0.	1.0197e-002
16200	2.2047	3.0909	5.e-002	13.311
16201	2.2047	2.8182	0.	3.218e-003
16202	2.1128	2.9091	0.	1.0197e-002
16203	2.2047	2.9091	5.e-002	13.311
16204	2.2047	2.6364	0.	3.6501e-003
16205	2.1128	2.7273	0.	1.0329e-002
16206	2.2047	2.7273	5.e-002	13.298
16207	2.2047	2.4545	0.	4.6371e-003
16208	2.1128	2.5455	0.	1.0746e-002
16209	2.2047	2.5455	5.e-002	13.274
16210	2.2047	2.2727	0.	6.6088e-003
16211	2.1128	2.3636	0.	1.1776e-002
16212	2.2047	2.3636	5.e-002	13.244
16213	2.2047	2.0909	0.	1.022e-002
16214	2.1128	2.1818	0.	1.3964e-002
16215	2.2047	2.1818	5.e-002	13.213
16216	2.2047	1.9091	0.	1.64e-002
16217	2.1128	2.	0.	1.8121e-002
16218	2.2047	2.	5.e-002	13.19
16219	2.2047	1.7273	0.	2.6395e-002
16220	2.1128	1.8182	0.	2.5409e-002
16221	2.2047	1.8182	5.e-002	13.178
16222	2.2047	1.5455	0.	4.1876e-002
16223	2.1128	1.6364	0.	3.7387e-002
16224	2.2047	1.6364	5.e-002	13.18
16225	2.2047	1.3636	0.	6.481e-002
16226	2.1128	1.4545	0.	5.624e-002
16227	2.2047	1.4545	5.e-002	13.19
16228	2.2047	1.1818	0.	9.8474e-002
16229	2.1128	1.2727	0.	8.4333e-002
16230	2.2047	1.2727	5.e-002	13.194
16231	2.2047	1.	0.	0.14475
16232	2.1128	1.0909	0.	0.12683
16233	2.2047	1.0909	5.e-002	13.169
16234	2.2047	0.81818	0.	0.21951
16235	2.1128	0.90909	0.	0.1836
16236	2.2047	0.90909	5.e-002	13.084
16237	2.2047	0.63636	0.	0.30358
16238	2.1128	0.72727	0.	0.29005
16239	2.2047	0.72727	5.e-002	12.909
16240	2.2047	0.45455	0.	0.65158
16241	2.1128	0.54545	0.	0.37824
16242	2.2047	0.54545	5.e-002	12.651
16243	2.2047	0.27273	0.	1.4042
16244	2.1128	0.36364	0.	1.0925
16245	2.2047	0.36364	5.e-002	12.639
16246	2.1128	0.18182	0.	4.1733
16247	2.2047	0.18182	5.e-002	22.749
16248	2.2047	9.0909e-002	0.	0.93156
16249	2.0209	5.7273	0.	1.6594
16250	1.9291	5.8182	0.	5.7044
16251	2.0209	5.8182	5.e-002	24.053
16252	2.0209	5.9091	0.	1.2141
16253	2.0209	5.5455	0.	0.72965
16254	1.9291	5.6364	0.	1.2288
16255	2.0209	5.6364	5.e-002	13.419
16256	2.0209	5.3636	0.	0.33976
16257	1.9291	5.4545	0.	0.42505
16258	2.0209	5.4545	5.e-002	13.565
16259	2.0209	5.1818	0.	0.24317
16260	1.9291	5.2727	0.	0.31987
16261	2.0209	5.2727	5.e-002	13.875
16262	2.0209	5.	0.	0.1596
16263	1.9291	5.0909	0.	0.19989
16264	2.0209	5.0909	5.e-002	14.059
16265	2.0209	4.8182	0.	0.10885
16266	1.9291	4.9091	0.	0.13668
16267	2.0209	4.9091	5.e-002	14.132
16268	2.0209	4.6364	0.	7.3126e-002
16269	1.9291	4.7273	0.	9.0922e-002
16270	2.0209	4.7273	5.e-002	14.139
16271	2.0209	4.4545	0.	4.9838e-002
16272	1.9291	4.5455	0.	6.1968e-002
16273	2.0209	4.5455	5.e-002	14.123
16274	2.0209	4.2727	0.	3.4958e-002
16275	1.9291	4.3636	0.	4.3553e-002
16276	2.0209	4.3636	5.e-002	14.112
16277	2.0209	4.0909	0.	2.6005e-002
16278	1.9291	4.1818	0.	3.2633e-002
16279	2.0209	4.1818	5.e-002	14.121
16280	2.0209	3.9091	0.	2.0963e-002
16281	1.9291	4.	0.	2.6557e-002
16282	2.0209	4.	5.e-002	14.151
16283	2.0209	3.7273	0.	1.8386e-002
16284	1.9291	3.8182	0.	2.3518e-002
16285	2.0209	3.8182	5.e-002	14.197
16286	2.0209	3.5455	0.	1.7247e-002
16287	1.9291	3.6364	0.	2.2238e-002
16288	2.0209	3.6364	5.e-002	14.25
16289	2.0209	3.3636	0.	1.6856e-002
16290	1.9291	3.4545	0.	2.1871e-002
16291	2.0209	3.4545	5.e-002	14.299
16292	2.0209	3.1818	0.	1.6779e-002
16293	1.9291	3.2727	0.	2.188e-002
16294	2.0209	3.2727	5.e-002	14.337
16295	2.0209	3.	0.	1.6778e-002
16296	1.9291	3.0909	0.	2.1956e-002
16297	2.0209	3.0909	5.e-002	14.357
16298	2.0209	2.8182	0.	1.6779e-002
16299	1.9291	2.9091	0.	2.1956e-002
16300	2.0209	2.9091	5.e-002	14.357
16301	2.0209	2.6364	0.	1.6856e-002
16302	1.9291	2.7273	0.	2.1881e-002
16303	2.0209	2.7273	5.e-002	14.336
16304	2.0209	2.4545	0.	1.7247e-002
16305	1.9291	2.5455	0.	2.1871e-002
16306	2.0209	2.5455	5.e-002	14.299
16307	2.0209	2.2727	0.	1.8386e-002
16308	1.9291	2.3636	0.	2.2238e-002
16309	2.0209	2.3636	5.e-002	14.25
16310	2.0209	2.0909	0.	2.0963e-002
16311	1.9291	2.1818	0.	2.3518e-002
16312	2.0209	2.1818	5.e-002	14.197
16313	2.0209	1.9091	0.	2.6006e-002
16314	1.9291	2.	0.	2.6558e-002
16315	2.0209	2.	5.e-002	14.151
16316	2.0209	1.7273	0.	3.4958e-002
16317	1.9291	1.8182	0.	3.2633e-002
16318	2.0209	1.8182	5.e-002	14.121
16319	2.0209	1.5455	0.	4.9838e-002
16320	1.9291	1.6364	0.	4.3553e-002
16321	2.0209	1.6364	5.e-002	14.112
16322	2.0209	1.3636	0.	7.3126e-002
16323	1.9291	1.4545	0.	6.1968e-002
16324	2.0209	1.4545	5.e-002	14.123
16325	2.0209	1.1818	0.	0.10885
16326	1.9291	1.2727	0.	9.0923e-002
16327	2.0209	1.2727	5.e-002	14.139
16328	2.0209	1.	0.	0.1596
16329	1.9291	1.0909	0.	0.13668
16330	2.0209	1.0909	5.e-002	14.132
16331	2.0209	0.81818	0.	0.24317
16332	1.9291	0.90909	0.	0.19989
16333	2.0209	0.90909	5.e-002	14.059
16334	2.0209	0.63636	0.	0.33976
16335	1.9291	0.72727	0.	0.31987
16336	2.0209	0.72727	5.e-002	13.875
16337	2.0209	0.45455	0.	0.72965
16338	1.9291	0.54545	0.	0.42505
16339	2.0209	0.54545	5.e-002	13.565
16340	2.0209	0.27273	0.	1.6594
16341	1.9291	0.36364	0.	1.2288
16342	2.0209	0.36364	5.e-002	13.419
16343	1.9291	0.18182	0.	5.7044
16344	2.0209	0.18182	5.e-002	24.053
16345	2.0209	9.0909e-002	0.	1.2141
16346	1.8372	5.7273	0.	1.9757
16347	1.7453	5.8182	0.	8.1192
16348	1.8372	5.8182	5.e-002	25.319
16349	1.8372	5.9091	0.	1.8523
16350	1.8372	5.5455	0.	0.81562
16351	1.7453	5.6364	0.	1.3947
16352	1.8372	5.6364	5.e-002	14.394
16353	1.8372	5.3636	0.	0.37576
16354	1.7453	5.4545	0.	0.48693
16355	1.8372	5.4545	5.e-002	14.716
16356	1.8372	5.1818	0.	0.26372
16357	1.7453	5.2727	0.	0.36186
16358	1.8372	5.2727	5.e-002	15.066
16359	1.8372	5.	0.	0.16985
16360	1.7453	5.0909	0.	0.22687
16361	1.8372	5.0909	5.e-002	15.236
16362	1.8372	4.8182	0.	0.11427
16363	1.7453	4.9091	0.	0.15721
16364	1.8372	4.9091	5.e-002	15.268
16365	1.8372	4.6364	0.	7.6705e-002
16366	1.7453	4.7273	0.	0.10883
16367	1.8372	4.7273	5.e-002	15.237
16368	1.8372	4.4545	0.	5.3489e-002
16369	1.7453	4.5455	0.	7.986e-002
16370	1.8372	4.5455	5.e-002	15.197
16371	1.8372	4.2727	0.	3.9599e-002
16372	1.7453	4.3636	0.	6.2602e-002
16373	1.8372	4.3636	5.e-002	15.182
16374	1.8372	4.0909	0.	3.1939e-002
16375	1.7453	4.1818	0.	5.3209e-002
16376	1.8372	4.1818	5.e-002	15.203
16377	1.8372	3.9091	0.	2.8133e-002
16378	1.7453	4.	0.	4.8567e-002
16379	1.8372	4.	5.e-002	15.255
16380	1.8372	3.7273	0.	2.6574e-002
16381	1.7453	3.8182	0.	4.668e-002
16382	1.8372	3.8182	5.e-002	15.326
16383	1.8372	3.5455	0.	2.6191e-002
16384	1.7453	3.6364	0.	4.6232e-002
16385	1.8372	3.6364	5.e-002	15.402
16386	1.8372	3.3636	0.	2.6305e-002
16387	1.7453	3.4545	0.	4.6416e-002
16388	1.8372	3.4545	5.e-002	15.471
16389	1.8372	3.1818	0.	2.6512e-002
16390	1.7453	3.2727	0.	4.6751e-002
16391	1.8372	3.2727	5.e-002	15.521
16392	1.8372	3.	0.	2.6603e-002
16393	1.7453	3.0909	0.	4.6976e-002
16394	1.8372	3.0909	5.e-002	15.548
16395	1.8372	2.8182	0.	2.6512e-002
16396	1.7453	2.9091	0.	4.6976e-002
16397	1.8372	2.9091	5.e-002	15.548
16398	1.8372	2.6364	0.	2.6305e-002
16399	1.7453	2.7273	0.	4.6751e-002
16400	1.8372	2.7273	5.e-002	15.521
16401	1.8372	2.4545	0.	2.6191e-002
16402	1.7453	2.5455	0.	4.6416e-002
16403	1.8372	2.5455	5.e-002	15.471
16404	1.8372	2.2727	0.	2.6574e-002
16405	1.7453	2.3636	0.	4.6232e-002
16406	1.8372	2.3636	5.e-002	15.402
16407	1.8372	2.0909	0.	2.8133e-002
16408	1.7453	2.1818	0.	4.668e-002
16409	1.8372	2.1818	5.e-002	15.326
16410	1.8372	1.9091	0.	3.1939e-002
16411	1.7453	2.	0.	4.8567e-002
16412	1.8372	2.	5.e-002	15.255
16413	1.8372	1.7273	0.	3.9599e-002
16414	1.7453	1.8182	0.	5.3209e-002
16415	1.8372	1.8182	5.e-002	15.203
16416	1.8372	1.5455	0.	5.349e-002
16417	1.7453	1.6364	0.	6.2603e-002
16418	1.8372	1.6364	5.e-002	15.182
16419	1.8372	1.3636	0.	7.6705e-002
16420	1.7453	1.4545	0.	7.9861e-002
16421	1.8372	1.4545	5.e-002	15.197
16422	1.8372	1.1818	0.	0.11427
16423	1.7453	1.2727	0.	0.10883
16424	1.8372	1.2727	5.e-002	15.237
16425	1.8372	1.	0.	0.16985
16426	1.7453	1.0909	0.	0.15721
16427	1.8372	1.0909	5.e-002	15.268
16428	1.8372	0.81818	0.	0.26372
16429	1.7453	0.90909	0.	0.22687
16430	1.8372	0.90909	5.e-002	15.235
16431	1.8372	0.63636	0.	0.37576
16432	1.7453	0.72727	0.	0.36186
16433	1.8372	0.72727	5.e-002	15.066
16434	1.8372	0.45455	0.	0.81562
16435	1.7453	0.54545	0.	0.48693
16436	1.8372	0.54545	5.e-002	14.716
16437	1.8372	0.27273	0.	1.9757
16438	1.7453	0.36364	0.	1.3947
16439	1.8372	0.36364	5.e-002	14.394
16440	1.7453	0.18182	0.	8.1192
16441	1.8372	0.18182	5.e-002	25.319
16442	1.8372	9.0909e-002	0.	1.8523
16443	1.6535	5.7273	0.	2.3865
16444	1.5616	5.8182	0.	12.063
16445	1.6535	5.8182	5.e-002	26.505
16446	1.6535	5.9091	0.	4.0327
16447	1.6535	5.5455	0.	0.93286
16448	1.5616	5.6364	0.	1.5704
16449	1.6535	5.6364	5.e-002	15.674
16450	1.6535	5.3636	0.	0.43804
16451	1.5616	5.4545	0.	0.53122
16452	1.6535	5.4545	5.e-002	16.209
16453	1.6535	5.1818	0.	0.30974
16454	1.5616	5.2727	0.	0.37765
16455	1.6535	5.2727	5.e-002	16.566
16456	1.6535	5.	0.	0.20579
16457	1.5616	5.0909	0.	0.22302
16458	1.6535	5.0909	5.e-002	16.671
16459	1.6535	4.8182	0.	0.14648
16460	1.5616	4.9091	0.	0.14512
16461	1.6535	4.9091	5.e-002	16.619
16462	1.6535	4.6364	0.	0.10842
16463	1.5616	4.7273	0.	9.3566e-002
16464	1.6535	4.7273	5.e-002	16.518
16465	1.6535	4.4545	0.	8.646e-002
16466	1.5616	4.5455	0.	6.4396e-002
16467	1.6535	4.5455	5.e-002	16.44
16468	1.6535	4.2727	0.	7.4385e-002
16469	1.5616	4.3636	0.	4.8022e-002
16470	1.6535	4.3636	5.e-002	16.416
16471	1.6535	4.0909	0.	6.8471e-002
16472	1.5616	4.1818	0.	3.9681e-002
16473	1.6535	4.1818	5.e-002	16.45
16474	1.6535	3.9091	0.	6.6064e-002
16475	1.5616	4.	0.	3.5844e-002
16476	1.6535	4.	5.e-002	16.525
16477	1.6535	3.7273	0.	6.5502e-002
16478	1.5616	3.8182	0.	3.4429e-002
16479	1.6535	3.8182	5.e-002	16.62
16480	1.6535	3.5455	0.	6.5766e-002
16481	1.5616	3.6364	0.	3.4181e-002
16482	1.6535	3.6364	5.e-002	16.718
16483	1.6535	3.3636	0.	6.6262e-002
16484	1.5616	3.4545	0.	3.4394e-002
16485	1.6535	3.4545	5.e-002	16.803
16486	1.6535	3.1818	0.	6.6664e-002
16487	1.5616	3.2727	0.	3.4688e-002
16488	1.6535	3.2727	5.e-002	16.864
16489	1.6535	3.	0.	6.6813e-002
16490	1.5616	3.0909	0.	3.4874e-002
16491	1.6535	3.0909	5.e-002	16.896
16492	1.6535	2.8182	0.	6.6664e-002
16493	1.5616	2.9091	0.	3.4874e-002
16494	1.6535	2.9091	5.e-002	16.896
16495	1.6535	2.6364	0.	6.6262e-002
16496	1.5616	2.7273	0.	3.4688e-002
16497	1.6535	2.7273	5.e-002	16.864
16498	1.6535	2.4545	0.	6.5766e-002
16499	1.5616	2.5455	0.	3.4394e-002
16500	1.6535	2.5455	5.e-002	16.803
16501	1.6535	2.2727	0.	6.5502e-002
16502	1.5616	2.3636	0.	3.4181e-002
16503	1.6535	2.3636	5.e-002	16.718
16504	1.6535	2.0909	0.	6.6064e-002
16505	1.5616	2.1818	0.	3.4429e-002
16506	1.6535	2.1818	5.e-002	16.62
16507	1.6535	1.9091	0.	6.8471e-002
16508	1.5616	2.	0.	3.5844e-002
16509	1.6535	2.	5.e-002	16.525
16510	1.6535	1.7273	0.	7.4385e-002
16511	1.5616	1.8182	0.	3.9681e-002
16512	1.6535	1.8182	5.e-002	16.45
16513	1.6535	1.5455	0.	8.646e-002
16514	1.5616	1.6364	0.	4.8022e-002
16515	1.6535	1.6364	5.e-002	16.416
16516	1.6535	1.3636	0.	0.10842
16517	1.5616	1.4545	0.	6.4396e-002
16518	1.6535	1.4545	5.e-002	16.44
16519	1.6535	1.1818	0.	0.14648
16520	1.5616	1.2727	0.	9.3567e-002
16521	1.6535	1.2727	5.e-002	16.518
16522	1.6535	1.	0.	0.20579
16523	1.5616	1.0909	0.	0.14513
16524	1.6535	1.0909	5.e-002	16.619
16525	1.6535	0.81818	0.	0.30974
16526	1.5616	0.90909	0.	0.22302
16527	1.6535	0.90909	5.e-002	16.671
16528	1.6535	0.63636	0.	0.43804
16529	1.5616	0.72727	0.	0.37765
16530	1.6535	0.72727	5.e-002	16.566
16531	1.6535	0.45455	0.	0.93286
16532	1.5616	0.54545	0.	0.53122
16533	1.6535	0.54545	5.e-002	16.209
16534	1.6535	0.27273	0.	2.3865
16535	1.5616	0.36364	0.	1.5704
16536	1.6535	0.36364	5.e-002	15.674
16537	1.5616	0.18182	0.	12.063
16538	1.6535	0.18182	5.e-002	26.505
16539	1.6535	9.0909e-002	0.	4.0327
16540	1.4698	5.7273	0.	2.8682
16541	1.3779	5.8182	0.	18.594
16542	1.4698	5.8182	5.e-002	27.56
16543	1.4698	5.9091	0.	10.424
16544	1.4698	5.5455	0.	1.0038
16545	1.3779	5.6364	0.	1.869
16546	1.4698	5.6364	5.e-002	17.441
16547	1.4698	5.3636	0.	0.42869
16548	1.3779	5.4545	0.	0.70124
16549	1.4698	5.4545	5.e-002	18.202
16550	1.4698	5.1818	0.	0.27257
16551	1.3779	5.2727	0.	0.52735
16552	1.4698	5.2727	5.e-002	18.488
16553	1.4698	5.	0.	0.15222
16554	1.3779	5.0909	0.	0.35977
16555	1.4698	5.0909	5.e-002	18.438
16556	1.4698	4.8182	0.	8.592e-002
16557	1.3779	4.9091	0.	0.28015
16558	1.4698	4.9091	5.e-002	18.232
16559	1.4698	4.6364	0.	4.538e-002
16560	1.3779	4.7273	0.	0.23075
16561	1.4698	4.7273	5.e-002	18.021
16562	1.4698	4.4545	0.	2.3095e-002
16563	1.3779	4.5455	0.	0.20531
16564	1.4698	4.5455	5.e-002	17.888
16565	1.4698	4.2727	0.	1.1293e-002
16566	1.3779	4.3636	0.	0.19236
16567	1.4698	4.3636	5.e-002	17.852
16568	1.4698	4.0909	0.	5.582e-003
16569	1.3779	4.1818	0.	0.18655
16570	1.4698	4.1818	5.e-002	17.896
16571	1.4698	3.9091	0.	3.1076e-003
16572	1.3779	4.	0.	0.18431
16573	1.4698	4.	5.e-002	17.989
16574	1.4698	3.7273	0.	2.2512e-003
16575	1.3779	3.8182	0.	0.18374
16576	1.4698	3.8182	5.e-002	18.103
16577	1.4698	3.5455	0.	2.1123e-003
16578	1.3779	3.6364	0.	0.18384
16579	1.4698	3.6364	5.e-002	18.214
16580	1.4698	3.3636	0.	2.2233e-003
16581	1.3779	3.4545	0.	0.18414
16582	1.4698	3.4545	5.e-002	18.307
16583	1.4698	3.1818	0.	2.3552e-003
16584	1.3779	3.2727	0.	0.1844
16585	1.4698	3.2727	5.e-002	18.373
16586	1.4698	3.	0.	2.4084e-003
16587	1.3779	3.0909	0.	0.18455
16588	1.4698	3.0909	5.e-002	18.407
16589	1.4698	2.8182	0.	2.3552e-003
16590	1.3779	2.9091	0.	0.18455
16591	1.4698	2.9091	5.e-002	18.407
16592	1.4698	2.6364	0.	2.2234e-003
16593	1.3779	2.7273	0.	0.1844
16594	1.4698	2.7273	5.e-002	18.373
16595	1.4698	2.4545	0.	2.1124e-003
16596	1.3779	2.5455	0.	0.18414
16597	1.4698	2.5455	5.e-002	18.307
16598	1.4698	2.2727	0.	2.2513e-003
16599	1.3779	2.3636	0.	0.18384
16600	1.4698	2.3636	5.e-002	18.214
16601	1.4698	2.0909	0.	3.1077e-003
16602	1.3779	2.1818	0.	0.18374
16603	1.4698	2.1818	5.e-002	18.103
16604	1.4698	1.9091	0.	5.5821e-003
16605	1.3779	2.	0.	0.18431
16606	1.4698	2.	5.e-002	17.989
16607	1.4698	1.7273	0.	1.1293e-002
16608	1.3779	1.8182	0.	0.18655
16609	1.4698	1.8182	5.e-002	17.896
16610	1.4698	1.5455	0.	2.3095e-002
16611	1.3779	1.6364	0.	0.19236
16612	1.4698	1.6364	5.e-002	17.852
16613	1.4698	1.3636	0.	4.538e-002
16614	1.3779	1.4545	0.	0.20531
16615	1.4698	1.4545	5.e-002	17.888
16616	1.4698	1.1818	0.	8.592e-002
16617	1.3779	1.2727	0.	0.23075
16618	1.4698	1.2727	5.e-002	18.021
16619	1.4698	1.	0.	0.15223
16620	1.3779	1.0909	0.	0.28015
16621	1.4698	1.0909	5.e-002	18.232
16622	1.4698	0.81818	0.	0.27257
16623	1.3779	0.90909	0.	0.35977
16624	1.4698	0.90909	5.e-002	18.438
16625	1.4698	0.63636	0.	0.42869
16626	1.3779	0.72727	0.	0.52735
16627	1.4698	0.72727	5.e-002	18.488
16628	1.4698	0.45455	0.	1.0038
16629	1.3779	0.54545	0.	0.70124
16630	1.4698	0.54545	5.e-002	18.202
16631	1.4698	0.27273	0.	2.8682
16632	1.3779	0.36364	0.	1.869
16633	1.4698	0.36364	5.e-002	17.441
16634	1.3779	0.18182	0.	18.594
16635	1.4698	0.18182	5.e-002	27.56
16636	1.4698	9.0909e-002	0.	10.424
16637	1.286	5.7273	0.	3.6577
16638	1.1942	5.8182	0.	28.725
16639	1.286	5.8182	5.e-002	28.427
16640	1.286	5.9091	0.	20.657
16641	1.286	5.5455	0.	1.3597
16642	1.1942	5.6364	0.	1.8899
16643	1.286	5.6364	5.e-002	19.992
16644	1.286	5.3636	0.	0.7484
16645	1.1942	5.4545	0.	0.45248
16646	1.286	5.4545	5.e-002	20.924
16647	1.286	5.1818	0.	0.59211
16648	1.1942	5.2727	0.	0.19418
16649	1.286	5.2727	5.e-002	20.978
16650	1.286	5.	0.	0.47537
16651	1.1942	5.0909	0.	-2.4909e-002
16652	1.286	5.0909	5.e-002	20.622
16653	1.286	4.8182	0.	0.41746
16654	1.1942	4.9091	0.	-0.13142
16655	1.286	4.9091	5.e-002	20.16
16656	1.286	4.6364	0.	0.38583
16657	1.1942	4.7273	0.	-0.19688
16658	1.286	4.7273	5.e-002	19.791
16659	1.286	4.4545	0.	0.37135
16660	1.1942	4.5455	0.	-0.23306
16661	1.286	4.5455	5.e-002	19.587
16662	1.286	4.2727	0.	0.36542
16663	1.1942	4.3636	0.	-0.2545
16664	1.286	4.3636	5.e-002	19.533
16665	1.286	4.0909	0.	0.36373
16666	1.1942	4.1818	0.	-0.26759
16667	1.286	4.1818	5.e-002	19.579
16668	1.286	3.9091	0.	0.36381
16669	1.1942	4.	0.	-0.2762
16670	1.286	4.	5.e-002	19.677
16671	1.286	3.7273	0.	0.36448
16672	1.1942	3.8182	0.	-0.28219
16673	1.286	3.8182	5.e-002	19.791
16674	1.286	3.5455	0.	0.36519
16675	1.1942	3.6364	0.	-0.28648
16676	1.286	3.6364	5.e-002	19.897
16677	1.286	3.3636	0.	0.36574
16678	1.1942	3.4545	0.	-0.2895
16679	1.286	3.4545	5.e-002	19.984
16680	1.286	3.1818	0.	0.36607
16681	1.1942	3.2727	0.	-0.29146
16682	1.286	3.2727	5.e-002	20.043
16683	1.286	3.	0.	0.36618
16684	1.1942	3.0909	0.	-0.29243
16685	1.286	3.0909	5.e-002	20.073
16686	1.286	2.8182	0.	0.36607
16687	1.1942	2.9091	0.	-0.29243
16688	1.286	2.9091	5.e-002	20.073
16689	1.286	2.6364	0.	0.36574
16690	1.1942	2.7273	0.	-0.29146
16691	1.286	2.7273	5.e-002	20.043
16692	1.286	2.4545	0.	0.36519
16693	1.1942	2.5455	0.	-0.2895
16694	1.286	2.5455	5.e-002	19.983
16695	1.286	2.2727	0.	0.36448
16696	1.1942	2.3636	0.	-0.28648
16697	1.286	2.3636	5.e-002	19.897
16698	1.286	2.0909	0.	0.36381
16699	1.1942	2.1818	0.	-0.28219
16700	1.286	2.1818	5.e-002	19.791
16701	1.286	1.9091	0.	0.36373
16702	1.1942	2.	0.	-0.2762
16703	1.286	2.	5.e-002	19.677
16704	1.286	1.7273	0.	0.36542
16705	1.1942	1.8182	0.	-0.26759
16706	1.286	1.8182	5.e-002	19.579
16707	1.286	1.5455	0.	0.37135
16708	1.1942	1.6364	0.	-0.2545
16709	1.286	1.6364	5.e-002	19.533
16710	1.286	1.3636	0.	0.38583
16711	1.1942	1.4545	0.	-0.23306
16712	1.286	1.4545	5.e-002	19.587
16713	1.286	1.1818	0.	0.41746
16714	1.1942	1.2727	0.	-0.19688
16715	1.286	1.2727	5.e-002	19.791
16716	1.286	1.	0.	0.47537
16717	1.1942	1.0909	0.	-0.13142
16718	1.286	1.0909	5.e-002	20.16
16719	1.286	0.81818	0.	0.59211
16720	1.1942	0.90909	0.	-2.4909e-002
16721	1.286	0.90909	5.e-002	20.622
16722	1.286	0.63636	0.	0.7484
16723	1.1942	0.72727	0.	0.19418
16724	1.286	0.72727	5.e-002	20.978
16725	1.286	0.45455	0.	1.3597
16726	1.1942	0.54545	0.	0.45248
16727	1.286	0.54545	5.e-002	20.924
16728	1.286	0.27273	0.	3.6577
16729	1.1942	0.36364	0.	1.8899
16730	1.286	0.36364	5.e-002	19.992
16731	1.1942	0.18182	0.	28.725
16732	1.286	0.18182	5.e-002	28.427
16733	1.286	9.0909e-002	0.	20.657
16734	1.1023	5.7273	0.	3.9964
16735	1.0105	5.8182	0.	43.592
16736	1.1023	5.8182	5.e-002	29.121
16737	1.1023	5.9091	0.	34.01
16738	1.1023	5.5455	0.	0.71999
16739	1.0105	5.6364	0.	3.3137
16740	1.1023	5.6364	5.e-002	23.819
16741	1.1023	5.3636	0.	-0.16596
16742	1.0105	5.4545	0.	2.0014
16743	1.1023	5.4545	5.e-002	24.705
16744	1.1023	5.1818	0.	-0.45083
16745	1.0105	5.2727	0.	1.8612
16746	1.1023	5.2727	5.e-002	24.216
16747	1.1023	5.	0.	-0.64686
16748	1.0105	5.0909	0.	1.7247
16749	1.1023	5.0909	5.e-002	23.314
16750	1.1023	4.8182	0.	-0.75473
16751	1.0105	4.9091	0.	1.6868
16752	1.1023	4.9091	5.e-002	22.473
16753	1.1023	4.6364	0.	-0.82132
16754	1.0105	4.7273	0.	1.6747
16755	1.1023	4.7273	5.e-002	21.907
16756	1.1023	4.4545	0.	-0.86243
16757	1.0105	4.5455	0.	1.6786
16758	1.1023	4.5455	5.e-002	21.622
16759	1.1023	4.2727	0.	-0.88981
16760	1.0105	4.3636	0.	1.6868
16761	1.1023	4.3636	5.e-002	21.536
16762	1.1023	4.0909	0.	-0.90908
16763	1.0105	4.1818	0.	1.6953
16764	1.1023	4.1818	5.e-002	21.561
16765	1.1023	3.9091	0.	-0.9233
16766	1.0105	4.	0.	1.7026
16767	1.1023	4.	5.e-002	21.634
16768	1.1023	3.7273	0.	-0.93395
16769	1.0105	3.8182	0.	1.7082
16770	1.1023	3.8182	5.e-002	21.716
16771	1.1023	3.5455	0.	-0.94181
16772	1.0105	3.6364	0.	1.7123
16773	1.1023	3.6364	5.e-002	21.788
16774	1.1023	3.3636	0.	-0.94724
16775	1.0105	3.4545	0.	1.7151
16776	1.1023	3.4545	5.e-002	21.844
16777	1.1023	3.1818	0.	-0.95044
16778	1.0105	3.2727	0.	1.7168
16779	1.1023	3.2727	5.e-002	21.881
16780	1.1023	3.	0.	-0.9515
16781	1.0105	3.0909	0.	1.7176
16782	1.1023	3.0909	5.e-002	21.899
16783	1.1023	2.8182	0.	-0.95044
16784	1.0105	2.9091	0.	1.7176
16785	1.1023	2.9091	5.e-002	21.899
16786	1.1023	2.6364	0.	-0.94724
16787	1.0105	2.7273	0.	1.7168
16788	1.1023	2.7273	5.e-002	21.881
16789	1.1023	2.4545	0.	-0.94181
16790	1.0105	2.5455	0.	1.7151
16791	1.1023	2.5455	5.e-002	21.844
16792	1.1023	2.2727	0.	-0.93395
16793	1.0105	2.3636	0.	1.7123
16794	1.1023	2.3636	5.e-002	21.788
16795	1.1023	2.0909	0.	-0.9233
16796	1.0105	2.1818	0.	1.7082
16797	1.1023	2.1818	5.e-002	21.716
16798	1.1023	1.9091	0.	-0.90908
16799	1.0105	2.	0.	1.7026
16800	1.1023	2.	5.e-002	21.634
16801	1.1023	1.7273	0.	-0.88981
16802	1.0105	1.8182	0.	1.6953
16803	1.1023	1.8182	5.e-002	21.561
16804	1.1023	1.5455	0.	-0.86243
16805	1.0105	1.6364	0.	1.6868
16806	1.1023	1.6364	5.e-002	21.536
16807	1.1023	1.3636	0.	-0.82132
16808	1.0105	1.4545	0.	1.6786
16809	1.1023	1.4545	5.e-002	21.622
16810	1.1023	1.1818	0.	-0.75473
16811	1.0105	1.2727	0.	1.6747
16812	1.1023	1.2727	5.e-002	21.907
16813	1.1023	1.	0.	-0.64686
16814	1.0105	1.0909	0.	1.6868
16815	1.1023	1.0909	5.e-002	22.473
16816	1.1023	0.81818	0.	-0.45083
16817	1.0105	0.90909	0.	1.7247
16818	1.1023	0.90909	5.e-002	23.314
16819	1.1023	0.63636	0.	-0.16596
16820	1.0105	0.72727	0.	1.8612
16821	1.1023	0.72727	5.e-002	24.216
16822	1.1023	0.45455	0.	0.71999
16823	1.0105	0.54545	0.	2.0014
16824	1.1023	0.54545	5.e-002	24.705
16825	1.1023	0.27273	0.	3.9964
16826	1.0105	0.36364	0.	3.3137
16827	1.1023	0.36364	5.e-002	23.819
16828	1.0105	0.18182	0.	43.592
16829	1.1023	0.18182	5.e-002	29.12
16830	1.1023	9.0909e-002	0.	34.01
16831	0.9186	5.7273	0.	7.0765
16832	0.82674	5.8182	0.	61.792
16833	0.9186	5.8182	5.e-002	29.848
16834	0.9186	5.9091	0.	51.747
16835	0.9186	5.5455	0.	4.2591
16836	0.82674	5.6364	0.	-0.40638
16837	0.9186	5.6364	5.e-002	29.704
16838	0.9186	5.3636	0.	3.9467
16839	0.82674	5.4545	0.	-3.3333
16840	0.9186	5.4545	5.e-002	29.999
16841	0.9186	5.1818	0.	4.0011
16842	0.82674	5.2727	0.	-4.206
16843	0.9186	5.2727	5.e-002	28.379
16844	0.9186	5.	0.	4.0397
16845	0.82674	5.0909	0.	-4.8301
16846	0.9186	5.0909	5.e-002	26.578
16847	0.9186	4.8182	0.	4.1057
16848	0.82674	4.9091	0.	-5.1952
16849	0.9186	4.9091	5.e-002	25.232
16850	0.9186	4.6364	0.	4.1685
16851	0.82674	4.7273	0.	-5.4465
16852	0.9186	4.7273	5.e-002	24.438
16853	0.9186	4.4545	0.	4.2242
16854	0.82674	4.5455	0.	-5.6234
16855	0.9186	4.5455	5.e-002	24.048
16856	0.9186	4.2727	0.	4.2696
16857	0.82674	4.3636	0.	-5.7558
16858	0.9186	4.3636	5.e-002	23.888
16859	0.9186	4.0909	0.	4.3055
16860	0.82674	4.1818	0.	-5.8571
16861	0.9186	4.1818	5.e-002	23.835
16862	0.9186	3.9091	0.	4.333
16863	0.82674	4.	0.	-5.9353
16864	0.9186	4.	5.e-002	23.821
16865	0.9186	3.7273	0.	4.3537
16866	0.82674	3.8182	0.	-5.9954
16867	0.9186	3.8182	5.e-002	23.817
16868	0.9186	3.5455	0.	4.3686
16869	0.82674	3.6364	0.	-6.0405
16870	0.9186	3.6364	5.e-002	23.812
16871	0.9186	3.3636	0.	4.3786
16872	0.82674	3.4545	0.	-6.0728
16873	0.9186	3.4545	5.e-002	23.804
16874	0.9186	3.1818	0.	4.3844
16875	0.82674	3.2727	0.	-6.0936
16876	0.9186	3.2727	5.e-002	23.797
16877	0.9186	3.	0.	4.3863
16878	0.82674	3.0909	0.	-6.1038
16879	0.9186	3.0909	5.e-002	23.792
16880	0.9186	2.8182	0.	4.3844
16881	0.82674	2.9091	0.	-6.1038
16882	0.9186	2.9091	5.e-002	23.792
16883	0.9186	2.6364	0.	4.3786
16884	0.82674	2.7273	0.	-6.0936
16885	0.9186	2.7273	5.e-002	23.797
16886	0.9186	2.4545	0.	4.3686
16887	0.82674	2.5455	0.	-6.0728
16888	0.9186	2.5455	5.e-002	23.804
16889	0.9186	2.2727	0.	4.3537
16890	0.82674	2.3636	0.	-6.0405
16891	0.9186	2.3636	5.e-002	23.812
16892	0.9186	2.0909	0.	4.333
16893	0.82674	2.1818	0.	-5.9954
16894	0.9186	2.1818	5.e-002	23.817
16895	0.9186	1.9091	0.	4.3055
16896	0.82674	2.	0.	-5.9353
16897	0.9186	2.	5.e-002	23.821
16898	0.9186	1.7273	0.	4.2696
16899	0.82674	1.8182	0.	-5.8571
16900	0.9186	1.8182	5.e-002	23.835
16901	0.9186	1.5455	0.	4.2242
16902	0.82674	1.6364	0.	-5.7558
16903	0.9186	1.6364	5.e-002	23.888
16904	0.9186	1.3636	0.	4.1685
16905	0.82674	1.4545	0.	-5.6234
16906	0.9186	1.4545	5.e-002	24.048
16907	0.9186	1.1818	0.	4.1057
16908	0.82674	1.2727	0.	-5.4465
16909	0.9186	1.2727	5.e-002	24.437
16910	0.9186	1.	0.	4.0397
16911	0.82674	1.0909	0.	-5.1952
16912	0.9186	1.0909	5.e-002	25.232
16913	0.9186	0.81818	0.	4.0011
16914	0.82674	0.90909	0.	-4.8301
16915	0.9186	0.90909	5.e-002	26.578
16916	0.9186	0.63636	0.	3.9467
16917	0.82674	0.72727	0.	-4.206
16918	0.9186	0.72727	5.e-002	28.379
16919	0.9186	0.45455	0.	4.2591
16920	0.82674	0.54545	0.	-3.3333
16921	0.9186	0.54545	5.e-002	29.999
16922	0.9186	0.27273	0.	7.0765
16923	0.82674	0.36364	0.	-0.40638
16924	0.9186	0.36364	5.e-002	29.704
16925	0.82674	0.18182	0.	61.792
16926	0.9186	0.18182	5.e-002	29.848
16927	0.9186	9.0909e-002	0.	51.747
16928	0.73488	5.7273	0.	0.41009
16929	0.64302	5.8182	0.	87.195
16930	0.73488	5.8182	5.e-002	32.185
16931	0.73488	5.9091	0.	73.011
16932	0.73488	5.5455	0.	-8.445
16933	0.64302	5.6364	0.	17.395
16934	0.73488	5.6364	5.e-002	39.016
16935	0.73488	5.3636	0.	-11.596
16936	0.64302	5.4545	0.	19.313
16937	0.73488	5.4545	5.e-002	37.33
16938	0.73488	5.1818	0.	-13.084
16939	0.64302	5.2727	0.	20.735
16940	0.73488	5.2727	5.e-002	33.613
16941	0.73488	5.	0.	-14.088
16942	0.64302	5.0909	0.	21.732
16943	0.73488	5.0909	5.e-002	30.598
16944	0.73488	4.8182	0.	-14.759
16945	0.64302	4.9091	0.	22.531
16946	0.73488	4.9091	5.e-002	28.739
16947	0.73488	4.6364	0.	-15.245
16948	0.64302	4.7273	0.	23.139
16949	0.73488	4.7273	5.e-002	27.737
16950	0.73488	4.4545	0.	-15.607
16951	0.64302	4.5455	0.	23.609
16952	0.73488	4.5455	5.e-002	27.206
16953	0.73488	4.2727	0.	-15.885
16954	0.64302	4.3636	0.	23.973
16955	0.73488	4.3636	5.e-002	26.892
16956	0.73488	4.0909	0.	-16.099
16957	0.64302	4.1818	0.	24.256
16958	0.73488	4.1818	5.e-002	26.669
16959	0.73488	3.9091	0.	-16.265
16960	0.64302	4.	0.	24.476
16961	0.73488	4.	5.e-002	26.486
16962	0.73488	3.7273	0.	-16.39
16963	0.64302	3.8182	0.	24.644
16964	0.73488	3.8182	5.e-002	26.328
16965	0.73488	3.5455	0.	-16.482
16966	0.64302	3.6364	0.	24.77
16967	0.73488	3.6364	5.e-002	26.193
16968	0.73488	3.3636	0.	-16.545
16969	0.64302	3.4545	0.	24.86
16970	0.73488	3.4545	5.e-002	26.086
16971	0.73488	3.1818	0.	-16.582
16972	0.64302	3.2727	0.	24.917
16973	0.73488	3.2727	5.e-002	26.012
16974	0.73488	3.	0.	-16.594
16975	0.64302	3.0909	0.	24.946
16976	0.73488	3.0909	5.e-002	25.974
16977	0.73488	2.8182	0.	-16.582
16978	0.64302	2.9091	0.	24.946
16979	0.73488	2.9091	5.e-002	25.974
16980	0.73488	2.6364	0.	-16.545
16981	0.64302	2.7273	0.	24.917
16982	0.73488	2.7273	5.e-002	26.012
16983	0.73488	2.4545	0.	-16.482
16984	0.64302	2.5455	0.	24.86
16985	0.73488	2.5455	5.e-002	26.086
16986	0.73488	2.2727	0.	-16.39
16987	0.64302	2.3636	0.	24.77
16988	0.73488	2.3636	5.e-002	26.193
16989	0.73488	2.0909	0.	-16.265
16990	0.64302	2.1818	0.	24.644
16991	0.73488	2.1818	5.e-002	26.328
16992	0.73488	1.9091	0.	-16.099
16993	0.64302	2.	0.	24.476
16994	0.73488	2.	5.e-002	26.486
16995	0.73488	1.7273	0.	-15.885
16996	0.64302	1.8182	0.	24.256
16997	0.73488	1.8182	5.e-002	26.669
16998	0.73488	1.5455	0.	-15.607
16999	0.64302	1.6364	0.	23.973
17000	0.73488	1.6364	5.e-002	26.892
17001	0.73488	1.3636	0.	-15.245
17002	0.64302	1.4545	0.	23.609
17003	0.73488	1.4545	5.e-002	27.206
17004	0.73488	1.1818	0.	-14.759
17005	0.64302	1.2727	0.	23.139
17006	0.73488	1.2727	5.e-002	27.737
17007	0.73488	1.	0.	-14.088
17008	0.64302	1.0909	0.	22.531
17009	0.73488	1.0909	5.e-002	28.739
17010	0.73488	0.81818	0.	-13.084
17011	0.64302	0.90909	0.	21.732
17012	0.73488	0.90909	5.e-002	30.598
17013	0.73488	0.63636	0.	-11.596
17014	0.64302	0.72727	0.	20.735
17015	0.73488	0.72727	5.e-002	33.613
17016	0.73488	0.45455	0.	-8.445
17017	0.64302	0.54545	0.	19.313
17018	0.73488	0.54545	5.e-002	37.33
17019	0.73488	0.27273	0.	0.41009
17020	0.64302	0.36364	0.	17.395
17021	0.73488	0.36364	5.e-002	39.015
17022	0.64302	0.18182	0.	87.195
17023	0.73488	0.18182	5.e-002	32.185
17024	0.73488	9.0909e-002	0.	73.011
17025	0.55116	5.7273	0.	33.796
17026	0.4593	5.8182	0.	96.129
17027	0.55116	5.8182	5.e-002	40.298
17028	0.55116	5.9091	0.	107.69
17029	0.55116	5.5455	0.	44.586
17030	0.4593	5.6364	0.	-48.849
17031	0.55116	5.6364	5.e-002	54.058
17032	0.55116	5.3636	0.	51.496
17033	0.4593	5.4545	0.	-67.318
17034	0.55116	5.4545	5.e-002	47.028
17035	0.55116	5.1818	0.	55.493
17036	0.4593	5.2727	0.	-76.565
17037	0.55116	5.2727	5.e-002	39.752
17038	0.55116	5.	0.	58.326
17039	0.4593	5.0909	0.	-82.399
17040	0.55116	5.0909	5.e-002	35.262
17041	0.55116	4.8182	0.	60.417
17042	0.4593	4.9091	0.	-86.44
17043	0.55116	4.9091	5.e-002	32.769
17044	0.55116	4.6364	0.	61.986
17045	0.4593	4.7273	0.	-89.373
17046	0.55116	4.7273	5.e-002	31.351
17047	0.55116	4.4545	0.	63.186
17048	0.4593	4.5455	0.	-91.579
17049	0.55116	4.5455	5.e-002	30.414
17050	0.55116	4.2727	0.	64.112
17051	0.4593	4.3636	0.	-93.267
17052	0.55116	4.3636	5.e-002	29.701
17053	0.55116	4.0909	0.	64.83
17054	0.4593	4.1818	0.	-94.571
17055	0.55116	4.1818	5.e-002	29.111
17056	0.55116	3.9091	0.	65.383
17057	0.4593	4.	0.	-95.579
17058	0.55116	4.	5.e-002	28.612
17059	0.55116	3.7273	0.	65.803
17060	0.4593	3.8182	0.	-96.35
17061	0.55116	3.8182	5.e-002	28.193
17062	0.55116	3.5455	0.	66.111
17063	0.4593	3.6364	0.	-96.926
17064	0.55116	3.6364	5.e-002	27.856
17065	0.55116	3.3636	0.	66.322
17066	0.4593	3.4545	0.	-97.336
17067	0.55116	3.4545	5.e-002	27.601
17068	0.55116	3.1818	0.	66.445
17069	0.4593	3.2727	0.	-97.6
17070	0.55116	3.2727	5.e-002	27.43
17071	0.55116	3.	0.	66.485
17072	0.4593	3.0909	0.	-97.729
17073	0.55116	3.0909	5.e-002	27.345
17074	0.55116	2.8182	0.	66.445
17075	0.4593	2.9091	0.	-97.729
17076	0.55116	2.9091	5.e-002	27.345
17077	0.55116	2.6364	0.	66.322
17078	0.4593	2.7273	0.	-97.6
17079	0.55116	2.7273	5.e-002	27.43
17080	0.55116	2.4545	0.	66.111
17081	0.4593	2.5455	0.	-97.336
17082	0.55116	2.5455	5.e-002	27.601
17083	0.55116	2.2727	0.	65.803
17084	0.4593	2.3636	0.	-96.926
17085	0.55116	2.3636	5.e-002	27.856
17086	0.55116	2.0909	0.	65.383
17087	0.4593	2.1818	0.	-96.35
17088	0.55116	2.1818	5.e-002	28.193
17089	0.55116	1.9091	0.	64.83
17090	0.4593	2.	0.	-95.579
17091	0.55116	2.	5.e-002	28.612
17092	0.55116	1.7273	0.	64.112
17093	0.4593	1.8182	0.	-94.571
17094	0.55116	1.8182	5.e-002	29.111
17095	0.55116	1.5455	0.	63.186
17096	0.4593	1.6364	0.	-93.267
17097	0.55116	1.6364	5.e-002	29.701
17098	0.55116	1.3636	0.	61.986
17099	0.4593	1.4545	0.	-91.579
17100	0.55116	1.4545	5.e-002	30.414
17101	0.55116	1.1818	0.	60.417
17102	0.4593	1.2727	0.	-89.373
17103	0.55116	1.2727	5.e-002	31.351
17104	0.55116	1.	0.	58.326
17105	0.4593	1.0909	0.	-86.44
17106	0.55116	1.0909	5.e-002	32.769
17107	0.55116	0.81818	0.	55.493
17108	0.4593	0.90909	0.	-82.399
17109	0.55116	0.90909	5.e-002	35.262
17110	0.55116	0.63636	0.	51.496
17111	0.4593	0.72727	0.	-76.565
17112	0.55116	0.72727	5.e-002	39.752
17113	0.55116	0.45455	0.	44.586
17114	0.4593	0.54545	0.	-67.318
17115	0.55116	0.54545	5.e-002	47.028
17116	0.55116	0.27273	0.	33.796
17117	0.4593	0.36364	0.	-48.849
17118	0.55116	0.36364	5.e-002	54.058
17119	0.4593	0.18182	0.	96.129
17120	0.55116	0.18182	5.e-002	40.298
17121	0.55116	9.0909e-002	0.	107.69
17122	0.36744	5.7273	0.	-90.442
17123	0.27558	5.8182	0.	164.71
17124	0.36744	5.8182	5.e-002	70.469
17125	0.36744	5.9091	0.	132.57
17126	0.36744	5.5455	0.	-161.74
17127	0.27558	5.6364	0.	235.82
17128	0.36744	5.6364	5.e-002	78.2
17129	0.36744	5.3636	0.	-195.6
17130	0.27558	5.4545	0.	279.68
17131	0.36744	5.4545	5.e-002	59.525
17132	0.36744	5.1818	0.	-214.53
17133	0.27558	5.2727	0.	310.93
17134	0.36744	5.2727	5.e-002	48.974
17135	0.36744	5.	0.	-227.19
17136	0.27558	5.0909	0.	330.93
17137	0.36744	5.0909	5.e-002	43.548
17138	0.36744	4.8182	0.	-236.24
17139	0.27558	4.9091	0.	345.52
17140	0.36744	4.9091	5.e-002	40.655
17141	0.36744	4.6364	0.	-242.94
17142	0.27558	4.7273	0.	356.25
17143	0.36744	4.7273	5.e-002	38.699
17144	0.36744	4.4545	0.	-248.03
17145	0.27558	4.5455	0.	364.41
17146	0.36744	4.5455	5.e-002	37.183
17147	0.36744	4.2727	0.	-251.95
17148	0.27558	4.3636	0.	370.69
17149	0.36744	4.3636	5.e-002	35.934
17150	0.36744	4.0909	0.	-254.98
17151	0.27558	4.1818	0.	375.56
17152	0.36744	4.1818	5.e-002	34.89
17153	0.36744	3.9091	0.	-257.31
17154	0.27558	4.	0.	379.34
17155	0.36744	4.	5.e-002	34.024
17156	0.36744	3.7273	0.	-259.08
17157	0.27558	3.8182	0.	382.23
17158	0.36744	3.8182	5.e-002	33.32
17159	0.36744	3.5455	0.	-260.37
17160	0.27558	3.6364	0.	384.4
17161	0.36744	3.6364	5.e-002	32.767
17162	0.36744	3.3636	0.	-261.26
17163	0.27558	3.4545	0.	385.95
17164	0.36744	3.4545	5.e-002	32.359
17165	0.36744	3.1818	0.	-261.77
17166	0.27558	3.2727	0.	386.94
17167	0.36744	3.2727	5.e-002	32.09
17168	0.36744	3.	0.	-261.94
17169	0.27558	3.0909	0.	387.43
17170	0.36744	3.0909	5.e-002	31.957
17171	0.36744	2.8182	0.	-261.77
17172	0.27558	2.9091	0.	387.43
17173	0.36744	2.9091	5.e-002	31.957
17174	0.36744	2.6364	0.	-261.26
17175	0.27558	2.7273	0.	386.94
17176	0.36744	2.7273	5.e-002	32.09
17177	0.36744	2.4545	0.	-260.37
17178	0.27558	2.5455	0.	385.95
17179	0.36744	2.5455	5.e-002	32.359
17180	0.36744	2.2727	0.	-259.08
17181	0.27558	2.3636	0.	384.4
17182	0.36744	2.3636	5.e-002	32.767
17183	0.36744	2.0909	0.	-257.31
17184	0.27558	2.1818	0.	382.23
17185	0.36744	2.1818	5.e-002	33.32
17186	0.36744	1.9091	0.	-254.98
17187	0.27558	2.	0.	379.34
17188	0.36744	2.	5.e-002	34.024
17189	0.36744	1.7273	0.	-251.95
17190	0.27558	1.8182	0.	375.56
17191	0.36744	1.8182	5.e-002	34.89
17192	0.36744	1.5455	0.	-248.03
17193	0.27558	1.6364	0.	370.69
17194	0.36744	1.6364	5.e-002	35.934
17195	0.36744	1.3636	0.	-242.94
17196	0.27558	1.4545	0.	364.41
17197	0.36744	1.4545	5.e-002	37.183
17198	0.36744	1.1818	0.	-236.24
17199	0.27558	1.2727	0.	356.25
17200	0.36744	1.2727	5.e-002	38.699
17201	0.36744	1.	0.	-227.19
17202	0.27558	1.0909	0.	345.52
17203	0.36744	1.0909	5.e-002	40.655
17204	0.36744	0.81818	0.	-214.53
17205	0.27558	0.90909	0.	330.93
17206	0.36744	0.90909	5.e-002	43.548
17207	0.36744	0.63636	0.	-195.6
17208	0.27558	0.72727	0.	310.93
17209	0.36744	0.72727	5.e-002	48.974
17210	0.36744	0.45455	0.	-161.74
17211	0.27558	0.54545	0.	279.68
17212	0.36744	0.54545	5.e-002	59.525
17213	0.36744	0.27273	0.	-90.442
17214	0.27558	0.36364	0.	235.82
17215	0.36744	0.36364	5.e-002	78.2
17216	0.27558	0.18182	0.	164.71
17217	0.36744	0.18182	5.e-002	70.469
17218	0.36744	9.0909e-002	0.	132.57
17219	0.18372	5.7273	0.	448.25
17220	0.18372	5.8182	5.e-002	170.07
17221	0.18372	5.9091	0.	223.11
17222	9.186e-002	5.8182	0.	-399.91
17223	0.18372	5.5455	0.	676.52
17224	0.18372	5.6364	5.e-002	108.36
17225	9.186e-002	5.6364	0.	-831.44
17226	0.18372	5.3636	0.	786.15
17227	0.18372	5.4545	5.e-002	73.578
17228	9.186e-002	5.4545	0.	-1028.8
17229	0.18372	5.1818	0.	856.42
17230	0.18372	5.2727	5.e-002	56.341
17231	9.186e-002	5.2727	0.	-1145.3
17232	0.18372	5.	0.	903.67
17233	0.18372	5.0909	5.e-002	47.392
17234	9.186e-002	5.0909	0.	-1224.
17235	0.18372	4.8182	0.	938.03
17236	0.18372	4.9091	5.e-002	41.281
17237	9.186e-002	4.9091	0.	-1279.9
17238	0.18372	4.6364	0.	963.61
17239	0.18372	4.7273	5.e-002	36.827
17240	9.186e-002	4.7273	0.	-1321.4
17241	0.18372	4.4545	0.	983.14
17242	0.18372	4.5455	5.e-002	33.427
17243	9.186e-002	4.5455	0.	-1352.9
17244	0.18372	4.2727	0.	998.21
17245	0.18372	4.3636	5.e-002	30.776
17246	9.186e-002	4.3636	0.	-1377.1
17247	0.18372	4.0909	0.	1009.9
17248	0.18372	4.1818	5.e-002	28.688
17249	9.186e-002	4.1818	0.	-1395.9
17250	0.18372	3.9091	0.	1018.9
17251	0.18372	4.	5.e-002	27.047
17252	9.186e-002	4.	0.	-1410.5
17253	0.18372	3.7273	0.	1025.7
17254	0.18372	3.8182	5.e-002	25.77
17255	9.186e-002	3.8182	0.	-1421.7
17256	0.18372	3.5455	0.	1030.7
17257	0.18372	3.6364	5.e-002	24.803
17258	9.186e-002	3.6364	0.	-1430.1
17259	0.18372	3.3636	0.	1034.2
17260	0.18372	3.4545	5.e-002	24.106
17261	9.186e-002	3.4545	0.	-1436.
17262	0.18372	3.1818	0.	1036.2
17263	0.18372	3.2727	5.e-002	23.656
17264	9.186e-002	3.2727	0.	-1439.9
17265	0.18372	3.	0.	1036.8
17266	0.18372	3.0909	5.e-002	23.434
17267	9.186e-002	3.0909	0.	-1441.8
17268	0.18372	2.8182	0.	1036.2
17269	0.18372	2.9091	5.e-002	23.434
17270	9.186e-002	2.9091	0.	-1441.8
17271	0.18372	2.6364	0.	1034.2
17272	0.18372	2.7273	5.e-002	23.656
17273	9.186e-002	2.7273	0.	-1439.9
17274	0.18372	2.4545	0.	1030.7
17275	0.18372	2.5455	5.e-002	24.106
17276	9.186e-002	2.5455	0.	-1436.
17277	0.18372	2.2727	0.	1025.7
17278	0.18372	2.3636	5.e-002	24.803
17279	9.186e-002	2.3636	0.	-1430.1
17280	0.18372	2.0909	0.	1018.9
17281	0.18372	2.1818	5.e-002	25.77
17282	9.186e-002	2.1818	0.	-1421.7
17283	0.18372	1.9091	0.	1009.9
17284	0.18372	2.	5.e-002	27.046
17285	9.186e-002	2.	0.	-1410.5
17286	0.18372	1.7273	0.	998.21
17287	0.18372	1.8182	5.e-002	28.688
17288	9.186e-002	1.8182	0.	-1395.9
17289	0.18372	1.5455	0.	983.14
17290	0.18372	1.6364	5.e-002	30.776
17291	9.186e-002	1.6364	0.	-1377.1
17292	0.18372	1.3636	0.	963.61
17293	0.18372	1.4545	5.e-002	33.427
17294	9.186e-002	1.4545	0.	-1352.9
17295	0.18372	1.1818	0.	938.03
17296	0.18372	1.2727	5.e-002	36.827
17297	9.186e-002	1.2727	0.	-1321.4
17298	0.18372	1.	0.	903.67
17299	0.18372	1.0909	5.e-002	41.281
17300	9.186e-002	1.0909	0.	-1279.9
17301	0.18372	0.81818	0.	856.42
17302	0.18372	0.90909	5.e-002	47.392
17303	9.186e-002	0.90909	0.	-1224.
17304	0.18372	0.63636	0.	786.15
17305	0.18372	0.72727	5.e-002	56.341
17306	9.186e-002	0.72727	0.	-1145.3
17307	0.18372	0.45455	0.	676.52
17308	0.18372	0.54545	5.e-002	73.578
17309	9.186e-002	0.54545	0.	-1028.8
17310	0.18372	0.27273	0.	448.25
17311	0.18372	0.36364	5.e-002	108.36
17312	9.186e-002	0.36364	0.	-831.44
17313	0.18372	0.18182	5.e-002	170.07
17314	0.18372	9.0909e-002	0.	223.11
17315	9.186e-002	0.18182	0.	-399.91
17316	16.149	0.27273	0.	68.719
17317	16.241	0.18182	0.	38.131
17318	16.149	0.18182	5.e-002	24.333
17319	16.149	9.0909e-002	0.	18.187
17320	16.058	0.18182	0.	20.646
17321	16.149	0.45455	0.	129.02
17322	16.241	0.36364	0.	63.125
17323	16.149	0.36364	5.e-002	22.105
17324	16.058	0.36364	0.	64.07
17325	16.149	0.63636	0.	209.56
17326	16.241	0.54545	0.	119.87
17327	16.149	0.54545	5.e-002	23.827
17328	16.058	0.54545	0.	123.77
17329	16.149	0.81818	0.	303.89
17330	16.241	0.72727	0.	191.86
17331	16.149	0.72727	5.e-002	27.1
17332	16.058	0.72727	0.	193.02
17333	16.149	1.	0.	413.94
17334	16.241	0.90909	0.	275.23
17335	16.149	0.90909	5.e-002	31.945
17336	16.058	0.90909	0.	273.35
17337	16.149	1.1818	0.	545.58
17338	16.241	1.0909	0.	370.06
17339	16.149	1.0909	5.e-002	38.783
17340	16.058	1.0909	0.	368.9
17341	16.149	1.3636	0.	704.92
17342	16.241	1.2727	0.	478.45
17343	16.149	1.2727	5.e-002	49.194
17344	16.058	1.2727	0.	486.46
17345	16.149	1.5455	0.	918.05
17346	16.241	1.4545	0.	595.34
17347	16.149	1.4545	5.e-002	62.806
17348	16.058	1.4545	0.	643.15
17349	16.149	1.7273	0.	1077.
17350	16.241	1.6364	0.	725.5
17351	16.149	1.6364	5.e-002	95.106
17352	16.058	1.6364	0.	814.46
17353	16.149	1.9091	0.	884.84
17354	16.241	1.8182	0.	741.29
17355	16.149	1.8182	5.e-002	169.
17356	16.058	1.8182	0.	1282.8
17357	16.149	2.0909	0.	462.91
17358	16.241	2.	0.	433.97
17359	16.149	2.	5.e-002	297.19
17360	16.058	2.	0.	672.03
17361	16.149	2.2727	0.	353.42
17362	16.241	2.1818	0.	233.86
17363	16.149	2.1818	5.e-002	174.65
17364	16.149	2.4545	0.	378.04
17365	16.241	2.3636	0.	269.46
17366	16.149	2.3636	5.e-002	74.518
17367	16.149	2.6364	0.	366.01
17368	16.241	2.5455	0.	280.29
17369	16.149	2.5455	5.e-002	41.543
17370	16.149	2.8182	0.	359.
17371	16.241	2.7273	0.	285.19
17372	16.149	2.7273	5.e-002	25.459
17373	16.149	3.	0.	355.89
17374	16.241	2.9091	0.	286.16
17375	16.149	2.9091	5.e-002	19.953
17376	16.149	3.1818	0.	359.
17377	16.241	3.0909	0.	286.16
17378	16.149	3.0909	5.e-002	19.953
17379	16.149	3.3636	0.	366.01
17380	16.241	3.2727	0.	285.19
17381	16.149	3.2727	5.e-002	25.459
17382	16.149	3.5455	0.	378.04
17383	16.241	3.4545	0.	280.29
17384	16.149	3.4545	5.e-002	41.543
17385	16.149	3.7273	0.	353.42
17386	16.241	3.6364	0.	269.46
17387	16.149	3.6364	5.e-002	74.518
17388	16.149	3.9091	0.	462.91
17389	16.241	3.8182	0.	233.86
17390	16.149	3.8182	5.e-002	174.65
17391	16.149	4.0909	0.	884.84
17392	16.241	4.	0.	433.97
17393	16.149	4.	5.e-002	297.19
17394	16.058	4.	0.	672.03
17395	16.149	4.2727	0.	1077.
17396	16.241	4.1818	0.	741.29
17397	16.149	4.1818	5.e-002	169.
17398	16.058	4.1818	0.	1282.8
17399	16.149	4.4545	0.	918.05
17400	16.241	4.3636	0.	725.5
17401	16.149	4.3636	5.e-002	95.106
17402	16.058	4.3636	0.	814.46
17403	16.149	4.6364	0.	704.92
17404	16.241	4.5455	0.	595.34
17405	16.149	4.5455	5.e-002	62.806
17406	16.058	4.5455	0.	643.15
17407	16.149	4.8182	0.	545.58
17408	16.241	4.7273	0.	478.45
17409	16.149	4.7273	5.e-002	49.194
17410	16.058	4.7273	0.	486.46
17411	16.149	5.	0.	413.94
17412	16.241	4.9091	0.	370.06
17413	16.149	4.9091	5.e-002	38.783
17414	16.058	4.9091	0.	368.9
17415	16.149	5.1818	0.	303.89
17416	16.241	5.0909	0.	275.23
17417	16.149	5.0909	5.e-002	31.945
17418	16.058	5.0909	0.	273.35
17419	16.149	5.3636	0.	209.56
17420	16.241	5.2727	0.	191.86
17421	16.149	5.2727	5.e-002	27.1
17422	16.058	5.2727	0.	193.02
17423	16.149	5.5455	0.	129.02
17424	16.241	5.4545	0.	119.87
17425	16.149	5.4545	5.e-002	23.827
17426	16.058	5.4545	0.	123.77
17427	16.149	5.7273	0.	68.719
17428	16.241	5.6364	0.	63.125
17429	16.149	5.6364	5.e-002	22.105
17430	16.058	5.6364	0.	64.07
17431	16.241	5.8182	0.	38.131
17432	16.149	5.8182	5.e-002	24.333
17433	16.149	5.9091	0.	18.187
17434	16.058	5.8182	0.	20.646
17435	16.332	0.27273	0.	40.264
17436	16.423	0.18182	0.	35.307
17437	16.332	0.18182	5.e-002	21.13
17438	16.332	9.0909e-002	0.	15.263
17439	16.332	0.45455	0.	66.402
17440	16.423	0.36364	0.	40.354
17441	16.332	0.36364	5.e-002	18.054
17442	16.332	0.63636	0.	115.57
17443	16.423	0.54545	0.	69.981
17444	16.332	0.54545	5.e-002	18.288
17445	16.332	0.81818	0.	177.16
17446	16.423	0.72727	0.	113.96
17447	16.332	0.72727	5.e-002	19.441
17448	16.332	1.	0.	246.72
17449	16.423	0.90909	0.	166.06
17450	16.332	0.90909	5.e-002	21.452
17451	16.332	1.1818	0.	321.28
17452	16.423	1.0909	0.	221.63
17453	16.332	1.0909	5.e-002	24.473
17454	16.332	1.3636	0.	392.1
17455	16.423	1.2727	0.	275.11
17456	16.332	1.2727	5.e-002	28.26
17457	16.332	1.5455	0.	436.73
17458	16.423	1.4545	0.	313.38
17459	16.332	1.4545	5.e-002	35.425
17460	16.332	1.7273	0.	418.19
17461	16.423	1.6364	0.	312.44
17462	16.332	1.6364	5.e-002	37.704
17463	16.332	1.9091	0.	280.91
17464	16.423	1.8182	0.	243.67
17465	16.332	1.8182	5.e-002	57.5
17466	16.332	2.0909	0.	140.41
17467	16.423	2.	0.	97.62
17468	16.332	2.	5.e-002	54.76
17469	16.332	2.2727	0.	121.9
17470	16.423	2.1818	0.	43.616
17471	16.332	2.1818	5.e-002	79.824
17472	16.332	2.4545	0.	161.36
17473	16.423	2.3636	0.	73.36
17474	16.332	2.3636	5.e-002	59.717
17475	16.332	2.6364	0.	193.73
17476	16.423	2.5455	0.	112.02
17477	16.332	2.5455	5.e-002	44.497
17478	16.332	2.8182	0.	207.96
17479	16.423	2.7273	0.	134.55
17480	16.332	2.7273	5.e-002	32.475
17481	16.332	3.	0.	212.28
17482	16.423	2.9091	0.	145.21
17483	16.332	2.9091	5.e-002	27.251
17484	16.332	3.1818	0.	207.96
17485	16.423	3.0909	0.	145.21
17486	16.332	3.0909	5.e-002	27.251
17487	16.332	3.3636	0.	193.73
17488	16.423	3.2727	0.	134.55
17489	16.332	3.2727	5.e-002	32.475
17490	16.332	3.5455	0.	161.36
17491	16.423	3.4545	0.	112.02
17492	16.332	3.4545	5.e-002	44.497
17493	16.332	3.7273	0.	121.9
17494	16.423	3.6364	0.	73.36
17495	16.332	3.6364	5.e-002	59.717
17496	16.332	3.9091	0.	140.41
17497	16.423	3.8182	0.	43.616
17498	16.332	3.8182	5.e-002	79.824
17499	16.332	4.0909	0.	280.91
17500	16.423	4.	0.	97.62
17501	16.332	4.	5.e-002	54.76
17502	16.332	4.2727	0.	418.19
17503	16.423	4.1818	0.	243.67
17504	16.332	4.1818	5.e-002	57.5
17505	16.332	4.4545	0.	436.73
17506	16.423	4.3636	0.	312.44
17507	16.332	4.3636	5.e-002	37.704
17508	16.332	4.6364	0.	392.1
17509	16.423	4.5455	0.	313.38
17510	16.332	4.5455	5.e-002	35.425
17511	16.332	4.8182	0.	321.28
17512	16.423	4.7273	0.	275.11
17513	16.332	4.7273	5.e-002	28.26
17514	16.332	5.	0.	246.72
17515	16.423	4.9091	0.	221.63
17516	16.332	4.9091	5.e-002	24.473
17517	16.332	5.1818	0.	177.16
17518	16.423	5.0909	0.	166.06
17519	16.332	5.0909	5.e-002	21.452
17520	16.332	5.3636	0.	115.57
17521	16.423	5.2727	0.	113.96
17522	16.332	5.2727	5.e-002	19.441
17523	16.332	5.5455	0.	66.402
17524	16.423	5.4545	0.	69.981
17525	16.332	5.4545	5.e-002	18.288
17526	16.332	5.7273	0.	40.264
17527	16.423	5.6364	0.	40.354
17528	16.332	5.6364	5.e-002	18.054
17529	16.423	5.8182	0.	35.307
17530	16.332	5.8182	5.e-002	21.13
17531	16.332	5.9091	0.	15.263
17532	16.514	0.27273	0.	37.631
17533	16.606	0.18182	0.	36.912
17534	16.514	0.18182	5.e-002	19.228
17535	16.514	9.0909e-002	0.	18.422
17536	16.514	0.45455	0.	49.341
17537	16.606	0.36364	0.	37.725
17538	16.514	0.36364	5.e-002	15.996
17539	16.514	0.63636	0.	76.785
17540	16.606	0.54545	0.	52.786
17541	16.514	0.54545	5.e-002	16.083
17542	16.514	0.81818	0.	113.11
17543	16.606	0.72727	0.	76.587
17544	16.514	0.72727	5.e-002	16.72
17545	16.514	1.	0.	152.63
17546	16.606	0.90909	0.	104.67
17547	16.514	0.90909	5.e-002	17.734
17548	16.514	1.1818	0.	188.48
17549	16.606	1.0909	0.	131.62
17550	16.514	1.0909	5.e-002	19.049
17551	16.514	1.3636	0.	210.52
17552	16.606	1.2727	0.	150.
17553	16.514	1.2727	5.e-002	20.541
17554	16.514	1.5455	0.	201.64
17555	16.606	1.4545	0.	149.78
17556	16.514	1.4545	5.e-002	21.468
17557	16.514	1.7273	0.	146.48
17558	16.606	1.6364	0.	116.94
17559	16.514	1.6364	5.e-002	23.022
17560	16.514	1.9091	0.	62.284
17561	16.606	1.8182	0.	50.184
17562	16.514	1.8182	5.e-002	27.883
17563	16.514	2.0909	0.	0.21006
17564	16.606	2.	0.	1.7464
17565	16.514	2.	5.e-002	35.922
17566	16.514	2.2727	0.	1.4895
17567	16.606	2.1818	0.	-0.41531
17568	16.514	2.1818	5.e-002	40.859
17569	16.514	2.4545	0.	17.539
17570	16.606	2.3636	0.	2.7022
17571	16.514	2.3636	5.e-002	43.256
17572	16.514	2.6364	0.	46.028
17573	16.606	2.5455	0.	3.0993
17574	16.514	2.5455	5.e-002	37.448
17575	16.514	2.8182	0.	66.124
17576	16.606	2.7273	0.	9.2758
17577	16.514	2.7273	5.e-002	32.429
17578	16.514	3.	0.	72.865
17579	16.606	2.9091	0.	19.583
17580	16.514	2.9091	5.e-002	29.421
17581	16.514	3.1818	0.	66.124
17582	16.606	3.0909	0.	19.583
17583	16.514	3.0909	5.e-002	29.421
17584	16.514	3.3636	0.	46.028
17585	16.606	3.2727	0.	9.2758
17586	16.514	3.2727	5.e-002	32.429
17587	16.514	3.5455	0.	17.539
17588	16.606	3.4545	0.	3.0993
17589	16.514	3.4545	5.e-002	37.448
17590	16.514	3.7273	0.	1.4895
17591	16.606	3.6364	0.	2.7022
17592	16.514	3.6364	5.e-002	43.256
17593	16.514	3.9091	0.	0.20998
17594	16.606	3.8182	0.	-0.41531
17595	16.514	3.8182	5.e-002	40.86
17596	16.514	4.0909	0.	62.284
17597	16.606	4.	0.	1.7463
17598	16.514	4.	5.e-002	35.922
17599	16.514	4.2727	0.	146.48
17600	16.606	4.1818	0.	50.183
17601	16.514	4.1818	5.e-002	27.883
17602	16.514	4.4545	0.	201.64
17603	16.606	4.3636	0.	116.94
17604	16.514	4.3636	5.e-002	23.022
17605	16.514	4.6364	0.	210.52
17606	16.606	4.5455	0.	149.78
17607	16.514	4.5455	5.e-002	21.468
17608	16.514	4.8182	0.	188.48
17609	16.606	4.7273	0.	150.
17610	16.514	4.7273	5.e-002	20.541
17611	16.514	5.	0.	152.63
17612	16.606	4.9091	0.	131.62
17613	16.514	4.9091	5.e-002	19.049
17614	16.514	5.1818	0.	113.11
17615	16.606	5.0909	0.	104.67
17616	16.514	5.0909	5.e-002	17.734
17617	16.514	5.3636	0.	76.785
17618	16.606	5.2727	0.	76.587
17619	16.514	5.2727	5.e-002	16.72
17620	16.514	5.5455	0.	49.341
17621	16.606	5.4545	0.	52.786
17622	16.514	5.4545	5.e-002	16.083
17623	16.514	5.7273	0.	37.631
17624	16.606	5.6364	0.	37.725
17625	16.514	5.6364	5.e-002	15.996
17626	16.606	5.8182	0.	36.912
17627	16.514	5.8182	5.e-002	19.228
17628	16.514	5.9091	0.	18.422
17629	16.697	0.27273	0.	38.1
17630	16.788	0.18182	0.	37.072
17631	16.697	0.18182	5.e-002	17.04
17632	16.697	9.0909e-002	0.	20.374
17633	16.697	0.45455	0.	43.707
17634	16.788	0.36364	0.	37.801
17635	16.697	0.36364	5.e-002	13.599
17636	16.697	0.63636	0.	57.239
17637	16.788	0.54545	0.	44.954
17638	16.697	0.54545	5.e-002	13.55
17639	16.697	0.81818	0.	74.597
17640	16.788	0.72727	0.	55.208
17641	16.697	0.72727	5.e-002	13.809
17642	16.697	1.	0.	91.384
17643	16.788	0.90909	0.	65.88
17644	16.697	0.90909	5.e-002	14.157
17645	16.697	1.1818	0.	101.58
17646	16.788	1.0909	0.	72.773
17647	16.697	1.0909	5.e-002	14.519
17648	16.697	1.3636	0.	97.666
17649	16.788	1.2727	0.	70.384
17650	16.697	1.2727	5.e-002	14.821
17651	16.697	1.5455	0.	72.538
17652	16.788	1.4545	0.	52.981
17653	16.697	1.4545	5.e-002	15.471
17654	16.697	1.7273	0.	27.744
17655	16.788	1.6364	0.	20.62
17656	16.697	1.6364	5.e-002	17.338
17657	16.697	1.9091	0.	4.217
17658	16.788	1.8182	0.	3.5201
17659	16.697	1.8182	5.e-002	20.398
17660	16.697	2.0909	0.	2.3745
17661	16.788	2.	0.	1.6793
17662	16.697	2.	5.e-002	24.618
17663	16.697	2.2727	0.	1.3896
17664	16.788	2.1818	0.	1.1954
17665	16.697	2.1818	5.e-002	28.638
17666	16.697	2.4545	0.	0.90768
17667	16.788	2.3636	0.	0.63292
17668	16.697	2.3636	5.e-002	30.805
17669	16.697	2.6364	0.	1.0377
17670	16.788	2.5455	0.	0.82787
17671	16.697	2.5455	5.e-002	30.613
17672	16.697	2.8182	0.	0.80542
17673	16.788	2.7273	0.	0.74194
17674	16.697	2.7273	5.e-002	29.143
17675	16.697	3.	0.	0.64528
17676	16.788	2.9091	0.	0.64183
17677	16.697	2.9091	5.e-002	28.039
17678	16.697	3.1818	0.	0.80542
17679	16.788	3.0909	0.	0.64183
17680	16.697	3.0909	5.e-002	28.039
17681	16.697	3.3636	0.	1.0377
17682	16.788	3.2727	0.	0.74194
17683	16.697	3.2727	5.e-002	29.143
17684	16.697	3.5455	0.	0.90768
17685	16.788	3.4545	0.	0.82787
17686	16.697	3.4545	5.e-002	30.613
17687	16.697	3.7273	0.	1.3896
17688	16.788	3.6364	0.	0.63292
17689	16.697	3.6364	5.e-002	30.805
17690	16.697	3.9091	0.	2.3745
17691	16.788	3.8182	0.	1.1954
17692	16.697	3.8182	5.e-002	28.638
17693	16.697	4.0909	0.	4.2169
17694	16.788	4.	0.	1.6793
17695	16.697	4.	5.e-002	24.618
17696	16.697	4.2727	0.	27.744
17697	16.788	4.1818	0.	3.5201
17698	16.697	4.1818	5.e-002	20.399
17699	16.697	4.4545	0.	72.538
17700	16.788	4.3636	0.	20.62
17701	16.697	4.3636	5.e-002	17.338
17702	16.697	4.6364	0.	97.666
17703	16.788	4.5455	0.	52.981
17704	16.697	4.5455	5.e-002	15.471
17705	16.697	4.8182	0.	101.58
17706	16.788	4.7273	0.	70.384
17707	16.697	4.7273	5.e-002	14.821
17708	16.697	5.	0.	91.384
17709	16.788	4.9091	0.	72.773
17710	16.697	4.9091	5.e-002	14.519
17711	16.697	5.1818	0.	74.597
17712	16.788	5.0909	0.	65.88
17713	16.697	5.0909	5.e-002	14.157
17714	16.697	5.3636	0.	57.239
17715	16.788	5.2727	0.	55.208
17716	16.697	5.2727	5.e-002	13.809
17717	16.697	5.5455	0.	43.707
17718	16.788	5.4545	0.	44.954
17719	16.697	5.4545	5.e-002	13.55
17720	16.697	5.7273	0.	38.1
17721	16.788	5.6364	0.	37.801
17722	16.697	5.6364	5.e-002	13.599
17723	16.788	5.8182	0.	37.072
17724	16.697	5.8182	5.e-002	17.04
17725	16.697	5.9091	0.	20.374
17726	16.88	0.27273	0.	37.484
17727	16.971	0.18182	0.	35.471
17728	16.88	0.18182	5.e-002	14.676
17729	16.88	9.0909e-002	0.	20.586
17730	16.88	0.45455	0.	40.421
17731	16.971	0.36364	0.	36.949
17732	16.88	0.36364	5.e-002	11.142
17733	16.88	0.63636	0.	45.517
17734	16.971	0.54545	0.	39.669
17735	16.88	0.54545	5.e-002	10.969
17736	16.88	0.81818	0.	50.297
17737	16.971	0.72727	0.	41.444
17738	16.88	0.72727	5.e-002	11.
17739	16.88	1.	0.	52.012
17740	16.971	0.90909	0.	40.885
17741	16.88	0.90909	5.e-002	11.028
17742	16.88	1.1818	0.	46.864
17743	16.971	1.0909	0.	35.527
17744	16.88	1.0909	5.e-002	11.063
17745	16.88	1.3636	0.	31.351
17746	16.971	1.2727	0.	22.988
17747	16.88	1.2727	5.e-002	11.274
17748	16.88	1.5455	0.	9.8146
17749	16.971	1.4545	0.	7.5638
17750	16.88	1.4545	5.e-002	12.016
17751	16.88	1.7273	0.	2.4358
17752	16.971	1.6364	0.	2.328
17753	16.88	1.6364	5.e-002	13.717
17754	16.88	1.9091	0.	0.85442
17755	16.971	1.8182	0.	1.0682
17756	16.88	1.8182	5.e-002	16.304
17757	16.88	2.0909	0.	0.28666
17758	16.971	2.	0.	0.49474
17759	16.88	2.	5.e-002	19.123
17760	16.88	2.2727	0.	0.38243
17761	16.971	2.1818	0.	0.34431
17762	16.88	2.1818	5.e-002	21.791
17763	16.88	2.4545	0.	0.61144
17764	16.971	2.3636	0.	0.49286
17765	16.88	2.3636	5.e-002	23.894
17766	16.88	2.6364	0.	0.64323
17767	16.971	2.5455	0.	0.54553
17768	16.88	2.5455	5.e-002	24.97
17769	16.88	2.8182	0.	0.62741
17770	16.971	2.7273	0.	0.56384
17771	16.88	2.7273	5.e-002	25.152
17772	16.88	3.	0.	0.6184
17773	16.971	2.9091	0.	0.56689
17774	16.88	2.9091	5.e-002	25.039
17775	16.88	3.1818	0.	0.62741
17776	16.971	3.0909	0.	0.56689
17777	16.88	3.0909	5.e-002	25.039
17778	16.88	3.3636	0.	0.64323
17779	16.971	3.2727	0.	0.56384
17780	16.88	3.2727	5.e-002	25.152
17781	16.88	3.5455	0.	0.61144
17782	16.971	3.4545	0.	0.54552
17783	16.88	3.4545	5.e-002	24.97
17784	16.88	3.7273	0.	0.38243
17785	16.971	3.6364	0.	0.49286
17786	16.88	3.6364	5.e-002	23.894
17787	16.88	3.9091	0.	0.28666
17788	16.971	3.8182	0.	0.34431
17789	16.88	3.8182	5.e-002	21.791
17790	16.88	4.0909	0.	0.85442
17791	16.971	4.	0.	0.49474
17792	16.88	4.	5.e-002	19.123
17793	16.88	4.2727	0.	2.4358
17794	16.971	4.1818	0.	1.0682
17795	16.88	4.1818	5.e-002	16.304
17796	16.88	4.4545	0.	9.8145
17797	16.971	4.3636	0.	2.328
17798	16.88	4.3636	5.e-002	13.717
17799	16.88	4.6364	0.	31.351
17800	16.971	4.5455	0.	7.5637
17801	16.88	4.5455	5.e-002	12.016
17802	16.88	4.8182	0.	46.863
17803	16.971	4.7273	0.	22.988
17804	16.88	4.7273	5.e-002	11.274
17805	16.88	5.	0.	52.012
17806	16.971	4.9091	0.	35.527
17807	16.88	4.9091	5.e-002	11.063
17808	16.88	5.1818	0.	50.297
17809	16.971	5.0909	0.	40.885
17810	16.88	5.0909	5.e-002	11.028
17811	16.88	5.3636	0.	45.517
17812	16.971	5.2727	0.	41.444
17813	16.88	5.2727	5.e-002	11.
17814	16.88	5.5455	0.	40.421
17815	16.971	5.4545	0.	39.669
17816	16.88	5.4545	5.e-002	10.969
17817	16.88	5.7273	0.	37.484
17818	16.971	5.6364	0.	36.949
17819	16.88	5.6364	5.e-002	11.142
17820	16.971	5.8182	0.	35.471
17821	16.88	5.8182	5.e-002	14.676
17822	16.88	5.9091	0.	20.586
17823	17.062	0.27273	0.	35.435
17824	17.153	0.18182	0.	32.707
17825	17.062	0.18182	5.e-002	12.304
17826	17.062	9.0909e-002	0.	19.67
17827	17.062	0.45455	0.	37.011
17828	17.153	0.36364	0.	34.678
17829	17.062	0.36364	5.e-002	8.7879
17830	17.062	0.63636	0.	37.077
17831	17.153	0.54545	0.	34.783
17832	17.062	0.54545	5.e-002	8.5496
17833	17.062	0.81818	0.	34.21
17834	17.153	0.72727	0.	31.495
17835	17.062	0.72727	5.e-002	8.5036
17836	17.062	1.	0.	27.182
17837	17.153	0.90909	0.	24.439
17838	17.062	0.90909	5.e-002	8.4788
17839	17.062	1.1818	0.	15.208
17840	17.153	1.0909	0.	13.45
17841	17.062	1.0909	5.e-002	8.5653
17842	17.062	1.3636	0.	4.7522
17843	17.153	1.2727	0.	4.2606
17844	17.062	1.2727	5.e-002	8.9702
17845	17.062	1.5455	0.	1.8721
17846	17.153	1.4545	0.	1.7438
17847	17.062	1.4545	5.e-002	9.9419
17848	17.062	1.7273	0.	0.99936
17849	17.153	1.6364	0.	0.97139
17850	17.062	1.6364	5.e-002	11.527
17851	17.062	1.9091	0.	0.6362
17852	17.153	1.8182	0.	0.60652
17853	17.062	1.8182	5.e-002	13.506
17854	17.062	2.0909	0.	0.49293
17855	17.153	2.	0.	0.44023
17856	17.062	2.	5.e-002	15.606
17857	17.062	2.2727	0.	0.42475
17858	17.153	2.1818	0.	0.37176
17859	17.062	2.1818	5.e-002	17.649
17860	17.062	2.4545	0.	0.42436
17861	17.153	2.3636	0.	0.35554
17862	17.062	2.3636	5.e-002	19.419
17863	17.062	2.6364	0.	0.47422
17864	17.153	2.5455	0.	0.39786
17865	17.062	2.5455	5.e-002	20.688
17866	17.062	2.8182	0.	0.50686
17867	17.153	2.7273	0.	0.44049
17868	17.062	2.7273	5.e-002	21.392
17869	17.062	3.	0.	0.51432
17870	17.153	2.9091	0.	0.4591
17871	17.062	2.9091	5.e-002	21.671
17872	17.062	3.1818	0.	0.50686
17873	17.153	3.0909	0.	0.4591
17874	17.062	3.0909	5.e-002	21.671
17875	17.062	3.3636	0.	0.47422
17876	17.153	3.2727	0.	0.44049
17877	17.062	3.2727	5.e-002	21.392
17878	17.062	3.5455	0.	0.42436
17879	17.153	3.4545	0.	0.39786
17880	17.062	3.4545	5.e-002	20.688
17881	17.062	3.7273	0.	0.42475
17882	17.153	3.6364	0.	0.35554
17883	17.062	3.6364	5.e-002	19.419
17884	17.062	3.9091	0.	0.49293
17885	17.153	3.8182	0.	0.37176
17886	17.062	3.8182	5.e-002	17.649
17887	17.062	4.0909	0.	0.6362
17888	17.153	4.	0.	0.44023
17889	17.062	4.	5.e-002	15.606
17890	17.062	4.2727	0.	0.99935
17891	17.153	4.1818	0.	0.60652
17892	17.062	4.1818	5.e-002	13.506
17893	17.062	4.4545	0.	1.8721
17894	17.153	4.3636	0.	0.97139
17895	17.062	4.3636	5.e-002	11.527
17896	17.062	4.6364	0.	4.7522
17897	17.153	4.5455	0.	1.7438
17898	17.062	4.5455	5.e-002	9.9419
17899	17.062	4.8182	0.	15.208
17900	17.153	4.7273	0.	4.2606
17901	17.062	4.7273	5.e-002	8.9702
17902	17.062	5.	0.	27.182
17903	17.153	4.9091	0.	13.45
17904	17.062	4.9091	5.e-002	8.5653
17905	17.062	5.1818	0.	34.21
17906	17.153	5.0909	0.	24.439
17907	17.062	5.0909	5.e-002	8.4788
17908	17.062	5.3636	0.	37.077
17909	17.153	5.2727	0.	31.495
17910	17.062	5.2727	5.e-002	8.5036
17911	17.062	5.5455	0.	37.011
17912	17.153	5.4545	0.	34.783
17913	17.062	5.4545	5.e-002	8.5496
17914	17.062	5.7273	0.	35.435
17915	17.153	5.6364	0.	34.678
17916	17.062	5.6364	5.e-002	8.7879
17917	17.153	5.8182	0.	32.707
17918	17.062	5.8182	5.e-002	12.304
17919	17.062	5.9091	0.	19.67
17920	17.245	0.27273	0.	32.295
17921	17.336	0.18182	0.	29.333
17922	17.245	0.18182	5.e-002	10.055
17923	17.245	9.0909e-002	0.	18.092
17924	17.245	0.45455	0.	32.952
17925	17.336	0.36364	0.	31.303
17926	17.245	0.36364	5.e-002	6.643
17927	17.245	0.63636	0.	30.043
17928	17.336	0.54545	0.	29.762
17929	17.245	0.54545	5.e-002	6.4117
17930	17.245	0.81818	0.	22.881
17931	17.336	0.72727	0.	23.602
17932	17.245	0.72727	5.e-002	6.4099
17933	17.245	1.	0.	11.97
17934	17.336	0.90909	0.	13.385
17935	17.245	0.90909	5.e-002	6.5017
17936	17.245	1.1818	0.	3.5145
17937	17.336	1.0909	0.	3.8737
17938	17.245	1.0909	5.e-002	6.7955
17939	17.245	1.3636	0.	1.4713
17940	17.336	1.2727	0.	1.4564
17941	17.245	1.2727	5.e-002	7.4377
17942	17.245	1.5455	0.	0.848
17943	17.336	1.4545	0.	0.83347
17944	17.245	1.4545	5.e-002	8.5048
17945	17.245	1.7273	0.	0.54965
17946	17.336	1.6364	0.	0.55181
17947	17.245	1.6364	5.e-002	9.9291
17948	17.245	1.9091	0.	0.37872
17949	17.336	1.8182	0.	0.39076
17950	17.245	1.8182	5.e-002	11.543
17951	17.245	2.0909	0.	0.29367
17952	17.336	2.	0.	0.29503
17953	17.245	2.	5.e-002	13.199
17954	17.245	2.2727	0.	0.28737
17955	17.336	2.1818	0.	0.25991
17956	17.245	2.1818	5.e-002	14.802
17957	17.245	2.4545	0.	0.32349
17958	17.336	2.3636	0.	0.27406
17959	17.245	2.3636	5.e-002	16.246
17960	17.245	2.6364	0.	0.36382
17961	17.336	2.5455	0.	0.30612
17962	17.245	2.5455	5.e-002	17.396
17963	17.245	2.8182	0.	0.39333
17964	17.336	2.7273	0.	0.33752
17965	17.245	2.7273	5.e-002	18.16
17966	17.245	3.	0.	0.40415
17967	17.336	2.9091	0.	0.35632
17968	17.245	2.9091	5.e-002	18.53
17969	17.245	3.1818	0.	0.39333
17970	17.336	3.0909	0.	0.35632
17971	17.245	3.0909	5.e-002	18.53
17972	17.245	3.3636	0.	0.36382
17973	17.336	3.2727	0.	0.33752
17974	17.245	3.2727	5.e-002	18.16
17975	17.245	3.5455	0.	0.32349
17976	17.336	3.4545	0.	0.30612
17977	17.245	3.4545	5.e-002	17.396
17978	17.245	3.7273	0.	0.28737
17979	17.336	3.6364	0.	0.27406
17980	17.245	3.6364	5.e-002	16.246
17981	17.245	3.9091	0.	0.29367
17982	17.336	3.8182	0.	0.25991
17983	17.245	3.8182	5.e-002	14.802
17984	17.245	4.0909	0.	0.37872
17985	17.336	4.	0.	0.29503
17986	17.245	4.	5.e-002	13.199
17987	17.245	4.2727	0.	0.54965
17988	17.336	4.1818	0.	0.39076
17989	17.245	4.1818	5.e-002	11.543
17990	17.245	4.4545	0.	0.848
17991	17.336	4.3636	0.	0.55181
17992	17.245	4.3636	5.e-002	9.9291
17993	17.245	4.6364	0.	1.4713
17994	17.336	4.5455	0.	0.83347
17995	17.245	4.5455	5.e-002	8.5048
17996	17.245	4.8182	0.	3.5145
17997	17.336	4.7273	0.	1.4564
17998	17.245	4.7273	5.e-002	7.4377
17999	17.245	5.	0.	11.97
18000	17.336	4.9091	0.	3.8737
18001	17.245	4.9091	5.e-002	6.7955
18002	17.245	5.1818	0.	22.881
18003	17.336	5.0909	0.	13.385
18004	17.245	5.0909	5.e-002	6.5017
18005	17.245	5.3636	0.	30.043
18006	17.336	5.2727	0.	23.602
18007	17.245	5.2727	5.e-002	6.4099
18008	17.245	5.5455	0.	32.952
18009	17.336	5.4545	0.	29.762
18010	17.245	5.4545	5.e-002	6.4117
18011	17.245	5.7273	0.	32.295
18012	17.336	5.6364	0.	31.303
18013	17.245	5.6364	5.e-002	6.643
18014	17.336	5.8182	0.	29.333
18015	17.245	5.8182	5.e-002	10.055
18016	17.245	5.9091	0.	18.092
18017	17.427	0.27273	0.	28.565
18018	17.519	0.18182	0.	25.784
18019	17.427	0.18182	5.e-002	8.0153
18020	17.427	9.0909e-002	0.	16.22
18021	17.427	0.45455	0.	28.421
18022	17.519	0.36364	0.	27.32
18023	17.427	0.36364	5.e-002	4.7629
18024	17.427	0.63636	0.	23.776
18025	17.519	0.54545	0.	24.672
18026	17.427	0.54545	5.e-002	4.6062
18027	17.427	0.81818	0.	14.498
18028	17.519	0.72727	0.	17.016
18029	17.427	0.72727	5.e-002	4.7404
18030	17.427	1.	0.	4.2154
18031	17.519	0.90909	0.	6.1899
18032	17.427	0.90909	5.e-002	5.0388
18033	17.427	1.1818	0.	1.3605
18034	17.519	1.0909	0.	1.5051
18035	17.427	1.0909	5.e-002	5.5706
18036	17.427	1.3636	0.	0.76232
18037	17.519	1.2727	0.	0.76554
18038	17.427	1.2727	5.e-002	6.3871
18039	17.427	1.5455	0.	0.51348
18040	17.519	1.4545	0.	0.50715
18041	17.427	1.4545	5.e-002	7.4693
18042	17.427	1.7273	0.	0.37383
18043	17.519	1.6364	0.	0.36996
18044	17.427	1.6364	5.e-002	8.7325
18045	17.427	1.9091	0.	0.29054
18046	17.519	1.8182	0.	0.28462
18047	17.427	1.8182	5.e-002	10.074
18048	17.427	2.0909	0.	0.24818
18049	17.519	2.	0.	0.23473
18050	17.427	2.	5.e-002	11.413
18051	17.427	2.2727	0.	0.23786
18052	17.519	2.1818	0.	0.21396
18053	17.427	2.1818	5.e-002	12.696
18054	17.427	2.4545	0.	0.25211
18055	17.519	2.3636	0.	0.217
18056	17.427	2.3636	5.e-002	13.857
18057	17.427	2.6364	0.	0.27805
18058	17.519	2.5455	0.	0.2359
18059	17.427	2.5455	5.e-002	14.813
18060	17.427	2.8182	0.	0.29994
18061	17.519	2.7273	0.	0.25737
18062	17.427	2.7273	5.e-002	15.485
18063	17.427	3.	0.	0.30819
18064	17.519	2.9091	0.	0.2707
18065	17.427	2.9091	5.e-002	15.828
18066	17.427	3.1818	0.	0.29994
18067	17.519	3.0909	0.	0.2707
18068	17.427	3.0909	5.e-002	15.828
18069	17.427	3.3636	0.	0.27805
18070	17.519	3.2727	0.	0.25737
18071	17.427	3.2727	5.e-002	15.485
18072	17.427	3.5455	0.	0.25211
18073	17.519	3.4545	0.	0.2359
18074	17.427	3.4545	5.e-002	14.813
18075	17.427	3.7273	0.	0.23786
18076	17.519	3.6364	0.	0.217
18077	17.427	3.6364	5.e-002	13.857
18078	17.427	3.9091	0.	0.24818
18079	17.519	3.8182	0.	0.21396
18080	17.427	3.8182	5.e-002	12.696
18081	17.427	4.0909	0.	0.29054
18082	17.519	4.	0.	0.23473
18083	17.427	4.	5.e-002	11.413
18084	17.427	4.2727	0.	0.37383
18085	17.519	4.1818	0.	0.28462
18086	17.427	4.1818	5.e-002	10.074
18087	17.427	4.4545	0.	0.51348
18088	17.519	4.3636	0.	0.36996
18089	17.427	4.3636	5.e-002	8.7325
18090	17.427	4.6364	0.	0.76232
18091	17.519	4.5455	0.	0.50715
18092	17.427	4.5455	5.e-002	7.4693
18093	17.427	4.8182	0.	1.3605
18094	17.519	4.7273	0.	0.76554
18095	17.427	4.7273	5.e-002	6.3871
18096	17.427	5.	0.	4.2154
18097	17.519	4.9091	0.	1.5051
18098	17.427	4.9091	5.e-002	5.5706
18099	17.427	5.1818	0.	14.498
18100	17.519	5.0909	0.	6.1899
18101	17.427	5.0909	5.e-002	5.0388
18102	17.427	5.3636	0.	23.776
18103	17.519	5.2727	0.	17.016
18104	17.427	5.2727	5.e-002	4.7404
18105	17.427	5.5455	0.	28.421
18106	17.519	5.4545	0.	24.672
18107	17.427	5.4545	5.e-002	4.6062
18108	17.427	5.7273	0.	28.565
18109	17.519	5.6364	0.	27.32
18110	17.427	5.6364	5.e-002	4.7629
18111	17.519	5.8182	0.	25.784
18112	17.427	5.8182	5.e-002	8.0153
18113	17.427	5.9091	0.	16.22
18114	17.61	0.27273	0.	24.671
18115	17.701	0.18182	0.	22.361
18116	17.61	0.18182	5.e-002	6.2263
18117	17.61	9.0909e-002	0.	14.303
18118	17.61	0.45455	0.	23.752
18119	17.701	0.36364	0.	23.171
18120	17.61	0.36364	5.e-002	3.1689
18121	17.61	0.63636	0.	18.119
18122	17.701	0.54545	0.	19.737
18123	17.61	0.54545	5.e-002	3.1596
18124	17.61	0.81818	0.	8.1849
18125	17.701	0.72727	0.	11.448
18126	17.61	0.72727	5.e-002	3.5022
18127	17.61	1.	0.	1.6453
18128	17.701	0.90909	0.	2.4441
18129	17.61	0.90909	5.e-002	4.0354
18130	17.61	1.1818	0.	0.73261
18131	17.701	1.0909	0.	0.78687
18132	17.61	1.0909	5.e-002	4.7603
18133	17.61	1.3636	0.	0.47398
18134	17.701	1.2727	0.	0.47527
18135	17.61	1.2727	5.e-002	5.6627
18136	17.61	1.5455	0.	0.34678
18137	17.701	1.4545	0.	0.34277
18138	17.61	1.4545	5.e-002	6.6997
18139	17.61	1.7273	0.	0.26879
18140	17.701	1.6364	0.	0.26538
18141	17.61	1.6364	5.e-002	7.8108
18142	17.61	1.9091	0.	0.21913
18143	17.701	1.8182	0.	0.21477
18144	17.61	1.8182	5.e-002	8.9371
18145	17.61	2.0909	0.	0.19284
18146	17.701	2.	0.	0.18358
18147	17.61	2.	5.e-002	10.034
18148	17.61	2.2727	0.	0.18759
18149	17.701	2.1818	0.	0.1703
18150	17.61	2.1818	5.e-002	11.067
18151	17.61	2.4545	0.	0.19733
18152	17.701	2.3636	0.	0.17216
18153	17.61	2.3636	5.e-002	11.995
18154	17.61	2.6364	0.	0.2133
18155	17.701	2.5455	0.	0.1831
18156	17.61	2.5455	5.e-002	12.761
18157	17.61	2.8182	0.	0.22706
18158	17.701	2.7273	0.	0.19594
18159	17.61	2.7273	5.e-002	13.308
18160	17.61	3.	0.	0.2324
18161	17.701	2.9091	0.	0.20425
18162	17.61	2.9091	5.e-002	13.593
18163	17.61	3.1818	0.	0.22706
18164	17.701	3.0909	0.	0.20425
18165	17.61	3.0909	5.e-002	13.593
18166	17.61	3.3636	0.	0.2133
18167	17.701	3.2727	0.	0.19594
18168	17.61	3.2727	5.e-002	13.308
18169	17.61	3.5455	0.	0.19733
18170	17.701	3.4545	0.	0.1831
18171	17.61	3.4545	5.e-002	12.761
18172	17.61	3.7273	0.	0.18759
18173	17.701	3.6364	0.	0.17216
18174	17.61	3.6364	5.e-002	11.995
18175	17.61	3.9091	0.	0.19284
18176	17.701	3.8182	0.	0.1703
18177	17.61	3.8182	5.e-002	11.067
18178	17.61	4.0909	0.	0.21912
18179	17.701	4.	0.	0.18358
18180	17.61	4.	5.e-002	10.034
18181	17.61	4.2727	0.	0.26879
18182	17.701	4.1818	0.	0.21477
18183	17.61	4.1818	5.e-002	8.9371
18184	17.61	4.4545	0.	0.34678
18185	17.701	4.3636	0.	0.26538
18186	17.61	4.3636	5.e-002	7.8108
18187	17.61	4.6364	0.	0.47398
18188	17.701	4.5455	0.	0.34277
18189	17.61	4.5455	5.e-002	6.6997
18190	17.61	4.8182	0.	0.73261
18191	17.701	4.7273	0.	0.47527
18192	17.61	4.7273	5.e-002	5.6627
18193	17.61	5.	0.	1.6453
18194	17.701	4.9091	0.	0.78687
18195	17.61	4.9091	5.e-002	4.7603
18196	17.61	5.1818	0.	8.1849
18197	17.701	5.0909	0.	2.4441
18198	17.61	5.0909	5.e-002	4.0354
18199	17.61	5.3636	0.	18.119
18200	17.701	5.2727	0.	11.448
18201	17.61	5.2727	5.e-002	3.5022
18202	17.61	5.5455	0.	23.752
18203	17.701	5.4545	0.	19.737
18204	17.61	5.4545	5.e-002	3.1596
18205	17.61	5.7273	0.	24.671
18206	17.701	5.6364	0.	23.171
18207	17.61	5.6364	5.e-002	3.1689
18208	17.701	5.8182	0.	22.361
18209	17.61	5.8182	5.e-002	6.2263
18210	17.61	5.9091	0.	14.303
18211	17.792	0.27273	0.	20.924
18212	17.884	0.18182	0.	19.249
18213	17.792	0.18182	5.e-002	4.6981
18214	17.792	9.0909e-002	0.	12.5
18215	17.792	0.45455	0.	19.249
18216	17.884	0.36364	0.	19.182
18217	17.792	0.36364	5.e-002	1.8768
18218	17.792	0.63636	0.	13.088
18219	17.884	0.54545	0.	15.17
18220	17.792	0.54545	5.e-002	2.123
18221	17.792	0.81818	0.	3.7535
18222	17.884	0.72727	0.	6.8266
18223	17.792	0.72727	5.e-002	2.715
18224	17.792	1.	0.	0.82127
18225	17.884	0.90909	0.	1.0644
18226	17.792	0.90909	5.e-002	3.4396
18227	17.792	1.1818	0.	0.45475
18228	17.884	1.0909	0.	0.47428
18229	17.792	1.0909	5.e-002	4.2656
18230	17.792	1.3636	0.	0.32263
18231	17.884	1.2727	0.	0.32071
18232	17.792	1.2727	5.e-002	5.1701
18233	17.792	1.5455	0.	0.25036
18234	17.884	1.4545	0.	0.24593
18235	17.792	1.4545	5.e-002	6.123
18236	17.792	1.7273	0.	0.20364
18237	17.884	1.6364	0.	0.1992
18238	17.792	1.6364	5.e-002	7.0895
18239	17.792	1.9091	0.	0.17311
18240	17.884	1.8182	0.	0.16751
18241	17.792	1.8182	5.e-002	8.0371
18242	17.792	2.0909	0.	0.15616
18243	17.884	2.	0.	0.14744
18244	17.792	2.	5.e-002	8.94
18245	17.792	2.2727	0.	0.15117
18246	17.884	2.1818	0.	0.13788
18247	17.792	2.1818	5.e-002	9.7752
18248	17.792	2.4545	0.	0.15533
18249	17.884	2.3636	0.	0.13729
18250	17.792	2.3636	5.e-002	10.514
18251	17.792	2.6364	0.	0.16402
18252	17.884	2.5455	0.	0.14263
18253	17.792	2.5455	5.e-002	11.12
18254	17.792	2.8182	0.	0.17194
18255	17.884	2.7273	0.	0.14965
18256	17.792	2.7273	5.e-002	11.552
18257	17.792	3.	0.	0.17507
18258	17.884	2.9091	0.	0.15434
18259	17.792	2.9091	5.e-002	11.777
18260	17.792	3.1818	0.	0.17194
18261	17.884	3.0909	0.	0.15434
18262	17.792	3.0909	5.e-002	11.777
18263	17.792	3.3636	0.	0.16402
18264	17.884	3.2727	0.	0.14965
18265	17.792	3.2727	5.e-002	11.552
18266	17.792	3.5455	0.	0.15533
18267	17.884	3.4545	0.	0.14263
18268	17.792	3.4545	5.e-002	11.12
18269	17.792	3.7273	0.	0.15117
18270	17.884	3.6364	0.	0.13729
18271	17.792	3.6364	5.e-002	10.514
18272	17.792	3.9091	0.	0.15616
18273	17.884	3.8182	0.	0.13788
18274	17.792	3.8182	5.e-002	9.7752
18275	17.792	4.0909	0.	0.17311
18276	17.884	4.	0.	0.14744
18277	17.792	4.	5.e-002	8.94
18278	17.792	4.2727	0.	0.20364
18279	17.884	4.1818	0.	0.16751
18280	17.792	4.1818	5.e-002	8.0371
18281	17.792	4.4545	0.	0.25036
18282	17.884	4.3636	0.	0.1992
18283	17.792	4.3636	5.e-002	7.0895
18284	17.792	4.6364	0.	0.32263
18285	17.884	4.5455	0.	0.24593
18286	17.792	4.5455	5.e-002	6.123
18287	17.792	4.8182	0.	0.45475
18288	17.884	4.7273	0.	0.32071
18289	17.792	4.7273	5.e-002	5.1701
18290	17.792	5.	0.	0.82126
18291	17.884	4.9091	0.	0.47428
18292	17.792	4.9091	5.e-002	4.2656
18293	17.792	5.1818	0.	3.7535
18294	17.884	5.0909	0.	1.0644
18295	17.792	5.0909	5.e-002	3.4396
18296	17.792	5.3636	0.	13.088
18297	17.884	5.2727	0.	6.8266
18298	17.792	5.2727	5.e-002	2.715
18299	17.792	5.5455	0.	19.249
18300	17.884	5.4545	0.	15.17
18301	17.792	5.4545	5.e-002	2.123
18302	17.792	5.7273	0.	20.924
18303	17.884	5.6364	0.	19.182
18304	17.792	5.6364	5.e-002	1.8768
18305	17.884	5.8182	0.	19.249
18306	17.792	5.8182	5.e-002	4.6981
18307	17.792	5.9091	0.	12.5
18308	17.975	0.27273	0.	17.52
18309	18.066	0.18182	0.	16.547
18310	17.975	0.18182	5.e-002	3.4199
18311	17.975	9.0909e-002	0.	10.899
18312	17.975	0.45455	0.	15.136
18313	18.066	0.36364	0.	15.564
18314	17.975	0.36364	5.e-002	0.9839
18315	17.975	0.63636	0.	8.7422
18316	18.066	0.54545	0.	11.128
18317	17.975	0.54545	5.e-002	1.6188
18318	17.975	0.81818	0.	1.4564
18319	18.066	0.72727	0.	3.2716
18320	17.975	0.72727	5.e-002	2.3817
18321	17.975	1.	0.	0.47466
18322	18.066	0.90909	0.	0.55257
18323	17.975	0.90909	5.e-002	3.1768
18324	17.975	1.1818	0.	0.3042
18325	18.066	1.0909	0.	0.30903
18326	17.975	1.0909	5.e-002	4.0005
18327	17.975	1.3636	0.	0.23109
18328	18.066	1.2727	0.	0.22732
18329	17.975	1.2727	5.e-002	4.8436
18330	17.975	1.5455	0.	0.18755
18331	18.066	1.4545	0.	0.18298
18332	17.975	1.4545	5.e-002	5.6901
18333	17.975	1.7273	0.	0.15794
18334	18.066	1.6364	0.	0.15353
18335	17.975	1.6364	5.e-002	6.5204
18336	17.975	1.9091	0.	0.13779
18337	18.066	1.8182	0.	0.13273
18338	17.975	1.8182	5.e-002	7.3157
18339	17.975	2.0909	0.	0.12589
18340	18.066	2.	0.	0.1189
18341	17.975	2.	5.e-002	8.0597
18342	17.975	2.2727	0.	0.12141
18343	18.066	2.1818	0.	0.11154
18344	17.975	2.1818	5.e-002	8.7362
18345	17.975	2.4545	0.	0.12263
18346	18.066	2.3636	0.	0.10975
18347	17.975	2.3636	5.e-002	9.3256
18348	17.975	2.6364	0.	0.1268
18349	18.066	2.5455	0.	0.11174
18350	17.975	2.5455	5.e-002	9.8027
18351	17.975	2.8182	0.	0.13091
18352	18.066	2.7273	0.	0.11508
18353	17.975	2.7273	5.e-002	10.141
18354	17.975	3.	0.	0.13258
18355	18.066	2.9091	0.	0.11745
18356	17.975	2.9091	5.e-002	10.316
18357	17.975	3.1818	0.	0.13091
18358	18.066	3.0909	0.	0.11745
18359	17.975	3.0909	5.e-002	10.316
18360	17.975	3.3636	0.	0.1268
18361	18.066	3.2727	0.	0.11508
18362	17.975	3.2727	5.e-002	10.141
18363	17.975	3.5455	0.	0.12263
18364	18.066	3.4545	0.	0.11174
18365	17.975	3.4545	5.e-002	9.8027
18366	17.975	3.7273	0.	0.12141
18367	18.066	3.6364	0.	0.10975
18368	17.975	3.6364	5.e-002	9.3255
18369	17.975	3.9091	0.	0.12589
18370	18.066	3.8182	0.	0.11154
18371	17.975	3.8182	5.e-002	8.7362
18372	17.975	4.0909	0.	0.13779
18373	18.066	4.	0.	0.1189
18374	17.975	4.	5.e-002	8.0597
18375	17.975	4.2727	0.	0.15794
18376	18.066	4.1818	0.	0.13273
18377	17.975	4.1818	5.e-002	7.3157
18378	17.975	4.4545	0.	0.18755
18379	18.066	4.3636	0.	0.15353
18380	17.975	4.3636	5.e-002	6.5204
18381	17.975	4.6364	0.	0.23109
18382	18.066	4.5455	0.	0.18298
18383	17.975	4.5455	5.e-002	5.6901
18384	17.975	4.8182	0.	0.3042
18385	18.066	4.7273	0.	0.22732
18386	17.975	4.7273	5.e-002	4.8436
18387	17.975	5.	0.	0.47466
18388	18.066	4.9091	0.	0.30903
18389	17.975	4.9091	5.e-002	4.0005
18390	17.975	5.1818	0.	1.4564
18391	18.066	5.0909	0.	0.55257
18392	17.975	5.0909	5.e-002	3.1768
18393	17.975	5.3636	0.	8.7422
18394	18.066	5.2727	0.	3.2716
18395	17.975	5.2727	5.e-002	2.3817
18396	17.975	5.5455	0.	15.136
18397	18.066	5.4545	0.	11.128
18398	17.975	5.4545	5.e-002	1.6188
18399	17.975	5.7273	0.	17.52
18400	18.066	5.6364	0.	15.564
18401	17.975	5.6364	5.e-002	0.98391
18402	18.066	5.8182	0.	16.547
18403	17.975	5.8182	5.e-002	3.4199
18404	17.975	5.9091	0.	10.899
18405	18.158	0.27273	0.	14.568
18406	18.249	0.18182	0.	14.293
18407	18.158	0.18182	5.e-002	2.3691
18408	18.158	9.0909e-002	0.	9.5447
18409	18.158	0.45455	0.	11.547
18410	18.249	0.36364	0.	12.438
18411	18.158	0.36364	5.e-002	0.89371
18412	18.158	0.63636	0.	5.1463
18413	18.249	0.54545	0.	7.7034
18414	18.158	0.54545	5.e-002	1.6784
18415	18.158	0.81818	0.	0.63865
18416	18.249	0.72727	0.	1.1997
18417	18.158	0.72727	5.e-002	2.4051
18418	18.158	1.	0.	0.29893
18419	18.249	0.90909	0.	0.3233
18420	18.158	0.90909	5.e-002	3.1428
18421	18.158	1.1818	0.	0.21331
18422	18.249	1.0909	0.	0.21181
18423	18.158	1.0909	5.e-002	3.8888
18424	18.158	1.3636	0.	0.17123
18425	18.249	1.2727	0.	0.16665
18426	18.158	1.2727	5.e-002	4.6338
18427	18.158	1.5455	0.	0.14418
18428	18.249	1.4545	0.	0.13969
18429	18.158	1.4545	5.e-002	5.3653
18430	18.158	1.7273	0.	0.12483
18431	18.249	1.6364	0.	0.12066
18432	18.158	1.6364	5.e-002	6.0697
18433	18.158	1.9091	0.	0.11105
18434	18.249	1.8182	0.	0.10656
18435	18.158	1.8182	5.e-002	6.7341
18436	18.158	2.0909	0.	0.10226
18437	18.249	2.	0.	9.6659e-002
18438	18.158	2.	5.e-002	7.3468
18439	18.158	2.2727	0.	9.8016e-002
18440	18.249	2.1818	0.	9.0703e-002
18441	18.158	2.1818	5.e-002	7.8957
18442	18.158	2.4545	0.	9.7375e-002
18443	18.249	2.3636	0.	8.8227e-002
18444	18.158	2.3636	5.e-002	8.367
18445	18.158	2.6364	0.	9.8817e-002
18446	18.249	2.5455	0.	8.8247e-002
18447	18.158	2.5455	5.e-002	8.7437
18448	18.158	2.8182	0.	0.10061
18449	18.249	2.7273	0.	8.9405e-002
18450	18.158	2.7273	5.e-002	9.0079
18451	18.158	3.	0.	0.10138
18452	18.249	2.9091	0.	9.0386e-002
18453	18.158	2.9091	5.e-002	9.1445
18454	18.158	3.1818	0.	0.10061
18455	18.249	3.0909	0.	9.0386e-002
18456	18.158	3.0909	5.e-002	9.1445
18457	18.158	3.3636	0.	9.8816e-002
18458	18.249	3.2727	0.	8.9405e-002
18459	18.158	3.2727	5.e-002	9.0079
18460	18.158	3.5455	0.	9.7374e-002
18461	18.249	3.4545	0.	8.8247e-002
18462	18.158	3.4545	5.e-002	8.7437
18463	18.158	3.7273	0.	9.8017e-002
18464	18.249	3.6364	0.	8.8227e-002
18465	18.158	3.6364	5.e-002	8.367
18466	18.158	3.9091	0.	0.10226
18467	18.249	3.8182	0.	9.0703e-002
18468	18.158	3.8182	5.e-002	7.8957
18469	18.158	4.0909	0.	0.11105
18470	18.249	4.	0.	9.6659e-002
18471	18.158	4.	5.e-002	7.3468
18472	18.158	4.2727	0.	0.12483
18473	18.249	4.1818	0.	0.10656
18474	18.158	4.1818	5.e-002	6.7342
18475	18.158	4.4545	0.	0.14418
18476	18.249	4.3636	0.	0.12066
18477	18.158	4.3636	5.e-002	6.0697
18478	18.158	4.6364	0.	0.17123
18479	18.249	4.5455	0.	0.13969
18480	18.158	4.5455	5.e-002	5.3653
18481	18.158	4.8182	0.	0.21331
18482	18.249	4.7273	0.	0.16665
18483	18.158	4.7273	5.e-002	4.6338
18484	18.158	5.	0.	0.29893
18485	18.249	4.9091	0.	0.21181
18486	18.158	4.9091	5.e-002	3.8888
18487	18.158	5.1818	0.	0.63866
18488	18.249	5.0909	0.	0.3233
18489	18.158	5.0909	5.e-002	3.1428
18490	18.158	5.3636	0.	5.1463
18491	18.249	5.2727	0.	1.1997
18492	18.158	5.2727	5.e-002	2.4051
18493	18.158	5.5455	0.	11.547
18494	18.249	5.4545	0.	7.7034
18495	18.158	5.4545	5.e-002	1.6784
18496	18.158	5.7273	0.	14.568
18497	18.249	5.6364	0.	12.438
18498	18.158	5.6364	5.e-002	0.89372
18499	18.249	5.8182	0.	14.293
18500	18.158	5.8182	5.e-002	2.3691
18501	18.158	5.9091	0.	9.5447
18502	18.34	0.27273	0.	12.115
18503	18.431	0.18182	0.	12.489
18504	18.34	0.18182	5.e-002	1.5189
18505	18.34	9.0909e-002	0.	8.449
18506	18.34	0.45455	0.	8.5495
18507	18.431	0.36364	0.	9.8542
18508	18.34	0.36364	5.e-002	1.3902
18509	18.34	0.63636	0.	2.4086
18510	18.431	0.54545	0.	4.9363
18511	18.34	0.54545	5.e-002	2.0266
18512	18.34	0.81818	0.	0.33513
18513	18.431	0.72727	0.	0.4746
18514	18.34	0.72727	5.e-002	2.6138
18515	18.34	1.	0.	0.19946
18516	18.431	0.90909	0.	0.20482
18517	18.34	0.90909	5.e-002	3.2341
18518	18.34	1.1818	0.	0.15476
18519	18.431	1.0909	0.	0.15075
18520	18.34	1.0909	5.e-002	3.8694
18521	18.34	1.3636	0.	0.13008
18522	18.431	1.2727	0.	0.12539
18523	18.34	1.2727	5.e-002	4.5033
18524	18.34	1.5455	0.	0.11295
18525	18.431	1.4545	0.	0.10879
18526	18.34	1.4545	5.e-002	5.1218
18527	18.34	1.7273	0.	9.9981e-002
18528	18.431	1.6364	0.	9.6272e-002
18529	18.34	1.6364	5.e-002	5.7125
18530	18.34	1.9091	0.	9.0219e-002
18531	18.431	1.8182	0.	8.6473e-002
18532	18.34	1.8182	5.e-002	6.2644
18533	18.34	2.0909	0.	8.3468e-002
18534	18.431	2.	0.	7.9131e-002
18535	18.34	2.	5.e-002	6.7681
18536	18.34	2.2727	0.	7.9543e-002
18537	18.431	2.1818	0.	7.4205e-002
18538	18.34	2.1818	5.e-002	7.2141
18539	18.34	2.4545	0.	7.7949e-002
18540	18.431	2.3636	0.	7.1487e-002
18541	18.34	2.3636	5.e-002	7.5922
18542	18.34	2.6364	0.	7.7858e-002
18543	18.431	2.5455	0.	7.0463e-002
18544	18.34	2.5455	5.e-002	7.891
18545	18.34	2.8182	0.	7.8318e-002
18546	18.431	2.7273	0.	7.0406e-002
18547	18.34	2.7273	5.e-002	8.0986
18548	18.34	3.	0.	7.8568e-002
18549	18.431	2.9091	0.	7.0598e-002
18550	18.34	2.9091	5.e-002	8.2053
18551	18.34	3.1818	0.	7.8318e-002
18552	18.431	3.0909	0.	7.0598e-002
18553	18.34	3.0909	5.e-002	8.2053
18554	18.34	3.3636	0.	7.7859e-002
18555	18.431	3.2727	0.	7.0406e-002
18556	18.34	3.2727	5.e-002	8.0986
18557	18.34	3.5455	0.	7.7949e-002
18558	18.431	3.4545	0.	7.0464e-002
18559	18.34	3.4545	5.e-002	7.891
18560	18.34	3.7273	0.	7.9542e-002
18561	18.431	3.6364	0.	7.1487e-002
18562	18.34	3.6364	5.e-002	7.5922
18563	18.34	3.9091	0.	8.3468e-002
18564	18.431	3.8182	0.	7.4205e-002
18565	18.34	3.8182	5.e-002	7.2141
18566	18.34	4.0909	0.	9.0219e-002
18567	18.431	4.	0.	7.9132e-002
18568	18.34	4.	5.e-002	6.7681
18569	18.34	4.2727	0.	9.998e-002
18570	18.431	4.1818	0.	8.6473e-002
18571	18.34	4.1818	5.e-002	6.2644
18572	18.34	4.4545	0.	0.11295
18573	18.431	4.3636	0.	9.6271e-002
18574	18.34	4.3636	5.e-002	5.7124
18575	18.34	4.6364	0.	0.13008
18576	18.431	4.5455	0.	0.10879
18577	18.34	4.5455	5.e-002	5.1218
18578	18.34	4.8182	0.	0.15476
18579	18.431	4.7273	0.	0.12539
18580	18.34	4.7273	5.e-002	4.5033
18581	18.34	5.	0.	0.19946
18582	18.431	4.9091	0.	0.15075
18583	18.34	4.9091	5.e-002	3.8694
18584	18.34	5.1818	0.	0.33513
18585	18.431	5.0909	0.	0.20482
18586	18.34	5.0909	5.e-002	3.2341
18587	18.34	5.3636	0.	2.4086
18588	18.431	5.2727	0.	0.4746
18589	18.34	5.2727	5.e-002	2.6138
18590	18.34	5.5455	0.	8.5495
18591	18.431	5.4545	0.	4.9363
18592	18.34	5.4545	5.e-002	2.0266
18593	18.34	5.7273	0.	12.115
18594	18.431	5.6364	0.	9.8542
18595	18.34	5.6364	5.e-002	1.3902
18596	18.431	5.8182	0.	12.489
18597	18.34	5.8182	5.e-002	1.5189
18598	18.34	5.9091	0.	8.449
18599	18.523	0.27273	0.	10.163
18600	18.614	0.18182	0.	11.112
18601	18.523	0.18182	5.e-002	0.84303
18602	18.523	9.0909e-002	0.	7.6062
18603	18.523	0.45455	0.	6.1611
18604	18.614	0.36364	0.	7.8191
18605	18.523	0.36364	5.e-002	1.916
18606	18.523	0.63636	0.	0.82408
18607	18.614	0.54545	0.	2.8333
18608	18.523	0.54545	5.e-002	2.4229
18609	18.523	0.81818	0.	0.19853
18610	18.614	0.72727	0.	0.23702
18611	18.523	0.72727	5.e-002	2.8776
18612	18.523	1.	0.	0.13909
18613	18.614	0.90909	0.	0.13756
18614	18.523	0.90909	5.e-002	3.3763
18615	18.523	1.1818	0.	0.11542
18616	18.614	1.0909	0.	0.11071
18617	18.523	1.0909	5.e-002	3.8987
18618	18.523	1.3636	0.	0.10089
18619	18.614	1.2727	0.	9.6472e-002
18620	18.523	1.2727	5.e-002	4.4247
18621	18.523	1.5455	0.	8.9932e-002
18622	18.614	1.4545	0.	8.6228e-002
18623	18.523	1.4545	5.e-002	4.9389
18624	18.523	1.7273	0.	8.1079e-002
18625	18.614	1.6364	0.	7.7896e-002
18626	18.523	1.6364	5.e-002	5.429
18627	18.523	1.9091	0.	7.3992e-002
18628	18.614	1.8182	0.	7.095e-002
18629	18.523	1.8182	5.e-002	5.885
18630	18.523	2.0909	0.	6.868e-002
18631	18.614	2.	0.	6.5385e-002
18632	18.523	2.	5.e-002	6.2981
18633	18.523	2.2727	0.	6.5124e-002
18634	18.614	2.1818	0.	6.1275e-002
18635	18.523	2.1818	5.e-002	6.6609
18636	18.523	2.4545	0.	6.3111e-002
18637	18.614	2.3636	0.	5.8581e-002
18638	18.523	2.3636	5.e-002	6.9654
18639	18.523	2.6364	0.	6.2225e-002
18640	18.614	2.5455	0.	5.7075e-002
18641	18.523	2.5455	5.e-002	7.2037
18642	18.523	2.8182	0.	6.1966e-002
18643	18.614	2.7273	0.	5.6395e-002
18644	18.523	2.7273	5.e-002	7.368
18645	18.523	3.	0.	6.1932e-002
18646	18.614	2.9091	0.	5.6171e-002
18647	18.523	2.9091	5.e-002	7.452
18648	18.523	3.1818	0.	6.1966e-002
18649	18.614	3.0909	0.	5.617e-002
18650	18.523	3.0909	5.e-002	7.452
18651	18.523	3.3636	0.	6.2225e-002
18652	18.614	3.2727	0.	5.6396e-002
18653	18.523	3.2727	5.e-002	7.368
18654	18.523	3.5455	0.	6.3111e-002
18655	18.614	3.4545	0.	5.7075e-002
18656	18.523	3.4545	5.e-002	7.2037
18657	18.523	3.7273	0.	6.5125e-002
18658	18.614	3.6364	0.	5.8582e-002
18659	18.523	3.6364	5.e-002	6.9654
18660	18.523	3.9091	0.	6.8682e-002
18661	18.614	3.8182	0.	6.1276e-002
18662	18.523	3.8182	5.e-002	6.6609
18663	18.523	4.0909	0.	7.3992e-002
18664	18.614	4.	0.	6.5385e-002
18665	18.523	4.	5.e-002	6.2981
18666	18.523	4.2727	0.	8.1079e-002
18667	18.614	4.1818	0.	7.095e-002
18668	18.523	4.1818	5.e-002	5.8849
18669	18.523	4.4545	0.	8.9932e-002
18670	18.614	4.3636	0.	7.7895e-002
18671	18.523	4.3636	5.e-002	5.429
18672	18.523	4.6364	0.	0.10089
18673	18.614	4.5455	0.	8.6228e-002
18674	18.523	4.5455	5.e-002	4.9389
18675	18.523	4.8182	0.	0.11542
18676	18.614	4.7273	0.	9.6471e-002
18677	18.523	4.7273	5.e-002	4.4247
18678	18.523	5.	0.	0.13909
18679	18.614	4.9091	0.	0.11071
18680	18.523	4.9091	5.e-002	3.8987
18681	18.523	5.1818	0.	0.19853
18682	18.614	5.0909	0.	0.13756
18683	18.523	5.0909	5.e-002	3.3763
18684	18.523	5.3636	0.	0.82409
18685	18.614	5.2727	0.	0.23702
18686	18.523	5.2727	5.e-002	2.8776
18687	18.523	5.5455	0.	6.1611
18688	18.614	5.4545	0.	2.8334
18689	18.523	5.4545	5.e-002	2.4229
18690	18.523	5.7273	0.	10.163
18691	18.614	5.6364	0.	7.8191
18692	18.523	5.6364	5.e-002	1.9161
18693	18.614	5.8182	0.	11.112
18694	18.523	5.8182	5.e-002	0.84303
18695	18.523	5.9091	0.	7.6062
18696	18.705	0.27273	0.	8.6899
18697	18.797	0.18182	0.	10.128
18698	18.705	0.18182	5.e-002	0.33094
18699	18.705	9.0909e-002	0.	7.
18700	18.705	0.45455	0.	4.3636
18701	18.797	0.36364	0.	6.3096
18702	18.705	0.36364	5.e-002	2.364
18703	18.705	0.63636	0.	0.30771
18704	18.797	0.54545	0.	1.3865
18705	18.705	0.54545	5.e-002	2.782
18706	18.705	0.81818	0.	0.12775
18707	18.797	0.72727	0.	0.13805
18708	18.705	0.72727	5.e-002	3.1332
18709	18.705	1.	0.	0.10062
18710	18.797	0.90909	0.	9.6812e-002
18711	18.705	0.90909	5.e-002	3.5276
18712	18.705	1.1818	0.	8.8223e-002
18713	18.797	1.0909	0.	8.3603e-002
18714	18.705	1.0909	5.e-002	3.949
18715	18.705	1.3636	0.	7.9728e-002
18716	18.797	1.2727	0.	7.5773e-002
18717	18.705	1.2727	5.e-002	4.3784
18718	18.705	1.5455	0.	7.27e-002
18719	18.797	1.4545	0.	6.9496e-002
18720	18.705	1.4545	5.e-002	4.8007
18721	18.705	1.7273	0.	6.6578e-002
18722	18.797	1.6364	0.	6.3922e-002
18723	18.705	1.6364	5.e-002	5.2039
18724	18.705	1.9091	0.	6.1338e-002
18725	18.797	1.8182	0.	5.8929e-002
18726	18.705	1.8182	5.e-002	5.5785
18727	18.705	2.0909	0.	5.7105e-002
18728	18.797	2.	0.	5.4651e-002
18729	18.705	2.	5.e-002	5.9167
18730	18.705	2.2727	0.	5.3959e-002
18731	18.797	2.1818	0.	5.1227e-002
18732	18.705	2.1818	5.e-002	6.2119
18733	18.705	2.4545	0.	5.1855e-002
18734	18.797	2.3636	0.	4.8718e-002
18735	18.705	2.3636	5.e-002	6.458
18736	18.705	2.6364	0.	5.0618e-002
18737	18.797	2.5455	0.	4.7063e-002
18738	18.705	2.5455	5.e-002	6.6491
18739	18.705	2.8182	0.	5.0011e-002
18740	18.797	2.7273	0.	4.6112e-002
18741	18.705	2.7273	5.e-002	6.7801
18742	18.705	3.	0.	4.9834e-002
18743	18.797	2.9091	0.	4.5691e-002
18744	18.705	2.9091	5.e-002	6.8467
18745	18.705	3.1818	0.	5.0011e-002
18746	18.797	3.0909	0.	4.5691e-002
18747	18.705	3.0909	5.e-002	6.8467
18748	18.705	3.3636	0.	5.0618e-002
18749	18.797	3.2727	0.	4.6112e-002
18750	18.705	3.2727	5.e-002	6.7801
18751	18.705	3.5455	0.	5.1855e-002
18752	18.797	3.4545	0.	4.7064e-002
18753	18.705	3.4545	5.e-002	6.6491
18754	18.705	3.7273	0.	5.3959e-002
18755	18.797	3.6364	0.	4.8718e-002
18756	18.705	3.6364	5.e-002	6.458
18757	18.705	3.9091	0.	5.7104e-002
18758	18.797	3.8182	0.	5.1226e-002
18759	18.705	3.8182	5.e-002	6.2119
18760	18.705	4.0909	0.	6.1338e-002
18761	18.797	4.	0.	5.465e-002
18762	18.705	4.	5.e-002	5.9167
18763	18.705	4.2727	0.	6.6577e-002
18764	18.797	4.1818	0.	5.893e-002
18765	18.705	4.1818	5.e-002	5.5785
18766	18.705	4.4545	0.	7.2699e-002
18767	18.797	4.3636	0.	6.392e-002
18768	18.705	4.3636	5.e-002	5.2039
18769	18.705	4.6364	0.	7.9728e-002
18770	18.797	4.5455	0.	6.9496e-002
18771	18.705	4.5455	5.e-002	4.8007
18772	18.705	4.8182	0.	8.8223e-002
18773	18.797	4.7273	0.	7.5773e-002
18774	18.705	4.7273	5.e-002	4.3784
18775	18.705	5.	0.	0.10062
18776	18.797	4.9091	0.	8.3602e-002
18777	18.705	4.9091	5.e-002	3.9489
18778	18.705	5.1818	0.	0.12775
18779	18.797	5.0909	0.	9.6812e-002
18780	18.705	5.0909	5.e-002	3.5276
18781	18.705	5.3636	0.	0.30771
18782	18.797	5.2727	0.	0.13805
18783	18.705	5.2727	5.e-002	3.1332
18784	18.705	5.5455	0.	4.3636
18785	18.797	5.4545	0.	1.3865
18786	18.705	5.4545	5.e-002	2.782
18787	18.705	5.7273	0.	8.6899
18788	18.797	5.6364	0.	6.3096
18789	18.705	5.6364	5.e-002	2.364
18790	18.797	5.8182	0.	10.128
18791	18.705	5.8182	5.e-002	0.33096
18792	18.705	5.9091	0.	7.
18793	18.888	0.27273	0.	7.6597
18794	18.979	0.18182	0.	9.4958
18795	18.888	0.18182	5.e-002	0.21642
18796	18.888	9.0909e-002	0.	6.6085
18797	18.888	0.45455	0.	3.1172
18798	18.979	0.36364	0.	5.2863
18799	18.888	0.36364	5.e-002	2.728
18800	18.888	0.63636	0.	0.15267
18801	18.979	0.54545	0.	0.58008
18802	18.888	0.54545	5.e-002	3.0838
18803	18.888	0.81818	0.	8.7436e-002
18804	18.979	0.72727	0.	8.8726e-002
18805	18.888	0.72727	5.e-002	3.3572
18806	18.888	1.	0.	7.5192e-002
18807	18.979	0.90909	0.	7.0888e-002
18808	18.888	0.90909	5.e-002	3.6675
18809	18.888	1.1818	0.	6.8999e-002
18810	18.979	1.0909	0.	6.4798e-002
18811	18.888	1.0909	5.e-002	4.0042
18812	18.888	1.3636	0.	6.4172e-002
18813	18.979	1.2727	0.	6.073e-002
18814	18.888	1.2727	5.e-002	4.3513
18815	18.888	1.5455	0.	5.969e-002
18816	18.979	1.4545	0.	5.6974e-002
18817	18.888	1.4545	5.e-002	4.6951
18818	18.888	1.7273	0.	5.5428e-002
18819	18.979	1.6364	0.	5.3252e-002
18820	18.888	1.6364	5.e-002	5.0245
18821	18.888	1.9091	0.	5.1511e-002
18822	18.979	1.8182	0.	4.9642e-002
18823	18.888	1.8182	5.e-002	5.3309
18824	18.888	2.0909	0.	4.8122e-002
18825	18.979	2.	0.	4.6332e-002
18826	18.888	2.	5.e-002	5.6072
18827	18.888	2.2727	0.	4.5398e-002
18828	18.979	2.1818	0.	4.3497e-002
18829	18.888	2.1818	5.e-002	5.8475
18830	18.888	2.4545	0.	4.3389e-002
18831	18.979	2.3636	0.	4.1257e-002
18832	18.888	2.3636	5.e-002	6.0468
18833	18.888	2.6364	0.	4.2058e-002
18834	18.979	2.5455	0.	3.9643e-002
18835	18.888	2.5455	5.e-002	6.2009
18836	18.888	2.8182	0.	4.1317e-002
18837	18.979	2.7273	0.	3.862e-002
18838	18.888	2.7273	5.e-002	6.306
18839	18.888	3.	0.	4.1081e-002
18840	18.979	2.9091	0.	3.8131e-002
18841	18.888	2.9091	5.e-002	6.3592
18842	18.888	3.1818	0.	4.1317e-002
18843	18.979	3.0909	0.	3.813e-002
18844	18.888	3.0909	5.e-002	6.3592
18845	18.888	3.3636	0.	4.2059e-002
18846	18.979	3.2727	0.	3.862e-002
18847	18.888	3.2727	5.e-002	6.306
18848	18.888	3.5455	0.	4.339e-002
18849	18.979	3.4545	0.	3.9642e-002
18850	18.888	3.4545	5.e-002	6.2009
18851	18.888	3.7273	0.	4.5399e-002
18852	18.979	3.6364	0.	4.1258e-002
18853	18.888	3.6364	5.e-002	6.0468
18854	18.888	3.9091	0.	4.8122e-002
18855	18.979	3.8182	0.	4.3498e-002
18856	18.888	3.8182	5.e-002	5.8475
18857	18.888	4.0909	0.	5.1511e-002
18858	18.979	4.	0.	4.6331e-002
18859	18.888	4.	5.e-002	5.6072
18860	18.888	4.2727	0.	5.5427e-002
18861	18.979	4.1818	0.	4.9642e-002
18862	18.888	4.1818	5.e-002	5.3309
18863	18.888	4.4545	0.	5.9689e-002
18864	18.979	4.3636	0.	5.3251e-002
18865	18.888	4.3636	5.e-002	5.0245
18866	18.888	4.6364	0.	6.4171e-002
18867	18.979	4.5455	0.	5.6973e-002
18868	18.888	4.5455	5.e-002	4.695
18869	18.888	4.8182	0.	6.8999e-002
18870	18.979	4.7273	0.	6.0729e-002
18871	18.888	4.7273	5.e-002	4.3513
18872	18.888	5.	0.	7.5192e-002
18873	18.979	4.9091	0.	6.4797e-002
18874	18.888	4.9091	5.e-002	4.0042
18875	18.888	5.1818	0.	8.7436e-002
18876	18.979	5.0909	0.	7.0888e-002
18877	18.888	5.0909	5.e-002	3.6675
18878	18.888	5.3636	0.	0.15267
18879	18.979	5.2727	0.	8.8725e-002
18880	18.888	5.2727	5.e-002	3.3572
18881	18.888	5.5455	0.	3.1172
18882	18.979	5.4545	0.	0.58009
18883	18.888	5.4545	5.e-002	3.0838
18884	18.888	5.7273	0.	7.6597
18885	18.979	5.6364	0.	5.2863
18886	18.888	5.6364	5.e-002	2.728
18887	18.979	5.8182	0.	9.4958
18888	18.888	5.8182	5.e-002	0.21642
18889	18.888	5.9091	0.	6.6086
18890	19.07	0.27273	0.	7.0282
18891	19.162	0.18182	0.	9.1747
18892	19.07	0.18182	5.e-002	0.49366
18893	19.07	9.0909e-002	0.	6.4079
18894	19.07	0.45455	0.	2.3702
18895	19.162	0.36364	0.	4.7017
18896	19.07	0.36364	5.e-002	3.018
18897	19.07	0.63636	0.	9.0069e-002
18898	19.162	0.54545	0.	0.26663
18899	19.07	0.54545	5.e-002	3.329
18900	19.07	0.81818	0.	6.2868e-002
18901	19.162	0.72727	0.	6.1126e-002
18902	19.07	0.72727	5.e-002	3.5438
18903	19.07	1.	0.	5.7889e-002
18904	19.162	0.90909	0.	5.3752e-002
18905	19.07	0.90909	5.e-002	3.7879
18906	19.07	1.1818	0.	5.5188e-002
18907	19.162	1.0909	0.	5.1493e-002
18908	19.07	1.0909	5.e-002	4.0559
18909	19.07	1.3636	0.	5.2624e-002
18910	19.162	1.2727	0.	4.9674e-002
18911	19.07	1.2727	5.e-002	4.3347
18912	19.07	1.5455	0.	4.9824e-002
18913	19.162	1.4545	0.	4.7552e-002
18914	19.07	1.4545	5.e-002	4.613
18915	19.07	1.7273	0.	4.6863e-002
18916	19.162	1.6364	0.	4.5108e-002
18917	19.07	1.6364	5.e-002	4.8809
18918	19.07	1.9091	0.	4.3928e-002
18919	19.162	1.8182	0.	4.2503e-002
18920	19.07	1.8182	5.e-002	5.1306
18921	19.07	2.0909	0.	4.1222e-002
18922	19.162	2.	0.	3.9947e-002
18923	19.07	2.	5.e-002	5.3558
18924	19.07	2.2727	0.	3.8909e-002
18925	19.162	2.1818	0.	3.7626e-002
18926	19.07	2.1818	5.e-002	5.5514
18927	19.07	2.4545	0.	3.7093e-002
18928	19.162	2.3636	0.	3.5687e-002
18929	19.07	2.3636	5.e-002	5.7133
18930	19.07	2.6364	0.	3.5809e-002
18931	19.162	2.5455	0.	3.4212e-002
18932	19.07	2.5455	5.e-002	5.838
18933	19.07	2.8182	0.	3.5053e-002
18934	19.162	2.7273	0.	3.3228e-002
18935	19.07	2.7273	5.e-002	5.9228
18936	19.07	3.	0.	3.4805e-002
18937	19.162	2.9091	0.	3.274e-002
18938	19.07	2.9091	5.e-002	5.9657
18939	19.07	3.1818	0.	3.5053e-002
18940	19.162	3.0909	0.	3.274e-002
18941	19.07	3.0909	5.e-002	5.9657
18942	19.07	3.3636	0.	3.5809e-002
18943	19.162	3.2727	0.	3.3229e-002
18944	19.07	3.2727	5.e-002	5.9228
18945	19.07	3.5455	0.	3.7093e-002
18946	19.162	3.4545	0.	3.4211e-002
18947	19.07	3.4545	5.e-002	5.838
18948	19.07	3.7273	0.	3.891e-002
18949	19.162	3.6364	0.	3.5688e-002
18950	19.07	3.6364	5.e-002	5.7133
18951	19.07	3.9091	0.	4.1222e-002
18952	19.162	3.8182	0.	3.7627e-002
18953	19.07	3.8182	5.e-002	5.5514
18954	19.07	4.0909	0.	4.3928e-002
18955	19.162	4.	0.	3.9946e-002
18956	19.07	4.	5.e-002	5.3558
18957	19.07	4.2727	0.	4.6863e-002
18958	19.162	4.1818	0.	4.2504e-002
18959	19.07	4.1818	5.e-002	5.1306
18960	19.07	4.4545	0.	4.9824e-002
18961	19.162	4.3636	0.	4.5107e-002
18962	19.07	4.3636	5.e-002	4.8809
18963	19.07	4.6364	0.	5.2622e-002
18964	19.162	4.5455	0.	4.7551e-002
18965	19.07	4.5455	5.e-002	4.6129
18966	19.07	4.8182	0.	5.5187e-002
18967	19.162	4.7273	0.	4.9673e-002
18968	19.07	4.7273	5.e-002	4.3347
18969	19.07	5.	0.	5.7889e-002
18970	19.162	4.9091	0.	5.1492e-002
18971	19.07	4.9091	5.e-002	4.0559
18972	19.07	5.1818	0.	6.2867e-002
18973	19.162	5.0909	0.	5.3752e-002
18974	19.07	5.0909	5.e-002	3.7879
18975	19.07	5.3636	0.	9.007e-002
18976	19.162	5.2727	0.	6.1125e-002
18977	19.07	5.2727	5.e-002	3.5437
18978	19.07	5.5455	0.	2.3702
18979	19.162	5.4545	0.	0.26664
18980	19.07	5.4545	5.e-002	3.329
18981	19.07	5.7273	0.	7.0282
18982	19.162	5.6364	0.	4.7017
18983	19.07	5.6364	5.e-002	3.018
18984	19.162	5.8182	0.	9.1748
18985	19.07	5.8182	5.e-002	0.49366
18986	19.07	5.9091	0.	6.4079
18987	19.253	0.27273	0.	6.7491
18988	19.344	0.18182	0.	9.1242
18989	19.253	0.18182	5.e-002	0.73392
18990	19.253	9.0909e-002	0.	6.3741
18991	19.253	0.45455	0.	2.0687
18992	19.344	0.36364	0.	4.5057
18993	19.253	0.36364	5.e-002	3.2461
18994	19.253	0.63636	0.	5.8979e-002
18995	19.344	0.54545	0.	0.17542
18996	19.253	0.54545	5.e-002	3.524
18997	19.253	0.81818	0.	4.7101e-002
18998	19.344	0.72727	0.	4.4378e-002
18999	19.253	0.72727	5.e-002	3.6944
19000	19.253	1.	0.	4.583e-002
19001	19.344	0.90909	0.	4.2068e-002
19002	19.253	0.90909	5.e-002	3.887
19003	19.253	1.1818	0.	4.5136e-002
19004	19.344	1.0909	0.	4.1932e-002
19005	19.253	1.0909	5.e-002	4.1
19006	19.253	1.3636	0.	4.3999e-002
19007	19.344	1.2727	0.	4.1489e-002
19008	19.253	1.2727	5.e-002	4.3234
19009	19.253	1.5455	0.	4.2343e-002
19010	19.344	1.4545	0.	4.0453e-002
19011	19.253	1.4545	5.e-002	4.5478
19012	19.253	1.7273	0.	4.0317e-002
19013	19.344	1.6364	0.	3.8914e-002
19014	19.253	1.6364	5.e-002	4.7649
19015	19.253	1.9091	0.	3.813e-002
19016	19.344	1.8182	0.	3.7064e-002
19017	19.253	1.8182	5.e-002	4.9679
19018	19.253	2.0909	0.	3.5989e-002
19019	19.344	2.	0.	3.5111e-002
19020	19.253	2.	5.e-002	5.1513
19021	19.253	2.2727	0.	3.4065e-002
19022	19.344	2.1818	0.	3.324e-002
19023	19.253	2.1818	5.e-002	5.3106
19024	19.253	2.4545	0.	3.2483e-002
19025	19.344	2.3636	0.	3.1606e-002
19026	19.253	2.3636	5.e-002	5.4423
19027	19.253	2.6364	0.	3.132e-002
19028	19.344	2.5455	0.	3.0314e-002
19029	19.253	2.5455	5.e-002	5.5435
19030	19.253	2.8182	0.	3.0613e-002
19031	19.344	2.7273	0.	2.9426e-002
19032	19.253	2.7273	5.e-002	5.6123
19033	19.253	3.	0.	3.0376e-002
19034	19.344	2.9091	0.	2.8975e-002
19035	19.253	2.9091	5.e-002	5.647
19036	19.253	3.1818	0.	3.0613e-002
19037	19.344	3.0909	0.	2.8975e-002
19038	19.253	3.0909	5.e-002	5.647
19039	19.253	3.3636	0.	3.1321e-002
19040	19.344	3.2727	0.	2.9426e-002
19041	19.253	3.2727	5.e-002	5.6123
19042	19.253	3.5455	0.	3.2484e-002
19043	19.344	3.4545	0.	3.0314e-002
19044	19.253	3.4545	5.e-002	5.5435
19045	19.253	3.7273	0.	3.4065e-002
19046	19.344	3.6364	0.	3.1606e-002
19047	19.253	3.6364	5.e-002	5.4423
19048	19.253	3.9091	0.	3.5989e-002
19049	19.344	3.8182	0.	3.324e-002
19050	19.253	3.8182	5.e-002	5.3106
19051	19.253	4.0909	0.	3.8131e-002
19052	19.344	4.	0.	3.511e-002
19053	19.253	4.	5.e-002	5.1513
19054	19.253	4.2727	0.	4.0317e-002
19055	19.344	4.1818	0.	3.7064e-002
19056	19.253	4.1818	5.e-002	4.9679
19057	19.253	4.4545	0.	4.2342e-002
19058	19.344	4.3636	0.	3.8914e-002
19059	19.253	4.3636	5.e-002	4.7649
19060	19.253	4.6364	0.	4.3998e-002
19061	19.344	4.5455	0.	4.0452e-002
19062	19.253	4.5455	5.e-002	4.5478
19063	19.253	4.8182	0.	4.5135e-002
19064	19.344	4.7273	0.	4.1489e-002
19065	19.253	4.7273	5.e-002	4.3234
19066	19.253	5.	0.	4.5829e-002
19067	19.344	4.9091	0.	4.1932e-002
19068	19.253	4.9091	5.e-002	4.1
19069	19.253	5.1818	0.	4.7102e-002
19070	19.344	5.0909	0.	4.2068e-002
19071	19.253	5.0909	5.e-002	3.887
19072	19.253	5.3636	0.	5.8979e-002
19073	19.344	5.2727	0.	4.4377e-002
19074	19.253	5.2727	5.e-002	3.6944
19075	19.253	5.5455	0.	2.0687
19076	19.344	5.4545	0.	0.17543
19077	19.253	5.4545	5.e-002	3.524
19078	19.253	5.7273	0.	6.7492
19079	19.344	5.6364	0.	4.5058
19080	19.253	5.6364	5.e-002	3.2461
19081	19.344	5.8182	0.	9.1242
19082	19.253	5.8182	5.e-002	0.73392
19083	19.253	5.9091	0.	6.3741
19084	19.436	0.27273	0.	6.7771
19085	19.527	0.18182	0.	9.306
19086	19.436	0.18182	5.e-002	0.91914
19087	19.436	9.0909e-002	0.	6.4842
19088	19.436	0.45455	0.	2.1641
19089	19.527	0.36364	0.	4.6488
19090	19.436	0.36364	5.e-002	3.4235
19091	19.436	0.63636	0.	4.1423e-002
19092	19.527	0.54545	0.	0.26766
19093	19.436	0.54545	5.e-002	3.6768
19094	19.436	0.81818	0.	3.6562e-002
19095	19.527	0.72727	0.	3.3573e-002
19096	19.436	0.72727	5.e-002	3.8133
19097	19.436	1.	0.	3.7265e-002
19098	19.527	0.90909	0.	3.3902e-002
19099	19.436	0.90909	5.e-002	3.9658
19100	19.436	1.1818	0.	3.7757e-002
19101	19.527	1.0909	0.	3.4985e-002
19102	19.436	1.0909	5.e-002	4.1353
19103	19.436	1.3636	0.	3.7545e-002
19104	19.527	1.2727	0.	3.541e-002
19105	19.436	1.2727	5.e-002	4.3141
19106	19.436	1.5455	0.	3.6686e-002
19107	19.527	1.4545	0.	3.5118e-002
19108	19.436	1.4545	5.e-002	4.4948
19109	19.436	1.7273	0.	3.5356e-002
19110	19.527	1.6364	0.	3.4242e-002
19111	19.436	1.6364	5.e-002	4.6704
19112	19.436	1.9091	0.	3.376e-002
19113	19.527	1.8182	0.	3.2976e-002
19114	19.436	1.8182	5.e-002	4.8352
19115	19.436	2.0909	0.	3.2093e-002
19116	19.527	2.	0.	3.1516e-002
19117	19.436	2.	5.e-002	4.9845
19118	19.436	2.2727	0.	3.0525e-002
19119	19.527	2.1818	0.	3.0039e-002
19120	19.436	2.1818	5.e-002	5.1142
19121	19.436	2.4545	0.	2.9189e-002
19122	19.527	2.3636	0.	2.8698e-002
19123	19.436	2.3636	5.e-002	5.2215
19124	19.436	2.6364	0.	2.8179e-002
19125	19.527	2.5455	0.	2.7603e-002
19126	19.436	2.5455	5.e-002	5.304
19127	19.436	2.8182	0.	2.7551e-002
19128	19.527	2.7273	0.	2.6835e-002
19129	19.436	2.7273	5.e-002	5.36
19130	19.436	3.	0.	2.7338e-002
19131	19.527	2.9091	0.	2.6439e-002
19132	19.436	2.9091	5.e-002	5.3882
19133	19.436	3.1818	0.	2.7551e-002
19134	19.527	3.0909	0.	2.6439e-002
19135	19.436	3.0909	5.e-002	5.3882
19136	19.436	3.3636	0.	2.8178e-002
19137	19.527	3.2727	0.	2.6836e-002
19138	19.436	3.2727	5.e-002	5.36
19139	19.436	3.5455	0.	2.9189e-002
19140	19.527	3.4545	0.	2.7603e-002
19141	19.436	3.4545	5.e-002	5.304
19142	19.436	3.7273	0.	3.0524e-002
19143	19.527	3.6364	0.	2.8697e-002
19144	19.436	3.6364	5.e-002	5.2215
19145	19.436	3.9091	0.	3.2092e-002
19146	19.527	3.8182	0.	3.0039e-002
19147	19.436	3.8182	5.e-002	5.1142
19148	19.436	4.0909	0.	3.3758e-002
19149	19.527	4.	0.	3.1516e-002
19150	19.436	4.	5.e-002	4.9845
19151	19.436	4.2727	0.	3.5356e-002
19152	19.527	4.1818	0.	3.2976e-002
19153	19.436	4.1818	5.e-002	4.8352
19154	19.436	4.4545	0.	3.6686e-002
19155	19.527	4.3636	0.	3.4242e-002
19156	19.436	4.3636	5.e-002	4.6704
19157	19.436	4.6364	0.	3.7545e-002
19158	19.527	4.5455	0.	3.5118e-002
19159	19.436	4.5455	5.e-002	4.4948
19160	19.436	4.8182	0.	3.7757e-002
19161	19.527	4.7273	0.	3.541e-002
19162	19.436	4.7273	5.e-002	4.3142
19163	19.436	5.	0.	3.7265e-002
19164	19.527	4.9091	0.	3.4984e-002
19165	19.436	4.9091	5.e-002	4.1353
19166	19.436	5.1818	0.	3.6561e-002
19167	19.527	5.0909	0.	3.3903e-002
19168	19.436	5.0909	5.e-002	3.9658
19169	19.436	5.3636	0.	4.1422e-002
19170	19.527	5.2727	0.	3.357e-002
19171	19.436	5.2727	5.e-002	3.8133
19172	19.436	5.5455	0.	2.1642
19173	19.527	5.4545	0.	0.26769
19174	19.436	5.4545	5.e-002	3.6768
19175	19.436	5.7273	0.	6.7772
19176	19.527	5.6364	0.	4.6488
19177	19.436	5.6364	5.e-002	3.4235
19178	19.527	5.8182	0.	9.3061
19179	19.436	5.8182	5.e-002	0.91914
19180	19.436	5.9091	0.	6.4842
19181	19.618	0.27273	0.	7.0691
19182	19.709	0.18182	0.	9.6854
19183	19.618	0.18182	5.e-002	1.0587
19184	19.618	9.0909e-002	0.	6.7171
19185	19.618	0.45455	0.	2.6085
19186	19.709	0.36364	0.	5.083
19187	19.618	0.36364	5.e-002	3.5599
19188	19.618	0.63636	0.	3.0647e-002
19189	19.709	0.54545	0.	0.92226
19190	19.618	0.54545	5.e-002	3.7947
19191	19.618	0.81818	0.	2.9284e-002
19192	19.709	0.72727	0.	2.6253e-002
19193	19.618	0.72727	5.e-002	3.9053
19194	19.618	1.	0.	3.1098e-002
19195	19.709	0.90909	0.	2.8094e-002
19196	19.618	0.90909	5.e-002	4.0266
19197	19.618	1.1818	0.	3.2317e-002
19198	19.709	1.0909	0.	2.9905e-002
19199	19.618	1.0909	5.e-002	4.1618
19200	19.618	1.3636	0.	3.2728e-002
19201	19.709	1.2727	0.	3.0904e-002
19202	19.618	1.2727	5.e-002	4.3051
19203	19.618	1.5455	0.	3.2447e-002
19204	19.709	1.4545	0.	3.1143e-002
19205	19.618	1.4545	5.e-002	4.4506
19206	19.618	1.7273	0.	3.1648e-002
19207	19.709	1.6364	0.	3.077e-002
19208	19.618	1.6364	5.e-002	4.5926
19209	19.618	1.9091	0.	3.0527e-002
19210	19.709	1.8182	0.	2.9968e-002
19211	19.618	1.8182	5.e-002	4.7264
19212	19.618	2.0909	0.	2.9264e-002
19213	19.709	2.	0.	2.8919e-002
19214	19.618	2.	5.e-002	4.8478
19215	19.618	2.2727	0.	2.8019e-002
19216	19.709	2.1818	0.	2.7788e-002
19217	19.618	2.1818	5.e-002	4.9536
19218	19.618	2.4545	0.	2.6923e-002
19219	19.709	2.3636	0.	2.6717e-002
19220	19.618	2.3636	5.e-002	5.0412
19221	19.618	2.6364	0.	2.6074e-002
19222	19.709	2.5455	0.	2.5819e-002
19223	19.618	2.5455	5.e-002	5.1086
19224	19.618	2.8182	0.	2.5539e-002
19225	19.709	2.7273	0.	2.5177e-002
19226	19.618	2.7273	5.e-002	5.1543
19227	19.618	3.	0.	2.5358e-002
19228	19.709	2.9091	0.	2.4842e-002
19229	19.618	2.9091	5.e-002	5.1773
19230	19.618	3.1818	0.	2.5541e-002
19231	19.709	3.0909	0.	2.4843e-002
19232	19.618	3.0909	5.e-002	5.1773
19233	19.618	3.3636	0.	2.6076e-002
19234	19.709	3.2727	0.	2.5177e-002
19235	19.618	3.2727	5.e-002	5.1543
19236	19.618	3.5455	0.	2.6924e-002
19237	19.709	3.4545	0.	2.5819e-002
19238	19.618	3.4545	5.e-002	5.1086
19239	19.618	3.7273	0.	2.802e-002
19240	19.709	3.6364	0.	2.6717e-002
19241	19.618	3.6364	5.e-002	5.0412
19242	19.618	3.9091	0.	2.9266e-002
19243	19.709	3.8182	0.	2.7789e-002
19244	19.618	3.8182	5.e-002	4.9536
19245	19.618	4.0909	0.	3.0529e-002
19246	19.709	4.	0.	2.892e-002
19247	19.618	4.	5.e-002	4.8478
19248	19.618	4.2727	0.	3.1649e-002
19249	19.709	4.1818	0.	2.9968e-002
19250	19.618	4.1818	5.e-002	4.7264
19251	19.618	4.4545	0.	3.2446e-002
19252	19.709	4.3636	0.	3.0769e-002
19253	19.618	4.3636	5.e-002	4.5926
19254	19.618	4.6364	0.	3.2727e-002
19255	19.709	4.5455	0.	3.1142e-002
19256	19.618	4.5455	5.e-002	4.4506
19257	19.618	4.8182	0.	3.2316e-002
19258	19.709	4.7273	0.	3.0904e-002
19259	19.618	4.7273	5.e-002	4.3051
19260	19.618	5.	0.	3.1098e-002
19261	19.709	4.9091	0.	2.9905e-002
19262	19.618	4.9091	5.e-002	4.1618
19263	19.618	5.1818	0.	2.9282e-002
19264	19.709	5.0909	0.	2.8093e-002
19265	19.618	5.0909	5.e-002	4.0266
19266	19.618	5.3636	0.	3.0646e-002
19267	19.709	5.2727	0.	2.6251e-002
19268	19.618	5.2727	5.e-002	3.9053
19269	19.618	5.5455	0.	2.6085
19270	19.709	5.4545	0.	0.92232
19271	19.618	5.4545	5.e-002	3.7947
19272	19.618	5.7273	0.	7.0691
19273	19.709	5.6364	0.	5.083
19274	19.618	5.6364	5.e-002	3.5599
19275	19.709	5.8182	0.	9.6854
19276	19.618	5.8182	5.e-002	1.0587
19277	19.618	5.9091	0.	6.7171
19278	19.801	0.27273	0.	7.5851
19279	19.892	0.18182	0.	10.231
19280	19.801	0.18182	5.e-002	1.1629
19281	19.801	9.0909e-002	0.	7.0537
19282	19.801	0.45455	0.	3.3503
19283	19.892	0.36364	0.	5.7639
19284	19.801	0.36364	5.e-002	3.6636
19285	19.801	0.63636	0.	2.3955e-002
19286	19.892	0.54545	0.	1.969
19287	19.801	0.54545	5.e-002	3.8843
19288	19.801	0.81818	0.	2.415e-002
19289	19.892	0.72727	0.	2.1111e-002
19290	19.801	0.72727	5.e-002	3.975
19291	19.801	1.	0.	2.6633e-002
19292	19.892	0.90909	0.	2.3939e-002
19293	19.801	0.90909	5.e-002	4.0721
19294	19.801	1.1818	0.	2.8317e-002
19295	19.892	1.0909	0.	2.6204e-002
19296	19.801	1.0909	5.e-002	4.1803
19297	19.801	1.3636	0.	2.9166e-002
19298	19.892	1.2727	0.	2.7596e-002
19299	19.801	1.2727	5.e-002	4.2955
19300	19.801	1.5455	0.	2.9319e-002
19301	19.892	1.4545	0.	2.8228e-002
19302	19.801	1.4545	5.e-002	4.4128
19303	19.801	1.7273	0.	2.8945e-002
19304	19.892	1.6364	0.	2.8252e-002
19305	19.801	1.6364	5.e-002	4.5278
19306	19.801	1.9091	0.	2.8217e-002
19307	19.892	1.8182	0.	2.7831e-002
19308	19.801	1.8182	5.e-002	4.6365
19309	19.801	2.0909	0.	2.7301e-002
19310	19.892	2.	0.	2.7131e-002
19311	19.801	2.	5.e-002	4.7354
19312	19.801	2.2727	0.	2.6345e-002
19313	19.892	2.1818	0.	2.6302e-002
19314	19.801	2.1818	5.e-002	4.8218
19315	19.801	2.4545	0.	2.5473e-002
19316	19.892	2.3636	0.	2.5479e-002
19317	19.801	2.3636	5.e-002	4.8935
19318	19.801	2.6364	0.	2.4783e-002
19319	19.892	2.5455	0.	2.4767e-002
19320	19.801	2.5455	5.e-002	4.9486
19321	19.801	2.8182	0.	2.4341e-002
19322	19.892	2.7273	0.	2.4247e-002
19323	19.801	2.7273	5.e-002	4.986
19324	19.801	3.	0.	2.4189e-002
19325	19.892	2.9091	0.	2.3973e-002
19326	19.801	2.9091	5.e-002	5.0049
19327	19.801	3.1818	0.	2.4341e-002
19328	19.892	3.0909	0.	2.3974e-002
19329	19.801	3.0909	5.e-002	5.0049
19330	19.801	3.3636	0.	2.4782e-002
19331	19.892	3.2727	0.	2.4246e-002
19332	19.801	3.2727	5.e-002	4.986
19333	19.801	3.5455	0.	2.5472e-002
19334	19.892	3.4545	0.	2.4767e-002
19335	19.801	3.4545	5.e-002	4.9486
19336	19.801	3.7273	0.	2.6345e-002
19337	19.892	3.6364	0.	2.5479e-002
19338	19.801	3.6364	5.e-002	4.8935
19339	19.801	3.9091	0.	2.73e-002
19340	19.892	3.8182	0.	2.6304e-002
19341	19.801	3.8182	5.e-002	4.8218
19342	19.801	4.0909	0.	2.8216e-002
19343	19.892	4.	0.	2.7131e-002
19344	19.801	4.	5.e-002	4.7354
19345	19.801	4.2727	0.	2.8945e-002
19346	19.892	4.1818	0.	2.7831e-002
19347	19.801	4.1818	5.e-002	4.6365
19348	19.801	4.4545	0.	2.932e-002
19349	19.892	4.3636	0.	2.8252e-002
19350	19.801	4.3636	5.e-002	4.5278
19351	19.801	4.6364	0.	2.9166e-002
19352	19.892	4.5455	0.	2.8229e-002
19353	19.801	4.5455	5.e-002	4.4128
19354	19.801	4.8182	0.	2.8317e-002
19355	19.892	4.7273	0.	2.7596e-002
19356	19.801	4.7273	5.e-002	4.2955
19357	19.801	5.	0.	2.6632e-002
19358	19.892	4.9091	0.	2.6204e-002
19359	19.801	4.9091	5.e-002	4.1803
19360	19.801	5.1818	0.	2.4148e-002
19361	19.892	5.0909	0.	2.3937e-002
19362	19.801	5.0909	5.e-002	4.0721
19363	19.801	5.3636	0.	2.3954e-002
19364	19.892	5.2727	0.	2.1109e-002
19365	19.801	5.2727	5.e-002	3.975
19366	19.801	5.5455	0.	3.3503
19367	19.892	5.4545	0.	1.969
19368	19.801	5.4545	5.e-002	3.8843
19369	19.801	5.7273	0.	7.5852
19370	19.892	5.6364	0.	5.764
19371	19.801	5.6364	5.e-002	3.6636
19372	19.892	5.8182	0.	10.231
19373	19.801	5.8182	5.e-002	1.1629
19374	19.801	5.9091	0.	7.0538
19375	19.983	0.27273	0.	8.2892
19376	20.075	0.18182	0.	10.913
19377	19.983	0.18182	5.e-002	1.2403
19378	19.983	9.0909e-002	0.	7.477
19379	19.983	0.45455	0.	4.341
19380	20.075	0.36364	0.	6.6515
19381	19.983	0.36364	5.e-002	3.7413
19382	19.983	0.63636	0.	0.53356
19383	20.075	0.54545	0.	3.271
19384	19.983	0.54545	5.e-002	3.9512
19385	19.983	0.81818	0.	2.0557e-002
19386	20.075	0.72727	0.	1.7684e-002
19387	19.983	0.72727	5.e-002	4.0265
19388	19.983	1.	0.	2.3435e-002
19389	20.075	0.90909	0.	2.1061e-002
19390	19.983	0.90909	5.e-002	4.1048
19391	19.983	1.1818	0.	2.5415e-002
19392	20.075	1.0909	0.	2.3565e-002
19393	19.983	1.0909	5.e-002	4.192
19394	19.983	1.3636	0.	2.6582e-002
19395	20.075	1.2727	0.	2.5227e-002
19396	19.983	1.2727	5.e-002	4.2849
19397	19.983	1.5455	0.	2.7077e-002
19398	20.075	1.4545	0.	2.6161e-002
19399	19.983	1.4545	5.e-002	4.3798
19400	19.983	1.7273	0.	2.7048e-002
19401	20.075	1.6364	0.	2.6506e-002
19402	19.983	1.6364	5.e-002	4.4731
19403	19.983	1.9091	0.	2.6651e-002
19404	20.075	1.8182	0.	2.6404e-002
19405	19.983	1.8182	5.e-002	4.5616
19406	19.983	2.0909	0.	2.6035e-002
19407	20.075	2.	0.	2.6004e-002
19408	19.983	2.	5.e-002	4.6424
19409	19.983	2.2727	0.	2.5337e-002
19410	20.075	2.1818	0.	2.5442e-002
19411	19.983	2.1818	5.e-002	4.7132
19412	19.983	2.4545	0.	2.4672e-002
19413	20.075	2.3636	0.	2.4841e-002
19414	19.983	2.3636	5.e-002	4.7719
19415	19.983	2.6364	0.	2.413e-002
19416	20.075	2.5455	0.	2.4299e-002
19417	19.983	2.5455	5.e-002	4.8172
19418	19.983	2.8182	0.	2.3778e-002
19419	20.075	2.7273	0.	2.3894e-002
19420	19.983	2.7273	5.e-002	4.848
19421	19.983	3.	0.	2.3657e-002
19422	20.075	2.9091	0.	2.3679e-002
19423	19.983	2.9091	5.e-002	4.8635
19424	19.983	3.1818	0.	2.3777e-002
19425	20.075	3.0909	0.	2.3679e-002
19426	19.983	3.0909	5.e-002	4.8635
19427	19.983	3.3636	0.	2.4129e-002
19428	20.075	3.2727	0.	2.3893e-002
19429	19.983	3.2727	5.e-002	4.848
19430	19.983	3.5455	0.	2.4672e-002
19431	20.075	3.4545	0.	2.43e-002
19432	19.983	3.4545	5.e-002	4.8172
19433	19.983	3.7273	0.	2.5338e-002
19434	20.075	3.6364	0.	2.4841e-002
19435	19.983	3.6364	5.e-002	4.7719
19436	19.983	3.9091	0.	2.6036e-002
19437	20.075	3.8182	0.	2.5443e-002
19438	19.983	3.8182	5.e-002	4.7132
19439	19.983	4.0909	0.	2.6651e-002
19440	20.075	4.	0.	2.6005e-002
19441	19.983	4.	5.e-002	4.6424
19442	19.983	4.2727	0.	2.7047e-002
19443	20.075	4.1818	0.	2.6403e-002
19444	19.983	4.1818	5.e-002	4.5616
19445	19.983	4.4545	0.	2.7077e-002
19446	20.075	4.3636	0.	2.6505e-002
19447	19.983	4.3636	5.e-002	4.4731
19448	19.983	4.6364	0.	2.6584e-002
19449	20.075	4.5455	0.	2.6162e-002
19450	19.983	4.5455	5.e-002	4.3798
19451	19.983	4.8182	0.	2.5415e-002
19452	20.075	4.7273	0.	2.5227e-002
19453	19.983	4.7273	5.e-002	4.2849
19454	19.983	5.	0.	2.3434e-002
19455	20.075	4.9091	0.	2.3565e-002
19456	19.983	4.9091	5.e-002	4.192
19457	19.983	5.1818	0.	2.0555e-002
19458	20.075	5.0909	0.	2.1059e-002
19459	19.983	5.0909	5.e-002	4.1048
19460	19.983	5.3636	0.	0.53362
19461	20.075	5.2727	0.	1.7682e-002
19462	19.983	5.2727	5.e-002	4.0265
19463	19.983	5.5455	0.	4.3411
19464	20.075	5.4545	0.	3.2711
19465	19.983	5.4545	5.e-002	3.9512
19466	19.983	5.7273	0.	8.2892
19467	20.075	5.6364	0.	6.6515
19468	19.983	5.6364	5.e-002	3.7413
19469	20.075	5.8182	0.	10.913
19470	19.983	5.8182	5.e-002	1.2403
19471	19.983	5.9091	0.	7.477
19472	20.166	0.27273	0.	9.149
19473	20.257	0.18182	0.	11.708
19474	20.166	0.18182	5.e-002	1.2986
19475	20.166	9.0909e-002	0.	7.9718
19476	20.166	0.45455	0.	5.5387
19477	20.257	0.36364	0.	7.7104
19478	20.166	0.36364	5.e-002	3.7985
19479	20.166	0.63636	0.	2.2342
19480	20.257	0.54545	0.	4.7802
19481	20.166	0.54545	5.e-002	4.0001
19482	20.166	0.81818	0.	1.8746e-002
19483	20.257	0.72727	0.	1.6192
19484	20.166	0.72727	5.e-002	4.0635
19485	20.166	1.	0.	2.13e-002
19486	20.257	0.90909	0.	1.9814e-002
19487	20.166	0.90909	5.e-002	4.1272
19488	20.166	1.1818	0.	2.3401e-002
19489	20.257	1.0909	0.	2.1863e-002
19490	20.166	1.0909	5.e-002	4.1979
19491	20.166	1.3636	0.	2.4792e-002
19492	20.257	1.2727	0.	2.3636e-002
19493	20.166	1.2727	5.e-002	4.2733
19494	20.166	1.5455	0.	2.5555e-002
19495	20.257	1.4545	0.	2.479e-002
19496	20.166	1.4545	5.e-002	4.3505
19497	20.166	1.7273	0.	2.5814e-002
19498	20.257	1.6364	0.	2.5395e-002
19499	20.166	1.6364	5.e-002	4.4266
19500	20.166	1.9091	0.	2.5701e-002
19501	20.257	1.8182	0.	2.5566e-002
19502	20.166	1.8182	5.e-002	4.4989
19503	20.166	2.0909	0.	2.5349e-002
19504	20.257	2.	0.	2.5427e-002
19505	20.166	2.	5.e-002	4.5651
19506	20.166	2.2727	0.	2.488e-002
19507	20.257	2.1818	0.	2.5101e-002
19508	20.166	2.1818	5.e-002	4.6233
19509	20.166	2.4545	0.	2.44e-002
19510	20.257	2.3636	0.	2.4697e-002
19511	20.166	2.3636	5.e-002	4.6716
19512	20.166	2.6364	0.	2.3994e-002
19513	20.257	2.5455	0.	2.4311e-002
19514	20.166	2.5455	5.e-002	4.709
19515	20.166	2.8182	0.	2.3725e-002
19516	20.257	2.7273	0.	2.4011e-002
19517	20.166	2.7273	5.e-002	4.7343
19518	20.166	3.	0.	2.3631e-002
19519	20.257	2.9091	0.	2.3849e-002
19520	20.166	2.9091	5.e-002	4.7472
19521	20.166	3.1818	0.	2.3724e-002
19522	20.257	3.0909	0.	2.3849e-002
19523	20.166	3.0909	5.e-002	4.7472
19524	20.166	3.3636	0.	2.3994e-002
19525	20.257	3.2727	0.	2.4011e-002
19526	20.166	3.2727	5.e-002	4.7344
19527	20.166	3.5455	0.	2.44e-002
19528	20.257	3.4545	0.	2.4311e-002
19529	20.166	3.4545	5.e-002	4.709
19530	20.166	3.7273	0.	2.4879e-002
19531	20.257	3.6364	0.	2.4697e-002
19532	20.166	3.6364	5.e-002	4.6716
19533	20.166	3.9091	0.	2.5349e-002
19534	20.257	3.8182	0.	2.5101e-002
19535	20.166	3.8182	5.e-002	4.6233
19536	20.166	4.0909	0.	2.5701e-002
19537	20.257	4.	0.	2.5427e-002
19538	20.166	4.	5.e-002	4.5651
19539	20.166	4.2727	0.	2.5814e-002
19540	20.257	4.1818	0.	2.5566e-002
19541	20.166	4.1818	5.e-002	4.4989
19542	20.166	4.4545	0.	2.5556e-002
19543	20.257	4.3636	0.	2.5396e-002
19544	20.166	4.3636	5.e-002	4.4266
19545	20.166	4.6364	0.	2.4792e-002
19546	20.257	4.5455	0.	2.479e-002
19547	20.166	4.5455	5.e-002	4.3505
19548	20.166	4.8182	0.	2.3401e-002
19549	20.257	4.7273	0.	2.3635e-002
19550	20.166	4.7273	5.e-002	4.2733
19551	20.166	5.	0.	2.1299e-002
19552	20.257	4.9091	0.	2.1863e-002
19553	20.166	4.9091	5.e-002	4.1979
19554	20.166	5.1818	0.	1.8745e-002
19555	20.257	5.0909	0.	1.9812e-002
19556	20.166	5.0909	5.e-002	4.1272
19557	20.166	5.3636	0.	2.2343
19558	20.257	5.2727	0.	1.6193
19559	20.166	5.2727	5.e-002	4.0635
19560	20.166	5.5455	0.	5.5387
19561	20.257	5.4545	0.	4.7803
19562	20.166	5.4545	5.e-002	4.0001
19563	20.166	5.7273	0.	9.149
19564	20.257	5.6364	0.	7.7105
19565	20.166	5.6364	5.e-002	3.7985
19566	20.257	5.8182	0.	11.708
19567	20.166	5.8182	5.e-002	1.2986
19568	20.166	5.9091	0.	7.9719
19569	20.348	0.27273	0.	10.136
19570	20.44	0.18182	0.	12.592
19571	20.348	0.18182	5.e-002	1.3439
19572	20.348	9.0909e-002	0.	8.5248
19573	20.348	0.45455	0.	6.9075
19574	20.44	0.36364	0.	8.9104
19575	20.348	0.36364	5.e-002	3.8397
19576	20.348	0.63636	0.	4.127
19577	20.44	0.54545	0.	6.4613
19578	20.348	0.54545	5.e-002	4.0348
19579	20.348	0.81818	0.	1.1353
19580	20.44	0.72727	0.	3.8851
19581	20.348	0.72727	5.e-002	4.089
19582	20.348	1.	0.	2.0828e-002
19583	20.44	0.90909	0.	1.1022
19584	20.348	0.90909	5.e-002	4.1414
19585	20.348	1.1818	0.	2.2231e-002
19586	20.44	1.0909	0.	2.1897e-002
19587	20.348	1.0909	5.e-002	4.1993
19588	20.348	1.3636	0.	2.368e-002
19589	20.44	1.2727	0.	2.2821e-002
19590	20.348	1.2727	5.e-002	4.2609
19591	20.348	1.5455	0.	2.4638e-002
19592	20.44	1.4545	0.	2.4027e-002
19593	20.348	1.4545	5.e-002	4.3241
19594	20.348	1.7273	0.	2.5135e-002
19595	20.44	1.6364	0.	2.4827e-002
19596	20.348	1.6364	5.e-002	4.3865
19597	20.348	1.9091	0.	2.5267e-002
19598	20.44	1.8182	0.	2.5228e-002
19599	20.348	1.8182	5.e-002	4.446
19600	20.348	2.0909	0.	2.5147e-002
19601	20.44	2.	0.	2.5317e-002
19602	20.348	2.	5.e-002	4.5005
19603	20.348	2.2727	0.	2.4881e-002
19604	20.44	2.1818	0.	2.52e-002
19605	20.348	2.1818	5.e-002	4.5485
19606	20.348	2.4545	0.	2.4568e-002
19607	20.44	2.3636	0.	2.4973e-002
19608	20.348	2.3636	5.e-002	4.5885
19609	20.348	2.6364	0.	2.4284e-002
19610	20.44	2.5455	0.	2.4725e-002
19611	20.348	2.5455	5.e-002	4.6195
19612	20.348	2.8182	0.	2.409e-002
19613	20.44	2.7273	0.	2.4519e-002
19614	20.348	2.7273	5.e-002	4.6405
19615	20.348	3.	0.	2.4022e-002
19616	20.44	2.9091	0.	2.4406e-002
19617	20.348	2.9091	5.e-002	4.6512
19618	20.348	3.1818	0.	2.4091e-002
19619	20.44	3.0909	0.	2.4405e-002
19620	20.348	3.0909	5.e-002	4.6512
19621	20.348	3.3636	0.	2.4285e-002
19622	20.44	3.2727	0.	2.452e-002
19623	20.348	3.2727	5.e-002	4.6405
19624	20.348	3.5455	0.	2.4567e-002
19625	20.44	3.4545	0.	2.4724e-002
19626	20.348	3.4545	5.e-002	4.6195
19627	20.348	3.7273	0.	2.4881e-002
19628	20.44	3.6364	0.	2.4973e-002
19629	20.348	3.6364	5.e-002	4.5885
19630	20.348	3.9091	0.	2.5147e-002
19631	20.44	3.8182	0.	2.5199e-002
19632	20.348	3.8182	5.e-002	4.5485
19633	20.348	4.0909	0.	2.5267e-002
19634	20.44	4.	0.	2.5317e-002
19635	20.348	4.	5.e-002	4.5005
19636	20.348	4.2727	0.	2.5135e-002
19637	20.44	4.1818	0.	2.5227e-002
19638	20.348	4.1818	5.e-002	4.446
19639	20.348	4.4545	0.	2.4637e-002
19640	20.44	4.3636	0.	2.4827e-002
19641	20.348	4.3636	5.e-002	4.3865
19642	20.348	4.6364	0.	2.3678e-002
19643	20.44	4.5455	0.	2.4027e-002
19644	20.348	4.5455	5.e-002	4.3241
19645	20.348	4.8182	0.	2.223e-002
19646	20.44	4.7273	0.	2.2821e-002
19647	20.348	4.7273	5.e-002	4.2609
19648	20.348	5.	0.	2.0826e-002
19649	20.44	4.9091	0.	2.1896e-002
19650	20.348	4.9091	5.e-002	4.1993
19651	20.348	5.1818	0.	1.1354
19652	20.44	5.0909	0.	1.1023
19653	20.348	5.0909	5.e-002	4.1414
19654	20.348	5.3636	0.	4.1271
19655	20.44	5.2727	0.	3.8852
19656	20.348	5.2727	5.e-002	4.089
19657	20.348	5.5455	0.	6.9076
19658	20.44	5.4545	0.	6.4613
19659	20.348	5.4545	5.e-002	4.0348
19660	20.348	5.7273	0.	10.136
19661	20.44	5.6364	0.	8.9104
19662	20.348	5.6364	5.e-002	3.8397
19663	20.44	5.8182	0.	12.592
19664	20.348	5.8182	5.e-002	1.3439
19665	20.348	5.9091	0.	8.5248
19666	20.531	0.27273	0.	11.227
19667	20.622	0.18182	0.	13.547
19668	20.531	0.18182	5.e-002	1.3813
19669	20.531	9.0909e-002	0.	9.1241
19670	20.531	0.45455	0.	8.4177
19671	20.622	0.36364	0.	10.225
19672	20.531	0.36364	5.e-002	3.8686
19673	20.531	0.63636	0.	6.1801
19674	20.622	0.54545	0.	8.2853
19675	20.531	0.54545	5.e-002	4.0584
19676	20.531	0.81818	0.	3.8164
19677	20.622	0.72727	0.	6.3039
19678	20.531	0.72727	5.e-002	4.1055
19679	20.531	1.	0.	1.2882
19680	20.622	0.90909	0.	4.1851
19681	20.531	0.90909	5.e-002	4.1492
19682	20.531	1.1818	0.	2.3441e-002
19683	20.622	1.0909	0.	1.9272
19684	20.531	1.0909	5.e-002	4.1971
19685	20.531	1.3636	0.	2.333e-002
19686	20.622	1.2727	0.	2.8046e-002
19687	20.531	1.2727	5.e-002	4.2481
19688	20.531	1.5455	0.	2.4273e-002
19689	20.622	1.4545	0.	2.4049e-002
19690	20.531	1.4545	5.e-002	4.3003
19691	20.531	1.7273	0.	2.4941e-002
19692	20.622	1.6364	0.	2.4769e-002
19693	20.531	1.6364	5.e-002	4.3519
19694	20.531	1.9091	0.	2.528e-002
19695	20.622	1.8182	0.	2.5332e-002
19696	20.531	1.8182	5.e-002	4.4011
19697	20.531	2.0909	0.	2.5363e-002
19698	20.622	2.	0.	2.5617e-002
19699	20.531	2.	5.e-002	4.4464
19700	20.531	2.2727	0.	2.5279e-002
19701	20.622	2.1818	0.	2.5684e-002
19702	20.531	2.1818	5.e-002	4.4862
19703	20.531	2.4545	0.	2.5113e-002
19704	20.622	2.3636	0.	2.5616e-002
19705	20.531	2.3636	5.e-002	4.5196
19706	20.531	2.6364	0.	2.494e-002
19707	20.622	2.5455	0.	2.5491e-002
19708	20.531	2.5455	5.e-002	4.5453
19709	20.531	2.8182	0.	2.4814e-002
19710	20.622	2.7273	0.	2.5371e-002
19711	20.531	2.7273	5.e-002	4.5629
19712	20.531	3.	0.	2.4768e-002
19713	20.622	2.9091	0.	2.5299e-002
19714	20.531	2.9091	5.e-002	4.5718
19715	20.531	3.1818	0.	2.4814e-002
19716	20.622	3.0909	0.	2.5299e-002
19717	20.531	3.0909	5.e-002	4.5718
19718	20.531	3.3636	0.	2.494e-002
19719	20.622	3.2727	0.	2.537e-002
19720	20.531	3.2727	5.e-002	4.5629
19721	20.531	3.5455	0.	2.5113e-002
19722	20.622	3.4545	0.	2.549e-002
19723	20.531	3.4545	5.e-002	4.5453
19724	20.531	3.7273	0.	2.5278e-002
19725	20.622	3.6364	0.	2.5617e-002
19726	20.531	3.6364	5.e-002	4.5195
19727	20.531	3.9091	0.	2.5363e-002
19728	20.622	3.8182	0.	2.5684e-002
19729	20.531	3.8182	5.e-002	4.4862
19730	20.531	4.0909	0.	2.528e-002
19731	20.622	4.	0.	2.5617e-002
19732	20.531	4.	5.e-002	4.4464
19733	20.531	4.2727	0.	2.4939e-002
19734	20.622	4.1818	0.	2.5331e-002
19735	20.531	4.1818	5.e-002	4.4011
19736	20.531	4.4545	0.	2.4273e-002
19737	20.622	4.3636	0.	2.4769e-002
19738	20.531	4.3636	5.e-002	4.3519
19739	20.531	4.6364	0.	2.3331e-002
19740	20.622	4.5455	0.	2.4049e-002
19741	20.531	4.5455	5.e-002	4.3002
19742	20.531	4.8182	0.	2.3441e-002
19743	20.622	4.7273	0.	2.8047e-002
19744	20.531	4.7273	5.e-002	4.2481
19745	20.531	5.	0.	1.2883
19746	20.622	4.9091	0.	1.9272
19747	20.531	4.9091	5.e-002	4.1971
19748	20.531	5.1818	0.	3.8164
19749	20.622	5.0909	0.	4.1852
19750	20.531	5.0909	5.e-002	4.1492
19751	20.531	5.3636	0.	6.1802
19752	20.622	5.2727	0.	6.304
19753	20.531	5.2727	5.e-002	4.1055
19754	20.531	5.5455	0.	8.4177
19755	20.622	5.4545	0.	8.2853
19756	20.531	5.4545	5.e-002	4.0583
19757	20.531	5.7273	0.	11.227
19758	20.622	5.6364	0.	10.225
19759	20.531	5.6364	5.e-002	3.8686
19760	20.622	5.8182	0.	13.547
19761	20.531	5.8182	5.e-002	1.3813
19762	20.531	5.9091	0.	9.1242
19763	20.714	0.27273	0.	12.399
19764	20.805	0.18182	0.	14.554
19765	20.714	0.18182	5.e-002	1.415
19766	20.714	9.0909e-002	0.	9.7594
19767	20.714	0.45455	0.	10.044
19768	20.805	0.36364	0.	11.634
19769	20.714	0.36364	5.e-002	3.8881
19770	20.714	0.63636	0.	8.3681
19771	20.805	0.54545	0.	10.229
19772	20.714	0.54545	5.e-002	4.0734
19773	20.714	0.81818	0.	6.6361
19774	20.805	0.72727	0.	8.8536
19775	20.714	0.72727	5.e-002	4.1152
19776	20.714	1.	0.	4.7931
19777	20.805	0.90909	0.	7.3975
19778	20.714	0.90909	5.e-002	4.1522
19779	20.714	1.1818	0.	2.8418
19780	20.805	1.0909	0.	5.8425
19781	20.714	1.0909	5.e-002	4.1924
19782	20.714	1.3636	0.	0.80852
19783	20.805	1.2727	0.	4.1956
19784	20.714	1.2727	5.e-002	4.235
19785	20.714	1.5455	0.	2.5116e-002
19786	20.805	1.4545	0.	2.4822
19787	20.714	1.4545	5.e-002	4.2786
19788	20.714	1.7273	0.	2.5242e-002
19789	20.805	1.6364	0.	0.74326
19790	20.714	1.6364	5.e-002	4.3217
19791	20.714	1.9091	0.	2.5698e-002
19792	20.805	1.8182	0.	2.5986e-002
19793	20.714	1.8182	5.e-002	4.3629
19794	20.714	2.0909	0.	2.5953e-002
19795	20.805	2.	0.	2.6294e-002
19796	20.714	2.	5.e-002	4.4008
19797	20.714	2.2727	0.	2.603e-002
19798	20.805	2.1818	0.	2.6524e-002
19799	20.714	2.1818	5.e-002	4.4342
19800	20.714	2.4545	0.	2.5999e-002
19801	20.805	2.3636	0.	2.6599e-002
19802	20.714	2.3636	5.e-002	4.4622
19803	20.714	2.6364	0.	2.5923e-002
19804	20.805	2.5455	0.	2.6582e-002
19805	20.714	2.5455	5.e-002	4.4839
19806	20.714	2.8182	0.	2.5856e-002
19807	20.805	2.7273	0.	2.6534e-002
19808	20.714	2.7273	5.e-002	4.4987
19809	20.714	3.	0.	2.5829e-002
19810	20.805	2.9091	0.	2.6499e-002
19811	20.714	2.9091	5.e-002	4.5062
19812	20.714	3.1818	0.	2.5856e-002
19813	20.805	3.0909	0.	2.6499e-002
19814	20.714	3.0909	5.e-002	4.5062
19815	20.714	3.3636	0.	2.5922e-002
19816	20.805	3.2727	0.	2.6534e-002
19817	20.714	3.2727	5.e-002	4.4987
19818	20.714	3.5455	0.	2.5998e-002
19819	20.805	3.4545	0.	2.6581e-002
19820	20.714	3.4545	5.e-002	4.4839
19821	20.714	3.7273	0.	2.6031e-002
19822	20.805	3.6364	0.	2.6598e-002
19823	20.714	3.6364	5.e-002	4.4622
19824	20.714	3.9091	0.	2.5954e-002
19825	20.805	3.8182	0.	2.6524e-002
19826	20.714	3.8182	5.e-002	4.4342
19827	20.714	4.0909	0.	2.5698e-002
19828	20.805	4.	0.	2.6293e-002
19829	20.714	4.	5.e-002	4.4008
19830	20.714	4.2727	0.	2.5243e-002
19831	20.805	4.1818	0.	2.5987e-002
19832	20.714	4.1818	5.e-002	4.3629
19833	20.714	4.4545	0.	2.5116e-002
19834	20.805	4.3636	0.	0.74334
19835	20.714	4.3636	5.e-002	4.3217
19836	20.714	4.6364	0.	0.8086
19837	20.805	4.5455	0.	2.4822
19838	20.714	4.5455	5.e-002	4.2786
19839	20.714	4.8182	0.	2.8419
19840	20.805	4.7273	0.	4.1957
19841	20.714	4.7273	5.e-002	4.235
19842	20.714	5.	0.	4.7932
19843	20.805	4.9091	0.	5.8426
19844	20.714	4.9091	5.e-002	4.1924
19845	20.714	5.1818	0.	6.6362
19846	20.805	5.0909	0.	7.3976
19847	20.714	5.0909	5.e-002	4.1522
19848	20.714	5.3636	0.	8.3682
19849	20.805	5.2727	0.	8.8537
19850	20.714	5.2727	5.e-002	4.1152
19851	20.714	5.5455	0.	10.044
19852	20.805	5.4545	0.	10.229
19853	20.714	5.4545	5.e-002	4.0734
19854	20.714	5.7273	0.	12.399
19855	20.805	5.6364	0.	11.634
19856	20.714	5.6364	5.e-002	3.8881
19857	20.805	5.8182	0.	14.554
19858	20.714	5.8182	5.e-002	1.415
19859	20.714	5.9091	0.	9.7594
19860	20.896	0.27273	0.	13.635
19861	20.987	0.18182	0.	15.599
19862	20.896	0.18182	5.e-002	1.4485
19863	20.896	9.0909e-002	0.	10.421
19864	20.896	0.45455	0.	11.767
19865	20.987	0.36364	0.	13.118
19866	20.896	0.36364	5.e-002	3.9005
19867	20.896	0.63636	0.	10.671
19868	20.987	0.54545	0.	12.274
19869	20.896	0.54545	5.e-002	4.0819
19870	20.896	0.81818	0.	9.5767
19871	20.987	0.72727	0.	11.518
19872	20.896	0.72727	5.e-002	4.1196
19873	20.896	1.	0.	8.4133
19874	20.987	0.90909	0.	10.726
19875	20.896	0.90909	5.e-002	4.1515
19876	20.896	1.1818	0.	7.1675
19877	20.987	1.0909	0.	9.8637
19878	20.896	1.0909	5.e-002	4.1858
19879	20.896	1.3636	0.	5.8467
19880	20.987	1.2727	0.	8.9222
19881	20.896	1.2727	5.e-002	4.222
19882	20.896	1.5455	0.	4.4747
19883	20.987	1.4545	0.	7.9095
19884	20.896	1.4545	5.e-002	4.259
19885	20.896	1.7273	0.	3.0888
19886	20.987	1.6364	0.	6.849
19887	20.896	1.6364	5.e-002	4.2955
19888	20.896	1.9091	0.	1.7357
19889	20.987	1.8182	0.	5.7756
19890	20.896	1.8182	5.e-002	4.3304
19891	20.896	2.0909	0.	0.46795
19892	20.987	2.	0.	4.7326
19893	20.896	2.	5.e-002	4.3625
19894	20.896	2.2727	0.	2.7134e-002
19895	20.987	2.1818	0.	3.7671
19896	20.896	2.1818	5.e-002	4.3908
19897	20.896	2.4545	0.	2.7217e-002
19898	20.987	2.3636	0.	2.9261
19899	20.896	2.3636	5.e-002	4.4146
19900	20.896	2.6364	0.	2.722e-002
19901	20.987	2.5455	0.	2.2528
19902	20.896	2.5455	5.e-002	4.433
19903	20.896	2.8182	0.	2.7199e-002
19904	20.987	2.7273	0.	1.7826
19905	20.896	2.7273	5.e-002	4.4455
19906	20.896	3.	0.	2.7188e-002
19907	20.987	2.9091	0.	1.5409
19908	20.896	2.9091	5.e-002	4.4519
19909	20.896	3.1818	0.	2.7198e-002
19910	20.987	3.0909	0.	1.5409
19911	20.896	3.0909	5.e-002	4.4519
19912	20.896	3.3636	0.	2.722e-002
19913	20.987	3.2727	0.	1.7826
19914	20.896	3.2727	5.e-002	4.4455
19915	20.896	3.5455	0.	2.7216e-002
19916	20.987	3.4545	0.	2.2528
19917	20.896	3.4545	5.e-002	4.433
19918	20.896	3.7273	0.	2.7132e-002
19919	20.987	3.6364	0.	2.9262
19920	20.896	3.6364	5.e-002	4.4146
19921	20.896	3.9091	0.	0.46801
19922	20.987	3.8182	0.	3.7671
19923	20.896	3.8182	5.e-002	4.3908
19924	20.896	4.0909	0.	1.7358
19925	20.987	4.	0.	4.7326
19926	20.896	4.	5.e-002	4.3625
19927	20.896	4.2727	0.	3.0888
19928	20.987	4.1818	0.	5.7757
19929	20.896	4.1818	5.e-002	4.3304
19930	20.896	4.4545	0.	4.4748
19931	20.987	4.3636	0.	6.849
19932	20.896	4.3636	5.e-002	4.2955
19933	20.896	4.6364	0.	5.8468
19934	20.987	4.5455	0.	7.9096
19935	20.896	4.5455	5.e-002	4.259
19936	20.896	4.8182	0.	7.1676
19937	20.987	4.7273	0.	8.9223
19938	20.896	4.7273	5.e-002	4.222
19939	20.896	5.	0.	8.4134
19940	20.987	4.9091	0.	9.8638
19941	20.896	4.9091	5.e-002	4.1858
19942	20.896	5.1818	0.	9.5768
19943	20.987	5.0909	0.	10.726
19944	20.896	5.0909	5.e-002	4.1515
19945	20.896	5.3636	0.	10.671
19946	20.987	5.2727	0.	11.518
19947	20.896	5.2727	5.e-002	4.1196
19948	20.896	5.5455	0.	11.767
19949	20.987	5.4545	0.	12.274
19950	20.896	5.4545	5.e-002	4.0819
19951	20.896	5.7273	0.	13.635
19952	20.987	5.6364	0.	13.118
19953	20.896	5.6364	5.e-002	3.9005
19954	20.987	5.8182	0.	15.599
19955	20.896	5.8182	5.e-002	1.4485
19956	20.896	5.9091	0.	10.421
19957	21.079	0.27273	0.	14.92
19958	21.17	0.18182	0.	16.667
19959	21.079	0.18182	5.e-002	1.4845
19960	21.079	9.0909e-002	0.	11.102
19961	21.079	0.45455	0.	13.57
19962	21.17	0.36364	0.	14.662
19963	21.079	0.36364	5.e-002	3.9078
19964	21.079	0.63636	0.	13.075
19965	21.17	0.54545	0.	14.406
19966	21.079	0.54545	5.e-002	4.0855
19967	21.079	0.81818	0.	12.627
19968	21.17	0.72727	0.	14.287
19969	21.079	0.72727	5.e-002	4.1202
19970	21.079	1.	0.	12.141
19971	21.17	0.90909	0.	14.164
19972	21.079	0.90909	5.e-002	4.1483
19973	21.079	1.1818	0.	11.588
19974	21.17	1.0909	0.	13.99
19975	21.079	1.0909	5.e-002	4.1782
19976	21.079	1.3636	0.	10.959
19977	21.17	1.2727	0.	13.739
19978	21.079	1.2727	5.e-002	4.2095
19979	21.079	1.5455	0.	10.262
19980	21.17	1.4545	0.	13.404
19981	21.079	1.4545	5.e-002	4.2414
19982	21.079	1.7273	0.	9.5177
19983	21.17	1.6364	0.	12.992
19984	21.079	1.6364	5.e-002	4.2728
19985	21.079	1.9091	0.	8.7573
19986	21.17	1.8182	0.	12.524
19987	21.079	1.8182	5.e-002	4.3028
19988	21.079	2.0909	0.	8.0189
19989	21.17	2.	0.	12.03
19990	21.079	2.	5.e-002	4.3304
19991	21.079	2.2727	0.	7.3431
19992	21.17	2.1818	0.	11.543
19993	21.079	2.1818	5.e-002	4.3547
19994	21.079	2.4545	0.	6.769
19995	21.17	2.3636	0.	11.099
19996	21.079	2.3636	5.e-002	4.3751
19997	21.079	2.6364	0.	6.3315
19998	21.17	2.5455	0.	10.733
19999	21.079	2.5455	5.e-002	4.391
20000	21.079	2.8182	0.	6.0575
20001	21.17	2.7273	0.	10.471
20002	21.079	2.7273	5.e-002	4.4018
20003	21.079	3.	0.	5.9643
20004	21.17	2.9091	0.	10.335
20005	21.079	2.9091	5.e-002	4.4073
20006	21.079	3.1818	0.	6.0575
20007	21.17	3.0909	0.	10.335
20008	21.079	3.0909	5.e-002	4.4073
20009	21.079	3.3636	0.	6.3315
20010	21.17	3.2727	0.	10.471
20011	21.079	3.2727	5.e-002	4.4018
20012	21.079	3.5455	0.	6.7691
20013	21.17	3.4545	0.	10.733
20014	21.079	3.4545	5.e-002	4.391
20015	21.079	3.7273	0.	7.3431
20016	21.17	3.6364	0.	11.099
20017	21.079	3.6364	5.e-002	4.3751
20018	21.079	3.9091	0.	8.019
20019	21.17	3.8182	0.	11.543
20020	21.079	3.8182	5.e-002	4.3547
20021	21.079	4.0909	0.	8.7574
20022	21.17	4.	0.	12.03
20023	21.079	4.	5.e-002	4.3304
20024	21.079	4.2727	0.	9.5177
20025	21.17	4.1818	0.	12.524
20026	21.079	4.1818	5.e-002	4.3028
20027	21.079	4.4545	0.	10.262
20028	21.17	4.3636	0.	12.992
20029	21.079	4.3636	5.e-002	4.2728
20030	21.079	4.6364	0.	10.959
20031	21.17	4.5455	0.	13.404
20032	21.079	4.5455	5.e-002	4.2414
20033	21.079	4.8182	0.	11.588
20034	21.17	4.7273	0.	13.739
20035	21.079	4.7273	5.e-002	4.2095
20036	21.079	5.	0.	12.141
20037	21.17	4.9091	0.	13.99
20038	21.079	4.9091	5.e-002	4.1782
20039	21.079	5.1818	0.	12.627
20040	21.17	5.0909	0.	14.164
20041	21.079	5.0909	5.e-002	4.1483
20042	21.079	5.3636	0.	13.075
20043	21.17	5.2727	0.	14.287
20044	21.079	5.2727	5.e-002	4.1202
20045	21.079	5.5455	0.	13.57
20046	21.17	5.4545	0.	14.406
20047	21.079	5.4545	5.e-002	4.0855
20048	21.079	5.7273	0.	14.92
20049	21.17	5.6364	0.	14.662
20050	21.079	5.6364	5.e-002	3.9078
20051	21.17	5.8182	0.	16.667
20052	21.079	5.8182	5.e-002	1.4845
20053	21.079	5.9091	0.	11.102
20054	21.261	0.27273	0.	16.24
20055	21.353	0.18182	0.	17.747
20056	21.261	0.18182	5.e-002	1.5254
20057	21.261	9.0909e-002	0.	11.794
20058	21.261	0.45455	0.	15.44
20059	21.353	0.36364	0.	16.257
20060	21.261	0.36364	5.e-002	3.9114
20061	21.261	0.63636	0.	15.569
20062	21.353	0.54545	0.	16.617
20063	21.261	0.54545	5.e-002	4.0856
20064	21.261	0.81818	0.	15.781
20065	21.353	0.72727	0.	17.154
20066	21.261	0.72727	5.e-002	4.1181
20067	21.261	1.	0.	15.976
20068	21.353	0.90909	0.	17.713
20069	21.261	0.90909	5.e-002	4.1435
20070	21.261	1.1818	0.	16.109
20071	21.353	1.0909	0.	18.227
20072	21.261	1.0909	5.e-002	4.1701
20073	21.261	1.3636	0.	16.157
20074	21.353	1.2727	0.	18.658
20075	21.261	1.2727	5.e-002	4.1978
20076	21.261	1.5455	0.	16.111
20077	21.353	1.4545	0.	18.983
20078	21.261	1.4545	5.e-002	4.2258
20079	21.261	1.7273	0.	15.98
20080	21.353	1.6364	0.	19.197
20081	21.261	1.6364	5.e-002	4.2534
20082	21.261	1.9091	0.	15.781
20083	21.353	1.8182	0.	19.308
20084	21.261	1.8182	5.e-002	4.2796
20085	21.261	2.0909	0.	15.54
20086	21.353	2.	0.	19.332
20087	21.261	2.	5.e-002	4.3037
20088	21.261	2.2727	0.	15.288
20089	21.353	2.1818	0.	19.295
20090	21.261	2.1818	5.e-002	4.325
20091	21.261	2.4545	0.	15.053
20092	21.353	2.3636	0.	19.223
20093	21.261	2.3636	5.e-002	4.3428
20094	21.261	2.6364	0.	14.863
20095	21.353	2.5455	0.	19.141
20096	21.261	2.5455	5.e-002	4.3567
20097	21.261	2.8182	0.	14.741
20098	21.353	2.7273	0.	19.074
20099	21.261	2.7273	5.e-002	4.3661
20100	21.261	3.	0.	14.698
20101	21.353	2.9091	0.	19.035
20102	21.261	2.9091	5.e-002	4.3709
20103	21.261	3.1818	0.	14.741
20104	21.353	3.0909	0.	19.035
20105	21.261	3.0909	5.e-002	4.3709
20106	21.261	3.3636	0.	14.863
20107	21.353	3.2727	0.	19.074
20108	21.261	3.2727	5.e-002	4.3661
20109	21.261	3.5455	0.	15.053
20110	21.353	3.4545	0.	19.141
20111	21.261	3.4545	5.e-002	4.3567
20112	21.261	3.7273	0.	15.288
20113	21.353	3.6364	0.	19.223
20114	21.261	3.6364	5.e-002	4.3428
20115	21.261	3.9091	0.	15.54
20116	21.353	3.8182	0.	19.295
20117	21.261	3.8182	5.e-002	4.325
20118	21.261	4.0909	0.	15.781
20119	21.353	4.	0.	19.332
20120	21.261	4.	5.e-002	4.3037
20121	21.261	4.2727	0.	15.98
20122	21.353	4.1818	0.	19.308
20123	21.261	4.1818	5.e-002	4.2796
20124	21.261	4.4545	0.	16.111
20125	21.353	4.3636	0.	19.197
20126	21.261	4.3636	5.e-002	4.2534
20127	21.261	4.6364	0.	16.157
20128	21.353	4.5455	0.	18.984
20129	21.261	4.5455	5.e-002	4.2258
20130	21.261	4.8182	0.	16.109
20131	21.353	4.7273	0.	18.658
20132	21.261	4.7273	5.e-002	4.1978
20133	21.261	5.	0.	15.976
20134	21.353	4.9091	0.	18.227
20135	21.261	4.9091	5.e-002	4.1701
20136	21.261	5.1818	0.	15.781
20137	21.353	5.0909	0.	17.713
20138	21.261	5.0909	5.e-002	4.1435
20139	21.261	5.3636	0.	15.569
20140	21.353	5.2727	0.	17.154
20141	21.261	5.2727	5.e-002	4.1181
20142	21.261	5.5455	0.	15.44
20143	21.353	5.4545	0.	16.617
20144	21.261	5.4545	5.e-002	4.0856
20145	21.261	5.7273	0.	16.24
20146	21.353	5.6364	0.	16.257
20147	21.261	5.6364	5.e-002	3.9114
20148	21.353	5.8182	0.	17.747
20149	21.261	5.8182	5.e-002	1.5254
20150	21.261	5.9091	0.	11.794
20151	21.444	0.27273	0.	17.584
20152	21.535	0.18182	0.	18.828
20153	21.444	0.18182	5.e-002	1.573
20154	21.444	9.0909e-002	0.	12.49
20155	21.444	0.45455	0.	17.37
20156	21.535	0.36364	0.	17.892
20157	21.444	0.36364	5.e-002	3.9126
20158	21.444	0.63636	0.	18.15
20159	21.535	0.54545	0.	18.901
20160	21.444	0.54545	5.e-002	4.0833
20161	21.444	0.81818	0.	19.04
20162	21.535	0.72727	0.	20.121
20163	21.444	0.72727	5.e-002	4.1142
20164	21.444	1.	0.	19.924
20165	21.535	0.90909	0.	21.376
20166	21.444	0.90909	5.e-002	4.1377
20167	21.444	1.1818	0.	20.743
20168	21.535	1.0909	0.	22.587
20169	21.444	1.0909	5.e-002	4.162
20170	21.444	1.3636	0.	21.457
20171	21.535	1.2727	0.	23.697
20172	21.444	1.2727	5.e-002	4.1871
20173	21.444	1.5455	0.	22.046
20174	21.535	1.4545	0.	24.672
20175	21.444	1.4545	5.e-002	4.2124
20176	21.444	1.7273	0.	22.506
20177	21.535	1.6364	0.	25.494
20178	21.444	1.6364	5.e-002	4.2371
20179	21.444	1.9091	0.	22.843
20180	21.535	1.8182	0.	26.16
20181	21.444	1.8182	5.e-002	4.2605
20182	21.444	2.0909	0.	23.073
20183	21.535	2.	0.	26.678
20184	21.444	2.	5.e-002	4.282
20185	21.444	2.2727	0.	23.218
20186	21.535	2.1818	0.	27.066
20187	21.444	2.1818	5.e-002	4.301
20188	21.444	2.4545	0.	23.301
20189	21.535	2.3636	0.	27.342
20190	21.444	2.3636	5.e-002	4.3168
20191	21.444	2.6364	0.	23.342
20192	21.535	2.5455	0.	27.528
20193	21.444	2.5455	5.e-002	4.329
20194	21.444	2.8182	0.	23.36
20195	21.535	2.7273	0.	27.64
20196	21.444	2.7273	5.e-002	4.3374
20197	21.444	3.	0.	23.364
20198	21.535	2.9091	0.	27.693
20199	21.444	2.9091	5.e-002	4.3417
20200	21.444	3.1818	0.	23.36
20201	21.535	3.0909	0.	27.693
20202	21.444	3.0909	5.e-002	4.3417
20203	21.444	3.3636	0.	23.342
20204	21.535	3.2727	0.	27.64
20205	21.444	3.2727	5.e-002	4.3374
20206	21.444	3.5455	0.	23.301
20207	21.535	3.4545	0.	27.528
20208	21.444	3.4545	5.e-002	4.329
20209	21.444	3.7273	0.	23.218
20210	21.535	3.6364	0.	27.342
20211	21.444	3.6364	5.e-002	4.3168
20212	21.444	3.9091	0.	23.073
20213	21.535	3.8182	0.	27.066
20214	21.444	3.8182	5.e-002	4.301
20215	21.444	4.0909	0.	22.843
20216	21.535	4.	0.	26.678
20217	21.444	4.	5.e-002	4.282
20218	21.444	4.2727	0.	22.506
20219	21.535	4.1818	0.	26.16
20220	21.444	4.1818	5.e-002	4.2605
20221	21.444	4.4545	0.	22.046
20222	21.535	4.3636	0.	25.494
20223	21.444	4.3636	5.e-002	4.2371
20224	21.444	4.6364	0.	21.457
20225	21.535	4.5455	0.	24.672
20226	21.444	4.5455	5.e-002	4.2124
20227	21.444	4.8182	0.	20.743
20228	21.535	4.7273	0.	23.698
20229	21.444	4.7273	5.e-002	4.1871
20230	21.444	5.	0.	19.925
20231	21.535	4.9091	0.	22.587
20232	21.444	4.9091	5.e-002	4.162
20233	21.444	5.1818	0.	19.04
20234	21.535	5.0909	0.	21.377
20235	21.444	5.0909	5.e-002	4.1377
20236	21.444	5.3636	0.	18.15
20237	21.535	5.2727	0.	20.121
20238	21.444	5.2727	5.e-002	4.1142
20239	21.444	5.5455	0.	17.37
20240	21.535	5.4545	0.	18.901
20241	21.444	5.4545	5.e-002	4.0833
20242	21.444	5.7273	0.	17.584
20243	21.535	5.6364	0.	17.892
20244	21.444	5.6364	5.e-002	3.9126
20245	21.535	5.8182	0.	18.828
20246	21.444	5.8182	5.e-002	1.573
20247	21.444	5.9091	0.	12.49
20248	21.627	0.27273	0.	18.945
20249	21.718	0.18182	0.	19.899
20250	21.627	0.18182	5.e-002	1.6289
20251	21.627	9.0909e-002	0.	13.184
20252	21.627	0.45455	0.	19.354
20253	21.718	0.36364	0.	19.563
20254	21.627	0.36364	5.e-002	3.9124
20255	21.627	0.63636	0.	20.816
20256	21.718	0.54545	0.	21.259
20257	21.627	0.54545	5.e-002	4.0794
20258	21.627	0.81818	0.	22.409
20259	21.718	0.72727	0.	23.192
20260	21.627	0.72727	5.e-002	4.1094
20261	21.627	1.	0.	23.998
20262	21.718	0.90909	0.	25.168
20263	21.627	0.90909	5.e-002	4.1317
20264	21.627	1.1818	0.	25.507
20265	21.718	1.0909	0.	27.088
20266	21.627	1.0909	5.e-002	4.1546
20267	21.627	1.3636	0.	26.884
20268	21.718	1.2727	0.	28.88
20269	21.627	1.2727	5.e-002	4.1779
20270	21.627	1.5455	0.	28.096
20271	21.718	1.4545	0.	30.498
20272	21.627	1.4545	5.e-002	4.2012
20273	21.627	1.7273	0.	29.128
20274	21.718	1.6364	0.	31.913
20275	21.627	1.6364	5.e-002	4.2239
20276	21.627	1.9091	0.	29.979
20277	21.718	1.8182	0.	33.116
20278	21.627	1.8182	5.e-002	4.2453
20279	21.627	2.0909	0.	30.657
20280	21.718	2.	0.	34.107
20281	21.627	2.	5.e-002	4.2649
20282	21.627	2.2727	0.	31.178
20283	21.718	2.1818	0.	34.898
20284	21.627	2.1818	5.e-002	4.2821
20285	21.627	2.4545	0.	31.559
20286	21.718	2.3636	0.	35.503
20287	21.627	2.3636	5.e-002	4.2964
20288	21.627	2.6364	0.	31.816
20289	21.718	2.5455	0.	35.938
20290	21.627	2.5455	5.e-002	4.3075
20291	21.627	2.8182	0.	31.964
20292	21.718	2.7273	0.	36.219
20293	21.627	2.7273	5.e-002	4.315
20294	21.627	3.	0.	32.013
20295	21.718	2.9091	0.	36.356
20296	21.627	2.9091	5.e-002	4.3188
20297	21.627	3.1818	0.	31.964
20298	21.718	3.0909	0.	36.356
20299	21.627	3.0909	5.e-002	4.3188
20300	21.627	3.3636	0.	31.816
20301	21.718	3.2727	0.	36.219
20302	21.627	3.2727	5.e-002	4.315
20303	21.627	3.5455	0.	31.559
20304	21.718	3.4545	0.	35.938
20305	21.627	3.4545	5.e-002	4.3075
20306	21.627	3.7273	0.	31.178
20307	21.718	3.6364	0.	35.503
20308	21.627	3.6364	5.e-002	4.2964
20309	21.627	3.9091	0.	30.657
20310	21.718	3.8182	0.	34.898
20311	21.627	3.8182	5.e-002	4.2821
20312	21.627	4.0909	0.	29.979
20313	21.718	4.	0.	34.108
20314	21.627	4.	5.e-002	4.2649
20315	21.627	4.2727	0.	29.128
20316	21.718	4.1818	0.	33.116
20317	21.627	4.1818	5.e-002	4.2453
20318	21.627	4.4545	0.	28.096
20319	21.718	4.3636	0.	31.914
20320	21.627	4.3636	5.e-002	4.2239
20321	21.627	4.6364	0.	26.884
20322	21.718	4.5455	0.	30.498
20323	21.627	4.5455	5.e-002	4.2012
20324	21.627	4.8182	0.	25.507
20325	21.718	4.7273	0.	28.88
20326	21.627	4.7273	5.e-002	4.1779
20327	21.627	5.	0.	23.998
20328	21.718	4.9091	0.	27.088
20329	21.627	4.9091	5.e-002	4.1546
20330	21.627	5.1818	0.	22.409
20331	21.718	5.0909	0.	25.168
20332	21.627	5.0909	5.e-002	4.1317
20333	21.627	5.3636	0.	20.816
20334	21.718	5.2727	0.	23.192
20335	21.627	5.2727	5.e-002	4.1094
20336	21.627	5.5455	0.	19.354
20337	21.718	5.4545	0.	21.259
20338	21.627	5.4545	5.e-002	4.0794
20339	21.627	5.7273	0.	18.945
20340	21.718	5.6364	0.	19.563
20341	21.627	5.6364	5.e-002	3.9124
20342	21.718	5.8182	0.	19.899
20343	21.627	5.8182	5.e-002	1.6289
20344	21.627	5.9091	0.	13.184
20345	21.809	0.27273	0.	20.313
20346	21.9	0.18182	0.	20.949
20347	21.809	0.18182	5.e-002	1.6945
20348	21.809	9.0909e-002	0.	13.871
20349	21.809	0.45455	0.	21.392
20350	21.9	0.36364	0.	21.267
20351	21.809	0.36364	5.e-002	3.9115
20352	21.809	0.63636	0.	23.574
20353	21.9	0.54545	0.	23.694
20354	21.809	0.54545	5.e-002	4.0747
20355	21.809	0.81818	0.	25.9
20356	21.9	0.72727	0.	26.38
20357	21.809	0.72727	5.e-002	4.1042
20358	21.809	1.	0.	28.214
20359	21.9	0.90909	0.	29.107
20360	21.809	0.90909	5.e-002	4.1261
20361	21.809	1.1818	0.	30.425
20362	21.9	1.0909	0.	31.754
20363	21.809	1.0909	5.e-002	4.1481
20364	21.809	1.3636	0.	32.465
20365	21.9	1.2727	0.	34.235
20366	21.809	1.2727	5.e-002	4.1704
20367	21.809	1.5455	0.	34.291
20368	21.9	1.4545	0.	36.493
20369	21.809	1.4545	5.e-002	4.1925
20370	21.809	1.7273	0.	35.882
20371	21.9	1.6364	0.	38.492
20372	21.809	1.6364	5.e-002	4.2139
20373	21.809	1.9091	0.	37.228
20374	21.9	1.8182	0.	40.215
20375	21.809	1.8182	5.e-002	4.2339
20376	21.809	2.0909	0.	38.334
20377	21.9	2.	0.	41.66
20378	21.809	2.	5.e-002	4.2521
20379	21.809	2.2727	0.	39.211
20380	21.9	2.1818	0.	42.833
20381	21.809	2.1818	5.e-002	4.268
20382	21.809	2.4545	0.	39.872
20383	21.9	2.3636	0.	43.748
20384	21.809	2.3636	5.e-002	4.2812
20385	21.809	2.6364	0.	40.332
20386	21.9	2.5455	0.	44.418
20387	21.809	2.5455	5.e-002	4.2914
20388	21.809	2.8182	0.	40.602
20389	21.9	2.7273	0.	44.856
20390	21.809	2.7273	5.e-002	4.2983
20391	21.809	3.	0.	40.691
20392	21.9	2.9091	0.	45.072
20393	21.809	2.9091	5.e-002	4.3018
20394	21.809	3.1818	0.	40.602
20395	21.9	3.0909	0.	45.072
20396	21.809	3.0909	5.e-002	4.3018
20397	21.809	3.3636	0.	40.332
20398	21.9	3.2727	0.	44.856
20399	21.809	3.2727	5.e-002	4.2983
20400	21.809	3.5455	0.	39.872
20401	21.9	3.4545	0.	44.418
20402	21.809	3.4545	5.e-002	4.2914
20403	21.809	3.7273	0.	39.211
20404	21.9	3.6364	0.	43.748
20405	21.809	3.6364	5.e-002	4.2812
20406	21.809	3.9091	0.	38.334
20407	21.9	3.8182	0.	42.833
20408	21.809	3.8182	5.e-002	4.268
20409	21.809	4.0909	0.	37.228
20410	21.9	4.	0.	41.66
20411	21.809	4.	5.e-002	4.2521
20412	21.809	4.2727	0.	35.882
20413	21.9	4.1818	0.	40.215
20414	21.809	4.1818	5.e-002	4.2339
20415	21.809	4.4545	0.	34.291
20416	21.9	4.3636	0.	38.492
20417	21.809	4.3636	5.e-002	4.2139
20418	21.809	4.6364	0.	32.465
20419	21.9	4.5455	0.	36.494
20420	21.809	4.5455	5.e-002	4.1925
20421	21.809	4.8182	0.	30.425
20422	21.9	4.7273	0.	34.236
20423	21.809	4.7273	5.e-002	4.1704
20424	21.809	5.	0.	28.215
20425	21.9	4.9091	0.	31.754
20426	21.809	4.9091	5.e-002	4.1481
20427	21.809	5.1818	0.	25.9
20428	21.9	5.0909	0.	29.107
20429	21.809	5.0909	5.e-002	4.1261
20430	21.809	5.3636	0.	23.574
20431	21.9	5.2727	0.	26.381
20432	21.809	5.2727	5.e-002	4.1042
20433	21.809	5.5455	0.	21.392
20434	21.9	5.4545	0.	23.694
20435	21.809	5.4545	5.e-002	4.0747
20436	21.809	5.7273	0.	20.313
20437	21.9	5.6364	0.	21.267
20438	21.809	5.6364	5.e-002	3.9115
20439	21.9	5.8182	0.	20.949
20440	21.809	5.8182	5.e-002	1.6945
20441	21.809	5.9091	0.	13.871
20442	21.992	0.27273	0.	21.685
20443	22.083	0.18182	0.	21.97
20444	21.992	0.18182	5.e-002	1.7709
20445	21.992	9.0909e-002	0.	14.545
20446	21.992	0.45455	0.	23.486
20447	22.083	0.36364	0.	23.003
20448	21.992	0.36364	5.e-002	3.9107
20449	21.992	0.63636	0.	26.435
20450	22.083	0.54545	0.	26.218
20451	21.992	0.54545	5.e-002	4.0698
20452	21.992	0.81818	0.	29.532
20453	22.083	0.72727	0.	29.706
20454	21.992	0.72727	5.e-002	4.0994
20455	21.992	1.	0.	32.6
20456	22.083	0.90909	0.	33.22
20457	21.992	0.90909	5.e-002	4.1213
20458	21.992	1.1818	0.	35.527
20459	22.083	1.0909	0.	36.618
20460	21.992	1.0909	5.e-002	4.1432
20461	21.992	1.3636	0.	38.234
20462	22.083	1.2727	0.	39.8
20463	21.992	1.2727	5.e-002	4.1651
20464	21.992	1.5455	0.	40.67
20465	22.083	1.4545	0.	42.697
20466	21.992	1.4545	5.e-002	4.1866
20467	21.992	1.7273	0.	42.806
20468	22.083	1.6364	0.	45.269
20469	21.992	1.6364	5.e-002	4.2072
20470	21.992	1.9091	0.	44.63
20471	22.083	1.8182	0.	47.497
20472	21.992	1.8182	5.e-002	4.2263
20473	21.992	2.0909	0.	46.145
20474	22.083	2.	0.	49.376
20475	21.992	2.	5.e-002	4.2436
20476	21.992	2.2727	0.	47.358
20477	22.083	2.1818	0.	50.912
20478	21.992	2.1818	5.e-002	4.2586
20479	21.992	2.4545	0.	48.283
20480	22.083	2.3636	0.	52.118
20481	21.992	2.3636	5.e-002	4.271
20482	21.992	2.6364	0.	48.932
20483	22.083	2.5455	0.	53.007
20484	21.992	2.5455	5.e-002	4.2805
20485	21.992	2.8182	0.	49.317
20486	22.083	2.7273	0.	53.592
20487	21.992	2.7273	5.e-002	4.287
20488	21.992	3.	0.	49.444
20489	22.083	2.9091	0.	53.882
20490	21.992	2.9091	5.e-002	4.2902
20491	21.992	3.1818	0.	49.317
20492	22.083	3.0909	0.	53.882
20493	21.992	3.0909	5.e-002	4.2902
20494	21.992	3.3636	0.	48.932
20495	22.083	3.2727	0.	53.592
20496	21.992	3.2727	5.e-002	4.287
20497	21.992	3.5455	0.	48.283
20498	22.083	3.4545	0.	53.007
20499	21.992	3.4545	5.e-002	4.2805
20500	21.992	3.7273	0.	47.358
20501	22.083	3.6364	0.	52.118
20502	21.992	3.6364	5.e-002	4.271
20503	21.992	3.9091	0.	46.145
20504	22.083	3.8182	0.	50.912
20505	21.992	3.8182	5.e-002	4.2586
20506	21.992	4.0909	0.	44.63
20507	22.083	4.	0.	49.376
20508	21.992	4.	5.e-002	4.2436
20509	21.992	4.2727	0.	42.806
20510	22.083	4.1818	0.	47.497
20511	21.992	4.1818	5.e-002	4.2263
20512	21.992	4.4545	0.	40.67
20513	22.083	4.3636	0.	45.269
20514	21.992	4.3636	5.e-002	4.2072
20515	21.992	4.6364	0.	38.234
20516	22.083	4.5455	0.	42.697
20517	21.992	4.5455	5.e-002	4.1866
20518	21.992	4.8182	0.	35.527
20519	22.083	4.7273	0.	39.8
20520	21.992	4.7273	5.e-002	4.1651
20521	21.992	5.	0.	32.6
20522	22.083	4.9091	0.	36.618
20523	21.992	4.9091	5.e-002	4.1432
20524	21.992	5.1818	0.	29.532
20525	22.083	5.0909	0.	33.22
20526	21.992	5.0909	5.e-002	4.1213
20527	21.992	5.3636	0.	26.435
20528	22.083	5.2727	0.	29.706
20529	21.992	5.2727	5.e-002	4.0994
20530	21.992	5.5455	0.	23.486
20531	22.083	5.4545	0.	26.218
20532	21.992	5.4545	5.e-002	4.0698
20533	21.992	5.7273	0.	21.685
20534	22.083	5.6364	0.	23.003
20535	21.992	5.6364	5.e-002	3.9107
20536	22.083	5.8182	0.	21.97
20537	21.992	5.8182	5.e-002	1.7709
20538	21.992	5.9091	0.	14.545
20539	22.174	0.27273	0.	23.055
20540	22.266	0.18182	0.	22.951
20541	22.174	0.18182	5.e-002	1.8593
20542	22.174	9.0909e-002	0.	15.199
20543	22.174	0.45455	0.	25.644
20544	22.266	0.36364	0.	24.778
20545	22.174	0.36364	5.e-002	3.9104
20546	22.174	0.63636	0.	29.417
20547	22.266	0.54545	0.	28.849
20548	22.174	0.54545	5.e-002	4.0652
20549	22.174	0.81818	0.	33.335
20550	22.266	0.72727	0.	33.198
20551	22.174	0.72727	5.e-002	4.0954
20552	22.174	1.	0.	37.19
20553	22.266	0.90909	0.	37.545
20554	22.174	0.90909	5.e-002	4.118
20555	22.174	1.1818	0.	40.852
20556	22.266	1.0909	0.	41.722
20557	22.174	1.0909	5.e-002	4.1404
20558	22.174	1.3636	0.	44.232
20559	22.266	1.2727	0.	45.616
20560	22.174	1.2727	5.e-002	4.1624
20561	22.174	1.5455	0.	47.272
20562	22.266	1.4545	0.	49.151
20563	22.174	1.4545	5.e-002	4.1838
20564	22.174	1.7273	0.	49.94
20565	22.266	1.6364	0.	52.286
20566	22.174	1.6364	5.e-002	4.2041
20567	22.174	1.9091	0.	52.226
20568	22.266	1.8182	0.	55.001
20569	22.174	1.8182	5.e-002	4.2227
20570	22.174	2.0909	0.	54.129
20571	22.266	2.	0.	57.295
20572	22.174	2.	5.e-002	4.2394
20573	22.174	2.2727	0.	55.661
20574	22.266	2.1818	0.	59.174
20575	22.174	2.1818	5.e-002	4.2537
20576	22.174	2.4545	0.	56.832
20577	22.266	2.3636	0.	60.653
20578	22.174	2.3636	5.e-002	4.2655
20579	22.174	2.6364	0.	57.658
20580	22.266	2.5455	0.	61.746
20581	22.174	2.5455	5.e-002	4.2746
20582	22.174	2.8182	0.	58.148
20583	22.266	2.7273	0.	62.466
20584	22.174	2.7273	5.e-002	4.2807
20585	22.174	3.	0.	58.311
20586	22.266	2.9091	0.	62.823
20587	22.174	2.9091	5.e-002	4.2837
20588	22.174	3.1818	0.	58.148
20589	22.266	3.0909	0.	62.823
20590	22.174	3.0909	5.e-002	4.2837
20591	22.174	3.3636	0.	57.658
20592	22.266	3.2727	0.	62.466
20593	22.174	3.2727	5.e-002	4.2807
20594	22.174	3.5455	0.	56.832
20595	22.266	3.4545	0.	61.746
20596	22.174	3.4545	5.e-002	4.2746
20597	22.174	3.7273	0.	55.661
20598	22.266	3.6364	0.	60.653
20599	22.174	3.6364	5.e-002	4.2655
20600	22.174	3.9091	0.	54.129
20601	22.266	3.8182	0.	59.174
20602	22.174	3.8182	5.e-002	4.2537
20603	22.174	4.0909	0.	52.226
20604	22.266	4.	0.	57.295
20605	22.174	4.	5.e-002	4.2394
20606	22.174	4.2727	0.	49.94
20607	22.266	4.1818	0.	55.001
20608	22.174	4.1818	5.e-002	4.2227
20609	22.174	4.4545	0.	47.272
20610	22.266	4.3636	0.	52.286
20611	22.174	4.3636	5.e-002	4.2041
20612	22.174	4.6364	0.	44.232
20613	22.266	4.5455	0.	49.152
20614	22.174	4.5455	5.e-002	4.1838
20615	22.174	4.8182	0.	40.852
20616	22.266	4.7273	0.	45.616
20617	22.174	4.7273	5.e-002	4.1624
20618	22.174	5.	0.	37.19
20619	22.266	4.9091	0.	41.722
20620	22.174	4.9091	5.e-002	4.1404
20621	22.174	5.1818	0.	33.335
20622	22.266	5.0909	0.	37.545
20623	22.174	5.0909	5.e-002	4.118
20624	22.174	5.3636	0.	29.418
20625	22.266	5.2727	0.	33.198
20626	22.174	5.2727	5.e-002	4.0954
20627	22.174	5.5455	0.	25.644
20628	22.266	5.4545	0.	28.849
20629	22.174	5.4545	5.e-002	4.0652
20630	22.174	5.7273	0.	23.055
20631	22.266	5.6364	0.	24.778
20632	22.174	5.6364	5.e-002	3.9104
20633	22.266	5.8182	0.	22.951
20634	22.174	5.8182	5.e-002	1.8593
20635	22.174	5.9091	0.	15.199
20636	22.357	0.27273	0.	24.421
20637	22.448	0.18182	0.	23.882
20638	22.357	0.18182	5.e-002	1.9609
20639	22.357	9.0909e-002	0.	15.827
20640	22.357	0.45455	0.	27.881
20641	22.448	0.36364	0.	26.6
20642	22.357	0.36364	5.e-002	3.9113
20643	22.357	0.63636	0.	32.551
20644	22.448	0.54545	0.	31.614
20645	22.357	0.54545	5.e-002	4.0616
20646	22.357	0.81818	0.	37.345
20647	22.448	0.72727	0.	36.899
20648	22.357	0.72727	5.e-002	4.093
20649	22.357	1.	0.	42.027
20650	22.448	0.90909	0.	42.131
20651	22.357	0.90909	5.e-002	4.1169
20652	22.357	1.1818	0.	46.447
20653	22.448	1.0909	0.	47.119
20654	22.357	1.0909	5.e-002	4.1403
20655	22.357	1.3636	0.	50.505
20656	22.448	1.2727	0.	51.736
20657	22.357	1.2727	5.e-002	4.163
20658	22.357	1.5455	0.	54.142
20659	22.448	1.4545	0.	55.905
20660	22.357	1.4545	5.e-002	4.1847
20661	22.357	1.7273	0.	57.328
20662	22.448	1.6364	0.	59.588
20663	22.357	1.6364	5.e-002	4.205
20664	22.357	1.9091	0.	60.055
20665	22.448	1.8182	0.	62.771
20666	22.357	1.8182	5.e-002	4.2234
20667	22.357	2.0909	0.	62.326
20668	22.448	2.	0.	65.456
20669	22.357	2.	5.e-002	4.2396
20670	22.357	2.2727	0.	64.155
20671	22.448	2.1818	0.	67.656
20672	22.357	2.1818	5.e-002	4.2535
20673	22.357	2.4545	0.	65.557
20674	22.448	2.3636	0.	69.387
20675	22.357	2.3636	5.e-002	4.2649
20676	22.357	2.6364	0.	66.545
20677	22.448	2.5455	0.	70.668
20678	22.357	2.5455	5.e-002	4.2735
20679	22.357	2.8182	0.	67.133
20680	22.448	2.7273	0.	71.512
20681	22.357	2.7273	5.e-002	4.2793
20682	22.357	3.	0.	67.328
20683	22.448	2.9091	0.	71.932
20684	22.357	2.9091	5.e-002	4.2822
20685	22.357	3.1818	0.	67.133
20686	22.448	3.0909	0.	71.932
20687	22.357	3.0909	5.e-002	4.2822
20688	22.357	3.3636	0.	66.545
20689	22.448	3.2727	0.	71.512
20690	22.357	3.2727	5.e-002	4.2793
20691	22.357	3.5455	0.	65.557
20692	22.448	3.4545	0.	70.668
20693	22.357	3.4545	5.e-002	4.2735
20694	22.357	3.7273	0.	64.155
20695	22.448	3.6364	0.	69.387
20696	22.357	3.6364	5.e-002	4.2649
20697	22.357	3.9091	0.	62.326
20698	22.448	3.8182	0.	67.656
20699	22.357	3.8182	5.e-002	4.2535
20700	22.357	4.0909	0.	60.055
20701	22.448	4.	0.	65.456
20702	22.357	4.	5.e-002	4.2396
20703	22.357	4.2727	0.	57.328
20704	22.448	4.1818	0.	62.771
20705	22.357	4.1818	5.e-002	4.2234
20706	22.357	4.4545	0.	54.142
20707	22.448	4.3636	0.	59.588
20708	22.357	4.3636	5.e-002	4.2049
20709	22.357	4.6364	0.	50.505
20710	22.448	4.5455	0.	55.905
20711	22.357	4.5455	5.e-002	4.1847
20712	22.357	4.8182	0.	46.447
20713	22.448	4.7273	0.	51.736
20714	22.357	4.7273	5.e-002	4.163
20715	22.357	5.	0.	42.028
20716	22.448	4.9091	0.	47.119
20717	22.357	4.9091	5.e-002	4.1403
20718	22.357	5.1818	0.	37.345
20719	22.448	5.0909	0.	42.131
20720	22.357	5.0909	5.e-002	4.1169
20721	22.357	5.3636	0.	32.551
20722	22.448	5.2727	0.	36.899
20723	22.357	5.2727	5.e-002	4.093
20724	22.357	5.5455	0.	27.881
20725	22.448	5.4545	0.	31.614
20726	22.357	5.4545	5.e-002	4.0616
20727	22.357	5.7273	0.	24.421
20728	22.448	5.6364	0.	26.6
20729	22.357	5.6364	5.e-002	3.9113
20730	22.448	5.8182	0.	23.882
20731	22.357	5.8182	5.e-002	1.9609
20732	22.357	5.9091	0.	15.827
20733	22.539	0.27273	0.	25.784
20734	22.631	0.18182	0.	24.751
20735	22.539	0.18182	5.e-002	2.0771
20736	22.539	9.0909e-002	0.	16.421
20737	22.539	0.45455	0.	30.219
20738	22.631	0.36364	0.	28.488
20739	22.539	0.36364	5.e-002	3.9138
20740	22.539	0.63636	0.	35.876
20741	22.631	0.54545	0.	34.558
20742	22.539	0.54545	5.e-002	4.0596
20743	22.539	0.81818	0.	41.618
20744	22.631	0.72727	0.	40.867
20745	22.539	0.72727	5.e-002	4.0929
20746	22.539	1.	0.	47.171
20747	22.631	0.90909	0.	47.044
20748	22.539	0.90909	5.e-002	4.1188
20749	22.539	1.1818	0.	52.368
20750	22.631	1.0909	0.	52.872
20751	22.539	1.0909	5.e-002	4.1437
20752	22.539	1.3636	0.	57.106
20753	22.631	1.2727	0.	58.218
20754	22.539	1.2727	5.e-002	4.1676
20755	22.539	1.5455	0.	61.329
20756	22.631	1.4545	0.	63.011
20757	22.539	1.4545	5.e-002	4.1899
20758	22.539	1.7273	0.	65.013
20759	22.631	1.6364	0.	67.222
20760	22.539	1.6364	5.e-002	4.2103
20761	22.539	1.9091	0.	68.157
20762	22.631	1.8182	0.	70.846
20763	22.539	1.8182	5.e-002	4.2286
20764	22.539	2.0909	0.	70.773
20765	22.631	2.	0.	73.896
20766	22.539	2.	5.e-002	4.2446
20767	22.539	2.2727	0.	72.877
20768	22.631	2.1818	0.	76.391
20769	22.539	2.1818	5.e-002	4.258
20770	22.539	2.4545	0.	74.489
20771	22.631	2.3636	0.	78.353
20772	22.539	2.3636	5.e-002	4.2689
20773	22.539	2.6364	0.	75.627
20774	22.631	2.5455	0.	79.804
20775	22.539	2.5455	5.e-002	4.2771
20776	22.539	2.8182	0.	76.303
20777	22.631	2.7273	0.	80.761
20778	22.539	2.7273	5.e-002	4.2826
20779	22.539	3.	0.	76.528
20780	22.631	2.9091	0.	81.236
20781	22.539	2.9091	5.e-002	4.2854
20782	22.539	3.1818	0.	76.303
20783	22.631	3.0909	0.	81.236
20784	22.539	3.0909	5.e-002	4.2854
20785	22.539	3.3636	0.	75.627
20786	22.631	3.2727	0.	80.761
20787	22.539	3.2727	5.e-002	4.2826
20788	22.539	3.5455	0.	74.489
20789	22.631	3.4545	0.	79.804
20790	22.539	3.4545	5.e-002	4.2771
20791	22.539	3.7273	0.	72.877
20792	22.631	3.6364	0.	78.353
20793	22.539	3.6364	5.e-002	4.2689
20794	22.539	3.9091	0.	70.773
20795	22.631	3.8182	0.	76.391
20796	22.539	3.8182	5.e-002	4.258
20797	22.539	4.0909	0.	68.157
20798	22.631	4.	0.	73.896
20799	22.539	4.	5.e-002	4.2446
20800	22.539	4.2727	0.	65.013
20801	22.631	4.1818	0.	70.846
20802	22.539	4.1818	5.e-002	4.2286
20803	22.539	4.4545	0.	61.329
20804	22.631	4.3636	0.	67.222
20805	22.539	4.3636	5.e-002	4.2103
20806	22.539	4.6364	0.	57.106
20807	22.631	4.5455	0.	63.012
20808	22.539	4.5455	5.e-002	4.1899
20809	22.539	4.8182	0.	52.368
20810	22.631	4.7273	0.	58.218
20811	22.539	4.7273	5.e-002	4.1676
20812	22.539	5.	0.	47.171
20813	22.631	4.9091	0.	52.872
20814	22.539	4.9091	5.e-002	4.1437
20815	22.539	5.1818	0.	41.618
20816	22.631	5.0909	0.	47.044
20817	22.539	5.0909	5.e-002	4.1188
20818	22.539	5.3636	0.	35.877
20819	22.631	5.2727	0.	40.867
20820	22.539	5.2727	5.e-002	4.0929
20821	22.539	5.5455	0.	30.219
20822	22.631	5.4545	0.	34.558
20823	22.539	5.4545	5.e-002	4.0596
20824	22.539	5.7273	0.	25.784
20825	22.631	5.6364	0.	28.488
20826	22.539	5.6364	5.e-002	3.9138
20827	22.631	5.8182	0.	24.751
20828	22.539	5.8182	5.e-002	2.0771
20829	22.539	5.9091	0.	16.421
20830	22.722	0.27273	0.	27.148
20831	22.813	0.18182	0.	25.545
20832	22.722	0.18182	5.e-002	2.2095
20833	22.722	9.0909e-002	0.	16.974
20834	22.722	0.45455	0.	32.697
20835	22.813	0.36364	0.	30.473
20836	22.722	0.36364	5.e-002	3.9188
20837	22.722	0.63636	0.	39.455
20838	22.813	0.54545	0.	37.745
20839	22.722	0.54545	5.e-002	4.0601
20840	22.722	0.81818	0.	46.225
20841	22.813	0.72727	0.	45.187
20842	22.722	0.72727	5.e-002	4.0962
20843	22.722	1.	0.	52.694
20844	22.813	0.90909	0.	52.371
20845	22.722	0.90909	5.e-002	4.1249
20846	22.722	1.1818	0.	58.684
20847	22.813	1.0909	0.	59.061
20848	22.722	1.0909	5.e-002	4.1519
20849	22.722	1.3636	0.	64.095
20850	22.813	1.2727	0.	65.131
20851	22.722	1.2727	5.e-002	4.1771
20852	22.722	1.5455	0.	68.883
20853	22.813	1.4545	0.	70.526
20854	22.722	1.4545	5.e-002	4.2001
20855	22.722	1.7273	0.	73.038
20856	22.813	1.6364	0.	75.234
20857	22.722	1.6364	5.e-002	4.2208
20858	22.722	1.9091	0.	76.571
20859	22.813	1.8182	0.	79.267
20860	22.722	1.8182	5.e-002	4.2389
20861	22.722	2.0909	0.	79.503
20862	22.813	2.	0.	82.649
20863	22.722	2.	5.e-002	4.2544
20864	22.722	2.2727	0.	81.857
20865	22.813	2.1818	0.	85.41
20866	22.722	2.1818	5.e-002	4.2674
20867	22.722	2.4545	0.	83.66
20868	22.813	2.3636	0.	87.579
20869	22.722	2.3636	5.e-002	4.2777
20870	22.722	2.6364	0.	84.93
20871	22.813	2.5455	0.	89.181
20872	22.722	2.5455	5.e-002	4.2855
20873	22.722	2.8182	0.	85.686
20874	22.813	2.7273	0.	90.237
20875	22.722	2.7273	5.e-002	4.2906
20876	22.722	3.	0.	85.937
20877	22.813	2.9091	0.	90.761
20878	22.722	2.9091	5.e-002	4.2932
20879	22.722	3.1818	0.	85.686
20880	22.813	3.0909	0.	90.761
20881	22.722	3.0909	5.e-002	4.2932
20882	22.722	3.3636	0.	84.93
20883	22.813	3.2727	0.	90.237
20884	22.722	3.2727	5.e-002	4.2906
20885	22.722	3.5455	0.	83.66
20886	22.813	3.4545	0.	89.181
20887	22.722	3.4545	5.e-002	4.2855
20888	22.722	3.7273	0.	81.857
20889	22.813	3.6364	0.	87.579
20890	22.722	3.6364	5.e-002	4.2777
20891	22.722	3.9091	0.	79.503
20892	22.813	3.8182	0.	85.41
20893	22.722	3.8182	5.e-002	4.2674
20894	22.722	4.0909	0.	76.571
20895	22.813	4.	0.	82.649
20896	22.722	4.	5.e-002	4.2544
20897	22.722	4.2727	0.	73.038
20898	22.813	4.1818	0.	79.267
20899	22.722	4.1818	5.e-002	4.2389
20900	22.722	4.4545	0.	68.883
20901	22.813	4.3636	0.	75.234
20902	22.722	4.3636	5.e-002	4.2208
20903	22.722	4.6364	0.	64.095
20904	22.813	4.5455	0.	70.526
20905	22.722	4.5455	5.e-002	4.2001
20906	22.722	4.8182	0.	58.684
20907	22.813	4.7273	0.	65.131
20908	22.722	4.7273	5.e-002	4.1771
20909	22.722	5.	0.	52.694
20910	22.813	4.9091	0.	59.061
20911	22.722	4.9091	5.e-002	4.1519
20912	22.722	5.1818	0.	46.225
20913	22.813	5.0909	0.	52.371
20914	22.722	5.0909	5.e-002	4.1249
20915	22.722	5.3636	0.	39.456
20916	22.813	5.2727	0.	45.187
20917	22.722	5.2727	5.e-002	4.0962
20918	22.722	5.5455	0.	32.697
20919	22.813	5.4545	0.	37.745
20920	22.722	5.4545	5.e-002	4.0601
20921	22.722	5.7273	0.	27.148
20922	22.813	5.6364	0.	30.474
20923	22.722	5.6364	5.e-002	3.9188
20924	22.813	5.8182	0.	25.545
20925	22.722	5.8182	5.e-002	2.2095
20926	22.722	5.9091	0.	16.974
20927	22.905	0.27273	0.	28.527
20928	22.996	0.18182	0.	26.253
20929	22.905	0.18182	5.e-002	2.3602
20930	22.905	9.0909e-002	0.	17.475
20931	22.905	0.45455	0.	35.376
20932	22.996	0.36364	0.	32.614
20933	22.905	0.36364	5.e-002	3.9272
20934	22.905	0.63636	0.	43.377
20935	22.996	0.54545	0.	41.279
20936	22.905	0.54545	5.e-002	4.0646
20937	22.905	0.81818	0.	51.263
20938	22.996	0.72727	0.	49.974
20939	22.905	0.72727	5.e-002	4.1048
20940	22.905	1.	0.	58.688
20941	22.996	0.90909	0.	58.219
20942	22.905	0.90909	5.e-002	4.1369
20943	22.905	1.1818	0.	65.472
20944	22.996	1.0909	0.	65.776
20945	22.905	1.0909	5.e-002	4.1664
20946	22.905	1.3636	0.	71.536
20947	22.996	1.2727	0.	72.546
20948	22.905	1.2727	5.e-002	4.1929
20949	22.905	1.5455	0.	76.857
20950	22.996	1.4545	0.	78.505
20951	22.905	1.4545	5.e-002	4.2165
20952	22.905	1.7273	0.	81.447
20953	22.996	1.6364	0.	83.668
20954	22.905	1.6364	5.e-002	4.237
20955	22.905	1.9091	0.	85.332
20956	22.996	1.8182	0.	88.067
20957	22.905	1.8182	5.e-002	4.2547
20958	22.905	2.0909	0.	88.546
20959	22.996	2.	0.	91.744
20960	22.905	2.	5.e-002	4.2695
20961	22.905	2.2727	0.	91.123
20962	22.996	2.1818	0.	94.738
20963	22.905	2.1818	5.e-002	4.2817
20964	22.905	2.4545	0.	93.092
20965	22.996	2.3636	0.	97.086
20966	22.905	2.3636	5.e-002	4.2913
20967	22.905	2.6364	0.	94.48
20968	22.996	2.5455	0.	98.819
20969	22.905	2.5455	5.e-002	4.2984
20970	22.905	2.8182	0.	95.305
20971	22.996	2.7273	0.	99.96
20972	22.905	2.7273	5.e-002	4.3032
20973	22.905	3.	0.	95.579
20974	22.996	2.9091	0.	100.53
20975	22.905	2.9091	5.e-002	4.3055
20976	22.905	3.1818	0.	95.305
20977	22.996	3.0909	0.	100.53
20978	22.905	3.0909	5.e-002	4.3055
20979	22.905	3.3636	0.	94.48
20980	22.996	3.2727	0.	99.96
20981	22.905	3.2727	5.e-002	4.3032
20982	22.905	3.5455	0.	93.092
20983	22.996	3.4545	0.	98.819
20984	22.905	3.4545	5.e-002	4.2984
20985	22.905	3.7273	0.	91.123
20986	22.996	3.6364	0.	97.086
20987	22.905	3.6364	5.e-002	4.2913
20988	22.905	3.9091	0.	88.546
20989	22.996	3.8182	0.	94.738
20990	22.905	3.8182	5.e-002	4.2817
20991	22.905	4.0909	0.	85.332
20992	22.996	4.	0.	91.744
20993	22.905	4.	5.e-002	4.2695
20994	22.905	4.2727	0.	81.447
20995	22.996	4.1818	0.	88.068
20996	22.905	4.1818	5.e-002	4.2547
20997	22.905	4.4545	0.	76.857
20998	22.996	4.3636	0.	83.668
20999	22.905	4.3636	5.e-002	4.237
21000	22.905	4.6364	0.	71.536
21001	22.996	4.5455	0.	78.505
21002	22.905	4.5455	5.e-002	4.2165
21003	22.905	4.8182	0.	65.472
21004	22.996	4.7273	0.	72.546
21005	22.905	4.7273	5.e-002	4.1929
21006	22.905	5.	0.	58.688
21007	22.996	4.9091	0.	65.776
21008	22.905	4.9091	5.e-002	4.1664
21009	22.905	5.1818	0.	51.263
21010	22.996	5.0909	0.	58.219
21011	22.905	5.0909	5.e-002	4.1369
21012	22.905	5.3636	0.	43.377
21013	22.996	5.2727	0.	49.974
21014	22.905	5.2727	5.e-002	4.1047
21015	22.905	5.5455	0.	35.376
21016	22.996	5.4545	0.	41.279
21017	22.905	5.4545	5.e-002	4.0646
21018	22.905	5.7273	0.	28.527
21019	22.996	5.6364	0.	32.614
21020	22.905	5.6364	5.e-002	3.9272
21021	22.996	5.8182	0.	26.253
21022	22.905	5.8182	5.e-002	2.3602
21023	22.905	5.9091	0.	17.475
21024	23.087	0.27273	0.	29.949
21025	23.178	0.18182	0.	26.865
21026	23.087	0.18182	5.e-002	2.5324
21027	23.087	9.0909e-002	0.	17.909
21028	23.087	0.45455	0.	38.353
21029	23.178	0.36364	0.	35.015
21030	23.087	0.36364	5.e-002	3.9407
21031	23.087	0.63636	0.	47.772
21032	23.178	0.54545	0.	45.321
21033	23.087	0.54545	5.e-002	4.0755
21034	23.087	0.81818	0.	56.861
21035	23.178	0.72727	0.	55.392
21036	23.087	0.72727	5.e-002	4.1212
21037	23.087	1.	0.	65.26
21038	23.178	0.90909	0.	64.723
21039	23.087	0.90909	5.e-002	4.1575
21040	23.087	1.1818	0.	72.818
21041	23.178	1.0909	0.	73.12
21042	23.087	1.0909	5.e-002	4.1892
21043	23.087	1.3636	0.	79.492
21044	23.178	1.2727	0.	80.539
21045	23.087	1.2727	5.e-002	4.2166
21046	23.087	1.5455	0.	85.298
21047	23.178	1.4545	0.	87.003
21048	23.087	1.4545	5.e-002	4.24
21049	23.087	1.7273	0.	90.275
21050	23.178	1.6364	0.	92.564
21051	23.087	1.6364	5.e-002	4.2598
21052	23.087	1.9091	0.	94.468
21053	23.178	1.8182	0.	97.279
21054	23.087	1.8182	5.e-002	4.2764
21055	23.087	2.0909	0.	97.927
21056	23.178	2.	0.	101.21
21057	23.087	2.	5.e-002	4.29
21058	23.087	2.2727	0.	100.69
21059	23.178	2.1818	0.	104.4
21060	23.087	2.1818	5.e-002	4.301
21061	23.087	2.4545	0.	102.81
21062	23.178	2.3636	0.	106.89
21063	23.087	2.3636	5.e-002	4.3096
21064	23.087	2.6364	0.	104.29
21065	23.178	2.5455	0.	108.74
21066	23.087	2.5455	5.e-002	4.3159
21067	23.087	2.8182	0.	105.18
21068	23.178	2.7273	0.	109.95
21069	23.087	2.7273	5.e-002	4.32
21070	23.087	3.	0.	105.47
21071	23.178	2.9091	0.	110.55
21072	23.087	2.9091	5.e-002	4.322
21073	23.087	3.1818	0.	105.18
21074	23.178	3.0909	0.	110.55
21075	23.087	3.0909	5.e-002	4.322
21076	23.087	3.3636	0.	104.29
21077	23.178	3.2727	0.	109.95
21078	23.087	3.2727	5.e-002	4.32
21079	23.087	3.5455	0.	102.81
21080	23.178	3.4545	0.	108.74
21081	23.087	3.4545	5.e-002	4.3159
21082	23.087	3.7273	0.	100.69
21083	23.178	3.6364	0.	106.89
21084	23.087	3.6364	5.e-002	4.3096
21085	23.087	3.9091	0.	97.927
21086	23.178	3.8182	0.	104.4
21087	23.087	3.8182	5.e-002	4.301
21088	23.087	4.0909	0.	94.468
21089	23.178	4.	0.	101.21
21090	23.087	4.	5.e-002	4.29
21091	23.087	4.2727	0.	90.275
21092	23.178	4.1818	0.	97.279
21093	23.087	4.1818	5.e-002	4.2764
21094	23.087	4.4545	0.	85.298
21095	23.178	4.3636	0.	92.564
21096	23.087	4.3636	5.e-002	4.2598
21097	23.087	4.6364	0.	79.492
21098	23.178	4.5455	0.	87.003
21099	23.087	4.5455	5.e-002	4.24
21100	23.087	4.8182	0.	72.818
21101	23.178	4.7273	0.	80.539
21102	23.087	4.7273	5.e-002	4.2166
21103	23.087	5.	0.	65.261
21104	23.178	4.9091	0.	73.12
21105	23.087	4.9091	5.e-002	4.1892
21106	23.087	5.1818	0.	56.861
21107	23.178	5.0909	0.	64.723
21108	23.087	5.0909	5.e-002	4.1575
21109	23.087	5.3636	0.	47.772
21110	23.178	5.2727	0.	55.392
21111	23.087	5.2727	5.e-002	4.1212
21112	23.087	5.5455	0.	38.353
21113	23.178	5.4545	0.	45.321
21114	23.087	5.4545	5.e-002	4.0755
21115	23.087	5.7273	0.	29.949
21116	23.178	5.6364	0.	35.015
21117	23.087	5.6364	5.e-002	3.9407
21118	23.178	5.8182	0.	26.865
21119	23.087	5.8182	5.e-002	2.5324
21120	23.087	5.9091	0.	17.909
21121	23.27	0.27273	0.	31.479
21122	23.361	0.18182	0.	27.392
21123	23.27	0.18182	5.e-002	2.7312
21124	23.27	9.0909e-002	0.	18.262
21125	23.27	0.45455	0.	41.802
21126	23.361	0.36364	0.	37.877
21127	23.27	0.36364	5.e-002	3.9629
21128	23.27	0.63636	0.	52.838
21129	23.361	0.54545	0.	50.124
21130	23.27	0.54545	5.e-002	4.098
21131	23.27	0.81818	0.	63.191
21132	23.361	0.72727	0.	61.65
21133	23.27	0.72727	5.e-002	4.1503
21134	23.27	1.	0.	72.542
21135	23.361	0.90909	0.	72.032
21136	23.27	0.90909	5.e-002	4.1903
21137	23.27	1.1818	0.	80.813
21138	23.361	1.0909	0.	81.189
21139	23.27	1.0909	5.e-002	4.2231
21140	23.27	1.3636	0.	88.029
21141	23.361	1.2727	0.	89.169
21142	23.27	1.2727	5.e-002	4.25
21143	23.27	1.5455	0.	94.253
21144	23.361	1.4545	0.	96.057
21145	23.27	1.4545	5.e-002	4.272
21146	23.27	1.7273	0.	99.555
21147	23.361	1.6364	0.	101.94
21148	23.27	1.6364	5.e-002	4.2899
21149	23.27	1.9091	0.	104.01
21150	23.361	1.8182	0.	106.92
21151	23.27	1.8182	5.e-002	4.3044
21152	23.27	2.0909	0.	107.67
21153	23.361	2.	0.	111.04
21154	23.27	2.	5.e-002	4.3161
21155	23.27	2.2727	0.	110.59
21156	23.361	2.1818	0.	114.39
21157	23.27	2.1818	5.e-002	4.3253
21158	23.27	2.4545	0.	112.82
21159	23.361	2.3636	0.	117.01
21160	23.27	2.3636	5.e-002	4.3324
21161	23.27	2.6364	0.	114.39
21162	23.361	2.5455	0.	118.94
21163	23.27	2.5455	5.e-002	4.3375
21164	23.27	2.8182	0.	115.32
21165	23.361	2.7273	0.	120.21
21166	23.27	2.7273	5.e-002	4.3408
21167	23.27	3.	0.	115.63
21168	23.361	2.9091	0.	120.84
21169	23.27	2.9091	5.e-002	4.3425
21170	23.27	3.1818	0.	115.32
21171	23.361	3.0909	0.	120.84
21172	23.27	3.0909	5.e-002	4.3425
21173	23.27	3.3636	0.	114.39
21174	23.361	3.2727	0.	120.21
21175	23.27	3.2727	5.e-002	4.3408
21176	23.27	3.5455	0.	112.82
21177	23.361	3.4545	0.	118.94
21178	23.27	3.4545	5.e-002	4.3375
21179	23.27	3.7273	0.	110.59
21180	23.361	3.6364	0.	117.01
21181	23.27	3.6364	5.e-002	4.3324
21182	23.27	3.9091	0.	107.67
21183	23.361	3.8182	0.	114.39
21184	23.27	3.8182	5.e-002	4.3253
21185	23.27	4.0909	0.	104.01
21186	23.361	4.	0.	111.04
21187	23.27	4.	5.e-002	4.3161
21188	23.27	4.2727	0.	99.555
21189	23.361	4.1818	0.	106.92
21190	23.27	4.1818	5.e-002	4.3044
21191	23.27	4.4545	0.	94.253
21192	23.361	4.3636	0.	101.94
21193	23.27	4.3636	5.e-002	4.2899
21194	23.27	4.6364	0.	88.029
21195	23.361	4.5455	0.	96.057
21196	23.27	4.5455	5.e-002	4.272
21197	23.27	4.8182	0.	80.813
21198	23.361	4.7273	0.	89.169
21199	23.27	4.7273	5.e-002	4.25
21200	23.27	5.	0.	72.542
21201	23.361	4.9091	0.	81.189
21202	23.27	4.9091	5.e-002	4.2231
21203	23.27	5.1818	0.	63.191
21204	23.361	5.0909	0.	72.032
21205	23.27	5.0909	5.e-002	4.1903
21206	23.27	5.3636	0.	52.838
21207	23.361	5.2727	0.	61.65
21208	23.27	5.2727	5.e-002	4.1503
21209	23.27	5.5455	0.	41.802
21210	23.361	5.4545	0.	50.124
21211	23.27	5.4545	5.e-002	4.098
21212	23.27	5.7273	0.	31.479
21213	23.361	5.6364	0.	37.877
21214	23.27	5.6364	5.e-002	3.9629
21215	23.361	5.8182	0.	27.392
21216	23.27	5.8182	5.e-002	2.7312
21217	23.27	5.9091	0.	18.262
21218	23.452	0.27273	0.	33.262
21219	23.544	0.18182	0.	27.927
21220	23.452	0.18182	5.e-002	2.9632
21221	23.452	9.0909e-002	0.	18.5
21222	23.452	0.45455	0.	46.011
21223	23.544	0.36364	0.	41.656
21224	23.452	0.36364	5.e-002	4.0035
21225	23.452	0.63636	0.	58.842
21226	23.544	0.54545	0.	56.101
21227	23.452	0.54545	5.e-002	4.142
21228	23.452	0.81818	0.	70.438
21229	23.544	0.72727	0.	69.027
21230	23.452	0.72727	5.e-002	4.1996
21231	23.452	1.	0.	80.646
21232	23.544	0.90909	0.	80.318
21233	23.452	0.90909	5.e-002	4.2403
21234	23.452	1.1818	0.	89.522
21235	23.544	1.0909	0.	90.091
21236	23.452	1.0909	5.e-002	4.2711
21237	23.452	1.3636	0.	97.18
21238	23.544	1.2727	0.	98.506
21239	23.452	1.2727	5.e-002	4.2948
21240	23.452	1.5455	0.	103.74
21241	23.544	1.4545	0.	105.72
21242	23.452	1.4545	5.e-002	4.3132
21243	23.452	1.7273	0.	109.29
21244	23.544	1.6364	0.	111.85
21245	23.452	1.6364	5.e-002	4.3275
21246	23.452	1.9091	0.	113.94
21247	23.544	1.8182	0.	117.01
21248	23.452	1.8182	5.e-002	4.3387
21249	23.452	2.0909	0.	117.76
21250	23.544	2.	0.	121.29
21251	23.452	2.	5.e-002	4.3474
21252	23.452	2.2727	0.	120.8
21253	23.544	2.1818	0.	124.75
21254	23.452	2.1818	5.e-002	4.3541
21255	23.452	2.4545	0.	123.12
21256	23.544	2.3636	0.	127.46
21257	23.452	2.3636	5.e-002	4.3592
21258	23.452	2.6364	0.	124.75
21259	23.544	2.5455	0.	129.45
21260	23.452	2.5455	5.e-002	4.3628
21261	23.452	2.8182	0.	125.72
21262	23.544	2.7273	0.	130.76
21263	23.452	2.7273	5.e-002	4.3651
21264	23.452	3.	0.	126.04
21265	23.544	2.9091	0.	131.41
21266	23.452	2.9091	5.e-002	4.3662
21267	23.452	3.1818	0.	125.72
21268	23.544	3.0909	0.	131.41
21269	23.452	3.0909	5.e-002	4.3662
21270	23.452	3.3636	0.	124.75
21271	23.544	3.2727	0.	130.76
21272	23.452	3.2727	5.e-002	4.3651
21273	23.452	3.5455	0.	123.12
21274	23.544	3.4545	0.	129.45
21275	23.452	3.4545	5.e-002	4.3628
21276	23.452	3.7273	0.	120.8
21277	23.544	3.6364	0.	127.46
21278	23.452	3.6364	5.e-002	4.3592
21279	23.452	3.9091	0.	117.76
21280	23.544	3.8182	0.	124.75
21281	23.452	3.8182	5.e-002	4.3541
21282	23.452	4.0909	0.	113.94
21283	23.544	4.	0.	121.29
21284	23.452	4.	5.e-002	4.3474
21285	23.452	4.2727	0.	109.29
21286	23.544	4.1818	0.	117.01
21287	23.452	4.1818	5.e-002	4.3387
21288	23.452	4.4545	0.	103.74
21289	23.544	4.3636	0.	111.85
21290	23.452	4.3636	5.e-002	4.3275
21291	23.452	4.6364	0.	97.18
21292	23.544	4.5455	0.	105.72
21293	23.452	4.5455	5.e-002	4.3131
21294	23.452	4.8182	0.	89.522
21295	23.544	4.7273	0.	98.506
21296	23.452	4.7273	5.e-002	4.2948
21297	23.452	5.	0.	80.646
21298	23.544	4.9091	0.	90.091
21299	23.452	4.9091	5.e-002	4.2711
21300	23.452	5.1818	0.	70.438
21301	23.544	5.0909	0.	80.319
21302	23.452	5.0909	5.e-002	4.2403
21303	23.452	5.3636	0.	58.842
21304	23.544	5.2727	0.	69.027
21305	23.452	5.2727	5.e-002	4.1996
21306	23.452	5.5455	0.	46.011
21307	23.544	5.4545	0.	56.101
21308	23.452	5.4545	5.e-002	4.142
21309	23.452	5.7273	0.	33.262
21310	23.544	5.6364	0.	41.656
21311	23.452	5.6364	5.e-002	4.0035
21312	23.544	5.8182	0.	27.927
21313	23.452	5.8182	5.e-002	2.9632
21314	23.452	5.9091	0.	18.5
21315	23.635	0.27273	0.	35.722
21316	23.726	0.18182	0.	29.136
21317	23.635	0.18182	5.e-002	3.2601
21318	23.635	9.0909e-002	0.	18.687
21319	23.635	0.45455	0.	51.576
21320	23.726	0.36364	0.	47.252
21321	23.635	0.36364	5.e-002	4.0992
21322	23.635	0.63636	0.	66.211
21323	23.726	0.54545	0.	63.75
21324	23.635	0.54545	5.e-002	4.2313
21325	23.635	0.81818	0.	78.866
21326	23.726	0.72727	0.	77.746
21327	23.635	0.72727	5.e-002	4.2848
21328	23.635	1.	0.	89.737
21329	23.726	0.90909	0.	89.663
21330	23.635	0.90909	5.e-002	4.317
21331	23.635	1.1818	0.	99.057
21332	23.726	1.0909	0.	99.833
21333	23.635	1.0909	5.e-002	4.3392
21334	23.635	1.3636	0.	107.03
21335	23.726	1.2727	0.	108.52
21336	23.635	1.2727	5.e-002	4.3548
21337	23.635	1.5455	0.	113.82
21338	23.726	1.4545	0.	115.93
21339	23.635	1.4545	5.e-002	4.366
21340	23.635	1.7273	0.	119.56
21341	23.726	1.6364	0.	122.21
21342	23.635	1.6364	5.e-002	4.3742
21343	23.635	1.9091	0.	124.35
21344	23.726	1.8182	0.	127.49
21345	23.635	1.8182	5.e-002	4.3802
21346	23.635	2.0909	0.	128.27
21347	23.726	2.	0.	131.86
21348	23.635	2.	5.e-002	4.3846
21349	23.635	2.2727	0.	131.4
21350	23.726	2.1818	0.	135.4
21351	23.635	2.1818	5.e-002	4.3878
21352	23.635	2.4545	0.	133.78
21353	23.726	2.3636	0.	138.16
21354	23.635	2.3636	5.e-002	4.3901
21355	23.635	2.6364	0.	135.46
21356	23.726	2.5455	0.	140.2
21357	23.635	2.5455	5.e-002	4.3917
21358	23.635	2.8182	0.	136.45
21359	23.726	2.7273	0.	141.53
21360	23.635	2.7273	5.e-002	4.3926
21361	23.635	3.	0.	136.78
21362	23.726	2.9091	0.	142.2
21363	23.635	2.9091	5.e-002	4.3931
21364	23.635	3.1818	0.	136.45
21365	23.726	3.0909	0.	142.2
21366	23.635	3.0909	5.e-002	4.3931
21367	23.635	3.3636	0.	135.46
21368	23.726	3.2727	0.	141.53
21369	23.635	3.2727	5.e-002	4.3926
21370	23.635	3.5455	0.	133.78
21371	23.726	3.4545	0.	140.2
21372	23.635	3.4545	5.e-002	4.3917
21373	23.635	3.7273	0.	131.4
21374	23.726	3.6364	0.	138.16
21375	23.635	3.6364	5.e-002	4.3901
21376	23.635	3.9091	0.	128.27
21377	23.726	3.8182	0.	135.4
21378	23.635	3.8182	5.e-002	4.3878
21379	23.635	4.0909	0.	124.35
21380	23.726	4.	0.	131.86
21381	23.635	4.	5.e-002	4.3846
21382	23.635	4.2727	0.	119.56
21383	23.726	4.1818	0.	127.49
21384	23.635	4.1818	5.e-002	4.3802
21385	23.635	4.4545	0.	113.82
21386	23.726	4.3636	0.	122.21
21387	23.635	4.3636	5.e-002	4.3742
21388	23.635	4.6364	0.	107.03
21389	23.726	4.5455	0.	115.93
21390	23.635	4.5455	5.e-002	4.366
21391	23.635	4.8182	0.	99.057
21392	23.726	4.7273	0.	108.52
21393	23.635	4.7273	5.e-002	4.3548
21394	23.635	5.	0.	89.738
21395	23.726	4.9091	0.	99.833
21396	23.635	4.9091	5.e-002	4.3392
21397	23.635	5.1818	0.	78.866
21398	23.726	5.0909	0.	89.663
21399	23.635	5.0909	5.e-002	4.317
21400	23.635	5.3636	0.	66.211
21401	23.726	5.2727	0.	77.747
21402	23.635	5.2727	5.e-002	4.2848
21403	23.635	5.5455	0.	51.576
21404	23.726	5.4545	0.	63.75
21405	23.635	5.4545	5.e-002	4.2313
21406	23.635	5.7273	0.	35.722
21407	23.726	5.6364	0.	47.252
21408	23.635	5.6364	5.e-002	4.0992
21409	23.726	5.8182	0.	29.136
21410	23.635	5.8182	5.e-002	3.2601
21411	23.635	5.9091	0.	18.687
21412	23.817	0.27273	0.	40.102
21413	23.817	0.18182	5.e-002	3.8824
21414	23.817	9.0909e-002	0.	18.746
21415	23.909	0.18182	0.	31.381
21416	23.817	0.45455	0.	59.302
21417	23.817	0.36364	5.e-002	4.4274
21418	23.909	0.36364	0.	54.001
21419	23.817	0.63636	0.	75.231
21420	23.817	0.54545	5.e-002	4.4829
21421	23.909	0.54545	0.	71.942
21422	23.817	0.81818	0.	88.512
21423	23.817	0.72727	5.e-002	4.4887
21424	23.909	0.72727	0.	86.651
21425	23.817	1.	0.	99.739
21426	23.817	0.90909	5.e-002	4.4866
21427	23.909	0.90909	0.	98.991
21428	23.817	1.1818	0.	109.28
21429	23.817	1.0909	5.e-002	4.4802
21430	23.909	1.0909	0.	109.45
21431	23.817	1.3636	0.	117.41
21432	23.817	1.2727	5.e-002	4.4723
21433	23.909	1.2727	0.	118.35
21434	23.817	1.5455	0.	124.32
21435	23.817	1.4545	5.e-002	4.4639
21436	23.909	1.4545	0.	125.92
21437	23.817	1.7273	0.	130.14
21438	23.817	1.6364	5.e-002	4.4557
21439	23.909	1.6364	0.	132.34
21440	23.817	1.9091	0.	135.
21441	23.817	1.8182	5.e-002	4.4482
21442	23.909	1.8182	0.	137.72
21443	23.817	2.0909	0.	138.98
21444	23.817	2.	5.e-002	4.4416
21445	23.909	2.	0.	142.17
21446	23.817	2.2727	0.	142.16
21447	23.817	2.1818	5.e-002	4.436
21448	23.909	2.1818	0.	145.78
21449	23.817	2.4545	0.	144.57
21450	23.817	2.3636	5.e-002	4.4314
21451	23.909	2.3636	0.	148.59
21452	23.817	2.6364	0.	146.27
21453	23.817	2.5455	5.e-002	4.428
21454	23.909	2.5455	0.	150.67
21455	23.817	2.8182	0.	147.28
21456	23.817	2.7273	5.e-002	4.4257
21457	23.909	2.7273	0.	152.03
21458	23.817	3.	0.	147.61
21459	23.817	2.9091	5.e-002	4.4245
21460	23.909	2.9091	0.	152.71
21461	23.817	3.1818	0.	147.28
21462	23.817	3.0909	5.e-002	4.4245
21463	23.909	3.0909	0.	152.71
21464	23.817	3.3636	0.	146.27
21465	23.817	3.2727	5.e-002	4.4257
21466	23.909	3.2727	0.	152.03
21467	23.817	3.5455	0.	144.57
21468	23.817	3.4545	5.e-002	4.428
21469	23.909	3.4545	0.	150.67
21470	23.817	3.7273	0.	142.16
21471	23.817	3.6364	5.e-002	4.4314
21472	23.909	3.6364	0.	148.59
21473	23.817	3.9091	0.	138.98
21474	23.817	3.8182	5.e-002	4.436
21475	23.909	3.8182	0.	145.78
21476	23.817	4.0909	0.	135.
21477	23.817	4.	5.e-002	4.4416
21478	23.909	4.	0.	142.17
21479	23.817	4.2727	0.	130.14
21480	23.817	4.1818	5.e-002	4.4482
21481	23.909	4.1818	0.	137.72
21482	23.817	4.4545	0.	124.32
21483	23.817	4.3636	5.e-002	4.4557
21484	23.909	4.3636	0.	132.34
21485	23.817	4.6364	0.	117.41
21486	23.817	4.5455	5.e-002	4.4639
21487	23.909	4.5455	0.	125.92
21488	23.817	4.8182	0.	109.28
21489	23.817	4.7273	5.e-002	4.4723
21490	23.909	4.7273	0.	118.35
21491	23.817	5.	0.	99.739
21492	23.817	4.9091	5.e-002	4.4802
21493	23.909	4.9091	0.	109.45
21494	23.817	5.1818	0.	88.512
21495	23.817	5.0909	5.e-002	4.4866
21496	23.909	5.0909	0.	98.991
21497	23.817	5.3636	0.	75.231
21498	23.817	5.2727	5.e-002	4.4887
21499	23.909	5.2727	0.	86.651
21500	23.817	5.5455	0.	59.302
21501	23.817	5.4545	5.e-002	4.4829
21502	23.909	5.4545	0.	71.942
21503	23.817	5.7273	0.	40.102
21504	23.817	5.6364	5.e-002	4.4274
21505	23.909	5.6364	0.	54.001
21506	23.817	5.8182	5.e-002	3.8824
21507	23.909	5.8182	0.	31.381
21508	23.817	5.9091	0.	18.746
21509	23.817	5.7273	0.1	37.022
21510	23.726	5.8182	0.1	54.597
21511	23.817	5.9091	0.1	34.695
21512	23.909	5.8182	0.1	20.466
21513	23.817	5.5455	0.1	38.035
21514	23.726	5.6364	0.1	55.187
21515	23.909	5.6364	0.1	21.285
21516	23.817	5.3636	0.1	38.587
21517	23.726	5.4545	0.1	56.184
21518	23.909	5.4545	0.1	21.695
21519	23.817	5.1818	0.1	38.866
21520	23.726	5.2727	0.1	56.864
21521	23.909	5.2727	0.1	21.907
21522	23.817	5.	0.1	38.983
21523	23.726	5.0909	0.1	57.268
21524	23.909	5.0909	0.1	21.989
21525	23.817	4.8182	0.1	39.014
21526	23.726	4.9091	0.1	57.505
21527	23.909	4.9091	0.1	22.01
21528	23.817	4.6364	0.1	38.998
21529	23.726	4.7273	0.1	57.634
21530	23.909	4.7273	0.1	21.998
21531	23.817	4.4545	0.1	38.957
21532	23.726	4.5455	0.1	57.696
21533	23.909	4.5455	0.1	21.969
21534	23.817	4.2727	0.1	38.905
21535	23.726	4.3636	0.1	57.716
21536	23.909	4.3636	0.1	21.932
21537	23.817	4.0909	0.1	38.85
21538	23.726	4.1818	0.1	57.711
21539	23.909	4.1818	0.1	21.893
21540	23.817	3.9091	0.1	38.797
21541	23.726	4.	0.1	57.691
21542	23.909	4.	0.1	21.856
21543	23.817	3.7273	0.1	38.75
21544	23.726	3.8182	0.1	57.666
21545	23.909	3.8182	0.1	21.822
21546	23.817	3.5455	0.1	38.711
21547	23.726	3.6364	0.1	57.64
21548	23.909	3.6364	0.1	21.794
21549	23.817	3.3636	0.1	38.682
21550	23.726	3.4545	0.1	57.617
21551	23.909	3.4545	0.1	21.772
21552	23.817	3.1818	0.1	38.665
21553	23.726	3.2727	0.1	57.601
21554	23.909	3.2727	0.1	21.757
21555	23.817	3.	0.1	38.659
21556	23.726	3.0909	0.1	57.593
21557	23.909	3.0909	0.1	21.749
21558	23.817	2.8182	0.1	38.665
21559	23.726	2.9091	0.1	57.593
21560	23.909	2.9091	0.1	21.749
21561	23.817	2.6364	0.1	38.682
21562	23.726	2.7273	0.1	57.601
21563	23.909	2.7273	0.1	21.757
21564	23.817	2.4545	0.1	38.711
21565	23.726	2.5455	0.1	57.617
21566	23.909	2.5455	0.1	21.772
21567	23.817	2.2727	0.1	38.75
21568	23.726	2.3636	0.1	57.64
21569	23.909	2.3636	0.1	21.794
21570	23.817	2.0909	0.1	38.797
21571	23.726	2.1818	0.1	57.666
21572	23.909	2.1818	0.1	21.822
21573	23.817	1.9091	0.1	38.85
21574	23.726	2.	0.1	57.691
21575	23.909	2.	0.1	21.856
21576	23.817	1.7273	0.1	38.905
21577	23.726	1.8182	0.1	57.711
21578	23.909	1.8182	0.1	21.893
21579	23.817	1.5455	0.1	38.957
21580	23.726	1.6364	0.1	57.716
21581	23.909	1.6364	0.1	21.932
21582	23.817	1.3636	0.1	38.998
21583	23.726	1.4545	0.1	57.696
21584	23.909	1.4545	0.1	21.969
21585	23.817	1.1818	0.1	39.014
21586	23.726	1.2727	0.1	57.634
21587	23.909	1.2727	0.1	21.998
21588	23.817	1.	0.1	38.983
21589	23.726	1.0909	0.1	57.505
21590	23.909	1.0909	0.1	22.01
21591	23.817	0.81818	0.1	38.866
21592	23.726	0.90909	0.1	57.268
21593	23.909	0.90909	0.1	21.989
21594	23.817	0.63636	0.1	38.587
21595	23.726	0.72727	0.1	56.864
21596	23.909	0.72727	0.1	21.907
21597	23.817	0.45455	0.1	38.035
21598	23.726	0.54545	0.1	56.184
21599	23.909	0.54545	0.1	21.695
21600	23.817	0.27273	0.1	37.022
21601	23.726	0.36364	0.1	55.187
21602	23.909	0.36364	0.1	21.285
21603	23.726	0.18182	0.1	54.597
21604	23.909	0.18182	0.1	20.466
21605	23.817	9.0909e-002	0.1	34.695
21606	23.635	5.7273	0.1	72.248
21607	23.544	5.8182	0.1	91.176
21608	23.635	5.9091	0.1	69.469
21609	23.635	5.5455	0.1	73.278
21610	23.544	5.6364	0.1	90.939
21611	23.635	5.3636	0.1	74.475
21612	23.544	5.4545	0.1	92.206
21613	23.635	5.1818	0.1	75.306
21614	23.544	5.2727	0.1	93.302
21615	23.635	5.	0.1	75.844
21616	23.544	5.0909	0.1	94.092
21617	23.635	4.8182	0.1	76.186
21618	23.544	4.9091	0.1	94.641
21619	23.635	4.6364	0.1	76.399
21620	23.544	4.7273	0.1	95.014
21621	23.635	4.4545	0.1	76.526
21622	23.544	4.5455	0.1	95.262
21623	23.635	4.2727	0.1	76.596
21624	23.544	4.3636	0.1	95.421
21625	23.635	4.0909	0.1	76.629
21626	23.544	4.1818	0.1	95.52
21627	23.635	3.9091	0.1	76.639
21628	23.544	4.	0.1	95.577
21629	23.635	3.7273	0.1	76.636
21630	23.544	3.8182	0.1	95.606
21631	23.635	3.5455	0.1	76.627
21632	23.544	3.6364	0.1	95.619
21633	23.635	3.3636	0.1	76.617
21634	23.544	3.4545	0.1	95.623
21635	23.635	3.1818	0.1	76.61
21636	23.544	3.2727	0.1	95.622
21637	23.635	3.	0.1	76.608
21638	23.544	3.0909	0.1	95.621
21639	23.635	2.8182	0.1	76.61
21640	23.544	2.9091	0.1	95.621
21641	23.635	2.6364	0.1	76.617
21642	23.544	2.7273	0.1	95.622
21643	23.635	2.4545	0.1	76.627
21644	23.544	2.5455	0.1	95.623
21645	23.635	2.2727	0.1	76.636
21646	23.544	2.3636	0.1	95.619
21647	23.635	2.0909	0.1	76.639
21648	23.544	2.1818	0.1	95.606
21649	23.635	1.9091	0.1	76.629
21650	23.544	2.	0.1	95.577
21651	23.635	1.7273	0.1	76.596
21652	23.544	1.8182	0.1	95.52
21653	23.635	1.5455	0.1	76.526
21654	23.544	1.6364	0.1	95.421
21655	23.635	1.3636	0.1	76.399
21656	23.544	1.4545	0.1	95.262
21657	23.635	1.1818	0.1	76.186
21658	23.544	1.2727	0.1	95.014
21659	23.635	1.	0.1	75.844
21660	23.544	1.0909	0.1	94.641
21661	23.635	0.81818	0.1	75.306
21662	23.544	0.90909	0.1	94.092
21663	23.635	0.63636	0.1	74.475
21664	23.544	0.72727	0.1	93.302
21665	23.635	0.45455	0.1	73.278
21666	23.544	0.54545	0.1	92.206
21667	23.635	0.27273	0.1	72.248
21668	23.544	0.36364	0.1	90.939
21669	23.544	0.18182	0.1	91.176
21670	23.635	9.0909e-002	0.1	69.469
21671	23.452	5.7273	0.1	109.27
21672	23.361	5.8182	0.1	128.96
21673	23.452	5.9091	0.1	106.11
21674	23.452	5.5455	0.1	109.72
21675	23.361	5.6364	0.1	127.88
21676	23.452	5.3636	0.1	110.98
21677	23.361	5.4545	0.1	128.93
21678	23.452	5.1818	0.1	112.06
21679	23.361	5.2727	0.1	130.11
21680	23.452	5.	0.1	112.88
21681	23.361	5.0909	0.1	131.08
21682	23.452	4.8182	0.1	113.47
21683	23.361	4.9091	0.1	131.84
21684	23.452	4.6364	0.1	113.88
21685	23.361	4.7273	0.1	132.4
21686	23.452	4.4545	0.1	114.16
21687	23.361	4.5455	0.1	132.8
21688	23.452	4.2727	0.1	114.35
21689	23.361	4.3636	0.1	133.09
21690	23.452	4.0909	0.1	114.48
21691	23.361	4.1818	0.1	133.29
21692	23.452	3.9091	0.1	114.55
21693	23.361	4.	0.1	133.42
21694	23.452	3.7273	0.1	114.6
21695	23.361	3.8182	0.1	133.51
21696	23.452	3.5455	0.1	114.63
21697	23.361	3.6364	0.1	133.56
21698	23.452	3.3636	0.1	114.64
21699	23.361	3.4545	0.1	133.6
21700	23.452	3.1818	0.1	114.65
21701	23.361	3.2727	0.1	133.62
21702	23.452	3.	0.1	114.65
21703	23.361	3.0909	0.1	133.62
21704	23.452	2.8182	0.1	114.65
21705	23.361	2.9091	0.1	133.62
21706	23.452	2.6364	0.1	114.64
21707	23.361	2.7273	0.1	133.62
21708	23.452	2.4545	0.1	114.63
21709	23.361	2.5455	0.1	133.6
21710	23.452	2.2727	0.1	114.6
21711	23.361	2.3636	0.1	133.56
21712	23.452	2.0909	0.1	114.55
21713	23.361	2.1818	0.1	133.51
21714	23.452	1.9091	0.1	114.48
21715	23.361	2.	0.1	133.42
21716	23.452	1.7273	0.1	114.35
21717	23.361	1.8182	0.1	133.29
21718	23.452	1.5455	0.1	114.16
21719	23.361	1.6364	0.1	133.09
21720	23.452	1.3636	0.1	113.88
21721	23.361	1.4545	0.1	132.8
21722	23.452	1.1818	0.1	113.47
21723	23.361	1.2727	0.1	132.4
21724	23.452	1.	0.1	112.88
21725	23.361	1.0909	0.1	131.84
21726	23.452	0.81818	0.1	112.06
21727	23.361	0.90909	0.1	131.08
21728	23.452	0.63636	0.1	110.98
21729	23.361	0.72727	0.1	130.11
21730	23.452	0.45455	0.1	109.72
21731	23.361	0.54545	0.1	128.93
21732	23.452	0.27273	0.1	109.27
21733	23.361	0.36364	0.1	127.89
21734	23.361	0.18182	0.1	128.96
21735	23.452	9.0909e-002	0.1	106.11
21736	23.27	5.7273	0.1	147.04
21737	23.178	5.8182	0.1	167.21
21738	23.27	5.9091	0.1	143.57
21739	23.27	5.5455	0.1	146.92
21740	23.178	5.6364	0.1	165.54
21741	23.27	5.3636	0.1	147.98
21742	23.178	5.4545	0.1	166.24
21743	23.27	5.1818	0.1	149.08
21744	23.178	5.2727	0.1	167.29
21745	23.27	5.	0.1	150.01
21746	23.178	5.0909	0.1	168.28
21747	23.27	4.8182	0.1	150.75
21748	23.178	4.9091	0.1	169.12
21749	23.27	4.6364	0.1	151.31
21750	23.178	4.7273	0.1	169.8
21751	23.27	4.4545	0.1	151.72
21752	23.178	4.5455	0.1	170.31
21753	23.27	4.2727	0.1	152.02
21754	23.178	4.3636	0.1	170.7
21755	23.27	4.0909	0.1	152.23
21756	23.178	4.1818	0.1	170.99
21757	23.27	3.9091	0.1	152.38
21758	23.178	4.	0.1	171.19
21759	23.27	3.7273	0.1	152.47
21760	23.178	3.8182	0.1	171.34
21761	23.27	3.5455	0.1	152.54
21762	23.178	3.6364	0.1	171.43
21763	23.27	3.3636	0.1	152.57
21764	23.178	3.4545	0.1	171.5
21765	23.27	3.1818	0.1	152.59
21766	23.178	3.2727	0.1	171.53
21767	23.27	3.	0.1	152.6
21768	23.178	3.0909	0.1	171.55
21769	23.27	2.8182	0.1	152.59
21770	23.178	2.9091	0.1	171.55
21771	23.27	2.6364	0.1	152.57
21772	23.178	2.7273	0.1	171.53
21773	23.27	2.4545	0.1	152.54
21774	23.178	2.5455	0.1	171.5
21775	23.27	2.2727	0.1	152.47
21776	23.178	2.3636	0.1	171.43
21777	23.27	2.0909	0.1	152.38
21778	23.178	2.1818	0.1	171.34
21779	23.27	1.9091	0.1	152.23
21780	23.178	2.	0.1	171.19
21781	23.27	1.7273	0.1	152.02
21782	23.178	1.8182	0.1	170.99
21783	23.27	1.5455	0.1	151.72
21784	23.178	1.6364	0.1	170.7
21785	23.27	1.3636	0.1	151.31
21786	23.178	1.4545	0.1	170.31
21787	23.27	1.1818	0.1	150.75
21788	23.178	1.2727	0.1	169.8
21789	23.27	1.	0.1	150.01
21790	23.178	1.0909	0.1	169.12
21791	23.27	0.81818	0.1	149.08
21792	23.178	0.90909	0.1	168.28
21793	23.27	0.63636	0.1	147.98
21794	23.178	0.72727	0.1	167.29
21795	23.27	0.45455	0.1	146.92
21796	23.178	0.54545	0.1	166.24
21797	23.27	0.27273	0.1	147.04
21798	23.178	0.36364	0.1	165.54
21799	23.178	0.18182	0.1	167.21
21800	23.27	9.0909e-002	0.1	143.57
21801	23.087	5.7273	0.1	185.25
21802	22.996	5.8182	0.1	205.76
21803	23.087	5.9091	0.1	181.58
21804	23.087	5.5455	0.1	184.68
21805	22.996	5.6364	0.1	203.66
21806	23.087	5.3636	0.1	185.46
21807	22.996	5.4545	0.1	204.03
21808	23.087	5.1818	0.1	186.43
21809	22.996	5.2727	0.1	204.86
21810	23.087	5.	0.1	187.36
21811	22.996	5.0909	0.1	205.76
21812	23.087	4.8182	0.1	188.15
21813	22.996	4.9091	0.1	206.59
21814	23.087	4.6364	0.1	188.79
21815	22.996	4.7273	0.1	207.3
21816	23.087	4.4545	0.1	189.28
21817	22.996	4.5455	0.1	207.88
21818	23.087	4.2727	0.1	189.66
21819	22.996	4.3636	0.1	208.33
21820	23.087	4.0909	0.1	189.94
21821	22.996	4.1818	0.1	208.68
21822	23.087	3.9091	0.1	190.15
21823	22.996	4.	0.1	208.94
21824	23.087	3.7273	0.1	190.29
21825	22.996	3.8182	0.1	209.13
21826	23.087	3.5455	0.1	190.39
21827	22.996	3.6364	0.1	209.26
21828	23.087	3.3636	0.1	190.45
21829	22.996	3.4545	0.1	209.35
21830	23.087	3.1818	0.1	190.49
21831	22.996	3.2727	0.1	209.4
21832	23.087	3.	0.1	190.5
21833	22.996	3.0909	0.1	209.43
21834	23.087	2.8182	0.1	190.49
21835	22.996	2.9091	0.1	209.43
21836	23.087	2.6364	0.1	190.45
21837	22.996	2.7273	0.1	209.4
21838	23.087	2.4545	0.1	190.39
21839	22.996	2.5455	0.1	209.35
21840	23.087	2.2727	0.1	190.29
21841	22.996	2.3636	0.1	209.26
21842	23.087	2.0909	0.1	190.15
21843	22.996	2.1818	0.1	209.13
21844	23.087	1.9091	0.1	189.94
21845	22.996	2.	0.1	208.94
21846	23.087	1.7273	0.1	189.66
21847	22.996	1.8182	0.1	208.68
21848	23.087	1.5455	0.1	189.28
21849	22.996	1.6364	0.1	208.33
21850	23.087	1.3636	0.1	188.79
21851	22.996	1.4545	0.1	207.88
21852	23.087	1.1818	0.1	188.15
21853	22.996	1.2727	0.1	207.3
21854	23.087	1.	0.1	187.36
21855	22.996	1.0909	0.1	206.59
21856	23.087	0.81818	0.1	186.43
21857	22.996	0.90909	0.1	205.76
21858	23.087	0.63636	0.1	185.46
21859	22.996	0.72727	0.1	204.86
21860	23.087	0.45455	0.1	184.68
21861	22.996	0.54545	0.1	204.03
21862	23.087	0.27273	0.1	185.25
21863	22.996	0.36364	0.1	203.66
21864	22.996	0.18182	0.1	205.76
21865	23.087	9.0909e-002	0.1	181.58
21866	22.905	5.7273	0.1	223.77
21867	22.813	5.8182	0.1	244.53
21868	22.905	5.9091	0.1	219.97
21869	22.905	5.5455	0.1	222.84
21870	22.813	5.6364	0.1	242.1
21871	22.905	5.3636	0.1	223.33
21872	22.813	5.4545	0.1	242.18
21873	22.905	5.1818	0.1	224.11
21874	22.813	5.2727	0.1	242.77
21875	22.905	5.	0.1	224.94
21876	22.813	5.0909	0.1	243.51
21877	22.905	4.8182	0.1	225.71
21878	22.813	4.9091	0.1	244.27
21879	22.905	4.6364	0.1	226.37
21880	22.813	4.7273	0.1	244.95
21881	22.905	4.4545	0.1	226.91
21882	22.813	4.5455	0.1	245.54
21883	22.905	4.2727	0.1	227.33
21884	22.813	4.3636	0.1	246.02
21885	22.905	4.0909	0.1	227.66
21886	22.813	4.1818	0.1	246.4
21887	22.905	3.9091	0.1	227.91
21888	22.813	4.	0.1	246.69
21889	22.905	3.7273	0.1	228.09
21890	22.813	3.8182	0.1	246.92
21891	22.905	3.5455	0.1	228.21
21892	22.813	3.6364	0.1	247.08
21893	22.905	3.3636	0.1	228.3
21894	22.813	3.4545	0.1	247.18
21895	22.905	3.1818	0.1	228.34
21896	22.813	3.2727	0.1	247.25
21897	22.905	3.	0.1	228.36
21898	22.813	3.0909	0.1	247.29
21899	22.905	2.8182	0.1	228.34
21900	22.813	2.9091	0.1	247.29
21901	22.905	2.6364	0.1	228.3
21902	22.813	2.7273	0.1	247.25
21903	22.905	2.4545	0.1	228.21
21904	22.813	2.5455	0.1	247.18
21905	22.905	2.2727	0.1	228.09
21906	22.813	2.3636	0.1	247.08
21907	22.905	2.0909	0.1	227.91
21908	22.813	2.1818	0.1	246.92
21909	22.905	1.9091	0.1	227.66
21910	22.813	2.	0.1	246.69
21911	22.905	1.7273	0.1	227.33
21912	22.813	1.8182	0.1	246.4
21913	22.905	1.5455	0.1	226.91
21914	22.813	1.6364	0.1	246.02
21915	22.905	1.3636	0.1	226.37
21916	22.813	1.4545	0.1	245.54
21917	22.905	1.1818	0.1	225.71
21918	22.813	1.2727	0.1	244.95
21919	22.905	1.	0.1	224.94
21920	22.813	1.0909	0.1	244.27
21921	22.905	0.81818	0.1	224.12
21922	22.813	0.90909	0.1	243.51
21923	22.905	0.63636	0.1	223.33
21924	22.813	0.72727	0.1	242.77
21925	22.905	0.45455	0.1	222.84
21926	22.813	0.54545	0.1	242.18
21927	22.905	0.27273	0.1	223.77
21928	22.813	0.36364	0.1	242.1
21929	22.813	0.18182	0.1	244.53
21930	22.905	9.0909e-002	0.1	219.97
21931	22.722	5.7273	0.1	262.51
21932	22.631	5.8182	0.1	283.47
21933	22.722	5.9091	0.1	258.66
21934	22.722	5.5455	0.1	261.3
21935	22.631	5.6364	0.1	280.8
21936	22.722	5.3636	0.1	261.52
21937	22.631	5.4545	0.1	280.62
21938	22.722	5.1818	0.1	262.1
21939	22.631	5.2727	0.1	280.97
21940	22.722	5.	0.1	262.79
21941	22.631	5.0909	0.1	281.54
21942	22.722	4.8182	0.1	263.47
21943	22.631	4.9091	0.1	282.17
21944	22.722	4.6364	0.1	264.1
21945	22.631	4.7273	0.1	282.79
21946	22.722	4.4545	0.1	264.63
21947	22.631	4.5455	0.1	283.34
21948	22.722	4.2727	0.1	265.07
21949	22.631	4.3636	0.1	283.81
21950	22.722	4.0909	0.1	265.42
21951	22.631	4.1818	0.1	284.2
21952	22.722	3.9091	0.1	265.69
21953	22.631	4.	0.1	284.5
21954	22.722	3.7273	0.1	265.9
21955	22.631	3.8182	0.1	284.74
21956	22.722	3.5455	0.1	266.04
21957	22.631	3.6364	0.1	284.92
21958	22.722	3.3636	0.1	266.14
21959	22.631	3.4545	0.1	285.04
21960	22.722	3.1818	0.1	266.19
21961	22.631	3.2727	0.1	285.11
21962	22.722	3.	0.1	266.21
21963	22.631	3.0909	0.1	285.15
21964	22.722	2.8182	0.1	266.19
21965	22.631	2.9091	0.1	285.15
21966	22.722	2.6364	0.1	266.14
21967	22.631	2.7273	0.1	285.11
21968	22.722	2.4545	0.1	266.04
21969	22.631	2.5455	0.1	285.04
21970	22.722	2.2727	0.1	265.9
21971	22.631	2.3636	0.1	284.92
21972	22.722	2.0909	0.1	265.69
21973	22.631	2.1818	0.1	284.74
21974	22.722	1.9091	0.1	265.42
21975	22.631	2.	0.1	284.5
21976	22.722	1.7273	0.1	265.07
21977	22.631	1.8182	0.1	284.2
21978	22.722	1.5455	0.1	264.63
21979	22.631	1.6364	0.1	283.81
21980	22.722	1.3636	0.1	264.1
21981	22.631	1.4545	0.1	283.34
21982	22.722	1.1818	0.1	263.47
21983	22.631	1.2727	0.1	282.79
21984	22.722	1.	0.1	262.79
21985	22.631	1.0909	0.1	282.17
21986	22.722	0.81818	0.1	262.1
21987	22.631	0.90909	0.1	281.54
21988	22.722	0.63636	0.1	261.52
21989	22.631	0.72727	0.1	280.97
21990	22.722	0.45455	0.1	261.3
21991	22.631	0.54545	0.1	280.62
21992	22.722	0.27273	0.1	262.51
21993	22.631	0.36364	0.1	280.8
21994	22.631	0.18182	0.1	283.47
21995	22.722	9.0909e-002	0.1	258.66
21996	22.539	5.7273	0.1	301.44
21997	22.448	5.8182	0.1	322.56
21998	22.539	5.9091	0.1	297.59
21999	22.539	5.5455	0.1	300.
22000	22.448	5.6364	0.1	319.7
22001	22.539	5.3636	0.1	299.98
22002	22.448	5.4545	0.1	319.3
22003	22.539	5.1818	0.1	300.35
22004	22.448	5.2727	0.1	319.43
22005	22.539	5.	0.1	300.87
22006	22.448	5.0909	0.1	319.81
22007	22.539	4.8182	0.1	301.45
22008	22.448	4.9091	0.1	320.3
22009	22.539	4.6364	0.1	302.
22010	22.448	4.7273	0.1	320.81
22011	22.539	4.4545	0.1	302.5
22012	22.448	4.5455	0.1	321.3
22013	22.539	4.2727	0.1	302.92
22014	22.448	4.3636	0.1	321.73
22015	22.539	4.0909	0.1	303.27
22016	22.448	4.1818	0.1	322.1
22017	22.539	3.9091	0.1	303.54
22018	22.448	4.	0.1	322.4
22019	22.539	3.7273	0.1	303.75
22020	22.448	3.8182	0.1	322.64
22021	22.539	3.5455	0.1	303.9
22022	22.448	3.6364	0.1	322.81
22023	22.539	3.3636	0.1	304.01
22024	22.448	3.4545	0.1	322.94
22025	22.539	3.1818	0.1	304.07
22026	22.448	3.2727	0.1	323.02
22027	22.539	3.	0.1	304.09
22028	22.448	3.0909	0.1	323.06
22029	22.539	2.8182	0.1	304.07
22030	22.448	2.9091	0.1	323.06
22031	22.539	2.6364	0.1	304.01
22032	22.448	2.7273	0.1	323.02
22033	22.539	2.4545	0.1	303.9
22034	22.448	2.5455	0.1	322.94
22035	22.539	2.2727	0.1	303.75
22036	22.448	2.3636	0.1	322.81
22037	22.539	2.0909	0.1	303.54
22038	22.448	2.1818	0.1	322.64
22039	22.539	1.9091	0.1	303.27
22040	22.448	2.	0.1	322.4
22041	22.539	1.7273	0.1	302.92
22042	22.448	1.8182	0.1	322.1
22043	22.539	1.5455	0.1	302.5
22044	22.448	1.6364	0.1	321.73
22045	22.539	1.3636	0.1	302.
22046	22.448	1.4545	0.1	321.3
22047	22.539	1.1818	0.1	301.45
22048	22.448	1.2727	0.1	320.81
22049	22.539	1.	0.1	300.87
22050	22.448	1.0909	0.1	320.3
22051	22.539	0.81818	0.1	300.35
22052	22.448	0.90909	0.1	319.81
22053	22.539	0.63636	0.1	299.98
22054	22.448	0.72727	0.1	319.43
22055	22.539	0.45455	0.1	300.
22056	22.448	0.54545	0.1	319.3
22057	22.539	0.27273	0.1	301.44
22058	22.448	0.36364	0.1	319.7
22059	22.448	0.18182	0.1	322.56
22060	22.539	9.0909e-002	0.1	297.59
22061	22.357	5.7273	0.1	340.53
22062	22.266	5.8182	0.1	361.78
22063	22.357	5.9091	0.1	336.74
22064	22.357	5.5455	0.1	338.89
22065	22.266	5.6364	0.1	358.78
22066	22.357	5.3636	0.1	338.67
22067	22.266	5.4545	0.1	358.18
22068	22.357	5.1818	0.1	338.83
22069	22.266	5.2727	0.1	358.11
22070	22.357	5.	0.1	339.18
22071	22.266	5.0909	0.1	358.3
22072	22.357	4.8182	0.1	339.63
22073	22.266	4.9091	0.1	358.64
22074	22.357	4.6364	0.1	340.08
22075	22.266	4.7273	0.1	359.03
22076	22.357	4.4545	0.1	340.52
22077	22.266	4.5455	0.1	359.44
22078	22.357	4.2727	0.1	340.9
22079	22.266	4.3636	0.1	359.81
22080	22.357	4.0909	0.1	341.22
22081	22.266	4.1818	0.1	360.14
22082	22.357	3.9091	0.1	341.48
22083	22.266	4.	0.1	360.41
22084	22.357	3.7273	0.1	341.69
22085	22.266	3.8182	0.1	360.63
22086	22.357	3.5455	0.1	341.84
22087	22.266	3.6364	0.1	360.8
22088	22.357	3.3636	0.1	341.94
22089	22.266	3.4545	0.1	360.92
22090	22.357	3.1818	0.1	342.
22091	22.266	3.2727	0.1	361.
22092	22.357	3.	0.1	342.02
22093	22.266	3.0909	0.1	361.04
22094	22.357	2.8182	0.1	342.
22095	22.266	2.9091	0.1	361.04
22096	22.357	2.6364	0.1	341.94
22097	22.266	2.7273	0.1	361.
22098	22.357	2.4545	0.1	341.84
22099	22.266	2.5455	0.1	360.92
22100	22.357	2.2727	0.1	341.69
22101	22.266	2.3636	0.1	360.8
22102	22.357	2.0909	0.1	341.48
22103	22.266	2.1818	0.1	360.63
22104	22.357	1.9091	0.1	341.22
22105	22.266	2.	0.1	360.41
22106	22.357	1.7273	0.1	340.9
22107	22.266	1.8182	0.1	360.14
22108	22.357	1.5455	0.1	340.52
22109	22.266	1.6364	0.1	359.81
22110	22.357	1.3636	0.1	340.08
22111	22.266	1.4545	0.1	359.44
22112	22.357	1.1818	0.1	339.63
22113	22.266	1.2727	0.1	359.03
22114	22.357	1.	0.1	339.18
22115	22.266	1.0909	0.1	358.64
22116	22.357	0.81818	0.1	338.83
22117	22.266	0.90909	0.1	358.3
22118	22.357	0.63636	0.1	338.67
22119	22.266	0.72727	0.1	358.11
22120	22.357	0.45455	0.1	338.89
22121	22.266	0.54545	0.1	358.18
22122	22.357	0.27273	0.1	340.53
22123	22.266	0.36364	0.1	358.78
22124	22.266	0.18182	0.1	361.78
22125	22.357	9.0909e-002	0.1	336.74
22126	22.174	5.7273	0.1	379.76
22127	22.083	5.8182	0.1	401.12
22128	22.174	5.9091	0.1	376.06
22129	22.174	5.5455	0.1	377.96
22130	22.083	5.6364	0.1	398.
22131	22.174	5.3636	0.1	377.54
22132	22.083	5.4545	0.1	397.23
22133	22.174	5.1818	0.1	377.52
22134	22.083	5.2727	0.1	396.98
22135	22.174	5.	0.1	377.7
22136	22.083	5.0909	0.1	396.99
22137	22.174	4.8182	0.1	378.01
22138	22.083	4.9091	0.1	397.18
22139	22.174	4.6364	0.1	378.36
22140	22.083	4.7273	0.1	397.45
22141	22.174	4.4545	0.1	378.71
22142	22.083	4.5455	0.1	397.75
22143	22.174	4.2727	0.1	379.03
22144	22.083	4.3636	0.1	398.05
22145	22.174	4.0909	0.1	379.31
22146	22.083	4.1818	0.1	398.33
22147	22.174	3.9091	0.1	379.55
22148	22.083	4.	0.1	398.56
22149	22.174	3.7273	0.1	379.74
22150	22.083	3.8182	0.1	398.76
22151	22.174	3.5455	0.1	379.88
22152	22.083	3.6364	0.1	398.91
22153	22.174	3.3636	0.1	379.97
22154	22.083	3.4545	0.1	399.02
22155	22.174	3.1818	0.1	380.03
22156	22.083	3.2727	0.1	399.09
22157	22.174	3.	0.1	380.05
22158	22.083	3.0909	0.1	399.13
22159	22.174	2.8182	0.1	380.03
22160	22.083	2.9091	0.1	399.13
22161	22.174	2.6364	0.1	379.97
22162	22.083	2.7273	0.1	399.09
22163	22.174	2.4545	0.1	379.88
22164	22.083	2.5455	0.1	399.02
22165	22.174	2.2727	0.1	379.74
22166	22.083	2.3636	0.1	398.91
22167	22.174	2.0909	0.1	379.55
22168	22.083	2.1818	0.1	398.76
22169	22.174	1.9091	0.1	379.31
22170	22.083	2.	0.1	398.56
22171	22.174	1.7273	0.1	379.03
22172	22.083	1.8182	0.1	398.33
22173	22.174	1.5455	0.1	378.71
22174	22.083	1.6364	0.1	398.05
22175	22.174	1.3636	0.1	378.36
22176	22.083	1.4545	0.1	397.75
22177	22.174	1.1818	0.1	378.01
22178	22.083	1.2727	0.1	397.45
22179	22.174	1.	0.1	377.7
22180	22.083	1.0909	0.1	397.18
22181	22.174	0.81818	0.1	377.52
22182	22.083	0.90909	0.1	396.99
22183	22.174	0.63636	0.1	377.54
22184	22.083	0.72727	0.1	396.98
22185	22.174	0.45455	0.1	377.96
22186	22.083	0.54545	0.1	397.23
22187	22.174	0.27273	0.1	379.76
22188	22.083	0.36364	0.1	398.
22189	22.083	0.18182	0.1	401.12
22190	22.174	9.0909e-002	0.1	376.06
22191	21.992	5.7273	0.1	419.11
22192	21.9	5.8182	0.1	440.56
22193	21.992	5.9091	0.1	415.53
22194	21.992	5.5455	0.1	417.18
22195	21.9	5.6364	0.1	437.35
22196	21.992	5.3636	0.1	416.59
22197	21.9	5.4545	0.1	436.43
22198	21.992	5.1818	0.1	416.39
22199	21.9	5.2727	0.1	436.01
22200	21.992	5.	0.1	416.42
22201	21.9	5.0909	0.1	435.87
22202	21.992	4.8182	0.1	416.58
22203	21.9	4.9091	0.1	435.91
22204	21.992	4.6364	0.1	416.82
22205	21.9	4.7273	0.1	436.05
22206	21.992	4.4545	0.1	417.08
22207	21.9	4.5455	0.1	436.26
22208	21.992	4.2727	0.1	417.33
22209	21.9	4.3636	0.1	436.48
22210	21.992	4.0909	0.1	417.56
22211	21.9	4.1818	0.1	436.69
22212	21.992	3.9091	0.1	417.76
22213	21.9	4.	0.1	436.88
22214	21.992	3.7273	0.1	417.92
22215	21.9	3.8182	0.1	437.04
22216	21.992	3.5455	0.1	418.04
22217	21.9	3.6364	0.1	437.16
22218	21.992	3.3636	0.1	418.13
22219	21.9	3.4545	0.1	437.26
22220	21.992	3.1818	0.1	418.18
22221	21.9	3.2727	0.1	437.32
22222	21.992	3.	0.1	418.19
22223	21.9	3.0909	0.1	437.35
22224	21.992	2.8182	0.1	418.18
22225	21.9	2.9091	0.1	437.35
22226	21.992	2.6364	0.1	418.13
22227	21.9	2.7273	0.1	437.32
22228	21.992	2.4545	0.1	418.04
22229	21.9	2.5455	0.1	437.26
22230	21.992	2.2727	0.1	417.92
22231	21.9	2.3636	0.1	437.16
22232	21.992	2.0909	0.1	417.76
22233	21.9	2.1818	0.1	437.04
22234	21.992	1.9091	0.1	417.56
22235	21.9	2.	0.1	436.88
22236	21.992	1.7273	0.1	417.33
22237	21.9	1.8182	0.1	436.69
22238	21.992	1.5455	0.1	417.08
22239	21.9	1.6364	0.1	436.48
22240	21.992	1.3636	0.1	416.82
22241	21.9	1.4545	0.1	436.26
22242	21.992	1.1818	0.1	416.58
22243	21.9	1.2727	0.1	436.05
22244	21.992	1.	0.1	416.42
22245	21.9	1.0909	0.1	435.91
22246	21.992	0.81818	0.1	416.39
22247	21.9	0.90909	0.1	435.87
22248	21.992	0.63636	0.1	416.59
22249	21.9	0.72727	0.1	436.01
22250	21.992	0.45455	0.1	417.18
22251	21.9	0.54545	0.1	436.43
22252	21.992	0.27273	0.1	419.11
22253	21.9	0.36364	0.1	437.35
22254	21.9	0.18182	0.1	440.56
22255	21.992	9.0909e-002	0.1	415.53
22256	21.809	5.7273	0.1	458.57
22257	21.718	5.8182	0.1	480.09
22258	21.809	5.9091	0.1	455.14
22259	21.809	5.5455	0.1	456.52
22260	21.718	5.6364	0.1	476.81
22261	21.809	5.3636	0.1	455.79
22262	21.718	5.4545	0.1	475.77
22263	21.809	5.1818	0.1	455.44
22264	21.718	5.2727	0.1	475.2
22265	21.809	5.	0.1	455.31
22266	21.718	5.0909	0.1	474.91
22267	21.809	4.8182	0.1	455.34
22268	21.718	4.9091	0.1	474.82
22269	21.809	4.6364	0.1	455.46
22270	21.718	4.7273	0.1	474.84
22271	21.809	4.4545	0.1	455.63
22272	21.718	4.5455	0.1	474.95
22273	21.809	4.2727	0.1	455.81
22274	21.718	4.3636	0.1	475.08
22275	21.809	4.0909	0.1	455.99
22276	21.718	4.1818	0.1	475.23
22277	21.809	3.9091	0.1	456.14
22278	21.718	4.	0.1	475.37
22279	21.809	3.7273	0.1	456.27
22280	21.718	3.8182	0.1	475.49
22281	21.809	3.5455	0.1	456.37
22282	21.718	3.6364	0.1	475.59
22283	21.809	3.3636	0.1	456.44
22284	21.718	3.4545	0.1	475.66
22285	21.809	3.1818	0.1	456.48
22286	21.718	3.2727	0.1	475.71
22287	21.809	3.	0.1	456.49
22288	21.718	3.0909	0.1	475.74
22289	21.809	2.8182	0.1	456.48
22290	21.718	2.9091	0.1	475.74
22291	21.809	2.6364	0.1	456.44
22292	21.718	2.7273	0.1	475.71
22293	21.809	2.4545	0.1	456.37
22294	21.718	2.5455	0.1	475.66
22295	21.809	2.2727	0.1	456.27
22296	21.718	2.3636	0.1	475.59
22297	21.809	2.0909	0.1	456.14
22298	21.718	2.1818	0.1	475.49
22299	21.809	1.9091	0.1	455.99
22300	21.718	2.	0.1	475.37
22301	21.809	1.7273	0.1	455.81
22302	21.718	1.8182	0.1	475.23
22303	21.809	1.5455	0.1	455.63
22304	21.718	1.6364	0.1	475.08
22305	21.809	1.3636	0.1	455.46
22306	21.718	1.4545	0.1	474.95
22307	21.809	1.1818	0.1	455.34
22308	21.718	1.2727	0.1	474.84
22309	21.809	1.	0.1	455.31
22310	21.718	1.0909	0.1	474.82
22311	21.809	0.81818	0.1	455.44
22312	21.718	0.90909	0.1	474.91
22313	21.809	0.63636	0.1	455.79
22314	21.718	0.72727	0.1	475.2
22315	21.809	0.45455	0.1	456.52
22316	21.718	0.54545	0.1	475.77
22317	21.809	0.27273	0.1	458.57
22318	21.718	0.36364	0.1	476.81
22319	21.718	0.18182	0.1	480.09
22320	21.809	9.0909e-002	0.1	455.14
22321	21.627	5.7273	0.1	498.12
22322	21.535	5.8182	0.1	519.69
22323	21.627	5.9091	0.1	494.86
22324	21.627	5.5455	0.1	495.98
22325	21.535	5.6364	0.1	516.37
22326	21.627	5.3636	0.1	495.12
22327	21.535	5.4545	0.1	515.22
22328	21.627	5.1818	0.1	494.63
22329	21.535	5.2727	0.1	514.53
22330	21.627	5.	0.1	494.37
22331	21.535	5.0909	0.1	514.11
22332	21.627	4.8182	0.1	494.28
22333	21.535	4.9091	0.1	513.89
22334	21.627	4.6364	0.1	494.3
22335	21.535	4.7273	0.1	513.81
22336	21.627	4.4545	0.1	494.37
22337	21.535	4.5455	0.1	513.82
22338	21.627	4.2727	0.1	494.48
22339	21.535	4.3636	0.1	513.88
22340	21.627	4.0909	0.1	494.6
22341	21.535	4.1818	0.1	513.97
22342	21.627	3.9091	0.1	494.71
22343	21.535	4.	0.1	514.06
22344	21.627	3.7273	0.1	494.8
22345	21.535	3.8182	0.1	514.14
22346	21.627	3.5455	0.1	494.88
22347	21.535	3.6364	0.1	514.22
22348	21.627	3.3636	0.1	494.93
22349	21.535	3.4545	0.1	514.27
22350	21.627	3.1818	0.1	494.96
22351	21.535	3.2727	0.1	514.31
22352	21.627	3.	0.1	494.97
22353	21.535	3.0909	0.1	514.33
22354	21.627	2.8182	0.1	494.96
22355	21.535	2.9091	0.1	514.33
22356	21.627	2.6364	0.1	494.93
22357	21.535	2.7273	0.1	514.31
22358	21.627	2.4545	0.1	494.88
22359	21.535	2.5455	0.1	514.27
22360	21.627	2.2727	0.1	494.8
22361	21.535	2.3636	0.1	514.22
22362	21.627	2.0909	0.1	494.71
22363	21.535	2.1818	0.1	514.14
22364	21.627	1.9091	0.1	494.6
22365	21.535	2.	0.1	514.06
22366	21.627	1.7273	0.1	494.48
22367	21.535	1.8182	0.1	513.97
22368	21.627	1.5455	0.1	494.37
22369	21.535	1.6364	0.1	513.88
22370	21.627	1.3636	0.1	494.3
22371	21.535	1.4545	0.1	513.82
22372	21.627	1.1818	0.1	494.28
22373	21.535	1.2727	0.1	513.81
22374	21.627	1.	0.1	494.37
22375	21.535	1.0909	0.1	513.89
22376	21.627	0.81818	0.1	494.63
22377	21.535	0.90909	0.1	514.11
22378	21.627	0.63636	0.1	495.12
22379	21.535	0.72727	0.1	514.53
22380	21.627	0.45455	0.1	495.98
22381	21.535	0.54545	0.1	515.22
22382	21.627	0.27273	0.1	498.12
22383	21.535	0.36364	0.1	516.37
22384	21.535	0.18182	0.1	519.69
22385	21.627	9.0909e-002	0.1	494.86
22386	21.444	5.7273	0.1	537.75
22387	21.353	5.8182	0.1	559.36
22388	21.444	5.9091	0.1	534.67
22389	21.444	5.5455	0.1	535.54
22390	21.353	5.6364	0.1	556.01
22391	21.444	5.3636	0.1	534.57
22392	21.353	5.4545	0.1	554.76
22393	21.444	5.1818	0.1	533.96
22394	21.353	5.2727	0.1	553.97
22395	21.444	5.	0.1	533.59
22396	21.353	5.0909	0.1	553.44
22397	21.444	4.8182	0.1	533.39
22398	21.353	4.9091	0.1	553.13
22399	21.444	4.6364	0.1	533.31
22400	21.353	4.7273	0.1	552.96
22401	21.444	4.4545	0.1	533.31
22402	21.353	4.5455	0.1	552.89
22403	21.444	4.2727	0.1	533.35
22404	21.353	4.3636	0.1	552.88
22405	21.444	4.0909	0.1	533.41
22406	21.353	4.1818	0.1	552.92
22407	21.444	3.9091	0.1	533.48
22408	21.353	4.	0.1	552.97
22409	21.444	3.7273	0.1	533.55
22410	21.353	3.8182	0.1	553.02
22411	21.444	3.5455	0.1	533.6
22412	21.353	3.6364	0.1	553.07
22413	21.444	3.3636	0.1	533.64
22414	21.353	3.4545	0.1	553.11
22415	21.444	3.1818	0.1	533.66
22416	21.353	3.2727	0.1	553.13
22417	21.444	3.	0.1	533.67
22418	21.353	3.0909	0.1	553.15
22419	21.444	2.8182	0.1	533.66
22420	21.353	2.9091	0.1	553.15
22421	21.444	2.6364	0.1	533.64
22422	21.353	2.7273	0.1	553.13
22423	21.444	2.4545	0.1	533.6
22424	21.353	2.5455	0.1	553.11
22425	21.444	2.2727	0.1	533.55
22426	21.353	2.3636	0.1	553.07
22427	21.444	2.0909	0.1	533.48
22428	21.353	2.1818	0.1	553.02
22429	21.444	1.9091	0.1	533.41
22430	21.353	2.	0.1	552.97
22431	21.444	1.7273	0.1	533.35
22432	21.353	1.8182	0.1	552.92
22433	21.444	1.5455	0.1	533.31
22434	21.353	1.6364	0.1	552.88
22435	21.444	1.3636	0.1	533.31
22436	21.353	1.4545	0.1	552.89
22437	21.444	1.1818	0.1	533.39
22438	21.353	1.2727	0.1	552.96
22439	21.444	1.	0.1	533.59
22440	21.353	1.0909	0.1	553.13
22441	21.444	0.81818	0.1	533.96
22442	21.353	0.90909	0.1	553.44
22443	21.444	0.63636	0.1	534.57
22444	21.353	0.72727	0.1	553.97
22445	21.444	0.45455	0.1	535.54
22446	21.353	0.54545	0.1	554.76
22447	21.444	0.27273	0.1	537.75
22448	21.353	0.36364	0.1	556.01
22449	21.353	0.18182	0.1	559.36
22450	21.444	9.0909e-002	0.1	534.67
22451	21.261	5.7273	0.1	577.43
22452	21.17	5.8182	0.1	599.05
22453	21.261	5.9091	0.1	574.54
22454	21.261	5.5455	0.1	575.17
22455	21.17	5.6364	0.1	595.7
22456	21.261	5.3636	0.1	574.11
22457	21.17	5.4545	0.1	594.38
22458	21.261	5.1818	0.1	573.41
22459	21.17	5.2727	0.1	593.5
22460	21.261	5.	0.1	572.94
22461	21.17	5.0909	0.1	592.9
22462	21.261	4.8182	0.1	572.66
22463	21.17	4.9091	0.1	592.51
22464	21.261	4.6364	0.1	572.51
22465	21.17	4.7273	0.1	592.27
22466	21.261	4.4545	0.1	572.44
22467	21.17	4.5455	0.1	592.15
22468	21.261	4.2727	0.1	572.43
22469	21.17	4.3636	0.1	592.09
22470	21.261	4.0909	0.1	572.45
22471	21.17	4.1818	0.1	592.09
22472	21.261	3.9091	0.1	572.49
22473	21.17	4.	0.1	592.11
22474	21.261	3.7273	0.1	572.53
22475	21.17	3.8182	0.1	592.14
22476	21.261	3.5455	0.1	572.57
22477	21.17	3.6364	0.1	592.18
22478	21.261	3.3636	0.1	572.59
22479	21.17	3.4545	0.1	592.21
22480	21.261	3.1818	0.1	572.61
22481	21.17	3.2727	0.1	592.23
22482	21.261	3.	0.1	572.62
22483	21.17	3.0909	0.1	592.24
22484	21.261	2.8182	0.1	572.61
22485	21.17	2.9091	0.1	592.24
22486	21.261	2.6364	0.1	572.59
22487	21.17	2.7273	0.1	592.23
22488	21.261	2.4545	0.1	572.57
22489	21.17	2.5455	0.1	592.21
22490	21.261	2.2727	0.1	572.53
22491	21.17	2.3636	0.1	592.18
22492	21.261	2.0909	0.1	572.49
22493	21.17	2.1818	0.1	592.14
22494	21.261	1.9091	0.1	572.45
22495	21.17	2.	0.1	592.11
22496	21.261	1.7273	0.1	572.43
22497	21.17	1.8182	0.1	592.09
22498	21.261	1.5455	0.1	572.44
22499	21.17	1.6364	0.1	592.09
22500	21.261	1.3636	0.1	572.51
22501	21.17	1.4545	0.1	592.15
22502	21.261	1.1818	0.1	572.66
22503	21.17	1.2727	0.1	592.27
22504	21.261	1.	0.1	572.94
22505	21.17	1.0909	0.1	592.51
22506	21.261	0.81818	0.1	573.41
22507	21.17	0.90909	0.1	592.9
22508	21.261	0.63636	0.1	574.11
22509	21.17	0.72727	0.1	593.5
22510	21.261	0.45455	0.1	575.17
22511	21.17	0.54545	0.1	594.38
22512	21.261	0.27273	0.1	577.43
22513	21.17	0.36364	0.1	595.7
22514	21.17	0.18182	0.1	599.05
22515	21.261	9.0909e-002	0.1	574.54
22516	21.079	5.7273	0.1	617.14
22517	20.987	5.8182	0.1	638.75
22518	21.079	5.9091	0.1	614.44
22519	21.079	5.5455	0.1	614.85
22520	20.987	5.6364	0.1	635.41
22521	21.079	5.3636	0.1	613.73
22522	20.987	5.4545	0.1	634.05
22523	21.079	5.1818	0.1	612.96
22524	20.987	5.2727	0.1	633.11
22525	21.079	5.	0.1	612.43
22526	20.987	5.0909	0.1	632.46
22527	21.079	4.8182	0.1	612.09
22528	20.987	4.9091	0.1	632.02
22529	21.079	4.6364	0.1	611.88
22530	20.987	4.7273	0.1	631.75
22531	21.079	4.4545	0.1	611.78
22532	20.987	4.5455	0.1	631.59
22533	21.079	4.2727	0.1	611.73
22534	20.987	4.3636	0.1	631.52
22535	21.079	4.0909	0.1	611.73
22536	20.987	4.1818	0.1	631.5
22537	21.079	3.9091	0.1	611.75
22538	20.987	4.	0.1	631.52
22539	21.079	3.7273	0.1	611.78
22540	20.987	3.8182	0.1	631.55
22541	21.079	3.5455	0.1	611.81
22542	20.987	3.6364	0.1	631.58
22543	21.079	3.3636	0.1	611.83
22544	20.987	3.4545	0.1	631.61
22545	21.079	3.1818	0.1	611.85
22546	20.987	3.2727	0.1	631.64
22547	21.079	3.	0.1	611.85
22548	20.987	3.0909	0.1	631.65
22549	21.079	2.8182	0.1	611.85
22550	20.987	2.9091	0.1	631.65
22551	21.079	2.6364	0.1	611.83
22552	20.987	2.7273	0.1	631.64
22553	21.079	2.4545	0.1	611.81
22554	20.987	2.5455	0.1	631.61
22555	21.079	2.2727	0.1	611.78
22556	20.987	2.3636	0.1	631.58
22557	21.079	2.0909	0.1	611.75
22558	20.987	2.1818	0.1	631.55
22559	21.079	1.9091	0.1	611.73
22560	20.987	2.	0.1	631.52
22561	21.079	1.7273	0.1	611.73
22562	20.987	1.8182	0.1	631.5
22563	21.079	1.5455	0.1	611.78
22564	20.987	1.6364	0.1	631.52
22565	21.079	1.3636	0.1	611.88
22566	20.987	1.4545	0.1	631.59
22567	21.079	1.1818	0.1	612.09
22568	20.987	1.2727	0.1	631.75
22569	21.079	1.	0.1	612.43
22570	20.987	1.0909	0.1	632.02
22571	21.079	0.81818	0.1	612.96
22572	20.987	0.90909	0.1	632.46
22573	21.079	0.63636	0.1	613.73
22574	20.987	0.72727	0.1	633.11
22575	21.079	0.45455	0.1	614.85
22576	20.987	0.54545	0.1	634.05
22577	21.079	0.27273	0.1	617.14
22578	20.987	0.36364	0.1	635.41
22579	20.987	0.18182	0.1	638.75
22580	21.079	9.0909e-002	0.1	614.44
22581	20.896	5.7273	0.1	656.85
22582	20.805	5.8182	0.1	678.4
22583	20.896	5.9091	0.1	654.33
22584	20.896	5.5455	0.1	654.55
22585	20.805	5.6364	0.1	675.1
22586	20.896	5.3636	0.1	653.39
22587	20.805	5.4545	0.1	673.72
22588	20.896	5.1818	0.1	652.58
22589	20.805	5.2727	0.1	672.77
22590	20.896	5.	0.1	652.02
22591	20.805	5.0909	0.1	672.1
22592	20.896	4.8182	0.1	651.65
22593	20.805	4.9091	0.1	671.65
22594	20.896	4.6364	0.1	651.43
22595	20.805	4.7273	0.1	671.38
22596	20.896	4.4545	0.1	651.32
22597	20.805	4.5455	0.1	671.23
22598	20.896	4.2727	0.1	651.27
22599	20.805	4.3636	0.1	671.18
22600	20.896	4.0909	0.1	651.28
22601	20.805	4.1818	0.1	671.18
22602	20.896	3.9091	0.1	651.3
22603	20.805	4.	0.1	671.22
22604	20.896	3.7273	0.1	651.34
22605	20.805	3.8182	0.1	671.27
22606	20.896	3.5455	0.1	651.38
22607	20.805	3.6364	0.1	671.32
22608	20.896	3.3636	0.1	651.41
22609	20.805	3.4545	0.1	671.37
22610	20.896	3.1818	0.1	651.43
22611	20.805	3.2727	0.1	671.41
22612	20.896	3.	0.1	651.43
22613	20.805	3.0909	0.1	671.43
22614	20.896	2.8182	0.1	651.43
22615	20.805	2.9091	0.1	671.43
22616	20.896	2.6364	0.1	651.41
22617	20.805	2.7273	0.1	671.41
22618	20.896	2.4545	0.1	651.38
22619	20.805	2.5455	0.1	671.37
22620	20.896	2.2727	0.1	651.34
22621	20.805	2.3636	0.1	671.32
22622	20.896	2.0909	0.1	651.3
22623	20.805	2.1818	0.1	671.27
22624	20.896	1.9091	0.1	651.28
22625	20.805	2.	0.1	671.22
22626	20.896	1.7273	0.1	651.27
22627	20.805	1.8182	0.1	671.18
22628	20.896	1.5455	0.1	651.32
22629	20.805	1.6364	0.1	671.18
22630	20.896	1.3636	0.1	651.43
22631	20.805	1.4545	0.1	671.23
22632	20.896	1.1818	0.1	651.65
22633	20.805	1.2727	0.1	671.38
22634	20.896	1.	0.1	652.02
22635	20.805	1.0909	0.1	671.65
22636	20.896	0.81818	0.1	652.58
22637	20.805	0.90909	0.1	672.1
22638	20.896	0.63636	0.1	653.39
22639	20.805	0.72727	0.1	672.77
22640	20.896	0.45455	0.1	654.55
22641	20.805	0.54545	0.1	673.72
22642	20.896	0.27273	0.1	656.85
22643	20.805	0.36364	0.1	675.1
22644	20.805	0.18182	0.1	678.4
22645	20.896	9.0909e-002	0.1	654.33
22646	20.714	5.7273	0.1	696.49
22647	20.622	5.8182	0.1	717.95
22648	20.714	5.9091	0.1	694.15
22649	20.714	5.5455	0.1	694.22
22650	20.622	5.6364	0.1	714.72
22651	20.714	5.3636	0.1	693.05
22652	20.622	5.4545	0.1	713.35
22653	20.714	5.1818	0.1	692.25
22654	20.622	5.2727	0.1	712.42
22655	20.714	5.	0.1	691.7
22656	20.622	5.0909	0.1	711.78
22657	20.714	4.8182	0.1	691.35
22658	20.622	4.9091	0.1	711.38
22659	20.714	4.6364	0.1	691.16
22660	20.622	4.7273	0.1	711.16
22661	20.714	4.4545	0.1	691.07
22662	20.622	4.5455	0.1	711.07
22663	20.714	4.2727	0.1	691.07
22664	20.622	4.3636	0.1	711.07
22665	20.714	4.0909	0.1	691.11
22666	20.622	4.1818	0.1	711.14
22667	20.714	3.9091	0.1	691.17
22668	20.622	4.	0.1	711.24
22669	20.714	3.7273	0.1	691.24
22670	20.622	3.8182	0.1	711.35
22671	20.714	3.5455	0.1	691.31
22672	20.622	3.6364	0.1	711.46
22673	20.714	3.3636	0.1	691.37
22674	20.622	3.4545	0.1	711.54
22675	20.714	3.1818	0.1	691.4
22676	20.622	3.2727	0.1	711.61
22677	20.714	3.	0.1	691.41
22678	20.622	3.0909	0.1	711.64
22679	20.714	2.8182	0.1	691.4
22680	20.622	2.9091	0.1	711.64
22681	20.714	2.6364	0.1	691.37
22682	20.622	2.7273	0.1	711.61
22683	20.714	2.4545	0.1	691.31
22684	20.622	2.5455	0.1	711.54
22685	20.714	2.2727	0.1	691.24
22686	20.622	2.3636	0.1	711.46
22687	20.714	2.0909	0.1	691.17
22688	20.622	2.1818	0.1	711.35
22689	20.714	1.9091	0.1	691.11
22690	20.622	2.	0.1	711.24
22691	20.714	1.7273	0.1	691.07
22692	20.622	1.8182	0.1	711.14
22693	20.714	1.5455	0.1	691.07
22694	20.622	1.6364	0.1	711.07
22695	20.714	1.3636	0.1	691.16
22696	20.622	1.4545	0.1	711.07
22697	20.714	1.1818	0.1	691.35
22698	20.622	1.2727	0.1	711.16
22699	20.714	1.	0.1	691.7
22700	20.622	1.0909	0.1	711.38
22701	20.714	0.81818	0.1	692.25
22702	20.622	0.90909	0.1	711.78
22703	20.714	0.63636	0.1	693.05
22704	20.622	0.72727	0.1	712.42
22705	20.714	0.45455	0.1	694.22
22706	20.622	0.54545	0.1	713.35
22707	20.714	0.27273	0.1	696.49
22708	20.622	0.36364	0.1	714.72
22709	20.622	0.18182	0.1	717.95
22710	20.714	9.0909e-002	0.1	694.15
22711	20.531	5.7273	0.1	736.02
22712	20.44	5.8182	0.1	757.32
22713	20.531	5.9091	0.1	733.83
22714	20.531	5.5455	0.1	733.8
22715	20.44	5.6364	0.1	754.19
22716	20.531	5.3636	0.1	732.68
22717	20.44	5.4545	0.1	752.88
22718	20.531	5.1818	0.1	731.92
22719	20.44	5.2727	0.1	752.02
22720	20.531	5.	0.1	731.43
22721	20.44	5.0909	0.1	751.48
22722	20.531	4.8182	0.1	731.16
22723	20.44	4.9091	0.1	751.17
22724	20.531	4.6364	0.1	731.04
22725	20.44	4.7273	0.1	751.06
22726	20.531	4.4545	0.1	731.05
22727	20.44	4.5455	0.1	751.1
22728	20.531	4.2727	0.1	731.13
22729	20.44	4.3636	0.1	751.23
22730	20.531	4.0909	0.1	731.26
22731	20.44	4.1818	0.1	751.42
22732	20.531	3.9091	0.1	731.41
22733	20.44	4.	0.1	751.63
22734	20.531	3.7273	0.1	731.55
22735	20.44	3.8182	0.1	751.85
22736	20.531	3.5455	0.1	731.68
22737	20.44	3.6364	0.1	752.04
22738	20.531	3.3636	0.1	731.78
22739	20.44	3.4545	0.1	752.2
22740	20.531	3.1818	0.1	731.84
22741	20.44	3.2727	0.1	752.32
22742	20.531	3.	0.1	731.86
22743	20.44	3.0909	0.1	752.37
22744	20.531	2.8182	0.1	731.84
22745	20.44	2.9091	0.1	752.37
22746	20.531	2.6364	0.1	731.78
22747	20.44	2.7273	0.1	752.32
22748	20.531	2.4545	0.1	731.68
22749	20.44	2.5455	0.1	752.2
22750	20.531	2.2727	0.1	731.55
22751	20.44	2.3636	0.1	752.04
22752	20.531	2.0909	0.1	731.41
22753	20.44	2.1818	0.1	751.85
22754	20.531	1.9091	0.1	731.26
22755	20.44	2.	0.1	751.63
22756	20.531	1.7273	0.1	731.13
22757	20.44	1.8182	0.1	751.42
22758	20.531	1.5455	0.1	731.05
22759	20.44	1.6364	0.1	751.23
22760	20.531	1.3636	0.1	731.04
22761	20.44	1.4545	0.1	751.1
22762	20.531	1.1818	0.1	731.16
22763	20.44	1.2727	0.1	751.06
22764	20.531	1.	0.1	731.43
22765	20.44	1.0909	0.1	751.17
22766	20.531	0.81818	0.1	731.92
22767	20.44	0.90909	0.1	751.48
22768	20.531	0.63636	0.1	732.68
22769	20.44	0.72727	0.1	752.02
22770	20.531	0.45455	0.1	733.8
22771	20.44	0.54545	0.1	752.88
22772	20.531	0.27273	0.1	736.02
22773	20.44	0.36364	0.1	754.19
22774	20.44	0.18182	0.1	757.32
22775	20.531	9.0909e-002	0.1	733.83
22776	20.348	5.7273	0.1	775.35
22777	20.257	5.8182	0.1	796.42
22778	20.348	5.9091	0.1	773.28
22779	20.348	5.5455	0.1	773.23
22780	20.257	5.6364	0.1	793.43
22781	20.348	5.3636	0.1	772.19
22782	20.257	5.4545	0.1	792.24
22783	20.348	5.1818	0.1	771.54
22784	20.257	5.2727	0.1	791.51
22785	20.348	5.	0.1	771.18
22786	20.257	5.0909	0.1	791.12
22787	20.348	4.8182	0.1	771.05
22788	20.257	4.9091	0.1	791.
22789	20.348	4.6364	0.1	771.09
22790	20.257	4.7273	0.1	791.08
22791	20.348	4.4545	0.1	771.25
22792	20.257	4.5455	0.1	791.32
22793	20.348	4.2727	0.1	771.5
22794	20.257	4.3636	0.1	791.66
22795	20.348	4.0909	0.1	771.78
22796	20.257	4.1818	0.1	792.05
22797	20.348	3.9091	0.1	772.06
22798	20.257	4.	0.1	792.45
22799	20.348	3.7273	0.1	772.33
22800	20.257	3.8182	0.1	792.84
22801	20.348	3.5455	0.1	772.56
22802	20.257	3.6364	0.1	793.18
22803	20.348	3.3636	0.1	772.74
22804	20.257	3.4545	0.1	793.45
22805	20.348	3.1818	0.1	772.84
22806	20.257	3.2727	0.1	793.64
22807	20.348	3.	0.1	772.88
22808	20.257	3.0909	0.1	793.74
22809	20.348	2.8182	0.1	772.84
22810	20.257	2.9091	0.1	793.74
22811	20.348	2.6364	0.1	772.74
22812	20.257	2.7273	0.1	793.64
22813	20.348	2.4545	0.1	772.56
22814	20.257	2.5455	0.1	793.45
22815	20.348	2.2727	0.1	772.33
22816	20.257	2.3636	0.1	793.18
22817	20.348	2.0909	0.1	772.06
22818	20.257	2.1818	0.1	792.84
22819	20.348	1.9091	0.1	771.78
22820	20.257	2.	0.1	792.45
22821	20.348	1.7273	0.1	771.5
22822	20.257	1.8182	0.1	792.05
22823	20.348	1.5455	0.1	771.25
22824	20.257	1.6364	0.1	791.66
22825	20.348	1.3636	0.1	771.09
22826	20.257	1.4545	0.1	791.32
22827	20.348	1.1818	0.1	771.05
22828	20.257	1.2727	0.1	791.08
22829	20.348	1.	0.1	771.18
22830	20.257	1.0909	0.1	791.
22831	20.348	0.81818	0.1	771.54
22832	20.257	0.90909	0.1	791.12
22833	20.348	0.63636	0.1	772.19
22834	20.257	0.72727	0.1	791.51
22835	20.348	0.45455	0.1	773.23
22836	20.257	0.54545	0.1	792.24
22837	20.348	0.27273	0.1	775.35
22838	20.257	0.36364	0.1	793.43
22839	20.257	0.18182	0.1	796.42
22840	20.348	9.0909e-002	0.1	773.28
22841	20.166	5.7273	0.1	814.37
22842	20.075	5.8182	0.1	835.13
22843	20.166	5.9091	0.1	812.38
22844	20.166	5.5455	0.1	812.4
22845	20.075	5.6364	0.1	832.32
22846	20.166	5.3636	0.1	811.52
22847	20.075	5.4545	0.1	831.31
22848	20.166	5.1818	0.1	811.05
22849	20.075	5.2727	0.1	830.8
22850	20.166	5.	0.1	810.91
22851	20.075	5.0909	0.1	830.65
22852	20.166	4.8182	0.1	811.
22853	20.075	4.9091	0.1	830.81
22854	20.166	4.6364	0.1	811.29
22855	20.075	4.7273	0.1	831.19
22856	20.166	4.4545	0.1	811.7
22857	20.075	4.5455	0.1	831.74
22858	20.166	4.2727	0.1	812.19
22859	20.075	4.3636	0.1	832.38
22860	20.166	4.0909	0.1	812.71
22861	20.075	4.1818	0.1	833.07
22862	20.166	3.9091	0.1	813.21
22863	20.075	4.	0.1	833.76
22864	20.166	3.7273	0.1	813.67
22865	20.075	3.8182	0.1	834.4
22866	20.166	3.5455	0.1	814.06
22867	20.075	3.6364	0.1	834.96
22868	20.166	3.3636	0.1	814.35
22869	20.075	3.4545	0.1	835.4
22870	20.166	3.1818	0.1	814.53
22871	20.075	3.2727	0.1	835.7
22872	20.166	3.	0.1	814.59
22873	20.075	3.0909	0.1	835.86
22874	20.166	2.8182	0.1	814.53
22875	20.075	2.9091	0.1	835.86
22876	20.166	2.6364	0.1	814.35
22877	20.075	2.7273	0.1	835.7
22878	20.166	2.4545	0.1	814.06
22879	20.075	2.5455	0.1	835.4
22880	20.166	2.2727	0.1	813.67
22881	20.075	2.3636	0.1	834.96
22882	20.166	2.0909	0.1	813.21
22883	20.075	2.1818	0.1	834.4
22884	20.166	1.9091	0.1	812.71
22885	20.075	2.	0.1	833.76
22886	20.166	1.7273	0.1	812.19
22887	20.075	1.8182	0.1	833.07
22888	20.166	1.5455	0.1	811.7
22889	20.075	1.6364	0.1	832.38
22890	20.166	1.3636	0.1	811.29
22891	20.075	1.4545	0.1	831.74
22892	20.166	1.1818	0.1	811.
22893	20.075	1.2727	0.1	831.19
22894	20.166	1.	0.1	810.91
22895	20.075	1.0909	0.1	830.81
22896	20.166	0.81818	0.1	811.06
22897	20.075	0.90909	0.1	830.65
22898	20.166	0.63636	0.1	811.52
22899	20.075	0.72727	0.1	830.8
22900	20.166	0.45455	0.1	812.4
22901	20.075	0.54545	0.1	831.31
22902	20.166	0.27273	0.1	814.37
22903	20.075	0.36364	0.1	832.32
22904	20.075	0.18182	0.1	835.13
22905	20.166	9.0909e-002	0.1	812.38
22906	19.983	5.7273	0.1	852.95
22907	19.892	5.8182	0.1	873.27
22908	19.983	5.9091	0.1	850.99
22909	19.983	5.5455	0.1	851.19
22910	19.892	5.6364	0.1	870.72
22911	19.983	5.3636	0.1	850.55
22912	19.892	5.4545	0.1	869.96
22913	19.983	5.1818	0.1	850.36
22914	19.892	5.2727	0.1	869.76
22915	19.983	5.	0.1	850.53
22916	19.892	5.0909	0.1	869.98
22917	19.983	4.8182	0.1	850.97
22918	19.892	4.9091	0.1	870.54
22919	19.983	4.6364	0.1	851.62
22920	19.892	4.7273	0.1	871.35
22921	19.983	4.4545	0.1	852.4
22922	19.892	4.5455	0.1	872.34
22923	19.983	4.2727	0.1	853.25
22924	19.892	4.3636	0.1	873.43
22925	19.983	4.0909	0.1	854.12
22926	19.892	4.1818	0.1	874.56
22927	19.983	3.9091	0.1	854.94
22928	19.892	4.	0.1	875.65
22929	19.983	3.7273	0.1	855.68
22930	19.892	3.8182	0.1	876.66
22931	19.983	3.5455	0.1	856.29
22932	19.892	3.6364	0.1	877.52
22933	19.983	3.3636	0.1	856.75
22934	19.892	3.4545	0.1	878.21
22935	19.983	3.1818	0.1	857.03
22936	19.892	3.2727	0.1	878.68
22937	19.983	3.	0.1	857.13
22938	19.892	3.0909	0.1	878.92
22939	19.983	2.8182	0.1	857.03
22940	19.892	2.9091	0.1	878.92
22941	19.983	2.6364	0.1	856.75
22942	19.892	2.7273	0.1	878.68
22943	19.983	2.4545	0.1	856.29
22944	19.892	2.5455	0.1	878.21
22945	19.983	2.2727	0.1	855.68
22946	19.892	2.3636	0.1	877.52
22947	19.983	2.0909	0.1	854.94
22948	19.892	2.1818	0.1	876.66
22949	19.983	1.9091	0.1	854.12
22950	19.892	2.	0.1	875.65
22951	19.983	1.7273	0.1	853.25
22952	19.892	1.8182	0.1	874.56
22953	19.983	1.5455	0.1	852.4
22954	19.892	1.6364	0.1	873.43
22955	19.983	1.3636	0.1	851.62
22956	19.892	1.4545	0.1	872.34
22957	19.983	1.1818	0.1	850.97
22958	19.892	1.2727	0.1	871.35
22959	19.983	1.	0.1	850.53
22960	19.892	1.0909	0.1	870.54
22961	19.983	0.81818	0.1	850.36
22962	19.892	0.90909	0.1	869.98
22963	19.983	0.63636	0.1	850.55
22964	19.892	0.72727	0.1	869.76
22965	19.983	0.45455	0.1	851.19
22966	19.892	0.54545	0.1	869.96
22967	19.983	0.27273	0.1	852.95
22968	19.892	0.36364	0.1	870.72
22969	19.892	0.18182	0.1	873.27
22970	19.983	9.0909e-002	0.1	850.99
22971	19.801	5.7273	0.1	890.92
22972	19.709	5.8182	0.1	910.66
22973	19.801	5.9091	0.1	888.92
22974	19.801	5.5455	0.1	889.45
22975	19.709	5.6364	0.1	908.43
22976	19.801	5.3636	0.1	889.14
22977	19.709	5.4545	0.1	908.03
22978	19.801	5.1818	0.1	889.35
22979	19.709	5.2727	0.1	908.27
22980	19.801	5.	0.1	889.97
22981	19.709	5.0909	0.1	908.99
22982	19.801	4.8182	0.1	890.9
22983	19.709	4.9091	0.1	910.11
22984	19.801	4.6364	0.1	892.05
22985	19.709	4.7273	0.1	911.52
22986	19.801	4.4545	0.1	893.36
22987	19.709	4.5455	0.1	913.13
22988	19.801	4.2727	0.1	894.73
22989	19.709	4.3636	0.1	914.85
22990	19.801	4.0909	0.1	896.09
22991	19.709	4.1818	0.1	916.58
22992	19.801	3.9091	0.1	897.36
22993	19.709	4.	0.1	918.24
22994	19.801	3.7273	0.1	898.49
22995	19.709	3.8182	0.1	919.75
22996	19.801	3.5455	0.1	899.43
22997	19.709	3.6364	0.1	921.05
22998	19.801	3.3636	0.1	900.13
22999	19.709	3.4545	0.1	922.07
23000	19.801	3.1818	0.1	900.56
23001	19.709	3.2727	0.1	922.78
23002	19.801	3.	0.1	900.71
23003	19.709	3.0909	0.1	923.15
23004	19.801	2.8182	0.1	900.56
23005	19.709	2.9091	0.1	923.15
23006	19.801	2.6364	0.1	900.13
23007	19.709	2.7273	0.1	922.78
23008	19.801	2.4545	0.1	899.43
23009	19.709	2.5455	0.1	922.07
23010	19.801	2.2727	0.1	898.49
23011	19.709	2.3636	0.1	921.05
23012	19.801	2.0909	0.1	897.36
23013	19.709	2.1818	0.1	919.75
23014	19.801	1.9091	0.1	896.09
23015	19.709	2.	0.1	918.24
23016	19.801	1.7273	0.1	894.73
23017	19.709	1.8182	0.1	916.58
23018	19.801	1.5455	0.1	893.36
23019	19.709	1.6364	0.1	914.85
23020	19.801	1.3636	0.1	892.06
23021	19.709	1.4545	0.1	913.13
23022	19.801	1.1818	0.1	890.9
23023	19.709	1.2727	0.1	911.52
23024	19.801	1.	0.1	889.97
23025	19.709	1.0909	0.1	910.11
23026	19.801	0.81818	0.1	889.35
23027	19.709	0.90909	0.1	908.99
23028	19.801	0.63636	0.1	889.14
23029	19.709	0.72727	0.1	908.27
23030	19.801	0.45455	0.1	889.45
23031	19.709	0.54545	0.1	908.03
23032	19.801	0.27273	0.1	890.92
23033	19.709	0.36364	0.1	908.43
23034	19.709	0.18182	0.1	910.66
23035	19.801	9.0909e-002	0.1	888.92
23036	19.618	5.7273	0.1	928.05
23037	19.527	5.8182	0.1	947.02
23038	19.618	5.9091	0.1	925.93
23039	19.618	5.5455	0.1	926.97
23040	19.527	5.6364	0.1	945.2
23041	19.618	5.3636	0.1	927.12
23042	19.527	5.4545	0.1	945.29
23043	19.618	5.1818	0.1	927.88
23044	19.527	5.2727	0.1	946.12
23045	19.618	5.	0.1	929.11
23046	19.527	5.0909	0.1	947.53
23047	19.618	4.8182	0.1	930.71
23048	19.527	4.9091	0.1	949.41
23049	19.618	4.6364	0.1	932.57
23050	19.527	4.7273	0.1	951.63
23051	19.618	4.4545	0.1	934.6
23052	19.527	4.5455	0.1	954.09
23053	19.618	4.2727	0.1	936.68
23054	19.527	4.3636	0.1	956.65
23055	19.618	4.0909	0.1	938.72
23056	19.527	4.1818	0.1	959.21
23057	19.618	3.9091	0.1	940.62
23058	19.527	4.	0.1	961.65
23059	19.618	3.7273	0.1	942.3
23060	19.527	3.8182	0.1	963.86
23061	19.618	3.5455	0.1	943.69
23062	19.527	3.6364	0.1	965.76
23063	19.618	3.3636	0.1	944.72
23064	19.527	3.4545	0.1	967.26
23065	19.618	3.1818	0.1	945.36
23066	19.527	3.2727	0.1	968.29
23067	19.618	3.	0.1	945.58
23068	19.527	3.0909	0.1	968.82
23069	19.618	2.8182	0.1	945.36
23070	19.527	2.9091	0.1	968.82
23071	19.618	2.6364	0.1	944.72
23072	19.527	2.7273	0.1	968.29
23073	19.618	2.4545	0.1	943.69
23074	19.527	2.5455	0.1	967.26
23075	19.618	2.2727	0.1	942.3
23076	19.527	2.3636	0.1	965.76
23077	19.618	2.0909	0.1	940.62
23078	19.527	2.1818	0.1	963.86
23079	19.618	1.9091	0.1	938.72
23080	19.527	2.	0.1	961.65
23081	19.618	1.7273	0.1	936.68
23082	19.527	1.8182	0.1	959.21
23083	19.618	1.5455	0.1	934.6
23084	19.527	1.6364	0.1	956.65
23085	19.618	1.3636	0.1	932.57
23086	19.527	1.4545	0.1	954.09
23087	19.618	1.1818	0.1	930.71
23088	19.527	1.2727	0.1	951.63
23089	19.618	1.	0.1	929.11
23090	19.527	1.0909	0.1	949.41
23091	19.618	0.81818	0.1	927.88
23092	19.527	0.90909	0.1	947.53
23093	19.618	0.63636	0.1	927.12
23094	19.527	0.72727	0.1	946.12
23095	19.618	0.45455	0.1	926.97
23096	19.527	0.54545	0.1	945.29
23097	19.618	0.27273	0.1	928.05
23098	19.527	0.36364	0.1	945.2
23099	19.527	0.18182	0.1	947.02
23100	19.618	9.0909e-002	0.1	925.93
23101	19.436	5.7273	0.1	964.06
23102	19.344	5.8182	0.1	982.03
23103	19.436	5.9091	0.1	961.72
23104	19.436	5.5455	0.1	963.49
23105	19.344	5.6364	0.1	980.74
23106	19.436	5.3636	0.1	964.26
23107	19.344	5.4545	0.1	981.47
23108	19.436	5.1818	0.1	965.75
23109	19.344	5.2727	0.1	983.09
23110	19.436	5.	0.1	967.8
23111	19.344	5.0909	0.1	985.41
23112	19.436	4.8182	0.1	970.31
23113	19.344	4.9091	0.1	988.3
23114	19.436	4.6364	0.1	973.13
23115	19.344	4.7273	0.1	991.61
23116	19.436	4.4545	0.1	976.13
23117	19.344	4.5455	0.1	995.2
23118	19.436	4.2727	0.1	979.17
23119	19.344	4.3636	0.1	998.91
23120	19.436	4.0909	0.1	982.13
23121	19.344	4.1818	0.1	1002.6
23122	19.436	3.9091	0.1	984.89
23123	19.344	4.	0.1	1006.1
23124	19.436	3.7273	0.1	987.32
23125	19.344	3.8182	0.1	1009.2
23126	19.436	3.5455	0.1	989.32
23127	19.344	3.6364	0.1	1011.9
23128	19.436	3.3636	0.1	990.82
23129	19.344	3.4545	0.1	1014.1
23130	19.436	3.1818	0.1	991.74
23131	19.344	3.2727	0.1	1015.6
23132	19.436	3.	0.1	992.06
23133	19.344	3.0909	0.1	1016.3
23134	19.436	2.8182	0.1	991.74
23135	19.344	2.9091	0.1	1016.3
23136	19.436	2.6364	0.1	990.82
23137	19.344	2.7273	0.1	1015.6
23138	19.436	2.4545	0.1	989.32
23139	19.344	2.5455	0.1	1014.1
23140	19.436	2.2727	0.1	987.32
23141	19.344	2.3636	0.1	1011.9
23142	19.436	2.0909	0.1	984.89
23143	19.344	2.1818	0.1	1009.2
23144	19.436	1.9091	0.1	982.13
23145	19.344	2.	0.1	1006.1
23146	19.436	1.7273	0.1	979.17
23147	19.344	1.8182	0.1	1002.6
23148	19.436	1.5455	0.1	976.13
23149	19.344	1.6364	0.1	998.91
23150	19.436	1.3636	0.1	973.13
23151	19.344	1.4545	0.1	995.2
23152	19.436	1.1818	0.1	970.31
23153	19.344	1.2727	0.1	991.61
23154	19.436	1.	0.1	967.81
23155	19.344	1.0909	0.1	988.3
23156	19.436	0.81818	0.1	965.75
23157	19.344	0.90909	0.1	985.41
23158	19.436	0.63636	0.1	964.26
23159	19.344	0.72727	0.1	983.09
23160	19.436	0.45455	0.1	963.49
23161	19.344	0.54545	0.1	981.47
23162	19.436	0.27273	0.1	964.06
23163	19.344	0.36364	0.1	980.74
23164	19.344	0.18182	0.1	982.03
23165	19.436	9.0909e-002	0.1	961.72
23166	19.253	5.7273	0.1	998.6
23167	19.162	5.8182	0.1	1015.3
23168	19.253	5.9091	0.1	995.9
23169	19.253	5.5455	0.1	998.69
23170	19.162	5.6364	0.1	1014.6
23171	19.253	5.3636	0.1	1000.3
23172	19.162	5.4545	0.1	1016.2
23173	19.253	5.1818	0.1	1002.7
23174	19.162	5.2727	0.1	1018.9
23175	19.253	5.	0.1	1005.9
23176	19.162	5.0909	0.1	1022.4
23177	19.253	4.8182	0.1	1009.6
23178	19.162	4.9091	0.1	1026.6
23179	19.253	4.6364	0.1	1013.7
23180	19.162	4.7273	0.1	1031.3
23181	19.253	4.4545	0.1	1018.
23182	19.162	4.5455	0.1	1036.4
23183	19.253	4.2727	0.1	1022.3
23184	19.162	4.3636	0.1	1041.7
23185	19.253	4.0909	0.1	1026.5
23186	19.162	4.1818	0.1	1046.8
23187	19.253	3.9091	0.1	1030.4
23188	19.162	4.	0.1	1051.7
23189	19.253	3.7273	0.1	1033.8
23190	19.162	3.8182	0.1	1056.1
23191	19.253	3.5455	0.1	1036.7
23192	19.162	3.6364	0.1	1059.9
23193	19.253	3.3636	0.1	1038.8
23194	19.162	3.4545	0.1	1063.
23195	19.253	3.1818	0.1	1040.1
23196	19.162	3.2727	0.1	1065.
23197	19.253	3.	0.1	1040.6
23198	19.162	3.0909	0.1	1066.1
23199	19.253	2.8182	0.1	1040.1
23200	19.162	2.9091	0.1	1066.1
23201	19.253	2.6364	0.1	1038.8
23202	19.162	2.7273	0.1	1065.
23203	19.253	2.4545	0.1	1036.7
23204	19.162	2.5455	0.1	1063.
23205	19.253	2.2727	0.1	1033.8
23206	19.162	2.3636	0.1	1059.9
23207	19.253	2.0909	0.1	1030.4
23208	19.162	2.1818	0.1	1056.1
23209	19.253	1.9091	0.1	1026.5
23210	19.162	2.	0.1	1051.7
23211	19.253	1.7273	0.1	1022.3
23212	19.162	1.8182	0.1	1046.8
23213	19.253	1.5455	0.1	1018.
23214	19.162	1.6364	0.1	1041.7
23215	19.253	1.3636	0.1	1013.7
23216	19.162	1.4545	0.1	1036.4
23217	19.253	1.1818	0.1	1009.6
23218	19.162	1.2727	0.1	1031.3
23219	19.253	1.	0.1	1005.9
23220	19.162	1.0909	0.1	1026.6
23221	19.253	0.81818	0.1	1002.7
23222	19.162	0.90909	0.1	1022.4
23223	19.253	0.63636	0.1	1000.3
23224	19.162	0.72727	0.1	1018.9
23225	19.253	0.45455	0.1	998.69
23226	19.162	0.54545	0.1	1016.2
23227	19.253	0.27273	0.1	998.6
23228	19.162	0.36364	0.1	1014.6
23229	19.162	0.18182	0.1	1015.3
23230	19.253	9.0909e-002	0.1	995.9
23231	19.07	5.7273	0.1	1031.2
23232	18.979	5.8182	0.1	1046.2
23233	19.07	5.9091	0.1	1028.
23234	19.07	5.5455	0.1	1032.1
23235	18.979	5.6364	0.1	1046.4
23236	19.07	5.3636	0.1	1034.8
23237	18.979	5.4545	0.1	1049.1
23238	19.07	5.1818	0.1	1038.5
23239	18.979	5.2727	0.1	1053.1
23240	19.07	5.	0.1	1043.1
23241	18.979	5.0909	0.1	1058.1
23242	19.07	4.8182	0.1	1048.3
23243	18.979	4.9091	0.1	1064.1
23244	19.07	4.6364	0.1	1054.1
23245	18.979	4.7273	0.1	1070.7
23246	19.07	4.4545	0.1	1060.1
23247	18.979	4.5455	0.1	1077.8
23248	19.07	4.2727	0.1	1066.2
23249	18.979	4.3636	0.1	1085.
23250	19.07	4.0909	0.1	1072.
23251	18.979	4.1818	0.1	1092.1
23252	19.07	3.9091	0.1	1077.5
23253	18.979	4.	0.1	1098.9
23254	19.07	3.7273	0.1	1082.2
23255	18.979	3.8182	0.1	1105.
23256	19.07	3.5455	0.1	1086.2
23257	18.979	3.6364	0.1	1110.3
23258	19.07	3.3636	0.1	1089.2
23259	18.979	3.4545	0.1	1114.4
23260	19.07	3.1818	0.1	1091.
23261	18.979	3.2727	0.1	1117.3
23262	19.07	3.	0.1	1091.6
23263	18.979	3.0909	0.1	1118.8
23264	19.07	2.8182	0.1	1091.
23265	18.979	2.9091	0.1	1118.8
23266	19.07	2.6364	0.1	1089.2
23267	18.979	2.7273	0.1	1117.3
23268	19.07	2.4545	0.1	1086.2
23269	18.979	2.5455	0.1	1114.4
23270	19.07	2.2727	0.1	1082.2
23271	18.979	2.3636	0.1	1110.3
23272	19.07	2.0909	0.1	1077.5
23273	18.979	2.1818	0.1	1105.
23274	19.07	1.9091	0.1	1072.
23275	18.979	2.	0.1	1098.9
23276	19.07	1.7273	0.1	1066.2
23277	18.979	1.8182	0.1	1092.1
23278	19.07	1.5455	0.1	1060.1
23279	18.979	1.6364	0.1	1085.
23280	19.07	1.3636	0.1	1054.1
23281	18.979	1.4545	0.1	1077.8
23282	19.07	1.1818	0.1	1048.3
23283	18.979	1.2727	0.1	1070.7
23284	19.07	1.	0.1	1043.1
23285	18.979	1.0909	0.1	1064.1
23286	19.07	0.81818	0.1	1038.5
23287	18.979	0.90909	0.1	1058.1
23288	19.07	0.63636	0.1	1034.8
23289	18.979	0.72727	0.1	1053.1
23290	19.07	0.45455	0.1	1032.1
23291	18.979	0.54545	0.1	1049.1
23292	19.07	0.27273	0.1	1031.2
23293	18.979	0.36364	0.1	1046.4
23294	18.979	0.18182	0.1	1046.2
23295	19.07	9.0909e-002	0.1	1028.
23296	18.888	5.7273	0.1	1061.4
23297	18.797	5.8182	0.1	1074.3
23298	18.888	5.9091	0.1	1057.5
23299	18.888	5.5455	0.1	1063.3
23300	18.797	5.6364	0.1	1075.5
23301	18.888	5.3636	0.1	1067.3
23302	18.797	5.4545	0.1	1079.5
23303	18.888	5.1818	0.1	1072.7
23304	18.797	5.2727	0.1	1085.2
23305	18.888	5.	0.1	1079.1
23306	18.797	5.0909	0.1	1092.2
23307	18.888	4.8182	0.1	1086.4
23308	18.797	4.9091	0.1	1100.4
23309	18.888	4.6364	0.1	1094.3
23310	18.797	4.7273	0.1	1109.5
23311	18.888	4.4545	0.1	1102.6
23312	18.797	4.5455	0.1	1119.1
23313	18.888	4.2727	0.1	1110.9
23314	18.797	4.3636	0.1	1128.9
23315	18.888	4.0909	0.1	1118.9
23316	18.797	4.1818	0.1	1138.7
23317	18.888	3.9091	0.1	1126.4
23318	18.797	4.	0.1	1147.9
23319	18.888	3.7273	0.1	1133.
23320	18.797	3.8182	0.1	1156.3
23321	18.888	3.5455	0.1	1138.5
23322	18.797	3.6364	0.1	1163.5
23323	18.888	3.3636	0.1	1142.6
23324	18.797	3.4545	0.1	1169.2
23325	18.888	3.1818	0.1	1145.1
23326	18.797	3.2727	0.1	1173.1
23327	18.888	3.	0.1	1145.9
23328	18.797	3.0909	0.1	1175.2
23329	18.888	2.8182	0.1	1145.1
23330	18.797	2.9091	0.1	1175.2
23331	18.888	2.6364	0.1	1142.6
23332	18.797	2.7273	0.1	1173.1
23333	18.888	2.4545	0.1	1138.5
23334	18.797	2.5455	0.1	1169.2
23335	18.888	2.2727	0.1	1133.
23336	18.797	2.3636	0.1	1163.5
23337	18.888	2.0909	0.1	1126.4
23338	18.797	2.1818	0.1	1156.3
23339	18.888	1.9091	0.1	1118.9
23340	18.797	2.	0.1	1147.9
23341	18.888	1.7273	0.1	1110.9
23342	18.797	1.8182	0.1	1138.7
23343	18.888	1.5455	0.1	1102.6
23344	18.797	1.6364	0.1	1128.9
23345	18.888	1.3636	0.1	1094.3
23346	18.797	1.4545	0.1	1119.1
23347	18.888	1.1818	0.1	1086.4
23348	18.797	1.2727	0.1	1109.5
23349	18.888	1.	0.1	1079.1
23350	18.797	1.0909	0.1	1100.4
23351	18.888	0.81818	0.1	1072.7
23352	18.797	0.90909	0.1	1092.2
23353	18.888	0.63636	0.1	1067.3
23354	18.797	0.72727	0.1	1085.2
23355	18.888	0.45455	0.1	1063.3
23356	18.797	0.54545	0.1	1079.5
23357	18.888	0.27273	0.1	1061.4
23358	18.797	0.36364	0.1	1075.5
23359	18.797	0.18182	0.1	1074.3
23360	18.888	9.0909e-002	0.1	1057.5
23361	18.705	5.7273	0.1	1088.3
23362	18.614	5.8182	0.1	1098.6
23363	18.705	5.9091	0.1	1083.5
23364	18.705	5.5455	0.1	1091.6
23365	18.614	5.6364	0.1	1101.1
23366	18.705	5.3636	0.1	1097.3
23367	18.614	5.4545	0.1	1106.8
23368	18.705	5.1818	0.1	1104.7
23369	18.614	5.2727	0.1	1114.6
23370	18.705	5.	0.1	1113.5
23371	18.614	5.0909	0.1	1124.2
23372	18.705	4.8182	0.1	1123.5
23373	18.614	4.9091	0.1	1135.3
23374	18.705	4.6364	0.1	1134.3
23375	18.614	4.7273	0.1	1147.5
23376	18.705	4.4545	0.1	1145.4
23377	18.614	4.5455	0.1	1160.4
23378	18.705	4.2727	0.1	1156.7
23379	18.614	4.3636	0.1	1173.7
23380	18.705	4.0909	0.1	1167.6
23381	18.614	4.1818	0.1	1186.8
23382	18.705	3.9091	0.1	1177.7
23383	18.614	4.	0.1	1199.2
23384	18.705	3.7273	0.1	1186.7
23385	18.614	3.8182	0.1	1210.5
23386	18.705	3.5455	0.1	1194.2
23387	18.614	3.6364	0.1	1220.3
23388	18.705	3.3636	0.1	1199.8
23389	18.614	3.4545	0.1	1228.1
23390	18.705	3.1818	0.1	1203.2
23391	18.614	3.2727	0.1	1233.5
23392	18.705	3.	0.1	1204.4
23393	18.614	3.0909	0.1	1236.3
23394	18.705	2.8182	0.1	1203.2
23395	18.614	2.9091	0.1	1236.3
23396	18.705	2.6364	0.1	1199.8
23397	18.614	2.7273	0.1	1233.5
23398	18.705	2.4545	0.1	1194.2
23399	18.614	2.5455	0.1	1228.1
23400	18.705	2.2727	0.1	1186.7
23401	18.614	2.3636	0.1	1220.3
23402	18.705	2.0909	0.1	1177.7
23403	18.614	2.1818	0.1	1210.5
23404	18.705	1.9091	0.1	1167.6
23405	18.614	2.	0.1	1199.2
23406	18.705	1.7273	0.1	1156.7
23407	18.614	1.8182	0.1	1186.8
23408	18.705	1.5455	0.1	1145.4
23409	18.614	1.6364	0.1	1173.7
23410	18.705	1.3636	0.1	1134.3
23411	18.614	1.4545	0.1	1160.4
23412	18.705	1.1818	0.1	1123.5
23413	18.614	1.2727	0.1	1147.5
23414	18.705	1.	0.1	1113.5
23415	18.614	1.0909	0.1	1135.3
23416	18.705	0.81818	0.1	1104.7
23417	18.614	0.90909	0.1	1124.2
23418	18.705	0.63636	0.1	1097.3
23419	18.614	0.72727	0.1	1114.6
23420	18.705	0.45455	0.1	1091.6
23421	18.614	0.54545	0.1	1106.8
23422	18.705	0.27273	0.1	1088.3
23423	18.614	0.36364	0.1	1101.1
23424	18.614	0.18182	0.1	1098.6
23425	18.705	9.0909e-002	0.1	1083.5
23426	18.523	5.7273	0.1	1111.3
23427	18.431	5.8182	0.1	1118.2
23428	18.523	5.9091	0.1	1105.2
23429	18.523	5.5455	0.1	1116.2
23430	18.431	5.6364	0.1	1122.2
23431	18.523	5.3636	0.1	1124.1
23432	18.431	5.4545	0.1	1130.1
23433	18.523	5.1818	0.1	1134.1
23434	18.431	5.2727	0.1	1140.6
23435	18.523	5.	0.1	1145.9
23436	18.431	5.0909	0.1	1153.4
23437	18.523	4.8182	0.1	1159.3
23438	18.431	4.9091	0.1	1168.2
23439	18.523	4.6364	0.1	1173.7
23440	18.431	4.7273	0.1	1184.4
23441	18.523	4.4545	0.1	1188.7
23442	18.431	4.5455	0.1	1201.7
23443	18.523	4.2727	0.1	1203.7
23444	18.431	4.3636	0.1	1219.3
23445	18.523	4.0909	0.1	1218.4
23446	18.431	4.1818	0.1	1236.8
23447	18.523	3.9091	0.1	1232.
23448	18.431	4.	0.1	1253.4
23449	18.523	3.7273	0.1	1244.2
23450	18.431	3.8182	0.1	1268.7
23451	18.523	3.5455	0.1	1254.2
23452	18.431	3.6364	0.1	1281.8
23453	18.523	3.3636	0.1	1261.8
23454	18.431	3.4545	0.1	1292.3
23455	18.523	3.1818	0.1	1266.5
23456	18.431	3.2727	0.1	1299.6
23457	18.523	3.	0.1	1268.1
23458	18.431	3.0909	0.1	1303.4
23459	18.523	2.8182	0.1	1266.5
23460	18.431	2.9091	0.1	1303.4
23461	18.523	2.6364	0.1	1261.8
23462	18.431	2.7273	0.1	1299.6
23463	18.523	2.4545	0.1	1254.2
23464	18.431	2.5455	0.1	1292.3
23465	18.523	2.2727	0.1	1244.2
23466	18.431	2.3636	0.1	1281.8
23467	18.523	2.0909	0.1	1232.
23468	18.431	2.1818	0.1	1268.7
23469	18.523	1.9091	0.1	1218.4
23470	18.431	2.	0.1	1253.4
23471	18.523	1.7273	0.1	1203.7
23472	18.431	1.8182	0.1	1236.8
23473	18.523	1.5455	0.1	1188.7
23474	18.431	1.6364	0.1	1219.3
23475	18.523	1.3636	0.1	1173.7
23476	18.431	1.4545	0.1	1201.7
23477	18.523	1.1818	0.1	1159.3
23478	18.431	1.2727	0.1	1184.4
23479	18.523	1.	0.1	1145.9
23480	18.431	1.0909	0.1	1168.2
23481	18.523	0.81818	0.1	1134.1
23482	18.431	0.90909	0.1	1153.4
23483	18.523	0.63636	0.1	1124.1
23484	18.431	0.72727	0.1	1140.6
23485	18.523	0.45455	0.1	1116.2
23486	18.431	0.54545	0.1	1130.1
23487	18.523	0.27273	0.1	1111.3
23488	18.431	0.36364	0.1	1122.2
23489	18.431	0.18182	0.1	1118.2
23490	18.523	9.0909e-002	0.1	1105.2
23491	18.34	5.7273	0.1	1129.1
23492	18.249	5.8182	0.1	1131.9
23493	18.34	5.9091	0.1	1121.6
23494	18.34	5.5455	0.1	1136.1
23495	18.249	5.6364	0.1	1137.8
23496	18.34	5.3636	0.1	1146.6
23497	18.249	5.4545	0.1	1148.3
23498	18.34	5.1818	0.1	1160.
23499	18.249	5.2727	0.1	1162.2
23500	18.34	5.	0.1	1175.7
23501	18.249	5.0909	0.1	1179.1
23502	18.34	4.8182	0.1	1193.3
23503	18.249	4.9091	0.1	1198.5
23504	18.34	4.6364	0.1	1212.4
23505	18.249	4.7273	0.1	1219.9
23506	18.34	4.4545	0.1	1232.3
23507	18.249	4.5455	0.1	1242.7
23508	18.34	4.2727	0.1	1252.3
23509	18.249	4.3636	0.1	1266.
23510	18.34	4.0909	0.1	1271.8
23511	18.249	4.1818	0.1	1289.1
23512	18.34	3.9091	0.1	1290.1
23513	18.249	4.	0.1	1311.3
23514	18.34	3.7273	0.1	1306.3
23515	18.249	3.8182	0.1	1331.6
23516	18.34	3.5455	0.1	1319.9
23517	18.249	3.6364	0.1	1349.2
23518	18.34	3.3636	0.1	1330.1
23519	18.249	3.4545	0.1	1363.3
23520	18.34	3.1818	0.1	1336.5
23521	18.249	3.2727	0.1	1373.2
23522	18.34	3.	0.1	1338.6
23523	18.249	3.0909	0.1	1378.2
23524	18.34	2.8182	0.1	1336.5
23525	18.249	2.9091	0.1	1378.2
23526	18.34	2.6364	0.1	1330.1
23527	18.249	2.7273	0.1	1373.2
23528	18.34	2.4545	0.1	1319.9
23529	18.249	2.5455	0.1	1363.3
23530	18.34	2.2727	0.1	1306.3
23531	18.249	2.3636	0.1	1349.2
23532	18.34	2.0909	0.1	1290.1
23533	18.249	2.1818	0.1	1331.6
23534	18.34	1.9091	0.1	1271.8
23535	18.249	2.	0.1	1311.3
23536	18.34	1.7273	0.1	1252.3
23537	18.249	1.8182	0.1	1289.1
23538	18.34	1.5455	0.1	1232.3
23539	18.249	1.6364	0.1	1266.
23540	18.34	1.3636	0.1	1212.4
23541	18.249	1.4545	0.1	1242.7
23542	18.34	1.1818	0.1	1193.3
23543	18.249	1.2727	0.1	1219.9
23544	18.34	1.	0.1	1175.7
23545	18.249	1.0909	0.1	1198.5
23546	18.34	0.81818	0.1	1160.
23547	18.249	0.90909	0.1	1179.1
23548	18.34	0.63636	0.1	1146.6
23549	18.249	0.72727	0.1	1162.2
23550	18.34	0.45455	0.1	1136.1
23551	18.249	0.54545	0.1	1148.3
23552	18.34	0.27273	0.1	1129.1
23553	18.249	0.36364	0.1	1137.8
23554	18.249	0.18182	0.1	1131.9
23555	18.34	9.0909e-002	0.1	1121.6
23556	18.158	5.7273	0.1	1140.6
23557	18.066	5.8182	0.1	1138.3
23558	18.158	5.9091	0.1	1131.2
23559	18.158	5.5455	0.1	1150.1
23560	18.066	5.6364	0.1	1146.4
23561	18.158	5.3636	0.1	1163.9
23562	18.066	5.4545	0.1	1160.2
23563	18.158	5.1818	0.1	1181.4
23564	18.066	5.2727	0.1	1178.3
23565	18.158	5.	0.1	1202.
23566	18.066	5.0909	0.1	1200.3
23567	18.158	4.8182	0.1	1225.2
23568	18.066	4.9091	0.1	1225.6
23569	18.158	4.6364	0.1	1250.2
23570	18.066	4.7273	0.1	1253.6
23571	18.158	4.4545	0.1	1276.4
23572	18.066	4.5455	0.1	1283.4
23573	18.158	4.2727	0.1	1302.8
23574	18.066	4.3636	0.1	1314.
23575	18.158	4.0909	0.1	1328.6
23576	18.066	4.1818	0.1	1344.5
23577	18.158	3.9091	0.1	1352.9
23578	18.066	4.	0.1	1373.8
23579	18.158	3.7273	0.1	1374.5
23580	18.066	3.8182	0.1	1400.8
23581	18.158	3.5455	0.1	1392.7
23582	18.066	3.6364	0.1	1424.2
23583	18.158	3.3636	0.1	1406.4
23584	18.066	3.4545	0.1	1443.
23585	18.158	3.1818	0.1	1414.9
23586	18.066	3.2727	0.1	1456.2
23587	18.158	3.	0.1	1417.8
23588	18.066	3.0909	0.1	1463.
23589	18.158	2.8182	0.1	1414.9
23590	18.066	2.9091	0.1	1463.
23591	18.158	2.6364	0.1	1406.4
23592	18.066	2.7273	0.1	1456.2
23593	18.158	2.4545	0.1	1392.7
23594	18.066	2.5455	0.1	1443.
23595	18.158	2.2727	0.1	1374.5
23596	18.066	2.3636	0.1	1424.2
23597	18.158	2.0909	0.1	1352.9
23598	18.066	2.1818	0.1	1400.8
23599	18.158	1.9091	0.1	1328.6
23600	18.066	2.	0.1	1373.8
23601	18.158	1.7273	0.1	1302.8
23602	18.066	1.8182	0.1	1344.5
23603	18.158	1.5455	0.1	1276.4
23604	18.066	1.6364	0.1	1314.
23605	18.158	1.3636	0.1	1250.2
23606	18.066	1.4545	0.1	1283.4
23607	18.158	1.1818	0.1	1225.2
23608	18.066	1.2727	0.1	1253.6
23609	18.158	1.	0.1	1202.
23610	18.066	1.0909	0.1	1225.6
23611	18.158	0.81818	0.1	1181.4
23612	18.066	0.90909	0.1	1200.3
23613	18.158	0.63636	0.1	1163.9
23614	18.066	0.72727	0.1	1178.3
23615	18.158	0.45455	0.1	1150.1
23616	18.066	0.54545	0.1	1160.2
23617	18.158	0.27273	0.1	1140.6
23618	18.066	0.36364	0.1	1146.4
23619	18.066	0.18182	0.1	1138.3
23620	18.158	9.0909e-002	0.1	1131.2
23621	17.975	5.7273	0.1	1144.2
23622	17.884	5.8182	0.1	1135.7
23623	17.975	5.9091	0.1	1132.5
23624	17.975	5.5455	0.1	1156.6
23625	17.884	5.6364	0.1	1146.5
23626	17.975	5.3636	0.1	1174.6
23627	17.884	5.4545	0.1	1164.1
23628	17.975	5.1818	0.1	1197.3
23629	17.884	5.2727	0.1	1187.4
23630	17.975	5.	0.1	1224.
23631	17.884	5.0909	0.1	1215.8
23632	17.975	4.8182	0.1	1254.2
23633	17.884	4.9091	0.1	1248.6
23634	17.975	4.6364	0.1	1286.8
23635	17.884	4.7273	0.1	1284.9
23636	17.975	4.4545	0.1	1321.1
23637	17.884	4.5455	0.1	1323.7
23638	17.975	4.2727	0.1	1355.8
23639	17.884	4.3636	0.1	1363.8
23640	17.975	4.0909	0.1	1389.8
23641	17.884	4.1818	0.1	1403.8
23642	17.975	3.9091	0.1	1421.8
23643	17.884	4.	0.1	1442.3
23644	17.975	3.7273	0.1	1450.5
23645	17.884	3.8182	0.1	1477.9
23646	17.975	3.5455	0.1	1474.6
23647	17.884	3.6364	0.1	1509.
23648	17.975	3.3636	0.1	1492.8
23649	17.884	3.4545	0.1	1533.9
23650	17.975	3.1818	0.1	1504.2
23651	17.884	3.2727	0.1	1551.4
23652	17.975	3.	0.1	1508.1
23653	17.884	3.0909	0.1	1560.5
23654	17.975	2.8182	0.1	1504.2
23655	17.884	2.9091	0.1	1560.5
23656	17.975	2.6364	0.1	1492.8
23657	17.884	2.7273	0.1	1551.4
23658	17.975	2.4545	0.1	1474.6
23659	17.884	2.5455	0.1	1533.9
23660	17.975	2.2727	0.1	1450.5
23661	17.884	2.3636	0.1	1509.
23662	17.975	2.0909	0.1	1421.8
23663	17.884	2.1818	0.1	1477.9
23664	17.975	1.9091	0.1	1389.8
23665	17.884	2.	0.1	1442.3
23666	17.975	1.7273	0.1	1355.8
23667	17.884	1.8182	0.1	1403.8
23668	17.975	1.5455	0.1	1321.1
23669	17.884	1.6364	0.1	1363.8
23670	17.975	1.3636	0.1	1286.8
23671	17.884	1.4545	0.1	1323.7
23672	17.975	1.1818	0.1	1254.2
23673	17.884	1.2727	0.1	1284.9
23674	17.975	1.	0.1	1224.
23675	17.884	1.0909	0.1	1248.6
23676	17.975	0.81818	0.1	1197.3
23677	17.884	0.90909	0.1	1215.8
23678	17.975	0.63636	0.1	1174.6
23679	17.884	0.72727	0.1	1187.4
23680	17.975	0.45455	0.1	1156.6
23681	17.884	0.54545	0.1	1164.1
23682	17.975	0.27273	0.1	1144.2
23683	17.884	0.36364	0.1	1146.5
23684	17.884	0.18182	0.1	1135.7
23685	17.975	9.0909e-002	0.1	1132.5
23686	17.792	5.7273	0.1	1138.
23687	17.701	5.8182	0.1	1122.2
23688	17.792	5.9091	0.1	1123.5
23689	17.792	5.5455	0.1	1154.
23690	17.701	5.6364	0.1	1135.9
23691	17.792	5.3636	0.1	1177.1
23692	17.701	5.4545	0.1	1158.3
23693	17.792	5.1818	0.1	1206.1
23694	17.701	5.2727	0.1	1187.9
23695	17.792	5.	0.1	1240.6
23696	17.701	5.0909	0.1	1224.2
23697	17.792	4.8182	0.1	1279.5
23698	17.701	4.9091	0.1	1266.4
23699	17.792	4.6364	0.1	1322.
23700	17.701	4.7273	0.1	1313.3
23701	17.792	4.4545	0.1	1366.6
23702	17.701	4.5455	0.1	1363.7
23703	17.792	4.2727	0.1	1411.9
23704	17.701	4.3636	0.1	1415.8
23705	17.792	4.0909	0.1	1456.5
23706	17.701	4.1818	0.1	1468.1
23707	17.792	3.9091	0.1	1498.6
23708	17.701	4.	0.1	1518.7
23709	17.792	3.7273	0.1	1536.5
23710	17.701	3.8182	0.1	1565.5
23711	17.792	3.5455	0.1	1568.3
23712	17.701	3.6364	0.1	1606.4
23713	17.792	3.3636	0.1	1592.5
23714	17.701	3.4545	0.1	1639.4
23715	17.792	3.1818	0.1	1607.6
23716	17.701	3.2727	0.1	1662.4
23717	17.792	3.	0.1	1612.7
23718	17.701	3.0909	0.1	1674.3
23719	17.792	2.8182	0.1	1607.6
23720	17.701	2.9091	0.1	1674.3
23721	17.792	2.6364	0.1	1592.5
23722	17.701	2.7273	0.1	1662.4
23723	17.792	2.4545	0.1	1568.3
23724	17.701	2.5455	0.1	1639.4
23725	17.792	2.2727	0.1	1536.5
23726	17.701	2.3636	0.1	1606.4
23727	17.792	2.0909	0.1	1498.6
23728	17.701	2.1818	0.1	1565.5
23729	17.792	1.9091	0.1	1456.5
23730	17.701	2.	0.1	1518.7
23731	17.792	1.7273	0.1	1411.9
23732	17.701	1.8182	0.1	1468.1
23733	17.792	1.5455	0.1	1366.6
23734	17.701	1.6364	0.1	1415.8
23735	17.792	1.3636	0.1	1322.
23736	17.701	1.4545	0.1	1363.7
23737	17.792	1.1818	0.1	1279.5
23738	17.701	1.2727	0.1	1313.3
23739	17.792	1.	0.1	1240.6
23740	17.701	1.0909	0.1	1266.4
23741	17.792	0.81818	0.1	1206.1
23742	17.701	0.90909	0.1	1224.2
23743	17.792	0.63636	0.1	1177.1
23744	17.701	0.72727	0.1	1187.9
23745	17.792	0.45455	0.1	1154.
23746	17.701	0.54545	0.1	1158.3
23747	17.792	0.27273	0.1	1138.
23748	17.701	0.36364	0.1	1135.9
23749	17.701	0.18182	0.1	1122.2
23750	17.792	9.0909e-002	0.1	1123.5
23751	17.61	5.7273	0.1	1120.1
23752	17.519	5.8182	0.1	1095.4
23753	17.61	5.9091	0.1	1102.3
23754	17.61	5.5455	0.1	1140.3
23755	17.519	5.6364	0.1	1112.5
23756	17.61	5.3636	0.1	1169.4
23757	17.519	5.4545	0.1	1140.5
23758	17.61	5.1818	0.1	1206.3
23759	17.519	5.2727	0.1	1177.8
23760	17.61	5.	0.1	1250.4
23761	17.519	5.0909	0.1	1223.9
23762	17.61	4.8182	0.1	1300.5
23763	17.519	4.9091	0.1	1277.8
23764	17.61	4.6364	0.1	1355.4
23765	17.519	4.7273	0.1	1338.2
23766	17.61	4.4545	0.1	1413.2
23767	17.519	4.5455	0.1	1403.3
23768	17.61	4.2727	0.1	1472.3
23769	17.519	4.3636	0.1	1471.1
23770	17.61	4.0909	0.1	1530.6
23771	17.519	4.1818	0.1	1539.3
23772	17.61	3.9091	0.1	1585.8
23773	17.519	4.	0.1	1605.5
23774	17.61	3.7273	0.1	1635.6
23775	17.519	3.8182	0.1	1666.9
23776	17.61	3.5455	0.1	1677.4
23777	17.519	3.6364	0.1	1720.6
23778	17.61	3.3636	0.1	1709.2
23779	17.519	3.4545	0.1	1763.6
23780	17.61	3.1818	0.1	1729.
23781	17.519	3.2727	0.1	1793.8
23782	17.61	3.	0.1	1735.7
23783	17.519	3.0909	0.1	1809.2
23784	17.61	2.8182	0.1	1729.
23785	17.519	2.9091	0.1	1809.2
23786	17.61	2.6364	0.1	1709.2
23787	17.519	2.7273	0.1	1793.8
23788	17.61	2.4545	0.1	1677.4
23789	17.519	2.5455	0.1	1763.6
23790	17.61	2.2727	0.1	1635.6
23791	17.519	2.3636	0.1	1720.6
23792	17.61	2.0909	0.1	1585.8
23793	17.519	2.1818	0.1	1666.9
23794	17.61	1.9091	0.1	1530.6
23795	17.519	2.	0.1	1605.5
23796	17.61	1.7273	0.1	1472.3
23797	17.519	1.8182	0.1	1539.3
23798	17.61	1.5455	0.1	1413.2
23799	17.519	1.6364	0.1	1471.1
23800	17.61	1.3636	0.1	1355.4
23801	17.519	1.4545	0.1	1403.3
23802	17.61	1.1818	0.1	1300.5
23803	17.519	1.2727	0.1	1338.2
23804	17.61	1.	0.1	1250.4
23805	17.519	1.0909	0.1	1277.8
23806	17.61	0.81818	0.1	1206.3
23807	17.519	0.90909	0.1	1223.9
23808	17.61	0.63636	0.1	1169.4
23809	17.519	0.72727	0.1	1177.8
23810	17.61	0.45455	0.1	1140.3
23811	17.519	0.54545	0.1	1140.5
23812	17.61	0.27273	0.1	1120.1
23813	17.519	0.36364	0.1	1112.5
23814	17.519	0.18182	0.1	1095.4
23815	17.61	9.0909e-002	0.1	1102.3
23816	17.427	5.7273	0.1	1088.
23817	17.336	5.8182	0.1	1053.
23818	17.427	5.9091	0.1	1066.3
23819	17.427	5.5455	0.1	1113.
23820	17.336	5.6364	0.1	1073.9
23821	17.427	5.3636	0.1	1149.3
23822	17.336	5.4545	0.1	1108.5
23823	17.427	5.1818	0.1	1195.9
23824	17.336	5.2727	0.1	1155.
23825	17.427	5.	0.1	1251.9
23826	17.336	5.0909	0.1	1213.
23827	17.427	4.8182	0.1	1316.1
23828	17.336	4.9091	0.1	1281.5
23829	17.427	4.6364	0.1	1386.8
23830	17.336	4.7273	0.1	1358.9
23831	17.427	4.4545	0.1	1461.7
23832	17.336	4.5455	0.1	1443.
23833	17.427	4.2727	0.1	1538.6
23834	17.336	4.3636	0.1	1531.
23835	17.427	4.0909	0.1	1614.7
23836	17.336	4.1818	0.1	1620.1
23837	17.427	3.9091	0.1	1686.9
23838	17.336	4.	0.1	1706.7
23839	17.427	3.7273	0.1	1752.
23840	17.336	3.8182	0.1	1787.
23841	17.427	3.5455	0.1	1806.7
23842	17.336	3.6364	0.1	1857.
23843	17.427	3.3636	0.1	1848.
23844	17.336	3.4545	0.1	1912.7
23845	17.427	3.1818	0.1	1873.6
23846	17.336	3.2727	0.1	1951.3
23847	17.427	3.	0.1	1882.3
23848	17.336	3.0909	0.1	1971.
23849	17.427	2.8182	0.1	1873.6
23850	17.336	2.9091	0.1	1971.
23851	17.427	2.6364	0.1	1848.
23852	17.336	2.7273	0.1	1951.3
23853	17.427	2.4545	0.1	1806.7
23854	17.336	2.5455	0.1	1912.7
23855	17.427	2.2727	0.1	1752.
23856	17.336	2.3636	0.1	1857.
23857	17.427	2.0909	0.1	1686.9
23858	17.336	2.1818	0.1	1787.
23859	17.427	1.9091	0.1	1614.7
23860	17.336	2.	0.1	1706.7
23861	17.427	1.7273	0.1	1538.6
23862	17.336	1.8182	0.1	1620.1
23863	17.427	1.5455	0.1	1461.7
23864	17.336	1.6364	0.1	1531.
23865	17.427	1.3636	0.1	1386.8
23866	17.336	1.4545	0.1	1443.
23867	17.427	1.1818	0.1	1316.1
23868	17.336	1.2727	0.1	1358.9
23869	17.427	1.	0.1	1251.9
23870	17.336	1.0909	0.1	1281.5
23871	17.427	0.81818	0.1	1195.9
23872	17.336	0.90909	0.1	1213.
23873	17.427	0.63636	0.1	1149.3
23874	17.336	0.72727	0.1	1155.
23875	17.427	0.45455	0.1	1113.
23876	17.336	0.54545	0.1	1108.5
23877	17.427	0.27273	0.1	1088.
23878	17.336	0.36364	0.1	1073.9
23879	17.336	0.18182	0.1	1053.
23880	17.427	9.0909e-002	0.1	1066.3
23881	17.245	5.7273	0.1	1039.2
23882	17.153	5.8182	0.1	992.53
23883	17.245	5.9091	0.1	1013.
23884	17.245	5.5455	0.1	1069.7
23885	17.153	5.6364	0.1	1017.6
23886	17.245	5.3636	0.1	1114.6
23887	17.153	5.4545	0.1	1059.7
23888	17.245	5.1818	0.1	1172.8
23889	17.153	5.2727	0.1	1117.1
23890	17.245	5.	0.1	1243.5
23891	17.153	5.0909	0.1	1189.5
23892	17.245	4.8182	0.1	1325.3
23893	17.153	4.9091	0.1	1275.9
23894	17.245	4.6364	0.1	1416.1
23895	17.153	4.7273	0.1	1374.7
23896	17.245	4.4545	0.1	1513.2
23897	17.153	4.5455	0.1	1483.1
23898	17.245	4.2727	0.1	1613.3
23899	17.153	4.3636	0.1	1597.7
23900	17.245	4.0909	0.1	1712.7
23901	17.153	4.1818	0.1	1714.4
23902	17.245	3.9091	0.1	1807.2
23903	17.153	4.	0.1	1828.1
23904	17.245	3.7273	0.1	1892.1
23905	17.153	3.8182	0.1	1933.2
23906	17.245	3.5455	0.1	1962.8
23907	17.153	3.6364	0.1	2023.7
23908	17.245	3.3636	0.1	2015.5
23909	17.153	3.4545	0.1	2094.5
23910	17.245	3.1818	0.1	2047.9
23911	17.153	3.2727	0.1	2142.4
23912	17.245	3.	0.1	2058.8
23913	17.153	3.0909	0.1	2166.5
23914	17.245	2.8182	0.1	2047.9
23915	17.153	2.9091	0.1	2166.5
23916	17.245	2.6364	0.1	2015.5
23917	17.153	2.7273	0.1	2142.4
23918	17.245	2.4545	0.1	1962.8
23919	17.153	2.5455	0.1	2094.5
23920	17.245	2.2727	0.1	1892.1
23921	17.153	2.3636	0.1	2023.7
23922	17.245	2.0909	0.1	1807.2
23923	17.153	2.1818	0.1	1933.2
23924	17.245	1.9091	0.1	1712.7
23925	17.153	2.	0.1	1828.1
23926	17.245	1.7273	0.1	1613.3
23927	17.153	1.8182	0.1	1714.4
23928	17.245	1.5455	0.1	1513.2
23929	17.153	1.6364	0.1	1597.7
23930	17.245	1.3636	0.1	1416.1
23931	17.153	1.4545	0.1	1483.1
23932	17.245	1.1818	0.1	1325.3
23933	17.153	1.2727	0.1	1374.7
23934	17.245	1.	0.1	1243.5
23935	17.153	1.0909	0.1	1275.9
23936	17.245	0.81818	0.1	1172.8
23937	17.153	0.90909	0.1	1189.5
23938	17.245	0.63636	0.1	1114.6
23939	17.153	0.72727	0.1	1117.1
23940	17.245	0.45455	0.1	1069.7
23941	17.153	0.54545	0.1	1059.7
23942	17.245	0.27273	0.1	1039.2
23943	17.153	0.36364	0.1	1017.6
23944	17.153	0.18182	0.1	992.53
23945	17.245	9.0909e-002	0.1	1013.
23946	17.062	5.7273	0.1	971.26
23947	16.971	5.8182	0.1	911.68
23948	17.062	5.9091	0.1	940.06
23949	17.062	5.5455	0.1	1008.
23950	16.971	5.6364	0.1	941.22
23951	17.062	5.3636	0.1	1063.
23952	16.971	5.4545	0.1	992.
23953	17.062	5.1818	0.1	1135.
23954	16.971	5.2727	0.1	1062.2
23955	17.062	5.	0.1	1223.5
23956	16.971	5.0909	0.1	1151.6
23957	17.062	4.8182	0.1	1327.1
23958	16.971	4.9091	0.1	1259.7
23959	17.062	4.6364	0.1	1443.4
23960	16.971	4.7273	0.1	1384.9
23961	17.062	4.4545	0.1	1569.3
23962	16.971	4.5455	0.1	1524.6
23963	17.062	4.2727	0.1	1700.2
23964	16.971	4.3636	0.1	1674.5
23965	17.062	4.0909	0.1	1830.8
23966	16.971	4.1818	0.1	1828.7
23967	17.062	3.9091	0.1	1954.8
23968	16.971	4.	0.1	1979.4
23969	17.062	3.7273	0.1	2065.
23970	16.971	3.8182	0.1	2117.4
23971	17.062	3.5455	0.1	2155.
23972	16.971	3.6364	0.1	2233.1
23973	17.062	3.3636	0.1	2220.5
23974	16.971	3.4545	0.1	2319.8
23975	17.062	3.1818	0.1	2259.7
23976	16.971	3.2727	0.1	2375.9
23977	17.062	3.	0.1	2272.7
23978	16.971	3.0909	0.1	2403.
23979	17.062	2.8182	0.1	2259.7
23980	16.971	2.9091	0.1	2403.
23981	17.062	2.6364	0.1	2220.5
23982	16.971	2.7273	0.1	2375.9
23983	17.062	2.4545	0.1	2155.
23984	16.971	2.5455	0.1	2319.8
23985	17.062	2.2727	0.1	2065.
23986	16.971	2.3636	0.1	2233.1
23987	17.062	2.0909	0.1	1954.8
23988	16.971	2.1818	0.1	2117.4
23989	17.062	1.9091	0.1	1830.8
23990	16.971	2.	0.1	1979.4
23991	17.062	1.7273	0.1	1700.2
23992	16.971	1.8182	0.1	1828.7
23993	17.062	1.5455	0.1	1569.3
23994	16.971	1.6364	0.1	1674.5
23995	17.062	1.3636	0.1	1443.4
23996	16.971	1.4545	0.1	1524.6
23997	17.062	1.1818	0.1	1327.1
23998	16.971	1.2727	0.1	1384.9
23999	17.062	1.	0.1	1223.5
24000	16.971	1.0909	0.1	1259.7
24001	17.062	0.81818	0.1	1135.
24002	16.971	0.90909	0.1	1151.6
24003	17.062	0.63636	0.1	1063.
24004	16.971	0.72727	0.1	1062.2
24005	17.062	0.45455	0.1	1008.
24006	16.971	0.54545	0.1	992.
24007	17.062	0.27273	0.1	971.26
24008	16.971	0.36364	0.1	941.22
24009	16.971	0.18182	0.1	911.68
24010	17.062	9.0909e-002	0.1	940.06
24011	16.88	5.7273	0.1	882.1
24012	16.788	5.8182	0.1	808.65
24013	16.88	5.9091	0.1	845.28
24014	16.88	5.5455	0.1	926.
24015	16.788	5.6364	0.1	843.4
24016	16.88	5.3636	0.1	992.72
24017	16.788	5.4545	0.1	904.57
24018	16.88	5.1818	0.1	1081.
24019	16.788	5.2727	0.1	989.66
24020	16.88	5.	0.1	1190.5
24021	16.788	5.0909	0.1	1098.6
24022	16.88	4.8182	0.1	1320.5
24023	16.788	4.9091	0.1	1231.4
24024	16.88	4.6364	0.1	1469.
24025	16.788	4.7273	0.1	1388.3
24026	16.88	4.4545	0.1	1632.5
24027	16.788	4.5455	0.1	1567.9
24028	16.88	4.2727	0.1	1805.2
24029	16.788	4.3636	0.1	1765.9
24030	16.88	4.0909	0.1	1978.8
24031	16.788	4.1818	0.1	1973.4
24032	16.88	3.9091	0.1	2142.9
24033	16.788	4.	0.1	2177.1
24034	16.88	3.7273	0.1	2285.4
24035	16.788	3.8182	0.1	2359.8
24036	16.88	3.5455	0.1	2396.9
24037	16.788	3.6364	0.1	2504.4
24038	16.88	3.3636	0.1	2473.6
24039	16.788	3.4545	0.1	2603.2
24040	16.88	3.1818	0.1	2517.1
24041	16.788	3.2727	0.1	2660.7
24042	16.88	3.	0.1	2531.1
24043	16.788	3.0909	0.1	2686.3
24044	16.88	2.8182	0.1	2517.1
24045	16.788	2.9091	0.1	2686.3
24046	16.88	2.6364	0.1	2473.6
24047	16.788	2.7273	0.1	2660.7
24048	16.88	2.4545	0.1	2396.9
24049	16.788	2.5455	0.1	2603.2
24050	16.88	2.2727	0.1	2285.4
24051	16.788	2.3636	0.1	2504.4
24052	16.88	2.0909	0.1	2142.9
24053	16.788	2.1818	0.1	2359.8
24054	16.88	1.9091	0.1	1978.8
24055	16.788	2.	0.1	2177.1
24056	16.88	1.7273	0.1	1805.2
24057	16.788	1.8182	0.1	1973.4
24058	16.88	1.5455	0.1	1632.5
24059	16.788	1.6364	0.1	1765.9
24060	16.88	1.3636	0.1	1469.
24061	16.788	1.4545	0.1	1567.9
24062	16.88	1.1818	0.1	1320.5
24063	16.788	1.2727	0.1	1388.3
24064	16.88	1.	0.1	1190.5
24065	16.788	1.0909	0.1	1231.4
24066	16.88	0.81818	0.1	1081.
24067	16.788	0.90909	0.1	1098.6
24068	16.88	0.63636	0.1	992.72
24069	16.788	0.72727	0.1	989.66
24070	16.88	0.45455	0.1	926.
24071	16.788	0.54545	0.1	904.57
24072	16.88	0.27273	0.1	882.1
24073	16.788	0.36364	0.1	843.4
24074	16.788	0.18182	0.1	808.65
24075	16.88	9.0909e-002	0.1	845.28
24076	16.697	5.7273	0.1	770.59
24077	16.606	5.8182	0.1	682.7
24078	16.697	5.9091	0.1	727.23
24079	16.697	5.5455	0.1	823.32
24080	16.606	5.6364	0.1	724.74
24081	16.697	5.3636	0.1	904.13
24082	16.606	5.4545	0.1	799.35
24083	16.697	5.1818	0.1	1011.
24084	16.606	5.2727	0.1	901.83
24085	16.697	5.	0.1	1144.2
24086	16.606	5.0909	0.1	1031.7
24087	16.697	4.8182	0.1	1304.4
24088	16.606	4.9091	0.1	1190.9
24089	16.697	4.6364	0.1	1492.2
24090	16.606	4.7273	0.1	1382.9
24091	16.697	4.4545	0.1	1705.6
24092	16.606	4.5455	0.1	1612.
24093	16.697	4.2727	0.1	1937.4
24094	16.606	4.3636	0.1	1876.6
24095	16.697	4.0909	0.1	2173.8
24096	16.606	4.1818	0.1	2166.3
24097	16.697	3.9091	0.1	2394.9
24098	16.606	4.	0.1	2454.9
24099	16.697	3.7273	0.1	2578.
24100	16.606	3.8182	0.1	2699.7
24101	16.697	3.5455	0.1	2708.5
24102	16.606	3.6364	0.1	2870.2
24103	16.697	3.3636	0.1	2787.3
24104	16.606	3.4545	0.1	2961.9
24105	16.697	3.1818	0.1	2826.5
24106	16.606	3.2727	0.1	3001.8
24107	16.697	3.	0.1	2838.1
24108	16.606	3.0909	0.1	3015.2
24109	16.697	2.8182	0.1	2826.5
24110	16.606	2.9091	0.1	3015.2
24111	16.697	2.6364	0.1	2787.3
24112	16.606	2.7273	0.1	3001.8
24113	16.697	2.4545	0.1	2708.5
24114	16.606	2.5455	0.1	2961.9
24115	16.697	2.2727	0.1	2578.
24116	16.606	2.3636	0.1	2870.2
24117	16.697	2.0909	0.1	2394.9
24118	16.606	2.1818	0.1	2699.7
24119	16.697	1.9091	0.1	2173.8
24120	16.606	2.	0.1	2454.9
24121	16.697	1.7273	0.1	1937.4
24122	16.606	1.8182	0.1	2166.3
24123	16.697	1.5455	0.1	1705.6
24124	16.606	1.6364	0.1	1876.6
24125	16.697	1.3636	0.1	1492.2
24126	16.606	1.4545	0.1	1612.
24127	16.697	1.1818	0.1	1304.4
24128	16.606	1.2727	0.1	1382.9
24129	16.697	1.	0.1	1144.2
24130	16.606	1.0909	0.1	1190.9
24131	16.697	0.81818	0.1	1011.
24132	16.606	0.90909	0.1	1031.7
24133	16.697	0.63636	0.1	904.13
24134	16.606	0.72727	0.1	901.83
24135	16.697	0.45455	0.1	823.32
24136	16.606	0.54545	0.1	799.35
24137	16.697	0.27273	0.1	770.59
24138	16.606	0.36364	0.1	724.74
24139	16.606	0.18182	0.1	682.7
24140	16.697	9.0909e-002	0.1	727.23
24141	16.514	5.7273	0.1	637.76
24142	16.423	5.8182	0.1	534.66
24143	16.514	5.9091	0.1	585.64
24144	16.514	5.5455	0.1	703.33
24145	16.423	5.6364	0.1	590.52
24146	16.514	5.3636	0.1	801.8
24147	16.423	5.4545	0.1	684.63
24148	16.514	5.1818	0.1	929.02
24149	16.423	5.2727	0.1	806.99
24150	16.514	5.	0.1	1086.1
24151	16.423	5.0909	0.1	957.02
24152	16.514	4.8182	0.1	1277.7
24153	16.423	4.9091	0.1	1139.7
24154	16.514	4.6364	0.1	1510.9
24155	16.423	4.7273	0.1	1365.1
24156	16.514	4.4545	0.1	1790.1
24157	16.423	4.5455	0.1	1648.1
24158	16.514	4.2727	0.1	2110.4
24159	16.423	4.3636	0.1	2006.6
24160	16.514	4.0909	0.1	2450.
24161	16.423	4.1818	0.1	2443.8
24162	16.514	3.9091	0.1	2759.7
24163	16.423	4.	0.1	2878.1
24164	16.514	3.7273	0.1	2988.9
24165	16.423	3.8182	0.1	3228.7
24166	16.514	3.5455	0.1	3118.8
24167	16.423	3.6364	0.1	3382.7
24168	16.514	3.3636	0.1	3171.3
24169	16.423	3.4545	0.1	3407.8
24170	16.514	3.1818	0.1	3185.6
24171	16.423	3.2727	0.1	3389.4
24172	16.514	3.	0.1	3187.7
24173	16.423	3.0909	0.1	3372.6
24174	16.514	2.8182	0.1	3185.6
24175	16.423	2.9091	0.1	3372.6
24176	16.514	2.6364	0.1	3171.3
24177	16.423	2.7273	0.1	3389.4
24178	16.514	2.4545	0.1	3118.8
24179	16.423	2.5455	0.1	3407.8
24180	16.514	2.2727	0.1	2988.9
24181	16.423	2.3636	0.1	3382.7
24182	16.514	2.0909	0.1	2759.7
24183	16.423	2.1818	0.1	3228.7
24184	16.514	1.9091	0.1	2450.
24185	16.423	2.	0.1	2878.1
24186	16.514	1.7273	0.1	2110.4
24187	16.423	1.8182	0.1	2443.8
24188	16.514	1.5455	0.1	1790.1
24189	16.423	1.6364	0.1	2006.6
24190	16.514	1.3636	0.1	1510.9
24191	16.423	1.4545	0.1	1648.
24192	16.514	1.1818	0.1	1277.7
24193	16.423	1.2727	0.1	1365.1
24194	16.514	1.	0.1	1086.1
24195	16.423	1.0909	0.1	1139.7
24196	16.514	0.81818	0.1	929.02
24197	16.423	0.90909	0.1	957.02
24198	16.514	0.63636	0.1	801.8
24199	16.423	0.72727	0.1	806.99
24200	16.514	0.45455	0.1	703.33
24201	16.423	0.54545	0.1	684.63
24202	16.514	0.27273	0.1	637.76
24203	16.423	0.36364	0.1	590.52
24204	16.423	0.18182	0.1	534.66
24205	16.514	9.0909e-002	0.1	585.64
24206	16.332	5.7273	0.1	489.39
24207	16.241	5.8182	0.1	372.92
24208	16.332	5.9091	0.1	421.5
24209	16.332	5.5455	0.1	577.63
24210	16.241	5.6364	0.1	463.97
24211	16.332	5.3636	0.1	698.49
24212	16.241	5.4545	0.1	588.14
24213	16.332	5.1818	0.1	845.35
24214	16.241	5.2727	0.1	732.49
24215	16.332	5.	0.1	1022.2
24216	16.241	5.0909	0.1	900.5
24217	16.332	4.8182	0.1	1240.
24218	16.241	4.9091	0.1	1102.
24219	16.332	4.6364	0.1	1516.3
24220	16.241	4.7273	0.1	1353.6
24221	16.332	4.4545	0.1	1877.
24222	16.241	4.5455	0.1	1687.7
24223	16.332	4.2727	0.1	2348.9
24224	16.241	4.3636	0.1	2150.6
24225	16.332	4.0909	0.1	2873.2
24226	16.241	4.1818	0.1	2943.3
24227	16.332	3.9091	0.1	3342.8
24228	16.241	4.	0.1	3877.2
24229	16.332	3.7273	0.1	3612.5
24230	16.241	3.8182	0.1	4172.7
24231	16.332	3.5455	0.1	3662.3
24232	16.241	3.6364	0.1	4092.9
24233	16.332	3.3636	0.1	3618.9
24234	16.241	3.4545	0.1	3908.6
24235	16.332	3.1818	0.1	3570.8
24236	16.241	3.2727	0.1	3780.3
24237	16.332	3.	0.1	3552.3
24238	16.241	3.0909	0.1	3715.1
24239	16.332	2.8182	0.1	3570.8
24240	16.241	2.9091	0.1	3715.1
24241	16.332	2.6364	0.1	3618.9
24242	16.241	2.7273	0.1	3780.3
24243	16.332	2.4545	0.1	3662.3
24244	16.241	2.5455	0.1	3908.6
24245	16.332	2.2727	0.1	3612.5
24246	16.241	2.3636	0.1	4092.9
24247	16.332	2.0909	0.1	3342.8
24248	16.241	2.1818	0.1	4172.7
24249	16.332	1.9091	0.1	2873.2
24250	16.241	2.	0.1	3877.2
24251	16.332	1.7273	0.1	2348.9
24252	16.241	1.8182	0.1	2943.3
24253	16.332	1.5455	0.1	1877.
24254	16.241	1.6364	0.1	2150.6
24255	16.332	1.3636	0.1	1516.3
24256	16.241	1.4545	0.1	1687.7
24257	16.332	1.1818	0.1	1240.
24258	16.241	1.2727	0.1	1353.6
24259	16.332	1.	0.1	1022.2
24260	16.241	1.0909	0.1	1102.
24261	16.332	0.81818	0.1	845.35
24262	16.241	0.90909	0.1	900.5
24263	16.332	0.63636	0.1	698.49
24264	16.241	0.72727	0.1	732.49
24265	16.332	0.45455	0.1	577.63
24266	16.241	0.54545	0.1	588.14
24267	16.332	0.27273	0.1	489.39
24268	16.241	0.36364	0.1	463.97
24269	16.241	0.18182	0.1	372.92
24270	16.332	9.0909e-002	0.1	421.5
24271	16.149	5.7273	0.1	356.53
24272	16.058	5.8182	0.1	214.62
24273	16.149	5.9091	0.1	242.21
24274	16.149	5.5455	0.1	488.08
24275	16.058	5.6364	0.1	335.12
24276	16.149	5.3636	0.1	636.11
24277	16.058	5.4545	0.1	458.57
24278	16.149	5.1818	0.1	801.97
24279	16.058	5.2727	0.1	589.02
24280	16.149	5.	0.1	995.88
24281	16.058	5.0909	0.1	734.63
24282	16.149	4.8182	0.1	1234.2
24283	16.058	4.9091	0.1	906.23
24284	16.149	4.6364	0.1	1548.6
24285	16.058	4.7273	0.1	1120.2
24286	16.149	4.4545	0.1	1995.6
24287	16.058	4.5455	0.1	1410.5
24288	16.149	4.2727	0.1	2773.9
24289	16.058	4.3636	0.1	1827.3
24290	16.149	4.0909	0.1	3937.7
24291	16.058	4.1818	0.1	2592.1
24292	16.149	3.9091	0.1	4671.4
24293	16.058	4.	0.1	6988.6
24294	16.149	3.7273	0.1	4628.1
24295	16.058	3.8182	0.1	5597.8
24296	16.149	3.5455	0.1	4329.
24297	16.058	3.6364	0.1	4806.4
24298	16.149	3.3636	0.1	4064.3
24299	16.058	3.4545	0.1	4336.8
24300	16.149	3.1818	0.1	3920.3
24301	16.058	3.2727	0.1	4087.
24302	16.149	3.	0.1	3873.8
24303	16.058	3.0909	0.1	3975.3
24304	16.149	2.8182	0.1	3920.3
24305	16.058	2.9091	0.1	3975.3
24306	16.149	2.6364	0.1	4064.3
24307	16.058	2.7273	0.1	4087.
24308	16.149	2.4545	0.1	4329.
24309	16.058	2.5455	0.1	4336.8
24310	16.149	2.2727	0.1	4628.1
24311	16.058	2.3636	0.1	4806.4
24312	16.149	2.0909	0.1	4671.4
24313	16.058	2.1818	0.1	5597.8
24314	16.149	1.9091	0.1	3937.7
24315	16.058	2.	0.1	6988.6
24316	16.149	1.7273	0.1	2773.9
24317	16.058	1.8182	0.1	2592.1
24318	16.149	1.5455	0.1	1995.6
24319	16.058	1.6364	0.1	1827.3
24320	16.149	1.3636	0.1	1548.6
24321	16.058	1.4545	0.1	1410.5
24322	16.149	1.1818	0.1	1234.2
24323	16.058	1.2727	0.1	1120.2
24324	16.149	1.	0.1	995.88
24325	16.058	1.0909	0.1	906.23
24326	16.149	0.81818	0.1	801.97
24327	16.058	0.90909	0.1	734.63
24328	16.149	0.63636	0.1	636.11
24329	16.058	0.72727	0.1	589.02
24330	16.149	0.45455	0.1	488.08
24331	16.058	0.54545	0.1	458.57
24332	16.149	0.27273	0.1	356.53
24333	16.058	0.36364	0.1	335.12
24334	16.058	0.18182	0.1	214.62
24335	16.149	9.0909e-002	0.1	242.21
24336	0.18372	0.27273	0.1	4172.3
24337	0.27558	0.18182	0.1	4456.9
24338	9.186e-002	0.18182	0.1	3191.1
24339	0.18372	9.0909e-002	0.1	3686.9
24340	0.18372	0.45455	0.1	4829.5
24341	0.27558	0.36364	0.1	4821.1
24342	9.186e-002	0.36364	0.1	4547.5
24343	0.18372	0.63636	0.1	5446.5
24344	0.27558	0.54545	0.1	5312.3
24345	9.186e-002	0.54545	0.1	5427.7
24346	0.18372	0.81818	0.1	5912.5
24347	0.27558	0.72727	0.1	5742.4
24348	9.186e-002	0.72727	0.1	6019.9
24349	0.18372	1.	0.1	6262.5
24350	0.27558	0.90909	0.1	6093.8
24351	9.186e-002	0.90909	0.1	6436.5
24352	0.18372	1.1818	0.1	6527.7
24353	0.27558	1.0909	0.1	6373.2
24354	9.186e-002	1.0909	0.1	6741.2
24355	0.18372	1.3636	0.1	6731.9
24356	0.27558	1.2727	0.1	6594.8
24357	9.186e-002	1.2727	0.1	6970.5
24358	0.18372	1.5455	0.1	6890.8
24359	0.27558	1.4545	0.1	6770.7
24360	9.186e-002	1.4545	0.1	7146.2
24361	0.18372	1.7273	0.1	7015.2
24362	0.27558	1.6364	0.1	6910.6
24363	9.186e-002	1.6364	0.1	7282.5
24364	0.18372	1.9091	0.1	7112.6
24365	0.27558	1.8182	0.1	7021.7
24366	9.186e-002	1.8182	0.1	7388.9
24367	0.18372	2.0909	0.1	7188.3
24368	0.27558	2.	0.1	7109.3
24369	9.186e-002	2.	0.1	7471.6
24370	0.18372	2.2727	0.1	7246.2
24371	0.27558	2.1818	0.1	7177.5
24372	9.186e-002	2.1818	0.1	7535.3
24373	0.18372	2.4545	0.1	7288.8
24374	0.27558	2.3636	0.1	7229.
24375	9.186e-002	2.3636	0.1	7583.1
24376	0.18372	2.6364	0.1	7318.1
24377	0.27558	2.5455	0.1	7266.
24378	9.186e-002	2.5455	0.1	7617.3
24379	0.18372	2.8182	0.1	7335.1
24380	0.27558	2.7273	0.1	7290.
24381	9.186e-002	2.7273	0.1	7639.3
24382	0.18372	3.	0.1	7340.8
24383	0.27558	2.9091	0.1	7301.7
24384	9.186e-002	2.9091	0.1	7650.1
24385	0.18372	3.1818	0.1	7335.1
24386	0.27558	3.0909	0.1	7301.7
24387	9.186e-002	3.0909	0.1	7650.1
24388	0.18372	3.3636	0.1	7318.1
24389	0.27558	3.2727	0.1	7290.
24390	9.186e-002	3.2727	0.1	7639.3
24391	0.18372	3.5455	0.1	7288.8
24392	0.27558	3.4545	0.1	7266.
24393	9.186e-002	3.4545	0.1	7617.3
24394	0.18372	3.7273	0.1	7246.2
24395	0.27558	3.6364	0.1	7229.
24396	9.186e-002	3.6364	0.1	7583.1
24397	0.18372	3.9091	0.1	7188.3
24398	0.27558	3.8182	0.1	7177.5
24399	9.186e-002	3.8182	0.1	7535.3
24400	0.18372	4.0909	0.1	7112.6
24401	0.27558	4.	0.1	7109.3
24402	9.186e-002	4.	0.1	7471.6
24403	0.18372	4.2727	0.1	7015.2
24404	0.27558	4.1818	0.1	7021.7
24405	9.186e-002	4.1818	0.1	7388.9
24406	0.18372	4.4545	0.1	6890.8
24407	0.27558	4.3636	0.1	6910.6
24408	9.186e-002	4.3636	0.1	7282.5
24409	0.18372	4.6364	0.1	6731.9
24410	0.27558	4.5455	0.1	6770.7
24411	9.186e-002	4.5455	0.1	7146.2
24412	0.18372	4.8182	0.1	6527.7
24413	0.27558	4.7273	0.1	6594.8
24414	9.186e-002	4.7273	0.1	6970.5
24415	0.18372	5.	0.1	6262.5
24416	0.27558	4.9091	0.1	6373.2
24417	9.186e-002	4.9091	0.1	6741.2
24418	0.18372	5.1818	0.1	5912.5
24419	0.27558	5.0909	0.1	6093.8
24420	9.186e-002	5.0909	0.1	6436.5
24421	0.18372	5.3636	0.1	5446.5
24422	0.27558	5.2727	0.1	5742.4
24423	9.186e-002	5.2727	0.1	6019.9
24424	0.18372	5.5455	0.1	4829.5
24425	0.27558	5.4545	0.1	5312.3
24426	9.186e-002	5.4545	0.1	5427.7
24427	0.18372	5.7273	0.1	4172.3
24428	0.27558	5.6364	0.1	4821.1
24429	9.186e-002	5.6364	0.1	4547.5
24430	0.27558	5.8182	0.1	4456.9
24431	9.186e-002	5.8182	0.1	3191.1
24432	0.18372	5.9091	0.1	3686.9
24433	0.36744	0.27273	0.1	5090.5
24434	0.4593	0.18182	0.1	5274.
24435	0.36744	9.0909e-002	0.1	4871.9
24436	0.36744	0.45455	0.1	5303.6
24437	0.4593	0.36364	0.1	5339.5
24438	0.36744	0.63636	0.1	5615.5
24439	0.4593	0.54545	0.1	5543.7
24440	0.36744	0.81818	0.1	5930.4
24441	0.4593	0.72727	0.1	5789.9
24442	0.36744	1.	0.1	6209.1
24443	0.4593	0.90909	0.1	6032.9
24444	0.36744	1.1818	0.1	6443.2
24445	0.4593	1.0909	0.1	6252.
24446	0.36744	1.3636	0.1	6635.4
24447	0.4593	1.2727	0.1	6440.9
24448	0.36744	1.5455	0.1	6791.7
24449	0.4593	1.4545	0.1	6599.9
24450	0.36744	1.7273	0.1	6917.8
24451	0.4593	1.6364	0.1	6731.5
24452	0.36744	1.9091	0.1	7018.9
24453	0.4593	1.8182	0.1	6839.2
24454	0.36744	2.0909	0.1	7098.7
24455	0.4593	2.	0.1	6926.1
24456	0.36744	2.2727	0.1	7160.5
24457	0.4593	2.1818	0.1	6994.8
24458	0.36744	2.4545	0.1	7206.3
24459	0.4593	2.3636	0.1	7047.4
24460	0.36744	2.6364	0.1	7238.
24461	0.4593	2.5455	0.1	7085.5
24462	0.36744	2.8182	0.1	7256.6
24463	0.4593	2.7273	0.1	7110.3
24464	0.36744	3.	0.1	7262.7
24465	0.4593	2.9091	0.1	7122.5
24466	0.36744	3.1818	0.1	7256.6
24467	0.4593	3.0909	0.1	7122.5
24468	0.36744	3.3636	0.1	7238.
24469	0.4593	3.2727	0.1	7110.3
24470	0.36744	3.5455	0.1	7206.3
24471	0.4593	3.4545	0.1	7085.5
24472	0.36744	3.7273	0.1	7160.5
24473	0.4593	3.6364	0.1	7047.4
24474	0.36744	3.9091	0.1	7098.7
24475	0.4593	3.8182	0.1	6994.8
24476	0.36744	4.0909	0.1	7018.9
24477	0.4593	4.	0.1	6926.1
24478	0.36744	4.2727	0.1	6917.8
24479	0.4593	4.1818	0.1	6839.2
24480	0.36744	4.4545	0.1	6791.7
24481	0.4593	4.3636	0.1	6731.5
24482	0.36744	4.6364	0.1	6635.4
24483	0.4593	4.5455	0.1	6599.9
24484	0.36744	4.8182	0.1	6443.2
24485	0.4593	4.7273	0.1	6440.9
24486	0.36744	5.	0.1	6209.1
24487	0.4593	4.9091	0.1	6252.
24488	0.36744	5.1818	0.1	5930.4
24489	0.4593	5.0909	0.1	6032.9
24490	0.36744	5.3636	0.1	5615.5
24491	0.4593	5.2727	0.1	5789.9
24492	0.36744	5.5455	0.1	5303.6
24493	0.4593	5.4545	0.1	5543.7
24494	0.36744	5.7273	0.1	5090.5
24495	0.4593	5.6364	0.1	5339.5
24496	0.4593	5.8182	0.1	5274.
24497	0.36744	5.9091	0.1	4871.9
24498	0.55116	0.27273	0.1	5521.4
24499	0.64302	0.18182	0.1	5665.8
24500	0.55116	9.0909e-002	0.1	5413.4
24501	0.55116	0.45455	0.1	5575.7
24502	0.64302	0.36364	0.1	5643.1
24503	0.55116	0.63636	0.1	5714.9
24504	0.64302	0.54545	0.1	5719.1
24505	0.55116	0.81818	0.1	5891.4
24506	0.64302	0.72727	0.1	5842.1
24507	0.55116	1.	0.1	6076.
24508	0.64302	0.90909	0.1	5988.3
24509	0.55116	1.1818	0.1	6250.4
24510	0.64302	1.0909	0.1	6138.7
24511	0.55116	1.3636	0.1	6406.
24512	0.64302	1.2727	0.1	6281.2
24513	0.55116	1.5455	0.1	6540.2
24514	0.64302	1.4545	0.1	6409.7
24515	0.55116	1.7273	0.1	6653.3
24516	0.64302	1.6364	0.1	6521.7
24517	0.55116	1.9091	0.1	6746.7
24518	0.64302	1.8182	0.1	6616.9
24519	0.55116	2.0909	0.1	6822.3
24520	0.64302	2.	0.1	6695.9
24521	0.55116	2.2727	0.1	6881.8
24522	0.64302	2.1818	0.1	6759.7
24523	0.55116	2.4545	0.1	6926.6
24524	0.64302	2.3636	0.1	6809.3
24525	0.55116	2.6364	0.1	6957.8
24526	0.64302	2.5455	0.1	6845.7
24527	0.55116	2.8182	0.1	6976.2
24528	0.64302	2.7273	0.1	6869.6
24529	0.55116	3.	0.1	6982.2
24530	0.64302	2.9091	0.1	6881.4
24531	0.55116	3.1818	0.1	6976.2
24532	0.64302	3.0909	0.1	6881.4
24533	0.55116	3.3636	0.1	6957.8
24534	0.64302	3.2727	0.1	6869.6
24535	0.55116	3.5455	0.1	6926.6
24536	0.64302	3.4545	0.1	6845.7
24537	0.55116	3.7273	0.1	6881.8
24538	0.64302	3.6364	0.1	6809.3
24539	0.55116	3.9091	0.1	6822.3
24540	0.64302	3.8182	0.1	6759.7
24541	0.55116	4.0909	0.1	6746.7
24542	0.64302	4.	0.1	6695.9
24543	0.55116	4.2727	0.1	6653.3
24544	0.64302	4.1818	0.1	6616.9
24545	0.55116	4.4545	0.1	6540.2
24546	0.64302	4.3636	0.1	6521.7
24547	0.55116	4.6364	0.1	6406.
24548	0.64302	4.5455	0.1	6409.7
24549	0.55116	4.8182	0.1	6250.4
24550	0.64302	4.7273	0.1	6281.2
24551	0.55116	5.	0.1	6076.
24552	0.64302	4.9091	0.1	6138.7
24553	0.55116	5.1818	0.1	5891.4
24554	0.64302	5.0909	0.1	5988.3
24555	0.55116	5.3636	0.1	5714.9
24556	0.64302	5.2727	0.1	5842.1
24557	0.55116	5.5455	0.1	5575.7
24558	0.64302	5.4545	0.1	5719.1
24559	0.55116	5.7273	0.1	5521.4
24560	0.64302	5.6364	0.1	5643.1
24561	0.64302	5.8182	0.1	5665.8
24562	0.55116	5.9091	0.1	5413.4
24563	0.73488	0.27273	0.1	5787.5
24564	0.82674	0.18182	0.1	5884.8
24565	0.73488	9.0909e-002	0.1	5722.5
24566	0.73488	0.45455	0.1	5785.6
24567	0.82674	0.36364	0.1	5835.8
24568	0.73488	0.63636	0.1	5844.4
24569	0.82674	0.54545	0.1	5856.3
24570	0.73488	0.81818	0.1	5937.4
24571	0.82674	0.72727	0.1	5912.3
24572	0.73488	1.	0.1	6050.2
24573	0.82674	0.90909	0.1	5993.5
24574	0.73488	1.1818	0.1	6169.3
24575	0.82674	1.0909	0.1	6088.5
24576	0.73488	1.3636	0.1	6285.
24577	0.82674	1.2727	0.1	6187.7
24578	0.73488	1.5455	0.1	6391.3
24579	0.82674	1.4545	0.1	6283.7
24580	0.73488	1.7273	0.1	6485.4
24581	0.82674	1.6364	0.1	6372.2
24582	0.73488	1.9091	0.1	6566.1
24583	0.82674	1.8182	0.1	6450.7
24584	0.73488	2.0909	0.1	6633.3
24585	0.82674	2.	0.1	6518.
24586	0.73488	2.2727	0.1	6687.2
24587	0.82674	2.1818	0.1	6573.8
24588	0.73488	2.4545	0.1	6728.4
24589	0.82674	2.3636	0.1	6617.9
24590	0.73488	2.6364	0.1	6757.5
24591	0.82674	2.5455	0.1	6650.8
24592	0.73488	2.8182	0.1	6774.7
24593	0.82674	2.7273	0.1	6672.5
24594	0.73488	3.	0.1	6780.4
24595	0.82674	2.9091	0.1	6683.3
24596	0.73488	3.1818	0.1	6774.7
24597	0.82674	3.0909	0.1	6683.3
24598	0.73488	3.3636	0.1	6757.5
24599	0.82674	3.2727	0.1	6672.5
24600	0.73488	3.5455	0.1	6728.4
24601	0.82674	3.4545	0.1	6650.8
24602	0.73488	3.7273	0.1	6687.2
24603	0.82674	3.6364	0.1	6617.9
24604	0.73488	3.9091	0.1	6633.3
24605	0.82674	3.8182	0.1	6573.8
24606	0.73488	4.0909	0.1	6566.1
24607	0.82674	4.	0.1	6518.
24608	0.73488	4.2727	0.1	6485.4
24609	0.82674	4.1818	0.1	6450.7
24610	0.73488	4.4545	0.1	6391.3
24611	0.82674	4.3636	0.1	6372.2
24612	0.73488	4.6364	0.1	6285.
24613	0.82674	4.5455	0.1	6283.7
24614	0.73488	4.8182	0.1	6169.3
24615	0.82674	4.7273	0.1	6187.7
24616	0.73488	5.	0.1	6050.2
24617	0.82674	4.9091	0.1	6088.5
24618	0.73488	5.1818	0.1	5937.4
24619	0.82674	5.0909	0.1	5993.5
24620	0.73488	5.3636	0.1	5844.4
24621	0.82674	5.2727	0.1	5912.3
24622	0.73488	5.5455	0.1	5785.6
24623	0.82674	5.4545	0.1	5856.3
24624	0.73488	5.7273	0.1	5787.5
24625	0.82674	5.6364	0.1	5835.8
24626	0.82674	5.8182	0.1	5884.8
24627	0.73488	5.9091	0.1	5722.5
24628	0.9186	0.27273	0.1	5933.6
24629	1.0105	0.18182	0.1	6001.1
24630	0.9186	9.0909e-002	0.1	5894.
24631	0.9186	0.45455	0.1	5906.7
24632	1.0105	0.36364	0.1	5943.6
24633	0.9186	0.63636	0.1	5923.6
24634	1.0105	0.54545	0.1	5937.
24635	0.9186	0.81818	0.1	5967.3
24636	1.0105	0.72727	0.1	5956.1
24637	0.9186	1.	0.1	6030.8
24638	1.0105	0.90909	0.1	5996.1
24639	0.9186	1.1818	0.1	6106.2
24640	1.0105	1.0909	0.1	6051.3
24641	0.9186	1.3636	0.1	6185.9
24642	1.0105	1.2727	0.1	6115.2
24643	0.9186	1.5455	0.1	6264.3
24644	1.0105	1.4545	0.1	6182.1
24645	0.9186	1.7273	0.1	6337.4
24646	1.0105	1.6364	0.1	6247.4
24647	0.9186	1.9091	0.1	6402.5
24648	1.0105	1.8182	0.1	6308.1
24649	0.9186	2.0909	0.1	6458.4
24650	1.0105	2.	0.1	6362.
24651	0.9186	2.2727	0.1	6504.4
24652	1.0105	2.1818	0.1	6407.9
24653	0.9186	2.4545	0.1	6540.2
24654	1.0105	2.3636	0.1	6445.
24655	0.9186	2.6364	0.1	6565.7
24656	1.0105	2.5455	0.1	6473.
24657	0.9186	2.8182	0.1	6580.9
24658	1.0105	2.7273	0.1	6491.7
24659	0.9186	3.	0.1	6586.
24660	1.0105	2.9091	0.1	6501.
24661	0.9186	3.1818	0.1	6580.9
24662	1.0105	3.0909	0.1	6501.
24663	0.9186	3.3636	0.1	6565.7
24664	1.0105	3.2727	0.1	6491.7
24665	0.9186	3.5455	0.1	6540.2
24666	1.0105	3.4545	0.1	6473.
24667	0.9186	3.7273	0.1	6504.4
24668	1.0105	3.6364	0.1	6445.
24669	0.9186	3.9091	0.1	6458.4
24670	1.0105	3.8182	0.1	6407.9
24671	0.9186	4.0909	0.1	6402.5
24672	1.0105	4.	0.1	6362.
24673	0.9186	4.2727	0.1	6337.4
24674	1.0105	4.1818	0.1	6308.1
24675	0.9186	4.4545	0.1	6264.3
24676	1.0105	4.3636	0.1	6247.4
24677	0.9186	4.6364	0.1	6185.9
24678	1.0105	4.5455	0.1	6182.1
24679	0.9186	4.8182	0.1	6106.2
24680	1.0105	4.7273	0.1	6115.2
24681	0.9186	5.	0.1	6030.8
24682	1.0105	4.9091	0.1	6051.3
24683	0.9186	5.1818	0.1	5967.3
24684	1.0105	5.0909	0.1	5996.1
24685	0.9186	5.3636	0.1	5923.6
24686	1.0105	5.2727	0.1	5956.1
24687	0.9186	5.5455	0.1	5906.7
24688	1.0105	5.4545	0.1	5937.
24689	0.9186	5.7273	0.1	5933.6
24690	1.0105	5.6364	0.1	5943.6
24691	1.0105	5.8182	0.1	6001.1
24692	0.9186	5.9091	0.1	5894.
24693	1.1023	0.27273	0.1	6011.7
24694	1.1942	0.18182	0.1	6056.9
24695	1.1023	9.0909e-002	0.1	5987.6
24696	1.1023	0.45455	0.1	5974.4
24697	1.1942	0.36364	0.1	5998.3
24698	1.1023	0.63636	0.1	5969.4
24699	1.1942	0.54545	0.1	5978.2
24700	1.1023	0.81818	0.1	5984.3
24701	1.1942	0.72727	0.1	5976.5
24702	1.1023	1.	0.1	6015.8
24703	1.1942	0.90909	0.1	5991.1
24704	1.1023	1.1818	0.1	6059.6
24705	1.1942	1.0909	0.1	6019.
24706	1.1023	1.3636	0.1	6110.7
24707	1.1942	1.2727	0.1	6056.6
24708	1.1023	1.5455	0.1	6164.7
24709	1.1942	1.4545	0.1	6099.7
24710	1.1023	1.7273	0.1	6217.8
24711	1.1942	1.6364	0.1	6144.8
24712	1.1023	1.9091	0.1	6267.3
24713	1.1942	1.8182	0.1	6188.8
24714	1.1023	2.0909	0.1	6311.2
24715	1.1942	2.	0.1	6229.4
24716	1.1023	2.2727	0.1	6348.2
24717	1.1942	2.1818	0.1	6265.
24718	1.1023	2.4545	0.1	6377.6
24719	1.1942	2.3636	0.1	6294.4
24720	1.1023	2.6364	0.1	6398.8
24721	1.1942	2.5455	0.1	6317.
24722	1.1023	2.8182	0.1	6411.6
24723	1.1942	2.7273	0.1	6332.3
24724	1.1023	3.	0.1	6415.9
24725	1.1942	2.9091	0.1	6340.
24726	1.1023	3.1818	0.1	6411.6
24727	1.1942	3.0909	0.1	6340.
24728	1.1023	3.3636	0.1	6398.8
24729	1.1942	3.2727	0.1	6332.3
24730	1.1023	3.5455	0.1	6377.6
24731	1.1942	3.4545	0.1	6317.
24732	1.1023	3.7273	0.1	6348.2
24733	1.1942	3.6364	0.1	6294.4
24734	1.1023	3.9091	0.1	6311.2
24735	1.1942	3.8182	0.1	6265.
24736	1.1023	4.0909	0.1	6267.3
24737	1.1942	4.	0.1	6229.4
24738	1.1023	4.2727	0.1	6217.8
24739	1.1942	4.1818	0.1	6188.8
24740	1.1023	4.4545	0.1	6164.7
24741	1.1942	4.3636	0.1	6144.8
24742	1.1023	4.6364	0.1	6110.7
24743	1.1942	4.5455	0.1	6099.7
24744	1.1023	4.8182	0.1	6059.6
24745	1.1942	4.7273	0.1	6056.6
24746	1.1023	5.	0.1	6015.8
24747	1.1942	4.9091	0.1	6019.
24748	1.1023	5.1818	0.1	5984.3
24749	1.1942	5.0909	0.1	5991.1
24750	1.1023	5.3636	0.1	5969.4
24751	1.1942	5.2727	0.1	5976.5
24752	1.1023	5.5455	0.1	5974.4
24753	1.1942	5.4545	0.1	5978.2
24754	1.1023	5.7273	0.1	6011.7
24755	1.1942	5.6364	0.1	5998.3
24756	1.1942	5.8182	0.1	6056.9
24757	1.1023	5.9091	0.1	5987.6
24758	1.286	0.27273	0.1	6043.9
24759	1.3779	0.18182	0.1	6073.
24760	1.286	9.0909e-002	0.1	6030.6
24761	1.286	0.45455	0.1	6002.6
24762	1.3779	0.36364	0.1	6016.3
24763	1.286	0.63636	0.1	5985.5
24764	1.3779	0.54545	0.1	5989.3
24765	1.286	0.81818	0.1	5983.2
24766	1.3779	0.72727	0.1	5975.7
24767	1.286	1.	0.1	5993.9
24768	1.3779	0.90909	0.1	5974.4
24769	1.286	1.1818	0.1	6015.6
24770	1.3779	1.0909	0.1	5984.1
24771	1.286	1.3636	0.1	6045.1
24772	1.3779	1.2727	0.1	6002.6
24773	1.286	1.5455	0.1	6079.4
24774	1.3779	1.4545	0.1	6027.5
24775	1.286	1.7273	0.1	6115.3
24776	1.3779	1.6364	0.1	6055.9
24777	1.286	1.9091	0.1	6150.5
24778	1.3779	1.8182	0.1	6085.4
24779	1.286	2.0909	0.1	6182.8
24780	1.3779	2.	0.1	6113.9
24781	1.286	2.2727	0.1	6210.9
24782	1.3779	2.1818	0.1	6139.8
24783	1.286	2.4545	0.1	6233.6
24784	1.3779	2.3636	0.1	6161.8
24785	1.286	2.6364	0.1	6250.3
24786	1.3779	2.5455	0.1	6178.9
24787	1.286	2.8182	0.1	6260.5
24788	1.3779	2.7273	0.1	6190.7
24789	1.286	3.	0.1	6263.9
24790	1.3779	2.9091	0.1	6196.7
24791	1.286	3.1818	0.1	6260.5
24792	1.3779	3.0909	0.1	6196.7
24793	1.286	3.3636	0.1	6250.3
24794	1.3779	3.2727	0.1	6190.7
24795	1.286	3.5455	0.1	6233.6
24796	1.3779	3.4545	0.1	6178.9
24797	1.286	3.7273	0.1	6210.9
24798	1.3779	3.6364	0.1	6161.8
24799	1.286	3.9091	0.1	6182.8
24800	1.3779	3.8182	0.1	6139.8
24801	1.286	4.0909	0.1	6150.5
24802	1.3779	4.	0.1	6113.9
24803	1.286	4.2727	0.1	6115.3
24804	1.3779	4.1818	0.1	6085.4
24805	1.286	4.4545	0.1	6079.4
24806	1.3779	4.3636	0.1	6055.9
24807	1.286	4.6364	0.1	6045.1
24808	1.3779	4.5455	0.1	6027.5
24809	1.286	4.8182	0.1	6015.6
24810	1.3779	4.7273	0.1	6002.6
24811	1.286	5.	0.1	5993.9
24812	1.3779	4.9091	0.1	5984.1
24813	1.286	5.1818	0.1	5983.2
24814	1.3779	5.0909	0.1	5974.4
24815	1.286	5.3636	0.1	5985.5
24816	1.3779	5.2727	0.1	5975.7
24817	1.286	5.5455	0.1	6002.6
24818	1.3779	5.4545	0.1	5989.3
24819	1.286	5.7273	0.1	6043.9
24820	1.3779	5.6364	0.1	6016.3
24821	1.3779	5.8182	0.1	6073.
24822	1.286	5.9091	0.1	6030.6
24823	1.4698	0.27273	0.1	6045.8
24824	1.5616	0.18182	0.1	6062.8
24825	1.4698	9.0909e-002	0.1	6040.1
24826	1.4698	0.45455	0.1	6003.5
24827	1.5616	0.36364	0.1	6009.1
24828	1.4698	0.63636	0.1	5979.8
24829	1.5616	0.54545	0.1	5978.7
24830	1.4698	0.81818	0.1	5966.9
24831	1.5616	0.72727	0.1	5958.2
24832	1.4698	1.	0.1	5964.4
24833	1.5616	0.90909	0.1	5947.
24834	1.4698	1.1818	0.1	5970.8
24835	1.5616	1.0909	0.1	5944.5
24836	1.4698	1.3636	0.1	5984.6
24837	1.5616	1.2727	0.1	5949.7
24838	1.4698	1.5455	0.1	6003.6
24839	1.5616	1.4545	0.1	5960.9
24840	1.4698	1.7273	0.1	6025.5
24841	1.5616	1.6364	0.1	5976.3
24842	1.4698	1.9091	0.1	6048.4
24843	1.5616	1.8182	0.1	5993.9
24844	1.4698	2.0909	0.1	6070.5
24845	1.5616	2.	0.1	6012.1
24846	1.4698	2.2727	0.1	6090.3
24847	1.5616	2.1818	0.1	6029.4
24848	1.4698	2.4545	0.1	6106.8
24849	1.5616	2.3636	0.1	6044.5
24850	1.4698	2.6364	0.1	6119.1
24851	1.5616	2.5455	0.1	6056.7
24852	1.4698	2.8182	0.1	6126.6
24853	1.5616	2.7273	0.1	6065.1
24854	1.4698	3.	0.1	6129.2
24855	1.5616	2.9091	0.1	6069.4
24856	1.4698	3.1818	0.1	6126.6
24857	1.5616	3.0909	0.1	6069.4
24858	1.4698	3.3636	0.1	6119.1
24859	1.5616	3.2727	0.1	6065.1
24860	1.4698	3.5455	0.1	6106.8
24861	1.5616	3.4545	0.1	6056.7
24862	1.4698	3.7273	0.1	6090.3
24863	1.5616	3.6364	0.1	6044.5
24864	1.4698	3.9091	0.1	6070.5
24865	1.5616	3.8182	0.1	6029.4
24866	1.4698	4.0909	0.1	6048.4
24867	1.5616	4.	0.1	6012.1
24868	1.4698	4.2727	0.1	6025.5
24869	1.5616	4.1818	0.1	5993.9
24870	1.4698	4.4545	0.1	6003.6
24871	1.5616	4.3636	0.1	5976.3
24872	1.4698	4.6364	0.1	5984.6
24873	1.5616	4.5455	0.1	5960.9
24874	1.4698	4.8182	0.1	5970.8
24875	1.5616	4.7273	0.1	5949.7
24876	1.4698	5.	0.1	5964.4
24877	1.5616	4.9091	0.1	5944.5
24878	1.4698	5.1818	0.1	5966.9
24879	1.5616	5.0909	0.1	5947.
24880	1.4698	5.3636	0.1	5979.8
24881	1.5616	5.2727	0.1	5958.2
24882	1.4698	5.5455	0.1	6003.5
24883	1.5616	5.4545	0.1	5978.7
24884	1.4698	5.7273	0.1	6045.8
24885	1.5616	5.6364	0.1	6009.1
24886	1.5616	5.8182	0.1	6062.8
24887	1.4698	5.9091	0.1	6040.1
24888	1.6535	0.27273	0.1	6026.4
24889	1.7453	0.18182	0.1	6034.3
24890	1.6535	9.0909e-002	0.1	6026.6
24891	1.6535	0.45455	0.1	5984.7
24892	1.7453	0.36364	0.1	5984.
24893	1.6535	0.63636	0.1	5957.5
24894	1.7453	0.54545	0.1	5952.3
24895	1.6535	0.81818	0.1	5938.4
24896	1.7453	0.72727	0.1	5927.9
24897	1.6535	1.	0.1	5927.2
24898	1.7453	0.90909	0.1	5910.5
24899	1.6535	1.1818	0.1	5923.3
24900	1.7453	1.0909	0.1	5900.1
24901	1.6535	1.3636	0.1	5925.8
24902	1.7453	1.2727	0.1	5896.
24903	1.6535	1.5455	0.1	5933.3
24904	1.7453	1.4545	0.1	5897.2
24905	1.6535	1.7273	0.1	5944.3
24906	1.7453	1.6364	0.1	5902.7
24907	1.6535	1.9091	0.1	5957.2
24908	1.7453	1.8182	0.1	5910.9
24909	1.6535	2.0909	0.1	5970.6
24910	1.7453	2.	0.1	5920.7
24911	1.6535	2.2727	0.1	5983.3
24912	1.7453	2.1818	0.1	5930.7
24913	1.6535	2.4545	0.1	5994.1
24914	1.7453	2.3636	0.1	5940.
24915	1.6535	2.6364	0.1	6002.4
24916	1.7453	2.5455	0.1	5947.7
24917	1.6535	2.8182	0.1	6007.6
24918	1.7453	2.7273	0.1	5953.2
24919	1.6535	3.	0.1	6009.3
24920	1.7453	2.9091	0.1	5956.
24921	1.6535	3.1818	0.1	6007.6
24922	1.7453	3.0909	0.1	5956.
24923	1.6535	3.3636	0.1	6002.4
24924	1.7453	3.2727	0.1	5953.2
24925	1.6535	3.5455	0.1	5994.1
24926	1.7453	3.4545	0.1	5947.7
24927	1.6535	3.7273	0.1	5983.3
24928	1.7453	3.6364	0.1	5940.
24929	1.6535	3.9091	0.1	5970.6
24930	1.7453	3.8182	0.1	5930.7
24931	1.6535	4.0909	0.1	5957.2
24932	1.7453	4.	0.1	5920.7
24933	1.6535	4.2727	0.1	5944.3
24934	1.7453	4.1818	0.1	5910.9
24935	1.6535	4.4545	0.1	5933.3
24936	1.7453	4.3636	0.1	5902.7
24937	1.6535	4.6364	0.1	5925.8
24938	1.7453	4.5455	0.1	5897.2
24939	1.6535	4.8182	0.1	5923.3
24940	1.7453	4.7273	0.1	5896.
24941	1.6535	5.	0.1	5927.2
24942	1.7453	4.9091	0.1	5900.1
24943	1.6535	5.1818	0.1	5938.4
24944	1.7453	5.0909	0.1	5910.5
24945	1.6535	5.3636	0.1	5957.5
24946	1.7453	5.2727	0.1	5927.9
24947	1.6535	5.5455	0.1	5984.7
24948	1.7453	5.4545	0.1	5952.3
24949	1.6535	5.7273	0.1	6026.4
24950	1.7453	5.6364	0.1	5984.
24951	1.7453	5.8182	0.1	6034.3
24952	1.6535	5.9091	0.1	6026.6
24953	1.8372	0.27273	0.1	5992.2
24954	1.9291	0.18182	0.1	5993.2
24955	1.8372	9.0909e-002	0.1	5996.8
24956	1.8372	0.45455	0.1	5952.
24957	1.9291	0.36364	0.1	5946.4
24958	1.8372	0.63636	0.1	5923.
24959	1.9291	0.54545	0.1	5914.5
24960	1.8372	0.81818	0.1	5900.2
24961	1.9291	0.72727	0.1	5888.
24962	1.8372	1.	0.1	5883.5
24963	1.9291	0.90909	0.1	5866.9
24964	1.8372	1.1818	0.1	5872.7
24965	1.9291	1.0909	0.1	5851.2
24966	1.8372	1.3636	0.1	5867.2
24967	1.9291	1.2727	0.1	5840.8
24968	1.8372	1.5455	0.1	5866.4
24969	1.9291	1.4545	0.1	5835.
24970	1.8372	1.7273	0.1	5869.
24971	1.9291	1.6364	0.1	5833.1
24972	1.8372	1.9091	0.1	5874.1
24973	1.9291	1.8182	0.1	5834.2
24974	1.8372	2.0909	0.1	5880.5
24975	1.9291	2.	0.1	5837.3
24976	1.8372	2.2727	0.1	5887.2
24977	1.9291	2.1818	0.1	5841.5
24978	1.8372	2.4545	0.1	5893.3
24979	1.9291	2.3636	0.1	5845.9
24980	1.8372	2.6364	0.1	5898.1
24981	1.9291	2.5455	0.1	5849.9
24982	1.8372	2.8182	0.1	5901.3
24983	1.9291	2.7273	0.1	5852.8
24984	1.8372	3.	0.1	5902.3
24985	1.9291	2.9091	0.1	5854.4
24986	1.8372	3.1818	0.1	5901.3
24987	1.9291	3.0909	0.1	5854.4
24988	1.8372	3.3636	0.1	5898.1
24989	1.9291	3.2727	0.1	5852.8
24990	1.8372	3.5455	0.1	5893.3
24991	1.9291	3.4545	0.1	5849.9
24992	1.8372	3.7273	0.1	5887.2
24993	1.9291	3.6364	0.1	5845.9
24994	1.8372	3.9091	0.1	5880.5
24995	1.9291	3.8182	0.1	5841.5
24996	1.8372	4.0909	0.1	5874.1
24997	1.9291	4.	0.1	5837.3
24998	1.8372	4.2727	0.1	5869.
24999	1.9291	4.1818	0.1	5834.2
25000	1.8372	4.4545	0.1	5866.4
25001	1.9291	4.3636	0.1	5833.1
25002	1.8372	4.6364	0.1	5867.2
25003	1.9291	4.5455	0.1	5835.
25004	1.8372	4.8182	0.1	5872.7
25005	1.9291	4.7273	0.1	5840.8
25006	1.8372	5.	0.1	5883.5
25007	1.9291	4.9091	0.1	5851.2
25008	1.8372	5.1818	0.1	5900.2
25009	1.9291	5.0909	0.1	5866.9
25010	1.8372	5.3636	0.1	5923.
25011	1.9291	5.2727	0.1	5888.
25012	1.8372	5.5455	0.1	5952.
25013	1.9291	5.4545	0.1	5914.5
25014	1.8372	5.7273	0.1	5992.2
25015	1.9291	5.6364	0.1	5946.4
25016	1.9291	5.8182	0.1	5993.2
25017	1.8372	5.9091	0.1	5996.8
25018	2.0209	0.27273	0.1	5947.6
25019	2.1128	0.18182	0.1	5943.1
25020	2.0209	9.0909e-002	0.1	5955.5
25021	2.0209	0.45455	0.1	5909.2
25022	2.1128	0.36364	0.1	5899.7
25023	2.0209	0.63636	0.1	5879.7
25024	2.1128	0.54545	0.1	5868.3
25025	2.0209	0.81818	0.1	5854.8
25026	2.1128	0.72727	0.1	5840.9
25027	2.0209	1.	0.1	5834.7
25028	2.1128	0.90909	0.1	5817.7
25029	2.0209	1.1818	0.1	5819.3
25030	2.1128	1.0909	0.1	5798.8
25031	2.0209	1.3636	0.1	5808.4
25032	2.1128	1.2727	0.1	5784.1
25033	2.0209	1.5455	0.1	5801.5
25034	2.1128	1.4545	0.1	5773.4
25035	2.0209	1.7273	0.1	5798.
25036	2.1128	1.6364	0.1	5766.2
25037	2.0209	1.9091	0.1	5797.1
25038	2.1128	1.8182	0.1	5762.
25039	2.0209	2.0909	0.1	5798.
25040	2.1128	2.	0.1	5760.1
25041	2.0209	2.2727	0.1	5799.9
25042	2.1128	2.1818	0.1	5759.7
25043	2.0209	2.4545	0.1	5802.2
25044	2.1128	2.3636	0.1	5760.3
25045	2.0209	2.6364	0.1	5804.2
25046	2.1128	2.5455	0.1	5761.2
25047	2.0209	2.8182	0.1	5805.6
25048	2.1128	2.7273	0.1	5762.1
25049	2.0209	3.	0.1	5806.1
25050	2.1128	2.9091	0.1	5762.6
25051	2.0209	3.1818	0.1	5805.6
25052	2.1128	3.0909	0.1	5762.6
25053	2.0209	3.3636	0.1	5804.2
25054	2.1128	3.2727	0.1	5762.1
25055	2.0209	3.5455	0.1	5802.2
25056	2.1128	3.4545	0.1	5761.2
25057	2.0209	3.7273	0.1	5799.9
25058	2.1128	3.6364	0.1	5760.3
25059	2.0209	3.9091	0.1	5798.
25060	2.1128	3.8182	0.1	5759.7
25061	2.0209	4.0909	0.1	5797.1
25062	2.1128	4.	0.1	5760.1
25063	2.0209	4.2727	0.1	5798.
25064	2.1128	4.1818	0.1	5762.
25065	2.0209	4.4545	0.1	5801.5
25066	2.1128	4.3636	0.1	5766.2
25067	2.0209	4.6364	0.1	5808.4
25068	2.1128	4.5455	0.1	5773.4
25069	2.0209	4.8182	0.1	5819.3
25070	2.1128	4.7273	0.1	5784.1
25071	2.0209	5.	0.1	5834.7
25072	2.1128	4.9091	0.1	5798.8
25073	2.0209	5.1818	0.1	5854.8
25074	2.1128	5.0909	0.1	5817.7
25075	2.0209	5.3636	0.1	5879.7
25076	2.1128	5.2727	0.1	5840.9
25077	2.0209	5.5455	0.1	5909.2
25078	2.1128	5.4545	0.1	5868.3
25079	2.0209	5.7273	0.1	5947.6
25080	2.1128	5.6364	0.1	5899.7
25081	2.1128	5.8182	0.1	5943.1
25082	2.0209	5.9091	0.1	5955.5
25083	2.2047	0.27273	0.1	5895.5
25084	2.2965	0.18182	0.1	5886.8
25085	2.2047	9.0909e-002	0.1	5906.
25086	2.2047	0.45455	0.1	5859.1
25087	2.2965	0.36364	0.1	5846.6
25088	2.2047	0.63636	0.1	5829.8
25089	2.2965	0.54545	0.1	5816.1
25090	2.2047	0.81818	0.1	5804.
25091	2.2965	0.72727	0.1	5788.6
25092	2.2047	1.	0.1	5781.9
25093	2.2965	0.90909	0.1	5764.4
25094	2.2047	1.1818	0.1	5763.6
25095	2.2965	1.0909	0.1	5743.5
25096	2.2047	1.3636	0.1	5749.1
25097	2.2965	1.2727	0.1	5726.2
25098	2.2047	1.5455	0.1	5738.
25099	2.2965	1.4545	0.1	5712.2
25100	2.2047	1.7273	0.1	5730.1
25101	2.2965	1.6364	0.1	5701.3
25102	2.2047	1.9091	0.1	5724.8
25103	2.2965	1.8182	0.1	5693.3
25104	2.2047	2.0909	0.1	5721.5
25105	2.2965	2.	0.1	5687.6
25106	2.2047	2.2727	0.1	5719.8
25107	2.2965	2.1818	0.1	5683.8
25108	2.2047	2.4545	0.1	5719.
25109	2.2965	2.3636	0.1	5681.5
25110	2.2047	2.6364	0.1	5718.8
25111	2.2965	2.5455	0.1	5680.1
25112	2.2047	2.8182	0.1	5718.8
25113	2.2965	2.7273	0.1	5679.3
25114	2.2047	3.	0.1	5718.9
25115	2.2965	2.9091	0.1	5679.
25116	2.2047	3.1818	0.1	5718.8
25117	2.2965	3.0909	0.1	5679.
25118	2.2047	3.3636	0.1	5718.8
25119	2.2965	3.2727	0.1	5679.3
25120	2.2047	3.5455	0.1	5719.
25121	2.2965	3.4545	0.1	5680.1
25122	2.2047	3.7273	0.1	5719.8
25123	2.2965	3.6364	0.1	5681.5
25124	2.2047	3.9091	0.1	5721.5
25125	2.2965	3.8182	0.1	5683.8
25126	2.2047	4.0909	0.1	5724.8
25127	2.2965	4.	0.1	5687.6
25128	2.2047	4.2727	0.1	5730.1
25129	2.2965	4.1818	0.1	5693.3
25130	2.2047	4.4545	0.1	5738.
25131	2.2965	4.3636	0.1	5701.3
25132	2.2047	4.6364	0.1	5749.1
25133	2.2965	4.5455	0.1	5712.2
25134	2.2047	4.8182	0.1	5763.6
25135	2.2965	4.7273	0.1	5726.2
25136	2.2047	5.	0.1	5781.9
25137	2.2965	4.9091	0.1	5743.5
25138	2.2047	5.1818	0.1	5804.
25139	2.2965	5.0909	0.1	5764.4
25140	2.2047	5.3636	0.1	5829.8
25141	2.2965	5.2727	0.1	5788.6
25142	2.2047	5.5455	0.1	5859.1
25143	2.2965	5.4545	0.1	5816.1
25144	2.2047	5.7273	0.1	5895.5
25145	2.2965	5.6364	0.1	5846.6
25146	2.2965	5.8182	0.1	5886.8
25147	2.2047	5.9091	0.1	5906.
25148	2.3884	0.27273	0.1	5838.2
25149	2.4802	0.18182	0.1	5826.1
25150	2.3884	9.0909e-002	0.1	5850.6
25151	2.3884	0.45455	0.1	5803.9
25152	2.4802	0.36364	0.1	5789.
25153	2.3884	0.63636	0.1	5775.2
25154	2.4802	0.54545	0.1	5759.6
25155	2.3884	0.81818	0.1	5749.2
25156	2.4802	0.72727	0.1	5732.6
25157	2.3884	1.	0.1	5726.1
25158	2.4802	0.90909	0.1	5708.
25159	2.3884	1.1818	0.1	5706.1
25160	2.4802	1.0909	0.1	5686.2
25161	2.3884	1.3636	0.1	5689.3
25162	2.4802	1.2727	0.1	5667.2
25163	2.3884	1.5455	0.1	5675.4
25164	2.4802	1.4545	0.1	5651.2
25165	2.3884	1.7273	0.1	5664.5
25166	2.4802	1.6364	0.1	5637.9
25167	2.3884	1.9091	0.1	5656.
25168	2.4802	1.8182	0.1	5627.2
25169	2.3884	2.0909	0.1	5649.7
25170	2.4802	2.	0.1	5618.9
25171	2.3884	2.2727	0.1	5645.3
25172	2.4802	2.1818	0.1	5612.6
25173	2.3884	2.4545	0.1	5642.2
25174	2.4802	2.3636	0.1	5608.1
25175	2.3884	2.6364	0.1	5640.3
25176	2.4802	2.5455	0.1	5604.9
25177	2.3884	2.8182	0.1	5639.3
25178	2.4802	2.7273	0.1	5603.
25179	2.3884	3.	0.1	5638.9
25180	2.4802	2.9091	0.1	5602.1
25181	2.3884	3.1818	0.1	5639.3
25182	2.4802	3.0909	0.1	5602.1
25183	2.3884	3.3636	0.1	5640.3
25184	2.4802	3.2727	0.1	5603.
25185	2.3884	3.5455	0.1	5642.2
25186	2.4802	3.4545	0.1	5604.9
25187	2.3884	3.7273	0.1	5645.3
25188	2.4802	3.6364	0.1	5608.1
25189	2.3884	3.9091	0.1	5649.7
25190	2.4802	3.8182	0.1	5612.6
25191	2.3884	4.0909	0.1	5656.
25192	2.4802	4.	0.1	5618.9
25193	2.3884	4.2727	0.1	5664.5
25194	2.4802	4.1818	0.1	5627.2
25195	2.3884	4.4545	0.1	5675.4
25196	2.4802	4.3636	0.1	5637.9
25197	2.3884	4.6364	0.1	5689.3
25198	2.4802	4.5455	0.1	5651.2
25199	2.3884	4.8182	0.1	5706.1
25200	2.4802	4.7273	0.1	5667.2
25201	2.3884	5.	0.1	5726.1
25202	2.4802	4.9091	0.1	5686.2
25203	2.3884	5.1818	0.1	5749.2
25204	2.4802	5.0909	0.1	5708.
25205	2.3884	5.3636	0.1	5775.2
25206	2.4802	5.2727	0.1	5732.6
25207	2.3884	5.5455	0.1	5803.9
25208	2.4802	5.4545	0.1	5759.6
25209	2.3884	5.7273	0.1	5838.2
25210	2.4802	5.6364	0.1	5789.
25211	2.4802	5.8182	0.1	5826.1
25212	2.3884	5.9091	0.1	5850.6
25213	2.5721	0.27273	0.1	5777.2
25214	2.664	0.18182	0.1	5762.6
25215	2.5721	9.0909e-002	0.1	5791.
25216	2.5721	0.45455	0.1	5745.
25217	2.664	0.36364	0.1	5728.2
25218	2.5721	0.63636	0.1	5717.2
25219	2.664	0.54545	0.1	5700.1
25220	2.5721	0.81818	0.1	5691.6
25221	2.664	0.72727	0.1	5673.8
25222	2.5721	1.	0.1	5668.2
25223	2.664	0.90909	0.1	5649.5
25224	2.5721	1.1818	0.1	5647.4
25225	2.664	1.0909	0.1	5627.4
25226	2.5721	1.3636	0.1	5629.2
25227	2.664	1.2727	0.1	5607.7
25228	2.5721	1.5455	0.1	5613.6
25229	2.664	1.4545	0.1	5590.4
25230	2.5721	1.7273	0.1	5600.6
25231	2.664	1.6364	0.1	5575.6
25232	2.5721	1.9091	0.1	5590.
25233	2.664	1.8182	0.1	5563.2
25234	2.5721	2.0909	0.1	5581.6
25235	2.664	2.	0.1	5553.1
25236	2.5721	2.2727	0.1	5575.2
25237	2.664	2.1818	0.1	5545.1
25238	2.5721	2.4545	0.1	5570.5
25239	2.664	2.3636	0.1	5539.
25240	2.5721	2.6364	0.1	5567.4
25241	2.664	2.5455	0.1	5534.6
25242	2.5721	2.8182	0.1	5565.5
25243	2.664	2.7273	0.1	5531.8
25244	2.5721	3.	0.1	5564.9
25245	2.664	2.9091	0.1	5530.4
25246	2.5721	3.1818	0.1	5565.5
25247	2.664	3.0909	0.1	5530.4
25248	2.5721	3.3636	0.1	5567.4
25249	2.664	3.2727	0.1	5531.8
25250	2.5721	3.5455	0.1	5570.5
25251	2.664	3.4545	0.1	5534.6
25252	2.5721	3.7273	0.1	5575.2
25253	2.664	3.6364	0.1	5539.
25254	2.5721	3.9091	0.1	5581.6
25255	2.664	3.8182	0.1	5545.1
25256	2.5721	4.0909	0.1	5590.
25257	2.664	4.	0.1	5553.1
25258	2.5721	4.2727	0.1	5600.6
25259	2.664	4.1818	0.1	5563.2
25260	2.5721	4.4545	0.1	5613.6
25261	2.664	4.3636	0.1	5575.6
25262	2.5721	4.6364	0.1	5629.2
25263	2.664	4.5455	0.1	5590.4
25264	2.5721	4.8182	0.1	5647.4
25265	2.664	4.7273	0.1	5607.7
25266	2.5721	5.	0.1	5668.2
25267	2.664	4.9091	0.1	5627.4
25268	2.5721	5.1818	0.1	5691.6
25269	2.664	5.0909	0.1	5649.5
25270	2.5721	5.3636	0.1	5717.2
25271	2.664	5.2727	0.1	5673.8
25272	2.5721	5.5455	0.1	5745.
25273	2.664	5.4545	0.1	5700.1
25274	2.5721	5.7273	0.1	5777.2
25275	2.664	5.6364	0.1	5728.2
25276	2.664	5.8182	0.1	5762.6
25277	2.5721	5.9091	0.1	5791.
25278	2.7558	0.27273	0.1	5713.8
25279	2.8477	0.18182	0.1	5697.
25280	2.7558	9.0909e-002	0.1	5728.5
25281	2.7558	0.45455	0.1	5683.6
25282	2.8477	0.36364	0.1	5665.3
25283	2.7558	0.63636	0.1	5656.9
25284	2.8477	0.54545	0.1	5638.6
25285	2.7558	0.81818	0.1	5632.
25286	2.8477	0.72727	0.1	5613.3
25287	2.7558	1.	0.1	5608.8
25288	2.8477	0.90909	0.1	5589.5
25289	2.7558	1.1818	0.1	5587.8
25290	2.8477	1.0909	0.1	5567.6
25291	2.7558	1.3636	0.1	5568.9
25292	2.8477	1.2727	0.1	5547.6
25293	2.7558	1.5455	0.1	5552.4
25294	2.8477	1.4545	0.1	5529.8
25295	2.7558	1.7273	0.1	5538.1
25296	2.8477	1.6364	0.1	5514.2
25297	2.7558	1.9091	0.1	5526.2
25298	2.8477	1.8182	0.1	5500.8
25299	2.7558	2.0909	0.1	5516.4
25300	2.8477	2.	0.1	5489.6
25301	2.7558	2.2727	0.1	5508.7
25302	2.8477	2.1818	0.1	5480.5
25303	2.7558	2.4545	0.1	5502.9
25304	2.8477	2.3636	0.1	5473.4
25305	2.7558	2.6364	0.1	5498.9
25306	2.8477	2.5455	0.1	5468.2
25307	2.7558	2.8182	0.1	5496.5
25308	2.8477	2.7273	0.1	5464.8
25309	2.7558	3.	0.1	5495.7
25310	2.8477	2.9091	0.1	5463.1
25311	2.7558	3.1818	0.1	5496.5
25312	2.8477	3.0909	0.1	5463.1
25313	2.7558	3.3636	0.1	5498.9
25314	2.8477	3.2727	0.1	5464.8
25315	2.7558	3.5455	0.1	5502.9
25316	2.8477	3.4545	0.1	5468.2
25317	2.7558	3.7273	0.1	5508.7
25318	2.8477	3.6364	0.1	5473.4
25319	2.7558	3.9091	0.1	5516.4
25320	2.8477	3.8182	0.1	5480.5
25321	2.7558	4.0909	0.1	5526.2
25322	2.8477	4.	0.1	5489.6
25323	2.7558	4.2727	0.1	5538.1
25324	2.8477	4.1818	0.1	5500.8
25325	2.7558	4.4545	0.1	5552.4
25326	2.8477	4.3636	0.1	5514.2
25327	2.7558	4.6364	0.1	5568.9
25328	2.8477	4.5455	0.1	5529.8
25329	2.7558	4.8182	0.1	5587.8
25330	2.8477	4.7273	0.1	5547.6
25331	2.7558	5.	0.1	5608.8
25332	2.8477	4.9091	0.1	5567.6
25333	2.7558	5.1818	0.1	5632.
25334	2.8477	5.0909	0.1	5589.5
25335	2.7558	5.3636	0.1	5656.9
25336	2.8477	5.2727	0.1	5613.3
25337	2.7558	5.5455	0.1	5683.6
25338	2.8477	5.4545	0.1	5638.6
25339	2.7558	5.7273	0.1	5713.8
25340	2.8477	5.6364	0.1	5665.3
25341	2.8477	5.8182	0.1	5697.
25342	2.7558	5.9091	0.1	5728.5
25343	2.9395	0.27273	0.1	5648.8
25344	3.0314	0.18182	0.1	5630.4
25345	2.9395	9.0909e-002	0.1	5664.1
25346	2.9395	0.45455	0.1	5620.5
25347	3.0314	0.36364	0.1	5601.1
25348	2.9395	0.63636	0.1	5595.1
25349	3.0314	0.54545	0.1	5575.8
25350	2.9395	0.81818	0.1	5571.
25351	3.0314	0.72727	0.1	5551.6
25352	2.9395	1.	0.1	5548.4
25353	3.0314	0.90909	0.1	5528.6
25354	2.9395	1.1818	0.1	5527.6
25355	3.0314	1.0909	0.1	5507.2
25356	2.9395	1.3636	0.1	5508.6
25357	3.0314	1.2727	0.1	5487.4
25358	2.9395	1.5455	0.1	5491.7
25359	3.0314	1.4545	0.1	5469.5
25360	2.9395	1.7273	0.1	5476.8
25361	3.0314	1.6364	0.1	5453.6
25362	2.9395	1.9091	0.1	5464.1
25363	3.0314	1.8182	0.1	5439.7
25364	2.9395	2.0909	0.1	5453.5
25365	3.0314	2.	0.1	5427.9
25366	2.9395	2.2727	0.1	5445.
25367	3.0314	2.1818	0.1	5418.2
25368	2.9395	2.4545	0.1	5438.5
25369	3.0314	2.3636	0.1	5410.5
25370	2.9395	2.6364	0.1	5433.9
25371	3.0314	2.5455	0.1	5404.7
25372	2.9395	2.8182	0.1	5431.2
25373	3.0314	2.7273	0.1	5401.
25374	2.9395	3.	0.1	5430.2
25375	3.0314	2.9091	0.1	5399.1
25376	2.9395	3.1818	0.1	5431.2
25377	3.0314	3.0909	0.1	5399.1
25378	2.9395	3.3636	0.1	5433.9
25379	3.0314	3.2727	0.1	5401.
25380	2.9395	3.5455	0.1	5438.5
25381	3.0314	3.4545	0.1	5404.7
25382	2.9395	3.7273	0.1	5445.
25383	3.0314	3.6364	0.1	5410.5
25384	2.9395	3.9091	0.1	5453.5
25385	3.0314	3.8182	0.1	5418.2
25386	2.9395	4.0909	0.1	5464.1
25387	3.0314	4.	0.1	5427.9
25388	2.9395	4.2727	0.1	5476.8
25389	3.0314	4.1818	0.1	5439.7
25390	2.9395	4.4545	0.1	5491.7
25391	3.0314	4.3636	0.1	5453.6
25392	2.9395	4.6364	0.1	5508.6
25393	3.0314	4.5455	0.1	5469.5
25394	2.9395	4.8182	0.1	5527.6
25395	3.0314	4.7273	0.1	5487.4
25396	2.9395	5.	0.1	5548.4
25397	3.0314	4.9091	0.1	5507.2
25398	2.9395	5.1818	0.1	5571.
25399	3.0314	5.0909	0.1	5528.6
25400	2.9395	5.3636	0.1	5595.1
25401	3.0314	5.2727	0.1	5551.6
25402	2.9395	5.5455	0.1	5620.5
25403	3.0314	5.4545	0.1	5575.8
25404	2.9395	5.7273	0.1	5648.8
25405	3.0314	5.6364	0.1	5601.1
25406	3.0314	5.8182	0.1	5630.4
25407	2.9395	5.9091	0.1	5664.1
25408	3.1233	0.27273	0.1	5582.8
25409	3.2151	0.18182	0.1	5563.1
25410	3.1233	9.0909e-002	0.1	5598.5
25411	3.1233	0.45455	0.1	5556.5
25412	3.2151	0.36364	0.1	5536.
25413	3.1233	0.63636	0.1	5532.4
25414	3.2151	0.54545	0.1	5512.2
25415	3.1233	0.81818	0.1	5509.3
25416	3.2151	0.72727	0.1	5489.1
25417	3.1233	1.	0.1	5487.5
25418	3.2151	0.90909	0.1	5467.1
25419	3.1233	1.1818	0.1	5467.1
25420	3.2151	1.0909	0.1	5446.4
25421	3.1233	1.3636	0.1	5448.4
25422	3.2151	1.2727	0.1	5427.1
25423	3.1233	1.5455	0.1	5431.5
25424	3.2151	1.4545	0.1	5409.5
25425	3.1233	1.7273	0.1	5416.5
25426	3.2151	1.6364	0.1	5393.7
25427	3.1233	1.9091	0.1	5403.5
25428	3.2151	1.8182	0.1	5379.7
25429	3.1233	2.0909	0.1	5392.5
25430	3.2151	2.	0.1	5367.7
25431	3.1233	2.2727	0.1	5383.5
25432	3.2151	2.1818	0.1	5357.7
25433	3.1233	2.4545	0.1	5376.6
25434	3.2151	2.3636	0.1	5349.7
25435	3.1233	2.6364	0.1	5371.7
25436	3.2151	2.5455	0.1	5343.7
25437	3.1233	2.8182	0.1	5368.7
25438	3.2151	2.7273	0.1	5339.7
25439	3.1233	3.	0.1	5367.7
25440	3.2151	2.9091	0.1	5337.7
25441	3.1233	3.1818	0.1	5368.7
25442	3.2151	3.0909	0.1	5337.7
25443	3.1233	3.3636	0.1	5371.7
25444	3.2151	3.2727	0.1	5339.7
25445	3.1233	3.5455	0.1	5376.6
25446	3.2151	3.4545	0.1	5343.7
25447	3.1233	3.7273	0.1	5383.5
25448	3.2151	3.6364	0.1	5349.7
25449	3.1233	3.9091	0.1	5392.5
25450	3.2151	3.8182	0.1	5357.7
25451	3.1233	4.0909	0.1	5403.5
25452	3.2151	4.	0.1	5367.7
25453	3.1233	4.2727	0.1	5416.5
25454	3.2151	4.1818	0.1	5379.7
25455	3.1233	4.4545	0.1	5431.5
25456	3.2151	4.3636	0.1	5393.7
25457	3.1233	4.6364	0.1	5448.4
25458	3.2151	4.5455	0.1	5409.5
25459	3.1233	4.8182	0.1	5467.1
25460	3.2151	4.7273	0.1	5427.1
25461	3.1233	5.	0.1	5487.5
25462	3.2151	4.9091	0.1	5446.4
25463	3.1233	5.1818	0.1	5509.3
25464	3.2151	5.0909	0.1	5467.1
25465	3.1233	5.3636	0.1	5532.4
25466	3.2151	5.2727	0.1	5489.1
25467	3.1233	5.5455	0.1	5556.5
25468	3.2151	5.4545	0.1	5512.2
25469	3.1233	5.7273	0.1	5582.8
25470	3.2151	5.6364	0.1	5536.
25471	3.2151	5.8182	0.1	5563.1
25472	3.1233	5.9091	0.1	5598.5
25473	3.307	0.27273	0.1	5516.4
25474	3.3988	0.18182	0.1	5495.5
25475	3.307	9.0909e-002	0.1	5532.1
25476	3.307	0.45455	0.1	5491.8
25477	3.3988	0.36364	0.1	5470.5
25478	3.307	0.63636	0.1	5469.
25479	3.3988	0.54545	0.1	5448.1
25480	3.307	0.81818	0.1	5447.1
25481	3.3988	0.72727	0.1	5426.3
25482	3.307	1.	0.1	5426.2
25483	3.3988	0.90909	0.1	5405.4
25484	3.307	1.1818	0.1	5406.5
25485	3.3988	1.0909	0.1	5385.5
25486	3.307	1.3636	0.1	5388.3
25487	3.3988	1.2727	0.1	5367.
25488	3.307	1.5455	0.1	5371.7
25489	3.3988	1.4545	0.1	5349.8
25490	3.307	1.7273	0.1	5356.9
25491	3.3988	1.6364	0.1	5334.3
25492	3.307	1.9091	0.1	5343.9
25493	3.3988	1.8182	0.1	5320.5
25494	3.307	2.0909	0.1	5332.8
25495	3.3988	2.	0.1	5308.6
25496	3.307	2.2727	0.1	5323.7
25497	3.3988	2.1818	0.1	5298.6
25498	3.307	2.4545	0.1	5316.6
25499	3.3988	2.3636	0.1	5290.5
25500	3.307	2.6364	0.1	5311.6
25501	3.3988	2.5455	0.1	5284.5
25502	3.307	2.8182	0.1	5308.5
25503	3.3988	2.7273	0.1	5280.4
25504	3.307	3.	0.1	5307.5
25505	3.3988	2.9091	0.1	5278.4
25506	3.307	3.1818	0.1	5308.5
25507	3.3988	3.0909	0.1	5278.4
25508	3.307	3.3636	0.1	5311.6
25509	3.3988	3.2727	0.1	5280.4
25510	3.307	3.5455	0.1	5316.6
25511	3.3988	3.4545	0.1	5284.5
25512	3.307	3.7273	0.1	5323.7
25513	3.3988	3.6364	0.1	5290.5
25514	3.307	3.9091	0.1	5332.8
25515	3.3988	3.8182	0.1	5298.6
25516	3.307	4.0909	0.1	5343.9
25517	3.3988	4.	0.1	5308.6
25518	3.307	4.2727	0.1	5356.9
25519	3.3988	4.1818	0.1	5320.5
25520	3.307	4.4545	0.1	5371.7
25521	3.3988	4.3636	0.1	5334.3
25522	3.307	4.6364	0.1	5388.3
25523	3.3988	4.5455	0.1	5349.8
25524	3.307	4.8182	0.1	5406.5
25525	3.3988	4.7273	0.1	5367.
25526	3.307	5.	0.1	5426.2
25527	3.3988	4.9091	0.1	5385.5
25528	3.307	5.1818	0.1	5447.1
25529	3.3988	5.0909	0.1	5405.4
25530	3.307	5.3636	0.1	5469.
25531	3.3988	5.2727	0.1	5426.3
25532	3.307	5.5455	0.1	5491.8
25533	3.3988	5.4545	0.1	5448.1
25534	3.307	5.7273	0.1	5516.4
25535	3.3988	5.6364	0.1	5470.5
25536	3.3988	5.8182	0.1	5495.5
25537	3.307	5.9091	0.1	5532.1
25538	3.4907	0.27273	0.1	5449.8
25539	3.5826	0.18182	0.1	5428.1
25540	3.4907	9.0909e-002	0.1	5465.4
25541	3.4907	0.45455	0.1	5426.9
25542	3.5826	0.36364	0.1	5405.
25543	3.4907	0.63636	0.1	5405.5
25544	3.5826	0.54545	0.1	5384.
25545	3.4907	0.81818	0.1	5384.7
25546	3.5826	0.72727	0.1	5363.4
25547	3.4907	1.	0.1	5364.8
25548	3.5826	0.90909	0.1	5343.6
25549	3.4907	1.1818	0.1	5346.
25550	3.5826	1.0909	0.1	5324.7
25551	3.4907	1.3636	0.1	5328.5
25552	3.5826	1.2727	0.1	5306.9
25553	3.4907	1.5455	0.1	5312.4
25554	3.5826	1.4545	0.1	5290.5
25555	3.4907	1.7273	0.1	5298.
25556	3.5826	1.6364	0.1	5275.5
25557	3.4907	1.9091	0.1	5285.2
25558	3.5826	1.8182	0.1	5262.1
25559	3.4907	2.0909	0.1	5274.3
25560	3.5826	2.	0.1	5250.4
25561	3.4907	2.2727	0.1	5265.3
25562	3.5826	2.1818	0.1	5240.6
25563	3.4907	2.4545	0.1	5258.2
25564	3.5826	2.3636	0.1	5232.6
25565	3.4907	2.6364	0.1	5253.2
25566	3.5826	2.5455	0.1	5226.6
25567	3.4907	2.8182	0.1	5250.1
25568	3.5826	2.7273	0.1	5222.6
25569	3.4907	3.	0.1	5249.1
25570	3.5826	2.9091	0.1	5220.6
25571	3.4907	3.1818	0.1	5250.1
25572	3.5826	3.0909	0.1	5220.6
25573	3.4907	3.3636	0.1	5253.2
25574	3.5826	3.2727	0.1	5222.6
25575	3.4907	3.5455	0.1	5258.2
25576	3.5826	3.4545	0.1	5226.6
25577	3.4907	3.7273	0.1	5265.3
25578	3.5826	3.6364	0.1	5232.6
25579	3.4907	3.9091	0.1	5274.3
25580	3.5826	3.8182	0.1	5240.6
25581	3.4907	4.0909	0.1	5285.2
25582	3.5826	4.	0.1	5250.4
25583	3.4907	4.2727	0.1	5298.
25584	3.5826	4.1818	0.1	5262.1
25585	3.4907	4.4545	0.1	5312.4
25586	3.5826	4.3636	0.1	5275.5
25587	3.4907	4.6364	0.1	5328.5
25588	3.5826	4.5455	0.1	5290.5
25589	3.4907	4.8182	0.1	5346.
25590	3.5826	4.7273	0.1	5306.9
25591	3.4907	5.	0.1	5364.8
25592	3.5826	4.9091	0.1	5324.7
25593	3.4907	5.1818	0.1	5384.7
25594	3.5826	5.0909	0.1	5343.6
25595	3.4907	5.3636	0.1	5405.5
25596	3.5826	5.2727	0.1	5363.4
25597	3.4907	5.5455	0.1	5426.9
25598	3.5826	5.4545	0.1	5384.
25599	3.4907	5.7273	0.1	5449.8
25600	3.5826	5.6364	0.1	5405.
25601	3.5826	5.8182	0.1	5428.1
25602	3.4907	5.9091	0.1	5465.4
25603	3.6744	0.27273	0.1	5383.4
25604	3.7663	0.18182	0.1	5360.9
25605	3.6744	9.0909e-002	0.1	5398.7
25606	3.6744	0.45455	0.1	5362.1
25607	3.7663	0.36364	0.1	5339.6
25608	3.6744	0.63636	0.1	5342.
25609	3.7663	0.54545	0.1	5319.9
25610	3.6744	0.81818	0.1	5322.4
25611	3.7663	0.72727	0.1	5300.6
25612	3.6744	1.	0.1	5303.5
25613	3.7663	0.90909	0.1	5281.9
25614	3.6744	1.1818	0.1	5285.7
25615	3.7663	1.0909	0.1	5264.
25616	3.6744	1.3636	0.1	5269.
25617	3.7663	1.2727	0.1	5247.2
25618	3.6744	1.5455	0.1	5253.6
25619	3.7663	1.4545	0.1	5231.5
25620	3.6744	1.7273	0.1	5239.6
25621	3.7663	1.6364	0.1	5217.1
25622	3.6744	1.9091	0.1	5227.3
25623	3.7663	1.8182	0.1	5204.3
25624	3.6744	2.0909	0.1	5216.7
25625	3.7663	2.	0.1	5193.
25626	3.6744	2.2727	0.1	5207.9
25627	3.7663	2.1818	0.1	5183.5
25628	3.6744	2.4545	0.1	5201.
25629	3.7663	2.3636	0.1	5175.8
25630	3.6744	2.6364	0.1	5196.
25631	3.7663	2.5455	0.1	5169.9
25632	3.6744	2.8182	0.1	5193.
25633	3.7663	2.7273	0.1	5166.
25634	3.6744	3.	0.1	5192.
25635	3.7663	2.9091	0.1	5164.
25636	3.6744	3.1818	0.1	5193.
25637	3.7663	3.0909	0.1	5164.
25638	3.6744	3.3636	0.1	5196.
25639	3.7663	3.2727	0.1	5166.
25640	3.6744	3.5455	0.1	5201.
25641	3.7663	3.4545	0.1	5169.9
25642	3.6744	3.7273	0.1	5207.9
25643	3.7663	3.6364	0.1	5175.8
25644	3.6744	3.9091	0.1	5216.7
25645	3.7663	3.8182	0.1	5183.5
25646	3.6744	4.0909	0.1	5227.3
25647	3.7663	4.	0.1	5193.
25648	3.6744	4.2727	0.1	5239.6
25649	3.7663	4.1818	0.1	5204.3
25650	3.6744	4.4545	0.1	5253.6
25651	3.7663	4.3636	0.1	5217.1
25652	3.6744	4.6364	0.1	5269.
25653	3.7663	4.5455	0.1	5231.5
25654	3.6744	4.8182	0.1	5285.7
25655	3.7663	4.7273	0.1	5247.2
25656	3.6744	5.	0.1	5303.5
25657	3.7663	4.9091	0.1	5264.
25658	3.6744	5.1818	0.1	5322.4
25659	3.7663	5.0909	0.1	5281.9
25660	3.6744	5.3636	0.1	5342.
25661	3.7663	5.2727	0.1	5300.6
25662	3.6744	5.5455	0.1	5362.1
25663	3.7663	5.4545	0.1	5319.9
25664	3.6744	5.7273	0.1	5383.4
25665	3.7663	5.6364	0.1	5339.6
25666	3.7663	5.8182	0.1	5360.9
25667	3.6744	5.9091	0.1	5398.7
25668	3.8581	0.27273	0.1	5317.3
25669	3.95	0.18182	0.1	5294.2
25670	3.8581	9.0909e-002	0.1	5332.2
25671	3.8581	0.45455	0.1	5297.5
25672	3.95	0.36364	0.1	5274.5
25673	3.8581	0.63636	0.1	5278.6
25674	3.95	0.54545	0.1	5256.1
25675	3.8581	0.81818	0.1	5260.2
25676	3.95	0.72727	0.1	5238.
25677	3.8581	1.	0.1	5242.4
25678	3.95	0.90909	0.1	5220.4
25679	3.8581	1.1818	0.1	5225.6
25680	3.95	1.0909	0.1	5203.6
25681	3.8581	1.3636	0.1	5209.7
25682	3.95	1.2727	0.1	5187.6
25683	3.8581	1.5455	0.1	5195.1
25684	3.95	1.4545	0.1	5172.8
25685	3.8581	1.7273	0.1	5181.8
25686	3.95	1.6364	0.1	5159.2
25687	3.8581	1.9091	0.1	5170.
25688	3.95	1.8182	0.1	5146.9
25689	3.8581	2.0909	0.1	5159.8
25690	3.95	2.	0.1	5136.2
25691	3.8581	2.2727	0.1	5151.3
25692	3.95	2.1818	0.1	5127.
25693	3.8581	2.4545	0.1	5144.6
25694	3.95	2.3636	0.1	5119.6
25695	3.8581	2.6364	0.1	5139.8
25696	3.95	2.5455	0.1	5114.
25697	3.8581	2.8182	0.1	5136.9
25698	3.95	2.7273	0.1	5110.3
25699	3.8581	3.	0.1	5136.
25700	3.95	2.9091	0.1	5108.4
25701	3.8581	3.1818	0.1	5136.9
25702	3.95	3.0909	0.1	5108.4
25703	3.8581	3.3636	0.1	5139.8
25704	3.95	3.2727	0.1	5110.3
25705	3.8581	3.5455	0.1	5144.6
25706	3.95	3.4545	0.1	5114.
25707	3.8581	3.7273	0.1	5151.3
25708	3.95	3.6364	0.1	5119.6
25709	3.8581	3.9091	0.1	5159.8
25710	3.95	3.8182	0.1	5127.
25711	3.8581	4.0909	0.1	5170.
25712	3.95	4.	0.1	5136.2
25713	3.8581	4.2727	0.1	5181.8
25714	3.95	4.1818	0.1	5146.9
25715	3.8581	4.4545	0.1	5195.1
25716	3.95	4.3636	0.1	5159.2
25717	3.8581	4.6364	0.1	5209.7
25718	3.95	4.5455	0.1	5172.8
25719	3.8581	4.8182	0.1	5225.6
25720	3.95	4.7273	0.1	5187.6
25721	3.8581	5.	0.1	5242.4
25722	3.95	4.9091	0.1	5203.6
25723	3.8581	5.1818	0.1	5260.2
25724	3.95	5.0909	0.1	5220.4
25725	3.8581	5.3636	0.1	5278.6
25726	3.95	5.2727	0.1	5238.
25727	3.8581	5.5455	0.1	5297.5
25728	3.95	5.4545	0.1	5256.1
25729	3.8581	5.7273	0.1	5317.3
25730	3.95	5.6364	0.1	5274.5
25731	3.95	5.8182	0.1	5294.2
25732	3.8581	5.9091	0.1	5332.2
25733	4.0419	0.27273	0.1	5251.6
25734	4.1337	0.18182	0.1	5228.
25735	4.0419	9.0909e-002	0.1	5266.
25736	4.0419	0.45455	0.1	5233.2
25737	4.1337	0.36364	0.1	5209.8
25738	4.0419	0.63636	0.1	5215.5
25739	4.1337	0.54545	0.1	5192.6
25740	4.0419	0.81818	0.1	5198.3
25741	4.1337	0.72727	0.1	5175.7
25742	4.0419	1.	0.1	5181.6
25743	4.1337	0.90909	0.1	5159.2
25744	4.0419	1.1818	0.1	5165.7
25745	4.1337	1.0909	0.1	5143.4
25746	4.0419	1.3636	0.1	5150.8
25747	4.1337	1.2727	0.1	5128.4
25748	4.0419	1.5455	0.1	5136.9
25749	4.1337	1.4545	0.1	5114.4
25750	4.0419	1.7273	0.1	5124.3
25751	4.1337	1.6364	0.1	5101.6
25752	4.0419	1.9091	0.1	5113.1
25753	4.1337	1.8182	0.1	5090.
25754	4.0419	2.0909	0.1	5103.4
25755	4.1337	2.	0.1	5079.8
25756	4.0419	2.2727	0.1	5095.3
25757	4.1337	2.1818	0.1	5071.1
25758	4.0419	2.4545	0.1	5089.
25759	4.1337	2.3636	0.1	5064.1
25760	4.0419	2.6364	0.1	5084.4
25761	4.1337	2.5455	0.1	5058.8
25762	4.0419	2.8182	0.1	5081.6
25763	4.1337	2.7273	0.1	5055.2
25764	4.0419	3.	0.1	5080.7
25765	4.1337	2.9091	0.1	5053.3
25766	4.0419	3.1818	0.1	5081.6
25767	4.1337	3.0909	0.1	5053.3
25768	4.0419	3.3636	0.1	5084.4
25769	4.1337	3.2727	0.1	5055.2
25770	4.0419	3.5455	0.1	5089.
25771	4.1337	3.4545	0.1	5058.8
25772	4.0419	3.7273	0.1	5095.3
25773	4.1337	3.6364	0.1	5064.1
25774	4.0419	3.9091	0.1	5103.4
25775	4.1337	3.8182	0.1	5071.1
25776	4.0419	4.0909	0.1	5113.1
25777	4.1337	4.	0.1	5079.8
25778	4.0419	4.2727	0.1	5124.3
25779	4.1337	4.1818	0.1	5090.
25780	4.0419	4.4545	0.1	5136.9
25781	4.1337	4.3636	0.1	5101.6
25782	4.0419	4.6364	0.1	5150.8
25783	4.1337	4.5455	0.1	5114.4
25784	4.0419	4.8182	0.1	5165.7
25785	4.1337	4.7273	0.1	5128.4
25786	4.0419	5.	0.1	5181.6
25787	4.1337	4.9091	0.1	5143.4
25788	4.0419	5.1818	0.1	5198.3
25789	4.1337	5.0909	0.1	5159.2
25790	4.0419	5.3636	0.1	5215.5
25791	4.1337	5.2727	0.1	5175.7
25792	4.0419	5.5455	0.1	5233.2
25793	4.1337	5.4545	0.1	5192.6
25794	4.0419	5.7273	0.1	5251.6
25795	4.1337	5.6364	0.1	5209.8
25796	4.1337	5.8182	0.1	5228.
25797	4.0419	5.9091	0.1	5266.
25798	4.2256	0.27273	0.1	5186.4
25799	4.3174	0.18182	0.1	5162.5
25800	4.2256	9.0909e-002	0.1	5200.2
25801	4.2256	0.45455	0.1	5169.3
25802	4.3174	0.36364	0.1	5145.6
25803	4.2256	0.63636	0.1	5152.8
25804	4.3174	0.54545	0.1	5129.6
25805	4.2256	0.81818	0.1	5136.7
25806	4.3174	0.72727	0.1	5113.7
25807	4.2256	1.	0.1	5121.1
25808	4.3174	0.90909	0.1	5098.4
25809	4.2256	1.1818	0.1	5106.2
25810	4.3174	1.0909	0.1	5083.6
25811	4.2256	1.3636	0.1	5092.1
25812	4.3174	1.2727	0.1	5069.5
25813	4.2256	1.5455	0.1	5079.1
25814	4.3174	1.4545	0.1	5056.4
25815	4.2256	1.7273	0.1	5067.2
25816	4.3174	1.6364	0.1	5044.3
25817	4.2256	1.9091	0.1	5056.7
25818	4.3174	1.8182	0.1	5033.4
25819	4.2256	2.0909	0.1	5047.5
25820	4.3174	2.	0.1	5023.8
25821	4.2256	2.2727	0.1	5039.9
25822	4.3174	2.1818	0.1	5015.6
25823	4.2256	2.4545	0.1	5033.8
25824	4.3174	2.3636	0.1	5009.
25825	4.2256	2.6364	0.1	5029.5
25826	4.3174	2.5455	0.1	5003.9
25827	4.2256	2.8182	0.1	5026.8
25828	4.3174	2.7273	0.1	5000.5
25829	4.2256	3.	0.1	5026.
25830	4.3174	2.9091	0.1	4998.8
25831	4.2256	3.1818	0.1	5026.8
25832	4.3174	3.0909	0.1	4998.8
25833	4.2256	3.3636	0.1	5029.5
25834	4.3174	3.2727	0.1	5000.5
25835	4.2256	3.5455	0.1	5033.8
25836	4.3174	3.4545	0.1	5003.9
25837	4.2256	3.7273	0.1	5039.9
25838	4.3174	3.6364	0.1	5009.
25839	4.2256	3.9091	0.1	5047.5
25840	4.3174	3.8182	0.1	5015.6
25841	4.2256	4.0909	0.1	5056.7
25842	4.3174	4.	0.1	5023.8
25843	4.2256	4.2727	0.1	5067.2
25844	4.3174	4.1818	0.1	5033.4
25845	4.2256	4.4545	0.1	5079.1
25846	4.3174	4.3636	0.1	5044.3
25847	4.2256	4.6364	0.1	5092.1
25848	4.3174	4.5455	0.1	5056.4
25849	4.2256	4.8182	0.1	5106.2
25850	4.3174	4.7273	0.1	5069.5
25851	4.2256	5.	0.1	5121.1
25852	4.3174	4.9091	0.1	5083.6
25853	4.2256	5.1818	0.1	5136.7
25854	4.3174	5.0909	0.1	5098.4
25855	4.2256	5.3636	0.1	5152.8
25856	4.3174	5.2727	0.1	5113.7
25857	4.2256	5.5455	0.1	5169.3
25858	4.3174	5.4545	0.1	5129.6
25859	4.2256	5.7273	0.1	5186.4
25860	4.3174	5.6364	0.1	5145.6
25861	4.3174	5.8182	0.1	5162.5
25862	4.2256	5.9091	0.1	5200.2
25863	4.4093	0.27273	0.1	5121.8
25864	4.5012	0.18182	0.1	5097.5
25865	4.4093	9.0909e-002	0.1	5134.9
25866	4.4093	0.45455	0.1	5105.9
25867	4.5012	0.36364	0.1	5081.9
25868	4.4093	0.63636	0.1	5090.5
25869	4.5012	0.54545	0.1	5067.
25870	4.4093	0.81818	0.1	5075.5
25871	4.5012	0.72727	0.1	5052.2
25872	4.4093	1.	0.1	5060.9
25873	4.5012	0.90909	0.1	5037.9
25874	4.4093	1.1818	0.1	5047.
25875	4.5012	1.0909	0.1	5024.1
25876	4.4093	1.3636	0.1	5033.8
25877	4.5012	1.2727	0.1	5010.9
25878	4.4093	1.5455	0.1	5021.6
25879	4.5012	1.4545	0.1	4998.7
25880	4.4093	1.7273	0.1	5010.5
25881	4.5012	1.6364	0.1	4987.3
25882	4.4093	1.9091	0.1	5000.6
25883	4.5012	1.8182	0.1	4977.1
25884	4.4093	2.0909	0.1	4991.9
25885	4.5012	2.	0.1	4968.1
25886	4.4093	2.2727	0.1	4984.8
25887	4.5012	2.1818	0.1	4960.5
25888	4.4093	2.4545	0.1	4979.1
25889	4.5012	2.3636	0.1	4954.2
25890	4.4093	2.6364	0.1	4975.
25891	4.5012	2.5455	0.1	4949.5
25892	4.4093	2.8182	0.1	4972.5
25893	4.5012	2.7273	0.1	4946.3
25894	4.4093	3.	0.1	4971.7
25895	4.5012	2.9091	0.1	4944.7
25896	4.4093	3.1818	0.1	4972.5
25897	4.5012	3.0909	0.1	4944.7
25898	4.4093	3.3636	0.1	4975.
25899	4.5012	3.2727	0.1	4946.3
25900	4.4093	3.5455	0.1	4979.1
25901	4.5012	3.4545	0.1	4949.5
25902	4.4093	3.7273	0.1	4984.8
25903	4.5012	3.6364	0.1	4954.2
25904	4.4093	3.9091	0.1	4991.9
25905	4.5012	3.8182	0.1	4960.5
25906	4.4093	4.0909	0.1	5000.6
25907	4.5012	4.	0.1	4968.1
25908	4.4093	4.2727	0.1	5010.5
25909	4.5012	4.1818	0.1	4977.1
25910	4.4093	4.4545	0.1	5021.6
25911	4.5012	4.3636	0.1	4987.3
25912	4.4093	4.6364	0.1	5033.8
25913	4.5012	4.5455	0.1	4998.7
25914	4.4093	4.8182	0.1	5047.
25915	4.5012	4.7273	0.1	5010.9
25916	4.4093	5.	0.1	5060.9
25917	4.5012	4.9091	0.1	5024.1
25918	4.4093	5.1818	0.1	5075.5
25919	4.5012	5.0909	0.1	5037.9
25920	4.4093	5.3636	0.1	5090.5
25921	4.5012	5.2727	0.1	5052.2
25922	4.4093	5.5455	0.1	5105.9
25923	4.5012	5.4545	0.1	5067.
25924	4.4093	5.7273	0.1	5121.8
25925	4.5012	5.6364	0.1	5081.9
25926	4.5012	5.8182	0.1	5097.5
25927	4.4093	5.9091	0.1	5134.9
25928	4.593	0.27273	0.1	5057.7
25929	4.6849	0.18182	0.1	5033.2
25930	4.593	9.0909e-002	0.1	5070.3
25931	4.593	0.45455	0.1	5043.
25932	4.6849	0.36364	0.1	5018.8
25933	4.593	0.63636	0.1	5028.7
25934	4.6849	0.54545	0.1	5004.9
25935	4.593	0.81818	0.1	5014.7
25936	4.6849	0.72727	0.1	4991.1
25937	4.593	1.	0.1	5001.1
25938	4.6849	0.90909	0.1	4977.8
25939	4.593	1.1818	0.1	4988.1
25940	4.6849	1.0909	0.1	4964.9
25941	4.593	1.3636	0.1	4975.8
25942	4.6849	1.2727	0.1	4952.7
25943	4.593	1.5455	0.1	4964.4
25944	4.6849	1.4545	0.1	4941.2
25945	4.593	1.7273	0.1	4954.
25946	4.6849	1.6364	0.1	4930.6
25947	4.593	1.9091	0.1	4944.7
25948	4.6849	1.8182	0.1	4921.1
25949	4.593	2.0909	0.1	4936.7
25950	4.6849	2.	0.1	4912.7
25951	4.593	2.2727	0.1	4929.9
25952	4.6849	2.1818	0.1	4905.6
25953	4.593	2.4545	0.1	4924.6
25954	4.6849	2.3636	0.1	4899.7
25955	4.593	2.6364	0.1	4920.8
25956	4.6849	2.5455	0.1	4895.3
25957	4.593	2.8182	0.1	4918.4
25958	4.6849	2.7273	0.1	4892.3
25959	4.593	3.	0.1	4917.7
25960	4.6849	2.9091	0.1	4890.8
25961	4.593	3.1818	0.1	4918.4
25962	4.6849	3.0909	0.1	4890.8
25963	4.593	3.3636	0.1	4920.8
25964	4.6849	3.2727	0.1	4892.3
25965	4.593	3.5455	0.1	4924.6
25966	4.6849	3.4545	0.1	4895.3
25967	4.593	3.7273	0.1	4929.9
25968	4.6849	3.6364	0.1	4899.7
25969	4.593	3.9091	0.1	4936.7
25970	4.6849	3.8182	0.1	4905.6
25971	4.593	4.0909	0.1	4944.7
25972	4.6849	4.	0.1	4912.7
25973	4.593	4.2727	0.1	4954.
25974	4.6849	4.1818	0.1	4921.1
25975	4.593	4.4545	0.1	4964.4
25976	4.6849	4.3636	0.1	4930.6
25977	4.593	4.6364	0.1	4975.8
25978	4.6849	4.5455	0.1	4941.2
25979	4.593	4.8182	0.1	4988.1
25980	4.6849	4.7273	0.1	4952.7
25981	4.593	5.	0.1	5001.1
25982	4.6849	4.9091	0.1	4964.9
25983	4.593	5.1818	0.1	5014.7
25984	4.6849	5.0909	0.1	4977.8
25985	4.593	5.3636	0.1	5028.7
25986	4.6849	5.2727	0.1	4991.1
25987	4.593	5.5455	0.1	5043.
25988	4.6849	5.4545	0.1	5004.9
25989	4.593	5.7273	0.1	5057.7
25990	4.6849	5.6364	0.1	5018.8
25991	4.6849	5.8182	0.1	5033.2
25992	4.593	5.9091	0.1	5070.3
25993	4.7767	0.27273	0.1	4994.3
25994	4.8686	0.18182	0.1	4969.6
25995	4.7767	9.0909e-002	0.1	5006.1
25996	4.7767	0.45455	0.1	4980.7
25997	4.8686	0.36364	0.1	4956.2
25998	4.7767	0.63636	0.1	4967.3
25999	4.8686	0.54545	0.1	4943.3
26000	4.7767	0.81818	0.1	4954.3
26001	4.8686	0.72727	0.1	4930.5
26002	4.7767	1.	0.1	4941.6
26003	4.8686	0.90909	0.1	4918.
26004	4.7767	1.1818	0.1	4929.5
26005	4.8686	1.0909	0.1	4906.1
26006	4.7767	1.3636	0.1	4918.1
26007	4.8686	1.2727	0.1	4894.7
26008	4.7767	1.5455	0.1	4907.5
26009	4.8686	1.4545	0.1	4884.
26010	4.7767	1.7273	0.1	4897.8
26011	4.8686	1.6364	0.1	4874.2
26012	4.7767	1.9091	0.1	4889.1
26013	4.8686	1.8182	0.1	4865.3
26014	4.7767	2.0909	0.1	4881.6
26015	4.8686	2.	0.1	4857.5
26016	4.7767	2.2727	0.1	4875.3
26017	4.8686	2.1818	0.1	4850.8
26018	4.7767	2.4545	0.1	4870.4
26019	4.8686	2.3636	0.1	4845.4
26020	4.7767	2.6364	0.1	4866.8
26021	4.8686	2.5455	0.1	4841.3
26022	4.7767	2.8182	0.1	4864.6
26023	4.8686	2.7273	0.1	4838.5
26024	4.7767	3.	0.1	4863.9
26025	4.8686	2.9091	0.1	4837.1
26026	4.7767	3.1818	0.1	4864.6
26027	4.8686	3.0909	0.1	4837.1
26028	4.7767	3.3636	0.1	4866.8
26029	4.8686	3.2727	0.1	4838.5
26030	4.7767	3.5455	0.1	4870.4
26031	4.8686	3.4545	0.1	4841.3
26032	4.7767	3.7273	0.1	4875.3
26033	4.8686	3.6364	0.1	4845.4
26034	4.7767	3.9091	0.1	4881.6
26035	4.8686	3.8182	0.1	4850.8
26036	4.7767	4.0909	0.1	4889.1
26037	4.8686	4.	0.1	4857.5
26038	4.7767	4.2727	0.1	4897.8
26039	4.8686	4.1818	0.1	4865.3
26040	4.7767	4.4545	0.1	4907.5
26041	4.8686	4.3636	0.1	4874.2
26042	4.7767	4.6364	0.1	4918.1
26043	4.8686	4.5455	0.1	4884.
26044	4.7767	4.8182	0.1	4929.5
26045	4.8686	4.7273	0.1	4894.7
26046	4.7767	5.	0.1	4941.6
26047	4.8686	4.9091	0.1	4906.1
26048	4.7767	5.1818	0.1	4954.3
26049	4.8686	5.0909	0.1	4918.
26050	4.7767	5.3636	0.1	4967.3
26051	4.8686	5.2727	0.1	4930.5
26052	4.7767	5.5455	0.1	4980.7
26053	4.8686	5.4545	0.1	4943.3
26054	4.7767	5.7273	0.1	4994.3
26055	4.8686	5.6364	0.1	4956.2
26056	4.8686	5.8182	0.1	4969.6
26057	4.7767	5.9091	0.1	5006.1
26058	4.9605	0.27273	0.1	4931.5
26059	5.0523	0.18182	0.1	4906.6
26060	4.9605	9.0909e-002	0.1	4942.6
26061	4.9605	0.45455	0.1	4918.8
26062	5.0523	0.36364	0.1	4894.2
26063	4.9605	0.63636	0.1	4906.4
26064	5.0523	0.54545	0.1	4882.2
26065	4.9605	0.81818	0.1	4894.3
26066	5.0523	0.72727	0.1	4870.3
26067	4.9605	1.	0.1	4882.5
26068	5.0523	0.90909	0.1	4858.7
26069	4.9605	1.1818	0.1	4871.3
26070	5.0523	1.0909	0.1	4847.6
26071	4.9605	1.3636	0.1	4860.7
26072	5.0523	1.2727	0.1	4837.
26073	4.9605	1.5455	0.1	4850.8
26074	5.0523	1.4545	0.1	4827.1
26075	4.9605	1.7273	0.1	4841.8
26076	5.0523	1.6364	0.1	4818.
26077	4.9605	1.9091	0.1	4833.7
26078	5.0523	1.8182	0.1	4809.7
26079	4.9605	2.0909	0.1	4826.7
26080	5.0523	2.	0.1	4802.5
26081	4.9605	2.2727	0.1	4820.9
26082	5.0523	2.1818	0.1	4796.3
26083	4.9605	2.4545	0.1	4816.3
26084	5.0523	2.3636	0.1	4791.2
26085	4.9605	2.6364	0.1	4812.9
26086	5.0523	2.5455	0.1	4787.4
26087	4.9605	2.8182	0.1	4810.9
26088	5.0523	2.7273	0.1	4784.8
26089	4.9605	3.	0.1	4810.2
26090	5.0523	2.9091	0.1	4783.5
26091	4.9605	3.1818	0.1	4810.9
26092	5.0523	3.0909	0.1	4783.5
26093	4.9605	3.3636	0.1	4812.9
26094	5.0523	3.2727	0.1	4784.8
26095	4.9605	3.5455	0.1	4816.3
26096	5.0523	3.4545	0.1	4787.4
26097	4.9605	3.7273	0.1	4820.9
26098	5.0523	3.6364	0.1	4791.2
26099	4.9605	3.9091	0.1	4826.7
26100	5.0523	3.8182	0.1	4796.3
26101	4.9605	4.0909	0.1	4833.7
26102	5.0523	4.	0.1	4802.5
26103	4.9605	4.2727	0.1	4841.8
26104	5.0523	4.1818	0.1	4809.7
26105	4.9605	4.4545	0.1	4850.8
26106	5.0523	4.3636	0.1	4818.
26107	4.9605	4.6364	0.1	4860.7
26108	5.0523	4.5455	0.1	4827.1
26109	4.9605	4.8182	0.1	4871.3
26110	5.0523	4.7273	0.1	4837.
26111	4.9605	5.	0.1	4882.5
26112	5.0523	4.9091	0.1	4847.6
26113	4.9605	5.1818	0.1	4894.3
26114	5.0523	5.0909	0.1	4858.7
26115	4.9605	5.3636	0.1	4906.4
26116	5.0523	5.2727	0.1	4870.3
26117	4.9605	5.5455	0.1	4918.8
26118	5.0523	5.4545	0.1	4882.2
26119	4.9605	5.7273	0.1	4931.5
26120	5.0523	5.6364	0.1	4894.2
26121	5.0523	5.8182	0.1	4906.6
26122	4.9605	5.9091	0.1	4942.6
26123	5.1442	0.27273	0.1	4869.3
26124	5.236	0.18182	0.1	4844.3
26125	5.1442	9.0909e-002	0.1	4879.7
26126	5.1442	0.45455	0.1	4857.5
26127	5.236	0.36364	0.1	4832.7
26128	5.1442	0.63636	0.1	4846.
26129	5.236	0.54545	0.1	4821.6
26130	5.1442	0.81818	0.1	4834.7
26131	5.236	0.72727	0.1	4810.5
26132	5.1442	1.	0.1	4823.8
26133	5.236	0.90909	0.1	4799.8
26134	5.1442	1.1818	0.1	4813.4
26135	5.236	1.0909	0.1	4789.5
26136	5.1442	1.3636	0.1	4803.5
26137	5.236	1.2727	0.1	4779.6
26138	5.1442	1.5455	0.1	4794.3
26139	5.236	1.4545	0.1	4770.5
26140	5.1442	1.7273	0.1	4786.
26141	5.236	1.6364	0.1	4762.
26142	5.1442	1.9091	0.1	4778.5
26143	5.236	1.8182	0.1	4754.3
26144	5.1442	2.0909	0.1	4772.
26145	5.236	2.	0.1	4747.6
26146	5.1442	2.2727	0.1	4766.6
26147	5.236	2.1818	0.1	4741.8
26148	5.1442	2.4545	0.1	4762.3
26149	5.236	2.3636	0.1	4737.2
26150	5.1442	2.6364	0.1	4759.2
26151	5.236	2.5455	0.1	4733.6
26152	5.1442	2.8182	0.1	4757.3
26153	5.236	2.7273	0.1	4731.2
26154	5.1442	3.	0.1	4756.7
26155	5.236	2.9091	0.1	4730.
26156	5.1442	3.1818	0.1	4757.3
26157	5.236	3.0909	0.1	4730.
26158	5.1442	3.3636	0.1	4759.2
26159	5.236	3.2727	0.1	4731.2
26160	5.1442	3.5455	0.1	4762.3
26161	5.236	3.4545	0.1	4733.6
26162	5.1442	3.7273	0.1	4766.6
26163	5.236	3.6364	0.1	4737.2
26164	5.1442	3.9091	0.1	4772.
26165	5.236	3.8182	0.1	4741.8
26166	5.1442	4.0909	0.1	4778.5
26167	5.236	4.	0.1	4747.6
26168	5.1442	4.2727	0.1	4786.
26169	5.236	4.1818	0.1	4754.3
26170	5.1442	4.4545	0.1	4794.3
26171	5.236	4.3636	0.1	4762.
26172	5.1442	4.6364	0.1	4803.5
26173	5.236	4.5455	0.1	4770.5
26174	5.1442	4.8182	0.1	4813.4
26175	5.236	4.7273	0.1	4779.6
26176	5.1442	5.	0.1	4823.8
26177	5.236	4.9091	0.1	4789.5
26178	5.1442	5.1818	0.1	4834.7
26179	5.236	5.0909	0.1	4799.8
26180	5.1442	5.3636	0.1	4846.
26181	5.236	5.2727	0.1	4810.5
26182	5.1442	5.5455	0.1	4857.5
26183	5.236	5.4545	0.1	4821.6
26184	5.1442	5.7273	0.1	4869.3
26185	5.236	5.6364	0.1	4832.7
26186	5.236	5.8182	0.1	4844.3
26187	5.1442	5.9091	0.1	4879.7
26188	5.3279	0.27273	0.1	4807.7
26189	5.4198	0.18182	0.1	4782.5
26190	5.3279	9.0909e-002	0.1	4817.4
26191	5.3279	0.45455	0.1	4796.8
26192	5.4198	0.36364	0.1	4771.8
26193	5.3279	0.63636	0.1	4786.1
26194	5.4198	0.54545	0.1	4761.4
26195	5.3279	0.81818	0.1	4775.6
26196	5.4198	0.72727	0.1	4751.2
26197	5.3279	1.	0.1	4765.5
26198	5.4198	0.90909	0.1	4741.2
26199	5.3279	1.1818	0.1	4755.8
26200	5.4198	1.0909	0.1	4731.6
26201	5.3279	1.3636	0.1	4746.6
26202	5.4198	1.2727	0.1	4722.6
26203	5.3279	1.5455	0.1	4738.1
26204	5.4198	1.4545	0.1	4714.
26205	5.3279	1.7273	0.1	4730.4
26206	5.4198	1.6364	0.1	4706.2
26207	5.3279	1.9091	0.1	4723.4
26208	5.4198	1.8182	0.1	4699.1
26209	5.3279	2.0909	0.1	4717.4
26210	5.4198	2.	0.1	4692.9
26211	5.3279	2.2727	0.1	4712.4
26212	5.4198	2.1818	0.1	4687.5
26213	5.3279	2.4545	0.1	4708.4
26214	5.4198	2.3636	0.1	4683.2
26215	5.3279	2.6364	0.1	4705.6
26216	5.4198	2.5455	0.1	4679.9
26217	5.3279	2.8182	0.1	4703.8
26218	5.4198	2.7273	0.1	4677.7
26219	5.3279	3.	0.1	4703.2
26220	5.4198	2.9091	0.1	4676.5
26221	5.3279	3.1818	0.1	4703.8
26222	5.4198	3.0909	0.1	4676.5
26223	5.3279	3.3636	0.1	4705.6
26224	5.4198	3.2727	0.1	4677.7
26225	5.3279	3.5455	0.1	4708.4
26226	5.4198	3.4545	0.1	4679.9
26227	5.3279	3.7273	0.1	4712.4
26228	5.4198	3.6364	0.1	4683.2
26229	5.3279	3.9091	0.1	4717.4
26230	5.4198	3.8182	0.1	4687.5
26231	5.3279	4.0909	0.1	4723.4
26232	5.4198	4.	0.1	4692.9
26233	5.3279	4.2727	0.1	4730.4
26234	5.4198	4.1818	0.1	4699.1
26235	5.3279	4.4545	0.1	4738.1
26236	5.4198	4.3636	0.1	4706.2
26237	5.3279	4.6364	0.1	4746.6
26238	5.4198	4.5455	0.1	4714.
26239	5.3279	4.8182	0.1	4755.8
26240	5.4198	4.7273	0.1	4722.6
26241	5.3279	5.	0.1	4765.5
26242	5.4198	4.9091	0.1	4731.6
26243	5.3279	5.1818	0.1	4775.6
26244	5.4198	5.0909	0.1	4741.2
26245	5.3279	5.3636	0.1	4786.1
26246	5.4198	5.2727	0.1	4751.2
26247	5.3279	5.5455	0.1	4796.8
26248	5.4198	5.4545	0.1	4761.4
26249	5.3279	5.7273	0.1	4807.7
26250	5.4198	5.6364	0.1	4771.8
26251	5.4198	5.8182	0.1	4782.5
26252	5.3279	5.9091	0.1	4817.4
26253	5.5116	0.27273	0.1	4746.7
26254	5.6035	0.18182	0.1	4721.4
26255	5.5116	9.0909e-002	0.1	4755.7
26256	5.5116	0.45455	0.1	4736.5
26257	5.6035	0.36364	0.1	4711.4
26258	5.5116	0.63636	0.1	4726.6
26259	5.6035	0.54545	0.1	4701.8
26260	5.5116	0.81818	0.1	4716.8
26261	5.6035	0.72727	0.1	4692.3
26262	5.5116	1.	0.1	4707.4
26263	5.6035	0.90909	0.1	4683.
26264	5.5116	1.1818	0.1	4698.5
26265	5.6035	1.0909	0.1	4674.2
26266	5.5116	1.3636	0.1	4690.
26267	5.6035	1.2727	0.1	4665.7
26268	5.5116	1.5455	0.1	4682.1
26269	5.6035	1.4545	0.1	4657.8
26270	5.5116	1.7273	0.1	4674.9
26271	5.6035	1.6364	0.1	4650.6
26272	5.5116	1.9091	0.1	4668.5
26273	5.6035	1.8182	0.1	4644.
26274	5.5116	2.0909	0.1	4663.
26275	5.6035	2.	0.1	4638.2
26276	5.5116	2.2727	0.1	4658.3
26277	5.6035	2.1818	0.1	4633.3
26278	5.5116	2.4545	0.1	4654.6
26279	5.6035	2.3636	0.1	4629.3
26280	5.5116	2.6364	0.1	4652.
26281	5.6035	2.5455	0.1	4626.2
26282	5.5116	2.8182	0.1	4650.4
26283	5.6035	2.7273	0.1	4624.2
26284	5.5116	3.	0.1	4649.8
26285	5.6035	2.9091	0.1	4623.2
26286	5.5116	3.1818	0.1	4650.4
26287	5.6035	3.0909	0.1	4623.2
26288	5.5116	3.3636	0.1	4652.
26289	5.6035	3.2727	0.1	4624.2
26290	5.5116	3.5455	0.1	4654.6
26291	5.6035	3.4545	0.1	4626.2
26292	5.5116	3.7273	0.1	4658.3
26293	5.6035	3.6364	0.1	4629.3
26294	5.5116	3.9091	0.1	4663.
26295	5.6035	3.8182	0.1	4633.3
26296	5.5116	4.0909	0.1	4668.5
26297	5.6035	4.	0.1	4638.2
26298	5.5116	4.2727	0.1	4674.9
26299	5.6035	4.1818	0.1	4644.
26300	5.5116	4.4545	0.1	4682.1
26301	5.6035	4.3636	0.1	4650.6
26302	5.5116	4.6364	0.1	4690.
26303	5.6035	4.5455	0.1	4657.8
26304	5.5116	4.8182	0.1	4698.5
26305	5.6035	4.7273	0.1	4665.7
26306	5.5116	5.	0.1	4707.4
26307	5.6035	4.9091	0.1	4674.2
26308	5.5116	5.1818	0.1	4716.8
26309	5.6035	5.0909	0.1	4683.
26310	5.5116	5.3636	0.1	4726.6
26311	5.6035	5.2727	0.1	4692.3
26312	5.5116	5.5455	0.1	4736.5
26313	5.6035	5.4545	0.1	4701.8
26314	5.5116	5.7273	0.1	4746.7
26315	5.6035	5.6364	0.1	4711.4
26316	5.6035	5.8182	0.1	4721.4
26317	5.5116	5.9091	0.1	4755.7
26318	5.6953	0.27273	0.1	4686.2
26319	5.7872	0.18182	0.1	4660.8
26320	5.6953	9.0909e-002	0.1	4694.5
26321	5.6953	0.45455	0.1	4676.7
26322	5.7872	0.36364	0.1	4651.5
26323	5.6953	0.63636	0.1	4667.5
26324	5.7872	0.54545	0.1	4642.6
26325	5.6953	0.81818	0.1	4658.5
26326	5.7872	0.72727	0.1	4633.8
26327	5.6953	1.	0.1	4649.8
26328	5.7872	0.90909	0.1	4625.2
26329	5.6953	1.1818	0.1	4641.4
26330	5.7872	1.0909	0.1	4617.
26331	5.6953	1.3636	0.1	4633.6
26332	5.7872	1.2727	0.1	4609.2
26333	5.6953	1.5455	0.1	4626.3
26334	5.7872	1.4545	0.1	4601.9
26335	5.6953	1.7273	0.1	4619.7
26336	5.7872	1.6364	0.1	4595.1
26337	5.6953	1.9091	0.1	4613.7
26338	5.7872	1.8182	0.1	4589.1
26339	5.6953	2.0909	0.1	4608.6
26340	5.7872	2.	0.1	4583.7
26341	5.6953	2.2727	0.1	4604.3
26342	5.7872	2.1818	0.1	4579.2
26343	5.6953	2.4545	0.1	4600.9
26344	5.7872	2.3636	0.1	4575.5
26345	5.6953	2.6364	0.1	4598.5
26346	5.7872	2.5455	0.1	4572.7
26347	5.6953	2.8182	0.1	4597.
26348	5.7872	2.7273	0.1	4570.8
26349	5.6953	3.	0.1	4596.5
26350	5.7872	2.9091	0.1	4569.8
26351	5.6953	3.1818	0.1	4597.
26352	5.7872	3.0909	0.1	4569.8
26353	5.6953	3.3636	0.1	4598.5
26354	5.7872	3.2727	0.1	4570.8
26355	5.6953	3.5455	0.1	4600.9
26356	5.7872	3.4545	0.1	4572.7
26357	5.6953	3.7273	0.1	4604.3
26358	5.7872	3.6364	0.1	4575.5
26359	5.6953	3.9091	0.1	4608.6
26360	5.7872	3.8182	0.1	4579.2
26361	5.6953	4.0909	0.1	4613.7
26362	5.7872	4.	0.1	4583.7
26363	5.6953	4.2727	0.1	4619.7
26364	5.7872	4.1818	0.1	4589.1
26365	5.6953	4.4545	0.1	4626.3
26366	5.7872	4.3636	0.1	4595.1
26367	5.6953	4.6364	0.1	4633.6
26368	5.7872	4.5455	0.1	4601.9
26369	5.6953	4.8182	0.1	4641.4
26370	5.7872	4.7273	0.1	4609.2
26371	5.6953	5.	0.1	4649.8
26372	5.7872	4.9091	0.1	4617.
26373	5.6953	5.1818	0.1	4658.5
26374	5.7872	5.0909	0.1	4625.2
26375	5.6953	5.3636	0.1	4667.5
26376	5.7872	5.2727	0.1	4633.8
26377	5.6953	5.5455	0.1	4676.7
26378	5.7872	5.4545	0.1	4642.6
26379	5.6953	5.7273	0.1	4686.2
26380	5.7872	5.6364	0.1	4651.5
26381	5.7872	5.8182	0.1	4660.8
26382	5.6953	5.9091	0.1	4694.5
26383	5.8791	0.27273	0.1	4626.2
26384	5.9709	0.18182	0.1	4600.8
26385	5.8791	9.0909e-002	0.1	4633.9
26386	5.8791	0.45455	0.1	4617.4
26387	5.9709	0.36364	0.1	4592.1
26388	5.8791	0.63636	0.1	4608.9
26389	5.9709	0.54545	0.1	4583.8
26390	5.8791	0.81818	0.1	4600.5
26391	5.9709	0.72727	0.1	4575.6
26392	5.8791	1.	0.1	4592.4
26393	5.9709	0.90909	0.1	4567.7
26394	5.8791	1.1818	0.1	4584.7
26395	5.9709	1.0909	0.1	4560.1
26396	5.8791	1.3636	0.1	4577.4
26397	5.9709	1.2727	0.1	4552.9
26398	5.8791	1.5455	0.1	4570.7
26399	5.9709	1.4545	0.1	4546.1
26400	5.8791	1.7273	0.1	4564.6
26401	5.9709	1.6364	0.1	4539.9
26402	5.8791	1.9091	0.1	4559.1
26403	5.9709	1.8182	0.1	4534.3
26404	5.8791	2.0909	0.1	4554.3
26405	5.9709	2.	0.1	4529.4
26406	5.8791	2.2727	0.1	4550.4
26407	5.9709	2.1818	0.1	4525.2
26408	5.8791	2.4545	0.1	4547.2
26409	5.9709	2.3636	0.1	4521.7
26410	5.8791	2.6364	0.1	4545.
26411	5.9709	2.5455	0.1	4519.1
26412	5.8791	2.8182	0.1	4543.6
26413	5.9709	2.7273	0.1	4517.4
26414	5.8791	3.	0.1	4543.1
26415	5.9709	2.9091	0.1	4516.5
26416	5.8791	3.1818	0.1	4543.6
26417	5.9709	3.0909	0.1	4516.5
26418	5.8791	3.3636	0.1	4545.
26419	5.9709	3.2727	0.1	4517.4
26420	5.8791	3.5455	0.1	4547.2
26421	5.9709	3.4545	0.1	4519.1
26422	5.8791	3.7273	0.1	4550.4
26423	5.9709	3.6364	0.1	4521.7
26424	5.8791	3.9091	0.1	4554.3
26425	5.9709	3.8182	0.1	4525.2
26426	5.8791	4.0909	0.1	4559.1
26427	5.9709	4.	0.1	4529.4
26428	5.8791	4.2727	0.1	4564.6
26429	5.9709	4.1818	0.1	4534.3
26430	5.8791	4.4545	0.1	4570.7
26431	5.9709	4.3636	0.1	4539.9
26432	5.8791	4.6364	0.1	4577.4
26433	5.9709	4.5455	0.1	4546.1
26434	5.8791	4.8182	0.1	4584.7
26435	5.9709	4.7273	0.1	4552.9
26436	5.8791	5.	0.1	4592.4
26437	5.9709	4.9091	0.1	4560.1
26438	5.8791	5.1818	0.1	4600.5
26439	5.9709	5.0909	0.1	4567.7
26440	5.8791	5.3636	0.1	4608.9
26441	5.9709	5.2727	0.1	4575.6
26442	5.8791	5.5455	0.1	4617.4
26443	5.9709	5.4545	0.1	4583.8
26444	5.8791	5.7273	0.1	4626.2
26445	5.9709	5.6364	0.1	4592.1
26446	5.9709	5.8182	0.1	4600.8
26447	5.8791	5.9091	0.1	4633.9
26448	6.0628	0.27273	0.1	4566.8
26449	6.1547	0.18182	0.1	4541.3
26450	6.0628	9.0909e-002	0.1	4573.8
26451	6.0628	0.45455	0.1	4558.6
26452	6.1547	0.36364	0.1	4533.2
26453	6.0628	0.63636	0.1	4550.6
26454	6.1547	0.54545	0.1	4525.5
26455	6.0628	0.81818	0.1	4542.9
26456	6.1547	0.72727	0.1	4517.9
26457	6.0628	1.	0.1	4535.4
26458	6.1547	0.90909	0.1	4510.5
26459	6.0628	1.1818	0.1	4528.2
26460	6.1547	1.0909	0.1	4503.5
26461	6.0628	1.3636	0.1	4521.5
26462	6.1547	1.2727	0.1	4496.8
26463	6.0628	1.5455	0.1	4515.3
26464	6.1547	1.4545	0.1	4490.6
26465	6.0628	1.7273	0.1	4509.6
26466	6.1547	1.6364	0.1	4484.8
26467	6.0628	1.9091	0.1	4504.6
26468	6.1547	1.8182	0.1	4479.6
26469	6.0628	2.0909	0.1	4500.2
26470	6.1547	2.	0.1	4475.1
26471	6.0628	2.2727	0.1	4496.5
26472	6.1547	2.1818	0.1	4471.2
26473	6.0628	2.4545	0.1	4493.6
26474	6.1547	2.3636	0.1	4468.
26475	6.0628	2.6364	0.1	4491.5
26476	6.1547	2.5455	0.1	4465.6
26477	6.0628	2.8182	0.1	4490.3
26478	6.1547	2.7273	0.1	4464.
26479	6.0628	3.	0.1	4489.8
26480	6.1547	2.9091	0.1	4463.2
26481	6.0628	3.1818	0.1	4490.3
26482	6.1547	3.0909	0.1	4463.2
26483	6.0628	3.3636	0.1	4491.5
26484	6.1547	3.2727	0.1	4464.
26485	6.0628	3.5455	0.1	4493.6
26486	6.1547	3.4545	0.1	4465.6
26487	6.0628	3.7273	0.1	4496.5
26488	6.1547	3.6364	0.1	4468.
26489	6.0628	3.9091	0.1	4500.2
26490	6.1547	3.8182	0.1	4471.2
26491	6.0628	4.0909	0.1	4504.6
26492	6.1547	4.	0.1	4475.1
26493	6.0628	4.2727	0.1	4509.6
26494	6.1547	4.1818	0.1	4479.6
26495	6.0628	4.4545	0.1	4515.3
26496	6.1547	4.3636	0.1	4484.8
26497	6.0628	4.6364	0.1	4521.5
26498	6.1547	4.5455	0.1	4490.6
26499	6.0628	4.8182	0.1	4528.2
26500	6.1547	4.7273	0.1	4496.8
26501	6.0628	5.	0.1	4535.4
26502	6.1547	4.9091	0.1	4503.5
26503	6.0628	5.1818	0.1	4542.9
26504	6.1547	5.0909	0.1	4510.5
26505	6.0628	5.3636	0.1	4550.6
26506	6.1547	5.2727	0.1	4517.9
26507	6.0628	5.5455	0.1	4558.6
26508	6.1547	5.4545	0.1	4525.5
26509	6.0628	5.7273	0.1	4566.8
26510	6.1547	5.6364	0.1	4533.2
26511	6.1547	5.8182	0.1	4541.3
26512	6.0628	5.9091	0.1	4573.8
26513	6.2465	0.27273	0.1	4507.8
26514	6.3384	0.18182	0.1	4482.3
26515	6.2465	9.0909e-002	0.1	4514.2
26516	6.2465	0.45455	0.1	4500.1
26517	6.3384	0.36364	0.1	4474.7
26518	6.2465	0.63636	0.1	4492.8
26519	6.3384	0.54545	0.1	4467.6
26520	6.2465	0.81818	0.1	4485.6
26521	6.3384	0.72727	0.1	4460.5
26522	6.2465	1.	0.1	4478.7
26523	6.3384	0.90909	0.1	4453.7
26524	6.2465	1.1818	0.1	4472.
26525	6.3384	1.0909	0.1	4447.2
26526	6.2465	1.3636	0.1	4465.8
26527	6.3384	1.2727	0.1	4441.
26528	6.2465	1.5455	0.1	4460.1
26529	6.3384	1.4545	0.1	4435.2
26530	6.2465	1.7273	0.1	4454.8
26531	6.3384	1.6364	0.1	4429.9
26532	6.2465	1.9091	0.1	4450.2
26533	6.3384	1.8182	0.1	4425.1
26534	6.2465	2.0909	0.1	4446.1
26535	6.3384	2.	0.1	4420.9
26536	6.2465	2.2727	0.1	4442.7
26537	6.3384	2.1818	0.1	4417.3
26538	6.2465	2.4545	0.1	4440.1
26539	6.3384	2.3636	0.1	4414.4
26540	6.2465	2.6364	0.1	4438.1
26541	6.3384	2.5455	0.1	4412.2
26542	6.2465	2.8182	0.1	4437.
26543	6.3384	2.7273	0.1	4410.7
26544	6.2465	3.	0.1	4436.6
26545	6.3384	2.9091	0.1	4410.
26546	6.2465	3.1818	0.1	4437.
26547	6.3384	3.0909	0.1	4410.
26548	6.2465	3.3636	0.1	4438.1
26549	6.3384	3.2727	0.1	4410.7
26550	6.2465	3.5455	0.1	4440.1
26551	6.3384	3.4545	0.1	4412.2
26552	6.2465	3.7273	0.1	4442.7
26553	6.3384	3.6364	0.1	4414.4
26554	6.2465	3.9091	0.1	4446.1
26555	6.3384	3.8182	0.1	4417.3
26556	6.2465	4.0909	0.1	4450.2
26557	6.3384	4.	0.1	4420.9
26558	6.2465	4.2727	0.1	4454.8
26559	6.3384	4.1818	0.1	4425.1
26560	6.2465	4.4545	0.1	4460.1
26561	6.3384	4.3636	0.1	4429.9
26562	6.2465	4.6364	0.1	4465.8
26563	6.3384	4.5455	0.1	4435.2
26564	6.2465	4.8182	0.1	4472.
26565	6.3384	4.7273	0.1	4441.
26566	6.2465	5.	0.1	4478.7
26567	6.3384	4.9091	0.1	4447.2
26568	6.2465	5.1818	0.1	4485.6
26569	6.3384	5.0909	0.1	4453.7
26570	6.2465	5.3636	0.1	4492.8
26571	6.3384	5.2727	0.1	4460.5
26572	6.2465	5.5455	0.1	4500.1
26573	6.3384	5.4545	0.1	4467.6
26574	6.2465	5.7273	0.1	4507.8
26575	6.3384	5.6364	0.1	4474.7
26576	6.3384	5.8182	0.1	4482.3
26577	6.2465	5.9091	0.1	4514.2
26578	6.4302	0.27273	0.1	4449.3
26579	6.5221	0.18182	0.1	4423.8
26580	6.4302	9.0909e-002	0.1	4455.1
26581	6.4302	0.45455	0.1	4442.1
26582	6.5221	0.36364	0.1	4416.7
26583	6.4302	0.63636	0.1	4435.3
26584	6.5221	0.54545	0.1	4410.
26585	6.4302	0.81818	0.1	4428.6
26586	6.5221	0.72727	0.1	4403.5
26587	6.4302	1.	0.1	4422.2
26588	6.5221	0.90909	0.1	4397.2
26589	6.4302	1.1818	0.1	4416.1
26590	6.5221	1.0909	0.1	4391.1
26591	6.4302	1.3636	0.1	4410.4
26592	6.5221	1.2727	0.1	4385.4
26593	6.4302	1.5455	0.1	4405.
26594	6.5221	1.4545	0.1	4380.1
26595	6.4302	1.7273	0.1	4400.2
26596	6.5221	1.6364	0.1	4375.2
26597	6.4302	1.9091	0.1	4395.9
26598	6.5221	1.8182	0.1	4370.7
26599	6.4302	2.0909	0.1	4392.1
26600	6.5221	2.	0.1	4366.9
26601	6.4302	2.2727	0.1	4389.
26602	6.5221	2.1818	0.1	4363.6
26603	6.4302	2.4545	0.1	4386.6
26604	6.5221	2.3636	0.1	4360.9
26605	6.4302	2.6364	0.1	4384.8
26606	6.5221	2.5455	0.1	4358.8
26607	6.4302	2.8182	0.1	4383.7
26608	6.5221	2.7273	0.1	4357.5
26609	6.4302	3.	0.1	4383.4
26610	6.5221	2.9091	0.1	4356.8
26611	6.4302	3.1818	0.1	4383.7
26612	6.5221	3.0909	0.1	4356.8
26613	6.4302	3.3636	0.1	4384.8
26614	6.5221	3.2727	0.1	4357.5
26615	6.4302	3.5455	0.1	4386.6
26616	6.5221	3.4545	0.1	4358.8
26617	6.4302	3.7273	0.1	4389.
26618	6.5221	3.6364	0.1	4360.9
26619	6.4302	3.9091	0.1	4392.1
26620	6.5221	3.8182	0.1	4363.6
26621	6.4302	4.0909	0.1	4395.9
26622	6.5221	4.	0.1	4366.9
26623	6.4302	4.2727	0.1	4400.2
26624	6.5221	4.1818	0.1	4370.7
26625	6.4302	4.4545	0.1	4405.
26626	6.5221	4.3636	0.1	4375.2
26627	6.4302	4.6364	0.1	4410.4
26628	6.5221	4.5455	0.1	4380.1
26629	6.4302	4.8182	0.1	4416.1
26630	6.5221	4.7273	0.1	4385.4
26631	6.4302	5.	0.1	4422.2
26632	6.5221	4.9091	0.1	4391.1
26633	6.4302	5.1818	0.1	4428.6
26634	6.5221	5.0909	0.1	4397.2
26635	6.4302	5.3636	0.1	4435.3
26636	6.5221	5.2727	0.1	4403.5
26637	6.4302	5.5455	0.1	4442.1
26638	6.5221	5.4545	0.1	4410.
26639	6.4302	5.7273	0.1	4449.3
26640	6.5221	5.6364	0.1	4416.7
26641	6.5221	5.8182	0.1	4423.8
26642	6.4302	5.9091	0.1	4455.1
26643	6.614	0.27273	0.1	4391.2
26644	6.7058	0.18182	0.1	4365.7
26645	6.614	9.0909e-002	0.1	4396.4
26646	6.614	0.45455	0.1	4384.5
26647	6.7058	0.36364	0.1	4359.
26648	6.614	0.63636	0.1	4378.2
26649	6.7058	0.54545	0.1	4352.8
26650	6.614	0.81818	0.1	4372.
26651	6.7058	0.72727	0.1	4346.8
26652	6.614	1.	0.1	4366.1
26653	6.7058	0.90909	0.1	4340.9
26654	6.614	1.1818	0.1	4360.4
26655	6.7058	1.0909	0.1	4335.3
26656	6.614	1.3636	0.1	4355.1
26657	6.7058	1.2727	0.1	4330.
26658	6.614	1.5455	0.1	4350.2
26659	6.7058	1.4545	0.1	4325.1
26660	6.614	1.7273	0.1	4345.7
26661	6.7058	1.6364	0.1	4320.6
26662	6.614	1.9091	0.1	4341.7
26663	6.7058	1.8182	0.1	4316.5
26664	6.614	2.0909	0.1	4338.3
26665	6.7058	2.	0.1	4312.9
26666	6.614	2.2727	0.1	4335.4
26667	6.7058	2.1818	0.1	4309.9
26668	6.614	2.4545	0.1	4333.1
26669	6.7058	2.3636	0.1	4307.4
26670	6.614	2.6364	0.1	4331.5
26671	6.7058	2.5455	0.1	4305.5
26672	6.614	2.8182	0.1	4330.5
26673	6.7058	2.7273	0.1	4304.3
26674	6.614	3.	0.1	4330.2
26675	6.7058	2.9091	0.1	4303.6
26676	6.614	3.1818	0.1	4330.5
26677	6.7058	3.0909	0.1	4303.6
26678	6.614	3.3636	0.1	4331.5
26679	6.7058	3.2727	0.1	4304.3
26680	6.614	3.5455	0.1	4333.1
26681	6.7058	3.4545	0.1	4305.5
26682	6.614	3.7273	0.1	4335.4
26683	6.7058	3.6364	0.1	4307.4
26684	6.614	3.9091	0.1	4338.3
26685	6.7058	3.8182	0.1	4309.9
26686	6.614	4.0909	0.1	4341.7
26687	6.7058	4.	0.1	4312.9
26688	6.614	4.2727	0.1	4345.7
26689	6.7058	4.1818	0.1	4316.5
26690	6.614	4.4545	0.1	4350.2
26691	6.7058	4.3636	0.1	4320.6
26692	6.614	4.6364	0.1	4355.1
26693	6.7058	4.5455	0.1	4325.1
26694	6.614	4.8182	0.1	4360.4
26695	6.7058	4.7273	0.1	4330.
26696	6.614	5.	0.1	4366.1
26697	6.7058	4.9091	0.1	4335.3
26698	6.614	5.1818	0.1	4372.
26699	6.7058	5.0909	0.1	4340.9
26700	6.614	5.3636	0.1	4378.2
26701	6.7058	5.2727	0.1	4346.8
26702	6.614	5.5455	0.1	4384.5
26703	6.7058	5.4545	0.1	4352.8
26704	6.614	5.7273	0.1	4391.2
26705	6.7058	5.6364	0.1	4359.
26706	6.7058	5.8182	0.1	4365.7
26707	6.614	5.9091	0.1	4396.4
26708	6.7977	0.27273	0.1	4333.5
26709	6.8895	0.18182	0.1	4308.
26710	6.7977	9.0909e-002	0.1	4338.2
26711	6.7977	0.45455	0.1	4327.3
26712	6.8895	0.36364	0.1	4301.8
26713	6.7977	0.63636	0.1	4321.4
26714	6.8895	0.54545	0.1	4296.
26715	6.7977	0.81818	0.1	4315.7
26716	6.8895	0.72727	0.1	4290.4
26717	6.7977	1.	0.1	4310.2
26718	6.8895	0.90909	0.1	4285.
26719	6.7977	1.1818	0.1	4305.
26720	6.8895	1.0909	0.1	4279.8
26721	6.7977	1.3636	0.1	4300.
26722	6.8895	1.2727	0.1	4274.9
26723	6.7977	1.5455	0.1	4295.5
26724	6.8895	1.4545	0.1	4270.3
26725	6.7977	1.7273	0.1	4291.4
26726	6.8895	1.6364	0.1	4266.2
26727	6.7977	1.9091	0.1	4287.7
26728	6.8895	1.8182	0.1	4262.4
26729	6.7977	2.0909	0.1	4284.5
26730	6.8895	2.	0.1	4259.1
26731	6.7977	2.2727	0.1	4281.9
26732	6.8895	2.1818	0.1	4256.3
26733	6.7977	2.4545	0.1	4279.8
26734	6.8895	2.3636	0.1	4254.
26735	6.7977	2.6364	0.1	4278.3
26736	6.8895	2.5455	0.1	4252.3
26737	6.7977	2.8182	0.1	4277.4
26738	6.8895	2.7273	0.1	4251.1
26739	6.7977	3.	0.1	4277.
26740	6.8895	2.9091	0.1	4250.5
26741	6.7977	3.1818	0.1	4277.4
26742	6.8895	3.0909	0.1	4250.5
26743	6.7977	3.3636	0.1	4278.3
26744	6.8895	3.2727	0.1	4251.1
26745	6.7977	3.5455	0.1	4279.8
26746	6.8895	3.4545	0.1	4252.3
26747	6.7977	3.7273	0.1	4281.9
26748	6.8895	3.6364	0.1	4254.
26749	6.7977	3.9091	0.1	4284.5
26750	6.8895	3.8182	0.1	4256.3
26751	6.7977	4.0909	0.1	4287.7
26752	6.8895	4.	0.1	4259.1
26753	6.7977	4.2727	0.1	4291.4
26754	6.8895	4.1818	0.1	4262.4
26755	6.7977	4.4545	0.1	4295.5
26756	6.8895	4.3636	0.1	4266.2
26757	6.7977	4.6364	0.1	4300.
26758	6.8895	4.5455	0.1	4270.3
26759	6.7977	4.8182	0.1	4305.
26760	6.8895	4.7273	0.1	4274.9
26761	6.7977	5.	0.1	4310.2
26762	6.8895	4.9091	0.1	4279.8
26763	6.7977	5.1818	0.1	4315.7
26764	6.8895	5.0909	0.1	4285.
26765	6.7977	5.3636	0.1	4321.4
26766	6.8895	5.2727	0.1	4290.4
26767	6.7977	5.5455	0.1	4327.3
26768	6.8895	5.4545	0.1	4296.
26769	6.7977	5.7273	0.1	4333.5
26770	6.8895	5.6364	0.1	4301.8
26771	6.8895	5.8182	0.1	4308.
26772	6.7977	5.9091	0.1	4338.2
26773	6.9814	0.27273	0.1	4276.3
26774	7.0733	0.18182	0.1	4250.8
26775	6.9814	9.0909e-002	0.1	4280.5
26776	6.9814	0.45455	0.1	4270.5
26777	7.0733	0.36364	0.1	4244.9
26778	6.9814	0.63636	0.1	4265.
26779	7.0733	0.54545	0.1	4239.5
26780	6.9814	0.81818	0.1	4259.7
26781	7.0733	0.72727	0.1	4234.3
26782	6.9814	1.	0.1	4254.6
26783	7.0733	0.90909	0.1	4229.3
26784	6.9814	1.1818	0.1	4249.7
26785	7.0733	1.0909	0.1	4224.5
26786	6.9814	1.3636	0.1	4245.2
26787	7.0733	1.2727	0.1	4220.
26788	6.9814	1.5455	0.1	4241.
26789	7.0733	1.4545	0.1	4215.8
26790	6.9814	1.7273	0.1	4237.2
26791	7.0733	1.6364	0.1	4211.9
26792	6.9814	1.9091	0.1	4233.8
26793	7.0733	1.8182	0.1	4208.4
26794	6.9814	2.0909	0.1	4230.9
26795	7.0733	2.	0.1	4205.4
26796	6.9814	2.2727	0.1	4228.4
26797	7.0733	2.1818	0.1	4202.8
26798	6.9814	2.4545	0.1	4226.5
26799	7.0733	2.3636	0.1	4200.7
26800	6.9814	2.6364	0.1	4225.1
26801	7.0733	2.5455	0.1	4199.1
26802	6.9814	2.8182	0.1	4224.3
26803	7.0733	2.7273	0.1	4198.
26804	6.9814	3.	0.1	4224.
26805	7.0733	2.9091	0.1	4197.5
26806	6.9814	3.1818	0.1	4224.3
26807	7.0733	3.0909	0.1	4197.5
26808	6.9814	3.3636	0.1	4225.1
26809	7.0733	3.2727	0.1	4198.
26810	6.9814	3.5455	0.1	4226.5
26811	7.0733	3.4545	0.1	4199.1
26812	6.9814	3.7273	0.1	4228.4
26813	7.0733	3.6364	0.1	4200.7
26814	6.9814	3.9091	0.1	4230.9
26815	7.0733	3.8182	0.1	4202.8
26816	6.9814	4.0909	0.1	4233.8
26817	7.0733	4.	0.1	4205.4
26818	6.9814	4.2727	0.1	4237.2
26819	7.0733	4.1818	0.1	4208.4
26820	6.9814	4.4545	0.1	4241.
26821	7.0733	4.3636	0.1	4211.9
26822	6.9814	4.6364	0.1	4245.2
26823	7.0733	4.5455	0.1	4215.8
26824	6.9814	4.8182	0.1	4249.7
26825	7.0733	4.7273	0.1	4220.
26826	6.9814	5.	0.1	4254.6
26827	7.0733	4.9091	0.1	4224.5
26828	6.9814	5.1818	0.1	4259.7
26829	7.0733	5.0909	0.1	4229.3
26830	6.9814	5.3636	0.1	4265.
26831	7.0733	5.2727	0.1	4234.3
26832	6.9814	5.5455	0.1	4270.5
26833	7.0733	5.4545	0.1	4239.5
26834	6.9814	5.7273	0.1	4276.3
26835	7.0733	5.6364	0.1	4244.9
26836	7.0733	5.8182	0.1	4250.8
26837	6.9814	5.9091	0.1	4280.5
26838	7.1651	0.27273	0.1	4219.4
26839	7.257	0.18182	0.1	4193.9
26840	7.1651	9.0909e-002	0.1	4223.1
26841	7.1651	0.45455	0.1	4214.
26842	7.257	0.36364	0.1	4188.4
26843	7.1651	0.63636	0.1	4208.9
26844	7.257	0.54545	0.1	4183.4
26845	7.1651	0.81818	0.1	4204.
26846	7.257	0.72727	0.1	4178.6
26847	7.1651	1.	0.1	4199.2
26848	7.257	0.90909	0.1	4173.9
26849	7.1651	1.1818	0.1	4194.8
26850	7.257	1.0909	0.1	4169.5
26851	7.1651	1.3636	0.1	4190.5
26852	7.257	1.2727	0.1	4165.3
26853	7.1651	1.5455	0.1	4186.7
26854	7.257	1.4545	0.1	4161.4
26855	7.1651	1.7273	0.1	4183.1
26856	7.257	1.6364	0.1	4157.8
26857	7.1651	1.9091	0.1	4180.
26858	7.257	1.8182	0.1	4154.6
26859	7.1651	2.0909	0.1	4177.3
26860	7.257	2.	0.1	4151.8
26861	7.1651	2.2727	0.1	4175.1
26862	7.257	2.1818	0.1	4149.4
26863	7.1651	2.4545	0.1	4173.3
26864	7.257	2.3636	0.1	4147.5
26865	7.1651	2.6364	0.1	4172.
26866	7.257	2.5455	0.1	4146.
26867	7.1651	2.8182	0.1	4171.2
26868	7.257	2.7273	0.1	4145.
26869	7.1651	3.	0.1	4171.
26870	7.257	2.9091	0.1	4144.5
26871	7.1651	3.1818	0.1	4171.2
26872	7.257	3.0909	0.1	4144.5
26873	7.1651	3.3636	0.1	4172.
26874	7.257	3.2727	0.1	4145.
26875	7.1651	3.5455	0.1	4173.3
26876	7.257	3.4545	0.1	4146.
26877	7.1651	3.7273	0.1	4175.1
26878	7.257	3.6364	0.1	4147.5
26879	7.1651	3.9091	0.1	4177.3
26880	7.257	3.8182	0.1	4149.4
26881	7.1651	4.0909	0.1	4180.
26882	7.257	4.	0.1	4151.8
26883	7.1651	4.2727	0.1	4183.1
26884	7.257	4.1818	0.1	4154.6
26885	7.1651	4.4545	0.1	4186.7
26886	7.257	4.3636	0.1	4157.8
26887	7.1651	4.6364	0.1	4190.5
26888	7.257	4.5455	0.1	4161.4
26889	7.1651	4.8182	0.1	4194.8
26890	7.257	4.7273	0.1	4165.3
26891	7.1651	5.	0.1	4199.2
26892	7.257	4.9091	0.1	4169.5
26893	7.1651	5.1818	0.1	4204.
26894	7.257	5.0909	0.1	4173.9
26895	7.1651	5.3636	0.1	4208.9
26896	7.257	5.2727	0.1	4178.6
26897	7.1651	5.5455	0.1	4214.
26898	7.257	5.4545	0.1	4183.4
26899	7.1651	5.7273	0.1	4219.4
26900	7.257	5.6364	0.1	4188.4
26901	7.257	5.8182	0.1	4193.9
26902	7.1651	5.9091	0.1	4223.1
26903	7.3488	0.27273	0.1	4162.9
26904	7.4407	0.18182	0.1	4137.4
26905	7.3488	9.0909e-002	0.1	4166.1
26906	7.3488	0.45455	0.1	4157.8
26907	7.4407	0.36364	0.1	4132.2
26908	7.3488	0.63636	0.1	4153.1
26909	7.4407	0.54545	0.1	4127.6
26910	7.3488	0.81818	0.1	4148.5
26911	7.4407	0.72727	0.1	4123.1
26912	7.3488	1.	0.1	4144.1
26913	7.4407	0.90909	0.1	4118.8
26914	7.3488	1.1818	0.1	4140.
26915	7.4407	1.0909	0.1	4114.7
26916	7.3488	1.3636	0.1	4136.1
26917	7.4407	1.2727	0.1	4110.8
26918	7.3488	1.5455	0.1	4132.5
26919	7.4407	1.4545	0.1	4107.2
26920	7.3488	1.7273	0.1	4129.3
26921	7.4407	1.6364	0.1	4103.9
26922	7.3488	1.9091	0.1	4126.4
26923	7.4407	1.8182	0.1	4100.9
26924	7.3488	2.0909	0.1	4123.9
26925	7.4407	2.	0.1	4098.3
26926	7.3488	2.2727	0.1	4121.8
26927	7.4407	2.1818	0.1	4096.1
26928	7.3488	2.4545	0.1	4120.2
26929	7.4407	2.3636	0.1	4094.3
26930	7.3488	2.6364	0.1	4119.
26931	7.4407	2.5455	0.1	4093.
26932	7.3488	2.8182	0.1	4118.3
26933	7.4407	2.7273	0.1	4092.1
26934	7.3488	3.	0.1	4118.
26935	7.4407	2.9091	0.1	4091.6
26936	7.3488	3.1818	0.1	4118.3
26937	7.4407	3.0909	0.1	4091.6
26938	7.3488	3.3636	0.1	4119.
26939	7.4407	3.2727	0.1	4092.1
26940	7.3488	3.5455	0.1	4120.2
26941	7.4407	3.4545	0.1	4093.
26942	7.3488	3.7273	0.1	4121.8
26943	7.4407	3.6364	0.1	4094.3
26944	7.3488	3.9091	0.1	4123.9
26945	7.4407	3.8182	0.1	4096.1
26946	7.3488	4.0909	0.1	4126.4
26947	7.4407	4.	0.1	4098.3
26948	7.3488	4.2727	0.1	4129.3
26949	7.4407	4.1818	0.1	4100.9
26950	7.3488	4.4545	0.1	4132.5
26951	7.4407	4.3636	0.1	4103.9
26952	7.3488	4.6364	0.1	4136.1
26953	7.4407	4.5455	0.1	4107.2
26954	7.3488	4.8182	0.1	4140.
26955	7.4407	4.7273	0.1	4110.8
26956	7.3488	5.	0.1	4144.1
26957	7.4407	4.9091	0.1	4114.7
26958	7.3488	5.1818	0.1	4148.5
26959	7.4407	5.0909	0.1	4118.8
26960	7.3488	5.3636	0.1	4153.1
26961	7.4407	5.2727	0.1	4123.1
26962	7.3488	5.5455	0.1	4157.8
26963	7.4407	5.4545	0.1	4127.6
26964	7.3488	5.7273	0.1	4162.9
26965	7.4407	5.6364	0.1	4132.2
26966	7.4407	5.8182	0.1	4137.4
26967	7.3488	5.9091	0.1	4166.1
26968	7.5326	0.27273	0.1	4106.7
26969	7.6244	0.18182	0.1	4081.3
26970	7.5326	9.0909e-002	0.1	4109.5
26971	7.5326	0.45455	0.1	4101.9
26972	7.6244	0.36364	0.1	4076.3
26973	7.5326	0.63636	0.1	4097.6
26974	7.6244	0.54545	0.1	4072.
26975	7.5326	0.81818	0.1	4093.3
26976	7.6244	0.72727	0.1	4067.9
26977	7.5326	1.	0.1	4089.3
26978	7.6244	0.90909	0.1	4063.9
26979	7.5326	1.1818	0.1	4085.4
26980	7.6244	1.0909	0.1	4060.1
26981	7.5326	1.3636	0.1	4081.9
26982	7.6244	1.2727	0.1	4056.5
26983	7.5326	1.5455	0.1	4078.5
26984	7.6244	1.4545	0.1	4053.2
26985	7.5326	1.7273	0.1	4075.5
26986	7.6244	1.6364	0.1	4050.1
26987	7.5326	1.9091	0.1	4072.9
26988	7.6244	1.8182	0.1	4047.4
26989	7.5326	2.0909	0.1	4070.6
26990	7.6244	2.	0.1	4045.
26991	7.5326	2.2727	0.1	4068.7
26992	7.6244	2.1818	0.1	4043.
26993	7.5326	2.4545	0.1	4067.2
26994	7.6244	2.3636	0.1	4041.3
26995	7.5326	2.6364	0.1	4066.1
26996	7.6244	2.5455	0.1	4040.1
26997	7.5326	2.8182	0.1	4065.4
26998	7.6244	2.7273	0.1	4039.2
26999	7.5326	3.	0.1	4065.2
27000	7.6244	2.9091	0.1	4038.8
27001	7.5326	3.1818	0.1	4065.4
27002	7.6244	3.0909	0.1	4038.8
27003	7.5326	3.3636	0.1	4066.1
27004	7.6244	3.2727	0.1	4039.2
27005	7.5326	3.5455	0.1	4067.2
27006	7.6244	3.4545	0.1	4040.1
27007	7.5326	3.7273	0.1	4068.7
27008	7.6244	3.6364	0.1	4041.3
27009	7.5326	3.9091	0.1	4070.6
27010	7.6244	3.8182	0.1	4043.
27011	7.5326	4.0909	0.1	4072.9
27012	7.6244	4.	0.1	4045.
27013	7.5326	4.2727	0.1	4075.5
27014	7.6244	4.1818	0.1	4047.4
27015	7.5326	4.4545	0.1	4078.5
27016	7.6244	4.3636	0.1	4050.1
27017	7.5326	4.6364	0.1	4081.9
27018	7.6244	4.5455	0.1	4053.2
27019	7.5326	4.8182	0.1	4085.4
27020	7.6244	4.7273	0.1	4056.5
27021	7.5326	5.	0.1	4089.3
27022	7.6244	4.9091	0.1	4060.1
27023	7.5326	5.1818	0.1	4093.3
27024	7.6244	5.0909	0.1	4063.9
27025	7.5326	5.3636	0.1	4097.6
27026	7.6244	5.2727	0.1	4067.9
27027	7.5326	5.5455	0.1	4101.9
27028	7.6244	5.4545	0.1	4072.
27029	7.5326	5.7273	0.1	4106.7
27030	7.6244	5.6364	0.1	4076.3
27031	7.6244	5.8182	0.1	4081.3
27032	7.5326	5.9091	0.1	4109.5
27033	7.7163	0.27273	0.1	4050.9
27034	7.8081	0.18182	0.1	4025.5
27035	7.7163	9.0909e-002	0.1	4053.3
27036	7.7163	0.45455	0.1	4046.4
27037	7.8081	0.36364	0.1	4020.8
27038	7.7163	0.63636	0.1	4042.3
27039	7.8081	0.54545	0.1	4016.8
27040	7.7163	0.81818	0.1	4038.4
27041	7.8081	0.72727	0.1	4012.9
27042	7.7163	1.	0.1	4034.7
27043	7.8081	0.90909	0.1	4009.2
27044	7.7163	1.1818	0.1	4031.1
27045	7.8081	1.0909	0.1	4005.7
27046	7.7163	1.3636	0.1	4027.8
27047	7.8081	1.2727	0.1	4002.4
27048	7.7163	1.5455	0.1	4024.7
27049	7.8081	1.4545	0.1	3999.3
27050	7.7163	1.7273	0.1	4022.
27051	7.8081	1.6364	0.1	3996.5
27052	7.7163	1.9091	0.1	4019.5
27053	7.8081	1.8182	0.1	3994.
27054	7.7163	2.0909	0.1	4017.4
27055	7.8081	2.	0.1	3991.8
27056	7.7163	2.2727	0.1	4015.6
27057	7.8081	2.1818	0.1	3989.9
27058	7.7163	2.4545	0.1	4014.2
27059	7.8081	2.3636	0.1	3988.4
27060	7.7163	2.6364	0.1	4013.2
27061	7.8081	2.5455	0.1	3987.3
27062	7.7163	2.8182	0.1	4012.6
27063	7.8081	2.7273	0.1	3986.5
27064	7.7163	3.	0.1	4012.4
27065	7.8081	2.9091	0.1	3986.1
27066	7.7163	3.1818	0.1	4012.6
27067	7.8081	3.0909	0.1	3986.1
27068	7.7163	3.3636	0.1	4013.2
27069	7.8081	3.2727	0.1	3986.5
27070	7.7163	3.5455	0.1	4014.2
27071	7.8081	3.4545	0.1	3987.3
27072	7.7163	3.7273	0.1	4015.6
27073	7.8081	3.6364	0.1	3988.4
27074	7.7163	3.9091	0.1	4017.4
27075	7.8081	3.8182	0.1	3989.9
27076	7.7163	4.0909	0.1	4019.5
27077	7.8081	4.	0.1	3991.8
27078	7.7163	4.2727	0.1	4022.
27079	7.8081	4.1818	0.1	3994.
27080	7.7163	4.4545	0.1	4024.7
27081	7.8081	4.3636	0.1	3996.5
27082	7.7163	4.6364	0.1	4027.8
27083	7.8081	4.5455	0.1	3999.3
27084	7.7163	4.8182	0.1	4031.1
27085	7.8081	4.7273	0.1	4002.4
27086	7.7163	5.	0.1	4034.7
27087	7.8081	4.9091	0.1	4005.7
27088	7.7163	5.1818	0.1	4038.4
27089	7.8081	5.0909	0.1	4009.2
27090	7.7163	5.3636	0.1	4042.3
27091	7.8081	5.2727	0.1	4012.9
27092	7.7163	5.5455	0.1	4046.4
27093	7.8081	5.4545	0.1	4016.8
27094	7.7163	5.7273	0.1	4050.9
27095	7.8081	5.6364	0.1	4020.8
27096	7.8081	5.8182	0.1	4025.5
27097	7.7163	5.9091	0.1	4053.3
27098	7.9	0.27273	0.1	3995.4
27099	7.9919	0.18182	0.1	3970.
27100	7.9	9.0909e-002	0.1	3997.4
27101	7.9	0.45455	0.1	3991.2
27102	7.9919	0.36364	0.1	3965.6
27103	7.9	0.63636	0.1	3987.4
27104	7.9919	0.54545	0.1	3961.8
27105	7.9	0.81818	0.1	3983.8
27106	7.9919	0.72727	0.1	3958.3
27107	7.9	1.	0.1	3980.3
27108	7.9919	0.90909	0.1	3954.8
27109	7.9	1.1818	0.1	3977.
27110	7.9919	1.0909	0.1	3951.6
27111	7.9	1.3636	0.1	3973.9
27112	7.9919	1.2727	0.1	3948.5
27113	7.9	1.5455	0.1	3971.1
27114	7.9919	1.4545	0.1	3945.7
27115	7.9	1.7273	0.1	3968.6
27116	7.9919	1.6364	0.1	3943.1
27117	7.9	1.9091	0.1	3966.3
27118	7.9919	1.8182	0.1	3940.8
27119	7.9	2.0909	0.1	3964.4
27120	7.9919	2.	0.1	3938.8
27121	7.9	2.2727	0.1	3962.7
27122	7.9919	2.1818	0.1	3937.
27123	7.9	2.4545	0.1	3961.4
27124	7.9919	2.3636	0.1	3935.6
27125	7.9	2.6364	0.1	3960.5
27126	7.9919	2.5455	0.1	3934.6
27127	7.9	2.8182	0.1	3960.
27128	7.9919	2.7273	0.1	3933.9
27129	7.9	3.	0.1	3959.8
27130	7.9919	2.9091	0.1	3933.5
27131	7.9	3.1818	0.1	3960.
27132	7.9919	3.0909	0.1	3933.5
27133	7.9	3.3636	0.1	3960.5
27134	7.9919	3.2727	0.1	3933.9
27135	7.9	3.5455	0.1	3961.4
27136	7.9919	3.4545	0.1	3934.6
27137	7.9	3.7273	0.1	3962.7
27138	7.9919	3.6364	0.1	3935.6
27139	7.9	3.9091	0.1	3964.4
27140	7.9919	3.8182	0.1	3937.
27141	7.9	4.0909	0.1	3966.3
27142	7.9919	4.	0.1	3938.8
27143	7.9	4.2727	0.1	3968.6
27144	7.9919	4.1818	0.1	3940.8
27145	7.9	4.4545	0.1	3971.1
27146	7.9919	4.3636	0.1	3943.1
27147	7.9	4.6364	0.1	3973.9
27148	7.9919	4.5455	0.1	3945.7
27149	7.9	4.8182	0.1	3977.
27150	7.9919	4.7273	0.1	3948.5
27151	7.9	5.	0.1	3980.3
27152	7.9919	4.9091	0.1	3951.6
27153	7.9	5.1818	0.1	3983.8
27154	7.9919	5.0909	0.1	3954.8
27155	7.9	5.3636	0.1	3987.4
27156	7.9919	5.2727	0.1	3958.3
27157	7.9	5.5455	0.1	3991.2
27158	7.9919	5.4545	0.1	3961.8
27159	7.9	5.7273	0.1	3995.4
27160	7.9919	5.6364	0.1	3965.6
27161	7.9919	5.8182	0.1	3970.
27162	7.9	5.9091	0.1	3997.4
27163	8.0837	0.27273	0.1	3940.2
27164	8.1756	0.18182	0.1	3914.8
27165	8.0837	9.0909e-002	0.1	3941.8
27166	8.0837	0.45455	0.1	3936.2
27167	8.1756	0.36364	0.1	3910.6
27168	8.0837	0.63636	0.1	3932.7
27169	8.1756	0.54545	0.1	3907.2
27170	8.0837	0.81818	0.1	3929.4
27171	8.1756	0.72727	0.1	3903.9
27172	8.0837	1.	0.1	3926.1
27173	8.1756	0.90909	0.1	3900.7
27174	8.0837	1.1818	0.1	3923.1
27175	8.1756	1.0909	0.1	3897.7
27176	8.0837	1.3636	0.1	3920.3
27177	8.1756	1.2727	0.1	3894.9
27178	8.0837	1.5455	0.1	3917.7
27179	8.1756	1.4545	0.1	3892.2
27180	8.0837	1.7273	0.1	3915.3
27181	8.1756	1.6364	0.1	3889.9
27182	8.0837	1.9091	0.1	3913.2
27183	8.1756	1.8182	0.1	3887.7
27184	8.0837	2.0909	0.1	3911.4
27185	8.1756	2.	0.1	3885.9
27186	8.0837	2.2727	0.1	3909.9
27187	8.1756	2.1818	0.1	3884.3
27188	8.0837	2.4545	0.1	3908.8
27189	8.1756	2.3636	0.1	3883.
27190	8.0837	2.6364	0.1	3907.9
27191	8.1756	2.5455	0.1	3882.
27192	8.0837	2.8182	0.1	3907.4
27193	8.1756	2.7273	0.1	3881.3
27194	8.0837	3.	0.1	3907.2
27195	8.1756	2.9091	0.1	3881.
27196	8.0837	3.1818	0.1	3907.4
27197	8.1756	3.0909	0.1	3881.
27198	8.0837	3.3636	0.1	3907.9
27199	8.1756	3.2727	0.1	3881.3
27200	8.0837	3.5455	0.1	3908.8
27201	8.1756	3.4545	0.1	3882.
27202	8.0837	3.7273	0.1	3909.9
27203	8.1756	3.6364	0.1	3883.
27204	8.0837	3.9091	0.1	3911.4
27205	8.1756	3.8182	0.1	3884.3
27206	8.0837	4.0909	0.1	3913.2
27207	8.1756	4.	0.1	3885.9
27208	8.0837	4.2727	0.1	3915.3
27209	8.1756	4.1818	0.1	3887.7
27210	8.0837	4.4545	0.1	3917.7
27211	8.1756	4.3636	0.1	3889.9
27212	8.0837	4.6364	0.1	3920.3
27213	8.1756	4.5455	0.1	3892.2
27214	8.0837	4.8182	0.1	3923.1
27215	8.1756	4.7273	0.1	3894.9
27216	8.0837	5.	0.1	3926.1
27217	8.1756	4.9091	0.1	3897.7
27218	8.0837	5.1818	0.1	3929.4
27219	8.1756	5.0909	0.1	3900.7
27220	8.0837	5.3636	0.1	3932.7
27221	8.1756	5.2727	0.1	3903.9
27222	8.0837	5.5455	0.1	3936.2
27223	8.1756	5.4545	0.1	3907.2
27224	8.0837	5.7273	0.1	3940.2
27225	8.1756	5.6364	0.1	3910.6
27226	8.1756	5.8182	0.1	3914.8
27227	8.0837	5.9091	0.1	3941.8
27228	8.2674	0.27273	0.1	3885.2
27229	8.3593	0.18182	0.1	3860.
27230	8.2674	9.0909e-002	0.1	3886.5
27231	8.2674	0.45455	0.1	3881.5
27232	8.3593	0.36364	0.1	3855.9
27233	8.2674	0.63636	0.1	3878.3
27234	8.3593	0.54545	0.1	3852.7
27235	8.2674	0.81818	0.1	3875.2
27236	8.3593	0.72727	0.1	3849.7
27237	8.2674	1.	0.1	3872.2
27238	8.3593	0.90909	0.1	3846.8
27239	8.2674	1.1818	0.1	3869.4
27240	8.3593	1.0909	0.1	3844.
27241	8.2674	1.3636	0.1	3866.8
27242	8.3593	1.2727	0.1	3841.4
27243	8.2674	1.5455	0.1	3864.4
27244	8.3593	1.4545	0.1	3839.
27245	8.2674	1.7273	0.1	3862.2
27246	8.3593	1.6364	0.1	3836.8
27247	8.2674	1.9091	0.1	3860.3
27248	8.3593	1.8182	0.1	3834.8
27249	8.2674	2.0909	0.1	3858.7
27250	8.3593	2.	0.1	3833.1
27251	8.2674	2.2727	0.1	3857.3
27252	8.3593	2.1818	0.1	3831.6
27253	8.2674	2.4545	0.1	3856.2
27254	8.3593	2.3636	0.1	3830.4
27255	8.2674	2.6364	0.1	3855.4
27256	8.3593	2.5455	0.1	3829.6
27257	8.2674	2.8182	0.1	3855.
27258	8.3593	2.7273	0.1	3828.9
27259	8.2674	3.	0.1	3854.8
27260	8.3593	2.9091	0.1	3828.6
27261	8.2674	3.1818	0.1	3855.
27262	8.3593	3.0909	0.1	3828.6
27263	8.2674	3.3636	0.1	3855.4
27264	8.3593	3.2727	0.1	3828.9
27265	8.2674	3.5455	0.1	3856.2
27266	8.3593	3.4545	0.1	3829.6
27267	8.2674	3.7273	0.1	3857.3
27268	8.3593	3.6364	0.1	3830.4
27269	8.2674	3.9091	0.1	3858.7
27270	8.3593	3.8182	0.1	3831.6
27271	8.2674	4.0909	0.1	3860.3
27272	8.3593	4.	0.1	3833.1
27273	8.2674	4.2727	0.1	3862.2
27274	8.3593	4.1818	0.1	3834.8
27275	8.2674	4.4545	0.1	3864.4
27276	8.3593	4.3636	0.1	3836.8
27277	8.2674	4.6364	0.1	3866.8
27278	8.3593	4.5455	0.1	3839.
27279	8.2674	4.8182	0.1	3869.4
27280	8.3593	4.7273	0.1	3841.4
27281	8.2674	5.	0.1	3872.2
27282	8.3593	4.9091	0.1	3844.
27283	8.2674	5.1818	0.1	3875.2
27284	8.3593	5.0909	0.1	3846.8
27285	8.2674	5.3636	0.1	3878.3
27286	8.3593	5.2727	0.1	3849.7
27287	8.2674	5.5455	0.1	3881.5
27288	8.3593	5.4545	0.1	3852.7
27289	8.2674	5.7273	0.1	3885.2
27290	8.3593	5.6364	0.1	3855.9
27291	8.3593	5.8182	0.1	3860.
27292	8.2674	5.9091	0.1	3886.5
27293	8.4512	0.27273	0.1	3830.6
27294	8.543	0.18182	0.1	3805.4
27295	8.4512	9.0909e-002	0.1	3831.6
27296	8.4512	0.45455	0.1	3827.1
27297	8.543	0.36364	0.1	3801.6
27298	8.4512	0.63636	0.1	3824.1
27299	8.543	0.54545	0.1	3798.6
27300	8.4512	0.81818	0.1	3821.3
27301	8.543	0.72727	0.1	3795.8
27302	8.4512	1.	0.1	3818.5
27303	8.543	0.90909	0.1	3793.1
27304	8.4512	1.1818	0.1	3815.9
27305	8.543	1.0909	0.1	3790.5
27306	8.4512	1.3636	0.1	3813.5
27307	8.543	1.2727	0.1	3788.1
27308	8.4512	1.5455	0.1	3811.3
27309	8.543	1.4545	0.1	3785.9
27310	8.4512	1.7273	0.1	3809.3
27311	8.543	1.6364	0.1	3783.9
27312	8.4512	1.9091	0.1	3807.6
27313	8.543	1.8182	0.1	3782.1
27314	8.4512	2.0909	0.1	3806.
27315	8.543	2.	0.1	3780.5
27316	8.4512	2.2727	0.1	3804.8
27317	8.543	2.1818	0.1	3779.1
27318	8.4512	2.4545	0.1	3803.8
27319	8.543	2.3636	0.1	3778.1
27320	8.4512	2.6364	0.1	3803.1
27321	8.543	2.5455	0.1	3777.2
27322	8.4512	2.8182	0.1	3802.6
27323	8.543	2.7273	0.1	3776.7
27324	8.4512	3.	0.1	3802.5
27325	8.543	2.9091	0.1	3776.4
27326	8.4512	3.1818	0.1	3802.6
27327	8.543	3.0909	0.1	3776.4
27328	8.4512	3.3636	0.1	3803.1
27329	8.543	3.2727	0.1	3776.7
27330	8.4512	3.5455	0.1	3803.8
27331	8.543	3.4545	0.1	3777.2
27332	8.4512	3.7273	0.1	3804.8
27333	8.543	3.6364	0.1	3778.1
27334	8.4512	3.9091	0.1	3806.
27335	8.543	3.8182	0.1	3779.1
27336	8.4512	4.0909	0.1	3807.6
27337	8.543	4.	0.1	3780.5
27338	8.4512	4.2727	0.1	3809.3
27339	8.543	4.1818	0.1	3782.1
27340	8.4512	4.4545	0.1	3811.3
27341	8.543	4.3636	0.1	3783.9
27342	8.4512	4.6364	0.1	3813.5
27343	8.543	4.5455	0.1	3785.9
27344	8.4512	4.8182	0.1	3815.9
27345	8.543	4.7273	0.1	3788.1
27346	8.4512	5.	0.1	3818.5
27347	8.543	4.9091	0.1	3790.5
27348	8.4512	5.1818	0.1	3821.3
27349	8.543	5.0909	0.1	3793.1
27350	8.4512	5.3636	0.1	3824.1
27351	8.543	5.2727	0.1	3795.8
27352	8.4512	5.5455	0.1	3827.1
27353	8.543	5.4545	0.1	3798.6
27354	8.4512	5.7273	0.1	3830.6
27355	8.543	5.6364	0.1	3801.6
27356	8.543	5.8182	0.1	3805.4
27357	8.4512	5.9091	0.1	3831.6
27358	8.6349	0.27273	0.1	3776.2
27359	8.7267	0.18182	0.1	3751.
27360	8.6349	9.0909e-002	0.1	3776.9
27361	8.6349	0.45455	0.1	3773.
27362	8.7267	0.36364	0.1	3747.4
27363	8.6349	0.63636	0.1	3770.2
27364	8.7267	0.54545	0.1	3744.7
27365	8.6349	0.81818	0.1	3767.5
27366	8.7267	0.72727	0.1	3742.1
27367	8.6349	1.	0.1	3765.
27368	8.7267	0.90909	0.1	3739.6
27369	8.6349	1.1818	0.1	3762.7
27370	8.7267	1.0909	0.1	3737.2
27371	8.6349	1.3636	0.1	3760.5
27372	8.7267	1.2727	0.1	3735.
27373	8.6349	1.5455	0.1	3758.4
27374	8.7267	1.4545	0.1	3733.
27375	8.6349	1.7273	0.1	3756.6
27376	8.7267	1.6364	0.1	3731.1
27377	8.6349	1.9091	0.1	3755.
27378	8.7267	1.8182	0.1	3729.5
27379	8.6349	2.0909	0.1	3753.6
27380	8.7267	2.	0.1	3728.
27381	8.6349	2.2727	0.1	3752.4
27382	8.7267	2.1818	0.1	3726.8
27383	8.6349	2.4545	0.1	3751.5
27384	8.7267	2.3636	0.1	3725.8
27385	8.6349	2.6364	0.1	3750.8
27386	8.7267	2.5455	0.1	3725.1
27387	8.6349	2.8182	0.1	3750.4
27388	8.7267	2.7273	0.1	3724.6
27389	8.6349	3.	0.1	3750.3
27390	8.7267	2.9091	0.1	3724.3
27391	8.6349	3.1818	0.1	3750.4
27392	8.7267	3.0909	0.1	3724.3
27393	8.6349	3.3636	0.1	3750.8
27394	8.7267	3.2727	0.1	3724.6
27395	8.6349	3.5455	0.1	3751.5
27396	8.7267	3.4545	0.1	3725.1
27397	8.6349	3.7273	0.1	3752.4
27398	8.7267	3.6364	0.1	3725.8
27399	8.6349	3.9091	0.1	3753.6
27400	8.7267	3.8182	0.1	3726.8
27401	8.6349	4.0909	0.1	3755.
27402	8.7267	4.	0.1	3728.
27403	8.6349	4.2727	0.1	3756.6
27404	8.7267	4.1818	0.1	3729.5
27405	8.6349	4.4545	0.1	3758.4
27406	8.7267	4.3636	0.1	3731.1
27407	8.6349	4.6364	0.1	3760.5
27408	8.7267	4.5455	0.1	3733.
27409	8.6349	4.8182	0.1	3762.7
27410	8.7267	4.7273	0.1	3735.
27411	8.6349	5.	0.1	3765.
27412	8.7267	4.9091	0.1	3737.2
27413	8.6349	5.1818	0.1	3767.5
27414	8.7267	5.0909	0.1	3739.6
27415	8.6349	5.3636	0.1	3770.2
27416	8.7267	5.2727	0.1	3742.1
27417	8.6349	5.5455	0.1	3773.
27418	8.7267	5.4545	0.1	3744.7
27419	8.6349	5.7273	0.1	3776.2
27420	8.7267	5.6364	0.1	3747.4
27421	8.7267	5.8182	0.1	3751.
27422	8.6349	5.9091	0.1	3776.9
27423	8.8186	0.27273	0.1	3722.1
27424	8.9105	0.18182	0.1	3697.
27425	8.8186	9.0909e-002	0.1	3722.5
27426	8.8186	0.45455	0.1	3719.1
27427	8.9105	0.36364	0.1	3693.5
27428	8.8186	0.63636	0.1	3716.5
27429	8.9105	0.54545	0.1	3691.
27430	8.8186	0.81818	0.1	3714.1
27431	8.9105	0.72727	0.1	3688.6
27432	8.8186	1.	0.1	3711.8
27433	8.9105	0.90909	0.1	3686.3
27434	8.8186	1.1818	0.1	3709.6
27435	8.9105	1.0909	0.1	3684.2
27436	8.8186	1.3636	0.1	3707.6
27437	8.9105	1.2727	0.1	3682.1
27438	8.8186	1.5455	0.1	3705.7
27439	8.9105	1.4545	0.1	3680.3
27440	8.8186	1.7273	0.1	3704.
27441	8.9105	1.6364	0.1	3678.6
27442	8.8186	1.9091	0.1	3702.5
27443	8.9105	1.8182	0.1	3677.1
27444	8.8186	2.0909	0.1	3701.3
27445	8.9105	2.	0.1	3675.8
27446	8.8186	2.2727	0.1	3700.2
27447	8.9105	2.1818	0.1	3674.6
27448	8.8186	2.4545	0.1	3699.4
27449	8.9105	2.3636	0.1	3673.7
27450	8.8186	2.6364	0.1	3698.8
27451	8.9105	2.5455	0.1	3673.
27452	8.8186	2.8182	0.1	3698.4
27453	8.9105	2.7273	0.1	3672.6
27454	8.8186	3.	0.1	3698.3
27455	8.9105	2.9091	0.1	3672.3
27456	8.8186	3.1818	0.1	3698.4
27457	8.9105	3.0909	0.1	3672.3
27458	8.8186	3.3636	0.1	3698.8
27459	8.9105	3.2727	0.1	3672.6
27460	8.8186	3.5455	0.1	3699.4
27461	8.9105	3.4545	0.1	3673.
27462	8.8186	3.7273	0.1	3700.2
27463	8.9105	3.6364	0.1	3673.7
27464	8.8186	3.9091	0.1	3701.3
27465	8.9105	3.8182	0.1	3674.6
27466	8.8186	4.0909	0.1	3702.5
27467	8.9105	4.	0.1	3675.8
27468	8.8186	4.2727	0.1	3704.
27469	8.9105	4.1818	0.1	3677.1
27470	8.8186	4.4545	0.1	3705.7
27471	8.9105	4.3636	0.1	3678.6
27472	8.8186	4.6364	0.1	3707.6
27473	8.9105	4.5455	0.1	3680.3
27474	8.8186	4.8182	0.1	3709.6
27475	8.9105	4.7273	0.1	3682.1
27476	8.8186	5.	0.1	3711.8
27477	8.9105	4.9091	0.1	3684.2
27478	8.8186	5.1818	0.1	3714.1
27479	8.9105	5.0909	0.1	3686.3
27480	8.8186	5.3636	0.1	3716.5
27481	8.9105	5.2727	0.1	3688.6
27482	8.8186	5.5455	0.1	3719.1
27483	8.9105	5.4545	0.1	3691.
27484	8.8186	5.7273	0.1	3722.1
27485	8.9105	5.6364	0.1	3693.5
27486	8.9105	5.8182	0.1	3697.
27487	8.8186	5.9091	0.1	3722.5
27488	9.0023	0.27273	0.1	3668.3
27489	9.0942	0.18182	0.1	3643.1
27490	9.0023	9.0909e-002	0.1	3668.3
27491	9.0023	0.45455	0.1	3665.4
27492	9.0942	0.36364	0.1	3639.8
27493	9.0023	0.63636	0.1	3663.
27494	9.0942	0.54545	0.1	3637.5
27495	9.0023	0.81818	0.1	3660.8
27496	9.0942	0.72727	0.1	3635.3
27497	9.0023	1.	0.1	3658.7
27498	9.0942	0.90909	0.1	3633.2
27499	9.0023	1.1818	0.1	3656.7
27500	9.0942	1.0909	0.1	3631.3
27501	9.0023	1.3636	0.1	3654.9
27502	9.0942	1.2727	0.1	3629.5
27503	9.0023	1.5455	0.1	3653.2
27504	9.0942	1.4545	0.1	3627.8
27505	9.0023	1.7273	0.1	3651.6
27506	9.0942	1.6364	0.1	3626.2
27507	9.0023	1.9091	0.1	3650.3
27508	9.0942	1.8182	0.1	3624.8
27509	9.0023	2.0909	0.1	3649.1
27510	9.0942	2.	0.1	3623.6
27511	9.0023	2.2727	0.1	3648.1
27512	9.0942	2.1818	0.1	3622.6
27513	9.0023	2.4545	0.1	3647.4
27514	9.0942	2.3636	0.1	3621.8
27515	9.0023	2.6364	0.1	3646.8
27516	9.0942	2.5455	0.1	3621.2
27517	9.0023	2.8182	0.1	3646.5
27518	9.0942	2.7273	0.1	3620.7
27519	9.0023	3.	0.1	3646.4
27520	9.0942	2.9091	0.1	3620.5
27521	9.0023	3.1818	0.1	3646.5
27522	9.0942	3.0909	0.1	3620.5
27523	9.0023	3.3636	0.1	3646.8
27524	9.0942	3.2727	0.1	3620.7
27525	9.0023	3.5455	0.1	3647.4
27526	9.0942	3.4545	0.1	3621.2
27527	9.0023	3.7273	0.1	3648.1
27528	9.0942	3.6364	0.1	3621.8
27529	9.0023	3.9091	0.1	3649.1
27530	9.0942	3.8182	0.1	3622.6
27531	9.0023	4.0909	0.1	3650.3
27532	9.0942	4.	0.1	3623.6
27533	9.0023	4.2727	0.1	3651.6
27534	9.0942	4.1818	0.1	3624.8
27535	9.0023	4.4545	0.1	3653.2
27536	9.0942	4.3636	0.1	3626.2
27537	9.0023	4.6364	0.1	3654.9
27538	9.0942	4.5455	0.1	3627.8
27539	9.0023	4.8182	0.1	3656.7
27540	9.0942	4.7273	0.1	3629.5
27541	9.0023	5.	0.1	3658.7
27542	9.0942	4.9091	0.1	3631.3
27543	9.0023	5.1818	0.1	3660.8
27544	9.0942	5.0909	0.1	3633.2
27545	9.0023	5.3636	0.1	3663.
27546	9.0942	5.2727	0.1	3635.3
27547	9.0023	5.5455	0.1	3665.4
27548	9.0942	5.4545	0.1	3637.5
27549	9.0023	5.7273	0.1	3668.3
27550	9.0942	5.6364	0.1	3639.8
27551	9.0942	5.8182	0.1	3643.1
27552	9.0023	5.9091	0.1	3668.3
27553	9.186	0.27273	0.1	3614.6
27554	9.2779	0.18182	0.1	3589.5
27555	9.186	9.0909e-002	0.1	3614.4
27556	9.186	0.45455	0.1	3611.9
27557	9.2779	0.36364	0.1	3586.4
27558	9.186	0.63636	0.1	3609.8
27559	9.2779	0.54545	0.1	3584.3
27560	9.186	0.81818	0.1	3607.7
27561	9.2779	0.72727	0.1	3582.3
27562	9.186	1.	0.1	3605.8
27563	9.2779	0.90909	0.1	3580.4
27564	9.186	1.1818	0.1	3604.
27565	9.2779	1.0909	0.1	3578.6
27566	9.186	1.3636	0.1	3602.3
27567	9.2779	1.2727	0.1	3577.
27568	9.186	1.5455	0.1	3600.8
27569	9.2779	1.4545	0.1	3575.4
27570	9.186	1.7273	0.1	3599.4
27571	9.2779	1.6364	0.1	3574.
27572	9.186	1.9091	0.1	3598.2
27573	9.2779	1.8182	0.1	3572.8
27574	9.186	2.0909	0.1	3597.1
27575	9.2779	2.	0.1	3571.7
27576	9.186	2.2727	0.1	3596.3
27577	9.2779	2.1818	0.1	3570.8
27578	9.186	2.4545	0.1	3595.6
27579	9.2779	2.3636	0.1	3570.
27580	9.186	2.6364	0.1	3595.1
27581	9.2779	2.5455	0.1	3569.5
27582	9.186	2.8182	0.1	3594.8
27583	9.2779	2.7273	0.1	3569.1
27584	9.186	3.	0.1	3594.7
27585	9.2779	2.9091	0.1	3568.9
27586	9.186	3.1818	0.1	3594.8
27587	9.2779	3.0909	0.1	3568.9
27588	9.186	3.3636	0.1	3595.1
27589	9.2779	3.2727	0.1	3569.1
27590	9.186	3.5455	0.1	3595.6
27591	9.2779	3.4545	0.1	3569.5
27592	9.186	3.7273	0.1	3596.3
27593	9.2779	3.6364	0.1	3570.
27594	9.186	3.9091	0.1	3597.1
27595	9.2779	3.8182	0.1	3570.8
27596	9.186	4.0909	0.1	3598.2
27597	9.2779	4.	0.1	3571.7
27598	9.186	4.2727	0.1	3599.4
27599	9.2779	4.1818	0.1	3572.8
27600	9.186	4.4545	0.1	3600.8
27601	9.2779	4.3636	0.1	3574.
27602	9.186	4.6364	0.1	3602.3
27603	9.2779	4.5455	0.1	3575.4
27604	9.186	4.8182	0.1	3604.
27605	9.2779	4.7273	0.1	3577.
27606	9.186	5.	0.1	3605.8
27607	9.2779	4.9091	0.1	3578.6
27608	9.186	5.1818	0.1	3607.7
27609	9.2779	5.0909	0.1	3580.4
27610	9.186	5.3636	0.1	3609.8
27611	9.2779	5.2727	0.1	3582.3
27612	9.186	5.5455	0.1	3611.9
27613	9.2779	5.4545	0.1	3584.3
27614	9.186	5.7273	0.1	3614.6
27615	9.2779	5.6364	0.1	3586.4
27616	9.2779	5.8182	0.1	3589.5
27617	9.186	5.9091	0.1	3614.4
27618	9.3698	0.27273	0.1	3561.2
27619	9.4616	0.18182	0.1	3536.1
27620	9.3698	9.0909e-002	0.1	3560.7
27621	9.3698	0.45455	0.1	3558.7
27622	9.4616	0.36364	0.1	3533.2
27623	9.3698	0.63636	0.1	3556.7
27624	9.4616	0.54545	0.1	3531.2
27625	9.3698	0.81818	0.1	3554.9
27626	9.4616	0.72727	0.1	3529.4
27627	9.3698	1.	0.1	3553.2
27628	9.4616	0.90909	0.1	3527.7
27629	9.3698	1.1818	0.1	3551.5
27630	9.4616	1.0909	0.1	3526.1
27631	9.3698	1.3636	0.1	3550.
27632	9.4616	1.2727	0.1	3524.6
27633	9.3698	1.5455	0.1	3548.6
27634	9.4616	1.4545	0.1	3523.3
27635	9.3698	1.7273	0.1	3547.4
27636	9.4616	1.6364	0.1	3522.
27637	9.3698	1.9091	0.1	3546.3
27638	9.4616	1.8182	0.1	3520.9
27639	9.3698	2.0909	0.1	3545.3
27640	9.4616	2.	0.1	3519.9
27641	9.3698	2.2727	0.1	3544.5
27642	9.4616	2.1818	0.1	3519.1
27643	9.3698	2.4545	0.1	3543.9
27644	9.4616	2.3636	0.1	3518.4
27645	9.3698	2.6364	0.1	3543.5
27646	9.4616	2.5455	0.1	3517.9
27647	9.3698	2.8182	0.1	3543.2
27648	9.4616	2.7273	0.1	3517.6
27649	9.3698	3.	0.1	3543.1
27650	9.4616	2.9091	0.1	3517.4
27651	9.3698	3.1818	0.1	3543.2
27652	9.4616	3.0909	0.1	3517.4
27653	9.3698	3.3636	0.1	3543.5
27654	9.4616	3.2727	0.1	3517.6
27655	9.3698	3.5455	0.1	3543.9
27656	9.4616	3.4545	0.1	3517.9
27657	9.3698	3.7273	0.1	3544.5
27658	9.4616	3.6364	0.1	3518.4
27659	9.3698	3.9091	0.1	3545.3
27660	9.4616	3.8182	0.1	3519.1
27661	9.3698	4.0909	0.1	3546.3
27662	9.4616	4.	0.1	3519.9
27663	9.3698	4.2727	0.1	3547.4
27664	9.4616	4.1818	0.1	3520.9
27665	9.3698	4.4545	0.1	3548.6
27666	9.4616	4.3636	0.1	3522.
27667	9.3698	4.6364	0.1	3550.
27668	9.4616	4.5455	0.1	3523.3
27669	9.3698	4.8182	0.1	3551.5
27670	9.4616	4.7273	0.1	3524.6
27671	9.3698	5.	0.1	3553.2
27672	9.4616	4.9091	0.1	3526.1
27673	9.3698	5.1818	0.1	3554.9
27674	9.4616	5.0909	0.1	3527.7
27675	9.3698	5.3636	0.1	3556.7
27676	9.4616	5.2727	0.1	3529.4
27677	9.3698	5.5455	0.1	3558.7
27678	9.4616	5.4545	0.1	3531.2
27679	9.3698	5.7273	0.1	3561.2
27680	9.4616	5.6364	0.1	3533.2
27681	9.4616	5.8182	0.1	3536.1
27682	9.3698	5.9091	0.1	3560.7
27683	9.5535	0.27273	0.1	3508.
27684	9.6453	0.18182	0.1	3482.9
27685	9.5535	9.0909e-002	0.1	3507.3
27686	9.5535	0.45455	0.1	3505.7
27687	9.6453	0.36364	0.1	3480.1
27688	9.5535	0.63636	0.1	3503.9
27689	9.6453	0.54545	0.1	3478.4
27690	9.5535	0.81818	0.1	3502.2
27691	9.6453	0.72727	0.1	3476.8
27692	9.5535	1.	0.1	3500.7
27693	9.6453	0.90909	0.1	3475.2
27694	9.5535	1.1818	0.1	3499.2
27695	9.6453	1.0909	0.1	3473.8
27696	9.5535	1.3636	0.1	3497.9
27697	9.6453	1.2727	0.1	3472.5
27698	9.5535	1.5455	0.1	3496.7
27699	9.6453	1.4545	0.1	3471.3
27700	9.5535	1.7273	0.1	3495.6
27701	9.6453	1.6364	0.1	3470.2
27702	9.5535	1.9091	0.1	3494.6
27703	9.6453	1.8182	0.1	3469.2
27704	9.5535	2.0909	0.1	3493.7
27705	9.6453	2.	0.1	3468.4
27706	9.5535	2.2727	0.1	3493.
27707	9.6453	2.1818	0.1	3467.7
27708	9.5535	2.4545	0.1	3492.5
27709	9.6453	2.3636	0.1	3467.1
27710	9.5535	2.6364	0.1	3492.1
27711	9.6453	2.5455	0.1	3466.6
27712	9.5535	2.8182	0.1	3491.8
27713	9.6453	2.7273	0.1	3466.3
27714	9.5535	3.	0.1	3491.7
27715	9.6453	2.9091	0.1	3466.1
27716	9.5535	3.1818	0.1	3491.8
27717	9.6453	3.0909	0.1	3466.1
27718	9.5535	3.3636	0.1	3492.1
27719	9.6453	3.2727	0.1	3466.3
27720	9.5535	3.5455	0.1	3492.5
27721	9.6453	3.4545	0.1	3466.6
27722	9.5535	3.7273	0.1	3493.
27723	9.6453	3.6364	0.1	3467.1
27724	9.5535	3.9091	0.1	3493.7
27725	9.6453	3.8182	0.1	3467.7
27726	9.5535	4.0909	0.1	3494.6
27727	9.6453	4.	0.1	3468.4
27728	9.5535	4.2727	0.1	3495.6
27729	9.6453	4.1818	0.1	3469.2
27730	9.5535	4.4545	0.1	3496.7
27731	9.6453	4.3636	0.1	3470.2
27732	9.5535	4.6364	0.1	3497.9
27733	9.6453	4.5455	0.1	3471.3
27734	9.5535	4.8182	0.1	3499.2
27735	9.6453	4.7273	0.1	3472.5
27736	9.5535	5.	0.1	3500.7
27737	9.6453	4.9091	0.1	3473.8
27738	9.5535	5.1818	0.1	3502.2
27739	9.6453	5.0909	0.1	3475.2
27740	9.5535	5.3636	0.1	3503.9
27741	9.6453	5.2727	0.1	3476.8
27742	9.5535	5.5455	0.1	3505.7
27743	9.6453	5.4545	0.1	3478.4
27744	9.5535	5.7273	0.1	3508.
27745	9.6453	5.6364	0.1	3480.1
27746	9.6453	5.8182	0.1	3482.9
27747	9.5535	5.9091	0.1	3507.3
27748	9.7372	0.27273	0.1	3454.9
27749	9.8291	0.18182	0.1	3429.8
27750	9.7372	9.0909e-002	0.1	3454.
27751	9.7372	0.45455	0.1	3452.8
27752	9.8291	0.36364	0.1	3427.2
27753	9.7372	0.63636	0.1	3451.2
27754	9.8291	0.54545	0.1	3425.7
27755	9.7372	0.81818	0.1	3449.8
27756	9.8291	0.72727	0.1	3424.3
27757	9.7372	1.	0.1	3448.4
27758	9.8291	0.90909	0.1	3423.
27759	9.7372	1.1818	0.1	3447.1
27760	9.8291	1.0909	0.1	3421.7
27761	9.7372	1.3636	0.1	3446.
27762	9.8291	1.2727	0.1	3420.6
27763	9.7372	1.5455	0.1	3444.9
27764	9.8291	1.4545	0.1	3419.6
27765	9.7372	1.7273	0.1	3443.9
27766	9.8291	1.6364	0.1	3418.6
27767	9.7372	1.9091	0.1	3443.
27768	9.8291	1.8182	0.1	3417.8
27769	9.7372	2.0909	0.1	3442.3
27770	9.8291	2.	0.1	3417.
27771	9.7372	2.2727	0.1	3441.7
27772	9.8291	2.1818	0.1	3416.4
27773	9.7372	2.4545	0.1	3441.2
27774	9.8291	2.3636	0.1	3415.9
27775	9.7372	2.6364	0.1	3440.8
27776	9.8291	2.5455	0.1	3415.5
27777	9.7372	2.8182	0.1	3440.6
27778	9.8291	2.7273	0.1	3415.2
27779	9.7372	3.	0.1	3440.5
27780	9.8291	2.9091	0.1	3415.1
27781	9.7372	3.1818	0.1	3440.6
27782	9.8291	3.0909	0.1	3415.1
27783	9.7372	3.3636	0.1	3440.8
27784	9.8291	3.2727	0.1	3415.2
27785	9.7372	3.5455	0.1	3441.2
27786	9.8291	3.4545	0.1	3415.5
27787	9.7372	3.7273	0.1	3441.7
27788	9.8291	3.6364	0.1	3415.9
27789	9.7372	3.9091	0.1	3442.3
27790	9.8291	3.8182	0.1	3416.4
27791	9.7372	4.0909	0.1	3443.
27792	9.8291	4.	0.1	3417.
27793	9.7372	4.2727	0.1	3443.9
27794	9.8291	4.1818	0.1	3417.8
27795	9.7372	4.4545	0.1	3444.9
27796	9.8291	4.3636	0.1	3418.6
27797	9.7372	4.6364	0.1	3446.
27798	9.8291	4.5455	0.1	3419.6
27799	9.7372	4.8182	0.1	3447.1
27800	9.8291	4.7273	0.1	3420.6
27801	9.7372	5.	0.1	3448.4
27802	9.8291	4.9091	0.1	3421.7
27803	9.7372	5.1818	0.1	3449.8
27804	9.8291	5.0909	0.1	3423.
27805	9.7372	5.3636	0.1	3451.2
27806	9.8291	5.2727	0.1	3424.3
27807	9.7372	5.5455	0.1	3452.8
27808	9.8291	5.4545	0.1	3425.7
27809	9.7372	5.7273	0.1	3454.9
27810	9.8291	5.6364	0.1	3427.2
27811	9.8291	5.8182	0.1	3429.9
27812	9.7372	5.9091	0.1	3454.
27813	9.9209	0.27273	0.1	3402.1
27814	10.013	0.18182	0.1	3376.9
27815	9.9209	9.0909e-002	0.1	3400.9
27816	9.9209	0.45455	0.1	3400.1
27817	10.013	0.36364	0.1	3374.5
27818	9.9209	0.63636	0.1	3398.7
27819	10.013	0.54545	0.1	3373.2
27820	9.9209	0.81818	0.1	3397.5
27821	10.013	0.72727	0.1	3372.
27822	9.9209	1.	0.1	3396.3
27823	10.013	0.90909	0.1	3370.8
27824	9.9209	1.1818	0.1	3395.2
27825	10.013	1.0909	0.1	3369.8
27826	9.9209	1.3636	0.1	3394.2
27827	10.013	1.2727	0.1	3368.9
27828	9.9209	1.5455	0.1	3393.3
27829	10.013	1.4545	0.1	3368.
27830	9.9209	1.7273	0.1	3392.5
27831	10.013	1.6364	0.1	3367.2
27832	9.9209	1.9091	0.1	3391.7
27833	10.013	1.8182	0.1	3366.5
27834	9.9209	2.0909	0.1	3391.1
27835	10.013	2.	0.1	3365.9
27836	9.9209	2.2727	0.1	3390.5
27837	10.013	2.1818	0.1	3365.3
27838	9.9209	2.4545	0.1	3390.1
27839	10.013	2.3636	0.1	3364.9
27840	9.9209	2.6364	0.1	3389.8
27841	10.013	2.5455	0.1	3364.5
27842	9.9209	2.8182	0.1	3389.6
27843	10.013	2.7273	0.1	3364.3
27844	9.9209	3.	0.1	3389.6
27845	10.013	2.9091	0.1	3364.2
27846	9.9209	3.1818	0.1	3389.6
27847	10.013	3.0909	0.1	3364.2
27848	9.9209	3.3636	0.1	3389.8
27849	10.013	3.2727	0.1	3364.3
27850	9.9209	3.5455	0.1	3390.1
27851	10.013	3.4545	0.1	3364.5
27852	9.9209	3.7273	0.1	3390.5
27853	10.013	3.6364	0.1	3364.9
27854	9.9209	3.9091	0.1	3391.1
27855	10.013	3.8182	0.1	3365.3
27856	9.9209	4.0909	0.1	3391.7
27857	10.013	4.	0.1	3365.9
27858	9.9209	4.2727	0.1	3392.5
27859	10.013	4.1818	0.1	3366.5
27860	9.9209	4.4545	0.1	3393.3
27861	10.013	4.3636	0.1	3367.2
27862	9.9209	4.6364	0.1	3394.2
27863	10.013	4.5455	0.1	3368.
27864	9.9209	4.8182	0.1	3395.2
27865	10.013	4.7273	0.1	3368.9
27866	9.9209	5.	0.1	3396.3
27867	10.013	4.9091	0.1	3369.8
27868	9.9209	5.1818	0.1	3397.5
27869	10.013	5.0909	0.1	3370.8
27870	9.9209	5.3636	0.1	3398.7
27871	10.013	5.2727	0.1	3372.
27872	9.9209	5.5455	0.1	3400.1
27873	10.013	5.4545	0.1	3373.2
27874	9.9209	5.7273	0.1	3402.1
27875	10.013	5.6364	0.1	3374.5
27876	10.013	5.8182	0.1	3376.9
27877	9.9209	5.9091	0.1	3400.9
27878	10.105	0.27273	0.1	3349.3
27879	10.197	0.18182	0.1	3324.2
27880	10.105	9.0909e-002	0.1	3347.9
27881	10.105	0.45455	0.1	3347.5
27882	10.197	0.36364	0.1	3321.9
27883	10.105	0.63636	0.1	3346.4
27884	10.197	0.54545	0.1	3320.8
27885	10.105	0.81818	0.1	3345.3
27886	10.197	0.72727	0.1	3319.8
27887	10.105	1.	0.1	3344.4
27888	10.197	0.90909	0.1	3318.9
27889	10.105	1.1818	0.1	3343.5
27890	10.197	1.0909	0.1	3318.1
27891	10.105	1.3636	0.1	3342.6
27892	10.197	1.2727	0.1	3317.3
27893	10.105	1.5455	0.1	3341.9
27894	10.197	1.4545	0.1	3316.6
27895	10.105	1.7273	0.1	3341.2
27896	10.197	1.6364	0.1	3316.
27897	10.105	1.9091	0.1	3340.6
27898	10.197	1.8182	0.1	3315.4
27899	10.105	2.0909	0.1	3340.1
27900	10.197	2.	0.1	3314.9
27901	10.105	2.2727	0.1	3339.6
27902	10.197	2.1818	0.1	3314.5
27903	10.105	2.4545	0.1	3339.3
27904	10.197	2.3636	0.1	3314.1
27905	10.105	2.6364	0.1	3339.
27906	10.197	2.5455	0.1	3313.9
27907	10.105	2.8182	0.1	3338.9
27908	10.197	2.7273	0.1	3313.7
27909	10.105	3.	0.1	3338.8
27910	10.197	2.9091	0.1	3313.6
27911	10.105	3.1818	0.1	3338.9
27912	10.197	3.0909	0.1	3313.6
27913	10.105	3.3636	0.1	3339.
27914	10.197	3.2727	0.1	3313.7
27915	10.105	3.5455	0.1	3339.3
27916	10.197	3.4545	0.1	3313.9
27917	10.105	3.7273	0.1	3339.6
27918	10.197	3.6364	0.1	3314.1
27919	10.105	3.9091	0.1	3340.1
27920	10.197	3.8182	0.1	3314.5
27921	10.105	4.0909	0.1	3340.6
27922	10.197	4.	0.1	3314.9
27923	10.105	4.2727	0.1	3341.2
27924	10.197	4.1818	0.1	3315.4
27925	10.105	4.4545	0.1	3341.9
27926	10.197	4.3636	0.1	3316.
27927	10.105	4.6364	0.1	3342.6
27928	10.197	4.5455	0.1	3316.6
27929	10.105	4.8182	0.1	3343.5
27930	10.197	4.7273	0.1	3317.3
27931	10.105	5.	0.1	3344.4
27932	10.197	4.9091	0.1	3318.1
27933	10.105	5.1818	0.1	3345.3
27934	10.197	5.0909	0.1	3318.9
27935	10.105	5.3636	0.1	3346.4
27936	10.197	5.2727	0.1	3319.8
27937	10.105	5.5455	0.1	3347.5
27938	10.197	5.4545	0.1	3320.8
27939	10.105	5.7273	0.1	3349.3
27940	10.197	5.6364	0.1	3321.9
27941	10.197	5.8182	0.1	3324.2
27942	10.105	5.9091	0.1	3347.9
27943	10.288	0.27273	0.1	3296.7
27944	10.38	0.18182	0.1	3271.5
27945	10.288	9.0909e-002	0.1	3295.
27946	10.288	0.45455	0.1	3295.1
27947	10.38	0.36364	0.1	3269.4
27948	10.288	0.63636	0.1	3294.2
27949	10.38	0.54545	0.1	3268.5
27950	10.288	0.81818	0.1	3293.3
27951	10.38	0.72727	0.1	3267.7
27952	10.288	1.	0.1	3292.6
27953	10.38	0.90909	0.1	3267.1
27954	10.288	1.1818	0.1	3291.9
27955	10.38	1.0909	0.1	3266.5
27956	10.288	1.3636	0.1	3291.3
27957	10.38	1.2727	0.1	3265.9
27958	10.288	1.5455	0.1	3290.7
27959	10.38	1.4545	0.1	3265.4
27960	10.288	1.7273	0.1	3290.2
27961	10.38	1.6364	0.1	3265.
27962	10.288	1.9091	0.1	3289.7
27963	10.38	1.8182	0.1	3264.6
27964	10.288	2.0909	0.1	3289.3
27965	10.38	2.	0.1	3264.2
27966	10.288	2.2727	0.1	3289.
27967	10.38	2.1818	0.1	3263.9
27968	10.288	2.4545	0.1	3288.7
27969	10.38	2.3636	0.1	3263.6
27970	10.288	2.6364	0.1	3288.5
27971	10.38	2.5455	0.1	3263.4
27972	10.288	2.8182	0.1	3288.4
27973	10.38	2.7273	0.1	3263.3
27974	10.288	3.	0.1	3288.3
27975	10.38	2.9091	0.1	3263.2
27976	10.288	3.1818	0.1	3288.4
27977	10.38	3.0909	0.1	3263.2
27978	10.288	3.3636	0.1	3288.5
27979	10.38	3.2727	0.1	3263.3
27980	10.288	3.5455	0.1	3288.7
27981	10.38	3.4545	0.1	3263.4
27982	10.288	3.7273	0.1	3289.
27983	10.38	3.6364	0.1	3263.6
27984	10.288	3.9091	0.1	3289.3
27985	10.38	3.8182	0.1	3263.9
27986	10.288	4.0909	0.1	3289.7
27987	10.38	4.	0.1	3264.2
27988	10.288	4.2727	0.1	3290.2
27989	10.38	4.1818	0.1	3264.6
27990	10.288	4.4545	0.1	3290.7
27991	10.38	4.3636	0.1	3265.
27992	10.288	4.6364	0.1	3291.3
27993	10.38	4.5455	0.1	3265.4
27994	10.288	4.8182	0.1	3291.9
27995	10.38	4.7273	0.1	3265.9
27996	10.288	5.	0.1	3292.6
27997	10.38	4.9091	0.1	3266.5
27998	10.288	5.1818	0.1	3293.3
27999	10.38	5.0909	0.1	3267.1
28000	10.288	5.3636	0.1	3294.2
28001	10.38	5.2727	0.1	3267.7
28002	10.288	5.5455	0.1	3295.1
28003	10.38	5.4545	0.1	3268.5
28004	10.288	5.7273	0.1	3296.7
28005	10.38	5.6364	0.1	3269.4
28006	10.38	5.8182	0.1	3271.5
28007	10.288	5.9091	0.1	3295.
28008	10.472	0.27273	0.1	3244.1
28009	10.564	0.18182	0.1	3218.8
28010	10.472	9.0909e-002	0.1	3242.2
28011	10.472	0.45455	0.1	3242.8
28012	10.564	0.36364	0.1	3217.
28013	10.472	0.63636	0.1	3242.
28014	10.564	0.54545	0.1	3216.3
28015	10.472	0.81818	0.1	3241.5
28016	10.564	0.72727	0.1	3215.8
28017	10.472	1.	0.1	3240.9
28018	10.564	0.90909	0.1	3215.4
28019	10.472	1.1818	0.1	3240.5
28020	10.564	1.0909	0.1	3215.
28021	10.472	1.3636	0.1	3240.1
28022	10.564	1.2727	0.1	3214.7
28023	10.472	1.5455	0.1	3239.7
28024	10.564	1.4545	0.1	3214.4
28025	10.472	1.7273	0.1	3239.4
28026	10.564	1.6364	0.1	3214.2
28027	10.472	1.9091	0.1	3239.1
28028	10.564	1.8182	0.1	3214.
28029	10.472	2.0909	0.1	3238.8
28030	10.564	2.	0.1	3213.8
28031	10.472	2.2727	0.1	3238.6
28032	10.564	2.1818	0.1	3213.6
28033	10.472	2.4545	0.1	3238.4
28034	10.564	2.3636	0.1	3213.4
28035	10.472	2.6364	0.1	3238.2
28036	10.564	2.5455	0.1	3213.3
28037	10.472	2.8182	0.1	3238.1
28038	10.564	2.7273	0.1	3213.2
28039	10.472	3.	0.1	3238.1
28040	10.564	2.9091	0.1	3213.2
28041	10.472	3.1818	0.1	3238.1
28042	10.564	3.0909	0.1	3213.2
28043	10.472	3.3636	0.1	3238.2
28044	10.564	3.2727	0.1	3213.2
28045	10.472	3.5455	0.1	3238.4
28046	10.564	3.4545	0.1	3213.3
28047	10.472	3.7273	0.1	3238.6
28048	10.564	3.6364	0.1	3213.4
28049	10.472	3.9091	0.1	3238.8
28050	10.564	3.8182	0.1	3213.6
28051	10.472	4.0909	0.1	3239.1
28052	10.564	4.	0.1	3213.8
28053	10.472	4.2727	0.1	3239.4
28054	10.564	4.1818	0.1	3214.
28055	10.472	4.4545	0.1	3239.7
28056	10.564	4.3636	0.1	3214.2
28057	10.472	4.6364	0.1	3240.1
28058	10.564	4.5455	0.1	3214.4
28059	10.472	4.8182	0.1	3240.5
28060	10.564	4.7273	0.1	3214.7
28061	10.472	5.	0.1	3240.9
28062	10.564	4.9091	0.1	3215.
28063	10.472	5.1818	0.1	3241.5
28064	10.564	5.0909	0.1	3215.4
28065	10.472	5.3636	0.1	3242.
28066	10.564	5.2727	0.1	3215.8
28067	10.472	5.5455	0.1	3242.8
28068	10.564	5.4545	0.1	3216.3
28069	10.472	5.7273	0.1	3244.1
28070	10.564	5.6364	0.1	3217.
28071	10.564	5.8182	0.1	3218.8
28072	10.472	5.9091	0.1	3242.2
28073	10.656	0.27273	0.1	3191.6
28074	10.748	0.18182	0.1	3166.1
28075	10.656	9.0909e-002	0.1	3189.5
28076	10.656	0.45455	0.1	3190.5
28077	10.748	0.36364	0.1	3164.5
28078	10.656	0.63636	0.1	3190.
28079	10.748	0.54545	0.1	3164.1
28080	10.656	0.81818	0.1	3189.7
28081	10.748	0.72727	0.1	3163.9
28082	10.656	1.	0.1	3189.4
28083	10.748	0.90909	0.1	3163.8
28084	10.656	1.1818	0.1	3189.2
28085	10.748	1.0909	0.1	3163.7
28086	10.656	1.3636	0.1	3189.1
28087	10.748	1.2727	0.1	3163.7
28088	10.656	1.5455	0.1	3188.9
28089	10.748	1.4545	0.1	3163.7
28090	10.656	1.7273	0.1	3188.8
28091	10.748	1.6364	0.1	3163.6
28092	10.656	1.9091	0.1	3188.7
28093	10.748	1.8182	0.1	3163.6
28094	10.656	2.0909	0.1	3188.5
28095	10.748	2.	0.1	3163.6
28096	10.656	2.2727	0.1	3188.4
28097	10.748	2.1818	0.1	3163.6
28098	10.656	2.4545	0.1	3188.3
28099	10.748	2.3636	0.1	3163.5
28100	10.656	2.6364	0.1	3188.3
28101	10.748	2.5455	0.1	3163.5
28102	10.656	2.8182	0.1	3188.2
28103	10.748	2.7273	0.1	3163.5
28104	10.656	3.	0.1	3188.2
28105	10.748	2.9091	0.1	3163.4
28106	10.656	3.1818	0.1	3188.2
28107	10.748	3.0909	0.1	3163.4
28108	10.656	3.3636	0.1	3188.3
28109	10.748	3.2727	0.1	3163.5
28110	10.656	3.5455	0.1	3188.3
28111	10.748	3.4545	0.1	3163.5
28112	10.656	3.7273	0.1	3188.4
28113	10.748	3.6364	0.1	3163.5
28114	10.656	3.9091	0.1	3188.5
28115	10.748	3.8182	0.1	3163.6
28116	10.656	4.0909	0.1	3188.7
28117	10.748	4.	0.1	3163.6
28118	10.656	4.2727	0.1	3188.8
28119	10.748	4.1818	0.1	3163.6
28120	10.656	4.4545	0.1	3188.9
28121	10.748	4.3636	0.1	3163.6
28122	10.656	4.6364	0.1	3189.1
28123	10.748	4.5455	0.1	3163.7
28124	10.656	4.8182	0.1	3189.2
28125	10.748	4.7273	0.1	3163.7
28126	10.656	5.	0.1	3189.4
28127	10.748	4.9091	0.1	3163.7
28128	10.656	5.1818	0.1	3189.7
28129	10.748	5.0909	0.1	3163.8
28130	10.656	5.3636	0.1	3190.
28131	10.748	5.2727	0.1	3163.9
28132	10.656	5.5455	0.1	3190.5
28133	10.748	5.4545	0.1	3164.1
28134	10.656	5.7273	0.1	3191.6
28135	10.748	5.6364	0.1	3164.5
28136	10.748	5.8182	0.1	3166.1
28137	10.656	5.9091	0.1	3189.5
28138	10.84	0.27273	0.1	3139.
28139	10.931	0.18182	0.1	3113.4
28140	10.84	9.0909e-002	0.1	3136.7
28141	10.84	0.45455	0.1	3138.2
28142	10.931	0.36364	0.1	3112.1
28143	10.84	0.63636	0.1	3138.
28144	10.931	0.54545	0.1	3112.
28145	10.84	0.81818	0.1	3138.
28146	10.931	0.72727	0.1	3112.1
28147	10.84	1.	0.1	3138.
28148	10.931	0.90909	0.1	3112.3
28149	10.84	1.1818	0.1	3138.1
28150	10.931	1.0909	0.1	3112.5
28151	10.84	1.3636	0.1	3138.2
28152	10.931	1.2727	0.1	3112.8
28153	10.84	1.5455	0.1	3138.4
28154	10.931	1.4545	0.1	3113.1
28155	10.84	1.7273	0.1	3138.5
28156	10.931	1.6364	0.1	3113.3
28157	10.84	1.9091	0.1	3138.5
28158	10.931	1.8182	0.1	3113.5
28159	10.84	2.0909	0.1	3138.6
28160	10.931	2.	0.1	3113.7
28161	10.84	2.2727	0.1	3138.6
28162	10.931	2.1818	0.1	3113.9
28163	10.84	2.4545	0.1	3138.7
28164	10.931	2.3636	0.1	3114.
28165	10.84	2.6364	0.1	3138.7
28166	10.931	2.5455	0.1	3114.
28167	10.84	2.8182	0.1	3138.7
28168	10.931	2.7273	0.1	3114.1
28169	10.84	3.	0.1	3138.7
28170	10.931	2.9091	0.1	3114.1
28171	10.84	3.1818	0.1	3138.7
28172	10.931	3.0909	0.1	3114.1
28173	10.84	3.3636	0.1	3138.7
28174	10.931	3.2727	0.1	3114.1
28175	10.84	3.5455	0.1	3138.7
28176	10.931	3.4545	0.1	3114.
28177	10.84	3.7273	0.1	3138.6
28178	10.931	3.6364	0.1	3114.
28179	10.84	3.9091	0.1	3138.6
28180	10.931	3.8182	0.1	3113.9
28181	10.84	4.0909	0.1	3138.5
28182	10.931	4.	0.1	3113.7
28183	10.84	4.2727	0.1	3138.5
28184	10.931	4.1818	0.1	3113.5
28185	10.84	4.4545	0.1	3138.4
28186	10.931	4.3636	0.1	3113.3
28187	10.84	4.6364	0.1	3138.2
28188	10.931	4.5455	0.1	3113.1
28189	10.84	4.8182	0.1	3138.1
28190	10.931	4.7273	0.1	3112.8
28191	10.84	5.	0.1	3138.
28192	10.931	4.9091	0.1	3112.5
28193	10.84	5.1818	0.1	3138.
28194	10.931	5.0909	0.1	3112.3
28195	10.84	5.3636	0.1	3138.
28196	10.931	5.2727	0.1	3112.1
28197	10.84	5.5455	0.1	3138.2
28198	10.931	5.4545	0.1	3112.
28199	10.84	5.7273	0.1	3139.
28200	10.931	5.6364	0.1	3112.1
28201	10.931	5.8182	0.1	3113.4
28202	10.84	5.9091	0.1	3136.7
28203	11.023	0.27273	0.1	3086.3
28204	11.115	0.18182	0.1	3060.4
28205	11.023	9.0909e-002	0.1	3083.7
28206	11.023	0.45455	0.1	3085.8
28207	11.115	0.36364	0.1	3059.5
28208	11.023	0.63636	0.1	3086.
28209	11.115	0.54545	0.1	3059.7
28210	11.023	0.81818	0.1	3086.3
28211	11.115	0.72727	0.1	3060.2
28212	11.023	1.	0.1	3086.7
28213	11.115	0.90909	0.1	3060.8
28214	11.023	1.1818	0.1	3087.2
28215	11.115	1.0909	0.1	3061.4
28216	11.023	1.3636	0.1	3087.6
28217	11.115	1.2727	0.1	3062.
28218	11.023	1.5455	0.1	3088.
28219	11.115	1.4545	0.1	3062.7
28220	11.023	1.7273	0.1	3088.4
28221	11.115	1.6364	0.1	3063.2
28222	11.023	1.9091	0.1	3088.7
28223	11.115	1.8182	0.1	3063.7
28224	11.023	2.0909	0.1	3089.
28225	11.115	2.	0.1	3064.2
28226	11.023	2.2727	0.1	3089.2
28227	11.115	2.1818	0.1	3064.5
28228	11.023	2.4545	0.1	3089.3
28229	11.115	2.3636	0.1	3064.8
28230	11.023	2.6364	0.1	3089.5
28231	11.115	2.5455	0.1	3065.
28232	11.023	2.8182	0.1	3089.5
28233	11.115	2.7273	0.1	3065.2
28234	11.023	3.	0.1	3089.5
28235	11.115	2.9091	0.1	3065.2
28236	11.023	3.1818	0.1	3089.5
28237	11.115	3.0909	0.1	3065.2
28238	11.023	3.3636	0.1	3089.5
28239	11.115	3.2727	0.1	3065.2
28240	11.023	3.5455	0.1	3089.3
28241	11.115	3.4545	0.1	3065.
28242	11.023	3.7273	0.1	3089.2
28243	11.115	3.6364	0.1	3064.8
28244	11.023	3.9091	0.1	3089.
28245	11.115	3.8182	0.1	3064.5
28246	11.023	4.0909	0.1	3088.7
28247	11.115	4.	0.1	3064.2
28248	11.023	4.2727	0.1	3088.4
28249	11.115	4.1818	0.1	3063.7
28250	11.023	4.4545	0.1	3088.
28251	11.115	4.3636	0.1	3063.2
28252	11.023	4.6364	0.1	3087.6
28253	11.115	4.5455	0.1	3062.7
28254	11.023	4.8182	0.1	3087.2
28255	11.115	4.7273	0.1	3062.
28256	11.023	5.	0.1	3086.7
28257	11.115	4.9091	0.1	3061.4
28258	11.023	5.1818	0.1	3086.3
28259	11.115	5.0909	0.1	3060.8
28260	11.023	5.3636	0.1	3086.
28261	11.115	5.2727	0.1	3060.2
28262	11.023	5.5455	0.1	3085.8
28263	11.115	5.4545	0.1	3059.7
28264	11.023	5.7273	0.1	3086.3
28265	11.115	5.6364	0.1	3059.5
28266	11.115	5.8182	0.1	3060.4
28267	11.023	5.9091	0.1	3083.7
28268	11.207	0.27273	0.1	3033.5
28269	11.299	0.18182	0.1	3007.3
28270	11.207	9.0909e-002	0.1	3030.6
28271	11.207	0.45455	0.1	3033.3
28272	11.299	0.36364	0.1	3006.7
28273	11.207	0.63636	0.1	3033.9
28274	11.299	0.54545	0.1	3007.3
28275	11.207	0.81818	0.1	3034.6
28276	11.299	0.72727	0.1	3008.2
28277	11.207	1.	0.1	3035.4
28278	11.299	0.90909	0.1	3009.3
28279	11.207	1.1818	0.1	3036.3
28280	11.299	1.0909	0.1	3010.3
28281	11.207	1.3636	0.1	3037.1
28282	11.299	1.2727	0.1	3011.4
28283	11.207	1.5455	0.1	3037.9
28284	11.299	1.4545	0.1	3012.5
28285	11.207	1.7273	0.1	3038.6
28286	11.299	1.6364	0.1	3013.4
28287	11.207	1.9091	0.1	3039.2
28288	11.299	1.8182	0.1	3014.3
28289	11.207	2.0909	0.1	3039.7
28290	11.299	2.	0.1	3015.
28291	11.207	2.2727	0.1	3040.2
28292	11.299	2.1818	0.1	3015.7
28293	11.207	2.4545	0.1	3040.5
28294	11.299	2.3636	0.1	3016.1
28295	11.207	2.6364	0.1	3040.7
28296	11.299	2.5455	0.1	3016.5
28297	11.207	2.8182	0.1	3040.9
28298	11.299	2.7273	0.1	3016.8
28299	11.207	3.	0.1	3040.9
28300	11.299	2.9091	0.1	3016.9
28301	11.207	3.1818	0.1	3040.9
28302	11.299	3.0909	0.1	3016.9
28303	11.207	3.3636	0.1	3040.7
28304	11.299	3.2727	0.1	3016.8
28305	11.207	3.5455	0.1	3040.5
28306	11.299	3.4545	0.1	3016.5
28307	11.207	3.7273	0.1	3040.2
28308	11.299	3.6364	0.1	3016.1
28309	11.207	3.9091	0.1	3039.7
28310	11.299	3.8182	0.1	3015.7
28311	11.207	4.0909	0.1	3039.2
28312	11.299	4.	0.1	3015.
28313	11.207	4.2727	0.1	3038.6
28314	11.299	4.1818	0.1	3014.3
28315	11.207	4.4545	0.1	3037.9
28316	11.299	4.3636	0.1	3013.4
28317	11.207	4.6364	0.1	3037.1
28318	11.299	4.5455	0.1	3012.5
28319	11.207	4.8182	0.1	3036.3
28320	11.299	4.7273	0.1	3011.4
28321	11.207	5.	0.1	3035.4
28322	11.299	4.9091	0.1	3010.3
28323	11.207	5.1818	0.1	3034.6
28324	11.299	5.0909	0.1	3009.3
28325	11.207	5.3636	0.1	3033.9
28326	11.299	5.2727	0.1	3008.2
28327	11.207	5.5455	0.1	3033.3
28328	11.299	5.4545	0.1	3007.3
28329	11.207	5.7273	0.1	3033.5
28330	11.299	5.6364	0.1	3006.7
28331	11.299	5.8182	0.1	3007.3
28332	11.207	5.9091	0.1	3030.6
28333	11.391	0.27273	0.1	2980.4
28334	11.483	0.18182	0.1	2953.7
28335	11.391	9.0909e-002	0.1	2977.2
28336	11.391	0.45455	0.1	2980.6
28337	11.483	0.36364	0.1	2953.6
28338	11.391	0.63636	0.1	2981.7
28339	11.483	0.54545	0.1	2954.7
28340	11.391	0.81818	0.1	2982.9
28341	11.483	0.72727	0.1	2956.1
28342	11.391	1.	0.1	2984.2
28343	11.483	0.90909	0.1	2957.7
28344	11.391	1.1818	0.1	2985.5
28345	11.483	1.0909	0.1	2959.3
28346	11.391	1.3636	0.1	2986.8
28347	11.483	1.2727	0.1	2960.9
28348	11.391	1.5455	0.1	2988.
28349	11.483	1.4545	0.1	2962.5
28350	11.391	1.7273	0.1	2989.1
28351	11.483	1.6364	0.1	2963.9
28352	11.391	1.9091	0.1	2990.1
28353	11.483	1.8182	0.1	2965.2
28354	11.391	2.0909	0.1	2990.9
28355	11.483	2.	0.1	2966.3
28356	11.391	2.2727	0.1	2991.6
28357	11.483	2.1818	0.1	2967.3
28358	11.391	2.4545	0.1	2992.2
28359	11.483	2.3636	0.1	2968.
28360	11.391	2.6364	0.1	2992.5
28361	11.483	2.5455	0.1	2968.6
28362	11.391	2.8182	0.1	2992.8
28363	11.483	2.7273	0.1	2969.
28364	11.391	3.	0.1	2992.8
28365	11.483	2.9091	0.1	2969.2
28366	11.391	3.1818	0.1	2992.8
28367	11.483	3.0909	0.1	2969.2
28368	11.391	3.3636	0.1	2992.5
28369	11.483	3.2727	0.1	2969.
28370	11.391	3.5455	0.1	2992.2
28371	11.483	3.4545	0.1	2968.6
28372	11.391	3.7273	0.1	2991.6
28373	11.483	3.6364	0.1	2968.
28374	11.391	3.9091	0.1	2990.9
28375	11.483	3.8182	0.1	2967.3
28376	11.391	4.0909	0.1	2990.1
28377	11.483	4.	0.1	2966.3
28378	11.391	4.2727	0.1	2989.1
28379	11.483	4.1818	0.1	2965.2
28380	11.391	4.4545	0.1	2988.
28381	11.483	4.3636	0.1	2963.9
28382	11.391	4.6364	0.1	2986.8
28383	11.483	4.5455	0.1	2962.5
28384	11.391	4.8182	0.1	2985.5
28385	11.483	4.7273	0.1	2960.9
28386	11.391	5.	0.1	2984.2
28387	11.483	4.9091	0.1	2959.3
28388	11.391	5.1818	0.1	2982.9
28389	11.483	5.0909	0.1	2957.7
28390	11.391	5.3636	0.1	2981.7
28391	11.483	5.2727	0.1	2956.1
28392	11.391	5.5455	0.1	2980.6
28393	11.483	5.4545	0.1	2954.7
28394	11.391	5.7273	0.1	2980.4
28395	11.483	5.6364	0.1	2953.6
28396	11.483	5.8182	0.1	2953.7
28397	11.391	5.9091	0.1	2977.2
28398	11.574	0.27273	0.1	2926.8
28399	11.666	0.18182	0.1	2899.6
28400	11.574	9.0909e-002	0.1	2923.3
28401	11.574	0.45455	0.1	2927.6
28402	11.666	0.36364	0.1	2900.
28403	11.574	0.63636	0.1	2929.1
28404	11.666	0.54545	0.1	2901.7
28405	11.574	0.81818	0.1	2930.9
28406	11.666	0.72727	0.1	2903.7
28407	11.574	1.	0.1	2932.8
28408	11.666	0.90909	0.1	2905.9
28409	11.574	1.1818	0.1	2934.7
28410	11.666	1.0909	0.1	2908.2
28411	11.574	1.3636	0.1	2936.6
28412	11.666	1.2727	0.1	2910.5
28413	11.574	1.5455	0.1	2938.3
28414	11.666	1.4545	0.1	2912.6
28415	11.574	1.7273	0.1	2940.
28416	11.666	1.6364	0.1	2914.7
28417	11.574	1.9091	0.1	2941.4
28418	11.666	1.8182	0.1	2916.5
28419	11.574	2.0909	0.1	2942.6
28420	11.666	2.	0.1	2918.1
28421	11.574	2.2727	0.1	2943.7
28422	11.666	2.1818	0.1	2919.5
28423	11.574	2.4545	0.1	2944.4
28424	11.666	2.3636	0.1	2920.6
28425	11.574	2.6364	0.1	2945.
28426	11.666	2.5455	0.1	2921.4
28427	11.574	2.8182	0.1	2945.4
28428	11.666	2.7273	0.1	2921.9
28429	11.574	3.	0.1	2945.5
28430	11.666	2.9091	0.1	2922.2
28431	11.574	3.1818	0.1	2945.4
28432	11.666	3.0909	0.1	2922.2
28433	11.574	3.3636	0.1	2945.
28434	11.666	3.2727	0.1	2921.9
28435	11.574	3.5455	0.1	2944.4
28436	11.666	3.4545	0.1	2921.4
28437	11.574	3.7273	0.1	2943.7
28438	11.666	3.6364	0.1	2920.6
28439	11.574	3.9091	0.1	2942.6
28440	11.666	3.8182	0.1	2919.5
28441	11.574	4.0909	0.1	2941.4
28442	11.666	4.	0.1	2918.1
28443	11.574	4.2727	0.1	2940.
28444	11.666	4.1818	0.1	2916.5
28445	11.574	4.4545	0.1	2938.3
28446	11.666	4.3636	0.1	2914.7
28447	11.574	4.6364	0.1	2936.6
28448	11.666	4.5455	0.1	2912.6
28449	11.574	4.8182	0.1	2934.7
28450	11.666	4.7273	0.1	2910.5
28451	11.574	5.	0.1	2932.8
28452	11.666	4.9091	0.1	2908.2
28453	11.574	5.1818	0.1	2930.9
28454	11.666	5.0909	0.1	2905.9
28455	11.574	5.3636	0.1	2929.1
28456	11.666	5.2727	0.1	2903.7
28457	11.574	5.5455	0.1	2927.6
28458	11.666	5.4545	0.1	2901.7
28459	11.574	5.7273	0.1	2926.8
28460	11.666	5.6364	0.1	2900.
28461	11.666	5.8182	0.1	2899.6
28462	11.574	5.9091	0.1	2923.3
28463	11.758	0.27273	0.1	2872.7
28464	11.85	0.18182	0.1	2844.8
28465	11.758	9.0909e-002	0.1	2868.8
28466	11.758	0.45455	0.1	2874.1
28467	11.85	0.36364	0.1	2845.8
28468	11.758	0.63636	0.1	2876.3
28469	11.85	0.54545	0.1	2848.2
28470	11.758	0.81818	0.1	2878.7
28471	11.85	0.72727	0.1	2851.
28472	11.758	1.	0.1	2881.3
28473	11.85	0.90909	0.1	2853.9
28474	11.758	1.1818	0.1	2884.
28475	11.85	1.0909	0.1	2857.
28476	11.758	1.3636	0.1	2886.5
28477	11.85	1.2727	0.1	2860.1
28478	11.758	1.5455	0.1	2889.
28479	11.85	1.4545	0.1	2863.
28480	11.758	1.7273	0.1	2891.2
28481	11.85	1.6364	0.1	2865.8
28482	11.758	1.9091	0.1	2893.2
28483	11.85	1.8182	0.1	2868.3
28484	11.758	2.0909	0.1	2894.9
28485	11.85	2.	0.1	2870.5
28486	11.758	2.2727	0.1	2896.4
28487	11.85	2.1818	0.1	2872.4
28488	11.758	2.4545	0.1	2897.5
28489	11.85	2.3636	0.1	2873.9
28490	11.758	2.6364	0.1	2898.3
28491	11.85	2.5455	0.1	2875.
28492	11.758	2.8182	0.1	2898.8
28493	11.85	2.7273	0.1	2875.8
28494	11.758	3.	0.1	2898.9
28495	11.85	2.9091	0.1	2876.2
28496	11.758	3.1818	0.1	2898.8
28497	11.85	3.0909	0.1	2876.2
28498	11.758	3.3636	0.1	2898.3
28499	11.85	3.2727	0.1	2875.8
28500	11.758	3.5455	0.1	2897.5
28501	11.85	3.4545	0.1	2875.
28502	11.758	3.7273	0.1	2896.4
28503	11.85	3.6364	0.1	2873.9
28504	11.758	3.9091	0.1	2894.9
28505	11.85	3.8182	0.1	2872.4
28506	11.758	4.0909	0.1	2893.2
28507	11.85	4.	0.1	2870.5
28508	11.758	4.2727	0.1	2891.2
28509	11.85	4.1818	0.1	2868.3
28510	11.758	4.4545	0.1	2889.
28511	11.85	4.3636	0.1	2865.8
28512	11.758	4.6364	0.1	2886.5
28513	11.85	4.5455	0.1	2863.
28514	11.758	4.8182	0.1	2884.
28515	11.85	4.7273	0.1	2860.1
28516	11.758	5.	0.1	2881.3
28517	11.85	4.9091	0.1	2857.
28518	11.758	5.1818	0.1	2878.7
28519	11.85	5.0909	0.1	2853.9
28520	11.758	5.3636	0.1	2876.3
28521	11.85	5.2727	0.1	2851.
28522	11.758	5.5455	0.1	2874.1
28523	11.85	5.4545	0.1	2848.2
28524	11.758	5.7273	0.1	2872.7
28525	11.85	5.6364	0.1	2845.8
28526	11.85	5.8182	0.1	2844.8
28527	11.758	5.9091	0.1	2868.8
28528	11.942	0.27273	0.1	2817.8
28529	12.034	0.18182	0.1	2789.1
28530	11.942	9.0909e-002	0.1	2813.5
28531	11.942	0.45455	0.1	2819.9
28532	12.034	0.36364	0.1	2790.8
28533	11.942	0.63636	0.1	2822.8
28534	12.034	0.54545	0.1	2793.9
28535	11.942	0.81818	0.1	2826.1
28536	12.034	0.72727	0.1	2797.6
28537	11.942	1.	0.1	2829.6
28538	12.034	0.90909	0.1	2801.5
28539	11.942	1.1818	0.1	2833.1
28540	12.034	1.0909	0.1	2805.6
28541	11.942	1.3636	0.1	2836.6
28542	12.034	1.2727	0.1	2809.6
28543	11.942	1.5455	0.1	2839.8
28544	12.034	1.4545	0.1	2813.6
28545	11.942	1.7273	0.1	2842.8
28546	12.034	1.6364	0.1	2817.2
28547	11.942	1.9091	0.1	2845.6
28548	12.034	1.8182	0.1	2820.6
28549	11.942	2.0909	0.1	2847.9
28550	12.034	2.	0.1	2823.6
28551	11.942	2.2727	0.1	2849.9
28552	12.034	2.1818	0.1	2826.1
28553	11.942	2.4545	0.1	2851.4
28554	12.034	2.3636	0.1	2828.2
28555	11.942	2.6364	0.1	2852.5
28556	12.034	2.5455	0.1	2829.8
28557	11.942	2.8182	0.1	2853.2
28558	12.034	2.7273	0.1	2830.8
28559	11.942	3.	0.1	2853.4
28560	12.034	2.9091	0.1	2831.3
28561	11.942	3.1818	0.1	2853.2
28562	12.034	3.0909	0.1	2831.3
28563	11.942	3.3636	0.1	2852.5
28564	12.034	3.2727	0.1	2830.8
28565	11.942	3.5455	0.1	2851.4
28566	12.034	3.4545	0.1	2829.8
28567	11.942	3.7273	0.1	2849.9
28568	12.034	3.6364	0.1	2828.2
28569	11.942	3.9091	0.1	2847.9
28570	12.034	3.8182	0.1	2826.1
28571	11.942	4.0909	0.1	2845.6
28572	12.034	4.	0.1	2823.6
28573	11.942	4.2727	0.1	2842.8
28574	12.034	4.1818	0.1	2820.6
28575	11.942	4.4545	0.1	2839.8
28576	12.034	4.3636	0.1	2817.2
28577	11.942	4.6364	0.1	2836.6
28578	12.034	4.5455	0.1	2813.6
28579	11.942	4.8182	0.1	2833.1
28580	12.034	4.7273	0.1	2809.6
28581	11.942	5.	0.1	2829.6
28582	12.034	4.9091	0.1	2805.6
28583	11.942	5.1818	0.1	2826.1
28584	12.034	5.0909	0.1	2801.5
28585	11.942	5.3636	0.1	2822.8
28586	12.034	5.2727	0.1	2797.6
28587	11.942	5.5455	0.1	2819.9
28588	12.034	5.4545	0.1	2793.9
28589	11.942	5.7273	0.1	2817.8
28590	12.034	5.6364	0.1	2790.8
28591	12.034	5.8182	0.1	2789.1
28592	11.942	5.9091	0.1	2813.5
28593	12.126	0.27273	0.1	2761.9
28594	12.217	0.18182	0.1	2732.
28595	12.126	9.0909e-002	0.1	2757.1
28596	12.126	0.45455	0.1	2764.8
28597	12.217	0.36364	0.1	2734.6
28598	12.126	0.63636	0.1	2768.7
28599	12.217	0.54545	0.1	2738.8
28600	12.126	0.81818	0.1	2773.
28601	12.217	0.72727	0.1	2743.5
28602	12.126	1.	0.1	2777.5
28603	12.217	0.90909	0.1	2748.6
28604	12.126	1.1818	0.1	2782.1
28605	12.217	1.0909	0.1	2753.9
28606	12.126	1.3636	0.1	2786.6
28607	12.217	1.2727	0.1	2759.1
28608	12.126	1.5455	0.1	2791.
28609	12.217	1.4545	0.1	2764.3
28610	12.126	1.7273	0.1	2795.
28611	12.217	1.6364	0.1	2769.1
28612	12.126	1.9091	0.1	2798.6
28613	12.217	1.8182	0.1	2773.6
28614	12.126	2.0909	0.1	2801.8
28615	12.217	2.	0.1	2777.5
28616	12.126	2.2727	0.1	2804.4
28617	12.217	2.1818	0.1	2780.9
28618	12.126	2.4545	0.1	2806.5
28619	12.217	2.3636	0.1	2783.7
28620	12.126	2.6364	0.1	2808.
28621	12.217	2.5455	0.1	2785.8
28622	12.126	2.8182	0.1	2808.9
28623	12.217	2.7273	0.1	2787.2
28624	12.126	3.	0.1	2809.2
28625	12.217	2.9091	0.1	2787.9
28626	12.126	3.1818	0.1	2808.9
28627	12.217	3.0909	0.1	2787.9
28628	12.126	3.3636	0.1	2808.
28629	12.217	3.2727	0.1	2787.2
28630	12.126	3.5455	0.1	2806.5
28631	12.217	3.4545	0.1	2785.8
28632	12.126	3.7273	0.1	2804.4
28633	12.217	3.6364	0.1	2783.7
28634	12.126	3.9091	0.1	2801.8
28635	12.217	3.8182	0.1	2780.9
28636	12.126	4.0909	0.1	2798.6
28637	12.217	4.	0.1	2777.5
28638	12.126	4.2727	0.1	2795.
28639	12.217	4.1818	0.1	2773.6
28640	12.126	4.4545	0.1	2791.
28641	12.217	4.3636	0.1	2769.1
28642	12.126	4.6364	0.1	2786.6
28643	12.217	4.5455	0.1	2764.3
28644	12.126	4.8182	0.1	2782.1
28645	12.217	4.7273	0.1	2759.1
28646	12.126	5.	0.1	2777.5
28647	12.217	4.9091	0.1	2753.9
28648	12.126	5.1818	0.1	2773.
28649	12.217	5.0909	0.1	2748.6
28650	12.126	5.3636	0.1	2768.7
28651	12.217	5.2727	0.1	2743.5
28652	12.126	5.5455	0.1	2764.8
28653	12.217	5.4545	0.1	2738.8
28654	12.126	5.7273	0.1	2761.9
28655	12.217	5.6364	0.1	2734.6
28656	12.217	5.8182	0.1	2732.
28657	12.126	5.9091	0.1	2757.1
28658	12.309	0.27273	0.1	2704.6
28659	12.401	0.18182	0.1	2673.4
28660	12.309	9.0909e-002	0.1	2699.3
28661	12.309	0.45455	0.1	2708.5
28662	12.401	0.36364	0.1	2677.
28663	12.309	0.63636	0.1	2713.5
28664	12.401	0.54545	0.1	2682.3
28665	12.309	0.81818	0.1	2719.1
28666	12.401	0.72727	0.1	2688.4
28667	12.309	1.	0.1	2724.9
28668	12.401	0.90909	0.1	2694.9
28669	12.309	1.1818	0.1	2730.9
28670	12.401	1.0909	0.1	2701.7
28671	12.309	1.3636	0.1	2736.8
28672	12.401	1.2727	0.1	2708.5
28673	12.309	1.5455	0.1	2742.4
28674	12.401	1.4545	0.1	2715.1
28675	12.309	1.7273	0.1	2747.7
28676	12.401	1.6364	0.1	2721.4
28677	12.309	1.9091	0.1	2752.4
28678	12.401	1.8182	0.1	2727.3
28679	12.309	2.0909	0.1	2756.6
28680	12.401	2.	0.1	2732.5
28681	12.309	2.2727	0.1	2760.1
28682	12.401	2.1818	0.1	2736.9
28683	12.309	2.4545	0.1	2762.9
28684	12.401	2.3636	0.1	2740.6
28685	12.309	2.6364	0.1	2764.9
28686	12.401	2.5455	0.1	2743.4
28687	12.309	2.8182	0.1	2766.2
28688	12.401	2.7273	0.1	2745.3
28689	12.309	3.	0.1	2766.6
28690	12.401	2.9091	0.1	2746.2
28691	12.309	3.1818	0.1	2766.2
28692	12.401	3.0909	0.1	2746.2
28693	12.309	3.3636	0.1	2764.9
28694	12.401	3.2727	0.1	2745.3
28695	12.309	3.5455	0.1	2762.9
28696	12.401	3.4545	0.1	2743.4
28697	12.309	3.7273	0.1	2760.1
28698	12.401	3.6364	0.1	2740.6
28699	12.309	3.9091	0.1	2756.6
28700	12.401	3.8182	0.1	2736.9
28701	12.309	4.0909	0.1	2752.4
28702	12.401	4.	0.1	2732.5
28703	12.309	4.2727	0.1	2747.7
28704	12.401	4.1818	0.1	2727.3
28705	12.309	4.4545	0.1	2742.4
28706	12.401	4.3636	0.1	2721.4
28707	12.309	4.6364	0.1	2736.8
28708	12.401	4.5455	0.1	2715.1
28709	12.309	4.8182	0.1	2730.9
28710	12.401	4.7273	0.1	2708.5
28711	12.309	5.	0.1	2724.9
28712	12.401	4.9091	0.1	2701.7
28713	12.309	5.1818	0.1	2719.1
28714	12.401	5.0909	0.1	2694.9
28715	12.309	5.3636	0.1	2713.5
28716	12.401	5.2727	0.1	2688.4
28717	12.309	5.5455	0.1	2708.5
28718	12.401	5.4545	0.1	2682.3
28719	12.309	5.7273	0.1	2704.6
28720	12.401	5.6364	0.1	2677.
28721	12.401	5.8182	0.1	2673.4
28722	12.309	5.9091	0.1	2699.3
28723	12.493	0.27273	0.1	2645.6
28724	12.585	0.18182	0.1	2612.6
28725	12.493	9.0909e-002	0.1	2639.6
28726	12.493	0.45455	0.1	2650.7
28727	12.585	0.36364	0.1	2617.5
28728	12.493	0.63636	0.1	2657.1
28729	12.585	0.54545	0.1	2624.2
28730	12.493	0.81818	0.1	2664.2
28731	12.585	0.72727	0.1	2631.9
28732	12.493	1.	0.1	2671.6
28733	12.585	0.90909	0.1	2640.2
28734	12.493	1.1818	0.1	2679.3
28735	12.585	1.0909	0.1	2648.8
28736	12.493	1.3636	0.1	2686.8
28737	12.585	1.2727	0.1	2657.5
28738	12.493	1.5455	0.1	2694.2
28739	12.585	1.4545	0.1	2666.1
28740	12.493	1.7273	0.1	2701.
28741	12.585	1.6364	0.1	2674.3
28742	12.493	1.9091	0.1	2707.3
28743	12.585	1.8182	0.1	2681.9
28744	12.493	2.0909	0.1	2712.8
28745	12.585	2.	0.1	2688.7
28746	12.493	2.2727	0.1	2717.4
28747	12.585	2.1818	0.1	2694.5
28748	12.493	2.4545	0.1	2721.1
28749	12.585	2.3636	0.1	2699.4
28750	12.493	2.6364	0.1	2723.7
28751	12.585	2.5455	0.1	2703.
28752	12.493	2.8182	0.1	2725.3
28753	12.585	2.7273	0.1	2705.5
28754	12.493	3.	0.1	2725.9
28755	12.585	2.9091	0.1	2706.8
28756	12.493	3.1818	0.1	2725.3
28757	12.585	3.0909	0.1	2706.8
28758	12.493	3.3636	0.1	2723.7
28759	12.585	3.2727	0.1	2705.5
28760	12.493	3.5455	0.1	2721.1
28761	12.585	3.4545	0.1	2703.
28762	12.493	3.7273	0.1	2717.4
28763	12.585	3.6364	0.1	2699.4
28764	12.493	3.9091	0.1	2712.8
28765	12.585	3.8182	0.1	2694.5
28766	12.493	4.0909	0.1	2707.3
28767	12.585	4.	0.1	2688.7
28768	12.493	4.2727	0.1	2701.
28769	12.585	4.1818	0.1	2681.9
28770	12.493	4.4545	0.1	2694.2
28771	12.585	4.3636	0.1	2674.3
28772	12.493	4.6364	0.1	2686.8
28773	12.585	4.5455	0.1	2666.1
28774	12.493	4.8182	0.1	2679.3
28775	12.585	4.7273	0.1	2657.5
28776	12.493	5.	0.1	2671.6
28777	12.585	4.9091	0.1	2648.8
28778	12.493	5.1818	0.1	2664.2
28779	12.585	5.0909	0.1	2640.2
28780	12.493	5.3636	0.1	2657.1
28781	12.585	5.2727	0.1	2631.9
28782	12.493	5.5455	0.1	2650.7
28783	12.585	5.4545	0.1	2624.2
28784	12.493	5.7273	0.1	2645.6
28785	12.585	5.6364	0.1	2617.5
28786	12.585	5.8182	0.1	2612.6
28787	12.493	5.9091	0.1	2639.6
28788	12.677	0.27273	0.1	2584.4
28789	12.769	0.18182	0.1	2549.2
28790	12.677	9.0909e-002	0.1	2577.6
28791	12.677	0.45455	0.1	2590.9
28792	12.769	0.36364	0.1	2555.6
28793	12.677	0.63636	0.1	2599.
28794	12.769	0.54545	0.1	2564.
28795	12.677	0.81818	0.1	2607.9
28796	12.769	0.72727	0.1	2573.6
28797	12.677	1.	0.1	2617.3
28798	12.769	0.90909	0.1	2584.1
28799	12.677	1.1818	0.1	2627.1
28800	12.769	1.0909	0.1	2595.
28801	12.677	1.3636	0.1	2636.8
28802	12.769	1.2727	0.1	2606.2
28803	12.677	1.5455	0.1	2646.2
28804	12.769	1.4545	0.1	2617.2
28805	12.677	1.7273	0.1	2655.1
28806	12.769	1.6364	0.1	2627.7
28807	12.677	1.9091	0.1	2663.2
28808	12.769	1.8182	0.1	2637.5
28809	12.677	2.0909	0.1	2670.4
28810	12.769	2.	0.1	2646.4
28811	12.677	2.2727	0.1	2676.5
28812	12.769	2.1818	0.1	2654.
28813	12.677	2.4545	0.1	2681.3
28814	12.769	2.3636	0.1	2660.4
28815	12.677	2.6364	0.1	2684.8
28816	12.769	2.5455	0.1	2665.2
28817	12.677	2.8182	0.1	2687.
28818	12.769	2.7273	0.1	2668.5
28819	12.677	3.	0.1	2687.7
28820	12.769	2.9091	0.1	2670.2
28821	12.677	3.1818	0.1	2687.
28822	12.769	3.0909	0.1	2670.2
28823	12.677	3.3636	0.1	2684.8
28824	12.769	3.2727	0.1	2668.5
28825	12.677	3.5455	0.1	2681.3
28826	12.769	3.4545	0.1	2665.2
28827	12.677	3.7273	0.1	2676.5
28828	12.769	3.6364	0.1	2660.4
28829	12.677	3.9091	0.1	2670.4
28830	12.769	3.8182	0.1	2654.
28831	12.677	4.0909	0.1	2663.2
28832	12.769	4.	0.1	2646.4
28833	12.677	4.2727	0.1	2655.1
28834	12.769	4.1818	0.1	2637.5
28835	12.677	4.4545	0.1	2646.2
28836	12.769	4.3636	0.1	2627.7
28837	12.677	4.6364	0.1	2636.8
28838	12.769	4.5455	0.1	2617.2
28839	12.677	4.8182	0.1	2627.1
28840	12.769	4.7273	0.1	2606.2
28841	12.677	5.	0.1	2617.3
28842	12.769	4.9091	0.1	2595.
28843	12.677	5.1818	0.1	2607.9
28844	12.769	5.0909	0.1	2584.1
28845	12.677	5.3636	0.1	2599.
28846	12.769	5.2727	0.1	2573.6
28847	12.677	5.5455	0.1	2590.9
28848	12.769	5.4545	0.1	2564.
28849	12.677	5.7273	0.1	2584.4
28850	12.769	5.6364	0.1	2555.6
28851	12.769	5.8182	0.1	2549.2
28852	12.677	5.9091	0.1	2577.6
28853	12.86	0.27273	0.1	2520.3
28854	12.952	0.18182	0.1	2482.5
28855	12.86	9.0909e-002	0.1	2512.6
28856	12.86	0.45455	0.1	2528.6
28857	12.952	0.36364	0.1	2490.6
28858	12.86	0.63636	0.1	2538.6
28859	12.952	0.54545	0.1	2501.
28860	12.86	0.81818	0.1	2549.8
28861	12.952	0.72727	0.1	2513.
28862	12.86	1.	0.1	2561.8
28863	12.952	0.90909	0.1	2526.2
28864	12.86	1.1818	0.1	2574.1
28865	12.952	1.0909	0.1	2540.1
28866	12.86	1.3636	0.1	2586.6
28867	12.952	1.2727	0.1	2554.2
28868	12.86	1.5455	0.1	2598.7
28869	12.952	1.4545	0.1	2568.3
28870	12.86	1.7273	0.1	2610.1
28871	12.952	1.6364	0.1	2581.9
28872	12.86	1.9091	0.1	2620.7
28873	12.952	1.8182	0.1	2594.5
28874	12.86	2.0909	0.1	2630.
28875	12.952	2.	0.1	2606.
28876	12.86	2.2727	0.1	2637.9
28877	12.952	2.1818	0.1	2616.
28878	12.86	2.4545	0.1	2644.3
28879	12.952	2.3636	0.1	2624.2
28880	12.86	2.6364	0.1	2648.9
28881	12.952	2.5455	0.1	2630.6
28882	12.86	2.8182	0.1	2651.7
28883	12.952	2.7273	0.1	2634.9
28884	12.86	3.	0.1	2652.7
28885	12.952	2.9091	0.1	2637.1
28886	12.86	3.1818	0.1	2651.7
28887	12.952	3.0909	0.1	2637.1
28888	12.86	3.3636	0.1	2648.9
28889	12.952	3.2727	0.1	2634.9
28890	12.86	3.5455	0.1	2644.3
28891	12.952	3.4545	0.1	2630.6
28892	12.86	3.7273	0.1	2637.9
28893	12.952	3.6364	0.1	2624.2
28894	12.86	3.9091	0.1	2630.
28895	12.952	3.8182	0.1	2616.
28896	12.86	4.0909	0.1	2620.7
28897	12.952	4.	0.1	2606.
28898	12.86	4.2727	0.1	2610.1
28899	12.952	4.1818	0.1	2594.5
28900	12.86	4.4545	0.1	2598.7
28901	12.952	4.3636	0.1	2581.9
28902	12.86	4.6364	0.1	2586.6
28903	12.952	4.5455	0.1	2568.3
28904	12.86	4.8182	0.1	2574.1
28905	12.952	4.7273	0.1	2554.2
28906	12.86	5.	0.1	2561.8
28907	12.952	4.9091	0.1	2540.1
28908	12.86	5.1818	0.1	2549.8
28909	12.952	5.0909	0.1	2526.2
28910	12.86	5.3636	0.1	2538.6
28911	12.952	5.2727	0.1	2513.
28912	12.86	5.5455	0.1	2528.6
28913	12.952	5.4545	0.1	2501.
28914	12.86	5.7273	0.1	2520.3
28915	12.952	5.6364	0.1	2490.6
28916	12.952	5.8182	0.1	2482.5
28917	12.86	5.9091	0.1	2512.6
28918	13.044	0.27273	0.1	2452.7
28919	13.136	0.18182	0.1	2411.6
28920	13.044	9.0909e-002	0.1	2443.8
28921	13.044	0.45455	0.1	2463.
28922	13.136	0.36364	0.1	2421.7
28923	13.044	0.63636	0.1	2475.4
28924	13.136	0.54545	0.1	2434.6
28925	13.044	0.81818	0.1	2489.4
28926	13.136	0.72727	0.1	2449.5
28927	13.044	1.	0.1	2504.5
28928	13.136	0.90909	0.1	2466.
28929	13.044	1.1818	0.1	2520.2
28930	13.136	1.0909	0.1	2483.5
28931	13.044	1.3636	0.1	2536.
28932	13.136	1.2727	0.1	2501.5
28933	13.044	1.5455	0.1	2551.5
28934	13.136	1.4545	0.1	2519.4
28935	13.044	1.7273	0.1	2566.3
28936	13.136	1.6364	0.1	2536.8
28937	13.044	1.9091	0.1	2579.9
28938	13.136	1.8182	0.1	2553.1
28939	13.044	2.0909	0.1	2592.
28940	13.136	2.	0.1	2568.
28941	13.044	2.2727	0.1	2602.3
28942	13.136	2.1818	0.1	2580.9
28943	13.044	2.4545	0.1	2610.6
28944	13.136	2.3636	0.1	2591.7
28945	13.044	2.6364	0.1	2616.6
28946	13.136	2.5455	0.1	2600.
28947	13.044	2.8182	0.1	2620.3
28948	13.136	2.7273	0.1	2605.7
28949	13.044	3.	0.1	2621.6
28950	13.136	2.9091	0.1	2608.6
28951	13.044	3.1818	0.1	2620.3
28952	13.136	3.0909	0.1	2608.6
28953	13.044	3.3636	0.1	2616.6
28954	13.136	3.2727	0.1	2605.7
28955	13.044	3.5455	0.1	2610.6
28956	13.136	3.4545	0.1	2600.
28957	13.044	3.7273	0.1	2602.3
28958	13.136	3.6364	0.1	2591.7
28959	13.044	3.9091	0.1	2592.
28960	13.136	3.8182	0.1	2580.9
28961	13.044	4.0909	0.1	2579.9
28962	13.136	4.	0.1	2568.
28963	13.044	4.2727	0.1	2566.3
28964	13.136	4.1818	0.1	2553.1
28965	13.044	4.4545	0.1	2551.5
28966	13.136	4.3636	0.1	2536.8
28967	13.044	4.6364	0.1	2536.
28968	13.136	4.5455	0.1	2519.4
28969	13.044	4.8182	0.1	2520.2
28970	13.136	4.7273	0.1	2501.5
28971	13.044	5.	0.1	2504.5
28972	13.136	4.9091	0.1	2483.5
28973	13.044	5.1818	0.1	2489.4
28974	13.136	5.0909	0.1	2466.
28975	13.044	5.3636	0.1	2475.4
28976	13.136	5.2727	0.1	2449.5
28977	13.044	5.5455	0.1	2463.
28978	13.136	5.4545	0.1	2434.6
28979	13.044	5.7273	0.1	2452.7
28980	13.136	5.6364	0.1	2421.7
28981	13.136	5.8182	0.1	2411.6
28982	13.044	5.9091	0.1	2443.8
28983	13.228	0.27273	0.1	2380.6
28984	13.32	0.18182	0.1	2335.4
28985	13.228	9.0909e-002	0.1	2370.3
28986	13.228	0.45455	0.1	2393.3
28987	13.32	0.36364	0.1	2348.
28988	13.228	0.63636	0.1	2408.7
28989	13.32	0.54545	0.1	2363.8
28990	13.228	0.81818	0.1	2426.1
28991	13.32	0.72727	0.1	2382.3
28992	13.228	1.	0.1	2445.
28993	13.32	0.90909	0.1	2402.8
28994	13.228	1.1818	0.1	2464.8
28995	13.32	1.0909	0.1	2424.8
28996	13.228	1.3636	0.1	2484.9
28997	13.32	1.2727	0.1	2447.6
28998	13.228	1.5455	0.1	2504.7
28999	13.32	1.4545	0.1	2470.5
29000	13.228	1.7273	0.1	2523.7
29001	13.32	1.6364	0.1	2492.7
29002	13.228	1.9091	0.1	2541.3
29003	13.32	1.8182	0.1	2513.7
29004	13.228	2.0909	0.1	2556.9
29005	13.32	2.	0.1	2532.9
29006	13.228	2.2727	0.1	2570.4
29007	13.32	2.1818	0.1	2549.7
29008	13.228	2.4545	0.1	2581.2
29009	13.32	2.3636	0.1	2563.7
29010	13.228	2.6364	0.1	2589.1
29011	13.32	2.5455	0.1	2574.6
29012	13.228	2.8182	0.1	2593.9
29013	13.32	2.7273	0.1	2582.
29014	13.228	3.	0.1	2595.5
29015	13.32	2.9091	0.1	2585.7
29016	13.228	3.1818	0.1	2593.9
29017	13.32	3.0909	0.1	2585.7
29018	13.228	3.3636	0.1	2589.1
29019	13.32	3.2727	0.1	2582.
29020	13.228	3.5455	0.1	2581.2
29021	13.32	3.4545	0.1	2574.6
29022	13.228	3.7273	0.1	2570.4
29023	13.32	3.6364	0.1	2563.7
29024	13.228	3.9091	0.1	2556.9
29025	13.32	3.8182	0.1	2549.7
29026	13.228	4.0909	0.1	2541.3
29027	13.32	4.	0.1	2532.9
29028	13.228	4.2727	0.1	2523.7
29029	13.32	4.1818	0.1	2513.7
29030	13.228	4.4545	0.1	2504.7
29031	13.32	4.3636	0.1	2492.7
29032	13.228	4.6364	0.1	2484.9
29033	13.32	4.5455	0.1	2470.5
29034	13.228	4.8182	0.1	2464.8
29035	13.32	4.7273	0.1	2447.6
29036	13.228	5.	0.1	2445.
29037	13.32	4.9091	0.1	2424.8
29038	13.228	5.1818	0.1	2426.1
29039	13.32	5.0909	0.1	2402.8
29040	13.228	5.3636	0.1	2408.7
29041	13.32	5.2727	0.1	2382.3
29042	13.228	5.5455	0.1	2393.3
29043	13.32	5.4545	0.1	2363.8
29044	13.228	5.7273	0.1	2380.6
29045	13.32	5.6364	0.1	2348.
29046	13.32	5.8182	0.1	2335.4
29047	13.228	5.9091	0.1	2370.3
29048	13.412	0.27273	0.1	2302.9
29049	13.503	0.18182	0.1	2252.9
29050	13.412	9.0909e-002	0.1	2291.
29051	13.412	0.45455	0.1	2318.5
29052	13.503	0.36364	0.1	2268.3
29053	13.412	0.63636	0.1	2337.4
29054	13.503	0.54545	0.1	2287.6
29055	13.412	0.81818	0.1	2359.
29056	13.503	0.72727	0.1	2310.3
29057	13.412	1.	0.1	2382.7
29058	13.503	0.90909	0.1	2335.8
29059	13.412	1.1818	0.1	2407.6
29060	13.503	1.0909	0.1	2363.4
29061	13.412	1.3636	0.1	2433.2
29062	13.503	1.2727	0.1	2392.2
29063	13.412	1.5455	0.1	2458.5
29064	13.503	1.4545	0.1	2421.3
29065	13.412	1.7273	0.1	2482.8
29066	13.503	1.6364	0.1	2449.8
29067	13.412	1.9091	0.1	2505.4
29068	13.503	1.8182	0.1	2476.8
29069	13.412	2.0909	0.1	2525.7
29070	13.503	2.	0.1	2501.5
29071	13.412	2.2727	0.1	2543.1
29072	13.503	2.1818	0.1	2523.3
29073	13.412	2.4545	0.1	2557.1
29074	13.503	2.3636	0.1	2541.5
29075	13.412	2.6364	0.1	2567.5
29076	13.503	2.5455	0.1	2555.6
29077	13.412	2.8182	0.1	2573.8
29078	13.503	2.7273	0.1	2565.3
29079	13.412	3.	0.1	2575.9
29080	13.503	2.9091	0.1	2570.3
29081	13.412	3.1818	0.1	2573.8
29082	13.503	3.0909	0.1	2570.3
29083	13.412	3.3636	0.1	2567.5
29084	13.503	3.2727	0.1	2565.3
29085	13.412	3.5455	0.1	2557.1
29086	13.503	3.4545	0.1	2555.6
29087	13.412	3.7273	0.1	2543.1
29088	13.503	3.6364	0.1	2541.5
29089	13.412	3.9091	0.1	2525.7
29090	13.503	3.8182	0.1	2523.3
29091	13.412	4.0909	0.1	2505.4
29092	13.503	4.	0.1	2501.5
29093	13.412	4.2727	0.1	2482.8
29094	13.503	4.1818	0.1	2476.8
29095	13.412	4.4545	0.1	2458.5
29096	13.503	4.3636	0.1	2449.8
29097	13.412	4.6364	0.1	2433.2
29098	13.503	4.5455	0.1	2421.3
29099	13.412	4.8182	0.1	2407.6
29100	13.503	4.7273	0.1	2392.2
29101	13.412	5.	0.1	2382.7
29102	13.503	4.9091	0.1	2363.4
29103	13.412	5.1818	0.1	2359.
29104	13.503	5.0909	0.1	2335.8
29105	13.412	5.3636	0.1	2337.4
29106	13.503	5.2727	0.1	2310.3
29107	13.412	5.5455	0.1	2318.5
29108	13.503	5.4545	0.1	2287.6
29109	13.412	5.7273	0.1	2302.9
29110	13.503	5.6364	0.1	2268.3
29111	13.503	5.8182	0.1	2252.9
29112	13.412	5.9091	0.1	2291.
29113	13.595	0.27273	0.1	2218.3
29114	13.687	0.18182	0.1	2162.4
29115	13.595	9.0909e-002	0.1	2204.4
29116	13.595	0.45455	0.1	2237.3
29117	13.687	0.36364	0.1	2181.1
29118	13.595	0.63636	0.1	2260.5
29119	13.687	0.54545	0.1	2204.5
29120	13.595	0.81818	0.1	2287.2
29121	13.687	0.72727	0.1	2232.4
29122	13.595	1.	0.1	2316.7
29123	13.687	0.90909	0.1	2264.1
29124	13.595	1.1818	0.1	2348.1
29125	13.687	1.0909	0.1	2298.6
29126	13.595	1.3636	0.1	2380.5
29127	13.687	1.2727	0.1	2335.
29128	13.595	1.5455	0.1	2412.7
29129	13.687	1.4545	0.1	2371.9
29130	13.595	1.7273	0.1	2443.9
29131	13.687	1.6364	0.1	2408.3
29132	13.595	1.9091	0.1	2473.
29133	13.687	1.8182	0.1	2443.
29134	13.595	2.0909	0.1	2499.1
29135	13.687	2.	0.1	2474.8
29136	13.595	2.2727	0.1	2521.7
29137	13.687	2.1818	0.1	2502.9
29138	13.595	2.4545	0.1	2540.
29139	13.687	2.3636	0.1	2526.6
29140	13.595	2.6364	0.1	2553.5
29141	13.687	2.5455	0.1	2545.
29142	13.595	2.8182	0.1	2561.8
29143	13.687	2.7273	0.1	2557.7
29144	13.595	3.	0.1	2564.6
29145	13.687	2.9091	0.1	2564.1
29146	13.595	3.1818	0.1	2561.8
29147	13.687	3.0909	0.1	2564.1
29148	13.595	3.3636	0.1	2553.5
29149	13.687	3.2727	0.1	2557.7
29150	13.595	3.5455	0.1	2540.
29151	13.687	3.4545	0.1	2545.
29152	13.595	3.7273	0.1	2521.7
29153	13.687	3.6364	0.1	2526.6
29154	13.595	3.9091	0.1	2499.1
29155	13.687	3.8182	0.1	2502.9
29156	13.595	4.0909	0.1	2473.
29157	13.687	4.	0.1	2474.8
29158	13.595	4.2727	0.1	2443.9
29159	13.687	4.1818	0.1	2443.
29160	13.595	4.4545	0.1	2412.7
29161	13.687	4.3636	0.1	2408.3
29162	13.595	4.6364	0.1	2380.5
29163	13.687	4.5455	0.1	2371.9
29164	13.595	4.8182	0.1	2348.1
29165	13.687	4.7273	0.1	2335.
29166	13.595	5.	0.1	2316.7
29167	13.687	4.9091	0.1	2298.6
29168	13.595	5.1818	0.1	2287.2
29169	13.687	5.0909	0.1	2264.1
29170	13.595	5.3636	0.1	2260.5
29171	13.687	5.2727	0.1	2232.4
29172	13.595	5.5455	0.1	2237.3
29173	13.687	5.4545	0.1	2204.5
29174	13.595	5.7273	0.1	2218.3
29175	13.687	5.6364	0.1	2181.1
29176	13.687	5.8182	0.1	2162.4
29177	13.595	5.9091	0.1	2204.4
29178	13.779	0.27273	0.1	2125.2
29179	13.871	0.18182	0.1	2062.5
29180	13.779	9.0909e-002	0.1	2109.1
29181	13.779	0.45455	0.1	2148.2
29182	13.871	0.36364	0.1	2084.7
29183	13.779	0.63636	0.1	2176.5
29184	13.871	0.54545	0.1	2112.9
29185	13.779	0.81818	0.1	2209.4
29186	13.871	0.72727	0.1	2147.1
29187	13.779	1.	0.1	2246.1
29188	13.871	0.90909	0.1	2186.2
29189	13.779	1.1818	0.1	2285.6
29190	13.871	1.0909	0.1	2229.4
29191	13.779	1.3636	0.1	2326.6
29192	13.871	1.2727	0.1	2275.3
29193	13.779	1.5455	0.1	2367.7
29194	13.871	1.4545	0.1	2322.2
29195	13.779	1.7273	0.1	2407.5
29196	13.871	1.6364	0.1	2368.7
29197	13.779	1.9091	0.1	2444.9
29198	13.871	1.8182	0.1	2413.1
29199	13.779	2.0909	0.1	2478.7
29200	13.871	2.	0.1	2454.1
29201	13.779	2.2727	0.1	2507.9
29202	13.871	2.1818	0.1	2490.4
29203	13.779	2.4545	0.1	2531.6
29204	13.871	2.3636	0.1	2521.1
29205	13.779	2.6364	0.1	2549.2
29206	13.871	2.5455	0.1	2545.1
29207	13.779	2.8182	0.1	2560.1
29208	13.871	2.7273	0.1	2561.6
29209	13.779	3.	0.1	2563.7
29210	13.871	2.9091	0.1	2570.
29211	13.779	3.1818	0.1	2560.1
29212	13.871	3.0909	0.1	2570.
29213	13.779	3.3636	0.1	2549.2
29214	13.871	3.2727	0.1	2561.6
29215	13.779	3.5455	0.1	2531.6
29216	13.871	3.4545	0.1	2545.1
29217	13.779	3.7273	0.1	2507.9
29218	13.871	3.6364	0.1	2521.1
29219	13.779	3.9091	0.1	2478.7
29220	13.871	3.8182	0.1	2490.4
29221	13.779	4.0909	0.1	2444.9
29222	13.871	4.	0.1	2454.1
29223	13.779	4.2727	0.1	2407.5
29224	13.871	4.1818	0.1	2413.1
29225	13.779	4.4545	0.1	2367.7
29226	13.871	4.3636	0.1	2368.7
29227	13.779	4.6364	0.1	2326.6
29228	13.871	4.5455	0.1	2322.2
29229	13.779	4.8182	0.1	2285.6
29230	13.871	4.7273	0.1	2275.3
29231	13.779	5.	0.1	2246.1
29232	13.871	4.9091	0.1	2229.4
29233	13.779	5.1818	0.1	2209.4
29234	13.871	5.0909	0.1	2186.2
29235	13.779	5.3636	0.1	2176.5
29236	13.871	5.2727	0.1	2147.1
29237	13.779	5.5455	0.1	2148.2
29238	13.871	5.4545	0.1	2112.9
29239	13.779	5.7273	0.1	2125.2
29240	13.871	5.6364	0.1	2084.7
29241	13.871	5.8182	0.1	2062.5
29242	13.779	5.9091	0.1	2109.1
29243	13.963	0.27273	0.1	2021.9
29244	14.055	0.18182	0.1	1951.
29245	13.963	9.0909e-002	0.1	2003.2
29246	13.963	0.45455	0.1	2049.5
29247	14.055	0.36364	0.1	1977.3
29248	13.963	0.63636	0.1	2083.7
29249	14.055	0.54545	0.1	2011.1
29250	13.963	0.81818	0.1	2124.1
29251	14.055	0.72727	0.1	2052.6
29252	13.963	1.	0.1	2169.8
29253	14.055	0.90909	0.1	2100.9
29254	13.963	1.1818	0.1	2219.4
29255	14.055	1.0909	0.1	2154.7
29256	13.963	1.3636	0.1	2271.2
29257	14.055	1.2727	0.1	2212.5
29258	13.963	1.5455	0.1	2323.5
29259	14.055	1.4545	0.1	2272.1
29260	13.963	1.7273	0.1	2374.4
29261	14.055	1.6364	0.1	2331.4
29262	13.963	1.9091	0.1	2422.4
29263	14.055	1.8182	0.1	2388.3
29264	13.963	2.0909	0.1	2466.
29265	14.055	2.	0.1	2441.1
29266	13.963	2.2727	0.1	2503.7
29267	14.055	2.1818	0.1	2488.
29268	13.963	2.4545	0.1	2534.6
29269	14.055	2.3636	0.1	2527.7
29270	13.963	2.6364	0.1	2557.5
29271	14.055	2.5455	0.1	2558.9
29272	13.963	2.8182	0.1	2571.6
29273	14.055	2.7273	0.1	2580.4
29274	13.963	3.	0.1	2576.4
29275	14.055	2.9091	0.1	2591.4
29276	13.963	3.1818	0.1	2571.6
29277	14.055	3.0909	0.1	2591.4
29278	13.963	3.3636	0.1	2557.5
29279	14.055	3.2727	0.1	2580.4
29280	13.963	3.5455	0.1	2534.6
29281	14.055	3.4545	0.1	2558.9
29282	13.963	3.7273	0.1	2503.7
29283	14.055	3.6364	0.1	2527.7
29284	13.963	3.9091	0.1	2466.
29285	14.055	3.8182	0.1	2488.
29286	13.963	4.0909	0.1	2422.4
29287	14.055	4.	0.1	2441.1
29288	13.963	4.2727	0.1	2374.4
29289	14.055	4.1818	0.1	2388.3
29290	13.963	4.4545	0.1	2323.5
29291	14.055	4.3636	0.1	2331.4
29292	13.963	4.6364	0.1	2271.2
29293	14.055	4.5455	0.1	2272.1
29294	13.963	4.8182	0.1	2219.4
29295	14.055	4.7273	0.1	2212.5
29296	13.963	5.	0.1	2169.8
29297	14.055	4.9091	0.1	2154.7
29298	13.963	5.1818	0.1	2124.1
29299	14.055	5.0909	0.1	2100.9
29300	13.963	5.3636	0.1	2083.7
29301	14.055	5.2727	0.1	2052.6
29302	13.963	5.5455	0.1	2049.5
29303	14.055	5.4545	0.1	2011.1
29304	13.963	5.7273	0.1	2021.9
29305	14.055	5.6364	0.1	1977.3
29306	14.055	5.8182	0.1	1951.
29307	13.963	5.9091	0.1	2003.2
29308	14.147	0.27273	0.1	1906.4
29309	14.238	0.18182	0.1	1826.1
29310	14.147	9.0909e-002	0.1	1884.5
29311	14.147	0.45455	0.1	1939.1
29312	14.238	0.36364	0.1	1856.7
29313	14.147	0.63636	0.1	1980.3
29314	14.238	0.54545	0.1	1896.9
29315	14.147	0.81818	0.1	2029.7
29316	14.238	0.72727	0.1	1947.
29317	14.147	1.	0.1	2086.3
29318	14.238	0.90909	0.1	2006.2
29319	14.147	1.1818	0.1	2148.3
29320	14.238	1.0909	0.1	2073.2
29321	14.147	1.3636	0.1	2213.8
29322	14.238	1.2727	0.1	2145.8
29323	14.147	1.5455	0.1	2280.4
29324	14.238	1.4545	0.1	2221.5
29325	14.147	1.7273	0.1	2345.6
29326	14.238	1.6364	0.1	2297.3
29327	14.147	1.9091	0.1	2407.3
29328	14.238	1.8182	0.1	2370.4
29329	14.147	2.0909	0.1	2463.3
29330	14.238	2.	0.1	2438.3
29331	14.147	2.2727	0.1	2512.1
29332	14.238	2.1818	0.1	2498.8
29333	14.147	2.4545	0.1	2552.1
29334	14.238	2.3636	0.1	2550.1
29335	14.147	2.6364	0.1	2581.8
29336	14.238	2.5455	0.1	2590.4
29337	14.147	2.8182	0.1	2600.1
29338	14.238	2.7273	0.1	2618.3
29339	14.147	3.	0.1	2606.4
29340	14.238	2.9091	0.1	2632.5
29341	14.147	3.1818	0.1	2600.1
29342	14.238	3.0909	0.1	2632.5
29343	14.147	3.3636	0.1	2581.8
29344	14.238	3.2727	0.1	2618.3
29345	14.147	3.5455	0.1	2552.1
29346	14.238	3.4545	0.1	2590.4
29347	14.147	3.7273	0.1	2512.1
29348	14.238	3.6364	0.1	2550.1
29349	14.147	3.9091	0.1	2463.3
29350	14.238	3.8182	0.1	2498.8
29351	14.147	4.0909	0.1	2407.3
29352	14.238	4.	0.1	2438.3
29353	14.147	4.2727	0.1	2345.6
29354	14.238	4.1818	0.1	2370.4
29355	14.147	4.4545	0.1	2280.4
29356	14.238	4.3636	0.1	2297.3
29357	14.147	4.6364	0.1	2213.8
29358	14.238	4.5455	0.1	2221.5
29359	14.147	4.8182	0.1	2148.3
29360	14.238	4.7273	0.1	2145.8
29361	14.147	5.	0.1	2086.3
29362	14.238	4.9091	0.1	2073.2
29363	14.147	5.1818	0.1	2029.7
29364	14.238	5.0909	0.1	2006.2
29365	14.147	5.3636	0.1	1980.3
29366	14.238	5.2727	0.1	1947.
29367	14.147	5.5455	0.1	1939.1
29368	14.238	5.4545	0.1	1896.9
29369	14.147	5.7273	0.1	1906.4
29370	14.238	5.6364	0.1	1856.7
29371	14.238	5.8182	0.1	1826.1
29372	14.147	5.9091	0.1	1884.5
29373	14.33	0.27273	0.1	1776.5
29374	14.422	0.18182	0.1	1685.7
29375	14.33	9.0909e-002	0.1	1751.
29376	14.33	0.45455	0.1	1814.8
29377	14.422	0.36364	0.1	1720.7
29378	14.33	0.63636	0.1	1864.
29379	14.422	0.54545	0.1	1767.9
29380	14.33	0.81818	0.1	1924.1
29381	14.422	0.72727	0.1	1828.
29382	14.33	1.	0.1	1993.9
29383	14.422	0.90909	0.1	1900.3
29384	14.33	1.1818	0.1	2071.5
29385	14.422	1.0909	0.1	1983.3
29386	14.33	1.3636	0.1	2154.2
29387	14.422	1.2727	0.1	2074.5
29388	14.33	1.5455	0.1	2239.
29389	14.422	1.4545	0.1	2170.5
29390	14.33	1.7273	0.1	2322.6
29391	14.422	1.6364	0.1	2267.6
29392	14.33	1.9091	0.1	2401.8
29393	14.422	1.8182	0.1	2361.6
29394	14.33	2.0909	0.1	2474.
29395	14.422	2.	0.1	2449.1
29396	14.33	2.2727	0.1	2536.9
29397	14.422	2.1818	0.1	2527.2
29398	14.33	2.4545	0.1	2588.5
29399	14.422	2.3636	0.1	2593.3
29400	14.33	2.6364	0.1	2626.9
29401	14.422	2.5455	0.1	2645.1
29402	14.33	2.8182	0.1	2650.6
29403	14.422	2.7273	0.1	2680.8
29404	14.33	3.	0.1	2658.6
29405	14.422	2.9091	0.1	2699.
29406	14.33	3.1818	0.1	2650.6
29407	14.422	3.0909	0.1	2699.
29408	14.33	3.3636	0.1	2626.9
29409	14.422	3.2727	0.1	2680.8
29410	14.33	3.5455	0.1	2588.5
29411	14.422	3.4545	0.1	2645.1
29412	14.33	3.7273	0.1	2536.9
29413	14.422	3.6364	0.1	2593.3
29414	14.33	3.9091	0.1	2474.
29415	14.422	3.8182	0.1	2527.2
29416	14.33	4.0909	0.1	2401.8
29417	14.422	4.	0.1	2449.1
29418	14.33	4.2727	0.1	2322.6
29419	14.422	4.1818	0.1	2361.6
29420	14.33	4.4545	0.1	2239.
29421	14.422	4.3636	0.1	2267.6
29422	14.33	4.6364	0.1	2154.2
29423	14.422	4.5455	0.1	2170.5
29424	14.33	4.8182	0.1	2071.5
29425	14.422	4.7273	0.1	2074.5
29426	14.33	5.	0.1	1993.9
29427	14.422	4.9091	0.1	1983.3
29428	14.33	5.1818	0.1	1924.1
29429	14.422	5.0909	0.1	1900.3
29430	14.33	5.3636	0.1	1864.
29431	14.422	5.2727	0.1	1828.
29432	14.33	5.5455	0.1	1814.8
29433	14.422	5.4545	0.1	1767.9
29434	14.33	5.7273	0.1	1776.5
29435	14.422	5.6364	0.1	1720.7
29436	14.422	5.8182	0.1	1685.7
29437	14.33	5.9091	0.1	1751.
29438	14.514	0.27273	0.1	1630.1
29439	14.606	0.18182	0.1	1527.8
29440	14.514	9.0909e-002	0.1	1600.4
29441	14.514	0.45455	0.1	1674.3
29442	14.606	0.36364	0.1	1567.2
29443	14.514	0.63636	0.1	1732.7
29444	14.606	0.54545	0.1	1622.1
29445	14.514	0.81818	0.1	1805.3
29446	14.606	0.72727	0.1	1693.6
29447	14.514	1.	0.1	1891.
29448	14.606	0.90909	0.1	1781.1
29449	14.514	1.1818	0.1	1987.6
29450	14.606	1.0909	0.1	1883.3
29451	14.514	1.3636	0.1	2092.
29452	14.606	1.2727	0.1	1997.3
29453	14.514	1.5455	0.1	2200.1
29454	14.606	1.4545	0.1	2119.3
29455	14.514	1.7273	0.1	2307.4
29456	14.606	1.6364	0.1	2244.
29457	14.514	1.9091	0.1	2409.5
29458	14.606	1.8182	0.1	2365.6
29459	14.514	2.0909	0.1	2502.6
29460	14.606	2.	0.1	2478.9
29461	14.514	2.2727	0.1	2583.7
29462	14.606	2.1818	0.1	2579.6
29463	14.514	2.4545	0.1	2649.9
29464	14.606	2.3636	0.1	2664.3
29465	14.514	2.6364	0.1	2698.9
29466	14.606	2.5455	0.1	2730.2
29467	14.514	2.8182	0.1	2729.1
29468	14.606	2.7273	0.1	2775.
29469	14.514	3.	0.1	2739.2
29470	14.606	2.9091	0.1	2797.6
29471	14.514	3.1818	0.1	2729.1
29472	14.606	3.0909	0.1	2797.6
29473	14.514	3.3636	0.1	2698.9
29474	14.606	3.2727	0.1	2775.
29475	14.514	3.5455	0.1	2649.9
29476	14.606	3.4545	0.1	2730.2
29477	14.514	3.7273	0.1	2583.7
29478	14.606	3.6364	0.1	2664.3
29479	14.514	3.9091	0.1	2502.6
29480	14.606	3.8182	0.1	2579.6
29481	14.514	4.0909	0.1	2409.5
29482	14.606	4.	0.1	2478.9
29483	14.514	4.2727	0.1	2307.4
29484	14.606	4.1818	0.1	2365.6
29485	14.514	4.4545	0.1	2200.1
29486	14.606	4.3636	0.1	2244.
29487	14.514	4.6364	0.1	2092.
29488	14.606	4.5455	0.1	2119.3
29489	14.514	4.8182	0.1	1987.6
29490	14.606	4.7273	0.1	1997.3
29491	14.514	5.	0.1	1891.
29492	14.606	4.9091	0.1	1883.3
29493	14.514	5.1818	0.1	1805.3
29494	14.606	5.0909	0.1	1781.1
29495	14.514	5.3636	0.1	1732.7
29496	14.606	5.2727	0.1	1693.6
29497	14.514	5.5455	0.1	1674.3
29498	14.606	5.4545	0.1	1622.1
29499	14.514	5.7273	0.1	1630.1
29500	14.606	5.6364	0.1	1567.2
29501	14.606	5.8182	0.1	1527.8
29502	14.514	5.9091	0.1	1600.4
29503	14.698	0.27273	0.1	1465.2
29504	14.79	0.18182	0.1	1350.9
29505	14.698	9.0909e-002	0.1	1430.9
29506	14.698	0.45455	0.1	1515.7
29507	14.79	0.36364	0.1	1394.5
29508	14.698	0.63636	0.1	1584.3
29509	14.79	0.54545	0.1	1457.9
29510	14.698	0.81818	0.1	1671.2
29511	14.79	0.72727	0.1	1542.1
29512	14.698	1.	0.1	1775.6
29513	14.79	0.90909	0.1	1646.9
29514	14.698	1.1818	0.1	1895.3
29515	14.79	1.0909	0.1	1771.4
29516	14.698	1.3636	0.1	2026.8
29517	14.79	1.2727	0.1	1913.2
29518	14.698	1.5455	0.1	2165.
29519	14.79	1.4545	0.1	2068.1
29520	14.698	1.7273	0.1	2303.5
29521	14.79	1.6364	0.1	2229.3
29522	14.698	1.9091	0.1	2435.9
29523	14.79	1.8182	0.1	2388.1
29524	14.698	2.0909	0.1	2556.4
29525	14.79	2.	0.1	2536.1
29526	14.698	2.2727	0.1	2660.5
29527	14.79	2.1818	0.1	2666.5
29528	14.698	2.4545	0.1	2744.6
29529	14.79	2.3636	0.1	2774.1
29530	14.698	2.6364	0.1	2805.9
29531	14.79	2.5455	0.1	2855.5
29532	14.698	2.8182	0.1	2843.1
29533	14.79	2.7273	0.1	2909.1
29534	14.698	3.	0.1	2855.5
29535	14.79	2.9091	0.1	2935.5
29536	14.698	3.1818	0.1	2843.1
29537	14.79	3.0909	0.1	2935.5
29538	14.698	3.3636	0.1	2805.9
29539	14.79	3.2727	0.1	2909.1
29540	14.698	3.5455	0.1	2744.6
29541	14.79	3.4545	0.1	2855.5
29542	14.698	3.7273	0.1	2660.5
29543	14.79	3.6364	0.1	2774.1
29544	14.698	3.9091	0.1	2556.4
29545	14.79	3.8182	0.1	2666.5
29546	14.698	4.0909	0.1	2435.9
29547	14.79	4.	0.1	2536.1
29548	14.698	4.2727	0.1	2303.5
29549	14.79	4.1818	0.1	2388.1
29550	14.698	4.4545	0.1	2165.
29551	14.79	4.3636	0.1	2229.3
29552	14.698	4.6364	0.1	2026.8
29553	14.79	4.5455	0.1	2068.1
29554	14.698	4.8182	0.1	1895.3
29555	14.79	4.7273	0.1	1913.2
29556	14.698	5.	0.1	1775.6
29557	14.79	4.9091	0.1	1771.4
29558	14.698	5.1818	0.1	1671.2
29559	14.79	5.0909	0.1	1646.9
29560	14.698	5.3636	0.1	1584.3
29561	14.79	5.2727	0.1	1542.1
29562	14.698	5.5455	0.1	1515.7
29563	14.79	5.4545	0.1	1457.9
29564	14.698	5.7273	0.1	1465.2
29565	14.79	5.6364	0.1	1394.5
29566	14.79	5.8182	0.1	1350.9
29567	14.698	5.9091	0.1	1430.9
29568	14.881	0.27273	0.1	1280.8
29569	14.973	0.18182	0.1	1154.5
29570	14.881	9.0909e-002	0.1	1241.2
29571	14.881	0.45455	0.1	1337.8
29572	14.973	0.36364	0.1	1202.3
29573	14.881	0.63636	0.1	1417.8
29574	14.973	0.54545	0.1	1275.2
29575	14.881	0.81818	0.1	1520.8
29576	14.973	0.72727	0.1	1373.6
29577	14.881	1.	0.1	1646.4
29578	14.973	0.90909	0.1	1497.3
29579	14.881	1.1818	0.1	1793.2
29580	14.973	1.0909	0.1	1646.4
29581	14.881	1.3636	0.1	1958.1
29582	14.973	1.2727	0.1	1820.2
29583	14.881	1.5455	0.1	2135.3
29584	14.973	1.4545	0.1	2016.2
29585	14.881	1.7273	0.1	2315.8
29586	14.973	1.6364	0.1	2226.7
29587	14.881	1.9091	0.1	2489.6
29588	14.973	1.8182	0.1	2438.3
29589	14.881	2.0909	0.1	2646.9
29590	14.973	2.	0.1	2635.6
29591	14.881	2.2727	0.1	2780.3
29592	14.973	2.1818	0.1	2805.7
29593	14.881	2.4545	0.1	2884.8
29594	14.973	2.3636	0.1	2940.
29595	14.881	2.6364	0.1	2958.2
29596	14.973	2.5455	0.1	3034.8
29597	14.881	2.8182	0.1	3000.9
29598	14.973	2.7273	0.1	3092.5
29599	14.881	3.	0.1	3014.8
29600	14.973	2.9091	0.1	3119.2
29601	14.881	3.1818	0.1	3000.9
29602	14.973	3.0909	0.1	3119.2
29603	14.881	3.3636	0.1	2958.2
29604	14.973	3.2727	0.1	3092.5
29605	14.881	3.5455	0.1	2884.8
29606	14.973	3.4545	0.1	3034.8
29607	14.881	3.7273	0.1	2780.3
29608	14.973	3.6364	0.1	2940.
29609	14.881	3.9091	0.1	2646.9
29610	14.973	3.8182	0.1	2805.7
29611	14.881	4.0909	0.1	2489.6
29612	14.973	4.	0.1	2635.6
29613	14.881	4.2727	0.1	2315.8
29614	14.973	4.1818	0.1	2438.3
29615	14.881	4.4545	0.1	2135.3
29616	14.973	4.3636	0.1	2226.7
29617	14.881	4.6364	0.1	1958.1
29618	14.973	4.5455	0.1	2016.2
29619	14.881	4.8182	0.1	1793.2
29620	14.973	4.7273	0.1	1820.2
29621	14.881	5.	0.1	1646.4
29622	14.973	4.9091	0.1	1646.4
29623	14.881	5.1818	0.1	1520.8
29624	14.973	5.0909	0.1	1497.3
29625	14.881	5.3636	0.1	1417.8
29626	14.973	5.2727	0.1	1373.6
29627	14.881	5.5455	0.1	1337.8
29628	14.973	5.4545	0.1	1275.2
29629	14.881	5.7273	0.1	1280.8
29630	14.973	5.6364	0.1	1202.3
29631	14.973	5.8182	0.1	1154.5
29632	14.881	5.9091	0.1	1241.2
29633	15.065	0.27273	0.1	1076.8
29634	15.157	0.18182	0.1	939.12
29635	15.065	9.0909e-002	0.1	1031.
29636	15.065	0.45455	0.1	1141.6
29637	15.157	0.36364	0.1	992.62
29638	15.065	0.63636	0.1	1234.6
29639	15.157	0.54545	0.1	1077.7
29640	15.065	0.81818	0.1	1355.1
29641	15.157	0.72727	0.1	1192.
29642	15.065	1.	0.1	1503.4
29643	15.157	0.90909	0.1	1335.
29644	15.065	1.1818	0.1	1680.
29645	15.157	1.0909	0.1	1508.5
29646	15.065	1.3636	0.1	1884.5
29647	15.157	1.2727	0.1	1716.
29648	15.065	1.5455	0.1	2112.5
29649	15.157	1.4545	0.1	1961.
29650	15.065	1.7273	0.1	2352.2
29651	15.157	1.6364	0.1	2239.
29652	15.065	1.9091	0.1	2585.9
29653	15.157	1.8182	0.1	2532.2
29654	15.065	2.0909	0.1	2795.
29655	15.157	2.	0.1	2807.7
29656	15.065	2.2727	0.1	2965.2
29657	15.157	2.1818	0.1	3031.8
29658	15.065	2.4545	0.1	3089.2
29659	15.157	2.3636	0.1	3192.
29660	15.065	2.6364	0.1	3168.
29661	15.157	2.5455	0.1	3285.7
29662	15.065	2.8182	0.1	3209.5
29663	15.157	2.7273	0.1	3331.5
29664	15.065	3.	0.1	3222.3
29665	15.157	2.9091	0.1	3349.2
29666	15.065	3.1818	0.1	3209.5
29667	15.157	3.0909	0.1	3349.2
29668	15.065	3.3636	0.1	3168.
29669	15.157	3.2727	0.1	3331.5
29670	15.065	3.5455	0.1	3089.2
29671	15.157	3.4545	0.1	3285.7
29672	15.065	3.7273	0.1	2965.2
29673	15.157	3.6364	0.1	3192.
29674	15.065	3.9091	0.1	2795.
29675	15.157	3.8182	0.1	3031.8
29676	15.065	4.0909	0.1	2585.9
29677	15.157	4.	0.1	2807.7
29678	15.065	4.2727	0.1	2352.2
29679	15.157	4.1818	0.1	2532.2
29680	15.065	4.4545	0.1	2112.5
29681	15.157	4.3636	0.1	2239.
29682	15.065	4.6364	0.1	1884.5
29683	15.157	4.5455	0.1	1961.
29684	15.065	4.8182	0.1	1680.
29685	15.157	4.7273	0.1	1716.
29686	15.065	5.	0.1	1503.4
29687	15.157	4.9091	0.1	1508.5
29688	15.065	5.1818	0.1	1355.1
29689	15.157	5.0909	0.1	1335.
29690	15.065	5.3636	0.1	1234.6
29691	15.157	5.2727	0.1	1192.
29692	15.065	5.5455	0.1	1141.6
29693	15.157	5.4545	0.1	1077.7
29694	15.065	5.7273	0.1	1076.8
29695	15.157	5.6364	0.1	992.62
29696	15.157	5.8182	0.1	939.12
29697	15.065	5.9091	0.1	1031.
29698	15.249	0.27273	0.1	856.31
29699	15.341	0.18182	0.1	707.51
29700	15.249	9.0909e-002	0.1	801.64
29701	15.249	0.45455	0.1	932.25
29702	15.341	0.36364	0.1	772.77
29703	15.249	0.63636	0.1	1041.3
29704	15.341	0.54545	0.1	876.16
29705	15.249	0.81818	0.1	1180.3
29706	15.341	0.72727	0.1	1008.7
29707	15.249	1.	0.1	1350.1
29708	15.341	0.90909	0.1	1169.2
29709	15.249	1.1818	0.1	1555.3
29710	15.341	1.0909	0.1	1362.1
29711	15.249	1.3636	0.1	1803.1
29712	15.341	1.2727	0.1	1597.8
29713	15.249	1.5455	0.1	2096.
29714	15.341	1.4545	0.1	1891.1
29715	15.249	1.7273	0.1	2423.4
29716	15.341	1.6364	0.1	2262.7
29717	15.249	1.9091	0.1	2755.4
29718	15.341	1.8182	0.1	2699.4
29719	15.249	2.0909	0.1	3044.3
29720	15.341	2.	0.1	3114.1
29721	15.249	2.2727	0.1	3257.4
29722	15.341	2.1818	0.1	3430.6
29723	15.249	2.4545	0.1	3386.6
29724	15.341	2.3636	0.1	3583.5
29725	15.249	2.6364	0.1	3447.1
29726	15.341	2.5455	0.1	3623.9
29727	15.249	2.8182	0.1	3469.2
29728	15.341	2.7273	0.1	3620.4
29729	15.249	3.	0.1	3474.2
29730	15.341	2.9091	0.1	3611.3
29731	15.249	3.1818	0.1	3469.2
29732	15.341	3.0909	0.1	3611.3
29733	15.249	3.3636	0.1	3447.1
29734	15.341	3.2727	0.1	3620.4
29735	15.249	3.5455	0.1	3386.6
29736	15.341	3.4545	0.1	3623.9
29737	15.249	3.7273	0.1	3257.4
29738	15.341	3.6364	0.1	3583.5
29739	15.249	3.9091	0.1	3044.3
29740	15.341	3.8182	0.1	3430.6
29741	15.249	4.0909	0.1	2755.4
29742	15.341	4.	0.1	3114.1
29743	15.249	4.2727	0.1	2423.4
29744	15.341	4.1818	0.1	2699.4
29745	15.249	4.4545	0.1	2096.
29746	15.341	4.3636	0.1	2262.7
29747	15.249	4.6364	0.1	1803.1
29748	15.341	4.5455	0.1	1891.1
29749	15.249	4.8182	0.1	1555.3
29750	15.341	4.7273	0.1	1597.8
29751	15.249	5.	0.1	1350.1
29752	15.341	4.9091	0.1	1362.1
29753	15.249	5.1818	0.1	1180.3
29754	15.341	5.0909	0.1	1169.2
29755	15.249	5.3636	0.1	1041.3
29756	15.341	5.2727	0.1	1008.7
29757	15.249	5.5455	0.1	932.25
29758	15.341	5.4545	0.1	876.16
29759	15.249	5.7273	0.1	856.31
29760	15.341	5.6364	0.1	772.77
29761	15.341	5.8182	0.1	707.51
29762	15.249	5.9091	0.1	801.64
29763	15.433	0.27273	0.1	627.31
29764	15.524	0.18182	0.1	470.39
29765	15.433	9.0909e-002	0.1	555.69
29766	15.433	0.45455	0.1	724.65
29767	15.524	0.36364	0.1	571.14
29768	15.433	0.63636	0.1	855.05
29769	15.524	0.54545	0.1	705.97
29770	15.433	0.81818	0.1	1011.3
29771	15.524	0.72727	0.1	860.15
29772	15.433	1.	0.1	1196.5
29773	15.524	0.90909	0.1	1035.7
29774	15.433	1.1818	0.1	1421.5
29775	15.524	1.0909	0.1	1241.5
29776	15.433	1.3636	0.1	1704.1
29777	15.524	1.2727	0.1	1493.5
29778	15.433	1.5455	0.1	2073.7
29779	15.524	1.4545	0.1	1823.4
29780	15.433	1.7273	0.1	2548.4
29781	15.524	1.6364	0.1	2275.7
29782	15.433	1.9091	0.1	3056.3
29783	15.524	1.8182	0.1	3054.2
29784	15.433	2.0909	0.1	3496.6
29785	15.524	2.	0.1	3988.3
29786	15.433	2.2727	0.1	3751.8
29787	15.524	2.1818	0.1	4224.9
29788	15.433	2.4545	0.1	3816.7
29789	15.524	2.3636	0.1	4178.
29790	15.433	2.6364	0.1	3794.2
29791	15.524	2.5455	0.1	4028.8
29792	15.433	2.8182	0.1	3760.3
29793	15.524	2.7273	0.1	3921.7
29794	15.433	3.	0.1	3746.5
29795	15.524	2.9091	0.1	3865.9
29796	15.433	3.1818	0.1	3760.3
29797	15.524	3.0909	0.1	3865.9
29798	15.433	3.3636	0.1	3794.2
29799	15.524	3.2727	0.1	3921.7
29800	15.433	3.5455	0.1	3816.7
29801	15.524	3.4545	0.1	4028.8
29802	15.433	3.7273	0.1	3751.8
29803	15.524	3.6364	0.1	4178.
29804	15.433	3.9091	0.1	3496.6
29805	15.524	3.8182	0.1	4224.9
29806	15.433	4.0909	0.1	3056.3
29807	15.524	4.	0.1	3988.3
29808	15.433	4.2727	0.1	2548.4
29809	15.524	4.1818	0.1	3054.2
29810	15.433	4.4545	0.1	2073.7
29811	15.524	4.3636	0.1	2275.7
29812	15.433	4.6364	0.1	1704.1
29813	15.524	4.5455	0.1	1823.4
29814	15.433	4.8182	0.1	1421.5
29815	15.524	4.7273	0.1	1493.5
29816	15.433	5.	0.1	1196.5
29817	15.524	4.9091	0.1	1241.5
29818	15.433	5.1818	0.1	1011.3
29819	15.524	5.0909	0.1	1035.7
29820	15.433	5.3636	0.1	855.05
29821	15.524	5.2727	0.1	860.15
29822	15.433	5.5455	0.1	724.65
29823	15.524	5.4545	0.1	705.97
29824	15.433	5.7273	0.1	627.31
29825	15.524	5.6364	0.1	571.14
29826	15.524	5.8182	0.1	470.39
29827	15.433	5.9091	0.1	555.69
29828	15.616	0.27273	0.1	428.09
29829	15.708	0.18182	0.1	253.17
29830	15.616	9.0909e-002	0.1	303.27
29831	15.616	0.45455	0.1	572.17
29832	15.708	0.36364	0.1	381.48
29833	15.616	0.63636	0.1	731.43
29834	15.708	0.54545	0.1	509.67
29835	15.616	0.81818	0.1	905.38
29836	15.708	0.72727	0.1	641.11
29837	15.616	1.	0.1	1103.1
29838	15.708	0.90909	0.1	783.15
29839	15.616	1.1818	0.1	1339.4
29840	15.708	1.0909	0.1	945.51
29841	15.616	1.3636	0.1	1645.1
29842	15.708	1.2727	0.1	1142.5
29843	15.616	1.5455	0.1	2072.1
29844	15.708	1.4545	0.1	1405.5
29845	15.616	1.7273	0.1	2820.3
29846	15.708	1.6364	0.1	1781.3
29847	15.616	1.9091	0.1	3972.7
29848	15.708	1.8182	0.1	2462.1
29849	15.616	2.0909	0.1	4681.9
29850	15.708	2.	0.1	6851.5
29851	15.616	2.2727	0.1	4639.3
29852	15.708	2.1818	0.1	5552.8
29853	15.616	2.4545	0.1	4386.2
29854	15.708	2.3636	0.1	4820.3
29855	15.616	2.6364	0.1	4154.6
29856	15.708	2.5455	0.1	4386.9
29857	15.616	2.8182	0.1	4026.
29858	15.708	2.7273	0.1	4152.4
29859	15.616	3.	0.1	3984.
29860	15.708	2.9091	0.1	4047.1
29861	15.616	3.1818	0.1	4026.
29862	15.708	3.0909	0.1	4047.1
29863	15.616	3.3636	0.1	4154.6
29864	15.708	3.2727	0.1	4152.4
29865	15.616	3.5455	0.1	4386.2
29866	15.708	3.4545	0.1	4386.9
29867	15.616	3.7273	0.1	4639.3
29868	15.708	3.6364	0.1	4820.3
29869	15.616	3.9091	0.1	4681.9
29870	15.708	3.8182	0.1	5552.8
29871	15.616	4.0909	0.1	3972.7
29872	15.708	4.	0.1	6851.5
29873	15.616	4.2727	0.1	2820.3
29874	15.708	4.1818	0.1	2462.
29875	15.616	4.4545	0.1	2072.1
29876	15.708	4.3636	0.1	1781.3
29877	15.616	4.6364	0.1	1645.1
29878	15.708	4.5455	0.1	1405.5
29879	15.616	4.8182	0.1	1339.4
29880	15.708	4.7273	0.1	1142.5
29881	15.616	5.	0.1	1103.1
29882	15.708	4.9091	0.1	945.51
29883	15.616	5.1818	0.1	905.38
29884	15.708	5.0909	0.1	783.15
29885	15.616	5.3636	0.1	731.43
29886	15.708	5.2727	0.1	641.11
29887	15.616	5.5455	0.1	572.17
29888	15.708	5.4545	0.1	509.67
29889	15.616	5.7273	0.1	428.09
29890	15.708	5.6364	0.1	381.48
29891	15.708	5.8182	0.1	253.17
29892	15.616	5.9091	0.1	303.27
29893	15.967	3.7273	0.1	5800.2
29894	15.883	3.8182	0.1	6394.7
29895	15.967	3.9091	0.1	7814.7
29896	15.967	3.5455	0.1	4822.1
29897	15.883	3.6364	0.1	5111.1
29898	15.967	3.3636	0.1	4361.1
29899	15.883	3.4545	0.1	4522.6
29900	15.967	3.1818	0.1	4141.
29901	15.883	3.2727	0.1	4221.5
29902	15.967	3.	0.1	4075.
29903	15.883	3.0909	0.1	4092.6
29904	15.967	2.8182	0.1	4141.
29905	15.883	2.9091	0.1	4092.6
29906	15.967	2.6364	0.1	4361.1
29907	15.883	2.7273	0.1	4221.5
29908	15.967	2.4545	0.1	4822.1
29909	15.883	2.5455	0.1	4522.6
29910	15.967	2.2727	0.1	5800.2
29911	15.883	2.3636	0.1	5111.1
29912	15.883	2.1818	0.1	6394.7
29913	15.967	2.0909	0.1	7814.7
29914	15.8	3.7273	0.1	5778.8
29915	15.8	3.9091	0.1	7647.
29916	15.8	3.5455	0.1	4833.
29917	15.8	3.3636	0.1	4388.5
29918	15.8	3.1818	0.1	4174.1
29919	15.8	3.	0.1	4110.
29920	15.8	2.8182	0.1	4174.1
29921	15.8	2.6364	0.1	4388.5
29922	15.8	2.4545	0.1	4833.
29923	15.8	2.2727	0.1	5778.8
29924	15.8	2.0909	0.1	7647.
29925	15.967	5.7273	0.1	224.02
29926	15.967	5.9091	0.1	87.152
29927	15.967	5.8182	5.e-002	35.984
29928	15.967	5.5455	0.1	342.37
29929	15.967	5.6364	5.e-002	77.211
29930	15.967	5.3636	0.1	455.36
29931	15.967	5.4545	5.e-002	117.86
29932	15.967	5.1818	0.1	574.94
29933	15.967	5.2727	5.e-002	161.97
29934	15.967	5.	0.1	710.52
29935	15.967	5.0909	5.e-002	212.03
29936	15.967	4.8182	0.1	874.03
29937	15.967	4.9091	5.e-002	271.69
29938	15.967	4.6364	0.1	1088.6
29939	15.967	4.7273	5.e-002	347.06
29940	15.967	4.4545	0.1	1383.3
29941	15.967	4.5455	5.e-002	448.97
29942	15.967	4.2727	0.1	1955.6
29943	15.967	4.3636	5.e-002	609.84
29944	15.967	4.0909	0.1	5314.
29945	15.967	4.1818	5.e-002	1030.9
29946	15.883	4.	0.1	8232.4
29947	15.967	4.	5.e-002	882.93
29948	15.8	4.0909	0.1	4990.9
29949	15.8	4.	5.e-002	1146.2
29950	15.8	4.2727	0.1	1750.
29951	15.8	4.1818	5.e-002	1250.8
29952	15.8	4.4545	0.1	1263.5
29953	15.8	4.3636	5.e-002	779.59
29954	15.8	4.6364	0.1	1020.7
29955	15.8	4.5455	5.e-002	583.17
29956	15.8	4.8182	0.1	841.79
29957	15.8	4.7273	5.e-002	459.19
29958	15.8	5.	0.1	702.27
29959	15.8	4.9091	5.e-002	364.37
29960	15.8	5.1818	0.1	582.5
29961	15.8	5.0909	5.e-002	287.2
29962	15.8	5.3636	0.1	472.71
29963	15.8	5.2727	5.e-002	220.77
29964	15.8	5.5455	0.1	364.51
29965	15.8	5.4545	5.e-002	161.15
29966	15.8	5.7273	0.1	245.58
29967	15.8	5.6364	5.e-002	105.69
29968	15.8	5.9091	0.1	98.836
29969	15.8	5.8182	5.e-002	50.147
29970	15.967	0.27273	0.1	224.02
29971	15.967	9.0909e-002	0.1	87.152
29972	15.967	0.18182	5.e-002	35.984
29973	15.967	0.45455	0.1	342.37
29974	15.967	0.36364	5.e-002	77.211
29975	15.967	0.63636	0.1	455.36
29976	15.967	0.54545	5.e-002	117.86
29977	15.967	0.81818	0.1	574.94
29978	15.967	0.72727	5.e-002	161.97
29979	15.967	1.	0.1	710.52
29980	15.967	0.90909	5.e-002	212.03
29981	15.967	1.1818	0.1	874.03
29982	15.967	1.0909	5.e-002	271.69
29983	15.967	1.3636	0.1	1088.6
29984	15.967	1.2727	5.e-002	347.06
29985	15.967	1.5455	0.1	1383.3
29986	15.967	1.4545	5.e-002	448.97
29987	15.967	1.7273	0.1	1955.6
29988	15.967	1.6364	5.e-002	609.84
29989	15.967	1.9091	0.1	5314.
29990	15.967	1.8182	5.e-002	1030.9
29991	15.883	2.	0.1	8232.4
29992	15.967	2.	5.e-002	882.93
29993	15.8	1.9091	0.1	4990.9
29994	15.8	2.	5.e-002	1146.2
29995	15.8	1.7273	0.1	1750.
29996	15.8	1.8182	5.e-002	1250.8
29997	15.8	1.5455	0.1	1263.5
29998	15.8	1.6364	5.e-002	779.59
29999	15.8	1.3636	0.1	1020.7
30000	15.8	1.4545	5.e-002	583.17
30001	15.8	1.1818	0.1	841.79
30002	15.8	1.2727	5.e-002	459.19
30003	15.8	1.	0.1	702.27
30004	15.8	1.0909	5.e-002	364.37
30005	15.8	0.81818	0.1	582.5
30006	15.8	0.90909	5.e-002	287.2
30007	15.8	0.63636	0.1	472.71
30008	15.8	0.72727	5.e-002	220.77
30009	15.8	0.45455	0.1	364.51
30010	15.8	0.54545	5.e-002	161.15
30011	15.8	0.27273	0.1	245.58
30012	15.8	0.36364	5.e-002	105.69
30013	15.8	9.0909e-002	0.1	98.836
30014	15.8	0.18182	5.e-002	50.147
30015	16.058	6.	0.1	110.04
30016	15.967	6.	5.e-002	11.588
30017	16.241	6.	0.1	303.19
30018	16.149	6.	5.e-002	10.515
30019	16.423	6.	0.1	483.78
30020	16.332	6.	5.e-002	26.208
30021	16.606	6.	0.1	639.33
30022	16.514	6.	5.e-002	34.894
30023	16.788	6.	0.1	771.19
30024	16.697	6.	5.e-002	40.114
30025	16.971	6.	0.1	879.52
30026	16.88	6.	5.e-002	42.817
30027	17.153	6.	0.1	965.24
30028	17.062	6.	5.e-002	43.893
30029	17.336	6.	0.1	1030.1
30030	17.245	6.	5.e-002	43.961
30031	17.519	6.	0.1	1076.2
30032	17.427	6.	5.e-002	43.476
30033	17.701	6.	0.1	1106.2
30034	17.61	6.	5.e-002	42.751
30035	17.884	6.	0.1	1122.5
30036	17.792	6.	5.e-002	41.989
30037	18.066	6.	0.1	1127.3
30038	17.975	6.	5.e-002	41.307
30039	18.249	6.	0.1	1122.6
30040	18.158	6.	5.e-002	40.766
30041	18.431	6.	0.1	1110.3
30042	18.34	6.	5.e-002	40.385
30043	18.614	6.	0.1	1091.7
30044	18.523	6.	5.e-002	40.162
30045	18.797	6.	0.1	1068.2
30046	18.705	6.	5.e-002	40.078
30047	18.979	6.	0.1	1040.7
30048	18.888	6.	5.e-002	40.107
30049	19.162	6.	0.1	1010.1
30050	19.07	6.	5.e-002	40.22
30051	19.344	6.	0.1	977.12
30052	19.253	6.	5.e-002	40.389
30053	19.527	6.	0.1	942.2
30054	19.436	6.	5.e-002	40.586
30055	19.709	6.	0.1	905.82
30056	19.618	6.	5.e-002	40.787
30057	19.892	6.	0.1	868.33
30058	19.801	6.	5.e-002	40.969
30059	20.075	6.	0.1	830.01
30060	19.983	6.	5.e-002	41.113
30061	20.257	6.	0.1	791.08
30062	20.166	6.	5.e-002	41.203
30063	20.44	6.	0.1	751.71
30064	20.348	6.	5.e-002	41.223
30065	20.622	6.	0.1	712.03
30066	20.531	6.	5.e-002	41.162
30067	20.805	6.	0.1	672.16
30068	20.714	6.	5.e-002	41.008
30069	20.987	6.	0.1	632.18
30070	20.896	6.	5.e-002	40.752
30071	21.17	6.	0.1	592.16
30072	21.079	6.	5.e-002	40.384
30073	21.353	6.	0.1	552.15
30074	21.261	6.	5.e-002	39.897
30075	21.535	6.	0.1	512.19
30076	21.444	6.	5.e-002	39.281
30077	21.718	6.	0.1	472.31
30078	21.627	6.	5.e-002	38.529
30079	21.9	6.	0.1	432.54
30080	21.809	6.	5.e-002	37.63
30081	22.083	6.	0.1	392.91
30082	21.992	6.	5.e-002	36.575
30083	22.266	6.	0.1	353.45
30084	22.174	6.	5.e-002	35.351
30085	22.448	6.	0.1	314.18
30086	22.357	6.	5.e-002	33.944
30087	22.631	6.	0.1	275.14
30088	22.539	6.	5.e-002	32.337
30089	22.813	6.	0.1	236.36
30090	22.722	6.	5.e-002	30.505
30091	22.996	6.	0.1	197.92
30092	22.905	6.	5.e-002	28.42
30093	23.178	6.	0.1	159.89
30094	23.087	6.	5.e-002	26.039
30095	23.361	6.	0.1	122.44
30096	23.27	6.	5.e-002	23.299
30097	23.544	6.	0.1	85.824
30098	23.452	6.	5.e-002	20.105
30099	23.726	6.	0.1	50.682
30100	23.635	6.	5.e-002	16.267
30101	23.909	6.	0.1	18.916
30102	23.817	6.	5.e-002	11.203
30103	24.	5.9091	0.1	5.9663
30104	24.	6.	5.e-002	4.5597
30105	24.	5.7273	0.1	6.8031
30106	24.	5.8182	5.e-002	4.0981
30107	24.	5.5455	0.1	6.9831
30108	24.	5.6364	5.e-002	4.4793
30109	24.	5.3636	0.1	7.0307
30110	24.	5.4545	5.e-002	4.8337
30111	24.	5.1818	0.1	7.0245
30112	24.	5.2727	5.e-002	5.0038
30113	24.	5.	0.1	6.9908
30114	24.	5.0909	5.e-002	5.0663
30115	24.	4.8182	0.1	6.9496
30116	24.	4.9091	5.e-002	5.0595
30117	24.	4.6364	0.1	6.9065
30118	24.	4.7273	5.e-002	5.0088
30119	24.	4.4545	0.1	6.8653
30120	24.	4.5455	5.e-002	4.9321
30121	24.	4.2727	0.1	6.8278
30122	24.	4.3636	5.e-002	4.8422
30123	24.	4.0909	0.1	6.7948
30124	24.	4.1818	5.e-002	4.7483
30125	24.	3.9091	0.1	6.7667
30126	24.	4.	5.e-002	4.6575
30127	24.	3.7273	0.1	6.7438
30128	24.	3.8182	5.e-002	4.575
30129	24.	3.5455	0.1	6.726
30130	24.	3.6364	5.e-002	4.5049
30131	24.	3.3636	0.1	6.7133
30132	24.	3.4545	5.e-002	4.45
30133	24.	3.1818	0.1	6.7058
30134	24.	3.2727	5.e-002	4.4123
30135	24.	3.	0.1	6.7032
30136	24.	3.0909	5.e-002	4.3931
30137	24.	2.8182	0.1	6.7058
30138	24.	2.9091	5.e-002	4.3931
30139	24.	2.6364	0.1	6.7133
30140	24.	2.7273	5.e-002	4.4123
30141	24.	2.4545	0.1	6.726
30142	24.	2.5455	5.e-002	4.45
30143	24.	2.2727	0.1	6.7438
30144	24.	2.3636	5.e-002	4.5049
30145	24.	2.0909	0.1	6.7667
30146	24.	2.1818	5.e-002	4.575
30147	24.	1.9091	0.1	6.7948
30148	24.	2.	5.e-002	4.6575
30149	24.	1.7273	0.1	6.8278
30150	24.	1.8182	5.e-002	4.7483
30151	24.	1.5455	0.1	6.8653
30152	24.	1.6364	5.e-002	4.8422
30153	24.	1.3636	0.1	6.9065
30154	24.	1.4545	5.e-002	4.9321
30155	24.	1.1818	0.1	6.9496
30156	24.	1.2727	5.e-002	5.0088
30157	24.	1.	0.1	6.9908
30158	24.	1.0909	5.e-002	5.0595
30159	24.	0.81818	0.1	7.0245
30160	24.	0.90909	5.e-002	5.0663
30161	24.	0.63636	0.1	7.0307
30162	24.	0.72727	5.e-002	5.0038
30163	24.	0.45455	0.1	6.9831
30164	24.	0.54545	5.e-002	4.8337
30165	24.	0.27273	0.1	6.8031
30166	24.	0.36364	5.e-002	4.4793
30167	24.	9.0909e-002	0.1	5.9663
30168	24.	0.18182	5.e-002	4.098
30169	2.3842e-015	0.27273	0.1	3542.1
30170	7.9472e-016	9.0909e-002	0.1	1435.4
30171	1.6109e-015	0.18182	5.e-002	95.472
30172	3.9736e-015	0.45455	0.1	5161.7
30173	3.2219e-015	0.36364	5.e-002	49.719
30174	5.563e-015	0.63636	0.1	6010.
30175	4.8328e-015	0.54545	5.e-002	44.978
30176	7.1525e-015	0.81818	0.1	6548.3
30177	6.4438e-015	0.72727	5.e-002	39.577
30178	8.7419e-015	1.	0.1	6917.6
30179	8.0547e-015	0.90909	5.e-002	33.69
30180	1.0331e-014	1.1818	0.1	7185.2
30181	9.6657e-015	1.0909	5.e-002	28.624
30182	1.1921e-014	1.3636	0.1	7385.5
30183	1.1277e-014	1.2727	5.e-002	24.516
30184	1.351e-014	1.5455	0.1	7538.4
30185	1.2888e-014	1.4545	5.e-002	21.178
30186	1.51e-014	1.7273	0.1	7656.5
30187	1.4498e-014	1.6364	5.e-002	18.474
30188	1.6689e-014	1.9091	0.1	7748.
30189	1.6109e-014	1.8182	5.e-002	16.294
30190	1.8279e-014	2.0909	0.1	7818.7
30191	1.772e-014	2.	5.e-002	14.551
30192	1.9868e-014	2.2727	0.1	7872.3
30193	1.9331e-014	2.1818	5.e-002	13.181
30194	2.1457e-014	2.4545	0.1	7911.6
30195	2.0942e-014	2.3636	5.e-002	12.134
30196	2.3047e-014	2.6364	0.1	7938.5
30197	2.2553e-014	2.5455	5.e-002	11.376
30198	2.4636e-014	2.8182	0.1	7954.2
30199	2.4164e-014	2.7273	5.e-002	10.884
30200	2.6226e-014	3.	0.1	7959.4
30201	2.5775e-014	2.9091	5.e-002	10.641
30202	2.7815e-014	3.1818	0.1	7954.2
30203	2.7386e-014	3.0909	5.e-002	10.641
30204	2.9405e-014	3.3636	0.1	7938.5
30205	2.8997e-014	3.2727	5.e-002	10.884
30206	3.0994e-014	3.5455	0.1	7911.6
30207	3.0608e-014	3.4545	5.e-002	11.376
30208	3.2583e-014	3.7273	0.1	7872.3
30209	3.2219e-014	3.6364	5.e-002	12.134
30210	3.4173e-014	3.9091	0.1	7818.7
30211	3.383e-014	3.8182	5.e-002	13.181
30212	3.5762e-014	4.0909	0.1	7748.
30213	3.5441e-014	4.	5.e-002	14.551
30214	3.7352e-014	4.2727	0.1	7656.5
30215	3.7052e-014	4.1818	5.e-002	16.294
30216	3.8941e-014	4.4545	0.1	7538.4
30217	3.8663e-014	4.3636	5.e-002	18.475
30218	4.0531e-014	4.6364	0.1	7385.5
30219	4.0274e-014	4.5455	5.e-002	21.178
30220	4.212e-014	4.8182	0.1	7185.2
30221	4.1885e-014	4.7273	5.e-002	24.516
30222	4.371e-014	5.	0.1	6917.6
30223	4.3495e-014	4.9091	5.e-002	28.624
30224	4.5299e-014	5.1818	0.1	6548.3
30225	4.5106e-014	5.0909	5.e-002	33.691
30226	4.6888e-014	5.3636	0.1	6010.
30227	4.6717e-014	5.2727	5.e-002	39.577
30228	4.8478e-014	5.5455	0.1	5161.7
30229	4.8328e-014	5.4545	5.e-002	44.978
30230	5.0067e-014	5.7273	0.1	3542.1
30231	4.9939e-014	5.6364	5.e-002	49.72
30232	5.1657e-014	5.9091	0.1	1435.4
30233	5.155e-014	5.8182	5.e-002	95.472
30234	23.909	0.	0.1	18.916
30235	24.	0.	5.e-002	4.5597
30236	23.726	0.	0.1	50.682
30237	23.817	0.	5.e-002	11.203
30238	23.544	0.	0.1	85.824
30239	23.635	0.	5.e-002	16.267
30240	23.361	0.	0.1	122.44
30241	23.452	0.	5.e-002	20.105
30242	23.178	0.	0.1	159.89
30243	23.27	0.	5.e-002	23.299
30244	22.996	0.	0.1	197.92
30245	23.087	0.	5.e-002	26.039
30246	22.813	0.	0.1	236.36
30247	22.905	0.	5.e-002	28.42
30248	22.631	0.	0.1	275.14
30249	22.722	0.	5.e-002	30.505
30250	22.448	0.	0.1	314.18
30251	22.539	0.	5.e-002	32.337
30252	22.266	0.	0.1	353.45
30253	22.357	0.	5.e-002	33.944
30254	22.083	0.	0.1	392.91
30255	22.174	0.	5.e-002	35.351
30256	21.9	0.	0.1	432.54
30257	21.992	0.	5.e-002	36.575
30258	21.718	0.	0.1	472.31
30259	21.809	0.	5.e-002	37.63
30260	21.535	0.	0.1	512.19
30261	21.627	0.	5.e-002	38.529
30262	21.353	0.	0.1	552.15
30263	21.444	0.	5.e-002	39.281
30264	21.17	0.	0.1	592.16
30265	21.261	0.	5.e-002	39.897
30266	20.987	0.	0.1	632.18
30267	21.079	0.	5.e-002	40.384
30268	20.805	0.	0.1	672.16
30269	20.896	0.	5.e-002	40.752
30270	20.622	0.	0.1	712.03
30271	20.714	0.	5.e-002	41.008
30272	20.44	0.	0.1	751.71
30273	20.531	0.	5.e-002	41.162
30274	20.257	0.	0.1	791.08
30275	20.348	0.	5.e-002	41.223
30276	20.075	0.	0.1	830.01
30277	20.166	0.	5.e-002	41.203
30278	19.892	0.	0.1	868.33
30279	19.983	0.	5.e-002	41.113
30280	19.709	0.	0.1	905.82
30281	19.801	0.	5.e-002	40.969
30282	19.527	0.	0.1	942.2
30283	19.618	0.	5.e-002	40.787
30284	19.344	0.	0.1	977.12
30285	19.436	0.	5.e-002	40.586
30286	19.162	0.	0.1	1010.1
30287	19.253	0.	5.e-002	40.389
30288	18.979	0.	0.1	1040.7
30289	19.07	0.	5.e-002	40.22
30290	18.797	0.	0.1	1068.2
30291	18.888	0.	5.e-002	40.107
30292	18.614	0.	0.1	1091.7
30293	18.705	0.	5.e-002	40.078
30294	18.431	0.	0.1	1110.3
30295	18.523	0.	5.e-002	40.162
30296	18.249	0.	0.1	1122.6
30297	18.34	0.	5.e-002	40.385
30298	18.066	0.	0.1	1127.3
30299	18.158	0.	5.e-002	40.765
30300	17.884	0.	0.1	1122.5
30301	17.975	0.	5.e-002	41.307
30302	17.701	0.	0.1	1106.2
30303	17.792	0.	5.e-002	41.989
30304	17.519	0.	0.1	1076.2
30305	17.61	0.	5.e-002	42.751
30306	17.336	0.	0.1	1030.1
30307	17.427	0.	5.e-002	43.476
30308	17.153	0.	0.1	965.24
30309	17.245	0.	5.e-002	43.96
30310	16.971	0.	0.1	879.52
30311	17.062	0.	5.e-002	43.893
30312	16.788	0.	0.1	771.19
30313	16.88	0.	5.e-002	42.817
30314	16.606	0.	0.1	639.33
30315	16.697	0.	5.e-002	40.114
30316	16.423	0.	0.1	483.78
30317	16.514	0.	5.e-002	34.894
30318	16.241	0.	0.1	303.19
30319	16.332	0.	5.e-002	26.208
30320	16.058	0.	0.1	110.04
30321	16.149	0.	5.e-002	10.515
30322	15.967	0.	5.e-002	11.588
30323	15.708	1.6886e-030	0.1	141.07
30324	15.8	1.6985e-030	5.e-002	14.144
30325	15.524	1.6688e-030	0.1	399.25
30326	15.616	0.	5.e-002	4.72
30327	15.341	1.6491e-030	0.1	658.86
30328	15.433	0.	5.e-002	15.564
30329	15.157	1.6293e-030	0.1	899.71
30330	15.249	0.	5.e-002	17.975
30331	14.973	1.6096e-030	0.1	1121.7
30332	15.065	0.	5.e-002	16.196
30333	14.79	1.5898e-030	0.1	1323.4
30334	14.881	0.	5.e-002	11.586
30335	14.606	1.5701e-030	0.1	1504.7
30336	14.698	0.	5.e-002	5.5674
30337	14.422	1.5503e-030	0.1	1666.1
30338	14.514	0.	5.e-002	3.5161
30339	14.238	1.5306e-030	0.1	1809.4
30340	14.33	0.	5.e-002	10.133
30341	14.055	1.5108e-030	0.1	1936.6
30342	14.147	0.	5.e-002	17.275
30343	13.871	1.4911e-030	0.1	2049.8
30344	13.963	0.	5.e-002	24.08
30345	13.687	1.4713e-030	0.1	2151.2
30346	13.779	0.	5.e-002	30.346
30347	13.503	1.4516e-030	0.1	2242.8
30348	13.595	0.	5.e-002	35.996
30349	13.32	1.4318e-030	0.1	2326.2
30350	13.412	0.	5.e-002	41.018
30351	13.136	1.4121e-030	0.1	2403.1
30352	13.228	0.	5.e-002	45.433
30353	12.952	1.3923e-030	0.1	2474.6
30354	13.044	0.	5.e-002	49.285
30355	12.769	1.3726e-030	0.1	2541.8
30356	12.86	0.	5.e-002	52.624
30357	12.585	1.3528e-030	0.1	2605.6
30358	12.677	0.	5.e-002	55.505
30359	12.401	1.3331e-030	0.1	2666.6
30360	12.493	0.	5.e-002	57.979
30361	12.217	1.3133e-030	0.1	2725.6
30362	12.309	0.	5.e-002	60.097
30363	12.034	1.2936e-030	0.1	2782.9
30364	12.126	0.	5.e-002	61.902
30365	11.85	1.2738e-030	0.1	2838.9
30366	11.942	0.	5.e-002	63.433
30367	11.666	1.2541e-030	0.1	2893.9
30368	11.758	0.	5.e-002	64.723
30369	11.483	1.2343e-030	0.1	2948.2
30370	11.574	0.	5.e-002	65.801
30371	11.299	1.2146e-030	0.1	3002.
30372	11.391	0.	5.e-002	66.69
30373	11.115	1.1948e-030	0.1	3055.3
30374	11.207	0.	5.e-002	67.412
30375	10.931	1.1751e-030	0.1	3108.5
30376	11.023	0.	5.e-002	67.981
30377	10.748	1.1553e-030	0.1	3161.4
30378	10.84	0.	5.e-002	68.412
30379	10.564	1.1356e-030	0.1	3214.3
30380	10.656	0.	5.e-002	68.714
30381	10.38	1.1158e-030	0.1	3267.2
30382	10.472	0.	5.e-002	68.895
30383	10.197	1.0961e-030	0.1	3320.2
30384	10.288	0.	5.e-002	68.961
30385	10.013	1.0763e-030	0.1	3373.2
30386	10.105	0.	5.e-002	68.916
30387	9.8291	1.0566e-030	0.1	3426.3
30388	9.9209	0.	5.e-002	68.762
30389	9.6453	1.0368e-030	0.1	3479.7
30390	9.7372	0.	5.e-002	68.499
30391	9.4616	1.0171e-030	0.1	3533.2
30392	9.5535	0.	5.e-002	68.126
30393	9.2779	9.9735e-031	0.1	3586.9
30394	9.3698	0.	5.e-002	67.643
30395	9.0942	9.776e-031	0.1	3640.8
30396	9.186	0.	5.e-002	67.044
30397	8.9105	9.5785e-031	0.1	3695.
30398	9.0023	0.	5.e-002	66.327
30399	8.7267	9.381e-031	0.1	3749.4
30400	8.8186	0.	5.e-002	65.486
30401	8.543	9.1835e-031	0.1	3804.1
30402	8.6349	0.	5.e-002	64.515
30403	8.3593	8.986e-031	0.1	3859.1
30404	8.4512	0.	5.e-002	63.406
30405	8.1756	8.7885e-031	0.1	3914.3
30406	8.2674	0.	5.e-002	62.15
30407	7.9919	8.591e-031	0.1	3969.9
30408	8.0837	0.	5.e-002	60.739
30409	7.8081	8.3935e-031	0.1	4025.9
30410	7.9	0.	5.e-002	59.162
30411	7.6244	8.196e-031	0.1	4082.2
30412	7.7163	0.	5.e-002	57.408
30413	7.4407	7.9986e-031	0.1	4138.8
30414	7.5326	0.	5.e-002	55.463
30415	7.257	7.8011e-031	0.1	4195.8
30416	7.3488	0.	5.e-002	53.314
30417	7.0733	7.6036e-031	0.1	4253.2
30418	7.1651	0.	5.e-002	50.946
30419	6.8895	7.4061e-031	0.1	4311.
30420	6.9814	0.	5.e-002	48.341
30421	6.7058	7.2086e-031	0.1	4369.3
30422	6.7977	0.	5.e-002	45.483
30423	6.5221	7.0111e-031	0.1	4428.
30424	6.614	0.	5.e-002	42.35
30425	6.3384	6.8136e-031	0.1	4487.1
30426	6.4302	0.	5.e-002	38.924
30427	6.1547	6.6161e-031	0.1	4546.7
30428	6.2465	0.	5.e-002	35.18
30429	5.9709	6.4186e-031	0.1	4606.9
30430	6.0628	0.	5.e-002	31.094
30431	5.7872	6.2211e-031	0.1	4667.6
30432	5.8791	0.	5.e-002	26.641
30433	5.6035	6.0236e-031	0.1	4728.8
30434	5.6953	0.	5.e-002	21.795
30435	5.4198	5.8261e-031	0.1	4790.5
30436	5.5116	0.	5.e-002	16.531
30437	5.236	5.6286e-031	0.1	4852.8
30438	5.3279	0.	5.e-002	10.835
30439	5.0523	5.4311e-031	0.1	4915.8
30440	5.1442	0.	5.e-002	4.8156
30441	4.8686	5.2336e-031	0.1	4979.3
30442	4.9605	0.	5.e-002	3.0989
30443	4.6849	5.0361e-031	0.1	5043.3
30444	4.7767	0.	5.e-002	9.9747
30445	4.5012	4.8386e-031	0.1	5108.
30446	4.593	0.	5.e-002	17.896
30447	4.3174	4.6411e-031	0.1	5173.2
30448	4.4093	0.	5.e-002	26.546
30449	4.1337	4.4436e-031	0.1	5238.9
30450	4.2256	0.	5.e-002	35.942
30451	3.95	4.2461e-031	0.1	5305.
30452	4.0419	0.	5.e-002	46.133
30453	3.7663	4.0486e-031	0.1	5371.4
30454	3.8581	0.	5.e-002	57.178
30455	3.5826	3.8512e-031	0.1	5438.
30456	3.6744	0.	5.e-002	69.142
30457	3.3988	3.6537e-031	0.1	5504.6
30458	3.4907	0.	5.e-002	82.101
30459	3.2151	3.4562e-031	0.1	5570.9
30460	3.307	0.	5.e-002	96.135
30461	3.0314	3.2587e-031	0.1	5636.5
30462	3.1233	0.	5.e-002	111.34
30463	2.8477	3.0612e-031	0.1	5701.
30464	2.9395	0.	5.e-002	127.8
30465	2.664	2.8637e-031	0.1	5763.6
30466	2.7558	0.	5.e-002	145.65
30467	2.4802	2.6662e-031	0.1	5823.6
30468	2.5721	0.	5.e-002	165.02
30469	2.2965	2.4687e-031	0.1	5879.8
30470	2.3884	0.	5.e-002	186.06
30471	2.1128	2.2712e-031	0.1	5930.6
30472	2.2047	0.	5.e-002	208.94
30473	1.9291	2.0737e-031	0.1	5974.
30474	2.0209	0.	5.e-002	233.9
30475	1.7453	1.8762e-031	0.1	6006.9
30476	1.8372	0.	5.e-002	261.2
30477	1.5616	1.6787e-031	0.1	6025.3
30478	1.6535	0.	5.e-002	291.19
30479	1.3779	1.4812e-031	0.1	6023.2
30480	1.4698	0.	5.e-002	324.32
30481	1.1942	1.2837e-031	0.1	5991.7
30482	1.286	0.	5.e-002	361.19
30483	1.0105	1.0862e-031	0.1	5916.6
30484	1.1023	0.	5.e-002	402.7
30485	0.82674	8.8873e-032	0.1	5774.6
30486	0.9186	0.	5.e-002	450.07
30487	0.64302	6.9123e-032	0.1	5520.2
30488	0.73488	0.	5.e-002	505.79
30489	0.4593	4.9374e-032	0.1	5067.4
30490	0.55116	0.	5.e-002	573.28
30491	0.27558	2.9624e-032	0.1	4159.3
30492	0.36744	0.	5.e-002	664.32
30493	9.186e-002	9.8748e-033	0.1	1946.1
30494	0.18372	0.	5.e-002	845.25
30495	0.	0.	5.e-002	1119.
30496	9.186e-002	6.	0.1	1946.1
30497	5.2451e-014	6.	5.e-002	1119.
30498	0.27558	6.	0.1	4159.3
30499	0.18372	6.	5.e-002	845.25
30500	0.4593	6.	0.1	5067.4
30501	0.36744	6.	5.e-002	664.32
30502	0.64302	6.	0.1	5520.2
30503	0.55116	6.	5.e-002	573.28
30504	0.82674	6.	0.1	5774.6
30505	0.73488	6.	5.e-002	505.79
30506	1.0105	6.	0.1	5916.6
30507	0.9186	6.	5.e-002	450.07
30508	1.1942	6.	0.1	5991.7
30509	1.1023	6.	5.e-002	402.7
30510	1.3779	6.	0.1	6023.2
30511	1.286	6.	5.e-002	361.19
30512	1.5616	6.	0.1	6025.3
30513	1.4698	6.	5.e-002	324.32
30514	1.7453	6.	0.1	6006.9
30515	1.6535	6.	5.e-002	291.19
30516	1.9291	6.	0.1	5974.
30517	1.8372	6.	5.e-002	261.2
30518	2.1128	6.	0.1	5930.6
30519	2.0209	6.	5.e-002	233.9
30520	2.2965	6.	0.1	5879.8
30521	2.2047	6.	5.e-002	208.94
30522	2.4802	6.	0.1	5823.6
30523	2.3884	6.	5.e-002	186.06
30524	2.664	6.	0.1	5763.6
30525	2.5721	6.	5.e-002	165.02
30526	2.8477	6.	0.1	5701.
30527	2.7558	6.	5.e-002	145.65
30528	3.0314	6.	0.1	5636.5
30529	2.9395	6.	5.e-002	127.8
30530	3.2151	6.	0.1	5570.9
30531	3.1233	6.	5.e-002	111.34
30532	3.3988	6.	0.1	5504.6
30533	3.307	6.	5.e-002	96.135
30534	3.5826	6.	0.1	5438.
30535	3.4907	6.	5.e-002	82.101
30536	3.7663	6.	0.1	5371.4
30537	3.6744	6.	5.e-002	69.142
30538	3.95	6.	0.1	5305.
30539	3.8581	6.	5.e-002	57.178
30540	4.1337	6.	0.1	5238.9
30541	4.0419	6.	5.e-002	46.133
30542	4.3174	6.	0.1	5173.2
30543	4.2256	6.	5.e-002	35.942
30544	4.5012	6.	0.1	5108.
30545	4.4093	6.	5.e-002	26.546
30546	4.6849	6.	0.1	5043.3
30547	4.593	6.	5.e-002	17.896
30548	4.8686	6.	0.1	4979.3
30549	4.7767	6.	5.e-002	9.9748
30550	5.0523	6.	0.1	4915.8
30551	4.9605	6.	5.e-002	3.0989
30552	5.236	6.	0.1	4852.8
30553	5.1442	6.	5.e-002	4.8157
30554	5.4198	6.	0.1	4790.5
30555	5.3279	6.	5.e-002	10.836
30556	5.6035	6.	0.1	4728.8
30557	5.5116	6.	5.e-002	16.531
30558	5.7872	6.	0.1	4667.6
30559	5.6953	6.	5.e-002	21.795
30560	5.9709	6.	0.1	4606.9
30561	5.8791	6.	5.e-002	26.642
30562	6.1547	6.	0.1	4546.7
30563	6.0628	6.	5.e-002	31.094
30564	6.3384	6.	0.1	4487.1
30565	6.2465	6.	5.e-002	35.18
30566	6.5221	6.	0.1	4428.
30567	6.4302	6.	5.e-002	38.924
30568	6.7058	6.	0.1	4369.3
30569	6.614	6.	5.e-002	42.35
30570	6.8895	6.	0.1	4311.
30571	6.7977	6.	5.e-002	45.483
30572	7.0733	6.	0.1	4253.2
30573	6.9814	6.	5.e-002	48.341
30574	7.257	6.	0.1	4195.8
30575	7.1651	6.	5.e-002	50.946
30576	7.4407	6.	0.1	4138.8
30577	7.3488	6.	5.e-002	53.314
30578	7.6244	6.	0.1	4082.2
30579	7.5326	6.	5.e-002	55.463
30580	7.8081	6.	0.1	4025.9
30581	7.7163	6.	5.e-002	57.408
30582	7.9919	6.	0.1	3970.
30583	7.9	6.	5.e-002	59.163
30584	8.1756	6.	0.1	3914.3
30585	8.0837	6.	5.e-002	60.739
30586	8.3593	6.	0.1	3859.1
30587	8.2674	6.	5.e-002	62.15
30588	8.543	6.	0.1	3804.1
30589	8.4512	6.	5.e-002	63.406
30590	8.7267	6.	0.1	3749.4
30591	8.6349	6.	5.e-002	64.515
30592	8.9105	6.	0.1	3695.
30593	8.8186	6.	5.e-002	65.486
30594	9.0942	6.	0.1	3640.8
30595	9.0023	6.	5.e-002	66.327
30596	9.2779	6.	0.1	3586.9
30597	9.186	6.	5.e-002	67.044
30598	9.4616	6.	0.1	3533.2
30599	9.3698	6.	5.e-002	67.643
30600	9.6453	6.	0.1	3479.7
30601	9.5535	6.	5.e-002	68.126
30602	9.8291	6.	0.1	3426.3
30603	9.7372	6.	5.e-002	68.499
30604	10.013	6.	0.1	3373.2
30605	9.9209	6.	5.e-002	68.762
30606	10.197	6.	0.1	3320.2
30607	10.105	6.	5.e-002	68.916
30608	10.38	6.	0.1	3267.2
30609	10.288	6.	5.e-002	68.961
30610	10.564	6.	0.1	3214.3
30611	10.472	6.	5.e-002	68.895
30612	10.748	6.	0.1	3161.4
30613	10.656	6.	5.e-002	68.714
30614	10.931	6.	0.1	3108.5
30615	10.84	6.	5.e-002	68.412
30616	11.115	6.	0.1	3055.3
30617	11.023	6.	5.e-002	67.981
30618	11.299	6.	0.1	3002.
30619	11.207	6.	5.e-002	67.412
30620	11.483	6.	0.1	2948.2
30621	11.391	6.	5.e-002	66.69
30622	11.666	6.	0.1	2893.9
30623	11.574	6.	5.e-002	65.801
30624	11.85	6.	0.1	2838.9
30625	11.758	6.	5.e-002	64.723
30626	12.034	6.	0.1	2782.9
30627	11.942	6.	5.e-002	63.433
30628	12.217	6.	0.1	2725.6
30629	12.126	6.	5.e-002	61.902
30630	12.401	6.	0.1	2666.6
30631	12.309	6.	5.e-002	60.097
30632	12.585	6.	0.1	2605.6
30633	12.493	6.	5.e-002	57.98
30634	12.769	6.	0.1	2541.8
30635	12.677	6.	5.e-002	55.505
30636	12.952	6.	0.1	2474.6
30637	12.86	6.	5.e-002	52.624
30638	13.136	6.	0.1	2403.1
30639	13.044	6.	5.e-002	49.285
30640	13.32	6.	0.1	2326.2
30641	13.228	6.	5.e-002	45.433
30642	13.503	6.	0.1	2242.8
30643	13.412	6.	5.e-002	41.018
30644	13.687	6.	0.1	2151.2
30645	13.595	6.	5.e-002	35.996
30646	13.871	6.	0.1	2049.8
30647	13.779	6.	5.e-002	30.346
30648	14.055	6.	0.1	1936.6
30649	13.963	6.	5.e-002	24.08
30650	14.238	6.	0.1	1809.4
30651	14.147	6.	5.e-002	17.275
30652	14.422	6.	0.1	1666.1
30653	14.33	6.	5.e-002	10.133
30654	14.606	6.	0.1	1504.7
30655	14.514	6.	5.e-002	3.5162
30656	14.79	6.	0.1	1323.4
30657	14.698	6.	5.e-002	5.5673
30658	14.973	6.	0.1	1121.7
30659	14.881	6.	5.e-002	11.586
30660	15.157	6.	0.1	899.71
30661	15.065	6.	5.e-002	16.196
30662	15.341	6.	0.1	658.86
30663	15.249	6.	5.e-002	17.975
30664	15.524	6.	0.1	399.25
30665	15.433	6.	5.e-002	15.564
30666	15.708	6.	0.1	141.07
30667	15.616	6.	5.e-002	4.72
30668	15.8	6.	5.e-002	14.144
30669	15.524	6.	0.	6.2253
30670	15.708	6.	0.	2.1483
30671	15.341	6.	0.	6.5409
30672	15.157	6.	0.	6.3929
30673	14.973	6.	0.	5.8521
30674	14.79	6.	0.	5.2272
30675	14.606	6.	0.	4.7113
30676	14.422	6.	0.	4.3527
30677	14.238	6.	0.	4.1522
30678	14.055	6.	0.	4.0829
30679	13.871	6.	0.	4.1108
30680	13.687	6.	0.	4.2033
30681	13.503	6.	0.	4.3327
30682	13.32	6.	0.	4.4777
30683	13.136	6.	0.	4.6227
30684	12.952	6.	0.	4.7574
30685	12.769	6.	0.	4.8753
30686	12.585	6.	0.	4.9727
30687	12.401	6.	0.	5.0481
30688	12.217	6.	0.	5.1013
30689	12.034	6.	0.	5.133
30690	11.85	6.	0.	5.1442
30691	11.666	6.	0.	5.1363
30692	11.483	6.	0.	5.1104
30693	11.299	6.	0.	5.068
30694	11.115	6.	0.	5.01
30695	10.931	6.	0.	4.9375
30696	10.748	6.	0.	4.8513
30697	10.564	6.	0.	4.752
30698	10.38	6.	0.	4.6401
30699	10.197	6.	0.	4.516
30700	10.013	6.	0.	4.38
30701	9.8291	6.	0.	4.2322
30702	9.6453	6.	0.	4.0726
30703	9.4616	6.	0.	3.9012
30704	9.2779	6.	0.	3.718
30705	9.0942	6.	0.	3.5229
30706	8.9105	6.	0.	3.3157
30707	8.7267	6.	0.	3.0963
30708	8.543	6.	0.	2.8645
30709	8.3593	6.	0.	2.6203
30710	8.1756	6.	0.	2.3635
30711	7.9919	6.	0.	2.0943
30712	7.8081	6.	0.	1.8126
30713	7.6244	6.	0.	1.5188
30714	7.4407	6.	0.	1.2133
30715	7.257	6.	0.	0.89663
30716	7.0733	6.	0.	0.56996
30717	6.8895	6.	0.	0.46024
30718	6.7058	6.	0.	0.50387
30719	6.5221	6.	0.	0.55109
30720	6.3384	6.	0.	0.60206
30721	6.1547	6.	0.	0.65709
30722	5.9709	6.	0.	0.7165
30723	5.7872	6.	0.	0.78066
30724	5.6035	6.	0.	0.84996
30725	5.4198	6.	0.	0.92483
30726	5.236	6.	0.	1.0058
30727	5.0523	6.	0.	1.0933
30728	4.8686	6.	0.	1.188
30729	4.6849	6.	0.	1.2907
30730	4.5012	6.	0.	1.4022
30731	4.3174	6.	0.	1.5235
30732	4.1337	6.	0.	1.6562
30733	3.95	6.	0.	1.8025
30734	3.7663	6.	0.	1.9662
30735	3.5826	6.	0.	2.1548
30736	3.3988	6.	0.	2.3872
30737	3.2151	6.	0.	2.7297
30738	3.0314	6.	0.	3.4779
30739	2.8477	6.	0.	5.1706
30740	2.664	6.	0.	7.6996
30741	2.4802	6.	0.	10.948
30742	2.2965	6.	0.	14.986
30743	2.1128	6.	0.	19.959
30744	1.9291	6.	0.	26.068
30745	1.7453	6.	0.	33.583
30746	1.5616	6.	0.	42.875
30747	1.3779	6.	0.	54.493
30748	1.1942	6.	0.	69.215
30749	1.0105	6.	0.	88.468
30750	0.82674	6.	0.	114.33
30751	0.64302	6.	0.	152.14
30752	0.4593	6.	0.	213.83
30753	0.27558	6.	0.	335.64
30754	9.186e-002	6.	0.	900.44
30755	15.8	5.9091	0.	14.221
30756	5.1657e-014	5.9091	0.	145.31
30757	0.27558	2.9624e-032	0.	335.64
30758	9.186e-002	9.8748e-033	0.	900.44
30759	0.4593	4.9374e-032	0.	213.83
30760	0.64302	6.9123e-032	0.	152.14
30761	0.82674	8.8873e-032	0.	114.33
30762	1.0105	1.0862e-031	0.	88.468
30763	1.1942	1.2837e-031	0.	69.215
30764	1.3779	1.4812e-031	0.	54.493
30765	1.5616	1.6787e-031	0.	42.875
30766	1.7453	1.8762e-031	0.	33.583
30767	1.9291	2.0737e-031	0.	26.068
30768	2.1128	2.2712e-031	0.	19.959
30769	2.2965	2.4687e-031	0.	14.986
30770	2.4802	2.6662e-031	0.	10.948
30771	2.664	2.8637e-031	0.	7.6997
30772	2.8477	3.0612e-031	0.	5.1706
30773	3.0314	3.2587e-031	0.	3.4779
30774	3.2151	3.4562e-031	0.	2.7297
30775	3.3988	3.6537e-031	0.	2.3872
30776	3.5826	3.8512e-031	0.	2.1548
30777	3.7663	4.0486e-031	0.	1.9662
30778	3.95	4.2461e-031	0.	1.8025
30779	4.1337	4.4436e-031	0.	1.6562
30780	4.3174	4.6411e-031	0.	1.5235
30781	4.5012	4.8386e-031	0.	1.4022
30782	4.6849	5.0361e-031	0.	1.2907
30783	4.8686	5.2336e-031	0.	1.188
30784	5.0523	5.4311e-031	0.	1.0933
30785	5.236	5.6286e-031	0.	1.0058
30786	5.4198	5.8261e-031	0.	0.92484
30787	5.6035	6.0236e-031	0.	0.84996
30788	5.7872	6.2211e-031	0.	0.78066
30789	5.9709	6.4186e-031	0.	0.7165
30790	6.1547	6.6161e-031	0.	0.65709
30791	6.3384	6.8136e-031	0.	0.60206
30792	6.5221	7.0111e-031	0.	0.55109
30793	6.7058	7.2086e-031	0.	0.50387
30794	6.8895	7.4061e-031	0.	0.46024
30795	7.0733	7.6036e-031	0.	0.56995
30796	7.257	7.8011e-031	0.	0.89663
30797	7.4407	7.9986e-031	0.	1.2133
30798	7.6244	8.196e-031	0.	1.5188
30799	7.8081	8.3935e-031	0.	1.8126
30800	7.9919	8.591e-031	0.	2.0943
30801	8.1756	8.7885e-031	0.	2.3635
30802	8.3593	8.986e-031	0.	2.6203
30803	8.543	9.1835e-031	0.	2.8645
30804	8.7267	9.381e-031	0.	3.0963
30805	8.9105	9.5785e-031	0.	3.3157
30806	9.0942	9.776e-031	0.	3.5229
30807	9.2779	9.9735e-031	0.	3.718
30808	9.4616	1.0171e-030	0.	3.9012
30809	9.6453	1.0368e-030	0.	4.0726
30810	9.8291	1.0566e-030	0.	4.2322
30811	10.013	1.0763e-030	0.	4.38
30812	10.197	1.0961e-030	0.	4.516
30813	10.38	1.1158e-030	0.	4.6401
30814	10.564	1.1356e-030	0.	4.752
30815	10.748	1.1553e-030	0.	4.8513
30816	10.931	1.1751e-030	0.	4.9375
30817	11.115	1.1948e-030	0.	5.01
30818	11.299	1.2146e-030	0.	5.068
30819	11.483	1.2343e-030	0.	5.1104
30820	11.666	1.2541e-030	0.	5.1363
30821	11.85	1.2738e-030	0.	5.1442
30822	12.034	1.2936e-030	0.	5.133
30823	12.217	1.3133e-030	0.	5.1013
30824	12.401	1.3331e-030	0.	5.0481
30825	12.585	1.3528e-030	0.	4.9727
30826	12.769	1.3726e-030	0.	4.8753
30827	12.952	1.3923e-030	0.	4.7574
30828	13.136	1.4121e-030	0.	4.6227
30829	13.32	1.4318e-030	0.	4.4777
30830	13.503	1.4516e-030	0.	4.3327
30831	13.687	1.4713e-030	0.	4.2033
30832	13.871	1.4911e-030	0.	4.1108
30833	14.055	1.5108e-030	0.	4.0829
30834	14.238	1.5306e-030	0.	4.1522
30835	14.422	1.5503e-030	0.	4.3527
30836	14.606	1.5701e-030	0.	4.7113
30837	14.79	1.5898e-030	0.	5.2272
30838	14.973	1.6096e-030	0.	5.8521
30839	15.157	1.6293e-030	0.	6.3929
30840	15.341	1.6491e-030	0.	6.5409
30841	15.524	1.6688e-030	0.	6.2253
30842	15.708	1.6886e-030	0.	2.1483
30843	15.8	9.0909e-002	0.	14.221
30844	7.9472e-016	9.0909e-002	0.	145.31
30845	16.241	0.	0.	8.7193
30846	16.058	0.	0.	2.8408
30847	16.423	0.	0.	10.948
30848	16.606	0.	0.	11.887
30849	16.788	0.	0.	11.792
30850	16.971	0.	0.	11.105
30851	17.153	0.	0.	10.167
30852	17.336	0.	0.	9.1677
30853	17.519	0.	0.	8.2197
30854	17.701	0.	0.	7.3815
30855	17.884	0.	0.	6.6783
30856	18.066	0.	0.	6.1154
30857	18.249	0.	0.	5.6874
30858	18.431	0.	0.	5.3838
30859	18.614	0.	0.	5.1921
30860	18.797	0.	0.	5.0992
30861	18.979	0.	0.	5.0928
30862	19.162	0.	0.	5.1616
30863	19.344	0.	0.	5.2952
30864	19.527	0.	0.	5.4843
30865	19.709	0.	0.	5.7204
30866	19.892	0.	0.	5.9961
30867	20.075	0.	0.	6.3046
30868	20.257	0.	0.	6.6398
30869	20.44	0.	0.	6.9962
30870	20.622	0.	0.	7.3688
30871	20.805	0.	0.	7.753
30872	20.987	0.	0.	8.1446
30873	21.17	0.	0.	8.5396
30874	21.353	0.	0.	8.9342
30875	21.535	0.	0.	9.3247
30876	21.718	0.	0.	9.7072
30877	21.9	0.	0.	10.078
30878	22.083	0.	0.	10.432
30879	22.266	0.	0.	10.766
30880	22.448	0.	0.	11.072
30881	22.631	0.	0.	11.343
30882	22.813	0.	0.	11.57
30883	22.996	0.	0.	11.738
30884	23.178	0.	0.	11.826
30885	23.361	0.	0.	11.786
30886	23.544	0.	0.	11.59
30887	23.726	0.	0.	10.631
30888	23.909	0.	0.	7.7049
30889	15.967	9.0909e-002	0.	8.571
30890	24.	9.0909e-002	0.	18.644
30891	5.0067e-014	5.7273	0.	-1664.2
30892	4.8478e-014	5.5455	0.	-2514.3
30893	4.6888e-014	5.3636	0.	-2947.8
30894	4.5299e-014	5.1818	0.	-3217.6
30895	4.371e-014	5.	0.	-3401.8
30896	4.212e-014	4.8182	0.	-3535.1
30897	4.0531e-014	4.6364	0.	-3634.7
30898	3.8941e-014	4.4545	0.	-3710.7
30899	3.7352e-014	4.2727	0.	-3769.4
30900	3.5762e-014	4.0909	0.	-3814.9
30901	3.4173e-014	3.9091	0.	-3850.
30902	3.2583e-014	3.7273	0.	-3876.7
30903	3.0994e-014	3.5455	0.	-3896.3
30904	2.9405e-014	3.3636	0.	-3909.8
30905	2.7815e-014	3.1818	0.	-3917.7
30906	2.6226e-014	3.	0.	-3920.4
30907	2.4636e-014	2.8182	0.	-3917.7
30908	2.3047e-014	2.6364	0.	-3909.8
30909	2.1457e-014	2.4545	0.	-3896.3
30910	1.9868e-014	2.2727	0.	-3876.7
30911	1.8279e-014	2.0909	0.	-3850.
30912	1.6689e-014	1.9091	0.	-3814.9
30913	1.51e-014	1.7273	0.	-3769.4
30914	1.351e-014	1.5455	0.	-3710.7
30915	1.1921e-014	1.3636	0.	-3634.7
30916	1.0331e-014	1.1818	0.	-3535.1
30917	8.7419e-015	1.	0.	-3401.8
30918	7.1525e-015	0.81818	0.	-3217.6
30919	5.563e-015	0.63636	0.	-2947.8
30920	3.9736e-015	0.45455	0.	-2514.3
30921	2.3842e-015	0.27273	0.	-1664.2
30922	24.	0.27273	0.	45.633
30923	24.	0.45455	0.	67.019
30924	24.	0.63636	0.	83.667
30925	24.	0.81818	0.	97.372
30926	24.	1.	0.	108.89
30927	24.	1.1818	0.	118.67
30928	24.	1.3636	0.	126.98
30929	24.	1.5455	0.	134.03
30930	24.	1.7273	0.	139.98
30931	24.	1.9091	0.	144.94
30932	24.	2.0909	0.	149.
30933	24.	2.2727	0.	152.23
30934	24.	2.4545	0.	154.7
30935	24.	2.6364	0.	156.43
30936	24.	2.8182	0.	157.46
30937	24.	3.	0.	157.8
30938	24.	3.1818	0.	157.46
30939	24.	3.3636	0.	156.43
30940	24.	3.5455	0.	154.7
30941	24.	3.7273	0.	152.23
30942	24.	3.9091	0.	149.
30943	24.	4.0909	0.	144.94
30944	24.	4.2727	0.	139.98
30945	24.	4.4545	0.	134.03
30946	24.	4.6364	0.	126.98
30947	24.	4.8182	0.	118.67
30948	24.	5.	0.	108.89
30949	24.	5.1818	0.	97.372
30950	24.	5.3636	0.	83.667
30951	24.	5.5455	0.	67.019
30952	24.	5.7273	0.	45.633
30953	24.	5.9091	0.	18.644
30954	23.909	6.	0.	7.7049
30955	23.726	6.	0.	10.631
30956	23.544	6.	0.	11.59
30957	23.361	6.	0.	11.786
30958	23.178	6.	0.	11.826
30959	22.996	6.	0.	11.738
30960	22.813	6.	0.	11.57
30961	22.631	6.	0.	11.343
30962	22.448	6.	0.	11.072
30963	22.266	6.	0.	10.766
30964	22.083	6.	0.	10.432
30965	21.9	6.	0.	10.078
30966	21.718	6.	0.	9.7072
30967	21.535	6.	0.	9.3247
30968	21.353	6.	0.	8.9342
30969	21.17	6.	0.	8.5396
30970	20.987	6.	0.	8.1446
30971	20.805	6.	0.	7.753
30972	20.622	6.	0.	7.3688
30973	20.44	6.	0.	6.9962
30974	20.257	6.	0.	6.6398
30975	20.075	6.	0.	6.3046
30976	19.892	6.	0.	5.9962
30977	19.709	6.	0.	5.7205
30978	19.527	6.	0.	5.4843
30979	19.344	6.	0.	5.2953
30980	19.162	6.	0.	5.1617
30981	18.979	6.	0.	5.0929
30982	18.797	6.	0.	5.0992
30983	18.614	6.	0.	5.1921
30984	18.431	6.	0.	5.3839
30985	18.249	6.	0.	5.6874
30986	18.066	6.	0.	6.1154
30987	17.884	6.	0.	6.6783
30988	17.701	6.	0.	7.3815
30989	17.519	6.	0.	8.2197
30990	17.336	6.	0.	9.1678
30991	17.153	6.	0.	10.167
30992	16.971	6.	0.	11.105
30993	16.788	6.	0.	11.792
30994	16.606	6.	0.	11.887
30995	16.423	6.	0.	10.948
30996	16.241	6.	0.	8.7193
30997	16.058	6.	0.	2.8409
30998	15.967	5.9091	0.	8.571
30999	15.8	1.7273	0.	2081.4
31000	15.8	1.9091	0.	2240.8
31001	15.8	1.5455	0.	1255.5
31002	15.8	1.3636	0.	952.
31003	15.8	1.1818	0.	712.14
31004	15.8	1.	0.	532.07
31005	15.8	0.81818	0.	387.25
31006	15.8	0.63636	0.	267.2
31007	15.8	0.45455	0.	166.73
31008	15.8	0.27273	0.	83.501
31009	15.883	2.	0.	1099.2
31010	15.967	0.27273	0.	49.752
31011	15.967	0.45455	0.	95.924
31012	15.967	0.63636	0.	149.84
31013	15.967	0.81818	0.	213.46
31014	15.967	1.	0.	290.42
31015	15.967	1.1818	0.	387.23
31016	15.967	1.3636	0.	521.62
31017	15.967	1.5455	0.	675.62
31018	15.967	1.7273	0.	1235.1
31019	15.967	1.9091	0.	1143.2
31020	15.8	4.2727	0.	2081.4
31021	15.8	4.0909	0.	2240.8
31022	15.8	4.4545	0.	1255.5
31023	15.8	4.6364	0.	952.
31024	15.8	4.8182	0.	712.14
31025	15.8	5.	0.	532.07
31026	15.8	5.1818	0.	387.25
31027	15.8	5.3636	0.	267.2
31028	15.8	5.5455	0.	166.73
31029	15.8	5.7273	0.	83.502
31030	15.883	4.	0.	1099.2
31031	15.967	5.7273	0.	49.752
31032	15.967	5.5455	0.	95.924
31033	15.967	5.3636	0.	149.84
31034	15.967	5.1818	0.	213.46
31035	15.967	5.	0.	290.42
31036	15.967	4.8182	0.	387.23
31037	15.967	4.6364	0.	521.62
31038	15.967	4.4545	0.	675.62
31039	15.967	4.2727	0.	1235.1
31040	15.967	4.0909	0.	1143.2
