Node Number	X Location (in)	Y Location (in)	Z Location (in)	Maximum Principal Stress (psi)
1	4.5783	2.513	0.	817.61
2	4.4731	3.2786	0.	891.65
3	5.3687	1.728	0.	-95.19
4	3.3372	3.5191	0.	1133.8
5	5.3995	4.1652	0.	-91.978
6	3.1667	2.3755	0.	-3.6068
7	2.7746	0.82063	0.	277.01
8	4.8606	0.47837	0.	269.34
9	3.1326	4.6184	0.	252.51
10	2.8692	5.2029	0.	344.72
11	4.6054	5.0909	0.	529.87
12	5.6672	3.3851	0.	-6.527
13	1.031	4.7304	0.	1016.1
14	0.92201	1.147	0.	1006.4
15	4.8965	1.2189	0.	341.45
16	5.0119	4.7229	0.	278.29
17	1.8437	1.0352	0.	-246.32
18	2.0628	4.5181	0.	-217.64
19	5.7141	0.71838	0.	-79.014
20	4.8275	5.4761	0.	334.14
21	5.6412	2.3863	0.	85.972
22	0.95109	2.3083	0.	935.74
23	1.0053	3.4976	0.	981.84
24	2.0047	3.2108	0.	-183.3
25	6.6564	1.175	0.	199.39
26	8.1184	1.1733	0.	-26.856
27	9.3675	1.1869	0.	-16.607
28	10.547	1.1905	0.	5.052
29	11.695	1.1853	0.	0.84085
30	12.827	1.1755	0.	0.8071
31	13.964	1.1733	0.	5.7737
32	15.073	1.172	0.	10.962
33	16.194	1.1721	0.	14.812
34	17.302	1.1741	0.	19.042
35	18.416	1.1782	0.	24.025
36	19.525	1.1844	0.	31.193
37	20.639	1.1887	0.	41.552
38	21.757	1.1885	0.	57.286
39	22.88	1.195	0.	84.911
40	22.868	2.393	0.	124.69
41	22.87	3.6016	0.	124.93
42	22.877	4.7967	0.	85.509
43	21.755	4.7925	0.	57.952
44	20.632	4.7909	0.	42.669
45	19.517	4.7407	0.	33.577
46	18.405	4.7005	0.	25.479
47	17.297	4.6803	0.	19.47
48	16.189	4.6733	0.	14.559
49	15.08	4.6735	0.	9.9939
50	13.97	4.6754	0.	4.095
51	12.85	4.7191	0.	-0.23115
52	11.713	4.7547	0.	1.1429
53	10.559	4.7612	0.	-0.51328
54	9.3815	4.7637	0.	1.2749
55	8.1538	4.7524	0.	2.0352
56	6.805	4.7406	0.	225.92
57	5.7985	5.2719	0.	1.1026
58	6.7655	2.2677	0.	-86.606
59	6.827	3.4972	0.	-42.8
60	8.0489	2.3154	0.	29.738
61	9.2847	2.3567	0.	5.5882
62	10.482	2.3641	0.	1.8913
63	11.666	2.3565	0.	-1.7046
64	12.819	2.3543	0.	0.76674
65	13.957	2.352	0.	0.64321
66	15.07	2.3513	0.	7.9179
67	16.189	2.3526	0.	13.624
68	17.3	2.3567	0.	19.707
69	18.414	2.3626	0.	27.202
70	19.524	2.3697	0.	38.248
71	20.637	2.3774	0.	55.343
72	21.751	2.3869	0.	82.34
73	21.749	3.5905	0.	83.072
74	20.637	3.5791	0.	55.498
75	19.526	3.5569	0.	37.573
76	18.407	3.5323	0.	27.103
77	17.297	3.5196	0.	19.559
78	16.186	3.5127	0.	13.793
79	15.074	3.5104	0.	7.4032
80	13.957	3.5127	0.	1.2084
81	12.818	3.5241	0.	-0.31318
82	11.673	3.5336	0.	-0.35221
83	10.502	3.5573	0.	1.192
84	9.2905	3.5522	0.	-4.1621
85	8.0482	3.5443	0.	26.057
86	2.8102	1.6774	0.	120.15
87	3.4208	4.2284	0.	1651.
88	4.6019	0.8962	0.	654.35
89	4.0662	2.6199	0.	3071.8
90	3.4869	2.5767	0.	648.91
91	1.9116	2.0836	0.	-253.83
92	3.9103	3.1102	0.	882.48
93	2.8959	3.8267	0.	647.05
94	2.8959	3.8267	0.1	6536.8
95	3.9103	3.1102	0.1	10652
96	1.9116	2.0836	0.1	6486.9
97	3.4869	2.5767	0.1	9504.6
98	4.0662	2.6199	0.1	8632.
99	4.6019	0.8962	0.1	3393.4
100	3.4208	4.2284	0.1	9390.2
101	2.8102	1.6774	0.1	6358.8
102	8.0482	3.5443	0.1	3978.3
103	9.2905	3.5522	0.1	3577.1
104	10.502	3.5573	0.1	3227.9
105	11.673	3.5336	0.1	2904.8
106	12.818	3.5241	0.1	2600.4
107	13.957	3.5127	0.1	2303.
108	15.074	3.5104	0.1	2018.9
109	16.186	3.5127	0.1	1742.9
110	17.297	3.5196	0.1	1474.1
111	18.407	3.5323	0.1	1213.5
112	19.526	3.5569	0.1	957.91
113	20.637	3.5791	0.1	712.62
114	21.749	3.5905	0.1	474.16
115	21.751	2.3869	0.1	473.62
116	20.637	2.3774	0.1	712.48
117	19.524	2.3697	0.1	958.74
118	18.414	2.3626	0.1	1211.9
119	17.3	2.3567	0.1	1473.7
120	16.189	2.3526	0.1	1742.1
121	15.07	2.3513	0.1	2020.1
122	13.957	2.352	0.1	2303.6
123	12.819	2.3543	0.1	2600.1
124	11.666	2.3565	0.1	2908.6
125	10.482	2.3641	0.1	3234.5
126	9.2847	2.3567	0.1	3561.8
127	8.0489	2.3154	0.1	3943.4
128	6.827	3.4972	0.1	4295.4
129	6.7655	2.2677	0.1	4398.7
130	5.7985	5.2719	0.1	4540.7
131	6.805	4.7406	0.1	3926.1
132	8.1538	4.7524	0.1	3898.2
133	9.3815	4.7637	0.1	3544.8
134	10.559	4.7612	0.1	3219.4
135	11.713	4.7547	0.1	2901.9
136	12.85	4.7191	0.1	2597.3
137	13.97	4.6754	0.1	2304.4
138	15.08	4.6735	0.1	2021.2
139	16.189	4.6733	0.1	1745.6
140	17.297	4.6803	0.1	1477.4
141	18.405	4.7005	0.1	1216.5
142	19.517	4.7407	0.1	961.85
143	20.632	4.7909	0.1	712.82
144	21.755	4.7925	0.1	469.03
145	22.877	4.7967	0.1	234.01
146	22.87	3.6016	0.1	239.56
147	22.868	2.393	0.1	240.09
148	22.88	1.195	0.1	233.02
149	21.757	1.1885	0.1	468.7
150	20.639	1.1887	0.1	711.69
151	19.525	1.1844	0.1	960.25
152	18.416	1.1782	0.1	1214.7
153	17.302	1.1741	0.1	1477.2
154	16.194	1.1721	0.1	1745.3
155	15.073	1.172	0.1	2023.7
156	13.964	1.1733	0.1	2306.2
157	12.827	1.1755	0.1	2603.1
158	11.695	1.1853	0.1	2904.9
159	10.547	1.1905	0.1	3220.5
160	9.3675	1.1869	0.1	3548.8
161	8.1184	1.1733	0.1	3988.7
162	6.6564	1.175	0.1	4010.4
163	2.0047	3.2108	0.1	6124.4
164	1.0053	3.4976	0.1	6636.5
165	0.95109	2.3083	0.1	6570.9
166	5.6412	2.3863	0.1	5355.8
167	4.8275	5.4761	0.1	3148.2
168	5.7141	0.71838	0.1	4218.5
169	2.0628	4.5181	0.1	5719.9
170	1.8437	1.0352	0.1	5634.9
171	5.0119	4.7229	0.1	5553.3
172	4.8965	1.2189	0.1	5825.4
173	0.92201	1.147	0.1	5770.4
174	1.031	4.7304	0.1	5876.5
175	5.6672	3.3851	0.1	5769.3
176	4.6054	5.0909	0.1	3630.8
177	2.8692	5.2029	0.1	4538.
178	3.1326	4.6184	0.1	5980.1
179	4.8606	0.47837	0.1	3372.9
180	2.7746	0.82063	0.1	4695.4
181	3.1667	2.3755	0.1	9632.6
182	5.3995	4.1652	0.1	4742.4
183	3.3372	3.5191	0.1	8877.9
184	5.3687	1.728	0.1	4906.1
185	4.4731	3.2786	0.1	7253.2
186	4.5783	2.513	0.1	6653.3
187	3.9667	4.	0.	1121.9
188	3.9667	4.5	0.	3671.5
189	3.9667	5.	0.	2639.2
190	3.9667	5.5	0.	433.22
191	3.8	4.	0.	-151.98
192	3.8	5.5	0.	940.83
193	3.8	5.	0.	1057.5
194	3.8	4.5	0.	8278.1
195	3.9667	2.	0.	2473.5
196	3.9667	1.5	0.	4407.1
197	3.9667	1.	0.	1717.7
198	3.9667	0.5	0.	575.35
199	3.8	2.	0.	-730.39
200	3.8	0.5	0.	976.76
201	3.8	1.	0.	2159.
202	3.8	1.5	0.	4877.5
203	3.9667	6.	0.	108.79
204	5.0796	6.	0.	131.33
205	6.1926	6.	0.	146.36
206	7.3056	6.	0.	-130.38
207	8.4185	6.	0.	123.07
208	9.5315	6.	0.	-18.074
209	10.644	6.	0.	20.617
210	11.757	6.	0.	5.9142
211	12.87	6.	0.	9.5017
212	13.983	6.	0.	9.4855
213	15.096	6.	0.	11.549
214	16.209	6.	0.	11.174
215	17.322	6.	0.	11.777
216	18.435	6.	0.	12.739
217	19.548	6.	0.	14.328
218	20.661	6.	0.	14.874
219	21.774	6.	0.	14.177
220	22.887	6.	0.	14.533
221	24.	6.	0.	21.993
222	24.	4.8	0.	144.47
223	24.	3.6	0.	184.39
224	24.	2.4	0.	184.38
225	24.	1.2	0.	144.41
226	0.	1.2	0.	-3692.4
227	0.	2.4	0.	-3636.5
228	0.	3.6	0.	-3811.9
229	0.	4.8	0.	-3663.6
230	24.	0.	0.	22.456
231	3.9667	0.	0.	113.19
232	22.887	0.	0.	14.545
233	21.774	0.	0.	15.125
234	20.661	0.	0.	15.597
235	19.548	0.	0.	14.485
236	18.435	0.	0.	13.142
237	17.322	0.	0.	11.922
238	16.209	0.	0.	10.886
239	15.096	0.	0.	10.012
240	13.983	0.	0.	8.5395
241	12.87	0.	0.	7.9896
242	11.757	0.	0.	6.2359
243	10.644	0.	0.	17.563
244	9.5315	0.	0.	7.8394
245	8.4185	0.	0.	97.507
246	7.3056	0.	0.	-107.39
247	6.1926	0.	0.	210.7
248	5.0796	0.	0.	70.966
249	0.	0.	0.	-798.3
250	3.8	0.	0.	129.72
251	2.85	0.	0.	231.72
252	1.9	0.	0.	229.14
253	0.95	0.	0.	406.72
254	0.	6.	0.	-861.59
255	3.8	6.	0.	221.85
256	0.95	6.	0.	378.92
257	1.9	6.	0.	-170.
258	2.85	6.	0.	131.62
259	3.9667	4.	0.1	16109
260	3.9667	4.5	0.1	3493.8
261	3.9667	5.	0.1	2792.3
262	3.9667	5.5	0.1	1073.1
263	3.8	5.5	0.1	2044.7
264	3.8	5.	0.1	3446.4
265	3.8	4.5	0.1	2993.7
266	3.8	4.	0.1	21989
267	3.9667	2.	0.1	15253
268	3.9667	1.5	0.1	2701.8
269	3.9667	1.	0.1	2477.5
270	3.9667	0.5	0.1	1190.8
271	3.8	0.5	0.1	1928.5
272	3.8	1.	0.1	3961.
273	3.8	1.5	0.1	6913.1
274	3.8	2.	0.1	26111
275	3.9667	6.	0.1	793.26
276	5.0796	6.	0.1	3101.
277	6.1926	6.	0.1	4306.3
278	7.3056	6.	0.1	4074.4
279	8.4185	6.	0.1	3788.8
280	9.5315	6.	0.1	3536.5
281	10.644	6.	0.1	3206.2
282	11.757	6.	0.1	2901.2
283	12.87	6.	0.1	2598.2
284	13.983	6.	0.1	2305.2
285	15.096	6.	0.1	2020.7
286	16.209	6.	0.1	1744.
287	17.322	6.	0.1	1474.3
288	18.435	6.	0.1	1211.5
289	19.548	6.	0.1	954.76
290	20.661	6.	0.1	704.56
291	21.774	6.	0.1	458.5
292	22.887	6.	0.1	215.18
293	24.	6.	0.1	12.392
294	24.	4.8	0.1	3.7228
295	24.	3.6	0.1	2.9082
296	24.	2.4	0.1	2.618
297	24.	1.2	0.1	3.4851
298	0.	1.2	0.1	7514.1
299	0.	2.4	0.1	7541.3
300	0.	3.6	0.1	7786.7
301	0.	4.8	0.1	7462.9
302	24.	0.	0.1	13.067
303	22.887	0.	0.1	215.08
304	21.774	0.	0.1	458.07
305	20.661	0.	0.1	702.86
306	19.548	0.	0.1	953.07
307	18.435	0.	0.1	1209.7
308	17.322	0.	0.1	1472.7
309	16.209	0.	0.1	1743.2
310	15.096	0.	0.1	2020.1
311	13.983	0.	0.1	2306.2
312	12.87	0.	0.1	2599.
313	11.757	0.	0.1	2902.
314	10.644	0.	0.1	3205.7
315	9.5315	0.	0.1	3520.6
316	8.4185	0.	0.1	3733.9
317	7.3056	0.	0.1	4193.1
318	6.1926	0.	0.1	4155.5
319	5.0796	0.	0.1	3280.1
320	3.9667	0.	0.1	680.06
321	3.8	0.	0.1	348.31
322	2.85	0.	0.1	3619.9
323	1.9	0.	0.1	5470.2
324	0.95	0.	0.1	6144.6
325	0.	0.	0.1	2403.6
326	0.	6.	0.1	2471.3
327	0.95	6.	0.1	6167.8
328	1.9	6.	0.1	5657.9
329	2.85	6.	0.1	3527.6
330	3.8	6.	0.1	315.19
331	4.5257	2.8958	0.	695.99
332	5.1097	2.4497	0.	439.78
333	4.3223	2.5665	0.	1522.
334	4.5783	2.513	5.e-002	39.345
335	4.2725	2.2565	0.	959.03
336	5.0702	3.3319	0.	293.46
337	4.1917	3.1944	0.	766.06
338	4.4731	3.2786	5.e-002	287.1
339	4.2199	3.6393	0.	761.41
340	5.1326	1.4734	0.	8.64
341	5.5049	2.0571	0.	-21.752
342	6.0125	1.4515	0.	26.443
343	5.3687	1.728	5.e-002	128.15
344	4.6677	1.864	0.	762.9
345	3.379	3.8737	0.	1252.1
346	3.412	3.0479	0.	610.29
347	3.1165	3.6729	0.	888.49
348	3.3372	3.5191	5.e-002	254.96
349	3.5686	3.7596	0.	261.04
350	5.5334	3.7752	0.	-54.519
351	5.2057	4.4441	0.	87.095
352	6.1022	4.4529	0.	64.649
353	5.3995	4.1652	5.e-002	113.82
354	4.6831	4.0826	0.	357.85
355	2.5857	2.7932	0.	-103.07
356	2.9885	2.0265	0.	49.775
357	3.3268	2.4761	0.	229.88
358	3.0313	3.1011	0.	158.77
359	3.1667	2.3755	5.e-002	245.28
360	3.4834	1.9378	0.	967.56
361	2.3092	0.9279	0.	-96.254
362	2.7924	1.249	0.	154.74
363	2.7746	0.82063	5.e-002	50.372
364	3.2873	0.66032	0.	191.75
365	2.8123	0.41032	0.	242.25
366	5.2873	0.59837	0.	54.621
367	4.7312	0.68728	0.	402.
368	4.8606	0.47837	5.e-002	81.12
369	4.4136	0.48918	0.	121.7
370	4.9701	0.23918	0.	159.07
371	3.0009	4.9107	0.	228.98
372	3.2767	4.4234	0.	890.29
373	3.0142	4.2226	0.	280.93
374	3.1326	4.6184	5.e-002	165.02
375	3.4663	4.8092	0.	405.43
376	2.466	4.8605	0.	-75.19
377	2.8692	5.2029	5.e-002	77.74
378	3.3346	5.3515	0.	274.66
379	2.8596	5.6015	0.	178.12
380	4.8086	4.9069	0.	294.44
381	4.7165	5.2835	0.	408.86
382	4.6054	5.0909	5.e-002	180.02
383	4.286	5.0454	0.	1178.5
384	5.6542	2.8857	0.	28.623
385	6.2471	3.4412	0.	-34.025
386	5.6672	3.3851	5.e-002	150.97
387	1.5469	4.6243	0.	398.03
388	1.0181	4.114	0.	998.91
389	1.031	4.7304	5.e-002	21.119
390	0.5155	4.7652	0.	-1333.9
391	0.9905	5.3652	0.	688.51
392	1.3829	1.0911	0.	379.9
393	0.93655	1.7277	0.	971.05
394	0.92201	1.147	5.e-002	19.75
395	0.461	1.1735	0.	-1350.3
396	0.936	0.57352	0.	703.14
397	5.3053	0.96862	0.	34.142
398	4.7492	1.0575	0.	419.35
399	4.8965	1.2189	5.e-002	265.78
400	4.4316	1.3594	0.	1651.
401	5.4052	4.9974	0.	-52.684
402	5.0119	4.7229	5.e-002	262.79
403	4.4893	4.6115	0.	1336.1
404	1.8777	1.5594	0.	-250.08
405	1.8437	1.0352	5.e-002	22.97
406	1.8719	0.51759	0.	-166.07
407	2.0337	3.8645	0.	-201.3
408	2.4793	4.1724	0.	62.576
409	2.0628	4.5181	5.e-002	67.325
410	1.9814	5.2591	0.	-289.95
411	6.1853	0.94668	0.	37.592
412	5.7141	0.71838	5.e-002	103.86
413	5.9533	0.35919	0.	20.052
414	5.313	5.374	0.	120.68
415	4.8275	5.4761	5.e-002	68.681
416	4.3971	5.488	0.	137.81
417	4.9536	5.738	0.	176.99
418	6.2034	2.327	0.	-1.5449
419	5.6412	2.3863	5.e-002	187.49
420	0.97819	2.9029	0.	958.74
421	1.4314	2.1959	0.	340.63
422	0.95109	2.3083	5.e-002	30.574
423	0.47554	2.3541	0.	-1390.9
424	1.505	3.3542	0.	399.21
425	1.0053	3.4976	5.e-002	7.282
426	0.50265	3.5488	0.	-1431.
427	1.9581	2.6472	0.	-219.21
428	2.0047	3.2108	5.e-002	14.814
429	7.3874	1.1741	0.	65.232
430	6.711	1.7213	0.	40.719
431	6.6564	1.175	5.e-002	28.827
432	6.981	0.58749	0.	24.453
433	8.7429	1.1801	0.	-21.801
434	8.0836	1.7444	0.	1.2722
435	8.1184	1.1733	5.e-002	11.868
436	8.2685	0.58663	0.	13.619
437	9.957	1.1887	0.	-5.9008
438	9.3261	1.7718	0.	-5.5861
439	9.3675	1.1869	5.e-002	1.7097
440	9.4495	0.59345	0.	-12.732
441	11.121	1.1879	0.	2.9443
442	10.515	1.7773	0.	3.4587
443	10.547	1.1905	5.e-002	2.1102
444	10.596	0.59525	0.	2.8572
445	12.261	1.1804	0.	0.70174
446	11.68	1.7709	0.	-0.45659
447	11.695	1.1853	5.e-002	1.5837
448	11.726	0.59263	0.	-0.65763
449	13.395	1.1744	0.	2.6019
450	12.823	1.7649	0.	0.59588
451	12.827	1.1755	5.e-002	1.4014
452	12.849	0.58775	0.	3.4367
453	14.519	1.1727	0.	8.3403
454	13.96	1.7626	0.	2.6727
455	13.964	1.1733	5.e-002	1.2836
456	13.974	0.58665	0.	7.0205
457	15.634	1.1721	0.	12.862
458	15.072	1.7616	0.	8.8266
459	15.073	1.172	5.e-002	1.198
460	15.085	0.58602	0.	10.353
461	16.748	1.1731	0.	16.901
462	16.192	1.7624	0.	13.533
463	16.194	1.1721	5.e-002	1.1281
464	16.201	0.58605	0.	12.698
465	17.859	1.1762	0.	21.503
466	17.301	1.7654	0.	18.623
467	17.302	1.1741	5.e-002	1.0994
468	17.312	0.58705	0.	15.295
469	18.97	1.1813	0.	27.576
470	18.415	1.7704	0.	24.798
471	18.416	1.1782	5.e-002	1.1374
472	18.425	0.58911	0.	18.343
473	20.082	1.1865	0.	36.341
474	19.525	1.777	0.	33.849
475	19.525	1.1844	5.e-002	1.2739
476	19.537	0.5922	0.	22.511
477	21.198	1.1886	0.	49.403
478	20.638	1.783	0.	47.548
479	20.639	1.1887	5.e-002	1.3622
480	20.65	0.59433	0.	28.068
481	22.318	1.1917	0.	71.098
482	21.754	1.7877	0.	68.991
483	21.757	1.1885	5.e-002	1.5972
484	21.765	0.59425	0.	35.311
485	22.874	1.794	0.	104.26
486	22.88	1.195	5.e-002	2.3386
487	23.44	1.1975	0.	114.44
488	22.884	0.5975	0.	48.145
489	22.869	2.9973	0.	124.5
490	22.31	2.3899	0.	103.51
491	22.868	2.393	5.e-002	2.4196
492	23.434	2.3965	0.	154.53
493	22.874	4.1992	0.	104.69
494	22.31	3.5961	0.	104.
495	22.87	3.6016	5.e-002	2.4407
496	23.435	3.6008	0.	154.65
497	22.316	4.7946	0.	71.73
498	22.877	4.7967	5.e-002	2.3712
499	22.882	5.3984	0.	48.41
500	23.438	4.7984	0.	114.79
501	21.194	4.7917	0.	50.289
502	21.752	4.1915	0.	69.666
503	21.755	4.7925	5.e-002	1.6358
504	21.765	5.3963	0.	35.154
505	20.074	4.7658	0.	38.078
506	20.634	4.185	0.	48.197
507	20.632	4.7909	5.e-002	1.2359
508	20.647	5.3954	0.	28.17
509	18.961	4.7206	0.	29.483
510	19.522	4.1488	0.	34.737
511	19.517	4.7407	5.e-002	1.5472
512	19.533	5.3703	0.	23.526
513	17.851	4.6904	0.	22.442
514	18.406	4.1164	0.	25.542
515	18.405	4.7005	5.e-002	1.7805
516	18.42	5.3502	0.	18.72
517	16.743	4.6768	0.	16.991
518	17.297	4.0999	0.	18.842
519	17.297	4.6803	5.e-002	1.8293
520	17.309	5.3401	0.	15.258
521	15.635	4.6734	0.	12.257
522	16.187	4.093	0.	13.565
523	16.189	4.6733	5.e-002	1.8793
524	16.199	5.3366	0.	12.535
525	14.525	4.6745	0.	7.021
526	15.077	4.092	0.	8.1407
527	15.08	4.6735	5.e-002	1.957
528	15.088	5.3368	0.	10.475
529	13.41	4.6973	0.	0.28113
530	13.963	4.0941	0.	2.0629
531	13.97	4.6754	5.e-002	2.1814
532	13.977	5.3377	0.	6.531
533	12.282	4.7369	0.	0.4466
534	12.834	4.1216	0.	-0.27805
535	12.85	4.7191	5.e-002	1.8141
536	12.86	5.3596	0.	2.2109
537	11.136	4.7579	0.	0.31462
538	11.693	4.1442	0.	0.39344
539	11.713	4.7547	5.e-002	1.5763
540	11.735	5.3773	0.	-0.65921
541	9.9701	4.7624	0.	0.35774
542	10.53	4.1592	0.	0.33683
543	10.559	4.7612	5.e-002	1.9191
544	10.602	5.3806	0.	2.8455
545	8.7677	4.758	0.	1.653
546	9.336	4.1579	0.	-1.4486
547	9.3815	4.7637	5.e-002	2.7071
548	9.4565	5.3819	0.	-14.584
549	7.4794	4.7465	0.	106.71
550	8.101	4.1483	0.	14.035
551	8.1538	4.7524	5.e-002	3.4863
552	8.2862	5.3762	0.	30.111
553	6.3017	5.0063	0.	75.839
554	6.816	4.1189	0.	90.06
555	6.805	4.7406	5.e-002	30.721
556	7.0553	5.3703	0.	38.55
557	5.7985	5.2719	5.e-002	145.18
558	5.9955	5.636	0.	52.007
559	6.7963	2.8824	0.	-85.339
560	7.4072	2.2916	0.	-30.125
561	6.7655	2.2677	5.e-002	58.279
562	7.4376	3.5207	0.	-15.748
563	6.827	3.4972	5.e-002	81.375
564	8.6668	2.3361	0.	17.486
565	8.0485	2.9298	0.	27.716
566	8.0489	2.3154	5.e-002	10.527
567	9.8835	2.3604	0.	3.7339
568	9.2876	2.9544	0.	0.70094
569	9.2847	2.3567	5.e-002	6.9301
570	11.074	2.3603	0.	9.0396e-002
571	10.492	2.9607	0.	1.4191
572	10.482	2.3641	5.e-002	3.4955
573	12.243	2.3554	0.	-0.47123
574	11.67	2.9451	0.	-1.0646
575	11.666	2.3565	5.e-002	1.9003
576	13.388	2.3531	0.	0.26005
577	12.819	2.9392	0.	0.20843
578	12.819	2.3543	5.e-002	1.4984
579	14.513	2.3516	0.	4.2762
580	13.957	2.9323	0.	0.41633
581	13.957	2.352	5.e-002	1.3119
582	15.63	2.3519	0.	10.767
583	15.072	2.9308	0.	7.0828
584	15.07	2.3513	5.e-002	1.2121
585	16.745	2.3546	0.	16.663
586	16.188	2.9326	0.	13.088
587	16.189	2.3526	5.e-002	1.1768
588	17.857	2.3596	0.	23.451
589	17.299	2.9381	0.	18.955
590	17.3	2.3567	5.e-002	1.1766
591	18.969	2.3661	0.	32.722
592	18.41	2.9474	0.	26.42
593	18.414	2.3626	5.e-002	1.2404
594	20.081	2.3735	0.	46.794
595	19.525	2.9633	0.	37.142
596	19.524	2.3697	5.e-002	1.406
597	21.194	2.3821	0.	68.841
598	20.637	2.9782	0.	54.676
599	20.637	2.3774	5.e-002	1.5435
600	21.75	2.9887	0.	82.134
601	21.751	2.3869	5.e-002	2.0682
602	21.193	3.5848	0.	69.285
603	21.749	3.5905	5.e-002	1.9344
604	20.081	3.568	0.	46.531
605	20.637	3.5791	5.e-002	1.461
606	18.966	3.5446	0.	32.334
607	19.526	3.5569	5.e-002	1.3089
608	17.852	3.5259	0.	23.327
609	18.407	3.5323	5.e-002	1.3763
610	16.741	3.5161	0.	16.672
611	17.297	3.5196	5.e-002	1.3524
612	15.63	3.5115	0.	10.587
613	16.186	3.5127	5.e-002	1.343
614	14.515	3.5116	0.	4.1747
615	15.074	3.5104	5.e-002	1.5297
616	13.387	3.5184	0.	1.748e-002
617	13.957	3.5127	5.e-002	1.5572
618	12.246	3.5289	0.	-0.33666
619	12.818	3.5241	5.e-002	1.6946
620	11.087	3.5454	0.	0.41967
621	11.673	3.5336	5.e-002	2.1902
622	9.896	3.5547	0.	-1.5358
623	10.502	3.5573	5.e-002	3.6947
624	8.6693	3.5482	0.	10.944
625	9.2905	3.5522	5.e-002	6.7366
626	8.0482	3.5443	5.e-002	5.7734
627	2.3609	1.8805	0.	-81.346
628	2.8102	1.6774	5.e-002	67.087
629	3.3051	1.3387	0.	566.83
630	3.4208	4.2284	5.e-002	662.56
631	3.6104	4.3642	0.	4068.3
632	4.6019	0.8962	5.e-002	137.65
633	4.2843	0.9481	0.	942.51
634	3.9883	2.8651	0.	1827.9
635	4.0662	2.6199	5.e-002	281.39
636	3.9331	2.31	0.	126.28
637	3.6986	2.8434	0.	619.63
638	3.4869	2.5767	5.e-002	326.96
639	3.6434	2.2883	0.	-236.89
640	1.9116	2.0836	5.e-002	56.758
641	3.9103	3.1102	5.e-002	354.18
642	3.8551	3.5551	0.	-129.
643	2.8959	3.8267	5.e-002	95.345
644	2.4793	4.1724	0.1	6127.9
645	3.0142	4.2226	0.1	6078.9
646	3.0313	3.1011	0.1	7920.
647	3.1165	3.6729	0.1	7705.9
648	3.6986	2.8434	0.1	10036
649	3.9883	2.8651	0.1	9561.3
650	4.1917	3.1944	0.1	8948.6
651	3.8551	3.5551	0.1	16138
652	2.3609	1.8805	0.1	6389.4
653	1.9581	2.6472	0.1	6296.5
654	1.4314	2.1959	0.1	6527.2
655	1.8777	1.5594	0.1	6054.6
656	3.3268	2.4761	0.1	9566.1
657	3.412	3.0479	0.1	8979.9
658	3.6434	2.2883	0.1	17786
659	4.3223	2.5665	0.1	7631.1
660	3.9331	2.31	0.1	16909
661	4.7492	1.0575	0.1	4558.6
662	4.7312	0.68728	0.1	3322.6
663	4.2843	0.9481	0.1	2685.8
664	3.2767	4.4234	0.1	7653.6
665	3.379	3.8737	0.1	8983.6
666	3.6104	4.3642	0.1	5221.6
667	2.7924	1.249	0.1	5524.6
668	2.9885	2.0265	0.1	7973.9
669	3.3051	1.3387	0.1	4645.7
670	8.6693	3.5482	0.1	3777.7
671	8.0485	2.9298	0.1	3960.6
672	7.4376	3.5207	0.1	4136.7
673	8.101	4.1483	0.1	3938.1
674	9.896	3.5547	0.1	3402.5
675	9.2876	2.9544	0.1	3569.4
676	9.336	4.1579	0.1	3560.8
677	11.087	3.5454	0.1	3066.4
678	10.492	2.9607	0.1	3231.
679	10.53	4.1592	0.1	3223.4
680	12.246	3.5289	0.1	2752.6
681	11.67	2.9451	0.1	2906.4
682	11.693	4.1442	0.1	2903.
683	13.387	3.5184	0.1	2451.7
684	12.819	2.9392	0.1	2599.8
685	12.834	4.1216	0.1	2598.4
686	14.515	3.5116	0.1	2160.9
687	13.957	2.9323	0.1	2302.8
688	13.963	4.0941	0.1	2303.2
689	15.63	3.5115	0.1	1880.9
690	15.072	2.9308	0.1	2019.
691	15.077	4.092	0.1	2019.5
692	16.741	3.5161	0.1	1608.5
693	16.188	2.9326	0.1	1741.9
694	16.187	4.093	0.1	1743.6
695	17.852	3.5259	0.1	1343.8
696	17.299	2.9381	0.1	1473.3
697	17.297	4.0999	0.1	1475.1
698	18.966	3.5446	0.1	1085.7
699	18.41	2.9474	0.1	1212.
700	18.406	4.1164	0.1	1214.2
701	20.081	3.568	0.1	835.26
702	19.525	2.9633	0.1	957.56
703	19.522	4.1488	0.1	959.04
704	21.193	3.5848	0.1	593.39
705	20.637	2.9782	0.1	711.81
706	20.634	4.185	0.1	711.84
707	21.75	2.9887	0.1	473.32
708	21.752	4.1915	0.1	470.75
709	22.31	3.5961	0.1	356.86
710	21.194	2.3821	0.1	593.05
711	22.31	2.3899	0.1	356.85
712	21.754	1.7877	0.1	470.34
713	20.081	2.3735	0.1	835.61
714	20.638	1.783	0.1	711.19
715	18.969	2.3661	0.1	1085.3
716	19.525	1.777	0.1	958.62
717	17.857	2.3596	0.1	1342.8
718	18.415	1.7704	0.1	1212.5
719	16.745	2.3546	0.1	1607.9
720	17.301	1.7654	0.1	1474.7
721	15.63	2.3519	0.1	1881.1
722	16.192	1.7624	0.1	1743.
723	14.513	2.3516	0.1	2161.8
724	15.072	1.7616	0.1	2021.3
725	13.388	2.3531	0.1	2451.8
726	13.96	1.7626	0.1	2304.4
727	12.243	2.3554	0.1	2754.3
728	12.823	1.7649	0.1	2601.1
729	11.074	2.3603	0.1	3071.5
730	11.68	1.7709	0.1	2906.4
731	9.8835	2.3604	0.1	3398.1
732	10.515	1.7773	0.1	3227.2
733	8.6668	2.3361	0.1	3752.6
734	9.3261	1.7718	0.1	3555.1
735	7.4072	2.2916	0.1	4171.
736	8.0836	1.7444	0.1	3965.9
737	6.7963	2.8824	0.1	4346.
738	6.816	4.1189	0.1	4110.6
739	6.2471	3.4412	0.1	5031.2
740	6.711	1.7213	0.1	4204.4
741	6.2034	2.327	0.1	4875.4
742	6.3017	5.0063	0.1	4225.4
743	5.313	5.374	0.1	3827.8
744	5.4052	4.9974	0.1	5028.4
745	5.9955	5.636	0.1	4397.1
746	7.4794	4.7465	0.1	3911.9
747	6.1022	4.4529	0.1	4331.7
748	7.0553	5.3703	0.1	3994.3
749	8.7677	4.758	0.1	3721.5
750	8.2862	5.3762	0.1	3843.5
751	9.9701	4.7624	0.1	3382.1
752	9.4565	5.3819	0.1	3540.6
753	11.136	4.7579	0.1	3060.7
754	10.602	5.3806	0.1	3212.6
755	12.282	4.7369	0.1	2749.6
756	11.735	5.3773	0.1	2901.4
757	13.41	4.6973	0.1	2450.8
758	12.86	5.3596	0.1	2597.5
759	14.525	4.6745	0.1	2162.8
760	13.977	5.3377	0.1	2304.5
761	15.635	4.6734	0.1	1883.4
762	15.088	5.3368	0.1	2020.7
763	16.743	4.6768	0.1	1611.5
764	16.199	5.3366	0.1	1744.4
765	17.851	4.6904	0.1	1346.9
766	17.309	5.3401	0.1	1475.5
767	18.961	4.7206	0.1	1089.1
768	18.42	5.3502	0.1	1213.6
769	20.074	4.7658	0.1	837.29
770	19.533	5.3703	0.1	957.9
771	21.194	4.7917	0.1	590.9
772	20.647	5.3954	0.1	708.15
773	22.316	4.7946	0.1	351.52
774	21.765	5.3963	0.1	462.98
775	22.874	4.1992	0.1	236.26
776	22.882	5.3984	0.1	223.11
777	23.438	4.7984	0.1	117.37
778	22.869	2.9973	0.1	239.52
779	23.435	3.6008	0.1	120.
780	22.874	1.794	0.1	236.02
781	23.434	2.3965	0.1	120.08
782	22.318	1.1917	0.1	350.86
783	23.44	1.1975	0.1	116.68
784	22.884	0.5975	0.1	222.58
785	21.198	1.1886	0.1	590.18
786	21.765	0.59425	0.1	462.6
787	20.082	1.1865	0.1	835.94
788	20.65	0.59433	0.1	706.83
789	18.97	1.1813	0.1	1087.4
790	19.537	0.5922	0.1	956.36
791	17.859	1.1762	0.1	1345.9
792	18.425	0.58911	0.1	1212.
793	16.748	1.1731	0.1	1611.2
794	17.312	0.58705	0.1	1474.7
795	15.634	1.1721	0.1	1884.4
796	16.201	0.58605	0.1	1744.
797	14.519	1.1727	0.1	2164.9
798	15.085	0.58602	0.1	2021.8
799	13.395	1.1744	0.1	2454.6
800	13.974	0.58665	0.1	2306.1
801	12.261	1.1804	0.1	2754.
802	12.849	0.58775	0.1	2600.9
803	11.121	1.1879	0.1	3062.7
804	11.726	0.59263	0.1	2903.3
805	9.957	1.1887	0.1	3384.6
806	10.596	0.59525	0.1	3212.9
807	8.7429	1.1801	0.1	3768.8
808	9.4495	0.59345	0.1	3534.5
809	7.3874	1.1741	0.1	3999.4
810	8.2685	0.58663	0.1	3861.
811	6.1853	0.94668	0.1	4102.6
812	6.0125	1.4515	0.1	4457.2
813	6.981	0.58749	0.1	4096.4
814	1.505	3.3542	0.1	6380.3
815	2.0337	3.8645	0.1	5891.9
816	2.5857	2.7932	0.1	7849.9
817	0.97819	2.9029	0.1	6599.5
818	1.0181	4.114	0.1	6246.6
819	0.50265	3.5488	0.1	7210.3
820	0.93655	1.7277	0.1	6163.5
821	0.47554	2.3541	0.1	7053.7
822	5.6542	2.8857	0.1	5561.
823	5.5049	2.0571	0.1	5126.9
824	5.1097	2.4497	0.1	6001.
825	4.7165	5.2835	0.1	3365.6
826	4.3971	5.488	0.1	1850.6
827	4.9536	5.738	0.1	3112.3
828	5.3053	0.96862	0.1	5003.3
829	5.2873	0.59837	0.1	3790.1
830	5.9533	0.35919	0.1	4128.9
831	1.5469	4.6243	0.1	5794.2
832	2.466	4.8605	0.1	5114.
833	1.9814	5.2591	0.1	5687.9
834	1.3829	1.0911	0.1	5701.2
835	2.3092	0.9279	0.1	5144.6
836	1.8719	0.51759	0.1	5551.9
837	4.8086	4.9069	0.1	4559.2
838	5.2057	4.4441	0.1	5111.8
839	4.4893	4.6115	0.1	4051.3
840	5.1326	1.4734	0.1	5302.4
841	4.4316	1.3594	0.1	3634.4
842	0.461	1.1735	0.1	6629.3
843	0.936	0.57352	0.1	5955.1
844	0.5155	4.7652	0.1	6658.1
845	0.9905	5.3652	0.1	6019.
846	5.5334	3.7752	0.1	5250.5
847	5.0702	3.3319	0.1	6506.5
848	4.286	5.0454	0.1	2814.9
849	3.0009	4.9107	0.1	5196.2
850	3.3346	5.3515	0.1	2928.1
851	2.8596	5.6015	0.1	4004.2
852	3.4663	4.8092	0.1	4521.3
853	4.4136	0.48918	0.1	1966.4
854	4.9701	0.23918	0.1	3322.4
855	3.2873	0.66032	0.1	2877.2
856	2.8123	0.41032	0.1	4148.2
857	3.4834	1.9378	0.1	7504.8
858	4.6831	4.0826	0.1	10281
859	3.5686	3.7596	0.1	15417
860	4.6677	1.864	0.1	9804.5
861	4.5257	2.8958	0.1	6922.
862	4.2199	3.6393	0.1	11483
863	4.2725	2.2565	0.1	10673
864	3.9667	4.25	0.	1912.
865	3.8833	4.	0.	-772.58
866	3.9667	4.	5.e-002	105.81
867	3.9667	4.75	0.	3075.8
868	3.9667	4.5	5.e-002	173.97
869	3.9667	5.25	0.	1474.3
870	3.9667	5.	5.e-002	634.3
871	3.9667	5.75	0.	71.534
872	3.9667	5.5	5.e-002	188.9
873	3.8	4.25	0.	2225.9
874	3.8	4.	5.e-002	825.71
875	3.8	5.25	0.	997.8
876	3.8	5.75	0.	362.14
877	3.8	5.5	5.e-002	81.713
878	3.8	4.75	0.	4656.1
879	3.8	5.	5.e-002	213.74
880	3.8	4.5	5.e-002	1385.
881	3.9667	1.75	0.	2929.3
882	3.8833	2.	0.	-913.62
883	3.9667	2.	5.e-002	185.98
884	3.9667	1.25	0.	3042.9
885	3.9667	1.5	5.e-002	186.42
886	3.9667	0.75	0.	1110.1
887	3.9667	1.	5.e-002	558.6
888	3.9667	0.25	0.	93.907
889	3.9667	0.5	5.e-002	158.63
890	3.8	1.75	0.	662.8
891	3.8	2.	5.e-002	1048.7
892	3.8	0.75	0.	1538.1
893	3.8	0.25	0.	338.84
894	3.8	0.5	5.e-002	80.066
895	3.8	1.25	0.	3484.4
896	3.8	1.	5.e-002	216.38
897	3.8	1.5	5.e-002	769.79
898	4.5231	6.	0.	71.953
899	3.9667	6.	5.e-002	16.99
900	5.6361	6.	0.	47.38
901	5.0796	6.	5.e-002	88.401
902	6.7491	6.	0.	-55.349
903	6.1926	6.	5.e-002	88.736
904	7.862	6.	0.	-36.318
905	7.3056	6.	5.e-002	68.957
906	8.975	6.	0.	52.17
907	8.4185	6.	5.e-002	8.7548
908	10.088	6.	0.	1.04
909	9.5315	6.	5.e-002	6.7226
910	11.201	6.	0.	13.236
911	10.644	6.	5.e-002	15.856
912	12.314	6.	0.	7.6613
913	11.757	6.	5.e-002	16.51
914	13.427	6.	0.	9.4609
915	12.87	6.	5.e-002	15.696
916	14.54	6.	0.	10.476
917	13.983	6.	5.e-002	14.603
918	15.653	6.	0.	11.319
919	15.096	6.	5.e-002	14.672
920	16.766	6.	0.	11.426
921	16.209	6.	5.e-002	14.451
922	17.879	6.	0.	12.196
923	17.322	6.	5.e-002	13.89
924	18.992	6.	0.	13.445
925	18.435	6.	5.e-002	13.352
926	20.105	6.	0.	14.441
927	19.548	6.	5.e-002	13.273
928	21.218	6.	0.	14.319
929	20.661	6.	5.e-002	13.018
930	22.331	6.	0.	13.993
931	21.774	6.	5.e-002	10.632
932	23.444	6.	0.	14.603
933	22.887	6.	5.e-002	7.8101
934	24.	5.4	0.	76.725
935	24.	6.	5.e-002	4.0361
936	24.	4.2	0.	164.39
937	24.	4.8	5.e-002	3.3376
938	24.	3.	0.	184.33
939	24.	3.6	5.e-002	3.0055
940	24.	1.8	0.	164.38
941	24.	2.4	5.e-002	2.9718
942	24.	0.6	0.	76.738
943	24.	1.2	5.e-002	3.3223
944	0.	1.8	0.	-3665.5
945	0.	0.6	0.	-2334.7
946	0.	1.2	5.e-002	124.79
947	0.	3.	0.	-3764.8
948	0.	2.4	5.e-002	131.63
949	0.	4.2	0.	-3761.1
950	0.	3.6	5.e-002	86.171
951	0.	5.4	0.	-2344.
952	0.	4.8	5.e-002	115.82
953	23.444	0.	0.	14.774
954	24.	0.	5.e-002	4.0781
955	4.5231	0.	0.	59.529
956	3.9667	0.	5.e-002	32.099
957	22.331	0.	0.	14.483
958	22.887	0.	5.e-002	7.8674
959	21.218	0.	0.	15.121
960	21.774	0.	5.e-002	10.657
961	20.105	0.	0.	14.896
962	20.661	0.	5.e-002	12.596
963	18.992	0.	0.	13.72
964	19.548	0.	5.e-002	13.679
965	17.879	0.	0.	12.465
966	18.435	0.	5.e-002	14.591
967	16.766	0.	0.	11.354
968	17.322	0.	5.e-002	15.286
969	15.653	0.	0.	10.409
970	16.209	0.	5.e-002	15.806
971	14.54	0.	0.	9.2398
972	15.096	0.	5.e-002	16.161
973	13.427	0.	0.	8.2341
974	13.983	0.	5.e-002	16.454
975	12.314	0.	0.	7.0553
976	12.87	0.	5.e-002	16.788
977	11.201	0.	0.	11.88
978	11.757	0.	5.e-002	16.89
979	10.088	0.	0.	12.647
980	10.644	0.	5.e-002	16.981
981	8.975	0.	0.	51.165
982	9.5315	0.	5.e-002	7.6247
983	7.862	0.	0.	-27.143
984	8.4185	0.	5.e-002	5.7907
985	6.7491	0.	0.	-33.066
986	7.3056	0.	5.e-002	67.516
987	5.6361	0.	0.	50.652
988	6.1926	0.	5.e-002	65.42
989	5.0796	0.	5.e-002	50.311
990	0.475	0.	0.	-305.39
991	0.	0.	5.e-002	390.71
992	3.325	0.	0.	86.163
993	3.8	0.	5.e-002	101.57
994	2.375	0.	0.	228.16
995	2.85	0.	5.e-002	74.842
996	1.425	0.	0.	154.1
997	1.9	0.	5.e-002	108.13
998	0.95	0.	5.e-002	52.783
999	0.475	6.	0.	-307.81
1000	0.	6.	5.e-002	379.36
1001	3.325	6.	0.	99.579
1002	3.8	6.	5.e-002	165.29
1003	1.425	6.	0.	37.27
1004	0.95	6.	5.e-002	55.739
1005	2.375	6.	0.	-35.213
1006	1.9	6.	5.e-002	87.044
1007	2.85	6.	5.e-002	96.956
1008	3.9667	4.25	0.1	9316.8
1009	3.8833	4.	0.1	17770
1010	3.9667	4.75	0.1	3077.8
1011	3.9667	5.25	0.1	1930.9
1012	3.9667	5.75	0.1	701.24
1013	3.8	5.25	0.1	2743.9
1014	3.8	5.75	0.1	947.81
1015	3.8	4.75	0.1	3173.7
1016	3.8	4.25	0.1	10521
1017	3.9667	1.75	0.1	8461.7
1018	3.8833	2.	0.1	18829
1019	3.9667	1.25	0.1	2573.4
1020	3.9667	0.75	0.1	1830.6
1021	3.9667	0.25	0.1	663.21
1022	3.8	0.75	0.1	2917.7
1023	3.8	0.25	0.1	901.62
1024	3.8	1.25	0.1	5401.7
1025	3.8	1.75	0.1	15580
1026	4.5231	6.	0.1	1943.1
1027	5.6361	6.	0.1	3679.3
1028	6.7491	6.	0.1	4169.8
1029	7.862	6.	0.1	3927.2
1030	8.975	6.	0.1	3662.4
1031	10.088	6.	0.1	3371.2
1032	11.201	6.	0.1	3053.7
1033	12.314	6.	0.1	2749.6
1034	13.427	6.	0.1	2451.6
1035	14.54	6.	0.1	2162.9
1036	15.653	6.	0.1	1882.3
1037	16.766	6.	0.1	1609.1
1038	17.879	6.	0.1	1342.8
1039	18.992	6.	0.1	1083.
1040	20.105	6.	0.1	829.51
1041	21.218	6.	0.1	581.33
1042	22.331	6.	0.1	336.48
1043	23.444	6.	0.1	109.96
1044	24.	5.4	0.1	4.0321
1045	24.	4.2	0.1	3.2891
1046	24.	3.	0.1	2.7368
1047	24.	1.8	0.1	3.0393
1048	24.	0.6	0.1	4.0581
1049	0.	1.8	0.1	7527.4
1050	0.	0.6	0.1	4837.4
1051	0.	3.	0.1	7663.9
1052	0.	4.2	0.1	7624.4
1053	0.	5.4	0.1	4852.1
1054	23.444	0.	0.1	110.19
1055	22.331	0.	0.1	336.22
1056	21.218	0.	0.1	580.23
1057	20.105	0.	0.1	827.82
1058	18.992	0.	0.1	1081.3
1059	17.879	0.	0.1	1341.2
1060	16.766	0.	0.1	1607.9
1061	15.653	0.	0.1	1881.6
1062	14.54	0.	0.1	2163.1
1063	13.427	0.	0.1	2452.6
1064	12.314	0.	0.1	2750.5
1065	11.201	0.	0.1	3053.8
1066	10.088	0.	0.1	3363.1
1067	8.975	0.	0.1	3626.4
1068	7.862	0.	0.1	3957.5
1069	6.7491	0.	0.1	4133.2
1070	5.6361	0.	0.1	3663.
1071	4.5231	0.	0.1	1956.1
1072	3.325	0.	0.1	1858.7
1073	2.375	0.	0.1	4542.7
1074	1.425	0.	0.1	5806.7
1075	0.475	0.	0.1	4199.9
1076	0.475	6.	0.1	4250.9
1077	1.425	6.	0.1	5911.1
1078	2.375	6.	0.1	4587.1
1079	3.325	6.	0.1	1828.7
