Node Numbers,X Locations (inches),Y Locations (inches),Z Locations (inches),Equivalent Elastic Strains (in/in),Equivalent Stress (psi),Max Principal Elastic Strain (in/in),Max Principal Stress (psi),Middle Principal Elastic Strain (in/in),Middle Principal Stress (psi),Min Principal Elastic Strain (in/in),Min Principal Stress (psi),Total Deformation (in)
1,0.16,2,0,0.00093115,9305.1,0.00051538,1202.9,1.3754e-05,-2566.1,-0.00089518,-9395.4,0.00022257
2,0.32,2,0,0.00092582,9251.8,0.00040632,-308.69,8.6186e-05,-2714.1,-0.00095347,-10526,0.00083051
3,0.48,2,0,0.0011416,11408,0.00048036,214.61,0.00020939,-1821.3,-0.0011552,-12075,0.0018794
4,0.64,2,0,0.0017191,17180,0.00065495,482.63,0.00045943,-986.41,-0.001723,-17384,0.0033946
5,0.96667,2.1818,0,0.002166,21645,0.00077311,824.25,0.00069115,208.39,-0.0021478,-21122,0.010813
6,0.96667,2.3636,0,0.0016961,16949,0.00057738,-29.58,0.0005269,-408.89,-0.0017032,-17165,0.011852
7,0.96667,2.5455,0,0.0014982,14972,0.00054742,-2.2734,0.00040213,-1093.9,-0.0015139,-15490,0.012541
8,0.96667,2.7273,0,0.0013961,13951,0.00053323,-5.9855,0.00033235,-1515.4,-0.0014158,-14650,0.012962
9,0.96667,2.9091,0,0.001353,13520,0.00052869,-3.9703,0.00030016,-1721,-0.0013741,-14301,0.013161
10,0.96667,3.0909,0,0.001353,13520,0.00052869,-3.9703,0.00030016,-1721,-0.0013741,-14301,0.013161
11,0.96667,3.2727,0,0.0013961,13951,0.00053323,-5.9855,0.00033235,-1515.4,-0.0014158,-14650,0.012962
12,0.96667,3.4545,0,0.0014982,14972,0.00054742,-2.2734,0.00040213,-1093.9,-0.0015139,-15490,0.012541
13,0.96667,3.6364,0,0.0016961,16949,0.00057738,-29.58,0.0005269,-408.89,-0.0017032,-17165,0.011852
14,0.96667,3.8182,0,0.002166,21645,0.00077311,824.24,0.00069115,208.39,-0.0021478,-21122,0.010813
15,0.16,4,0,0.00093115,9305.1,0.00051538,1202.9,1.3754e-05,-2566.1,-0.00089518,-9395.4,0.00022257
16,0.32,4,0,0.00092582,9251.9,0.00040632,-308.69,8.6186e-05,-2714.1,-0.00095347,-10526,0.00083051
17,0.48,4,0,0.0011416,11408,0.00048036,214.61,0.00020939,-1821.3,-0.0011552,-12075,0.0018794
18,0.64,4,0,0.0017191,17180,0.00065495,482.63,0.00045943,-986.41,-0.001723,-17384,0.0033946
19,0.64,5.8182,0,3.4663e-05,346.39,1.6235e-05,50.075,7.5111e-06,-15.47,-3.3606e-05,-324.41,8.0738e-05
20,0.64,5.6364,0,5.8093e-05,580.53,2.5165e-05,64.761,1.4618e-05,-14.486,-5.683e-05,-551.32,0.00013123
21,0.64,5.4545,0,9.1688e-05,916.24,3.9482e-05,102.47,2.3541e-05,-17.298,-8.9649e-05,-867.76,0.00019976
22,0.64,5.2727,0,0.00013755,1374.6,5.9869e-05,164.29,3.515e-05,-21.436,-0.00013417,-1293.7,0.00029904
23,0.64,5.0909,0,0.00020063,2004.9,8.912e-05,264.62,5.0332e-05,-26.829,-0.00019499,-1870.1,0.00044428
24,0.64,4.9091,0,0.00028753,2873.3,0.00013105,422.55,7.0067e-05,-35.63,-0.00027819,-2652.3,0.00065389
25,0.64,4.7273,0,0.00040854,4082.6,0.00019161,673.73,9.6406e-05,-41.617,-0.00039305,-3719.2,0.00094988
26,0.64,4.5455,0,0.00057838,5779.8,0.00027847,1034.4,0.00013047,-77.605,-0.00055402,-5220.6,0.0013568
27,0.64,4.3636,0,0.00084118,8406,0.00041826,1716.7,0.00018497,-36.109,-0.00079876,-7427.5,0.0018999
28,0.64,4.1818,0,0.0012538,12530,0.00059615,2006,0.00027381,-415.86,-0.0012091,-11558,0.0025878
29,0.48,5.8182,0,4.1319e-05,412.9,1.7278e-05,39.424,1.091e-05,-8.4228,-4.0583e-05,-395.32,4.2587e-05
30,0.48,5.6364,0,5.5216e-05,551.78,2.1188e-05,15.839,1.4513e-05,-34.311,-5.5359e-05,-559.3,7.58e-05
31,0.48,5.4545,0,8.1381e-05,813.25,3.1578e-05,16.483,2.0091e-05,-69.83,-8.1944e-05,-836.48,0.00011813
32,0.48,5.2727,0,0.00011972,1196.4,4.6319e-05,22.287,2.9616e-05,-103.21,-0.0001206,-1231.9,0.00017814
33,0.48,5.0909,0,0.00017359,1734.7,6.6456e-05,32.869,4.428e-05,-133.75,-0.0001747,-1779.1,0.00026545
34,0.48,4.9091,0,0.00024776,2475.9,9.3815e-05,49.924,6.5376e-05,-163.76,-0.000249,-2525.9,0.00039083
35,0.48,4.7273,0,0.00034898,3487.4,0.00013076,73.938,9.4911e-05,-195.44,-0.00035026,-3540.3,0.0005659
36,0.48,4.5455,0,0.00048566,4853.3,0.00018147,104.73,0.00013317,-258.2,-0.00048725,-4919.8,0.00080134
37,0.48,4.3636,0,0.00066723,6667.7,0.00025086,120.62,0.00017797,-427.02,-0.00067075,-6804,0.0011032
38,0.48,4.1818,0,0.00090987,9092.5,0.00035343,151.96,0.00022082,-844.44,-0.00091755,-9397.7,0.0014686
39,0.32,5.8182,0,4.2312e-05,422.83,1.7878e-05,44.709,1.125e-05,-5.0932,-4.1417e-05,-400.81,1.6098e-05
40,0.32,5.6364,0,5.1051e-05,510.16,1.9434e-05,-4.4009,1.187e-05,-61.232,-5.193e-05,-540.6,3.3214e-05
41,0.32,5.4545,0,7.1903e-05,718.54,2.9633e-05,-14.764,1.1558e-05,-150.57,-7.3746e-05,-791.51,5.3354e-05
42,0.32,5.2727,0,0.00010486,1047.9,4.4018e-05,-24.792,1.4929e-05,-243.36,-0.0001077,-1164.7,8.1222e-05
43,0.32,5.0909,0,0.00015228,1521.7,6.367e-05,-38.623,2.1916e-05,-352.35,-0.00015648,-1692.8,0.0001217
44,0.32,4.9091,0,0.00021783,2176.8,9.0306e-05,-58.86,3.2527e-05,-492.99,-0.00022395,-2420,0.00017979
45,0.32,4.7273,0,0.00030602,3058.1,0.00012618,-87.036,4.662e-05,-684.79,-0.00031473,-3399.8,0.00026022
46,0.32,4.5455,0,0.00042217,4218.7,0.00017433,-123.72,6.343e-05,-956.95,-0.00043433,-4696.9,0.00036644
47,0.32,4.3636,0,0.00056798,5675.9,0.00023761,-178.19,7.7996e-05,-1377.5,-0.00058486,-6357.9,0.00049897
48,0.32,4.1818,0,0.00074098,7404.7,0.00031905,-233.25,8.322e-05,-2005.2,-0.00076297,-8363.2,0.00065499
49,0.16,5.8182,0,3.0324e-05,303.03,1.3234e-05,39.754,8.0294e-06,0.64935,-2.9447e-05,-280.93,3.2814e-06
50,0.16,5.6364,0,4.2446e-05,424.17,2.1171e-05,44.356,4.7665e-06,-78.903,-4.1668e-05,-427.79,8.4339e-06
51,0.16,5.4545,0,6.5123e-05,650.78,3.4881e-05,73.172,2.4758e-06,-170.31,-6.3262e-05,-664.24,1.3992e-05
52,0.16,5.2727,0,9.8067e-05,979.99,5.3278e-05,113.12,2.285e-06,-270.02,-9.4944e-05,-1000.6,2.151e-05
53,0.16,5.0909,0,0.0001455,1454,7.9286e-05,172.36,3.3445e-06,-398.23,-0.00014068,-1480.4,3.2529e-05
54,0.16,4.9091,0,0.00021229,2121.5,0.00011587,259.14,5.3128e-06,-571.54,-0.00020503,-2152,4.846e-05
55,0.16,4.7273,0,0.00030311,3029,0.00016568,379.29,8.0846e-06,-804.8,-0.00029245,-3062.9,7.0505e-05
56,0.16,4.5455,0,0.00042137,4210.8,0.00023069,535.21,1.1256e-05,-1113.6,-0.00040624,-4250.5,9.9302e-05
57,0.16,4.3636,0,0.0005681,5677.1,0.00031188,725.62,1.3595e-05,-1515.6,-0.0005473,-5730,0.00013462
58,0.16,4.1818,0,0.00074021,7397,0.00040815,946.06,1.3484e-05,-2019.3,-0.00071242,-7473.5,0.00017574
59,0.16,3.8182,0,0.001127,11263,0.00062468,1489.4,1.8404e-05,-3065.9,-0.0010825,-11337,0.00027412
60,0.32,3.8182,0,0.0010937,10929,0.00048263,-376.09,9.5047e-05,-3288.2,-0.0011265,-12466,0.0010178
61,0.48,3.8182,0,0.0013316,13307,0.0005653,167.36,0.00022607,-2381.5,-0.0013508,-14230,0.0023047
62,0.64,3.8182,0,0.0017094,17082,0.0006453,108.01,0.00043197,-1494.9,-0.0017273,-17719,0.0042061
63,0.8,3.8182,0,0.0021936,21920,0.00077549,254.74,0.00065891,-621.2,-0.0021985,-22091,0.0068931
64,0.16,3.6364,0,0.0013056,13047,0.00072501,1775.8,2.3951e-05,-3491.7,-0.0012524,-13082,0.00032527
65,0.32,3.6364,0,0.0012163,12154,0.0005374,-433.03,0.0001027,-3699.2,-0.0012532,-13887,0.0011966
66,0.48,3.6364,0,0.0013934,13925,0.00059549,108.05,0.00022191,-2698.8,-0.0014161,-15006,0.0026925
67,0.64,3.6364,0,0.0015958,15947,0.0006052,-51.365,0.00038355,-1716.8,-0.0016193,-16766,0.0048715
68,0.8,3.6364,0,0.0017404,17392,0.00061449,-37.753,0.00050174,-884.88,-0.0017545,-17838,0.0078338
69,0.16,3.4545,0,0.0014477,14467,0.00080712,2026.3,2.5361e-05,-3847.5,-0.0013862,-14453,0.00036841
70,0.32,3.4545,0,0.0012862,12853,0.00057182,-504.7,9.6098e-05,-4079.1,-0.0013263,-14766,0.0013419
71,0.48,3.4545,0,0.001401,14000,0.00061492,135.55,0.00019321,-3033,-0.0014231,-15177,0.0029912
72,0.64,3.4545,0,0.0014798,14788,0.00059359,-26.327,0.00029717,-2253.6,-0.001506,-15802,0.0053486
73,0.8,3.4545,0,0.0015359,15348,0.00058156,6.8375,0.00037623,-1535.9,-0.001556,-16054,0.008462
74,0.16,3.2727,0,0.0015431,15420,0.00086396,2201.6,2.3046e-05,-4116.6,-0.0014752,-15374,0.00039822
75,0.32,3.2727,0,0.0013237,13228,0.00059479,-549.59,8.2219e-05,-4400.8,-0.0013652,-15276,0.0014402
76,0.48,3.2727,0,0.001393,13920,0.00062667,142.35,0.00016147,-3353,-0.0014143,-15192,0.0031865
77,0.64,3.2727,0,0.0014161,14151,0.00058847,-40.952,0.00024328,-2634.6,-0.0014437,-15310,0.0056481
78,0.8,3.2727,0,0.0014332,14322,0.0005672,3.3184,0.00030522,-1965.1,-0.0014564,-15201,0.0088443
79,0.16,3.0909,0,0.0015905,15894,0.00089267,2289.4,2.0789e-05,-4261.5,-0.0015192,-15833,0.0004131
80,0.32,3.0909,0,0.0013403,13394,0.00060633,-572.81,7.264e-05,-4582.7,-0.0013822,-15514,0.0014889
81,0.48,3.0909,0,0.0013879,13870,0.00063322,148.11,0.00014301,-3535.1,-0.0014083,-15191,0.0032816
82,0.64,3.0909,0,0.0013874,13864,0.00058839,-38.152,0.0002151,-2842.9,-0.001415,-15091,0.0057913
83,0.8,3.0909,0,0.0013899,13890,0.0005632,6.8685,0.00027142,-2185.5,-0.0014139,-14849,0.0090253
84,0.16,2.9091,0,0.0015905,15894,0.00089267,2289.4,2.0789e-05,-4261.5,-0.0015192,-15833,0.0004131
85,0.32,2.9091,0,0.0013403,13394,0.00060633,-572.81,7.264e-05,-4582.7,-0.0013822,-15514,0.0014889
86,0.48,2.9091,0,0.0013879,13870,0.00063322,148.11,0.00014301,-3535.1,-0.0014083,-15191,0.0032816
87,0.64,2.9091,0,0.0013874,13864,0.00058839,-38.152,0.0002151,-2842.9,-0.001415,-15091,0.0057913
88,0.8,2.9091,0,0.0013899,13890,0.0005632,6.8685,0.00027142,-2185.5,-0.0014139,-14849,0.0090253
89,0.16,2.7273,0,0.0015431,15420,0.00086396,2201.6,2.3046e-05,-4116.6,-0.0014752,-15374,0.00039822
90,0.32,2.7273,0,0.0013237,13228,0.00059479,-549.59,8.2219e-05,-4400.8,-0.0013652,-15276,0.0014402
91,0.48,2.7273,0,0.001393,13920,0.00062667,142.35,0.00016147,-3353,-0.0014143,-15192,0.0031865
92,0.64,2.7273,0,0.0014161,14151,0.00058847,-40.952,0.00024328,-2634.6,-0.0014437,-15310,0.0056481
93,0.8,2.7273,0,0.0014332,14322,0.0005672,3.3184,0.00030522,-1965.1,-0.0014564,-15201,0.0088443
94,0.16,2.5455,0,0.0014477,14467,0.00080712,2026.3,2.5361e-05,-3847.5,-0.0013862,-14453,0.00036841
95,0.32,2.5455,0,0.0012862,12853,0.00057182,-504.7,9.6098e-05,-4079.1,-0.0013263,-14766,0.0013419
96,0.48,2.5455,0,0.001401,14000,0.00061492,135.55,0.00019321,-3033,-0.0014231,-15177,0.0029912
97,0.64,2.5455,0,0.0014798,14788,0.00059359,-26.327,0.00029717,-2253.6,-0.001506,-15802,0.0053486
98,0.8,2.5455,0,0.0015359,15348,0.00058156,6.8375,0.00037623,-1535.9,-0.001556,-16054,0.008462
99,0.16,2.3636,0,0.0013056,13047,0.00072501,1775.8,2.3951e-05,-3491.7,-0.0012524,-13082,0.00032527
100,0.32,2.3636,0,0.0012163,12154,0.0005374,-433.03,0.0001027,-3699.2,-0.0012532,-13887,0.0011966
101,0.48,2.3636,0,0.0013934,13925,0.00059549,108.05,0.00022191,-2698.8,-0.0014161,-15006,0.0026925
102,0.64,2.3636,0,0.0015958,15947,0.0006052,-51.365,0.00038355,-1716.8,-0.0016193,-16766,0.0048715
103,0.8,2.3636,0,0.0017404,17392,0.00061449,-37.753,0.00050174,-884.88,-0.0017545,-17838,0.0078338
104,0.16,2.1818,0,0.001127,11263,0.00062468,1489.4,1.8404e-05,-3065.9,-0.0010825,-11337,0.00027412
105,0.32,2.1818,0,0.0010937,10929,0.00048263,-376.09,9.5047e-05,-3288.2,-0.0011265,-12466,0.0010178
106,0.48,2.1818,0,0.0013316,13307,0.0005653,167.36,0.00022607,-2381.5,-0.0013508,-14230,0.0023047
107,0.64,2.1818,0,0.0017094,17082,0.0006453,108.01,0.00043197,-1494.9,-0.0017273,-17719,0.0042061
108,0.8,2.1818,0,0.0021936,21920,0.00077549,254.74,0.00065891,-621.2,-0.0021985,-22090,0.0068931
109,1.1509,5.8182,0,0.00011462,1145.4,5.38e-05,178.83,2.5944e-05,-30.471,-0.00011065,-1056.8,0.0044754
110,1.3352,5.8182,0,0.0001739,1737.8,6.855e-05,130.67,5.0135e-05,-7.6935,-0.00017139,-1672.2,0.0062662
111,1.5195,5.8182,0,0.00023643,2362.7,8.8898e-05,129.4,7.1257e-05,-3.1387,-0.000234,-2296.7,0.01538
112,1.7037,5.8182,0,0.00029288,2926.8,0.0001073,128.15,9.0209e-05,-0.29381,-0.00029049,-2860.7,0.024893
113,1.888,5.8182,0,0.00034173,3415,0.00012282,121.11,0.00010675,0.35274,-0.00033951,-3352.6,0.034639
114,2.0723,5.8182,0,0.00038281,3825.5,0.00013545,109.9,0.00012089,0.49934,-0.00038082,-3769.1,0.044624
115,2.2565,5.8182,0,0.00041645,4161.7,0.00014542,96.202,0.00013267,0.40727,-0.00041473,-4112.5,0.05487
116,2.4408,5.8182,0,0.00044331,4430.1,0.00015308,81.554,0.00014226,0.28249,-0.00044186,-4388.6,0.065398
117,2.6251,5.8182,0,0.0004642,4638.8,0.00015877,67.068,0.00014987,0.17604,-0.00046302,-4604.8,0.076227
118,2.8093,5.8182,0,0.00047996,4796.2,0.00016284,53.476,0.00015574,0.10423,-0.00047902,-4769.2,0.08737
119,2.9936,5.8182,0,0.00049141,4910.7,0.0001656,41.197,0.00016013,0.062441,-0.00049069,-4889.9,0.098838
120,3.1779,5.8182,0,0.00049931,4989.6,0.00016731,30.423,0.00016327,0.041446,-0.00049878,-4974.3,0.11064
121,3.3621,5.8182,0,0.0005043,5039.5,0.00016819,21.195,0.00016537,0.031288,-0.00050394,-5028.9,0.12278
122,3.5464,5.8182,0,0.00050695,5066,0.00016842,13.462,0.00016663,0.021727,-0.00050672,-5059.3,0.13526
123,3.7307,5.8182,0,0.00050773,5073.8,0.00016815,7.1266,0.0001672,-0.0053435,-0.00050761,-5070.3,0.14809
124,3.9149,5.8182,0,0.00050703,5066.8,0.00016751,2.1699,0.0001672,-0.16923,-0.00050699,-5065.8,0.16126
125,4.0992,5.8182,0,0.00050515,5048,0.00016684,0.29243,0.00016649,-2.3182,-0.00050519,-5049.1,0.17478
126,4.2835,5.8182,0,0.00050236,5020.2,0.00016606,0.17867,0.00016533,-5.2821,-0.00050245,-5022.7,0.18864
127,4.4677,5.8182,0,0.00049886,4985.2,0.00016501,0.15244,0.00016399,-7.5217,-0.00049899,-4988.9,0.20284
128,4.652,5.8182,0,0.00049482,4944.7,0.00016375,0.14087,0.00016252,-9.0898,-0.00049497,-4949.2,0.21738
129,4.8363,5.8182,0,0.00049035,4900.1,0.00016233,0.13371,0.00016096,-10.089,-0.00049052,-4905.1,0.23225
130,5.0205,5.8182,0,0.00048556,4852.3,0.00016077,0.12825,0.00015934,-10.618,-0.00048574,-4857.5,0.24746
131,5.2048,5.8182,0,0.00048054,4802,0.00015912,0.12365,0.00015767,-10.762,-0.00048072,-4807.4,0.263
132,5.3891,5.8182,0,0.00047533,4750,0.00015739,0.11965,0.00015597,-10.597,-0.00047551,-4755.3,0.27886
133,5.5733,5.8182,0,0.00047,4696.8,0.00015561,0.11627,0.00015424,-10.187,-0.00047017,-4701.8,0.29505
134,5.7576,5.8182,0,0.00046458,4642.6,0.00015379,0.11359,0.0001525,-9.5889,-0.00046474,-4647.3,0.31156
135,5.9419,5.8182,0,0.00045909,4587.7,0.00015195,0.11181,0.00015075,-8.8478,-0.00045924,-4592.1,0.32838
136,6.1261,5.8182,0,0.00045356,4532.5,0.00015008,0.11117,0.000149,-8.0027,-0.00045369,-4536.4,0.34551
137,6.3104,5.8182,0,0.000448,4476.9,0.0001482,0.11205,0.00014724,-7.0857,-0.00044812,-4480.4,0.36295
138,6.4947,5.8182,0,0.00044244,4421.3,0.00014632,0.11503,0.00014549,-6.1234,-0.00044254,-4424.3,0.3807
139,6.6789,5.8182,0,0.00043687,4365.7,0.00014443,0.12108,0.00014373,-5.1376,-0.00043695,-4368.2,0.39874
140,6.8632,5.8182,0,0.0004313,4310.1,0.00014255,0.13205,0.00014198,-4.147,-0.00043137,-4312.1,0.41709
141,7.0475,5.8182,0,0.00042575,4254.6,0.00014067,0.15181,0.00014022,-3.1687,-0.0004258,-4256.1,0.43572
142,7.2317,5.8182,0,0.00042021,4199.2,0.00013879,0.1899,0.00013847,-2.2224,-0.00042024,-4200.2,0.45464
143,7.416,5.8182,0,0.00041469,4144,0.00013694,0.27521,0.00013672,-1.3448,-0.0004147,-4144.5,0.47385
144,7.6003,5.8182,0,0.00040918,4089,0.0001351,0.50677,0.00013495,-0.64062,-0.00040918,-4089.1,0.49334
145,7.7845,5.8182,0,0.0004037,4034.2,0.00013332,1.0437,0.00013315,-0.27309,-0.00040368,-4033.8,0.51311
146,7.9688,5.8182,0,0.00039823,3979.6,0.00013157,1.7817,0.00013132,-0.14063,-0.00039821,-3978.8,0.53315
147,8.1531,5.8182,0,0.00039279,3925.2,0.00012984,2.562,0.00012949,-0.08613,-0.00039275,-3924,0.55346
148,8.3373,5.8182,0,0.00038738,3871.1,0.00012812,3.3328,0.00012766,-0.058438,-0.00038732,-3869.5,0.57403
149,8.5216,5.8182,0,0.00038198,3817.2,0.0001264,4.0785,0.00012585,-0.042248,-0.00038191,-3815.2,0.59487
150,8.7059,5.8182,0,0.00037661,3763.5,0.00012468,4.794,0.00012404,-0.031885,-0.00037653,-3761.1,0.61597
151,8.8901,5.8182,0,0.00037126,3710,0.00012297,5.4776,0.00012224,-0.024826,-0.00037117,-3707.3,0.63732
152,9.0744,5.8182,0,0.00036593,3656.8,0.00012127,6.129,0.00012045,-0.019797,-0.00036583,-3653.8,0.65892
153,9.2587,5.8182,0,0.00036063,3603.8,0.00011957,6.7491,0.00011867,-0.016089,-0.00036052,-3600.5,0.68077
154,9.4429,5.8182,0,0.00035535,3551.1,0.00011788,7.3387,0.0001169,-0.013282,-0.00035523,-3547.4,0.70287
155,9.6272,5.8182,0,0.00035009,3498.5,0.00011619,7.8994,0.00011514,-0.011111,-0.00034996,-3494.6,0.7252
156,9.8115,5.8182,0,0.00034486,3446.2,0.00011451,8.4325,0.00011338,-0.0093925,-0.00034471,-3442,0.74778
157,9.9957,5.8182,0,0.00033964,3394.1,0.00011283,8.9396,0.00011164,-0.0080233,-0.00033949,-3389.6,0.77058
158,10.18,5.8182,0,0.00033445,3342.2,0.00011116,9.4223,0.0001099,-0.0069103,-0.00033429,-3337.5,0.79361
159,10.364,5.8182,0,0.00032928,3290.5,0.00010949,9.8822,0.00010817,-0.0059867,-0.00032911,-3285.6,0.81688
160,10.549,5.8182,0,0.00032413,3239.1,0.00010783,10.321,0.00010645,-0.0052646,-0.00032395,-3233.9,0.84036
161,10.733,5.8182,0,0.000319,3187.8,0.00010617,10.74,0.00010474,-0.0046287,-0.00031882,-3182.5,0.86406
162,10.917,5.8182,0,0.0003139,3136.8,0.00010452,11.141,0.00010303,-0.004049,-0.00031371,-3131.2,0.88798
163,11.101,5.8182,0,0.00030882,3086,0.00010287,11.525,0.00010134,-0.0035844,-0.00030862,-3080.2,0.91211
164,11.286,5.8182,0,0.00030375,3035.4,0.00010123,11.894,9.9648e-05,-0.0031919,-0.00030355,-3029.5,0.93645
165,11.47,5.8182,0,0.00029871,2985,9.9598e-05,12.249,9.7967e-05,-0.0028837,-0.0002985,-2978.9,0.96099
166,11.654,5.8182,0,0.00029369,2934.9,9.7969e-05,12.591,9.6293e-05,-0.002583,-0.00029347,-2928.6,0.98573
167,11.838,5.8182,0,0.00028869,2884.9,9.6347e-05,12.922,9.4627e-05,-0.0022815,-0.00028847,-2878.4,1.0107
168,12.023,5.8182,0,0.00028371,2835.2,9.4731e-05,13.243,9.2968e-05,-0.0020428,-0.00028349,-2828.5,1.0358
169,12.207,5.8182,0,0.00027876,2785.6,9.3121e-05,13.554,9.1317e-05,-0.0018367,-0.00027852,-2778.8,1.0611
170,12.391,5.8182,0,0.00027382,2736.3,9.1517e-05,13.857,8.9673e-05,-0.0016831,-0.00027358,-2729.3,1.0867
171,12.575,5.8182,0,0.0002689,2687.2,8.992e-05,14.153,8.8036e-05,-0.001513,-0.00026866,-2680.1,1.1124
172,12.76,5.8182,0,0.00026401,2638.3,8.8328e-05,14.443,8.6406e-05,-0.0013249,-0.00026376,-2631,1.1382
173,12.944,5.8182,0,0.00025913,2589.5,8.6744e-05,14.728,8.4783e-05,-0.0011798,-0.00025888,-2582.2,1.1643
174,13.128,5.8182,0,0.00025428,2541,8.5165e-05,15.008,8.3168e-05,-0.0010555,-0.00025402,-2533.5,1.1905
175,13.313,5.8182,0,0.00024945,2492.7,8.3593e-05,15.285,8.1559e-05,-0.00096537,-0.00024918,-2485.1,1.2169
176,13.497,5.8182,0,0.00024463,2444.7,8.2028e-05,15.559,7.9957e-05,-0.00085395,-0.00024437,-2436.8,1.2435
177,13.681,5.8182,0,0.00023984,2396.8,8.047e-05,15.831,7.8362e-05,-0.00072097,-0.00023957,-2388.8,1.2703
178,13.865,5.8182,0,0.00023507,2349.1,7.8918e-05,16.102,7.6775e-05,-0.00061931,-0.00023479,-2341,1.2972
179,14.05,5.8182,0,0.00023032,2301.6,7.7372e-05,16.372,7.5193e-05,-0.00052982,-0.00023004,-2293.4,1.3242
180,14.234,5.8182,0,0.00022559,2254.3,7.5834e-05,16.643,7.3619e-05,-0.00046659,-0.0002253,-2246,1.3514
181,14.418,5.8182,0,0.00022088,2207.3,7.4302e-05,16.914,7.2051e-05,-0.00038857,-0.00022059,-2198.8,1.3788
182,14.602,5.8182,0,0.00021619,2160.4,7.2778e-05,17.187,7.049e-05,-0.00027964,-0.00021589,-2151.8,1.4063
183,14.787,5.8182,0,0.00021152,2113.8,7.126e-05,17.461,6.8936e-05,-0.00020117,-0.00021122,-2105,1.434
184,14.971,5.8182,0,0.00020687,2067.3,6.9749e-05,17.739,6.7388e-05,-0.00013013,-0.00020657,-2058.4,1.4618
185,15.155,5.8182,0,0.00020225,2021.1,6.8245e-05,18.02,6.5847e-05,-8.1447e-05,-0.00020193,-2012,1.4897
186,15.339,5.8182,0,0.00019764,1975,6.6748e-05,18.304,6.4312e-05,-1.0515e-05,-0.00019732,-1965.8,1.5178
187,15.524,5.8182,0,0.00019305,1929.2,6.5258e-05,18.593,6.2784e-05,8.2711e-05,-0.00019273,-1919.8,1.546
188,15.708,5.8182,0,0.00018848,1883.5,6.3776e-05,18.887,6.1262e-05,0.00015075,-0.00018816,-1874,1.5743
189,15.892,5.8182,0,0.00018394,1838.1,6.23e-05,19.186,5.9747e-05,0.0002152,-0.0001836,-1828.4,1.6028
190,16.077,5.8182,0,0.00017941,1792.9,6.0832e-05,19.491,5.8238e-05,0.00025747,-0.00017907,-1783.1,1.6314
191,16.261,5.8182,0,0.00017491,1747.8,5.9371e-05,19.803,5.6735e-05,0.00032282,-0.00017456,-1737.9,1.6601
192,16.445,5.8182,0,0.00017042,1703,5.7917e-05,20.121,5.5239e-05,0.00040629,-0.00017007,-1692.9,1.6889
193,16.629,5.8182,0,0.00016595,1658.4,5.647e-05,20.447,5.3749e-05,0.00047042,-0.0001656,-1648.1,1.7178
194,16.814,5.8182,0,0.00016151,1614,5.503e-05,20.78,5.2265e-05,0.00052633,-0.00016114,-1603.5,1.7469
195,16.998,5.8182,0,0.00015708,1569.7,5.3598e-05,21.122,5.0787e-05,0.00056493,-0.00015671,-1559.1,1.776
196,17.182,5.8182,0,0.00015267,1525.7,5.2173e-05,21.473,4.9315e-05,0.00062049,-0.0001523,-1514.8,1.8053
197,17.366,5.8182,0,0.00014829,1481.9,5.0755e-05,21.832,4.785e-05,0.00069083,-0.0001479,-1470.8,1.8347
198,17.551,5.8182,0,0.00014392,1438.2,4.9345e-05,22.201,4.639e-05,0.0007391,-0.00014353,-1427,1.8641
199,17.735,5.8182,0,0.00013957,1394.8,4.7941e-05,22.579,4.4936e-05,0.0007802,-0.00013918,-1383.3,1.8937
200,17.919,5.8182,0,0.00013524,1351.5,4.6545e-05,22.968,4.3488e-05,0.00080034,-0.00013484,-1339.9,1.9233
201,18.103,5.8182,0,0.00013094,1308.5,4.5156e-05,23.366,4.2046e-05,0.00082715,-0.00013052,-1296.6,1.9531
202,18.288,5.8182,0,0.00012665,1265.6,4.3774e-05,23.775,4.061e-05,0.00086144,-0.00012622,-1253.5,1.9829
203,18.472,5.8182,0,0.00012237,1222.9,4.2399e-05,24.194,3.9179e-05,0.0008674,-0.00012194,-1210.6,2.0128
204,18.656,5.8182,0,0.00011812,1180.4,4.1031e-05,24.624,3.7754e-05,0.00085228,-0.00011768,-1167.9,2.0428
205,18.841,5.8182,0,0.00011389,1138.1,3.967e-05,25.064,3.6334e-05,0.00080518,-0.00011344,-1125.3,2.0729
206,19.025,5.8182,0,0.00010967,1096,3.8316e-05,25.514,3.492e-05,0.00075053,-0.00010921,-1083,2.103
207,19.209,5.8182,0,0.00010547,1054,3.6968e-05,25.974,3.3511e-05,0.00067444,-0.00010501,-1040.8,2.1332
208,19.393,5.8182,0,0.00010129,1012.2,3.5627e-05,26.443,3.2108e-05,0.000552,-0.00010082,-998.73,2.1635
209,19.578,5.8182,0,9.7128e-05,970.6,3.4292e-05,26.921,3.0709e-05,0.00038316,-9.6641e-05,-956.86,2.1938
210,19.762,5.8182,0,9.298e-05,929.16,3.2964e-05,27.407,2.9316e-05,0.00014894,-9.2484e-05,-915.16,2.2243
211,19.946,5.8182,0,8.885e-05,887.89,3.1641e-05,27.9,2.7928e-05,-0.00014067,-8.8342e-05,-873.61,2.2547
212,20.13,5.8182,0,8.4735e-05,846.77,3.0324e-05,28.399,2.6544e-05,-0.00049609,-8.4216e-05,-832.21,2.2853
213,20.315,5.8182,0,8.0636e-05,805.8,2.9012e-05,28.903,2.5165e-05,-0.00096274,-8.0105e-05,-790.96,2.3159
214,20.499,5.8182,0,7.6552e-05,764.99,2.7705e-05,29.408,2.3791e-05,-0.0015524,-7.6009e-05,-749.86,2.3465
215,20.683,5.8182,0,7.2482e-05,724.32,2.6403e-05,29.914,2.2422e-05,-0.0022872,-7.1927e-05,-708.9,2.3772
216,20.867,5.8182,0,6.8426e-05,683.79,2.5106e-05,30.417,2.1057e-05,-0.0031937,-6.7858e-05,-668.08,2.4079
217,21.052,5.8182,0,6.4384e-05,643.4,2.3812e-05,30.914,1.9697e-05,-0.0043065,-6.3803e-05,-627.39,2.4387
218,21.236,5.8182,0,6.0355e-05,603.13,2.2521e-05,31.401,1.8341e-05,-0.0056912,-5.976e-05,-586.82,2.4695
219,21.42,5.8182,0,5.6338e-05,563,2.1233e-05,31.875,1.699e-05,-0.0074027,-5.5729e-05,-546.38,2.5004
220,21.605,5.8182,0,5.2334e-05,522.98,1.9947e-05,32.329,1.5643e-05,-0.0095256,-5.1709e-05,-506.07,2.5313
221,21.789,5.8182,0,4.8341e-05,483.08,1.8663e-05,32.757,1.4301e-05,-0.012141,-4.7701e-05,-465.87,2.5622
222,21.973,5.8182,0,4.436e-05,443.29,1.7379e-05,33.152,1.2965e-05,-0.015395,-4.3703e-05,-425.79,2.5932
223,22.157,5.8182,0,4.039e-05,403.62,1.6095e-05,33.504,1.1633e-05,-0.019467,-3.9716e-05,-385.83,2.6241
224,22.342,5.8182,0,3.6432e-05,364.07,1.4809e-05,33.803,1.0307e-05,-0.02459,-3.5739e-05,-346,2.6552
225,22.526,5.8182,0,3.2487e-05,324.64,1.3522e-05,34.035,8.9877e-06,-0.031079,-3.1774e-05,-306.3,2.6862
226,22.71,5.8182,0,2.8555e-05,285.35,1.2231e-05,34.184,7.6756e-06,-0.03948,-2.782e-05,-266.74,2.7172
227,22.894,5.8182,0,2.464e-05,246.23,1.0935e-05,34.233,6.3722e-06,-0.050069,-2.3879e-05,-227.35,2.7483
228,23.079,5.8182,0,2.0748e-05,207.33,9.6338e-06,34.157,5.079e-06,-0.065354,-1.9955e-05,-188.16,2.7794
229,23.263,5.8182,0,1.6888e-05,168.76,8.3274e-06,33.942,3.7993e-06,-0.080966,-1.6052e-05,-149.24,2.8105
230,23.447,5.8182,0,1.3083e-05,130.74,7.0208e-06,33.587,2.5345e-06,-0.12103,-1.2183e-05,-110.71,2.8416
231,23.631,5.8182,0,9.4008e-06,93.943,5.735e-06,33.241,1.2962e-06,-0.11077,-8.3819e-06,-72.828,2.8727
232,23.816,5.8182,0,6.1764e-06,61.721,4.6633e-06,34.203,4.339e-08,-0.50853,-4.8211e-06,-37.058,2.9038
233,1.1509,5.6364,0,0.00016773,1676.1,8.6943e-05,383.58,3.3941e-05,-14.655,-0.00015786,-1455.8,0.0031158
234,1.3352,5.6364,0,0.00020218,2020.4,8.5299e-05,223.59,5.4956e-05,-4.3925,-0.00019748,-1901.1,0.0079602
235,1.5195,5.6364,0,0.00025714,2569.6,0.00010139,198.31,7.456e-05,-3.3059,-0.00025323,-2466.2,0.01712
236,1.7037,5.6364,0,0.00031075,3105.3,0.00011868,194.16,9.2669e-05,-1.2903,-0.000307,-3004.3,0.02659
237,1.888,5.6364,0,0.00035789,3576.5,0.00013366,187.21,0.00010864,-0.79472,-0.00035435,-3479.5,0.036288
238,2.0723,5.6364,0,0.00039736,3970.8,0.00014559,173.84,0.00012238,-0.5486,-0.00039412,-3881.3,0.046229
239,2.2565,5.6364,0,0.00042925,4289.6,0.00015456,155.01,0.00013387,-0.45735,-0.00042641,-4210.2,0.056437
240,2.4408,5.6364,0,0.00045427,4539.6,0.00016099,132.94,0.00014324,-0.39367,-0.00045187,-4471.8,0.066934
241,2.6251,5.6364,0,0.00047331,4729.9,0.00016535,109.75,0.0001507,-0.33996,-0.00047136,-4674.2,0.077737
242,2.8093,5.6364,0,0.00048733,4869.9,0.00016809,87.047,0.00015646,-0.28946,-0.0004858,-4826,0.08886
243,2.9936,5.6364,0,0.0004972,4968.6,0.00016959,65.925,0.00016078,-0.24538,-0.00049605,-4935.4,0.10031
244,3.1779,5.6364,0,0.0005037,5033.5,0.00017015,47.013,0.00016387,-0.21285,-0.00050289,-5010,0.1121
245,3.3621,5.6364,0,0.0005075,5071.5,0.00017004,30.601,0.00016594,-0.20156,-0.00050697,-5056.2,0.12423
246,3.5464,5.6364,0,0.00050914,5087.9,0.00016943,16.763,0.00016717,-0.24092,-0.00050886,-5079.6,0.13671
247,3.7307,5.6364,0,0.0005091,5087.5,0.0001685,5.6029,0.00016768,-0.54334,-0.00050901,-5084.9,0.14953
248,3.9149,5.6364,0,0.00050772,5073.7,0.00016783,0.57336,0.00016712,-4.7553,-0.00050779,-5075.8,0.1627
249,4.0992,5.6364,0,0.00050532,5049.7,0.00016735,0.23595,0.00016577,-11.678,-0.00050551,-5055.4,0.17621
250,4.2835,5.6364,0,0.00050211,5017.7,0.00016656,0.17005,0.00016426,-17.142,-0.0005024,-5026.1,0.19006
251,4.4677,5.6364,0,0.0004983,4979.5,0.0001655,0.14543,0.00016266,-21.168,-0.00049865,-4990,0.20426
252,4.652,5.6364,0,0.00049401,4936.7,0.00016422,0.13277,0.00016101,-23.959,-0.00049441,-4948.6,0.21879
253,4.8363,5.6364,0,0.00048937,4890.3,0.00016278,0.12435,0.00015934,-25.719,-0.0004898,-4903.1,0.23366
254,5.0205,5.6364,0,0.00048447,4841.3,0.0001612,0.11752,0.00015764,-26.635,-0.00048491,-4854.5,0.24887
255,5.2048,5.6364,0,0.00047936,4790.3,0.00015953,0.11126,0.00015594,-26.869,-0.00047981,-4803.6,0.2644
256,5.3891,5.6364,0,0.00047412,4737.9,0.00015778,0.10516,0.00015423,-26.563,-0.00047456,-4751.1,0.28026
257,5.5733,5.6364,0,0.00046877,4684.4,0.00015598,0.09911,0.00015253,-25.837,-0.0004692,-4697.2,0.29644
258,5.7576,5.6364,0,0.00046334,4630.2,0.00015414,0.093086,0.00015083,-24.79,-0.00046376,-4642.5,0.31294
259,5.9419,5.6364,0,0.00045787,4575.5,0.00015227,0.08712,0.00014913,-23.507,-0.00045826,-4587.2,0.32975
260,6.1261,5.6364,0,0.00045236,4520.5,0.00015038,0.081257,0.00014743,-22.057,-0.00045273,-4531.5,0.34687
261,6.3104,5.6364,0,0.00044684,4465.4,0.00014848,0.075543,0.00014574,-20.495,-0.00044719,-4475.5,0.36431
262,6.4947,5.6364,0,0.00044132,4410.1,0.00014657,0.070018,0.00014405,-18.866,-0.00044163,-4419.5,0.38204
263,6.6789,5.6364,0,0.00043579,4354.9,0.00014467,0.064712,0.00014237,-17.206,-0.00043608,-4363.4,0.40008
264,6.8632,5.6364,0,0.00043027,4299.7,0.00014276,0.059649,0.00014069,-15.543,-0.00043053,-4307.4,0.41841
265,7.0475,5.6364,0,0.00042475,4244.6,0.00014086,0.054846,0.000139,-13.899,-0.00042499,-4251.5,0.43703
266,7.2317,5.6364,0,0.00041926,4189.7,0.00013897,0.050311,0.00013732,-12.29,-0.00041946,-4195.8,0.45594
267,7.416,5.6364,0,0.00041378,4134.9,0.00013708,0.046052,0.00013565,-10.728,-0.00041396,-4140.2,0.47514
268,7.6003,5.6364,0,0.00040831,4080.3,0.0001352,0.042071,0.00013397,-9.2215,-0.00040847,-4084.9,0.49462
269,7.7845,5.6364,0,0.00040287,4025.9,0.00013333,0.038372,0.00013229,-7.777,-0.000403,-4029.7,0.51437
270,7.9688,5.6364,0,0.00039744,3971.7,0.00013147,0.03496,0.00013062,-6.3975,-0.00039755,-3974.8,0.5344
271,8.1531,5.6364,0,0.00039203,3917.6,0.00012963,0.031854,0.00012894,-5.085,-0.00039212,-3920.2,0.55469
272,8.3373,5.6364,0,0.00038665,3863.8,0.00012779,0.029099,0.00012727,-3.84,-0.00038671,-3865.7,0.57525
273,8.5216,5.6364,0,0.00038128,3810.2,0.00012596,0.026833,0.0001256,-2.6618,-0.00038133,-3811.5,0.59608
274,8.7059,5.6364,0,0.00037594,3756.8,0.00012414,0.025583,0.00012393,-1.5497,-0.00037597,-3757.6,0.61716
275,8.8901,5.6364,0,0.00037062,3703.6,0.00012233,0.02993,0.00012226,-0.50623,-0.00037062,-3703.8,0.6385
276,9.0744,5.6364,0,0.00036531,3650.6,0.0001206,0.50471,0.00012053,0.006284,-0.0003653,-3650.4,0.66009
277,9.2587,5.6364,0,0.00036003,3597.8,0.00011893,1.429,0.00011874,0.011408,-0.00036001,-3597.1,0.68192
278,9.4429,5.6364,0,0.00035477,3545.3,0.00011727,2.3041,0.00011696,0.010892,-0.00035473,-3544.1,0.704
279,9.6272,5.6364,0,0.00034953,3492.9,0.00011561,3.1279,0.00011519,0.0096824,-0.00034948,-3491.3,0.72632
280,9.8115,5.6364,0,0.00034431,3440.7,0.00011395,3.9029,0.00011343,0.0083382,-0.00034424,-3438.8,0.74888
281,9.9957,5.6364,0,0.00033911,3388.8,0.00011229,4.6322,0.00011168,0.0069859,-0.00033903,-3386.5,0.77167
282,10.18,5.6364,0,0.00033393,3337,0.00011064,5.3184,0.00010993,0.0056838,-0.00033384,-3334.4,0.79469
283,10.364,5.6364,0,0.00032878,3285.5,0.00010899,5.9647,0.0001082,0.004458,-0.00032867,-3282.5,0.81794
284,10.549,5.6364,0,0.00032364,3234.1,0.00010735,6.5736,0.00010648,0.0032575,-0.00032353,-3230.9,0.8414
285,10.733,5.6364,0,0.00031852,3183,0.00010571,7.1481,0.00010476,0.0021693,-0.0003184,-3179.4,0.86509
286,10.917,5.6364,0,0.00031342,3132.1,0.00010407,7.6908,0.00010305,0.0011931,-0.00031329,-3128.2,0.88899
287,11.101,5.6364,0,0.00030835,3081.4,0.00010244,8.2038,0.00010135,0.00025078,-0.00030821,-3077.2,0.91311
288,11.286,5.6364,0,0.00030329,3030.8,0.00010081,8.6898,9.9656e-05,-0.00063723,-0.00030314,-3026.5,0.93743
289,11.47,5.6364,0,0.00029826,2980.5,9.9189e-05,9.1508,9.7971e-05,-0.0014971,-0.0002981,-2975.9,0.96196
290,11.654,5.6364,0,0.00029324,2930.4,9.7571e-05,9.5891,9.6294e-05,-0.0022644,-0.00029308,-2925.6,0.98669
291,11.838,5.6364,0,0.00028825,2880.5,9.5957e-05,10.007,9.4625e-05,-0.0029425,-0.00028808,-2875.5,1.0116
292,12.023,5.6364,0,0.00028327,2830.8,9.4349e-05,10.405,9.2964e-05,-0.0036052,-0.00028309,-2825.5,1.0367
293,12.207,5.6364,0,0.00027832,2781.3,9.2746e-05,10.787,9.131e-05,-0.0042332,-0.00027813,-2775.8,1.0621
294,12.391,5.6364,0,0.00027338,2731.9,9.1148e-05,11.153,8.9663e-05,-0.0048519,-0.00027319,-2726.4,1.0876
295,12.575,5.6364,0,0.00026847,2682.8,8.9556e-05,11.505,8.8024e-05,-0.0054003,-0.00026827,-2677.1,1.1132
296,12.76,5.6364,0,0.00026358,2633.9,8.7969e-05,11.845,8.6392e-05,-0.0058797,-0.00026337,-2628,1.1391
297,12.944,5.6364,0,0.0002587,2585.2,8.6388e-05,12.175,8.4767e-05,-0.0063624,-0.00025849,-2579.1,1.1652
298,13.128,5.6364,0,0.00025385,2536.7,8.4814e-05,12.494,8.315e-05,-0.0068246,-0.00025363,-2530.5,1.1914
299,13.313,5.6364,0,0.00024902,2488.4,8.3245e-05,12.806,8.1539e-05,-0.0072911,-0.0002488,-2482,1.2178
300,13.497,5.6364,0,0.0002442,2440.3,8.1682e-05,13.11,7.9936e-05,-0.0077052,-0.00024398,-2433.8,1.2443
301,13.681,5.6364,0,0.00023941,2392.4,8.0125e-05,13.409,7.834e-05,-0.0080699,-0.00023918,-2385.7,1.271
302,13.865,5.6364,0,0.00023464,2344.8,7.8575e-05,13.703,7.675e-05,-0.0084474,-0.0002344,-2337.9,1.2979
303,14.05,5.6364,0,0.00022989,2297.3,7.7031e-05,13.993,7.5167e-05,-0.0088181,-0.00022964,-2290.2,1.325
304,14.234,5.6364,0,0.00022515,2250,7.5493e-05,14.281,7.3591e-05,-0.0092029,-0.00022491,-2242.8,1.3522
305,14.418,5.6364,0,0.00022044,2202.9,7.3962e-05,14.567,7.2022e-05,-0.0095515,-0.00022019,-2195.6,1.3795
306,14.602,5.6364,0,0.00021575,2156,7.2438e-05,14.853,7.046e-05,-0.0098647,-0.00021549,-2148.6,1.407
307,14.787,5.6364,0,0.00021108,2109.3,7.092e-05,15.139,6.8904e-05,-0.010201,-0.00021082,-2101.7,1.4347
308,14.971,5.6364,0,0.00020643,2062.9,6.941e-05,15.427,6.7355e-05,-0.010539,-0.00020616,-2055.1,1.4624
309,15.155,5.6364,0,0.0002018,2016.6,6.7906e-05,15.716,6.5812e-05,-0.010902,-0.00020153,-2008.7,1.4904
310,15.339,5.6364,0,0.00019719,1970.5,6.6409e-05,16.009,6.4276e-05,-0.011242,-0.00019691,-1962.5,1.5184
311,15.524,5.6364,0,0.0001926,1924.6,6.4918e-05,16.305,6.2747e-05,-0.011561,-0.00019232,-1916.4,1.5466
312,15.708,5.6364,0,0.00018803,1879,6.3435e-05,16.607,6.1224e-05,-0.01191,-0.00018774,-1870.6,1.5749
313,15.892,5.6364,0,0.00018348,1833.5,6.196e-05,16.914,5.9707e-05,-0.012276,-0.00018318,-1825,1.6034
314,16.077,5.6364,0,0.00017895,1788.2,6.0491e-05,17.227,5.8196e-05,-0.012671,-0.00017865,-1779.6,1.632
315,16.261,5.6364,0,0.00017444,1743.2,5.9029e-05,17.548,5.6692e-05,-0.013059,-0.00017413,-1734.3,1.6607
316,16.445,5.6364,0,0.00016995,1698.3,5.7575e-05,17.877,5.5194e-05,-0.013442,-0.00016964,-1689.3,1.6895
317,16.629,5.6364,0,0.00016548,1653.7,5.6129e-05,18.216,5.3702e-05,-0.013865,-0.00016516,-1644.5,1.7184
318,16.814,5.6364,0,0.00016103,1609.2,5.4689e-05,18.564,5.2217e-05,-0.014315,-0.00016071,-1599.8,1.7474
319,16.998,5.6364,0,0.0001566,1564.9,5.3257e-05,18.923,5.0737e-05,-0.014809,-0.00015627,-1555.4,1.7766
320,17.182,5.6364,0,0.00015219,1520.9,5.1833e-05,19.294,4.9263e-05,-0.015311,-0.00015185,-1511.1,1.8058
321,17.366,5.6364,0,0.0001478,1477,5.0417e-05,19.677,4.7796e-05,-0.015826,-0.00014746,-1467.1,1.8352
322,17.551,5.6364,0,0.00014343,1433.3,4.9008e-05,20.074,4.6334e-05,-0.016394,-0.00014308,-1423.2,1.8646
323,17.735,5.6364,0,0.00013908,1389.9,4.7606e-05,20.485,4.4878e-05,-0.017008,-0.00013872,-1379.5,1.8941
324,17.919,5.6364,0,0.00013475,1346.6,4.6213e-05,20.911,4.3427e-05,-0.017682,-0.00013439,-1336,1.9238
325,18.103,5.6364,0,0.00013044,1303.5,4.4827e-05,21.354,4.1982e-05,-0.018384,-0.00013007,-1292.7,1.9535
326,18.288,5.6364,0,0.00012615,1260.6,4.3449e-05,21.813,4.0543e-05,-0.019127,-0.00012577,-1249.6,1.9833
327,18.472,5.6364,0,0.00012188,1218,4.2079e-05,22.291,3.9109e-05,-0.019941,-0.00012149,-1206.7,2.0132
328,18.656,5.6364,0,0.00011763,1175.5,4.0716e-05,22.787,3.7681e-05,-0.020825,-0.00011722,-1163.9,2.0432
329,18.841,5.6364,0,0.00011339,1133.1,3.9362e-05,23.303,3.6258e-05,-0.021795,-0.00011298,-1121.3,2.0732
330,19.025,5.6364,0,0.00010918,1091,3.8015e-05,23.839,3.4839e-05,-0.022824,-0.00010875,-1078.9,2.1034
331,19.209,5.6364,0,0.00010498,1049.1,3.6677e-05,24.396,3.3426e-05,-0.023927,-0.00010455,-1036.7,2.1336
332,19.393,5.6364,0,0.0001008,1007.3,3.5346e-05,24.976,3.2018e-05,-0.025136,-0.00010036,-994.63,2.1638
333,19.578,5.6364,0,9.6644e-05,965.77,3.4023e-05,25.578,3.0615e-05,-0.02645,-9.6184e-05,-952.74,2.1942
334,19.762,5.6364,0,9.2502e-05,924.38,3.2707e-05,26.204,2.9216e-05,-0.027885,-9.2029e-05,-911.01,2.2246
335,19.946,5.6364,0,8.8378e-05,883.17,3.14e-05,26.854,2.7822e-05,-0.029436,-8.7891e-05,-869.45,2.255
336,20.13,5.6364,0,8.4271e-05,842.13,3.01e-05,27.529,2.6432e-05,-0.031107,-8.377e-05,-828.04,2.2856
337,20.315,5.6364,0,8.0182e-05,801.26,2.8808e-05,28.229,2.5047e-05,-0.032941,-7.9665e-05,-786.79,2.3161
338,20.499,5.6364,0,7.6109e-05,760.57,2.7524e-05,28.955,2.3665e-05,-0.034934,-7.5576e-05,-745.69,2.3468
339,20.683,5.6364,0,7.2053e-05,720.04,2.6246e-05,29.708,2.2288e-05,-0.037112,-7.1502e-05,-704.74,2.3775
340,20.867,5.6364,0,6.8014e-05,679.67,2.4977e-05,30.487,2.0914e-05,-0.03948,-6.7444e-05,-663.93,2.4082
341,21.052,5.6364,0,6.3991e-05,639.47,2.3715e-05,31.293,1.9544e-05,-0.042054,-6.3401e-05,-623.26,2.4389
342,21.236,5.6364,0,5.9984e-05,599.42,2.246e-05,32.128,1.8178e-05,-0.044867,-5.9373e-05,-582.73,2.4698
343,21.42,5.6364,0,5.5993e-05,559.55,2.1213e-05,32.991,1.6815e-05,-0.04794,-5.5359e-05,-542.34,2.5006
344,21.605,5.6364,0,5.2019e-05,519.83,1.9973e-05,33.884,1.5456e-05,-0.051294,-5.136e-05,-502.08,2.5315
345,21.789,5.6364,0,4.8062e-05,480.29,1.874e-05,34.809,1.41e-05,-0.054943,-4.7376e-05,-461.96,2.5624
346,21.973,5.6364,0,4.4123e-05,440.92,1.7516e-05,35.768,1.2748e-05,-0.058905,-4.3406e-05,-421.98,2.5934
347,22.157,5.6364,0,4.0203e-05,401.76,1.6301e-05,36.768,1.1399e-05,-0.063194,-3.9452e-05,-382.14,2.6243
348,22.342,5.6364,0,3.6306e-05,362.81,1.5095e-05,37.814,1.0053e-05,-0.067812,-3.5515e-05,-342.45,2.6553
349,22.526,5.6364,0,3.2434e-05,324.12,1.3901e-05,38.922,8.711e-06,-0.072665,-3.1597e-05,-302.93,2.6864
350,22.71,5.6364,0,2.8595e-05,285.75,1.2722e-05,40.112,7.3726e-06,-0.077733,-2.7701e-05,-263.6,2.7174
351,22.894,5.6364,0,2.4798e-05,247.81,1.1562e-05,41.425,6.038e-06,-0.082171,-2.3833e-05,-224.52,2.7485
352,23.079,5.6364,0,2.1063e-05,210.48,1.0433e-05,42.932,4.707e-06,-0.087235,-2.0001e-05,-185.74,2.7795
353,23.263,5.6364,0,1.7423e-05,174.11,9.3501e-06,44.776,3.3797e-06,-0.083429,-1.6223e-05,-147.37,2.8106
354,23.447,5.6364,0,1.3947e-05,139.37,8.3507e-06,47.236,2.0511e-06,-0.096701,-1.2528e-05,-109.64,2.8417
355,23.631,5.6364,0,1.0796e-05,107.89,7.513e-06,51.015,7.2372e-07,0.0030396,-8.982e-06,-72.922,2.8728
356,23.816,5.6364,0,8.3405e-06,83.347,7.018e-06,57.471,-6.6922e-07,-0.28749,-5.6987e-06,-38.077,2.904
357,1.1509,5.4545,0,0.00023536,2351.9,0.00013421,702.71,3.9187e-05,-11.258,-0.00021532,-1923.5,0.0025477
358,1.3352,5.4545,0,0.00025006,2498.9,0.00011756,429.19,6.0157e-05,-2.1261,-0.00023999,-2257.3,0.0096829
359,1.5195,5.4545,0,0.00029328,2930.8,0.00012454,336.29,7.9393e-05,-2.9353,-0.00028614,-2749.4,0.018822
360,1.7037,5.4545,0,0.00033977,3395.4,0.00013635,292.79,9.7178e-05,-1.5375,-0.00033386,-3240.2,0.028225
361,1.888,5.4545,0,0.00038197,3817,0.00014769,261.03,0.00011281,-1.0856,-0.00037687,-3680.3,0.037858
362,2.0723,5.4545,0,0.00041744,4171.5,0.00015685,230,0.00012614,-0.74023,-0.00041306,-4052.1,0.047744
363,2.2565,5.4545,0,0.00044587,4455.6,0.00016354,197.32,0.00013721,-0.55652,-0.00044219,-4353.9,0.057906
364,2.4408,5.4545,0,0.00046781,4674.9,0.00016801,163.75,0.00014616,-0.43547,-0.00046482,-4591.1,0.068366
365,2.6251,5.4545,0,0.00048416,4838.2,0.00017067,130.79,0.00015322,-0.36229,-0.00048181,-4771.7,0.079139
366,2.8093,5.4545,0,0.00049584,4954.9,0.00017195,99.766,0.00015863,-0.32384,-0.00049407,-4904.5,0.09024
367,2.9936,5.4545,0,0.00050371,5033.7,0.00017221,71.602,0.00016264,-0.31972,-0.00050246,-4997.6,0.10167
368,3.1779,5.4545,0,0.00050855,5082,0.00017175,46.831,0.00016547,-0.36269,-0.00050774,-5058.6,0.11345
369,3.3621,5.4545,0,0.00051097,5106.2,0.00017079,25.699,0.0001673,-0.51426,-0.00051054,-5093.5,0.12557
370,3.5464,5.4545,0,0.0005115,5111.4,0.00016958,8.6208,0.00016826,-1.2435,-0.00051137,-5107.7,0.13804
371,3.7307,5.4545,0,0.00051055,5102,0.00016898,1.0877,0.00016774,-8.25,-0.00051067,-5105.6,0.15086
372,3.9149,5.4545,0,0.00050847,5081.1,0.00016877,0.40068,0.00016617,-19.133,-0.00050878,-5090.5,0.16402
373,4.0992,5.4545,0,0.0005055,5051.5,0.00016822,0.23731,0.00016447,-27.91,-0.00050597,-5065.3,0.17753
374,4.2835,5.4545,0,0.00050187,5015.3,0.00016734,0.1666,0.00016272,-34.502,-0.00050245,-5032.3,0.19138
375,4.4677,5.4545,0,0.00049773,4973.9,0.0001662,0.12731,0.00016097,-39.185,-0.00049839,-4993.3,0.20557
376,4.652,5.4545,0,0.00049321,4928.7,0.00016486,0.1022,0.00015922,-42.259,-0.00049392,-4949.7,0.2201
377,4.8363,5.4545,0,0.00048841,4880.7,0.00016336,0.084623,0.00015749,-44.002,-0.00048914,-4902.5,0.23497
378,5.0205,5.4545,0,0.00048339,4830.6,0.00016173,0.071541,0.00015578,-44.664,-0.00048413,-4852.7,0.25017
379,5.2048,5.4545,0,0.00047822,4778.9,0.00016001,0.061361,0.00015409,-44.462,-0.00047896,-4800.9,0.26569
380,5.3891,5.4545,0,0.00047294,4726.1,0.00015823,0.053179,0.00015242,-43.583,-0.00047366,-4747.7,0.28155
381,5.5733,5.4545,0,0.00046758,4672.5,0.00015639,0.046441,0.00015077,-42.186,-0.00046828,-4693.5,0.29772
382,5.7576,5.4545,0,0.00046216,4618.4,0.00015451,0.040789,0.00014913,-40.402,-0.00046283,-4638.5,0.31421
383,5.9419,5.4545,0,0.00045671,4564,0.00015261,0.03598,0.00014751,-38.341,-0.00045735,-4583,0.33102
384,6.1261,5.4545,0,0.00045124,4509.3,0.0001507,0.031841,0.00014589,-36.091,-0.00045185,-4527.2,0.34814
385,6.3104,5.4545,0,0.00044576,4454.5,0.00014877,0.028246,0.00014428,-33.725,-0.00044633,-4471.3,0.36556
386,6.4947,5.4545,0,0.00044028,4399.8,0.00014684,0.0251,0.00014267,-31.3,-0.0004408,-4415.3,0.38329
387,6.6789,5.4545,0,0.0004348,4345,0.00014491,0.022329,0.00014107,-28.861,-0.00043528,-4359.4,0.40132
388,6.8632,5.4545,0,0.00042933,4290.3,0.00014299,0.019877,0.00013947,-26.444,-0.00042977,-4303.5,0.41964
389,7.0475,5.4545,0,0.00042387,4235.8,0.00014107,0.017695,0.00013786,-24.075,-0.00042427,-4247.7,0.43825
390,7.2317,5.4545,0,0.00041842,4181.3,0.00013916,0.015748,0.00013626,-21.774,-0.00041879,-4192.1,0.45715
391,7.416,5.4545,0,0.00041299,4127,0.00013725,0.014004,0.00013465,-19.554,-0.00041331,-4136.7,0.47634
392,7.6003,5.4545,0,0.00040757,4072.9,0.00013536,0.012437,0.00013304,-17.427,-0.00040786,-4081.5,0.4958
393,7.7845,5.4545,0,0.00040217,4018.9,0.00013348,0.011027,0.00013143,-15.397,-0.00040243,-4026.6,0.51554
394,7.9688,5.4545,0,0.00039678,3965.1,0.00013161,0.0097575,0.00012981,-13.468,-0.00039701,-3971.8,0.53556
395,8.1531,5.4545,0,0.00039142,3911.5,0.00012974,0.0086119,0.00012819,-11.64,-0.00039161,-3917.3,0.55584
396,8.3373,5.4545,0,0.00038607,3858,0.00012789,0.0075802,0.00012657,-9.9145,-0.00038624,-3863,0.57639
397,8.5216,5.4545,0,0.00038074,3804.8,0.00012605,0.0066534,0.00012495,-8.2879,-0.00038088,-3808.9,0.5972
398,8.7059,5.4545,0,0.00037543,3751.7,0.00012423,0.0058278,0.00012333,-6.7578,-0.00037554,-3755.1,0.61827
399,8.8901,5.4545,0,0.00037013,3698.8,0.00012241,0.0051033,0.0001217,-5.3205,-0.00037022,-3701.4,0.6396
400,9.0744,5.4545,0,0.00036486,3646.1,0.0001206,0.0044973,0.00012007,-3.972,-0.00036493,-3648.1,0.66117
401,9.2587,5.4545,0,0.0003596,3593.6,0.0001188,0.0040639,0.00011844,-2.708,-0.00035965,-3594.9,0.683
402,9.4429,5.4545,0,0.00035437,3541.2,0.00011702,0.0040334,0.00011681,-1.5242,-0.00035439,-3542,0.70506
403,9.6272,5.4545,0,0.00034915,3489.1,0.00011524,0.0070028,0.00011518,-0.41861,-0.00034916,-3489.3,0.72737
404,9.8115,5.4545,0,0.00034395,3437.1,0.00011356,0.628,0.00011347,-0.0016773,-0.00034394,-3436.8,0.74991
405,9.9957,5.4545,0,0.00033877,3385.4,0.00011193,1.5983,0.00011172,-0.00016388,-0.00033874,-3384.6,0.77269
406,10.18,5.4545,0,0.00033361,3333.8,0.0001103,2.5083,0.00010997,-0.00013783,-0.00033357,-3332.5,0.79569
407,10.364,5.4545,0,0.00032847,3282.4,0.00010868,3.3611,0.00010823,-0.00032646,-0.00032841,-3280.7,0.81893
408,10.549,5.4545,0,0.00032335,3231.2,0.00010705,4.1604,0.0001065,-0.00062196,-0.00032327,-3229.1,0.84238
409,10.733,5.4545,0,0.00031824,3180.2,0.00010543,4.9103,0.00010478,-0.00089284,-0.00031816,-3177.8,0.86605
410,10.917,5.4545,0,0.00031316,3129.4,0.00010381,5.6145,0.00010306,-0.0011191,-0.00031306,-3126.6,0.88994
411,11.101,5.4545,0,0.00030809,3078.8,0.0001022,6.2762,0.00010136,-0.0013714,-0.00030799,-3075.7,0.91404
412,11.286,5.4545,0,0.00030305,3028.4,0.00010058,6.899,9.9664e-05,-0.0016203,-0.00030293,-3024.9,0.93835
413,11.47,5.4545,0,0.00029802,2978.2,9.8972e-05,7.4859,9.7976e-05,-0.0018867,-0.00029789,-2974.4,0.96286
414,11.654,5.4545,0,0.00029301,2928.1,9.7366e-05,8.04,9.6296e-05,-0.0021037,-0.00029288,-2924.1,0.98758
415,11.838,5.4545,0,0.00028803,2878.3,9.5764e-05,8.5642,9.4624e-05,-0.0022674,-0.00028788,-2874,1.0125
416,12.023,5.4545,0,0.00028306,2828.6,9.4167e-05,9.0608,9.296e-05,-0.0024542,-0.0002829,-2824.1,1.0376
417,12.207,5.4545,0,0.00027811,2779.2,9.2573e-05,9.5326,9.1304e-05,-0.0026358,-0.00027795,-2774.4,1.0629
418,12.391,5.4545,0,0.00027318,2729.9,9.0984e-05,9.9817,8.9655e-05,-0.002837,-0.00027301,-2724.9,1.0884
419,12.575,5.4545,0,0.00026827,2680.9,8.94e-05,10.41,8.8014e-05,-0.0029939,-0.0002681,-2675.7,1.1141
420,12.76,5.4545,0,0.00026338,2632,8.7821e-05,10.821,8.638e-05,-0.0031065,-0.0002632,-2626.6,1.1399
421,12.944,5.4545,0,0.00025852,2583.4,8.6247e-05,11.215,8.4754e-05,-0.0032428,-0.00025832,-2577.7,1.1659
422,13.128,5.4545,0,0.00025367,2534.9,8.4678e-05,11.595,8.3135e-05,-0.0033781,-0.00025347,-2529.1,1.1921
423,13.313,5.4545,0,0.00024884,2486.6,8.3115e-05,11.962,8.1522e-05,-0.003533,-0.00024863,-2480.6,1.2185
424,13.497,5.4545,0,0.00024403,2438.6,8.1558e-05,12.319,7.9918e-05,-0.0036503,-0.00024381,-2432.4,1.2451
425,13.681,5.4545,0,0.00023924,2390.7,8.0006e-05,12.666,7.832e-05,-0.0037333,-0.00023902,-2384.4,1.2718
426,13.865,5.4545,0,0.00023447,2343.1,7.846e-05,13.005,7.6729e-05,-0.0038382,-0.00023424,-2336.5,1.2986
427,14.05,5.4545,0,0.00022972,2295.6,7.692e-05,13.337,7.5145e-05,-0.0039475,-0.00022949,-2288.9,1.3257
428,14.234,5.4545,0,0.00022499,2248.3,7.5387e-05,13.665,7.3567e-05,-0.004076,-0.00022475,-2241.5,1.3529
429,14.418,5.4545,0,0.00022028,2201.3,7.3859e-05,13.99,7.1997e-05,-0.0041752,-0.00022004,-2194.2,1.3802
430,14.602,5.4545,0,0.00021559,2154.4,7.2339e-05,14.312,7.0433e-05,-0.0042435,-0.00021534,-2147.2,1.4077
431,14.787,5.4545,0,0.00021092,2107.7,7.0824e-05,14.633,6.8876e-05,-0.0043347,-0.00021066,-2100.4,1.4353
432,14.971,5.4545,0,0.00020627,2061.3,6.9317e-05,14.954,6.7326e-05,-0.0044331,-0.00020601,-2053.7,1.4631
433,15.155,5.4545,0,0.00020164,2015,6.7816e-05,15.277,6.5782e-05,-0.004552,-0.00020137,-2007.3,1.491
434,15.339,5.4545,0,0.00019703,1968.9,6.6322e-05,15.603,6.4245e-05,-0.0046463,-0.00019676,-1961.1,1.519
435,15.524,5.4545,0,0.00019244,1923.1,6.4835e-05,15.933,6.2714e-05,-0.0047162,-0.00019216,-1915.1,1.5472
436,15.708,5.4545,0,0.00018787,1877.4,6.3355e-05,16.269,6.119e-05,-0.0048112,-0.00018759,-1869.2,1.5755
437,15.892,5.4545,0,0.00018332,1832,6.1883e-05,16.61,5.9671e-05,-0.0049133,-0.00018303,-1823.6,1.604
438,16.077,5.4545,0,0.00017879,1786.7,6.0417e-05,16.96,5.816e-05,-0.0050368,-0.0001785,-1778.2,1.6325
439,16.261,5.4545,0,0.00017429,1741.7,5.896e-05,17.318,5.6654e-05,-0.0051423,-0.00017398,-1732.9,1.6612
440,16.445,5.4545,0,0.0001698,1696.8,5.7509e-05,17.687,5.5155e-05,-0.0052309,-0.00016949,-1687.9,1.69
441,16.629,5.4545,0,0.00016533,1652.2,5.6066e-05,18.067,5.3661e-05,-0.0053417,-0.00016502,-1643.1,1.7189
442,16.814,5.4545,0,0.00016088,1607.7,5.4631e-05,18.459,5.2174e-05,-0.0054632,-0.00016056,-1598.4,1.7479
443,16.998,5.4545,0,0.00015646,1563.5,5.3204e-05,18.866,5.0692e-05,-0.0056081,-0.00015613,-1554,1.777
444,17.182,5.4545,0,0.00015205,1519.4,5.1785e-05,19.288,4.9217e-05,-0.0057407,-0.00015171,-1509.7,1.8063
445,17.366,5.4545,0,0.00014766,1475.6,5.0374e-05,19.727,4.7747e-05,-0.0058616,-0.00014732,-1465.6,1.8356
446,17.551,5.4545,0,0.00014329,1432,4.897e-05,20.184,4.6283e-05,-0.0060083,-0.00014294,-1421.8,1.865
447,17.735,5.4545,0,0.00013895,1388.5,4.7576e-05,20.66,4.4825e-05,-0.0061684,-0.00013858,-1378.1,1.8946
448,17.919,5.4545,0,0.00013462,1345.3,4.6189e-05,21.158,4.3372e-05,-0.0063522,-0.00013425,-1334.6,1.9242
449,18.103,5.4545,0,0.00013031,1302.2,4.4811e-05,21.678,4.1925e-05,-0.0065312,-0.00012993,-1291.3,1.9539
450,18.288,5.4545,0,0.00012603,1259.4,4.3442e-05,22.222,4.0483e-05,-0.0067044,-0.00012564,-1248.2,1.9837
451,18.472,5.4545,0,0.00012176,1216.8,4.2081e-05,22.793,3.9046e-05,-0.0069062,-0.00012136,-1205.2,2.0136
452,18.656,5.4545,0,0.00011751,1174.3,4.0729e-05,23.391,3.7615e-05,-0.0071247,-0.0001171,-1162.5,2.0436
453,18.841,5.4545,0,0.00011329,1132.1,3.9386e-05,24.018,3.6188e-05,-0.00737,-0.00011286,-1119.9,2.0736
454,19.025,5.4545,0,0.00010908,1090,3.8052e-05,24.676,3.4767e-05,-0.0076173,-0.00010864,-1077.5,2.1037
455,19.209,5.4545,0,0.00010489,1048.2,3.6727e-05,25.367,3.335e-05,-0.0078647,-0.00010444,-1035.3,2.1339
456,19.393,5.4545,0,0.00010072,1006.5,3.5411e-05,26.094,3.1937e-05,-0.0081413,-0.00010025,-993.24,2.1642
457,19.578,5.4545,0,9.6574e-05,965.07,3.4105e-05,26.857,3.0529e-05,-0.0084404,-9.6089e-05,-951.37,2.1945
458,19.762,5.4545,0,9.2444e-05,923.8,3.2808e-05,27.659,2.9125e-05,-0.0087647,-9.1943e-05,-909.67,2.2249
459,19.946,5.4545,0,8.8333e-05,882.72,3.1521e-05,28.502,2.7726e-05,-0.0090939,-8.7814e-05,-868.13,2.2553
460,20.13,5.4545,0,8.4241e-05,841.83,3.0243e-05,29.389,2.633e-05,-0.0094272,-8.3703e-05,-826.75,2.2859
461,20.315,5.4545,0,8.0168e-05,801.13,2.8975e-05,30.322,2.4938e-05,-0.0097849,-7.9609e-05,-785.54,2.3164
462,20.499,5.4545,0,7.6114e-05,760.61,2.7718e-05,31.304,2.355e-05,-0.010156,-7.5533e-05,-744.48,2.347
463,20.683,5.4545,0,7.2078e-05,720.28,2.647e-05,32.338,2.2165e-05,-0.010541,-7.1474e-05,-703.57,2.3777
464,20.867,5.4545,0,6.8061e-05,680.14,2.5234e-05,33.428,2.0783e-05,-0.010911,-6.7431e-05,-662.82,2.4084
465,21.052,5.4545,0,6.4064e-05,640.2,2.4008e-05,34.576,1.9404e-05,-0.011266,-6.3406e-05,-622.21,2.4392
466,21.236,5.4545,0,6.0086e-05,600.44,2.2793e-05,35.789,1.8028e-05,-0.011596,-5.9397e-05,-581.75,2.47
467,21.42,5.4545,0,5.6128e-05,560.89,2.159e-05,37.073,1.6654e-05,-0.011879,-5.5405e-05,-541.44,2.5008
468,21.605,5.4545,0,5.219e-05,521.54,2.04e-05,38.433,1.5283e-05,-0.012079,-5.143e-05,-501.27,2.5317
469,21.789,5.4545,0,4.8275e-05,482.42,1.9223e-05,39.881,1.3913e-05,-0.012134,-4.7473e-05,-461.25,2.5626
470,21.973,5.4545,0,4.4385e-05,443.54,1.8061e-05,41.43,1.2546e-05,-0.011966,-4.3535e-05,-421.38,2.5936
471,22.157,5.4545,0,4.0522e-05,404.94,1.6917e-05,43.096,1.118e-05,-0.011477,-3.9617e-05,-381.67,2.6245
472,22.342,5.4545,0,3.6691e-05,366.66,1.5793e-05,44.906,9.8146e-06,-0.010488,-3.5721e-05,-342.14,2.6555
473,22.526,5.4545,0,3.29e-05,328.77,1.4693e-05,46.896,8.4501e-06,-0.0086757,-3.185e-05,-302.81,2.6865
474,22.71,5.4545,0,2.9159e-05,291.39,1.3624e-05,49.12,7.0857e-06,-0.0057124,-2.8011e-05,-263.71,2.7176
475,22.894,5.4545,0,2.5485e-05,254.68,1.2596e-05,51.662,5.7203e-06,-0.00022968,-2.421e-05,-224.89,2.7486
476,23.079,5.4545,0,2.1908e-05,218.93,1.1625e-05,54.654,4.3521e-06,0.006956,-2.046e-05,-186.42,2.7797
477,23.263,5.4545,0,1.8476e-05,184.63,1.0736e-05,58.313,2.9786e-06,0.02783,-1.678e-05,-148.43,2.8108
478,23.447,5.4545,0,1.5273e-05,152.63,9.9681e-06,62.972,1.5912e-06,0.031161,-1.3194e-05,-111.06,2.8419
479,23.631,5.4545,0,1.2456e-05,124.47,9.3797e-06,69.216,1.9197e-07,0.18265,-9.7444e-06,-74.475,2.873
480,23.816,5.4545,0,1.0288e-05,102.81,9.057e-06,77.647,-1.2818e-06,-0.034745,-6.4592e-06,-38.936,2.9041
481,1.1509,5.2727,0,0.00031206,3118.4,0.00018926,1085,4.3513e-05,-10.086,-0.00027899,-2433.2,0.0032428
482,1.3352,5.2727,0,0.00031118,3109.7,0.00015939,701.89,6.5878e-05,-0.71341,-0.00029324,-2699,0.011414
483,1.5195,5.2727,0,0.00034228,3420.4,0.00015584,523.67,8.5774e-05,-2.7445,-0.00033036,-3129.4,0.020481
484,1.7037,5.2727,0,0.00037907,3788.1,0.00015936,415.9,0.00010377,-1.778,-0.00037029,-3563.7,0.029794
485,1.888,5.2727,0,0.0004136,4133.1,0.00016453,338.92,0.00011922,-1.5286,-0.0004068,-3953.9,0.039346
486,2.0723,5.2727,0,0.00044285,4425.4,0.0001691,276.6,0.00013212,-1.2247,-0.00043751,-4281.2,0.049164
487,2.2565,5.2727,0,0.00046611,4657.9,0.0001723,222.22,0.00014259,-1.0313,-0.00046195,-4543.3,0.059272
488,2.4408,5.2727,0,0.00048376,4834.2,0.0001741,173.51,0.00015089,-0.8955,-0.00048058,-4745.6,0.069689
489,2.6251,5.2727,0,0.00049654,4962,0.00017471,129.94,0.00015731,-0.82388,-0.00049421,-4896.1,0.080431
490,2.8093,5.2727,0,0.00050529,5049.4,0.00017441,91.471,0.00016212,-0.82086,-0.00050368,-5003.4,0.091507
491,2.9936,5.2727,0,0.00051078,5104.3,0.00017345,58.143,0.00016559,-0.92681,-0.00050978,-5075.4,0.10292
492,3.1779,5.2727,0,0.00051369,5133.4,0.00017209,30.034,0.00016792,-1.321,-0.00051319,-5118.9,0.11469
493,3.3621,5.2727,0,0.00051457,5142.2,0.00017069,8.4524,0.00016909,-3.5478,-0.00051449,-5139.7,0.1268
494,3.5464,5.2727,0,0.00051388,5135.3,0.00017049,1.4515,0.00016817,-16.005,-0.00051413,-5142.5,0.13926
495,3.7307,5.2727,0,0.00051198,5116.2,0.00017052,0.59938,0.00016636,-30.675,-0.00051248,-5131.2,0.15207
496,3.9149,5.2727,0,0.00050915,5088,0.00017015,0.34873,0.00016445,-42.458,-0.00050985,-5108.9,0.16523
497,4.0992,5.2727,0,0.00050562,5052.7,0.00016941,0.23529,0.00016255,-51.345,-0.00050647,-5078.1,0.17874
498,4.2835,5.2727,0,0.00050156,5012.1,0.00016838,0.17247,0.00016068,-57.691,-0.00050251,-5040.7,0.19259
499,4.4677,5.2727,0,0.00049711,4967.6,0.00016711,0.13327,0.00015886,-61.879,-0.00049813,-4998.2,0.20678
500,4.652,5.2727,0,0.00049236,4920.2,0.00016566,0.10674,0.00015709,-64.273,-0.00049342,-4952,0.22131
501,4.8363,5.2727,0,0.0004874,4870.6,0.00016407,0.087714,0.00015538,-65.203,-0.00048847,-4902.8,0.23617
502,5.0205,5.2727,0,0.00048228,4819.5,0.00016237,0.073459,0.00015371,-64.957,-0.00048335,-4851.6,0.25137
503,5.2048,5.2727,0,0.00047705,4767.2,0.00016058,0.06241,0.00015208,-63.786,-0.0004781,-4798.7,0.26689
504,5.3891,5.2727,0,0.00047174,4714.2,0.00015874,0.053616,0.00015049,-61.904,-0.00047276,-4744.8,0.28274
505,5.5733,5.2727,0,0.00046638,4660.6,0.00015685,0.046465,0.00014892,-59.489,-0.00046736,-4690,0.29891
506,5.7576,5.2727,0,0.00046098,4606.6,0.00015493,0.040553,0.00014738,-56.691,-0.00046192,-4634.7,0.3154
507,5.9419,5.2727,0,0.00045556,4552.5,0.00015299,0.035595,0.00014584,-53.631,-0.00045645,-4579,0.3322
508,6.1261,5.2727,0,0.00045013,4498.2,0.00015104,0.031388,0.00014432,-50.409,-0.00045097,-4523.2,0.34931
509,6.3104,5.2727,0,0.0004447,4443.9,0.00014908,0.027785,0.00014281,-47.105,-0.00044548,-4467.2,0.36672
510,6.4947,5.2727,0,0.00043926,4389.6,0.00014712,0.024673,0.00014129,-43.779,-0.00043999,-4411.3,0.38444
511,6.6789,5.2727,0,0.00043383,4335.4,0.00014517,0.021966,0.00013978,-40.483,-0.00043451,-4355.4,0.40246
512,6.8632,5.2727,0,0.00042841,4281.2,0.00014322,0.019597,0.00013826,-37.251,-0.00042904,-4299.7,0.42077
513,7.0475,5.2727,0,0.00042301,4227.1,0.00014128,0.017514,0.00013674,-34.113,-0.00042357,-4244.1,0.43938
514,7.2317,5.2727,0,0.00041761,4173.2,0.00013935,0.015674,0.00013521,-31.087,-0.00041813,-4188.6,0.45827
515,7.416,5.2727,0,0.00041222,4119.4,0.00013743,0.014043,0.00013368,-28.188,-0.00041269,-4133.4,0.47745
516,7.6003,5.2727,0,0.00040685,4065.7,0.00013552,0.012594,0.00013213,-25.424,-0.00040728,-4078.4,0.4969
517,7.7845,5.2727,0,0.00040149,4012.2,0.00013362,0.011303,0.00013059,-22.799,-0.00040188,-4023.5,0.51663
518,7.9688,5.2727,0,0.00039615,3958.8,0.00013174,0.010153,0.00012903,-20.316,-0.00039649,-3968.9,0.53664
519,8.1531,5.2727,0,0.00039083,3905.6,0.00012986,0.0091298,0.00012747,-17.973,-0.00039113,-3914.5,0.55691
520,8.3373,5.2727,0,0.00038552,3852.5,0.000128,0.0082227,0.0001259,-15.768,-0.00038578,-3860.4,0.57745
521,8.5216,5.2727,0,0.00038022,3799.6,0.00012615,0.0074224,0.00012433,-13.696,-0.00038045,-3806.4,0.59825
522,8.7059,5.2727,0,0.00037494,3746.8,0.00012431,0.0067269,0.00012275,-11.754,-0.00037514,-3752.7,0.61931
523,8.8901,5.2727,0,0.00036968,3694.2,0.00012249,0.0061359,0.00012116,-9.9348,-0.00036985,-3699.2,0.64062
524,9.0744,5.2727,0,0.00036443,3641.8,0.00012067,0.0056591,0.00011957,-8.233,-0.00036457,-3645.9,0.66218
525,9.2587,5.2727,0,0.0003592,3589.6,0.00011887,0.0053179,0.00011798,-6.6424,-0.00035932,-3592.9,0.68399
526,9.4429,5.2727,0,0.00035399,3537.5,0.00011707,0.0051631,0.00011639,-5.1565,-0.00035408,-3540,0.70605
527,9.6272,5.2727,0,0.00034879,3485.5,0.00011529,0.0053169,0.00011479,-3.7693,-0.00034886,-3487.4,0.72834
528,9.8115,5.2727,0,0.00034362,3433.8,0.00011352,0.0061551,0.00011319,-2.4749,-0.00034366,-3435,0.75087
529,9.9957,5.2727,0,0.00033846,3382.2,0.00011175,0.0093272,0.00011158,-1.2689,-0.00033848,-3382.8,0.77363
530,10.18,5.2727,0,0.00033331,3330.8,0.00011001,0.052493,0.00010997,-0.18324,-0.00033331,-3330.9,0.79663
531,10.364,5.2727,0,0.00032819,3279.6,0.00010838,0.93253,0.00010825,-0.0089536,-0.00032817,-3279.1,0.81984
532,10.549,5.2727,0,0.00032308,3228.5,0.00010678,1.9126,0.00010652,-0.004146,-0.00032304,-3227.6,0.84328
533,10.733,5.2727,0,0.00031799,3177.7,0.00010517,2.8321,0.0001048,-0.0028589,-0.00031794,-3176.3,0.86694
534,10.917,5.2727,0,0.00031292,3127,0.00010357,3.6932,0.00010308,-0.0023302,-0.00031285,-3125.1,0.89082
535,11.101,5.2727,0,0.00030786,3076.5,0.00010197,4.4996,0.00010137,-0.0021362,-0.00030778,-3074.2,0.91491
536,11.286,5.2727,0,0.00030283,3026.2,0.00010037,5.2558,9.9672e-05,-0.0020854,-0.00030274,-3023.5,0.9392
537,11.47,5.2727,0,0.00029781,2976,9.8776e-05,5.9655,9.7981e-05,-0.0021388,-0.00029771,-2973.1,0.9637
538,11.654,5.2727,0,0.00029281,2926.1,9.7182e-05,6.6328,9.6299e-05,-0.0021902,-0.0002927,-2922.8,0.9884
539,11.838,5.2727,0,0.00028783,2876.3,9.5591e-05,7.2612,9.4624e-05,-0.0022265,-0.00028771,-2872.7,1.0133
540,12.023,5.2727,0,0.00028287,2826.8,9.4004e-05,7.8538,9.2958e-05,-0.0023067,-0.00028274,-2822.8,1.0384
541,12.207,5.2727,0,0.00027793,2777.4,9.242e-05,8.4141,9.1299e-05,-0.0024004,-0.00027779,-2773.2,1.0637
542,12.391,5.2727,0,0.00027301,2728.2,9.0839e-05,8.9448,8.9649e-05,-0.0025256,-0.00027285,-2723.7,1.0892
543,12.575,5.2727,0,0.0002681,2679.2,8.9263e-05,9.449,8.8005e-05,-0.0026153,-0.00026794,-2674.4,1.1148
544,12.76,5.2727,0,0.00026322,2630.4,8.7692e-05,9.9292,8.637e-05,-0.0026712,-0.00026305,-2625.4,1.1407
545,12.944,5.2727,0,0.00025835,2581.8,8.6124e-05,10.388,8.4741e-05,-0.002755,-0.00025818,-2576.5,1.1667
546,13.128,5.2727,0,0.00025351,2533.3,8.4562e-05,10.828,8.3121e-05,-0.0028411,-0.00025332,-2527.9,1.1929
547,13.313,5.2727,0,0.00024868,2485.1,8.3005e-05,11.25,8.1507e-05,-0.0029543,-0.00024849,-2479.5,1.2192
548,13.497,5.2727,0,0.00024388,2437.1,8.1453e-05,11.658,7.9901e-05,-0.003032,-0.00024368,-2431.2,1.2458
549,13.681,5.2727,0,0.00023909,2389.2,7.9906e-05,12.054,7.8301e-05,-0.0030763,-0.00023888,-2383.2,1.2725
550,13.865,5.2727,0,0.00023432,2341.6,7.8365e-05,12.438,7.6709e-05,-0.0031463,-0.00023411,-2335.4,1.2993
551,14.05,5.2727,0,0.00022957,2294.2,7.6829e-05,12.814,7.5124e-05,-0.0032187,-0.00022935,-2287.7,1.3263
552,14.234,5.2727,0,0.00022485,2246.9,7.53e-05,13.182,7.3545e-05,-0.0033147,-0.00022462,-2240.3,1.3535
553,14.418,5.2727,0,0.00022014,2199.9,7.3777e-05,13.545,7.1973e-05,-0.0033799,-0.00021991,-2193.1,1.3808
554,14.602,5.2727,0,0.00021545,2153,7.226e-05,13.905,7.0409e-05,-0.0034147,-0.00021521,-2146,1.4083
555,14.787,5.2727,0,0.00021078,2106.4,7.0749e-05,14.262,6.885e-05,-0.0034748,-0.00021054,-2099.2,1.4359
556,14.971,5.2727,0,0.00020613,2059.9,6.9245e-05,14.619,6.7299e-05,-0.0035403,-0.00020588,-2052.6,1.4637
557,15.155,5.2727,0,0.00020151,2013.7,6.7748e-05,14.977,6.5754e-05,-0.0036256,-0.00020125,-2006.2,1.4916
558,15.339,5.2727,0,0.0001969,1967.6,6.6257e-05,15.338,6.4215e-05,-0.0036863,-0.00019663,-1959.9,1.5196
559,15.524,5.2727,0,0.00019231,1921.8,6.4774e-05,15.703,6.2683e-05,-0.0037217,-0.00019204,-1913.9,1.5478
560,15.708,5.2727,0,0.00018774,1876.1,6.3297e-05,16.074,6.1157e-05,-0.0037804,-0.00018747,-1868.1,1.5761
561,15.892,5.2727,0,0.0001832,1830.7,6.1828e-05,16.453,5.9638e-05,-0.0038435,-0.00018291,-1822.4,1.6045
562,16.077,5.2727,0,0.00017867,1785.5,6.0367e-05,16.84,5.8125e-05,-0.0039285,-0.00017838,-1777,1.633
563,16.261,5.2727,0,0.00017416,1740.4,5.8913e-05,17.238,5.6618e-05,-0.0039905,-0.00017386,-1731.8,1.6617
564,16.445,5.2727,0,0.00016968,1695.6,5.7466e-05,17.648,5.5117e-05,-0.0040335,-0.00016937,-1686.7,1.6905
565,16.629,5.2727,0,0.00016521,1651,5.6028e-05,18.072,5.3622e-05,-0.0040977,-0.0001649,-1641.9,1.7194
566,16.814,5.2727,0,0.00016077,1606.6,5.4597e-05,18.511,5.2133e-05,-0.0041702,-0.00016044,-1597.2,1.7484
567,16.998,5.2727,0,0.00015634,1562.3,5.3175e-05,18.968,5.065e-05,-0.0042595,-0.00015601,-1552.8,1.7775
568,17.182,5.2727,0,0.00015194,1518.3,5.1761e-05,19.444,4.9173e-05,-0.0043341,-0.0001516,-1508.5,1.8067
569,17.366,5.2727,0,0.00014755,1474.5,5.0356e-05,19.941,4.7702e-05,-0.0043902,-0.00014721,-1464.5,1.836
570,17.551,5.2727,0,0.00014319,1430.9,4.8959e-05,20.461,4.6236e-05,-0.0044691,-0.00014283,-1420.6,1.8655
571,17.735,5.2727,0,0.00013885,1387.5,4.7571e-05,21.006,4.4775e-05,-0.0045576,-0.00013848,-1376.9,1.895
572,17.919,5.2727,0,0.00013453,1344.3,4.6193e-05,21.578,4.332e-05,-0.0046584,-0.00013415,-1333.4,1.9246
573,18.103,5.2727,0,0.00013022,1301.3,4.4823e-05,22.179,4.187e-05,-0.0047483,-0.00012983,-1290.1,1.9543
574,18.288,5.2727,0,0.00012594,1258.6,4.3463e-05,22.812,4.0426e-05,-0.0048273,-0.00012554,-1247,1.9841
575,18.472,5.2727,0,0.00012168,1216,4.2112e-05,23.48,3.8986e-05,-0.0049202,-0.00012127,-1204.1,2.014
576,18.656,5.2727,0,0.00011744,1173.6,4.0771e-05,24.183,3.7552e-05,-0.0050244,-0.00011701,-1161.3,2.0439
577,18.841,5.2727,0,0.00011322,1131.5,3.944e-05,24.926,3.6122e-05,-0.0051418,-0.00011278,-1118.8,2.0739
578,19.025,5.2727,0,0.00010902,1089.5,3.8119e-05,25.711,3.4697e-05,-0.0052471,-0.00010856,-1076.4,2.104
579,19.209,5.2727,0,0.00010485,1047.7,3.6809e-05,26.542,3.3276e-05,-0.0053398,-0.00010437,-1034.2,2.1342
580,19.393,5.2727,0,0.00010069,1006.2,3.5509e-05,27.42,3.1859e-05,-0.0054453,-0.00010019,-992.21,2.1645
581,19.578,5.2727,0,9.6552e-05,964.85,3.4221e-05,28.35,3.0447e-05,-0.0055523,-9.6038e-05,-950.36,2.1948
582,19.762,5.2727,0,9.2435e-05,923.71,3.2943e-05,29.334,2.9038e-05,-0.0056629,-9.1901e-05,-908.7,2.2252
583,19.946,5.2727,0,8.8339e-05,882.78,3.1677e-05,30.378,2.7634e-05,-0.005753,-8.7783e-05,-867.2,2.2556
584,20.13,5.2727,0,8.4263e-05,842.05,3.0423e-05,31.485,2.6232e-05,-0.0058215,-8.3683e-05,-825.87,2.2861
585,20.315,5.2727,0,8.0208e-05,801.53,2.9182e-05,32.66,2.4834e-05,-0.0058821,-7.9603e-05,-784.7,2.3167
586,20.499,5.2727,0,7.6175e-05,761.22,2.7952e-05,33.907,2.3439e-05,-0.0059131,-7.5541e-05,-743.7,2.3473
587,20.683,5.2727,0,7.2162e-05,721.12,2.6736e-05,35.233,2.2046e-05,-0.0059159,-7.1498e-05,-702.86,2.3779
588,20.867,5.2727,0,6.8171e-05,681.24,2.5534e-05,36.643,2.0656e-05,-0.0058547,-6.7473e-05,-662.18,2.4087
589,21.052,5.2727,0,6.4202e-05,641.57,2.4346e-05,38.146,1.9268e-05,-0.0057146,-6.3468e-05,-621.65,2.4394
590,21.236,5.2727,0,6.0256e-05,602.14,2.3174e-05,39.751,1.7882e-05,-0.0054743,-5.9481e-05,-581.28,2.4702
591,21.42,5.2727,0,5.6334e-05,562.95,2.2018e-05,41.468,1.6498e-05,-0.0051025,-5.5514e-05,-541.07,2.501
592,21.605,5.2727,0,5.2437e-05,524.01,2.0879e-05,43.312,1.5114e-05,-0.0045406,-5.1566e-05,-501.01,2.5319
593,21.789,5.2727,0,4.8569e-05,485.36,1.976e-05,45.298,1.3731e-05,-0.0037187,-4.764e-05,-461.12,2.5628
594,21.973,5.2727,0,4.4732e-05,447.01,1.8664e-05,47.449,1.2348e-05,-0.0025164,-4.3735e-05,-421.39,2.5937
595,22.157,5.2727,0,4.0931e-05,409.02,1.7593e-05,49.794,1.0965e-05,-0.000805,-3.9855e-05,-381.85,2.6247
596,22.342,5.2727,0,3.7172e-05,371.46,1.6551e-05,52.372,9.5809e-06,0.0016356,-3.6003e-05,-342.5,2.6557
597,22.526,5.2727,0,3.3465e-05,334.42,1.5545e-05,55.236,8.1944e-06,0.0051673,-3.2182e-05,-303.36,2.6867
598,22.71,5.2727,0,2.9825e-05,298.05,1.4584e-05,58.46,6.8045e-06,0.010191,-2.8397e-05,-264.48,2.7177
599,22.894,5.2727,0,2.6274e-05,262.56,1.3679e-05,62.15,5.4093e-06,0.018163,-2.4659e-05,-225.9,2.7488
600,23.079,5.2727,0,2.2844e-05,228.28,1.2846e-05,66.451,4.006e-06,0.028226,-2.0976e-05,-187.68,2.7799
601,23.263,5.2727,0,1.9588e-05,195.75,1.211e-05,71.574,2.5911e-06,0.052759,-1.7363e-05,-149.88,2.8109
602,23.447,5.2727,0,1.6588e-05,165.76,1.1498e-05,77.774,1.1552e-06,0.061638,-1.3835e-05,-112.57,2.842
603,23.631,5.2727,0,1.3973e-05,139.63,1.1041e-05,85.421,-2.9819e-07,0.22011,-1.0406e-05,-75.724,2.8731
604,23.816,5.2727,0,1.1952e-05,119.44,1.0781e-05,94.722,-1.823e-06,0.020099,-7.0769e-06,-39.456,2.9042
605,1.1509,5.0909,0,0.0004,3997.3,0.0002529,1531.7,4.771e-05,-10.03,-0.00035114,-3006.8,0.0046876
606,1.3352,5.0909,0,0.00038437,3841,0.0002089,1022.9,7.2736e-05,-0.17716,-0.0003566,-3226.1,0.01314
607,1.5195,5.0909,0,0.00040292,4026.4,0.00019345,742.78,9.4215e-05,-2.8182,-0.00038512,-3604.4,0.022093
608,1.7037,5.0909,0,0.00042794,4276.5,0.00018651,551.42,0.00011285,-2.0476,-0.0004159,-3974.9,0.03129
609,1.888,5.0909,0,0.00045233,4520.2,0.0001834,412.99,0.00012818,-1.9404,-0.00044391,-4300.4,0.040745
610,2.0723,5.0909,0,0.00047319,4728.6,0.00018177,308.65,0.00014047,-1.7004,-0.0004672,-4567.5,0.050484
611,2.2565,5.0909,0,0.00048962,4892.9,0.00018047,226.79,0.00015008,-1.5828,-0.00048539,-4776.3,0.060531
612,2.4408,5.0909,0,0.00050178,5014.3,0.00017903,160.78,0.00015743,-1.5471,-0.00049887,-4932.8,0.070902
613,2.6251,5.0909,0,0.00051018,5098.3,0.00017733,106.78,0.0001629,-1.6494,-0.00050831,-5044.9,0.081609
614,2.8093,5.0909,0,0.00051545,5151,0.00017542,62.558,0.00016682,-2.0287,-0.00051439,-5120.4,0.09266
615,2.9936,5.0909,0,0.00051821,5178.5,0.00017345,27.269,0.00016937,-3.4087,-0.00051779,-5166.5,0.10406
616,3.1779,5.0909,0,0.00051897,5186.1,0.00017233,5.832,0.00016998,-11.849,-0.00051907,-5189.1,0.11581
617,3.3621,5.0909,0,0.00051817,5178.1,0.0001727,1.6448,0.00016827,-31.656,-0.00051867,-5193.1,0.12792
618,3.5464,5.0909,0,0.00051618,5158.3,0.00017286,0.79912,0.00016614,-49.701,-0.000517,-5182.5,0.14037
619,3.7307,5.0909,0,0.00051328,5129.3,0.00017258,0.47949,0.00016401,-63.863,-0.00051433,-5160.7,0.15318
620,3.9149,5.0909,0,0.0005097,5093.5,0.0001719,0.32023,0.00016195,-74.408,-0.00051092,-5130.1,0.16634
621,4.0992,5.0909,0,0.0005056,5052.6,0.0001709,0.22837,0.00015999,-81.818,-0.00050694,-5092.8,0.17984
622,4.2835,5.0909,0,0.00050113,5007.8,0.00016966,0.17031,0.00015811,-86.579,-0.00050254,-5050.5,0.19369
623,4.4677,5.0909,0,0.00049637,4960.3,0.00016821,0.13121,0.00015633,-89.144,-0.00049783,-5004.2,0.20788
624,4.652,5.0909,0,0.00049142,4910.8,0.00016661,0.10362,0.00015463,-89.915,-0.00049288,-4955.1,0.22241
625,4.8363,5.0909,0,0.00048632,4859.8,0.00016489,0.083445,0.000153,-89.249,-0.00048777,-4903.8,0.23727
626,5.0205,5.0909,0,0.00048111,4807.8,0.00016309,0.068263,0.00015144,-87.453,-0.00048254,-4850.9,0.25246
627,5.2048,5.0909,0,0.00047584,4755.1,0.00016121,0.056575,0.00014992,-84.789,-0.00047722,-4796.9,0.26798
628,5.3891,5.0909,0,0.00047052,4701.9,0.00015929,0.047407,0.00014844,-81.478,-0.00047185,-4742.1,0.28383
629,5.5733,5.0909,0,0.00046516,4648.4,0.00015734,0.040103,0.00014699,-77.704,-0.00046644,-4686.8,0.3
630,5.7576,5.0909,0,0.00045979,4594.8,0.00015537,0.034207,0.00014556,-73.619,-0.000461,-4631.1,0.31648
631,5.9419,5.0909,0,0.00045441,4541,0.00015338,0.029393,0.00014415,-69.346,-0.00045555,-4575.2,0.33328
632,6.1261,5.0909,0,0.00044903,4487.2,0.00015139,0.025423,0.00014274,-64.983,-0.0004501,-4519.3,0.35038
633,6.3104,5.0909,0,0.00044364,4433.4,0.0001494,0.022122,0.00014133,-60.609,-0.00044464,-4463.3,0.36779
634,6.4947,5.0909,0,0.00043826,4379.6,0.00014741,0.019355,0.00013991,-56.283,-0.00043919,-4407.4,0.3855
635,6.6789,5.0909,0,0.00043289,4325.9,0.00014542,0.017019,0.00013849,-52.052,-0.00043375,-4351.7,0.40351
636,6.8632,5.0909,0,0.00042752,4272.3,0.00014345,0.015035,0.00013707,-47.95,-0.00042832,-4296,0.42182
637,7.0475,5.0909,0,0.00042216,4218.7,0.00014149,0.01334,0.00013563,-44.002,-0.0004229,-4240.6,0.44042
638,7.2317,5.0909,0,0.00041682,4165.3,0.00013954,0.011886,0.00013418,-40.224,-0.00041749,-4185.3,0.4593
639,7.416,5.0909,0,0.00041148,4112,0.0001376,0.010633,0.00013272,-36.626,-0.00041209,-4130.2,0.47847
640,7.6003,5.0909,0,0.00040616,4058.8,0.00013568,0.0095495,0.00013125,-33.215,-0.00040671,-4075.3,0.49791
641,7.7845,5.0909,0,0.00040085,4005.7,0.00013376,0.0086106,0.00012977,-29.991,-0.00040135,-4020.6,0.51763
642,7.9688,5.0909,0,0.00039555,3952.7,0.00013186,0.0077962,0.00012828,-26.952,-0.000396,-3966.1,0.53763
643,8.1531,5.0909,0,0.00039026,3899.9,0.00012998,0.0070918,0.00012677,-24.096,-0.00039066,-3911.9,0.55789
644,8.3373,5.0909,0,0.00038499,3847.2,0.00012811,0.0064839,0.00012525,-21.417,-0.00038534,-3857.9,0.57842
645,8.5216,5.0909,0,0.00037972,3794.6,0.00012624,0.0059654,0.00012373,-18.907,-0.00038004,-3804,0.59921
646,8.7059,5.0909,0,0.00037448,3742.2,0.0001244,0.0055296,0.00012219,-16.56,-0.00037476,-3750.4,0.62026
647,8.8901,5.0909,0,0.00036924,3689.9,0.00012256,0.0051747,0.00012065,-14.368,-0.00036949,-3697.1,0.64156
648,9.0744,5.0909,0,0.00036402,3637.7,0.00012074,0.0049034,0.0001191,-12.322,-0.00036423,-3643.9,0.66311
649,9.2587,5.0909,0,0.00035882,3585.7,0.00011893,0.0047239,0.00011754,-10.413,-0.000359,-3590.9,0.68491
650,9.4429,5.0909,0,0.00035363,3533.9,0.00011713,0.004656,0.00011598,-8.6344,-0.00035378,-3538.2,0.70695
651,9.6272,5.0909,0,0.00034846,3482.2,0.00011534,0.0047338,0.00011441,-6.9771,-0.00034858,-3485.6,0.72923
652,9.8115,5.0909,0,0.0003433,3430.6,0.00011356,0.0050479,0.00011283,-5.4333,-0.00034339,-3433.3,0.75175
653,9.9957,5.0909,0,0.00033816,3379.2,0.00011179,0.0057587,0.00011126,-3.9956,-0.00033822,-3381.2,0.7745
654,10.18,5.0909,0,0.00033303,3328,0.00011003,0.0073861,0.00010968,-2.6572,-0.00033307,-3329.3,0.79748
655,10.364,5.0909,0,0.00032792,3276.9,0.00010828,0.012098,0.00010809,-1.4131,-0.00032794,-3277.6,0.82069
656,10.549,5.0909,0,0.00032282,3226,0.00010655,0.052544,0.00010651,-0.28963,-0.00032283,-3226.1,0.84412
657,10.733,5.0909,0,0.00031775,3175.3,0.00010493,0.86468,0.00010481,-0.016135,-0.00031773,-3174.9,0.86777
658,10.917,5.0909,0,0.00031269,3124.7,0.00010334,1.8689,0.00010309,-0.0069896,-0.00031266,-3123.8,0.89163
659,11.101,5.0909,0,0.00030764,3074.3,0.00010176,2.8126,0.00010138,-0.0044672,-0.0003076,-3072.9,0.9157
660,11.286,5.0909,0,0.00030262,3024.1,0.00010017,3.6963,9.9681e-05,-0.0033524,-0.00030256,-3022.2,0.93999
661,11.47,5.0909,0,0.00029761,2974.1,9.859e-05,4.5238,9.7987e-05,-0.0027878,-0.00029753,-2971.8,0.96448
662,11.654,5.0909,0,0.00029262,2924.2,9.7008e-05,5.2997,9.6302e-05,-0.0024298,-0.00029253,-2921.5,0.98916
663,11.838,5.0909,0,0.00028765,2874.5,9.5428e-05,6.0281,9.4625e-05,-0.0021668,-0.00028755,-2871.5,1.0141
664,12.023,5.0909,0,0.0002827,2825,9.385e-05,6.7131,9.2956e-05,-0.0020158,-0.00028258,-2821.6,1.0391
665,12.207,5.0909,0,0.00027776,2775.7,9.2275e-05,7.3585,9.1296e-05,-0.0019222,-0.00027763,-2772,1.0644
666,12.391,5.0909,0,0.00027284,2726.5,9.0704e-05,7.9678,8.9643e-05,-0.0018908,-0.00027271,-2722.6,1.0899
667,12.575,5.0909,0,0.00026794,2677.6,8.9135e-05,8.5445,8.7998e-05,-0.0018476,-0.0002678,-2673.3,1.1155
668,12.76,5.0909,0,0.00026306,2628.8,8.7571e-05,9.0919,8.636e-05,-0.0017836,-0.00026291,-2624.3,1.1413
669,12.944,5.0909,0,0.0002582,2580.3,8.601e-05,9.6128,8.4731e-05,-0.0017612,-0.00025804,-2575.4,1.1673
670,13.128,5.0909,0,0.00025336,2531.9,8.4454e-05,10.11,8.3108e-05,-0.0017521,-0.00025319,-2526.8,1.1935
671,13.313,5.0909,0,0.00024854,2483.7,8.2902e-05,10.587,8.1493e-05,-0.0017772,-0.00024836,-2478.4,1.2199
672,13.497,5.0909,0,0.00024374,2435.7,8.1355e-05,11.045,7.9885e-05,-0.0017717,-0.00024355,-2430.1,1.2464
673,13.681,5.0909,0,0.00023895,2387.9,7.9814e-05,11.487,7.8285e-05,-0.0017403,-0.00023876,-2382.1,1.2731
674,13.865,5.0909,0,0.00023419,2340.3,7.8277e-05,11.916,7.6691e-05,-0.0017363,-0.00023398,-2334.3,1.2999
675,14.05,5.0909,0,0.00022944,2292.8,7.6746e-05,12.333,7.5104e-05,-0.0017399,-0.00022923,-2286.7,1.3269
676,14.234,5.0909,0,0.00022472,2245.6,7.5221e-05,12.742,7.3525e-05,-0.0017682,-0.0002245,-2239.2,1.3541
677,14.418,5.0909,0,0.00022001,2198.6,7.3701e-05,13.143,7.1952e-05,-0.0017683,-0.00021979,-2192,1.3814
678,14.602,5.0909,0,0.00021533,2151.8,7.2188e-05,13.539,7.0386e-05,-0.00174,-0.00021509,-2145,1.4089
679,14.787,5.0909,0,0.00021066,2105.1,7.0681e-05,13.932,6.8826e-05,-0.0017351,-0.00021042,-2098.1,1.4365
680,14.971,5.0909,0,0.00020601,2058.7,6.918e-05,14.324,6.7274e-05,-0.0017366,-0.00020577,-2051.5,1.4642
681,15.155,5.0909,0,0.00020139,2012.5,6.7686e-05,14.717,6.5728e-05,-0.0017589,-0.00020113,-2005.1,1.4921
682,15.339,5.0909,0,0.00019678,1966.5,6.6199e-05,15.113,6.4188e-05,-0.0017541,-0.00019652,-1958.9,1.5201
683,15.524,5.0909,0,0.0001922,1920.6,6.4719e-05,15.513,6.2655e-05,-0.0017243,-0.00019193,-1912.8,1.5483
684,15.708,5.0909,0,0.00018763,1875,6.3247e-05,15.919,6.1128e-05,-0.0017135,-0.00018735,-1867,1.5766
685,15.892,5.0909,0,0.00018309,1829.6,6.1781e-05,16.334,5.9607e-05,-0.0017083,-0.0001828,-1821.4,1.605
686,16.077,5.0909,0,0.00017856,1784.4,6.0323e-05,16.759,5.8093e-05,-0.0017201,-0.00017827,-1775.9,1.6335
687,16.261,5.0909,0,0.00017406,1739.4,5.8873e-05,17.197,5.6584e-05,-0.0017077,-0.00017376,-1730.7,1.6622
688,16.445,5.0909,0,0.00016957,1694.6,5.7431e-05,17.648,5.5082e-05,-0.0016719,-0.00016927,-1685.7,1.6909
689,16.629,5.0909,0,0.00016511,1650,5.5997e-05,18.116,5.3586e-05,-0.001654,-0.00016479,-1640.8,1.7198
690,16.814,5.0909,0,0.00016067,1605.6,5.4572e-05,18.603,5.2096e-05,-0.0016356,-0.00016034,-1596.2,1.7488
691,16.998,5.0909,0,0.00015624,1561.4,5.3155e-05,19.11,5.0611e-05,-0.0016343,-0.00015591,-1551.7,1.7779
692,17.182,5.0909,0,0.00015184,1517.4,5.1746e-05,19.641,4.9132e-05,-0.001608,-0.0001515,-1507.5,1.8071
693,17.366,5.0909,0,0.00014746,1473.6,5.0347e-05,20.196,4.7659e-05,-0.0015621,-0.00014711,-1463.4,1.8364
694,17.551,5.0909,0,0.0001431,1430,4.8957e-05,20.78,4.6191e-05,-0.0015265,-0.00014274,-1419.5,1.8659
695,17.735,5.0909,0,0.00013877,1386.7,4.7576e-05,21.394,4.4729e-05,-0.0014921,-0.00013839,-1375.9,1.8954
696,17.919,5.0909,0,0.00013445,1343.6,4.6205e-05,22.041,4.3271e-05,-0.001468,-0.00013406,-1332.4,1.925
697,18.103,5.0909,0,0.00013015,1300.6,4.4844e-05,22.724,4.1819e-05,-0.0014197,-0.00012975,-1289.1,1.9546
698,18.288,5.0909,0,0.00012588,1257.9,4.3493e-05,23.447,4.0372e-05,-0.0013456,-0.00012546,-1246,1.9844
699,18.472,5.0909,0,0.00012162,1215.4,4.2153e-05,24.212,3.893e-05,-0.0012815,-0.00012119,-1203.1,2.0143
700,18.656,5.0909,0,0.00011739,1173.1,4.0823e-05,25.022,3.7493e-05,-0.0012111,-0.00011694,-1160.4,2.0442
701,18.841,5.0909,0,0.00011318,1131,3.9505e-05,25.882,3.606e-05,-0.0011433,-0.00011272,-1117.9,2.0743
702,19.025,5.0909,0,0.00010899,1089.1,3.8197e-05,26.795,3.4631e-05,-0.001043,-0.00010851,-1075.5,2.1044
703,19.209,5.0909,0,0.00010482,1047.5,3.6902e-05,27.765,3.3207e-05,-0.00091526,-0.00010432,-1033.3,2.1345
704,19.393,5.0909,0,0.00010068,1006.1,3.5619e-05,28.797,3.1786e-05,-0.00078196,-0.00010015,-991.36,2.1648
705,19.578,5.0909,0,9.6551e-05,964.85,3.4348e-05,29.895,3.037e-05,-0.00062406,-9.6008e-05,-949.55,2.1951
706,19.762,5.0909,0,9.2449e-05,923.85,3.3091e-05,31.064,2.8956e-05,-0.00045369,-9.1881e-05,-907.93,2.2254
707,19.946,5.0909,0,8.8369e-05,883.08,3.1847e-05,32.31,2.7546e-05,-0.00023501,-8.7774e-05,-866.48,2.2559
708,20.13,5.0909,0,8.4311e-05,842.52,3.0617e-05,33.639,2.614e-05,3.8627e-05,-8.3688e-05,-825.2,2.2864
709,20.315,5.0909,0,8.0275e-05,802.2,2.9401e-05,35.058,2.4735e-05,0.00035106,-7.9622e-05,-784.1,2.3169
710,20.499,5.0909,0,7.6263e-05,762.11,2.8201e-05,36.573,2.3334e-05,0.00072476,-7.5575e-05,-743.16,2.3475
711,20.683,5.0909,0,7.2275e-05,722.25,2.7017e-05,38.193,2.1934e-05,0.0011748,-7.1549e-05,-702.4,2.3782
712,20.867,5.0909,0,6.8311e-05,682.64,2.585e-05,39.927,2.0536e-05,0.0017328,-6.7544e-05,-661.8,2.4089
713,21.052,5.0909,0,6.4372e-05,643.28,2.4701e-05,41.787,1.9139e-05,0.0024269,-6.3559e-05,-621.36,2.4396
714,21.236,5.0909,0,6.046e-05,604.18,2.3571e-05,43.786,1.7744e-05,0.0032753,-5.9596e-05,-581.1,2.4704
715,21.42,5.0909,0,5.6576e-05,565.37,2.2462e-05,45.938,1.6349e-05,0.0043289,-5.5654e-05,-541,2.5012
716,21.605,5.0909,0,5.2722e-05,526.86,2.1376e-05,48.262,1.4953e-05,0.0056523,-5.1735e-05,-501.07,2.5321
717,21.789,5.0909,0,4.8902e-05,488.68,2.0315e-05,50.781,1.3557e-05,0.0073403,-4.784e-05,-461.31,2.563
718,21.973,5.0909,0,4.512e-05,450.89,1.9283e-05,53.525,1.216e-05,0.0095067,-4.397e-05,-421.73,2.5939
719,22.157,5.0909,0,4.1381e-05,413.52,1.8283e-05,56.53,1.0761e-05,0.012308,-4.0128e-05,-382.35,2.6249
720,22.342,5.0909,0,3.7694e-05,376.68,1.732e-05,59.842,9.3578e-06,0.015979,-3.6317e-05,-343.17,2.6558
721,22.526,5.0909,0,3.4069e-05,340.46,1.6402e-05,63.524,7.9504e-06,0.020917,-3.2541e-05,-304.21,2.6869
722,22.71,5.0909,0,3.0524e-05,305.03,1.5537e-05,67.655,6.5367e-06,0.027526,-2.8805e-05,-265.52,2.7179
723,22.894,5.0909,0,2.7082e-05,270.64,1.4737e-05,72.341,5.1144e-06,0.037307,-2.5116e-05,-227.1,2.7489
724,23.079,5.0909,0,2.3777e-05,237.61,1.4017e-05,77.713,3.6802e-06,0.049448,-2.1482e-05,-189.01,2.78
725,23.263,5.0909,0,2.0659e-05,206.45,1.3392e-05,83.937,2.2304e-06,0.076533,-1.791e-05,-151.25,2.8111
726,23.447,5.0909,0,1.7802e-05,177.9,1.288e-05,91.178,7.5637e-07,0.088343,-1.4403e-05,-113.81,2.8422
727,23.631,5.0909,0,1.5317e-05,153.07,1.2494e-05,99.66,-7.3569e-07,0.25509,-1.0966e-05,-76.608,2.8733
728,23.816,5.0909,0,1.3384e-05,133.75,1.2257e-05,109.4,-2.2936e-06,0.072605,-7.5905e-06,-39.726,2.9044
729,1.1509,4.9091,0,0.00050401,5036.6,0.00032816,2060,5.2282e-05,-12.908,-0.00043608,-3682.3,0.0064053
730,1.3352,4.9091,0,0.00047121,4708.8,0.00026606,1384.7,8.1816e-05,0.3797,-0.00043212,-3861.1,0.014849
731,1.5195,4.9091,0,0.00047496,4746.3,0.0002358,974.28,0.00010567,-3.4976,-0.00045082,-4184.7,0.023646
732,1.7037,4.9091,0,0.00048542,4850.9,0.00021587,679.24,0.00012515,-2.4045,-0.0004703,-4476.4,0.032704
733,1.888,4.9091,0,0.00049706,4967.2,0.00020265,467.38,0.00014012,-2.4629,-0.00048748,-4718,0.042045
734,2.0723,4.9091,0,0.00050746,5071.1,0.00019368,315.31,0.0001514,-2.3623,-0.00050139,-4907.2,0.051697
735,2.2565,4.9091,0,0.0005156,5152.4,0.00018725,204.46,0.00015971,-2.5086,-0.00051185,-5048.3,0.061678
736,2.4408,4.9091,0,0.00052126,5209,0.00018234,122.27,0.00016567,-2.9634,-0.00051911,-5148.2,0.072
737,2.6251,4.9091,0,0.00052461,5242.5,0.00017841,60.912,0.00016974,-4.2908,-0.00052362,-5213.9,0.082672
738,2.8093,4.9091,0,0.00052599,5256.2,0.00017564,18.693,0.00017179,-10.213,-0.00052584,-5251.9,0.093699
739,2.9936,4.9091,0,0.00052573,5253.7,0.00017548,4.2711,0.00017052,-32.94,-0.00052621,-5267.9,0.10508
740,3.1779,4.9091,0,0.00052418,5238.2,0.00017604,1.7696,0.00016795,-59,-0.00052513,-5266.6,0.11682
741,3.3621,4.9091,0,0.00052163,5212.7,0.00017616,0.97595,0.0001654,-79.88,-0.00052292,-5251.7,0.12892
742,3.5464,4.9091,0,0.0005183,5179.5,0.0001758,0.61271,0.000163,-95.575,-0.00051985,-5226.3,0.14137
743,3.7307,4.9091,0,0.0005144,5140.4,0.00017505,0.4142,0.00016078,-106.82,-0.00051613,-5192.8,0.15418
744,3.9149,4.9091,0,0.00051007,5097.1,0.00017398,0.29401,0.00015872,-114.33,-0.00051191,-5153.2,0.16733
745,4.0992,4.9091,0,0.00050542,5050.7,0.00017265,0.21619,0.00015682,-118.76,-0.00050733,-5108.9,0.18084
746,4.2835,4.9091,0,0.00050055,5002,0.00017114,0.16333,0.00015505,-120.66,-0.00050249,-5061.2,0.19469
747,4.4677,4.9091,0,0.00049552,4951.8,0.00016947,0.1261,0.00015341,-120.54,-0.00049746,-5010.9,0.20888
748,4.652,4.9091,0,0.00049038,4900.4,0.00016768,0.099115,0.00015186,-118.8,-0.00049229,-4958.7,0.2234
749,4.8363,4.9091,0,0.00048516,4848.2,0.00016581,0.079096,0.00015039,-115.81,-0.00048702,-4905.1,0.23827
750,5.0205,4.9091,0,0.00047989,4795.6,0.00016388,0.063955,0.00014898,-111.86,-0.00048169,-4850.5,0.25346
751,5.2048,4.9091,0,0.00047459,4742.6,0.0001619,0.052307,0.00014762,-107.22,-0.00047632,-4795.3,0.26898
752,5.3891,4.9091,0,0.00046927,4689.5,0.00015989,0.043239,0.0001463,-102.08,-0.00047092,-4739.6,0.28482
753,5.5733,4.9091,0,0.00046394,4636.2,0.00015786,0.03608,0.000145,-96.635,-0.00046551,-4683.7,0.30099
754,5.7576,4.9091,0,0.0004586,4582.9,0.00015583,0.030371,0.00014371,-91.013,-0.00046008,-4627.7,0.31747
755,5.9419,4.9091,0,0.00045327,4529.5,0.00015379,0.025777,0.00014243,-85.331,-0.00045466,-4571.6,0.33426
756,6.1261,4.9091,0,0.00044793,4476.2,0.00015175,0.02205,0.00014114,-79.674,-0.00044923,-4515.5,0.35136
757,6.3104,4.9091,0,0.0004426,4423,0.00014972,0.019003,0.00013985,-74.113,-0.00044382,-4459.6,0.36877
758,6.4947,4.9091,0,0.00043728,4369.8,0.00014769,0.016495,0.00013855,-68.699,-0.00043841,-4403.7,0.38647
759,6.6789,4.9091,0,0.00043196,4316.7,0.00014568,0.014417,0.00013723,-63.469,-0.00043301,-4348,0.40448
760,6.8632,4.9091,0,0.00042665,4263.6,0.00014368,0.012687,0.0001359,-58.45,-0.00042762,-4292.5,0.42278
761,7.0475,4.9091,0,0.00042135,4210.6,0.0001417,0.011239,0.00013455,-53.661,-0.00042224,-4237.2,0.44136
762,7.2317,4.9091,0,0.00041606,4157.7,0.00013973,0.01002,0.00013319,-49.11,-0.00041687,-4182,0.46024
763,7.416,4.9091,0,0.00041077,4104.9,0.00013777,0.0089917,0.0001318,-44.803,-0.00041151,-4127.1,0.4794
764,7.6003,4.9091,0,0.00040549,4052.1,0.00013583,0.0081206,0.0001304,-40.739,-0.00040617,-4072.4,0.49884
765,7.7845,4.9091,0,0.00040023,3999.5,0.0001339,0.0073814,0.00012899,-36.916,-0.00040084,-4017.8,0.51855
766,7.9688,4.9091,0,0.00039497,3946.9,0.00013199,0.0067546,0.00012755,-33.327,-0.00039552,-3963.5,0.53854
767,8.1531,4.9091,0,0.00038972,3894.5,0.00013009,0.0062225,0.0001261,-29.965,-0.00039022,-3909.4,0.55879
768,8.3373,4.9091,0,0.00038448,3842.1,0.00012821,0.0057754,0.00012463,-26.821,-0.00038493,-3855.5,0.57931
769,8.5216,4.9091,0,0.00037925,3789.9,0.00012633,0.0054027,0.00012316,-23.884,-0.00037965,-3801.8,0.60009
770,8.7059,4.9091,0,0.00037404,3737.8,0.00012448,0.005098,0.00012166,-21.143,-0.00037439,-3748.3,0.62113
771,8.8901,4.9091,0,0.00036883,3685.8,0.00012263,0.0048577,0.00012016,-18.589,-0.00036914,-3695,0.64242
772,9.0744,4.9091,0,0.00036364,3633.9,0.0001208,0.0046816,0.00011865,-16.21,-0.00036391,-3642,0.66396
773,9.2587,4.9091,0,0.00035846,3582.1,0.00011898,0.0045718,0.00011712,-13.996,-0.00035869,-3589.1,0.68575
774,9.4429,4.9091,0,0.00035329,3530.5,0.00011718,0.004538,0.00011559,-11.936,-0.00035349,-3536.4,0.70778
775,9.6272,4.9091,0,0.00034814,3479,0.00011538,0.0045931,0.00011405,-10.019,-0.00034831,-3484,0.73005
776,9.8115,4.9091,0,0.000343,3427.6,0.0001136,0.0047766,0.0001125,-8.2372,-0.00034314,-3431.7,0.75256
777,9.9957,4.9091,0,0.00033787,3376.4,0.00011182,0.0051304,0.00011095,-6.5801,-0.00033798,-3379.7,0.7753
778,10.18,4.9091,0,0.00033276,3325.3,0.00011006,0.0057841,0.00010939,-5.0392,-0.00033285,-3327.8,0.79827
779,10.364,4.9091,0,0.00032767,3274.4,0.00010831,0.0070327,0.00010783,-3.6063,-0.00032773,-3276.2,0.82147
780,10.549,4.9091,0,0.00032259,3223.6,0.00010657,0.0097159,0.00010626,-2.2746,-0.00032262,-3224.8,0.84488
781,10.733,4.9091,0,0.00031752,3173,0.00010484,0.018746,0.00010469,-1.0411,-0.00031754,-3173.5,0.86852
782,10.917,4.9091,0,0.00031247,3122.6,0.00010314,0.21581,0.0001031,-0.080528,-0.00031247,-3122.5,0.89237
783,11.101,4.9091,0,0.00030744,3072.3,0.00010156,1.2271,0.00010139,-0.012689,-0.00030742,-3071.7,0.91644
784,11.286,4.9091,0,0.00030242,3022.2,9.9987e-05,2.2277,9.9689e-05,-0.0063205,-0.00030239,-3021,0.94071
785,11.47,4.9091,0,0.00029743,2972.2,9.8415e-05,3.1661,9.7993e-05,-0.0040928,-0.00029737,-2970.6,0.96519
786,11.654,4.9091,0,0.00029244,2922.4,9.6844e-05,4.0447,9.6306e-05,-0.0029562,-0.00029237,-2920.4,0.98986
787,11.838,4.9091,0,0.00028748,2872.8,9.5275e-05,4.8681,9.4627e-05,-0.0022469,-0.0002874,-2870.4,1.0147
788,12.023,4.9091,0,0.00028253,2823.4,9.3707e-05,5.6407,9.2956e-05,-0.0018073,-0.00028244,-2820.5,1.0398
789,12.207,4.9091,0,0.0002776,2774.1,9.2141e-05,6.367,9.1293e-05,-0.0015088,-0.00027749,-2770.9,1.0651
790,12.391,4.9091,0,0.00027269,2725,9.0577e-05,7.0511,8.9638e-05,-0.0013216,-0.00027257,-2721.5,1.0905
791,12.575,4.9091,0,0.0002678,2676.1,8.9016e-05,7.6969,8.7992e-05,-0.0011543,-0.00026767,-2672.3,1.1162
792,12.76,4.9091,0,0.00026292,2627.4,8.7458e-05,8.3083,8.6352e-05,-0.00098747,-0.00026278,-2623.2,1.142
793,12.944,4.9091,0,0.00025807,2578.9,8.5904e-05,8.8885,8.4721e-05,-0.00087922,-0.00025791,-2574.4,1.168
794,13.128,4.9091,0,0.00025323,2530.5,8.4354e-05,9.441,8.3097e-05,-0.00079305,-0.00025307,-2525.8,1.1941
795,13.313,4.9091,0,0.00024841,2482.4,8.2807e-05,9.9688,8.1481e-05,-0.00074998,-0.00024824,-2477.4,1.2205
796,13.497,4.9091,0,0.00024361,2434.4,8.1266e-05,10.475,7.9871e-05,-0.00068342,-0.00024343,-2429.2,1.247
797,13.681,4.9091,0,0.00023883,2386.6,7.9729e-05,10.962,7.8269e-05,-0.00059257,-0.00023864,-2381.1,1.2737
798,13.865,4.9091,0,0.00023407,2339,7.8196e-05,11.434,7.6675e-05,-0.00053644,-0.00023387,-2333.3,1.3005
799,14.05,4.9091,0,0.00022932,2291.7,7.667e-05,11.891,7.5087e-05,-0.00048788,-0.00022912,-2285.7,1.3275
800,14.234,4.9091,0,0.0002246,2244.5,7.5148e-05,12.338,7.3506e-05,-0.00046851,-0.00022439,-2238.3,1.3546
801,14.418,4.9091,0,0.0002199,2197.4,7.3633e-05,12.776,7.1932e-05,-0.00042135,-0.00021968,-2191,1.3819
802,14.602,4.9091,0,0.00021521,2150.6,7.2123e-05,13.208,7.0365e-05,-0.00034414,-0.00021498,-2144,1.4094
803,14.787,4.9091,0,0.00021055,2104,7.0619e-05,13.636,6.8804e-05,-0.00029501,-0.00021031,-2097.2,1.437
804,14.971,4.9091,0,0.0002059,2057.6,6.9122e-05,14.062,6.7251e-05,-0.0002501,-0.00020566,-2050.6,1.4647
805,15.155,4.9091,0,0.00020128,2011.4,6.7632e-05,14.488,6.5703e-05,-0.00022597,-0.00020103,-2004.1,1.4926
806,15.339,4.9091,0,0.00019668,1965.4,6.6148e-05,14.917,6.4163e-05,-0.00017549,-0.00019642,-1957.9,1.5206
807,15.524,4.9091,0,0.00019209,1919.6,6.4672e-05,15.352,6.2628e-05,-9.5601e-05,-0.00019183,-1911.9,1.5487
808,15.708,4.9091,0,0.00018753,1874,6.3202e-05,15.793,6.11e-05,-3.8639e-05,-0.00018725,-1866,1.577
809,15.892,4.9091,0,0.00018298,1828.6,6.1741e-05,16.244,5.9579e-05,1.8706e-05,-0.0001827,-1820.4,1.6054
810,16.077,4.9091,0,0.00017846,1783.4,6.0286e-05,16.706,5.8063e-05,5.9925e-05,-0.00017817,-1775,1.6339
811,16.261,4.9091,0,0.00017396,1738.4,5.884e-05,17.182,5.6554e-05,0.0001258,-0.00017366,-1729.7,1.6626
812,16.445,4.9091,0,0.00016948,1693.6,5.7402e-05,17.675,5.505e-05,0.00021984,-0.00016917,-1684.7,1.6913
813,16.629,4.9091,0,0.00016502,1649,5.5973e-05,18.187,5.3552e-05,0.00029869,-0.0001647,-1639.9,1.7202
814,16.814,4.9091,0,0.00016058,1604.7,5.4552e-05,18.72,5.2061e-05,0.00037886,-0.00016025,-1595.2,1.7492
815,16.998,4.9091,0,0.00015616,1560.5,5.314e-05,19.277,5.0575e-05,0.00044501,-0.00015582,-1550.8,1.7783
816,17.182,4.9091,0,0.00015176,1516.6,5.1737e-05,19.861,4.9094e-05,0.00054206,-0.00015141,-1506.5,1.8075
817,17.366,4.9091,0,0.00014738,1472.8,5.0344e-05,20.475,4.7619e-05,0.00066335,-0.00014703,-1462.5,1.8368
818,17.551,4.9091,0,0.00014303,1429.3,4.8961e-05,21.121,4.615e-05,0.00077858,-0.00014266,-1418.6,1.8662
819,17.735,4.9091,0,0.0001387,1386,4.7587e-05,21.803,4.4685e-05,0.00089733,-0.00013831,-1375,1.8957
820,17.919,4.9091,0,0.00013438,1342.9,4.6224e-05,22.525,4.3226e-05,0.0010115,-0.00013399,-1331.5,1.9253
821,18.103,4.9091,0,0.00013009,1300,4.4871e-05,23.289,4.1772e-05,0.0011568,-0.00012968,-1288.2,1.955
822,18.288,4.9091,0,0.00012582,1257.4,4.353e-05,24.1,4.0323e-05,0.0013322,-0.0001254,-1245.1,1.9847
823,18.472,4.9091,0,0.00012158,1214.9,4.22e-05,24.961,3.8878e-05,0.0015071,-0.00012113,-1202.3,2.0146
824,18.656,4.9091,0,0.00011735,1172.7,4.0881e-05,25.877,3.7438e-05,0.0016933,-0.00011689,-1159.6,2.0445
825,18.841,4.9091,0,0.00011315,1130.7,3.9575e-05,26.852,3.6002e-05,0.0018922,-0.00011267,-1117.1,2.0745
826,19.025,4.9091,0,0.00010897,1089,3.8282e-05,27.892,3.457e-05,0.0021271,-0.00010847,-1074.7,2.1046
827,19.209,4.9091,0,0.00010481,1047.4,3.7002e-05,29.001,3.3142e-05,0.0024026,-0.00010429,-1032.6,2.1348
828,19.393,4.9091,0,0.00010068,1006.1,3.5735e-05,30.184,3.1718e-05,0.0026958,-0.00010013,-990.66,2.165
829,19.578,4.9091,0,9.6568e-05,965.01,3.4482e-05,31.449,3.0297e-05,0.0030221,-9.5994e-05,-948.9,2.1953
830,19.762,4.9091,0,9.248e-05,924.16,3.3245e-05,32.8,2.888e-05,0.0033814,-9.1878e-05,-907.32,2.2257
831,19.946,4.9091,0,8.8416e-05,883.55,3.2022e-05,34.247,2.7465e-05,0.0038006,-8.7784e-05,-865.93,2.2561
832,20.13,4.9091,0,8.4376e-05,843.18,3.0816e-05,35.795,2.6053e-05,0.0042935,-8.371e-05,-824.71,2.2866
833,20.315,4.9091,0,8.0361e-05,803.06,2.9627e-05,37.454,2.4643e-05,0.0048436,-7.9658e-05,-783.67,2.3171
834,20.499,4.9091,0,7.6372e-05,763.19,2.8456e-05,39.233,2.3235e-05,0.0054802,-7.5628e-05,-742.81,2.3477
835,20.683,4.9091,0,7.2408e-05,723.58,2.7303e-05,41.143,2.1828e-05,0.0062111,-7.162e-05,-702.13,2.3784
836,20.867,4.9091,0,6.8472e-05,684.24,2.6171e-05,43.196,2.0423e-05,0.0070778,-6.7634e-05,-661.62,2.4091
837,21.052,4.9091,0,6.4563e-05,645.19,2.506e-05,45.405,1.9018e-05,0.0081149,-6.3671e-05,-621.28,2.4398
838,21.236,4.9091,0,6.0685e-05,606.43,2.3972e-05,47.788,1.7613e-05,0.0093318,-5.9731e-05,-581.12,2.4706
839,21.42,4.9091,0,5.6839e-05,568,2.2909e-05,50.362,1.6208e-05,0.0108,-5.5815e-05,-541.14,2.5014
840,21.605,4.9091,0,5.3028e-05,529.92,2.1874e-05,53.151,1.4801e-05,0.012572,-5.1923e-05,-501.33,2.5323
841,21.789,4.9091,0,4.9255e-05,492.22,2.0868e-05,56.181,1.3393e-05,0.014755,-4.8058e-05,-461.71,2.5631
842,21.973,4.9091,0,4.5526e-05,454.95,1.9897e-05,59.486,1.1982e-05,0.017468,-4.4221e-05,-422.27,2.5941
843,22.157,4.9091,0,4.1847e-05,418.18,1.8963e-05,63.105,1.0567e-05,0.020875,-4.0415e-05,-383.04,2.625
844,22.342,4.9091,0,3.8227e-05,382.01,1.8073e-05,67.09,9.1471e-06,0.025212,-3.6641e-05,-344.01,2.656
845,22.526,4.9091,0,3.4678e-05,346.54,1.7233e-05,71.502,7.7205e-06,0.030874,-3.2903e-05,-305.2,2.687
846,22.71,4.9091,0,3.1217e-05,311.95,1.6451e-05,76.417,6.2852e-06,0.03827,-2.9206e-05,-266.63,2.718
847,22.894,4.9091,0,2.7867e-05,278.48,1.5736e-05,81.928,4.839e-06,0.04892,-2.5554e-05,-228.31,2.7491
848,23.079,4.9091,0,2.4662e-05,246.45,1.5101e-05,88.14,3.3782e-06,0.062019,-2.1951e-05,-190.25,2.7801
849,23.263,4.9091,0,2.1649e-05,216.34,1.4554e-05,95.172,1.8998e-06,0.09042,-1.8399e-05,-152.43,2.8112
850,23.447,4.9091,0,1.8894e-05,188.81,1.4106e-05,103.12,3.9601e-07,0.10369,-1.4896e-05,-114.8,2.8423
851,23.631,4.9091,0,1.65e-05,164.88,1.3761e-05,112.12,-1.1245e-06,0.27547,-1.1441e-05,-77.236,2.8734
852,23.816,4.9091,0,1.4625e-05,146.15,1.3533e-05,122.11,-2.7055e-06,0.10553,-8.0251e-06,-39.864,2.9045
853,1.1509,4.7273,0,0.00063261,6321.7,0.00042038,2706.1,5.8905e-05,-9.8466,-0.00054132,-4519.7,0.0082292
854,1.3352,4.7273,0,0.00057572,5753.2,0.0003319,1781.7,9.4774e-05,-0.006001,-0.00052432,-4651.6,0.016523
855,1.5195,4.7273,0,0.00055831,5579.3,0.0002805,1187.6,0.0001219,-4.0911,-0.00052855,-4891.3,0.025125
856,1.7037,4.7273,0,0.0005499,5495.2,0.00024451,768.76,0.00014177,-3.2102,-0.00053279,-5071.6,0.034021
857,1.888,4.7273,0,0.00054594,5455.6,0.00021981,479.02,0.00015564,-3.1955,-0.00053624,-5201.7,0.043238
858,2.0723,4.7273,0,0.00054409,5437.1,0.00020308,281.73,0.00016511,-3.5499,-0.0005388,-5292.4,0.052796
859,2.2565,4.7273,0,0.00054282,5424.5,0.00019162,147.35,0.00017139,-4.7049,-0.00054023,-5351.5,0.062709
860,2.4408,4.7273,0,0.00054132,5409.4,0.00018383,57.092,0.00017507,-8.6878,-0.00054046,-5384.9,0.072982
861,2.6251,4.7273,0,0.00053922,5388.5,0.00018043,11.97,0.00017483,-30.111,-0.00053952,-5397.5,0.08362
862,2.8093,4.7273,0,0.00053646,5360.9,0.00018078,3.797,0.00017103,-69.447,-0.00053754,-5393.4,0.094623
863,2.9936,4.7273,0,0.00053307,5327.1,0.00018108,1.9056,0.00016731,-101.57,-0.00053469,-5376.1,0.10599
864,3.1779,4.7273,0,0.00052916,5287.9,0.00018087,1.1399,0.00016409,-124.95,-0.00053115,-5348.7,0.11772
865,3.3621,4.7273,0,0.00052482,5244.5,0.0001802,0.74384,0.0001613,-141.25,-0.00052706,-5313.3,0.12981
866,3.5464,4.7273,0,0.00052016,5198,0.00017917,0.51138,0.00015887,-151.97,-0.00052257,-5272,0.14226
867,3.7307,4.7273,0,0.00051527,5149.1,0.00017785,0.36429,0.00015673,-158.3,-0.00051777,-5226.2,0.15507
868,3.9149,4.7273,0,0.00051021,5098.6,0.00017631,0.26648,0.00015483,-161.13,-0.00051276,-5177.1,0.16823
869,4.0992,4.7273,0,0.00050505,5047,0.0001746,0.19906,0.00015312,-161.2,-0.0005076,-5125.6,0.18173
870,4.2835,4.7273,0,0.00049982,4994.7,0.00017277,0.15131,0.00015157,-159.11,-0.00050233,-5072.3,0.19558
871,4.4677,4.7273,0,0.00049454,4942,0.00017084,0.11674,0.00015015,-155.34,-0.000497,-5017.8,0.20977
872,4.652,4.7273,0,0.00048924,4889,0.00016884,0.091259,0.00014883,-150.31,-0.00049162,-4962.4,0.2243
873,4.8363,4.7273,0,0.00048393,4836,0.0001668,0.072184,0.00014758,-144.34,-0.00048622,-4906.5,0.23917
874,5.0205,4.7273,0,0.00047862,4782.9,0.00016472,0.057686,0.00014638,-137.72,-0.00048081,-4850.2,0.25436
875,5.2048,4.7273,0,0.00047331,4729.8,0.00016262,0.046614,0.00014523,-130.67,-0.0004754,-4793.8,0.26988
876,5.3891,4.7273,0,0.00046801,4676.8,0.00016052,0.03801,0.00014409,-123.38,-0.00046998,-4737.3,0.28572
877,5.5733,4.7273,0,0.00046271,4623.9,0.00015841,0.03128,0.00014296,-115.99,-0.00046457,-4680.8,0.30188
878,5.7576,4.7273,0,0.00045742,4571,0.0001563,0.025976,0.00014184,-108.62,-0.00045917,-4624.4,0.31836
879,5.9419,4.7273,0,0.00045214,4518.3,0.0001542,0.021764,0.00014071,-101.37,-0.00045378,-4568.1,0.33515
880,6.1261,4.7273,0,0.00044686,4465.5,0.00015211,0.018398,0.00013956,-94.296,-0.00044839,-4511.9,0.35225
881,6.3104,4.7273,0,0.00044159,4412.9,0.00015004,0.015694,0.0001384,-87.456,-0.00044302,-4456,0.36965
882,6.4947,4.7273,0,0.00043633,4360.3,0.00014798,0.013507,0.00013721,-80.886,-0.00043765,-4400.2,0.38735
883,6.6789,4.7273,0,0.00043107,4307.7,0.00014593,0.011732,0.000136,-74.61,-0.00043229,-4344.6,0.40535
884,6.8632,4.7273,0,0.00042582,4255.3,0.00014391,0.010284,0.00013477,-68.643,-0.00042695,-4289.2,0.42364
885,7.0475,4.7273,0,0.00042057,4202.8,0.0001419,0.0090989,0.00013351,-62.992,-0.00042161,-4234,0.44222
886,7.2317,4.7273,0,0.00041533,4150.4,0.00013991,0.0081251,0.00013223,-57.659,-0.00041628,-4179,0.46109
887,7.416,4.7273,0,0.00041009,4098.1,0.00013793,0.0073234,0.00013092,-52.641,-0.00041096,-4124.2,0.48025
888,7.6003,4.7273,0,0.00040486,4045.8,0.00013597,0.0066618,0.00012959,-47.929,-0.00040566,-4069.6,0.49968
889,7.7845,4.7273,0,0.00039964,3993.6,0.00013403,0.006116,0.00012824,-43.514,-0.00040036,-4015.2,0.51938
890,7.9688,4.7273,0,0.00039442,3941.5,0.0001321,0.0056659,0.00012686,-39.386,-0.00039507,-3961,0.53936
891,8.1531,4.7273,0,0.00038921,3889.4,0.00013019,0.0052977,0.00012547,-35.53,-0.0003898,-3907,0.55961
892,8.3373,4.7273,0,0.000384,3837.4,0.0001283,0.0049981,0.00012405,-31.934,-0.00038454,-3853.3,0.58012
893,8.5216,4.7273,0,0.00037881,3785.5,0.00012642,0.0047589,0.00012262,-28.584,-0.00037929,-3799.7,0.60089
894,8.7059,4.7273,0,0.00037362,3733.6,0.00012455,0.0045728,0.00012116,-25.466,-0.00037405,-3746.3,0.62192
895,8.8901,4.7273,0,0.00036844,3681.9,0.0001227,0.0044369,0.0001197,-22.565,-0.00036882,-3693.1,0.6432
896,9.0744,4.7273,0,0.00036328,3630.3,0.00012086,0.0043488,0.00011822,-19.868,-0.00036361,-3640.2,0.66473
897,9.2587,4.7273,0,0.00035812,3578.7,0.00011904,0.0043084,0.00011673,-17.363,-0.00035841,-3587.4,0.68651
898,9.4429,4.7273,0,0.00035298,3527.3,0.00011723,0.0043208,0.00011522,-15.035,-0.00035323,-3534.8,0.70853
899,9.6272,4.7273,0,0.00034784,3476,0.00011543,0.0043902,0.00011371,-12.873,-0.00034806,-3482.4,0.7308
900,9.8115,4.7273,0,0.00034272,3424.8,0.00011364,0.0045413,0.00011219,-10.866,-0.0003429,-3430.2,0.7533
901,9.9957,4.7273,0,0.00033761,3373.8,0.00011186,0.0047843,0.00011066,-9.0013,-0.00033776,-3378.3,0.77603
902,10.18,4.7273,0,0.00033252,3322.9,0.00011009,0.0051745,0.00010912,-7.2699,-0.00033264,-3326.5,0.79899
903,10.364,4.7273,0,0.00032743,3272.1,0.00010833,0.0058124,0.00010758,-5.6617,-0.00032753,-3274.9,0.82217
904,10.549,4.7273,0,0.00032237,3221.4,0.00010659,0.0068508,0.00010603,-4.1677,-0.00032244,-3223.5,0.84558
905,10.733,4.7273,0,0.00031731,3170.9,0.00010485,0.0089539,0.00010448,-2.7796,-0.00031736,-3172.3,0.86921
906,10.917,4.7273,0,0.00031227,3120.6,0.00010313,0.014543,0.00010293,-1.4918,-0.0003123,-3121.3,0.89305
907,11.101,4.7273,0,0.00030725,3070.4,0.00010141,0.056781,0.00010136,-0.33004,-0.00030726,-3070.5,0.9171
908,11.286,4.7273,0,0.00030225,3020.4,9.9814e-05,0.86717,9.9696e-05,-0.018539,-0.00030223,-3019.9,0.94136
909,11.47,4.7273,0,0.00029725,2970.5,9.8253e-05,1.9021,9.7999e-05,-0.0072213,-0.00029722,-2969.5,0.96583
910,11.654,4.7273,0,0.00029228,2920.8,9.6693e-05,2.876,9.6309e-05,-0.0040226,-0.00029223,-2919.3,0.9905
911,11.838,4.7273,0,0.00028732,2871.2,9.5133e-05,3.7883,9.4628e-05,-0.0024906,-0.00028726,-2869.3,1.0154
912,12.023,4.7273,0,0.00028238,2821.9,9.3574e-05,4.6431,9.2955e-05,-0.0016248,-0.0002823,-2819.5,1.0404
913,12.207,4.7273,0,0.00027746,2772.7,9.2016e-05,5.4454,9.1291e-05,-0.0010665,-0.00027736,-2769.9,1.0657
914,12.391,4.7273,0,0.00027255,2723.6,9.046e-05,6.1996,8.9635e-05,-0.00070556,-0.00027245,-2720.5,1.0911
915,12.575,4.7273,0,0.00026766,2674.8,8.8906e-05,6.9104,8.7986e-05,-0.00041011,-0.00026754,-2671.3,1.1167
916,12.76,4.7273,0,0.00026279,2626.1,8.7355e-05,7.582,8.6345e-05,-0.00014417,-0.00026266,-2622.3,1.1425
917,12.944,4.7273,0,0.00025794,2577.6,8.5806e-05,8.2181,8.4713e-05,4.5985e-05,-0.0002578,-2573.5,1.1685
918,13.128,4.7273,0,0.00025311,2529.3,8.4261e-05,8.8225,8.3087e-05,0.00020094,-0.00025295,-2524.9,1.1947
919,13.313,4.7273,0,0.00024829,2481.2,8.272e-05,9.3988,8.1469e-05,0.00030535,-0.00024813,-2476.5,1.221
920,13.497,4.7273,0,0.00024349,2433.2,8.1183e-05,9.9503,7.9859e-05,0.00042643,-0.00024332,-2428.3,1.2475
921,13.681,4.7273,0,0.00023871,2385.5,7.9651e-05,10.48,7.8256e-05,0.00056557,-0.00023853,-2380.2,1.2742
922,13.865,4.7273,0,0.00023395,2337.9,7.8123e-05,10.992,7.666e-05,0.00066935,-0.00023377,-2332.4,1.301
923,14.05,4.7273,0,0.00022921,2290.6,7.66e-05,11.488,7.5071e-05,0.00076108,-0.00022902,-2284.8,1.328
924,14.234,4.7273,0,0.00022449,2243.4,7.5082e-05,11.971,7.3489e-05,0.00082357,-0.00022429,-2237.4,1.3551
925,14.418,4.7273,0,0.00021979,2196.4,7.357e-05,12.444,7.1914e-05,0.00091169,-0.00021958,-2190.2,1.3824
926,14.602,4.7273,0,0.00021511,2149.6,7.2064e-05,12.909,7.0346e-05,0.0010284,-0.00021489,-2143.1,1.4099
927,14.787,4.7273,0,0.00021045,2103,7.0564e-05,13.37,6.8785e-05,0.0011186,-0.00021022,-2096.3,1.4374
928,14.971,4.7273,0,0.00020581,2056.6,6.907e-05,13.829,6.723e-05,0.0012043,-0.00020557,-2049.7,1.4652
929,15.155,4.7273,0,0.00020118,2010.4,6.7583e-05,14.288,6.5682e-05,0.0012682,-0.00020094,-2003.3,1.493
930,15.339,4.7273,0,0.00019658,1964.5,6.6103e-05,14.75,6.414e-05,0.001362,-0.00019633,-1957,1.521
931,15.524,4.7273,0,0.000192,1918.7,6.463e-05,15.217,6.2604e-05,0.0014805,-0.00019174,-1911,1.5492
932,15.708,4.7273,0,0.00018744,1873.1,6.3164e-05,15.692,6.1075e-05,0.001582,-0.00018717,-1865.2,1.5774
933,15.892,4.7273,0,0.0001829,1827.7,6.1705e-05,16.177,5.9553e-05,0.0016831,-0.00018262,-1819.6,1.6058
934,16.077,4.7273,0,0.00017837,1782.5,6.0255e-05,16.675,5.8036e-05,0.0017682,-0.00017809,-1774.1,1.6343
935,16.261,4.7273,0,0.00017387,1737.6,5.8813e-05,17.189,5.6525e-05,0.0018845,-0.00017358,-1728.9,1.663
936,16.445,4.7273,0,0.0001694,1692.8,5.7379e-05,17.722,5.5021e-05,0.0020259,-0.00016909,-1683.9,1.6917
937,16.629,4.7273,0,0.00016494,1648.2,5.5954e-05,18.276,5.3522e-05,0.0021563,-0.00016462,-1639,1.7206
938,16.814,4.7273,0,0.0001605,1603.9,5.4538e-05,18.854,5.2029e-05,0.0022888,-0.00016017,-1594.4,1.7496
939,16.998,4.7273,0,0.00015608,1559.8,5.3131e-05,19.459,5.0541e-05,0.0024141,-0.00015574,-1549.9,1.7787
940,17.182,4.7273,0,0.00015169,1515.9,5.1734e-05,20.095,4.9059e-05,0.0025702,-0.00015134,-1505.7,1.8078
941,17.366,4.7273,0,0.00014732,1472.2,5.0346e-05,20.765,4.7583e-05,0.002756,-0.00014695,-1461.7,1.8371
942,17.551,4.7273,0,0.00014297,1428.7,4.8969e-05,21.472,4.6112e-05,0.0029362,-0.00014259,-1417.8,1.8665
943,17.735,4.7273,0,0.00013864,1385.4,4.7603e-05,22.221,4.4646e-05,0.0031259,-0.00013825,-1374.2,1.896
944,17.919,4.7273,0,0.00013433,1342.4,4.6247e-05,23.014,4.3184e-05,0.0033179,-0.00013392,-1330.7,1.9256
945,18.103,4.7273,0,0.00013005,1299.6,4.4903e-05,23.857,4.1728e-05,0.0035424,-0.00012962,-1287.5,1.9553
946,18.288,4.7273,0,0.00012578,1257,4.3571e-05,24.753,4.0277e-05,0.0038019,-0.00012534,-1244.4,1.985
947,18.472,4.7273,0,0.00012154,1214.6,4.2251e-05,25.708,3.883e-05,0.0040687,-0.00012109,-1201.5,2.0149
948,18.656,4.7273,0,0.00011733,1172.5,4.0943e-05,26.727,3.7387e-05,0.0043536,-0.00011685,-1158.9,2.0448
949,18.841,4.7273,0,0.00011313,1130.6,3.9649e-05,27.814,3.5948e-05,0.0046553,-0.00011263,-1116.4,2.0748
950,19.025,4.7273,0,0.00010896,1088.9,3.8369e-05,28.977,3.4513e-05,0.0050006,-0.00010844,-1074.1,2.1049
951,19.209,4.7273,0,0.00010482,1047.4,3.7104e-05,30.22,3.3082e-05,0.0053941,-0.00010427,-1032,2.135
952,19.393,4.7273,0,0.00010069,1006.3,3.5853e-05,31.551,3.1655e-05,0.0058187,-0.00010012,-990.1,2.1653
953,19.578,4.7273,0,9.6597e-05,965.3,3.4618e-05,32.977,3.023e-05,0.0062776,-9.5993e-05,-948.39,2.1956
954,19.762,4.7273,0,9.2524e-05,924.6,3.34e-05,34.505,2.8808e-05,0.0067863,-9.1888e-05,-906.86,2.2259
955,19.946,4.7273,0,8.8476e-05,884.15,3.2199e-05,36.145,2.7389e-05,0.0073644,-8.7806e-05,-865.52,2.2563
956,20.13,4.7273,0,8.4455e-05,843.96,3.1016e-05,37.906,2.5972e-05,0.0080234,-8.3746e-05,-824.37,2.2868
957,20.315,4.7273,0,8.046e-05,804.04,2.9852e-05,39.797,2.4557e-05,0.0087614,-7.9708e-05,-783.4,2.3173
958,20.499,4.7273,0,7.6492e-05,764.39,2.8709e-05,41.831,2.3143e-05,0.0095927,-7.5694e-05,-742.61,2.3479
959,20.683,4.7273,0,7.2553e-05,725.03,2.7587e-05,44.02,2.173e-05,0.010541,-7.1704e-05,-702.01,2.3786
960,20.867,4.7273,0,6.8644e-05,685.96,2.6488e-05,46.379,2.0317e-05,0.01164,-6.7737e-05,-661.59,2.4092
961,21.052,4.7273,0,6.4766e-05,647.21,2.5414e-05,48.923,1.8905e-05,0.012926,-6.3794e-05,-621.35,2.44
962,21.236,4.7273,0,6.0921e-05,608.79,2.4366e-05,51.671,1.7491e-05,0.014416,-5.9877e-05,-581.3,2.4707
963,21.42,4.7273,0,5.7112e-05,570.72,2.3347e-05,54.645,1.6077e-05,0.016179,-5.5985e-05,-541.43,2.5016
964,21.605,4.7273,0,5.3341e-05,533.04,2.2359e-05,57.87,1.466e-05,0.018269,-5.212e-05,-501.74,2.5324
965,21.789,4.7273,0,4.9614e-05,495.79,2.1405e-05,61.374,1.324e-05,0.020798,-4.8283e-05,-462.24,2.5633
966,21.973,4.7273,0,4.5934e-05,459.02,2.049e-05,65.194,1.1816e-05,0.023883,-4.4476e-05,-422.93,2.5942
967,22.157,4.7273,0,4.231e-05,422.81,1.9616e-05,69.37,1.0387e-05,0.027687,-4.07e-05,-383.82,2.6252
968,22.342,4.7273,0,3.875e-05,387.23,1.8789e-05,73.95,8.9512e-06,0.032445,-3.6958e-05,-344.91,2.6561
969,22.526,4.7273,0,3.5267e-05,352.42,1.8015e-05,78.993,7.5072e-06,0.038562,-3.3252e-05,-306.21,2.6871
970,22.71,4.7273,0,3.1877e-05,318.55,1.7302e-05,84.565,6.0529e-06,0.046444,-2.9585e-05,-267.72,2.7182
971,22.894,4.7273,0,2.8603e-05,285.84,1.6655e-05,90.741,4.5859e-06,0.057635,-2.5958e-05,-229.44,2.7492
972,23.079,4.7273,0,2.5477e-05,254.6,1.6083e-05,97.6,3.1028e-06,0.071362,-2.2373e-05,-191.34,2.7803
973,23.263,4.7273,0,2.2544e-05,225.28,1.5592e-05,105.22,1.6012e-06,0.10067,-1.8829e-05,-153.41,2.8113
974,23.447,4.7273,0,1.9865e-05,198.51,1.5186e-05,113.66,7.4195e-08,0.1151,-1.5321e-05,-115.56,2.8424
975,23.631,4.7273,0,1.7536e-05,175.24,1.4865e-05,123.01,-1.4676e-06,0.29076,-1.1845e-05,-77.684,2.8735
976,23.816,4.7273,0,1.5703e-05,156.92,1.4638e-05,133.14,-3.0653e-06,0.13131,-8.3961e-06,-39.923,2.9046
977,1.1509,4.5455,0,0.00080094,8003.9,0.00053895,3506.7,6.7328e-05,-36.844,-0.0006807,-5657.2,0.01009
978,1.3352,4.5455,0,0.0007007,7002.1,0.00040361,2163.3,0.00011553,-1.2203,-0.00063834,-5665.5,0.018137
979,1.5195,4.5455,0,0.0006522,6517.5,0.00032315,1329.8,0.00014558,-4.403,-0.00061932,-5751.5,0.02651
980,1.7037,4.5455,0,0.0006184,6179.8,0.00026786,775.41,0.00016407,-4.4919,-0.00060158,-5757.3,0.035227
981,1.888,4.5455,0,0.00059623,5958.2,0.00023166,419.4,0.00017521,-4.7828,-0.00058804,-5739.6,0.044313
982,2.0723,4.5455,0,0.00058102,5806.2,0.00020813,193.25,0.00018152,-6.6911,-0.00057759,-5710.3,0.053776
983,2.2565,4.5455,0,0.00056988,5694.8,0.0001935,55.63,0.00018393,-16.294,-0.00056917,-5674.8,0.06362
984,2.4408,4.5455,0,0.000561,5606.2,0.00018922,9.7754,0.00017909,-66.357,-0.00056193,-5634.1,0.073847
985,2.6251,4.5455,0,0.00055339,5530.1,0.00018901,3.7949,0.00017209,-123.36,-0.00055531,-5588.8,0.084453
986,2.8093,4.5455,0,0.00054647,5461,0.00018852,2.0814,0.00016656,-162.93,-0.00054902,-5539.5,0.095435
987,2.9936,4.5455,0,0.00053996,5395.9,0.00018756,1.3028,0.00016227,-188.74,-0.0005429,-5487.1,0.10679
988,3.1779,4.5455,0,0.00053371,5333.4,0.00018624,0.87206,0.00015888,-204.67,-0.00053688,-5432.3,0.11851
989,3.3621,4.5455,0,0.00052763,5272.6,0.00018463,0.60766,0.00015614,-213.45,-0.00053092,-5375.8,0.1306
990,3.5464,4.5455,0,0.00052169,5213.3,0.00018283,0.4351,0.00015389,-216.97,-0.00052503,-5318.1,0.14305
991,3.7307,4.5455,0,0.00051586,5155,0.00018088,0.31789,0.00015201,-216.59,-0.00051919,-5259.7,0.15586
992,3.9149,4.5455,0,0.00051013,5097.8,0.00017882,0.236,0.0001504,-213.29,-0.00051342,-5201,0.16902
993,4.0992,4.5455,0,0.0005045,5041.5,0.00017669,0.17757,0.000149,-207.82,-0.00050771,-5142.1,0.18253
994,4.2835,4.5455,0,0.00049894,4985.9,0.00017451,0.13519,0.00014777,-200.76,-0.00050205,-5083.2,0.19638
995,4.4677,4.5455,0,0.00049345,4931.1,0.00017229,0.10401,0.00014665,-192.56,-0.00049644,-5024.5,0.21057
996,4.652,4.5455,0,0.00048803,4876.9,0.00017006,0.080809,0.00014562,-183.59,-0.00049089,-4966,0.2251
997,4.8363,4.5455,0,0.00048265,4823.2,0.00016783,0.063365,0.00014464,-174.14,-0.00048537,-4907.8,0.23997
998,5.0205,4.5455,0,0.00047732,4769.9,0.00016559,0.05013,0.0001437,-164.43,-0.0004799,-4849.9,0.25516
999,5.2048,4.5455,0,0.00047202,4716.9,0.00016337,0.040007,0.00014278,-154.64,-0.00047446,-4792.3,0.27068
1000,5.3891,4.5455,0,0.00046674,4664.2,0.00016115,0.032209,0.00014186,-144.93,-0.00046904,-4735,0.28652
1001,5.5733,4.5455,0,0.00046149,4611.8,0.00015895,0.026164,0.00014093,-135.4,-0.00046365,-4678,0.30268
1002,5.7576,4.5455,0,0.00045626,4559.5,0.00015677,0.021449,0.00013998,-126.13,-0.00045827,-4621.2,0.31916
1003,5.9419,4.5455,0,0.00045104,4507.3,0.00015461,0.017754,0.00013901,-117.19,-0.00045292,-4564.7,0.33594
1004,6.1261,4.5455,0,0.00044583,4455.2,0.00015247,0.014846,0.00013801,-108.62,-0.00044757,-4508.5,0.35304
1005,6.3104,4.5455,0,0.00044062,4403.2,0.00015035,0.012546,0.00013698,-100.44,-0.00044224,-4452.5,0.37044
1006,6.4947,4.5455,0,0.00043542,4351.2,0.00014826,0.010723,0.00013592,-92.673,-0.00043692,-4396.8,0.38814
1007,6.6789,4.5455,0,0.00043022,4299.3,0.00014618,0.009273,0.00013482,-85.327,-0.00043161,-4341.3,0.40613
1008,6.8632,4.5455,0,0.00042503,4247.3,0.00014413,0.0081167,0.00013369,-78.4,-0.00042631,-4286,0.42442
1009,7.0475,4.5455,0,0.00041983,4195.4,0.00014209,0.0071943,0.00013252,-71.887,-0.00042101,-4230.9,0.443
1010,7.2317,4.5455,0,0.00041464,4143.6,0.00014008,0.0064568,0.00013132,-65.776,-0.00041572,-4176.1,0.46186
1011,7.416,4.5455,0,0.00040946,4091.7,0.00013808,0.0058681,0.00013009,-60.055,-0.00041044,-4121.4,0.48101
1012,7.6003,4.5455,0,0.00040427,4039.9,0.00013611,0.0053985,0.00012883,-54.709,-0.00040517,-4067,0.50043
1013,7.7845,4.5455,0,0.00039909,3988.1,0.00013415,0.0050262,0.00012754,-49.719,-0.00039991,-4012.7,0.52013
1014,7.9688,4.5455,0,0.00039391,3936.4,0.00013222,0.0047333,0.00012622,-45.069,-0.00039465,-3958.7,0.5401
1015,8.1531,4.5455,0,0.00038873,3884.6,0.00013029,0.0045044,0.00012487,-40.739,-0.00038941,-3904.8,0.56034
1016,8.3373,4.5455,0,0.00038356,3833,0.00012839,0.0043312,0.0001235,-36.711,-0.00038417,-3851.2,0.58084
1017,8.5216,4.5455,0,0.0003784,3781.4,0.0001265,0.0042046,0.00012211,-32.968,-0.00037895,-3797.7,0.60161
1018,8.7059,4.5455,0,0.00037324,3729.8,0.00012463,0.0041184,0.0001207,-29.491,-0.00037373,-3744.5,0.62263
1019,8.8901,4.5455,0,0.00036809,3678.3,0.00012277,0.0040684,0.00011927,-26.262,-0.00036853,-3691.4,0.6439
1020,9.0744,4.5455,0,0.00036294,3626.9,0.00012092,0.0040529,0.00011782,-23.266,-0.00036333,-3638.5,0.66543
1021,9.2587,4.5455,0,0.00035781,3575.6,0.00011909,0.0040708,0.00011636,-20.486,-0.00035815,-3585.8,0.6872
1022,9.4429,4.5455,0,0.00035268,3524.4,0.00011727,0.0041256,0.00011489,-17.908,-0.00035298,-3533.3,0.70921
1023,9.6272,4.5455,0,0.00034757,3473.3,0.00011547,0.0042168,0.0001134,-15.516,-0.00034783,-3481,0.73147
1024,9.8115,4.5455,0,0.00034246,3422.3,0.00011367,0.0043638,0.0001119,-13.298,-0.00034269,-3428.9,0.75396
1025,9.9957,4.5455,0,0.00033737,3371.4,0.00011189,0.0045622,0.00011039,-11.241,-0.00033756,-3377,0.77668
1026,10.18,4.5455,0,0.00033229,3320.6,0.00011012,0.0048456,0.00010887,-9.3319,-0.00033245,-3325.2,0.79963
1027,10.364,4.5455,0,0.00032722,3269.9,0.00010836,0.0052622,0.00010735,-7.5607,-0.00032735,-3273.7,0.82281
1028,10.549,4.5455,0,0.00032216,3219.4,0.00010661,0.0058332,0.00010582,-5.9169,-0.00032226,-3222.4,0.84621
1029,10.733,4.5455,0,0.00031712,3169,0.00010487,0.0068198,0.00010428,-4.3906,-0.0003172,-3171.2,0.86982
1030,10.917,4.5455,0,0.00031209,3118.8,0.00010314,0.0086956,0.00010274,-2.973,-0.00031214,-3120.3,0.89366
1031,11.101,4.5455,0,0.00030708,3068.7,0.00010142,0.013212,0.0001012,-1.6576,-0.00030711,-3069.5,0.9177
1032,11.286,4.5455,0,0.00030208,3018.7,9.9713e-05,0.03994,9.9647e-05,-0.45593,-0.00030209,-3018.9,0.94195
1033,11.47,4.5455,0,0.0002971,2968.9,9.8106e-05,0.74806,9.8004e-05,-0.01977,-0.00029709,-2968.6,0.96641
1034,11.654,4.5455,0,0.00029213,2919.3,9.6554e-05,1.8021,9.6313e-05,-0.0064293,-0.0002921,-2918.4,0.99107
1035,11.838,4.5455,0,0.00028718,2869.8,9.5003e-05,2.7956,9.463e-05,-0.0030254,-0.00028713,-2868.4,1.0159
1036,12.023,4.5455,0,0.00028224,2820.5,9.3452e-05,3.7263,9.2956e-05,-0.0014852,-0.00028218,-2818.6,1.041
1037,12.207,4.5455,0,0.00027733,2771.3,9.1902e-05,4.599,9.1289e-05,-0.00060277,-0.00027725,-2769,1.0662
1038,12.391,4.5455,0,0.00027242,2722.4,9.0353e-05,5.4184,8.9631e-05,-5.5656e-05,-0.00027233,-2719.6,1.0917
1039,12.575,4.5455,0,0.00026754,2673.6,8.8805e-05,6.1894,8.7981e-05,0.0003635,-0.00026743,-2670.5,1.1173
1040,12.76,4.5455,0,0.00026267,2624.9,8.726e-05,6.9169,8.6339e-05,0.00071463,-0.00026256,-2621.5,1.1431
1041,12.944,4.5455,0,0.00025782,2576.5,8.5717e-05,7.6048,8.4705e-05,0.00097219,-0.00025769,-2572.7,1.169
1042,13.128,4.5455,0,0.00025299,2528.2,8.4178e-05,8.2576,8.3079e-05,0.0011829,-0.00025285,-2524.1,1.1952
1043,13.313,4.5455,0,0.00024818,2480.1,8.2641e-05,8.8789,8.146e-05,0.001333,-0.00024803,-2475.6,1.2215
1044,13.497,4.5455,0,0.00024339,2432.2,8.1109e-05,9.4727,7.9848e-05,0.0014958,-0.00024322,-2427.4,1.248
1045,13.681,4.5455,0,0.00023861,2384.5,7.958e-05,10.042,7.8244e-05,0.0016727,-0.00023844,-2379.4,1.2747
1046,13.865,4.5455,0,0.00023385,2336.9,7.8056e-05,10.591,7.6647e-05,0.0018123,-0.00023367,-2331.6,1.3015
1047,14.05,4.5455,0,0.00022912,2289.6,7.6537e-05,11.123,7.5057e-05,0.0019383,-0.00022893,-2284,1.3284
1048,14.234,4.5455,0,0.0002244,2242.4,7.5023e-05,11.64,7.3474e-05,0.0020329,-0.0002242,-2236.6,1.3556
1049,14.418,4.5455,0,0.0002197,2195.5,7.3514e-05,12.146,7.1898e-05,0.0021556,-0.00021949,-2189.4,1.3829
1050,14.602,4.5455,0,0.00021502,2148.7,7.2012e-05,12.643,7.0329e-05,0.002301,-0.0002148,-2142.4,1.4103
1051,14.787,4.5455,0,0.00021036,2102.1,7.0515e-05,13.135,6.8767e-05,0.0024251,-0.00021013,-2095.5,1.4379
1052,14.971,4.5455,0,0.00020572,2055.8,6.9024e-05,13.625,6.7211e-05,0.00254,-0.00020548,-2048.9,1.4656
1053,15.155,4.5455,0,0.0002011,2009.6,6.754e-05,14.114,6.5662e-05,0.0026379,-0.00020085,-2002.5,1.4934
1054,15.339,4.5455,0,0.0001965,1963.6,6.6063e-05,14.606,6.4119e-05,0.0027593,-0.00019624,-1956.3,1.5214
1055,15.524,4.5455,0,0.00019192,1917.8,6.4593e-05,15.105,6.2583e-05,0.0029148,-0.00019165,-1910.2,1.5496
1056,15.708,4.5455,0,0.00018736,1872.3,6.313e-05,15.611,6.1053e-05,0.0030496,-0.00018709,-1864.4,1.5778
1057,15.892,4.5455,0,0.00018282,1826.9,6.1675e-05,16.13,5.9529e-05,0.0031848,-0.00018254,-1818.8,1.6062
1058,16.077,4.5455,0,0.0001783,1781.8,6.0229e-05,16.662,5.8011e-05,0.0033078,-0.00017801,-1773.4,1.6347
1059,16.261,4.5455,0,0.0001738,1736.8,5.879e-05,17.212,5.65e-05,0.0034592,-0.0001735,-1728.1,1.6633
1060,16.445,4.5455,0,0.00016932,1692.1,5.736e-05,17.782,5.4994e-05,0.0036397,-0.00016901,-1683.1,1.6921
1061,16.629,4.5455,0,0.00016487,1647.5,5.5939e-05,18.376,5.3494e-05,0.0038125,-0.00016455,-1638.3,1.7209
1062,16.814,4.5455,0,0.00016043,1603.2,5.4528e-05,18.997,5.2e-05,0.0039887,-0.0001601,-1593.6,1.7499
1063,16.998,4.5455,0,0.00015602,1559.1,5.3126e-05,19.649,5.0511e-05,0.0041584,-0.00015568,-1549.2,1.779
1064,17.182,4.5455,0,0.00015163,1515.3,5.1734e-05,20.334,4.9028e-05,0.0043624,-0.00015127,-1505,1.8081
1065,17.366,4.5455,0,0.00014726,1471.6,5.0352e-05,21.057,4.755e-05,0.0045954,-0.00014689,-1461,1.8374
1066,17.551,4.5455,0,0.00014291,1428.2,4.8981e-05,21.823,4.6077e-05,0.0048328,-0.00014253,-1417.1,1.8668
1067,17.735,4.5455,0,0.00013859,1384.9,4.7621e-05,22.634,4.4609e-05,0.0050755,-0.00013819,-1373.5,1.8963
1068,17.919,4.5455,0,0.00013429,1342,4.6273e-05,23.496,4.3147e-05,0.0053219,-0.00013387,-1330,1.9259
1069,18.103,4.5455,0,0.00013001,1299.2,4.4937e-05,24.414,4.1688e-05,0.0056092,-0.00012958,-1286.8,1.9555
1070,18.288,4.5455,0,0.00012575,1256.7,4.3613e-05,25.392,4.0235e-05,0.0059369,-0.0001253,-1243.8,1.9853
1071,18.472,4.5455,0,0.00012152,1214.4,4.2303e-05,26.436,3.8786e-05,0.0062708,-0.00012105,-1200.9,2.0151
1072,18.656,4.5455,0,0.00011731,1172.3,4.1007e-05,27.552,3.734e-05,0.0066329,-0.00011682,-1158.3,2.045
1073,18.841,4.5455,0,0.00011313,1130.5,3.9724e-05,28.747,3.5899e-05,0.0070109,-0.00011261,-1115.8,2.075
1074,19.025,4.5455,0,0.00010897,1088.9,3.8457e-05,30.026,3.4462e-05,0.0074413,-0.00010842,-1073.6,2.1051
1075,19.209,4.5455,0,0.00010483,1047.6,3.7205e-05,31.397,3.3028e-05,0.0079223,-0.00010426,-1031.5,2.1353
1076,19.393,4.5455,0,0.00010072,1006.5,3.597e-05,32.868,3.1597e-05,0.0084386,-0.00010012,-989.66,2.1655
1077,19.578,4.5455,0,9.6634e-05,965.68,3.4752e-05,34.447,3.0169e-05,0.0090052,-9.6002e-05,-947.99,2.1958
1078,19.762,4.5455,0,9.2576e-05,925.12,3.3552e-05,36.144,2.8743e-05,0.0096197,-9.1908e-05,-906.51,2.2261
1079,19.946,4.5455,0,8.8544e-05,884.83,3.2371e-05,37.968,2.732e-05,0.010311,-8.7837e-05,-865.23,2.2565
1080,20.13,4.5455,0,8.454e-05,844.82,3.1211e-05,39.93,2.5898e-05,0.011093,-8.379e-05,-824.14,2.287
1081,20.315,4.5455,0,8.0565e-05,805.09,3.0071e-05,42.041,2.4478e-05,0.011965,-7.9767e-05,-783.24,2.3175
1082,20.499,4.5455,0,7.6619e-05,765.66,2.8955e-05,44.316,2.3058e-05,0.012942,-7.5768e-05,-742.53,2.3481
1083,20.683,4.5455,0,7.2703e-05,726.53,2.7862e-05,46.768,2.1639e-05,0.014039,-7.1794e-05,-702.01,2.3787
1084,20.867,4.5455,0,6.882e-05,687.72,2.6795e-05,49.413,2.022e-05,0.0153,-6.7846e-05,-661.68,2.4094
1085,21.052,4.5455,0,6.497e-05,649.26,2.5755e-05,52.27,1.88e-05,0.016758,-6.3923e-05,-621.53,2.4401
1086,21.236,4.5455,0,6.1157e-05,611.15,2.4744e-05,55.358,1.7379e-05,0.018437,-6.0027e-05,-581.58,2.4709
1087,21.42,4.5455,0,5.7382e-05,573.43,2.3766e-05,58.701,1.5956e-05,0.020393,-5.6158e-05,-541.81,2.5017
1088,21.605,4.5455,0,5.365e-05,536.13,2.2821e-05,62.325,1.4529e-05,0.022693,-5.2317e-05,-502.23,2.5325
1089,21.789,4.5455,0,4.9963e-05,499.29,2.1914e-05,66.26,1.3099e-05,0.025443,-4.8505e-05,-462.84,2.5634
1090,21.973,4.5455,0,4.6329e-05,462.97,2.1048e-05,70.54,1.1663e-05,0.028764,-4.4724e-05,-423.64,2.5943
1091,22.157,4.5455,0,4.2753e-05,427.24,2.0226e-05,75.205,1.0221e-05,0.032812,-4.0974e-05,-384.63,2.6253
1092,22.342,4.5455,0,3.9246e-05,392.19,1.9454e-05,80.301,8.7717e-06,0.037828,-3.7258e-05,-345.81,2.6563
1093,22.526,4.5455,0,3.5819e-05,357.94,1.8736e-05,85.876,7.3124e-06,0.044211,-3.3576e-05,-307.18,2.6873
1094,22.71,4.5455,0,3.2488e-05,324.66,1.8077e-05,91.987,5.8416e-06,0.052383,-2.993e-05,-268.72,2.7183
1095,22.894,4.5455,0,2.9276e-05,292.56,1.7483e-05,98.692,4.3568e-06,0.063912,-2.632e-05,-230.43,2.7493
1096,23.079,4.5455,0,2.6212e-05,261.94,1.6959e-05,106.05,2.8553e-06,0.078053,-2.2745e-05,-192.27,2.7804
1097,23.263,4.5455,0,2.3339e-05,233.23,1.6507e-05,114.11,1.3348e-06,0.10801,-1.9202e-05,-154.2,2.8114
1098,23.447,4.5455,0,2.0718e-05,207.03,1.6129e-05,122.89,-2.1039e-07,0.12329,-1.5685e-05,-116.14,2.8425
1099,23.631,4.5455,0,1.8439e-05,184.26,1.5823e-05,132.47,-1.7685e-06,0.30195,-1.2191e-05,-78.006,2.8736
1100,23.816,4.5455,0,1.6637e-05,166.26,1.5594e-05,142.7,-3.3786e-06,0.15111,-8.7137e-06,-39.935,2.9047
1101,1.1509,4.3636,0,0.0010436,10429,0.0007048,4643.8,9.0202e-05,25.978,-0.00088437,-7296.6,0.011938
1102,1.3352,4.3636,0,0.00085175,8511.6,0.00047524,2431.9,0.00015252,7.0681,-0.00078393,-7029,0.019655
1103,1.5195,4.3636,0,0.00074847,7479.5,0.00035241,1285.1,0.00017906,-17.399,-0.00071835,-6760.2,0.027771
1104,1.7037,4.3636,0,0.00068605,6855.8,0.00027959,643.29,0.00019344,-3.9863,-0.00067288,-6513.2,0.036304
1105,1.888,4.3636,0,0.00064447,6440.2,0.0002351,264.29,0.00019861,-9.8935,-0.0006397,-6308.6,0.045259
1106,2.0723,4.3636,0,0.00061613,6157,0.00020947,56.655,0.00019808,-28.919,-0.00061561,-6142.7,0.054631
1107,2.2565,4.3636,0,0.00059542,5950.1,0.0002032,9.4444,0.00018594,-120.27,-0.0005972,-6004.4,0.064412
1108,2.4408,4.3636,0,0.00057947,5790.7,0.00020133,4.0418,0.00017431,-198.95,-0.00058252,-5885.5,0.074595
1109,2.6251,4.3636,0,0.00056656,5661.7,0.00019928,2.3006,0.00016603,-247.59,-0.00057032,-5780.2,0.085173
1110,2.8093,4.3636,0,0.00055567,5552.9,0.00019697,1.4729,0.0001601,-275.58,-0.00055982,-5684.8,0.096137
1111,2.9936,4.3636,0,0.00054619,5458.1,0.00019449,0.9986,0.00015578,-289.84,-0.00055052,-5596.7,0.10748
1112,3.1779,4.3636,0,0.00053772,5373.5,0.00019191,0.70108,0.00015257,-294.87,-0.00054211,-5514.5,0.1192
1113,3.3621,4.3636,0,0.00053,5296.4,0.00018928,0.50339,0.00015014,-293.62,-0.00053437,-5436.8,0.13129
1114,3.5464,4.3636,0,0.00052286,5225,0.00018665,0.36736,0.00014826,-288.03,-0.00052716,-5362.9,0.14374
1115,3.7307,4.3636,0,0.00051617,5158.2,0.00018401,0.27145,0.00014678,-279.47,-0.00052035,-5292.1,0.15655
1116,3.9149,4.3636,0,0.00050984,5094.8,0.00018141,0.20264,0.00014559,-268.88,-0.00051387,-5223.8,0.16971
1117,4.0992,4.3636,0,0.00050378,5034.3,0.00017883,0.15261,0.00014461,-256.96,-0.00050766,-5157.8,0.18322
1118,4.2835,4.3636,0,0.00049795,4976,0.00017628,0.11585,0.00014376,-244.2,-0.00050165,-5093.6,0.19708
1119,4.4677,4.3636,0,0.00049229,4919.5,0.00017377,0.088598,0.00014301,-230.99,-0.00049581,-5030.8,0.21127
1120,4.652,4.3636,0,0.00048676,4864.3,0.0001713,0.068238,0.00014232,-217.62,-0.0004901,-4969.4,0.22581
1121,4.8363,4.3636,0,0.00048135,4810.2,0.00016886,0.052926,0.00014166,-204.32,-0.0004845,-4909,0.24067
1122,5.0205,4.3636,0,0.00047601,4756.8,0.00016647,0.041342,0.00014101,-191.24,-0.00047898,-4849.5,0.25587
1123,5.2048,4.3636,0,0.00047074,4704.1,0.0001641,0.032532,0.00014034,-178.51,-0.00047352,-4790.8,0.27139
1124,5.3891,4.3636,0,0.00046551,4651.9,0.00016178,0.025801,0.00013965,-166.22,-0.00046811,-4732.8,0.28723
1125,5.5733,4.3636,0,0.00046031,4600,0.00015949,0.020637,0.00013894,-154.42,-0.00046275,-4675.2,0.30339
1126,5.7576,4.3636,0,0.00045514,4548.3,0.00015723,0.016664,0.00013818,-143.17,-0.00045741,-4618.2,0.31986
1127,5.9419,4.3636,0,0.00044999,4496.8,0.00015501,0.013598,0.00013738,-132.49,-0.00045209,-4561.5,0.33665
1128,6.1261,4.3636,0,0.00044484,4445.3,0.00015282,0.011227,0.00013653,-122.37,-0.0004468,-4505.2,0.35374
1129,6.3104,4.3636,0,0.0004397,4394,0.00015065,0.009392,0.00013564,-112.84,-0.00044151,-4449.3,0.37114
1130,6.4947,4.3636,0,0.00043456,4342.6,0.00014852,0.0079713,0.00013469,-103.87,-0.00043623,-4393.6,0.38883
1131,6.6789,4.3636,0,0.00042942,4291.3,0.00014641,0.0068721,0.00013371,-95.458,-0.00043097,-4338.2,0.40682
1132,6.8632,4.3636,0,0.00042429,4239.9,0.00014433,0.0060237,0.00013267,-87.583,-0.00042571,-4283,0.42511
1133,7.0475,4.3636,0,0.00041915,4188.6,0.00014227,0.005371,0.0001316,-80.223,-0.00042045,-4228.1,0.44368
1134,7.2317,4.3636,0,0.00041401,4137.2,0.00014024,0.0048715,0.00013048,-73.356,-0.00041521,-4173.4,0.46254
1135,7.416,4.3636,0,0.00040886,4085.8,0.00013823,0.0044934,0.00012932,-66.957,-0.00040996,-4118.9,0.48168
1136,7.6003,4.3636,0,0.00040372,4034.4,0.00013624,0.0042108,0.00012812,-61.001,-0.00040472,-4064.6,0.5011
1137,7.7845,4.3636,0,0.00039858,3983,0.00013427,0.0040033,0.00012689,-55.463,-0.00039949,-4010.5,0.52079
1138,7.9688,4.3636,0,0.00039344,3931.6,0.00013232,0.0038571,0.00012562,-50.317,-0.00039427,-3956.6,0.54076
1139,8.1531,4.3636,0,0.00038829,3880.3,0.00013039,0.0037596,0.00012433,-45.539,-0.00038905,-3902.8,0.56099
1140,8.3373,4.3636,0,0.00038315,3828.9,0.00012847,0.0037018,0.000123,-41.106,-0.00038384,-3849.3,0.58149
1141,8.5216,4.3636,0,0.00037802,3777.6,0.00012657,0.0036765,0.00012165,-36.994,-0.00037863,-3795.9,0.60224
1142,8.7059,4.3636,0,0.00037289,3726.3,0.00012469,0.0036799,0.00012028,-33.182,-0.00037344,-3742.8,0.62326
1143,8.8901,4.3636,0,0.00036776,3675.1,0.00012283,0.0037078,0.00011888,-29.648,-0.00036825,-3689.8,0.64453
1144,9.0744,4.3636,0,0.00036264,3623.9,0.00012097,0.0037587,0.00011746,-26.374,-0.00036308,-3637,0.66604
1145,9.2587,4.3636,0,0.00035752,3572.8,0.00011914,0.0038306,0.00011603,-23.341,-0.00035791,-3584.4,0.68781
1146,9.4429,4.3636,0,0.00035242,3521.7,0.00011731,0.0039264,0.00011458,-20.531,-0.00035276,-3531.9,0.70981
1147,9.6272,4.3636,0,0.00034732,3470.8,0.0001155,0.0040448,0.00011312,-17.927,-0.00034762,-3479.7,0.73206
1148,9.8115,4.3636,0,0.00034223,3419.9,0.0001137,0.0041998,0.00011164,-15.515,-0.00034249,-3427.7,0.75454
1149,9.9957,4.3636,0,0.00033715,3369.2,0.00011192,0.0043845,0.00011015,-13.28,-0.00033737,-3375.8,0.77726
1150,10.18,4.3636,0,0.00033208,3318.5,0.00011014,0.0046198,0.00010865,-11.209,-0.00033227,-3324.1,0.8002
1151,10.364,4.3636,0,0.00032702,3268,0.00010838,0.0049362,0.00010714,-9.2888,-0.00032718,-3272.6,0.82337
1152,10.549,4.3636,0,0.00032198,3217.6,0.00010663,0.0053093,0.00010563,-7.5081,-0.00032211,-3221.3,0.84676
1153,10.733,4.3636,0,0.00031695,3167.3,0.00010488,0.0059016,0.0001041,-5.8558,-0.00031705,-3170.2,0.87037
1154,10.917,4.3636,0,0.00031193,3117.1,0.00010315,0.0068788,0.00010258,-4.3221,-0.000312,-3119.3,0.8942
1155,11.101,4.3636,0,0.00030692,3067.1,0.00010143,0.0086045,0.00010104,-2.8981,-0.00030697,-3068.6,0.91823
1156,11.286,4.3636,0,0.00030193,3017.2,9.9717e-05,0.012912,9.9506e-05,-1.5767,-0.00030196,-3018,0.94248
1157,11.47,4.3636,0,0.00029696,2967.5,9.8018e-05,0.042905,9.7963e-05,-0.37285,-0.00029696,-2967.7,0.96693
1158,11.654,4.3636,0,0.000292,2917.9,9.6429e-05,0.83403,9.6316e-05,-0.01425,-0.00029198,-2917.5,0.99158
1159,11.838,4.3636,0,0.00028705,2868.5,9.4885e-05,1.8967,9.4632e-05,-0.0041507,-0.00028702,-2867.6,1.0164
1160,12.023,4.3636,0,0.00028212,2819.3,9.3342e-05,2.8962,9.2956e-05,-0.0013936,-0.00028207,-2817.8,1.0415
1161,12.207,4.3636,0,0.00027721,2770.2,9.1799e-05,3.8329,9.1288e-05,-9.3205e-05,-0.00027714,-2768.2,1.0667
1162,12.391,4.3636,0,0.00027231,2721.2,9.0256e-05,4.7117,8.9629e-05,0.00064766,-0.00027223,-2718.9,1.0921
1163,12.575,4.3636,0,0.00026743,2672.5,8.8715e-05,5.5379,8.7978e-05,0.0011719,-0.00026734,-2669.7,1.1177
1164,12.76,4.3636,0,0.00026257,2623.9,8.7175e-05,6.3163,8.6334e-05,0.0015945,-0.00026246,-2620.7,1.1435
1165,12.944,4.3636,0,0.00025772,2575.4,8.5637e-05,7.0517,8.4699e-05,0.0019028,-0.0002576,-2571.9,1.1695
1166,13.128,4.3636,0,0.00025289,2527.2,8.4102e-05,7.7486,8.3071e-05,0.0021499,-0.00025276,-2523.3,1.1956
1167,13.313,4.3636,0,0.00024808,2479.1,8.257e-05,8.4112,8.1451e-05,0.0023338,-0.00024794,-2474.9,1.2219
1168,13.497,4.3636,0,0.00024329,2431.3,8.1042e-05,9.0437,7.9839e-05,0.0025247,-0.00024314,-2426.7,1.2484
1169,13.681,4.3636,0,0.00023852,2383.6,7.9517e-05,9.6499,7.8233e-05,0.0027288,-0.00023835,-2378.7,1.2751
1170,13.865,4.3636,0,0.00023377,2336,7.7997e-05,10.233,7.6635e-05,0.0028937,-0.00023359,-2330.9,1.3019
1171,14.05,4.3636,0,0.00022903,2288.7,7.6481e-05,10.798,7.5045e-05,0.0030444,-0.00022884,-2283.3,1.3288
1172,14.234,4.3636,0,0.00022431,2241.6,7.497e-05,11.346,7.3461e-05,0.0031615,-0.00022412,-2235.9,1.356
1173,14.418,4.3636,0,0.00021962,2194.6,7.3465e-05,11.882,7.1884e-05,0.0033059,-0.00021941,-2188.7,1.3832
1174,14.602,4.3636,0,0.00021494,2147.9,7.1965e-05,12.409,7.0314e-05,0.0034771,-0.00021472,-2141.7,1.4107
1175,14.787,4.3636,0,0.00021028,2101.3,7.0471e-05,12.93,6.8751e-05,0.0036216,-0.00021006,-2094.8,1.4382
1176,14.971,4.3636,0,0.00020564,2055,6.8984e-05,13.447,6.7194e-05,0.003763,-0.00020541,-2048.2,1.4659
1177,15.155,4.3636,0,0.00020102,2008.8,6.7502e-05,13.965,6.5644e-05,0.0038836,-0.00020078,-2001.8,1.4938
1178,15.339,4.3636,0,0.00019642,1962.9,6.6028e-05,14.486,6.4101e-05,0.0040333,-0.00019617,-1955.6,1.5218
1179,15.524,4.3636,0,0.00019184,1917.1,6.4561e-05,15.013,6.2564e-05,0.0042123,-0.00019158,-1909.6,1.5499
1180,15.708,4.3636,0,0.00018729,1871.6,6.3102e-05,15.549,6.1033e-05,0.0043742,-0.00018702,-1863.7,1.5781
1181,15.892,4.3636,0,0.00018275,1826.2,6.165e-05,16.098,5.9508e-05,0.0045362,-0.00018247,-1818.1,1.6065
1182,16.077,4.3636,0,0.00017823,1781.1,6.0207e-05,16.662,5.799e-05,0.0046893,-0.00017794,-1772.7,1.635
1183,16.261,4.3636,0,0.00017374,1736.2,5.8772e-05,17.245,5.6477e-05,0.0048695,-0.00017344,-1727.5,1.6636
1184,16.445,4.3636,0,0.00016926,1691.4,5.7345e-05,17.851,5.497e-05,0.0050833,-0.00016895,-1682.4,1.6924
1185,16.629,4.3636,0,0.00016481,1646.9,5.5928e-05,18.482,5.3469e-05,0.005285,-0.00016449,-1637.6,1.7212
1186,16.814,4.3636,0,0.00016038,1602.7,5.4521e-05,19.143,5.1974e-05,0.0054954,-0.00016004,-1593,1.7502
1187,16.998,4.3636,0,0.00015597,1558.6,5.3123e-05,19.838,5.0484e-05,0.005703,-0.00015562,-1548.6,1.7792
1188,17.182,4.3636,0,0.00015158,1514.8,5.1736e-05,20.569,4.8999e-05,0.0059416,-0.00015122,-1504.4,1.8084
1189,17.366,4.3636,0,0.00014721,1471.1,5.036e-05,21.343,4.752e-05,0.0062168,-0.00014684,-1460.3,1.8377
1190,17.551,4.3636,0,0.00014287,1427.7,4.8995e-05,22.162,4.6046e-05,0.0064869,-0.00014248,-1416.5,1.8671
1191,17.735,4.3636,0,0.00013855,1384.6,4.7641e-05,23.032,4.4577e-05,0.0067775,-0.00013815,-1372.9,1.8965
1192,17.919,4.3636,0,0.00013425,1341.6,4.63e-05,23.958,4.3112e-05,0.0070715,-0.00013383,-1329.5,1.9261
1193,18.103,4.3636,0,0.00012998,1298.9,4.4972e-05,24.946,4.1653e-05,0.0074071,-0.00012954,-1286.3,1.9558
1194,18.288,4.3636,0,0.00012573,1256.4,4.3657e-05,26,4.0197e-05,0.0077816,-0.00012527,-1243.2,1.9855
1195,18.472,4.3636,0,0.0001215,1214.2,4.2355e-05,27.128,3.8746e-05,0.0081717,-0.00012102,-1200.4,2.0153
1196,18.656,4.3636,0,0.0001173,1172.2,4.1069e-05,28.335,3.7299e-05,0.0085876,-0.0001168,-1157.8,2.0453
1197,18.841,4.3636,0,0.00011313,1130.5,3.9797e-05,29.629,3.5855e-05,0.009027,-0.00011259,-1115.4,2.0752
1198,19.025,4.3636,0,0.00010898,1089,3.8542e-05,31.017,3.4415e-05,0.0095209,-0.00010841,-1073.2,2.1053
1199,19.209,4.3636,0,0.00010485,1047.8,3.7304e-05,32.508,3.2978e-05,0.01007,-0.00010426,-1031.1,2.1355
1200,19.393,4.3636,0,0.00010075,1006.8,3.6083e-05,34.109,3.1544e-05,0.010658,-0.00010013,-989.31,2.1657
1201,19.578,4.3636,0,9.6677e-05,966.11,3.4881e-05,35.832,3.0113e-05,0.011299,-9.6018e-05,-947.69,2.1959
1202,19.762,4.3636,0,9.2633e-05,925.69,3.3698e-05,37.685,2.8684e-05,0.011995,-9.1934e-05,-906.26,2.2263
1203,19.946,4.3636,0,8.8616e-05,885.55,3.2536e-05,39.679,2.7257e-05,0.012774,-8.7874e-05,-865.04,2.2567
1204,20.13,4.3636,0,8.4628e-05,845.7,3.1396e-05,41.828,2.5831e-05,0.013648,-8.3839e-05,-824,2.2872
1205,20.315,4.3636,0,8.0671e-05,806.16,3.0279e-05,44.144,2.4406e-05,0.014617,-7.9829e-05,-783.17,2.3177
1206,20.499,4.3636,0,7.6745e-05,766.92,2.9187e-05,46.641,2.2982e-05,0.015693,-7.5845e-05,-742.53,2.3482
1207,20.683,4.3636,0,7.2852e-05,728.02,2.8121e-05,49.335,2.1557e-05,0.016901,-7.1887e-05,-702.09,2.3789
1208,20.867,4.3636,0,6.8993e-05,689.45,2.7083e-05,52.243,2.0132e-05,0.018277,-6.7955e-05,-661.84,2.4095
1209,21.052,4.3636,0,6.517e-05,651.25,2.6075e-05,55.385,1.8706e-05,0.01986,-6.4051e-05,-621.78,2.4403
1210,21.236,4.3636,0,6.1386e-05,613.43,2.5098e-05,58.783,1.7277e-05,0.021664,-6.0174e-05,-581.92,2.471
1211,21.42,4.3636,0,5.7642e-05,576.03,2.4156e-05,62.459,1.5846e-05,0.023756,-5.6325e-05,-542.24,2.5018
1212,21.605,4.3636,0,5.3944e-05,539.07,2.325e-05,66.44,1.4411e-05,0.026199,-5.2505e-05,-502.76,2.5327
1213,21.789,4.3636,0,5.0294e-05,502.6,2.2384e-05,70.755,1.2971e-05,0.029096,-4.8715e-05,-463.46,2.5636
1214,21.973,4.3636,0,4.67e-05,466.67,2.1561e-05,75.439,1.1525e-05,0.032563,-4.4956e-05,-424.35,2.5945
1215,22.157,4.3636,0,4.3166e-05,431.36,2.0784e-05,80.526,1.0072e-05,0.036765,-4.1228e-05,-385.41,2.6254
1216,22.342,4.3636,0,3.9704e-05,396.76,2.0058e-05,86.057,8.6099e-06,0.041943,-3.7533e-05,-346.66,2.6564
1217,22.526,4.3636,0,3.6323e-05,362.98,1.9385e-05,92.074,7.1374e-06,0.048498,-3.387e-05,-308.06,2.6874
1218,22.71,4.3636,0,3.3041e-05,330.18,1.8771e-05,98.621,5.6524e-06,0.056859,-3.0239e-05,-269.62,2.7184
1219,22.894,4.3636,0,2.9877e-05,298.57,1.8217e-05,105.74,4.1528e-06,0.068622,-2.6639e-05,-231.29,2.7494
1220,23.079,4.3636,0,2.6862e-05,268.44,1.7728e-05,113.48,2.636e-06,0.08307,-2.3068e-05,-193.05,2.7805
1221,23.263,4.3636,0,2.4037e-05,240.2,1.7304e-05,121.86,1.1004e-06,0.11354,-1.9523e-05,-154.84,2.8115
1222,23.447,4.3636,0,2.146e-05,214.45,1.6945e-05,130.9,-4.5921e-07,0.1295,-1.5995e-05,-116.6,2.8426
1223,23.631,4.3636,0,1.922e-05,192.07,1.6648e-05,140.65,-2.0299e-06,0.31053,-1.2484e-05,-78.241,2.8737
1224,23.816,4.3636,0,1.7443e-05,174.31,1.6417e-05,150.94,-3.6494e-06,0.16689,-8.9848e-06,-39.921,2.9048
1225,1.1509,4.1818,0,0.0014047,14037,0.00089682,5405.9,0.00014977,-207.12,-0.0012293,-10569,0.013694
1226,1.3352,4.1818,0,0.0010055,10048,0.00051178,2236.3,0.00021614,14.906,-0.00094856,-8736.2,0.021026
1227,1.5195,4.1818,0,0.00083661,8360.3,0.00035302,928.8,0.00022765,-13.179,-0.00081704,-7862.6,0.02888
1228,1.7037,4.1818,0,0.00074613,7456.1,0.0002749,337.65,0.00022816,-13.587,-0.00073999,-7287.9,0.037237
1229,1.888,4.1818,0,0.00068792,6874.5,0.00023414,51.115,0.00021961,-58.056,-0.00068797,-6877.3,0.046072
1230,2.0723,4.1818,0,0.00064782,6473.8,0.00022461,9.6913,0.00019616,-204.05,-0.00065087,-6568.3,0.05536
1231,2.2565,4.1818,0,0.00061853,6181,0.00021943,4.3571,0.00017817,-305.67,-0.00062307,-6325.8,0.065085
1232,2.4408,4.1818,0,0.00059615,5957.4,0.00021462,2.5529,0.00016603,-362.54,-0.00060143,-6129,0.075231
1233,2.6251,4.1818,0,0.00057839,5779.9,0.00021004,1.6427,0.0001578,-390.85,-0.00058401,-5964.5,0.085784
1234,2.8093,4.1818,0,0.00056385,5634.6,0.00020568,1.121,0.00015214,-401.11,-0.00056957,-5823.8,0.096734
1235,2.9936,4.1818,0,0.00055163,5512.5,0.00020155,0.78822,0.00014822,-399.88,-0.00055732,-5701.1,0.10807
1236,3.1779,4.1818,0,0.00054112,5407.5,0.00019765,0.56597,0.00014549,-391.33,-0.00054671,-5592.2,0.11979
1237,3.3621,4.1818,0,0.00053191,5315.5,0.00019396,0.41192,0.00014358,-378.14,-0.00053733,-5494.2,0.13187
1238,3.5464,4.1818,0,0.00052369,5233.3,0.00019047,0.30286,0.00014224,-362.06,-0.0005289,-5404.8,0.14433
1239,3.7307,4.1818,0,0.00051623,5158.8,0.00018714,0.22439,0.00014129,-344.3,-0.00052122,-5322.2,0.15714
1240,3.9149,4.1818,0,0.00050936,5090.1,0.00018398,0.1673,0.00014061,-325.65,-0.00051411,-5245,0.1703
1241,4.0992,4.1818,0,0.00050295,5026,0.00018094,0.12542,0.00014011,-306.68,-0.00050746,-5172.2,0.18382
1242,4.2835,4.1818,0,0.00049688,4965.4,0.00017803,0.094474,0.00013971,-287.79,-0.00050115,-5103,0.19768
1243,4.4677,4.1818,0,0.00049109,4907.5,0.00017522,0.071492,0.00013937,-269.24,-0.00049511,-5036.5,0.21188
1244,4.652,4.1818,0,0.0004855,4851.6,0.0001725,0.054342,0.00013906,-251.24,-0.00048928,-4972.3,0.22641
1245,4.8363,4.1818,0,0.00048006,4797.3,0.00016987,0.041494,0.00013873,-233.92,-0.00048361,-4910,0.24128
1246,5.0205,4.1818,0,0.00047474,4744.1,0.00016731,0.03184,0.00013838,-217.35,-0.00047806,-4849.1,0.25648
1247,5.2048,4.1818,0,0.00046951,4691.8,0.00016482,0.024566,0.00013798,-201.59,-0.00047261,-4789.4,0.272
1248,5.3891,4.1818,0,0.00046433,4640.1,0.00016238,0.019076,0.00013754,-186.66,-0.00046722,-4730.6,0.28784
1249,5.5733,4.1818,0,0.0004592,4588.8,0.00016,0.014928,0.00013703,-172.58,-0.00046189,-4672.6,0.304
1250,5.7576,4.1818,0,0.00045409,4537.8,0.00015767,0.011794,0.00013647,-159.34,-0.00045659,-4615.3,0.32048
1251,5.9419,4.1818,0,0.000449,4486.9,0.00015539,0.0094277,0.00013583,-146.91,-0.00045132,-4558.6,0.33726
1252,6.1261,4.1818,0,0.00044392,4436.1,0.00015314,0.0076461,0.00013514,-135.28,-0.00044607,-4502.2,0.35435
1253,6.3104,4.1818,0,0.00043885,4385.4,0.00015094,0.0063099,0.00013438,-124.41,-0.00044083,-4446.3,0.37175
1254,6.4947,4.1818,0,0.00043377,4334.7,0.00014877,0.005314,0.00013356,-114.27,-0.0004356,-4390.7,0.38944
1255,6.6789,4.1818,0,0.00042869,4283.9,0.00014663,0.0045784,0.00013268,-104.83,-0.00043038,-4335.4,0.40743
1256,6.8632,4.1818,0,0.00042361,4233.1,0.00014452,0.004042,0.00013174,-96.045,-0.00042516,-4280.4,0.42571
1257,7.0475,4.1818,0,0.00041852,4182.3,0.00014244,0.0036601,0.00013075,-87.877,-0.00041994,-4225.5,0.44428
1258,7.2317,4.1818,0,0.00041343,4131.4,0.00014039,0.0033949,0.0001297,-80.293,-0.00041473,-4171,0.46313
1259,7.416,4.1818,0,0.00040833,4080.5,0.00013836,0.0032208,0.00012861,-73.254,-0.00040952,-4116.6,0.48227
1260,7.6003,4.1818,0,0.00040323,4029.5,0.00013636,0.0031158,0.00012747,-66.727,-0.00040432,-4062.4,0.50168
1261,7.7845,4.1818,0,0.00039812,3978.4,0.00013437,0.0030654,0.0001263,-60.676,-0.00039912,-4008.4,0.52137
1262,7.9688,4.1818,0,0.00039301,3927.4,0.00013241,0.0030552,0.00012508,-55.07,-0.00039392,-3954.6,0.54133
1263,8.1531,4.1818,0,0.0003879,3876.3,0.00013047,0.0030775,0.00012383,-49.878,-0.00038872,-3901,0.56156
1264,8.3373,4.1818,0,0.00038279,3825.3,0.00012855,0.0031254,0.00012255,-45.071,-0.00038354,-3847.6,0.58205
1265,8.5216,4.1818,0,0.00037768,3774.2,0.00012664,0.0031927,0.00012123,-40.621,-0.00037835,-3794.3,0.6028
1266,8.7059,4.1818,0,0.00037257,3723.1,0.00012475,0.0032768,0.00011989,-36.502,-0.00037318,-3741.3,0.62381
1267,8.8901,4.1818,0,0.00036747,3672.1,0.00012288,0.0033737,0.00011853,-32.691,-0.00036801,-3688.4,0.64507
1268,9.0744,4.1818,0,0.00036236,3621.1,0.00012102,0.0034836,0.00011714,-29.164,-0.00036285,-3635.6,0.66658
1269,9.2587,4.1818,0,0.00035727,3570.2,0.00011918,0.0036053,0.00011573,-25.901,-0.0003577,-3583.1,0.68834
1270,9.4429,4.1818,0,0.00035218,3519.4,0.00011735,0.0037387,0.0001143,-22.881,-0.00035256,-3530.7,0.71034
1271,9.6272,4.1818,0,0.0003471,3468.6,0.00011554,0.0038852,0.00011286,-20.086,-0.00034743,-3478.6,0.73258
1272,9.8115,4.1818,0,0.00034202,3417.8,0.00011373,0.0040555,0.0001114,-17.499,-0.00034231,-3426.6,0.75506
1273,9.9957,4.1818,0,0.00033695,3367.2,0.00011194,0.0042389,0.00010993,-15.105,-0.00033721,-3374.7,0.77776
1274,10.18,4.1818,0,0.0003319,3316.7,0.00011016,0.0044527,0.00010845,-12.887,-0.00033212,-3323.1,0.8007
1275,10.364,4.1818,0,0.00032685,3266.3,0.0001084,0.0047164,0.00010696,-10.832,-0.00032703,-3271.7,0.82386
1276,10.549,4.1818,0,0.00032182,3216,0.00010664,0.004992,0.00010545,-8.9287,-0.00032197,-3220.4,0.84725
1277,10.733,4.1818,0,0.00031679,3165.8,0.0001049,0.0054005,0.00010394,-7.1637,-0.00031692,-3169.3,0.87085
1278,10.917,4.1818,0,0.00031178,3115.7,0.00010316,0.0060169,0.00010243,-5.5262,-0.00031188,-3118.4,0.89467
1279,11.101,4.1818,0,0.00030679,3065.7,0.00010144,0.006927,0.0001009,-4.0065,-0.00030685,-3067.7,0.9187
1280,11.286,4.1818,0,0.0003018,3015.9,9.9724e-05,0.0086415,9.9377e-05,-2.5952,-0.00030185,-3017.2,0.94294
1281,11.47,4.1818,0,0.00029683,2966.3,9.8019e-05,0.013418,9.7847e-05,-1.286,-0.00029685,-2966.9,0.96738
1282,11.654,4.1818,0,0.00029188,2916.8,9.6334e-05,0.089291,9.6303e-05,-0.13838,-0.00029188,-2916.8,0.99202
1283,11.838,4.1818,0,0.00028694,2867.4,9.4781e-05,1.0985,9.4634e-05,-0.0068966,-0.00028692,-2866.8,1.0169
1284,12.023,4.1818,0,0.00028201,2818.2,9.3244e-05,2.1579,9.2957e-05,-0.0013623,-0.00028198,-2817.1,1.0419
1285,12.207,4.1818,0,0.0002771,2769.1,9.1707e-05,3.1519,9.1288e-05,0.0004907,-0.00027705,-2767.5,1.0671
1286,12.391,4.1818,0,0.00027221,2720.2,9.017e-05,4.0839,8.9627e-05,0.001415,-0.00027214,-2718.2,1.0925
1287,12.575,4.1818,0,0.00026733,2671.5,8.8634e-05,4.9593,8.7974e-05,0.0020196,-0.00026725,-2669,1.1181
1288,12.76,4.1818,0,0.00026247,2622.9,8.7099e-05,5.7836,8.633e-05,0.0024834,-0.00026238,-2620,1.1439
1289,12.944,4.1818,0,0.00025763,2574.5,8.5566e-05,6.5615,8.4694e-05,0.0028188,-0.00025752,-2571.3,1.1699
1290,13.128,4.1818,0,0.00025281,2526.3,8.4036e-05,7.2981,8.3065e-05,0.0030859,-0.00025268,-2522.7,1.196
1291,13.313,4.1818,0,0.000248,2478.3,8.2508e-05,7.9977,8.1444e-05,0.0032883,-0.00024786,-2474.3,1.2223
1292,13.497,4.1818,0,0.00024321,2430.4,8.0983e-05,8.6649,7.983e-05,0.0034944,-0.00024306,-2426.1,1.2488
1293,13.681,4.1818,0,0.00023844,2382.8,7.9462e-05,9.3038,7.8224e-05,0.0037117,-0.00023828,-2378.1,1.2754
1294,13.865,4.1818,0,0.00023369,2335.3,7.7945e-05,9.9182,7.6625e-05,0.003892,-0.00023352,-2330.3,1.3022
1295,14.05,4.1818,0,0.00022895,2288,7.6432e-05,10.512,7.5034e-05,0.0040554,-0.00022877,-2282.7,1.3292
1296,14.234,4.1818,0,0.00022424,2240.8,7.4924e-05,11.089,7.3449e-05,0.0041902,-0.00022405,-2235.3,1.3563
1297,14.418,4.1818,0,0.00021954,2193.9,7.3422e-05,11.652,7.1872e-05,0.0043501,-0.00021934,-2188.1,1.3836
1298,14.602,4.1818,0,0.00021487,2147.2,7.1925e-05,12.205,7.0301e-05,0.0045375,-0.00021466,-2141.1,1.411
1299,14.787,4.1818,0,0.00021021,2100.6,7.0434e-05,12.752,6.8737e-05,0.0046988,-0.00020999,-2094.2,1.4386
1300,14.971,4.1818,0,0.00020557,2054.3,6.8949e-05,13.295,6.718e-05,0.0048573,-0.00020534,-2047.6,1.4663
1301,15.155,4.1818,0,0.00020096,2008.2,6.747e-05,13.839,6.5629e-05,0.0049981,-0.00020072,-2001.2,1.4941
1302,15.339,4.1818,0,0.00019636,1962.2,6.5999e-05,14.385,6.4085e-05,0.0051643,-0.00019611,-1955,1.5221
1303,15.524,4.1818,0,0.00019178,1916.5,6.4534e-05,14.939,6.2547e-05,0.005363,-0.00019152,-1909,1.5502
1304,15.708,4.1818,0,0.00018722,1871,6.3078e-05,15.502,6.1015e-05,0.0055459,-0.00018696,-1863.2,1.5784
1305,15.892,4.1818,0,0.00018269,1825.6,6.1629e-05,16.078,5.949e-05,0.0057289,-0.00018241,-1817.5,1.6068
1306,16.077,4.1818,0,0.00017817,1780.5,6.0188e-05,16.671,5.797e-05,0.005902,-0.00017788,-1772.1,1.6353
1307,16.261,4.1818,0,0.00017368,1735.6,5.8757e-05,17.285,5.6457e-05,0.0061071,-0.00017338,-1726.9,1.6639
1308,16.445,4.1818,0,0.00016921,1690.9,5.7334e-05,17.923,5.4949e-05,0.0063409,-0.0001689,-1681.9,1.6926
1309,16.629,4.1818,0,0.00016476,1646.4,5.592e-05,18.588,5.3447e-05,0.0065724,-0.00016443,-1637.1,1.7215
1310,16.814,4.1818,0,0.00016033,1602.2,5.4517e-05,19.286,5.1951e-05,0.0068079,-0.00015999,-1592.5,1.7504
1311,16.998,4.1818,0,0.00015592,1558.1,5.3124e-05,20.019,5.046e-05,0.0070393,-0.00015557,-1548,1.7795
1312,17.182,4.1818,0,0.00015154,1514.3,5.1741e-05,20.793,4.8975e-05,0.0073085,-0.00015117,-1503.8,1.8087
1313,17.366,4.1818,0,0.00014718,1470.7,5.0369e-05,21.612,4.7494e-05,0.0076103,-0.0001468,-1459.8,1.8379
1314,17.551,4.1818,0,0.00014284,1427.4,4.901e-05,22.481,4.6019e-05,0.0079173,-0.00014244,-1416,1.8673
1315,17.735,4.1818,0,0.00013852,1384.2,4.7662e-05,23.405,4.4548e-05,0.0082364,-0.00013811,-1372.4,1.8968
1316,17.919,4.1818,0,0.00013423,1341.4,4.6327e-05,24.389,4.3082e-05,0.0085664,-0.0001338,-1329,1.9263
1317,18.103,4.1818,0,0.00012996,1298.7,4.5006e-05,25.44,4.1621e-05,0.0089357,-0.00012951,-1285.8,1.956
1318,18.288,4.1818,0,0.00012572,1256.3,4.3698e-05,26.565,4.0164e-05,0.0093497,-0.00012524,-1242.8,1.9857
1319,18.472,4.1818,0,0.0001215,1214.1,4.2405e-05,27.768,3.8711e-05,0.0097822,-0.000121,-1200,2.0155
1320,18.656,4.1818,0,0.0001173,1172.2,4.1128e-05,29.058,3.7262e-05,0.010239,-0.00011678,-1157.4,2.0454
1321,18.841,4.1818,0,0.00011313,1130.5,3.9867e-05,30.443,3.5816e-05,0.010722,-0.00011258,-1115,2.0754
1322,19.025,4.1818,0,0.00010899,1089.1,3.8622e-05,31.931,3.4374e-05,0.011263,-0.00010841,-1072.8,2.1055
1323,19.209,4.1818,0,0.00010487,1048,3.7396e-05,33.53,3.2935e-05,0.011865,-0.00010426,-1030.8,2.1356
1324,19.393,4.1818,0,0.00010078,1007.1,3.6188e-05,35.251,3.1498e-05,0.012506,-0.00010014,-989.04,2.1658
1325,19.578,4.1818,0,9.6722e-05,966.56,3.5e-05,37.103,3.0064e-05,0.013202,-9.6038e-05,-947.46,2.1961
1326,19.762,4.1818,0,9.269e-05,926.26,3.3834e-05,39.098,2.8632e-05,0.013957,-9.1963e-05,-906.09,2.2264
1327,19.946,4.1818,0,8.8687e-05,886.26,3.2689e-05,41.248,2.7201e-05,0.014799,-8.7913e-05,-864.91,2.2568
1328,20.13,4.1818,0,8.4715e-05,846.57,3.1568e-05,43.566,2.5772e-05,0.015743,-8.389e-05,-823.94,2.2873
1329,20.315,4.1818,0,8.0775e-05,807.19,3.0471e-05,46.066,2.4343e-05,0.016777,-7.9892e-05,-783.16,2.3178
1330,20.499,4.1818,0,7.6867e-05,768.14,2.9401e-05,48.763,2.2914e-05,0.017931,-7.5921e-05,-742.59,2.3484
1331,20.683,4.1818,0,7.2994e-05,729.44,2.836e-05,51.675,2.1485e-05,0.019216,-7.1977e-05,-702.22,2.379
1332,20.867,4.1818,0,6.9157e-05,691.09,2.7347e-05,54.82,2.0054e-05,0.020675,-6.8061e-05,-662.04,2.4097
1333,21.052,4.1818,0,6.5358e-05,653.13,2.6367e-05,58.217,1.8622e-05,0.022339,-6.4172e-05,-622.06,2.4404
1334,21.236,4.1818,0,6.1599e-05,615.57,2.5421e-05,61.888,1.7187e-05,0.024234,-6.0312e-05,-582.28,2.4712
1335,21.42,4.1818,0,5.7884e-05,578.44,2.451e-05,65.857,1.5749e-05,0.026418,-5.6481e-05,-542.68,2.502
1336,21.605,4.1818,0,5.4215e-05,541.78,2.3639e-05,70.151,1.4306e-05,0.028949,-5.268e-05,-503.28,2.5328
1337,21.789,4.1818,0,5.0598e-05,505.63,2.2808e-05,74.796,1.2858e-05,0.03194,-4.8909e-05,-464.06,2.5637
1338,21.973,4.1818,0,4.7037e-05,470.05,2.2022e-05,79.824,1.1403e-05,0.035502,-4.5168e-05,-425.01,2.5946
1339,22.157,4.1818,0,4.354e-05,435.1,2.1283e-05,85.268,9.9395e-06,0.039804,-4.1457e-05,-386.14,2.6255
1340,22.342,4.1818,0,4.0114e-05,400.87,2.0594e-05,91.16,8.4669e-06,0.045084,-3.7778e-05,-347.42,2.6565
1341,22.526,4.1818,0,3.6772e-05,367.47,1.9958e-05,97.538,6.9831e-06,0.051749,-3.4128e-05,-308.84,2.6875
1342,22.71,4.1818,0,3.3529e-05,335.06,1.9378e-05,104.44,5.4862e-06,0.060243,-3.0508e-05,-270.38,2.7185
1343,22.894,4.1818,0,3.0404e-05,303.83,1.8855e-05,111.88,3.9742e-06,0.072178,-2.6914e-05,-232.01,2.7495
1344,23.079,4.1818,0,2.7428e-05,274.09,1.8392e-05,119.91,2.4449e-06,0.086864,-2.3344e-05,-193.68,2.7806
1345,23.263,4.1818,0,2.4639e-05,246.22,1.7989e-05,128.54,8.9717e-07,0.11773,-1.9794e-05,-155.35,2.8116
1346,23.447,4.1818,0,2.2098e-05,220.82,1.7643e-05,137.76,-6.7374e-07,0.13423,-1.6257e-05,-116.95,2.8427
1347,23.631,4.1818,0,1.9888e-05,198.74,1.7353e-05,147.64,-2.2542e-06,0.31715,-1.2732e-05,-78.411,2.8738
1348,23.816,4.1818,0,1.813e-05,181.17,1.7119e-05,157.96,-3.881e-06,0.1795,-9.2143e-06,-39.893,2.9049
1349,1.1509,4,0,0.001665,16639,0.0008684,3473.1,0.00029078,-866.86,-0.0015776,-14906,0.015242
1350,1.3352,4,0,0.0011014,11007,0.0004506,1109.6,0.00031478,89.001,-0.0010775,-10372,0.022195
1351,1.5195,4,0,0.00090668,9060.6,0.00032704,309.79,0.00028012,-42.697,-0.00090163,-8921.9,0.029817
1352,1.7037,4,0,0.00079697,7964.2,0.00027349,36.763,0.00024852,-150.86,-0.00079875,-8019.6,0.038021
1353,1.888,4,0,0.00072537,7248.7,0.00025706,8.5979,0.00020974,-346.91,-0.00073047,-7411.3,0.04675
1354,2.0723,4,0,0.00067558,6751.1,0.00024574,4.8288,0.00018387,-460.03,-0.00068212,-6966.7,0.055967
1355,2.2565,4,0,0.00063886,6384.2,0.00023617,2.7112,0.0001669,-517.74,-0.00064603,-6625.8,0.065644
1356,2.4408,4,0,0.00061081,6103.9,0.00022791,1.809,0.00015568,-540.9,-0.00061817,-6355.3,0.075758
1357,2.6251,4,0,0.00058873,5883.2,0.00022065,1.2245,0.00014824,-542.82,-0.00059605,-6135.1,0.086291
1358,2.8093,4,0,0.00057092,5705.2,0.00021419,0.86473,0.00014332,-531.66,-0.00057808,-5951.9,0.09723
1359,2.9936,4,0,0.00055624,5558.6,0.00020842,0.61886,0.00014011,-512.58,-0.00056317,-5796.8,0.10856
1360,3.1779,4,0,0.00054393,5435.5,0.0002032,0.44892,0.00013808,-488.89,-0.00055058,-5663.2,0.12028
1361,3.3621,4,0,0.00053339,5330.2,0.00019847,0.32802,0.00013684,-462.73,-0.00053975,-5546.3,0.13236
1362,3.5464,4,0,0.00052422,5238.6,0.00019413,0.24105,0.00013614,-435.48,-0.00053026,-5442.6,0.14482
1363,3.7307,4,0,0.00051609,5157.3,0.00019014,0.17782,0.0001358,-408.05,-0.00052182,-5349.1,0.15764
1364,3.9149,4,0,0.00050876,5084.1,0.00018642,0.13155,0.00013569,-381.06,-0.00051417,-5263.9,0.17081
1365,4.0992,4,0,0.00050205,5017,0.00018295,0.09751,0.00013571,-354.88,-0.00050714,-5185,0.18432
1366,4.2835,4,0,0.0004958,4954.6,0.00017968,0.072384,0.00013578,-329.76,-0.00050058,-5111.2,0.19819
1367,4.4677,4,0,0.0004899,4895.7,0.00017659,0.053787,0.00013587,-305.84,-0.00049439,-5041.4,0.21239
1368,4.652,4,0,0.00048427,4839.4,0.00017364,0.039996,0.00013594,-283.21,-0.00048847,-4974.8,0.22693
1369,4.8363,4,0,0.00047884,4785.1,0.00017081,0.02976,0.00013595,-261.89,-0.00048275,-4910.6,0.2418
1370,5.0205,4,0,0.00047355,4732.2,0.0001681,0.022161,0.00013591,-241.87,-0.0004772,-4848.5,0.257
1371,5.2048,4,0,0.00046836,4680.3,0.00016548,0.016526,0.00013578,-223.15,-0.00047175,-4787.9,0.27253
1372,5.3891,4,0,0.00046324,4629.2,0.00016294,0.012354,0.00013557,-205.66,-0.00046639,-4728.6,0.28837
1373,5.5733,4,0,0.00045817,4578.5,0.00016048,0.0092788,0.00013527,-189.36,-0.00046109,-4670.2,0.30453
1374,5.7576,4,0,0.00045313,4528.1,0.00015808,0.0070238,0.00013489,-174.2,-0.00045584,-4612.7,0.321
1375,5.9419,4,0,0.0004481,4477.9,0.00015573,0.0053842,0.00013442,-160.12,-0.00045061,-4555.8,0.33779
1376,6.1261,4,0,0.00044309,4427.8,0.00015344,0.0042068,0.00013387,-147.04,-0.00044541,-4499.5,0.35488
1377,6.3104,4,0,0.00043807,4377.7,0.0001512,0.0033763,0.00013324,-134.91,-0.00044021,-4443.6,0.37227
1378,6.4947,4,0,0.00043306,4327.6,0.00014899,0.0028056,0.00013253,-123.68,-0.00043503,-4388.1,0.38996
1379,6.6789,4,0,0.00042803,4277.4,0.00014682,0.0024302,0.00013175,-113.27,-0.00042985,-4332.9,0.40794
1380,6.8632,4,0,0.000423,4227.1,0.00014469,0.0022008,0.0001309,-103.64,-0.00042467,-4277.9,0.42622
1381,7.0475,4,0,0.00041796,4176.7,0.00014259,0.0020799,0.00012998,-94.724,-0.00041949,-4223.3,0.44479
1382,7.2317,4,0,0.00041291,4126.2,0.00014052,0.0020393,0.00012901,-86.48,-0.00041431,-4168.8,0.46364
1383,7.416,4,0,0.00040785,4075.7,0.00013848,0.0020582,0.00012798,-78.856,-0.00040914,-4114.6,0.48277
1384,7.6003,4,0,0.00040279,4025.1,0.00013646,0.0021199,0.0001269,-71.808,-0.00040396,-4060.5,0.50218
1385,7.7845,4,0,0.00039771,3974.4,0.00013447,0.0022137,0.00012578,-65.292,-0.00039878,-4006.6,0.52187
1386,7.9688,4,0,0.00039264,3923.6,0.00013249,0.0023296,0.00012461,-59.271,-0.00039361,-3952.9,0.54182
1387,8.1531,4,0,0.00038755,3872.9,0.00013054,0.0024611,0.0001234,-53.706,-0.00038844,-3899.4,0.56204
1388,8.3373,4,0,0.00038247,3822,0.00012861,0.0026044,0.00012215,-48.564,-0.00038327,-3846.1,0.58253
1389,8.5216,4,0,0.00037738,3771.2,0.0001267,0.0027543,0.00012087,-43.811,-0.00037811,-3792.9,0.60328
1390,8.7059,4,0,0.00037229,3720.4,0.0001248,0.0029095,0.00011956,-39.42,-0.00037295,-3739.9,0.62428
1391,8.8901,4,0,0.00036721,3669.6,0.00012293,0.0030688,0.00011822,-35.361,-0.0003678,-3687.1,0.64554
1392,9.0744,4,0,0.00036213,3618.8,0.00012106,0.0032316,0.00011686,-31.61,-0.00036265,-3634.5,0.66704
1393,9.2587,4,0,0.00035705,3568,0.00011922,0.0033963,0.00011547,-28.143,-0.00035752,-3582,0.6888
1394,9.4429,4,0,0.00035197,3517.3,0.00011738,0.0035659,0.00011406,-24.938,-0.00035239,-3529.7,0.71079
1395,9.6272,4,0,0.0003469,3466.6,0.00011556,0.0037385,0.00011264,-21.974,-0.00034727,-3477.6,0.73303
1396,9.8115,4,0,0.00034184,3416,0.00011376,0.0039258,0.0001112,-19.233,-0.00034216,-3425.6,0.7555
1397,9.9957,4,0,0.00033678,3365.5,0.00011197,0.0041147,0.00010974,-16.698,-0.00033707,-3373.8,0.7782
1398,10.18,4,0,0.00033174,3315.1,0.00011018,0.0043215,0.00010827,-14.352,-0.00033198,-3322.2,0.80113
1399,10.364,4,0,0.0003267,3264.8,0.00010841,0.0045581,0.00010679,-12.179,-0.00032691,-3270.8,0.82429
1400,10.549,4,0,0.00032168,3214.5,0.00010666,0.0047794,0.0001053,-10.168,-0.00032185,-3219.6,0.84766
1401,10.733,4,0,0.00031666,3164.4,0.00010491,0.0050896,0.0001038,-8.3041,-0.0003168,-3168.6,0.87126
1402,10.917,4,0,0.00031166,3114.4,0.00010317,0.0055281,0.0001023,-6.5759,-0.00031177,-3117.7,0.89507
1403,11.101,4,0,0.00030667,3064.5,0.00010145,0.0060899,0.00010078,-4.9727,-0.00030675,-3067,0.9191
1404,11.286,4,0,0.00030169,3014.8,9.973e-05,0.0069817,9.9266e-05,-3.4843,-0.00030175,-3016.5,0.94333
1405,11.47,4,0,0.00029672,2965.2,9.8024e-05,0.0087906,9.7743e-05,-2.102,-0.00029676,-2966.2,0.96776
1406,11.654,4,0,0.00029177,2915.7,9.6327e-05,0.015732,9.6216e-05,-0.82086,-0.00029179,-2916.1,0.9924
1407,11.838,4,0,0.00028684,2866.4,9.4692e-05,0.41314,9.4635e-05,-0.018111,-0.00028683,-2866.2,1.0172
1408,12.023,4,0,0.00028192,2817.2,9.316e-05,1.5161,9.2958e-05,-0.0014243,-0.00028189,-2816.5,1.0423
1409,12.207,4,0,0.00027701,2768.2,9.1628e-05,2.5599,9.1287e-05,0.0011793,-0.00027697,-2766.9,1.0675
1410,12.391,4,0,0.00027212,2719.4,9.0096e-05,3.5384,8.9626e-05,0.0022489,-0.00027206,-2717.6,1.0929
1411,12.575,4,0,0.00026725,2670.7,8.8565e-05,4.4571,8.7972e-05,0.0028912,-0.00026717,-2668.4,1.1185
1412,12.76,4,0,0.00026239,2622.1,8.7034e-05,5.3214,8.6326e-05,0.0033641,-0.0002623,-2619.5,1.1443
1413,12.944,4,0,0.00025755,2573.8,8.5505e-05,6.1366,8.4689e-05,0.0037011,-0.00025745,-2570.7,1.1702
1414,13.128,4,0,0.00025273,2525.6,8.3978e-05,6.9079,8.3059e-05,0.0039706,-0.00025261,-2522.1,1.1964
1415,13.313,4,0,0.00024793,2477.6,8.2454e-05,7.64,8.1438e-05,0.0041719,-0.0002478,-2473.7,1.2227
1416,13.497,4,0,0.00024314,2429.7,8.0932e-05,8.3377,7.9823e-05,0.0043837,-0.000243,-2425.5,1.2491
1417,13.681,4,0,0.00023837,2382.1,7.9414e-05,9.0053,7.8216e-05,0.0046059,-0.00023822,-2377.5,1.2758
1418,13.865,4,0,0.00023362,2334.6,7.79e-05,9.6469,7.6617e-05,0.0047911,-0.00023345,-2329.8,1.3025
1419,14.05,4,0,0.00022889,2287.3,7.639e-05,10.267,7.5025e-05,0.0049631,-0.00022871,-2282.2,1.3295
1420,14.234,4,0,0.00022418,2240.2,7.4885e-05,10.868,7.3439e-05,0.0051067,-0.00022399,-2234.8,1.3566
1421,14.418,4,0,0.00021948,2193.3,7.3385e-05,11.455,7.1861e-05,0.005274,-0.00021928,-2187.5,1.3839
1422,14.602,4,0,0.00021481,2146.6,7.189e-05,12.032,7.029e-05,0.0054721,-0.0002146,-2140.5,1.4113
1423,14.787,4,0,0.00021015,2100.1,7.0402e-05,12.602,6.8725e-05,0.0056461,-0.00020993,-2093.7,1.4388
1424,14.971,4,0,0.00020552,2053.7,6.8919e-05,13.168,6.7167e-05,0.0058148,-0.00020529,-2047.1,1.4665
1425,15.155,4,0,0.0002009,2007.6,6.7443e-05,13.734,6.5616e-05,0.0059664,-0.00020066,-2000.7,1.4944
1426,15.339,4,0,0.0001963,1961.7,6.5974e-05,14.303,6.4071e-05,0.0061486,-0.00019606,-1954.5,1.5223
1427,15.524,4,0,0.00019173,1916,6.4512e-05,14.88,6.2532e-05,0.0063608,-0.00019147,-1908.5,1.5504
1428,15.708,4,0,0.00018717,1870.4,6.3058e-05,15.466,6.1e-05,0.0065586,-0.00018691,-1862.7,1.5787
1429,15.892,4,0,0.00018264,1825.1,6.1612e-05,16.068,5.9474e-05,0.0067558,-0.00018236,-1817,1.607
1430,16.077,4,0,0.00017813,1780,6.0174e-05,16.686,5.7954e-05,0.0069459,-0.00017784,-1771.6,1.6355
1431,16.261,4,0,0.00017363,1735.1,5.8745e-05,17.327,5.644e-05,0.0071672,-0.00017333,-1726.4,1.6641
1432,16.445,4,0,0.00016916,1690.5,5.7325e-05,17.993,5.4931e-05,0.0074188,-0.00016885,-1681.4,1.6929
1433,16.629,4,0,0.00016472,1646,5.5915e-05,18.689,5.3428e-05,0.0076683,-0.00016439,-1636.6,1.7217
1434,16.814,4,0,0.00016029,1601.8,5.4515e-05,19.419,5.1931e-05,0.0079217,-0.00015995,-1592,1.7506
1435,16.998,4,0,0.00015588,1557.8,5.3125e-05,20.187,5.044e-05,0.0081759,-0.00015553,-1547.6,1.7797
1436,17.182,4,0,0.0001515,1514,5.1747e-05,20.998,4.8953e-05,0.008465,-0.00015113,-1503.4,1.8089
1437,17.366,4,0,0.00014714,1470.4,5.0379e-05,21.858,4.7472e-05,0.0087926,-0.00014676,-1459.4,1.8381
1438,17.551,4,0,0.00014281,1427.1,4.9024e-05,22.77,4.5995e-05,0.0091192,-0.00014241,-1415.6,1.8675
1439,17.735,4,0,0.0001385,1384,4.7682e-05,23.742,4.4523e-05,0.0094647,-0.00013808,-1372,1.897
1440,17.919,4,0,0.00013421,1341.2,4.6353e-05,24.779,4.3056e-05,0.0098186,-0.00013377,-1328.6,1.9265
1441,18.103,4,0,0.00012994,1298.5,4.5038e-05,25.886,4.1594e-05,0.010217,-0.00012948,-1285.4,1.9562
1442,18.288,4,0,0.0001257,1256.2,4.3737e-05,27.072,4.0135e-05,0.010659,-0.00012522,-1242.4,1.9859
1443,18.472,4,0,0.00012149,1214.1,4.2451e-05,28.343,3.8681e-05,0.011118,-0.00012098,-1199.6,2.0157
1444,18.656,4,0,0.0001173,1172.2,4.1182e-05,29.707,3.723e-05,0.011609,-0.00011677,-1157.1,2.0456
1445,18.841,4,0,0.00011314,1130.6,3.993e-05,31.173,3.5783e-05,0.012127,-0.00011258,-1114.7,2.0756
1446,19.025,4,0,0.000109,1089.3,3.8695e-05,32.748,3.4338e-05,0.012701,-0.00010841,-1072.5,2.1056
1447,19.209,4,0,0.0001049,1048.2,3.7479e-05,34.444,3.2897e-05,0.013342,-0.00010427,-1030.6,2.1358
1448,19.393,4,0,0.00010082,1007.5,3.6283e-05,36.27,3.1458e-05,0.014021,-0.00010015,-988.84,2.166
1449,19.578,4,0,9.6766e-05,967,3.5108e-05,38.237,3.0021e-05,0.014761,-9.6059e-05,-947.3,2.1962
1450,19.762,4,0,9.2745e-05,926.81,3.3956e-05,40.358,2.8586e-05,0.015559,-9.1993e-05,-905.97,2.2266
1451,19.946,4,0,8.8755e-05,886.94,3.2826e-05,42.645,2.7153e-05,0.016445,-8.7952e-05,-864.84,2.257
1452,20.13,4,0,8.4797e-05,847.38,3.1722e-05,45.112,2.572e-05,0.017439,-8.3939e-05,-823.92,2.2874
1453,20.315,4,0,8.0871e-05,808.15,3.0643e-05,47.774,2.4288e-05,0.018525,-7.9952e-05,-783.2,2.3179
1454,20.499,4,0,7.698e-05,769.27,2.9593e-05,50.648,2.2855e-05,0.019728,-7.5993e-05,-742.68,2.3485
1455,20.683,4,0,7.3124e-05,730.74,2.8572e-05,53.751,2.1421e-05,0.02107,-7.2061e-05,-702.37,2.3791
1456,20.867,4,0,6.9306e-05,692.59,2.7583e-05,57.101,1.9986e-05,0.022582,-6.8158e-05,-662.26,2.4098
1457,21.052,4,0,6.5528e-05,654.83,2.6627e-05,60.719,1.8549e-05,0.024308,-6.4283e-05,-622.35,2.4405
1458,21.236,4,0,6.1792e-05,617.5,2.5706e-05,64.627,1.7108e-05,0.026263,-6.0438e-05,-582.63,2.4713
1459,21.42,4,0,5.8101e-05,580.61,2.4823e-05,68.849,1.5664e-05,0.028506,-5.6622e-05,-543.1,2.5021
1460,21.605,4,0,5.4458e-05,544.21,2.3981e-05,73.408,1.4215e-05,0.0311,-5.2836e-05,-503.76,2.5329
1461,21.789,4,0,5.0868e-05,508.33,2.318e-05,78.332,1.2759e-05,0.034149,-4.908e-05,-464.6,2.5638
1462,21.973,4,0,4.7336e-05,473.03,2.2424e-05,83.648,1.1296e-05,0.037776,-4.5354e-05,-425.61,2.5947
1463,22.157,4,0,4.3868e-05,438.38,2.1716e-05,89.386,9.8249e-06,0.042137,-4.1658e-05,-386.78,2.6256
1464,22.342,4,0,4.0473e-05,404.45,2.1057e-05,95.574,8.3434e-06,0.047483,-3.799e-05,-348.09,2.6566
1465,22.526,4,0,3.7161e-05,371.36,2.045e-05,102.24,6.8501e-06,0.054226,-3.4351e-05,-309.51,2.6875
1466,22.71,4,0,3.3949e-05,339.26,1.9897e-05,109.41,5.3433e-06,0.062816,-3.0737e-05,-271.03,2.7186
1467,22.894,4,0,3.0855e-05,308.34,1.9399e-05,117.12,3.8213e-06,0.074884,-2.7147e-05,-232.61,2.7496
1468,23.079,4,0,2.7909e-05,278.89,1.8955e-05,125.37,2.282e-06,0.089757,-2.3576e-05,-194.2,2.7806
1469,23.263,4,0,2.515e-05,251.32,1.8566e-05,134.18,7.2455e-07,0.12093,-2.0021e-05,-155.75,2.8117
1470,23.447,4,0,2.2635e-05,226.2,1.823e-05,143.54,-8.5527e-07,0.13786,-1.6475e-05,-117.22,2.8428
1471,23.631,4,0,2.045e-05,204.36,1.7944e-05,153.5,-2.4434e-06,0.32229,-1.2939e-05,-78.535,2.8739
1472,23.816,4,0,1.8706e-05,186.94,1.7707e-05,163.86,-4.0757e-06,0.18958,-9.4059e-06,-39.859,2.905
1473,1.1509,3.8182,0,0.0015651,15641,0.00056221,580.92,0.00049189,52.585,-0.0015537,-15317,0.01647
1474,1.3352,3.8182,0,0.0011673,11665,0.00039713,97.586,0.00037391,-76.849,-0.0011668,-11653,0.023143
1475,1.5195,3.8182,0,0.00095892,9582.5,0.00033655,4.636,0.00028237,-402.45,-0.00096503,-9775,0.030582
1476,1.7037,3.8182,0,0.00083895,8383.7,0.00030602,12.514,0.00022741,-578.11,-0.00084701,-8650.9,0.038659
1477,1.888,3.8182,0,0.00075737,7568.5,0.00028304,3.5881,0.00019237,-677.7,-0.00076654,-7882.5,0.0473
1478,2.0723,3.8182,0,0.00069955,6990.6,0.00026588,3.1097,0.00016955,-720.61,-0.00070894,-7321.2,0.056458
1479,2.2565,3.8182,0,0.00065646,6560.1,0.00025191,1.8416,0.00015456,-729.6,-0.00066577,-6893.3,0.066095
1480,2.4408,3.8182,0,0.00062345,6230.2,0.00024034,1.3213,0.00014474,-716.99,-0.00063251,-6556.9,0.076183
1481,2.6251,3.8182,0,0.00059757,5971.5,0.00023052,0.91976,0.00013839,-691.33,-0.00060629,-6286.6,0.086701
1482,2.8093,3.8182,0,0.00057688,5764.8,0.00022209,0.66153,0.00013442,-658.06,-0.00058523,-6065.2,0.097632
1483,2.9936,3.8182,0,0.00056006,5596.7,0.00021475,0.47696,0.00013207,-620.78,-0.00056802,-5881,0.10896
1484,3.1779,3.8182,0,0.00054616,5457.9,0.00020831,0.34639,0.00013083,-581.83,-0.00055372,-5725.3,0.12067
1485,3.3621,3.8182,0,0.00053449,5341.2,0.0002026,0.25208,0.00013033,-542.73,-0.00054164,-5591.7,0.13277
1486,3.5464,3.8182,0,0.0005245,5241.4,0.00019749,0.1837,0.00013032,-504.44,-0.00053126,-5475.3,0.14522
1487,3.7307,3.8182,0,0.00051581,5154.6,0.00019286,0.13382,0.00013062,-467.58,-0.00052217,-5372.4,0.15804
1488,3.9149,3.8182,0,0.00050811,5077.6,0.00018865,0.097345,0.00013108,-432.49,-0.00051408,-5280,0.17122
1489,4.0992,3.8182,0,0.00050116,5008.1,0.00018477,0.070617,0.00013161,-399.37,-0.00050675,-5195.8,0.18474
1490,4.2835,3.8182,0,0.00049476,4944.2,0.00018118,0.051019,0.00013216,-368.29,-0.0005,-5118.1,0.19861
1491,4.4677,3.8182,0,0.0004888,4884.6,0.00017782,0.036655,0.00013266,-339.27,-0.00049368,-5045.4,0.21282
1492,4.652,3.8182,0,0.00048315,4828.1,0.00017466,0.026142,0.00013309,-312.26,-0.0004877,-4976.7,0.22736
1493,4.8363,3.8182,0,0.00047772,4773.9,0.00017166,0.018471,0.00013344,-287.19,-0.00048196,-4911,0.24223
1494,5.0205,3.8182,0,0.00047247,4721.4,0.00016881,0.012897,0.00013367,-263.96,-0.0004764,-4847.8,0.25743
1495,5.2048,3.8182,0,0.00046732,4670,0.00016607,0.0088758,0.0001338,-242.47,-0.00047098,-4786.5,0.27296
1496,5.3891,3.8182,0,0.00046226,4619.4,0.00016344,0.0060018,0.00013381,-222.61,-0.00046565,-4726.7,0.2888
1497,5.5733,3.8182,0,0.00045725,4569.4,0.0001609,0.0039767,0.00013371,-204.28,-0.00046039,-4668.1,0.30497
1498,5.7576,3.8182,0,0.00045228,4519.6,0.00015844,0.0025783,0.0001335,-187.36,-0.00045517,-4610.4,0.32144
1499,5.9419,3.8182,0,0.00044732,4470.1,0.00015604,0.0016422,0.00013318,-171.76,-0.00044999,-4553.5,0.33822
1500,6.1261,3.8182,0,0.00044236,4420.5,0.0001537,0.0010456,0.00013276,-157.37,-0.00044483,-4497.1,0.35531
1501,6.3104,3.8182,0,0.0004374,4371,0.00015142,0.00069761,0.00013224,-144.1,-0.00043967,-4441.3,0.3727
1502,6.4947,3.8182,0,0.00043244,4321.4,0.00014919,0.00053024,0.00013163,-131.88,-0.00043453,-4385.8,0.39039
1503,6.6789,3.8182,0,0.00042746,4271.7,0.00014699,0.00049331,0.00013094,-120.61,-0.00042939,-4330.7,0.40837
1504,6.8632,3.8182,0,0.00042248,4221.8,0.00014484,0.00054864,0.00013017,-110.22,-0.00042424,-4275.9,0.42665
1505,7.0475,3.8182,0,0.00041748,4171.9,0.00014272,0.00066923,0.00012933,-100.64,-0.0004191,-4221.3,0.44521
1506,7.2317,3.8182,0,0.00041247,4121.8,0.00014064,0.00083462,0.00012842,-91.815,-0.00041395,-4167,0.46406
1507,7.416,3.8182,0,0.00040744,4071.6,0.00013858,0.0010286,0.00012744,-83.675,-0.0004088,-4112.8,0.48319
1508,7.6003,3.8182,0,0.00040241,4021.3,0.00013655,0.0012415,0.00012641,-76.17,-0.00040365,-4058.9,0.5026
1509,7.7845,3.8182,0,0.00039737,3970.9,0.00013455,0.0014646,0.00012533,-69.249,-0.0003985,-4005.1,0.52228
1510,7.9688,3.8182,0,0.00039232,3920.4,0.00013257,0.0016914,0.0001242,-62.865,-0.00039335,-3951.5,0.54223
1511,8.1531,3.8182,0,0.00038726,3869.9,0.00013061,0.0019198,0.00012302,-56.976,-0.0003882,-3898.1,0.56245
1512,8.3373,3.8182,0,0.00038219,3819.3,0.00012867,0.0021458,0.00012181,-51.543,-0.00038305,-3844.8,0.58293
1513,8.5216,3.8182,0,0.00037713,3768.7,0.00012675,0.0023684,0.00012056,-46.53,-0.0003779,-3791.7,0.60367
1514,8.7059,3.8182,0,0.00037206,3718,0.00012485,0.0025864,0.00011927,-41.903,-0.00037276,-3738.8,0.62467
1515,8.8901,3.8182,0,0.00036699,3667.4,0.00012297,0.0027992,0.00011796,-37.632,-0.00036762,-3686.1,0.64593
1516,9.0744,3.8182,0,0.00036192,3616.7,0.0001211,0.0030072,0.00011662,-33.688,-0.00036248,-3633.5,0.66743
1517,9.2587,3.8182,0,0.00035686,3566.1,0.00011925,0.0032108,0.00011525,-30.046,-0.00035736,-3581,0.68918
1518,9.4429,3.8182,0,0.0003518,3515.5,0.00011741,0.003412,0.00011386,-26.683,-0.00035224,-3528.8,0.71117
1519,9.6272,3.8182,0,0.00034674,3465,0.00011559,0.003608,0.00011245,-23.575,-0.00034713,-3476.7,0.7334
1520,9.8115,3.8182,0,0.00034169,3414.5,0.00011378,0.0038122,0.00011102,-20.703,-0.00034203,-3424.8,0.75586
1521,9.9957,3.8182,0,0.00033664,3364.1,0.00011198,0.004011,0.00010958,-18.047,-0.00033694,-3373.1,0.77856
1522,10.18,3.8182,0,0.0003316,3313.7,0.0001102,0.0042147,0.00010813,-15.591,-0.00033187,-3321.5,0.80149
1523,10.364,3.8182,0,0.00032658,3263.5,0.00010843,0.0044382,0.00010666,-13.319,-0.0003268,-3270.1,0.82464
1524,10.549,3.8182,0,0.00032156,3213.3,0.00010667,0.0046291,0.00010518,-11.216,-0.00032175,-3218.9,0.84801
1525,10.733,3.8182,0,0.00031655,3163.3,0.00010492,0.0048829,0.00010369,-9.2684,-0.0003167,-3167.9,0.8716
1526,10.917,3.8182,0,0.00031155,3113.4,0.00010318,0.0052233,0.00010219,-7.4632,-0.00031168,-3117.1,0.89541
1527,11.101,3.8182,0,0.00030657,3063.5,0.00010145,0.0056062,0.00010068,-5.7893,-0.00030666,-3066.4,0.91943
1528,11.286,3.8182,0,0.00030159,3013.9,9.9736e-05,0.0061378,9.9171e-05,-4.2358,-0.00030166,-3016,0.94366
1529,11.47,3.8182,0,0.00029663,2964.3,9.8028e-05,0.0070157,9.7655e-05,-2.793,-0.00029668,-2965.7,0.96809
1530,11.654,3.8182,0,0.00029169,2914.9,9.633e-05,0.0092824,9.6135e-05,-1.4525,-0.00029171,-2915.6,0.99272
1531,11.838,3.8182,0,0.00028676,2865.6,9.4643e-05,0.033257,9.4609e-05,-0.22595,-0.00028676,-2865.7,1.0176
1532,12.023,3.8182,0,0.00028184,2816.4,9.3088e-05,0.97502,9.2958e-05,-0.001665,-0.00028182,-2816,1.0426
1533,12.207,3.8182,0,0.00027694,2767.5,9.1561e-05,2.0606,9.1287e-05,0.0020048,-0.0002769,-2766.4,1.0678
1534,12.391,3.8182,0,0.00027205,2718.6,9.0034e-05,3.0787,8.9624e-05,0.0031395,-0.000272,-2717.1,1.0932
1535,12.575,3.8182,0,0.00026718,2670,8.8506e-05,4.034,8.797e-05,0.003759,-0.00026711,-2667.9,1.1188
1536,12.76,3.8182,0,0.00026233,2621.5,8.698e-05,4.9323,8.6324e-05,0.004207,-0.00026224,-2619,1.1446
1537,12.944,3.8182,0,0.00025749,2573.1,8.5454e-05,5.7791,8.4685e-05,0.0045214,-0.00025739,-2570.2,1.1705
1538,13.128,3.8182,0,0.00025267,2524.9,8.393e-05,6.5799,8.3055e-05,0.0047734,-0.00025256,-2521.6,1.1966
1539,13.313,3.8182,0,0.00024787,2477,8.2409e-05,7.3396,8.1432e-05,0.0049661,-0.00024774,-2473.3,1.2229
1540,13.497,3.8182,0,0.00024308,2429.1,8.089e-05,8.0631,7.9817e-05,0.0051694,-0.00024294,-2425.1,1.2494
1541,13.681,3.8182,0,0.00023831,2381.5,7.9374e-05,8.7552,7.821e-05,0.0053901,-0.00023816,-2377.1,1.276
1542,13.865,3.8182,0,0.00023356,2334,7.7863e-05,9.4199,7.661e-05,0.0055739,-0.0002334,-2329.3,1.3028
1543,14.05,3.8182,0,0.00022883,2286.8,7.6355e-05,10.062,7.5017e-05,0.0057471,-0.00022866,-2281.7,1.3298
1544,14.234,3.8182,0,0.00022412,2239.7,7.4852e-05,10.684,7.3431e-05,0.0058924,-0.00022394,-2234.3,1.3569
1545,14.418,3.8182,0,0.00021943,2192.8,7.3354e-05,11.292,7.1852e-05,0.006066,-0.00021924,-2187.1,1.3841
1546,14.602,3.8182,0,0.00021476,2146.1,7.1862e-05,11.889,7.028e-05,0.0062692,-0.00021455,-2140.1,1.4115
1547,14.787,3.8182,0,0.0002101,2099.6,7.0375e-05,12.478,6.8715e-05,0.0064485,-0.00020989,-2093.3,1.4391
1548,14.971,3.8182,0,0.00020547,2053.3,6.8894e-05,13.063,6.7157e-05,0.0066251,-0.00020524,-2046.7,1.4668
1549,15.155,3.8182,0,0.00020085,2007.1,6.742e-05,13.648,6.5605e-05,0.0067856,-0.00020062,-2000.3,1.4946
1550,15.339,3.8182,0,0.00019626,1961.2,6.5953e-05,14.237,6.4059e-05,0.0069759,-0.00019601,-1954.1,1.5226
1551,15.524,3.8182,0,0.00019168,1915.5,6.4494e-05,14.834,6.252e-05,0.0071983,-0.00019143,-1908.1,1.5507
1552,15.708,3.8182,0,0.00018713,1870,6.3042e-05,15.441,6.0987e-05,0.0074052,-0.00018686,-1862.2,1.5789
1553,15.892,3.8182,0,0.0001826,1824.7,6.1598e-05,16.063,5.9461e-05,0.0076159,-0.00018232,-1816.6,1.6072
1554,16.077,3.8182,0,0.00017809,1779.6,6.0162e-05,16.704,5.794e-05,0.0078147,-0.0001778,-1771.2,1.6357
1555,16.261,3.8182,0,0.0001736,1734.8,5.8736e-05,17.368,5.6425e-05,0.0080478,-0.00017329,-1726,1.6643
1556,16.445,3.8182,0,0.00016913,1690.1,5.7318e-05,18.058,5.4916e-05,0.0083169,-0.00016881,-1681,1.693
1557,16.629,3.8182,0,0.00016468,1645.7,5.5911e-05,18.78,5.3413e-05,0.008577,-0.00016435,-1636.2,1.7219
1558,16.814,3.8182,0,0.00016026,1601.5,5.4514e-05,19.537,5.1915e-05,0.0088456,-0.00015992,-1591.6,1.7508
1559,16.998,3.8182,0,0.00015585,1557.5,5.3128e-05,20.335,5.0422e-05,0.0091147,-0.0001555,-1547.2,1.7799
1560,17.182,3.8182,0,0.00015148,1513.7,5.1752e-05,21.179,4.8935e-05,0.0094183,-0.0001511,-1503,1.809
1561,17.366,3.8182,0,0.00014712,1470.2,5.0389e-05,22.073,4.7453e-05,0.00976,-0.00014673,-1459,1.8383
1562,17.551,3.8182,0,0.00014279,1426.9,4.9038e-05,23.023,4.5975e-05,0.010105,-0.00014238,-1415.2,1.8677
1563,17.735,3.8182,0,0.00013848,1383.8,4.77e-05,24.036,4.4503e-05,0.01047,-0.00013805,-1371.6,1.8971
1564,17.919,3.8182,0,0.00013419,1341,4.6376e-05,25.117,4.3035e-05,0.01084,-0.00013375,-1328.3,1.9267
1565,18.103,3.8182,0,0.00012993,1298.4,4.5066e-05,26.273,4.1571e-05,0.01126,-0.00012947,-1285.1,1.9563
1566,18.288,3.8182,0,0.0001257,1256.1,4.3771e-05,27.512,4.0111e-05,0.011723,-0.00012521,-1242.1,1.986
1567,18.472,3.8182,0,0.00012149,1214.1,4.2492e-05,28.841,3.8655e-05,0.012206,-0.00012097,-1199.4,2.0159
1568,18.656,3.8182,0,0.00011731,1172.3,4.123e-05,30.269,3.7203e-05,0.01272,-0.00011676,-1156.8,2.0457
1569,18.841,3.8182,0,0.00011315,1130.7,3.9985e-05,31.803,3.5754e-05,0.013261,-0.00011258,-1114.5,2.0757
1570,19.025,3.8182,0,0.00010902,1089.5,3.8759e-05,33.454,3.4308e-05,0.013863,-0.00010841,-1072.3,2.1058
1571,19.209,3.8182,0,0.00010492,1048.5,3.7552e-05,35.233,3.2865e-05,0.014527,-0.00010428,-1030.4,2.1359
1572,19.393,3.8182,0,0.00010085,1007.8,3.6366e-05,37.149,3.1424e-05,0.015237,-0.00010017,-988.7,2.1661
1573,19.578,3.8182,0,9.6807e-05,967.4,3.5202e-05,39.214,2.9986e-05,0.016005,-9.608e-05,-947.19,2.1964
1574,19.762,3.8182,0,9.2796e-05,927.32,3.4062e-05,41.442,2.8548e-05,0.016833,-9.2021e-05,-905.89,2.2267
1575,19.946,3.8182,0,8.8816e-05,887.55,3.2945e-05,43.846,2.7112e-05,0.017758,-8.7989e-05,-864.8,2.2571
1576,20.13,3.8182,0,8.4869e-05,848.11,3.1855e-05,46.441,2.5677e-05,0.018783,-8.3983e-05,-823.92,2.2875
1577,20.315,3.8182,0,8.0956e-05,809.01,3.0792e-05,49.241,2.4241e-05,0.019905,-8.0006e-05,-783.25,2.318
1578,20.499,3.8182,0,7.7079e-05,770.26,2.9758e-05,52.264,2.2805e-05,0.021149,-7.6057e-05,-742.79,2.3486
1579,20.683,3.8182,0,7.3239e-05,731.88,2.8755e-05,55.528,2.1368e-05,0.022525,-7.2136e-05,-702.53,2.3792
1580,20.867,3.8182,0,6.9437e-05,693.9,2.7785e-05,59.052,1.9929e-05,0.024081,-6.8244e-05,-662.47,2.4099
1581,21.052,3.8182,0,6.5677e-05,656.32,2.685e-05,62.857,1.8487e-05,0.025845,-6.4381e-05,-622.62,2.4406
1582,21.236,3.8182,0,6.196e-05,619.17,2.5951e-05,66.963,1.7042e-05,0.027839,-6.0548e-05,-582.95,2.4713
1583,21.42,3.8182,0,5.8289e-05,582.48,2.5091e-05,71.394,1.5593e-05,0.03012,-5.6745e-05,-543.48,2.5021
1584,21.605,3.8182,0,5.4667e-05,546.29,2.4271e-05,76.173,1.4138e-05,0.032756,-5.2971e-05,-504.2,2.533
1585,21.789,3.8182,0,5.1099e-05,510.64,2.3495e-05,81.325,1.2676e-05,0.035843,-4.9227e-05,-465.08,2.5638
1586,21.973,3.8182,0,4.759e-05,475.57,2.2764e-05,86.876,1.1207e-05,0.039506,-4.5513e-05,-426.13,2.5947
1587,22.157,3.8182,0,4.4146e-05,441.15,2.2081e-05,92.851,9.7287e-06,0.04391,-4.1827e-05,-387.32,2.6257
1588,22.342,3.8182,0,4.0775e-05,407.47,2.1446e-05,99.274,8.2398e-06,0.049298,-3.8168e-05,-348.64,2.6566
1589,22.526,3.8182,0,3.7488e-05,374.62,2.0862e-05,106.17,6.7388e-06,0.056097,-3.4536e-05,-310.06,2.6876
1590,22.71,3.8182,0,3.43e-05,342.76,2.0329e-05,113.56,5.2241e-06,0.064758,-3.0927e-05,-271.56,2.7186
1591,22.894,3.8182,0,3.123e-05,312.08,1.9848e-05,121.45,3.6941e-06,0.076928,-2.7338e-05,-233.08,2.7497
1592,23.079,3.8182,0,2.8307e-05,282.87,1.9419e-05,129.87,2.1468e-06,0.091949,-2.3765e-05,-194.6,2.7807
1593,23.263,3.8182,0,2.557e-05,255.53,1.9041e-05,138.82,5.8183e-07,0.12337,-2.0205e-05,-156.06,2.8118
1594,23.447,3.8182,0,2.3078e-05,230.62,1.8712e-05,148.28,-1.0049e-06,0.14064,-1.6652e-05,-117.42,2.8428
1595,23.631,3.8182,0,2.0911e-05,208.97,1.8428e-05,158.31,-2.599e-06,0.32624,-1.3107e-05,-78.624,2.8739
1596,23.816,3.8182,0,1.9179e-05,191.66,1.8189e-05,168.68,-4.2355e-06,0.19754,-9.5621e-06,-39.825,2.905
1597,1.1509,3.6364,0,0.0014592,14582,0.00050013,-19.989,0.00044797,-411.85,-0.0014661,-14794,0.017381
1598,1.3352,3.6364,0,0.0011845,11837,0.00042451,-7.5176,0.00033214,-701.52,-0.001195,-12176,0.023883
1599,1.5195,3.6364,0,0.00099809,9974,0.00037194,11.22,0.00025605,-859.55,-0.0010097,-10370,0.031183
1600,1.7037,3.6364,0,0.00087226,8716.6,0.00033317,3.593,0.00020835,-934.22,-0.00088429,-9143.9,0.039159
1601,1.888,3.6364,0,0.00078422,7836.8,0.000305,2.8681,0.00017719,-957.44,-0.00079603,-8269.8,0.04773
1602,2.0723,3.6364,0,0.00071982,7193.2,0.00028309,1.978,0.00015669,-947.74,-0.00073119,-7618.9,0.05684
1603,2.2565,3.6364,0,0.00067135,6708.9,0.00026553,1.3616,0.00014327,-917.29,-0.00068219,-7119.5,0.066445
1604,2.4408,3.6364,0,0.00063407,6336.3,0.00025113,0.97764,0.00013464,-874.26,-0.00064437,-6727.5,0.076513
1605,2.6251,3.6364,0,0.0006049,6044.9,0.00023911,0.69777,0.00012931,-824.27,-0.00061468,-6414.3,0.08702
1606,2.8093,3.6364,0,0.00058175,5813.5,0.00022894,0.50257,0.00012625,-771.1,-0.00059101,-6160.3,0.097945
1607,2.9936,3.6364,0,0.00056311,5627.2,0.00022025,0.36162,0.00012474,-717.25,-0.00057186,-5951.3,0.10927
1608,3.1779,3.6364,0,0.00054789,5475.1,0.00021273,0.26022,0.00012428,-664.37,-0.00055615,-5776.8,0.12099
1609,3.3621,3.6364,0,0.00053527,5349,0.00020617,0.18675,0.00012449,-613.47,-0.00054305,-5629.1,0.13308
1610,3.5464,3.6364,0,0.00052462,5242.6,0.00020037,0.1335,0.00012514,-565.15,-0.00053194,-5502.2,0.14554
1611,3.7307,3.6364,0,0.00051548,5151.2,0.00019521,0.094855,0.00012602,-519.74,-0.00052234,-5391.3,0.15837
1612,3.9149,3.6364,0,0.00050748,5071.3,0.00019056,0.066817,0.00012702,-477.36,-0.00051391,-5293,0.17154
1613,4.0992,3.6364,0,0.00050033,4999.9,0.00018633,0.046501,0.00012803,-438.01,-0.00050634,-5204.5,0.18507
1614,4.2835,3.6364,0,0.00049384,4935,0.00018246,0.031821,0.000129,-401.63,-0.00049944,-5123.5,0.19894
1615,4.4677,3.6364,0,0.00048783,4874.9,0.00017887,0.021259,0.00012988,-368.08,-0.00049304,-5048.5,0.21315
1616,4.652,3.6364,0,0.00048217,4818.3,0.00017553,0.013711,0.00013065,-337.2,-0.00048702,-4978.1,0.2277
1617,4.8363,3.6364,0,0.00047676,4764.3,0.00017238,0.008367,0.00013128,-308.82,-0.00048126,-4911.2,0.24258
1618,5.0205,3.6364,0,0.00047154,4712.2,0.00016941,0.0046357,0.00013177,-282.77,-0.00047571,-4847.2,0.25778
1619,5.2048,3.6364,0,0.00046645,4661.3,0.00016657,0.0020818,0.00013212,-258.87,-0.00047031,-4785.3,0.2733
1620,5.3891,3.6364,0,0.00046144,4611.2,0.00016386,0.00038605,0.00013233,-236.95,-0.00046501,-4725.1,0.28915
1621,5.5733,3.6364,0,0.00045649,4561.7,0.00016125,-0.00068796,0.00013239,-216.85,-0.00045979,-4666.3,0.30531
1622,5.7576,3.6364,0,0.00045156,4512.5,0.00015874,-0.001313,0.00013233,-198.42,-0.00045461,-4608.5,0.32179
1623,5.9419,3.6364,0,0.00044666,4463.5,0.0001563,-0.0016173,0.00013214,-181.51,-0.00044947,-4551.5,0.33857
1624,6.1261,3.6364,0,0.00044175,4414.5,0.00015392,-0.0016936,0.00013183,-166,-0.00044434,-4495.1,0.35566
1625,6.3104,3.6364,0,0.00043684,4365.4,0.00015161,-0.0016123,0.00013141,-151.76,-0.00043923,-4439.3,0.37305
1626,6.4947,3.6364,0,0.00043192,4316.3,0.00014935,-0.0014226,0.00013089,-138.69,-0.00043412,-4383.9,0.39073
1627,6.6789,3.6364,0,0.00042699,4267,0.00014714,-0.001162,0.00013027,-126.69,-0.00042901,-4328.9,0.40872
1628,6.8632,3.6364,0,0.00042204,4217.5,0.00014496,-0.00085644,0.00012957,-115.66,-0.00042389,-4274.2,0.42699
1629,7.0475,3.6364,0,0.00041708,4167.9,0.00014283,-0.00052544,0.00012879,-105.53,-0.00041877,-4219.7,0.44555
1630,7.2317,3.6364,0,0.0004121,4118.2,0.00014073,-0.00018289,0.00012793,-96.206,-0.00041365,-4165.4,0.4644
1631,7.416,3.6364,0,0.00040711,4068.3,0.00013866,0.00016244,0.000127,-87.635,-0.00040853,-4111.4,0.48353
1632,7.6003,3.6364,0,0.0004021,4018.2,0.00013662,0.00050396,0.00012601,-79.748,-0.0004034,-4057.5,0.50293
1633,7.7845,3.6364,0,0.00039708,3968.1,0.00013461,0.0008371,0.00012496,-72.488,-0.00039827,-4003.8,0.52261
1634,7.9688,3.6364,0,0.00039205,3917.8,0.00013262,0.0011593,0.00012387,-65.804,-0.00039313,-3950.3,0.54256
1635,8.1531,3.6364,0,0.00038702,3867.5,0.00013066,0.001468,0.00012272,-59.647,-0.000388,-3897,0.56277
1636,8.3373,3.6364,0,0.00038197,3817.1,0.00012872,0.0017645,0.00012153,-53.973,-0.00038286,-3843.8,0.58325
1637,8.5216,3.6364,0,0.00037692,3766.6,0.00012679,0.002047,0.0001203,-48.745,-0.00037773,-3790.8,0.60399
1638,8.7059,3.6364,0,0.00037187,3716.1,0.00012489,0.0023162,0.00011904,-43.924,-0.0003726,-3737.9,0.62499
1639,8.8901,3.6364,0,0.00036681,3665.6,0.000123,0.0025742,0.00011774,-39.478,-0.00036747,-3685.2,0.64624
1640,9.0744,3.6364,0,0.00036176,3615.1,0.00012113,0.00282,0.00011642,-35.377,-0.00036235,-3632.7,0.66774
1641,9.2587,3.6364,0,0.0003567,3564.6,0.00011927,0.0030551,0.00011507,-31.592,-0.00035723,-3580.3,0.68948
1642,9.4429,3.6364,0,0.00035165,3514.1,0.00011743,0.0032824,0.00011369,-28.099,-0.00035212,-3528.1,0.71147
1643,9.6272,3.6364,0,0.0003466,3463.7,0.00011561,0.0034993,0.0001123,-24.874,-0.00034702,-3476,0.73369
1644,9.8115,3.6364,0,0.00034156,3413.3,0.0001138,0.0037186,0.00011088,-21.894,-0.00034193,-3424.2,0.75615
1645,9.9957,3.6364,0,0.00033652,3362.9,0.000112,0.0039248,0.00010945,-19.141,-0.00033685,-3372.5,0.77885
1646,10.18,3.6364,0,0.00033149,3312.7,0.00011021,0.0041311,0.00010801,-16.596,-0.00033177,-3320.9,0.80177
1647,10.364,3.6364,0,0.00032647,3262.5,0.00010844,0.0043484,0.00010655,-14.243,-0.00032671,-3269.6,0.82492
1648,10.549,3.6364,0,0.00032146,3212.4,0.00010668,0.0045214,0.00010507,-12.065,-0.00032166,-3218.4,0.84829
1649,10.733,3.6364,0,0.00031646,3162.4,0.00010493,0.0047421,0.00010359,-10.049,-0.00031663,-3167.4,0.87188
1650,10.917,3.6364,0,0.00031147,3112.5,0.00010319,0.0050246,0.0001021,-8.1813,-0.0003116,-3116.6,0.89568
1651,11.101,3.6364,0,0.00030648,3062.7,0.00010146,0.0053079,0.0001006,-6.4501,-0.00030659,-3065.9,0.91969
1652,11.286,3.6364,0,0.00030152,3013.1,9.9741e-05,0.0056536,9.9095e-05,-4.8438,-0.0003016,-3015.5,0.94392
1653,11.47,3.6364,0,0.00029656,2963.6,9.8031e-05,0.0061308,9.7584e-05,-3.3523,-0.00029662,-2965.2,0.96834
1654,11.654,3.6364,0,0.00029162,2914.2,9.6332e-05,0.0071241,9.6069e-05,-1.9662,-0.00029165,-2915.1,0.99297
1655,11.838,3.6364,0,0.00028669,2864.9,9.4642e-05,0.011211,9.455e-05,-0.67886,-0.0002867,-2865.2,1.0178
1656,12.023,3.6364,0,0.00028178,2815.8,9.3031e-05,0.53842,9.2959e-05,-0.0023518,-0.00028177,-2815.5,1.0428
1657,12.207,3.6364,0,0.00027688,2766.9,9.1507e-05,1.6571,9.1287e-05,0.0029877,-0.00027685,-2766,1.068
1658,12.391,3.6364,0,0.00027199,2718,8.9983e-05,2.7073,8.9624e-05,0.0040489,-0.00027195,-2716.7,1.0934
1659,12.575,3.6364,0,0.00026712,2669.4,8.8459e-05,3.6925,8.7968e-05,0.0045821,-0.00026706,-2667.5,1.119
1660,12.76,3.6364,0,0.00026227,2620.9,8.6935e-05,4.6185,8.6321e-05,0.0049696,-0.00026219,-2618.6,1.1448
1661,12.944,3.6364,0,0.00025744,2572.6,8.5413e-05,5.4909,8.4683e-05,0.005245,-0.00025734,-2569.8,1.1707
1662,13.128,3.6364,0,0.00025262,2524.4,8.3891e-05,6.3157,8.3052e-05,0.0054699,-0.00025251,-2521.3,1.1969
1663,13.313,3.6364,0,0.00024782,2476.5,8.2372e-05,7.0977,8.1428e-05,0.0056435,-0.0002477,-2472.9,1.2231
1664,13.497,3.6364,0,0.00024303,2428.7,8.0856e-05,7.8423,7.9813e-05,0.0058345,-0.0002429,-2424.7,1.2496
1665,13.681,3.6364,0,0.00023827,2381,7.9343e-05,8.5541,7.8205e-05,0.0060446,-0.00023812,-2376.7,1.2762
1666,13.865,3.6364,0,0.00023352,2333.6,7.7833e-05,9.2376,7.6604e-05,0.0062247,-0.00023336,-2329,1.303
1667,14.05,3.6364,0,0.00022879,2286.3,7.6327e-05,9.8973,7.5011e-05,0.0063942,-0.00022862,-2281.4,1.33
1668,14.234,3.6364,0,0.00022408,2239.3,7.4826e-05,10.537,7.3425e-05,0.0065396,-0.0002239,-2234,1.3571
1669,14.418,3.6364,0,0.00021939,2192.4,7.333e-05,11.162,7.1845e-05,0.0067135,-0.0002192,-2186.8,1.3843
1670,14.602,3.6364,0,0.00021472,2145.7,7.1839e-05,11.774,7.0273e-05,0.0069179,-0.00021451,-2139.8,1.4117
1671,14.787,3.6364,0,0.00021006,2099.2,7.0354e-05,12.379,6.8707e-05,0.007101,-0.00020985,-2093,1.4393
1672,14.971,3.6364,0,0.00020543,2052.9,6.8875e-05,12.981,6.7148e-05,0.0072824,-0.00020521,-2046.4,1.4669
1673,15.155,3.6364,0,0.00020082,2006.8,6.7403e-05,13.582,6.5596e-05,0.0074473,-0.00020058,-1999.9,1.4948
1674,15.339,3.6364,0,0.00019622,1960.9,6.5937e-05,14.186,6.405e-05,0.0076432,-0.00019598,-1953.7,1.5227
1675,15.524,3.6364,0,0.00019165,1915.2,6.4479e-05,14.799,6.2511e-05,0.0078725,-0.00019139,-1907.7,1.5508
1676,15.708,3.6364,0,0.0001871,1869.7,6.3029e-05,15.423,6.0977e-05,0.0080852,-0.00018683,-1861.9,1.5791
1677,15.892,3.6364,0,0.00018257,1824.4,6.1587e-05,16.062,5.945e-05,0.0083034,-0.00018229,-1816.3,1.6074
1678,16.077,3.6364,0,0.00017806,1779.3,6.0153e-05,16.721,5.7929e-05,0.0085127,-0.00017777,-1770.9,1.6359
1679,16.261,3.6364,0,0.00017357,1734.5,5.8729e-05,17.404,5.6414e-05,0.0087543,-0.00017326,-1725.7,1.6645
1680,16.445,3.6364,0,0.0001691,1689.8,5.7314e-05,18.114,5.4904e-05,0.0090296,-0.00016878,-1680.7,1.6932
1681,16.629,3.6364,0,0.00016465,1645.4,5.5909e-05,18.857,5.34e-05,0.0092986,-0.00016433,-1635.9,1.722
1682,16.814,3.6364,0,0.00016023,1601.2,5.4514e-05,19.638,5.1902e-05,0.0095784,-0.00015989,-1591.3,1.751
1683,16.998,3.6364,0,0.00015583,1557.2,5.313e-05,20.46,5.0408e-05,0.0098562,-0.00015547,-1546.9,1.78
1684,17.182,3.6364,0,0.00015145,1513.5,5.1758e-05,21.33,4.892e-05,0.010173,-0.00015108,-1502.7,1.8092
1685,17.366,3.6364,0,0.0001471,1470,5.0398e-05,22.252,4.7438e-05,0.010526,-0.00014671,-1458.7,1.8384
1686,17.551,3.6364,0,0.00014277,1426.7,4.905e-05,23.234,4.5959e-05,0.010883,-0.00014236,-1415,1.8678
1687,17.735,3.6364,0,0.00013846,1383.7,4.7716e-05,24.28,4.4486e-05,0.011261,-0.00013803,-1371.4,1.8972
1688,17.919,3.6364,0,0.00013418,1340.9,4.6396e-05,25.397,4.3017e-05,0.011648,-0.00013373,-1328,1.9268
1689,18.103,3.6364,0,0.00012993,1298.4,4.509e-05,26.593,4.1552e-05,0.012078,-0.00012945,-1284.9,1.9564
1690,18.288,3.6364,0,0.00012569,1256.1,4.38e-05,27.876,4.0092e-05,0.012557,-0.0001252,-1241.9,1.9862
1691,18.472,3.6364,0,0.00012149,1214.1,4.2526e-05,29.252,3.8635e-05,0.013055,-0.00012096,-1199.2,2.016
1692,18.656,3.6364,0,0.00011731,1172.3,4.127e-05,30.731,3.7181e-05,0.013585,-0.00011676,-1156.6,2.0459
1693,18.841,3.6364,0,0.00011316,1130.8,4.0031e-05,32.322,3.5731e-05,0.014143,-0.00011257,-1114.3,2.0758
1694,19.025,3.6364,0,0.00010904,1089.6,3.8812e-05,34.035,3.4284e-05,0.014764,-0.00010842,-1072.2,2.1059
1695,19.209,3.6364,0,0.00010494,1048.7,3.7613e-05,35.881,3.284e-05,0.015449,-0.00010428,-1030.3,2.136
1696,19.393,3.6364,0,0.00010088,1008.1,3.6435e-05,37.871,3.1397e-05,0.016178,-0.00010018,-988.59,2.1662
1697,19.578,3.6364,0,9.6842e-05,967.75,3.528e-05,40.017,2.9957e-05,0.01697,-9.6099e-05,-947.11,2.1965
1698,19.762,3.6364,0,9.2839e-05,927.75,3.4149e-05,42.333,2.8517e-05,0.017821,-9.2046e-05,-905.85,2.2268
1699,19.946,3.6364,0,8.8868e-05,888.07,3.3043e-05,44.832,2.7079e-05,0.018765,-8.802e-05,-864.79,2.2572
1700,20.13,3.6364,0,8.4931e-05,848.72,3.1965e-05,47.53,2.5641e-05,0.019818,-8.4022e-05,-823.95,2.2876
1701,20.315,3.6364,0,8.1028e-05,809.72,3.0914e-05,50.442,2.4204e-05,0.020965,-8.0052e-05,-783.31,2.3181
1702,20.499,3.6364,0,7.7162e-05,771.09,2.9894e-05,53.587,2.2765e-05,0.022232,-7.6111e-05,-742.89,2.3487
1703,20.683,3.6364,0,7.3334e-05,732.84,2.8906e-05,56.982,2.1325e-05,0.023636,-7.2198e-05,-702.67,2.3793
1704,20.867,3.6364,0,6.9546e-05,694.98,2.7951e-05,60.646,1.9883e-05,0.025217,-6.8315e-05,-662.66,2.41
1705,21.052,3.6364,0,6.58e-05,657.55,2.7032e-05,64.6,1.8438e-05,0.027009,-6.4462e-05,-622.85,2.4407
1706,21.236,3.6364,0,6.2098e-05,620.55,2.615e-05,68.865,1.6989e-05,0.029028,-6.0639e-05,-583.23,2.4714
1707,21.42,3.6364,0,5.8443e-05,584.03,2.5308e-05,73.462,1.5535e-05,0.031334,-5.6845e-05,-543.81,2.5022
1708,21.605,3.6364,0,5.4838e-05,548,2.4508e-05,78.416,1.4076e-05,0.033993,-5.3081e-05,-504.56,2.533
1709,21.789,3.6364,0,5.1288e-05,512.53,2.3751e-05,83.748,1.261e-05,0.037107,-4.9347e-05,-465.48,2.5639
1710,21.973,3.6364,0,4.7797e-05,477.64,2.3039e-05,89.482,1.1135e-05,0.040796,-4.5641e-05,-426.55,2.5948
1711,22.157,3.6364,0,4.4371e-05,443.41,2.2374e-05,95.641,9.6513e-06,0.045224,-4.1963e-05,-387.77,2.6257
1712,22.342,3.6364,0,4.1019e-05,409.91,2.1758e-05,102.24,8.1566e-06,0.050646,-3.8311e-05,-349.09,2.6567
1713,22.526,3.6364,0,3.7751e-05,377.25,2.1191e-05,109.31,6.6496e-06,0.057481,-3.4683e-05,-310.5,2.6877
1714,22.71,3.6364,0,3.4581e-05,345.57,2.0673e-05,116.86,5.1288e-06,0.066195,-3.1077e-05,-271.97,2.7187
1715,22.894,3.6364,0,3.1529e-05,315.07,2.0206e-05,124.9,3.5925e-06,0.078442,-2.7489e-05,-233.45,2.7497
1716,23.079,3.6364,0,2.8623e-05,286.03,1.9787e-05,133.45,2.0392e-06,0.093576,-2.3915e-05,-194.91,2.7808
1717,23.263,3.6364,0,2.5904e-05,258.86,1.9417e-05,142.5,4.6839e-07,0.12519,-2.0351e-05,-156.3,2.8118
1718,23.447,3.6364,0,2.3428e-05,234.11,1.9092e-05,152.03,-1.1236e-06,0.14271,-1.6791e-05,-117.58,2.8429
1719,23.631,3.6364,0,2.1275e-05,212.61,1.881e-05,162.11,-2.7221e-06,0.32922,-1.3238e-05,-78.687,2.874
1720,23.816,3.6364,0,1.9552e-05,195.38,1.8569e-05,172.49,-4.3618e-06,0.20363,-9.6851e-06,-39.793,2.9051
1721,1.1509,3.4545,0,0.0013563,13553,0.00049639,9.874,0.00036367,-987.34,-0.0013701,-14015,0.018021
1722,1.3352,3.4545,0,0.0011765,11757,0.00043973,3.6266,0.00029857,-1057,-0.0011909,-12248,0.024423
1723,1.5195,3.4545,0,0.0010182,10175,0.00039099,2.2398,0.00023922,-1138.1,-0.0010327,-10695,0.031627
1724,1.7037,3.4545,0,0.00089647,8958.5,0.0003521,2.5977,0.00019603,-1170,-0.00091055,-9484.5,0.039529
1725,1.888,3.4545,0,0.00080503,8044.8,0.00032115,2.1045,0.00016665,-1158.7,-0.0008184,-8560,0.048047
1726,2.0723,3.4545,0,0.00073597,7354.6,0.00029634,1.4428,0.0001471,-1119.9,-0.00074855,-7849.5,0.05712
1727,2.2565,3.4545,0,0.00068324,6827.7,0.00027621,1.066,0.00013441,-1064.4,-0.00069506,-7296.7,0.066701
1728,2.4408,3.4545,0,0.00064249,6420.5,0.00025968,0.76067,0.0001265,-999.9,-0.00065361,-6861.3,0.076755
1729,2.6251,3.4545,0,0.00061067,6102.4,0.00024594,0.54465,0.00012188,-931.57,-0.00062114,-6514.3,0.087253
1730,2.8093,3.4545,0,0.00058552,5851.2,0.00023441,0.38763,0.00011953,-862.74,-0.00059539,-6234.4,0.098174
1731,2.9936,3.4545,0,0.00056543,5650.4,0.00022463,0.27464,0.00011871,-795.55,-0.00057473,-6005.8,0.1095
1732,3.1779,3.4545,0,0.00054916,5487.8,0.00021625,0.19339,0.0001189,-731.29,-0.00055793,-5816.7,0.12122
1733,3.3621,3.4545,0,0.0005358,5354.3,0.000209,0.13505,0.00011972,-670.69,-0.00054404,-5657.9,0.13331
1734,3.5464,3.4545,0,0.00052464,5242.8,0.00020267,0.093232,0.00012092,-614.12,-0.00053238,-5522.7,0.14578
1735,3.7307,3.4545,0,0.00051515,5148,0.00019707,0.063305,0.0001223,-561.68,-0.0005224,-5405.7,0.1586
1736,3.9149,3.4545,0,0.00050693,5065.8,0.00019207,0.041955,0.00012375,-513.32,-0.0005137,-5302.9,0.17179
1737,4.0992,3.4545,0,0.00049965,4993.1,0.00018757,0.026796,0.00012516,-468.9,-0.00050597,-5211,0.18532
1738,4.2835,3.4545,0,0.00049309,4927.5,0.00018347,0.016111,0.00012648,-428.19,-0.00049897,-5127.6,0.19919
1739,4.4677,3.4545,0,0.00048704,4867.1,0.0001797,0.0086615,0.00012767,-390.96,-0.00049251,-5050.8,0.2134
1740,4.652,3.4545,0,0.00048138,4810.5,0.00017621,0.0035489,0.0001287,-356.95,-0.00048646,-4979,0.22795
1741,4.8363,3.4545,0,0.000476,4756.7,0.00017295,0.00012344,0.00012957,-325.91,-0.00048071,-4911.3,0.24283
1742,5.0205,3.4545,0,0.00047081,4704.9,0.00016988,-0.0020884,0.00013027,-297.59,-0.00047517,-4846.6,0.25804
1743,5.2048,3.4545,0,0.00046576,4654.4,0.00016696,-0.0034313,0.0001308,-271.76,-0.00046979,-4784.3,0.27356
1744,5.3891,3.4545,0,0.0004608,4604.8,0.00016419,-0.004157,0.00013116,-248.19,-0.00046452,-4723.9,0.28941
1745,5.5733,3.4545,0,0.00045589,4555.7,0.00016153,-0.0044488,0.00013136,-226.68,-0.00045932,-4664.8,0.30557
1746,5.7576,3.4545,0,0.00045101,4507,0.00015897,-0.0044393,0.00013142,-207.04,-0.00045417,-4606.9,0.32205
1747,5.9419,3.4545,0,0.00044615,4458.4,0.00015649,-0.0042262,0.00013133,-189.09,-0.00044906,-4549.9,0.33883
1748,6.1261,3.4545,0,0.00044128,4409.8,0.00015409,-0.0038792,0.00013111,-172.69,-0.00044397,-4493.6,0.35592
1749,6.3104,3.4545,0,0.00043641,4361.1,0.00015176,-0.0034481,0.00013077,-157.68,-0.00043888,-4437.8,0.3733
1750,6.4947,3.4545,0,0.00043153,4312.3,0.00014948,-0.0029698,0.00013032,-143.95,-0.0004338,-4382.5,0.39099
1751,6.6789,3.4545,0,0.00042663,4263.3,0.00014724,-0.002469,0.00012976,-131.37,-0.00042871,-4327.5,0.40897
1752,6.8632,3.4545,0,0.00042171,4214.2,0.00014506,-0.0019624,0.00012911,-119.85,-0.00042362,-4272.8,0.42725
1753,7.0475,3.4545,0,0.00041678,4164.9,0.00014291,-0.0014629,0.00012837,-109.28,-0.00041853,-4218.4,0.44581
1754,7.2317,3.4545,0,0.00041182,4115.4,0.0001408,-0.00097881,0.00012755,-99.575,-0.00041343,-4164.3,0.46465
1755,7.416,3.4545,0,0.00040685,4065.7,0.00013873,-0.00051311,0.00012666,-90.667,-0.00040832,-4110.3,0.48378
1756,7.6003,3.4545,0,0.00040187,4015.9,0.00013668,-7.025e-05,0.0001257,-82.485,-0.00040321,-4056.5,0.50318
1757,7.7845,3.4545,0,0.00039687,3965.9,0.00013466,0.00034969,0.00012468,-74.963,-0.00039809,-4002.9,0.52286
1758,7.9688,3.4545,0,0.00039185,3915.8,0.00013267,0.00074505,0.00012361,-68.046,-0.00039297,-3949.4,0.5428
1759,8.1531,3.4545,0,0.00038683,3865.7,0.0001307,0.0011179,0.00012249,-61.682,-0.00038785,-3896.1,0.56302
1760,8.3373,3.4545,0,0.0003818,3815.4,0.00012875,0.0014692,0.00012132,-55.824,-0.00038272,-3843,0.58349
1761,8.5216,3.4545,0,0.00037677,3765.1,0.00012682,0.0017982,0.00012011,-50.43,-0.0003776,-3790,0.60423
1762,8.7059,3.4545,0,0.00037172,3714.7,0.00012491,0.0021085,0.00011886,-45.461,-0.00037248,-3737.2,0.62522
1763,8.8901,3.4545,0,0.00036668,3664.3,0.00012302,0.0023997,0.00011758,-40.881,-0.00036736,-3684.5,0.64647
1764,9.0744,3.4545,0,0.00036163,3613.9,0.00012115,0.002675,0.00011627,-36.66,-0.00036224,-3632,0.66797
1765,9.2587,3.4545,0,0.00035659,3563.4,0.00011929,0.0029353,0.00011493,-32.766,-0.00035714,-3579.7,0.68971
1766,9.4429,3.4545,0,0.00035155,3513,0.00011745,0.003182,0.00011357,-29.174,-0.00035203,-3527.5,0.71169
1767,9.6272,3.4545,0,0.0003465,3462.7,0.00011563,0.0034153,0.00011218,-25.858,-0.00034694,-3475.5,0.73392
1768,9.8115,3.4545,0,0.00034147,3412.3,0.00011381,0.0036466,0.00011078,-22.797,-0.00034185,-3423.7,0.75637
1769,9.9957,3.4545,0,0.00033644,3362,0.00011201,0.0038613,0.00010935,-19.97,-0.00033677,-3372,0.77907
1770,10.18,3.4545,0,0.00033141,3311.8,0.00011023,0.0040706,0.00010791,-17.357,-0.0003317,-3320.5,0.80199
1771,10.364,3.4545,0,0.0003264,3261.7,0.00010845,0.0042856,0.00010646,-14.942,-0.00032665,-3269.1,0.82513
1772,10.549,3.4545,0,0.00032139,3211.7,0.00010669,0.0044475,0.000105,-12.708,-0.0003216,-3218,0.8485
1773,10.733,3.4545,0,0.00031639,3161.7,0.00010494,0.0046491,0.00010352,-10.64,-0.00031657,-3167,0.87208
1774,10.917,3.4545,0,0.0003114,3111.9,0.00010319,0.0048977,0.00010203,-8.7248,-0.00031155,-3116.2,0.89588
1775,11.101,3.4545,0,0.00030642,3062.1,0.00010146,0.0051222,0.00010054,-6.95,-0.00030654,-3065.6,0.91989
1776,11.286,3.4545,0,0.00030146,3012.5,9.9744e-05,0.005368,9.9038e-05,-5.3038,-0.00030155,-3015.1,0.94411
1777,11.47,3.4545,0,0.00029651,2963,9.8034e-05,0.0056434,9.7531e-05,-3.7755,-0.00029657,-2964.9,0.96854
1778,11.654,3.4545,0,0.00029157,2913.6,9.6334e-05,0.006131,9.6019e-05,-2.3552,-0.00029161,-2914.8,0.99316
1779,11.838,3.4545,0,0.00028664,2864.4,9.4643e-05,0.0074697,9.4504e-05,-1.0341,-0.00028666,-2864.9,1.018
1780,12.023,3.4545,0,0.00028173,2815.3,9.2988e-05,0.21055,9.2959e-05,-0.0049408,-0.00028172,-2815.2,1.043
1781,12.207,3.4545,0,0.00027683,2766.4,9.1467e-05,1.3519,9.1287e-05,0.0040859,-0.00027681,-2765.7,1.0682
1782,12.391,3.4545,0,0.00027195,2717.6,8.9945e-05,2.4267,8.9623e-05,0.0048998,-0.00027191,-2716.4,1.0936
1783,12.575,3.4545,0,0.00026708,2669,8.8424e-05,3.4345,8.7967e-05,0.0052988,-0.00026702,-2667.3,1.1192
1784,12.76,3.4545,0,0.00026223,2620.5,8.6902e-05,4.3815,8.632e-05,0.0056079,-0.00026216,-2618.3,1.145
1785,12.944,3.4545,0,0.0002574,2572.2,8.5382e-05,5.2735,8.468e-05,0.0058349,-0.00025731,-2569.6,1.1709
1786,13.128,3.4545,0,0.00025258,2524.1,8.3862e-05,6.1164,8.3049e-05,0.0060271,-0.00025248,-2521,1.197
1787,13.313,3.4545,0,0.00024778,2476.1,8.2345e-05,6.9154,8.1425e-05,0.0061782,-0.00024766,-2472.6,1.2233
1788,13.497,3.4545,0,0.000243,2428.3,8.083e-05,7.676,7.9809e-05,0.0063532,-0.00024287,-2424.5,1.2498
1789,13.681,3.4545,0,0.00023823,2380.7,7.9319e-05,8.4029,7.8201e-05,0.006555,-0.00023809,-2376.5,1.2764
1790,13.865,3.4545,0,0.00023349,2333.3,7.781e-05,9.1007,7.66e-05,0.0067268,-0.00023333,-2328.7,1.3032
1791,14.05,3.4545,0,0.00022876,2286,7.6306e-05,9.7739,7.5006e-05,0.0068926,-0.00022859,-2281.1,1.3301
1792,14.234,3.4545,0,0.00022405,2238.9,7.4806e-05,10.427,7.342e-05,0.0070353,-0.00022387,-2233.7,1.3572
1793,14.418,3.4545,0,0.00021936,2192.1,7.3312e-05,11.064,7.184e-05,0.0072091,-0.00021917,-2186.5,1.3845
1794,14.602,3.4545,0,0.00021469,2145.4,7.1822e-05,11.689,7.0267e-05,0.0074132,-0.00021448,-2139.5,1.4118
1795,14.787,3.4545,0,0.00021003,2098.9,7.0338e-05,12.306,6.8701e-05,0.0075984,-0.00020982,-2092.7,1.4394
1796,14.971,3.4545,0,0.0002054,2052.6,6.8861e-05,12.919,6.7142e-05,0.0077807,-0.00020518,-2046.1,1.4671
1797,15.155,3.4545,0,0.00020079,2006.5,6.7389e-05,13.532,6.5589e-05,0.0079478,-0.00020055,-1999.7,1.4949
1798,15.339,3.4545,0,0.0001962,1960.6,6.5925e-05,14.149,6.4043e-05,0.0081478,-0.00019595,-1953.5,1.5229
1799,15.524,3.4545,0,0.00019162,1914.9,6.4469e-05,14.774,6.2503e-05,0.0083802,-0.00019137,-1907.5,1.551
1800,15.708,3.4545,0,0.00018707,1869.4,6.302e-05,15.411,6.097e-05,0.0085967,-0.00018681,-1861.7,1.5792
1801,15.892,3.4545,0,0.00018254,1824.2,6.1579e-05,16.063,5.9442e-05,0.0088213,-0.00018226,-1816.1,1.6075
1802,16.077,3.4545,0,0.00017803,1779.1,6.0147e-05,16.736,5.7921e-05,0.0090351,-0.00017774,-1770.7,1.636
1803,16.261,3.4545,0,0.00017354,1734.3,5.8724e-05,17.433,5.6405e-05,0.0092822,-0.00017324,-1725.5,1.6646
1804,16.445,3.4545,0,0.00016908,1689.6,5.731e-05,18.159,5.4895e-05,0.0095652,-0.00016876,-1680.5,1.6933
1805,16.629,3.4545,0,0.00016463,1645.2,5.5907e-05,18.918,5.3391e-05,0.0098399,-0.0001643,-1635.7,1.7221
1806,16.814,3.4545,0,0.00016021,1601,5.4514e-05,19.716,5.1892e-05,0.010125,-0.00015987,-1591.1,1.7511
1807,16.998,3.4545,0,0.00015581,1557.1,5.3133e-05,20.557,5.0398e-05,0.010411,-0.00015545,-1546.7,1.7801
1808,17.182,3.4545,0,0.00015144,1513.3,5.1763e-05,21.447,4.891e-05,0.010735,-0.00015106,-1502.5,1.8093
1809,17.366,3.4545,0,0.00014709,1469.9,5.0405e-05,22.391,4.7426e-05,0.011094,-0.00014669,-1458.5,1.8385
1810,17.551,3.4545,0,0.00014276,1426.6,4.906e-05,23.396,4.5947e-05,0.011461,-0.00014235,-1414.7,1.8679
1811,17.735,3.4545,0,0.00013845,1383.6,4.7728e-05,24.468,4.4473e-05,0.011847,-0.00013802,-1371.2,1.8973
1812,17.919,3.4545,0,0.00013417,1340.8,4.6411e-05,25.613,4.3004e-05,0.012242,-0.00013372,-1327.8,1.9269
1813,18.103,3.4545,0,0.00012992,1298.3,4.5109e-05,26.84,4.1538e-05,0.012683,-0.00012944,-1284.7,1.9565
1814,18.288,3.4545,0,0.00012569,1256.1,4.3823e-05,28.155,4.0077e-05,0.013171,-0.00012519,-1241.7,1.9862
1815,18.472,3.4545,0,0.00012149,1214.1,4.2553e-05,29.567,3.8619e-05,0.01368,-0.00012096,-1199,2.016
1816,18.656,3.4545,0,0.00011732,1172.3,4.1301e-05,31.086,3.7165e-05,0.014222,-0.00011676,-1156.5,2.0459
1817,18.841,3.4545,0,0.00011317,1130.9,4.0067e-05,32.72,3.5714e-05,0.014794,-0.00011258,-1114.2,2.0759
1818,19.025,3.4545,0,0.00010905,1089.7,3.8853e-05,34.481,3.4266e-05,0.015424,-0.00010842,-1072.1,2.106
1819,19.209,3.4545,0,0.00010496,1048.9,3.766e-05,36.378,3.282e-05,0.016124,-0.00010429,-1030.2,2.1361
1820,19.393,3.4545,0,0.0001009,1008.3,3.6488e-05,38.424,3.1377e-05,0.016866,-0.00010019,-988.52,2.1663
1821,19.578,3.4545,0,9.687e-05,968.03,3.534e-05,40.631,2.9935e-05,0.017671,-9.6114e-05,-947.07,2.1965
1822,19.762,3.4545,0,9.2873e-05,928.09,3.4216e-05,43.013,2.8494e-05,0.018539,-9.2066e-05,-905.82,2.2268
1823,19.946,3.4545,0,8.8908e-05,888.47,3.3119e-05,45.585,2.7054e-05,0.0195,-8.8045e-05,-864.79,2.2572
1824,20.13,3.4545,0,8.4979e-05,849.2,3.2049e-05,48.362,2.5615e-05,0.020568,-8.4052e-05,-823.98,2.2877
1825,20.315,3.4545,0,8.1084e-05,810.28,3.1008e-05,51.36,2.4175e-05,0.021731,-8.0088e-05,-783.37,2.3182
1826,20.499,3.4545,0,7.7227e-05,771.74,2.9998e-05,54.596,2.2735e-05,0.023018,-7.6153e-05,-742.98,2.3487
1827,20.683,3.4545,0,7.3408e-05,733.58,2.902e-05,58.09,2.1292e-05,0.024439,-7.2247e-05,-702.79,2.3794
1828,20.867,3.4545,0,6.963e-05,695.82,2.8077e-05,61.859,1.9848e-05,0.026036,-6.8371e-05,-662.81,2.41
1829,21.052,3.4545,0,6.5895e-05,658.49,2.7171e-05,65.926,1.84e-05,0.027843,-6.4525e-05,-623.04,2.4407
1830,21.236,3.4545,0,6.2204e-05,621.61,2.6302e-05,70.31,1.6948e-05,0.029879,-6.0708e-05,-583.45,2.4715
1831,21.42,3.4545,0,5.8561e-05,585.21,2.5474e-05,75.032,1.5492e-05,0.032204,-5.6922e-05,-544.06,2.5023
1832,21.605,3.4545,0,5.4969e-05,549.31,2.4687e-05,80.115,1.4029e-05,0.034876,-5.3165e-05,-504.84,2.5331
1833,21.789,3.4545,0,5.1432e-05,513.96,2.3944e-05,85.581,1.2559e-05,0.038005,-4.9438e-05,-465.78,2.5639
1834,21.973,3.4545,0,4.7954e-05,479.21,2.3247e-05,91.45,1.1081e-05,0.041709,-4.5739e-05,-426.88,2.5948
1835,22.157,3.4545,0,4.4542e-05,445.11,2.2596e-05,97.742,9.593e-06,0.046156,-4.2066e-05,-388.1,2.6258
1836,22.342,3.4545,0,4.1203e-05,411.74,2.1992e-05,104.48,8.0941e-06,0.051595,-3.8419e-05,-349.43,2.6567
1837,22.526,3.4545,0,3.7948e-05,379.22,2.1437e-05,111.67,6.5826e-06,0.058461,-3.4794e-05,-310.83,2.6877
1838,22.71,3.4545,0,3.4791e-05,347.67,2.0931e-05,119.33,5.0572e-06,0.067211,-3.1189e-05,-272.27,2.7187
1839,22.894,3.4545,0,3.1752e-05,317.3,2.0472e-05,127.48,3.5164e-06,0.079516,-2.7601e-05,-233.72,2.7497
1840,23.079,3.4545,0,2.8859e-05,288.39,2.0061e-05,136.11,1.9587e-06,0.094731,-2.4025e-05,-195.14,2.7808
1841,23.263,3.4545,0,2.6152e-05,261.34,1.9696e-05,145.23,3.8375e-07,0.12648,-2.0458e-05,-156.47,2.8119
1842,23.447,3.4545,0,2.3688e-05,236.72,1.9374e-05,154.82,-1.212e-06,0.14419,-1.6894e-05,-117.68,2.8429
1843,23.631,3.4545,0,2.1546e-05,215.31,1.9094e-05,164.94,-2.8136e-06,0.33135,-1.3336e-05,-78.73,2.874
1844,23.816,3.4545,0,1.9829e-05,198.15,1.8851e-05,175.32,-4.4556e-06,0.20807,-9.7761e-06,-39.768,2.9051
1845,1.1509,3.2727,0,0.0012964,12955,0.00049049,-2.3476,0.00031747,-1302.4,-0.0013136,-13558,0.018424
1846,1.3352,3.2727,0,0.0011607,11599,0.00044458,0.26918,0.00027455,-1277.2,-0.0011771,-12185,0.024774
1847,1.5195,3.2727,0,0.0010261,10254,0.00040116,1.9763,0.00022773,-1301.1,-0.0010419,-10841,0.031921
1848,1.7037,3.2727,0,0.00091103,9104,0.00036327,1.9426,0.00018887,-1308.4,-0.00092615,-9686.2,0.039774
1849,1.888,3.2727,0,0.00081901,8184.5,0.00033147,1.5846,0.00016045,-1283.3,-0.00083321,-8749.3,0.048256
1850,2.0723,3.2727,0,0.00074724,7467.2,0.00030517,1.2324,0.00014108,-1231.7,-0.00076049,-8005.7,0.057304
1851,2.2565,3.2727,0,0.0006916,6911.3,0.00028349,0.89747,0.00012854,-1163.3,-0.00070398,-7418.5,0.066869
1852,2.4408,3.2727,0,0.00064841,6479.6,0.00026557,0.64093,0.00012091,-1086.3,-0.00066,-6953.7,0.076913
1853,2.6251,3.2727,0,0.00061468,6142.5,0.00025067,0.45148,0.00011669,-1006.3,-0.00062556,-6583.2,0.087406
1854,2.8093,3.2727,0,0.00058812,5877.1,0.0002382,0.3146,0.00011479,-926.97,-0.00059837,-6285.3,0.098324
1855,2.9936,3.2727,0,0.000567,5666,0.00022767,0.21711,0.00011444,-850.58,-0.00057665,-6043.1,0.10965
1856,3.1779,3.2727,0,0.00055,5496.2,0.0002187,0.14808,0.00011508,-778.35,-0.00055908,-5843.8,0.12137
1857,3.3621,3.2727,0,0.00053612,5357.5,0.00021097,0.099385,0.00011634,-710.91,-0.00054466,-5677.4,0.13346
1858,3.5464,3.2727,0,0.00052462,5242.6,0.00020425,0.065136,0.00011794,-648.48,-0.00053263,-5536.6,0.14593
1859,3.7307,3.2727,0,0.0005149,5145.4,0.00019835,0.041134,0.00011968,-591.06,-0.0005224,-5415.4,0.15876
1860,3.9149,3.2727,0,0.00050653,5061.8,0.00019312,0.024407,0.00012145,-538.46,-0.00051353,-5309.5,0.17195
1861,4.0992,3.2727,0,0.00049917,4988.2,0.00018842,0.012854,0.00012315,-490.43,-0.0005057,-5215.3,0.18548
1862,4.2835,3.2727,0,0.00049255,4922.1,0.00018417,0.0049844,0.00012472,-446.67,-0.00049863,-5130.2,0.19935
1863,4.4677,3.2727,0,0.00048649,4861.6,0.00018027,-0.00026277,0.00012613,-406.84,-0.00049214,-5052.2,0.21357
1864,4.652,3.2727,0,0.00048084,4805.1,0.00017668,-0.0036453,0.00012735,-370.64,-0.00048607,-4979.6,0.22812
1865,4.8363,3.2727,0,0.00047547,4751.4,0.00017334,-0.0057061,0.00012839,-337.73,-0.00048031,-4911.3,0.243
1866,5.0205,3.2727,0,0.00047031,4699.8,0.0001702,-0.0068363,0.00012923,-307.82,-0.00047479,-4846.2,0.25821
1867,5.2048,3.2727,0,0.00046528,4649.6,0.00016723,-0.0073175,0.00012988,-280.64,-0.00046942,-4783.6,0.27373
1868,5.3891,3.2727,0,0.00046035,4600.3,0.00016442,-0.0073528,0.00013036,-255.92,-0.00046417,-4723,0.28958
1869,5.5733,3.2727,0,0.00045548,4551.6,0.00016172,-0.0070884,0.00013065,-233.42,-0.000459,-4663.8,0.30574
1870,5.7576,3.2727,0,0.00045063,4503.2,0.00015913,-0.0066291,0.00013079,-212.94,-0.00045387,-4605.9,0.32222
1871,5.9419,3.2727,0,0.0004458,4454.9,0.00015663,-0.0060497,0.00013077,-194.28,-0.00044878,-4548.9,0.339
1872,6.1261,3.2727,0,0.00044096,4406.6,0.00015421,-0.005403,0.00013062,-177.26,-0.00044371,-4492.5,0.35609
1873,6.3104,3.2727,0,0.00043612,4358.2,0.00015186,-0.0047256,0.00013033,-161.73,-0.00043864,-4436.8,0.37348
1874,6.4947,3.2727,0,0.00043126,4309.6,0.00014956,-0.0040437,0.00012993,-147.54,-0.00043358,-4381.5,0.39116
1875,6.6789,3.2727,0,0.00042638,4260.9,0.00014732,-0.0033742,0.00012941,-134.56,-0.00042851,-4326.6,0.40914
1876,6.8632,3.2727,0,0.00042149,4212,0.00014512,-0.0027274,0.00012879,-122.69,-0.00042344,-4272,0.42742
1877,7.0475,3.2727,0,0.00041657,4162.8,0.00014297,-0.0021104,0.00012809,-111.82,-0.00041836,-4217.6,0.44598
1878,7.2317,3.2727,0,0.00041163,4113.5,0.00014085,-0.0015265,0.0001273,-101.86,-0.00041327,-4163.5,0.46482
1879,7.416,3.2727,0,0.00040668,4064,0.00013877,-0.0009783,0.00012643,-92.72,-0.00040818,-4109.5,0.48394
1880,7.6003,3.2727,0,0.00040171,4014.3,0.00013672,-0.00046492,0.00012549,-84.335,-0.00040308,-4055.8,0.50334
1881,7.7845,3.2727,0,0.00039672,3964.5,0.0001347,1.4392e-05,0.0001245,-76.635,-0.00039797,-4002.2,0.52302
1882,7.9688,3.2727,0,0.00039172,3914.5,0.0001327,0.00046204,0.00012344,-69.56,-0.00039286,-3948.8,0.54297
1883,8.1531,3.2727,0,0.00038671,3864.4,0.00013072,0.00087789,0.00012233,-63.055,-0.00038774,-3895.6,0.56318
1884,8.3373,3.2727,0,0.00038169,3814.3,0.00012877,0.0012659,0.00012118,-57.072,-0.00038263,-3842.5,0.58365
1885,8.5216,3.2727,0,0.00037666,3764,0.00012684,0.0016274,0.00011998,-51.565,-0.00037751,-3789.5,0.60439
1886,8.7059,3.2727,0,0.00037163,3713.7,0.00012493,0.0019645,0.00011874,-46.496,-0.0003724,-3736.7,0.62538
1887,8.8901,3.2727,0,0.00036659,3663.4,0.00012304,0.0022798,0.00011747,-41.826,-0.00036728,-3684.1,0.64663
1888,9.0744,3.2727,0,0.00036155,3613,0.00012117,0.0025747,0.00011617,-37.522,-0.00036217,-3631.6,0.66812
1889,9.2587,3.2727,0,0.00035651,3562.7,0.00011931,0.002852,0.00011484,-33.555,-0.00035707,-3579.3,0.68986
1890,9.4429,3.2727,0,0.00035147,3512.3,0.00011746,0.0031123,0.00011348,-29.896,-0.00035197,-3527.2,0.71184
1891,9.6272,3.2727,0,0.00034644,3462,0.00011564,0.0033574,0.00011211,-26.52,-0.00034688,-3475.2,0.73406
1892,9.8115,3.2727,0,0.0003414,3411.7,0.00011382,0.0035974,0.00011071,-23.404,-0.0003418,-3423.3,0.75652
1893,9.9957,3.2727,0,0.00033638,3361.5,0.00011202,0.0038169,0.00010929,-20.527,-0.00033672,-3371.7,0.77921
1894,10.18,3.2727,0,0.00033136,3311.3,0.00011023,0.0040286,0.00010785,-17.868,-0.00033166,-3320.2,0.80213
1895,10.364,3.2727,0,0.00032634,3261.2,0.00010846,0.0042424,0.0001064,-15.411,-0.0003266,-3268.9,0.82527
1896,10.549,3.2727,0,0.00032134,3211.2,0.00010669,0.0044006,0.00010494,-13.139,-0.00032156,-3217.7,0.84864
1897,10.733,3.2727,0,0.00031634,3161.2,0.00010494,0.0045909,0.00010347,-11.036,-0.00031653,-3166.7,0.87222
1898,10.917,3.2727,0,0.00031136,3111.4,0.0001032,0.0048194,0.00010199,-9.0894,-0.00031151,-3116,0.89602
1899,11.101,3.2727,0,0.00030638,3061.7,0.00010147,0.0050131,0.0001005,-7.2854,-0.00030651,-3065.3,0.92003
1900,11.286,3.2727,0,0.00030142,3012.1,9.9747e-05,0.0052021,9.8999e-05,-5.6123,-0.00030151,-3014.9,0.94424
1901,11.47,3.2727,0,0.00029647,2962.6,9.8036e-05,0.0053763,9.7495e-05,-4.0594,-0.00029654,-2964.7,0.96867
1902,11.654,3.2727,0,0.00029153,2913.3,9.6335e-05,0.0056358,9.5986e-05,-2.6162,-0.00029157,-2914.6,0.99329
1903,11.838,3.2727,0,0.00028661,2864.1,9.4644e-05,0.0061408,9.4473e-05,-1.2735,-0.00028663,-2864.7,1.0181
1904,12.023,3.2727,0,0.0002817,2815,9.2963e-05,0.023241,9.2955e-05,-0.039147,-0.0002817,-2815,1.0431
1905,12.207,3.2727,0,0.0002768,2766.1,9.1439e-05,1.147,9.1288e-05,0.0051317,-0.00027678,-2765.5,1.0683
1906,12.391,3.2727,0,0.00027192,2717.3,8.992e-05,2.2386,8.9623e-05,0.0055794,-0.00027188,-2716.2,1.0937
1907,12.575,3.2727,0,0.00026705,2668.7,8.84e-05,3.2617,8.7967e-05,0.0058358,-0.000267,-2667.1,1.1193
1908,12.76,3.2727,0,0.0002622,2620.2,8.688e-05,4.2228,8.6319e-05,0.0060702,-0.00026213,-2618.1,1.1451
1909,12.944,3.2727,0,0.00025737,2571.9,8.5361e-05,5.1279,8.4679e-05,0.006252,-0.00025728,-2569.4,1.171
1910,13.128,3.2727,0,0.00025256,2523.8,8.3843e-05,5.983,8.3047e-05,0.0064173,-0.00025245,-2520.8,1.1971
1911,13.313,3.2727,0,0.00024776,2475.9,8.2327e-05,6.7935,8.1423e-05,0.0065494,-0.00024764,-2472.4,1.2234
1912,13.497,3.2727,0,0.00024297,2428.1,8.0813e-05,7.5647,7.9807e-05,0.0067106,-0.00024284,-2424.3,1.2499
1913,13.681,3.2727,0,0.00023821,2380.5,7.9302e-05,8.3018,7.8199e-05,0.006904,-0.00023807,-2376.3,1.2765
1914,13.865,3.2727,0,0.00023346,2333,7.7795e-05,9.0091,7.6597e-05,0.0070691,-0.00023331,-2328.5,1.3033
1915,14.05,3.2727,0,0.00022874,2285.8,7.6292e-05,9.6916,7.5003e-05,0.0072317,-0.00022857,-2280.9,1.3302
1916,14.234,3.2727,0,0.00022403,2238.7,7.4793e-05,10.353,7.3416e-05,0.0073699,-0.00022385,-2233.5,1.3573
1917,14.418,3.2727,0,0.00021934,2191.9,7.3299e-05,10.999,7.1837e-05,0.0075418,-0.00021915,-2186.3,1.3845
1918,14.602,3.2727,0,0.00021467,2145.2,7.1811e-05,11.632,7.0264e-05,0.007746,-0.00021447,-2139.3,1.4119
1919,14.787,3.2727,0,0.00021001,2098.7,7.0328e-05,12.258,6.8697e-05,0.0079314,-0.0002098,-2092.5,1.4395
1920,14.971,3.2727,0,0.00020538,2052.4,6.8851e-05,12.879,6.7138e-05,0.0081155,-0.00020516,-2045.9,1.4672
1921,15.155,3.2727,0,0.00020077,2006.3,6.7381e-05,13.5,6.5585e-05,0.0082838,-0.00020054,-1999.5,1.495
1922,15.339,3.2727,0,0.00019618,1960.4,6.5917e-05,14.125,6.4039e-05,0.0084847,-0.00019593,-1953.3,1.5229
1923,15.524,3.2727,0,0.00019161,1914.7,6.4462e-05,14.758,6.2499e-05,0.0087197,-0.00019135,-1907.3,1.551
1924,15.708,3.2727,0,0.00018706,1869.3,6.3014e-05,15.404,6.0965e-05,0.0089419,-0.00018679,-1861.5,1.5793
1925,15.892,3.2727,0,0.00018253,1824,6.1574e-05,16.065,5.9437e-05,0.0091661,-0.00018225,-1815.9,1.6076
1926,16.077,3.2727,0,0.00017802,1778.9,6.0143e-05,16.747,5.7915e-05,0.0093819,-0.00017773,-1770.5,1.6361
1927,16.261,3.2727,0,0.00017353,1734.1,5.8721e-05,17.454,5.6399e-05,0.0096333,-0.00017323,-1725.3,1.6647
1928,16.445,3.2727,0,0.00016907,1689.5,5.7308e-05,18.19,5.4889e-05,0.0099197,-0.00016875,-1680.3,1.6934
1929,16.629,3.2727,0,0.00016462,1645.1,5.5906e-05,18.96,5.3384e-05,0.010197,-0.00016429,-1635.5,1.7222
1930,16.814,3.2727,0,0.0001602,1600.9,5.4515e-05,19.769,5.1885e-05,0.010492,-0.00015986,-1590.9,1.7511
1931,16.998,3.2727,0,0.0001558,1557,5.3134e-05,20.623,5.0391e-05,0.010777,-0.00015544,-1546.5,1.7802
1932,17.182,3.2727,0,0.00015143,1513.2,5.1766e-05,21.526,4.8902e-05,0.011108,-0.00015105,-1502.4,1.8093
1933,17.366,3.2727,0,0.00014708,1469.8,5.041e-05,22.485,4.7419e-05,0.011471,-0.00014668,-1458.4,1.8386
1934,17.551,3.2727,0,0.00014275,1426.5,4.9066e-05,23.506,4.5939e-05,0.011845,-0.00014234,-1414.6,1.8679
1935,17.735,3.2727,0,0.00013845,1383.5,4.7737e-05,24.595,4.4465e-05,0.012233,-0.00013801,-1371.1,1.8974
1936,17.919,3.2727,0,0.00013417,1340.8,4.6422e-05,25.76,4.2995e-05,0.012637,-0.00013371,-1327.7,1.9269
1937,18.103,3.2727,0,0.00012992,1298.3,4.5122e-05,27.007,4.1529e-05,0.013081,-0.00012944,-1284.6,1.9566
1938,18.288,3.2727,0,0.00012569,1256,4.3838e-05,28.344,4.0067e-05,0.013578,-0.00012518,-1241.6,1.9863
1939,18.472,3.2727,0,0.00012149,1214.1,4.2571e-05,29.781,3.8609e-05,0.014094,-0.00012096,-1198.9,2.0161
1940,18.656,3.2727,0,0.00011732,1172.4,4.1322e-05,31.327,3.7154e-05,0.01464,-0.00011675,-1156.4,2.046
1941,18.841,3.2727,0,0.00011317,1131,4.0091e-05,32.99,3.5703e-05,0.015219,-0.00011258,-1114.1,2.076
1942,19.025,3.2727,0,0.00010906,1089.8,3.8881e-05,34.782,3.4254e-05,0.015862,-0.00010842,-1072,2.106
1943,19.209,3.2727,0,0.00010497,1049,3.7691e-05,36.714,3.2807e-05,0.016565,-0.0001043,-1030.1,2.1361
1944,19.393,3.2727,0,0.00010091,1008.4,3.6524e-05,38.798,3.1363e-05,0.017318,-0.0001002,-988.48,2.1663
1945,19.578,3.2727,0,9.6889e-05,968.22,3.5381e-05,41.046,2.992e-05,0.018132,-9.6125e-05,-947.04,2.1966
1946,19.762,3.2727,0,9.2896e-05,928.32,3.4262e-05,43.474,2.8479e-05,0.019009,-9.208e-05,-905.81,2.2269
1947,19.946,3.2727,0,8.8936e-05,888.75,3.317e-05,46.094,2.7038e-05,0.019979,-8.8062e-05,-864.8,2.2573
1948,20.13,3.2727,0,8.5011e-05,849.53,3.2106e-05,48.924,2.5597e-05,0.021056,-8.4073e-05,-824,2.2877
1949,20.315,3.2727,0,8.1122e-05,810.66,3.1071e-05,51.979,2.4156e-05,0.02223,-8.0113e-05,-783.41,2.3182
1950,20.499,3.2727,0,7.7271e-05,772.18,3.0068e-05,55.277,2.2714e-05,0.023527,-7.6182e-05,-743.04,2.3488
1951,20.683,3.2727,0,7.3459e-05,734.08,2.9098e-05,58.837,2.1271e-05,0.024959,-7.228e-05,-702.88,2.3794
1952,20.867,3.2727,0,6.9687e-05,696.39,2.8163e-05,62.677,1.9824e-05,0.026568,-6.8409e-05,-662.92,2.41
1953,21.052,3.2727,0,6.5959e-05,659.13,2.7264e-05,66.819,1.8375e-05,0.028383,-6.4567e-05,-623.17,2.4408
1954,21.236,3.2727,0,6.2276e-05,622.33,2.6404e-05,71.282,1.6921e-05,0.030432,-6.0756e-05,-583.6,2.4715
1955,21.42,3.2727,0,5.8641e-05,586,2.5585e-05,76.087,1.5463e-05,0.032765,-5.6974e-05,-544.23,2.5023
1956,21.605,3.2727,0,5.5057e-05,550.19,2.4808e-05,81.256,1.3998e-05,0.035446,-5.3222e-05,-505.03,2.5331
1957,21.789,3.2727,0,5.1528e-05,514.93,2.4074e-05,86.81,1.2525e-05,0.038582,-4.9499e-05,-465.99,2.564
1958,21.973,3.2727,0,4.8059e-05,480.26,2.3386e-05,92.767,1.1045e-05,0.042292,-4.5804e-05,-427.09,2.5949
1959,22.157,3.2727,0,4.4656e-05,446.25,2.2744e-05,99.148,9.554e-06,0.046754,-4.2135e-05,-388.32,2.6258
1960,22.342,3.2727,0,4.1326e-05,412.97,2.2149e-05,105.97,8.0523e-06,0.052204,-3.849e-05,-349.65,2.6568
1961,22.526,3.2727,0,3.808e-05,380.54,2.1602e-05,113.24,6.5379e-06,0.059085,-3.4867e-05,-311.04,2.6877
1962,22.71,3.2727,0,3.4932e-05,349.07,2.1102e-05,120.98,5.0095e-06,0.067862,-3.1264e-05,-272.47,2.7187
1963,22.894,3.2727,0,3.1901e-05,318.79,2.065e-05,129.19,3.4658e-06,0.080204,-2.7675e-05,-233.9,2.7498
1964,23.079,3.2727,0,2.9016e-05,289.96,2.0243e-05,137.88,1.9052e-06,0.09547,-2.4098e-05,-195.28,2.7808
1965,23.263,3.2727,0,2.6317e-05,262.99,1.9881e-05,147.05,3.2753e-07,0.12731,-2.0529e-05,-156.58,2.8119
1966,23.447,3.2727,0,2.386e-05,238.44,1.9561e-05,156.67,-1.2706e-06,0.14514,-1.6962e-05,-117.75,2.843
1967,23.631,3.2727,0,2.1725e-05,217.1,1.9282e-05,166.8,-2.8743e-06,0.33272,-1.34e-05,-78.757,2.8741
1968,23.816,3.2727,0,2.0012e-05,199.98,1.9038e-05,177.2,-4.5177e-06,0.21096,-9.8363e-06,-39.751,2.9051
1969,1.1509,3.0909,0,0.0012681,12672,0.00048877,0.8646,0.00029432,-1460.1,-0.0012865,-13338,0.018619
1970,1.3352,3.0909,0,0.0011509,11501,0.00044623,0.11385,0.00026217,-1382.8,-0.0011681,-12130,0.024947
1971,1.5195,3.0909,0,0.0010281,10274,0.00040535,1.4661,0.0002218,-1377.6,-0.0010446,-10893,0.032067
1972,1.7037,3.0909,0,0.00091758,9169.4,0.00036837,1.5732,0.00018546,-1372.7,-0.00093314,-9777.4,0.039896
1973,1.888,3.0909,0,0.00082594,8253.7,0.00033644,1.4455,0.00015763,-1342.1,-0.0008405,-8841.6,0.04836
1974,2.0723,3.0909,0,0.00075301,7524.9,0.00030955,1.1269,0.00013824,-1286,-0.00076656,-8084.3,0.057395
1975,2.2565,3.0909,0,0.00069594,6954.6,0.00028715,0.82995,0.00012567,-1212.5,-0.00070856,-7480.6,0.066952
1976,2.4408,3.0909,0,0.00065147,6510.2,0.00026856,0.58839,0.00011809,-1130,-0.00066328,-7000.9,0.076991
1977,2.6251,3.0909,0,0.00061674,6163.2,0.00025309,0.40856,0.00011403,-1044.5,-0.00062782,-6618.4,0.087481
1978,2.8093,3.0909,0,0.00058945,5890.4,0.00024014,0.27954,0.00011234,-959.99,-0.00059987,-6311.2,0.098399
1979,2.9936,3.0909,0,0.00056779,5674,0.00022923,0.1887,0.00011223,-878.94,-0.00057761,-6062.1,0.10972
1980,3.1779,3.0909,0,0.00055042,5500.4,0.00021995,0.12529,0.00011311,-802.62,-0.00055965,-5857.5,0.12144
1981,3.3621,3.0909,0,0.00053628,5359.1,0.00021198,0.081226,0.00011459,-731.65,-0.00054496,-5687.3,0.13354
1982,3.5464,3.0909,0,0.0005246,5242.4,0.00020507,0.050722,0.0001164,-666.19,-0.00053274,-5543.6,0.14601
1983,3.7307,3.0909,0,0.00051476,5144.1,0.00019901,0.029705,0.00011833,-606.18,-0.00052239,-5420.3,0.15884
1984,3.9149,3.0909,0,0.00050632,5059.7,0.00019365,0.015336,0.00012027,-551.39,-0.00051344,-5312.8,0.17202
1985,4.0992,3.0909,0,0.00049891,4985.7,0.00018886,0.0056354,0.00012211,-501.49,-0.00050555,-5217.5,0.18556
1986,4.2835,3.0909,0,0.00049228,4919.4,0.00018452,-0.00078146,0.00012381,-456.15,-0.00049845,-5131.6,0.19944
1987,4.4677,3.0909,0,0.00048621,4858.7,0.00018057,-0.0048876,0.00012533,-414.98,-0.00049194,-5052.9,0.21365
1988,4.652,3.0909,0,0.00048056,4802.3,0.00017692,-0.0073724,0.00012666,-377.64,-0.00048587,-4979.9,0.2282
1989,4.8363,3.0909,0,0.0004752,4748.7,0.00017353,-0.0087244,0.00012778,-343.77,-0.00048011,-4911.3,0.24308
1990,5.0205,3.0909,0,0.00047005,4697.3,0.00017036,-0.009292,0.0001287,-313.04,-0.00047459,-4846,0.25829
1991,5.2048,3.0909,0,0.00046504,4647.2,0.00016737,-0.0093258,0.00012942,-285.16,-0.00046924,-4783.2,0.27382
1992,5.3891,3.0909,0,0.00046013,4598.1,0.00016453,-0.0090025,0.00012995,-259.85,-0.000464,-4722.5,0.28967
1993,5.5733,3.0909,0,0.00045527,4549.5,0.00016182,-0.0084496,0.00013029,-236.85,-0.00045883,-4663.3,0.30583
1994,5.7576,3.0909,0,0.00045044,4501.3,0.00015921,-0.0077567,0.00013047,-215.94,-0.00045372,-4605.4,0.3223
1995,5.9419,3.0909,0,0.00044562,4453.1,0.0001567,-0.0069874,0.00013049,-196.91,-0.00044864,-4548.3,0.33909
1996,6.1261,3.0909,0,0.0004408,4405,0.00015427,-0.0061859,0.00013037,-179.58,-0.00044358,-4492,0.35617
1997,6.3104,3.0909,0,0.00043597,4356.7,0.00015191,-0.0053811,0.00013011,-163.77,-0.00043852,-4436.3,0.37356
1998,6.4947,3.0909,0,0.00043112,4308.3,0.0001496,-0.0045942,0.00012973,-149.35,-0.00043347,-4381,0.39125
1999,6.6789,3.0909,0,0.00042626,4259.6,0.00014736,-0.0038375,0.00012923,-136.17,-0.00042841,-4326.1,0.40923
2000,6.8632,3.0909,0,0.00042137,4210.8,0.00014516,-0.0031186,0.00012864,-124.13,-0.00042335,-4271.5,0.4275
2001,7.0475,3.0909,0,0.00041647,4161.8,0.000143,-0.0024411,0.00012794,-113.1,-0.00041827,-4217.2,0.44606
2002,7.2317,3.0909,0,0.00041154,4112.5,0.00014088,-0.0018075,0.00012717,-103.01,-0.00041319,-4163.1,0.4649
2003,7.416,3.0909,0,0.00040659,4063.1,0.00013879,-0.0012159,0.00012631,-93.755,-0.00040811,-4109.2,0.48403
2004,7.6003,3.0909,0,0.00040163,4013.5,0.00013674,-0.00066639,0.00012539,-85.268,-0.00040301,-4055.5,0.50343
2005,7.7845,3.0909,0,0.00039665,3963.7,0.00013471,-0.00015594,0.0001244,-77.477,-0.00039791,-4001.9,0.5231
2006,7.9688,3.0909,0,0.00039165,3913.8,0.00013271,0.00031698,0.00012335,-70.322,-0.0003928,-3948.5,0.54305
2007,8.1531,3.0909,0,0.00038665,3863.8,0.00013074,0.00075532,0.00012225,-63.746,-0.00038769,-3895.3,0.56326
2008,8.3373,3.0909,0,0.00038163,3813.7,0.00012879,0.0011621,0.00012111,-57.7,-0.00038258,-3842.2,0.58373
2009,8.5216,3.0909,0,0.00037661,3763.5,0.00012685,0.0015402,0.00011992,-52.137,-0.00037747,-3789.3,0.60447
2010,8.7059,3.0909,0,0.00037158,3713.2,0.00012494,0.001891,0.00011868,-47.016,-0.00037236,-3736.5,0.62546
2011,8.8901,3.0909,0,0.00036654,3662.9,0.00012305,0.0022186,0.00011742,-42.301,-0.00036725,-3683.9,0.6467
2012,9.0744,3.0909,0,0.00036151,3612.6,0.00012117,0.0025237,0.00011612,-37.956,-0.00036214,-3631.4,0.6682
2013,9.2587,3.0909,0,0.00035647,3562.3,0.00011931,0.0028097,0.00011479,-33.951,-0.00035704,-3579.1,0.68994
2014,9.4429,3.0909,0,0.00035144,3511.9,0.00011747,0.0030775,0.00011344,-30.259,-0.00035194,-3527,0.71192
2015,9.6272,3.0909,0,0.0003464,3461.6,0.00011564,0.0033277,0.00011207,-26.852,-0.00034685,-3475,0.73414
2016,9.8115,3.0909,0,0.00034137,3411.4,0.00011383,0.0035716,0.00011067,-23.709,-0.00034177,-3423.2,0.75659
2017,9.9957,3.0909,0,0.00033635,3361.2,0.00011202,0.0037943,0.00010925,-20.806,-0.0003367,-3371.5,0.77928
2018,10.18,3.0909,0,0.00033133,3311,0.00011024,0.0040082,0.00010782,-18.125,-0.00033163,-3320,0.8022
2019,10.364,3.0909,0,0.00032632,3260.9,0.00010846,0.0042214,0.00010638,-15.647,-0.00032658,-3268.7,0.82534
2020,10.549,3.0909,0,0.00032131,3210.9,0.00010669,0.0043768,0.00010492,-13.356,-0.00032154,-3217.6,0.8487
2021,10.733,3.0909,0,0.00031632,3161,0.00010494,0.0045618,0.00010345,-11.235,-0.00031651,-3166.6,0.87229
2022,10.917,3.0909,0,0.00031134,3111.2,0.0001032,0.0047823,0.00010197,-9.2724,-0.00031149,-3115.8,0.89608
2023,11.101,3.0909,0,0.00030636,3061.5,0.00010147,0.0049608,0.00010048,-7.4538,-0.00030649,-3065.2,0.92009
2024,11.286,3.0909,0,0.0003014,3011.9,9.9748e-05,0.0051264,9.898e-05,-5.7672,-0.0003015,-3014.8,0.94431
2025,11.47,3.0909,0,0.00029645,2962.5,9.8037e-05,0.0052552,9.7477e-05,-4.2018,-0.00029652,-2964.5,0.96873
2026,11.654,3.0909,0,0.00029151,2913.1,9.6336e-05,0.0054256,9.5969e-05,-2.7472,-0.00029156,-2914.5,0.99335
2027,11.838,3.0909,0,0.00028659,2863.9,9.4644e-05,0.005649,9.4458e-05,-1.3937,-0.00028661,-2864.6,1.0182
2028,12.023,3.0909,0,0.00028168,2814.9,9.2961e-05,0.0063756,9.2943e-05,-0.1334,-0.00028168,-2814.9,1.0432
2029,12.207,3.0909,0,0.00027678,2765.9,9.1426e-05,1.0441,9.1288e-05,0.0058033,-0.00027677,-2765.4,1.0684
2030,12.391,3.0909,0,0.0002719,2717.2,8.9907e-05,2.1442,8.9623e-05,0.0059621,-0.00027187,-2716.1,1.0938
2031,12.575,3.0909,0,0.00026704,2668.6,8.8388e-05,3.175,8.7966e-05,0.0061225,-0.00026699,-2667,1.1194
2032,12.76,3.0909,0,0.00026219,2620.1,8.6869e-05,4.1432,8.6318e-05,0.006313,-0.00026212,-2618,1.1451
2033,12.944,3.0909,0,0.00025736,2571.8,8.535e-05,5.0549,8.4678e-05,0.0064683,-0.00025727,-2569.3,1.1711
2034,13.128,3.0909,0,0.00025254,2523.7,8.3833e-05,5.9161,8.3046e-05,0.0066176,-0.00025244,-2520.7,1.1972
2035,13.313,3.0909,0,0.00024774,2475.7,8.2318e-05,6.7323,8.1422e-05,0.0067383,-0.00024763,-2472.4,1.2235
2036,13.497,3.0909,0,0.00024296,2428,8.0805e-05,7.509,7.9806e-05,0.0068939,-0.00024283,-2424.2,1.2499
2037,13.681,3.0909,0,0.0002382,2380.3,7.9294e-05,8.2511,7.8197e-05,0.0070799,-0.00023806,-2376.2,1.2765
2038,13.865,3.0909,0,0.00023345,2332.9,7.7788e-05,8.9633,7.6596e-05,0.0072427,-0.0002333,-2328.4,1.3033
2039,14.05,3.0909,0,0.00022873,2285.7,7.6285e-05,9.6504,7.5002e-05,0.0074017,-0.00022856,-2280.8,1.3303
2040,14.234,3.0909,0,0.00022402,2238.6,7.4787e-05,10.317,7.3415e-05,0.0075391,-0.00022384,-2233.4,1.3574
2041,14.418,3.0909,0,0.00021933,2191.8,7.3293e-05,10.966,7.1835e-05,0.0077104,-0.00021914,-2186.3,1.3846
2042,14.602,3.0909,0,0.00021466,2145.1,7.1805e-05,11.604,7.0262e-05,0.007914,-0.00021446,-2139.3,1.412
2043,14.787,3.0909,0,0.00021001,2098.6,7.0323e-05,12.233,6.8695e-05,0.0080988,-0.00020979,-2092.5,1.4395
2044,14.971,3.0909,0,0.00020537,2052.3,6.8846e-05,12.859,6.7136e-05,0.0082828,-0.00020515,-2045.9,1.4672
2045,15.155,3.0909,0,0.00020076,2006.2,6.7376e-05,13.484,6.5583e-05,0.0084513,-0.00020053,-1999.4,1.495
2046,15.339,3.0909,0,0.00019617,1960.3,6.5914e-05,14.113,6.4036e-05,0.0086542,-0.00019593,-1953.2,1.523
2047,15.524,3.0909,0,0.0001916,1914.7,6.4458e-05,14.751,6.2496e-05,0.0088898,-0.00019134,-1907.2,1.5511
2048,15.708,3.0909,0,0.00018705,1869.2,6.3011e-05,15.4,6.0962e-05,0.009111,-0.00018678,-1861.4,1.5793
2049,15.892,3.0909,0,0.00018252,1823.9,6.1571e-05,16.066,5.9434e-05,0.0093379,-0.00018224,-1815.8,1.6077
2050,16.077,3.0909,0,0.00017801,1778.9,6.0141e-05,16.753,5.7912e-05,0.0095562,-0.00017772,-1770.4,1.6361
2051,16.261,3.0909,0,0.00017352,1734,5.8719e-05,17.464,5.6396e-05,0.0098079,-0.00017322,-1725.2,1.6647
2052,16.445,3.0909,0,0.00016906,1689.4,5.7307e-05,18.206,5.4886e-05,0.010095,-0.00016874,-1680.2,1.6934
2053,16.629,3.0909,0,0.00016462,1645,5.5906e-05,18.981,5.3381e-05,0.010378,-0.00016428,-1635.4,1.7222
2054,16.814,3.0909,0,0.0001602,1600.8,5.4515e-05,19.797,5.1882e-05,0.010669,-0.00015985,-1590.9,1.7512
2055,16.998,3.0909,0,0.0001558,1556.9,5.3135e-05,20.657,5.0388e-05,0.010963,-0.00015544,-1546.5,1.7802
2056,17.182,3.0909,0,0.00015142,1513.2,5.1768e-05,21.567,4.8899e-05,0.01129,-0.00015105,-1502.3,1.8094
2057,17.366,3.0909,0,0.00014707,1469.7,5.0412e-05,22.533,4.7415e-05,0.01166,-0.00014668,-1458.3,1.8386
2058,17.551,3.0909,0,0.00014275,1426.5,4.907e-05,23.562,4.5935e-05,0.012033,-0.00014233,-1414.5,1.868
2059,17.735,3.0909,0,0.00013844,1383.5,4.7741e-05,24.66,4.4461e-05,0.012426,-0.00013801,-1371,1.8974
2060,17.919,3.0909,0,0.00013417,1340.8,4.6427e-05,25.834,4.2991e-05,0.012831,-0.00013371,-1327.6,1.927
2061,18.103,3.0909,0,0.00012992,1298.3,4.5128e-05,27.091,4.1525e-05,0.01328,-0.00012943,-1284.5,1.9566
2062,18.288,3.0909,0,0.00012569,1256,4.3846e-05,28.44,4.0062e-05,0.013779,-0.00012518,-1241.6,1.9863
2063,18.472,3.0909,0,0.00012149,1214.1,4.258e-05,29.889,3.8604e-05,0.014297,-0.00012096,-1198.9,2.0161
2064,18.656,3.0909,0,0.00011732,1172.4,4.1332e-05,31.448,3.7149e-05,0.014849,-0.00011675,-1156.3,2.046
2065,18.841,3.0909,0,0.00011318,1131,4.0104e-05,33.126,3.5697e-05,0.01543,-0.00011258,-1114.1,2.076
2066,19.025,3.0909,0,0.00010906,1089.9,3.8895e-05,34.934,3.4248e-05,0.016075,-0.00010843,-1072,2.106
2067,19.209,3.0909,0,0.00010498,1049,3.7707e-05,36.883,3.2801e-05,0.016785,-0.0001043,-1030.1,2.1362
2068,19.393,3.0909,0,0.00010092,1008.5,3.6542e-05,38.986,3.1356e-05,0.017541,-0.0001002,-988.46,2.1663
2069,19.578,3.0909,0,9.6899e-05,968.32,3.5401e-05,41.256,2.9913e-05,0.018357,-9.6131e-05,-947.02,2.1966
2070,19.762,3.0909,0,9.2908e-05,928.44,3.4285e-05,43.706,2.8471e-05,0.019242,-9.2087e-05,-905.8,2.2269
2071,19.946,3.0909,0,8.8951e-05,888.89,3.3196e-05,46.351,2.703e-05,0.020216,-8.8071e-05,-864.8,2.2573
2072,20.13,3.0909,0,8.5028e-05,849.69,3.2135e-05,49.207,2.5588e-05,0.0213,-8.4084e-05,-824.01,2.2877
2073,20.315,3.0909,0,8.1142e-05,810.86,3.1103e-05,52.291,2.4147e-05,0.022476,-8.0125e-05,-783.44,2.3182
2074,20.499,3.0909,0,7.7293e-05,772.4,3.0103e-05,55.62,2.2704e-05,0.02378,-7.6196e-05,-743.08,2.3488
2075,20.683,3.0909,0,7.3484e-05,734.33,2.9137e-05,59.213,2.126e-05,0.025217,-7.2297e-05,-702.92,2.3794
2076,20.867,3.0909,0,6.9716e-05,696.68,2.8206e-05,63.089,1.9813e-05,0.026828,-6.8428e-05,-662.98,2.4101
2077,21.052,3.0909,0,6.5991e-05,659.46,2.7311e-05,67.268,1.8362e-05,0.028649,-6.4589e-05,-623.23,2.4408
2078,21.236,3.0909,0,6.2312e-05,622.69,2.6456e-05,71.771,1.6908e-05,0.030698,-6.078e-05,-583.68,2.4715
2079,21.42,3.0909,0,5.8681e-05,586.4,2.5641e-05,76.617,1.5448e-05,0.033039,-5.7e-05,-544.32,2.5023
2080,21.605,3.0909,0,5.5101e-05,550.63,2.4868e-05,81.829,1.3982e-05,0.035725,-5.3251e-05,-505.13,2.5331
2081,21.789,3.0909,0,5.1577e-05,515.41,2.4139e-05,87.426,1.2509e-05,0.038863,-4.953e-05,-466.09,2.564
2082,21.973,3.0909,0,4.8112e-05,480.79,2.3455e-05,93.428,1.1026e-05,0.042579,-4.5837e-05,-427.2,2.5949
2083,22.157,3.0909,0,4.4713e-05,446.82,2.2818e-05,99.851,9.5345e-06,0.047043,-4.2169e-05,-388.43,2.6258
2084,22.342,3.0909,0,4.1388e-05,413.59,2.2227e-05,106.71,8.0313e-06,0.052502,-3.8526e-05,-349.76,2.6568
2085,22.526,3.0909,0,3.8146e-05,381.19,2.1684e-05,114.03,6.5155e-06,0.059388,-3.4904e-05,-311.15,2.6878
2086,22.71,3.0909,0,3.5002e-05,349.77,2.1188e-05,121.8,4.9857e-06,0.068182,-3.1301e-05,-272.57,2.7188
2087,22.894,3.0909,0,3.1975e-05,319.53,2.0738e-05,130.05,3.4405e-06,0.080537,-2.7712e-05,-233.99,2.7498
2088,23.079,3.0909,0,2.9094e-05,290.74,2.0334e-05,138.76,1.8784e-06,0.095833,-2.4134e-05,-195.35,2.7808
2089,23.263,3.0909,0,2.6399e-05,263.81,1.9973e-05,147.95,2.9948e-07,0.12771,-2.0564e-05,-156.63,2.8119
2090,23.447,3.0909,0,2.3946e-05,239.3,1.9655e-05,157.59,-1.2999e-06,0.1456,-1.6996e-05,-117.79,2.843
2091,23.631,3.0909,0,2.1815e-05,218,1.9375e-05,167.74,-2.9045e-06,0.33339,-1.3432e-05,-78.769,2.8741
2092,23.816,3.0909,0,2.0103e-05,200.9,1.913e-05,178.13,-4.5487e-06,0.21239,-9.8662e-06,-39.742,2.9052
2093,1.1509,2.9091,0,0.0012681,12672,0.00048877,0.8646,0.00029432,-1460.1,-0.0012865,-13338,0.018619
2094,1.3352,2.9091,0,0.0011509,11501,0.00044623,0.11385,0.00026217,-1382.8,-0.0011681,-12130,0.024947
2095,1.5195,2.9091,0,0.0010281,10274,0.00040535,1.4661,0.0002218,-1377.6,-0.0010446,-10893,0.032067
2096,1.7037,2.9091,0,0.00091758,9169.4,0.00036837,1.5732,0.00018546,-1372.7,-0.00093314,-9777.4,0.039896
2097,1.888,2.9091,0,0.00082594,8253.7,0.00033644,1.4455,0.00015763,-1342.1,-0.0008405,-8841.6,0.04836
2098,2.0723,2.9091,0,0.00075301,7524.9,0.00030955,1.1269,0.00013824,-1286,-0.00076656,-8084.3,0.057395
2099,2.2565,2.9091,0,0.00069594,6954.6,0.00028715,0.82995,0.00012567,-1212.5,-0.00070856,-7480.6,0.066952
2100,2.4408,2.9091,0,0.00065147,6510.2,0.00026856,0.58839,0.00011809,-1130,-0.00066328,-7000.9,0.076991
2101,2.6251,2.9091,0,0.00061674,6163.2,0.00025309,0.40856,0.00011403,-1044.5,-0.00062782,-6618.4,0.087481
2102,2.8093,2.9091,0,0.00058945,5890.4,0.00024014,0.27954,0.00011234,-959.99,-0.00059987,-6311.2,0.098399
2103,2.9936,2.9091,0,0.00056779,5674,0.00022923,0.1887,0.00011223,-878.94,-0.00057761,-6062.1,0.10972
2104,3.1779,2.9091,0,0.00055042,5500.4,0.00021995,0.12529,0.00011311,-802.62,-0.00055965,-5857.5,0.12144
2105,3.3621,2.9091,0,0.00053628,5359.1,0.00021198,0.081226,0.00011459,-731.65,-0.00054496,-5687.3,0.13354
2106,3.5464,2.9091,0,0.0005246,5242.4,0.00020507,0.050722,0.0001164,-666.19,-0.00053274,-5543.6,0.14601
2107,3.7307,2.9091,0,0.00051476,5144.1,0.00019901,0.029705,0.00011833,-606.18,-0.00052239,-5420.3,0.15884
2108,3.9149,2.9091,0,0.00050632,5059.7,0.00019365,0.015336,0.00012027,-551.39,-0.00051344,-5312.8,0.17202
2109,4.0992,2.9091,0,0.00049891,4985.7,0.00018886,0.0056353,0.00012211,-501.49,-0.00050555,-5217.5,0.18556
2110,4.2835,2.9091,0,0.00049228,4919.4,0.00018452,-0.00078129,0.00012381,-456.15,-0.00049845,-5131.6,0.19944
2111,4.4677,2.9091,0,0.00048621,4858.7,0.00018057,-0.0048877,0.00012533,-414.98,-0.00049194,-5052.9,0.21365
2112,4.652,2.9091,0,0.00048056,4802.3,0.00017692,-0.0073722,0.00012666,-377.64,-0.00048587,-4979.9,0.2282
2113,4.8363,2.9091,0,0.0004752,4748.7,0.00017353,-0.0087243,0.00012778,-343.77,-0.00048011,-4911.3,0.24308
2114,5.0205,2.9091,0,0.00047005,4697.3,0.00017036,-0.0092925,0.0001287,-313.04,-0.00047459,-4846,0.25829
2115,5.2048,2.9091,0,0.00046504,4647.2,0.00016737,-0.0093258,0.00012942,-285.16,-0.00046924,-4783.2,0.27382
2116,5.3891,2.9091,0,0.00046013,4598.1,0.00016453,-0.0090027,0.00012995,-259.85,-0.000464,-4722.5,0.28967
2117,5.5733,2.9091,0,0.00045527,4549.5,0.00016182,-0.0084496,0.00013029,-236.85,-0.00045883,-4663.3,0.30583
2118,5.7576,2.9091,0,0.00045044,4501.3,0.00015921,-0.0077565,0.00013047,-215.94,-0.00045372,-4605.4,0.3223
2119,5.9419,2.9091,0,0.00044562,4453.1,0.0001567,-0.0069873,0.00013049,-196.91,-0.00044864,-4548.3,0.33909
2120,6.1261,2.9091,0,0.0004408,4405,0.00015427,-0.0061854,0.00013037,-179.58,-0.00044358,-4492,0.35617
2121,6.3104,2.9091,0,0.00043597,4356.7,0.00015191,-0.0053813,0.00013011,-163.77,-0.00043852,-4436.3,0.37356
2122,6.4947,2.9091,0,0.00043112,4308.3,0.0001496,-0.0045941,0.00012973,-149.35,-0.00043347,-4381,0.39125
2123,6.6789,2.9091,0,0.00042626,4259.6,0.00014736,-0.0038375,0.00012923,-136.17,-0.00042841,-4326.1,0.40923
2124,6.8632,2.9091,0,0.00042137,4210.8,0.00014516,-0.0031184,0.00012864,-124.13,-0.00042335,-4271.5,0.4275
2125,7.0475,2.9091,0,0.00041647,4161.8,0.000143,-0.0024413,0.00012794,-113.1,-0.00041827,-4217.2,0.44606
2126,7.2317,2.9091,0,0.00041154,4112.5,0.00014088,-0.001807,0.00012717,-103.01,-0.00041319,-4163.1,0.4649
2127,7.416,2.9091,0,0.00040659,4063.1,0.00013879,-0.001216,0.00012631,-93.755,-0.00040811,-4109.2,0.48403
2128,7.6003,2.9091,0,0.00040163,4013.5,0.00013674,-0.00066621,0.00012539,-85.268,-0.00040301,-4055.5,0.50343
2129,7.7845,2.9091,0,0.00039665,3963.7,0.00013471,-0.000156,0.0001244,-77.477,-0.00039791,-4001.9,0.5231
2130,7.9688,2.9091,0,0.00039165,3913.8,0.00013271,0.00031704,0.00012335,-70.322,-0.0003928,-3948.5,0.54305
2131,8.1531,2.9091,0,0.00038665,3863.8,0.00013074,0.00075538,0.00012225,-63.746,-0.00038769,-3895.3,0.56326
2132,8.3373,2.9091,0,0.00038163,3813.7,0.00012879,0.0011623,0.00012111,-57.7,-0.00038258,-3842.2,0.58373
2133,8.5216,2.9091,0,0.00037661,3763.5,0.00012685,0.0015401,0.00011992,-52.137,-0.00037747,-3789.3,0.60447
2134,8.7059,2.9091,0,0.00037158,3713.2,0.00012494,0.0018917,0.00011868,-47.016,-0.00037236,-3736.5,0.62546
2135,8.8901,2.9091,0,0.00036654,3662.9,0.00012305,0.0022184,0.00011742,-42.301,-0.00036725,-3683.9,0.6467
2136,9.0744,2.9091,0,0.00036151,3612.6,0.00012117,0.0025236,0.00011612,-37.956,-0.00036214,-3631.4,0.6682
2137,9.2587,2.9091,0,0.00035647,3562.3,0.00011931,0.0028093,0.00011479,-33.951,-0.00035704,-3579.1,0.68994
2138,9.4429,2.9091,0,0.00035144,3511.9,0.00011747,0.0030771,0.00011344,-30.259,-0.00035194,-3527,0.71192
2139,9.6272,2.9091,0,0.0003464,3461.6,0.00011564,0.0033276,0.00011207,-26.852,-0.00034685,-3475,0.73414
2140,9.8115,2.9091,0,0.00034137,3411.4,0.00011383,0.0035712,0.00011067,-23.709,-0.00034177,-3423.2,0.75659
2141,9.9957,2.9091,0,0.00033635,3361.2,0.00011202,0.0037944,0.00010925,-20.806,-0.0003367,-3371.5,0.77928
2142,10.18,2.9091,0,0.00033133,3311,0.00011024,0.0040083,0.00010782,-18.125,-0.00033163,-3320,0.8022
2143,10.364,2.9091,0,0.00032632,3260.9,0.00010846,0.0042209,0.00010638,-15.647,-0.00032658,-3268.7,0.82534
2144,10.549,2.9091,0,0.00032131,3210.9,0.00010669,0.0043768,0.00010492,-13.356,-0.00032154,-3217.6,0.8487
2145,10.733,2.9091,0,0.00031632,3161,0.00010494,0.0045618,0.00010345,-11.235,-0.00031651,-3166.6,0.87229
2146,10.917,2.9091,0,0.00031134,3111.2,0.0001032,0.0047822,0.00010197,-9.2725,-0.00031149,-3115.8,0.89608
2147,11.101,2.9091,0,0.00030636,3061.5,0.00010147,0.0049606,0.00010048,-7.4538,-0.00030649,-3065.2,0.92009
2148,11.286,2.9091,0,0.0003014,3011.9,9.9748e-05,0.0051257,9.898e-05,-5.7672,-0.0003015,-3014.8,0.94431
2149,11.47,2.9091,0,0.00029645,2962.5,9.8037e-05,0.005256,9.7477e-05,-4.2018,-0.00029652,-2964.5,0.96873
2150,11.654,2.9091,0,0.00029151,2913.1,9.6336e-05,0.0054248,9.5969e-05,-2.7472,-0.00029156,-2914.5,0.99335
2151,11.838,2.9091,0,0.00028659,2863.9,9.4644e-05,0.0056482,9.4458e-05,-1.3938,-0.00028661,-2864.6,1.0182
2152,12.023,2.9091,0,0.00028168,2814.9,9.2961e-05,0.0063756,9.2943e-05,-0.1334,-0.00028168,-2814.9,1.0432
2153,12.207,2.9091,0,0.00027678,2765.9,9.1426e-05,1.0441,9.1288e-05,0.0058034,-0.00027677,-2765.4,1.0684
2154,12.391,2.9091,0,0.0002719,2717.2,8.9907e-05,2.1442,8.9623e-05,0.0059616,-0.00027187,-2716.1,1.0938
2155,12.575,2.9091,0,0.00026704,2668.6,8.8388e-05,3.175,8.7966e-05,0.0061236,-0.00026699,-2667,1.1194
2156,12.76,2.9091,0,0.00026219,2620.1,8.6869e-05,4.1432,8.6318e-05,0.0063123,-0.00026212,-2618,1.1451
2157,12.944,2.9091,0,0.00025736,2571.8,8.535e-05,5.0549,8.4678e-05,0.0064688,-0.00025727,-2569.3,1.1711
2158,13.128,2.9091,0,0.00025254,2523.7,8.3833e-05,5.9161,8.3046e-05,0.0066172,-0.00025244,-2520.7,1.1972
2159,13.313,2.9091,0,0.00024774,2475.7,8.2318e-05,6.7323,8.1422e-05,0.0067392,-0.00024763,-2472.4,1.2235
2160,13.497,2.9091,0,0.00024296,2428,8.0805e-05,7.509,7.9806e-05,0.0068935,-0.00024283,-2424.2,1.2499
2161,13.681,2.9091,0,0.0002382,2380.3,7.9294e-05,8.2511,7.8197e-05,0.0070808,-0.00023806,-2376.2,1.2765
2162,13.865,2.9091,0,0.00023345,2332.9,7.7788e-05,8.9633,7.6596e-05,0.0072423,-0.0002333,-2328.4,1.3033
2163,14.05,2.9091,0,0.00022873,2285.7,7.6285e-05,9.6504,7.5002e-05,0.0074026,-0.00022856,-2280.8,1.3303
2164,14.234,2.9091,0,0.00022402,2238.6,7.4787e-05,10.317,7.3415e-05,0.0075395,-0.00022384,-2233.4,1.3574
2165,14.418,2.9091,0,0.00021933,2191.8,7.3293e-05,10.966,7.1835e-05,0.0077099,-0.00021914,-2186.3,1.3846
2166,14.602,2.9091,0,0.00021466,2145.1,7.1805e-05,11.604,7.0262e-05,0.0079144,-0.00021446,-2139.3,1.412
2167,14.787,2.9091,0,0.00021001,2098.6,7.0323e-05,12.233,6.8695e-05,0.0080983,-0.00020979,-2092.5,1.4395
2168,14.971,2.9091,0,0.00020537,2052.3,6.8846e-05,12.859,6.7136e-05,0.0082825,-0.00020515,-2045.9,1.4672
2169,15.155,2.9091,0,0.00020076,2006.2,6.7376e-05,13.484,6.5583e-05,0.0084514,-0.00020053,-1999.4,1.495
2170,15.339,2.9091,0,0.00019617,1960.3,6.5914e-05,14.113,6.4036e-05,0.0086543,-0.00019593,-1953.2,1.523
2171,15.524,2.9091,0,0.0001916,1914.7,6.4458e-05,14.751,6.2496e-05,0.0088894,-0.00019134,-1907.2,1.5511
2172,15.708,2.9091,0,0.00018705,1869.2,6.3011e-05,15.4,6.0962e-05,0.0091117,-0.00018678,-1861.4,1.5793
2173,15.892,2.9091,0,0.00018252,1823.9,6.1571e-05,16.066,5.9434e-05,0.0093387,-0.00018224,-1815.8,1.6077
2174,16.077,2.9091,0,0.00017801,1778.9,6.0141e-05,16.753,5.7912e-05,0.0095556,-0.00017772,-1770.4,1.6361
2175,16.261,2.9091,0,0.00017352,1734,5.8719e-05,17.464,5.6396e-05,0.0098086,-0.00017322,-1725.2,1.6647
2176,16.445,2.9091,0,0.00016906,1689.4,5.7307e-05,18.206,5.4886e-05,0.010096,-0.00016874,-1680.2,1.6934
2177,16.629,2.9091,0,0.00016462,1645,5.5906e-05,18.981,5.3381e-05,0.010377,-0.00016428,-1635.4,1.7222
2178,16.814,2.9091,0,0.0001602,1600.8,5.4515e-05,19.797,5.1882e-05,0.01067,-0.00015985,-1590.9,1.7512
2179,16.998,2.9091,0,0.0001558,1556.9,5.3135e-05,20.657,5.0388e-05,0.010961,-0.00015544,-1546.5,1.7802
2180,17.182,2.9091,0,0.00015142,1513.2,5.1768e-05,21.567,4.8899e-05,0.011291,-0.00015105,-1502.3,1.8094
2181,17.366,2.9091,0,0.00014707,1469.7,5.0412e-05,22.533,4.7415e-05,0.01166,-0.00014668,-1458.3,1.8386
2182,17.551,2.9091,0,0.00014275,1426.5,4.907e-05,23.562,4.5935e-05,0.012033,-0.00014233,-1414.5,1.868
2183,17.735,2.9091,0,0.00013844,1383.5,4.7741e-05,24.66,4.4461e-05,0.012427,-0.00013801,-1371,1.8974
2184,17.919,2.9091,0,0.00013417,1340.8,4.6427e-05,25.834,4.2991e-05,0.01283,-0.00013371,-1327.6,1.927
2185,18.103,2.9091,0,0.00012992,1298.3,4.5128e-05,27.091,4.1525e-05,0.01328,-0.00012943,-1284.5,1.9566
2186,18.288,2.9091,0,0.00012569,1256,4.3846e-05,28.44,4.0062e-05,0.013778,-0.00012518,-1241.6,1.9863
2187,18.472,2.9091,0,0.00012149,1214.1,4.258e-05,29.889,3.8604e-05,0.014295,-0.00012096,-1198.9,2.0161
2188,18.656,2.9091,0,0.00011732,1172.4,4.1332e-05,31.448,3.7149e-05,0.014851,-0.00011675,-1156.3,2.046
2189,18.841,2.9091,0,0.00011318,1131,4.0104e-05,33.126,3.5697e-05,0.015432,-0.00011258,-1114.1,2.076
2190,19.025,2.9091,0,0.00010906,1089.9,3.8895e-05,34.934,3.4248e-05,0.016074,-0.00010843,-1072,2.106
2191,19.209,2.9091,0,0.00010498,1049,3.7707e-05,36.883,3.2801e-05,0.016785,-0.0001043,-1030.1,2.1362
2192,19.393,2.9091,0,0.00010092,1008.5,3.6542e-05,38.986,3.1356e-05,0.017539,-0.0001002,-988.46,2.1663
2193,19.578,2.9091,0,9.6899e-05,968.32,3.5401e-05,41.256,2.9913e-05,0.01836,-9.6131e-05,-947.02,2.1966
2194,19.762,2.9091,0,9.2908e-05,928.44,3.4285e-05,43.706,2.8471e-05,0.01924,-9.2087e-05,-905.8,2.2269
2195,19.946,2.9091,0,8.8951e-05,888.89,3.3196e-05,46.351,2.703e-05,0.020215,-8.8071e-05,-864.8,2.2573
2196,20.13,2.9091,0,8.5028e-05,849.69,3.2135e-05,49.207,2.5588e-05,0.021297,-8.4084e-05,-824.01,2.2877
2197,20.315,2.9091,0,8.1142e-05,810.86,3.1103e-05,52.291,2.4147e-05,0.022477,-8.0125e-05,-783.44,2.3182
2198,20.499,2.9091,0,7.7293e-05,772.4,3.0103e-05,55.62,2.2704e-05,0.02378,-7.6196e-05,-743.08,2.3488
2199,20.683,2.9091,0,7.3484e-05,734.33,2.9137e-05,59.213,2.126e-05,0.025214,-7.2297e-05,-702.92,2.3794
2200,20.867,2.9091,0,6.9716e-05,696.68,2.8206e-05,63.089,1.9813e-05,0.026829,-6.8428e-05,-662.98,2.4101
2201,21.052,2.9091,0,6.5991e-05,659.46,2.7311e-05,67.268,1.8362e-05,0.028647,-6.4589e-05,-623.23,2.4408
2202,21.236,2.9091,0,6.2312e-05,622.69,2.6456e-05,71.771,1.6908e-05,0.030699,-6.078e-05,-583.68,2.4715
2203,21.42,2.9091,0,5.8681e-05,586.4,2.5641e-05,76.617,1.5448e-05,0.033037,-5.7e-05,-544.32,2.5023
2204,21.605,2.9091,0,5.5101e-05,550.63,2.4868e-05,81.829,1.3982e-05,0.035723,-5.3251e-05,-505.13,2.5331
2205,21.789,2.9091,0,5.1577e-05,515.41,2.4139e-05,87.426,1.2509e-05,0.038864,-4.953e-05,-466.09,2.564
2206,21.973,2.9091,0,4.8112e-05,480.79,2.3455e-05,93.428,1.1026e-05,0.042581,-4.5837e-05,-427.2,2.5949
2207,22.157,2.9091,0,4.4713e-05,446.82,2.2818e-05,99.851,9.5345e-06,0.047041,-4.2169e-05,-388.43,2.6258
2208,22.342,2.9091,0,4.1388e-05,413.59,2.2227e-05,106.71,8.0313e-06,0.0525,-3.8526e-05,-349.76,2.6568
2209,22.526,2.9091,0,3.8146e-05,381.19,2.1684e-05,114.03,6.5155e-06,0.059391,-3.4904e-05,-311.15,2.6878
2210,22.71,2.9091,0,3.5002e-05,349.77,2.1188e-05,121.8,4.9857e-06,0.068177,-3.1301e-05,-272.57,2.7188
2211,22.894,2.9091,0,3.1975e-05,319.53,2.0738e-05,130.05,3.4405e-06,0.080539,-2.7712e-05,-233.99,2.7498
2212,23.079,2.9091,0,2.9094e-05,290.74,2.0334e-05,138.76,1.8784e-06,0.095832,-2.4134e-05,-195.35,2.7808
2213,23.263,2.9091,0,2.6399e-05,263.81,1.9973e-05,147.95,2.9948e-07,0.12771,-2.0564e-05,-156.63,2.8119
2214,23.447,2.9091,0,2.3946e-05,239.3,1.9655e-05,157.59,-1.2999e-06,0.1456,-1.6996e-05,-117.79,2.843
2215,23.631,2.9091,0,2.1815e-05,218,1.9375e-05,167.74,-2.9045e-06,0.33339,-1.3432e-05,-78.769,2.8741
2216,23.816,2.9091,0,2.0103e-05,200.9,1.913e-05,178.13,-4.5487e-06,0.21239,-9.8662e-06,-39.742,2.9052
2217,1.1509,2.7273,0,0.0012964,12955,0.00049049,-2.3476,0.00031747,-1302.4,-0.0013136,-13558,0.018424
2218,1.3352,2.7273,0,0.0011607,11599,0.00044458,0.26918,0.00027455,-1277.2,-0.0011771,-12185,0.024774
2219,1.5195,2.7273,0,0.0010261,10254,0.00040116,1.9763,0.00022773,-1301.1,-0.0010419,-10841,0.031921
2220,1.7037,2.7273,0,0.00091103,9104,0.00036327,1.9426,0.00018887,-1308.4,-0.00092615,-9686.2,0.039774
2221,1.888,2.7273,0,0.00081901,8184.5,0.00033147,1.5846,0.00016045,-1283.3,-0.00083321,-8749.3,0.048256
2222,2.0723,2.7273,0,0.00074724,7467.2,0.00030517,1.2324,0.00014108,-1231.7,-0.00076049,-8005.7,0.057304
2223,2.2565,2.7273,0,0.0006916,6911.3,0.00028349,0.89747,0.00012854,-1163.3,-0.00070398,-7418.5,0.066869
2224,2.4408,2.7273,0,0.00064841,6479.6,0.00026557,0.64093,0.00012091,-1086.3,-0.00066,-6953.7,0.076913
2225,2.6251,2.7273,0,0.00061468,6142.5,0.00025067,0.45148,0.00011669,-1006.3,-0.00062556,-6583.2,0.087406
2226,2.8093,2.7273,0,0.00058812,5877.1,0.0002382,0.3146,0.00011479,-926.97,-0.00059837,-6285.3,0.098324
2227,2.9936,2.7273,0,0.000567,5666,0.00022767,0.21711,0.00011444,-850.58,-0.00057665,-6043.1,0.10965
2228,3.1779,2.7273,0,0.00055,5496.2,0.0002187,0.14808,0.00011508,-778.35,-0.00055908,-5843.8,0.12137
2229,3.3621,2.7273,0,0.00053612,5357.5,0.00021097,0.099385,0.00011634,-710.91,-0.00054466,-5677.4,0.13346
2230,3.5464,2.7273,0,0.00052462,5242.6,0.00020425,0.065136,0.00011794,-648.48,-0.00053263,-5536.6,0.14593
2231,3.7307,2.7273,0,0.0005149,5145.4,0.00019835,0.041134,0.00011968,-591.06,-0.0005224,-5415.4,0.15876
2232,3.9149,2.7273,0,0.00050653,5061.8,0.00019312,0.024407,0.00012145,-538.46,-0.00051353,-5309.5,0.17195
2233,4.0992,2.7273,0,0.00049917,4988.2,0.00018842,0.012854,0.00012315,-490.43,-0.0005057,-5215.3,0.18548
2234,4.2835,2.7273,0,0.00049255,4922.1,0.00018417,0.0049844,0.00012472,-446.67,-0.00049863,-5130.2,0.19935
2235,4.4677,2.7273,0,0.00048649,4861.6,0.00018027,-0.00026278,0.00012613,-406.84,-0.00049214,-5052.2,0.21357
2236,4.652,2.7273,0,0.00048084,4805.1,0.00017668,-0.0036452,0.00012735,-370.64,-0.00048607,-4979.6,0.22812
2237,4.8363,2.7273,0,0.00047547,4751.4,0.00017334,-0.0057059,0.00012839,-337.73,-0.00048031,-4911.3,0.243
2238,5.0205,2.7273,0,0.00047031,4699.8,0.0001702,-0.0068359,0.00012923,-307.82,-0.00047479,-4846.2,0.25821
2239,5.2048,2.7273,0,0.00046528,4649.6,0.00016723,-0.0073176,0.00012988,-280.64,-0.00046942,-4783.6,0.27373
2240,5.3891,2.7273,0,0.00046035,4600.3,0.00016442,-0.0073528,0.00013036,-255.92,-0.00046417,-4723,0.28958
2241,5.5733,2.7273,0,0.00045548,4551.6,0.00016172,-0.0070884,0.00013065,-233.42,-0.000459,-4663.8,0.30574
2242,5.7576,2.7273,0,0.00045063,4503.2,0.00015913,-0.0066291,0.00013079,-212.94,-0.00045387,-4605.9,0.32222
2243,5.9419,2.7273,0,0.0004458,4454.9,0.00015663,-0.0060497,0.00013077,-194.28,-0.00044878,-4548.9,0.339
2244,6.1261,2.7273,0,0.00044096,4406.6,0.00015421,-0.0054029,0.00013062,-177.26,-0.00044371,-4492.5,0.35609
2245,6.3104,2.7273,0,0.00043612,4358.2,0.00015186,-0.0047257,0.00013033,-161.73,-0.00043864,-4436.8,0.37348
2246,6.4947,2.7273,0,0.00043126,4309.6,0.00014956,-0.0040441,0.00012993,-147.54,-0.00043358,-4381.5,0.39116
2247,6.6789,2.7273,0,0.00042638,4260.9,0.00014732,-0.0033737,0.00012941,-134.56,-0.00042851,-4326.6,0.40914
2248,6.8632,2.7273,0,0.00042149,4212,0.00014512,-0.0027271,0.00012879,-122.69,-0.00042344,-4272,0.42742
2249,7.0475,2.7273,0,0.00041657,4162.8,0.00014297,-0.0021107,0.00012809,-111.82,-0.00041836,-4217.6,0.44598
2250,7.2317,2.7273,0,0.00041163,4113.5,0.00014085,-0.0015272,0.0001273,-101.86,-0.00041327,-4163.5,0.46482
2251,7.416,2.7273,0,0.00040668,4064,0.00013877,-0.00097848,0.00012643,-92.72,-0.00040818,-4109.5,0.48394
2252,7.6003,2.7273,0,0.00040171,4014.3,0.00013672,-0.0004651,0.00012549,-84.335,-0.00040308,-4055.8,0.50334
2253,7.7845,2.7273,0,0.00039672,3964.5,0.0001347,1.4808e-05,0.0001245,-76.635,-0.00039797,-4002.2,0.52302
2254,7.9688,2.7273,0,0.00039172,3914.5,0.0001327,0.00046162,0.00012344,-69.56,-0.00039286,-3948.8,0.54297
2255,8.1531,2.7273,0,0.00038671,3864.4,0.00013072,0.00087729,0.00012233,-63.055,-0.00038774,-3895.6,0.56318
2256,8.3373,2.7273,0,0.00038169,3814.3,0.00012877,0.0012662,0.00012118,-57.072,-0.00038263,-3842.5,0.58365
2257,8.5216,2.7273,0,0.00037666,3764,0.00012684,0.0016267,0.00011998,-51.565,-0.00037751,-3789.5,0.60439
2258,8.7059,2.7273,0,0.00037163,3713.7,0.00012493,0.0019648,0.00011874,-46.496,-0.0003724,-3736.7,0.62538
2259,8.8901,2.7273,0,0.00036659,3663.4,0.00012304,0.0022792,0.00011747,-41.826,-0.00036728,-3684.1,0.64663
2260,9.0744,2.7273,0,0.00036155,3613,0.00012117,0.0025746,0.00011617,-37.522,-0.00036217,-3631.6,0.66812
2261,9.2587,2.7273,0,0.00035651,3562.7,0.00011931,0.002852,0.00011484,-33.555,-0.00035707,-3579.3,0.68986
2262,9.4429,2.7273,0,0.00035147,3512.3,0.00011746,0.0031127,0.00011348,-29.896,-0.00035197,-3527.2,0.71184
2263,9.6272,2.7273,0,0.00034644,3462,0.00011564,0.0033577,0.00011211,-26.52,-0.00034688,-3475.2,0.73406
2264,9.8115,2.7273,0,0.0003414,3411.7,0.00011382,0.0035965,0.00011071,-23.404,-0.0003418,-3423.3,0.75652
2265,9.9957,2.7273,0,0.00033638,3361.5,0.00011202,0.0038178,0.00010929,-20.527,-0.00033672,-3371.7,0.77921
2266,10.18,2.7273,0,0.00033136,3311.3,0.00011023,0.0040287,0.00010785,-17.868,-0.00033166,-3320.2,0.80213
2267,10.364,2.7273,0,0.00032634,3261.2,0.00010846,0.0042419,0.0001064,-15.411,-0.0003266,-3268.9,0.82527
2268,10.549,2.7273,0,0.00032134,3211.2,0.00010669,0.0044003,0.00010494,-13.139,-0.00032156,-3217.7,0.84864
2269,10.733,2.7273,0,0.00031634,3161.2,0.00010494,0.0045908,0.00010347,-11.036,-0.00031653,-3166.7,0.87222
2270,10.917,2.7273,0,0.00031136,3111.4,0.0001032,0.0048191,0.00010199,-9.0894,-0.00031151,-3116,0.89602
2271,11.101,2.7273,0,0.00030638,3061.7,0.00010147,0.0050126,0.0001005,-7.2854,-0.00030651,-3065.3,0.92003
2272,11.286,2.7273,0,0.00030142,3012.1,9.9747e-05,0.0052025,9.8999e-05,-5.6124,-0.00030151,-3014.9,0.94424
2273,11.47,2.7273,0,0.00029647,2962.6,9.8036e-05,0.0053756,9.7495e-05,-4.0594,-0.00029654,-2964.7,0.96867
2274,11.654,2.7273,0,0.00029153,2913.3,9.6335e-05,0.005636,9.5986e-05,-2.6162,-0.00029157,-2914.6,0.99329
2275,11.838,2.7273,0,0.00028661,2864.1,9.4644e-05,0.0061416,9.4473e-05,-1.2735,-0.00028663,-2864.7,1.0181
2276,12.023,2.7273,0,0.0002817,2815,9.2963e-05,0.023241,9.2955e-05,-0.039151,-0.0002817,-2815,1.0431
2277,12.207,2.7273,0,0.0002768,2766.1,9.1439e-05,1.147,9.1288e-05,0.005131,-0.00027678,-2765.5,1.0683
2278,12.391,2.7273,0,0.00027192,2717.3,8.992e-05,2.2386,8.9623e-05,0.0055791,-0.00027188,-2716.2,1.0937
2279,12.575,2.7273,0,0.00026705,2668.7,8.84e-05,3.2617,8.7967e-05,0.0058356,-0.000267,-2667.1,1.1193
2280,12.76,2.7273,0,0.0002622,2620.2,8.688e-05,4.2228,8.6319e-05,0.0060707,-0.00026213,-2618.1,1.1451
2281,12.944,2.7273,0,0.00025737,2571.9,8.5361e-05,5.1279,8.4679e-05,0.0062512,-0.00025728,-2569.4,1.171
2282,13.128,2.7273,0,0.00025256,2523.8,8.3843e-05,5.983,8.3047e-05,0.0064165,-0.00025245,-2520.8,1.1971
2283,13.313,2.7273,0,0.00024776,2475.9,8.2327e-05,6.7935,8.1423e-05,0.006549,-0.00024764,-2472.4,1.2234
2284,13.497,2.7273,0,0.00024297,2428.1,8.0813e-05,7.5647,7.9807e-05,0.0067117,-0.00024284,-2424.3,1.2499
2285,13.681,2.7273,0,0.00023821,2380.5,7.9302e-05,8.3018,7.8198e-05,0.006903,-0.00023807,-2376.3,1.2765
2286,13.865,2.7273,0,0.00023346,2333,7.7795e-05,9.0091,7.6597e-05,0.0070706,-0.00023331,-2328.5,1.3033
2287,14.05,2.7273,0,0.00022874,2285.8,7.6292e-05,9.6916,7.5003e-05,0.0072307,-0.00022857,-2280.9,1.3302
2288,14.234,2.7273,0,0.00022403,2238.7,7.4793e-05,10.353,7.3416e-05,0.0073703,-0.00022385,-2233.5,1.3573
2289,14.418,2.7273,0,0.00021934,2191.9,7.3299e-05,10.999,7.1837e-05,0.0075422,-0.00021915,-2186.3,1.3845
2290,14.602,2.7273,0,0.00021467,2145.2,7.1811e-05,11.632,7.0264e-05,0.0077464,-0.00021447,-2139.3,1.4119
2291,14.787,2.7273,0,0.00021001,2098.7,7.0328e-05,12.258,6.8697e-05,0.0079309,-0.0002098,-2092.5,1.4395
2292,14.971,2.7273,0,0.00020538,2052.4,6.8851e-05,12.879,6.7138e-05,0.0081154,-0.00020516,-2045.9,1.4672
2293,15.155,2.7273,0,0.00020077,2006.3,6.7381e-05,13.5,6.5585e-05,0.008284,-0.00020054,-1999.5,1.495
2294,15.339,2.7273,0,0.00019618,1960.4,6.5917e-05,14.125,6.4039e-05,0.0084847,-0.00019593,-1953.3,1.5229
2295,15.524,2.7273,0,0.00019161,1914.7,6.4462e-05,14.758,6.2499e-05,0.0087203,-0.00019135,-1907.3,1.551
2296,15.708,2.7273,0,0.00018706,1869.3,6.3014e-05,15.404,6.0965e-05,0.0089402,-0.00018679,-1861.5,1.5793
2297,15.892,2.7273,0,0.00018253,1824,6.1574e-05,16.065,5.9437e-05,0.0091657,-0.00018225,-1815.9,1.6076
2298,16.077,2.7273,0,0.00017802,1778.9,6.0143e-05,16.747,5.7915e-05,0.0093826,-0.00017773,-1770.5,1.6361
2299,16.261,2.7273,0,0.00017353,1734.1,5.8721e-05,17.454,5.6399e-05,0.0096336,-0.00017323,-1725.3,1.6647
2300,16.445,2.7273,0,0.00016907,1689.5,5.7308e-05,18.19,5.4889e-05,0.0099176,-0.00016875,-1680.3,1.6934
2301,16.629,2.7273,0,0.00016462,1645.1,5.5906e-05,18.96,5.3384e-05,0.010199,-0.00016429,-1635.5,1.7222
2302,16.814,2.7273,0,0.0001602,1600.9,5.4515e-05,19.769,5.1885e-05,0.010489,-0.00015986,-1590.9,1.7511
2303,16.998,2.7273,0,0.0001558,1557,5.3134e-05,20.623,5.0391e-05,0.010779,-0.00015544,-1546.5,1.7802
2304,17.182,2.7273,0,0.00015143,1513.2,5.1766e-05,21.526,4.8902e-05,0.011105,-0.00015105,-1502.4,1.8093
2305,17.366,2.7273,0,0.00014708,1469.8,5.041e-05,22.485,4.7419e-05,0.011473,-0.00014668,-1458.4,1.8386
2306,17.551,2.7273,0,0.00014275,1426.5,4.9066e-05,23.506,4.5939e-05,0.011844,-0.00014234,-1414.6,1.8679
2307,17.735,2.7273,0,0.00013845,1383.5,4.7737e-05,24.595,4.4465e-05,0.012234,-0.00013801,-1371.1,1.8974
2308,17.919,2.7273,0,0.00013417,1340.8,4.6422e-05,25.76,4.2995e-05,0.012635,-0.00013371,-1327.7,1.9269
2309,18.103,2.7273,0,0.00012992,1298.3,4.5122e-05,27.007,4.1529e-05,0.013082,-0.00012944,-1284.6,1.9566
2310,18.288,2.7273,0,0.00012569,1256,4.3838e-05,28.344,4.0067e-05,0.013578,-0.00012518,-1241.6,1.9863
2311,18.472,2.7273,0,0.00012149,1214.1,4.2571e-05,29.781,3.8609e-05,0.014092,-0.00012096,-1198.9,2.0161
2312,18.656,2.7273,0,0.00011732,1172.4,4.1322e-05,31.327,3.7154e-05,0.014639,-0.00011675,-1156.4,2.046
2313,18.841,2.7273,0,0.00011317,1131,4.0091e-05,32.99,3.5703e-05,0.015221,-0.00011258,-1114.1,2.076
2314,19.025,2.7273,0,0.00010906,1089.8,3.8881e-05,34.782,3.4254e-05,0.015862,-0.00010842,-1072,2.106
2315,19.209,2.7273,0,0.00010497,1049,3.7691e-05,36.714,3.2807e-05,0.016567,-0.0001043,-1030.1,2.1361
2316,19.393,2.7273,0,0.00010091,1008.4,3.6524e-05,38.798,3.1363e-05,0.017319,-0.0001002,-988.48,2.1663
2317,19.578,2.7273,0,9.6889e-05,968.22,3.5381e-05,41.046,2.992e-05,0.018131,-9.6125e-05,-947.04,2.1966
2318,19.762,2.7273,0,9.2896e-05,928.32,3.4262e-05,43.474,2.8479e-05,0.019008,-9.208e-05,-905.81,2.2269
2319,19.946,2.7273,0,8.8936e-05,888.75,3.317e-05,46.094,2.7038e-05,0.019981,-8.8062e-05,-864.8,2.2573
2320,20.13,2.7273,0,8.5011e-05,849.53,3.2106e-05,48.924,2.5597e-05,0.021057,-8.4073e-05,-824,2.2877
2321,20.315,2.7273,0,8.1122e-05,810.66,3.1071e-05,51.979,2.4156e-05,0.022231,-8.0113e-05,-783.41,2.3182
2322,20.499,2.7273,0,7.7271e-05,772.18,3.0068e-05,55.277,2.2714e-05,0.023526,-7.6182e-05,-743.04,2.3488
2323,20.683,2.7273,0,7.3459e-05,734.08,2.9098e-05,58.837,2.1271e-05,0.024958,-7.228e-05,-702.88,2.3794
2324,20.867,2.7273,0,6.9687e-05,696.39,2.8163e-05,62.677,1.9824e-05,0.026566,-6.8409e-05,-662.92,2.41
2325,21.052,2.7273,0,6.5959e-05,659.13,2.7264e-05,66.819,1.8375e-05,0.028386,-6.4567e-05,-623.17,2.4408
2326,21.236,2.7273,0,6.2276e-05,622.33,2.6404e-05,71.282,1.6921e-05,0.03043,-6.0756e-05,-583.6,2.4715
2327,21.42,2.7273,0,5.8641e-05,586,2.5585e-05,76.087,1.5463e-05,0.032764,-5.6974e-05,-544.23,2.5023
2328,21.605,2.7273,0,5.5057e-05,550.19,2.4808e-05,81.256,1.3998e-05,0.035447,-5.3222e-05,-505.03,2.5331
2329,21.789,2.7273,0,5.1528e-05,514.93,2.4074e-05,86.81,1.2525e-05,0.038581,-4.9499e-05,-465.99,2.564
2330,21.973,2.7273,0,4.8059e-05,480.26,2.3386e-05,92.767,1.1045e-05,0.042293,-4.5804e-05,-427.09,2.5949
2331,22.157,2.7273,0,4.4656e-05,446.25,2.2744e-05,99.148,9.554e-06,0.046751,-4.2135e-05,-388.32,2.6258
2332,22.342,2.7273,0,4.1326e-05,412.97,2.2149e-05,105.97,8.0523e-06,0.052206,-3.849e-05,-349.65,2.6568
2333,22.526,2.7273,0,3.808e-05,380.54,2.1602e-05,113.24,6.5379e-06,0.059084,-3.4867e-05,-311.04,2.6877
2334,22.71,2.7273,0,3.4932e-05,349.07,2.1102e-05,120.98,5.0095e-06,0.067861,-3.1264e-05,-272.47,2.7187
2335,22.894,2.7273,0,3.1901e-05,318.79,2.065e-05,129.19,3.4658e-06,0.080203,-2.7675e-05,-233.9,2.7498
2336,23.079,2.7273,0,2.9016e-05,289.96,2.0243e-05,137.88,1.9052e-06,0.095469,-2.4098e-05,-195.28,2.7808
2337,23.263,2.7273,0,2.6317e-05,262.99,1.9881e-05,147.05,3.2753e-07,0.12731,-2.0529e-05,-156.58,2.8119
2338,23.447,2.7273,0,2.386e-05,238.44,1.9561e-05,156.67,-1.2706e-06,0.14513,-1.6962e-05,-117.75,2.843
2339,23.631,2.7273,0,2.1725e-05,217.1,1.9282e-05,166.8,-2.8743e-06,0.33272,-1.34e-05,-78.757,2.8741
2340,23.816,2.7273,0,2.0012e-05,199.98,1.9038e-05,177.2,-4.5177e-06,0.21096,-9.8363e-06,-39.751,2.9051
2341,1.1509,2.5455,0,0.0013563,13553,0.00049639,9.874,0.00036367,-987.34,-0.0013701,-14015,0.018021
2342,1.3352,2.5455,0,0.0011765,11757,0.00043973,3.6266,0.00029857,-1057,-0.0011909,-12248,0.024423
2343,1.5195,2.5455,0,0.0010182,10175,0.00039099,2.2398,0.00023922,-1138.1,-0.0010327,-10695,0.031627
2344,1.7037,2.5455,0,0.00089647,8958.5,0.0003521,2.5977,0.00019603,-1170,-0.00091055,-9484.5,0.039529
2345,1.888,2.5455,0,0.00080503,8044.8,0.00032115,2.1045,0.00016665,-1158.7,-0.0008184,-8560,0.048047
2346,2.0723,2.5455,0,0.00073597,7354.6,0.00029634,1.4428,0.0001471,-1119.9,-0.00074855,-7849.5,0.05712
2347,2.2565,2.5455,0,0.00068324,6827.7,0.00027621,1.066,0.00013441,-1064.4,-0.00069506,-7296.7,0.066701
2348,2.4408,2.5455,0,0.00064249,6420.5,0.00025968,0.76067,0.0001265,-999.9,-0.00065361,-6861.3,0.076755
2349,2.6251,2.5455,0,0.00061066,6102.4,0.00024594,0.54465,0.00012188,-931.57,-0.00062114,-6514.3,0.087253
2350,2.8093,2.5455,0,0.00058552,5851.2,0.00023441,0.38763,0.00011953,-862.74,-0.00059539,-6234.4,0.098174
2351,2.9936,2.5455,0,0.00056543,5650.4,0.00022463,0.27464,0.00011871,-795.55,-0.00057473,-6005.8,0.1095
2352,3.1779,2.5455,0,0.00054916,5487.8,0.00021625,0.19339,0.0001189,-731.29,-0.00055793,-5816.7,0.12122
2353,3.3621,2.5455,0,0.0005358,5354.3,0.000209,0.13505,0.00011972,-670.7,-0.00054404,-5657.9,0.13331
2354,3.5464,2.5455,0,0.00052464,5242.8,0.00020267,0.093232,0.00012092,-614.12,-0.00053238,-5522.7,0.14578
2355,3.7307,2.5455,0,0.00051515,5148,0.00019707,0.063305,0.0001223,-561.68,-0.0005224,-5405.7,0.1586
2356,3.9149,2.5455,0,0.00050693,5065.8,0.00019207,0.041955,0.00012375,-513.32,-0.0005137,-5302.9,0.17179
2357,4.0992,2.5455,0,0.00049965,4993.1,0.00018757,0.026796,0.00012516,-468.9,-0.00050597,-5211,0.18532
2358,4.2835,2.5455,0,0.00049309,4927.5,0.00018347,0.016112,0.00012648,-428.19,-0.00049897,-5127.6,0.19919
2359,4.4677,2.5455,0,0.00048704,4867.1,0.0001797,0.0086614,0.00012767,-390.96,-0.00049251,-5050.8,0.2134
2360,4.652,2.5455,0,0.00048138,4810.5,0.00017621,0.0035492,0.0001287,-356.95,-0.00048646,-4979,0.22795
2361,4.8363,2.5455,0,0.000476,4756.7,0.00017295,0.00012361,0.00012957,-325.91,-0.00048071,-4911.3,0.24283
2362,5.0205,2.5455,0,0.00047081,4704.9,0.00016988,-0.0020882,0.00013027,-297.59,-0.00047517,-4846.6,0.25804
2363,5.2048,2.5455,0,0.00046576,4654.4,0.00016696,-0.0034309,0.0001308,-271.76,-0.00046979,-4784.3,0.27356
2364,5.3891,2.5455,0,0.0004608,4604.8,0.00016419,-0.0041571,0.00013116,-248.19,-0.00046452,-4723.9,0.28941
2365,5.5733,2.5455,0,0.00045589,4555.7,0.00016153,-0.0044483,0.00013136,-226.68,-0.00045932,-4664.8,0.30557
2366,5.7576,2.5455,0,0.00045101,4507,0.00015897,-0.0044392,0.00013142,-207.04,-0.00045417,-4606.9,0.32205
2367,5.9419,2.5455,0,0.00044615,4458.4,0.00015649,-0.004226,0.00013133,-189.09,-0.00044906,-4549.9,0.33883
2368,6.1261,2.5455,0,0.00044128,4409.8,0.00015409,-0.0038788,0.00013111,-172.69,-0.00044397,-4493.6,0.35592
2369,6.3104,2.5455,0,0.00043641,4361.1,0.00015176,-0.003448,0.00013077,-157.68,-0.00043888,-4437.8,0.3733
2370,6.4947,2.5455,0,0.00043153,4312.3,0.00014948,-0.0029694,0.00013032,-143.95,-0.0004338,-4382.5,0.39099
2371,6.6789,2.5455,0,0.00042663,4263.3,0.00014724,-0.0024686,0.00012976,-131.37,-0.00042871,-4327.5,0.40897
2372,6.8632,2.5455,0,0.00042171,4214.2,0.00014506,-0.0019623,0.00012911,-119.85,-0.00042362,-4272.8,0.42725
2373,7.0475,2.5455,0,0.00041678,4164.9,0.00014291,-0.0014629,0.00012837,-109.28,-0.00041853,-4218.4,0.44581
2374,7.2317,2.5455,0,0.00041182,4115.4,0.0001408,-0.00097827,0.00012755,-99.575,-0.00041343,-4164.3,0.46465
2375,7.416,2.5455,0,0.00040685,4065.7,0.00013873,-0.00051282,0.00012666,-90.667,-0.00040832,-4110.3,0.48378
2376,7.6003,2.5455,0,0.00040187,4015.9,0.00013668,-6.9895e-05,0.0001257,-82.485,-0.00040321,-4056.5,0.50318
2377,7.7845,2.5455,0,0.00039687,3965.9,0.00013466,0.00034969,0.00012468,-74.963,-0.00039809,-4002.9,0.52286
2378,7.9688,2.5455,0,0.00039185,3915.8,0.00013267,0.00074583,0.00012361,-68.046,-0.00039297,-3949.4,0.5428
2379,8.1531,2.5455,0,0.00038683,3865.7,0.0001307,0.0011188,0.00012249,-61.682,-0.00038785,-3896.1,0.56302
2380,8.3373,2.5455,0,0.0003818,3815.4,0.00012875,0.0014685,0.00012132,-55.824,-0.00038272,-3843,0.58349
2381,8.5216,2.5455,0,0.00037677,3765.1,0.00012682,0.0017985,0.00012011,-50.43,-0.0003776,-3790,0.60423
2382,8.7059,2.5455,0,0.00037172,3714.7,0.00012491,0.0021084,0.00011886,-45.461,-0.00037248,-3737.2,0.62522
2383,8.8901,2.5455,0,0.00036668,3664.3,0.00012302,0.0023997,0.00011758,-40.881,-0.00036736,-3684.5,0.64647
2384,9.0744,2.5455,0,0.00036163,3613.9,0.00012115,0.0026758,0.00011627,-36.66,-0.00036224,-3632,0.66797
2385,9.2587,2.5455,0,0.00035659,3563.4,0.00011929,0.0029353,0.00011493,-32.766,-0.00035714,-3579.7,0.68971
2386,9.4429,2.5455,0,0.00035155,3513,0.00011745,0.0031822,0.00011357,-29.174,-0.00035203,-3527.5,0.71169
2387,9.6272,2.5455,0,0.0003465,3462.7,0.00011563,0.0034158,0.00011218,-25.858,-0.00034694,-3475.5,0.73392
2388,9.8115,2.5455,0,0.00034147,3412.3,0.00011381,0.003647,0.00011078,-22.797,-0.00034185,-3423.7,0.75637
2389,9.9957,2.5455,0,0.00033644,3362,0.00011201,0.0038616,0.00010935,-19.97,-0.00033677,-3372,0.77907
2390,10.18,2.5455,0,0.00033141,3311.8,0.00011023,0.0040709,0.00010791,-17.357,-0.0003317,-3320.5,0.80199
2391,10.364,2.5455,0,0.0003264,3261.7,0.00010845,0.004285,0.00010646,-14.942,-0.00032665,-3269.1,0.82513
2392,10.549,2.5455,0,0.00032139,3211.7,0.00010669,0.0044481,0.000105,-12.708,-0.0003216,-3218,0.8485
2393,10.733,2.5455,0,0.00031639,3161.7,0.00010494,0.0046493,0.00010352,-10.64,-0.00031657,-3167,0.87208
2394,10.917,2.5455,0,0.0003114,3111.9,0.00010319,0.0048981,0.00010203,-8.7248,-0.00031155,-3116.2,0.89588
2395,11.101,2.5455,0,0.00030642,3062.1,0.00010146,0.0051221,0.00010054,-6.95,-0.00030654,-3065.6,0.91989
2396,11.286,2.5455,0,0.00030146,3012.5,9.9744e-05,0.0053671,9.9038e-05,-5.3038,-0.00030155,-3015.1,0.94411
2397,11.47,2.5455,0,0.00029651,2963,9.8034e-05,0.0056436,9.7531e-05,-3.7755,-0.00029657,-2964.9,0.96854
2398,11.654,2.5455,0,0.00029157,2913.6,9.6334e-05,0.0061313,9.6019e-05,-2.3552,-0.00029161,-2914.8,0.99316
2399,11.838,2.5455,0,0.00028664,2864.4,9.4643e-05,0.0074694,9.4504e-05,-1.0341,-0.00028666,-2864.9,1.018
2400,12.023,2.5455,0,0.00028173,2815.3,9.2988e-05,0.21054,9.2959e-05,-0.0049404,-0.00028172,-2815.2,1.043
2401,12.207,2.5455,0,0.00027683,2766.4,9.1467e-05,1.3518,9.1287e-05,0.0040868,-0.00027681,-2765.7,1.0682
2402,12.391,2.5455,0,0.00027195,2717.6,8.9945e-05,2.4267,8.9623e-05,0.0049003,-0.00027191,-2716.4,1.0936
2403,12.575,2.5455,0,0.00026708,2669,8.8424e-05,3.4345,8.7967e-05,0.0052996,-0.00026702,-2667.3,1.1192
2404,12.76,2.5455,0,0.00026223,2620.5,8.6902e-05,4.3815,8.632e-05,0.0056086,-0.00026216,-2618.3,1.145
2405,12.944,2.5455,0,0.0002574,2572.2,8.5382e-05,5.2735,8.468e-05,0.0058343,-0.00025731,-2569.6,1.1709
2406,13.128,2.5455,0,0.00025258,2524.1,8.3862e-05,6.1164,8.3049e-05,0.006027,-0.00025248,-2521,1.197
2407,13.313,2.5455,0,0.00024778,2476.1,8.2345e-05,6.9154,8.1425e-05,0.0061794,-0.00024766,-2472.6,1.2233
2408,13.497,2.5455,0,0.000243,2428.3,8.083e-05,7.676,7.9809e-05,0.0063529,-0.00024287,-2424.5,1.2498
2409,13.681,2.5455,0,0.00023823,2380.7,7.9319e-05,8.4029,7.8201e-05,0.0065557,-0.00023809,-2376.5,1.2764
2410,13.865,2.5455,0,0.00023349,2333.3,7.781e-05,9.1006,7.66e-05,0.0067269,-0.00023333,-2328.7,1.3032
2411,14.05,2.5455,0,0.00022876,2286,7.6306e-05,9.7739,7.5006e-05,0.006893,-0.00022859,-2281.1,1.3301
2412,14.234,2.5455,0,0.00022405,2238.9,7.4806e-05,10.427,7.342e-05,0.0070348,-0.00022387,-2233.7,1.3572
2413,14.418,2.5455,0,0.00021936,2192.1,7.3312e-05,11.064,7.184e-05,0.0072082,-0.00021917,-2186.5,1.3845
2414,14.602,2.5455,0,0.00021469,2145.4,7.1822e-05,11.689,7.0267e-05,0.0074141,-0.00021448,-2139.5,1.4118
2415,14.787,2.5455,0,0.00021003,2098.9,7.0338e-05,12.306,6.8701e-05,0.0075985,-0.00020982,-2092.7,1.4394
2416,14.971,2.5455,0,0.0002054,2052.6,6.8861e-05,12.919,6.7142e-05,0.0077807,-0.00020518,-2046.1,1.4671
2417,15.155,2.5455,0,0.00020079,2006.5,6.7389e-05,13.532,6.5589e-05,0.0079491,-0.00020055,-1999.7,1.4949
2418,15.339,2.5455,0,0.0001962,1960.6,6.5925e-05,14.149,6.4043e-05,0.0081478,-0.00019595,-1953.5,1.5229
2419,15.524,2.5455,0,0.00019162,1914.9,6.4469e-05,14.774,6.2503e-05,0.0083801,-0.00019137,-1907.5,1.551
2420,15.708,2.5455,0,0.00018707,1869.4,6.302e-05,15.411,6.097e-05,0.008598,-0.00018681,-1861.7,1.5792
2421,15.892,2.5455,0,0.00018254,1824.2,6.1579e-05,16.063,5.9442e-05,0.0088205,-0.00018226,-1816.1,1.6075
2422,16.077,2.5455,0,0.00017803,1779.1,6.0147e-05,16.736,5.7921e-05,0.0090349,-0.00017774,-1770.7,1.636
2423,16.261,2.5455,0,0.00017354,1734.3,5.8724e-05,17.433,5.6405e-05,0.0092815,-0.00017324,-1725.5,1.6646
2424,16.445,2.5455,0,0.00016908,1689.6,5.731e-05,18.159,5.4895e-05,0.0095639,-0.00016876,-1680.5,1.6933
2425,16.629,2.5455,0,0.00016463,1645.2,5.5907e-05,18.918,5.3391e-05,0.0098412,-0.0001643,-1635.7,1.7221
2426,16.814,2.5455,0,0.00016021,1601,5.4514e-05,19.716,5.1892e-05,0.010126,-0.00015987,-1591.1,1.7511
2427,16.998,2.5455,0,0.00015581,1557.1,5.3133e-05,20.557,5.0398e-05,0.010412,-0.00015545,-1546.7,1.7801
2428,17.182,2.5455,0,0.00015144,1513.3,5.1763e-05,21.447,4.891e-05,0.010733,-0.00015106,-1502.5,1.8093
2429,17.366,2.5455,0,0.00014709,1469.9,5.0405e-05,22.391,4.7426e-05,0.011096,-0.00014669,-1458.5,1.8385
2430,17.551,2.5455,0,0.00014276,1426.6,4.906e-05,23.396,4.5947e-05,0.011462,-0.00014235,-1414.7,1.8679
2431,17.735,2.5455,0,0.00013845,1383.6,4.7728e-05,24.468,4.4473e-05,0.011847,-0.00013802,-1371.2,1.8973
2432,17.919,2.5455,0,0.00013417,1340.8,4.6411e-05,25.613,4.3004e-05,0.012243,-0.00013372,-1327.8,1.9269
2433,18.103,2.5455,0,0.00012992,1298.3,4.5109e-05,26.84,4.1538e-05,0.012682,-0.00012944,-1284.7,1.9565
2434,18.288,2.5455,0,0.00012569,1256.1,4.3823e-05,28.155,4.0077e-05,0.013172,-0.00012519,-1241.7,1.9862
2435,18.472,2.5455,0,0.00012149,1214.1,4.2553e-05,29.567,3.8619e-05,0.013681,-0.00012096,-1199,2.016
2436,18.656,2.5455,0,0.00011732,1172.3,4.1301e-05,31.086,3.7165e-05,0.014224,-0.00011676,-1156.5,2.0459
2437,18.841,2.5455,0,0.00011317,1130.9,4.0067e-05,32.72,3.5714e-05,0.014794,-0.00011258,-1114.2,2.0759
2438,19.025,2.5455,0,0.00010905,1089.7,3.8853e-05,34.481,3.4266e-05,0.015428,-0.00010842,-1072.1,2.106
2439,19.209,2.5455,0,0.00010496,1048.9,3.766e-05,36.378,3.282e-05,0.016123,-0.00010429,-1030.2,2.1361
2440,19.393,2.5455,0,0.0001009,1008.3,3.6488e-05,38.424,3.1377e-05,0.016866,-0.00010019,-988.52,2.1663
2441,19.578,2.5455,0,9.687e-05,968.03,3.534e-05,40.631,2.9935e-05,0.017673,-9.6114e-05,-947.07,2.1965
2442,19.762,2.5455,0,9.2873e-05,928.09,3.4216e-05,43.013,2.8494e-05,0.018539,-9.2066e-05,-905.82,2.2268
2443,19.946,2.5455,0,8.8908e-05,888.47,3.3119e-05,45.585,2.7054e-05,0.0195,-8.8045e-05,-864.79,2.2572
2444,20.13,2.5455,0,8.4979e-05,849.2,3.2049e-05,48.362,2.5615e-05,0.020569,-8.4052e-05,-823.98,2.2877
2445,20.315,2.5455,0,8.1084e-05,810.28,3.1008e-05,51.36,2.4175e-05,0.021731,-8.0088e-05,-783.37,2.3182
2446,20.499,2.5455,0,7.7227e-05,771.74,2.9998e-05,54.596,2.2735e-05,0.023019,-7.6153e-05,-742.98,2.3487
2447,20.683,2.5455,0,7.3408e-05,733.58,2.902e-05,58.09,2.1292e-05,0.024439,-7.2247e-05,-702.79,2.3794
2448,20.867,2.5455,0,6.963e-05,695.82,2.8077e-05,61.859,1.9848e-05,0.026039,-6.8371e-05,-662.81,2.41
2449,21.052,2.5455,0,6.5895e-05,658.49,2.7171e-05,65.926,1.84e-05,0.027843,-6.4525e-05,-623.04,2.4407
2450,21.236,2.5455,0,6.2204e-05,621.61,2.6302e-05,70.31,1.6948e-05,0.02988,-6.0708e-05,-583.45,2.4715
2451,21.42,2.5455,0,5.8561e-05,585.21,2.5474e-05,75.032,1.5492e-05,0.032204,-5.6922e-05,-544.06,2.5023
2452,21.605,2.5455,0,5.4969e-05,549.31,2.4687e-05,80.115,1.4029e-05,0.034877,-5.3165e-05,-504.84,2.5331
2453,21.789,2.5455,0,5.1432e-05,513.96,2.3944e-05,85.581,1.2559e-05,0.038003,-4.9438e-05,-465.78,2.5639
2454,21.973,2.5455,0,4.7954e-05,479.21,2.3247e-05,91.45,1.1081e-05,0.041711,-4.5739e-05,-426.88,2.5948
2455,22.157,2.5455,0,4.4542e-05,445.11,2.2596e-05,97.742,9.593e-06,0.046157,-4.2066e-05,-388.1,2.6258
2456,22.342,2.5455,0,4.1203e-05,411.74,2.1992e-05,104.48,8.0941e-06,0.051596,-3.8419e-05,-349.43,2.6567
2457,22.526,2.5455,0,3.7948e-05,379.22,2.1437e-05,111.67,6.5826e-06,0.05846,-3.4794e-05,-310.83,2.6877
2458,22.71,2.5455,0,3.4791e-05,347.67,2.0931e-05,119.33,5.0572e-06,0.067213,-3.1189e-05,-272.27,2.7187
2459,22.894,2.5455,0,3.1752e-05,317.3,2.0472e-05,127.48,3.5164e-06,0.079518,-2.7601e-05,-233.72,2.7497
2460,23.079,2.5455,0,2.8859e-05,288.39,2.0061e-05,136.11,1.9587e-06,0.09473,-2.4025e-05,-195.14,2.7808
2461,23.263,2.5455,0,2.6152e-05,261.34,1.9696e-05,145.23,3.8375e-07,0.12648,-2.0458e-05,-156.47,2.8119
2462,23.447,2.5455,0,2.3688e-05,236.72,1.9374e-05,154.82,-1.212e-06,0.14419,-1.6894e-05,-117.68,2.8429
2463,23.631,2.5455,0,2.1546e-05,215.31,1.9094e-05,164.94,-2.8136e-06,0.33135,-1.3336e-05,-78.73,2.874
2464,23.816,2.5455,0,1.9829e-05,198.15,1.8851e-05,175.32,-4.4556e-06,0.20807,-9.7761e-06,-39.768,2.9051
2465,1.1509,2.3636,0,0.0014592,14582,0.00050013,-19.989,0.00044797,-411.85,-0.0014661,-14794,0.017381
2466,1.3352,2.3636,0,0.0011845,11837,0.0004245,-7.5176,0.00033214,-701.52,-0.001195,-12176,0.023883
2467,1.5195,2.3636,0,0.00099809,9974,0.00037194,11.22,0.00025605,-859.55,-0.0010097,-10370,0.031183
2468,1.7037,2.3636,0,0.00087226,8716.5,0.00033317,3.593,0.00020835,-934.22,-0.00088429,-9143.9,0.039159
2469,1.888,2.3636,0,0.00078422,7836.8,0.000305,2.8681,0.00017719,-957.44,-0.00079603,-8269.8,0.04773
2470,2.0723,2.3636,0,0.00071982,7193.2,0.00028309,1.978,0.00015669,-947.74,-0.00073119,-7618.9,0.05684
2471,2.2565,2.3636,0,0.00067135,6708.9,0.00026553,1.3616,0.00014327,-917.29,-0.00068219,-7119.5,0.066445
2472,2.4408,2.3636,0,0.00063407,6336.3,0.00025113,0.97764,0.00013464,-874.26,-0.00064437,-6727.5,0.076513
2473,2.6251,2.3636,0,0.0006049,6044.9,0.00023911,0.69777,0.00012931,-824.27,-0.00061468,-6414.3,0.08702
2474,2.8093,2.3636,0,0.00058175,5813.5,0.00022894,0.50257,0.00012625,-771.1,-0.000591,-6160.3,0.097945
2475,2.9936,2.3636,0,0.00056311,5627.2,0.00022025,0.36162,0.00012474,-717.25,-0.00057186,-5951.3,0.10927
2476,3.1779,2.3636,0,0.00054789,5475.1,0.00021273,0.26022,0.00012428,-664.37,-0.00055615,-5776.8,0.12099
2477,3.3621,2.3636,0,0.00053527,5349,0.00020617,0.18675,0.00012449,-613.47,-0.00054305,-5629.1,0.13308
2478,3.5464,2.3636,0,0.00052462,5242.6,0.00020037,0.1335,0.00012514,-565.15,-0.00053194,-5502.2,0.14554
2479,3.7307,2.3636,0,0.00051548,5151.2,0.00019521,0.094856,0.00012602,-519.74,-0.00052234,-5391.3,0.15837
2480,3.9149,2.3636,0,0.00050748,5071.3,0.00019056,0.066817,0.00012702,-477.36,-0.00051391,-5293,0.17154
2481,4.0992,2.3636,0,0.00050033,4999.9,0.00018633,0.046501,0.00012803,-438.01,-0.00050634,-5204.5,0.18507
2482,4.2835,2.3636,0,0.00049384,4935,0.00018246,0.031821,0.000129,-401.63,-0.00049944,-5123.5,0.19894
2483,4.4677,2.3636,0,0.00048783,4874.9,0.00017887,0.021259,0.00012988,-368.08,-0.00049304,-5048.5,0.21315
2484,4.652,2.3636,0,0.00048217,4818.3,0.00017553,0.013711,0.00013065,-337.2,-0.00048702,-4978.1,0.2277
2485,4.8363,2.3636,0,0.00047676,4764.3,0.00017238,0.0083669,0.00013128,-308.82,-0.00048126,-4911.2,0.24258
2486,5.0205,2.3636,0,0.00047154,4712.2,0.00016941,0.0046359,0.00013177,-282.77,-0.00047571,-4847.2,0.25778
2487,5.2048,2.3636,0,0.00046645,4661.3,0.00016657,0.0020822,0.00013212,-258.87,-0.00047031,-4785.3,0.2733
2488,5.3891,2.3636,0,0.00046144,4611.2,0.00016386,0.00038628,0.00013233,-236.95,-0.00046501,-4725.1,0.28915
2489,5.5733,2.3636,0,0.00045649,4561.7,0.00016125,-0.00068767,0.00013239,-216.85,-0.00045979,-4666.3,0.30531
2490,5.7576,2.3636,0,0.00045156,4512.5,0.00015874,-0.0013128,0.00013233,-198.42,-0.00045461,-4608.5,0.32179
2491,5.9419,2.3636,0,0.00044666,4463.5,0.0001563,-0.0016168,0.00013214,-181.51,-0.00044947,-4551.5,0.33857
2492,6.1261,2.3636,0,0.00044175,4414.5,0.00015392,-0.0016935,0.00013183,-166,-0.00044434,-4495.1,0.35566
2493,6.3104,2.3636,0,0.00043684,4365.4,0.00015161,-0.0016119,0.00013141,-151.76,-0.00043923,-4439.3,0.37305
2494,6.4947,2.3636,0,0.00043192,4316.3,0.00014935,-0.0014226,0.00013089,-138.69,-0.00043412,-4383.9,0.39073
2495,6.6789,2.3636,0,0.00042699,4267,0.00014714,-0.0011614,0.00013027,-126.69,-0.00042901,-4328.9,0.40872
2496,6.8632,2.3636,0,0.00042204,4217.5,0.00014496,-0.00085633,0.00012957,-115.66,-0.00042389,-4274.2,0.42699
2497,7.0475,2.3636,0,0.00041708,4167.9,0.00014283,-0.00052538,0.00012879,-105.53,-0.00041877,-4219.7,0.44555
2498,7.2317,2.3636,0,0.0004121,4118.2,0.00014073,-0.00018253,0.00012793,-96.206,-0.00041365,-4165.4,0.4644
2499,7.416,2.3636,0,0.00040711,4068.3,0.00013866,0.00016238,0.000127,-87.635,-0.00040853,-4111.4,0.48353
2500,7.6003,2.3636,0,0.0004021,4018.2,0.00013662,0.00050437,0.00012601,-79.748,-0.0004034,-4057.5,0.50293
2501,7.7845,2.3636,0,0.00039708,3968.1,0.00013461,0.0008371,0.00012496,-72.488,-0.00039827,-4003.8,0.52261
2502,7.9688,2.3636,0,0.00039205,3917.8,0.00013262,0.001159,0.00012387,-65.804,-0.00039313,-3950.3,0.54256
2503,8.1531,2.3636,0,0.00038702,3867.5,0.00013066,0.0014686,0.00012272,-59.647,-0.000388,-3897,0.56277
2504,8.3373,2.3636,0,0.00038197,3817.1,0.00012872,0.0017641,0.00012153,-53.973,-0.00038286,-3843.8,0.58325
2505,8.5216,2.3636,0,0.00037692,3766.6,0.00012679,0.002047,0.0001203,-48.745,-0.00037773,-3790.8,0.60399
2506,8.7059,2.3636,0,0.00037187,3716.1,0.00012489,0.0023162,0.00011904,-43.924,-0.0003726,-3737.9,0.62499
2507,8.8901,2.3636,0,0.00036681,3665.6,0.000123,0.0025739,0.00011774,-39.478,-0.00036747,-3685.2,0.64624
2508,9.0744,2.3636,0,0.00036176,3615.1,0.00012113,0.0028202,0.00011642,-35.377,-0.00036235,-3632.7,0.66774
2509,9.2587,2.3636,0,0.0003567,3564.6,0.00011927,0.0030558,0.00011507,-31.592,-0.00035723,-3580.3,0.68948
2510,9.4429,2.3636,0,0.00035165,3514.1,0.00011743,0.0032824,0.00011369,-28.099,-0.00035212,-3528.1,0.71147
2511,9.6272,2.3636,0,0.0003466,3463.7,0.00011561,0.0034989,0.0001123,-24.874,-0.00034702,-3476,0.73369
2512,9.8115,2.3636,0,0.00034156,3413.3,0.0001138,0.003719,0.00011088,-21.894,-0.00034193,-3424.2,0.75615
2513,9.9957,2.3636,0,0.00033652,3362.9,0.000112,0.0039255,0.00010945,-19.141,-0.00033685,-3372.5,0.77885
2514,10.18,2.3636,0,0.00033149,3312.7,0.00011021,0.0041313,0.00010801,-16.596,-0.00033177,-3320.9,0.80177
2515,10.364,2.3636,0,0.00032647,3262.5,0.00010844,0.0043485,0.00010655,-14.243,-0.00032671,-3269.6,0.82492
2516,10.549,2.3636,0,0.00032146,3212.4,0.00010668,0.0045215,0.00010507,-12.065,-0.00032166,-3218.4,0.84829
2517,10.733,2.3636,0,0.00031646,3162.4,0.00010493,0.0047425,0.00010359,-10.049,-0.00031663,-3167.4,0.87188
2518,10.917,2.3636,0,0.00031147,3112.5,0.00010319,0.0050255,0.0001021,-8.1813,-0.0003116,-3116.6,0.89568
2519,11.101,2.3636,0,0.00030648,3062.7,0.00010146,0.0053077,0.0001006,-6.4501,-0.00030659,-3065.9,0.91969
2520,11.286,2.3636,0,0.00030152,3013.1,9.9741e-05,0.005655,9.9095e-05,-4.8438,-0.0003016,-3015.5,0.94392
2521,11.47,2.3636,0,0.00029656,2963.6,9.8031e-05,0.0061292,9.7584e-05,-3.3524,-0.00029662,-2965.2,0.96834
2522,11.654,2.3636,0,0.00029162,2914.2,9.6332e-05,0.0071238,9.6069e-05,-1.9662,-0.00029165,-2915.1,0.99297
2523,11.838,2.3636,0,0.00028669,2864.9,9.4642e-05,0.011211,9.455e-05,-0.67887,-0.0002867,-2865.2,1.0178
2524,12.023,2.3636,0,0.00028178,2815.8,9.3031e-05,0.53841,9.2959e-05,-0.0023523,-0.00028177,-2815.5,1.0428
2525,12.207,2.3636,0,0.00027688,2766.9,9.1507e-05,1.6571,9.1287e-05,0.0029874,-0.00027685,-2766,1.068
2526,12.391,2.3636,0,0.00027199,2718,8.9983e-05,2.7073,8.9624e-05,0.0040485,-0.00027195,-2716.7,1.0934
2527,12.575,2.3636,0,0.00026712,2669.4,8.8459e-05,3.6925,8.7968e-05,0.0045825,-0.00026706,-2667.5,1.119
2528,12.76,2.3636,0,0.00026227,2620.9,8.6935e-05,4.6184,8.6321e-05,0.0049697,-0.00026219,-2618.6,1.1448
2529,12.944,2.3636,0,0.00025744,2572.6,8.5413e-05,5.4909,8.4683e-05,0.0052446,-0.00025734,-2569.8,1.1707
2530,13.128,2.3636,0,0.00025262,2524.4,8.3891e-05,6.3157,8.3052e-05,0.00547,-0.00025251,-2521.3,1.1969
2531,13.313,2.3636,0,0.00024782,2476.5,8.2372e-05,7.0977,8.1428e-05,0.0056438,-0.0002477,-2472.9,1.2231
2532,13.497,2.3636,0,0.00024303,2428.7,8.0856e-05,7.8423,7.9813e-05,0.0058333,-0.0002429,-2424.7,1.2496
2533,13.681,2.3636,0,0.00023827,2381,7.9343e-05,8.5541,7.8205e-05,0.0060454,-0.00023812,-2376.7,1.2762
2534,13.865,2.3636,0,0.00023352,2333.6,7.7833e-05,9.2376,7.6604e-05,0.0062243,-0.00023336,-2329,1.303
2535,14.05,2.3636,0,0.00022879,2286.3,7.6327e-05,9.8973,7.5011e-05,0.006395,-0.00022862,-2281.4,1.33
2536,14.234,2.3636,0,0.00022408,2239.3,7.4826e-05,10.537,7.3425e-05,0.00654,-0.0002239,-2234,1.3571
2537,14.418,2.3636,0,0.00021939,2192.4,7.333e-05,11.162,7.1845e-05,0.0067124,-0.0002192,-2186.8,1.3843
2538,14.602,2.3636,0,0.00021472,2145.7,7.1839e-05,11.774,7.0273e-05,0.0069187,-0.00021451,-2139.8,1.4117
2539,14.787,2.3636,0,0.00021006,2099.2,7.0354e-05,12.379,6.8707e-05,0.0071009,-0.00020985,-2093,1.4393
2540,14.971,2.3636,0,0.00020543,2052.9,6.8875e-05,12.981,6.7148e-05,0.0072818,-0.00020521,-2046.4,1.4669
2541,15.155,2.3636,0,0.00020082,2006.8,6.7403e-05,13.582,6.5596e-05,0.0074479,-0.00020058,-1999.9,1.4948
2542,15.339,2.3636,0,0.00019622,1960.9,6.5937e-05,14.186,6.405e-05,0.0076432,-0.00019598,-1953.7,1.5227
2543,15.524,2.3636,0,0.00019165,1915.2,6.4479e-05,14.799,6.2511e-05,0.0078721,-0.00019139,-1907.7,1.5508
2544,15.708,2.3636,0,0.0001871,1869.7,6.3029e-05,15.423,6.0977e-05,0.0080873,-0.00018683,-1861.9,1.5791
2545,15.892,2.3636,0,0.00018257,1824.4,6.1587e-05,16.062,5.945e-05,0.0083041,-0.00018229,-1816.3,1.6074
2546,16.077,2.3636,0,0.00017806,1779.3,6.0153e-05,16.721,5.7929e-05,0.0085111,-0.00017777,-1770.9,1.6359
2547,16.261,2.3636,0,0.00017357,1734.5,5.8729e-05,17.404,5.6414e-05,0.0087537,-0.00017326,-1725.7,1.6645
2548,16.445,2.3636,0,0.0001691,1689.8,5.7314e-05,18.114,5.4904e-05,0.0090297,-0.00016878,-1680.7,1.6932
2549,16.629,2.3636,0,0.00016465,1645.4,5.5909e-05,18.857,5.34e-05,0.0092977,-0.00016433,-1635.9,1.722
2550,16.814,2.3636,0,0.00016023,1601.2,5.4514e-05,19.638,5.1902e-05,0.0095782,-0.00015989,-1591.3,1.751
2551,16.998,2.3636,0,0.00015583,1557.2,5.313e-05,20.46,5.0408e-05,0.0098565,-0.00015547,-1546.9,1.78
2552,17.182,2.3636,0,0.00015145,1513.5,5.1758e-05,21.33,4.892e-05,0.010173,-0.00015108,-1502.7,1.8092
2553,17.366,2.3636,0,0.0001471,1470,5.0398e-05,22.252,4.7438e-05,0.010526,-0.00014671,-1458.7,1.8384
2554,17.551,2.3636,0,0.00014277,1426.7,4.905e-05,23.234,4.5959e-05,0.010883,-0.00014236,-1415,1.8678
2555,17.735,2.3636,0,0.00013846,1383.7,4.7716e-05,24.28,4.4486e-05,0.011261,-0.00013803,-1371.4,1.8972
2556,17.919,2.3636,0,0.00013418,1340.9,4.6396e-05,25.397,4.3017e-05,0.011647,-0.00013373,-1328,1.9268
2557,18.103,2.3636,0,0.00012993,1298.4,4.509e-05,26.593,4.1552e-05,0.012079,-0.00012945,-1284.9,1.9564
2558,18.288,2.3636,0,0.00012569,1256.1,4.38e-05,27.876,4.0092e-05,0.012556,-0.0001252,-1241.9,1.9862
2559,18.472,2.3636,0,0.00012149,1214.1,4.2526e-05,29.252,3.8635e-05,0.013056,-0.00012096,-1199.2,2.016
2560,18.656,2.3636,0,0.00011731,1172.3,4.127e-05,30.731,3.7181e-05,0.013584,-0.00011676,-1156.6,2.0459
2561,18.841,2.3636,0,0.00011316,1130.8,4.0031e-05,32.322,3.5731e-05,0.014145,-0.00011257,-1114.3,2.0758
2562,19.025,2.3636,0,0.00010904,1089.6,3.8812e-05,34.035,3.4284e-05,0.014764,-0.00010842,-1072.2,2.1059
2563,19.209,2.3636,0,0.00010494,1048.7,3.7613e-05,35.881,3.284e-05,0.01545,-0.00010428,-1030.3,2.136
2564,19.393,2.3636,0,0.00010088,1008.1,3.6435e-05,37.871,3.1397e-05,0.016176,-0.00010018,-988.59,2.1662
2565,19.578,2.3636,0,9.6842e-05,967.75,3.528e-05,40.017,2.9957e-05,0.016969,-9.6099e-05,-947.11,2.1965
2566,19.762,2.3636,0,9.2839e-05,927.75,3.4149e-05,42.332,2.8517e-05,0.01782,-9.2046e-05,-905.85,2.2268
2567,19.946,2.3636,0,8.8868e-05,888.07,3.3043e-05,44.832,2.7079e-05,0.018765,-8.802e-05,-864.79,2.2572
2568,20.13,2.3636,0,8.4931e-05,848.72,3.1965e-05,47.53,2.5641e-05,0.019816,-8.4022e-05,-823.95,2.2876
2569,20.315,2.3636,0,8.1028e-05,809.72,3.0914e-05,50.442,2.4204e-05,0.020965,-8.0052e-05,-783.31,2.3181
2570,20.499,2.3636,0,7.7162e-05,771.09,2.9894e-05,53.587,2.2765e-05,0.022234,-7.6111e-05,-742.89,2.3487
2571,20.683,2.3636,0,7.3334e-05,732.84,2.8906e-05,56.982,2.1325e-05,0.023636,-7.2198e-05,-702.67,2.3793
2572,20.867,2.3636,0,6.9546e-05,694.98,2.7951e-05,60.646,1.9883e-05,0.025218,-6.8315e-05,-662.66,2.41
2573,21.052,2.3636,0,6.58e-05,657.55,2.7032e-05,64.6,1.8438e-05,0.027008,-6.4462e-05,-622.85,2.4407
2574,21.236,2.3636,0,6.2098e-05,620.55,2.615e-05,68.864,1.6989e-05,0.029028,-6.0639e-05,-583.23,2.4714
2575,21.42,2.3636,0,5.8443e-05,584.03,2.5308e-05,73.462,1.5535e-05,0.031335,-5.6845e-05,-543.81,2.5022
2576,21.605,2.3636,0,5.4838e-05,548,2.4508e-05,78.416,1.4076e-05,0.033995,-5.3081e-05,-504.56,2.533
2577,21.789,2.3636,0,5.1288e-05,512.53,2.3751e-05,83.748,1.261e-05,0.037104,-4.9347e-05,-465.48,2.5639
2578,21.973,2.3636,0,4.7797e-05,477.64,2.3039e-05,89.482,1.1135e-05,0.040795,-4.5641e-05,-426.55,2.5948
2579,22.157,2.3636,0,4.4371e-05,443.41,2.2374e-05,95.641,9.6513e-06,0.045225,-4.1963e-05,-387.77,2.6257
2580,22.342,2.3636,0,4.1019e-05,409.91,2.1758e-05,102.24,8.1566e-06,0.050646,-3.8311e-05,-349.09,2.6567
2581,22.526,2.3636,0,3.7751e-05,377.25,2.1191e-05,109.31,6.6496e-06,0.057481,-3.4683e-05,-310.5,2.6877
2582,22.71,2.3636,0,3.4581e-05,345.57,2.0673e-05,116.86,5.1288e-06,0.066196,-3.1077e-05,-271.97,2.7187
2583,22.894,2.3636,0,3.1529e-05,315.07,2.0206e-05,124.9,3.5925e-06,0.078444,-2.7489e-05,-233.45,2.7497
2584,23.079,2.3636,0,2.8623e-05,286.03,1.9787e-05,133.45,2.0392e-06,0.093576,-2.3915e-05,-194.91,2.7808
2585,23.263,2.3636,0,2.5904e-05,258.86,1.9417e-05,142.5,4.6839e-07,0.12519,-2.0351e-05,-156.3,2.8118
2586,23.447,2.3636,0,2.3428e-05,234.11,1.9092e-05,152.03,-1.1236e-06,0.14271,-1.6791e-05,-117.58,2.8429
2587,23.631,2.3636,0,2.1275e-05,212.61,1.881e-05,162.11,-2.722e-06,0.32922,-1.3238e-05,-78.687,2.874
2588,23.816,2.3636,0,1.9552e-05,195.38,1.8569e-05,172.49,-4.3618e-06,0.20363,-9.6851e-06,-39.793,2.9051
2589,1.1509,2.1818,0,0.0015651,15641,0.00056221,580.92,0.00049189,52.585,-0.0015537,-15317,0.01647
2590,1.3352,2.1818,0,0.0011673,11665,0.00039713,97.586,0.00037391,-76.849,-0.0011668,-11653,0.023143
2591,1.5195,2.1818,0,0.00095892,9582.5,0.00033655,4.6359,0.00028237,-402.45,-0.00096503,-9775,0.030582
2592,1.7037,2.1818,0,0.00083895,8383.7,0.00030602,12.514,0.00022741,-578.11,-0.00084701,-8650.9,0.038659
2593,1.888,2.1818,0,0.00075737,7568.5,0.00028304,3.5881,0.00019237,-677.7,-0.00076654,-7882.5,0.0473
2594,2.0723,2.1818,0,0.00069955,6990.6,0.00026588,3.1097,0.00016955,-720.61,-0.00070894,-7321.2,0.056458
2595,2.2565,2.1818,0,0.00065646,6560.1,0.00025191,1.8416,0.00015456,-729.6,-0.00066577,-6893.3,0.066095
2596,2.4408,2.1818,0,0.00062345,6230.2,0.00024034,1.3213,0.00014474,-717,-0.00063251,-6556.9,0.076183
2597,2.6251,2.1818,0,0.00059757,5971.5,0.00023052,0.91976,0.00013839,-691.33,-0.00060629,-6286.6,0.086701
2598,2.8093,2.1818,0,0.00057688,5764.8,0.00022209,0.66153,0.00013442,-658.06,-0.00058523,-6065.2,0.097632
2599,2.9936,2.1818,0,0.00056006,5596.7,0.00021475,0.47696,0.00013207,-620.78,-0.00056802,-5881,0.10896
2600,3.1779,2.1818,0,0.00054616,5457.9,0.00020831,0.34639,0.00013083,-581.83,-0.00055372,-5725.3,0.12067
2601,3.3621,2.1818,0,0.00053449,5341.2,0.0002026,0.25208,0.00013033,-542.73,-0.00054164,-5591.7,0.13277
2602,3.5464,2.1818,0,0.0005245,5241.4,0.00019749,0.1837,0.00013032,-504.44,-0.00053126,-5475.3,0.14522
2603,3.7307,2.1818,0,0.00051581,5154.6,0.00019286,0.13382,0.00013062,-467.58,-0.00052217,-5372.4,0.15804
2604,3.9149,2.1818,0,0.00050811,5077.6,0.00018865,0.097345,0.00013108,-432.49,-0.00051408,-5280,0.17122
2605,4.0992,2.1818,0,0.00050116,5008.1,0.00018477,0.070617,0.00013161,-399.37,-0.00050675,-5195.8,0.18474
2606,4.2835,2.1818,0,0.00049476,4944.2,0.00018118,0.05102,0.00013216,-368.29,-0.0005,-5118.1,0.19861
2607,4.4677,2.1818,0,0.0004888,4884.6,0.00017782,0.036655,0.00013266,-339.27,-0.00049368,-5045.4,0.21282
2608,4.652,2.1818,0,0.00048315,4828.1,0.00017466,0.026142,0.00013309,-312.26,-0.0004877,-4976.7,0.22736
2609,4.8363,2.1818,0,0.00047772,4773.9,0.00017166,0.018471,0.00013344,-287.19,-0.00048196,-4911,0.24223
2610,5.0205,2.1818,0,0.00047247,4721.4,0.00016881,0.012898,0.00013367,-263.96,-0.0004764,-4847.8,0.25743
2611,5.2048,2.1818,0,0.00046732,4670,0.00016607,0.0088762,0.0001338,-242.47,-0.00047098,-4786.5,0.27296
2612,5.3891,2.1818,0,0.00046226,4619.4,0.00016344,0.0060023,0.00013381,-222.61,-0.00046565,-4726.7,0.2888
2613,5.5733,2.1818,0,0.00045725,4569.4,0.0001609,0.0039772,0.00013371,-204.28,-0.00046039,-4668.1,0.30497
2614,5.7576,2.1818,0,0.00045228,4519.6,0.00015844,0.0025788,0.0001335,-187.36,-0.00045517,-4610.4,0.32144
2615,5.9419,2.1818,0,0.00044732,4470.1,0.00015604,0.0016424,0.00013318,-171.76,-0.00044999,-4553.5,0.33822
2616,6.1261,2.1818,0,0.00044236,4420.5,0.0001537,0.0010459,0.00013276,-157.37,-0.00044483,-4497.1,0.35531
2617,6.3104,2.1818,0,0.0004374,4371,0.00015142,0.00069832,0.00013224,-144.1,-0.00043967,-4441.3,0.3727
2618,6.4947,2.1818,0,0.00043244,4321.4,0.00014919,0.00053077,0.00013163,-131.88,-0.00043453,-4385.8,0.39039
2619,6.6789,2.1818,0,0.00042746,4271.7,0.00014699,0.00049349,0.00013094,-120.61,-0.00042939,-4330.7,0.40837
2620,6.8632,2.1818,0,0.00042248,4221.8,0.00014484,0.00054923,0.00013017,-110.22,-0.00042424,-4275.9,0.42665
2621,7.0475,2.1818,0,0.00041748,4171.9,0.00014272,0.00067012,0.00012933,-100.64,-0.0004191,-4221.3,0.44521
2622,7.2317,2.1818,0,0.00041247,4121.8,0.00014064,0.00083497,0.00012842,-91.815,-0.00041395,-4167,0.46406
2623,7.416,2.1818,0,0.00040744,4071.6,0.00013858,0.0010295,0.00012744,-83.675,-0.0004088,-4112.8,0.48319
2624,7.6003,2.1818,0,0.00040241,4021.3,0.00013655,0.0012419,0.00012641,-76.17,-0.00040365,-4058.9,0.5026
2625,7.7845,2.1818,0,0.00039737,3970.9,0.00013455,0.0014646,0.00012533,-69.249,-0.0003985,-4005.1,0.52228
2626,7.9688,2.1818,0,0.00039232,3920.4,0.00013257,0.0016923,0.0001242,-62.865,-0.00039335,-3951.5,0.54223
2627,8.1531,2.1818,0,0.00038726,3869.9,0.00013061,0.0019204,0.00012302,-56.976,-0.0003882,-3898.1,0.56245
2628,8.3373,2.1818,0,0.00038219,3819.3,0.00012867,0.0021465,0.00012181,-51.543,-0.00038305,-3844.8,0.58293
2629,8.5216,2.1818,0,0.00037713,3768.7,0.00012675,0.0023691,0.00012056,-46.53,-0.0003779,-3791.7,0.60367
2630,8.7059,2.1818,0,0.00037206,3718,0.00012485,0.0025867,0.00011927,-41.903,-0.00037276,-3738.8,0.62467
2631,8.8901,2.1818,0,0.00036699,3667.4,0.00012297,0.0028001,0.00011796,-37.632,-0.00036762,-3686.1,0.64593
2632,9.0744,2.1818,0,0.00036192,3616.7,0.0001211,0.0030074,0.00011662,-33.688,-0.00036248,-3633.5,0.66743
2633,9.2587,2.1818,0,0.00035686,3566.1,0.00011925,0.0032117,0.00011525,-30.046,-0.00035736,-3581,0.68918
2634,9.4429,2.1818,0,0.0003518,3515.5,0.00011741,0.0034114,0.00011386,-26.683,-0.00035224,-3528.8,0.71117
2635,9.6272,2.1818,0,0.00034674,3465,0.00011559,0.0036086,0.00011245,-23.575,-0.00034713,-3476.7,0.7334
2636,9.8115,2.1818,0,0.00034169,3414.5,0.00011378,0.0038123,0.00011102,-20.703,-0.00034203,-3424.8,0.75586
2637,9.9957,2.1818,0,0.00033664,3364.1,0.00011198,0.0040104,0.00010958,-18.047,-0.00033694,-3373.1,0.77856
2638,10.18,2.1818,0,0.0003316,3313.7,0.0001102,0.004215,0.00010813,-15.591,-0.00033187,-3321.5,0.80149
2639,10.364,2.1818,0,0.00032658,3263.5,0.00010843,0.0044385,0.00010666,-13.319,-0.0003268,-3270.1,0.82464
2640,10.549,2.1818,0,0.00032156,3213.3,0.00010667,0.0046294,0.00010518,-11.216,-0.00032175,-3218.9,0.84801
2641,10.733,2.1818,0,0.00031655,3163.3,0.00010492,0.0048831,0.00010369,-9.2684,-0.0003167,-3167.9,0.8716
2642,10.917,2.1818,0,0.00031155,3113.4,0.00010318,0.005224,0.00010219,-7.4632,-0.00031168,-3117.1,0.89541
2643,11.101,2.1818,0,0.00030657,3063.5,0.00010145,0.0056067,0.00010068,-5.7893,-0.00030666,-3066.4,0.91943
2644,11.286,2.1818,0,0.00030159,3013.9,9.9736e-05,0.006137,9.9171e-05,-4.2358,-0.00030166,-3016,0.94366
2645,11.47,2.1818,0,0.00029663,2964.3,9.8028e-05,0.0070156,9.7655e-05,-2.793,-0.00029668,-2965.7,0.96809
2646,11.654,2.1818,0,0.00029169,2914.9,9.633e-05,0.0092837,9.6135e-05,-1.4525,-0.00029171,-2915.6,0.99272
2647,11.838,2.1818,0,0.00028676,2865.6,9.4643e-05,0.033256,9.4609e-05,-0.22596,-0.00028676,-2865.7,1.0176
2648,12.023,2.1818,0,0.00028184,2816.4,9.3088e-05,0.97501,9.2958e-05,-0.0016646,-0.00028182,-2816,1.0426
2649,12.207,2.1818,0,0.00027694,2767.5,9.1561e-05,2.0606,9.1287e-05,0.002005,-0.0002769,-2766.4,1.0678
2650,12.391,2.1818,0,0.00027205,2718.6,9.0034e-05,3.0787,8.9624e-05,0.0031404,-0.000272,-2717.1,1.0932
2651,12.575,2.1818,0,0.00026718,2670,8.8506e-05,4.034,8.797e-05,0.0037594,-0.00026711,-2667.9,1.1188
2652,12.76,2.1818,0,0.00026233,2621.5,8.698e-05,4.9323,8.6324e-05,0.0042064,-0.00026224,-2619,1.1446
2653,12.944,2.1818,0,0.00025749,2573.1,8.5454e-05,5.7791,8.4685e-05,0.0045213,-0.00025739,-2570.2,1.1705
2654,13.128,2.1818,0,0.00025267,2524.9,8.393e-05,6.5799,8.3055e-05,0.0047741,-0.00025256,-2521.6,1.1966
2655,13.313,2.1818,0,0.00024787,2477,8.2409e-05,7.3396,8.1432e-05,0.004967,-0.00024774,-2473.3,1.2229
2656,13.497,2.1818,0,0.00024308,2429.1,8.089e-05,8.0631,7.9817e-05,0.0051698,-0.00024294,-2425.1,1.2494
2657,13.681,2.1818,0,0.00023831,2381.5,7.9374e-05,8.7551,7.821e-05,0.0053894,-0.00023816,-2377.1,1.276
2658,13.865,2.1818,0,0.00023356,2334,7.7863e-05,9.4198,7.661e-05,0.0055743,-0.0002334,-2329.3,1.3028
2659,14.05,2.1818,0,0.00022883,2286.8,7.6355e-05,10.062,7.5017e-05,0.0057471,-0.00022866,-2281.7,1.3298
2660,14.234,2.1818,0,0.00022412,2239.7,7.4852e-05,10.684,7.3431e-05,0.0058923,-0.00022394,-2234.3,1.3569
2661,14.418,2.1818,0,0.00021943,2192.8,7.3354e-05,11.292,7.1852e-05,0.0060659,-0.00021924,-2187.1,1.3841
2662,14.602,2.1818,0,0.00021476,2146.1,7.1862e-05,11.889,7.028e-05,0.0062689,-0.00021455,-2140.1,1.4115
2663,14.787,2.1818,0,0.0002101,2099.6,7.0375e-05,12.478,6.8715e-05,0.006449,-0.00020989,-2093.3,1.4391
2664,14.971,2.1818,0,0.00020547,2053.3,6.8894e-05,13.063,6.7157e-05,0.0066255,-0.00020524,-2046.7,1.4668
2665,15.155,2.1818,0,0.00020085,2007.1,6.742e-05,13.648,6.5605e-05,0.0067857,-0.00020062,-2000.3,1.4946
2666,15.339,2.1818,0,0.00019626,1961.2,6.5953e-05,14.237,6.4059e-05,0.0069767,-0.00019601,-1954.1,1.5226
2667,15.524,2.1818,0,0.00019168,1915.5,6.4494e-05,14.834,6.252e-05,0.0071984,-0.00019143,-1908.1,1.5507
2668,15.708,2.1818,0,0.00018713,1870,6.3042e-05,15.441,6.0987e-05,0.0074037,-0.00018686,-1862.2,1.5789
2669,15.892,2.1818,0,0.0001826,1824.7,6.1598e-05,16.063,5.9461e-05,0.0076155,-0.00018232,-1816.6,1.6072
2670,16.077,2.1818,0,0.00017809,1779.6,6.0162e-05,16.704,5.794e-05,0.0078161,-0.0001778,-1771.2,1.6357
2671,16.261,2.1818,0,0.0001736,1734.8,5.8736e-05,17.368,5.6425e-05,0.0080481,-0.00017329,-1726,1.6643
2672,16.445,2.1818,0,0.00016913,1690.1,5.7318e-05,18.058,5.4916e-05,0.0083164,-0.00016881,-1681,1.693
2673,16.629,2.1818,0,0.00016468,1645.7,5.5911e-05,18.78,5.3413e-05,0.0085769,-0.00016435,-1636.2,1.7219
2674,16.814,2.1818,0,0.00016026,1601.5,5.4514e-05,19.537,5.1915e-05,0.0088448,-0.00015992,-1591.6,1.7508
2675,16.998,2.1818,0,0.00015585,1557.5,5.3128e-05,20.335,5.0422e-05,0.0091134,-0.0001555,-1547.2,1.7799
2676,17.182,2.1818,0,0.00015148,1513.7,5.1752e-05,21.179,4.8935e-05,0.0094177,-0.0001511,-1503,1.809
2677,17.366,2.1818,0,0.00014712,1470.2,5.0389e-05,22.073,4.7453e-05,0.0097594,-0.00014673,-1459,1.8383
2678,17.551,2.1818,0,0.00014279,1426.9,4.9038e-05,23.023,4.5975e-05,0.010105,-0.00014238,-1415.2,1.8677
2679,17.735,2.1818,0,0.00013848,1383.8,4.77e-05,24.036,4.4503e-05,0.01047,-0.00013805,-1371.6,1.8971
2680,17.919,2.1818,0,0.00013419,1341,4.6376e-05,25.117,4.3035e-05,0.010841,-0.00013375,-1328.3,1.9267
2681,18.103,2.1818,0,0.00012993,1298.4,4.5066e-05,26.273,4.1571e-05,0.011259,-0.00012947,-1285.1,1.9563
2682,18.288,2.1818,0,0.0001257,1256.1,4.3771e-05,27.512,4.0111e-05,0.011723,-0.00012521,-1242.1,1.986
2683,18.472,2.1818,0,0.00012149,1214.1,4.2492e-05,28.841,3.8655e-05,0.012204,-0.00012097,-1199.4,2.0159
2684,18.656,2.1818,0,0.00011731,1172.3,4.123e-05,30.268,3.7203e-05,0.012718,-0.00011676,-1156.8,2.0457
2685,18.841,2.1818,0,0.00011315,1130.7,3.9985e-05,31.803,3.5754e-05,0.013263,-0.00011258,-1114.5,2.0757
2686,19.025,2.1818,0,0.00010902,1089.5,3.8759e-05,33.454,3.4308e-05,0.013863,-0.00010841,-1072.3,2.1058
2687,19.209,2.1818,0,0.00010492,1048.5,3.7552e-05,35.232,3.2865e-05,0.014528,-0.00010428,-1030.4,2.1359
2688,19.393,2.1818,0,0.00010085,1007.8,3.6366e-05,37.149,3.1424e-05,0.015235,-0.00010017,-988.7,2.1661
2689,19.578,2.1818,0,9.6807e-05,967.4,3.5202e-05,39.214,2.9986e-05,0.016007,-9.608e-05,-947.19,2.1964
2690,19.762,2.1818,0,9.2796e-05,927.32,3.4062e-05,41.442,2.8548e-05,0.016834,-9.2021e-05,-905.89,2.2267
2691,19.946,2.1818,0,8.8816e-05,887.55,3.2945e-05,43.846,2.7112e-05,0.017756,-8.7989e-05,-864.8,2.2571
2692,20.13,2.1818,0,8.4869e-05,848.11,3.1855e-05,46.441,2.5677e-05,0.018784,-8.3983e-05,-823.92,2.2875
2693,20.315,2.1818,0,8.0956e-05,809.01,3.0792e-05,49.241,2.4241e-05,0.019903,-8.0006e-05,-783.25,2.318
2694,20.499,2.1818,0,7.7079e-05,770.26,2.9758e-05,52.264,2.2805e-05,0.021147,-7.6057e-05,-742.79,2.3486
2695,20.683,2.1818,0,7.3239e-05,731.88,2.8755e-05,55.528,2.1368e-05,0.022525,-7.2136e-05,-702.53,2.3792
2696,20.867,2.1818,0,6.9437e-05,693.9,2.7785e-05,59.052,1.9929e-05,0.024082,-6.8244e-05,-662.47,2.4099
2697,21.052,2.1818,0,6.5677e-05,656.32,2.685e-05,62.857,1.8487e-05,0.025842,-6.4381e-05,-622.62,2.4406
2698,21.236,2.1818,0,6.196e-05,619.17,2.5951e-05,66.963,1.7042e-05,0.027839,-6.0548e-05,-582.95,2.4713
2699,21.42,2.1818,0,5.8289e-05,582.48,2.5091e-05,71.394,1.5593e-05,0.030121,-5.6745e-05,-543.48,2.5021
2700,21.605,2.1818,0,5.4667e-05,546.29,2.4271e-05,76.173,1.4138e-05,0.032754,-5.2971e-05,-504.2,2.533
2701,21.789,2.1818,0,5.1099e-05,510.64,2.3495e-05,81.325,1.2676e-05,0.035844,-4.9227e-05,-465.08,2.5638
2702,21.973,2.1818,0,4.759e-05,475.57,2.2764e-05,86.876,1.1207e-05,0.039505,-4.5513e-05,-426.13,2.5947
2703,22.157,2.1818,0,4.4146e-05,441.15,2.2081e-05,92.851,9.7287e-06,0.04391,-4.1827e-05,-387.32,2.6257
2704,22.342,2.1818,0,4.0775e-05,407.47,2.1446e-05,99.274,8.2398e-06,0.0493,-3.8168e-05,-348.64,2.6566
2705,22.526,2.1818,0,3.7488e-05,374.62,2.0862e-05,106.17,6.7388e-06,0.056095,-3.4536e-05,-310.06,2.6876
2706,22.71,2.1818,0,3.43e-05,342.76,2.0329e-05,113.56,5.2241e-06,0.064759,-3.0927e-05,-271.56,2.7186
2707,22.894,2.1818,0,3.123e-05,312.08,1.9848e-05,121.45,3.6941e-06,0.076927,-2.7338e-05,-233.08,2.7497
2708,23.079,2.1818,0,2.8307e-05,282.87,1.9419e-05,129.87,2.1468e-06,0.091951,-2.3765e-05,-194.6,2.7807
2709,23.263,2.1818,0,2.557e-05,255.53,1.9041e-05,138.82,5.8183e-07,0.12337,-2.0205e-05,-156.06,2.8118
2710,23.447,2.1818,0,2.3078e-05,230.62,1.8712e-05,148.28,-1.0049e-06,0.14064,-1.6652e-05,-117.42,2.8428
2711,23.631,2.1818,0,2.0911e-05,208.97,1.8428e-05,158.31,-2.599e-06,0.32624,-1.3107e-05,-78.624,2.8739
2712,23.816,2.1818,0,1.9179e-05,191.66,1.8189e-05,168.68,-4.2355e-06,0.19753,-9.5621e-06,-39.825,2.905
2713,1.1509,2,0,0.001665,16639,0.0008684,3473.1,0.00029078,-866.86,-0.0015776,-14906,0.015242
2714,1.3352,2,0,0.0011014,11007,0.0004506,1109.6,0.00031478,89.001,-0.0010775,-10372,0.022195
2715,1.5195,2,0,0.00090668,9060.6,0.00032704,309.79,0.00028012,-42.697,-0.00090163,-8921.9,0.029817
2716,1.7037,2,0,0.00079697,7964.2,0.00027349,36.763,0.00024852,-150.86,-0.00079875,-8019.6,0.038021
2717,1.888,2,0,0.00072537,7248.7,0.00025706,8.5978,0.00020974,-346.91,-0.00073047,-7411.3,0.04675
2718,2.0723,2,0,0.00067558,6751.1,0.00024574,4.8288,0.00018387,-460.03,-0.00068212,-6966.7,0.055967
2719,2.2565,2,0,0.00063886,6384.2,0.00023617,2.7112,0.0001669,-517.74,-0.00064603,-6625.8,0.065644
2720,2.4408,2,0,0.00061081,6103.9,0.00022791,1.809,0.00015568,-540.9,-0.00061817,-6355.3,0.075758
2721,2.6251,2,0,0.00058873,5883.2,0.00022065,1.2245,0.00014824,-542.82,-0.00059605,-6135.1,0.086291
2722,2.8093,2,0,0.00057092,5705.2,0.00021419,0.86472,0.00014332,-531.66,-0.00057808,-5951.9,0.09723
2723,2.9936,2,0,0.00055624,5558.6,0.00020842,0.61886,0.00014011,-512.58,-0.00056317,-5796.8,0.10856
2724,3.1779,2,0,0.00054393,5435.5,0.0002032,0.44892,0.00013808,-488.9,-0.00055058,-5663.2,0.12028
2725,3.3621,2,0,0.00053339,5330.2,0.00019847,0.32802,0.00013684,-462.73,-0.00053975,-5546.3,0.13236
2726,3.5464,2,0,0.00052422,5238.6,0.00019413,0.24105,0.00013614,-435.48,-0.00053026,-5442.6,0.14482
2727,3.7307,2,0,0.00051609,5157.3,0.00019014,0.17782,0.0001358,-408.05,-0.00052182,-5349.1,0.15764
2728,3.9149,2,0,0.00050876,5084.1,0.00018642,0.13155,0.00013569,-381.06,-0.00051417,-5263.9,0.17081
2729,4.0992,2,0,0.00050205,5017,0.00018295,0.09751,0.00013571,-354.88,-0.00050714,-5185,0.18432
2730,4.2835,2,0,0.0004958,4954.6,0.00017968,0.072385,0.00013578,-329.76,-0.00050058,-5111.2,0.19819
2731,4.4677,2,0,0.0004899,4895.7,0.00017659,0.053787,0.00013587,-305.84,-0.00049439,-5041.4,0.21239
2732,4.652,2,0,0.00048427,4839.4,0.00017364,0.039997,0.00013594,-283.21,-0.00048847,-4974.8,0.22693
2733,4.8363,2,0,0.00047884,4785.1,0.00017081,0.02976,0.00013595,-261.89,-0.00048275,-4910.6,0.2418
2734,5.0205,2,0,0.00047355,4732.2,0.0001681,0.022161,0.00013591,-241.88,-0.0004772,-4848.5,0.257
2735,5.2048,2,0,0.00046836,4680.3,0.00016548,0.016526,0.00013578,-223.15,-0.00047175,-4787.9,0.27253
2736,5.3891,2,0,0.00046324,4629.2,0.00016294,0.012355,0.00013557,-205.66,-0.00046639,-4728.6,0.28837
2737,5.5733,2,0,0.00045817,4578.5,0.00016048,0.0092794,0.00013527,-189.36,-0.00046109,-4670.2,0.30453
2738,5.7576,2,0,0.00045313,4528.1,0.00015808,0.0070243,0.00013489,-174.2,-0.00045584,-4612.7,0.321
2739,5.9419,2,0,0.0004481,4477.9,0.00015573,0.0053847,0.00013442,-160.12,-0.00045061,-4555.8,0.33779
2740,6.1261,2,0,0.00044309,4427.8,0.00015344,0.0042071,0.00013387,-147.04,-0.00044541,-4499.5,0.35488
2741,6.3104,2,0,0.00043807,4377.7,0.0001512,0.0033766,0.00013324,-134.91,-0.00044021,-4443.6,0.37227
2742,6.4947,2,0,0.00043306,4327.6,0.00014899,0.0028062,0.00013253,-123.68,-0.00043503,-4388.1,0.38996
2743,6.6789,2,0,0.00042803,4277.4,0.00014682,0.0024306,0.00013175,-113.27,-0.00042985,-4332.9,0.40794
2744,6.8632,2,0,0.000423,4227.1,0.00014469,0.0022011,0.0001309,-103.64,-0.00042467,-4277.9,0.42622
2745,7.0475,2,0,0.00041796,4176.7,0.00014259,0.0020803,0.00012998,-94.724,-0.00041949,-4223.3,0.44479
2746,7.2317,2,0,0.00041291,4126.2,0.00014052,0.0020396,0.00012901,-86.48,-0.00041431,-4168.8,0.46364
2747,7.416,2,0,0.00040785,4075.7,0.00013848,0.0020584,0.00012798,-78.856,-0.00040914,-4114.6,0.48277
2748,7.6003,2,0,0.00040279,4025.1,0.00013646,0.0021199,0.0001269,-71.808,-0.00040396,-4060.5,0.50218
2749,7.7845,2,0,0.00039771,3974.4,0.00013447,0.0022142,0.00012578,-65.292,-0.00039878,-4006.6,0.52187
2750,7.9688,2,0,0.00039264,3923.6,0.00013249,0.0023299,0.00012461,-59.271,-0.00039361,-3952.9,0.54182
2751,8.1531,2,0,0.00038755,3872.9,0.00013054,0.0024615,0.0001234,-53.706,-0.00038844,-3899.4,0.56204
2752,8.3373,2,0,0.00038247,3822,0.00012861,0.0026044,0.00012215,-48.564,-0.00038327,-3846.1,0.58253
2753,8.5216,2,0,0.00037738,3771.2,0.0001267,0.0027544,0.00012087,-43.811,-0.00037811,-3792.9,0.60328
2754,8.7059,2,0,0.00037229,3720.4,0.0001248,0.0029103,0.00011956,-39.42,-0.00037295,-3739.9,0.62428
2755,8.8901,2,0,0.00036721,3669.6,0.00012293,0.0030692,0.00011822,-35.361,-0.0003678,-3687.1,0.64554
2756,9.0744,2,0,0.00036213,3618.8,0.00012106,0.0032319,0.00011686,-31.61,-0.00036265,-3634.5,0.66704
2757,9.2587,2,0,0.00035705,3568,0.00011922,0.0033973,0.00011547,-28.143,-0.00035752,-3582,0.6888
2758,9.4429,2,0,0.00035197,3517.3,0.00011738,0.0035664,0.00011406,-24.938,-0.00035239,-3529.7,0.71079
2759,9.6272,2,0,0.0003469,3466.6,0.00011556,0.0037389,0.00011264,-21.974,-0.00034727,-3477.6,0.73303
2760,9.8115,2,0,0.00034184,3416,0.00011376,0.0039273,0.0001112,-19.233,-0.00034216,-3425.6,0.7555
2761,9.9957,2,0,0.00033678,3365.5,0.00011197,0.0041159,0.00010974,-16.698,-0.00033707,-3373.8,0.7782
2762,10.18,2,0,0.00033174,3315.1,0.00011018,0.0043208,0.00010827,-14.352,-0.00033198,-3322.2,0.80113
2763,10.364,2,0,0.0003267,3264.8,0.00010841,0.0045584,0.00010679,-12.18,-0.00032691,-3270.8,0.82429
2764,10.549,2,0,0.00032168,3214.5,0.00010666,0.0047798,0.0001053,-10.168,-0.00032185,-3219.6,0.84766
2765,10.733,2,0,0.00031666,3164.4,0.00010491,0.0050899,0.0001038,-8.3041,-0.0003168,-3168.6,0.87126
2766,10.917,2,0,0.00031166,3114.4,0.00010317,0.0055286,0.0001023,-6.5759,-0.00031177,-3117.7,0.89507
2767,11.101,2,0,0.00030667,3064.5,0.00010145,0.00609,0.00010078,-4.9727,-0.00030675,-3067,0.9191
2768,11.286,2,0,0.00030169,3014.8,9.973e-05,0.0069833,9.9266e-05,-3.4843,-0.00030175,-3016.5,0.94333
2769,11.47,2,0,0.00029672,2965.2,9.8024e-05,0.0087918,9.7743e-05,-2.102,-0.00029676,-2966.2,0.96776
2770,11.654,2,0,0.00029177,2915.7,9.6327e-05,0.015731,9.6216e-05,-0.82087,-0.00029179,-2916.1,0.9924
2771,11.838,2,0,0.00028684,2866.4,9.4692e-05,0.41313,9.4635e-05,-0.018112,-0.00028683,-2866.2,1.0172
2772,12.023,2,0,0.00028192,2817.2,9.316e-05,1.5161,9.2958e-05,-0.0014248,-0.00028189,-2816.5,1.0423
2773,12.207,2,0,0.00027701,2768.2,9.1628e-05,2.5599,9.1287e-05,0.0011796,-0.00027697,-2766.9,1.0675
2774,12.391,2,0,0.00027212,2719.4,9.0096e-05,3.5384,8.9626e-05,0.0022484,-0.00027206,-2717.6,1.0929
2775,12.575,2,0,0.00026725,2670.7,8.8565e-05,4.4571,8.7972e-05,0.0028916,-0.00026717,-2668.4,1.1185
2776,12.76,2,0,0.00026239,2622.1,8.7034e-05,5.3214,8.6326e-05,0.0033646,-0.0002623,-2619.5,1.1443
2777,12.944,2,0,0.00025755,2573.8,8.5505e-05,6.1366,8.4689e-05,0.0037019,-0.00025745,-2570.7,1.1702
2778,13.128,2,0,0.00025273,2525.6,8.3978e-05,6.9079,8.3059e-05,0.0039694,-0.00025261,-2522.1,1.1964
2779,13.313,2,0,0.00024793,2477.6,8.2454e-05,7.64,8.1438e-05,0.0041747,-0.0002478,-2473.7,1.2227
2780,13.497,2,0,0.00024314,2429.7,8.0932e-05,8.3377,7.9823e-05,0.0043818,-0.000243,-2425.5,1.2491
2781,13.681,2,0,0.00023837,2382.1,7.9414e-05,9.0053,7.8216e-05,0.0046062,-0.00023822,-2377.5,1.2758
2782,13.865,2,0,0.00023362,2334.6,7.79e-05,9.6468,7.6617e-05,0.004792,-0.00023345,-2329.8,1.3025
2783,14.05,2,0,0.00022889,2287.3,7.639e-05,10.267,7.5025e-05,0.004964,-0.00022871,-2282.2,1.3295
2784,14.234,2,0,0.00022418,2240.2,7.4885e-05,10.868,7.3439e-05,0.0051052,-0.00022399,-2234.8,1.3566
2785,14.418,2,0,0.00021948,2193.3,7.3385e-05,11.455,7.1861e-05,0.0052749,-0.00021928,-2187.5,1.3839
2786,14.602,2,0,0.00021481,2146.6,7.189e-05,12.032,7.029e-05,0.0054723,-0.0002146,-2140.5,1.4113
2787,14.787,2,0,0.00021015,2100.1,7.0402e-05,12.602,6.8725e-05,0.0056449,-0.00020993,-2093.7,1.4388
2788,14.971,2,0,0.00020552,2053.7,6.8919e-05,13.168,6.7167e-05,0.0058167,-0.00020529,-2047.1,1.4665
2789,15.155,2,0,0.0002009,2007.6,6.7443e-05,13.734,6.5616e-05,0.0059667,-0.00020066,-2000.7,1.4944
2790,15.339,2,0,0.0001963,1961.7,6.5974e-05,14.303,6.4071e-05,0.0061488,-0.00019606,-1954.5,1.5223
2791,15.524,2,0,0.00019173,1916,6.4512e-05,14.879,6.2532e-05,0.0063606,-0.00019147,-1908.5,1.5504
2792,15.708,2,0,0.00018717,1870.4,6.3058e-05,15.466,6.1e-05,0.0065564,-0.00018691,-1862.7,1.5787
2793,15.892,2,0,0.00018264,1825.1,6.1611e-05,16.068,5.9474e-05,0.0067573,-0.00018236,-1817,1.607
2794,16.077,2,0,0.00017813,1780,6.0174e-05,16.686,5.7954e-05,0.0069457,-0.00017784,-1771.6,1.6355
2795,16.261,2,0,0.00017363,1735.1,5.8745e-05,17.327,5.644e-05,0.0071663,-0.00017333,-1726.4,1.6641
2796,16.445,2,0,0.00016916,1690.5,5.7325e-05,17.993,5.4931e-05,0.0074208,-0.00016885,-1681.4,1.6929
2797,16.629,2,0,0.00016472,1646,5.5915e-05,18.689,5.3428e-05,0.0076673,-0.00016439,-1636.6,1.7217
2798,16.814,2,0,0.00016029,1601.8,5.4515e-05,19.419,5.1931e-05,0.0079245,-0.00015995,-1592,1.7506
2799,16.998,2,0,0.00015588,1557.8,5.3125e-05,20.187,5.044e-05,0.0081757,-0.00015553,-1547.6,1.7797
2800,17.182,2,0,0.0001515,1514,5.1747e-05,20.998,4.8953e-05,0.0084649,-0.00015113,-1503.4,1.8089
2801,17.366,2,0,0.00014714,1470.4,5.0379e-05,21.858,4.7472e-05,0.0087926,-0.00014676,-1459.4,1.8381
2802,17.551,2,0,0.00014281,1427.1,4.9024e-05,22.77,4.5995e-05,0.0091185,-0.00014241,-1415.6,1.8675
2803,17.735,2,0,0.0001385,1384,4.7682e-05,23.742,4.4523e-05,0.0094645,-0.00013808,-1372,1.897
2804,17.919,2,0,0.00013421,1341.2,4.6353e-05,24.778,4.3056e-05,0.0098201,-0.00013377,-1328.6,1.9265
2805,18.103,2,0,0.00012994,1298.5,4.5038e-05,25.886,4.1594e-05,0.010217,-0.00012948,-1285.4,1.9562
2806,18.288,2,0,0.0001257,1256.2,4.3737e-05,27.072,4.0135e-05,0.010658,-0.00012522,-1242.4,1.9859
2807,18.472,2,0,0.00012149,1214.1,4.2451e-05,28.343,3.8681e-05,0.01112,-0.00012098,-1199.6,2.0157
2808,18.656,2,0,0.0001173,1172.2,4.1182e-05,29.707,3.723e-05,0.011609,-0.00011677,-1157.1,2.0456
2809,18.841,2,0,0.00011314,1130.6,3.993e-05,31.173,3.5783e-05,0.012126,-0.00011258,-1114.7,2.0756
2810,19.025,2,0,0.000109,1089.3,3.8695e-05,32.748,3.4338e-05,0.012704,-0.00010841,-1072.5,2.1056
2811,19.209,2,0,0.0001049,1048.2,3.7479e-05,34.444,3.2897e-05,0.013341,-0.00010427,-1030.6,2.1358
2812,19.393,2,0,0.00010082,1007.5,3.6283e-05,36.27,3.1458e-05,0.014023,-0.00010015,-988.84,2.166
2813,19.578,2,0,9.6766e-05,967,3.5108e-05,38.237,3.0021e-05,0.014761,-9.6059e-05,-947.3,2.1962
2814,19.762,2,0,9.2745e-05,926.81,3.3956e-05,40.358,2.8586e-05,0.015559,-9.1993e-05,-905.97,2.2266
2815,19.946,2,0,8.8755e-05,886.94,3.2826e-05,42.645,2.7153e-05,0.016446,-8.7952e-05,-864.84,2.257
2816,20.13,2,0,8.4797e-05,847.38,3.1722e-05,45.112,2.572e-05,0.017438,-8.3939e-05,-823.92,2.2874
2817,20.315,2,0,8.0871e-05,808.15,3.0643e-05,47.774,2.4288e-05,0.018525,-7.9952e-05,-783.2,2.3179
2818,20.499,2,0,7.698e-05,769.27,2.9593e-05,50.648,2.2855e-05,0.01973,-7.5993e-05,-742.68,2.3485
2819,20.683,2,0,7.3124e-05,730.74,2.8572e-05,53.751,2.1421e-05,0.02107,-7.2061e-05,-702.37,2.3791
2820,20.867,2,0,6.9306e-05,692.59,2.7583e-05,57.101,1.9986e-05,0.022586,-6.8158e-05,-662.26,2.4098
2821,21.052,2,0,6.5528e-05,654.83,2.6627e-05,60.719,1.8549e-05,0.024309,-6.4283e-05,-622.35,2.4405
2822,21.236,2,0,6.1792e-05,617.5,2.5706e-05,64.627,1.7108e-05,0.026262,-6.0438e-05,-582.63,2.4713
2823,21.42,2,0,5.8101e-05,580.61,2.4823e-05,68.848,1.5664e-05,0.028505,-5.6622e-05,-543.1,2.5021
2824,21.605,2,0,5.4458e-05,544.21,2.3981e-05,73.408,1.4215e-05,0.0311,-5.2836e-05,-503.76,2.5329
2825,21.789,2,0,5.0868e-05,508.33,2.318e-05,78.332,1.2759e-05,0.03415,-4.908e-05,-464.6,2.5638
2826,21.973,2,0,4.7336e-05,473.03,2.2424e-05,83.648,1.1296e-05,0.037776,-4.5354e-05,-425.61,2.5947
2827,22.157,2,0,4.3868e-05,438.38,2.1716e-05,89.386,9.8249e-06,0.042138,-4.1658e-05,-386.78,2.6256
2828,22.342,2,0,4.0473e-05,404.45,2.1057e-05,95.574,8.3434e-06,0.047484,-3.799e-05,-348.09,2.6566
2829,22.526,2,0,3.7161e-05,371.36,2.045e-05,102.24,6.8501e-06,0.054225,-3.4351e-05,-309.51,2.6875
2830,22.71,2,0,3.3949e-05,339.26,1.9897e-05,109.41,5.3433e-06,0.062816,-3.0737e-05,-271.03,2.7186
2831,22.894,2,0,3.0855e-05,308.34,1.9399e-05,117.12,3.8213e-06,0.074885,-2.7147e-05,-232.61,2.7496
2832,23.079,2,0,2.7909e-05,278.89,1.8955e-05,125.37,2.282e-06,0.089757,-2.3576e-05,-194.2,2.7806
2833,23.263,2,0,2.515e-05,251.32,1.8566e-05,134.18,7.2455e-07,0.12093,-2.0021e-05,-155.75,2.8117
2834,23.447,2,0,2.2635e-05,226.2,1.823e-05,143.54,-8.5527e-07,0.13786,-1.6475e-05,-117.22,2.8428
2835,23.631,2,0,2.045e-05,204.36,1.7944e-05,153.5,-2.4434e-06,0.32229,-1.2939e-05,-78.535,2.8739
2836,23.816,2,0,1.8706e-05,186.94,1.7707e-05,163.86,-4.0757e-06,0.18958,-9.4059e-06,-39.859,2.905
2837,1.1509,1.8182,0,0.0014047,14037,0.00089682,5405.9,0.00014977,-207.12,-0.0012293,-10569,0.013694
2838,1.3352,1.8182,0,0.0010055,10048,0.00051178,2236.3,0.00021614,14.906,-0.00094856,-8736.2,0.021026
2839,1.5195,1.8182,0,0.00083661,8360.3,0.00035302,928.8,0.00022765,-13.179,-0.00081704,-7862.6,0.02888
2840,1.7037,1.8182,0,0.00074613,7456.1,0.0002749,337.65,0.00022816,-13.587,-0.00073999,-7287.9,0.037237
2841,1.888,1.8182,0,0.00068792,6874.5,0.00023414,51.115,0.00021961,-58.056,-0.00068797,-6877.3,0.046072
2842,2.0723,1.8182,0,0.00064782,6473.8,0.00022461,9.6913,0.00019616,-204.05,-0.00065087,-6568.3,0.05536
2843,2.2565,1.8182,0,0.00061853,6181,0.00021943,4.3571,0.00017817,-305.67,-0.00062307,-6325.8,0.065085
2844,2.4408,1.8182,0,0.00059615,5957.4,0.00021462,2.5529,0.00016603,-362.54,-0.00060143,-6129,0.075231
2845,2.6251,1.8182,0,0.00057839,5779.9,0.00021004,1.6427,0.0001578,-390.85,-0.00058401,-5964.5,0.085784
2846,2.8093,1.8182,0,0.00056385,5634.6,0.00020568,1.121,0.00015214,-401.11,-0.00056957,-5823.8,0.096734
2847,2.9936,1.8182,0,0.00055163,5512.5,0.00020155,0.78822,0.00014822,-399.88,-0.00055732,-5701.1,0.10807
2848,3.1779,1.8182,0,0.00054112,5407.5,0.00019765,0.56597,0.00014549,-391.33,-0.00054671,-5592.2,0.11979
2849,3.3621,1.8182,0,0.00053191,5315.5,0.00019396,0.41192,0.00014358,-378.14,-0.00053733,-5494.2,0.13187
2850,3.5464,1.8182,0,0.00052369,5233.3,0.00019047,0.30286,0.00014224,-362.06,-0.0005289,-5404.8,0.14433
2851,3.7307,1.8182,0,0.00051623,5158.8,0.00018714,0.22439,0.00014129,-344.3,-0.00052122,-5322.2,0.15714
2852,3.9149,1.8182,0,0.00050936,5090.1,0.00018398,0.1673,0.00014061,-325.65,-0.00051411,-5245,0.1703
2853,4.0992,1.8182,0,0.00050295,5026,0.00018094,0.12542,0.00014011,-306.68,-0.00050746,-5172.2,0.18382
2854,4.2835,1.8182,0,0.00049688,4965.4,0.00017803,0.094475,0.00013971,-287.79,-0.00050115,-5103,0.19768
2855,4.4677,1.8182,0,0.00049109,4907.5,0.00017522,0.071492,0.00013937,-269.25,-0.00049511,-5036.5,0.21188
2856,4.652,1.8182,0,0.0004855,4851.6,0.0001725,0.054342,0.00013906,-251.24,-0.00048928,-4972.3,0.22641
2857,4.8363,1.8182,0,0.00048006,4797.3,0.00016987,0.041495,0.00013873,-233.92,-0.00048361,-4910,0.24128
2858,5.0205,1.8182,0,0.00047474,4744.1,0.00016731,0.031841,0.00013838,-217.35,-0.00047806,-4849.1,0.25648
2859,5.2048,1.8182,0,0.00046951,4691.8,0.00016482,0.024567,0.00013798,-201.59,-0.00047261,-4789.4,0.272
2860,5.3891,1.8182,0,0.00046433,4640.1,0.00016238,0.019077,0.00013754,-186.66,-0.00046722,-4730.6,0.28784
2861,5.5733,1.8182,0,0.0004592,4588.8,0.00016,0.014929,0.00013703,-172.58,-0.00046189,-4672.6,0.304
2862,5.7576,1.8182,0,0.00045409,4537.8,0.00015767,0.011794,0.00013647,-159.34,-0.00045659,-4615.3,0.32048
2863,5.9419,1.8182,0,0.000449,4486.9,0.00015539,0.0094286,0.00013583,-146.91,-0.00045132,-4558.6,0.33726
2864,6.1261,1.8182,0,0.00044392,4436.1,0.00015314,0.0076468,0.00013514,-135.28,-0.00044607,-4502.2,0.35435
2865,6.3104,1.8182,0,0.00043884,4385.4,0.00015094,0.0063104,0.00013438,-124.41,-0.00044083,-4446.3,0.37175
2866,6.4947,1.8182,0,0.00043377,4334.7,0.00014877,0.0053142,0.00013356,-114.27,-0.0004356,-4390.7,0.38944
2867,6.6789,1.8182,0,0.00042869,4283.9,0.00014663,0.0045789,0.00013268,-104.83,-0.00043038,-4335.4,0.40743
2868,6.8632,1.8182,0,0.00042361,4233.1,0.00014452,0.0040428,0.00013174,-96.045,-0.00042516,-4280.4,0.42571
2869,7.0475,1.8182,0,0.00041852,4182.3,0.00014244,0.0036604,0.00013075,-87.878,-0.00041994,-4225.5,0.44428
2870,7.2317,1.8182,0,0.00041343,4131.4,0.00014039,0.0033956,0.0001297,-80.293,-0.00041473,-4171,0.46313
2871,7.416,1.8182,0,0.00040833,4080.5,0.00013836,0.0032215,0.00012861,-73.254,-0.00040952,-4116.6,0.48227
2872,7.6003,1.8182,0,0.00040323,4029.5,0.00013636,0.0031167,0.00012747,-66.727,-0.00040432,-4062.4,0.50168
2873,7.7845,1.8182,0,0.00039812,3978.4,0.00013437,0.0030653,0.0001263,-60.676,-0.00039912,-4008.4,0.52137
2874,7.9688,1.8182,0,0.00039301,3927.4,0.00013241,0.0030559,0.00012508,-55.07,-0.00039392,-3954.6,0.54133
2875,8.1531,1.8182,0,0.0003879,3876.3,0.00013047,0.0030783,0.00012383,-49.878,-0.00038872,-3901,0.56156
2876,8.3373,1.8182,0,0.00038279,3825.3,0.00012855,0.0031256,0.00012255,-45.071,-0.00038354,-3847.6,0.58205
2877,8.5216,1.8182,0,0.00037768,3774.2,0.00012664,0.0031934,0.00012123,-40.621,-0.00037835,-3794.3,0.6028
2878,8.7059,1.8182,0,0.00037257,3723.1,0.00012475,0.0032771,0.00011989,-36.502,-0.00037318,-3741.3,0.62381
2879,8.8901,1.8182,0,0.00036747,3672.1,0.00012288,0.0033739,0.00011853,-32.691,-0.00036801,-3688.4,0.64507
2880,9.0744,1.8182,0,0.00036236,3621.1,0.00012102,0.0034842,0.00011714,-29.164,-0.00036285,-3635.6,0.66658
2881,9.2587,1.8182,0,0.00035727,3570.2,0.00011918,0.0036051,0.00011573,-25.901,-0.0003577,-3583.1,0.68834
2882,9.4429,1.8182,0,0.00035218,3519.4,0.00011735,0.0037395,0.0001143,-22.881,-0.00035256,-3530.7,0.71034
2883,9.6272,1.8182,0,0.0003471,3468.6,0.00011554,0.0038851,0.00011286,-20.086,-0.00034743,-3478.6,0.73258
2884,9.8115,1.8182,0,0.00034202,3417.8,0.00011373,0.0040555,0.0001114,-17.499,-0.00034231,-3426.6,0.75506
2885,9.9957,1.8182,0,0.00033695,3367.2,0.00011194,0.0042392,0.00010993,-15.105,-0.00033721,-3374.7,0.77776
2886,10.18,1.8182,0,0.0003319,3316.7,0.00011016,0.0044538,0.00010845,-12.887,-0.00033212,-3323.1,0.8007
2887,10.364,1.8182,0,0.00032685,3266.3,0.0001084,0.0047168,0.00010696,-10.832,-0.00032703,-3271.7,0.82386
2888,10.549,1.8182,0,0.00032182,3216,0.00010664,0.0049926,0.00010545,-8.9288,-0.00032197,-3220.4,0.84725
2889,10.733,1.8182,0,0.00031679,3165.8,0.0001049,0.0054009,0.00010394,-7.1637,-0.00031692,-3169.3,0.87085
2890,10.917,1.8182,0,0.00031178,3115.7,0.00010316,0.0060173,0.00010243,-5.5262,-0.00031188,-3118.4,0.89467
2891,11.101,1.8182,0,0.00030679,3065.7,0.00010144,0.0069276,0.0001009,-4.0065,-0.00030685,-3067.7,0.9187
2892,11.286,1.8182,0,0.0003018,3015.9,9.9724e-05,0.0086409,9.9377e-05,-2.5952,-0.00030185,-3017.2,0.94294
2893,11.47,1.8182,0,0.00029683,2966.3,9.8019e-05,0.013417,9.7847e-05,-1.286,-0.00029685,-2966.9,0.96738
2894,11.654,1.8182,0,0.00029188,2916.8,9.6334e-05,0.089287,9.6303e-05,-0.13838,-0.00029188,-2916.8,0.99202
2895,11.838,1.8182,0,0.00028694,2867.4,9.4781e-05,1.0985,9.4634e-05,-0.0068979,-0.00028692,-2866.8,1.0169
2896,12.023,1.8182,0,0.00028201,2818.2,9.3244e-05,2.1578,9.2957e-05,-0.0013619,-0.00028198,-2817.1,1.0419
2897,12.207,1.8182,0,0.0002771,2769.1,9.1707e-05,3.1518,9.1288e-05,0.0004906,-0.00027705,-2767.5,1.0671
2898,12.391,1.8182,0,0.00027221,2720.2,9.017e-05,4.0838,8.9627e-05,0.0014153,-0.00027214,-2718.2,1.0925
2899,12.575,1.8182,0,0.00026733,2671.5,8.8634e-05,4.9593,8.7974e-05,0.0020193,-0.00026725,-2669,1.1181
2900,12.76,1.8182,0,0.00026247,2622.9,8.7099e-05,5.7836,8.633e-05,0.0024841,-0.00026238,-2620,1.1439
2901,12.944,1.8182,0,0.00025763,2574.5,8.5566e-05,6.5615,8.4694e-05,0.0028182,-0.00025752,-2571.3,1.1699
2902,13.128,1.8182,0,0.00025281,2526.3,8.4036e-05,7.2981,8.3065e-05,0.0030869,-0.00025268,-2522.7,1.196
2903,13.313,1.8182,0,0.000248,2478.3,8.2508e-05,7.9977,8.1444e-05,0.0032874,-0.00024786,-2474.3,1.2223
2904,13.497,1.8182,0,0.00024321,2430.4,8.0983e-05,8.6649,7.983e-05,0.0034934,-0.00024306,-2426.1,1.2488
2905,13.681,1.8182,0,0.00023844,2382.8,7.9462e-05,9.3038,7.8224e-05,0.003713,-0.00023828,-2378.1,1.2754
2906,13.865,1.8182,0,0.00023369,2335.3,7.7945e-05,9.9182,7.6625e-05,0.0038924,-0.00023352,-2330.3,1.3022
2907,14.05,1.8182,0,0.00022895,2288,7.6432e-05,10.512,7.5034e-05,0.0040549,-0.00022877,-2282.7,1.3292
2908,14.234,1.8182,0,0.00022424,2240.8,7.4924e-05,11.089,7.3449e-05,0.0041913,-0.00022405,-2235.3,1.3563
2909,14.418,1.8182,0,0.00021954,2193.9,7.3422e-05,11.652,7.1872e-05,0.00435,-0.00021934,-2188.1,1.3836
2910,14.602,1.8182,0,0.00021487,2147.2,7.1925e-05,12.205,7.0301e-05,0.0045381,-0.00021466,-2141.1,1.411
2911,14.787,1.8182,0,0.00021021,2100.6,7.0434e-05,12.752,6.8737e-05,0.0047004,-0.00020999,-2094.2,1.4386
2912,14.971,1.8182,0,0.00020557,2054.3,6.8949e-05,13.295,6.718e-05,0.0048568,-0.00020534,-2047.6,1.4663
2913,15.155,1.8182,0,0.00020096,2008.2,6.747e-05,13.839,6.5629e-05,0.0049973,-0.00020072,-2001.2,1.4941
2914,15.339,1.8182,0,0.00019636,1962.2,6.5999e-05,14.385,6.4085e-05,0.0051652,-0.00019611,-1955,1.5221
2915,15.524,1.8182,0,0.00019178,1916.5,6.4534e-05,14.939,6.2547e-05,0.0053636,-0.00019152,-1909,1.5502
2916,15.708,1.8182,0,0.00018722,1871,6.3078e-05,15.502,6.1015e-05,0.0055446,-0.00018696,-1863.2,1.5784
2917,15.892,1.8182,0,0.00018269,1825.6,6.1629e-05,16.078,5.949e-05,0.0057292,-0.00018241,-1817.5,1.6068
2918,16.077,1.8182,0,0.00017817,1780.5,6.0188e-05,16.671,5.797e-05,0.0059032,-0.00017788,-1772.1,1.6353
2919,16.261,1.8182,0,0.00017368,1735.6,5.8757e-05,17.285,5.6457e-05,0.0061059,-0.00017338,-1726.9,1.6639
2920,16.445,1.8182,0,0.00016921,1690.9,5.7334e-05,17.923,5.4949e-05,0.0063422,-0.0001689,-1681.9,1.6926
2921,16.629,1.8182,0,0.00016476,1646.4,5.592e-05,18.588,5.3447e-05,0.0065699,-0.00016443,-1637.1,1.7215
2922,16.814,1.8182,0,0.00016033,1602.2,5.4517e-05,19.286,5.1951e-05,0.006808,-0.00015999,-1592.5,1.7504
2923,16.998,1.8182,0,0.00015592,1558.1,5.3124e-05,20.019,5.046e-05,0.0070392,-0.00015557,-1548,1.7795
2924,17.182,1.8182,0,0.00015154,1514.3,5.1741e-05,20.793,4.8975e-05,0.0073079,-0.00015117,-1503.8,1.8087
2925,17.366,1.8182,0,0.00014718,1470.7,5.0369e-05,21.612,4.7494e-05,0.0076115,-0.0001468,-1459.8,1.8379
2926,17.551,1.8182,0,0.00014284,1427.4,4.901e-05,22.481,4.6019e-05,0.0079162,-0.00014244,-1416,1.8673
2927,17.735,1.8182,0,0.00013852,1384.2,4.7662e-05,23.405,4.4548e-05,0.0082378,-0.00013811,-1372.4,1.8968
2928,17.919,1.8182,0,0.00013423,1341.4,4.6327e-05,24.389,4.3082e-05,0.0085655,-0.0001338,-1329,1.9263
2929,18.103,1.8182,0,0.00012996,1298.7,4.5006e-05,25.44,4.1621e-05,0.0089359,-0.00012951,-1285.8,1.956
2930,18.288,1.8182,0,0.00012572,1256.3,4.3698e-05,26.564,4.0164e-05,0.009351,-0.00012524,-1242.8,1.9857
2931,18.472,1.8182,0,0.0001215,1214.1,4.2405e-05,27.768,3.8711e-05,0.0097804,-0.000121,-1200,2.0155
2932,18.656,1.8182,0,0.0001173,1172.2,4.1128e-05,29.058,3.7262e-05,0.01024,-0.00011678,-1157.4,2.0454
2933,18.841,1.8182,0,0.00011313,1130.5,3.9867e-05,30.443,3.5816e-05,0.010725,-0.00011258,-1115,2.0754
2934,19.025,1.8182,0,0.00010899,1089.1,3.8622e-05,31.931,3.4374e-05,0.011263,-0.00010841,-1072.8,2.1055
2935,19.209,1.8182,0,0.00010487,1048,3.7396e-05,33.53,3.2935e-05,0.011863,-0.00010426,-1030.8,2.1356
2936,19.393,1.8182,0,0.00010078,1007.1,3.6188e-05,35.251,3.1498e-05,0.012506,-0.00010014,-989.04,2.1658
2937,19.578,1.8182,0,9.6722e-05,966.56,3.5e-05,37.103,3.0064e-05,0.0132,-9.6038e-05,-947.46,2.1961
2938,19.762,1.8182,0,9.269e-05,926.26,3.3834e-05,39.098,2.8632e-05,0.013958,-9.1963e-05,-906.09,2.2264
2939,19.946,1.8182,0,8.8687e-05,886.26,3.2689e-05,41.248,2.7201e-05,0.0148,-8.7913e-05,-864.91,2.2568
2940,20.13,1.8182,0,8.4715e-05,846.57,3.1568e-05,43.565,2.5772e-05,0.015744,-8.389e-05,-823.94,2.2873
2941,20.315,1.8182,0,8.0775e-05,807.19,3.0471e-05,46.066,2.4343e-05,0.01678,-7.9892e-05,-783.16,2.3178
2942,20.499,1.8182,0,7.6867e-05,768.14,2.9401e-05,48.763,2.2914e-05,0.017931,-7.5921e-05,-742.59,2.3484
2943,20.683,1.8182,0,7.2994e-05,729.44,2.836e-05,51.675,2.1485e-05,0.019215,-7.1977e-05,-702.22,2.379
2944,20.867,1.8182,0,6.9157e-05,691.09,2.7347e-05,54.82,2.0054e-05,0.020675,-6.8061e-05,-662.04,2.4097
2945,21.052,1.8182,0,6.5358e-05,653.13,2.6367e-05,58.217,1.8622e-05,0.022337,-6.4172e-05,-622.06,2.4404
2946,21.236,1.8182,0,6.1599e-05,615.57,2.5421e-05,61.888,1.7187e-05,0.024234,-6.0312e-05,-582.28,2.4712
2947,21.42,1.8182,0,5.7884e-05,578.44,2.451e-05,65.857,1.5749e-05,0.026419,-5.6481e-05,-542.68,2.502
2948,21.605,1.8182,0,5.4215e-05,541.78,2.3639e-05,70.151,1.4306e-05,0.02895,-5.268e-05,-503.28,2.5328
2949,21.789,1.8182,0,5.0598e-05,505.63,2.2808e-05,74.796,1.2858e-05,0.031939,-4.8909e-05,-464.06,2.5637
2950,21.973,1.8182,0,4.7037e-05,470.05,2.2022e-05,79.824,1.1403e-05,0.035504,-4.5168e-05,-425.01,2.5946
2951,22.157,1.8182,0,4.354e-05,435.1,2.1283e-05,85.267,9.9395e-06,0.039804,-4.1457e-05,-386.14,2.6255
2952,22.342,1.8182,0,4.0114e-05,400.87,2.0594e-05,91.16,8.4669e-06,0.045082,-3.7778e-05,-347.42,2.6565
2953,22.526,1.8182,0,3.6772e-05,367.47,1.9958e-05,97.538,6.9831e-06,0.051751,-3.4128e-05,-308.84,2.6875
2954,22.71,1.8182,0,3.3529e-05,335.06,1.9378e-05,104.43,5.4862e-06,0.060241,-3.0508e-05,-270.38,2.7185
2955,22.894,1.8182,0,3.0404e-05,303.83,1.8855e-05,111.88,3.9742e-06,0.072179,-2.6914e-05,-232.01,2.7495
2956,23.079,1.8182,0,2.7428e-05,274.09,1.8392e-05,119.91,2.4449e-06,0.086864,-2.3344e-05,-193.68,2.7806
2957,23.263,1.8182,0,2.4639e-05,246.22,1.7989e-05,128.54,8.9717e-07,0.11773,-1.9794e-05,-155.35,2.8116
2958,23.447,1.8182,0,2.2098e-05,220.82,1.7643e-05,137.76,-6.7374e-07,0.13423,-1.6257e-05,-116.95,2.8427
2959,23.631,1.8182,0,1.9888e-05,198.74,1.7353e-05,147.64,-2.2542e-06,0.31715,-1.2732e-05,-78.411,2.8738
2960,23.816,1.8182,0,1.813e-05,181.17,1.7119e-05,157.96,-3.881e-06,0.1795,-9.2143e-06,-39.893,2.9049
2961,1.1509,1.6364,0,0.0010436,10429,0.0007048,4643.8,9.0201e-05,25.978,-0.00088437,-7296.6,0.011938
2962,1.3352,1.6364,0,0.00085175,8511.6,0.00047524,2431.9,0.00015252,7.0681,-0.00078393,-7029,0.019655
2963,1.5195,1.6364,0,0.00074847,7479.5,0.00035241,1285.1,0.00017906,-17.399,-0.00071835,-6760.2,0.027771
2964,1.7037,1.6364,0,0.00068605,6855.8,0.00027959,643.29,0.00019344,-3.9863,-0.00067288,-6513.2,0.036304
2965,1.888,1.6364,0,0.00064447,6440.2,0.0002351,264.29,0.00019861,-9.8935,-0.0006397,-6308.6,0.045259
2966,2.0723,1.6364,0,0.00061613,6157,0.00020947,56.655,0.00019808,-28.92,-0.00061561,-6142.7,0.054631
2967,2.2565,1.6364,0,0.00059542,5950.1,0.0002032,9.4444,0.00018594,-120.27,-0.0005972,-6004.4,0.064412
2968,2.4408,1.6364,0,0.00057947,5790.7,0.00020133,4.0418,0.00017431,-198.95,-0.00058252,-5885.5,0.074595
2969,2.6251,1.6364,0,0.00056656,5661.7,0.00019928,2.3006,0.00016603,-247.59,-0.00057032,-5780.2,0.085173
2970,2.8093,1.6364,0,0.00055567,5552.9,0.00019697,1.4729,0.0001601,-275.58,-0.00055982,-5684.8,0.096137
2971,2.9936,1.6364,0,0.00054619,5458.1,0.00019449,0.9986,0.00015578,-289.84,-0.00055052,-5596.7,0.10748
2972,3.1779,1.6364,0,0.00053772,5373.5,0.00019191,0.70108,0.00015257,-294.87,-0.00054211,-5514.5,0.1192
2973,3.3621,1.6364,0,0.00053,5296.4,0.00018928,0.50339,0.00015014,-293.62,-0.00053437,-5436.8,0.13129
2974,3.5464,1.6364,0,0.00052286,5225,0.00018665,0.36736,0.00014826,-288.03,-0.00052716,-5362.9,0.14374
2975,3.7307,1.6364,0,0.00051617,5158.2,0.00018401,0.27145,0.00014678,-279.47,-0.00052035,-5292.1,0.15655
2976,3.9149,1.6364,0,0.00050984,5094.8,0.00018141,0.20264,0.00014559,-268.89,-0.00051387,-5223.8,0.16971
2977,4.0992,1.6364,0,0.00050378,5034.3,0.00017883,0.15261,0.00014461,-256.96,-0.00050766,-5157.8,0.18322
2978,4.2835,1.6364,0,0.00049795,4976,0.00017628,0.11585,0.00014376,-244.2,-0.00050165,-5093.6,0.19708
2979,4.4677,1.6364,0,0.00049229,4919.5,0.00017377,0.088599,0.00014301,-230.99,-0.00049581,-5030.8,0.21127
2980,4.652,1.6364,0,0.00048676,4864.3,0.0001713,0.068239,0.00014232,-217.62,-0.0004901,-4969.4,0.22581
2981,4.8363,1.6364,0,0.00048135,4810.2,0.00016886,0.052927,0.00014166,-204.32,-0.0004845,-4909,0.24067
2982,5.0205,1.6364,0,0.00047601,4756.8,0.00016647,0.041343,0.00014101,-191.24,-0.00047898,-4849.5,0.25587
2983,5.2048,1.6364,0,0.00047074,4704.1,0.0001641,0.032532,0.00014034,-178.51,-0.00047352,-4790.8,0.27139
2984,5.3891,1.6364,0,0.00046551,4651.9,0.00016178,0.025801,0.00013965,-166.22,-0.00046811,-4732.8,0.28723
2985,5.5733,1.6364,0,0.00046031,4600,0.00015949,0.020638,0.00013894,-154.42,-0.00046275,-4675.2,0.30339
2986,5.7576,1.6364,0,0.00045514,4548.3,0.00015723,0.016664,0.00013818,-143.17,-0.00045741,-4618.2,0.31986
2987,5.9419,1.6364,0,0.00044999,4496.8,0.00015501,0.013598,0.00013738,-132.49,-0.00045209,-4561.5,0.33665
2988,6.1261,1.6364,0,0.00044484,4445.3,0.00015282,0.011228,0.00013653,-122.37,-0.0004468,-4505.2,0.35374
2989,6.3104,1.6364,0,0.0004397,4394,0.00015065,0.0093928,0.00013564,-112.84,-0.00044151,-4449.3,0.37114
2990,6.4947,1.6364,0,0.00043456,4342.6,0.00014852,0.0079721,0.00013469,-103.87,-0.00043623,-4393.6,0.38883
2991,6.6789,1.6364,0,0.00042942,4291.3,0.00014641,0.0068732,0.00013371,-95.458,-0.00043097,-4338.2,0.40682
2992,6.8632,1.6364,0,0.00042429,4239.9,0.00014433,0.0060243,0.00013267,-87.583,-0.00042571,-4283,0.42511
2993,7.0475,1.6364,0,0.00041915,4188.6,0.00014227,0.0053715,0.0001316,-80.223,-0.00042045,-4228.1,0.44368
2994,7.2317,1.6364,0,0.00041401,4137.2,0.00014024,0.0048722,0.00013048,-73.356,-0.00041521,-4173.4,0.46254
2995,7.416,1.6364,0,0.00040886,4085.8,0.00013823,0.0044942,0.00012932,-66.957,-0.00040996,-4118.9,0.48168
2996,7.6003,1.6364,0,0.00040372,4034.4,0.00013624,0.0042113,0.00012812,-61.001,-0.00040472,-4064.6,0.5011
2997,7.7845,1.6364,0,0.00039858,3983,0.00013427,0.0040046,0.00012689,-55.463,-0.00039949,-4010.5,0.52079
2998,7.9688,1.6364,0,0.00039344,3931.6,0.00013232,0.0038578,0.00012562,-50.317,-0.00039427,-3956.6,0.54076
2999,8.1531,1.6364,0,0.00038829,3880.3,0.00013039,0.0037604,0.00012433,-45.539,-0.00038905,-3902.8,0.56099
3000,8.3373,1.6364,0,0.00038315,3828.9,0.00012847,0.0037026,0.000123,-41.106,-0.00038384,-3849.3,0.58149
3001,8.5216,1.6364,0,0.00037802,3777.6,0.00012657,0.0036777,0.00012165,-36.994,-0.00037863,-3795.9,0.60224
3002,8.7059,1.6364,0,0.00037289,3726.3,0.00012469,0.0036802,0.00012028,-33.182,-0.00037344,-3742.8,0.62326
3003,8.8901,1.6364,0,0.00036776,3675.1,0.00012283,0.0037089,0.00011888,-29.648,-0.00036825,-3689.8,0.64453
3004,9.0744,1.6364,0,0.00036264,3623.9,0.00012097,0.0037591,0.00011746,-26.374,-0.00036308,-3637,0.66604
3005,9.2587,1.6364,0,0.00035752,3572.8,0.00011914,0.0038317,0.00011603,-23.341,-0.00035791,-3584.4,0.68781
3006,9.4429,1.6364,0,0.00035242,3521.7,0.00011731,0.0039267,0.00011458,-20.531,-0.00035276,-3531.9,0.70981
3007,9.6272,1.6364,0,0.00034732,3470.8,0.0001155,0.0040453,0.00011312,-17.927,-0.00034762,-3479.7,0.73206
3008,9.8115,1.6364,0,0.00034223,3419.9,0.0001137,0.0042008,0.00011164,-15.515,-0.00034249,-3427.7,0.75454
3009,9.9957,1.6364,0,0.00033715,3369.2,0.00011192,0.0043853,0.00011015,-13.28,-0.00033737,-3375.8,0.77726
3010,10.18,1.6364,0,0.00033208,3318.5,0.00011014,0.0046207,0.00010865,-11.209,-0.00033227,-3324.1,0.8002
3011,10.364,1.6364,0,0.00032702,3268,0.00010838,0.0049361,0.00010714,-9.2888,-0.00032718,-3272.6,0.82337
3012,10.549,1.6364,0,0.00032198,3217.6,0.00010663,0.0053101,0.00010563,-7.5081,-0.00032211,-3221.3,0.84676
3013,10.733,1.6364,0,0.00031695,3167.3,0.00010488,0.0059027,0.0001041,-5.8558,-0.00031705,-3170.2,0.87037
3014,10.917,1.6364,0,0.00031193,3117.1,0.00010315,0.0068791,0.00010258,-4.3221,-0.000312,-3119.3,0.8942
3015,11.101,1.6364,0,0.00030692,3067.1,0.00010143,0.0086047,0.00010104,-2.8981,-0.00030697,-3068.6,0.91823
3016,11.286,1.6364,0,0.00030193,3017.2,9.9717e-05,0.012913,9.9506e-05,-1.5767,-0.00030196,-3018,0.94248
3017,11.47,1.6364,0,0.00029696,2967.5,9.8018e-05,0.042905,9.7963e-05,-0.37286,-0.00029696,-2967.7,0.96693
3018,11.654,1.6364,0,0.000292,2917.9,9.6429e-05,0.83402,9.6316e-05,-0.01425,-0.00029198,-2917.5,0.99158
3019,11.838,1.6364,0,0.00028705,2868.5,9.4885e-05,1.8967,9.4632e-05,-0.0041507,-0.00028702,-2867.6,1.0164
3020,12.023,1.6364,0,0.00028212,2819.3,9.3342e-05,2.8962,9.2956e-05,-0.0013937,-0.00028207,-2817.8,1.0415
3021,12.207,1.6364,0,0.00027721,2770.2,9.1799e-05,3.8329,9.1288e-05,-9.3343e-05,-0.00027714,-2768.2,1.0667
3022,12.391,1.6364,0,0.00027231,2721.2,9.0256e-05,4.7117,8.9629e-05,0.00064812,-0.00027223,-2718.9,1.0921
3023,12.575,1.6364,0,0.00026743,2672.5,8.8715e-05,5.5378,8.7978e-05,0.0011723,-0.00026734,-2669.7,1.1177
3024,12.76,1.6364,0,0.00026257,2623.9,8.7175e-05,6.3163,8.6334e-05,0.0015949,-0.00026246,-2620.7,1.1435
3025,12.944,1.6364,0,0.00025772,2575.4,8.5637e-05,7.0517,8.4699e-05,0.001903,-0.0002576,-2571.9,1.1695
3026,13.128,1.6364,0,0.00025289,2527.2,8.4102e-05,7.7486,8.3071e-05,0.0021503,-0.00025276,-2523.3,1.1956
3027,13.313,1.6364,0,0.00024808,2479.1,8.257e-05,8.4112,8.1451e-05,0.0023341,-0.00024794,-2474.9,1.2219
3028,13.497,1.6364,0,0.00024329,2431.3,8.1042e-05,9.0437,7.9839e-05,0.0025241,-0.00024314,-2426.7,1.2484
3029,13.681,1.6364,0,0.00023852,2383.6,7.9517e-05,9.6498,7.8233e-05,0.0027298,-0.00023835,-2378.7,1.2751
3030,13.865,1.6364,0,0.00023377,2336,7.7997e-05,10.233,7.6635e-05,0.0028931,-0.00023359,-2330.9,1.3019
3031,14.05,1.6364,0,0.00022903,2288.7,7.6481e-05,10.798,7.5045e-05,0.0030442,-0.00022884,-2283.3,1.3288
3032,14.234,1.6364,0,0.00022431,2241.6,7.497e-05,11.346,7.3461e-05,0.0031617,-0.00022412,-2235.9,1.356
3033,14.418,1.6364,0,0.00021962,2194.6,7.3465e-05,11.882,7.1884e-05,0.0033065,-0.00021941,-2188.7,1.3832
3034,14.602,1.6364,0,0.00021494,2147.9,7.1965e-05,12.409,7.0314e-05,0.0034772,-0.00021472,-2141.7,1.4107
3035,14.787,1.6364,0,0.00021028,2101.3,7.0471e-05,12.93,6.8751e-05,0.0036229,-0.00021006,-2094.8,1.4382
3036,14.971,1.6364,0,0.00020564,2055,6.8984e-05,13.447,6.7194e-05,0.0037631,-0.00020541,-2048.2,1.4659
3037,15.155,1.6364,0,0.00020102,2008.8,6.7502e-05,13.965,6.5644e-05,0.0038838,-0.00020078,-2001.8,1.4938
3038,15.339,1.6364,0,0.00019642,1962.9,6.6028e-05,14.486,6.4101e-05,0.0040333,-0.00019617,-1955.6,1.5218
3039,15.524,1.6364,0,0.00019184,1917.1,6.4561e-05,15.013,6.2564e-05,0.0042135,-0.00019158,-1909.6,1.5499
3040,15.708,1.6364,0,0.00018729,1871.6,6.3102e-05,15.549,6.1033e-05,0.0043749,-0.00018702,-1863.7,1.5781
3041,15.892,1.6364,0,0.00018275,1826.2,6.165e-05,16.098,5.9508e-05,0.0045376,-0.00018247,-1818.1,1.6065
3042,16.077,1.6364,0,0.00017823,1781.1,6.0207e-05,16.662,5.799e-05,0.0046873,-0.00017794,-1772.7,1.635
3043,16.261,1.6364,0,0.00017374,1736.2,5.8772e-05,17.245,5.6477e-05,0.0048698,-0.00017344,-1727.5,1.6636
3044,16.445,1.6364,0,0.00016926,1691.4,5.7345e-05,17.851,5.497e-05,0.0050845,-0.00016895,-1682.4,1.6924
3045,16.629,1.6364,0,0.00016481,1646.9,5.5928e-05,18.482,5.3469e-05,0.0052877,-0.00016449,-1637.6,1.7212
3046,16.814,1.6364,0,0.00016038,1602.7,5.4521e-05,19.143,5.1974e-05,0.0054961,-0.00016004,-1593,1.7502
3047,16.998,1.6364,0,0.00015597,1558.6,5.3123e-05,19.838,5.0484e-05,0.005702,-0.00015562,-1548.6,1.7792
3048,17.182,1.6364,0,0.00015158,1514.8,5.1736e-05,20.569,4.8999e-05,0.0059417,-0.00015122,-1504.4,1.8084
3049,17.366,1.6364,0,0.00014721,1471.1,5.036e-05,21.343,4.752e-05,0.006216,-0.00014684,-1460.3,1.8377
3050,17.551,1.6364,0,0.00014287,1427.7,4.8995e-05,22.162,4.6046e-05,0.0064896,-0.00014248,-1416.5,1.8671
3051,17.735,1.6364,0,0.00013855,1384.6,4.7641e-05,23.032,4.4577e-05,0.0067766,-0.00013815,-1372.9,1.8965
3052,17.919,1.6364,0,0.00013425,1341.6,4.63e-05,23.958,4.3112e-05,0.0070723,-0.00013383,-1329.5,1.9261
3053,18.103,1.6364,0,0.00012998,1298.9,4.4972e-05,24.946,4.1653e-05,0.007406,-0.00012954,-1286.3,1.9558
3054,18.288,1.6364,0,0.00012573,1256.4,4.3657e-05,26,4.0197e-05,0.0077829,-0.00012527,-1243.2,1.9855
3055,18.472,1.6364,0,0.0001215,1214.2,4.2355e-05,27.128,3.8746e-05,0.0081737,-0.00012102,-1200.4,2.0153
3056,18.656,1.6364,0,0.0001173,1172.2,4.1069e-05,28.335,3.7299e-05,0.0085881,-0.0001168,-1157.8,2.0453
3057,18.841,1.6364,0,0.00011313,1130.5,3.9797e-05,29.629,3.5855e-05,0.0090267,-0.00011259,-1115.4,2.0752
3058,19.025,1.6364,0,0.00010898,1089,3.8542e-05,31.017,3.4415e-05,0.0095202,-0.00010841,-1073.2,2.1053
3059,19.209,1.6364,0,0.00010485,1047.8,3.7304e-05,32.508,3.2978e-05,0.010071,-0.00010426,-1031.1,2.1355
3060,19.393,1.6364,0,0.00010075,1006.8,3.6083e-05,34.109,3.1544e-05,0.010657,-0.00010013,-989.31,2.1657
3061,19.578,1.6364,0,9.6677e-05,966.11,3.4881e-05,35.832,3.0113e-05,0.011299,-9.6018e-05,-947.69,2.1959
3062,19.762,1.6364,0,9.2633e-05,925.69,3.3698e-05,37.684,2.8684e-05,0.011993,-9.1934e-05,-906.26,2.2263
3063,19.946,1.6364,0,8.8616e-05,885.55,3.2536e-05,39.679,2.7257e-05,0.012774,-8.7874e-05,-865.04,2.2567
3064,20.13,1.6364,0,8.4628e-05,845.7,3.1396e-05,41.828,2.5831e-05,0.013651,-8.3839e-05,-824,2.2872
3065,20.315,1.6364,0,8.0671e-05,806.16,3.0279e-05,44.143,2.4406e-05,0.014614,-7.9829e-05,-783.17,2.3177
3066,20.499,1.6364,0,7.6745e-05,766.92,2.9187e-05,46.64,2.2982e-05,0.015696,-7.5845e-05,-742.53,2.3482
3067,20.683,1.6364,0,7.2852e-05,728.02,2.8121e-05,49.335,2.1557e-05,0.0169,-7.1887e-05,-702.09,2.3789
3068,20.867,1.6364,0,6.8993e-05,689.45,2.7083e-05,52.243,2.0132e-05,0.01828,-6.7955e-05,-661.84,2.4095
3069,21.052,1.6364,0,6.517e-05,651.25,2.6075e-05,55.385,1.8706e-05,0.019857,-6.4051e-05,-621.78,2.4403
3070,21.236,1.6364,0,6.1386e-05,613.43,2.5098e-05,58.783,1.7277e-05,0.021666,-6.0174e-05,-581.92,2.471
3071,21.42,1.6364,0,5.7642e-05,576.03,2.4156e-05,62.459,1.5846e-05,0.023758,-5.6325e-05,-542.24,2.5018
3072,21.605,1.6364,0,5.3944e-05,539.07,2.325e-05,66.44,1.4411e-05,0.026199,-5.2505e-05,-502.76,2.5327
3073,21.789,1.6364,0,5.0294e-05,502.6,2.2384e-05,70.755,1.2971e-05,0.029094,-4.8715e-05,-463.46,2.5636
3074,21.973,1.6364,0,4.67e-05,466.67,2.1561e-05,75.439,1.1525e-05,0.032563,-4.4956e-05,-424.35,2.5945
3075,22.157,1.6364,0,4.3166e-05,431.36,2.0784e-05,80.526,1.0072e-05,0.036766,-4.1228e-05,-385.41,2.6254
3076,22.342,1.6364,0,3.9704e-05,396.76,2.0058e-05,86.057,8.6099e-06,0.041943,-3.7533e-05,-346.66,2.6564
3077,22.526,1.6364,0,3.6323e-05,362.98,1.9385e-05,92.074,7.1374e-06,0.048497,-3.387e-05,-308.06,2.6874
3078,22.71,1.6364,0,3.3041e-05,330.18,1.8771e-05,98.621,5.6524e-06,0.05686,-3.0239e-05,-269.62,2.7184
3079,22.894,1.6364,0,2.9877e-05,298.57,1.8217e-05,105.74,4.1528e-06,0.068623,-2.6639e-05,-231.29,2.7494
3080,23.079,1.6364,0,2.6862e-05,268.44,1.7728e-05,113.48,2.636e-06,0.08307,-2.3068e-05,-193.05,2.7805
3081,23.263,1.6364,0,2.4037e-05,240.2,1.7304e-05,121.86,1.1004e-06,0.11353,-1.9523e-05,-154.84,2.8115
3082,23.447,1.6364,0,2.146e-05,214.45,1.6945e-05,130.9,-4.5921e-07,0.1295,-1.5995e-05,-116.6,2.8426
3083,23.631,1.6364,0,1.922e-05,192.07,1.6648e-05,140.65,-2.0299e-06,0.31053,-1.2484e-05,-78.241,2.8737
3084,23.816,1.6364,0,1.7443e-05,174.31,1.6417e-05,150.94,-3.6494e-06,0.16689,-8.9848e-06,-39.921,2.9048
3085,1.1509,1.4545,0,0.00080094,8003.9,0.00053895,3506.7,6.7328e-05,-36.844,-0.0006807,-5657.2,0.01009
3086,1.3352,1.4545,0,0.0007007,7002.1,0.00040361,2163.3,0.00011553,-1.2203,-0.00063834,-5665.5,0.018137
3087,1.5195,1.4545,0,0.00065219,6517.4,0.00032315,1329.8,0.00014558,-4.403,-0.00061932,-5751.5,0.02651
3088,1.7037,1.4545,0,0.0006184,6179.8,0.00026786,775.41,0.00016407,-4.4919,-0.00060158,-5757.3,0.035227
3089,1.888,1.4545,0,0.00059623,5958.2,0.00023166,419.4,0.00017521,-4.7828,-0.00058804,-5739.6,0.044313
3090,2.0723,1.4545,0,0.00058102,5806.2,0.00020813,193.25,0.00018152,-6.6911,-0.00057759,-5710.3,0.053776
3091,2.2565,1.4545,0,0.00056988,5694.8,0.0001935,55.63,0.00018393,-16.294,-0.00056917,-5674.8,0.06362
3092,2.4408,1.4545,0,0.000561,5606.2,0.00018922,9.7754,0.00017909,-66.358,-0.00056193,-5634.1,0.073847
3093,2.6251,1.4545,0,0.00055339,5530.1,0.00018901,3.7949,0.00017209,-123.36,-0.00055531,-5588.8,0.084453
3094,2.8093,1.4545,0,0.00054647,5461,0.00018852,2.0814,0.00016656,-162.93,-0.00054902,-5539.5,0.095435
3095,2.9936,1.4545,0,0.00053996,5395.9,0.00018756,1.3028,0.00016227,-188.74,-0.0005429,-5487.1,0.10679
3096,3.1779,1.4545,0,0.00053371,5333.4,0.00018624,0.87206,0.00015888,-204.67,-0.00053688,-5432.3,0.11851
3097,3.3621,1.4545,0,0.00052763,5272.6,0.00018463,0.60766,0.00015614,-213.45,-0.00053092,-5375.8,0.1306
3098,3.5464,1.4545,0,0.00052169,5213.3,0.00018283,0.4351,0.00015389,-216.97,-0.00052503,-5318.1,0.14305
3099,3.7307,1.4545,0,0.00051586,5155,0.00018088,0.31789,0.00015201,-216.59,-0.00051919,-5259.7,0.15586
3100,3.9149,1.4545,0,0.00051013,5097.8,0.00017882,0.236,0.0001504,-213.29,-0.00051342,-5201,0.16902
3101,4.0992,1.4545,0,0.0005045,5041.5,0.00017669,0.17757,0.000149,-207.82,-0.00050771,-5142.1,0.18253
3102,4.2835,1.4545,0,0.00049894,4985.9,0.00017451,0.13519,0.00014777,-200.76,-0.00050205,-5083.2,0.19638
3103,4.4677,1.4545,0,0.00049345,4931.1,0.00017229,0.10401,0.00014665,-192.56,-0.00049644,-5024.5,0.21057
3104,4.652,1.4545,0,0.00048803,4876.9,0.00017006,0.08081,0.00014562,-183.59,-0.00049089,-4966,0.2251
3105,4.8363,1.4545,0,0.00048265,4823.2,0.00016783,0.063365,0.00014464,-174.14,-0.00048537,-4907.8,0.23997
3106,5.0205,1.4545,0,0.00047732,4769.9,0.00016559,0.05013,0.0001437,-164.43,-0.0004799,-4849.9,0.25516
3107,5.2048,1.4545,0,0.00047202,4716.9,0.00016337,0.040008,0.00014278,-154.64,-0.00047446,-4792.3,0.27068
3108,5.3891,1.4545,0,0.00046674,4664.2,0.00016115,0.03221,0.00014186,-144.93,-0.00046904,-4735,0.28652
3109,5.5733,1.4545,0,0.00046149,4611.8,0.00015895,0.026164,0.00014093,-135.4,-0.00046365,-4678,0.30268
3110,5.7576,1.4545,0,0.00045626,4559.5,0.00015677,0.02145,0.00013998,-126.13,-0.00045827,-4621.2,0.31916
3111,5.9419,1.4545,0,0.00045104,4507.3,0.00015461,0.017755,0.00013901,-117.19,-0.00045292,-4564.7,0.33594
3112,6.1261,1.4545,0,0.00044583,4455.2,0.00015247,0.014846,0.00013801,-108.62,-0.00044757,-4508.5,0.35304
3113,6.3104,1.4545,0,0.00044062,4403.2,0.00015035,0.012547,0.00013698,-100.44,-0.00044224,-4452.5,0.37044
3114,6.4947,1.4545,0,0.00043542,4351.2,0.00014826,0.010724,0.00013592,-92.673,-0.00043692,-4396.8,0.38814
3115,6.6789,1.4545,0,0.00043022,4299.3,0.00014618,0.0092734,0.00013482,-85.327,-0.00043161,-4341.3,0.40613
3116,6.8632,1.4545,0,0.00042503,4247.3,0.00014413,0.0081174,0.00013369,-78.4,-0.00042631,-4286,0.42442
3117,7.0475,1.4545,0,0.00041983,4195.4,0.00014209,0.0071947,0.00013252,-71.887,-0.00042101,-4230.9,0.443
3118,7.2317,1.4545,0,0.00041464,4143.6,0.00014008,0.0064574,0.00013132,-65.776,-0.00041572,-4176.1,0.46186
3119,7.416,1.4545,0,0.00040946,4091.7,0.00013808,0.0058685,0.00013009,-60.055,-0.00041044,-4121.4,0.48101
3120,7.6003,1.4545,0,0.00040427,4039.9,0.00013611,0.0053993,0.00012883,-54.709,-0.00040517,-4067,0.50043
3121,7.7845,1.4545,0,0.00039909,3988.1,0.00013415,0.0050266,0.00012754,-49.719,-0.00039991,-4012.7,0.52013
3122,7.9688,1.4545,0,0.00039391,3936.4,0.00013222,0.0047337,0.00012622,-45.069,-0.00039465,-3958.7,0.5401
3123,8.1531,1.4545,0,0.00038873,3884.6,0.00013029,0.0045051,0.00012487,-40.739,-0.00038941,-3904.8,0.56034
3124,8.3373,1.4545,0,0.00038356,3833,0.00012839,0.0043317,0.0001235,-36.711,-0.00038417,-3851.2,0.58084
3125,8.5216,1.4545,0,0.0003784,3781.3,0.0001265,0.0042048,0.00012211,-32.968,-0.00037895,-3797.7,0.60161
3126,8.7059,1.4545,0,0.00037324,3729.8,0.00012463,0.0041188,0.0001207,-29.491,-0.00037373,-3744.5,0.62263
3127,8.8901,1.4545,0,0.00036809,3678.3,0.00012277,0.0040682,0.00011927,-26.262,-0.00036853,-3691.4,0.6439
3128,9.0744,1.4545,0,0.00036294,3626.9,0.00012092,0.0040534,0.00011782,-23.266,-0.00036333,-3638.5,0.66543
3129,9.2587,1.4545,0,0.00035781,3575.6,0.00011909,0.0040718,0.00011636,-20.486,-0.00035815,-3585.8,0.6872
3130,9.4429,1.4545,0,0.00035268,3524.4,0.00011727,0.0041252,0.00011489,-17.908,-0.00035298,-3533.3,0.70921
3131,9.6272,1.4545,0,0.00034757,3473.3,0.00011547,0.0042181,0.0001134,-15.516,-0.00034783,-3481,0.73147
3132,9.8115,1.4545,0,0.00034246,3422.3,0.00011367,0.0043645,0.0001119,-13.298,-0.00034269,-3428.9,0.75396
3133,9.9957,1.4545,0,0.00033737,3371.4,0.00011189,0.0045627,0.00011039,-11.241,-0.00033756,-3377,0.77668
3134,10.18,1.4545,0,0.00033229,3320.6,0.00011012,0.0048464,0.00010887,-9.3319,-0.00033245,-3325.2,0.79963
3135,10.364,1.4545,0,0.00032722,3269.9,0.00010836,0.0052628,0.00010735,-7.5607,-0.00032735,-3273.7,0.82281
3136,10.549,1.4545,0,0.00032216,3219.4,0.00010661,0.0058341,0.00010582,-5.9169,-0.00032226,-3222.4,0.84621
3137,10.733,1.4545,0,0.00031712,3169,0.00010487,0.0068209,0.00010428,-4.3906,-0.0003172,-3171.2,0.86982
3138,10.917,1.4545,0,0.00031209,3118.8,0.00010314,0.008696,0.00010274,-2.973,-0.00031214,-3120.3,0.89366
3139,11.101,1.4545,0,0.00030708,3068.7,0.00010142,0.013213,0.0001012,-1.6577,-0.00030711,-3069.5,0.9177
3140,11.286,1.4545,0,0.00030208,3018.7,9.9713e-05,0.039939,9.9647e-05,-0.45594,-0.00030209,-3018.9,0.94195
3141,11.47,1.4545,0,0.0002971,2968.9,9.8106e-05,0.74805,9.8004e-05,-0.019769,-0.00029709,-2968.6,0.96641
3142,11.654,1.4545,0,0.00029213,2919.3,9.6554e-05,1.8021,9.6313e-05,-0.0064296,-0.0002921,-2918.4,0.99107
3143,11.838,1.4545,0,0.00028718,2869.8,9.5003e-05,2.7956,9.463e-05,-0.0030232,-0.00028713,-2868.4,1.0159
3144,12.023,1.4545,0,0.00028224,2820.5,9.3452e-05,3.7263,9.2956e-05,-0.0014852,-0.00028218,-2818.6,1.041
3145,12.207,1.4545,0,0.00027733,2771.3,9.1902e-05,4.599,9.1289e-05,-0.00060421,-0.00027725,-2769,1.0662
3146,12.391,1.4545,0,0.00027242,2722.4,9.0353e-05,5.4183,8.9631e-05,-5.3763e-05,-0.00027233,-2719.6,1.0917
3147,12.575,1.4545,0,0.00026754,2673.6,8.8805e-05,6.1894,8.7981e-05,0.0003624,-0.00026743,-2670.5,1.1173
3148,12.76,1.4545,0,0.00026267,2624.9,8.726e-05,6.9168,8.6339e-05,0.00071537,-0.00026256,-2621.5,1.1431
3149,12.944,1.4545,0,0.00025782,2576.5,8.5717e-05,7.6048,8.4705e-05,0.00097345,-0.00025769,-2572.7,1.169
3150,13.128,1.4545,0,0.00025299,2528.2,8.4178e-05,8.2575,8.3079e-05,0.0011819,-0.00025285,-2524.1,1.1952
3151,13.313,1.4545,0,0.00024818,2480.1,8.2641e-05,8.8789,8.146e-05,0.0013347,-0.00024803,-2475.6,1.2215
3152,13.497,1.4545,0,0.00024339,2432.2,8.1109e-05,9.4726,7.9848e-05,0.0014974,-0.00024322,-2427.4,1.248
3153,13.681,1.4545,0,0.00023861,2384.5,7.958e-05,10.042,7.8244e-05,0.0016745,-0.00023844,-2379.4,1.2747
3154,13.865,1.4545,0,0.00023385,2336.9,7.8056e-05,10.591,7.6647e-05,0.0018141,-0.00023367,-2331.6,1.3015
3155,14.05,1.4545,0,0.00022912,2289.6,7.6537e-05,11.123,7.5057e-05,0.0019391,-0.00022893,-2284,1.3284
3156,14.234,1.4545,0,0.0002244,2242.4,7.5023e-05,11.64,7.3474e-05,0.002035,-0.0002242,-2236.6,1.3556
3157,14.418,1.4545,0,0.0002197,2195.5,7.3514e-05,12.146,7.1898e-05,0.0021541,-0.00021949,-2189.4,1.3829
3158,14.602,1.4545,0,0.00021502,2148.7,7.2011e-05,12.643,7.0329e-05,0.0023036,-0.0002148,-2142.4,1.4103
3159,14.787,1.4545,0,0.00021036,2102.1,7.0515e-05,13.135,6.8767e-05,0.0024241,-0.00021013,-2095.5,1.4379
3160,14.971,1.4545,0,0.00020572,2055.8,6.9024e-05,13.625,6.7211e-05,0.0025395,-0.00020548,-2048.9,1.4656
3161,15.155,1.4545,0,0.0002011,2009.6,6.754e-05,14.114,6.5662e-05,0.0026367,-0.00020085,-2002.5,1.4934
3162,15.339,1.4545,0,0.0001965,1963.6,6.6063e-05,14.606,6.4119e-05,0.0027629,-0.00019624,-1956.3,1.5214
3163,15.524,1.4545,0,0.00019192,1917.8,6.4593e-05,15.105,6.2583e-05,0.0029144,-0.00019165,-1910.2,1.5496
3164,15.708,1.4545,0,0.00018736,1872.3,6.313e-05,15.611,6.1053e-05,0.0030499,-0.00018709,-1864.4,1.5778
3165,15.892,1.4545,0,0.00018282,1826.9,6.1675e-05,16.13,5.9529e-05,0.0031887,-0.00018254,-1818.8,1.6062
3166,16.077,1.4545,0,0.0001783,1781.8,6.0229e-05,16.662,5.8011e-05,0.0033064,-0.00017801,-1773.4,1.6347
3167,16.261,1.4545,0,0.0001738,1736.8,5.879e-05,17.212,5.65e-05,0.0034594,-0.0001735,-1728.1,1.6633
3168,16.445,1.4545,0,0.00016932,1692.1,5.736e-05,17.782,5.4994e-05,0.0036418,-0.00016901,-1683.1,1.6921
3169,16.629,1.4545,0,0.00016487,1647.5,5.5939e-05,18.376,5.3494e-05,0.0038106,-0.00016455,-1638.3,1.7209
3170,16.814,1.4545,0,0.00016043,1603.2,5.4528e-05,18.997,5.2e-05,0.0039908,-0.0001601,-1593.6,1.7499
3171,16.998,1.4545,0,0.00015602,1559.1,5.3126e-05,19.649,5.0511e-05,0.0041588,-0.00015568,-1549.2,1.779
3172,17.182,1.4545,0,0.00015163,1515.3,5.1733e-05,20.334,4.9028e-05,0.0043582,-0.00015127,-1505,1.8081
3173,17.366,1.4545,0,0.00014726,1471.6,5.0352e-05,21.057,4.755e-05,0.0045978,-0.00014689,-1461,1.8374
3174,17.551,1.4545,0,0.00014291,1428.2,4.8981e-05,21.823,4.6077e-05,0.0048291,-0.00014253,-1417.1,1.8668
3175,17.735,1.4545,0,0.00013859,1384.9,4.7621e-05,22.634,4.4609e-05,0.0050755,-0.00013819,-1373.5,1.8963
3176,17.919,1.4545,0,0.00013429,1342,4.6273e-05,23.496,4.3147e-05,0.0053256,-0.00013387,-1330,1.9259
3177,18.103,1.4545,0,0.00013001,1299.2,4.4937e-05,24.414,4.1688e-05,0.0056106,-0.00012958,-1286.8,1.9555
3178,18.288,1.4545,0,0.00012575,1256.7,4.3613e-05,25.392,4.0235e-05,0.0059348,-0.0001253,-1243.8,1.9853
3179,18.472,1.4545,0,0.00012152,1214.4,4.2303e-05,26.436,3.8786e-05,0.0062712,-0.00012105,-1200.9,2.0151
3180,18.656,1.4545,0,0.00011731,1172.3,4.1007e-05,27.552,3.734e-05,0.0066318,-0.00011682,-1158.3,2.045
3181,18.841,1.4545,0,0.00011313,1130.5,3.9724e-05,28.747,3.5899e-05,0.0070102,-0.00011261,-1115.8,2.075
3182,19.025,1.4545,0,0.00010897,1088.9,3.8457e-05,30.026,3.4462e-05,0.0074394,-0.00010842,-1073.6,2.1051
3183,19.209,1.4545,0,0.00010483,1047.6,3.7205e-05,31.397,3.3028e-05,0.0079221,-0.00010426,-1031.5,2.1353
3184,19.393,1.4545,0,0.00010072,1006.5,3.597e-05,32.868,3.1597e-05,0.0084393,-0.00010012,-989.66,2.1655
3185,19.578,1.4545,0,9.6634e-05,965.68,3.4752e-05,34.447,3.0169e-05,0.0090038,-9.6002e-05,-947.99,2.1958
3186,19.762,1.4545,0,9.2576e-05,925.12,3.3552e-05,36.144,2.8743e-05,0.0096196,-9.1908e-05,-906.51,2.2261
3187,19.946,1.4545,0,8.8544e-05,884.83,3.2371e-05,37.968,2.732e-05,0.010311,-8.7837e-05,-865.23,2.2565
3188,20.13,1.4545,0,8.454e-05,844.82,3.1211e-05,39.93,2.5898e-05,0.011098,-8.379e-05,-824.14,2.287
3189,20.315,1.4545,0,8.0565e-05,805.09,3.0071e-05,42.041,2.4478e-05,0.011963,-7.9767e-05,-783.24,2.3175
3190,20.499,1.4545,0,7.6619e-05,765.66,2.8955e-05,44.316,2.3058e-05,0.01294,-7.5768e-05,-742.53,2.3481
3191,20.683,1.4545,0,7.2703e-05,726.53,2.7862e-05,46.768,2.1639e-05,0.014038,-7.1794e-05,-702.01,2.3787
3192,20.867,1.4545,0,6.882e-05,687.72,2.6795e-05,49.413,2.022e-05,0.015301,-6.7846e-05,-661.68,2.4094
3193,21.052,1.4545,0,6.497e-05,649.26,2.5755e-05,52.27,1.88e-05,0.016755,-6.3923e-05,-621.53,2.4401
3194,21.236,1.4545,0,6.1157e-05,611.15,2.4744e-05,55.358,1.7379e-05,0.018436,-6.0027e-05,-581.58,2.4709
3195,21.42,1.4545,0,5.7382e-05,573.43,2.3766e-05,58.701,1.5956e-05,0.020395,-5.6158e-05,-541.81,2.5017
3196,21.605,1.4545,0,5.365e-05,536.13,2.2821e-05,62.325,1.4529e-05,0.022695,-5.2317e-05,-502.23,2.5325
3197,21.789,1.4545,0,4.9963e-05,499.29,2.1914e-05,66.26,1.3099e-05,0.025447,-4.8505e-05,-462.84,2.5634
3198,21.973,1.4545,0,4.6329e-05,462.97,2.1048e-05,70.54,1.1663e-05,0.028763,-4.4724e-05,-423.64,2.5943
3199,22.157,1.4545,0,4.2753e-05,427.24,2.0226e-05,75.205,1.0221e-05,0.032812,-4.0974e-05,-384.63,2.6253
3200,22.342,1.4545,0,3.9246e-05,392.19,1.9454e-05,80.301,8.7717e-06,0.037827,-3.7258e-05,-345.81,2.6563
3201,22.526,1.4545,0,3.5819e-05,357.94,1.8736e-05,85.876,7.3124e-06,0.044211,-3.3576e-05,-307.18,2.6873
3202,22.71,1.4545,0,3.2488e-05,324.66,1.8077e-05,91.987,5.8416e-06,0.052383,-2.993e-05,-268.72,2.7183
3203,22.894,1.4545,0,2.9276e-05,292.56,1.7483e-05,98.692,4.3568e-06,0.063912,-2.632e-05,-230.43,2.7493
3204,23.079,1.4545,0,2.6212e-05,261.94,1.6959e-05,106.05,2.8553e-06,0.078052,-2.2745e-05,-192.27,2.7804
3205,23.263,1.4545,0,2.3339e-05,233.23,1.6507e-05,114.11,1.3348e-06,0.10801,-1.9202e-05,-154.2,2.8114
3206,23.447,1.4545,0,2.0718e-05,207.03,1.6129e-05,122.89,-2.1038e-07,0.12329,-1.5685e-05,-116.14,2.8425
3207,23.631,1.4545,0,1.8439e-05,184.26,1.5823e-05,132.47,-1.7685e-06,0.30195,-1.2191e-05,-78.006,2.8736
3208,23.816,1.4545,0,1.6637e-05,166.26,1.5594e-05,142.7,-3.3786e-06,0.15111,-8.7137e-06,-39.935,2.9047
3209,1.1509,1.2727,0,0.00063261,6321.7,0.00042038,2706.1,5.8905e-05,-9.8466,-0.00054132,-4519.7,0.0082293
3210,1.3352,1.2727,0,0.00057572,5753.2,0.0003319,1781.7,9.4774e-05,-0.0060017,-0.00052432,-4651.6,0.016523
3211,1.5195,1.2727,0,0.00055831,5579.3,0.0002805,1187.6,0.0001219,-4.091,-0.00052855,-4891.3,0.025125
3212,1.7037,1.2727,0,0.0005499,5495.2,0.00024451,768.76,0.00014177,-3.2102,-0.00053279,-5071.6,0.034022
3213,1.888,1.2727,0,0.00054594,5455.6,0.00021981,479.02,0.00015564,-3.1955,-0.00053624,-5201.7,0.043238
3214,2.0723,1.2727,0,0.00054409,5437.1,0.00020308,281.73,0.00016511,-3.55,-0.0005388,-5292.4,0.052796
3215,2.2565,1.2727,0,0.00054282,5424.5,0.00019162,147.35,0.00017139,-4.7049,-0.00054023,-5351.5,0.062709
3216,2.4408,1.2727,0,0.00054132,5409.4,0.00018382,57.092,0.00017507,-8.6878,-0.00054046,-5384.9,0.072982
3217,2.6251,1.2727,0,0.00053922,5388.5,0.00018043,11.97,0.00017483,-30.112,-0.00053952,-5397.5,0.08362
3218,2.8093,1.2727,0,0.00053646,5360.9,0.00018078,3.797,0.00017103,-69.447,-0.00053754,-5393.4,0.094623
3219,2.9936,1.2727,0,0.00053307,5327.1,0.00018108,1.9056,0.00016731,-101.57,-0.00053469,-5376.1,0.10599
3220,3.1779,1.2727,0,0.00052916,5287.9,0.00018087,1.1399,0.00016409,-124.95,-0.00053115,-5348.7,0.11772
3221,3.3621,1.2727,0,0.00052482,5244.5,0.0001802,0.74384,0.0001613,-141.25,-0.00052706,-5313.3,0.12981
3222,3.5464,1.2727,0,0.00052016,5198,0.00017917,0.51138,0.00015887,-151.98,-0.00052257,-5272,0.14226
3223,3.7307,1.2727,0,0.00051527,5149.1,0.00017785,0.36429,0.00015673,-158.3,-0.00051777,-5226.2,0.15507
3224,3.9149,1.2727,0,0.00051021,5098.6,0.00017631,0.26648,0.00015483,-161.13,-0.00051276,-5177.1,0.16823
3225,4.0992,1.2727,0,0.00050505,5047,0.0001746,0.19906,0.00015312,-161.2,-0.0005076,-5125.6,0.18173
3226,4.2835,1.2727,0,0.00049982,4994.7,0.00017277,0.15131,0.00015157,-159.11,-0.00050233,-5072.3,0.19558
3227,4.4677,1.2727,0,0.00049454,4942,0.00017084,0.11674,0.00015015,-155.34,-0.000497,-5017.8,0.20977
3228,4.652,1.2727,0,0.00048924,4889,0.00016884,0.09126,0.00014883,-150.31,-0.00049162,-4962.4,0.2243
3229,4.8363,1.2727,0,0.00048393,4836,0.0001668,0.072185,0.00014758,-144.34,-0.00048622,-4906.5,0.23917
3230,5.0205,1.2727,0,0.00047862,4782.9,0.00016472,0.057686,0.00014638,-137.72,-0.00048081,-4850.2,0.25436
3231,5.2048,1.2727,0,0.00047331,4729.8,0.00016262,0.046615,0.00014523,-130.67,-0.0004754,-4793.8,0.26988
3232,5.3891,1.2727,0,0.00046801,4676.8,0.00016052,0.03801,0.00014409,-123.38,-0.00046998,-4737.3,0.28572
3233,5.5733,1.2727,0,0.00046271,4623.9,0.00015841,0.031281,0.00014296,-115.99,-0.00046457,-4680.8,0.30188
3234,5.7576,1.2727,0,0.00045742,4571,0.0001563,0.025976,0.00014184,-108.62,-0.00045917,-4624.4,0.31836
3235,5.9419,1.2727,0,0.00045214,4518.3,0.0001542,0.021765,0.00014071,-101.37,-0.00045378,-4568.1,0.33515
3236,6.1261,1.2727,0,0.00044686,4465.5,0.00015211,0.018399,0.00013956,-94.296,-0.00044839,-4511.9,0.35225
3237,6.3104,1.2727,0,0.00044159,4412.9,0.00015004,0.015694,0.0001384,-87.456,-0.00044302,-4456,0.36965
3238,6.4947,1.2727,0,0.00043633,4360.3,0.00014798,0.013508,0.00013721,-80.886,-0.00043765,-4400.2,0.38735
3239,6.6789,1.2727,0,0.00043107,4307.7,0.00014593,0.011733,0.000136,-74.61,-0.00043229,-4344.6,0.40535
3240,6.8632,1.2727,0,0.00042582,4255.3,0.00014391,0.010285,0.00013477,-68.643,-0.00042695,-4289.2,0.42364
3241,7.0475,1.2727,0,0.00042057,4202.8,0.0001419,0.0090997,0.00013351,-62.992,-0.00042161,-4234,0.44222
3242,7.2317,1.2727,0,0.00041533,4150.4,0.00013991,0.0081261,0.00013223,-57.659,-0.00041628,-4179,0.46109
3243,7.416,1.2727,0,0.00041009,4098.1,0.00013793,0.0073237,0.00013092,-52.641,-0.00041096,-4124.2,0.48025
3244,7.6003,1.2727,0,0.00040486,4045.8,0.00013597,0.0066631,0.00012959,-47.929,-0.00040566,-4069.6,0.49968
3245,7.7845,1.2727,0,0.00039964,3993.6,0.00013403,0.0061168,0.00012824,-43.514,-0.00040036,-4015.2,0.51938
3246,7.9688,1.2727,0,0.00039442,3941.5,0.0001321,0.0056669,0.00012686,-39.386,-0.00039507,-3961,0.53936
3247,8.1531,1.2727,0,0.00038921,3889.4,0.00013019,0.0052983,0.00012547,-35.53,-0.0003898,-3907,0.55961
3248,8.3373,1.2727,0,0.000384,3837.4,0.0001283,0.0049987,0.00012405,-31.934,-0.00038454,-3853.3,0.58012
3249,8.5216,1.2727,0,0.00037881,3785.5,0.00012642,0.0047589,0.00012262,-28.584,-0.00037929,-3799.7,0.60089
3250,8.7059,1.2727,0,0.00037362,3733.6,0.00012455,0.0045737,0.00012116,-25.466,-0.00037405,-3746.3,0.62192
3251,8.8901,1.2727,0,0.00036844,3681.9,0.0001227,0.0044377,0.0001197,-22.565,-0.00036882,-3693.1,0.6432
3252,9.0744,1.2727,0,0.00036328,3630.3,0.00012086,0.0043497,0.00011822,-19.868,-0.00036361,-3640.2,0.66473
3253,9.2587,1.2727,0,0.00035812,3578.7,0.00011904,0.0043095,0.00011673,-17.363,-0.00035841,-3587.4,0.68651
3254,9.4429,1.2727,0,0.00035298,3527.3,0.00011723,0.0043219,0.00011522,-15.035,-0.00035323,-3534.8,0.70853
3255,9.6272,1.2727,0,0.00034784,3476,0.00011543,0.0043903,0.00011371,-12.873,-0.00034806,-3482.4,0.7308
3256,9.8115,1.2727,0,0.00034272,3424.8,0.00011364,0.0045422,0.00011219,-10.866,-0.0003429,-3430.2,0.7533
3257,9.9957,1.2727,0,0.00033761,3373.8,0.00011186,0.0047849,0.00011066,-9.0013,-0.00033776,-3378.3,0.77603
3258,10.18,1.2727,0,0.00033252,3322.9,0.00011009,0.0051745,0.00010912,-7.2699,-0.00033264,-3326.5,0.79899
3259,10.364,1.2727,0,0.00032743,3272.1,0.00010833,0.0058138,0.00010758,-5.6617,-0.00032753,-3274.9,0.82217
3260,10.549,1.2727,0,0.00032237,3221.4,0.00010659,0.0068507,0.00010603,-4.1677,-0.00032244,-3223.5,0.84558
3261,10.733,1.2727,0,0.00031731,3170.9,0.00010485,0.0089545,0.00010448,-2.7796,-0.00031736,-3172.3,0.86921
3262,10.917,1.2727,0,0.00031227,3120.6,0.00010313,0.014544,0.00010293,-1.4918,-0.0003123,-3121.3,0.89305
3263,11.101,1.2727,0,0.00030725,3070.4,0.00010141,0.05678,0.00010136,-0.33005,-0.00030726,-3070.5,0.9171
3264,11.286,1.2727,0,0.00030225,3020.4,9.9814e-05,0.86715,9.9696e-05,-0.018539,-0.00030223,-3019.9,0.94136
3265,11.47,1.2727,0,0.00029725,2970.5,9.8253e-05,1.9021,9.7999e-05,-0.0072212,-0.00029722,-2969.5,0.96583
3266,11.654,1.2727,0,0.00029228,2920.8,9.6693e-05,2.876,9.6309e-05,-0.004022,-0.00029223,-2919.3,0.9905
3267,11.838,1.2727,0,0.00028732,2871.2,9.5133e-05,3.7883,9.4628e-05,-0.0024912,-0.00028726,-2869.3,1.0154
3268,12.023,1.2727,0,0.00028238,2821.9,9.3574e-05,4.6431,9.2955e-05,-0.0016241,-0.0002823,-2819.5,1.0404
3269,12.207,1.2727,0,0.00027746,2772.7,9.2016e-05,5.4454,9.1291e-05,-0.0010662,-0.00027736,-2769.9,1.0657
3270,12.391,1.2727,0,0.00027255,2723.6,9.046e-05,6.1996,8.9635e-05,-0.00070527,-0.00027245,-2720.5,1.0911
3271,12.575,1.2727,0,0.00026766,2674.8,8.8906e-05,6.9104,8.7986e-05,-0.00040918,-0.00026754,-2671.3,1.1167
3272,12.76,1.2727,0,0.00026279,2626.1,8.7355e-05,7.582,8.6345e-05,-0.00014326,-0.00026266,-2622.3,1.1425
3273,12.944,1.2727,0,0.00025794,2577.6,8.5806e-05,8.218,8.4713e-05,4.7361e-05,-0.0002578,-2573.5,1.1685
3274,13.128,1.2727,0,0.0002531,2529.3,8.4261e-05,8.8225,8.3087e-05,0.00020051,-0.00025295,-2524.9,1.1947
3275,13.313,1.2727,0,0.00024829,2481.2,8.272e-05,9.3987,8.1469e-05,0.00030609,-0.00024813,-2476.5,1.221
3276,13.497,1.2727,0,0.00024349,2433.2,8.1183e-05,9.9503,7.9859e-05,0.00042375,-0.00024332,-2428.3,1.2475
3277,13.681,1.2727,0,0.00023871,2385.5,7.9651e-05,10.48,7.8256e-05,0.0005663,-0.00023853,-2380.2,1.2742
3278,13.865,1.2727,0,0.00023395,2337.9,7.8123e-05,10.992,7.666e-05,0.00066909,-0.00023377,-2332.4,1.301
3279,14.05,1.2727,0,0.00022921,2290.6,7.66e-05,11.488,7.5071e-05,0.00076244,-0.00022902,-2284.8,1.328
3280,14.234,1.2727,0,0.00022449,2243.4,7.5082e-05,11.971,7.3489e-05,0.00082436,-0.00022429,-2237.4,1.3551
3281,14.418,1.2727,0,0.00021979,2196.4,7.357e-05,12.444,7.1914e-05,0.00091392,-0.00021958,-2190.2,1.3824
3282,14.602,1.2727,0,0.00021511,2149.6,7.2064e-05,12.909,7.0346e-05,0.0010289,-0.00021489,-2143.1,1.4099
3283,14.787,1.2727,0,0.00021045,2103,7.0564e-05,13.37,6.8785e-05,0.0011186,-0.00021022,-2096.3,1.4374
3284,14.971,1.2727,0,0.00020581,2056.6,6.907e-05,13.829,6.723e-05,0.0012029,-0.00020557,-2049.7,1.4652
3285,15.155,1.2727,0,0.00020118,2010.4,6.7583e-05,14.288,6.5682e-05,0.0012693,-0.00020094,-2003.3,1.493
3286,15.339,1.2727,0,0.00019658,1964.5,6.6103e-05,14.749,6.414e-05,0.0013611,-0.00019633,-1957,1.521
3287,15.524,1.2727,0,0.000192,1918.7,6.4629e-05,15.217,6.2604e-05,0.0014816,-0.00019174,-1911,1.5492
3288,15.708,1.2727,0,0.00018744,1873.1,6.3164e-05,15.692,6.1075e-05,0.0015811,-0.00018717,-1865.2,1.5774
3289,15.892,1.2727,0,0.0001829,1827.7,6.1705e-05,16.177,5.9553e-05,0.0016826,-0.00018262,-1819.6,1.6058
3290,16.077,1.2727,0,0.00017837,1782.5,6.0255e-05,16.675,5.8036e-05,0.0017686,-0.00017809,-1774.1,1.6343
3291,16.261,1.2727,0,0.00017387,1737.5,5.8813e-05,17.189,5.6525e-05,0.0018847,-0.00017358,-1728.9,1.663
3292,16.445,1.2727,0,0.0001694,1692.8,5.7379e-05,17.722,5.5021e-05,0.0020246,-0.00016909,-1683.9,1.6917
3293,16.629,1.2727,0,0.00016494,1648.2,5.5954e-05,18.276,5.3522e-05,0.0021569,-0.00016462,-1639,1.7206
3294,16.814,1.2727,0,0.0001605,1603.9,5.4538e-05,18.854,5.2029e-05,0.0022895,-0.00016017,-1594.4,1.7496
3295,16.998,1.2727,0,0.00015608,1559.8,5.3131e-05,19.459,5.0541e-05,0.0024154,-0.00015574,-1549.9,1.7787
3296,17.182,1.2727,0,0.00015169,1515.9,5.1734e-05,20.095,4.9059e-05,0.0025713,-0.00015134,-1505.7,1.8078
3297,17.366,1.2727,0,0.00014732,1472.2,5.0346e-05,20.765,4.7583e-05,0.0027569,-0.00014695,-1461.7,1.8371
3298,17.551,1.2727,0,0.00014297,1428.7,4.8969e-05,21.472,4.6112e-05,0.0029386,-0.00014259,-1417.8,1.8665
3299,17.735,1.2727,0,0.00013864,1385.4,4.7603e-05,22.221,4.4646e-05,0.0031282,-0.00013825,-1374.2,1.896
3300,17.919,1.2727,0,0.00013433,1342.4,4.6247e-05,23.014,4.3184e-05,0.003318,-0.00013392,-1330.7,1.9256
3301,18.103,1.2727,0,0.00013005,1299.6,4.4903e-05,23.857,4.1728e-05,0.0035423,-0.00012962,-1287.5,1.9553
3302,18.288,1.2727,0,0.00012578,1257,4.3571e-05,24.753,4.0277e-05,0.0038034,-0.00012534,-1244.4,1.985
3303,18.472,1.2727,0,0.00012154,1214.6,4.2251e-05,25.708,3.883e-05,0.0040688,-0.00012109,-1201.5,2.0149
3304,18.656,1.2727,0,0.00011733,1172.5,4.0943e-05,26.727,3.7387e-05,0.0043561,-0.00011685,-1158.9,2.0448
3305,18.841,1.2727,0,0.00011313,1130.6,3.9649e-05,27.814,3.5948e-05,0.0046549,-0.00011263,-1116.4,2.0748
3306,19.025,1.2727,0,0.00010896,1088.9,3.8369e-05,28.977,3.4513e-05,0.0050013,-0.00010844,-1074.1,2.1049
3307,19.209,1.2727,0,0.00010482,1047.4,3.7104e-05,30.22,3.3082e-05,0.0053953,-0.00010427,-1032,2.135
3308,19.393,1.2727,0,0.00010069,1006.3,3.5853e-05,31.551,3.1655e-05,0.0058167,-0.00010012,-990.1,2.1653
3309,19.578,1.2727,0,9.6597e-05,965.3,3.4618e-05,32.977,3.023e-05,0.0062785,-9.5993e-05,-948.39,2.1956
3310,19.762,1.2727,0,9.2524e-05,924.6,3.34e-05,34.505,2.8808e-05,0.006786,-9.1888e-05,-906.86,2.2259
3311,19.946,1.2727,0,8.8476e-05,884.15,3.2199e-05,36.145,2.7389e-05,0.0073624,-8.7806e-05,-865.52,2.2563
3312,20.13,1.2727,0,8.4455e-05,843.96,3.1016e-05,37.906,2.5972e-05,0.0080269,-8.3746e-05,-824.37,2.2868
3313,20.315,1.2727,0,8.046e-05,804.04,2.9852e-05,39.797,2.4557e-05,0.0087609,-7.9708e-05,-783.4,2.3173
3314,20.499,1.2727,0,7.6492e-05,764.39,2.8709e-05,41.831,2.3143e-05,0.0095957,-7.5694e-05,-742.61,2.3479
3315,20.683,1.2727,0,7.2553e-05,725.03,2.7587e-05,44.02,2.173e-05,0.01054,-7.1704e-05,-702.01,2.3786
3316,20.867,1.2727,0,6.8644e-05,685.96,2.6488e-05,46.379,2.0317e-05,0.011641,-6.7737e-05,-661.59,2.4092
3317,21.052,1.2727,0,6.4766e-05,647.21,2.5414e-05,48.923,1.8905e-05,0.012923,-6.3794e-05,-621.35,2.44
3318,21.236,1.2727,0,6.0921e-05,608.79,2.4366e-05,51.671,1.7491e-05,0.014417,-5.9877e-05,-581.3,2.4707
3319,21.42,1.2727,0,5.7112e-05,570.72,2.3347e-05,54.645,1.6077e-05,0.016179,-5.5985e-05,-541.43,2.5016
3320,21.605,1.2727,0,5.3341e-05,533.04,2.2359e-05,57.87,1.466e-05,0.018271,-5.212e-05,-501.74,2.5324
3321,21.789,1.2727,0,4.9614e-05,495.79,2.1405e-05,61.374,1.324e-05,0.020798,-4.8283e-05,-462.24,2.5633
3322,21.973,1.2727,0,4.5934e-05,459.02,2.049e-05,65.194,1.1816e-05,0.023881,-4.4476e-05,-422.93,2.5942
3323,22.157,1.2727,0,4.231e-05,422.81,1.9616e-05,69.369,1.0387e-05,0.027686,-4.07e-05,-383.82,2.6252
3324,22.342,1.2727,0,3.875e-05,387.23,1.8789e-05,73.95,8.9512e-06,0.032446,-3.6958e-05,-344.91,2.6561
3325,22.526,1.2727,0,3.5267e-05,352.42,1.8015e-05,78.993,7.5072e-06,0.038562,-3.3252e-05,-306.21,2.6871
3326,22.71,1.2727,0,3.1877e-05,318.55,1.7302e-05,84.565,6.0529e-06,0.046444,-2.9585e-05,-267.72,2.7182
3327,22.894,1.2727,0,2.8603e-05,285.84,1.6655e-05,90.741,4.5859e-06,0.057637,-2.5958e-05,-229.44,2.7492
3328,23.079,1.2727,0,2.5477e-05,254.6,1.6083e-05,97.6,3.1028e-06,0.071361,-2.2373e-05,-191.34,2.7803
3329,23.263,1.2727,0,2.2544e-05,225.28,1.5592e-05,105.22,1.6012e-06,0.10067,-1.8829e-05,-153.41,2.8113
3330,23.447,1.2727,0,1.9865e-05,198.51,1.5186e-05,113.66,7.4198e-08,0.1151,-1.5321e-05,-115.56,2.8424
3331,23.631,1.2727,0,1.7536e-05,175.24,1.4865e-05,123.01,-1.4676e-06,0.29076,-1.1845e-05,-77.684,2.8735
3332,23.816,1.2727,0,1.5703e-05,156.92,1.4638e-05,133.14,-3.0653e-06,0.13132,-8.3961e-06,-39.923,2.9046
3333,1.1509,1.0909,0,0.00050401,5036.6,0.00032816,2060,5.2282e-05,-12.908,-0.00043608,-3682.3,0.0064053
3334,1.3352,1.0909,0,0.00047121,4708.8,0.00026606,1384.7,8.1816e-05,0.3797,-0.00043212,-3861.1,0.014849
3335,1.5195,1.0909,0,0.00047496,4746.3,0.0002358,974.28,0.00010567,-3.4976,-0.00045082,-4184.7,0.023646
3336,1.7037,1.0909,0,0.00048542,4850.9,0.00021587,679.24,0.00012515,-2.4045,-0.0004703,-4476.4,0.032704
3337,1.888,1.0909,0,0.00049706,4967.2,0.00020265,467.38,0.00014012,-2.4629,-0.00048748,-4718,0.042045
3338,2.0723,1.0909,0,0.00050746,5071.1,0.00019368,315.31,0.0001514,-2.3623,-0.00050139,-4907.2,0.051697
3339,2.2565,1.0909,0,0.0005156,5152.4,0.00018725,204.46,0.00015971,-2.5086,-0.00051185,-5048.3,0.061678
3340,2.4408,1.0909,0,0.00052125,5209,0.00018234,122.27,0.00016567,-2.9634,-0.00051911,-5148.2,0.072
3341,2.6251,1.0909,0,0.00052461,5242.5,0.00017841,60.912,0.00016974,-4.2908,-0.00052362,-5213.9,0.082672
3342,2.8093,1.0909,0,0.00052599,5256.2,0.00017564,18.693,0.00017179,-10.213,-0.00052584,-5251.9,0.093699
3343,2.9936,1.0909,0,0.00052573,5253.7,0.00017548,4.2711,0.00017052,-32.941,-0.00052621,-5267.9,0.10508
3344,3.1779,1.0909,0,0.00052418,5238.2,0.00017604,1.7696,0.00016795,-59,-0.00052513,-5266.6,0.11682
3345,3.3621,1.0909,0,0.00052163,5212.7,0.00017616,0.97595,0.0001654,-79.881,-0.00052292,-5251.7,0.12892
3346,3.5464,1.0909,0,0.0005183,5179.5,0.0001758,0.61271,0.000163,-95.576,-0.00051985,-5226.3,0.14137
3347,3.7307,1.0909,0,0.0005144,5140.4,0.00017505,0.4142,0.00016078,-106.82,-0.00051613,-5192.8,0.15418
3348,3.9149,1.0909,0,0.00051007,5097.1,0.00017398,0.29401,0.00015872,-114.33,-0.00051191,-5153.2,0.16733
3349,4.0992,1.0909,0,0.00050542,5050.7,0.00017265,0.21619,0.00015682,-118.76,-0.00050733,-5108.9,0.18084
3350,4.2835,1.0909,0,0.00050055,5002,0.00017114,0.16333,0.00015505,-120.67,-0.00050249,-5061.2,0.19469
3351,4.4677,1.0909,0,0.00049552,4951.8,0.00016947,0.1261,0.00015341,-120.54,-0.00049746,-5010.9,0.20888
3352,4.652,1.0909,0,0.00049038,4900.4,0.00016768,0.099115,0.00015186,-118.8,-0.00049229,-4958.7,0.2234
3353,4.8363,1.0909,0,0.00048516,4848.2,0.00016581,0.079097,0.00015039,-115.81,-0.00048702,-4905.1,0.23827
3354,5.0205,1.0909,0,0.00047989,4795.6,0.00016388,0.063955,0.00014898,-111.86,-0.00048169,-4850.5,0.25346
3355,5.2048,1.0909,0,0.00047459,4742.6,0.0001619,0.052307,0.00014762,-107.22,-0.00047632,-4795.3,0.26898
3356,5.3891,1.0909,0,0.00046927,4689.5,0.00015989,0.04324,0.0001463,-102.08,-0.00047092,-4739.6,0.28482
3357,5.5733,1.0909,0,0.00046394,4636.2,0.00015786,0.03608,0.000145,-96.635,-0.00046551,-4683.7,0.30099
3358,5.7576,1.0909,0,0.0004586,4582.9,0.00015583,0.030372,0.00014371,-91.013,-0.00046008,-4627.7,0.31747
3359,5.9419,1.0909,0,0.00045327,4529.5,0.00015379,0.025778,0.00014243,-85.331,-0.00045466,-4571.6,0.33426
3360,6.1261,1.0909,0,0.00044793,4476.2,0.00015175,0.02205,0.00014114,-79.674,-0.00044923,-4515.5,0.35136
3361,6.3104,1.0909,0,0.0004426,4423,0.00014972,0.019003,0.00013985,-74.113,-0.00044382,-4459.6,0.36877
3362,6.4947,1.0909,0,0.00043728,4369.8,0.00014769,0.016495,0.00013855,-68.699,-0.00043841,-4403.7,0.38647
3363,6.6789,1.0909,0,0.00043196,4316.7,0.00014568,0.014418,0.00013723,-63.469,-0.00043301,-4348,0.40448
3364,6.8632,1.0909,0,0.00042665,4263.6,0.00014368,0.012688,0.0001359,-58.45,-0.00042762,-4292.5,0.42278
3365,7.0475,1.0909,0,0.00042135,4210.6,0.0001417,0.011239,0.00013455,-53.661,-0.00042224,-4237.2,0.44136
3366,7.2317,1.0909,0,0.00041606,4157.7,0.00013973,0.010021,0.00013319,-49.11,-0.00041687,-4182,0.46024
3367,7.416,1.0909,0,0.00041077,4104.9,0.00013777,0.0089925,0.0001318,-44.803,-0.00041151,-4127.1,0.4794
3368,7.6003,1.0909,0,0.00040549,4052.1,0.00013583,0.0081213,0.0001304,-40.739,-0.00040617,-4072.4,0.49884
3369,7.7845,1.0909,0,0.00040023,3999.5,0.0001339,0.0073821,0.00012899,-36.916,-0.00040084,-4017.8,0.51855
3370,7.9688,1.0909,0,0.00039497,3946.9,0.00013199,0.0067548,0.00012755,-33.327,-0.00039552,-3963.5,0.53854
3371,8.1531,1.0909,0,0.00038972,3894.5,0.00013009,0.0062233,0.0001261,-29.965,-0.00039022,-3909.4,0.55879
3372,8.3373,1.0909,0,0.00038448,3842.1,0.00012821,0.0057767,0.00012463,-26.821,-0.00038493,-3855.5,0.57931
3373,8.5216,1.0909,0,0.00037925,3789.9,0.00012633,0.0054035,0.00012316,-23.884,-0.00037965,-3801.8,0.60009
3374,8.7059,1.0909,0,0.00037404,3737.8,0.00012448,0.0050984,0.00012166,-21.143,-0.00037439,-3748.3,0.62113
3375,8.8901,1.0909,0,0.00036883,3685.8,0.00012263,0.0048582,0.00012016,-18.589,-0.00036914,-3695,0.64242
3376,9.0744,1.0909,0,0.00036364,3633.9,0.0001208,0.0046831,0.00011865,-16.21,-0.00036391,-3642,0.66396
3377,9.2587,1.0909,0,0.00035846,3582.1,0.00011898,0.0045725,0.00011712,-13.996,-0.00035869,-3589.1,0.68575
3378,9.4429,1.0909,0,0.00035329,3530.5,0.00011718,0.0045385,0.00011559,-11.936,-0.00035349,-3536.4,0.70778
3379,9.6272,1.0909,0,0.00034814,3479,0.00011538,0.0045939,0.00011405,-10.019,-0.00034831,-3484,0.73005
3380,9.8115,1.0909,0,0.000343,3427.6,0.0001136,0.0047766,0.0001125,-8.2372,-0.00034314,-3431.7,0.75256
3381,9.9957,1.0909,0,0.00033787,3376.4,0.00011182,0.0051313,0.00011095,-6.5801,-0.00033798,-3379.7,0.7753
3382,10.18,1.0909,0,0.00033276,3325.3,0.00011006,0.0057846,0.00010939,-5.0392,-0.00033285,-3327.8,0.79827
3383,10.364,1.0909,0,0.00032767,3274.4,0.00010831,0.0070335,0.00010783,-3.6063,-0.00032773,-3276.2,0.82147
3384,10.549,1.0909,0,0.00032259,3223.6,0.00010657,0.0097167,0.00010626,-2.2746,-0.00032262,-3224.8,0.84488
3385,10.733,1.0909,0,0.00031752,3173,0.00010484,0.018748,0.00010469,-1.0411,-0.00031754,-3173.5,0.86852
3386,10.917,1.0909,0,0.00031247,3122.6,0.00010314,0.2158,0.0001031,-0.080532,-0.00031247,-3122.5,0.89237
3387,11.101,1.0909,0,0.00030744,3072.3,0.00010156,1.2271,0.00010139,-0.012688,-0.00030742,-3071.7,0.91644
3388,11.286,1.0909,0,0.00030242,3022.2,9.9986e-05,2.2277,9.9689e-05,-0.0063195,-0.00030239,-3021,0.94071
3389,11.47,1.0909,0,0.00029743,2972.2,9.8415e-05,3.166,9.7993e-05,-0.0040923,-0.00029737,-2970.6,0.96519
3390,11.654,1.0909,0,0.00029244,2922.4,9.6844e-05,4.0447,9.6306e-05,-0.0029555,-0.00029237,-2920.4,0.98986
3391,11.838,1.0909,0,0.00028748,2872.8,9.5275e-05,4.8681,9.4627e-05,-0.0022463,-0.0002874,-2870.4,1.0147
3392,12.023,1.0909,0,0.00028253,2823.4,9.3707e-05,5.6407,9.2956e-05,-0.0018072,-0.00028244,-2820.5,1.0398
3393,12.207,1.0909,0,0.0002776,2774.1,9.2141e-05,6.367,9.1293e-05,-0.0015074,-0.00027749,-2770.9,1.0651
3394,12.391,1.0909,0,0.00027269,2725,9.0577e-05,7.051,8.9638e-05,-0.0013212,-0.00027257,-2721.5,1.0905
3395,12.575,1.0909,0,0.0002678,2676.1,8.9016e-05,7.6969,8.7991e-05,-0.001153,-0.00026767,-2672.3,1.1162
3396,12.76,1.0909,0,0.00026292,2627.4,8.7458e-05,8.3082,8.6352e-05,-0.00098914,-0.00026278,-2623.2,1.142
3397,12.944,1.0909,0,0.00025807,2578.9,8.5904e-05,8.8884,8.4721e-05,-0.00087778,-0.00025791,-2574.4,1.168
3398,13.128,1.0909,0,0.00025323,2530.5,8.4354e-05,9.4409,8.3097e-05,-0.00079302,-0.00025307,-2525.8,1.1941
3399,13.313,1.0909,0,0.00024841,2482.4,8.2807e-05,9.9687,8.1481e-05,-0.00074949,-0.00024824,-2477.4,1.2205
3400,13.497,1.0909,0,0.00024361,2434.4,8.1266e-05,10.475,7.9871e-05,-0.00068345,-0.00024343,-2429.2,1.247
3401,13.681,1.0909,0,0.00023883,2386.6,7.9729e-05,10.962,7.8269e-05,-0.00059375,-0.00023864,-2381.1,1.2737
3402,13.865,1.0909,0,0.00023407,2339,7.8196e-05,11.434,7.6675e-05,-0.00053637,-0.00023387,-2333.3,1.3005
3403,14.05,1.0909,0,0.00022932,2291.7,7.667e-05,11.891,7.5087e-05,-0.00048898,-0.00022912,-2285.7,1.3275
3404,14.234,1.0909,0,0.0002246,2244.5,7.5148e-05,12.338,7.3506e-05,-0.00046771,-0.00022439,-2238.3,1.3546
3405,14.418,1.0909,0,0.0002199,2197.4,7.3632e-05,12.776,7.1932e-05,-0.00042009,-0.00021968,-2191,1.3819
3406,14.602,1.0909,0,0.00021521,2150.6,7.2123e-05,13.208,7.0365e-05,-0.00034574,-0.00021498,-2144,1.4094
3407,14.787,1.0909,0,0.00021055,2104,7.0619e-05,13.636,6.8804e-05,-0.00029427,-0.00021031,-2097.2,1.437
3408,14.971,1.0909,0,0.0002059,2057.6,6.9122e-05,14.062,6.7251e-05,-0.00025056,-0.00020566,-2050.6,1.4647
3409,15.155,1.0909,0,0.00020128,2011.4,6.7632e-05,14.488,6.5703e-05,-0.00022406,-0.00020103,-2004.1,1.4926
3410,15.339,1.0909,0,0.00019668,1965.4,6.6148e-05,14.917,6.4163e-05,-0.00017393,-0.00019642,-1957.9,1.5206
3411,15.524,1.0909,0,0.00019209,1919.6,6.4672e-05,15.352,6.2628e-05,-9.516e-05,-0.00019183,-1911.9,1.5487
3412,15.708,1.0909,0,0.00018753,1874,6.3202e-05,15.793,6.11e-05,-3.4776e-05,-0.00018725,-1866,1.577
3413,15.892,1.0909,0,0.00018298,1828.6,6.1741e-05,16.244,5.9579e-05,1.8728e-05,-0.0001827,-1820.4,1.6054
3414,16.077,1.0909,0,0.00017846,1783.4,6.0286e-05,16.706,5.8063e-05,6.0288e-05,-0.00017817,-1775,1.6339
3415,16.261,1.0909,0,0.00017396,1738.4,5.884e-05,17.182,5.6554e-05,0.00012628,-0.00017366,-1729.7,1.6626
3416,16.445,1.0909,0,0.00016948,1693.6,5.7402e-05,17.675,5.505e-05,0.00021951,-0.00016917,-1684.7,1.6913
3417,16.629,1.0909,0,0.00016502,1649,5.5973e-05,18.187,5.3552e-05,0.00029633,-0.0001647,-1639.9,1.7202
3418,16.814,1.0909,0,0.00016058,1604.7,5.4552e-05,18.72,5.2061e-05,0.00037845,-0.00016025,-1595.2,1.7492
3419,16.998,1.0909,0,0.00015616,1560.5,5.314e-05,19.277,5.0575e-05,0.00044619,-0.00015582,-1550.8,1.7783
3420,17.182,1.0909,0,0.00015176,1516.6,5.1737e-05,19.861,4.9094e-05,0.00054146,-0.00015141,-1506.5,1.8075
3421,17.366,1.0909,0,0.00014738,1472.8,5.0344e-05,20.475,4.7619e-05,0.0006635,-0.00014703,-1462.5,1.8368
3422,17.551,1.0909,0,0.00014303,1429.3,4.8961e-05,21.121,4.615e-05,0.00077733,-0.00014266,-1418.6,1.8662
3423,17.735,1.0909,0,0.0001387,1386,4.7587e-05,21.803,4.4685e-05,0.00089741,-0.00013831,-1375,1.8957
3424,17.919,1.0909,0,0.00013438,1342.9,4.6224e-05,22.524,4.3226e-05,0.0010116,-0.00013399,-1331.5,1.9253
3425,18.103,1.0909,0,0.00013009,1300,4.4871e-05,23.289,4.1772e-05,0.0011574,-0.00012968,-1288.2,1.955
3426,18.288,1.0909,0,0.00012582,1257.4,4.353e-05,24.099,4.0323e-05,0.0013299,-0.0001254,-1245.1,1.9847
3427,18.472,1.0909,0,0.00012158,1214.9,4.22e-05,24.961,3.8878e-05,0.0015074,-0.00012113,-1202.3,2.0146
3428,18.656,1.0909,0,0.00011735,1172.7,4.0881e-05,25.877,3.7438e-05,0.0016953,-0.00011689,-1159.6,2.0445
3429,18.841,1.0909,0,0.00011315,1130.7,3.9575e-05,26.852,3.6002e-05,0.0018921,-0.00011267,-1117.1,2.0745
3430,19.025,1.0909,0,0.00010897,1089,3.8282e-05,27.892,3.457e-05,0.0021283,-0.00010847,-1074.7,2.1046
3431,19.209,1.0909,0,0.00010481,1047.4,3.7001e-05,29.001,3.3142e-05,0.0024014,-0.00010429,-1032.6,2.1348
3432,19.393,1.0909,0,0.00010068,1006.1,3.5735e-05,30.184,3.1718e-05,0.0026968,-0.00010013,-990.66,2.165
3433,19.578,1.0909,0,9.6568e-05,965.01,3.4482e-05,31.449,3.0297e-05,0.0030233,-9.5994e-05,-948.9,2.1953
3434,19.762,1.0909,0,9.248e-05,924.16,3.3245e-05,32.8,2.888e-05,0.0033835,-9.1878e-05,-907.32,2.2257
3435,19.946,1.0909,0,8.8416e-05,883.55,3.2022e-05,34.246,2.7465e-05,0.0038013,-8.7784e-05,-865.93,2.2561
3436,20.13,1.0909,0,8.4376e-05,843.18,3.0816e-05,35.795,2.6053e-05,0.0042942,-8.371e-05,-824.71,2.2866
3437,20.315,1.0909,0,8.0361e-05,803.06,2.9627e-05,37.454,2.4643e-05,0.0048446,-7.9658e-05,-783.67,2.3171
3438,20.499,1.0909,0,7.6372e-05,763.19,2.8456e-05,39.233,2.3235e-05,0.0054779,-7.5628e-05,-742.81,2.3477
3439,20.683,1.0909,0,7.2408e-05,723.58,2.7303e-05,41.143,2.1828e-05,0.0062113,-7.162e-05,-702.13,2.3784
3440,20.867,1.0909,0,6.8472e-05,684.24,2.6171e-05,43.196,2.0423e-05,0.0070772,-6.7634e-05,-661.62,2.4091
3441,21.052,1.0909,0,6.4563e-05,645.19,2.506e-05,45.405,1.9018e-05,0.0081104,-6.3671e-05,-621.28,2.4398
3442,21.236,1.0909,0,6.0685e-05,606.43,2.3972e-05,47.788,1.7613e-05,0.0093348,-5.9731e-05,-581.12,2.4706
3443,21.42,1.0909,0,5.6839e-05,568,2.2909e-05,50.362,1.6208e-05,0.0108,-5.5815e-05,-541.14,2.5014
3444,21.605,1.0909,0,5.3028e-05,529.92,2.1874e-05,53.151,1.4801e-05,0.012574,-5.1923e-05,-501.33,2.5323
3445,21.789,1.0909,0,4.9255e-05,492.22,2.0868e-05,56.181,1.3393e-05,0.014758,-4.8058e-05,-461.71,2.5631
3446,21.973,1.0909,0,4.5526e-05,454.95,1.9897e-05,59.486,1.1982e-05,0.017471,-4.4221e-05,-422.27,2.5941
3447,22.157,1.0909,0,4.1847e-05,418.18,1.8963e-05,63.105,1.0567e-05,0.020878,-4.0415e-05,-383.04,2.625
3448,22.342,1.0909,0,3.8227e-05,382.01,1.8073e-05,67.09,9.1471e-06,0.025212,-3.6641e-05,-344.01,2.656
3449,22.526,1.0909,0,3.4678e-05,346.54,1.7233e-05,71.502,7.7205e-06,0.030874,-3.2903e-05,-305.2,2.687
3450,22.71,1.0909,0,3.1217e-05,311.95,1.6451e-05,76.417,6.2852e-06,0.038269,-2.9206e-05,-266.63,2.718
3451,22.894,1.0909,0,2.7867e-05,278.48,1.5736e-05,81.928,4.839e-06,0.04892,-2.5554e-05,-228.31,2.7491
3452,23.079,1.0909,0,2.4662e-05,246.45,1.5101e-05,88.14,3.3782e-06,0.062021,-2.1951e-05,-190.25,2.7801
3453,23.263,1.0909,0,2.1649e-05,216.34,1.4554e-05,95.172,1.8998e-06,0.090423,-1.8399e-05,-152.43,2.8112
3454,23.447,1.0909,0,1.8894e-05,188.81,1.4106e-05,103.12,3.9601e-07,0.10369,-1.4896e-05,-114.8,2.8423
3455,23.631,1.0909,0,1.65e-05,164.88,1.3761e-05,112.12,-1.1245e-06,0.27547,-1.1441e-05,-77.236,2.8734
3456,23.816,1.0909,0,1.4625e-05,146.15,1.3533e-05,122.11,-2.7055e-06,0.10553,-8.0251e-06,-39.864,2.9045
3457,1.1509,0.90909,0,0.0004,3997.3,0.0002529,1531.7,4.771e-05,-10.03,-0.00035114,-3006.8,0.0046876
3458,1.3352,0.90909,0,0.00038437,3841,0.0002089,1022.9,7.2736e-05,-0.17716,-0.0003566,-3226.1,0.01314
3459,1.5195,0.90909,0,0.00040292,4026.4,0.00019345,742.78,9.4215e-05,-2.8182,-0.00038512,-3604.4,0.022093
3460,1.7037,0.90909,0,0.00042794,4276.5,0.00018651,551.42,0.00011285,-2.0476,-0.0004159,-3974.9,0.03129
3461,1.888,0.90909,0,0.00045233,4520.2,0.0001834,412.99,0.00012818,-1.9404,-0.00044391,-4300.4,0.040745
3462,2.0723,0.90909,0,0.00047319,4728.6,0.00018177,308.65,0.00014047,-1.7004,-0.0004672,-4567.5,0.050484
3463,2.2565,0.90909,0,0.00048962,4892.9,0.00018047,226.79,0.00015008,-1.5828,-0.00048539,-4776.3,0.060531
3464,2.4408,0.90909,0,0.00050178,5014.3,0.00017903,160.78,0.00015743,-1.5471,-0.00049887,-4932.8,0.070902
3465,2.6251,0.90909,0,0.00051018,5098.3,0.00017733,106.78,0.0001629,-1.6494,-0.00050831,-5044.9,0.081609
3466,2.8093,0.90909,0,0.00051545,5151,0.00017542,62.558,0.00016682,-2.0287,-0.00051439,-5120.4,0.09266
3467,2.9936,0.90909,0,0.00051821,5178.5,0.00017345,27.269,0.00016937,-3.4088,-0.00051779,-5166.5,0.10406
3468,3.1779,0.90909,0,0.00051897,5186.1,0.00017233,5.8319,0.00016998,-11.849,-0.00051907,-5189.1,0.11581
3469,3.3621,0.90909,0,0.00051817,5178.1,0.0001727,1.6448,0.00016827,-31.656,-0.00051867,-5193.1,0.12792
3470,3.5464,0.90909,0,0.00051618,5158.3,0.00017286,0.79912,0.00016614,-49.701,-0.000517,-5182.5,0.14037
3471,3.7307,0.90909,0,0.00051328,5129.3,0.00017258,0.47949,0.00016401,-63.863,-0.00051433,-5160.7,0.15318
3472,3.9149,0.90909,0,0.0005097,5093.5,0.0001719,0.32024,0.00016195,-74.408,-0.00051092,-5130.1,0.16634
3473,4.0992,0.90909,0,0.0005056,5052.6,0.0001709,0.22837,0.00015999,-81.818,-0.00050694,-5092.8,0.17984
3474,4.2835,0.90909,0,0.00050113,5007.8,0.00016966,0.17031,0.00015811,-86.579,-0.00050254,-5050.5,0.19369
3475,4.4677,0.90909,0,0.00049637,4960.3,0.00016821,0.13121,0.00015633,-89.144,-0.00049783,-5004.2,0.20788
3476,4.652,0.90909,0,0.00049142,4910.8,0.00016661,0.10362,0.00015463,-89.915,-0.00049288,-4955.1,0.22241
3477,4.8363,0.90909,0,0.00048632,4859.8,0.00016489,0.083446,0.000153,-89.249,-0.00048777,-4903.8,0.23727
3478,5.0205,0.90909,0,0.00048111,4807.8,0.00016309,0.068264,0.00015144,-87.453,-0.00048254,-4850.9,0.25246
3479,5.2048,0.90909,0,0.00047584,4755.1,0.00016121,0.056577,0.00014992,-84.789,-0.00047722,-4796.9,0.26798
3480,5.3891,0.90909,0,0.00047052,4701.9,0.00015929,0.047408,0.00014844,-81.478,-0.00047185,-4742.1,0.28383
3481,5.5733,0.90909,0,0.00046516,4648.4,0.00015734,0.040105,0.00014699,-77.704,-0.00046644,-4686.8,0.3
3482,5.7576,0.90909,0,0.00045979,4594.8,0.00015537,0.034208,0.00014556,-73.619,-0.000461,-4631.1,0.31648
3483,5.9419,0.90909,0,0.00045441,4541,0.00015338,0.029394,0.00014415,-69.346,-0.00045555,-4575.2,0.33328
3484,6.1261,0.90909,0,0.00044903,4487.2,0.00015139,0.025425,0.00014274,-64.983,-0.0004501,-4519.3,0.35038
3485,6.3104,0.90909,0,0.00044364,4433.4,0.0001494,0.022124,0.00014133,-60.609,-0.00044464,-4463.3,0.36779
3486,6.4947,0.90909,0,0.00043826,4379.6,0.00014741,0.019356,0.00013991,-56.283,-0.00043919,-4407.4,0.3855
3487,6.6789,0.90909,0,0.00043289,4325.9,0.00014542,0.01702,0.00013849,-52.052,-0.00043375,-4351.7,0.40351
3488,6.8632,0.90909,0,0.00042752,4272.3,0.00014345,0.015037,0.00013707,-47.95,-0.00042832,-4296,0.42182
3489,7.0475,0.90909,0,0.00042216,4218.7,0.00014149,0.013342,0.00013563,-44.002,-0.0004229,-4240.6,0.44042
3490,7.2317,0.90909,0,0.00041682,4165.3,0.00013954,0.011888,0.00013418,-40.224,-0.00041749,-4185.3,0.4593
3491,7.416,0.90909,0,0.00041148,4112,0.0001376,0.010635,0.00013272,-36.626,-0.00041209,-4130.2,0.47847
3492,7.6003,0.90909,0,0.00040616,4058.8,0.00013568,0.0095512,0.00013125,-33.215,-0.00040671,-4075.3,0.49791
3493,7.7845,0.90909,0,0.00040085,4005.7,0.00013376,0.0086127,0.00012977,-29.991,-0.00040135,-4020.6,0.51763
3494,7.9688,0.90909,0,0.00039555,3952.7,0.00013186,0.0077982,0.00012828,-26.952,-0.000396,-3966.1,0.53763
3495,8.1531,0.90909,0,0.00039026,3899.9,0.00012998,0.0070934,0.00012677,-24.096,-0.00039066,-3911.9,0.55789
3496,8.3373,0.90909,0,0.00038499,3847.2,0.00012811,0.0064866,0.00012525,-21.417,-0.00038534,-3857.9,0.57842
3497,8.5216,0.90909,0,0.00037972,3794.6,0.00012624,0.0059672,0.00012373,-18.907,-0.00038004,-3804,0.59921
3498,8.7059,0.90909,0,0.00037448,3742.2,0.0001244,0.005532,0.00012219,-16.56,-0.00037476,-3750.4,0.62026
3499,8.8901,0.90909,0,0.00036924,3689.9,0.00012256,0.0051758,0.00012065,-14.368,-0.00036949,-3697.1,0.64156
3500,9.0744,0.90909,0,0.00036402,3637.7,0.00012074,0.0049058,0.0001191,-12.322,-0.00036423,-3643.9,0.66311
3501,9.2587,0.90909,0,0.00035882,3585.7,0.00011893,0.0047256,0.00011754,-10.413,-0.000359,-3590.9,0.68491
3502,9.4429,0.90909,0,0.00035363,3533.9,0.00011713,0.0046577,0.00011598,-8.6344,-0.00035378,-3538.2,0.70695
3503,9.6272,0.90909,0,0.00034846,3482.2,0.00011534,0.0047348,0.00011441,-6.9771,-0.00034858,-3485.6,0.72923
3504,9.8115,0.90909,0,0.0003433,3430.6,0.00011356,0.0050483,0.00011283,-5.4333,-0.00034339,-3433.3,0.75175
3505,9.9957,0.90909,0,0.00033816,3379.2,0.00011179,0.0057603,0.00011126,-3.9956,-0.00033822,-3381.2,0.7745
3506,10.18,0.90909,0,0.00033303,3328,0.00011003,0.007388,0.00010968,-2.6572,-0.00033307,-3329.3,0.79748
3507,10.364,0.90909,0,0.00032792,3276.9,0.00010828,0.0121,0.00010809,-1.4131,-0.00032794,-3277.6,0.82069
3508,10.549,0.90909,0,0.00032282,3226,0.00010655,0.052544,0.00010651,-0.28964,-0.00032283,-3226.1,0.84412
3509,10.733,0.90909,0,0.00031775,3175.3,0.00010493,0.86467,0.00010481,-0.016134,-0.00031773,-3174.9,0.86777
3510,10.917,0.90909,0,0.00031269,3124.7,0.00010334,1.8688,0.00010309,-0.0069876,-0.00031266,-3123.8,0.89163
3511,11.101,0.90909,0,0.00030764,3074.3,0.00010176,2.8126,0.00010138,-0.0044663,-0.0003076,-3072.9,0.9157
3512,11.286,0.90909,0,0.00030262,3024.1,0.00010017,3.6963,9.9681e-05,-0.0033511,-0.00030256,-3022.2,0.93999
3513,11.47,0.90909,0,0.00029761,2974.1,9.859e-05,4.5238,9.7987e-05,-0.0027864,-0.00029753,-2971.8,0.96448
3514,11.654,0.90909,0,0.00029262,2924.2,9.7008e-05,5.2996,9.6302e-05,-0.0024286,-0.00029253,-2921.5,0.98916
3515,11.838,0.90909,0,0.00028765,2874.5,9.5428e-05,6.0281,9.4625e-05,-0.0021649,-0.00028755,-2871.5,1.0141
3516,12.023,0.90909,0,0.0002827,2825,9.385e-05,6.713,9.2956e-05,-0.0020143,-0.00028258,-2821.6,1.0391
3517,12.207,0.90909,0,0.00027776,2775.7,9.2275e-05,7.3584,9.1296e-05,-0.0019193,-0.00027763,-2772,1.0644
3518,12.391,0.90909,0,0.00027284,2726.5,9.0704e-05,7.9677,8.9643e-05,-0.0018896,-0.00027271,-2722.6,1.0899
3519,12.575,0.90909,0,0.00026794,2677.6,8.9135e-05,8.5445,8.7998e-05,-0.0018461,-0.0002678,-2673.3,1.1155
3520,12.76,0.90909,0,0.00026306,2628.8,8.7571e-05,9.0919,8.636e-05,-0.0017811,-0.00026291,-2624.3,1.1413
3521,12.944,0.90909,0,0.0002582,2580.3,8.601e-05,9.6128,8.4731e-05,-0.0017598,-0.00025804,-2575.4,1.1673
3522,13.128,0.90909,0,0.00025336,2531.9,8.4454e-05,10.11,8.3108e-05,-0.0017516,-0.00025319,-2526.8,1.1935
3523,13.313,0.90909,0,0.00024854,2483.7,8.2902e-05,10.587,8.1493e-05,-0.0017751,-0.00024836,-2478.4,1.2199
3524,13.497,0.90909,0,0.00024374,2435.7,8.1355e-05,11.045,7.9885e-05,-0.00177,-0.00024355,-2430.1,1.2464
3525,13.681,0.90909,0,0.00023895,2387.9,7.9814e-05,11.487,7.8285e-05,-0.0017372,-0.00023876,-2382.1,1.2731
3526,13.865,0.90909,0,0.00023419,2340.3,7.8277e-05,11.916,7.6691e-05,-0.0017347,-0.00023398,-2334.3,1.2999
3527,14.05,0.90909,0,0.00022944,2292.8,7.6746e-05,12.333,7.5104e-05,-0.0017381,-0.00022923,-2286.7,1.3269
3528,14.234,0.90909,0,0.00022472,2245.6,7.5221e-05,12.742,7.3525e-05,-0.0017666,-0.0002245,-2239.2,1.3541
3529,14.418,0.90909,0,0.00022001,2198.6,7.3701e-05,13.143,7.1952e-05,-0.0017675,-0.00021979,-2192,1.3814
3530,14.602,0.90909,0,0.00021533,2151.8,7.2188e-05,13.539,7.0386e-05,-0.0017371,-0.00021509,-2145,1.4089
3531,14.787,0.90909,0,0.00021066,2105.1,7.0681e-05,13.932,6.8826e-05,-0.0017335,-0.00021042,-2098.1,1.4365
3532,14.971,0.90909,0,0.00020601,2058.7,6.918e-05,14.324,6.7274e-05,-0.0017343,-0.00020577,-2051.5,1.4642
3533,15.155,0.90909,0,0.00020139,2012.5,6.7686e-05,14.717,6.5728e-05,-0.0017567,-0.00020113,-2005.1,1.4921
3534,15.339,0.90909,0,0.00019678,1966.5,6.6199e-05,15.113,6.4188e-05,-0.0017518,-0.00019652,-1958.9,1.5201
3535,15.524,0.90909,0,0.0001922,1920.6,6.4719e-05,15.513,6.2655e-05,-0.0017207,-0.00019193,-1912.8,1.5483
3536,15.708,0.90909,0,0.00018763,1875,6.3247e-05,15.919,6.1128e-05,-0.0017125,-0.00018735,-1867,1.5766
3537,15.892,0.90909,0,0.00018309,1829.6,6.1781e-05,16.334,5.9607e-05,-0.0017077,-0.0001828,-1821.4,1.605
3538,16.077,0.90909,0,0.00017856,1784.4,6.0323e-05,16.759,5.8093e-05,-0.0017196,-0.00017827,-1775.9,1.6335
3539,16.261,0.90909,0,0.00017406,1739.4,5.8873e-05,17.197,5.6584e-05,-0.0017055,-0.00017376,-1730.7,1.6622
3540,16.445,0.90909,0,0.00016957,1694.6,5.7431e-05,17.648,5.5082e-05,-0.0016698,-0.00016927,-1685.7,1.6909
3541,16.629,0.90909,0,0.00016511,1649.9,5.5997e-05,18.116,5.3586e-05,-0.0016498,-0.00016479,-1640.8,1.7198
3542,16.814,0.90909,0,0.00016067,1605.6,5.4572e-05,18.603,5.2096e-05,-0.0016336,-0.00016034,-1596.2,1.7488
3543,16.998,0.90909,0,0.00015624,1561.4,5.3155e-05,19.11,5.0611e-05,-0.0016317,-0.00015591,-1551.7,1.7779
3544,17.182,0.90909,0,0.00015184,1517.4,5.1746e-05,19.64,4.9132e-05,-0.0016047,-0.0001515,-1507.5,1.8071
3545,17.366,0.90909,0,0.00014746,1473.6,5.0347e-05,20.196,4.7659e-05,-0.0015581,-0.00014711,-1463.4,1.8364
3546,17.551,0.90909,0,0.0001431,1430,4.8957e-05,20.78,4.6191e-05,-0.0015272,-0.00014274,-1419.5,1.8659
3547,17.735,0.90909,0,0.00013877,1386.7,4.7576e-05,21.394,4.4729e-05,-0.0014924,-0.00013839,-1375.9,1.8954
3548,17.919,0.90909,0,0.00013445,1343.6,4.6205e-05,22.041,4.3271e-05,-0.0014639,-0.00013406,-1332.4,1.925
3549,18.103,0.90909,0,0.00013015,1300.6,4.4844e-05,22.724,4.1819e-05,-0.0014171,-0.00012975,-1289.1,1.9546
3550,18.288,0.90909,0,0.00012588,1257.9,4.3493e-05,23.447,4.0372e-05,-0.0013445,-0.00012546,-1246,1.9844
3551,18.472,0.90909,0,0.00012162,1215.4,4.2153e-05,24.211,3.893e-05,-0.0012794,-0.00012119,-1203.1,2.0143
3552,18.656,0.90909,0,0.00011739,1173.1,4.0823e-05,25.022,3.7493e-05,-0.0012104,-0.00011694,-1160.4,2.0442
3553,18.841,0.90909,0,0.00011318,1131,3.9505e-05,25.882,3.606e-05,-0.0011382,-0.00011272,-1117.9,2.0743
3554,19.025,0.90909,0,0.00010899,1089.1,3.8197e-05,26.795,3.4631e-05,-0.001042,-0.00010851,-1075.5,2.1044
3555,19.209,0.90909,0,0.00010482,1047.5,3.6902e-05,27.765,3.3207e-05,-0.00091005,-0.00010432,-1033.3,2.1345
3556,19.393,0.90909,0,0.00010068,1006.1,3.5619e-05,28.797,3.1786e-05,-0.0007787,-0.00010015,-991.36,2.1648
3557,19.578,0.90909,0,9.6551e-05,964.85,3.4348e-05,29.895,3.037e-05,-0.00062214,-9.6008e-05,-949.55,2.1951
3558,19.762,0.90909,0,9.2449e-05,923.85,3.3091e-05,31.064,2.8956e-05,-0.00045115,-9.1881e-05,-907.93,2.2254
3559,19.946,0.90909,0,8.8369e-05,883.08,3.1847e-05,32.31,2.7546e-05,-0.00023379,-8.7774e-05,-866.48,2.2559
3560,20.13,0.90909,0,8.4311e-05,842.52,3.0617e-05,33.639,2.614e-05,3.956e-05,-8.3688e-05,-825.2,2.2864
3561,20.315,0.90909,0,8.0275e-05,802.2,2.9401e-05,35.058,2.4735e-05,0.0003533,-7.9622e-05,-784.1,2.3169
3562,20.499,0.90909,0,7.6263e-05,762.11,2.8201e-05,36.573,2.3334e-05,0.00072883,-7.5575e-05,-743.16,2.3475
3563,20.683,0.90909,0,7.2275e-05,722.25,2.7017e-05,38.193,2.1934e-05,0.0011754,-7.1549e-05,-702.4,2.3782
3564,20.867,0.90909,0,6.8311e-05,682.64,2.585e-05,39.927,2.0536e-05,0.0017353,-6.7544e-05,-661.8,2.4089
3565,21.052,0.90909,0,6.4372e-05,643.28,2.4701e-05,41.787,1.914e-05,0.0024303,-6.3559e-05,-621.36,2.4396
3566,21.236,0.90909,0,6.046e-05,604.18,2.3571e-05,43.786,1.7744e-05,0.0032775,-5.9596e-05,-581.1,2.4704
3567,21.42,0.90909,0,5.6576e-05,565.37,2.2462e-05,45.938,1.6349e-05,0.0043334,-5.5654e-05,-541,2.5012
3568,21.605,0.90909,0,5.2722e-05,526.86,2.1376e-05,48.262,1.4953e-05,0.0056561,-5.1735e-05,-501.07,2.5321
3569,21.789,0.90909,0,4.8902e-05,488.68,2.0315e-05,50.781,1.3557e-05,0.0073362,-4.784e-05,-461.31,2.563
3570,21.973,0.90909,0,4.512e-05,450.89,1.9283e-05,53.525,1.216e-05,0.0095059,-4.397e-05,-421.73,2.5939
3571,22.157,0.90909,0,4.1381e-05,413.52,1.8283e-05,56.529,1.0761e-05,0.012308,-4.0128e-05,-382.35,2.6249
3572,22.342,0.90909,0,3.7694e-05,376.68,1.732e-05,59.842,9.3578e-06,0.015985,-3.6317e-05,-343.17,2.6558
3573,22.526,0.90909,0,3.4069e-05,340.46,1.6402e-05,63.524,7.9504e-06,0.02092,-3.2541e-05,-304.21,2.6869
3574,22.71,0.90909,0,3.0524e-05,305.03,1.5537e-05,67.655,6.5367e-06,0.027529,-2.8805e-05,-265.52,2.7179
3575,22.894,0.90909,0,2.7082e-05,270.64,1.4737e-05,72.341,5.1144e-06,0.03731,-2.5116e-05,-227.1,2.7489
3576,23.079,0.90909,0,2.3777e-05,237.61,1.4017e-05,77.713,3.6802e-06,0.049449,-2.1482e-05,-189.01,2.78
3577,23.263,0.90909,0,2.0659e-05,206.45,1.3392e-05,83.937,2.2304e-06,0.076534,-1.791e-05,-151.25,2.8111
3578,23.447,0.90909,0,1.7802e-05,177.9,1.288e-05,91.178,7.5637e-07,0.088344,-1.4403e-05,-113.81,2.8422
3579,23.631,0.90909,0,1.5317e-05,153.07,1.2494e-05,99.659,-7.3568e-07,0.25509,-1.0966e-05,-76.608,2.8733
3580,23.816,0.90909,0,1.3384e-05,133.75,1.2257e-05,109.4,-2.2936e-06,0.072606,-7.5905e-06,-39.726,2.9044
3581,1.1509,0.72727,0,0.00031206,3118.4,0.00018926,1085,4.3513e-05,-10.086,-0.00027899,-2433.2,0.0032428
3582,1.3352,0.72727,0,0.00031118,3109.7,0.00015939,701.89,6.5878e-05,-0.71341,-0.00029324,-2699,0.011414
3583,1.5195,0.72727,0,0.00034228,3420.4,0.00015584,523.67,8.5774e-05,-2.7445,-0.00033036,-3129.4,0.020481
3584,1.7037,0.72727,0,0.00037907,3788.1,0.00015936,415.9,0.00010377,-1.778,-0.00037029,-3563.7,0.029794
3585,1.888,0.72727,0,0.0004136,4133.1,0.00016453,338.92,0.00011922,-1.5286,-0.0004068,-3953.9,0.039346
3586,2.0723,0.72727,0,0.00044285,4425.4,0.0001691,276.6,0.00013212,-1.2247,-0.00043751,-4281.2,0.049164
3587,2.2565,0.72727,0,0.00046611,4657.9,0.0001723,222.22,0.00014259,-1.0313,-0.00046195,-4543.3,0.059272
3588,2.4408,0.72727,0,0.00048376,4834.2,0.0001741,173.51,0.00015089,-0.8955,-0.00048058,-4745.6,0.069689
3589,2.6251,0.72727,0,0.00049654,4962,0.00017471,129.94,0.00015731,-0.82388,-0.00049421,-4896.1,0.080431
3590,2.8093,0.72727,0,0.00050529,5049.4,0.00017441,91.471,0.00016212,-0.82086,-0.00050368,-5003.4,0.091507
3591,2.9936,0.72727,0,0.00051078,5104.3,0.00017345,58.143,0.00016559,-0.92681,-0.00050978,-5075.4,0.10292
3592,3.1779,0.72727,0,0.00051369,5133.4,0.00017209,30.034,0.00016792,-1.321,-0.00051319,-5118.9,0.11469
3593,3.3621,0.72727,0,0.00051457,5142.2,0.00017069,8.4524,0.00016909,-3.5478,-0.00051449,-5139.7,0.1268
3594,3.5464,0.72727,0,0.00051388,5135.3,0.00017049,1.4514,0.00016817,-16.005,-0.00051413,-5142.5,0.13926
3595,3.7307,0.72727,0,0.00051198,5116.2,0.00017052,0.59938,0.00016636,-30.675,-0.00051248,-5131.2,0.15207
3596,3.9149,0.72727,0,0.00050915,5088,0.00017015,0.34873,0.00016445,-42.458,-0.00050985,-5108.9,0.16523
3597,4.0992,0.72727,0,0.00050562,5052.7,0.00016941,0.23529,0.00016255,-51.346,-0.00050647,-5078.1,0.17874
3598,4.2835,0.72727,0,0.00050156,5012.1,0.00016838,0.17247,0.00016068,-57.691,-0.00050251,-5040.7,0.19259
3599,4.4677,0.72727,0,0.00049711,4967.6,0.00016711,0.13327,0.00015886,-61.879,-0.00049813,-4998.2,0.20678
3600,4.652,0.72727,0,0.00049236,4920.2,0.00016566,0.10674,0.00015709,-64.273,-0.00049342,-4952,0.22131
3601,4.8363,0.72727,0,0.0004874,4870.6,0.00016407,0.087715,0.00015538,-65.203,-0.00048847,-4902.8,0.23617
3602,5.0205,0.72727,0,0.00048228,4819.5,0.00016237,0.07346,0.00015371,-64.957,-0.00048335,-4851.6,0.25137
3603,5.2048,0.72727,0,0.00047705,4767.2,0.00016058,0.062411,0.00015208,-63.786,-0.0004781,-4798.7,0.26689
3604,5.3891,0.72727,0,0.00047174,4714.2,0.00015874,0.053617,0.00015049,-61.904,-0.00047276,-4744.8,0.28274
3605,5.5733,0.72727,0,0.00046638,4660.6,0.00015685,0.046467,0.00014892,-59.489,-0.00046736,-4690,0.29891
3606,5.7576,0.72727,0,0.00046098,4606.6,0.00015493,0.040554,0.00014738,-56.691,-0.00046192,-4634.7,0.3154
3607,5.9419,0.72727,0,0.00045556,4552.5,0.00015299,0.035596,0.00014584,-53.631,-0.00045645,-4579,0.3322
3608,6.1261,0.72727,0,0.00045013,4498.2,0.00015104,0.031389,0.00014432,-50.409,-0.00045097,-4523.2,0.34931
3609,6.3104,0.72727,0,0.0004447,4443.9,0.00014908,0.027786,0.00014281,-47.105,-0.00044548,-4467.2,0.36672
3610,6.4947,0.72727,0,0.00043926,4389.6,0.00014712,0.024674,0.00014129,-43.779,-0.00043999,-4411.3,0.38444
3611,6.6789,0.72727,0,0.00043383,4335.4,0.00014517,0.021967,0.00013978,-40.483,-0.00043451,-4355.4,0.40246
3612,6.8632,0.72727,0,0.00042841,4281.2,0.00014322,0.019599,0.00013826,-37.251,-0.00042904,-4299.7,0.42077
3613,7.0475,0.72727,0,0.00042301,4227.1,0.00014128,0.017515,0.00013674,-34.113,-0.00042357,-4244.1,0.43938
3614,7.2317,0.72727,0,0.00041761,4173.2,0.00013935,0.015675,0.00013521,-31.087,-0.00041813,-4188.6,0.45827
3615,7.416,0.72727,0,0.00041222,4119.4,0.00013743,0.014044,0.00013368,-28.188,-0.00041269,-4133.4,0.47745
3616,7.6003,0.72727,0,0.00040685,4065.7,0.00013552,0.012594,0.00013213,-25.424,-0.00040728,-4078.4,0.4969
3617,7.7845,0.72727,0,0.00040149,4012.2,0.00013362,0.011304,0.00013059,-22.799,-0.00040188,-4023.5,0.51663
3618,7.9688,0.72727,0,0.00039615,3958.8,0.00013174,0.010154,0.00012903,-20.316,-0.00039649,-3968.9,0.53664
3619,8.1531,0.72727,0,0.00039083,3905.6,0.00012986,0.0091315,0.00012747,-17.973,-0.00039113,-3914.5,0.55691
3620,8.3373,0.72727,0,0.00038552,3852.5,0.000128,0.0082229,0.0001259,-15.768,-0.00038578,-3860.4,0.57745
3621,8.5216,0.72727,0,0.00038022,3799.6,0.00012615,0.0074239,0.00012433,-13.696,-0.00038045,-3806.4,0.59825
3622,8.7059,0.72727,0,0.00037494,3746.8,0.00012431,0.006728,0.00012275,-11.754,-0.00037514,-3752.7,0.61931
3623,8.8901,0.72727,0,0.00036968,3694.2,0.00012249,0.0061375,0.00012116,-9.9348,-0.00036985,-3699.2,0.64062
3624,9.0744,0.72727,0,0.00036443,3641.8,0.00012067,0.0056603,0.00011957,-8.233,-0.00036457,-3645.9,0.66218
3625,9.2587,0.72727,0,0.0003592,3589.6,0.00011887,0.005319,0.00011798,-6.6424,-0.00035932,-3592.9,0.68399
3626,9.4429,0.72727,0,0.00035399,3537.5,0.00011707,0.0051642,0.00011639,-5.1565,-0.00035408,-3540,0.70605
3627,9.6272,0.72727,0,0.00034879,3485.5,0.00011529,0.0053194,0.00011479,-3.7693,-0.00034886,-3487.4,0.72834
3628,9.8115,0.72727,0,0.00034362,3433.8,0.00011352,0.0061568,0.00011319,-2.4749,-0.00034366,-3435,0.75087
3629,9.9957,0.72727,0,0.00033846,3382.2,0.00011175,0.0093295,0.00011158,-1.2689,-0.00033848,-3382.8,0.77363
3630,10.18,0.72727,0,0.00033331,3330.8,0.00011001,0.052494,0.00010997,-0.18324,-0.00033331,-3330.9,0.79663
3631,10.364,0.72727,0,0.00032819,3279.6,0.00010838,0.93253,0.00010825,-0.0089517,-0.00032817,-3279.1,0.81984
3632,10.549,0.72727,0,0.00032308,3228.5,0.00010678,1.9126,0.00010652,-0.0041442,-0.00032304,-3227.6,0.84328
3633,10.733,0.72727,0,0.00031799,3177.7,0.00010517,2.8321,0.0001048,-0.0028576,-0.00031794,-3176.3,0.86694
3634,10.917,0.72727,0,0.00031292,3127,0.00010357,3.6932,0.00010308,-0.0023291,-0.00031285,-3125.1,0.89082
3635,11.101,0.72727,0,0.00030786,3076.5,0.00010197,4.4996,0.00010137,-0.0021341,-0.00030778,-3074.2,0.91491
3636,11.286,0.72727,0,0.00030283,3026.2,0.00010037,5.2558,9.9672e-05,-0.0020847,-0.00030274,-3023.5,0.9392
3637,11.47,0.72727,0,0.00029781,2976,9.8776e-05,5.9655,9.7981e-05,-0.0021362,-0.00029771,-2973.1,0.9637
3638,11.654,0.72727,0,0.00029281,2926.1,9.7182e-05,6.6328,9.6299e-05,-0.002189,-0.0002927,-2922.8,0.9884
3639,11.838,0.72727,0,0.00028783,2876.3,9.5591e-05,7.2611,9.4624e-05,-0.002225,-0.00028771,-2872.7,1.0133
3640,12.023,0.72727,0,0.00028287,2826.8,9.4004e-05,7.8538,9.2958e-05,-0.0023056,-0.00028274,-2822.8,1.0384
3641,12.207,0.72727,0,0.00027793,2777.4,9.242e-05,8.4141,9.1299e-05,-0.0023988,-0.00027779,-2773.2,1.0637
3642,12.391,0.72727,0,0.00027301,2728.2,9.0839e-05,8.9448,8.9649e-05,-0.0025243,-0.00027285,-2723.7,1.0892
3643,12.575,0.72727,0,0.0002681,2679.2,8.9263e-05,9.4489,8.8005e-05,-0.0026146,-0.00026794,-2674.4,1.1148
3644,12.76,0.72727,0,0.00026322,2630.4,8.7692e-05,9.9292,8.637e-05,-0.002669,-0.00026305,-2625.4,1.1407
3645,12.944,0.72727,0,0.00025835,2581.8,8.6124e-05,10.388,8.4741e-05,-0.0027526,-0.00025818,-2576.5,1.1667
3646,13.128,0.72727,0,0.00025351,2533.3,8.4562e-05,10.828,8.3121e-05,-0.0028413,-0.00025332,-2527.9,1.1929
3647,13.313,0.72727,0,0.00024868,2485.1,8.3005e-05,11.25,8.1507e-05,-0.0029534,-0.00024849,-2479.5,1.2192
3648,13.497,0.72727,0,0.00024388,2437.1,8.1453e-05,11.658,7.9901e-05,-0.0030295,-0.00024368,-2431.2,1.2458
3649,13.681,0.72727,0,0.00023909,2389.2,7.9906e-05,12.054,7.8301e-05,-0.0030738,-0.00023888,-2383.2,1.2725
3650,13.865,0.72727,0,0.00023432,2341.6,7.8365e-05,12.438,7.6709e-05,-0.0031429,-0.00023411,-2335.4,1.2993
3651,14.05,0.72727,0,0.00022957,2294.2,7.6829e-05,12.814,7.5124e-05,-0.0032172,-0.00022935,-2287.7,1.3263
3652,14.234,0.72727,0,0.00022485,2246.9,7.53e-05,13.182,7.3545e-05,-0.003312,-0.00022462,-2240.3,1.3535
3653,14.418,0.72727,0,0.00022014,2199.9,7.3777e-05,13.545,7.1973e-05,-0.0033781,-0.0002199,-2193.1,1.3808
3654,14.602,0.72727,0,0.00021545,2153,7.226e-05,13.905,7.0409e-05,-0.0034123,-0.00021521,-2146,1.4083
3655,14.787,0.72727,0,0.00021078,2106.4,7.0749e-05,14.262,6.885e-05,-0.003473,-0.00021054,-2099.2,1.4359
3656,14.971,0.72727,0,0.00020613,2059.9,6.9245e-05,14.619,6.7299e-05,-0.0035393,-0.00020588,-2052.6,1.4637
3657,15.155,0.72727,0,0.00020151,2013.7,6.7748e-05,14.977,6.5754e-05,-0.0036242,-0.00020125,-2006.2,1.4916
3658,15.339,0.72727,0,0.0001969,1967.6,6.6257e-05,15.338,6.4215e-05,-0.0036851,-0.00019663,-1959.9,1.5196
3659,15.524,0.72727,0,0.00019231,1921.8,6.4774e-05,15.703,6.2683e-05,-0.0037207,-0.00019204,-1913.9,1.5478
3660,15.708,0.72727,0,0.00018774,1876.1,6.3297e-05,16.074,6.1157e-05,-0.0037794,-0.00018747,-1868.1,1.5761
3661,15.892,0.72727,0,0.0001832,1830.7,6.1828e-05,16.453,5.9638e-05,-0.0038419,-0.00018291,-1822.4,1.6045
3662,16.077,0.72727,0,0.00017867,1785.5,6.0367e-05,16.84,5.8125e-05,-0.0039254,-0.00017838,-1777,1.633
3663,16.261,0.72727,0,0.00017416,1740.4,5.8913e-05,17.238,5.6618e-05,-0.0039892,-0.00017386,-1731.8,1.6617
3664,16.445,0.72727,0,0.00016968,1695.6,5.7466e-05,17.648,5.5117e-05,-0.0040312,-0.00016937,-1686.7,1.6905
3665,16.629,0.72727,0,0.00016521,1651,5.6028e-05,18.071,5.3622e-05,-0.0040962,-0.0001649,-1641.9,1.7194
3666,16.814,0.72727,0,0.00016077,1606.6,5.4597e-05,18.511,5.2133e-05,-0.0041691,-0.00016044,-1597.2,1.7484
3667,16.998,0.72727,0,0.00015634,1562.3,5.3175e-05,18.968,5.065e-05,-0.0042573,-0.00015601,-1552.8,1.7775
3668,17.182,0.72727,0,0.00015194,1518.3,5.1761e-05,19.444,4.9173e-05,-0.0043303,-0.0001516,-1508.5,1.8067
3669,17.366,0.72727,0,0.00014755,1474.5,5.0356e-05,19.941,4.7702e-05,-0.0043889,-0.00014721,-1464.5,1.836
3670,17.551,0.72727,0,0.00014319,1430.9,4.8959e-05,20.461,4.6236e-05,-0.0044652,-0.00014283,-1420.6,1.8655
3671,17.735,0.72727,0,0.00013885,1387.5,4.7571e-05,21.006,4.4775e-05,-0.0045523,-0.00013848,-1376.9,1.895
3672,17.919,0.72727,0,0.00013453,1344.3,4.6193e-05,21.578,4.332e-05,-0.0046576,-0.00013415,-1333.4,1.9246
3673,18.103,0.72727,0,0.00013022,1301.3,4.4823e-05,22.179,4.187e-05,-0.0047452,-0.00012983,-1290.1,1.9543
3674,18.288,0.72727,0,0.00012594,1258.6,4.3463e-05,22.812,4.0426e-05,-0.004823,-0.00012554,-1247,1.9841
3675,18.472,0.72727,0,0.00012168,1216,4.2112e-05,23.479,3.8986e-05,-0.0049196,-0.00012127,-1204.1,2.014
3676,18.656,0.72727,0,0.00011744,1173.6,4.0771e-05,24.183,3.7552e-05,-0.0050206,-0.00011701,-1161.3,2.0439
3677,18.841,0.72727,0,0.00011322,1131.5,3.944e-05,24.926,3.6122e-05,-0.0051395,-0.00011278,-1118.8,2.0739
3678,19.025,0.72727,0,0.00010902,1089.5,3.8119e-05,25.711,3.4697e-05,-0.0052445,-0.00010856,-1076.4,2.104
3679,19.209,0.72727,0,0.00010485,1047.7,3.6809e-05,26.541,3.3276e-05,-0.0053368,-0.00010437,-1034.2,2.1342
3680,19.393,0.72727,0,0.00010069,1006.2,3.5509e-05,27.42,3.1859e-05,-0.005443,-0.00010019,-992.21,2.1645
3681,19.578,0.72727,0,9.6552e-05,964.85,3.4221e-05,28.35,3.0447e-05,-0.0055509,-9.6038e-05,-950.36,2.1948
3682,19.762,0.72727,0,9.2435e-05,923.71,3.2943e-05,29.334,2.9038e-05,-0.0056608,-9.1901e-05,-908.7,2.2252
3683,19.946,0.72727,0,8.8339e-05,882.78,3.1677e-05,30.378,2.7634e-05,-0.0057524,-8.7783e-05,-867.2,2.2556
3684,20.13,0.72727,0,8.4263e-05,842.05,3.0423e-05,31.485,2.6232e-05,-0.0058197,-8.3683e-05,-825.87,2.2861
3685,20.315,0.72727,0,8.0208e-05,801.53,2.9182e-05,32.66,2.4834e-05,-0.005877,-7.9603e-05,-784.7,2.3167
3686,20.499,0.72727,0,7.6175e-05,761.22,2.7952e-05,33.907,2.3439e-05,-0.0059108,-7.5541e-05,-743.7,2.3473
3687,20.683,0.72727,0,7.2162e-05,721.12,2.6736e-05,35.232,2.2046e-05,-0.0059115,-7.1498e-05,-702.86,2.3779
3688,20.867,0.72727,0,6.8171e-05,681.24,2.5534e-05,36.643,2.0656e-05,-0.0058521,-6.7473e-05,-662.18,2.4087
3689,21.052,0.72727,0,6.4202e-05,641.57,2.4346e-05,38.146,1.9268e-05,-0.0057089,-6.3468e-05,-621.65,2.4394
3690,21.236,0.72727,0,6.0256e-05,602.14,2.3174e-05,39.751,1.7882e-05,-0.0054731,-5.9481e-05,-581.28,2.4702
3691,21.42,0.72727,0,5.6334e-05,562.95,2.2017e-05,41.468,1.6498e-05,-0.0050977,-5.5514e-05,-541.07,2.501
3692,21.605,0.72727,0,5.2437e-05,524.01,2.0879e-05,43.311,1.5114e-05,-0.0045431,-5.1566e-05,-501.01,2.5319
3693,21.789,0.72727,0,4.8569e-05,485.36,1.976e-05,45.298,1.3731e-05,-0.0037162,-4.764e-05,-461.12,2.5628
3694,21.973,0.72727,0,4.4732e-05,447.01,1.8664e-05,47.449,1.2348e-05,-0.0025105,-4.3735e-05,-421.39,2.5937
3695,22.157,0.72727,0,4.0931e-05,409.02,1.7593e-05,49.794,1.0965e-05,-0.00080004,-3.9855e-05,-381.85,2.6247
3696,22.342,0.72727,0,3.7172e-05,371.46,1.6551e-05,52.372,9.5809e-06,0.0016359,-3.6003e-05,-342.5,2.6557
3697,22.526,0.72727,0,3.3465e-05,334.42,1.5545e-05,55.236,8.1944e-06,0.0051728,-3.2182e-05,-303.36,2.6867
3698,22.71,0.72727,0,2.9825e-05,298.05,1.4584e-05,58.46,6.8045e-06,0.010193,-2.8397e-05,-264.48,2.7177
3699,22.894,0.72727,0,2.6274e-05,262.56,1.3679e-05,62.15,5.4093e-06,0.018168,-2.4659e-05,-225.9,2.7488
3700,23.079,0.72727,0,2.2844e-05,228.28,1.2846e-05,66.451,4.006e-06,0.028225,-2.0976e-05,-187.68,2.7799
3701,23.263,0.72727,0,1.9588e-05,195.75,1.211e-05,71.574,2.5911e-06,0.05276,-1.7363e-05,-149.88,2.8109
3702,23.447,0.72727,0,1.6588e-05,165.76,1.1498e-05,77.774,1.1552e-06,0.061639,-1.3835e-05,-112.57,2.842
3703,23.631,0.72727,0,1.3973e-05,139.63,1.1041e-05,85.421,-2.9819e-07,0.22012,-1.0406e-05,-75.724,2.8731
3704,23.816,0.72727,0,1.1952e-05,119.44,1.0781e-05,94.722,-1.823e-06,0.020104,-7.0769e-06,-39.456,2.9042
3705,1.1509,0.54545,0,0.00023536,2351.9,0.00013421,702.71,3.9187e-05,-11.258,-0.00021532,-1923.5,0.0025477
3706,1.3352,0.54545,0,0.00025006,2498.9,0.00011756,429.19,6.0157e-05,-2.1261,-0.00023999,-2257.3,0.0096829
3707,1.5195,0.54545,0,0.00029328,2930.8,0.00012454,336.29,7.9393e-05,-2.9353,-0.00028614,-2749.4,0.018822
3708,1.7037,0.54545,0,0.00033977,3395.4,0.00013635,292.79,9.7178e-05,-1.5375,-0.00033386,-3240.2,0.028225
3709,1.888,0.54545,0,0.00038197,3817,0.00014769,261.03,0.00011281,-1.0856,-0.00037687,-3680.3,0.037858
3710,2.0723,0.54545,0,0.00041744,4171.5,0.00015685,230,0.00012614,-0.74023,-0.00041306,-4052.1,0.047744
3711,2.2565,0.54545,0,0.00044587,4455.6,0.00016354,197.32,0.00013721,-0.55652,-0.00044219,-4353.9,0.057906
3712,2.4408,0.54545,0,0.00046781,4674.9,0.00016801,163.75,0.00014616,-0.43547,-0.00046482,-4591.1,0.068366
3713,2.6251,0.54545,0,0.00048416,4838.2,0.00017067,130.79,0.00015322,-0.36229,-0.00048181,-4771.7,0.079139
3714,2.8093,0.54545,0,0.00049584,4954.9,0.00017195,99.766,0.00015863,-0.32384,-0.00049407,-4904.5,0.09024
3715,2.9936,0.54545,0,0.00050371,5033.7,0.00017221,71.602,0.00016264,-0.31972,-0.00050246,-4997.6,0.10167
3716,3.1779,0.54545,0,0.00050855,5082,0.00017175,46.831,0.00016547,-0.36269,-0.00050774,-5058.6,0.11345
3717,3.3621,0.54545,0,0.00051097,5106.2,0.00017079,25.699,0.0001673,-0.51426,-0.00051054,-5093.5,0.12557
3718,3.5464,0.54545,0,0.0005115,5111.4,0.00016958,8.6207,0.00016826,-1.2435,-0.00051137,-5107.7,0.13804
3719,3.7307,0.54545,0,0.00051055,5102,0.00016898,1.0877,0.00016774,-8.25,-0.00051067,-5105.6,0.15086
3720,3.9149,0.54545,0,0.00050847,5081.1,0.00016877,0.40068,0.00016617,-19.133,-0.00050878,-5090.5,0.16402
3721,4.0992,0.54545,0,0.0005055,5051.5,0.00016822,0.23731,0.00016447,-27.91,-0.00050597,-5065.3,0.17753
3722,4.2835,0.54545,0,0.00050187,5015.3,0.00016734,0.1666,0.00016272,-34.502,-0.00050245,-5032.3,0.19138
3723,4.4677,0.54545,0,0.00049773,4973.9,0.0001662,0.12731,0.00016097,-39.185,-0.00049839,-4993.3,0.20557
3724,4.652,0.54545,0,0.00049321,4928.7,0.00016486,0.1022,0.00015922,-42.259,-0.00049392,-4949.7,0.2201
3725,4.8363,0.54545,0,0.00048841,4880.7,0.00016336,0.084623,0.00015749,-44.002,-0.00048914,-4902.5,0.23497
3726,5.0205,0.54545,0,0.00048339,4830.6,0.00016173,0.071541,0.00015578,-44.664,-0.00048413,-4852.7,0.25017
3727,5.2048,0.54545,0,0.00047822,4778.9,0.00016001,0.061362,0.00015409,-44.462,-0.00047896,-4800.9,0.26569
3728,5.3891,0.54545,0,0.00047294,4726.1,0.00015823,0.05318,0.00015242,-43.583,-0.00047366,-4747.7,0.28155
3729,5.5733,0.54545,0,0.00046758,4672.5,0.00015639,0.046442,0.00015077,-42.186,-0.00046828,-4693.5,0.29772
3730,5.7576,0.54545,0,0.00046216,4618.4,0.00015451,0.04079,0.00014913,-40.402,-0.00046283,-4638.5,0.31421
3731,5.9419,0.54545,0,0.00045671,4564,0.00015261,0.03598,0.00014751,-38.341,-0.00045735,-4583,0.33102
3732,6.1261,0.54545,0,0.00045124,4509.3,0.0001507,0.031841,0.00014589,-36.091,-0.00045184,-4527.2,0.34814
3733,6.3104,0.54545,0,0.00044576,4454.5,0.00014877,0.028246,0.00014428,-33.725,-0.00044633,-4471.3,0.36556
3734,6.4947,0.54545,0,0.00044028,4399.8,0.00014684,0.0251,0.00014267,-31.3,-0.0004408,-4415.3,0.38329
3735,6.6789,0.54545,0,0.0004348,4345,0.00014491,0.02233,0.00014107,-28.861,-0.00043528,-4359.4,0.40132
3736,6.8632,0.54545,0,0.00042933,4290.3,0.00014299,0.019877,0.00013947,-26.444,-0.00042977,-4303.5,0.41964
3737,7.0475,0.54545,0,0.00042387,4235.8,0.00014107,0.017695,0.00013786,-24.075,-0.00042427,-4247.7,0.43825
3738,7.2317,0.54545,0,0.00041842,4181.3,0.00013916,0.015748,0.00013626,-21.774,-0.00041879,-4192.1,0.45715
3739,7.416,0.54545,0,0.00041299,4127,0.00013725,0.014004,0.00013465,-19.554,-0.00041331,-4136.7,0.47634
3740,7.6003,0.54545,0,0.00040757,4072.9,0.00013536,0.012438,0.00013304,-17.427,-0.00040786,-4081.5,0.4958
3741,7.7845,0.54545,0,0.00040217,4018.9,0.00013348,0.011028,0.00013143,-15.397,-0.00040243,-4026.6,0.51554
3742,7.9688,0.54545,0,0.00039678,3965.1,0.00013161,0.0097574,0.00012981,-13.468,-0.00039701,-3971.8,0.53556
3743,8.1531,0.54545,0,0.00039142,3911.5,0.00012974,0.0086122,0.00012819,-11.64,-0.00039161,-3917.3,0.55584
3744,8.3373,0.54545,0,0.00038607,3858,0.00012789,0.0075801,0.00012657,-9.9145,-0.00038624,-3863,0.57639
3745,8.5216,0.54545,0,0.00038074,3804.8,0.00012605,0.0066531,0.00012495,-8.2879,-0.00038088,-3808.9,0.5972
3746,8.7059,0.54545,0,0.00037543,3751.7,0.00012423,0.0058272,0.00012333,-6.7578,-0.00037554,-3755.1,0.61827
3747,8.8901,0.54545,0,0.00037013,3698.8,0.00012241,0.0051036,0.0001217,-5.3205,-0.00037022,-3701.4,0.6396
3748,9.0744,0.54545,0,0.00036486,3646.1,0.0001206,0.0044983,0.00012007,-3.972,-0.00036493,-3648.1,0.66117
3749,9.2587,0.54545,0,0.0003596,3593.6,0.0001188,0.004064,0.00011844,-2.708,-0.00035965,-3594.9,0.683
3750,9.4429,0.54545,0,0.00035437,3541.2,0.00011702,0.0040339,0.00011681,-1.5242,-0.00035439,-3542,0.70506
3751,9.6272,0.54545,0,0.00034915,3489.1,0.00011524,0.0070038,0.00011518,-0.41861,-0.00034916,-3489.3,0.72737
3752,9.8115,0.54545,0,0.00034395,3437.1,0.00011356,0.62801,0.00011347,-0.0016763,-0.00034394,-3436.8,0.74991
3753,9.9957,0.54545,0,0.00033877,3385.4,0.00011193,1.5983,0.00011172,-0.00016386,-0.00033874,-3384.6,0.77269
3754,10.18,0.54545,0,0.00033361,3333.8,0.0001103,2.5083,0.00010997,-0.00013665,-0.00033357,-3332.5,0.79569
3755,10.364,0.54545,0,0.00032847,3282.4,0.00010868,3.3611,0.00010823,-0.00032625,-0.00032841,-3280.7,0.81893
3756,10.549,0.54545,0,0.00032335,3231.2,0.00010705,4.1604,0.0001065,-0.00062258,-0.00032327,-3229.1,0.84238
3757,10.733,0.54545,0,0.00031824,3180.2,0.00010543,4.9103,0.00010478,-0.0008922,-0.00031816,-3177.8,0.86605
3758,10.917,0.54545,0,0.00031316,3129.4,0.00010381,5.6145,0.00010306,-0.001119,-0.00031306,-3126.6,0.88994
3759,11.101,0.54545,0,0.00030809,3078.8,0.0001022,6.2762,0.00010136,-0.0013715,-0.00030799,-3075.7,0.91404
3760,11.286,0.54545,0,0.00030305,3028.4,0.00010058,6.899,9.9664e-05,-0.0016184,-0.00030293,-3024.9,0.93835
3761,11.47,0.54545,0,0.00029802,2978.2,9.8972e-05,7.4859,9.7976e-05,-0.0018863,-0.00029789,-2974.4,0.96286
3762,11.654,0.54545,0,0.00029301,2928.1,9.7366e-05,8.04,9.6296e-05,-0.0021021,-0.00029288,-2924.1,0.98758
3763,11.838,0.54545,0,0.00028803,2878.3,9.5764e-05,8.5642,9.4624e-05,-0.002267,-0.00028788,-2874,1.0125
3764,12.023,0.54545,0,0.00028306,2828.6,9.4166e-05,9.0608,9.296e-05,-0.0024536,-0.0002829,-2824.1,1.0376
3765,12.207,0.54545,0,0.00027811,2779.2,9.2573e-05,9.5326,9.1304e-05,-0.0026373,-0.00027795,-2774.4,1.0629
3766,12.391,0.54545,0,0.00027318,2729.9,9.0984e-05,9.9816,8.9655e-05,-0.0028365,-0.00027301,-2724.9,1.0884
3767,12.575,0.54545,0,0.00026827,2680.9,8.94e-05,10.41,8.8014e-05,-0.002994,-0.0002681,-2675.7,1.1141
3768,12.76,0.54545,0,0.00026338,2632,8.7821e-05,10.821,8.638e-05,-0.003105,-0.0002632,-2626.6,1.1399
3769,12.944,0.54545,0,0.00025852,2583.4,8.6247e-05,11.215,8.4754e-05,-0.0032423,-0.00025832,-2577.7,1.1659
3770,13.128,0.54545,0,0.00025367,2534.9,8.4678e-05,11.595,8.3135e-05,-0.0033759,-0.00025347,-2529.1,1.1921
3771,13.313,0.54545,0,0.00024884,2486.6,8.3115e-05,11.962,8.1522e-05,-0.0035327,-0.00024863,-2480.6,1.2185
3772,13.497,0.54545,0,0.00024403,2438.6,8.1558e-05,12.319,7.9918e-05,-0.0036525,-0.00024381,-2432.4,1.2451
3773,13.681,0.54545,0,0.00023924,2390.7,8.0006e-05,12.666,7.832e-05,-0.0037329,-0.00023902,-2384.4,1.2718
3774,13.865,0.54545,0,0.00023447,2343.1,7.846e-05,13.005,7.6729e-05,-0.0038391,-0.00023424,-2336.5,1.2986
3775,14.05,0.54545,0,0.00022972,2295.6,7.692e-05,13.337,7.5145e-05,-0.0039458,-0.00022949,-2288.9,1.3257
3776,14.234,0.54545,0,0.00022499,2248.3,7.5387e-05,13.665,7.3567e-05,-0.0040769,-0.00022475,-2241.5,1.3529
3777,14.418,0.54545,0,0.00022028,2201.3,7.3859e-05,13.99,7.1997e-05,-0.0041766,-0.00022004,-2194.2,1.3802
3778,14.602,0.54545,0,0.00021559,2154.4,7.2339e-05,14.312,7.0433e-05,-0.0042424,-0.00021534,-2147.2,1.4077
3779,14.787,0.54545,0,0.00021092,2107.7,7.0824e-05,14.633,6.8876e-05,-0.0043354,-0.00021066,-2100.4,1.4353
3780,14.971,0.54545,0,0.00020627,2061.3,6.9317e-05,14.954,6.7326e-05,-0.0044317,-0.00020601,-2053.7,1.4631
3781,15.155,0.54545,0,0.00020164,2015,6.7816e-05,15.277,6.5782e-05,-0.0045506,-0.00020137,-2007.3,1.491
3782,15.339,0.54545,0,0.00019703,1968.9,6.6322e-05,15.603,6.4245e-05,-0.0046465,-0.00019676,-1961.1,1.519
3783,15.524,0.54545,0,0.00019244,1923.1,6.4835e-05,15.933,6.2714e-05,-0.0047166,-0.00019216,-1915.1,1.5472
3784,15.708,0.54545,0,0.00018787,1877.4,6.3355e-05,16.269,6.119e-05,-0.0048114,-0.00018759,-1869.2,1.5755
3785,15.892,0.54545,0,0.00018332,1832,6.1883e-05,16.61,5.9671e-05,-0.0049133,-0.00018303,-1823.6,1.604
3786,16.077,0.54545,0,0.00017879,1786.7,6.0417e-05,16.96,5.816e-05,-0.0050361,-0.0001785,-1778.2,1.6325
3787,16.261,0.54545,0,0.00017429,1741.7,5.896e-05,17.318,5.6654e-05,-0.0051407,-0.00017398,-1732.9,1.6612
3788,16.445,0.54545,0,0.0001698,1696.8,5.7509e-05,17.687,5.5155e-05,-0.0052298,-0.00016949,-1687.9,1.69
3789,16.629,0.54545,0,0.00016533,1652.2,5.6066e-05,18.067,5.3661e-05,-0.0053415,-0.00016502,-1643.1,1.7189
3790,16.814,0.54545,0,0.00016088,1607.7,5.4631e-05,18.459,5.2174e-05,-0.0054635,-0.00016056,-1598.4,1.7479
3791,16.998,0.54545,0,0.00015646,1563.5,5.3204e-05,18.866,5.0692e-05,-0.0056088,-0.00015613,-1554,1.777
3792,17.182,0.54545,0,0.00015205,1519.4,5.1785e-05,19.288,4.9217e-05,-0.0057418,-0.00015171,-1509.7,1.8063
3793,17.366,0.54545,0,0.00014766,1475.6,5.0374e-05,19.727,4.7747e-05,-0.005863,-0.00014732,-1465.6,1.8356
3794,17.551,0.54545,0,0.00014329,1432,4.897e-05,20.184,4.6283e-05,-0.0060068,-0.00014294,-1421.8,1.865
3795,17.735,0.54545,0,0.00013895,1388.5,4.7576e-05,20.66,4.4825e-05,-0.0061658,-0.00013858,-1378.1,1.8946
3796,17.919,0.54545,0,0.00013462,1345.3,4.6189e-05,21.158,4.3372e-05,-0.0063522,-0.00013425,-1334.6,1.9242
3797,18.103,0.54545,0,0.00013031,1302.2,4.4811e-05,21.678,4.1925e-05,-0.0065313,-0.00012993,-1291.3,1.9539
3798,18.288,0.54545,0,0.00012603,1259.4,4.3442e-05,22.222,4.0483e-05,-0.0067048,-0.00012564,-1248.2,1.9837
3799,18.472,0.54545,0,0.00012176,1216.8,4.2081e-05,22.793,3.9046e-05,-0.006905,-0.00012136,-1205.2,2.0136
3800,18.656,0.54545,0,0.00011751,1174.3,4.0729e-05,23.391,3.7615e-05,-0.0071256,-0.0001171,-1162.5,2.0436
3801,18.841,0.54545,0,0.00011329,1132.1,3.9386e-05,24.018,3.6188e-05,-0.007371,-0.00011286,-1119.9,2.0736
3802,19.025,0.54545,0,0.00010908,1090,3.8052e-05,24.676,3.4767e-05,-0.0076173,-0.00010864,-1077.5,2.1037
3803,19.209,0.54545,0,0.00010489,1048.2,3.6727e-05,25.367,3.335e-05,-0.0078666,-0.00010444,-1035.3,2.1339
3804,19.393,0.54545,0,0.00010072,1006.5,3.5411e-05,26.093,3.1937e-05,-0.0081445,-0.00010025,-993.24,2.1642
3805,19.578,0.54545,0,9.6574e-05,965.07,3.4105e-05,26.857,3.0529e-05,-0.0084397,-9.6089e-05,-951.37,2.1945
3806,19.762,0.54545,0,9.2444e-05,923.8,3.2808e-05,27.659,2.9125e-05,-0.0087655,-9.1943e-05,-909.67,2.2249
3807,19.946,0.54545,0,8.8333e-05,882.72,3.1521e-05,28.502,2.7726e-05,-0.0090956,-8.7814e-05,-868.13,2.2553
3808,20.13,0.54545,0,8.4241e-05,841.83,3.0243e-05,29.389,2.633e-05,-0.0094279,-8.3703e-05,-826.75,2.2859
3809,20.315,0.54545,0,8.0168e-05,801.13,2.8975e-05,30.322,2.4938e-05,-0.0097898,-7.9609e-05,-785.54,2.3164
3810,20.499,0.54545,0,7.6114e-05,760.61,2.7718e-05,31.304,2.355e-05,-0.010156,-7.5533e-05,-744.48,2.347
3811,20.683,0.54545,0,7.2078e-05,720.28,2.647e-05,32.338,2.2165e-05,-0.01054,-7.1473e-05,-703.57,2.3777
3812,20.867,0.54545,0,6.8061e-05,680.14,2.5234e-05,33.428,2.0783e-05,-0.010914,-6.7431e-05,-662.82,2.4084
3813,21.052,0.54545,0,6.4064e-05,640.2,2.4008e-05,34.576,1.9404e-05,-0.011266,-6.3406e-05,-622.21,2.4392
3814,21.236,0.54545,0,6.0086e-05,600.44,2.2793e-05,35.789,1.8028e-05,-0.011596,-5.9397e-05,-581.75,2.47
3815,21.42,0.54545,0,5.6128e-05,560.89,2.159e-05,37.073,1.6654e-05,-0.011879,-5.5405e-05,-541.44,2.5008
3816,21.605,0.54545,0,5.219e-05,521.54,2.04e-05,38.433,1.5283e-05,-0.012077,-5.143e-05,-501.27,2.5317
3817,21.789,0.54545,0,4.8275e-05,482.42,1.9223e-05,39.881,1.3913e-05,-0.01213,-4.7473e-05,-461.25,2.5626
3818,21.973,0.54545,0,4.4385e-05,443.54,1.8061e-05,41.43,1.2546e-05,-0.011966,-4.3535e-05,-421.38,2.5936
3819,22.157,0.54545,0,4.0522e-05,404.94,1.6917e-05,43.096,1.118e-05,-0.011484,-3.9617e-05,-381.67,2.6245
3820,22.342,0.54545,0,3.6691e-05,366.66,1.5793e-05,44.906,9.8146e-06,-0.010492,-3.5721e-05,-342.14,2.6555
3821,22.526,0.54545,0,3.29e-05,328.77,1.4693e-05,46.896,8.4501e-06,-0.008681,-3.185e-05,-302.81,2.6865
3822,22.71,0.54545,0,2.9159e-05,291.39,1.3624e-05,49.12,7.0857e-06,-0.0057121,-2.8011e-05,-263.71,2.7176
3823,22.894,0.54545,0,2.5485e-05,254.68,1.2596e-05,51.662,5.7203e-06,-0.00022616,-2.421e-05,-224.89,2.7486
3824,23.079,0.54545,0,2.1908e-05,218.93,1.1625e-05,54.654,4.3521e-06,0.0069531,-2.046e-05,-186.42,2.7797
3825,23.263,0.54545,0,1.8476e-05,184.63,1.0736e-05,58.313,2.9786e-06,0.027827,-1.678e-05,-148.43,2.8108
3826,23.447,0.54545,0,1.5273e-05,152.63,9.9681e-06,62.972,1.5912e-06,0.03116,-1.3194e-05,-111.06,2.8419
3827,23.631,0.54545,0,1.2456e-05,124.47,9.3797e-06,69.216,1.9197e-07,0.18265,-9.7444e-06,-74.475,2.873
3828,23.816,0.54545,0,1.0288e-05,102.81,9.057e-06,77.647,-1.2818e-06,-0.034746,-6.4592e-06,-38.936,2.9041
3829,1.1509,0.36364,0,0.00016773,1676.1,8.6943e-05,383.58,3.3941e-05,-14.655,-0.00015786,-1455.8,0.0031157
3830,1.3352,0.36364,0,0.00020218,2020.4,8.5299e-05,223.59,5.4956e-05,-4.3925,-0.00019748,-1901.1,0.0079602
3831,1.5195,0.36364,0,0.00025714,2569.6,0.00010139,198.31,7.456e-05,-3.3059,-0.00025323,-2466.2,0.01712
3832,1.7037,0.36364,0,0.00031075,3105.3,0.00011868,194.16,9.2669e-05,-1.2903,-0.000307,-3004.3,0.02659
3833,1.888,0.36364,0,0.00035789,3576.5,0.00013366,187.21,0.00010864,-0.79472,-0.00035435,-3479.5,0.036288
3834,2.0723,0.36364,0,0.00039736,3970.8,0.00014559,173.84,0.00012238,-0.5486,-0.00039412,-3881.3,0.046229
3835,2.2565,0.36364,0,0.00042925,4289.6,0.00015456,155.01,0.00013387,-0.45734,-0.00042641,-4210.2,0.056437
3836,2.4408,0.36364,0,0.00045427,4539.6,0.00016099,132.94,0.00014324,-0.39366,-0.00045187,-4471.8,0.066934
3837,2.6251,0.36364,0,0.00047331,4729.9,0.00016535,109.75,0.0001507,-0.33996,-0.00047136,-4674.2,0.077737
3838,2.8093,0.36364,0,0.00048733,4869.9,0.00016809,87.047,0.00015646,-0.28946,-0.0004858,-4826,0.08886
3839,2.9936,0.36364,0,0.0004972,4968.6,0.00016959,65.925,0.00016078,-0.24537,-0.00049605,-4935.4,0.10031
3840,3.1779,0.36364,0,0.0005037,5033.5,0.00017015,47.013,0.00016387,-0.21285,-0.00050289,-5010,0.1121
3841,3.3621,0.36364,0,0.0005075,5071.5,0.00017004,30.601,0.00016594,-0.20156,-0.00050697,-5056.2,0.12423
3842,3.5464,0.36364,0,0.00050914,5087.9,0.00016943,16.763,0.00016717,-0.24092,-0.00050886,-5079.6,0.13671
3843,3.7307,0.36364,0,0.0005091,5087.5,0.0001685,5.6029,0.00016768,-0.54334,-0.00050901,-5084.9,0.14953
3844,3.9149,0.36364,0,0.00050772,5073.7,0.00016783,0.57336,0.00016712,-4.7553,-0.00050779,-5075.8,0.1627
3845,4.0992,0.36364,0,0.00050532,5049.7,0.00016735,0.23595,0.00016577,-11.678,-0.00050551,-5055.4,0.17621
3846,4.2835,0.36364,0,0.00050211,5017.7,0.00016656,0.17005,0.00016426,-17.142,-0.0005024,-5026.1,0.19006
3847,4.4677,0.36364,0,0.0004983,4979.5,0.0001655,0.14543,0.00016266,-21.168,-0.00049865,-4990,0.20426
3848,4.652,0.36364,0,0.00049401,4936.7,0.00016422,0.13277,0.00016101,-23.959,-0.00049441,-4948.6,0.21879
3849,4.8363,0.36364,0,0.00048937,4890.3,0.00016278,0.12435,0.00015934,-25.719,-0.0004898,-4903.1,0.23366
3850,5.0205,0.36364,0,0.00048447,4841.3,0.0001612,0.11752,0.00015764,-26.635,-0.00048491,-4854.5,0.24887
3851,5.2048,0.36364,0,0.00047936,4790.3,0.00015953,0.11126,0.00015594,-26.869,-0.00047981,-4803.6,0.2644
3852,5.3891,0.36364,0,0.00047412,4737.9,0.00015778,0.10516,0.00015423,-26.563,-0.00047456,-4751.1,0.28026
3853,5.5733,0.36364,0,0.00046877,4684.4,0.00015598,0.099111,0.00015253,-25.837,-0.0004692,-4697.2,0.29644
3854,5.7576,0.36364,0,0.00046334,4630.2,0.00015414,0.093087,0.00015083,-24.79,-0.00046376,-4642.5,0.31294
3855,5.9419,0.36364,0,0.00045787,4575.5,0.00015227,0.087121,0.00014913,-23.507,-0.00045826,-4587.2,0.32975
3856,6.1261,0.36364,0,0.00045236,4520.5,0.00015038,0.081259,0.00014743,-22.057,-0.00045273,-4531.5,0.34687
3857,6.3104,0.36364,0,0.00044684,4465.4,0.00014848,0.075545,0.00014574,-20.495,-0.00044719,-4475.5,0.36431
3858,6.4947,0.36364,0,0.00044131,4410.1,0.00014657,0.070019,0.00014405,-18.866,-0.00044163,-4419.5,0.38204
3859,6.6789,0.36364,0,0.00043579,4354.9,0.00014467,0.064713,0.00014237,-17.206,-0.00043608,-4363.4,0.40008
3860,6.8632,0.36364,0,0.00043027,4299.7,0.00014276,0.059651,0.00014069,-15.543,-0.00043053,-4307.4,0.41841
3861,7.0475,0.36364,0,0.00042475,4244.6,0.00014086,0.054847,0.000139,-13.899,-0.00042499,-4251.5,0.43703
3862,7.2317,0.36364,0,0.00041926,4189.7,0.00013897,0.050313,0.00013732,-12.29,-0.00041946,-4195.8,0.45594
3863,7.416,0.36364,0,0.00041377,4134.9,0.00013708,0.046053,0.00013565,-10.728,-0.00041396,-4140.2,0.47514
3864,7.6003,0.36364,0,0.00040831,4080.3,0.0001352,0.042073,0.00013397,-9.2215,-0.00040847,-4084.9,0.49462
3865,7.7845,0.36364,0,0.00040287,4025.9,0.00013333,0.038373,0.00013229,-7.7769,-0.000403,-4029.7,0.51437
3866,7.9688,0.36364,0,0.00039744,3971.7,0.00013147,0.034961,0.00013062,-6.3975,-0.00039755,-3974.8,0.5344
3867,8.1531,0.36364,0,0.00039203,3917.6,0.00012963,0.031855,0.00012894,-5.085,-0.00039212,-3920.2,0.55469
3868,8.3373,0.36364,0,0.00038665,3863.8,0.00012779,0.0291,0.00012727,-3.84,-0.00038671,-3865.7,0.57525
3869,8.5216,0.36364,0,0.00038128,3810.2,0.00012596,0.026835,0.0001256,-2.6618,-0.00038133,-3811.5,0.59608
3870,8.7059,0.36364,0,0.00037594,3756.8,0.00012414,0.025584,0.00012393,-1.5497,-0.00037597,-3757.6,0.61716
3871,8.8901,0.36364,0,0.00037062,3703.6,0.00012233,0.029932,0.00012226,-0.5062,-0.00037062,-3703.8,0.6385
3872,9.0744,0.36364,0,0.00036531,3650.6,0.0001206,0.50474,0.00012053,0.0062857,-0.0003653,-3650.4,0.66009
3873,9.2587,0.36364,0,0.00036003,3597.8,0.00011893,1.4291,0.00011874,0.011408,-0.00036001,-3597.1,0.68192
3874,9.4429,0.36364,0,0.00035477,3545.3,0.00011727,2.3041,0.00011696,0.010893,-0.00035473,-3544.1,0.704
3875,9.6272,0.36364,0,0.00034953,3492.9,0.00011561,3.1279,0.00011519,0.0096828,-0.00034948,-3491.3,0.72632
3876,9.8115,0.36364,0,0.00034431,3440.7,0.00011395,3.903,0.00011343,0.0083389,-0.00034424,-3438.8,0.74888
3877,9.9957,0.36364,0,0.00033911,3388.8,0.00011229,4.6322,0.00011168,0.006986,-0.00033903,-3386.5,0.77167
3878,10.18,0.36364,0,0.00033393,3337,0.00011064,5.3184,0.00010993,0.0056839,-0.00033384,-3334.4,0.79469
3879,10.364,0.36364,0,0.00032878,3285.5,0.00010899,5.9647,0.0001082,0.0044589,-0.00032867,-3282.5,0.81794
3880,10.549,0.36364,0,0.00032364,3234.1,0.00010735,6.5737,0.00010648,0.0032579,-0.00032353,-3230.9,0.8414
3881,10.733,0.36364,0,0.00031852,3183,0.00010571,7.1482,0.00010476,0.0021695,-0.0003184,-3179.4,0.86509
3882,10.917,0.36364,0,0.00031342,3132.1,0.00010407,7.6908,0.00010305,0.0011944,-0.00031329,-3128.2,0.88899
3883,11.101,0.36364,0,0.00030835,3081.4,0.00010244,8.2039,0.00010135,0.0002506,-0.00030821,-3077.2,0.91311
3884,11.286,0.36364,0,0.00030329,3030.8,0.00010081,8.6899,9.9656e-05,-0.00063715,-0.00030314,-3026.5,0.93743
3885,11.47,0.36364,0,0.00029826,2980.5,9.9189e-05,9.1508,9.7971e-05,-0.0014972,-0.0002981,-2975.9,0.96196
3886,11.654,0.36364,0,0.00029324,2930.4,9.7571e-05,9.5892,9.6294e-05,-0.002264,-0.00029308,-2925.6,0.98669
3887,11.838,0.36364,0,0.00028825,2880.5,9.5957e-05,10.007,9.4625e-05,-0.0029419,-0.00028808,-2875.5,1.0116
3888,12.023,0.36364,0,0.00028327,2830.8,9.4349e-05,10.405,9.2964e-05,-0.0036052,-0.00028309,-2825.5,1.0367
3889,12.207,0.36364,0,0.00027832,2781.3,9.2746e-05,10.787,9.131e-05,-0.0042333,-0.00027813,-2775.8,1.0621
3890,12.391,0.36364,0,0.00027338,2731.9,9.1148e-05,11.153,8.9663e-05,-0.004852,-0.00027319,-2726.4,1.0876
3891,12.575,0.36364,0,0.00026847,2682.8,8.9556e-05,11.505,8.8024e-05,-0.0053988,-0.00026827,-2677.1,1.1132
3892,12.76,0.36364,0,0.00026358,2633.9,8.7969e-05,11.845,8.6392e-05,-0.0058803,-0.00026337,-2628,1.1391
3893,12.944,0.36364,0,0.0002587,2585.2,8.6388e-05,12.175,8.4767e-05,-0.0063625,-0.00025849,-2579.1,1.1652
3894,13.128,0.36364,0,0.00025385,2536.7,8.4814e-05,12.494,8.315e-05,-0.0068234,-0.00025363,-2530.5,1.1914
3895,13.313,0.36364,0,0.00024902,2488.4,8.3245e-05,12.806,8.1539e-05,-0.0072917,-0.0002488,-2482,1.2178
3896,13.497,0.36364,0,0.0002442,2440.3,8.1682e-05,13.11,7.9936e-05,-0.0077042,-0.00024398,-2433.8,1.2443
3897,13.681,0.36364,0,0.00023941,2392.4,8.0125e-05,13.409,7.8339e-05,-0.0080712,-0.00023918,-2385.7,1.271
3898,13.865,0.36364,0,0.00023464,2344.8,7.8575e-05,13.703,7.675e-05,-0.0084481,-0.0002344,-2337.9,1.2979
3899,14.05,0.36364,0,0.00022989,2297.3,7.7031e-05,13.993,7.5167e-05,-0.0088186,-0.00022964,-2290.2,1.325
3900,14.234,0.36364,0,0.00022515,2250,7.5493e-05,14.281,7.3591e-05,-0.0092036,-0.00022491,-2242.8,1.3522
3901,14.418,0.36364,0,0.00022044,2202.9,7.3962e-05,14.567,7.2022e-05,-0.0095514,-0.00022019,-2195.6,1.3795
3902,14.602,0.36364,0,0.00021575,2156,7.2438e-05,14.853,7.046e-05,-0.0098658,-0.00021549,-2148.6,1.407
3903,14.787,0.36364,0,0.00021108,2109.3,7.092e-05,15.139,6.8904e-05,-0.0102,-0.00021082,-2101.7,1.4347
3904,14.971,0.36364,0,0.00020643,2062.9,6.941e-05,15.427,6.7355e-05,-0.010541,-0.00020616,-2055.1,1.4624
3905,15.155,0.36364,0,0.0002018,2016.6,6.7906e-05,15.716,6.5812e-05,-0.010902,-0.00020153,-2008.7,1.4904
3906,15.339,0.36364,0,0.00019719,1970.5,6.6408e-05,16.009,6.4276e-05,-0.011243,-0.00019691,-1962.5,1.5184
3907,15.524,0.36364,0,0.0001926,1924.6,6.4918e-05,16.305,6.2747e-05,-0.011561,-0.00019231,-1916.4,1.5466
3908,15.708,0.36364,0,0.00018803,1879,6.3435e-05,16.607,6.1224e-05,-0.011912,-0.00018774,-1870.6,1.5749
3909,15.892,0.36364,0,0.00018348,1833.5,6.196e-05,16.914,5.9707e-05,-0.012276,-0.00018318,-1825,1.6034
3910,16.077,0.36364,0,0.00017895,1788.2,6.0491e-05,17.227,5.8196e-05,-0.012672,-0.00017865,-1779.6,1.632
3911,16.261,0.36364,0,0.00017444,1743.2,5.9029e-05,17.548,5.6692e-05,-0.01306,-0.00017413,-1734.3,1.6607
3912,16.445,0.36364,0,0.00016995,1698.3,5.7575e-05,17.877,5.5194e-05,-0.013442,-0.00016964,-1689.3,1.6895
3913,16.629,0.36364,0,0.00016548,1653.7,5.6129e-05,18.216,5.3702e-05,-0.013866,-0.00016516,-1644.5,1.7184
3914,16.814,0.36364,0,0.00016103,1609.2,5.4689e-05,18.564,5.2217e-05,-0.014317,-0.00016071,-1599.8,1.7474
3915,16.998,0.36364,0,0.0001566,1564.9,5.3257e-05,18.923,5.0737e-05,-0.014808,-0.00015627,-1555.4,1.7766
3916,17.182,0.36364,0,0.00015219,1520.9,5.1833e-05,19.294,4.9263e-05,-0.015314,-0.00015185,-1511.1,1.8058
3917,17.366,0.36364,0,0.0001478,1477,5.0417e-05,19.677,4.7796e-05,-0.015826,-0.00014746,-1467.1,1.8352
3918,17.551,0.36364,0,0.00014343,1433.3,4.9008e-05,20.074,4.6334e-05,-0.016399,-0.00014308,-1423.2,1.8646
3919,17.735,0.36364,0,0.00013908,1389.9,4.7606e-05,20.485,4.4878e-05,-0.017011,-0.00013872,-1379.5,1.8941
3920,17.919,0.36364,0,0.00013475,1346.6,4.6213e-05,20.911,4.3427e-05,-0.017682,-0.00013439,-1336,1.9238
3921,18.103,0.36364,0,0.00013044,1303.5,4.4827e-05,21.354,4.1982e-05,-0.018387,-0.00013007,-1292.7,1.9535
3922,18.288,0.36364,0,0.00012615,1260.6,4.3449e-05,21.813,4.0543e-05,-0.019128,-0.00012577,-1249.6,1.9833
3923,18.472,0.36364,0,0.00012188,1218,4.2079e-05,22.291,3.9109e-05,-0.019943,-0.00012149,-1206.7,2.0132
3924,18.656,0.36364,0,0.00011763,1175.5,4.0716e-05,22.787,3.7681e-05,-0.020828,-0.00011722,-1163.9,2.0432
3925,18.841,0.36364,0,0.00011339,1133.1,3.9362e-05,23.303,3.6258e-05,-0.021794,-0.00011298,-1121.3,2.0732
3926,19.025,0.36364,0,0.00010918,1091,3.8015e-05,23.839,3.4839e-05,-0.022824,-0.00010875,-1078.9,2.1034
3927,19.209,0.36364,0,0.00010498,1049.1,3.6677e-05,24.396,3.3426e-05,-0.023928,-0.00010455,-1036.7,2.1336
3928,19.393,0.36364,0,0.0001008,1007.3,3.5346e-05,24.976,3.2018e-05,-0.025138,-0.00010036,-994.63,2.1638
3929,19.578,0.36364,0,9.6644e-05,965.77,3.4023e-05,25.578,3.0615e-05,-0.026451,-9.6184e-05,-952.74,2.1942
3930,19.762,0.36364,0,9.2502e-05,924.38,3.2707e-05,26.204,2.9216e-05,-0.027889,-9.2029e-05,-911.01,2.2246
3931,19.946,0.36364,0,8.8378e-05,883.17,3.14e-05,26.854,2.7822e-05,-0.029438,-8.7891e-05,-869.45,2.255
3932,20.13,0.36364,0,8.4271e-05,842.13,3.01e-05,27.529,2.6432e-05,-0.03111,-8.377e-05,-828.04,2.2856
3933,20.315,0.36364,0,8.0182e-05,801.26,2.8808e-05,28.229,2.5047e-05,-0.03294,-7.9665e-05,-786.79,2.3161
3934,20.499,0.36364,0,7.6109e-05,760.57,2.7524e-05,28.955,2.3665e-05,-0.034933,-7.5576e-05,-745.69,2.3468
3935,20.683,0.36364,0,7.2053e-05,720.04,2.6246e-05,29.708,2.2288e-05,-0.037116,-7.1502e-05,-704.74,2.3775
3936,20.867,0.36364,0,6.8014e-05,679.67,2.4977e-05,30.487,2.0914e-05,-0.039482,-6.7444e-05,-663.93,2.4082
3937,21.052,0.36364,0,6.3991e-05,639.47,2.3715e-05,31.293,1.9544e-05,-0.042055,-6.3401e-05,-623.26,2.4389
3938,21.236,0.36364,0,5.9984e-05,599.42,2.246e-05,32.128,1.8178e-05,-0.04487,-5.9373e-05,-582.73,2.4698
3939,21.42,0.36364,0,5.5993e-05,559.55,2.1213e-05,32.991,1.6815e-05,-0.047943,-5.5359e-05,-542.34,2.5006
3940,21.605,0.36364,0,5.2019e-05,519.83,1.9973e-05,33.884,1.5456e-05,-0.051297,-5.136e-05,-502.08,2.5315
3941,21.789,0.36364,0,4.8062e-05,480.29,1.874e-05,34.809,1.41e-05,-0.054946,-4.7376e-05,-461.96,2.5624
3942,21.973,0.36364,0,4.4123e-05,440.92,1.7516e-05,35.768,1.2748e-05,-0.058908,-4.3406e-05,-421.98,2.5934
3943,22.157,0.36364,0,4.0203e-05,401.76,1.6301e-05,36.768,1.1399e-05,-0.063198,-3.9452e-05,-382.14,2.6243
3944,22.342,0.36364,0,3.6306e-05,362.81,1.5095e-05,37.814,1.0053e-05,-0.067814,-3.5515e-05,-342.45,2.6553
3945,22.526,0.36364,0,3.2434e-05,324.12,1.3901e-05,38.922,8.711e-06,-0.072667,-3.1597e-05,-302.93,2.6864
3946,22.71,0.36364,0,2.8595e-05,285.75,1.2722e-05,40.112,7.3726e-06,-0.077738,-2.7701e-05,-263.6,2.7174
3947,22.894,0.36364,0,2.4798e-05,247.81,1.1562e-05,41.425,6.038e-06,-0.082175,-2.3833e-05,-224.52,2.7485
3948,23.079,0.36364,0,2.1063e-05,210.48,1.0433e-05,42.932,4.707e-06,-0.087239,-2.0001e-05,-185.74,2.7795
3949,23.263,0.36364,0,1.7423e-05,174.11,9.3501e-06,44.776,3.3797e-06,-0.083431,-1.6223e-05,-147.37,2.8106
3950,23.447,0.36364,0,1.3947e-05,139.37,8.3507e-06,47.236,2.0511e-06,-0.096704,-1.2528e-05,-109.64,2.8417
3951,23.631,0.36364,0,1.0796e-05,107.89,7.513e-06,51.015,7.2372e-07,0.0030353,-8.982e-06,-72.922,2.8728
3952,23.816,0.36364,0,8.3405e-06,83.347,7.018e-06,57.471,-6.6922e-07,-0.28749,-5.6987e-06,-38.077,2.904
3953,1.1509,0.18182,0,0.00011462,1145.4,5.38e-05,178.83,2.5944e-05,-30.471,-0.00011065,-1056.8,0.0044754
3954,1.3352,0.18182,0,0.0001739,1737.8,6.855e-05,130.67,5.0135e-05,-7.6935,-0.00017139,-1672.2,0.0062662
3955,1.5195,0.18182,0,0.00023643,2362.7,8.8898e-05,129.4,7.1257e-05,-3.1387,-0.000234,-2296.7,0.01538
3956,1.7037,0.18182,0,0.00029288,2926.8,0.0001073,128.15,9.0209e-05,-0.29381,-0.00029049,-2860.7,0.024893
3957,1.888,0.18182,0,0.00034173,3415,0.00012282,121.11,0.00010675,0.35275,-0.00033951,-3352.6,0.034639
3958,2.0723,0.18182,0,0.00038281,3825.5,0.00013545,109.9,0.00012089,0.49934,-0.00038082,-3769.1,0.044624
3959,2.2565,0.18182,0,0.00041645,4161.7,0.00014542,96.202,0.00013267,0.40727,-0.00041473,-4112.5,0.05487
3960,2.4408,0.18182,0,0.00044331,4430.1,0.00015308,81.554,0.00014226,0.28249,-0.00044186,-4388.6,0.065398
3961,2.6251,0.18182,0,0.0004642,4638.8,0.00015877,67.068,0.00014987,0.17604,-0.00046302,-4604.8,0.076227
3962,2.8093,0.18182,0,0.00047996,4796.2,0.00016284,53.476,0.00015574,0.10423,-0.00047902,-4769.2,0.08737
3963,2.9936,0.18182,0,0.00049141,4910.7,0.0001656,41.197,0.00016013,0.062443,-0.00049069,-4889.9,0.098838
3964,3.1779,0.18182,0,0.00049931,4989.6,0.00016731,30.423,0.00016327,0.041448,-0.00049878,-4974.3,0.11064
3965,3.3621,0.18182,0,0.0005043,5039.5,0.00016819,21.195,0.00016537,0.03129,-0.00050394,-5028.9,0.12278
3966,3.5464,0.18182,0,0.00050695,5066,0.00016842,13.462,0.00016663,0.021729,-0.00050672,-5059.3,0.13526
3967,3.7307,0.18182,0,0.00050773,5073.8,0.00016815,7.1266,0.0001672,-0.0053417,-0.00050761,-5070.3,0.14809
3968,3.9149,0.18182,0,0.00050703,5066.8,0.00016751,2.1699,0.0001672,-0.16923,-0.00050699,-5065.8,0.16126
3969,4.0992,0.18182,0,0.00050515,5048,0.00016684,0.29243,0.00016649,-2.3182,-0.00050519,-5049.1,0.17478
3970,4.2835,0.18182,0,0.00050236,5020.2,0.00016606,0.17867,0.00016533,-5.2821,-0.00050245,-5022.7,0.18864
3971,4.4677,0.18182,0,0.00049886,4985.2,0.00016501,0.15244,0.00016399,-7.5217,-0.00049899,-4988.9,0.20284
3972,4.652,0.18182,0,0.00049482,4944.7,0.00016375,0.14087,0.00016252,-9.0898,-0.00049497,-4949.2,0.21738
3973,4.8363,0.18182,0,0.00049035,4900.1,0.00016233,0.13371,0.00016096,-10.089,-0.00049052,-4905.1,0.23225
3974,5.0205,0.18182,0,0.00048556,4852.3,0.00016077,0.12826,0.00015934,-10.618,-0.00048574,-4857.5,0.24746
3975,5.2048,0.18182,0,0.00048054,4802,0.00015912,0.12365,0.00015767,-10.762,-0.00048072,-4807.4,0.263
3976,5.3891,0.18182,0,0.00047533,4750,0.00015739,0.11966,0.00015597,-10.597,-0.00047551,-4755.3,0.27886
3977,5.5733,0.18182,0,0.00047,4696.8,0.00015561,0.11627,0.00015424,-10.187,-0.00047017,-4701.8,0.29505
3978,5.7576,0.18182,0,0.00046458,4642.6,0.00015379,0.11359,0.0001525,-9.5889,-0.00046474,-4647.3,0.31156
3979,5.9419,0.18182,0,0.00045909,4587.7,0.00015195,0.11181,0.00015075,-8.8478,-0.00045924,-4592.1,0.32838
3980,6.1261,0.18182,0,0.00045356,4532.5,0.00015008,0.11118,0.000149,-8.0027,-0.00045369,-4536.4,0.34551
3981,6.3104,0.18182,0,0.000448,4476.9,0.0001482,0.11206,0.00014724,-7.0857,-0.00044812,-4480.4,0.36295
3982,6.4947,0.18182,0,0.00044244,4421.3,0.00014632,0.11503,0.00014549,-6.1233,-0.00044254,-4424.3,0.3807
3983,6.6789,0.18182,0,0.00043687,4365.7,0.00014443,0.12108,0.00014373,-5.1376,-0.00043695,-4368.2,0.39874
3984,6.8632,0.18182,0,0.0004313,4310.1,0.00014255,0.13205,0.00014198,-4.147,-0.00043137,-4312.1,0.41709
3985,7.0475,0.18182,0,0.00042575,4254.6,0.00014067,0.15181,0.00014022,-3.1687,-0.0004258,-4256.1,0.43572
3986,7.2317,0.18182,0,0.00042021,4199.2,0.00013879,0.1899,0.00013847,-2.2224,-0.00042024,-4200.2,0.45464
3987,7.416,0.18182,0,0.00041469,4144,0.00013694,0.27522,0.00013672,-1.3448,-0.0004147,-4144.5,0.47385
3988,7.6003,0.18182,0,0.00040918,4089,0.0001351,0.50678,0.00013495,-0.64061,-0.00040918,-4089.1,0.49334
3989,7.7845,0.18182,0,0.0004037,4034.2,0.00013332,1.0437,0.00013315,-0.27308,-0.00040368,-4033.8,0.51311
3990,7.9688,0.18182,0,0.00039823,3979.6,0.00013157,1.7817,0.00013132,-0.14063,-0.00039821,-3978.8,0.53315
3991,8.1531,0.18182,0,0.00039279,3925.2,0.00012984,2.5621,0.00012949,-0.086129,-0.00039275,-3924,0.55346
3992,8.3373,0.18182,0,0.00038738,3871.1,0.00012812,3.3328,0.00012766,-0.058436,-0.00038732,-3869.5,0.57403
3993,8.5216,0.18182,0,0.00038198,3817.2,0.0001264,4.0785,0.00012585,-0.042247,-0.00038191,-3815.2,0.59487
3994,8.7059,0.18182,0,0.00037661,3763.5,0.00012468,4.794,0.00012404,-0.031884,-0.00037653,-3761.1,0.61597
3995,8.8901,0.18182,0,0.00037126,3710,0.00012297,5.4776,0.00012224,-0.024824,-0.00037117,-3707.3,0.63732
3996,9.0744,0.18182,0,0.00036593,3656.8,0.00012127,6.1291,0.00012045,-0.019796,-0.00036583,-3653.8,0.65892
3997,9.2587,0.18182,0,0.00036063,3603.8,0.00011957,6.7491,0.00011867,-0.016089,-0.00036052,-3600.5,0.68077
3998,9.4429,0.18182,0,0.00035535,3551.1,0.00011788,7.3388,0.0001169,-0.013281,-0.00035523,-3547.4,0.70287
3999,9.6272,0.18182,0,0.00035009,3498.5,0.00011619,7.8994,0.00011514,-0.011111,-0.00034996,-3494.6,0.7252
4000,9.8115,0.18182,0,0.00034486,3446.2,0.00011451,8.4325,0.00011338,-0.0093919,-0.00034471,-3442,0.74778
4001,9.9957,0.18182,0,0.00033964,3394.1,0.00011283,8.9396,0.00011164,-0.008022,-0.00033949,-3389.6,0.77058
4002,10.18,0.18182,0,0.00033445,3342.2,0.00011116,9.4223,0.0001099,-0.0069097,-0.00033429,-3337.5,0.79361
4003,10.364,0.18182,0,0.00032928,3290.5,0.00010949,9.8823,0.00010817,-0.0059856,-0.00032911,-3285.6,0.81688
4004,10.549,0.18182,0,0.00032413,3239.1,0.00010783,10.321,0.00010645,-0.0052644,-0.00032395,-3233.9,0.84036
4005,10.733,0.18182,0,0.000319,3187.8,0.00010617,10.74,0.00010474,-0.0046279,-0.00031882,-3182.5,0.86406
4006,10.917,0.18182,0,0.0003139,3136.8,0.00010452,11.141,0.00010303,-0.0040485,-0.00031371,-3131.2,0.88798
4007,11.101,0.18182,0,0.00030882,3086,0.00010287,11.525,0.00010134,-0.0035839,-0.00030862,-3080.2,0.91211
4008,11.286,0.18182,0,0.00030375,3035.4,0.00010123,11.894,9.9648e-05,-0.0031916,-0.00030355,-3029.5,0.93645
4009,11.47,0.18182,0,0.00029871,2985,9.9598e-05,12.249,9.7967e-05,-0.0028825,-0.0002985,-2978.9,0.96099
4010,11.654,0.18182,0,0.00029369,2934.9,9.7969e-05,12.591,9.6293e-05,-0.0025832,-0.00029347,-2928.6,0.98573
4011,11.838,0.18182,0,0.00028869,2884.9,9.6347e-05,12.922,9.4627e-05,-0.0022805,-0.00028847,-2878.4,1.0107
4012,12.023,0.18182,0,0.00028371,2835.2,9.4731e-05,13.243,9.2968e-05,-0.0020422,-0.00028349,-2828.5,1.0358
4013,12.207,0.18182,0,0.00027876,2785.6,9.3121e-05,13.554,9.1317e-05,-0.0018362,-0.00027852,-2778.8,1.0611
4014,12.391,0.18182,0,0.00027382,2736.3,9.1517e-05,13.857,8.9673e-05,-0.0016828,-0.00027358,-2729.3,1.0867
4015,12.575,0.18182,0,0.0002689,2687.2,8.992e-05,14.153,8.8036e-05,-0.0015124,-0.00026866,-2680.1,1.1124
4016,12.76,0.18182,0,0.00026401,2638.3,8.8328e-05,14.443,8.6406e-05,-0.0013254,-0.00026376,-2631,1.1382
4017,12.944,0.18182,0,0.00025913,2589.5,8.6744e-05,14.728,8.4783e-05,-0.0011818,-0.00025888,-2582.2,1.1643
4018,13.128,0.18182,0,0.00025428,2541,8.5165e-05,15.008,8.3168e-05,-0.001055,-0.00025402,-2533.5,1.1905
4019,13.313,0.18182,0,0.00024945,2492.7,8.3593e-05,15.285,8.1559e-05,-0.00096536,-0.00024918,-2485.1,1.2169
4020,13.497,0.18182,0,0.00024463,2444.7,8.2028e-05,15.559,7.9957e-05,-0.00085461,-0.00024437,-2436.8,1.2435
4021,13.681,0.18182,0,0.00023984,2396.8,8.047e-05,15.831,7.8362e-05,-0.00072121,-0.00023957,-2388.8,1.2703
4022,13.865,0.18182,0,0.00023507,2349.1,7.8918e-05,16.102,7.6775e-05,-0.00061971,-0.00023479,-2341,1.2972
4023,14.05,0.18182,0,0.00023032,2301.6,7.7372e-05,16.372,7.5193e-05,-0.00053127,-0.00023004,-2293.4,1.3242
4024,14.234,0.18182,0,0.00022559,2254.3,7.5834e-05,16.643,7.3619e-05,-0.00046655,-0.0002253,-2246,1.3514
4025,14.418,0.18182,0,0.00022088,2207.3,7.4302e-05,16.914,7.2051e-05,-0.00038701,-0.00022059,-2198.8,1.3788
4026,14.602,0.18182,0,0.00021619,2160.4,7.2778e-05,17.187,7.049e-05,-0.00028059,-0.00021589,-2151.8,1.4063
4027,14.787,0.18182,0,0.00021152,2113.8,7.126e-05,17.461,6.8936e-05,-0.00020147,-0.00021122,-2105,1.434
4028,14.971,0.18182,0,0.00020687,2067.3,6.9749e-05,17.739,6.7388e-05,-0.00013056,-0.00020657,-2058.4,1.4618
4029,15.155,0.18182,0,0.00020225,2021.1,6.8245e-05,18.02,6.5847e-05,-8.2795e-05,-0.00020193,-2012,1.4897
4030,15.339,0.18182,0,0.00019764,1975,6.6748e-05,18.304,6.4312e-05,-1.2348e-05,-0.00019732,-1965.8,1.5178
4031,15.524,0.18182,0,0.00019305,1929.2,6.5258e-05,18.593,6.2784e-05,8.072e-05,-0.00019273,-1919.8,1.546
4032,15.708,0.18182,0,0.00018848,1883.5,6.3776e-05,18.887,6.1262e-05,0.00015123,-0.00018816,-1874,1.5743
4033,15.892,0.18182,0,0.00018394,1838.1,6.23e-05,19.186,5.9747e-05,0.00021365,-0.0001836,-1828.4,1.6028
4034,16.077,0.18182,0,0.00017941,1792.9,6.0832e-05,19.491,5.8238e-05,0.00025754,-0.00017907,-1783.1,1.6314
4035,16.261,0.18182,0,0.00017491,1747.8,5.9371e-05,19.803,5.6735e-05,0.00032108,-0.00017456,-1737.9,1.6601
4036,16.445,0.18182,0,0.00017042,1703,5.7917e-05,20.121,5.5239e-05,0.00040419,-0.00017007,-1692.9,1.6889
4037,16.629,0.18182,0,0.00016595,1658.4,5.647e-05,20.447,5.3749e-05,0.00046864,-0.0001656,-1648.1,1.7178
4038,16.814,0.18182,0,0.00016151,1614,5.503e-05,20.78,5.2265e-05,0.00052581,-0.00016114,-1603.5,1.7469
4039,16.998,0.18182,0,0.00015708,1569.7,5.3598e-05,21.122,5.0787e-05,0.0005642,-0.00015671,-1559.1,1.776
4040,17.182,0.18182,0,0.00015267,1525.7,5.2173e-05,21.473,4.9315e-05,0.00061923,-0.0001523,-1514.8,1.8053
4041,17.366,0.18182,0,0.00014829,1481.9,5.0755e-05,21.832,4.785e-05,0.00069043,-0.0001479,-1470.8,1.8347
4042,17.551,0.18182,0,0.00014392,1438.2,4.9345e-05,22.201,4.639e-05,0.00073761,-0.00014353,-1427,1.8641
4043,17.735,0.18182,0,0.00013957,1394.8,4.7941e-05,22.579,4.4936e-05,0.00077864,-0.00013918,-1383.3,1.8937
4044,17.919,0.18182,0,0.00013524,1351.5,4.6545e-05,22.968,4.3488e-05,0.0007969,-0.00013484,-1339.9,1.9233
4045,18.103,0.18182,0,0.00013094,1308.5,4.5156e-05,23.366,4.2046e-05,0.00082607,-0.00013052,-1296.6,1.9531
4046,18.288,0.18182,0,0.00012665,1265.6,4.3774e-05,23.775,4.061e-05,0.00085865,-0.00012622,-1253.5,1.9829
4047,18.472,0.18182,0,0.00012237,1222.9,4.2399e-05,24.194,3.9179e-05,0.00086434,-0.00012194,-1210.6,2.0128
4048,18.656,0.18182,0,0.00011812,1180.4,4.1031e-05,24.624,3.7754e-05,0.00084929,-0.00011768,-1167.9,2.0428
4049,18.841,0.18182,0,0.00011389,1138.1,3.967e-05,25.064,3.6334e-05,0.00080405,-0.00011344,-1125.3,2.0729
4050,19.025,0.18182,0,0.00010967,1096,3.8316e-05,25.514,3.492e-05,0.00074743,-0.00010921,-1083,2.103
4051,19.209,0.18182,0,0.00010547,1054,3.6968e-05,25.974,3.3511e-05,0.00067377,-0.00010501,-1040.8,2.1332
4052,19.393,0.18182,0,0.00010129,1012.2,3.5627e-05,26.443,3.2108e-05,0.00055259,-0.00010082,-998.73,2.1635
4053,19.578,0.18182,0,9.7127e-05,970.6,3.4292e-05,26.921,3.0709e-05,0.00037756,-9.6641e-05,-956.86,2.1938
4054,19.762,0.18182,0,9.298e-05,929.16,3.2964e-05,27.407,2.9316e-05,0.00015004,-9.2484e-05,-915.16,2.2243
4055,19.946,0.18182,0,8.885e-05,887.88,3.1641e-05,27.9,2.7928e-05,-0.00013942,-8.8342e-05,-873.61,2.2547
4056,20.13,0.18182,0,8.4735e-05,846.77,3.0324e-05,28.399,2.6544e-05,-0.00049593,-8.4216e-05,-832.21,2.2853
4057,20.315,0.18182,0,8.0636e-05,805.8,2.9012e-05,28.903,2.5165e-05,-0.00096518,-8.0105e-05,-790.96,2.3159
4058,20.499,0.18182,0,7.6552e-05,764.99,2.7705e-05,29.408,2.3791e-05,-0.0015523,-7.6009e-05,-749.86,2.3465
4059,20.683,0.18182,0,7.2482e-05,724.32,2.6403e-05,29.914,2.2422e-05,-0.0022903,-7.1927e-05,-708.9,2.3772
4060,20.867,0.18182,0,6.8426e-05,683.79,2.5106e-05,30.417,2.1057e-05,-0.0031955,-6.7858e-05,-668.08,2.4079
4061,21.052,0.18182,0,6.4384e-05,643.4,2.3812e-05,30.914,1.9697e-05,-0.0043112,-6.3803e-05,-627.39,2.4387
4062,21.236,0.18182,0,6.0355e-05,603.13,2.2521e-05,31.401,1.8341e-05,-0.0056935,-5.976e-05,-586.82,2.4695
4063,21.42,0.18182,0,5.6338e-05,563,2.1233e-05,31.875,1.699e-05,-0.0074042,-5.5729e-05,-546.38,2.5004
4064,21.605,0.18182,0,5.2334e-05,522.98,1.9947e-05,32.329,1.5643e-05,-0.0095275,-5.1709e-05,-506.07,2.5313
4065,21.789,0.18182,0,4.8341e-05,483.08,1.8663e-05,32.757,1.4301e-05,-0.012145,-4.7701e-05,-465.87,2.5622
4066,21.973,0.18182,0,4.436e-05,443.29,1.7379e-05,33.152,1.2965e-05,-0.015392,-4.3703e-05,-425.79,2.5932
4067,22.157,0.18182,0,4.039e-05,403.62,1.6095e-05,33.504,1.1633e-05,-0.019462,-3.9716e-05,-385.83,2.6241
4068,22.342,0.18182,0,3.6432e-05,364.07,1.4809e-05,33.803,1.0307e-05,-0.024589,-3.5739e-05,-346,2.6552
4069,22.526,0.18182,0,3.2487e-05,324.64,1.3522e-05,34.035,8.9877e-06,-0.031077,-3.1774e-05,-306.3,2.6862
4070,22.71,0.18182,0,2.8555e-05,285.35,1.2231e-05,34.184,7.6756e-06,-0.03948,-2.782e-05,-266.74,2.7172
4071,22.894,0.18182,0,2.464e-05,246.23,1.0935e-05,34.233,6.3722e-06,-0.050072,-2.3879e-05,-227.35,2.7483
4072,23.079,0.18182,0,2.0748e-05,207.33,9.6338e-06,34.157,5.079e-06,-0.065358,-1.9955e-05,-188.16,2.7794
4073,23.263,0.18182,0,1.6888e-05,168.76,8.3274e-06,33.942,3.7993e-06,-0.080963,-1.6052e-05,-149.24,2.8105
4074,23.447,0.18182,0,1.3083e-05,130.74,7.0208e-06,33.587,2.5345e-06,-0.12103,-1.2183e-05,-110.71,2.8416
4075,23.631,0.18182,0,9.4008e-06,93.943,5.735e-06,33.241,1.2962e-06,-0.11077,-8.3819e-06,-72.828,2.8727
4076,23.816,0.18182,0,6.1764e-06,61.721,4.6633e-06,34.203,4.3389e-08,-0.50853,-4.8211e-06,-37.058,2.9038
4077,0.64,1.8182,0,0.0012538,12530,0.00059615,2006,0.00027381,-415.86,-0.0012091,-11558,0.0025878
4078,0.64,1.6364,0,0.00084118,8406,0.00041826,1716.7,0.00018497,-36.109,-0.00079876,-7427.5,0.0018999
4079,0.64,1.4545,0,0.00057838,5779.8,0.00027847,1034.4,0.00013047,-77.605,-0.00055402,-5220.6,0.0013568
4080,0.64,1.2727,0,0.00040854,4082.6,0.00019161,673.73,9.6406e-05,-41.617,-0.00039305,-3719.2,0.00094988
4081,0.64,1.0909,0,0.00028753,2873.3,0.00013105,422.55,7.0067e-05,-35.63,-0.00027819,-2652.3,0.00065389
4082,0.64,0.90909,0,0.00020063,2004.9,8.912e-05,264.62,5.0332e-05,-26.829,-0.00019499,-1870.1,0.00044428
4083,0.64,0.72727,0,0.00013755,1374.6,5.9869e-05,164.29,3.515e-05,-21.436,-0.00013417,-1293.7,0.00029904
4084,0.64,0.54545,0,9.1688e-05,916.24,3.9482e-05,102.47,2.3541e-05,-17.298,-8.9649e-05,-867.76,0.00019976
4085,0.64,0.36364,0,5.8093e-05,580.53,2.5165e-05,64.761,1.4618e-05,-14.486,-5.683e-05,-551.32,0.00013123
4086,0.64,0.18182,0,3.4663e-05,346.39,1.6235e-05,50.075,7.5111e-06,-15.47,-3.3606e-05,-324.41,8.0738e-05
4087,0.48,1.8182,0,0.00090987,9092.5,0.00035343,151.96,0.00022082,-844.44,-0.00091755,-9397.7,0.0014686
4088,0.48,1.6364,0,0.00066723,6667.7,0.00025086,120.62,0.00017797,-427.02,-0.00067075,-6804,0.0011032
4089,0.48,1.4545,0,0.00048566,4853.3,0.00018147,104.73,0.00013317,-258.2,-0.00048725,-4919.8,0.00080134
4090,0.48,1.2727,0,0.00034898,3487.4,0.00013076,73.938,9.4911e-05,-195.44,-0.00035026,-3540.3,0.00056591
4091,0.48,1.0909,0,0.00024776,2475.9,9.3815e-05,49.924,6.5376e-05,-163.76,-0.000249,-2525.9,0.00039083
4092,0.48,0.90909,0,0.00017359,1734.7,6.6456e-05,32.869,4.428e-05,-133.75,-0.0001747,-1779.1,0.00026545
4093,0.48,0.72727,0,0.00011972,1196.4,4.6319e-05,22.287,2.9616e-05,-103.21,-0.0001206,-1231.9,0.00017814
4094,0.48,0.54545,0,8.1381e-05,813.25,3.1578e-05,16.483,2.0091e-05,-69.83,-8.1944e-05,-836.48,0.00011813
4095,0.48,0.36364,0,5.5216e-05,551.78,2.1188e-05,15.839,1.4513e-05,-34.311,-5.5359e-05,-559.3,7.58e-05
4096,0.48,0.18182,0,4.1319e-05,412.9,1.7278e-05,39.424,1.091e-05,-8.4228,-4.0583e-05,-395.32,4.2587e-05
4097,0.32,1.8182,0,0.00074098,7404.7,0.00031905,-233.25,8.322e-05,-2005.2,-0.00076297,-8363.2,0.00065499
4098,0.32,1.6364,0,0.00056798,5675.9,0.00023761,-178.19,7.7996e-05,-1377.5,-0.00058486,-6357.9,0.00049897
4099,0.32,1.4545,0,0.00042217,4218.7,0.00017433,-123.72,6.343e-05,-956.95,-0.00043433,-4696.9,0.00036644
4100,0.32,1.2727,0,0.00030602,3058.1,0.00012618,-87.036,4.662e-05,-684.79,-0.00031473,-3399.8,0.00026022
4101,0.32,1.0909,0,0.00021783,2176.8,9.0306e-05,-58.86,3.2527e-05,-492.99,-0.00022395,-2420,0.00017979
4102,0.32,0.90909,0,0.00015228,1521.7,6.367e-05,-38.623,2.1916e-05,-352.35,-0.00015648,-1692.8,0.0001217
4103,0.32,0.72727,0,0.00010486,1047.9,4.4018e-05,-24.792,1.4929e-05,-243.36,-0.0001077,-1164.7,8.1222e-05
4104,0.32,0.54545,0,7.1903e-05,718.54,2.9633e-05,-14.764,1.1558e-05,-150.57,-7.3746e-05,-791.51,5.3354e-05
4105,0.32,0.36364,0,5.1051e-05,510.16,1.9434e-05,-4.4009,1.187e-05,-61.232,-5.193e-05,-540.6,3.3214e-05
4106,0.32,0.18182,0,4.2312e-05,422.83,1.7878e-05,44.709,1.125e-05,-5.0932,-4.1417e-05,-400.81,1.6098e-05
4107,0.16,1.8182,0,0.00074021,7397,0.00040815,946.06,1.3483e-05,-2019.3,-0.00071242,-7473.5,0.00017574
4108,0.16,1.6364,0,0.0005681,5677.1,0.00031188,725.62,1.3595e-05,-1515.6,-0.0005473,-5730,0.00013462
4109,0.16,1.4545,0,0.00042137,4210.8,0.00023069,535.21,1.1256e-05,-1113.6,-0.00040624,-4250.5,9.9302e-05
4110,0.16,1.2727,0,0.00030311,3029,0.00016568,379.29,8.0846e-06,-804.8,-0.00029245,-3062.9,7.0505e-05
4111,0.16,1.0909,0,0.00021229,2121.5,0.00011587,259.14,5.3128e-06,-571.54,-0.00020503,-2152,4.846e-05
4112,0.16,0.90909,0,0.0001455,1454,7.9286e-05,172.36,3.3445e-06,-398.23,-0.00014068,-1480.4,3.2529e-05
4113,0.16,0.72727,0,9.8067e-05,979.99,5.3278e-05,113.12,2.285e-06,-270.02,-9.4944e-05,-1000.6,2.151e-05
4114,0.16,0.54545,0,6.5123e-05,650.78,3.4881e-05,73.172,2.4758e-06,-170.31,-6.3262e-05,-664.24,1.3992e-05
4115,0.16,0.36364,0,4.2446e-05,424.17,2.1171e-05,44.356,4.7665e-06,-78.903,-4.1668e-05,-427.79,8.4339e-06
4116,0.16,0.18182,0,3.0324e-05,303.03,1.3234e-05,39.754,8.0294e-06,0.64935,-2.9447e-05,-280.93,3.2814e-06
4117,0.16,0.18182,0.1,3.0324e-05,303.03,2.9447e-05,280.93,-8.0294e-06,-0.64935,-1.3234e-05,-39.754,3.2814e-06
4118,0.16,0.36364,0.1,4.2446e-05,424.17,4.1668e-05,427.79,-4.7665e-06,78.903,-2.1171e-05,-44.356,8.4339e-06
4119,0.16,0.54545,0.1,6.5123e-05,650.78,6.3262e-05,664.24,-2.4758e-06,170.31,-3.4881e-05,-73.172,1.3992e-05
4120,0.16,0.72727,0.1,9.8067e-05,979.99,9.4944e-05,1000.6,-2.285e-06,270.02,-5.3278e-05,-113.12,2.151e-05
4121,0.16,0.90909,0.1,0.0001455,1454,0.00014068,1480.4,-3.3445e-06,398.23,-7.9286e-05,-172.36,3.2529e-05
4122,0.16,1.0909,0.1,0.00021229,2121.5,0.00020503,2152,-5.3128e-06,571.54,-0.00011587,-259.14,4.846e-05
4123,0.16,1.2727,0.1,0.00030311,3029,0.00029245,3062.9,-8.0846e-06,804.8,-0.00016568,-379.29,7.0505e-05
4124,0.16,1.4545,0.1,0.00042137,4210.8,0.00040624,4250.5,-1.1256e-05,1113.6,-0.00023069,-535.21,9.9302e-05
4125,0.16,1.6364,0.1,0.0005681,5677.1,0.00054731,5730,-1.3595e-05,1515.6,-0.00031188,-725.62,0.00013462
4126,0.16,1.8182,0.1,0.00074021,7397,0.00071242,7473.5,-1.3484e-05,2019.3,-0.00040815,-946.06,0.00017574
4127,0.32,0.18182,0.1,4.2312e-05,422.83,4.1417e-05,400.81,-1.125e-05,5.0932,-1.7878e-05,-44.709,1.6098e-05
4128,0.32,0.36364,0.1,5.1051e-05,510.16,5.193e-05,540.6,-1.187e-05,61.232,-1.9434e-05,4.4009,3.3214e-05
4129,0.32,0.54545,0.1,7.1903e-05,718.54,7.3746e-05,791.51,-1.1558e-05,150.57,-2.9633e-05,14.764,5.3354e-05
4130,0.32,0.72727,0.1,0.00010486,1047.9,0.0001077,1164.7,-1.4929e-05,243.36,-4.4018e-05,24.792,8.1222e-05
4131,0.32,0.90909,0.1,0.00015228,1521.7,0.00015648,1692.8,-2.1916e-05,352.35,-6.367e-05,38.623,0.0001217
4132,0.32,1.0909,0.1,0.00021783,2176.8,0.00022395,2420,-3.2527e-05,492.99,-9.0306e-05,58.86,0.00017979
4133,0.32,1.2727,0.1,0.00030602,3058.1,0.00031473,3399.8,-4.662e-05,684.79,-0.00012618,87.036,0.00026022
4134,0.32,1.4545,0.1,0.00042217,4218.8,0.00043433,4696.9,-6.343e-05,956.95,-0.00017433,123.72,0.00036644
4135,0.32,1.6364,0.1,0.00056799,5675.9,0.00058486,6357.9,-7.7996e-05,1377.5,-0.00023761,178.19,0.00049897
4136,0.32,1.8182,0.1,0.00074098,7404.7,0.00076297,8363.2,-8.322e-05,2005.2,-0.00031905,233.25,0.00065499
4137,0.48,0.18182,0.1,4.1319e-05,412.9,4.0583e-05,395.32,-1.091e-05,8.4228,-1.7278e-05,-39.424,4.2587e-05
4138,0.48,0.36364,0.1,5.5216e-05,551.78,5.5359e-05,559.3,-1.4513e-05,34.311,-2.1188e-05,-15.839,7.58e-05
4139,0.48,0.54545,0.1,8.1381e-05,813.25,8.1944e-05,836.48,-2.0091e-05,69.83,-3.1578e-05,-16.483,0.00011813
4140,0.48,0.72727,0.1,0.00011972,1196.4,0.0001206,1231.9,-2.9616e-05,103.21,-4.6319e-05,-22.287,0.00017814
4141,0.48,0.90909,0.1,0.00017359,1734.7,0.0001747,1779.1,-4.428e-05,133.75,-6.6456e-05,-32.869,0.00026545
4142,0.48,1.0909,0.1,0.00024776,2475.9,0.000249,2525.9,-6.5376e-05,163.76,-9.3815e-05,-49.924,0.00039083
4143,0.48,1.2727,0.1,0.00034898,3487.4,0.00035026,3540.3,-9.4911e-05,195.44,-0.00013076,-73.938,0.00056591
4144,0.48,1.4545,0.1,0.00048566,4853.3,0.00048725,4919.8,-0.00013317,258.2,-0.00018147,-104.73,0.00080134
4145,0.48,1.6364,0.1,0.00066723,6667.7,0.00067075,6804,-0.00017797,427.02,-0.00025086,-120.62,0.0011032
4146,0.48,1.8182,0.1,0.00090987,9092.5,0.00091755,9397.7,-0.00022082,844.44,-0.00035343,-151.96,0.0014686
4147,0.64,0.18182,0.1,3.4663e-05,346.39,3.3606e-05,324.41,-7.5111e-06,15.47,-1.6235e-05,-50.075,8.0738e-05
4148,0.64,0.36364,0.1,5.8093e-05,580.53,5.683e-05,551.32,-1.4618e-05,14.486,-2.5165e-05,-64.761,0.00013123
4149,0.64,0.54545,0.1,9.1688e-05,916.24,8.9649e-05,867.76,-2.3541e-05,17.298,-3.9482e-05,-102.47,0.00019976
4150,0.64,0.72727,0.1,0.00013755,1374.6,0.00013417,1293.7,-3.515e-05,21.436,-5.9869e-05,-164.29,0.00029904
4151,0.64,0.90909,0.1,0.00020063,2004.9,0.00019499,1870.1,-5.0332e-05,26.829,-8.912e-05,-264.62,0.00044428
4152,0.64,1.0909,0.1,0.00028753,2873.3,0.00027819,2652.3,-7.0067e-05,35.63,-0.00013105,-422.55,0.00065389
4153,0.64,1.2727,0.1,0.00040854,4082.6,0.00039305,3719.2,-9.6406e-05,41.617,-0.00019161,-673.73,0.00094988
4154,0.64,1.4545,0.1,0.00057838,5779.8,0.00055402,5220.6,-0.00013047,77.605,-0.00027847,-1034.4,0.0013568
4155,0.64,1.6364,0.1,0.00084118,8406,0.00079876,7427.5,-0.00018497,36.109,-0.00041826,-1716.7,0.0018999
4156,0.64,1.8182,0.1,0.0012538,12530,0.0012091,11558,-0.00027381,415.86,-0.00059615,-2006,0.0025878
4157,23.816,0.18182,0.1,6.1764e-06,61.721,4.8211e-06,37.058,-4.339e-08,0.50853,-4.6633e-06,-34.203,2.9038
4158,23.631,0.18182,0.1,9.4008e-06,93.943,8.3819e-06,72.828,-1.2962e-06,0.11077,-5.735e-06,-33.241,2.8727
4159,23.447,0.18182,0.1,1.3083e-05,130.74,1.2183e-05,110.71,-2.5345e-06,0.12103,-7.0208e-06,-33.587,2.8416
4160,23.263,0.18182,0.1,1.6888e-05,168.76,1.6052e-05,149.24,-3.7993e-06,0.080963,-8.3274e-06,-33.942,2.8105
4161,23.079,0.18182,0.1,2.0748e-05,207.33,1.9955e-05,188.16,-5.079e-06,0.065357,-9.6338e-06,-34.157,2.7794
4162,22.894,0.18182,0.1,2.464e-05,246.23,2.3879e-05,227.35,-6.3722e-06,0.050071,-1.0935e-05,-34.233,2.7483
4163,22.71,0.18182,0.1,2.8555e-05,285.35,2.782e-05,266.74,-7.6756e-06,0.03948,-1.2231e-05,-34.184,2.7172
4164,22.526,0.18182,0.1,3.2487e-05,324.64,3.1774e-05,306.3,-8.9877e-06,0.031078,-1.3522e-05,-34.035,2.6862
4165,22.342,0.18182,0.1,3.6432e-05,364.07,3.5739e-05,346,-1.0307e-05,0.024589,-1.4809e-05,-33.803,2.6552
4166,22.157,0.18182,0.1,4.039e-05,403.62,3.9716e-05,385.83,-1.1633e-05,0.019462,-1.6095e-05,-33.504,2.6241
4167,21.973,0.18182,0.1,4.436e-05,443.29,4.3703e-05,425.79,-1.2965e-05,0.015395,-1.7379e-05,-33.152,2.5932
4168,21.789,0.18182,0.1,4.8341e-05,483.08,4.7701e-05,465.87,-1.4301e-05,0.012145,-1.8663e-05,-32.757,2.5622
4169,21.605,0.18182,0.1,5.2334e-05,522.98,5.1709e-05,506.07,-1.5643e-05,0.0095243,-1.9947e-05,-32.329,2.5313
4170,21.42,0.18182,0.1,5.6338e-05,563,5.5729e-05,546.38,-1.699e-05,0.0074055,-2.1233e-05,-31.875,2.5004
4171,21.236,0.18182,0.1,6.0355e-05,603.13,5.976e-05,586.82,-1.8341e-05,0.0056939,-2.2521e-05,-31.401,2.4695
4172,21.052,0.18182,0.1,6.4384e-05,643.4,6.3803e-05,627.39,-1.9697e-05,0.0043111,-2.3812e-05,-30.914,2.4387
4173,20.867,0.18182,0.1,6.8426e-05,683.79,6.7858e-05,668.08,-2.1057e-05,0.003196,-2.5106e-05,-30.417,2.4079
4174,20.683,0.18182,0.1,7.2482e-05,724.32,7.1927e-05,708.9,-2.2422e-05,0.0022925,-2.6403e-05,-29.914,2.3772
4175,20.499,0.18182,0.1,7.6552e-05,764.99,7.6009e-05,749.86,-2.3791e-05,0.0015539,-2.7705e-05,-29.408,2.3465
4176,20.315,0.18182,0.1,8.0636e-05,805.8,8.0105e-05,790.96,-2.5165e-05,0.00096436,-2.9012e-05,-28.903,2.3159
4177,20.13,0.18182,0.1,8.4735e-05,846.77,8.4216e-05,832.21,-2.6544e-05,0.0004972,-3.0324e-05,-28.399,2.2853
4178,19.946,0.18182,0.1,8.885e-05,887.89,8.8342e-05,873.61,-2.7928e-05,0.00013844,-3.1641e-05,-27.9,2.2547
4179,19.762,0.18182,0.1,9.298e-05,929.16,9.2484e-05,915.16,-2.9316e-05,-0.0001524,-3.2964e-05,-27.407,2.2243
4180,19.578,0.18182,0.1,9.7128e-05,970.6,9.6642e-05,956.86,-3.0709e-05,-0.0003803,-3.4292e-05,-26.921,2.1938
4181,19.393,0.18182,0.1,0.00010129,1012.2,0.00010082,998.73,-3.2108e-05,-0.00055105,-3.5627e-05,-26.443,2.1635
4182,19.209,0.18182,0.1,0.00010547,1054,0.00010501,1040.8,-3.3511e-05,-0.00067355,-3.6968e-05,-25.974,2.1332
4183,19.025,0.18182,0.1,0.00010967,1096,0.00010921,1083,-3.492e-05,-0.00074774,-3.8316e-05,-25.514,2.103
4184,18.841,0.18182,0.1,0.00011389,1138.1,0.00011344,1125.3,-3.6334e-05,-0.00080466,-3.967e-05,-25.064,2.0729
4185,18.656,0.18182,0.1,0.00011812,1180.4,0.00011768,1167.9,-3.7754e-05,-0.00085061,-4.1031e-05,-24.624,2.0428
4186,18.472,0.18182,0.1,0.00012237,1222.9,0.00012194,1210.6,-3.9179e-05,-0.00086421,-4.2399e-05,-24.194,2.0128
4187,18.288,0.18182,0.1,0.00012665,1265.6,0.00012622,1253.5,-4.061e-05,-0.00085786,-4.3774e-05,-23.775,1.9829
4188,18.103,0.18182,0.1,0.00013094,1308.5,0.00013052,1296.6,-4.2046e-05,-0.00082572,-4.5156e-05,-23.366,1.9531
4189,17.919,0.18182,0.1,0.00013524,1351.5,0.00013484,1339.9,-4.3488e-05,-0.00079749,-4.6545e-05,-22.968,1.9233
4190,17.735,0.18182,0.1,0.00013957,1394.8,0.00013918,1383.3,-4.4936e-05,-0.00077942,-4.7941e-05,-22.579,1.8937
4191,17.551,0.18182,0.1,0.00014392,1438.2,0.00014353,1427,-4.639e-05,-0.00073841,-4.9345e-05,-22.201,1.8641
4192,17.366,0.18182,0.1,0.00014829,1481.9,0.0001479,1470.8,-4.785e-05,-0.00069004,-5.0755e-05,-21.832,1.8347
4193,17.182,0.18182,0.1,0.00015267,1525.7,0.0001523,1514.8,-4.9315e-05,-0.00061802,-5.2173e-05,-21.473,1.8053
4194,16.998,0.18182,0.1,0.00015708,1569.7,0.00015671,1559.1,-5.0787e-05,-0.00056453,-5.3598e-05,-21.122,1.776
4195,16.814,0.18182,0.1,0.00016151,1614,0.00016114,1603.5,-5.2265e-05,-0.00052464,-5.503e-05,-20.78,1.7469
4196,16.629,0.18182,0.1,0.00016595,1658.4,0.0001656,1648.1,-5.3749e-05,-0.00046834,-5.647e-05,-20.447,1.7178
4197,16.445,0.18182,0.1,0.00017042,1703,0.00017007,1692.9,-5.5239e-05,-0.00040465,-5.7917e-05,-20.121,1.6889
4198,16.261,0.18182,0.1,0.00017491,1747.8,0.00017456,1737.9,-5.6735e-05,-0.0003212,-5.9371e-05,-19.803,1.6601
4199,16.077,0.18182,0.1,0.00017941,1792.9,0.00017907,1783.1,-5.8238e-05,-0.00025818,-6.0832e-05,-19.491,1.6314
4200,15.892,0.18182,0.1,0.00018394,1838.1,0.0001836,1828.4,-5.9747e-05,-0.00021325,-6.23e-05,-19.186,1.6028
4201,15.708,0.18182,0.1,0.00018848,1883.5,0.00018816,1874,-6.1262e-05,-0.00015077,-6.3776e-05,-18.887,1.5743
4202,15.524,0.18182,0.1,0.00019305,1929.2,0.00019273,1919.8,-6.2784e-05,-8.1527e-05,-6.5258e-05,-18.593,1.546
4203,15.339,0.18182,0.1,0.00019764,1975,0.00019732,1965.8,-6.4312e-05,1.2179e-05,-6.6748e-05,-18.304,1.5178
4204,15.155,0.18182,0.1,0.00020225,2021.1,0.00020193,2012,-6.5847e-05,8.3182e-05,-6.8245e-05,-18.02,1.4897
4205,14.971,0.18182,0.1,0.00020687,2067.3,0.00020657,2058.4,-6.7388e-05,0.00012989,-6.9749e-05,-17.739,1.4618
4206,14.787,0.18182,0.1,0.00021152,2113.8,0.00021122,2105,-6.8936e-05,0.0002013,-7.126e-05,-17.461,1.434
4207,14.602,0.18182,0.1,0.00021619,2160.4,0.00021589,2151.8,-7.049e-05,0.00028141,-7.2778e-05,-17.187,1.4063
4208,14.418,0.18182,0.1,0.00022088,2207.3,0.00022059,2198.8,-7.2051e-05,0.00038711,-7.4302e-05,-16.914,1.3788
4209,14.234,0.18182,0.1,0.00022559,2254.3,0.0002253,2246,-7.3619e-05,0.0004666,-7.5834e-05,-16.643,1.3514
4210,14.05,0.18182,0.1,0.00023032,2301.6,0.00023004,2293.4,-7.5193e-05,0.00053059,-7.7372e-05,-16.372,1.3242
4211,13.865,0.18182,0.1,0.00023507,2349.1,0.00023479,2341,-7.6775e-05,0.0006202,-7.8918e-05,-16.102,1.2972
4212,13.681,0.18182,0.1,0.00023984,2396.8,0.00023957,2388.8,-7.8362e-05,0.00072007,-8.047e-05,-15.831,1.2703
4213,13.497,0.18182,0.1,0.00024463,2444.7,0.00024437,2436.8,-7.9957e-05,0.00085474,-8.2028e-05,-15.559,1.2435
4214,13.313,0.18182,0.1,0.00024945,2492.7,0.00024918,2485.1,-8.1559e-05,0.00096563,-8.3593e-05,-15.285,1.2169
4215,13.128,0.18182,0.1,0.00025428,2541,0.00025402,2533.5,-8.3168e-05,0.0010552,-8.5165e-05,-15.008,1.1905
4216,12.944,0.18182,0.1,0.00025913,2589.5,0.00025888,2582.2,-8.4783e-05,0.001181,-8.6744e-05,-14.728,1.1643
4217,12.76,0.18182,0.1,0.00026401,2638.3,0.00026376,2631,-8.6406e-05,0.0013244,-8.8328e-05,-14.443,1.1382
4218,12.575,0.18182,0.1,0.0002689,2687.2,0.00026866,2680.1,-8.8036e-05,0.0015124,-8.992e-05,-14.153,1.1124
4219,12.391,0.18182,0.1,0.00027382,2736.3,0.00027358,2729.3,-8.9673e-05,0.0016822,-9.1517e-05,-13.857,1.0867
4220,12.207,0.18182,0.1,0.00027876,2785.6,0.00027852,2778.8,-9.1317e-05,0.0018374,-9.3121e-05,-13.554,1.0611
4221,12.023,0.18182,0.1,0.00028371,2835.2,0.00028349,2828.5,-9.2968e-05,0.0020415,-9.4731e-05,-13.243,1.0358
4222,11.838,0.18182,0.1,0.00028869,2884.9,0.00028847,2878.4,-9.4627e-05,0.0022809,-9.6347e-05,-12.922,1.0107
4223,11.654,0.18182,0.1,0.00029369,2934.9,0.00029347,2928.6,-9.6293e-05,0.0025824,-9.7969e-05,-12.591,0.98573
4224,11.47,0.18182,0.1,0.00029871,2985,0.0002985,2978.9,-9.7967e-05,0.0028831,-9.9598e-05,-12.249,0.96099
4225,11.286,0.18182,0.1,0.00030375,3035.4,0.00030355,3029.5,-9.9648e-05,0.0031913,-0.00010123,-11.894,0.93645
4226,11.101,0.18182,0.1,0.00030882,3086,0.00030862,3080.2,-0.00010134,0.0035835,-0.00010287,-11.525,0.91211
4227,10.917,0.18182,0.1,0.0003139,3136.8,0.00031371,3131.2,-0.00010303,0.0040484,-0.00010452,-11.141,0.88798
4228,10.733,0.18182,0.1,0.000319,3187.8,0.00031882,3182.5,-0.00010474,0.004628,-0.00010617,-10.74,0.86406
4229,10.549,0.18182,0.1,0.00032413,3239.1,0.00032395,3233.9,-0.00010645,0.0052643,-0.00010783,-10.321,0.84036
4230,10.364,0.18182,0.1,0.00032928,3290.5,0.00032911,3285.6,-0.00010817,0.0059859,-0.00010949,-9.8823,0.81688
4231,10.18,0.18182,0.1,0.00033445,3342.2,0.00033429,3337.5,-0.0001099,0.0069102,-0.00011116,-9.4223,0.79361
4232,9.9957,0.18182,0.1,0.00033964,3394.1,0.00033949,3389.6,-0.00011164,0.0080216,-0.00011283,-8.9396,0.77058
4233,9.8115,0.18182,0.1,0.00034486,3446.2,0.00034471,3442,-0.00011338,0.0093921,-0.00011451,-8.4325,0.74778
4234,9.6272,0.18182,0.1,0.00035009,3498.5,0.00034996,3494.6,-0.00011514,0.01111,-0.00011619,-7.8994,0.7252
4235,9.4429,0.18182,0.1,0.00035535,3551.1,0.00035523,3547.4,-0.0001169,0.013281,-0.00011788,-7.3388,0.70287
4236,9.2587,0.18182,0.1,0.00036063,3603.8,0.00036052,3600.5,-0.00011867,0.016088,-0.00011957,-6.7491,0.68077
4237,9.0744,0.18182,0.1,0.00036593,3656.8,0.00036583,3653.8,-0.00012045,0.019796,-0.00012127,-6.1291,0.65892
4238,8.8901,0.18182,0.1,0.00037126,3710,0.00037117,3707.3,-0.00012224,0.024825,-0.00012297,-5.4776,0.63732
4239,8.7059,0.18182,0.1,0.00037661,3763.5,0.00037653,3761.1,-0.00012404,0.031884,-0.00012468,-4.794,0.61597
4240,8.5216,0.18182,0.1,0.00038198,3817.2,0.00038191,3815.2,-0.00012585,0.042247,-0.0001264,-4.0785,0.59487
4241,8.3373,0.18182,0.1,0.00038738,3871.1,0.00038732,3869.5,-0.00012766,0.058436,-0.00012812,-3.3328,0.57403
4242,8.1531,0.18182,0.1,0.00039279,3925.2,0.00039275,3924,-0.00012949,0.086128,-0.00012984,-2.5621,0.55346
4243,7.9688,0.18182,0.1,0.00039823,3979.6,0.00039821,3978.8,-0.00013132,0.14063,-0.00013157,-1.7817,0.53315
4244,7.7845,0.18182,0.1,0.0004037,4034.2,0.00040368,4033.8,-0.00013315,0.27308,-0.00013332,-1.0437,0.51311
4245,7.6003,0.18182,0.1,0.00040918,4089,0.00040918,4089.1,-0.00013495,0.64061,-0.0001351,-0.50678,0.49334
4246,7.416,0.18182,0.1,0.00041469,4144,0.0004147,4144.5,-0.00013672,1.3448,-0.00013694,-0.27522,0.47385
4247,7.2317,0.18182,0.1,0.00042021,4199.2,0.00042024,4200.2,-0.00013847,2.2224,-0.00013879,-0.1899,0.45464
4248,7.0475,0.18182,0.1,0.00042575,4254.6,0.0004258,4256.1,-0.00014022,3.1687,-0.00014067,-0.15181,0.43572
4249,6.8632,0.18182,0.1,0.0004313,4310.1,0.00043137,4312.1,-0.00014198,4.147,-0.00014255,-0.13205,0.41709
4250,6.6789,0.18182,0.1,0.00043687,4365.7,0.00043695,4368.2,-0.00014373,5.1376,-0.00014443,-0.12108,0.39874
4251,6.4947,0.18182,0.1,0.00044244,4421.3,0.00044254,4424.3,-0.00014549,6.1233,-0.00014632,-0.11503,0.3807
4252,6.3104,0.18182,0.1,0.000448,4476.9,0.00044812,4480.4,-0.00014724,7.0857,-0.0001482,-0.11206,0.36295
4253,6.1261,0.18182,0.1,0.00045356,4532.5,0.00045369,4536.4,-0.000149,8.0027,-0.00015008,-0.11118,0.34551
4254,5.9419,0.18182,0.1,0.00045909,4587.7,0.00045924,4592.1,-0.00015075,8.8478,-0.00015195,-0.11181,0.32838
4255,5.7576,0.18182,0.1,0.00046458,4642.6,0.00046474,4647.3,-0.0001525,9.5889,-0.00015379,-0.11359,0.31156
4256,5.5733,0.18182,0.1,0.00047,4696.8,0.00047017,4701.8,-0.00015424,10.187,-0.00015561,-0.11627,0.29505
4257,5.3891,0.18182,0.1,0.00047533,4750,0.00047551,4755.3,-0.00015597,10.597,-0.00015739,-0.11966,0.27886
4258,5.2048,0.18182,0.1,0.00048054,4802,0.00048072,4807.4,-0.00015767,10.762,-0.00015912,-0.12365,0.263
4259,5.0205,0.18182,0.1,0.00048556,4852.3,0.00048574,4857.5,-0.00015934,10.618,-0.00016077,-0.12826,0.24746
4260,4.8363,0.18182,0.1,0.00049035,4900.1,0.00049052,4905.1,-0.00016096,10.089,-0.00016233,-0.13371,0.23225
4261,4.652,0.18182,0.1,0.00049482,4944.7,0.00049497,4949.2,-0.00016252,9.0898,-0.00016375,-0.14087,0.21738
4262,4.4677,0.18182,0.1,0.00049886,4985.2,0.00049899,4988.9,-0.00016399,7.5216,-0.00016501,-0.15244,0.20284
4263,4.2835,0.18182,0.1,0.00050236,5020.2,0.00050245,5022.7,-0.00016533,5.2821,-0.00016606,-0.17867,0.18864
4264,4.0992,0.18182,0.1,0.00050515,5048,0.00050519,5049.1,-0.00016649,2.3182,-0.00016684,-0.29243,0.17478
4265,3.9149,0.18182,0.1,0.00050703,5066.8,0.00050699,5065.8,-0.0001672,0.16923,-0.00016751,-2.1699,0.16126
4266,3.7307,0.18182,0.1,0.00050773,5073.8,0.00050761,5070.3,-0.0001672,0.0053418,-0.00016815,-7.1266,0.14809
4267,3.5464,0.18182,0.1,0.00050695,5066,0.00050672,5059.3,-0.00016663,-0.021729,-0.00016842,-13.462,0.13526
4268,3.3621,0.18182,0.1,0.0005043,5039.5,0.00050394,5028.9,-0.00016537,-0.03129,-0.00016819,-21.195,0.12278
4269,3.1779,0.18182,0.1,0.00049931,4989.6,0.00049878,4974.3,-0.00016327,-0.041448,-0.00016731,-30.423,0.11064
4270,2.9936,0.18182,0.1,0.00049141,4910.7,0.00049069,4889.9,-0.00016013,-0.062443,-0.0001656,-41.197,0.098838
4271,2.8093,0.18182,0.1,0.00047996,4796.2,0.00047902,4769.2,-0.00015574,-0.10423,-0.00016284,-53.476,0.08737
4272,2.6251,0.18182,0.1,0.0004642,4638.8,0.00046302,4604.8,-0.00014987,-0.17604,-0.00015877,-67.068,0.076227
4273,2.4408,0.18182,0.1,0.00044331,4430.1,0.00044186,4388.6,-0.00014226,-0.28249,-0.00015308,-81.554,0.065398
4274,2.2565,0.18182,0.1,0.00041645,4161.7,0.00041473,4112.5,-0.00013267,-0.40727,-0.00014542,-96.202,0.05487
4275,2.0723,0.18182,0.1,0.00038281,3825.5,0.00038082,3769.1,-0.00012089,-0.49934,-0.00013545,-109.9,0.044624
4276,1.888,0.18182,0.1,0.00034173,3415,0.00033951,3352.6,-0.00010675,-0.35275,-0.00012282,-121.11,0.034639
4277,1.7037,0.18182,0.1,0.00029288,2926.8,0.00029049,2860.7,-9.0209e-05,0.29381,-0.0001073,-128.15,0.024893
4278,1.5195,0.18182,0.1,0.00023643,2362.7,0.000234,2296.7,-7.1257e-05,3.1387,-8.8898e-05,-129.4,0.01538
4279,1.3352,0.18182,0.1,0.0001739,1737.8,0.00017139,1672.2,-5.0135e-05,7.6935,-6.855e-05,-130.67,0.0062662
4280,1.1509,0.18182,0.1,0.00011462,1145.4,0.00011065,1056.8,-2.5944e-05,30.471,-5.38e-05,-178.83,0.0044754
4281,23.816,0.36364,0.1,8.3405e-06,83.347,5.6987e-06,38.077,6.6922e-07,0.28749,-7.018e-06,-57.471,2.904
4282,23.631,0.36364,0.1,1.0796e-05,107.89,8.982e-06,72.922,-7.2372e-07,-0.0030343,-7.513e-06,-51.015,2.8728
4283,23.447,0.36364,0.1,1.3947e-05,139.37,1.2528e-05,109.64,-2.0511e-06,0.096704,-8.3507e-06,-47.236,2.8417
4284,23.263,0.36364,0.1,1.7423e-05,174.11,1.6223e-05,147.37,-3.3797e-06,0.083433,-9.3501e-06,-44.776,2.8106
4285,23.079,0.36364,0.1,2.1063e-05,210.48,2.0001e-05,185.74,-4.707e-06,0.087239,-1.0433e-05,-42.932,2.7795
4286,22.894,0.36364,0.1,2.4798e-05,247.81,2.3833e-05,224.52,-6.038e-06,0.082175,-1.1562e-05,-41.425,2.7485
4287,22.71,0.36364,0.1,2.8595e-05,285.75,2.7701e-05,263.6,-7.3726e-06,0.077735,-1.2722e-05,-40.112,2.7174
4288,22.526,0.36364,0.1,3.2434e-05,324.12,3.1597e-05,302.93,-8.711e-06,0.072665,-1.3901e-05,-38.922,2.6864
4289,22.342,0.36364,0.1,3.6306e-05,362.81,3.5515e-05,342.45,-1.0053e-05,0.067814,-1.5095e-05,-37.814,2.6553
4290,22.157,0.36364,0.1,4.0203e-05,401.76,3.9452e-05,382.14,-1.1399e-05,0.0632,-1.6301e-05,-36.768,2.6243
4291,21.973,0.36364,0.1,4.4123e-05,440.92,4.3406e-05,421.98,-1.2748e-05,0.058907,-1.7516e-05,-35.768,2.5934
4292,21.789,0.36364,0.1,4.8062e-05,480.29,4.7376e-05,461.96,-1.41e-05,0.054946,-1.874e-05,-34.809,2.5624
4293,21.605,0.36364,0.1,5.2019e-05,519.83,5.136e-05,502.08,-1.5456e-05,0.051297,-1.9973e-05,-33.884,2.5315
4294,21.42,0.36364,0.1,5.5993e-05,559.55,5.5359e-05,542.34,-1.6815e-05,0.047941,-2.1213e-05,-32.991,2.5006
4295,21.236,0.36364,0.1,5.9984e-05,599.42,5.9373e-05,582.73,-1.8178e-05,0.04487,-2.246e-05,-32.127,2.4698
4296,21.052,0.36364,0.1,6.3991e-05,639.47,6.3401e-05,623.26,-1.9544e-05,0.042056,-2.3715e-05,-31.293,2.4389
4297,20.867,0.36364,0.1,6.8014e-05,679.67,6.7444e-05,663.93,-2.0914e-05,0.039483,-2.4977e-05,-30.487,2.4082
4298,20.683,0.36364,0.1,7.2053e-05,720.04,7.1502e-05,704.74,-2.2288e-05,0.037115,-2.6246e-05,-29.708,2.3775
4299,20.499,0.36364,0.1,7.6109e-05,760.57,7.5576e-05,745.69,-2.3665e-05,0.034934,-2.7524e-05,-28.955,2.3468
4300,20.315,0.36364,0.1,8.0182e-05,801.26,7.9665e-05,786.79,-2.5047e-05,0.032941,-2.8808e-05,-28.229,2.3161
4301,20.13,0.36364,0.1,8.4271e-05,842.13,8.377e-05,828.04,-2.6432e-05,0.031109,-3.01e-05,-27.529,2.2856
4302,19.946,0.36364,0.1,8.8378e-05,883.17,8.7891e-05,869.45,-2.7822e-05,0.029437,-3.14e-05,-26.854,2.255
4303,19.762,0.36364,0.1,9.2502e-05,924.38,9.2029e-05,911.01,-2.9216e-05,0.02789,-3.2707e-05,-26.204,2.2246
4304,19.578,0.36364,0.1,9.6644e-05,965.77,9.6184e-05,952.74,-3.0615e-05,0.026453,-3.4023e-05,-25.578,2.1942
4305,19.393,0.36364,0.1,0.0001008,1007.3,0.00010036,994.63,-3.2018e-05,0.025137,-3.5346e-05,-24.976,2.1638
4306,19.209,0.36364,0.1,0.00010498,1049.1,0.00010455,1036.7,-3.3426e-05,0.023928,-3.6677e-05,-24.396,2.1336
4307,19.025,0.36364,0.1,0.00010918,1091,0.00010875,1078.9,-3.4839e-05,0.022825,-3.8015e-05,-23.839,2.1034
4308,18.841,0.36364,0.1,0.00011339,1133.1,0.00011298,1121.3,-3.6258e-05,0.021796,-3.9362e-05,-23.303,2.0732
4309,18.656,0.36364,0.1,0.00011763,1175.5,0.00011722,1163.9,-3.7681e-05,0.020828,-4.0716e-05,-22.787,2.0432
4310,18.472,0.36364,0.1,0.00012188,1218,0.00012149,1206.7,-3.9109e-05,0.019944,-4.2079e-05,-22.291,2.0132
4311,18.288,0.36364,0.1,0.00012615,1260.6,0.00012577,1249.6,-4.0543e-05,0.019127,-4.3449e-05,-21.813,1.9833
4312,18.103,0.36364,0.1,0.00013044,1303.5,0.00013007,1292.7,-4.1982e-05,0.018386,-4.4827e-05,-21.354,1.9535
4313,17.919,0.36364,0.1,0.00013475,1346.6,0.00013439,1336,-4.3427e-05,0.017682,-4.6213e-05,-20.911,1.9238
4314,17.735,0.36364,0.1,0.00013908,1389.9,0.00013872,1379.5,-4.4878e-05,0.01701,-4.7606e-05,-20.485,1.8941
4315,17.551,0.36364,0.1,0.00014343,1433.3,0.00014308,1423.2,-4.6334e-05,0.016399,-4.9008e-05,-20.074,1.8646
4316,17.366,0.36364,0.1,0.0001478,1477,0.00014746,1467.1,-4.7796e-05,0.015827,-5.0417e-05,-19.677,1.8352
4317,17.182,0.36364,0.1,0.00015219,1520.9,0.00015185,1511.1,-4.9263e-05,0.015312,-5.1833e-05,-19.294,1.8058
4318,16.998,0.36364,0.1,0.0001566,1564.9,0.00015627,1555.4,-5.0737e-05,0.014811,-5.3257e-05,-18.923,1.7766
4319,16.814,0.36364,0.1,0.00016103,1609.2,0.00016071,1599.8,-5.2217e-05,0.014317,-5.4689e-05,-18.564,1.7474
4320,16.629,0.36364,0.1,0.00016548,1653.7,0.00016516,1644.5,-5.3702e-05,0.013867,-5.6129e-05,-18.216,1.7184
4321,16.445,0.36364,0.1,0.00016995,1698.3,0.00016964,1689.3,-5.5194e-05,0.013444,-5.7575e-05,-17.877,1.6895
4322,16.261,0.36364,0.1,0.00017444,1743.2,0.00017413,1734.3,-5.6692e-05,0.013061,-5.9029e-05,-17.548,1.6607
4323,16.077,0.36364,0.1,0.00017895,1788.2,0.00017865,1779.6,-5.8196e-05,0.012672,-6.0491e-05,-17.227,1.632
4324,15.892,0.36364,0.1,0.00018348,1833.5,0.00018318,1825,-5.9707e-05,0.012277,-6.196e-05,-16.914,1.6034
4325,15.708,0.36364,0.1,0.00018803,1879,0.00018774,1870.6,-6.1224e-05,0.011912,-6.3435e-05,-16.607,1.5749
4326,15.524,0.36364,0.1,0.0001926,1924.6,0.00019232,1916.4,-6.2747e-05,0.011562,-6.4918e-05,-16.305,1.5466
4327,15.339,0.36364,0.1,0.00019719,1970.5,0.00019691,1962.5,-6.4276e-05,0.011242,-6.6409e-05,-16.009,1.5184
4328,15.155,0.36364,0.1,0.0002018,2016.6,0.00020153,2008.7,-6.5812e-05,0.010903,-6.7906e-05,-15.716,1.4904
4329,14.971,0.36364,0.1,0.00020643,2062.9,0.00020616,2055.1,-6.7355e-05,0.010541,-6.941e-05,-15.427,1.4624
4330,14.787,0.36364,0.1,0.00021108,2109.3,0.00021082,2101.7,-6.8904e-05,0.010201,-7.092e-05,-15.139,1.4347
4331,14.602,0.36364,0.1,0.00021575,2156,0.00021549,2148.6,-7.046e-05,0.0098669,-7.2438e-05,-14.853,1.407
4332,14.418,0.36364,0.1,0.00022044,2202.9,0.00022019,2195.6,-7.2022e-05,0.0095511,-7.3962e-05,-14.567,1.3795
4333,14.234,0.36364,0.1,0.00022515,2250,0.00022491,2242.8,-7.3591e-05,0.0092041,-7.5493e-05,-14.281,1.3522
4334,14.05,0.36364,0.1,0.00022989,2297.3,0.00022964,2290.2,-7.5167e-05,0.0088185,-7.7031e-05,-13.993,1.325
4335,13.865,0.36364,0.1,0.00023464,2344.8,0.0002344,2337.9,-7.675e-05,0.0084489,-7.8575e-05,-13.703,1.2979
4336,13.681,0.36364,0.1,0.00023941,2392.4,0.00023918,2385.7,-7.834e-05,0.0080705,-8.0125e-05,-13.409,1.271
4337,13.497,0.36364,0.1,0.0002442,2440.3,0.00024398,2433.8,-7.9936e-05,0.0077051,-8.1682e-05,-13.11,1.2443
4338,13.313,0.36364,0.1,0.00024902,2488.4,0.0002488,2482,-8.1539e-05,0.007292,-8.3245e-05,-12.806,1.2178
4339,13.128,0.36364,0.1,0.00025385,2536.7,0.00025363,2530.5,-8.315e-05,0.0068245,-8.4814e-05,-12.494,1.1914
4340,12.944,0.36364,0.1,0.0002587,2585.2,0.00025849,2579.1,-8.4767e-05,0.0063625,-8.6388e-05,-12.175,1.1652
4341,12.76,0.36364,0.1,0.00026358,2633.9,0.00026337,2628,-8.6392e-05,0.0058806,-8.7969e-05,-11.845,1.1391
4342,12.575,0.36364,0.1,0.00026847,2682.8,0.00026827,2677.1,-8.8024e-05,0.0053997,-8.9556e-05,-11.505,1.1132
4343,12.391,0.36364,0.1,0.00027338,2731.9,0.00027319,2726.4,-8.9663e-05,0.0048516,-9.1148e-05,-11.153,1.0876
4344,12.207,0.36364,0.1,0.00027832,2781.3,0.00027813,2775.8,-9.131e-05,0.0042337,-9.2746e-05,-10.787,1.0621
4345,12.023,0.36364,0.1,0.00028327,2830.8,0.00028309,2825.5,-9.2964e-05,0.0036054,-9.4349e-05,-10.405,1.0367
4346,11.838,0.36364,0.1,0.00028825,2880.5,0.00028808,2875.5,-9.4625e-05,0.0029419,-9.5957e-05,-10.007,1.0116
4347,11.654,0.36364,0.1,0.00029324,2930.4,0.00029308,2925.6,-9.6294e-05,0.0022641,-9.7571e-05,-9.5892,0.98669
4348,11.47,0.36364,0.1,0.00029826,2980.5,0.0002981,2975.9,-9.7971e-05,0.0014977,-9.9189e-05,-9.1508,0.96196
4349,11.286,0.36364,0.1,0.00030329,3030.8,0.00030314,3026.5,-9.9656e-05,0.00063723,-0.00010081,-8.6898,0.93743
4350,11.101,0.36364,0.1,0.00030835,3081.4,0.00030821,3077.2,-0.00010135,-0.00025059,-0.00010244,-8.2038,0.91311
4351,10.917,0.36364,0.1,0.00031342,3132.1,0.00031329,3128.2,-0.00010305,-0.0011936,-0.00010407,-7.6908,0.88899
4352,10.733,0.36364,0.1,0.00031852,3183,0.0003184,3179.4,-0.00010476,-0.0021692,-0.00010571,-7.1482,0.86509
4353,10.549,0.36364,0.1,0.00032364,3234.1,0.00032353,3230.9,-0.00010648,-0.0032579,-0.00010735,-6.5737,0.8414
4354,10.364,0.36364,0.1,0.00032878,3285.5,0.00032867,3282.5,-0.0001082,-0.0044588,-0.00010899,-5.9647,0.81794
4355,10.18,0.36364,0.1,0.00033393,3337,0.00033384,3334.4,-0.00010993,-0.0056838,-0.00011064,-5.3184,0.79469
4356,9.9957,0.36364,0.1,0.00033911,3388.8,0.00033903,3386.5,-0.00011168,-0.0069862,-0.00011229,-4.6322,0.77167
4357,9.8115,0.36364,0.1,0.00034431,3440.7,0.00034424,3438.8,-0.00011343,-0.008339,-0.00011395,-3.9029,0.74888
4358,9.6272,0.36364,0.1,0.00034953,3492.9,0.00034948,3491.3,-0.00011519,-0.0096826,-0.00011561,-3.1279,0.72632
4359,9.4429,0.36364,0.1,0.00035477,3545.3,0.00035473,3544.1,-0.00011696,-0.010893,-0.00011727,-2.3041,0.704
4360,9.2587,0.36364,0.1,0.00036003,3597.8,0.00036001,3597.1,-0.00011874,-0.011409,-0.00011893,-1.4291,0.68192
4361,9.0744,0.36364,0.1,0.00036531,3650.6,0.0003653,3650.4,-0.00012053,-0.0062857,-0.0001206,-0.50473,0.66009
4362,8.8901,0.36364,0.1,0.00037062,3703.6,0.00037062,3703.8,-0.00012226,0.50621,-0.00012233,-0.029932,0.6385
4363,8.7059,0.36364,0.1,0.00037594,3756.8,0.00037597,3757.6,-0.00012393,1.5497,-0.00012414,-0.025584,0.61716
4364,8.5216,0.36364,0.1,0.00038128,3810.2,0.00038133,3811.5,-0.0001256,2.6618,-0.00012596,-0.026834,0.59608
4365,8.3373,0.36364,0.1,0.00038665,3863.8,0.00038671,3865.7,-0.00012727,3.84,-0.00012779,-0.0291,0.57525
4366,8.1531,0.36364,0.1,0.00039203,3917.6,0.00039212,3920.2,-0.00012894,5.085,-0.00012963,-0.031855,0.55469
4367,7.9688,0.36364,0.1,0.00039744,3971.7,0.00039755,3974.8,-0.00013062,6.3975,-0.00013147,-0.034961,0.5344
4368,7.7845,0.36364,0.1,0.00040287,4025.9,0.000403,4029.7,-0.00013229,7.7769,-0.00013333,-0.038373,0.51437
4369,7.6003,0.36364,0.1,0.00040831,4080.3,0.00040847,4084.9,-0.00013397,9.2215,-0.0001352,-0.042073,0.49462
4370,7.416,0.36364,0.1,0.00041378,4134.9,0.00041396,4140.2,-0.00013565,10.728,-0.00013708,-0.046053,0.47514
4371,7.2317,0.36364,0.1,0.00041926,4189.7,0.00041946,4195.8,-0.00013732,12.29,-0.00013897,-0.050313,0.45594
4372,7.0475,0.36364,0.1,0.00042475,4244.6,0.00042499,4251.5,-0.000139,13.899,-0.00014086,-0.054847,0.43703
4373,6.8632,0.36364,0.1,0.00043027,4299.7,0.00043053,4307.4,-0.00014069,15.543,-0.00014276,-0.05965,0.41841
4374,6.6789,0.36364,0.1,0.00043579,4354.9,0.00043608,4363.4,-0.00014237,17.206,-0.00014467,-0.064713,0.40008
4375,6.4947,0.36364,0.1,0.00044132,4410.1,0.00044163,4419.5,-0.00014405,18.866,-0.00014657,-0.070019,0.38204
4376,6.3104,0.36364,0.1,0.00044684,4465.4,0.00044719,4475.5,-0.00014574,20.495,-0.00014848,-0.075545,0.36431
4377,6.1261,0.36364,0.1,0.00045236,4520.5,0.00045273,4531.5,-0.00014743,22.057,-0.00015038,-0.081259,0.34687
4378,5.9419,0.36364,0.1,0.00045787,4575.5,0.00045826,4587.2,-0.00014913,23.507,-0.00015227,-0.087121,0.32975
4379,5.7576,0.36364,0.1,0.00046334,4630.2,0.00046376,4642.5,-0.00015083,24.79,-0.00015414,-0.093087,0.31294
4380,5.5733,0.36364,0.1,0.00046877,4684.4,0.0004692,4697.2,-0.00015253,25.837,-0.00015598,-0.099111,0.29644
4381,5.3891,0.36364,0.1,0.00047412,4737.9,0.00047456,4751.1,-0.00015423,26.563,-0.00015778,-0.10516,0.28026
4382,5.2048,0.36364,0.1,0.00047936,4790.3,0.00047981,4803.6,-0.00015594,26.869,-0.00015953,-0.11126,0.2644
4383,5.0205,0.36364,0.1,0.00048447,4841.3,0.00048491,4854.5,-0.00015764,26.635,-0.0001612,-0.11752,0.24887
4384,4.8363,0.36364,0.1,0.00048937,4890.3,0.0004898,4903.1,-0.00015934,25.719,-0.00016278,-0.12435,0.23366
4385,4.652,0.36364,0.1,0.00049401,4936.7,0.00049441,4948.6,-0.00016101,23.959,-0.00016422,-0.13277,0.21879
4386,4.4677,0.36364,0.1,0.0004983,4979.5,0.00049865,4990,-0.00016266,21.168,-0.0001655,-0.14544,0.20426
4387,4.2835,0.36364,0.1,0.00050211,5017.7,0.0005024,5026.1,-0.00016426,17.142,-0.00016656,-0.17005,0.19006
4388,4.0992,0.36364,0.1,0.00050532,5049.7,0.00050551,5055.4,-0.00016577,11.678,-0.00016735,-0.23595,0.17621
4389,3.9149,0.36364,0.1,0.00050772,5073.7,0.00050779,5075.8,-0.00016712,4.7553,-0.00016783,-0.57336,0.1627
4390,3.7307,0.36364,0.1,0.0005091,5087.5,0.00050901,5084.9,-0.00016768,0.54334,-0.0001685,-5.6029,0.14953
4391,3.5464,0.36364,0.1,0.00050914,5087.9,0.00050886,5079.6,-0.00016717,0.24092,-0.00016943,-16.763,0.13671
4392,3.3621,0.36364,0.1,0.0005075,5071.5,0.00050697,5056.2,-0.00016594,0.20156,-0.00017004,-30.601,0.12423
4393,3.1779,0.36364,0.1,0.0005037,5033.5,0.00050289,5010,-0.00016387,0.21285,-0.00017015,-47.013,0.1121
4394,2.9936,0.36364,0.1,0.0004972,4968.6,0.00049605,4935.4,-0.00016078,0.24537,-0.00016959,-65.925,0.10031
4395,2.8093,0.36364,0.1,0.00048733,4869.9,0.0004858,4826,-0.00015646,0.28946,-0.00016809,-87.047,0.08886
4396,2.6251,0.36364,0.1,0.00047331,4729.9,0.00047136,4674.2,-0.0001507,0.33996,-0.00016535,-109.75,0.077737
4397,2.4408,0.36364,0.1,0.00045427,4539.6,0.00045187,4471.8,-0.00014324,0.39366,-0.00016099,-132.94,0.066934
4398,2.2565,0.36364,0.1,0.00042925,4289.6,0.00042641,4210.2,-0.00013387,0.45734,-0.00015456,-155.01,0.056437
4399,2.0723,0.36364,0.1,0.00039736,3970.8,0.00039412,3881.3,-0.00012238,0.5486,-0.00014559,-173.84,0.046229
4400,1.888,0.36364,0.1,0.00035789,3576.5,0.00035435,3479.6,-0.00010864,0.79472,-0.00013366,-187.21,0.036288
4401,1.7037,0.36364,0.1,0.00031075,3105.3,0.000307,3004.3,-9.2669e-05,1.2903,-0.00011868,-194.16,0.02659
4402,1.5195,0.36364,0.1,0.00025714,2569.6,0.00025323,2466.2,-7.456e-05,3.3059,-0.00010139,-198.31,0.01712
4403,1.3352,0.36364,0.1,0.00020218,2020.4,0.00019748,1901.1,-5.4956e-05,4.3926,-8.5299e-05,-223.59,0.0079602
4404,1.1509,0.36364,0.1,0.00016773,1676.1,0.00015786,1455.8,-3.3941e-05,14.655,-8.6943e-05,-383.58,0.0031157
4405,23.816,0.54545,0.1,1.0288e-05,102.81,6.4592e-06,38.936,1.2818e-06,0.034747,-9.057e-06,-77.647,2.9041
4406,23.631,0.54545,0.1,1.2456e-05,124.47,9.7444e-06,74.475,-1.9197e-07,-0.18265,-9.3797e-06,-69.216,2.873
4407,23.447,0.54545,0.1,1.5273e-05,152.63,1.3194e-05,111.06,-1.5912e-06,-0.03116,-9.9681e-06,-62.972,2.8419
4408,23.263,0.54545,0.1,1.8476e-05,184.63,1.678e-05,148.43,-2.9786e-06,-0.027827,-1.0736e-05,-58.313,2.8108
4409,23.079,0.54545,0.1,2.1908e-05,218.93,2.046e-05,186.42,-4.3521e-06,-0.0069542,-1.1625e-05,-54.654,2.7797
4410,22.894,0.54545,0.1,2.5485e-05,254.68,2.421e-05,224.89,-5.7203e-06,0.00022715,-1.2596e-05,-51.662,2.7486
4411,22.71,0.54545,0.1,2.9159e-05,291.39,2.8011e-05,263.71,-7.0857e-06,0.0057108,-1.3624e-05,-49.12,2.7176
4412,22.526,0.54545,0.1,3.29e-05,328.77,3.185e-05,302.81,-8.4501e-06,0.00868,-1.4693e-05,-46.896,2.6865
4413,22.342,0.54545,0.1,3.6691e-05,366.66,3.5721e-05,342.14,-9.8146e-06,0.010492,-1.5793e-05,-44.906,2.6555
4414,22.157,0.54545,0.1,4.0522e-05,404.94,3.9617e-05,381.67,-1.118e-05,0.011482,-1.6917e-05,-43.096,2.6245
4415,21.973,0.54545,0.1,4.4385e-05,443.54,4.3535e-05,421.38,-1.2546e-05,0.011968,-1.8061e-05,-41.43,2.5936
4416,21.789,0.54545,0.1,4.8275e-05,482.42,4.7473e-05,461.25,-1.3913e-05,0.01213,-1.9223e-05,-39.881,2.5626
4417,21.605,0.54545,0.1,5.219e-05,521.54,5.143e-05,501.27,-1.5283e-05,0.012076,-2.04e-05,-38.433,2.5317
4418,21.42,0.54545,0.1,5.6128e-05,560.89,5.5405e-05,541.44,-1.6654e-05,0.011878,-2.159e-05,-37.073,2.5008
4419,21.236,0.54545,0.1,6.0086e-05,600.44,5.9397e-05,581.75,-1.8028e-05,0.011596,-2.2793e-05,-35.789,2.47
4420,21.052,0.54545,0.1,6.4064e-05,640.2,6.3406e-05,622.21,-1.9404e-05,0.011264,-2.4008e-05,-34.576,2.4392
4421,20.867,0.54545,0.1,6.8061e-05,680.14,6.7431e-05,662.82,-2.0783e-05,0.010915,-2.5234e-05,-33.428,2.4084
4422,20.683,0.54545,0.1,7.2078e-05,720.28,7.1474e-05,703.57,-2.2165e-05,0.01054,-2.647e-05,-32.338,2.3777
4423,20.499,0.54545,0.1,7.6114e-05,760.61,7.5533e-05,744.48,-2.355e-05,0.010155,-2.7718e-05,-31.304,2.347
4424,20.315,0.54545,0.1,8.0168e-05,801.13,7.9609e-05,785.54,-2.4938e-05,0.0097887,-2.8975e-05,-30.322,2.3164
4425,20.13,0.54545,0.1,8.4241e-05,841.83,8.3703e-05,826.75,-2.633e-05,0.0094292,-3.0243e-05,-29.389,2.2859
4426,19.946,0.54545,0.1,8.8333e-05,882.72,8.7814e-05,868.13,-2.7726e-05,0.0090951,-3.1521e-05,-28.502,2.2553
4427,19.762,0.54545,0.1,9.2444e-05,923.8,9.1943e-05,909.67,-2.9125e-05,0.0087669,-3.2808e-05,-27.659,2.2249
4428,19.578,0.54545,0.1,9.6574e-05,965.08,9.6089e-05,951.37,-3.0529e-05,0.0084394,-3.4105e-05,-26.857,2.1945
4429,19.393,0.54545,0.1,0.00010072,1006.5,0.00010025,993.24,-3.1937e-05,0.0081436,-3.5411e-05,-26.093,2.1642
4430,19.209,0.54545,0.1,0.00010489,1048.2,0.00010444,1035.3,-3.335e-05,0.0078668,-3.6727e-05,-25.367,2.1339
4431,19.025,0.54545,0.1,0.00010908,1090,0.00010864,1077.5,-3.4767e-05,0.0076178,-3.8052e-05,-24.676,2.1037
4432,18.841,0.54545,0.1,0.00011329,1132.1,0.00011286,1119.9,-3.6188e-05,0.0073701,-3.9386e-05,-24.018,2.0736
4433,18.656,0.54545,0.1,0.00011751,1174.3,0.0001171,1162.5,-3.7615e-05,0.0071248,-4.0729e-05,-23.391,2.0436
4434,18.472,0.54545,0.1,0.00012176,1216.8,0.00012136,1205.2,-3.9046e-05,0.0069061,-4.2081e-05,-22.793,2.0136
4435,18.288,0.54545,0.1,0.00012603,1259.4,0.00012564,1248.2,-4.0483e-05,0.0067045,-4.3442e-05,-22.222,1.9837
4436,18.103,0.54545,0.1,0.00013031,1302.2,0.00012993,1291.3,-4.1925e-05,0.0065308,-4.4811e-05,-21.678,1.9539
4437,17.919,0.54545,0.1,0.00013462,1345.3,0.00013425,1334.6,-4.3372e-05,0.0063524,-4.6189e-05,-21.158,1.9242
4438,17.735,0.54545,0.1,0.00013895,1388.5,0.00013858,1378.1,-4.4825e-05,0.0061654,-4.7576e-05,-20.66,1.8946
4439,17.551,0.54545,0.1,0.00014329,1432,0.00014294,1421.8,-4.6283e-05,0.0060064,-4.897e-05,-20.184,1.865
4440,17.366,0.54545,0.1,0.00014766,1475.6,0.00014732,1465.6,-4.7747e-05,0.0058617,-5.0374e-05,-19.727,1.8356
4441,17.182,0.54545,0.1,0.00015205,1519.4,0.00015171,1509.7,-4.9217e-05,0.0057417,-5.1785e-05,-19.288,1.8063
4442,16.998,0.54545,0.1,0.00015646,1563.5,0.00015613,1554,-5.0692e-05,0.0056095,-5.3204e-05,-18.866,1.777
4443,16.814,0.54545,0.1,0.00016088,1607.7,0.00016056,1598.4,-5.2174e-05,0.005463,-5.4631e-05,-18.459,1.7479
4444,16.629,0.54545,0.1,0.00016533,1652.2,0.00016502,1643.1,-5.3661e-05,0.0053425,-5.6066e-05,-18.067,1.7189
4445,16.445,0.54545,0.1,0.0001698,1696.8,0.00016949,1687.9,-5.5155e-05,0.0052278,-5.7509e-05,-17.687,1.69
4446,16.261,0.54545,0.1,0.00017429,1741.7,0.00017398,1732.9,-5.6654e-05,0.0051414,-5.896e-05,-17.318,1.6612
4447,16.077,0.54545,0.1,0.00017879,1786.7,0.0001785,1778.2,-5.816e-05,0.0050367,-6.0417e-05,-16.96,1.6325
4448,15.892,0.54545,0.1,0.00018332,1832,0.00018303,1823.6,-5.9671e-05,0.0049119,-6.1883e-05,-16.61,1.604
4449,15.708,0.54545,0.1,0.00018787,1877.4,0.00018759,1869.2,-6.119e-05,0.0048106,-6.3355e-05,-16.269,1.5755
4450,15.524,0.54545,0.1,0.00019244,1923.1,0.00019216,1915.1,-6.2714e-05,0.0047165,-6.4835e-05,-15.933,1.5472
4451,15.339,0.54545,0.1,0.00019703,1968.9,0.00019676,1961.1,-6.4245e-05,0.0046471,-6.6322e-05,-15.603,1.519
4452,15.155,0.54545,0.1,0.00020164,2015,0.00020137,2007.3,-6.5782e-05,0.0045512,-6.7816e-05,-15.277,1.491
4453,14.971,0.54545,0.1,0.00020627,2061.3,0.00020601,2053.7,-6.7326e-05,0.0044318,-6.9317e-05,-14.954,1.4631
4454,14.787,0.54545,0.1,0.00021092,2107.7,0.00021066,2100.4,-6.8876e-05,0.0043353,-7.0824e-05,-14.633,1.4353
4455,14.602,0.54545,0.1,0.00021559,2154.4,0.00021534,2147.2,-7.0433e-05,0.0042423,-7.2339e-05,-14.312,1.4077
4456,14.418,0.54545,0.1,0.00022028,2201.3,0.00022004,2194.2,-7.1997e-05,0.0041752,-7.3859e-05,-13.99,1.3802
4457,14.234,0.54545,0.1,0.00022499,2248.3,0.00022475,2241.5,-7.3567e-05,0.0040759,-7.5387e-05,-13.665,1.3529
4458,14.05,0.54545,0.1,0.00022972,2295.6,0.00022949,2288.9,-7.5145e-05,0.0039462,-7.692e-05,-13.337,1.3257
4459,13.865,0.54545,0.1,0.00023447,2343.1,0.00023424,2336.5,-7.6729e-05,0.0038386,-7.846e-05,-13.005,1.2986
4460,13.681,0.54545,0.1,0.00023924,2390.7,0.00023902,2384.4,-7.832e-05,0.0037334,-8.0006e-05,-12.666,1.2718
4461,13.497,0.54545,0.1,0.00024403,2438.6,0.00024381,2432.4,-7.9918e-05,0.0036517,-8.1558e-05,-12.319,1.2451
4462,13.313,0.54545,0.1,0.00024884,2486.6,0.00024863,2480.6,-8.1522e-05,0.0035323,-8.3115e-05,-11.962,1.2185
4463,13.128,0.54545,0.1,0.00025367,2534.9,0.00025347,2529.1,-8.3135e-05,0.0033765,-8.4678e-05,-11.595,1.1921
4464,12.944,0.54545,0.1,0.00025852,2583.4,0.00025832,2577.7,-8.4754e-05,0.0032413,-8.6247e-05,-11.215,1.1659
4465,12.76,0.54545,0.1,0.00026338,2632,0.0002632,2626.6,-8.638e-05,0.0031052,-8.7821e-05,-10.821,1.1399
4466,12.575,0.54545,0.1,0.00026827,2680.9,0.0002681,2675.7,-8.8014e-05,0.0029927,-8.94e-05,-10.41,1.1141
4467,12.391,0.54545,0.1,0.00027318,2729.9,0.00027301,2724.9,-8.9655e-05,0.002837,-9.0984e-05,-9.9816,1.0884
4468,12.207,0.54545,0.1,0.00027811,2779.2,0.00027795,2774.4,-9.1304e-05,0.0026372,-9.2573e-05,-9.5325,1.0629
4469,12.023,0.54545,0.1,0.00028306,2828.6,0.0002829,2824.1,-9.296e-05,0.0024539,-9.4167e-05,-9.0608,1.0376
4470,11.838,0.54545,0.1,0.00028803,2878.3,0.00028788,2874,-9.4624e-05,0.0022672,-9.5764e-05,-8.5641,1.0125
4471,11.654,0.54545,0.1,0.00029301,2928.1,0.00029288,2924.1,-9.6296e-05,0.0021022,-9.7366e-05,-8.04,0.98758
4472,11.47,0.54545,0.1,0.00029802,2978.2,0.00029789,2974.4,-9.7976e-05,0.0018868,-9.8972e-05,-7.4859,0.96286
4473,11.286,0.54545,0.1,0.00030305,3028.4,0.00030293,3024.9,-9.9664e-05,0.0016184,-0.00010058,-6.899,0.93835
4474,11.101,0.54545,0.1,0.00030809,3078.8,0.00030799,3075.7,-0.00010136,0.0013714,-0.0001022,-6.2762,0.91404
4475,10.917,0.54545,0.1,0.00031316,3129.4,0.00031306,3126.6,-0.00010306,0.0011187,-0.00010381,-5.6145,0.88994
4476,10.733,0.54545,0.1,0.00031824,3180.2,0.00031816,3177.8,-0.00010478,0.00089252,-0.00010543,-4.9103,0.86605
4477,10.549,0.54545,0.1,0.00032335,3231.2,0.00032327,3229.1,-0.0001065,0.00062218,-0.00010705,-4.1604,0.84238
4478,10.364,0.54545,0.1,0.00032847,3282.4,0.00032841,3280.7,-0.00010823,0.00032618,-0.00010868,-3.3611,0.81893
4479,10.18,0.54545,0.1,0.00033361,3333.8,0.00033357,3332.5,-0.00010997,0.00013695,-0.0001103,-2.5083,0.79569
4480,9.9957,0.54545,0.1,0.00033877,3385.4,0.00033874,3384.6,-0.00011172,0.00016352,-0.00011193,-1.5983,0.77269
4481,9.8115,0.54545,0.1,0.00034395,3437.1,0.00034394,3436.8,-0.00011347,0.0016766,-0.00011356,-0.628,0.74991
4482,9.6272,0.54545,0.1,0.00034915,3489.1,0.00034916,3489.3,-0.00011518,0.41862,-0.00011524,-0.0070032,0.72737
4483,9.4429,0.54545,0.1,0.00035437,3541.2,0.00035439,3542,-0.00011681,1.5242,-0.00011702,-0.004034,0.70506
4484,9.2587,0.54545,0.1,0.0003596,3593.6,0.00035965,3594.9,-0.00011844,2.708,-0.0001188,-0.0040638,0.683
4485,9.0744,0.54545,0.1,0.00036486,3646.1,0.00036493,3648.1,-0.00012007,3.972,-0.0001206,-0.0044981,0.66117
4486,8.8901,0.54545,0.1,0.00037013,3698.8,0.00037022,3701.4,-0.0001217,5.3205,-0.00012241,-0.0051033,0.6396
4487,8.7059,0.54545,0.1,0.00037543,3751.7,0.00037554,3755.1,-0.00012333,6.7578,-0.00012423,-0.0058274,0.61827
4488,8.5216,0.54545,0.1,0.00038074,3804.8,0.00038088,3808.9,-0.00012495,8.2879,-0.00012605,-0.0066532,0.5972
4489,8.3373,0.54545,0.1,0.00038607,3858,0.00038624,3863,-0.00012657,9.9145,-0.00012789,-0.0075803,0.57639
4490,8.1531,0.54545,0.1,0.00039142,3911.5,0.00039161,3917.3,-0.00012819,11.64,-0.00012974,-0.0086122,0.55584
4491,7.9688,0.54545,0.1,0.00039678,3965.1,0.00039701,3971.8,-0.00012981,13.468,-0.00013161,-0.0097576,0.53556
4492,7.7845,0.54545,0.1,0.00040217,4018.9,0.00040243,4026.6,-0.00013143,15.397,-0.00013348,-0.011028,0.51554
4493,7.6003,0.54545,0.1,0.00040757,4072.9,0.00040786,4081.5,-0.00013304,17.427,-0.00013536,-0.012438,0.4958
4494,7.416,0.54545,0.1,0.00041299,4127,0.00041331,4136.7,-0.00013465,19.554,-0.00013725,-0.014004,0.47634
4495,7.2317,0.54545,0.1,0.00041842,4181.3,0.00041879,4192.1,-0.00013626,21.774,-0.00013916,-0.015748,0.45715
4496,7.0475,0.54545,0.1,0.00042387,4235.8,0.00042427,4247.7,-0.00013786,24.075,-0.00014107,-0.017695,0.43825
4497,6.8632,0.54545,0.1,0.00042933,4290.3,0.00042977,4303.5,-0.00013947,26.444,-0.00014299,-0.019877,0.41964
4498,6.6789,0.54545,0.1,0.0004348,4345,0.00043528,4359.4,-0.00014107,28.861,-0.00014491,-0.022329,0.40132
4499,6.4947,0.54545,0.1,0.00044028,4399.8,0.0004408,4415.3,-0.00014267,31.3,-0.00014684,-0.0251,0.38329
4500,6.3104,0.54545,0.1,0.00044576,4454.5,0.00044633,4471.3,-0.00014428,33.725,-0.00014877,-0.028246,0.36556
4501,6.1261,0.54545,0.1,0.00045124,4509.3,0.00045185,4527.2,-0.00014589,36.091,-0.0001507,-0.031841,0.34814
4502,5.9419,0.54545,0.1,0.00045671,4564,0.00045735,4583,-0.00014751,38.341,-0.00015261,-0.03598,0.33102
4503,5.7576,0.54545,0.1,0.00046216,4618.4,0.00046283,4638.5,-0.00014913,40.402,-0.00015451,-0.04079,0.31421
4504,5.5733,0.54545,0.1,0.00046758,4672.5,0.00046828,4693.5,-0.00015077,42.186,-0.00015639,-0.046442,0.29772
4505,5.3891,0.54545,0.1,0.00047294,4726.1,0.00047366,4747.7,-0.00015242,43.583,-0.00015823,-0.05318,0.28155
4506,5.2048,0.54545,0.1,0.00047822,4778.9,0.00047896,4800.9,-0.00015409,44.462,-0.00016001,-0.061362,0.26569
4507,5.0205,0.54545,0.1,0.00048339,4830.6,0.00048413,4852.7,-0.00015578,44.664,-0.00016173,-0.071541,0.25017
4508,4.8363,0.54545,0.1,0.00048841,4880.7,0.00048914,4902.5,-0.00015749,44.002,-0.00016336,-0.084623,0.23497
4509,4.652,0.54545,0.1,0.00049321,4928.7,0.00049392,4949.7,-0.00015922,42.259,-0.00016486,-0.1022,0.2201
4510,4.4677,0.54545,0.1,0.00049773,4973.9,0.00049839,4993.3,-0.00016097,39.185,-0.0001662,-0.12731,0.20557
4511,4.2835,0.54545,0.1,0.00050187,5015.3,0.00050245,5032.3,-0.00016272,34.502,-0.00016734,-0.1666,0.19138
4512,4.0992,0.54545,0.1,0.0005055,5051.5,0.00050597,5065.3,-0.00016447,27.91,-0.00016822,-0.23731,0.17753
4513,3.9149,0.54545,0.1,0.00050847,5081.1,0.00050878,5090.5,-0.00016617,19.133,-0.00016877,-0.40068,0.16402
4514,3.7307,0.54545,0.1,0.00051055,5102,0.00051067,5105.6,-0.00016774,8.25,-0.00016898,-1.0877,0.15086
4515,3.5464,0.54545,0.1,0.0005115,5111.4,0.00051137,5107.7,-0.00016826,1.2435,-0.00016958,-8.6208,0.13804
4516,3.3621,0.54545,0.1,0.00051097,5106.2,0.00051054,5093.5,-0.0001673,0.51426,-0.00017079,-25.699,0.12557
4517,3.1779,0.54545,0.1,0.00050855,5082,0.00050774,5058.6,-0.00016547,0.36269,-0.00017175,-46.831,0.11345
4518,2.9936,0.54545,0.1,0.00050371,5033.7,0.00050246,4997.6,-0.00016264,0.31972,-0.00017221,-71.602,0.10167
4519,2.8093,0.54545,0.1,0.00049584,4954.9,0.00049407,4904.5,-0.00015863,0.32384,-0.00017195,-99.766,0.09024
4520,2.6251,0.54545,0.1,0.00048416,4838.2,0.00048181,4771.7,-0.00015322,0.36229,-0.00017067,-130.79,0.079139
4521,2.4408,0.54545,0.1,0.00046781,4674.9,0.00046482,4591.1,-0.00014616,0.43547,-0.00016801,-163.75,0.068366
4522,2.2565,0.54545,0.1,0.00044587,4455.6,0.00044219,4353.9,-0.00013721,0.55652,-0.00016354,-197.32,0.057906
4523,2.0723,0.54545,0.1,0.00041744,4171.5,0.00041306,4052.1,-0.00012614,0.74023,-0.00015685,-230,0.047744
4524,1.888,0.54545,0.1,0.00038197,3817,0.00037687,3680.3,-0.00011281,1.0856,-0.00014769,-261.03,0.037858
4525,1.7037,0.54545,0.1,0.00033977,3395.4,0.00033386,3240.2,-9.7178e-05,1.5375,-0.00013635,-292.79,0.028225
4526,1.5195,0.54545,0.1,0.00029328,2930.8,0.00028614,2749.4,-7.9393e-05,2.9353,-0.00012454,-336.29,0.018822
4527,1.3352,0.54545,0.1,0.00025006,2498.9,0.00023999,2257.3,-6.0157e-05,2.1261,-0.00011756,-429.19,0.0096829
4528,1.1509,0.54545,0.1,0.00023536,2351.9,0.00021532,1923.5,-3.9187e-05,11.258,-0.00013421,-702.71,0.0025477
4529,23.816,0.72727,0.1,1.1952e-05,119.44,7.0769e-06,39.456,1.823e-06,-0.020103,-1.0781e-05,-94.722,2.9042
4530,23.631,0.72727,0.1,1.3973e-05,139.63,1.0406e-05,75.724,2.9819e-07,-0.22012,-1.1041e-05,-85.421,2.8731
4531,23.447,0.72727,0.1,1.6588e-05,165.76,1.3835e-05,112.57,-1.1552e-06,-0.061641,-1.1498e-05,-77.774,2.842
4532,23.263,0.72727,0.1,1.9588e-05,195.75,1.7363e-05,149.88,-2.5911e-06,-0.05276,-1.211e-05,-71.574,2.8109
4533,23.079,0.72727,0.1,2.2844e-05,228.28,2.0976e-05,187.68,-4.006e-06,-0.028225,-1.2846e-05,-66.451,2.7799
4534,22.894,0.72727,0.1,2.6274e-05,262.56,2.4659e-05,225.9,-5.4093e-06,-0.018167,-1.3679e-05,-62.15,2.7488
4535,22.71,0.72727,0.1,2.9825e-05,298.05,2.8397e-05,264.48,-6.8045e-06,-0.010194,-1.4584e-05,-58.46,2.7177
4536,22.526,0.72727,0.1,3.3465e-05,334.42,3.2182e-05,303.36,-8.1944e-06,-0.0051701,-1.5545e-05,-55.236,2.6867
4537,22.342,0.72727,0.1,3.7172e-05,371.46,3.6003e-05,342.5,-9.5809e-06,-0.0016366,-1.6551e-05,-52.372,2.6557
4538,22.157,0.72727,0.1,4.0931e-05,409.02,3.9855e-05,381.85,-1.0965e-05,0.00080217,-1.7593e-05,-49.794,2.6247
4539,21.973,0.72727,0.1,4.4732e-05,447.01,4.3735e-05,421.39,-1.2348e-05,0.0025145,-1.8664e-05,-47.449,2.5937
4540,21.789,0.72727,0.1,4.8569e-05,485.36,4.764e-05,461.12,-1.3731e-05,0.0037147,-1.976e-05,-45.298,2.5628
4541,21.605,0.72727,0.1,5.2437e-05,524.01,5.1566e-05,501.01,-1.5114e-05,0.004542,-2.0879e-05,-43.311,2.5319
4542,21.42,0.72727,0.1,5.6334e-05,562.95,5.5514e-05,541.07,-1.6498e-05,0.0050989,-2.2017e-05,-41.468,2.501
4543,21.236,0.72727,0.1,6.0256e-05,602.14,5.9481e-05,581.28,-1.7882e-05,0.0054741,-2.3174e-05,-39.751,2.4702
4544,21.052,0.72727,0.1,6.4202e-05,641.57,6.3468e-05,621.65,-1.9268e-05,0.0057073,-2.4346e-05,-38.146,2.4394
4545,20.867,0.72727,0.1,6.8171e-05,681.24,6.7473e-05,662.18,-2.0656e-05,0.0058516,-2.5534e-05,-36.643,2.4087
4546,20.683,0.72727,0.1,7.2162e-05,721.12,7.1498e-05,702.86,-2.2046e-05,0.0059137,-2.6736e-05,-35.232,2.3779
4547,20.499,0.72727,0.1,7.6175e-05,761.22,7.5541e-05,743.7,-2.3439e-05,0.0059104,-2.7952e-05,-33.907,2.3473
4548,20.315,0.72727,0.1,8.0208e-05,801.53,7.9603e-05,784.7,-2.4834e-05,0.0058781,-2.9182e-05,-32.66,2.3167
4549,20.13,0.72727,0.1,8.4263e-05,842.05,8.3683e-05,825.87,-2.6232e-05,0.0058205,-3.0423e-05,-31.485,2.2861
4550,19.946,0.72727,0.1,8.8339e-05,882.78,8.7783e-05,867.2,-2.7634e-05,0.0057509,-3.1677e-05,-30.378,2.2556
4551,19.762,0.72727,0.1,9.2435e-05,923.71,9.1901e-05,908.7,-2.9038e-05,0.0056614,-3.2943e-05,-29.334,2.2252
4552,19.578,0.72727,0.1,9.6552e-05,964.85,9.6038e-05,950.36,-3.0447e-05,0.0055506,-3.4221e-05,-28.349,2.1948
4553,19.393,0.72727,0.1,0.00010069,1006.2,0.00010019,992.21,-3.1859e-05,0.0054451,-3.5509e-05,-27.42,2.1645
4554,19.209,0.72727,0.1,0.00010485,1047.7,0.00010437,1034.2,-3.3276e-05,0.0053367,-3.6809e-05,-26.541,2.1342
4555,19.025,0.72727,0.1,0.00010902,1089.5,0.00010856,1076.4,-3.4697e-05,0.0052438,-3.8119e-05,-25.711,2.104
4556,18.841,0.72727,0.1,0.00011322,1131.5,0.00011278,1118.8,-3.6122e-05,0.0051389,-3.944e-05,-24.926,2.0739
4557,18.656,0.72727,0.1,0.00011744,1173.6,0.00011701,1161.3,-3.7552e-05,0.005021,-4.0771e-05,-24.183,2.0439
4558,18.472,0.72727,0.1,0.00012168,1216,0.00012127,1204.1,-3.8986e-05,0.0049201,-4.2112e-05,-23.479,2.014
4559,18.288,0.72727,0.1,0.00012594,1258.6,0.00012554,1247,-4.0426e-05,0.0048231,-4.3463e-05,-22.812,1.9841
4560,18.103,0.72727,0.1,0.00013022,1301.3,0.00012983,1290.1,-4.187e-05,0.0047455,-4.4823e-05,-22.179,1.9543
4561,17.919,0.72727,0.1,0.00013453,1344.3,0.00013415,1333.4,-4.332e-05,0.0046572,-4.6193e-05,-21.578,1.9246
4562,17.735,0.72727,0.1,0.00013885,1387.5,0.00013848,1376.9,-4.4775e-05,0.0045532,-4.7571e-05,-21.006,1.895
4563,17.551,0.72727,0.1,0.00014319,1430.9,0.00014283,1420.6,-4.6236e-05,0.0044664,-4.8959e-05,-20.461,1.8655
4564,17.366,0.72727,0.1,0.00014755,1474.5,0.00014721,1464.5,-4.7702e-05,0.004389,-5.0356e-05,-19.941,1.836
4565,17.182,0.72727,0.1,0.00015194,1518.3,0.0001516,1508.5,-4.9173e-05,0.004332,-5.1761e-05,-19.444,1.8067
4566,16.998,0.72727,0.1,0.00015634,1562.3,0.00015601,1552.8,-5.065e-05,0.0042578,-5.3175e-05,-18.968,1.7775
4567,16.814,0.72727,0.1,0.00016077,1606.6,0.00016044,1597.2,-5.2133e-05,0.0041684,-5.4597e-05,-18.511,1.7484
4568,16.629,0.72727,0.1,0.00016521,1651,0.0001649,1641.9,-5.3622e-05,0.0040961,-5.6028e-05,-18.071,1.7194
4569,16.445,0.72727,0.1,0.00016968,1695.6,0.00016937,1686.7,-5.5117e-05,0.0040307,-5.7466e-05,-17.648,1.6905
4570,16.261,0.72727,0.1,0.00017416,1740.4,0.00017386,1731.8,-5.6618e-05,0.0039891,-5.8913e-05,-17.238,1.6617
4571,16.077,0.72727,0.1,0.00017867,1785.5,0.00017838,1777,-5.8125e-05,0.0039257,-6.0367e-05,-16.84,1.633
4572,15.892,0.72727,0.1,0.0001832,1830.7,0.00018291,1822.4,-5.9638e-05,0.0038422,-6.1828e-05,-16.452,1.6045
4573,15.708,0.72727,0.1,0.00018774,1876.1,0.00018747,1868.1,-6.1157e-05,0.0037799,-6.3297e-05,-16.074,1.5761
4574,15.524,0.72727,0.1,0.00019231,1921.8,0.00019204,1913.9,-6.2683e-05,0.0037209,-6.4774e-05,-15.703,1.5478
4575,15.339,0.72727,0.1,0.0001969,1967.6,0.00019663,1959.9,-6.4215e-05,0.0036853,-6.6257e-05,-15.338,1.5196
4576,15.155,0.72727,0.1,0.00020151,2013.7,0.00020125,2006.2,-6.5754e-05,0.0036258,-6.7748e-05,-14.977,1.4916
4577,14.971,0.72727,0.1,0.00020613,2059.9,0.00020588,2052.6,-6.7299e-05,0.0035386,-6.9245e-05,-14.619,1.4637
4578,14.787,0.72727,0.1,0.00021078,2106.4,0.00021054,2099.2,-6.885e-05,0.0034725,-7.0749e-05,-14.262,1.4359
4579,14.602,0.72727,0.1,0.00021545,2153,0.00021521,2146,-7.0409e-05,0.0034131,-7.226e-05,-13.905,1.4083
4580,14.418,0.72727,0.1,0.00022014,2199.9,0.0002199,2193.1,-7.1973e-05,0.0033775,-7.3777e-05,-13.545,1.3808
4581,14.234,0.72727,0.1,0.00022485,2246.9,0.00022462,2240.3,-7.3545e-05,0.0033127,-7.53e-05,-13.182,1.3535
4582,14.05,0.72727,0.1,0.00022957,2294.2,0.00022935,2287.7,-7.5124e-05,0.0032163,-7.6829e-05,-12.814,1.3263
4583,13.865,0.72727,0.1,0.00023432,2341.6,0.00023411,2335.4,-7.6709e-05,0.0031429,-7.8365e-05,-12.438,1.2993
4584,13.681,0.72727,0.1,0.00023909,2389.2,0.00023888,2383.2,-7.8301e-05,0.0030739,-7.9906e-05,-12.054,1.2725
4585,13.497,0.72727,0.1,0.00024388,2437.1,0.00024368,2431.2,-7.9901e-05,0.00303,-8.1453e-05,-11.658,1.2458
4586,13.313,0.72727,0.1,0.00024868,2485.1,0.00024849,2479.5,-8.1507e-05,0.0029531,-8.3005e-05,-11.25,1.2192
4587,13.128,0.72727,0.1,0.00025351,2533.3,0.00025332,2527.9,-8.3121e-05,0.0028416,-8.4562e-05,-10.828,1.1929
4588,12.944,0.72727,0.1,0.00025835,2581.8,0.00025818,2576.5,-8.4741e-05,0.0027526,-8.6124e-05,-10.388,1.1667
4589,12.76,0.72727,0.1,0.00026322,2630.4,0.00026305,2625.4,-8.637e-05,0.0026687,-8.7692e-05,-9.9292,1.1407
4590,12.575,0.72727,0.1,0.0002681,2679.2,0.00026794,2674.4,-8.8005e-05,0.0026143,-8.9263e-05,-9.4489,1.1148
4591,12.391,0.72727,0.1,0.00027301,2728.2,0.00027285,2723.7,-8.9649e-05,0.0025243,-9.0839e-05,-8.9448,1.0892
4592,12.207,0.72727,0.1,0.00027793,2777.4,0.00027779,2773.2,-9.1299e-05,0.002398,-9.242e-05,-8.414,1.0637
4593,12.023,0.72727,0.1,0.00028287,2826.8,0.00028274,2822.8,-9.2958e-05,0.0023052,-9.4004e-05,-7.8538,1.0384
4594,11.838,0.72727,0.1,0.00028783,2876.3,0.00028771,2872.7,-9.4624e-05,0.0022249,-9.5591e-05,-7.2611,1.0133
4595,11.654,0.72727,0.1,0.00029281,2926.1,0.0002927,2922.8,-9.6299e-05,0.0021891,-9.7182e-05,-6.6328,0.9884
4596,11.47,0.72727,0.1,0.00029781,2976,0.00029771,2973.1,-9.7981e-05,0.0021365,-9.8776e-05,-5.9655,0.9637
4597,11.286,0.72727,0.1,0.00030283,3026.2,0.00030274,3023.5,-9.9672e-05,0.0020837,-0.00010037,-5.2558,0.9392
4598,11.101,0.72727,0.1,0.00030786,3076.5,0.00030778,3074.2,-0.00010137,0.002134,-0.00010197,-4.4996,0.91491
4599,10.917,0.72727,0.1,0.00031292,3127,0.00031285,3125.1,-0.00010308,0.00233,-0.00010357,-3.6932,0.89082
4600,10.733,0.72727,0.1,0.00031799,3177.7,0.00031794,3176.3,-0.0001048,0.0028575,-0.00010517,-2.8321,0.86694
4601,10.549,0.72727,0.1,0.00032308,3228.5,0.00032304,3227.6,-0.00010652,0.0041442,-0.00010678,-1.9126,0.84328
4602,10.364,0.72727,0.1,0.00032819,3279.6,0.00032817,3279.1,-0.00010825,0.0089515,-0.00010838,-0.93252,0.81984
4603,10.18,0.72727,0.1,0.00033331,3330.8,0.00033331,3330.9,-0.00010997,0.18325,-0.00011001,-0.052492,0.79663
4604,9.9957,0.72727,0.1,0.00033846,3382.2,0.00033848,3382.8,-0.00011158,1.269,-0.00011175,-0.0093294,0.77363
4605,9.8115,0.72727,0.1,0.00034362,3433.8,0.00034366,3435,-0.00011319,2.4749,-0.00011352,-0.0061565,0.75087
4606,9.6272,0.72727,0.1,0.00034879,3485.5,0.00034886,3487.4,-0.00011479,3.7693,-0.00011529,-0.0053189,0.72834
4607,9.4429,0.72727,0.1,0.00035399,3537.5,0.00035408,3540,-0.00011639,5.1565,-0.00011707,-0.0051648,0.70605
4608,9.2587,0.72727,0.1,0.0003592,3589.6,0.00035932,3592.9,-0.00011798,6.6424,-0.00011887,-0.0053193,0.68399
4609,9.0744,0.72727,0.1,0.00036443,3641.8,0.00036457,3645.9,-0.00011957,8.233,-0.00012067,-0.0056607,0.66218
4610,8.8901,0.72727,0.1,0.00036968,3694.2,0.00036985,3699.2,-0.00012116,9.9348,-0.00012249,-0.0061373,0.64062
4611,8.7059,0.72727,0.1,0.00037494,3746.8,0.00037514,3752.7,-0.00012275,11.754,-0.00012431,-0.0067282,0.61931
4612,8.5216,0.72727,0.1,0.00038022,3799.6,0.00038045,3806.4,-0.00012433,13.696,-0.00012615,-0.0074238,0.59825
4613,8.3373,0.72727,0.1,0.00038552,3852.5,0.00038578,3860.4,-0.0001259,15.768,-0.000128,-0.0082234,0.57745
4614,8.1531,0.72727,0.1,0.00039083,3905.6,0.00039113,3914.5,-0.00012747,17.973,-0.00012986,-0.0091314,0.55691
4615,7.9688,0.72727,0.1,0.00039615,3958.8,0.00039649,3968.9,-0.00012903,20.316,-0.00013174,-0.010154,0.53664
4616,7.7845,0.72727,0.1,0.00040149,4012.2,0.00040188,4023.5,-0.00013059,22.799,-0.00013362,-0.011304,0.51663
4617,7.6003,0.72727,0.1,0.00040685,4065.7,0.00040728,4078.4,-0.00013213,25.424,-0.00013552,-0.012594,0.4969
4618,7.416,0.72727,0.1,0.00041222,4119.4,0.00041269,4133.4,-0.00013368,28.188,-0.00013743,-0.014044,0.47745
4619,7.2317,0.72727,0.1,0.00041761,4173.2,0.00041813,4188.6,-0.00013521,31.087,-0.00013935,-0.015675,0.45827
4620,7.0475,0.72727,0.1,0.00042301,4227.1,0.00042357,4244.1,-0.00013674,34.113,-0.00014128,-0.017515,0.43938
4621,6.8632,0.72727,0.1,0.00042841,4281.2,0.00042904,4299.7,-0.00013826,37.251,-0.00014322,-0.019598,0.42077
4622,6.6789,0.72727,0.1,0.00043383,4335.4,0.00043451,4355.4,-0.00013978,40.483,-0.00014517,-0.021967,0.40246
4623,6.4947,0.72727,0.1,0.00043926,4389.6,0.00043999,4411.3,-0.00014129,43.779,-0.00014712,-0.024674,0.38444
4624,6.3104,0.72727,0.1,0.0004447,4443.9,0.00044548,4467.2,-0.00014281,47.105,-0.00014908,-0.027786,0.36672
4625,6.1261,0.72727,0.1,0.00045013,4498.2,0.00045097,4523.2,-0.00014432,50.409,-0.00015104,-0.031389,0.34931
4626,5.9419,0.72727,0.1,0.00045556,4552.5,0.00045645,4579,-0.00014584,53.631,-0.00015299,-0.035596,0.3322
4627,5.7576,0.72727,0.1,0.00046098,4606.6,0.00046192,4634.7,-0.00014738,56.691,-0.00015493,-0.040554,0.3154
4628,5.5733,0.72727,0.1,0.00046638,4660.6,0.00046736,4690,-0.00014892,59.489,-0.00015685,-0.046466,0.29891
4629,5.3891,0.72727,0.1,0.00047174,4714.2,0.00047276,4744.8,-0.00015049,61.904,-0.00015874,-0.053616,0.28274
4630,5.2048,0.72727,0.1,0.00047705,4767.2,0.0004781,4798.7,-0.00015208,63.786,-0.00016058,-0.062411,0.26689
4631,5.0205,0.72727,0.1,0.00048228,4819.5,0.00048335,4851.6,-0.00015371,64.957,-0.00016237,-0.07346,0.25137
4632,4.8363,0.72727,0.1,0.0004874,4870.6,0.00048847,4902.8,-0.00015538,65.203,-0.00016407,-0.087715,0.23617
4633,4.652,0.72727,0.1,0.00049236,4920.2,0.00049342,4952,-0.00015709,64.273,-0.00016566,-0.10674,0.22131
4634,4.4677,0.72727,0.1,0.00049711,4967.6,0.00049813,4998.2,-0.00015886,61.879,-0.00016711,-0.13327,0.20678
4635,4.2835,0.72727,0.1,0.00050156,5012.1,0.00050251,5040.7,-0.00016068,57.691,-0.00016838,-0.17247,0.19259
4636,4.0992,0.72727,0.1,0.00050562,5052.7,0.00050647,5078.1,-0.00016255,51.345,-0.00016941,-0.23529,0.17874
4637,3.9149,0.72727,0.1,0.00050915,5088,0.00050985,5108.9,-0.00016445,42.458,-0.00017015,-0.34873,0.16523
4638,3.7307,0.72727,0.1,0.00051198,5116.2,0.00051248,5131.2,-0.00016636,30.675,-0.00017052,-0.59938,0.15207
4639,3.5464,0.72727,0.1,0.00051388,5135.3,0.00051413,5142.5,-0.00016817,16.005,-0.00017049,-1.4514,0.13926
4640,3.3621,0.72727,0.1,0.00051457,5142.2,0.00051449,5139.7,-0.00016909,3.5478,-0.00017069,-8.4524,0.1268
4641,3.1779,0.72727,0.1,0.00051369,5133.4,0.00051319,5118.9,-0.00016792,1.321,-0.00017209,-30.034,0.11469
4642,2.9936,0.72727,0.1,0.00051078,5104.3,0.00050978,5075.4,-0.00016559,0.92681,-0.00017345,-58.143,0.10292
4643,2.8093,0.72727,0.1,0.00050529,5049.4,0.00050368,5003.4,-0.00016212,0.82086,-0.00017441,-91.471,0.091507
4644,2.6251,0.72727,0.1,0.00049654,4962,0.00049421,4896.1,-0.00015731,0.82388,-0.00017471,-129.94,0.080431
4645,2.4408,0.72727,0.1,0.00048376,4834.2,0.00048058,4745.6,-0.00015089,0.8955,-0.0001741,-173.51,0.069689
4646,2.2565,0.72727,0.1,0.00046611,4657.9,0.00046195,4543.3,-0.00014259,1.0313,-0.0001723,-222.22,0.059272
4647,2.0723,0.72727,0.1,0.00044285,4425.4,0.00043751,4281.2,-0.00013212,1.2247,-0.0001691,-276.6,0.049164
4648,1.888,0.72727,0.1,0.0004136,4133.1,0.0004068,3953.9,-0.00011922,1.5286,-0.00016453,-338.92,0.039346
4649,1.7037,0.72727,0.1,0.00037907,3788.1,0.00037029,3563.7,-0.00010377,1.778,-0.00015936,-415.9,0.029794
4650,1.5195,0.72727,0.1,0.00034228,3420.4,0.00033036,3129.4,-8.5774e-05,2.7445,-0.00015584,-523.67,0.020481
4651,1.3352,0.72727,0.1,0.00031118,3109.7,0.00029324,2699,-6.5878e-05,0.71341,-0.00015939,-701.89,0.011414
4652,1.1509,0.72727,0.1,0.00031206,3118.4,0.00027899,2433.2,-4.3513e-05,10.086,-0.00018926,-1085,0.0032428
4653,23.816,0.90909,0.1,1.3384e-05,133.75,7.5905e-06,39.726,2.2936e-06,-0.072607,-1.2257e-05,-109.4,2.9044
4654,23.631,0.90909,0.1,1.5317e-05,153.07,1.0966e-05,76.608,7.3568e-07,-0.2551,-1.2494e-05,-99.659,2.8733
4655,23.447,0.90909,0.1,1.7802e-05,177.9,1.4403e-05,113.81,-7.5637e-07,-0.088345,-1.288e-05,-91.178,2.8422
4656,23.263,0.90909,0.1,2.0659e-05,206.45,1.791e-05,151.25,-2.2304e-06,-0.076533,-1.3392e-05,-83.937,2.8111
4657,23.079,0.90909,0.1,2.3777e-05,237.61,2.1482e-05,189.01,-3.6802e-06,-0.049449,-1.4017e-05,-77.713,2.78
4658,22.894,0.90909,0.1,2.7082e-05,270.64,2.5116e-05,227.1,-5.1144e-06,-0.037312,-1.4737e-05,-72.341,2.7489
4659,22.71,0.90909,0.1,3.0524e-05,305.03,2.8805e-05,265.52,-6.5367e-06,-0.027528,-1.5537e-05,-67.655,2.7179
4660,22.526,0.90909,0.1,3.4069e-05,340.46,3.2541e-05,304.21,-7.9504e-06,-0.020919,-1.6402e-05,-63.524,2.6869
4661,22.342,0.90909,0.1,3.7694e-05,376.68,3.6317e-05,343.17,-9.3578e-06,-0.015985,-1.732e-05,-59.842,2.6558
4662,22.157,0.90909,0.1,4.1381e-05,413.52,4.0128e-05,382.35,-1.0761e-05,-0.012309,-1.8283e-05,-56.529,2.6249
4663,21.973,0.90909,0.1,4.512e-05,450.89,4.397e-05,421.73,-1.216e-05,-0.0095035,-1.9283e-05,-53.525,2.5939
4664,21.789,0.90909,0.1,4.8902e-05,488.68,4.784e-05,461.31,-1.3557e-05,-0.0073371,-2.0315e-05,-50.781,2.563
4665,21.605,0.90909,0.1,5.2722e-05,526.86,5.1735e-05,501.07,-1.4953e-05,-0.0056548,-2.1376e-05,-48.262,2.5321
4666,21.42,0.90909,0.1,5.6576e-05,565.37,5.5654e-05,541,-1.6349e-05,-0.0043362,-2.2462e-05,-45.938,2.5012
4667,21.236,0.90909,0.1,6.046e-05,604.18,5.9596e-05,581.1,-1.7744e-05,-0.0032761,-2.3571e-05,-43.786,2.4704
4668,21.052,0.90909,0.1,6.4372e-05,643.28,6.3559e-05,621.36,-1.914e-05,-0.0024295,-2.4701e-05,-41.787,2.4396
4669,20.867,0.90909,0.1,6.8311e-05,682.64,6.7544e-05,661.8,-2.0536e-05,-0.0017347,-2.585e-05,-39.927,2.4089
4670,20.683,0.90909,0.1,7.2275e-05,722.25,7.1549e-05,702.4,-2.1934e-05,-0.0011761,-2.7017e-05,-38.193,2.3782
4671,20.499,0.90909,0.1,7.6263e-05,762.11,7.5575e-05,743.16,-2.3334e-05,-0.00072805,-2.8201e-05,-36.573,2.3475
4672,20.315,0.90909,0.1,8.0275e-05,802.2,7.9622e-05,784.1,-2.4735e-05,-0.00035348,-2.9401e-05,-35.058,2.3169
4673,20.13,0.90909,0.1,8.4311e-05,842.52,8.3688e-05,825.2,-2.614e-05,-4.1098e-05,-3.0617e-05,-33.639,2.2864
4674,19.946,0.90909,0.1,8.8369e-05,883.08,8.7774e-05,866.48,-2.7546e-05,0.00023421,-3.1847e-05,-32.31,2.2559
4675,19.762,0.90909,0.1,9.2449e-05,923.85,9.1881e-05,907.93,-2.8956e-05,0.00045169,-3.3091e-05,-31.064,2.2254
4676,19.578,0.90909,0.1,9.6551e-05,964.85,9.6008e-05,949.55,-3.037e-05,0.00062313,-3.4348e-05,-29.895,2.1951
4677,19.393,0.90909,0.1,0.00010068,1006.1,0.00010015,991.36,-3.1786e-05,0.00077729,-3.5619e-05,-28.797,2.1648
4678,19.209,0.90909,0.1,0.00010482,1047.5,0.00010432,1033.3,-3.3207e-05,0.00091104,-3.6902e-05,-27.765,2.1345
4679,19.025,0.90909,0.1,0.00010899,1089.1,0.00010851,1075.5,-3.4631e-05,0.0010403,-3.8197e-05,-26.795,2.1044
4680,18.841,0.90909,0.1,0.00011318,1131,0.00011272,1117.9,-3.606e-05,0.0011406,-3.9505e-05,-25.882,2.0743
4681,18.656,0.90909,0.1,0.00011739,1173.1,0.00011694,1160.4,-3.7493e-05,0.0012108,-4.0823e-05,-25.022,2.0442
4682,18.472,0.90909,0.1,0.00012162,1215.4,0.00012119,1203.1,-3.893e-05,0.0012796,-4.2153e-05,-24.211,2.0143
4683,18.288,0.90909,0.1,0.00012588,1257.9,0.00012546,1246,-4.0372e-05,0.0013441,-4.3493e-05,-23.447,1.9844
4684,18.103,0.90909,0.1,0.00013015,1300.6,0.00012975,1289.1,-4.1819e-05,0.0014162,-4.4844e-05,-22.724,1.9546
4685,17.919,0.90909,0.1,0.00013445,1343.6,0.00013406,1332.4,-4.3271e-05,0.0014638,-4.6205e-05,-22.041,1.925
4686,17.735,0.90909,0.1,0.00013877,1386.7,0.00013839,1375.9,-4.4729e-05,0.0014905,-4.7576e-05,-21.394,1.8954
4687,17.551,0.90909,0.1,0.0001431,1430,0.00014274,1419.5,-4.6191e-05,0.0015262,-4.8957e-05,-20.78,1.8659
4688,17.366,0.90909,0.1,0.00014746,1473.6,0.00014711,1463.4,-4.7659e-05,0.0015597,-5.0347e-05,-20.196,1.8364
4689,17.182,0.90909,0.1,0.00015184,1517.4,0.0001515,1507.5,-4.9132e-05,0.001606,-5.1746e-05,-19.64,1.8071
4690,16.998,0.90909,0.1,0.00015624,1561.4,0.00015591,1551.7,-5.0611e-05,0.0016308,-5.3155e-05,-19.11,1.7779
4691,16.814,0.90909,0.1,0.00016067,1605.6,0.00016034,1596.2,-5.2096e-05,0.0016339,-5.4572e-05,-18.603,1.7488
4692,16.629,0.90909,0.1,0.00016511,1650,0.00016479,1640.8,-5.3586e-05,0.0016495,-5.5997e-05,-18.116,1.7198
4693,16.445,0.90909,0.1,0.00016957,1694.6,0.00016927,1685.7,-5.5082e-05,0.0016703,-5.7431e-05,-17.648,1.6909
4694,16.261,0.90909,0.1,0.00017406,1739.4,0.00017376,1730.7,-5.6584e-05,0.0017068,-5.8873e-05,-17.197,1.6622
4695,16.077,0.90909,0.1,0.00017856,1784.4,0.00017827,1775.9,-5.8093e-05,0.0017195,-6.0323e-05,-16.759,1.6335
4696,15.892,0.90909,0.1,0.00018309,1829.6,0.0001828,1821.4,-5.9607e-05,0.0017072,-6.1781e-05,-16.334,1.605
4697,15.708,0.90909,0.1,0.00018763,1875,0.00018735,1867,-6.1128e-05,0.0017117,-6.3247e-05,-15.919,1.5766
4698,15.524,0.90909,0.1,0.0001922,1920.6,0.00019193,1912.8,-6.2655e-05,0.001721,-6.4719e-05,-15.513,1.5483
4699,15.339,0.90909,0.1,0.00019678,1966.5,0.00019652,1958.9,-6.4188e-05,0.0017522,-6.6199e-05,-15.113,1.5201
4700,15.155,0.90909,0.1,0.00020139,2012.5,0.00020113,2005.1,-6.5728e-05,0.0017579,-6.7686e-05,-14.717,1.4921
4701,14.971,0.90909,0.1,0.00020601,2058.7,0.00020577,2051.5,-6.7274e-05,0.0017343,-6.918e-05,-14.324,1.4642
4702,14.787,0.90909,0.1,0.00021066,2105.1,0.00021042,2098.1,-6.8826e-05,0.0017343,-7.0681e-05,-13.932,1.4365
4703,14.602,0.90909,0.1,0.00021533,2151.8,0.00021509,2145,-7.0386e-05,0.0017374,-7.2188e-05,-13.539,1.4089
4704,14.418,0.90909,0.1,0.00022001,2198.6,0.00021979,2192,-7.1952e-05,0.001766,-7.3701e-05,-13.143,1.3814
4705,14.234,0.90909,0.1,0.00022472,2245.6,0.0002245,2239.2,-7.3525e-05,0.0017675,-7.5221e-05,-12.742,1.3541
4706,14.05,0.90909,0.1,0.00022944,2292.8,0.00022923,2286.7,-7.5104e-05,0.0017377,-7.6746e-05,-12.333,1.3269
4707,13.865,0.90909,0.1,0.00023419,2340.3,0.00023398,2334.3,-7.6691e-05,0.0017347,-7.8277e-05,-11.916,1.2999
4708,13.681,0.90909,0.1,0.00023895,2387.9,0.00023876,2382.1,-7.8285e-05,0.0017378,-7.9814e-05,-11.487,1.2731
4709,13.497,0.90909,0.1,0.00024374,2435.7,0.00024355,2430.1,-7.9885e-05,0.001771,-8.1355e-05,-11.045,1.2464
4710,13.313,0.90909,0.1,0.00024854,2483.7,0.00024836,2478.4,-8.1493e-05,0.0017753,-8.2902e-05,-10.587,1.2199
4711,13.128,0.90909,0.1,0.00025336,2531.9,0.00025319,2526.8,-8.3108e-05,0.0017515,-8.4454e-05,-10.11,1.1935
4712,12.944,0.90909,0.1,0.0002582,2580.3,0.00025804,2575.4,-8.4731e-05,0.0017597,-8.601e-05,-9.6128,1.1673
4713,12.76,0.90909,0.1,0.00026306,2628.8,0.00026291,2624.3,-8.636e-05,0.0017808,-8.7571e-05,-9.0919,1.1413
4714,12.575,0.90909,0.1,0.00026794,2677.6,0.0002678,2673.3,-8.7998e-05,0.0018461,-8.9135e-05,-8.5445,1.1155
4715,12.391,0.90909,0.1,0.00027284,2726.5,0.00027271,2722.6,-8.9643e-05,0.0018892,-9.0704e-05,-7.9677,1.0899
4716,12.207,0.90909,0.1,0.00027776,2775.7,0.00027763,2772,-9.1296e-05,0.0019196,-9.2275e-05,-7.3584,1.0644
4717,12.023,0.90909,0.1,0.0002827,2825,0.00028258,2821.6,-9.2956e-05,0.0020143,-9.385e-05,-6.713,1.0391
4718,11.838,0.90909,0.1,0.00028765,2874.5,0.00028755,2871.5,-9.4625e-05,0.0021652,-9.5428e-05,-6.0281,1.0141
4719,11.654,0.90909,0.1,0.00029262,2924.2,0.00029253,2921.5,-9.6302e-05,0.0024282,-9.7008e-05,-5.2996,0.98916
4720,11.47,0.90909,0.1,0.00029761,2974.1,0.00029753,2971.8,-9.7987e-05,0.0027868,-9.859e-05,-4.5238,0.96448
4721,11.286,0.90909,0.1,0.00030262,3024.1,0.00030256,3022.2,-9.9681e-05,0.003352,-0.00010017,-3.6963,0.93999
4722,11.101,0.90909,0.1,0.00030764,3074.3,0.0003076,3072.9,-0.00010138,0.0044662,-0.00010176,-2.8126,0.9157
4723,10.917,0.90909,0.1,0.00031269,3124.7,0.00031266,3123.8,-0.00010309,0.0069878,-0.00010334,-1.8688,0.89163
4724,10.733,0.90909,0.1,0.00031775,3175.3,0.00031773,3174.9,-0.00010481,0.016133,-0.00010493,-0.86466,0.86777
4725,10.549,0.90909,0.1,0.00032282,3226,0.00032283,3226.1,-0.00010651,0.28964,-0.00010655,-0.052542,0.84412
4726,10.364,0.90909,0.1,0.00032792,3276.9,0.00032794,3277.6,-0.00010809,1.4131,-0.00010828,-0.0121,0.82069
4727,10.18,0.90909,0.1,0.00033303,3328,0.00033307,3329.3,-0.00010968,2.6572,-0.00011003,-0.007388,0.79748
4728,9.9957,0.90909,0.1,0.00033816,3379.2,0.00033822,3381.2,-0.00011126,3.9956,-0.00011179,-0.0057606,0.7745
4729,9.8115,0.90909,0.1,0.0003433,3430.6,0.00034339,3433.3,-0.00011283,5.4333,-0.00011356,-0.0050484,0.75175
4730,9.6272,0.90909,0.1,0.00034846,3482.2,0.00034858,3485.6,-0.00011441,6.9771,-0.00011534,-0.0047348,0.72923
4731,9.4429,0.90909,0.1,0.00035363,3533.9,0.00035378,3538.2,-0.00011598,8.6344,-0.00011713,-0.0046572,0.70695
4732,9.2587,0.90909,0.1,0.00035882,3585.7,0.000359,3590.9,-0.00011754,10.413,-0.00011893,-0.0047257,0.68491
4733,9.0744,0.90909,0.1,0.00036402,3637.7,0.00036423,3643.9,-0.0001191,12.322,-0.00012074,-0.0049052,0.66311
4734,8.8901,0.90909,0.1,0.00036924,3689.9,0.00036949,3697.1,-0.00012065,14.368,-0.00012256,-0.0051761,0.64156
4735,8.7059,0.90909,0.1,0.00037448,3742.2,0.00037476,3750.4,-0.00012219,16.56,-0.0001244,-0.0055319,0.62026
4736,8.5216,0.90909,0.1,0.00037972,3794.6,0.00038004,3804,-0.00012373,18.907,-0.00012624,-0.0059668,0.59921
4737,8.3373,0.90909,0.1,0.00038499,3847.2,0.00038534,3857.9,-0.00012525,21.417,-0.00012811,-0.0064861,0.57842
4738,8.1531,0.90909,0.1,0.00039026,3899.9,0.00039066,3911.9,-0.00012677,24.096,-0.00012998,-0.0070938,0.55789
4739,7.9688,0.90909,0.1,0.00039555,3952.7,0.000396,3966.1,-0.00012828,26.952,-0.00013186,-0.0077984,0.53763
4740,7.7845,0.90909,0.1,0.00040085,4005.7,0.00040135,4020.6,-0.00012977,29.991,-0.00013376,-0.0086122,0.51763
4741,7.6003,0.90909,0.1,0.00040616,4058.8,0.00040671,4075.3,-0.00013125,33.215,-0.00013568,-0.0095512,0.49791
4742,7.416,0.90909,0.1,0.00041148,4112,0.00041209,4130.2,-0.00013272,36.626,-0.0001376,-0.010635,0.47847
4743,7.2317,0.90909,0.1,0.00041682,4165.3,0.00041749,4185.3,-0.00013418,40.224,-0.00013954,-0.011888,0.4593
4744,7.0475,0.90909,0.1,0.00042216,4218.7,0.0004229,4240.6,-0.00013563,44.002,-0.00014149,-0.013342,0.44042
4745,6.8632,0.90909,0.1,0.00042752,4272.3,0.00042832,4296,-0.00013707,47.95,-0.00014345,-0.015037,0.42182
4746,6.6789,0.90909,0.1,0.00043289,4325.9,0.00043375,4351.7,-0.00013849,52.052,-0.00014542,-0.01702,0.40351
4747,6.4947,0.90909,0.1,0.00043826,4379.6,0.00043919,4407.4,-0.00013991,56.283,-0.00014741,-0.019356,0.3855
4748,6.3104,0.90909,0.1,0.00044364,4433.4,0.00044464,4463.3,-0.00014133,60.609,-0.0001494,-0.022123,0.36779
4749,6.1261,0.90909,0.1,0.00044903,4487.2,0.0004501,4519.3,-0.00014274,64.983,-0.00015139,-0.025425,0.35038
4750,5.9419,0.90909,0.1,0.00045441,4541,0.00045555,4575.2,-0.00014415,69.346,-0.00015338,-0.029394,0.33328
4751,5.7576,0.90909,0.1,0.00045979,4594.8,0.000461,4631.1,-0.00014556,73.619,-0.00015537,-0.034208,0.31648
4752,5.5733,0.90909,0.1,0.00046516,4648.4,0.00046644,4686.8,-0.00014699,77.704,-0.00015734,-0.040104,0.3
4753,5.3891,0.90909,0.1,0.00047052,4701.9,0.00047185,4742.1,-0.00014844,81.478,-0.00015929,-0.047409,0.28383
4754,5.2048,0.90909,0.1,0.00047584,4755.1,0.00047722,4796.9,-0.00014992,84.789,-0.00016121,-0.056576,0.26798
4755,5.0205,0.90909,0.1,0.00048111,4807.8,0.00048254,4850.9,-0.00015144,87.453,-0.00016309,-0.068264,0.25246
4756,4.8363,0.90909,0.1,0.00048632,4859.8,0.00048777,4903.8,-0.000153,89.249,-0.00016489,-0.083446,0.23727
4757,4.652,0.90909,0.1,0.00049142,4910.8,0.00049288,4955.1,-0.00015463,89.915,-0.00016661,-0.10362,0.22241
4758,4.4677,0.90909,0.1,0.00049637,4960.3,0.00049783,5004.2,-0.00015633,89.144,-0.00016821,-0.13121,0.20788
4759,4.2835,0.90909,0.1,0.00050113,5007.8,0.00050254,5050.5,-0.00015811,86.579,-0.00016966,-0.17031,0.19369
4760,4.0992,0.90909,0.1,0.0005056,5052.6,0.00050694,5092.8,-0.00015999,81.818,-0.0001709,-0.22837,0.17984
4761,3.9149,0.90909,0.1,0.0005097,5093.5,0.00051092,5130.1,-0.00016195,74.408,-0.0001719,-0.32024,0.16634
4762,3.7307,0.90909,0.1,0.00051328,5129.3,0.00051433,5160.7,-0.00016401,63.863,-0.00017258,-0.47949,0.15318
4763,3.5464,0.90909,0.1,0.00051618,5158.3,0.000517,5182.5,-0.00016614,49.701,-0.00017286,-0.79912,0.14037
4764,3.3621,0.90909,0.1,0.00051817,5178.1,0.00051867,5193.1,-0.00016827,31.656,-0.0001727,-1.6448,0.12792
4765,3.1779,0.90909,0.1,0.00051897,5186.1,0.00051907,5189.1,-0.00016998,11.849,-0.00017233,-5.832,0.11581
4766,2.9936,0.90909,0.1,0.00051821,5178.5,0.00051779,5166.5,-0.00016937,3.4088,-0.00017345,-27.269,0.10406
4767,2.8093,0.90909,0.1,0.00051545,5151,0.00051439,5120.4,-0.00016682,2.0287,-0.00017542,-62.558,0.09266
4768,2.6251,0.90909,0.1,0.00051018,5098.3,0.00050831,5044.9,-0.0001629,1.6494,-0.00017733,-106.78,0.081609
4769,2.4408,0.90909,0.1,0.00050178,5014.3,0.00049887,4932.8,-0.00015743,1.5471,-0.00017903,-160.78,0.070902
4770,2.2565,0.90909,0.1,0.00048962,4892.9,0.00048539,4776.3,-0.00015008,1.5828,-0.00018047,-226.79,0.060531
4771,2.0723,0.90909,0.1,0.00047319,4728.6,0.0004672,4567.5,-0.00014047,1.7004,-0.00018177,-308.65,0.050484
4772,1.888,0.90909,0.1,0.00045233,4520.2,0.00044391,4300.4,-0.00012818,1.9404,-0.0001834,-412.99,0.040745
4773,1.7037,0.90909,0.1,0.00042794,4276.5,0.0004159,3974.9,-0.00011285,2.0476,-0.00018651,-551.42,0.03129
4774,1.5195,0.90909,0.1,0.00040292,4026.4,0.00038512,3604.4,-9.4215e-05,2.8182,-0.00019345,-742.78,0.022093
4775,1.3352,0.90909,0.1,0.00038437,3841,0.0003566,3226.1,-7.2736e-05,0.17716,-0.0002089,-1022.9,0.01314
4776,1.1509,0.90909,0.1,0.0004,3997.3,0.00035114,3006.8,-4.771e-05,10.03,-0.0002529,-1531.7,0.0046876
4777,23.816,1.0909,0.1,1.4625e-05,146.15,8.0251e-06,39.864,2.7055e-06,-0.10553,-1.3533e-05,-122.11,2.9045
4778,23.631,1.0909,0.1,1.65e-05,164.88,1.1441e-05,77.236,1.1245e-06,-0.27546,-1.3761e-05,-112.12,2.8734
4779,23.447,1.0909,0.1,1.8894e-05,188.81,1.4896e-05,114.8,-3.9601e-07,-0.10369,-1.4106e-05,-103.12,2.8423
4780,23.263,1.0909,0.1,2.1649e-05,216.34,1.8399e-05,152.43,-1.8998e-06,-0.090424,-1.4554e-05,-95.172,2.8112
4781,23.079,1.0909,0.1,2.4662e-05,246.45,2.1951e-05,190.25,-3.3782e-06,-0.062022,-1.5101e-05,-88.14,2.7801
4782,22.894,1.0909,0.1,2.7867e-05,278.48,2.5554e-05,228.31,-4.839e-06,-0.048921,-1.5736e-05,-81.928,2.7491
4783,22.71,1.0909,0.1,3.1217e-05,311.95,2.9206e-05,266.63,-6.2852e-06,-0.038269,-1.6451e-05,-76.417,2.718
4784,22.526,1.0909,0.1,3.4678e-05,346.54,3.2903e-05,305.2,-7.7205e-06,-0.030875,-1.7233e-05,-71.502,2.687
4785,22.342,1.0909,0.1,3.8227e-05,382.01,3.6641e-05,344.01,-9.1471e-06,-0.025212,-1.8073e-05,-67.09,2.656
4786,22.157,1.0909,0.1,4.1847e-05,418.18,4.0415e-05,383.04,-1.0567e-05,-0.020877,-1.8963e-05,-63.105,2.625
4787,21.973,1.0909,0.1,4.5526e-05,454.95,4.4221e-05,422.27,-1.1982e-05,-0.017471,-1.9897e-05,-59.486,2.5941
4788,21.789,1.0909,0.1,4.9255e-05,492.22,4.8058e-05,461.71,-1.3393e-05,-0.014757,-2.0868e-05,-56.181,2.5631
4789,21.605,1.0909,0.1,5.3028e-05,529.92,5.1923e-05,501.33,-1.4801e-05,-0.012576,-2.1874e-05,-53.151,2.5323
4790,21.42,1.0909,0.1,5.6839e-05,568,5.5815e-05,541.14,-1.6208e-05,-0.010801,-2.2909e-05,-50.362,2.5014
4791,21.236,1.0909,0.1,6.0685e-05,606.43,5.9731e-05,581.12,-1.7613e-05,-0.009335,-2.3972e-05,-47.788,2.4706
4792,21.052,1.0909,0.1,6.4563e-05,645.19,6.3671e-05,621.28,-1.9018e-05,-0.0081109,-2.506e-05,-45.405,2.4398
4793,20.867,1.0909,0.1,6.8472e-05,684.24,6.7634e-05,661.62,-2.0423e-05,-0.0070785,-2.6171e-05,-43.196,2.4091
4794,20.683,1.0909,0.1,7.2408e-05,723.58,7.162e-05,702.13,-2.1828e-05,-0.0062106,-2.7303e-05,-41.143,2.3784
4795,20.499,1.0909,0.1,7.6372e-05,763.19,7.5628e-05,742.81,-2.3235e-05,-0.0054796,-2.8456e-05,-39.233,2.3477
4796,20.315,1.0909,0.1,8.0361e-05,803.06,7.9658e-05,783.67,-2.4643e-05,-0.0048444,-2.9627e-05,-37.454,2.3171
4797,20.13,1.0909,0.1,8.4376e-05,843.18,8.371e-05,824.71,-2.6053e-05,-0.0042934,-3.0816e-05,-35.795,2.2866
4798,19.946,1.0909,0.1,8.8416e-05,883.55,8.7784e-05,865.93,-2.7465e-05,-0.003804,-3.2022e-05,-34.246,2.2561
4799,19.762,1.0909,0.1,9.248e-05,924.16,9.1878e-05,907.32,-2.888e-05,-0.0033836,-3.3245e-05,-32.8,2.2257
4800,19.578,1.0909,0.1,9.6568e-05,965.01,9.5994e-05,948.9,-3.0297e-05,-0.003023,-3.4482e-05,-31.449,2.1953
4801,19.393,1.0909,0.1,0.00010068,1006.1,0.00010013,990.66,-3.1718e-05,-0.002696,-3.5735e-05,-30.184,2.165
4802,19.209,1.0909,0.1,0.00010481,1047.4,0.00010429,1032.6,-3.3142e-05,-0.0024023,-3.7001e-05,-29,2.1348
4803,19.025,1.0909,0.1,0.00010897,1089,0.00010847,1074.7,-3.457e-05,-0.0021278,-3.8282e-05,-27.892,2.1046
4804,18.841,1.0909,0.1,0.00011315,1130.7,0.00011267,1117.1,-3.6002e-05,-0.0018936,-3.9575e-05,-26.852,2.0745
4805,18.656,1.0909,0.1,0.00011735,1172.7,0.00011689,1159.6,-3.7438e-05,-0.0016966,-4.0881e-05,-25.877,2.0445
4806,18.472,1.0909,0.1,0.00012158,1214.9,0.00012113,1202.3,-3.8878e-05,-0.0015058,-4.22e-05,-24.961,2.0146
4807,18.288,1.0909,0.1,0.00012582,1257.4,0.0001254,1245.1,-4.0323e-05,-0.0013314,-4.353e-05,-24.099,1.9847
4808,18.103,1.0909,0.1,0.00013009,1300,0.00012968,1288.2,-4.1772e-05,-0.0011562,-4.4871e-05,-23.289,1.955
4809,17.919,1.0909,0.1,0.00013438,1342.9,0.00013399,1331.5,-4.3226e-05,-0.0010136,-4.6224e-05,-22.524,1.9253
4810,17.735,1.0909,0.1,0.0001387,1386,0.00013831,1375,-4.4685e-05,-0.00089781,-4.7587e-05,-21.803,1.8957
4811,17.551,1.0909,0.1,0.00014303,1429.3,0.00014266,1418.6,-4.615e-05,-0.00077777,-4.8961e-05,-21.121,1.8662
4812,17.366,1.0909,0.1,0.00014738,1472.8,0.00014703,1462.5,-4.7619e-05,-0.00066494,-5.0344e-05,-20.475,1.8368
4813,17.182,1.0909,0.1,0.00015176,1516.6,0.00015141,1506.5,-4.9094e-05,-0.00054053,-5.1737e-05,-19.861,1.8075
4814,16.998,1.0909,0.1,0.00015616,1560.5,0.00015582,1550.8,-5.0575e-05,-0.00044631,-5.314e-05,-19.277,1.7783
4815,16.814,1.0909,0.1,0.00016058,1604.7,0.00016025,1595.2,-5.2061e-05,-0.00037843,-5.4552e-05,-18.72,1.7492
4816,16.629,1.0909,0.1,0.00016502,1649,0.0001647,1639.9,-5.3552e-05,-0.00029745,-5.5973e-05,-18.187,1.7202
4817,16.445,1.0909,0.1,0.00016948,1693.6,0.00016917,1684.7,-5.505e-05,-0.0002199,-5.7402e-05,-17.675,1.6913
4818,16.261,1.0909,0.1,0.00017396,1738.4,0.00017366,1729.7,-5.6554e-05,-0.00012701,-5.884e-05,-17.182,1.6626
4819,16.077,1.0909,0.1,0.00017846,1783.4,0.00017817,1775,-5.8063e-05,-6.0366e-05,-6.0286e-05,-16.706,1.6339
4820,15.892,1.0909,0.1,0.00018298,1828.6,0.0001827,1820.4,-5.9579e-05,-2.0692e-05,-6.1741e-05,-16.244,1.6054
4821,15.708,1.0909,0.1,0.00018753,1874,0.00018725,1866,-6.11e-05,3.5296e-05,-6.3202e-05,-15.793,1.577
4822,15.524,1.0909,0.1,0.00019209,1919.6,0.00019183,1911.9,-6.2628e-05,9.4175e-05,-6.4672e-05,-15.352,1.5487
4823,15.339,1.0909,0.1,0.00019668,1965.4,0.00019642,1957.9,-6.4163e-05,0.00017387,-6.6148e-05,-14.917,1.5206
4824,15.155,1.0909,0.1,0.00020128,2011.4,0.00020103,2004.1,-6.5703e-05,0.00022549,-6.7632e-05,-14.488,1.4926
4825,14.971,1.0909,0.1,0.0002059,2057.6,0.00020566,2050.6,-6.7251e-05,0.00024936,-6.9122e-05,-14.062,1.4647
4826,14.787,1.0909,0.1,0.00021055,2104,0.00021031,2097.2,-6.8804e-05,0.00029543,-7.0619e-05,-13.636,1.437
4827,14.602,1.0909,0.1,0.00021521,2150.6,0.00021498,2144,-7.0365e-05,0.00034519,-7.2123e-05,-13.208,1.4094
4828,14.418,1.0909,0.1,0.0002199,2197.4,0.00021968,2191,-7.1932e-05,0.00042033,-7.3632e-05,-12.776,1.3819
4829,14.234,1.0909,0.1,0.0002246,2244.5,0.00022439,2238.3,-7.3506e-05,0.00046773,-7.5148e-05,-12.338,1.3546
4830,14.05,1.0909,0.1,0.00022932,2291.7,0.00022912,2285.7,-7.5087e-05,0.00048885,-7.667e-05,-11.891,1.3275
4831,13.865,1.0909,0.1,0.00023407,2339,0.00023387,2333.3,-7.6675e-05,0.00053585,-7.8196e-05,-11.434,1.3005
4832,13.681,1.0909,0.1,0.00023883,2386.6,0.00023864,2381.1,-7.8269e-05,0.00059371,-7.9729e-05,-10.962,1.2737
4833,13.497,1.0909,0.1,0.00024361,2434.4,0.00024343,2429.2,-7.9871e-05,0.00068357,-8.1266e-05,-10.475,1.247
4834,13.313,1.0909,0.1,0.00024841,2482.4,0.00024824,2477.4,-8.1481e-05,0.00074975,-8.2807e-05,-9.9687,1.2205
4835,13.128,1.0909,0.1,0.00025323,2530.5,0.00025307,2525.8,-8.3097e-05,0.00079281,-8.4354e-05,-9.4409,1.1941
4836,12.944,1.0909,0.1,0.00025807,2578.9,0.00025791,2574.4,-8.4721e-05,0.00087855,-8.5904e-05,-8.8884,1.168
4837,12.76,1.0909,0.1,0.00026292,2627.4,0.00026278,2623.2,-8.6352e-05,0.00098774,-8.7458e-05,-8.3082,1.142
4838,12.575,1.0909,0.1,0.0002678,2676.1,0.00026767,2672.3,-8.7992e-05,0.0011524,-8.9016e-05,-7.6969,1.1162
4839,12.391,1.0909,0.1,0.00027269,2725,0.00027257,2721.5,-8.9638e-05,0.0013216,-9.0577e-05,-7.051,1.0905
4840,12.207,1.0909,0.1,0.0002776,2774.1,0.00027749,2770.9,-9.1293e-05,0.0015085,-9.2141e-05,-6.367,1.0651
4841,12.023,1.0909,0.1,0.00028253,2823.4,0.00028244,2820.5,-9.2956e-05,0.0018064,-9.3707e-05,-5.6407,1.0398
4842,11.838,1.0909,0.1,0.00028748,2872.8,0.0002874,2870.4,-9.4627e-05,0.0022469,-9.5275e-05,-4.8681,1.0147
4843,11.654,1.0909,0.1,0.00029244,2922.4,0.00029237,2920.4,-9.6306e-05,0.002956,-9.6844e-05,-4.0447,0.98986
4844,11.47,1.0909,0.1,0.00029743,2972.2,0.00029737,2970.6,-9.7993e-05,0.0040922,-9.8415e-05,-3.166,0.96519
4845,11.286,1.0909,0.1,0.00030242,3022.2,0.00030239,3021,-9.9689e-05,0.0063193,-9.9987e-05,-2.2277,0.94071
4846,11.101,1.0909,0.1,0.00030744,3072.3,0.00030742,3071.7,-0.00010139,0.012688,-0.00010156,-1.2271,0.91644
4847,10.917,1.0909,0.1,0.00031247,3122.6,0.00031247,3122.5,-0.0001031,0.080536,-0.00010314,-0.2158,0.89237
4848,10.733,1.0909,0.1,0.00031752,3173,0.00031754,3173.5,-0.00010469,1.0411,-0.00010484,-0.018747,0.86852
4849,10.549,1.0909,0.1,0.00032259,3223.6,0.00032262,3224.8,-0.00010626,2.2746,-0.00010657,-0.0097167,0.84488
4850,10.364,1.0909,0.1,0.00032767,3274.4,0.00032773,3276.2,-0.00010783,3.6063,-0.00010831,-0.0070332,0.82147
4851,10.18,1.0909,0.1,0.00033276,3325.3,0.00033285,3327.8,-0.00010939,5.0392,-0.00011006,-0.0057845,0.79827
4852,9.9957,1.0909,0.1,0.00033787,3376.4,0.00033798,3379.7,-0.00011095,6.5801,-0.00011182,-0.0051313,0.7753
4853,9.8115,1.0909,0.1,0.000343,3427.6,0.00034314,3431.7,-0.0001125,8.2372,-0.0001136,-0.004777,0.75256
4854,9.6272,1.0909,0.1,0.00034814,3479,0.00034831,3484,-0.00011405,10.019,-0.00011538,-0.0045937,0.73005
4855,9.4429,1.0909,0.1,0.00035329,3530.5,0.00035349,3536.4,-0.00011559,11.936,-0.00011718,-0.0045385,0.70778
4856,9.2587,1.0909,0.1,0.00035846,3582.1,0.00035869,3589.1,-0.00011712,13.996,-0.00011898,-0.0045727,0.68575
4857,9.0744,1.0909,0.1,0.00036364,3633.9,0.00036391,3642,-0.00011865,16.21,-0.0001208,-0.0046824,0.66396
4858,8.8901,1.0909,0.1,0.00036883,3685.8,0.00036914,3695,-0.00012016,18.589,-0.00012263,-0.0048584,0.64242
4859,8.7059,1.0909,0.1,0.00037404,3737.8,0.00037439,3748.3,-0.00012166,21.143,-0.00012448,-0.0050984,0.62113
4860,8.5216,1.0909,0.1,0.00037925,3789.9,0.00037965,3801.8,-0.00012316,23.884,-0.00012633,-0.0054036,0.60009
4861,8.3373,1.0909,0.1,0.00038448,3842.1,0.00038493,3855.5,-0.00012463,26.821,-0.00012821,-0.0057762,0.57931
4862,8.1531,1.0909,0.1,0.00038972,3894.5,0.00039022,3909.4,-0.0001261,29.965,-0.00013009,-0.0062235,0.55879
4863,7.9688,1.0909,0.1,0.00039497,3946.9,0.00039552,3963.5,-0.00012755,33.327,-0.00013199,-0.0067548,0.53854
4864,7.7845,1.0909,0.1,0.00040023,3999.5,0.00040084,4017.8,-0.00012899,36.916,-0.0001339,-0.0073821,0.51855
4865,7.6003,1.0909,0.1,0.00040549,4052.1,0.00040617,4072.4,-0.0001304,40.739,-0.00013583,-0.0081213,0.49884
4866,7.416,1.0909,0.1,0.00041077,4104.9,0.00041151,4127.1,-0.0001318,44.803,-0.00013777,-0.0089924,0.4794
4867,7.2317,1.0909,0.1,0.00041606,4157.7,0.00041687,4182,-0.00013319,49.11,-0.00013973,-0.010021,0.46024
4868,7.0475,1.0909,0.1,0.00042135,4210.6,0.00042224,4237.2,-0.00013455,53.661,-0.0001417,-0.011239,0.44136
4869,6.8632,1.0909,0.1,0.00042665,4263.6,0.00042762,4292.5,-0.0001359,58.45,-0.00014368,-0.012688,0.42278
4870,6.6789,1.0909,0.1,0.00043196,4316.7,0.00043301,4348,-0.00013723,63.469,-0.00014568,-0.014418,0.40448
4871,6.4947,1.0909,0.1,0.00043728,4369.8,0.00043841,4403.7,-0.00013855,68.699,-0.00014769,-0.016495,0.38647
4872,6.3104,1.0909,0.1,0.0004426,4423,0.00044382,4459.6,-0.00013985,74.113,-0.00014972,-0.019003,0.36877
4873,6.1261,1.0909,0.1,0.00044793,4476.2,0.00044923,4515.5,-0.00014114,79.674,-0.00015175,-0.022051,0.35136
4874,5.9419,1.0909,0.1,0.00045327,4529.5,0.00045466,4571.6,-0.00014243,85.331,-0.00015379,-0.025778,0.33426
4875,5.7576,1.0909,0.1,0.0004586,4582.9,0.00046008,4627.7,-0.00014371,91.013,-0.00015583,-0.030371,0.31747
4876,5.5733,1.0909,0.1,0.00046394,4636.2,0.00046551,4683.7,-0.000145,96.635,-0.00015786,-0.03608,0.30099
4877,5.3891,1.0909,0.1,0.00046927,4689.5,0.00047092,4739.6,-0.0001463,102.08,-0.00015989,-0.04324,0.28482
4878,5.2048,1.0909,0.1,0.00047459,4742.6,0.00047632,4795.3,-0.00014762,107.22,-0.0001619,-0.052307,0.26898
4879,5.0205,1.0909,0.1,0.00047989,4795.6,0.00048169,4850.5,-0.00014898,111.86,-0.00016388,-0.063955,0.25346
4880,4.8363,1.0909,0.1,0.00048516,4848.2,0.00048702,4905.1,-0.00015039,115.81,-0.00016581,-0.079097,0.23827
4881,4.652,1.0909,0.1,0.00049038,4900.4,0.00049229,4958.7,-0.00015186,118.8,-0.00016768,-0.099116,0.2234
4882,4.4677,1.0909,0.1,0.00049552,4951.8,0.00049746,5010.9,-0.00015341,120.54,-0.00016947,-0.1261,0.20888
4883,4.2835,1.0909,0.1,0.00050055,5002,0.00050249,5061.2,-0.00015505,120.66,-0.00017114,-0.16333,0.19469
4884,4.0992,1.0909,0.1,0.00050542,5050.7,0.00050733,5108.9,-0.00015682,118.76,-0.00017265,-0.21619,0.18084
4885,3.9149,1.0909,0.1,0.00051007,5097.1,0.00051191,5153.2,-0.00015872,114.33,-0.00017398,-0.29401,0.16733
4886,3.7307,1.0909,0.1,0.0005144,5140.4,0.00051613,5192.8,-0.00016078,106.82,-0.00017505,-0.4142,0.15418
4887,3.5464,1.0909,0.1,0.0005183,5179.5,0.00051985,5226.3,-0.000163,95.576,-0.0001758,-0.61271,0.14137
4888,3.3621,1.0909,0.1,0.00052163,5212.7,0.00052292,5251.7,-0.0001654,79.881,-0.00017616,-0.97595,0.12892
4889,3.1779,1.0909,0.1,0.00052418,5238.2,0.00052513,5266.6,-0.00016795,59,-0.00017604,-1.7696,0.11682
4890,2.9936,1.0909,0.1,0.00052573,5253.7,0.00052621,5267.9,-0.00017052,32.94,-0.00017548,-4.2711,0.10508
4891,2.8093,1.0909,0.1,0.00052599,5256.2,0.00052584,5251.9,-0.00017179,10.213,-0.00017564,-18.693,0.093699
4892,2.6251,1.0909,0.1,0.00052461,5242.5,0.00052362,5213.9,-0.00016974,4.2908,-0.00017841,-60.912,0.082672
4893,2.4408,1.0909,0.1,0.00052126,5209,0.00051911,5148.2,-0.00016567,2.9634,-0.00018234,-122.27,0.072
4894,2.2565,1.0909,0.1,0.0005156,5152.4,0.00051185,5048.3,-0.00015971,2.5086,-0.00018725,-204.46,0.061678
4895,2.0723,1.0909,0.1,0.00050746,5071.1,0.00050139,4907.2,-0.0001514,2.3623,-0.00019368,-315.31,0.051697
4896,1.888,1.0909,0.1,0.00049706,4967.2,0.00048748,4718,-0.00014012,2.4629,-0.00020265,-467.38,0.042045
4897,1.7037,1.0909,0.1,0.00048542,4850.9,0.0004703,4476.4,-0.00012515,2.4045,-0.00021587,-679.24,0.032704
4898,1.5195,1.0909,0.1,0.00047496,4746.3,0.00045082,4184.7,-0.00010567,3.4976,-0.0002358,-974.28,0.023646
4899,1.3352,1.0909,0.1,0.00047121,4708.8,0.00043212,3861.1,-8.1816e-05,-0.3797,-0.00026606,-1384.7,0.014849
4900,1.1509,1.0909,0.1,0.00050401,5036.6,0.00043608,3682.3,-5.2282e-05,12.908,-0.00032816,-2060,0.0064053
4901,23.816,1.2727,0.1,1.5703e-05,156.92,8.3961e-06,39.923,3.0653e-06,-0.13131,-1.4638e-05,-133.14,2.9046
4902,23.631,1.2727,0.1,1.7536e-05,175.24,1.1845e-05,77.684,1.4676e-06,-0.29076,-1.4865e-05,-123.01,2.8735
4903,23.447,1.2727,0.1,1.9865e-05,198.51,1.5321e-05,115.56,-7.4199e-08,-0.1151,-1.5186e-05,-113.66,2.8424
4904,23.263,1.2727,0.1,2.2544e-05,225.28,1.8829e-05,153.41,-1.6012e-06,-0.10067,-1.5592e-05,-105.22,2.8113
4905,23.079,1.2727,0.1,2.5477e-05,254.6,2.2373e-05,191.34,-3.1028e-06,-0.071361,-1.6083e-05,-97.6,2.7803
4906,22.894,1.2727,0.1,2.8603e-05,285.84,2.5958e-05,229.44,-4.5859e-06,-0.057636,-1.6655e-05,-90.741,2.7492
4907,22.71,1.2727,0.1,3.1877e-05,318.55,2.9585e-05,267.72,-6.0529e-06,-0.046445,-1.7302e-05,-84.565,2.7182
4908,22.526,1.2727,0.1,3.5267e-05,352.42,3.3252e-05,306.21,-7.5072e-06,-0.038562,-1.8015e-05,-78.993,2.6871
4909,22.342,1.2727,0.1,3.875e-05,387.23,3.6958e-05,344.91,-8.9512e-06,-0.032446,-1.8789e-05,-73.95,2.6561
4910,22.157,1.2727,0.1,4.231e-05,422.81,4.07e-05,383.82,-1.0387e-05,-0.027685,-1.9616e-05,-69.369,2.6252
4911,21.973,1.2727,0.1,4.5934e-05,459.02,4.4476e-05,422.93,-1.1816e-05,-0.023881,-2.049e-05,-65.194,2.5942
4912,21.789,1.2727,0.1,4.9614e-05,495.79,4.8283e-05,462.24,-1.324e-05,-0.020799,-2.1405e-05,-61.374,2.5633
4913,21.605,1.2727,0.1,5.3341e-05,533.04,5.212e-05,501.74,-1.466e-05,-0.018271,-2.2359e-05,-57.87,2.5324
4914,21.42,1.2727,0.1,5.7112e-05,570.72,5.5985e-05,541.43,-1.6077e-05,-0.016178,-2.3347e-05,-54.645,2.5016
4915,21.236,1.2727,0.1,6.0921e-05,608.79,5.9877e-05,581.3,-1.7491e-05,-0.014419,-2.4366e-05,-51.671,2.4707
4916,21.052,1.2727,0.1,6.4766e-05,647.21,6.3794e-05,621.35,-1.8905e-05,-0.012924,-2.5414e-05,-48.923,2.44
4917,20.867,1.2727,0.1,6.8644e-05,685.96,6.7737e-05,661.59,-2.0317e-05,-0.01164,-2.6488e-05,-46.379,2.4092
4918,20.683,1.2727,0.1,7.2553e-05,725.03,7.1704e-05,702.01,-2.173e-05,-0.010541,-2.7587e-05,-44.02,2.3786
4919,20.499,1.2727,0.1,7.6492e-05,764.39,7.5694e-05,742.61,-2.3143e-05,-0.0095949,-2.8709e-05,-41.831,2.3479
4920,20.315,1.2727,0.1,8.046e-05,804.04,7.9708e-05,783.4,-2.4557e-05,-0.0087612,-2.9852e-05,-39.797,2.3173
4921,20.13,1.2727,0.1,8.4455e-05,843.96,8.3746e-05,824.37,-2.5972e-05,-0.0080259,-3.1016e-05,-37.906,2.2868
4922,19.946,1.2727,0.1,8.8476e-05,884.15,8.7806e-05,865.52,-2.7389e-05,-0.0073648,-3.2199e-05,-36.145,2.2563
4923,19.762,1.2727,0.1,9.2524e-05,924.6,9.1888e-05,906.86,-2.8808e-05,-0.0067837,-3.34e-05,-34.505,2.2259
4924,19.578,1.2727,0.1,9.6597e-05,965.3,9.5993e-05,948.39,-3.023e-05,-0.0062787,-3.4618e-05,-32.977,2.1956
4925,19.393,1.2727,0.1,0.00010069,1006.3,0.00010012,990.1,-3.1655e-05,-0.0058169,-3.5853e-05,-31.551,2.1653
4926,19.209,1.2727,0.1,0.00010482,1047.4,0.00010427,1032,-3.3082e-05,-0.005395,-3.7104e-05,-30.22,2.135
4927,19.025,1.2727,0.1,0.00010896,1088.9,0.00010844,1074.1,-3.4513e-05,-0.005002,-3.8369e-05,-28.977,2.1049
4928,18.841,1.2727,0.1,0.00011313,1130.6,0.00011263,1116.4,-3.5948e-05,-0.0046559,-3.9649e-05,-27.814,2.0748
4929,18.656,1.2727,0.1,0.00011733,1172.5,0.00011685,1158.9,-3.7387e-05,-0.0043561,-4.0943e-05,-26.727,2.0448
4930,18.472,1.2727,0.1,0.00012154,1214.6,0.00012109,1201.5,-3.883e-05,-0.0040677,-4.2251e-05,-25.708,2.0149
4931,18.288,1.2727,0.1,0.00012578,1257,0.00012534,1244.4,-4.0277e-05,-0.003803,-4.3571e-05,-24.753,1.985
4932,18.103,1.2727,0.1,0.00013005,1299.6,0.00012962,1287.5,-4.1728e-05,-0.0035419,-4.4903e-05,-23.857,1.9553
4933,17.919,1.2727,0.1,0.00013433,1342.4,0.00013392,1330.7,-4.3184e-05,-0.0033185,-4.6247e-05,-23.014,1.9256
4934,17.735,1.2727,0.1,0.00013864,1385.4,0.00013825,1374.2,-4.4646e-05,-0.0031267,-4.7603e-05,-22.221,1.896
4935,17.551,1.2727,0.1,0.00014297,1428.7,0.00014259,1417.8,-4.6112e-05,-0.002937,-4.8969e-05,-21.472,1.8665
4936,17.366,1.2727,0.1,0.00014732,1472.2,0.00014695,1461.7,-4.7583e-05,-0.0027569,-5.0346e-05,-20.765,1.8371
4937,17.182,1.2727,0.1,0.00015169,1515.9,0.00015134,1505.7,-4.9059e-05,-0.0025707,-5.1734e-05,-20.095,1.8078
4938,16.998,1.2727,0.1,0.00015608,1559.8,0.00015574,1549.9,-5.0541e-05,-0.002416,-5.3131e-05,-19.459,1.7787
4939,16.814,1.2727,0.1,0.0001605,1603.9,0.00016017,1594.4,-5.2029e-05,-0.0022899,-5.4538e-05,-18.854,1.7496
4940,16.629,1.2727,0.1,0.00016494,1648.2,0.00016462,1639,-5.3522e-05,-0.0021551,-5.5954e-05,-18.276,1.7206
4941,16.445,1.2727,0.1,0.0001694,1692.8,0.00016909,1683.9,-5.5021e-05,-0.0020257,-5.7379e-05,-17.722,1.6917
4942,16.261,1.2727,0.1,0.00017387,1737.5,0.00017358,1728.9,-5.6525e-05,-0.0018836,-5.8813e-05,-17.189,1.663
4943,16.077,1.2727,0.1,0.00017837,1782.5,0.00017809,1774.1,-5.8036e-05,-0.001769,-6.0255e-05,-16.675,1.6343
4944,15.892,1.2727,0.1,0.0001829,1827.7,0.00018262,1819.6,-5.9553e-05,-0.0016824,-6.1705e-05,-16.177,1.6058
4945,15.708,1.2727,0.1,0.00018744,1873.1,0.00018717,1865.2,-6.1075e-05,-0.001583,-6.3164e-05,-15.692,1.5774
4946,15.524,1.2727,0.1,0.000192,1918.7,0.00019174,1911,-6.2604e-05,-0.0014808,-6.4629e-05,-15.217,1.5492
4947,15.339,1.2727,0.1,0.00019658,1964.5,0.00019633,1957,-6.414e-05,-0.0013608,-6.6103e-05,-14.749,1.521
4948,15.155,1.2727,0.1,0.00020118,2010.4,0.00020094,2003.3,-6.5682e-05,-0.0012688,-6.7583e-05,-14.288,1.493
4949,14.971,1.2727,0.1,0.00020581,2056.6,0.00020557,2049.7,-6.723e-05,-0.0012039,-6.907e-05,-13.829,1.4652
4950,14.787,1.2727,0.1,0.00021045,2103,0.00021022,2096.3,-6.8785e-05,-0.0011204,-7.0564e-05,-13.37,1.4374
4951,14.602,1.2727,0.1,0.00021511,2149.6,0.00021489,2143.1,-7.0346e-05,-0.0010288,-7.2064e-05,-12.909,1.4099
4952,14.418,1.2727,0.1,0.00021979,2196.4,0.00021958,2190.2,-7.1914e-05,-0.00091467,-7.357e-05,-12.444,1.3824
4953,14.234,1.2727,0.1,0.00022449,2243.4,0.00022429,2237.4,-7.3489e-05,-0.00082429,-7.5082e-05,-11.971,1.3551
4954,14.05,1.2727,0.1,0.00022921,2290.6,0.00022902,2284.8,-7.5071e-05,-0.00076103,-7.66e-05,-11.488,1.328
4955,13.865,1.2727,0.1,0.00023395,2337.9,0.00023377,2332.4,-7.666e-05,-0.00066972,-7.8123e-05,-10.992,1.301
4956,13.681,1.2727,0.1,0.00023871,2385.5,0.00023853,2380.2,-7.8256e-05,-0.00056616,-7.9651e-05,-10.48,1.2742
4957,13.497,1.2727,0.1,0.00024349,2433.2,0.00024332,2428.3,-7.9859e-05,-0.00042505,-8.1183e-05,-9.9503,1.2475
4958,13.313,1.2727,0.1,0.00024829,2481.2,0.00024813,2476.5,-8.1469e-05,-0.000306,-8.272e-05,-9.3987,1.221
4959,13.128,1.2727,0.1,0.00025311,2529.3,0.00025295,2524.9,-8.3087e-05,-0.00020089,-8.4261e-05,-8.8225,1.1947
4960,12.944,1.2727,0.1,0.00025794,2577.6,0.0002578,2573.5,-8.4713e-05,-4.7603e-05,-8.5806e-05,-8.218,1.1685
4961,12.76,1.2727,0.1,0.00026279,2626.1,0.00026266,2622.3,-8.6345e-05,0.00014341,-8.7355e-05,-7.582,1.1425
4962,12.575,1.2727,0.1,0.00026766,2674.8,0.00026754,2671.3,-8.7986e-05,0.00040947,-8.8906e-05,-6.9104,1.1167
4963,12.391,1.2727,0.1,0.00027255,2723.6,0.00027245,2720.5,-8.9635e-05,0.00070514,-9.046e-05,-6.1996,1.0911
4964,12.207,1.2727,0.1,0.00027746,2772.7,0.00027736,2769.9,-9.1291e-05,0.0010659,-9.2016e-05,-5.4454,1.0657
4965,12.023,1.2727,0.1,0.00028238,2821.9,0.0002823,2819.5,-9.2955e-05,0.001624,-9.3574e-05,-4.6431,1.0404
4966,11.838,1.2727,0.1,0.00028732,2871.2,0.00028726,2869.3,-9.4628e-05,0.0024902,-9.5133e-05,-3.7883,1.0154
4967,11.654,1.2727,0.1,0.00029228,2920.8,0.00029223,2919.3,-9.6309e-05,0.0040214,-9.6693e-05,-2.876,0.9905
4968,11.47,1.2727,0.1,0.00029725,2970.5,0.00029722,2969.5,-9.7999e-05,0.0072212,-9.8253e-05,-1.9021,0.96583
4969,11.286,1.2727,0.1,0.00030225,3020.4,0.00030223,3019.9,-9.9696e-05,0.01854,-9.9814e-05,-0.86715,0.94136
4970,11.101,1.2727,0.1,0.00030725,3070.4,0.00030726,3070.5,-0.00010136,0.33006,-0.00010141,-0.056778,0.9171
4971,10.917,1.2727,0.1,0.00031227,3120.6,0.0003123,3121.3,-0.00010293,1.4918,-0.00010313,-0.014544,0.89305
4972,10.733,1.2727,0.1,0.00031731,3170.9,0.00031736,3172.3,-0.00010448,2.7796,-0.00010485,-0.0089541,0.86921
4973,10.549,1.2727,0.1,0.00032237,3221.4,0.00032244,3223.5,-0.00010603,4.1677,-0.00010659,-0.0068501,0.84558
4974,10.364,1.2727,0.1,0.00032743,3272.1,0.00032753,3274.9,-0.00010758,5.6617,-0.00010833,-0.0058141,0.82217
4975,10.18,1.2727,0.1,0.00033252,3322.9,0.00033264,3326.5,-0.00010912,7.2699,-0.00011009,-0.0051752,0.79899
4976,9.9957,1.2727,0.1,0.00033761,3373.8,0.00033776,3378.3,-0.00011066,9.0013,-0.00011186,-0.0047854,0.77603
4977,9.8115,1.2727,0.1,0.00034272,3424.8,0.0003429,3430.2,-0.00011219,10.866,-0.00011364,-0.0045421,0.7533
4978,9.6272,1.2727,0.1,0.00034784,3476,0.00034806,3482.4,-0.00011371,12.873,-0.00011543,-0.0043903,0.7308
4979,9.4429,1.2727,0.1,0.00035298,3527.3,0.00035323,3534.8,-0.00011522,15.035,-0.00011723,-0.0043217,0.70853
4980,9.2587,1.2727,0.1,0.00035812,3578.7,0.00035841,3587.4,-0.00011673,17.363,-0.00011904,-0.0043097,0.68651
4981,9.0744,1.2727,0.1,0.00036328,3630.3,0.00036361,3640.2,-0.00011822,19.868,-0.00012086,-0.0043493,0.66473
4982,8.8901,1.2727,0.1,0.00036844,3681.9,0.00036882,3693.1,-0.0001197,22.565,-0.0001227,-0.0044378,0.6432
4983,8.7059,1.2727,0.1,0.00037362,3733.6,0.00037405,3746.3,-0.00012116,25.466,-0.00012455,-0.0045737,0.62192
4984,8.5216,1.2727,0.1,0.00037881,3785.5,0.00037929,3799.7,-0.00012262,28.584,-0.00012642,-0.0047593,0.60089
4985,8.3373,1.2727,0.1,0.000384,3837.4,0.00038454,3853.3,-0.00012405,31.934,-0.0001283,-0.0049987,0.58012
4986,8.1531,1.2727,0.1,0.00038921,3889.4,0.0003898,3907,-0.00012547,35.53,-0.00013019,-0.005298,0.55961
4987,7.9688,1.2727,0.1,0.00039442,3941.5,0.00039507,3961,-0.00012686,39.386,-0.0001321,-0.005667,0.53936
4988,7.7845,1.2727,0.1,0.00039964,3993.6,0.00040036,4015.2,-0.00012824,43.514,-0.00013403,-0.0061167,0.51938
4989,7.6003,1.2727,0.1,0.00040486,4045.8,0.00040566,4069.6,-0.00012959,47.929,-0.00013597,-0.0066628,0.49968
4990,7.416,1.2727,0.1,0.00041009,4098.1,0.00041096,4124.2,-0.00013092,52.641,-0.00013793,-0.0073243,0.48025
4991,7.2317,1.2727,0.1,0.00041533,4150.4,0.00041628,4179,-0.00013223,57.659,-0.00013991,-0.0081262,0.46109
4992,7.0475,1.2727,0.1,0.00042057,4202.8,0.00042161,4234,-0.00013351,62.992,-0.0001419,-0.0091,0.44222
4993,6.8632,1.2727,0.1,0.00042582,4255.3,0.00042695,4289.2,-0.00013477,68.643,-0.00014391,-0.010285,0.42364
4994,6.6789,1.2727,0.1,0.00043107,4307.7,0.00043229,4344.6,-0.000136,74.61,-0.00014593,-0.011733,0.40535
4995,6.4947,1.2727,0.1,0.00043633,4360.3,0.00043765,4400.2,-0.00013721,80.886,-0.00014798,-0.013508,0.38735
4996,6.3104,1.2727,0.1,0.00044159,4412.9,0.00044302,4456,-0.0001384,87.456,-0.00015004,-0.015694,0.36965
4997,6.1261,1.2727,0.1,0.00044686,4465.5,0.00044839,4511.9,-0.00013956,94.296,-0.00015211,-0.018399,0.35225
4998,5.9419,1.2727,0.1,0.00045214,4518.3,0.00045378,4568.1,-0.00014071,101.37,-0.0001542,-0.021765,0.33515
4999,5.7576,1.2727,0.1,0.00045742,4571,0.00045917,4624.4,-0.00014184,108.62,-0.0001563,-0.025976,0.31836
5000,5.5733,1.2727,0.1,0.00046271,4623.9,0.00046457,4680.8,-0.00014296,115.99,-0.00015841,-0.031281,0.30188
5001,5.3891,1.2727,0.1,0.00046801,4676.8,0.00046998,4737.3,-0.00014409,123.38,-0.00016052,-0.03801,0.28572
5002,5.2048,1.2727,0.1,0.00047331,4729.8,0.0004754,4793.8,-0.00014523,130.67,-0.00016262,-0.046615,0.26988
5003,5.0205,1.2727,0.1,0.00047862,4782.9,0.00048081,4850.2,-0.00014638,137.72,-0.00016472,-0.057686,0.25436
5004,4.8363,1.2727,0.1,0.00048393,4836,0.00048622,4906.5,-0.00014758,144.34,-0.0001668,-0.072185,0.23917
5005,4.652,1.2727,0.1,0.00048924,4889,0.00049162,4962.4,-0.00014883,150.31,-0.00016884,-0.09126,0.2243
5006,4.4677,1.2727,0.1,0.00049454,4942,0.000497,5017.8,-0.00015015,155.34,-0.00017084,-0.11674,0.20977
5007,4.2835,1.2727,0.1,0.00049982,4994.7,0.00050233,5072.3,-0.00015157,159.11,-0.00017277,-0.15131,0.19558
5008,4.0992,1.2727,0.1,0.00050505,5047,0.0005076,5125.6,-0.00015312,161.2,-0.0001746,-0.19906,0.18173
5009,3.9149,1.2727,0.1,0.00051021,5098.6,0.00051276,5177.1,-0.00015483,161.13,-0.00017631,-0.26648,0.16823
5010,3.7307,1.2727,0.1,0.00051527,5149.1,0.00051777,5226.2,-0.00015673,158.3,-0.00017785,-0.36429,0.15507
5011,3.5464,1.2727,0.1,0.00052016,5198,0.00052257,5272,-0.00015887,151.98,-0.00017917,-0.51138,0.14226
5012,3.3621,1.2727,0.1,0.00052482,5244.5,0.00052706,5313.3,-0.0001613,141.25,-0.0001802,-0.74384,0.12981
5013,3.1779,1.2727,0.1,0.00052916,5287.9,0.00053115,5348.7,-0.00016409,124.95,-0.00018087,-1.14,0.11772
5014,2.9936,1.2727,0.1,0.00053307,5327.1,0.00053469,5376.1,-0.00016731,101.57,-0.00018108,-1.9056,0.10599
5015,2.8093,1.2727,0.1,0.00053646,5360.9,0.00053754,5393.4,-0.00017103,69.447,-0.00018078,-3.797,0.094623
5016,2.6251,1.2727,0.1,0.00053922,5388.5,0.00053952,5397.5,-0.00017483,30.112,-0.00018043,-11.97,0.08362
5017,2.4408,1.2727,0.1,0.00054132,5409.4,0.00054046,5384.9,-0.00017507,8.6878,-0.00018383,-57.092,0.072982
5018,2.2565,1.2727,0.1,0.00054282,5424.5,0.00054023,5351.5,-0.00017139,4.7049,-0.00019162,-147.35,0.062709
5019,2.0723,1.2727,0.1,0.00054409,5437.1,0.0005388,5292.4,-0.00016511,3.55,-0.00020308,-281.73,0.052796
5020,1.888,1.2727,0.1,0.00054594,5455.6,0.00053624,5201.7,-0.00015564,3.1955,-0.00021981,-479.02,0.043238
5021,1.7037,1.2727,0.1,0.0005499,5495.2,0.00053279,5071.6,-0.00014177,3.2102,-0.00024451,-768.76,0.034022
5022,1.5195,1.2727,0.1,0.00055831,5579.3,0.00052855,4891.3,-0.0001219,4.0911,-0.0002805,-1187.6,0.025125
5023,1.3352,1.2727,0.1,0.00057572,5753.2,0.00052432,4651.6,-9.4774e-05,0.0059995,-0.0003319,-1781.7,0.016523
5024,1.1509,1.2727,0.1,0.00063261,6321.7,0.00054132,4519.7,-5.8905e-05,9.8466,-0.00042038,-2706.1,0.0082293
5025,23.816,1.4545,0.1,1.6637e-05,166.26,8.7137e-06,39.935,3.3786e-06,-0.15111,-1.5594e-05,-142.7,2.9047
5026,23.631,1.4545,0.1,1.8439e-05,184.26,1.2191e-05,78.006,1.7685e-06,-0.30195,-1.5823e-05,-132.47,2.8736
5027,23.447,1.4545,0.1,2.0718e-05,207.03,1.5685e-05,116.14,2.1038e-07,-0.12329,-1.6129e-05,-122.89,2.8425
5028,23.263,1.4545,0.1,2.3339e-05,233.23,1.9202e-05,154.2,-1.3348e-06,-0.10801,-1.6507e-05,-114.11,2.8114
5029,23.079,1.4545,0.1,2.6212e-05,261.94,2.2745e-05,192.27,-2.8553e-06,-0.078052,-1.6959e-05,-106.05,2.7804
5030,22.894,1.4545,0.1,2.9276e-05,292.56,2.632e-05,230.43,-4.3568e-06,-0.063912,-1.7483e-05,-98.692,2.7493
5031,22.71,1.4545,0.1,3.2488e-05,324.66,2.993e-05,268.72,-5.8416e-06,-0.052381,-1.8077e-05,-91.987,2.7183
5032,22.526,1.4545,0.1,3.5819e-05,357.94,3.3576e-05,307.18,-7.3124e-06,-0.044212,-1.8736e-05,-85.876,2.6873
5033,22.342,1.4545,0.1,3.9246e-05,392.19,3.7258e-05,345.81,-8.7717e-06,-0.037828,-1.9454e-05,-80.301,2.6563
5034,22.157,1.4545,0.1,4.2753e-05,427.24,4.0974e-05,384.63,-1.0221e-05,-0.03281,-2.0226e-05,-75.205,2.6253
5035,21.973,1.4545,0.1,4.6329e-05,462.97,4.4724e-05,423.64,-1.1663e-05,-0.028762,-2.1048e-05,-70.54,2.5943
5036,21.789,1.4545,0.1,4.9963e-05,499.29,4.8505e-05,462.84,-1.3099e-05,-0.025445,-2.1914e-05,-66.26,2.5634
5037,21.605,1.4545,0.1,5.365e-05,536.13,5.2317e-05,502.23,-1.4529e-05,-0.022696,-2.2821e-05,-62.325,2.5325
5038,21.42,1.4545,0.1,5.7382e-05,573.43,5.6158e-05,541.81,-1.5956e-05,-0.020395,-2.3766e-05,-58.701,2.5017
5039,21.236,1.4545,0.1,6.1157e-05,611.15,6.0027e-05,581.58,-1.7379e-05,-0.018437,-2.4744e-05,-55.358,2.4709
5040,21.052,1.4545,0.1,6.497e-05,649.26,6.3923e-05,621.53,-1.88e-05,-0.016757,-2.5755e-05,-52.27,2.4401
5041,20.867,1.4545,0.1,6.882e-05,687.72,6.7846e-05,661.68,-2.022e-05,-0.015301,-2.6795e-05,-49.413,2.4094
5042,20.683,1.4545,0.1,7.2703e-05,726.53,7.1794e-05,702.01,-2.1639e-05,-0.014037,-2.7862e-05,-46.768,2.3787
5043,20.499,1.4545,0.1,7.6619e-05,765.66,7.5768e-05,742.53,-2.3058e-05,-0.01294,-2.8955e-05,-44.316,2.3481
5044,20.315,1.4545,0.1,8.0565e-05,805.09,7.9767e-05,783.24,-2.4478e-05,-0.011964,-3.0071e-05,-42.041,2.3175
5045,20.13,1.4545,0.1,8.454e-05,844.82,8.379e-05,824.14,-2.5898e-05,-0.011098,-3.1211e-05,-39.93,2.287
5046,19.946,1.4545,0.1,8.8544e-05,884.83,8.7837e-05,865.23,-2.732e-05,-0.010312,-3.2371e-05,-37.968,2.2565
5047,19.762,1.4545,0.1,9.2576e-05,925.12,9.1908e-05,906.51,-2.8743e-05,-0.0096189,-3.3552e-05,-36.144,2.2261
5048,19.578,1.4545,0.1,9.6634e-05,965.68,9.6002e-05,947.99,-3.0169e-05,-0.009003,-3.4752e-05,-34.447,2.1958
5049,19.393,1.4545,0.1,0.00010072,1006.5,0.00010012,989.66,-3.1597e-05,-0.0084386,-3.597e-05,-32.868,2.1655
5050,19.209,1.4545,0.1,0.00010483,1047.6,0.00010426,1031.5,-3.3028e-05,-0.0079232,-3.7205e-05,-31.397,2.1353
5051,19.025,1.4545,0.1,0.00010897,1088.9,0.00010842,1073.6,-3.4462e-05,-0.0074401,-3.8457e-05,-30.026,2.1051
5052,18.841,1.4545,0.1,0.00011313,1130.5,0.00011261,1115.8,-3.5899e-05,-0.0070114,-3.9724e-05,-28.747,2.075
5053,18.656,1.4545,0.1,0.00011731,1172.3,0.00011682,1158.3,-3.734e-05,-0.0066327,-4.1007e-05,-27.552,2.045
5054,18.472,1.4545,0.1,0.00012152,1214.4,0.00012105,1200.9,-3.8786e-05,-0.0062708,-4.2303e-05,-26.436,2.0151
5055,18.288,1.4545,0.1,0.00012575,1256.7,0.0001253,1243.8,-4.0235e-05,-0.0059354,-4.3613e-05,-25.392,1.9853
5056,18.103,1.4545,0.1,0.00013001,1299.2,0.00012958,1286.8,-4.1688e-05,-0.005611,-4.4937e-05,-24.414,1.9555
5057,17.919,1.4545,0.1,0.00013429,1342,0.00013387,1330,-4.3147e-05,-0.0053246,-4.6273e-05,-23.496,1.9259
5058,17.735,1.4545,0.1,0.00013859,1384.9,0.00013819,1373.5,-4.4609e-05,-0.005076,-4.7621e-05,-22.634,1.8963
5059,17.551,1.4545,0.1,0.00014291,1428.2,0.00014253,1417.1,-4.6077e-05,-0.0048294,-4.8981e-05,-21.823,1.8668
5060,17.366,1.4545,0.1,0.00014726,1471.6,0.00014689,1461,-4.755e-05,-0.0045972,-5.0352e-05,-21.057,1.8374
5061,17.182,1.4545,0.1,0.00015163,1515.3,0.00015127,1505,-4.9028e-05,-0.0043604,-5.1733e-05,-20.334,1.8081
5062,16.998,1.4545,0.1,0.00015602,1559.1,0.00015568,1549.2,-5.0511e-05,-0.004159,-5.3126e-05,-19.649,1.779
5063,16.814,1.4545,0.1,0.00016043,1603.2,0.0001601,1593.6,-5.2e-05,-0.0039902,-5.4528e-05,-18.997,1.7499
5064,16.629,1.4545,0.1,0.00016487,1647.5,0.00016455,1638.3,-5.3494e-05,-0.0038133,-5.5939e-05,-18.376,1.7209
5065,16.445,1.4545,0.1,0.00016932,1692.1,0.00016901,1683.1,-5.4994e-05,-0.0036414,-5.736e-05,-17.782,1.6921
5066,16.261,1.4545,0.1,0.0001738,1736.8,0.0001735,1728.1,-5.65e-05,-0.0034586,-5.879e-05,-17.212,1.6633
5067,16.077,1.4545,0.1,0.0001783,1781.8,0.00017801,1773.4,-5.8011e-05,-0.0033076,-6.0229e-05,-16.662,1.6347
5068,15.892,1.4545,0.1,0.00018282,1826.9,0.00018254,1818.8,-5.9529e-05,-0.0031869,-6.1675e-05,-16.13,1.6062
5069,15.708,1.4545,0.1,0.00018736,1872.3,0.00018709,1864.4,-6.1053e-05,-0.00305,-6.313e-05,-15.611,1.5778
5070,15.524,1.4545,0.1,0.00019192,1917.8,0.00019165,1910.2,-6.2583e-05,-0.0029151,-6.4593e-05,-15.105,1.5496
5071,15.339,1.4545,0.1,0.0001965,1963.6,0.00019624,1956.3,-6.4119e-05,-0.002762,-6.6063e-05,-14.606,1.5214
5072,15.155,1.4545,0.1,0.0002011,2009.6,0.00020085,2002.5,-6.5662e-05,-0.0026376,-6.754e-05,-14.114,1.4934
5073,14.971,1.4545,0.1,0.00020572,2055.8,0.00020548,2048.9,-6.7211e-05,-0.0025397,-6.9024e-05,-13.625,1.4656
5074,14.787,1.4545,0.1,0.00021036,2102.1,0.00021013,2095.5,-6.8767e-05,-0.0024235,-7.0515e-05,-13.135,1.4379
5075,14.602,1.4545,0.1,0.00021502,2148.7,0.0002148,2142.4,-7.0329e-05,-0.0023027,-7.2012e-05,-12.643,1.4103
5076,14.418,1.4545,0.1,0.0002197,2195.5,0.00021949,2189.4,-7.1898e-05,-0.0021547,-7.3514e-05,-12.146,1.3829
5077,14.234,1.4545,0.1,0.0002244,2242.4,0.0002242,2236.6,-7.3474e-05,-0.0020348,-7.5023e-05,-11.64,1.3556
5078,14.05,1.4545,0.1,0.00022912,2289.6,0.00022893,2284,-7.5057e-05,-0.0019393,-7.6537e-05,-11.123,1.3284
5079,13.865,1.4545,0.1,0.00023385,2336.9,0.00023367,2331.6,-7.6647e-05,-0.0018144,-7.8056e-05,-10.591,1.3015
5080,13.681,1.4545,0.1,0.00023861,2384.5,0.00023844,2379.4,-7.8244e-05,-0.0016744,-7.958e-05,-10.042,1.2747
5081,13.497,1.4545,0.1,0.00024339,2432.2,0.00024322,2427.4,-7.9848e-05,-0.0014969,-8.1109e-05,-9.4726,1.248
5082,13.313,1.4545,0.1,0.00024818,2480.1,0.00024803,2475.6,-8.146e-05,-0.0013346,-8.2641e-05,-8.8789,1.2215
5083,13.128,1.4545,0.1,0.00025299,2528.2,0.00025285,2524.1,-8.3079e-05,-0.0011818,-8.4178e-05,-8.2575,1.1952
5084,12.944,1.4545,0.1,0.00025782,2576.5,0.00025769,2572.7,-8.4705e-05,-0.00097417,-8.5717e-05,-7.6048,1.169
5085,12.76,1.4545,0.1,0.00026267,2624.9,0.00026256,2621.5,-8.6339e-05,-0.000716,-8.726e-05,-6.9168,1.1431
5086,12.575,1.4545,0.1,0.00026754,2673.6,0.00026743,2670.5,-8.7981e-05,-0.00036317,-8.8805e-05,-6.1894,1.1173
5087,12.391,1.4545,0.1,0.00027242,2722.4,0.00027233,2719.6,-8.9631e-05,5.5368e-05,-9.0353e-05,-5.4183,1.0917
5088,12.207,1.4545,0.1,0.00027733,2771.3,0.00027725,2769,-9.1289e-05,0.00060372,-9.1902e-05,-4.599,1.0662
5089,12.023,1.4545,0.1,0.00028224,2820.5,0.00028218,2818.6,-9.2956e-05,0.0014847,-9.3452e-05,-3.7263,1.041
5090,11.838,1.4545,0.1,0.00028718,2869.8,0.00028713,2868.4,-9.463e-05,0.0030248,-9.5003e-05,-2.7956,1.0159
5091,11.654,1.4545,0.1,0.00029213,2919.3,0.0002921,2918.4,-9.6313e-05,0.0064298,-9.6554e-05,-1.8021,0.99107
5092,11.47,1.4545,0.1,0.0002971,2968.9,0.00029709,2968.6,-9.8004e-05,0.01977,-9.8106e-05,-0.74804,0.96641
5093,11.286,1.4545,0.1,0.00030208,3018.7,0.00030209,3018.9,-9.9647e-05,0.45595,-9.9713e-05,-0.039939,0.94195
5094,11.101,1.4545,0.1,0.00030708,3068.7,0.00030711,3069.5,-0.0001012,1.6577,-0.00010142,-0.013213,0.9177
5095,10.917,1.4545,0.1,0.00031209,3118.8,0.00031214,3120.3,-0.00010274,2.973,-0.00010314,-0.008696,0.89366
5096,10.733,1.4545,0.1,0.00031712,3169,0.0003172,3171.2,-0.00010428,4.3906,-0.00010487,-0.0068208,0.86982
5097,10.549,1.4545,0.1,0.00032216,3219.4,0.00032226,3222.4,-0.00010582,5.9169,-0.00010661,-0.0058341,0.84621
5098,10.364,1.4545,0.1,0.00032722,3269.9,0.00032735,3273.7,-0.00010735,7.5608,-0.00010836,-0.0052632,0.82281
5099,10.18,1.4545,0.1,0.00033229,3320.6,0.00033245,3325.2,-0.00010887,9.3319,-0.00011012,-0.0048462,0.79963
5100,9.9957,1.4545,0.1,0.00033737,3371.4,0.00033756,3377,-0.00011039,11.241,-0.00011189,-0.004563,0.77668
5101,9.8115,1.4545,0.1,0.00034246,3422.3,0.00034269,3428.9,-0.0001119,13.298,-0.00011367,-0.0043644,0.75396
5102,9.6272,1.4545,0.1,0.00034757,3473.3,0.00034783,3481,-0.0001134,15.516,-0.00011547,-0.0042182,0.73147
5103,9.4429,1.4545,0.1,0.00035268,3524.4,0.00035298,3533.3,-0.00011489,17.908,-0.00011727,-0.0041261,0.70921
5104,9.2587,1.4545,0.1,0.00035781,3575.6,0.00035815,3585.8,-0.00011636,20.486,-0.00011909,-0.0040717,0.6872
5105,9.0744,1.4545,0.1,0.00036294,3626.9,0.00036333,3638.5,-0.00011782,23.266,-0.00012092,-0.0040535,0.66543
5106,8.8901,1.4545,0.1,0.00036809,3678.3,0.00036853,3691.4,-0.00011927,26.262,-0.00012277,-0.0040688,0.6439
5107,8.7059,1.4545,0.1,0.00037324,3729.8,0.00037373,3744.5,-0.0001207,29.491,-0.00012463,-0.0041187,0.62263
5108,8.5216,1.4545,0.1,0.0003784,3781.4,0.00037895,3797.7,-0.00012211,32.968,-0.0001265,-0.0042048,0.60161
5109,8.3373,1.4545,0.1,0.00038356,3833,0.00038417,3851.2,-0.0001235,36.711,-0.00012839,-0.0043318,0.58084
5110,8.1531,1.4545,0.1,0.00038873,3884.6,0.00038941,3904.8,-0.00012487,40.739,-0.00013029,-0.0045051,0.56034
5111,7.9688,1.4545,0.1,0.00039391,3936.4,0.00039465,3958.7,-0.00012622,45.069,-0.00013222,-0.0047338,0.5401
5112,7.7845,1.4545,0.1,0.00039909,3988.1,0.00039991,4012.7,-0.00012754,49.719,-0.00013415,-0.0050268,0.52013
5113,7.6003,1.4545,0.1,0.00040427,4039.9,0.00040517,4067,-0.00012883,54.709,-0.00013611,-0.0053994,0.50043
5114,7.416,1.4545,0.1,0.00040946,4091.7,0.00041044,4121.4,-0.00013009,60.055,-0.00013808,-0.0058687,0.48101
5115,7.2317,1.4545,0.1,0.00041464,4143.6,0.00041572,4176.1,-0.00013132,65.776,-0.00014008,-0.0064572,0.46186
5116,7.0475,1.4545,0.1,0.00041983,4195.4,0.00042101,4230.9,-0.00013252,71.887,-0.00014209,-0.0071949,0.443
5117,6.8632,1.4545,0.1,0.00042503,4247.3,0.00042631,4286,-0.00013369,78.4,-0.00014413,-0.0081176,0.42442
5118,6.6789,1.4545,0.1,0.00043022,4299.3,0.00043161,4341.3,-0.00013482,85.327,-0.00014618,-0.0092734,0.40613
5119,6.4947,1.4545,0.1,0.00043542,4351.2,0.00043692,4396.8,-0.00013592,92.673,-0.00014826,-0.010724,0.38814
5120,6.3104,1.4545,0.1,0.00044062,4403.2,0.00044224,4452.5,-0.00013698,100.44,-0.00015035,-0.012547,0.37044
5121,6.1261,1.4545,0.1,0.00044583,4455.2,0.00044757,4508.5,-0.00013801,108.62,-0.00015247,-0.014846,0.35304
5122,5.9419,1.4545,0.1,0.00045104,4507.3,0.00045292,4564.7,-0.00013901,117.19,-0.00015461,-0.017755,0.33594
5123,5.7576,1.4545,0.1,0.00045626,4559.5,0.00045827,4621.2,-0.00013998,126.13,-0.00015677,-0.02145,0.31916
5124,5.5733,1.4545,0.1,0.00046149,4611.8,0.00046365,4678,-0.00014093,135.4,-0.00015895,-0.026164,0.30268
5125,5.3891,1.4545,0.1,0.00046674,4664.2,0.00046904,4735,-0.00014186,144.93,-0.00016115,-0.03221,0.28652
5126,5.2048,1.4545,0.1,0.00047202,4716.9,0.00047446,4792.3,-0.00014278,154.64,-0.00016337,-0.040008,0.27068
5127,5.0205,1.4545,0.1,0.00047732,4769.9,0.0004799,4849.9,-0.0001437,164.43,-0.00016559,-0.050131,0.25516
5128,4.8363,1.4545,0.1,0.00048265,4823.2,0.00048537,4907.8,-0.00014464,174.14,-0.00016783,-0.063366,0.23997
5129,4.652,1.4545,0.1,0.00048803,4876.9,0.00049089,4966,-0.00014562,183.59,-0.00017006,-0.08081,0.2251
5130,4.4677,1.4545,0.1,0.00049345,4931.1,0.00049644,5024.5,-0.00014665,192.56,-0.00017229,-0.10401,0.21057
5131,4.2835,1.4545,0.1,0.00049894,4985.9,0.00050205,5083.2,-0.00014777,200.76,-0.00017451,-0.13519,0.19638
5132,4.0992,1.4545,0.1,0.0005045,5041.5,0.00050771,5142.1,-0.000149,207.82,-0.00017669,-0.17757,0.18253
5133,3.9149,1.4545,0.1,0.00051013,5097.8,0.00051342,5201,-0.0001504,213.29,-0.00017882,-0.236,0.16902
5134,3.7307,1.4545,0.1,0.00051586,5155,0.00051919,5259.7,-0.00015201,216.59,-0.00018088,-0.31789,0.15586
5135,3.5464,1.4545,0.1,0.00052169,5213.3,0.00052503,5318.1,-0.00015389,216.97,-0.00018283,-0.4351,0.14305
5136,3.3621,1.4545,0.1,0.00052763,5272.6,0.00053092,5375.8,-0.00015614,213.45,-0.00018463,-0.60766,0.1306
5137,3.1779,1.4545,0.1,0.00053371,5333.4,0.00053688,5432.3,-0.00015888,204.67,-0.00018624,-0.87206,0.11851
5138,2.9936,1.4545,0.1,0.00053996,5395.9,0.0005429,5487.1,-0.00016227,188.74,-0.00018756,-1.3028,0.10679
5139,2.8093,1.4545,0.1,0.00054647,5461,0.00054902,5539.5,-0.00016656,162.93,-0.00018852,-2.0814,0.095435
5140,2.6251,1.4545,0.1,0.00055339,5530.1,0.00055531,5588.8,-0.00017209,123.36,-0.00018901,-3.7949,0.084453
5141,2.4408,1.4545,0.1,0.000561,5606.2,0.00056193,5634.1,-0.00017909,66.358,-0.00018922,-9.7754,0.073847
5142,2.2565,1.4545,0.1,0.00056988,5694.8,0.00056917,5674.8,-0.00018393,16.294,-0.0001935,-55.63,0.06362
5143,2.0723,1.4545,0.1,0.00058102,5806.2,0.00057759,5710.3,-0.00018152,6.6911,-0.00020813,-193.25,0.053776
5144,1.888,1.4545,0.1,0.00059623,5958.2,0.00058804,5739.6,-0.00017521,4.7828,-0.00023166,-419.4,0.044313
5145,1.7037,1.4545,0.1,0.0006184,6179.8,0.00060158,5757.3,-0.00016407,4.4919,-0.00026786,-775.41,0.035227
5146,1.5195,1.4545,0.1,0.0006522,6517.5,0.00061932,5751.5,-0.00014558,4.403,-0.00032315,-1329.8,0.02651
5147,1.3352,1.4545,0.1,0.0007007,7002.1,0.00063834,5665.5,-0.00011553,1.2203,-0.00040361,-2163.3,0.018137
5148,1.1509,1.4545,0.1,0.00080094,8003.9,0.0006807,5657.2,-6.7328e-05,36.844,-0.00053895,-3506.7,0.01009
5149,23.816,1.6364,0.1,1.7443e-05,174.31,8.9848e-06,39.921,3.6494e-06,-0.16689,-1.6417e-05,-150.94,2.9048
5150,23.631,1.6364,0.1,1.922e-05,192.07,1.2484e-05,78.241,2.0299e-06,-0.31053,-1.6648e-05,-140.65,2.8737
5151,23.447,1.6364,0.1,2.146e-05,214.45,1.5995e-05,116.6,4.5921e-07,-0.1295,-1.6945e-05,-130.9,2.8426
5152,23.263,1.6364,0.1,2.4037e-05,240.2,1.9523e-05,154.84,-1.1004e-06,-0.11354,-1.7304e-05,-121.86,2.8115
5153,23.079,1.6364,0.1,2.6862e-05,268.44,2.3068e-05,193.05,-2.636e-06,-0.08307,-1.7728e-05,-113.48,2.7805
5154,22.894,1.6364,0.1,2.9877e-05,298.57,2.6639e-05,231.29,-4.1528e-06,-0.068623,-1.8217e-05,-105.74,2.7494
5155,22.71,1.6364,0.1,3.3041e-05,330.18,3.0239e-05,269.62,-5.6524e-06,-0.05686,-1.8771e-05,-98.621,2.7184
5156,22.526,1.6364,0.1,3.6323e-05,362.98,3.387e-05,308.06,-7.1374e-06,-0.048496,-1.9385e-05,-92.074,2.6874
5157,22.342,1.6364,0.1,3.9704e-05,396.76,3.7533e-05,346.66,-8.6099e-06,-0.041942,-2.0058e-05,-86.057,2.6564
5158,22.157,1.6364,0.1,4.3166e-05,431.36,4.1228e-05,385.41,-1.0072e-05,-0.036766,-2.0784e-05,-80.526,2.6254
5159,21.973,1.6364,0.1,4.67e-05,466.67,4.4956e-05,424.35,-1.1525e-05,-0.032562,-2.1561e-05,-75.439,2.5945
5160,21.789,1.6364,0.1,5.0294e-05,502.6,4.8715e-05,463.46,-1.2971e-05,-0.029094,-2.2384e-05,-70.755,2.5636
5161,21.605,1.6364,0.1,5.3944e-05,539.07,5.2505e-05,502.76,-1.4411e-05,-0.026201,-2.325e-05,-66.44,2.5327
5162,21.42,1.6364,0.1,5.7642e-05,576.03,5.6325e-05,542.24,-1.5846e-05,-0.023758,-2.4156e-05,-62.459,2.5018
5163,21.236,1.6364,0.1,6.1386e-05,613.43,6.0174e-05,581.92,-1.7277e-05,-0.021666,-2.5098e-05,-58.783,2.471
5164,21.052,1.6364,0.1,6.517e-05,651.25,6.4051e-05,621.78,-1.8706e-05,-0.019857,-2.6075e-05,-55.385,2.4403
5165,20.867,1.6364,0.1,6.8993e-05,689.45,6.7955e-05,661.84,-2.0132e-05,-0.018279,-2.7083e-05,-52.243,2.4095
5166,20.683,1.6364,0.1,7.2852e-05,728.02,7.1887e-05,702.09,-2.1557e-05,-0.016901,-2.8121e-05,-49.335,2.3789
5167,20.499,1.6364,0.1,7.6745e-05,766.92,7.5845e-05,742.53,-2.2982e-05,-0.015694,-2.9187e-05,-46.64,2.3482
5168,20.315,1.6364,0.1,8.0671e-05,806.16,7.9829e-05,783.17,-2.4406e-05,-0.014615,-3.0279e-05,-44.143,2.3177
5169,20.13,1.6364,0.1,8.4628e-05,845.7,8.3839e-05,824,-2.5831e-05,-0.013651,-3.1396e-05,-41.828,2.2872
5170,19.946,1.6364,0.1,8.8616e-05,885.55,8.7874e-05,865.04,-2.7257e-05,-0.012775,-3.2536e-05,-39.679,2.2567
5171,19.762,1.6364,0.1,9.2633e-05,925.69,9.1934e-05,906.26,-2.8684e-05,-0.011994,-3.3698e-05,-37.684,2.2263
5172,19.578,1.6364,0.1,9.6677e-05,966.11,9.6018e-05,947.69,-3.0113e-05,-0.011299,-3.4881e-05,-35.832,2.1959
5173,19.393,1.6364,0.1,0.00010075,1006.8,0.00010013,989.31,-3.1544e-05,-0.010657,-3.6083e-05,-34.109,2.1657
5174,19.209,1.6364,0.1,0.00010485,1047.8,0.00010426,1031.1,-3.2978e-05,-0.010071,-3.7304e-05,-32.508,2.1355
5175,19.025,1.6364,0.1,0.00010898,1089,0.00010841,1073.2,-3.4415e-05,-0.0095199,-3.8542e-05,-31.017,2.1053
5176,18.841,1.6364,0.1,0.00011313,1130.5,0.00011259,1115.4,-3.5855e-05,-0.009027,-3.9797e-05,-29.629,2.0752
5177,18.656,1.6364,0.1,0.0001173,1172.2,0.0001168,1157.8,-3.7299e-05,-0.0085887,-4.1069e-05,-28.335,2.0453
5178,18.472,1.6364,0.1,0.0001215,1214.2,0.00012102,1200.4,-3.8746e-05,-0.0081709,-4.2355e-05,-27.128,2.0153
5179,18.288,1.6364,0.1,0.00012573,1256.4,0.00012527,1243.2,-4.0197e-05,-0.0077826,-4.3657e-05,-26,1.9855
5180,18.103,1.6364,0.1,0.00012998,1298.9,0.00012954,1286.3,-4.1653e-05,-0.0074061,-4.4972e-05,-24.946,1.9558
5181,17.919,1.6364,0.1,0.00013425,1341.6,0.00013383,1329.5,-4.3112e-05,-0.0070722,-4.63e-05,-23.958,1.9261
5182,17.735,1.6364,0.1,0.00013855,1384.6,0.00013815,1372.9,-4.4577e-05,-0.0067778,-4.7641e-05,-23.032,1.8965
5183,17.551,1.6364,0.1,0.00014287,1427.7,0.00014248,1416.5,-4.6046e-05,-0.0064899,-4.8995e-05,-22.162,1.8671
5184,17.366,1.6364,0.1,0.00014721,1471.1,0.00014684,1460.3,-4.752e-05,-0.0062155,-5.036e-05,-21.343,1.8377
5185,17.182,1.6364,0.1,0.00015158,1514.8,0.00015122,1504.4,-4.8999e-05,-0.0059418,-5.1736e-05,-20.569,1.8084
5186,16.998,1.6364,0.1,0.00015597,1558.6,0.00015562,1548.6,-5.0484e-05,-0.0057021,-5.3123e-05,-19.838,1.7792
5187,16.814,1.6364,0.1,0.00016038,1602.7,0.00016004,1593,-5.1974e-05,-0.0054968,-5.4521e-05,-19.143,1.7502
5188,16.629,1.6364,0.1,0.00016481,1646.9,0.00016449,1637.6,-5.3469e-05,-0.0052862,-5.5928e-05,-18.482,1.7212
5189,16.445,1.6364,0.1,0.00016926,1691.4,0.00016895,1682.4,-5.497e-05,-0.0050844,-5.7345e-05,-17.851,1.6924
5190,16.261,1.6364,0.1,0.00017374,1736.2,0.00017344,1727.5,-5.6477e-05,-0.0048705,-5.8772e-05,-17.245,1.6636
5191,16.077,1.6364,0.1,0.00017823,1781.1,0.00017794,1772.7,-5.799e-05,-0.0046881,-6.0207e-05,-16.662,1.635
5192,15.892,1.6364,0.1,0.00018275,1826.2,0.00018247,1818.1,-5.9508e-05,-0.0045385,-6.165e-05,-16.098,1.6065
5193,15.708,1.6364,0.1,0.00018729,1871.6,0.00018702,1863.7,-6.1033e-05,-0.004375,-6.3102e-05,-15.549,1.5781
5194,15.524,1.6364,0.1,0.00019184,1917.1,0.00019158,1909.6,-6.2564e-05,-0.0042128,-6.4561e-05,-15.013,1.5499
5195,15.339,1.6364,0.1,0.00019642,1962.9,0.00019617,1955.6,-6.4101e-05,-0.0040336,-6.6028e-05,-14.486,1.5218
5196,15.155,1.6364,0.1,0.00020102,2008.8,0.00020078,2001.8,-6.5644e-05,-0.0038833,-6.7502e-05,-13.965,1.4938
5197,14.971,1.6364,0.1,0.00020564,2055,0.00020541,2048.2,-6.7194e-05,-0.0037636,-6.8984e-05,-13.447,1.4659
5198,14.787,1.6364,0.1,0.00021028,2101.3,0.00021006,2094.8,-6.8751e-05,-0.0036224,-7.0471e-05,-12.93,1.4382
5199,14.602,1.6364,0.1,0.00021494,2147.9,0.00021472,2141.7,-7.0314e-05,-0.0034775,-7.1965e-05,-12.409,1.4107
5200,14.418,1.6364,0.1,0.00021962,2194.6,0.00021941,2188.7,-7.1884e-05,-0.0033064,-7.3465e-05,-11.882,1.3832
5201,14.234,1.6364,0.1,0.00022431,2241.6,0.00022412,2235.9,-7.3461e-05,-0.0031619,-7.497e-05,-11.346,1.356
5202,14.05,1.6364,0.1,0.00022903,2288.7,0.00022884,2283.3,-7.5045e-05,-0.0030438,-7.6481e-05,-10.798,1.3288
5203,13.865,1.6364,0.1,0.00023377,2336,0.00023359,2330.9,-7.6635e-05,-0.0028936,-7.7997e-05,-10.233,1.3019
5204,13.681,1.6364,0.1,0.00023852,2383.6,0.00023835,2378.7,-7.8233e-05,-0.0027296,-7.9517e-05,-9.6498,1.2751
5205,13.497,1.6364,0.1,0.00024329,2431.3,0.00024314,2426.7,-7.9839e-05,-0.0025251,-8.1042e-05,-9.0437,1.2484
5206,13.313,1.6364,0.1,0.00024808,2479.1,0.00024794,2474.9,-8.1451e-05,-0.0023338,-8.257e-05,-8.4112,1.2219
5207,13.128,1.6364,0.1,0.00025289,2527.2,0.00025276,2523.3,-8.3071e-05,-0.00215,-8.4102e-05,-7.7486,1.1956
5208,12.944,1.6364,0.1,0.00025772,2575.4,0.0002576,2571.9,-8.4699e-05,-0.0019027,-8.5637e-05,-7.0517,1.1695
5209,12.76,1.6364,0.1,0.00026257,2623.9,0.00026246,2620.7,-8.6334e-05,-0.0015954,-8.7175e-05,-6.3163,1.1435
5210,12.575,1.6364,0.1,0.00026743,2672.5,0.00026734,2669.7,-8.7978e-05,-0.0011731,-8.8715e-05,-5.5378,1.1177
5211,12.391,1.6364,0.1,0.00027231,2721.2,0.00027223,2718.9,-8.9629e-05,-0.00064872,-9.0256e-05,-4.7117,1.0921
5212,12.207,1.6364,0.1,0.00027721,2770.2,0.00027714,2768.2,-9.1288e-05,9.2843e-05,-9.1799e-05,-3.8329,1.0667
5213,12.023,1.6364,0.1,0.00028212,2819.3,0.00028207,2817.8,-9.2956e-05,0.0013933,-9.3342e-05,-2.8962,1.0415
5214,11.838,1.6364,0.1,0.00028705,2868.5,0.00028702,2867.6,-9.4632e-05,0.0041503,-9.4885e-05,-1.8967,1.0164
5215,11.654,1.6364,0.1,0.000292,2917.9,0.00029198,2917.5,-9.6316e-05,0.01425,-9.6429e-05,-0.83401,0.99158
5216,11.47,1.6364,0.1,0.00029696,2967.5,0.00029696,2967.7,-9.7963e-05,0.37287,-9.8018e-05,-0.042904,0.96693
5217,11.286,1.6364,0.1,0.00030193,3017.2,0.00030196,3018,-9.9506e-05,1.5767,-9.9717e-05,-0.012913,0.94248
5218,11.101,1.6364,0.1,0.00030692,3067.1,0.00030697,3068.6,-0.00010104,2.8981,-0.00010143,-0.0086047,0.91823
5219,10.917,1.6364,0.1,0.00031193,3117.1,0.000312,3119.3,-0.00010258,4.3221,-0.00010315,-0.0068793,0.8942
5220,10.733,1.6364,0.1,0.00031695,3167.3,0.00031705,3170.2,-0.0001041,5.8558,-0.00010488,-0.0059023,0.87037
5221,10.549,1.6364,0.1,0.00032198,3217.6,0.00032211,3221.3,-0.00010563,7.5081,-0.00010663,-0.0053102,0.84676
5222,10.364,1.6364,0.1,0.00032702,3268,0.00032718,3272.6,-0.00010714,9.2888,-0.00010838,-0.0049362,0.82337
5223,10.18,1.6364,0.1,0.00033208,3318.5,0.00033227,3324.1,-0.00010865,11.209,-0.00011014,-0.0046205,0.8002
5224,9.9957,1.6364,0.1,0.00033715,3369.2,0.00033737,3375.8,-0.00011015,13.28,-0.00011192,-0.0043851,0.77726
5225,9.8115,1.6364,0.1,0.00034223,3419.9,0.00034249,3427.7,-0.00011164,15.515,-0.0001137,-0.0042009,0.75454
5226,9.6272,1.6364,0.1,0.00034732,3470.8,0.00034762,3479.7,-0.00011312,17.927,-0.0001155,-0.0040451,0.73206
5227,9.4429,1.6364,0.1,0.00035242,3521.7,0.00035276,3531.9,-0.00011458,20.531,-0.00011731,-0.0039271,0.70981
5228,9.2587,1.6364,0.1,0.00035752,3572.8,0.00035791,3584.4,-0.00011603,23.341,-0.00011914,-0.0038315,0.68781
5229,9.0744,1.6364,0.1,0.00036264,3623.9,0.00036308,3637,-0.00011746,26.374,-0.00012097,-0.0037591,0.66604
5230,8.8901,1.6364,0.1,0.00036776,3675.1,0.00036825,3689.8,-0.00011888,29.648,-0.00012283,-0.0037087,0.64453
5231,8.7059,1.6364,0.1,0.00037289,3726.3,0.00037344,3742.8,-0.00012028,33.182,-0.00012469,-0.0036808,0.62326
5232,8.5216,1.6364,0.1,0.00037802,3777.6,0.00037863,3795.9,-0.00012165,36.994,-0.00012657,-0.0036779,0.60224
5233,8.3373,1.6364,0.1,0.00038315,3828.9,0.00038384,3849.3,-0.000123,41.106,-0.00012847,-0.0037022,0.58149
5234,8.1531,1.6364,0.1,0.00038829,3880.3,0.00038905,3902.8,-0.00012433,45.539,-0.00013039,-0.0037606,0.56099
5235,7.9688,1.6364,0.1,0.00039344,3931.6,0.00039427,3956.6,-0.00012562,50.317,-0.00013232,-0.0038575,0.54076
5236,7.7845,1.6364,0.1,0.00039858,3983,0.00039949,4010.5,-0.00012689,55.463,-0.00013427,-0.0040041,0.52079
5237,7.6003,1.6364,0.1,0.00040372,4034.4,0.00040472,4064.6,-0.00012812,61.001,-0.00013624,-0.0042112,0.5011
5238,7.416,1.6364,0.1,0.00040886,4085.8,0.00040996,4118.9,-0.00012932,66.957,-0.00013823,-0.0044944,0.48168
5239,7.2317,1.6364,0.1,0.00041401,4137.2,0.00041521,4173.4,-0.00013048,73.356,-0.00014024,-0.0048723,0.46254
5240,7.0475,1.6364,0.1,0.00041915,4188.6,0.00042045,4228.1,-0.0001316,80.223,-0.00014227,-0.0053716,0.44368
5241,6.8632,1.6364,0.1,0.00042429,4239.9,0.00042571,4283,-0.00013267,87.583,-0.00014433,-0.0060243,0.42511
5242,6.6789,1.6364,0.1,0.00042942,4291.3,0.00043097,4338.2,-0.00013371,95.458,-0.00014641,-0.0068729,0.40682
5243,6.4947,1.6364,0.1,0.00043456,4342.6,0.00043623,4393.6,-0.00013469,103.87,-0.00014852,-0.0079719,0.38883
5244,6.3104,1.6364,0.1,0.0004397,4394,0.00044151,4449.3,-0.00013564,112.84,-0.00015065,-0.0093927,0.37114
5245,6.1261,1.6364,0.1,0.00044484,4445.3,0.0004468,4505.2,-0.00013653,122.37,-0.00015282,-0.011228,0.35374
5246,5.9419,1.6364,0.1,0.00044999,4496.8,0.00045209,4561.5,-0.00013738,132.49,-0.00015501,-0.013598,0.33665
5247,5.7576,1.6364,0.1,0.00045514,4548.3,0.00045741,4618.2,-0.00013818,143.17,-0.00015723,-0.016664,0.31986
5248,5.5733,1.6364,0.1,0.00046031,4600,0.00046275,4675.2,-0.00013894,154.42,-0.00015949,-0.020638,0.30339
5249,5.3891,1.6364,0.1,0.00046551,4651.9,0.00046811,4732.8,-0.00013965,166.22,-0.00016178,-0.025801,0.28723
5250,5.2048,1.6364,0.1,0.00047074,4704.1,0.00047352,4790.8,-0.00014034,178.51,-0.0001641,-0.032532,0.27139
5251,5.0205,1.6364,0.1,0.00047601,4756.8,0.00047898,4849.5,-0.00014101,191.24,-0.00016647,-0.041343,0.25587
5252,4.8363,1.6364,0.1,0.00048135,4810.2,0.0004845,4909,-0.00014166,204.32,-0.00016886,-0.052927,0.24067
5253,4.652,1.6364,0.1,0.00048676,4864.3,0.0004901,4969.4,-0.00014232,217.62,-0.0001713,-0.068239,0.22581
5254,4.4677,1.6364,0.1,0.00049229,4919.5,0.00049581,5030.8,-0.00014301,230.99,-0.00017377,-0.088598,0.21127
5255,4.2835,1.6364,0.1,0.00049795,4976,0.00050165,5093.6,-0.00014376,244.2,-0.00017628,-0.11585,0.19708
5256,4.0992,1.6364,0.1,0.00050378,5034.3,0.00050766,5157.8,-0.00014461,256.96,-0.00017883,-0.15261,0.18322
5257,3.9149,1.6364,0.1,0.00050984,5094.8,0.00051387,5223.8,-0.00014559,268.89,-0.00018141,-0.20264,0.16971
5258,3.7307,1.6364,0.1,0.00051617,5158.2,0.00052035,5292.1,-0.00014678,279.47,-0.00018401,-0.27145,0.15655
5259,3.5464,1.6364,0.1,0.00052286,5225,0.00052716,5362.9,-0.00014826,288.03,-0.00018665,-0.36736,0.14374
5260,3.3621,1.6364,0.1,0.00053,5296.4,0.00053437,5436.8,-0.00015014,293.62,-0.00018928,-0.50339,0.13129
5261,3.1779,1.6364,0.1,0.00053772,5373.5,0.00054211,5514.5,-0.00015257,294.87,-0.00019191,-0.70108,0.1192
5262,2.9936,1.6364,0.1,0.00054619,5458.1,0.00055052,5596.7,-0.00015578,289.84,-0.00019449,-0.9986,0.10748
5263,2.8093,1.6364,0.1,0.00055567,5552.9,0.00055982,5684.8,-0.0001601,275.58,-0.00019697,-1.4729,0.096137
5264,2.6251,1.6364,0.1,0.00056656,5661.7,0.00057032,5780.2,-0.00016603,247.59,-0.00019928,-2.3006,0.085173
5265,2.4408,1.6364,0.1,0.00057947,5790.7,0.00058252,5885.5,-0.00017431,198.95,-0.00020133,-4.0418,0.074595
5266,2.2565,1.6364,0.1,0.00059542,5950.1,0.0005972,6004.4,-0.00018594,120.27,-0.0002032,-9.4444,0.064412
5267,2.0723,1.6364,0.1,0.00061613,6157,0.00061561,6142.7,-0.00019808,28.919,-0.00020947,-56.655,0.054631
5268,1.888,1.6364,0.1,0.00064447,6440.2,0.0006397,6308.6,-0.00019861,9.8935,-0.0002351,-264.29,0.045259
5269,1.7037,1.6364,0.1,0.00068605,6855.8,0.00067288,6513.2,-0.00019344,3.9863,-0.00027959,-643.29,0.036304
5270,1.5195,1.6364,0.1,0.00074847,7479.5,0.00071835,6760.2,-0.00017906,17.399,-0.00035241,-1285.1,0.027771
5271,1.3352,1.6364,0.1,0.00085175,8511.6,0.00078393,7029,-0.00015252,-7.0681,-0.00047524,-2431.9,0.019655
5272,1.1509,1.6364,0.1,0.0010436,10429,0.00088437,7296.6,-9.0202e-05,-25.978,-0.0007048,-4643.8,0.011938
5273,23.816,1.8182,0.1,1.813e-05,181.17,9.2143e-06,39.893,3.881e-06,-0.1795,-1.7119e-05,-157.96,2.9049
5274,23.631,1.8182,0.1,1.9888e-05,198.74,1.2732e-05,78.411,2.2542e-06,-0.31715,-1.7353e-05,-147.64,2.8738
5275,23.447,1.8182,0.1,2.2098e-05,220.82,1.6257e-05,116.95,6.7374e-07,-0.13423,-1.7643e-05,-137.76,2.8427
5276,23.263,1.8182,0.1,2.4639e-05,246.22,1.9794e-05,155.35,-8.9717e-07,-0.11773,-1.7989e-05,-128.54,2.8116
5277,23.079,1.8182,0.1,2.7428e-05,274.09,2.3344e-05,193.68,-2.4449e-06,-0.086864,-1.8392e-05,-119.91,2.7806
5278,22.894,1.8182,0.1,3.0404e-05,303.83,2.6914e-05,232.01,-3.9742e-06,-0.07218,-1.8855e-05,-111.88,2.7495
5279,22.71,1.8182,0.1,3.3529e-05,335.06,3.0508e-05,270.38,-5.4862e-06,-0.060244,-1.9378e-05,-104.43,2.7185
5280,22.526,1.8182,0.1,3.6772e-05,367.47,3.4128e-05,308.84,-6.9831e-06,-0.05175,-1.9958e-05,-97.538,2.6875
5281,22.342,1.8182,0.1,4.0114e-05,400.87,3.7778e-05,347.42,-8.4669e-06,-0.045083,-2.0594e-05,-91.16,2.6565
5282,22.157,1.8182,0.1,4.354e-05,435.1,4.1458e-05,386.14,-9.9396e-06,-0.039802,-2.1283e-05,-85.267,2.6255
5283,21.973,1.8182,0.1,4.7037e-05,470.05,4.5168e-05,425.01,-1.1403e-05,-0.035504,-2.2022e-05,-79.824,2.5946
5284,21.789,1.8182,0.1,5.0598e-05,505.63,4.8909e-05,464.06,-1.2858e-05,-0.031939,-2.2808e-05,-74.796,2.5637
5285,21.605,1.8182,0.1,5.4215e-05,541.78,5.268e-05,503.28,-1.4306e-05,-0.028951,-2.3639e-05,-70.15,2.5328
5286,21.42,1.8182,0.1,5.7884e-05,578.44,5.6481e-05,542.68,-1.5749e-05,-0.026419,-2.451e-05,-65.857,2.502
5287,21.236,1.8182,0.1,6.1599e-05,615.57,6.0312e-05,582.28,-1.7187e-05,-0.024235,-2.5421e-05,-61.888,2.4712
5288,21.052,1.8182,0.1,6.5358e-05,653.13,6.4172e-05,622.06,-1.8622e-05,-0.022338,-2.6367e-05,-58.217,2.4404
5289,20.867,1.8182,0.1,6.9157e-05,691.09,6.8061e-05,662.04,-2.0054e-05,-0.020674,-2.7347e-05,-54.82,2.4097
5290,20.683,1.8182,0.1,7.2994e-05,729.44,7.1977e-05,702.22,-2.1485e-05,-0.019216,-2.836e-05,-51.675,2.379
5291,20.499,1.8182,0.1,7.6867e-05,768.14,7.5921e-05,742.59,-2.2914e-05,-0.017932,-2.9401e-05,-48.763,2.3484
5292,20.315,1.8182,0.1,8.0775e-05,807.19,7.9892e-05,783.16,-2.4343e-05,-0.016779,-3.0471e-05,-46.065,2.3178
5293,20.13,1.8182,0.1,8.4715e-05,846.57,8.389e-05,823.94,-2.5772e-05,-0.015742,-3.1568e-05,-43.565,2.2873
5294,19.946,1.8182,0.1,8.8687e-05,886.26,8.7913e-05,864.91,-2.7201e-05,-0.014801,-3.2689e-05,-41.248,2.2568
5295,19.762,1.8182,0.1,9.269e-05,926.26,9.1963e-05,906.09,-2.8632e-05,-0.013957,-3.3834e-05,-39.098,2.2264
5296,19.578,1.8182,0.1,9.6722e-05,966.56,9.6038e-05,947.46,-3.0064e-05,-0.0132,-3.5e-05,-37.103,2.1961
5297,19.393,1.8182,0.1,0.00010078,1007.1,0.00010014,989.05,-3.1498e-05,-0.012506,-3.6188e-05,-35.251,2.1658
5298,19.209,1.8182,0.1,0.00010487,1048,0.00010426,1030.8,-3.2935e-05,-0.011865,-3.7396e-05,-33.53,2.1356
5299,19.025,1.8182,0.1,0.00010899,1089.1,0.00010841,1072.8,-3.4374e-05,-0.011263,-3.8622e-05,-31.931,2.1055
5300,18.841,1.8182,0.1,0.00011313,1130.5,0.00011258,1115,-3.5816e-05,-0.010725,-3.9867e-05,-30.443,2.0754
5301,18.656,1.8182,0.1,0.0001173,1172.2,0.00011678,1157.4,-3.7262e-05,-0.01024,-4.1128e-05,-29.058,2.0454
5302,18.472,1.8182,0.1,0.0001215,1214.1,0.000121,1200,-3.8711e-05,-0.0097796,-4.2405e-05,-27.768,2.0155
5303,18.288,1.8182,0.1,0.00012572,1256.3,0.00012524,1242.8,-4.0164e-05,-0.0093517,-4.3698e-05,-26.564,1.9857
5304,18.103,1.8182,0.1,0.00012996,1298.7,0.00012951,1285.8,-4.1621e-05,-0.0089358,-4.5006e-05,-25.44,1.956
5305,17.919,1.8182,0.1,0.00013423,1341.4,0.0001338,1329,-4.3082e-05,-0.008567,-4.6327e-05,-24.389,1.9263
5306,17.735,1.8182,0.1,0.00013852,1384.2,0.00013811,1372.4,-4.4548e-05,-0.0082376,-4.7662e-05,-23.405,1.8968
5307,17.551,1.8182,0.1,0.00014284,1427.4,0.00014244,1416,-4.6019e-05,-0.0079156,-4.901e-05,-22.481,1.8673
5308,17.366,1.8182,0.1,0.00014718,1470.7,0.0001468,1459.8,-4.7494e-05,-0.0076123,-5.0369e-05,-21.612,1.8379
5309,17.182,1.8182,0.1,0.00015154,1514.3,0.00015117,1503.8,-4.8975e-05,-0.0073064,-5.1741e-05,-20.793,1.8087
5310,16.998,1.8182,0.1,0.00015592,1558.1,0.00015557,1548,-5.046e-05,-0.0070398,-5.3124e-05,-20.019,1.7795
5311,16.814,1.8182,0.1,0.00016033,1602.2,0.00015999,1592.5,-5.1951e-05,-0.0068066,-5.4517e-05,-19.286,1.7504
5312,16.629,1.8182,0.1,0.00016476,1646.4,0.00016443,1637.1,-5.3447e-05,-0.0065703,-5.592e-05,-18.588,1.7215
5313,16.445,1.8182,0.1,0.00016921,1690.9,0.0001689,1681.9,-5.4949e-05,-0.0063428,-5.7334e-05,-17.923,1.6926
5314,16.261,1.8182,0.1,0.00017368,1735.6,0.00017338,1726.9,-5.6457e-05,-0.0061076,-5.8757e-05,-17.285,1.6639
5315,16.077,1.8182,0.1,0.00017817,1780.5,0.00017788,1772.1,-5.797e-05,-0.0059021,-6.0188e-05,-16.671,1.6353
5316,15.892,1.8182,0.1,0.00018269,1825.6,0.00018241,1817.5,-5.949e-05,-0.0057298,-6.1629e-05,-16.078,1.6068
5317,15.708,1.8182,0.1,0.00018722,1871,0.00018696,1863.2,-6.1015e-05,-0.0055453,-6.3078e-05,-15.502,1.5784
5318,15.524,1.8182,0.1,0.00019178,1916.5,0.00019152,1909,-6.2547e-05,-0.005364,-6.4534e-05,-14.939,1.5502
5319,15.339,1.8182,0.1,0.00019636,1962.2,0.00019611,1955,-6.4085e-05,-0.005165,-6.5999e-05,-14.385,1.5221
5320,15.155,1.8182,0.1,0.00020096,2008.2,0.00020072,2001.2,-6.5629e-05,-0.0049966,-6.747e-05,-13.839,1.4941
5321,14.971,1.8182,0.1,0.00020557,2054.3,0.00020534,2047.6,-6.718e-05,-0.004858,-6.8949e-05,-13.295,1.4663
5322,14.787,1.8182,0.1,0.00021021,2100.6,0.00020999,2094.2,-6.8737e-05,-0.0046998,-7.0434e-05,-12.752,1.4386
5323,14.602,1.8182,0.1,0.00021487,2147.2,0.00021466,2141.1,-7.0301e-05,-0.0045381,-7.1925e-05,-12.205,1.411
5324,14.418,1.8182,0.1,0.00021954,2193.9,0.00021934,2188.1,-7.1872e-05,-0.0043506,-7.3422e-05,-11.652,1.3836
5325,14.234,1.8182,0.1,0.00022424,2240.8,0.00022405,2235.3,-7.3449e-05,-0.0041915,-7.4924e-05,-11.089,1.3563
5326,14.05,1.8182,0.1,0.00022895,2288,0.00022877,2282.7,-7.5034e-05,-0.0040561,-7.6432e-05,-10.512,1.3292
5327,13.865,1.8182,0.1,0.00023369,2335.3,0.00023352,2330.3,-7.6625e-05,-0.003892,-7.7945e-05,-9.9182,1.3022
5328,13.681,1.8182,0.1,0.00023844,2382.8,0.00023828,2378.1,-7.8224e-05,-0.0037126,-7.9462e-05,-9.3038,1.2754
5329,13.497,1.8182,0.1,0.00024321,2430.4,0.00024306,2426.1,-7.983e-05,-0.0034931,-8.0983e-05,-8.6649,1.2488
5330,13.313,1.8182,0.1,0.000248,2478.3,0.00024786,2474.3,-8.1444e-05,-0.0032875,-8.2508e-05,-7.9977,1.2223
5331,13.128,1.8182,0.1,0.00025281,2526.3,0.00025268,2522.7,-8.3065e-05,-0.003087,-8.4036e-05,-7.298,1.196
5332,12.944,1.8182,0.1,0.00025763,2574.5,0.00025752,2571.3,-8.4694e-05,-0.0028189,-8.5566e-05,-6.5615,1.1699
5333,12.76,1.8182,0.1,0.00026247,2622.9,0.00026238,2620,-8.633e-05,-0.0024837,-8.7099e-05,-5.7835,1.1439
5334,12.575,1.8182,0.1,0.00026733,2671.5,0.00026725,2669,-8.7974e-05,-0.0020204,-8.8634e-05,-4.9593,1.1181
5335,12.391,1.8182,0.1,0.00027221,2720.2,0.00027214,2718.2,-8.9627e-05,-0.0014152,-9.017e-05,-4.0838,1.0925
5336,12.207,1.8182,0.1,0.0002771,2769.1,0.00027705,2767.5,-9.1288e-05,-0.00049074,-9.1707e-05,-3.1518,1.0671
5337,12.023,1.8182,0.1,0.00028201,2818.2,0.00028198,2817.1,-9.2957e-05,0.0013623,-9.3244e-05,-2.1578,1.0419
5338,11.838,1.8182,0.1,0.00028694,2867.4,0.00028692,2866.8,-9.4634e-05,0.0068975,-9.4781e-05,-1.0985,1.0169
5339,11.654,1.8182,0.1,0.00029188,2916.8,0.00029188,2916.8,-9.6303e-05,0.13839,-9.6334e-05,-0.089285,0.99202
5340,11.47,1.8182,0.1,0.00029683,2966.3,0.00029685,2966.9,-9.7847e-05,1.286,-9.8019e-05,-0.013417,0.96738
5341,11.286,1.8182,0.1,0.0003018,3015.9,0.00030185,3017.2,-9.9377e-05,2.5952,-9.9724e-05,-0.0086412,0.94294
5342,11.101,1.8182,0.1,0.00030679,3065.7,0.00030685,3067.7,-0.0001009,4.0065,-0.00010144,-0.0069278,0.9187
5343,10.917,1.8182,0.1,0.00031178,3115.7,0.00031188,3118.4,-0.00010243,5.5262,-0.00010316,-0.0060173,0.89467
5344,10.733,1.8182,0.1,0.00031679,3165.8,0.00031692,3169.3,-0.00010394,7.1637,-0.0001049,-0.0054008,0.87085
5345,10.549,1.8182,0.1,0.00032182,3216,0.00032197,3220.4,-0.00010545,8.9288,-0.00010664,-0.0049925,0.84725
5346,10.364,1.8182,0.1,0.00032685,3266.3,0.00032703,3271.7,-0.00010696,10.832,-0.0001084,-0.0047167,0.82386
5347,10.18,1.8182,0.1,0.0003319,3316.7,0.00033212,3323.1,-0.00010845,12.887,-0.00011016,-0.0044535,0.8007
5348,9.9957,1.8182,0.1,0.00033695,3367.2,0.00033721,3374.7,-0.00010993,15.105,-0.00011194,-0.0042399,0.77776
5349,9.8115,1.8182,0.1,0.00034202,3417.8,0.00034231,3426.6,-0.0001114,17.499,-0.00011373,-0.0040557,0.75506
5350,9.6272,1.8182,0.1,0.0003471,3468.6,0.00034743,3478.6,-0.00011286,20.086,-0.00011554,-0.0038858,0.73258
5351,9.4429,1.8182,0.1,0.00035218,3519.4,0.00035256,3530.7,-0.0001143,22.881,-0.00011735,-0.0037392,0.71034
5352,9.2587,1.8182,0.1,0.00035727,3570.2,0.0003577,3583.1,-0.00011573,25.901,-0.00011918,-0.0036058,0.68834
5353,9.0744,1.8182,0.1,0.00036236,3621.1,0.00036285,3635.6,-0.00011714,29.164,-0.00012102,-0.0034842,0.66658
5354,8.8901,1.8182,0.1,0.00036747,3672.1,0.00036801,3688.4,-0.00011853,32.691,-0.00012288,-0.0033741,0.64507
5355,8.7059,1.8182,0.1,0.00037257,3723.1,0.00037318,3741.3,-0.00011989,36.502,-0.00012475,-0.003277,0.62381
5356,8.5216,1.8182,0.1,0.00037768,3774.2,0.00037835,3794.3,-0.00012123,40.621,-0.00012664,-0.0031932,0.6028
5357,8.3373,1.8182,0.1,0.00038279,3825.3,0.00038354,3847.6,-0.00012255,45.071,-0.00012855,-0.0031255,0.58205
5358,8.1531,1.8182,0.1,0.0003879,3876.3,0.00038872,3901,-0.00012383,49.878,-0.00013047,-0.0030785,0.56156
5359,7.9688,1.8182,0.1,0.00039301,3927.4,0.00039392,3954.6,-0.00012508,55.07,-0.00013241,-0.003056,0.54133
5360,7.7845,1.8182,0.1,0.00039812,3978.4,0.00039912,4008.4,-0.0001263,60.676,-0.00013437,-0.0030656,0.52137
5361,7.6003,1.8182,0.1,0.00040323,4029.5,0.00040432,4062.4,-0.00012747,66.727,-0.00013636,-0.0031166,0.50168
5362,7.416,1.8182,0.1,0.00040833,4080.5,0.00040952,4116.6,-0.00012861,73.254,-0.00013836,-0.0032213,0.48227
5363,7.2317,1.8182,0.1,0.00041343,4131.4,0.00041473,4171,-0.0001297,80.293,-0.00014039,-0.0033957,0.46313
5364,7.0475,1.8182,0.1,0.00041852,4182.3,0.00041994,4225.5,-0.00013075,87.878,-0.00014244,-0.0036605,0.44428
5365,6.8632,1.8182,0.1,0.00042361,4233.1,0.00042516,4280.4,-0.00013174,96.045,-0.00014452,-0.0040432,0.42571
5366,6.6789,1.8182,0.1,0.00042869,4283.9,0.00043038,4335.4,-0.00013268,104.83,-0.00014663,-0.0045787,0.40743
5367,6.4947,1.8182,0.1,0.00043377,4334.7,0.0004356,4390.7,-0.00013356,114.27,-0.00014877,-0.0053144,0.38944
5368,6.3104,1.8182,0.1,0.00043885,4385.4,0.00044083,4446.3,-0.00013438,124.41,-0.00015094,-0.0063105,0.37175
5369,6.1261,1.8182,0.1,0.00044392,4436.1,0.00044607,4502.2,-0.00013514,135.28,-0.00015314,-0.007647,0.35435
5370,5.9419,1.8182,0.1,0.000449,4486.9,0.00045132,4558.6,-0.00013583,146.91,-0.00015539,-0.0094286,0.33726
5371,5.7576,1.8182,0.1,0.00045409,4537.8,0.00045659,4615.3,-0.00013647,159.34,-0.00015767,-0.011794,0.32048
5372,5.5733,1.8182,0.1,0.0004592,4588.8,0.00046189,4672.6,-0.00013703,172.58,-0.00016,-0.014929,0.304
5373,5.3891,1.8182,0.1,0.00046433,4640.1,0.00046722,4730.6,-0.00013754,186.66,-0.00016238,-0.019077,0.28784
5374,5.2048,1.8182,0.1,0.00046951,4691.8,0.00047261,4789.4,-0.00013798,201.59,-0.00016482,-0.024567,0.272
5375,5.0205,1.8182,0.1,0.00047474,4744.1,0.00047806,4849.1,-0.00013838,217.35,-0.00016731,-0.03184,0.25648
5376,4.8363,1.8182,0.1,0.00048006,4797.3,0.00048361,4910,-0.00013873,233.92,-0.00016987,-0.041495,0.24128
5377,4.652,1.8182,0.1,0.0004855,4851.6,0.00048928,4972.3,-0.00013906,251.24,-0.0001725,-0.054342,0.22641
5378,4.4677,1.8182,0.1,0.00049109,4907.5,0.00049511,5036.5,-0.00013937,269.25,-0.00017522,-0.071492,0.21188
5379,4.2835,1.8182,0.1,0.00049688,4965.4,0.00050115,5103,-0.00013971,287.79,-0.00017803,-0.094475,0.19768
5380,4.0992,1.8182,0.1,0.00050295,5026,0.00050746,5172.2,-0.00014011,306.68,-0.00018094,-0.12542,0.18382
5381,3.9149,1.8182,0.1,0.00050936,5090.1,0.00051411,5245,-0.00014061,325.65,-0.00018398,-0.1673,0.1703
5382,3.7307,1.8182,0.1,0.00051623,5158.8,0.00052122,5322.2,-0.00014129,344.3,-0.00018714,-0.22439,0.15714
5383,3.5464,1.8182,0.1,0.00052369,5233.3,0.0005289,5404.8,-0.00014224,362.06,-0.00019047,-0.30286,0.14433
5384,3.3621,1.8182,0.1,0.00053191,5315.5,0.00053733,5494.2,-0.00014358,378.14,-0.00019396,-0.41192,0.13187
5385,3.1779,1.8182,0.1,0.00054112,5407.5,0.00054671,5592.2,-0.00014549,391.33,-0.00019765,-0.56597,0.11979
5386,2.9936,1.8182,0.1,0.00055163,5512.5,0.00055732,5701.1,-0.00014822,399.88,-0.00020155,-0.78822,0.10807
5387,2.8093,1.8182,0.1,0.00056385,5634.6,0.00056957,5823.8,-0.00015214,401.11,-0.00020568,-1.121,0.096734
5388,2.6251,1.8182,0.1,0.00057839,5779.9,0.00058401,5964.5,-0.0001578,390.85,-0.00021004,-1.6427,0.085784
5389,2.4408,1.8182,0.1,0.00059615,5957.4,0.00060143,6129,-0.00016603,362.54,-0.00021462,-2.5529,0.075231
5390,2.2565,1.8182,0.1,0.00061853,6181,0.00062307,6325.8,-0.00017817,305.67,-0.00021943,-4.3571,0.065085
5391,2.0723,1.8182,0.1,0.00064782,6473.8,0.00065087,6568.3,-0.00019616,204.05,-0.00022461,-9.6913,0.05536
5392,1.888,1.8182,0.1,0.00068792,6874.5,0.00068797,6877.3,-0.00021961,58.056,-0.00023414,-51.115,0.046072
5393,1.7037,1.8182,0.1,0.00074613,7456.1,0.00073999,7287.9,-0.00022816,13.587,-0.0002749,-337.65,0.037237
5394,1.5195,1.8182,0.1,0.00083661,8360.3,0.00081704,7862.6,-0.00022765,13.179,-0.00035302,-928.8,0.02888
5395,1.3352,1.8182,0.1,0.0010055,10048,0.00094856,8736.2,-0.00021614,-14.906,-0.00051178,-2236.3,0.021026
5396,1.1509,1.8182,0.1,0.0014047,14037,0.0012293,10569,-0.00014977,207.12,-0.00089682,-5405.9,0.013694
5397,23.816,2,0.1,1.8706e-05,186.94,9.4059e-06,39.859,4.0757e-06,-0.18958,-1.7707e-05,-163.86,2.905
5398,23.631,2,0.1,2.045e-05,204.36,1.2939e-05,78.535,2.4434e-06,-0.32229,-1.7944e-05,-153.5,2.8739
5399,23.447,2,0.1,2.2635e-05,226.2,1.6475e-05,117.22,8.5527e-07,-0.13786,-1.823e-05,-143.54,2.8428
5400,23.263,2,0.1,2.515e-05,251.32,2.0021e-05,155.75,-7.2456e-07,-0.12093,-1.8566e-05,-134.18,2.8117
5401,23.079,2,0.1,2.7909e-05,278.89,2.3576e-05,194.2,-2.282e-06,-0.089756,-1.8955e-05,-125.37,2.7806
5402,22.894,2,0.1,3.0855e-05,308.34,2.7147e-05,232.61,-3.8213e-06,-0.074885,-1.9399e-05,-117.12,2.7496
5403,22.71,2,0.1,3.3949e-05,339.26,3.0737e-05,271.03,-5.3433e-06,-0.062816,-1.9897e-05,-109.41,2.7186
5404,22.526,2,0.1,3.7161e-05,371.36,3.4351e-05,309.51,-6.8501e-06,-0.054226,-2.045e-05,-102.24,2.6875
5405,22.342,2,0.1,4.0473e-05,404.45,3.799e-05,348.09,-8.3434e-06,-0.047482,-2.1057e-05,-95.574,2.6566
5406,22.157,2,0.1,4.3868e-05,438.38,4.1658e-05,386.78,-9.825e-06,-0.042139,-2.1716e-05,-89.386,2.6256
5407,21.973,2,0.1,4.7336e-05,473.03,4.5354e-05,425.61,-1.1296e-05,-0.037774,-2.2424e-05,-83.648,2.5947
5408,21.789,2,0.1,5.0868e-05,508.33,4.908e-05,464.6,-1.2759e-05,-0.034151,-2.318e-05,-78.332,2.5638
5409,21.605,2,0.1,5.4458e-05,544.21,5.2836e-05,503.76,-1.4215e-05,-0.031103,-2.3981e-05,-73.408,2.5329
5410,21.42,2,0.1,5.8101e-05,580.61,5.6622e-05,543.1,-1.5664e-05,-0.028506,-2.4823e-05,-68.848,2.5021
5411,21.236,2,0.1,6.1792e-05,617.5,6.0438e-05,582.63,-1.7108e-05,-0.026262,-2.5706e-05,-64.627,2.4713
5412,21.052,2,0.1,6.5528e-05,654.83,6.4284e-05,622.35,-1.8549e-05,-0.02431,-2.6627e-05,-60.719,2.4405
5413,20.867,2,0.1,6.9306e-05,692.59,6.8158e-05,662.26,-1.9986e-05,-0.022586,-2.7583e-05,-57.101,2.4098
5414,20.683,2,0.1,7.3124e-05,730.74,7.2061e-05,702.37,-2.1421e-05,-0.021069,-2.8572e-05,-53.751,2.3791
5415,20.499,2,0.1,7.698e-05,769.27,7.5993e-05,742.68,-2.2855e-05,-0.01973,-2.9593e-05,-50.648,2.3485
5416,20.315,2,0.1,8.0871e-05,808.15,7.9952e-05,783.2,-2.4288e-05,-0.018526,-3.0643e-05,-47.774,2.3179
5417,20.13,2,0.1,8.4797e-05,847.38,8.3939e-05,823.92,-2.572e-05,-0.017439,-3.1722e-05,-45.112,2.2874
5418,19.946,2,0.1,8.8755e-05,886.94,8.7952e-05,864.84,-2.7153e-05,-0.016448,-3.2826e-05,-42.645,2.257
5419,19.762,2,0.1,9.2745e-05,926.81,9.1993e-05,905.97,-2.8586e-05,-0.015558,-3.3956e-05,-40.358,2.2266
5420,19.578,2,0.1,9.6766e-05,967,9.6059e-05,947.3,-3.0021e-05,-0.01476,-3.5108e-05,-38.237,2.1962
5421,19.393,2,0.1,0.00010082,1007.5,0.00010015,988.84,-3.1458e-05,-0.014022,-3.6283e-05,-36.27,2.166
5422,19.209,2,0.1,0.0001049,1048.2,0.00010427,1030.6,-3.2897e-05,-0.013341,-3.7479e-05,-34.444,2.1358
5423,19.025,2,0.1,0.000109,1089.3,0.00010841,1072.5,-3.4338e-05,-0.012703,-3.8695e-05,-32.748,2.1056
5424,18.841,2,0.1,0.00011314,1130.6,0.00011258,1114.7,-3.5783e-05,-0.012126,-3.993e-05,-31.173,2.0756
5425,18.656,2,0.1,0.0001173,1172.2,0.00011677,1157.1,-3.723e-05,-0.011611,-4.1182e-05,-29.707,2.0456
5426,18.472,2,0.1,0.00012149,1214.1,0.00012098,1199.6,-3.8681e-05,-0.011118,-4.2451e-05,-28.343,2.0157
5427,18.288,2,0.1,0.0001257,1256.2,0.00012522,1242.4,-4.0135e-05,-0.010659,-4.3737e-05,-27.072,1.9859
5428,18.103,2,0.1,0.00012994,1298.5,0.00012948,1285.4,-4.1594e-05,-0.010216,-4.5038e-05,-25.886,1.9562
5429,17.919,2,0.1,0.00013421,1341.2,0.00013377,1328.6,-4.3056e-05,-0.0098201,-4.6353e-05,-24.778,1.9265
5430,17.735,2,0.1,0.0001385,1384,0.00013808,1372,-4.4523e-05,-0.0094657,-4.7682e-05,-23.742,1.897
5431,17.551,2,0.1,0.00014281,1427.1,0.00014241,1415.6,-4.5995e-05,-0.0091191,-4.9024e-05,-22.77,1.8675
5432,17.366,2,0.1,0.00014714,1470.4,0.00014676,1459.4,-4.7472e-05,-0.0087912,-5.0379e-05,-21.858,1.8381
5433,17.182,2,0.1,0.0001515,1514,0.00015113,1503.4,-4.8953e-05,-0.0084654,-5.1747e-05,-20.998,1.8089
5434,16.998,2,0.1,0.00015588,1557.8,0.00015553,1547.6,-5.044e-05,-0.0081753,-5.3125e-05,-20.187,1.7797
5435,16.814,2,0.1,0.00016029,1601.8,0.00015995,1592,-5.1931e-05,-0.0079234,-5.4515e-05,-19.419,1.7506
5436,16.629,2,0.1,0.00016472,1646,0.00016439,1636.6,-5.3428e-05,-0.0076676,-5.5915e-05,-18.689,1.7217
5437,16.445,2,0.1,0.00016916,1690.5,0.00016885,1681.4,-5.4931e-05,-0.0074212,-5.7325e-05,-17.993,1.6929
5438,16.261,2,0.1,0.00017363,1735.1,0.00017333,1726.4,-5.644e-05,-0.0071658,-5.8745e-05,-17.327,1.6641
5439,16.077,2,0.1,0.00017813,1780,0.00017784,1771.6,-5.7954e-05,-0.0069468,-6.0174e-05,-16.686,1.6355
5440,15.892,2,0.1,0.00018264,1825.1,0.00018236,1817,-5.9474e-05,-0.006757,-6.1611e-05,-16.067,1.607
5441,15.708,2,0.1,0.00018717,1870.4,0.00018691,1862.7,-6.1e-05,-0.0065576,-6.3058e-05,-15.466,1.5787
5442,15.524,2,0.1,0.00019173,1916,0.00019147,1908.5,-6.2532e-05,-0.0063609,-6.4512e-05,-14.879,1.5504
5443,15.339,2,0.1,0.0001963,1961.7,0.00019606,1954.5,-6.4071e-05,-0.0061475,-6.5974e-05,-14.303,1.5223
5444,15.155,2,0.1,0.0002009,2007.6,0.00020066,2000.7,-6.5616e-05,-0.0059668,-6.7443e-05,-13.734,1.4944
5445,14.971,2,0.1,0.00020552,2053.7,0.00020529,2047.1,-6.7167e-05,-0.0058162,-6.8919e-05,-13.168,1.4665
5446,14.787,2,0.1,0.00021015,2100.1,0.00020993,2093.7,-6.8725e-05,-0.0056448,-7.0402e-05,-12.602,1.4388
5447,14.602,2,0.1,0.00021481,2146.6,0.0002146,2140.5,-7.029e-05,-0.0054726,-7.189e-05,-12.032,1.4113
5448,14.418,2,0.1,0.00021948,2193.3,0.00021928,2187.5,-7.1861e-05,-0.0052754,-7.3385e-05,-11.455,1.3839
5449,14.234,2,0.1,0.00022418,2240.2,0.00022399,2234.8,-7.3439e-05,-0.0051065,-7.4885e-05,-10.868,1.3566
5450,14.05,2,0.1,0.00022889,2287.3,0.00022871,2282.2,-7.5025e-05,-0.0049637,-7.639e-05,-10.267,1.3295
5451,13.865,2,0.1,0.00023362,2334.6,0.00023345,2329.8,-7.6617e-05,-0.0047921,-7.79e-05,-9.6468,1.3025
5452,13.681,2,0.1,0.00023837,2382.1,0.00023822,2377.5,-7.8216e-05,-0.004607,-7.9414e-05,-9.0053,1.2758
5453,13.497,2,0.1,0.00024314,2429.7,0.000243,2425.5,-7.9823e-05,-0.0043821,-8.0932e-05,-8.3377,1.2491
5454,13.313,2,0.1,0.00024793,2477.6,0.0002478,2473.7,-8.1438e-05,-0.0041736,-8.2454e-05,-7.64,1.2227
5455,13.128,2,0.1,0.00025273,2525.6,0.00025261,2522.1,-8.3059e-05,-0.00397,-8.3978e-05,-6.9079,1.1964
5456,12.944,2,0.1,0.00025755,2573.8,0.00025745,2570.7,-8.4689e-05,-0.0037022,-8.5505e-05,-6.1366,1.1702
5457,12.76,2,0.1,0.00026239,2622.1,0.0002623,2619.5,-8.6326e-05,-0.0033645,-8.7034e-05,-5.3214,1.1443
5458,12.575,2,0.1,0.00026725,2670.7,0.00026717,2668.4,-8.7972e-05,-0.0028918,-8.8565e-05,-4.4571,1.1185
5459,12.391,2,0.1,0.00027212,2719.4,0.00027206,2717.6,-8.9626e-05,-0.0022486,-9.0096e-05,-3.5384,1.0929
5460,12.207,2,0.1,0.00027701,2768.2,0.00027697,2766.9,-9.1287e-05,-0.0011796,-9.1628e-05,-2.5599,1.0675
5461,12.023,2,0.1,0.00028192,2817.2,0.00028189,2816.5,-9.2958e-05,0.0014243,-9.316e-05,-1.5161,1.0423
5462,11.838,2,0.1,0.00028684,2866.4,0.00028683,2866.2,-9.4635e-05,0.018113,-9.4692e-05,-0.41312,1.0172
5463,11.654,2,0.1,0.00029177,2915.7,0.00029179,2916.1,-9.6216e-05,0.82088,-9.6327e-05,-0.015732,0.9924
5464,11.47,2,0.1,0.00029672,2965.2,0.00029676,2966.2,-9.7743e-05,2.102,-9.8024e-05,-0.0087919,0.96776
5465,11.286,2,0.1,0.00030169,3014.8,0.00030175,3016.5,-9.9266e-05,3.4843,-9.973e-05,-0.0069829,0.94333
5466,11.101,2,0.1,0.00030667,3064.5,0.00030675,3067,-0.00010078,4.9727,-0.00010145,-0.0060898,0.9191
5467,10.917,2,0.1,0.00031166,3114.4,0.00031177,3117.7,-0.0001023,6.5759,-0.00010317,-0.0055287,0.89507
5468,10.733,2,0.1,0.00031666,3164.4,0.0003168,3168.6,-0.0001038,8.3041,-0.00010491,-0.0050903,0.87126
5469,10.549,2,0.1,0.00032168,3214.5,0.00032185,3219.6,-0.0001053,10.168,-0.00010666,-0.0047796,0.84766
5470,10.364,2,0.1,0.0003267,3264.8,0.00032691,3270.8,-0.00010679,12.18,-0.00010841,-0.0045585,0.82429
5471,10.18,2,0.1,0.00033174,3315.1,0.00033198,3322.2,-0.00010827,14.352,-0.00011018,-0.0043212,0.80113
5472,9.9957,2,0.1,0.00033678,3365.5,0.00033707,3373.8,-0.00010974,16.698,-0.00011197,-0.0041161,0.7782
5473,9.8115,2,0.1,0.00034184,3416,0.00034216,3425.6,-0.0001112,19.233,-0.00011376,-0.0039265,0.7555
5474,9.6272,2,0.1,0.0003469,3466.6,0.00034727,3477.6,-0.00011264,21.974,-0.00011556,-0.0037388,0.73303
5475,9.4429,2,0.1,0.00035197,3517.3,0.00035239,3529.7,-0.00011406,24.938,-0.00011738,-0.0035668,0.71079
5476,9.2587,2,0.1,0.00035705,3568,0.00035752,3582,-0.00011547,28.143,-0.00011922,-0.0033972,0.6888
5477,9.0744,2,0.1,0.00036213,3618.8,0.00036265,3634.5,-0.00011686,31.61,-0.00012106,-0.0032317,0.66704
5478,8.8901,2,0.1,0.00036721,3669.6,0.0003678,3687.1,-0.00011822,35.361,-0.00012293,-0.003069,0.64554
5479,8.7059,2,0.1,0.00037229,3720.4,0.00037295,3739.9,-0.00011956,39.42,-0.0001248,-0.0029104,0.62428
5480,8.5216,2,0.1,0.00037738,3771.2,0.00037811,3792.9,-0.00012087,43.811,-0.0001267,-0.0027549,0.60328
5481,8.3373,2,0.1,0.00038247,3822,0.00038327,3846.1,-0.00012215,48.564,-0.00012861,-0.0026046,0.58253
5482,8.1531,2,0.1,0.00038755,3872.9,0.00038844,3899.4,-0.0001234,53.706,-0.00013054,-0.0024617,0.56204
5483,7.9688,2,0.1,0.00039264,3923.6,0.00039361,3952.9,-0.00012461,59.271,-0.00013249,-0.0023301,0.54182
5484,7.7845,2,0.1,0.00039771,3974.4,0.00039878,4006.6,-0.00012578,65.292,-0.00013447,-0.0022143,0.52187
5485,7.6003,2,0.1,0.00040279,4025.1,0.00040396,4060.5,-0.0001269,71.808,-0.00013646,-0.0021201,0.50218
5486,7.416,2,0.1,0.00040785,4075.7,0.00040914,4114.6,-0.00012798,78.856,-0.00013848,-0.0020585,0.48277
5487,7.2317,2,0.1,0.00041291,4126.2,0.00041431,4168.8,-0.00012901,86.48,-0.00014052,-0.0020395,0.46364
5488,7.0475,2,0.1,0.00041796,4176.7,0.00041949,4223.3,-0.00012998,94.724,-0.00014259,-0.00208,0.44479
5489,6.8632,2,0.1,0.000423,4227.1,0.00042467,4277.9,-0.0001309,103.64,-0.00014469,-0.0022012,0.42622
5490,6.6789,2,0.1,0.00042803,4277.4,0.00042985,4332.9,-0.00013175,113.27,-0.00014682,-0.0024308,0.40794
5491,6.4947,2,0.1,0.00043306,4327.6,0.00043503,4388.1,-0.00013253,123.68,-0.00014899,-0.0028065,0.38996
5492,6.3104,2,0.1,0.00043807,4377.7,0.00044021,4443.6,-0.00013324,134.91,-0.0001512,-0.0033767,0.37227
5493,6.1261,2,0.1,0.00044309,4427.8,0.00044541,4499.5,-0.00013387,147.04,-0.00015344,-0.0042072,0.35488
5494,5.9419,2,0.1,0.0004481,4477.9,0.00045061,4555.8,-0.00013442,160.12,-0.00015573,-0.0053848,0.33779
5495,5.7576,2,0.1,0.00045313,4528.1,0.00045584,4612.7,-0.00013489,174.2,-0.00015808,-0.0070243,0.321
5496,5.5733,2,0.1,0.00045817,4578.5,0.00046109,4670.2,-0.00013527,189.36,-0.00016048,-0.0092793,0.30453
5497,5.3891,2,0.1,0.00046324,4629.2,0.00046639,4728.6,-0.00013557,205.66,-0.00016294,-0.012355,0.28837
5498,5.2048,2,0.1,0.00046836,4680.3,0.00047175,4787.9,-0.00013578,223.15,-0.00016548,-0.016526,0.27253
5499,5.0205,2,0.1,0.00047355,4732.2,0.0004772,4848.5,-0.00013591,241.87,-0.0001681,-0.022161,0.257
5500,4.8363,2,0.1,0.00047884,4785.1,0.00048275,4910.6,-0.00013595,261.89,-0.00017081,-0.02976,0.2418
5501,4.652,2,0.1,0.00048427,4839.4,0.00048847,4974.8,-0.00013594,283.21,-0.00017364,-0.039997,0.22693
5502,4.4677,2,0.1,0.0004899,4895.7,0.00049439,5041.4,-0.00013587,305.84,-0.00017659,-0.053787,0.21239
5503,4.2835,2,0.1,0.0004958,4954.6,0.00050058,5111.2,-0.00013578,329.76,-0.00017968,-0.072385,0.19819
5504,4.0992,2,0.1,0.00050205,5017,0.00050714,5185,-0.00013571,354.88,-0.00018295,-0.09751,0.18432
5505,3.9149,2,0.1,0.00050876,5084.1,0.00051417,5263.9,-0.00013569,381.06,-0.00018642,-0.13155,0.17081
5506,3.7307,2,0.1,0.00051609,5157.3,0.00052182,5349.1,-0.0001358,408.05,-0.00019014,-0.17782,0.15764
5507,3.5464,2,0.1,0.00052422,5238.6,0.00053026,5442.6,-0.00013614,435.48,-0.00019413,-0.24105,0.14482
5508,3.3621,2,0.1,0.00053339,5330.2,0.00053975,5546.3,-0.00013684,462.73,-0.00019847,-0.32802,0.13236
5509,3.1779,2,0.1,0.00054393,5435.5,0.00055058,5663.2,-0.00013808,488.89,-0.0002032,-0.44892,0.12028
5510,2.9936,2,0.1,0.00055624,5558.6,0.00056317,5796.8,-0.00014011,512.58,-0.00020842,-0.61886,0.10856
5511,2.8093,2,0.1,0.00057092,5705.2,0.00057808,5951.9,-0.00014332,531.66,-0.00021419,-0.86473,0.09723
5512,2.6251,2,0.1,0.00058873,5883.2,0.00059605,6135.1,-0.00014824,542.82,-0.00022065,-1.2245,0.086291
5513,2.4408,2,0.1,0.00061081,6103.9,0.00061817,6355.3,-0.00015568,540.9,-0.00022791,-1.809,0.075758
5514,2.2565,2,0.1,0.00063886,6384.2,0.00064603,6625.8,-0.0001669,517.74,-0.00023617,-2.7112,0.065644
5515,2.0723,2,0.1,0.00067558,6751.1,0.00068212,6966.7,-0.00018387,460.03,-0.00024574,-4.8288,0.055967
5516,1.888,2,0.1,0.00072537,7248.7,0.00073047,7411.3,-0.00020974,346.91,-0.00025706,-8.5979,0.04675
5517,1.7037,2,0.1,0.00079697,7964.2,0.00079875,8019.6,-0.00024852,150.86,-0.00027349,-36.763,0.038021
5518,1.5195,2,0.1,0.00090668,9060.6,0.00090163,8921.9,-0.00028012,42.697,-0.00032704,-309.79,0.029817
5519,1.3352,2,0.1,0.0011014,11007,0.0010775,10372,-0.00031478,-89.001,-0.0004506,-1109.6,0.022195
5520,1.1509,2,0.1,0.001665,16639,0.0015776,14906,-0.00029078,866.86,-0.0008684,-3473.1,0.015242
5521,23.816,2.1818,0.1,1.9179e-05,191.66,9.5621e-06,39.825,4.2355e-06,-0.19754,-1.8189e-05,-168.68,2.905
5522,23.631,2.1818,0.1,2.0911e-05,208.97,1.3107e-05,78.624,2.599e-06,-0.32624,-1.8428e-05,-158.31,2.8739
5523,23.447,2.1818,0.1,2.3078e-05,230.62,1.6652e-05,117.42,1.0049e-06,-0.14064,-1.8712e-05,-148.28,2.8428
5524,23.263,2.1818,0.1,2.557e-05,255.53,2.0205e-05,156.06,-5.8183e-07,-0.12337,-1.9041e-05,-138.82,2.8118
5525,23.079,2.1818,0.1,2.8307e-05,282.87,2.3765e-05,194.6,-2.1468e-06,-0.091948,-1.9419e-05,-129.87,2.7807
5526,22.894,2.1818,0.1,3.123e-05,312.08,2.7338e-05,233.08,-3.6941e-06,-0.076929,-1.9848e-05,-121.45,2.7497
5527,22.71,2.1818,0.1,3.43e-05,342.76,3.0927e-05,271.56,-5.2241e-06,-0.064758,-2.0329e-05,-113.56,2.7186
5528,22.526,2.1818,0.1,3.7488e-05,374.62,3.4536e-05,310.07,-6.7389e-06,-0.056097,-2.0862e-05,-106.17,2.6876
5529,22.342,2.1818,0.1,4.0775e-05,407.47,3.8168e-05,348.64,-8.2398e-06,-0.049298,-2.1446e-05,-99.274,2.6566
5530,22.157,2.1818,0.1,4.4146e-05,441.15,4.1827e-05,387.32,-9.7287e-06,-0.043909,-2.2081e-05,-92.851,2.6257
5531,21.973,2.1818,0.1,4.759e-05,475.57,4.5513e-05,426.13,-1.1207e-05,-0.039506,-2.2764e-05,-86.876,2.5947
5532,21.789,2.1818,0.1,5.1099e-05,510.64,4.9227e-05,465.08,-1.2676e-05,-0.035842,-2.3495e-05,-81.325,2.5638
5533,21.605,2.1818,0.1,5.4667e-05,546.29,5.2971e-05,504.2,-1.4138e-05,-0.032755,-2.4271e-05,-76.173,2.533
5534,21.42,2.1818,0.1,5.8289e-05,582.48,5.6745e-05,543.48,-1.5593e-05,-0.030121,-2.5091e-05,-71.394,2.5021
5535,21.236,2.1818,0.1,6.196e-05,619.17,6.0548e-05,582.95,-1.7042e-05,-0.027839,-2.5951e-05,-66.963,2.4713
5536,21.052,2.1818,0.1,6.5677e-05,656.32,6.4381e-05,622.62,-1.8487e-05,-0.025842,-2.685e-05,-62.857,2.4406
5537,20.867,2.1818,0.1,6.9437e-05,693.9,6.8244e-05,662.47,-1.9929e-05,-0.024081,-2.7785e-05,-59.052,2.4099
5538,20.683,2.1818,0.1,7.3239e-05,731.88,7.2136e-05,702.53,-2.1368e-05,-0.022526,-2.8755e-05,-55.528,2.3792
5539,20.499,2.1818,0.1,7.7079e-05,770.26,7.6057e-05,742.79,-2.2805e-05,-0.021148,-2.9758e-05,-52.264,2.3486
5540,20.315,2.1818,0.1,8.0956e-05,809.01,8.0006e-05,783.25,-2.4241e-05,-0.019904,-3.0792e-05,-49.241,2.318
5541,20.13,2.1818,0.1,8.4869e-05,848.11,8.3983e-05,823.92,-2.5677e-05,-0.018784,-3.1855e-05,-46.44,2.2875
5542,19.946,2.1818,0.1,8.8816e-05,887.55,8.7989e-05,864.8,-2.7112e-05,-0.017758,-3.2945e-05,-43.846,2.2571
5543,19.762,2.1818,0.1,9.2796e-05,927.32,9.2021e-05,905.89,-2.8548e-05,-0.016834,-3.4062e-05,-41.442,2.2267
5544,19.578,2.1818,0.1,9.6807e-05,967.4,9.608e-05,947.19,-2.9986e-05,-0.016006,-3.5202e-05,-39.214,2.1964
5545,19.393,2.1818,0.1,0.00010085,1007.8,0.00010017,988.7,-3.1424e-05,-0.015236,-3.6366e-05,-37.149,2.1661
5546,19.209,2.1818,0.1,0.00010492,1048.5,0.00010428,1030.4,-3.2865e-05,-0.014529,-3.7552e-05,-35.232,2.1359
5547,19.025,2.1818,0.1,0.00010902,1089.5,0.00010841,1072.3,-3.4308e-05,-0.013862,-3.8759e-05,-33.454,2.1058
5548,18.841,2.1818,0.1,0.00011315,1130.7,0.00011258,1114.5,-3.5754e-05,-0.013262,-3.9985e-05,-31.803,2.0757
5549,18.656,2.1818,0.1,0.00011731,1172.3,0.00011676,1156.8,-3.7203e-05,-0.012718,-4.123e-05,-30.268,2.0457
5550,18.472,2.1818,0.1,0.00012149,1214.1,0.00012097,1199.4,-3.8655e-05,-0.012204,-4.2492e-05,-28.841,2.0159
5551,18.288,2.1818,0.1,0.0001257,1256.1,0.00012521,1242.1,-4.0111e-05,-0.011724,-4.3771e-05,-27.512,1.986
5552,18.103,2.1818,0.1,0.00012993,1298.4,0.00012947,1285.1,-4.1571e-05,-0.01126,-4.5066e-05,-26.273,1.9563
5553,17.919,2.1818,0.1,0.00013419,1341,0.00013375,1328.3,-4.3035e-05,-0.010843,-4.6376e-05,-25.117,1.9267
5554,17.735,2.1818,0.1,0.00013848,1383.8,0.00013805,1371.6,-4.4503e-05,-0.01047,-4.77e-05,-24.036,1.8971
5555,17.551,2.1818,0.1,0.00014279,1426.9,0.00014238,1415.2,-4.5975e-05,-0.010105,-4.9038e-05,-23.023,1.8677
5556,17.366,2.1818,0.1,0.00014712,1470.2,0.00014673,1459,-4.7453e-05,-0.0097608,-5.0389e-05,-22.073,1.8383
5557,17.182,2.1818,0.1,0.00015148,1513.7,0.0001511,1503,-4.8935e-05,-0.0094182,-5.1752e-05,-21.179,1.809
5558,16.998,2.1818,0.1,0.00015585,1557.5,0.0001555,1547.2,-5.0422e-05,-0.0091131,-5.3128e-05,-20.335,1.7799
5559,16.814,2.1818,0.1,0.00016026,1601.5,0.00015992,1591.6,-5.1915e-05,-0.0088463,-5.4514e-05,-19.537,1.7508
5560,16.629,2.1818,0.1,0.00016468,1645.7,0.00016435,1636.2,-5.3413e-05,-0.0085767,-5.5911e-05,-18.78,1.7219
5561,16.445,2.1818,0.1,0.00016913,1690.1,0.00016881,1681,-5.4916e-05,-0.0083171,-5.7318e-05,-18.058,1.693
5562,16.261,2.1818,0.1,0.0001736,1734.8,0.00017329,1726,-5.6425e-05,-0.0080501,-5.8736e-05,-17.367,1.6643
5563,16.077,2.1818,0.1,0.00017809,1779.6,0.0001778,1771.2,-5.794e-05,-0.007816,-6.0162e-05,-16.704,1.6357
5564,15.892,2.1818,0.1,0.0001826,1824.7,0.00018232,1816.6,-5.9461e-05,-0.007616,-6.1598e-05,-16.063,1.6072
5565,15.708,2.1818,0.1,0.00018713,1870,0.00018686,1862.2,-6.0987e-05,-0.0074059,-6.3042e-05,-15.441,1.5789
5566,15.524,2.1818,0.1,0.00019168,1915.5,0.00019143,1908.1,-6.252e-05,-0.0071975,-6.4494e-05,-14.834,1.5507
5567,15.339,2.1818,0.1,0.00019626,1961.2,0.00019601,1954.1,-6.4059e-05,-0.006976,-6.5953e-05,-14.237,1.5226
5568,15.155,2.1818,0.1,0.00020085,2007.1,0.00020062,2000.3,-6.5605e-05,-0.0067859,-6.742e-05,-13.648,1.4946
5569,14.971,2.1818,0.1,0.00020547,2053.3,0.00020524,2046.7,-6.7157e-05,-0.0066259,-6.8894e-05,-13.063,1.4668
5570,14.787,2.1818,0.1,0.0002101,2099.6,0.00020989,2093.3,-6.8715e-05,-0.006449,-7.0375e-05,-12.478,1.4391
5571,14.602,2.1818,0.1,0.00021476,2146.1,0.00021455,2140.1,-7.028e-05,-0.0062695,-7.1862e-05,-11.889,1.4115
5572,14.418,2.1818,0.1,0.00021943,2192.8,0.00021924,2187.1,-7.1852e-05,-0.0060665,-7.3354e-05,-11.292,1.3841
5573,14.234,2.1818,0.1,0.00022412,2239.7,0.00022394,2234.3,-7.3431e-05,-0.0058929,-7.4852e-05,-10.684,1.3569
5574,14.05,2.1818,0.1,0.00022883,2286.8,0.00022866,2281.7,-7.5017e-05,-0.0057483,-7.6355e-05,-10.062,1.3298
5575,13.865,2.1818,0.1,0.00023356,2334,0.0002334,2329.3,-7.661e-05,-0.0055745,-7.7863e-05,-9.4198,1.3028
5576,13.681,2.1818,0.1,0.00023831,2381.5,0.00023816,2377.1,-7.821e-05,-0.0053903,-7.9374e-05,-8.7551,1.276
5577,13.497,2.1818,0.1,0.00024308,2429.1,0.00024294,2425.1,-7.9817e-05,-0.0051691,-8.089e-05,-8.0631,1.2494
5578,13.313,2.1818,0.1,0.00024787,2477,0.00024774,2473.3,-8.1432e-05,-0.004967,-8.2409e-05,-7.3396,1.2229
5579,13.128,2.1818,0.1,0.00025267,2524.9,0.00025256,2521.6,-8.3055e-05,-0.0047742,-8.393e-05,-6.5799,1.1966
5580,12.944,2.1818,0.1,0.00025749,2573.1,0.00025739,2570.2,-8.4685e-05,-0.0045217,-8.5454e-05,-5.7791,1.1705
5581,12.76,2.1818,0.1,0.00026233,2621.5,0.00026224,2619,-8.6324e-05,-0.0042062,-8.698e-05,-4.9323,1.1446
5582,12.575,2.1818,0.1,0.00026718,2670,0.00026711,2667.9,-8.797e-05,-0.0037599,-8.8506e-05,-4.034,1.1188
5583,12.391,2.1818,0.1,0.00027205,2718.6,0.000272,2717.1,-8.9624e-05,-0.0031393,-9.0034e-05,-3.0787,1.0932
5584,12.207,2.1818,0.1,0.00027694,2767.5,0.0002769,2766.4,-9.1287e-05,-0.0020058,-9.1561e-05,-2.0606,1.0678
5585,12.023,2.1818,0.1,0.00028184,2816.4,0.00028182,2816,-9.2958e-05,0.001665,-9.3088e-05,-0.975,1.0426
5586,11.838,2.1818,0.1,0.00028676,2865.6,0.00028676,2865.7,-9.4609e-05,0.22597,-9.4643e-05,-0.033256,1.0176
5587,11.654,2.1818,0.1,0.00029169,2914.9,0.00029171,2915.6,-9.6135e-05,1.4525,-9.633e-05,-0.009284,0.99272
5588,11.47,2.1818,0.1,0.00029663,2964.3,0.00029668,2965.7,-9.7655e-05,2.793,-9.8028e-05,-0.0070154,0.96809
5589,11.286,2.1818,0.1,0.00030159,3013.9,0.00030166,3016,-9.9171e-05,4.2358,-9.9736e-05,-0.006138,0.94366
5590,11.101,2.1818,0.1,0.00030657,3063.5,0.00030666,3066.4,-0.00010068,5.7893,-0.00010145,-0.0056068,0.91943
5591,10.917,2.1818,0.1,0.00031155,3113.4,0.00031168,3117.1,-0.00010219,7.4632,-0.00010318,-0.0052231,0.89541
5592,10.733,2.1818,0.1,0.00031655,3163.3,0.0003167,3167.9,-0.00010369,9.2684,-0.00010492,-0.0048832,0.8716
5593,10.549,2.1818,0.1,0.00032156,3213.3,0.00032175,3218.9,-0.00010518,11.216,-0.00010667,-0.0046286,0.84801
5594,10.364,2.1818,0.1,0.00032658,3263.5,0.0003268,3270.1,-0.00010666,13.319,-0.00010843,-0.0044384,0.82464
5595,10.18,2.1818,0.1,0.0003316,3313.7,0.00033187,3321.5,-0.00010813,15.591,-0.0001102,-0.0042151,0.80149
5596,9.9957,2.1818,0.1,0.00033664,3364.1,0.00033694,3373.1,-0.00010958,18.047,-0.00011198,-0.0040106,0.77856
5597,9.8115,2.1818,0.1,0.00034169,3414.5,0.00034203,3424.8,-0.00011102,20.703,-0.00011378,-0.0038127,0.75586
5598,9.6272,2.1818,0.1,0.00034674,3465,0.00034713,3476.7,-0.00011245,23.575,-0.00011559,-0.0036088,0.7334
5599,9.4429,2.1818,0.1,0.0003518,3515.5,0.00035224,3528.8,-0.00011386,26.683,-0.00011741,-0.0034118,0.71117
5600,9.2587,2.1818,0.1,0.00035686,3566.1,0.00035736,3581,-0.00011525,30.046,-0.00011925,-0.0032117,0.68918
5601,9.0744,2.1818,0.1,0.00036192,3616.7,0.00036248,3633.5,-0.00011662,33.688,-0.0001211,-0.0030075,0.66743
5602,8.8901,2.1818,0.1,0.00036699,3667.4,0.00036762,3686.1,-0.00011796,37.632,-0.00012297,-0.0027996,0.64593
5603,8.7059,2.1818,0.1,0.00037206,3718,0.00037276,3738.8,-0.00011927,41.903,-0.00012485,-0.0025868,0.62467
5604,8.5216,2.1818,0.1,0.00037713,3768.7,0.0003779,3791.7,-0.00012056,46.53,-0.00012675,-0.0023689,0.60367
5605,8.3373,2.1818,0.1,0.00038219,3819.3,0.00038305,3844.8,-0.00012181,51.543,-0.00012867,-0.0021465,0.58293
5606,8.1531,2.1818,0.1,0.00038726,3869.9,0.0003882,3898.1,-0.00012302,56.976,-0.00013061,-0.0019208,0.56245
5607,7.9688,2.1818,0.1,0.00039232,3920.4,0.00039335,3951.5,-0.0001242,62.865,-0.00013257,-0.0016922,0.54223
5608,7.7845,2.1818,0.1,0.00039737,3970.9,0.0003985,4005.1,-0.00012533,69.249,-0.00013455,-0.0014649,0.52228
5609,7.6003,2.1818,0.1,0.00040241,4021.3,0.00040365,4058.9,-0.00012641,76.17,-0.00013655,-0.0012422,0.5026
5610,7.416,2.1818,0.1,0.00040744,4071.6,0.0004088,4112.8,-0.00012744,83.675,-0.00013858,-0.001029,0.48319
5611,7.2317,2.1818,0.1,0.00041247,4121.8,0.00041395,4167,-0.00012842,91.815,-0.00014064,-0.00083515,0.46406
5612,7.0475,2.1818,0.1,0.00041748,4171.9,0.0004191,4221.3,-0.00012933,100.64,-0.00014272,-0.00067,0.44521
5613,6.8632,2.1818,0.1,0.00042248,4221.8,0.00042424,4275.9,-0.00013017,110.22,-0.00014484,-0.00054929,0.42665
5614,6.6789,2.1818,0.1,0.00042746,4271.7,0.00042939,4330.7,-0.00013094,120.61,-0.00014699,-0.00049385,0.40837
5615,6.4947,2.1818,0.1,0.00043244,4321.4,0.00043453,4385.8,-0.00013163,131.88,-0.00014919,-0.00053065,0.39039
5616,6.3104,2.1818,0.1,0.0004374,4371,0.00043967,4441.3,-0.00013224,144.1,-0.00015142,-0.00069809,0.3727
5617,6.1261,2.1818,0.1,0.00044236,4420.5,0.00044483,4497.1,-0.00013276,157.37,-0.0001537,-0.0010458,0.35531
5618,5.9419,2.1818,0.1,0.00044732,4470.1,0.00044999,4553.5,-0.00013318,171.76,-0.00015604,-0.0016427,0.33822
5619,5.7576,2.1818,0.1,0.00045228,4519.6,0.00045517,4610.4,-0.0001335,187.36,-0.00015844,-0.0025787,0.32144
5620,5.5733,2.1818,0.1,0.00045725,4569.4,0.00046039,4668.1,-0.00013371,204.28,-0.0001609,-0.003977,0.30497
5621,5.3891,2.1818,0.1,0.00046226,4619.4,0.00046565,4726.7,-0.00013381,222.61,-0.00016344,-0.0060023,0.2888
5622,5.2048,2.1818,0.1,0.00046732,4670,0.00047098,4786.5,-0.0001338,242.47,-0.00016607,-0.0088762,0.27296
5623,5.0205,2.1818,0.1,0.00047247,4721.4,0.0004764,4847.8,-0.00013367,263.96,-0.00016881,-0.012898,0.25743
5624,4.8363,2.1818,0.1,0.00047772,4773.9,0.00048196,4911,-0.00013344,287.19,-0.00017166,-0.018471,0.24223
5625,4.652,2.1818,0.1,0.00048315,4828.1,0.0004877,4976.7,-0.00013309,312.26,-0.00017466,-0.026143,0.22736
5626,4.4677,2.1818,0.1,0.0004888,4884.6,0.00049368,5045.4,-0.00013266,339.27,-0.00017782,-0.036655,0.21282
5627,4.2835,2.1818,0.1,0.00049476,4944.2,0.0005,5118.1,-0.00013216,368.29,-0.00018118,-0.05102,0.19861
5628,4.0992,2.1818,0.1,0.00050116,5008.1,0.00050675,5195.8,-0.00013161,399.37,-0.00018477,-0.070617,0.18474
5629,3.9149,2.1818,0.1,0.00050811,5077.6,0.00051408,5280,-0.00013108,432.49,-0.00018865,-0.097345,0.17122
5630,3.7307,2.1818,0.1,0.00051581,5154.6,0.00052217,5372.4,-0.00013062,467.58,-0.00019286,-0.13382,0.15804
5631,3.5464,2.1818,0.1,0.0005245,5241.4,0.00053126,5475.3,-0.00013032,504.44,-0.00019749,-0.1837,0.14522
5632,3.3621,2.1818,0.1,0.00053449,5341.2,0.00054164,5591.7,-0.00013033,542.73,-0.0002026,-0.25208,0.13277
5633,3.1779,2.1818,0.1,0.00054616,5457.9,0.00055372,5725.3,-0.00013083,581.83,-0.00020831,-0.34639,0.12067
5634,2.9936,2.1818,0.1,0.00056006,5596.7,0.00056802,5881,-0.00013207,620.78,-0.00021475,-0.47696,0.10896
5635,2.8093,2.1818,0.1,0.00057688,5764.8,0.00058523,6065.2,-0.00013442,658.06,-0.00022209,-0.66153,0.097632
5636,2.6251,2.1818,0.1,0.00059757,5971.5,0.00060629,6286.6,-0.00013839,691.33,-0.00023052,-0.91976,0.086701
5637,2.4408,2.1818,0.1,0.00062345,6230.2,0.00063251,6556.9,-0.00014474,717,-0.00024034,-1.3213,0.076183
5638,2.2565,2.1818,0.1,0.00065646,6560.1,0.00066577,6893.3,-0.00015456,729.6,-0.00025191,-1.8416,0.066095
5639,2.0723,2.1818,0.1,0.00069955,6990.6,0.00070894,7321.2,-0.00016955,720.61,-0.00026588,-3.1097,0.056458
5640,1.888,2.1818,0.1,0.00075737,7568.5,0.00076654,7882.5,-0.00019237,677.7,-0.00028304,-3.5881,0.0473
5641,1.7037,2.1818,0.1,0.00083895,8383.7,0.00084701,8650.9,-0.00022741,578.11,-0.00030602,-12.514,0.038659
5642,1.5195,2.1818,0.1,0.00095892,9582.5,0.00096503,9775,-0.00028237,402.45,-0.00033655,-4.6359,0.030582
5643,1.3352,2.1818,0.1,0.0011673,11665,0.0011668,11653,-0.00037391,76.849,-0.00039713,-97.586,0.023143
5644,1.1509,2.1818,0.1,0.0015651,15641,0.0015537,15317,-0.00049189,-52.585,-0.00056221,-580.92,0.01647
5645,23.816,2.3636,0.1,1.9552e-05,195.38,9.6851e-06,39.794,4.3618e-06,-0.20363,-1.8569e-05,-172.49,2.9051
5646,23.631,2.3636,0.1,2.1275e-05,212.61,1.3238e-05,78.687,2.722e-06,-0.32922,-1.881e-05,-162.11,2.874
5647,23.447,2.3636,0.1,2.3428e-05,234.11,1.6791e-05,117.58,1.1236e-06,-0.14271,-1.9092e-05,-152.03,2.8429
5648,23.263,2.3636,0.1,2.5904e-05,258.86,2.0351e-05,156.3,-4.6839e-07,-0.12519,-1.9417e-05,-142.5,2.8118
5649,23.079,2.3636,0.1,2.8623e-05,286.03,2.3915e-05,194.91,-2.0392e-06,-0.093575,-1.9787e-05,-133.45,2.7808
5650,22.894,2.3636,0.1,3.1529e-05,315.07,2.7489e-05,233.45,-3.5925e-06,-0.078445,-2.0206e-05,-124.9,2.7497
5651,22.71,2.3636,0.1,3.4581e-05,345.57,3.1077e-05,271.97,-5.1288e-06,-0.066195,-2.0673e-05,-116.86,2.7187
5652,22.526,2.3636,0.1,3.7751e-05,377.25,3.4683e-05,310.5,-6.6496e-06,-0.057482,-2.1191e-05,-109.31,2.6877
5653,22.342,2.3636,0.1,4.1019e-05,409.91,3.8311e-05,349.09,-8.1566e-06,-0.050645,-2.1758e-05,-102.24,2.6567
5654,22.157,2.3636,0.1,4.4371e-05,443.41,4.1963e-05,387.77,-9.6513e-06,-0.045223,-2.2374e-05,-95.641,2.6257
5655,21.973,2.3636,0.1,4.7797e-05,477.64,4.5641e-05,426.55,-1.1135e-05,-0.040794,-2.3039e-05,-89.482,2.5948
5656,21.789,2.3636,0.1,5.1288e-05,512.53,4.9347e-05,465.48,-1.261e-05,-0.037107,-2.3751e-05,-83.748,2.5639
5657,21.605,2.3636,0.1,5.4838e-05,548,5.3081e-05,504.56,-1.4076e-05,-0.033994,-2.4508e-05,-78.416,2.533
5658,21.42,2.3636,0.1,5.8443e-05,584.03,5.6845e-05,543.81,-1.5535e-05,-0.031336,-2.5308e-05,-73.462,2.5022
5659,21.236,2.3636,0.1,6.2098e-05,620.55,6.0639e-05,583.23,-1.6989e-05,-0.029027,-2.615e-05,-68.864,2.4714
5660,21.052,2.3636,0.1,6.58e-05,657.55,6.4462e-05,622.85,-1.8438e-05,-0.027007,-2.7032e-05,-64.6,2.4407
5661,20.867,2.3636,0.1,6.9546e-05,694.98,6.8315e-05,662.66,-1.9883e-05,-0.025217,-2.7951e-05,-60.646,2.41
5662,20.683,2.3636,0.1,7.3334e-05,732.84,7.2198e-05,702.67,-2.1325e-05,-0.023636,-2.8906e-05,-56.982,2.3793
5663,20.499,2.3636,0.1,7.7162e-05,771.09,7.6111e-05,742.89,-2.2765e-05,-0.022233,-2.9894e-05,-53.587,2.3487
5664,20.315,2.3636,0.1,8.1028e-05,809.72,8.0052e-05,783.31,-2.4204e-05,-0.020964,-3.0914e-05,-50.442,2.3181
5665,20.13,2.3636,0.1,8.4931e-05,848.72,8.4022e-05,823.95,-2.5641e-05,-0.019818,-3.1965e-05,-47.53,2.2876
5666,19.946,2.3636,0.1,8.8868e-05,888.07,8.802e-05,864.79,-2.7079e-05,-0.018766,-3.3043e-05,-44.832,2.2572
5667,19.762,2.3636,0.1,9.2839e-05,927.75,9.2046e-05,905.85,-2.8517e-05,-0.017821,-3.4149e-05,-42.332,2.2268
5668,19.578,2.3636,0.1,9.6842e-05,967.75,9.6099e-05,947.11,-2.9957e-05,-0.016969,-3.528e-05,-40.017,2.1965
5669,19.393,2.3636,0.1,0.00010088,1008.1,0.00010018,988.59,-3.1397e-05,-0.016177,-3.6435e-05,-37.871,2.1662
5670,19.209,2.3636,0.1,0.00010494,1048.7,0.00010428,1030.3,-3.284e-05,-0.01545,-3.7613e-05,-35.881,2.136
5671,19.025,2.3636,0.1,0.00010904,1089.6,0.00010842,1072.2,-3.4284e-05,-0.014763,-3.8812e-05,-34.035,2.1059
5672,18.841,2.3636,0.1,0.00011316,1130.8,0.00011257,1114.3,-3.5731e-05,-0.014146,-4.0031e-05,-32.322,2.0758
5673,18.656,2.3636,0.1,0.00011731,1172.3,0.00011676,1156.6,-3.7181e-05,-0.013586,-4.127e-05,-30.731,2.0459
5674,18.472,2.3636,0.1,0.00012149,1214.1,0.00012096,1199.2,-3.8635e-05,-0.013054,-4.2526e-05,-29.252,2.016
5675,18.288,2.3636,0.1,0.00012569,1256.1,0.0001252,1241.9,-4.0092e-05,-0.012557,-4.38e-05,-27.876,1.9862
5676,18.103,2.3636,0.1,0.00012993,1298.4,0.00012945,1284.9,-4.1552e-05,-0.012078,-4.509e-05,-26.593,1.9564
5677,17.919,2.3636,0.1,0.00013418,1340.9,0.00013373,1328,-4.3017e-05,-0.011647,-4.6396e-05,-25.397,1.9268
5678,17.735,2.3636,0.1,0.00013846,1383.7,0.00013803,1371.4,-4.4486e-05,-0.011261,-4.7716e-05,-24.28,1.8972
5679,17.551,2.3636,0.1,0.00014277,1426.7,0.00014236,1415,-4.5959e-05,-0.010883,-4.905e-05,-23.234,1.8678
5680,17.366,2.3636,0.1,0.0001471,1470,0.00014671,1458.7,-4.7438e-05,-0.010527,-5.0398e-05,-22.252,1.8384
5681,17.182,2.3636,0.1,0.00015145,1513.5,0.00015108,1502.7,-4.892e-05,-0.010173,-5.1758e-05,-21.33,1.8092
5682,16.998,2.3636,0.1,0.00015583,1557.2,0.00015547,1546.9,-5.0408e-05,-0.0098571,-5.313e-05,-20.46,1.78
5683,16.814,2.3636,0.1,0.00016023,1601.2,0.00015989,1591.3,-5.1902e-05,-0.0095786,-5.4514e-05,-19.638,1.751
5684,16.629,2.3636,0.1,0.00016465,1645.4,0.00016433,1635.9,-5.34e-05,-0.0092985,-5.5909e-05,-18.857,1.722
5685,16.445,2.3636,0.1,0.0001691,1689.8,0.00016878,1680.7,-5.4904e-05,-0.0090298,-5.7314e-05,-18.114,1.6932
5686,16.261,2.3636,0.1,0.00017357,1734.5,0.00017326,1725.7,-5.6414e-05,-0.0087533,-5.8729e-05,-17.404,1.6645
5687,16.077,2.3636,0.1,0.00017806,1779.3,0.00017777,1770.9,-5.7929e-05,-0.0085116,-6.0153e-05,-16.721,1.6359
5688,15.892,2.3636,0.1,0.00018257,1824.4,0.00018229,1816.3,-5.945e-05,-0.0083037,-6.1587e-05,-16.062,1.6074
5689,15.708,2.3636,0.1,0.0001871,1869.7,0.00018683,1861.9,-6.0977e-05,-0.0080862,-6.3029e-05,-15.423,1.5791
5690,15.524,2.3636,0.1,0.00019165,1915.2,0.00019139,1907.7,-6.2511e-05,-0.0078712,-6.4479e-05,-14.799,1.5508
5691,15.339,2.3636,0.1,0.00019622,1960.9,0.00019598,1953.7,-6.405e-05,-0.0076424,-6.5937e-05,-14.186,1.5227
5692,15.155,2.3636,0.1,0.00020082,2006.8,0.00020058,1999.9,-6.5596e-05,-0.0074469,-6.7403e-05,-13.582,1.4948
5693,14.971,2.3636,0.1,0.00020543,2052.9,0.00020521,2046.4,-6.7148e-05,-0.0072827,-6.8875e-05,-12.981,1.4669
5694,14.787,2.3636,0.1,0.00021006,2099.2,0.00020985,2093,-6.8707e-05,-0.0071013,-7.0354e-05,-12.379,1.4393
5695,14.602,2.3636,0.1,0.00021472,2145.7,0.00021451,2139.8,-7.0273e-05,-0.0069185,-7.1839e-05,-11.774,1.4117
5696,14.418,2.3636,0.1,0.00021939,2192.4,0.0002192,2186.8,-7.1845e-05,-0.0067139,-7.333e-05,-11.162,1.3843
5697,14.234,2.3636,0.1,0.00022408,2239.3,0.0002239,2234,-7.3425e-05,-0.0065398,-7.4826e-05,-10.537,1.3571
5698,14.05,2.3636,0.1,0.00022879,2286.3,0.00022862,2281.4,-7.5011e-05,-0.0063948,-7.6327e-05,-9.8973,1.33
5699,13.865,2.3636,0.1,0.00023352,2333.6,0.00023336,2329,-7.6604e-05,-0.0062238,-7.7833e-05,-9.2376,1.303
5700,13.681,2.3636,0.1,0.00023827,2381,0.00023812,2376.7,-7.8205e-05,-0.0060456,-7.9343e-05,-8.5541,1.2762
5701,13.497,2.3636,0.1,0.00024303,2428.7,0.0002429,2424.7,-7.9813e-05,-0.0058334,-8.0856e-05,-7.8423,1.2496
5702,13.313,2.3636,0.1,0.00024782,2476.5,0.0002477,2472.9,-8.1428e-05,-0.005644,-8.2372e-05,-7.0977,1.2231
5703,13.128,2.3636,0.1,0.00025262,2524.4,0.00025251,2521.3,-8.3052e-05,-0.0054696,-8.3891e-05,-6.3156,1.1969
5704,12.944,2.3636,0.1,0.00025744,2572.6,0.00025734,2569.8,-8.4683e-05,-0.005245,-8.5413e-05,-5.4909,1.1707
5705,12.76,2.3636,0.1,0.00026227,2620.9,0.00026219,2618.6,-8.6321e-05,-0.0049694,-8.6935e-05,-4.6184,1.1448
5706,12.575,2.3636,0.1,0.00026712,2669.4,0.00026706,2667.5,-8.7968e-05,-0.0045834,-8.8459e-05,-3.6925,1.119
5707,12.391,2.3636,0.1,0.00027199,2718,0.00027195,2716.7,-8.9624e-05,-0.0040485,-8.9983e-05,-2.7073,1.0934
5708,12.207,2.3636,0.1,0.00027688,2766.9,0.00027685,2766,-9.1287e-05,-0.0029874,-9.1507e-05,-1.6571,1.068
5709,12.023,2.3636,0.1,0.00028178,2815.8,0.00028177,2815.5,-9.2959e-05,0.0023516,-9.3031e-05,-0.5384,1.0428
5710,11.838,2.3636,0.1,0.00028669,2864.9,0.0002867,2865.2,-9.455e-05,0.67887,-9.4642e-05,-0.011211,1.0178
5711,11.654,2.3636,0.1,0.00029162,2914.2,0.00029165,2915.1,-9.6069e-05,1.9662,-9.6332e-05,-0.0071242,0.99297
5712,11.47,2.3636,0.1,0.00029656,2963.6,0.00029662,2965.2,-9.7584e-05,3.3524,-9.8031e-05,-0.0061296,0.96834
5713,11.286,2.3636,0.1,0.00030152,3013.1,0.0003016,3015.5,-9.9095e-05,4.8438,-9.9741e-05,-0.0056553,0.94392
5714,11.101,2.3636,0.1,0.00030648,3062.7,0.00030659,3065.9,-0.0001006,6.4501,-0.00010146,-0.005308,0.91969
5715,10.917,2.3636,0.1,0.00031147,3112.5,0.0003116,3116.6,-0.0001021,8.1813,-0.00010319,-0.005025,0.89568
5716,10.733,2.3636,0.1,0.00031646,3162.4,0.00031663,3167.4,-0.00010359,10.049,-0.00010493,-0.0047426,0.87188
5717,10.549,2.3636,0.1,0.00032146,3212.4,0.00032166,3218.4,-0.00010507,12.065,-0.00010668,-0.0045219,0.84829
5718,10.364,2.3636,0.1,0.00032647,3262.5,0.00032671,3269.6,-0.00010655,14.243,-0.00010844,-0.0043487,0.82492
5719,10.18,2.3636,0.1,0.00033149,3312.7,0.00033177,3320.9,-0.00010801,16.596,-0.00011021,-0.0041317,0.80177
5720,9.9957,2.3636,0.1,0.00033652,3362.9,0.00033685,3372.5,-0.00010945,19.141,-0.000112,-0.0039254,0.77885
5721,9.8115,2.3636,0.1,0.00034156,3413.3,0.00034193,3424.2,-0.00011088,21.894,-0.0001138,-0.0037188,0.75615
5722,9.6272,2.3636,0.1,0.0003466,3463.7,0.00034702,3476,-0.0001123,24.874,-0.00011561,-0.0034994,0.73369
5723,9.4429,2.3636,0.1,0.00035165,3514.1,0.00035212,3528.1,-0.00011369,28.099,-0.00011743,-0.0032827,0.71147
5724,9.2587,2.3636,0.1,0.0003567,3564.6,0.00035723,3580.3,-0.00011507,31.592,-0.00011927,-0.0030554,0.68948
5725,9.0744,2.3636,0.1,0.00036176,3615.1,0.00036235,3632.7,-0.00011642,35.377,-0.00012113,-0.0028208,0.66774
5726,8.8901,2.3636,0.1,0.00036681,3665.6,0.00036747,3685.2,-0.00011774,39.478,-0.000123,-0.0025742,0.64624
5727,8.7059,2.3636,0.1,0.00037187,3716.1,0.0003726,3737.9,-0.00011904,43.924,-0.00012489,-0.002317,0.62499
5728,8.5216,2.3636,0.1,0.00037692,3766.6,0.00037773,3790.8,-0.0001203,48.745,-0.00012679,-0.0020469,0.60399
5729,8.3373,2.3636,0.1,0.00038197,3817.1,0.00038286,3843.8,-0.00012153,53.973,-0.00012872,-0.0017643,0.58325
5730,8.1531,2.3636,0.1,0.00038702,3867.5,0.000388,3897,-0.00012272,59.647,-0.00013066,-0.0014684,0.56277
5731,7.9688,2.3636,0.1,0.00039205,3917.8,0.00039313,3950.3,-0.00012387,65.804,-0.00013262,-0.001159,0.54256
5732,7.7845,2.3636,0.1,0.00039708,3968.1,0.00039827,4003.8,-0.00012496,72.488,-0.00013461,-0.00083722,0.52261
5733,7.6003,2.3636,0.1,0.0004021,4018.2,0.0004034,4057.5,-0.00012601,79.748,-0.00013662,-0.00050401,0.50293
5734,7.416,2.3636,0.1,0.00040711,4068.3,0.00040853,4111.4,-0.000127,87.635,-0.00013866,-0.00016297,0.48353
5735,7.2317,2.3636,0.1,0.0004121,4118.2,0.00041365,4165.4,-0.00012793,96.206,-0.00014073,0.00018253,0.4644
5736,7.0475,2.3636,0.1,0.00041708,4167.9,0.00041877,4219.7,-0.00012879,105.53,-0.00014283,0.00052508,0.44555
5737,6.8632,2.3636,0.1,0.00042204,4217.5,0.00042389,4274.2,-0.00012957,115.66,-0.00014496,0.00085597,0.42699
5738,6.6789,2.3636,0.1,0.00042699,4267,0.00042901,4328.9,-0.00013027,126.69,-0.00014714,0.0011619,0.40872
5739,6.4947,2.3636,0.1,0.00043192,4316.3,0.00043412,4383.9,-0.00013089,138.69,-0.00014935,0.0014225,0.39073
5740,6.3104,2.3636,0.1,0.00043684,4365.4,0.00043923,4439.3,-0.00013141,151.76,-0.00015161,0.001612,0.37305
5741,6.1261,2.3636,0.1,0.00044175,4414.5,0.00044434,4495.1,-0.00013183,166,-0.00015392,0.0016934,0.35566
5742,5.9419,2.3636,0.1,0.00044666,4463.5,0.00044947,4551.5,-0.00013214,181.51,-0.0001563,0.0016167,0.33857
5743,5.7576,2.3636,0.1,0.00045156,4512.5,0.00045461,4608.5,-0.00013233,198.42,-0.00015874,0.0013128,0.32179
5744,5.5733,2.3636,0.1,0.00045649,4561.7,0.00045979,4666.3,-0.00013239,216.85,-0.00016125,0.00068773,0.30531
5745,5.3891,2.3636,0.1,0.00046144,4611.2,0.00046501,4725.1,-0.00013233,236.95,-0.00016386,-0.0003864,0.28915
5746,5.2048,2.3636,0.1,0.00046645,4661.3,0.00047031,4785.3,-0.00013212,258.87,-0.00016657,-0.0020821,0.2733
5747,5.0205,2.3636,0.1,0.00047154,4712.2,0.00047571,4847.2,-0.00013177,282.77,-0.00016941,-0.004636,0.25778
5748,4.8363,2.3636,0.1,0.00047676,4764.3,0.00048126,4911.2,-0.00013128,308.82,-0.00017238,-0.0083671,0.24258
5749,4.652,2.3636,0.1,0.00048217,4818.3,0.00048702,4978.1,-0.00013065,337.2,-0.00017553,-0.013711,0.2277
5750,4.4677,2.3636,0.1,0.00048783,4874.9,0.00049304,5048.5,-0.00012988,368.08,-0.00017887,-0.021259,0.21315
5751,4.2835,2.3636,0.1,0.00049384,4935,0.00049944,5123.5,-0.000129,401.63,-0.00018246,-0.031821,0.19894
5752,4.0992,2.3636,0.1,0.00050033,4999.9,0.00050634,5204.5,-0.00012803,438.01,-0.00018633,-0.046501,0.18507
5753,3.9149,2.3636,0.1,0.00050748,5071.3,0.00051391,5293,-0.00012702,477.36,-0.00019056,-0.066817,0.17154
5754,3.7307,2.3636,0.1,0.00051548,5151.2,0.00052234,5391.3,-0.00012602,519.74,-0.00019521,-0.094856,0.15837
5755,3.5464,2.3636,0.1,0.00052462,5242.6,0.00053194,5502.2,-0.00012514,565.15,-0.00020037,-0.1335,0.14554
5756,3.3621,2.3636,0.1,0.00053527,5349,0.00054305,5629.1,-0.00012449,613.47,-0.00020617,-0.18675,0.13308
5757,3.1779,2.3636,0.1,0.00054789,5475.1,0.00055615,5776.8,-0.00012428,664.37,-0.00021273,-0.26022,0.12099
5758,2.9936,2.3636,0.1,0.00056311,5627.2,0.00057186,5951.3,-0.00012474,717.25,-0.00022025,-0.36162,0.10927
5759,2.8093,2.3636,0.1,0.00058175,5813.5,0.00059101,6160.3,-0.00012625,771.1,-0.00022894,-0.50257,0.097945
5760,2.6251,2.3636,0.1,0.0006049,6044.9,0.00061468,6414.3,-0.00012931,824.27,-0.00023911,-0.69777,0.08702
5761,2.4408,2.3636,0.1,0.00063407,6336.3,0.00064437,6727.5,-0.00013464,874.26,-0.00025113,-0.97764,0.076513
5762,2.2565,2.3636,0.1,0.00067135,6708.9,0.00068219,7119.5,-0.00014327,917.29,-0.00026553,-1.3616,0.066445
5763,2.0723,2.3636,0.1,0.00071982,7193.2,0.00073119,7618.9,-0.00015669,947.74,-0.00028309,-1.978,0.05684
5764,1.888,2.3636,0.1,0.00078422,7836.8,0.00079603,8269.8,-0.00017719,957.44,-0.000305,-2.8681,0.04773
5765,1.7037,2.3636,0.1,0.00087226,8716.6,0.00088429,9143.9,-0.00020835,934.22,-0.00033317,-3.593,0.039159
5766,1.5195,2.3636,0.1,0.00099809,9974,0.0010097,10370,-0.00025605,859.55,-0.00037194,-11.22,0.031183
5767,1.3352,2.3636,0.1,0.0011845,11837,0.001195,12176,-0.00033214,701.52,-0.00042451,7.5176,0.023883
5768,1.1509,2.3636,0.1,0.0014592,14582,0.0014661,14794,-0.00044797,411.85,-0.00050013,19.989,0.017381
5769,23.816,2.5455,0.1,1.9829e-05,198.15,9.7761e-06,39.768,4.4556e-06,-0.20807,-1.8851e-05,-175.32,2.9051
5770,23.631,2.5455,0.1,2.1546e-05,215.31,1.3336e-05,78.73,2.8136e-06,-0.33135,-1.9094e-05,-164.94,2.874
5771,23.447,2.5455,0.1,2.3688e-05,236.72,1.6894e-05,117.68,1.212e-06,-0.14419,-1.9374e-05,-154.82,2.8429
5772,23.263,2.5455,0.1,2.6152e-05,261.34,2.0458e-05,156.47,-3.8375e-07,-0.12648,-1.9696e-05,-145.23,2.8119
5773,23.079,2.5455,0.1,2.8859e-05,288.39,2.4025e-05,195.14,-1.9587e-06,-0.09473,-2.0061e-05,-136.11,2.7808
5774,22.894,2.5455,0.1,3.1752e-05,317.3,2.7601e-05,233.72,-3.5164e-06,-0.079517,-2.0472e-05,-127.48,2.7497
5775,22.71,2.5455,0.1,3.4791e-05,347.67,3.1189e-05,272.27,-5.0572e-06,-0.067213,-2.0931e-05,-119.33,2.7187
5776,22.526,2.5455,0.1,3.7948e-05,379.22,3.4794e-05,310.83,-6.5826e-06,-0.058459,-2.1437e-05,-111.67,2.6877
5777,22.342,2.5455,0.1,4.1203e-05,411.74,3.8419e-05,349.43,-8.0941e-06,-0.051596,-2.1992e-05,-104.48,2.6567
5778,22.157,2.5455,0.1,4.4542e-05,445.11,4.2066e-05,388.1,-9.593e-06,-0.046155,-2.2596e-05,-97.742,2.6258
5779,21.973,2.5455,0.1,4.7954e-05,479.21,4.5739e-05,426.88,-1.1081e-05,-0.041709,-2.3247e-05,-91.45,2.5948
5780,21.789,2.5455,0.1,5.1432e-05,513.96,4.9438e-05,465.78,-1.2559e-05,-0.038004,-2.3944e-05,-85.581,2.5639
5781,21.605,2.5455,0.1,5.4969e-05,549.31,5.3165e-05,504.84,-1.4029e-05,-0.03488,-2.4687e-05,-80.115,2.5331
5782,21.42,2.5455,0.1,5.8561e-05,585.21,5.6922e-05,544.06,-1.5492e-05,-0.032204,-2.5474e-05,-75.032,2.5023
5783,21.236,2.5455,0.1,6.2204e-05,621.61,6.0708e-05,583.45,-1.6948e-05,-0.029881,-2.6302e-05,-70.31,2.4715
5784,21.052,2.5455,0.1,6.5895e-05,658.49,6.4525e-05,623.04,-1.84e-05,-0.027843,-2.7171e-05,-65.926,2.4407
5785,20.867,2.5455,0.1,6.963e-05,695.82,6.8371e-05,662.81,-1.9848e-05,-0.026038,-2.8077e-05,-61.859,2.41
5786,20.683,2.5455,0.1,7.3408e-05,733.58,7.2247e-05,702.79,-2.1292e-05,-0.024438,-2.902e-05,-58.09,2.3794
5787,20.499,2.5455,0.1,7.7227e-05,771.74,7.6153e-05,742.98,-2.2735e-05,-0.023018,-2.9998e-05,-54.596,2.3487
5788,20.315,2.5455,0.1,8.1084e-05,810.28,8.0088e-05,783.37,-2.4175e-05,-0.021732,-3.1008e-05,-51.36,2.3182
5789,20.13,2.5455,0.1,8.4979e-05,849.2,8.4052e-05,823.98,-2.5615e-05,-0.020569,-3.2049e-05,-48.362,2.2877
5790,19.946,2.5455,0.1,8.8908e-05,888.47,8.8045e-05,864.79,-2.7054e-05,-0.019501,-3.3119e-05,-45.585,2.2572
5791,19.762,2.5455,0.1,9.2873e-05,928.09,9.2066e-05,905.82,-2.8494e-05,-0.018538,-3.4216e-05,-43.013,2.2268
5792,19.578,2.5455,0.1,9.687e-05,968.03,9.6114e-05,947.07,-2.9935e-05,-0.017671,-3.534e-05,-40.631,2.1965
5793,19.393,2.5455,0.1,0.0001009,1008.3,0.00010019,988.52,-3.1377e-05,-0.016867,-3.6488e-05,-38.424,2.1663
5794,19.209,2.5455,0.1,0.00010496,1048.9,0.00010429,1030.2,-3.282e-05,-0.016124,-3.766e-05,-36.378,2.1361
5795,19.025,2.5455,0.1,0.00010905,1089.7,0.00010842,1072.1,-3.4266e-05,-0.015427,-3.8853e-05,-34.481,2.106
5796,18.841,2.5455,0.1,0.00011317,1130.9,0.00011258,1114.2,-3.5714e-05,-0.014795,-4.0067e-05,-32.72,2.0759
5797,18.656,2.5455,0.1,0.00011732,1172.3,0.00011676,1156.5,-3.7165e-05,-0.014222,-4.1301e-05,-31.086,2.0459
5798,18.472,2.5455,0.1,0.00012149,1214.1,0.00012096,1199,-3.8619e-05,-0.013681,-4.2553e-05,-29.567,2.016
5799,18.288,2.5455,0.1,0.00012569,1256.1,0.00012519,1241.7,-4.0077e-05,-0.013172,-4.3823e-05,-28.155,1.9862
5800,18.103,2.5455,0.1,0.00012992,1298.3,0.00012944,1284.7,-4.1538e-05,-0.012685,-4.5109e-05,-26.84,1.9565
5801,17.919,2.5455,0.1,0.00013417,1340.8,0.00013372,1327.8,-4.3004e-05,-0.012243,-4.6411e-05,-25.613,1.9269
5802,17.735,2.5455,0.1,0.00013845,1383.6,0.00013802,1371.2,-4.4473e-05,-0.011848,-4.7728e-05,-24.468,1.8973
5803,17.551,2.5455,0.1,0.00014276,1426.6,0.00014235,1414.7,-4.5947e-05,-0.011461,-4.906e-05,-23.396,1.8679
5804,17.366,2.5455,0.1,0.00014709,1469.9,0.00014669,1458.5,-4.7426e-05,-0.011097,-5.0405e-05,-22.391,1.8385
5805,17.182,2.5455,0.1,0.00015144,1513.3,0.00015106,1502.5,-4.891e-05,-0.010734,-5.1763e-05,-21.447,1.8093
5806,16.998,2.5455,0.1,0.00015581,1557.1,0.00015545,1546.7,-5.0398e-05,-0.010412,-5.3133e-05,-20.557,1.7801
5807,16.814,2.5455,0.1,0.00016021,1601,0.00015987,1591.1,-5.1892e-05,-0.010127,-5.4514e-05,-19.716,1.7511
5808,16.629,2.5455,0.1,0.00016463,1645.2,0.0001643,1635.7,-5.3391e-05,-0.0098393,-5.5907e-05,-18.918,1.7221
5809,16.445,2.5455,0.1,0.00016908,1689.6,0.00016876,1680.5,-5.4895e-05,-0.0095649,-5.731e-05,-18.159,1.6933
5810,16.261,2.5455,0.1,0.00017354,1734.3,0.00017324,1725.5,-5.6405e-05,-0.0092822,-5.8724e-05,-17.433,1.6646
5811,16.077,2.5455,0.1,0.00017803,1779.1,0.00017774,1770.7,-5.7921e-05,-0.0090359,-6.0147e-05,-16.736,1.636
5812,15.892,2.5455,0.1,0.00018254,1824.2,0.00018226,1816.1,-5.9442e-05,-0.0088212,-6.1579e-05,-16.063,1.6075
5813,15.708,2.5455,0.1,0.00018707,1869.4,0.00018681,1861.7,-6.097e-05,-0.0085985,-6.302e-05,-15.411,1.5792
5814,15.524,2.5455,0.1,0.00019162,1914.9,0.00019137,1907.5,-6.2503e-05,-0.0083808,-6.4469e-05,-14.774,1.551
5815,15.339,2.5455,0.1,0.0001962,1960.6,0.00019595,1953.5,-6.4043e-05,-0.0081475,-6.5925e-05,-14.149,1.5229
5816,15.155,2.5455,0.1,0.00020079,2006.5,0.00020055,1999.7,-6.5589e-05,-0.0079483,-6.7389e-05,-13.532,1.4949
5817,14.971,2.5455,0.1,0.0002054,2052.6,0.00020518,2046.1,-6.7142e-05,-0.0077805,-6.8861e-05,-12.919,1.4671
5818,14.787,2.5455,0.1,0.00021003,2098.9,0.00020982,2092.7,-6.8701e-05,-0.0075979,-7.0338e-05,-12.306,1.4394
5819,14.602,2.5455,0.1,0.00021469,2145.4,0.00021448,2139.5,-7.0267e-05,-0.0074141,-7.1822e-05,-11.689,1.4118
5820,14.418,2.5455,0.1,0.00021936,2192.1,0.00021917,2186.5,-7.184e-05,-0.0072092,-7.3312e-05,-11.064,1.3845
5821,14.234,2.5455,0.1,0.00022405,2238.9,0.00022387,2233.7,-7.342e-05,-0.0070362,-7.4806e-05,-10.427,1.3572
5822,14.05,2.5455,0.1,0.00022876,2286,0.00022859,2281.1,-7.5006e-05,-0.0068927,-7.6306e-05,-9.7739,1.3301
5823,13.865,2.5455,0.1,0.00023349,2333.3,0.00023333,2328.7,-7.66e-05,-0.0067281,-7.781e-05,-9.1006,1.3032
5824,13.681,2.5455,0.1,0.00023823,2380.7,0.00023809,2376.5,-7.8201e-05,-0.0065555,-7.9319e-05,-8.4029,1.2764
5825,13.497,2.5455,0.1,0.000243,2428.3,0.00024287,2424.5,-7.9809e-05,-0.0063535,-8.083e-05,-7.676,1.2498
5826,13.313,2.5455,0.1,0.00024778,2476.1,0.00024766,2472.6,-8.1425e-05,-0.0061783,-8.2345e-05,-6.9154,1.2233
5827,13.128,2.5455,0.1,0.00025258,2524.1,0.00025248,2521,-8.3049e-05,-0.0060277,-8.3862e-05,-6.1164,1.197
5828,12.944,2.5455,0.1,0.0002574,2572.2,0.00025731,2569.6,-8.468e-05,-0.005835,-8.5382e-05,-5.2735,1.1709
5829,12.76,2.5455,0.1,0.00026223,2620.5,0.00026216,2618.3,-8.632e-05,-0.0056093,-8.6902e-05,-4.3815,1.145
5830,12.575,2.5455,0.1,0.00026708,2669,0.00026702,2667.3,-8.7967e-05,-0.0053,-8.8424e-05,-3.4345,1.1192
5831,12.391,2.5455,0.1,0.00027195,2717.6,0.00027191,2716.4,-8.9623e-05,-0.0049,-8.9945e-05,-2.4267,1.0936
5832,12.207,2.5455,0.1,0.00027683,2766.4,0.00027681,2765.7,-9.1287e-05,-0.0040864,-9.1467e-05,-1.3518,1.0682
5833,12.023,2.5455,0.1,0.00028173,2815.3,0.00028172,2815.2,-9.2959e-05,0.0049413,-9.2988e-05,-0.21053,1.043
5834,11.838,2.5455,0.1,0.00028664,2864.4,0.00028666,2864.9,-9.4504e-05,1.0341,-9.4643e-05,-0.0074696,1.018
5835,11.654,2.5455,0.1,0.00029157,2913.6,0.00029161,2914.8,-9.6019e-05,2.3552,-9.6334e-05,-0.0061314,0.99316
5836,11.47,2.5455,0.1,0.00029651,2963,0.00029657,2964.9,-9.7531e-05,3.7755,-9.8034e-05,-0.005643,0.96854
5837,11.286,2.5455,0.1,0.00030146,3012.5,0.00030155,3015.1,-9.9038e-05,5.3038,-9.9744e-05,-0.0053675,0.94411
5838,11.101,2.5455,0.1,0.00030642,3062.1,0.00030654,3065.6,-0.00010054,6.95,-0.00010146,-0.0051223,0.91989
5839,10.917,2.5455,0.1,0.0003114,3111.9,0.00031155,3116.2,-0.00010203,8.7248,-0.00010319,-0.0048973,0.89588
5840,10.733,2.5455,0.1,0.00031639,3161.7,0.00031657,3167,-0.00010352,10.64,-0.00010494,-0.0046491,0.87208
5841,10.549,2.5455,0.1,0.00032139,3211.7,0.0003216,3218,-0.000105,12.708,-0.00010669,-0.0044482,0.8485
5842,10.364,2.5455,0.1,0.0003264,3261.7,0.00032665,3269.1,-0.00010646,14.942,-0.00010845,-0.0042845,0.82513
5843,10.18,2.5455,0.1,0.00033141,3311.8,0.0003317,3320.5,-0.00010791,17.357,-0.00011023,-0.0040707,0.80199
5844,9.9957,2.5455,0.1,0.00033644,3362,0.00033677,3372,-0.00010935,19.97,-0.00011201,-0.0038612,0.77907
5845,9.8115,2.5455,0.1,0.00034147,3412.3,0.00034185,3423.7,-0.00011078,22.797,-0.00011381,-0.003647,0.75637
5846,9.6272,2.5455,0.1,0.0003465,3462.7,0.00034694,3475.5,-0.00011218,25.858,-0.00011563,-0.0034157,0.73392
5847,9.4429,2.5455,0.1,0.00035155,3513,0.00035203,3527.5,-0.00011357,29.174,-0.00011745,-0.0031824,0.71169
5848,9.2587,2.5455,0.1,0.00035659,3563.4,0.00035714,3579.7,-0.00011493,32.766,-0.00011929,-0.0029352,0.68971
5849,9.0744,2.5455,0.1,0.00036163,3613.9,0.00036224,3632,-0.00011627,36.66,-0.00012115,-0.0026752,0.66797
5850,8.8901,2.5455,0.1,0.00036668,3664.3,0.00036736,3684.5,-0.00011758,40.881,-0.00012302,-0.0024001,0.64647
5851,8.7059,2.5455,0.1,0.00037172,3714.7,0.00037248,3737.2,-0.00011886,45.461,-0.00012491,-0.0021082,0.62522
5852,8.5216,2.5455,0.1,0.00037677,3765.1,0.0003776,3790,-0.00012011,50.43,-0.00012682,-0.0017985,0.60423
5853,8.3373,2.5455,0.1,0.0003818,3815.4,0.00038272,3843,-0.00012132,55.824,-0.00012875,-0.0014686,0.58349
5854,8.1531,2.5455,0.1,0.00038683,3865.7,0.00038785,3896.1,-0.00012249,61.682,-0.0001307,-0.0011188,0.56302
5855,7.9688,2.5455,0.1,0.00039185,3915.8,0.00039297,3949.4,-0.00012361,68.046,-0.00013267,-0.00074553,0.5428
5856,7.7845,2.5455,0.1,0.00039687,3965.9,0.00039809,4002.9,-0.00012468,74.963,-0.00013466,-0.00034963,0.52286
5857,7.6003,2.5455,0.1,0.00040187,4015.9,0.00040321,4056.5,-0.0001257,82.485,-0.00013668,7.0012e-05,0.50318
5858,7.416,2.5455,0.1,0.00040685,4065.7,0.00040832,4110.3,-0.00012666,90.667,-0.00013873,0.0005127,0.48378
5859,7.2317,2.5455,0.1,0.00041182,4115.4,0.00041343,4164.3,-0.00012755,99.575,-0.0001408,0.00097803,0.46465
5860,7.0475,2.5455,0.1,0.00041678,4164.9,0.00041853,4218.4,-0.00012837,109.28,-0.00014291,0.001463,0.44581
5861,6.8632,2.5455,0.1,0.00042171,4214.2,0.00042362,4272.8,-0.00012911,119.85,-0.00014506,0.001962,0.42725
5862,6.6789,2.5455,0.1,0.00042663,4263.3,0.00042871,4327.5,-0.00012976,131.37,-0.00014724,0.0024685,0.40897
5863,6.4947,2.5455,0.1,0.00043153,4312.3,0.0004338,4382.5,-0.00013032,143.95,-0.00014948,0.0029696,0.39099
5864,6.3104,2.5455,0.1,0.00043641,4361.1,0.00043888,4437.8,-0.00013077,157.68,-0.00015176,0.0034481,0.3733
5865,6.1261,2.5455,0.1,0.00044128,4409.8,0.00044397,4493.6,-0.00013111,172.69,-0.00015409,0.0038787,0.35592
5866,5.9419,2.5455,0.1,0.00044615,4458.4,0.00044906,4549.9,-0.00013133,189.09,-0.00015649,0.004226,0.33883
5867,5.7576,2.5455,0.1,0.00045101,4507,0.00045417,4606.9,-0.00013142,207.04,-0.00015897,0.0044391,0.32205
5868,5.5733,2.5455,0.1,0.00045589,4555.7,0.00045932,4664.8,-0.00013136,226.68,-0.00016153,0.0044484,0.30557
5869,5.3891,2.5455,0.1,0.0004608,4604.8,0.00046452,4723.9,-0.00013116,248.19,-0.00016419,0.004157,0.28941
5870,5.2048,2.5455,0.1,0.00046576,4654.4,0.00046979,4784.3,-0.0001308,271.76,-0.00016696,0.0034312,0.27356
5871,5.0205,2.5455,0.1,0.00047081,4704.9,0.00047517,4846.6,-0.00013027,297.59,-0.00016988,0.0020881,0.25804
5872,4.8363,2.5455,0.1,0.000476,4756.7,0.00048071,4911.3,-0.00012957,325.91,-0.00017295,-0.00012367,0.24283
5873,4.652,2.5455,0.1,0.00048138,4810.5,0.00048646,4979,-0.0001287,356.95,-0.00017621,-0.0035492,0.22795
5874,4.4677,2.5455,0.1,0.00048704,4867.1,0.00049251,5050.8,-0.00012767,390.96,-0.0001797,-0.0086614,0.2134
5875,4.2835,2.5455,0.1,0.00049309,4927.5,0.00049897,5127.6,-0.00012648,428.19,-0.00018347,-0.016112,0.19919
5876,4.0992,2.5455,0.1,0.00049965,4993.1,0.00050597,5211,-0.00012516,468.9,-0.00018757,-0.026796,0.18532
5877,3.9149,2.5455,0.1,0.00050693,5065.8,0.0005137,5302.9,-0.00012375,513.32,-0.00019207,-0.041955,0.17179
5878,3.7307,2.5455,0.1,0.00051515,5148,0.0005224,5405.7,-0.0001223,561.68,-0.00019707,-0.063305,0.1586
5879,3.5464,2.5455,0.1,0.00052464,5242.8,0.00053238,5522.7,-0.00012092,614.12,-0.00020267,-0.093232,0.14578
5880,3.3621,2.5455,0.1,0.0005358,5354.3,0.00054404,5657.9,-0.00011972,670.7,-0.000209,-0.13505,0.13331
5881,3.1779,2.5455,0.1,0.00054916,5487.8,0.00055793,5816.7,-0.0001189,731.29,-0.00021625,-0.19339,0.12122
5882,2.9936,2.5455,0.1,0.00056543,5650.4,0.00057473,6005.8,-0.00011871,795.55,-0.00022463,-0.27464,0.1095
5883,2.8093,2.5455,0.1,0.00058552,5851.2,0.00059539,6234.4,-0.00011953,862.74,-0.00023441,-0.38763,0.098174
5884,2.6251,2.5455,0.1,0.00061067,6102.4,0.00062114,6514.3,-0.00012188,931.57,-0.00024594,-0.54465,0.087253
5885,2.4408,2.5455,0.1,0.00064249,6420.5,0.00065361,6861.3,-0.0001265,999.9,-0.00025968,-0.76067,0.076755
5886,2.2565,2.5455,0.1,0.00068324,6827.7,0.00069506,7296.7,-0.00013441,1064.4,-0.00027621,-1.066,0.066701
5887,2.0723,2.5455,0.1,0.00073597,7354.6,0.00074855,7849.5,-0.0001471,1119.9,-0.00029634,-1.4428,0.05712
5888,1.888,2.5455,0.1,0.00080503,8044.8,0.0008184,8560,-0.00016665,1158.7,-0.00032115,-2.1045,0.048047
5889,1.7037,2.5455,0.1,0.00089647,8958.5,0.00091055,9484.5,-0.00019603,1170,-0.0003521,-2.5977,0.039529
5890,1.5195,2.5455,0.1,0.0010182,10175,0.0010327,10695,-0.00023922,1138.1,-0.00039099,-2.2398,0.031627
5891,1.3352,2.5455,0.1,0.0011765,11757,0.0011909,12248,-0.00029857,1057,-0.00043973,-3.6266,0.024423
5892,1.1509,2.5455,0.1,0.0013563,13553,0.0013701,14015,-0.00036367,987.34,-0.00049639,-9.874,0.018021
5893,23.816,2.7273,0.1,2.0012e-05,199.98,9.8363e-06,39.751,4.5177e-06,-0.21096,-1.9038e-05,-177.2,2.9051
5894,23.631,2.7273,0.1,2.1725e-05,217.1,1.34e-05,78.757,2.8743e-06,-0.33272,-1.9282e-05,-166.8,2.8741
5895,23.447,2.7273,0.1,2.386e-05,238.44,1.6962e-05,117.75,1.2706e-06,-0.14514,-1.9561e-05,-156.67,2.843
5896,23.263,2.7273,0.1,2.6317e-05,262.99,2.0529e-05,156.58,-3.2753e-07,-0.12731,-1.9881e-05,-147.05,2.8119
5897,23.079,2.7273,0.1,2.9016e-05,289.96,2.4098e-05,195.28,-1.9052e-06,-0.095469,-2.0243e-05,-137.88,2.7808
5898,22.894,2.7273,0.1,3.1901e-05,318.79,2.7675e-05,233.9,-3.4658e-06,-0.080205,-2.065e-05,-129.19,2.7498
5899,22.71,2.7273,0.1,3.4932e-05,349.07,3.1264e-05,272.47,-5.0095e-06,-0.067863,-2.1102e-05,-120.98,2.7187
5900,22.526,2.7273,0.1,3.808e-05,380.54,3.4867e-05,311.04,-6.5379e-06,-0.059086,-2.1602e-05,-113.24,2.6877
5901,22.342,2.7273,0.1,4.1326e-05,412.97,3.849e-05,349.65,-8.0523e-06,-0.052204,-2.2149e-05,-105.97,2.6568
5902,22.157,2.7273,0.1,4.4656e-05,446.25,4.2135e-05,388.32,-9.554e-06,-0.046751,-2.2744e-05,-99.148,2.6258
5903,21.973,2.7273,0.1,4.8059e-05,480.26,4.5804e-05,427.09,-1.1045e-05,-0.042294,-2.3386e-05,-92.767,2.5949
5904,21.789,2.7273,0.1,5.1528e-05,514.93,4.9499e-05,465.99,-1.2525e-05,-0.038583,-2.4074e-05,-86.81,2.564
5905,21.605,2.7273,0.1,5.5057e-05,550.19,5.3222e-05,505.03,-1.3998e-05,-0.035447,-2.4808e-05,-81.256,2.5331
5906,21.42,2.7273,0.1,5.8641e-05,586,5.6974e-05,544.23,-1.5463e-05,-0.032765,-2.5585e-05,-76.087,2.5023
5907,21.236,2.7273,0.1,6.2276e-05,622.33,6.0756e-05,583.6,-1.6921e-05,-0.030431,-2.6404e-05,-71.282,2.4715
5908,21.052,2.7273,0.1,6.5959e-05,659.13,6.4567e-05,623.17,-1.8375e-05,-0.028386,-2.7264e-05,-66.819,2.4408
5909,20.867,2.7273,0.1,6.9687e-05,696.39,6.8409e-05,662.92,-1.9824e-05,-0.026568,-2.8163e-05,-62.677,2.41
5910,20.683,2.7273,0.1,7.3459e-05,734.08,7.228e-05,702.88,-2.1271e-05,-0.024959,-2.9098e-05,-58.837,2.3794
5911,20.499,2.7273,0.1,7.7271e-05,772.18,7.6182e-05,743.04,-2.2714e-05,-0.023528,-3.0068e-05,-55.277,2.3488
5912,20.315,2.7273,0.1,8.1122e-05,810.67,8.0113e-05,783.41,-2.4156e-05,-0.02223,-3.1071e-05,-51.979,2.3182
5913,20.13,2.7273,0.1,8.5011e-05,849.53,8.4073e-05,824,-2.5597e-05,-0.021058,-3.2106e-05,-48.924,2.2877
5914,19.946,2.7273,0.1,8.8936e-05,888.75,8.8062e-05,864.8,-2.7038e-05,-0.01998,-3.317e-05,-46.094,2.2573
5915,19.762,2.7273,0.1,9.2896e-05,928.32,9.208e-05,905.81,-2.8479e-05,-0.01901,-3.4262e-05,-43.474,2.2269
5916,19.578,2.7273,0.1,9.6889e-05,968.22,9.6125e-05,947.04,-2.992e-05,-0.01813,-3.5381e-05,-41.046,2.1966
5917,19.393,2.7273,0.1,0.00010091,1008.4,0.0001002,988.48,-3.1363e-05,-0.017319,-3.6524e-05,-38.798,2.1663
5918,19.209,2.7273,0.1,0.00010497,1049,0.0001043,1030.1,-3.2807e-05,-0.016566,-3.7691e-05,-36.714,2.1361
5919,19.025,2.7273,0.1,0.00010906,1089.8,0.00010842,1072,-3.4254e-05,-0.015861,-3.8881e-05,-34.782,2.106
5920,18.841,2.7273,0.1,0.00011317,1131,0.00011258,1114.1,-3.5703e-05,-0.015222,-4.0091e-05,-32.99,2.076
5921,18.656,2.7273,0.1,0.00011732,1172.4,0.00011675,1156.4,-3.7154e-05,-0.01464,-4.1322e-05,-31.326,2.046
5922,18.472,2.7273,0.1,0.00012149,1214.1,0.00012096,1198.9,-3.8609e-05,-0.014092,-4.2571e-05,-29.781,2.0161
5923,18.288,2.7273,0.1,0.00012569,1256,0.00012518,1241.6,-4.0067e-05,-0.013578,-4.3838e-05,-28.344,1.9863
5924,18.103,2.7273,0.1,0.00012992,1298.3,0.00012944,1284.6,-4.1529e-05,-0.013083,-4.5122e-05,-27.007,1.9566
5925,17.919,2.7273,0.1,0.00013417,1340.8,0.00013371,1327.7,-4.2995e-05,-0.012636,-4.6422e-05,-25.76,1.9269
5926,17.735,2.7273,0.1,0.00013845,1383.5,0.00013801,1371.1,-4.4465e-05,-0.012235,-4.7737e-05,-24.595,1.8974
5927,17.551,2.7273,0.1,0.00014275,1426.5,0.00014234,1414.6,-4.5939e-05,-0.011844,-4.9066e-05,-23.506,1.8679
5928,17.366,2.7273,0.1,0.00014708,1469.8,0.00014668,1458.4,-4.7419e-05,-0.011474,-5.041e-05,-22.485,1.8386
5929,17.182,2.7273,0.1,0.00015143,1513.2,0.00015105,1502.4,-4.8902e-05,-0.011106,-5.1766e-05,-21.526,1.8093
5930,16.998,2.7273,0.1,0.0001558,1557,0.00015544,1546.5,-5.0391e-05,-0.010779,-5.3134e-05,-20.623,1.7802
5931,16.814,2.7273,0.1,0.0001602,1600.9,0.00015986,1590.9,-5.1885e-05,-0.010489,-5.4515e-05,-19.769,1.7511
5932,16.629,2.7273,0.1,0.00016462,1645.1,0.00016429,1635.5,-5.3384e-05,-0.010199,-5.5906e-05,-18.96,1.7222
5933,16.445,2.7273,0.1,0.00016907,1689.5,0.00016875,1680.3,-5.4889e-05,-0.0099191,-5.7308e-05,-18.19,1.6934
5934,16.261,2.7273,0.1,0.00017353,1734.1,0.00017323,1725.3,-5.6399e-05,-0.0096321,-5.8721e-05,-17.454,1.6647
5935,16.077,2.7273,0.1,0.00017802,1778.9,0.00017773,1770.5,-5.7915e-05,-0.0093832,-6.0143e-05,-16.747,1.6361
5936,15.892,2.7273,0.1,0.00018253,1824,0.00018225,1815.9,-5.9437e-05,-0.0091659,-6.1574e-05,-16.065,1.6076
5937,15.708,2.7273,0.1,0.00018706,1869.3,0.00018679,1861.5,-6.0965e-05,-0.0089409,-6.3014e-05,-15.404,1.5793
5938,15.524,2.7273,0.1,0.00019161,1914.7,0.00019135,1907.3,-6.2499e-05,-0.0087202,-6.4462e-05,-14.758,1.551
5939,15.339,2.7273,0.1,0.00019618,1960.4,0.00019593,1953.3,-6.4039e-05,-0.0084849,-6.5917e-05,-14.125,1.5229
5940,15.155,2.7273,0.1,0.00020077,2006.3,0.00020054,1999.5,-6.5585e-05,-0.0082847,-6.7381e-05,-13.5,1.495
5941,14.971,2.7273,0.1,0.00020538,2052.4,0.00020516,2045.9,-6.7138e-05,-0.0081145,-6.8851e-05,-12.879,1.4672
5942,14.787,2.7273,0.1,0.00021001,2098.7,0.0002098,2092.5,-6.8697e-05,-0.0079315,-7.0328e-05,-12.258,1.4395
5943,14.602,2.7273,0.1,0.00021467,2145.2,0.00021447,2139.3,-7.0264e-05,-0.0077467,-7.1811e-05,-11.632,1.4119
5944,14.418,2.7273,0.1,0.00021934,2191.9,0.00021915,2186.3,-7.1837e-05,-0.0075423,-7.3299e-05,-10.999,1.3845
5945,14.234,2.7273,0.1,0.00022403,2238.7,0.00022385,2233.5,-7.3416e-05,-0.0073711,-7.4793e-05,-10.353,1.3573
5946,14.05,2.7273,0.1,0.00022874,2285.8,0.00022857,2280.9,-7.5003e-05,-0.0072312,-7.6292e-05,-9.6916,1.3302
5947,13.865,2.7273,0.1,0.00023346,2333,0.00023331,2328.5,-7.6597e-05,-0.0070695,-7.7795e-05,-9.0091,1.3033
5948,13.681,2.7273,0.1,0.00023821,2380.5,0.00023807,2376.3,-7.8199e-05,-0.006904,-7.9302e-05,-8.3017,1.2765
5949,13.497,2.7273,0.1,0.00024297,2428.1,0.00024284,2424.3,-7.9807e-05,-0.0067114,-8.0813e-05,-7.5647,1.2499
5950,13.313,2.7273,0.1,0.00024776,2475.9,0.00024764,2472.4,-8.1423e-05,-0.0065492,-8.2327e-05,-6.7934,1.2234
5951,13.128,2.7273,0.1,0.00025256,2523.8,0.00025245,2520.8,-8.3047e-05,-0.0064174,-8.3843e-05,-5.983,1.1971
5952,12.944,2.7273,0.1,0.00025737,2571.9,0.00025728,2569.4,-8.4679e-05,-0.0062517,-8.5361e-05,-5.1279,1.171
5953,12.76,2.7273,0.1,0.0002622,2620.2,0.00026213,2618.1,-8.6319e-05,-0.0060706,-8.688e-05,-4.2228,1.1451
5954,12.575,2.7273,0.1,0.00026705,2668.7,0.000267,2667.1,-8.7967e-05,-0.0058355,-8.84e-05,-3.2617,1.1193
5955,12.391,2.7273,0.1,0.00027192,2717.3,0.00027188,2716.2,-8.9623e-05,-0.0055793,-8.992e-05,-2.2386,1.0937
5956,12.207,2.7273,0.1,0.0002768,2766.1,0.00027678,2765.5,-9.1288e-05,-0.0051313,-9.1439e-05,-1.147,1.0683
5957,12.023,2.7273,0.1,0.0002817,2815,0.0002817,2815,-9.2955e-05,0.039154,-9.2963e-05,-0.023239,1.0431
5958,11.838,2.7273,0.1,0.00028661,2864.1,0.00028663,2864.7,-9.4473e-05,1.2735,-9.4644e-05,-0.0061407,1.0181
5959,11.654,2.7273,0.1,0.00029153,2913.3,0.00029157,2914.6,-9.5986e-05,2.6162,-9.6335e-05,-0.0056369,0.99329
5960,11.47,2.7273,0.1,0.00029647,2962.6,0.00029654,2964.7,-9.7495e-05,4.0594,-9.8036e-05,-0.0053756,0.96867
5961,11.286,2.7273,0.1,0.00030142,3012.1,0.00030151,3014.9,-9.8999e-05,5.6124,-9.9747e-05,-0.005203,0.94424
5962,11.101,2.7273,0.1,0.00030638,3061.7,0.00030651,3065.3,-0.0001005,7.2854,-0.00010147,-0.0050126,0.92003
5963,10.917,2.7273,0.1,0.00031136,3111.4,0.00031151,3116,-0.00010199,9.0894,-0.0001032,-0.0048192,0.89602
5964,10.733,2.7273,0.1,0.00031634,3161.2,0.00031653,3166.7,-0.00010347,11.036,-0.00010494,-0.0045911,0.87222
5965,10.549,2.7273,0.1,0.00032134,3211.2,0.00032156,3217.7,-0.00010494,13.139,-0.00010669,-0.0044,0.84864
5966,10.364,2.7273,0.1,0.00032634,3261.2,0.0003266,3268.9,-0.0001064,15.411,-0.00010846,-0.0042426,0.82527
5967,10.18,2.7273,0.1,0.00033136,3311.3,0.00033166,3320.2,-0.00010785,17.868,-0.00011023,-0.0040293,0.80213
5968,9.9957,2.7273,0.1,0.00033638,3361.5,0.00033672,3371.7,-0.00010929,20.527,-0.00011202,-0.0038175,0.77921
5969,9.8115,2.7273,0.1,0.0003414,3411.7,0.0003418,3423.3,-0.00011071,23.404,-0.00011382,-0.003597,0.75652
5970,9.6272,2.7273,0.1,0.00034644,3462,0.00034688,3475.2,-0.00011211,26.52,-0.00011564,-0.0033576,0.73406
5971,9.4429,2.7273,0.1,0.00035147,3512.3,0.00035197,3527.2,-0.00011348,29.896,-0.00011746,-0.0031133,0.71184
5972,9.2587,2.7273,0.1,0.00035651,3562.7,0.00035707,3579.3,-0.00011484,33.555,-0.00011931,-0.0028523,0.68986
5973,9.0744,2.7273,0.1,0.00036155,3613,0.00036217,3631.6,-0.00011617,37.522,-0.00012117,-0.0025752,0.66812
5974,8.8901,2.7273,0.1,0.00036659,3663.4,0.00036728,3684.1,-0.00011747,41.826,-0.00012304,-0.00228,0.64663
5975,8.7059,2.7273,0.1,0.00037163,3713.7,0.0003724,3736.7,-0.00011874,46.496,-0.00012493,-0.0019648,0.62538
5976,8.5216,2.7273,0.1,0.00037666,3764,0.00037751,3789.5,-0.00011998,51.565,-0.00012684,-0.0016276,0.60439
5977,8.3373,2.7273,0.1,0.00038169,3814.3,0.00038263,3842.5,-0.00012118,57.072,-0.00012877,-0.0012661,0.58365
5978,8.1531,2.7273,0.1,0.00038671,3864.4,0.00038774,3895.6,-0.00012233,63.055,-0.00013072,-0.00087818,0.56318
5979,7.9688,2.7273,0.1,0.00039172,3914.5,0.00039286,3948.8,-0.00012344,69.56,-0.0001327,-0.0004618,0.54297
5980,7.7845,2.7273,0.1,0.00039672,3964.5,0.00039797,4002.2,-0.0001245,76.635,-0.0001347,-1.5106e-05,0.52302
5981,7.6003,2.7273,0.1,0.00040171,4014.3,0.00040308,4055.8,-0.00012549,84.335,-0.00013672,0.0004654,0.50334
5982,7.416,2.7273,0.1,0.00040668,4064,0.00040818,4109.5,-0.00012643,92.72,-0.00013877,0.00097818,0.48394
5983,7.2317,2.7273,0.1,0.00041163,4113.5,0.00041327,4163.5,-0.0001273,101.86,-0.00014085,0.0015268,0.46482
5984,7.0475,2.7273,0.1,0.00041657,4162.8,0.00041836,4217.6,-0.00012809,111.82,-0.00014297,0.0021104,0.44598
5985,6.8632,2.7273,0.1,0.00042149,4212,0.00042344,4272,-0.00012879,122.69,-0.00014512,0.0027272,0.42742
5986,6.6789,2.7273,0.1,0.00042638,4260.9,0.00042851,4326.6,-0.00012941,134.56,-0.00014732,0.003374,0.40914
5987,6.4947,2.7273,0.1,0.00043126,4309.6,0.00043358,4381.5,-0.00012993,147.54,-0.00014956,0.0040439,0.39116
5988,6.3104,2.7273,0.1,0.00043612,4358.2,0.00043864,4436.8,-0.00013033,161.73,-0.00015186,0.0047254,0.37348
5989,6.1261,2.7273,0.1,0.00044096,4406.6,0.00044371,4492.5,-0.00013062,177.26,-0.00015421,0.0054027,0.35609
5990,5.9419,2.7273,0.1,0.0004458,4454.9,0.00044878,4548.9,-0.00013077,194.28,-0.00015663,0.0060495,0.339
5991,5.7576,2.7273,0.1,0.00045063,4503.2,0.00045387,4605.9,-0.00013079,212.94,-0.00015913,0.0066289,0.32222
5992,5.5733,2.7273,0.1,0.00045548,4551.6,0.000459,4663.8,-0.00013065,233.42,-0.00016172,0.0070884,0.30574
5993,5.3891,2.7273,0.1,0.00046035,4600.3,0.00046417,4723,-0.00013036,255.92,-0.00016442,0.0073528,0.28958
5994,5.2048,2.7273,0.1,0.00046528,4649.6,0.00046942,4783.6,-0.00012988,280.64,-0.00016723,0.0073175,0.27373
5995,5.0205,2.7273,0.1,0.00047031,4699.8,0.00047479,4846.2,-0.00012923,307.82,-0.0001702,0.0068361,0.25821
5996,4.8363,2.7273,0.1,0.00047547,4751.4,0.00048031,4911.3,-0.00012839,337.73,-0.00017334,0.0057059,0.243
5997,4.652,2.7273,0.1,0.00048084,4805.1,0.00048607,4979.6,-0.00012735,370.64,-0.00017668,0.0036451,0.22812
5998,4.4677,2.7273,0.1,0.00048649,4861.6,0.00049214,5052.2,-0.00012613,406.84,-0.00018027,0.00026266,0.21357
5999,4.2835,2.7273,0.1,0.00049255,4922.1,0.00049863,5130.2,-0.00012472,446.67,-0.00018417,-0.0049846,0.19935
6000,4.0992,2.7273,0.1,0.00049917,4988.2,0.0005057,5215.3,-0.00012315,490.43,-0.00018842,-0.012855,0.18548
6001,3.9149,2.7273,0.1,0.00050653,5061.8,0.00051353,5309.5,-0.00012145,538.46,-0.00019312,-0.024408,0.17195
6002,3.7307,2.7273,0.1,0.0005149,5145.4,0.0005224,5415.4,-0.00011968,591.06,-0.00019835,-0.041134,0.15876
6003,3.5464,2.7273,0.1,0.00052462,5242.6,0.00053263,5536.6,-0.00011794,648.48,-0.00020425,-0.065136,0.14593
6004,3.3621,2.7273,0.1,0.00053612,5357.5,0.00054466,5677.4,-0.00011634,710.91,-0.00021097,-0.099386,0.13346
6005,3.1779,2.7273,0.1,0.00055,5496.2,0.00055908,5843.8,-0.00011508,778.35,-0.0002187,-0.14808,0.12137
6006,2.9936,2.7273,0.1,0.000567,5666,0.00057665,6043.1,-0.00011444,850.58,-0.00022767,-0.21711,0.10965
6007,2.8093,2.7273,0.1,0.00058812,5877.1,0.00059837,6285.3,-0.00011479,926.97,-0.0002382,-0.3146,0.098324
6008,2.6251,2.7273,0.1,0.00061468,6142.5,0.00062556,6583.2,-0.00011669,1006.3,-0.00025067,-0.45148,0.087406
6009,2.4408,2.7273,0.1,0.00064841,6479.6,0.00066,6953.7,-0.00012091,1086.3,-0.00026557,-0.64093,0.076913
6010,2.2565,2.7273,0.1,0.0006916,6911.3,0.00070398,7418.5,-0.00012854,1163.3,-0.00028349,-0.89747,0.066869
6011,2.0723,2.7273,0.1,0.00074724,7467.2,0.00076049,8005.7,-0.00014108,1231.7,-0.00030517,-1.2324,0.057304
6012,1.888,2.7273,0.1,0.00081901,8184.5,0.00083321,8749.3,-0.00016045,1283.3,-0.00033147,-1.5846,0.048256
6013,1.7037,2.7273,0.1,0.00091103,9104,0.00092615,9686.2,-0.00018887,1308.4,-0.00036327,-1.9426,0.039774
6014,1.5195,2.7273,0.1,0.0010261,10254,0.0010419,10841,-0.00022773,1301.1,-0.00040116,-1.9763,0.031921
6015,1.3352,2.7273,0.1,0.0011607,11599,0.0011771,12185,-0.00027455,1277.2,-0.00044458,-0.26918,0.024774
6016,1.1509,2.7273,0.1,0.0012964,12955,0.0013136,13558,-0.00031747,1302.4,-0.00049049,2.3476,0.018424
6017,23.816,2.9091,0.1,2.0103e-05,200.9,9.8662e-06,39.742,4.5487e-06,-0.21239,-1.913e-05,-178.13,2.9052
6018,23.631,2.9091,0.1,2.1815e-05,218,1.3432e-05,78.769,2.9045e-06,-0.33339,-1.9375e-05,-167.74,2.8741
6019,23.447,2.9091,0.1,2.3946e-05,239.3,1.6996e-05,117.79,1.2999e-06,-0.1456,-1.9655e-05,-157.59,2.843
6020,23.263,2.9091,0.1,2.6399e-05,263.81,2.0564e-05,156.63,-2.9948e-07,-0.12771,-1.9973e-05,-147.95,2.8119
6021,23.079,2.9091,0.1,2.9094e-05,290.74,2.4134e-05,195.35,-1.8784e-06,-0.09583,-2.0334e-05,-138.76,2.7808
6022,22.894,2.9091,0.1,3.1975e-05,319.53,2.7712e-05,233.99,-3.4405e-06,-0.080541,-2.0738e-05,-130.05,2.7498
6023,22.71,2.9091,0.1,3.5002e-05,349.77,3.1301e-05,272.57,-4.9857e-06,-0.068178,-2.1188e-05,-121.8,2.7188
6024,22.526,2.9091,0.1,3.8146e-05,381.19,3.4904e-05,311.15,-6.5155e-06,-0.059392,-2.1684e-05,-114.03,2.6878
6025,22.342,2.9091,0.1,4.1388e-05,413.59,3.8526e-05,349.76,-8.0313e-06,-0.052501,-2.2227e-05,-106.71,2.6568
6026,22.157,2.9091,0.1,4.4713e-05,446.82,4.2169e-05,388.43,-9.5345e-06,-0.047041,-2.2818e-05,-99.851,2.6258
6027,21.973,2.9091,0.1,4.8112e-05,480.79,4.5837e-05,427.2,-1.1026e-05,-0.042581,-2.3455e-05,-93.428,2.5949
6028,21.789,2.9091,0.1,5.1577e-05,515.41,4.953e-05,466.09,-1.2509e-05,-0.038863,-2.4139e-05,-87.426,2.564
6029,21.605,2.9091,0.1,5.5101e-05,550.63,5.3251e-05,505.13,-1.3982e-05,-0.035724,-2.4868e-05,-81.829,2.5331
6030,21.42,2.9091,0.1,5.8681e-05,586.4,5.7e-05,544.32,-1.5448e-05,-0.033038,-2.5641e-05,-76.617,2.5023
6031,21.236,2.9091,0.1,6.2312e-05,622.69,6.078e-05,583.68,-1.6908e-05,-0.030701,-2.6456e-05,-71.771,2.4715
6032,21.052,2.9091,0.1,6.5991e-05,659.46,6.4589e-05,623.23,-1.8362e-05,-0.028648,-2.7311e-05,-67.268,2.4408
6033,20.867,2.9091,0.1,6.9716e-05,696.68,6.8428e-05,662.98,-1.9813e-05,-0.026828,-2.8206e-05,-63.089,2.4101
6034,20.683,2.9091,0.1,7.3484e-05,734.33,7.2297e-05,702.92,-2.126e-05,-0.025215,-2.9137e-05,-59.213,2.3794
6035,20.499,2.9091,0.1,7.7293e-05,772.4,7.6196e-05,743.08,-2.2704e-05,-0.023778,-3.0103e-05,-55.62,2.3488
6036,20.315,2.9091,0.1,8.1142e-05,810.86,8.0125e-05,783.44,-2.4147e-05,-0.022477,-3.1103e-05,-52.291,2.3182
6037,20.13,2.9091,0.1,8.5028e-05,849.69,8.4084e-05,824.01,-2.5588e-05,-0.021298,-3.2135e-05,-49.207,2.2877
6038,19.946,2.9091,0.1,8.8951e-05,888.89,8.8071e-05,864.8,-2.703e-05,-0.020216,-3.3196e-05,-46.351,2.2573
6039,19.762,2.9091,0.1,9.2908e-05,928.44,9.2087e-05,905.8,-2.8471e-05,-0.019239,-3.4285e-05,-43.706,2.2269
6040,19.578,2.9091,0.1,9.6899e-05,968.32,9.6131e-05,947.02,-2.9913e-05,-0.018359,-3.5401e-05,-41.256,2.1966
6041,19.393,2.9091,0.1,0.00010092,1008.5,0.0001002,988.46,-3.1356e-05,-0.017541,-3.6542e-05,-38.986,2.1663
6042,19.209,2.9091,0.1,0.00010498,1049,0.0001043,1030.1,-3.2801e-05,-0.016785,-3.7707e-05,-36.883,2.1362
6043,19.025,2.9091,0.1,0.00010906,1089.9,0.00010843,1072,-3.4248e-05,-0.016075,-3.8895e-05,-34.934,2.106
6044,18.841,2.9091,0.1,0.00011318,1131,0.00011258,1114.1,-3.5697e-05,-0.015432,-4.0104e-05,-33.126,2.076
6045,18.656,2.9091,0.1,0.00011732,1172.4,0.00011675,1156.3,-3.7149e-05,-0.01485,-4.1332e-05,-31.448,2.046
6046,18.472,2.9091,0.1,0.00012149,1214.1,0.00012096,1198.9,-3.8604e-05,-0.014295,-4.258e-05,-29.889,2.0161
6047,18.288,2.9091,0.1,0.00012569,1256,0.00012518,1241.6,-4.0062e-05,-0.013779,-4.3846e-05,-28.44,1.9863
6048,18.103,2.9091,0.1,0.00012992,1298.3,0.00012943,1284.5,-4.1525e-05,-0.01328,-4.5128e-05,-27.091,1.9566
6049,17.919,2.9091,0.1,0.00013417,1340.8,0.00013371,1327.6,-4.2991e-05,-0.012831,-4.6427e-05,-25.834,1.927
6050,17.735,2.9091,0.1,0.00013844,1383.5,0.00013801,1371,-4.4461e-05,-0.012427,-4.7741e-05,-24.66,1.8974
6051,17.551,2.9091,0.1,0.00014275,1426.5,0.00014233,1414.5,-4.5935e-05,-0.012033,-4.907e-05,-23.562,1.868
6052,17.366,2.9091,0.1,0.00014707,1469.7,0.00014668,1458.3,-4.7415e-05,-0.011661,-5.0412e-05,-22.533,1.8386
6053,17.182,2.9091,0.1,0.00015142,1513.2,0.00015105,1502.3,-4.8899e-05,-0.01129,-5.1768e-05,-21.567,1.8094
6054,16.998,2.9091,0.1,0.0001558,1556.9,0.00015544,1546.5,-5.0388e-05,-0.010962,-5.3135e-05,-20.657,1.7802
6055,16.814,2.9091,0.1,0.0001602,1600.8,0.00015985,1590.9,-5.1882e-05,-0.01067,-5.4515e-05,-19.797,1.7512
6056,16.629,2.9091,0.1,0.00016462,1645,0.00016428,1635.4,-5.3381e-05,-0.010377,-5.5906e-05,-18.981,1.7222
6057,16.445,2.9091,0.1,0.00016906,1689.4,0.00016874,1680.2,-5.4886e-05,-0.010096,-5.7307e-05,-18.206,1.6934
6058,16.261,2.9091,0.1,0.00017352,1734,0.00017322,1725.2,-5.6396e-05,-0.0098083,-5.8719e-05,-17.464,1.6647
6059,16.077,2.9091,0.1,0.00017801,1778.9,0.00017772,1770.4,-5.7912e-05,-0.0095568,-6.0141e-05,-16.753,1.6361
6060,15.892,2.9091,0.1,0.00018252,1823.9,0.00018224,1815.8,-5.9434e-05,-0.0093379,-6.1571e-05,-16.066,1.6077
6061,15.708,2.9091,0.1,0.00018705,1869.2,0.00018678,1861.4,-6.0962e-05,-0.0091114,-6.3011e-05,-15.4,1.5793
6062,15.524,2.9091,0.1,0.0001916,1914.7,0.00019134,1907.2,-6.2496e-05,-0.0088898,-6.4458e-05,-14.751,1.5511
6063,15.339,2.9091,0.1,0.00019617,1960.3,0.00019593,1953.2,-6.4036e-05,-0.0086542,-6.5914e-05,-14.113,1.523
6064,15.155,2.9091,0.1,0.00020076,2006.2,0.00020053,1999.4,-6.5583e-05,-0.0084515,-6.7376e-05,-13.484,1.495
6065,14.971,2.9091,0.1,0.00020537,2052.3,0.00020515,2045.9,-6.7136e-05,-0.0082827,-6.8846e-05,-12.859,1.4672
6066,14.787,2.9091,0.1,0.00021001,2098.6,0.00020979,2092.5,-6.8695e-05,-0.0080982,-7.0323e-05,-12.233,1.4395
6067,14.602,2.9091,0.1,0.00021466,2145.1,0.00021446,2139.3,-7.0262e-05,-0.007914,-7.1805e-05,-11.604,1.412
6068,14.418,2.9091,0.1,0.00021933,2191.8,0.00021914,2186.3,-7.1835e-05,-0.0077104,-7.3293e-05,-10.966,1.3846
6069,14.234,2.9091,0.1,0.00022402,2238.6,0.00022384,2233.4,-7.3415e-05,-0.0075401,-7.4787e-05,-10.317,1.3574
6070,14.05,2.9091,0.1,0.00022873,2285.7,0.00022856,2280.8,-7.5002e-05,-0.007402,-7.6285e-05,-9.6504,1.3303
6071,13.865,2.9091,0.1,0.00023345,2332.9,0.0002333,2328.4,-7.6596e-05,-0.0072431,-7.7788e-05,-8.9633,1.3033
6072,13.681,2.9091,0.1,0.0002382,2380.3,0.00023806,2376.2,-7.8197e-05,-0.0070807,-7.9294e-05,-8.2511,1.2765
6073,13.497,2.9091,0.1,0.00024296,2428,0.00024283,2424.2,-7.9806e-05,-0.0068925,-8.0805e-05,-7.509,1.2499
6074,13.313,2.9091,0.1,0.00024774,2475.7,0.00024763,2472.4,-8.1422e-05,-0.0067385,-8.2318e-05,-6.7323,1.2235
6075,13.128,2.9091,0.1,0.00025254,2523.7,0.00025244,2520.7,-8.3046e-05,-0.006617,-8.3833e-05,-5.9161,1.1972
6076,12.944,2.9091,0.1,0.00025736,2571.8,0.00025727,2569.3,-8.4678e-05,-0.0064688,-8.535e-05,-5.0549,1.1711
6077,12.76,2.9091,0.1,0.00026219,2620.1,0.00026212,2618,-8.6318e-05,-0.0063129,-8.6869e-05,-4.1432,1.1451
6078,12.575,2.9091,0.1,0.00026704,2668.6,0.00026699,2667,-8.7966e-05,-0.0061241,-8.8388e-05,-3.175,1.1194
6079,12.391,2.9091,0.1,0.0002719,2717.2,0.00027187,2716.1,-8.9623e-05,-0.0059619,-8.9907e-05,-2.1442,1.0938
6080,12.207,2.9091,0.1,0.00027678,2765.9,0.00027677,2765.4,-9.1288e-05,-0.0058032,-9.1426e-05,-1.0441,1.0684
6081,12.023,2.9091,0.1,0.00028168,2814.9,0.00028168,2814.9,-9.2943e-05,0.1334,-9.2961e-05,-0.0063758,1.0432
6082,11.838,2.9091,0.1,0.00028659,2863.9,0.00028661,2864.6,-9.4458e-05,1.3938,-9.4644e-05,-0.0056487,1.0182
6083,11.654,2.9091,0.1,0.00029151,2913.1,0.00029156,2914.5,-9.5969e-05,2.7472,-9.6336e-05,-0.0054252,0.99335
6084,11.47,2.9091,0.1,0.00029645,2962.5,0.00029652,2964.5,-9.7477e-05,4.2018,-9.8037e-05,-0.0052562,0.96873
6085,11.286,2.9091,0.1,0.0003014,3011.9,0.0003015,3014.8,-9.898e-05,5.7672,-9.9748e-05,-0.0051263,0.94431
6086,11.101,2.9091,0.1,0.00030636,3061.5,0.00030649,3065.2,-0.00010048,7.4538,-0.00010147,-0.0049607,0.92009
6087,10.917,2.9091,0.1,0.00031134,3111.2,0.00031149,3115.8,-0.00010197,9.2725,-0.0001032,-0.0047824,0.89608
6088,10.733,2.9091,0.1,0.00031632,3161,0.00031651,3166.6,-0.00010345,11.235,-0.00010494,-0.0045623,0.87229
6089,10.549,2.9091,0.1,0.00032131,3210.9,0.00032154,3217.6,-0.00010492,13.356,-0.00010669,-0.0043765,0.8487
6090,10.364,2.9091,0.1,0.00032632,3260.9,0.00032658,3268.7,-0.00010638,15.647,-0.00010846,-0.004221,0.82534
6091,10.18,2.9091,0.1,0.00033133,3311,0.00033163,3320,-0.00010782,18.125,-0.00011024,-0.0040077,0.8022
6092,9.9957,2.9091,0.1,0.00033635,3361.2,0.0003367,3371.5,-0.00010925,20.806,-0.00011202,-0.0037949,0.77928
6093,9.8115,2.9091,0.1,0.00034137,3411.4,0.00034177,3423.2,-0.00011067,23.709,-0.00011383,-0.0035715,0.75659
6094,9.6272,2.9091,0.1,0.0003464,3461.6,0.00034685,3475,-0.00011207,26.853,-0.00011564,-0.0033276,0.73414
6095,9.4429,2.9091,0.1,0.00035144,3511.9,0.00035194,3527,-0.00011344,30.259,-0.00011747,-0.0030774,0.71192
6096,9.2587,2.9091,0.1,0.00035647,3562.3,0.00035704,3579.1,-0.00011479,33.951,-0.00011931,-0.0028094,0.68994
6097,9.0744,2.9091,0.1,0.00036151,3612.6,0.00036214,3631.4,-0.00011612,37.956,-0.00012117,-0.0025238,0.6682
6098,8.8901,2.9091,0.1,0.00036654,3662.9,0.00036725,3683.9,-0.00011742,42.301,-0.00012305,-0.0022186,0.6467
6099,8.7059,2.9091,0.1,0.00037158,3713.2,0.00037236,3736.5,-0.00011868,47.016,-0.00012494,-0.0018914,0.62546
6100,8.5216,2.9091,0.1,0.00037661,3763.5,0.00037747,3789.3,-0.00011992,52.137,-0.00012685,-0.0015401,0.60447
6101,8.3373,2.9091,0.1,0.00038163,3813.7,0.00038258,3842.2,-0.00012111,57.7,-0.00012879,-0.0011624,0.58373
6102,8.1531,2.9091,0.1,0.00038665,3863.8,0.00038769,3895.3,-0.00012225,63.746,-0.00013074,-0.00075574,0.56326
6103,7.9688,2.9091,0.1,0.00039165,3913.8,0.0003928,3948.5,-0.00012335,70.322,-0.00013271,-0.00031698,0.54305
6104,7.7845,2.9091,0.1,0.00039665,3963.7,0.00039791,4001.9,-0.0001244,77.477,-0.00013471,0.00015606,0.5231
6105,7.6003,2.9091,0.1,0.00040163,4013.5,0.00040301,4055.5,-0.00012539,85.268,-0.00013674,0.00066615,0.50343
6106,7.416,2.9091,0.1,0.00040659,4063.1,0.00040811,4109.2,-0.00012631,93.755,-0.00013879,0.0012156,0.48403
6107,7.2317,2.9091,0.1,0.00041154,4112.5,0.00041319,4163.1,-0.00012717,103.01,-0.00014088,0.001807,0.4649
6108,7.0475,2.9091,0.1,0.00041647,4161.8,0.00041827,4217.2,-0.00012794,113.1,-0.000143,0.0024413,0.44606
6109,6.8632,2.9091,0.1,0.00042137,4210.8,0.00042335,4271.5,-0.00012864,124.13,-0.00014516,0.0031185,0.4275
6110,6.6789,2.9091,0.1,0.00042626,4259.6,0.00042841,4326.1,-0.00012923,136.17,-0.00014736,0.0038375,0.40923
6111,6.4947,2.9091,0.1,0.00043112,4308.3,0.00043347,4381,-0.00012973,149.35,-0.0001496,0.0045943,0.39125
6112,6.3104,2.9091,0.1,0.00043597,4356.7,0.00043852,4436.3,-0.00013011,163.77,-0.00015191,0.005381,0.37356
6113,6.1261,2.9091,0.1,0.0004408,4405,0.00044358,4492,-0.00013037,179.58,-0.00015427,0.0061856,0.35617
6114,5.9419,2.9091,0.1,0.00044562,4453.1,0.00044864,4548.3,-0.00013049,196.91,-0.0001567,0.0069874,0.33909
6115,5.7576,2.9091,0.1,0.00045044,4501.3,0.00045372,4605.4,-0.00013047,215.94,-0.00015921,0.0077568,0.3223
6116,5.5733,2.9091,0.1,0.00045527,4549.5,0.00045883,4663.3,-0.00013029,236.85,-0.00016182,0.0084495,0.30583
6117,5.3891,2.9091,0.1,0.00046013,4598.1,0.000464,4722.5,-0.00012995,259.85,-0.00016453,0.0090024,0.28967
6118,5.2048,2.9091,0.1,0.00046504,4647.2,0.00046924,4783.2,-0.00012942,285.16,-0.00016737,0.0093257,0.27382
6119,5.0205,2.9091,0.1,0.00047005,4697.3,0.00047459,4846,-0.0001287,313.04,-0.00017036,0.0092923,0.25829
6120,4.8363,2.9091,0.1,0.0004752,4748.7,0.00048011,4911.3,-0.00012778,343.77,-0.00017353,0.0087241,0.24308
6121,4.652,2.9091,0.1,0.00048056,4802.3,0.00048587,4979.9,-0.00012666,377.64,-0.00017692,0.0073721,0.2282
6122,4.4677,2.9091,0.1,0.00048621,4858.7,0.00049194,5052.9,-0.00012533,414.98,-0.00018057,0.0048876,0.21365
6123,4.2835,2.9091,0.1,0.00049228,4919.4,0.00049845,5131.6,-0.00012381,456.15,-0.00018452,0.00078111,0.19944
6124,4.0992,2.9091,0.1,0.00049891,4985.7,0.00050555,5217.5,-0.00012211,501.49,-0.00018886,-0.0056354,0.18556
6125,3.9149,2.9091,0.1,0.00050632,5059.7,0.00051344,5312.8,-0.00012027,551.39,-0.00019365,-0.015336,0.17202
6126,3.7307,2.9091,0.1,0.00051476,5144.1,0.00052239,5420.3,-0.00011833,606.18,-0.00019901,-0.029705,0.15884
6127,3.5464,2.9091,0.1,0.0005246,5242.4,0.00053274,5543.6,-0.0001164,666.19,-0.00020507,-0.050722,0.14601
6128,3.3621,2.9091,0.1,0.00053628,5359.1,0.00054496,5687.3,-0.00011459,731.65,-0.00021198,-0.081226,0.13354
6129,3.1779,2.9091,0.1,0.00055042,5500.4,0.00055965,5857.5,-0.00011311,802.62,-0.00021995,-0.12529,0.12144
6130,2.9936,2.9091,0.1,0.00056779,5674,0.00057761,6062.1,-0.00011223,878.94,-0.00022923,-0.1887,0.10972
6131,2.8093,2.9091,0.1,0.00058945,5890.4,0.00059987,6311.2,-0.00011234,959.99,-0.00024014,-0.27954,0.098399
6132,2.6251,2.9091,0.1,0.00061674,6163.2,0.00062782,6618.4,-0.00011403,1044.5,-0.00025309,-0.40856,0.087481
6133,2.4408,2.9091,0.1,0.00065147,6510.2,0.00066328,7000.9,-0.00011809,1130,-0.00026856,-0.58839,0.076991
6134,2.2565,2.9091,0.1,0.00069594,6954.6,0.00070856,7480.6,-0.00012567,1212.5,-0.00028715,-0.82995,0.066952
6135,2.0723,2.9091,0.1,0.00075301,7524.9,0.00076656,8084.3,-0.00013824,1286,-0.00030955,-1.1269,0.057395
6136,1.888,2.9091,0.1,0.00082594,8253.7,0.0008405,8841.6,-0.00015763,1342.1,-0.00033644,-1.4455,0.04836
6137,1.7037,2.9091,0.1,0.00091758,9169.4,0.00093314,9777.4,-0.00018546,1372.7,-0.00036837,-1.5732,0.039896
6138,1.5195,2.9091,0.1,0.0010281,10274,0.0010446,10893,-0.0002218,1377.6,-0.00040535,-1.4661,0.032067
6139,1.3352,2.9091,0.1,0.0011509,11501,0.0011681,12130,-0.00026217,1382.8,-0.00044623,-0.11385,0.024947
6140,1.1509,2.9091,0.1,0.0012681,12672,0.0012865,13338,-0.00029432,1460.1,-0.00048877,-0.8646,0.018619
6141,23.816,3.0909,0.1,2.0103e-05,200.9,9.8662e-06,39.742,4.5487e-06,-0.21239,-1.913e-05,-178.13,2.9052
6142,23.631,3.0909,0.1,2.1815e-05,218,1.3432e-05,78.769,2.9045e-06,-0.33339,-1.9375e-05,-167.74,2.8741
6143,23.447,3.0909,0.1,2.3946e-05,239.3,1.6996e-05,117.79,1.2999e-06,-0.1456,-1.9655e-05,-157.59,2.843
6144,23.263,3.0909,0.1,2.6399e-05,263.81,2.0564e-05,156.63,-2.9948e-07,-0.12771,-1.9973e-05,-147.95,2.8119
6145,23.079,3.0909,0.1,2.9094e-05,290.74,2.4134e-05,195.35,-1.8784e-06,-0.095831,-2.0334e-05,-138.76,2.7808
6146,22.894,3.0909,0.1,3.1975e-05,319.53,2.7712e-05,233.99,-3.4405e-06,-0.080539,-2.0738e-05,-130.05,2.7498
6147,22.71,3.0909,0.1,3.5002e-05,349.77,3.1301e-05,272.57,-4.9857e-06,-0.068181,-2.1188e-05,-121.8,2.7188
6148,22.526,3.0909,0.1,3.8146e-05,381.19,3.4904e-05,311.15,-6.5155e-06,-0.05939,-2.1684e-05,-114.03,2.6878
6149,22.342,3.0909,0.1,4.1388e-05,413.59,3.8526e-05,349.76,-8.0313e-06,-0.0525,-2.2227e-05,-106.71,2.6568
6150,22.157,3.0909,0.1,4.4713e-05,446.82,4.2169e-05,388.43,-9.5345e-06,-0.047041,-2.2818e-05,-99.851,2.6258
6151,21.973,3.0909,0.1,4.8112e-05,480.79,4.5837e-05,427.2,-1.1026e-05,-0.042579,-2.3455e-05,-93.428,2.5949
6152,21.789,3.0909,0.1,5.1577e-05,515.41,4.953e-05,466.09,-1.2509e-05,-0.038864,-2.4139e-05,-87.426,2.564
6153,21.605,3.0909,0.1,5.5101e-05,550.63,5.3251e-05,505.13,-1.3982e-05,-0.035724,-2.4868e-05,-81.829,2.5331
6154,21.42,3.0909,0.1,5.8681e-05,586.4,5.7e-05,544.32,-1.5448e-05,-0.033039,-2.5641e-05,-76.617,2.5023
6155,21.236,3.0909,0.1,6.2312e-05,622.69,6.078e-05,583.68,-1.6908e-05,-0.0307,-2.6456e-05,-71.771,2.4715
6156,21.052,3.0909,0.1,6.5991e-05,659.46,6.4589e-05,623.23,-1.8362e-05,-0.028649,-2.7311e-05,-67.268,2.4408
6157,20.867,3.0909,0.1,6.9716e-05,696.68,6.8428e-05,662.98,-1.9813e-05,-0.026829,-2.8206e-05,-63.089,2.4101
6158,20.683,3.0909,0.1,7.3484e-05,734.33,7.2297e-05,702.92,-2.126e-05,-0.025215,-2.9137e-05,-59.213,2.3794
6159,20.499,3.0909,0.1,7.7293e-05,772.4,7.6196e-05,743.08,-2.2704e-05,-0.023777,-3.0103e-05,-55.62,2.3488
6160,20.315,3.0909,0.1,8.1142e-05,810.86,8.0125e-05,783.44,-2.4147e-05,-0.022478,-3.1103e-05,-52.291,2.3182
6161,20.13,3.0909,0.1,8.5028e-05,849.69,8.4084e-05,824.01,-2.5588e-05,-0.021299,-3.2135e-05,-49.207,2.2877
6162,19.946,3.0909,0.1,8.8951e-05,888.89,8.8071e-05,864.8,-2.703e-05,-0.020216,-3.3196e-05,-46.351,2.2573
6163,19.762,3.0909,0.1,9.2908e-05,928.44,9.2087e-05,905.8,-2.8471e-05,-0.019242,-3.4285e-05,-43.706,2.2269
6164,19.578,3.0909,0.1,9.6899e-05,968.32,9.6131e-05,947.02,-2.9913e-05,-0.018359,-3.5401e-05,-41.256,2.1966
6165,19.393,3.0909,0.1,0.00010092,1008.5,0.0001002,988.46,-3.1356e-05,-0.01754,-3.6542e-05,-38.986,2.1663
6166,19.209,3.0909,0.1,0.00010498,1049,0.0001043,1030.1,-3.2801e-05,-0.016786,-3.7707e-05,-36.883,2.1362
6167,19.025,3.0909,0.1,0.00010906,1089.9,0.00010843,1072,-3.4248e-05,-0.016074,-3.8895e-05,-34.934,2.106
6168,18.841,3.0909,0.1,0.00011318,1131,0.00011258,1114.1,-3.5697e-05,-0.015431,-4.0104e-05,-33.126,2.076
6169,18.656,3.0909,0.1,0.00011732,1172.4,0.00011675,1156.3,-3.7149e-05,-0.014849,-4.1332e-05,-31.448,2.046
6170,18.472,3.0909,0.1,0.00012149,1214.1,0.00012096,1198.9,-3.8604e-05,-0.014296,-4.258e-05,-29.889,2.0161
6171,18.288,3.0909,0.1,0.00012569,1256,0.00012518,1241.6,-4.0062e-05,-0.013779,-4.3846e-05,-28.44,1.9863
6172,18.103,3.0909,0.1,0.00012992,1298.3,0.00012943,1284.5,-4.1525e-05,-0.01328,-4.5128e-05,-27.091,1.9566
6173,17.919,3.0909,0.1,0.00013417,1340.8,0.00013371,1327.6,-4.2991e-05,-0.012831,-4.6427e-05,-25.834,1.927
6174,17.735,3.0909,0.1,0.00013844,1383.5,0.00013801,1371,-4.4461e-05,-0.012426,-4.7741e-05,-24.66,1.8974
6175,17.551,3.0909,0.1,0.00014275,1426.5,0.00014233,1414.5,-4.5935e-05,-0.012033,-4.907e-05,-23.562,1.868
6176,17.366,3.0909,0.1,0.00014707,1469.7,0.00014668,1458.3,-4.7415e-05,-0.01166,-5.0412e-05,-22.533,1.8386
6177,17.182,3.0909,0.1,0.00015142,1513.2,0.00015105,1502.3,-4.8899e-05,-0.01129,-5.1768e-05,-21.567,1.8094
6178,16.998,3.0909,0.1,0.0001558,1556.9,0.00015544,1546.5,-5.0388e-05,-0.010962,-5.3135e-05,-20.657,1.7802
6179,16.814,3.0909,0.1,0.0001602,1600.8,0.00015985,1590.9,-5.1882e-05,-0.01067,-5.4515e-05,-19.797,1.7512
6180,16.629,3.0909,0.1,0.00016462,1645,0.00016428,1635.4,-5.3381e-05,-0.010378,-5.5906e-05,-18.981,1.7222
6181,16.445,3.0909,0.1,0.00016906,1689.4,0.00016874,1680.2,-5.4886e-05,-0.010095,-5.7307e-05,-18.206,1.6934
6182,16.261,3.0909,0.1,0.00017352,1734,0.00017322,1725.2,-5.6396e-05,-0.0098083,-5.8719e-05,-17.464,1.6647
6183,16.077,3.0909,0.1,0.00017801,1778.9,0.00017772,1770.4,-5.7912e-05,-0.009556,-6.0141e-05,-16.753,1.6361
6184,15.892,3.0909,0.1,0.00018252,1823.9,0.00018224,1815.8,-5.9434e-05,-0.0093388,-6.1571e-05,-16.066,1.6077
6185,15.708,3.0909,0.1,0.00018705,1869.2,0.00018678,1861.4,-6.0962e-05,-0.0091114,-6.3011e-05,-15.4,1.5793
6186,15.524,3.0909,0.1,0.0001916,1914.7,0.00019134,1907.2,-6.2496e-05,-0.0088887,-6.4458e-05,-14.751,1.5511
6187,15.339,3.0909,0.1,0.00019617,1960.3,0.00019593,1953.2,-6.4036e-05,-0.0086539,-6.5914e-05,-14.113,1.523
6188,15.155,3.0909,0.1,0.00020076,2006.2,0.00020053,1999.4,-6.5583e-05,-0.0084522,-6.7376e-05,-13.484,1.495
6189,14.971,3.0909,0.1,0.00020537,2052.3,0.00020515,2045.9,-6.7136e-05,-0.0082829,-6.8846e-05,-12.859,1.4672
6190,14.787,3.0909,0.1,0.00021001,2098.6,0.00020979,2092.5,-6.8695e-05,-0.008098,-7.0323e-05,-12.233,1.4395
6191,14.602,3.0909,0.1,0.00021466,2145.1,0.00021446,2139.3,-7.0262e-05,-0.0079145,-7.1805e-05,-11.604,1.412
6192,14.418,3.0909,0.1,0.00021933,2191.8,0.00021914,2186.3,-7.1835e-05,-0.0077107,-7.3293e-05,-10.966,1.3846
6193,14.234,3.0909,0.1,0.00022402,2238.6,0.00022384,2233.4,-7.3415e-05,-0.0075401,-7.4787e-05,-10.317,1.3574
6194,14.05,3.0909,0.1,0.00022873,2285.7,0.00022856,2280.8,-7.5002e-05,-0.0074016,-7.6285e-05,-9.6504,1.3303
6195,13.865,3.0909,0.1,0.00023345,2332.9,0.0002333,2328.4,-7.6596e-05,-0.0072429,-7.7788e-05,-8.9633,1.3033
6196,13.681,3.0909,0.1,0.0002382,2380.3,0.00023806,2376.2,-7.8197e-05,-0.0070813,-7.9294e-05,-8.2511,1.2765
6197,13.497,3.0909,0.1,0.00024296,2428,0.00024283,2424.2,-7.9806e-05,-0.0068929,-8.0805e-05,-7.509,1.2499
6198,13.313,3.0909,0.1,0.00024774,2475.7,0.00024763,2472.4,-8.1422e-05,-0.006739,-8.2318e-05,-6.7323,1.2235
6199,13.128,3.0909,0.1,0.00025254,2523.7,0.00025244,2520.7,-8.3046e-05,-0.0066166,-8.3833e-05,-5.9161,1.1972
6200,12.944,3.0909,0.1,0.00025736,2571.8,0.00025727,2569.3,-8.4678e-05,-0.0064689,-8.535e-05,-5.0549,1.1711
6201,12.76,3.0909,0.1,0.00026219,2620.1,0.00026212,2618,-8.6318e-05,-0.0063133,-8.6869e-05,-4.1432,1.1451
6202,12.575,3.0909,0.1,0.00026704,2668.6,0.00026699,2667,-8.7966e-05,-0.0061239,-8.8388e-05,-3.175,1.1194
6203,12.391,3.0909,0.1,0.0002719,2717.2,0.00027187,2716.1,-8.9623e-05,-0.0059619,-8.9907e-05,-2.1442,1.0938
6204,12.207,3.0909,0.1,0.00027678,2765.9,0.00027677,2765.4,-9.1288e-05,-0.005803,-9.1426e-05,-1.0441,1.0684
6205,12.023,3.0909,0.1,0.00028168,2814.9,0.00028168,2814.9,-9.2943e-05,0.1334,-9.2961e-05,-0.0063752,1.0432
6206,11.838,3.0909,0.1,0.00028659,2863.9,0.00028661,2864.6,-9.4458e-05,1.3938,-9.4644e-05,-0.0056483,1.0182
6207,11.654,3.0909,0.1,0.00029151,2913.1,0.00029156,2914.5,-9.5969e-05,2.7472,-9.6336e-05,-0.0054251,0.99335
6208,11.47,3.0909,0.1,0.00029645,2962.5,0.00029652,2964.5,-9.7477e-05,4.2018,-9.8037e-05,-0.0052553,0.96873
6209,11.286,3.0909,0.1,0.0003014,3011.9,0.0003015,3014.8,-9.898e-05,5.7672,-9.9748e-05,-0.0051265,0.94431
6210,11.101,3.0909,0.1,0.00030636,3061.5,0.00030649,3065.2,-0.00010048,7.4538,-0.00010147,-0.0049604,0.92009
6211,10.917,3.0909,0.1,0.00031134,3111.2,0.00031149,3115.8,-0.00010197,9.2725,-0.0001032,-0.0047825,0.89608
6212,10.733,3.0909,0.1,0.00031632,3161,0.00031651,3166.6,-0.00010345,11.235,-0.00010494,-0.0045617,0.87229
6213,10.549,3.0909,0.1,0.00032131,3210.9,0.00032154,3217.6,-0.00010492,13.356,-0.00010669,-0.0043766,0.8487
6214,10.364,3.0909,0.1,0.00032632,3260.9,0.00032658,3268.7,-0.00010638,15.647,-0.00010846,-0.0042208,0.82534
6215,10.18,3.0909,0.1,0.00033133,3311,0.00033163,3320,-0.00010782,18.125,-0.00011024,-0.0040078,0.8022
6216,9.9957,3.0909,0.1,0.00033635,3361.2,0.0003367,3371.5,-0.00010925,20.806,-0.00011202,-0.0037949,0.77928
6217,9.8115,3.0909,0.1,0.00034137,3411.4,0.00034177,3423.2,-0.00011067,23.709,-0.00011383,-0.0035713,0.75659
6218,9.6272,3.0909,0.1,0.0003464,3461.6,0.00034685,3475,-0.00011207,26.853,-0.00011564,-0.0033272,0.73414
6219,9.4429,3.0909,0.1,0.00035144,3511.9,0.00035194,3527,-0.00011344,30.259,-0.00011747,-0.0030774,0.71192
6220,9.2587,3.0909,0.1,0.00035647,3562.3,0.00035704,3579.1,-0.00011479,33.951,-0.00011931,-0.0028088,0.68994
6221,9.0744,3.0909,0.1,0.00036151,3612.6,0.00036214,3631.4,-0.00011612,37.956,-0.00012117,-0.0025237,0.6682
6222,8.8901,3.0909,0.1,0.00036654,3662.9,0.00036725,3683.9,-0.00011742,42.301,-0.00012305,-0.0022185,0.6467
6223,8.7059,3.0909,0.1,0.00037158,3713.2,0.00037236,3736.5,-0.00011868,47.016,-0.00012494,-0.0018913,0.62546
6224,8.5216,3.0909,0.1,0.00037661,3763.5,0.00037747,3789.3,-0.00011992,52.137,-0.00012685,-0.0015402,0.60447
6225,8.3373,3.0909,0.1,0.00038163,3813.7,0.00038258,3842.2,-0.00012111,57.7,-0.00012879,-0.0011622,0.58373
6226,8.1531,3.0909,0.1,0.00038665,3863.8,0.00038769,3895.3,-0.00012225,63.746,-0.00013074,-0.00075556,0.56326
6227,7.9688,3.0909,0.1,0.00039165,3913.8,0.0003928,3948.5,-0.00012335,70.322,-0.00013271,-0.00031686,0.54305
6228,7.7845,3.0909,0.1,0.00039665,3963.7,0.00039791,4001.9,-0.0001244,77.477,-0.00013471,0.00015612,0.5231
6229,7.6003,3.0909,0.1,0.00040163,4013.5,0.00040301,4055.5,-0.00012539,85.268,-0.00013674,0.00066627,0.50343
6230,7.416,3.0909,0.1,0.00040659,4063.1,0.00040811,4109.2,-0.00012631,93.755,-0.00013879,0.0012161,0.48403
6231,7.2317,3.0909,0.1,0.00041154,4112.5,0.00041319,4163.1,-0.00012717,103.01,-0.00014088,0.0018072,0.4649
6232,7.0475,3.0909,0.1,0.00041647,4161.8,0.00041827,4217.2,-0.00012794,113.1,-0.000143,0.0024411,0.44606
6233,6.8632,3.0909,0.1,0.00042137,4210.8,0.00042335,4271.5,-0.00012864,124.13,-0.00014516,0.0031185,0.4275
6234,6.6789,3.0909,0.1,0.00042626,4259.6,0.00042841,4326.1,-0.00012923,136.17,-0.00014736,0.0038375,0.40923
6235,6.4947,3.0909,0.1,0.00043112,4308.3,0.00043347,4381,-0.00012973,149.35,-0.0001496,0.0045945,0.39125
6236,6.3104,3.0909,0.1,0.00043597,4356.7,0.00043852,4436.3,-0.00013011,163.77,-0.00015191,0.0053812,0.37356
6237,6.1261,3.0909,0.1,0.0004408,4405,0.00044358,4492,-0.00013037,179.58,-0.00015427,0.0061856,0.35617
6238,5.9419,3.0909,0.1,0.00044562,4453.1,0.00044864,4548.3,-0.00013049,196.91,-0.0001567,0.0069874,0.33909
6239,5.7576,3.0909,0.1,0.00045044,4501.3,0.00045372,4605.4,-0.00013047,215.94,-0.00015921,0.0077568,0.3223
6240,5.5733,3.0909,0.1,0.00045527,4549.5,0.00045883,4663.3,-0.00013029,236.85,-0.00016182,0.0084496,0.30583
6241,5.3891,3.0909,0.1,0.00046013,4598.1,0.000464,4722.5,-0.00012995,259.85,-0.00016453,0.0090028,0.28967
6242,5.2048,3.0909,0.1,0.00046504,4647.2,0.00046924,4783.2,-0.00012942,285.16,-0.00016737,0.0093259,0.27382
6243,5.0205,3.0909,0.1,0.00047005,4697.3,0.00047459,4846,-0.0001287,313.04,-0.00017036,0.0092925,0.25829
6244,4.8363,3.0909,0.1,0.0004752,4748.7,0.00048011,4911.3,-0.00012778,343.77,-0.00017353,0.0087242,0.24308
6245,4.652,3.0909,0.1,0.00048056,4802.3,0.00048587,4979.9,-0.00012666,377.64,-0.00017692,0.0073722,0.2282
6246,4.4677,3.0909,0.1,0.00048621,4858.7,0.00049194,5052.9,-0.00012533,414.98,-0.00018057,0.0048876,0.21365
6247,4.2835,3.0909,0.1,0.00049228,4919.4,0.00049845,5131.6,-0.00012381,456.15,-0.00018452,0.00078128,0.19944
6248,4.0992,3.0909,0.1,0.00049891,4985.7,0.00050555,5217.5,-0.00012211,501.49,-0.00018886,-0.0056354,0.18556
6249,3.9149,3.0909,0.1,0.00050632,5059.7,0.00051344,5312.8,-0.00012027,551.39,-0.00019365,-0.015336,0.17202
6250,3.7307,3.0909,0.1,0.00051476,5144.1,0.00052239,5420.3,-0.00011833,606.18,-0.00019901,-0.029705,0.15884
6251,3.5464,3.0909,0.1,0.0005246,5242.4,0.00053274,5543.6,-0.0001164,666.19,-0.00020507,-0.050722,0.14601
6252,3.3621,3.0909,0.1,0.00053628,5359.1,0.00054496,5687.3,-0.00011459,731.65,-0.00021198,-0.081225,0.13354
6253,3.1779,3.0909,0.1,0.00055042,5500.4,0.00055965,5857.5,-0.00011311,802.62,-0.00021995,-0.12529,0.12144
6254,2.9936,3.0909,0.1,0.00056779,5674,0.00057761,6062.1,-0.00011223,878.94,-0.00022923,-0.1887,0.10972
6255,2.8093,3.0909,0.1,0.00058945,5890.4,0.00059987,6311.2,-0.00011234,959.99,-0.00024014,-0.27954,0.098399
6256,2.6251,3.0909,0.1,0.00061674,6163.2,0.00062782,6618.4,-0.00011403,1044.5,-0.00025309,-0.40856,0.087481
6257,2.4408,3.0909,0.1,0.00065147,6510.2,0.00066328,7000.9,-0.00011809,1130,-0.00026856,-0.58839,0.076991
6258,2.2565,3.0909,0.1,0.00069594,6954.6,0.00070856,7480.6,-0.00012567,1212.5,-0.00028715,-0.82995,0.066952
6259,2.0723,3.0909,0.1,0.00075301,7524.9,0.00076656,8084.3,-0.00013824,1286,-0.00030955,-1.1269,0.057395
6260,1.888,3.0909,0.1,0.00082594,8253.7,0.0008405,8841.6,-0.00015763,1342.1,-0.00033644,-1.4455,0.04836
6261,1.7037,3.0909,0.1,0.00091758,9169.4,0.00093314,9777.4,-0.00018546,1372.7,-0.00036837,-1.5732,0.039896
6262,1.5195,3.0909,0.1,0.0010281,10274,0.0010446,10893,-0.0002218,1377.6,-0.00040535,-1.4661,0.032067
6263,1.3352,3.0909,0.1,0.0011509,11501,0.0011681,12130,-0.00026217,1382.8,-0.00044623,-0.11385,0.024947
6264,1.1509,3.0909,0.1,0.0012681,12672,0.0012865,13338,-0.00029432,1460.1,-0.00048877,-0.8646,0.018619
6265,23.816,3.2727,0.1,2.0012e-05,199.98,9.8363e-06,39.751,4.5177e-06,-0.21096,-1.9038e-05,-177.2,2.9051
6266,23.631,3.2727,0.1,2.1725e-05,217.1,1.34e-05,78.757,2.8743e-06,-0.33272,-1.9282e-05,-166.8,2.8741
6267,23.447,3.2727,0.1,2.386e-05,238.44,1.6962e-05,117.75,1.2706e-06,-0.14514,-1.9561e-05,-156.67,2.843
6268,23.263,3.2727,0.1,2.6317e-05,262.99,2.0529e-05,156.58,-3.2753e-07,-0.12731,-1.9881e-05,-147.05,2.8119
6269,23.079,3.2727,0.1,2.9016e-05,289.96,2.4098e-05,195.28,-1.9052e-06,-0.095471,-2.0243e-05,-137.88,2.7808
6270,22.894,3.2727,0.1,3.1901e-05,318.79,2.7675e-05,233.9,-3.4658e-06,-0.080203,-2.065e-05,-129.19,2.7498
6271,22.71,3.2727,0.1,3.4932e-05,349.07,3.1264e-05,272.47,-5.0095e-06,-0.067863,-2.1102e-05,-120.98,2.7187
6272,22.526,3.2727,0.1,3.808e-05,380.54,3.4867e-05,311.04,-6.5379e-06,-0.059084,-2.1602e-05,-113.24,2.6877
6273,22.342,3.2727,0.1,4.1326e-05,412.97,3.849e-05,349.65,-8.0523e-06,-0.052205,-2.2149e-05,-105.97,2.6568
6274,22.157,3.2727,0.1,4.4656e-05,446.25,4.2135e-05,388.32,-9.554e-06,-0.04675,-2.2744e-05,-99.148,2.6258
6275,21.973,3.2727,0.1,4.8059e-05,480.26,4.5804e-05,427.09,-1.1045e-05,-0.042294,-2.3386e-05,-92.767,2.5949
6276,21.789,3.2727,0.1,5.1528e-05,514.93,4.9499e-05,465.99,-1.2525e-05,-0.038582,-2.4074e-05,-86.81,2.564
6277,21.605,3.2727,0.1,5.5057e-05,550.19,5.3222e-05,505.03,-1.3998e-05,-0.035446,-2.4808e-05,-81.256,2.5331
6278,21.42,3.2727,0.1,5.8641e-05,586,5.6974e-05,544.23,-1.5463e-05,-0.032764,-2.5585e-05,-76.087,2.5023
6279,21.236,3.2727,0.1,6.2276e-05,622.33,6.0756e-05,583.6,-1.6921e-05,-0.030431,-2.6404e-05,-71.282,2.4715
6280,21.052,3.2727,0.1,6.5959e-05,659.13,6.4567e-05,623.17,-1.8375e-05,-0.028384,-2.7264e-05,-66.819,2.4408
6281,20.867,3.2727,0.1,6.9687e-05,696.39,6.8409e-05,662.92,-1.9824e-05,-0.026567,-2.8163e-05,-62.677,2.41
6282,20.683,3.2727,0.1,7.3459e-05,734.08,7.228e-05,702.88,-2.1271e-05,-0.024959,-2.9098e-05,-58.837,2.3794
6283,20.499,3.2727,0.1,7.7271e-05,772.18,7.6182e-05,743.04,-2.2714e-05,-0.023527,-3.0068e-05,-55.277,2.3488
6284,20.315,3.2727,0.1,8.1122e-05,810.67,8.0113e-05,783.41,-2.4156e-05,-0.022231,-3.1071e-05,-51.979,2.3182
6285,20.13,3.2727,0.1,8.5011e-05,849.53,8.4073e-05,824,-2.5597e-05,-0.021057,-3.2106e-05,-48.924,2.2877
6286,19.946,3.2727,0.1,8.8936e-05,888.75,8.8062e-05,864.8,-2.7038e-05,-0.019981,-3.317e-05,-46.094,2.2573
6287,19.762,3.2727,0.1,9.2896e-05,928.32,9.208e-05,905.81,-2.8479e-05,-0.019008,-3.4262e-05,-43.474,2.2269
6288,19.578,3.2727,0.1,9.6889e-05,968.22,9.6125e-05,947.04,-2.992e-05,-0.018131,-3.5381e-05,-41.046,2.1966
6289,19.393,3.2727,0.1,0.00010091,1008.4,0.0001002,988.48,-3.1363e-05,-0.017319,-3.6524e-05,-38.798,2.1663
6290,19.209,3.2727,0.1,0.00010497,1049,0.0001043,1030.1,-3.2807e-05,-0.016566,-3.7691e-05,-36.714,2.1361
6291,19.025,3.2727,0.1,0.00010906,1089.8,0.00010842,1072,-3.4254e-05,-0.015863,-3.8881e-05,-34.782,2.106
6292,18.841,3.2727,0.1,0.00011317,1131,0.00011258,1114.1,-3.5703e-05,-0.015221,-4.0091e-05,-32.99,2.076
6293,18.656,3.2727,0.1,0.00011732,1172.4,0.00011675,1156.4,-3.7154e-05,-0.014642,-4.1322e-05,-31.327,2.046
6294,18.472,3.2727,0.1,0.00012149,1214.1,0.00012096,1198.9,-3.8609e-05,-0.014093,-4.2571e-05,-29.781,2.0161
6295,18.288,3.2727,0.1,0.00012569,1256,0.00012518,1241.6,-4.0067e-05,-0.013578,-4.3838e-05,-28.344,1.9863
6296,18.103,3.2727,0.1,0.00012992,1298.3,0.00012944,1284.6,-4.1529e-05,-0.013083,-4.5122e-05,-27.007,1.9566
6297,17.919,3.2727,0.1,0.00013417,1340.8,0.00013371,1327.7,-4.2995e-05,-0.012636,-4.6422e-05,-25.76,1.9269
6298,17.735,3.2727,0.1,0.00013845,1383.5,0.00013801,1371.1,-4.4465e-05,-0.012234,-4.7737e-05,-24.595,1.8974
6299,17.551,3.2727,0.1,0.00014275,1426.5,0.00014234,1414.6,-4.5939e-05,-0.011843,-4.9066e-05,-23.506,1.8679
6300,17.366,3.2727,0.1,0.00014708,1469.8,0.00014668,1458.4,-4.7419e-05,-0.011472,-5.041e-05,-22.485,1.8386
6301,17.182,3.2727,0.1,0.00015143,1513.2,0.00015105,1502.4,-4.8902e-05,-0.011106,-5.1766e-05,-21.526,1.8093
6302,16.998,3.2727,0.1,0.0001558,1557,0.00015544,1546.5,-5.0391e-05,-0.010777,-5.3134e-05,-20.623,1.7802
6303,16.814,3.2727,0.1,0.0001602,1600.9,0.00015986,1590.9,-5.1885e-05,-0.010489,-5.4515e-05,-19.769,1.7511
6304,16.629,3.2727,0.1,0.00016462,1645.1,0.00016429,1635.5,-5.3384e-05,-0.010198,-5.5906e-05,-18.96,1.7222
6305,16.445,3.2727,0.1,0.00016907,1689.5,0.00016875,1680.3,-5.4889e-05,-0.0099191,-5.7308e-05,-18.19,1.6934
6306,16.261,3.2727,0.1,0.00017353,1734.1,0.00017323,1725.3,-5.6399e-05,-0.0096332,-5.8721e-05,-17.454,1.6647
6307,16.077,3.2727,0.1,0.00017802,1778.9,0.00017773,1770.5,-5.7915e-05,-0.0093827,-6.0143e-05,-16.747,1.6361
6308,15.892,3.2727,0.1,0.00018253,1824,0.00018225,1815.9,-5.9437e-05,-0.0091652,-6.1574e-05,-16.065,1.6076
6309,15.708,3.2727,0.1,0.00018706,1869.3,0.00018679,1861.5,-6.0965e-05,-0.0089412,-6.3014e-05,-15.404,1.5793
6310,15.524,3.2727,0.1,0.00019161,1914.7,0.00019135,1907.3,-6.2499e-05,-0.0087204,-6.4462e-05,-14.758,1.551
6311,15.339,3.2727,0.1,0.00019618,1960.4,0.00019593,1953.3,-6.4039e-05,-0.0084845,-6.5917e-05,-14.125,1.5229
6312,15.155,3.2727,0.1,0.00020077,2006.3,0.00020054,1999.5,-6.5585e-05,-0.0082841,-6.7381e-05,-13.5,1.495
6313,14.971,3.2727,0.1,0.00020538,2052.4,0.00020516,2045.9,-6.7138e-05,-0.0081152,-6.8851e-05,-12.879,1.4672
6314,14.787,3.2727,0.1,0.00021001,2098.7,0.0002098,2092.5,-6.8697e-05,-0.0079306,-7.0328e-05,-12.258,1.4395
6315,14.602,3.2727,0.1,0.00021467,2145.2,0.00021447,2139.3,-7.0264e-05,-0.0077461,-7.1811e-05,-11.632,1.4119
6316,14.418,3.2727,0.1,0.00021934,2191.9,0.00021915,2186.3,-7.1837e-05,-0.0075417,-7.3299e-05,-10.999,1.3845
6317,14.234,3.2727,0.1,0.00022403,2238.7,0.00022385,2233.5,-7.3416e-05,-0.0073708,-7.4793e-05,-10.353,1.3573
6318,14.05,3.2727,0.1,0.00022874,2285.8,0.00022857,2280.9,-7.5003e-05,-0.007231,-7.6292e-05,-9.6916,1.3302
6319,13.865,3.2727,0.1,0.00023346,2333,0.00023331,2328.5,-7.6597e-05,-0.0070693,-7.7795e-05,-9.0091,1.3033
6320,13.681,3.2727,0.1,0.00023821,2380.5,0.00023807,2376.3,-7.8198e-05,-0.0069038,-7.9302e-05,-8.3018,1.2765
6321,13.497,3.2727,0.1,0.00024297,2428.1,0.00024284,2424.3,-7.9807e-05,-0.0067106,-8.0813e-05,-7.5647,1.2499
6322,13.313,3.2727,0.1,0.00024776,2475.9,0.00024764,2472.4,-8.1423e-05,-0.0065492,-8.2327e-05,-6.7934,1.2234
6323,13.128,3.2727,0.1,0.00025256,2523.8,0.00025245,2520.8,-8.3047e-05,-0.0064174,-8.3843e-05,-5.983,1.1971
6324,12.944,3.2727,0.1,0.00025737,2571.9,0.00025728,2569.4,-8.4679e-05,-0.0062519,-8.5361e-05,-5.1279,1.171
6325,12.76,3.2727,0.1,0.0002622,2620.2,0.00026213,2618.1,-8.6319e-05,-0.0060703,-8.688e-05,-4.2228,1.1451
6326,12.575,3.2727,0.1,0.00026705,2668.7,0.000267,2667.1,-8.7967e-05,-0.0058358,-8.84e-05,-3.2617,1.1193
6327,12.391,3.2727,0.1,0.00027192,2717.3,0.00027188,2716.2,-8.9623e-05,-0.0055798,-8.992e-05,-2.2386,1.0937
6328,12.207,3.2727,0.1,0.0002768,2766.1,0.00027678,2765.5,-9.1288e-05,-0.005131,-9.1439e-05,-1.147,1.0683
6329,12.023,3.2727,0.1,0.0002817,2815,0.0002817,2815,-9.2955e-05,0.03915,-9.2963e-05,-0.023241,1.0431
6330,11.838,3.2727,0.1,0.00028661,2864.1,0.00028663,2864.7,-9.4473e-05,1.2735,-9.4644e-05,-0.0061406,1.0181
6331,11.654,3.2727,0.1,0.00029153,2913.3,0.00029157,2914.6,-9.5986e-05,2.6162,-9.6335e-05,-0.0056365,0.99329
6332,11.47,3.2727,0.1,0.00029647,2962.6,0.00029654,2964.7,-9.7495e-05,4.0594,-9.8036e-05,-0.0053758,0.96867
6333,11.286,3.2727,0.1,0.00030142,3012.1,0.00030151,3014.9,-9.8999e-05,5.6124,-9.9747e-05,-0.0052023,0.94424
6334,11.101,3.2727,0.1,0.00030638,3061.7,0.00030651,3065.3,-0.0001005,7.2854,-0.00010147,-0.0050126,0.92003
6335,10.917,3.2727,0.1,0.00031136,3111.4,0.00031151,3116,-0.00010199,9.0894,-0.0001032,-0.0048192,0.89602
6336,10.733,3.2727,0.1,0.00031634,3161.2,0.00031653,3166.7,-0.00010347,11.036,-0.00010494,-0.0045908,0.87222
6337,10.549,3.2727,0.1,0.00032134,3211.2,0.00032156,3217.7,-0.00010494,13.139,-0.00010669,-0.0044004,0.84864
6338,10.364,3.2727,0.1,0.00032634,3261.2,0.0003266,3268.9,-0.0001064,15.411,-0.00010846,-0.0042425,0.82527
6339,10.18,3.2727,0.1,0.00033136,3311.3,0.00033166,3320.2,-0.00010785,17.868,-0.00011023,-0.0040289,0.80213
6340,9.9957,3.2727,0.1,0.00033638,3361.5,0.00033672,3371.7,-0.00010929,20.527,-0.00011202,-0.0038168,0.77921
6341,9.8115,3.2727,0.1,0.0003414,3411.7,0.0003418,3423.3,-0.00011071,23.404,-0.00011382,-0.0035969,0.75652
6342,9.6272,3.2727,0.1,0.00034644,3462,0.00034688,3475.2,-0.00011211,26.52,-0.00011564,-0.0033574,0.73406
6343,9.4429,3.2727,0.1,0.00035147,3512.3,0.00035197,3527.2,-0.00011348,29.896,-0.00011746,-0.0031133,0.71184
6344,9.2587,3.2727,0.1,0.00035651,3562.7,0.00035707,3579.3,-0.00011484,33.555,-0.00011931,-0.002852,0.68986
6345,9.0744,3.2727,0.1,0.00036155,3613,0.00036217,3631.6,-0.00011617,37.522,-0.00012117,-0.0025751,0.66812
6346,8.8901,3.2727,0.1,0.00036659,3663.4,0.00036728,3684.1,-0.00011747,41.826,-0.00012304,-0.0022799,0.64663
6347,8.7059,3.2727,0.1,0.00037163,3713.7,0.0003724,3736.7,-0.00011874,46.496,-0.00012493,-0.0019645,0.62538
6348,8.5216,3.2727,0.1,0.00037666,3764,0.00037751,3789.5,-0.00011998,51.565,-0.00012684,-0.0016276,0.60439
6349,8.3373,3.2727,0.1,0.00038169,3814.3,0.00038263,3842.5,-0.00012118,57.072,-0.00012877,-0.0012659,0.58365
6350,8.1531,3.2727,0.1,0.00038671,3864.4,0.00038774,3895.6,-0.00012233,63.055,-0.00013072,-0.00087812,0.56318
6351,7.9688,3.2727,0.1,0.00039172,3914.5,0.00039286,3948.8,-0.00012344,69.56,-0.0001327,-0.00046156,0.54297
6352,7.7845,3.2727,0.1,0.00039672,3964.5,0.00039797,4002.2,-0.0001245,76.635,-0.0001347,-1.463e-05,0.52302
6353,7.6003,3.2727,0.1,0.00040171,4014.3,0.00040308,4055.8,-0.00012549,84.335,-0.00013672,0.0004648,0.50334
6354,7.416,3.2727,0.1,0.00040668,4064,0.00040818,4109.5,-0.00012643,92.72,-0.00013877,0.00097841,0.48394
6355,7.2317,3.2727,0.1,0.00041163,4113.5,0.00041327,4163.5,-0.0001273,101.86,-0.00014085,0.0015268,0.46482
6356,7.0475,3.2727,0.1,0.00041657,4162.8,0.00041836,4217.6,-0.00012809,111.82,-0.00014297,0.0021105,0.44598
6357,6.8632,3.2727,0.1,0.00042149,4212,0.00042344,4272,-0.00012879,122.69,-0.00014512,0.0027273,0.42742
6358,6.6789,3.2727,0.1,0.00042638,4260.9,0.00042851,4326.6,-0.00012941,134.56,-0.00014732,0.003374,0.40914
6359,6.4947,3.2727,0.1,0.00043126,4309.6,0.00043358,4381.5,-0.00012993,147.54,-0.00014956,0.0040438,0.39116
6360,6.3104,3.2727,0.1,0.00043612,4358.2,0.00043864,4436.8,-0.00013033,161.73,-0.00015186,0.0047256,0.37348
6361,6.1261,3.2727,0.1,0.00044096,4406.6,0.00044371,4492.5,-0.00013062,177.26,-0.00015421,0.0054028,0.35609
6362,5.9419,3.2727,0.1,0.0004458,4454.9,0.00044878,4548.9,-0.00013077,194.28,-0.00015663,0.0060496,0.339
6363,5.7576,3.2727,0.1,0.00045063,4503.2,0.00045387,4605.9,-0.00013079,212.94,-0.00015913,0.0066293,0.32222
6364,5.5733,3.2727,0.1,0.00045548,4551.6,0.000459,4663.8,-0.00013065,233.42,-0.00016172,0.0070884,0.30574
6365,5.3891,3.2727,0.1,0.00046035,4600.3,0.00046417,4723,-0.00013036,255.92,-0.00016442,0.0073527,0.28958
6366,5.2048,3.2727,0.1,0.00046528,4649.6,0.00046942,4783.6,-0.00012988,280.64,-0.00016723,0.0073177,0.27373
6367,5.0205,3.2727,0.1,0.00047031,4699.8,0.00047479,4846.2,-0.00012923,307.82,-0.0001702,0.0068363,0.25821
6368,4.8363,3.2727,0.1,0.00047547,4751.4,0.00048031,4911.3,-0.00012839,337.73,-0.00017334,0.0057059,0.243
6369,4.652,3.2727,0.1,0.00048084,4805.1,0.00048607,4979.6,-0.00012735,370.64,-0.00017668,0.0036452,0.22812
6370,4.4677,3.2727,0.1,0.00048649,4861.6,0.00049214,5052.2,-0.00012613,406.84,-0.00018027,0.00026289,0.21357
6371,4.2835,3.2727,0.1,0.00049255,4922.1,0.00049863,5130.2,-0.00012472,446.67,-0.00018417,-0.0049844,0.19935
6372,4.0992,3.2727,0.1,0.00049917,4988.2,0.0005057,5215.3,-0.00012315,490.43,-0.00018842,-0.012854,0.18548
6373,3.9149,3.2727,0.1,0.00050653,5061.8,0.00051353,5309.5,-0.00012145,538.46,-0.00019312,-0.024407,0.17195
6374,3.7307,3.2727,0.1,0.0005149,5145.4,0.0005224,5415.4,-0.00011968,591.06,-0.00019835,-0.041134,0.15876
6375,3.5464,3.2727,0.1,0.00052462,5242.6,0.00053263,5536.6,-0.00011794,648.48,-0.00020425,-0.065136,0.14593
6376,3.3621,3.2727,0.1,0.00053612,5357.5,0.00054466,5677.4,-0.00011634,710.91,-0.00021097,-0.099385,0.13346
6377,3.1779,3.2727,0.1,0.00055,5496.2,0.00055908,5843.8,-0.00011508,778.35,-0.0002187,-0.14808,0.12137
6378,2.9936,3.2727,0.1,0.000567,5666,0.00057665,6043.1,-0.00011444,850.58,-0.00022767,-0.21711,0.10965
6379,2.8093,3.2727,0.1,0.00058812,5877.1,0.00059837,6285.3,-0.00011479,926.97,-0.0002382,-0.3146,0.098324
6380,2.6251,3.2727,0.1,0.00061468,6142.5,0.00062556,6583.2,-0.00011669,1006.3,-0.00025067,-0.45148,0.087406
6381,2.4408,3.2727,0.1,0.00064841,6479.6,0.00066,6953.7,-0.00012091,1086.3,-0.00026557,-0.64093,0.076913
6382,2.2565,3.2727,0.1,0.0006916,6911.3,0.00070398,7418.5,-0.00012854,1163.3,-0.00028349,-0.89747,0.066869
6383,2.0723,3.2727,0.1,0.00074724,7467.2,0.00076049,8005.7,-0.00014108,1231.7,-0.00030517,-1.2324,0.057304
6384,1.888,3.2727,0.1,0.00081901,8184.5,0.00083321,8749.3,-0.00016045,1283.3,-0.00033147,-1.5846,0.048256
6385,1.7037,3.2727,0.1,0.00091103,9104,0.00092615,9686.2,-0.00018887,1308.4,-0.00036327,-1.9426,0.039774
6386,1.5195,3.2727,0.1,0.0010261,10254,0.0010419,10841,-0.00022773,1301.1,-0.00040116,-1.9763,0.031921
6387,1.3352,3.2727,0.1,0.0011607,11599,0.0011771,12185,-0.00027455,1277.2,-0.00044458,-0.26918,0.024774
6388,1.1509,3.2727,0.1,0.0012964,12955,0.0013136,13558,-0.00031747,1302.4,-0.00049049,2.3476,0.018424
6389,23.816,3.4545,0.1,1.9829e-05,198.15,9.7761e-06,39.768,4.4556e-06,-0.20807,-1.8851e-05,-175.32,2.9051
6390,23.631,3.4545,0.1,2.1546e-05,215.31,1.3336e-05,78.73,2.8136e-06,-0.33135,-1.9094e-05,-164.94,2.874
6391,23.447,3.4545,0.1,2.3688e-05,236.72,1.6894e-05,117.68,1.212e-06,-0.14419,-1.9374e-05,-154.82,2.8429
6392,23.263,3.4545,0.1,2.6152e-05,261.34,2.0458e-05,156.47,-3.8375e-07,-0.12648,-1.9696e-05,-145.23,2.8119
6393,23.079,3.4545,0.1,2.8859e-05,288.39,2.4025e-05,195.14,-1.9587e-06,-0.094728,-2.0061e-05,-136.11,2.7808
6394,22.894,3.4545,0.1,3.1752e-05,317.3,2.7601e-05,233.72,-3.5164e-06,-0.079518,-2.0472e-05,-127.48,2.7497
6395,22.71,3.4545,0.1,3.4791e-05,347.67,3.1189e-05,272.27,-5.0572e-06,-0.067213,-2.0931e-05,-119.33,2.7187
6396,22.526,3.4545,0.1,3.7948e-05,379.22,3.4794e-05,310.83,-6.5826e-06,-0.058461,-2.1437e-05,-111.67,2.6877
6397,22.342,3.4545,0.1,4.1203e-05,411.74,3.8419e-05,349.43,-8.0941e-06,-0.051595,-2.1992e-05,-104.48,2.6567
6398,22.157,3.4545,0.1,4.4542e-05,445.11,4.2066e-05,388.1,-9.593e-06,-0.046155,-2.2596e-05,-97.742,2.6258
6399,21.973,3.4545,0.1,4.7954e-05,479.21,4.5739e-05,426.88,-1.1081e-05,-0.041708,-2.3247e-05,-91.45,2.5948
6400,21.789,3.4545,0.1,5.1432e-05,513.96,4.9438e-05,465.78,-1.2559e-05,-0.038006,-2.3944e-05,-85.581,2.5639
6401,21.605,3.4545,0.1,5.4969e-05,549.31,5.3165e-05,504.84,-1.4029e-05,-0.034878,-2.4687e-05,-80.115,2.5331
6402,21.42,3.4545,0.1,5.8561e-05,585.21,5.6922e-05,544.06,-1.5492e-05,-0.032206,-2.5474e-05,-75.032,2.5023
6403,21.236,3.4545,0.1,6.2204e-05,621.61,6.0708e-05,583.45,-1.6948e-05,-0.029881,-2.6302e-05,-70.31,2.4715
6404,21.052,3.4545,0.1,6.5895e-05,658.49,6.4525e-05,623.04,-1.84e-05,-0.027844,-2.7171e-05,-65.926,2.4407
6405,20.867,3.4545,0.1,6.963e-05,695.82,6.8371e-05,662.81,-1.9848e-05,-0.026036,-2.8077e-05,-61.859,2.41
6406,20.683,3.4545,0.1,7.3408e-05,733.58,7.2247e-05,702.79,-2.1292e-05,-0.024439,-2.902e-05,-58.09,2.3794
6407,20.499,3.4545,0.1,7.7227e-05,771.74,7.6153e-05,742.98,-2.2735e-05,-0.023018,-2.9998e-05,-54.596,2.3487
6408,20.315,3.4545,0.1,8.1084e-05,810.28,8.0088e-05,783.37,-2.4175e-05,-0.021732,-3.1008e-05,-51.36,2.3182
6409,20.13,3.4545,0.1,8.4979e-05,849.2,8.4052e-05,823.98,-2.5615e-05,-0.020568,-3.2049e-05,-48.362,2.2877
6410,19.946,3.4545,0.1,8.8908e-05,888.47,8.8045e-05,864.79,-2.7054e-05,-0.019502,-3.3119e-05,-45.585,2.2572
6411,19.762,3.4545,0.1,9.2873e-05,928.09,9.2066e-05,905.82,-2.8494e-05,-0.01854,-3.4216e-05,-43.013,2.2268
6412,19.578,3.4545,0.1,9.687e-05,968.03,9.6114e-05,947.07,-2.9935e-05,-0.017671,-3.534e-05,-40.631,2.1965
6413,19.393,3.4545,0.1,0.0001009,1008.3,0.00010019,988.52,-3.1377e-05,-0.016867,-3.6488e-05,-38.424,2.1663
6414,19.209,3.4545,0.1,0.00010496,1048.9,0.00010429,1030.2,-3.282e-05,-0.016125,-3.766e-05,-36.378,2.1361
6415,19.025,3.4545,0.1,0.00010905,1089.7,0.00010842,1072.1,-3.4266e-05,-0.015424,-3.8853e-05,-34.481,2.106
6416,18.841,3.4545,0.1,0.00011317,1130.9,0.00011258,1114.2,-3.5714e-05,-0.014795,-4.0067e-05,-32.72,2.0759
6417,18.656,3.4545,0.1,0.00011732,1172.3,0.00011676,1156.5,-3.7165e-05,-0.014223,-4.1301e-05,-31.086,2.0459
6418,18.472,3.4545,0.1,0.00012149,1214.1,0.00012096,1199,-3.8619e-05,-0.01368,-4.2553e-05,-29.567,2.016
6419,18.288,3.4545,0.1,0.00012569,1256.1,0.00012519,1241.7,-4.0077e-05,-0.013173,-4.3823e-05,-28.155,1.9862
6420,18.103,3.4545,0.1,0.00012992,1298.3,0.00012944,1284.7,-4.1538e-05,-0.012685,-4.5109e-05,-26.84,1.9565
6421,17.919,3.4545,0.1,0.00013417,1340.8,0.00013372,1327.8,-4.3004e-05,-0.012243,-4.6411e-05,-25.613,1.9269
6422,17.735,3.4545,0.1,0.00013845,1383.6,0.00013802,1371.2,-4.4473e-05,-0.011848,-4.7728e-05,-24.468,1.8973
6423,17.551,3.4545,0.1,0.00014276,1426.6,0.00014235,1414.7,-4.5947e-05,-0.011462,-4.906e-05,-23.396,1.8679
6424,17.366,3.4545,0.1,0.00014709,1469.9,0.00014669,1458.5,-4.7426e-05,-0.011097,-5.0405e-05,-22.391,1.8385
6425,17.182,3.4545,0.1,0.00015144,1513.3,0.00015106,1502.5,-4.891e-05,-0.010735,-5.1763e-05,-21.447,1.8093
6426,16.998,3.4545,0.1,0.00015581,1557.1,0.00015545,1546.7,-5.0398e-05,-0.010411,-5.3133e-05,-20.557,1.7801
6427,16.814,3.4545,0.1,0.00016021,1601,0.00015987,1591.1,-5.1892e-05,-0.010127,-5.4514e-05,-19.716,1.7511
6428,16.629,3.4545,0.1,0.00016463,1645.2,0.0001643,1635.7,-5.3391e-05,-0.0098396,-5.5907e-05,-18.918,1.7221
6429,16.445,3.4545,0.1,0.00016908,1689.6,0.00016876,1680.5,-5.4895e-05,-0.009565,-5.731e-05,-18.159,1.6933
6430,16.261,3.4545,0.1,0.00017354,1734.3,0.00017324,1725.5,-5.6405e-05,-0.0092813,-5.8724e-05,-17.433,1.6646
6431,16.077,3.4545,0.1,0.00017803,1779.1,0.00017774,1770.7,-5.7921e-05,-0.009034,-6.0147e-05,-16.736,1.636
6432,15.892,3.4545,0.1,0.00018254,1824.2,0.00018226,1816.1,-5.9442e-05,-0.0088215,-6.1579e-05,-16.063,1.6075
6433,15.708,3.4545,0.1,0.00018707,1869.4,0.00018681,1861.7,-6.097e-05,-0.0085982,-6.302e-05,-15.411,1.5792
6434,15.524,3.4545,0.1,0.00019162,1914.9,0.00019137,1907.5,-6.2503e-05,-0.0083799,-6.4469e-05,-14.774,1.551
6435,15.339,3.4545,0.1,0.0001962,1960.6,0.00019595,1953.5,-6.4043e-05,-0.0081478,-6.5925e-05,-14.149,1.5229
6436,15.155,3.4545,0.1,0.00020079,2006.5,0.00020055,1999.7,-6.5589e-05,-0.0079489,-6.7389e-05,-13.532,1.4949
6437,14.971,3.4545,0.1,0.0002054,2052.6,0.00020518,2046.1,-6.7142e-05,-0.0077816,-6.8861e-05,-12.919,1.4671
6438,14.787,3.4545,0.1,0.00021003,2098.9,0.00020982,2092.7,-6.8701e-05,-0.0075978,-7.0338e-05,-12.306,1.4394
6439,14.602,3.4545,0.1,0.00021469,2145.4,0.00021448,2139.5,-7.0267e-05,-0.0074138,-7.1822e-05,-11.689,1.4118
6440,14.418,3.4545,0.1,0.00021936,2192.1,0.00021917,2186.5,-7.184e-05,-0.0072099,-7.3312e-05,-11.064,1.3845
6441,14.234,3.4545,0.1,0.00022405,2238.9,0.00022387,2233.7,-7.342e-05,-0.0070357,-7.4806e-05,-10.427,1.3572
6442,14.05,3.4545,0.1,0.00022876,2286,0.00022859,2281.1,-7.5006e-05,-0.0068937,-7.6306e-05,-9.7739,1.3301
6443,13.865,3.4545,0.1,0.00023349,2333.3,0.00023333,2328.7,-7.66e-05,-0.0067277,-7.781e-05,-9.1006,1.3032
6444,13.681,3.4545,0.1,0.00023823,2380.7,0.00023809,2376.5,-7.8201e-05,-0.0065557,-7.9319e-05,-8.4029,1.2764
6445,13.497,3.4545,0.1,0.000243,2428.3,0.00024287,2424.5,-7.9809e-05,-0.0063537,-8.083e-05,-7.676,1.2498
6446,13.313,3.4545,0.1,0.00024778,2476.1,0.00024766,2472.6,-8.1425e-05,-0.0061785,-8.2345e-05,-6.9154,1.2233
6447,13.128,3.4545,0.1,0.00025258,2524.1,0.00025248,2521,-8.3049e-05,-0.0060274,-8.3862e-05,-6.1164,1.197
6448,12.944,3.4545,0.1,0.0002574,2572.2,0.00025731,2569.6,-8.468e-05,-0.0058348,-8.5382e-05,-5.2735,1.1709
6449,12.76,3.4545,0.1,0.00026223,2620.5,0.00026216,2618.3,-8.632e-05,-0.0056089,-8.6902e-05,-4.3815,1.145
6450,12.575,3.4545,0.1,0.00026708,2669,0.00026702,2667.3,-8.7967e-05,-0.0052999,-8.8424e-05,-3.4345,1.1192
6451,12.391,3.4545,0.1,0.00027195,2717.6,0.00027191,2716.4,-8.9623e-05,-0.0048999,-8.9945e-05,-2.4267,1.0936
6452,12.207,3.4545,0.1,0.00027683,2766.4,0.00027681,2765.7,-9.1287e-05,-0.0040861,-9.1467e-05,-1.3519,1.0682
6453,12.023,3.4545,0.1,0.00028173,2815.3,0.00028172,2815.2,-9.2959e-05,0.004941,-9.2988e-05,-0.21054,1.043
6454,11.838,3.4545,0.1,0.00028664,2864.4,0.00028666,2864.9,-9.4504e-05,1.0341,-9.4643e-05,-0.0074697,1.018
6455,11.654,3.4545,0.1,0.00029157,2913.6,0.00029161,2914.8,-9.6019e-05,2.3552,-9.6334e-05,-0.006131,0.99316
6456,11.47,3.4545,0.1,0.00029651,2963,0.00029657,2964.9,-9.7531e-05,3.7755,-9.8034e-05,-0.0056431,0.96854
6457,11.286,3.4545,0.1,0.00030146,3012.5,0.00030155,3015.1,-9.9038e-05,5.3038,-9.9744e-05,-0.0053677,0.94411
6458,11.101,3.4545,0.1,0.00030642,3062.1,0.00030654,3065.6,-0.00010054,6.95,-0.00010146,-0.0051225,0.91989
6459,10.917,3.4545,0.1,0.0003114,3111.9,0.00031155,3116.2,-0.00010203,8.7248,-0.00010319,-0.0048979,0.89588
6460,10.733,3.4545,0.1,0.00031639,3161.7,0.00031657,3167,-0.00010352,10.64,-0.00010494,-0.0046491,0.87208
6461,10.549,3.4545,0.1,0.00032139,3211.7,0.0003216,3218,-0.000105,12.708,-0.00010669,-0.0044478,0.8485
6462,10.364,3.4545,0.1,0.0003264,3261.7,0.00032665,3269.1,-0.00010646,14.942,-0.00010845,-0.0042851,0.82513
6463,10.18,3.4545,0.1,0.00033141,3311.8,0.0003317,3320.5,-0.00010791,17.357,-0.00011023,-0.0040707,0.80199
6464,9.9957,3.4545,0.1,0.00033644,3362,0.00033677,3372,-0.00010935,19.97,-0.00011201,-0.0038615,0.77907
6465,9.8115,3.4545,0.1,0.00034147,3412.3,0.00034185,3423.7,-0.00011078,22.797,-0.00011381,-0.0036467,0.75637
6466,9.6272,3.4545,0.1,0.0003465,3462.7,0.00034694,3475.5,-0.00011218,25.858,-0.00011563,-0.0034157,0.73392
6467,9.4429,3.4545,0.1,0.00035155,3513,0.00035203,3527.5,-0.00011357,29.174,-0.00011745,-0.0031826,0.71169
6468,9.2587,3.4545,0.1,0.00035659,3563.4,0.00035714,3579.7,-0.00011493,32.766,-0.00011929,-0.0029353,0.68971
6469,9.0744,3.4545,0.1,0.00036163,3613.9,0.00036224,3632,-0.00011627,36.66,-0.00012115,-0.0026752,0.66797
6470,8.8901,3.4545,0.1,0.00036668,3664.3,0.00036736,3684.5,-0.00011758,40.881,-0.00012302,-0.0024,0.64647
6471,8.7059,3.4545,0.1,0.00037172,3714.7,0.00037248,3737.2,-0.00011886,45.461,-0.00012491,-0.0021084,0.62522
6472,8.5216,3.4545,0.1,0.00037677,3765.1,0.0003776,3790,-0.00012011,50.43,-0.00012682,-0.0017983,0.60423
6473,8.3373,3.4545,0.1,0.0003818,3815.4,0.00038272,3843,-0.00012132,55.824,-0.00012875,-0.0014687,0.58349
6474,8.1531,3.4545,0.1,0.00038683,3865.7,0.00038785,3896.1,-0.00012249,61.682,-0.0001307,-0.001118,0.56302
6475,7.9688,3.4545,0.1,0.00039185,3915.8,0.00039297,3949.4,-0.00012361,68.046,-0.00013267,-0.00074541,0.5428
6476,7.7845,3.4545,0.1,0.00039687,3965.9,0.00039809,4002.9,-0.00012468,74.963,-0.00013466,-0.00034951,0.52286
6477,7.6003,3.4545,0.1,0.00040187,4015.9,0.00040321,4056.5,-0.0001257,82.485,-0.00013668,7.0013e-05,0.50318
6478,7.416,3.4545,0.1,0.00040685,4065.7,0.00040832,4110.3,-0.00012666,90.667,-0.00013873,0.00051305,0.48378
6479,7.2317,3.4545,0.1,0.00041182,4115.4,0.00041343,4164.3,-0.00012755,99.575,-0.0001408,0.00097839,0.46465
6480,7.0475,3.4545,0.1,0.00041678,4164.9,0.00041853,4218.4,-0.00012837,109.28,-0.00014291,0.001463,0.44581
6481,6.8632,3.4545,0.1,0.00042171,4214.2,0.00042362,4272.8,-0.00012911,119.85,-0.00014506,0.0019624,0.42725
6482,6.6789,3.4545,0.1,0.00042663,4263.3,0.00042871,4327.5,-0.00012976,131.37,-0.00014724,0.0024686,0.40897
6483,6.4947,3.4545,0.1,0.00043153,4312.3,0.0004338,4382.5,-0.00013032,143.95,-0.00014948,0.0029696,0.39099
6484,6.3104,3.4545,0.1,0.00043641,4361.1,0.00043888,4437.8,-0.00013077,157.68,-0.00015176,0.003448,0.3733
6485,6.1261,3.4545,0.1,0.00044128,4409.8,0.00044397,4493.6,-0.00013111,172.69,-0.00015409,0.003879,0.35592
6486,5.9419,3.4545,0.1,0.00044615,4458.4,0.00044906,4549.9,-0.00013133,189.09,-0.00015649,0.0042261,0.33883
6487,5.7576,3.4545,0.1,0.00045101,4507,0.00045417,4606.9,-0.00013142,207.04,-0.00015897,0.0044395,0.32205
6488,5.5733,3.4545,0.1,0.00045589,4555.7,0.00045932,4664.8,-0.00013136,226.68,-0.00016153,0.0044486,0.30557
6489,5.3891,3.4545,0.1,0.0004608,4604.8,0.00046452,4723.9,-0.00013116,248.19,-0.00016419,0.0041571,0.28941
6490,5.2048,3.4545,0.1,0.00046576,4654.4,0.00046979,4784.3,-0.0001308,271.76,-0.00016696,0.0034316,0.27356
6491,5.0205,3.4545,0.1,0.00047081,4704.9,0.00047517,4846.6,-0.00013027,297.59,-0.00016988,0.0020884,0.25804
6492,4.8363,3.4545,0.1,0.000476,4756.7,0.00048071,4911.3,-0.00012957,325.91,-0.00017295,-0.00012338,0.24283
6493,4.652,3.4545,0.1,0.00048138,4810.5,0.00048646,4979,-0.0001287,356.95,-0.00017621,-0.0035489,0.22795
6494,4.4677,3.4545,0.1,0.00048704,4867.1,0.00049251,5050.8,-0.00012767,390.96,-0.0001797,-0.0086614,0.2134
6495,4.2835,3.4545,0.1,0.00049309,4927.5,0.00049897,5127.6,-0.00012648,428.19,-0.00018347,-0.016112,0.19919
6496,4.0992,3.4545,0.1,0.00049965,4993.1,0.00050597,5211,-0.00012516,468.9,-0.00018757,-0.026796,0.18532
6497,3.9149,3.4545,0.1,0.00050693,5065.8,0.0005137,5302.9,-0.00012375,513.32,-0.00019207,-0.041955,0.17179
6498,3.7307,3.4545,0.1,0.00051515,5148,0.0005224,5405.7,-0.0001223,561.68,-0.00019707,-0.063305,0.1586
6499,3.5464,3.4545,0.1,0.00052464,5242.8,0.00053238,5522.7,-0.00012092,614.12,-0.00020267,-0.093232,0.14578
6500,3.3621,3.4545,0.1,0.0005358,5354.3,0.00054404,5657.9,-0.00011972,670.7,-0.000209,-0.13505,0.13331
6501,3.1779,3.4545,0.1,0.00054916,5487.8,0.00055793,5816.7,-0.0001189,731.29,-0.00021625,-0.19339,0.12122
6502,2.9936,3.4545,0.1,0.00056543,5650.4,0.00057473,6005.8,-0.00011871,795.55,-0.00022463,-0.27464,0.1095
6503,2.8093,3.4545,0.1,0.00058552,5851.2,0.00059539,6234.4,-0.00011953,862.74,-0.00023441,-0.38763,0.098174
6504,2.6251,3.4545,0.1,0.00061066,6102.4,0.00062114,6514.3,-0.00012188,931.57,-0.00024594,-0.54465,0.087253
6505,2.4408,3.4545,0.1,0.00064249,6420.5,0.00065361,6861.3,-0.0001265,999.9,-0.00025968,-0.76067,0.076755
6506,2.2565,3.4545,0.1,0.00068324,6827.7,0.00069506,7296.7,-0.00013441,1064.4,-0.00027621,-1.066,0.066701
6507,2.0723,3.4545,0.1,0.00073597,7354.6,0.00074855,7849.5,-0.0001471,1119.9,-0.00029634,-1.4428,0.05712
6508,1.888,3.4545,0.1,0.00080503,8044.8,0.0008184,8560,-0.00016665,1158.7,-0.00032115,-2.1045,0.048047
6509,1.7037,3.4545,0.1,0.00089647,8958.5,0.00091055,9484.5,-0.00019603,1170,-0.0003521,-2.5977,0.039529
6510,1.5195,3.4545,0.1,0.0010182,10175,0.0010327,10695,-0.00023922,1138.1,-0.00039099,-2.2398,0.031627
6511,1.3352,3.4545,0.1,0.0011765,11757,0.0011909,12248,-0.00029857,1057,-0.00043973,-3.6266,0.024423
6512,1.1509,3.4545,0.1,0.0013563,13553,0.0013701,14015,-0.00036367,987.34,-0.00049639,-9.874,0.018021
6513,23.816,3.6364,0.1,1.9552e-05,195.38,9.6851e-06,39.794,4.3618e-06,-0.20363,-1.8569e-05,-172.49,2.9051
6514,23.631,3.6364,0.1,2.1275e-05,212.61,1.3238e-05,78.687,2.722e-06,-0.32922,-1.881e-05,-162.11,2.874
6515,23.447,3.6364,0.1,2.3428e-05,234.11,1.6791e-05,117.58,1.1236e-06,-0.14271,-1.9092e-05,-152.03,2.8429
6516,23.263,3.6364,0.1,2.5904e-05,258.86,2.0351e-05,156.3,-4.6839e-07,-0.12519,-1.9417e-05,-142.5,2.8118
6517,23.079,3.6364,0.1,2.8623e-05,286.03,2.3915e-05,194.91,-2.0392e-06,-0.093576,-1.9787e-05,-133.45,2.7808
6518,22.894,3.6364,0.1,3.1529e-05,315.07,2.7489e-05,233.45,-3.5925e-06,-0.078445,-2.0206e-05,-124.9,2.7497
6519,22.71,3.6364,0.1,3.4581e-05,345.57,3.1077e-05,271.97,-5.1288e-06,-0.066197,-2.0673e-05,-116.86,2.7187
6520,22.526,3.6364,0.1,3.7751e-05,377.25,3.4683e-05,310.5,-6.6496e-06,-0.057482,-2.1191e-05,-109.31,2.6877
6521,22.342,3.6364,0.1,4.1019e-05,409.91,3.8311e-05,349.09,-8.1566e-06,-0.050646,-2.1758e-05,-102.24,2.6567
6522,22.157,3.6364,0.1,4.4371e-05,443.41,4.1963e-05,387.77,-9.6513e-06,-0.045224,-2.2374e-05,-95.641,2.6257
6523,21.973,3.6364,0.1,4.7797e-05,477.64,4.5641e-05,426.55,-1.1135e-05,-0.040795,-2.3039e-05,-89.482,2.5948
6524,21.789,3.6364,0.1,5.1288e-05,512.53,4.9347e-05,465.48,-1.261e-05,-0.037106,-2.3751e-05,-83.748,2.5639
6525,21.605,3.6364,0.1,5.4838e-05,548,5.3081e-05,504.56,-1.4076e-05,-0.033995,-2.4508e-05,-78.416,2.533
6526,21.42,3.6364,0.1,5.8443e-05,584.03,5.6845e-05,543.81,-1.5535e-05,-0.031338,-2.5308e-05,-73.462,2.5022
6527,21.236,3.6364,0.1,6.2098e-05,620.55,6.0639e-05,583.23,-1.6989e-05,-0.029028,-2.615e-05,-68.864,2.4714
6528,21.052,3.6364,0.1,6.58e-05,657.55,6.4462e-05,622.85,-1.8438e-05,-0.027008,-2.7032e-05,-64.6,2.4407
6529,20.867,3.6364,0.1,6.9546e-05,694.98,6.8315e-05,662.66,-1.9883e-05,-0.025217,-2.7951e-05,-60.646,2.41
6530,20.683,3.6364,0.1,7.3334e-05,732.84,7.2198e-05,702.67,-2.1325e-05,-0.023638,-2.8906e-05,-56.982,2.3793
6531,20.499,3.6364,0.1,7.7162e-05,771.09,7.6111e-05,742.89,-2.2765e-05,-0.022231,-2.9894e-05,-53.587,2.3487
6532,20.315,3.6364,0.1,8.1028e-05,809.72,8.0052e-05,783.31,-2.4204e-05,-0.020964,-3.0914e-05,-50.442,2.3181
6533,20.13,3.6364,0.1,8.4931e-05,848.72,8.4022e-05,823.95,-2.5641e-05,-0.019818,-3.1965e-05,-47.53,2.2876
6534,19.946,3.6364,0.1,8.8868e-05,888.07,8.802e-05,864.79,-2.7079e-05,-0.018767,-3.3043e-05,-44.832,2.2572
6535,19.762,3.6364,0.1,9.2839e-05,927.75,9.2046e-05,905.85,-2.8517e-05,-0.017819,-3.4149e-05,-42.333,2.2268
6536,19.578,3.6364,0.1,9.6842e-05,967.75,9.6099e-05,947.11,-2.9957e-05,-0.016969,-3.528e-05,-40.017,2.1965
6537,19.393,3.6364,0.1,0.00010088,1008.1,0.00010018,988.59,-3.1397e-05,-0.016177,-3.6435e-05,-37.871,2.1662
6538,19.209,3.6364,0.1,0.00010494,1048.7,0.00010428,1030.3,-3.284e-05,-0.015449,-3.7613e-05,-35.881,2.136
6539,19.025,3.6364,0.1,0.00010904,1089.6,0.00010842,1072.2,-3.4284e-05,-0.014764,-3.8812e-05,-34.035,2.1059
6540,18.841,3.6364,0.1,0.00011316,1130.8,0.00011257,1114.3,-3.5731e-05,-0.014145,-4.0031e-05,-32.322,2.0758
6541,18.656,3.6364,0.1,0.00011731,1172.3,0.00011676,1156.6,-3.7181e-05,-0.013584,-4.127e-05,-30.731,2.0459
6542,18.472,3.6364,0.1,0.00012149,1214.1,0.00012096,1199.2,-3.8635e-05,-0.013054,-4.2526e-05,-29.252,2.016
6543,18.288,3.6364,0.1,0.00012569,1256.1,0.0001252,1241.9,-4.0092e-05,-0.012557,-4.38e-05,-27.876,1.9862
6544,18.103,3.6364,0.1,0.00012993,1298.4,0.00012945,1284.9,-4.1552e-05,-0.012079,-4.509e-05,-26.593,1.9564
6545,17.919,3.6364,0.1,0.00013418,1340.9,0.00013373,1328,-4.3017e-05,-0.011648,-4.6396e-05,-25.397,1.9268
6546,17.735,3.6364,0.1,0.00013846,1383.7,0.00013803,1371.4,-4.4486e-05,-0.01126,-4.7716e-05,-24.28,1.8972
6547,17.551,3.6364,0.1,0.00014277,1426.7,0.00014236,1415,-4.5959e-05,-0.010884,-4.905e-05,-23.234,1.8678
6548,17.366,3.6364,0.1,0.0001471,1470,0.00014671,1458.7,-4.7438e-05,-0.010526,-5.0398e-05,-22.252,1.8384
6549,17.182,3.6364,0.1,0.00015145,1513.5,0.00015108,1502.7,-4.892e-05,-0.010173,-5.1758e-05,-21.33,1.8092
6550,16.998,3.6364,0.1,0.00015583,1557.2,0.00015547,1546.9,-5.0408e-05,-0.0098569,-5.313e-05,-20.46,1.78
6551,16.814,3.6364,0.1,0.00016023,1601.2,0.00015989,1591.3,-5.1902e-05,-0.0095788,-5.4514e-05,-19.638,1.751
6552,16.629,3.6364,0.1,0.00016465,1645.4,0.00016433,1635.9,-5.34e-05,-0.0092986,-5.5909e-05,-18.857,1.722
6553,16.445,3.6364,0.1,0.0001691,1689.8,0.00016878,1680.7,-5.4904e-05,-0.00903,-5.7314e-05,-18.114,1.6932
6554,16.261,3.6364,0.1,0.00017357,1734.5,0.00017326,1725.7,-5.6414e-05,-0.008754,-5.8729e-05,-17.404,1.6645
6555,16.077,3.6364,0.1,0.00017806,1779.3,0.00017777,1770.9,-5.7929e-05,-0.0085123,-6.0153e-05,-16.721,1.6359
6556,15.892,3.6364,0.1,0.00018257,1824.4,0.00018229,1816.3,-5.945e-05,-0.0083034,-6.1587e-05,-16.062,1.6074
6557,15.708,3.6364,0.1,0.0001871,1869.7,0.00018683,1861.9,-6.0977e-05,-0.0080872,-6.3029e-05,-15.423,1.5791
6558,15.524,3.6364,0.1,0.00019165,1915.2,0.00019139,1907.7,-6.2511e-05,-0.0078718,-6.4479e-05,-14.799,1.5508
6559,15.339,3.6364,0.1,0.00019622,1960.9,0.00019598,1953.7,-6.405e-05,-0.0076434,-6.5937e-05,-14.186,1.5227
6560,15.155,3.6364,0.1,0.00020082,2006.8,0.00020058,1999.9,-6.5596e-05,-0.0074468,-6.7403e-05,-13.582,1.4948
6561,14.971,3.6364,0.1,0.00020543,2052.9,0.00020521,2046.4,-6.7148e-05,-0.0072821,-6.8875e-05,-12.981,1.4669
6562,14.787,3.6364,0.1,0.00021006,2099.2,0.00020985,2093,-6.8707e-05,-0.0071006,-7.0354e-05,-12.379,1.4393
6563,14.602,3.6364,0.1,0.00021472,2145.7,0.00021451,2139.8,-7.0273e-05,-0.0069182,-7.1839e-05,-11.774,1.4117
6564,14.418,3.6364,0.1,0.00021939,2192.4,0.0002192,2186.8,-7.1845e-05,-0.0067132,-7.333e-05,-11.162,1.3843
6565,14.234,3.6364,0.1,0.00022408,2239.3,0.0002239,2234,-7.3425e-05,-0.0065399,-7.4826e-05,-10.537,1.3571
6566,14.05,3.6364,0.1,0.00022879,2286.3,0.00022862,2281.4,-7.5011e-05,-0.0063945,-7.6327e-05,-9.8973,1.33
6567,13.865,3.6364,0.1,0.00023352,2333.6,0.00023336,2329,-7.6604e-05,-0.0062242,-7.7833e-05,-9.2376,1.303
6568,13.681,3.6364,0.1,0.00023827,2381,0.00023812,2376.7,-7.8205e-05,-0.0060449,-7.9343e-05,-8.5541,1.2762
6569,13.497,3.6364,0.1,0.00024303,2428.7,0.0002429,2424.7,-7.9813e-05,-0.0058334,-8.0856e-05,-7.8423,1.2496
6570,13.313,3.6364,0.1,0.00024782,2476.5,0.0002477,2472.9,-8.1428e-05,-0.0056429,-8.2372e-05,-7.0977,1.2231
6571,13.128,3.6364,0.1,0.00025262,2524.4,0.00025251,2521.3,-8.3052e-05,-0.0054698,-8.3891e-05,-6.3157,1.1969
6572,12.944,3.6364,0.1,0.00025744,2572.6,0.00025734,2569.8,-8.4683e-05,-0.0052448,-8.5413e-05,-5.4909,1.1707
6573,12.76,3.6364,0.1,0.00026227,2620.9,0.00026219,2618.6,-8.6321e-05,-0.0049699,-8.6935e-05,-4.6185,1.1448
6574,12.575,3.6364,0.1,0.00026712,2669.4,0.00026706,2667.5,-8.7968e-05,-0.0045826,-8.8459e-05,-3.6925,1.119
6575,12.391,3.6364,0.1,0.00027199,2718,0.00027195,2716.7,-8.9624e-05,-0.0040484,-8.9983e-05,-2.7073,1.0934
6576,12.207,3.6364,0.1,0.00027688,2766.9,0.00027685,2766,-9.1287e-05,-0.0029874,-9.1507e-05,-1.6571,1.068
6577,12.023,3.6364,0.1,0.00028178,2815.8,0.00028177,2815.5,-9.2959e-05,0.0023521,-9.3031e-05,-0.53841,1.0428
6578,11.838,3.6364,0.1,0.00028669,2864.9,0.0002867,2865.2,-9.455e-05,0.67886,-9.4642e-05,-0.011211,1.0178
6579,11.654,3.6364,0.1,0.00029162,2914.2,0.00029165,2915.1,-9.6069e-05,1.9662,-9.6332e-05,-0.0071238,0.99297
6580,11.47,3.6364,0.1,0.00029656,2963.6,0.00029662,2965.2,-9.7584e-05,3.3524,-9.8031e-05,-0.0061303,0.96834
6581,11.286,3.6364,0.1,0.00030152,3013.1,0.0003016,3015.5,-9.9095e-05,4.8438,-9.9741e-05,-0.005654,0.94392
6582,11.101,3.6364,0.1,0.00030648,3062.7,0.00030659,3065.9,-0.0001006,6.4501,-0.00010146,-0.0053078,0.91969
6583,10.917,3.6364,0.1,0.00031147,3112.5,0.0003116,3116.6,-0.0001021,8.1813,-0.00010319,-0.0050249,0.89568
6584,10.733,3.6364,0.1,0.00031646,3162.4,0.00031663,3167.4,-0.00010359,10.049,-0.00010493,-0.0047425,0.87188
6585,10.549,3.6364,0.1,0.00032146,3212.4,0.00032166,3218.4,-0.00010507,12.065,-0.00010668,-0.0045212,0.84829
6586,10.364,3.6364,0.1,0.00032647,3262.5,0.00032671,3269.6,-0.00010655,14.243,-0.00010844,-0.0043482,0.82492
6587,10.18,3.6364,0.1,0.00033149,3312.7,0.00033177,3320.9,-0.00010801,16.596,-0.00011021,-0.004131,0.80177
6588,9.9957,3.6364,0.1,0.00033652,3362.9,0.00033685,3372.5,-0.00010945,19.141,-0.000112,-0.0039255,0.77885
6589,9.8115,3.6364,0.1,0.00034156,3413.3,0.00034193,3424.2,-0.00011088,21.894,-0.0001138,-0.0037175,0.75615
6590,9.6272,3.6364,0.1,0.0003466,3463.7,0.00034702,3476,-0.0001123,24.874,-0.00011561,-0.0034992,0.73369
6591,9.4429,3.6364,0.1,0.00035165,3514.1,0.00035212,3528.1,-0.00011369,28.099,-0.00011743,-0.0032824,0.71147
6592,9.2587,3.6364,0.1,0.0003567,3564.6,0.00035723,3580.3,-0.00011507,31.592,-0.00011927,-0.0030555,0.68948
6593,9.0744,3.6364,0.1,0.00036176,3615.1,0.00036235,3632.7,-0.00011642,35.377,-0.00012113,-0.0028198,0.66774
6594,8.8901,3.6364,0.1,0.00036681,3665.6,0.00036747,3685.2,-0.00011774,39.478,-0.000123,-0.0025743,0.64624
6595,8.7059,3.6364,0.1,0.00037187,3716.1,0.0003726,3737.9,-0.00011904,43.924,-0.00012489,-0.0023163,0.62499
6596,8.5216,3.6364,0.1,0.00037692,3766.6,0.00037773,3790.8,-0.0001203,48.745,-0.00012679,-0.002047,0.60399
6597,8.3373,3.6364,0.1,0.00038197,3817.1,0.00038286,3843.8,-0.00012153,53.973,-0.00012872,-0.0017642,0.58325
6598,8.1531,3.6364,0.1,0.00038702,3867.5,0.000388,3897,-0.00012272,59.647,-0.00013066,-0.0014683,0.56277
6599,7.9688,3.6364,0.1,0.00039205,3917.8,0.00039313,3950.3,-0.00012387,65.804,-0.00013262,-0.0011592,0.54256
6600,7.7845,3.6364,0.1,0.00039708,3968.1,0.00039827,4003.8,-0.00012496,72.488,-0.00013461,-0.00083674,0.52261
6601,7.6003,3.6364,0.1,0.0004021,4018.2,0.0004034,4057.5,-0.00012601,79.748,-0.00013662,-0.00050389,0.50293
6602,7.416,3.6364,0.1,0.00040711,4068.3,0.00040853,4111.4,-0.000127,87.635,-0.00013866,-0.00016244,0.48353
6603,7.2317,3.6364,0.1,0.0004121,4118.2,0.00041365,4165.4,-0.00012793,96.206,-0.00014073,0.00018265,0.4644
6604,7.0475,3.6364,0.1,0.00041708,4167.9,0.00041877,4219.7,-0.00012879,105.53,-0.00014283,0.00052574,0.44555
6605,6.8632,3.6364,0.1,0.00042204,4217.5,0.00042389,4274.2,-0.00012957,115.66,-0.00014496,0.00085662,0.42699
6606,6.6789,3.6364,0.1,0.00042699,4267,0.00042901,4328.9,-0.00013027,126.69,-0.00014714,0.0011619,0.40872
6607,6.4947,3.6364,0.1,0.00043192,4316.3,0.00043412,4383.9,-0.00013089,138.69,-0.00014935,0.0014227,0.39073
6608,6.3104,3.6364,0.1,0.00043684,4365.4,0.00043923,4439.3,-0.00013141,151.76,-0.00015161,0.0016126,0.37305
6609,6.1261,3.6364,0.1,0.00044175,4414.5,0.00044434,4495.1,-0.00013183,166,-0.00015392,0.0016936,0.35566
6610,5.9419,3.6364,0.1,0.00044666,4463.5,0.00044947,4551.5,-0.00013214,181.51,-0.0001563,0.001617,0.33857
6611,5.7576,3.6364,0.1,0.00045156,4512.5,0.00045461,4608.5,-0.00013233,198.42,-0.00015874,0.0013128,0.32179
6612,5.5733,3.6364,0.1,0.00045649,4561.7,0.00045979,4666.3,-0.00013239,216.85,-0.00016125,0.00068802,0.30531
6613,5.3891,3.6364,0.1,0.00046144,4611.2,0.00046501,4725.1,-0.00013233,236.95,-0.00016386,-0.00038587,0.28915
6614,5.2048,3.6364,0.1,0.00046645,4661.3,0.00047031,4785.3,-0.00013212,258.87,-0.00016657,-0.0020821,0.2733
6615,5.0205,3.6364,0.1,0.00047154,4712.2,0.00047571,4847.2,-0.00013177,282.77,-0.00016941,-0.0046357,0.25778
6616,4.8363,3.6364,0.1,0.00047676,4764.3,0.00048126,4911.2,-0.00013128,308.82,-0.00017238,-0.0083668,0.24258
6617,4.652,3.6364,0.1,0.00048217,4818.3,0.00048702,4978.1,-0.00013065,337.2,-0.00017553,-0.013711,0.2277
6618,4.4677,3.6364,0.1,0.00048783,4874.9,0.00049304,5048.5,-0.00012988,368.08,-0.00017887,-0.021259,0.21315
6619,4.2835,3.6364,0.1,0.00049384,4935,0.00049944,5123.5,-0.000129,401.63,-0.00018246,-0.03182,0.19894
6620,4.0992,3.6364,0.1,0.00050033,4999.9,0.00050634,5204.5,-0.00012803,438.01,-0.00018633,-0.046501,0.18507
6621,3.9149,3.6364,0.1,0.00050748,5071.3,0.00051391,5293,-0.00012702,477.36,-0.00019056,-0.066816,0.17154
6622,3.7307,3.6364,0.1,0.00051548,5151.2,0.00052234,5391.3,-0.00012602,519.74,-0.00019521,-0.094855,0.15837
6623,3.5464,3.6364,0.1,0.00052462,5242.6,0.00053194,5502.2,-0.00012514,565.15,-0.00020037,-0.1335,0.14554
6624,3.3621,3.6364,0.1,0.00053527,5349,0.00054305,5629.1,-0.00012449,613.47,-0.00020617,-0.18675,0.13308
6625,3.1779,3.6364,0.1,0.00054789,5475.1,0.00055615,5776.8,-0.00012428,664.37,-0.00021273,-0.26021,0.12099
6626,2.9936,3.6364,0.1,0.00056311,5627.2,0.00057186,5951.3,-0.00012474,717.25,-0.00022025,-0.36162,0.10927
6627,2.8093,3.6364,0.1,0.00058175,5813.5,0.00059101,6160.3,-0.00012625,771.1,-0.00022894,-0.50257,0.097945
6628,2.6251,3.6364,0.1,0.0006049,6044.9,0.00061468,6414.3,-0.00012931,824.27,-0.00023911,-0.69777,0.08702
6629,2.4408,3.6364,0.1,0.00063407,6336.3,0.00064437,6727.5,-0.00013464,874.26,-0.00025113,-0.97764,0.076513
6630,2.2565,3.6364,0.1,0.00067135,6708.9,0.00068219,7119.5,-0.00014327,917.29,-0.00026553,-1.3616,0.066445
6631,2.0723,3.6364,0.1,0.00071982,7193.2,0.00073119,7618.9,-0.00015669,947.74,-0.00028309,-1.978,0.05684
6632,1.888,3.6364,0.1,0.00078422,7836.8,0.00079603,8269.8,-0.00017719,957.44,-0.000305,-2.8681,0.04773
6633,1.7037,3.6364,0.1,0.00087226,8716.5,0.00088429,9143.9,-0.00020835,934.22,-0.00033317,-3.593,0.039159
6634,1.5195,3.6364,0.1,0.00099809,9974,0.0010097,10370,-0.00025605,859.55,-0.00037194,-11.22,0.031183
6635,1.3352,3.6364,0.1,0.0011845,11837,0.001195,12176,-0.00033214,701.52,-0.0004245,7.5176,0.023883
6636,1.1509,3.6364,0.1,0.0014592,14582,0.0014661,14794,-0.00044797,411.85,-0.00050013,19.989,0.017381
6637,23.816,3.8182,0.1,1.9179e-05,191.66,9.5621e-06,39.825,4.2355e-06,-0.19753,-1.8189e-05,-168.68,2.905
6638,23.631,3.8182,0.1,2.0911e-05,208.97,1.3107e-05,78.624,2.599e-06,-0.32624,-1.8428e-05,-158.31,2.8739
6639,23.447,3.8182,0.1,2.3078e-05,230.62,1.6652e-05,117.42,1.0049e-06,-0.14064,-1.8712e-05,-148.28,2.8428
6640,23.263,3.8182,0.1,2.557e-05,255.53,2.0205e-05,156.06,-5.8183e-07,-0.12337,-1.9041e-05,-138.82,2.8118
6641,23.079,3.8182,0.1,2.8307e-05,282.87,2.3765e-05,194.6,-2.1468e-06,-0.091947,-1.9419e-05,-129.87,2.7807
6642,22.894,3.8182,0.1,3.123e-05,312.08,2.7338e-05,233.08,-3.6941e-06,-0.076929,-1.9848e-05,-121.45,2.7497
6643,22.71,3.8182,0.1,3.43e-05,342.76,3.0927e-05,271.56,-5.2241e-06,-0.064758,-2.0329e-05,-113.56,2.7186
6644,22.526,3.8182,0.1,3.7488e-05,374.62,3.4536e-05,310.07,-6.7389e-06,-0.056096,-2.0862e-05,-106.17,2.6876
6645,22.342,3.8182,0.1,4.0775e-05,407.47,3.8168e-05,348.64,-8.2398e-06,-0.049301,-2.1446e-05,-99.274,2.6566
6646,22.157,3.8182,0.1,4.4146e-05,441.15,4.1827e-05,387.32,-9.7287e-06,-0.043908,-2.2081e-05,-92.851,2.6257
6647,21.973,3.8182,0.1,4.759e-05,475.57,4.5513e-05,426.13,-1.1207e-05,-0.039507,-2.2764e-05,-86.876,2.5947
6648,21.789,3.8182,0.1,5.1099e-05,510.64,4.9227e-05,465.08,-1.2676e-05,-0.035841,-2.3495e-05,-81.325,2.5638
6649,21.605,3.8182,0.1,5.4667e-05,546.29,5.2971e-05,504.2,-1.4138e-05,-0.032754,-2.4271e-05,-76.173,2.533
6650,21.42,3.8182,0.1,5.8289e-05,582.48,5.6745e-05,543.48,-1.5593e-05,-0.030121,-2.5091e-05,-71.394,2.5021
6651,21.236,3.8182,0.1,6.196e-05,619.17,6.0548e-05,582.95,-1.7042e-05,-0.027838,-2.5951e-05,-66.963,2.4713
6652,21.052,3.8182,0.1,6.5677e-05,656.32,6.4381e-05,622.62,-1.8487e-05,-0.025844,-2.685e-05,-62.857,2.4406
6653,20.867,3.8182,0.1,6.9437e-05,693.9,6.8244e-05,662.47,-1.9929e-05,-0.02408,-2.7785e-05,-59.052,2.4099
6654,20.683,3.8182,0.1,7.3239e-05,731.88,7.2136e-05,702.53,-2.1368e-05,-0.022527,-2.8755e-05,-55.528,2.3792
6655,20.499,3.8182,0.1,7.7079e-05,770.26,7.6057e-05,742.79,-2.2805e-05,-0.021148,-2.9758e-05,-52.264,2.3486
6656,20.315,3.8182,0.1,8.0956e-05,809.01,8.0006e-05,783.25,-2.4241e-05,-0.019906,-3.0792e-05,-49.241,2.318
6657,20.13,3.8182,0.1,8.4869e-05,848.11,8.3983e-05,823.92,-2.5677e-05,-0.018785,-3.1855e-05,-46.441,2.2875
6658,19.946,3.8182,0.1,8.8816e-05,887.55,8.7989e-05,864.8,-2.7112e-05,-0.017758,-3.2945e-05,-43.846,2.2571
6659,19.762,3.8182,0.1,9.2796e-05,927.32,9.2021e-05,905.89,-2.8548e-05,-0.016836,-3.4062e-05,-41.442,2.2267
6660,19.578,3.8182,0.1,9.6807e-05,967.4,9.608e-05,947.19,-2.9986e-05,-0.016004,-3.5202e-05,-39.214,2.1964
6661,19.393,3.8182,0.1,0.00010085,1007.8,0.00010017,988.7,-3.1424e-05,-0.015236,-3.6366e-05,-37.149,2.1661
6662,19.209,3.8182,0.1,0.00010492,1048.5,0.00010428,1030.4,-3.2865e-05,-0.014528,-3.7552e-05,-35.233,2.1359
6663,19.025,3.8182,0.1,0.00010902,1089.5,0.00010841,1072.3,-3.4308e-05,-0.013862,-3.8759e-05,-33.454,2.1058
6664,18.841,3.8182,0.1,0.00011315,1130.7,0.00011258,1114.5,-3.5754e-05,-0.013263,-3.9985e-05,-31.803,2.0757
6665,18.656,3.8182,0.1,0.00011731,1172.3,0.00011676,1156.8,-3.7203e-05,-0.012719,-4.123e-05,-30.269,2.0457
6666,18.472,3.8182,0.1,0.00012149,1214.1,0.00012097,1199.4,-3.8655e-05,-0.012204,-4.2492e-05,-28.841,2.0159
6667,18.288,3.8182,0.1,0.0001257,1256.1,0.00012521,1242.1,-4.0111e-05,-0.011723,-4.3771e-05,-27.512,1.986
6668,18.103,3.8182,0.1,0.00012993,1298.4,0.00012947,1285.1,-4.1571e-05,-0.01126,-4.5066e-05,-26.273,1.9563
6669,17.919,3.8182,0.1,0.00013419,1341,0.00013375,1328.3,-4.3035e-05,-0.010842,-4.6376e-05,-25.117,1.9267
6670,17.735,3.8182,0.1,0.00013848,1383.8,0.00013805,1371.6,-4.4503e-05,-0.010469,-4.77e-05,-24.036,1.8971
6671,17.551,3.8182,0.1,0.00014279,1426.9,0.00014238,1415.2,-4.5975e-05,-0.010105,-4.9038e-05,-23.023,1.8677
6672,17.366,3.8182,0.1,0.00014712,1470.2,0.00014673,1459,-4.7453e-05,-0.0097601,-5.0389e-05,-22.073,1.8383
6673,17.182,3.8182,0.1,0.00015148,1513.7,0.0001511,1503,-4.8935e-05,-0.0094176,-5.1752e-05,-21.179,1.809
6674,16.998,3.8182,0.1,0.00015585,1557.5,0.0001555,1547.2,-5.0422e-05,-0.0091136,-5.3128e-05,-20.335,1.7799
6675,16.814,3.8182,0.1,0.00016026,1601.5,0.00015992,1591.6,-5.1915e-05,-0.0088461,-5.4514e-05,-19.537,1.7508
6676,16.629,3.8182,0.1,0.00016468,1645.7,0.00016435,1636.2,-5.3413e-05,-0.0085772,-5.5911e-05,-18.78,1.7219
6677,16.445,3.8182,0.1,0.00016913,1690.1,0.00016881,1681,-5.4916e-05,-0.0083159,-5.7318e-05,-18.058,1.693
6678,16.261,3.8182,0.1,0.0001736,1734.8,0.00017329,1726,-5.6425e-05,-0.0080479,-5.8736e-05,-17.368,1.6643
6679,16.077,3.8182,0.1,0.00017809,1779.6,0.0001778,1771.2,-5.794e-05,-0.0078157,-6.0162e-05,-16.704,1.6357
6680,15.892,3.8182,0.1,0.0001826,1824.7,0.00018232,1816.6,-5.9461e-05,-0.0076151,-6.1598e-05,-16.063,1.6072
6681,15.708,3.8182,0.1,0.00018713,1870,0.00018686,1862.2,-6.0987e-05,-0.0074048,-6.3042e-05,-15.441,1.5789
6682,15.524,3.8182,0.1,0.00019168,1915.5,0.00019143,1908.1,-6.252e-05,-0.0071975,-6.4494e-05,-14.834,1.5507
6683,15.339,3.8182,0.1,0.00019626,1961.2,0.00019601,1954.1,-6.4059e-05,-0.0069755,-6.5953e-05,-14.237,1.5226
6684,15.155,3.8182,0.1,0.00020085,2007.1,0.00020062,2000.3,-6.5605e-05,-0.0067841,-6.742e-05,-13.648,1.4946
6685,14.971,3.8182,0.1,0.00020547,2053.3,0.00020524,2046.7,-6.7157e-05,-0.006626,-6.8894e-05,-13.063,1.4668
6686,14.787,3.8182,0.1,0.0002101,2099.6,0.00020989,2093.3,-6.8715e-05,-0.0064482,-7.0375e-05,-12.478,1.4391
6687,14.602,3.8182,0.1,0.00021476,2146.1,0.00021455,2140.1,-7.028e-05,-0.0062686,-7.1862e-05,-11.889,1.4115
6688,14.418,3.8182,0.1,0.00021943,2192.8,0.00021924,2187.1,-7.1852e-05,-0.006067,-7.3354e-05,-11.292,1.3841
6689,14.234,3.8182,0.1,0.00022412,2239.7,0.00022394,2234.3,-7.3431e-05,-0.0058927,-7.4852e-05,-10.684,1.3569
6690,14.05,3.8182,0.1,0.00022883,2286.8,0.00022866,2281.7,-7.5017e-05,-0.0057471,-7.6355e-05,-10.062,1.3298
6691,13.865,3.8182,0.1,0.00023356,2334,0.0002334,2329.3,-7.661e-05,-0.0055741,-7.7863e-05,-9.4199,1.3028
6692,13.681,3.8182,0.1,0.00023831,2381.5,0.00023816,2377.1,-7.821e-05,-0.0053897,-7.9374e-05,-8.7552,1.276
6693,13.497,3.8182,0.1,0.00024308,2429.1,0.00024294,2425.1,-7.9817e-05,-0.0051698,-8.089e-05,-8.0631,1.2494
6694,13.313,3.8182,0.1,0.00024787,2477,0.00024774,2473.3,-8.1432e-05,-0.0049661,-8.2409e-05,-7.3396,1.2229
6695,13.128,3.8182,0.1,0.00025267,2524.9,0.00025256,2521.6,-8.3055e-05,-0.004774,-8.393e-05,-6.5799,1.1966
6696,12.944,3.8182,0.1,0.00025749,2573.1,0.00025739,2570.2,-8.4685e-05,-0.0045204,-8.5454e-05,-5.7791,1.1705
6697,12.76,3.8182,0.1,0.00026233,2621.5,0.00026224,2619,-8.6324e-05,-0.0042066,-8.698e-05,-4.9323,1.1446
6698,12.575,3.8182,0.1,0.00026718,2670,0.00026711,2667.9,-8.797e-05,-0.0037601,-8.8506e-05,-4.034,1.1188
6699,12.391,3.8182,0.1,0.00027205,2718.6,0.000272,2717.1,-8.9624e-05,-0.0031395,-9.0034e-05,-3.0787,1.0932
6700,12.207,3.8182,0.1,0.00027694,2767.5,0.0002769,2766.4,-9.1287e-05,-0.0020048,-9.1561e-05,-2.0606,1.0678
6701,12.023,3.8182,0.1,0.00028184,2816.4,0.00028182,2816,-9.2958e-05,0.0016649,-9.3088e-05,-0.97502,1.0426
6702,11.838,3.8182,0.1,0.00028676,2865.6,0.00028676,2865.7,-9.4609e-05,0.22595,-9.4643e-05,-0.033256,1.0176
6703,11.654,3.8182,0.1,0.00029169,2914.9,0.00029171,2915.6,-9.6135e-05,1.4525,-9.633e-05,-0.0092832,0.99272
6704,11.47,3.8182,0.1,0.00029663,2964.3,0.00029668,2965.7,-9.7655e-05,2.793,-9.8028e-05,-0.007015,0.96809
6705,11.286,3.8182,0.1,0.00030159,3013.9,0.00030166,3016,-9.9171e-05,4.2358,-9.9736e-05,-0.0061386,0.94366
6706,11.101,3.8182,0.1,0.00030657,3063.5,0.00030666,3066.4,-0.00010068,5.7893,-0.00010145,-0.0056056,0.91943
6707,10.917,3.8182,0.1,0.00031155,3113.4,0.00031168,3117.1,-0.00010219,7.4632,-0.00010318,-0.005223,0.89541
6708,10.733,3.8182,0.1,0.00031655,3163.3,0.0003167,3167.9,-0.00010369,9.2684,-0.00010492,-0.0048827,0.8716
6709,10.549,3.8182,0.1,0.00032156,3213.3,0.00032175,3218.9,-0.00010518,11.216,-0.00010667,-0.0046285,0.84801
6710,10.364,3.8182,0.1,0.00032658,3263.5,0.0003268,3270.1,-0.00010666,13.319,-0.00010843,-0.0044382,0.82464
6711,10.18,3.8182,0.1,0.0003316,3313.7,0.00033187,3321.5,-0.00010813,15.591,-0.0001102,-0.0042147,0.80149
6712,9.9957,3.8182,0.1,0.00033664,3364.1,0.00033694,3373.1,-0.00010958,18.047,-0.00011198,-0.0040102,0.77856
6713,9.8115,3.8182,0.1,0.00034169,3414.5,0.00034203,3424.8,-0.00011102,20.703,-0.00011378,-0.0038126,0.75586
6714,9.6272,3.8182,0.1,0.00034674,3465,0.00034713,3476.7,-0.00011245,23.575,-0.00011559,-0.0036081,0.7334
6715,9.4429,3.8182,0.1,0.0003518,3515.5,0.00035224,3528.8,-0.00011386,26.683,-0.00011741,-0.0034121,0.71117
6716,9.2587,3.8182,0.1,0.00035686,3566.1,0.00035736,3581,-0.00011525,30.046,-0.00011925,-0.003211,0.68918
6717,9.0744,3.8182,0.1,0.00036192,3616.7,0.00036248,3633.5,-0.00011662,33.688,-0.0001211,-0.0030072,0.66743
6718,8.8901,3.8182,0.1,0.00036699,3667.4,0.00036762,3686.1,-0.00011796,37.632,-0.00012297,-0.0027995,0.64593
6719,8.7059,3.8182,0.1,0.00037206,3718,0.00037276,3738.8,-0.00011927,41.903,-0.00012485,-0.0025867,0.62467
6720,8.5216,3.8182,0.1,0.00037713,3768.7,0.0003779,3791.7,-0.00012056,46.53,-0.00012675,-0.0023683,0.60367
6721,8.3373,3.8182,0.1,0.00038219,3819.3,0.00038305,3844.8,-0.00012181,51.543,-0.00012867,-0.002146,0.58293
6722,8.1531,3.8182,0.1,0.00038726,3869.9,0.0003882,3898.1,-0.00012302,56.976,-0.00013061,-0.0019201,0.56245
6723,7.9688,3.8182,0.1,0.00039232,3920.4,0.00039335,3951.5,-0.0001242,62.865,-0.00013257,-0.0016918,0.54223
6724,7.7845,3.8182,0.1,0.00039737,3970.9,0.0003985,4005.1,-0.00012533,69.249,-0.00013455,-0.0014645,0.52228
6725,7.6003,3.8182,0.1,0.00040241,4021.3,0.00040365,4058.9,-0.00012641,76.17,-0.00013655,-0.0012414,0.5026
6726,7.416,3.8182,0.1,0.00040744,4071.6,0.0004088,4112.8,-0.00012744,83.675,-0.00013858,-0.0010291,0.48319
6727,7.2317,3.8182,0.1,0.00041247,4121.8,0.00041395,4167,-0.00012842,91.815,-0.00014064,-0.0008348,0.46406
6728,7.0475,3.8182,0.1,0.00041748,4171.9,0.0004191,4221.3,-0.00012933,100.64,-0.00014272,-0.00066953,0.44521
6729,6.8632,3.8182,0.1,0.00042248,4221.8,0.00042424,4275.9,-0.00013017,110.22,-0.00014484,-0.00054899,0.42665
6730,6.6789,3.8182,0.1,0.00042746,4271.7,0.00042939,4330.7,-0.00013094,120.61,-0.00014699,-0.00049343,0.40837
6731,6.4947,3.8182,0.1,0.00043244,4321.4,0.00043453,4385.8,-0.00013163,131.88,-0.00014919,-0.00053036,0.39039
6732,6.3104,3.8182,0.1,0.0004374,4371,0.00043967,4441.3,-0.00013224,144.1,-0.00015142,-0.00069779,0.3727
6733,6.1261,3.8182,0.1,0.00044236,4420.5,0.00044483,4497.1,-0.00013276,157.37,-0.0001537,-0.0010456,0.35531
6734,5.9419,3.8182,0.1,0.00044732,4470.1,0.00044999,4553.5,-0.00013318,171.76,-0.00015604,-0.0016422,0.33822
6735,5.7576,3.8182,0.1,0.00045228,4519.6,0.00045517,4610.4,-0.0001335,187.36,-0.00015844,-0.0025784,0.32144
6736,5.5733,3.8182,0.1,0.00045725,4569.4,0.00046039,4668.1,-0.00013371,204.28,-0.0001609,-0.0039767,0.30497
6737,5.3891,3.8182,0.1,0.00046226,4619.4,0.00046565,4726.7,-0.00013381,222.61,-0.00016344,-0.0060019,0.2888
6738,5.2048,3.8182,0.1,0.00046732,4670,0.00047098,4786.5,-0.0001338,242.47,-0.00016607,-0.0088757,0.27296
6739,5.0205,3.8182,0.1,0.00047247,4721.4,0.0004764,4847.8,-0.00013367,263.96,-0.00016881,-0.012897,0.25743
6740,4.8363,3.8182,0.1,0.00047772,4773.9,0.00048196,4911,-0.00013344,287.19,-0.00017166,-0.018471,0.24223
6741,4.652,3.8182,0.1,0.00048315,4828.1,0.0004877,4976.7,-0.00013309,312.26,-0.00017466,-0.026142,0.22736
6742,4.4677,3.8182,0.1,0.0004888,4884.6,0.00049368,5045.4,-0.00013266,339.27,-0.00017782,-0.036655,0.21282
6743,4.2835,3.8182,0.1,0.00049476,4944.2,0.0005,5118.1,-0.00013216,368.29,-0.00018118,-0.051019,0.19861
6744,4.0992,3.8182,0.1,0.00050116,5008.1,0.00050675,5195.8,-0.00013161,399.37,-0.00018477,-0.070617,0.18474
6745,3.9149,3.8182,0.1,0.00050811,5077.6,0.00051408,5280,-0.00013108,432.49,-0.00018865,-0.097345,0.17122
6746,3.7307,3.8182,0.1,0.00051581,5154.6,0.00052217,5372.4,-0.00013062,467.58,-0.00019286,-0.13382,0.15804
6747,3.5464,3.8182,0.1,0.0005245,5241.4,0.00053126,5475.3,-0.00013032,504.44,-0.00019749,-0.1837,0.14522
6748,3.3621,3.8182,0.1,0.00053449,5341.2,0.00054164,5591.7,-0.00013033,542.73,-0.0002026,-0.25208,0.13277
6749,3.1779,3.8182,0.1,0.00054616,5457.9,0.00055372,5725.3,-0.00013083,581.83,-0.00020831,-0.34639,0.12067
6750,2.9936,3.8182,0.1,0.00056006,5596.7,0.00056802,5881,-0.00013207,620.78,-0.00021475,-0.47696,0.10896
6751,2.8093,3.8182,0.1,0.00057688,5764.8,0.00058523,6065.2,-0.00013442,658.06,-0.00022209,-0.66153,0.097632
6752,2.6251,3.8182,0.1,0.00059757,5971.5,0.00060629,6286.6,-0.00013839,691.33,-0.00023052,-0.91976,0.086701
6753,2.4408,3.8182,0.1,0.00062345,6230.2,0.00063251,6556.9,-0.00014474,717,-0.00024034,-1.3213,0.076183
6754,2.2565,3.8182,0.1,0.00065646,6560.1,0.00066577,6893.3,-0.00015456,729.6,-0.00025191,-1.8416,0.066095
6755,2.0723,3.8182,0.1,0.00069955,6990.6,0.00070894,7321.2,-0.00016955,720.61,-0.00026588,-3.1097,0.056458
6756,1.888,3.8182,0.1,0.00075737,7568.5,0.00076654,7882.5,-0.00019237,677.7,-0.00028304,-3.5881,0.0473
6757,1.7037,3.8182,0.1,0.00083895,8383.7,0.00084701,8650.9,-0.00022741,578.11,-0.00030602,-12.514,0.038659
6758,1.5195,3.8182,0.1,0.00095892,9582.5,0.00096503,9775,-0.00028237,402.45,-0.00033655,-4.636,0.030582
6759,1.3352,3.8182,0.1,0.0011673,11665,0.0011668,11653,-0.00037391,76.849,-0.00039713,-97.586,0.023143
6760,1.1509,3.8182,0.1,0.0015651,15641,0.0015537,15317,-0.00049189,-52.585,-0.00056221,-580.92,0.01647
6761,23.816,4,0.1,1.8706e-05,186.94,9.4059e-06,39.859,4.0757e-06,-0.18958,-1.7707e-05,-163.86,2.905
6762,23.631,4,0.1,2.045e-05,204.36,1.2939e-05,78.535,2.4434e-06,-0.32229,-1.7944e-05,-153.5,2.8739
6763,23.447,4,0.1,2.2635e-05,226.2,1.6475e-05,117.22,8.5527e-07,-0.13786,-1.823e-05,-143.54,2.8428
6764,23.263,4,0.1,2.515e-05,251.32,2.0021e-05,155.75,-7.2455e-07,-0.12093,-1.8566e-05,-134.18,2.8117
6765,23.079,4,0.1,2.7909e-05,278.89,2.3576e-05,194.2,-2.282e-06,-0.089756,-1.8955e-05,-125.37,2.7806
6766,22.894,4,0.1,3.0855e-05,308.34,2.7147e-05,232.61,-3.8213e-06,-0.074886,-1.9399e-05,-117.12,2.7496
6767,22.71,4,0.1,3.3949e-05,339.26,3.0737e-05,271.03,-5.3433e-06,-0.062815,-1.9897e-05,-109.41,2.7186
6768,22.526,4,0.1,3.7161e-05,371.36,3.4351e-05,309.51,-6.8501e-06,-0.054227,-2.045e-05,-102.24,2.6875
6769,22.342,4,0.1,4.0473e-05,404.45,3.799e-05,348.09,-8.3434e-06,-0.047484,-2.1057e-05,-95.574,2.6566
6770,22.157,4,0.1,4.3868e-05,438.38,4.1658e-05,386.78,-9.825e-06,-0.042138,-2.1716e-05,-89.386,2.6256
6771,21.973,4,0.1,4.7336e-05,473.03,4.5354e-05,425.61,-1.1296e-05,-0.037774,-2.2424e-05,-83.648,2.5947
6772,21.789,4,0.1,5.0868e-05,508.33,4.908e-05,464.6,-1.2759e-05,-0.03415,-2.318e-05,-78.332,2.5638
6773,21.605,4,0.1,5.4458e-05,544.21,5.2836e-05,503.76,-1.4215e-05,-0.031102,-2.3981e-05,-73.408,2.5329
6774,21.42,4,0.1,5.8101e-05,580.61,5.6622e-05,543.1,-1.5664e-05,-0.028505,-2.4823e-05,-68.849,2.5021
6775,21.236,4,0.1,6.1792e-05,617.5,6.0438e-05,582.63,-1.7108e-05,-0.026264,-2.5706e-05,-64.627,2.4713
6776,21.052,4,0.1,6.5528e-05,654.83,6.4284e-05,622.35,-1.8549e-05,-0.024307,-2.6627e-05,-60.719,2.4405
6777,20.867,4,0.1,6.9306e-05,692.59,6.8158e-05,662.26,-1.9986e-05,-0.022584,-2.7583e-05,-57.101,2.4098
6778,20.683,4,0.1,7.3124e-05,730.74,7.2061e-05,702.37,-2.1421e-05,-0.021068,-2.8572e-05,-53.751,2.3791
6779,20.499,4,0.1,7.698e-05,769.27,7.5993e-05,742.68,-2.2855e-05,-0.019731,-2.9593e-05,-50.648,2.3485
6780,20.315,4,0.1,8.0871e-05,808.15,7.9952e-05,783.2,-2.4288e-05,-0.018524,-3.0643e-05,-47.774,2.3179
6781,20.13,4,0.1,8.4797e-05,847.38,8.3939e-05,823.92,-2.572e-05,-0.017439,-3.1722e-05,-45.112,2.2874
6782,19.946,4,0.1,8.8755e-05,886.94,8.7952e-05,864.84,-2.7153e-05,-0.016447,-3.2826e-05,-42.645,2.257
6783,19.762,4,0.1,9.2745e-05,926.81,9.1993e-05,905.97,-2.8586e-05,-0.015557,-3.3956e-05,-40.358,2.2266
6784,19.578,4,0.1,9.6766e-05,967,9.6059e-05,947.3,-3.0021e-05,-0.01476,-3.5108e-05,-38.237,2.1962
6785,19.393,4,0.1,0.00010082,1007.5,0.00010015,988.84,-3.1458e-05,-0.014021,-3.6283e-05,-36.27,2.166
6786,19.209,4,0.1,0.0001049,1048.2,0.00010427,1030.6,-3.2897e-05,-0.01334,-3.7479e-05,-34.444,2.1358
6787,19.025,4,0.1,0.000109,1089.3,0.00010841,1072.5,-3.4338e-05,-0.012702,-3.8695e-05,-32.748,2.1056
6788,18.841,4,0.1,0.00011314,1130.6,0.00011258,1114.7,-3.5783e-05,-0.012127,-3.993e-05,-31.173,2.0756
6789,18.656,4,0.1,0.0001173,1172.2,0.00011677,1157.1,-3.723e-05,-0.01161,-4.1182e-05,-29.707,2.0456
6790,18.472,4,0.1,0.00012149,1214.1,0.00012098,1199.6,-3.8681e-05,-0.011118,-4.2451e-05,-28.343,2.0157
6791,18.288,4,0.1,0.0001257,1256.2,0.00012522,1242.4,-4.0135e-05,-0.010659,-4.3737e-05,-27.072,1.9859
6792,18.103,4,0.1,0.00012994,1298.5,0.00012948,1285.4,-4.1594e-05,-0.010216,-4.5038e-05,-25.886,1.9562
6793,17.919,4,0.1,0.00013421,1341.2,0.00013377,1328.6,-4.3056e-05,-0.0098201,-4.6353e-05,-24.779,1.9265
6794,17.735,4,0.1,0.0001385,1384,0.00013808,1372,-4.4523e-05,-0.0094649,-4.7682e-05,-23.742,1.897
6795,17.551,4,0.1,0.00014281,1427.1,0.00014241,1415.6,-4.5995e-05,-0.009118,-4.9024e-05,-22.77,1.8675
6796,17.366,4,0.1,0.00014714,1470.4,0.00014676,1459.4,-4.7472e-05,-0.0087917,-5.0379e-05,-21.858,1.8381
6797,17.182,4,0.1,0.0001515,1514,0.00015113,1503.4,-4.8953e-05,-0.0084654,-5.1747e-05,-20.998,1.8089
6798,16.998,4,0.1,0.00015588,1557.8,0.00015553,1547.6,-5.044e-05,-0.0081754,-5.3125e-05,-20.187,1.7797
6799,16.814,4,0.1,0.00016029,1601.8,0.00015995,1592,-5.1931e-05,-0.0079231,-5.4515e-05,-19.419,1.7506
6800,16.629,4,0.1,0.00016472,1646,0.00016439,1636.6,-5.3428e-05,-0.0076672,-5.5915e-05,-18.689,1.7217
6801,16.445,4,0.1,0.00016916,1690.5,0.00016885,1681.4,-5.4931e-05,-0.0074206,-5.7325e-05,-17.993,1.6929
6802,16.261,4,0.1,0.00017363,1735.1,0.00017333,1726.4,-5.644e-05,-0.0071667,-5.8745e-05,-17.327,1.6641
6803,16.077,4,0.1,0.00017813,1780,0.00017784,1771.6,-5.7954e-05,-0.0069458,-6.0174e-05,-16.686,1.6355
6804,15.892,4,0.1,0.00018264,1825.1,0.00018236,1817,-5.9474e-05,-0.0067569,-6.1611e-05,-16.068,1.607
6805,15.708,4,0.1,0.00018717,1870.4,0.00018691,1862.7,-6.1e-05,-0.0065576,-6.3058e-05,-15.466,1.5787
6806,15.524,4,0.1,0.00019173,1916,0.00019147,1908.5,-6.2532e-05,-0.0063612,-6.4512e-05,-14.879,1.5504
6807,15.339,4,0.1,0.0001963,1961.7,0.00019606,1954.5,-6.4071e-05,-0.0061477,-6.5974e-05,-14.303,1.5223
6808,15.155,4,0.1,0.0002009,2007.6,0.00020066,2000.7,-6.5616e-05,-0.005966,-6.7443e-05,-13.734,1.4944
6809,14.971,4,0.1,0.00020552,2053.7,0.00020529,2047.1,-6.7167e-05,-0.0058151,-6.8919e-05,-13.168,1.4665
6810,14.787,4,0.1,0.00021015,2100.1,0.00020993,2093.7,-6.8725e-05,-0.0056451,-7.0402e-05,-12.602,1.4388
6811,14.602,4,0.1,0.00021481,2146.6,0.0002146,2140.5,-7.029e-05,-0.0054724,-7.189e-05,-12.032,1.4113
6812,14.418,4,0.1,0.00021948,2193.3,0.00021928,2187.5,-7.1861e-05,-0.0052751,-7.3385e-05,-11.455,1.3839
6813,14.234,4,0.1,0.00022418,2240.2,0.00022399,2234.8,-7.3439e-05,-0.0051062,-7.4885e-05,-10.868,1.3566
6814,14.05,4,0.1,0.00022889,2287.3,0.00022871,2282.2,-7.5025e-05,-0.0049638,-7.639e-05,-10.267,1.3295
6815,13.865,4,0.1,0.00023362,2334.6,0.00023345,2329.8,-7.6617e-05,-0.0047916,-7.79e-05,-9.6469,1.3025
6816,13.681,4,0.1,0.00023837,2382.1,0.00023822,2377.5,-7.8216e-05,-0.004607,-7.9414e-05,-9.0053,1.2758
6817,13.497,4,0.1,0.00024314,2429.7,0.000243,2425.5,-7.9823e-05,-0.004382,-8.0932e-05,-8.3377,1.2491
6818,13.313,4,0.1,0.00024793,2477.6,0.0002478,2473.7,-8.1438e-05,-0.0041728,-8.2454e-05,-7.64,1.2227
6819,13.128,4,0.1,0.00025273,2525.6,0.00025261,2522.1,-8.3059e-05,-0.0039701,-8.3978e-05,-6.9079,1.1964
6820,12.944,4,0.1,0.00025755,2573.8,0.00025745,2570.7,-8.4689e-05,-0.0037015,-8.5505e-05,-6.1366,1.1702
6821,12.76,4,0.1,0.00026239,2622.1,0.0002623,2619.5,-8.6326e-05,-0.003364,-8.7034e-05,-5.3214,1.1443
6822,12.575,4,0.1,0.00026725,2670.7,0.00026717,2668.4,-8.7972e-05,-0.0028903,-8.8565e-05,-4.4571,1.1185
6823,12.391,4,0.1,0.00027212,2719.4,0.00027206,2717.6,-8.9626e-05,-0.0022496,-9.0096e-05,-3.5384,1.0929
6824,12.207,4,0.1,0.00027701,2768.2,0.00027697,2766.9,-9.1287e-05,-0.0011793,-9.1628e-05,-2.5599,1.0675
6825,12.023,4,0.1,0.00028192,2817.2,0.00028189,2816.5,-9.2958e-05,0.0014248,-9.316e-05,-1.5161,1.0423
6826,11.838,4,0.1,0.00028684,2866.4,0.00028683,2866.2,-9.4635e-05,0.018111,-9.4692e-05,-0.41314,1.0172
6827,11.654,4,0.1,0.00029177,2915.7,0.00029179,2916.1,-9.6216e-05,0.82086,-9.6327e-05,-0.015732,0.9924
6828,11.47,4,0.1,0.00029672,2965.2,0.00029676,2966.2,-9.7743e-05,2.102,-9.8024e-05,-0.0087908,0.96776
6829,11.286,4,0.1,0.00030169,3014.8,0.00030175,3016.5,-9.9266e-05,3.4843,-9.973e-05,-0.006982,0.94333
6830,11.101,4,0.1,0.00030667,3064.5,0.00030675,3067,-0.00010078,4.9727,-0.00010145,-0.0060898,0.9191
6831,10.917,4,0.1,0.00031166,3114.4,0.00031177,3117.7,-0.0001023,6.5759,-0.00010317,-0.0055283,0.89507
6832,10.733,4,0.1,0.00031666,3164.4,0.0003168,3168.6,-0.0001038,8.3041,-0.00010491,-0.0050898,0.87126
6833,10.549,4,0.1,0.00032168,3214.5,0.00032185,3219.6,-0.0001053,10.168,-0.00010666,-0.0047788,0.84766
6834,10.364,4,0.1,0.0003267,3264.8,0.00032691,3270.8,-0.00010679,12.18,-0.00010841,-0.004558,0.82429
6835,10.18,4,0.1,0.00033174,3315.1,0.00033198,3322.2,-0.00010827,14.352,-0.00011018,-0.0043208,0.80113
6836,9.9957,4,0.1,0.00033678,3365.5,0.00033707,3373.8,-0.00010974,16.698,-0.00011197,-0.0041156,0.7782
6837,9.8115,4,0.1,0.00034184,3416,0.00034216,3425.6,-0.0001112,19.233,-0.00011376,-0.0039256,0.7555
6838,9.6272,4,0.1,0.0003469,3466.6,0.00034727,3477.6,-0.00011264,21.974,-0.00011556,-0.0037383,0.73303
6839,9.4429,4,0.1,0.00035197,3517.3,0.00035239,3529.7,-0.00011406,24.938,-0.00011738,-0.0035659,0.71079
6840,9.2587,4,0.1,0.00035705,3568,0.00035752,3582,-0.00011547,28.143,-0.00011922,-0.0033971,0.6888
6841,9.0744,4,0.1,0.00036213,3618.8,0.00036265,3634.5,-0.00011686,31.61,-0.00012106,-0.0032316,0.66704
6842,8.8901,4,0.1,0.00036721,3669.6,0.0003678,3687.1,-0.00011822,35.361,-0.00012293,-0.0030691,0.64554
6843,8.7059,4,0.1,0.00037229,3720.4,0.00037295,3739.9,-0.00011956,39.42,-0.0001248,-0.0029096,0.62428
6844,8.5216,4,0.1,0.00037738,3771.2,0.00037811,3792.9,-0.00012087,43.811,-0.0001267,-0.0027546,0.60328
6845,8.3373,4,0.1,0.00038247,3822,0.00038327,3846.1,-0.00012215,48.564,-0.00012861,-0.002604,0.58253
6846,8.1531,4,0.1,0.00038755,3872.9,0.00038844,3899.4,-0.0001234,53.706,-0.00013054,-0.0024612,0.56204
6847,7.9688,4,0.1,0.00039264,3923.6,0.00039361,3952.9,-0.00012461,59.271,-0.00013249,-0.0023296,0.54182
6848,7.7845,4,0.1,0.00039771,3974.4,0.00039878,4006.6,-0.00012578,65.292,-0.00013447,-0.0022138,0.52187
6849,7.6003,4,0.1,0.00040279,4025.1,0.00040396,4060.5,-0.0001269,71.808,-0.00013646,-0.0021202,0.50218
6850,7.416,4,0.1,0.00040785,4075.7,0.00040914,4114.6,-0.00012798,78.856,-0.00013848,-0.0020579,0.48277
6851,7.2317,4,0.1,0.00041291,4126.2,0.00041431,4168.8,-0.00012901,86.48,-0.00014052,-0.0020392,0.46364
6852,7.0475,4,0.1,0.00041796,4176.7,0.00041949,4223.3,-0.00012998,94.724,-0.00014259,-0.0020798,0.44479
6853,6.8632,4,0.1,0.000423,4227.1,0.00042467,4277.9,-0.0001309,103.64,-0.00014469,-0.0022006,0.42622
6854,6.6789,4,0.1,0.00042803,4277.4,0.00042985,4332.9,-0.00013175,113.27,-0.00014682,-0.0024305,0.40794
6855,6.4947,4,0.1,0.00043306,4327.6,0.00043503,4388.1,-0.00013253,123.68,-0.00014899,-0.002806,0.38996
6856,6.3104,4,0.1,0.00043807,4377.7,0.00044021,4443.6,-0.00013324,134.91,-0.0001512,-0.0033763,0.37227
6857,6.1261,4,0.1,0.00044309,4427.8,0.00044541,4499.5,-0.00013387,147.04,-0.00015344,-0.0042069,0.35488
6858,5.9419,4,0.1,0.0004481,4477.9,0.00045061,4555.8,-0.00013442,160.12,-0.00015573,-0.0053843,0.33779
6859,5.7576,4,0.1,0.00045313,4528.1,0.00045584,4612.7,-0.00013489,174.2,-0.00015808,-0.0070237,0.321
6860,5.5733,4,0.1,0.00045817,4578.5,0.00046109,4670.2,-0.00013527,189.36,-0.00016048,-0.0092787,0.30453
6861,5.3891,4,0.1,0.00046324,4629.2,0.00046639,4728.6,-0.00013557,205.66,-0.00016294,-0.012354,0.28837
6862,5.2048,4,0.1,0.00046836,4680.3,0.00047175,4787.9,-0.00013578,223.15,-0.00016548,-0.016525,0.27253
6863,5.0205,4,0.1,0.00047355,4732.2,0.0004772,4848.5,-0.00013591,241.88,-0.0001681,-0.022161,0.257
6864,4.8363,4,0.1,0.00047884,4785.1,0.00048275,4910.6,-0.00013595,261.89,-0.00017081,-0.02976,0.2418
6865,4.652,4,0.1,0.00048427,4839.4,0.00048847,4974.8,-0.00013594,283.21,-0.00017364,-0.039996,0.22693
6866,4.4677,4,0.1,0.0004899,4895.7,0.00049439,5041.4,-0.00013587,305.84,-0.00017659,-0.053787,0.21239
6867,4.2835,4,0.1,0.0004958,4954.6,0.00050058,5111.2,-0.00013578,329.76,-0.00017968,-0.072384,0.19819
6868,4.0992,4,0.1,0.00050205,5017,0.00050714,5185,-0.00013571,354.88,-0.00018295,-0.09751,0.18432
6869,3.9149,4,0.1,0.00050876,5084.1,0.00051417,5263.9,-0.00013569,381.06,-0.00018642,-0.13155,0.17081
6870,3.7307,4,0.1,0.00051609,5157.3,0.00052182,5349.1,-0.0001358,408.05,-0.00019014,-0.17782,0.15764
6871,3.5464,4,0.1,0.00052422,5238.6,0.00053026,5442.6,-0.00013614,435.48,-0.00019413,-0.24105,0.14482
6872,3.3621,4,0.1,0.00053339,5330.2,0.00053975,5546.3,-0.00013684,462.73,-0.00019847,-0.32802,0.13236
6873,3.1779,4,0.1,0.00054393,5435.5,0.00055058,5663.2,-0.00013808,488.89,-0.0002032,-0.44892,0.12028
6874,2.9936,4,0.1,0.00055624,5558.6,0.00056317,5796.8,-0.00014011,512.58,-0.00020842,-0.61886,0.10856
6875,2.8093,4,0.1,0.00057092,5705.2,0.00057808,5951.9,-0.00014332,531.66,-0.00021419,-0.86472,0.09723
6876,2.6251,4,0.1,0.00058873,5883.2,0.00059605,6135.1,-0.00014824,542.82,-0.00022065,-1.2245,0.086291
6877,2.4408,4,0.1,0.00061081,6103.9,0.00061817,6355.3,-0.00015568,540.9,-0.00022791,-1.809,0.075758
6878,2.2565,4,0.1,0.00063886,6384.2,0.00064603,6625.8,-0.0001669,517.74,-0.00023617,-2.7112,0.065644
6879,2.0723,4,0.1,0.00067558,6751.1,0.00068212,6966.7,-0.00018387,460.03,-0.00024574,-4.8288,0.055967
6880,1.888,4,0.1,0.00072537,7248.7,0.00073047,7411.3,-0.00020974,346.91,-0.00025706,-8.5979,0.04675
6881,1.7037,4,0.1,0.00079697,7964.2,0.00079875,8019.6,-0.00024852,150.86,-0.00027349,-36.763,0.038021
6882,1.5195,4,0.1,0.00090668,9060.6,0.00090163,8921.9,-0.00028012,42.697,-0.00032704,-309.79,0.029817
6883,1.3352,4,0.1,0.0011014,11007,0.0010775,10372,-0.00031478,-89.001,-0.0004506,-1109.6,0.022195
6884,1.1509,4,0.1,0.001665,16639,0.0015776,14906,-0.00029078,866.86,-0.0008684,-3473.1,0.015242
6885,23.816,4.1818,0.1,1.813e-05,181.17,9.2143e-06,39.893,3.881e-06,-0.1795,-1.7119e-05,-157.96,2.9049
6886,23.631,4.1818,0.1,1.9888e-05,198.74,1.2732e-05,78.411,2.2542e-06,-0.31715,-1.7353e-05,-147.64,2.8738
6887,23.447,4.1818,0.1,2.2098e-05,220.82,1.6257e-05,116.95,6.7374e-07,-0.13423,-1.7643e-05,-137.76,2.8427
6888,23.263,4.1818,0.1,2.4639e-05,246.22,1.9794e-05,155.35,-8.9717e-07,-0.11773,-1.7989e-05,-128.54,2.8116
6889,23.079,4.1818,0.1,2.7428e-05,274.09,2.3344e-05,193.68,-2.4449e-06,-0.086864,-1.8392e-05,-119.91,2.7806
6890,22.894,4.1818,0.1,3.0404e-05,303.83,2.6914e-05,232.01,-3.9742e-06,-0.07218,-1.8855e-05,-111.88,2.7495
6891,22.71,4.1818,0.1,3.3529e-05,335.06,3.0508e-05,270.38,-5.4862e-06,-0.060244,-1.9378e-05,-104.44,2.7185
6892,22.526,4.1818,0.1,3.6772e-05,367.47,3.4128e-05,308.84,-6.9831e-06,-0.051749,-1.9958e-05,-97.538,2.6875
6893,22.342,4.1818,0.1,4.0114e-05,400.87,3.7778e-05,347.42,-8.4669e-06,-0.045082,-2.0594e-05,-91.16,2.6565
6894,22.157,4.1818,0.1,4.354e-05,435.1,4.1458e-05,386.14,-9.9395e-06,-0.039804,-2.1283e-05,-85.268,2.6255
6895,21.973,4.1818,0.1,4.7037e-05,470.05,4.5168e-05,425.01,-1.1403e-05,-0.035504,-2.2022e-05,-79.824,2.5946
6896,21.789,4.1818,0.1,5.0598e-05,505.63,4.8909e-05,464.06,-1.2858e-05,-0.03194,-2.2808e-05,-74.796,2.5637
6897,21.605,4.1818,0.1,5.4215e-05,541.78,5.268e-05,503.28,-1.4306e-05,-0.028951,-2.3639e-05,-70.151,2.5328
6898,21.42,4.1818,0.1,5.7884e-05,578.44,5.6481e-05,542.68,-1.5749e-05,-0.026418,-2.451e-05,-65.857,2.502
6899,21.236,4.1818,0.1,6.1599e-05,615.57,6.0312e-05,582.28,-1.7187e-05,-0.024234,-2.5421e-05,-61.888,2.4712
6900,21.052,4.1818,0.1,6.5358e-05,653.13,6.4172e-05,622.06,-1.8622e-05,-0.022339,-2.6367e-05,-58.217,2.4404
6901,20.867,4.1818,0.1,6.9157e-05,691.09,6.8061e-05,662.04,-2.0054e-05,-0.020675,-2.7347e-05,-54.82,2.4097
6902,20.683,4.1818,0.1,7.2994e-05,729.44,7.1977e-05,702.22,-2.1485e-05,-0.019216,-2.836e-05,-51.675,2.379
6903,20.499,4.1818,0.1,7.6867e-05,768.14,7.5921e-05,742.59,-2.2914e-05,-0.017931,-2.9401e-05,-48.763,2.3484
6904,20.315,4.1818,0.1,8.0775e-05,807.19,7.9892e-05,783.16,-2.4343e-05,-0.016778,-3.0471e-05,-46.066,2.3178
6905,20.13,4.1818,0.1,8.4715e-05,846.57,8.389e-05,823.94,-2.5772e-05,-0.015744,-3.1568e-05,-43.566,2.2873
6906,19.946,4.1818,0.1,8.8687e-05,886.26,8.7913e-05,864.91,-2.7201e-05,-0.0148,-3.2689e-05,-41.248,2.2568
6907,19.762,4.1818,0.1,9.269e-05,926.26,9.1963e-05,906.09,-2.8632e-05,-0.013957,-3.3834e-05,-39.098,2.2264
6908,19.578,4.1818,0.1,9.6722e-05,966.56,9.6038e-05,947.46,-3.0064e-05,-0.013201,-3.5e-05,-37.103,2.1961
6909,19.393,4.1818,0.1,0.00010078,1007.1,0.00010014,989.04,-3.1498e-05,-0.012506,-3.6188e-05,-35.251,2.1658
6910,19.209,4.1818,0.1,0.00010487,1048,0.00010426,1030.8,-3.2935e-05,-0.011865,-3.7396e-05,-33.53,2.1356
6911,19.025,4.1818,0.1,0.00010899,1089.1,0.00010841,1072.8,-3.4374e-05,-0.011264,-3.8622e-05,-31.931,2.1055
6912,18.841,4.1818,0.1,0.00011313,1130.5,0.00011258,1115,-3.5816e-05,-0.010724,-3.9867e-05,-30.443,2.0754
6913,18.656,4.1818,0.1,0.0001173,1172.2,0.00011678,1157.4,-3.7262e-05,-0.01024,-4.1128e-05,-29.058,2.0454
6914,18.472,4.1818,0.1,0.0001215,1214.1,0.000121,1200,-3.8711e-05,-0.00978,-4.2405e-05,-27.768,2.0155
6915,18.288,4.1818,0.1,0.00012572,1256.3,0.00012524,1242.8,-4.0164e-05,-0.0093507,-4.3698e-05,-26.565,1.9857
6916,18.103,4.1818,0.1,0.00012996,1298.7,0.00012951,1285.8,-4.1621e-05,-0.0089358,-4.5006e-05,-25.44,1.956
6917,17.919,4.1818,0.1,0.00013423,1341.4,0.0001338,1329,-4.3082e-05,-0.0085659,-4.6327e-05,-24.389,1.9263
6918,17.735,4.1818,0.1,0.00013852,1384.2,0.00013811,1372.4,-4.4548e-05,-0.008237,-4.7662e-05,-23.405,1.8968
6919,17.551,4.1818,0.1,0.00014284,1427.4,0.00014244,1416,-4.6019e-05,-0.0079158,-4.901e-05,-22.481,1.8673
6920,17.366,4.1818,0.1,0.00014718,1470.7,0.0001468,1459.8,-4.7494e-05,-0.0076107,-5.0369e-05,-21.612,1.8379
6921,17.182,4.1818,0.1,0.00015154,1514.3,0.00015117,1503.8,-4.8975e-05,-0.0073076,-5.1741e-05,-20.793,1.8087
6922,16.998,4.1818,0.1,0.00015592,1558.1,0.00015557,1548,-5.046e-05,-0.0070401,-5.3124e-05,-20.019,1.7795
6923,16.814,4.1818,0.1,0.00016033,1602.2,0.00015999,1592.5,-5.1951e-05,-0.0068082,-5.4517e-05,-19.286,1.7504
6924,16.629,4.1818,0.1,0.00016476,1646.4,0.00016443,1637.1,-5.3447e-05,-0.006571,-5.592e-05,-18.588,1.7215
6925,16.445,4.1818,0.1,0.00016921,1690.9,0.0001689,1681.9,-5.4949e-05,-0.0063419,-5.7334e-05,-17.923,1.6926
6926,16.261,4.1818,0.1,0.00017368,1735.6,0.00017338,1726.9,-5.6457e-05,-0.0061061,-5.8757e-05,-17.285,1.6639
6927,16.077,4.1818,0.1,0.00017817,1780.5,0.00017788,1772.1,-5.797e-05,-0.0059025,-6.0188e-05,-16.671,1.6353
6928,15.892,4.1818,0.1,0.00018269,1825.6,0.00018241,1817.5,-5.949e-05,-0.0057286,-6.1629e-05,-16.078,1.6068
6929,15.708,4.1818,0.1,0.00018722,1871,0.00018696,1863.2,-6.1015e-05,-0.0055451,-6.3078e-05,-15.502,1.5784
6930,15.524,4.1818,0.1,0.00019178,1916.5,0.00019152,1909,-6.2547e-05,-0.0053637,-6.4534e-05,-14.939,1.5502
6931,15.339,4.1818,0.1,0.00019636,1962.2,0.00019611,1955,-6.4085e-05,-0.0051645,-6.5999e-05,-14.385,1.5221
6932,15.155,4.1818,0.1,0.00020096,2008.2,0.00020072,2001.2,-6.5629e-05,-0.0049963,-6.747e-05,-13.839,1.4941
6933,14.971,4.1818,0.1,0.00020557,2054.3,0.00020534,2047.6,-6.718e-05,-0.0048575,-6.8949e-05,-13.295,1.4663
6934,14.787,4.1818,0.1,0.00021021,2100.6,0.00020999,2094.2,-6.8737e-05,-0.0046999,-7.0434e-05,-12.752,1.4386
6935,14.602,4.1818,0.1,0.00021487,2147.2,0.00021466,2141.1,-7.0301e-05,-0.0045375,-7.1925e-05,-12.205,1.411
6936,14.418,4.1818,0.1,0.00021954,2193.9,0.00021934,2188.1,-7.1872e-05,-0.0043507,-7.3422e-05,-11.652,1.3836
6937,14.234,4.1818,0.1,0.00022424,2240.8,0.00022405,2235.3,-7.3449e-05,-0.004191,-7.4924e-05,-11.089,1.3563
6938,14.05,4.1818,0.1,0.00022895,2288,0.00022877,2282.7,-7.5034e-05,-0.0040556,-7.6432e-05,-10.512,1.3292
6939,13.865,4.1818,0.1,0.00023369,2335.3,0.00023352,2330.3,-7.6625e-05,-0.0038927,-7.7945e-05,-9.9182,1.3022
6940,13.681,4.1818,0.1,0.00023844,2382.8,0.00023828,2378.1,-7.8224e-05,-0.0037119,-7.9462e-05,-9.3038,1.2754
6941,13.497,4.1818,0.1,0.00024321,2430.4,0.00024306,2426.1,-7.983e-05,-0.0034941,-8.0983e-05,-8.6649,1.2488
6942,13.313,4.1818,0.1,0.000248,2478.3,0.00024786,2474.3,-8.1444e-05,-0.0032871,-8.2508e-05,-7.9977,1.2223
6943,13.128,4.1818,0.1,0.00025281,2526.3,0.00025268,2522.7,-8.3065e-05,-0.0030861,-8.4036e-05,-7.2981,1.196
6944,12.944,4.1818,0.1,0.00025763,2574.5,0.00025752,2571.3,-8.4694e-05,-0.0028181,-8.5566e-05,-6.5615,1.1699
6945,12.76,4.1818,0.1,0.00026247,2622.9,0.00026238,2620,-8.633e-05,-0.0024839,-8.7099e-05,-5.7836,1.1439
6946,12.575,4.1818,0.1,0.00026733,2671.5,0.00026725,2669,-8.7974e-05,-0.0020204,-8.8634e-05,-4.9593,1.1181
6947,12.391,4.1818,0.1,0.00027221,2720.2,0.00027214,2718.2,-8.9627e-05,-0.0014142,-9.017e-05,-4.0839,1.0925
6948,12.207,4.1818,0.1,0.0002771,2769.1,0.00027705,2767.5,-9.1288e-05,-0.00049034,-9.1707e-05,-3.1519,1.0671
6949,12.023,4.1818,0.1,0.00028201,2818.2,0.00028198,2817.1,-9.2957e-05,0.0013622,-9.3244e-05,-2.1579,1.0419
6950,11.838,4.1818,0.1,0.00028694,2867.4,0.00028692,2866.8,-9.4634e-05,0.0068969,-9.4781e-05,-1.0985,1.0169
6951,11.654,4.1818,0.1,0.00029188,2916.8,0.00029188,2916.8,-9.6303e-05,0.13838,-9.6334e-05,-0.089291,0.99202
6952,11.47,4.1818,0.1,0.00029683,2966.3,0.00029685,2966.9,-9.7847e-05,1.286,-9.8019e-05,-0.013417,0.96738
6953,11.286,4.1818,0.1,0.0003018,3015.9,0.00030185,3017.2,-9.9377e-05,2.5952,-9.9724e-05,-0.0086417,0.94294
6954,11.101,4.1818,0.1,0.00030679,3065.7,0.00030685,3067.7,-0.0001009,4.0065,-0.00010144,-0.0069269,0.9187
6955,10.917,4.1818,0.1,0.00031178,3115.7,0.00031188,3118.4,-0.00010243,5.5262,-0.00010316,-0.006017,0.89467
6956,10.733,4.1818,0.1,0.00031679,3165.8,0.00031692,3169.3,-0.00010394,7.1637,-0.0001049,-0.0054003,0.87085
6957,10.549,4.1818,0.1,0.00032182,3216,0.00032197,3220.4,-0.00010545,8.9287,-0.00010664,-0.004992,0.84725
6958,10.364,4.1818,0.1,0.00032685,3266.3,0.00032703,3271.7,-0.00010696,10.832,-0.0001084,-0.0047163,0.82386
6959,10.18,4.1818,0.1,0.0003319,3316.7,0.00033212,3323.1,-0.00010845,12.887,-0.00011016,-0.0044529,0.8007
6960,9.9957,4.1818,0.1,0.00033695,3367.2,0.00033721,3374.7,-0.00010993,15.105,-0.00011194,-0.0042389,0.77776
6961,9.8115,4.1818,0.1,0.00034202,3417.8,0.00034231,3426.6,-0.0001114,17.499,-0.00011373,-0.0040556,0.75506
6962,9.6272,4.1818,0.1,0.0003471,3468.6,0.00034743,3478.6,-0.00011286,20.086,-0.00011554,-0.0038852,0.73258
6963,9.4429,4.1818,0.1,0.00035218,3519.4,0.00035256,3530.7,-0.0001143,22.881,-0.00011735,-0.0037391,0.71034
6964,9.2587,4.1818,0.1,0.00035727,3570.2,0.0003577,3583.1,-0.00011573,25.901,-0.00011918,-0.003605,0.68834
6965,9.0744,4.1818,0.1,0.00036236,3621.1,0.00036285,3635.6,-0.00011714,29.164,-0.00012102,-0.0034835,0.66658
6966,8.8901,4.1818,0.1,0.00036747,3672.1,0.00036801,3688.4,-0.00011853,32.691,-0.00012288,-0.0033738,0.64507
6967,8.7059,4.1818,0.1,0.00037257,3723.1,0.00037318,3741.3,-0.00011989,36.502,-0.00012475,-0.0032765,0.62381
6968,8.5216,4.1818,0.1,0.00037768,3774.2,0.00037835,3794.3,-0.00012123,40.621,-0.00012664,-0.0031928,0.6028
6969,8.3373,4.1818,0.1,0.00038279,3825.3,0.00038354,3847.6,-0.00012255,45.071,-0.00012855,-0.0031251,0.58205
6970,8.1531,4.1818,0.1,0.0003879,3876.3,0.00038872,3901,-0.00012383,49.878,-0.00013047,-0.0030779,0.56156
6971,7.9688,4.1818,0.1,0.00039301,3927.4,0.00039392,3954.6,-0.00012508,55.07,-0.00013241,-0.0030554,0.54133
6972,7.7845,4.1818,0.1,0.00039812,3978.4,0.00039912,4008.4,-0.0001263,60.676,-0.00013437,-0.0030652,0.52137
6973,7.6003,4.1818,0.1,0.00040323,4029.5,0.00040432,4062.4,-0.00012747,66.727,-0.00013636,-0.0031161,0.50168
6974,7.416,4.1818,0.1,0.00040833,4080.5,0.00040952,4116.6,-0.00012861,73.254,-0.00013836,-0.0032208,0.48227
6975,7.2317,4.1818,0.1,0.00041343,4131.4,0.00041473,4171,-0.0001297,80.293,-0.00014039,-0.0033953,0.46313
6976,7.0475,4.1818,0.1,0.00041852,4182.3,0.00041994,4225.5,-0.00013075,87.877,-0.00014244,-0.0036599,0.44428
6977,6.8632,4.1818,0.1,0.00042361,4233.1,0.00042516,4280.4,-0.00013174,96.045,-0.00014452,-0.0040422,0.42571
6978,6.6789,4.1818,0.1,0.00042869,4283.9,0.00043038,4335.4,-0.00013268,104.83,-0.00014663,-0.0045785,0.40743
6979,6.4947,4.1818,0.1,0.00043377,4334.7,0.0004356,4390.7,-0.00013356,114.27,-0.00014877,-0.0053137,0.38944
6980,6.3104,4.1818,0.1,0.00043884,4385.4,0.00044083,4446.3,-0.00013438,124.41,-0.00015094,-0.0063099,0.37175
6981,6.1261,4.1818,0.1,0.00044392,4436.1,0.00044607,4502.2,-0.00013514,135.28,-0.00015314,-0.0076464,0.35435
6982,5.9419,4.1818,0.1,0.000449,4486.9,0.00045132,4558.6,-0.00013583,146.91,-0.00015539,-0.009428,0.33726
6983,5.7576,4.1818,0.1,0.00045409,4537.8,0.00045659,4615.3,-0.00013647,159.34,-0.00015767,-0.011794,0.32048
6984,5.5733,4.1818,0.1,0.0004592,4588.8,0.00046189,4672.6,-0.00013703,172.58,-0.00016,-0.014928,0.304
6985,5.3891,4.1818,0.1,0.00046433,4640.1,0.00046722,4730.6,-0.00013754,186.66,-0.00016238,-0.019076,0.28784
6986,5.2048,4.1818,0.1,0.00046951,4691.8,0.00047261,4789.4,-0.00013798,201.59,-0.00016482,-0.024566,0.272
6987,5.0205,4.1818,0.1,0.00047474,4744.1,0.00047806,4849.1,-0.00013838,217.35,-0.00016731,-0.03184,0.25648
6988,4.8363,4.1818,0.1,0.00048006,4797.3,0.00048361,4910,-0.00013873,233.92,-0.00016987,-0.041494,0.24128
6989,4.652,4.1818,0.1,0.0004855,4851.6,0.00048928,4972.3,-0.00013906,251.24,-0.0001725,-0.054342,0.22641
6990,4.4677,4.1818,0.1,0.00049109,4907.5,0.00049511,5036.5,-0.00013937,269.25,-0.00017522,-0.071492,0.21188
6991,4.2835,4.1818,0.1,0.00049688,4965.4,0.00050115,5103,-0.00013971,287.79,-0.00017803,-0.094474,0.19768
6992,4.0992,4.1818,0.1,0.00050295,5026,0.00050746,5172.2,-0.00014011,306.68,-0.00018094,-0.12541,0.18382
6993,3.9149,4.1818,0.1,0.00050936,5090.1,0.00051411,5245,-0.00014061,325.65,-0.00018398,-0.1673,0.1703
6994,3.7307,4.1818,0.1,0.00051623,5158.8,0.00052122,5322.2,-0.00014129,344.3,-0.00018714,-0.22439,0.15714
6995,3.5464,4.1818,0.1,0.00052369,5233.3,0.0005289,5404.8,-0.00014224,362.06,-0.00019047,-0.30285,0.14433
6996,3.3621,4.1818,0.1,0.00053191,5315.5,0.00053733,5494.2,-0.00014358,378.14,-0.00019396,-0.41192,0.13187
6997,3.1779,4.1818,0.1,0.00054112,5407.5,0.00054671,5592.2,-0.00014549,391.33,-0.00019765,-0.56597,0.11979
6998,2.9936,4.1818,0.1,0.00055163,5512.5,0.00055732,5701.1,-0.00014822,399.88,-0.00020155,-0.78822,0.10807
6999,2.8093,4.1818,0.1,0.00056385,5634.6,0.00056957,5823.8,-0.00015214,401.11,-0.00020568,-1.121,0.096734
7000,2.6251,4.1818,0.1,0.00057839,5779.9,0.00058401,5964.5,-0.0001578,390.85,-0.00021004,-1.6427,0.085784
7001,2.4408,4.1818,0.1,0.00059615,5957.4,0.00060143,6129,-0.00016603,362.54,-0.00021462,-2.5529,0.075231
7002,2.2565,4.1818,0.1,0.00061853,6181,0.00062307,6325.8,-0.00017817,305.67,-0.00021943,-4.3571,0.065085
7003,2.0723,4.1818,0.1,0.00064782,6473.8,0.00065087,6568.3,-0.00019616,204.05,-0.00022461,-9.6913,0.05536
7004,1.888,4.1818,0.1,0.00068792,6874.5,0.00068797,6877.3,-0.00021961,58.056,-0.00023414,-51.115,0.046072
7005,1.7037,4.1818,0.1,0.00074613,7456.1,0.00073999,7287.9,-0.00022816,13.587,-0.0002749,-337.65,0.037237
7006,1.5195,4.1818,0.1,0.00083661,8360.3,0.00081704,7862.6,-0.00022765,13.179,-0.00035302,-928.8,0.02888
7007,1.3352,4.1818,0.1,0.0010055,10048,0.00094856,8736.2,-0.00021614,-14.906,-0.00051178,-2236.3,0.021026
7008,1.1509,4.1818,0.1,0.0014047,14037,0.0012293,10569,-0.00014977,207.12,-0.00089682,-5405.9,0.013694
7009,23.816,4.3636,0.1,1.7443e-05,174.31,8.9848e-06,39.921,3.6494e-06,-0.16689,-1.6417e-05,-150.94,2.9048
7010,23.631,4.3636,0.1,1.922e-05,192.07,1.2484e-05,78.241,2.0299e-06,-0.31053,-1.6648e-05,-140.65,2.8737
7011,23.447,4.3636,0.1,2.146e-05,214.45,1.5995e-05,116.6,4.5921e-07,-0.1295,-1.6945e-05,-130.9,2.8426
7012,23.263,4.3636,0.1,2.4037e-05,240.2,1.9523e-05,154.84,-1.1004e-06,-0.11353,-1.7304e-05,-121.86,2.8115
7013,23.079,4.3636,0.1,2.6862e-05,268.44,2.3068e-05,193.05,-2.636e-06,-0.083071,-1.7728e-05,-113.48,2.7805
7014,22.894,4.3636,0.1,2.9877e-05,298.57,2.6639e-05,231.29,-4.1528e-06,-0.068622,-1.8217e-05,-105.74,2.7494
7015,22.71,4.3636,0.1,3.3041e-05,330.18,3.0239e-05,269.62,-5.6524e-06,-0.056859,-1.8771e-05,-98.621,2.7184
7016,22.526,4.3636,0.1,3.6323e-05,362.98,3.387e-05,308.06,-7.1374e-06,-0.048499,-1.9385e-05,-92.074,2.6874
7017,22.342,4.3636,0.1,3.9704e-05,396.76,3.7533e-05,346.66,-8.6099e-06,-0.04194,-2.0058e-05,-86.057,2.6564
7018,22.157,4.3636,0.1,4.3166e-05,431.36,4.1228e-05,385.41,-1.0072e-05,-0.036766,-2.0784e-05,-80.526,2.6254
7019,21.973,4.3636,0.1,4.67e-05,466.67,4.4956e-05,424.35,-1.1525e-05,-0.032561,-2.1561e-05,-75.439,2.5945
7020,21.789,4.3636,0.1,5.0294e-05,502.6,4.8715e-05,463.46,-1.2971e-05,-0.029094,-2.2384e-05,-70.755,2.5636
7021,21.605,4.3636,0.1,5.3944e-05,539.07,5.2505e-05,502.76,-1.4411e-05,-0.0262,-2.325e-05,-66.44,2.5327
7022,21.42,4.3636,0.1,5.7642e-05,576.03,5.6325e-05,542.24,-1.5846e-05,-0.023758,-2.4156e-05,-62.459,2.5018
7023,21.236,4.3636,0.1,6.1386e-05,613.43,6.0174e-05,581.92,-1.7277e-05,-0.021665,-2.5098e-05,-58.783,2.471
7024,21.052,4.3636,0.1,6.517e-05,651.25,6.4051e-05,621.78,-1.8706e-05,-0.019859,-2.6075e-05,-55.385,2.4403
7025,20.867,4.3636,0.1,6.8993e-05,689.45,6.7955e-05,661.84,-2.0132e-05,-0.018277,-2.7083e-05,-52.243,2.4095
7026,20.683,4.3636,0.1,7.2852e-05,728.02,7.1887e-05,702.09,-2.1557e-05,-0.016901,-2.8121e-05,-49.335,2.3789
7027,20.499,4.3636,0.1,7.6745e-05,766.92,7.5845e-05,742.53,-2.2982e-05,-0.015693,-2.9187e-05,-46.641,2.3482
7028,20.315,4.3636,0.1,8.0671e-05,806.16,7.9829e-05,783.17,-2.4406e-05,-0.014616,-3.0279e-05,-44.144,2.3177
7029,20.13,4.3636,0.1,8.4628e-05,845.7,8.3839e-05,824,-2.5831e-05,-0.013652,-3.1396e-05,-41.828,2.2872
7030,19.946,4.3636,0.1,8.8616e-05,885.55,8.7874e-05,865.04,-2.7257e-05,-0.012774,-3.2536e-05,-39.679,2.2567
7031,19.762,4.3636,0.1,9.2633e-05,925.69,9.1934e-05,906.26,-2.8684e-05,-0.011993,-3.3698e-05,-37.685,2.2263
7032,19.578,4.3636,0.1,9.6677e-05,966.11,9.6018e-05,947.69,-3.0113e-05,-0.011298,-3.4881e-05,-35.832,2.1959
7033,19.393,4.3636,0.1,0.00010075,1006.8,0.00010013,989.31,-3.1544e-05,-0.010657,-3.6083e-05,-34.109,2.1657
7034,19.209,4.3636,0.1,0.00010485,1047.8,0.00010426,1031.1,-3.2978e-05,-0.01007,-3.7304e-05,-32.508,2.1355
7035,19.025,4.3636,0.1,0.00010898,1089,0.00010841,1073.2,-3.4415e-05,-0.0095198,-3.8542e-05,-31.017,2.1053
7036,18.841,4.3636,0.1,0.00011313,1130.5,0.00011259,1115.4,-3.5855e-05,-0.0090278,-3.9797e-05,-29.629,2.0752
7037,18.656,4.3636,0.1,0.0001173,1172.2,0.0001168,1157.8,-3.7299e-05,-0.0085875,-4.1069e-05,-28.335,2.0453
7038,18.472,4.3636,0.1,0.0001215,1214.2,0.00012102,1200.4,-3.8746e-05,-0.0081707,-4.2355e-05,-27.128,2.0153
7039,18.288,4.3636,0.1,0.00012573,1256.4,0.00012527,1243.2,-4.0197e-05,-0.0077823,-4.3657e-05,-26,1.9855
7040,18.103,4.3636,0.1,0.00012998,1298.9,0.00012954,1286.3,-4.1653e-05,-0.0074061,-4.4972e-05,-24.946,1.9558
7041,17.919,4.3636,0.1,0.00013425,1341.6,0.00013383,1329.5,-4.3112e-05,-0.0070724,-4.63e-05,-23.958,1.9261
7042,17.735,4.3636,0.1,0.00013855,1384.6,0.00013815,1372.9,-4.4577e-05,-0.0067786,-4.7641e-05,-23.032,1.8965
7043,17.551,4.3636,0.1,0.00014287,1427.7,0.00014248,1416.5,-4.6046e-05,-0.0064889,-4.8995e-05,-22.162,1.8671
7044,17.366,4.3636,0.1,0.00014721,1471.1,0.00014684,1460.3,-4.752e-05,-0.0062167,-5.036e-05,-21.343,1.8377
7045,17.182,4.3636,0.1,0.00015158,1514.8,0.00015122,1504.4,-4.8999e-05,-0.0059397,-5.1736e-05,-20.569,1.8084
7046,16.998,4.3636,0.1,0.00015597,1558.6,0.00015562,1548.6,-5.0484e-05,-0.005703,-5.3123e-05,-19.838,1.7792
7047,16.814,4.3636,0.1,0.00016038,1602.7,0.00016004,1593,-5.1974e-05,-0.0054956,-5.4521e-05,-19.143,1.7502
7048,16.629,4.3636,0.1,0.00016481,1646.9,0.00016449,1637.6,-5.3469e-05,-0.0052868,-5.5928e-05,-18.482,1.7212
7049,16.445,4.3636,0.1,0.00016926,1691.4,0.00016895,1682.4,-5.497e-05,-0.0050829,-5.7345e-05,-17.851,1.6924
7050,16.261,4.3636,0.1,0.00017374,1736.2,0.00017344,1727.5,-5.6477e-05,-0.0048711,-5.8772e-05,-17.245,1.6636
7051,16.077,4.3636,0.1,0.00017823,1781.1,0.00017794,1772.7,-5.799e-05,-0.0046895,-6.0207e-05,-16.662,1.635
7052,15.892,4.3636,0.1,0.00018275,1826.2,0.00018247,1818.1,-5.9508e-05,-0.004537,-6.165e-05,-16.098,1.6065
7053,15.708,4.3636,0.1,0.00018729,1871.6,0.00018702,1863.7,-6.1033e-05,-0.004375,-6.3102e-05,-15.549,1.5781
7054,15.524,4.3636,0.1,0.00019184,1917.1,0.00019158,1909.6,-6.2564e-05,-0.0042133,-6.4561e-05,-15.013,1.5499
7055,15.339,4.3636,0.1,0.00019642,1962.9,0.00019617,1955.6,-6.4101e-05,-0.0040326,-6.6028e-05,-14.486,1.5218
7056,15.155,4.3636,0.1,0.00020102,2008.8,0.00020078,2001.8,-6.5644e-05,-0.0038837,-6.7502e-05,-13.965,1.4938
7057,14.971,4.3636,0.1,0.00020564,2055,0.00020541,2048.2,-6.7194e-05,-0.0037628,-6.8984e-05,-13.447,1.4659
7058,14.787,4.3636,0.1,0.00021028,2101.3,0.00021006,2094.8,-6.8751e-05,-0.0036214,-7.0471e-05,-12.93,1.4382
7059,14.602,4.3636,0.1,0.00021494,2147.9,0.00021472,2141.7,-7.0314e-05,-0.0034768,-7.1965e-05,-12.409,1.4107
7060,14.418,4.3636,0.1,0.00021962,2194.6,0.00021941,2188.7,-7.1884e-05,-0.0033063,-7.3465e-05,-11.882,1.3832
7061,14.234,4.3636,0.1,0.00022431,2241.6,0.00022412,2235.9,-7.3461e-05,-0.0031618,-7.497e-05,-11.346,1.356
7062,14.05,4.3636,0.1,0.00022903,2288.7,0.00022884,2283.3,-7.5045e-05,-0.0030437,-7.6481e-05,-10.798,1.3288
7063,13.865,4.3636,0.1,0.00023377,2336,0.00023359,2330.9,-7.6635e-05,-0.0028927,-7.7997e-05,-10.233,1.3019
7064,13.681,4.3636,0.1,0.00023852,2383.6,0.00023835,2378.7,-7.8233e-05,-0.0027294,-7.9517e-05,-9.6499,1.2751
7065,13.497,4.3636,0.1,0.00024329,2431.3,0.00024314,2426.7,-7.9839e-05,-0.0025247,-8.1042e-05,-9.0437,1.2484
7066,13.313,4.3636,0.1,0.00024808,2479.1,0.00024794,2474.9,-8.1451e-05,-0.0023336,-8.257e-05,-8.4112,1.2219
7067,13.128,4.3636,0.1,0.00025289,2527.2,0.00025276,2523.3,-8.3071e-05,-0.0021501,-8.4102e-05,-7.7486,1.1956
7068,12.944,4.3636,0.1,0.00025772,2575.4,0.0002576,2571.9,-8.4699e-05,-0.0019027,-8.5637e-05,-7.0517,1.1695
7069,12.76,4.3636,0.1,0.00026257,2623.9,0.00026246,2620.7,-8.6334e-05,-0.0015947,-8.7175e-05,-6.3163,1.1435
7070,12.575,4.3636,0.1,0.00026743,2672.5,0.00026734,2669.7,-8.7978e-05,-0.0011727,-8.8715e-05,-5.5379,1.1177
7071,12.391,4.3636,0.1,0.00027231,2721.2,0.00027223,2718.9,-8.9629e-05,-0.00064769,-9.0256e-05,-4.7117,1.0921
7072,12.207,4.3636,0.1,0.00027721,2770.2,0.00027714,2768.2,-9.1288e-05,9.3306e-05,-9.1799e-05,-3.8329,1.0667
7073,12.023,4.3636,0.1,0.00028212,2819.3,0.00028207,2817.8,-9.2956e-05,0.0013936,-9.3342e-05,-2.8962,1.0415
7074,11.838,4.3636,0.1,0.00028705,2868.5,0.00028702,2867.6,-9.4632e-05,0.0041506,-9.4885e-05,-1.8967,1.0164
7075,11.654,4.3636,0.1,0.000292,2917.9,0.00029198,2917.5,-9.6316e-05,0.01425,-9.6429e-05,-0.83403,0.99158
7076,11.47,4.3636,0.1,0.00029696,2967.5,0.00029696,2967.7,-9.7963e-05,0.37285,-9.8018e-05,-0.042905,0.96693
7077,11.286,4.3636,0.1,0.00030193,3017.2,0.00030196,3018,-9.9506e-05,1.5767,-9.9717e-05,-0.012912,0.94248
7078,11.101,4.3636,0.1,0.00030692,3067.1,0.00030697,3068.6,-0.00010104,2.8981,-0.00010143,-0.0086046,0.91823
7079,10.917,4.3636,0.1,0.00031193,3117.1,0.000312,3119.3,-0.00010258,4.3221,-0.00010315,-0.0068781,0.8942
7080,10.733,4.3636,0.1,0.00031695,3167.3,0.00031705,3170.2,-0.0001041,5.8558,-0.00010488,-0.005902,0.87037
7081,10.549,4.3636,0.1,0.00032198,3217.6,0.00032211,3221.3,-0.00010563,7.5081,-0.00010663,-0.0053094,0.84676
7082,10.364,4.3636,0.1,0.00032702,3268,0.00032718,3272.6,-0.00010714,9.2888,-0.00010838,-0.0049353,0.82337
7083,10.18,4.3636,0.1,0.00033208,3318.5,0.00033227,3324.1,-0.00010865,11.209,-0.00011014,-0.00462,0.8002
7084,9.9957,4.3636,0.1,0.00033715,3369.2,0.00033737,3375.8,-0.00011015,13.28,-0.00011192,-0.0043847,0.77726
7085,9.8115,4.3636,0.1,0.00034223,3419.9,0.00034249,3427.7,-0.00011164,15.515,-0.0001137,-0.0042004,0.75454
7086,9.6272,4.3636,0.1,0.00034732,3470.8,0.00034762,3479.7,-0.00011312,17.927,-0.0001155,-0.004045,0.73206
7087,9.4429,4.3636,0.1,0.00035242,3521.7,0.00035276,3531.9,-0.00011458,20.531,-0.00011731,-0.0039266,0.70981
7088,9.2587,4.3636,0.1,0.00035752,3572.8,0.00035791,3584.4,-0.00011603,23.341,-0.00011914,-0.0038312,0.68781
7089,9.0744,4.3636,0.1,0.00036264,3623.9,0.00036308,3637,-0.00011746,26.374,-0.00012097,-0.0037586,0.66604
7090,8.8901,4.3636,0.1,0.00036776,3675.1,0.00036825,3689.8,-0.00011888,29.648,-0.00012283,-0.003708,0.64453
7091,8.7059,4.3636,0.1,0.00037289,3726.3,0.00037344,3742.8,-0.00012028,33.182,-0.00012469,-0.0036804,0.62326
7092,8.5216,4.3636,0.1,0.00037802,3777.6,0.00037863,3795.9,-0.00012165,36.994,-0.00012657,-0.0036767,0.60224
7093,8.3373,4.3636,0.1,0.00038315,3828.9,0.00038384,3849.3,-0.000123,41.106,-0.00012847,-0.0037018,0.58149
7094,8.1531,4.3636,0.1,0.00038829,3880.3,0.00038905,3902.8,-0.00012433,45.539,-0.00013039,-0.0037598,0.56099
7095,7.9688,4.3636,0.1,0.00039344,3931.6,0.00039427,3956.6,-0.00012562,50.317,-0.00013232,-0.0038569,0.54076
7096,7.7845,4.3636,0.1,0.00039858,3983,0.00039949,4010.5,-0.00012689,55.463,-0.00013427,-0.0040034,0.52079
7097,7.6003,4.3636,0.1,0.00040372,4034.4,0.00040472,4064.6,-0.00012812,61.001,-0.00013624,-0.0042106,0.5011
7098,7.416,4.3636,0.1,0.00040886,4085.8,0.00040996,4118.9,-0.00012932,66.957,-0.00013823,-0.0044935,0.48168
7099,7.2317,4.3636,0.1,0.00041401,4137.2,0.00041521,4173.4,-0.00013048,73.356,-0.00014024,-0.0048713,0.46254
7100,7.0475,4.3636,0.1,0.00041915,4188.6,0.00042045,4228.1,-0.0001316,80.223,-0.00014227,-0.0053712,0.44368
7101,6.8632,4.3636,0.1,0.00042429,4239.9,0.00042571,4283,-0.00013267,87.583,-0.00014433,-0.0060239,0.42511
7102,6.6789,4.3636,0.1,0.00042942,4291.3,0.00043097,4338.2,-0.00013371,95.458,-0.00014641,-0.0068723,0.40682
7103,6.4947,4.3636,0.1,0.00043456,4342.6,0.00043623,4393.6,-0.00013469,103.87,-0.00014852,-0.0079714,0.38883
7104,6.3104,4.3636,0.1,0.0004397,4394,0.00044151,4449.3,-0.00013564,112.84,-0.00015065,-0.0093922,0.37114
7105,6.1261,4.3636,0.1,0.00044484,4445.3,0.0004468,4505.2,-0.00013653,122.37,-0.00015282,-0.011227,0.35374
7106,5.9419,4.3636,0.1,0.00044999,4496.8,0.00045209,4561.5,-0.00013738,132.49,-0.00015501,-0.013598,0.33665
7107,5.7576,4.3636,0.1,0.00045514,4548.3,0.00045741,4618.2,-0.00013818,143.17,-0.00015723,-0.016664,0.31986
7108,5.5733,4.3636,0.1,0.00046031,4600,0.00046275,4675.2,-0.00013894,154.42,-0.00015949,-0.020637,0.30339
7109,5.3891,4.3636,0.1,0.00046551,4651.9,0.00046811,4732.8,-0.00013965,166.22,-0.00016178,-0.025801,0.28723
7110,5.2048,4.3636,0.1,0.00047074,4704.1,0.00047352,4790.8,-0.00014034,178.51,-0.0001641,-0.032532,0.27139
7111,5.0205,4.3636,0.1,0.00047601,4756.8,0.00047898,4849.5,-0.00014101,191.24,-0.00016647,-0.041342,0.25587
7112,4.8363,4.3636,0.1,0.00048135,4810.2,0.0004845,4909,-0.00014166,204.32,-0.00016886,-0.052926,0.24067
7113,4.652,4.3636,0.1,0.00048676,4864.3,0.0004901,4969.4,-0.00014232,217.62,-0.0001713,-0.068238,0.22581
7114,4.4677,4.3636,0.1,0.00049229,4919.5,0.00049581,5030.8,-0.00014301,230.99,-0.00017377,-0.088598,0.21127
7115,4.2835,4.3636,0.1,0.00049795,4976,0.00050165,5093.6,-0.00014376,244.2,-0.00017628,-0.11585,0.19708
7116,4.0992,4.3636,0.1,0.00050378,5034.3,0.00050766,5157.8,-0.00014461,256.96,-0.00017883,-0.15261,0.18322
7117,3.9149,4.3636,0.1,0.00050984,5094.8,0.00051387,5223.8,-0.00014559,268.89,-0.00018141,-0.20264,0.16971
7118,3.7307,4.3636,0.1,0.00051617,5158.2,0.00052035,5292.1,-0.00014678,279.47,-0.00018401,-0.27145,0.15655
7119,3.5464,4.3636,0.1,0.00052286,5225,0.00052716,5362.9,-0.00014826,288.03,-0.00018665,-0.36736,0.14374
7120,3.3621,4.3636,0.1,0.00053,5296.4,0.00053437,5436.8,-0.00015014,293.62,-0.00018928,-0.50339,0.13129
7121,3.1779,4.3636,0.1,0.00053772,5373.5,0.00054211,5514.5,-0.00015257,294.87,-0.00019191,-0.70108,0.1192
7122,2.9936,4.3636,0.1,0.00054619,5458.1,0.00055052,5596.7,-0.00015578,289.84,-0.00019449,-0.9986,0.10748
7123,2.8093,4.3636,0.1,0.00055567,5552.9,0.00055982,5684.8,-0.0001601,275.58,-0.00019697,-1.4729,0.096137
7124,2.6251,4.3636,0.1,0.00056656,5661.7,0.00057032,5780.2,-0.00016603,247.59,-0.00019928,-2.3006,0.085173
7125,2.4408,4.3636,0.1,0.00057947,5790.7,0.00058252,5885.5,-0.00017431,198.95,-0.00020133,-4.0418,0.074595
7126,2.2565,4.3636,0.1,0.00059542,5950.1,0.0005972,6004.4,-0.00018594,120.27,-0.0002032,-9.4444,0.064412
7127,2.0723,4.3636,0.1,0.00061613,6157,0.00061561,6142.7,-0.00019808,28.92,-0.00020947,-56.655,0.054631
7128,1.888,4.3636,0.1,0.00064447,6440.2,0.0006397,6308.6,-0.00019861,9.8935,-0.0002351,-264.29,0.045259
7129,1.7037,4.3636,0.1,0.00068605,6855.8,0.00067288,6513.2,-0.00019344,3.9863,-0.00027959,-643.29,0.036304
7130,1.5195,4.3636,0.1,0.00074847,7479.5,0.00071835,6760.2,-0.00017906,17.399,-0.00035241,-1285.1,0.027771
7131,1.3352,4.3636,0.1,0.00085175,8511.6,0.00078393,7029,-0.00015252,-7.0681,-0.00047524,-2431.9,0.019655
7132,1.1509,4.3636,0.1,0.0010436,10429,0.00088437,7296.6,-9.0201e-05,-25.978,-0.0007048,-4643.8,0.011938
7133,23.816,4.5455,0.1,1.6637e-05,166.26,8.7137e-06,39.935,3.3786e-06,-0.15111,-1.5594e-05,-142.7,2.9047
7134,23.631,4.5455,0.1,1.8439e-05,184.26,1.2191e-05,78.006,1.7685e-06,-0.30195,-1.5823e-05,-132.47,2.8736
7135,23.447,4.5455,0.1,2.0718e-05,207.03,1.5685e-05,116.14,2.1038e-07,-0.12329,-1.6129e-05,-122.89,2.8425
7136,23.263,4.5455,0.1,2.3339e-05,233.23,1.9202e-05,154.2,-1.3348e-06,-0.10801,-1.6507e-05,-114.11,2.8114
7137,23.079,4.5455,0.1,2.6212e-05,261.94,2.2745e-05,192.27,-2.8553e-06,-0.078051,-1.6959e-05,-106.05,2.7804
7138,22.894,4.5455,0.1,2.9276e-05,292.56,2.632e-05,230.43,-4.3568e-06,-0.063914,-1.7483e-05,-98.692,2.7493
7139,22.71,4.5455,0.1,3.2488e-05,324.66,2.993e-05,268.72,-5.8416e-06,-0.052382,-1.8077e-05,-91.987,2.7183
7140,22.526,4.5455,0.1,3.5819e-05,357.94,3.3576e-05,307.18,-7.3124e-06,-0.044211,-1.8736e-05,-85.876,2.6873
7141,22.342,4.5455,0.1,3.9246e-05,392.19,3.7258e-05,345.81,-8.7717e-06,-0.037826,-1.9454e-05,-80.301,2.6563
7142,22.157,4.5455,0.1,4.2753e-05,427.24,4.0974e-05,384.63,-1.0221e-05,-0.032809,-2.0226e-05,-75.205,2.6253
7143,21.973,4.5455,0.1,4.6329e-05,462.97,4.4724e-05,423.64,-1.1663e-05,-0.028761,-2.1048e-05,-70.54,2.5943
7144,21.789,4.5455,0.1,4.9963e-05,499.29,4.8505e-05,462.84,-1.3099e-05,-0.025445,-2.1914e-05,-66.26,2.5634
7145,21.605,4.5455,0.1,5.365e-05,536.13,5.2317e-05,502.23,-1.4529e-05,-0.022695,-2.2821e-05,-62.325,2.5325
7146,21.42,4.5455,0.1,5.7382e-05,573.43,5.6158e-05,541.81,-1.5956e-05,-0.020395,-2.3766e-05,-58.701,2.5017
7147,21.236,4.5455,0.1,6.1157e-05,611.15,6.0027e-05,581.58,-1.7379e-05,-0.018437,-2.4744e-05,-55.358,2.4709
7148,21.052,4.5455,0.1,6.497e-05,649.26,6.3923e-05,621.53,-1.88e-05,-0.016757,-2.5755e-05,-52.27,2.4401
7149,20.867,4.5455,0.1,6.882e-05,687.72,6.7846e-05,661.68,-2.022e-05,-0.0153,-2.6795e-05,-49.413,2.4094
7150,20.683,4.5455,0.1,7.2703e-05,726.53,7.1794e-05,702.01,-2.1639e-05,-0.014039,-2.7862e-05,-46.768,2.3787
7151,20.499,4.5455,0.1,7.6619e-05,765.66,7.5768e-05,742.53,-2.3058e-05,-0.012941,-2.8955e-05,-44.316,2.3481
7152,20.315,4.5455,0.1,8.0565e-05,805.09,7.9767e-05,783.24,-2.4478e-05,-0.011965,-3.0071e-05,-42.041,2.3175
7153,20.13,4.5455,0.1,8.454e-05,844.82,8.379e-05,824.14,-2.5898e-05,-0.011097,-3.1211e-05,-39.93,2.287
7154,19.946,4.5455,0.1,8.8544e-05,884.83,8.7837e-05,865.23,-2.732e-05,-0.010312,-3.2371e-05,-37.968,2.2565
7155,19.762,4.5455,0.1,9.2576e-05,925.12,9.1908e-05,906.51,-2.8743e-05,-0.0096197,-3.3552e-05,-36.144,2.2261
7156,19.578,4.5455,0.1,9.6634e-05,965.68,9.6002e-05,947.99,-3.0169e-05,-0.0090041,-3.4752e-05,-34.447,2.1958
7157,19.393,4.5455,0.1,0.00010072,1006.5,0.00010012,989.66,-3.1597e-05,-0.0084379,-3.597e-05,-32.868,2.1655
7158,19.209,4.5455,0.1,0.00010483,1047.6,0.00010426,1031.5,-3.3028e-05,-0.0079245,-3.7205e-05,-31.397,2.1353
7159,19.025,4.5455,0.1,0.00010897,1088.9,0.00010842,1073.6,-3.4462e-05,-0.0074394,-3.8457e-05,-30.026,2.1051
7160,18.841,4.5455,0.1,0.00011313,1130.5,0.00011261,1115.8,-3.5899e-05,-0.0070128,-3.9724e-05,-28.747,2.075
7161,18.656,4.5455,0.1,0.00011731,1172.3,0.00011682,1158.3,-3.734e-05,-0.0066316,-4.1007e-05,-27.552,2.045
7162,18.472,4.5455,0.1,0.00012152,1214.4,0.00012105,1200.9,-3.8786e-05,-0.006273,-4.2303e-05,-26.436,2.0151
7163,18.288,4.5455,0.1,0.00012575,1256.7,0.0001253,1243.8,-4.0235e-05,-0.0059361,-4.3613e-05,-25.392,1.9853
7164,18.103,4.5455,0.1,0.00013001,1299.2,0.00012958,1286.8,-4.1688e-05,-0.0056105,-4.4937e-05,-24.414,1.9555
7165,17.919,4.5455,0.1,0.00013429,1342,0.00013387,1330,-4.3147e-05,-0.0053222,-4.6273e-05,-23.496,1.9259
7166,17.735,4.5455,0.1,0.00013859,1384.9,0.00013819,1373.5,-4.4609e-05,-0.0050759,-4.7621e-05,-22.634,1.8963
7167,17.551,4.5455,0.1,0.00014291,1428.2,0.00014253,1417.1,-4.6077e-05,-0.0048302,-4.8981e-05,-21.823,1.8668
7168,17.366,4.5455,0.1,0.00014726,1471.6,0.00014689,1461,-4.755e-05,-0.0045959,-5.0352e-05,-21.057,1.8374
7169,17.182,4.5455,0.1,0.00015163,1515.3,0.00015127,1505,-4.9028e-05,-0.004361,-5.1734e-05,-20.334,1.8081
7170,16.998,4.5455,0.1,0.00015602,1559.1,0.00015568,1549.2,-5.0511e-05,-0.0041584,-5.3126e-05,-19.649,1.779
7171,16.814,4.5455,0.1,0.00016043,1603.2,0.0001601,1593.6,-5.2e-05,-0.0039894,-5.4528e-05,-18.997,1.7499
7172,16.629,4.5455,0.1,0.00016487,1647.5,0.00016455,1638.3,-5.3494e-05,-0.0038125,-5.5939e-05,-18.376,1.7209
7173,16.445,4.5455,0.1,0.00016932,1692.1,0.00016901,1683.1,-5.4994e-05,-0.0036398,-5.736e-05,-17.782,1.6921
7174,16.261,4.5455,0.1,0.0001738,1736.8,0.0001735,1728.1,-5.65e-05,-0.0034591,-5.879e-05,-17.212,1.6633
7175,16.077,4.5455,0.1,0.0001783,1781.8,0.00017801,1773.4,-5.8011e-05,-0.0033082,-6.0229e-05,-16.662,1.6347
7176,15.892,4.5455,0.1,0.00018282,1826.9,0.00018254,1818.8,-5.9529e-05,-0.0031844,-6.1675e-05,-16.13,1.6062
7177,15.708,4.5455,0.1,0.00018736,1872.3,0.00018709,1864.4,-6.1053e-05,-0.0030505,-6.313e-05,-15.611,1.5778
7178,15.524,4.5455,0.1,0.00019192,1917.8,0.00019165,1910.2,-6.2583e-05,-0.0029157,-6.4593e-05,-15.105,1.5496
7179,15.339,4.5455,0.1,0.0001965,1963.6,0.00019624,1956.3,-6.4119e-05,-0.0027608,-6.6063e-05,-14.606,1.5214
7180,15.155,4.5455,0.1,0.0002011,2009.6,0.00020085,2002.5,-6.5662e-05,-0.0026374,-6.754e-05,-14.114,1.4934
7181,14.971,4.5455,0.1,0.00020572,2055.8,0.00020548,2048.9,-6.7211e-05,-0.0025403,-6.9024e-05,-13.625,1.4656
7182,14.787,4.5455,0.1,0.00021036,2102.1,0.00021013,2095.5,-6.8767e-05,-0.0024238,-7.0515e-05,-13.135,1.4379
7183,14.602,4.5455,0.1,0.00021502,2148.7,0.0002148,2142.4,-7.0329e-05,-0.0023017,-7.2012e-05,-12.643,1.4103
7184,14.418,4.5455,0.1,0.0002197,2195.5,0.00021949,2189.4,-7.1898e-05,-0.0021548,-7.3514e-05,-12.146,1.3829
7185,14.234,4.5455,0.1,0.0002244,2242.4,0.0002242,2236.6,-7.3474e-05,-0.0020336,-7.5023e-05,-11.64,1.3556
7186,14.05,4.5455,0.1,0.00022912,2289.6,0.00022893,2284,-7.5057e-05,-0.0019398,-7.6537e-05,-11.123,1.3284
7187,13.865,4.5455,0.1,0.00023385,2336.9,0.00023367,2331.6,-7.6647e-05,-0.0018126,-7.8056e-05,-10.591,1.3015
7188,13.681,4.5455,0.1,0.00023861,2384.5,0.00023844,2379.4,-7.8244e-05,-0.0016741,-7.958e-05,-10.042,1.2747
7189,13.497,4.5455,0.1,0.00024339,2432.2,0.00024322,2427.4,-7.9848e-05,-0.0014962,-8.1109e-05,-9.4727,1.248
7190,13.313,4.5455,0.1,0.00024818,2480.1,0.00024803,2475.6,-8.146e-05,-0.0013336,-8.2641e-05,-8.8789,1.2215
7191,13.128,4.5455,0.1,0.00025299,2528.2,0.00025285,2524.1,-8.3079e-05,-0.0011824,-8.4178e-05,-8.2576,1.1952
7192,12.944,4.5455,0.1,0.00025782,2576.5,0.00025769,2572.7,-8.4705e-05,-0.00097283,-8.5717e-05,-7.6048,1.169
7193,12.76,4.5455,0.1,0.00026267,2624.9,0.00026256,2621.5,-8.6339e-05,-0.00071554,-8.726e-05,-6.9169,1.1431
7194,12.575,4.5455,0.1,0.00026754,2673.6,0.00026743,2670.5,-8.7981e-05,-0.00036337,-8.8805e-05,-6.1894,1.1173
7195,12.391,4.5455,0.1,0.00027242,2722.4,0.00027233,2719.6,-8.9631e-05,5.5917e-05,-9.0353e-05,-5.4184,1.0917
7196,12.207,4.5455,0.1,0.00027733,2771.3,0.00027725,2769,-9.1289e-05,0.00060376,-9.1902e-05,-4.599,1.0662
7197,12.023,4.5455,0.1,0.00028224,2820.5,0.00028218,2818.6,-9.2956e-05,0.0014857,-9.3452e-05,-3.7263,1.041
7198,11.838,4.5455,0.1,0.00028718,2869.8,0.00028713,2868.4,-9.463e-05,0.0030252,-9.5003e-05,-2.7956,1.0159
7199,11.654,4.5455,0.1,0.00029213,2919.3,0.0002921,2918.4,-9.6313e-05,0.0064295,-9.6554e-05,-1.8021,0.99107
7200,11.47,4.5455,0.1,0.0002971,2968.9,0.00029709,2968.6,-9.8004e-05,0.01977,-9.8106e-05,-0.74806,0.96641
7201,11.286,4.5455,0.1,0.00030208,3018.7,0.00030209,3018.9,-9.9647e-05,0.45593,-9.9713e-05,-0.03994,0.94195
7202,11.101,4.5455,0.1,0.00030708,3068.7,0.00030711,3069.5,-0.0001012,1.6576,-0.00010142,-0.013213,0.9177
7203,10.917,4.5455,0.1,0.00031209,3118.8,0.00031214,3120.3,-0.00010274,2.973,-0.00010314,-0.0086959,0.89366
7204,10.733,4.5455,0.1,0.00031712,3169,0.0003172,3171.2,-0.00010428,4.3906,-0.00010487,-0.00682,0.86982
7205,10.549,4.5455,0.1,0.00032216,3219.4,0.00032226,3222.4,-0.00010582,5.9169,-0.00010661,-0.0058335,0.84621
7206,10.364,4.5455,0.1,0.00032722,3269.9,0.00032735,3273.7,-0.00010735,7.5607,-0.00010836,-0.0052626,0.82281
7207,10.18,4.5455,0.1,0.00033229,3320.6,0.00033245,3325.2,-0.00010887,9.3319,-0.00011012,-0.0048452,0.79963
7208,9.9957,4.5455,0.1,0.00033737,3371.4,0.00033756,3377,-0.00011039,11.241,-0.00011189,-0.0045625,0.77668
7209,9.8115,4.5455,0.1,0.00034246,3422.3,0.00034269,3428.9,-0.0001119,13.298,-0.00011367,-0.0043637,0.75396
7210,9.6272,4.5455,0.1,0.00034757,3473.3,0.00034783,3481,-0.0001134,15.516,-0.00011547,-0.0042165,0.73147
7211,9.4429,4.5455,0.1,0.00035268,3524.4,0.00035298,3533.3,-0.00011489,17.908,-0.00011727,-0.0041255,0.70921
7212,9.2587,4.5455,0.1,0.00035781,3575.6,0.00035815,3585.8,-0.00011636,20.486,-0.00011909,-0.0040713,0.6872
7213,9.0744,4.5455,0.1,0.00036294,3626.9,0.00036333,3638.5,-0.00011782,23.266,-0.00012092,-0.0040528,0.66543
7214,8.8901,4.5455,0.1,0.00036809,3678.3,0.00036853,3691.4,-0.00011927,26.262,-0.00012277,-0.0040682,0.6439
7215,8.7059,4.5455,0.1,0.00037324,3729.8,0.00037373,3744.5,-0.0001207,29.491,-0.00012463,-0.0041182,0.62263
7216,8.5216,4.5455,0.1,0.0003784,3781.3,0.00037895,3797.7,-0.00012211,32.968,-0.0001265,-0.0042045,0.60161
7217,8.3373,4.5455,0.1,0.00038356,3833,0.00038417,3851.2,-0.0001235,36.711,-0.00012839,-0.004331,0.58084
7218,8.1531,4.5455,0.1,0.00038873,3884.6,0.00038941,3904.8,-0.00012487,40.739,-0.00013029,-0.0045047,0.56034
7219,7.9688,4.5455,0.1,0.00039391,3936.4,0.00039465,3958.7,-0.00012622,45.069,-0.00013222,-0.0047328,0.5401
7220,7.7845,4.5455,0.1,0.00039909,3988.1,0.00039991,4012.7,-0.00012754,49.719,-0.00013415,-0.0050262,0.52013
7221,7.6003,4.5455,0.1,0.00040427,4039.9,0.00040517,4067,-0.00012883,54.709,-0.00013611,-0.0053988,0.50043
7222,7.416,4.5455,0.1,0.00040946,4091.7,0.00041044,4121.4,-0.00013009,60.055,-0.00013808,-0.0058683,0.48101
7223,7.2317,4.5455,0.1,0.00041464,4143.6,0.00041572,4176.1,-0.00013132,65.776,-0.00014008,-0.0064569,0.46186
7224,7.0475,4.5455,0.1,0.00041983,4195.4,0.00042101,4230.9,-0.00013252,71.887,-0.00014209,-0.0071941,0.443
7225,6.8632,4.5455,0.1,0.00042503,4247.3,0.00042631,4286,-0.00013369,78.4,-0.00014413,-0.0081169,0.42442
7226,6.6789,4.5455,0.1,0.00043022,4299.3,0.00043161,4341.3,-0.00013482,85.327,-0.00014618,-0.0092728,0.40613
7227,6.4947,4.5455,0.1,0.00043542,4351.2,0.00043692,4396.8,-0.00013592,92.673,-0.00014826,-0.010723,0.38814
7228,6.3104,4.5455,0.1,0.00044062,4403.2,0.00044224,4452.5,-0.00013698,100.44,-0.00015035,-0.012546,0.37044
7229,6.1261,4.5455,0.1,0.00044583,4455.2,0.00044757,4508.5,-0.00013801,108.62,-0.00015247,-0.014845,0.35304
7230,5.9419,4.5455,0.1,0.00045104,4507.3,0.00045292,4564.7,-0.00013901,117.19,-0.00015461,-0.017754,0.33594
7231,5.7576,4.5455,0.1,0.00045626,4559.5,0.00045827,4621.2,-0.00013998,126.13,-0.00015677,-0.021449,0.31916
7232,5.5733,4.5455,0.1,0.00046149,4611.8,0.00046365,4678,-0.00014093,135.4,-0.00015895,-0.026164,0.30268
7233,5.3891,4.5455,0.1,0.00046674,4664.2,0.00046904,4735,-0.00014186,144.93,-0.00016115,-0.032209,0.28652
7234,5.2048,4.5455,0.1,0.00047202,4716.9,0.00047446,4792.3,-0.00014278,154.64,-0.00016337,-0.040007,0.27068
7235,5.0205,4.5455,0.1,0.00047732,4769.9,0.0004799,4849.9,-0.0001437,164.43,-0.00016559,-0.05013,0.25516
7236,4.8363,4.5455,0.1,0.00048265,4823.2,0.00048537,4907.8,-0.00014464,174.14,-0.00016783,-0.063365,0.23997
7237,4.652,4.5455,0.1,0.00048803,4876.9,0.00049089,4966,-0.00014562,183.59,-0.00017006,-0.080809,0.2251
7238,4.4677,4.5455,0.1,0.00049345,4931.1,0.00049644,5024.5,-0.00014665,192.56,-0.00017229,-0.10401,0.21057
7239,4.2835,4.5455,0.1,0.00049894,4985.9,0.00050205,5083.2,-0.00014777,200.76,-0.00017451,-0.13519,0.19638
7240,4.0992,4.5455,0.1,0.0005045,5041.5,0.00050771,5142.1,-0.000149,207.82,-0.00017669,-0.17757,0.18253
7241,3.9149,4.5455,0.1,0.00051013,5097.8,0.00051342,5201,-0.0001504,213.29,-0.00017882,-0.236,0.16902
7242,3.7307,4.5455,0.1,0.00051586,5155,0.00051919,5259.7,-0.00015201,216.59,-0.00018088,-0.31789,0.15586
7243,3.5464,4.5455,0.1,0.00052169,5213.3,0.00052503,5318.1,-0.00015389,216.97,-0.00018283,-0.4351,0.14305
7244,3.3621,4.5455,0.1,0.00052763,5272.6,0.00053092,5375.8,-0.00015614,213.45,-0.00018463,-0.60766,0.1306
7245,3.1779,4.5455,0.1,0.00053371,5333.4,0.00053688,5432.3,-0.00015888,204.67,-0.00018624,-0.87206,0.11851
7246,2.9936,4.5455,0.1,0.00053996,5395.9,0.0005429,5487.1,-0.00016227,188.74,-0.00018756,-1.3028,0.10679
7247,2.8093,4.5455,0.1,0.00054647,5461,0.00054902,5539.5,-0.00016656,162.93,-0.00018852,-2.0814,0.095435
7248,2.6251,4.5455,0.1,0.00055339,5530.1,0.00055531,5588.8,-0.00017209,123.36,-0.00018901,-3.7949,0.084453
7249,2.4408,4.5455,0.1,0.000561,5606.2,0.00056193,5634.1,-0.00017909,66.358,-0.00018922,-9.7754,0.073847
7250,2.2565,4.5455,0.1,0.00056988,5694.8,0.00056917,5674.8,-0.00018393,16.294,-0.0001935,-55.63,0.06362
7251,2.0723,4.5455,0.1,0.00058102,5806.2,0.00057759,5710.3,-0.00018152,6.6911,-0.00020813,-193.25,0.053776
7252,1.888,4.5455,0.1,0.00059623,5958.2,0.00058804,5739.6,-0.00017521,4.7828,-0.00023166,-419.4,0.044313
7253,1.7037,4.5455,0.1,0.0006184,6179.8,0.00060158,5757.3,-0.00016407,4.4919,-0.00026786,-775.41,0.035227
7254,1.5195,4.5455,0.1,0.00065219,6517.4,0.00061932,5751.5,-0.00014558,4.403,-0.00032315,-1329.8,0.02651
7255,1.3352,4.5455,0.1,0.0007007,7002.1,0.00063834,5665.5,-0.00011553,1.2203,-0.00040361,-2163.3,0.018137
7256,1.1509,4.5455,0.1,0.00080094,8003.9,0.0006807,5657.2,-6.7328e-05,36.844,-0.00053895,-3506.7,0.01009
7257,23.816,4.7273,0.1,1.5703e-05,156.92,8.3961e-06,39.923,3.0653e-06,-0.13132,-1.4638e-05,-133.14,2.9046
7258,23.631,4.7273,0.1,1.7536e-05,175.24,1.1845e-05,77.684,1.4676e-06,-0.29076,-1.4865e-05,-123.01,2.8735
7259,23.447,4.7273,0.1,1.9865e-05,198.51,1.5321e-05,115.56,-7.4196e-08,-0.1151,-1.5186e-05,-113.66,2.8424
7260,23.263,4.7273,0.1,2.2544e-05,225.28,1.8829e-05,153.41,-1.6012e-06,-0.10067,-1.5592e-05,-105.22,2.8113
7261,23.079,4.7273,0.1,2.5477e-05,254.6,2.2373e-05,191.34,-3.1028e-06,-0.071361,-1.6083e-05,-97.6,2.7803
7262,22.894,4.7273,0.1,2.8603e-05,285.84,2.5958e-05,229.44,-4.5859e-06,-0.057637,-1.6655e-05,-90.741,2.7492
7263,22.71,4.7273,0.1,3.1877e-05,318.55,2.9585e-05,267.72,-6.0529e-06,-0.046444,-1.7302e-05,-84.565,2.7182
7264,22.526,4.7273,0.1,3.5267e-05,352.42,3.3252e-05,306.21,-7.5072e-06,-0.038564,-1.8015e-05,-78.993,2.6871
7265,22.342,4.7273,0.1,3.875e-05,387.23,3.6958e-05,344.91,-8.9512e-06,-0.032446,-1.8789e-05,-73.95,2.6561
7266,22.157,4.7273,0.1,4.231e-05,422.81,4.07e-05,383.82,-1.0387e-05,-0.027686,-1.9616e-05,-69.37,2.6252
7267,21.973,4.7273,0.1,4.5934e-05,459.02,4.4476e-05,422.93,-1.1816e-05,-0.023883,-2.049e-05,-65.194,2.5942
7268,21.789,4.7273,0.1,4.9614e-05,495.79,4.8283e-05,462.24,-1.324e-05,-0.020797,-2.1405e-05,-61.374,2.5633
7269,21.605,4.7273,0.1,5.3341e-05,533.04,5.212e-05,501.74,-1.466e-05,-0.01827,-2.2359e-05,-57.87,2.5324
7270,21.42,4.7273,0.1,5.7112e-05,570.72,5.5985e-05,541.43,-1.6077e-05,-0.01618,-2.3347e-05,-54.645,2.5016
7271,21.236,4.7273,0.1,6.0921e-05,608.79,5.9877e-05,581.3,-1.7491e-05,-0.014417,-2.4366e-05,-51.671,2.4707
7272,21.052,4.7273,0.1,6.4766e-05,647.21,6.3794e-05,621.35,-1.8905e-05,-0.012924,-2.5414e-05,-48.923,2.44
7273,20.867,4.7273,0.1,6.8644e-05,685.96,6.7737e-05,661.59,-2.0317e-05,-0.011639,-2.6488e-05,-46.379,2.4092
7274,20.683,4.7273,0.1,7.2553e-05,725.03,7.1704e-05,702.01,-2.173e-05,-0.010541,-2.7587e-05,-44.02,2.3786
7275,20.499,4.7273,0.1,7.6492e-05,764.39,7.5694e-05,742.61,-2.3143e-05,-0.0095938,-2.8709e-05,-41.831,2.3479
7276,20.315,4.7273,0.1,8.046e-05,804.04,7.9708e-05,783.4,-2.4557e-05,-0.0087606,-2.9852e-05,-39.797,2.3173
7277,20.13,4.7273,0.1,8.4455e-05,843.96,8.3746e-05,824.37,-2.5972e-05,-0.0080248,-3.1016e-05,-37.906,2.2868
7278,19.946,4.7273,0.1,8.8476e-05,884.15,8.7806e-05,865.52,-2.7389e-05,-0.0073649,-3.2199e-05,-36.145,2.2563
7279,19.762,4.7273,0.1,9.2524e-05,924.6,9.1888e-05,906.86,-2.8808e-05,-0.0067847,-3.34e-05,-34.505,2.2259
7280,19.578,4.7273,0.1,9.6597e-05,965.3,9.5993e-05,948.39,-3.023e-05,-0.0062793,-3.4618e-05,-32.977,2.1956
7281,19.393,4.7273,0.1,0.00010069,1006.3,0.00010012,990.1,-3.1655e-05,-0.0058172,-3.5853e-05,-31.551,2.1653
7282,19.209,4.7273,0.1,0.00010482,1047.4,0.00010427,1032,-3.3082e-05,-0.0053949,-3.7104e-05,-30.22,2.135
7283,19.025,4.7273,0.1,0.00010896,1088.9,0.00010844,1074.1,-3.4513e-05,-0.0049998,-3.8369e-05,-28.977,2.1049
7284,18.841,4.7273,0.1,0.00011313,1130.6,0.00011263,1116.4,-3.5948e-05,-0.0046568,-3.9649e-05,-27.814,2.0748
7285,18.656,4.7273,0.1,0.00011733,1172.5,0.00011685,1158.9,-3.7387e-05,-0.0043543,-4.0943e-05,-26.727,2.0448
7286,18.472,4.7273,0.1,0.00012154,1214.6,0.00012109,1201.5,-3.883e-05,-0.0040675,-4.2251e-05,-25.708,2.0149
7287,18.288,4.7273,0.1,0.00012578,1257,0.00012534,1244.4,-4.0277e-05,-0.0038018,-4.3571e-05,-24.753,1.985
7288,18.103,4.7273,0.1,0.00013005,1299.6,0.00012962,1287.5,-4.1728e-05,-0.0035422,-4.4903e-05,-23.857,1.9553
7289,17.919,4.7273,0.1,0.00013433,1342.4,0.00013392,1330.7,-4.3184e-05,-0.0033186,-4.6247e-05,-23.014,1.9256
7290,17.735,4.7273,0.1,0.00013864,1385.4,0.00013825,1374.2,-4.4646e-05,-0.0031284,-4.7603e-05,-22.221,1.896
7291,17.551,4.7273,0.1,0.00014297,1428.7,0.00014259,1417.8,-4.6112e-05,-0.0029354,-4.8969e-05,-21.472,1.8665
7292,17.366,4.7273,0.1,0.00014732,1472.2,0.00014695,1461.7,-4.7583e-05,-0.0027572,-5.0346e-05,-20.765,1.8371
7293,17.182,4.7273,0.1,0.00015169,1515.9,0.00015134,1505.7,-4.9059e-05,-0.0025702,-5.1734e-05,-20.095,1.8078
7294,16.998,4.7273,0.1,0.00015608,1559.8,0.00015574,1549.9,-5.0541e-05,-0.0024152,-5.3131e-05,-19.459,1.7787
7295,16.814,4.7273,0.1,0.0001605,1603.9,0.00016017,1594.4,-5.2029e-05,-0.0022893,-5.4538e-05,-18.854,1.7496
7296,16.629,4.7273,0.1,0.00016494,1648.2,0.00016462,1639,-5.3522e-05,-0.0021557,-5.5954e-05,-18.276,1.7206
7297,16.445,4.7273,0.1,0.0001694,1692.8,0.00016909,1683.9,-5.5021e-05,-0.0020265,-5.7379e-05,-17.722,1.6917
7298,16.261,4.7273,0.1,0.00017387,1737.5,0.00017358,1728.9,-5.6525e-05,-0.0018835,-5.8813e-05,-17.189,1.663
7299,16.077,4.7273,0.1,0.00017837,1782.5,0.00017809,1774.1,-5.8036e-05,-0.0017689,-6.0255e-05,-16.675,1.6343
7300,15.892,4.7273,0.1,0.0001829,1827.7,0.00018262,1819.6,-5.9553e-05,-0.0016828,-6.1705e-05,-16.177,1.6058
7301,15.708,4.7273,0.1,0.00018744,1873.1,0.00018717,1865.2,-6.1075e-05,-0.0015824,-6.3164e-05,-15.692,1.5774
7302,15.524,4.7273,0.1,0.000192,1918.7,0.00019174,1911,-6.2604e-05,-0.0014809,-6.4629e-05,-15.217,1.5492
7303,15.339,4.7273,0.1,0.00019658,1964.5,0.00019633,1957,-6.414e-05,-0.0013617,-6.6103e-05,-14.75,1.521
7304,15.155,4.7273,0.1,0.00020118,2010.4,0.00020094,2003.3,-6.5682e-05,-0.0012678,-6.7583e-05,-14.288,1.493
7305,14.971,4.7273,0.1,0.00020581,2056.6,0.00020557,2049.7,-6.723e-05,-0.0012037,-6.907e-05,-13.829,1.4652
7306,14.787,4.7273,0.1,0.00021045,2103,0.00021022,2096.3,-6.8785e-05,-0.0011188,-7.0564e-05,-13.37,1.4374
7307,14.602,4.7273,0.1,0.00021511,2149.6,0.00021489,2143.1,-7.0346e-05,-0.0010285,-7.2064e-05,-12.909,1.4099
7308,14.418,4.7273,0.1,0.00021979,2196.4,0.00021958,2190.2,-7.1914e-05,-0.00091279,-7.357e-05,-12.444,1.3824
7309,14.234,4.7273,0.1,0.00022449,2243.4,0.00022429,2237.4,-7.3489e-05,-0.0008252,-7.5082e-05,-11.971,1.3551
7310,14.05,4.7273,0.1,0.00022921,2290.6,0.00022902,2284.8,-7.5071e-05,-0.00076114,-7.66e-05,-11.488,1.328
7311,13.865,4.7273,0.1,0.00023395,2337.9,0.00023377,2332.4,-7.666e-05,-0.00067021,-7.8123e-05,-10.992,1.301
7312,13.681,4.7273,0.1,0.00023871,2385.5,0.00023853,2380.2,-7.8256e-05,-0.00056511,-7.9651e-05,-10.48,1.2742
7313,13.497,4.7273,0.1,0.00024349,2433.2,0.00024332,2428.3,-7.9859e-05,-0.00042488,-8.1183e-05,-9.9503,1.2475
7314,13.313,4.7273,0.1,0.00024829,2481.2,0.00024813,2476.5,-8.1469e-05,-0.00030562,-8.272e-05,-9.3988,1.221
7315,13.128,4.7273,0.1,0.0002531,2529.3,0.00025295,2524.9,-8.3087e-05,-0.0002008,-8.4261e-05,-8.8225,1.1947
7316,12.944,4.7273,0.1,0.00025794,2577.6,0.0002578,2573.5,-8.4713e-05,-4.6699e-05,-8.5806e-05,-8.2181,1.1685
7317,12.76,4.7273,0.1,0.00026279,2626.1,0.00026266,2622.3,-8.6345e-05,0.00014389,-8.7355e-05,-7.582,1.1425
7318,12.575,4.7273,0.1,0.00026766,2674.8,0.00026754,2671.3,-8.7986e-05,0.00041005,-8.8906e-05,-6.9104,1.1167
7319,12.391,4.7273,0.1,0.00027255,2723.6,0.00027245,2720.5,-8.9635e-05,0.00070586,-9.046e-05,-6.1996,1.0911
7320,12.207,4.7273,0.1,0.00027746,2772.7,0.00027736,2769.9,-9.1291e-05,0.001067,-9.2016e-05,-5.4454,1.0657
7321,12.023,4.7273,0.1,0.00028238,2821.9,0.0002823,2819.5,-9.2955e-05,0.0016241,-9.3574e-05,-4.6431,1.0404
7322,11.838,4.7273,0.1,0.00028732,2871.2,0.00028726,2869.3,-9.4628e-05,0.0024905,-9.5133e-05,-3.7883,1.0154
7323,11.654,4.7273,0.1,0.00029228,2920.8,0.00029223,2919.3,-9.6309e-05,0.0040224,-9.6693e-05,-2.876,0.9905
7324,11.47,4.7273,0.1,0.00029725,2970.5,0.00029722,2969.5,-9.7999e-05,0.0072213,-9.8253e-05,-1.9021,0.96583
7325,11.286,4.7273,0.1,0.00030225,3020.4,0.00030223,3019.9,-9.9696e-05,0.018539,-9.9814e-05,-0.86717,0.94136
7326,11.101,4.7273,0.1,0.00030725,3070.4,0.00030726,3070.5,-0.00010136,0.33004,-0.00010141,-0.056781,0.9171
7327,10.917,4.7273,0.1,0.00031227,3120.6,0.0003123,3121.3,-0.00010293,1.4918,-0.00010313,-0.014543,0.89305
7328,10.733,4.7273,0.1,0.00031731,3170.9,0.00031736,3172.3,-0.00010448,2.7796,-0.00010485,-0.0089537,0.86921
7329,10.549,4.7273,0.1,0.00032237,3221.4,0.00032244,3223.5,-0.00010603,4.1677,-0.00010659,-0.0068508,0.84558
7330,10.364,4.7273,0.1,0.00032743,3272.1,0.00032753,3274.9,-0.00010758,5.6617,-0.00010833,-0.0058136,0.82217
7331,10.18,4.7273,0.1,0.00033252,3322.9,0.00033264,3326.5,-0.00010912,7.2699,-0.00011009,-0.0051742,0.79899
7332,9.9957,4.7273,0.1,0.00033761,3373.8,0.00033776,3378.3,-0.00011066,9.0013,-0.00011186,-0.0047848,0.77603
7333,9.8115,4.7273,0.1,0.00034272,3424.8,0.0003429,3430.2,-0.00011219,10.866,-0.00011364,-0.0045414,0.7533
7334,9.6272,4.7273,0.1,0.00034784,3476,0.00034806,3482.4,-0.00011371,12.873,-0.00011543,-0.00439,0.7308
7335,9.4429,4.7273,0.1,0.00035298,3527.3,0.00035323,3534.8,-0.00011522,15.035,-0.00011723,-0.004321,0.70853
7336,9.2587,4.7273,0.1,0.00035812,3578.7,0.00035841,3587.4,-0.00011673,17.363,-0.00011904,-0.0043092,0.68651
7337,9.0744,4.7273,0.1,0.00036328,3630.3,0.00036361,3640.2,-0.00011822,19.868,-0.00012086,-0.0043492,0.66473
7338,8.8901,4.7273,0.1,0.00036844,3681.9,0.00036882,3693.1,-0.0001197,22.565,-0.0001227,-0.0044372,0.6432
7339,8.7059,4.7273,0.1,0.00037362,3733.6,0.00037405,3746.3,-0.00012116,25.466,-0.00012455,-0.0045729,0.62192
7340,8.5216,4.7273,0.1,0.00037881,3785.5,0.00037929,3799.7,-0.00012262,28.584,-0.00012642,-0.0047587,0.60089
7341,8.3373,4.7273,0.1,0.000384,3837.4,0.00038454,3853.3,-0.00012405,31.934,-0.0001283,-0.0049979,0.58012
7342,8.1531,4.7273,0.1,0.00038921,3889.4,0.0003898,3907,-0.00012547,35.53,-0.00013019,-0.0052977,0.55961
7343,7.9688,4.7273,0.1,0.00039442,3941.5,0.00039507,3961,-0.00012686,39.386,-0.0001321,-0.0056661,0.53936
7344,7.7845,4.7273,0.1,0.00039964,3993.6,0.00040036,4015.2,-0.00012824,43.514,-0.00013403,-0.006116,0.51938
7345,7.6003,4.7273,0.1,0.00040486,4045.8,0.00040566,4069.6,-0.00012959,47.929,-0.00013597,-0.0066618,0.49968
7346,7.416,4.7273,0.1,0.00041009,4098.1,0.00041096,4124.2,-0.00013092,52.641,-0.00013793,-0.0073234,0.48025
7347,7.2317,4.7273,0.1,0.00041533,4150.4,0.00041628,4179,-0.00013223,57.659,-0.00013991,-0.0081254,0.46109
7348,7.0475,4.7273,0.1,0.00042057,4202.8,0.00042161,4234,-0.00013351,62.992,-0.0001419,-0.009099,0.44222
7349,6.8632,4.7273,0.1,0.00042582,4255.3,0.00042695,4289.2,-0.00013477,68.643,-0.00014391,-0.010284,0.42364
7350,6.6789,4.7273,0.1,0.00043107,4307.7,0.00043229,4344.6,-0.000136,74.61,-0.00014593,-0.011732,0.40535
7351,6.4947,4.7273,0.1,0.00043633,4360.3,0.00043765,4400.2,-0.00013721,80.886,-0.00014798,-0.013507,0.38735
7352,6.3104,4.7273,0.1,0.00044159,4412.9,0.00044302,4456,-0.0001384,87.456,-0.00015004,-0.015693,0.36965
7353,6.1261,4.7273,0.1,0.00044686,4465.5,0.00044839,4511.9,-0.00013956,94.296,-0.00015211,-0.018398,0.35225
7354,5.9419,4.7273,0.1,0.00045214,4518.3,0.00045378,4568.1,-0.00014071,101.37,-0.0001542,-0.021764,0.33515
7355,5.7576,4.7273,0.1,0.00045742,4571,0.00045917,4624.4,-0.00014184,108.62,-0.0001563,-0.025976,0.31836
7356,5.5733,4.7273,0.1,0.00046271,4623.9,0.00046457,4680.8,-0.00014296,115.99,-0.00015841,-0.03128,0.30188
7357,5.3891,4.7273,0.1,0.00046801,4676.8,0.00046998,4737.3,-0.00014409,123.38,-0.00016052,-0.03801,0.28572
7358,5.2048,4.7273,0.1,0.00047331,4729.8,0.0004754,4793.8,-0.00014523,130.67,-0.00016262,-0.046614,0.26988
7359,5.0205,4.7273,0.1,0.00047862,4782.9,0.00048081,4850.2,-0.00014638,137.72,-0.00016472,-0.057686,0.25436
7360,4.8363,4.7273,0.1,0.00048393,4836,0.00048622,4906.5,-0.00014758,144.34,-0.0001668,-0.072184,0.23917
7361,4.652,4.7273,0.1,0.00048924,4889,0.00049162,4962.4,-0.00014883,150.31,-0.00016884,-0.091259,0.2243
7362,4.4677,4.7273,0.1,0.00049454,4942,0.000497,5017.8,-0.00015015,155.34,-0.00017084,-0.11674,0.20977
7363,4.2835,4.7273,0.1,0.00049982,4994.7,0.00050233,5072.3,-0.00015157,159.11,-0.00017277,-0.15131,0.19558
7364,4.0992,4.7273,0.1,0.00050505,5047,0.0005076,5125.6,-0.00015312,161.2,-0.0001746,-0.19906,0.18173
7365,3.9149,4.7273,0.1,0.00051021,5098.6,0.00051276,5177.1,-0.00015483,161.13,-0.00017631,-0.26648,0.16823
7366,3.7307,4.7273,0.1,0.00051527,5149.1,0.00051777,5226.2,-0.00015673,158.3,-0.00017785,-0.36429,0.15507
7367,3.5464,4.7273,0.1,0.00052016,5198,0.00052257,5272,-0.00015887,151.98,-0.00017917,-0.51138,0.14226
7368,3.3621,4.7273,0.1,0.00052482,5244.5,0.00052706,5313.3,-0.0001613,141.25,-0.0001802,-0.74384,0.12981
7369,3.1779,4.7273,0.1,0.00052916,5287.9,0.00053115,5348.7,-0.00016409,124.95,-0.00018087,-1.1399,0.11772
7370,2.9936,4.7273,0.1,0.00053307,5327.1,0.00053469,5376.1,-0.00016731,101.57,-0.00018108,-1.9056,0.10599
7371,2.8093,4.7273,0.1,0.00053646,5360.9,0.00053754,5393.4,-0.00017103,69.447,-0.00018078,-3.797,0.094623
7372,2.6251,4.7273,0.1,0.00053922,5388.5,0.00053952,5397.5,-0.00017483,30.112,-0.00018043,-11.97,0.08362
7373,2.4408,4.7273,0.1,0.00054132,5409.4,0.00054046,5384.9,-0.00017507,8.6878,-0.00018382,-57.092,0.072982
7374,2.2565,4.7273,0.1,0.00054282,5424.5,0.00054023,5351.5,-0.00017139,4.7049,-0.00019162,-147.35,0.062709
7375,2.0723,4.7273,0.1,0.00054409,5437.1,0.0005388,5292.4,-0.00016511,3.5499,-0.00020308,-281.73,0.052796
7376,1.888,4.7273,0.1,0.00054594,5455.6,0.00053624,5201.7,-0.00015564,3.1955,-0.00021981,-479.02,0.043238
7377,1.7037,4.7273,0.1,0.0005499,5495.2,0.00053279,5071.6,-0.00014177,3.2102,-0.00024451,-768.76,0.034021
7378,1.5195,4.7273,0.1,0.00055831,5579.3,0.00052855,4891.3,-0.0001219,4.091,-0.0002805,-1187.6,0.025125
7379,1.3352,4.7273,0.1,0.00057572,5753.2,0.00052432,4651.6,-9.4774e-05,0.0059993,-0.0003319,-1781.7,0.016523
7380,1.1509,4.7273,0.1,0.00063261,6321.7,0.00054132,4519.7,-5.8905e-05,9.8466,-0.00042038,-2706.1,0.0082292
7381,23.816,4.9091,0.1,1.4625e-05,146.15,8.0251e-06,39.864,2.7055e-06,-0.10553,-1.3533e-05,-122.11,2.9045
7382,23.631,4.9091,0.1,1.65e-05,164.88,1.1441e-05,77.236,1.1245e-06,-0.27547,-1.3761e-05,-112.12,2.8734
7383,23.447,4.9091,0.1,1.8894e-05,188.81,1.4896e-05,114.8,-3.9601e-07,-0.10369,-1.4106e-05,-103.12,2.8423
7384,23.263,4.9091,0.1,2.1649e-05,216.34,1.8399e-05,152.43,-1.8998e-06,-0.09042,-1.4554e-05,-95.172,2.8112
7385,23.079,4.9091,0.1,2.4662e-05,246.45,2.1951e-05,190.25,-3.3782e-06,-0.062018,-1.5101e-05,-88.14,2.7801
7386,22.894,4.9091,0.1,2.7867e-05,278.48,2.5554e-05,228.31,-4.839e-06,-0.048922,-1.5736e-05,-81.928,2.7491
7387,22.71,4.9091,0.1,3.1217e-05,311.95,2.9206e-05,266.63,-6.2852e-06,-0.038268,-1.6451e-05,-76.417,2.718
7388,22.526,4.9091,0.1,3.4678e-05,346.54,3.2903e-05,305.2,-7.7205e-06,-0.030874,-1.7233e-05,-71.502,2.687
7389,22.342,4.9091,0.1,3.8227e-05,382.01,3.6641e-05,344.01,-9.1471e-06,-0.025211,-1.8073e-05,-67.09,2.656
7390,22.157,4.9091,0.1,4.1847e-05,418.18,4.0415e-05,383.04,-1.0567e-05,-0.020874,-1.8963e-05,-63.105,2.625
7391,21.973,4.9091,0.1,4.5526e-05,454.95,4.4221e-05,422.27,-1.1982e-05,-0.01747,-1.9897e-05,-59.486,2.5941
7392,21.789,4.9091,0.1,4.9255e-05,492.22,4.8058e-05,461.71,-1.3393e-05,-0.014756,-2.0868e-05,-56.181,2.5631
7393,21.605,4.9091,0.1,5.3028e-05,529.92,5.1923e-05,501.33,-1.4801e-05,-0.012572,-2.1874e-05,-53.151,2.5323
7394,21.42,4.9091,0.1,5.6839e-05,568,5.5815e-05,541.14,-1.6208e-05,-0.0108,-2.2909e-05,-50.362,2.5014
7395,21.236,4.9091,0.1,6.0685e-05,606.43,5.9731e-05,581.12,-1.7613e-05,-0.0093333,-2.3972e-05,-47.788,2.4706
7396,21.052,4.9091,0.1,6.4563e-05,645.19,6.3671e-05,621.28,-1.9018e-05,-0.0081138,-2.506e-05,-45.405,2.4398
7397,20.867,4.9091,0.1,6.8472e-05,684.24,6.7634e-05,661.62,-2.0423e-05,-0.0070788,-2.6171e-05,-43.196,2.4091
7398,20.683,4.9091,0.1,7.2408e-05,723.58,7.162e-05,702.13,-2.1828e-05,-0.0062105,-2.7303e-05,-41.143,2.3784
7399,20.499,4.9091,0.1,7.6372e-05,763.19,7.5628e-05,742.81,-2.3235e-05,-0.0054804,-2.8456e-05,-39.233,2.3477
7400,20.315,4.9091,0.1,8.0361e-05,803.06,7.9658e-05,783.67,-2.4643e-05,-0.0048438,-2.9627e-05,-37.454,2.3171
7401,20.13,4.9091,0.1,8.4376e-05,843.18,8.371e-05,824.71,-2.6053e-05,-0.0042931,-3.0816e-05,-35.795,2.2866
7402,19.946,4.9091,0.1,8.8416e-05,883.55,8.7784e-05,865.93,-2.7465e-05,-0.0038026,-3.2022e-05,-34.247,2.2561
7403,19.762,4.9091,0.1,9.248e-05,924.16,9.1878e-05,907.32,-2.888e-05,-0.0033815,-3.3245e-05,-32.8,2.2257
7404,19.578,4.9091,0.1,9.6568e-05,965.01,9.5994e-05,948.9,-3.0297e-05,-0.003023,-3.4482e-05,-31.449,2.1953
7405,19.393,4.9091,0.1,0.00010068,1006.1,0.00010013,990.66,-3.1718e-05,-0.0026947,-3.5735e-05,-30.184,2.165
7406,19.209,4.9091,0.1,0.00010481,1047.4,0.00010429,1032.6,-3.3142e-05,-0.0024031,-3.7002e-05,-29.001,2.1348
7407,19.025,4.9091,0.1,0.00010897,1089,0.00010847,1074.7,-3.457e-05,-0.0021274,-3.8282e-05,-27.892,2.1046
7408,18.841,4.9091,0.1,0.00011315,1130.7,0.00011267,1117.1,-3.6002e-05,-0.0018942,-3.9575e-05,-26.852,2.0745
7409,18.656,4.9091,0.1,0.00011735,1172.7,0.00011689,1159.6,-3.7438e-05,-0.0016952,-4.0881e-05,-25.877,2.0445
7410,18.472,4.9091,0.1,0.00012158,1214.9,0.00012113,1202.3,-3.8878e-05,-0.0015061,-4.22e-05,-24.961,2.0146
7411,18.288,4.9091,0.1,0.00012582,1257.4,0.0001254,1245.1,-4.0323e-05,-0.0013314,-4.353e-05,-24.1,1.9847
7412,18.103,4.9091,0.1,0.00013009,1300,0.00012968,1288.2,-4.1772e-05,-0.0011567,-4.4871e-05,-23.289,1.955
7413,17.919,4.9091,0.1,0.00013438,1342.9,0.00013399,1331.5,-4.3226e-05,-0.0010125,-4.6224e-05,-22.525,1.9253
7414,17.735,4.9091,0.1,0.0001387,1386,0.00013831,1375,-4.4685e-05,-0.00089713,-4.7587e-05,-21.803,1.8957
7415,17.551,4.9091,0.1,0.00014303,1429.3,0.00014266,1418.6,-4.615e-05,-0.00077819,-4.8961e-05,-21.121,1.8662
7416,17.366,4.9091,0.1,0.00014738,1472.8,0.00014703,1462.5,-4.7619e-05,-0.00066413,-5.0344e-05,-20.475,1.8368
7417,17.182,4.9091,0.1,0.00015176,1516.6,0.00015141,1506.5,-4.9094e-05,-0.00054183,-5.1737e-05,-19.861,1.8075
7418,16.998,4.9091,0.1,0.00015616,1560.5,0.00015582,1550.8,-5.0575e-05,-0.00044624,-5.314e-05,-19.277,1.7783
7419,16.814,4.9091,0.1,0.00016058,1604.7,0.00016025,1595.2,-5.2061e-05,-0.00037812,-5.4552e-05,-18.72,1.7492
7420,16.629,4.9091,0.1,0.00016502,1649,0.0001647,1639.9,-5.3552e-05,-0.0002985,-5.5973e-05,-18.187,1.7202
7421,16.445,4.9091,0.1,0.00016948,1693.6,0.00016917,1684.7,-5.505e-05,-0.0002202,-5.7402e-05,-17.675,1.6913
7422,16.261,4.9091,0.1,0.00017396,1738.4,0.00017366,1729.7,-5.6554e-05,-0.00012596,-5.884e-05,-17.182,1.6626
7423,16.077,4.9091,0.1,0.00017846,1783.4,0.00017817,1775,-5.8063e-05,-5.9312e-05,-6.0286e-05,-16.706,1.6339
7424,15.892,4.9091,0.1,0.00018298,1828.6,0.0001827,1820.4,-5.9579e-05,-1.9099e-05,-6.1741e-05,-16.244,1.6054
7425,15.708,4.9091,0.1,0.00018753,1874,0.00018725,1866,-6.11e-05,3.7127e-05,-6.3202e-05,-15.793,1.577
7426,15.524,4.9091,0.1,0.00019209,1919.6,0.00019183,1911.9,-6.2628e-05,9.5562e-05,-6.4672e-05,-15.352,1.5487
7427,15.339,4.9091,0.1,0.00019668,1965.4,0.00019642,1957.9,-6.4163e-05,0.00017503,-6.6148e-05,-14.917,1.5206
7428,15.155,4.9091,0.1,0.00020128,2011.4,0.00020103,2004.1,-6.5703e-05,0.0002259,-6.7632e-05,-14.488,1.4926
7429,14.971,4.9091,0.1,0.0002059,2057.6,0.00020566,2050.6,-6.7251e-05,0.00025064,-6.9122e-05,-14.062,1.4647
7430,14.787,4.9091,0.1,0.00021055,2104,0.00021031,2097.2,-6.8804e-05,0.00029612,-7.0619e-05,-13.636,1.437
7431,14.602,4.9091,0.1,0.00021521,2150.6,0.00021498,2144,-7.0365e-05,0.000345,-7.2123e-05,-13.208,1.4094
7432,14.418,4.9091,0.1,0.0002199,2197.4,0.00021968,2191,-7.1932e-05,0.00042092,-7.3633e-05,-12.776,1.3819
7433,14.234,4.9091,0.1,0.0002246,2244.5,0.00022439,2238.3,-7.3506e-05,0.00046825,-7.5148e-05,-12.338,1.3546
7434,14.05,4.9091,0.1,0.00022932,2291.7,0.00022912,2285.7,-7.5087e-05,0.00048857,-7.667e-05,-11.891,1.3275
7435,13.865,4.9091,0.1,0.00023407,2339,0.00023387,2333.3,-7.6675e-05,0.00053596,-7.8196e-05,-11.434,1.3005
7436,13.681,4.9091,0.1,0.00023883,2386.6,0.00023864,2381.1,-7.8269e-05,0.00059316,-7.9729e-05,-10.962,1.2737
7437,13.497,4.9091,0.1,0.00024361,2434.4,0.00024343,2429.2,-7.9871e-05,0.00068362,-8.1266e-05,-10.475,1.247
7438,13.313,4.9091,0.1,0.00024841,2482.4,0.00024824,2477.4,-8.1481e-05,0.0007499,-8.2807e-05,-9.9688,1.2205
7439,13.128,4.9091,0.1,0.00025323,2530.5,0.00025307,2525.8,-8.3097e-05,0.00079357,-8.4354e-05,-9.441,1.1941
7440,12.944,4.9091,0.1,0.00025807,2578.9,0.00025791,2574.4,-8.4721e-05,0.00087834,-8.5904e-05,-8.8885,1.168
7441,12.76,4.9091,0.1,0.00026292,2627.4,0.00026278,2623.2,-8.6352e-05,0.00098776,-8.7458e-05,-8.3083,1.142
7442,12.575,4.9091,0.1,0.0002678,2676.1,0.00026767,2672.3,-8.7991e-05,0.0011532,-8.9016e-05,-7.6969,1.1162
7443,12.391,4.9091,0.1,0.00027269,2725,0.00027257,2721.5,-8.9638e-05,0.0013219,-9.0577e-05,-7.0511,1.0905
7444,12.207,4.9091,0.1,0.0002776,2774.1,0.00027749,2770.9,-9.1293e-05,0.0015083,-9.2141e-05,-6.367,1.0651
7445,12.023,4.9091,0.1,0.00028253,2823.4,0.00028244,2820.5,-9.2956e-05,0.0018072,-9.3707e-05,-5.6407,1.0398
7446,11.838,4.9091,0.1,0.00028748,2872.8,0.0002874,2870.4,-9.4627e-05,0.0022477,-9.5275e-05,-4.8681,1.0147
7447,11.654,4.9091,0.1,0.00029244,2922.4,0.00029237,2920.4,-9.6306e-05,0.0029556,-9.6844e-05,-4.0447,0.98986
7448,11.47,4.9091,0.1,0.00029743,2972.2,0.00029737,2970.6,-9.7993e-05,0.004093,-9.8415e-05,-3.1661,0.96519
7449,11.286,4.9091,0.1,0.00030242,3022.2,0.00030239,3021,-9.9689e-05,0.0063197,-9.9987e-05,-2.2277,0.94071
7450,11.101,4.9091,0.1,0.00030744,3072.3,0.00030742,3071.7,-0.00010139,0.012689,-0.00010156,-1.2271,0.91644
7451,10.917,4.9091,0.1,0.00031247,3122.6,0.00031247,3122.5,-0.0001031,0.080528,-0.00010314,-0.21581,0.89237
7452,10.733,4.9091,0.1,0.00031752,3173,0.00031754,3173.5,-0.00010469,1.0411,-0.00010484,-0.018746,0.86852
7453,10.549,4.9091,0.1,0.00032259,3223.6,0.00032262,3224.8,-0.00010626,2.2746,-0.00010657,-0.0097149,0.84488
7454,10.364,4.9091,0.1,0.00032767,3274.4,0.00032773,3276.2,-0.00010783,3.6063,-0.00010831,-0.0070328,0.82147
7455,10.18,4.9091,0.1,0.00033276,3325.3,0.00033285,3327.8,-0.00010939,5.0392,-0.00011006,-0.0057838,0.79827
7456,9.9957,4.9091,0.1,0.00033787,3376.4,0.00033798,3379.7,-0.00011095,6.5801,-0.00011182,-0.0051305,0.7753
7457,9.8115,4.9091,0.1,0.000343,3427.6,0.00034314,3431.7,-0.0001125,8.2372,-0.0001136,-0.0047766,0.75256
7458,9.6272,4.9091,0.1,0.00034814,3479,0.00034831,3484,-0.00011405,10.019,-0.00011538,-0.004593,0.73005
7459,9.4429,4.9091,0.1,0.00035329,3530.5,0.00035349,3536.4,-0.00011559,11.936,-0.00011718,-0.0045381,0.70778
7460,9.2587,4.9091,0.1,0.00035846,3582.1,0.00035869,3589.1,-0.00011712,13.996,-0.00011898,-0.0045722,0.68575
7461,9.0744,4.9091,0.1,0.00036364,3633.9,0.00036391,3642,-0.00011865,16.21,-0.0001208,-0.0046816,0.66396
7462,8.8901,4.9091,0.1,0.00036883,3685.8,0.00036914,3695,-0.00012016,18.589,-0.00012263,-0.0048578,0.64242
7463,8.7059,4.9091,0.1,0.00037404,3737.8,0.00037439,3748.3,-0.00012166,21.143,-0.00012448,-0.0050978,0.62113
7464,8.5216,4.9091,0.1,0.00037925,3789.9,0.00037965,3801.8,-0.00012316,23.884,-0.00012633,-0.0054029,0.60009
7465,8.3373,4.9091,0.1,0.00038448,3842.1,0.00038493,3855.5,-0.00012463,26.821,-0.00012821,-0.0057753,0.57931
7466,8.1531,4.9091,0.1,0.00038972,3894.5,0.00039022,3909.4,-0.0001261,29.965,-0.00013009,-0.006223,0.55879
7467,7.9688,4.9091,0.1,0.00039497,3946.9,0.00039552,3963.5,-0.00012755,33.327,-0.00013199,-0.0067543,0.53854
7468,7.7845,4.9091,0.1,0.00040023,3999.5,0.00040084,4017.8,-0.00012899,36.916,-0.0001339,-0.0073814,0.51855
7469,7.6003,4.9091,0.1,0.00040549,4052.1,0.00040617,4072.4,-0.0001304,40.739,-0.00013583,-0.0081207,0.49884
7470,7.416,4.9091,0.1,0.00041077,4104.9,0.00041151,4127.1,-0.0001318,44.803,-0.00013777,-0.0089919,0.4794
7471,7.2317,4.9091,0.1,0.00041606,4157.7,0.00041687,4182,-0.00013319,49.11,-0.00013973,-0.01002,0.46024
7472,7.0475,4.9091,0.1,0.00042135,4210.6,0.00042224,4237.2,-0.00013455,53.661,-0.0001417,-0.011239,0.44136
7473,6.8632,4.9091,0.1,0.00042665,4263.6,0.00042762,4292.5,-0.0001359,58.45,-0.00014368,-0.012688,0.42278
7474,6.6789,4.9091,0.1,0.00043196,4316.7,0.00043301,4348,-0.00013723,63.469,-0.00014568,-0.014417,0.40448
7475,6.4947,4.9091,0.1,0.00043728,4369.8,0.00043841,4403.7,-0.00013855,68.699,-0.00014769,-0.016494,0.38647
7476,6.3104,4.9091,0.1,0.0004426,4423,0.00044382,4459.6,-0.00013985,74.113,-0.00014972,-0.019003,0.36877
7477,6.1261,4.9091,0.1,0.00044793,4476.2,0.00044923,4515.5,-0.00014114,79.674,-0.00015175,-0.02205,0.35136
7478,5.9419,4.9091,0.1,0.00045327,4529.5,0.00045466,4571.6,-0.00014243,85.331,-0.00015379,-0.025777,0.33426
7479,5.7576,4.9091,0.1,0.0004586,4582.9,0.00046008,4627.7,-0.00014371,91.013,-0.00015583,-0.030371,0.31747
7480,5.5733,4.9091,0.1,0.00046394,4636.2,0.00046551,4683.7,-0.000145,96.635,-0.00015786,-0.036079,0.30099
7481,5.3891,4.9091,0.1,0.00046927,4689.5,0.00047092,4739.6,-0.0001463,102.08,-0.00015989,-0.043239,0.28482
7482,5.2048,4.9091,0.1,0.00047459,4742.6,0.00047632,4795.3,-0.00014762,107.22,-0.0001619,-0.052307,0.26898
7483,5.0205,4.9091,0.1,0.00047989,4795.6,0.00048169,4850.5,-0.00014898,111.86,-0.00016388,-0.063954,0.25346
7484,4.8363,4.9091,0.1,0.00048516,4848.2,0.00048702,4905.1,-0.00015039,115.81,-0.00016581,-0.079096,0.23827
7485,4.652,4.9091,0.1,0.00049038,4900.4,0.00049229,4958.7,-0.00015186,118.8,-0.00016768,-0.099115,0.2234
7486,4.4677,4.9091,0.1,0.00049552,4951.8,0.00049746,5010.9,-0.00015341,120.54,-0.00016947,-0.1261,0.20888
7487,4.2835,4.9091,0.1,0.00050055,5002,0.00050249,5061.2,-0.00015505,120.66,-0.00017114,-0.16333,0.19469
7488,4.0992,4.9091,0.1,0.00050542,5050.7,0.00050733,5108.9,-0.00015682,118.76,-0.00017265,-0.21619,0.18084
7489,3.9149,4.9091,0.1,0.00051007,5097.1,0.00051191,5153.2,-0.00015872,114.33,-0.00017398,-0.29401,0.16733
7490,3.7307,4.9091,0.1,0.0005144,5140.4,0.00051613,5192.8,-0.00016078,106.82,-0.00017505,-0.4142,0.15418
7491,3.5464,4.9091,0.1,0.0005183,5179.5,0.00051985,5226.3,-0.000163,95.576,-0.0001758,-0.61271,0.14137
7492,3.3621,4.9091,0.1,0.00052163,5212.7,0.00052292,5251.7,-0.0001654,79.881,-0.00017616,-0.97595,0.12892
7493,3.1779,4.9091,0.1,0.00052418,5238.2,0.00052513,5266.6,-0.00016795,59,-0.00017604,-1.7696,0.11682
7494,2.9936,4.9091,0.1,0.00052573,5253.7,0.00052621,5267.9,-0.00017052,32.94,-0.00017548,-4.2711,0.10508
7495,2.8093,4.9091,0.1,0.00052599,5256.2,0.00052584,5251.9,-0.00017179,10.213,-0.00017564,-18.693,0.093699
7496,2.6251,4.9091,0.1,0.00052461,5242.5,0.00052362,5213.9,-0.00016974,4.2908,-0.00017841,-60.912,0.082672
7497,2.4408,4.9091,0.1,0.00052125,5209,0.00051911,5148.2,-0.00016567,2.9634,-0.00018234,-122.27,0.072
7498,2.2565,4.9091,0.1,0.0005156,5152.4,0.00051185,5048.3,-0.00015971,2.5086,-0.00018725,-204.46,0.061678
7499,2.0723,4.9091,0.1,0.00050746,5071.1,0.00050139,4907.2,-0.0001514,2.3623,-0.00019368,-315.31,0.051697
7500,1.888,4.9091,0.1,0.00049706,4967.2,0.00048748,4718,-0.00014012,2.4629,-0.00020265,-467.38,0.042045
7501,1.7037,4.9091,0.1,0.00048542,4850.9,0.0004703,4476.4,-0.00012515,2.4045,-0.00021587,-679.24,0.032704
7502,1.5195,4.9091,0.1,0.00047496,4746.3,0.00045082,4184.7,-0.00010567,3.4976,-0.0002358,-974.28,0.023646
7503,1.3352,4.9091,0.1,0.00047121,4708.8,0.00043212,3861.1,-8.1816e-05,-0.3797,-0.00026606,-1384.7,0.014849
7504,1.1509,4.9091,0.1,0.00050401,5036.6,0.00043608,3682.3,-5.2282e-05,12.908,-0.00032816,-2060,0.0064053
7505,23.816,5.0909,0.1,1.3384e-05,133.75,7.5905e-06,39.726,2.2936e-06,-0.072604,-1.2257e-05,-109.4,2.9044
7506,23.631,5.0909,0.1,1.5317e-05,153.07,1.0966e-05,76.608,7.3569e-07,-0.25509,-1.2494e-05,-99.66,2.8733
7507,23.447,5.0909,0.1,1.7802e-05,177.9,1.4403e-05,113.81,-7.5637e-07,-0.088342,-1.288e-05,-91.178,2.8422
7508,23.263,5.0909,0.1,2.0659e-05,206.45,1.791e-05,151.25,-2.2304e-06,-0.076533,-1.3392e-05,-83.937,2.8111
7509,23.079,5.0909,0.1,2.3777e-05,237.61,2.1482e-05,189.01,-3.6802e-06,-0.049447,-1.4017e-05,-77.713,2.78
7510,22.894,5.0909,0.1,2.7082e-05,270.64,2.5116e-05,227.1,-5.1144e-06,-0.037308,-1.4737e-05,-72.341,2.7489
7511,22.71,5.0909,0.1,3.0524e-05,305.03,2.8805e-05,265.52,-6.5367e-06,-0.027528,-1.5537e-05,-67.655,2.7179
7512,22.526,5.0909,0.1,3.4069e-05,340.46,3.2541e-05,304.21,-7.9504e-06,-0.020918,-1.6402e-05,-63.524,2.6869
7513,22.342,5.0909,0.1,3.7694e-05,376.68,3.6317e-05,343.17,-9.3578e-06,-0.015979,-1.732e-05,-59.842,2.6558
7514,22.157,5.0909,0.1,4.1381e-05,413.52,4.0128e-05,382.35,-1.0761e-05,-0.012308,-1.8283e-05,-56.529,2.6249
7515,21.973,5.0909,0.1,4.512e-05,450.89,4.397e-05,421.73,-1.216e-05,-0.009505,-1.9283e-05,-53.525,2.5939
7516,21.789,5.0909,0.1,4.8902e-05,488.68,4.784e-05,461.31,-1.3557e-05,-0.0073377,-2.0315e-05,-50.781,2.563
7517,21.605,5.0909,0.1,5.2722e-05,526.86,5.1735e-05,501.07,-1.4953e-05,-0.0056543,-2.1376e-05,-48.262,2.5321
7518,21.42,5.0909,0.1,5.6576e-05,565.37,5.5654e-05,541,-1.6349e-05,-0.0043321,-2.2462e-05,-45.938,2.5012
7519,21.236,5.0909,0.1,6.046e-05,604.18,5.9596e-05,581.1,-1.7744e-05,-0.0032744,-2.3571e-05,-43.786,2.4704
7520,21.052,5.0909,0.1,6.4372e-05,643.28,6.3559e-05,621.36,-1.9139e-05,-0.0024253,-2.4701e-05,-41.787,2.4396
7521,20.867,5.0909,0.1,6.8311e-05,682.64,6.7544e-05,661.8,-2.0536e-05,-0.0017317,-2.585e-05,-39.927,2.4089
7522,20.683,5.0909,0.1,7.2275e-05,722.25,7.1549e-05,702.4,-2.1934e-05,-0.001175,-2.7017e-05,-38.193,2.3782
7523,20.499,5.0909,0.1,7.6263e-05,762.11,7.5575e-05,743.16,-2.3334e-05,-0.0007255,-2.8201e-05,-36.573,2.3475
7524,20.315,5.0909,0.1,8.0275e-05,802.2,7.9622e-05,784.1,-2.4735e-05,-0.00035092,-2.9401e-05,-35.058,2.3169
7525,20.13,5.0909,0.1,8.4311e-05,842.52,8.3688e-05,825.2,-2.614e-05,-3.8366e-05,-3.0617e-05,-33.639,2.2864
7526,19.946,5.0909,0.1,8.8369e-05,883.08,8.7774e-05,866.48,-2.7546e-05,0.00023391,-3.1847e-05,-32.31,2.2559
7527,19.762,5.0909,0.1,9.2449e-05,923.85,9.1881e-05,907.93,-2.8956e-05,0.00045456,-3.3091e-05,-31.064,2.2254
7528,19.578,5.0909,0.1,9.6551e-05,964.85,9.6008e-05,949.55,-3.037e-05,0.00062642,-3.4348e-05,-29.895,2.1951
7529,19.393,5.0909,0.1,0.00010068,1006.1,0.00010015,991.36,-3.1786e-05,0.00078291,-3.5619e-05,-28.797,2.1648
7530,19.209,5.0909,0.1,0.00010482,1047.5,0.00010432,1033.3,-3.3207e-05,0.00091525,-3.6902e-05,-27.765,2.1345
7531,19.025,5.0909,0.1,0.00010899,1089.1,0.00010851,1075.5,-3.4631e-05,0.001043,-3.8197e-05,-26.795,2.1044
7532,18.841,5.0909,0.1,0.00011318,1131,0.00011272,1117.9,-3.606e-05,0.00114,-3.9505e-05,-25.882,2.0743
7533,18.656,5.0909,0.1,0.00011739,1173.1,0.00011694,1160.4,-3.7493e-05,0.0012105,-4.0823e-05,-25.022,2.0442
7534,18.472,5.0909,0.1,0.00012162,1215.4,0.00012119,1203.1,-3.893e-05,0.0012831,-4.2153e-05,-24.212,2.0143
7535,18.288,5.0909,0.1,0.00012588,1257.9,0.00012546,1246,-4.0372e-05,0.0013458,-4.3493e-05,-23.447,1.9844
7536,18.103,5.0909,0.1,0.00013015,1300.6,0.00012975,1289.1,-4.1819e-05,0.0014184,-4.4844e-05,-22.724,1.9546
7537,17.919,5.0909,0.1,0.00013445,1343.6,0.00013406,1332.4,-4.3271e-05,0.0014671,-4.6205e-05,-22.041,1.925
7538,17.735,5.0909,0.1,0.00013877,1386.7,0.00013839,1375.9,-4.4729e-05,0.0014916,-4.7576e-05,-21.394,1.8954
7539,17.551,5.0909,0.1,0.0001431,1430,0.00014274,1419.5,-4.6191e-05,0.0015262,-4.8957e-05,-20.78,1.8659
7540,17.366,5.0909,0.1,0.00014746,1473.6,0.00014711,1463.4,-4.7659e-05,0.0015614,-5.0347e-05,-20.196,1.8364
7541,17.182,5.0909,0.1,0.00015184,1517.4,0.0001515,1507.5,-4.9132e-05,0.0016088,-5.1746e-05,-19.641,1.8071
7542,16.998,5.0909,0.1,0.00015624,1561.4,0.00015591,1551.7,-5.0611e-05,0.0016341,-5.3155e-05,-19.11,1.7779
7543,16.814,5.0909,0.1,0.00016067,1605.6,0.00016034,1596.2,-5.2096e-05,0.0016353,-5.4572e-05,-18.603,1.7488
7544,16.629,5.0909,0.1,0.00016511,1650,0.00016479,1640.8,-5.3586e-05,0.001654,-5.5997e-05,-18.116,1.7198
7545,16.445,5.0909,0.1,0.00016957,1694.6,0.00016927,1685.7,-5.5082e-05,0.0016707,-5.7431e-05,-17.648,1.6909
7546,16.261,5.0909,0.1,0.00017406,1739.4,0.00017376,1730.7,-5.6584e-05,0.0017079,-5.8873e-05,-17.197,1.6622
7547,16.077,5.0909,0.1,0.00017856,1784.4,0.00017827,1775.9,-5.8093e-05,0.0017203,-6.0323e-05,-16.759,1.6335
7548,15.892,5.0909,0.1,0.00018309,1829.6,0.0001828,1821.4,-5.9607e-05,0.0017077,-6.1781e-05,-16.334,1.605
7549,15.708,5.0909,0.1,0.00018763,1875,0.00018735,1867,-6.1128e-05,0.0017145,-6.3247e-05,-15.919,1.5766
7550,15.524,5.0909,0.1,0.0001922,1920.6,0.00019193,1912.8,-6.2655e-05,0.001724,-6.4719e-05,-15.513,1.5483
7551,15.339,5.0909,0.1,0.00019678,1966.5,0.00019652,1958.9,-6.4188e-05,0.0017539,-6.6199e-05,-15.113,1.5201
7552,15.155,5.0909,0.1,0.00020139,2012.5,0.00020113,2005.1,-6.5728e-05,0.0017594,-6.7686e-05,-14.717,1.4921
7553,14.971,5.0909,0.1,0.00020601,2058.7,0.00020577,2051.5,-6.7274e-05,0.0017363,-6.918e-05,-14.324,1.4642
7554,14.787,5.0909,0.1,0.00021066,2105.1,0.00021042,2098.1,-6.8826e-05,0.0017355,-7.0681e-05,-13.932,1.4365
7555,14.602,5.0909,0.1,0.00021533,2151.8,0.00021509,2145,-7.0386e-05,0.0017397,-7.2188e-05,-13.539,1.4089
7556,14.418,5.0909,0.1,0.00022001,2198.6,0.00021979,2192,-7.1952e-05,0.0017676,-7.3701e-05,-13.143,1.3814
7557,14.234,5.0909,0.1,0.00022472,2245.6,0.0002245,2239.2,-7.3525e-05,0.0017679,-7.5221e-05,-12.742,1.3541
7558,14.05,5.0909,0.1,0.00022944,2292.8,0.00022923,2286.7,-7.5104e-05,0.0017399,-7.6746e-05,-12.333,1.3269
7559,13.865,5.0909,0.1,0.00023419,2340.3,0.00023398,2334.3,-7.6691e-05,0.0017359,-7.8277e-05,-11.916,1.2999
7560,13.681,5.0909,0.1,0.00023895,2387.9,0.00023876,2382.1,-7.8285e-05,0.0017401,-7.9814e-05,-11.487,1.2731
7561,13.497,5.0909,0.1,0.00024374,2435.7,0.00024355,2430.1,-7.9885e-05,0.0017723,-8.1355e-05,-11.045,1.2464
7562,13.313,5.0909,0.1,0.00024854,2483.7,0.00024836,2478.4,-8.1493e-05,0.0017768,-8.2902e-05,-10.587,1.2199
7563,13.128,5.0909,0.1,0.00025336,2531.9,0.00025319,2526.8,-8.3108e-05,0.0017527,-8.4454e-05,-10.11,1.1935
7564,12.944,5.0909,0.1,0.0002582,2580.3,0.00025804,2575.4,-8.4731e-05,0.001761,-8.601e-05,-9.6128,1.1673
7565,12.76,5.0909,0.1,0.00026306,2628.8,0.00026291,2624.3,-8.636e-05,0.0017829,-8.7571e-05,-9.0919,1.1413
7566,12.575,5.0909,0.1,0.00026794,2677.6,0.0002678,2673.3,-8.7998e-05,0.0018468,-8.9135e-05,-8.5445,1.1155
7567,12.391,5.0909,0.1,0.00027284,2726.5,0.00027271,2722.6,-8.9643e-05,0.001891,-9.0704e-05,-7.9678,1.0899
7568,12.207,5.0909,0.1,0.00027776,2775.7,0.00027763,2772,-9.1296e-05,0.0019221,-9.2275e-05,-7.3585,1.0644
7569,12.023,5.0909,0.1,0.0002827,2825,0.00028258,2821.6,-9.2956e-05,0.0020166,-9.385e-05,-6.7131,1.0391
7570,11.838,5.0909,0.1,0.00028765,2874.5,0.00028755,2871.5,-9.4625e-05,0.0021664,-9.5428e-05,-6.0281,1.0141
7571,11.654,5.0909,0.1,0.00029262,2924.2,0.00029253,2921.5,-9.6302e-05,0.0024293,-9.7008e-05,-5.2997,0.98916
7572,11.47,5.0909,0.1,0.00029761,2974.1,0.00029753,2971.8,-9.7987e-05,0.002788,-9.859e-05,-4.5238,0.96448
7573,11.286,5.0909,0.1,0.00030262,3024.1,0.00030256,3022.2,-9.9681e-05,0.0033521,-0.00010017,-3.6963,0.93999
7574,11.101,5.0909,0.1,0.00030764,3074.3,0.0003076,3072.9,-0.00010138,0.0044679,-0.00010176,-2.8126,0.9157
7575,10.917,5.0909,0.1,0.00031269,3124.7,0.00031266,3123.8,-0.00010309,0.0069895,-0.00010334,-1.8689,0.89163
7576,10.733,5.0909,0.1,0.00031775,3175.3,0.00031773,3174.9,-0.00010481,0.016135,-0.00010493,-0.86468,0.86777
7577,10.549,5.0909,0.1,0.00032282,3226,0.00032283,3226.1,-0.00010651,0.28963,-0.00010655,-0.052544,0.84412
7578,10.364,5.0909,0.1,0.00032792,3276.9,0.00032794,3277.6,-0.00010809,1.4131,-0.00010828,-0.012099,0.82069
7579,10.18,5.0909,0.1,0.00033303,3328,0.00033307,3329.3,-0.00010968,2.6572,-0.00011003,-0.0073863,0.79748
7580,9.9957,5.0909,0.1,0.00033816,3379.2,0.00033822,3381.2,-0.00011126,3.9956,-0.00011179,-0.005759,0.7745
7581,9.8115,5.0909,0.1,0.0003433,3430.6,0.00034339,3433.3,-0.00011283,5.4333,-0.00011356,-0.0050471,0.75175
7582,9.6272,5.0909,0.1,0.00034846,3482.2,0.00034858,3485.6,-0.00011441,6.9771,-0.00011534,-0.0047339,0.72923
7583,9.4429,5.0909,0.1,0.00035363,3533.9,0.00035378,3538.2,-0.00011598,8.6344,-0.00011713,-0.0046563,0.70695
7584,9.2587,5.0909,0.1,0.00035882,3585.7,0.000359,3590.9,-0.00011754,10.413,-0.00011893,-0.0047239,0.68491
7585,9.0744,5.0909,0.1,0.00036402,3637.7,0.00036423,3643.9,-0.0001191,12.322,-0.00012074,-0.0049033,0.66311
7586,8.8901,5.0909,0.1,0.00036924,3689.9,0.00036949,3697.1,-0.00012065,14.368,-0.00012256,-0.0051747,0.64156
7587,8.7059,5.0909,0.1,0.00037448,3742.2,0.00037476,3750.4,-0.00012219,16.56,-0.0001244,-0.0055296,0.62026
7588,8.5216,5.0909,0.1,0.00037972,3794.6,0.00038004,3804,-0.00012373,18.907,-0.00012624,-0.0059653,0.59921
7589,8.3373,5.0909,0.1,0.00038499,3847.2,0.00038534,3857.9,-0.00012525,21.417,-0.00012811,-0.0064845,0.57842
7590,8.1531,5.0909,0.1,0.00039026,3899.9,0.00039066,3911.9,-0.00012677,24.096,-0.00012998,-0.0070918,0.55789
7591,7.9688,5.0909,0.1,0.00039555,3952.7,0.000396,3966.1,-0.00012828,26.952,-0.00013186,-0.0077965,0.53763
7592,7.7845,5.0909,0.1,0.00040085,4005.7,0.00040135,4020.6,-0.00012977,29.991,-0.00013376,-0.0086107,0.51763
7593,7.6003,5.0909,0.1,0.00040616,4058.8,0.00040671,4075.3,-0.00013125,33.215,-0.00013568,-0.0095495,0.49791
7594,7.416,5.0909,0.1,0.00041148,4112,0.00041209,4130.2,-0.00013272,36.626,-0.0001376,-0.010633,0.47847
7595,7.2317,5.0909,0.1,0.00041682,4165.3,0.00041749,4185.3,-0.00013418,40.224,-0.00013954,-0.011886,0.4593
7596,7.0475,5.0909,0.1,0.00042216,4218.7,0.0004229,4240.6,-0.00013563,44.002,-0.00014149,-0.013341,0.44042
7597,6.8632,5.0909,0.1,0.00042752,4272.3,0.00042832,4296,-0.00013707,47.95,-0.00014345,-0.015035,0.42182
7598,6.6789,5.0909,0.1,0.00043289,4325.9,0.00043375,4351.7,-0.00013849,52.052,-0.00014542,-0.017019,0.40351
7599,6.4947,5.0909,0.1,0.00043826,4379.6,0.00043919,4407.4,-0.00013991,56.283,-0.00014741,-0.019355,0.3855
7600,6.3104,5.0909,0.1,0.00044364,4433.4,0.00044464,4463.3,-0.00014133,60.609,-0.0001494,-0.022122,0.36779
7601,6.1261,5.0909,0.1,0.00044903,4487.2,0.0004501,4519.3,-0.00014274,64.983,-0.00015139,-0.025424,0.35038
7602,5.9419,5.0909,0.1,0.00045441,4541,0.00045555,4575.2,-0.00014415,69.346,-0.00015338,-0.029393,0.33328
7603,5.7576,5.0909,0.1,0.00045979,4594.8,0.000461,4631.1,-0.00014556,73.619,-0.00015537,-0.034207,0.31648
7604,5.5733,5.0909,0.1,0.00046516,4648.4,0.00046644,4686.8,-0.00014699,77.704,-0.00015734,-0.040103,0.3
7605,5.3891,5.0909,0.1,0.00047052,4701.9,0.00047185,4742.1,-0.00014844,81.478,-0.00015929,-0.047407,0.28383
7606,5.2048,5.0909,0.1,0.00047584,4755.1,0.00047722,4796.9,-0.00014992,84.789,-0.00016121,-0.056575,0.26798
7607,5.0205,5.0909,0.1,0.00048111,4807.8,0.00048254,4850.9,-0.00015144,87.453,-0.00016309,-0.068263,0.25246
7608,4.8363,5.0909,0.1,0.00048632,4859.8,0.00048777,4903.8,-0.000153,89.249,-0.00016489,-0.083445,0.23727
7609,4.652,5.0909,0.1,0.00049142,4910.8,0.00049288,4955.1,-0.00015463,89.915,-0.00016661,-0.10362,0.22241
7610,4.4677,5.0909,0.1,0.00049637,4960.3,0.00049783,5004.2,-0.00015633,89.144,-0.00016821,-0.13121,0.20788
7611,4.2835,5.0909,0.1,0.00050113,5007.8,0.00050254,5050.5,-0.00015811,86.579,-0.00016966,-0.17031,0.19369
7612,4.0992,5.0909,0.1,0.0005056,5052.6,0.00050694,5092.8,-0.00015999,81.818,-0.0001709,-0.22837,0.17984
7613,3.9149,5.0909,0.1,0.0005097,5093.5,0.00051092,5130.1,-0.00016195,74.408,-0.0001719,-0.32023,0.16634
7614,3.7307,5.0909,0.1,0.00051328,5129.3,0.00051433,5160.7,-0.00016401,63.863,-0.00017258,-0.47949,0.15318
7615,3.5464,5.0909,0.1,0.00051618,5158.3,0.000517,5182.5,-0.00016614,49.701,-0.00017286,-0.79912,0.14037
7616,3.3621,5.0909,0.1,0.00051817,5178.1,0.00051867,5193.1,-0.00016827,31.656,-0.0001727,-1.6448,0.12792
7617,3.1779,5.0909,0.1,0.00051897,5186.1,0.00051907,5189.1,-0.00016998,11.849,-0.00017233,-5.832,0.11581
7618,2.9936,5.0909,0.1,0.00051821,5178.5,0.00051779,5166.5,-0.00016937,3.4088,-0.00017345,-27.269,0.10406
7619,2.8093,5.0909,0.1,0.00051545,5151,0.00051439,5120.4,-0.00016682,2.0287,-0.00017542,-62.558,0.09266
7620,2.6251,5.0909,0.1,0.00051018,5098.3,0.00050831,5044.9,-0.0001629,1.6494,-0.00017733,-106.78,0.081609
7621,2.4408,5.0909,0.1,0.00050178,5014.3,0.00049887,4932.8,-0.00015743,1.5471,-0.00017903,-160.78,0.070902
7622,2.2565,5.0909,0.1,0.00048962,4892.9,0.00048539,4776.3,-0.00015008,1.5828,-0.00018047,-226.79,0.060531
7623,2.0723,5.0909,0.1,0.00047319,4728.6,0.0004672,4567.5,-0.00014047,1.7004,-0.00018177,-308.65,0.050484
7624,1.888,5.0909,0.1,0.00045233,4520.2,0.00044391,4300.4,-0.00012818,1.9404,-0.0001834,-412.99,0.040745
7625,1.7037,5.0909,0.1,0.00042794,4276.5,0.0004159,3974.9,-0.00011285,2.0476,-0.00018651,-551.42,0.03129
7626,1.5195,5.0909,0.1,0.00040292,4026.4,0.00038512,3604.4,-9.4215e-05,2.8182,-0.00019345,-742.78,0.022093
7627,1.3352,5.0909,0.1,0.00038437,3841,0.0003566,3226.1,-7.2736e-05,0.17716,-0.0002089,-1022.9,0.01314
7628,1.1509,5.0909,0.1,0.0004,3997.3,0.00035114,3006.8,-4.771e-05,10.03,-0.0002529,-1531.7,0.0046876
7629,23.816,5.2727,0.1,1.1952e-05,119.44,7.0769e-06,39.456,1.823e-06,-0.020101,-1.0781e-05,-94.722,2.9042
7630,23.631,5.2727,0.1,1.3973e-05,139.63,1.0406e-05,75.724,2.9819e-07,-0.22011,-1.1041e-05,-85.421,2.8731
7631,23.447,5.2727,0.1,1.6588e-05,165.76,1.3835e-05,112.57,-1.1552e-06,-0.061638,-1.1498e-05,-77.774,2.842
7632,23.263,5.2727,0.1,1.9588e-05,195.75,1.7363e-05,149.88,-2.5911e-06,-0.052758,-1.211e-05,-71.574,2.8109
7633,23.079,5.2727,0.1,2.2844e-05,228.28,2.0976e-05,187.68,-4.006e-06,-0.028224,-1.2846e-05,-66.451,2.7799
7634,22.894,5.2727,0.1,2.6274e-05,262.56,2.4659e-05,225.9,-5.4093e-06,-0.018164,-1.3679e-05,-62.15,2.7488
7635,22.71,5.2727,0.1,2.9825e-05,298.05,2.8397e-05,264.48,-6.8045e-06,-0.010192,-1.4584e-05,-58.46,2.7177
7636,22.526,5.2727,0.1,3.3465e-05,334.42,3.2182e-05,303.36,-8.1944e-06,-0.0051688,-1.5545e-05,-55.236,2.6867
7637,22.342,5.2727,0.1,3.7172e-05,371.46,3.6003e-05,342.5,-9.5809e-06,-0.0016329,-1.6551e-05,-52.372,2.6557
7638,22.157,5.2727,0.1,4.0931e-05,409.02,3.9855e-05,381.85,-1.0965e-05,0.00080572,-1.7593e-05,-49.794,2.6247
7639,21.973,5.2727,0.1,4.4732e-05,447.01,4.3735e-05,421.39,-1.2348e-05,0.0025154,-1.8664e-05,-47.449,2.5937
7640,21.789,5.2727,0.1,4.8569e-05,485.36,4.764e-05,461.12,-1.3731e-05,0.0037161,-1.976e-05,-45.298,2.5628
7641,21.605,5.2727,0.1,5.2437e-05,524.01,5.1566e-05,501.01,-1.5114e-05,0.0045418,-2.0879e-05,-43.312,2.5319
7642,21.42,5.2727,0.1,5.6334e-05,562.95,5.5514e-05,541.07,-1.6498e-05,0.0051009,-2.2018e-05,-41.468,2.501
7643,21.236,5.2727,0.1,6.0256e-05,602.14,5.9481e-05,581.28,-1.7882e-05,0.005475,-2.3174e-05,-39.751,2.4702
7644,21.052,5.2727,0.1,6.4202e-05,641.57,6.3468e-05,621.65,-1.9268e-05,0.0057124,-2.4346e-05,-38.146,2.4394
7645,20.867,5.2727,0.1,6.8171e-05,681.24,6.7473e-05,662.18,-2.0656e-05,0.0058537,-2.5534e-05,-36.643,2.4087
7646,20.683,5.2727,0.1,7.2162e-05,721.12,7.1498e-05,702.86,-2.2046e-05,0.0059168,-2.6736e-05,-35.233,2.3779
7647,20.499,5.2727,0.1,7.6175e-05,761.22,7.5541e-05,743.7,-2.3439e-05,0.0059115,-2.7952e-05,-33.907,2.3473
7648,20.315,5.2727,0.1,8.0208e-05,801.53,7.9603e-05,784.7,-2.4834e-05,0.005881,-2.9182e-05,-32.66,2.3167
7649,20.13,5.2727,0.1,8.4263e-05,842.05,8.3683e-05,825.87,-2.6232e-05,0.0058219,-3.0423e-05,-31.485,2.2861
7650,19.946,5.2727,0.1,8.8339e-05,882.78,8.7783e-05,867.2,-2.7634e-05,0.0057525,-3.1677e-05,-30.378,2.2556
7651,19.762,5.2727,0.1,9.2435e-05,923.71,9.1901e-05,908.7,-2.9038e-05,0.0056626,-3.2943e-05,-29.334,2.2252
7652,19.578,5.2727,0.1,9.6552e-05,964.85,9.6038e-05,950.36,-3.0447e-05,0.0055506,-3.4221e-05,-28.35,2.1948
7653,19.393,5.2727,0.1,0.00010069,1006.2,0.00010019,992.21,-3.1859e-05,0.0054446,-3.5509e-05,-27.42,2.1645
7654,19.209,5.2727,0.1,0.00010485,1047.7,0.00010437,1034.2,-3.3276e-05,0.0053408,-3.6809e-05,-26.542,2.1342
7655,19.025,5.2727,0.1,0.00010902,1089.5,0.00010856,1076.4,-3.4697e-05,0.0052465,-3.8119e-05,-25.711,2.104
7656,18.841,5.2727,0.1,0.00011322,1131.5,0.00011278,1118.8,-3.6122e-05,0.0051421,-3.944e-05,-24.926,2.0739
7657,18.656,5.2727,0.1,0.00011744,1173.6,0.00011701,1161.3,-3.7552e-05,0.0050229,-4.0771e-05,-24.183,2.0439
7658,18.472,5.2727,0.1,0.00012168,1216,0.00012127,1204.1,-3.8986e-05,0.0049214,-4.2112e-05,-23.48,2.014
7659,18.288,5.2727,0.1,0.00012594,1258.6,0.00012554,1247,-4.0426e-05,0.0048256,-4.3463e-05,-22.812,1.9841
7660,18.103,5.2727,0.1,0.00013022,1301.3,0.00012983,1290.1,-4.187e-05,0.0047481,-4.4823e-05,-22.179,1.9543
7661,17.919,5.2727,0.1,0.00013453,1344.3,0.00013415,1333.4,-4.332e-05,0.0046576,-4.6193e-05,-21.578,1.9246
7662,17.735,5.2727,0.1,0.00013885,1387.5,0.00013848,1376.9,-4.4775e-05,0.0045549,-4.7571e-05,-21.006,1.895
7663,17.551,5.2727,0.1,0.00014319,1430.9,0.00014283,1420.6,-4.6236e-05,0.0044693,-4.8959e-05,-20.461,1.8655
7664,17.366,5.2727,0.1,0.00014755,1474.5,0.00014721,1464.5,-4.7702e-05,0.0043905,-5.0356e-05,-19.941,1.836
7665,17.182,5.2727,0.1,0.00015194,1518.3,0.0001516,1508.5,-4.9173e-05,0.0043329,-5.1761e-05,-19.444,1.8067
7666,16.998,5.2727,0.1,0.00015634,1562.3,0.00015601,1552.8,-5.065e-05,0.0042609,-5.3175e-05,-18.968,1.7775
7667,16.814,5.2727,0.1,0.00016077,1606.6,0.00016044,1597.2,-5.2133e-05,0.0041691,-5.4597e-05,-18.511,1.7484
7668,16.629,5.2727,0.1,0.00016521,1651,0.0001649,1641.9,-5.3622e-05,0.0040985,-5.6028e-05,-18.071,1.7194
7669,16.445,5.2727,0.1,0.00016968,1695.6,0.00016937,1686.7,-5.5117e-05,0.0040336,-5.7466e-05,-17.648,1.6905
7670,16.261,5.2727,0.1,0.00017416,1740.4,0.00017386,1731.8,-5.6618e-05,0.0039911,-5.8913e-05,-17.238,1.6617
7671,16.077,5.2727,0.1,0.00017867,1785.5,0.00017838,1777,-5.8125e-05,0.0039282,-6.0367e-05,-16.84,1.633
7672,15.892,5.2727,0.1,0.0001832,1830.7,0.00018291,1822.4,-5.9638e-05,0.0038428,-6.1828e-05,-16.453,1.6045
7673,15.708,5.2727,0.1,0.00018774,1876.1,0.00018747,1868.1,-6.1157e-05,0.0037793,-6.3297e-05,-16.074,1.5761
7674,15.524,5.2727,0.1,0.00019231,1921.8,0.00019204,1913.9,-6.2683e-05,0.0037206,-6.4774e-05,-15.703,1.5478
7675,15.339,5.2727,0.1,0.0001969,1967.6,0.00019663,1959.9,-6.4215e-05,0.0036863,-6.6257e-05,-15.338,1.5196
7676,15.155,5.2727,0.1,0.00020151,2013.7,0.00020125,2006.2,-6.5754e-05,0.0036261,-6.7748e-05,-14.977,1.4916
7677,14.971,5.2727,0.1,0.00020613,2059.9,0.00020588,2052.6,-6.7299e-05,0.00354,-6.9245e-05,-14.619,1.4637
7678,14.787,5.2727,0.1,0.00021078,2106.4,0.00021054,2099.2,-6.885e-05,0.0034752,-7.0749e-05,-14.262,1.4359
7679,14.602,5.2727,0.1,0.00021545,2153,0.00021521,2146,-7.0409e-05,0.0034151,-7.226e-05,-13.905,1.4083
7680,14.418,5.2727,0.1,0.00022014,2199.9,0.0002199,2193.1,-7.1973e-05,0.0033798,-7.3777e-05,-13.545,1.3808
7681,14.234,5.2727,0.1,0.00022485,2246.9,0.00022462,2240.3,-7.3545e-05,0.0033141,-7.53e-05,-13.182,1.3535
7682,14.05,5.2727,0.1,0.00022957,2294.2,0.00022935,2287.7,-7.5124e-05,0.0032184,-7.6829e-05,-12.814,1.3263
7683,13.865,5.2727,0.1,0.00023432,2341.6,0.00023411,2335.4,-7.6709e-05,0.0031455,-7.8365e-05,-12.438,1.2993
7684,13.681,5.2727,0.1,0.00023909,2389.2,0.00023888,2383.2,-7.8301e-05,0.0030754,-7.9906e-05,-12.054,1.2725
7685,13.497,5.2727,0.1,0.00024388,2437.1,0.00024368,2431.2,-7.9901e-05,0.0030325,-8.1453e-05,-11.658,1.2458
7686,13.313,5.2727,0.1,0.00024868,2485.1,0.00024849,2479.5,-8.1507e-05,0.0029543,-8.3005e-05,-11.25,1.2192
7687,13.128,5.2727,0.1,0.00025351,2533.3,0.00025332,2527.9,-8.3121e-05,0.0028418,-8.4562e-05,-10.828,1.1929
7688,12.944,5.2727,0.1,0.00025835,2581.8,0.00025818,2576.5,-8.4741e-05,0.0027542,-8.6124e-05,-10.388,1.1667
7689,12.76,5.2727,0.1,0.00026322,2630.4,0.00026305,2625.4,-8.637e-05,0.0026712,-8.7692e-05,-9.9292,1.1407
7690,12.575,5.2727,0.1,0.0002681,2679.2,0.00026794,2674.4,-8.8005e-05,0.0026158,-8.9263e-05,-9.449,1.1148
7691,12.391,5.2727,0.1,0.00027301,2728.2,0.00027285,2723.7,-8.9649e-05,0.0025257,-9.0839e-05,-8.9448,1.0892
7692,12.207,5.2727,0.1,0.00027793,2777.4,0.00027779,2773.2,-9.1299e-05,0.0024004,-9.242e-05,-8.4141,1.0637
7693,12.023,5.2727,0.1,0.00028287,2826.8,0.00028274,2822.8,-9.2958e-05,0.0023069,-9.4004e-05,-7.8538,1.0384
7694,11.838,5.2727,0.1,0.00028783,2876.3,0.00028771,2872.7,-9.4624e-05,0.0022261,-9.5591e-05,-7.2612,1.0133
7695,11.654,5.2727,0.1,0.00029281,2926.1,0.0002927,2922.8,-9.6299e-05,0.0021904,-9.7182e-05,-6.6328,0.9884
7696,11.47,5.2727,0.1,0.00029781,2976,0.00029771,2973.1,-9.7981e-05,0.0021388,-9.8776e-05,-5.9655,0.9637
7697,11.286,5.2727,0.1,0.00030283,3026.2,0.00030274,3023.5,-9.9672e-05,0.002085,-0.00010037,-5.2558,0.9392
7698,11.101,5.2727,0.1,0.00030786,3076.5,0.00030778,3074.2,-0.00010137,0.0021361,-0.00010197,-4.4996,0.91491
7699,10.917,5.2727,0.1,0.00031292,3127,0.00031285,3125.1,-0.00010308,0.0023303,-0.00010357,-3.6932,0.89082
7700,10.733,5.2727,0.1,0.00031799,3177.7,0.00031794,3176.3,-0.0001048,0.0028586,-0.00010517,-2.8321,0.86694
7701,10.549,5.2727,0.1,0.00032308,3228.5,0.00032304,3227.6,-0.00010652,0.0041459,-0.00010678,-1.9126,0.84328
7702,10.364,5.2727,0.1,0.00032819,3279.6,0.00032817,3279.1,-0.00010825,0.0089536,-0.00010838,-0.93253,0.81984
7703,10.18,5.2727,0.1,0.00033331,3330.8,0.00033331,3330.9,-0.00010997,0.18325,-0.00011001,-0.052493,0.79663
7704,9.9957,5.2727,0.1,0.00033846,3382.2,0.00033848,3382.8,-0.00011158,1.2689,-0.00011175,-0.0093276,0.77363
7705,9.8115,5.2727,0.1,0.00034362,3433.8,0.00034366,3435,-0.00011319,2.4749,-0.00011352,-0.0061554,0.75087
7706,9.6272,5.2727,0.1,0.00034879,3485.5,0.00034886,3487.4,-0.00011479,3.7693,-0.00011529,-0.0053173,0.72834
7707,9.4429,5.2727,0.1,0.00035399,3537.5,0.00035408,3540,-0.00011639,5.1565,-0.00011707,-0.0051634,0.70605
7708,9.2587,5.2727,0.1,0.0003592,3589.6,0.00035932,3592.9,-0.00011798,6.6424,-0.00011887,-0.0053177,0.68399
7709,9.0744,5.2727,0.1,0.00036443,3641.8,0.00036457,3645.9,-0.00011957,8.233,-0.00012067,-0.0056592,0.66218
7710,8.8901,5.2727,0.1,0.00036968,3694.2,0.00036985,3699.2,-0.00012116,9.9348,-0.00012249,-0.0061361,0.64062
7711,8.7059,5.2727,0.1,0.00037494,3746.8,0.00037514,3752.7,-0.00012275,11.754,-0.00012431,-0.0067273,0.61931
7712,8.5216,5.2727,0.1,0.00038022,3799.6,0.00038045,3806.4,-0.00012433,13.696,-0.00012615,-0.0074227,0.59825
7713,8.3373,5.2727,0.1,0.00038552,3852.5,0.00038578,3860.4,-0.0001259,15.768,-0.000128,-0.0082222,0.57745
7714,8.1531,5.2727,0.1,0.00039083,3905.6,0.00039113,3914.5,-0.00012747,17.973,-0.00012986,-0.0091301,0.55691
7715,7.9688,5.2727,0.1,0.00039615,3958.8,0.00039649,3968.9,-0.00012903,20.316,-0.00013174,-0.010153,0.53664
7716,7.7845,5.2727,0.1,0.00040149,4012.2,0.00040188,4023.5,-0.00013059,22.799,-0.00013362,-0.011303,0.51663
7717,7.6003,5.2727,0.1,0.00040685,4065.7,0.00040728,4078.4,-0.00013213,25.424,-0.00013552,-0.012593,0.4969
7718,7.416,5.2727,0.1,0.00041222,4119.4,0.00041269,4133.4,-0.00013368,28.188,-0.00013743,-0.014043,0.47745
7719,7.2317,5.2727,0.1,0.00041761,4173.2,0.00041813,4188.6,-0.00013521,31.087,-0.00013935,-0.015674,0.45827
7720,7.0475,5.2727,0.1,0.00042301,4227.1,0.00042357,4244.1,-0.00013674,34.113,-0.00014128,-0.017514,0.43938
7721,6.8632,5.2727,0.1,0.00042841,4281.2,0.00042904,4299.7,-0.00013826,37.251,-0.00014322,-0.019598,0.42077
7722,6.6789,5.2727,0.1,0.00043383,4335.4,0.00043451,4355.4,-0.00013978,40.483,-0.00014517,-0.021966,0.40246
7723,6.4947,5.2727,0.1,0.00043926,4389.6,0.00043999,4411.3,-0.00014129,43.779,-0.00014712,-0.024673,0.38444
7724,6.3104,5.2727,0.1,0.0004447,4443.9,0.00044548,4467.2,-0.00014281,47.105,-0.00014908,-0.027785,0.36672
7725,6.1261,5.2727,0.1,0.00045013,4498.2,0.00045097,4523.2,-0.00014432,50.409,-0.00015104,-0.031388,0.34931
7726,5.9419,5.2727,0.1,0.00045556,4552.5,0.00045645,4579,-0.00014584,53.631,-0.00015299,-0.035595,0.3322
7727,5.7576,5.2727,0.1,0.00046098,4606.6,0.00046192,4634.7,-0.00014738,56.691,-0.00015493,-0.040553,0.3154
7728,5.5733,5.2727,0.1,0.00046638,4660.6,0.00046736,4690,-0.00014892,59.489,-0.00015685,-0.046465,0.29891
7729,5.3891,5.2727,0.1,0.00047174,4714.2,0.00047276,4744.8,-0.00015049,61.904,-0.00015874,-0.053615,0.28274
7730,5.2048,5.2727,0.1,0.00047705,4767.2,0.0004781,4798.7,-0.00015208,63.786,-0.00016058,-0.06241,0.26689
7731,5.0205,5.2727,0.1,0.00048228,4819.5,0.00048335,4851.6,-0.00015371,64.957,-0.00016237,-0.073459,0.25137
7732,4.8363,5.2727,0.1,0.0004874,4870.6,0.00048847,4902.8,-0.00015538,65.203,-0.00016407,-0.087714,0.23617
7733,4.652,5.2727,0.1,0.00049236,4920.2,0.00049342,4952,-0.00015709,64.273,-0.00016566,-0.10674,0.22131
7734,4.4677,5.2727,0.1,0.00049711,4967.6,0.00049813,4998.2,-0.00015886,61.879,-0.00016711,-0.13327,0.20678
7735,4.2835,5.2727,0.1,0.00050156,5012.1,0.00050251,5040.7,-0.00016068,57.691,-0.00016838,-0.17247,0.19259
7736,4.0992,5.2727,0.1,0.00050562,5052.7,0.00050647,5078.1,-0.00016255,51.345,-0.00016941,-0.23529,0.17874
7737,3.9149,5.2727,0.1,0.00050915,5088,0.00050985,5108.9,-0.00016445,42.458,-0.00017015,-0.34873,0.16523
7738,3.7307,5.2727,0.1,0.00051198,5116.2,0.00051248,5131.2,-0.00016636,30.675,-0.00017052,-0.59938,0.15207
7739,3.5464,5.2727,0.1,0.00051388,5135.3,0.00051413,5142.5,-0.00016817,16.005,-0.00017049,-1.4514,0.13926
7740,3.3621,5.2727,0.1,0.00051457,5142.2,0.00051449,5139.7,-0.00016909,3.5478,-0.00017069,-8.4524,0.1268
7741,3.1779,5.2727,0.1,0.00051369,5133.4,0.00051319,5118.9,-0.00016792,1.321,-0.00017209,-30.034,0.11469
7742,2.9936,5.2727,0.1,0.00051078,5104.3,0.00050978,5075.4,-0.00016559,0.92681,-0.00017345,-58.143,0.10292
7743,2.8093,5.2727,0.1,0.00050529,5049.4,0.00050368,5003.4,-0.00016212,0.82086,-0.00017441,-91.471,0.091507
7744,2.6251,5.2727,0.1,0.00049654,4962,0.00049421,4896.1,-0.00015731,0.82388,-0.00017471,-129.94,0.080431
7745,2.4408,5.2727,0.1,0.00048376,4834.2,0.00048058,4745.6,-0.00015089,0.8955,-0.0001741,-173.51,0.069689
7746,2.2565,5.2727,0.1,0.00046611,4657.9,0.00046195,4543.3,-0.00014259,1.0313,-0.0001723,-222.22,0.059272
7747,2.0723,5.2727,0.1,0.00044285,4425.4,0.00043751,4281.2,-0.00013212,1.2247,-0.0001691,-276.6,0.049164
7748,1.888,5.2727,0.1,0.0004136,4133.1,0.0004068,3953.9,-0.00011922,1.5286,-0.00016453,-338.92,0.039346
7749,1.7037,5.2727,0.1,0.00037907,3788.1,0.00037029,3563.7,-0.00010377,1.778,-0.00015936,-415.9,0.029794
7750,1.5195,5.2727,0.1,0.00034228,3420.4,0.00033036,3129.4,-8.5774e-05,2.7445,-0.00015584,-523.67,0.020481
7751,1.3352,5.2727,0.1,0.00031118,3109.7,0.00029324,2699,-6.5878e-05,0.71341,-0.00015939,-701.89,0.011414
7752,1.1509,5.2727,0.1,0.00031206,3118.4,0.00027899,2433.2,-4.3513e-05,10.086,-0.00018926,-1085,0.0032428
7753,23.816,5.4545,0.1,1.0288e-05,102.81,6.4592e-06,38.936,1.2818e-06,0.034744,-9.057e-06,-77.647,2.9041
7754,23.631,5.4545,0.1,1.2456e-05,124.47,9.7444e-06,74.475,-1.9197e-07,-0.18265,-9.3797e-06,-69.216,2.873
7755,23.447,5.4545,0.1,1.5273e-05,152.63,1.3194e-05,111.06,-1.5912e-06,-0.031163,-9.9681e-06,-62.972,2.8419
7756,23.263,5.4545,0.1,1.8476e-05,184.63,1.678e-05,148.43,-2.9786e-06,-0.027829,-1.0736e-05,-58.313,2.8108
7757,23.079,5.4545,0.1,2.1908e-05,218.93,2.046e-05,186.42,-4.3521e-06,-0.0069557,-1.1625e-05,-54.654,2.7797
7758,22.894,5.4545,0.1,2.5485e-05,254.68,2.421e-05,224.89,-5.7203e-06,0.00022851,-1.2596e-05,-51.662,2.7486
7759,22.71,5.4545,0.1,2.9159e-05,291.39,2.8011e-05,263.71,-7.0857e-06,0.0057108,-1.3624e-05,-49.12,2.7176
7760,22.526,5.4545,0.1,3.29e-05,328.77,3.185e-05,302.81,-8.4501e-06,0.0086764,-1.4693e-05,-46.896,2.6865
7761,22.342,5.4545,0.1,3.6691e-05,366.66,3.5721e-05,342.14,-9.8146e-06,0.010487,-1.5793e-05,-44.906,2.6555
7762,22.157,5.4545,0.1,4.0522e-05,404.94,3.9617e-05,381.67,-1.118e-05,0.01148,-1.6917e-05,-43.096,2.6245
7763,21.973,5.4545,0.1,4.4385e-05,443.54,4.3535e-05,421.38,-1.2546e-05,0.011967,-1.8061e-05,-41.43,2.5936
7764,21.789,5.4545,0.1,4.8275e-05,482.42,4.7473e-05,461.25,-1.3913e-05,0.012133,-1.9223e-05,-39.881,2.5626
7765,21.605,5.4545,0.1,5.219e-05,521.54,5.143e-05,501.27,-1.5283e-05,0.012078,-2.04e-05,-38.433,2.5317
7766,21.42,5.4545,0.1,5.6128e-05,560.89,5.5405e-05,541.44,-1.6654e-05,0.011878,-2.159e-05,-37.073,2.5008
7767,21.236,5.4545,0.1,6.0086e-05,600.44,5.9397e-05,581.75,-1.8028e-05,0.011596,-2.2793e-05,-35.789,2.47
7768,21.052,5.4545,0.1,6.4064e-05,640.2,6.3406e-05,622.21,-1.9404e-05,0.011268,-2.4008e-05,-34.576,2.4392
7769,20.867,5.4545,0.1,6.8061e-05,680.14,6.7431e-05,662.82,-2.0783e-05,0.010912,-2.5234e-05,-33.428,2.4084
7770,20.683,5.4545,0.1,7.2078e-05,720.28,7.1474e-05,703.57,-2.2165e-05,0.010539,-2.647e-05,-32.338,2.3777
7771,20.499,5.4545,0.1,7.6114e-05,760.61,7.5533e-05,744.48,-2.355e-05,0.010157,-2.7718e-05,-31.304,2.347
7772,20.315,5.4545,0.1,8.0168e-05,801.13,7.9609e-05,785.54,-2.4938e-05,0.009786,-2.8975e-05,-30.322,2.3164
7773,20.13,5.4545,0.1,8.4241e-05,841.83,8.3703e-05,826.75,-2.633e-05,0.0094274,-3.0243e-05,-29.389,2.2859
7774,19.946,5.4545,0.1,8.8333e-05,882.72,8.7814e-05,868.13,-2.7726e-05,0.0090933,-3.1521e-05,-28.502,2.2553
7775,19.762,5.4545,0.1,9.2444e-05,923.8,9.1943e-05,909.67,-2.9125e-05,0.0087658,-3.2808e-05,-27.659,2.2249
7776,19.578,5.4545,0.1,9.6574e-05,965.07,9.6089e-05,951.37,-3.0529e-05,0.0084409,-3.4105e-05,-26.857,2.1945
7777,19.393,5.4545,0.1,0.00010072,1006.5,0.00010025,993.24,-3.1937e-05,0.0081431,-3.5411e-05,-26.094,2.1642
7778,19.209,5.4545,0.1,0.00010489,1048.2,0.00010444,1035.3,-3.335e-05,0.0078644,-3.6727e-05,-25.367,2.1339
7779,19.025,5.4545,0.1,0.00010908,1090,0.00010864,1077.5,-3.4766e-05,0.0076172,-3.8052e-05,-24.676,2.1037
7780,18.841,5.4545,0.1,0.00011329,1132.1,0.00011286,1119.9,-3.6188e-05,0.0073694,-3.9386e-05,-24.018,2.0736
7781,18.656,5.4545,0.1,0.00011751,1174.3,0.0001171,1162.5,-3.7615e-05,0.0071236,-4.0729e-05,-23.391,2.0436
7782,18.472,5.4545,0.1,0.00012176,1216.8,0.00012136,1205.2,-3.9046e-05,0.0069076,-4.2081e-05,-22.793,2.0136
7783,18.288,5.4545,0.1,0.00012603,1259.4,0.00012564,1248.2,-4.0483e-05,0.0067045,-4.3442e-05,-22.222,1.9837
7784,18.103,5.4545,0.1,0.00013031,1302.2,0.00012993,1291.3,-4.1925e-05,0.0065315,-4.4811e-05,-21.678,1.9539
7785,17.919,5.4545,0.1,0.00013462,1345.3,0.00013425,1334.6,-4.3372e-05,0.0063514,-4.6189e-05,-21.158,1.9242
7786,17.735,5.4545,0.1,0.00013895,1388.5,0.00013858,1378.1,-4.4825e-05,0.006168,-4.7576e-05,-20.66,1.8946
7787,17.551,5.4545,0.1,0.00014329,1432,0.00014294,1421.8,-4.6283e-05,0.0060078,-4.897e-05,-20.184,1.865
7788,17.366,5.4545,0.1,0.00014766,1475.6,0.00014732,1465.6,-4.7747e-05,0.0058619,-5.0374e-05,-19.727,1.8356
7789,17.182,5.4545,0.1,0.00015205,1519.4,0.00015171,1509.7,-4.9217e-05,0.0057418,-5.1785e-05,-19.288,1.8063
7790,16.998,5.4545,0.1,0.00015646,1563.5,0.00015613,1554,-5.0692e-05,0.0056089,-5.3204e-05,-18.866,1.777
7791,16.814,5.4545,0.1,0.00016088,1607.7,0.00016056,1598.4,-5.2174e-05,0.0054624,-5.4631e-05,-18.459,1.7479
7792,16.629,5.4545,0.1,0.00016533,1652.2,0.00016502,1643.1,-5.3661e-05,0.0053413,-5.6066e-05,-18.067,1.7189
7793,16.445,5.4545,0.1,0.0001698,1696.8,0.00016949,1687.9,-5.5155e-05,0.00523,-5.7509e-05,-17.687,1.69
7794,16.261,5.4545,0.1,0.00017429,1741.7,0.00017398,1732.9,-5.6654e-05,0.0051422,-5.896e-05,-17.318,1.6612
7795,16.077,5.4545,0.1,0.00017879,1786.7,0.0001785,1778.2,-5.816e-05,0.0050365,-6.0417e-05,-16.96,1.6325
7796,15.892,5.4545,0.1,0.00018332,1832,0.00018303,1823.6,-5.9671e-05,0.0049139,-6.1883e-05,-16.61,1.604
7797,15.708,5.4545,0.1,0.00018787,1877.4,0.00018759,1869.2,-6.119e-05,0.0048108,-6.3355e-05,-16.269,1.5755
7798,15.524,5.4545,0.1,0.00019244,1923.1,0.00019216,1915.1,-6.2714e-05,0.0047164,-6.4835e-05,-15.933,1.5472
7799,15.339,5.4545,0.1,0.00019703,1968.9,0.00019676,1961.1,-6.4245e-05,0.0046465,-6.6322e-05,-15.603,1.519
7800,15.155,5.4545,0.1,0.00020164,2015,0.00020137,2007.3,-6.5782e-05,0.0045516,-6.7816e-05,-15.277,1.491
7801,14.971,5.4545,0.1,0.00020627,2061.3,0.00020601,2053.7,-6.7326e-05,0.0044324,-6.9317e-05,-14.954,1.4631
7802,14.787,5.4545,0.1,0.00021092,2107.7,0.00021066,2100.4,-6.8876e-05,0.004336,-7.0824e-05,-14.633,1.4353
7803,14.602,5.4545,0.1,0.00021559,2154.4,0.00021534,2147.2,-7.0433e-05,0.0042434,-7.2339e-05,-14.312,1.4077
7804,14.418,5.4545,0.1,0.00022028,2201.3,0.00022004,2194.2,-7.1997e-05,0.0041741,-7.3859e-05,-13.99,1.3802
7805,14.234,5.4545,0.1,0.00022499,2248.3,0.00022475,2241.5,-7.3567e-05,0.0040762,-7.5387e-05,-13.665,1.3529
7806,14.05,5.4545,0.1,0.00022972,2295.6,0.00022949,2288.9,-7.5145e-05,0.003946,-7.692e-05,-13.337,1.3257
7807,13.865,5.4545,0.1,0.00023447,2343.1,0.00023424,2336.5,-7.6729e-05,0.0038382,-7.846e-05,-13.005,1.2986
7808,13.681,5.4545,0.1,0.00023924,2390.7,0.00023902,2384.4,-7.832e-05,0.0037335,-8.0006e-05,-12.666,1.2718
7809,13.497,5.4545,0.1,0.00024403,2438.6,0.00024381,2432.4,-7.9918e-05,0.0036508,-8.1558e-05,-12.319,1.2451
7810,13.313,5.4545,0.1,0.00024884,2486.6,0.00024863,2480.6,-8.1522e-05,0.0035331,-8.3115e-05,-11.962,1.2185
7811,13.128,5.4545,0.1,0.00025367,2534.9,0.00025347,2529.1,-8.3135e-05,0.0033775,-8.4678e-05,-11.595,1.1921
7812,12.944,5.4545,0.1,0.00025852,2583.4,0.00025832,2577.7,-8.4754e-05,0.0032425,-8.6247e-05,-11.215,1.1659
7813,12.76,5.4545,0.1,0.00026338,2632,0.0002632,2626.6,-8.638e-05,0.0031064,-8.7821e-05,-10.821,1.1399
7814,12.575,5.4545,0.1,0.00026827,2680.9,0.0002681,2675.7,-8.8014e-05,0.0029937,-8.94e-05,-10.41,1.1141
7815,12.391,5.4545,0.1,0.00027318,2729.9,0.00027301,2724.9,-8.9655e-05,0.0028376,-9.0984e-05,-9.9817,1.0884
7816,12.207,5.4545,0.1,0.00027811,2779.2,0.00027795,2774.4,-9.1304e-05,0.0026362,-9.2573e-05,-9.5326,1.0629
7817,12.023,5.4545,0.1,0.00028306,2828.6,0.0002829,2824.1,-9.296e-05,0.0024541,-9.4166e-05,-9.0608,1.0376
7818,11.838,5.4545,0.1,0.00028803,2878.3,0.00028788,2874,-9.4624e-05,0.0022677,-9.5764e-05,-8.5642,1.0125
7819,11.654,5.4545,0.1,0.00029301,2928.1,0.00029288,2924.1,-9.6296e-05,0.0021029,-9.7366e-05,-8.04,0.98758
7820,11.47,5.4545,0.1,0.00029802,2978.2,0.00029789,2974.4,-9.7976e-05,0.0018872,-9.8972e-05,-7.4859,0.96286
7821,11.286,5.4545,0.1,0.00030305,3028.4,0.00030293,3024.9,-9.9664e-05,0.0016198,-0.00010058,-6.899,0.93835
7822,11.101,5.4545,0.1,0.00030809,3078.8,0.00030799,3075.7,-0.00010136,0.0013717,-0.0001022,-6.2762,0.91404
7823,10.917,5.4545,0.1,0.00031316,3129.4,0.00031306,3126.6,-0.00010306,0.0011188,-0.00010381,-5.6145,0.88994
7824,10.733,5.4545,0.1,0.00031824,3180.2,0.00031816,3177.8,-0.00010478,0.00089311,-0.00010543,-4.9103,0.86605
7825,10.549,5.4545,0.1,0.00032335,3231.2,0.00032327,3229.1,-0.0001065,0.0006221,-0.00010705,-4.1604,0.84238
7826,10.364,5.4545,0.1,0.00032847,3282.4,0.00032841,3280.7,-0.00010823,0.00032638,-0.00010868,-3.3611,0.81893
7827,10.18,5.4545,0.1,0.00033361,3333.8,0.00033357,3332.5,-0.00010997,0.00013814,-0.0001103,-2.5083,0.79569
7828,9.9957,5.4545,0.1,0.00033877,3385.4,0.00033874,3384.6,-0.00011172,0.0001636,-0.00011193,-1.5983,0.77269
7829,9.8115,5.4545,0.1,0.00034395,3437.1,0.00034394,3436.8,-0.00011347,0.0016773,-0.00011356,-0.628,0.74991
7830,9.6272,5.4545,0.1,0.00034915,3489.1,0.00034916,3489.3,-0.00011518,0.41862,-0.00011524,-0.0070023,0.72737
7831,9.4429,5.4545,0.1,0.00035437,3541.2,0.00035439,3542,-0.00011681,1.5242,-0.00011702,-0.0040337,0.70506
7832,9.2587,5.4545,0.1,0.0003596,3593.6,0.00035965,3594.9,-0.00011844,2.708,-0.0001188,-0.0040639,0.683
7833,9.0744,5.4545,0.1,0.00036486,3646.1,0.00036493,3648.1,-0.00012007,3.972,-0.0001206,-0.0044973,0.66117
7834,8.8901,5.4545,0.1,0.00037013,3698.8,0.00037022,3701.4,-0.0001217,5.3205,-0.00012241,-0.0051036,0.6396
7835,8.7059,5.4545,0.1,0.00037543,3751.7,0.00037554,3755.1,-0.00012333,6.7578,-0.00012423,-0.0058274,0.61827
7836,8.5216,5.4545,0.1,0.00038074,3804.8,0.00038088,3808.9,-0.00012495,8.2879,-0.00012605,-0.0066531,0.5972
7837,8.3373,5.4545,0.1,0.00038607,3858,0.00038624,3863,-0.00012657,9.9145,-0.00012789,-0.0075803,0.57639
7838,8.1531,5.4545,0.1,0.00039142,3911.5,0.00039161,3917.3,-0.00012819,11.64,-0.00012974,-0.0086118,0.55584
7839,7.9688,5.4545,0.1,0.00039678,3965.1,0.00039701,3971.8,-0.00012981,13.468,-0.00013161,-0.0097575,0.53556
7840,7.7845,5.4545,0.1,0.00040217,4018.9,0.00040243,4026.6,-0.00013143,15.397,-0.00013348,-0.011028,0.51554
7841,7.6003,5.4545,0.1,0.00040757,4072.9,0.00040786,4081.5,-0.00013304,17.427,-0.00013536,-0.012438,0.4958
7842,7.416,5.4545,0.1,0.00041299,4127,0.00041331,4136.7,-0.00013465,19.554,-0.00013725,-0.014004,0.47634
7843,7.2317,5.4545,0.1,0.00041842,4181.3,0.00041879,4192.1,-0.00013626,21.774,-0.00013916,-0.015748,0.45715
7844,7.0475,5.4545,0.1,0.00042387,4235.8,0.00042427,4247.7,-0.00013786,24.075,-0.00014107,-0.017695,0.43825
7845,6.8632,5.4545,0.1,0.00042933,4290.3,0.00042977,4303.5,-0.00013947,26.444,-0.00014299,-0.019877,0.41964
7846,6.6789,5.4545,0.1,0.0004348,4345,0.00043528,4359.4,-0.00014107,28.861,-0.00014491,-0.022329,0.40132
7847,6.4947,5.4545,0.1,0.00044028,4399.8,0.0004408,4415.3,-0.00014267,31.3,-0.00014684,-0.0251,0.38329
7848,6.3104,5.4545,0.1,0.00044576,4454.5,0.00044633,4471.3,-0.00014428,33.725,-0.00014877,-0.028246,0.36556
7849,6.1261,5.4545,0.1,0.00045124,4509.3,0.00045184,4527.2,-0.00014589,36.091,-0.0001507,-0.031841,0.34814
7850,5.9419,5.4545,0.1,0.00045671,4564,0.00045735,4583,-0.00014751,38.341,-0.00015261,-0.03598,0.33102
7851,5.7576,5.4545,0.1,0.00046216,4618.4,0.00046283,4638.5,-0.00014913,40.402,-0.00015451,-0.040789,0.31421
7852,5.5733,5.4545,0.1,0.00046758,4672.5,0.00046828,4693.5,-0.00015077,42.186,-0.00015639,-0.046441,0.29772
7853,5.3891,5.4545,0.1,0.00047294,4726.1,0.00047366,4747.7,-0.00015242,43.583,-0.00015823,-0.053179,0.28155
7854,5.2048,5.4545,0.1,0.00047822,4778.9,0.00047896,4800.9,-0.00015409,44.462,-0.00016001,-0.061362,0.26569
7855,5.0205,5.4545,0.1,0.00048339,4830.6,0.00048413,4852.7,-0.00015578,44.664,-0.00016173,-0.071541,0.25017
7856,4.8363,5.4545,0.1,0.00048841,4880.7,0.00048914,4902.5,-0.00015749,44.002,-0.00016336,-0.084623,0.23497
7857,4.652,5.4545,0.1,0.00049321,4928.7,0.00049392,4949.7,-0.00015922,42.259,-0.00016486,-0.1022,0.2201
7858,4.4677,5.4545,0.1,0.00049773,4973.9,0.00049839,4993.3,-0.00016097,39.185,-0.0001662,-0.12731,0.20557
7859,4.2835,5.4545,0.1,0.00050187,5015.3,0.00050245,5032.3,-0.00016272,34.502,-0.00016734,-0.1666,0.19138
7860,4.0992,5.4545,0.1,0.0005055,5051.5,0.00050597,5065.3,-0.00016447,27.91,-0.00016822,-0.23731,0.17753
7861,3.9149,5.4545,0.1,0.00050847,5081.1,0.00050878,5090.5,-0.00016617,19.133,-0.00016877,-0.40068,0.16402
7862,3.7307,5.4545,0.1,0.00051055,5102,0.00051067,5105.6,-0.00016774,8.25,-0.00016898,-1.0877,0.15086
7863,3.5464,5.4545,0.1,0.0005115,5111.4,0.00051137,5107.7,-0.00016826,1.2435,-0.00016958,-8.6208,0.13804
7864,3.3621,5.4545,0.1,0.00051097,5106.2,0.00051054,5093.5,-0.0001673,0.51426,-0.00017079,-25.699,0.12557
7865,3.1779,5.4545,0.1,0.00050855,5082,0.00050774,5058.6,-0.00016547,0.36269,-0.00017175,-46.831,0.11345
7866,2.9936,5.4545,0.1,0.00050371,5033.7,0.00050246,4997.6,-0.00016264,0.31972,-0.00017221,-71.602,0.10167
7867,2.8093,5.4545,0.1,0.00049584,4954.9,0.00049407,4904.5,-0.00015863,0.32384,-0.00017195,-99.766,0.09024
7868,2.6251,5.4545,0.1,0.00048416,4838.2,0.00048181,4771.7,-0.00015322,0.36229,-0.00017067,-130.79,0.079139
7869,2.4408,5.4545,0.1,0.00046781,4674.9,0.00046482,4591.1,-0.00014616,0.43547,-0.00016801,-163.75,0.068366
7870,2.2565,5.4545,0.1,0.00044587,4455.6,0.00044219,4353.9,-0.00013721,0.55652,-0.00016354,-197.32,0.057906
7871,2.0723,5.4545,0.1,0.00041744,4171.5,0.00041306,4052.1,-0.00012614,0.74023,-0.00015685,-230,0.047744
7872,1.888,5.4545,0.1,0.00038197,3817,0.00037687,3680.3,-0.00011281,1.0856,-0.00014769,-261.03,0.037858
7873,1.7037,5.4545,0.1,0.00033977,3395.4,0.00033386,3240.2,-9.7178e-05,1.5375,-0.00013635,-292.79,0.028225
7874,1.5195,5.4545,0.1,0.00029328,2930.8,0.00028614,2749.4,-7.9393e-05,2.9353,-0.00012454,-336.29,0.018822
7875,1.3352,5.4545,0.1,0.00025006,2498.9,0.00023999,2257.3,-6.0157e-05,2.1261,-0.00011756,-429.19,0.0096829
7876,1.1509,5.4545,0.1,0.00023536,2351.9,0.00021532,1923.5,-3.9187e-05,11.258,-0.00013421,-702.71,0.0025477
7877,23.816,5.6364,0.1,8.3405e-06,83.347,5.6987e-06,38.077,6.6921e-07,0.28749,-7.018e-06,-57.471,2.904
7878,23.631,5.6364,0.1,1.0796e-05,107.89,8.982e-06,72.922,-7.2372e-07,-0.0030373,-7.513e-06,-51.015,2.8728
7879,23.447,5.6364,0.1,1.3947e-05,139.37,1.2528e-05,109.64,-2.0511e-06,0.096702,-8.3507e-06,-47.236,2.8417
7880,23.263,5.6364,0.1,1.7423e-05,174.11,1.6223e-05,147.37,-3.3797e-06,0.083429,-9.3501e-06,-44.776,2.8106
7881,23.079,5.6364,0.1,2.1063e-05,210.48,2.0001e-05,185.74,-4.707e-06,0.087237,-1.0433e-05,-42.932,2.7795
7882,22.894,5.6364,0.1,2.4798e-05,247.81,2.3833e-05,224.52,-6.038e-06,0.082172,-1.1562e-05,-41.425,2.7485
7883,22.71,5.6364,0.1,2.8595e-05,285.75,2.7701e-05,263.6,-7.3726e-06,0.077733,-1.2722e-05,-40.112,2.7174
7884,22.526,5.6364,0.1,3.2434e-05,324.12,3.1597e-05,302.93,-8.711e-06,0.072662,-1.3901e-05,-38.922,2.6864
7885,22.342,5.6364,0.1,3.6306e-05,362.81,3.5515e-05,342.45,-1.0053e-05,0.067813,-1.5095e-05,-37.814,2.6553
7886,22.157,5.6364,0.1,4.0203e-05,401.76,3.9452e-05,382.14,-1.1399e-05,0.063196,-1.6301e-05,-36.768,2.6243
7887,21.973,5.6364,0.1,4.4123e-05,440.92,4.3406e-05,421.98,-1.2748e-05,0.058906,-1.7516e-05,-35.768,2.5934
7888,21.789,5.6364,0.1,4.8062e-05,480.29,4.7376e-05,461.96,-1.41e-05,0.054943,-1.874e-05,-34.809,2.5624
7889,21.605,5.6364,0.1,5.2019e-05,519.83,5.136e-05,502.08,-1.5456e-05,0.051295,-1.9973e-05,-33.884,2.5315
7890,21.42,5.6364,0.1,5.5993e-05,559.55,5.5359e-05,542.34,-1.6815e-05,0.04794,-2.1213e-05,-32.991,2.5006
7891,21.236,5.6364,0.1,5.9984e-05,599.42,5.9373e-05,582.73,-1.8178e-05,0.044867,-2.246e-05,-32.127,2.4698
7892,21.052,5.6364,0.1,6.3991e-05,639.47,6.3401e-05,623.26,-1.9544e-05,0.042053,-2.3715e-05,-31.293,2.4389
7893,20.867,5.6364,0.1,6.8014e-05,679.67,6.7444e-05,663.93,-2.0914e-05,0.03948,-2.4977e-05,-30.487,2.4082
7894,20.683,5.6364,0.1,7.2053e-05,720.04,7.1502e-05,704.74,-2.2288e-05,0.037114,-2.6246e-05,-29.708,2.3775
7895,20.499,5.6364,0.1,7.6109e-05,760.57,7.5576e-05,745.69,-2.3665e-05,0.034933,-2.7524e-05,-28.955,2.3468
7896,20.315,5.6364,0.1,8.0182e-05,801.26,7.9665e-05,786.79,-2.5047e-05,0.03294,-2.8808e-05,-28.229,2.3161
7897,20.13,5.6364,0.1,8.4271e-05,842.13,8.377e-05,828.04,-2.6432e-05,0.031108,-3.01e-05,-27.529,2.2856
7898,19.946,5.6364,0.1,8.8378e-05,883.17,8.7891e-05,869.45,-2.7822e-05,0.029434,-3.14e-05,-26.854,2.255
7899,19.762,5.6364,0.1,9.2502e-05,924.38,9.2029e-05,911.01,-2.9216e-05,0.027887,-3.2707e-05,-26.204,2.2246
7900,19.578,5.6364,0.1,9.6644e-05,965.77,9.6184e-05,952.74,-3.0615e-05,0.02645,-3.4023e-05,-25.578,2.1942
7901,19.393,5.6364,0.1,0.0001008,1007.3,0.00010036,994.63,-3.2018e-05,0.025135,-3.5346e-05,-24.976,2.1638
7902,19.209,5.6364,0.1,0.00010498,1049.1,0.00010455,1036.7,-3.3426e-05,0.023925,-3.6677e-05,-24.396,2.1336
7903,19.025,5.6364,0.1,0.00010918,1091,0.00010875,1078.9,-3.4839e-05,0.022825,-3.8015e-05,-23.839,2.1034
7904,18.841,5.6364,0.1,0.00011339,1133.1,0.00011298,1121.3,-3.6258e-05,0.021793,-3.9362e-05,-23.303,2.0732
7905,18.656,5.6364,0.1,0.00011763,1175.5,0.00011722,1163.9,-3.7681e-05,0.020825,-4.0716e-05,-22.787,2.0432
7906,18.472,5.6364,0.1,0.00012188,1218,0.00012149,1206.7,-3.9109e-05,0.019942,-4.2079e-05,-22.291,2.0132
7907,18.288,5.6364,0.1,0.00012615,1260.6,0.00012577,1249.6,-4.0543e-05,0.019127,-4.3449e-05,-21.813,1.9833
7908,18.103,5.6364,0.1,0.00013044,1303.5,0.00013007,1292.7,-4.1982e-05,0.018385,-4.4827e-05,-21.354,1.9535
7909,17.919,5.6364,0.1,0.00013475,1346.6,0.00013439,1336,-4.3427e-05,0.017681,-4.6213e-05,-20.911,1.9238
7910,17.735,5.6364,0.1,0.00013908,1389.9,0.00013872,1379.5,-4.4878e-05,0.017009,-4.7606e-05,-20.485,1.8941
7911,17.551,5.6364,0.1,0.00014343,1433.3,0.00014308,1423.2,-4.6334e-05,0.016395,-4.9008e-05,-20.074,1.8646
7912,17.366,5.6364,0.1,0.0001478,1477,0.00014746,1467.1,-4.7796e-05,0.015827,-5.0417e-05,-19.677,1.8352
7913,17.182,5.6364,0.1,0.00015219,1520.9,0.00015185,1511.1,-4.9263e-05,0.015311,-5.1833e-05,-19.294,1.8058
7914,16.998,5.6364,0.1,0.0001566,1564.9,0.00015627,1555.4,-5.0737e-05,0.014809,-5.3257e-05,-18.923,1.7766
7915,16.814,5.6364,0.1,0.00016103,1609.2,0.00016071,1599.8,-5.2217e-05,0.014316,-5.4689e-05,-18.564,1.7474
7916,16.629,5.6364,0.1,0.00016548,1653.7,0.00016516,1644.5,-5.3702e-05,0.013867,-5.6129e-05,-18.216,1.7184
7917,16.445,5.6364,0.1,0.00016995,1698.3,0.00016964,1689.3,-5.5194e-05,0.013442,-5.7575e-05,-17.877,1.6895
7918,16.261,5.6364,0.1,0.00017444,1743.2,0.00017413,1734.3,-5.6692e-05,0.01306,-5.9029e-05,-17.548,1.6607
7919,16.077,5.6364,0.1,0.00017895,1788.2,0.00017865,1779.6,-5.8196e-05,0.012672,-6.0491e-05,-17.227,1.632
7920,15.892,5.6364,0.1,0.00018348,1833.5,0.00018318,1825,-5.9707e-05,0.012275,-6.196e-05,-16.914,1.6034
7921,15.708,5.6364,0.1,0.00018803,1879,0.00018774,1870.6,-6.1224e-05,0.011912,-6.3435e-05,-16.607,1.5749
7922,15.524,5.6364,0.1,0.0001926,1924.6,0.00019231,1916.4,-6.2747e-05,0.011562,-6.4918e-05,-16.305,1.5466
7923,15.339,5.6364,0.1,0.00019719,1970.5,0.00019691,1962.5,-6.4276e-05,0.011241,-6.6408e-05,-16.009,1.5184
7924,15.155,5.6364,0.1,0.0002018,2016.6,0.00020153,2008.7,-6.5812e-05,0.010903,-6.7906e-05,-15.716,1.4904
7925,14.971,5.6364,0.1,0.00020643,2062.9,0.00020616,2055.1,-6.7355e-05,0.010541,-6.941e-05,-15.427,1.4624
7926,14.787,5.6364,0.1,0.00021108,2109.3,0.00021082,2101.7,-6.8904e-05,0.0102,-7.092e-05,-15.139,1.4347
7927,14.602,5.6364,0.1,0.00021575,2156,0.00021549,2148.6,-7.046e-05,0.0098652,-7.2438e-05,-14.853,1.407
7928,14.418,5.6364,0.1,0.00022044,2202.9,0.00022019,2195.6,-7.2022e-05,0.0095518,-7.3962e-05,-14.567,1.3795
7929,14.234,5.6364,0.1,0.00022515,2250,0.00022491,2242.8,-7.3591e-05,0.0092031,-7.5493e-05,-14.281,1.3522
7930,14.05,5.6364,0.1,0.00022989,2297.3,0.00022964,2290.2,-7.5167e-05,0.0088185,-7.7031e-05,-13.993,1.325
7931,13.865,5.6364,0.1,0.00023464,2344.8,0.0002344,2337.9,-7.675e-05,0.0084476,-7.8575e-05,-13.703,1.2979
7932,13.681,5.6364,0.1,0.00023941,2392.4,0.00023918,2385.7,-7.834e-05,0.0080702,-8.0125e-05,-13.409,1.271
7933,13.497,5.6364,0.1,0.0002442,2440.3,0.00024398,2433.8,-7.9936e-05,0.007706,-8.1682e-05,-13.11,1.2443
7934,13.313,5.6364,0.1,0.00024902,2488.4,0.0002488,2482,-8.1539e-05,0.0072909,-8.3245e-05,-12.806,1.2178
7935,13.128,5.6364,0.1,0.00025385,2536.7,0.00025363,2530.5,-8.315e-05,0.0068248,-8.4814e-05,-12.494,1.1914
7936,12.944,5.6364,0.1,0.0002587,2585.2,0.00025849,2579.1,-8.4767e-05,0.0063627,-8.6388e-05,-12.175,1.1652
7937,12.76,5.6364,0.1,0.00026358,2633.9,0.00026337,2628,-8.6392e-05,0.0058797,-8.7969e-05,-11.845,1.1391
7938,12.575,5.6364,0.1,0.00026847,2682.8,0.00026827,2677.1,-8.8024e-05,0.0053997,-8.9556e-05,-11.505,1.1132
7939,12.391,5.6364,0.1,0.00027338,2731.9,0.00027319,2726.4,-8.9663e-05,0.0048522,-9.1148e-05,-11.153,1.0876
7940,12.207,5.6364,0.1,0.00027832,2781.3,0.00027813,2775.8,-9.131e-05,0.0042335,-9.2746e-05,-10.787,1.0621
7941,12.023,5.6364,0.1,0.00028327,2830.8,0.00028309,2825.5,-9.2964e-05,0.0036059,-9.4349e-05,-10.405,1.0367
7942,11.838,5.6364,0.1,0.00028825,2880.5,0.00028808,2875.5,-9.4625e-05,0.0029423,-9.5957e-05,-10.007,1.0116
7943,11.654,5.6364,0.1,0.00029324,2930.4,0.00029308,2925.6,-9.6294e-05,0.0022645,-9.7571e-05,-9.5891,0.98669
7944,11.47,5.6364,0.1,0.00029826,2980.5,0.0002981,2975.9,-9.7971e-05,0.0014977,-9.9189e-05,-9.1508,0.96196
7945,11.286,5.6364,0.1,0.00030329,3030.8,0.00030314,3026.5,-9.9656e-05,0.00063727,-0.00010081,-8.6898,0.93743
7946,11.101,5.6364,0.1,0.00030835,3081.4,0.00030821,3077.2,-0.00010135,-0.00025032,-0.00010244,-8.2038,0.91311
7947,10.917,5.6364,0.1,0.00031342,3132.1,0.00031329,3128.2,-0.00010305,-0.0011937,-0.00010407,-7.6908,0.88899
7948,10.733,5.6364,0.1,0.00031852,3183,0.0003184,3179.4,-0.00010476,-0.0021686,-0.00010571,-7.1481,0.86509
7949,10.549,5.6364,0.1,0.00032364,3234.1,0.00032353,3230.9,-0.00010648,-0.0032571,-0.00010735,-6.5736,0.8414
7950,10.364,5.6364,0.1,0.00032878,3285.5,0.00032867,3282.5,-0.0001082,-0.0044581,-0.00010899,-5.9647,0.81794
7951,10.18,5.6364,0.1,0.00033393,3337,0.00033384,3334.4,-0.00010993,-0.0056829,-0.00011064,-5.3184,0.79469
7952,9.9957,5.6364,0.1,0.00033911,3388.8,0.00033903,3386.5,-0.00011168,-0.0069858,-0.00011229,-4.6321,0.77167
7953,9.8115,5.6364,0.1,0.00034431,3440.7,0.00034424,3438.8,-0.00011343,-0.0083382,-0.00011395,-3.9029,0.74888
7954,9.6272,5.6364,0.1,0.00034953,3492.9,0.00034948,3491.3,-0.00011519,-0.0096822,-0.00011561,-3.1279,0.72632
7955,9.4429,5.6364,0.1,0.00035477,3545.3,0.00035473,3544.1,-0.00011696,-0.010891,-0.00011727,-2.3041,0.704
7956,9.2587,5.6364,0.1,0.00036003,3597.8,0.00036001,3597.1,-0.00011874,-0.011407,-0.00011893,-1.429,0.68192
7957,9.0744,5.6364,0.1,0.00036531,3650.6,0.0003653,3650.4,-0.00012053,-0.0062837,-0.0001206,-0.50471,0.66009
7958,8.8901,5.6364,0.1,0.00037062,3703.6,0.00037062,3703.8,-0.00012226,0.50623,-0.00012233,-0.02993,0.6385
7959,8.7059,5.6364,0.1,0.00037594,3756.8,0.00037597,3757.6,-0.00012393,1.5497,-0.00012414,-0.025583,0.61716
7960,8.5216,5.6364,0.1,0.00038128,3810.2,0.00038133,3811.5,-0.0001256,2.6618,-0.00012596,-0.026833,0.59608
7961,8.3373,5.6364,0.1,0.00038665,3863.8,0.00038671,3865.7,-0.00012727,3.84,-0.00012779,-0.029099,0.57525
7962,8.1531,5.6364,0.1,0.00039203,3917.6,0.00039212,3920.2,-0.00012894,5.085,-0.00012963,-0.031854,0.55469
7963,7.9688,5.6364,0.1,0.00039744,3971.7,0.00039755,3974.8,-0.00013062,6.3975,-0.00013147,-0.03496,0.5344
7964,7.7845,5.6364,0.1,0.00040287,4025.9,0.000403,4029.7,-0.00013229,7.777,-0.00013333,-0.038371,0.51437
7965,7.6003,5.6364,0.1,0.00040831,4080.3,0.00040847,4084.9,-0.00013397,9.2215,-0.0001352,-0.042071,0.49462
7966,7.416,5.6364,0.1,0.00041377,4134.9,0.00041396,4140.2,-0.00013565,10.728,-0.00013708,-0.046052,0.47514
7967,7.2317,5.6364,0.1,0.00041926,4189.7,0.00041946,4195.8,-0.00013732,12.29,-0.00013897,-0.050311,0.45594
7968,7.0475,5.6364,0.1,0.00042475,4244.6,0.00042499,4251.5,-0.000139,13.899,-0.00014086,-0.054846,0.43703
7969,6.8632,5.6364,0.1,0.00043027,4299.7,0.00043053,4307.4,-0.00014069,15.543,-0.00014276,-0.059649,0.41841
7970,6.6789,5.6364,0.1,0.00043579,4354.9,0.00043608,4363.4,-0.00014237,17.206,-0.00014467,-0.064712,0.40008
7971,6.4947,5.6364,0.1,0.00044131,4410.1,0.00044163,4419.5,-0.00014405,18.866,-0.00014657,-0.070018,0.38204
7972,6.3104,5.6364,0.1,0.00044684,4465.4,0.00044719,4475.5,-0.00014574,20.495,-0.00014848,-0.075543,0.36431
7973,6.1261,5.6364,0.1,0.00045236,4520.5,0.00045273,4531.5,-0.00014743,22.057,-0.00015038,-0.081257,0.34687
7974,5.9419,5.6364,0.1,0.00045787,4575.5,0.00045826,4587.2,-0.00014913,23.507,-0.00015227,-0.087119,0.32975
7975,5.7576,5.6364,0.1,0.00046334,4630.2,0.00046376,4642.5,-0.00015083,24.79,-0.00015414,-0.093085,0.31294
7976,5.5733,5.6364,0.1,0.00046877,4684.4,0.0004692,4697.2,-0.00015253,25.837,-0.00015598,-0.099109,0.29644
7977,5.3891,5.6364,0.1,0.00047412,4737.9,0.00047456,4751.1,-0.00015423,26.563,-0.00015778,-0.10516,0.28026
7978,5.2048,5.6364,0.1,0.00047936,4790.3,0.00047981,4803.6,-0.00015594,26.869,-0.00015953,-0.11126,0.2644
7979,5.0205,5.6364,0.1,0.00048447,4841.3,0.00048491,4854.5,-0.00015764,26.635,-0.0001612,-0.11752,0.24887
7980,4.8363,5.6364,0.1,0.00048937,4890.3,0.0004898,4903.1,-0.00015934,25.719,-0.00016278,-0.12435,0.23366
7981,4.652,5.6364,0.1,0.00049401,4936.7,0.00049441,4948.6,-0.00016101,23.959,-0.00016422,-0.13277,0.21879
7982,4.4677,5.6364,0.1,0.0004983,4979.5,0.00049865,4990,-0.00016266,21.168,-0.0001655,-0.14543,0.20426
7983,4.2835,5.6364,0.1,0.00050211,5017.7,0.0005024,5026.1,-0.00016426,17.142,-0.00016656,-0.17005,0.19006
7984,4.0992,5.6364,0.1,0.00050532,5049.7,0.00050551,5055.4,-0.00016577,11.678,-0.00016735,-0.23595,0.17621
7985,3.9149,5.6364,0.1,0.00050772,5073.7,0.00050779,5075.8,-0.00016712,4.7553,-0.00016783,-0.57336,0.1627
7986,3.7307,5.6364,0.1,0.0005091,5087.5,0.00050901,5084.9,-0.00016768,0.54334,-0.0001685,-5.6029,0.14953
7987,3.5464,5.6364,0.1,0.00050914,5087.9,0.00050886,5079.6,-0.00016717,0.24092,-0.00016943,-16.763,0.13671
7988,3.3621,5.6364,0.1,0.0005075,5071.5,0.00050697,5056.2,-0.00016594,0.20156,-0.00017004,-30.601,0.12423
7989,3.1779,5.6364,0.1,0.0005037,5033.5,0.00050289,5010,-0.00016387,0.21285,-0.00017015,-47.013,0.1121
7990,2.9936,5.6364,0.1,0.0004972,4968.6,0.00049605,4935.4,-0.00016078,0.24538,-0.00016959,-65.925,0.10031
7991,2.8093,5.6364,0.1,0.00048733,4869.9,0.0004858,4826,-0.00015646,0.28946,-0.00016809,-87.047,0.08886
7992,2.6251,5.6364,0.1,0.00047331,4729.9,0.00047136,4674.2,-0.0001507,0.33996,-0.00016535,-109.75,0.077737
7993,2.4408,5.6364,0.1,0.00045427,4539.6,0.00045187,4471.8,-0.00014324,0.39367,-0.00016099,-132.94,0.066934
7994,2.2565,5.6364,0.1,0.00042925,4289.6,0.00042641,4210.2,-0.00013387,0.45735,-0.00015456,-155.01,0.056437
7995,2.0723,5.6364,0.1,0.00039736,3970.8,0.00039412,3881.3,-0.00012238,0.5486,-0.00014559,-173.84,0.046229
7996,1.888,5.6364,0.1,0.00035789,3576.5,0.00035435,3479.5,-0.00010864,0.79472,-0.00013366,-187.21,0.036288
7997,1.7037,5.6364,0.1,0.00031075,3105.3,0.000307,3004.3,-9.2669e-05,1.2903,-0.00011868,-194.16,0.02659
7998,1.5195,5.6364,0.1,0.00025714,2569.6,0.00025323,2466.2,-7.456e-05,3.3059,-0.00010139,-198.31,0.01712
7999,1.3352,5.6364,0.1,0.00020218,2020.4,0.00019748,1901.1,-5.4956e-05,4.3925,-8.5299e-05,-223.59,0.0079602
8000,1.1509,5.6364,0.1,0.00016773,1676.1,0.00015786,1455.8,-3.3941e-05,14.655,-8.6943e-05,-383.58,0.0031157
8001,23.816,5.8182,0.1,6.1764e-06,61.721,4.8211e-06,37.058,-4.3392e-08,0.50853,-4.6633e-06,-34.203,2.9038
8002,23.631,5.8182,0.1,9.4008e-06,93.943,8.3819e-06,72.828,-1.2962e-06,0.11077,-5.735e-06,-33.241,2.8727
8003,23.447,5.8182,0.1,1.3083e-05,130.74,1.2183e-05,110.71,-2.5345e-06,0.12103,-7.0208e-06,-33.587,2.8416
8004,23.263,5.8182,0.1,1.6888e-05,168.76,1.6052e-05,149.24,-3.7993e-06,0.080965,-8.3274e-06,-33.942,2.8105
8005,23.079,5.8182,0.1,2.0748e-05,207.33,1.9955e-05,188.16,-5.079e-06,0.065357,-9.6338e-06,-34.157,2.7794
8006,22.894,5.8182,0.1,2.464e-05,246.23,2.3879e-05,227.35,-6.3722e-06,0.050068,-1.0935e-05,-34.232,2.7483
8007,22.71,5.8182,0.1,2.8555e-05,285.35,2.782e-05,266.74,-7.6756e-06,0.039479,-1.2231e-05,-34.184,2.7172
8008,22.526,5.8182,0.1,3.2487e-05,324.64,3.1774e-05,306.3,-8.9877e-06,0.031078,-1.3522e-05,-34.035,2.6862
8009,22.342,5.8182,0.1,3.6432e-05,364.07,3.5739e-05,346,-1.0307e-05,0.024592,-1.4809e-05,-33.803,2.6552
8010,22.157,5.8182,0.1,4.039e-05,403.62,3.9716e-05,385.83,-1.1633e-05,0.019466,-1.6095e-05,-33.504,2.6241
8011,21.973,5.8182,0.1,4.436e-05,443.29,4.3703e-05,425.79,-1.2965e-05,0.015395,-1.7379e-05,-33.152,2.5932
8012,21.789,5.8182,0.1,4.8341e-05,483.08,4.7701e-05,465.87,-1.4301e-05,0.012144,-1.8663e-05,-32.757,2.5622
8013,21.605,5.8182,0.1,5.2334e-05,522.98,5.1709e-05,506.07,-1.5643e-05,0.0095232,-1.9947e-05,-32.329,2.5313
8014,21.42,5.8182,0.1,5.6338e-05,563,5.5729e-05,546.38,-1.699e-05,0.0074006,-2.1233e-05,-31.875,2.5004
8015,21.236,5.8182,0.1,6.0355e-05,603.13,5.976e-05,586.82,-1.8341e-05,0.0056914,-2.2521e-05,-31.401,2.4695
8016,21.052,5.8182,0.1,6.4384e-05,643.4,6.3803e-05,627.39,-1.9697e-05,0.0043066,-2.3812e-05,-30.914,2.4387
8017,20.867,5.8182,0.1,6.8426e-05,683.79,6.7858e-05,668.08,-2.1057e-05,0.0031945,-2.5106e-05,-30.417,2.4079
8018,20.683,5.8182,0.1,7.2482e-05,724.32,7.1927e-05,708.9,-2.2422e-05,0.0022899,-2.6403e-05,-29.914,2.3772
8019,20.499,5.8182,0.1,7.6552e-05,764.99,7.6009e-05,749.86,-2.3791e-05,0.0015504,-2.7705e-05,-29.408,2.3465
8020,20.315,5.8182,0.1,8.0636e-05,805.8,8.0105e-05,790.96,-2.5165e-05,0.00096414,-2.9012e-05,-28.903,2.3159
8021,20.13,5.8182,0.1,8.4735e-05,846.77,8.4216e-05,832.21,-2.6544e-05,0.00049639,-3.0324e-05,-28.399,2.2853
8022,19.946,5.8182,0.1,8.885e-05,887.88,8.8342e-05,873.61,-2.7928e-05,0.00014,-3.1641e-05,-27.9,2.2547
8023,19.762,5.8182,0.1,9.298e-05,929.16,9.2484e-05,915.16,-2.9316e-05,-0.00014984,-3.2964e-05,-27.407,2.2243
8024,19.578,5.8182,0.1,9.7127e-05,970.6,9.6641e-05,956.86,-3.0709e-05,-0.00038287,-3.4292e-05,-26.921,2.1938
8025,19.393,5.8182,0.1,0.00010129,1012.2,0.00010082,998.73,-3.2108e-05,-0.00055247,-3.5627e-05,-26.443,2.1635
8026,19.209,5.8182,0.1,0.00010547,1054,0.00010501,1040.8,-3.3511e-05,-0.0006759,-3.6968e-05,-25.974,2.1332
8027,19.025,5.8182,0.1,0.00010967,1096,0.00010921,1083,-3.492e-05,-0.00074986,-3.8316e-05,-25.514,2.103
8028,18.841,5.8182,0.1,0.00011389,1138.1,0.00011344,1125.3,-3.6334e-05,-0.00080574,-3.967e-05,-25.064,2.0729
8029,18.656,5.8182,0.1,0.00011812,1180.4,0.00011768,1167.9,-3.7754e-05,-0.00085129,-4.1031e-05,-24.624,2.0428
8030,18.472,5.8182,0.1,0.00012237,1222.9,0.00012194,1210.6,-3.9179e-05,-0.00086471,-4.2399e-05,-24.194,2.0128
8031,18.288,5.8182,0.1,0.00012665,1265.6,0.00012622,1253.5,-4.061e-05,-0.00086139,-4.3774e-05,-23.775,1.9829
8032,18.103,5.8182,0.1,0.00013094,1308.5,0.00013052,1296.6,-4.2046e-05,-0.00082761,-4.5156e-05,-23.366,1.9531
8033,17.919,5.8182,0.1,0.00013524,1351.5,0.00013484,1339.9,-4.3488e-05,-0.00079968,-4.6545e-05,-22.968,1.9233
8034,17.735,5.8182,0.1,0.00013957,1394.8,0.00013918,1383.3,-4.4936e-05,-0.00078145,-4.7941e-05,-22.579,1.8937
8035,17.551,5.8182,0.1,0.00014392,1438.2,0.00014353,1427,-4.639e-05,-0.00074111,-4.9345e-05,-22.201,1.8641
8036,17.366,5.8182,0.1,0.00014829,1481.9,0.0001479,1470.8,-4.785e-05,-0.00069115,-5.0755e-05,-21.832,1.8347
8037,17.182,5.8182,0.1,0.00015267,1525.7,0.0001523,1514.8,-4.9315e-05,-0.00062129,-5.2173e-05,-21.473,1.8053
8038,16.998,5.8182,0.1,0.00015708,1569.7,0.00015671,1559.1,-5.0787e-05,-0.00056501,-5.3598e-05,-21.122,1.776
8039,16.814,5.8182,0.1,0.00016151,1614,0.00016114,1603.5,-5.2265e-05,-0.00052761,-5.503e-05,-20.78,1.7469
8040,16.629,5.8182,0.1,0.00016595,1658.4,0.0001656,1648.1,-5.3749e-05,-0.00046995,-5.647e-05,-20.447,1.7178
8041,16.445,5.8182,0.1,0.00017042,1703,0.00017007,1692.9,-5.5239e-05,-0.00040646,-5.7917e-05,-20.121,1.6889
8042,16.261,5.8182,0.1,0.00017491,1747.8,0.00017456,1737.9,-5.6735e-05,-0.00032239,-5.9371e-05,-19.803,1.6601
8043,16.077,5.8182,0.1,0.00017941,1792.9,0.00017907,1783.1,-5.8238e-05,-0.00025893,-6.0832e-05,-19.491,1.6314
8044,15.892,5.8182,0.1,0.00018394,1838.1,0.0001836,1828.4,-5.9747e-05,-0.00021568,-6.23e-05,-19.186,1.6028
8045,15.708,5.8182,0.1,0.00018848,1883.5,0.00018816,1874,-6.1262e-05,-0.0001516,-6.3776e-05,-18.887,1.5743
8046,15.524,5.8182,0.1,0.00019305,1929.2,0.00019273,1919.8,-6.2784e-05,-8.196e-05,-6.5258e-05,-18.593,1.546
8047,15.339,5.8182,0.1,0.00019764,1975,0.00019732,1965.8,-6.4312e-05,1.1896e-05,-6.6748e-05,-18.304,1.5178
8048,15.155,5.8182,0.1,0.00020225,2021.1,0.00020193,2012,-6.5847e-05,8.1287e-05,-6.8245e-05,-18.02,1.4897
8049,14.971,5.8182,0.1,0.00020687,2067.3,0.00020657,2058.4,-6.7388e-05,0.00012916,-6.9749e-05,-17.739,1.4618
8050,14.787,5.8182,0.1,0.00021152,2113.8,0.00021122,2105,-6.8936e-05,0.00020046,-7.126e-05,-17.461,1.434
8051,14.602,5.8182,0.1,0.00021619,2160.4,0.00021589,2151.8,-7.049e-05,0.00027961,-7.2778e-05,-17.187,1.4063
8052,14.418,5.8182,0.1,0.00022088,2207.3,0.00022059,2198.8,-7.2051e-05,0.0003879,-7.4302e-05,-16.914,1.3788
8053,14.234,5.8182,0.1,0.00022559,2254.3,0.0002253,2246,-7.3619e-05,0.00046658,-7.5834e-05,-16.642,1.3514
8054,14.05,5.8182,0.1,0.00023032,2301.6,0.00023004,2293.4,-7.5193e-05,0.00053105,-7.7372e-05,-16.372,1.3242
8055,13.865,5.8182,0.1,0.00023507,2349.1,0.00023479,2341,-7.6775e-05,0.00061872,-7.8918e-05,-16.102,1.2972
8056,13.681,5.8182,0.1,0.00023984,2396.8,0.00023957,2388.8,-7.8362e-05,0.00071979,-8.047e-05,-15.831,1.2703
8057,13.497,5.8182,0.1,0.00024463,2444.7,0.00024437,2436.8,-7.9957e-05,0.00085349,-8.2028e-05,-15.559,1.2435
8058,13.313,5.8182,0.1,0.00024945,2492.7,0.00024918,2485.1,-8.1559e-05,0.00096543,-8.3593e-05,-15.285,1.2169
8059,13.128,5.8182,0.1,0.00025428,2541,0.00025402,2533.5,-8.3168e-05,0.0010551,-8.5165e-05,-15.008,1.1905
8060,12.944,5.8182,0.1,0.00025913,2589.5,0.00025888,2582.2,-8.4783e-05,0.00118,-8.6744e-05,-14.728,1.1643
8061,12.76,5.8182,0.1,0.00026401,2638.3,0.00026376,2631,-8.6406e-05,0.0013251,-8.8328e-05,-14.443,1.1382
8062,12.575,5.8182,0.1,0.0002689,2687.2,0.00026866,2680.1,-8.8036e-05,0.0015126,-8.992e-05,-14.153,1.1124
8063,12.391,5.8182,0.1,0.00027382,2736.3,0.00027358,2729.3,-8.9673e-05,0.0016827,-9.1517e-05,-13.857,1.0867
8064,12.207,5.8182,0.1,0.00027876,2785.6,0.00027852,2778.8,-9.1317e-05,0.0018368,-9.3121e-05,-13.554,1.0611
8065,12.023,5.8182,0.1,0.00028371,2835.2,0.00028349,2828.5,-9.2968e-05,0.0020421,-9.4731e-05,-13.242,1.0358
8066,11.838,5.8182,0.1,0.00028869,2884.9,0.00028847,2878.4,-9.4627e-05,0.0022805,-9.6347e-05,-12.922,1.0107
8067,11.654,5.8182,0.1,0.00029369,2934.9,0.00029347,2928.6,-9.6293e-05,0.0025832,-9.7969e-05,-12.591,0.98573
8068,11.47,5.8182,0.1,0.00029871,2985,0.0002985,2978.9,-9.7967e-05,0.0028832,-9.9598e-05,-12.249,0.96099
8069,11.286,5.8182,0.1,0.00030375,3035.4,0.00030355,3029.5,-9.9648e-05,0.0031916,-0.00010123,-11.894,0.93645
8070,11.101,5.8182,0.1,0.00030882,3086,0.00030862,3080.2,-0.00010134,0.0035837,-0.00010287,-11.525,0.91211
8071,10.917,5.8182,0.1,0.0003139,3136.8,0.00031371,3131.2,-0.00010303,0.0040492,-0.00010452,-11.141,0.88798
8072,10.733,5.8182,0.1,0.000319,3187.8,0.00031882,3182.5,-0.00010474,0.0046286,-0.00010617,-10.74,0.86406
8073,10.549,5.8182,0.1,0.00032413,3239.1,0.00032395,3233.9,-0.00010645,0.0052647,-0.00010783,-10.321,0.84036
8074,10.364,5.8182,0.1,0.00032928,3290.5,0.00032911,3285.6,-0.00010817,0.0059866,-0.00010949,-9.8822,0.81688
8075,10.18,5.8182,0.1,0.00033445,3342.2,0.00033429,3337.5,-0.0001099,0.0069098,-0.00011116,-9.4222,0.79361
8076,9.9957,5.8182,0.1,0.00033964,3394.1,0.00033949,3389.6,-0.00011164,0.0080227,-0.00011283,-8.9396,0.77058
8077,9.8115,5.8182,0.1,0.00034486,3446.2,0.00034471,3442,-0.00011338,0.0093926,-0.00011451,-8.4325,0.74778
8078,9.6272,5.8182,0.1,0.00035009,3498.5,0.00034996,3494.6,-0.00011514,0.011111,-0.00011619,-7.8994,0.7252
8079,9.4429,5.8182,0.1,0.00035535,3551.1,0.00035523,3547.4,-0.0001169,0.013282,-0.00011788,-7.3387,0.70287
8080,9.2587,5.8182,0.1,0.00036063,3603.8,0.00036052,3600.5,-0.00011867,0.016089,-0.00011957,-6.7491,0.68077
8081,9.0744,5.8182,0.1,0.00036593,3656.8,0.00036583,3653.8,-0.00012045,0.019797,-0.00012127,-6.129,0.65892
8082,8.8901,5.8182,0.1,0.00037126,3710,0.00037117,3707.3,-0.00012224,0.024826,-0.00012297,-5.4776,0.63732
8083,8.7059,5.8182,0.1,0.00037661,3763.5,0.00037653,3761.1,-0.00012404,0.031885,-0.00012468,-4.794,0.61597
8084,8.5216,5.8182,0.1,0.00038198,3817.2,0.00038191,3815.2,-0.00012585,0.042249,-0.0001264,-4.0785,0.59487
8085,8.3373,5.8182,0.1,0.00038738,3871.1,0.00038732,3869.5,-0.00012766,0.058437,-0.00012812,-3.3328,0.57403
8086,8.1531,5.8182,0.1,0.00039279,3925.2,0.00039275,3924,-0.00012949,0.08613,-0.00012984,-2.562,0.55346
8087,7.9688,5.8182,0.1,0.00039823,3979.6,0.00039821,3978.8,-0.00013132,0.14063,-0.00013157,-1.7817,0.53315
8088,7.7845,5.8182,0.1,0.0004037,4034.2,0.00040368,4033.8,-0.00013315,0.27309,-0.00013332,-1.0437,0.51311
8089,7.6003,5.8182,0.1,0.00040918,4089,0.00040918,4089.1,-0.00013495,0.64062,-0.0001351,-0.50676,0.49334
8090,7.416,5.8182,0.1,0.00041469,4144,0.0004147,4144.5,-0.00013672,1.3448,-0.00013694,-0.27521,0.47385
8091,7.2317,5.8182,0.1,0.00042021,4199.2,0.00042024,4200.2,-0.00013847,2.2224,-0.00013879,-0.1899,0.45464
8092,7.0475,5.8182,0.1,0.00042575,4254.6,0.0004258,4256.1,-0.00014022,3.1687,-0.00014067,-0.15181,0.43572
8093,6.8632,5.8182,0.1,0.0004313,4310.1,0.00043137,4312.1,-0.00014198,4.147,-0.00014255,-0.13205,0.41709
8094,6.6789,5.8182,0.1,0.00043687,4365.7,0.00043695,4368.2,-0.00014373,5.1376,-0.00014443,-0.12108,0.39874
8095,6.4947,5.8182,0.1,0.00044244,4421.3,0.00044254,4424.3,-0.00014549,6.1234,-0.00014632,-0.11503,0.3807
8096,6.3104,5.8182,0.1,0.000448,4476.9,0.00044812,4480.4,-0.00014724,7.0857,-0.0001482,-0.11205,0.36295
8097,6.1261,5.8182,0.1,0.00045356,4532.5,0.00045369,4536.4,-0.000149,8.0027,-0.00015008,-0.11117,0.34551
8098,5.9419,5.8182,0.1,0.00045909,4587.7,0.00045924,4592.1,-0.00015075,8.8478,-0.00015195,-0.11181,0.32838
8099,5.7576,5.8182,0.1,0.00046458,4642.6,0.00046474,4647.3,-0.0001525,9.5889,-0.00015379,-0.11359,0.31156
8100,5.5733,5.8182,0.1,0.00047,4696.8,0.00047017,4701.8,-0.00015424,10.187,-0.00015561,-0.11627,0.29505
8101,5.3891,5.8182,0.1,0.00047533,4750,0.00047551,4755.3,-0.00015597,10.597,-0.00015739,-0.11965,0.27886
8102,5.2048,5.8182,0.1,0.00048054,4802,0.00048072,4807.4,-0.00015767,10.762,-0.00015912,-0.12365,0.263
8103,5.0205,5.8182,0.1,0.00048556,4852.3,0.00048574,4857.5,-0.00015934,10.618,-0.00016077,-0.12825,0.24746
8104,4.8363,5.8182,0.1,0.00049035,4900.1,0.00049052,4905.1,-0.00016096,10.089,-0.00016233,-0.13371,0.23225
8105,4.652,5.8182,0.1,0.00049482,4944.7,0.00049497,4949.2,-0.00016252,9.0898,-0.00016375,-0.14087,0.21738
8106,4.4677,5.8182,0.1,0.00049886,4985.2,0.00049899,4988.9,-0.00016399,7.5217,-0.00016501,-0.15244,0.20284
8107,4.2835,5.8182,0.1,0.00050236,5020.2,0.00050245,5022.7,-0.00016533,5.2821,-0.00016606,-0.17867,0.18864
8108,4.0992,5.8182,0.1,0.00050515,5048,0.00050519,5049.1,-0.00016649,2.3182,-0.00016684,-0.29243,0.17478
8109,3.9149,5.8182,0.1,0.00050703,5066.8,0.00050699,5065.8,-0.0001672,0.16923,-0.00016751,-2.1699,0.16126
8110,3.7307,5.8182,0.1,0.00050773,5073.8,0.00050761,5070.3,-0.0001672,0.0053434,-0.00016815,-7.1266,0.14809
8111,3.5464,5.8182,0.1,0.00050695,5066,0.00050672,5059.3,-0.00016663,-0.021727,-0.00016842,-13.462,0.13526
8112,3.3621,5.8182,0.1,0.0005043,5039.5,0.00050394,5028.9,-0.00016537,-0.031288,-0.00016819,-21.195,0.12278
8113,3.1779,5.8182,0.1,0.00049931,4989.6,0.00049878,4974.3,-0.00016327,-0.041446,-0.00016731,-30.423,0.11064
8114,2.9936,5.8182,0.1,0.00049141,4910.7,0.00049069,4889.9,-0.00016013,-0.062441,-0.0001656,-41.197,0.098838
8115,2.8093,5.8182,0.1,0.00047996,4796.2,0.00047902,4769.2,-0.00015574,-0.10423,-0.00016284,-53.476,0.08737
8116,2.6251,5.8182,0.1,0.0004642,4638.8,0.00046302,4604.8,-0.00014987,-0.17604,-0.00015877,-67.068,0.076227
8117,2.4408,5.8182,0.1,0.00044331,4430.1,0.00044186,4388.6,-0.00014226,-0.28249,-0.00015308,-81.554,0.065398
8118,2.2565,5.8182,0.1,0.00041645,4161.7,0.00041473,4112.5,-0.00013267,-0.40727,-0.00014542,-96.202,0.05487
8119,2.0723,5.8182,0.1,0.00038281,3825.5,0.00038082,3769.1,-0.00012089,-0.49934,-0.00013545,-109.9,0.044624
8120,1.888,5.8182,0.1,0.00034173,3415,0.00033951,3352.6,-0.00010675,-0.35275,-0.00012282,-121.11,0.034639
8121,1.7037,5.8182,0.1,0.00029288,2926.8,0.00029049,2860.7,-9.0209e-05,0.29381,-0.0001073,-128.15,0.024893
8122,1.5195,5.8182,0.1,0.00023643,2362.7,0.000234,2296.7,-7.1257e-05,3.1387,-8.8898e-05,-129.4,0.01538
8123,1.3352,5.8182,0.1,0.0001739,1737.8,0.00017139,1672.2,-5.0135e-05,7.6935,-6.855e-05,-130.67,0.0062662
8124,1.1509,5.8182,0.1,0.00011462,1145.4,0.00011065,1056.8,-2.5944e-05,30.471,-5.38e-05,-178.83,0.0044754
8125,0.8,2.1818,0.1,0.0021936,21920,0.0021985,22091,-0.00065891,621.2,-0.00077549,-254.74,0.0068931
8126,0.64,2.1818,0.1,0.0017094,17082,0.0017273,17719,-0.00043197,1494.9,-0.0006453,-108.01,0.0042061
8127,0.48,2.1818,0.1,0.0013316,13307,0.0013508,14230,-0.00022607,2381.5,-0.0005653,-167.36,0.0023047
8128,0.32,2.1818,0.1,0.0010937,10929,0.0011265,12466,-9.5047e-05,3288.2,-0.00048263,376.09,0.0010178
8129,0.16,2.1818,0.1,0.001127,11263,0.0010825,11337,-1.8404e-05,3065.9,-0.00062468,-1489.4,0.00027412
8130,0.8,2.3636,0.1,0.0017404,17392,0.0017545,17838,-0.00050174,884.88,-0.00061449,37.753,0.0078338
8131,0.64,2.3636,0.1,0.0015958,15947,0.0016193,16766,-0.00038355,1716.8,-0.0006052,51.365,0.0048715
8132,0.48,2.3636,0.1,0.0013934,13925,0.0014161,15006,-0.00022191,2698.8,-0.00059549,-108.05,0.0026925
8133,0.32,2.3636,0.1,0.0012163,12154,0.0012532,13887,-0.0001027,3699.2,-0.0005374,433.03,0.0011966
8134,0.16,2.3636,0.1,0.0013056,13047,0.0012524,13082,-2.3951e-05,3491.7,-0.00072501,-1775.8,0.00032527
8135,0.8,2.5455,0.1,0.0015359,15348,0.001556,16054,-0.00037623,1535.9,-0.00058156,-6.8375,0.008462
8136,0.64,2.5455,0.1,0.0014798,14788,0.001506,15802,-0.00029717,2253.6,-0.00059359,26.327,0.0053486
8137,0.48,2.5455,0.1,0.001401,14000,0.0014231,15177,-0.00019321,3033,-0.00061492,-135.55,0.0029912
8138,0.32,2.5455,0.1,0.0012862,12853,0.0013263,14766,-9.6098e-05,4079.1,-0.00057182,504.7,0.0013419
8139,0.16,2.5455,0.1,0.0014477,14467,0.0013862,14453,-2.5361e-05,3847.5,-0.00080712,-2026.3,0.00036841
8140,0.8,2.7273,0.1,0.0014332,14322,0.0014564,15201,-0.00030522,1965.1,-0.0005672,-3.3184,0.0088443
8141,0.64,2.7273,0.1,0.0014161,14151,0.0014437,15310,-0.00024328,2634.6,-0.00058847,40.952,0.0056481
8142,0.48,2.7273,0.1,0.001393,13920,0.0014143,15192,-0.00016147,3353,-0.00062667,-142.35,0.0031865
8143,0.32,2.7273,0.1,0.0013237,13228,0.0013652,15276,-8.2219e-05,4400.8,-0.00059479,549.59,0.0014402
8144,0.16,2.7273,0.1,0.0015431,15420,0.0014752,15374,-2.3046e-05,4116.6,-0.00086396,-2201.6,0.00039822
8145,0.8,2.9091,0.1,0.0013899,13890,0.0014139,14849,-0.00027142,2185.5,-0.0005632,-6.8685,0.0090253
8146,0.64,2.9091,0.1,0.0013874,13864,0.001415,15091,-0.0002151,2842.9,-0.00058839,38.152,0.0057913
8147,0.48,2.9091,0.1,0.0013879,13870,0.0014083,15191,-0.00014301,3535.1,-0.00063322,-148.11,0.0032816
8148,0.32,2.9091,0.1,0.0013403,13394,0.0013822,15514,-7.264e-05,4582.7,-0.00060633,572.81,0.0014889
8149,0.16,2.9091,0.1,0.0015905,15894,0.0015192,15833,-2.0789e-05,4261.5,-0.00089267,-2289.4,0.0004131
8150,0.8,3.0909,0.1,0.0013899,13890,0.0014139,14849,-0.00027142,2185.5,-0.0005632,-6.8685,0.0090253
8151,0.64,3.0909,0.1,0.0013874,13864,0.001415,15091,-0.0002151,2842.9,-0.00058839,38.152,0.0057913
8152,0.48,3.0909,0.1,0.0013879,13870,0.0014083,15191,-0.00014301,3535.1,-0.00063322,-148.11,0.0032816
8153,0.32,3.0909,0.1,0.0013403,13394,0.0013822,15514,-7.264e-05,4582.7,-0.00060633,572.81,0.0014889
8154,0.16,3.0909,0.1,0.0015905,15894,0.0015192,15833,-2.0789e-05,4261.5,-0.00089267,-2289.4,0.0004131
8155,0.8,3.2727,0.1,0.0014332,14322,0.0014564,15201,-0.00030522,1965.1,-0.0005672,-3.3184,0.0088443
8156,0.64,3.2727,0.1,0.0014161,14151,0.0014437,15310,-0.00024328,2634.6,-0.00058847,40.952,0.0056481
8157,0.48,3.2727,0.1,0.001393,13920,0.0014143,15192,-0.00016147,3353,-0.00062667,-142.35,0.0031865
8158,0.32,3.2727,0.1,0.0013237,13228,0.0013652,15276,-8.2219e-05,4400.8,-0.00059479,549.59,0.0014402
8159,0.16,3.2727,0.1,0.0015431,15420,0.0014752,15374,-2.3046e-05,4116.6,-0.00086396,-2201.6,0.00039822
8160,0.8,3.4545,0.1,0.0015359,15348,0.001556,16054,-0.00037623,1535.9,-0.00058156,-6.8375,0.008462
8161,0.64,3.4545,0.1,0.0014798,14788,0.001506,15802,-0.00029717,2253.6,-0.00059359,26.327,0.0053486
8162,0.48,3.4545,0.1,0.001401,14000,0.0014231,15177,-0.00019321,3033,-0.00061492,-135.55,0.0029912
8163,0.32,3.4545,0.1,0.0012862,12853,0.0013263,14766,-9.6098e-05,4079.1,-0.00057182,504.7,0.0013419
8164,0.16,3.4545,0.1,0.0014477,14467,0.0013862,14453,-2.5361e-05,3847.5,-0.00080712,-2026.3,0.00036841
8165,0.8,3.6364,0.1,0.0017404,17392,0.0017545,17838,-0.00050174,884.88,-0.00061449,37.753,0.0078338
8166,0.64,3.6364,0.1,0.0015958,15947,0.0016193,16766,-0.00038355,1716.8,-0.0006052,51.365,0.0048715
8167,0.48,3.6364,0.1,0.0013934,13925,0.0014161,15006,-0.00022191,2698.8,-0.00059549,-108.05,0.0026925
8168,0.32,3.6364,0.1,0.0012163,12154,0.0012532,13887,-0.0001027,3699.2,-0.0005374,433.03,0.0011966
8169,0.16,3.6364,0.1,0.0013056,13047,0.0012524,13082,-2.3951e-05,3491.7,-0.00072501,-1775.8,0.00032527
8170,0.8,3.8182,0.1,0.0021936,21920,0.0021985,22090,-0.00065891,621.2,-0.00077549,-254.74,0.0068931
8171,0.64,3.8182,0.1,0.0017094,17082,0.0017273,17719,-0.00043197,1494.9,-0.0006453,-108.01,0.0042061
8172,0.48,3.8182,0.1,0.0013316,13307,0.0013508,14230,-0.00022607,2381.5,-0.0005653,-167.36,0.0023047
8173,0.32,3.8182,0.1,0.0010937,10929,0.0011265,12466,-9.5047e-05,3288.2,-0.00048263,376.09,0.0010178
8174,0.16,3.8182,0.1,0.001127,11263,0.0010825,11337,-1.8404e-05,3065.9,-0.00062468,-1489.4,0.00027412
8175,0.16,4.1818,0.1,0.00074021,7397,0.00071242,7473.5,-1.3483e-05,2019.3,-0.00040815,-946.06,0.00017574
8176,0.16,4.3636,0.1,0.0005681,5677.1,0.0005473,5730,-1.3595e-05,1515.6,-0.00031188,-725.62,0.00013462
8177,0.16,4.5455,0.1,0.00042137,4210.8,0.00040624,4250.5,-1.1256e-05,1113.6,-0.00023069,-535.21,9.9302e-05
8178,0.16,4.7273,0.1,0.00030311,3029,0.00029245,3062.9,-8.0846e-06,804.8,-0.00016568,-379.29,7.0505e-05
8179,0.16,4.9091,0.1,0.00021229,2121.5,0.00020503,2152,-5.3128e-06,571.54,-0.00011587,-259.14,4.846e-05
8180,0.16,5.0909,0.1,0.0001455,1454,0.00014068,1480.4,-3.3445e-06,398.23,-7.9286e-05,-172.36,3.2529e-05
8181,0.16,5.2727,0.1,9.8067e-05,979.99,9.4944e-05,1000.6,-2.285e-06,270.02,-5.3278e-05,-113.12,2.151e-05
8182,0.16,5.4545,0.1,6.5123e-05,650.78,6.3262e-05,664.24,-2.4758e-06,170.31,-3.4881e-05,-73.172,1.3992e-05
8183,0.16,5.6364,0.1,4.2446e-05,424.17,4.1668e-05,427.79,-4.7665e-06,78.903,-2.1171e-05,-44.356,8.4339e-06
8184,0.16,5.8182,0.1,3.0324e-05,303.03,2.9447e-05,280.93,-8.0294e-06,-0.64935,-1.3234e-05,-39.754,3.2814e-06
8185,0.32,4.1818,0.1,0.00074098,7404.7,0.00076297,8363.2,-8.322e-05,2005.2,-0.00031905,233.25,0.00065499
8186,0.32,4.3636,0.1,0.00056798,5675.9,0.00058486,6357.9,-7.7996e-05,1377.5,-0.00023761,178.19,0.00049897
8187,0.32,4.5455,0.1,0.00042217,4218.7,0.00043433,4696.9,-6.343e-05,956.95,-0.00017433,123.72,0.00036644
8188,0.32,4.7273,0.1,0.00030602,3058.1,0.00031473,3399.8,-4.662e-05,684.79,-0.00012618,87.036,0.00026022
8189,0.32,4.9091,0.1,0.00021783,2176.8,0.00022395,2420,-3.2527e-05,492.99,-9.0306e-05,58.86,0.00017979
8190,0.32,5.0909,0.1,0.00015228,1521.7,0.00015648,1692.8,-2.1916e-05,352.35,-6.367e-05,38.623,0.0001217
8191,0.32,5.2727,0.1,0.00010486,1047.9,0.0001077,1164.7,-1.4929e-05,243.36,-4.4018e-05,24.792,8.1222e-05
8192,0.32,5.4545,0.1,7.1903e-05,718.54,7.3746e-05,791.51,-1.1558e-05,150.57,-2.9633e-05,14.764,5.3354e-05
8193,0.32,5.6364,0.1,5.1051e-05,510.16,5.193e-05,540.6,-1.187e-05,61.232,-1.9434e-05,4.4009,3.3214e-05
8194,0.32,5.8182,0.1,4.2312e-05,422.83,4.1417e-05,400.81,-1.125e-05,5.0932,-1.7878e-05,-44.709,1.6098e-05
8195,0.48,4.1818,0.1,0.00090987,9092.5,0.00091755,9397.7,-0.00022082,844.44,-0.00035343,-151.96,0.0014686
8196,0.48,4.3636,0.1,0.00066723,6667.7,0.00067075,6804,-0.00017797,427.02,-0.00025086,-120.62,0.0011032
8197,0.48,4.5455,0.1,0.00048566,4853.3,0.00048725,4919.8,-0.00013317,258.2,-0.00018147,-104.73,0.00080134
8198,0.48,4.7273,0.1,0.00034898,3487.4,0.00035026,3540.3,-9.4911e-05,195.44,-0.00013076,-73.938,0.0005659
8199,0.48,4.9091,0.1,0.00024776,2475.9,0.000249,2525.9,-6.5376e-05,163.76,-9.3815e-05,-49.924,0.00039083
8200,0.48,5.0909,0.1,0.00017359,1734.7,0.0001747,1779.1,-4.428e-05,133.75,-6.6456e-05,-32.869,0.00026545
8201,0.48,5.2727,0.1,0.00011972,1196.4,0.0001206,1231.9,-2.9616e-05,103.21,-4.6319e-05,-22.287,0.00017814
8202,0.48,5.4545,0.1,8.1381e-05,813.25,8.1944e-05,836.48,-2.0091e-05,69.83,-3.1578e-05,-16.483,0.00011813
8203,0.48,5.6364,0.1,5.5216e-05,551.78,5.5359e-05,559.3,-1.4513e-05,34.311,-2.1188e-05,-15.839,7.58e-05
8204,0.48,5.8182,0.1,4.1319e-05,412.9,4.0583e-05,395.32,-1.091e-05,8.4228,-1.7278e-05,-39.424,4.2587e-05
8205,0.64,4.1818,0.1,0.0012538,12530,0.0012091,11558,-0.00027381,415.86,-0.00059615,-2006,0.0025878
8206,0.64,4.3636,0.1,0.00084118,8406,0.00079876,7427.5,-0.00018497,36.109,-0.00041826,-1716.7,0.0018999
8207,0.64,4.5455,0.1,0.00057838,5779.8,0.00055402,5220.6,-0.00013047,77.605,-0.00027847,-1034.4,0.0013568
8208,0.64,4.7273,0.1,0.00040854,4082.6,0.00039305,3719.2,-9.6406e-05,41.617,-0.00019161,-673.73,0.00094988
8209,0.64,4.9091,0.1,0.00028753,2873.3,0.00027819,2652.3,-7.0067e-05,35.63,-0.00013105,-422.55,0.00065389
8210,0.64,5.0909,0.1,0.00020063,2004.9,0.00019499,1870.1,-5.0332e-05,26.829,-8.912e-05,-264.62,0.00044428
8211,0.64,5.2727,0.1,0.00013755,1374.6,0.00013417,1293.7,-3.515e-05,21.436,-5.9869e-05,-164.29,0.00029904
8212,0.64,5.4545,0.1,9.1688e-05,916.24,8.9649e-05,867.76,-2.3541e-05,17.298,-3.9482e-05,-102.47,0.00019976
8213,0.64,5.6364,0.1,5.8093e-05,580.53,5.683e-05,551.32,-1.4618e-05,14.486,-2.5165e-05,-64.761,0.00013123
8214,0.64,5.8182,0.1,3.4663e-05,346.39,3.3606e-05,324.41,-7.5111e-06,15.47,-1.6235e-05,-50.075,8.0738e-05
8215,0.64,4,0.1,0.0017191,17180,0.001723,17384,-0.00045943,986.41,-0.00065495,-482.63,0.0033946
8216,0.48,4,0.1,0.0011416,11408,0.0011552,12075,-0.00020939,1821.3,-0.00048036,-214.61,0.0018794
8217,0.32,4,0.1,0.00092582,9251.8,0.00095347,10526,-8.6186e-05,2714.1,-0.00040632,308.69,0.00083051
8218,0.16,4,0.1,0.00093115,9305.1,0.00089518,9395.4,-1.3754e-05,2566.1,-0.00051538,-1202.9,0.00022257
8219,0.96667,3.8182,0.1,0.002166,21645,0.0021478,21122,-0.00069115,-208.39,-0.00077311,-824.25,0.010813
8220,0.96667,3.6364,0.1,0.0016961,16949,0.0017032,17165,-0.0005269,408.89,-0.00057738,29.58,0.011852
8221,0.96667,3.4545,0.1,0.0014982,14972,0.0015139,15490,-0.00040213,1093.9,-0.00054742,2.2734,0.012541
8222,0.96667,3.2727,0.1,0.0013961,13951,0.0014158,14650,-0.00033235,1515.4,-0.00053323,5.9855,0.012962
8223,0.96667,3.0909,0.1,0.001353,13520,0.0013741,14301,-0.00030016,1721,-0.00052869,3.9703,0.013161
8224,0.96667,2.9091,0.1,0.001353,13520,0.0013741,14301,-0.00030016,1721,-0.00052869,3.9703,0.013161
8225,0.96667,2.7273,0.1,0.0013961,13951,0.0014158,14650,-0.00033235,1515.4,-0.00053323,5.9855,0.012962
8226,0.96667,2.5455,0.1,0.0014982,14972,0.0015139,15490,-0.00040213,1093.9,-0.00054742,2.2734,0.012541
8227,0.96667,2.3636,0.1,0.0016961,16949,0.0017032,17165,-0.0005269,408.89,-0.00057738,29.58,0.011852
8228,0.96667,2.1818,0.1,0.002166,21645,0.0021478,21122,-0.00069115,-208.39,-0.00077311,-824.24,0.010813
8229,0.64,2,0.1,0.0017191,17180,0.001723,17384,-0.00045943,986.41,-0.00065495,-482.63,0.0033946
8230,0.48,2,0.1,0.0011416,11408,0.0011552,12075,-0.00020939,1821.3,-0.00048036,-214.61,0.0018794
8231,0.32,2,0.1,0.00092582,9251.9,0.00095347,10526,-8.6186e-05,2714.1,-0.00040632,308.69,0.00083051
8232,0.16,2,0.1,0.00093115,9305.1,0.00089518,9395.4,-1.3754e-05,2566.1,-0.00051538,-1202.9,0.00022257
8233,0.96667,5.8182,0.1,6.2179e-05,621.36,5.924e-05,547.27,-1.581e-05,-16.621,-2.9419e-05,-118.87,0.013223
8234,0.96667,5.6364,0.1,0.00011408,1140,0.00010589,950.19,-2.3641e-05,-23.026,-6.1044e-05,-304.05,0.011316
8235,0.96667,5.4545,0.1,0.00016375,1636.3,0.00014843,1301.3,-2.7898e-05,-23.55,-9.5016e-05,-527.85,0.0093811
8236,0.96667,5.2727,0.1,0.00021678,2166.3,0.00019233,1651,-3.0897e-05,-26.19,-0.00013319,-794.77,0.0074232
8237,0.96667,5.0909,0.1,0.00027656,2763.7,0.00024056,2025.5,-3.3082e-05,-30.544,-0.00017758,-1116.2,0.0054717
8238,0.96667,4.9091,0.1,0.00034751,3472.7,0.00029662,2453.2,-3.4428e-05,-34.195,-0.00023142,-1514.3,0.0036362
8239,0.96667,4.7273,0.1,0.00043667,4363.7,0.00036608,2971.2,-3.6065e-05,-50.378,-0.00029976,-2031.7,0.002398
8240,0.96667,4.5455,0.1,0.00056116,5607.8,0.0004606,3670.5,-3.3914e-05,-45.033,-0.00039791,-2780,0.0028944
8241,0.96667,4.3636,0.1,0.00072003,7195.3,0.00058852,4621.6,-4.8371e-05,-163.76,-0.00051277,-3653.1,0.0046871
8242,0.96667,4.1818,0.1,0.0012852,12843,0.00095728,6983.6,2.9362e-05,11.605,-0.0010153,-7837.6,0.0068683
8243,0.96667,4,0.1,0.0032632,32609,0.0031086,29361,-0.00063848,1206.9,-0.0016468,-6369.4,0.0092263
8244,0.8,4,0.1,0.0032226,32204,0.0031933,32105,-0.0006554,3187.3,-0.0014256,-2599.9,0.0055361
8245,0.8,4.1818,0.1,0.0011123,11115,0.00097419,8307.3,-0.00013279,-10.126,-0.00070597,-4316.7,0.0038916
8246,0.8,4.3636,0.1,0.00061434,6139.1,0.00058722,5438.7,-0.00016332,-200.59,-0.00028314,-1100.9,0.0027756
8247,0.8,4.5455,0.1,0.00045208,4517.7,0.00043116,4007.6,-0.00010944,-54.329,-0.00021641,-858.06,0.0019493
8248,0.8,4.7273,0.1,0.00032126,3210.4,0.00030966,2913.7,-8.5244e-05,-53.469,-0.00014392,-494.35,0.001353
8249,0.8,4.9091,0.1,0.00023038,2302.2,0.00022328,2118.2,-6.2824e-05,-31.395,-0.00010003,-310.94,0.00092741
8250,0.8,5.0909,0.1,0.00016302,1629.1,0.00015869,1514.6,-4.5944e-05,-22.901,-6.8548e-05,-192.74,0.00062918
8251,0.8,5.2727,0.1,0.00011277,1126.9,0.00011013,1056.4,-3.2502e-05,-15.35,-4.625e-05,-118.65,0.00042387
8252,0.8,5.4545,0.1,7.4946e-05,748.95,7.3363e-05,706.03,-2.2e-05,-10.484,-3.0134e-05,-71.596,0.00028451
8253,0.8,5.6364,0.1,4.5945e-05,459.13,4.503e-05,433.98,-1.3755e-05,-7.7057,-1.8161e-05,-40.812,0.00019
8254,0.8,5.8182,0.1,2.2047e-05,220.31,2.1604e-05,208.26,-6.5106e-06,-2.9758,-8.7932e-06,-20.127,0.00012371
8255,0.96667,0.18182,0.1,6.2179e-05,621.36,5.924e-05,547.27,-1.581e-05,-16.621,-2.9419e-05,-118.87,0.013223
8256,0.96667,0.36364,0.1,0.00011408,1140,0.00010589,950.19,-2.3641e-05,-23.026,-6.1044e-05,-304.05,0.011316
8257,0.96667,0.54545,0.1,0.00016375,1636.3,0.00014843,1301.3,-2.7898e-05,-23.55,-9.5016e-05,-527.85,0.0093811
8258,0.96667,0.72727,0.1,0.00021678,2166.3,0.00019233,1651,-3.0897e-05,-26.19,-0.00013319,-794.77,0.0074232
8259,0.96667,0.90909,0.1,0.00027656,2763.7,0.00024056,2025.5,-3.3082e-05,-30.544,-0.00017758,-1116.2,0.0054717
8260,0.96667,1.0909,0.1,0.00034751,3472.7,0.00029662,2453.2,-3.4428e-05,-34.195,-0.00023142,-1514.3,0.0036362
8261,0.96667,1.2727,0.1,0.00043667,4363.7,0.00036608,2971.2,-3.6065e-05,-50.378,-0.00029976,-2031.7,0.002398
8262,0.96667,1.4545,0.1,0.00056116,5607.8,0.0004606,3670.5,-3.3914e-05,-45.033,-0.00039791,-2780,0.0028944
8263,0.96667,1.6364,0.1,0.00072003,7195.3,0.00058852,4621.6,-4.8371e-05,-163.76,-0.00051277,-3653.1,0.0046871
8264,0.96667,1.8182,0.1,0.0012852,12843,0.00095728,6983.6,2.9362e-05,11.604,-0.0010153,-7837.6,0.0068683
8265,0.96667,2,0.1,0.0032632,32609,0.0031086,29361,-0.00063848,1206.9,-0.0016468,-6369.4,0.0092263
8266,0.8,2,0.1,0.0032226,32204,0.0031933,32105,-0.0006554,3187.3,-0.0014256,-2599.9,0.0055361
8267,0.8,1.8182,0.1,0.0011123,11115,0.00097419,8307.3,-0.00013279,-10.126,-0.00070597,-4316.7,0.0038916
8268,0.8,1.6364,0.1,0.00061434,6139.1,0.00058722,5438.7,-0.00016332,-200.59,-0.00028314,-1100.9,0.0027756
8269,0.8,1.4545,0.1,0.00045208,4517.7,0.00043116,4007.6,-0.00010944,-54.329,-0.00021641,-858.06,0.0019493
8270,0.8,1.2727,0.1,0.00032126,3210.4,0.00030966,2913.7,-8.5244e-05,-53.469,-0.00014392,-494.35,0.001353
8271,0.8,1.0909,0.1,0.00023038,2302.2,0.00022328,2118.2,-6.2824e-05,-31.395,-0.00010003,-310.94,0.00092741
8272,0.8,0.90909,0.1,0.00016302,1629.1,0.00015869,1514.6,-4.5944e-05,-22.901,-6.8548e-05,-192.74,0.00062918
8273,0.8,0.72727,0.1,0.00011277,1126.9,0.00011013,1056.4,-3.2502e-05,-15.35,-4.625e-05,-118.65,0.00042387
8274,0.8,0.54545,0.1,7.4946e-05,748.95,7.3363e-05,706.03,-2.2e-05,-10.484,-3.0134e-05,-71.596,0.00028451
8275,0.8,0.36364,0.1,4.5945e-05,459.13,4.503e-05,433.98,-1.3755e-05,-7.7057,-1.8161e-05,-40.812,0.00019
8276,0.8,0.18182,0.1,2.2047e-05,220.31,2.1604e-05,208.26,-6.5106e-06,-2.9758,-8.7932e-06,-20.127,0.00012371
8277,0.96667,6,0.1,7.9546e-06,79.491,6.1592e-06,72.217,3.0298e-06,48.704,-5.6321e-06,-16.378,0.01511
8278,1.1509,6,0.1,7.6608e-05,765.55,7.6252e-05,755.95,-2.3578e-05,5.8683,-2.7577e-05,-24.179,0.0061208
8279,1.3352,6,0.1,0.00015089,1507.9,0.00015037,1492.8,-4.8755e-05,-3.3239,-5.1839e-05,-26.496,0.0046498
8280,1.5195,6,0.1,0.00021688,2167.3,0.00021639,2153.3,-7.0201e-05,-0.069996,-7.3875e-05,-27.679,0.013601
8281,1.7037,6,0.1,0.00027562,2754.3,0.00027517,2741.4,-8.9592e-05,0.67445,-9.318e-05,-26.282,0.023136
8282,1.888,6,0.1,0.00032662,3264,0.00032625,3253.1,-0.0001065,1.6077,-0.00010981,-23.25,0.032916
8283,2.0723,6,0.1,0.00036984,3695.9,0.00036953,3686.9,-0.0001209,2.0164,-0.0001238,-19.778,0.042934
8284,2.2565,6,0.1,0.00040554,4052.6,0.0004053,4045.5,-0.00013284,2.1507,-0.0001353,-16.347,0.05321
8285,2.4408,6,0.1,0.00043432,4340.2,0.00043413,4334.6,-0.0001425,2.0596,-0.00014453,-13.234,0.063763
8286,2.6251,6,0.1,0.00045693,4566.1,0.00045678,4561.8,-0.00015011,1.8371,-0.00015176,-10.529,0.074613
8287,2.8093,6,0.1,0.00047421,4738.8,0.00047409,4735.4,-0.00015595,1.5462,-0.00015725,-8.2428,0.085773
8288,2.9936,6,0.1,0.00048697,4866.3,0.00048688,4863.8,-0.00016028,1.2339,-0.00016129,-6.3425,0.097255
8289,3.1779,6,0.1,0.00049597,4956.3,0.00049591,4954.4,-0.00016336,0.93022,-0.00016412,-4.7808,0.10907
8290,3.3621,6,0.1,0.00050189,5015.5,0.00050185,5014.1,-0.0001654,0.65297,-0.00016595,-3.5095,0.12122
8291,3.5464,6,0.1,0.00050531,5049.6,0.00050528,5048.6,-0.0001666,0.41111,-0.00016698,-2.4852,0.13371
8292,3.7307,6,0.1,0.00050671,5063.6,0.00050669,5062.9,-0.00016711,0.20813,-0.00016737,-1.6714,0.14654
8293,3.9149,6,0.1,0.00050651,5061.6,0.00050649,5061.1,-0.00016709,0.045039,-0.00016724,-1.0392,0.15972
8294,4.0992,6,0.1,0.00050502,5046.8,0.00050501,5046.4,-0.00016664,-0.072866,-0.0001667,-0.57091,0.17324
8295,4.2835,6,0.1,0.00050254,5021.9,0.00050253,5021.7,-0.00016583,-0.079699,-0.00016586,-0.31475,0.1871
8296,4.4677,6,0.1,0.00049926,4989.2,0.00049926,4989.1,-0.00016473,0.088838,-0.00016479,-0.3207,0.20131
8297,4.652,6,0.1,0.00049538,4950.4,0.00049538,4950.3,-0.00016344,0.21985,-0.00016352,-0.36384,0.21585
8298,4.8363,6,0.1,0.00049102,4906.9,0.00049102,4906.8,-0.000162,0.27672,-0.00016208,-0.39712,0.23073
8299,5.0205,6,0.1,0.00048631,4859.7,0.0004863,4859.6,-0.00016044,0.26628,-0.00016053,-0.41809,0.24595
8300,5.2048,6,0.1,0.00048132,4809.8,0.00048131,4809.7,-0.0001588,0.19849,-0.00015888,-0.42831,0.26149
8301,5.3891,6,0.1,0.00047612,4757.9,0.00047611,4757.7,-0.00015709,0.083025,-0.00015716,-0.42985,0.27737
8302,5.5733,6,0.1,0.00047077,4704.4,0.00047076,4704.2,-0.00015534,-0.071126,-0.00015539,-0.4248,0.29356
8303,5.7576,6,0.1,0.00046531,4649.9,0.0004653,4649.6,-0.00015355,-0.25488,-0.00015357,-0.41604,0.31008
8304,5.9419,6,0.1,0.00045978,4594.6,0.00045976,4594.1,-0.00015173,-0.39005,-0.00015175,-0.47625,0.32691
8305,6.1261,6,0.1,0.00045419,4538.7,0.00045417,4538.2,-0.00014988,-0.37824,-0.00014992,-0.69893,0.34405
8306,6.3104,6,0.1,0.00044857,4482.6,0.00044855,4481.9,-0.00014801,-0.35976,-0.00014809,-0.93953,0.3615
8307,6.4947,6,0.1,0.00044293,4426.3,0.00044291,4425.5,-0.00014614,-0.33964,-0.00014625,-1.1893,0.37926
8308,6.6789,6,0.1,0.00043729,4369.9,0.00043726,4369,-0.00014426,-0.31882,-0.00014441,-1.4443,0.39732
8309,6.8632,6,0.1,0.00043165,4313.5,0.00043162,4312.5,-0.00014239,-0.29782,-0.00014257,-1.7014,0.41567
8310,7.0475,6,0.1,0.00042602,4257.3,0.00042599,4256.2,-0.00014051,-0.27701,-0.00014074,-1.958,0.43432
8311,7.2317,6,0.1,0.00042041,4201.2,0.00042037,4200,-0.00013865,-0.25665,-0.00013891,-2.2121,0.45325
8312,7.416,6,0.1,0.00041481,4145.3,0.00041477,4143.9,-0.00013679,-0.23693,-0.00013708,-2.4621,0.47247
8313,7.6003,6,0.1,0.00040924,4089.6,0.00040919,4088.1,-0.00013493,-0.21798,-0.00013526,-2.7069,0.49198
8314,7.7845,6,0.1,0.00040368,4034.1,0.00040363,4032.5,-0.00013309,-0.19989,-0.00013345,-2.9455,0.51176
8315,7.9688,6,0.1,0.00039816,3978.8,0.0003981,3977.1,-0.00013125,-0.18271,-0.00013165,-3.1773,0.53181
8316,8.1531,6,0.1,0.00039265,3923.8,0.00039259,3922,-0.00012942,-0.16647,-0.00012985,-3.4018,0.55214
8317,8.3373,6,0.1,0.00038717,3869.1,0.00038711,3867.2,-0.0001276,-0.15115,-0.00012806,-3.6189,0.57273
8318,8.5216,6,0.1,0.00038172,3814.6,0.00038165,3812.6,-0.00012579,-0.13677,-0.00012628,-3.8284,0.59358
8319,8.7059,6,0.1,0.00037629,3760.3,0.00037622,3758.2,-0.00012399,-0.12329,-0.00012451,-4.0304,0.61469
8320,8.8901,6,0.1,0.00037089,3706.3,0.00037082,3704.2,-0.00012219,-0.11068,-0.00012274,-4.2249,0.63606
8321,9.0744,6,0.1,0.00036551,3652.6,0.00036544,3650.3,-0.00012041,-0.098914,-0.00012098,-4.4122,0.65768
8322,9.2587,6,0.1,0.00036016,3599.1,0.00036008,3596.8,-0.00011863,-0.087942,-0.00011923,-4.5925,0.67954
8323,9.4429,6,0.1,0.00035483,3545.9,0.00035475,3543.5,-0.00011687,-0.077725,-0.00011749,-4.7662,0.70166
8324,9.6272,6,0.1,0.00034953,3492.9,0.00034945,3490.4,-0.00011511,-0.068219,-0.00011575,-4.9334,0.72401
8325,9.8115,6,0.1,0.00034425,3440.2,0.00034417,3437.6,-0.00011336,-0.05939,-0.00011403,-5.0947,0.74659
8326,9.9957,6,0.1,0.000339,3387.7,0.00033891,3385,-0.00011161,-0.051181,-0.00011231,-5.2503,0.76942
8327,10.18,6,0.1,0.00033377,3335.4,0.00033368,3332.7,-0.00010988,-0.043558,-0.00011059,-5.4007,0.79247
8328,10.364,6,0.1,0.00032857,3283.4,0.00032847,3280.6,-0.00010816,-0.036491,-0.00010889,-5.5461,0.81574
8329,10.549,6,0.1,0.00032338,3231.6,0.00032329,3228.7,-0.00010644,-0.029889,-0.00010719,-5.687,0.83924
8330,10.733,6,0.1,0.00031823,3180.1,0.00031813,3177.1,-0.00010473,-0.02379,-0.0001055,-5.8237,0.86296
8331,10.917,6,0.1,0.00031309,3128.7,0.00031299,3125.7,-0.00010303,-0.018163,-0.00010382,-5.9567,0.8869
8332,11.101,6,0.1,0.00030798,3077.6,0.00030787,3074.6,-0.00010133,-0.012906,-0.00010214,-6.0862,0.91104
8333,11.286,6,0.1,0.00030288,3026.8,0.00030278,3023.6,-9.9645e-05,-0.0080167,-0.00010047,-6.2126,0.9354
8334,11.47,6,0.1,0.00029782,2976.1,0.00029771,2972.9,-9.7965e-05,-0.0034413,-9.8808e-05,-6.3361,0.95996
8335,11.654,6,0.1,0.00029277,2925.7,0.00029266,2922.4,-9.6294e-05,0.0007891,-9.7153e-05,-6.4573,0.98472
8336,11.838,6,0.1,0.00028774,2875.5,0.00028763,2872.2,-9.4629e-05,0.0046957,-9.5505e-05,-6.5763,1.0097
8337,12.023,6,0.1,0.00028274,2825.5,0.00028263,2822.1,-9.2972e-05,0.0083678,-9.3864e-05,-6.6935,1.0348
8338,12.207,6,0.1,0.00027776,2775.7,0.00027764,2772.3,-9.1322e-05,0.011802,-9.223e-05,-6.8092,1.0602
8339,12.391,6,0.1,0.0002728,2726.1,0.00027268,2722.7,-8.968e-05,0.015042,-9.0603e-05,-6.9235,1.0857
8340,12.575,6,0.1,0.00026786,2676.8,0.00026774,2673.3,-8.8044e-05,0.018054,-8.8983e-05,-7.0369,1.1114
8341,12.76,6,0.1,0.00026295,2627.6,0.00026282,2624.1,-8.6416e-05,0.020853,-8.737e-05,-7.1496,1.1373
8342,12.944,6,0.1,0.00025805,2578.7,0.00025793,2575.1,-8.4794e-05,0.023517,-8.5764e-05,-7.2618,1.1634
8343,13.128,6,0.1,0.00025317,2530,0.00025305,2526.3,-8.318e-05,0.026039,-8.4165e-05,-7.3738,1.1897
8344,13.313,6,0.1,0.00024832,2481.5,0.00024819,2477.8,-8.1572e-05,0.028453,-8.2572e-05,-7.4857,1.2161
8345,13.497,6,0.1,0.00024349,2433.2,0.00024336,2429.4,-7.9972e-05,0.030725,-8.0987e-05,-7.5979,1.2427
8346,13.681,6,0.1,0.00023868,2385.1,0.00023854,2381.3,-7.8378e-05,0.032871,-7.9408e-05,-7.7107,1.2694
8347,13.865,6,0.1,0.00023388,2337.2,0.00023375,2333.3,-7.6791e-05,0.034954,-7.7837e-05,-7.824,1.2963
8348,14.05,6,0.1,0.00022911,2289.5,0.00022898,2285.6,-7.5211e-05,0.036968,-7.6272e-05,-7.9382,1.3234
8349,14.234,6,0.1,0.00022436,2242.1,0.00022422,2238.1,-7.3637e-05,0.038943,-7.4714e-05,-8.0535,1.3506
8350,14.418,6,0.1,0.00021963,2194.8,0.00021949,2190.7,-7.207e-05,0.040845,-7.3163e-05,-8.1702,1.378
8351,14.602,6,0.1,0.00021492,2147.7,0.00021478,2143.6,-7.051e-05,0.042689,-7.1619e-05,-8.2883,1.4056
8352,14.787,6,0.1,0.00021023,2100.9,0.00021009,2096.7,-6.8957e-05,0.04453,-7.0082e-05,-8.4081,1.4332
8353,14.971,6,0.1,0.00020556,2054.2,0.00020542,2050,-6.741e-05,0.046363,-6.8551e-05,-8.5297,1.461
8354,15.155,6,0.1,0.00020092,2007.8,0.00020077,2003.5,-6.5869e-05,0.048216,-6.7027e-05,-8.6533,1.489
8355,15.339,6,0.1,0.00019629,1961.5,0.00019614,1957.1,-6.4335e-05,0.050058,-6.5511e-05,-8.7792,1.5171
8356,15.524,6,0.1,0.00019168,1915.5,0.00019153,1911,-6.2808e-05,0.051903,-6.4001e-05,-8.9075,1.5453
8357,15.708,6,0.1,0.00018709,1869.6,0.00018694,1865.1,-6.1287e-05,0.053803,-6.2497e-05,-9.0382,1.5737
8358,15.892,6,0.1,0.00018252,1824,0.00018237,1819.4,-5.9773e-05,0.055754,-6.1001e-05,-9.1718,1.6021
8359,16.077,6,0.1,0.00017797,1778.5,0.00017781,1773.9,-5.8265e-05,0.057783,-5.9511e-05,-9.3081,1.6307
8360,16.261,6,0.1,0.00017344,1733.2,0.00017328,1728.5,-5.6763e-05,0.059866,-5.8028e-05,-9.4475,1.6595
8361,16.445,6,0.1,0.00016894,1688.2,0.00016877,1683.4,-5.5268e-05,0.062016,-5.6552e-05,-9.59,1.6883
8362,16.629,6,0.1,0.00016445,1643.3,0.00016428,1638.5,-5.3779e-05,0.064284,-5.5083e-05,-9.7358,1.7173
8363,16.814,6,0.1,0.00015998,1598.6,0.00015981,1593.7,-5.2296e-05,0.06667,-5.362e-05,-9.885,1.7463
8364,16.998,6,0.1,0.00015552,1554.2,0.00015535,1549.2,-5.0819e-05,0.069201,-5.2164e-05,-10.038,1.7755
8365,17.182,6,0.1,0.00015109,1509.9,0.00015092,1504.8,-4.9349e-05,0.071863,-5.0715e-05,-10.194,1.8048
8366,17.366,6,0.1,0.00014668,1465.8,0.0001465,1460.6,-4.7884e-05,0.074672,-4.9272e-05,-10.354,1.8341
8367,17.551,6,0.1,0.00014229,1421.9,0.00014211,1416.6,-4.6426e-05,0.077675,-4.7836e-05,-10.518,1.8636
8368,17.735,6,0.1,0.00013791,1378.2,0.00013773,1372.8,-4.4974e-05,0.080882,-4.6407e-05,-10.686,1.8932
8369,17.919,6,0.1,0.00013356,1334.6,0.00013337,1329.2,-4.3528e-05,0.084325,-4.4984e-05,-10.858,1.9228
8370,18.103,6,0.1,0.00012922,1291.3,0.00012903,1285.8,-4.2087e-05,0.087994,-4.3567e-05,-11.033,1.9526
8371,18.288,6,0.1,0.0001249,1248.1,0.00012471,1242.5,-4.0653e-05,0.091916,-4.2157e-05,-11.213,1.9824
8372,18.472,6,0.1,0.0001206,1205.2,0.0001204,1199.5,-3.9224e-05,0.096145,-4.0754e-05,-11.396,2.0124
8373,18.656,6,0.1,0.00011632,1162.4,0.00011612,1156.6,-3.7801e-05,0.10069,-3.9356e-05,-11.583,2.0424
8374,18.841,6,0.1,0.00011205,1119.8,0.00011185,1113.9,-3.6384e-05,0.1056,-3.7965e-05,-11.774,2.0724
8375,19.025,6,0.1,0.00010781,1077.3,0.0001076,1071.3,-3.4972e-05,0.11087,-3.658e-05,-11.969,2.1026
8376,19.209,6,0.1,0.00010358,1035,0.00010337,1029,-3.3566e-05,0.11655,-3.5201e-05,-12.166,2.1328
8377,19.393,6,0.1,9.9364e-05,992.96,9.915e-05,986.77,-3.2165e-05,0.12269,-3.3828e-05,-12.367,2.1631
8378,19.578,6,0.1,9.5169e-05,951.03,9.4951e-05,944.75,-3.077e-05,0.12933,-3.246e-05,-12.57,2.1935
8379,19.762,6,0.1,9.099e-05,909.27,9.0768e-05,902.88,-2.938e-05,0.13651,-3.1099e-05,-12.776,2.2239
8380,19.946,6,0.1,8.6827e-05,867.67,8.6602e-05,861.18,-2.7995e-05,0.14427,-2.9743e-05,-12.983,2.2544
8381,20.13,6,0.1,8.2681e-05,826.24,8.2451e-05,819.64,-2.6616e-05,0.15267,-2.8392e-05,-13.192,2.2849
8382,20.315,6,0.1,7.8551e-05,784.97,7.8317e-05,778.26,-2.5242e-05,0.16177,-2.7047e-05,-13.401,2.3155
8383,20.499,6,0.1,7.4436e-05,743.85,7.4198e-05,737.03,-2.3872e-05,0.17165,-2.5706e-05,-13.609,2.3462
8384,20.683,6,0.1,7.0337e-05,702.88,7.0094e-05,695.96,-2.2508e-05,0.18239,-2.4371e-05,-13.815,2.3769
8385,20.867,6,0.1,6.6253e-05,662.07,6.6006e-05,655.04,-2.1149e-05,0.19406,-2.3041e-05,-14.019,2.4076
8386,21.052,6,0.1,6.2184e-05,621.41,6.1933e-05,614.28,-1.9795e-05,0.20677,-2.1715e-05,-14.218,2.4384
8387,21.236,6,0.1,5.813e-05,580.9,5.7875e-05,573.66,-1.8446e-05,0.22066,-2.0393e-05,-14.411,2.4693
8388,21.42,6,0.1,5.4091e-05,540.54,5.3832e-05,533.21,-1.7102e-05,0.23586,-1.9076e-05,-14.596,2.5001
8389,21.605,6,0.1,5.0068e-05,500.33,4.9804e-05,492.91,-1.5764e-05,0.25255,-1.7763e-05,-14.769,2.531
8390,21.789,6,0.1,4.6061e-05,460.29,4.5792e-05,452.77,-1.4432e-05,0.27095,-1.6455e-05,-14.93,2.562
8391,21.973,6,0.1,4.207e-05,420.41,4.1797e-05,412.8,-1.3105e-05,0.29132,-1.515e-05,-15.072,2.5929
8392,22.157,6,0.1,3.8096e-05,380.7,3.782e-05,373.02,-1.1785e-05,0.31403,-1.3849e-05,-15.192,2.6239
8393,22.342,6,0.1,3.4142e-05,341.19,3.3861e-05,333.45,-1.0473e-05,0.33953,-1.2552e-05,-15.284,2.655
8394,22.526,6,0.1,3.021e-05,301.89,2.9925e-05,294.1,-9.1685e-06,0.36842,-1.1259e-05,-15.341,2.686
8395,22.71,6,0.1,2.6303e-05,262.85,2.6013e-05,255.02,-7.8743e-06,0.40162,-9.971e-06,-15.352,2.7171
8396,22.894,6,0.1,2.2427e-05,224.11,2.2132e-05,216.27,-6.5923e-06,0.44013,-8.6875e-06,-15.302,2.7481
8397,23.079,6,0.1,1.8588e-05,185.76,1.8289e-05,177.92,-5.3257e-06,0.48679,-7.4096e-06,-15.171,2.7792
8398,23.263,6,0.1,1.4801e-05,147.91,1.4496e-05,140.11,-4.0799e-06,0.5406,-6.1381e-06,-14.925,2.8103
8399,23.447,6,0.1,1.1083e-05,110.76,1.077e-05,103.06,-2.8626e-06,0.62522,-4.8723e-06,-14.475,2.8414
8400,23.631,6,0.1,7.483e-06,74.779,7.1535e-06,67.159,-1.6916e-06,0.70067,-3.623e-06,-13.812,2.8725
8401,23.816,6,0.1,4.0106e-06,40.078,3.682e-06,33.346,-6.149e-07,1.0607,-2.2881e-06,-11.511,2.9037
8402,24,6,0.1,9.4699e-07,9.4633,7.4072e-07,5.1673,-8.6544e-08,-1.0485,-7.0879e-07,-5.7238,2.9348
8403,24,5.8182,0.1,3.9748e-06,39.721,1.9554e-06,6.7341,7.7491e-07,-2.1358,-3.8216e-06,-36.672,2.9349
8404,24,5.6364,0.1,6.7137e-06,67.091,2.9022e-06,7.1227,1.6654e-06,-2.1694,-6.581e-06,-64.13,2.9351
8405,24,5.4545,0.1,8.8234e-06,88.174,3.6218e-06,7.2464,2.3414e-06,-2.374,-8.7011e-06,-85.343,2.9352
8406,24,5.2727,0.1,1.0582e-05,105.74,4.209e-06,7.2863,2.9189e-06,-2.4071,-1.0465e-05,-102.97,2.9354
8407,24,5.0909,0.1,1.208e-05,120.72,4.7051e-06,7.2655,3.4127e-06,-2.4448,-1.1969e-05,-118.02,2.9355
8408,24,4.9091,0.1,1.3374e-05,133.65,5.1306e-06,7.2255,3.8407e-06,-2.4668,-1.3267e-05,-131,2.9356
8409,24,4.7273,0.1,1.4495e-05,144.85,5.4979e-06,7.1752,4.2122e-06,-2.4844,-1.4391e-05,-142.26,2.9357
8410,24,4.5455,0.1,1.5465e-05,154.54,5.8148e-06,7.1226,4.5344e-06,-2.4976,-1.5363e-05,-152,2.9358
8411,24,4.3636,0.1,1.63e-05,162.89,6.087e-06,7.0712,4.8121e-06,-2.5079,-1.6201e-05,-160.39,2.9359
8412,24,4.1818,0.1,1.7012e-05,170,6.3187e-06,7.0237,5.0491e-06,-2.5159,-1.6915e-05,-167.54,2.936
8413,24,4,0.1,1.7609e-05,175.97,6.5129e-06,6.9813,5.248e-06,-2.5223,-1.7514e-05,-173.55,2.9361
8414,24,3.8182,0.1,1.8098e-05,180.86,6.6717e-06,6.945,5.411e-06,-2.5272,-1.8004e-05,-178.46,2.9361
8415,24,3.6364,0.1,1.8484e-05,184.71,6.797e-06,6.9154,5.5397e-06,-2.5309,-1.8391e-05,-182.34,2.9362
8416,24,3.4545,0.1,1.8771e-05,187.58,6.8899e-06,6.893,5.6353e-06,-2.5336,-1.8679e-05,-185.22,2.9362
8417,24,3.2727,0.1,1.896e-05,189.47,6.9514e-06,6.8779,5.6986e-06,-2.5353,-1.8869e-05,-187.13,2.9363
8418,24,3.0909,0.1,1.9055e-05,190.42,6.982e-06,6.8704,5.7301e-06,-2.5362,-1.8964e-05,-188.07,2.9363
8419,24,2.9091,0.1,1.9055e-05,190.42,6.982e-06,6.8704,5.7301e-06,-2.5362,-1.8964e-05,-188.07,2.9363
8420,24,2.7273,0.1,1.896e-05,189.47,6.9514e-06,6.8779,5.6986e-06,-2.5353,-1.8869e-05,-187.13,2.9363
8421,24,2.5455,0.1,1.8771e-05,187.58,6.8899e-06,6.893,5.6353e-06,-2.5336,-1.8679e-05,-185.22,2.9362
8422,24,2.3636,0.1,1.8484e-05,184.71,6.797e-06,6.9154,5.5397e-06,-2.5309,-1.8391e-05,-182.34,2.9362
8423,24,2.1818,0.1,1.8098e-05,180.86,6.6717e-06,6.945,5.411e-06,-2.5272,-1.8004e-05,-178.46,2.9361
8424,24,2,0.1,1.7609e-05,175.97,6.5129e-06,6.9813,5.248e-06,-2.5223,-1.7514e-05,-173.55,2.9361
8425,24,1.8182,0.1,1.7012e-05,170,6.3187e-06,7.0237,5.0491e-06,-2.5159,-1.6915e-05,-167.54,2.936
8426,24,1.6364,0.1,1.63e-05,162.89,6.087e-06,7.0712,4.8121e-06,-2.5079,-1.6201e-05,-160.39,2.9359
8427,24,1.4545,0.1,1.5465e-05,154.54,5.8148e-06,7.1226,4.5344e-06,-2.4976,-1.5363e-05,-152,2.9358
8428,24,1.2727,0.1,1.4495e-05,144.85,5.4978e-06,7.1752,4.2122e-06,-2.4844,-1.4391e-05,-142.26,2.9357
8429,24,1.0909,0.1,1.3374e-05,133.65,5.1306e-06,7.2255,3.8407e-06,-2.4668,-1.3267e-05,-131,2.9356
8430,24,0.90909,0.1,1.208e-05,120.72,4.7051e-06,7.2655,3.4127e-06,-2.4448,-1.1969e-05,-118.02,2.9355
8431,24,0.72727,0.1,1.0582e-05,105.74,4.209e-06,7.2863,2.9189e-06,-2.4071,-1.0465e-05,-102.97,2.9354
8432,24,0.54545,0.1,8.8234e-06,88.174,3.6218e-06,7.2464,2.3414e-06,-2.374,-8.7011e-06,-85.343,2.9352
8433,24,0.36364,0.1,6.7137e-06,67.091,2.9022e-06,7.1227,1.6654e-06,-2.1694,-6.581e-06,-64.13,2.9351
8434,24,0.18182,0.1,3.9748e-06,39.721,1.9554e-06,6.7341,7.7491e-07,-2.1358,-3.8216e-06,-36.672,2.9349
8435,1.5894e-15,0.18182,0.1,8.0256e-06,80.2,8.2579e-06,91.203,-7.1234e-07,23.804,-3.5475e-06,2.5024,0
8436,3.1789e-15,0.36364,0.1,1.7349e-05,173.37,2.2808e-05,334.07,2.5876e-07,164.64,-7.5685e-07,157.01,0
8437,4.7683e-15,0.54545,0.1,2.9093e-05,290.73,3.8472e-05,566.6,3.8322e-07,280.41,-7.9851e-07,271.53,0
8438,6.3578e-15,0.72727,0.1,4.5017e-05,449.85,5.9556e-05,877.44,5.3928e-07,434.01,-1.1368e-06,421.42,0
8439,7.9472e-15,0.90909,0.1,6.847e-05,684.23,9.0636e-05,1336.1,8.623e-07,661.58,-1.6672e-06,642.58,0
8440,9.5366e-15,1.0909,0.1,0.00010255,1024.8,0.00013586,2004.3,1.3556e-06,993.66,-2.3565e-06,965.77,0
8441,1.1126e-14,1.2727,0.1,0.00014973,1496.3,0.00019852,2930.8,1.9773e-06,1454.1,-3.1309e-06,1415.8,0
8442,1.2716e-14,1.4545,0.1,0.00021097,2108.2,0.00027993,4135.9,2.6304e-06,2052.4,-3.8393e-06,2003.8,0
8443,1.4305e-14,1.6364,0.1,0.0002852,2850,0.00037868,5598.4,3.2258e-06,2777.4,-4.3775e-06,2720.3,0
8444,1.5894e-14,1.8182,0.1,0.00037121,3709.5,0.00049313,7293.8,3.8208e-06,3617.3,-4.8656e-06,3552,0
8445,1.7484e-14,2,0.1,0.00047018,4698.5,0.00062485,9245.5,4.5447e-06,4584.8,-5.394e-06,4510.1,0
8446,1.9073e-14,2.1818,0.1,0.00058126,5808.6,0.0007728,11439,5.2881e-06,5672.3,-5.7263e-06,5589.5,0
8447,2.0663e-14,2.3636,0.1,0.0006941,6936.2,0.00092314,13669,5.463e-06,6773.7,-5.3911e-06,6692.1,0
8448,2.2252e-14,2.5455,0.1,0.00079111,7905.7,0.0010524,15584,4.6381e-06,7712.3,-4.2257e-06,7645.7,0
8449,2.3842e-14,2.7273,0.1,0.00085904,8584.5,0.0011428,16924,3.1006e-06,8360.8,-2.5837e-06,8318.1,0
8450,2.5431e-14,2.9091,0.1,0.00089312,8925,0.0011881,17595,1.4073e-06,8678.7,-8.9153e-07,8661.4,0
8451,2.702e-14,3.0909,0.1,0.00089312,8925,0.0011881,17595,1.4073e-06,8678.7,-8.9153e-07,8661.4,0
8452,2.861e-14,3.2727,0.1,0.00085904,8584.5,0.0011428,16924,3.1006e-06,8360.8,-2.5837e-06,8318.1,0
8453,3.0199e-14,3.4545,0.1,0.00079111,7905.7,0.0010524,15584,4.6381e-06,7712.3,-4.2256e-06,7645.7,0
8454,3.1789e-14,3.6364,0.1,0.0006941,6936.2,0.00092314,13669,5.463e-06,6773.7,-5.3911e-06,6692.1,0
8455,3.3378e-14,3.8182,0.1,0.00058126,5808.6,0.0007728,11439,5.2882e-06,5672.3,-5.7263e-06,5589.5,0
8456,3.4968e-14,4,0.1,0.00047018,4698.5,0.00062485,9245.5,4.5448e-06,4584.8,-5.394e-06,4510.1,0
8457,3.6557e-14,4.1818,0.1,0.00037121,3709.5,0.00049313,7293.8,3.8208e-06,3617.3,-4.8656e-06,3552,0
8458,3.8147e-14,4.3636,0.1,0.0002852,2850,0.00037868,5598.4,3.2258e-06,2777.4,-4.3775e-06,2720.3,0
8459,3.9736e-14,4.5455,0.1,0.00021097,2108.2,0.00027993,4135.9,2.6304e-06,2052.4,-3.8393e-06,2003.8,0
8460,4.1325e-14,4.7273,0.1,0.00014973,1496.3,0.00019852,2930.8,1.9774e-06,1454.1,-3.1309e-06,1415.8,0
8461,4.2915e-14,4.9091,0.1,0.00010255,1024.8,0.00013586,2004.3,1.3556e-06,993.66,-2.3565e-06,965.77,0
8462,4.4504e-14,5.0909,0.1,6.847e-05,684.22,9.0636e-05,1336.1,8.623e-07,661.58,-1.6672e-06,642.58,0
8463,4.6094e-14,5.2727,0.1,4.5016e-05,449.85,5.9556e-05,877.44,5.3928e-07,434.01,-1.1368e-06,421.42,0
8464,4.7683e-14,5.4545,0.1,2.9093e-05,290.73,3.8472e-05,566.6,3.8322e-07,280.41,-7.9851e-07,271.53,0
8465,4.9273e-14,5.6364,0.1,1.7349e-05,173.37,2.2808e-05,334.07,2.5876e-07,164.64,-7.5685e-07,157.01,0
8466,5.0862e-14,5.8182,0.1,8.0256e-06,80.2,8.2579e-06,91.203,-7.1234e-07,23.804,-3.5475e-06,2.5024,0
8467,24,0,0.1,9.4699e-07,9.4633,7.4072e-07,5.1672,-8.6544e-08,-1.0485,-7.0879e-07,-5.7238,2.9348
8468,23.816,0,0.1,4.0106e-06,40.078,3.682e-06,33.346,-6.149e-07,1.0607,-2.2881e-06,-11.511,2.9037
8469,23.631,0,0.1,7.483e-06,74.778,7.1535e-06,67.159,-1.6916e-06,0.70067,-3.623e-06,-13.812,2.8725
8470,23.447,0,0.1,1.1083e-05,110.76,1.077e-05,103.06,-2.8626e-06,0.62523,-4.8723e-06,-14.475,2.8414
8471,23.263,0,0.1,1.4801e-05,147.91,1.4496e-05,140.11,-4.0799e-06,0.5406,-6.1381e-06,-14.925,2.8103
8472,23.079,0,0.1,1.8588e-05,185.76,1.8289e-05,177.92,-5.3257e-06,0.48679,-7.4096e-06,-15.171,2.7792
8473,22.894,0,0.1,2.2427e-05,224.11,2.2132e-05,216.27,-6.5923e-06,0.44014,-8.6875e-06,-15.302,2.7481
8474,22.71,0,0.1,2.6303e-05,262.85,2.6013e-05,255.02,-7.8743e-06,0.40162,-9.971e-06,-15.352,2.7171
8475,22.526,0,0.1,3.021e-05,301.89,2.9925e-05,294.1,-9.1685e-06,0.36842,-1.1259e-05,-15.341,2.686
8476,22.342,0,0.1,3.4142e-05,341.19,3.3861e-05,333.45,-1.0473e-05,0.33953,-1.2552e-05,-15.284,2.655
8477,22.157,0,0.1,3.8096e-05,380.7,3.782e-05,373.02,-1.1785e-05,0.31404,-1.3849e-05,-15.192,2.6239
8478,21.973,0,0.1,4.207e-05,420.41,4.1797e-05,412.8,-1.3105e-05,0.29133,-1.515e-05,-15.072,2.5929
8479,21.789,0,0.1,4.6061e-05,460.29,4.5792e-05,452.77,-1.4432e-05,0.27096,-1.6455e-05,-14.93,2.562
8480,21.605,0,0.1,5.0068e-05,500.33,4.9804e-05,492.91,-1.5764e-05,0.25255,-1.7763e-05,-14.769,2.531
8481,21.42,0,0.1,5.4091e-05,540.54,5.3832e-05,533.21,-1.7102e-05,0.23586,-1.9076e-05,-14.596,2.5001
8482,21.236,0,0.1,5.813e-05,580.9,5.7875e-05,573.66,-1.8446e-05,0.22066,-2.0393e-05,-14.411,2.4693
8483,21.052,0,0.1,6.2184e-05,621.41,6.1933e-05,614.28,-1.9795e-05,0.20677,-2.1715e-05,-14.218,2.4384
8484,20.867,0,0.1,6.6253e-05,662.07,6.6006e-05,655.04,-2.1149e-05,0.19406,-2.3041e-05,-14.019,2.4076
8485,20.683,0,0.1,7.0337e-05,702.88,7.0094e-05,695.96,-2.2508e-05,0.18239,-2.4371e-05,-13.815,2.3769
8486,20.499,0,0.1,7.4436e-05,743.85,7.4198e-05,737.03,-2.3872e-05,0.17165,-2.5706e-05,-13.609,2.3462
8487,20.315,0,0.1,7.8551e-05,784.97,7.8317e-05,778.26,-2.5242e-05,0.16177,-2.7047e-05,-13.401,2.3155
8488,20.13,0,0.1,8.2681e-05,826.24,8.2451e-05,819.64,-2.6616e-05,0.15266,-2.8392e-05,-13.192,2.2849
8489,19.946,0,0.1,8.6827e-05,867.68,8.6602e-05,861.18,-2.7995e-05,0.14427,-2.9743e-05,-12.983,2.2544
8490,19.762,0,0.1,9.099e-05,909.27,9.0768e-05,902.88,-2.938e-05,0.13651,-3.1099e-05,-12.776,2.2239
8491,19.578,0,0.1,9.5169e-05,951.03,9.4951e-05,944.75,-3.077e-05,0.12933,-3.246e-05,-12.57,2.1935
8492,19.393,0,0.1,9.9364e-05,992.96,9.915e-05,986.77,-3.2165e-05,0.12269,-3.3828e-05,-12.367,2.1631
8493,19.209,0,0.1,0.00010358,1035.1,0.00010337,1029,-3.3566e-05,0.11655,-3.5201e-05,-12.166,2.1328
8494,19.025,0,0.1,0.00010781,1077.3,0.0001076,1071.3,-3.4972e-05,0.11087,-3.658e-05,-11.969,2.1026
8495,18.841,0,0.1,0.00011205,1119.8,0.00011185,1113.9,-3.6384e-05,0.1056,-3.7965e-05,-11.774,2.0724
8496,18.656,0,0.1,0.00011632,1162.4,0.00011612,1156.6,-3.7801e-05,0.1007,-3.9356e-05,-11.583,2.0424
8497,18.472,0,0.1,0.0001206,1205.2,0.0001204,1199.5,-3.9224e-05,0.096146,-4.0754e-05,-11.396,2.0124
8498,18.288,0,0.1,0.0001249,1248.1,0.00012471,1242.5,-4.0653e-05,0.091917,-4.2157e-05,-11.213,1.9824
8499,18.103,0,0.1,0.00012922,1291.3,0.00012903,1285.8,-4.2087e-05,0.087995,-4.3567e-05,-11.033,1.9526
8500,17.919,0,0.1,0.00013356,1334.6,0.00013337,1329.2,-4.3528e-05,0.084321,-4.4984e-05,-10.858,1.9228
8501,17.735,0,0.1,0.00013791,1378.2,0.00013773,1372.8,-4.4974e-05,0.080883,-4.6407e-05,-10.686,1.8932
8502,17.551,0,0.1,0.00014229,1421.9,0.00014211,1416.6,-4.6426e-05,0.077676,-4.7836e-05,-10.518,1.8636
8503,17.366,0,0.1,0.00014668,1465.8,0.0001465,1460.6,-4.7884e-05,0.074672,-4.9272e-05,-10.354,1.8341
8504,17.182,0,0.1,0.00015109,1509.9,0.00015092,1504.8,-4.9349e-05,0.071864,-5.0715e-05,-10.194,1.8048
8505,16.998,0,0.1,0.00015552,1554.2,0.00015535,1549.2,-5.0819e-05,0.069202,-5.2164e-05,-10.038,1.7755
8506,16.814,0,0.1,0.00015998,1598.6,0.00015981,1593.7,-5.2296e-05,0.066671,-5.362e-05,-9.885,1.7463
8507,16.629,0,0.1,0.00016445,1643.3,0.00016428,1638.5,-5.3779e-05,0.064286,-5.5083e-05,-9.7358,1.7173
8508,16.445,0,0.1,0.00016894,1688.2,0.00016877,1683.4,-5.5268e-05,0.062017,-5.6552e-05,-9.59,1.6883
8509,16.261,0,0.1,0.00017344,1733.2,0.00017328,1728.5,-5.6763e-05,0.059867,-5.8028e-05,-9.4475,1.6595
8510,16.077,0,0.1,0.00017797,1778.5,0.00017781,1773.9,-5.8265e-05,0.057783,-5.9511e-05,-9.3081,1.6307
8511,15.892,0,0.1,0.00018252,1824,0.00018237,1819.4,-5.9773e-05,0.055756,-6.1001e-05,-9.1718,1.6021
8512,15.708,0,0.1,0.00018709,1869.6,0.00018694,1865.1,-6.1287e-05,0.053803,-6.2497e-05,-9.0383,1.5737
8513,15.524,0,0.1,0.00019168,1915.5,0.00019153,1911,-6.2808e-05,0.051902,-6.4001e-05,-8.9075,1.5453
8514,15.339,0,0.1,0.00019629,1961.5,0.00019614,1957.1,-6.4335e-05,0.050059,-6.5511e-05,-8.7792,1.5171
8515,15.155,0,0.1,0.00020092,2007.8,0.00020077,2003.5,-6.5869e-05,0.048218,-6.7027e-05,-8.6533,1.489
8516,14.971,0,0.1,0.00020556,2054.2,0.00020542,2050,-6.741e-05,0.046364,-6.8551e-05,-8.5297,1.461
8517,14.787,0,0.1,0.00021023,2100.9,0.00021009,2096.7,-6.8957e-05,0.044532,-7.0082e-05,-8.4081,1.4332
8518,14.602,0,0.1,0.00021492,2147.7,0.00021478,2143.6,-7.051e-05,0.04269,-7.1619e-05,-8.2883,1.4056
8519,14.418,0,0.1,0.00021963,2194.8,0.00021949,2190.7,-7.207e-05,0.040846,-7.3163e-05,-8.1702,1.378
8520,14.234,0,0.1,0.00022436,2242.1,0.00022422,2238.1,-7.3637e-05,0.038944,-7.4714e-05,-8.0535,1.3506
8521,14.05,0,0.1,0.00022911,2289.5,0.00022898,2285.6,-7.5211e-05,0.036969,-7.6272e-05,-7.9383,1.3234
8522,13.865,0,0.1,0.00023388,2337.2,0.00023375,2333.3,-7.6791e-05,0.034955,-7.7837e-05,-7.824,1.2963
8523,13.681,0,0.1,0.00023868,2385.1,0.00023854,2381.3,-7.8378e-05,0.032871,-7.9408e-05,-7.7107,1.2694
8524,13.497,0,0.1,0.00024349,2433.2,0.00024336,2429.4,-7.9972e-05,0.030727,-8.0987e-05,-7.5979,1.2427
8525,13.313,0,0.1,0.00024832,2481.5,0.00024819,2477.8,-8.1572e-05,0.028452,-8.2572e-05,-7.4857,1.2161
8526,13.128,0,0.1,0.00025317,2530,0.00025305,2526.3,-8.318e-05,0.026038,-8.4165e-05,-7.3738,1.1897
8527,12.944,0,0.1,0.00025805,2578.7,0.00025793,2575.1,-8.4794e-05,0.023516,-8.5764e-05,-7.2618,1.1634
8528,12.76,0,0.1,0.00026295,2627.6,0.00026282,2624.1,-8.6416e-05,0.020854,-8.737e-05,-7.1496,1.1373
8529,12.575,0,0.1,0.00026786,2676.8,0.00026774,2673.3,-8.8044e-05,0.018053,-8.8983e-05,-7.0369,1.1114
8530,12.391,0,0.1,0.0002728,2726.1,0.00027268,2722.7,-8.968e-05,0.015043,-9.0603e-05,-6.9235,1.0857
8531,12.207,0,0.1,0.00027776,2775.7,0.00027764,2772.3,-9.1322e-05,0.011803,-9.223e-05,-6.8092,1.0602
8532,12.023,0,0.1,0.00028274,2825.5,0.00028263,2822.1,-9.2972e-05,0.008368,-9.3864e-05,-6.6935,1.0348
8533,11.838,0,0.1,0.00028774,2875.5,0.00028763,2872.2,-9.4629e-05,0.0046957,-9.5505e-05,-6.5764,1.0097
8534,11.654,0,0.1,0.00029277,2925.7,0.00029266,2922.4,-9.6294e-05,0.00078894,-9.7153e-05,-6.4573,0.98472
8535,11.47,0,0.1,0.00029782,2976.1,0.00029771,2972.9,-9.7965e-05,-0.0034396,-9.8808e-05,-6.3361,0.95996
8536,11.286,0,0.1,0.00030288,3026.8,0.00030278,3023.6,-9.9645e-05,-0.0080161,-0.00010047,-6.2126,0.9354
8537,11.101,0,0.1,0.00030798,3077.6,0.00030787,3074.6,-0.00010133,-0.012906,-0.00010214,-6.0862,0.91104
8538,10.917,0,0.1,0.00031309,3128.7,0.00031299,3125.7,-0.00010303,-0.018162,-0.00010382,-5.9567,0.8869
8539,10.733,0,0.1,0.00031823,3180.1,0.00031813,3177.1,-0.00010473,-0.023791,-0.0001055,-5.8237,0.86296
8540,10.549,0,0.1,0.00032338,3231.6,0.00032329,3228.7,-0.00010644,-0.029889,-0.00010719,-5.687,0.83924
8541,10.364,0,0.1,0.00032857,3283.4,0.00032847,3280.6,-0.00010816,-0.03649,-0.00010889,-5.5461,0.81574
8542,10.18,0,0.1,0.00033377,3335.4,0.00033368,3332.7,-0.00010988,-0.043558,-0.00011059,-5.4007,0.79247
8543,9.9957,0,0.1,0.000339,3387.7,0.00033891,3385,-0.00011161,-0.051182,-0.00011231,-5.2503,0.76942
8544,9.8115,0,0.1,0.00034425,3440.2,0.00034417,3437.6,-0.00011336,-0.05939,-0.00011403,-5.0947,0.74659
8545,9.6272,0,0.1,0.00034953,3492.9,0.00034945,3490.4,-0.00011511,-0.06822,-0.00011575,-4.9334,0.72401
8546,9.4429,0,0.1,0.00035483,3545.9,0.00035475,3543.5,-0.00011687,-0.077725,-0.00011749,-4.7662,0.70166
8547,9.2587,0,0.1,0.00036016,3599.1,0.00036008,3596.8,-0.00011863,-0.087942,-0.00011923,-4.5925,0.67954
8548,9.0744,0,0.1,0.00036551,3652.6,0.00036544,3650.3,-0.00012041,-0.098914,-0.00012098,-4.4122,0.65768
8549,8.8901,0,0.1,0.00037089,3706.3,0.00037082,3704.2,-0.00012219,-0.11068,-0.00012274,-4.2249,0.63606
8550,8.7059,0,0.1,0.00037629,3760.3,0.00037622,3758.2,-0.00012399,-0.12329,-0.00012451,-4.0304,0.61469
8551,8.5216,0,0.1,0.00038172,3814.6,0.00038165,3812.6,-0.00012579,-0.13677,-0.00012628,-3.8284,0.59358
8552,8.3373,0,0.1,0.00038717,3869.1,0.00038711,3867.2,-0.0001276,-0.15115,-0.00012806,-3.6189,0.57273
8553,8.1531,0,0.1,0.00039265,3923.8,0.00039259,3922,-0.00012942,-0.16647,-0.00012985,-3.4018,0.55214
8554,7.9688,0,0.1,0.00039816,3978.8,0.0003981,3977.1,-0.00013125,-0.18271,-0.00013165,-3.1773,0.53181
8555,7.7845,0,0.1,0.00040368,4034.1,0.00040363,4032.5,-0.00013309,-0.19989,-0.00013345,-2.9455,0.51176
8556,7.6003,0,0.1,0.00040924,4089.6,0.00040919,4088.1,-0.00013493,-0.21799,-0.00013526,-2.7069,0.49198
8557,7.416,0,0.1,0.00041481,4145.3,0.00041477,4143.9,-0.00013679,-0.23693,-0.00013708,-2.4621,0.47247
8558,7.2317,0,0.1,0.00042041,4201.2,0.00042037,4200,-0.00013865,-0.25665,-0.00013891,-2.2121,0.45325
8559,7.0475,0,0.1,0.00042602,4257.3,0.00042599,4256.2,-0.00014051,-0.27701,-0.00014074,-1.958,0.43432
8560,6.8632,0,0.1,0.00043165,4313.5,0.00043162,4312.5,-0.00014239,-0.29783,-0.00014257,-1.7014,0.41567
8561,6.6789,0,0.1,0.00043729,4369.9,0.00043726,4369,-0.00014426,-0.31882,-0.00014441,-1.4444,0.39732
8562,6.4947,0,0.1,0.00044293,4426.3,0.00044291,4425.5,-0.00014614,-0.33964,-0.00014625,-1.1894,0.37926
8563,6.3104,0,0.1,0.00044857,4482.6,0.00044855,4481.9,-0.00014801,-0.35976,-0.00014809,-0.93953,0.3615
8564,6.1261,0,0.1,0.00045419,4538.7,0.00045417,4538.2,-0.00014988,-0.37824,-0.00014992,-0.69893,0.34405
8565,5.9419,0,0.1,0.00045978,4594.6,0.00045976,4594.1,-0.00015173,-0.39005,-0.00015175,-0.47625,0.32691
8566,5.7576,0,0.1,0.00046531,4649.9,0.0004653,4649.6,-0.00015355,-0.25489,-0.00015357,-0.41604,0.31008
8567,5.5733,0,0.1,0.00047077,4704.4,0.00047076,4704.2,-0.00015534,-0.071133,-0.00015539,-0.4248,0.29356
8568,5.3891,0,0.1,0.00047612,4757.9,0.00047611,4757.7,-0.00015709,0.08302,-0.00015716,-0.42985,0.27737
8569,5.2048,0,0.1,0.00048132,4809.8,0.00048131,4809.7,-0.0001588,0.19848,-0.00015888,-0.42831,0.26149
8570,5.0205,0,0.1,0.00048631,4859.7,0.0004863,4859.6,-0.00016044,0.26628,-0.00016053,-0.41809,0.24595
8571,4.8363,0,0.1,0.00049102,4906.9,0.00049102,4906.8,-0.000162,0.27672,-0.00016208,-0.39712,0.23073
8572,4.652,0,0.1,0.00049538,4950.4,0.00049538,4950.3,-0.00016344,0.21985,-0.00016352,-0.36384,0.21585
8573,4.4677,0,0.1,0.00049926,4989.2,0.00049926,4989.1,-0.00016473,0.088835,-0.00016479,-0.3207,0.20131
8574,4.2835,0,0.1,0.00050254,5021.9,0.00050253,5021.7,-0.00016583,-0.079701,-0.00016586,-0.31475,0.1871
8575,4.0992,0,0.1,0.00050502,5046.8,0.00050501,5046.4,-0.00016664,-0.072867,-0.0001667,-0.57091,0.17324
8576,3.9149,0,0.1,0.00050651,5061.6,0.00050649,5061.1,-0.00016709,0.045038,-0.00016724,-1.0392,0.15972
8577,3.7307,0,0.1,0.00050671,5063.6,0.00050669,5062.9,-0.00016711,0.20813,-0.00016737,-1.6714,0.14654
8578,3.5464,0,0.1,0.00050531,5049.6,0.00050528,5048.6,-0.0001666,0.41111,-0.00016698,-2.4852,0.13371
8579,3.3621,0,0.1,0.00050189,5015.5,0.00050185,5014.1,-0.0001654,0.65297,-0.00016595,-3.5095,0.12122
8580,3.1779,0,0.1,0.00049597,4956.3,0.00049591,4954.4,-0.00016336,0.93022,-0.00016412,-4.7808,0.10907
8581,2.9936,0,0.1,0.00048697,4866.3,0.00048688,4863.8,-0.00016028,1.2339,-0.00016129,-6.3425,0.097255
8582,2.8093,0,0.1,0.00047421,4738.8,0.00047409,4735.4,-0.00015595,1.5462,-0.00015725,-8.2428,0.085773
8583,2.6251,0,0.1,0.00045693,4566.1,0.00045678,4561.8,-0.00015011,1.8371,-0.00015176,-10.529,0.074613
8584,2.4408,0,0.1,0.00043432,4340.2,0.00043413,4334.6,-0.0001425,2.0596,-0.00014453,-13.234,0.063763
8585,2.2565,0,0.1,0.00040554,4052.6,0.0004053,4045.5,-0.00013284,2.1507,-0.0001353,-16.347,0.05321
8586,2.0723,0,0.1,0.00036984,3695.9,0.00036953,3686.9,-0.0001209,2.0164,-0.0001238,-19.778,0.042934
8587,1.888,0,0.1,0.00032662,3264,0.00032625,3253.1,-0.0001065,1.6077,-0.00010981,-23.25,0.032916
8588,1.7037,0,0.1,0.00027562,2754.3,0.00027517,2741.4,-8.9592e-05,0.67445,-9.318e-05,-26.282,0.023136
8589,1.5195,0,0.1,0.00021688,2167.3,0.00021639,2153.3,-7.0201e-05,-0.069998,-7.3875e-05,-27.679,0.013601
8590,1.3352,0,0.1,0.00015089,1507.9,0.00015037,1492.8,-4.8755e-05,-3.3239,-5.1839e-05,-26.496,0.0046498
8591,1.1509,0,0.1,7.6608e-05,765.55,7.6252e-05,755.95,-2.3578e-05,5.8683,-2.7577e-05,-24.179,0.0061208
8592,0.96667,0,0.1,7.9546e-06,79.491,6.1592e-06,72.217,3.0298e-06,48.704,-5.6321e-06,-16.378,0.01511
8593,0.8,0,0.1,2.2535e-06,22.519,1.9299e-06,20.208,3.7767e-07,8.5451,-1.525e-06,-5.7504,7.2444e-05
8594,0.64,-3.2453e-31,0.1,1.8896e-05,188.83,1.8563e-05,179.85,-5.5501e-06,-1.3262,-7.4763e-06,-15.799,3.8053e-05
8595,0.48,-2.434e-31,0.1,3.1278e-05,312.56,3.0659e-05,296.17,-8.9697e-06,-1.5816,-1.2665e-05,-29.344,1.4239e-05
8596,0.32,-1.6226e-31,0.1,3.4573e-05,345.49,3.3404e-05,315.31,-9.328e-06,-5.7574,-1.5254e-05,-50.285,9.1033e-06
8597,0.16,-8.1132e-32,0.1,2.5762e-05,257.44,2.3749e-05,221.97,-2.8716e-06,21.956,-1.4908e-05,-68.481,6.4824e-06
8598,0,0,0.1,2.2536e-05,225.2,7.8206e-06,-61.469,7.4884e-07,-114.6,-2.5056e-05,-308.49,0
8599,3.937e-14,6,0.1,2.2536e-05,225.2,7.8205e-06,-61.469,7.4884e-07,-114.6,-2.5056e-05,-308.49,0
8600,0.16,6,0.1,2.5762e-05,257.44,2.3749e-05,221.97,-2.8716e-06,21.956,-1.4908e-05,-68.481,6.4824e-06
8601,0.32,6,0.1,3.4573e-05,345.49,3.3404e-05,315.31,-9.328e-06,-5.7574,-1.5254e-05,-50.285,9.1033e-06
8602,0.48,6,0.1,3.1278e-05,312.56,3.0659e-05,296.17,-8.9697e-06,-1.5816,-1.2665e-05,-29.344,1.4239e-05
8603,0.64,6,0.1,1.8896e-05,188.83,1.8563e-05,179.85,-5.5501e-06,-1.3262,-7.4763e-06,-15.799,3.8053e-05
8604,0.8,6,0.1,2.2535e-06,22.519,1.9299e-06,20.208,3.7767e-07,8.5451,-1.525e-06,-5.7504,7.2444e-05
8605,0.64,6,0,1.8896e-05,188.83,7.4763e-06,15.799,5.5501e-06,1.3262,-1.8563e-05,-179.85,3.8053e-05
8606,0.48,6,0,3.1278e-05,312.56,1.2665e-05,29.344,8.9697e-06,1.5816,-3.0659e-05,-296.17,1.4239e-05
8607,0.32,6,0,3.4573e-05,345.49,1.5254e-05,50.285,9.328e-06,5.7574,-3.3404e-05,-315.31,9.1033e-06
8608,0.16,6,0,2.5762e-05,257.44,1.4908e-05,68.481,2.8716e-06,-21.956,-2.3749e-05,-221.97,6.4824e-06
8609,0.8,6,0,2.2535e-06,22.519,1.525e-06,5.7504,-3.7767e-07,-8.5451,-1.9299e-06,-20.208,7.2444e-05
8610,3.937e-14,6,0,2.2536e-05,225.2,2.5056e-05,308.49,-7.4884e-07,114.6,-7.8206e-06,61.469,0
8611,0.16,-8.1132e-32,0,2.5762e-05,257.44,1.4908e-05,68.481,2.8716e-06,-21.956,-2.3749e-05,-221.97,6.4824e-06
8612,0.32,-1.6226e-31,0,3.4573e-05,345.49,1.5254e-05,50.285,9.328e-06,5.7574,-3.3404e-05,-315.31,9.1033e-06
8613,0.48,-2.434e-31,0,3.1278e-05,312.56,1.2665e-05,29.344,8.9697e-06,1.5816,-3.0659e-05,-296.17,1.4239e-05
8614,0.64,-3.2453e-31,0,1.8896e-05,188.83,7.4763e-06,15.799,5.5501e-06,1.3262,-1.8563e-05,-179.85,3.8053e-05
8615,0.8,0,0,2.2535e-06,22.519,1.525e-06,5.7504,-3.7767e-07,-8.5452,-1.9299e-06,-20.208,7.2444e-05
8616,0,0,0,2.2536e-05,225.2,2.5056e-05,308.49,-7.4884e-07,114.6,-7.8206e-06,61.469,0
8617,1.1509,0,0,7.6608e-05,765.55,2.7577e-05,24.179,2.3578e-05,-5.8683,-7.6252e-05,-755.95,0.0061208
8618,1.3352,0,0,0.00015089,1507.9,5.1839e-05,26.496,4.8755e-05,3.3239,-0.00015037,-1492.8,0.0046498
8619,1.5195,0,0,0.00021688,2167.3,7.3875e-05,27.679,7.0201e-05,0.069997,-0.00021639,-2153.3,0.013601
8620,1.7037,0,0,0.00027562,2754.3,9.318e-05,26.282,8.9592e-05,-0.67445,-0.00027517,-2741.4,0.023136
8621,1.888,0,0,0.00032662,3264,0.00010981,23.25,0.0001065,-1.6077,-0.00032625,-3253.1,0.032916
8622,2.0723,0,0,0.00036984,3695.9,0.0001238,19.778,0.0001209,-2.0164,-0.00036953,-3686.9,0.042934
8623,2.2565,0,0,0.00040554,4052.6,0.0001353,16.347,0.00013284,-2.1507,-0.0004053,-4045.5,0.05321
8624,2.4408,0,0,0.00043432,4340.2,0.00014453,13.234,0.0001425,-2.0596,-0.00043413,-4334.6,0.063763
8625,2.6251,0,0,0.00045693,4566.1,0.00015176,10.529,0.00015011,-1.8371,-0.00045678,-4561.8,0.074613
8626,2.8093,0,0,0.00047421,4738.8,0.00015725,8.2428,0.00015595,-1.5462,-0.00047409,-4735.4,0.085773
8627,2.9936,0,0,0.00048697,4866.3,0.00016129,6.3425,0.00016028,-1.2339,-0.00048688,-4863.8,0.097255
8628,3.1779,0,0,0.00049597,4956.3,0.00016412,4.7808,0.00016336,-0.93021,-0.00049591,-4954.4,0.10907
8629,3.3621,0,0,0.00050189,5015.5,0.00016595,3.5095,0.0001654,-0.65296,-0.00050185,-5014.1,0.12122
8630,3.5464,0,0,0.00050531,5049.6,0.00016698,2.4852,0.0001666,-0.41111,-0.00050528,-5048.6,0.13371
8631,3.7307,0,0,0.00050671,5063.6,0.00016737,1.6715,0.00016711,-0.20813,-0.00050669,-5062.9,0.14654
8632,3.9149,0,0,0.00050651,5061.6,0.00016724,1.0392,0.00016709,-0.045037,-0.00050649,-5061.1,0.15972
8633,4.0992,0,0,0.00050502,5046.8,0.0001667,0.57092,0.00016664,0.072868,-0.00050501,-5046.4,0.17324
8634,4.2835,0,0,0.00050254,5021.9,0.00016586,0.31476,0.00016583,0.079702,-0.00050253,-5021.7,0.1871
8635,4.4677,0,0,0.00049926,4989.2,0.00016479,0.3207,0.00016473,-0.088834,-0.00049926,-4989.1,0.20131
8636,4.652,0,0,0.00049538,4950.4,0.00016352,0.36384,0.00016344,-0.21984,-0.00049538,-4950.3,0.21585
8637,4.8363,0,0,0.00049102,4906.9,0.00016208,0.39712,0.000162,-0.27671,-0.00049102,-4906.8,0.23073
8638,5.0205,0,0,0.00048631,4859.7,0.00016053,0.41809,0.00016044,-0.26628,-0.0004863,-4859.6,0.24595
8639,5.2048,0,0,0.00048132,4809.8,0.00015888,0.42831,0.0001588,-0.19848,-0.00048131,-4809.7,0.26149
8640,5.3891,0,0,0.00047612,4757.9,0.00015716,0.42985,0.00015709,-0.083018,-0.00047611,-4757.7,0.27737
8641,5.5733,0,0,0.00047077,4704.4,0.00015539,0.4248,0.00015534,0.071135,-0.00047076,-4704.2,0.29356
8642,5.7576,0,0,0.00046531,4649.9,0.00015357,0.41604,0.00015355,0.25489,-0.0004653,-4649.6,0.31008
8643,5.9419,0,0,0.00045978,4594.6,0.00015175,0.47626,0.00015173,0.39005,-0.00045976,-4594.1,0.32691
8644,6.1261,0,0,0.00045419,4538.7,0.00014992,0.69894,0.00014988,0.37824,-0.00045417,-4538.2,0.34405
8645,6.3104,0,0,0.00044857,4482.6,0.00014809,0.93954,0.00014801,0.35976,-0.00044855,-4481.9,0.3615
8646,6.4947,0,0,0.00044293,4426.3,0.00014625,1.1894,0.00014614,0.33964,-0.00044291,-4425.5,0.37926
8647,6.6789,0,0,0.00043729,4369.9,0.00014441,1.4444,0.00014426,0.31882,-0.00043726,-4369,0.39732
8648,6.8632,0,0,0.00043165,4313.5,0.00014257,1.7014,0.00014239,0.29783,-0.00043162,-4312.5,0.41567
8649,7.0475,0,0,0.00042602,4257.3,0.00014074,1.958,0.00014051,0.27701,-0.00042599,-4256.2,0.43432
8650,7.2317,0,0,0.00042041,4201.2,0.00013891,2.2121,0.00013865,0.25665,-0.00042037,-4200,0.45325
8651,7.416,0,0,0.00041481,4145.3,0.00013708,2.4621,0.00013679,0.23693,-0.00041477,-4143.9,0.47247
8652,7.6003,0,0,0.00040924,4089.6,0.00013526,2.7069,0.00013493,0.21799,-0.00040919,-4088.1,0.49198
8653,7.7845,0,0,0.00040368,4034.1,0.00013345,2.9455,0.00013309,0.19989,-0.00040363,-4032.5,0.51176
8654,7.9688,0,0,0.00039816,3978.8,0.00013165,3.1773,0.00013125,0.18271,-0.0003981,-3977.1,0.53181
8655,8.1531,0,0,0.00039265,3923.8,0.00012985,3.4018,0.00012942,0.16647,-0.00039259,-3922,0.55214
8656,8.3373,0,0,0.00038717,3869.1,0.00012806,3.6189,0.0001276,0.15116,-0.00038711,-3867.2,0.57273
8657,8.5216,0,0,0.00038172,3814.6,0.00012628,3.8284,0.00012579,0.13677,-0.00038165,-3812.6,0.59358
8658,8.7059,0,0,0.00037629,3760.3,0.00012451,4.0304,0.00012399,0.12329,-0.00037622,-3758.2,0.61469
8659,8.8901,0,0,0.00037089,3706.3,0.00012274,4.2249,0.00012219,0.11068,-0.00037082,-3704.2,0.63606
8660,9.0744,0,0,0.00036551,3652.6,0.00012098,4.4122,0.00012041,0.098914,-0.00036544,-3650.3,0.65768
8661,9.2587,0,0,0.00036016,3599.1,0.00011923,4.5925,0.00011863,0.087943,-0.00036008,-3596.8,0.67954
8662,9.4429,0,0,0.00035483,3545.9,0.00011749,4.7662,0.00011687,0.077725,-0.00035475,-3543.5,0.70166
8663,9.6272,0,0,0.00034953,3492.9,0.00011575,4.9334,0.00011511,0.068221,-0.00034945,-3490.4,0.72401
8664,9.8115,0,0,0.00034425,3440.2,0.00011403,5.0947,0.00011336,0.05939,-0.00034417,-3437.6,0.74659
8665,9.9957,0,0,0.000339,3387.7,0.00011231,5.2503,0.00011161,0.051181,-0.00033891,-3385,0.76942
8666,10.18,0,0,0.00033377,3335.4,0.00011059,5.4007,0.00010988,0.043559,-0.00033368,-3332.7,0.79247
8667,10.364,0,0,0.00032857,3283.4,0.00010889,5.5461,0.00010816,0.036491,-0.00032847,-3280.6,0.81574
8668,10.549,0,0,0.00032338,3231.6,0.00010719,5.687,0.00010644,0.02989,-0.00032329,-3228.7,0.83924
8669,10.733,0,0,0.00031823,3180.1,0.0001055,5.8237,0.00010473,0.023792,-0.00031813,-3177.1,0.86296
8670,10.917,0,0,0.00031309,3128.7,0.00010382,5.9567,0.00010303,0.018163,-0.00031299,-3125.7,0.8869
8671,11.101,0,0,0.00030798,3077.6,0.00010214,6.0862,0.00010133,0.012907,-0.00030787,-3074.6,0.91104
8672,11.286,0,0,0.00030288,3026.8,0.00010047,6.2126,9.9645e-05,0.0080166,-0.00030278,-3023.6,0.9354
8673,11.47,0,0,0.00029782,2976.1,9.8808e-05,6.3361,9.7965e-05,0.0034407,-0.00029771,-2972.9,0.95996
8674,11.654,0,0,0.00029277,2925.7,9.7153e-05,6.4573,9.6294e-05,-0.00078516,-0.00029266,-2922.4,0.98472
8675,11.838,0,0,0.00028774,2875.5,9.5505e-05,6.5764,9.4629e-05,-0.0046951,-0.00028763,-2872.2,1.0097
8676,12.023,0,0,0.00028274,2825.5,9.3864e-05,6.6935,9.2972e-05,-0.008367,-0.00028263,-2822.1,1.0348
8677,12.207,0,0,0.00027776,2775.7,9.223e-05,6.8092,9.1322e-05,-0.011802,-0.00027764,-2772.3,1.0602
8678,12.391,0,0,0.0002728,2726.1,9.0603e-05,6.9235,8.968e-05,-0.015042,-0.00027268,-2722.7,1.0857
8679,12.575,0,0,0.00026786,2676.8,8.8983e-05,7.0369,8.8044e-05,-0.018053,-0.00026774,-2673.3,1.1114
8680,12.76,0,0,0.00026295,2627.6,8.737e-05,7.1496,8.6416e-05,-0.020853,-0.00026282,-2624.1,1.1373
8681,12.944,0,0,0.00025805,2578.7,8.5764e-05,7.2618,8.4794e-05,-0.023515,-0.00025793,-2575.1,1.1634
8682,13.128,0,0,0.00025317,2530,8.4165e-05,7.3738,8.318e-05,-0.026037,-0.00025305,-2526.3,1.1897
8683,13.313,0,0,0.00024832,2481.5,8.2572e-05,7.4857,8.1572e-05,-0.028451,-0.00024819,-2477.8,1.2161
8684,13.497,0,0,0.00024349,2433.2,8.0987e-05,7.598,7.9972e-05,-0.030725,-0.00024336,-2429.4,1.2427
8685,13.681,0,0,0.00023868,2385.1,7.9408e-05,7.7107,7.8378e-05,-0.032871,-0.00023854,-2381.3,1.2694
8686,13.865,0,0,0.00023388,2337.2,7.7837e-05,7.824,7.6791e-05,-0.034955,-0.00023375,-2333.3,1.2963
8687,14.05,0,0,0.00022911,2289.5,7.6272e-05,7.9383,7.5211e-05,-0.036967,-0.00022898,-2285.6,1.3234
8688,14.234,0,0,0.00022436,2242.1,7.4714e-05,8.0536,7.3637e-05,-0.038944,-0.00022422,-2238.1,1.3506
8689,14.418,0,0,0.00021963,2194.8,7.3163e-05,8.1702,7.207e-05,-0.040847,-0.00021949,-2190.7,1.378
8690,14.602,0,0,0.00021492,2147.7,7.1619e-05,8.2883,7.051e-05,-0.042688,-0.00021478,-2143.6,1.4056
8691,14.787,0,0,0.00021023,2100.9,7.0082e-05,8.4081,6.8957e-05,-0.044531,-0.00021009,-2096.7,1.4332
8692,14.971,0,0,0.00020556,2054.2,6.8551e-05,8.5297,6.741e-05,-0.046361,-0.00020542,-2050,1.461
8693,15.155,0,0,0.00020092,2007.8,6.7027e-05,8.6533,6.5869e-05,-0.048214,-0.00020077,-2003.5,1.489
8694,15.339,0,0,0.00019629,1961.5,6.5511e-05,8.7792,6.4335e-05,-0.050058,-0.00019614,-1957.1,1.5171
8695,15.524,0,0,0.00019168,1915.5,6.4e-05,8.9075,6.2808e-05,-0.051902,-0.00019153,-1911,1.5453
8696,15.708,0,0,0.00018709,1869.6,6.2497e-05,9.0383,6.1287e-05,-0.053802,-0.00018694,-1865.1,1.5737
8697,15.892,0,0,0.00018252,1824,6.1001e-05,9.1718,5.9773e-05,-0.055755,-0.00018237,-1819.4,1.6021
8698,16.077,0,0,0.00017797,1778.5,5.9511e-05,9.3081,5.8265e-05,-0.057782,-0.00017781,-1773.9,1.6307
8699,16.261,0,0,0.00017344,1733.2,5.8028e-05,9.4475,5.6763e-05,-0.059866,-0.00017328,-1728.5,1.6595
8700,16.445,0,0,0.00016894,1688.2,5.6552e-05,9.59,5.5268e-05,-0.062016,-0.00016877,-1683.4,1.6883
8701,16.629,0,0,0.00016445,1643.3,5.5083e-05,9.7358,5.3779e-05,-0.064284,-0.00016428,-1638.5,1.7173
8702,16.814,0,0,0.00015998,1598.6,5.362e-05,9.8851,5.2296e-05,-0.066671,-0.00015981,-1593.7,1.7463
8703,16.998,0,0,0.00015552,1554.2,5.2164e-05,10.038,5.0819e-05,-0.069202,-0.00015535,-1549.2,1.7755
8704,17.182,0,0,0.00015109,1509.9,5.0715e-05,10.194,4.9349e-05,-0.071861,-0.00015092,-1504.8,1.8048
8705,17.366,0,0,0.00014668,1465.8,4.9272e-05,10.354,4.7884e-05,-0.074671,-0.0001465,-1460.6,1.8341
8706,17.551,0,0,0.00014229,1421.9,4.7836e-05,10.518,4.6426e-05,-0.077675,-0.00014211,-1416.6,1.8636
8707,17.735,0,0,0.00013791,1378.2,4.6407e-05,10.686,4.4974e-05,-0.08088,-0.00013773,-1372.8,1.8932
8708,17.919,0,0,0.00013356,1334.6,4.4984e-05,10.858,4.3528e-05,-0.084321,-0.00013337,-1329.2,1.9228
8709,18.103,0,0,0.00012922,1291.3,4.3567e-05,11.033,4.2087e-05,-0.087994,-0.00012903,-1285.8,1.9526
8710,18.288,0,0,0.0001249,1248.1,4.2157e-05,11.213,4.0653e-05,-0.091916,-0.00012471,-1242.5,1.9824
8711,18.472,0,0,0.0001206,1205.2,4.0754e-05,11.396,3.9224e-05,-0.096144,-0.0001204,-1199.5,2.0124
8712,18.656,0,0,0.00011632,1162.4,3.9356e-05,11.583,3.7801e-05,-0.10069,-0.00011612,-1156.6,2.0424
8713,18.841,0,0,0.00011205,1119.8,3.7965e-05,11.774,3.6384e-05,-0.1056,-0.00011185,-1113.9,2.0724
8714,19.025,0,0,0.00010781,1077.3,3.658e-05,11.969,3.4972e-05,-0.11087,-0.0001076,-1071.3,2.1026
8715,19.209,0,0,0.00010358,1035,3.5201e-05,12.166,3.3566e-05,-0.11655,-0.00010337,-1029,2.1328
8716,19.393,0,0,9.9364e-05,992.96,3.3828e-05,12.367,3.2165e-05,-0.12269,-9.915e-05,-986.77,2.1631
8717,19.578,0,0,9.5169e-05,951.03,3.246e-05,12.571,3.077e-05,-0.12933,-9.4951e-05,-944.75,2.1935
8718,19.762,0,0,9.099e-05,909.27,3.1099e-05,12.776,2.938e-05,-0.13651,-9.0768e-05,-902.88,2.2239
8719,19.946,0,0,8.6827e-05,867.67,2.9743e-05,12.983,2.7995e-05,-0.14427,-8.6602e-05,-861.18,2.2544
8720,20.13,0,0,8.2681e-05,826.24,2.8392e-05,13.192,2.6616e-05,-0.15266,-8.2451e-05,-819.64,2.2849
8721,20.315,0,0,7.8551e-05,784.97,2.7047e-05,13.401,2.5242e-05,-0.16177,-7.8317e-05,-778.26,2.3155
8722,20.499,0,0,7.4436e-05,743.85,2.5706e-05,13.609,2.3872e-05,-0.17165,-7.4198e-05,-737.03,2.3462
8723,20.683,0,0,7.0337e-05,702.88,2.4371e-05,13.815,2.2508e-05,-0.18239,-7.0094e-05,-695.96,2.3769
8724,20.867,0,0,6.6253e-05,662.07,2.3041e-05,14.019,2.1149e-05,-0.19406,-6.6006e-05,-655.04,2.4076
8725,21.052,0,0,6.2184e-05,621.41,2.1715e-05,14.218,1.9795e-05,-0.20677,-6.1933e-05,-614.28,2.4384
8726,21.236,0,0,5.813e-05,580.9,2.0393e-05,14.411,1.8446e-05,-0.22066,-5.7875e-05,-573.66,2.4693
8727,21.42,0,0,5.4091e-05,540.54,1.9076e-05,14.596,1.7102e-05,-0.23586,-5.3832e-05,-533.21,2.5001
8728,21.605,0,0,5.0068e-05,500.33,1.7763e-05,14.769,1.5764e-05,-0.25255,-4.9804e-05,-492.91,2.531
8729,21.789,0,0,4.6061e-05,460.29,1.6455e-05,14.93,1.4432e-05,-0.27095,-4.5792e-05,-452.77,2.562
8730,21.973,0,0,4.207e-05,420.41,1.515e-05,15.072,1.3105e-05,-0.29133,-4.1797e-05,-412.8,2.5929
8731,22.157,0,0,3.8096e-05,380.7,1.3849e-05,15.192,1.1785e-05,-0.31403,-3.7819e-05,-373.02,2.6239
8732,22.342,0,0,3.4142e-05,341.19,1.2552e-05,15.284,1.0473e-05,-0.33953,-3.3861e-05,-333.45,2.655
8733,22.526,0,0,3.021e-05,301.89,1.1259e-05,15.341,9.1685e-06,-0.36842,-2.9925e-05,-294.1,2.686
8734,22.71,0,0,2.6303e-05,262.85,9.971e-06,15.352,7.8743e-06,-0.40162,-2.6013e-05,-255.02,2.7171
8735,22.894,0,0,2.2427e-05,224.11,8.6875e-06,15.302,6.5923e-06,-0.44013,-2.2132e-05,-216.27,2.7481
8736,23.079,0,0,1.8588e-05,185.76,7.4096e-06,15.171,5.3257e-06,-0.48679,-1.8289e-05,-177.92,2.7792
8737,23.263,0,0,1.4801e-05,147.91,6.1381e-06,14.925,4.0799e-06,-0.5406,-1.4496e-05,-140.11,2.8103
8738,23.447,0,0,1.1083e-05,110.76,4.8723e-06,14.475,2.8626e-06,-0.62522,-1.077e-05,-103.06,2.8414
8739,23.631,0,0,7.483e-06,74.778,3.623e-06,13.812,1.6916e-06,-0.70067,-7.1535e-06,-67.159,2.8725
8740,23.816,0,0,4.0106e-06,40.078,2.2881e-06,11.511,6.149e-07,-1.0607,-3.682e-06,-33.346,2.9037
8741,0.96667,0,0,7.9546e-06,79.491,5.6321e-06,16.378,-3.0298e-06,-48.704,-6.1592e-06,-72.217,0.01511
8742,24,0,0,9.4699e-07,9.4633,7.0879e-07,5.7238,8.6546e-08,1.0485,-7.4072e-07,-5.1672,2.9348
8743,5.0862e-14,5.8182,0,8.0256e-06,80.2,3.5475e-06,-2.5023,7.1234e-07,-23.804,-8.2579e-06,-91.203,0
8744,4.9273e-14,5.6364,0,1.7349e-05,173.37,7.5685e-07,-157.01,-2.5876e-07,-164.64,-2.2808e-05,-334.07,0
8745,4.7683e-14,5.4545,0,2.9093e-05,290.73,7.9851e-07,-271.53,-3.8322e-07,-280.41,-3.8472e-05,-566.6,0
8746,4.6094e-14,5.2727,0,4.5016e-05,449.85,1.1368e-06,-421.42,-5.3928e-07,-434.01,-5.9556e-05,-877.44,0
8747,4.4504e-14,5.0909,0,6.847e-05,684.22,1.6672e-06,-642.58,-8.623e-07,-661.58,-9.0636e-05,-1336.1,0
8748,4.2915e-14,4.9091,0,0.00010255,1024.8,2.3565e-06,-965.77,-1.3556e-06,-993.66,-0.00013586,-2004.3,0
8749,4.1325e-14,4.7273,0,0.00014973,1496.3,3.1309e-06,-1415.8,-1.9773e-06,-1454.1,-0.00019852,-2930.8,0
8750,3.9736e-14,4.5455,0,0.00021097,2108.2,3.8393e-06,-2003.8,-2.6304e-06,-2052.4,-0.00027993,-4135.9,0
8751,3.8147e-14,4.3636,0,0.0002852,2850,4.3775e-06,-2720.3,-3.2258e-06,-2777.4,-0.00037868,-5598.4,0
8752,3.6557e-14,4.1818,0,0.00037121,3709.5,4.8656e-06,-3552,-3.8208e-06,-3617.3,-0.00049313,-7293.8,0
8753,3.4968e-14,4,0,0.00047018,4698.5,5.394e-06,-4510.1,-4.5447e-06,-4584.8,-0.00062485,-9245.5,0
8754,3.3378e-14,3.8182,0,0.00058126,5808.6,5.7263e-06,-5589.5,-5.2881e-06,-5672.3,-0.0007728,-11439,0
8755,3.1789e-14,3.6364,0,0.0006941,6936.2,5.3911e-06,-6692.1,-5.463e-06,-6773.7,-0.00092314,-13669,0
8756,3.0199e-14,3.4545,0,0.00079111,7905.7,4.2257e-06,-7645.7,-4.6381e-06,-7712.3,-0.0010524,-15584,0
8757,2.861e-14,3.2727,0,0.00085904,8584.5,2.5837e-06,-8318.1,-3.1006e-06,-8360.8,-0.0011428,-16924,0
8758,2.702e-14,3.0909,0,0.00089312,8925,8.9153e-07,-8661.4,-1.4073e-06,-8678.7,-0.0011881,-17595,0
8759,2.5431e-14,2.9091,0,0.00089312,8925,8.9153e-07,-8661.4,-1.4073e-06,-8678.7,-0.0011881,-17595,0
8760,2.3842e-14,2.7273,0,0.00085904,8584.5,2.5837e-06,-8318.1,-3.1006e-06,-8360.8,-0.0011428,-16924,0
8761,2.2252e-14,2.5455,0,0.00079111,7905.7,4.2256e-06,-7645.7,-4.6381e-06,-7712.3,-0.0010524,-15584,0
8762,2.0663e-14,2.3636,0,0.0006941,6936.2,5.3911e-06,-6692.1,-5.463e-06,-6773.7,-0.00092314,-13669,0
8763,1.9073e-14,2.1818,0,0.00058126,5808.6,5.7263e-06,-5589.5,-5.2882e-06,-5672.3,-0.0007728,-11439,0
8764,1.7484e-14,2,0,0.00047018,4698.5,5.394e-06,-4510.1,-4.5448e-06,-4584.8,-0.00062485,-9245.5,0
8765,1.5894e-14,1.8182,0,0.00037121,3709.5,4.8656e-06,-3552,-3.8208e-06,-3617.3,-0.00049313,-7293.8,0
8766,1.4305e-14,1.6364,0,0.0002852,2850,4.3775e-06,-2720.3,-3.2258e-06,-2777.4,-0.00037868,-5598.4,0
8767,1.2716e-14,1.4545,0,0.00021097,2108.2,3.8393e-06,-2003.8,-2.6304e-06,-2052.4,-0.00027993,-4135.9,0
8768,1.1126e-14,1.2727,0,0.00014973,1496.3,3.1309e-06,-1415.8,-1.9774e-06,-1454.1,-0.00019852,-2930.8,0
8769,9.5366e-15,1.0909,0,0.00010255,1024.8,2.3565e-06,-965.77,-1.3556e-06,-993.66,-0.00013586,-2004.3,0
8770,7.9472e-15,0.90909,0,6.847e-05,684.22,1.6672e-06,-642.58,-8.623e-07,-661.58,-9.0636e-05,-1336.1,0
8771,6.3578e-15,0.72727,0,4.5017e-05,449.85,1.1368e-06,-421.42,-5.3928e-07,-434.01,-5.9556e-05,-877.44,0
8772,4.7683e-15,0.54545,0,2.9093e-05,290.73,7.9851e-07,-271.53,-3.8322e-07,-280.41,-3.8472e-05,-566.6,0
8773,3.1789e-15,0.36364,0,1.7349e-05,173.37,7.5685e-07,-157.01,-2.5876e-07,-164.64,-2.2808e-05,-334.07,0
8774,1.5894e-15,0.18182,0,8.0256e-06,80.2,3.5475e-06,-2.5024,7.1234e-07,-23.804,-8.2579e-06,-91.203,0
8775,24,0.18182,0,3.9748e-06,39.721,3.8216e-06,36.672,-7.7491e-07,2.1358,-1.9554e-06,-6.7341,2.9349
8776,24,0.36364,0,6.7137e-06,67.091,6.581e-06,64.13,-1.6654e-06,2.1694,-2.9022e-06,-7.1227,2.9351
8777,24,0.54545,0,8.8234e-06,88.174,8.7011e-06,85.343,-2.3414e-06,2.374,-3.6218e-06,-7.2464,2.9352
8778,24,0.72727,0,1.0582e-05,105.74,1.0465e-05,102.97,-2.9189e-06,2.4071,-4.209e-06,-7.2863,2.9354
8779,24,0.90909,0,1.208e-05,120.72,1.1969e-05,118.02,-3.4127e-06,2.4448,-4.7051e-06,-7.2655,2.9355
8780,24,1.0909,0,1.3374e-05,133.65,1.3267e-05,131,-3.8407e-06,2.4668,-5.1306e-06,-7.2254,2.9356
8781,24,1.2727,0,1.4495e-05,144.85,1.4391e-05,142.26,-4.2122e-06,2.4844,-5.4978e-06,-7.1752,2.9357
8782,24,1.4545,0,1.5465e-05,154.54,1.5363e-05,152,-4.5344e-06,2.4976,-5.8148e-06,-7.1225,2.9358
8783,24,1.6364,0,1.63e-05,162.89,1.6201e-05,160.39,-4.8121e-06,2.5079,-6.087e-06,-7.0712,2.9359
8784,24,1.8182,0,1.7012e-05,170,1.6915e-05,167.54,-5.0491e-06,2.5159,-6.3187e-06,-7.0236,2.936
8785,24,2,0,1.7609e-05,175.97,1.7514e-05,173.55,-5.248e-06,2.5223,-6.5129e-06,-6.9812,2.9361
8786,24,2.1818,0,1.8098e-05,180.86,1.8004e-05,178.46,-5.411e-06,2.5272,-6.6717e-06,-6.945,2.9361
8787,24,2.3636,0,1.8484e-05,184.71,1.8391e-05,182.34,-5.5397e-06,2.5309,-6.797e-06,-6.9154,2.9362
8788,24,2.5455,0,1.8771e-05,187.58,1.8679e-05,185.22,-5.6353e-06,2.5336,-6.8899e-06,-6.893,2.9362
8789,24,2.7273,0,1.896e-05,189.47,1.8869e-05,187.13,-5.6986e-06,2.5353,-6.9514e-06,-6.8779,2.9363
8790,24,2.9091,0,1.9055e-05,190.42,1.8964e-05,188.07,-5.7301e-06,2.5362,-6.982e-06,-6.8703,2.9363
8791,24,3.0909,0,1.9055e-05,190.42,1.8964e-05,188.07,-5.7301e-06,2.5362,-6.982e-06,-6.8703,2.9363
8792,24,3.2727,0,1.896e-05,189.47,1.8869e-05,187.13,-5.6986e-06,2.5353,-6.9514e-06,-6.8779,2.9363
8793,24,3.4545,0,1.8771e-05,187.58,1.8679e-05,185.22,-5.6353e-06,2.5336,-6.8899e-06,-6.893,2.9362
8794,24,3.6364,0,1.8484e-05,184.71,1.8391e-05,182.34,-5.5397e-06,2.5309,-6.797e-06,-6.9154,2.9362
8795,24,3.8182,0,1.8098e-05,180.86,1.8004e-05,178.46,-5.411e-06,2.5272,-6.6717e-06,-6.945,2.9361
8796,24,4,0,1.7609e-05,175.97,1.7514e-05,173.55,-5.248e-06,2.5223,-6.5129e-06,-6.9812,2.9361
8797,24,4.1818,0,1.7012e-05,170,1.6915e-05,167.54,-5.0491e-06,2.5159,-6.3187e-06,-7.0236,2.936
8798,24,4.3636,0,1.63e-05,162.89,1.6201e-05,160.39,-4.8121e-06,2.5079,-6.087e-06,-7.0712,2.9359
8799,24,4.5455,0,1.5465e-05,154.54,1.5363e-05,152,-4.5344e-06,2.4976,-5.8148e-06,-7.1225,2.9358
8800,24,4.7273,0,1.4495e-05,144.85,1.4391e-05,142.26,-4.2122e-06,2.4844,-5.4979e-06,-7.1752,2.9357
8801,24,4.9091,0,1.3374e-05,133.65,1.3267e-05,131,-3.8407e-06,2.4668,-5.1306e-06,-7.2254,2.9356
8802,24,5.0909,0,1.208e-05,120.72,1.1969e-05,118.02,-3.4127e-06,2.4448,-4.7051e-06,-7.2655,2.9355
8803,24,5.2727,0,1.0582e-05,105.74,1.0465e-05,102.97,-2.9189e-06,2.4071,-4.209e-06,-7.2863,2.9354
8804,24,5.4545,0,8.8234e-06,88.174,8.7011e-06,85.343,-2.3414e-06,2.374,-3.6218e-06,-7.2464,2.9352
8805,24,5.6364,0,6.7137e-06,67.091,6.581e-06,64.13,-1.6654e-06,2.1694,-2.9022e-06,-7.1227,2.9351
8806,24,5.8182,0,3.9748e-06,39.721,3.8216e-06,36.672,-7.7491e-07,2.1358,-1.9554e-06,-6.7341,2.9349
8807,24,6,0,9.4699e-07,9.4633,7.0879e-07,5.7238,8.6547e-08,1.0485,-7.4072e-07,-5.1672,2.9348
8808,23.816,6,0,4.0106e-06,40.078,2.2881e-06,11.511,6.149e-07,-1.0607,-3.682e-06,-33.346,2.9037
8809,23.631,6,0,7.483e-06,74.779,3.623e-06,13.812,1.6916e-06,-0.70067,-7.1535e-06,-67.159,2.8725
8810,23.447,6,0,1.1083e-05,110.76,4.8723e-06,14.475,2.8626e-06,-0.62522,-1.077e-05,-103.06,2.8414
8811,23.263,6,0,1.4801e-05,147.91,6.1381e-06,14.925,4.0799e-06,-0.5406,-1.4496e-05,-140.11,2.8103
8812,23.079,6,0,1.8588e-05,185.76,7.4096e-06,15.171,5.3257e-06,-0.48679,-1.8289e-05,-177.92,2.7792
8813,22.894,6,0,2.2427e-05,224.11,8.6875e-06,15.302,6.5923e-06,-0.44014,-2.2132e-05,-216.27,2.7481
8814,22.71,6,0,2.6303e-05,262.85,9.971e-06,15.352,7.8743e-06,-0.40162,-2.6013e-05,-255.02,2.7171
8815,22.526,6,0,3.021e-05,301.89,1.1259e-05,15.341,9.1685e-06,-0.36842,-2.9925e-05,-294.1,2.686
8816,22.342,6,0,3.4142e-05,341.19,1.2552e-05,15.284,1.0473e-05,-0.33953,-3.3861e-05,-333.45,2.655
8817,22.157,6,0,3.8096e-05,380.7,1.3849e-05,15.192,1.1785e-05,-0.31403,-3.7819e-05,-373.02,2.6239
8818,21.973,6,0,4.207e-05,420.41,1.515e-05,15.072,1.3105e-05,-0.29132,-4.1797e-05,-412.8,2.5929
8819,21.789,6,0,4.6061e-05,460.29,1.6455e-05,14.93,1.4432e-05,-0.27095,-4.5792e-05,-452.77,2.562
8820,21.605,6,0,5.0068e-05,500.33,1.7763e-05,14.769,1.5764e-05,-0.25255,-4.9804e-05,-492.91,2.531
8821,21.42,6,0,5.4091e-05,540.54,1.9076e-05,14.596,1.7102e-05,-0.23586,-5.3832e-05,-533.21,2.5001
8822,21.236,6,0,5.813e-05,580.9,2.0393e-05,14.411,1.8446e-05,-0.22066,-5.7875e-05,-573.66,2.4693
8823,21.052,6,0,6.2184e-05,621.41,2.1715e-05,14.218,1.9795e-05,-0.20677,-6.1933e-05,-614.28,2.4384
8824,20.867,6,0,6.6253e-05,662.07,2.3041e-05,14.019,2.1149e-05,-0.19406,-6.6006e-05,-655.04,2.4076
8825,20.683,6,0,7.0337e-05,702.88,2.4371e-05,13.815,2.2508e-05,-0.18239,-7.0094e-05,-695.96,2.3769
8826,20.499,6,0,7.4436e-05,743.85,2.5706e-05,13.609,2.3872e-05,-0.17165,-7.4198e-05,-737.03,2.3462
8827,20.315,6,0,7.8551e-05,784.97,2.7047e-05,13.401,2.5242e-05,-0.16177,-7.8317e-05,-778.26,2.3155
8828,20.13,6,0,8.2681e-05,826.24,2.8392e-05,13.192,2.6616e-05,-0.15266,-8.2451e-05,-819.64,2.2849
8829,19.946,6,0,8.6827e-05,867.67,2.9743e-05,12.983,2.7995e-05,-0.14427,-8.6602e-05,-861.18,2.2544
8830,19.762,6,0,9.099e-05,909.27,3.1099e-05,12.776,2.938e-05,-0.13651,-9.0768e-05,-902.88,2.2239
8831,19.578,6,0,9.5169e-05,951.03,3.246e-05,12.571,3.077e-05,-0.12933,-9.4951e-05,-944.75,2.1935
8832,19.393,6,0,9.9364e-05,992.96,3.3828e-05,12.367,3.2165e-05,-0.12269,-9.915e-05,-986.77,2.1631
8833,19.209,6,0,0.00010358,1035.1,3.5201e-05,12.166,3.3566e-05,-0.11655,-0.00010337,-1029,2.1328
8834,19.025,6,0,0.00010781,1077.3,3.658e-05,11.969,3.4972e-05,-0.11087,-0.0001076,-1071.3,2.1026
8835,18.841,6,0,0.00011205,1119.8,3.7965e-05,11.774,3.6384e-05,-0.1056,-0.00011185,-1113.9,2.0724
8836,18.656,6,0,0.00011632,1162.4,3.9356e-05,11.583,3.7801e-05,-0.10069,-0.00011612,-1156.6,2.0424
8837,18.472,6,0,0.0001206,1205.2,4.0754e-05,11.396,3.9224e-05,-0.096144,-0.0001204,-1199.5,2.0124
8838,18.288,6,0,0.0001249,1248.1,4.2157e-05,11.213,4.0653e-05,-0.091915,-0.00012471,-1242.5,1.9824
8839,18.103,6,0,0.00012922,1291.3,4.3567e-05,11.033,4.2087e-05,-0.087993,-0.00012903,-1285.8,1.9526
8840,17.919,6,0,0.00013356,1334.6,4.4984e-05,10.858,4.3528e-05,-0.084324,-0.00013337,-1329.2,1.9228
8841,17.735,6,0,0.00013791,1378.2,4.6407e-05,10.686,4.4974e-05,-0.080882,-0.00013773,-1372.8,1.8932
8842,17.551,6,0,0.00014229,1421.9,4.7836e-05,10.518,4.6426e-05,-0.077674,-0.00014211,-1416.6,1.8636
8843,17.366,6,0,0.00014668,1465.8,4.9272e-05,10.354,4.7884e-05,-0.07467,-0.0001465,-1460.6,1.8341
8844,17.182,6,0,0.00015109,1509.9,5.0715e-05,10.194,4.9349e-05,-0.071859,-0.00015092,-1504.8,1.8048
8845,16.998,6,0,0.00015552,1554.2,5.2164e-05,10.038,5.0819e-05,-0.069201,-0.00015535,-1549.2,1.7755
8846,16.814,6,0,0.00015998,1598.6,5.362e-05,9.8851,5.2296e-05,-0.066669,-0.00015981,-1593.7,1.7463
8847,16.629,6,0,0.00016445,1643.3,5.5083e-05,9.7358,5.3779e-05,-0.064285,-0.00016428,-1638.5,1.7173
8848,16.445,6,0,0.00016894,1688.2,5.6552e-05,9.59,5.5268e-05,-0.062015,-0.00016877,-1683.4,1.6883
8849,16.261,6,0,0.00017344,1733.2,5.8028e-05,9.4475,5.6763e-05,-0.059865,-0.00017328,-1728.5,1.6595
8850,16.077,6,0,0.00017797,1778.5,5.9511e-05,9.3081,5.8265e-05,-0.057782,-0.00017781,-1773.9,1.6307
8851,15.892,6,0,0.00018252,1824,6.1001e-05,9.1718,5.9773e-05,-0.055754,-0.00018237,-1819.4,1.6021
8852,15.708,6,0,0.00018709,1869.6,6.2497e-05,9.0383,6.1287e-05,-0.053803,-0.00018694,-1865.1,1.5737
8853,15.524,6,0,0.00019168,1915.5,6.4001e-05,8.9075,6.2808e-05,-0.051903,-0.00019153,-1911,1.5453
8854,15.339,6,0,0.00019629,1961.5,6.5511e-05,8.7792,6.4335e-05,-0.050058,-0.00019614,-1957.1,1.5171
8855,15.155,6,0,0.00020092,2007.8,6.7027e-05,8.6533,6.5869e-05,-0.048215,-0.00020077,-2003.5,1.489
8856,14.971,6,0,0.00020556,2054.2,6.8551e-05,8.5297,6.741e-05,-0.046363,-0.00020542,-2050,1.461
8857,14.787,6,0,0.00021023,2100.9,7.0082e-05,8.4081,6.8957e-05,-0.044529,-0.00021009,-2096.7,1.4332
8858,14.602,6,0,0.00021492,2147.7,7.1619e-05,8.2883,7.051e-05,-0.042688,-0.00021478,-2143.6,1.4056
8859,14.418,6,0,0.00021963,2194.8,7.3163e-05,8.1702,7.207e-05,-0.040845,-0.00021949,-2190.7,1.378
8860,14.234,6,0,0.00022436,2242.1,7.4714e-05,8.0535,7.3637e-05,-0.038942,-0.00022422,-2238.1,1.3506
8861,14.05,6,0,0.00022911,2289.5,7.6272e-05,7.9383,7.5211e-05,-0.036968,-0.00022898,-2285.6,1.3234
8862,13.865,6,0,0.00023388,2337.2,7.7837e-05,7.824,7.6791e-05,-0.034954,-0.00023375,-2333.3,1.2963
8863,13.681,6,0,0.00023868,2385.1,7.9408e-05,7.7107,7.8378e-05,-0.03287,-0.00023854,-2381.3,1.2694
8864,13.497,6,0,0.00024349,2433.2,8.0987e-05,7.5979,7.9972e-05,-0.030726,-0.00024336,-2429.4,1.2427
8865,13.313,6,0,0.00024832,2481.5,8.2572e-05,7.4857,8.1572e-05,-0.028452,-0.00024819,-2477.8,1.2161
8866,13.128,6,0,0.00025317,2530,8.4165e-05,7.3738,8.318e-05,-0.026038,-0.00025305,-2526.3,1.1897
8867,12.944,6,0,0.00025805,2578.7,8.5764e-05,7.2618,8.4794e-05,-0.023517,-0.00025793,-2575.1,1.1634
8868,12.76,6,0,0.00026295,2627.6,8.737e-05,7.1496,8.6416e-05,-0.020853,-0.00026282,-2624.1,1.1373
8869,12.575,6,0,0.00026786,2676.8,8.8983e-05,7.0369,8.8044e-05,-0.018053,-0.00026774,-2673.3,1.1114
8870,12.391,6,0,0.0002728,2726.1,9.0603e-05,6.9235,8.968e-05,-0.015042,-0.00027268,-2722.7,1.0857
8871,12.207,6,0,0.00027776,2775.7,9.223e-05,6.8092,9.1322e-05,-0.011802,-0.00027764,-2772.3,1.0602
8872,12.023,6,0,0.00028274,2825.5,9.3864e-05,6.6935,9.2972e-05,-0.0083678,-0.00028263,-2822.1,1.0348
8873,11.838,6,0,0.00028774,2875.5,9.5505e-05,6.5764,9.4629e-05,-0.0046952,-0.00028763,-2872.2,1.0097
8874,11.654,6,0,0.00029277,2925.7,9.7153e-05,6.4573,9.6294e-05,-0.00078592,-0.00029266,-2922.4,0.98472
8875,11.47,6,0,0.00029782,2976.1,9.8808e-05,6.3361,9.7965e-05,0.0034414,-0.00029771,-2972.9,0.95996
8876,11.286,6,0,0.00030288,3026.8,0.00010047,6.2126,9.9645e-05,0.0080171,-0.00030278,-3023.6,0.9354
8877,11.101,6,0,0.00030798,3077.6,0.00010214,6.0862,0.00010133,0.012907,-0.00030787,-3074.6,0.91104
8878,10.917,6,0,0.00031309,3128.7,0.00010382,5.9567,0.00010303,0.018164,-0.00031299,-3125.7,0.8869
8879,10.733,6,0,0.00031823,3180.1,0.0001055,5.8237,0.00010473,0.023791,-0.00031813,-3177.1,0.86296
8880,10.549,6,0,0.00032338,3231.6,0.00010719,5.687,0.00010644,0.029889,-0.00032329,-3228.7,0.83924
8881,10.364,6,0,0.00032857,3283.4,0.00010889,5.5461,0.00010816,0.036491,-0.00032847,-3280.6,0.81574
8882,10.18,6,0,0.00033377,3335.4,0.00011059,5.4007,0.00010988,0.043558,-0.00033368,-3332.7,0.79247
8883,9.9957,6,0,0.000339,3387.7,0.00011231,5.2503,0.00011161,0.051182,-0.00033891,-3385,0.76942
8884,9.8115,6,0,0.00034425,3440.2,0.00011403,5.0947,0.00011336,0.05939,-0.00034417,-3437.6,0.74659
8885,9.6272,6,0,0.00034953,3492.9,0.00011575,4.9334,0.00011511,0.06822,-0.00034945,-3490.4,0.72401
8886,9.4429,6,0,0.00035483,3545.9,0.00011749,4.7662,0.00011687,0.077725,-0.00035475,-3543.5,0.70166
8887,9.2587,6,0,0.00036016,3599.1,0.00011923,4.5925,0.00011863,0.087942,-0.00036008,-3596.8,0.67954
8888,9.0744,6,0,0.00036551,3652.6,0.00012098,4.4122,0.00012041,0.098914,-0.00036544,-3650.3,0.65768
8889,8.8901,6,0,0.00037089,3706.3,0.00012274,4.2249,0.00012219,0.11068,-0.00037082,-3704.2,0.63606
8890,8.7059,6,0,0.00037629,3760.3,0.00012451,4.0304,0.00012399,0.12329,-0.00037622,-3758.2,0.61469
8891,8.5216,6,0,0.00038172,3814.6,0.00012628,3.8284,0.00012579,0.13677,-0.00038165,-3812.6,0.59358
8892,8.3373,6,0,0.00038717,3869.1,0.00012806,3.6189,0.0001276,0.15115,-0.00038711,-3867.2,0.57273
8893,8.1531,6,0,0.00039265,3923.8,0.00012985,3.4018,0.00012942,0.16647,-0.00039259,-3922,0.55214
8894,7.9688,6,0,0.00039816,3978.8,0.00013165,3.1773,0.00013125,0.18271,-0.0003981,-3977.1,0.53181
8895,7.7845,6,0,0.00040368,4034.1,0.00013345,2.9455,0.00013309,0.19989,-0.00040363,-4032.5,0.51176
8896,7.6003,6,0,0.00040924,4089.6,0.00013526,2.7069,0.00013493,0.21798,-0.00040919,-4088.1,0.49198
8897,7.416,6,0,0.00041481,4145.3,0.00013708,2.4621,0.00013679,0.23693,-0.00041477,-4143.9,0.47247
8898,7.2317,6,0,0.00042041,4201.2,0.00013891,2.2121,0.00013865,0.25665,-0.00042037,-4200,0.45325
8899,7.0475,6,0,0.00042602,4257.3,0.00014074,1.958,0.00014051,0.27701,-0.00042599,-4256.2,0.43432
8900,6.8632,6,0,0.00043165,4313.5,0.00014257,1.7014,0.00014239,0.29782,-0.00043162,-4312.5,0.41567
8901,6.6789,6,0,0.00043729,4369.9,0.00014441,1.4443,0.00014426,0.31882,-0.00043726,-4369,0.39732
8902,6.4947,6,0,0.00044293,4426.3,0.00014625,1.1893,0.00014614,0.33964,-0.00044291,-4425.5,0.37926
8903,6.3104,6,0,0.00044857,4482.6,0.00014809,0.93953,0.00014801,0.35976,-0.00044855,-4481.9,0.3615
8904,6.1261,6,0,0.00045419,4538.7,0.00014992,0.69893,0.00014988,0.37824,-0.00045417,-4538.2,0.34405
8905,5.9419,6,0,0.00045978,4594.6,0.00015175,0.47625,0.00015173,0.39005,-0.00045976,-4594.1,0.32691
8906,5.7576,6,0,0.00046531,4649.9,0.00015357,0.41604,0.00015355,0.25488,-0.0004653,-4649.6,0.31008
8907,5.5733,6,0,0.00047077,4704.4,0.00015539,0.4248,0.00015534,0.071128,-0.00047076,-4704.2,0.29356
8908,5.3891,6,0,0.00047612,4757.9,0.00015716,0.42985,0.00015709,-0.083024,-0.00047611,-4757.7,0.27737
8909,5.2048,6,0,0.00048132,4809.8,0.00015888,0.42831,0.0001588,-0.19849,-0.00048131,-4809.7,0.26149
8910,5.0205,6,0,0.00048631,4859.7,0.00016053,0.41809,0.00016044,-0.26628,-0.0004863,-4859.6,0.24595
8911,4.8363,6,0,0.00049102,4906.9,0.00016208,0.39712,0.000162,-0.27672,-0.00049102,-4906.8,0.23073
8912,4.652,6,0,0.00049538,4950.4,0.00016352,0.36384,0.00016344,-0.21985,-0.00049538,-4950.3,0.21585
8913,4.4677,6,0,0.00049926,4989.2,0.00016479,0.3207,0.00016473,-0.088838,-0.00049926,-4989.1,0.20131
8914,4.2835,6,0,0.00050254,5021.9,0.00016586,0.31475,0.00016583,0.079699,-0.00050253,-5021.7,0.1871
8915,4.0992,6,0,0.00050502,5046.8,0.0001667,0.57091,0.00016664,0.072866,-0.00050501,-5046.4,0.17324
8916,3.9149,6,0,0.00050651,5061.6,0.00016724,1.0392,0.00016709,-0.045039,-0.00050649,-5061.1,0.15972
8917,3.7307,6,0,0.00050671,5063.6,0.00016737,1.6714,0.00016711,-0.20813,-0.00050669,-5062.9,0.14654
8918,3.5464,6,0,0.00050531,5049.6,0.00016698,2.4852,0.0001666,-0.41111,-0.00050528,-5048.6,0.13371
8919,3.3621,6,0,0.00050189,5015.5,0.00016595,3.5095,0.0001654,-0.65297,-0.00050185,-5014.1,0.12122
8920,3.1779,6,0,0.00049597,4956.3,0.00016412,4.7808,0.00016336,-0.93022,-0.00049591,-4954.4,0.10907
8921,2.9936,6,0,0.00048697,4866.3,0.00016129,6.3425,0.00016028,-1.2339,-0.00048688,-4863.8,0.097255
8922,2.8093,6,0,0.00047421,4738.8,0.00015725,8.2428,0.00015595,-1.5462,-0.00047409,-4735.4,0.085773
8923,2.6251,6,0,0.00045693,4566.1,0.00015176,10.529,0.00015011,-1.8371,-0.00045678,-4561.8,0.074613
8924,2.4408,6,0,0.00043432,4340.2,0.00014453,13.234,0.0001425,-2.0596,-0.00043413,-4334.6,0.063763
8925,2.2565,6,0,0.00040554,4052.6,0.0001353,16.347,0.00013284,-2.1507,-0.0004053,-4045.5,0.05321
8926,2.0723,6,0,0.00036984,3695.9,0.0001238,19.778,0.0001209,-2.0164,-0.00036953,-3686.9,0.042934
8927,1.888,6,0,0.00032662,3264,0.00010981,23.25,0.0001065,-1.6077,-0.00032625,-3253.1,0.032916
8928,1.7037,6,0,0.00027562,2754.3,9.318e-05,26.282,8.9592e-05,-0.67445,-0.00027517,-2741.4,0.023136
8929,1.5195,6,0,0.00021688,2167.3,7.3875e-05,27.679,7.0201e-05,0.069996,-0.00021639,-2153.3,0.013601
8930,1.3352,6,0,0.00015089,1507.9,5.1839e-05,26.496,4.8755e-05,3.3239,-0.00015037,-1492.8,0.0046498
8931,1.1509,6,0,7.6608e-05,765.55,2.7577e-05,24.179,2.3578e-05,-5.8683,-7.6252e-05,-755.95,0.0061208
8932,0.96667,6,0,7.9546e-06,79.491,5.6321e-06,16.378,-3.0298e-06,-48.704,-6.1592e-06,-72.217,0.01511
8933,0.8,1.8182,0,0.0011123,11115,0.00070597,4316.7,0.00013279,10.126,-0.00097419,-8307.3,0.0038916
8934,0.8,1.6364,0,0.00061434,6139.1,0.00028314,1100.9,0.00016332,200.59,-0.00058722,-5438.7,0.0027756
8935,0.8,1.4545,0,0.00045208,4517.7,0.00021641,858.06,0.00010944,54.329,-0.00043116,-4007.6,0.0019493
8936,0.8,1.2727,0,0.00032126,3210.4,0.00014392,494.35,8.5244e-05,53.469,-0.00030966,-2913.7,0.001353
8937,0.8,1.0909,0,0.00023038,2302.2,0.00010003,310.94,6.2824e-05,31.395,-0.00022328,-2118.2,0.00092741
8938,0.8,0.90909,0,0.00016302,1629.1,6.8548e-05,192.74,4.5944e-05,22.901,-0.00015869,-1514.6,0.00062918
8939,0.8,0.72727,0,0.00011277,1126.9,4.625e-05,118.65,3.2502e-05,15.35,-0.00011013,-1056.4,0.00042387
8940,0.8,0.54545,0,7.4946e-05,748.95,3.0134e-05,71.596,2.2e-05,10.484,-7.3363e-05,-706.03,0.00028451
8941,0.8,0.36364,0,4.5945e-05,459.13,1.8161e-05,40.812,1.3755e-05,7.7057,-4.503e-05,-433.98,0.00019
8942,0.8,0.18182,0,2.2047e-05,220.31,8.7932e-06,20.127,6.5106e-06,2.9758,-2.1604e-05,-208.26,0.00012371
8943,0.8,2,0,0.0032226,32204,0.0014256,2599.9,0.0006554,-3187.3,-0.0031933,-32105,0.0055361
8944,0.96667,0.18182,0,6.2179e-05,621.36,2.9419e-05,118.87,1.581e-05,16.621,-5.924e-05,-547.27,0.013223
8945,0.96667,0.36364,0,0.00011408,1140,6.1044e-05,304.05,2.3641e-05,23.026,-0.00010589,-950.19,0.011316
8946,0.96667,0.54545,0,0.00016375,1636.3,9.5016e-05,527.85,2.7898e-05,23.55,-0.00014843,-1301.3,0.0093811
8947,0.96667,0.72727,0,0.00021678,2166.3,0.00013319,794.77,3.0897e-05,26.19,-0.00019233,-1651,0.0074232
8948,0.96667,0.90909,0,0.00027656,2763.7,0.00017758,1116.2,3.3082e-05,30.544,-0.00024056,-2025.5,0.0054717
8949,0.96667,1.0909,0,0.00034751,3472.7,0.00023142,1514.3,3.4428e-05,34.195,-0.00029662,-2453.2,0.0036362
8950,0.96667,1.2727,0,0.00043667,4363.7,0.00029976,2031.7,3.6065e-05,50.378,-0.00036608,-2971.2,0.002398
8951,0.96667,1.4545,0,0.00056116,5607.8,0.00039791,2780,3.3914e-05,45.033,-0.0004606,-3670.5,0.0028944
8952,0.96667,1.6364,0,0.00072003,7195.3,0.00051277,3653.1,4.8371e-05,163.76,-0.00058852,-4621.6,0.0046871
8953,0.96667,1.8182,0,0.0012852,12843,0.0010153,7837.6,-2.9362e-05,-11.605,-0.00095728,-6983.6,0.0068683
8954,0.96667,2,0,0.0032632,32609,0.0016468,6369.4,0.00063848,-1206.9,-0.0031086,-29361,0.0092263
8955,0.8,4.1818,0,0.0011123,11115,0.00070597,4316.7,0.00013279,10.126,-0.00097419,-8307.3,0.0038916
8956,0.8,4.3636,0,0.00061434,6139.1,0.00028314,1100.9,0.00016332,200.59,-0.00058722,-5438.7,0.0027756
8957,0.8,4.5455,0,0.00045208,4517.7,0.00021641,858.06,0.00010944,54.329,-0.00043116,-4007.6,0.0019493
8958,0.8,4.7273,0,0.00032126,3210.4,0.00014392,494.35,8.5244e-05,53.469,-0.00030966,-2913.7,0.001353
8959,0.8,4.9091,0,0.00023038,2302.2,0.00010003,310.94,6.2824e-05,31.395,-0.00022328,-2118.2,0.00092741
8960,0.8,5.0909,0,0.00016302,1629.1,6.8548e-05,192.74,4.5944e-05,22.901,-0.00015869,-1514.6,0.00062918
8961,0.8,5.2727,0,0.00011277,1126.9,4.625e-05,118.65,3.2502e-05,15.35,-0.00011013,-1056.4,0.00042387
8962,0.8,5.4545,0,7.4946e-05,748.95,3.0134e-05,71.596,2.2e-05,10.484,-7.3363e-05,-706.03,0.00028451
8963,0.8,5.6364,0,4.5945e-05,459.13,1.8161e-05,40.812,1.3755e-05,7.7057,-4.503e-05,-433.98,0.00019
8964,0.8,5.8182,0,2.2047e-05,220.31,8.7932e-06,20.127,6.5106e-06,2.9758,-2.1604e-05,-208.26,0.00012371
8965,0.8,4,0,0.0032226,32204,0.0014256,2599.9,0.0006554,-3187.3,-0.0031933,-32105,0.0055361
8966,0.96667,5.8182,0,6.2179e-05,621.36,2.9419e-05,118.87,1.581e-05,16.621,-5.924e-05,-547.27,0.013223
8967,0.96667,5.6364,0,0.00011408,1140,6.1044e-05,304.05,2.3641e-05,23.026,-0.00010589,-950.19,0.011316
8968,0.96667,5.4545,0,0.00016375,1636.3,9.5016e-05,527.85,2.7898e-05,23.55,-0.00014843,-1301.3,0.0093811
8969,0.96667,5.2727,0,0.00021678,2166.3,0.00013319,794.77,3.0897e-05,26.19,-0.00019233,-1651,0.0074232
8970,0.96667,5.0909,0,0.00027656,2763.7,0.00017758,1116.2,3.3082e-05,30.544,-0.00024056,-2025.5,0.0054717
8971,0.96667,4.9091,0,0.00034751,3472.7,0.00023142,1514.3,3.4428e-05,34.195,-0.00029662,-2453.2,0.0036362
8972,0.96667,4.7273,0,0.00043667,4363.7,0.00029976,2031.7,3.6065e-05,50.378,-0.00036608,-2971.2,0.002398
8973,0.96667,4.5455,0,0.00056116,5607.8,0.00039791,2780,3.3914e-05,45.033,-0.0004606,-3670.5,0.0028944
8974,0.96667,4.3636,0,0.00072003,7195.3,0.00051277,3653.1,4.8371e-05,163.76,-0.00058852,-4621.6,0.0046871
8975,0.96667,4.1818,0,0.0012852,12843,0.0010153,7837.6,-2.9362e-05,-11.604,-0.00095728,-6983.6,0.0068683
8976,0.96667,4,0,0.0032632,32609,0.0016468,6369.4,0.00063848,-1206.9,-0.0031086,-29361,0.0092263
8977,0.24,2,0,0.00092037,9197.4,0.00046081,446.83,4.3139e-05,-2691.4,-0.00091746,-9908.9,0.00047291
8978,0.16,2.0909,0,0.001029,10283,0.00057001,1346,1.5956e-05,-2816.9,-0.00098868,-10365,0.00024796
8979,0.16,1.9091,0,0.00083561,8350.3,0.00046175,1074.4,1.3545e-05,-2293.3,-0.00080372,-8433.8,0.00019852
8980,0.16,2,0.05,3.2035e-05,320.13,2.4599e-05,184.83,1.2445e-10,0.0012555,-2.4599e-05,-184.83,0.00017454
8981,0.08,2,0,0.00068799,6875.2,0.00025796,-1671.8,4.1894e-06,-3578.5,-0.00075717,-9299.1,7.1725e-05
8982,0.4,2,0,0.0010295,10287,0.00044333,-47.152,0.00014414,-2295.1,-0.0010507,-11273,0.0012986
8983,0.32,2.0909,0,0.0010089,10082,0.00044443,-342.75,8.9749e-05,-3007.7,-0.0010391,-11489,0.00092359
8984,0.32,1.9091,0,0.00083274,8321.7,0.00036258,-271.73,8.4182e-05,-2363.5,-0.0008576,-9439.7,0.00074069
8985,0.32,2,0.05,3.2464e-05,324.41,2.4928e-05,187.3,1.0739e-10,0.0011765,-2.4928e-05,-187.3,0.00077785
8986,0.56,2,0,0.0014178,14169,0.00050373,-131.68,0.00039378,-957.83,-0.0014346,-14695,0.0025753
8987,0.48,2.0909,0,0.0012327,12319,0.00052245,188.1,0.00021433,-2127,-0.0012493,-13124,0.0020921
8988,0.48,1.9091,0,0.001022,10213,0.0004151,169.81,0.00021398,-1341.3,-0.0010335,-10714,0.0016692
8989,0.48,2,0.05,4.0221e-05,401.93,3.0884e-05,232.05,9.2594e-11,0.0011041,-3.0884e-05,-232.05,0.0018211
8990,0.64,2.0909,0,0.0016835,16823,0.0005645,-348.05,0.00050828,-770.44,-0.0017021,-17378,0.0038054
8991,0.64,1.9091,0,0.0014606,14596,0.00060484,1088.7,0.00036705,-697.91,-0.0014458,-14319,0.0029904
8992,0.64,2,0.05,0.00018007,1799.5,0.00013827,1038.9,4.5955e-11,0.0011892,-0.00013827,-1038.9,0.0033299
8993,0.72,2,0,0.0024438,24422,0.00094238,805.59,0.000644,-1436.3,-0.0024468,-24660,0.0043664
8994,0.96667,2.2727,0,0.00193,19286,0.00065004,207.96,0.00063369,85.059,-0.001925,-19140,0.011385
8995,0.88333,2.1818,0,0.0021484,21470,0.00072679,182.52,0.00069555,-52.214,-0.0021461,-21404,0.0086993
8996,1.0588,2.1818,0,0.0018433,18420,0.00064663,544.6,0.00059311,142.45,-0.0018313,-18074,0.013487
8997,0.96667,2.1818,0.05,0.00014156,1414.6,0.0001087,816.71,9.8787e-11,0.0019248,-0.0001087,-816.71,0.010705
8998,0.96667,2.0909,0,0.0026349,26331,0.0011713,3306.3,0.00064269,-665.49,-0.0025674,-24785,0.010111
8999,0.96667,2.4545,0,0.0015967,15956,0.0005621,-18.149,0.00046475,-749.6,-0.0016085,-16327,0.012235
9000,0.88333,2.3636,0,0.0017096,17084,0.00059573,-35.214,0.00050682,-703.27,-0.0017212,-17443,0.0097239
9001,1.0588,2.3636,0,0.001572,15709,0.0005385,-26.711,0.00048262,-446.54,-0.0015796,-15941,0.014483
9002,0.96667,2.3636,0.05,2.8649e-05,286.29,2.1999e-05,165.29,3.6426e-11,0.00095878,-2.1999e-05,-165.29,0.011758
9003,0.96667,2.6364,0,0.001447,14460,0.00054032,-4.1366,0.00036724,-1304.6,-0.0014648,-15070,0.012782
9004,0.88333,2.5455,0,0.0015147,15136,0.00056447,2.1578,0.00038713,-1330.3,-0.0015329,-15757,0.010395
9005,1.0588,2.5455,0,0.0014254,14244,0.00052189,3.6967,0.00038121,-1053.3,-0.0014403,-14739,0.015159
9006,0.96667,2.5455,0.05,2.1625e-05,216.1,1.6605e-05,124.77,3.5745e-11,0.00068621,-1.6605e-05,-124.76,0.012454
9007,0.96667,2.8182,0,0.0013745,13735,0.00053096,-4.9787,0.00031624,-1618.3,-0.0013949,-14475,0.013088
9008,0.88333,2.7273,0,0.0014139,14130,0.00055022,-1.3575,0.00031825,-1744.2,-0.0014355,-14922,0.010803
9009,1.0588,2.7273,0,0.0013457,13448,0.00051186,-4.1914,0.00032445,-1412.3,-0.0013643,-14101,0.015577
9010,0.96667,2.7273,0.05,1.7646e-05,176.34,1.355e-05,101.81,1.7117e-11,0.00040079,-1.355e-05,-101.81,0.012877
9011,0.96667,3,0,0.0013529,13520,0.00052869,-3.9741,0.00030014,-1721.2,-0.0013741,-14301,0.013186
9012,0.88333,2.9091,0,0.0013713,13703,0.00054594,1.4376,0.00028574,-1953.6,-0.001394,-14574,0.010997
9013,1.0588,2.9091,0,0.0013104,13095,0.00050873,-1.5678,0.0002972,-1590.9,-0.0013303,-13819,0.015777
9014,0.96667,2.9091,0.05,1.6806e-05,167.95,1.2905e-05,96.964,5.5235e-12,0.00012106,-1.2905e-05,-96.964,0.013078
9015,0.96667,3.1818,0,0.0013745,13735,0.00053096,-4.9787,0.00031624,-1618.3,-0.0013949,-14475,0.013088
9016,0.88333,3.0909,0,0.0013713,13703,0.00054594,1.4376,0.00028574,-1953.6,-0.001394,-14574,0.010997
9017,1.0588,3.0909,0,0.0013104,13095,0.00050873,-1.5678,0.0002972,-1590.9,-0.0013303,-13819,0.015777
9018,0.96667,3.0909,0.05,1.6806e-05,167.95,1.2905e-05,96.964,-5.5209e-12,-0.00012099,-1.2905e-05,-96.964,0.013078
9019,0.96667,3.3636,0,0.001447,14460,0.00054032,-4.1366,0.00036724,-1304.6,-0.0014648,-15070,0.012782
9020,0.88333,3.2727,0,0.0014139,14130,0.00055022,-1.3575,0.00031825,-1744.2,-0.0014355,-14922,0.010803
9021,1.0588,3.2727,0,0.0013457,13448,0.00051186,-4.1914,0.00032445,-1412.3,-0.0013643,-14101,0.015577
9022,0.96667,3.2727,0.05,1.7646e-05,176.34,1.355e-05,101.81,-2.0751e-11,-0.00038555,-1.355e-05,-101.81,0.012877
9023,0.96667,3.5455,0,0.0015967,15956,0.0005621,-18.149,0.00046475,-749.6,-0.0016085,-16327,0.012235
9024,0.88333,3.4545,0,0.0015147,15136,0.00056447,2.1578,0.00038713,-1330.3,-0.0015329,-15757,0.010395
9025,1.0588,3.4545,0,0.0014254,14244,0.00052189,3.6967,0.00038121,-1053.3,-0.0014403,-14739,0.015159
9026,0.96667,3.4545,0.05,2.1625e-05,216.1,1.6605e-05,124.76,-3.5763e-11,-0.0006864,-1.6605e-05,-124.77,0.012454
9027,0.96667,3.7273,0,0.00193,19286,0.00065004,207.96,0.00063369,85.059,-0.001925,-19140,0.011385
9028,0.88333,3.6364,0,0.0017096,17084,0.00059573,-35.214,0.00050682,-703.27,-0.0017212,-17443,0.0097239
9029,1.0588,3.6364,0,0.001572,15709,0.0005385,-26.711,0.00048262,-446.54,-0.0015796,-15941,0.014483
9030,0.96667,3.6364,0.05,2.8649e-05,286.29,2.1999e-05,165.29,-2.8507e-11,-0.00097158,-2.1999e-05,-165.29,0.011758
9031,0.88333,3.8182,0,0.0021484,21470,0.00072679,182.52,0.00069555,-52.217,-0.0021461,-21404,0.0086993
9032,1.0588,3.8182,0,0.0018433,18420,0.00064663,544.6,0.00059311,142.45,-0.0018313,-18074,0.013487
9033,0.96667,3.8182,0.05,0.00014156,1414.6,0.0001087,816.71,-1.1298e-10,-0.0019107,-0.0001087,-816.71,0.010705
9034,0.96667,3.9091,0,0.0026349,26331,0.0011713,3306.3,0.00064269,-665.49,-0.0025674,-24785,0.010111
9035,0.24,4,0,0.00092037,9197.4,0.00046081,446.83,4.3139e-05,-2691.4,-0.00091746,-9908.9,0.00047291
9036,0.16,4.0909,0,0.00083561,8350.3,0.00046175,1074.4,1.3545e-05,-2293.3,-0.00080372,-8433.8,0.00019852
9037,0.16,3.9091,0,0.001029,10283,0.00057002,1346,1.5956e-05,-2816.9,-0.00098868,-10365,0.00024796
9038,0.16,4,0.05,3.2035e-05,320.13,2.4599e-05,184.83,-1.1583e-10,-0.0012572,-2.4599e-05,-184.83,0.00017454
9039,0.08,4,0,0.00068799,6875.2,0.00025796,-1671.8,4.1895e-06,-3578.5,-0.00075717,-9299.1,7.1725e-05
9040,0.4,4,0,0.0010295,10287,0.00044333,-47.152,0.00014414,-2295.1,-0.0010507,-11273,0.0012986
9041,0.32,4.0909,0,0.00083274,8321.7,0.00036258,-271.73,8.4182e-05,-2363.5,-0.0008576,-9439.7,0.00074069
9042,0.32,3.9091,0,0.0010089,10082,0.00044443,-342.75,8.9749e-05,-3007.7,-0.0010391,-11489,0.00092359
9043,0.32,4,0.05,3.2464e-05,324.41,2.4928e-05,187.3,-1.0272e-10,-0.0013164,-2.4928e-05,-187.3,0.00077785
9044,0.56,4,0,0.0014178,14169,0.00050373,-131.68,0.00039378,-957.83,-0.0014346,-14695,0.0025753
9045,0.48,4.0909,0,0.001022,10213,0.0004151,169.81,0.00021398,-1341.3,-0.0010335,-10714,0.0016692
9046,0.48,3.9091,0,0.0012327,12319,0.00052245,188.1,0.00021433,-2127,-0.0012493,-13124,0.0020921
9047,0.48,4,0.05,4.0221e-05,401.93,3.0884e-05,232.05,-9.264e-11,-0.0010375,-3.0884e-05,-232.05,0.0018211
9048,0.64,4.0909,0,0.0014606,14596,0.00060484,1088.7,0.00036705,-697.91,-0.0014458,-14319,0.0029904
9049,0.64,3.9091,0,0.0016835,16823,0.0005645,-348.05,0.00050828,-770.44,-0.0017021,-17378,0.0038054
9050,0.64,4,0.05,0.00018007,1799.5,0.00013827,1038.9,-6.9463e-11,-0.0012429,-0.00013827,-1038.9,0.0033299
9051,0.72,4,0,0.0024438,24422,0.00094238,805.59,0.000644,-1436.3,-0.0024468,-24660,0.0043664
9052,0.64,5.7273,0,4.6055e-05,460.23,2.0493e-05,55.861,1.1005e-05,-15.426,-4.4951e-05,-435.86,0.00010447
9053,0.56,5.8182,0,3.731e-05,372.85,1.631e-05,41.395,9.0899e-06,-12.852,-3.6527e-05,-355.6,6.055e-05
9054,0.64,5.8182,0.05,4.747e-06,47.437,3.6451e-06,27.388,-6.3598e-14,-5.8093e-15,-3.6451e-06,-27.388,7.8421e-05
9055,0.64,5.9091,0,2.4683e-05,246.66,1.0022e-05,19.164,6.644e-06,-6.22,-2.4365e-05,-239.21,5.8904e-05
9056,0.72,5.8182,0,2.5734e-05,257.16,1.0091e-05,16.895,7.2818e-06,-4.2113,-2.5453e-05,-250.17,0.00010224
9057,0.64,5.5455,0,7.4854e-05,748.03,3.2285e-05,83.332,1.9089e-05,-15.819,-7.3211e-05,-709.33,0.00016253
9058,0.56,5.6364,0,5.5534e-05,554.95,2.1944e-05,31.037,1.4893e-05,-21.939,-5.5189e-05,-548.51,0.00010242
9059,0.64,5.6364,0.05,5.7047e-06,57.008,4.3805e-06,32.914,1.8087e-14,-1.7556e-06,-4.3805e-06,-32.914,0.00012856
9060,0.72,5.6364,0,4.8647e-05,486.13,1.827e-05,27.293,1.4762e-05,0.93954,-4.8113e-05,-471.48,0.00016096
9061,0.64,5.3636,0,0.00011462,1145.4,4.9665e-05,133.3,2.9356e-05,-19.293,-0.00011191,-1080.7,0.00024472
9062,0.56,5.4545,0,8.5031e-05,849.73,3.2821e-05,39.127,2.341e-05,-31.587,-8.4682e-05,-843.75,0.0001576
9063,0.64,5.4545,0.05,7.7447e-06,77.394,5.947e-06,44.683,1.3182e-13,-1.6128e-06,-5.947e-06,-44.683,0.00019607
9064,0.72,5.4545,0,7.8553e-05,784.99,3.0188e-05,52.325,2.3401e-05,1.3267,-7.7516e-05,-756.92,0.00024282
9065,0.64,5.1818,0,0.00016908,1689.6,7.448e-05,214.34,4.2751e-05,-24.058,-0.00016458,-1581.8,0.0003649
9066,0.56,5.2727,0,0.00012651,1264.2,4.8565e-05,59.258,3.5411e-05,-39.579,-0.00012589,-1251.5,0.00023672
9067,0.64,5.2727,0.05,1.0656e-05,106.49,8.1825e-06,61.48,1.2315e-12,1.0331e-05,-8.1825e-06,-61.48,0.0002937
9068,0.72,5.2727,0,0.00011823,1181.5,4.6584e-05,92.815,3.4503e-05,2.0412,-0.00011636,-1131.4,0.00036251
9069,0.64,5,0,0.00024404,2438.8,0.00011005,343.34,6.0209e-05,-31.158,-0.00023657,-2261,0.00053983
9070,0.56,5.0909,0,0.00018404,1839.2,7.1055e-05,98.148,5.1924e-05,-45.593,-0.00018273,-1808.7,0.00035211
9071,0.64,5.0909,0.05,1.4708e-05,146.98,1.1294e-05,84.86,4.4534e-12,1.4788e-05,-1.1294e-05,-84.86,0.00043654
9072,0.72,5.0909,0,0.0001717,1715.8,6.9668e-05,159.81,4.885e-05,3.3867,-0.00016838,-1628.8,0.0005382
9073,0.64,4.8182,0,0.00034795,3477.1,0.00016126,547.64,8.3241e-05,-38.59,-0.00033556,-3185.3,0.00078972
9074,0.56,4.9091,0,0.00026318,2630,0.00010303,165.57,7.41e-05,-51.773,-0.00026057,-2566.3,0.00051821
9075,0.64,4.9091,0.05,2.0296e-05,202.82,1.5584e-05,117.1,5.1422e-12,4.3136e-05,-1.5584e-05,-117.1,0.00064282
9076,0.72,4.9091,0,0.00024415,2439.8,0.00010259,269.48,6.7079e-05,2.6405,-0.00023842,-2292.8,0.00079257
9077,0.64,4.6364,0,0.0004932,4928.6,0.00023484,852.56,0.00011343,-59.652,-0.00047333,-4468.4,0.0011381
9078,0.56,4.7273,0,0.00037207,3718.1,0.00014841,277.8,0.00010396,-56.183,-0.00036717,-3596.1,0.00075139
9079,0.64,4.7273,0.05,2.8292e-05,282.72,2.1724e-05,163.23,4.3737e-12,8.1793e-06,-2.1724e-05,-163.23,0.00093419
9080,0.72,4.7273,0,0.00034323,3429.9,0.00014909,443.67,9.1583e-05,11.618,-0.00033343,-3181.8,0.0011537
9081,0.64,4.4545,0,0.0007093,7088.1,0.00034798,1372.7,0.00015772,-56.852,-0.00067601,-6321.2,0.0016105
9082,0.56,4.5455,0,0.00052196,5215.9,0.00021175,432.62,0.00014348,-80.327,-0.00051407,-5020.9,0.0010687
9083,0.64,4.5455,0.05,3.9438e-05,394.11,3.0284e-05,227.54,-2.0718e-12,-3.4823e-05,-3.0284e-05,-227.54,0.0013347
9084,0.72,4.5455,0,0.00048264,4823,0.00022129,749.74,0.0001191,-18.094,-0.00046558,-4411.1,0.0016556
9085,0.64,4.2727,0,0.0010424,10417,0.00050304,1830.1,0.00022937,-226.15,-0.00099974,-9461.2,0.0022273
9086,0.56,4.3636,0,0.0007362,7357,0.0003018,672.51,0.00020264,-72.552,-0.00072316,-7028.6,0.001483
9087,0.64,4.3636,0.05,5.7967e-05,579.27,4.4511e-05,334.44,-1.64e-11,-0.00020647,-4.4511e-05,-334.44,0.0018685
9088,0.72,4.3636,0,0.00067804,6775.7,0.00030545,1068.8,0.00017921,120.3,-0.00065281,-6131.2,0.0023377
9089,0.56,4.1818,0,0.0010609,10601,0.00042279,688.29,0.00028709,-331.33,-0.0010511,-10386,0.0019937
9090,0.64,4.1818,0.05,0.00011925,1191.7,9.1572e-05,688.04,-1.4691e-10,-0.0014799,-9.1572e-05,-688.04,0.0025424
9091,0.72,4.1818,0,0.0010387,10380,0.00056243,2495.5,0.00017238,-435.24,-0.00097209,-9034.3,0.0032462
9092,0.48,5.7273,0,4.7931e-05,478.98,1.855e-05,22.502,1.315e-05,-18.072,-4.7727e-05,-475.48,5.8576e-05
9093,0.4,5.8182,0,4.1704e-05,416.75,1.7439e-05,41.024,1.1131e-05,-6.3768,-4.0912e-05,-397.4,2.7651e-05
9094,0.48,5.8182,0.05,3.1193e-06,31.171,2.3952e-06,17.997,-8.9283e-13,-7.8065e-06,-2.3952e-06,-17.997,4.0045e-05
9095,0.48,5.9091,0,3.4821e-05,347.97,1.3271e-05,21.613,1.0419e-05,0.17967,-3.44e-05,-336.57,2.7269e-05
9096,0.48,5.5455,0,6.822e-05,681.73,2.6316e-05,15.657,1.7304e-05,-52.054,-6.8587e-05,-697.4,9.5352e-05
9097,0.4,5.6364,0,5.2622e-05,525.86,2.0142e-05,4.451,1.2901e-05,-49.958,-5.3185e-05,-546.5,5.2508e-05
9098,0.48,5.6364,0.05,4.0721e-06,40.693,3.1269e-06,23.494,-7.2052e-13,-4.2655e-06,-3.1269e-06,-23.494,7.2996e-05
9099,0.48,5.3636,0,0.00010054,1004.7,3.8944e-05,19.353,2.4852e-05,-86.532,-0.00010127,-1034.1,0.00014539
9100,0.4,5.4545,0,7.5619e-05,755.67,3.0396e-05,-0.71637,1.5128e-05,-115.44,-7.6938e-05,-807.18,8.2998e-05
9101,0.48,5.4545,0.05,5.4963e-06,54.925,4.2205e-06,31.711,-1.2115e-13,-2.6661e-06,-4.2205e-06,-31.711,0.00011423
9102,0.48,5.1818,0,0.00014665,1465.5,5.6386e-05,27.567,3.6948e-05,-118.49,-0.00014765,-1505.5,0.00021779
9103,0.4,5.2727,0,0.00011066,1105.8,4.4873e-05,-3.476,2.114e-05,-181.79,-0.00011272,-1187.6,0.00012572
9104,0.48,5.2727,0.05,7.4026e-06,73.975,5.6843e-06,42.709,1.6024e-12,5.8981e-06,-5.6843e-06,-42.709,0.00017248
9105,0.48,5,0,0.00021065,2105.1,8.0127e-05,41.327,5.482e-05,-148.82,-0.00021183,-2152.4,0.00032275
9106,0.4,5.0909,0,0.00016052,1604.1,6.4589e-05,-6.4399,3.1499e-05,-255.06,-0.00016352,-1720.3,0.00018779
9107,0.48,5.0909,0.05,1.0034e-05,100.27,7.7048e-06,57.891,1.7175e-12,1.4462e-05,-7.7048e-06,-57.891,0.00025724
9108,0.48,4.8182,0,0.00029829,2980.9,0.00011227,61.779,8.0098e-05,-179.94,-0.00029957,-3032.6,0.00047157
9109,0.4,4.9091,0,0.00022935,2291.9,9.1254e-05,-10.53,4.6838e-05,-344.26,-0.00023355,-2451,0.00027683
9110,0.48,4.9091,0.05,1.3649e-05,136.4,1.0481e-05,78.749,1.593e-12,-1.4402e-05,-1.0481e-05,-78.75,0.00037905
9111,0.48,4.6364,0,0.00041711,4168.2,0.00015609,89.086,0.00011388,-228.04,-0.00041856,-4228.6,0.00067576
9112,0.4,4.7273,0,0.00032266,3224.4,0.00012713,-16.643,6.8088e-05,-460.23,-0.00032847,-3439.8,0.00040057
9113,0.48,4.7273,0.05,1.8283e-05,182.71,1.4039e-05,105.49,-2.1483e-12,-5.5476e-05,-1.4039e-05,-105.49,0.00054921
9114,0.48,4.4545,0,0.00057564,5752.5,0.00021592,110.81,0.0001551,-346.15,-0.00057828,-5856.5,0.00094437
9115,0.4,4.5455,0,0.00044727,4469.6,0.00017574,-25.685,9.5028e-05,-632.16,-0.00045537,-4767.6,0.00056532
9116,0.48,4.5455,0.05,2.5387e-05,253.69,1.9494e-05,146.47,-1.8329e-11,-0.00020434,-1.9494e-05,-146.47,0.00077795
9117,0.48,4.2727,0,0.00078686,7863.2,0.0003015,131.48,0.00019857,-641.93,-0.00079269,-8089.8,0.0012791
9118,0.4,4.3636,0,0.00060993,6095.1,0.00024216,-44.4,0.00012393,-932.74,-0.00062167,-6534.9,0.00077344
9119,0.48,4.3636,0.05,3.3558e-05,335.35,2.5768e-05,193.61,-4.3371e-11,-0.00050336,-2.5768e-05,-193.61,0.0010707
9120,0.4,4.1818,0,0.00081777,8172.1,0.00033488,-50.875,0.00014742,-1459.4,-0.0008343,-8835.6,0.001021
9121,0.48,4.1818,0.05,4.723e-05,471.97,3.6267e-05,272.49,-1.0996e-10,-0.0011425,-3.6267e-05,-272.49,0.0014242
9122,0.32,5.7273,0,4.6504e-05,464.72,1.711e-05,8.5351,1.3087e-05,-21.691,-4.6654e-05,-470.56,2.4581e-05
9123,0.24,5.8182,0,3.6276e-05,362.51,1.5531e-05,42.041,9.6284e-06,-2.3063,-3.5396e-05,-340.6,8.1245e-06
9124,0.32,5.8182,0.05,2.3536e-06,23.52,1.8073e-06,13.579,-7.8724e-13,-1.0532e-05,-1.8073e-06,-13.579,1.3749e-05
9125,0.32,5.9091,0,3.7413e-05,373.87,1.5361e-05,38.445,1.0664e-05,3.1466,-3.658e-05,-351.83,8.3007e-06
9126,0.32,5.5455,0,6.142e-05,613.77,2.4462e-05,-10.12,1.1775e-05,-105.44,-6.2828e-05,-665.98,4.2671e-05
9127,0.24,5.6364,0,4.6092e-05,460.6,2.0148e-05,18.821,7.9942e-06,-72.502,-4.6321e-05,-480.61,1.8541e-05
9128,0.32,5.6364,0.05,3.7422e-06,37.396,2.8735e-06,21.591,5.8512e-13,1.0953e-06,-2.8735e-06,-21.591,3.0625e-05
9129,0.32,5.3636,0,8.8378e-05,883.17,3.6821e-05,-19.815,1.3247e-05,-196.94,-9.0722e-05,-978.12,6.6078e-05
9130,0.24,5.4545,0,6.7095e-05,670.48,3.2165e-05,28.515,5.8684e-06,-169.07,-6.7264e-05,-718.56,3.0256e-05
9131,0.32,5.4545,0.05,4.8826e-06,48.793,3.7492e-06,28.17,1.6427e-12,3.6339e-06,-3.7492e-06,-28.17,4.9606e-05
9132,0.32,5.1818,0,0.00012857,1284.8,5.3844e-05,-31.711,1.8421e-05,-297.86,-0.00013209,-1428.7,9.9658e-05
9133,0.24,5.2727,0,9.9226e-05,991.57,4.8541e-05,43.36,6.676e-06,-271.2,-9.9284e-05,-1067.3,4.6282e-05
9134,0.32,5.2727,0.05,6.5284e-06,65.239,5.013e-06,37.666,2.5876e-12,6.7638e-06,-5.013e-06,-37.666,7.5685e-05
9135,0.32,5,0,0.00018504,1849.2,7.6988e-05,-48.742,2.7211e-05,-422.75,-0.0001902,-2056.3,0.00014835
9136,0.24,5.0909,0,0.00014558,1454.8,7.1332e-05,65.775,9.775e-06,-396.74,-0.00014558,-1564,6.9621e-05
9137,0.32,5.0909,0.05,8.8588e-06,88.527,6.8024e-06,51.111,3.2213e-12,-2.8574e-06,-6.8024e-06,-51.111,0.0001136
9138,0.32,4.8182,0,0.00026188,2617,0.00010824,-72.951,3.9531e-05,-589.21,-0.0002693,-2909.6,0.00021711
9139,0.24,4.9091,0,0.00021034,2101.9,0.00010289,98.618,1.4912e-05,-562.37,-0.00021028,-2254.4,0.00010318
9140,0.32,4.9091,0.05,1.1963e-05,119.54,9.1859e-06,69.019,-1.8857e-12,-3.5489e-05,-9.1859e-06,-69.019,0.0001681
9141,0.32,4.6364,0,0.00036396,3637,0.00015025,-105.42,5.4896e-05,-821.84,-0.0003744,-4047.4,0.00031019
9142,0.24,4.7273,0,0.00029813,2979.3,0.00014565,144.08,2.1995e-05,-785.05,-0.00029796,-3189.1,0.00014958
9143,0.32,4.7273,0.05,1.6049e-05,160.38,1.2324e-05,92.597,-8.6743e-12,-0.00012332,-1.2324e-05,-92.598,0.00024364
9144,0.32,4.4545,0,0.00049476,4944.2,0.00020595,-151.11,7.0425e-05,-1169.4,-0.00050929,-5525.1,0.00042978
9145,0.24,4.5455,0,0.00041365,4133.6,0.00020219,203.36,3.0668e-05,-1085.4,-0.00041329,-4421.1,0.00021044
9146,0.32,4.5455,0.05,2.0982e-05,209.68,1.6112e-05,121.06,-2.8819e-11,-0.00034538,-1.6112e-05,-121.06,0.00034336
9147,0.32,4.2727,0,0.00065392,6534.7,0.00027827,-206.2,8.0162e-05,-1694.7,-0.00067341,-7356.7,0.00057462
9148,0.24,4.3636,0,0.00055886,5584.7,0.00027444,271.42,3.8254e-05,-1503.2,-0.00055824,-5985,0.00028561
9149,0.32,4.3636,0.05,2.638e-05,263.62,2.0257e-05,152.2,-5.6546e-11,-0.00067504,-2.0257e-05,-152.2,0.00046758
9150,0.24,4.1818,0,0.00073158,7310.8,0.00036341,355,4.0767e-05,-2069.2,-0.00072993,-7859.9,0.00037351
9151,0.32,4.1818,0.05,3.2198e-05,321.75,2.4724e-05,185.76,-8.321e-11,-0.0010721,-2.4724e-05,-185.76,0.00061345
9152,0.16,5.7273,0,3.5706e-05,356.81,1.5214e-05,27.116,8.2144e-06,-25.478,-3.5386e-05,-353.07,5.8711e-06
9153,0.16,5.8182,0.05,3.6714e-06,36.688,2.8192e-06,21.182,1.5473e-12,5.2346e-06,-2.8192e-06,-21.182,1.6724e-06
9154,0.16,5.9091,0,2.6703e-05,266.85,1.2852e-05,44.96,5.7491e-06,-8.4101,-2.5678e-05,-244.54,2.7065e-06
9155,0.08,5.8182,0,1.8773e-05,187.6,8.0714e-06,16.226,4.3763e-06,-11.536,-1.8539e-05,-183.71,1.0927e-06
9156,0.16,5.5455,0,5.3713e-05,536.76,2.8011e-05,58.652,3.6028e-06,-124.74,-5.2432e-05,-545.77,1.1104e-05
9157,0.16,5.6364,0.05,4.0071e-06,40.043,3.077e-06,23.119,2.8059e-12,1.6594e-05,-3.077e-06,-23.119,6.3437e-06
9158,0.08,5.6364,0,2.9229e-05,292.09,1.0669e-05,-58.542,2.089e-06,-123.01,-3.1778e-05,-377.48,2.6624e-06
9159,0.16,5.3636,0,8.1589e-05,815.33,4.4078e-05,93.135,2.3792e-06,-220.17,-7.91e-05,-832.38,1.7463e-05
9160,0.16,5.4545,0.05,4.797e-06,47.937,3.6835e-06,27.676,4.0423e-12,2.5769e-05,-3.6835e-06,-27.676,1.0693e-05
9161,0.08,5.4545,0,4.5919e-05,458.88,1.7515e-05,-101.63,7.0698e-07,-227.91,-5.0202e-05,-610.42,4.4426e-06
9162,0.16,5.1818,0,0.00012178,1217,6.6281e-05,142.74,2.8138e-06,-334.13,-0.00011781,-1240.5,2.6578e-05
9163,0.16,5.2727,0.05,6.4844e-06,64.799,4.9792e-06,37.412,4.2477e-12,2.1392e-05,-4.9792e-06,-37.412,1.6505e-05
9164,0.08,5.2727,0,6.9721e-05,696.72,2.6732e-05,-157.72,4.1047e-07,-355.49,-7.6312e-05,-931.95,6.8598e-06
9165,0.16,5,0,0.00017889,1787.7,9.7577e-05,215.75,4.3246e-06,-484.91,-0.00017285,-1816.1,3.9912e-05
9166,0.16,5.0909,0.05,8.9546e-06,89.484,6.876e-06,51.664,6.7728e-12,2.2228e-05,-6.876e-06,-51.664,2.5091e-05
9167,0.08,5.0909,0,0.00010431,1042.3,3.9765e-05,-240.46,6.2201e-07,-534.56,-0.00011433,-1398.2,1.0424e-05
9168,0.16,4.8182,0,0.00025769,2575.1,0.00014077,319.21,6.683e-06,-688.29,-0.00024872,-2607.3,5.88e-05
9169,0.16,4.9091,0.05,1.2172e-05,121.63,9.3464e-06,70.225,3.2928e-12,-3.5877e-05,-9.3464e-06,-70.225,3.7595e-05
9170,0.08,4.9091,0,0.0001536,1535,5.8092e-05,-360.98,1.1796e-06,-788.6,-0.00016862,-2064.4,1.5602e-05
9171,0.16,4.6364,0,0.0003622,3619.5,0.00019818,457.24,9.6291e-06,-959.48,-0.0003493,-3656.4,8.4214e-05
9172,0.16,4.7273,0.05,1.6089e-05,160.78,1.2354e-05,92.824,-4.385e-12,-9.9007e-05,-1.2354e-05,-92.824,5.4974e-05
9173,0.08,4.7273,0,0.00022119,2210.4,8.3035e-05,-528.52,2.089e-06,-1136.7,-0.00024315,-2979.3,2.2771e-05
9174,0.16,4.4545,0,0.00049467,4943.3,0.00027128,630.39,1.2351e-05,-1315.1,-0.0004767,-4989.6,0.00011634
9175,0.16,4.5455,0.05,2.0652e-05,206.38,1.5858e-05,119.15,-1.4654e-11,-0.00024682,-1.5858e-05,-119.15,7.7684e-05
9176,0.08,4.5455,0,0.00030933,3091.1,0.00011558,-746.95,3.2405e-06,-1591,-0.00034032,-4172.4,3.2098e-05
9177,0.16,4.2727,0,0.00065407,6536.2,0.00036001,835.78,1.3454e-05,-1768.1,-0.00062977,-6601,0.00015458
9178,0.16,4.3636,0.05,2.5661e-05,256.43,1.9704e-05,148.05,-4.1124e-11,-0.00053716,-1.9704e-05,-148.05,0.00010543
9179,0.08,4.3636,0,0.00041804,4177.5,0.0001562,-1011.8,4.1316e-06,-2154.4,-0.00046001,-5641.8,4.3446e-05
9180,0.16,4.1818,0.05,3e-05,299.8,2.3037e-05,173.09,-7.9046e-11,-0.00098149,-2.3037e-05,-173.09,0.00013763
9181,0.08,4.1818,0,0.00054514,5447.6,0.00020435,-1319.2,4.0036e-06,-2824.5,-0.00059979,-7361.2,5.6612e-05
9182,0.24,3.8182,0,0.0011035,11028,0.00055365,556.64,5.1482e-05,-3216.5,-0.0010992,-11862,0.00058038
9183,0.16,3.7273,0,0.0012161,12153,0.00067483,1632.5,2.0927e-05,-3280.7,-0.0011672,-12208,0.00030006
9184,0.16,3.8182,0.05,2.9729e-05,297.09,2.2829e-05,171.52,-1.6175e-10,-0.0017374,-2.2828e-05,-171.52,0.00021587
9185,0.08,3.8182,0,0.00083968,8391,0.00031257,-2069.9,6.8037e-06,-4367.3,-0.00092524,-11370,8.8624e-05
9186,0.4,3.8182,0,0.0012104,12096,0.00052383,-105.33,0.00015913,-2845.6,-0.0012371,-13336,0.0015905
9187,0.32,3.7273,0,0.0011536,11528,0.00050999,-404.76,9.7411e-05,-3504.7,-0.0011883,-13165,0.0011095
9188,0.32,3.8182,0.05,2.6481e-05,264.63,2.0334e-05,152.78,-1.2637e-10,-0.0014678,-2.0334e-05,-152.78,0.0009545
9189,0.56,3.8182,0,0.0015187,15177,0.00060252,116.78,0.00033178,-1917.4,-0.0015391,-15974,0.0031696
9190,0.48,3.7273,0,0.0013581,13572,0.00058035,137.34,0.00021962,-2573,-0.0013791,-14585,0.0025066
9191,0.48,3.8182,0.05,4.0106e-05,400.78,3.0796e-05,231.39,4.3365e-11,-0.00024504,-3.0796e-05,-231.39,0.0022347
9192,0.72,3.8182,0,0.0019353,19340,0.00070469,138.48,0.00053719,-1120.1,-0.0019489,-19800,0.0054306
9193,0.64,3.7273,0,0.0016433,16421,0.00062327,13.426,0.00040124,-1654.8,-0.0016648,-17178,0.0045611
9194,0.64,3.8182,0.05,8.522e-05,851.61,6.5438e-05,491.68,5.0748e-11,-0.00038909,-6.5438e-05,-491.68,0.0041259
9195,0.8,3.7273,0,0.0019636,19622,0.00068863,60.706,0.00058389,-726.27,-0.0019737,-19943,0.0074101
9196,0.8,3.8182,0.05,8.4178e-05,841.2,6.4639e-05,485.67,-6.6675e-11,-0.0015245,-6.4639e-05,-485.67,0.006796
9197,0.8,3.9091,0,0.0026423,26404,0.0010866,1322.4,0.00061487,-2222,-0.0026397,-26675,0.0062699
9198,0.24,3.6364,0,0.0012559,12550,0.00063121,671.36,6.0275e-05,-3618.4,-0.0012498,-13461,0.00068495
9199,0.16,3.5455,0,0.0013763,13754,0.00076605,1900.9,2.4303e-05,-3672.2,-0.0013189,-13765,0.00034802
9200,0.16,3.6364,0.05,2.4671e-05,246.54,1.8944e-05,142.34,-1.5672e-10,-0.0016831,-1.8944e-05,-142.34,0.00025761
9201,0.08,3.6364,0,0.00098395,9832.7,0.00036268,-2477.1,1.0114e-05,-5126.1,-0.0010861,-13363,0.00010567
9202,0.4,3.6364,0,0.0013039,13030,0.00056639,-162.89,0.00016202,-3201.2,-0.0013343,-14444,0.0018636
9203,0.32,3.5455,0,0.0012498,12489,0.0005546,-468.94,9.7905e-05,-3900.4,-0.0012882,-14315,0.0012743
9204,0.32,3.6364,0.05,1.6131e-05,161.2,1.2387e-05,93.068,-1.5698e-10,-0.0015603,-1.2387e-05,-93.068,0.0011245
9205,0.56,3.6364,0,0.0014929,14919,0.00060024,27.581,0.00030253,-2209.3,-0.0015174,-15884,0.0036905
9206,0.48,3.5455,0,0.0013944,13935,0.00060519,121.68,0.00020483,-2886.4,-0.0014169,-15071,0.0028542
9207,0.48,3.6364,0.05,1.5659e-05,156.48,1.2024e-05,90.342,1.2237e-11,-0.00040191,-1.2024e-05,-90.343,0.0026152
9208,0.72,3.6364,0,0.0016631,16620,0.0006097,-45.678,0.00043868,-1330.6,-0.0016828,-17271,0.0062484
9209,0.64,3.5455,0,0.0015345,15335,0.0005993,-39.559,0.00033766,-2005.5,-0.0015598,-16263,0.0051336
9210,0.64,3.6364,0.05,1.9613e-05,196,1.5061e-05,113.16,1.7651e-11,-0.00047125,-1.5061e-05,-113.16,0.0047884
9211,0.8,3.5455,0,0.0016367,16356,0.00059778,-17.251,0.00043834,-1215.2,-0.0016544,-16939,0.0081831
9212,0.8,3.6364,0.05,1.2929e-05,129.2,9.9277e-06,74.592,-1.5337e-10,-0.0017862,-9.9276e-06,-74.593,0.0077438
9213,0.24,3.4545,0,0.0013633,13624,0.00068947,760.8,5.9294e-05,-3974.1,-0.0013548,-14599,0.00077175
9214,0.16,3.3636,0,0.0014951,14940,0.00083552,2113.9,2.3875e-05,-3984.5,-0.0014304,-14911,0.00038486
9215,0.16,3.4545,0.05,2.1736e-05,217.21,1.6691e-05,125.41,-4.3266e-11,-0.00075848,-1.6691e-05,-125.41,0.00029314
9216,0.08,3.4545,0,0.0011022,11014,0.00040371,-2824.4,1.1445e-05,-5771.8,-0.0012184,-15012,0.00012022
9217,0.4,3.4545,0,0.0013431,13422,0.00059335,-184.7,0.00014459,-3556.5,-0.0013746,-14971,0.0020806
9218,0.32,3.3636,0,0.0013038,13029,0.0005833,-527.2,8.7963e-05,-4248.9,-0.0013445,-15012,0.0013971
9219,0.32,3.4545,0.05,1.1478e-05,114.71,8.8141e-06,66.225,-9.5803e-11,-0.00086524,-8.8141e-06,-66.226,0.0012636
9220,0.56,3.4545,0,0.0014394,14384,0.00060425,54.527,0.00024502,-2644.6,-0.0014643,-15488,0.0040782
9221,0.48,3.3636,0,0.0013953,13943,0.00062079,138.91,0.00017566,-3205.6,-0.001417,-15172,0.0031016
9222,0.48,3.4545,0.05,4.3339e-06,43.309,3.3279e-06,25.004,-1.2547e-10,-0.0012938,-3.3279e-06,-25.005,0.0029096
9223,0.72,3.4545,0,0.0015061,15051,0.00058757,-9.7848,0.00033542,-1904.3,-0.0015297,-15918,0.0068084
9224,0.64,3.3636,0,0.0014464,14454,0.00059102,-33.721,0.00026885,-2454.4,-0.0014734,-15545,0.0055193
9225,0.64,3.4545,0.05,1.7935e-06,17.922,1.3772e-06,10.347,-8.5745e-11,-0.00099585,-1.3771e-06,-10.348,0.0052646
9226,0.8,3.3636,0,0.0014838,14828,0.00057438,5.0614,0.00034028,-1753.9,-0.0015057,-15624,0.0086808
9227,0.8,3.4545,0.05,7.1242e-06,71.193,5.4705e-06,41.103,-3.0181e-11,-0.00066654,-5.4705e-06,-41.104,0.0083753
9228,0.24,3.2727,0,0.0014309,14299,0.00072937,826.01,5.2143e-05,-4262.4,-0.0014197,-15321,0.00083123
9229,0.16,3.1818,0,0.0015665,15655,0.0008783,2245.4,2.1649e-05,-4191.1,-0.001497,-15601,0.00040725
9230,0.16,3.2727,0.05,2.2329e-05,223.14,1.7146e-05,128.83,3.7341e-11,0.00014909,-1.7146e-05,-128.83,0.00031774
9231,0.08,3.2727,0,0.0011827,11819,0.00043213,-3066.8,1.0774e-05,-6232.7,-0.0013087,-16146,0.00013036
9232,0.4,3.2727,0,0.0013581,13572,0.00061072,-203.66,0.00012183,-3877,-0.0013897,-15234,0.0022251
9233,0.32,3.1818,0,0.0013311,13302,0.00060055,-561.26,7.6466e-05,-4499,-0.0013727,-15388,0.0014705
9234,0.32,3.2727,0.05,1.3893e-05,138.84,1.0668e-05,80.158,3.4266e-11,2.6535e-05,-1.0668e-05,-80.159,0.0013579
9235,0.56,3.2727,0,0.0014039,14029,0.00060757,50.694,0.00020232,-2994.2,-0.0014289,-15251,0.0043265
9236,0.48,3.1818,0,0.0013892,13883,0.00062994,145.21,0.00015099,-3453.4,-0.00141,-15182,0.0032461
9237,0.48,3.2727,0.05,8.2022e-06,81.966,6.2983e-06,47.322,2.5e-11,-8.9541e-05,-6.2983e-06,-47.323,0.0031025
9238,0.72,3.2727,0,0.001424,14230,0.00057784,-18.825,0.00027393,-2302.3,-0.0014497,-15253,0.0071538
9239,0.64,3.1818,0,0.0014007,13998,0.00058843,-39.561,0.00022822,-2746.1,-0.0014283,-15193,0.0057383
9240,0.64,3.2727,0.05,7.7021e-06,76.968,5.9143e-06,44.437,2.4449e-12,-0.00022221,-5.9143e-06,-44.438,0.0055637
9241,0.8,3.1818,0,0.0014111,14101,0.0005652,5.0912,0.00028794,-2078.1,-0.0014348,-15022,0.0089585
9242,0.8,3.2727,0.05,1.1401e-05,113.93,8.7547e-06,65.779,-1.5176e-11,-0.00036942,-8.7547e-06,-65.779,0.0087594
9243,0.24,3.0909,0,0.0014634,14624,0.0007495,858.3,4.6662e-05,-4422.5,-0.0014507,-15673,0.00086084
9244,0.16,3,0,0.0015903,15892,0.00089266,2289.3,2.0545e-05,-4263.4,-0.001519,-15831,0.00041468
9245,0.16,3.0909,0.05,2.353e-05,235.13,1.8068e-05,135.75,1.9836e-11,6.068e-05,-1.8068e-05,-135.75,0.00033002
9246,0.08,3.0909,0,0.0012228,12220,0.00044649,-3188.2,9.8969e-06,-6468.6,-0.0013536,-16713,0.00013543
9247,0.4,3.0909,0,0.001364,13630,0.00061977,-212.37,0.00010782,-4058.9,-0.0013953,-15353,0.0022961
9248,0.32,3,0,0.0013395,13386,0.00060632,-572.87,7.1758e-05,-4589.4,-0.0013813,-15507,0.0014948
9249,0.32,3.0909,0.05,1.6356e-05,163.45,1.2559e-05,94.366,1.7072e-11,3.1356e-05,-1.2559e-05,-94.366,0.0014047
9250,0.56,3.0909,0,0.0013871,13862,0.00061081,54.978,0.00017905,-3189.1,-0.0014116,-15141,0.0044462
9251,0.48,3,0,0.0013868,13859,0.00063322,148.09,0.00014189,-3543.6,-0.0014072,-15183,0.0032933
9252,0.48,3.0909,0.05,1.1539e-05,115.31,8.8605e-06,66.574,9.1691e-12,-3.8551e-05,-8.8605e-06,-66.575,0.0031965
9253,0.72,3.0909,0,0.0013884,13874,0.0005758,-15.645,0.00024323,-2514.4,-0.0014144,-14969,0.0073178
9254,0.64,3,0,0.0013865,13856,0.00058839,-38.161,0.00021422,-2849.5,-0.0014141,-15084,0.005809
9255,0.64,3.0909,0.05,1.0773e-05,107.65,8.2722e-06,62.154,1.7305e-12,-4.7692e-05,-8.2722e-06,-62.154,0.0057068
9256,0.8,3,0,0.0013896,13886,0.0005632,6.8633,0.00027106,-2188.2,-0.0014136,-14846,0.0090477
9257,0.8,3.0909,0.05,1.284e-05,128.31,9.8596e-06,74.081,-7.9354e-12,-0.00012729,-9.8596e-06,-74.081,0.008941
9258,0.24,2.9091,0,0.0014634,14624,0.0007495,858.3,4.6662e-05,-4422.5,-0.0014507,-15673,0.00086084
9259,0.16,2.8182,0,0.0015665,15655,0.0008783,2245.4,2.1649e-05,-4191.1,-0.001497,-15601,0.00040725
9260,0.16,2.9091,0.05,2.353e-05,235.13,1.8068e-05,135.75,-1.9909e-11,-6.3935e-05,-1.8068e-05,-135.75,0.00033002
9261,0.08,2.9091,0,0.0012228,12220,0.00044649,-3188.2,9.8969e-06,-6468.6,-0.0013536,-16713,0.00013543
9262,0.4,2.9091,0,0.001364,13630,0.00061977,-212.37,0.00010782,-4058.9,-0.0013953,-15353,0.0022961
9263,0.32,2.8182,0,0.0013311,13302,0.00060055,-561.26,7.6466e-05,-4499,-0.0013727,-15388,0.0014705
9264,0.32,2.9091,0.05,1.6356e-05,163.45,1.2559e-05,94.366,-1.7072e-11,-8.7384e-05,-1.2559e-05,-94.366,0.0014047
9265,0.56,2.9091,0,0.0013871,13862,0.00061081,54.978,0.00017905,-3189.1,-0.0014116,-15141,0.0044462
9266,0.48,2.8182,0,0.0013892,13883,0.00062994,145.21,0.00015099,-3453.4,-0.00141,-15182,0.0032461
9267,0.48,2.9091,0.05,1.1539e-05,115.31,8.8605e-06,66.575,-9.273e-12,3.9422e-05,-8.8605e-06,-66.574,0.0031965
9268,0.72,2.9091,0,0.0013884,13874,0.0005758,-15.645,0.00024323,-2514.4,-0.0014144,-14969,0.0073178
9269,0.64,2.8182,0,0.0014007,13998,0.00058843,-39.561,0.00022822,-2746.1,-0.0014283,-15193,0.0057383
9270,0.64,2.9091,0.05,1.0773e-05,107.65,8.2722e-06,62.154,-1.7314e-12,0.00010943,-8.2722e-06,-62.154,0.0057068
9271,0.8,2.8182,0,0.0014111,14101,0.0005652,5.0912,0.00028794,-2078.1,-0.0014348,-15022,0.0089585
9272,0.8,2.9091,0.05,1.284e-05,128.31,9.8596e-06,74.081,7.9515e-12,0.00012716,-9.8596e-06,-74.081,0.008941
9273,0.24,2.7273,0,0.0014309,14299,0.00072937,826.01,5.2143e-05,-4262.4,-0.0014197,-15321,0.00083123
9274,0.16,2.6364,0,0.0014951,14940,0.00083552,2113.9,2.3875e-05,-3984.5,-0.0014304,-14911,0.00038486
9275,0.16,2.7273,0.05,2.2329e-05,223.14,1.7146e-05,128.83,-2.471e-11,-7.2076e-05,-1.7146e-05,-128.83,0.00031774
9276,0.08,2.7273,0,0.0011827,11819,0.00043213,-3066.8,1.0774e-05,-6232.7,-0.0013087,-16146,0.00013036
9277,0.4,2.7273,0,0.0013581,13572,0.00061072,-203.66,0.00012183,-3877,-0.0013897,-15234,0.0022251
9278,0.32,2.6364,0,0.0013038,13029,0.0005833,-527.2,8.7963e-05,-4248.9,-0.0013445,-15012,0.0013971
9279,0.32,2.7273,0.05,1.3893e-05,138.84,1.0668e-05,80.159,-3.5049e-11,-5.651e-05,-1.0668e-05,-80.158,0.0013579
9280,0.56,2.7273,0,0.0014039,14029,0.00060757,50.694,0.00020232,-2994.2,-0.0014289,-15251,0.0043265
9281,0.48,2.6364,0,0.0013953,13943,0.00062079,138.91,0.00017566,-3205.6,-0.001417,-15172,0.0031016
9282,0.48,2.7273,0.05,8.2022e-06,81.966,6.2983e-06,47.323,-2.5e-11,8.3913e-05,-6.2983e-06,-47.322,0.0031025
9283,0.72,2.7273,0,0.001424,14230,0.00057784,-18.825,0.00027393,-2302.3,-0.0014497,-15253,0.0071538
9284,0.64,2.6364,0,0.0014464,14454,0.00059102,-33.721,0.00026885,-2454.4,-0.0014734,-15545,0.0055193
9285,0.64,2.7273,0.05,7.7021e-06,76.968,5.9143e-06,44.438,-4.533e-12,0.00025446,-5.9143e-06,-44.437,0.0055637
9286,0.8,2.6364,0,0.0014838,14828,0.00057438,5.0614,0.00034028,-1753.9,-0.0015057,-15624,0.0086808
9287,0.8,2.7273,0.05,1.1401e-05,113.93,8.7547e-06,65.779,1.5176e-11,0.00038566,-8.7547e-06,-65.779,0.0087594
9288,0.24,2.5455,0,0.0013633,13624,0.00068947,760.8,5.9294e-05,-3974.1,-0.0013548,-14599,0.00077175
9289,0.16,2.4545,0,0.0013763,13754,0.00076605,1900.9,2.4303e-05,-3672.2,-0.0013189,-13765,0.00034802
9290,0.16,2.5455,0.05,2.1736e-05,217.21,1.6691e-05,125.41,5.2915e-11,0.00058396,-1.6691e-05,-125.41,0.00029314
9291,0.08,2.5455,0,0.0011022,11014,0.00040371,-2824.4,1.1445e-05,-5771.8,-0.0012184,-15012,0.00012022
9292,0.4,2.5455,0,0.0013431,13422,0.00059335,-184.7,0.00014459,-3556.5,-0.0013746,-14971,0.0020806
9293,0.32,2.4545,0,0.0012498,12489,0.0005546,-468.94,9.7905e-05,-3900.4,-0.0012882,-14315,0.0012743
9294,0.32,2.5455,0.05,1.1478e-05,114.71,8.8141e-06,66.226,8.0724e-11,0.00096872,-8.8141e-06,-66.225,0.0012636
9295,0.56,2.5455,0,0.0014394,14384,0.00060425,54.527,0.00024502,-2644.6,-0.0014643,-15488,0.0040782
9296,0.48,2.4545,0,0.0013944,13935,0.00060519,121.68,0.00020483,-2886.4,-0.0014169,-15071,0.0028542
9297,0.48,2.5455,0.05,4.3339e-06,43.309,3.3279e-06,25.005,1.4813e-10,0.0013,-3.3279e-06,-25.004,0.0029096
9298,0.72,2.5455,0,0.0015061,15051,0.00058757,-9.7848,0.00033542,-1904.3,-0.0015297,-15918,0.0068084
9299,0.64,2.4545,0,0.0015345,15335,0.0005993,-39.559,0.00033766,-2005.5,-0.0015598,-16263,0.0051336
9300,0.64,2.5455,0.05,1.7935e-06,17.922,1.3771e-06,10.348,8.5745e-11,0.0009869,-1.3772e-06,-10.347,0.0052646
9301,0.8,2.4545,0,0.0016367,16356,0.00059778,-17.251,0.00043834,-1215.2,-0.0016544,-16939,0.0081831
9302,0.8,2.5455,0.05,7.1242e-06,71.193,5.4705e-06,41.104,3.0814e-11,0.0006862,-5.4705e-06,-41.102,0.0083753
9303,0.24,2.3636,0,0.0012559,12550,0.00063121,671.36,6.0275e-05,-3618.4,-0.0012498,-13461,0.00068495
9304,0.16,2.2727,0,0.0012161,12153,0.00067483,1632.5,2.0926e-05,-3280.7,-0.0011672,-12208,0.00030006
9305,0.16,2.3636,0.05,2.4671e-05,246.54,1.8944e-05,142.34,1.7122e-10,0.0014409,-1.8944e-05,-142.34,0.00025761
9306,0.08,2.3636,0,0.00098395,9832.7,0.00036268,-2477.1,1.0114e-05,-5126.1,-0.0010861,-13363,0.00010567
9307,0.4,2.3636,0,0.0013039,13030,0.00056639,-162.89,0.00016202,-3201.2,-0.0013343,-14444,0.0018636
9308,0.32,2.2727,0,0.0011536,11528,0.00050999,-404.76,9.7411e-05,-3504.7,-0.0011883,-13165,0.0011095
9309,0.32,2.3636,0.05,1.6131e-05,161.2,1.2387e-05,93.068,1.569e-10,0.001571,-1.2387e-05,-93.068,0.0011245
9310,0.56,2.3636,0,0.0014929,14919,0.00060024,27.581,0.00030253,-2209.3,-0.0015174,-15884,0.0036905
9311,0.48,2.2727,0,0.0013581,13572,0.00058035,137.34,0.00021962,-2573,-0.0013791,-14585,0.0025066
9312,0.48,2.3636,0.05,1.5659e-05,156.48,1.2024e-05,90.343,-1.2091e-11,0.00042417,-1.2024e-05,-90.342,0.0026152
9313,0.72,2.3636,0,0.0016631,16620,0.0006097,-45.678,0.00043868,-1330.6,-0.0016828,-17271,0.0062484
9314,0.64,2.2727,0,0.0016433,16421,0.00062327,13.426,0.00040124,-1654.8,-0.0016648,-17178,0.0045611
9315,0.64,2.3636,0.05,1.9613e-05,196,1.5061e-05,113.16,-2.4886e-11,0.00048423,-1.5061e-05,-113.16,0.0047884
9316,0.8,2.2727,0,0.0019636,19622,0.00068863,60.707,0.00058389,-726.26,-0.0019737,-19943,0.0074101
9317,0.8,2.3636,0.05,1.2929e-05,129.2,9.9276e-06,74.593,1.2586e-10,0.0020023,-9.9277e-06,-74.592,0.0077438
9318,0.24,2.1818,0,0.0011035,11028,0.00055365,556.64,5.1482e-05,-3216.5,-0.0010992,-11862,0.00058038
9319,0.16,2.1818,0.05,2.9729e-05,297.09,2.2828e-05,171.52,1.625e-10,0.0016245,-2.2829e-05,-171.52,0.00021587
9320,0.08,2.1818,0,0.00083968,8391,0.00031257,-2069.9,6.8037e-06,-4367.3,-0.00092524,-11370,8.8624e-05
9321,0.4,2.1818,0,0.0012104,12096,0.00052383,-105.33,0.00015913,-2845.6,-0.0012371,-13336,0.0015905
9322,0.32,2.1818,0.05,2.6481e-05,264.63,2.0334e-05,152.78,1.5192e-10,0.0014543,-2.0334e-05,-152.78,0.0009545
9323,0.56,2.1818,0,0.0015187,15177,0.00060252,116.78,0.00033178,-1917.4,-0.0015391,-15974,0.0031696
9324,0.48,2.1818,0.05,4.0106e-05,400.78,3.0796e-05,231.39,-3.8449e-11,0.00024504,-3.0796e-05,-231.39,0.0022347
9325,0.72,2.1818,0,0.0019353,19340,0.00070469,138.48,0.00053719,-1120.1,-0.0019489,-19800,0.0054306
9326,0.64,2.1818,0.05,8.522e-05,851.61,6.5438e-05,491.68,-4.459e-11,0.00037287,-6.5438e-05,-491.68,0.0041259
9327,0.8,2.1818,0.05,8.4178e-05,841.2,6.4639e-05,485.67,6.852e-11,0.0015936,-6.4639e-05,-485.67,0.006796
9328,0.8,2.0909,0,0.0026423,26404,0.0010866,1322.4,0.00061487,-2222,-0.0026397,-26675,0.0062699
9329,1.2431,5.8182,0,0.00014118,1410.8,5.8879e-05,137.5,3.7836e-05,-20.607,-0.00013852,-1345.7,0.0027816
9330,1.1509,5.7273,0,0.00014023,1401.4,6.9459e-05,274.35,3.0164e-05,-20.896,-0.00013357,-1251.1,0.0037395
9331,1.1509,5.8182,0.05,1.5139e-05,151.28,1.1625e-05,87.343,8.5607e-13,1.305e-05,-1.1625e-05,-87.343,0.0036552
9332,1.1509,5.9091,0,9.0042e-05,899.8,3.624e-05,68.082,2.4648e-05,-19.017,-8.8891e-05,-872.1,0.0052772
9333,1.0588,5.8182,0,7.9331e-05,792.77,3.3061e-05,84.62,2.2017e-05,1.6428,-7.7537e-05,-746.37,0.0087048
9334,1.4273,5.8182,0,0.00020432,2041.8,7.7962e-05,124.31,6.0746e-05,-5.0451,-0.00020199,-1979.1,0.010735
9335,1.3352,5.7273,0,0.00018719,1870.6,7.6229e-05,171.9,5.2541e-05,-6.0816,-0.00018374,-1781.4,0.0071077
9336,1.3352,5.8182,0.05,1.3599e-05,135.9,1.0442e-05,78.46,-1.5457e-13,-8.321e-07,-1.0442e-05,-78.46,0.0057004
9337,1.3352,5.9091,0,0.00015896,1588.5,5.7098e-05,55.32,4.9615e-05,-0.91033,-0.00015796,-1560.5,0.0054432
9338,1.6116,5.8182,0,0.00026424,2640.6,9.772e-05,125.92,8.0757e-05,-1.5376,-0.00026189,-2576.1,0.020106
9339,1.5195,5.7273,0,0.00024636,2461.9,9.48e-05,161.26,7.2898e-05,-3.307,-0.00024326,-2378.8,0.016255
9340,1.5195,5.8182,0.05,1.2597e-05,125.88,9.6727e-06,72.677,-2.0517e-21,-4.1726e-06,-9.6727e-06,-72.677,0.015152
9341,1.5195,5.9091,0,0.00022426,2241.1,7.9231e-05,62.344,7.0837e-05,-0.72637,-0.00022315,-2209.6,0.014495
9342,1.7959,5.8182,0,0.00031706,3168.4,0.00011484,122.93,9.8489e-05,0.10306,-0.00031478,-3105.1,0.029737
9343,1.7037,5.7273,0,0.0003016,3013.9,0.00011282,159.89,9.1433e-05,-0.83696,-0.00029858,-2931.2,0.025749
9344,1.7037,5.8182,0.05,1.1316e-05,113.09,8.6896e-06,65.29,-1.8432e-21,-5.2342e-06,-8.6896e-06,-65.29,0.024747
9345,1.7037,5.9091,0,0.00028257,2823.8,9.8725e-05,65.821,8.9979e-05,0.10506,-0.00028139,-2790.2,0.024022
9346,1.9801,5.8182,0,0.00036211,3618.6,0.00012899,114.43,0.00011382,0.45268,-0.00036002,-3559.8,0.0396
9347,1.888,5.7273,0,0.00034971,3494.7,0.00012816,153.56,0.00010769,-0.24473,-0.00034684,-3415.5,0.035473
9348,1.888,5.8182,0.05,9.8614e-06,98.546,7.5723e-06,56.895,7.2059e-14,-3.6547e-06,-7.5723e-06,-56.895,0.034529
9349,1.888,5.9091,0,0.00033302,3327.9,0.00011524,64.089,0.00010671,0.026284,-0.00033189,-3295.4,0.033786
9350,2.1644,5.8182,0,0.00039953,3992.5,0.00014034,102.35,0.00012678,0.46061,-0.00039768,-3940.1,0.049713
9351,2.0723,5.7273,0,0.00039003,3897.6,0.00014048,141.57,0.00012163,-0.029455,-0.00038743,-3824.9,0.045437
9352,2.0723,5.8182,0.05,8.3543e-06,83.486,6.4151e-06,48.2,3.2475e-13,-1.0277e-06,-6.4151e-06,-48.201,0.044534
9353,2.0723,5.9091,0,0.00037555,3752.9,0.00012886,59.076,0.000121,0.021523,-0.00037451,-3723,0.043789
9354,2.3487,5.8182,0,0.00042981,4295.2,0.00014919,88.427,0.00013746,0.34469,-0.00042824,-4250.1,0.060098
9355,2.2565,5.7273,0,0.00042283,4225.3,0.00014997,125.45,0.00013327,-0.012319,-0.00042055,-4161.2,0.055665
9356,2.2565,5.8182,0.05,6.8949e-06,68.901,5.2944e-06,39.78,4.324e-12,3.2196e-06,-5.2944e-06,-39.78,0.054792
9357,2.2565,5.9091,0,0.00041049,4102.1,0.00013981,52.169,0.00013287,-0.013096,-0.00040958,-4075.8,0.054051
9358,2.5329,5.8182,0,0.00045371,4534,0.00015588,74.024,0.00014606,0.22676,-0.0004524,-4496.4,0.070774
9359,2.4408,5.7273,0,0.00044878,4484.7,0.00015702,107.16,0.00014275,-0.029427,-0.00044686,-4430.1,0.066179
9360,2.4408,5.8182,0.05,5.5514e-06,55.476,4.2628e-06,32.029,6.2105e-12,5.2904e-06,-4.2628e-06,-32.029,0.065329
9361,2.4408,5.9091,0,0.00043849,4381.9,0.00014841,44.467,0.00014249,-0.023316,-0.00043772,-4359.5,0.064593
9362,2.7172,5.8182,0,0.00047205,4717.2,0.00016078,60.094,0.0001528,0.13743,-0.00047099,-4686.8,0.081758
9363,2.6251,5.7273,0,0.00046875,4684.2,0.00016205,88.351,0.00015029,-0.047809,-0.00046718,-4639.5,0.076995
9364,2.6251,5.8182,0.05,4.3612e-06,43.582,3.3489e-06,25.162,6.3568e-12,8.995e-06,-3.3489e-06,-25.162,0.076163
9365,2.6251,5.9091,0,0.00046036,4600.4,0.00015498,36.711,0.0001501,-0.021785,-0.00045973,-4582,0.075432
9366,2.9015,5.8182,0,0.00048567,4853.3,0.00016421,47.229,0.00015793,0.081198,-0.00048484,-4829.5,0.093063
9367,2.8093,5.7273,0,0.00048364,4833.1,0.00016546,70.217,0.00015611,-0.055504,-0.00048241,-4797.6,0.088128
9368,2.8093,5.8182,0.05,3.338e-06,33.357,2.5632e-06,19.259,6.2704e-12,6.9407e-06,-2.5632e-06,-19.259,0.087311
9369,2.8093,5.9091,0,0.00047696,4766.3,0.00015985,29.369,0.00015594,-0.010804,-0.00047645,-4751.6,0.086584
9370,3.0857,5.8182,0,0.00049535,4950.1,0.00016645,35.748,0.0001617,0.050579,-0.00049473,-4932.1,0.1047
9371,2.9936,5.7273,0,0.0004943,4939.6,0.00016759,53.523,0.00016046,-0.054983,-0.00049337,-4912.7,0.099589
9372,2.9936,5.8182,0.05,2.4794e-06,24.777,1.9038e-06,14.305,7.9605e-12,5.6094e-06,-1.9039e-06,-14.305,0.098783
9373,2.9936,5.9091,0,0.00048912,4887.8,0.0001633,22.709,0.00016028,0.0045862,-0.00048873,-4876.4,0.09806
9374,3.27,5.8182,0,0.0005018,5014.5,0.00016774,25.774,0.00016432,0.035872,-0.00050135,-5001.6,0.11667
9375,3.1779,5.7273,0,0.0005015,5011.6,0.00016873,38.683,0.00016357,-0.051581,-0.00050083,-4992.1,0.11138
9376,3.1779,5.8182,0.05,1.7733e-06,17.721,1.3617e-06,10.231,7.6355e-12,5.2398e-06,-1.3617e-06,-10.231,0.11059
9377,3.1779,5.9091,0,0.0004976,4972.5,0.00016561,16.852,0.00016337,0.021322,-0.00049731,-4964.1,0.10987
9378,3.4543,5.8182,0,0.00050562,5052.7,0.0001683,17.31,0.000166,0.027319,-0.00050533,-5044.1,0.12898
9379,3.3621,5.7273,0,0.0005059,5055.5,0.00016911,25.864,0.00016566,-0.05277,-0.00050545,-5042.5,0.12352
9380,3.3621,5.8182,0.05,1.2034e-06,12.026,9.2407e-07,6.9431,7.5772e-12,4.3608e-06,-9.2409e-07,-6.9433,0.12273
9381,3.3621,5.9091,0,0.00050307,5027.2,0.000167,11.829,0.00016543,0.037136,-0.00050287,-5021.3,0.12201
9382,3.6385,5.8182,0,0.00050734,5069.9,0.00016828,10.281,0.00016691,0.01299,-0.00050717,-5064.8,0.14163
9383,3.5464,5.7273,0,0.00050805,5077,0.00016892,15.072,0.0001669,-0.072886,-0.00050779,-5069.5,0.136
9384,3.5464,5.8182,0.05,7.5222e-07,7.5171,5.776e-07,4.3399,9.1885e-12,2.6436e-06,-5.7763e-07,-4.3401,0.13521
9385,3.5464,5.9091,0,0.00050611,5057.7,0.00016765,7.6154,0.00016664,0.05031,-0.00050598,-5053.8,0.1345
9386,3.8228,5.8182,0,0.00050738,5070.3,0.00016782,4.6005,0.0001672,-0.042345,-0.0005073,-5068,0.15463
9387,3.7307,5.7273,0,0.00050841,5080.6,0.00016831,6.2632,0.00016745,-0.17785,-0.00050831,-5077.6,0.14882
9388,3.7307,5.8182,0.05,4.0529e-07,4.0501,3.1121e-07,2.3382,8.0744e-12,-6.1161e-06,-3.1122e-07,-2.3385,0.14804
9389,3.7307,5.9091,0,0.00050721,5068.6,0.00016772,4.1554,0.00016718,0.058236,-0.00050714,-5066.5,0.14733
9390,4.0071,5.8182,0,0.00050609,5057.4,0.00016711,0.71227,0.00016691,-0.72546,-0.00050609,-5057.4,0.16798
9391,3.9149,5.7273,0,0.00050737,5070.2,0.00016758,0.71366,0.00016725,-1.8113,-0.00050739,-5070.8,0.16199
9392,3.9149,5.8182,0.05,1.6862e-07,1.685,1.2948e-07,0.97279,-6.5122e-12,-0.00010045,-1.2948e-07,-0.97293,0.16122
9393,3.9149,5.9091,0,0.00050676,5064.1,0.00016734,1.3919,0.00016716,0.04463,-0.00050673,-5063.4,0.1605
9394,4.1913,5.8182,0,0.00050376,5034.1,0.00016645,0.21371,0.00016591,-3.7784,-0.00050382,-5035.9,0.18166
9395,4.0992,5.7273,0,0.00050523,5048.8,0.00016709,0.21976,0.00016613,-6.9622,-0.00050535,-5052.2,0.17551
9396,4.0992,5.8182,0.05,1.6114e-07,1.6103,1.2374e-07,0.92967,-2.0504e-11,-0.00024266,-1.2373e-07,-0.92973,0.17473
9397,4.0992,5.9091,0,0.00050508,5047.3,0.00016673,0.13798,0.0001666,-0.88208,-0.00050509,-5047.7,0.17402
9398,4.3756,5.8182,0,0.00050061,5002.7,0.00016553,0.16309,0.00016466,-6.3997,-0.00050072,-5005.8,0.19569
9399,4.2835,5.7273,0,0.00050224,5018.9,0.00016631,0.15641,0.00016479,-11.205,-0.00050242,-5024.4,0.18936
9400,4.2835,5.8182,0.05,2.8193e-07,2.8173,2.1648e-07,1.6265,-3.1255e-12,-0.00013913,-2.1648e-07,-1.6267,0.18859
9401,4.2835,5.9091,0,0.00050244,5021,0.00016594,0.11384,0.00016559,-2.5202,-0.00050248,-5022.2,0.18788
9402,4.5599,5.8182,0,0.00049684,4965,0.00016438,0.14607,0.00016326,-8.306,-0.00049698,-4969,0.21006
9403,4.4677,5.7273,0,0.00049858,4982.3,0.00016525,0.13376,0.00016333,-14.342,-0.00049882,-4989.4,0.20356
9404,4.4677,5.8182,0.05,3.8297e-07,3.827,2.9407e-07,2.2094,2.9504e-13,-8.0103e-05,-2.9407e-07,-2.2096,0.20279
9405,4.4677,5.9091,0,0.00049906,4987.1,0.00016488,0.11271,0.00016437,-3.7368,-0.00049912,-4988.9,0.20209
9406,4.7441,5.8182,0,0.00049258,4922.4,0.00016304,0.1371,0.00016174,-9.591,-0.00049274,-4927.1,0.22477
9407,4.652,5.7273,0,0.00049441,4940.7,0.00016398,0.12169,0.00016177,-16.522,-0.00049469,-4948.9,0.2181
9408,4.652,5.8182,0.05,4.5453e-07,4.5421,3.4901e-07,2.6223,5.2039e-13,-6.6653e-05,-3.4903e-07,-2.6225,0.21734
9409,4.652,5.9091,0,0.00049509,4947.5,0.00016362,0.11356,0.00016299,-4.579,-0.00049516,-4949.7,0.21663
9410,4.9284,5.8182,0,0.00048795,4876.2,0.00016155,0.1309,0.00016015,-10.356,-0.00048813,-4881.3,0.23981
9411,4.8363,5.7273,0,0.00048986,4895.2,0.00016255,0.11336,0.00016015,-17.903,-0.00049016,-4904.1,0.23297
9412,4.8363,5.8182,0.05,5.008e-07,5.0046,3.8455e-07,2.8893,1.6463e-13,-4.8278e-05,-3.8456e-07,-2.8895,0.23221
9413,4.8363,5.9091,0,0.00049067,4903.4,0.00016219,0.11435,0.00016149,-5.106,-0.00049076,-4905.9,0.23151
9414,5.1127,5.8182,0,0.00048305,4827.1,0.00015995,0.12591,0.00015851,-10.692,-0.00048323,-4832.4,0.25519
9415,5.0205,5.7273,0,0.00048501,4846.8,0.00016098,0.10653,0.00015849,-18.626,-0.00048532,-4856,0.24818
9416,5.0205,5.8182,0.05,5.2688e-07,5.2652,4.0458e-07,3.0397,3.3201e-12,-6.8624e-05,-4.0458e-07,-3.04,0.24742
9417,5.0205,5.9091,0,0.00048592,4855.9,0.00016063,0.11477,0.0001599,-5.3722,-0.00048601,-4858.5,0.24672
9418,5.2969,5.8182,0,0.00047793,4776,0.00015826,0.12161,0.00015682,-10.682,-0.00047811,-4781.3,0.27089
9419,5.2048,5.7273,0,0.00047995,4796.2,0.00015932,0.10037,0.0001568,-18.815,-0.00048026,-4805.5,0.26371
9420,5.2048,5.8182,0.05,5.3728e-07,5.3691,4.1256e-07,3.0997,2.8816e-12,-5.6818e-05,-4.1257e-07,-3.1,0.26296
9421,5.2048,5.9091,0,0.00048091,4805.8,0.00015898,0.11486,0.00015824,-5.4252,-0.000481,-4808.4,0.26226
9422,5.4812,5.8182,0,0.00047267,4723.4,0.0001565,0.11791,0.00015511,-10.395,-0.00047284,-4728.5,0.28692
9423,5.3891,5.7273,0,0.00047472,4743.9,0.00015759,0.094577,0.0001551,-18.58,-0.00047503,-4753.2,0.27957
9424,5.3891,5.8182,0.05,5.3575e-07,5.3538,4.1138e-07,3.0909,6.7237e-12,-5.4788e-05,-4.114e-07,-3.0912,0.27882
9425,5.3891,5.9091,0,0.00047571,4753.8,0.00015726,0.1148,0.00015653,-5.3068,-0.00047579,-4756.4,0.27813
9426,5.6655,5.8182,0,0.00046729,4669.7,0.0001547,0.11486,0.00015337,-9.8917,-0.00046745,-4674.5,0.30326
9427,5.5733,5.7273,0,0.00046938,4690.6,0.00015579,0.089037,0.00015338,-18.013,-0.00046968,-4699.5,0.29576
9428,5.5733,5.8182,0.05,5.2533e-07,5.2497,4.0338e-07,3.0308,1.6181e-12,-6.5799e-05,-4.0339e-07,-3.0311,0.29501
9429,5.5733,5.9091,0,0.00047036,4700.4,0.00015548,0.11483,0.00015479,-5.0528,-0.00047045,-4702.8,0.29432
9430,5.8497,5.8182,0,0.00046183,4615.1,0.00015287,0.1126,0.00015163,-9.222,-0.00046199,-4619.7,0.31993
9431,5.7576,5.7273,0,0.00046396,4636.4,0.00015396,0.083734,0.00015166,-17.191,-0.00046424,-4644.9,0.31226
9432,5.7576,5.8182,0.05,5.0845e-07,5.081,3.9042e-07,2.9334,4.5173e-12,-6.4618e-05,-3.9043e-07,-2.9337,0.31152
9433,5.7576,5.9091,0,0.00046492,4646,0.00015366,0.11524,0.00015302,-4.6937,-0.00046499,-4648.2,0.31083
9434,6.034,5.8182,0,0.00045632,4560.1,0.00015101,0.11135,0.00014988,-8.4288,-0.00045646,-4564.2,0.33691
9435,5.9419,5.7273,0,0.00045847,4581.6,0.0001521,0.078688,0.00014994,-16.179,-0.00045875,-4589.6,0.32908
9436,5.9419,5.8182,0.05,4.8704e-07,4.867,3.7398e-07,2.8099,8.3042e-13,-4.3179e-05,-3.7399e-07,-2.8101,0.32834
9437,5.9419,5.9091,0,0.0004594,4590.8,0.00015182,0.11638,0.00015124,-4.2554,-0.00045947,-4592.9,0.32766
9438,6.2183,5.8182,0,0.00045078,4504.7,0.00014914,0.11141,0.00014812,-7.5476,-0.00045091,-4508.4,0.35419
9439,6.1261,5.7273,0,0.00045296,4526.5,0.00015023,0.073932,0.00014822,-15.03,-0.00045321,-4533.9,0.3462
9440,6.1261,5.8182,0.05,4.6259e-07,4.6227,3.552e-07,2.6687,2.3377e-12,-7.4981e-05,-3.5522e-07,-2.6691,0.34548
9441,6.1261,5.9091,0,0.00045384,4535.2,0.00014996,0.11878,0.00014945,-3.7597,-0.0004539,-4537.1,0.34479
9442,6.4025,5.8182,0,0.00044522,4449.1,0.00014726,0.11324,0.00014636,-6.6077,-0.00044533,-4452.4,0.37179
9443,6.3104,5.7273,0,0.00044742,4471.1,0.00014834,0.069503,0.00014649,-13.79,-0.00044765,-4478,0.36364
9444,6.3104,5.8182,0.05,4.3628e-07,4.3598,3.3501e-07,2.5171,1.5223e-12,-4.4033e-05,-3.3502e-07,-2.5173,0.36292
9445,6.3104,5.9091,0,0.00044825,4479.4,0.00014809,0.12318,0.00014765,-3.2251,-0.0004483,-4480.9,0.36224
9446,6.5868,5.8182,0,0.00043965,4393.5,0.00014537,0.11758,0.00014461,-5.6333,-0.00043975,-4396.2,0.38968
9447,6.4947,5.7273,0,0.00044187,4415.7,0.00014644,0.065442,0.00014477,-12.493,-0.00044208,-4421.9,0.38138
9448,6.4947,5.8182,0.05,4.0902e-07,4.0873,3.1407e-07,2.3597,1.951e-12,-5.5376e-05,-3.1408e-07,-2.36,0.38066
9449,6.4947,5.9091,0,0.00044264,4423.3,0.00014621,0.13093,0.00014584,-2.6672,-0.00044268,-4424.6,0.37999
9450,6.7711,5.8182,0,0.00043409,4337.9,0.00014349,0.12575,0.00014285,-4.6446,-0.00043416,-4340.1,0.40788
9451,6.6789,5.7273,0,0.00043632,4360.2,0.00014454,0.061808,0.00014305,-11.167,-0.00043651,-4365.8,0.39942
9452,6.6789,5.8182,0.05,3.8147e-07,3.812,2.9292e-07,2.2008,3.4145e-12,-4.291e-05,-2.9292e-07,-2.201,0.39871
9453,6.6789,5.9091,0,0.00043703,4367.3,0.00014434,0.14457,0.00014404,-2.1004,-0.00043706,-4368.3,0.39804
9454,6.9553,5.8182,0,0.00042853,4282.3,0.00014161,0.14036,0.0001411,-3.6592,-0.00042859,-4284.1,0.42637
9455,6.8632,5.7273,0,0.00043078,4304.8,0.00014265,0.058616,0.00014133,-9.8353,-0.00043095,-4309.7,0.41776
9456,6.8632,5.8182,0.05,3.5415e-07,3.539,2.7193e-07,2.0431,1.9396e-13,-5.5424e-05,-2.7195e-07,-2.0434,0.41705
9457,6.8632,5.9091,0,0.00043142,4311.3,0.00014246,0.16976,0.00014223,-1.5397,-0.00043145,-4311.9,0.41639
9458,7.1396,5.8182,0,0.00042298,4226.9,0.00013973,0.16732,0.00013935,-2.6947,-0.00042302,-4228.1,0.44515
9459,7.0475,5.7273,0,0.00042525,4249.5,0.00014076,0.055988,0.00013962,-8.515,-0.00042539,-4253.8,0.43639
9460,7.0475,5.8182,0.05,3.2743e-07,3.272,2.5142e-07,1.889,2.3337e-12,-5.432e-05,-2.5143e-07,-1.8892,0.43569
9461,7.0475,5.9091,0,0.00042583,4255.3,0.00014059,0.22127,0.00014043,-1.0072,-0.00042584,-4255.7,0.43503
9462,7.3239,5.8182,0,0.00041745,4171.6,0.00013786,0.22266,0.0001376,-1.7762,-0.00041747,-4172.4,0.46421
9463,7.2317,5.7273,0,0.00041973,4194.4,0.00013887,0.054039,0.0001379,-7.2197,-0.00041985,-4198,0.4553
9464,7.2317,5.8182,0.05,3.0158e-07,3.0137,2.3157e-07,1.7398,1.2566e-12,-4.3749e-05,-2.3158e-07,-1.74,0.45461
9465,7.2317,5.9091,0,0.00042024,4199.5,0.00013874,0.34157,0.00013862,-0.55132,-0.00042025,-4199.7,0.45396
9466,7.5081,5.8182,0,0.00041193,4116.5,0.00013602,0.35985,0.00013584,-0.96394,-0.00041194,-4116.8,0.48356
9467,7.416,5.7273,0,0.00041423,4139.4,0.00013699,0.052993,0.00013619,-5.9595,-0.00041433,-4142.3,0.47451
9468,7.416,5.8182,0.05,2.7677e-07,2.7658,2.1252e-07,1.5968,2.3425e-12,-4.5536e-05,-2.1253e-07,-1.597,0.47382
9469,7.416,5.9091,0,0.00041468,4143.9,0.00013691,0.61204,0.00013679,-0.25771,-0.00041467,-4143.8,0.47317
9470,7.6924,5.8182,0,0.00040644,4061.6,0.00013421,0.73201,0.00013405,-0.41585,-0.00040643,-4061.4,0.50319
9471,7.6003,5.7273,0,0.00040874,4084.6,0.00013512,0.05328,0.00013449,-4.7419,-0.00040882,-4086.9,0.49399
9472,7.6003,5.8182,0.05,2.5314e-07,2.5297,1.9438e-07,1.4604,1.6145e-12,-5.7282e-05,-1.9439e-07,-1.4606,0.49331
9473,7.6003,5.9091,0,0.00040914,4088.5,0.00013511,1.0302,0.00013495,-0.12714,-0.00040912,-4088.1,0.49267
9474,7.8767,5.8182,0,0.00040097,4006.9,0.00013244,1.3954,0.00013223,-0.19164,-0.00040095,-4006.3,0.52309
9475,7.7845,5.7273,0,0.00040328,4030,0.00013326,0.055847,0.00013278,-3.5728,-0.00040334,-4031.7,0.51375
9476,7.7845,5.8182,0.05,2.3075e-07,2.3059,1.7718e-07,1.3312,2.2051e-12,-5.0633e-05,-1.7719e-07,-1.3314,0.51308
9477,7.7845,5.9091,0,0.00040361,4033.3,0.00013332,1.5057,0.00013311,-0.071611,-0.00040359,-4032.6,0.51244
9478,8.0609,5.8182,0,0.00039551,3952.4,0.00013071,2.1652,0.0001304,-0.10867,-0.00039548,-3951.4,0.54327
9479,7.9688,5.7273,0,0.00039783,3975.6,0.00013141,0.063185,0.00013108,-2.4579,-0.00039787,-3976.8,0.53378
9480,7.9688,5.8182,0.05,2.0963e-07,2.0948,1.6096e-07,1.2093,1.0008e-12,-5.2658e-05,-1.6097e-07,-1.2096,0.53312
9481,7.9688,5.9091,0,0.00039811,3978.4,0.00013155,1.99,0.00013127,-0.044223,-0.00039808,-3977.4,0.53249
9482,8.2452,5.8182,0,0.00039009,3898.2,0.00012898,2.9438,0.00012858,-0.07047,-0.00039004,-3896.7,0.56371
9483,8.1531,5.7273,0,0.00039241,3921.4,0.00012957,0.084429,0.00012937,-1.408,-0.00039243,-3922,0.55409
9484,8.1531,5.8182,0.05,1.8978e-07,1.8964,1.4572e-07,1.0948,2.2192e-12,-5.4768e-05,-1.4573e-07,-1.095,0.55343
9485,8.1531,5.9091,0,0.00039264,3923.6,0.00012978,2.4662,0.00012945,-0.028877,-0.00039259,-3922.4,0.55281
9486,8.4295,5.8182,0,0.00038468,3844.1,0.00012726,3.7031,0.00012676,-0.049502,-0.00038462,-3842.3,0.58442
9487,8.3373,5.7273,0,0.00038701,3867.4,0.00012775,0.1831,0.00012766,-0.4873,-0.00038701,-3867.6,0.57465
9488,8.3373,5.8182,0.05,1.7118e-07,1.7106,1.3144e-07,0.98752,2.0469e-12,-4.975e-05,-1.3145e-07,-0.98772,0.574
9489,8.3373,5.9091,0,0.00038718,3869.2,0.00012802,2.9278,0.00012762,-0.01952,-0.00038713,-3867.7,0.57339
9490,8.6137,5.8182,0,0.0003793,3790.3,0.00012554,4.4342,0.00012494,-0.036623,-0.00037922,-3788.1,0.60539
9491,8.5216,5.7273,0,0.00038163,3813.6,0.000126,0.75086,0.00012589,-0.087102,-0.00038162,-3813.3,0.59549
9492,8.5216,5.8182,0.05,1.538e-07,1.537,1.181e-07,0.88727,9.5693e-13,-5.7915e-05,-1.1811e-07,-0.88749,0.59484
9493,8.5216,5.9091,0,0.00038175,3814.9,0.00012626,3.3719,0.00012581,-0.013491,-0.0003817,-3813.2,0.59424
9494,8.798,5.8182,0,0.00037394,3736.8,0.00012383,5.134,0.00012314,-0.0281,-0.00037385,-3734.2,0.62661
9495,8.7059,5.7273,0,0.00037627,3760.1,0.0001243,1.6101,0.00012409,-0.028918,-0.00037624,-3759.3,0.61658
9496,8.7059,5.8182,0.05,1.3761e-07,1.3751,1.0566e-07,0.79384,1.3482e-12,-4.966e-05,-1.0567e-07,-0.79403,0.61594
9497,8.7059,5.9091,0,0.00037635,3760.9,0.00012451,3.7975,0.00012401,-0.0094679,-0.00037629,-3759,0.61534
9498,8.9823,5.8182,0,0.0003686,3683.4,0.00012212,5.8017,0.00012135,-0.022154,-0.0003685,-3680.5,0.64809
9499,8.8901,5.7273,0,0.00037093,3706.8,0.00012261,2.4625,0.00012228,-0.012975,-0.00037089,-3705.5,0.63792
9500,8.8901,5.8182,0.05,1.2254e-07,1.2246,9.4093e-08,0.7069,2.1521e-12,-5.0314e-05,-9.4098e-08,-0.70709,0.63729
9501,8.8901,5.9091,0,0.00037097,3707.1,0.00012277,4.2044,0.00012221,-0.0067226,-0.0003709,-3705,0.6367
9502,9.1665,5.8182,0,0.00036328,3630.3,0.00012042,6.4376,0.00011956,-0.017841,-0.00036317,-3627.1,0.66982
9503,9.0744,5.7273,0,0.00036562,3653.7,0.00012093,3.2769,0.00012049,-0.0063799,-0.00036556,-3652,0.65952
9504,9.0744,5.8182,0.05,1.0854e-07,1.0847,8.3344e-08,0.62616,7.2761e-13,-5.1524e-05,-8.3354e-08,-0.62635,0.65889
9505,9.0744,5.9091,0,0.00036562,3653.6,0.00012104,4.5927,0.00012043,-0.0048278,-0.00036554,-3651.3,0.65831
9506,9.3508,5.8182,0,0.00035799,3577.4,0.00011873,7.0426,0.00011779,-0.014617,-0.00035787,-3573.9,0.69179
9507,9.2587,5.7273,0,0.00036033,3600.8,0.00011925,4.0495,0.00011871,-0.0031731,-0.00036026,-3598.7,0.68136
9508,9.2587,5.8182,0.05,9.5566e-08,0.955,7.3379e-08,0.55127,2.0455e-12,-4.9467e-05,-7.3387e-08,-0.55147,0.68074
9509,9.2587,5.9091,0,0.00036028,3600.4,0.00011931,4.9629,0.00011865,-0.0035168,-0.0003602,-3597.9,0.68017
9510,9.5351,5.8182,0,0.00035272,3524.8,0.00011703,7.6178,0.00011602,-0.012149,-0.00035259,-3521,0.71401
9511,9.4429,5.7273,0,0.00035505,3548.1,0.00011757,4.7805,0.00011693,-0.0015221,-0.00035497,-3545.7,0.70345
9512,9.4429,5.8182,0.05,8.3546e-08,0.83488,6.4147e-08,0.48192,5.5864e-13,-5.5446e-05,-6.4158e-08,-0.48211,0.70284
9513,9.4429,5.9091,0,0.00035498,3547.3,0.00011759,5.3158,0.00011688,-0.002615,-0.00035489,-3544.7,0.70227
9514,9.7193,5.8182,0,0.00034747,3472.3,0.00011535,8.1647,0.00011426,-0.010218,-0.00034733,-3468.3,0.73646
9515,9.6272,5.7273,0,0.0003498,3495.6,0.00011589,5.4716,0.00011516,-0.00068852,-0.00034971,-3492.9,0.72577
9516,9.6272,5.8182,0.05,7.2426e-08,0.72376,5.5612e-08,0.41777,1.0538e-12,-5.1932e-05,-5.5617e-08,-0.41796,0.72517
9517,9.6272,5.9091,0,0.00034969,3494.5,0.00011587,5.652,0.00011512,-0.0020082,-0.0003496,-3491.7,0.72461
9518,9.9036,5.8182,0,0.00034225,3420.1,0.00011367,8.6849,0.00011251,-0.0086834,-0.0003421,-3415.8,0.75915
9519,9.8115,5.7273,0,0.00034458,3443.4,0.00011422,6.1246,0.00011341,-0.00031001,-0.00034447,-3440.3,0.74834
9520,9.8115,5.8182,0.05,6.2152e-08,0.62109,4.7723e-08,0.35851,8.46e-13,-4.853e-05,-4.7727e-08,-0.35867,0.74775
9521,9.8115,5.9091,0,0.00034443,3441.9,0.00011416,5.9725,0.00011337,-0.0016053,-0.00034433,-3439,0.74719
9522,10.088,5.8182,0,0.00033705,3368.1,0.00011199,9.1798,0.00011077,-0.0074488,-0.00033689,-3363.5,0.78207
9523,9.9957,5.7273,0,0.00033937,3391.4,0.00011256,6.7419,0.00011166,-0.00021484,-0.00033926,-3388,0.77113
9524,9.9957,5.8182,0.05,5.2672e-08,0.52636,4.0439e-08,0.30381,-9.5945e-13,-5.2654e-05,-4.0453e-08,-0.30397,0.77055
9525,9.9957,5.9091,0,0.0003392,3389.6,0.00011246,6.2782,0.00011162,-0.0013643,-0.00033909,-3386.5,0.77001
9526,10.272,5.8182,0,0.00033186,3316.4,0.00011032,9.6512,0.00010904,-0.0064351,-0.0003317,-3311.5,0.80522
9527,10.18,5.7273,0,0.00033418,3339.5,0.00011089,7.3256,0.00010992,-0.00028621,-0.00033406,-3335.9,0.79416
9528,10.18,5.8182,0.05,4.3931e-08,0.43901,3.3733e-08,0.25337,2.059e-12,-5.9535e-05,-3.3734e-08,-0.25355,0.79359
9529,10.18,5.9091,0,0.00033398,3337.5,0.00011076,6.57,0.00010989,-0.0012355,-0.00033387,-3334.2,0.79305
9530,10.456,5.8182,0,0.00032671,3264.8,0.00010866,10.101,0.00010731,-0.0056155,-0.00032653,-3259.7,0.82859
9531,10.364,5.7273,0,0.00032902,3287.9,0.00010923,7.878,0.00010819,-0.000452,-0.00032889,-3284,0.81741
9532,10.364,5.8182,0.05,3.5886e-08,0.35861,2.7553e-08,0.20697,-1.1424e-12,-6.0583e-05,-2.7559e-08,-0.20712,0.81685
9533,10.364,5.9091,0,0.00032879,3285.6,0.00010907,6.8488,0.00010816,-0.0011796,-0.00032867,-3282.2,0.81632
9534,10.641,5.8182,0,0.00032157,3213.5,0.000107,10.529,0.00010559,-0.0049389,-0.00032139,-3208.2,0.85218
9535,10.549,5.7273,0,0.00032388,3236.5,0.00010758,8.4011,0.00010646,-0.00072778,-0.00032373,-3232.3,0.84089
9536,10.549,5.8182,0.05,2.8487e-08,0.28467,2.1872e-08,0.16428,-2.6796e-12,-6.3485e-05,-2.1877e-08,-0.16443,0.84033
9537,10.549,5.9091,0,0.00032362,3234,0.00010739,7.1155,0.00010644,-0.00123,-0.0003235,-3230.4,0.83981
9538,10.825,5.8182,0,0.00031645,3162.3,0.00010534,10.939,0.00010389,-0.0043329,-0.00031626,-3156.9,0.87599
9539,10.733,5.7273,0,0.00031876,3185.4,0.00010593,8.8972,0.00010475,-0.0010029,-0.0003186,-3180.9,0.86458
9540,10.733,5.8182,0.05,2.1691e-08,0.21676,1.6654e-08,0.12507,-3.4847e-12,-8.1486e-05,-1.6659e-08,-0.12523,0.86403
9541,10.733,5.9091,0,0.00031848,3182.6,0.00010571,7.3711,0.00010473,-0.0012885,-0.00031835,-3178.9,0.86352
9542,11.009,5.8182,0,0.00031136,3111.4,0.00010369,11.332,0.00010219,-0.0038121,-0.00031116,-3105.7,0.90002
9543,10.917,5.7273,0,0.00031365,3134.4,0.00010429,9.3684,0.00010304,-0.0012564,-0.00031349,-3129.7,0.88849
9544,10.917,5.8182,0.05,1.5498e-08,0.15487,1.1896e-08,0.08937,-5.8073e-12,-6.2687e-05,-1.1905e-08,-0.089457,0.88795
9545,10.917,5.9091,0,0.00031335,3131.4,0.00010404,7.6164,0.00010303,-0.0013383,-0.00031322,-3127.5,0.88745
9546,11.193,5.8182,0,0.00030628,3060.7,0.00010205,11.709,0.00010049,-0.0033845,-0.00030608,-3054.9,0.92425
9547,11.101,5.7273,0,0.00030857,3083.6,0.00010265,9.8164,0.00010134,-0.0015531,-0.00030841,-3078.7,0.91262
9548,11.101,5.8182,0.05,9.9187e-09,0.099119,7.6168e-09,0.057176,-8.1425e-12,-0.00011033,-7.6159e-09,-0.057277,0.91208
9549,11.101,5.9091,0,0.00030825,3080.4,0.00010238,7.8522,0.00010133,-0.0014457,-0.00030812,-3076.4,0.91158
9550,11.378,5.8182,0,0.00030123,3010.2,0.00010041,12.071,9.8808e-05,-0.0030349,-0.00030102,-3004.2,0.94869
9551,11.286,5.7273,0,0.00030352,3033.1,0.00010102,10.243,9.9652e-05,-0.0018589,-0.00030334,-3027.9,0.93695
9552,11.286,5.8182,0.05,5.1765e-09,0.051729,3.9791e-09,0.029851,-1.6563e-11,-0.00015137,-3.9707e-09,-0.02988,0.93642
9553,11.286,5.9091,0,0.00030317,3029.6,0.00010072,8.0794,9.9646e-05,-0.0015745,-0.00030303,-3025.6,0.93593
9554,11.562,5.8182,0,0.0002962,2960,9.8783e-05,12.419,9.713e-05,-0.0027311,-0.00029599,-2953.7,0.97334
9555,11.47,5.7273,0,0.00029848,2982.7,9.9387e-05,10.65,9.7969e-05,-0.0021916,-0.00029829,-2977.4,0.96148
9556,11.47,5.8182,0.05,3.2177e-09,0.032155,2.471e-09,0.018519,-5.0541e-12,-0.00011832,-2.4705e-09,-0.018611,0.96096
9557,11.47,5.9091,0,0.00029811,2979.1,9.9071e-05,8.2986,9.7966e-05,-0.0017449,-0.00029797,-2974.9,0.96048
9558,11.746,5.8182,0,0.00029119,2909.9,9.7158e-05,12.756,9.546e-05,-0.0024305,-0.00029097,-2903.5,0.99818
9559,11.654,5.7273,0,0.00029346,2932.6,9.7763e-05,11.04,9.6294e-05,-0.00248,-0.00029327,-2927,0.98622
9560,11.654,5.8182,0.05,6.0568e-09,0.060526,4.6436e-09,0.034868,6.3555e-12,3.856e-06,-4.6581e-09,-0.035021,0.98571
9561,11.654,5.9091,0,0.00029308,2928.8,9.7426e-05,8.5108,9.6293e-05,-0.0018846,-0.00029293,-2924.5,0.98523
9562,11.931,5.8182,0,0.0002862,2860,9.5539e-05,13.081,9.3798e-05,-0.0021608,-0.00028598,-2853.5,1.0232
9563,11.838,5.7273,0,0.00028846,2882.6,9.6145e-05,11.414,9.4626e-05,-0.0027209,-0.00028827,-2876.9,1.0112
9564,11.838,5.8182,0.05,9.7544e-09,0.097476,7.4869e-09,0.056204,4.8112e-12,-1.5889e-06,-7.4935e-09,-0.056352,1.0107
9565,11.838,5.9091,0,0.00028806,2878.6,9.5789e-05,8.7167,9.4628e-05,-0.0019911,-0.00028791,-2874.3,1.0102
9566,12.115,5.8182,0,0.00028123,2810.4,9.3926e-05,13.397,9.2143e-05,-0.0019386,-0.000281,-2803.7,1.0485
9567,12.023,5.7273,0,0.00028348,2832.9,9.4533e-05,11.773,9.2966e-05,-0.002983,-0.00028328,-2827,1.0363
9568,12.023,5.8182,0.05,1.3305e-08,0.13295,1.0208e-08,0.076662,3.2829e-12,-1.185e-05,-1.0224e-08,-0.076861,1.0358
9569,12.023,5.9091,0,0.00028307,2828.7,9.4158e-05,8.9167,9.2971e-05,-0.0021303,-0.00028292,-2824.3,1.0353
9570,12.299,5.8182,0,0.00027629,2761,9.2319e-05,13.704,9.0495e-05,-0.001759,-0.00027605,-2754.1,1.0739
9571,12.207,5.7273,0,0.00027853,2783.4,9.2926e-05,12.118,9.1313e-05,-0.0032414,-0.00027832,-2777.3,1.0616
9572,12.207,5.8182,0.05,1.6592e-08,0.1658,1.2734e-08,0.095644,4.4186e-12,-1.6824e-05,-1.2746e-08,-0.095807,1.0611
9573,12.207,5.9091,0,0.0002781,2779.1,9.2533e-05,9.1118,9.132e-05,-0.0022732,-0.00027794,-2774.5,1.0607
9574,12.483,5.8182,0,0.00027136,2711.7,9.0718e-05,14.004,8.8854e-05,-0.0015974,-0.00027112,-2704.7,1.0995
9575,12.391,5.7273,0,0.00027359,2734,9.1326e-05,12.452,8.9668e-05,-0.0035188,-0.00027338,-2727.8,1.0871
9576,12.391,5.8182,0.05,1.9605e-08,0.19591,1.505e-08,0.11306,1.6893e-12,-1.2646e-05,-1.5058e-08,-0.11316,1.0866
9577,12.391,5.9091,0,0.00027315,2729.6,9.0915e-05,9.3023,8.9677e-05,-0.0024438,-0.00027299,-2724.9,1.0862
9578,12.668,5.8182,0,0.00026646,2662.7,8.9124e-05,14.297,8.7221e-05,-0.0014184,-0.00026621,-2655.5,1.1253
9579,12.575,5.7273,0,0.00026868,2684.9,8.9731e-05,12.776,8.803e-05,-0.0037503,-0.00026846,-2678.5,1.1128
9580,12.575,5.8182,0.05,2.2357e-08,0.22341,1.7165e-08,0.1289,3.1864e-12,-2.6985e-05,-1.7169e-08,-0.12908,1.1123
9581,12.575,5.9091,0,0.00026822,2680.3,8.9304e-05,9.4891,8.8041e-05,-0.0025782,-0.00026805,-2675.6,1.1119
9582,12.852,5.8182,0,0.00026157,2613.9,8.7536e-05,14.584,8.5595e-05,-0.0012518,-0.00026132,-2606.6,1.1513
9583,12.76,5.7273,0,0.00026378,2636,8.8142e-05,13.09,8.6399e-05,-0.003936,-0.00026356,-2629.4,1.1387
9584,12.76,5.8182,0.05,2.484e-08,0.24822,1.9072e-08,0.14325,2.0831e-12,-2.4709e-05,-1.9076e-08,-0.14337,1.1382
9585,12.76,5.9091,0,0.00026331,2631.3,8.77e-05,9.6727,8.6412e-05,-0.0026755,-0.00026314,-2626.4,1.1378
9586,13.036,5.8182,0,0.00025671,2565.3,8.5954e-05,14.867,8.3976e-05,-0.0011172,-0.00025645,-2557.8,1.1774
9587,12.944,5.7273,0,0.00025891,2587.3,8.6559e-05,13.397,8.4775e-05,-0.0041427,-0.00025868,-2580.6,1.1647
9588,12.944,5.8182,0.05,2.7073e-08,0.27055,2.0786e-08,0.15615,2.4056e-12,-1.8951e-05,-2.0793e-08,-0.15625,1.1643
9589,12.944,5.9091,0,0.00025842,2582.4,8.6102e-05,9.8534,8.479e-05,-0.0027984,-0.00025825,-2577.5,1.1639
9590,13.22,5.8182,0,0.00025186,2516.9,8.4379e-05,15.145,8.2363e-05,-0.0010101,-0.0002516,-2509.3,1.2037
9591,13.128,5.7273,0,0.00025406,2538.8,8.4982e-05,13.696,8.3159e-05,-0.0043477,-0.00025382,-2531.9,1.191
9592,13.128,5.8182,0.05,2.9078e-08,0.29058,2.2325e-08,0.16772,2.4736e-12,-1.8631e-05,-2.2332e-08,-0.16782,1.1905
9593,13.128,5.9091,0,0.00025355,2533.8,8.4511e-05,10.032,8.3175e-05,-0.0029236,-0.00025338,-2528.8,1.1901
9594,13.405,5.8182,0,0.00024704,2468.7,8.2811e-05,15.421,8.0758e-05,-0.0009094,-0.00024677,-2461,1.2302
9595,13.313,5.7273,0,0.00024922,2490.5,8.3412e-05,13.989,8.1549e-05,-0.0045701,-0.00024898,-2483.5,1.2174
9596,13.313,5.8182,0.05,3.0873e-08,0.30851,2.3704e-08,0.17805,1.3923e-12,-3.3179e-05,-2.3708e-08,-0.17819,1.2169
9597,13.313,5.9091,0,0.00024871,2485.4,8.2926e-05,10.209,8.1567e-05,-0.0030702,-0.00024853,-2480.2,1.2165
9598,13.589,5.8182,0,0.00024224,2420.7,8.1249e-05,15.694,7.916e-05,-0.00078725,-0.00024197,-2412.8,1.2569
9599,13.497,5.7273,0,0.00024441,2442.4,8.1847e-05,14.278,7.9947e-05,-0.0047541,-0.00024416,-2435.2,1.2439
9600,13.497,5.8182,0.05,3.2473e-08,0.32451,2.4934e-08,0.18731,1.2071e-12,-2.1762e-05,-2.4938e-08,-0.1874,1.2435
9601,13.497,5.9091,0,0.00024388,2437.1,8.1349e-05,10.385,7.9966e-05,-0.0031835,-0.0002437,-2431.9,1.2431
9602,13.773,5.8182,0,0.00023746,2372.9,7.9693e-05,15.965,7.7568e-05,-0.00066996,-0.00023718,-2364.9,1.2837
9603,13.681,5.7273,0,0.00023962,2394.5,8.029e-05,14.563,7.8351e-05,-0.0049013,-0.00023937,-2387.2,1.2707
9604,13.681,5.8182,0.05,3.3876e-08,0.33852,2.6009e-08,0.19537,-4.5032e-13,-3.5954e-05,-2.6016e-08,-0.19552,1.2702
9605,13.681,5.9091,0,0.00023908,2389.1,7.9778e-05,10.559,7.8372e-05,-0.0032632,-0.0002389,-2383.8,1.2698
9606,13.957,5.8182,0,0.0002327,2325.4,7.8145e-05,16.236,7.5984e-05,-0.00057442,-0.00023242,-2317.2,1.3107
9607,13.865,5.7273,0,0.00023485,2346.8,7.8739e-05,14.844,7.6762e-05,-0.0050694,-0.00023459,-2339.4,1.2976
9608,13.865,5.8182,0.05,3.5095e-08,0.35071,2.6946e-08,0.20243,-6.6128e-13,-2.4341e-05,-2.6951e-08,-0.20253,1.2971
9609,13.865,5.9091,0,0.00023429,2341.3,7.8214e-05,10.734,7.6785e-05,-0.0033667,-0.00023411,-2335.9,1.2968
9610,14.142,5.8182,0,0.00022796,2278,7.6603e-05,16.506,7.4406e-05,-0.00050061,-0.00022767,-2269.7,1.3378
9611,14.05,5.7273,0,0.00023009,2299.4,7.7194e-05,15.124,7.518e-05,-0.0052392,-0.00022983,-2291.8,1.3246
9612,14.05,5.8182,0.05,3.6146e-08,0.36121,2.7754e-08,0.20849,6.1282e-13,-3.0923e-05,-2.7758e-08,-0.20861,1.3242
9613,14.05,5.9091,0,0.00022953,2293.7,7.6656e-05,10.909,7.5204e-05,-0.003471,-0.00022934,-2288.3,1.3238
9614,14.326,5.8182,0,0.00022324,2230.8,7.5068e-05,16.777,7.2835e-05,-0.00043001,-0.00022295,-2222.4,1.3651
9615,14.234,5.7273,0,0.00022536,2252.1,7.5656e-05,15.402,7.3605e-05,-0.005431,-0.0002251,-2244.3,1.3518
9616,14.234,5.8182,0.05,3.7044e-08,0.37019,2.8444e-08,0.21368,9.354e-13,-2.9231e-05,-2.8447e-08,-0.21377,1.3514
9617,14.234,5.9091,0,0.00022479,2246.3,7.5106e-05,11.084,7.363e-05,-0.0035987,-0.0002246,-2240.8,1.351
9618,14.51,5.8182,0,0.00021854,2183.9,7.354e-05,17.049,7.1271e-05,-0.00033401,-0.00021824,-2175.3,1.3925
9619,14.418,5.7273,0,0.00022065,2205,7.4124e-05,15.68,7.2037e-05,-0.0055917,-0.00022038,-2197.1,1.3792
9620,14.418,5.8182,0.05,3.7801e-08,0.37775,2.9024e-08,0.21805,-9.8768e-13,-2.991e-05,-2.9029e-08,-0.21814,1.3788
9621,14.418,5.9091,0,0.00022007,2199.1,7.3562e-05,11.26,7.2063e-05,-0.0036956,-0.00021987,-2193.5,1.3784
9622,14.695,5.8182,0,0.00021386,2137.1,7.2019e-05,17.323,6.9713e-05,-0.00024032,-0.00021356,-2128.4,1.4201
9623,14.602,5.7273,0,0.00021596,2158.1,7.26e-05,15.959,7.0475e-05,-0.0057213,-0.00021569,-2150.1,1.4067
9624,14.602,5.8182,0.05,3.8411e-08,0.38385,2.9493e-08,0.22158,-1.0579e-12,-2.1731e-05,-2.9497e-08,-0.22165,1.4063
9625,14.602,5.9091,0,0.00021536,2152.2,7.2025e-05,11.438,7.0502e-05,-0.0037636,-0.00021517,-2146.4,1.4059
9626,14.879,5.8182,0,0.0002092,2090.5,7.0504e-05,17.599,6.8162e-05,-0.00016557,-0.00020889,-2081.7,1.4479
9627,14.787,5.7273,0,0.00021129,2111.5,7.1082e-05,16.238,6.892e-05,-0.0058774,-0.00021101,-2103.3,1.4343
9628,14.787,5.8182,0.05,3.8886e-08,0.38859,2.9857e-08,0.22433,-8.3852e-14,-1.5653e-05,-2.9862e-08,-0.22437,1.4339
9629,14.787,5.9091,0,0.00021068,2105.4,7.0495e-05,11.617,6.8949e-05,-0.0038551,-0.00021048,-2099.5,1.4336
9630,15.063,5.8182,0,0.00020456,2044.2,6.8997e-05,17.878,6.6617e-05,-0.00010571,-0.00020425,-2035.2,1.4757
9631,14.971,5.7273,0,0.00020664,2065,6.9571e-05,16.52,6.7371e-05,-0.0060384,-0.00020636,-2056.7,1.4621
9632,14.971,5.8182,0.05,3.9239e-08,0.39212,3.0126e-08,0.22636,-2.2486e-12,-3.4444e-05,-3.0135e-08,-0.22643,1.4617
9633,14.971,5.9091,0,0.00020602,2058.8,6.8972e-05,11.798,6.7401e-05,-0.0039498,-0.00020582,-2052.9,1.4614
9634,15.247,5.8182,0,0.00019994,1998,6.7496e-05,18.16,6.5079e-05,-4.5907e-05,-0.00019963,-1988.9,1.5037
9635,15.155,5.7273,0,0.00020201,2018.7,6.8067e-05,16.804,6.583e-05,-0.0062229,-0.00020172,-2010.3,1.49
9636,15.155,5.8182,0.05,3.9482e-08,0.39455,3.0314e-08,0.22776,-1.2209e-12,-3.1555e-05,-3.032e-08,-0.22783,1.4897
9637,15.155,5.9091,0,0.00020138,2012.4,6.7456e-05,11.982,6.5861e-05,-0.0040657,-0.00020117,-2006.4,1.4894
9638,15.432,5.8182,0,0.00019535,1952.1,6.6003e-05,18.447,6.3548e-05,3.6176e-05,-0.00019502,-1942.8,1.5319
9639,15.339,5.7273,0,0.0001974,1972.7,6.657e-05,17.092,6.4294e-05,-0.0063851,-0.00019711,-1964.1,1.5181
9640,15.339,5.8182,0.05,3.9627e-08,0.39599,3.0428e-08,0.22859,-1.0728e-12,-3.8978e-05,-3.0428e-08,-0.22866,1.5178
9641,15.339,5.9091,0,0.00019676,1966.2,6.5947e-05,12.168,6.4327e-05,-0.0041568,-0.00019655,-1960.1,1.5174
9642,15.616,5.8182,0,0.00019077,1906.4,6.4517e-05,18.738,6.2023e-05,0.00011682,-0.00019044,-1896.9,1.5601
9643,15.524,5.7273,0,0.00019281,1926.8,6.508e-05,17.384,6.2765e-05,-0.0065265,-0.00019251,-1918.1,1.5463
9644,15.524,5.8182,0.05,3.967e-08,0.39643,3.0459e-08,0.22885,-2.1918e-12,-4.1592e-05,-3.0464e-08,-0.22891,1.546
9645,15.524,5.9091,0,0.00019216,1920.3,6.4444e-05,12.358,6.2799e-05,-0.0042249,-0.00019195,-1914.1,1.5457
9646,15.8,5.8182,0,0.00018621,1860.8,6.3038e-05,19.035,6.0504e-05,0.00018307,-0.00018588,-1851.2,1.5885
9647,15.708,5.7273,0,0.00018825,1881.2,6.3597e-05,17.68,6.1243e-05,-0.006696,-0.00018794,-1872.3,1.5746
9648,15.708,5.8182,0.05,3.9626e-08,0.39599,3.0428e-08,0.2286,-2.8634e-12,-4.4918e-05,-3.0429e-08,-0.22865,1.5743
9649,15.708,5.9091,0,0.00018758,1874.5,6.2949e-05,12.551,6.1278e-05,-0.0043163,-0.00018736,-1868.2,1.574
9650,15.984,5.8182,0,0.00018167,1815.5,6.1566e-05,19.337,5.8992e-05,0.00023644,-0.00018134,-1805.7,1.6171
9651,15.892,5.7273,0,0.0001837,1835.7,6.2121e-05,17.983,5.9727e-05,-0.0068769,-0.00018339,-1826.7,1.6031
9652,15.892,5.8182,0.05,3.9512e-08,0.39485,3.0341e-08,0.22794,-2.5465e-12,-4.0568e-05,-3.034e-08,-0.22799,1.6028
9653,15.892,5.9091,0,0.00018302,1828.9,6.146e-05,12.747,5.9763e-05,-0.0044126,-0.0001828,-1822.5,1.6025
9654,16.169,5.8182,0,0.00017716,1770.4,6.0101e-05,19.645,5.7486e-05,0.00029027,-0.00017682,-1760.5,1.6457
9655,16.077,5.7273,0,0.00017917,1790.5,6.0652e-05,18.291,5.8217e-05,-0.0070843,-0.00017885,-1781.2,1.6317
9656,16.077,5.8182,0.05,3.9344e-08,0.39317,3.0212e-08,0.22697,-2.6006e-12,-4.5927e-05,-3.021e-08,-0.22701,1.6314
9657,16.077,5.9091,0,0.00017848,1783.5,5.9978e-05,12.948,5.8255e-05,-0.0045298,-0.00017825,-1777,1.6311
9658,16.353,5.8182,0,0.00017266,1725.4,5.8643e-05,19.96,5.5987e-05,0.0003647,-0.00017231,-1715.4,1.6745
9659,16.261,5.7273,0,0.00017466,1745.4,5.9191e-05,18.606,5.6714e-05,-0.0072782,-0.00017434,-1736,1.6604
9660,16.261,5.8182,0.05,3.9141e-08,0.39114,3.0056e-08,0.22581,-3.5719e-12,-4.1468e-05,-3.0054e-08,-0.22584,1.6601
9661,16.261,5.9091,0,0.00017396,1738.4,5.8504e-05,13.154,5.6752e-05,-0.0046274,-0.00017373,-1731.8,1.6598
9662,16.537,5.8182,0,0.00016819,1680.7,5.7193e-05,20.282,5.4494e-05,0.00043853,-0.00016783,-1670.5,1.7034
9663,16.445,5.7273,0,0.00017017,1700.6,5.7737e-05,18.929,5.5216e-05,-0.0074623,-0.00016984,-1691,1.6892
9664,16.445,5.8182,0.05,3.8915e-08,0.38888,2.9882e-08,0.22451,-4.5481e-12,-5.406e-05,-2.9882e-08,-0.22454,1.6889
9665,16.445,5.9091,0,0.00016946,1693.4,5.7036e-05,13.364,5.5257e-05,-0.0047069,-0.00016922,-1686.7,1.6886
9666,16.721,5.8182,0,0.00016373,1636.2,5.575e-05,20.612,5.3007e-05,0.00049858,-0.00016337,-1625.8,1.7323
9667,16.629,5.7273,0,0.00016571,1655.9,5.629e-05,19.26,5.3725e-05,-0.0076779,-0.00016537,-1646.2,1.7181
9668,16.629,5.8182,0.05,3.8695e-08,0.38668,2.9714e-08,0.22324,-4.0515e-12,-3.9609e-05,-2.9712e-08,-0.22326,1.7178
9669,16.629,5.9091,0,0.00016497,1648.6,5.5575e-05,13.579,5.3767e-05,-0.0048103,-0.00016474,-1641.8,1.7176
9670,16.906,5.8182,0,0.00015929,1591.8,5.4314e-05,20.949,5.1526e-05,0.00054588,-0.00015893,-1581.3,1.7615
9671,16.814,5.7273,0,0.00016126,1611.5,5.485e-05,19.6,5.2241e-05,-0.0079133,-0.00016092,-1601.6,1.7472
9672,16.814,5.8182,0.05,3.8513e-08,0.38486,2.9575e-08,0.22219,-4.6705e-12,-6.4141e-05,-2.9572e-08,-0.22221,1.7469
9673,16.814,5.9091,0,0.00016051,1604,5.4121e-05,13.799,5.2284e-05,-0.0049204,-0.00016027,-1597.1,1.7466
9674,17.09,5.8182,0,0.00015488,1547.7,5.2885e-05,21.295,5.0051e-05,0.00059301,-0.0001545,-1536.9,1.7907
9675,16.998,5.7273,0,0.00015683,1567.2,5.3418e-05,19.949,5.0762e-05,-0.0081816,-0.00015648,-1557.1,1.7763
9676,16.998,5.8182,0.05,3.8409e-08,0.38383,2.9495e-08,0.2216,-5.0887e-12,-5.0746e-05,-2.9492e-08,-0.22161,1.776
9677,16.998,5.9091,0,0.00015607,1559.6,5.2674e-05,14.025,5.0807e-05,-0.0050515,-0.00015583,-1552.6,1.7758
9678,17.274,5.8182,0,0.00015048,1503.8,5.1464e-05,21.65,4.8582e-05,0.00065602,-0.0001501,-1492.8,1.82
9679,17.182,5.7273,0,0.00015242,1523.2,5.1993e-05,20.308,4.9289e-05,-0.0084486,-0.00015207,-1512.9,1.8056
9680,17.182,5.8182,0.05,3.8428e-08,0.38402,2.951e-08,0.22171,-2.7301e-12,-5.0625e-05,-2.9506e-08,-0.22171,1.8053
9681,17.182,5.9091,0,0.00015165,1515.4,5.1234e-05,14.256,4.9336e-05,-0.0051679,-0.0001514,-1508.3,1.805
9682,17.459,5.8182,0,0.0001461,1460,5.005e-05,22.014,4.712e-05,0.00071539,-0.00014572,-1448.9,1.8494
9683,17.366,5.7273,0,0.00014803,1479.3,5.0576e-05,20.679,4.7822e-05,-0.008717,-0.00014767,-1468.9,1.8349
9684,17.366,5.8182,0.05,3.8615e-08,0.38588,2.9654e-08,0.22279,-6.0387e-12,-5.2733e-05,-2.9649e-08,-0.22279,1.8346
9685,17.366,5.9091,0,0.00014725,1471.5,4.9801e-05,14.494,4.7871e-05,-0.0052744,-0.00014699,-1464.2,1.8344
9686,17.643,5.8182,0,0.00014175,1416.5,4.8643e-05,22.387,4.5663e-05,0.00076017,-0.00014135,-1405.2,1.8789
9687,17.551,5.7273,0,0.00014366,1435.7,4.9166e-05,21.06,4.6362e-05,-0.0090271,-0.0001433,-1425,1.8644
9688,17.551,5.8182,0.05,3.903e-08,0.39003,2.9972e-08,0.22518,-6.634e-12,-5.6092e-05,-2.9968e-08,-0.22518,1.8641
9689,17.551,5.9091,0,0.00014286,1427.6,4.8375e-05,14.738,4.6412e-05,-0.0054013,-0.00014261,-1420.2,1.8639
9690,17.827,5.8182,0,0.00013741,1373.1,4.7243e-05,22.771,4.4212e-05,0.00079089,-0.00013701,-1361.6,1.9085
9691,17.735,5.7273,0,0.00013932,1392.2,4.7763e-05,21.454,4.4907e-05,-0.0093676,-0.00013894,-1381.4,1.8939
9692,17.735,5.8182,0.05,3.9737e-08,0.39709,3.0515e-08,0.22926,-5.2871e-12,-5.8699e-05,-3.0511e-08,-0.22926,1.8937
9693,17.735,5.9091,0,0.0001385,1384,4.6955e-05,14.989,4.496e-05,-0.0055386,-0.00013824,-1376.5,1.8934
9694,18.011,5.8182,0,0.00013309,1330,4.585e-05,23.164,4.2767e-05,0.00081449,-0.00013268,-1318.2,1.9382
9695,17.919,5.7273,0,0.00013499,1348.9,4.6368e-05,21.86,4.3458e-05,-0.0097523,-0.0001346,-1337.9,1.9236
9696,17.919,5.8182,0.05,4.0803e-08,0.40775,3.1334e-08,0.23542,-7.2788e-12,-6.0884e-05,-3.1329e-08,-0.23541,1.9233
9697,17.919,5.9091,0,0.00013415,1340.6,4.5543e-05,15.246,4.3513e-05,-0.0056971,-0.00013389,-1332.9,1.9231
9698,18.196,5.8182,0,0.00012879,1287,4.4465e-05,23.568,4.1328e-05,0.00084519,-0.00012837,-1275.1,1.968
9699,18.103,5.7273,0,0.00013068,1305.9,4.4981e-05,22.279,4.2014e-05,-0.010153,-0.00013028,-1294.6,1.9533
9700,18.103,5.8182,0.05,4.2292e-08,0.42263,3.2476e-08,0.24401,-7.2955e-12,-6.1486e-05,-3.2474e-08,-0.244,1.953
9701,18.103,5.9091,0,0.00012983,1297.4,4.4137e-05,15.51,4.2072e-05,-0.0058457,-0.00012956,-1289.6,1.9528
9702,18.38,5.8182,0,0.00012451,1244.2,4.3086e-05,23.981,3.9894e-05,0.0008655,-0.00012408,-1232.1,1.9978
9703,18.288,5.7273,0,0.00012639,1263,4.36e-05,22.711,4.0576e-05,-0.010575,-0.00012598,-1251.5,1.9831
9704,18.288,5.8182,0.05,4.4266e-08,0.44236,3.3993e-08,0.2554,-5.4032e-12,-4.5158e-05,-3.3989e-08,-0.25539,1.9829
9705,18.288,5.9091,0,0.00012552,1254.3,4.2738e-05,15.781,4.0637e-05,-0.005987,-0.00012524,-1246.4,1.9827
9706,18.564,5.8182,0,0.00012025,1201.6,4.1715e-05,24.406,3.8467e-05,0.00086114,-0.00011981,-1189.3,2.0278
9707,18.472,5.7273,0,0.00012211,1220.3,4.2228e-05,23.158,3.9144e-05,-0.011053,-0.0001217,-1208.6,2.013
9708,18.472,5.8182,0.05,4.6781e-08,0.46749,3.5924e-08,0.26991,-3.3162e-12,-4.352e-05,-3.5921e-08,-0.2699,2.0128
9709,18.472,5.9091,0,0.00012123,1211.5,4.1345e-05,16.059,3.9207e-05,-0.0061506,-0.00012095,-1203.4,2.0126
9710,18.748,5.8182,0,0.000116,1159.2,4.035e-05,24.84,3.7044e-05,0.00083028,-0.00011556,-1146.6,2.0578
9711,18.656,5.7273,0,0.00011786,1177.8,4.0862e-05,23.619,3.7717e-05,-0.011583,-0.00011744,-1165.8,2.043
9712,18.656,5.8182,0.05,4.9886e-08,0.49852,3.8308e-08,0.28782,-4.8208e-12,-2.586e-05,-3.8304e-08,-0.28782,2.0428
9713,18.656,5.9091,0,0.00011696,1168.8,3.996e-05,16.345,3.7783e-05,-0.0063246,-0.00011667,-1160.5,2.0426
9714,18.933,5.8182,0,0.00011178,1117,3.8992e-05,25.285,3.5627e-05,0.00077971,-0.00011133,-1104.2,2.0879
9715,18.841,5.7273,0,0.00011363,1135.5,3.9504e-05,24.095,3.6296e-05,-0.012179,-0.0001132,-1123.2,2.0731
9716,18.841,5.8182,0.05,5.3619e-08,0.53582,4.1173e-08,0.30936,-5.2793e-12,-5.1817e-05,-4.1173e-08,-0.30936,2.0728
9717,18.841,5.9091,0,0.00011271,1126.3,3.858e-05,16.637,3.6365e-05,-0.0065204,-0.00011241,-1117.9,2.0727
9718,19.117,5.8182,0,0.00010757,1075,3.7641e-05,25.74,3.4216e-05,0.00071471,-0.00010711,-1061.9,2.1181
9719,19.025,5.7273,0,0.00010941,1093.3,3.8154e-05,24.586,3.488e-05,-0.012815,-0.00010897,-1080.9,2.1032
9720,19.025,5.8182,0.05,5.8014e-08,0.57974,4.4549e-08,0.33471,-2.2586e-12,-9.0722e-06,-4.4546e-08,-0.33471,2.103
9721,19.025,5.9091,0,0.00010847,1084,3.7208e-05,16.936,3.4953e-05,-0.0067074,-0.00010817,-1075.4,2.1028
9722,19.301,5.8182,0,0.00010338,1033.1,3.6297e-05,26.204,3.281e-05,0.00061589,-0.00010291,-1019.7,2.1483
9723,19.209,5.7273,0,0.00010521,1051.4,3.681e-05,25.093,3.3469e-05,-0.013509,-0.00010476,-1038.6,2.1334
9724,19.209,5.8182,0.05,6.3103e-08,0.63059,4.8455e-08,0.36407,-1.7819e-12,-2.8771e-05,-4.8455e-08,-0.36407,2.1332
9725,19.209,5.9091,0,0.00010425,1041.8,3.5841e-05,17.242,3.3546e-05,-0.0068925,-0.00010395,-1033.1,2.133
9726,19.485,5.8182,0,9.9209e-05,991.4,3.4959e-05,26.678,3.1409e-05,0.00047079,-9.8728e-05,-977.79,2.1787
9727,19.393,5.7273,0,0.00010103,1009.6,3.5474e-05,25.616,3.2063e-05,-0.014288,-0.00010057,-996.59,2.1637
9728,19.393,5.8182,0.05,6.8913e-08,0.68865,5.2916e-08,0.39759,-1.4173e-12,-1.4346e-05,-5.2917e-08,-0.3976,2.1635
9729,19.393,5.9091,0,0.00010005,999.85,3.4481e-05,17.555,3.2144e-05,-0.0070952,-9.9744e-05,-990.96,2.1633
9730,19.67,5.8182,0,9.5053e-05,949.88,3.3627e-05,27.16,3.0013e-05,0.0002699,-9.4562e-05,-936.01,2.209
9731,19.578,5.7273,0,9.6871e-05,968.04,3.4145e-05,26.154,3.0662e-05,-0.015153,-9.6399e-05,-954.7,2.194
9732,19.578,5.8182,0.05,7.5472e-08,0.7542,5.7952e-08,0.43543,-1.7877e-12,-1.4656e-06,-5.7953e-08,-0.43544,2.1938
9733,19.578,5.9091,0,9.5871e-05,958.05,3.3127e-05,17.874,3.0747e-05,-0.0073047,-9.5555e-05,-948.99,2.1937
9734,19.854,5.8182,0,9.0914e-05,908.52,3.2302e-05,27.649,2.8622e-05,8.7647e-06,-9.0412e-05,-894.38,2.2395
9735,19.762,5.7273,0,9.2726e-05,926.62,3.2822e-05,26.707,2.9266e-05,-0.016123,-9.2243e-05,-912.98,2.2244
9736,19.762,5.8182,0.05,8.2809e-08,0.82752,6.3586e-08,0.47776,-4.4484e-13,-2.1617e-06,-6.3587e-08,-0.47777,2.2242
9737,19.762,5.9091,0,9.1705e-05,916.42,3.1779e-05,18.199,2.9356e-05,-0.0075286,-9.1382e-05,-907.19,2.2241
9738,20.038,5.8182,0,8.6792e-05,867.32,3.0982e-05,28.145,2.7236e-05,-0.0003128,-8.6279e-05,-852.9,2.27
9739,19.946,5.7273,0,8.8598e-05,885.37,3.1507e-05,27.276,2.7874e-05,-0.017192,-8.8103e-05,-871.42,2.2549
9740,19.946,5.8182,0.05,9.0957e-08,0.90894,6.9843e-08,0.52477,1.5928e-13,-4.5066e-06,-6.9844e-08,-0.52478,2.2547
9741,19.946,5.9091,0,8.7556e-05,874.95,3.0437e-05,18.53,2.797e-05,-0.0077428,-8.7226e-05,-865.55,2.2546
9742,20.223,5.8182,0,8.2685e-05,826.28,2.9667e-05,28.646,2.5855e-05,-0.00072268,-8.216e-05,-811.58,2.3006
9743,20.13,5.7273,0,8.4487e-05,844.29,3.0198e-05,27.861,2.6488e-05,-0.018368,-8.3979e-05,-830.02,2.2854
9744,20.13,5.8182,0.05,9.9959e-08,0.9989,7.6756e-08,0.57671,4.0396e-13,1.6104e-07,-7.6756e-08,-0.57672,2.2853
9745,20.13,5.9091,0,8.3423e-05,833.65,2.9101e-05,18.865,2.6589e-05,-0.007945,-8.3086e-05,-824.06,2.2851
9746,20.407,5.8182,0,7.8593e-05,785.39,2.8358e-05,29.15,2.4478e-05,-0.0012494,-7.8056e-05,-770.41,2.3312
9747,20.315,5.7273,0,8.0392e-05,803.37,2.8896e-05,28.459,2.5106e-05,-0.019697,-7.987e-05,-788.77,2.316
9748,20.315,5.8182,0.05,1.0986e-07,1.0978,8.4357e-08,0.63383,7.935e-13,8.5675e-06,-8.4358e-08,-0.63383,2.3158
9749,20.315,5.9091,0,7.9305e-05,792.51,2.777e-05,19.203,2.5213e-05,-0.0081492,-7.8961e-05,-782.74,2.3157
9750,20.591,5.8182,0,7.4516e-05,744.64,2.7054e-05,29.655,2.3107e-05,-0.0019099,-7.3967e-05,-729.38,2.3618
9751,20.499,5.7273,0,7.6313e-05,762.61,2.76e-05,29.072,2.3728e-05,-0.021183,-7.5777e-05,-747.66,2.3466
9752,20.499,5.8182,0.05,1.207e-07,1.2062,9.2686e-08,0.69641,6.9251e-13,1.1299e-05,-9.2686e-08,-0.6964,2.3465
9753,20.499,5.9091,0,7.5204e-05,751.52,2.6445e-05,19.545,2.3842e-05,-0.0083457,-7.4852e-05,-741.56,2.3463
9754,20.775,5.8182,0,7.0453e-05,704.05,2.5754e-05,30.159,2.1739e-05,-0.0027284,-6.9892e-05,-688.48,2.3925
9755,20.683,5.7273,0,7.225e-05,722,2.631e-05,29.697,2.2354e-05,-0.022855,-7.1699e-05,-706.7,2.3773
9756,20.683,5.8182,0.05,1.3255e-07,1.3246,1.0178e-07,0.76476,1.1356e-12,9.9306e-06,-1.0178e-07,-0.76475,2.3772
9757,20.683,5.9091,0,7.1118e-05,710.69,2.5124e-05,19.887,2.2476e-05,-0.008526,-7.0759e-05,-700.54,2.377
9758,20.96,5.8182,0,6.6404e-05,663.58,2.4458e-05,30.658,2.0377e-05,-0.0037353,-6.583e-05,-647.72,2.4233
9759,20.867,5.7273,0,6.8202e-05,681.55,2.5026e-05,30.335,2.0985e-05,-0.02473,-6.7635e-05,-665.88,2.4081
9760,20.867,5.8182,0.05,1.4546e-07,1.4536,1.117e-07,0.83926,6.4588e-13,1.2555e-05,-1.117e-07,-0.83925,2.4079
9761,20.867,5.9091,0,6.7046e-05,670,2.3809e-05,20.23,2.1115e-05,-0.0086698,-6.668e-05,-659.66,2.4078
9762,21.144,5.8182,0,6.2368e-05,623.25,2.3165e-05,31.15,1.9019e-05,-0.0049807,-6.178e-05,-607.1,2.4541
9763,21.052,5.7273,0,6.4168e-05,641.24,2.3747e-05,30.982,1.962e-05,-0.026834,-6.3585e-05,-625.2,2.4388
9764,21.052,5.8182,0.05,1.5951e-07,1.594,1.2249e-07,0.92033,1.2357e-12,1.0663e-05,-1.2249e-07,-0.92032,2.4387
9765,21.052,5.9091,0,6.299e-05,629.47,2.2498e-05,20.57,1.9759e-05,-0.0087558,-6.2615e-05,-618.93,2.4386
9766,21.328,5.8182,0,5.8345e-05,583.05,2.1876e-05,31.63,1.7665e-05,-0.0065244,-5.7743e-05,-566.6,2.4849
9767,21.236,5.7273,0,6.0149e-05,601.08,2.2474e-05,31.638,1.8259e-05,-0.029221,-5.9549e-05,-584.65,2.4696
9768,21.236,5.8182,0.05,1.7478e-07,1.7466,1.3421e-07,1.0084,1.1465e-12,1.7721e-05,-1.3421e-07,-1.0084,2.4695
9769,21.236,5.9091,0,5.8948e-05,589.08,2.1191e-05,20.907,1.8407e-05,-0.0087856,-5.8565e-05,-578.35,2.4694
9770,21.512,5.8182,0,5.4335e-05,542.97,2.0589e-05,32.094,1.6317e-05,-0.008436,-5.3718e-05,-526.22,2.5158
9771,21.42,5.7273,0,5.6145e-05,561.06,2.1205e-05,32.301,1.6902e-05,-0.03193,-5.5526e-05,-544.23,2.5005
9772,21.42,5.8182,0.05,1.9136e-07,1.9123,1.4694e-07,1.1041,1.8922e-12,1.9075e-05,-1.4694e-07,-1.1041,2.5004
9773,21.42,5.9091,0,5.4921e-05,548.83,1.9889e-05,21.236,1.7061e-05,-0.0087201,-5.4529e-05,-537.91,2.5003
9774,21.697,5.8182,0,5.0336e-05,503.01,1.9304e-05,32.534,1.4972e-05,-0.010798,-4.9704e-05,-485.96,2.5467
9775,21.605,5.7273,0,5.2155e-05,521.19,1.9942e-05,32.969,1.5549e-05,-0.035018,-5.1516e-05,-503.93,2.5314
9776,21.605,5.8182,0.05,2.0935e-07,2.092,1.6075e-07,1.2078,1.4689e-12,1.3698e-05,-1.6075e-07,-1.2078,2.5313
9777,21.605,5.9091,0,5.0908e-05,508.73,1.859e-05,21.555,1.572e-05,-0.0085268,-5.0507e-05,-497.62,2.5312
9778,21.881,5.8182,0,4.6349e-05,463.17,1.802e-05,32.945,1.3633e-05,-0.013722,-4.5701e-05,-445.82,2.5777
9779,21.789,5.7273,0,4.8178e-05,481.45,1.8682e-05,33.638,1.42e-05,-0.038535,-4.7518e-05,-463.77,2.5623
9780,21.789,5.8182,0.05,2.2886e-07,2.287,1.7573e-07,1.3204,1.3378e-12,1.5346e-05,-1.7573e-07,-1.3204,2.5622
9781,21.789,5.9091,0,4.691e-05,468.78,1.7295e-05,21.86,1.4384e-05,-0.0081416,-4.65e-05,-457.47,2.5621
9782,22.065,5.8182,0,4.2373e-05,423.44,1.6735e-05,33.318,1.2299e-05,-0.017372,-4.1708e-05,-405.8,2.6086
9783,21.973,5.7273,0,4.4217e-05,441.86,1.7427e-05,34.307,1.2855e-05,-0.042566,-4.3533e-05,-423.73,2.5933
9784,21.973,5.8182,0.05,2.5002e-07,2.4985,1.9199e-07,1.4425,1.253e-12,1.814e-05,-1.9199e-07,-1.4425,2.5931
9785,21.973,5.9091,0,4.2927e-05,428.98,1.6003e-05,22.147,1.3054e-05,-0.0074862,-4.2508e-05,-417.48,2.5931
9786,22.249,5.8182,0,3.8409e-05,383.83,1.5451e-05,33.643,1.097e-05,-0.021952,-3.7726e-05,-365.91,2.6396
9787,22.157,5.7273,0,4.027e-05,402.42,1.6176e-05,34.973,1.1515e-05,-0.047208,-3.9562e-05,-383.82,2.6242
9788,22.157,5.8182,0.05,2.7301e-07,2.7282,2.0963e-07,1.5751,1.4174e-12,1.7169e-05,-2.0963e-07,-1.5751,2.6241
9789,22.157,5.9091,0,3.8961e-05,389.34,1.4714e-05,22.409,1.173e-05,-0.0064623,-3.8531e-05,-377.65,2.624
9790,22.434,5.8182,0,3.4457e-05,344.33,1.4164e-05,33.907,9.6475e-06,-0.027733,-3.3755e-05,-326.14,2.6707
9791,22.342,5.7273,0,3.634e-05,363.15,1.4929e-05,35.635,1.0179e-05,-0.052577,-3.5603e-05,-344.04,2.6552
9792,22.342,5.8182,0.05,2.9799e-07,2.9778,2.2882e-07,1.7193,1.0823e-12,1.6187e-05,-2.2882e-07,-1.7192,2.6551
9793,22.342,5.9091,0,3.5011e-05,349.86,1.3427e-05,22.64,1.0413e-05,-0.0048902,-3.457e-05,-338,2.6551
9794,22.618,5.8182,0,3.0518e-05,304.97,1.2874e-05,34.098,8.3317e-06,-0.035142,-2.9795e-05,-286.51,2.7017
9795,22.526,5.7273,0,3.2429e-05,324.07,1.3686e-05,36.29,8.8484e-06,-0.058774,-3.1659e-05,-304.42,2.6863
9796,22.526,5.8182,0.05,3.252e-07,3.2498,2.4971e-07,1.8763,1.07e-12,1.6551e-05,-2.4971e-07,-1.8763,2.6862
9797,22.526,5.9091,0,3.108e-05,310.58,1.2143e-05,22.83,9.1044e-06,-0.0024952,-3.0628e-05,-298.54,2.6861
9798,22.802,5.8182,0,2.6595e-05,265.77,1.1581e-05,34.196,7.0239e-06,-0.044585,-2.5848e-05,-247.03,2.7328
9799,22.71,5.7273,0,2.854e-05,285.2,1.2449e-05,36.942,7.5231e-06,-0.066039,-2.7732e-05,-264.96,2.7173
9800,22.71,5.8182,0.05,3.5494e-07,3.5469,2.7255e-07,2.0478,8.8833e-13,1.1368e-05,-2.7255e-07,-2.0478,2.7172
9801,22.71,5.9091,0,2.717e-05,271.52,1.0861e-05,22.969,7.8045e-06,0.0010887,-2.6707e-05,-259.3,2.7171
9802,22.987,5.8182,0,2.2691e-05,226.75,1.0283e-05,34.182,5.7256e-06,-0.057446,-2.1915e-05,-207.74,2.7638
9803,22.894,5.7273,0,2.468e-05,246.63,1.1218e-05,37.6,6.204e-06,-0.074029,-2.3824e-05,-225.7,2.7484
9804,22.894,5.8182,0.05,3.876e-07,3.8733,2.9763e-07,2.2363,9.0008e-13,1.2415e-05,-2.9763e-07,-2.2363,2.7483
9805,22.894,5.9091,0,2.3287e-05,232.71,9.5814e-06,23.041,6.5158e-06,0.0069514,-2.2809e-05,-220.33,2.7482
9806,23.171,5.8182,0,1.8813e-05,188,8.979e-06,34.038,4.4392e-06,-0.072786,-1.8002e-05,-168.69,2.7949
9807,23.079,5.7273,0,2.0859e-05,208.45,9.9988e-06,38.287,4.892e-06,-0.084491,-1.9943e-05,-186.68,2.7795
9808,23.079,5.8182,0.05,4.2374e-07,4.2345,3.2538e-07,2.4448,8.6977e-13,1.3079e-05,-3.2538e-07,-2.4448,2.7794
9809,23.079,5.9091,0,1.9437e-05,194.23,8.3034e-06,23.024,5.2411e-06,0.015107,-1.8942e-05,-181.69,2.7793
9810,23.355,5.8182,0,1.4979e-05,149.69,7.6729e-06,33.755,3.167e-06,-0.10053,-1.4117e-05,-129.96,2.826
9811,23.263,5.7273,0,1.71e-05,170.89,8.7994e-06,39.063,3.5884e-06,-0.090155,-1.6097e-05,-148,2.8106
9812,23.263,5.8182,0.05,4.6433e-07,4.6401,3.5655e-07,2.6789,1.2295e-12,1.4567e-05,-3.5655e-07,-2.6789,2.8105
9813,23.263,5.9091,0,1.5631e-05,156.2,7.0277e-06,22.892,3.9854e-06,0.033787,-1.5115e-05,-143.48,2.8104
9814,23.539,5.8182,0,1.1231e-05,112.23,6.3775e-06,33.411,1.9154e-06,-0.11565,-1.0282e-05,-91.763,2.8571
9815,23.447,5.7273,0,1.3448e-05,134.39,7.6404e-06,40.071,2.292e-06,-0.11528,-1.231e-05,-109.83,2.8417
9816,23.447,5.8182,0.05,5.1067e-07,5.1032,3.9213e-07,2.9463,7.3256e-13,1.0021e-05,-3.9213e-07,-2.9463,2.8416
9817,23.447,5.9091,0,1.1888e-05,118.8,5.7551e-06,22.593,2.7545e-06,0.047339,-1.1341e-05,-105.86,2.8415
9818,23.724,5.8182,0,7.7513e-06,77.46,5.1981e-06,33.714,6.6968e-07,-0.31049,-6.6003e-06,-54.934,2.8883
9819,23.631,5.7273,0,1.002e-05,100.13,6.5746e-06,41.757,1.0098e-06,-0.055237,-8.6323e-06,-72.502,2.8728
9820,23.631,5.8182,0.05,5.6881e-07,5.6842,4.3678e-07,3.2818,8.1777e-13,9.7481e-06,-4.3678e-07,-3.2818,2.8727
9821,23.631,5.9091,0,8.2606e-06,82.549,4.4964e-06,22.154,1.5668e-06,0.14186,-7.658e-06,-69.169,2.8726
9822,23.816,5.7273,0,7.1925e-06,71.875,5.8016e-06,45.544,-3.1127e-07,-0.38569,-5.2225e-06,-37.287,2.9039
9823,23.816,5.8182,0.05,6.9316e-07,6.9268,5.3226e-07,3.9992,9.9053e-13,1.1765e-05,-5.3226e-07,-3.9992,2.9038
9824,23.908,5.8182,0,4.8638e-06,48.604,4.1768e-06,34.945,-4.7884e-07,-0.036015,-3.2096e-06,-20.554,2.9194
9825,23.816,5.9091,0,4.8953e-06,48.919,3.2909e-06,21.469,4.2373e-07,-0.073914,-4.1614e-06,-34.525,2.9037
9826,1.2431,5.6364,0,0.00018006,1799.3,8.2443e-05,275.95,4.428e-05,-10.792,-0.00017382,-1649.5,0.0038577
9827,1.1509,5.5455,0,0.00020132,2011.8,0.0001104,541.86,3.6649e-05,-12.318,-0.0001865,-1689,0.0026841
9828,1.1509,5.6364,0.05,1.372e-05,137.1,1.0535e-05,79.156,1.3688e-12,1.0646e-05,-1.0535e-05,-79.156,0.0017656
9829,1.0588,5.6364,0,0.00013077,1306.8,6.5744e-05,281.84,2.8834e-05,4.5099,-0.00012367,-1141.3,0.0068901
9830,1.4273,5.6364,0,0.00022781,2276.5,9.1799e-05,199.32,6.4756e-05,-3.8694,-0.0002238,-2172,0.012482
9831,1.3352,5.5455,0,0.00022559,2254.3,0.00010101,323.23,5.7604e-05,-2.9067,-0.00021836,-2076.4,0.0088196
9832,1.3352,5.6364,0.05,1.1888e-05,118.79,9.1282e-06,68.586,-2.2295e-13,-8.8212e-06,-9.1282e-06,-68.586,0.0075285
9833,1.6116,5.6364,0,0.00028308,2828.9,0.0001093,190.66,8.3626e-05,-2.209,-0.00027938,-2729.7,0.021826
9834,1.5195,5.5455,0,0.00027479,2746,0.00011264,264.8,7.6984e-05,-3.0682,-0.00026936,-2605.3,0.017976
9835,1.5195,5.6364,0.05,1.0917e-05,109.09,8.3827e-06,62.984,-1.819e-12,-2.0697e-05,-8.3827e-06,-62.984,0.016918
9836,1.7959,5.6364,0,0.00033385,3336.2,0.00012577,187.64,0.00010066,-0.99831,-0.00033028,-3238.9,0.03141
9837,1.7037,5.5455,0,0.00032501,3247.9,0.00012732,242,9.4922e-05,-1.4236,-0.00032023,-3120.7,0.027415
9838,1.7037,5.6364,0.05,9.6328e-06,96.261,7.3968e-06,55.576,-1.6385e-12,-2.4669e-05,-7.3968e-06,-55.577,0.026455
9839,1.9801,5.6364,0,0.00037735,3770.9,0.00013939,178.74,0.00011551,-0.65583,-0.000374,-3678.7,0.041226
9840,1.888,5.5455,0,0.0003698,3695.4,0.00014057,223.34,0.00011072,-0.9491,-0.00036551,-3579.1,0.037083
9841,1.888,5.6364,0.05,8.2411e-06,82.354,6.3282e-06,47.547,-1.0168e-12,-2.6626e-05,-6.3282e-06,-47.547,0.036184
9842,2.1644,5.6364,0,0.00041314,4128.5,0.00014993,163.34,0.00012812,-0.49865,-0.00041012,-4044.7,0.051298
9843,2.0723,5.5455,0,0.00040734,4070.6,0.00015117,201.54,0.00012426,-0.64452,-0.00040354,-3966.3,0.046998
9844,2.0723,5.6364,0.05,6.8576e-06,68.528,5.2657e-06,39.565,-9.8885e-13,-1.5816e-05,-5.2658e-06,-39.565,0.046143
9845,2.3487,5.6364,0,0.00044166,4413.5,0.00015768,143.31,0.00013855,-0.42521,-0.00043905,-4340.3,0.061648
9846,2.2565,5.5455,0,0.00043753,4372.3,0.00015903,175.98,0.00013554,-0.49951,-0.00043428,-4281.9,0.057184
9847,2.2565,5.6364,0.05,5.5632e-06,55.593,4.2718e-06,32.097,4.3359e-12,-1.5408e-05,-4.2718e-06,-32.097,0.056362
9848,2.5329,5.6364,0,0.00046373,4634.1,0.00016311,120.94,0.00014697,-0.36761,-0.00046156,-4572.6,0.072296
9849,2.4408,5.5455,0,0.00046103,4607.1,0.00016449,148.26,0.0001447,-0.4019,-0.00045833,-4531.4,0.067663
9850,2.4408,5.6364,0.05,4.4038e-06,44.008,3.3816e-06,25.408,4.2113e-12,-9.2854e-06,-3.3816e-06,-25.408,0.066867
9851,2.7172,5.6364,0,0.00048028,4799.5,0.00016669,98.15,0.00015358,-0.31548,-0.00047854,-4749.8,0.083258
9852,2.6251,5.5455,0,0.00047873,4784,0.00016801,120.23,0.00015196,-0.33494,-0.00047658,-4722.9,0.078452
9853,2.6251,5.6364,0.05,3.3981e-06,33.958,2.6093e-06,19.605,4.0961e-12,-7.7541e-06,-2.6093e-06,-19.606,0.077675
9854,2.9015,5.6364,0,0.00049224,4919,0.00016882,76.34,0.00015862,-0.26769,-0.0004909,-4880.5,0.094544
9855,2.8093,5.5455,0,0.00049158,4912.4,0.00017002,93.381,0.00015755,-0.28774,-0.00048993,-4865.2,0.089564
9856,2.8093,5.6364,0.05,2.5467e-06,25.45,1.9556e-06,14.693,3.6548e-12,-7.583e-06,-1.9556e-06,-14.694,0.088802
9857,3.0857,5.6364,0,0.00050044,5000.9,0.00016986,56.384,0.00016232,-0.22842,-0.00049946,-4972.6,0.10616
9858,2.9936,5.5455,0,0.00050046,5001.1,0.0001709,68.741,0.00016171,-0.26033,-0.00049926,-4966.5,0.10101
9859,2.9936,5.6364,0.05,1.8403e-06,18.39,1.4131e-06,10.617,4.8266e-12,-1.1031e-05,-1.4131e-06,-10.617,0.10026
9860,3.27,5.6364,0,0.00050559,5052.4,0.00017009,38.758,0.0001649,-0.20435,-0.00050492,-5033,0.11812
9861,3.1779,5.5455,0,0.00050612,5057.7,0.00017095,46.893,0.00016467,-0.25869,-0.00050531,-5034.3,0.11279
9862,3.1779,5.6364,0.05,1.2652e-06,12.643,9.7149e-07,7.2993,3.864e-12,-2.1532e-05,-9.7149e-07,-7.2995,0.11205
9863,3.4543,5.6364,0,0.00050832,5079.7,0.00016973,23.648,0.00016655,-0.21058,-0.00050791,-5067.9,0.13043
9864,3.3621,5.5455,0,0.00050923,5088.8,0.00017041,28.097,0.00016663,-0.30625,-0.00050875,-5074.9,0.12492
9865,3.3621,5.6364,0.05,8.0933e-07,8.0877,6.2146e-07,4.6693,3.179e-12,-4.4814e-05,-6.2146e-07,-4.6695,0.12418
9866,3.6385,5.6364,0,0.00050912,5087.7,0.00016895,11.091,0.00016743,-0.31155,-0.00050893,-5082.3,0.14307
9867,3.5464,5.5455,0,0.00051032,5099.7,0.00016947,12.471,0.00016774,-0.52553,-0.00051012,-5093.7,0.13739
9868,3.5464,5.6364,0.05,4.7221e-07,4.7188,3.6259e-07,2.7243,-8.2239e-12,-0.00011077,-3.626e-07,-2.7245,0.13666
9869,3.8228,5.6364,0,0.00050841,5080.6,0.00016801,1.9131,0.00016756,-1.4787,-0.0005084,-5080.4,0.15607
9870,3.7307,5.5455,0,0.00050982,5094.7,0.00016854,1.8583,0.00016791,-2.9148,-0.00050984,-5095.2,0.15021
9871,3.7307,5.6364,0.05,2.9762e-07,2.9742,2.2854e-07,1.7171,-2.8263e-11,-0.00024086,-2.2853e-07,-1.7171,0.14948
9872,4.0071,5.6364,0,0.00050652,5061.7,0.00016758,0.33218,0.00016645,-8.1452,-0.00050665,-5065.6,0.16941
9873,3.9149,5.5455,0,0.00050809,5077.4,0.00016829,0.40457,0.00016666,-11.868,-0.00050829,-5083.1,0.16337
9874,3.9149,5.6364,0.05,3.3832e-07,3.3809,2.5979e-07,1.9519,-1.7928e-11,-0.00016536,-2.5979e-07,-1.952,0.16265
9875,4.1913,5.6364,0,0.00050371,5033.7,0.00016696,0.19541,0.00016501,-14.402,-0.00050395,-5040.8,0.18309
9876,4.0992,5.5455,0,0.00050541,5050.6,0.00016778,0.22511,0.00016512,-19.79,-0.00050574,-5060.4,0.17688
9877,4.0992,5.6364,0.05,4.6543e-07,4.6511,3.5739e-07,2.6852,-3.384e-12,-0.0001314,-3.574e-07,-2.6854,0.17616
9878,4.3756,5.6364,0,0.0005002,4998.6,0.00016603,0.15586,0.00016346,-19.153,-0.00050052,-5008.1,0.19712
9879,4.2835,5.5455,0,0.00050199,5016.4,0.00016695,0.1635,0.00016349,-25.825,-0.00050242,-5029.2,0.19073
9880,4.2835,5.6364,0.05,5.882e-07,5.8779,4.5165e-07,3.3935,4.6177e-12,-6.5476e-05,-4.5167e-07,-3.3937,0.19002
9881,4.5599,5.6364,0,0.00049615,4958.1,0.00016486,0.13844,0.00016184,-22.563,-0.00049653,-4969.3,0.21148
9882,4.4677,5.5455,0,0.00049801,4976.7,0.00016585,0.13316,0.00016181,-30.182,-0.00049852,-4991.6,0.20493
9883,4.4677,5.6364,0.05,6.8957e-07,6.8909,5.295e-07,3.9784,2.8218e-12,-4.6537e-05,-5.2951e-07,-3.9786,0.20422
9884,4.7441,5.6364,0,0.00049169,4913.5,0.0001635,0.12828,0.00016017,-24.84,-0.00049211,-4925.8,0.22619
9885,4.652,5.5455,0,0.00049361,4932.7,0.00016454,0.11484,0.00016012,-33.115,-0.00049416,-4949.1,0.21946
9886,4.652,5.6364,0.05,7.6927e-07,7.6873,5.9069e-07,4.4382,4.0981e-12,-3.7035e-05,-5.9071e-07,-4.4384,0.21875
9887,4.9284,5.6364,0,0.00048692,4865.8,0.00016199,0.1208,0.00015849,-26.179,-0.00048736,-4878.8,0.24122
9888,4.8363,5.5455,0,0.00048889,4885.5,0.00016307,0.1021,0.00015841,-34.867,-0.00048947,-4902.8,0.23433
9889,4.8363,5.6364,0.05,8.3023e-07,8.2966,6.3751e-07,4.7898,4.8583e-12,-4.4941e-05,-6.3752e-07,-4.7902,0.23362
9890,5.1127,5.6364,0,0.00048191,4815.8,0.00016036,0.11432,0.00015679,-26.754,-0.00048236,-4829.1,0.25659
9891,5.0205,5.5455,0,0.00048393,4835.9,0.00016147,0.092284,0.00015671,-35.656,-0.00048452,-4853.6,0.24953
9892,5.0205,5.6364,0.05,8.7581e-07,8.7521,6.7251e-07,5.0529,8.6806e-12,-2.1509e-05,-6.7252e-07,-5.0531,0.24883
9893,5.2969,5.6364,0,0.00047674,4764.1,0.00015865,0.10817,0.00015508,-26.719,-0.00047719,-4777.4,0.27229
9894,5.2048,5.5455,0,0.00047879,4784.6,0.00015977,0.084159,0.00015501,-35.672,-0.00047938,-4802.3,0.26506
9895,5.2048,5.6364,0.05,9.0904e-07,9.0841,6.9802e-07,5.2446,9.0804e-12,-2.3724e-05,-6.9804e-07,-5.2449,0.26436
9896,5.4812,5.6364,0,0.00047144,4711.2,0.00015688,0.10211,0.00015338,-26.203,-0.00047188,-4724.1,0.28831
9897,5.3891,5.5455,0,0.00047352,4732,0.000158,0.0771,0.00015332,-35.08,-0.00047411,-4749.4,0.28091
9898,5.3891,5.6364,0.05,9.325e-07,9.3186,7.1604e-07,5.3799,4.4847e-12,-2.1198e-05,-7.1606e-07,-5.3802,0.28022
9899,5.6655,5.6364,0,0.00046605,4657.3,0.00015506,0.096083,0.00015168,-25.316,-0.00046648,-4669.9,0.30465
9900,5.5733,5.5455,0,0.00046817,4678.5,0.00015618,0.07078,0.00015165,-34.018,-0.00046874,-4695.3,0.29709
9901,5.5733,5.6364,0.05,9.4832e-07,9.4766,7.2818e-07,5.4712,4.7212e-12,-1.4988e-05,-7.282e-07,-5.4715,0.2964
9902,5.8497,5.6364,0,0.0004606,4602.9,0.0001532,0.090093,0.00014998,-24.152,-0.00046101,-4614.9,0.3213
9903,5.7576,5.5455,0,0.00046275,4624.3,0.00015432,0.065015,0.00014998,-32.603,-0.00046329,-4640.5,0.31359
9904,5.7576,5.6364,0.05,9.5821e-07,9.5755,7.3578e-07,5.5282,8.3632e-12,-1.9937e-05,-7.3579e-07,-5.5286,0.3129
9905,6.034,5.6364,0,0.00045512,4548,0.00015132,0.084181,0.00014828,-22.785,-0.0004555,-4559.3,0.33827
9906,5.9419,5.5455,0,0.00045729,4569.7,0.00015244,0.059699,0.00014832,-30.931,-0.00045781,-4585.1,0.3304
9907,5.9419,5.6364,0.05,9.6356e-07,9.6289,7.3988e-07,5.5591,5.2361e-12,-1.7749e-05,-7.399e-07,-5.5594,0.32971
9908,6.2183,5.6364,0,0.0004496,4492.9,0.00014943,0.078395,0.00014659,-21.279,-0.00044996,-4503.5,0.35555
9909,6.1261,5.5455,0,0.0004518,4514.9,0.00015054,0.05477,0.00014666,-29.081,-0.00045229,-4529.3,0.34752
9910,6.1261,5.6364,0.05,9.6545e-07,9.6478,7.4134e-07,5.5701,7.3183e-12,-1.1735e-05,-7.4135e-07,-5.5703,0.34684
9911,6.4025,5.6364,0,0.00044408,4437.7,0.00014753,0.072776,0.0001449,-19.683,-0.00044441,-4447.5,0.37314
9912,6.3104,5.5455,0,0.0004463,4459.9,0.00014862,0.050185,0.00014501,-27.117,-0.00044676,-4473.4,0.36495
9913,6.3104,5.6364,0.05,9.6476e-07,9.6409,7.4081e-07,5.566,7.3895e-12,-1.3751e-05,-7.4082e-07,-5.5664,0.36427
9914,6.5868,5.6364,0,0.00043855,4382.5,0.00014562,0.067361,0.00014321,-18.038,-0.00043885,-4391.4,0.39102
9915,6.4947,5.5455,0,0.0004408,4404.9,0.00014671,0.045915,0.00014336,-25.09,-0.00044122,-4417.4,0.38268
9916,6.4947,5.6364,0.05,9.6215e-07,9.6149,7.388e-07,5.551,9.3487e-12,-8.4247e-06,-7.3882e-07,-5.5513,0.38201
9917,6.7711,5.6364,0,0.00043303,4327.3,0.00014371,0.062177,0.00014153,-16.377,-0.0004333,-4335.4,0.40921
9918,6.6789,5.5455,0,0.00043529,4349.9,0.00014479,0.041939,0.00014172,-23.041,-0.00043568,-4361.4,0.40071
9919,6.6789,5.6364,0.05,9.5816e-07,9.575,7.3574e-07,5.528,5.9565e-12,-9.4445e-06,-7.3575e-07,-5.5283,0.40004
9920,6.9553,5.6364,0,0.00042751,4272.1,0.00014181,0.057244,0.00013984,-14.723,-0.00042776,-4279.5,0.42768
9921,6.8632,5.5455,0,0.0004298,4295,0.00014287,0.038237,0.00014007,-21.001,-0.00043015,-4305.4,0.41903
9922,6.8632,5.6364,0.05,9.5319e-07,9.5253,7.3192e-07,5.4993,7.9214e-12,-6.3045e-06,-7.3194e-07,-5.4996,0.41837
9923,7.1396,5.6364,0,0.00042201,4217.1,0.00013991,0.052575,0.00013816,-13.096,-0.00042223,-4223.6,0.44645
9924,7.0475,5.5455,0,0.00042431,4240.2,0.00014096,0.034792,0.00013843,-18.995,-0.00042463,-4249.6,0.43765
9925,7.0475,5.6364,0.05,9.4755e-07,9.4689,7.276e-07,5.4668,6.3648e-12,-5.506e-06,-7.276e-07,-5.467,0.437
9926,7.3239,5.6364,0,0.00041652,4162.3,0.00013802,0.048178,0.00013649,-11.511,-0.00041671,-4168,0.4655
9927,7.2317,5.5455,0,0.00041884,4185.5,0.00013906,0.031591,0.00013679,-17.04,-0.00041912,-4194,0.45656
9928,7.2317,5.6364,0.05,9.4148e-07,9.4083,7.2293e-07,5.4318,9.9775e-12,-4.8836e-06,-7.2295e-07,-5.432,0.45591
9929,7.5081,5.6364,0,0.00041104,4107.6,0.00013614,0.044057,0.00013481,-9.9766,-0.00041121,-4112.5,0.48484
9930,7.416,5.5455,0,0.00041338,4130.9,0.00013717,0.028617,0.00013515,-15.15,-0.00041363,-4138.5,0.47575
9931,7.416,5.6364,0.05,9.3516e-07,9.3451,7.1807e-07,5.3953,8.3035e-12,-3.6205e-06,-7.181e-07,-5.3955,0.47511
9932,7.6924,5.6364,0,0.00040559,4053.1,0.00013427,0.040216,0.00013313,-8.5011,-0.00040573,-4057.3,0.50446
9933,7.6003,5.5455,0,0.00040794,4076.6,0.00013528,0.025858,0.0001335,-13.333,-0.00040816,-4083.2,0.49522
9934,7.6003,5.6364,0.05,9.2872e-07,9.2808,7.1313e-07,5.3581,8.4043e-12,-2.8207e-06,-7.1315e-07,-5.3584,0.49458
9935,7.8767,5.6364,0,0.00040015,3998.8,0.0001324,0.036658,0.00013146,-7.089,-0.00040027,-4002.3,0.52435
9936,7.7845,5.5455,0,0.00040251,4022.4,0.00013341,0.0233,0.00013186,-11.596,-0.00040271,-4028.1,0.51497
9937,7.7845,5.6364,0.05,9.2225e-07,9.2162,7.0817e-07,5.3208,8.5725e-12,-2.0948e-06,-7.0818e-07,-5.3211,0.51434
9938,8.0609,5.6364,0,0.00039474,3944.6,0.00013055,0.033393,0.00012978,-5.7429,-0.00039483,-3947.5,0.54451
9939,7.9688,5.5455,0,0.00039711,3968.4,0.00013154,0.020929,0.00013021,-9.9415,-0.00039728,-3973.3,0.53499
9940,7.9688,5.6364,0.05,9.1584e-07,9.152,7.0324e-07,5.2838,8.6396e-12,-1.495e-06,-7.0326e-07,-5.2841,0.53436
9941,8.2452,5.6364,0,0.00038934,3890.7,0.00012871,0.030452,0.00012811,-4.464,-0.00038942,-3892.9,0.56494
9942,8.1531,5.5455,0,0.00039172,3914.5,0.00012968,0.018734,0.00012857,-8.3718,-0.00039186,-3918.7,0.55528
9943,8.1531,5.6364,0.05,9.0952e-07,9.0889,6.9839e-07,5.2473,8.6712e-12,-1.1336e-06,-6.984e-07,-5.2476,0.55466
9944,8.4295,5.6364,0,0.00038397,3837,0.00012687,0.02791,0.00012644,-3.2522,-0.00038402,-3838.6,0.58563
9945,8.3373,5.5455,0,0.00038636,3860.9,0.00012784,0.016702,0.00012692,-6.8863,-0.00038647,-3864.3,0.57583
9946,8.3373,5.6364,0.05,9.0332e-07,9.027,6.9363e-07,5.2116,1.0536e-11,-8.3596e-07,-6.9365e-07,-5.2119,0.57522
9947,8.6137,5.6364,0,0.00037861,3783.5,0.00012505,0.02602,0.00012476,-2.1069,-0.00037865,-3784.5,0.60659
9948,8.5216,5.5455,0,0.00038101,3807.5,0.00012601,0.014822,0.00012527,-5.4839,-0.0003811,-3810.2,0.59665
9949,8.5216,5.6364,0.05,8.9728e-07,8.9666,6.8899e-07,5.1768,6.9887e-12,2.1324e-08,-6.8901e-07,-5.177,0.59605
9950,8.798,5.6364,0,0.00037328,3730.2,0.00012323,0.026057,0.00012309,-1.0275,-0.00037329,-3730.7,0.6278
9951,8.7059,5.5455,0,0.00037568,3754.2,0.00012418,0.013085,0.00012363,-4.1623,-0.00037575,-3756.3,0.61773
9952,8.7059,5.6364,0.05,8.914e-07,8.9079,6.8448e-07,5.1428,7.0119e-12,4.1147e-07,-6.845e-07,-5.1431,0.61713
9953,8.9823,5.6364,0,0.00036796,3677.1,0.00012144,0.082314,0.00012142,-0.066121,-0.00036796,-3677.1,0.64926
9954,8.8901,5.5455,0,0.00037037,3701.2,0.00012237,0.011478,0.00012198,-2.9186,-0.00037042,-3702.6,0.63906
9955,8.8901,5.6364,0.05,8.8569e-07,8.8508,6.8009e-07,5.1099,7.0079e-12,5.7258e-07,-6.8011e-07,-5.1101,0.63847
9956,9.1665,5.6364,0,0.00036267,3624.2,0.00011976,0.96403,0.00011963,0.010596,-0.00036266,-3623.7,0.67098
9957,9.0744,5.5455,0,0.00036508,3648.3,0.00012057,0.0099951,0.00012033,-1.7497,-0.00036511,-3649.2,0.66064
9958,9.0744,5.6364,0.05,8.8014e-07,8.7953,6.7583e-07,5.0779,8.8712e-12,1.2877e-06,-6.7585e-07,-5.0781,0.66006
9959,9.3508,5.6364,0,0.0003574,3571.5,0.0001181,1.8653,0.00011785,0.01132,-0.00035737,-3570.6,0.69293
9960,9.2587,5.5455,0,0.00035982,3595.7,0.00011877,0.0086344,0.00011868,-0.65204,-0.00035983,-3596,0.68247
9961,9.2587,5.6364,0.05,8.7476e-07,8.7415,6.717e-07,5.0468,8.0352e-12,1.2e-06,-6.7171e-07,-5.0471,0.6819
9962,9.5351,5.6364,0,0.00035215,3519.1,0.00011644,2.7149,0.00011608,0.010333,-0.0003521,-3517.7,0.71513
9963,9.4429,5.5455,0,0.00035457,3543.2,0.00011704,0.37825,0.00011699,0.0073093,-0.00035456,-3543,0.70454
9964,9.4429,5.6364,0.05,8.6953e-07,8.6893,6.6768e-07,5.0167,8.0239e-12,1.7506e-06,-6.677e-07,-5.0169,0.70398
9965,9.7193,5.6364,0,0.00034692,3466.8,0.00011478,3.5144,0.00011431,0.0090285,-0.00034686,-3465,0.73757
9966,9.6272,5.5455,0,0.00034934,3491,0.00011539,1.3448,0.00011522,0.0061608,-0.00034932,-3490.3,0.72686
9967,9.6272,5.6364,0.05,8.6446e-07,8.6386,6.6379e-07,4.9874,7.0999e-12,2.5055e-06,-6.6381e-07,-4.9876,0.7263
9968,9.9036,5.6364,0,0.00034171,3414.8,0.00011312,4.2666,0.00011255,0.0076707,-0.00034164,-3412.6,0.76025
9969,9.8115,5.5455,0,0.00034413,3438.9,0.00011375,2.2515,0.00011345,0.005087,-0.00034409,-3437.8,0.74941
9970,9.8115,5.6364,0.05,8.5953e-07,8.5894,6.6001e-07,4.959,7.1585e-12,2.9549e-06,-6.6002e-07,-4.9592,0.74885
9971,10.088,5.6364,0,0.00033652,3362.9,0.00011147,4.9744,0.00011081,0.0063395,-0.00033644,-3360.4,0.78315
9972,9.9957,5.5455,0,0.00033894,3387.1,0.00011211,3.1022,0.0001117,0.0040855,-0.00033889,-3385.5,0.77219
9973,9.9957,5.6364,0.05,8.5474e-07,8.5415,6.5633e-07,4.9313,7.1966e-12,2.4462e-06,-6.5634e-07,-4.9316,0.77164
9974,10.272,5.6364,0,0.00033135,3311.3,0.00010982,5.6407,0.00010907,0.0050736,-0.00033126,-3308.4,0.80629
9975,10.18,5.5455,0,0.00033377,3335.4,0.00011047,3.9004,0.00010995,0.0031602,-0.0003337,-3333.4,0.7952
9976,10.18,5.6364,0.05,8.5007e-07,8.4949,6.5274e-07,4.9044,6.2665e-12,3.1757e-06,-6.5276e-07,-4.9046,0.79466
9977,10.456,5.6364,0,0.00032621,3259.8,0.00010817,6.2684,0.00010734,0.0038594,-0.0003261,-3256.7,0.82964
9978,10.364,5.5455,0,0.00032862,3283.9,0.00010883,4.65,0.00010821,0.0023137,-0.00032854,-3281.6,0.81844
9979,10.364,5.6364,0.05,8.4553e-07,8.4495,6.4925e-07,4.8782,7.2025e-12,2.8202e-06,-6.4927e-07,-4.8784,0.81791
9980,10.641,5.6364,0,0.00032108,3208.6,0.00010653,6.8601,0.00010562,0.0027145,-0.00032096,-3205.1,0.85322
9981,10.549,5.5455,0,0.00032349,3232.7,0.0001072,5.354,0.00010649,0.0014831,-0.0003234,-3230,0.8419
9982,10.549,5.6364,0.05,8.4109e-07,8.4051,6.4585e-07,4.8526,6.3248e-12,3.4317e-06,-6.4586e-07,-4.8528,0.84138
9983,10.825,5.6364,0,0.00031597,3157.5,0.00010489,7.4187,0.0001039,0.0016819,-0.00031585,-3153.8,0.87702
9984,10.733,5.5455,0,0.00031838,3181.6,0.00010557,6.0161,0.00010477,0.00074947,-0.00031828,-3178.6,0.86558
9985,10.733,5.6364,0.05,8.3675e-07,8.3617,6.4251e-07,4.8275,6.3327e-12,3.4701e-06,-6.4253e-07,-4.8277,0.86506
9986,11.009,5.6364,0,0.00031089,3106.7,0.00010326,7.9465,0.0001022,0.00072239,-0.00031075,-3102.7,0.90102
9987,10.917,5.5455,0,0.00031329,3130.7,0.00010394,6.6393,0.00010306,0.0001107,-0.00031318,-3127.4,0.88948
9988,10.917,5.6364,0.05,8.3251e-07,8.3193,6.3925e-07,4.803,7.2445e-12,3.5801e-06,-6.3927e-07,-4.8033,0.88897
9989,11.193,5.6364,0,0.00030582,3056.1,0.00010163,8.4461,0.0001005,-0.00019291,-0.00030568,-3051.9,0.92524
9990,11.101,5.5455,0,0.00030822,3080.1,0.00010232,7.2266,0.00010135,-0.00051371,-0.0003081,-3076.4,0.91358
9991,11.101,5.6364,0.05,8.2836e-07,8.2779,6.3607e-07,4.7792,6.3393e-12,3.7644e-06,-6.3609e-07,-4.7794,0.91308
9992,11.378,5.6364,0,0.00030077,3005.7,0.0001,8.9196,9.8813e-05,-0.0010669,-0.00030062,-3001.2,0.94967
9993,11.286,5.5455,0,0.00030317,3029.6,0.0001007,7.7808,9.966e-05,-0.0011022,-0.00030303,-3025.7,0.9379
9994,11.286,5.6364,0.05,8.243e-07,8.2373,6.3295e-07,4.7557,7.2602e-12,3.5344e-06,-6.3297e-07,-4.7559,0.9374
9995,11.562,5.6364,0,0.00029575,2955.5,9.838e-05,9.3692,9.7133e-05,-0.0018806,-0.00029559,-2950.8,0.9743
9996,11.47,5.5455,0,0.00029814,2979.3,9.9079e-05,8.3046,9.7973e-05,-0.0016806,-0.00029799,-2975.2,0.96242
9997,11.47,5.6364,0.05,8.2031e-07,8.1974,6.2989e-07,4.7327,7.2667e-12,4.2449e-06,-6.299e-07,-4.7329,0.96193
9998,11.746,5.6364,0,0.00029074,2905.4,9.6764e-05,9.7972,9.546e-05,-0.0026034,-0.00029058,-2900.5,0.99913
9999,11.654,5.5455,0,0.00029313,2929.2,9.7467e-05,8.8007,9.6295e-05,-0.0021845,-0.00029298,-2924.8,0.98714
10000,11.654,5.6364,0.05,8.1638e-07,8.1581,6.2687e-07,4.71,4.5433e-12,4.5306e-06,-6.2688e-07,-4.7102,0.98666
10001,11.931,5.6364,0,0.00028576,2855.6,9.5153e-05,10.205,9.3794e-05,-0.0032738,-0.00028558,-2850.5,1.0242
10002,11.838,5.5455,0,0.00028813,2879.4,9.5859e-05,9.2714,9.4625e-05,-0.0026145,-0.00028798,-2874.7,1.0121
10003,11.838,5.6364,0.05,8.1252e-07,8.1196,6.2391e-07,4.6878,5.4586e-12,3.9449e-06,-6.2392e-07,-4.6879,1.0116
10004,12.115,5.6364,0,0.00028079,2806,9.3547e-05,10.595,9.2137e-05,-0.0039192,-0.00028061,-2800.7,1.0494
10005,12.023,5.5455,0,0.00028316,2829.7,9.4256e-05,9.7188,9.2962e-05,-0.0030465,-0.000283,-2824.8,1.0372
10006,12.023,5.6364,0.05,8.0873e-07,8.0817,6.21e-07,4.6659,5.4632e-12,4.4932e-06,-6.2101e-07,-4.6661,1.0367
10007,12.299,5.6364,0,0.00027585,2756.6,9.1947e-05,10.969,9.0486e-05,-0.0045425,-0.00027566,-2751.1,1.0748
10008,12.207,5.5455,0,0.00027821,2780.2,9.2657e-05,10.145,9.1307e-05,-0.0034572,-0.00027804,-2775.1,1.0625
10009,12.207,5.6364,0.05,8.05e-07,8.0444,6.1813e-07,4.6444,4.558e-12,5.0658e-06,-6.1814e-07,-4.6445,1.062
10010,12.483,5.6364,0,0.00027093,2707.4,9.0352e-05,11.328,8.8843e-05,-0.0051261,-0.00027073,-2701.7,1.1004
10011,12.391,5.5455,0,0.00027328,2730.9,9.1064e-05,10.553,8.9659e-05,-0.0038718,-0.0002731,-2725.6,1.088
10012,12.391,5.6364,0.05,8.0131e-07,8.0076,6.153e-07,4.6231,6.3777e-12,4.9975e-06,-6.1531e-07,-4.6233,1.0875
10013,12.668,5.6364,0,0.00026602,2658.4,8.8762e-05,11.675,8.7208e-05,-0.00564,-0.00026582,-2652.5,1.1261
10014,12.575,5.5455,0,0.00026837,2681.8,8.9476e-05,10.943,8.8019e-05,-0.0042283,-0.00026818,-2676.4,1.1137
10015,12.575,5.6364,0.05,7.9766e-07,7.9711,6.125e-07,4.602,5.4786e-12,4.7847e-06,-6.1251e-07,-4.6022,1.1132
10016,12.852,5.6364,0,0.00026114,2609.6,8.7179e-05,12.009,8.558e-05,-0.006121,-0.00026093,-2603.6,1.1521
10017,12.76,5.5455,0,0.00026348,2633,8.7893e-05,11.318,8.6386e-05,-0.0045275,-0.00026328,-2627.3,1.1395
10018,12.76,5.6364,0.05,7.9407e-07,7.9352,6.0974e-07,4.5813,7.2922e-12,4.9365e-06,-6.0975e-07,-4.5815,1.1391
10019,13.036,5.6364,0,0.00025628,2561,8.5601e-05,12.334,8.3959e-05,-0.0065935,-0.00025606,-2554.8,1.1782
10020,12.944,5.5455,0,0.00025861,2584.3,8.6316e-05,11.68,8.4761e-05,-0.0048397,-0.00025841,-2578.4,1.1656
10021,12.944,5.6364,0.05,7.9053e-07,7.8998,6.0702e-07,4.5609,5.4809e-12,5.1005e-06,-6.0703e-07,-4.561,1.1651
10022,13.22,5.6364,0,0.00025143,2512.6,8.4029e-05,12.649,8.2345e-05,-0.0070579,-0.00025121,-2506.2,1.2045
10023,13.128,5.5455,0,0.00025376,2535.8,8.4744e-05,12.029,8.3142e-05,-0.0051407,-0.00025355,-2529.8,1.1918
10024,13.128,5.6364,0.05,7.8702e-07,7.8648,6.0433e-07,4.5407,5.4776e-12,5.8872e-06,-6.0434e-07,-4.5408,1.1913
10025,13.405,5.6364,0,0.00024661,2464.4,8.2463e-05,12.957,8.0738e-05,-0.0074981,-0.00024639,-2457.9,1.231
10026,13.313,5.5455,0,0.00024892,2487.5,8.3178e-05,12.369,8.1531e-05,-0.0054533,-0.00024871,-2481.3,1.2181
10027,13.313,5.6364,0.05,7.8355e-07,7.8301,6.0167e-07,4.5207,4.5768e-12,5.7032e-06,-6.0168e-07,-4.5208,1.2177
10028,13.589,5.6364,0,0.00024181,2416.4,8.0903e-05,13.259,7.9138e-05,-0.0078876,-0.00024158,-2409.7,1.2577
10029,13.497,5.5455,0,0.00024411,2439.4,8.1618e-05,12.699,7.9927e-05,-0.0057207,-0.00024389,-2433.1,1.2447
10030,13.497,5.6364,0.05,7.8011e-07,7.7957,5.9902e-07,4.5008,6.3909e-12,5.8681e-06,-5.9903e-07,-4.5009,1.2443
10031,13.773,5.6364,0,0.00023702,2368.6,7.935e-05,13.555,7.7545e-05,-0.0082586,-0.00023679,-2361.8,1.2845
10032,13.681,5.5455,0,0.00023932,2391.6,8.0063e-05,13.021,7.833e-05,-0.0059461,-0.0002391,-2385,1.2714
10033,13.681,5.6364,0.05,7.7671e-07,7.7617,5.9641e-07,4.4812,4.5814e-12,5.8682e-06,-5.9642e-07,-4.4813,1.271
10034,13.957,5.6364,0,0.00023226,2321,7.7803e-05,13.847,7.5959e-05,-0.0086327,-0.00023202,-2314.1,1.3114
10035,13.865,5.5455,0,0.00023455,2343.9,7.8515e-05,13.338,7.6739e-05,-0.0061886,-0.00023432,-2337.2,1.2983
10036,13.865,5.6364,0.05,7.7335e-07,7.7281,5.9383e-07,4.4618,3.6664e-12,6.5622e-06,-5.9384e-07,-4.4619,1.2979
10037,14.142,5.6364,0,0.00022752,2273.6,7.6262e-05,14.136,7.4379e-05,-0.0090105,-0.00022728,-2266.5,1.3386
10038,14.05,5.5455,0,0.0002298,2296.4,7.6973e-05,13.649,7.5156e-05,-0.0064298,-0.00022956,-2289.6,1.3253
10039,14.05,5.6364,0.05,7.7001e-07,7.6948,5.9127e-07,4.4426,4.5694e-12,6.6833e-06,-5.9128e-07,-4.4427,1.3249
10040,14.326,5.6364,0,0.0002228,2226.4,7.4728e-05,14.423,7.2807e-05,-0.0093772,-0.00022255,-2219.2,1.3658
10041,14.234,5.5455,0,0.00022507,2249.1,7.5438e-05,13.957,7.3579e-05,-0.0066876,-0.00022483,-2242.1,1.3525
10042,14.234,5.6364,0.05,7.6671e-07,7.6618,5.8873e-07,4.4235,4.5785e-12,6.1184e-06,-5.8874e-07,-4.4236,1.3521
10043,14.51,5.6364,0,0.0002181,2179.5,7.32e-05,14.709,7.1241e-05,-0.0097081,-0.00021784,-2172.1,1.3933
10044,14.418,5.5455,0,0.00022036,2202.1,7.3909e-05,14.262,7.201e-05,-0.0069126,-0.00022011,-2194.9,1.3799
10045,14.418,5.6364,0.05,7.6343e-07,7.629,5.8621e-07,4.4045,6.3988e-12,6.4661e-06,-5.8622e-07,-4.4047,1.3795
10046,14.695,5.6364,0,0.00021342,2132.7,7.1679e-05,14.995,6.9682e-05,-0.010033,-0.00021316,-2125.1,1.4208
10047,14.602,5.5455,0,0.00021567,2155.2,7.2386e-05,14.565,7.0447e-05,-0.0071043,-0.00021542,-2147.9,1.4074
10048,14.602,5.6364,0.05,7.6018e-07,7.5966,5.8372e-07,4.3858,3.6504e-12,7.0637e-06,-5.8373e-07,-4.3859,1.407
10049,14.879,5.6364,0,0.00020875,2086.1,7.0165e-05,15.282,6.813e-05,-0.01037,-0.00020849,-2078.4,1.4485
10050,14.787,5.5455,0,0.000211,2108.5,7.087e-05,14.869,6.889e-05,-0.0073188,-0.00021074,-2101,1.435
10051,14.787,5.6364,0.05,7.5697e-07,7.5645,5.8126e-07,4.3673,3.6756e-12,7.0682e-06,-5.8126e-07,-4.3674,1.4346
10052,15.063,5.6364,0,0.00020411,2039.7,6.8657e-05,15.57,6.6584e-05,-0.010721,-0.00020384,-2031.9,1.4764
10053,14.971,5.5455,0,0.00020635,2062,6.9361e-05,15.173,6.734e-05,-0.0075383,-0.00020608,-2054.4,1.4628
10054,14.971,5.6364,0.05,7.5379e-07,7.5327,5.7881e-07,4.3489,3.6424e-12,6.0358e-06,-5.7882e-07,-4.349,1.4624
10055,15.247,5.6364,0,0.00019949,1993.6,6.7157e-05,15.861,6.5044e-05,-0.011072,-0.00019922,-1985.6,1.5044
10056,15.155,5.5455,0,0.00020172,2015.8,6.7858e-05,15.479,6.5797e-05,-0.00778,-0.00020145,-2008,1.4907
10057,15.155,5.6364,0.05,7.5063e-07,7.5011,5.7639e-07,4.3307,2.7571e-12,7.4394e-06,-5.7639e-07,-4.3308,1.4904
10058,15.432,5.6364,0,0.00019489,1947.6,6.5663e-05,16.156,6.3512e-05,-0.011401,-0.00019461,-1939.5,1.5325
10059,15.339,5.5455,0,0.00019711,1969.7,6.6363e-05,15.788,6.4261e-05,-0.007998,-0.00019683,-1961.8,1.5187
10060,15.339,5.6364,0.05,7.4749e-07,7.4697,5.7398e-07,4.3126,3.6506e-12,7.2007e-06,-5.7398e-07,-4.3127,1.5184
10061,15.616,5.6364,0,0.00019031,1901.8,6.4177e-05,16.455,6.1985e-05,-0.011736,-0.00019003,-1893.5,1.5608
10062,15.524,5.5455,0,0.00019252,1923.8,6.4874e-05,16.101,6.273e-05,-0.0081935,-0.00019224,-1915.7,1.5469
10063,15.524,5.6364,0.05,7.4439e-07,7.4388,5.716e-07,4.2947,3.6795e-12,7.2754e-06,-5.716e-07,-4.2948,1.5466
10064,15.8,5.6364,0,0.00018575,1856.2,6.2697e-05,16.759,6.0465e-05,-0.012093,-0.00018546,-1847.8,1.5892
10065,15.708,5.5455,0,0.00018795,1878.2,6.3393e-05,16.419,6.1207e-05,-0.0084163,-0.00018766,-1869.9,1.5752
10066,15.708,5.6364,0.05,7.4132e-07,7.4081,5.6924e-07,4.277,3.6825e-12,6.3876e-06,-5.6925e-07,-4.2771,1.5749
10067,15.984,5.6364,0,0.00018121,1810.9,6.1225e-05,17.069,5.8952e-05,-0.012474,-0.00018092,-1802.3,1.6177
10068,15.892,5.5455,0,0.0001834,1832.7,6.1919e-05,16.743,5.9689e-05,-0.0086513,-0.00018311,-1824.3,1.6037
10069,15.892,5.6364,0.05,7.3829e-07,7.3778,5.6691e-07,4.2595,2.7605e-12,6.2024e-06,-5.6692e-07,-4.2596,1.6034
10070,16.169,5.6364,0,0.00017669,1765.7,5.976e-05,17.386,5.7444e-05,-0.012865,-0.00017639,-1757,1.6463
10071,16.077,5.5455,0,0.00017887,1787.4,6.0452e-05,17.074,5.8178e-05,-0.0089112,-0.00017857,-1778.9,1.6322
10072,16.077,5.6364,0.05,7.3528e-07,7.3478,5.646e-07,4.2422,3.2176e-12,6.5916e-06,-5.6461e-07,-4.2423,1.6319
10073,16.353,5.6364,0,0.00017219,1720.7,5.8302e-05,17.711,5.5943e-05,-0.01325,-0.00017189,-1711.8,1.675
10074,16.261,5.5455,0,0.00017436,1742.4,5.8992e-05,17.414,5.6673e-05,-0.0091589,-0.00017406,-1733.6,1.6609
10075,16.261,5.6364,0.05,7.323e-07,7.318,5.6231e-07,4.225,3.2324e-12,7.6575e-06,-5.6232e-07,-4.2251,1.6606
10076,16.537,5.6364,0,0.00016771,1676,5.6852e-05,18.045,5.4448e-05,-0.013653,-0.0001674,-1666.9,1.7039
10077,16.445,5.5455,0,0.00016987,1697.5,5.754e-05,17.762,5.5174e-05,-0.0093955,-0.00016956,-1688.6,1.6897
10078,16.445,5.6364,0.05,7.2936e-07,7.2886,5.6006e-07,4.208,3.2363e-12,7.4621e-06,-5.6006e-07,-4.2081,1.6894
10079,16.721,5.6364,0,0.00016325,1631.4,5.5409e-05,18.388,5.296e-05,-0.01409,-0.00016293,-1622.2,1.7329
10080,16.629,5.5455,0,0.0001654,1652.9,5.6095e-05,18.121,5.3682e-05,-0.0096634,-0.00016509,-1643.7,1.7186
10081,16.629,5.6364,0.05,7.2647e-07,7.2596,5.5783e-07,4.1913,2.3149e-12,8.6295e-06,-5.5784e-07,-4.1914,1.7184
10082,16.906,5.6364,0,0.00015882,1587.1,5.3973e-05,18.742,5.1477e-05,-0.014562,-0.00015849,-1577.6,1.762
10083,16.814,5.5455,0,0.00016095,1608.4,5.4658e-05,18.491,5.2195e-05,-0.00995,-0.00016063,-1599.1,1.7477
10084,16.814,5.6364,0.05,7.2361e-07,7.2311,5.5564e-07,4.1748,3.6752e-12,8.1331e-06,-5.5564e-07,-4.1749,1.7474
10085,17.09,5.6364,0,0.0001544,1542.9,5.2545e-05,19.107,5e-05,-0.01506,-0.00015406,-1533.3,1.7912
10086,16.998,5.5455,0,0.00015653,1564.2,5.3228e-05,18.873,5.0715e-05,-0.01027,-0.0001562,-1554.7,1.7768
10087,16.998,5.6364,0.05,7.2078e-07,7.2029,5.5347e-07,4.1585,3.2413e-12,7.2903e-06,-5.5347e-07,-4.1586,1.7765
10088,17.274,5.6364,0,0.00015,1498.9,5.1125e-05,19.484,4.8529e-05,-0.015568,-0.00014966,-1489.1,1.8205
10089,17.182,5.5455,0,0.00015212,1520.1,5.1806e-05,19.269,4.924e-05,-0.010588,-0.00015178,-1510.4,1.806
10090,17.182,5.6364,0.05,7.18e-07,7.175,5.5133e-07,4.1425,2.7691e-12,8.1675e-06,-5.5134e-07,-4.1425,1.8058
10091,17.459,5.6364,0,0.00014562,1455.2,4.9712e-05,19.874,4.7065e-05,-0.01611,-0.00014527,-1445.1,1.8499
10092,17.366,5.5455,0,0.00014773,1476.3,5.0392e-05,19.68,4.7771e-05,-0.010907,-0.00014738,-1466.3,1.8354
10093,17.366,5.6364,0.05,7.1526e-07,7.1477,5.4923e-07,4.1267,2.7948e-12,8.3224e-06,-5.4924e-07,-4.1268,1.8351
10094,17.643,5.6364,0,0.00014126,1411.6,4.8307e-05,20.278,4.5606e-05,-0.016701,-0.0001409,-1401.4,1.8794
10095,17.551,5.5455,0,0.00014336,1432.6,4.8986e-05,20.106,4.6309e-05,-0.011265,-0.00014301,-1422.5,1.8648
10096,17.551,5.6364,0.05,7.1258e-07,7.1209,5.4717e-07,4.1112,2.7709e-12,8.4666e-06,-5.4718e-07,-4.1113,1.8646
10097,17.827,5.6364,0,0.00013692,1368.2,4.6909e-05,20.696,4.4152e-05,-0.017345,-0.00013655,-1357.8,1.9089
10098,17.735,5.5455,0,0.00013901,1389.2,4.7588e-05,20.55,4.4851e-05,-0.011652,-0.00013865,-1378.8,1.8944
10099,17.735,5.6364,0.05,7.0996e-07,7.0947,5.4516e-07,4.0961,3.2529e-12,8.6394e-06,-5.4516e-07,-4.0961,1.8941
10100,18.011,5.6364,0,0.0001326,1325.1,4.5519e-05,21.131,4.2705e-05,-0.018033,-0.00013223,-1314.4,1.9386
10101,17.919,5.5455,0,0.00013468,1345.9,4.6198e-05,21.011,4.34e-05,-0.012081,-0.00013431,-1335.3,1.924
10102,17.919,5.6364,0.05,7.0738e-07,7.0689,5.4318e-07,4.0812,2.7725e-12,8.613e-06,-5.4318e-07,-4.0813,1.9238
10103,18.196,5.6364,0,0.0001283,1282.1,4.4138e-05,21.581,4.1263e-05,-0.018755,-0.00012792,-1271.2,1.9684
10104,18.103,5.5455,0,0.00013037,1302.8,4.4816e-05,21.492,4.1954e-05,-0.012522,-0.00013,-1292,1.9537
10105,18.103,5.6364,0.05,7.0486e-07,7.0438,5.4124e-07,4.0667,1.8777e-12,7.9173e-06,-5.4125e-07,-4.0667,1.9535
10106,18.38,5.6364,0,0.00012401,1239.3,4.2763e-05,22.05,3.9826e-05,-0.019534,-0.00012363,-1228.1,1.9983
10107,18.288,5.5455,0,0.00012609,1260,4.3442e-05,21.994,4.0513e-05,-0.01298,-0.0001257,-1248.9,1.9835
10108,18.288,5.6364,0.05,7.0241e-07,7.0193,5.3936e-07,4.0526,1.9001e-12,7.5431e-06,-5.3937e-07,-4.0526,1.9833
10109,18.564,5.6364,0,0.00011975,1196.7,4.1397e-05,22.536,3.8395e-05,-0.020383,-0.00011935,-1185.3,2.0282
10110,18.472,5.5455,0,0.00012182,1217.3,4.2076e-05,22.517,3.9078e-05,-0.013488,-0.00012142,-1205.9,2.0134
10111,18.472,5.6364,0.05,7.0004e-07,6.9955,5.3754e-07,4.0388,1.9097e-12,9.3712e-06,-5.3754e-07,-4.0389,2.0132
10112,18.748,5.6364,0,0.00011551,1154.3,4.0039e-05,23.042,3.6969e-05,-0.02131,-0.0001151,-1142.6,2.0582
10113,18.656,5.5455,0,0.00011757,1174.9,4.0719e-05,23.063,3.7648e-05,-0.014038,-0.00011716,-1163.2,2.0434
10114,18.656,5.6364,0.05,6.9773e-07,6.9725,5.3577e-07,4.0256,1.9058e-12,8.8045e-06,-5.3577e-07,-4.0256,2.0432
10115,18.933,5.6364,0,0.00011128,1112.1,3.8688e-05,23.568,3.5549e-05,-0.022309,-0.00011087,-1100.1,2.0883
10116,18.841,5.5455,0,0.00011334,1132.6,3.937e-05,23.634,3.6223e-05,-0.014645,-0.00011292,-1120.6,2.0734
10117,18.841,5.6364,0.05,6.9551e-07,6.9503,5.3406e-07,4.0127,2.4005e-12,8.406e-06,-5.3407e-07,-4.0128,2.0732
10118,19.117,5.6364,0,0.00010708,1070.1,3.7346e-05,24.115,3.4133e-05,-0.023375,-0.00010665,-1057.8,2.1185
10119,19.025,5.5455,0,0.00010912,1090.5,3.803e-05,24.23,3.4803e-05,-0.015281,-0.00010869,-1078.2,2.1036
10120,19.025,5.6364,0.05,6.9337e-07,6.9289,5.3242e-07,4.0004,2.3734e-12,9.5916e-06,-5.3242e-07,-4.0004,2.1034
10121,19.301,5.6364,0,0.00010289,1028.2,3.6011e-05,24.683,3.2722e-05,-0.024531,-0.00010245,-1015.7,2.1487
10122,19.209,5.5455,0,0.00010493,1048.6,3.6698e-05,24.854,3.3388e-05,-0.015954,-0.00010449,-1036,2.1337
10123,19.209,5.6364,0.05,6.9133e-07,6.9085,5.3085e-07,3.9886,1.9989e-12,7.7568e-06,-5.3085e-07,-3.9886,2.1336
10124,19.485,5.6364,0,9.8723e-05,986.55,3.4684e-05,25.274,3.1317e-05,-0.025792,-9.8269e-05,-973.68,2.179
10125,19.393,5.5455,0,0.00010076,1006.9,3.5375e-05,25.506,3.1978e-05,-0.016693,-0.0001003,-993.91,2.164
10126,19.393,5.6364,0.05,6.8939e-07,6.8891,5.2936e-07,3.9774,1.9713e-12,8.0103e-06,-5.2936e-07,-3.9774,2.1638
10127,19.67,5.6364,0,9.4572e-05,945.07,3.3365e-05,25.888,2.9915e-05,-0.027167,-9.4106e-05,-931.87,2.2094
10128,19.578,5.5455,0,9.6604e-05,965.38,3.406e-05,26.188,3.0572e-05,-0.017496,-9.6132e-05,-952.03,2.1943
10129,19.578,5.6364,0.05,6.8755e-07,6.8708,5.2795e-07,3.9668,1.9849e-12,9.4309e-06,-5.2796e-07,-3.9669,2.1942
10130,19.854,5.6364,0,9.0439e-05,903.77,3.2053e-05,26.526,2.8519e-05,-0.02866,-8.9959e-05,-890.23,2.2398
10131,19.762,5.5455,0,9.2468e-05,924.05,3.2753e-05,26.901,2.9171e-05,-0.01837,-9.1982e-05,-910.31,2.2247
10132,19.762,5.6364,0.05,6.8583e-07,6.8536,5.2663e-07,3.9569,1.5901e-12,1.0975e-05,-5.2663e-07,-3.9569,2.2246
10133,20.038,5.6364,0,8.6324e-05,862.64,3.075e-05,27.188,2.7127e-05,-0.030271,-8.583e-05,-848.74,2.2703
10134,19.946,5.5455,0,8.8351e-05,882.9,3.1456e-05,27.646,2.7774e-05,-0.019303,-8.7848e-05,-868.76,2.2552
10135,19.946,5.6364,0.05,6.8423e-07,6.8376,5.2541e-07,3.9477,1.9586e-12,1.1177e-05,-5.2541e-07,-3.9477,2.255
10136,20.223,5.6364,0,8.2226e-05,821.69,2.9454e-05,27.876,2.5739e-05,-0.032023,-8.1717e-05,-807.41,2.3009
10137,20.13,5.5455,0,8.4251e-05,841.93,3.0167e-05,28.426,2.6381e-05,-0.020296,-8.3732e-05,-827.37,2.2857
10138,20.13,5.6364,0.05,6.8277e-07,6.823,5.2428e-07,3.9392,1.4597e-12,1.2118e-05,-5.2428e-07,-3.9393,2.2856
10139,20.407,5.6364,0,7.8145e-05,780.91,2.8165e-05,28.588,2.4356e-05,-0.033937,-7.762e-05,-766.24,2.3315
10140,20.315,5.5455,0,8.0169e-05,801.14,2.8887e-05,29.241,2.4992e-05,-0.021381,-7.9632e-05,-786.13,2.3163
10141,20.315,5.6364,0.05,6.8145e-07,6.8098,5.2327e-07,3.9316,1.592e-12,1.3009e-05,-5.2327e-07,-3.9316,2.3161
10142,20.591,5.6364,0,7.4081e-05,740.29,2.6884e-05,29.327,2.2976e-05,-0.036022,-7.3539e-05,-725.21,2.3621
10143,20.499,5.5455,0,7.6106e-05,760.53,2.7616e-05,30.093,2.3608e-05,-0.022549,-7.5549e-05,-745.05,2.3469
10144,20.499,5.6364,0.05,6.8028e-07,6.7981,5.2237e-07,3.9249,1.2256e-12,1.1693e-05,-5.2237e-07,-3.9249,2.3468
10145,20.775,5.6364,0,7.0033e-05,699.85,2.5611e-05,30.093,2.1601e-05,-0.038295,-6.9473e-05,-684.33,2.3928
10146,20.683,5.5455,0,7.206e-05,720.1,2.6353e-05,30.985,2.2226e-05,-0.023813,-7.1483e-05,-704.12,2.3776
10147,20.683,5.6364,0.05,6.7927e-07,6.788,5.2159e-07,3.9191,7.2713e-13,1.4186e-05,-5.216e-07,-3.9191,2.3774
10148,20.96,5.6364,0,6.6002e-05,659.56,2.4345e-05,30.886,2.0229e-05,-0.040767,-6.5422e-05,-643.59,2.4236
10149,20.867,5.5455,0,6.8031e-05,679.84,2.51e-05,31.917,2.0849e-05,-0.02516,-6.7432e-05,-663.33,2.4083
10150,20.867,5.6364,0.05,6.7843e-07,6.7796,5.2095e-07,3.9142,1.0412e-12,1.2836e-05,-5.2095e-07,-3.9142,2.4082
10151,21.144,5.6364,0,6.1986e-05,619.44,2.3087e-05,31.706,1.8861e-05,-0.043461,-6.1387e-05,-602.99,2.4543
10152,21.052,5.5455,0,6.4021e-05,639.76,2.3856e-05,32.892,1.9474e-05,-0.026597,-6.3398e-05,-622.7,2.4391
10153,21.052,5.6364,0.05,6.7777e-07,6.773,5.2044e-07,3.9104,9.3803e-13,1.3217e-05,-5.2044e-07,-3.9104,2.4389
10154,21.328,5.6364,0,5.7988e-05,579.48,2.1836e-05,32.555,1.7497e-05,-0.046404,-5.7366e-05,-562.53,2.4852
10155,21.236,5.5455,0,6.0028e-05,599.86,2.262e-05,33.913,1.8103e-05,-0.028133,-5.9379e-05,-582.2,2.4699
10156,21.236,5.6364,0.05,6.7731e-07,6.7684,5.2009e-07,3.9077,1.3025e-12,1.4746e-05,-5.2009e-07,-3.9077,2.4697
10157,21.512,5.6364,0,5.4005e-05,539.68,2.0592e-05,33.432,1.6136e-05,-0.049619,-5.3359e-05,-522.21,2.516
10158,21.42,5.5455,0,5.6053e-05,560.14,2.1395e-05,34.984,1.6735e-05,-0.029767,-5.5376e-05,-541.84,2.5007
10159,21.42,5.6364,0.05,6.7704e-07,6.7658,5.1989e-07,3.9062,1.3534e-12,1.535e-05,-5.1989e-07,-3.9062,2.5006
10160,21.697,5.6364,0,5.004e-05,500.05,1.9356e-05,34.341,1.4778e-05,-0.053123,-4.9367e-05,-482.02,2.5469
10161,21.605,5.5455,0,5.2096e-05,520.6,2.0179e-05,36.107,1.537e-05,-0.031489,-5.1388e-05,-501.62,2.5316
10162,21.605,5.6364,0.05,6.77e-07,6.7653,5.1985e-07,3.906,1.5403e-12,1.426e-05,-5.1985e-07,-3.906,2.5315
10163,21.881,5.6364,0,4.6091e-05,460.6,1.8128e-05,35.284,1.3424e-05,-0.056933,-4.539e-05,-441.96,2.5779
10164,21.789,5.5455,0,4.816e-05,481.26,1.8974e-05,37.29,1.4007e-05,-0.03327,-4.7417e-05,-461.55,2.5625
10165,21.789,5.6364,0.05,6.7718e-07,6.7672,5.1999e-07,3.907,8.6536e-13,1.5034e-05,-5.1999e-07,-3.907,2.5624
10166,22.065,5.6364,0,4.2162e-05,421.33,1.6908e-05,36.263,1.2073e-05,-0.061065,-4.1428e-05,-402.05,2.6088
10167,21.973,5.5455,0,4.4244e-05,442.13,1.7781e-05,38.539,1.2647e-05,-0.035075,-4.3463e-05,-421.62,2.5935
10168,21.973,5.6364,0.05,6.7762e-07,6.7715,5.2033e-07,3.9095,9.2874e-13,1.7518e-05,-5.2033e-07,-3.9095,2.5933
10169,22.249,5.6364,0,3.8253e-05,382.27,1.5697e-05,37.286,1.0726e-05,-0.065529,-3.7483e-05,-362.29,2.6398
10170,22.157,5.5455,0,4.0352e-05,403.24,1.66e-05,39.867,1.1289e-05,-0.036856,-3.9526e-05,-381.84,2.6244
10171,22.157,5.6364,0.05,6.7832e-07,6.7786,5.2087e-07,3.9136,8.4189e-13,1.6897e-05,-5.2087e-07,-3.9136,2.6243
10172,22.434,5.6364,0,3.4368e-05,343.45,1.4497e-05,38.364,9.382e-06,-0.070284,-3.3555e-05,-322.68,2.6708
10173,22.342,5.5455,0,3.6486e-05,364.61,1.5434e-05,41.289,9.9339e-06,-0.038513,-3.5608e-05,-342.22,2.6554
10174,22.342,5.6364,0.05,6.7933e-07,6.7887,5.2164e-07,3.9194,9.9697e-13,1.6688e-05,-5.2164e-07,-3.9194,2.6553
10175,22.618,5.6364,0,3.0513e-05,304.92,1.3311e-05,39.513,8.0418e-06,-0.075281,-2.9648e-05,-283.26,2.7019
10176,22.526,5.5455,0,3.2653e-05,326.31,1.4286e-05,42.83,8.5807e-06,-0.039824,-3.1713e-05,-302.79,2.6865
10177,22.526,5.6364,0.05,6.807e-07,6.8023,5.2269e-07,3.9273,1.0189e-12,1.4471e-05,-5.2269e-07,-3.9273,2.6864
10178,22.802,5.6364,0,2.6694e-05,266.76,1.2141e-05,40.766,6.7053e-06,-0.080104,-2.5766e-05,-244.06,2.7329
10179,22.71,5.5455,0,2.8861e-05,288.41,1.3161e-05,44.529,7.2293e-06,-0.04059,-2.7844e-05,-263.57,2.7175
10180,22.71,5.6364,0.05,6.825e-07,6.8202,5.2407e-07,3.9377,1.1825e-12,1.3302e-05,-5.2407e-07,-3.9377,2.7174
10181,22.987,5.6364,0,2.2927e-05,229.11,1.0997e-05,42.177,5.3725e-06,-0.085,-2.1917e-05,-205.12,2.764
10182,22.894,5.5455,0,2.5123e-05,251.06,1.2066e-05,46.447,5.8794e-06,-0.03967,-2.4009e-05,-224.61,2.7486
10183,22.894,5.6364,0.05,6.8488e-07,6.8441,5.259e-07,3.9514,1.1657e-12,1.3493e-05,-5.259e-07,-3.9514,2.7485
10184,23.171,5.6364,0,1.9237e-05,192.24,9.8913e-06,43.854,4.0433e-06,-0.085959,-1.8112e-05,-166.55,2.7951
10185,23.079,5.5455,0,2.1464e-05,214.49,1.1015e-05,48.687,4.5298e-06,-0.038046,-2.0217e-05,-185.97,2.7796
10186,23.079,5.6364,0.05,6.8816e-07,6.8769,5.2842e-07,3.9704,1.1132e-12,1.5519e-05,-5.2842e-07,-3.9704,2.7795
10187,23.355,5.6364,0,1.5674e-05,156.63,8.8504e-06,46.006,2.7152e-06,-0.091561,-1.4376e-05,-128.5,2.8262
10188,23.263,5.5455,0,1.7925e-05,179.12,1.0028e-05,51.43,3.1795e-06,-0.0249,-1.6487e-05,-147.79,2.8107
10189,23.263,5.6364,0.05,6.9295e-07,6.9247,5.321e-07,3.998,1.4121e-12,1.6014e-05,-5.321e-07,-3.998,2.8106
10190,23.539,5.6364,0,1.2348e-05,123.39,7.9314e-06,49.122,1.3868e-06,-0.051353,-1.0754e-05,-91.273,2.8573
10191,23.447,5.5455,0,1.4583e-05,145.73,9.1441e-06,54.989,1.8217e-06,-0.02869,-1.2847e-05,-110.24,2.8418
10192,23.447,5.6364,0.05,7.011e-07,7.0061,5.3836e-07,4.045,9.9162e-13,1.2331e-05,-5.3836e-07,-4.045,2.8417
10193,23.724,5.6364,0,9.5076e-06,95.011,7.2646e-06,54.236,2.4448e-08,-0.16329,-7.3366e-06,-55.471,2.8884
10194,23.631,5.5455,0,1.1601e-05,115.93,8.4335e-06,60.019,4.586e-07,0.098552,-9.3511e-06,-73.608,2.8729
10195,23.631,5.6364,0.05,7.1964e-07,7.1914,5.5259e-07,4.152,1.183e-12,1.4878e-05,-5.5259e-07,-4.152,2.8728
10196,23.816,5.5455,0,9.2992e-06,92.928,8.0298e-06,67.501,-9.7443e-07,-0.15292,-6.0723e-06,-38.457,2.904
10197,23.816,5.6364,0.05,7.8564e-07,7.851,6.0327e-07,4.5328,1.0022e-12,1.2008e-05,-6.0327e-07,-4.5328,2.9039
10198,23.908,5.6364,0,7.3624e-06,73.574,6.7563e-06,60.476,-1.271e-06,0.16188,-4.1535e-06,-21.496,2.9195
10199,1.2431,5.4545,0,0.00023757,2374.1,0.00012212,537.66,4.9594e-05,-7.2749,-0.00022381,-2061.5,0.0053717
10200,1.1509,5.3636,0,0.00027363,2734.4,0.00016171,893.65,4.1374e-05,-10.493,-0.00024715,-2178.3,0.0027543
10201,1.1509,5.4545,0.05,1.4625e-05,146.15,1.123e-05,84.378,1.1179e-13,8.5763e-06,-1.123e-05,-84.378,0.00013442
10202,1.0588,5.4545,0,0.00018778,1876.5,0.00010557,547.32,3.3107e-05,2.8753,-0.00017239,-1541.2,0.0051242
10203,1.4273,5.4545,0,0.00026899,2688.1,0.00011889,366.5,6.9766e-05,-2.5983,-0.00026089,-2487,0.014209
10204,1.3352,5.3636,0,0.0002804,2802.1,0.00013834,564.53,6.3036e-05,-1.2837,-0.0002665,-2477.3,0.010548
10205,1.3352,5.4545,0.05,1.2077e-05,120.68,9.2733e-06,69.676,-1.7653e-12,-2.3113e-05,-9.2733e-06,-69.676,0.0093376
10206,1.6116,5.4545,0,0.00031512,3149.1,0.00012927,305.74,8.8287e-05,-2.2257,-0.00030883,-2986,0.023495
10207,1.5195,5.3636,0,0.00031755,3173.3,0.00014002,428.74,8.259e-05,-2.7953,-0.00030809,-2938.2,0.019657
10208,1.5195,5.4545,0.05,1.1007e-05,110,8.4523e-06,63.507,-5.1388e-12,-4.6441e-05,-8.4523e-06,-63.507,0.018641
10209,1.7959,5.4545,0,0.0003601,3598.5,0.00014137,272,0.00010499,-1.2973,-0.00035471,-3455.4,0.033012
10210,1.7037,5.3636,0,0.00035926,3590.2,0.00014774,353.47,0.00010047,-1.6575,-0.00035196,-3401.1,0.029018
10211,1.7037,5.4545,0.05,9.6093e-06,96.027,7.3788e-06,55.441,-4.9971e-12,-5.924e-05,-7.3788e-06,-55.441,0.0281
10212,1.9801,5.4545,0,0.00039926,3989.9,0.0001519,242.69,0.00011947,-0.90646,-0.00039459,-3863.4,0.042768
10213,1.888,5.3636,0,0.0003977,3974.2,0.00015605,299.49,0.00011601,-1.314,-0.00039177,-3816.6,0.038613
10214,1.888,5.4545,0.05,8.1096e-06,81.04,6.2272e-06,46.789,-4.6835e-12,-6.1295e-05,-6.2272e-06,-46.789,0.03776
10215,2.1644,5.4545,0,0.0004314,4311,0.00015998,212,0.00013168,-0.64659,-0.00042741,-4201.4,0.052789
10216,2.0723,5.3636,0,0.00043011,4298.1,0.00016294,253.07,0.00012913,-0.98381,-0.00042525,-4166.4,0.048466
10217,2.0723,5.4545,0.05,6.655e-06,66.504,5.1102e-06,38.396,-2.2165e-12,-5.744e-05,-5.1102e-06,-38.396,0.047661
10218,2.3487,5.4545,0,0.00045669,4563.7,0.00016565,179.55,0.00014168,-0.4959,-0.00045337,-4471.5,0.063097
10219,2.2565,5.3636,0,0.00045597,4556.6,0.00016791,209.66,0.0001399,-0.78722,-0.00045206,-4448.5,0.058602
10220,2.2565,5.4545,0.05,5.3337e-06,53.3,4.0956e-06,30.773,-3.7992e-12,-5.4307e-05,-4.0956e-06,-30.773,0.057833
10221,2.5329,5.4545,0,0.00047589,4755.7,0.00016927,146.69,0.00014969,-0.39896,-0.00047323,-4680.8,0.073712
10222,2.4408,5.3636,0,0.00047578,4754.5,0.00017105,168.59,0.00014853,-0.65097,-0.0004727,-4668.3,0.069041
10223,2.4408,5.4545,0.05,4.1827e-06,41.798,3.2118e-06,24.132,-7.2371e-13,-5.0947e-05,-3.2118e-06,-24.132,0.0683
10224,2.7172,5.4545,0,0.00048994,4896,0.00017127,114.94,0.00015593,-0.34245,-0.00048789,-4837.7,0.084648
10225,2.6251,5.3636,0,0.00049035,4900.1,0.00017269,130.34,0.00015527,-0.57042,-0.00048801,-4833.9,0.079799
10226,2.6251,5.4545,0.05,3.2088e-06,32.066,2.4639e-06,18.513,-3.7645e-13,-5.7412e-05,-2.464e-06,-18.513,0.079079
10227,2.9015,5.4545,0,0.00049974,4994,0.00017206,85.486,0.00016064,-0.31942,-0.00049824,-4950.9,0.095915
10228,2.8093,5.3636,0,0.00050056,5002.2,0.00017318,95.584,0.00016038,-0.53848,-0.00049888,-4953.9,0.090887
10229,2.8093,5.4545,0.05,2.4032e-06,24.015,1.8453e-06,13.865,-1.9671e-12,-6.8456e-05,-1.8453e-06,-13.865,0.090183
10230,3.0857,5.4545,0,0.00050611,5057.6,0.00017196,59.1,0.00016405,-0.33433,-0.00050509,-5028,0.10752
10231,2.9936,5.3636,0,0.00050725,5069,0.00017283,64.815,0.00016412,-0.56647,-0.00050612,-5036.5,0.10231
10232,2.9936,5.4545,0.05,1.751e-06,17.498,1.3445e-06,10.102,-8.5718e-13,-8.1287e-05,-1.3445e-06,-10.102,0.10162
10233,3.27,5.4545,0,0.00050975,5094,0.00017126,36.182,0.00016639,-0.41432,-0.00050913,-5076,0.11947
10234,3.1779,5.3636,0,0.00051112,5107.7,0.0001719,38.295,0.00016671,-0.70776,-0.00051047,-5088.7,0.11408
10235,3.1779,5.4545,0.05,1.238e-06,12.372,9.5065e-07,7.1428,-6.7278e-12,-0.00011456,-9.5065e-07,-7.1429,0.1134
10236,3.4543,5.4545,0,0.00051123,5108.8,0.00017016,16.953,0.00016781,-0.70202,-0.00051095,-5100.6,0.13176
10237,3.3621,5.3636,0,0.00051277,5124.2,0.00017064,16.31,0.0001683,-1.2704,-0.00051251,-5116.6,0.1262
10238,3.3621,5.4545,0.05,8.5704e-07,8.5645,6.581e-07,4.9447,-1.7075e-11,-0.00016692,-6.581e-07,-4.9447,0.12552
10239,3.6385,5.4545,0,0.00051102,5106.7,0.00016906,3.1787,0.00016822,-3.085,-0.00051102,-5106.6,0.1444
10240,3.5464,5.3636,0,0.00051269,5123.3,0.00016971,2.6274,0.00016854,-6.2229,-0.00051275,-5125.1,0.13867
10241,3.5464,5.4545,0.05,6.1439e-07,6.1397,4.7178e-07,3.5447,-2.1009e-11,-0.00023369,-4.7177e-07,-3.5447,0.13799
10242,3.8228,5.4545,0,0.00050951,5091.6,0.00016886,0.61152,0.00016697,-13.564,-0.00050973,-5098,0.15739
10243,3.7307,5.3636,0,0.00051126,5109.1,0.00016973,0.68543,0.00016707,-19.313,-0.00051158,-5118.4,0.15148
10244,3.7307,5.4545,0.05,5.2191e-07,5.2155,4.0077e-07,3.0112,-2.8324e-11,-0.00023847,-4.0075e-07,-3.0111,0.15081
10245,4.0071,5.4545,0,0.00050698,5066.3,0.00016849,0.30326,0.00016532,-23.508,-0.00050737,-5077.9,0.17073
10246,3.9149,5.3636,0,0.0005088,5084.5,0.00016946,0.35482,0.00016531,-30.785,-0.00050932,-5099.7,0.16464
10247,3.9149,5.4545,0.05,5.4882e-07,5.4844,4.2143e-07,3.1664,-1.7718e-11,-0.00026008,-4.2142e-07,-3.1665,0.16397
10248,4.1913,5.4545,0,0.00050369,5033.4,0.00016778,0.1979,0.0001636,-31.202,-0.00050421,-5048.8,0.18441
10249,4.0992,5.3636,0,0.00050556,5052.1,0.00016881,0.23032,0.00016351,-39.631,-0.00050622,-5071.7,0.17814
10250,4.0992,5.4545,0.05,6.2672e-07,6.2628,4.8124e-07,3.6158,-6.3524e-12,-0.00013296,-4.8124e-07,-3.6159,0.17748
10251,4.3756,5.4545,0,0.0004998,4994.6,0.00016677,0.1455,0.00016185,-36.842,-0.00050042,-5012.8,0.19843
10252,4.2835,5.3636,0,0.00050171,5013.7,0.00016786,0.1667,0.0001617,-46.102,-0.00050248,-5036.5,0.192
10253,4.2835,5.4545,0.05,7.1131e-07,7.1082,5.462e-07,4.1039,-2.5265e-12,-6.6297e-05,-5.4621e-07,-4.104,0.19134
10254,4.5599,5.4545,0,0.00049547,4951.3,0.00016553,0.11412,0.00016009,-40.722,-0.00049615,-4971.5,0.21279
10255,4.4677,5.3636,0,0.00049742,4970.7,0.00016666,0.12851,0.00015991,-50.539,-0.00049826,-4995.8,0.20619
10256,4.4677,5.4545,0.05,7.8638e-07,7.8584,6.0383e-07,4.5369,1.9674e-12,-4.7269e-05,-6.0385e-07,-4.5371,0.20553
10257,4.7441,5.4545,0,0.00049081,4904.7,0.00016411,0.093104,0.00015835,-43.131,-0.00049153,-4926.1,0.22749
10258,4.652,5.3636,0,0.00049278,4924.4,0.00016526,0.10315,0.00015816,-53.273,-0.00049367,-4950.8,0.22072
10259,4.652,5.4545,0.05,8.4793e-07,8.4735,6.511e-07,4.892,3.8712e-12,-3.6216e-05,-6.5111e-07,-4.8922,0.22006
10260,4.9284,5.4545,0,0.0004859,4855.6,0.00016254,0.077922,0.00015663,-44.334,-0.00048664,-4877.6,0.24253
10261,4.8363,5.3636,0,0.0004879,4875.6,0.00016371,0.08509,0.00015643,-54.609,-0.00048881,-4902.7,0.23558
10262,4.8363,5.4545,0.05,8.9628e-07,8.9566,6.8823e-07,5.171,3.5983e-12,-2.9823e-05,-6.8824e-07,-5.1712,0.23493
10263,5.1127,5.4545,0,0.0004808,4804.7,0.00016087,0.066362,0.00015493,-44.565,-0.00048155,-4826.8,0.25789
10264,5.0205,5.3636,0,0.00048283,4825,0.00016205,0.071562,0.00015474,-54.817,-0.00048374,-4852.1,0.25078
10265,5.0205,5.4545,0.05,9.3309e-07,9.3245,7.1649e-07,5.3833,6.0395e-12,-4.6715e-05,-7.1651e-07,-5.3837,0.25013
10266,5.2969,5.4545,0,0.00047558,4752.5,0.00015912,0.057218,0.00015325,-44.025,-0.00047631,-4774.3,0.27358
10267,5.2048,5.3636,0,0.00047763,4773,0.0001603,0.061042,0.00015309,-54.131,-0.00047853,-4799.8,0.2663
10268,5.2048,5.4545,0.05,9.6029e-07,9.5963,7.3737e-07,5.5403,8.4082e-12,-2.2079e-05,-7.3739e-07,-5.5405,0.26566
10269,5.4812,5.4545,0,0.00047026,4699.3,0.00015731,0.049778,0.00015159,-42.887,-0.00047097,-4720.6,0.28959
10270,5.3891,5.3636,0,0.00047234,4720.1,0.00015848,0.052624,0.00015145,-52.75,-0.00047321,-4746.2,0.28216
10271,5.3891,5.4545,0.05,9.797e-07,9.7902,7.5228e-07,5.6523,4.5343e-12,-1.9849e-05,-7.5229e-07,-5.6525,0.28151
10272,5.6655,5.4545,0,0.00046487,4645.5,0.00015545,0.043595,0.00014995,-41.297,-0.00046556,-4666,0.30593
10273,5.5733,5.3636,0,0.00046698,4666.5,0.00015662,0.045737,0.00014984,-50.844,-0.00046782,-4691.7,0.29833
10274,5.5733,5.4545,0.05,9.929e-07,9.9222,7.6242e-07,5.7284,7.7283e-12,-2.1061e-05,-7.6244e-07,-5.7287,0.29769
10275,5.8497,5.4545,0,0.00045944,4591.2,0.00015356,0.038371,0.00014832,-39.374,-0.00046009,-4610.7,0.32258
10276,5.7576,5.3636,0,0.00046157,4612.5,0.00015472,0.040005,0.00014825,-48.553,-0.00046238,-4636.6,0.31482
10277,5.7576,5.4545,0.05,1.0012e-06,10.006,7.6883e-07,5.7765,8.2742e-12,-2.203e-05,-7.6883e-07,-5.7769,0.31418
10278,6.034,5.4545,0,0.00045398,4536.6,0.00015166,0.033901,0.0001467,-37.219,-0.0004546,-4555.1,0.33954
10279,5.9419,5.3636,0,0.00045614,4558.2,0.0001528,0.035167,0.00014667,-45.993,-0.0004569,-4581,0.33162
10280,5.9419,5.4545,0.05,1.0058e-06,10.051,7.7233e-07,5.8029,5.1104e-12,-1.406e-05,-7.7234e-07,-5.8031,0.33099
10281,6.2183,5.4545,0,0.0004485,4481.9,0.00014973,0.030036,0.00014508,-34.911,-0.00044909,-4499.3,0.35681
10282,6.1261,5.3636,0,0.00045068,4503.7,0.00015087,0.031037,0.0001451,-43.257,-0.0004514,-4525.2,0.34873
10283,6.1261,5.4545,0.05,1.0075e-06,10.068,7.7361e-07,5.8125,5.5328e-12,-1.2415e-05,-7.7362e-07,-5.8127,0.3481
10284,6.4025,5.4545,0,0.00044302,4427.1,0.00014781,0.026668,0.00014348,-32.515,-0.00044356,-4443.3,0.37439
10285,6.3104,5.3636,0,0.00044523,4449.2,0.00014893,0.027478,0.00014354,-40.422,-0.0004459,-4469.3,0.36616
10286,6.3104,5.4545,0.05,1.0069e-06,10.062,7.732e-07,5.8094,7.3715e-12,-1.0527e-05,-7.7321e-07,-5.8097,0.36553
10287,6.5868,5.4545,0,0.00043754,4372.4,0.00014588,0.023711,0.00014187,-30.083,-0.00043804,-4387.3,0.39227
10288,6.4947,5.3636,0,0.00043977,4394.7,0.00014698,0.024388,0.00014198,-37.547,-0.0004404,-4413.3,0.38388
10289,6.4947,5.4545,0.05,1.0048e-06,10.041,7.7153e-07,5.7969,5.7418e-12,-9.4853e-06,-7.7155e-07,-5.7972,0.38325
10290,6.7711,5.4545,0,0.00043206,4317.7,0.00014395,0.0211,0.00014027,-27.655,-0.00043253,-4331.4,0.41044
10291,6.6789,5.3636,0,0.00043432,4340.2,0.00014504,0.021686,0.00014042,-34.679,-0.0004349,-4357.4,0.4019
10292,6.6789,5.4545,0.05,1.0014e-06,10.007,7.6894e-07,5.7774,6.0547e-12,-8.5486e-06,-7.6895e-07,-5.7777,0.40128
10293,6.9553,5.4545,0,0.0004266,4263,0.00014203,0.018783,0.00013866,-25.262,-0.00042702,-4275.6,0.42891
10294,6.8632,5.3636,0,0.00042887,4285.7,0.0001431,0.019311,0.00013886,-31.855,-0.0004294,-4301.6,0.42022
10295,6.8632,5.4545,0.05,9.9715e-07,9.9646,7.6568e-07,5.753,7.9308e-12,-7.7749e-06,-7.657e-07,-5.7532,0.4196
10296,7.1396,5.4545,0,0.00042114,4208.5,0.00014011,0.016719,0.00013706,-22.927,-0.00042153,-4219.9,0.44766
10297,7.0475,5.3636,0,0.00042343,4231.4,0.00014117,0.017212,0.0001373,-29.101,-0.00042392,-4245.9,0.43883
10298,7.0475,5.4545,0.05,9.9231e-07,9.9162,7.6196e-07,5.725,9.8956e-12,-6.539e-06,-7.6197e-07,-5.7252,0.43822
10299,7.3239,5.4545,0,0.0004157,4154.2,0.00013821,0.014874,0.00013545,-20.666,-0.00041605,-4164.4,0.46671
10300,7.2317,5.3636,0,0.00041801,4177.2,0.00013925,0.015351,0.00013573,-26.438,-0.00041846,-4190.4,0.45772
10301,7.2317,5.4545,0.05,9.8705e-07,9.8637,7.5793e-07,5.6947,6.4088e-12,-5.6074e-06,-7.5794e-07,-5.6949,0.45712
10302,7.5081,5.4545,0,0.00041028,4099.9,0.00013631,0.013219,0.00013384,-18.492,-0.00041059,-4109.1,0.48603
10303,7.416,5.3636,0,0.0004126,4123.2,0.00013734,0.013694,0.00013416,-23.879,-0.000413,-4135.1,0.4769
10304,7.416,5.4545,0.05,9.8155e-07,9.8087,7.537e-07,5.6629,6.4128e-12,-5.0141e-06,-7.5372e-07,-5.6632,0.4763
10305,7.6924,5.4545,0,0.00040487,4045.9,0.00013442,0.011731,0.00013223,-16.413,-0.00040514,-4054.1,0.50564
10306,7.6003,5.3636,0,0.00040721,4069.3,0.00013544,0.012216,0.00013259,-21.433,-0.00040757,-4079.9,0.49636
10307,7.6003,5.4545,0.05,9.759e-07,9.7523,7.4936e-07,5.6304,1.0337e-11,-3.4823e-06,-7.4937e-07,-5.6306,0.49577
10308,7.8767,5.4545,0,0.00039947,3992,0.00013254,0.010391,0.00013062,-14.434,-0.00039972,-3999.2,0.52552
10309,7.7845,5.3636,0,0.00040183,4015.5,0.00013355,0.010894,0.00013101,-19.106,-0.00040215,-4025,0.5161
10310,7.7845,5.4545,0.05,9.702e-07,9.6953,7.4499e-07,5.5975,6.7618e-12,-3.0141e-06,-7.45e-07,-5.5977,0.51551
10311,8.0609,5.4545,0,0.0003941,3938.3,0.00013068,0.009183,0.000129,-12.555,-0.00039431,-3944.5,0.54567
10312,7.9688,5.3636,0,0.00039647,3961.9,0.00013167,0.0097122,0.00012942,-16.9,-0.00039675,-3970.3,0.53611
10313,7.9688,5.4545,0.05,9.645e-07,9.6383,7.406e-07,5.5646,6.7347e-12,-2.837e-06,-7.4063e-07,-5.5648,0.53553
10314,8.2452,5.4545,0,0.00038874,3884.7,0.00012882,0.0080941,0.00012738,-10.779,-0.00038892,-3890.1,0.56608
10315,8.1531,5.3636,0,0.00039112,3908.5,0.0001298,0.008655,0.00012783,-14.815,-0.00039137,-3915.9,0.55639
10316,8.1531,5.4545,0.05,9.5885e-07,9.5819,7.3627e-07,5.532,6.7914e-12,-2.0331e-06,-7.3628e-07,-5.5322,0.55581
10317,8.4295,5.4545,0,0.0003834,3831.4,0.00012697,0.0071143,0.00012576,-9.1025,-0.00038356,-3835.9,0.58677
10318,8.3373,5.3636,0,0.00038579,3855.2,0.00012795,0.007713,0.00012624,-12.85,-0.00038601,-3861.7,0.57693
10319,8.3373,5.4545,0.05,9.5327e-07,9.5262,7.3199e-07,5.4998,6.831e-12,-2.2507e-06,-7.3201e-07,-5.5001,0.57636
10320,8.6137,5.4545,0,0.00037808,3778.2,0.00012514,0.0062372,0.00012414,-7.524,-0.00037821,-3782,0.60771
10321,8.5216,5.3636,0,0.00038048,3802.2,0.0001261,0.0068777,0.00012464,-11.001,-0.00038066,-3807.6,0.59774
10322,8.5216,5.4545,0.05,9.478e-07,9.4715,7.2779e-07,5.4682,6.8909e-12,-1.6634e-06,-7.278e-07,-5.4685,0.59717
10323,8.798,5.4545,0,0.00037278,3725.2,0.00012332,0.0054601,0.00012251,-6.0403,-0.00037288,-3728.2,0.62891
10324,8.7059,5.3636,0,0.00037518,3749.2,0.00012427,0.0061473,0.00012304,-9.2652,-0.00037534,-3753.9,0.6188
10325,8.7059,5.4545,0.05,9.4243e-07,9.4178,7.2366e-07,5.4373,6.9238e-12,-1.0556e-06,-7.2368e-07,-5.4375,0.61824
10326,8.9823,5.4545,0,0.0003675,3672.4,0.0001215,0.0047903,0.00012089,-4.6473,-0.00036758,-3674.8,0.65036
10327,8.8901,5.3636,0,0.00036991,3696.5,0.00012245,0.0055232,0.00012143,-7.6372,-0.00037003,-3700.3,0.64012
10328,8.8901,5.4545,0.05,9.3718e-07,9.3654,7.1964e-07,5.407,7.0168e-12,-8.0862e-08,-7.1965e-07,-5.4072,0.63957
10329,9.1665,5.4545,0,0.00036223,3619.8,0.0001197,0.0042573,0.00011926,-3.341,-0.00036229,-3621.5,0.67205
10330,9.0744,5.3636,0,0.00036464,3643.9,0.00012064,0.0050205,0.00011982,-6.1123,-0.00036475,-3647,0.66169
10331,9.0744,5.4545,0.05,9.3205e-07,9.3141,7.1569e-07,5.3774,7.0265e-12,9.1481e-08,-7.1571e-07,-5.3776,0.66114
10332,9.3508,5.4545,0,0.00035699,3567.4,0.00011791,0.0039658,0.00011763,-2.117,-0.00035702,-3568.5,0.694
10333,9.2587,5.3636,0,0.0003594,3591.5,0.00011884,0.0046751,0.00011821,-4.6852,-0.00035948,-3593.9,0.6835
10334,9.2587,5.4545,0.05,9.2704e-07,9.264,7.1184e-07,5.3485,6.1353e-12,1.8856e-07,-7.1186e-07,-5.3487,0.68297
10335,9.5351,5.4545,0,0.00035176,3515.2,0.00011613,0.0045131,0.000116,-0.97129,-0.00035178,-3515.6,0.71619
10336,9.4429,5.3636,0,0.00035418,3539.3,0.00011704,0.0045843,0.0001166,-3.3505,-0.00035423,-3541,0.70556
10337,9.4429,5.4545,0.05,9.2214e-07,9.215,7.0808e-07,5.3202,7.0862e-12,3.3344e-07,-7.0809e-07,-5.3204,0.70503
10338,9.7193,5.4545,0,0.00034655,3463.1,0.00011437,0.12179,0.00011435,-0.015273,-0.00034655,-3463.1,0.73861
10339,9.6272,5.3636,0,0.00034897,3487.3,0.00011526,0.0050667,0.00011498,-2.1033,-0.00034901,-3488.3,0.72786
10340,9.6272,5.4545,0.05,9.1735e-07,9.1671,7.044e-07,5.2926,7.1395e-12,1.2268e-06,-7.0442e-07,-5.2927,0.72734
10341,9.9036,5.4545,0,0.00034136,3411.3,0.00011274,1.1119,0.00011259,-0.00048741,-0.00034134,-3410.7,0.76127
10342,9.8115,5.3636,0,0.00034378,3435.4,0.0001135,0.0079556,0.00011337,-0.93973,-0.0003438,-3435.9,0.7504
10343,9.8115,5.4545,0.05,9.1266e-07,9.1203,7.008e-07,5.2655,5.3278e-12,1.4958e-06,-7.0082e-07,-5.2657,0.74988
10344,10.088,5.4545,0,0.00033619,3359.6,0.00011111,2.0525,0.00011084,-9.9539e-05,-0.00033616,-3358.6,0.78416
10345,9.9957,5.3636,0,0.00033861,3383.8,0.00011176,0.1879,0.00011173,-0.029362,-0.00033861,-3383.7,0.77317
10346,9.9957,5.4545,0.05,9.0808e-07,9.0745,6.9728e-07,5.2391,4.4478e-12,9.9318e-07,-6.973e-07,-5.2393,0.77266
10347,10.272,5.4545,0,0.00033104,3308.1,0.00010949,2.934,0.0001091,-0.00021729,-0.00033099,-3306.6,0.80728
10348,10.18,5.3636,0,0.00033346,3332.3,0.00011014,1.1817,0.00010998,-0.0038603,-0.00033344,-3331.7,0.79617
10349,10.18,5.4545,0.05,9.0359e-07,9.0296,6.9384e-07,5.2132,5.357e-12,1.9912e-06,-6.9384e-07,-5.2133,0.79567
10350,10.456,5.4545,0,0.00032591,3256.8,0.00010786,3.76,0.00010736,-0.00046815,-0.00032584,-3254.9,0.83063
10351,10.364,5.3636,0,0.00032833,3281,0.00010853,2.1332,0.00010824,-0.0020599,-0.00032829,-3279.9,0.81939
10352,10.364,5.4545,0.05,8.9918e-07,8.9856,6.9046e-07,5.1877,6.2912e-12,1.3949e-06,-6.9046e-07,-5.188,0.8189
10353,10.641,5.4545,0,0.00032079,3205.7,0.00010624,4.5347,0.00010564,-0.00075442,-0.00032072,-3203.5,0.85419
10354,10.549,5.3636,0,0.00032321,3229.9,0.00010691,3.0246,0.00010651,-0.0016545,-0.00032316,-3228.4,0.84284
10355,10.549,5.4545,0.05,8.9486e-07,8.9424,6.8713e-07,5.1628,5.3856e-12,1.9595e-06,-6.8715e-07,-5.163,0.84235
10356,10.825,5.4545,0,0.0003157,3154.8,0.00010462,5.2617,0.00010392,-0.0010043,-0.00031561,-3152.2,0.87797
10357,10.733,5.3636,0,0.00031811,3178.9,0.0001053,3.8595,0.00010479,-0.0015667,-0.00031805,-3177,0.86651
10358,10.733,5.4545,0.05,8.906e-07,8.8998,6.8386e-07,5.1382,6.3089e-12,2.094e-06,-6.8387e-07,-5.1384,0.86603
10359,11.009,5.4545,0,0.00031063,3104.1,0.000103,5.9447,0.00010221,-0.0012443,-0.00031052,-3101.1,0.90196
10360,10.917,5.3636,0,0.00031303,3128.2,0.00010369,4.6421,0.00010307,-0.0015725,-0.00031296,-3125.9,0.89039
10361,10.917,5.4545,0.05,8.8642e-07,8.858,6.8065e-07,5.1141,5.4103e-12,1.9758e-06,-6.8067e-07,-5.1143,0.88991
10362,11.193,5.4545,0,0.00030557,3053.6,0.00010139,6.587,0.00010051,-0.0014952,-0.00030546,-3050.3,0.92617
10363,11.101,5.3636,0,0.00030798,3077.6,0.00010208,5.3761,0.00010137,-0.001675,-0.00030788,-3074.9,0.91448
10364,11.101,5.4545,0.05,8.8231e-07,8.817,6.775e-07,5.0904,7.2402e-12,2.2286e-06,-6.7751e-07,-5.0906,0.91401
10365,11.378,5.4545,0,0.00030053,3003.3,9.9777e-05,7.1918,9.882e-05,-0.0017531,-0.00030041,-2999.7,0.95058
10366,11.286,5.3636,0,0.00030294,3027.3,0.00010048,6.0655,9.9668e-05,-0.0018128,-0.00030283,-3024.2,0.93878
10367,11.286,5.4545,0.05,8.7826e-07,8.7765,6.7439e-07,5.0671,4.5253e-12,1.9261e-06,-6.744e-07,-5.0672,0.93832
10368,11.562,5.4545,0,0.00029552,2953.1,9.8169e-05,7.7623,9.7136e-05,-0.001995,-0.00029539,-2949.3,0.97519
10369,11.47,5.3636,0,0.00029791,2977.1,9.8872e-05,6.7137,9.7979e-05,-0.0019947,-0.0002978,-2973.7,0.96329
10370,11.47,5.4545,0.05,8.7426e-07,8.7366,6.7132e-07,5.044,5.4426e-12,2.561e-06,-6.7133e-07,-5.0442,0.96284
10371,11.746,5.4545,0,0.00029052,2903.2,9.6565e-05,8.3014,9.546e-05,-0.0021854,-0.00029038,-2899,1
10372,11.654,5.3636,0,0.00029291,2927.1,9.7273e-05,7.3242,9.6297e-05,-0.0021421,-0.00029279,-2923.4,0.988
10373,11.654,5.4545,0.05,8.703e-07,8.697,6.6828e-07,5.0212,5.4488e-12,2.5712e-06,-6.6829e-07,-5.0213,0.98755
10374,11.931,5.4545,0,0.00028554,2853.5,9.4965e-05,8.8118,9.3792e-05,-0.0023606,-0.00028539,-2849,1.025
10375,11.838,5.3636,0,0.00028793,2877.3,9.5676e-05,7.9003,9.4624e-05,-0.0022501,-0.00028779,-2873.3,1.0129
10376,11.838,5.4545,0.05,8.664e-07,8.6581,6.6529e-07,4.9987,4.5468e-12,2.7375e-06,-6.653e-07,-4.9988,1.0125
10377,12.115,5.4545,0,0.00028059,2803.9,9.337e-05,9.296,9.2132e-05,-0.0025449,-0.00028043,-2799.3,1.0502
10378,12.023,5.3636,0,0.00028296,2827.7,9.4083e-05,8.4448,9.2959e-05,-0.0023885,-0.00028282,-2823.5,1.038
10379,12.023,5.4545,0.05,8.6256e-07,8.6196,6.6233e-07,4.9764,3.6442e-12,3.0257e-06,-6.6234e-07,-4.9766,1.0376
10380,12.299,5.4545,0,0.00027565,2754.6,9.1778e-05,9.7565,9.048e-05,-0.0027363,-0.00027548,-2749.7,1.0756
10381,12.207,5.3636,0,0.00027802,2778.3,9.2495e-05,8.9606,9.1302e-05,-0.0025291,-0.00027786,-2773.8,1.0633
10382,12.207,5.4545,0.05,8.5875e-07,8.5816,6.5941e-07,4.9545,4.5585e-12,3.727e-06,-6.5942e-07,-4.9546,1.0629
10383,12.483,5.4545,0,0.00027073,2705.4,9.0192e-05,10.195,8.8835e-05,-0.0029154,-0.00027055,-2700.3,1.1012
10384,12.391,5.3636,0,0.00027309,2729,9.091e-05,9.4504,8.9652e-05,-0.002694,-0.00027293,-2724.3,1.0888
10385,12.391,5.4545,0.05,8.5497e-07,8.5438,6.5651e-07,4.9327,4.566e-12,3.325e-06,-6.5652e-07,-4.9328,1.0884
10386,12.668,5.4545,0,0.00026583,2656.5,8.861e-05,10.615,8.7197e-05,-0.0030502,-0.00026565,-2651.1,1.127
10387,12.575,5.3636,0,0.00026819,2680,8.933e-05,9.9167,8.801e-05,-0.0028182,-0.00026802,-2675,1.1144
10388,12.575,5.4545,0.05,8.5122e-07,8.5064,6.5363e-07,4.9111,5.4778e-12,3.0564e-06,-6.5364e-07,-4.9112,1.114
10389,12.852,5.4545,0,0.00026095,2607.7,8.7034e-05,11.018,8.5567e-05,-0.0031746,-0.00026076,-2602.2,1.1529
10390,12.76,5.3636,0,0.0002633,2631.2,8.7754e-05,10.362,8.6375e-05,-0.0029028,-0.00026312,-2626,1.1403
10391,12.76,5.4545,0.05,8.4752e-07,8.4693,6.5078e-07,4.8897,6.3954e-12,3.6323e-06,-6.5079e-07,-4.8898,1.1399
10392,13.036,5.4545,0,0.00025609,2559.1,8.5462e-05,11.405,8.3944e-05,-0.0033104,-0.00025589,-2553.4,1.179
10393,12.944,5.3636,0,0.00025843,2582.5,8.6184e-05,10.788,8.4748e-05,-0.0030127,-0.00025825,-2577.1,1.1663
10394,12.944,5.4545,0.05,8.4385e-07,8.4327,6.4797e-07,4.8685,3.6723e-12,3.6248e-06,-6.4797e-07,-4.8687,1.1659
10395,13.22,5.4545,0,0.00025125,2510.8,8.3897e-05,11.778,8.2328e-05,-0.0034555,-0.00025105,-2504.9,1.2053
10396,13.128,5.3636,0,0.00025359,2534.1,8.4618e-05,11.198,8.3128e-05,-0.0031231,-0.00025339,-2528.5,1.1925
10397,13.128,5.4545,0.05,8.4021e-07,8.3963,6.4517e-07,4.8475,4.5756e-12,4.7554e-06,-6.4518e-07,-4.8477,1.1921
10398,13.405,5.4545,0,0.00024643,2462.6,8.2336e-05,12.14,8.072e-05,-0.0035916,-0.00024622,-2456.5,1.2318
10399,13.313,5.3636,0,0.00024876,2485.9,8.3058e-05,11.593,8.1515e-05,-0.0032567,-0.00024856,-2480,1.2189
10400,13.313,5.4545,0.05,8.3659e-07,8.3601,6.4239e-07,4.8267,3.6756e-12,4.499e-06,-6.424e-07,-4.8268,1.2185
10401,13.589,5.4545,0,0.00024163,2414.6,8.0782e-05,12.491,7.9119e-05,-0.0036918,-0.00024142,-2408.4,1.2584
10402,13.497,5.3636,0,0.00024395,2437.8,8.1503e-05,11.975,7.9909e-05,-0.0033536,-0.00024374,-2431.8,1.2454
10403,13.497,5.4545,0.05,8.3299e-07,8.3241,6.3963e-07,4.8059,3.6725e-12,4.725e-06,-6.3964e-07,-4.806,1.245
10404,13.773,5.4545,0,0.00023685,2366.9,7.9233e-05,12.834,7.7524e-05,-0.0037858,-0.00023663,-2360.4,1.2852
10405,13.681,5.3636,0,0.00023916,2390,7.9954e-05,12.346,7.831e-05,-0.0034166,-0.00023895,-2383.8,1.2721
10406,13.681,5.4545,0.05,8.2942e-07,8.2885,6.3689e-07,4.7853,3.6749e-12,4.1607e-06,-6.369e-07,-4.7854,1.2718
10407,13.957,5.4545,0,0.00023209,2319.3,7.769e-05,13.17,7.5937e-05,-0.0038928,-0.00023186,-2312.7,1.3121
10408,13.865,5.3636,0,0.00023439,2342.3,7.841e-05,12.707,7.6719e-05,-0.0035033,-0.00023417,-2335.9,1.299
10409,13.865,5.4545,0.05,8.2589e-07,8.2532,6.3417e-07,4.7649,3.6706e-12,4.4451e-06,-6.3418e-07,-4.765,1.2986
10410,14.142,5.4545,0,0.00022735,2271.9,7.6153e-05,13.501,7.4356e-05,-0.0040117,-0.00022712,-2265.2,1.3392
10411,14.05,5.3636,0,0.00022964,2294.8,7.6873e-05,13.061,7.5134e-05,-0.0035935,-0.00022942,-2288.3,1.326
10412,14.05,5.4545,0.05,8.2237e-07,8.218,6.3148e-07,4.7446,3.6731e-12,4.6082e-06,-6.3148e-07,-4.7447,1.3257
10413,14.326,5.4545,0,0.00022263,2224.8,7.4623e-05,13.827,7.2782e-05,-0.0041256,-0.00022239,-2217.8,1.3665
10414,14.234,5.3636,0,0.00022491,2247.6,7.5341e-05,13.409,7.3556e-05,-0.0037049,-0.00022468,-2240.9,1.3532
10415,14.234,5.4545,0.05,8.1888e-07,8.1831,6.2879e-07,4.7245,3.6914e-12,4.2667e-06,-6.288e-07,-4.7246,1.3528
10416,14.51,5.4545,0,0.00021793,2177.8,7.3099e-05,14.15,7.1215e-05,-0.0042094,-0.00021769,-2170.7,1.3939
10417,14.418,5.3636,0,0.00022021,2200.5,7.3816e-05,13.753,7.1985e-05,-0.0037864,-0.00021997,-2193.6,1.3805
10418,14.418,5.4545,0.05,8.1539e-07,8.1483,6.2612e-07,4.7044,3.6771e-12,4.6476e-06,-6.2612e-07,-4.7045,1.3802
10419,14.695,5.4545,0,0.00021325,2131.1,7.1581e-05,14.471,6.9655e-05,-0.0042891,-0.000213,-2123.8,1.4215
10420,14.602,5.3636,0,0.00021552,2153.7,7.2297e-05,14.093,7.0421e-05,-0.0038371,-0.00021527,-2146.6,1.408
10421,14.602,5.4545,0.05,8.1194e-07,8.1138,6.2346e-07,4.6844,3.6695e-12,5.135e-06,-6.2347e-07,-4.6846,1.4077
10422,14.879,5.4545,0,0.00020859,2084.5,7.0071e-05,14.793,6.8101e-05,-0.0043839,-0.00020834,-2077.1,1.4492
10423,14.787,5.3636,0,0.00021085,2107,7.0785e-05,14.432,6.8863e-05,-0.003912,-0.0002106,-2099.8,1.4356
10424,14.787,5.4545,0.05,8.0851e-07,8.0795,6.2083e-07,4.6647,3.6717e-12,6.0749e-06,-6.2084e-07,-4.6648,1.4353
10425,15.063,5.4545,0,0.00020395,2038.1,6.8566e-05,15.115,6.6554e-05,-0.0044925,-0.00020369,-2030.5,1.477
10426,14.971,5.3636,0,0.0002062,2060.6,6.9279e-05,14.771,6.7312e-05,-0.0039931,-0.00020594,-2053.1,1.4634
10427,14.971,5.4545,0.05,8.051e-07,8.0455,6.1822e-07,4.645,2.7526e-12,4.5054e-06,-6.1822e-07,-4.6451,1.4631
10428,15.247,5.4545,0,0.00019933,1992,6.7069e-05,15.44,6.5013e-05,-0.0045991,-0.00019907,-1984.2,1.505
10429,15.155,5.3636,0,0.00020157,2014.3,6.778e-05,15.112,6.5768e-05,-0.0040944,-0.00020131,-2006.7,1.4913
10430,15.155,5.4545,0.05,8.0171e-07,8.0116,6.1561e-07,4.6255,3.6755e-12,5.5665e-06,-6.1562e-07,-4.6255,1.491
10431,15.432,5.4545,0,0.00019473,1946,6.5579e-05,15.767,6.3479e-05,-0.0046812,-0.00019446,-1938.1,1.5331
10432,15.339,5.3636,0,0.00019696,1968.3,6.6287e-05,15.455,6.423e-05,-0.004171,-0.00019669,-1960.5,1.5193
10433,15.339,5.4545,0.05,7.9834e-07,7.9779,6.1302e-07,4.606,3.6885e-12,5.3501e-06,-6.1303e-07,-4.6061,1.519
10434,15.616,5.4545,0,0.00019016,1900.2,6.4095e-05,16.1,6.1952e-05,-0.0047637,-0.00018988,-1892.1,1.5614
10435,15.524,5.3636,0,0.00019237,1922.4,6.4802e-05,15.802,6.2699e-05,-0.0042228,-0.0001921,-1914.5,1.5475
10436,15.524,5.4545,0.05,7.9499e-07,7.9444,6.1045e-07,4.5867,2.7683e-12,4.5227e-06,-6.1046e-07,-4.5867,1.5472
10437,15.8,5.4545,0,0.0001856,1854.7,6.2619e-05,16.439,6.043e-05,-0.0048622,-0.00018531,-1846.4,1.5897
10438,15.708,5.3636,0,0.00018781,1876.8,6.3324e-05,16.155,6.1173e-05,-0.0042987,-0.00018753,-1868.6,1.5758
10439,15.708,5.4545,0.05,7.9167e-07,7.9112,6.079e-07,4.5675,2.7836e-12,3.6316e-06,-6.079e-07,-4.5676,1.5755
10440,15.984,5.4545,0,0.00018106,1809.3,6.115e-05,16.784,5.8915e-05,-0.0049751,-0.00018077,-1800.9,1.6182
10441,15.892,5.3636,0,0.00018326,1831.3,6.1853e-05,16.515,5.9655e-05,-0.0043803,-0.00018297,-1823,1.6042
10442,15.892,5.4545,0.05,7.8837e-07,7.8783,6.0537e-07,4.5485,2.7988e-12,4.4262e-06,-6.0537e-07,-4.5486,1.6039
10443,16.169,5.4545,0,0.00017654,1764.2,5.9688e-05,17.138,5.7407e-05,-0.0050896,-0.00017624,-1755.6,1.6468
10444,16.077,5.3636,0,0.00017873,1786.1,6.039e-05,16.883,5.8142e-05,-0.0044835,-0.00017844,-1777.6,1.6328
10445,16.077,5.4545,0.05,7.8509e-07,7.8455,6.0285e-07,4.5296,2.7742e-12,4.3939e-06,-6.0285e-07,-4.5296,1.6325
10446,16.353,5.4545,0,0.00017204,1719.2,5.8234e-05,17.501,5.5904e-05,-0.0051866,-0.00017174,-1710.4,1.6756
10447,16.261,5.3636,0,0.00017422,1741,5.8934e-05,17.261,5.6636e-05,-0.0045662,-0.00017392,-1732.3,1.6615
10448,16.261,5.4545,0.05,7.8183e-07,7.8129,6.0035e-07,4.5107,2.3215e-12,5.1225e-06,-6.0035e-07,-4.5108,1.6612
10449,16.537,5.4545,0,0.00016756,1674.5,5.6788e-05,17.875,5.4408e-05,-0.0052863,-0.00016725,-1665.5,1.7044
10450,16.445,5.3636,0,0.00016974,1696.2,5.7485e-05,17.65,5.5136e-05,-0.0046308,-0.00016943,-1687.3,1.6902
10451,16.445,5.4545,0.05,7.786e-07,7.7806,5.9787e-07,4.4921,2.3549e-12,5.2411e-06,-5.9787e-07,-4.4922,1.69
10452,16.721,5.4545,0,0.00016311,1629.9,5.5349e-05,18.262,5.2918e-05,-0.0054025,-0.00016279,-1620.7,1.7334
10453,16.629,5.3636,0,0.00016527,1651.5,5.6045e-05,18.051,5.3642e-05,-0.004717,-0.00016495,-1642.4,1.7191
10454,16.629,5.4545,0.05,7.754e-07,7.7487,5.9541e-07,4.4737,3.703e-12,5.9578e-06,-5.9542e-07,-4.4737,1.7189
10455,16.906,5.4545,0,0.00015867,1585.6,5.3918e-05,18.661,5.1433e-05,-0.0055357,-0.00015834,-1576.2,1.7625
10456,16.814,5.3636,0,0.00016082,1607.1,5.4612e-05,18.467,5.2154e-05,-0.0048126,-0.0001605,-1597.8,1.7482
10457,16.814,5.4545,0.05,7.7223e-07,7.717,5.9298e-07,4.4554,3.7216e-12,5.0389e-06,-5.9298e-07,-4.4554,1.7479
10458,17.09,5.4545,0,0.00015425,1541.5,5.2494e-05,19.075,4.9955e-05,-0.0056745,-0.00015392,-1531.8,1.7917
10459,16.998,5.3636,0,0.0001564,1562.9,5.3187e-05,18.898,5.0671e-05,-0.0049281,-0.00015607,-1553.3,1.7773
10460,16.998,5.4545,0.05,7.6909e-07,7.6856,5.9056e-07,4.4372,2.785e-12,5.6931e-06,-5.9057e-07,-4.4373,1.777
10461,17.274,5.4545,0,0.00014985,1497.5,5.1079e-05,19.506,4.8482e-05,-0.0058012,-0.00014951,-1487.7,1.8209
10462,17.182,5.3636,0,0.00015199,1518.9,5.1771e-05,19.347,4.9195e-05,-0.0050299,-0.00015165,-1509.1,1.8065
10463,17.182,5.4545,0.05,7.6597e-07,7.6544,5.8817e-07,4.4193,2.333e-12,5.6513e-06,-5.8817e-07,-4.4193,1.8063
10464,17.459,5.4545,0,0.00014548,1453.8,4.9672e-05,19.954,4.7015e-05,-0.005935,-0.00014513,-1443.7,1.8503
10465,17.366,5.3636,0,0.0001476,1475,5.0362e-05,19.814,4.7724e-05,-0.0051164,-0.00014726,-1465,1.8358
10466,17.366,5.4545,0.05,7.6289e-07,7.6237,5.858e-07,4.4015,1.8968e-12,5.4383e-06,-5.8581e-07,-4.4016,1.8356
10467,17.643,5.4545,0,0.00014112,1410.2,4.8273e-05,20.42,4.5554e-05,-0.0060885,-0.00014076,-1399.9,1.8798
10468,17.551,5.3636,0,0.00014324,1431.4,4.8962e-05,20.302,4.6259e-05,-0.005227,-0.00014288,-1421.2,1.8653
10469,17.551,5.4545,0.05,7.5986e-07,7.5933,5.8347e-07,4.384,2.3375e-12,6.1935e-06,-5.8348e-07,-4.384,1.865
10470,17.827,5.4545,0,0.00013678,1366.9,4.6882e-05,20.907,4.4099e-05,-0.0062604,-0.00013642,-1356.3,1.9094
10471,17.735,5.3636,0,0.0001389,1388,4.7571e-05,20.813,4.48e-05,-0.0053489,-0.00013853,-1377.5,1.8948
10472,17.735,5.4545,0.05,7.5686e-07,7.5633,5.8117e-07,4.3667,2.3843e-12,4.8162e-06,-5.8117e-07,-4.3667,1.8946
10473,18.011,5.4545,0,0.00013247,1323.8,4.55e-05,21.416,4.2649e-05,-0.0064418,-0.00013209,-1312.9,1.939
10474,17.919,5.3636,0,0.00013457,1344.8,4.6188e-05,21.347,4.3346e-05,-0.0054883,-0.00013419,-1334,1.9244
10475,17.919,5.4545,0.05,7.539e-07,7.5338,5.789e-07,4.3496,2.3892e-12,5.5803e-06,-5.789e-07,-4.3496,1.9242
10476,18.196,5.4545,0,0.00012817,1280.8,4.4126e-05,21.948,4.1204e-05,-0.006618,-0.00012778,-1269.7,1.9688
10477,18.103,5.3636,0,0.00013027,1301.8,4.4814e-05,21.908,4.1898e-05,-0.0056196,-0.00012988,-1290.7,1.9541
10478,18.103,5.4545,0.05,7.5097e-07,7.5046,5.7665e-07,4.3327,1.9181e-12,5.1992e-06,-5.7666e-07,-4.3328,1.9539
10479,18.38,5.4545,0,0.00012389,1238.1,4.2761e-05,22.506,3.9765e-05,-0.0068056,-0.0001235,-1226.7,1.9986
10480,18.288,5.3636,0,0.00012598,1259,4.3449e-05,22.496,4.0454e-05,-0.0057422,-0.00012558,-1247.6,1.9839
10481,18.288,5.4545,0.05,7.4811e-07,7.4759,5.7445e-07,4.3162,1.9225e-12,5.8437e-06,-5.7445e-07,-4.3162,1.9837
10482,18.564,5.4545,0,0.00011964,1195.6,4.1405e-05,23.09,3.8331e-05,-0.0070157,-0.00011923,-1183.8,2.0286
10483,18.472,5.3636,0,0.00012172,1216.3,4.2093e-05,23.114,3.9016e-05,-0.0058856,-0.00012131,-1204.6,2.0138
10484,18.472,5.4545,0.05,7.4529e-07,7.4478,5.7229e-07,4.3,2.0046e-12,8.4851e-06,-5.7229e-07,-4.3,2.0136
10485,18.748,5.4545,0,0.0001154,1153.2,4.0057e-05,23.702,3.6902e-05,-0.0072477,-0.00011498,-1141.2,2.0586
10486,18.656,5.3636,0,0.00011748,1173.9,4.0747e-05,23.764,3.7583e-05,-0.0060423,-0.00011705,-1161.9,2.0437
10487,18.656,5.4545,0.05,7.4254e-07,7.4202,5.7017e-07,4.2841,1.9583e-12,5.3781e-06,-5.7018e-07,-4.2841,2.0435
10488,18.933,5.4545,0,0.00011118,1111.1,3.8718e-05,24.345,3.5477e-05,-0.0074941,-0.00011075,-1098.7,2.0887
10489,18.841,5.3636,0,0.00011325,1131.7,3.941e-05,24.449,3.6155e-05,-0.0062184,-0.00011282,-1119.3,2.0738
10490,18.841,5.4545,0.05,7.3984e-07,7.3933,5.681e-07,4.2685,1.5051e-12,4.5495e-06,-5.681e-07,-4.2685,2.0736
10491,19.117,5.4545,0,0.00010699,1069.1,3.7389e-05,25.019,3.4058e-05,-0.0077416,-0.00010654,-1056.4,2.1188
10492,19.025,5.3636,0,0.00010905,1089.7,3.8082e-05,25.17,3.4732e-05,-0.0063889,-0.0001086,-1076.9,2.1039
10493,19.025,5.4545,0.05,7.372e-07,7.3669,5.6607e-07,4.2533,2.0305e-12,6.3959e-06,-5.6608e-07,-4.2533,2.1037
10494,19.301,5.4545,0,0.00010281,1027.4,3.6069e-05,25.728,3.2643e-05,-0.0080037,-0.00010235,-1014.3,2.149
10495,19.209,5.3636,0,0.00010487,1047.9,3.6765e-05,25.93,3.3313e-05,-0.0065522,-0.0001044,-1034.7,2.1341
10496,19.209,5.4545,0.05,7.3463e-07,7.3412,5.641e-07,4.2384,1.9836e-12,5.6157e-06,-5.6411e-07,-4.2385,2.1339
10497,19.485,5.4545,0,9.8648e-05,985.8,3.4758e-05,26.473,3.1233e-05,-0.0082917,-9.8171e-05,-972.3,2.1793
10498,19.393,5.3636,0,0.0001007,1006.3,3.5457e-05,26.732,3.1898e-05,-0.0067355,-0.00010022,-992.7,2.1643
10499,19.393,5.4545,0.05,7.3214e-07,7.3163,5.6219e-07,4.2241,1.1527e-12,6.8857e-06,-5.6219e-07,-4.2241,2.1642
10500,19.67,5.4545,0,9.4509e-05,944.43,3.3456e-05,27.255,2.9827e-05,-0.0086037,-9.4016e-05,-930.52,2.2097
10501,19.578,5.3636,0,9.6559e-05,964.92,3.4159e-05,27.577,3.0488e-05,-0.0069297,-9.606e-05,-950.84,2.1947
10502,19.578,5.4545,0.05,7.2973e-07,7.2922,5.6034e-07,4.2102,1.2062e-12,7.9309e-06,-5.6034e-07,-4.2102,2.1945
10503,19.854,5.4545,0,9.0388e-05,903.26,3.2164e-05,28.078,2.8426e-05,-0.0089307,-8.9878e-05,-888.9,2.2401
10504,19.762,5.3636,0,9.2435e-05,923.72,3.2872e-05,28.47,2.9082e-05,-0.0071371,-9.1918e-05,-909.16,2.225
10505,19.762,5.4545,0.05,7.274e-07,7.269,5.5855e-07,4.1967,1.6751e-12,8.5999e-06,-5.5855e-07,-4.1968,2.2249
10506,20.038,5.4545,0,8.6287e-05,862.27,3.0881e-05,28.943,2.7028e-05,-0.0092623,-8.5758e-05,-847.44,2.2706
10507,19.946,5.3636,0,8.8332e-05,882.71,3.1595e-05,29.412,2.768e-05,-0.007335,-8.7795e-05,-867.64,2.2555
10508,19.946,5.4545,0.05,7.2516e-07,7.2466,5.5683e-07,4.1838,1.1958e-12,7.3622e-06,-5.5684e-07,-4.1839,2.2553
10509,20.223,5.4545,0,8.2204e-05,821.47,2.9609e-05,29.853,2.5634e-05,-0.0096084,-8.1656e-05,-806.14,2.3011
10510,20.13,5.3636,0,8.4248e-05,841.9,3.0329e-05,30.408,2.6281e-05,-0.0075225,-8.3689e-05,-826.28,2.286
10511,20.13,5.4545,0.05,7.2303e-07,7.2253,5.5519e-07,4.1715,1.1859e-12,1.0013e-05,-5.552e-07,-4.1715,2.2858
10512,20.407,5.4545,0,7.814e-05,780.86,2.8346e-05,30.811,2.4244e-05,-0.0099734,-7.7571e-05,-765.01,2.3317
10513,20.315,5.3636,0,8.0184e-05,801.28,2.9074e-05,31.461,2.4886e-05,-0.0077162,-7.9602e-05,-785.09,2.3165
10514,20.315,5.4545,0.05,7.21e-07,7.205,5.5364e-07,4.1598,1.1672e-12,1.0295e-05,-5.5364e-07,-4.1598,2.3164
10515,20.591,5.4545,0,7.4095e-05,740.44,2.7094e-05,31.819,2.2858e-05,-0.010352,-7.3503e-05,-724.02,2.3624
10516,20.499,5.3636,0,7.6139e-05,760.87,2.7831e-05,32.575,2.3494e-05,-0.0078992,-7.5533e-05,-744.06,2.3472
10517,20.499,5.4545,0.05,7.1908e-07,7.1858,5.5216e-07,4.1487,1.0889e-12,1.0201e-05,-5.5216e-07,-4.1487,2.347
10518,20.775,5.4545,0,7.0069e-05,700.21,2.5852e-05,32.88,2.1474e-05,-0.010731,-6.9452e-05,-683.19,2.3931
10519,20.683,5.3636,0,7.2115e-05,720.65,2.6599e-05,33.753,2.2106e-05,-0.0080722,-7.1481e-05,-703.19,2.3778
10520,20.683,5.4545,0.05,7.1728e-07,7.1678,5.5078e-07,4.1384,8.6184e-13,1.1373e-05,-5.5078e-07,-4.1383,2.3777
10521,20.96,5.4545,0,6.6062e-05,660.16,2.462e-05,33.999,2.0094e-05,-0.011095,-6.5418e-05,-642.51,2.4238
10522,20.867,5.3636,0,6.8111e-05,680.64,2.5379e-05,35.001,2.072e-05,-0.0082025,-6.7448e-05,-662.46,2.4085
10523,20.867,5.4545,0.05,7.156e-07,7.1511,5.4949e-07,4.1287,9.014e-13,1.0977e-05,-5.4949e-07,-4.1287,2.4084
10524,21.144,5.4545,0,6.2074e-05,620.31,2.34e-05,35.18,1.8716e-05,-0.01144,-6.1401e-05,-601.98,2.4546
10525,21.052,5.3636,0,6.4127e-05,640.83,2.4172e-05,36.326,1.9336e-05,-0.0082813,-6.3432e-05,-621.9,2.4393
10526,21.052,5.4545,0.05,7.1407e-07,7.1357,5.4831e-07,4.1198,7.6508e-13,1.2179e-05,-5.4832e-07,-4.1198,2.4392
10527,21.328,5.4545,0,5.8106e-05,580.66,2.2191e-05,36.428,1.7341e-05,-0.01175,-5.7401e-05,-561.59,2.4854
10528,21.236,5.3636,0,6.0165e-05,601.23,2.2978e-05,37.733,1.7955e-05,-0.0082929,-5.9434e-05,-581.48,2.4701
10529,21.236,5.4545,0.05,7.1268e-07,7.1218,5.4725e-07,4.1118,8.5706e-13,1.1511e-05,-5.4725e-07,-4.1118,2.47
10530,21.512,5.4545,0,5.4158e-05,541.21,2.0994e-05,37.75,1.5969e-05,-0.011996,-5.3417e-05,-521.35,2.5163
10531,21.42,5.3636,0,5.6224e-05,561.85,2.1798e-05,39.231,1.6576e-05,-0.0082085,-5.5454e-05,-541.21,2.5009
10532,21.42,5.4545,0.05,7.1144e-07,7.1095,5.463e-07,4.1047,1.3544e-12,1.0226e-05,-5.463e-07,-4.1047,2.5008
10533,21.697,5.4545,0,5.0232e-05,501.97,1.9811e-05,39.155,1.4598e-05,-0.012129,-4.9451e-05,-481.26,2.5472
10534,21.605,5.3636,0,5.2307e-05,522.71,2.0634e-05,40.83,1.5199e-05,-0.0079804,-5.1493e-05,-501.1,2.5318
10535,21.605,5.4545,0.05,7.1037e-07,7.0988,5.4548e-07,4.0985,8.4683e-13,1.0959e-05,-5.4548e-07,-4.0985,2.5317
10536,21.881,5.4545,0,4.6329e-05,462.97,1.8642e-05,40.653,1.323e-05,-0.012082,-4.5504e-05,-441.31,2.5781
10537,21.789,5.3636,0,4.8415e-05,483.81,1.9486e-05,42.545,1.3822e-05,-0.0075403,-4.7551e-05,-461.14,2.5627
10538,21.789,5.4545,0.05,7.0949e-07,7.09,5.448e-07,4.0934,5.0396e-13,1.1814e-05,-5.448e-07,-4.0934,2.5626
10539,22.065,5.4545,0,4.2452e-05,424.23,1.7489e-05,42.261,1.1863e-05,-0.011769,-4.1575e-05,-401.52,2.609
10540,21.973,5.3636,0,4.455e-05,445.2,1.8356e-05,44.392,1.2447e-05,-0.0067868,-4.3629e-05,-421.34,2.5936
10541,21.973,5.4545,0.05,7.0881e-07,7.0832,5.4428e-07,4.0895,7.1006e-13,1.4275e-05,-5.4428e-07,-4.0895,2.5935
10542,22.249,5.4545,0,3.8605e-05,385.79,1.6355e-05,43.999,1.0497e-05,-0.011052,-3.7668e-05,-361.91,2.64
10543,22.157,5.3636,0,4.0718e-05,406.89,1.7248e-05,46.394,1.1073e-05,-0.0056038,-3.9729e-05,-381.71,2.6246
10544,22.157,5.4545,0.05,7.0837e-07,7.0788,5.4394e-07,4.087,7.9903e-13,1.7163e-05,-5.4394e-07,-4.0869,2.6245
10545,22.434,5.4545,0,3.4794e-05,347.7,1.5242e-05,45.9,9.1323e-06,-0.0096871,-3.3785e-05,-322.48,2.671
10546,22.342,5.3636,0,3.6922e-05,368.96,1.6165e-05,48.585,9.6978e-06,-0.0037867,-3.5855e-05,-342.27,2.6556
10547,22.342,5.4545,0.05,7.0821e-07,7.0772,5.4382e-07,4.086,7.0859e-13,1.3899e-05,-5.4382e-07,-4.086,2.6555
10548,22.618,5.4545,0,3.1027e-05,310.06,1.4158e-05,48.007,7.7679e-06,-0.0073598,-2.993e-05,-283.26,2.7021
10549,22.526,5.3636,0,3.3172e-05,331.49,1.5111e-05,51.008,8.3224e-06,-0.00098845,-3.2008e-05,-303.03,2.6866
10550,22.526,5.4545,0.05,7.084e-07,7.0792,5.4397e-07,4.0872,8.969e-13,1.2226e-05,-5.4397e-07,-4.0871,2.6865
10551,22.802,5.4545,0,2.7319e-05,273,1.311e-05,50.391,6.403e-06,-0.0032441,-2.611e-05,-244.3,2.7331
10552,22.71,5.3636,0,2.948e-05,294.6,1.4096e-05,53.729,6.9452e-06,0.0031627,-2.8196e-05,-264.03,2.7177
10553,22.71,5.4545,0.05,7.0908e-07,7.086,5.4449e-07,4.0911,1.057e-12,1.2081e-05,-5.4449e-07,-4.0911,2.7176
10554,22.987,5.4545,0,2.3692e-05,236.75,1.2111e-05,53.158,5.0361e-06,0.0028841,-2.2335e-05,-205.65,2.7642
10555,22.894,5.3636,0,2.5866e-05,258.48,1.3129e-05,56.842,5.565e-06,0.010088,-2.4426e-05,-225.33,2.7487
10556,22.894,5.4545,0.05,7.1048e-07,7.0999,5.4556e-07,4.0991,9.827e-13,1.074e-05,-5.4556e-07,-4.0991,2.7486
10557,23.171,5.4545,0,2.0183e-05,201.69,1.1181e-05,56.484,3.6652e-06,0.016472,-1.862e-05,-167.42,2.7952
10558,23.079,5.3636,0,2.2362e-05,223.46,1.2227e-05,60.487,4.1792e-06,0.01896,-2.071e-05,-186.99,2.7798
10559,23.079,5.4545,0.05,7.1301e-07,7.1251,5.475e-07,4.1137,9.2625e-13,1.2468e-05,-5.475e-07,-4.1137,2.7797
10560,23.355,5.4545,0,1.6858e-05,168.46,1.0352e-05,60.641,2.2846e-06,0.027449,-1.4987e-05,-129.74,2.8263
10561,23.263,5.3636,0,1.9017e-05,190.04,1.1415e-05,64.88,2.7851e-06,0.041968,-1.7063e-05,-149.09,2.8109
10562,23.263,5.4545,0.05,7.1758e-07,7.1709,5.5101e-07,4.1401,9.7264e-13,1.2006e-05,-5.5101e-07,-4.1401,2.8108
10563,23.539,5.4545,0,1.3832e-05,138.22,9.6733e-06,66.089,8.9081e-07,0.10113,-1.1468e-05,-92.759,2.8574
10564,23.447,5.3636,0,1.5916e-05,159.05,1.0726e-05,70.317,1.3735e-06,0.048426,-1.3508e-05,-111.76,2.842
10565,23.447,5.4545,0.05,7.2603e-07,7.2553,5.575e-07,4.1888,9.8294e-13,1.0312e-05,-5.575e-07,-4.1888,2.8419
10566,23.724,5.4545,0,1.1306e-05,112.98,9.2181e-06,73.429,-5.4847e-07,0.047391,-8.098e-06,-56.677,2.8885
10567,23.631,5.3636,0,1.3202e-05,131.93,1.0205e-05,77.277,-5.2788e-08,0.20381,-1.007e-05,-75.061,2.8731
10568,23.631,5.4545,0.05,7.4302e-07,7.4251,5.7055e-07,4.2869,1.2857e-12,1.4641e-05,-5.7055e-07,-4.2869,2.873
10569,23.816,5.3636,0,1.1113e-05,111.05,9.9155e-06,86.158,-1.552e-06,-0.00416,-6.765e-06,-39.173,2.9042
10570,23.816,5.4545,0.05,7.9516e-07,7.9461,6.1059e-07,4.5877,1.4786e-12,1.475e-05,-6.1059e-07,-4.5877,2.9041
10571,23.908,5.4545,0,9.4158e-06,94.093,8.8453e-06,81.241,-1.9199e-06,0.35624,-4.8985e-06,-22.024,2.9197
10572,1.2431,5.2727,0,0.00030639,3061.8,0.00017058,865.31,5.4649e-05,-5.7501,-0.00028232,-2537.6,0.0070462
10573,1.1509,5.1818,0,0.00035598,3557.3,0.00022107,1308.3,4.562e-05,-9.9939,-0.00031506,-2720,0.003912
10574,1.1509,5.2727,0.05,1.642e-05,164.08,1.2608e-05,94.734,-1.3199e-13,1.3851e-05,-1.2608e-05,-94.734,0.0020506
10575,1.0588,5.2727,0,0.00025031,2501.4,0.00015061,860.17,3.6506e-05,2.8049,-0.00022435,-1957.2,0.0035215
10576,1.4273,5.2727,0,0.00032348,3232.6,0.00015508,593.76,7.5821e-05,-1.7673,-0.00030926,-2895.1,0.015912
10577,1.3352,5.1818,0,0.0003477,3474.6,0.00018412,862.23,6.9314e-05,-0.39296,-0.0003249,-2962.4,0.012278
10578,1.3352,5.2727,0.05,1.2841e-05,128.32,9.8603e-06,74.086,-6.3401e-12,-4.9432e-05,-9.8603e-06,-74.086,0.01113
10579,1.6116,5.2727,0,0.00035876,3585.1,0.00015605,458.17,9.4771e-05,-2.2688,-0.00034878,-3334.9,0.025109
10580,1.5195,5.1818,0,0.00037251,3722.6,0.0001746,632.88,8.9998e-05,-2.7592,-0.0003577,-3366.6,0.021294
10581,1.5195,5.2727,0.05,1.1448e-05,114.4,8.7907e-06,66.05,-6.9991e-12,-8.1589e-05,-8.7907e-06,-66.05,0.020319
10582,1.7959,5.2727,0,0.00039524,3949.6,0.00016104,370.61,0.0001115,-1.6546,-0.00038764,-3752,0.034539
10583,1.7037,5.1818,0,0.00040345,4031.7,0.0001729,483.37,0.00010831,-1.9125,-0.00039306,-3769,0.030551
10584,1.7037,5.2727,0.05,9.763e-06,97.563,7.4968e-06,56.328,-7.7454e-12,-8.8254e-05,-7.4968e-06,-56.328,0.029677
10585,1.9801,5.2727,0,0.00042759,4273,0.00016629,303.82,0.00012567,-1.3773,-0.00042163,-4113.6,0.044221
10586,1.888,5.1818,0,0.00043293,4326.4,0.00017395,375.8,0.0001237,-1.74,-0.00042533,-4127,0.040057
10587,1.888,5.2727,0.05,8.061e-06,80.554,6.1898e-06,46.508,-8.6301e-12,-9.8579e-05,-6.1898e-06,-46.508,0.039253
10588,2.1644,5.2727,0,0.00045412,4538,0.0001704,247.13,0.00013735,-1.1284,-0.00044942,-4409.9,0.054181
10589,2.0723,5.1818,0,0.000458,4576.9,0.00017542,292.55,0.00013629,-1.4621,-0.00045234,-4424.2,0.049837
10590,2.0723,5.2727,0.05,6.4991e-06,64.946,4.9905e-06,37.496,-1.0266e-11,-0.00011758,-4.9905e-06,-37.497,0.049085
10591,2.3487,5.2727,0,0.00047473,4744,0.00017303,196.55,0.00014674,-0.96292,-0.00047109,-4643.1,0.064441
10592,2.2565,5.1818,0,0.00047786,4775.3,0.00017638,224.46,0.00014634,-1.2941,-0.00047367,-4659.7,0.059915
10593,2.2565,5.2727,0.05,5.1467e-06,51.432,3.9521e-06,29.694,-1.1355e-11,-0.00010962,-3.9521e-06,-29.694,0.059202
10594,2.5329,5.2727,0,0.00049003,4896.9,0.00017431,150.97,0.0001541,-0.85733,-0.0004873,-4820.1,0.075019
10595,2.4408,5.1818,0,0.00049277,4924.3,0.00017656,167.11,0.00015416,-1.1897,-0.00048973,-4839.1,0.07031
10596,2.4408,5.2727,0.05,4.0153e-06,40.126,3.0833e-06,23.166,-8.8325e-12,-0.00011188,-3.0833e-06,-23.167,0.069626
10597,2.7172,5.2727,0,0.00050085,5005,0.0001745,110.27,0.00015972,-0.81587,-0.00049889,-4949.3,0.085927
10598,2.6251,5.1818,0,0.00050336,5030.1,0.00017602,118.3,0.00016012,-1.1733,-0.00050126,-4970.5,0.081034
10599,2.6251,5.2727,0.05,3.0899e-06,30.878,2.3727e-06,17.827,-1.2777e-11,-0.00010799,-2.3727e-06,-17.827,0.080372
10600,2.9015,5.2727,0,0.000508,5076.5,0.0001739,74.55,0.00016386,-0.8558,-0.0005067,-5039.2,0.097173
10601,2.8093,5.1818,0,0.00051037,5100.2,0.00017489,76.872,0.00016449,-1.2844,-0.00050904,-5061.9,0.092098
10602,2.8093,5.2727,0.05,2.3476e-06,23.459,1.8026e-06,13.544,-8.1002e-12,-0.00015551,-1.8026e-06,-13.544,0.091451
10603,3.0857,5.2727,0,0.00051222,5118.6,0.00017275,43.891,0.00016676,-1.056,-0.00051147,-5097.1,0.10876
10604,2.9936,5.1818,0,0.00051449,5141.4,0.00017339,42.23,0.00016754,-1.6973,-0.00051379,-5121,0.10351
10605,2.9936,5.2727,0.05,1.766e-06,17.647,1.356e-06,10.189,-1.8265e-11,-0.00018132,-1.356e-06,-10.189,0.10287
10606,3.27,5.2727,0,0.00051412,5137.7,0.0001713,18.599,0.00016858,-1.8581,-0.00051383,-5129.3,0.1207
10607,3.1779,5.1818,0,0.00051632,5159.7,0.00017181,14.902,0.00016935,-3.5626,-0.00051613,-5154,0.11526
10608,3.1779,5.2727,0.05,1.3279e-06,13.27,1.0197e-06,7.6614,-1.7621e-11,-0.0002136,-1.0197e-06,-7.6614,0.11464
10609,3.4543,5.2727,0,0.00051422,5138.7,0.00017037,3.2573,0.00016885,-8.1157,-0.0005143,-5141.1,0.13299
10610,3.3621,5.1818,0,0.00051637,5160.1,0.00017137,2.6376,0.000169,-15.201,-0.00051658,-5166.4,0.12737
10611,3.3621,5.2727,0.05,1.0224e-06,10.217,7.8507e-07,5.8986,-2.8023e-11,-0.00024535,-7.8505e-07,-5.8986,0.12675
10612,3.6385,5.2727,0,0.00051293,5125.7,0.00017049,0.89127,0.00016728,-23.221,-0.0005133,-5136.8,0.14562
10613,3.5464,5.1818,0,0.00051503,5146.7,0.00017165,0.94296,0.00016718,-32.682,-0.00051556,-5162.5,0.13983
10614,3.5464,5.2727,0.05,8.4068e-07,8.401,6.4555e-07,4.8503,-2.2723e-11,-0.00031123,-6.4553e-07,-4.8503,0.13921
10615,3.8228,5.2727,0,0.00051056,5102.1,0.00017033,0.45205,0.00016541,-36.55,-0.00051117,-5120,0.15861
10616,3.7307,5.1818,0,0.00051263,5122.7,0.00017154,0.50906,0.00016519,-47.25,-0.00051341,-5145.9,0.15264
10617,3.7307,5.2727,0.05,7.6507e-07,7.6454,5.8748e-07,4.4141,-1.8091e-11,-0.00021427,-5.8747e-07,-4.4141,0.15203
10618,4.0071,5.2727,0,0.00050738,5070.3,0.00016978,0.28561,0.0001635,-46.897,-0.00050816,-5093.5,0.17194
10619,3.9149,5.1818,0,0.00050942,5090.7,0.00017102,0.32538,0.0001632,-58.435,-0.00051038,-5119.5,0.1658
10620,3.9149,5.2727,0.05,7.6209e-07,7.6157,5.852e-07,4.3969,-1.6481e-11,-0.0001578,-5.8519e-07,-4.3969,0.16519
10621,4.1913,5.2727,0,0.00050359,5032.4,0.00016889,0.20143,0.00016161,-54.516,-0.00050449,-5059.4,0.18562
10622,4.0992,5.1818,0,0.00050561,5052.6,0.00017016,0.22801,0.00016126,-66.588,-0.0005067,-5085.4,0.1793
10623,4.0992,5.2727,0.05,7.9558e-07,7.9503,6.1091e-07,4.5901,-4.8605e-12,-0.00011005,-6.1091e-07,-4.5902,0.17869
10624,4.3756,5.2727,0,0.00049933,4989.9,0.00016775,0.15177,0.00015977,-59.784,-0.00050032,-5019.4,0.19964
10625,4.2835,5.1818,0,0.00050134,5010,0.00016902,0.16938,0.00015939,-72.143,-0.00050253,-5045.6,0.19315
10626,4.2835,5.2727,0.05,8.408e-07,8.4022,6.4563e-07,4.8509,-4.7511e-12,-7.7315e-05,-6.4564e-07,-4.8511,0.19254
10627,4.5599,5.2727,0,0.00049473,4943.9,0.00016639,0.11946,0.00015798,-63.076,-0.00049577,-4975.1,0.214
10628,4.4677,5.1818,0,0.00049674,4963.9,0.00016766,0.13098,0.00015759,-75.519,-0.00049798,-5001.2,0.20734
10629,4.4677,5.2727,0.05,8.852e-07,8.8459,6.7972e-07,5.1071,2.0216e-12,-5.6846e-05,-6.7973e-07,-5.1073,0.20674
10630,4.7441,5.2727,0,0.00048988,4895.4,0.00016486,0.096934,0.00015624,-64.739,-0.00049095,-4927.4,0.2287
10631,4.652,5.1818,0,0.00049189,4915.5,0.00016614,0.10429,0.00015586,-77.101,-0.00049315,-4953.5,0.22187
10632,4.652,5.2727,0.05,9.2365e-07,9.2301,7.0924e-07,5.3289,2.2197e-12,-4.4628e-05,-7.0926e-07,-5.3291,0.22127
10633,4.9284,5.2727,0,0.00048484,4845,0.00016322,0.080422,0.00015454,-65.081,-0.00048591,-4877.2,0.24373
10634,4.8363,5.1818,0,0.00048686,4865.2,0.00016448,0.084896,0.00015419,-77.233,-0.00048812,-4903.3,0.23673
10635,4.8363,5.2727,0.05,9.5469e-07,9.5403,7.3308e-07,5.508,3.8891e-12,-4.5508e-05,-7.3309e-07,-5.5082,0.23613
10636,5.1127,5.2727,0,0.00047966,4793.3,0.00016147,0.067838,0.0001529,-64.374,-0.00048073,-4825.2,0.25909
10637,5.0205,5.1818,0,0.00048169,4813.6,0.00016273,0.070302,0.00015257,-76.211,-0.00048294,-4851.2,0.25193
10638,5.0205,5.2727,0.05,9.7849e-07,9.7782,7.5136e-07,5.6453,7.1496e-12,-3.0557e-05,-7.5137e-07,-5.6455,0.25133
10639,5.2969,5.2727,0,0.00047439,4740.7,0.00015966,0.057954,0.00015129,-62.847,-0.00047543,-4771.8,0.27477
10640,5.2048,5.1818,0,0.00047644,4761.1,0.0001609,0.059016,0.000151,-74.294,-0.00047766,-4797.8,0.26745
10641,5.2048,5.2727,0.05,9.9588e-07,9.952,7.6471e-07,5.7457,5.1013e-12,-2.6125e-05,-7.6472e-07,-5.7459,0.26685
10642,5.4812,5.2727,0,0.00046906,4687.4,0.00015779,0.050003,0.00014971,-60.699,-0.00047006,-4717.4,0.29078
10643,5.3891,5.1818,0,0.00047113,4708,0.00015901,0.050095,0.00014947,-71.697,-0.0004723,-4743.4,0.2833
10644,5.3891,5.2727,0.05,1.0079e-06,10.072,7.7391e-07,5.8148,5.7232e-12,-2.2025e-05,-7.7393e-07,-5.815,0.2827
10645,5.6655,5.2727,0,0.00046368,4633.6,0.00015589,0.043485,0.00014815,-58.093,-0.00046464,-4662.3,0.30711
10646,5.5733,5.1818,0,0.00046577,4654.5,0.00015709,0.042913,0.00014796,-68.603,-0.0004669,-4688.4,0.29946
10647,5.5733,5.2727,0.05,1.0154e-06,10.147,7.7973e-07,5.8585,7.8011e-12,-1.9127e-05,-7.7974e-07,-5.8588,0.29887
10648,5.8497,5.2727,0,0.00045827,4579.5,0.00015396,0.038057,0.00014661,-55.164,-0.00045918,-4606.9,0.32376
10649,5.7576,5.1818,0,0.00046038,4600.7,0.00015515,0.037046,0.00014647,-65.161,-0.00046146,-4632.9,0.31595
10650,5.7576,5.2727,0.05,1.0195e-06,10.188,7.8285e-07,5.882,4.5774e-12,-1.6721e-05,-7.8286e-07,-5.8822,0.31536
10651,6.034,5.2727,0,0.00045285,4525.3,0.00015201,0.03348,0.00014508,-52.023,-0.00045371,-4551.1,0.34071
10652,5.9419,5.1818,0,0.00045498,4546.7,0.00015318,0.032191,0.00014499,-61.495,-0.000456,-4577.1,0.33275
10653,5.9419,5.2727,0.05,1.0208e-06,10.201,7.8385e-07,5.8895,8.3396e-12,-1.5773e-05,-7.8386e-07,-5.8897,0.33216
10654,6.2183,5.2727,0,0.00044741,4471,0.00015006,0.029578,0.00014356,-48.76,-0.00044822,-4495.2,0.35798
10655,6.1261,5.1818,0,0.00044958,4492.7,0.00015121,0.028131,0.00014353,-57.703,-0.00045053,-4521.2,0.34986
10656,6.1261,5.2727,0.05,1.02e-06,10.193,7.8322e-07,5.8847,7.2234e-12,-1.369e-05,-7.8323e-07,-5.885,0.34927
10657,6.4025,5.2727,0,0.00044198,4416.7,0.0001481,0.026223,0.00014205,-45.445,-0.00044273,-4439.3,0.37555
10658,6.3104,5.1818,0,0.00044417,4438.6,0.00014924,0.024703,0.00014207,-53.863,-0.00044506,-4465.3,0.36727
10659,6.3104,5.2727,0.05,1.0176e-06,10.169,7.8136e-07,5.8708,5.4465e-12,-1.1685e-05,-7.8137e-07,-5.871,0.36669
10660,6.5868,5.2727,0,0.00043655,4362.5,0.00014614,0.023315,0.00014053,-42.134,-0.00043725,-4383.4,0.39342
10661,6.4947,5.1818,0,0.00043876,4384.6,0.00014726,0.021786,0.0001406,-50.038,-0.00043959,-4409.4,0.38499
10662,6.4947,5.2727,0.05,1.0139e-06,10.132,7.7858e-07,5.8499,5.7548e-12,-8.3797e-06,-7.7859e-07,-5.8501,0.38441
10663,6.7711,5.2727,0,0.00043112,4308.3,0.00014419,0.020778,0.00013902,-38.869,-0.00043177,-4327.6,0.41158
10664,6.6789,5.1818,0,0.00043336,4330.6,0.0001453,0.019286,0.00013913,-46.274,-0.00043413,-4353.5,0.403
10665,6.6789,5.2727,0.05,1.0095e-06,10.088,7.7514e-07,5.824,6.0008e-12,-8.7212e-06,-7.7515e-07,-5.8243,0.40243
10666,6.9553,5.2727,0,0.00042571,4254.2,0.00014225,0.018552,0.0001375,-35.684,-0.0004263,-4271.9,0.43004
10667,6.8632,5.1818,0,0.00042797,4276.7,0.00014334,0.01713,0.00013766,-42.607,-0.00042868,-4297.8,0.42131
10668,6.8632,5.2727,0.05,1.0044e-06,10.037,7.7123e-07,5.7947,5.9918e-12,-8.0185e-06,-7.7125e-07,-5.7949,0.42074
10669,7.1396,5.2727,0,0.00042031,4200.2,0.00014031,0.016591,0.00013597,-32.602,-0.00042085,-4216.4,0.44879
10670,7.0475,5.1818,0,0.00042258,4222.9,0.00014138,0.015259,0.00013618,-39.064,-0.00042323,-4242.3,0.43991
10671,7.0475,5.2727,0.05,9.9888e-07,9.9819,7.6701e-07,5.763,6.1113e-12,-7.7029e-06,-7.6702e-07,-5.7632,0.43935
10672,7.3239,5.2727,0,0.00041491,4146.3,0.00013839,0.014856,0.00013444,-29.639,-0.00041541,-4161,0.46782
10673,7.2317,5.1818,0,0.00041721,4169.2,0.00013944,0.01363,0.0001347,-35.662,-0.00041781,-4186.9,0.4588
10674,7.2317,5.2727,0.05,9.9313e-07,9.9244,7.6259e-07,5.7298,6.1992e-12,-6.6658e-06,-7.6261e-07,-5.73,0.45824
10675,7.5081,5.2727,0,0.00040954,4092.5,0.00013647,0.013316,0.0001329,-26.807,-0.00040999,-4105.9,0.48714
10676,7.416,5.1818,0,0.00041185,4115.7,0.00013751,0.012205,0.0001332,-32.414,-0.00041239,-4131.8,0.47797
10677,7.416,5.2727,0.05,9.8724e-07,9.8656,7.5807e-07,5.6958,8.1727e-12,-4.8337e-06,-7.5808e-07,-5.696,0.47741
10678,7.6924,5.2727,0,0.00040417,4038.9,0.00013457,0.011946,0.00013136,-24.113,-0.00040458,-4050.9,0.50673
10679,7.6003,5.1818,0,0.0004065,4062.2,0.0001356,0.010954,0.00013169,-29.327,-0.00040699,-4076.8,0.49742
10680,7.6003,5.2727,0.05,9.8129e-07,9.8061,7.535e-07,5.6615,6.5486e-12,-3.9129e-06,-7.5351e-07,-5.6617,0.49687
10681,7.8767,5.2727,0,0.00039882,3985.5,0.00013268,0.010726,0.00012981,-21.559,-0.00039919,-3996.2,0.5266
10682,7.7845,5.1818,0,0.00040117,4008.9,0.00013369,0.0098538,0.00013018,-26.403,-0.00040161,-4022.1,0.51714
10683,7.7845,5.2727,0.05,9.7535e-07,9.7468,7.4894e-07,5.6272,6.6463e-12,-3.5997e-06,-7.4895e-07,-5.6274,0.5166
10684,8.0609,5.2727,0,0.00039349,3932.2,0.0001308,0.0096388,0.00012825,-19.146,-0.00039381,-3941.7,0.54674
10685,7.9688,5.1818,0,0.00039585,3955.8,0.0001318,0.0088863,0.00012865,-23.642,-0.00039625,-3967.5,0.53714
10686,7.9688,5.2727,0.05,9.6946e-07,9.6879,7.4442e-07,5.5932,6.7865e-12,-2.924e-06,-7.4443e-07,-5.5934,0.5366
10687,8.2452,5.2727,0,0.00038817,3879,0.00012893,0.0086731,0.00012669,-16.872,-0.00038846,-3887.4,0.56715
10688,8.1531,5.1818,0,0.00039054,3902.7,0.00012992,0.0080361,0.00012712,-21.043,-0.0003909,-3913.2,0.55741
10689,8.1531,5.2727,0.05,9.6366e-07,9.63,7.3996e-07,5.5597,4.8548e-12,-2.4593e-06,-7.3998e-07,-5.56,0.55688
10690,8.4295,5.2727,0,0.00038287,3826,0.00012708,0.0078187,0.00012511,-14.733,-0.00038312,-3833.4,0.58782
10691,8.3373,5.1818,0,0.00038525,3849.8,0.00012805,0.007292,0.00012558,-18.601,-0.00038556,-3859.1,0.57794
10692,8.3373,5.2727,0.05,9.5797e-07,9.5731,7.3559e-07,5.5269,6.8724e-12,-2.224e-06,-7.3561e-07,-5.5271,0.57742
10693,8.6137,5.2727,0,0.00037758,3773.2,0.00012523,0.0070697,0.00012354,-12.726,-0.0003778,-3779.5,0.60874
10694,8.5216,5.1818,0,0.00037997,3797.1,0.0001262,0.0066456,0.00012403,-16.311,-0.00038025,-3805.2,0.59874
10695,8.5216,5.2727,0.05,9.5239e-07,9.5173,7.3131e-07,5.4948,6.8575e-12,-1.2881e-06,-7.3133e-07,-5.4949,0.59822
10696,8.798,5.2727,0,0.00037231,3720.5,0.0001234,0.0064247,0.00012196,-10.845,-0.00037249,-3725.9,0.62993
10697,8.7059,5.1818,0,0.00037471,3744.5,0.00012436,0.0060926,0.00012247,-14.166,-0.00037495,-3751.6,0.61979
10698,8.7059,5.2727,0.05,9.4694e-07,9.4629,7.2713e-07,5.4633,6.9486e-12,-1.4294e-06,-7.2714e-07,-5.4635,0.61928
10699,8.9823,5.2727,0,0.00036706,3668,0.00012158,0.0058879,0.00012037,-9.0849,-0.00036721,-3672.6,0.65137
10700,8.8901,5.1818,0,0.00036946,3692.1,0.00012252,0.0056319,0.0001209,-12.161,-0.00036967,-3698.1,0.6411
10701,8.8901,5.2727,0.05,9.4162e-07,9.4097,7.2304e-07,5.4326,4.2555e-12,-1.0023e-06,-7.2305e-07,-5.4328,0.64059
10702,9.1665,5.2727,0,0.00036182,3615.7,0.00011977,0.0054734,0.00011878,-7.4386,-0.00036194,-3619.4,0.67306
10703,9.0744,5.1818,0,0.00036423,3639.8,0.0001207,0.0052693,0.00011933,-10.287,-0.0003644,-3644.9,0.66266
10704,9.0744,5.2727,0.05,9.3642e-07,9.3578,7.1905e-07,5.4026,6.1272e-12,-5.6916e-07,-7.1906e-07,-5.4028,0.66215
10705,9.3508,5.2727,0,0.0003566,3563.5,0.00011797,0.0052144,0.00011718,-5.9002,-0.0003567,-3566.4,0.69499
10706,9.2587,5.1818,0,0.00035901,3587.6,0.0001189,0.005018,0.00011776,-8.5374,-0.00035915,-3591.9,0.68446
10707,9.2587,5.2727,0.05,9.3135e-07,9.3071,7.1515e-07,5.3734,6.1296e-12,-4.7135e-08,-7.1517e-07,-5.3735,0.68396
10708,9.5351,5.2727,0,0.00035139,3511.5,0.00011618,0.0051873,0.00011559,-4.4637,-0.00035147,-3513.7,0.71716
10709,9.4429,5.1818,0,0.00035381,3535.7,0.0001171,0.0049087,0.00011618,-6.9052,-0.00035393,-3539.1,0.70651
10710,9.4429,5.2727,0.05,9.264e-07,9.2576,7.1136e-07,5.3448,6.1893e-12,3.7524e-08,-7.1136e-07,-5.345,0.70602
10711,9.7193,5.2727,0,0.00034621,3459.7,0.0001144,0.0056001,0.00011399,-3.1227,-0.00034626,-3461.2,0.73958
10712,9.6272,5.1818,0,0.00034862,3483.8,0.00011531,0.0050031,0.0001146,-5.3831,-0.00034872,-3486.5,0.7288
10713,9.6272,5.2727,0.05,9.2156e-07,9.2093,7.0764e-07,5.3169,7.0471e-12,8.5317e-07,-7.0766e-07,-5.3171,0.72831
10714,9.9036,5.2727,0,0.00034104,3408,0.00011264,0.00716,0.00011238,-1.8721,-0.00034107,-3408.9,0.76222
10715,9.8115,5.1818,0,0.00034346,3432.2,0.00011354,0.0054625,0.00011301,-3.9641,-0.00034352,-3434.2,0.75132
10716,9.8115,5.2727,0.05,9.1684e-07,9.162,7.0401e-07,5.2896,6.2111e-12,1.1309e-06,-7.0402e-07,-5.2898,0.75084
10717,10.088,5.2727,0,0.00033588,3356.5,0.00011088,0.014935,0.00011078,-0.71081,-0.00033589,-3356.9,0.7851
10718,9.9957,5.1818,0,0.0003383,3380.7,0.00011177,0.0066938,0.00011142,-2.6417,-0.00033835,-3382,0.77408
10719,9.9957,5.2727,0.05,9.1221e-07,9.1158,7.0046e-07,5.2629,6.2384e-12,9.0914e-07,-7.0047e-07,-5.2631,0.77361
10720,10.272,5.2727,0,0.00033075,3305.2,0.00010918,0.41707,0.00010912,-0.021318,-0.00033074,-3305,0.80821
10721,10.18,5.1818,0,0.00033317,3329.4,0.00011002,0.010508,0.00010983,-1.4113,-0.00033319,-3330.1,0.79706
10722,10.18,5.2727,0.05,9.0768e-07,9.0705,6.9698e-07,5.2368,5.3585e-12,1.5484e-06,-6.9699e-07,-5.237,0.7966
10723,10.456,5.2727,0,0.00032563,3254.1,0.00010758,1.421,0.00010739,-0.0056632,-0.00032561,-3253.4,0.83154
10724,10.364,5.1818,0,0.00032805,3278.2,0.00010827,0.043921,0.00010823,-0.29332,-0.00032805,-3278.4,0.82028
10725,10.364,5.2727,0.05,9.0324e-07,9.0262,6.9357e-07,5.2112,5.3735e-12,1.2891e-06,-6.9358e-07,-5.2114,0.81982
10726,10.641,5.2727,0,0.00032053,3203.1,0.00010597,2.3716,0.00010566,-0.0033488,-0.00032049,-3201.9,0.85509
10727,10.549,5.1818,0,0.00032295,3227.3,0.00010664,0.83874,0.00010653,-0.013941,-0.00032294,-3226.9,0.84371
10728,10.549,5.2727,0.05,8.9888e-07,8.9826,6.9022e-07,5.186,5.37e-12,1.8015e-06,-6.9024e-07,-5.1862,0.84326
10729,10.825,5.2727,0,0.00031545,3152.3,0.00010437,3.262,0.00010394,-0.0025441,-0.0003154,-3150.7,0.87885
10730,10.733,5.1818,0,0.00031787,3176.5,0.00010505,1.8339,0.0001048,-0.0060572,-0.00031783,-3175.5,0.86736
10731,10.733,5.2727,0.05,8.9459e-07,8.9397,6.8693e-07,5.1613,5.386e-12,1.7574e-06,-6.8694e-07,-5.1614,0.86692
10732,11.009,5.2727,0,0.00031039,3101.7,0.00010277,4.0958,0.00010223,-0.0022112,-0.00031032,-3099.7,0.90284
10733,10.917,5.1818,0,0.0003128,3125.8,0.00010346,2.769,0.00010309,-0.0039325,-0.00031275,-3124.5,0.89123
10734,10.917,5.2727,0.05,8.9038e-07,8.8976,6.837e-07,5.1369,6.3145e-12,1.6653e-06,-6.837e-07,-5.1372,0.89079
10735,11.193,5.2727,0,0.00030534,3051.3,0.00010117,4.8771,0.00010052,-0.0020995,-0.00030526,-3048.9,0.92703
10736,11.101,5.1818,0,0.00030775,3075.4,0.00010186,3.6445,0.00010138,-0.0030505,-0.00030769,-3073.6,0.91531
10737,11.101,5.2727,0.05,8.8624e-07,8.8563,6.8052e-07,5.1131,3.5934e-12,1.8445e-06,-6.8053e-07,-5.1132,0.91488
10738,11.378,5.2727,0,0.00030032,3001.1,9.9574e-05,5.6101,9.8827e-05,-0.0021057,-0.00030022,-2998.3,0.95143
10739,11.286,5.1818,0,0.00030272,3025.1,0.00010027,4.4644,9.9676e-05,-0.0026169,-0.00030264,-3022.9,0.9396
10740,11.286,5.2727,0.05,8.8216e-07,8.8155,6.7738e-07,5.0896,5.4263e-12,1.6067e-06,-6.774e-07,-5.0897,0.93917
10741,11.562,5.2727,0,0.00029531,2951.1,9.7979e-05,6.2986,9.714e-05,-0.0021606,-0.0002952,-2947.9,0.97603
10742,11.47,5.1818,0,0.00029771,2975,9.8681e-05,5.2329,9.7984e-05,-0.0024216,-0.00029762,-2972.4,0.9641
10743,11.47,5.2727,0.05,8.7813e-07,8.7753,6.7429e-07,5.0663,6.3459e-12,2.2011e-06,-6.743e-07,-5.0665,0.96368
10744,11.746,5.2727,0,0.00029032,2901.2,9.6386e-05,6.9464,9.5462e-05,-0.0022058,-0.0002902,-2897.7,1.0008
10745,11.654,5.1818,0,0.00029271,2925.1,9.7093e-05,5.9543,9.63e-05,-0.0022962,-0.00029261,-2922.1,0.98879
10746,11.654,5.2727,0.05,8.7415e-07,8.7354,6.7123e-07,5.0434,6.3534e-12,2.5052e-06,-6.7124e-07,-5.0435,0.98838
10747,11.931,5.2727,0,0.00028535,2851.5,9.4797e-05,7.5569,9.3791e-05,-0.0022648,-0.00028522,-2847.8,1.0258
10748,11.838,5.1818,0,0.00028774,2875.4,9.5508e-05,6.6325,9.4625e-05,-0.0021966,-0.00028763,-2872.1,1.0137
10749,11.838,5.2727,0.05,8.7022e-07,8.6962,6.6822e-07,5.0207,5.4529e-12,2.5355e-06,-6.6823e-07,-5.0208,1.0133
10750,12.115,5.2727,0,0.0002804,2802.1,9.3211e-05,8.1334,9.2129e-05,-0.0023523,-0.00028026,-2798,1.051
10751,12.023,5.1818,0,0.00028278,2825.9,9.3925e-05,7.2712,9.2957e-05,-0.0021683,-0.00028266,-2822.2,1.0388
10752,12.023,5.2727,0.05,8.6635e-07,8.6575,6.6524e-07,4.9983,6.3707e-12,3.1276e-06,-6.6525e-07,-4.9985,1.0384
10753,12.299,5.2727,0,0.00027547,2752.8,9.1629e-05,8.6789,9.0474e-05,-0.0024621,-0.00027532,-2748.4,1.0764
10754,12.207,5.1818,0,0.00027784,2776.5,9.2346e-05,7.8738,9.1298e-05,-0.0021718,-0.00027771,-2772.6,1.0641
10755,12.207,5.2727,0.05,8.6252e-07,8.6192,6.623e-07,4.9762,4.5594e-12,3.5812e-06,-6.6231e-07,-4.9764,1.0637
10756,12.483,5.2727,0,0.00027055,2703.7,9.0051e-05,9.1963,8.8827e-05,-0.0025698,-0.0002704,-2699.1,1.102
10757,12.391,5.1818,0,0.00027292,2727.3,9.077e-05,8.4437,8.9646e-05,-0.0022203,-0.00027278,-2723.1,1.0895
10758,12.391,5.2727,0.05,8.5872e-07,8.5812,6.5938e-07,4.9543,4.5647e-12,2.8841e-06,-6.5939e-07,-4.9545,1.0891
10759,12.668,5.2727,0,0.00026566,2654.8,8.8477e-05,9.6885,8.7188e-05,-0.0026428,-0.00026549,-2649.9,1.1277
10760,12.575,5.1818,0,0.00026802,2678.4,8.9198e-05,8.984,8.8002e-05,-0.0022441,-0.00026787,-2673.9,1.1152
10761,12.575,5.2727,0.05,8.5494e-07,8.5435,6.5648e-07,4.9325,5.4774e-12,2.7433e-06,-6.5649e-07,-4.9327,1.1148
10762,12.852,5.2727,0,0.00026079,2606.1,8.6908e-05,10.158,8.5556e-05,-0.0027127,-0.00026061,-2601,1.1536
10763,12.76,5.1818,0,0.00026314,2629.6,8.7629e-05,9.4976,8.6365e-05,-0.0022398,-0.00026298,-2624.8,1.141
10764,12.76,5.2727,0.05,8.5121e-07,8.5063,6.5362e-07,4.911,4.5762e-12,3.5453e-06,-6.5363e-07,-4.9112,1.1406
10765,13.036,5.2727,0,0.00025593,2557.5,8.5343e-05,10.607,8.3931e-05,-0.0027978,-0.00025575,-2552.2,1.1797
10766,12.944,5.1818,0,0.00025828,2581,8.6066e-05,9.9872,8.4736e-05,-0.0022698,-0.00025811,-2576,1.167
10767,12.944,5.2727,0.05,8.4752e-07,8.4694,6.5079e-07,4.8897,4.5775e-12,3.6496e-06,-6.508e-07,-4.8899,1.1666
10768,13.22,5.2727,0,0.0002511,2509.2,8.3783e-05,11.038,8.2314e-05,-0.0028975,-0.00025091,-2503.7,1.206
10769,13.128,5.1818,0,0.00025343,2532.6,8.4506e-05,10.456,8.3114e-05,-0.0023076,-0.00025325,-2527.3,1.1932
10770,13.128,5.2727,0.05,8.4386e-07,8.4328,6.4798e-07,4.8686,4.5822e-12,4.9045e-06,-6.4798e-07,-4.8687,1.1928
10771,13.405,5.2727,0,0.00024628,2461.1,8.2229e-05,11.454,8.0704e-05,-0.002993,-0.00024608,-2455.3,1.2325
10772,13.313,5.1818,0,0.00024861,2484.4,8.2952e-05,10.905,8.15e-05,-0.0023757,-0.00024842,-2478.9,1.2196
10773,13.313,5.2727,0.05,8.4022e-07,8.3964,6.4518e-07,4.8476,3.677e-12,4.7227e-06,-6.4519e-07,-4.8477,1.2192
10774,13.589,5.2727,0,0.00024148,2413.2,8.0679e-05,11.855,7.9101e-05,-0.003054,-0.00024128,-2407.2,1.2591
10775,13.497,5.1818,0,0.0002438,2436.4,8.1402e-05,11.338,7.9893e-05,-0.0024108,-0.00024361,-2430.7,1.2461
10776,13.497,5.2727,0.05,8.366e-07,8.3602,6.424e-07,4.8267,3.67e-12,4.865e-06,-6.4241e-07,-4.8268,1.2457
10777,13.773,5.2727,0,0.00023671,2365.4,7.9135e-05,12.245,7.7505e-05,-0.0031112,-0.00023649,-2359.3,1.2859
10778,13.681,5.1818,0,0.00023902,2388.5,7.9858e-05,11.757,7.8293e-05,-0.0024163,-0.00023882,-2382.6,1.2728
10779,13.681,5.2727,0.05,8.3301e-07,8.3244,6.3965e-07,4.806,3.6783e-12,3.7459e-06,-6.3966e-07,-4.8061,1.2724
10780,13.957,5.2727,0,0.00023195,2317.9,7.7597e-05,12.625,7.5916e-05,-0.0031824,-0.00023173,-2311.5,1.3128
10781,13.865,5.1818,0,0.00023425,2340.9,7.8319e-05,12.163,7.67e-05,-0.0024482,-0.00023404,-2334.8,1.2996
10782,13.865,5.2727,0.05,8.2946e-07,8.2888,6.3692e-07,4.7855,3.6747e-12,4.2857e-06,-6.3692e-07,-4.7856,1.2993
10783,14.142,5.2727,0,0.00022721,2270.5,7.6065e-05,12.997,7.4334e-05,-0.0032667,-0.00022699,-2264,1.3399
10784,14.05,5.1818,0,0.00022951,2293.5,7.6786e-05,12.559,7.5114e-05,-0.0024852,-0.00022929,-2287.2,1.3266
10785,14.05,5.2727,0.05,8.2592e-07,8.2535,6.342e-07,4.7651,3.692e-12,4.5936e-06,-6.3421e-07,-4.7652,1.3263
10786,14.326,5.2727,0,0.00022249,2223.4,7.4538e-05,13.363,7.2759e-05,-0.0033472,-0.00022226,-2216.7,1.3671
10787,14.234,5.1818,0,0.00022478,2246.2,7.5258e-05,12.948,7.3535e-05,-0.0025463,-0.00022456,-2239.7,1.3538
10788,14.234,5.2727,0.05,8.2241e-07,8.2184,6.315e-07,4.7448,3.696e-12,4.127e-06,-6.3151e-07,-4.745,1.3535
10789,14.51,5.2727,0,0.00021779,2176.4,7.3018e-05,13.724,7.1191e-05,-0.0033973,-0.00021756,-2169.5,1.3945
10790,14.418,5.1818,0,0.00022007,2199.2,7.3737e-05,13.33,7.1963e-05,-0.002578,-0.00021984,-2192.5,1.3811
10791,14.418,5.2727,0.05,8.1891e-07,8.1834,6.2881e-07,4.7246,3.6906e-12,4.6035e-06,-6.2882e-07,-4.7248,1.3808
10792,14.695,5.2727,0,0.00021312,2129.7,7.1504e-05,14.083,6.9629e-05,-0.0034447,-0.00021287,-2122.6,1.4221
10793,14.602,5.1818,0,0.00021539,2152.4,7.2222e-05,13.707,7.0397e-05,-0.0025802,-0.00021515,-2145.5,1.4086
10794,14.602,5.2727,0.05,8.1543e-07,8.1487,6.2615e-07,4.7047,2.7763e-12,5.1494e-06,-6.2616e-07,-4.7047,1.4083
10795,14.879,5.2727,0,0.00020846,2083.1,6.9997e-05,14.44,6.8075e-05,-0.0035076,-0.00020821,-2075.9,1.4498
10796,14.787,5.1818,0,0.00021072,2105.7,7.0713e-05,14.082,6.8838e-05,-0.0026068,-0.00021048,-2098.7,1.4362
10797,14.787,5.2727,0.05,8.1199e-07,8.1143,6.235e-07,4.6847,3.6702e-12,6.2457e-06,-6.2351e-07,-4.6849,1.4359
10798,15.063,5.2727,0,0.00020382,2036.8,6.8496e-05,14.798,6.6526e-05,-0.0035829,-0.00020357,-2029.4,1.4776
10799,14.971,5.1818,0,0.00020607,2059.3,6.9211e-05,14.457,6.7286e-05,-0.0026393,-0.00020582,-2052,1.4639
10800,14.971,5.2727,0.05,8.0857e-07,8.0801,6.2087e-07,4.665,3.6716e-12,4.7202e-06,-6.2088e-07,-4.6651,1.4636
10801,15.247,5.2727,0,0.0001992,1990.7,6.7002e-05,15.157,6.4984e-05,-0.0036559,-0.00019894,-1983,1.5056
10802,15.155,5.1818,0,0.00020145,2013.1,6.7715e-05,14.832,6.5741e-05,-0.0026921,-0.00020119,-2005.6,1.4918
10803,15.155,5.2727,0.05,8.0516e-07,8.046,6.1826e-07,4.6453,2.7742e-12,6.2075e-06,-6.1827e-07,-4.6454,1.4915
10804,15.432,5.2727,0,0.00019461,1944.7,6.5515e-05,15.52,6.3449e-05,-0.003704,-0.00019434,-1936.9,1.5337
10805,15.339,5.1818,0,0.00019684,1967,6.6226e-05,15.21,6.4202e-05,-0.002719,-0.00019658,-1959.4,1.5199
10806,15.339,5.2727,0.05,8.0177e-07,8.0121,6.1565e-07,4.6258,2.7964e-12,5.2887e-06,-6.1566e-07,-4.6258,1.5196
10807,15.616,5.2727,0,0.00019003,1899,6.4035e-05,15.888,6.192e-05,-0.0037511,-0.00018975,-1891,1.5619
10808,15.524,5.1818,0,0.00019225,1921.2,6.4744e-05,15.592,6.2669e-05,-0.0027208,-0.00019198,-1913.3,1.548
10809,15.524,5.2727,0.05,7.984e-07,7.9785,6.1307e-07,4.6064,1.8792e-12,4.0299e-06,-6.1308e-07,-4.6064,1.5477
10810,15.8,5.2727,0,0.00018547,1853.4,6.2563e-05,16.262,6.0398e-05,-0.003812,-0.00018519,-1845.2,1.5903
10811,15.708,5.1818,0,0.00018769,1875.6,6.327e-05,15.98,6.1143e-05,-0.0027436,-0.00018741,-1867.5,1.5763
10812,15.708,5.2727,0.05,7.9507e-07,7.9452,6.1051e-07,4.5871,3.7006e-12,3.0771e-06,-6.1051e-07,-4.5872,1.576
10813,15.984,5.2727,0,0.00018093,1808.1,6.1097e-05,16.645,5.8881e-05,-0.0038861,-0.00018065,-1799.7,1.6187
10814,15.892,5.1818,0,0.00018314,1830.1,6.1803e-05,16.377,5.9623e-05,-0.0027715,-0.00018285,-1821.9,1.6047
10815,15.892,5.2727,0.05,7.9175e-07,7.9121,6.0796e-07,4.568,2.7943e-12,4.0231e-06,-6.0797e-07,-4.5681,1.6045
10816,16.169,5.2727,0,0.00017642,1763,5.9639e-05,17.038,5.7371e-05,-0.0039596,-0.00017612,-1754.4,1.6473
10817,16.077,5.1818,0,0.00017861,1784.9,6.0343e-05,16.783,5.8109e-05,-0.0028187,-0.00017832,-1776.4,1.6333
10818,16.077,5.2727,0.05,7.8846e-07,7.8791,6.0544e-07,4.549,2.3313e-12,4.2847e-06,-6.0544e-07,-4.5491,1.633
10819,16.353,5.2727,0,0.00017192,1718,5.8189e-05,17.442,5.5867e-05,-0.0040121,-0.00017162,-1709.2,1.6761
10820,16.261,5.1818,0,0.00017411,1739.9,5.8891e-05,17.2,5.6601e-05,-0.0028422,-0.00017381,-1731.2,1.6619
10821,16.261,5.2727,0.05,7.8518e-07,7.8464,6.0292e-07,4.5301,2.7864e-12,5.2175e-06,-6.0292e-07,-4.5302,1.6617
10822,16.537,5.2727,0,0.00016745,1673.3,5.6747e-05,17.859,5.437e-05,-0.0040658,-0.00016713,-1664.3,1.7049
10823,16.445,5.1818,0,0.00016962,1695.1,5.7447e-05,17.631,5.51e-05,-0.0028445,-0.00016932,-1686.2,1.6907
10824,16.445,5.2727,0.05,7.8194e-07,7.814,6.0043e-07,4.5114,2.8041e-12,5.1728e-06,-6.0043e-07,-4.5114,1.6905
10825,16.721,5.2727,0,0.00016299,1628.8,5.5313e-05,18.29,5.2878e-05,-0.0041341,-0.00016267,-1619.6,1.7339
10826,16.629,5.1818,0,0.00016516,1650.4,5.601e-05,18.076,5.3604e-05,-0.0028662,-0.00016484,-1641.3,1.7196
10827,16.629,5.2727,0.05,7.7873e-07,7.7819,5.9796e-07,4.4928,1.8968e-12,5.9053e-06,-5.9797e-07,-4.4929,1.7194
10828,16.906,5.2727,0,0.00015855,1584.5,5.3886e-05,18.738,5.1392e-05,-0.0042151,-0.00015823,-1575,1.7629
10829,16.814,5.1818,0,0.00016071,1606,5.4582e-05,18.539,5.2114e-05,-0.0028918,-0.00016039,-1596.7,1.7486
10830,16.814,5.2727,0.05,7.7554e-07,7.7501,5.9552e-07,4.4745,3.2646e-12,4.6087e-06,-5.9552e-07,-4.4745,1.7484
10831,17.09,5.2727,0,0.00015414,1540.3,5.2468e-05,19.205,4.9912e-05,-0.004297,-0.0001538,-1530.6,1.7921
10832,16.998,5.1818,0,0.00015629,1561.8,5.3163e-05,19.021,5.0631e-05,-0.0029341,-0.00015596,-1552.2,1.7777
10833,16.998,5.2727,0.05,7.7239e-07,7.7185,5.9309e-07,4.4563,1.9075e-12,5.5509e-06,-5.931e-07,-4.4563,1.7775
10834,17.274,5.2727,0,0.00014975,1496.4,5.1059e-05,19.691,4.8437e-05,-0.0043624,-0.0001494,-1486.5,1.8214
10835,17.182,5.1818,0,0.00015189,1517.8,5.1751e-05,19.524,4.9153e-05,-0.0029563,-0.00015155,-1508,1.8069
10836,17.182,5.2727,0.05,7.6925e-07,7.6872,5.9069e-07,4.4382,1.9089e-12,5.3379e-06,-5.9069e-07,-4.4383,1.8067
10837,17.459,5.2727,0,0.00014537,1452.7,4.9658e-05,20.199,4.6969e-05,-0.0044299,-0.00014502,-1442.5,1.8507
10838,17.366,5.1818,0,0.00014751,1474,5.0349e-05,20.05,4.768e-05,-0.0029594,-0.00014715,-1463.9,1.8362
10839,17.366,5.2727,0.05,7.6616e-07,7.6564,5.8832e-07,4.4204,1.9301e-12,4.985e-06,-5.8832e-07,-4.4204,1.836
10840,17.643,5.2727,0,0.00014102,1409.2,4.8265e-05,20.732,4.5505e-05,-0.0045137,-0.00014066,-1398.7,1.8802
10841,17.551,5.1818,0,0.00014314,1430.5,4.8956e-05,20.601,4.6213e-05,-0.0029788,-0.00014278,-1420,1.8657
10842,17.551,5.2727,0.05,7.6311e-07,7.6259,5.8597e-07,4.4028,2.3707e-12,6.0394e-06,-5.8598e-07,-4.4028,1.8654
10843,17.827,5.2727,0,0.00013669,1365.9,4.6882e-05,21.29,4.4048e-05,-0.0046084,-0.00013631,-1355.2,1.9098
10844,17.735,5.1818,0,0.0001388,1387.1,4.7571e-05,21.18,4.4752e-05,-0.0030034,-0.00013843,-1376.4,1.8952
10845,17.735,5.2727,0.05,7.601e-07,7.5958,5.8366e-07,4.3854,1.9177e-12,4.1066e-06,-5.8367e-07,-4.3855,1.895
10846,18.011,5.2727,0,0.00013238,1322.8,4.5508e-05,21.877,4.2595e-05,-0.0047038,-0.00013199,-1311.8,1.9394
10847,17.919,5.1818,0,0.00013448,1343.9,4.6196e-05,21.789,4.3296e-05,-0.0030391,-0.0001341,-1332.9,1.9248
10848,17.919,5.2727,0.05,7.5713e-07,7.5661,5.8138e-07,4.3683,2.3993e-12,4.9722e-06,-5.8139e-07,-4.3683,1.9246
10849,18.196,5.2727,0,0.00012808,1280,4.4143e-05,22.494,4.1148e-05,-0.0047883,-0.00012769,-1268.6,1.9692
10850,18.103,5.1818,0,0.00013019,1301,4.4831e-05,22.431,4.1845e-05,-0.0030569,-0.00012979,-1289.6,1.9545
10851,18.103,5.2727,0.05,7.542e-07,7.5368,5.7913e-07,4.3513,1.9512e-12,4.8646e-06,-5.7913e-07,-4.3514,1.9543
10852,18.38,5.2727,0,0.00012381,1237.3,4.2787e-05,23.144,3.9706e-05,-0.0048744,-0.0001234,-1225.5,1.999
10853,18.288,5.1818,0,0.00012591,1258.2,4.3475e-05,23.109,4.0399e-05,-0.0030559,-0.0001255,-1246.5,1.9843
10854,18.288,5.2727,0.05,7.5132e-07,7.508,5.7692e-07,4.3347,1.9659e-12,5.7976e-06,-5.7692e-07,-4.3348,1.9841
10855,18.564,5.2727,0,0.00011956,1194.8,4.1441e-05,23.83,3.8269e-05,-0.0049731,-0.00011914,-1182.7,2.0289
10856,18.472,5.1818,0,0.00012165,1215.7,4.213e-05,23.824,3.8958e-05,-0.0030667,-0.00012123,-1203.6,2.0141
10857,18.472,5.2727,0.05,7.485e-07,7.4798,5.7475e-07,4.3185,1.515e-12,8.5101e-06,-5.7475e-07,-4.3185,2.0139
10858,18.748,5.2727,0,0.00011533,1152.5,4.0105e-05,24.553,3.6837e-05,-0.005084,-0.0001149,-1140.1,2.0589
10859,18.656,5.1818,0,0.00011741,1173.3,4.0794e-05,24.581,3.7522e-05,-0.0030794,-0.00011698,-1160.8,2.0441
10860,18.656,5.2727,0.05,7.4573e-07,7.4522,5.7263e-07,4.3025,1.5472e-12,4.8834e-06,-5.7263e-07,-4.3025,2.0439
10861,18.933,5.2727,0,0.00011112,1110.5,3.878e-05,25.317,3.5409e-05,-0.0051956,-0.00011067,-1097.6,2.089
10862,18.841,5.1818,0,0.0001132,1131.2,3.9469e-05,25.382,3.6091e-05,-0.0030995,-0.00011275,-1118.3,2.0741
10863,18.841,5.2727,0.05,7.4302e-07,7.4251,5.7055e-07,4.2869,1.5826e-12,4.0551e-06,-5.7055e-07,-4.2869,2.0739
10864,19.117,5.2727,0,0.00010694,1068.6,3.7464e-05,26.125,3.3986e-05,-0.0052948,-0.00010647,-1055.3,2.1191
10865,19.025,5.1818,0,0.000109,1089.3,3.8155e-05,26.23,3.4664e-05,-0.0030969,-0.00010853,-1075.9,2.1042
10866,19.025,5.2727,0.05,7.4037e-07,7.3986,5.6852e-07,4.2716,2.0021e-12,6.0744e-06,-5.6852e-07,-4.2716,2.104
10867,19.301,5.2727,0,0.00010277,1027,3.6159e-05,26.979,3.2568e-05,-0.0053942,-0.00010228,-1013.2,2.1493
10868,19.209,5.1818,0,0.00010483,1047.6,3.6852e-05,27.13,3.3241e-05,-0.0030735,-0.00010434,-1033.8,2.1344
10869,19.209,5.2727,0.05,7.378e-07,7.3729,5.6654e-07,4.2567,1.1465e-12,5.9852e-06,-5.6654e-07,-4.2568,2.1342
10870,19.485,5.2727,0,9.862e-05,985.52,3.4865e-05,27.883,3.1153e-05,-0.0055008,-9.8116e-05,-971.28,2.1796
10871,19.393,5.1818,0,0.00010068,1006.1,3.5561e-05,28.084,3.1823e-05,-0.0030531,-0.00010017,-991.76,2.1646
10872,19.393,5.2727,0.05,7.3531e-07,7.348,5.6462e-07,4.2424,1.1754e-12,7.4404e-06,-5.6463e-07,-4.2424,2.1645
10873,19.67,5.2727,0,9.4493e-05,944.28,3.3582e-05,28.84,2.9743e-05,-0.00561,-9.3969e-05,-929.53,2.21
10874,19.578,5.1818,0,9.6548e-05,964.81,3.4281e-05,29.098,3.0408e-05,-0.0030203,-9.602e-05,-949.93,2.1949
10875,19.578,5.2727,0.05,7.3289e-07,7.3239,5.6277e-07,4.2284,1.2025e-12,8.1128e-06,-5.6277e-07,-4.2284,2.1948
10876,19.854,5.2727,0,9.0386e-05,903.24,3.231e-05,29.854,2.8336e-05,-0.0057109,-8.9842e-05,-887.95,2.2404
10877,19.762,5.1818,0,9.2438e-05,923.74,3.3014e-05,30.174,2.8997e-05,-0.0029821,-9.1888e-05,-908.29,2.2253
10878,19.762,5.2727,0.05,7.3057e-07,7.3006,5.6098e-07,4.215,1.6889e-12,7.9218e-06,-5.6099e-07,-4.215,2.2252
10879,20.038,5.2727,0,8.6301e-05,862.41,3.105e-05,30.93,2.6933e-05,-0.0057909,-8.5733e-05,-846.53,2.2709
10880,19.946,5.1818,0,8.835e-05,882.89,3.1759e-05,31.318,2.759e-05,-0.0029086,-8.7775e-05,-866.81,2.2557
10881,19.946,5.2727,0.05,7.2833e-07,7.2783,5.5927e-07,4.2021,1.42e-12,7.1756e-06,-5.5927e-07,-4.2021,2.2556
10882,20.223,5.2727,0,8.2235e-05,821.79,2.9802e-05,32.07,2.5533e-05,-0.0058563,-8.1643e-05,-805.28,2.3014
10883,20.13,5.1818,0,8.4283e-05,842.25,3.0516e-05,32.535,2.6186e-05,-0.0027955,-8.3682e-05,-825.51,2.2862
10884,20.13,5.2727,0.05,7.262e-07,7.257,5.5763e-07,4.1898,1.2048e-12,8.8869e-06,-5.5763e-07,-4.1898,2.2861
10885,20.407,5.2727,0,7.8191e-05,781.37,2.8567e-05,33.281,2.4136e-05,-0.0059032,-7.7572e-05,-764.2,2.332
10886,20.315,5.1818,0,8.0238e-05,801.82,2.9288e-05,33.831,2.4785e-05,-0.0026576,-7.9609e-05,-784.37,2.3168
10887,20.315,5.2727,0.05,7.2418e-07,7.2368,5.5608e-07,4.1782,1.2228e-12,1.0509e-05,-5.5608e-07,-4.1782,2.3167
10888,20.591,5.2727,0,7.4168e-05,741.17,2.7344e-05,34.568,2.2743e-05,-0.0059216,-7.3519e-05,-723.28,2.3626
10889,20.499,5.1818,0,7.6214e-05,761.62,2.8073e-05,35.211,2.3386e-05,-0.0024728,-7.5554e-05,-743.4,2.3474
10890,20.499,5.2727,0.05,7.2228e-07,7.2178,5.5462e-07,4.1672,9.0008e-13,1.0242e-05,-5.5462e-07,-4.1672,2.3473
10891,20.775,5.2727,0,7.0166e-05,701.17,2.6135e-05,35.936,2.1351e-05,-0.0058943,-6.9485e-05,-682.52,2.3933
10892,20.683,5.1818,0,7.2214e-05,721.64,2.6873e-05,36.683,2.199e-05,-0.0022338,-7.152e-05,-702.6,2.3781
10893,20.683,5.2727,0.05,7.205e-07,7.2001,5.5326e-07,4.157,9.007e-13,1.2742e-05,-5.5326e-07,-4.157,2.3779
10894,20.96,5.2727,0,6.6186e-05,661.4,2.494e-05,37.393,1.9962e-05,-0.0057961,-6.547e-05,-641.91,2.424
10895,20.867,5.1818,0,6.8236e-05,681.89,2.5688e-05,38.254,2.0596e-05,-0.0019067,-6.7505e-05,-661.96,2.4088
10896,20.867,5.2727,0.05,7.1886e-07,7.1837,5.52e-07,4.1475,6.7771e-13,1.1136e-05,-5.52e-07,-4.1475,2.4086
10897,21.144,5.2727,0,6.2228e-05,621.85,2.376e-05,38.947,1.8575e-05,-0.0056093,-6.1474e-05,-601.47,2.4548
10898,21.052,5.1818,0,6.4282e-05,642.38,2.4519e-05,39.935,1.9204e-05,-0.0014696,-6.3509e-05,-621.48,2.4395
10899,21.052,5.2727,0.05,7.1737e-07,7.1688,5.5085e-07,4.1389,1.0153e-12,1.1113e-05,-5.5085e-07,-4.1389,2.4394
10900,21.328,5.2727,0,5.8294e-05,582.54,2.2595e-05,40.608,1.719e-05,-0.0053078,-5.7497e-05,-561.17,2.4856
10901,21.236,5.1818,0,6.0352e-05,603.11,2.3368e-05,41.735,1.7813e-05,-0.00090227,-5.9534e-05,-581.16,2.4703
10902,21.236,5.2727,0.05,7.1604e-07,7.1555,5.4983e-07,4.1312,5.7694e-13,1.0829e-05,-5.4983e-07,-4.1312,2.4702
10903,21.512,5.2727,0,5.4385e-05,543.47,2.1448e-05,42.388,1.5806e-05,-0.0048472,-5.354e-05,-521.04,2.5165
10904,21.42,5.1818,0,5.6449e-05,564.1,2.2235e-05,43.668,1.6423e-05,-0.00016305,-5.5579e-05,-541,2.5011
10905,21.42,5.2727,0.05,7.1489e-07,7.1439,5.4895e-07,4.1246,1.3519e-12,9.258e-06,-5.4895e-07,-4.1246,2.501
10906,21.697,5.2727,0,5.0502e-05,504.68,2.032e-05,44.303,1.4423e-05,-0.004164,-4.9603e-05,-481.07,2.5473
10907,21.605,5.1818,0,5.2574e-05,525.37,2.1123e-05,45.75,1.5034e-05,0.00081023,-5.1646e-05,-501,2.532
10908,21.605,5.2727,0.05,7.1393e-07,7.1344,5.4821e-07,4.119,8.857e-13,1.0529e-05,-5.4821e-07,-4.119,2.5319
10909,21.881,5.2727,0,4.665e-05,466.17,1.9212e-05,46.372,1.304e-05,-0.0031643,-4.5687e-05,-441.26,2.5783
10910,21.789,5.1818,0,4.8729e-05,486.96,2.0033e-05,48.001,1.3644e-05,0.0021009,-4.7735e-05,-461.18,2.5629
10911,21.789,5.2727,0.05,7.1319e-07,7.1269,5.4764e-07,4.1147,7.8333e-13,1.0439e-05,-5.4764e-07,-4.1147,2.5628
10912,22.065,5.2727,0,4.283e-05,428.01,1.8128e-05,48.62,1.1657e-05,-0.0017257,-4.1795e-05,-401.62,2.6092
10913,21.973,5.1818,0,4.4919e-05,448.88,1.8968e-05,50.447,1.2254e-05,0.0038268,-4.3847e-05,-421.52,2.5938
10914,21.973,5.2727,0.05,7.1269e-07,7.122,5.4726e-07,4.1119,5.4182e-13,1.533e-05,-5.4726e-07,-4.1119,2.5937
10915,22.249,5.2727,0,3.905e-05,390.23,1.7072e-05,51.082,1.0273e-05,0.00032277,-3.7929e-05,-362.17,2.6402
10916,22.157,5.1818,0,4.1148e-05,411.2,1.7932e-05,53.12,1.0863e-05,0.0061318,-3.9986e-05,-382.06,2.6248
10917,22.157,5.2727,0.05,7.125e-07,7.1201,5.4711e-07,4.1108,6.0674e-13,1.9462e-05,-5.4711e-07,-4.1108,2.6247
10918,22.434,5.2727,0,3.5317e-05,352.92,1.6048e-05,53.804,8.8876e-06,0.0032658,-3.4092e-05,-322.93,2.6712
10919,22.342,5.1818,0,3.7425e-05,373.99,1.693e-05,56.064,9.4694e-06,0.009245,-3.6154e-05,-342.79,2.6558
10920,22.342,5.2727,0.05,7.1268e-07,7.1218,5.4725e-07,4.1118,8.0588e-13,1.4508e-05,-5.4725e-07,-4.1118,2.6557
10921,22.618,5.2727,0,3.1642e-05,316.21,1.5064e-05,56.848,7.4994e-06,0.0074725,-3.0289e-05,-283.92,2.7022
10922,22.526,5.1818,0,3.3759e-05,337.35,1.5968e-05,59.335,8.0725e-06,0.013548,-3.2355e-05,-303.75,2.6868
10923,22.526,5.2727,0.05,7.1332e-07,7.1283,5.4774e-07,4.1155,8.6102e-13,1.2475e-05,-5.4774e-07,-4.1155,2.6867
10924,22.802,5.2727,0,2.8045e-05,280.26,1.4131e-05,60.305,6.1068e-06,0.013847,-2.6528e-05,-245.19,2.7333
10925,22.71,5.1818,0,3.0166e-05,301.45,1.5055e-05,63.012,6.6707e-06,0.019443,-2.8595e-05,-264.96,2.7178
10926,22.71,5.2727,0.05,7.146e-07,7.1411,5.4872e-07,4.1229,9.0783e-13,1.0982e-05,-5.4872e-07,-4.1229,2.7177
10927,22.987,5.2727,0,2.4552e-05,245.35,1.3262e-05,64.3,4.7076e-06,0.022632,-2.2817e-05,-206.79,2.7643
10928,22.894,5.1818,0,2.6668e-05,266.5,1.4202e-05,67.2,5.262e-06,0.028412,-2.4881e-05,-226.46,2.7489
10929,22.894,5.2727,0.05,7.168e-07,7.1631,5.5042e-07,4.1356,1.0438e-12,1.1067e-05,-5.5042e-07,-4.1356,2.7488
10930,23.171,5.2727,0,2.1204e-05,211.89,1.2478e-05,69.012,3.2984e-06,0.039435,-1.9169e-05,-168.77,2.7954
10931,23.079,5.1818,0,2.33e-05,232.84,1.3426e-05,72.039,3.8432e-06,0.039619,-2.1223e-05,-188.3,2.7799
10932,23.079,5.2727,0.05,7.2041e-07,7.1991,5.5319e-07,4.1564,7.4997e-13,1.3074e-05,-5.5319e-07,-4.1564,2.7798
10933,23.355,5.2727,0,1.8067e-05,180.54,1.1804e-05,74.672,1.8728e-06,0.054885,-1.5599e-05,-131.22,2.8265
10934,23.263,5.1818,0,2.0114e-05,201,1.2746e-05,77.717,2.4109e-06,0.065542,-1.7631e-05,-150.52,2.811
10935,23.263,5.2727,0.05,7.2626e-07,7.2576,5.5768e-07,4.1902,8.0619e-13,1.1741e-05,-5.5768e-07,-4.1902,2.8109
10936,23.539,5.2727,0,1.5243e-05,152.32,1.1269e-05,81.595,4.2764e-07,0.13438,-1.2119e-05,-94.137,2.8576
10937,23.447,5.1818,0,1.7186e-05,171.74,1.2185e-05,84.445,9.5592e-07,0.076004,-1.4115e-05,-113.16,2.8421
10938,23.447,5.2727,0.05,7.3573e-07,7.3522,5.6495e-07,4.2448,7.287e-13,1.0814e-05,-5.6495e-07,-4.2448,2.842
10939,23.724,5.2727,0,1.2896e-05,128.87,1.0911e-05,90.071,-1.0646e-06,0.090178,-8.7373e-06,-57.559,2.8887
10940,23.631,5.1818,0,1.4638e-05,146.28,1.1765e-05,92.517,-5.1679e-07,0.23875,-1.0683e-05,-76.144,2.8732
10941,23.631,5.2727,0.05,7.5206e-07,7.5154,5.7749e-07,4.339,1.0308e-12,1.27e-05,-5.7749e-07,-4.339,2.8731
10942,23.816,5.1818,0,1.2664e-05,126.55,1.1517e-05,102.05,-2.0581e-06,0.047897,-7.3318e-06,-39.577,2.9043
10943,23.816,5.2727,0.05,7.958e-07,7.9526,6.1108e-07,4.5914,1.1071e-12,9.3499e-06,-6.1108e-07,-4.5914,2.9042
10944,23.908,5.2727,0,1.1144e-05,111.37,1.0596e-05,98.642,-2.4834e-06,0.36902,-5.5034e-06,-22.322,2.9198
10945,1.2431,5.0909,0,0.00038658,3863.1,0.00022694,1247.6,6.019e-05,-5.3464,-0.00034988,-3086.5,0.0087882
10946,1.1509,5,0,0.00045194,4516.3,0.0002905,1795.6,4.9999e-05,-11.444,-0.00039359,-3344.4,0.0055267
10947,1.1509,5.0909,0.05,1.9109e-05,190.96,1.4673e-05,110.25,-4.6303e-12,-2.0452e-05,-1.4673e-05,-110.25,0.0039841
10948,1.0588,5.0909,0,0.00032118,3209.5,0.00020249,1228.2,3.9476e-05,3.3431,-0.00028218,-2413.4,0.0025106
10949,1.4273,5.0909,0,0.00038989,3896.3,0.00019834,861.55,8.3473e-05,-1.5164,-0.00036802,-3393.9,0.017584
10950,1.3352,5,0,0.00042775,4274.6,0.00023747,1203.8,7.7278e-05,0.12142,-0.00039436,-3543.6,0.013998
10951,1.3352,5.0909,0.05,1.4156e-05,141.47,1.087e-05,81.676,-8.2217e-12,-9.5019e-05,-1.087e-05,-81.676,0.012902
10952,1.6116,5.0909,0,0.00041308,4128,0.00018813,633.21,0.00010353,-2.4385,-0.00039866,-3775.7,0.026661
10953,1.5195,5,0,0.00043892,4386.2,0.00021462,858.52,9.9943e-05,-3.1494,-0.00041797,-3894.5,0.022878
10954,1.5195,5.0909,0.05,1.2136e-05,121.28,9.3192e-06,70.021,-1.1858e-11,-0.00012731,-9.3192e-06,-70.021,0.021946
10955,1.7959,5.0909,0,0.00043875,4384.5,0.00018383,473.79,0.00012051,-1.9963,-0.00042878,-4129.2,0.035983
10956,1.7037,5,0,0.00045668,4563.6,0.00020119,615.32,0.000119,-2.229,-0.0004431,-4225.6,0.032008
10957,1.7037,5.0909,0.05,9.9592e-06,99.524,7.6475e-06,57.46,-1.5234e-11,-0.0001546,-7.6474e-06,-57.46,0.031181
10958,1.9801,5.0909,0,0.00046196,4616.5,0.00018193,355.91,0.00013432,-1.8203,-0.0004549,-4429,0.045577
10959,1.888,5,0,0.00047469,4743.7,0.00019303,440.19,0.00013415,-2.2047,-0.00046569,-4509.2,0.041408
10960,1.888,5.0909,0.05,7.9708e-06,79.653,6.1206e-06,45.987,-1.476e-11,-0.00016843,-6.1205e-06,-45.987,0.040656
10961,2.1644,5.0909,0,0.00048096,4806.2,0.00018075,264.9,0.00014527,-1.6385,-0.00047592,-4669.1,0.055468
10962,2.0723,5,0,0.00049032,4899.8,0.00018772,311.97,0.00014594,-2.0214,-0.00048429,-4737.3,0.051104
10963,2.0723,5.0909,0.05,6.2973e-06,62.929,4.8355e-06,36.332,-1.5758e-11,-0.00017561,-4.8355e-06,-36.332,0.050408
10964,2.3487,5.0909,0,0.00049545,4951.1,0.00017954,192.18,0.00015375,-1.5568,-0.00049192,-4852.9,0.065675
10965,2.2565,5,0,0.00050261,5022.6,0.00018386,215.58,0.0001549,-2.0037,-0.00049862,-4912.3,0.061119
10966,2.2565,5.0909,0.05,4.9459e-06,49.425,3.7979e-06,28.536,-1.8186e-11,-0.0001931,-3.7979e-06,-28.536,0.060463
10967,2.5329,5.0909,0,0.00050584,5054.9,0.00017806,132.86,0.00016017,-1.5784,-0.00050347,-4987.9,0.076213
10968,2.4408,5,0,0.00051151,5111.6,0.00018067,141.4,0.00016157,-2.1359,-0.00050899,-5040.5,0.071465
10969,2.4408,5.0909,0.05,3.8736e-06,38.709,2.9744e-06,22.349,-1.9978e-11,-0.00020932,-2.9744e-06,-22.349,0.07084
10970,2.7172,5.0909,0,0.00051274,5123.8,0.0001763,84.114,0.00016487,-1.7817,-0.00051128,-5082.1,0.087091
10971,2.6251,5,0,0.00051739,5170.3,0.00017782,83.452,0.00016637,-2.5865,-0.00051596,-5129.4,0.082155
10972,2.6251,5.0909,0.05,3.0307e-06,30.286,2.3272e-06,17.486,-2.2829e-11,-0.00022216,-2.3272e-06,-17.486,0.081551
10973,2.9015,5.0909,0,0.00051679,5164.3,0.00017436,44.378,0.00016813,-2.4541,-0.00051606,-5143.2,0.098316
10974,2.8093,5,0,0.00052071,5203.5,0.00017525,38.556,0.00016958,-4.064,-0.00052011,-5186.2,0.093194
10975,2.8093,5.0909,0.05,2.3756e-06,23.74,1.8242e-06,13.706,-2.6283e-11,-0.00023704,-1.8242e-06,-13.706,0.092605
10976,3.0857,5.0909,0,0.00051856,5182.1,0.0001726,14.371,0.00016995,-5.593,-0.00051841,-5177.6,0.10989
10977,2.9936,5,0,0.00052196,5216,0.00017364,9.591,0.00017077,-12.01,-0.000522,-5217.2,0.10459
10978,2.9936,5.0909,0.05,1.8766e-06,18.753,1.441e-06,10.827,-2.9639e-11,-0.00025273,-1.441e-06,-10.827,0.10401
10979,3.27,5.0909,0,0.00051856,5182,0.0001724,2.8706,0.00016923,-20.958,-0.00051886,-5191,0.12182
10980,3.1779,5,0,0.00052157,5212.1,0.00017402,2.5066,0.00016914,-34.145,-0.0005221,-5227.8,0.11633
10981,3.1779,5.0909,0.05,1.5099e-06,15.089,1.1594e-06,8.7116,-3.1029e-11,-0.00031452,-1.1594e-06,-8.7115,0.11576
10982,3.4543,5.0909,0,0.00051717,5168.1,0.00017277,1.1231,0.00016721,-40.615,-0.00051783,-5187.8,0.1341
10983,3.3621,5,0,0.00051989,5195.3,0.00017441,1.1542,0.00016685,-55.627,-0.0005208,-5222.4,0.12843
10984,3.3621,5.0909,0.05,1.2567e-06,12.558,9.6499e-07,7.2505,-3.0278e-11,-0.00025351,-9.6497e-07,-7.2505,0.12787
10985,3.6385,5.0909,0,0.00051473,5143.8,0.00017272,0.61615,0.00016508,-56.774,-0.00051566,-5171.6,0.14673
10986,3.5464,5,0,0.00051724,5168.8,0.00017433,0.66913,0.00016457,-72.615,-0.00051842,-5204.4,0.14089
10987,3.5464,5.0909,0.05,1.0981e-06,10.973,8.4319e-07,6.3353,-2.6939e-11,-0.00022841,-8.4317e-07,-6.3353,0.14033
10988,3.8228,5.0909,0,0.00051149,5111.4,0.00017224,0.39194,0.00016298,-69.133,-0.00051263,-5145.4,0.15971
10989,3.7307,5,0,0.00051384,5134.8,0.00017381,0.43432,0.0001624,-85.339,-0.00051523,-5176.7,0.15369
10990,3.7307,5.0909,0.05,1.0125e-06,10.118,7.775e-07,5.8417,-2.1348e-11,-0.00024228,-7.7748e-07,-5.8418,0.15313
10991,4.0071,5.0909,0,0.00050765,5073,0.0001714,0.27098,0.00016097,-78.111,-0.00050893,-5111.5,0.17305
10992,3.9149,5,0,0.00050988,5095.3,0.00017294,0.30175,0.00016034,-94.373,-0.00051141,-5141.6,0.16685
10993,3.9149,5.0909,0.05,9.7688e-07,9.762,7.5012e-07,5.6361,-1.5019e-11,-0.00019014,-7.5012e-07,-5.6361,0.16629
10994,4.1913,5.0909,0,0.00050337,5030.2,0.00017028,0.19776,0.00015905,-84.197,-0.00050474,-5071.7,0.18672
10995,4.0992,5,0,0.00050551,5051.6,0.00017178,0.21957,0.0001584,-100.29,-0.00050714,-5100.9,0.18035
10996,4.0992,5.0909,0.05,9.7064e-07,9.6997,7.4533e-07,5.6001,-1.0911e-12,-0.00010961,-7.4533e-07,-5.6002,0.1798
10997,4.3756,5.0909,0,0.00049875,4984.1,0.00016893,0.14994,0.00015722,-87.861,-0.00050019,-5027.3,0.20074
10998,4.2835,5,0,0.00050084,5004.9,0.0001704,0.16526,0.00015658,-103.63,-0.00050251,-5055.8,0.1942
10999,4.2835,5.0909,0.05,9.7896e-07,9.7828,7.5171e-07,5.648,-5.9263e-12,-8.24e-05,-7.5172e-07,-5.6482,0.19365
11000,4.5599,5.0909,0,0.0004939,4935.6,0.00016741,0.11697,0.00015548,-89.53,-0.00049536,-4979.6,0.2151
11001,4.4677,5,0,0.00049594,4956,0.00016884,0.12765,0.00015487,-104.85,-0.00049764,-5007.5,0.20839
11002,4.4677,5.0909,0.05,9.9268e-07,9.9199,7.6225e-07,5.7272,-1.543e-12,-6.2848e-05,-7.6226e-07,-5.7274,0.20784
11003,4.7441,5.0909,0,0.00048887,4885.3,0.00016575,0.093275,0.00015382,-89.583,-0.00049033,-4929.4,0.2298
11004,4.652,5,0,0.00049089,4905.6,0.00016715,0.10067,0.00015324,-104.37,-0.00049259,-4956.9,0.22292
11005,4.652,5.0909,0.05,1.0068e-06,10.061,7.731e-07,5.8087,2.2943e-12,-4.9955e-05,-7.7311e-07,-5.8089,0.22237
11006,4.9284,5.0909,0,0.00048372,4833.8,0.00016399,0.075699,0.00015222,-88.353,-0.00048516,-4877.3,0.24482
11007,4.8363,5,0,0.00048574,4854,0.00016535,0.08075,0.00015169,-102.53,-0.0004874,-4904.4,0.23778
11008,4.8363,5.0909,0.05,1.019e-06,10.183,7.8245e-07,5.8789,2.7496e-12,-4.0848e-05,-7.8246e-07,-5.8791,0.23723
11009,5.1127,5.0909,0,0.00047848,4781.5,0.00016215,0.062323,0.00015068,-86.123,-0.00047988,-4823.9,0.26018
11010,5.0205,5,0,0.0004805,4801.7,0.00016348,0.0657,0.00015021,-99.663,-0.00048212,-4850.7,0.25297
11011,5.0205,5.0909,0.05,1.0283e-06,10.276,7.8957e-07,5.9325,3.203e-12,-3.2817e-05,-7.8959e-07,-5.9327,0.25242
11012,5.2969,5.0909,0,0.00047318,4728.5,0.00016025,0.051931,0.00014918,-83.136,-0.00047454,-4769.5,0.27587
11013,5.2048,5,0,0.00047521,4748.8,0.00016156,0.05411,0.00014877,-96.007,-0.00047677,-4796.1,0.26849
11014,5.2048,5.0909,0.05,1.0345e-06,10.338,7.9437e-07,5.9685,2.974e-12,-2.8609e-05,-7.9438e-07,-5.9687,0.26795
11015,5.4812,5.0909,0,0.00046784,4675.2,0.00015832,0.043716,0.00014772,-79.594,-0.00046914,-4714.4,0.29187
11016,5.3891,5,0,0.00046989,4695.7,0.00015959,0.045041,0.00014737,-91.785,-0.00047138,-4740.9,0.28434
11017,5.3891,5.0909,0.05,1.038e-06,10.372,7.9701e-07,5.9884,4.8902e-12,-2.5627e-05,-7.9703e-07,-5.9886,0.28379
11018,5.6655,5.0909,0,0.00046248,4621.6,0.00015635,0.037129,0.00014628,-75.665,-0.00046372,-4658.9,0.3082
11019,5.5733,5,0,0.00046455,4642.3,0.0001576,0.037849,0.000146,-87.175,-0.00046597,-4685.2,0.3005
11020,5.5733,5.0909,0.05,1.039e-06,10.383,7.978e-07,5.9943,4.0971e-12,-2.0884e-05,-7.9781e-07,-5.9945,0.29996
11021,5.8497,5.0909,0,0.0004571,4567.9,0.00015437,0.031782,0.00014485,-71.486,-0.00045827,-4603.2,0.32484
11022,5.7576,5,0,0.0004592,4588.8,0.0001556,0.032077,0.00014464,-82.322,-0.00046054,-4629.4,0.31698
11023,5.7576,5.0909,0.05,1.038e-06,10.373,7.9704e-07,5.9886,4.275e-12,-1.8915e-05,-7.9706e-07,-5.9888,0.31644
11024,6.034,5.0909,0,0.00045172,4514.1,0.00015238,0.027396,0.00014344,-67.168,-0.00045282,-4547.3,0.34179
11025,5.9419,5,0,0.00045384,4535.2,0.00015358,0.027398,0.00014329,-77.344,-0.0004551,-4573.4,0.33378
11026,5.9419,5.0909,0.05,1.0354e-06,10.347,7.9507e-07,5.9738,4.6509e-12,-1.445e-05,-7.9509e-07,-5.974,0.33324
11027,6.2183,5.0909,0,0.00044633,4460.3,0.00015039,0.023764,0.00014203,-62.799,-0.00044737,-4491.3,0.35905
11028,6.1261,5,0,0.00044848,4481.7,0.00015157,0.023571,0.00014194,-72.334,-0.00044966,-4517.4,0.35088
11029,6.1261,5.0909,0.05,1.0316e-06,10.309,7.9215e-07,5.9519,4.9812e-12,-1.2322e-05,-7.9217e-07,-5.9521,0.35035
11030,6.4025,5.0909,0,0.00044095,4406.5,0.0001484,0.020731,0.00014062,-58.448,-0.00044192,-4435.4,0.37661
11031,6.3104,5,0,0.00044312,4428.2,0.00014956,0.020414,0.00014059,-67.366,-0.00044423,-4461.4,0.36829
11032,6.3104,5.0909,0.05,1.0269e-06,10.262,7.8852e-07,5.9246,5.566e-12,-1.0664e-05,-7.8853e-07,-5.9248,0.36776
11033,6.5868,5.0909,0,0.00043557,4352.7,0.00014642,0.018181,0.0001392,-54.17,-0.00043647,-4379.6,0.39447
11034,6.4947,5,0,0.00043777,4374.7,0.00014755,0.017793,0.00013923,-62.496,-0.0004388,-4405.6,0.386
11035,6.4947,5.0909,0.05,1.0215e-06,10.208,7.8438e-07,5.8935,5.7082e-12,-9.706e-06,-7.8439e-07,-5.8937,0.38547
11036,6.7711,5.0909,0,0.0004302,4299.1,0.00014444,0.016023,0.00013778,-50.003,-0.00043103,-4323.8,0.41263
11037,6.6789,5,0,0.00043242,4321.3,0.00014555,0.0156,0.00013786,-57.766,-0.00043338,-4349.8,0.40401
11038,6.6789,5.0909,0.05,1.0156e-06,10.149,7.7988e-07,5.8596,5.8088e-12,-1.1076e-05,-7.7989e-07,-5.8599,0.40348
11039,6.9553,5.0909,0,0.00042484,4245.5,0.00014247,0.014184,0.00013635,-45.978,-0.00042561,-4268.3,0.43108
11040,6.8632,5,0,0.00042709,4267.9,0.00014357,0.013757,0.00013648,-53.206,-0.00042797,-4294.3,0.42231
11041,6.8632,5.0909,0.05,1.0095e-06,10.088,7.7515e-07,5.8241,5.9906e-12,-7.2406e-06,-7.7516e-07,-5.8243,0.42179
11042,7.1396,5.0909,0,0.00041949,4192,0.00014051,0.01261,0.00013491,-42.115,-0.00042019,-4212.9,0.44982
11043,7.0475,5,0,0.00042176,4214.7,0.00014159,0.012197,0.00013509,-48.837,-0.00042257,-4238.9,0.4409
11044,7.0475,5.0909,0.05,1.0031e-06,10.025,7.7028e-07,5.7875,6.0815e-12,-8.0261e-06,-7.703e-07,-5.7878,0.44038
11045,7.3239,5.0909,0,0.00041415,4138.6,0.00013857,0.011257,0.00013345,-38.427,-0.00041479,-4157.7,0.46885
11046,7.2317,5,0,0.00041644,4161.5,0.00013963,0.010872,0.00013368,-44.673,-0.00041718,-4183.6,0.45978
11047,7.2317,5.0909,0.05,9.9673e-07,9.9605,7.6535e-07,5.7506,6.2e-12,-7.1613e-06,-7.6538e-07,-5.7508,0.45927
11048,7.5081,5.0909,0,0.00040882,4085.4,0.00013664,0.010089,0.00013199,-34.922,-0.0004094,-4102.7,0.48815
11049,7.416,5,0,0.00041113,4108.4,0.00013768,0.0097411,0.00013226,-40.721,-0.0004118,-4128.6,0.47894
11050,7.416,5.0909,0.05,9.9032e-07,9.8964,7.6044e-07,5.7136,6.4924e-12,-5.4629e-06,-7.6045e-07,-5.7138,0.47843
11051,7.6924,5.0909,0,0.0004035,4032.2,0.00013472,0.0090776,0.00013051,-31.604,-0.00040403,-4047.9,0.50774
11052,7.6003,5,0,0.00040583,4055.5,0.00013575,0.008773,0.00013083,-36.984,-0.00040644,-4073.8,0.49839
11053,7.6003,5.0909,0.05,9.8396e-07,9.8328,7.5555e-07,5.6769,4.6189e-12,-4.8277e-06,-7.5557e-07,-5.6771,0.49788
11054,7.8767,5.0909,0,0.0003982,3979.2,0.00013281,0.008201,0.00012902,-28.473,-0.00039867,-3993.4,0.5276
11055,7.7845,5,0,0.00040053,4002.6,0.00013383,0.0079429,0.00012938,-33.461,-0.00040109,-4019.2,0.5181
11056,7.7845,5.0909,0.05,9.7769e-07,9.7702,7.5074e-07,5.6407,6.6369e-12,-4.2402e-06,-7.5075e-07,-5.6409,0.5176
11057,8.0609,5.0909,0,0.0003929,3926.3,0.00013092,0.0074414,0.00012752,-25.526,-0.00039333,-3939,0.54773
11058,7.9688,5,0,0.00039526,3949.8,0.00013193,0.0072306,0.00012791,-30.147,-0.00039576,-3964.8,0.53809
11059,7.9688,5.0909,0.05,9.7154e-07,9.7087,7.4602e-07,5.6052,6.7003e-12,-3.0339e-06,-7.4603e-07,-5.6054,0.5376
11060,8.2452,5.0909,0,0.00038762,3873.5,0.00012904,0.0067849,0.00012601,-22.758,-0.000388,-3884.9,0.56812
11061,8.1531,5,0,0.00038999,3897.2,0.00013003,0.0066202,0.00012643,-27.039,-0.00039044,-3910.6,0.55835
11062,8.1531,5.0909,0.05,9.6552e-07,9.6486,7.4139e-07,5.5705,6.7483e-12,-2.9443e-06,-7.4141e-07,-5.5707,0.55786
11063,8.4295,5.0909,0,0.00038235,3820.9,0.00012717,0.0062212,0.00012449,-20.163,-0.00038269,-3830.9,0.58878
11064,8.3373,5,0,0.00038473,3844.7,0.00012816,0.0061,0.00012494,-24.127,-0.00038514,-3856.7,0.57887
11065,8.3373,5.0909,0.05,9.5965e-07,9.5899,7.3689e-07,5.5366,3.2232e-12,-2.9225e-06,-7.3689e-07,-5.5368,0.57839
11066,8.6137,5.0909,0,0.0003771,3768.4,0.00012532,0.0057434,0.00012296,-17.735,-0.0003774,-3777.2,0.6097
11067,8.5216,5,0,0.00037949,3792.3,0.00012629,0.0056613,0.00012344,-21.404,-0.00037985,-3802.9,0.59966
11068,8.5216,5.0909,0.05,9.5392e-07,9.5326,7.3249e-07,5.5036,5.0653e-12,-2.1533e-06,-7.325e-07,-5.5038,0.59918
11069,8.798,5.0909,0,0.00037186,3716,0.00012348,0.0053469,0.00012142,-15.465,-0.00037212,-3723.7,0.63088
11070,8.7059,5,0,0.00037426,3740,0.00012444,0.0052974,0.00012193,-18.86,-0.00037457,-3749.4,0.6207
11071,8.7059,5.0909,0.05,9.4834e-07,9.4769,7.2821e-07,5.4714,4.1892e-12,-1.9105e-06,-7.2821e-07,-5.4716,0.62023
11072,8.9823,5.0909,0,0.00036663,3663.8,0.00012165,0.0050322,0.00011987,-13.346,-0.00036686,-3670.5,0.6523
11073,8.8901,5,0,0.00036904,3687.8,0.0001226,0.0050057,0.0001204,-16.487,-0.00036931,-3696,0.642
11074,8.8901,5.0909,0.05,9.4291e-07,9.4226,7.2404e-07,5.4401,4.2188e-12,-4.9593e-07,-7.2405e-07,-5.4402,0.64153
11075,9.1665,5.0909,0,0.00036142,3611.7,0.00011983,0.0048041,0.00011832,-11.368,-0.00036161,-3617.4,0.67398
11076,9.0744,5,0,0.00036383,3635.8,0.00012077,0.0047871,0.00011887,-14.275,-0.00036407,-3642.9,0.66355
11077,9.0744,5.0909,0.05,9.3762e-07,9.3698,7.1997e-07,5.4096,6.0849e-12,-7.7047e-07,-7.1999e-07,-5.4097,0.66308
11078,9.3508,5.0909,0,0.00035623,3559.8,0.00011803,0.0046759,0.00011676,-9.5246,-0.00035639,-3564.6,0.6959
11079,9.2587,5,0,0.00035864,3583.9,0.00011896,0.0046463,0.00011733,-12.214,-0.00035884,-3590,0.68534
11080,9.2587,5.0909,0.05,9.3247e-07,9.3183,7.1602e-07,5.3799,6.1065e-12,-5.5354e-07,-7.1603e-07,-5.38,0.68488
11081,9.5351,5.0909,0,0.00035104,3508,0.00011623,0.0046729,0.00011519,-7.8064,-0.00035118,-3511.9,0.71806
11082,9.4429,5,0,0.00035346,3532.2,0.00011715,0.0045969,0.00011578,-10.294,-0.00035363,-3537.3,0.70738
11083,9.4429,5.0909,0.05,9.2745e-07,9.2681,7.1216e-07,5.3509,6.1325e-12,-6.2024e-07,-7.1217e-07,-5.351,0.70692
11084,9.7193,5.0909,0,0.00034588,3456.4,0.00011445,0.0048529,0.00011362,-6.2058,-0.00034598,-3459.5,0.74046
11085,9.6272,5,0,0.0003483,3480.6,0.00011536,0.0046597,0.00011423,-8.5078,-0.00034844,-3484.8,0.72965
11086,9.6272,5.0909,0.05,9.2255e-07,9.2191,7.0839e-07,5.3226,4.3495e-12,4.4895e-07,-7.0841e-07,-5.3227,0.72921
11087,9.9036,5.0909,0,0.00034073,3404.9,0.00011267,0.0053278,0.00011205,-4.715,-0.00034081,-3407.3,0.7631
11088,9.8115,5,0,0.00034315,3429.1,0.00011358,0.0048925,0.00011267,-6.845,-0.00034326,-3432.5,0.75217
11089,9.8115,5.0909,0.05,9.1776e-07,9.1713,7.0472e-07,5.2949,5.2695e-12,6.9778e-07,-7.0473e-07,-5.2951,0.75172
11090,10.088,5.0909,0,0.00033559,3353.6,0.00011091,0.0063833,0.00011047,-3.3268,-0.00033565,-3355.3,0.78597
11091,9.9957,5,0,0.00033801,3377.8,0.00011181,0.005374,0.0001111,-5.2978,-0.0003381,-3380.4,0.77491
11092,9.9957,5.0909,0.05,9.1308e-07,9.1245,7.0113e-07,5.268,4.4123e-12,4.1973e-07,-7.0114e-07,-5.2681,0.77448
11093,10.272,5.0909,0,0.00033047,3302.5,0.00010916,0.0089903,0.00010889,-2.0349,-0.00033051,-3303.5,0.80906
11094,10.18,5,0,0.00033289,3326.6,0.00011005,0.0063392,0.00010953,-3.8581,-0.00033296,-3328.6,0.79789
11095,10.18,5.0909,0.05,9.085e-07,9.0788,6.9761e-07,5.2415,5.3272e-12,1.377e-06,-6.9763e-07,-5.2417,0.79746
11096,10.456,5.0909,0,0.00032537,3251.5,0.00010742,0.019179,0.0001073,-0.83877,-0.00032538,-3251.9,0.83238
11097,10.364,5,0,0.00032779,3275.6,0.0001083,0.0084501,0.00010796,-2.519,-0.00032783,-3276.9,0.82109
11098,10.364,5.0909,0.05,9.0402e-07,9.034,6.9417e-07,5.2157,4.4371e-12,1.2449e-06,-6.9418e-07,-5.2159,0.82066
11099,10.641,5.0909,0,0.00032029,3200.6,0.00010573,0.34707,0.00010567,-0.041877,-0.00032028,-3200.5,0.85592
11100,10.549,5,0,0.0003227,3224.8,0.00010656,0.014654,0.00010638,-1.2762,-0.00032273,-3225.4,0.84451
11101,10.549,5.0909,0.05,8.9962e-07,8.99,6.9079e-07,5.1903,5.3635e-12,1.522e-06,-6.9081e-07,-5.1904,0.84409
11102,10.825,5.0909,0,0.00031522,3150,0.00010414,1.3646,0.00010395,-0.0098747,-0.00031519,-3149.3,0.87967
11103,10.733,5,0,0.00031763,3174.1,0.00010484,0.089529,0.0001048,-0.18725,-0.00031763,-3174.2,0.86815
11104,10.733,5.0909,0.05,8.9529e-07,8.9467,6.8747e-07,5.1653,5.3734e-12,1.3607e-06,-6.8748e-07,-5.1655,0.86774
11105,11.009,5.0909,0,0.00031017,3099.5,0.00010255,2.34,0.00010224,-0.0054609,-0.00031013,-3098.3,0.90364
11106,10.917,5,0,0.00031258,3123.6,0.00010324,1.0028,0.0001031,-0.015197,-0.00031256,-3123.1,0.89201
11107,10.917,5.0909,0.05,8.9104e-07,8.9043,6.8421e-07,5.1408,3.5755e-12,1.2421e-06,-6.8422e-07,-5.141,0.8916
11108,11.193,5.0909,0,0.00030513,3049.2,0.00010097,3.2539,0.00010053,-0.003825,-0.00030508,-3047.6,0.92782
11109,11.101,5,0,0.00030754,3073.3,0.00010166,2.0071,0.00010139,-0.0070129,-0.00030751,-3072.3,0.91608
11110,11.101,5.0909,0.05,8.8687e-07,8.8626,6.81e-07,5.1168,3.584e-12,1.456e-06,-6.8101e-07,-5.1169,0.91568
11111,11.378,5.0909,0,0.00030011,2999.1,9.9381e-05,4.1096,9.8834e-05,-0.0030338,-0.00030004,-2997,0.95221
11112,11.286,5,0,0.00030252,3023.1,0.00010008,2.9503,9.9685e-05,-0.0044854,-0.00030247,-3021.6,0.94036
11113,11.286,5.0909,0.05,8.8277e-07,8.8216,6.7785e-07,5.0931,5.4191e-12,1.0598e-06,-6.7786e-07,-5.0932,0.93996
11114,11.562,5.0909,0,0.00029512,2949.1,9.7799e-05,4.9112,9.7145e-05,-0.0025903,-0.00029503,-2946.7,0.9768
11115,11.47,5,0,0.00029752,2973.1,9.8501e-05,3.8333,9.799e-05,-0.0033317,-0.00029745,-2971.2,0.96484
11116,11.47,5.0909,0.05,8.7871e-07,8.7811,6.7474e-07,5.0697,3.6137e-12,1.7235e-06,-6.7475e-07,-5.0698,0.96445
11117,11.746,5.0909,0,0.00029013,2899.3,9.6218e-05,5.6634,9.5464e-05,-0.0022878,-0.00029004,-2896.5,1.0016
11118,11.654,5,0,0.00029253,2923.3,9.6924e-05,4.6604,9.6304e-05,-0.0026595,-0.00029245,-2921,0.98952
11119,11.654,5.0909,0.05,8.747e-07,8.741,6.7166e-07,5.0465,4.5293e-12,1.8866e-06,-6.7167e-07,-5.0467,0.98914
11120,11.931,5.0909,0,0.00028517,2849.8,9.4639e-05,6.3701,9.3791e-05,-0.0020849,-0.00028506,-2846.6,1.0266
11121,11.838,5,0,0.00028756,2873.6,9.535e-05,5.4362,9.4626e-05,-0.0022016,-0.00028747,-2870.9,1.0144
11122,11.838,5.0909,0.05,8.7075e-07,8.7015,6.6863e-07,5.0237,3.6307e-12,2.1143e-06,-6.6863e-07,-5.0239,1.014
11123,12.115,5.0909,0,0.00028023,2800.3,9.3063e-05,7.0353,9.2126e-05,-0.0019648,-0.00028011,-2796.8,1.0517
11124,12.023,5,0,0.00028261,2824.2,9.3777e-05,6.1648,9.2956e-05,-0.0019179,-0.00028251,-2821.1,1.0395
11125,12.023,5.0909,0.05,8.6686e-07,8.6626,6.6563e-07,5.0013,3.6395e-12,2.6939e-06,-6.6564e-07,-5.0014,1.0391
11126,12.299,5.0909,0,0.0002753,2751.1,9.1489e-05,7.6626,9.0469e-05,-0.0019037,-0.00027517,-2747.3,1.0771
11127,12.207,5,0,0.00027768,2774.9,9.2206e-05,6.8505,9.1294e-05,-0.0017265,-0.00027756,-2771.4,1.0647
11128,12.207,5.0909,0.05,8.63e-07,8.6241,6.6267e-07,4.9791,3.6475e-12,3.1794e-06,-6.6269e-07,-4.9792,1.0644
11129,12.483,5.0909,0,0.00027039,2702.1,8.9919e-05,8.2557,8.882e-05,-0.0018673,-0.00027025,-2697.9,1.1027
11130,12.391,5,0,0.00027276,2725.8,9.0639e-05,7.497,8.9641e-05,-0.0016187,-0.00027264,-2722,1.0902
11131,12.391,5.0909,0.05,8.5919e-07,8.5859,6.5975e-07,4.957,3.6535e-12,2.4879e-06,-6.5975e-07,-4.9571,1.0898
11132,12.668,5.0909,0,0.0002655,2653.2,8.8353e-05,8.8177,8.7179e-05,-0.0018142,-0.00026535,-2648.8,1.1284
11133,12.575,5,0,0.00026787,2676.8,8.9074e-05,8.1081,8.7995e-05,-0.0015136,-0.00026773,-2672.8,1.1158
11134,12.575,5.0909,0.05,8.5539e-07,8.548,6.5683e-07,4.9352,4.5738e-12,2.1287e-06,-6.5684e-07,-4.9353,1.1155
11135,12.852,5.0909,0,0.00026063,2604.5,8.679e-05,9.3519,8.5546e-05,-0.0017714,-0.00026047,-2599.9,1.1543
11136,12.76,5,0,0.00026299,2628.1,8.7513e-05,8.6873,8.6356e-05,-0.0013974,-0.00026284,-2623.7,1.1417
11137,12.76,5.0909,0.05,8.5165e-07,8.5106,6.5396e-07,4.9136,3.6688e-12,2.9724e-06,-6.5397e-07,-4.9137,1.1413
11138,13.036,5.0909,0,0.00025578,2556.1,8.5232e-05,9.861,8.3919e-05,-0.0017559,-0.00025561,-2551.1,1.1804
11139,12.944,5,0,0.00025813,2579.5,8.5955e-05,9.2377,8.4726e-05,-0.001331,-0.00025797,-2574.9,1.1677
11140,12.944,5.0909,0.05,8.4794e-07,8.4736,6.5111e-07,4.8922,3.6717e-12,3.4872e-06,-6.5112e-07,-4.8923,1.1673
11141,13.22,5.0909,0,0.00025095,2507.8,8.3678e-05,10.348,8.2301e-05,-0.0017641,-0.00025077,-2502.6,1.2067
11142,13.128,5,0,0.00025329,2531.2,8.4402e-05,9.7624,8.3103e-05,-0.0012821,-0.00025313,-2526.3,1.1938
11143,13.128,5.0909,0.05,8.4427e-07,8.4369,6.4829e-07,4.871,4.5825e-12,4.6337e-06,-6.483e-07,-4.8711,1.1935
11144,13.405,5.0909,0,0.00024614,2459.7,8.2129e-05,10.815,8.0689e-05,-0.001774,-0.00024595,-2454.3,1.2331
11145,13.313,5,0,0.00024847,2483,8.2853e-05,10.264,8.1487e-05,-0.0012718,-0.0002483,-2477.9,1.2202
11146,13.313,5.0909,0.05,8.4062e-07,8.4004,6.4549e-07,4.8499,3.6776e-12,4.3258e-06,-6.4549e-07,-4.85,1.2199
11147,13.589,5.0909,0,0.00024134,2411.8,8.0584e-05,11.265,7.9085e-05,-0.0017557,-0.00024115,-2406.1,1.2597
11148,13.497,5,0,0.00024367,2435,8.1309e-05,10.746,7.9878e-05,-0.0012345,-0.00024349,-2429.6,1.2467
11149,13.497,5.0909,0.05,8.3699e-07,8.3641,6.427e-07,4.829,3.6771e-12,4.5469e-06,-6.4271e-07,-4.8291,1.2464
11150,13.773,5.0909,0,0.00023657,2364.1,7.9045e-05,11.701,7.7488e-05,-0.0017381,-0.00023637,-2358.2,1.2865
11151,13.681,5,0,0.00023889,2387.2,7.9769e-05,11.211,7.8277e-05,-0.0011721,-0.0002387,-2381.6,1.2734
11152,13.681,5.0909,0.05,8.3339e-07,8.3281,6.3994e-07,4.8082,3.6806e-12,3.516e-06,-6.3994e-07,-4.8083,1.2731
11153,13.957,5.0909,0,0.00023182,2316.6,7.7511e-05,12.124,7.5898e-05,-0.0017379,-0.00023161,-2310.5,1.3134
11154,13.865,5,0,0.00023412,2339.6,7.8235e-05,11.661,7.6683e-05,-0.0011408,-0.00023392,-2333.8,1.3002
11155,13.865,5.0909,0.05,8.2982e-07,8.2925,6.372e-07,4.7876,3.6844e-12,3.67e-06,-6.372e-07,-4.7877,1.2999
11156,14.142,5.0909,0,0.00022708,2269.2,7.5983e-05,12.537,7.4314e-05,-0.0017539,-0.00022686,-2262.9,1.3405
11157,14.05,5,0,0.00022938,2292.2,7.6706e-05,12.098,7.5096e-05,-0.0011171,-0.00022917,-2286.2,1.3272
11158,14.05,5.0909,0.05,8.2628e-07,8.2571,6.3448e-07,4.7672,3.6809e-12,4.0361e-06,-6.3449e-07,-4.7673,1.3269
11159,14.326,5.0909,0,0.00022236,2222.1,7.4461e-05,12.942,7.2738e-05,-0.0017682,-0.00022214,-2215.6,1.3677
11160,14.234,5,0,0.00022466,2245,7.5183e-05,12.526,7.3515e-05,-0.0011204,-0.00022444,-2238.7,1.3544
11161,14.234,5.0909,0.05,8.2276e-07,8.2219,6.3177e-07,4.7469,3.6838e-12,3.3118e-06,-6.3178e-07,-4.747,1.3541
11162,14.51,5.0909,0,0.00021767,2175.2,7.2945e-05,13.341,7.1169e-05,-0.0017541,-0.00021744,-2168.5,1.3951
11163,14.418,5,0,0.00021995,2198,7.3665e-05,12.945,7.1942e-05,-0.0010958,-0.00021973,-2191.5,1.3817
11164,14.418,5.0909,0.05,8.1925e-07,8.1869,6.2908e-07,4.7267,3.687e-12,4.0256e-06,-6.2909e-07,-4.7267,1.3814
11165,14.695,5.0909,0,0.00021299,2128.5,7.1434e-05,13.735,6.9606e-05,-0.0017375,-0.00021276,-2121.6,1.4226
11166,14.602,5,0,0.00021527,2151.2,7.2153e-05,13.359,7.0375e-05,-0.0010419,-0.00021504,-2144.5,1.4091
11167,14.602,5.0909,0.05,8.1578e-07,8.1521,6.2641e-07,4.7066,3.6903e-12,4.5528e-06,-6.2642e-07,-4.7067,1.4088
11168,14.879,5.0909,0,0.00020834,2081.9,6.9931e-05,14.128,6.805e-05,-0.0017359,-0.00020809,-2074.8,1.4503
11169,14.787,5,0,0.0002106,2104.6,7.0648e-05,13.769,6.8815e-05,-0.0010138,-0.00021036,-2097.6,1.4367
11170,14.787,5.0909,0.05,8.1233e-07,8.1177,6.2376e-07,4.6867,2.7755e-12,6.0416e-06,-6.2377e-07,-4.6868,1.4364
11171,15.063,5.0909,0,0.0002037,2035.6,6.8433e-05,14.52,6.6501e-05,-0.0017478,-0.00020345,-2028.3,1.4781
11172,14.971,5,0,0.00020596,2058.1,6.9149e-05,14.178,6.7262e-05,-0.00099109,-0.00020571,-2051,1.4645
11173,14.971,5.0909,0.05,8.089e-07,8.0834,6.2113e-07,4.6669,3.7048e-12,4.5766e-06,-6.2114e-07,-4.667,1.4642
11174,15.247,5.0909,0,0.00019908,1989.5,6.6943e-05,14.914,6.4958e-05,-0.0017566,-0.00019883,-1982,1.5061
11175,15.155,5,0,0.00020133,2011.9,6.7657e-05,14.587,6.5715e-05,-0.00098912,-0.00020108,-2004.6,1.4923
11176,15.155,5.0909,0.05,8.0549e-07,8.0493,6.1851e-07,4.6473,1.8618e-12,5.8468e-06,-6.1852e-07,-4.6473,1.4921
11177,15.432,5.0909,0,0.00019449,1943.5,6.5459e-05,15.312,6.3421e-05,-0.0017393,-0.00019422,-1935.8,1.5342
11178,15.339,5,0,0.00019673,1965.9,6.6172e-05,14.999,6.4175e-05,-0.00096043,-0.00019647,-1958.4,1.5204
11179,15.339,5.0909,0.05,8.021e-07,8.0154,6.1591e-07,4.6277,1.8735e-12,4.7911e-06,-6.1591e-07,-4.6277,1.5201
11180,15.616,5.0909,0,0.00018991,1897.8,6.3983e-05,15.715,6.1891e-05,-0.001719,-0.00018964,-1889.9,1.5624
11181,15.524,5,0,0.00019214,1920.1,6.4693e-05,15.416,6.2642e-05,-0.0009045,-0.00019187,-1912.3,1.5485
11182,15.524,5.0909,0.05,7.9873e-07,7.9818,6.1332e-07,4.6083,1.876e-12,3.7192e-06,-6.1333e-07,-4.6083,1.5483
11183,15.8,5.0909,0,0.00018536,1852.3,6.2514e-05,16.126,6.0367e-05,-0.001711,-0.00018508,-1844.2,1.5908
11184,15.708,5,0,0.00018758,1874.5,6.3222e-05,15.84,6.1114e-05,-0.00086952,-0.0001873,-1866.5,1.5768
11185,15.708,5.0909,0.05,7.9539e-07,7.9484,6.1076e-07,4.589,2.7982e-12,2.9496e-06,-6.1077e-07,-4.5891,1.5765
11186,15.984,5.0909,0,0.00018082,1807,6.1052e-05,16.546,5.885e-05,-0.0017143,-0.00018054,-1798.7,1.6192
11187,15.892,5,0,0.00018303,1829.1,6.1759e-05,16.273,5.9593e-05,-0.00083709,-0.00018275,-1820.9,1.6052
11188,15.892,5.0909,0.05,7.9208e-07,7.9153,6.0822e-07,4.5699,3.268e-12,3.5795e-06,-6.0822e-07,-4.57,1.605
11189,16.169,5.0909,0,0.00017631,1761.9,5.9598e-05,16.977,5.7339e-05,-0.0017141,-0.00017601,-1753.3,1.6478
11190,16.077,5,0,0.00017851,1783.9,6.0303e-05,16.716,5.8078e-05,-0.00082122,-0.00017822,-1775.4,1.6337
11191,16.077,5.0909,0.05,7.8879e-07,7.8824,6.0569e-07,4.5509,2.3262e-12,3.6594e-06,-6.0569e-07,-4.551,1.6335
11192,16.353,5.0909,0,0.00017181,1717,5.8152e-05,17.422,5.5833e-05,-0.00169,-0.00017151,-1708.2,1.6765
11193,16.261,5,0,0.00017401,1738.9,5.8855e-05,17.173,5.6569e-05,-0.00078085,-0.00017371,-1730.2,1.6624
11194,16.261,5.0909,0.05,7.8551e-07,7.8497,6.0318e-07,4.532,2.368e-12,4.5737e-06,-6.0318e-07,-4.5321,1.6621
11195,16.537,5.0909,0,0.00016734,1672.2,5.6714e-05,17.882,5.4334e-05,-0.0016632,-0.00016703,-1663.2,1.7054
11196,16.445,5,0,0.00016952,1694.1,5.7415e-05,17.645,5.5066e-05,-0.00071462,-0.00016922,-1685.2,1.6911
11197,16.445,5.0909,0.05,7.8227e-07,7.8173,6.0069e-07,4.5133,2.3205e-12,4.6076e-06,-6.0069e-07,-4.5134,1.6909
11198,16.721,5.0909,0,0.00016289,1627.8,5.5284e-05,18.359,5.2841e-05,-0.0016451,-0.00016257,-1618.5,1.7343
11199,16.629,5,0,0.00016506,1649.5,5.5983e-05,18.134,5.3569e-05,-0.00066485,-0.00016474,-1640.3,1.72
11200,16.629,5.0909,0.05,7.7906e-07,7.7853,5.9822e-07,4.4948,1.8935e-12,5.5215e-06,-5.9823e-07,-4.4949,1.7198
11201,16.906,5.0909,0,0.00015846,1583.5,5.3863e-05,18.856,5.1353e-05,-0.0016353,-0.00015813,-1573.9,1.7634
11202,16.814,5,0,0.00016062,1605.1,5.456e-05,18.644,5.2078e-05,-0.00061408,-0.00016029,-1595.7,1.749
11203,16.814,5.0909,0.05,7.7589e-07,7.7535,5.9578e-07,4.4765,1.9248e-12,4.5211e-06,-5.9579e-07,-4.4765,1.7488
11204,17.09,5.0909,0,0.00015404,1539.4,5.245e-05,19.374,4.9872e-05,-0.0016215,-0.0001537,-1529.6,1.7925
11205,16.998,5,0,0.0001562,1560.9,5.3145e-05,19.176,5.0593e-05,-0.00057876,-0.00015586,-1551.2,1.7781
11206,16.998,5.0909,0.05,7.7273e-07,7.722,5.9336e-07,4.4583,2.3561e-12,4.7439e-06,-5.9336e-07,-4.4583,1.7779
11207,17.274,5.0909,0,0.00014965,1495.5,5.1047e-05,19.917,4.8395e-05,-0.0015854,-0.0001493,-1485.4,1.8218
11208,17.182,5,0,0.0001518,1516.9,5.1739e-05,19.733,4.9113e-05,-0.00051533,-0.00015145,-1507,1.8073
11209,17.182,5.0909,0.05,7.6961e-07,7.6908,5.9096e-07,4.4403,2.3752e-12,4.7565e-06,-5.9097e-07,-4.4403,1.8071
11210,17.459,5.0909,0,0.00014528,1451.8,4.9652e-05,20.487,4.6925e-05,-0.0015447,-0.00014492,-1441.5,1.8511
11211,17.366,5,0,0.00014742,1473.2,5.0343e-05,20.317,4.7639e-05,-0.00042985,-0.00014706,-1462.9,1.8366
11212,17.366,5.0909,0.05,7.6653e-07,7.66,5.886e-07,4.4225,1.9372e-12,4.0213e-06,-5.886e-07,-4.4225,1.8364
11213,17.643,5.0909,0,0.00014093,1408.4,4.8266e-05,21.086,4.546e-05,-0.0015098,-0.00014056,-1397.7,1.8806
11214,17.551,5,0,0.00014306,1429.6,4.8956e-05,20.931,4.617e-05,-0.00035242,-0.0001427,-1419.1,1.866
11215,17.551,5.0909,0.05,7.6349e-07,7.6296,5.8626e-07,4.4049,1.882e-12,5.3374e-06,-5.8626e-07,-4.405,1.8658
11216,17.827,5.0909,0,0.00013661,1365.1,4.689e-05,21.716,4.4e-05,-0.0014807,-0.00013622,-1354.1,1.9101
11217,17.735,5,0,0.00013873,1386.3,4.7579e-05,21.579,4.4707e-05,-0.00027362,-0.00013835,-1375.4,1.8955
11218,17.735,5.0909,0.05,7.6049e-07,7.5996,5.8396e-07,4.3876,1.9357e-12,3.4945e-06,-5.8396e-07,-4.3876,1.8953
11219,18.011,5.0909,0,0.0001323,1322.1,4.5524e-05,22.381,4.2545e-05,-0.0014446,-0.0001319,-1310.8,1.9398
11220,17.919,5,0,0.00013441,1343.2,4.6212e-05,22.263,4.3249e-05,-0.00020207,-0.00013402,-1331.9,1.9251
11221,17.919,5.0909,0.05,7.5752e-07,7.57,5.8168e-07,4.3705,1.481e-12,3.7761e-06,-5.8169e-07,-4.3706,1.9249
11222,18.196,5.0909,0,0.00012801,1279.3,4.4168e-05,23.084,4.1096e-05,-0.0013835,-0.00012761,-1267.6,1.9695
11223,18.103,5,0,0.00013012,1300.3,4.4855e-05,22.987,4.1796e-05,-0.00010262,-0.00012971,-1288.6,1.9548
11224,18.103,5.0909,0.05,7.5461e-07,7.5408,5.7944e-07,4.3537,1.4863e-12,4.3227e-06,-5.7945e-07,-4.3537,1.9546
11225,18.38,5.0909,0,0.00012375,1236.6,4.2823e-05,23.828,3.9651e-05,-0.0013146,-0.00012333,-1224.6,1.9993
11226,18.288,5,0,0.00012585,1257.6,4.3509e-05,23.753,4.0347e-05,2.509e-05,-0.00012543,-1245.6,1.9846
11227,18.288,5.0909,0.05,7.5174e-07,7.5122,5.7724e-07,4.3372,1.9637e-12,5.711e-06,-5.7725e-07,-4.3372,1.9844
11228,18.564,5.0909,0,0.00011951,1194.2,4.1488e-05,24.616,3.8211e-05,-0.0012475,-0.00011907,-1181.7,2.0293
11229,18.472,5,0,0.0001216,1215.1,4.2173e-05,24.565,3.8904e-05,0.00014775,-0.00012116,-1202.7,2.0144
11230,18.472,5.0909,0.05,7.4893e-07,7.4842,5.7509e-07,4.321,1.5324e-12,7.8424e-06,-5.7509e-07,-4.321,2.0143
11231,18.748,5.0909,0,0.00011528,1152.1,4.0164e-05,25.451,3.6776e-05,-0.0011786,-0.00011483,-1139.1,2.0592
11232,18.656,5,0,0.00011737,1172.9,4.0849e-05,25.428,3.7465e-05,0.0002796,-0.00011692,-1160,2.0444
11233,18.656,5.0909,0.05,7.4619e-07,7.4567,5.7298e-07,4.3051,6.295e-13,4.2973e-06,-5.7298e-07,-4.3052,2.0442
11234,18.933,5.0909,0,0.00011108,1110.1,3.8851e-05,26.337,3.5345e-05,-0.0010949,-0.00011061,-1096.7,2.0893
11235,18.841,5,0,0.00011316,1130.8,3.9537e-05,26.345,3.6031e-05,0.0004168,-0.00011269,-1117.4,2.0744
11236,18.841,5.0909,0.05,7.435e-07,7.4298,5.7091e-07,4.2896,1.5579e-12,3.0097e-06,-5.7092e-07,-4.2896,2.0742
11237,19.117,5.0909,0,0.00010691,1068.3,3.755e-05,27.279,3.3919e-05,-0.00098114,-0.00010642,-1054.4,2.1194
11238,19.025,5,0,0.00010898,1089,3.8237e-05,27.321,3.4601e-05,0.00058871,-0.00010849,-1075.1,2.1045
11239,19.025,5.0909,0.05,7.4087e-07,7.4036,5.689e-07,4.2744,6.8763e-13,5.2239e-06,-5.689e-07,-4.2745,2.1043
11240,19.301,5.0909,0,0.00010275,1026.8,3.626e-05,28.28,3.2496e-05,-0.000851,-0.00010224,-1012.3,2.1496
11241,19.209,5,0,0.00010481,1047.4,3.6949e-05,28.36,3.3174e-05,0.00079506,-0.0001043,-1032.9,2.1347
11242,19.209,5.0909,0.05,7.3833e-07,7.3782,5.6694e-07,4.2598,7.2764e-13,5.8457e-06,-5.6694e-07,-4.2598,2.1345
11243,19.485,5.0909,0,9.8613e-05,985.45,3.4984e-05,29.345,3.1078e-05,-0.00070587,-9.8081e-05,-970.45,2.1799
11244,19.393,5,0,0.00010067,1006,3.5674e-05,29.467,3.1752e-05,0.0010135,-0.00010014,-990.98,2.1649
11245,19.393,5.0909,0.05,7.3586e-07,7.3535,5.6505e-07,4.2455,7.5113e-13,6.975e-06,-5.6505e-07,-4.2456,2.1647
11246,19.67,5.0909,0,9.45e-05,944.35,3.3719e-05,30.478,2.9663e-05,-0.00054232,-9.3944e-05,-928.74,2.2102
11247,19.578,5,0,9.6556e-05,964.89,3.4412e-05,30.648,3.0333e-05,0.0012614,-9.5998e-05,-949.2,2.1952
11248,19.578,5.0909,0.05,7.3348e-07,7.3297,5.6322e-07,4.2318,1.705e-12,7.8732e-06,-5.6322e-07,-4.2318,2.1951
11249,19.854,5.0909,0,9.0408e-05,903.46,3.2469e-05,31.686,2.8251e-05,-0.00034852,-8.9828e-05,-887.2,2.2406
11250,19.762,5,0,9.2461e-05,923.97,3.3164e-05,31.908,2.8918e-05,0.0015327,-9.1876e-05,-907.6,2.2256
11251,19.762,5.0909,0.05,7.3119e-07,7.3068,5.6146e-07,4.2186,1.6878e-12,7.5195e-06,-5.6146e-07,-4.2186,2.2254
11252,20.038,5.0909,0,8.6339e-05,862.8,3.1232e-05,32.973,2.6843e-05,-0.00010326,-8.5731e-05,-845.84,2.2711
11253,19.946,5,0,8.8388e-05,883.27,3.1931e-05,33.254,2.7506e-05,0.0018587,-8.7776e-05,-866.18,2.256
11254,19.946,5.0909,0.05,7.29e-07,7.2849,5.5978e-07,4.206,1.243e-12,6.0035e-06,-5.5978e-07,-4.206,2.2559
11255,20.223,5.0909,0,8.2293e-05,822.36,3.0009e-05,34.347,2.5437e-05,0.00018864,-8.1655e-05,-804.65,2.3016
11256,20.13,5,0,8.434e-05,842.81,3.0713e-05,34.692,2.6096e-05,0.0022499,-8.3696e-05,-824.93,2.2865
11257,20.13,5.0909,0.05,7.2691e-07,7.2641,5.5818e-07,4.1939,1.2389e-12,8.5771e-06,-5.5818e-07,-4.1939,2.2864
11258,20.407,5.0909,0,7.8269e-05,782.15,2.8801e-05,35.814,2.4035e-05,0.00053029,-7.7598e-05,-763.63,2.3322
11259,20.315,5,0,8.0314e-05,802.59,2.9511e-05,36.23,2.4689e-05,0.00269,-7.9637e-05,-783.86,2.317
11260,20.315,5.0909,0.05,7.2495e-07,7.2445,5.5667e-07,4.1826,7.6919e-13,1.0071e-05,-5.5667e-07,-4.1826,2.3169
11261,20.591,5.0909,0,7.4269e-05,742.18,2.7609e-05,37.381,2.2634e-05,0.00094032,-7.3562e-05,-722.78,2.3628
11262,20.499,5,0,7.6313e-05,762.61,2.8325e-05,37.876,2.3284e-05,0.0032049,-7.5598e-05,-742.96,2.3476
11263,20.499,5.0909,0.05,7.2312e-07,7.2262,5.5526e-07,4.172,9.5194e-13,1.0354e-05,-5.5526e-07,-4.172,2.3475
11264,20.775,5.0909,0,7.0293e-05,702.44,2.6433e-05,39.059,2.1235e-05,0.001442,-6.9547e-05,-682.1,2.3935
11265,20.683,5,0,7.2337e-05,722.87,2.7156e-05,39.64,2.1881e-05,0.0038063,-7.1581e-05,-702.24,2.3783
11266,20.683,5.0909,0.05,7.2142e-07,7.2092,5.5396e-07,4.1622,7.2703e-13,1.2364e-05,-5.5396e-07,-4.1622,2.3781
11267,20.96,5.0909,0,6.6341e-05,662.95,2.5275e-05,40.856,1.9838e-05,0.002065,-6.5552e-05,-641.58,2.4242
11268,20.867,5,0,6.8387e-05,683.4,2.6007e-05,41.533,2.0479e-05,0.0045309,-6.7585e-05,-661.68,2.409
11269,20.867,5.0909,0.05,7.1986e-07,7.1937,5.5277e-07,4.1533,7.2686e-13,1.0492e-05,-5.5277e-07,-4.1533,2.4088
11270,21.144,5.0909,0,6.2416e-05,623.73,2.4136e-05,42.785,1.8442e-05,0.0028323,-6.1577e-05,-601.23,2.455
11271,21.052,5,0,6.4463e-05,644.19,2.4876e-05,43.567,1.9079e-05,0.0054103,-6.3611e-05,-621.29,2.4397
11272,21.052,5.0909,0.05,7.1848e-07,7.1798,5.517e-07,4.1453,8.1057e-13,1.1993e-05,-5.517e-07,-4.1453,2.4396
11273,21.328,5.0909,0,5.8517e-05,584.77,2.3016e-05,44.861,1.7046e-05,0.0037779,-5.7625e-05,-561.05,2.4858
11274,21.236,5,0,6.0568e-05,605.26,2.3767e-05,45.757,1.7679e-05,0.0064584,-5.9659e-05,-581.08,2.4705
11275,21.236,5.0909,0.05,7.1728e-07,7.1678,5.5078e-07,4.1383,8.5162e-13,1.0196e-05,-5.5078e-07,-4.1383,2.4704
11276,21.512,5.0909,0,5.4648e-05,546.11,2.1919e-05,47.099,1.5651e-05,0.0049592,-5.3694e-05,-521.03,2.5166
11277,21.42,5,0,5.6702e-05,566.63,2.2681e-05,48.119,1.6278e-05,0.0077366,-5.573e-05,-541.04,2.5013
11278,21.42,5.0909,0.05,7.1627e-07,7.1578,5.5001e-07,4.1326,1.1483e-12,7.86e-06,-5.5001e-07,-4.1326,2.5012
11279,21.697,5.0909,0,5.0811e-05,507.76,2.0845e-05,49.521,1.4255e-05,0.0064549,-4.9787e-05,-481.19,2.5475
11280,21.605,5,0,5.287e-05,528.33,2.1621e-05,50.674,1.4877e-05,0.0093043,-5.1825e-05,-501.17,2.5322
11281,21.605,5.0909,0.05,7.155e-07,7.15,5.4941e-07,4.1281,6.4922e-13,9.3384e-06,-5.4941e-07,-4.1281,2.5321
11282,21.881,5.0909,0,4.701e-05,469.77,1.9799e-05,52.153,1.2859e-05,0.008368,-4.5905e-05,-441.52,2.5784
11283,21.789,5,0,4.9073e-05,490.39,2.0587e-05,53.448,1.3475e-05,0.011262,-4.7945e-05,-461.47,2.5631
11284,21.789,5.0909,0.05,7.1498e-07,7.1448,5.4901e-07,4.1251,5.4085e-13,1.068e-05,-5.4901e-07,-4.1251,2.563
11285,22.065,5.0909,0,4.3249e-05,432.19,1.8783e-05,55.027,1.146e-05,0.010831,-4.2049e-05,-402.04,2.6094
11286,21.973,5,0,4.5317e-05,452.86,1.9585e-05,56.472,1.2071e-05,0.013727,-4.4091e-05,-421.97,2.594
11287,21.973,5.0909,0.05,7.1476e-07,7.1426,5.4885e-07,4.1238,9.4976e-13,1.451e-05,-5.4885e-07,-4.1238,2.5939
11288,22.249,5.0909,0,3.9535e-05,395.08,1.7801e-05,58.186,1.0059e-05,0.014037,-3.8223e-05,-362.76,2.6404
11289,22.157,5,0,4.1608e-05,415.79,1.8618e-05,59.783,1.0664e-05,0.016859,-4.0267e-05,-382.66,2.6249
11290,22.157,5.0909,0.05,7.149e-07,7.1441,5.4896e-07,4.1246,8.4058e-13,1.7116e-05,-5.4895e-07,-4.1246,2.6248
11291,22.434,5.0909,0,3.5879e-05,358.54,1.6861e-05,61.683,8.6541e-06,0.018295,-3.4429e-05,-323.69,2.6713
11292,22.342,5,0,3.7954e-05,379.28,1.7692e-05,63.431,9.2525e-06,0.020896,-3.6474e-05,-343.55,2.6559
11293,22.342,5.0909,0.05,7.1549e-07,7.1499,5.4941e-07,4.128,2.4767e-13,1.3758e-05,-5.4941e-07,-4.128,2.6558
11294,22.618,5.0909,0,3.2293e-05,322.71,1.597e-05,65.589,7.2435e-06,0.023992,-3.0673e-05,-284.87,2.7024
11295,22.526,5,0,3.4367e-05,343.43,1.6813e-05,67.478,7.8355e-06,0.026233,-3.2718e-05,-304.67,2.6869
11296,22.526,5.0909,0.05,7.1665e-07,7.1615,5.503e-07,4.1347,9.3709e-13,1.123e-05,-5.503e-07,-4.1347,2.6868
11297,22.802,5.0909,0,2.8797e-05,287.78,1.5137e-05,69.998,5.8255e-06,0.032054,-2.6961e-05,-246.31,2.7334
11298,22.71,5,0,3.0863e-05,308.42,1.599e-05,72.002,6.411e-06,0.033276,-2.9001e-05,-266.04,2.718
11299,22.71,5.0909,0.05,7.1857e-07,7.1807,5.5177e-07,4.1458,7.177e-13,1.0567e-05,-5.5177e-07,-4.1458,2.7179
11300,22.987,5.0909,0,2.542e-05,254.03,1.4377e-05,75.026,4.3972e-06,0.042765,-2.3299e-05,-208.05,2.7645
11301,22.894,5,0,2.7468e-05,274.49,1.5233e-05,77.102,4.9767e-06,0.043536,-2.5331e-05,-227.68,2.749
11302,22.894,5.0909,0.05,7.2154e-07,7.2104,5.5405e-07,4.1629,7.6143e-13,1.0315e-05,-5.5405e-07,-4.1629,2.7489
11303,23.171,5.0909,0,2.2203e-05,221.88,1.3704e-05,80.824,2.9551e-06,0.061846,-1.9695e-05,-170.12,2.7955
11304,23.079,5,0,2.4212e-05,241.96,1.4555e-05,82.897,3.5293e-06,0.056202,-2.1712e-05,-189.6,2.7801
11305,23.079,5.0909,0.05,7.2602e-07,7.2552,5.5749e-07,4.1888,7.7698e-13,1.2129e-05,-5.5749e-07,-4.1888,2.78
11306,23.355,5.0909,0,1.9206e-05,191.93,1.3135e-05,87.556,1.4931e-06,0.079945,-1.6156e-05,-132.53,2.8266
11307,23.263,5,0,2.1147e-05,211.33,1.397e-05,89.529,2.0652e-06,0.083992,-1.8151e-05,-151.81,2.8111
11308,23.263,5.0909,0.05,7.3269e-07,7.3219,5.6262e-07,4.2273,6.8764e-13,9.5629e-06,-5.6262e-07,-4.2273,2.8111
11309,23.539,5.0909,0,1.652e-05,165.08,1.2687e-05,95.417,9.4143e-09,0.16475,-1.2683e-05,-95.203,2.8577
11310,23.447,5,0,1.8342e-05,183.3,1.349e-05,97.128,5.7626e-07,0.096579,-1.4647e-05,-114.29,2.8422
11311,23.447,5.0909,0.05,7.4249e-07,7.4198,5.7014e-07,4.2838,7.5034e-13,9.0522e-06,-5.7014e-07,-4.2838,2.8422
11312,23.724,5.0909,0,1.4285e-05,142.75,1.2376e-05,104.53,-1.519e-06,0.13128,-9.2737e-06,-58.134,2.8888
11313,23.631,5,0,1.5904e-05,158.93,1.3126e-05,105.88,-9.3e-07,0.2659,-1.1201e-05,-76.908,2.8733
11314,23.631,5.0909,0.05,7.5748e-07,7.5696,5.8165e-07,4.3703,8.258e-13,9.782e-06,-5.8165e-07,-4.3703,2.8733
11315,23.816,5,0,1.4002e-05,139.92,1.2893e-05,115.75,-2.4994e-06,0.089973,-7.8065e-06,-39.785,2.9044
11316,23.816,5.0909,0.05,7.9509e-07,7.9454,6.1053e-07,4.5873,8.4542e-13,8.8018e-06,-6.1053e-07,-4.5873,2.9044
11317,23.908,5.0909,0,1.2623e-05,126.14,1.2091e-05,113.54,-2.9685e-06,0.39248,-6.0104e-06,-22.463,2.9199
11318,1.2431,4.9091,0,0.00048113,4808,0.00029259,1688.3,6.7026e-05,-6.4408,-0.00042955,-3737.5,0.010558
11319,1.1509,4.8182,0,0.0005682,5678.1,0.0003742,2382.5,5.5594e-05,-11.377,-0.00048863,-4100.5,0.0073093
11320,1.1509,4.9091,0.05,2.2919e-05,229.04,1.7599e-05,132.23,-6.9949e-12,-3.5659e-05,-1.7599e-05,-132.23,0.0059323
11321,1.0588,4.9091,0,0.0004048,4045.2,0.00026433,1670.9,4.2066e-05,0.95592,-0.0003496,-2941.9,0.0029007
11322,1.4273,4.9091,0,0.00046874,4684.2,0.00024773,1155.4,9.3741e-05,-1.5664,-0.00043826,-3998.8,0.019215
11323,1.3352,4.8182,0,0.00052336,5230,0.00029891,1582.6,8.8296e-05,0.19627,-0.00047815,-4255.8,0.015692
11324,1.3352,4.9091,0.05,1.6124e-05,161.13,1.2381e-05,93.029,-1.3426e-11,-0.00012803,-1.2381e-05,-93.029,0.014647
11325,1.6116,4.9091,0,0.00047746,4771.3,0.00022375,811.04,0.00011541,-2.9476,-0.00045847,-4314.9,0.028141
11326,1.5195,4.8182,0,0.00051657,5162.2,0.0002581,1080.6,0.00011378,-3.7958,-0.00048964,-4537.6,0.024396
11327,1.5195,4.9091,0.05,1.3021e-05,130.12,9.9982e-06,75.123,-1.9876e-11,-0.00020153,-9.9982e-06,-75.123,0.023514
11328,1.7959,4.9091,0,0.00048964,4893,0.00020799,563.76,0.00013264,-2.4246,-0.00047762,-4587.7,0.037337
11329,1.7037,4.8182,0,0.00051763,5172.7,0.00023017,723.79,0.00013346,-2.8102,-0.00050152,-4773.8,0.033376
11330,1.7037,4.9091,0.05,1.0109e-05,101.02,7.7622e-06,58.322,-2.1782e-11,-0.00024125,-7.7622e-06,-58.322,0.032602
11331,1.9801,4.9091,0,0.00050135,5010,0.00019743,385.79,0.00014576,-2.3962,-0.0004937,-4807.1,0.046831
11332,1.888,4.8182,0,0.00052148,5211.2,0.00021122,473.07,0.00014788,-2.8192,-0.00051184,-4959.7,0.042656
11333,1.888,4.9091,0.05,7.8036e-06,77.982,5.9922e-06,45.023,-2.6885e-11,-0.00025258,-5.9922e-06,-45.023,0.041961
11334,2.1644,4.9091,0,0.00051102,5106.7,0.00019004,256.72,0.00015556,-2.4059,-0.0005062,-4974.6,0.056645
11335,2.0723,4.8182,0,0.00052576,5254,0.00019836,298.39,0.00015826,-2.9026,-0.00052008,-5099.7,0.052261
11336,2.0723,4.9091,0.05,6.0789e-06,60.747,4.6678e-06,35.072,-2.6038e-11,-0.00028357,-4.6678e-06,-35.072,0.051623
11337,2.3487,4.9091,0,0.00051815,5177.9,0.00018455,161.55,0.0001627,-2.67,-0.00051525,-5096.5,0.066796
11338,2.2565,4.8182,0,0.00052919,5288.3,0.0001894,175.65,0.00016557,-3.4012,-0.00052603,-5199.9,0.062208
11339,2.2565,4.9091,0.05,4.7957e-06,47.924,3.6825e-06,27.669,-3.1596e-11,-0.00034106,-3.6825e-06,-27.669,0.061611
11340,2.5329,4.9091,0,0.00052278,5224.2,0.00018022,90.404,0.00016773,-3.4101,-0.00052124,-5180.1,0.077292
11341,2.4408,4.8182,0,0.00053127,5309,0.00018294,88.606,0.00017051,-4.7926,-0.00052978,-5266.5,0.072506
11342,2.4408,4.9091,0.05,3.8296e-06,38.269,2.9407e-06,22.095,-3.2595e-11,-0.00033025,-2.9406e-06,-22.095,0.071939
11343,2.7172,4.9091,0,0.00052521,5248.5,0.00017678,37.927,0.00017094,-5.9056,-0.00052466,-5232.4,0.088141
11344,2.6251,4.8182,0,0.0005319,5315.4,0.00017851,29.597,0.00017319,-10.392,-0.00053156,-5305.6,0.08316
11345,2.6251,4.9091,0.05,3.0917e-06,30.896,2.374e-06,17.838,-3.2623e-11,-0.00032578,-2.374e-06,-17.838,0.082615
11346,2.9015,4.9091,0,0.00052581,5254.5,0.00017518,8.6447,0.0001715,-19.022,-0.00052599,-5259.6,0.099346
11347,2.8093,4.8182,0,0.00053121,5308.4,0.00017757,6.4211,0.00017205,-35.035,-0.00053168,-5322.6,0.094175
11348,2.8093,4.9091,0.05,2.525e-06,25.233,1.9389e-06,14.568,-3.278e-11,-0.00027621,-1.9389e-06,-14.568,0.093645
11349,3.0857,4.9091,0,0.00052494,5245.7,0.00017571,2.6588,0.00016927,-45.756,-0.00052565,-5267.1,0.11091
11350,2.9936,4.8182,0,0.00052939,5290.3,0.0001782,2.4826,0.00016899,-66.676,-0.00053045,-5322,0.10555
11351,2.9936,4.9091,0.05,2.0925e-06,20.911,1.6068e-06,12.073,-3.1864e-11,-0.00026621,-1.6068e-06,-12.073,0.10503
11352,3.27,4.9091,0,0.0005229,5225.3,0.00017609,1.3044,0.00016668,-69.445,-0.00052402,-5259.1,0.12283
11353,3.1779,4.8182,0,0.00052666,5263,0.00017844,1.3318,0.00016603,-91.872,-0.00052814,-5307.6,0.11729
11354,3.1779,4.9091,0.05,1.7684e-06,17.672,1.358e-06,10.203,-2.995e-11,-0.00025044,-1.3579e-06,-10.203,0.11677
11355,3.4543,4.9091,0,0.00051996,5196,0.00017598,0.77329,0.0001642,-87.741,-0.00052138,-5238.9,0.1351
11356,3.3621,4.8182,0,0.00052321,5228.5,0.00017818,0.8215,0.00016335,-110.54,-0.00052499,-5282.5,0.12938
11357,3.3621,4.9091,0.05,1.5327e-06,15.316,1.1769e-06,8.8429,-2.6773e-11,-0.00022711,-1.1769e-06,-8.8429,0.12887
11358,3.6385,4.9091,0,0.00051635,5159.9,0.00017543,0.5051,0.00016189,-101.2,-0.00051799,-5209.5,0.14773
11359,3.5464,4.8182,0,0.00051922,5188.6,0.00017748,0.54685,0.00016094,-123.77,-0.00052121,-5249.1,0.14183
11360,3.5464,4.9091,0.05,1.3678e-06,13.669,1.0503e-06,7.8916,-2.2477e-11,-0.00019721,-1.0503e-06,-7.8916,0.14133
11361,3.8228,4.9091,0,0.00051223,5118.8,0.00017451,0.35025,0.00015975,-110.57,-0.00051402,-5173,0.16071
11362,3.7307,4.8182,0,0.00051483,5144.7,0.00017645,0.38223,0.00015875,-132.56,-0.00051695,-5209.5,0.15464
11363,3.7307,4.9091,0.05,1.2576e-06,12.567,9.6566e-07,7.2555,-1.7783e-11,-0.00016395,-9.6565e-07,-7.2556,0.15413
11364,4.0071,4.9091,0,0.00050774,5073.9,0.00017332,0.25314,0.00015777,-116.54,-0.00050962,-5131.1,0.17404
11365,3.9149,4.8182,0,0.00051013,5097.8,0.00017514,0.27661,0.00015678,-137.73,-0.00051233,-5165.1,0.16779
11366,3.9149,4.9091,0.05,1.1871e-06,11.863,9.1157e-07,6.8491,-1.3427e-11,-0.00013297,-9.1157e-07,-6.8492,0.16729
11367,4.1913,4.9091,0,0.00050299,5026.4,0.0001719,0.18869,0.00015594,-119.71,-0.00050491,-5085.1,0.18772
11368,4.0992,4.8182,0,0.00050523,5048.8,0.00017363,0.20555,0.00015497,-139.98,-0.00050746,-5117.2,0.1813
11369,4.0992,4.9091,0.05,1.1439e-06,11.431,8.7836e-07,6.5996,-5.1235e-12,-0.00010505,-8.7836e-07,-6.5997,0.1808
11370,4.3756,4.9091,0,0.00049803,4976.9,0.0001703,0.14411,0.00015423,-120.6,-0.00049997,-5036,0.20174
11371,4.2835,4.8182,0,0.00050018,4998.3,0.00017195,0.15604,0.00015331,-139.89,-0.00050241,-5066.7,0.19515
11372,4.2835,4.9091,0.05,1.118e-06,11.172,8.585e-07,6.4504,-5.3858e-12,-8.1739e-05,-8.585e-07,-6.4505,0.19465
11373,4.5599,4.9091,0,0.00049295,4926.1,0.00016857,0.11225,0.00015263,-119.67,-0.00049487,-4984.8,0.2161
11374,4.4677,4.8182,0,0.00049503,4946.8,0.00017015,0.12058,0.00015178,-137.95,-0.00049723,-5014.3,0.20934
11375,4.4677,4.9091,0.05,1.1026e-06,11.018,8.4663e-07,6.3612,-1.1171e-12,-6.5468e-05,-8.4664e-07,-6.3614,0.20884
11376,4.7441,4.9091,0,0.00048777,4874.3,0.00016675,0.088886,0.00015112,-117.31,-0.00048966,-4931.9,0.23079
11377,4.652,4.8182,0,0.00048981,4894.7,0.00016826,0.094597,0.00015034,-134.56,-0.00049195,-4960.5,0.22387
11378,4.652,4.9091,0.05,1.0929e-06,10.921,8.392e-07,6.3054,-6.9218e-13,-5.2482e-05,-8.3921e-07,-6.3055,0.22336
11379,4.9284,4.9091,0,0.00048252,4821.9,0.00016484,0.071388,0.00014968,-113.84,-0.00048436,-4877.8,0.24582
11380,4.8363,4.8182,0,0.00048454,4842.1,0.00016631,0.075205,0.00014898,-130.08,-0.00048662,-4905.8,0.23873
11381,4.8363,4.9091,0.05,1.0861e-06,10.854,8.3399e-07,6.2663,6.1194e-13,-3.0627e-05,-8.34e-07,-6.2664,0.23823
11382,5.1127,4.9091,0,0.00047724,4769.1,0.00016289,0.058046,0.0001483,-109.54,-0.00047901,-4822.9,0.26118
11383,5.0205,4.8182,0,0.00047925,4789.2,0.0001643,0.0605,0.00014768,-124.8,-0.00048125,-4850.4,0.25392
11384,5.0205,4.9091,0.05,1.0805e-06,10.798,8.297e-07,6.234,5.0515e-12,-3.599e-05,-8.2971e-07,-6.2342,0.25342
11385,5.2969,4.9091,0,0.00047193,4716,0.0001609,0.047719,0.00014696,-104.65,-0.00047362,-4767.5,0.27686
11386,5.2048,4.8182,0,0.00047395,4736.2,0.00016226,0.049197,0.00014642,-118.95,-0.00047586,-4794.5,0.26944
11387,5.2048,4.9091,0.05,1.0752e-06,10.745,8.2561e-07,6.2033,7.2912e-12,-2.2003e-05,-8.2562e-07,-6.2034,0.26894
11388,5.4812,4.9091,0,0.0004666,4662.8,0.00015888,0.039621,0.00014565,-99.361,-0.00046821,-4711.7,0.29287
11389,5.3891,4.8182,0,0.00046864,4683.1,0.0001602,0.040406,0.00014519,-112.74,-0.00047045,-4738.5,0.28528
11390,5.3891,4.9091,0.05,1.0697e-06,10.689,8.2137e-07,6.1714,4.4733e-12,-2.637e-05,-8.2138e-07,-6.1716,0.28479
11391,5.6655,4.9091,0,0.00046127,4609.5,0.00015685,0.033199,0.00014435,-93.827,-0.00046279,-4655.7,0.30919
11392,5.5733,4.8182,0,0.00046332,4630,0.00015814,0.033497,0.00014398,-106.32,-0.00046504,-4682.2,0.30145
11393,5.5733,4.9091,0.05,1.0638e-06,10.63,8.1683e-07,6.1373,5.1612e-12,-2.3199e-05,-8.1684e-07,-6.1375,0.30095
11394,5.8497,4.9091,0,0.00045593,4556.2,0.00015481,0.028056,0.00014307,-88.175,-0.00045737,-4599.6,0.32582
11395,5.7576,4.8182,0,0.00045801,4576.9,0.00015606,0.028018,0.00014277,-99.823,-0.00045963,-4626,0.31792
11396,5.7576,4.9091,0.05,1.0574e-06,10.567,8.1197e-07,6.1008,4.2081e-12,-1.6276e-05,-8.1198e-07,-6.1009,0.31743
11397,6.034,4.9091,0,0.0004506,4502.9,0.00015277,0.023901,0.00014178,-82.505,-0.00045195,-4543.6,0.34277
11398,5.9419,4.8182,0,0.0004527,4523.9,0.00015399,0.023636,0.00014157,-93.354,-0.00045422,-4569.8,0.33471
11399,5.9419,4.9091,0.05,1.0507e-06,10.5,8.0682e-07,6.0621,4.6468e-12,-1.338e-05,-8.0683e-07,-6.0622,0.33422
11400,6.2183,4.9091,0,0.00044527,4449.6,0.00015073,0.020517,0.0001405,-76.896,-0.00044653,-4487.5,0.36002
11401,6.1261,4.8182,0,0.0004474,4470.9,0.00015193,0.020107,0.00014035,-86.99,-0.00044881,-4513.7,0.35181
11402,6.1261,4.9091,0.05,1.0437e-06,10.43,8.0144e-07,6.0217,5.1196e-12,-1.3934e-05,-8.0145e-07,-6.0219,0.35132
11403,6.4025,4.9091,0,0.00043994,4396.4,0.00014871,0.017742,0.0001392,-71.408,-0.00044111,-4431.6,0.37758
11404,6.3104,4.8182,0,0.0004421,4417.9,0.00014988,0.017246,0.00013912,-80.789,-0.00044342,-4457.8,0.36922
11405,6.3104,4.9091,0.05,1.0365e-06,10.358,7.9591e-07,5.9801,5.2802e-12,-1.327e-05,-7.9593e-07,-5.9803,0.36873
11406,6.5868,4.9091,0,0.00043462,4343.2,0.00014669,0.015451,0.00013789,-66.086,-0.00043571,-4375.9,0.39544
11407,6.4947,4.8182,0,0.0004368,4365,0.00014784,0.014912,0.00013788,-74.797,-0.00043803,-4401.9,0.38692
11408,6.4947,4.9091,0.05,1.0292e-06,10.285,7.903e-07,5.938,5.6578e-12,-7.5623e-06,-7.9031e-07,-5.9381,0.38644
11409,6.7711,4.9091,0,0.00042931,4290.1,0.00014468,0.013548,0.00013657,-60.962,-0.00043031,-4320.3,0.41359
11410,6.6789,4.8182,0,0.00043152,4312.2,0.00014581,0.012996,0.00013662,-69.044,-0.00043265,-4346.3,0.40492
11411,6.6789,4.9091,0.05,1.0219e-06,10.212,7.8466e-07,5.8956,5.7034e-12,-7.9942e-06,-7.8467e-07,-5.8957,0.40444
11412,6.9553,4.9091,0,0.000424,4237.1,0.00014269,0.01196,0.00013523,-56.057,-0.00042493,-4264.8,0.43203
11413,6.8632,4.8182,0,0.00042624,4259.4,0.00014379,0.011417,0.00013534,-63.552,-0.00042728,-4290.8,0.42322
11414,6.8632,4.9091,0.05,1.0145e-06,10.138,7.7904e-07,5.8533,6.1154e-12,-8.8541e-06,-7.7905e-07,-5.8535,0.42274
11415,7.1396,4.9091,0,0.0004187,4184.2,0.00014071,0.010627,0.00013387,-51.387,-0.00041955,-4209.6,0.45077
11416,7.0475,4.8182,0,0.00042096,4206.7,0.0001418,0.010109,0.00013403,-58.332,-0.00042192,-4235.6,0.44181
11417,7.0475,4.9091,0.05,1.0073e-06,10.066,7.7348e-07,5.8116,4.4359e-12,-7.7229e-06,-7.7349e-07,-5.8118,0.44133
11418,7.3239,4.9091,0,0.00041341,4131.3,0.00013875,0.0095036,0.0001325,-46.958,-0.00041419,-4154.6,0.46978
11419,7.2317,4.8182,0,0.00041569,4154.1,0.00013982,0.0090204,0.00013271,-53.39,-0.00041657,-4180.5,0.46068
11420,7.2317,4.9091,0.05,1.0002e-06,9.995,7.6801e-07,5.7705,6.2938e-12,-6.6386e-06,-7.6803e-07,-5.7707,0.46021
11421,7.5081,4.9091,0,0.00040813,4078.5,0.0001368,0.0085539,0.0001311,-42.772,-0.00040884,-4099.7,0.48908
11422,7.416,4.8182,0,0.00041043,4101.5,0.00013785,0.0081123,0.00013136,-48.728,-0.00041124,-4125.6,0.47983
11423,7.416,4.9091,0.05,9.9322e-07,9.9254,7.6266e-07,5.7303,6.3408e-12,-4.4115e-06,-7.6268e-07,-5.7305,0.47937
11424,7.6924,4.9091,0,0.00040286,4025.8,0.00013486,0.0077488,0.00012969,-38.829,-0.00040351,-4045.1,0.50866
11425,7.6003,4.8182,0,0.00040518,4049,0.0001359,0.0073524,0.00013,-44.34,-0.00040591,-4071,0.49927
11426,7.6003,4.9091,0.05,9.8642e-07,9.8574,7.5745e-07,5.6911,6.5219e-12,-5.0044e-06,-7.5745e-07,-5.6913,0.49881
11427,7.8767,4.9091,0,0.0003976,3973.2,0.00013294,0.0070658,0.00012827,-35.123,-0.00039818,-3990.7,0.52851
11428,7.7845,4.8182,0,0.00039993,3996.5,0.00013396,0.0067158,0.00012861,-40.222,-0.0004006,-4016.5,0.51898
11429,7.7845,4.9091,0.05,9.798e-07,9.7913,7.5236e-07,5.6529,6.6054e-12,-3.1905e-06,-7.5237e-07,-5.653,0.51852
11430,8.0609,4.9091,0,0.00039234,3920.7,0.00013104,0.0064863,0.00012683,-31.647,-0.00039287,-3936.4,0.54863
11431,7.9688,4.8182,0,0.00039469,3944.2,0.00013205,0.0061828,0.00012721,-36.363,-0.0003953,-3962.2,0.53896
11432,7.9688,4.9091,0.05,9.7337e-07,9.727,7.4742e-07,5.6158,6.6793e-12,-3.4868e-06,-7.4743e-07,-5.6159,0.53851
11433,8.2452,4.9091,0,0.0003871,3868.3,0.00012915,0.0059965,0.00012537,-28.394,-0.00038757,-3882.4,0.56902
11434,8.1531,4.8182,0,0.00038946,3891.9,0.00013014,0.0057377,0.00012578,-32.755,-0.00039001,-3908.2,0.55921
11435,8.1531,4.9091,0.05,9.6712e-07,9.6646,7.4263e-07,5.5798,6.7072e-12,-2.7844e-06,-7.4264e-07,-5.5799,0.55876
11436,8.4295,4.9091,0,0.00038187,3816,0.00012727,0.0055862,0.0001239,-25.353,-0.00038229,-3828.6,0.58967
11437,8.3373,4.8182,0,0.00038424,3839.8,0.00012825,0.005369,0.00012434,-29.385,-0.00038473,-3854.4,0.57972
11438,8.3373,4.9091,0.05,9.6106e-07,9.604,7.3797e-07,5.5448,6.7706e-12,-2.5556e-06,-7.3798e-07,-5.545,0.57928
11439,8.6137,4.9091,0,0.00037664,3763.8,0.00012541,0.005247,0.00012241,-22.514,-0.00037702,-3775,0.61058
11440,8.5216,4.8182,0,0.00037903,3787.7,0.00012638,0.0050672,0.00012288,-26.242,-0.00037947,-3800.7,0.6005
11441,8.5216,4.9091,0.05,9.5518e-07,9.5452,7.3345e-07,5.5109,5.001e-12,-1.8727e-06,-7.3347e-07,-5.511,0.60006
11442,8.798,4.9091,0,0.00037143,3711.8,0.00012356,0.0049738,0.00012091,-19.867,-0.00037177,-3721.7,0.63174
11443,8.7059,4.8182,0,0.00037383,3735.7,0.00012452,0.0048257,0.00012141,-23.313,-0.00037422,-3747.3,0.62153
11444,8.7059,4.9091,0.05,9.4948e-07,9.4882,7.2907e-07,5.4779,5.0655e-12,-2.0826e-06,-7.2909e-07,-5.4781,0.6211
11445,8.9823,4.9091,0,0.00036624,3659.8,0.00012172,0.0047646,0.0001194,-17.4,-0.00036653,-3668.5,0.65316
11446,8.8901,4.8182,0,0.00036864,3683.8,0.00012267,0.004641,0.00011993,-20.585,-0.00036898,-3694.1,0.64282
11447,8.8901,4.9091,0.05,9.4394e-07,9.4329,7.2482e-07,5.446,6.9434e-12,-9.4973e-07,-7.2483e-07,-5.4461,0.64239
11448,9.1665,4.9091,0,0.00036105,3608,0.00011989,0.0046202,0.00011788,-15.104,-0.0003613,-3615.5,0.67482
11449,9.0744,4.8182,0,0.00036346,3632.1,0.00012083,0.0045118,0.00011843,-18.048,-0.00036376,-3641,0.66436
11450,9.0744,4.9091,0.05,9.3855e-07,9.3791,7.2069e-07,5.4149,5.1347e-12,-1.1101e-06,-7.207e-07,-5.4151,0.66393
11451,9.3508,4.9091,0,0.00035588,3556.3,0.00011808,0.0045461,0.00011635,-12.966,-0.00035609,-3562.8,0.69674
11452,9.2587,4.8182,0,0.00035829,3580.4,0.00011901,0.0044389,0.00011692,-15.688,-0.00035855,-3588.2,0.68614
11453,9.2587,4.9091,0.05,9.3332e-07,9.3268,7.1667e-07,5.3847,4.2756e-12,-2.1006e-07,-7.1668e-07,-5.3849,0.68572
11454,9.5351,4.9091,0,0.00035072,3504.7,0.00011628,0.0045531,0.00011482,-10.978,-0.0003509,-3510.2,0.71889
11455,9.4429,4.8182,0,0.00035313,3528.9,0.0001172,0.0044293,0.00011541,-13.494,-0.00035336,-3535.6,0.70817
11456,9.4429,4.9091,0.05,9.2823e-07,9.2759,7.1276e-07,5.3553,5.2291e-12,-3.2223e-07,-7.1277e-07,-5.3555,0.70775
11457,9.7193,4.9091,0,0.00034557,3453.3,0.00011449,0.0046662,0.00011327,-9.1288,-0.00034572,-3457.9,0.74128
11458,9.6272,4.8182,0,0.00034799,3477.5,0.0001154,0.0044908,0.00011388,-11.455,-0.00034818,-3483.2,0.73043
11459,9.6272,4.9091,0.05,9.2326e-07,9.2263,7.0894e-07,5.3267,4.3438e-12,6.0166e-07,-7.0896e-07,-5.3269,0.73002
11460,9.9036,4.9091,0,0.00034044,3402,0.00011271,0.0049233,0.00011172,-7.4091,-0.00034056,-3405.7,0.7639
11461,9.8115,4.8182,0,0.00034286,3426.2,0.00011362,0.0046537,0.00011234,-9.5609,-0.00034302,-3431,0.75294
11462,9.8115,4.9091,0.05,9.1842e-07,9.1779,7.0523e-07,5.2988,4.3723e-12,8.4762e-07,-7.0524e-07,-5.2989,0.75253
11463,10.088,4.9091,0,0.00033532,3350.9,0.00011094,0.0054029,0.00011017,-5.8101,-0.00033542,-3353.8,0.78676
11464,9.9957,4.8182,0,0.00033774,3375.1,0.00011184,0.0049401,0.0001108,-7.8004,-0.00033787,-3379,0.77567
11465,9.9957,4.9091,0.05,9.1369e-07,9.1306,7.016e-07,5.2715,5.2894e-12,7.866e-07,-7.0161e-07,-5.2716,0.77527
11466,10.272,4.9091,0,0.00033021,3299.9,0.00010919,0.0062933,0.00010861,-4.3231,-0.00033029,-3302,0.80984
11467,10.18,4.8182,0,0.00033264,3324.1,0.00011008,0.0054318,0.00010925,-6.1645,-0.00033274,-3327.2,0.79864
11468,10.18,4.9091,0.05,9.0907e-07,9.0844,6.9805e-07,5.2448,7.1421e-12,1.7464e-06,-6.9806e-07,-5.245,0.79824
11469,10.456,4.9091,0,0.00032513,3249,0.00010744,0.0080511,0.00010705,-2.9406,-0.00032518,-3250.5,0.83315
11470,10.364,4.8182,0,0.00032755,3273.2,0.00010832,0.0062913,0.0001077,-4.644,-0.00032763,-3275.5,0.82183
11471,10.364,4.9091,0.05,9.0454e-07,9.0392,6.9457e-07,5.2187,4.4248e-12,1.4205e-06,-6.9458e-07,-5.2189,0.82144
11472,10.641,4.9091,0,0.00032005,3198.3,0.0001057,0.012539,0.00010548,-1.6566,-0.00032008,-3199.2,0.85668
11473,10.549,4.8182,0,0.00032247,3222.5,0.00010658,0.0078575,0.00010615,-3.2311,-0.00032253,-3224.1,0.84524
11474,10.549,4.9091,0.05,9.0011e-07,8.9949,6.9117e-07,5.1931,4.4431e-12,2.0227e-06,-6.9118e-07,-5.1933,0.84486
11475,10.825,4.9091,0,0.000315,3147.8,0.00010398,0.03822,0.00010391,-0.4822,-0.000315,-3148,0.88042
11476,10.733,4.8182,0,0.00031742,3172,0.00010484,0.011596,0.00010459,-1.9187,-0.00031745,-3172.9,0.86887
11477,10.733,4.9091,0.05,8.9574e-07,8.9512,6.8781e-07,5.1679,4.4663e-12,1.7645e-06,-6.8782e-07,-5.1681,0.86849
11478,11.009,4.9091,0,0.00030996,3097.4,0.00010235,0.69797,0.00010225,-0.023569,-0.00030995,-3097.1,0.90438
11479,10.917,4.8182,0,0.00031237,3121.6,0.00010312,0.027586,0.00010302,-0.70936,-0.00031238,-3121.9,0.89272
11480,10.917,4.9091,0.05,8.9146e-07,8.9085,6.8453e-07,5.1433,4.4758e-12,1.6499e-06,-6.8454e-07,-5.1434,0.89235
11481,11.193,4.9091,0,0.00030493,3047.2,0.00010077,1.7261,0.00010054,-0.0085766,-0.0003049,-3046.4,0.92855
11482,11.101,4.8182,0,0.00030734,3071.3,0.00010147,0.49431,0.0001014,-0.03474,-0.00030734,-3071.1,0.91678
11483,11.101,4.9091,0.05,8.8726e-07,8.8665,6.813e-07,5.119,4.4942e-12,1.6251e-06,-6.8131e-07,-5.1192,0.91641
11484,11.378,4.9091,0,0.00029992,2997.2,9.9201e-05,2.6963,9.8841e-05,-0.0050045,-0.00029988,-2995.8,0.95292
11485,11.286,4.8182,0,0.00030233,3021.2,9.9899e-05,1.5337,9.9693e-05,-0.0098345,-0.00030231,-3020.5,0.94104
11486,11.286,4.9091,0.05,8.8313e-07,8.8252,6.7813e-07,5.0952,4.506e-12,1.3781e-06,-6.7814e-07,-5.0953,0.94068
11487,11.562,4.9091,0,0.00029493,2947.3,9.763e-05,3.6049,9.7149e-05,-0.0034518,-0.00029487,-2945.5,0.9775
11488,11.47,4.8182,0,0.00029734,2971.3,9.8333e-05,2.5223,9.7996e-05,-0.0052883,-0.0002973,-2970.1,0.96552
11489,11.47,4.9091,0.05,8.7905e-07,8.7844,6.75e-07,5.0716,5.4268e-12,1.978e-06,-6.7501e-07,-5.0718,0.96516
11490,11.746,4.9091,0,0.00028996,2897.6,9.6059e-05,4.456,9.5466e-05,-0.0025683,-0.00028988,-2895.4,1.0023
11491,11.654,4.8182,0,0.00029236,2921.6,9.6767e-05,3.4487,9.6308e-05,-0.0034053,-0.0002923,-2919.9,0.99019
11492,11.654,4.9091,0.05,8.7502e-07,8.7441,6.719e-07,5.0484,4.5244e-12,2.2032e-06,-6.7191e-07,-5.0485,0.98984
11493,11.931,4.9091,0,0.00028501,2848.1,9.4491e-05,5.254,9.3791e-05,-0.0020094,-0.00028492,-2845.5,1.0273
11494,11.838,4.8182,0,0.0002874,2872,9.5202e-05,4.3164,9.4627e-05,-0.0023533,-0.00028732,-2869.8,1.0151
11495,11.838,4.9091,0.05,8.7105e-07,8.7044,6.6885e-07,5.0255,3.6278e-12,2.6263e-06,-6.6886e-07,-5.0256,1.0147
11496,12.115,4.9091,0,0.00028007,2798.7,9.2924e-05,6.0035,9.2124e-05,-0.0016477,-0.00027996,-2795.7,1.0524
11497,12.023,4.8182,0,0.00028245,2822.6,9.3639e-05,5.13,9.2956e-05,-0.0017214,-0.00028237,-2820,1.0401
11498,12.023,4.9091,0.05,8.6713e-07,8.6653,6.6584e-07,5.0029,3.6366e-12,2.9997e-06,-6.6585e-07,-5.003,1.0398
11499,12.299,4.9091,0,0.00027515,2749.6,9.1359e-05,6.7086,9.0466e-05,-0.0014087,-0.00027503,-2746.2,1.0778
11500,12.207,4.8182,0,0.00027753,2773.4,9.2077e-05,5.8941,9.1292e-05,-0.0012995,-0.00027743,-2770.4,1.0654
11501,12.207,4.9091,0.05,8.6326e-07,8.6266,6.6287e-07,4.9805,3.6456e-12,3.5112e-06,-6.6288e-07,-4.9807,1.065
11502,12.483,4.9091,0,0.00027024,2700.6,8.9796e-05,7.3736,8.8815e-05,-0.0012337,-0.00027012,-2696.9,1.1033
11503,12.391,4.8182,0,0.00027262,2724.3,9.0517e-05,6.613,8.9636e-05,-0.0010267,-0.00027251,-2721,1.0908
11504,12.391,4.9091,0.05,8.5942e-07,8.5883,6.5993e-07,4.9584,4.5623e-12,2.839e-06,-6.5994e-07,-4.9585,1.0905
11505,12.668,4.9091,0,0.00026536,2651.8,8.8237e-05,8.0022,8.7172e-05,-0.001068,-0.00026522,-2647.8,1.129
11506,12.575,4.8182,0,0.00026773,2675.4,8.8959e-05,7.2912,8.7989e-05,-0.00079476,-0.0002676,-2671.8,1.1165
11507,12.575,4.9091,0.05,8.5562e-07,8.5503,6.57e-07,4.9364,3.6601e-12,2.3906e-06,-6.5701e-07,-4.9366,1.1161
11508,12.852,4.9091,0,0.00026049,2603.1,8.6681e-05,8.598,8.5537e-05,-0.00093132,-0.00026035,-2598.8,1.1549
11509,12.76,4.8182,0,0.00026286,2626.7,8.7405e-05,7.9324,8.6349e-05,-0.00057697,-0.00026272,-2622.8,1.1423
11510,12.76,4.9091,0.05,8.5186e-07,8.5127,6.5412e-07,4.9148,3.6669e-12,3.5982e-06,-6.5413e-07,-4.9149,1.142
11511,13.036,4.9091,0,0.00025565,2554.7,8.5129e-05,9.1643,8.3909e-05,-0.00083468,-0.00025549,-2550.1,1.181
11512,12.944,4.8182,0,0.000258,2578.2,8.5853e-05,8.5404,8.4717e-05,-0.00042612,-0.00025785,-2573.9,1.1683
11513,12.944,4.9091,0.05,8.4814e-07,8.4756,6.5126e-07,4.8933,3.6675e-12,3.8305e-06,-6.5127e-07,-4.8934,1.1679
11514,13.22,4.9091,0,0.00025082,2506.5,8.3581e-05,9.7045,8.2289e-05,-0.00077045,-0.00025065,-2501.6,1.2073
11515,13.128,4.8182,0,0.00025316,2529.9,8.4306e-05,9.1187,8.3092e-05,-0.00030387,-0.00025301,-2525.3,1.1944
11516,13.128,4.9091,0.05,8.4445e-07,8.4387,6.4843e-07,4.872,3.6762e-12,5.3269e-06,-6.4844e-07,-4.8722,1.1941
11517,13.405,4.9091,0,0.00024601,2458.4,8.2036e-05,10.221,8.0676e-05,-0.00071591,-0.00024583,-2453.3,1.2337
11518,13.313,4.8182,0,0.00024835,2481.8,8.2762e-05,9.6705,8.1475e-05,-0.00022849,-0.00024818,-2476.9,1.2208
11519,13.313,4.9091,0.05,8.4079e-07,8.4021,6.4562e-07,4.8509,3.6818e-12,4.9803e-06,-6.4563e-07,-4.851,1.2205
11520,13.589,4.9091,0,0.00024122,2410.5,8.0497e-05,10.718,7.907e-05,-0.0006374,-0.00024103,-2405.1,1.2603
11521,13.497,4.8182,0,0.00024355,2433.8,8.1223e-05,10.199,7.9865e-05,-0.00013311,-0.00024337,-2428.7,1.2473
11522,13.497,4.9091,0.05,8.3715e-07,8.3657,6.4283e-07,4.8299,3.6777e-12,5.089e-06,-6.4283e-07,-4.83,1.247
11523,13.773,4.9091,0,0.00023645,2362.8,7.8962e-05,11.198,7.7472e-05,-0.00056407,-0.00023625,-2357.2,1.2871
11524,13.681,4.8182,0,0.00023877,2386,7.9688e-05,10.708,7.8263e-05,-1.6651e-05,-0.00023858,-2380.7,1.2739
11525,13.681,4.9091,0.05,8.3355e-07,8.3297,6.4005e-07,4.8091,3.6865e-12,4.276e-06,-6.4007e-07,-4.8092,1.2736
11526,13.957,4.9091,0,0.00023169,2315.3,7.7433e-05,11.662,7.5881e-05,-0.00051183,-0.00023149,-2309.5,1.314
11527,13.865,4.8182,0,0.00023401,2338.5,7.8158e-05,11.199,7.6667e-05,6.4677e-05,-0.00023382,-2332.8,1.3008
11528,13.865,4.9091,0.05,8.2997e-07,8.294,6.3731e-07,4.7885,2.7765e-12,4.1328e-06,-6.3732e-07,-4.7886,1.3005
11529,14.142,4.9091,0,0.00022696,2268.1,7.5909e-05,12.114,7.4296e-05,-0.00047796,-0.00022675,-2262,1.341
11530,14.05,4.8182,0,0.00022927,2291.1,7.6633e-05,11.675,7.5079e-05,0.00013612,-0.00022907,-2285.2,1.3277
11531,14.05,4.9091,0.05,8.2643e-07,8.2585,6.3459e-07,4.768,2.7859e-12,5.0068e-06,-6.3459e-07,-4.7681,1.3275
11532,14.326,4.9091,0,0.00022225,2220.9,7.439e-05,12.556,7.2719e-05,-0.00044476,-0.00022203,-2214.6,1.3683
11533,14.234,4.8182,0,0.00022454,2243.9,7.5113e-05,12.14,7.3498e-05,0.00017828,-0.00022434,-2237.8,1.3549
11534,14.234,4.9091,0.05,8.229e-07,8.2233,6.3188e-07,4.7477,3.6929e-12,3.9887e-06,-6.3189e-07,-4.7478,1.3546
11535,14.51,4.9091,0,0.00021755,2174,7.2878e-05,12.991,7.1148e-05,-0.00038264,-0.00021733,-2167.5,1.3956
11536,14.418,4.8182,0,0.00021984,2196.9,7.3599e-05,12.595,7.1923e-05,0.00024708,-0.00021963,-2190.6,1.3822
11537,14.418,4.9091,0.05,8.1938e-07,8.1882,6.2918e-07,4.7274,2.7876e-12,4.6161e-06,-6.2919e-07,-4.7275,1.3819
11538,14.695,4.9091,0,0.00021288,2127.3,7.1371e-05,13.421,6.9585e-05,-0.00031952,-0.00021265,-2120.6,1.4232
11539,14.602,4.8182,0,0.00021516,2150.1,7.2091e-05,13.044,7.0355e-05,0.00034517,-0.00021493,-2143.6,1.4096
11540,14.602,4.9091,0.05,8.159e-07,8.1534,6.2651e-07,4.7073,1.8746e-12,5.5041e-06,-6.2651e-07,-4.7074,1.4094
11541,14.879,4.9091,0,0.00020823,2080.8,6.9871e-05,13.848,6.8028e-05,-0.00027254,-0.00020799,-2073.9,1.4508
11542,14.787,4.8182,0,0.0002105,2103.5,7.059e-05,13.488,6.8795e-05,0.00041588,-0.00021026,-2096.7,1.4372
11543,14.787,4.9091,0.05,8.1245e-07,8.1189,6.2386e-07,4.6874,2.7798e-12,6.6675e-06,-6.2386e-07,-4.6875,1.437
11544,15.063,4.9091,0,0.00020359,2034.5,6.8377e-05,14.274,6.6477e-05,-0.00023806,-0.00020335,-2027.3,1.4786
11545,14.971,4.8182,0,0.00020585,2057.1,6.9094e-05,13.93,6.724e-05,0.00048227,-0.00020561,-2050.1,1.4649
11546,14.971,4.9091,0.05,8.0902e-07,8.0846,6.2123e-07,4.6676,2.7739e-12,5.6573e-06,-6.2123e-07,-4.6677,1.4647
11547,15.247,4.9091,0,0.00019898,1988.4,6.689e-05,14.702,6.4933e-05,-0.00020079,-0.00019872,-1981,1.5066
11548,15.155,4.8182,0,0.00020123,2010.9,6.7605e-05,14.373,6.5693e-05,0.00052732,-0.00020098,-2003.7,1.4928
11549,15.155,4.9091,0.05,8.0561e-07,8.0505,6.1861e-07,4.6479,2.7853e-12,6.5448e-06,-6.1861e-07,-4.648,1.4926
11550,15.432,4.9091,0,0.00019438,1942.5,6.541e-05,15.134,6.3396e-05,-0.00013564,-0.00019412,-1934.9,1.5347
11551,15.339,4.8182,0,0.00019663,1964.9,6.6123e-05,14.818,6.4151e-05,0.00060051,-0.00019637,-1957.5,1.5208
11552,15.339,4.9091,0.05,8.0221e-07,8.0166,6.16e-07,4.6284,2.7873e-12,5.6926e-06,-6.16e-07,-4.6284,1.5206
11553,15.616,4.9091,0,0.00018981,1896.8,6.3937e-05,15.572,6.1864e-05,-6.7254e-05,-0.00018954,-1889,1.5629
11554,15.524,4.8182,0,0.00019204,1919.1,6.4648e-05,15.268,6.2616e-05,0.00070075,-0.00019178,-1911.4,1.549
11555,15.524,4.9091,0.05,7.9885e-07,7.983,6.1342e-07,4.6089,1.8864e-12,4.5778e-06,-6.1342e-07,-4.609,1.5487
11556,15.8,4.9091,0,0.00018526,1851.3,6.2471e-05,16.018,6.034e-05,-1.0136e-05,-0.00018498,-1843.2,1.5912
11557,15.708,4.8182,0,0.00018748,1873.5,6.3181e-05,15.726,6.1088e-05,0.000781,-0.00018721,-1865.6,1.5772
11558,15.708,4.9091,0.05,7.9551e-07,7.9496,6.1085e-07,4.5897,1.8945e-12,3.4285e-06,-6.1086e-07,-4.5898,1.577
11559,15.984,4.9091,0,0.00018072,1806,6.1013e-05,16.474,5.8821e-05,3.911e-05,-0.00018044,-1797.7,1.6197
11560,15.892,4.8182,0,0.00018294,1828.1,6.1721e-05,16.194,5.9566e-05,0.00086135,-0.00018266,-1820,1.6056
11561,15.892,4.9091,0.05,7.922e-07,7.9165,6.0831e-07,4.5706,3.2511e-12,4.2853e-06,-6.0831e-07,-4.5706,1.6054
11562,16.169,4.9091,0,0.00017621,1760.9,5.9563e-05,16.944,5.7308e-05,9.2616e-05,-0.00017592,-1752.4,1.6482
11563,16.077,4.8182,0,0.00017842,1782.9,6.0269e-05,16.674,5.805e-05,0.00092561,-0.00017813,-1774.5,1.6341
11564,16.077,4.9091,0.05,7.8891e-07,7.8836,6.0578e-07,4.5516,2.356e-12,4.4278e-06,-6.0579e-07,-4.5517,1.6339
11565,16.353,4.9091,0,0.00017172,1716,5.8121e-05,17.428,5.5802e-05,0.00017253,-0.00017142,-1707.2,1.677
11566,16.261,4.8182,0,0.00017391,1737.9,5.8824e-05,17.169,5.6539e-05,0.0010179,-0.00017362,-1729.3,1.6628
11567,16.261,4.9091,0.05,7.8564e-07,7.851,6.0327e-07,4.5327,2.3607e-12,5.5812e-06,-6.0327e-07,-4.5328,1.6626
11568,16.537,4.9091,0,0.00016725,1671.3,5.6688e-05,17.93,5.4301e-05,0.00025893,-0.00016694,-1662.3,1.7058
11569,16.445,4.8182,0,0.00016943,1693.2,5.7389e-05,17.682,5.5035e-05,0.0011368,-0.00016913,-1684.3,1.6915
11570,16.445,4.9091,0.05,7.824e-07,7.8186,6.0079e-07,4.5141,2.3599e-12,5.9072e-06,-6.0079e-07,-4.5141,1.6913
11571,16.721,4.9091,0,0.0001628,1626.9,5.5262e-05,18.453,5.2807e-05,0.00033839,-0.00016248,-1617.5,1.7347
11572,16.629,4.8182,0,0.00016498,1648.6,5.5961e-05,18.214,5.3537e-05,0.0012427,-0.00016466,-1639.4,1.7204
11573,16.629,4.9091,0.05,7.792e-07,7.7866,5.9832e-07,4.4956,2.3674e-12,6.5322e-06,-5.9833e-07,-4.4956,1.7202
11574,16.906,4.9091,0,0.00015837,1582.6,5.3846e-05,18.998,5.1318e-05,0.00041149,-0.00015804,-1573,1.7637
11575,16.814,4.8182,0,0.00016054,1604.3,5.4543e-05,18.77,5.2045e-05,0.0013504,-0.00016021,-1594.8,1.7494
11576,16.814,4.9091,0.05,7.7602e-07,7.7549,5.9589e-07,4.4773,2.3795e-12,5.5061e-06,-5.9589e-07,-4.4773,1.7492
11577,17.09,4.9091,0,0.00015396,1538.5,5.2439e-05,19.568,4.9834e-05,0.00049303,-0.00015362,-1528.7,1.7929
11578,16.998,4.8182,0,0.00015612,1560.1,5.3133e-05,19.35,5.0558e-05,0.0014476,-0.00015578,-1550.3,1.7785
11579,16.998,4.9091,0.05,7.7288e-07,7.7235,5.9347e-07,4.4591,1.9147e-12,5.3609e-06,-5.9348e-07,-4.4592,1.7783
11580,17.274,4.9091,0,0.00014957,1494.7,5.1041e-05,20.167,4.8357e-05,0.00060212,-0.00014922,-1484.5,1.8221
11581,17.182,4.8182,0,0.00015172,1516.2,5.1733e-05,19.96,4.9077e-05,0.0015757,-0.00015137,-1506.1,1.8077
11582,17.182,4.9091,0.05,7.6976e-07,7.6923,5.9108e-07,4.4411,1.9208e-12,5.4978e-06,-5.9108e-07,-4.4412,1.8075
11583,17.459,4.9091,0,0.00014521,1451.1,4.9652e-05,20.797,4.6884e-05,0.00072029,-0.00014484,-1440.6,1.8515
11584,17.366,4.8182,0,0.00014735,1472.5,5.0343e-05,20.602,4.7601e-05,0.0017309,-0.00014699,-1462.1,1.837
11585,17.366,4.9091,0.05,7.6669e-07,7.6616,5.8872e-07,4.4234,1.9366e-12,4.8795e-06,-5.8872e-07,-4.4234,1.8368
11586,17.643,4.9091,0,0.00014086,1407.7,4.8274e-05,21.461,4.5417e-05,0.00083718,-0.00014048,-1396.8,1.8809
11587,17.551,4.8182,0,0.000143,1429,4.8962e-05,21.278,4.6131e-05,0.0018804,-0.00014262,-1418.2,1.8664
11588,17.551,4.9091,0.05,7.6365e-07,7.6313,5.8639e-07,4.4059,1.9384e-12,6.0903e-06,-5.8639e-07,-4.406,1.8662
11589,17.827,4.9091,0,0.00013654,1364.4,4.6905e-05,22.163,4.3956e-05,0.00095352,-0.00013615,-1353.2,1.9105
11590,17.735,4.8182,0,0.00013866,1385.7,4.7592e-05,21.993,4.4665e-05,0.0020366,-0.00013828,-1374.6,1.8959
11591,17.735,4.9091,0.05,7.6066e-07,7.6014,5.8409e-07,4.3886,1.49e-12,4.6711e-06,-5.841e-07,-4.3887,1.8957
11592,18.011,4.9091,0,0.00013224,1321.5,4.5547e-05,22.906,4.2499e-05,0.0010831,-0.00013183,-1309.9,1.9401
11593,17.919,4.8182,0,0.00013435,1342.6,4.6233e-05,22.75,4.3205e-05,0.0021917,-0.00013395,-1331.1,1.9254
11594,17.919,4.9091,0.05,7.5772e-07,7.5719,5.8183e-07,4.3716,1.9442e-12,5.001e-06,-5.8183e-07,-4.3717,1.9253
11595,18.196,4.9091,0,0.00012796,1278.7,4.42e-05,23.693,4.1047e-05,0.0012433,-0.00012754,-1266.7,1.9698
11596,18.103,4.8182,0,0.00013007,1299.8,4.4885e-05,23.553,4.175e-05,0.0023789,-0.00012965,-1287.8,1.9551
11597,18.103,4.9091,0.05,7.5481e-07,7.5429,5.796e-07,4.3549,1.9508e-12,5.5071e-06,-5.796e-07,-4.3549,1.955
11598,18.38,4.9091,0,0.0001237,1236.2,4.2865e-05,24.529,3.96e-05,0.0014183,-0.00012326,-1223.7,1.9997
11599,18.288,4.8182,0,0.0001258,1257.1,4.3548e-05,24.407,4.03e-05,0.0025988,-0.00012537,-1244.8,1.9849
11600,18.288,4.9091,0.05,7.5196e-07,7.5144,5.7741e-07,4.3384,1.0945e-12,6.7152e-06,-5.7741e-07,-4.3385,1.9847
11601,18.564,4.9091,0,0.00011946,1193.8,4.154e-05,25.418,3.8158e-05,0.0015986,-0.00011901,-1180.9,2.0296
11602,18.472,4.8182,0,0.00012156,1214.7,4.2222e-05,25.314,3.8854e-05,0.0028223,-0.00012111,-1201.9,2.0147
11603,18.472,4.9091,0.05,7.4917e-07,7.4865,5.7527e-07,4.3223,2.0054e-12,9.0371e-06,-5.7527e-07,-4.3224,2.0146
11604,18.748,4.9091,0,0.00011525,1151.7,4.0228e-05,26.364,3.672e-05,0.0017909,-0.00011478,-1138.3,2.0595
11605,18.656,4.8182,0,0.00011734,1172.6,4.091e-05,26.281,3.7412e-05,0.0030608,-0.00011687,-1159.2,2.0447
11606,18.656,4.9091,0.05,7.4644e-07,7.4592,5.7317e-07,4.3066,1.9918e-12,5.0983e-06,-5.7317e-07,-4.3066,2.0445
11607,18.933,4.9091,0,0.00011106,1109.8,3.8928e-05,27.371,3.5286e-05,0.0020075,-0.00011057,-1095.9,2.0896
11608,18.841,4.8182,0,0.00011314,1130.6,3.961e-05,27.312,3.5975e-05,0.0033142,-0.00011265,-1116.7,2.0747
11609,18.841,4.9091,0.05,7.4377e-07,7.4326,5.7112e-07,4.2912,1.584e-12,3.6878e-06,-5.7112e-07,-4.2912,2.0745
11610,19.117,4.9091,0,0.00010689,1068.2,3.7642e-05,28.445,3.3856e-05,0.0022623,-0.00010638,-1053.7,2.1197
11611,19.025,4.8182,0,0.00010896,1088.9,3.8323e-05,28.413,3.4542e-05,0.0036077,-0.00010845,-1074.4,2.1048
11612,19.025,4.9091,0.05,7.4117e-07,7.4066,5.6913e-07,4.2762,7.1364e-13,6.5758e-06,-5.6913e-07,-4.2762,2.1046
11613,19.301,4.9091,0,0.00010275,1026.7,3.6368e-05,29.591,3.243e-05,0.0025462,-0.00010221,-1011.6,2.1499
11614,19.209,4.8182,0,0.00010481,1047.4,3.705e-05,29.588,3.3112e-05,0.003946,-0.00010428,-1032.3,2.1349
11615,19.209,4.9091,0.05,7.3865e-07,7.3814,5.6719e-07,4.2616,1.6197e-12,6.8012e-06,-5.6719e-07,-4.2617,2.1348
11616,19.485,4.9091,0,9.8623e-05,985.55,3.5108e-05,30.815,3.1007e-05,0.0028553,-9.8063e-05,-969.78,2.1802
11617,19.393,4.8182,0,0.00010068,1006.1,3.5791e-05,30.845,3.1686e-05,0.0043089,-0.00010012,-990.36,2.1651
11618,19.393,4.9091,0.05,7.3621e-07,7.357,5.6532e-07,4.2476,7.7222e-13,8.5986e-06,-5.6532e-07,-4.2476,2.165
11619,19.67,4.9091,0,9.4524e-05,944.58,3.3863e-05,32.123,2.9588e-05,0.0031974,-9.3936e-05,-928.11,2.2105
11620,19.578,4.8182,0,9.6579e-05,965.12,3.4547e-05,32.19,3.0264e-05,0.004706,-9.5991e-05,-948.62,2.1954
11621,19.578,4.9091,0.05,7.3386e-07,7.3336,5.6352e-07,4.234,7.915e-13,8.3832e-06,-5.6352e-07,-4.2341,2.1953
11622,19.854,4.9091,0,9.0448e-05,903.85,3.2633e-05,33.522,2.8172e-05,0.0035858,-8.9831e-05,-886.62,2.2409
11623,19.762,4.8182,0,9.2498e-05,924.34,3.3319e-05,33.63,2.8844e-05,0.0051449,-9.188e-05,-907.07,2.2258
11624,19.762,4.9091,0.05,7.3161e-07,7.3111,5.6179e-07,4.221,1.2886e-12,8.8564e-06,-5.6179e-07,-4.2211,2.2257
11625,20.038,4.9091,0,8.6396e-05,863.36,3.1419e-05,35.02,2.6759e-05,0.0040408,-8.5747e-05,-845.32,2.2713
11626,19.946,4.8182,0,8.8442e-05,883.81,3.2107e-05,35.172,2.7427e-05,0.0056488,-8.7791e-05,-865.7,2.2562
11627,19.946,4.9091,0.05,7.2946e-07,7.2896,5.6013e-07,4.2086,1.2545e-12,6.4943e-06,-5.6014e-07,-4.2086,2.2561
11628,20.223,4.9091,0,8.2368e-05,823.12,3.0221e-05,36.623,2.5348e-05,0.004561,-8.1684e-05,-804.19,2.3019
11629,20.13,4.8182,0,8.4412e-05,843.53,3.0913e-05,36.826,2.6012e-05,0.0062306,-8.3725e-05,-824.52,2.2867
11630,20.13,4.9091,0.05,7.2743e-07,7.2693,5.5857e-07,4.1969,1.2415e-12,9.219e-06,-5.5858e-07,-4.1969,2.2866
11631,20.407,4.9091,0,7.8366e-05,783.12,2.9041e-05,38.342,2.3939e-05,0.0051528,-7.7643e-05,-763.24,2.3324
11632,20.315,4.8182,0,8.0407e-05,803.51,2.9736e-05,38.601,2.46e-05,0.0068811,-7.968e-05,-783.51,2.3172
11633,20.315,4.9091,0.05,7.2552e-07,7.2502,5.5711e-07,4.1859,1.2748e-12,1.1803e-05,-5.5711e-07,-4.1859,2.3171
11634,20.591,4.9091,0,7.4389e-05,743.38,2.7879e-05,40.187,2.2531e-05,0.0058344,-7.3624e-05,-722.47,2.363
11635,20.499,4.8182,0,7.6428e-05,763.75,2.8579e-05,40.507,2.3189e-05,0.0076221,-7.5658e-05,-742.69,2.3478
11636,20.499,4.9091,0.05,7.2376e-07,7.2326,5.5575e-07,4.1757,7.2895e-13,1.1519e-05,-5.5575e-07,-4.1757,2.3477
11637,20.775,4.9091,0,7.0439e-05,703.91,2.6737e-05,42.168,2.1125e-05,0.0066306,-6.9627e-05,-681.87,2.3937
11638,20.683,4.8182,0,7.2476e-05,724.26,2.7442e-05,42.556,2.1779e-05,0.0084696,-7.1659e-05,-702.04,2.3785
11639,20.683,4.9091,0.05,7.2213e-07,7.2164,5.5451e-07,4.1664,9.5182e-13,1.4085e-05,-5.5451e-07,-4.1664,2.3784
11640,20.96,4.9091,0,6.6517e-05,664.71,2.5615e-05,44.3,1.972e-05,0.0075791,-6.5652e-05,-641.45,2.4244
11641,20.867,4.8182,0,6.8553e-05,685.06,2.6326e-05,44.761,2.037e-05,0.0094606,-6.7682e-05,-661.58,2.4092
11642,20.867,4.9091,0.05,7.2067e-07,7.2018,5.5339e-07,4.1579,9.3405e-13,1.2084e-05,-5.5339e-07,-4.1579,2.409
11643,21.144,4.9091,0,6.2624e-05,625.81,2.4516e-05,46.596,1.8316e-05,0.0087017,-6.1701e-05,-601.2,2.4552
11644,21.052,4.8182,0,6.466e-05,646.16,2.5233e-05,47.138,1.8961e-05,0.010632,-6.3729e-05,-621.29,2.4399
11645,21.052,4.9091,0.05,7.194e-07,7.189,5.5241e-07,4.1506,3.2651e-13,1.3488e-05,-5.5241e-07,-4.1506,2.4398
11646,21.328,4.9091,0,5.8762e-05,587.21,2.3441e-05,49.075,1.691e-05,0.010038,-5.7773e-05,-561.13,2.486
11647,21.236,4.8182,0,6.0799e-05,607.57,2.4166e-05,49.702,1.7552e-05,0.011996,-5.98e-05,-581.18,2.4707
11648,21.236,4.9091,0.05,7.1833e-07,7.1783,5.5158e-07,4.1444,1.096e-12,1.1058e-05,-5.5158e-07,-4.1444,2.4706
11649,21.512,4.9091,0,5.4933e-05,548.95,2.2391e-05,51.756,1.5505e-05,0.01165,-5.3869e-05,-521.23,2.5168
11650,21.42,4.8182,0,5.6971e-05,569.32,2.3125e-05,52.476,1.6142e-05,0.013622,-5.5896e-05,-541.26,2.5015
11651,21.42,4.9091,0.05,7.1748e-07,7.1698,5.5093e-07,4.1395,9.8575e-13,8.9164e-06,-5.5093e-07,-4.1395,2.5014
11652,21.697,4.9091,0,5.1141e-05,511.06,2.1371e-05,54.666,1.4097e-05,0.013617,-4.9991e-05,-481.52,2.5477
11653,21.605,4.8182,0,5.318e-05,531.43,2.2113e-05,55.482,1.4731e-05,0.015567,-5.2018e-05,-501.51,2.5323
11654,21.605,4.9091,0.05,7.1689e-07,7.1639,5.5048e-07,4.1361,9.1274e-13,1.1036e-05,-5.5048e-07,-4.1361,2.5322
11655,21.881,4.9091,0,4.739e-05,473.57,2.0383e-05,57.833,1.2688e-05,0.01605,-4.614e-05,-441.99,2.5786
11656,21.789,4.8182,0,4.943e-05,493.96,2.1133e-05,58.749,1.3316e-05,0.017937,-4.8167e-05,-461.95,2.5632
11657,21.789,4.9091,0.05,7.1659e-07,7.1609,5.5025e-07,4.1344,5.4053e-13,1.0954e-05,-5.5025e-07,-4.1344,2.5631
11658,22.065,4.9091,0,4.3685e-05,436.55,1.943e-05,61.295,1.1275e-05,0.019088,-4.2318e-05,-402.65,2.6095
11659,21.973,4.8182,0,4.5725e-05,456.94,2.0189e-05,62.311,1.1899e-05,0.020851,-4.4345e-05,-422.57,2.5941
11660,21.973,4.9091,0.05,7.1664e-07,7.1614,5.5029e-07,4.1347,9.6258e-13,1.5378e-05,-5.5029e-07,-4.1346,2.5941
11661,22.249,4.9091,0,4.0035e-05,400.07,1.8518e-05,65.098,9.8571e-06,0.022928,-3.8528e-05,-363.52,2.6405
11662,22.157,4.8182,0,4.2073e-05,420.44,1.9286e-05,66.209,1.0477e-05,0.024473,-4.0554e-05,-383.4,2.6251
11663,22.157,4.9091,0.05,7.1711e-07,7.1661,5.5065e-07,4.1374,6.4456e-13,1.8702e-05,-5.5065e-07,-4.1373,2.625
11664,22.434,4.9091,0,3.6449e-05,364.24,1.7653e-05,69.296,8.4338e-06,0.027878,-3.4772e-05,-324.6,2.6715
11665,22.342,4.8182,0,3.8483e-05,384.56,1.8427e-05,70.492,9.0492e-06,0.029039,-3.6796e-05,-344.43,2.6561
11666,22.342,4.9091,0.05,7.1809e-07,7.1759,5.514e-07,4.143,6.6567e-13,1.4893e-05,-5.514e-07,-4.143,2.656
11667,22.618,4.9091,0,3.2943e-05,329.2,1.6842e-05,73.959,7.0028e-06,0.034326,-3.1055e-05,-285.92,2.7025
11668,22.526,4.8182,0,3.4967e-05,349.43,1.762e-05,75.22,7.6139e-06,0.034949,-3.3074e-05,-305.68,2.6871
11669,22.526,4.9091,0.05,7.1971e-07,7.1921,5.5265e-07,4.1524,9.5372e-13,1.2375e-05,-5.5265e-07,-4.1524,2.687
11670,22.802,4.9091,0,2.9535e-05,295.15,1.6093e-05,79.172,5.562e-06,0.04321,-2.738e-05,-247.47,2.7335
11671,22.71,4.8182,0,3.1541e-05,315.2,1.6873e-05,80.465,6.1691e-06,0.042609,-2.9392e-05,-267.15,2.7181
11672,22.71,4.9091,0.05,7.2217e-07,7.2167,5.5454e-07,4.1666,9.4246e-13,1.1675e-05,-5.5454e-07,-4.1666,2.718
11673,22.987,4.9091,0,2.6254e-05,262.36,1.5418e-05,85.033,4.1085e-06,0.054821,-2.3752e-05,-209.28,2.7646
11674,22.894,4.8182,0,2.823e-05,282.1,1.6193e-05,86.311,4.7124e-06,0.053552,-2.5753e-05,-228.85,2.7491
11675,22.894,4.9091,0.05,7.2575e-07,7.2525,5.5729e-07,4.1872,1.0273e-12,1.0911e-05,-5.5729e-07,-4.1872,2.7491
11676,23.171,4.9091,0,2.3139e-05,231.23,1.4827e-05,91.655,2.6388e-06,0.075012,-2.0175e-05,-171.34,2.7957
11677,23.079,4.8182,0,2.5065e-05,250.47,1.5589e-05,92.849,3.2406e-06,0.066988,-2.2159e-05,-190.78,2.7802
11678,23.079,4.9091,0.05,7.3082e-07,7.3032,5.6118e-07,4.2165,9.0154e-13,1.1627e-05,-5.6118e-07,-4.2165,2.7801
11679,23.355,4.9091,0,2.0245e-05,202.31,1.433e-05,99.144,1.1476e-06,0.094429,-1.6647e-05,-133.61,2.8267
11680,23.263,4.8182,0,2.2092e-05,220.76,1.5071e-05,100.18,1.7505e-06,0.095864,-1.8612e-05,-152.9,2.8113
11681,23.263,4.9091,0.05,7.379e-07,7.3739,5.6661e-07,4.2573,9.5932e-13,1.0624e-05,-5.6661e-07,-4.2573,2.8112
11682,23.539,4.9091,0,1.7656e-05,176.44,1.3934e-05,107.62,-3.6521e-07,0.18226,-1.3167e-05,-96.007,2.8578
11683,23.447,4.8182,0,1.9375e-05,193.62,1.4644e-05,108.37,2.3515e-07,0.10974,-1.5107e-05,-115.16,2.8424
11684,23.447,4.9091,0.05,7.4757e-07,7.4706,5.7404e-07,4.3131,8.6021e-13,9.6002e-06,-5.7404e-07,-4.3131,2.8423
11685,23.724,4.9091,0,1.5498e-05,154.87,1.3647e-05,117.12,-1.9196e-06,0.1558,-9.7282e-06,-58.515,2.8889
11686,23.631,4.8182,0,1.7015e-05,170.03,1.4312e-05,117.55,-1.296e-06,0.2835,-1.1642e-05,-77.449,2.8735
11687,23.631,4.9091,0.05,7.6124e-07,7.6072,5.8454e-07,4.392,1.1049e-12,1.2835e-05,-5.8454e-07,-4.392,2.8734
11688,23.816,4.8182,0,1.5162e-05,151.52,1.4084e-05,127.62,-2.8853e-06,0.11902,-8.2096e-06,-39.885,2.9046
11689,23.816,4.9091,0.05,7.9357e-07,7.9302,6.0936e-07,4.5785,9.4361e-13,9.5972e-06,-6.0936e-07,-4.5785,2.9045
11690,23.908,4.9091,0,1.3901e-05,138.91,1.3382e-05,126.42,-3.3907e-06,0.40284,-6.4423e-06,-22.526,2.9201
11691,1.2431,4.7273,0,0.00059596,5955.5,0.00037043,2201,7.683e-05,-4.9981,-0.00052711,-4542.8,0.012329
11692,1.1509,4.6364,0,0.00071646,7159.6,0.00047943,3104.7,6.3115e-05,-23.358,-0.00061078,-5086.7,0.0091586
11693,1.1509,4.7273,0.05,2.8836e-05,288.16,2.2142e-05,166.37,-2.4237e-11,-0.00013955,-2.2142e-05,-166.37,0.0078875
11694,1.0588,4.7273,0,0.00050854,5081.9,0.00034076,2223.8,4.6048e-05,9.4683,-0.00043295,-3589.6,0.0043788
11695,1.4273,4.7273,0,0.00056192,5615.3,0.00030252,1457,0.00010834,-2.046,-0.00052275,-4743.8,0.020789
11696,1.3352,4.6364,0,0.00063783,6373.9,0.00036745,1970.2,0.00010515,-0.61255,-0.00058103,-5156.3,0.01734
11697,1.3352,4.7273,0.05,1.8657e-05,186.44,1.4327e-05,107.64,-2.4143e-11,-0.00024218,-1.4327e-05,-107.64,0.01635
11698,1.6116,4.7273,0,0.00055109,5507.1,0.00026025,961.21,0.00013184,-3.6327,-0.00052842,-4964.5,0.029535
11699,1.5195,4.6364,0,0.00060496,6045.4,0.00030159,1256.9,0.00013374,-4.2493,-0.0005737,-5319.6,0.025831
11700,1.5195,4.7273,0.05,1.3917e-05,139.08,1.0687e-05,80.295,-3.2019e-11,-0.0003343,-1.0687e-05,-80.295,0.025006
11701,1.7959,4.7273,0,0.00054621,5458.4,0.00023084,613.94,0.00014871,-3.1592,-0.0005332,-5126.8,0.038588
11702,1.7037,4.6364,0,0.00058398,5835.8,0.00025605,771.06,0.00015292,-3.8307,-0.00056706,-5413.5,0.03464
11703,1.7037,4.7273,0.05,1.0098e-05,100.91,7.7541e-06,58.261,-3.3646e-11,-0.00036796,-7.7541e-06,-58.261,0.033927
11704,1.9801,4.7273,0,0.00054407,5437,0.00021069,374.65,0.00016038,-3.2956,-0.00053677,-5241.4,0.047974
11705,1.888,4.6364,0,0.00057098,5705.9,0.00022566,448.59,0.00016543,-3.9109,-0.00056207,-5470.1,0.043791
11706,1.888,4.7273,0.05,7.6268e-06,76.216,5.8565e-06,44.003,-4.164e-11,-0.0003868,-5.8565e-06,-44.003,0.043158
11707,2.1644,4.7273,0,0.00054294,5425.7,0.00019691,211.19,0.00016827,-3.9406,-0.00053909,-5318.8,0.057708
11708,2.0723,4.6364,0,0.00056249,5621,0.00020552,236.87,0.00017336,-4.7865,-0.00055815,-5501.1,0.053301
11709,2.0723,4.7273,0.05,5.9817e-06,59.776,4.5932e-06,34.512,-4.492e-11,-0.00043448,-4.5932e-06,-34.512,0.052725
11710,2.3487,4.7273,0,0.00054179,5414.1,0.00018738,99.663,0.00017334,-5.8915,-0.00054011,-5366.5,0.0678
11711,2.2565,4.6364,0,0.0005563,5559.2,0.00019221,98.834,0.00017799,-8.0089,-0.00055468,-5513,0.063179
11712,2.2565,4.7273,0.05,4.8365e-06,48.331,3.7138e-06,27.904,-4.548e-11,-0.00038431,-3.7138e-06,-27.904,0.062644
11713,2.5329,4.7273,0,0.00054012,5397.5,0.00018137,28.864,0.00017558,-14.692,-0.00053986,-5390.2,0.078255
11714,2.4408,4.6364,0,0.00055113,5507.5,0.00018498,21.802,0.00017861,-25.991,-0.00055118,-5509.4,0.073429
11715,2.4408,4.7273,0.05,3.9864e-06,39.837,3.0611e-06,23,-4.9246e-11,-0.00040837,-3.0611e-06,-23,0.072922
11716,2.7172,4.7273,0,0.00053776,5373.9,0.0001804,6.347,0.00017307,-48.76,-0.00053846,-5394.9,0.089076
11717,2.6251,4.6364,0,0.00054628,5459,0.00018441,5.5172,0.00017376,-74.436,-0.00054741,-5493,0.08405
11718,2.6251,4.7273,0.05,3.3292e-06,33.269,2.5564e-06,19.208,-4.0573e-11,-0.00039559,-2.5564e-06,-19.208,0.083563
11719,2.9015,4.7273,0,0.00053473,5343.6,0.0001809,2.6517,0.00016916,-85.583,-0.00053608,-5384.5,0.10026
11720,2.8093,4.6364,0,0.00054145,5410.7,0.0001846,2.5813,0.00016884,-115.87,-0.00054328,-5466.4,0.095043
11721,2.8093,4.7273,0.05,2.811e-06,28.091,2.1585e-06,16.218,-3.8066e-11,-0.00037902,-2.1585e-06,-16.218,0.094569
11722,3.0857,4.7273,0,0.00053109,5307.3,0.00018097,1.472,0.00016569,-113.35,-0.0005329,-5362.3,0.11181
11723,2.9936,4.6364,0,0.0005365,5361.3,0.00018431,1.5045,0.0001648,-145.09,-0.00053879,-5431.6,0.1064
11724,2.9936,4.7273,0.05,2.4009e-06,23.993,1.8436e-06,13.852,-2.808e-11,-0.00029745,-1.8436e-06,-13.852,0.10594
11725,3.27,4.7273,0,0.00052698,5266.1,0.00018053,0.92348,0.00016269,-133.15,-0.0005291,-5330.9,0.12372
11726,3.1779,4.6364,0,0.00053142,5310.5,0.00018355,0.96829,0.00016149,-164.79,-0.00053401,-5390.5,0.11813
11727,3.1779,4.7273,0.05,2.0785e-06,20.77,1.596e-06,11.992,-2.5087e-11,-0.00027363,-1.596e-06,-11.992,0.11767
11728,3.4543,4.7273,0,0.00052248,5221.2,0.00017968,0.61948,0.00016008,-146.63,-0.00052481,-5292.7,0.13599
11729,3.3621,4.6364,0,0.00052621,5258.5,0.00018241,0.65882,0.00015872,-177.35,-0.00052899,-5344.6,0.13022
11730,3.3621,4.7273,0.05,1.8282e-06,18.269,1.4038e-06,10.548,-2.1636e-11,-0.00024771,-1.4038e-06,-10.548,0.12977
11731,3.6385,4.7273,0,0.00051771,5173.5,0.00017851,0.43379,0.0001578,-155.14,-0.00052017,-5249.1,0.14862
11732,3.5464,4.6364,0,0.00052091,5205.5,0.000181,0.46474,0.00015638,-184.48,-0.0005238,-5295.1,0.14267
11733,3.5464,4.7273,0.05,1.637e-06,16.358,1.257e-06,9.4444,-1.8063e-11,-0.00016743,-1.257e-06,-9.4444,0.14222
11734,3.8228,4.7273,0,0.00051274,5123.9,0.00017708,0.31321,0.00015578,-159.71,-0.00051526,-5201.7,0.1616
11735,3.7307,4.6364,0,0.00051555,5152,0.00017936,0.33646,0.00015437,-187.45,-0.00051848,-5243,0.15548
11736,3.7307,4.7273,0.05,1.4933e-06,14.923,1.1467e-06,8.6157,-1.4509e-11,-0.00018718,-1.1467e-06,-8.6158,0.15503
11737,4.0071,4.7273,0,0.00050763,5072.8,0.00017546,0.23153,0.00015398,-161.16,-0.00051018,-5151.4,0.17494
11738,3.9149,4.6364,0,0.00051017,5098.1,0.00017756,0.24854,0.00015261,-187.21,-0.00051309,-5189,0.16863
11739,3.9149,4.7273,0.05,1.387e-06,13.86,1.065e-06,8.0021,-2.3071e-12,-0.00011932,-1.065e-06,-8.0021,0.16818
11740,4.1913,4.7273,0,0.00050243,5020.9,0.00017369,0.17445,0.00015235,-160.15,-0.00050496,-5098.9,0.18861
11741,4.0992,4.6364,0,0.00050477,5044.2,0.00017564,0.18665,0.00015106,-184.51,-0.00050765,-5133.8,0.18214
11742,4.0992,4.7273,0.05,1.3089e-06,13.08,1.0051e-06,7.5516,-3.9447e-12,-9.8832e-05,-1.0051e-06,-7.5517,0.18169
11743,4.3756,4.7273,0,0.00049718,4968.3,0.00017181,0.13358,0.00015086,-157.23,-0.00049966,-5045,0.20264
11744,4.2835,4.6364,0,0.00049937,4990.3,0.00017364,0.14217,0.00014967,-179.94,-0.00050219,-5077.7,0.19599
11745,4.2835,4.7273,0.05,1.2516e-06,12.508,9.6108e-07,7.2212,-5.4296e-12,-8.1484e-05,-9.6109e-07,-7.2213,0.19554
11746,4.5599,4.7273,0,0.00049189,4915.5,0.00016984,0.10372,0.00014949,-152.83,-0.00049431,-4990.1,0.217
11747,4.4677,4.6364,0,0.00049399,4936.5,0.00017157,0.10964,0.0001484,-173.96,-0.00049672,-5021.1,0.21018
11748,4.4677,4.7273,0.05,1.2092e-06,12.084,9.2854e-07,6.9767,-3.416e-13,-4.5979e-05,-9.2855e-07,-6.9768,0.20973
11749,4.7441,4.7273,0,0.00048658,4862.5,0.00016782,0.081542,0.0001482,-147.33,-0.00048892,-4934.4,0.23169
11750,4.652,4.6364,0,0.00048863,4882.9,0.00016945,0.085511,0.00014722,-166.95,-0.00049125,-4964.2,0.22471
11751,4.652,4.7273,0.05,1.1773e-06,11.765,9.0399e-07,6.7922,1.5157e-12,-3.7574e-05,-9.04e-07,-6.7923,0.22426
11752,4.9284,4.7273,0,0.00048127,4809.4,0.00016576,0.064833,0.00014698,-141.03,-0.00048352,-4878.3,0.24672
11753,4.8363,4.6364,0,0.00048329,4829.5,0.00016731,0.067389,0.00014611,-159.24,-0.0004858,-4907.2,0.23958
11754,4.8363,4.7273,0.05,1.1525e-06,11.517,8.8494e-07,6.649,8.5305e-13,-4.5136e-05,-8.8495e-07,-6.6492,0.23913
11755,5.1127,4.7273,0,0.00047596,4756.3,0.00016367,0.052087,0.0001458,-134.2,-0.0004781,-4822,0.26208
11756,5.0205,4.6364,0,0.00047796,4776.4,0.00016516,0.053629,0.00014504,-151.08,-0.00048035,-4850.1,0.25477
11757,5.0205,4.7273,0.05,1.1325e-06,11.317,8.6963e-07,6.534,1.8395e-12,-2.6719e-05,-8.6963e-07,-6.5341,0.25432
11758,5.2969,4.7273,0,0.00047066,4703.3,0.00016157,0.04226,0.00014466,-127.03,-0.00047269,-4765.5,0.27776
11759,5.2048,4.6364,0,0.00047266,4723.3,0.00016299,0.04308,0.000144,-142.66,-0.00047493,-4793,0.27029
11760,5.2048,4.7273,0.05,1.1159e-06,11.151,8.5685e-07,6.438,1.7023e-12,-2.9966e-05,-8.5686e-07,-6.4382,0.26984
11761,5.4812,4.7273,0,0.00046536,4650.4,0.00015946,0.03461,0.00014353,-119.69,-0.00046728,-4709,0.29376
11762,5.3891,4.6364,0,0.00046737,4670.5,0.00016083,0.034924,0.00014297,-134.16,-0.00046951,-4736.1,0.28613
11763,5.3891,4.7273,0.05,1.1015e-06,11.007,8.4581e-07,6.3551,2.5705e-12,-2.0348e-05,-8.4582e-07,-6.3552,0.28568
11764,5.6655,4.7273,0,0.00046006,4597.5,0.00015735,0.028604,0.0001424,-112.31,-0.00046187,-4652.6,0.31008
11765,5.5733,4.6364,0,0.0004621,4617.8,0.00015868,0.02857,0.00014195,-125.7,-0.00046411,-4679.4,0.30229
11766,5.5733,4.7273,0.05,1.0887e-06,10.879,8.3597e-07,6.2811,3.2579e-12,-1.8331e-05,-8.3599e-07,-6.2813,0.30185
11767,5.8497,4.7273,0,0.00045478,4544.6,0.00015525,0.023853,0.00014127,-105,-0.00045647,-4596.2,0.32671
11768,5.7576,4.6364,0,0.00045684,4565.2,0.00015654,0.023586,0.00014091,-117.38,-0.00045872,-4622.8,0.31877
11769,5.7576,4.7273,0.05,1.077e-06,10.762,8.2699e-07,6.2137,2.6473e-12,-1.2175e-05,-8.27e-07,-6.2138,0.31832
11770,6.034,4.7273,0,0.0004495,4491.9,0.00015316,0.020069,0.00014013,-97.835,-0.00045108,-4540,0.34366
11771,5.9419,4.6364,0,0.00045159,4512.8,0.00015441,0.019652,0.00013986,-109.28,-0.00045335,-4566.4,0.33556
11772,5.9419,4.7273,0.05,1.0661e-06,10.654,8.1864e-07,6.1509,2.9907e-12,-1.3398e-05,-8.1865e-07,-6.1511,0.33511
11773,6.2183,4.7273,0,0.00044423,4439.2,0.00015108,0.017037,0.00013898,-90.878,-0.0004457,-4483.9,0.36091
11774,6.1261,4.6364,0,0.00044634,4460.4,0.00015229,0.016531,0.00013879,-101.46,-0.00044798,-4510.2,0.35265
11775,6.1261,4.7273,0.05,1.0559e-06,10.552,8.1078e-07,6.0918,3.4978e-12,-1.436e-05,-8.1079e-07,-6.092,0.35221
11776,6.4025,4.7273,0,0.00043896,4386.6,0.00014901,0.014594,0.0001378,-84.173,-0.00044033,-4428.1,0.37846
11777,6.3104,4.6364,0,0.00044111,4408,0.0001502,0.014041,0.00013769,-93.951,-0.00044263,-4454.2,0.37005
11778,6.3104,4.7273,0.05,1.0462e-06,10.455,8.0333e-07,6.0358,5.4741e-12,-1.0559e-05,-8.0333e-07,-6.036,0.36961
11779,6.5868,4.7273,0,0.0004337,4334,0.00014696,0.012615,0.00013661,-77.75,-0.00043497,-4372.4,0.39631
11780,6.4947,4.6364,0,0.00043587,4355.7,0.00014812,0.012047,0.00013656,-86.783,-0.00043729,-4398.5,0.38775
11781,6.4947,4.7273,0.05,1.0369e-06,10.362,7.9622e-07,5.9824,5.6904e-12,-8.8015e-06,-7.9622e-07,-5.9826,0.38732
11782,6.7711,4.7273,0,0.00042845,4281.5,0.00014492,0.011004,0.00013539,-71.628,-0.00042962,-4316.9,0.41446
11783,6.6789,4.6364,0,0.00043065,4303.5,0.00014606,0.010444,0.00013541,-79.973,-0.00043195,-4342.9,0.40575
11784,6.6789,4.7273,0.05,1.0281e-06,10.273,7.8941e-07,5.9313,2.2353e-12,-9.8267e-06,-7.8942e-07,-5.9314,0.40532
11785,6.9553,4.7273,0,0.0004232,4229,0.0001429,0.0096885,0.00013414,-65.819,-0.00042428,-4261.6,0.4329
11786,6.8632,4.6364,0,0.00042542,4251.3,0.00014402,0.0091499,0.00013423,-73.526,-0.00042663,-4287.6,0.42404
11787,6.8632,4.7273,0.05,1.0196e-06,10.189,7.8289e-07,5.8823,2.4768e-12,-4.7582e-06,-7.8289e-07,-5.8824,0.42361
11788,7.1396,4.7273,0,0.00041795,4176.6,0.0001409,0.0086094,0.00013287,-60.327,-0.00041894,-4206.5,0.45162
11789,7.0475,4.6364,0,0.0004202,4199.1,0.00014199,0.0081027,0.00013302,-67.444,-0.00042131,-4232.4,0.44262
11790,7.0475,4.7273,0.05,1.0114e-06,10.107,7.7662e-07,5.8352,4.3439e-12,-7.6804e-06,-7.7663e-07,-5.8354,0.44219
11791,7.3239,4.7273,0,0.00041271,4124.3,0.00013892,0.007722,0.00013158,-55.151,-0.00041362,-4151.6,0.47063
11792,7.2317,4.6364,0,0.00041499,4147,0.00013999,0.0072532,0.00013178,-61.723,-0.000416,-4177.5,0.46149
11793,7.2317,4.7273,0.05,1.0036e-06,10.029,7.706e-07,5.79,6.2189e-12,-6.6593e-06,-7.7062e-07,-5.7902,0.46106
11794,7.5081,4.7273,0,0.00040748,4072,0.00013695,0.0069905,0.00013026,-50.286,-0.00040831,-4096.9,0.48993
11795,7.416,4.6364,0,0.00040977,4094.9,0.00013801,0.0065634,0.00013051,-56.353,-0.0004107,-4122.8,0.48064
11796,7.416,4.7273,0.05,9.9603e-07,9.9534,7.6482e-07,5.7465,4.5421e-12,-4.6437e-06,-7.6483e-07,-5.7467,0.48021
11797,7.6924,4.7273,0,0.00040225,4019.7,0.000135,0.0063869,0.00012892,-45.723,-0.00040301,-4042.4,0.5095
11798,7.6003,4.6364,0,0.00040456,4042.9,0.00013604,0.0060027,0.00012921,-51.324,-0.00040541,-4068.3,0.50006
11799,7.6003,4.7273,0.05,9.8878e-07,9.881,7.5926e-07,5.7047,6.502e-12,-4.715e-06,-7.5927e-07,-5.7049,0.49964
11800,7.8767,4.7273,0,0.00039703,3967.5,0.00013307,0.005889,0.00012755,-41.451,-0.00039772,-3988.1,0.52934
11801,7.7845,4.6364,0,0.00039936,3990.9,0.00013409,0.005548,0.00012789,-46.623,-0.00040013,-4014,0.51977
11802,7.7845,4.7273,0.05,9.8181e-07,9.8113,7.539e-07,5.6645,4.7627e-12,-3.6366e-06,-7.5391e-07,-5.6646,0.51935
11803,8.0609,4.7273,0,0.00039181,3915.4,0.00013115,0.0054798,0.00012616,-37.459,-0.00039244,-3934,0.54945
11804,7.9688,4.6364,0,0.00039416,3938.9,0.00013216,0.0051805,0.00012654,-42.234,-0.00039486,-3959.8,0.53974
11805,7.9688,4.7273,0.05,9.7509e-07,9.7442,7.4875e-07,5.6257,4.8508e-12,-4.0327e-06,-7.4876e-07,-5.6259,0.53933
11806,8.2452,4.7273,0,0.00038661,3863.4,0.00012925,0.0051458,0.00012476,-33.733,-0.00038717,-3880.1,0.56983
11807,8.1531,4.6364,0,0.00038897,3887,0.00013024,0.0048855,0.00012517,-38.141,-0.0003896,-3905.9,0.55998
11808,8.1531,4.7273,0.05,9.6862e-07,9.6795,7.4378e-07,5.5884,4.9202e-12,-2.7313e-06,-7.4378e-07,-5.5885,0.55958
11809,8.4295,4.7273,0,0.00038141,3811.4,0.00012736,0.0048762,0.00012333,-30.26,-0.00038191,-3826.5,0.59047
11810,8.3373,4.6364,0,0.00038378,3835.2,0.00012834,0.0046524,0.00012378,-34.33,-0.00038435,-3852.2,0.58049
11811,8.3373,4.7273,0.05,9.6237e-07,9.6171,7.3898e-07,5.5524,6.7742e-12,-2.3985e-06,-7.3899e-07,-5.5525,0.58009
11812,8.6137,4.7273,0,0.00037622,3759.6,0.00012549,0.0046632,0.00012189,-27.026,-0.00037667,-3773,0.61137
11813,8.5216,4.6364,0,0.0003786,3783.4,0.00012646,0.0044724,0.00012236,-30.783,-0.00037912,-3798.7,0.60126
11814,8.5216,4.7273,0.05,9.5634e-07,9.5568,7.3435e-07,5.5176,3.1911e-12,-2.248e-06,-7.3436e-07,-5.5177,0.60086
11815,8.798,4.7273,0,0.00037103,3707.8,0.00012363,0.0045018,0.00012043,-24.016,-0.00037144,-3719.7,0.63253
11816,8.7059,4.6364,0,0.00037343,3731.7,0.00012459,0.0043389,0.00012093,-27.486,-0.00037389,-3745.4,0.62228
11817,8.7059,4.7273,0.05,9.5051e-07,9.4986,7.2987e-07,5.4839,5.0758e-12,-2.0871e-06,-7.2988e-07,-5.4841,0.62189
11818,8.9823,4.7273,0,0.00036586,3656.1,0.00012178,0.0043892,0.00011896,-21.217,-0.00036622,-3666.6,0.65394
11819,8.8901,4.6364,0,0.00036826,3680.1,0.00012274,0.0042482,0.00011948,-24.422,-0.00036867,-3692.2,0.64356
11820,8.8901,4.7273,0.05,9.4487e-07,9.4421,7.2553e-07,5.4513,4.1908e-12,-9.6588e-07,-7.2555e-07,-5.4515,0.64317
11821,9.1665,4.7273,0,0.0003607,3604.5,0.00011995,0.004324,0.00011747,-18.616,-0.00036101,-3613.8,0.67559
11822,9.0744,4.6364,0,0.00036311,3628.6,0.00012089,0.0041983,0.00011802,-21.576,-0.00036347,-3639.3,0.66509
11823,9.0744,4.7273,0.05,9.3939e-07,9.3875,7.2133e-07,5.4198,5.1549e-12,-9.3868e-07,-7.2134e-07,-5.4199,0.6647
11824,9.3508,4.7273,0,0.00035555,3553,0.00011813,0.0043087,0.00011598,-16.199,-0.00035582,-3561.1,0.69749
11825,9.2587,4.6364,0,0.00035796,3577.2,0.00011906,0.0041886,0.00011654,-18.933,-0.00035828,-3586.6,0.68686
11826,9.2587,4.7273,0.05,9.3408e-07,9.3344,7.1726e-07,5.3891,5.1976e-12,-5.768e-07,-7.1727e-07,-5.3893,0.68648
11827,9.5351,4.7273,0,0.00035041,3501.7,0.00011633,0.0043476,0.00011447,-13.955,-0.00035064,-3508.6,0.71964
11828,9.4429,4.6364,0,0.00035283,3525.8,0.00011725,0.004223,0.00011505,-16.48,-0.0003531,-3534,0.70888
11829,9.4429,4.7273,0.05,9.2892e-07,9.2828,7.1329e-07,5.3594,5.2115e-12,-5.6139e-07,-7.133e-07,-5.3595,0.70851
11830,9.7193,4.7273,0,0.00034528,3450.4,0.00011453,0.0044547,0.00011295,-11.87,-0.00034548,-3456.3,0.74202
11831,9.6272,4.6364,0,0.0003477,3474.6,0.00011545,0.0043033,0.00011355,-14.204,-0.00034794,-3481.7,0.73114
11832,9.6272,4.7273,0.05,9.239e-07,9.2326,7.0944e-07,5.3304,4.3386e-12,3.3852e-07,-7.0945e-07,-5.3305,0.73077
11833,9.9036,4.7273,0,0.00034017,3399.3,0.00011275,0.0046465,0.00011142,-9.9339,-0.00034033,-3404.3,0.76463
11834,9.8115,4.6364,0,0.00034259,3423.5,0.00011365,0.0044508,0.00011204,-12.091,-0.00034279,-3429.6,0.75364
11835,9.8115,4.7273,0.05,9.1901e-07,9.1837,7.0568e-07,5.3022,3.4487e-12,6.4755e-07,-7.0569e-07,-5.3023,0.75327
11836,10.088,4.7273,0,0.00033506,3348.3,0.00011097,0.0049539,0.00010989,-8.136,-0.0003352,-3352.4,0.78748
11837,9.9957,4.6364,0,0.00033749,3372.6,0.00011187,0.0046673,0.00011052,-10.13,-0.00033766,-3377.6,0.77636
11838,9.9957,4.7273,0.05,9.1423e-07,9.136,7.0201e-07,5.2746,4.3867e-12,4.3481e-07,-7.0202e-07,-5.2748,0.776
11839,10.272,4.7273,0,0.00032997,3297.5,0.00010921,0.0054496,0.00010835,-6.4662,-0.00033008,-3300.7,0.81055
11840,10.18,4.6364,0,0.0003324,3321.7,0.0001101,0.0049947,0.000109,-8.3106,-0.00033254,-3325.9,0.79932
11841,10.18,4.7273,0.05,9.0957e-07,9.0894,6.9844e-07,5.2477,4.4126e-12,1.5881e-06,-6.9844e-07,-5.2478,0.79896
11842,10.456,4.7273,0,0.0003249,3246.8,0.00010746,0.0062448,0.00010681,-4.915,-0.00032498,-3249.2,0.83385
11843,10.364,4.6364,0,0.00032732,3271,0.00010835,0.0055007,0.00010746,-6.6211,-0.00032744,-3274.3,0.8225
11844,10.364,4.7273,0.05,9.0501e-07,9.0438,6.9493e-07,5.2214,4.4268e-12,9.1909e-07,-6.9494e-07,-5.2215,0.82215
11845,10.641,4.7273,0,0.00031984,3196.2,0.00010572,0.0076866,0.00010526,-3.4738,-0.0003199,-3197.9,0.85737
11846,10.549,4.6364,0,0.00032226,3220.4,0.0001066,0.0062529,0.00010592,-5.0524,-0.00032235,-3222.9,0.8459
11847,10.549,4.7273,0.05,9.0053e-07,8.9991,6.915e-07,5.1956,3.5288e-12,1.411e-06,-6.915e-07,-5.1957,0.84555
11848,10.825,4.7273,0,0.00031479,3145.8,0.00010399,0.010908,0.0001037,-2.1352,-0.00031483,-3146.8,0.8811
11849,10.733,4.6364,0,0.00031722,3170,0.00010486,0.0076377,0.00010438,-3.5952,-0.00031728,-3171.8,0.86952
11850,10.733,4.7273,0.05,8.9614e-07,8.9552,6.8812e-07,5.1702,5.3675e-12,1.5644e-06,-6.8812e-07,-5.1703,0.86918
11851,11.009,4.7273,0,0.00030976,3095.5,0.00010227,0.022501,0.00010215,-0.89811,-0.00030978,-3095.9,0.90505
11852,10.917,4.6364,0,0.00031218,3119.7,0.00010313,0.010618,0.00010283,-2.242,-0.00031222,-3120.8,0.89336
11853,10.917,4.7273,0.05,8.9183e-07,8.9122,6.8481e-07,5.1454,4.4733e-12,1.2992e-06,-6.8482e-07,-5.1455,0.89302
11854,11.193,4.7273,0,0.00030475,3045.4,0.0001006,0.3387,0.00010055,-0.05137,-0.00030474,-3045.2,0.92921
11855,11.101,4.6364,0,0.00030716,3069.5,0.00010141,0.02054,0.00010128,-0.99021,-0.00030718,-3070,0.91741
11856,11.101,4.7273,0.05,8.876e-07,8.8699,6.8157e-07,5.121,3.5779e-12,1.3638e-06,-6.8157e-07,-5.1211,0.91708
11857,11.378,4.7273,0,0.00029975,2995.4,9.9033e-05,1.3822,9.8848e-05,-0.010773,-0.00029973,-2994.7,0.95357
11858,11.286,4.6364,0,0.00030216,3019.5,9.9739e-05,0.26903,9.9695e-05,-0.063746,-0.00030216,-3019.4,0.94167
11859,11.286,4.7273,0.05,8.8345e-07,8.8284,6.7837e-07,5.097,3.5906e-12,1.1025e-06,-6.7838e-07,-5.0971,0.94134
11860,11.562,4.7273,0,0.00029477,2945.6,9.7473e-05,2.3884,9.7154e-05,-0.0052958,-0.00029473,-2944.4,0.97814
11861,11.47,4.6364,0,0.00029717,2969.7,9.8178e-05,1.3112,9.8002e-05,-0.010874,-0.00029715,-2969,0.96613
11862,11.47,4.7273,0.05,8.7934e-07,8.7874,6.7523e-07,5.0733,3.6041e-12,1.6211e-06,-6.7523e-07,-5.0735,0.9658
11863,11.746,4.7273,0,0.0002898,2896,9.5913e-05,3.3317,9.5469e-05,-0.0031541,-0.00028974,-2894.3,1.0029
11864,11.654,4.6364,0,0.0002922,2920,9.6622e-05,2.3274,9.6311e-05,-0.0049679,-0.00029216,-2918.9,0.99079
11865,11.654,4.7273,0.05,8.7529e-07,8.7469,6.7211e-07,5.0499,3.614e-12,1.928e-06,-6.7212e-07,-5.0501,0.99047
11866,11.931,4.7273,0,0.00028485,2846.5,9.4353e-05,4.2153,9.3792e-05,-0.002014,-0.00028478,-2844.4,1.0279
11867,11.838,4.6364,0,0.00028725,2870.5,9.5066e-05,3.2803,9.4629e-05,-0.0027199,-0.00028719,-2868.9,1.0157
11868,11.838,4.7273,0.05,8.713e-07,8.707,6.6905e-07,5.0269,3.6233e-12,2.1031e-06,-6.6905e-07,-5.027,1.0153
11869,12.115,4.7273,0,0.00027992,2797.3,9.2795e-05,5.0439,9.2123e-05,-0.0013235,-0.00027983,-2794.7,1.053
11870,12.023,4.6364,0,0.00028231,2821.2,9.3511e-05,4.1729,9.2956e-05,-0.0015589,-0.00028224,-2819.1,1.0407
11871,12.023,4.7273,0.05,8.6737e-07,8.6677,6.6603e-07,5.0042,3.6339e-12,2.5618e-06,-6.6603e-07,-5.0043,1.0404
11872,12.299,4.7273,0,0.000275,2748.1,9.1238e-05,5.8222,9.0463e-05,-0.00087348,-0.0002749,-2745.2,1.0784
11873,12.207,4.6364,0,0.00027739,2772,9.1957e-05,5.0102,9.129e-05,-0.00084766,-0.0002773,-2769.5,1.066
11874,12.207,4.7273,0.05,8.6348e-07,8.6288,6.6304e-07,4.9818,3.6432e-12,3.121e-06,-6.6305e-07,-4.9819,1.0657
11875,12.483,4.7273,0,0.00027011,2699.2,8.9683e-05,6.5547,8.881e-05,-0.00055016,-0.00026999,-2695.9,1.1039
11876,12.391,4.6364,0,0.00027249,2723,9.0405e-05,5.7968,8.9633e-05,-0.00039438,-0.00027239,-2720.1,1.0914
11877,12.391,4.7273,0.05,8.5963e-07,8.5904,6.6009e-07,4.9596,3.6511e-12,2.2845e-06,-6.6009e-07,-4.9597,1.0911
11878,12.668,4.7273,0,0.00026523,2650.4,8.813e-05,7.2459,8.7166e-05,-0.00027218,-0.0002651,-2646.8,1.1296
11879,12.575,4.6364,0,0.0002676,2674.1,8.8854e-05,6.5376,8.7984e-05,-3.5466e-05,-0.00026749,-2670.9,1.117
11880,12.575,4.7273,0.05,8.5581e-07,8.5522,6.5715e-07,4.9376,3.6595e-12,2.1586e-06,-6.5716e-07,-4.9376,1.1167
11881,12.852,4.7273,0,0.00026037,2601.9,8.658e-05,7.8997,8.5529e-05,-4.5762e-05,-0.00026023,-2597.9,1.1555
11882,12.76,4.6364,0,0.00026273,2625.5,8.7306e-05,7.2368,8.6342e-05,0.00027528,-0.00026261,-2621.9,1.1428
11883,12.76,4.7273,0.05,8.5204e-07,8.5145,6.5426e-07,4.9158,3.6661e-12,2.9905e-06,-6.5426e-07,-4.9159,1.1425
11884,13.036,4.7273,0,0.00025552,2553.5,8.5034e-05,8.5199,8.39e-05,0.00012577,-0.00025538,-2549.2,1.1816
11885,12.944,4.6364,0,0.00025788,2577,8.576e-05,7.8987,8.4709e-05,0.00050138,-0.00025774,-2573.1,1.1688
11886,12.944,4.7273,0.05,8.4831e-07,8.4772,6.5139e-07,4.8943,3.6702e-12,3.4719e-06,-6.514e-07,-4.8944,1.1685
11887,13.22,4.7273,0,0.0002507,2505.2,8.3491e-05,9.1103,8.2278e-05,0.00025478,-0.00025054,-2500.7,1.2078
11888,13.128,4.6364,0,0.00025305,2528.7,8.4218e-05,8.5271,8.3083e-05,0.00068635,-0.0002529,-2524.5,1.1949
11889,13.128,4.7273,0.05,8.4461e-07,8.4403,6.4855e-07,4.873,2.7666e-12,4.9463e-06,-6.4856e-07,-4.873,1.1947
11890,13.405,4.7273,0,0.00024589,2457.2,8.1952e-05,9.6742,8.0664e-05,0.00036708,-0.00024572,-2452.4,1.2343
11891,13.313,4.6364,0,0.00024823,2480.6,8.2679e-05,9.1257,8.1465e-05,0.00081551,-0.00024808,-2476,1.2213
11892,13.313,4.7273,0.05,8.4094e-07,8.4036,6.4573e-07,4.8518,2.7689e-12,4.6611e-06,-6.4574e-07,-4.8519,1.221
11893,13.589,4.7273,0,0.0002411,2409.4,8.0417e-05,10.215,7.9057e-05,0.00049686,-0.00024093,-2404.2,1.2608
11894,13.497,4.6364,0,0.00024344,2432.7,8.1144e-05,9.6981,7.9854e-05,0.00095918,-0.00024327,-2427.8,1.2478
11895,13.497,4.7273,0.05,8.3729e-07,8.3671,6.4293e-07,4.8307,2.7722e-12,4.8293e-06,-6.4294e-07,-4.8308,1.2475
11896,13.773,4.7273,0,0.00023633,2361.7,7.8887e-05,10.736,7.7458e-05,0.00061808,-0.00023615,-2356.3,1.2876
11897,13.681,4.6364,0,0.00023866,2385,7.9614e-05,10.248,7.825e-05,0.0011188,-0.00023848,-2379.8,1.2744
11898,13.681,4.7273,0.05,8.3368e-07,8.331,6.4016e-07,4.8099,2.7767e-12,3.7455e-06,-6.4016e-07,-4.81,1.2742
11899,13.957,4.7273,0,0.00023158,2314.2,7.7361e-05,11.239,7.5866e-05,0.00071567,-0.00023139,-2308.6,1.3145
11900,13.865,4.6364,0,0.0002339,2337.4,7.8088e-05,10.778,7.6653e-05,0.0012419,-0.00023372,-2332,1.3012
11901,13.865,4.7273,0.05,8.301e-07,8.2952,6.3741e-07,4.7892,9.601e-13,3.6046e-06,-6.3741e-07,-4.7893,1.301
11902,14.142,4.7273,0,0.00022685,2267,7.5841e-05,11.729,7.428e-05,0.00079264,-0.00022665,-2261.1,1.3415
11903,14.05,4.6364,0,0.00022916,2290.1,7.6567e-05,11.291,7.5064e-05,0.0013521,-0.00022897,-2284.4,1.3282
11904,14.05,4.7273,0.05,8.2654e-07,8.2597,6.3468e-07,4.7687,3.6924e-12,4.0291e-06,-6.3468e-07,-4.7688,1.328
11905,14.326,4.7273,0,0.00022214,2219.9,7.4326e-05,12.207,7.2702e-05,0.00086784,-0.00022193,-2213.8,1.3688
11906,14.234,4.6364,0,0.00022444,2242.9,7.5051e-05,11.791,7.3482e-05,0.0014319,-0.00022424,-2237,1.3554
11907,14.234,4.7273,0.05,8.2301e-07,8.2244,6.3197e-07,4.7483,2.7842e-12,3.3078e-06,-6.3197e-07,-4.7484,1.3551
11908,14.51,4.7273,0,0.00021745,2173,7.2817e-05,12.676,7.113e-05,0.00097019,-0.00021723,-2166.6,1.3961
11909,14.418,4.6364,0,0.00021974,2195.9,7.354e-05,12.28,7.1906e-05,0.0015384,-0.00021953,-2189.7,1.3826
11910,14.418,4.7273,0.05,8.1949e-07,8.1893,6.2927e-07,4.7281,3.6912e-12,3.9818e-06,-6.2927e-07,-4.7281,1.3824
11911,14.695,4.7273,0,0.00021278,2126.3,7.1314e-05,13.139,6.9565e-05,0.0010736,-0.00021255,-2119.7,1.4236
11912,14.602,4.6364,0,0.00021506,2149.1,7.2036e-05,12.762,7.0338e-05,0.0016706,-0.00021484,-2142.7,1.4101
11913,14.602,4.7273,0.05,8.1601e-07,8.1544,6.2659e-07,4.7079,3.6912e-12,5.1384e-06,-6.266e-07,-4.708,1.4098
11914,14.879,4.7273,0,0.00020813,2079.8,6.9817e-05,13.599,6.8007e-05,0.0011614,-0.00020789,-2073,1.4513
11915,14.787,4.6364,0,0.0002104,2102.6,7.0537e-05,13.238,6.8776e-05,0.0017787,-0.00021017,-2095.9,1.4377
11916,14.787,4.7273,0.05,8.1255e-07,8.1199,6.2393e-07,4.688,2.7816e-12,6.2779e-06,-6.2394e-07,-4.6881,1.4374
11917,15.063,4.7273,0,0.00020349,2033.5,6.8327e-05,14.058,6.6456e-05,0.0012362,-0.00020325,-2026.5,1.4791
11918,14.971,4.6364,0,0.00020576,2056.2,6.9045e-05,13.712,6.722e-05,0.0018801,-0.00020552,-2049.3,1.4654
11919,14.971,4.7273,0.05,8.0912e-07,8.0856,6.213e-07,4.6682,2.7845e-12,5.3829e-06,-6.2131e-07,-4.6683,1.4651
11920,15.247,4.7273,0,0.00019888,1987.4,6.6843e-05,14.518,6.4911e-05,0.001315,-0.00019863,-1980.1,1.507
11921,15.155,4.6364,0,0.00020114,2010,6.7559e-05,14.186,6.5672e-05,0.001962,-0.00020089,-2002.9,1.4932
11922,15.155,4.7273,0.05,8.0571e-07,8.0515,6.1868e-07,4.6485,1.8704e-12,6.4858e-06,-6.1868e-07,-4.6486,1.493
11923,15.432,4.7273,0,0.00019429,1941.6,6.5366e-05,14.983,6.3372e-05,0.0014211,-0.00019403,-1934,1.5351
11924,15.339,4.6364,0,0.00019654,1964,6.6081e-05,14.663,6.413e-05,0.0020705,-0.00019628,-1956.6,1.5212
11925,15.339,4.7273,0.05,8.0231e-07,8.0176,6.1607e-07,4.6289,9.6843e-13,5.4083e-06,-6.1607e-07,-4.629,1.521
11926,15.616,4.7273,0,0.00018972,1895.9,6.3897e-05,15.454,6.184e-05,0.001531,-0.00018945,-1888.1,1.5633
11927,15.524,4.6364,0,0.00019196,1918.2,6.4609e-05,15.145,6.2594e-05,0.0022085,-0.00019169,-1910.6,1.5494
11928,15.524,4.7273,0.05,7.9894e-07,7.9839,6.1349e-07,4.6095,2.7982e-12,3.7029e-06,-6.1349e-07,-4.6095,1.5491
11929,15.8,4.7273,0,0.00018517,1850.4,6.2434e-05,15.934,6.0314e-05,0.0016323,-0.00018489,-1842.4,1.5916
11930,15.708,4.6364,0,0.00018739,1872.6,6.3145e-05,15.636,6.1064e-05,0.0023276,-0.00018712,-1864.8,1.5776
11931,15.708,4.7273,0.05,7.9561e-07,7.9506,6.1093e-07,4.5902,9.7945e-13,2.9612e-06,-6.1093e-07,-4.5903,1.5774
11932,15.984,4.7273,0,0.00018064,1805.1,6.098e-05,16.426,5.8794e-05,0.0017254,-0.00018035,-1796.8,1.6201
11933,15.892,4.6364,0,0.00018285,1827.3,6.1688e-05,16.137,5.9541e-05,0.0024468,-0.00018257,-1819.2,1.606
11934,15.892,4.7273,0.05,7.923e-07,7.9175,6.0838e-07,4.5711,1.8911e-12,3.922e-06,-6.0839e-07,-4.5712,1.6058
11935,16.169,4.7273,0,0.00017612,1760,5.9534e-05,16.932,5.7281e-05,0.001826,-0.00017583,-1751.5,1.6486
11936,16.077,4.6364,0,0.00017833,1782.1,6.024e-05,16.652,5.8024e-05,0.0025518,-0.00017805,-1773.7,1.6345
11937,16.077,4.7273,0.05,7.8901e-07,7.8846,6.0586e-07,4.5522,2.8035e-12,3.9276e-06,-6.0586e-07,-4.5522,1.6343
11938,16.353,4.7273,0,0.00017164,1715.2,5.8096e-05,17.455,5.5773e-05,0.0019548,-0.00017133,-1706.4,1.6773
11939,16.261,4.6364,0,0.00017384,1737.2,5.8799e-05,17.184,5.6513e-05,0.0026867,-0.00017354,-1728.5,1.6631
11940,16.261,4.7273,0.05,7.8574e-07,7.852,6.0335e-07,4.5333,1.9058e-12,5.2807e-06,-6.0335e-07,-4.5333,1.663
11941,16.537,4.7273,0,0.00016717,1670.5,5.6666e-05,17.998,5.4271e-05,0.0020906,-0.00016685,-1661.4,1.7061
11942,16.445,4.6364,0,0.00016936,1692.4,5.7367e-05,17.735,5.5007e-05,0.0028488,-0.00016905,-1683.5,1.6919
11943,16.445,4.7273,0.05,7.8251e-07,7.8197,6.0087e-07,4.5147,1.9099e-12,5.4745e-06,-6.0087e-07,-4.5147,1.6917
11944,16.721,4.7273,0,0.00016272,1626.1,5.5246e-05,18.564,5.2775e-05,0.002222,-0.0001624,-1616.7,1.7351
11945,16.629,4.6364,0,0.0001649,1647.9,5.5944e-05,18.309,5.3508e-05,0.0030015,-0.00016458,-1638.6,1.7208
11946,16.629,4.7273,0.05,7.793e-07,7.7877,5.9841e-07,4.4962,1.912e-12,6.2601e-06,-5.9841e-07,-4.4962,1.7206
11947,16.906,4.7273,0,0.00015829,1581.8,5.3834e-05,19.156,5.1285e-05,0.0023509,-0.00015796,-1572.2,1.7641
11948,16.814,4.6364,0,0.00016046,1603.5,5.453e-05,18.908,5.2014e-05,0.0031571,-0.00016013,-1594,1.7497
11949,16.814,4.7273,0.05,7.7614e-07,7.756,5.9597e-07,4.4779,1.921e-12,5.0756e-06,-5.9598e-07,-4.4779,1.7495
11950,17.09,4.7273,0,0.00015389,1537.8,5.2432e-05,19.777,4.98e-05,0.0024914,-0.00015354,-1527.8,1.7932
11951,16.998,4.6364,0,0.00015605,1559.4,5.3126e-05,19.536,5.0526e-05,0.0033058,-0.00015571,-1549.6,1.7788
11952,16.998,4.7273,0.05,7.73e-07,7.7246,5.9356e-07,4.4598,1.9208e-12,4.8748e-06,-5.9357e-07,-4.4598,1.7786
11953,17.274,4.7273,0,0.0001495,1494,5.104e-05,20.429,4.8321e-05,0.0026623,-0.00014915,-1483.7,1.8225
11954,17.182,4.6364,0,0.00015166,1515.5,5.1731e-05,20.197,4.9044e-05,0.0034872,-0.0001513,-1505.3,1.808
11955,17.182,4.7273,0.05,7.6989e-07,7.6935,5.9117e-07,4.4419,1.4632e-12,5.0853e-06,-5.9118e-07,-4.4419,1.8078
11956,17.459,4.7273,0,0.00014514,1450.4,4.9658e-05,21.118,4.6847e-05,0.0028452,-0.00014477,-1439.7,1.8518
11957,17.366,4.6364,0,0.00014729,1471.9,5.0347e-05,20.893,4.7566e-05,0.003698,-0.00014692,-1461.3,1.8373
11958,17.366,4.7273,0.05,7.6682e-07,7.6629,5.8882e-07,4.4241,1.9375e-12,4.3948e-06,-5.8882e-07,-4.4242,1.8371
11959,17.643,4.7273,0,0.0001408,1407,4.8286e-05,21.846,4.5379e-05,0.00303,-0.00014042,-1396,1.8813
11960,17.551,4.6364,0,0.00014294,1428.4,4.8973e-05,21.629,4.6094e-05,0.0039084,-0.00014256,-1417.5,1.8667
11961,17.551,4.7273,0.05,7.6379e-07,7.6327,5.865e-07,4.4067,1.9505e-12,5.8198e-06,-5.865e-07,-4.4067,1.8665
11962,17.827,4.7273,0,0.00013648,1363.9,4.6925e-05,22.617,4.3915e-05,0.0032207,-0.00013608,-1352.4,1.9108
11963,17.735,4.6364,0,0.00013861,1385.2,4.7609e-05,22.409,4.4627e-05,0.0041262,-0.00013822,-1373.8,1.8962
11964,17.735,4.7273,0.05,7.6081e-07,7.6029,5.8421e-07,4.3895,1.9494e-12,3.412e-06,-5.8421e-07,-4.3895,1.896
11965,18.011,4.7273,0,0.00013219,1321,4.5575e-05,23.435,4.2456e-05,0.0034288,-0.00013177,-1309.1,1.9404
11966,17.919,4.6364,0,0.00013431,1342.1,4.6257e-05,23.236,4.3165e-05,0.0043471,-0.0001339,-1330.4,1.9257
11967,17.919,4.7273,0.05,7.5787e-07,7.5735,5.8195e-07,4.3725,1.0476e-12,4.4156e-06,-5.8195e-07,-4.3726,1.9256
11968,18.196,4.7273,0,0.00012791,1278.3,4.4237e-05,24.304,4.1002e-05,0.0036707,-0.00012748,-1265.9,1.9701
11969,18.103,4.6364,0,0.00013002,1299.3,4.4917e-05,24.116,4.1708e-05,0.0046049,-0.0001296,-1287.1,1.9554
11970,18.103,4.7273,0.05,7.5498e-07,7.5446,5.7973e-07,4.3558,1.5281e-12,5.1137e-06,-5.7973e-07,-4.3559,1.9553
11971,18.38,4.7273,0,0.00012366,1235.8,4.2911e-05,25.23,3.9553e-05,0.0039335,-0.00012321,-1223,1.9999
11972,18.288,4.6364,0,0.00012577,1256.8,4.3589e-05,25.053,4.0256e-05,0.0049005,-0.00012532,-1244.1,1.9852
11973,18.288,4.7273,0.05,7.5214e-07,7.5163,5.7755e-07,4.3395,1.0855e-12,6.5023e-06,-5.7755e-07,-4.3395,1.985
11974,18.564,4.7273,0,0.00011944,1193.5,4.1597e-05,26.217,3.8108e-05,0.0042091,-0.00011897,-1180.2,2.0298
11975,18.472,4.6364,0,0.00012153,1214.5,4.2274e-05,26.053,3.8808e-05,0.005203,-0.00012106,-1201.2,2.015
11976,18.472,4.7273,0.05,7.4937e-07,7.4885,5.7542e-07,4.3235,1.5493e-12,8.4243e-06,-5.7542e-07,-4.3235,2.0149
11977,18.748,4.7273,0,0.00011523,1151.5,4.0296e-05,27.27,3.6667e-05,0.0045021,-0.00011474,-1137.6,2.0598
11978,18.656,4.6364,0,0.00011732,1172.4,4.0972e-05,27.12,3.7364e-05,0.0055288,-0.00011683,-1158.6,2.0449
11979,18.656,4.7273,0.05,7.4665e-07,7.4614,5.7334e-07,4.3078,6.6009e-13,4.5887e-06,-5.7334e-07,-4.3078,2.0448
11980,18.933,4.7273,0,0.00011105,1109.7,3.9009e-05,28.395,3.5231e-05,0.0048253,-0.00011054,-1095.2,2.0898
11981,18.841,4.6364,0,0.00011313,1130.5,3.9684e-05,28.26,3.5924e-05,0.0058712,-0.00011262,-1116.1,2.0749
11982,18.841,4.7273,0.05,7.4401e-07,7.4349,5.713e-07,4.2925,1.1323e-12,3.3584e-06,-5.713e-07,-4.2926,2.0748
11983,19.117,4.7273,0,0.00010689,1068.2,3.7736e-05,29.598,3.3798e-05,0.0051942,-0.00010636,-1053.1,2.12
11984,19.025,4.6364,0,0.00010896,1088.9,3.841e-05,29.481,3.4488e-05,0.0062617,-0.00010843,-1073.8,2.105
11985,19.025,4.7273,0.05,7.4142e-07,7.4091,5.6932e-07,4.2777,1.1716e-12,6.6195e-06,-5.6932e-07,-4.2777,2.1049
11986,19.301,4.7273,0,0.00010276,1026.8,3.6478e-05,30.885,3.2368e-05,0.0056028,-0.0001022,-1011.1,2.1501
11987,19.209,4.6364,0,0.00010482,1047.5,3.7152e-05,30.787,3.3055e-05,0.0067019,-0.00010426,-1031.7,2.1352
11988,19.209,4.7273,0.05,7.3893e-07,7.3842,5.674e-07,4.2632,1.6501e-12,6.3338e-06,-5.6741e-07,-4.2633,2.135
11989,19.485,4.7273,0,9.8645e-05,985.77,3.5235e-05,32.263,3.0942e-05,0.0060438,-9.8057e-05,-969.24,2.1804
11990,19.393,4.6364,0,0.0001007,1006.3,3.5909e-05,32.188,3.1626e-05,0.0071754,-0.00010012,-989.86,2.1654
11991,19.393,4.7273,0.05,7.3652e-07,7.3601,5.6555e-07,4.2493,1.6672e-12,8.2268e-06,-5.6556e-07,-4.2494,2.1652
11992,19.67,4.7273,0,9.456e-05,944.95,3.4009e-05,33.74,2.9519e-05,0.0065269,-9.3941e-05,-927.62,2.2107
11993,19.578,4.6364,0,9.6612e-05,965.46,3.4682e-05,33.69,3.0199e-05,0.0076915,-9.5995e-05,-948.17,2.1957
11994,19.578,4.7273,0.05,7.342e-07,7.3369,5.6378e-07,4.236,1.2785e-12,8.2407e-06,-5.6378e-07,-4.236,2.1955
11995,19.854,4.7273,0,9.05e-05,904.37,3.2799e-05,35.324,2.8099e-05,0.0070693,-8.9847e-05,-886.19,2.2411
11996,19.762,4.6364,0,9.2546e-05,924.83,3.3473e-05,35.302,2.8776e-05,0.0082568,-9.1895e-05,-906.66,2.226
11997,19.762,4.7273,0.05,7.3198e-07,7.3148,5.6207e-07,4.2232,3.6777e-13,8.2805e-06,-5.6207e-07,-4.2232,2.2259
11998,20.038,4.7273,0,8.6465e-05,864.05,3.1607e-05,37.025,2.668e-05,0.0076867,-8.5776e-05,-844.94,2.2716
11999,19.946,4.6364,0,8.8507e-05,884.46,3.2282e-05,37.034,2.7354e-05,0.0088956,-8.7818e-05,-865.35,2.2564
12000,19.946,4.7273,0.05,7.2988e-07,7.2937,5.6045e-07,4.211,7.7624e-13,5.4357e-06,-5.6045e-07,-4.211,2.2563
12001,20.223,4.7273,0,8.2457e-05,824,3.0434e-05,38.851,2.5264e-05,0.0083837,-8.1727e-05,-803.88,2.3021
12002,20.13,4.6364,0,8.4494e-05,844.36,3.111e-05,38.895,2.5935e-05,0.00962,-8.3765e-05,-824.23,2.2869
12003,20.13,4.7273,0.05,7.2789e-07,7.2739,5.5893e-07,4.1996,1.0437e-12,8.2871e-06,-5.5893e-07,-4.1996,2.2868
12004,20.407,4.7273,0,7.8475e-05,784.21,2.928e-05,40.814,2.385e-05,0.0091666,-7.7701e-05,-763.01,2.3326
12005,20.315,4.6364,0,8.0508e-05,804.53,2.9959e-05,40.896,2.4517e-05,0.01043,-7.9735e-05,-783.3,2.3174
12006,20.315,4.7273,0.05,7.2604e-07,7.2554,5.5751e-07,4.1889,8.3475e-13,1.1075e-05,-5.5751e-07,-4.1889,2.3173
12007,20.591,4.7273,0,7.4522e-05,744.71,2.8148e-05,42.925,2.2436e-05,0.010054,-7.3699e-05,-722.31,2.3632
12008,20.499,4.6364,0,7.6552e-05,764.99,2.8829e-05,43.05,2.3101e-05,0.011339,-7.5728e-05,-742.55,2.348
12009,20.499,4.7273,0.05,7.2434e-07,7.2384,5.562e-07,4.1791,1.0076e-12,1.1461e-05,-5.562e-07,-4.1791,2.3479
12010,20.775,4.7273,0,7.0598e-05,705.49,2.7038e-05,45.199,2.1023e-05,0.011075,-6.972e-05,-681.8,2.3939
12011,20.683,4.6364,0,7.2624e-05,725.74,2.7721e-05,45.37,2.1685e-05,0.012367,-7.1746e-05,-701.99,2.3786
12012,20.683,4.7273,0.05,7.2279e-07,7.223,5.5502e-07,4.1702,9.3183e-13,1.361e-05,-5.5502e-07,-4.1702,2.3785
12013,20.96,4.7273,0,6.6704e-05,666.58,2.5951e-05,47.65,1.9611e-05,0.012264,-6.5766e-05,-641.47,2.4246
12014,20.867,4.6364,0,6.8728e-05,686.81,2.6638e-05,47.872,2.0269e-05,0.013553,-6.7788e-05,-661.61,2.4093
12015,20.867,4.7273,0.05,7.2142e-07,7.2093,5.5396e-07,4.1623,5.0594e-13,1.1466e-05,-5.5396e-07,-4.1623,2.4092
12016,21.144,4.7273,0,6.2843e-05,627.99,2.489e-05,50.297,1.8198e-05,0.013648,-6.1836e-05,-601.33,2.4554
12017,21.052,4.6364,0,6.4864e-05,648.19,2.5581e-05,50.572,1.8852e-05,0.014932,-6.3855e-05,-621.42,2.4401
12018,21.052,4.7273,0.05,7.2026e-07,7.1976,5.5307e-07,4.1555,1.0438e-12,1.244e-05,-5.5307e-07,-4.1555,2.44
12019,21.328,4.7273,0,5.9016e-05,589.75,2.3857e-05,53.158,1.6784e-05,0.015268,-5.7931e-05,-561.36,2.4861
12020,21.236,4.6364,0,6.1035e-05,609.93,2.4552e-05,53.49,1.7435e-05,0.016523,-5.9949e-05,-581.41,2.4708
12021,21.236,4.7273,0.05,7.1931e-07,7.1881,5.5234e-07,4.1501,3.9552e-13,9.5284e-06,-5.5234e-07,-4.1501,2.4707
12022,21.512,4.7273,0,5.5226e-05,551.87,2.2853e-05,56.257,1.5368e-05,0.017186,-5.4053e-05,-521.58,2.517
12023,21.42,4.6364,0,5.7243e-05,572.03,2.3553e-05,56.649,1.6016e-05,0.01839,-5.6068e-05,-541.59,2.5016
12024,21.42,4.7273,0.05,7.1861e-07,7.1812,5.518e-07,4.1461,9.4515e-13,8.7406e-06,-5.5181e-07,-4.146,2.5015
12025,21.697,4.7273,0,5.1476e-05,514.41,2.1882e-05,59.622,1.395e-05,0.019484,-5.0202e-05,-481.99,2.5478
12026,21.605,4.6364,0,5.3491e-05,534.54,2.2587e-05,60.073,1.4594e-05,0.020594,-5.2215e-05,-501.96,2.5325
12027,21.605,4.7273,0.05,7.182e-07,7.1771,5.5149e-07,4.1437,7.22e-13,1.0173e-05,-5.5149e-07,-4.1437,2.5324
12028,21.881,4.7273,0,4.7772e-05,477.39,2.0947e-05,63.284,1.2528e-05,0.022275,-4.638e-05,-442.59,2.5787
12029,21.789,4.6364,0,4.9784e-05,497.5,2.1656e-05,63.793,1.3169e-05,0.023242,-4.8391e-05,-462.52,2.5634
12030,21.789,4.7273,0.05,7.1812e-07,7.1762,5.5142e-07,4.1432,3.8773e-13,1.0919e-05,-5.5142e-07,-4.1432,2.5633
12031,22.065,4.7273,0,4.412e-05,440.89,2.0053e-05,67.282,1.1101e-05,0.025697,-4.2588e-05,-403.38,2.6097
12032,21.973,4.6364,0,4.6127e-05,460.95,2.0765e-05,67.843,1.174e-05,0.026454,-4.4597e-05,-423.26,2.5943
12033,21.973,4.7273,0.05,7.1842e-07,7.1793,5.5166e-07,4.145,4.9096e-13,1.4695e-05,-5.5166e-07,-4.1449,2.5942
12034,22.249,4.7273,0,4.0527e-05,404.99,1.9202e-05,71.66,9.669e-06,0.029944,-3.8829e-05,-364.37,2.6406
12035,22.157,4.6364,0,4.2527e-05,424.98,1.9918e-05,72.264,1.0304e-05,0.030391,-4.0834e-05,-384.2,2.6252
12036,22.157,4.7273,0.05,7.1919e-07,7.187,5.5225e-07,4.1494,8.1339e-13,1.7229e-05,-5.5225e-07,-4.1494,2.6251
12037,22.434,4.7273,0,3.7004e-05,369.79,1.8402e-05,76.471,8.2292e-06,0.03533,-3.5105e-05,-325.56,2.6716
12038,22.342,4.6364,0,3.8994e-05,389.67,1.9118e-05,77.102,8.8614e-06,0.035289,-3.7105e-05,-345.34,2.6562
12039,22.342,4.7273,0.05,7.2052e-07,7.2002,5.5327e-07,4.1571,4.5523e-13,1.295e-05,-5.5327e-07,-4.1571,2.6561
12040,22.618,4.7273,0,3.3566e-05,335.43,1.7659e-05,81.779,6.78e-06,0.042246,-3.1418e-05,-286.97,2.7026
12041,22.526,4.6364,0,3.5538e-05,355.14,1.8373e-05,82.413,7.4099e-06,0.04155,-3.3411e-05,-306.67,2.6872
12042,22.526,4.7273,0.05,7.2255e-07,7.2205,5.5483e-07,4.1688,4.8939e-13,1.1129e-05,-5.5483e-07,-4.1688,2.6871
12043,22.802,4.7273,0,3.0232e-05,302.11,1.6978e-05,87.653,5.3194e-06,0.051637,-2.7771e-05,-248.58,2.7337
12044,22.71,4.6364,0,3.2178e-05,321.56,1.7687e-05,88.256,5.9473e-06,0.049588,-2.9755e-05,-268.2,2.7182
12045,22.71,4.7273,0.05,7.2545e-07,7.2495,5.5706e-07,4.1855,6.6938e-13,1.0618e-05,-5.5706e-07,-4.1855,2.7181
12046,22.987,4.7273,0,2.7028e-05,270.1,1.6369e-05,94.17,3.8443e-06,0.063823,-2.4165e-05,-210.39,2.7647
12047,22.894,4.6364,0,2.8935e-05,289.15,1.7067e-05,94.698,4.4714e-06,0.060961,-2.6137e-05,-229.92,2.7493
12048,22.894,4.7273,0.05,7.2947e-07,7.2897,5.6014e-07,4.2087,8.9178e-13,8.9832e-06,-5.6014e-07,-4.2087,2.7492
12049,23.171,4.7273,0,2.3992e-05,239.76,1.5838e-05,101.41,2.3518e-06,0.084759,-2.0601e-05,-172.37,2.7958
12050,23.079,4.6364,0,2.5841e-05,258.23,1.6519e-05,101.81,2.9791e-06,0.074906,-2.2557e-05,-191.79,2.7803
12051,23.079,4.7273,0.05,7.349e-07,7.344,5.6431e-07,4.24,7.8331e-13,1.1544e-05,-5.6431e-07,-4.24,2.7802
12052,23.355,4.7273,0,2.1176e-05,211.62,1.5389e-05,109.44,8.3733e-07,0.10516,-1.7074e-05,-134.48,2.8269
12053,23.263,4.6364,0,2.2938e-05,229.22,1.6048e-05,109.65,1.468e-06,0.10455,-1.9014e-05,-153.79,2.8114
12054,23.263,4.7273,0.05,7.4212e-07,7.416,5.6985e-07,4.2817,6.133e-13,9.3595e-06,-5.6985e-07,-4.2817,2.8113
12055,23.539,4.7273,0,1.8658e-05,186.45,1.5025e-05,118.33,-6.9771e-07,0.19533,-1.3582e-05,-96.612,2.858
12056,23.447,4.6364,0,2.0288e-05,202.74,1.5656e-05,118.26,-6.8065e-08,0.11942,-1.5501e-05,-115.84,2.8425
12057,23.447,4.7273,0.05,7.5147e-07,7.5095,5.7703e-07,4.3356,6.0291e-13,8.5075e-06,-5.7703e-07,-4.3356,2.8424
12058,23.724,4.7273,0,1.6556e-05,165.44,1.4751e-05,128.08,-2.2713e-06,0.17455,-1.0116e-05,-58.767,2.8891
12059,23.631,4.6364,0,1.7985e-05,179.73,1.5343e-05,127.73,-1.618e-06,0.29661,-1.2017e-05,-77.837,2.8736
12060,23.631,4.7273,0.05,7.6393e-07,7.6341,5.8661e-07,4.4075,8.6457e-13,1.1534e-05,-5.8661e-07,-4.4075,2.8735
12061,23.816,4.6364,0,1.6169e-05,161.58,1.5115e-05,137.92,-3.2219e-06,0.14164,-8.5541e-06,-39.922,2.9047
12062,23.816,4.7273,0.05,7.9172e-07,7.9117,6.0794e-07,4.5678,7.2071e-13,9.2866e-06,-6.0794e-07,-4.5678,2.9046
12063,23.908,4.7273,0,1.5009e-05,149.98,1.45e-05,137.59,-3.7581e-06,0.41102,-6.8132e-06,-22.544,2.9202
12064,1.2431,4.5455,0,0.00073964,7391.3,0.00046365,2777.7,9.1412e-05,-19.167,-0.00065187,-5603.9,0.014073
12065,1.1509,4.4545,0,0.00092168,9210.4,0.00062141,4071.8,7.8773e-05,-5.3687,-0.00078208,-6473.5,0.01102
12066,1.1509,4.5455,0.05,3.6283e-05,362.58,2.7861e-05,209.33,-2.1671e-11,-0.00026007,-2.7861e-05,-209.33,0.009834
12067,1.0588,4.5455,0,0.00064742,6469.7,0.00044494,2966.9,4.6631e-05,-25.881,-0.00054317,-4457.4,0.0062385
12068,1.4273,4.5455,0,0.00067051,6700.4,0.00035919,1715.1,0.00013055,-2.8159,-0.00062464,-5677.1,0.022282
12069,1.3352,4.4545,0,0.0007747,7741.7,0.00043825,2288.8,0.00013402,2.8935,-0.00070996,-6338.4,0.018911
12070,1.3352,4.5455,0.05,2.3475e-05,234.59,1.8026e-05,135.44,-4.0622e-11,-0.00044208,-1.8026e-05,-135.44,0.017989
12071,1.6116,4.5455,0,0.00063223,6317.9,0.00029327,1035.8,0.00015483,-4.3733,-0.00060822,-5737.7,0.030824
12072,1.5195,4.4545,0,0.00069953,6990.5,0.00033716,1302.8,0.00016233,-10.841,-0.00066822,-6251.3,0.027158
12073,1.5195,4.5455,0.05,1.4195e-05,141.85,1.09e-05,81.898,-5.3729e-11,-0.00051085,-1.09e-05,-81.898,0.026401
12074,1.7959,4.5455,0,0.00060569,6052.7,0.00024851,588,0.00016966,-4.4966,-0.00059358,-5739.2,0.039723
12075,1.7037,4.4545,0,0.0006518,6513.5,0.0002734,706.9,0.00017878,-4.0709,-0.00063693,-6132.9,0.035783
12076,1.7037,4.5455,0.05,1.0127e-05,101.2,7.7762e-06,58.427,-5.5256e-11,-0.00055511,-7.7762e-06,-58.427,0.035139
12077,1.9801,4.5455,0,0.00058775,5873.5,0.00021916,300.78,0.00017842,-5.341,-0.00058213,-5719.8,0.048997
12078,1.888,4.4545,0,0.00062013,6197,0.00023316,340.17,0.00018699,-6.7514,-0.00061373,-6023,0.044802
12079,1.888,4.5455,0.05,7.7302e-06,77.249,5.9359e-06,44.6,-5.4579e-11,-0.00054319,-5.9358e-06,-44.6,0.044236
12080,2.1644,4.5455,0,0.00057498,5745.8,0.00020012,119.19,0.00018304,-9.1096,-0.000573,-5689.7,0.05865
12081,2.0723,4.4545,0,0.00059845,5980.4,0.00020798,118.76,0.00019055,-12.147,-0.00059653,-5926,0.054219
12082,2.0723,4.5455,0.05,6.2772e-06,62.729,4.8201e-06,36.216,-6.8338e-11,-0.00050947,-4.8201e-06,-36.216,0.053707
12083,2.3487,4.5455,0,0.00056519,5648,0.00019008,23.099,0.00018258,-33.311,-0.00056534,-5652.9,0.068686
12084,2.2565,4.4545,0,0.00058257,5821.7,0.00019649,18.528,0.00018676,-54.55,-0.00058315,-5839.3,0.064031
12085,2.2565,4.5455,0.05,5.2246e-06,52.21,4.0118e-06,30.143,-5.654e-11,-0.00053173,-4.0118e-06,-30.143,0.063557
12086,2.5329,4.5455,0,0.00055706,5566.8,0.00018899,5.8432,0.0001756,-94.785,-0.0005585,-5610.5,0.079102
12087,2.4408,4.4545,0,0.00057019,5697.9,0.00019509,5.4806,0.00017687,-131.38,-0.0005722,-5759.6,0.074235
12088,2.4408,4.5455,0.05,4.4077e-06,44.047,3.3846e-06,25.43,-3.0336e-11,-0.0004973,-3.3845e-06,-25.43,0.073787
12089,2.7172,4.5455,0,0.00054986,5494.8,0.00018874,2.7926,0.00016928,-143.46,-0.00055211,-5563.7,0.089897
12090,2.6251,4.4545,0,0.00055994,5595.5,0.00019411,2.781,0.00016908,-185.3,-0.0005628,-5684.4,0.084826
12091,2.6251,4.5455,0.05,3.7479e-06,37.453,2.8779e-06,21.624,-4.8744e-11,-0.00034966,-2.8779e-06,-21.624,0.084397
12092,2.9015,4.5455,0,0.00054318,5428.1,0.00018804,1.6501,0.00016439,-176.03,-0.00054593,-5513.1,0.10107
12093,2.8093,4.4545,0,0.00055104,5506.6,0.00019274,1.6898,0.00016333,-219.22,-0.00055441,-5612.1,0.095799
12094,2.8093,4.5455,0.05,3.2093e-06,32.071,2.4643e-06,18.516,-3.8508e-11,-0.00044665,-2.4643e-06,-18.516,0.095382
12095,3.0857,4.5455,0,0.00053682,5364.5,0.0001869,1.071,0.00016056,-196.81,-0.00053987,-5459.6,0.11261
12096,2.9936,4.4545,0,0.00054305,5426.8,0.00019102,1.1136,0.00015903,-239.29,-0.00054671,-5541.9,0.10715
12097,2.9936,4.5455,0.05,2.7693e-06,27.674,2.1265e-06,15.978,-3.5534e-11,-0.00019216,-2.1265e-06,-15.978,0.10674
12098,3.27,4.5455,0,0.00053066,5302.9,0.00018543,0.73216,0.00015751,-209.11,-0.00053389,-5404,0.12451
12099,3.1779,4.4545,0,0.0005357,5353.3,0.00018907,0.76835,0.00015573,-249.77,-0.00053949,-5473.4,0.11887
12100,3.1779,4.5455,0.05,2.4119e-06,24.102,1.852e-06,13.915,-1.9546e-11,-0.00028398,-1.852e-06,-13.915,0.11846
12101,3.4543,4.5455,0,0.00052465,5242.9,0.00018373,0.51736,0.00015502,-215.23,-0.00052797,-5346.9,0.13678
12102,3.3621,4.4545,0,0.0005288,5284.4,0.00018696,0.54573,0.00015314,-253.54,-0.00053265,-5406.3,0.13096
12103,3.3621,4.5455,0.05,2.1239e-06,21.225,1.6309e-06,12.254,-1.7172e-11,-0.00020966,-1.6309e-06,-12.254,0.13056
12104,3.6385,4.5455,0,0.00051877,5184.1,0.00018185,0.37423,0.00015295,-216.78,-0.00052211,-5288.9,0.14941
12105,3.5464,4.4545,0,0.00052226,5219,0.00018474,0.39562,0.00015108,-252.51,-0.00052609,-5340.5,0.14341
12106,3.5464,4.5455,0.05,1.8942e-06,18.929,1.4545e-06,10.929,-1.5147e-11,-0.00018739,-1.4545e-06,-10.929,0.14301
12107,3.8228,4.5455,0,0.00051299,5126.4,0.00017985,0.2756,0.0001512,-214.94,-0.00051631,-5230.3,0.16239
12108,3.7307,4.4545,0,0.00051601,5156.5,0.00018244,0.29128,0.00014939,-248.03,-0.00051977,-5275.9,0.15621
12109,3.7307,4.5455,0.05,1.7128e-06,17.116,1.3152e-06,9.8822,-1.2145e-11,-0.00012567,-1.3152e-06,-9.8822,0.15581
12110,4.0071,4.5455,0,0.00050731,5069.6,0.00017775,0.20596,0.0001497,-210.55,-0.00051056,-5171.5,0.17573
12111,3.9149,4.4545,0,0.00050998,5096.3,0.00018011,0.21719,0.000148,-241.09,-0.00051365,-5212.4,0.16938
12112,3.9149,4.5455,0.05,1.5709e-06,15.698,1.2062e-06,9.063,-5.9485e-12,-0.0001077,-1.2062e-06,-9.0631,0.16897
12113,4.1913,4.5455,0,0.00050172,5013.7,0.0001756,0.15586,0.00014839,-204.29,-0.00050488,-5112.6,0.18941
12114,4.0992,4.4545,0,0.00050413,5037.8,0.00017776,0.1637,0.0001468,-232.39,-0.00050768,-5149.9,0.18288
12115,4.0992,4.5455,0.05,1.4604e-06,14.594,1.1214e-06,8.426,-7.8336e-12,-6.3695e-05,-1.1214e-06,-8.4261,0.18248
12116,4.3756,4.5455,0,0.0004962,4958.5,0.0001734,0.11927,0.00014721,-196.66,-0.00049925,-5053.9,0.20343
12117,4.2835,4.4545,0,0.00049844,4980.9,0.00017539,0.12458,0.00014577,-222.48,-0.00050185,-5088.4,0.19674
12118,4.2835,4.5455,0.05,1.3748e-06,13.739,1.0557e-06,7.9319,2.5629e-12,-7.6074e-05,-1.0557e-06,-7.932,0.19634
12119,4.5599,4.5455,0,0.00049074,4904,0.00017118,0.092192,0.00014613,-188.08,-0.00049367,-4995.3,0.21779
12120,4.4677,4.4545,0,0.00049287,4925.3,0.00017303,0.095645,0.00014483,-211.78,-0.00049612,-5027.7,0.21093
12121,4.4677,4.5455,0.05,1.3083e-06,13.074,1.0046e-06,7.5479,-1.7123e-12,-4.5097e-05,-1.0046e-06,-7.548,0.21053
12122,4.7441,4.5455,0,0.00048534,4850,0.00016895,0.071943,0.00014513,-178.87,-0.00048813,-4936.9,0.23249
12123,4.652,4.4545,0,0.00048739,4870.6,0.00017068,0.074048,0.00014397,-200.61,-0.00049049,-4967.7,0.22547
12124,4.652,4.5455,0.05,1.2562e-06,12.553,9.6459e-07,7.2475,3.0835e-12,-5.3169e-05,-9.6459e-07,-7.2477,0.22506
12125,4.9284,4.5455,0,0.00047998,4796.5,0.00016671,0.056651,0.00014417,-169.28,-0.00048264,-4878.9,0.24752
12126,4.8363,4.4545,0,0.000482,4816.6,0.00016834,0.057793,0.00014315,-189.23,-0.00048494,-4908.4,0.24033
12127,4.8363,4.5455,0.05,1.215e-06,12.141,9.3294e-07,7.0097,1.4024e-12,-4.3579e-05,-9.3295e-07,-7.0099,0.23993
12128,5.1127,4.5455,0,0.00047467,4743.4,0.00016448,0.045003,0.00014324,-159.54,-0.00047718,-4821.1,0.26288
12129,5.0205,4.4545,0,0.00047666,4763.3,0.00016603,0.045467,0.00014235,-177.83,-0.00047944,-4849.7,0.25553
12130,5.0205,4.5455,0.05,1.1818e-06,11.81,9.0749e-07,6.8185,1.5834e-12,-2.8419e-05,-9.075e-07,-6.8186,0.25512
12131,5.2969,4.5455,0,0.00046938,4690.6,0.00016226,0.036063,0.00014232,-149.79,-0.00047175,-4763.6,0.27856
12132,5.2048,4.4545,0,0.00047138,4710.5,0.00016374,0.03606,0.00014156,-166.58,-0.00047399,-4791.6,0.27105
12133,5.2048,4.5455,0.05,1.1547e-06,11.539,8.8665e-07,6.6618,2.8906e-12,-3.0985e-05,-8.8666e-07,-6.662,0.27064
12134,5.4812,4.5455,0,0.00046412,4638,0.00016005,0.029155,0.00014139,-140.17,-0.00046634,-4706.5,0.29456
12135,5.3891,4.4545,0,0.00046613,4658,0.00016147,0.028838,0.00014076,-155.58,-0.00046858,-4733.9,0.28689
12136,5.3891,4.5455,0.05,1.132e-06,11.312,8.6923e-07,6.531,3.1619e-12,-2.3897e-05,-8.6924e-07,-6.5312,0.28648
12137,5.6655,4.5455,0,0.00045888,4585.6,0.00015786,0.023785,0.00014046,-130.77,-0.00046096,-4649.6,0.31088
12138,5.5733,4.4545,0,0.0004609,4605.9,0.00015922,0.023266,0.00013993,-144.91,-0.0004632,-4676.6,0.30305
12139,5.5733,4.5455,0.05,1.1127e-06,11.119,8.5438e-07,6.4194,4.0372e-12,-1.4083e-05,-8.5438e-07,-6.4195,0.30265
12140,5.8497,4.5455,0,0.00045365,4533.4,0.00015569,0.019586,0.0001395,-121.66,-0.0004556,-4593,0.32751
12141,5.7576,4.4545,0,0.0004557,4553.9,0.000157,0.018946,0.00013908,-134.66,-0.00045784,-4619.7,0.31952
12142,5.7576,4.5455,0.05,1.0958e-06,10.951,8.4147e-07,6.3224,4.0348e-12,-1.5904e-05,-8.4148e-07,-6.3226,0.31912
12143,6.034,4.5455,0,0.00044843,4481.2,0.00015354,0.016289,0.00013851,-112.91,-0.00045025,-4536.6,0.34445
12144,5.9419,4.4545,0,0.00045051,4502,0.00015481,0.015584,0.00013819,-124.84,-0.00045251,-4563.1,0.33631
12145,5.9419,4.5455,0.05,1.081e-06,10.802,8.3006e-07,6.2367,1.4101e-12,-7.5935e-06,-8.3006e-07,-6.2368,0.33591
12146,6.2183,4.5455,0,0.00044322,4429.2,0.00015141,0.013688,0.0001375,-104.53,-0.00044491,-4480.5,0.3617
12147,6.1261,4.4545,0,0.00044533,4450.2,0.00015264,0.012959,0.00013727,-115.5,-0.00044718,-4506.9,0.3534
12148,6.1261,4.5455,0.05,1.0676e-06,10.669,8.1981e-07,6.1597,1.6716e-12,-7.0677e-06,-8.1981e-07,-6.1598,0.353
12149,6.4025,4.5455,0,0.00043802,4377.2,0.0001493,0.011629,0.00013645,-96.558,-0.00043958,-4424.6,0.37925
12150,6.3104,4.4545,0,0.00044016,4398.6,0.0001505,0.010904,0.00013631,-106.64,-0.00044188,-4450.9,0.3708
12151,6.3104,4.5455,0.05,1.0555e-06,10.548,8.1049e-07,6.0896,3.6718e-12,-1.0428e-05,-8.105e-07,-6.0898,0.3704
12152,6.5868,4.5455,0,0.00043282,4325.2,0.00014722,0.0099936,0.00013537,-89.002,-0.00043427,-4369,0.3971
12153,6.4947,4.4545,0,0.00043499,4346.9,0.00014839,0.0092915,0.00013531,-98.275,-0.00043658,-4395.2,0.38849
12154,6.4947,4.5455,0.05,1.0443e-06,10.436,8.0193e-07,6.0253,5.6746e-12,-8.6539e-06,-8.0193e-07,-6.0255,0.3881
12155,6.7711,4.5455,0,0.00042762,4273.3,0.00014515,0.0086914,0.00013426,-81.865,-0.00042896,-4313.6,0.41524
12156,6.6789,4.4545,0,0.00042982,4295.3,0.0001463,0.0080249,0.00013426,-90.396,-0.00043129,-4339.7,0.40649
12157,6.6789,4.5455,0.05,1.034e-06,10.333,7.9399e-07,5.9656,4.0374e-12,-9.3922e-06,-7.94e-07,-5.9659,0.4061
12158,6.9553,4.5455,0,0.00042243,4221.4,0.00014311,0.0076527,0.00013311,-75.145,-0.00042366,-4258.5,0.43367
12159,6.8632,4.4545,0,0.00042466,4243.6,0.00014423,0.0070295,0.00013318,-82.995,-0.00042601,-4284.5,0.42477
12160,6.8632,4.5455,0.05,1.0244e-06,10.237,7.8658e-07,5.9101,4.123e-12,-7.5322e-06,-7.866e-07,-5.9101,0.42439
12161,7.1396,4.5455,0,0.00041724,4169.5,0.00014108,0.0068232,0.00013192,-68.833,-0.00041837,-4203.5,0.45239
12162,7.0475,4.4545,0,0.00041949,4192,0.00014218,0.0062478,0.00013206,-76.059,-0.00042073,-4229.5,0.44335
12163,7.0475,4.5455,0.05,1.0153e-06,10.146,7.7963e-07,5.8577,6.0552e-12,-7.6829e-06,-7.7964e-07,-5.858,0.44296
12164,7.3239,4.5455,0,0.00041205,4117.7,0.00013908,0.0061604,0.00013071,-62.917,-0.00041308,-4148.7,0.4714
12165,7.2317,4.4545,0,0.00041432,4140.4,0.00014016,0.0056344,0.0001309,-69.571,-0.00041546,-4174.7,0.46221
12166,7.2317,4.5455,0.05,1.0068e-06,10.061,7.7307e-07,5.8085,-9.0214e-13,-6.3898e-06,-7.7308e-07,-5.8087,0.46183
12167,7.5081,4.5455,0,0.00040686,4065.8,0.0001371,0.0056315,0.00012946,-57.383,-0.00040781,-4094.2,0.49068
12168,7.416,4.4545,0,0.00040916,4088.8,0.00013816,0.0051555,0.0001297,-63.511,-0.0004102,-4120.2,0.48135
12169,7.416,4.5455,0.05,9.9869e-07,9.98,7.6686e-07,5.7619,2.7986e-12,-4.9469e-06,-7.6687e-07,-5.762,0.48097
12170,7.6924,4.5455,0,0.00040168,4014,0.00013513,0.0052107,0.00012818,-52.215,-0.00040254,-4039.9,0.51025
12171,7.6003,4.4545,0,0.00040399,4037.2,0.00013617,0.0047833,0.00012847,-57.86,-0.00040495,-4065.8,0.50077
12172,7.6003,4.5455,0.05,9.9101e-07,9.9032,7.6097e-07,5.7176,4.7153e-12,-3.799e-06,-7.6097e-07,-5.7177,0.5004
12173,7.8767,4.5455,0,0.0003965,3962.2,0.00013318,0.0048782,0.00012688,-47.395,-0.00039728,-3985.7,0.53008
12174,7.7845,4.4545,0,0.00039883,3985.6,0.00013421,0.004497,0.00012721,-52.596,-0.0003997,-4011.6,0.52047
12175,7.7845,4.5455,0.05,9.8369e-07,9.8301,7.5535e-07,5.6753,2.9896e-12,-3.7113e-06,-7.5535e-07,-5.6755,0.5201
12176,8.0609,4.5455,0,0.00039132,3910.5,0.00013126,0.0046172,0.00012554,-42.905,-0.00039203,-3931.8,0.55019
12177,7.9688,4.4545,0,0.00039367,3934,0.00013227,0.0042805,0.00012592,-47.699,-0.00039446,-3957.6,0.54044
12178,7.9688,4.5455,0.05,9.767e-07,9.7602,7.4998e-07,5.635,4.8684e-12,-4.1024e-06,-7.4999e-07,-5.6352,0.54007
12179,8.2452,4.5455,0,0.00038615,3858.8,0.00012934,0.0044161,0.00012419,-38.726,-0.00038679,-3878,0.57056
12180,8.1531,4.4545,0,0.00038851,3882.4,0.00013034,0.0041202,0.0001246,-43.145,-0.00038923,-3903.8,0.56067
12181,8.1531,4.5455,0.05,9.7e-07,9.6934,7.4484e-07,5.5964,4.9017e-12,-3.8711e-06,-7.4485e-07,-5.5965,0.56031
12182,8.4295,4.5455,0,0.00038098,3807.2,0.00012745,0.0042661,0.00012281,-34.84,-0.00038156,-3824.5,0.59119
12183,8.3373,4.4545,0,0.00038336,3830.9,0.00012843,0.0040071,0.00012325,-38.915,-0.000384,-3850.2,0.58117
12184,8.3373,4.5455,0.05,9.6358e-07,9.6292,7.399e-07,5.5593,3.1621e-12,-2.2224e-06,-7.3992e-07,-5.5595,0.58081
12185,8.6137,4.5455,0,0.00037582,3755.6,0.00012556,0.0041595,0.00012141,-31.23,-0.00037634,-3771.1,0.61208
12186,8.5216,4.4545,0,0.00037821,3779.5,0.00012654,0.0039334,0.00012188,-34.988,-0.00037879,-3796.8,0.60193
12187,8.5216,4.5455,0.05,9.574e-07,9.5674,7.3516e-07,5.5237,5.9329e-12,-2.7215e-06,-7.3517e-07,-5.5238,0.60158
12188,8.798,4.5455,0,0.00037066,3704.1,0.0001237,0.0040911,0.00011999,-27.877,-0.00037113,-3717.9,0.63323
12189,8.7059,4.4545,0,0.00037306,3728,0.00012466,0.003894,0.00012049,-31.343,-0.00037358,-3743.6,0.62295
12190,8.7059,4.5455,0.05,9.5145e-07,9.508,7.306e-07,5.4894,3.2465e-12,-1.9767e-06,-7.306e-07,-5.4895,0.6226
12191,8.9823,4.5455,0,0.00036551,3652.6,0.00012184,0.0040579,0.00011855,-24.765,-0.00036593,-3664.9,0.65463
12192,8.8901,4.4545,0,0.00036792,3676.7,0.0001228,0.0038846,0.00011907,-27.963,-0.00036839,-3690.6,0.64422
12193,8.8901,4.5455,0.05,9.4571e-07,9.4506,7.2618e-07,5.4562,4.2031e-12,-1.4896e-06,-7.2619e-07,-5.4564,0.64387
12194,9.1665,4.5455,0,0.00036038,3601.3,0.00012001,0.0040585,0.00011709,-21.877,-0.00036074,-3612.2,0.67628
12195,9.0744,4.4545,0,0.00036279,3625.4,0.00012095,0.0039037,0.00011764,-24.828,-0.0003632,-3637.7,0.66574
12196,9.0744,4.5455,0.05,9.4015e-07,9.3951,7.2192e-07,5.4242,4.2581e-12,-1.4358e-06,-7.2193e-07,-5.4243,0.6654
12197,9.3508,4.5455,0,0.00035525,3550,0.00011818,0.0040941,0.00011563,-19.198,-0.00035557,-3559.6,0.69818
12198,9.2587,4.4545,0,0.00035766,3574.2,0.00011911,0.0039498,0.0001162,-21.922,-0.00035803,-3585.1,0.68751
12199,9.2587,4.5455,0.05,9.3477e-07,9.3413,7.1778e-07,5.3931,3.3601e-12,-6.9586e-07,-7.1779e-07,-5.3933,0.68717
12200,9.5351,4.5455,0,0.00035012,3498.8,0.00011637,0.0041659,0.00011414,-16.713,-0.00035041,-3507.2,0.72031
12201,9.4429,4.4545,0,0.00035255,3523,0.00011729,0.0040258,0.00011473,-19.228,-0.00035287,-3532.6,0.70952
12202,9.4429,4.5455,0.05,9.2955e-07,9.2891,7.1377e-07,5.363,4.307e-12,-6.0122e-07,-7.1378e-07,-5.3631,0.70918
12203,9.7193,4.5455,0,0.00034501,3447.8,0.00011457,0.0042832,0.00011265,-14.408,-0.00034526,-3454.9,0.74268
12204,9.6272,4.4545,0,0.00034744,3472,0.00011548,0.0041307,0.00011326,-16.731,-0.00034772,-3480.3,0.73177
12205,9.6272,4.5455,0.05,9.2447e-07,9.2384,7.0988e-07,5.3337,4.3377e-12,3.1773e-07,-7.0989e-07,-5.3338,0.73144
12206,9.9036,4.5455,0,0.00033992,3396.8,0.00011278,0.0044532,0.00011115,-12.27,-0.00034012,-3402.9,0.76529
12207,9.8115,4.4545,0,0.00034234,3421.1,0.00011369,0.0042812,0.00011177,-14.416,-0.00034259,-3428.3,0.75426
12208,9.8115,4.5455,0.05,9.1953e-07,9.189,7.0608e-07,5.3052,3.4534e-12,4.5543e-07,-7.0609e-07,-5.3053,0.75393
12209,10.088,4.5455,0,0.00033483,3346,0.000111,0.0046896,0.00010963,-10.287,-0.000335,-3351.1,0.78813
12210,9.9957,4.4545,0,0.00033726,3370.3,0.0001119,0.004471,0.00011027,-12.27,-0.00033747,-3376.4,0.77698
12211,9.9957,4.5455,0.05,9.1472e-07,9.1409,7.0239e-07,5.2774,3.4706e-12,-8.3079e-08,-7.0239e-07,-5.2775,0.77665
12212,10.272,4.5455,0,0.00032975,3295.3,0.00010924,0.0050316,0.00010811,-8.4466,-0.0003299,-3299.5,0.81119
12213,10.18,4.4545,0,0.00033218,3319.5,0.00011013,0.0047265,0.00010876,-10.28,-0.00033236,-3324.7,0.79992
12214,10.18,4.5455,0.05,9.1001e-07,9.0939,6.9877e-07,5.2503,3.4872e-12,1.4775e-06,-6.9878e-07,-5.2504,0.7996
12215,10.456,4.5455,0,0.00032469,3244.7,0.00010748,0.0055098,0.00010658,-6.7391,-0.00032481,-3248,0.83448
12216,10.364,4.4545,0,0.00032712,3268.9,0.00010837,0.0050851,0.00010724,-8.4345,-0.00032726,-3273.2,0.8231
12217,10.364,4.5455,0.05,9.0542e-07,9.048,6.9524e-07,5.2238,4.4232e-12,1.0108e-06,-6.9526e-07,-5.2239,0.82278
12218,10.641,4.5455,0,0.00031964,3194.2,0.00010574,0.006253,0.00010505,-5.154,-0.00031973,-3196.8,0.85799
12219,10.549,4.4545,0,0.00032207,3218.5,0.00010662,0.0055406,0.00010572,-6.7224,-0.00032218,-3221.8,0.84649
12220,10.549,4.5455,0.05,9.0092e-07,9.003,6.9179e-07,5.1978,3.5264e-12,1.2573e-06,-6.9179e-07,-5.1979,0.84618
12221,10.825,4.5455,0,0.00031461,3143.9,0.000104,0.0075811,0.00010351,-3.6819,-0.00031467,-3145.7,0.88171
12222,10.733,4.4545,0,0.00031703,3168.1,0.00010488,0.0062912,0.00010419,-5.1333,-0.00031712,-3170.7,0.87011
12223,10.733,4.5455,0.05,8.9649e-07,8.9587,6.8839e-07,5.1723,3.5455e-12,1.3236e-06,-6.884e-07,-5.1724,0.8698
12224,11.009,4.5455,0,0.00030959,3093.7,0.00010228,0.010316,0.00010197,-2.315,-0.00030963,-3094.9,0.90565
12225,10.917,4.4545,0,0.00031201,3117.9,0.00010314,0.0076066,0.00010266,-3.6578,-0.00031207,-3119.8,0.89393
12226,10.917,4.5455,0.05,8.9216e-07,8.9154,6.8506e-07,5.1473,4.4673e-12,1.0822e-06,-6.8507e-07,-5.1474,0.89363
12227,11.193,4.5455,0,0.00030458,3043.7,0.00010057,0.01911,0.00010042,-1.0496,-0.0003046,-3044.2,0.9298
12228,11.101,4.4545,0,0.000307,3067.9,0.00010142,0.010245,0.00010112,-2.2879,-0.00030704,-3069,0.91797
12229,11.101,4.5455,0.05,8.8791e-07,8.873,6.818e-07,5.1227,4.482e-12,1.0386e-06,-6.8181e-07,-5.1229,0.91767
12230,11.378,4.5455,0,0.00029959,2993.8,9.8887e-05,0.22816,9.8847e-05,-0.072291,-0.00029959,-2993.7,0.95416
12231,11.286,4.4545,0,0.00030201,3018,9.9714e-05,0.018921,9.9576e-05,-1.0197,-0.00030202,-3018.5,0.94222
12232,11.286,4.5455,0.05,8.8373e-07,8.8312,6.7859e-07,5.0986,3.5879e-12,8.6425e-07,-6.786e-07,-5.0988,0.94193
12233,11.562,4.5455,0,0.00029461,2944.1,9.7329e-05,1.2721,9.7159e-05,-0.010372,-0.00029459,-2943.5,0.97872
12234,11.47,4.4545,0,0.00029703,2968.2,9.8042e-05,0.24972,9.8001e-05,-0.061634,-0.00029702,-2968.1,0.96668
12235,11.47,4.5455,0.05,8.7961e-07,8.79,6.7542e-07,5.0749,3.6012e-12,1.3288e-06,-6.7543e-07,-5.075,0.96639
12236,11.746,4.5455,0,0.00028965,2894.5,9.5778e-05,2.2982,9.5472e-05,-0.0043676,-0.00028962,-2893.4,1.0035
12237,11.654,4.4545,0,0.00029206,2918.6,9.649e-05,1.3054,9.6315e-05,-0.0089804,-0.00029204,-2918,0.99133
12238,11.654,4.5455,0.05,8.7553e-07,8.7493,6.723e-07,5.0513,2.7026e-12,1.6903e-06,-6.7231e-07,-5.0515,0.99104
12239,11.931,4.5455,0,0.00028471,2845.1,9.4227e-05,3.2606,9.3793e-05,-0.0021481,-0.00028466,-2843.5,1.0284
12240,11.838,4.4545,0,0.00028711,2869.1,9.4942e-05,2.3345,9.4631e-05,-0.0034882,-0.00028707,-2868,1.0162
12241,11.838,4.5455,0.05,8.7153e-07,8.7093,6.6922e-07,5.0283,2.7129e-12,1.9002e-06,-6.6923e-07,-5.0283,1.0159
12242,12.115,4.5455,0,0.00027978,2795.9,9.2677e-05,4.1624,9.2123e-05,-0.00099947,-0.00027971,-2793.8,1.0536
12243,12.023,4.4545,0,0.00028218,2819.9,9.3395e-05,3.2996,9.2956e-05,-0.0014409,-0.00028212,-2818.2,1.0412
12244,12.023,4.5455,0.05,8.6758e-07,8.6698,6.6619e-07,5.0055,3.6315e-12,2.3644e-06,-6.662e-07,-5.0056,1.041
12245,12.299,4.5455,0,0.00027487,2746.9,9.1127e-05,5.0084,9.046e-05,-0.00030701,-0.00027479,-2744.3,1.0789
12246,12.207,4.4545,0,0.00027726,2770.7,9.1849e-05,4.2041,9.1289e-05,-0.00036274,-0.00027719,-2768.6,1.0665
12247,12.207,4.5455,0.05,8.6368e-07,8.6308,6.6319e-07,4.9829,2.7315e-12,3.0169e-06,-6.632e-07,-4.9831,1.0662
12248,12.483,4.5455,0,0.00026998,2698,8.9579e-05,5.8036,8.8806e-05,0.00016635,-0.00026988,-2695.1,1.1044
12249,12.391,4.4545,0,0.00027237,2721.8,9.0303e-05,5.053,8.963e-05,0.00028178,-0.00027228,-2719.2,1.0919
12250,12.391,4.5455,0.05,8.5981e-07,8.5922,6.6023e-07,4.9606,2.7396e-12,2.1062e-06,-6.6023e-07,-4.9608,1.0916
12251,12.668,4.5455,0,0.00026511,2649.2,8.8033e-05,6.5529,8.716e-05,0.00054659,-0.00026499,-2646,1.1301
12252,12.575,4.4545,0,0.00026748,2673,8.8758e-05,5.8514,8.798e-05,0.00075648,-0.00026738,-2670.1,1.1175
12253,12.575,4.5455,0.05,8.5598e-07,8.5539,6.5728e-07,4.9386,3.6576e-12,1.8863e-06,-6.5729e-07,-4.9386,1.1172
12254,12.852,4.5455,0,0.00026025,2600.7,8.6489e-05,7.2606,8.5522e-05,0.00084822,-0.00026012,-2597.1,1.156
12255,12.76,4.4545,0,0.00026262,2624.4,8.7216e-05,6.6041,8.6337e-05,0.0011465,-0.00026251,-2621.1,1.1433
12256,12.76,4.5455,0.05,8.522e-07,8.5161,6.5438e-07,4.9167,2.7549e-12,2.502e-06,-6.5439e-07,-4.9168,1.143
12257,13.036,4.5455,0,0.00025541,2552.3,8.4947e-05,7.9309,8.3892e-05,0.0010808,-0.00025527,-2548.4,1.1821
12258,12.944,4.4545,0,0.00025777,2575.9,8.5676e-05,7.3156,8.4702e-05,0.0014323,-0.00025765,-2572.3,1.1693
12259,12.944,4.5455,0.05,8.4846e-07,8.4787,6.5151e-07,4.8952,3.6692e-12,3.3045e-06,-6.5151e-07,-4.8952,1.169
12260,13.22,4.5455,0,0.00025059,2504.1,8.3409e-05,8.568,8.2269e-05,0.0012602,-0.00025044,-2499.8,1.2083
12261,13.128,4.4545,0,0.00025294,2527.7,8.4138e-05,7.9902,8.3075e-05,0.0016637,-0.00025281,-2523.7,1.1954
12262,13.128,4.5455,0.05,8.4475e-07,8.4417,6.4866e-07,4.8738,9.4581e-13,4.5761e-06,-6.4866e-07,-4.8738,1.1952
12263,13.405,4.5455,0,0.00024578,2456.1,8.1875e-05,9.1755,8.0654e-05,0.0014159,-0.00024563,-2451.5,1.2347
12264,13.313,4.4545,0,0.00024813,2479.6,8.2604e-05,8.632,8.1455e-05,0.0018327,-0.00024798,-2475.3,1.2217
12265,13.313,4.5455,0.05,8.4107e-07,8.4049,6.4583e-07,4.8526,1.8607e-12,4.3686e-06,-6.4584e-07,-4.8526,1.2215
12266,13.589,4.5455,0,0.000241,2408.3,8.0344e-05,9.7573,7.9046e-05,0.0015853,-0.00024083,-2403.4,1.2613
12267,13.497,4.4545,0,0.00024334,2431.7,8.1073e-05,9.2449,7.9843e-05,0.0020114,-0.00024318,-2427.1,1.2482
12268,13.497,4.5455,0.05,8.3741e-07,8.3683,6.4302e-07,4.8314,2.7723e-12,4.3919e-06,-6.4303e-07,-4.8315,1.248
12269,13.773,4.5455,0,0.00023623,2360.7,7.8818e-05,10.317,7.7445e-05,0.0017433,-0.00023606,-2355.5,1.288
12270,13.681,4.4545,0,0.00023856,2384,7.9547e-05,9.8327,7.8239e-05,0.0022035,-0.00023839,-2379.1,1.2749
12271,13.681,4.5455,0.05,8.3379e-07,8.3322,6.4024e-07,4.8106,2.7751e-12,3.1341e-06,-6.4025e-07,-4.8106,1.2746
12272,13.957,4.5455,0,0.00023149,2313.3,7.7297e-05,10.857,7.5852e-05,0.0018758,-0.0002313,-2307.8,1.3149
12273,13.865,4.4545,0,0.00023381,2336.5,7.8025e-05,10.399,7.6641e-05,0.0023571,-0.00023363,-2331.2,1.3017
12274,13.865,4.5455,0.05,8.3021e-07,8.2963,6.3749e-07,4.7899,3.6868e-12,3.456e-06,-6.375e-07,-4.7899,1.3014
12275,14.142,4.5455,0,0.00022676,2266,7.578e-05,11.381,7.4266e-05,0.001986,-0.00022656,-2260.3,1.342
12276,14.05,4.4545,0,0.00022907,2289.1,7.6507e-05,10.946,7.5051e-05,0.0024968,-0.00022888,-2283.6,1.3287
12277,14.05,4.5455,0.05,8.2665e-07,8.2608,6.3476e-07,4.7693,2.7794e-12,3.787e-06,-6.3476e-07,-4.7694,1.3284
12278,14.326,4.5455,0,0.00022205,2218.9,7.4269e-05,11.893,7.2686e-05,0.0020945,-0.00022184,-2213,1.3692
12279,14.234,4.4545,0,0.00022435,2242,7.4995e-05,11.479,7.3467e-05,0.0026038,-0.00022416,-2236.2,1.3558
12280,14.234,4.5455,0.05,8.2311e-07,8.2254,6.3205e-07,4.7489,1.8718e-12,3.0728e-06,-6.3205e-07,-4.749,1.3556
12281,14.51,4.5455,0,0.00021736,2172.1,7.2763e-05,12.394,7.1114e-05,0.0022284,-0.00021714,-2165.9,1.3966
12282,14.418,4.4545,0,0.00021965,2195,7.3488e-05,12,7.1891e-05,0.0027384,-0.00021945,-2189,1.3831
12283,14.418,4.5455,0.05,8.1959e-07,8.1902,6.2934e-07,4.7286,2.7844e-12,4.0254e-06,-6.2934e-07,-4.7287,1.3828
12284,14.695,4.5455,0,0.00021269,2125.4,7.1263e-05,12.889,6.9548e-05,0.002363,-0.00021247,-2118.9,1.4241
12285,14.602,4.4545,0,0.00021498,2148.3,7.1986e-05,12.512,7.0322e-05,0.0028976,-0.00021476,-2142,1.4105
12286,14.602,4.5455,0.05,8.161e-07,8.1554,6.2666e-07,4.7085,1.8758e-12,4.7208e-06,-6.2667e-07,-4.7085,1.4103
12287,14.879,4.5455,0,0.00020804,2078.9,6.9769e-05,13.38,6.7989e-05,0.0024825,-0.00020781,-2072.2,1.4517
12288,14.787,4.4545,0,0.00021032,2101.7,7.0491e-05,13.018,6.8759e-05,0.0030329,-0.00021009,-2095.2,1.4381
12289,14.787,4.5455,0.05,8.1264e-07,8.1208,6.2401e-07,4.6885,3.6985e-12,6.1194e-06,-6.2401e-07,-4.6886,1.4378
12290,15.063,4.5455,0,0.00020341,2032.7,6.8282e-05,13.869,6.6436e-05,0.0025888,-0.00020317,-2025.7,1.4795
12291,14.971,4.4545,0,0.00020568,2055.3,6.9002e-05,13.521,6.7203e-05,0.003162,-0.00020544,-2048.6,1.4658
12292,14.971,4.5455,0.05,8.0921e-07,8.0865,6.2137e-07,4.6687,2.7796e-12,5.2604e-06,-6.2137e-07,-4.6687,1.4656
12293,15.247,4.5455,0,0.0001988,1986.6,6.6801e-05,14.36,6.4891e-05,0.0026984,-0.00019855,-1979.4,1.5074
12294,15.155,4.4545,0,0.00020106,2009.2,6.7519e-05,14.024,6.5653e-05,0.0032721,-0.00020081,-2002.1,1.4936
12295,15.155,4.5455,0.05,8.0579e-07,8.0524,6.1874e-07,4.649,1.8757e-12,6.2085e-06,-6.1875e-07,-4.649,1.4934
12296,15.432,4.5455,0,0.00019421,1940.7,6.5328e-05,14.855,6.3351e-05,0.0028368,-0.00019395,-1933.3,1.5355
12297,15.339,4.4545,0,0.00019646,1963.2,6.6044e-05,14.531,6.411e-05,0.0034085,-0.00019621,-1955.9,1.5216
12298,15.339,4.5455,0.05,8.0239e-07,8.0184,6.1614e-07,4.6294,3.7012e-12,4.9426e-06,-6.1614e-07,-4.6295,1.5214
12299,15.616,4.5455,0,0.00018964,1895.1,6.3862e-05,15.358,6.1818e-05,0.0029819,-0.00018937,-1887.3,1.5637
12300,15.524,4.4545,0,0.00019188,1917.5,6.4575e-05,15.043,6.2573e-05,0.0035767,-0.00019162,-1909.9,1.5497
12301,15.524,4.5455,0.05,7.9903e-07,7.9848,6.1355e-07,4.61,9.7616e-13,3.6278e-06,-6.1356e-07,-4.61,1.5495
12302,15.8,4.5455,0,0.00018509,1849.6,6.2403e-05,15.87,6.0291e-05,0.0031169,-0.00018481,-1841.6,1.592
12303,15.708,4.4545,0,0.00018732,1871.9,6.3114e-05,15.565,6.1043e-05,0.0037258,-0.00018705,-1864.1,1.578
12304,15.708,4.5455,0.05,7.9569e-07,7.9514,6.1099e-07,4.5907,1.8926e-12,2.676e-06,-6.11e-07,-4.5908,1.5778
12305,15.984,4.5455,0,0.00018056,1804.3,6.0952e-05,16.395,5.877e-05,0.0032459,-0.00018027,-1796.1,1.6204
12306,15.892,4.4545,0,0.00018278,1826.5,6.1661e-05,16.098,5.9519e-05,0.0038754,-0.0001825,-1818.4,1.6064
12307,15.892,4.5455,0.05,7.9238e-07,7.9183,6.0845e-07,4.5716,1.8974e-12,3.6498e-06,-6.0845e-07,-4.5717,1.6062
12308,16.169,4.5455,0,0.00017605,1759.3,5.9509e-05,16.937,5.7256e-05,0.003383,-0.00017576,-1750.7,1.649
12309,16.077,4.4545,0,0.00017826,1781.4,6.0215e-05,16.646,5.8001e-05,0.0040143,-0.00017797,-1773,1.6349
12310,16.077,4.5455,0.05,7.8909e-07,7.8855,6.0593e-07,4.5527,1.9063e-12,3.9572e-06,-6.0593e-07,-4.5527,1.6347
12311,16.353,4.5455,0,0.00017156,1714.4,5.8075e-05,17.497,5.5747e-05,0.0035489,-0.00017126,-1705.6,1.6777
12312,16.261,4.4545,0,0.00017377,1736.5,5.8779e-05,17.212,5.6488e-05,0.004181,-0.00017347,-1727.8,1.6635
12313,16.261,4.5455,0.05,7.8583e-07,7.8528,6.0342e-07,4.5338,1.9043e-12,4.691e-06,-6.0342e-07,-4.5339,1.6633
12314,16.537,4.5455,0,0.0001671,1669.8,5.665e-05,18.079,5.4244e-05,0.0037255,-0.00016678,-1660.7,1.7065
12315,16.445,4.4545,0,0.00016929,1691.7,5.7351e-05,17.8,5.4982e-05,0.0043791,-0.00016898,-1682.8,1.6922
12316,16.445,4.5455,0.05,7.826e-07,7.8206,6.0094e-07,4.5152,1.9091e-12,5.3959e-06,-6.0094e-07,-4.5152,1.692
12317,16.721,4.5455,0,0.00016265,1625.4,5.5233e-05,18.686,5.2747e-05,0.0038999,-0.00016233,-1616,1.7354
12318,16.629,4.4545,0,0.00016484,1647.2,5.5932e-05,18.413,5.3482e-05,0.0045673,-0.00016451,-1637.9,1.7211
12319,16.629,4.5455,0.05,7.794e-07,7.7886,5.9848e-07,4.4967,1.4649e-12,5.7177e-06,-5.9848e-07,-4.4968,1.7209
12320,16.906,4.5455,0,0.00015823,1581.2,5.3827e-05,19.323,5.1255e-05,0.0040728,-0.00015789,-1571.4,1.7644
12321,16.814,4.4545,0,0.0001604,1602.9,5.4522e-05,19.053,5.1987e-05,0.0047616,-0.00016007,-1593.3,1.75
12322,16.814,4.5455,0.05,7.7623e-07,7.757,5.9605e-07,4.4785,1.4687e-12,4.0094e-06,-5.9605e-07,-4.4785,1.7499
12323,17.09,4.5455,0,0.00015383,1537.2,5.2429e-05,19.991,4.9769e-05,0.0042595,-0.00015348,-1527.1,1.7935
12324,16.998,4.4545,0,0.00015599,1558.8,5.3122e-05,19.726,5.0497e-05,0.0049514,-0.00015565,-1548.9,1.7791
12325,16.998,4.5455,0.05,7.731e-07,7.7257,5.9364e-07,4.4604,1.4748e-12,4.8342e-06,-5.9364e-07,-4.4604,1.7789
12326,17.274,4.5455,0,0.00014945,1493.4,5.1043e-05,20.695,4.8289e-05,0.0044779,-0.00014908,-1483,1.8228
12327,17.182,4.4545,0,0.0001516,1515,5.1733e-05,20.434,4.9014e-05,0.0051738,-0.00015124,-1504.7,1.8083
12328,17.182,4.5455,0.05,7.6999e-07,7.6946,5.9126e-07,4.4425,1.0245e-12,4.8617e-06,-5.9126e-07,-4.4425,1.8081
12329,17.459,4.5455,0,0.00014509,1449.9,4.9666e-05,21.44,4.6813e-05,0.004713,-0.00014471,-1439,1.8521
12330,17.366,4.4545,0,0.00014724,1471.3,5.0353e-05,21.182,4.7535e-05,0.005429,-0.00014686,-1460.6,1.8376
12331,17.366,4.5455,0.05,7.6693e-07,7.664,5.8891e-07,4.4248,1.9342e-12,4.1861e-06,-5.8891e-07,-4.4249,1.8374
12332,17.643,4.5455,0,0.00014075,1406.5,4.8301e-05,22.228,4.5343e-05,0.0049529,-0.00014036,-1395.3,1.8815
12333,17.551,4.4545,0,0.00014289,1427.9,4.8985e-05,21.974,4.6062e-05,0.0056841,-0.0001425,-1416.8,1.867
12334,17.551,4.5455,0.05,7.6392e-07,7.6339,5.8659e-07,4.4074,1.0297e-12,5.9233e-06,-5.866e-07,-4.4074,1.8668
12335,17.827,4.5455,0,0.00013644,1363.4,4.6947e-05,23.065,4.3878e-05,0.0051973,-0.00013603,-1351.8,1.9111
12336,17.735,4.4545,0,0.00013857,1384.7,4.7629e-05,22.815,4.4593e-05,0.0059521,-0.00013817,-1373.2,1.8964
12337,17.735,4.5455,0.05,7.6094e-07,7.6042,5.8431e-07,4.3903,1.0374e-12,3.4522e-06,-5.8431e-07,-4.3903,1.8963
12338,18.011,4.5455,0,0.00013215,1320.6,4.5605e-05,23.954,4.2417e-05,0.005464,-0.00013172,-1308.4,1.9407
12339,17.919,4.4545,0,0.00013427,1341.8,4.6284e-05,23.709,4.3129e-05,0.0062237,-0.00013385,-1329.7,1.926
12340,17.919,4.5455,0.05,7.5801e-07,7.5749,5.8206e-07,4.3734,1.5147e-12,3.8153e-06,-5.8206e-07,-4.3734,1.9259
12341,18.196,4.5455,0,0.00012788,1277.9,4.4275e-05,24.902,4.0962e-05,0.0057713,-0.00012744,-1265.3,1.9704
12342,18.103,4.4545,0,0.00012999,1299,4.4952e-05,24.661,4.1671e-05,0.0065366,-0.00012955,-1286.5,1.9557
12343,18.103,4.5455,0.05,7.5513e-07,7.5461,5.7985e-07,4.3567,1.9826e-12,4.4851e-06,-5.7985e-07,-4.3567,1.9555
12344,18.38,4.5455,0,0.00012364,1235.5,4.2958e-05,25.914,3.951e-05,0.0061018,-0.00012318,-1222.3,2.0002
12345,18.288,4.4545,0,0.00012574,1256.5,4.3632e-05,25.677,4.0216e-05,0.0068893,-0.00012528,-1243.5,1.9854
12346,18.288,4.5455,0.05,7.5231e-07,7.5179,5.7768e-07,4.3404,1.0727e-12,6.2636e-06,-5.7768e-07,-4.3405,1.9853
12347,18.564,4.5455,0,0.00011942,1193.3,4.1655e-05,26.994,3.8063e-05,0.0064495,-0.00011893,-1179.6,2.0301
12348,18.472,4.4545,0,0.00012151,1214.3,4.2327e-05,26.763,3.8766e-05,0.007253,-0.00012103,-1200.7,2.0152
12349,18.472,4.5455,0.05,7.4954e-07,7.4903,5.7556e-07,4.3245,1.8571e-13,8.021e-06,-5.7556e-07,-4.3245,2.0151
12350,18.748,4.5455,0,0.00011522,1151.4,4.0365e-05,28.149,3.662e-05,0.0068192,-0.00011471,-1137.1,2.06
12351,18.656,4.4545,0,0.0001173,1172.2,4.1035e-05,27.924,3.732e-05,0.0076439,-0.0001168,-1158,2.0452
12352,18.656,4.5455,0.05,7.4684e-07,7.4633,5.7348e-07,4.3089,1.8735e-13,5.2691e-06,-5.7348e-07,-4.309,2.045
12353,18.933,4.5455,0,0.00011105,1109.7,3.9091e-05,29.386,3.5181e-05,0.007223,-0.00011052,-1094.7,2.0901
12354,18.841,4.4545,0,0.00011312,1130.5,3.9758e-05,29.168,3.5877e-05,0.0080545,-0.0001126,-1115.6,2.0751
12355,18.841,4.5455,0.05,7.4421e-07,7.437,5.7146e-07,4.2937,2.1572e-13,3.607e-06,-5.7146e-07,-4.2938,2.075
12356,19.117,4.5455,0,0.0001069,1068.2,3.7831e-05,30.711,3.3745e-05,0.0076782,-0.00010634,-1052.5,2.1202
12357,19.025,4.4545,0,0.00010897,1088.9,3.8497e-05,30.501,3.4438e-05,0.0085187,-0.00010842,-1073.3,2.1052
12358,19.025,4.5455,0.05,7.4165e-07,7.4114,5.695e-07,4.279,2.6053e-13,6.7056e-06,-5.695e-07,-4.279,2.1051
12359,19.301,4.5455,0,0.00010277,1027,3.6588e-05,32.132,3.2312e-05,0.0081762,-0.00010219,-1010.6,2.1504
12360,19.209,4.4545,0,0.00010484,1047.6,3.7252e-05,31.932,3.3003e-05,0.0090359,-0.00010426,-1031.3,2.1354
12361,19.209,4.5455,0.05,7.3918e-07,7.3867,5.6759e-07,4.2647,1.6396e-12,5.855e-06,-5.676e-07,-4.2647,2.1352
12362,19.485,4.5455,0,9.8677e-05,986.09,3.5361e-05,33.657,3.0883e-05,0.008717,-9.8061e-05,-968.82,2.1806
12363,19.393,4.4545,0,0.00010073,1006.6,3.6024e-05,33.468,3.1571e-05,0.0095906,-0.00010012,-989.46,2.1656
12364,19.393,4.5455,0.05,7.3679e-07,7.3628,5.6576e-07,4.2509,7.8119e-13,7.8553e-06,-5.6576e-07,-4.2509,2.1655
12365,19.67,4.5455,0,9.4605e-05,945.4,3.4152e-05,35.295,2.9456e-05,0.0093067,-9.3955e-05,-927.25,2.2109
12366,19.578,4.4545,0,9.6653e-05,965.86,3.4814e-05,35.119,3.0141e-05,0.010197,-9.6007e-05,-947.82,2.1959
12367,19.578,4.5455,0.05,7.345e-07,7.34,5.6401e-07,4.2377,3.3614e-13,8.6966e-06,-5.6401e-07,-4.2377,2.1957
12368,19.854,4.5455,0,9.056e-05,904.97,3.2962e-05,37.055,2.8031e-05,0.0099587,-8.9872e-05,-885.87,2.2413
12369,19.762,4.4545,0,9.2601e-05,925.37,3.3622e-05,36.893,2.8714e-05,0.010855,-9.1918e-05,-906.37,2.2262
12370,19.762,4.5455,0.05,7.3232e-07,7.3182,5.6233e-07,4.2251,1.293e-12,7.6917e-06,-5.6233e-07,-4.2251,2.2261
12371,20.038,4.5455,0,8.6542e-05,864.82,3.1791e-05,38.948,2.6609e-05,0.010694,-8.5813e-05,-844.69,2.2717
12372,19.946,4.4545,0,8.8577e-05,885.16,3.2451e-05,38.802,2.7288e-05,0.011593,-8.7853e-05,-865.11,2.2566
12373,19.946,4.5455,0.05,7.3025e-07,7.2975,5.6074e-07,4.2132,8.1705e-13,5.7679e-06,-5.6074e-07,-4.2132,2.2565
12374,20.223,4.5455,0,8.2552e-05,824.95,3.0641e-05,40.985,2.5188e-05,0.011519,-8.1778e-05,-803.69,2.3022
12375,20.13,4.4545,0,8.4581e-05,845.23,3.1301e-05,40.857,2.5864e-05,0.012424,-8.3812e-05,-824.05,2.2871
12376,20.13,4.5455,0.05,7.2831e-07,7.2781,5.5925e-07,4.202,1.06e-12,6.7387e-06,-5.5925e-07,-4.202,2.287
12377,20.407,4.5455,0,7.8591e-05,785.37,2.9513e-05,43.178,2.3768e-05,0.012442,-7.7767e-05,-762.88,2.3328
12378,20.315,4.4545,0,8.0615e-05,805.59,3.0173e-05,43.071,2.4442e-05,0.013348,-7.9795e-05,-783.18,2.3176
12379,20.315,4.5455,0.05,7.2652e-07,7.2601,5.5787e-07,4.1916,8.4348e-13,1.0895e-05,-5.5787e-07,-4.1916,2.3175
12380,20.591,4.5455,0,7.466e-05,746.09,2.8408e-05,45.542,2.2349e-05,0.013477,-7.3781e-05,-722.27,2.3634
12381,20.499,4.4545,0,7.6678e-05,766.26,2.9068e-05,45.456,2.302e-05,0.014378,-7.5804e-05,-742.51,2.3482
12382,20.499,4.5455,0.05,7.2487e-07,7.2437,5.5661e-07,4.1822,9.7236e-13,1.0961e-05,-5.5661e-07,-4.1822,2.3481
12383,20.775,4.5455,0,7.0761e-05,707.12,2.7328e-05,48.09,2.093e-05,0.014653,-6.982e-05,-681.84,2.3941
12384,20.683,4.4545,0,7.2774e-05,727.24,2.7989e-05,48.029,2.1598e-05,0.015534,-7.1838e-05,-702.03,2.3788
12385,20.683,4.5455,0.05,7.234e-07,7.229,5.5548e-07,4.1737,9.5159e-13,1.2619e-05,-5.5548e-07,-4.1737,2.3787
12386,20.96,4.5455,0,6.6895e-05,668.48,2.6275e-05,50.841,1.951e-05,0.016009,-6.5884e-05,-641.61,2.4248
12387,20.867,4.4545,0,6.8903e-05,688.55,2.6936e-05,50.806,2.0176e-05,0.016857,-6.7898e-05,-661.74,2.4095
12388,20.867,4.5455,0.05,7.2212e-07,7.2162,5.545e-07,4.1663,7.8959e-13,1.135e-05,-5.545e-07,-4.1663,2.4094
12389,21.144,4.5455,0,6.3063e-05,630.2,2.525e-05,53.814,1.809e-05,0.017572,-6.1975e-05,-601.56,2.4555
12390,21.052,4.4545,0,6.5067e-05,650.22,2.5912e-05,53.805,1.8753e-05,0.018382,-6.3984e-05,-621.64,2.4402
12391,21.052,4.5455,0.05,7.2105e-07,7.2055,5.5368e-07,4.1601,8.1402e-13,1.13e-05,-5.5368e-07,-4.1601,2.4401
12392,21.328,4.5455,0,5.9269e-05,592.28,2.4255e-05,57.03,1.6667e-05,0.019383,-5.8092e-05,-561.69,2.4863
12393,21.236,4.4545,0,6.1268e-05,612.25,2.4918e-05,57.048,1.7328e-05,0.020128,-6.0097e-05,-581.72,2.471
12394,21.236,4.5455,0.05,7.2023e-07,7.1973,5.5305e-07,4.1554,8.648e-13,9.8126e-06,-5.5305e-07,-4.1554,2.4709
12395,21.512,4.5455,0,5.5515e-05,554.77,2.3293e-05,60.513,1.5242e-05,0.021502,-5.4237e-05,-522.02,2.5171
12396,21.42,4.4545,0,5.7509e-05,574.69,2.3958e-05,60.558,1.5901e-05,0.022157,-5.6238e-05,-542,2.5018
12397,21.42,4.5455,0.05,7.1968e-07,7.1918,5.5262e-07,4.1522,6.998e-13,7.3055e-06,-5.5262e-07,-4.1522,2.5017
12398,21.697,4.5455,0,5.1805e-05,517.69,2.2368e-05,64.292,1.3814e-05,0.024016,-5.0411e-05,-482.54,2.548
12399,21.605,4.4545,0,5.3793e-05,537.56,2.3033e-05,64.361,1.447e-05,0.024534,-5.2408e-05,-502.47,2.5326
12400,21.605,4.5455,0.05,7.1943e-07,7.1894,5.5244e-07,4.1508,7.0719e-13,8.7591e-06,-5.5244e-07,-4.1508,2.5325
12401,21.881,4.5455,0,4.8144e-05,481.11,2.1481e-05,68.4,1.2381e-05,0.027035,-4.6614e-05,-443.24,2.5789
12402,21.789,4.4545,0,5.0125e-05,500.91,2.2146e-05,68.486,1.3035e-05,0.027363,-4.8607e-05,-463.13,2.5635
12403,21.789,4.5455,0.05,7.1955e-07,7.1906,5.5253e-07,4.1515,6.1401e-13,1.0506e-05,-5.5253e-07,-4.1515,2.5634
12404,22.065,4.5455,0,4.4539e-05,445.08,2.0637e-05,72.873,1.0942e-05,0.030696,-4.2849e-05,-404.14,2.6098
12405,21.973,4.4545,0,4.6511e-05,464.78,2.1302e-05,72.969,1.1594e-05,0.030764,-4.4837e-05,-423.97,2.5944
12406,21.973,4.5455,0.05,7.2009e-07,7.196,5.5294e-07,4.1546,4.7691e-13,1.6082e-05,-5.5294e-07,-4.1546,2.5943
12407,22.249,4.5455,0,4.0996e-05,409.68,1.984e-05,77.753,9.4965e-06,0.035194,-3.9116e-05,-365.22,2.6408
12408,22.157,4.4545,0,4.2956e-05,429.26,2.0503e-05,77.846,1.0147e-05,0.034895,-4.1099e-05,-385,2.6253
12409,22.157,4.5455,0.05,7.2113e-07,7.2064,5.5374e-07,4.1606,7.8297e-13,1.7682e-05,-5.5374e-07,-4.1606,2.6253
12410,22.434,4.5455,0,3.7528e-05,375.02,1.9095e-05,83.088,8.042e-06,0.04084,-3.5417e-05,-326.49,2.6718
12411,22.342,4.4545,0,3.9471e-05,394.44,1.9753e-05,83.16,8.6908e-06,0.039999,-3.7393e-05,-346.21,2.6563
12412,22.342,4.5455,0.05,7.2277e-07,7.2227,5.55e-07,4.1701,6.4939e-13,1.3954e-05,-5.55e-07,-4.17,2.6562
12413,22.618,4.5455,0,3.4147e-05,341.24,1.8407e-05,88.932,6.577e-06,0.048031,-3.1753e-05,-287.95,2.7028
12414,22.526,4.4545,0,3.6067e-05,360.43,1.9058e-05,88.957,7.2249e-06,0.046474,-3.3721e-05,-307.6,2.6873
12415,22.526,4.5455,0.05,7.2513e-07,7.2463,5.5681e-07,4.1837,7.0346e-13,9.4222e-06,-5.5681e-07,-4.1837,2.6872
12416,22.802,4.5455,0,3.0873e-05,308.52,1.778e-05,95.34,5.0991e-06,0.057731,-2.8125e-05,-249.58,2.7338
12417,22.71,4.4545,0,3.2761e-05,327.38,1.8422e-05,95.288,5.747e-06,0.054747,-3.0082e-05,-269.15,2.7183
12418,22.71,4.5455,0.05,7.2837e-07,7.2787,5.593e-07,4.2024,1.067e-12,9.7234e-06,-5.593e-07,-4.2024,2.7183
12419,22.987,4.5455,0,2.7731e-05,277.12,1.7221e-05,102.37,3.606e-06,0.070285,-2.4533e-05,-211.35,2.7648
12420,22.894,4.4545,0,2.9573e-05,295.53,1.7848e-05,102.2,4.2548e-06,0.0664,-2.6478e-05,-230.85,2.7494
12421,22.894,4.5455,0.05,7.327e-07,7.322,5.6262e-07,4.2273,6.2454e-13,7.6606e-06,-5.6262e-07,-4.2273,2.7493
12422,23.171,4.5455,0,2.4756e-05,247.39,1.6733e-05,110.08,2.0949e-06,0.091735,-2.0974e-05,-173.24,2.7959
12423,23.079,4.4545,0,2.6534e-05,265.16,1.7342e-05,109.75,2.7456e-06,0.080702,-2.2905e-05,-192.65,2.7804
12424,23.079,4.5455,0.05,7.3834e-07,7.3783,5.6695e-07,4.2598,6.7859e-14,1.0555e-05,-5.6695e-07,-4.2598,2.7804
12425,23.355,4.5455,0,2.2e-05,219.84,1.6318e-05,118.5,5.6184e-07,0.11284,-1.7443e-05,-135.17,2.827
12426,23.263,4.4545,0,2.3685e-05,236.69,1.6904e-05,117.97,1.2176e-06,0.11092,-1.9361e-05,-154.51,2.8115
12427,23.263,4.5455,0.05,7.4553e-07,7.4501,5.7247e-07,4.3013,7.2124e-13,9.2588e-06,-5.7247e-07,-4.3013,2.8114
12428,23.539,4.5455,0,1.9536e-05,195.22,1.5976e-05,127.68,-9.9047e-07,0.20481,-1.3937e-05,-97.067,2.8581
12429,23.447,4.4545,0,2.1087e-05,210.72,1.6536e-05,126.88,-3.3478e-07,0.12655,-1.5839e-05,-116.36,2.8426
12430,23.447,4.5455,0.05,7.5448e-07,7.5396,5.7935e-07,4.353,8.3709e-13,7.5149e-06,-5.7935e-07,-4.353,2.8425
12431,23.724,4.5455,0,1.7476e-05,174.64,1.5708e-05,137.59,-2.5786e-06,0.18852,-1.0447e-05,-58.933,2.8892
12432,23.631,4.4545,0,1.8828e-05,188.15,1.6235e-05,136.56,-1.8992e-06,0.30642,-1.2337e-05,-78.117,2.8737
12433,23.631,4.5455,0.05,7.659e-07,7.6537,5.8812e-07,4.4189,8.3813e-13,8.8347e-06,-5.8812e-07,-4.4189,2.8736
12434,23.816,4.4545,0,1.7039e-05,170.27,1.6005e-05,146.82,-3.5139e-06,0.15933,-8.8485e-06,-39.923,2.9048
12435,23.816,4.5455,0.05,7.8975e-07,7.8921,6.0643e-07,4.5565,7.2688e-13,7.7742e-06,-6.0643e-07,-4.5565,2.9047
12436,23.908,4.5455,0,1.5968e-05,159.57,1.5467e-05,147.27,-4.0773e-06,0.41655,-7.1321e-06,-22.536,2.9203
12437,1.2431,4.3636,0,0.0009286,9279.6,0.00057698,3439.9,0.00012139,16.749,-0.00082114,-7065,0.015749
12438,1.1509,4.2727,0,0.0012157,12149,0.00079457,4978,0.00011979,-92.03,-0.0010504,-8884.4,0.012835
12439,1.1509,4.3636,0.05,5.6007e-05,559.68,4.3006e-05,323.13,-7e-11,-0.00058736,-4.3006e-05,-323.13,0.011742
12440,1.0588,4.3636,0,0.00083545,8348.7,0.00057244,3875.4,7.0323e-05,102.66,-0.00070114,-5693.8,0.0082281
12441,1.4273,4.3636,0,0.0007944,7938.6,0.00040997,1829.5,0.0001658,-5.1017,-0.00074729,-6865.7,0.023662
12442,1.3352,4.2727,0,0.00092546,9248.3,0.00049115,2316.4,0.00018449,12.229,-0.00086405,-7866.1,0.020363
12443,1.3352,4.3636,0.05,2.3304e-05,232.88,1.7895e-05,134.45,-9.0222e-11,-0.00086691,-1.7895e-05,-134.45,0.019528
12444,1.6116,4.3636,0,0.00071456,7140.7,0.00031408,949.73,0.00018629,-10.432,-0.00069372,-6622.5,0.031985
12445,1.5195,4.2727,0,0.00079094,7903.9,0.00035157,1098.3,0.00020341,-14.88,-0.0007666,-7303.2,0.028346
12446,1.5195,4.3636,0.05,1.5154e-05,151.44,1.1637e-05,87.432,-8.6889e-11,-0.00086298,-1.1636e-05,-87.432,0.027672
12447,1.7959,4.3636,0,0.00066392,6634.6,0.00025626,445.66,0.00019611,-6.2901,-0.00065529,-6403.4,0.040729
12448,1.7037,4.2727,0,0.00071542,7149.2,0.00027663,485.87,0.00021098,-7.4557,-0.000706,-6897.3,0.036789
12449,1.7037,4.3636,0.05,1.0943e-05,109.36,8.4032e-06,63.138,-7.7786e-11,-0.00064278,-8.4032e-06,-63.138,0.03622
12450,1.9801,4.3636,0,0.00062959,6291.6,0.00022097,150.53,0.00019912,-13.632,-0.0006271,-6221.5,0.049893
12451,1.888,4.2727,0,0.00066587,6654.1,0.00023245,141.43,0.00021108,-19.15,-0.00066364,-6591.5,0.045682
12452,1.888,4.3636,0.05,8.6504e-06,86.444,6.6425e-06,49.909,-6.4069e-11,-0.00065163,-6.6424e-06,-49.909,0.045185
12453,2.1644,4.3636,0,0.00060539,6049.7,0.00020476,21.179,0.00019328,-65.073,-0.00060609,-6071.2,0.059471
12454,2.0723,4.2727,0,0.0006318,6313.7,0.00021497,17.591,0.00019911,-101.59,-0.00063315,-6354.8,0.055011
12455,2.0723,4.3636,0.05,7.1539e-06,71.49,5.4934e-06,41.275,-5.5254e-11,-0.00058871,-5.4933e-06,-41.275,0.054563
12456,2.3487,4.3636,0,0.00058724,5868.3,0.00020217,6.0019,0.00018005,-160.18,-0.00058968,-5943.6,0.069454
12457,2.2565,4.2727,0,0.00060687,6064.5,0.00021116,5.7589,0.00018216,-212.17,-0.00061009,-6164.8,0.064763
12458,2.2565,4.3636,0.05,5.9844e-06,59.803,4.5953e-06,34.527,-5.0503e-11,-0.00048839,-4.5953e-06,-34.527,0.06435
12459,2.5329,4.3636,0,0.0005729,5725.1,0.00020029,3.0461,0.00017009,-223.87,-0.00057632,-5832.1,0.079835
12460,2.4408,4.2727,0,0.00058774,5873.4,0.00020794,3.0598,0.00017018,-280.68,-0.00059195,-6007.1,0.074927
12461,2.4408,4.3636,0.05,5.0493e-06,50.458,3.8772e-06,29.132,-4.7729e-11,-0.00034865,-3.8772e-06,-29.132,0.074537
12462,2.7172,4.3636,0,0.00056106,5606.7,0.00019812,1.849,0.00016302,-261.93,-0.00056502,-5732.1,0.090607
12463,2.6251,4.2727,0,0.00057243,5720.3,0.00020465,1.8877,0.00016191,-319.23,-0.00057715,-5872.3,0.085492
12464,2.6251,4.3636,0.05,4.2889e-06,42.86,3.2934e-06,24.745,-3.8495e-11,-0.00033592,-3.2934e-06,-24.745,0.085117
12465,2.9015,4.3636,0,0.0005509,5505.2,0.00019573,1.2205,0.00015792,-282.89,-0.00055514,-5640.6,0.10176
12466,2.8093,4.2727,0,0.00055973,5593.4,0.00020132,1.259,0.00015612,-338.36,-0.00056469,-5754.2,0.096448
12467,2.8093,4.3636,0.05,3.667e-06,36.644,2.8158e-06,21.157,-3.6846e-11,-0.00037355,-2.8158e-06,-21.157,0.096084
12468,3.0857,4.3636,0,0.00054194,5415.7,0.0001932,0.84256,0.00015417,-292.44,-0.0005463,-5555.5,0.11329
12469,2.9936,4.2727,0,0.00054889,5485.1,0.00019802,0.87376,0.000152,-344.87,-0.00055392,-5648.9,0.10779
12470,2.9936,4.3636,0.05,3.1577e-06,31.555,2.4247e-06,18.218,-2.8562e-11,-0.0002076,-2.4247e-06,-18.218,0.10743
12471,3.27,4.3636,0,0.00053385,5334.8,0.0001906,0.59834,0.00015135,-294.28,-0.00053824,-5475.6,0.1252
12472,3.1779,4.2727,0,0.0005394,5390.3,0.00019478,0.62245,0.00014903,-343.11,-0.00054441,-5553.3,0.11951
12473,3.1779,4.3636,0.05,2.7416e-06,27.397,2.1052e-06,15.818,-1.4964e-11,-0.00019252,-2.1052e-06,-15.818,0.11915
12474,3.4543,4.3636,0,0.00052643,5260.7,0.00018796,0.43312,0.0001492,-290.84,-0.00053076,-5399.8,0.13747
12475,3.3621,4.2727,0,0.00053094,5305.8,0.00019162,0.45104,0.00014686,-335.88,-0.00053585,-5465.5,0.13159
12476,3.3621,4.3636,0.05,2.4032e-06,24.015,1.8454e-06,13.865,-1.2758e-11,-0.00013833,-1.8454e-06,-13.865,0.13124
12477,3.6385,4.3636,0,0.00051952,5191.6,0.00018533,0.31804,0.00014752,-283.76,-0.00052375,-5327.5,0.1501
12478,3.5464,4.2727,0,0.00052327,5229.1,0.00018856,0.33099,0.00014525,-325.05,-0.00052803,-5383.8,0.14404
12479,3.5464,4.3636,0.05,2.1296e-06,21.281,1.6352e-06,12.287,-1.2175e-11,-0.00012479,-1.6352e-06,-12.287,0.14369
12480,3.8228,4.3636,0,0.000513,5126.5,0.00018271,0.23618,0.00014619,-274.18,-0.00051711,-5258,0.16308
12481,3.7307,4.2727,0,0.00051619,5158.4,0.00018558,0.24526,0.00014404,-311.89,-0.00052079,-5307.1,0.15685
12482,3.7307,4.3636,0.05,1.9097e-06,19.084,1.4664e-06,11.018,-1.0318e-11,-0.00011218,-1.4664e-06,-11.018,0.1565
12483,4.0071,4.3636,0,0.00050681,5064.6,0.00018012,0.17707,0.0001451,-262.92,-0.00051076,-5190.8,0.17642
12484,3.9149,4.2727,0,0.00050959,5092.4,0.00018269,0.18321,0.0001431,-297.27,-0.00051399,-5234.4,0.17002
12485,3.9149,4.3636,0.05,1.7341e-06,17.329,1.3316e-06,10.005,-7.6387e-12,-9.504e-05,-1.3316e-06,-10.005,0.16967
12486,4.1913,4.3636,0,0.00050086,5005.2,0.00017755,0.13386,0.00014418,-250.58,-0.00050465,-5125.7,0.1901
12487,4.0992,4.2727,0,0.00050336,5030.1,0.00017988,0.13781,0.00014236,-281.82,-0.00050756,-5165,0.18353
12488,4.0992,4.3636,0.05,1.5945e-06,15.934,1.2244e-06,9.1997,-2.9986e-12,-6.0327e-05,-1.2244e-06,-9.1998,0.18318
12489,4.3756,4.3636,0,0.00049512,4947.7,0.00017502,0.10198,0.00014339,-237.59,-0.00049873,-5062.2,0.20413
12490,4.2835,4.2727,0,0.00049741,4970.7,0.00017715,0.10432,0.00014174,-265.99,-0.0005014,-5098.3,0.19739
12491,4.2835,4.3636,0.05,1.484e-06,14.829,1.1395e-06,8.5617,-1.0667e-12,-7.0842e-05,-1.1395e-06,-8.5619,0.19703
12492,4.5599,4.3636,0,0.00048952,4891.9,0.00017253,0.078253,0.00014267,-224.31,-0.00049295,-5000.1,0.2185
12493,4.4677,4.2727,0,0.00049168,4913.4,0.00017449,0.079442,0.00014119,-250.12,-0.00049546,-5033.7,0.21159
12494,4.4677,4.3636,0.05,1.3964e-06,13.954,1.0723e-06,8.0565,4.3108e-12,-6.0555e-05,-1.0723e-06,-8.0566,0.21123
12495,4.7441,4.3636,0,0.00048405,4837.2,0.00017008,0.06047,0.00014199,-210.97,-0.0004873,-4939.2,0.2332
12496,4.652,4.2727,0,0.00048613,4857.9,0.0001719,0.060848,0.00014069,-234.43,-0.00048969,-4970.9,0.22612
12497,4.652,4.3636,0.05,1.3269e-06,13.259,1.0189e-06,7.6552,1.5768e-12,-4.8746e-05,-1.0189e-06,-7.6554,0.22577
12498,4.9284,4.3636,0,0.00047868,4783.5,0.00016766,0.047057,0.00014133,-197.78,-0.00048174,-4879.3,0.24823
12499,4.8363,4.2727,0,0.0004807,4803.7,0.00016937,0.04688,0.0001402,-219.12,-0.00048405,-4909.5,0.24099
12500,4.8363,4.3636,0.05,1.2713e-06,12.704,9.7621e-07,7.3348,-1.5454e-13,-1.9717e-05,-9.7622e-07,-7.3349,0.24063
12501,5.1127,4.3636,0,0.00047337,4730.5,0.00016528,0.036884,0.00014067,-184.88,-0.00047625,-4820.2,0.26359
12502,5.0205,4.2727,0,0.00047538,4750.5,0.00016689,0.036339,0.00013969,-204.29,-0.00047852,-4849.3,0.25619
12503,5.0205,4.3636,0.05,1.2266e-06,12.257,9.4185e-07,7.0767,1.5578e-12,-1.7133e-05,-9.4185e-07,-7.0767,0.25583
12504,5.2969,4.3636,0,0.00046812,4678,0.00016294,0.029129,0.00014,-172.37,-0.00047082,-4761.8,0.27927
12505,5.2048,4.2727,0,0.00047012,4698,0.00016446,0.028353,0.00013916,-190.05,-0.00047306,-4790.1,0.27171
12506,5.2048,4.3636,0.05,1.1901e-06,11.893,9.1385e-07,6.8662,1.2084e-12,-2.1964e-05,-9.1385e-07,-6.8664,0.27135
12507,5.4812,4.3636,0,0.00046291,4625.9,0.00016064,0.023193,0.00013929,-160.32,-0.00046543,-4704,0.29527
12508,5.3891,4.2727,0,0.00046492,4646,0.00016208,0.022283,0.0001386,-176.44,-0.00046767,-4731.7,0.28755
12509,5.3891,4.3636,0.05,1.16e-06,11.592,8.9072e-07,6.6925,3.4797e-12,-2.164e-05,-8.9073e-07,-6.6927,0.28719
12510,5.6655,4.3636,0,0.00045773,4574.1,0.00015836,0.018632,0.00013856,-148.8,-0.00046008,-4646.7,0.31159
12511,5.5733,4.2727,0,0.00045975,4594.4,0.00015975,0.017658,0.00013798,-163.5,-0.00046232,-4673.9,0.30371
12512,5.5733,4.3636,0.05,1.1348e-06,11.34,8.7135e-07,6.547,4.0298e-12,-6.624e-06,-8.7136e-07,-6.547,0.30335
12513,5.8497,4.3636,0,0.00045256,4522.5,0.00015612,0.015118,0.00013778,-137.83,-0.00045475,-4589.8,0.32822
12514,5.7576,4.2727,0,0.00045462,4543,0.00015745,0.014128,0.00013732,-151.26,-0.000457,-4616.8,0.32018
12515,5.7576,4.3636,0.05,1.1133e-06,11.125,8.5488e-07,6.4232,2.7624e-12,-1.1443e-05,-8.5488e-07,-6.4233,0.31983
12516,6.034,4.3636,0,0.00044741,4471,0.00015391,0.012403,0.00013695,-127.43,-0.00044944,-4533.4,0.34516
12517,5.9419,4.2727,0,0.00044949,4491.8,0.0001552,0.011429,0.00013661,-139.7,-0.00045171,-4560,0.33697
12518,5.9419,4.3636,0.05,1.0948e-06,10.94,8.4066e-07,6.3163,1.4096e-12,-1.5219e-05,-8.4066e-07,-6.3165,0.33661
12519,6.2183,4.3636,0,0.00044227,4419.6,0.00015174,0.010303,0.00013608,-117.61,-0.00044415,-4477.3,0.3624
12520,6.1261,4.2727,0,0.00044438,4440.7,0.00015298,0.0093674,0.00013583,-128.83,-0.00044643,-4503.7,0.35406
12521,6.1261,4.3636,0.05,1.0786e-06,10.778,8.2821e-07,6.2228,5.1818e-12,-9.489e-06,-8.2821e-07,-6.2229,0.35371
12522,6.4025,4.3636,0,0.00043713,4368.3,0.00014959,0.0086765,0.00013517,-108.36,-0.00043887,-4421.4,0.37995
12523,6.3104,4.2727,0,0.00043927,4389.7,0.0001508,0.0077931,0.00013501,-118.63,-0.00044117,-4447.8,0.37145
12524,6.3104,4.3636,0.05,1.0642e-06,10.635,8.1716e-07,6.1398,1.9507e-12,-8.6302e-06,-8.1717e-07,-6.1399,0.3711
12525,6.5868,4.3636,0,0.00043199,4316.9,0.00014747,0.0074178,0.0001342,-99.666,-0.0004336,-4365.9,0.39779
12526,6.4947,4.2727,0,0.00043416,4338.6,0.00014864,0.0065939,0.00013413,-109.08,-0.00043592,-4392.2,0.38915
12527,6.4947,4.3636,0.05,1.0513e-06,10.506,8.0725e-07,6.0653,5.722e-12,-1.0782e-05,-8.0726e-07,-6.0655,0.3888
12528,6.7711,4.3636,0,0.00042685,4265.6,0.00014537,0.0064449,0.00013319,-91.522,-0.00042834,-4310.6,0.41593
12529,6.6789,4.2727,0,0.00042906,4287.6,0.00014652,0.0056841,0.00013319,-100.15,-0.00043067,-4336.8,0.40714
12530,6.6789,4.3636,0.05,1.0396e-06,10.389,7.9826e-07,5.9978,5.921e-12,-8.6563e-06,-7.9826e-07,-5.9979,0.40679
12531,6.9553,4.3636,0,0.00042172,4214.3,0.0001433,0.0056949,0.00013213,-83.904,-0.00042308,-4255.6,0.43436
12532,6.8632,4.2727,0,0.00042395,4236.5,0.00014443,0.004998,0.00013221,-91.817,-0.00042543,-4281.7,0.42542
12533,6.8632,4.3636,0.05,1.0288e-06,10.281,7.9003e-07,5.9359,4.3388e-12,-5.6361e-06,-7.9003e-07,-5.936,0.42507
12534,7.1396,4.3636,0,0.00041658,4162.9,0.00014126,0.0051193,0.00013104,-76.791,-0.00041783,-4200.8,0.45307
12535,7.0475,4.2727,0,0.00041883,4185.4,0.00014236,0.004486,0.00013117,-84.054,-0.0004202,-4226.8,0.44399
12536,7.0475,4.3636,0.05,1.0189e-06,10.182,7.8242e-07,5.8788,4.4238e-12,-3.9026e-06,-7.8243e-07,-5.8789,0.44365
12537,7.3239,4.3636,0,0.00041144,4111.5,0.00013923,0.0046808,0.0001299,-70.158,-0.00041258,-4146.1,0.47207
12538,7.2317,4.2727,0,0.00041372,4134.3,0.00014031,0.0041082,0.00013009,-76.829,-0.00041497,-4172.2,0.46285
12539,7.2317,4.3636,0.05,1.0097e-06,10.091,7.7535e-07,5.8257,4.5326e-12,-4.133e-06,-7.7537e-07,-5.8258,0.46251
12540,7.5081,4.3636,0,0.00040629,4060.1,0.00013723,0.0043506,0.00012872,-63.98,-0.00040734,-4091.7,0.49135
12541,7.416,4.2727,0,0.0004086,4083.1,0.00013829,0.003836,0.00012896,-70.11,-0.00040974,-4117.7,0.48198
12542,7.416,4.3636,0.05,1.0011e-06,10.005,7.6875e-07,5.7761,2.8333e-12,-3.1466e-06,-7.6876e-07,-5.7762,0.48165
12543,7.6924,4.3636,0,0.00040115,4008.7,0.00013525,0.0041056,0.0001275,-58.233,-0.00040211,-4037.5,0.51091
12544,7.6003,4.2727,0,0.00040347,4031.9,0.0001363,0.0036456,0.0001278,-63.869,-0.00040452,-4063.5,0.5014
12545,7.6003,4.3636,0.05,9.9305e-07,9.9237,7.6253e-07,5.7294,2.9219e-12,-3.9142e-06,-7.6255e-07,-5.7295,0.50107
12546,7.8767,4.3636,0,0.00039601,3957.3,0.00013329,0.0039289,0.00012625,-52.89,-0.00039688,-3983.5,0.53074
12547,7.7845,4.2727,0,0.00039835,3980.7,0.00013432,0.0035196,0.00012659,-58.075,-0.0003993,-4009.4,0.52109
12548,7.7845,4.3636,0.05,9.8541e-07,9.8473,7.5667e-07,5.6853,1.1905e-12,-2.7974e-06,-7.5668e-07,-5.6854,0.52076
12549,8.0609,4.3636,0,0.00039086,3906,0.00013135,0.0038071,0.00012497,-47.929,-0.00039166,-3929.7,0.55084
12550,7.9688,4.2727,0,0.00039322,3929.5,0.00013237,0.0034441,0.00012535,-52.699,-0.00039409,-3955.6,0.54105
12551,7.9688,4.3636,0.05,9.7816e-07,9.7749,7.511e-07,5.6435,-5.3727e-13,-2.3624e-06,-7.5111e-07,-5.6436,0.54073
12552,8.2452,4.3636,0,0.00038572,3854.6,0.00012943,0.0037294,0.00012366,-43.323,-0.00038644,-3876.1,0.57121
12553,8.1531,4.2727,0,0.0003881,3878.3,0.00013043,0.0034088,0.00012408,-47.714,-0.00038889,-3901.9,0.56128
12554,8.1531,4.3636,0.05,9.7126e-07,9.7059,7.458e-07,5.6037,3.1415e-12,-2.864e-06,-7.4581e-07,-5.6038,0.56096
12555,8.4295,4.3636,0,0.00038059,3803.2,0.00012752,0.0036877,0.00012233,-39.05,-0.00038124,-3822.6,0.59183
12556,8.3373,4.2727,0,0.00038297,3827.1,0.00012851,0.0034059,0.00012277,-43.094,-0.00038369,-3848.4,0.58178
12557,8.3373,4.3636,0.05,9.6467e-07,9.6401,7.4075e-07,5.5656,5.0052e-12,-2.0947e-06,-7.4075e-07,-5.5658,0.58146
12558,8.6137,4.3636,0,0.00037545,3751.9,0.00012563,0.0036767,0.00012096,-35.088,-0.00037604,-3769.4,0.61272
12559,8.5216,4.2727,0,0.00037785,3775.9,0.00012661,0.0034287,0.00012144,-38.814,-0.00037849,-3795.1,0.60253
12560,8.5216,4.3636,0.05,9.5836e-07,9.577,7.359e-07,5.5292,5.0311e-12,-2.1082e-06,-7.3591e-07,-5.5293,0.60221
12561,8.798,4.3636,0,0.00037032,3700.7,0.00012376,0.0036921,0.00011958,-31.415,-0.00037085,-3716.3,0.63386
12562,8.7059,4.2727,0,0.00037273,3724.7,0.00012472,0.0034741,0.00012008,-34.849,-0.00037331,-3742,0.62354
12563,8.7059,4.3636,0.05,9.523e-07,9.5164,7.3125e-07,5.4942,5.096e-12,-1.5498e-06,-7.3125e-07,-5.4944,0.62323
12564,8.9823,4.3636,0,0.0003652,3649.5,0.0001219,0.0037313,0.00011817,-28.012,-0.00036567,-3663.4,0.65525
12565,8.8901,4.2727,0,0.00036761,3673.6,0.00012285,0.0035378,0.0001187,-31.177,-0.00036813,-3689.1,0.64481
12566,8.8901,4.3636,0.05,9.4646e-07,9.4581,7.2676e-07,5.4606,4.2015e-12,-4.6922e-07,-7.2677e-07,-5.4607,0.6445
12567,9.1665,4.3636,0,0.00036008,3598.3,0.00012006,0.0037922,0.00011675,-24.858,-0.0003605,-3610.7,0.67689
12568,9.0744,4.2727,0,0.0003625,3622.5,0.000121,0.0036193,0.0001173,-27.777,-0.00036296,-3636.3,0.66632
12569,9.0744,4.3636,0.05,9.4083e-07,9.4018,7.2244e-07,5.4281,3.347e-12,-1.0695e-06,-7.2245e-07,-5.4282,0.66601
12570,9.3508,4.3636,0,0.00035497,3547.2,0.00011823,0.0038755,0.00011531,-21.936,-0.00035534,-3558.2,0.69878
12571,9.2587,4.2727,0,0.00035739,3571.5,0.00011916,0.003717,0.00011588,-24.629,-0.00035781,-3583.7,0.68808
12572,9.2587,4.3636,0.05,9.3538e-07,9.3474,7.1825e-07,5.3967,3.3712e-12,-5.2477e-07,-7.1826e-07,-5.3968,0.68778
12573,9.5351,4.3636,0,0.00034987,3496.3,0.00011641,0.0039819,0.00011385,-19.229,-0.00035019,-3505.8,0.72091
12574,9.4429,4.2727,0,0.0003523,3520.5,0.00011733,0.0038322,0.00011444,-21.714,-0.00035266,-3531.3,0.71009
12575,9.4429,4.3636,0.05,9.3011e-07,9.2947,7.142e-07,5.3662,3.4074e-12,-3.0953e-07,-7.1421e-07,-5.3663,0.70979
12576,9.7193,4.3636,0,0.00034477,3445.4,0.0001146,0.0041176,0.00011238,-16.722,-0.00034505,-3453.7,0.74327
12577,9.6272,4.2727,0,0.00034721,3469.7,0.00011552,0.003965,0.00011299,-19.015,-0.00034752,-3479.1,0.73233
12578,9.6272,4.3636,0.05,9.2498e-07,9.2434,7.1027e-07,5.3366,3.4335e-12,7.4539e-08,-7.1028e-07,-5.3368,0.73203
12579,9.9036,4.3636,0,0.00033969,3394.5,0.00011281,0.0042859,0.00011089,-14.398,-0.00033993,-3401.7,0.76587
12580,9.8115,4.2727,0,0.00034212,3418.9,0.00011372,0.0041275,0.00011152,-16.516,-0.0003424,-3427.1,0.75481
12581,9.8115,4.3636,0.05,9.2e-07,9.1936,7.0644e-07,5.3079,3.4594e-12,8.8849e-07,-7.0645e-07,-5.308,0.75452
12582,10.088,4.3636,0,0.00033462,3343.8,0.00011103,0.0044934,0.0001094,-12.245,-0.00033482,-3350,0.7887
12583,9.9957,4.2727,0,0.00033705,3368.2,0.00011193,0.0043107,0.00011004,-14.202,-0.00033729,-3375.3,0.77752
12584,9.9957,4.3636,0.05,9.1515e-07,9.1452,7.0271e-07,5.2799,3.4792e-12,6.2695e-07,-7.0273e-07,-5.28,0.77723
12585,10.272,4.3636,0,0.00032955,3293.3,0.00010926,0.0047652,0.0001079,-10.249,-0.00032973,-3298.4,0.81176
12586,10.18,4.2727,0,0.00033199,3317.6,0.00011015,0.0045335,0.00010855,-12.057,-0.00033219,-3323.6,0.80046
12587,10.18,4.3636,0.05,9.1041e-07,9.0978,6.9908e-07,5.2526,3.5003e-12,1.7356e-06,-6.9909e-07,-5.2527,0.80017
12588,10.456,4.3636,0,0.0003245,3242.8,0.0001075,0.0051027,0.00010638,-8.3987,-0.00032464,-3247,0.83504
12589,10.364,4.2727,0,0.00032694,3267.1,0.00010839,0.0048199,0.00010705,-10.07,-0.00032711,-3272.1,0.82363
12590,10.364,4.3636,0.05,9.0579e-07,9.0516,6.9553e-07,5.2259,2.6018e-12,1.4258e-06,-6.9553e-07,-5.226,0.82334
12591,10.641,4.3636,0,0.00031946,3192.4,0.00010575,0.0055711,0.00010486,-6.6821,-0.00031958,-3195.8,0.85854
12592,10.549,4.2727,0,0.0003219,3216.8,0.00010663,0.0051372,0.00010554,-8.2282,-0.00032204,-3220.9,0.84701
12593,10.549,4.3636,0.05,9.0126e-07,9.0063,6.9205e-07,5.1998,3.5318e-12,1.9031e-06,-6.9206e-07,-5.1999,0.84673
12594,10.825,4.3636,0,0.00031444,3142.2,0.00010402,0.0063227,0.00010334,-5.0891,-0.00031452,-3144.8,0.88226
12595,10.733,4.2727,0,0.00031687,3166.5,0.00010489,0.0056236,0.00010402,-6.5198,-0.00031698,-3169.8,0.87062
12596,10.733,4.3636,0.05,8.968e-07,8.9619,6.8863e-07,5.1741,3.5486e-12,1.5778e-06,-6.8863e-07,-5.1742,0.87034
12597,11.009,4.3636,0,0.00030943,3092.1,0.00010229,0.0075763,0.00010181,-3.6102,-0.00030949,-3093.9,0.90619
12598,10.917,4.2727,0,0.00031185,3116.4,0.00010316,0.0063882,0.0001025,-4.9344,-0.00031194,-3118.9,0.89444
12599,10.917,4.3636,0.05,8.9245e-07,8.9183,6.8529e-07,5.149,3.5618e-12,1.5392e-06,-6.853e-07,-5.1491,0.89417
12600,11.193,4.3636,0,0.00030443,3042.2,0.00010057,0.010131,0.00010027,-2.237,-0.00030447,-3043.3,0.93033
12601,11.101,4.2727,0,0.00030685,3066.4,0.00010143,0.0076141,0.00010097,-3.4627,-0.00030691,-3068.1,0.91847
12602,11.101,4.3636,0.05,8.8818e-07,8.8757,6.8201e-07,5.1243,2.6643e-12,1.6131e-06,-6.8202e-07,-5.1244,0.91821
12603,11.378,4.3636,0,0.00029945,2992.4,9.8866e-05,0.018824,9.8735e-05,-0.96589,-0.00029946,-2992.9,0.95468
12604,11.286,4.2727,0,0.00030187,3016.6,9.972e-05,0.01021,9.944e-05,-2.0961,-0.0003019,-3017.6,0.94271
12605,11.286,4.3636,0.05,8.8398e-07,8.8337,6.7878e-07,5.1001,3.5896e-12,1.1218e-06,-6.7879e-07,-5.1002,0.94245
12606,11.562,4.3636,0,0.00029448,2942.7,9.7204e-05,0.29242,9.7159e-05,-0.047727,-0.00029447,-2942.6,0.97923
12607,11.47,4.2727,0,0.00029689,2966.9,9.8018e-05,0.019977,9.7904e-05,-0.83221,-0.00029691,-2967.3,0.96716
12608,11.47,4.3636,0.05,8.7984e-07,8.7923,6.7561e-07,5.0762,3.5987e-12,1.8304e-06,-6.7561e-07,-5.0763,0.9669
12609,11.746,4.3636,0,0.00028952,2893.2,9.5657e-05,1.3632,9.5474e-05,-0.0072651,-0.0002895,-2892.6,1.004
12610,11.654,4.2727,0,0.00029193,2917.3,9.6374e-05,0.40414,9.6316e-05,-0.029964,-0.00029193,-2917.1,0.99181
12611,11.654,4.3636,0.05,8.7575e-07,8.7515,6.7246e-07,5.0526,2.6994e-12,2.0863e-06,-6.7247e-07,-5.0527,0.99155
12612,11.931,4.3636,0,0.00028459,2843.9,9.4113e-05,2.3959,9.3794e-05,-0.0024919,-0.00028454,-2842.7,1.0289
12613,11.838,4.2727,0,0.00028699,2867.9,9.4832e-05,1.4859,9.4633e-05,-0.0051852,-0.00028697,-2867.2,1.0167
12614,11.838,4.3636,0.05,8.7173e-07,8.7113,6.6938e-07,5.0294,3.6206e-12,2.1968e-06,-6.6938e-07,-5.0295,1.0164
12615,12.115,4.3636,0,0.00027966,2794.7,9.257e-05,3.3643,9.2122e-05,-0.00065709,-0.00027961,-2793,1.0541
12616,12.023,4.2727,0,0.00028206,2818.7,9.3291e-05,2.5154,9.2957e-05,-0.0013753,-0.00028202,-2817.4,1.0417
12617,12.023,4.3636,0.05,8.6777e-07,8.6717,6.6633e-07,5.0066,3.6296e-12,2.7409e-06,-6.6634e-07,-5.0066,1.0414
12618,12.299,4.3636,0,0.00027476,2745.7,9.1027e-05,4.2721,9.0459e-05,0.00031369,-0.00027469,-2743.6,1.0794
12619,12.207,4.2727,0,0.00027715,2769.6,9.1751e-05,3.4806,9.1288e-05,0.00018161,-0.00027709,-2767.9,1.0669
12620,12.207,4.3636,0.05,8.6385e-07,8.6325,6.6333e-07,4.984,2.7293e-12,3.0767e-06,-6.6333e-07,-4.984,1.0667
12621,12.483,4.3636,0,0.00026987,2696.8,8.9485e-05,5.1246,8.8803e-05,0.00092813,-0.00026978,-2694.3,1.1049
12622,12.391,4.2727,0,0.00027226,2720.7,9.0212e-05,4.3858,8.9628e-05,0.0010172,-0.00027218,-2718.5,1.0923
12623,12.391,4.3636,0.05,8.5998e-07,8.5938,6.6035e-07,4.9616,2.7371e-12,2.3524e-06,-6.6036e-07,-4.9617,1.0921
12624,12.668,4.3636,0,0.000265,2648.2,8.7945e-05,5.9269,8.7156e-05,0.0013935,-0.0002649,-2645.2,1.1306
12625,12.575,4.2727,0,0.00026738,2672,8.8673e-05,5.2364,8.7976e-05,0.0015865,-0.00026729,-2669.3,1.1179
12626,12.575,4.3636,0.05,8.5613e-07,8.5554,6.574e-07,4.9394,2.7454e-12,1.9169e-06,-6.5741e-07,-4.9395,1.1177
12627,12.852,4.3636,0,0.00026014,2599.7,8.6406e-05,6.6838,8.5517e-05,0.0017549,-0.00026003,-2596.3,1.1565
12628,12.76,4.2727,0,0.00026252,2623.4,8.7135e-05,6.0376,8.6332e-05,0.0020338,-0.00026242,-2620.4,1.1437
12629,12.76,4.3636,0.05,8.5234e-07,8.5175,6.5449e-07,4.9176,3.6615e-12,3.0778e-06,-6.545e-07,-4.9176,1.1435
12630,13.036,4.3636,0,0.00025531,2551.3,8.487e-05,7.4,8.3885e-05,0.0020304,-0.00025518,-2547.6,1.1825
12631,12.944,4.2727,0,0.00025768,2575,8.56e-05,6.794,8.4696e-05,0.0023589,-0.00025756,-2571.6,1.1697
12632,12.944,4.3636,0.05,8.4859e-07,8.48,6.5161e-07,4.8959,2.7578e-12,3.5615e-06,-6.5162e-07,-4.896,1.1695
12633,13.22,4.3636,0,0.00025049,2503.2,8.3336e-05,8.0797,8.2261e-05,0.0022445,-0.00025035,-2499.1,1.2088
12634,13.128,4.2727,0,0.00025285,2526.7,8.4067e-05,7.5106,8.3068e-05,0.0026186,-0.00025272,-2523,1.1958
12635,13.128,4.3636,0.05,8.4487e-07,8.4429,6.4875e-07,4.8745,3.6713e-12,4.9396e-06,-6.4876e-07,-4.8746,1.1956
12636,13.405,4.3636,0,0.00024569,2455.2,8.1806e-05,8.7272,8.0645e-05,0.0024311,-0.00024554,-2450.8,1.2352
12637,13.313,4.2727,0,0.00024804,2478.7,8.2537e-05,8.1915,8.1447e-05,0.0028139,-0.0002479,-2474.6,1.2221
12638,13.313,4.3636,0.05,8.4119e-07,8.4061,6.4593e-07,4.8532,3.6769e-12,4.901e-06,-6.4593e-07,-4.8533,1.2219
12639,13.589,4.3636,0,0.00024091,2407.4,8.028e-05,9.3466,7.9036e-05,0.002628,-0.00024075,-2402.7,1.2617
12640,13.497,4.2727,0,0.00024325,2430.8,8.1011e-05,8.8411,7.9834e-05,0.0030141,-0.0002431,-2426.4,1.2486
12641,13.497,4.3636,0.05,8.3752e-07,8.3694,6.4311e-07,4.8321,1.8634e-12,4.5691e-06,-6.4311e-07,-4.8321,1.2484
12642,13.773,4.3636,0,0.00023614,2359.8,7.8757e-05,9.9413,7.7434e-05,0.0028121,-0.00023597,-2354.8,1.2885
12643,13.681,4.2727,0,0.00023848,2383.1,7.9488e-05,9.4634,7.8229e-05,0.0032263,-0.00023832,-2378.4,1.2753
12644,13.681,4.3636,0.05,8.339e-07,8.3332,6.4033e-07,4.8112,1.8633e-12,3.5474e-06,-6.4033e-07,-4.8112,1.2751
12645,13.957,4.3636,0,0.0002314,2312.4,7.7239e-05,10.515,7.584e-05,0.0029696,-0.00023122,-2307.1,1.3153
12646,13.865,4.2727,0,0.00023372,2335.6,7.7969e-05,10.062,7.663e-05,0.0034002,-0.00023355,-2330.6,1.3021
12647,13.865,4.3636,0.05,8.303e-07,8.2973,6.3757e-07,4.7904,2.7771e-12,3.8167e-06,-6.3757e-07,-4.7905,1.3019
12648,14.142,4.3636,0,0.00022667,2265.1,7.5726e-05,11.072,7.4253e-05,0.0031033,-0.00022648,-2259.6,1.3424
12649,14.05,4.2727,0,0.00022899,2288.3,7.6455e-05,10.641,7.5039e-05,0.0035584,-0.00022881,-2283,1.329
12650,14.05,4.3636,0.05,8.2674e-07,8.2617,6.3483e-07,4.7699,2.7794e-12,4.1912e-06,-6.3484e-07,-4.7699,1.3288
12651,14.326,4.3636,0,0.00022196,2218.1,7.4218e-05,11.614,7.2672e-05,0.0032339,-0.00022176,-2212.3,1.3696
12652,14.234,4.2727,0,0.00022427,2241.2,7.4946e-05,11.203,7.3455e-05,0.0036853,-0.00022408,-2235.6,1.3561
12653,14.234,4.3636,0.05,8.232e-07,8.2263,6.3211e-07,4.7494,2.7812e-12,3.6849e-06,-6.3212e-07,-4.7495,1.3559
12654,14.51,4.3636,0,0.00021728,2171.3,7.2715e-05,12.145,7.1099e-05,0.0033915,-0.00021707,-2165.2,1.3969
12655,14.418,4.2727,0,0.00021958,2194.3,7.3442e-05,11.753,7.1878e-05,0.0038384,-0.00021937,-2188.4,1.3834
12656,14.418,4.3636,0.05,8.1967e-07,8.1911,6.294e-07,4.7291,1.8758e-12,4.3103e-06,-6.2941e-07,-4.7291,1.3832
12657,14.695,4.3636,0,0.00021261,2124.6,7.1218e-05,12.669,6.9532e-05,0.0035493,-0.00021239,-2118.2,1.4244
12658,14.602,4.2727,0,0.0002149,2147.5,7.1943e-05,12.293,7.0307e-05,0.0040185,-0.00021469,-2141.3,1.4108
12659,14.602,4.3636,0.05,8.1618e-07,8.1562,6.2672e-07,4.709,9.6255e-13,5.2108e-06,-6.2673e-07,-4.709,1.4106
12660,14.879,4.3636,0,0.00020796,2078.2,6.9727e-05,13.188,6.7973e-05,0.0036922,-0.00020773,-2071.5,1.4521
12661,14.787,4.2727,0,0.00021024,2101,7.045e-05,12.826,6.8744e-05,0.0041722,-0.00021002,-2094.5,1.4384
12662,14.787,4.3636,0.05,8.1272e-07,8.1216,6.2406e-07,4.689,2.7816e-12,6.6651e-06,-6.2407e-07,-4.689,1.4382
12663,15.063,4.3636,0,0.00020333,2031.9,6.8243e-05,13.706,6.6419e-05,0.0038231,-0.00020309,-2025,1.4798
12664,14.971,4.2727,0,0.0002056,2054.6,6.8964e-05,13.357,6.7187e-05,0.004323,-0.00020537,-2047.9,1.4661
12665,14.971,4.3636,0.05,8.0928e-07,8.0872,6.2143e-07,4.6692,2.7827e-12,5.5654e-06,-6.2143e-07,-4.6692,1.4659
12666,15.247,4.3636,0,0.00019872,1985.8,6.6765e-05,14.225,6.4873e-05,0.0039582,-0.00019848,-1978.7,1.5078
12667,15.155,4.2727,0,0.00020099,2008.5,6.7484e-05,13.887,6.5637e-05,0.0044544,-0.00020075,-2001.5,1.4939
12668,15.155,4.3636,0.05,8.0587e-07,8.0531,6.188e-07,4.6494,1.8791e-12,6.8892e-06,-6.1881e-07,-4.6495,1.4938
12669,15.432,4.3636,0,0.00019413,1940,6.5295e-05,14.749,6.3332e-05,0.0041225,-0.00019388,-1932.6,1.5358
12670,15.339,4.2727,0,0.00019639,1962.5,6.6011e-05,14.42,6.4093e-05,0.0046131,-0.00019614,-1955.3,1.5219
12671,15.339,4.3636,0.05,8.0247e-07,8.0191,6.1619e-07,4.6298,1.8759e-12,6.079e-06,-6.162e-07,-4.6299,1.5218
12672,15.616,4.3636,0,0.00018956,1894.3,6.3831e-05,15.281,6.1798e-05,0.0042929,-0.0001893,-1886.7,1.564
12673,15.524,4.2727,0,0.00019181,1916.8,6.4546e-05,14.96,6.2555e-05,0.0048027,-0.00019155,-1909.3,1.55
12674,15.524,4.3636,0.05,7.991e-07,7.9855,6.1361e-07,4.6104,2.8021e-12,4.5541e-06,-6.1361e-07,-4.6105,1.5499
12675,15.8,4.3636,0,0.00018502,1848.9,6.2376e-05,15.823,6.0271e-05,0.0044547,-0.00018474,-1840.9,1.5923
12676,15.708,4.2727,0,0.00018725,1871.2,6.3088e-05,15.51,6.1024e-05,0.0049758,-0.00018698,-1863.4,1.5783
12677,15.708,4.3636,0.05,7.9577e-07,7.9522,6.1105e-07,4.5912,9.8326e-13,3.5403e-06,-6.1105e-07,-4.5912,1.5781
12678,15.984,4.3636,0,0.00018049,1803.7,6.0928e-05,16.38,5.8749e-05,0.0046122,-0.00018021,-1795.4,1.6207
12679,15.892,4.2727,0,0.00018272,1825.9,6.1637e-05,16.072,5.9499e-05,0.0051491,-0.00018244,-1817.8,1.6067
12680,15.892,4.3636,0.05,7.9246e-07,7.9191,6.0851e-07,4.5721,1.8887e-12,4.1284e-06,-6.0851e-07,-4.5721,1.6065
12681,16.169,4.3636,0,0.00017598,1758.6,5.9489e-05,16.953,5.7233e-05,0.0047788,-0.00017569,-1750.1,1.6493
12682,16.077,4.2727,0,0.0001782,1780.8,6.0195e-05,16.651,5.798e-05,0.0053129,-0.00017791,-1772.4,1.6352
12683,16.077,4.3636,0.05,7.8917e-07,7.8863,6.0598e-07,4.5531,1.8999e-12,4.5457e-06,-6.0599e-07,-4.5532,1.635
12684,16.353,4.3636,0,0.0001715,1713.8,5.8058e-05,17.548,5.5724e-05,0.0049757,-0.00017119,-1705,1.678
12685,16.261,4.2727,0,0.00017371,1735.9,5.8762e-05,17.249,5.6467e-05,0.0055064,-0.00017341,-1727.2,1.6638
12686,16.261,4.3636,0.05,7.8591e-07,7.8536,6.0348e-07,4.5343,1.908e-12,5.2851e-06,-6.0348e-07,-4.5343,1.6636
12687,16.537,4.3636,0,0.00016704,1669.2,5.6637e-05,18.166,5.422e-05,0.0051834,-0.00016672,-1660,1.7068
12688,16.445,4.2727,0,0.00016923,1691.2,5.7337e-05,17.87,5.496e-05,0.0057309,-0.00016892,-1682.1,1.6925
12689,16.445,4.3636,0.05,7.8268e-07,7.8214,6.01e-07,4.5156,1.9042e-12,6.0358e-06,-6.01e-07,-4.5157,1.6923
12690,16.721,4.3636,0,0.00016259,1624.8,5.5225e-05,18.813,5.2721e-05,0.0053894,-0.00016226,-1615.3,1.7357
12691,16.629,4.2727,0,0.00016478,1646.7,5.5922e-05,18.519,5.3458e-05,0.0059483,-0.00016446,-1637.3,1.7213
12692,16.629,4.3636,0.05,7.7948e-07,7.7894,5.9854e-07,4.4972,1.9076e-12,6.5506e-06,-5.9855e-07,-4.4973,1.7212
12693,16.906,4.3636,0,0.00015817,1580.6,5.3822e-05,19.49,5.1229e-05,0.0055983,-0.00015783,-1570.8,1.7647
12694,16.814,4.2727,0,0.00016035,1602.4,5.4517e-05,19.198,5.1962e-05,0.0061722,-0.00016002,-1592.7,1.7503
12695,16.814,4.3636,0.05,7.7632e-07,7.7578,5.9612e-07,4.479,1.4621e-12,5.195e-06,-5.9612e-07,-4.479,1.7502
12696,17.09,4.3636,0,0.00015377,1536.7,5.243e-05,20.203,4.9742e-05,0.0058213,-0.00015342,-1526.5,1.7938
12697,16.998,4.2727,0,0.00015594,1558.3,5.3121e-05,19.911,5.0472e-05,0.0063925,-0.00015559,-1548.3,1.7794
12698,16.998,4.3636,0.05,7.7319e-07,7.7266,5.9371e-07,4.4609,1.4628e-12,5.7946e-06,-5.9371e-07,-4.4609,1.7792
12699,17.274,4.3636,0,0.0001494,1492.9,5.1048e-05,20.956,4.826e-05,0.006078,-0.00014903,-1482.3,1.823
12700,17.182,4.2727,0,0.00015156,1514.5,5.1736e-05,20.664,4.8987e-05,0.0066474,-0.00015119,-1504.1,1.8085
12701,17.182,4.3636,0.05,7.7009e-07,7.6956,5.9133e-07,4.443,1.9232e-12,5.8484e-06,-5.9133e-07,-4.4431,1.8084
12702,17.459,4.3636,0,0.00014504,1449.4,4.9677e-05,21.752,4.6783e-05,0.0063505,-0.00014466,-1438.4,1.8524
12703,17.366,4.2727,0,0.00014719,1470.9,5.0362e-05,21.46,4.7507e-05,0.0069368,-0.00014682,-1460.1,1.8378
12704,17.366,4.3636,0.05,7.6703e-07,7.6651,5.8899e-07,4.4254,1.9373e-12,5.1144e-06,-5.8899e-07,-4.4254,1.8377
12705,17.643,4.3636,0,0.00014071,1406.1,4.8318e-05,22.597,4.5311e-05,0.0066307,-0.00014031,-1394.7,1.8818
12706,17.551,4.2727,0,0.00014285,1427.5,4.9e-05,22.303,4.6032e-05,0.0072263,-0.00014246,-1416.2,1.8672
12707,17.551,4.3636,0.05,7.6402e-07,7.635,5.8667e-07,4.408,1.483e-12,5.7909e-06,-5.8668e-07,-4.4081,1.8671
12708,17.827,4.3636,0,0.0001364,1363.1,4.6971e-05,23.495,4.3845e-05,0.0069228,-0.00013599,-1351.2,1.9113
12709,17.735,4.2727,0,0.00013853,1384.4,4.7649e-05,23.2,4.4563e-05,0.0075323,-0.00013812,-1372.6,1.8967
12710,17.735,4.3636,0.05,7.6106e-07,7.6053,5.844e-07,4.3909,1.9523e-12,4.3401e-06,-5.844e-07,-4.391,1.8965
12711,18.011,4.3636,0,0.00013212,1320.3,4.5636e-05,24.452,4.2383e-05,0.0072374,-0.00013168,-1307.9,1.9409
12712,17.919,4.2727,0,0.00013424,1341.5,4.6311e-05,24.156,4.3097e-05,0.0078454,-0.00013381,-1329.2,1.9262
12713,17.919,4.3636,0.05,7.5814e-07,7.5761,5.8215e-07,4.3741,5.9979e-13,5.0655e-06,-5.8216e-07,-4.3741,1.9261
12714,18.196,4.3636,0,0.00012786,1277.7,4.4314e-05,25.473,4.0925e-05,0.0075922,-0.0001274,-1264.7,1.9706
12715,18.103,4.2727,0,0.00012997,1298.8,4.4986e-05,25.175,4.1637e-05,0.008199,-0.00012952,-1286,1.9559
12716,18.103,4.3636,0.05,7.5526e-07,7.5474,5.7995e-07,4.3575,6.1435e-13,5.6833e-06,-5.7995e-07,-4.3575,1.9558
12717,18.38,4.3636,0,0.00012362,1235.3,4.3006e-05,26.564,3.9472e-05,0.0079742,-0.00012314,-1221.8,2.0004
12718,18.288,4.2727,0,0.00012572,1256.3,4.3675e-05,26.264,4.0181e-05,0.0085946,-0.00012525,-1243,1.9856
12719,18.288,4.3636,0.05,7.5245e-07,7.5193,5.7779e-07,4.3413,1.5281e-12,7.042e-06,-5.7779e-07,-4.3413,1.9855
12720,18.564,4.3636,0,0.0001194,1193.2,4.1712e-05,27.731,3.8022e-05,0.0083769,-0.00011891,-1179.1,2.0303
12721,18.472,4.2727,0,0.0001215,1214.1,4.2378e-05,27.429,3.8728e-05,0.0090072,-0.00012101,-1200.2,2.0154
12722,18.472,4.3636,0.05,7.497e-07,7.4918,5.7567e-07,4.3254,6.3444e-13,9.1966e-06,-5.7568e-07,-4.3254,2.0153
12723,18.748,4.3636,0,0.00011521,1151.4,4.0433e-05,28.982,3.6577e-05,0.0088042,-0.00011469,-1136.6,2.0602
12724,18.656,4.2727,0,0.0001173,1172.2,4.1096e-05,28.678,3.728e-05,0.0094452,-0.00011678,-1157.6,2.0454
12725,18.656,4.3636,0.05,7.4701e-07,7.465,5.7361e-07,4.3099,6.4588e-13,6.2261e-06,-5.7361e-07,-4.3099,2.0452
12726,18.933,4.3636,0,0.00011105,1109.7,3.917e-05,30.323,3.5135e-05,0.0092704,-0.0001105,-1094.3,2.0903
12727,18.841,4.2727,0,0.00011313,1130.5,3.9829e-05,30.017,3.5836e-05,0.0099076,-0.00011259,-1115.2,2.0753
12728,18.841,4.3636,0.05,7.4439e-07,7.4388,5.716e-07,4.2948,6.6562e-13,4.4278e-06,-5.716e-07,-4.2948,2.0752
12729,19.117,4.3636,0,0.00010691,1068.4,3.7923e-05,31.762,3.3697e-05,0.0097912,-0.00010634,-1052.1,2.1204
12730,19.025,4.2727,0,0.00010898,1089,3.858e-05,31.454,3.4395e-05,0.010427,-0.00010841,-1073,2.1054
12731,19.025,4.3636,0.05,7.4185e-07,7.4134,5.6965e-07,4.2801,1.1518e-12,7.6817e-06,-5.6965e-07,-4.2801,2.1053
12732,19.301,4.3636,0,0.0001028,1027.3,3.6693e-05,33.308,3.2261e-05,0.010359,-0.00010219,-1010.2,2.1506
12733,19.209,4.2727,0,0.00010486,1047.9,3.7347e-05,32.999,3.2957e-05,0.011004,-0.00010426,-1031,2.1355
12734,19.209,4.3636,0.05,7.3939e-07,7.3888,5.6776e-07,4.2659,7.1107e-13,7.088e-06,-5.6776e-07,-4.266,2.1354
12735,19.485,4.3636,0,9.8714e-05,986.45,3.5482e-05,34.97,3.0829e-05,0.010973,-9.8072e-05,-968.5,2.1808
12736,19.393,4.2727,0,0.00010076,1006.9,3.6133e-05,34.66,3.1521e-05,0.01162,-0.00010013,-989.16,2.1658
12737,19.393,4.3636,0.05,7.3703e-07,7.3652,5.6595e-07,4.2523,7.594e-13,8.8838e-06,-5.6595e-07,-4.2523,2.1656
12738,19.67,4.3636,0,9.4655e-05,945.89,3.4289e-05,36.758,2.9399e-05,0.01164,-9.3976e-05,-926.97,2.2111
12739,19.578,4.2727,0,9.6697e-05,966.3,3.4938e-05,36.447,3.0089e-05,0.01229,-9.6025e-05,-947.56,2.196
12740,19.578,4.3636,0.05,7.3477e-07,7.3427,5.6421e-07,4.2393,1.6971e-12,1.0021e-05,-5.6421e-07,-4.2393,2.1959
12741,19.854,4.3636,0,9.0624e-05,905.61,3.3117e-05,38.682,2.797e-05,0.012377,-8.9904e-05,-885.65,2.2415
12742,19.762,4.2727,0,9.2658e-05,925.94,3.3763e-05,38.371,2.8658e-05,0.013018,-9.1946e-05,-906.15,2.2264
12743,19.762,4.3636,0.05,7.3262e-07,7.3211,5.6256e-07,4.2269,1.2419e-12,9.2726e-06,-5.6256e-07,-4.2269,2.2263
12744,20.038,4.3636,0,8.6622e-05,865.62,3.1966e-05,40.753,2.6544e-05,0.013202,-8.5856e-05,-844.52,2.2719
12745,19.946,4.2727,0,8.8648e-05,885.87,3.261e-05,40.443,2.7229e-05,0.013831,-8.7891e-05,-864.95,2.2568
12746,19.946,4.3636,0.05,7.3059e-07,7.3008,5.61e-07,4.2151,1.6994e-12,7.364e-06,-5.61e-07,-4.2151,2.2567
12747,20.223,4.3636,0,8.265e-05,825.93,3.0838e-05,42.985,2.5119e-05,0.014123,-8.1834e-05,-803.59,2.3024
12748,20.13,4.2727,0,8.4669e-05,846.1,3.1479e-05,42.676,2.5801e-05,0.014742,-8.3862e-05,-823.95,2.2872
12749,20.13,4.3636,0.05,7.2869e-07,7.2819,5.5954e-07,4.2042,1.2741e-12,8.8215e-06,-5.5954e-07,-4.2042,2.2871
12750,20.407,4.3636,0,7.8708e-05,786.54,2.9733e-05,45.392,2.3694e-05,0.015143,-7.7837e-05,-762.85,2.333
12751,20.315,4.2727,0,8.072e-05,806.64,3.0373e-05,45.084,2.4374e-05,0.015746,-7.9858e-05,-783.15,2.3177
12752,20.315,4.3636,0.05,7.2694e-07,7.2644,5.582e-07,4.1941,8.2106e-13,1.0781e-05,-5.582e-07,-4.1941,2.3177
12753,20.591,4.3636,0,7.4798e-05,747.47,2.8654e-05,47.987,2.227e-05,0.016282,-7.3866e-05,-722.31,2.3636
12754,20.499,4.2727,0,7.6803e-05,767.5,2.9292e-05,47.681,2.2948e-05,0.016864,-7.588e-05,-742.54,2.3483
12755,20.499,4.3636,0.05,7.2536e-07,7.2486,5.5699e-07,4.185,7.644e-13,1.1413e-05,-5.5698e-07,-4.185,2.3482
12756,20.775,4.3636,0,7.0922e-05,708.73,2.7602e-05,50.789,2.0845e-05,0.017571,-6.9921e-05,-681.96,2.3942
12757,20.683,4.2727,0,7.292e-05,728.69,2.8238e-05,50.484,2.1521e-05,0.018113,-7.1929e-05,-702.13,2.3789
12758,20.683,4.3636,0.05,7.2396e-07,7.2346,5.5591e-07,4.1769,5.2836e-13,1.3682e-05,-5.5591e-07,-4.1769,2.3789
12759,20.96,4.3636,0,6.7081e-05,670.35,2.6579e-05,53.814,1.9419e-05,0.019047,-6.6003e-05,-641.81,2.4249
12760,20.867,4.2727,0,6.9072e-05,690.24,2.7213e-05,53.511,2.0093e-05,0.019533,-6.8005e-05,-661.92,2.4096
12761,20.867,4.3636,0.05,7.2275e-07,7.2226,5.5499e-07,4.17,3.1573e-13,1.2202e-05,-5.5499e-07,-4.1699,2.4095
12762,21.144,4.3636,0,6.3277e-05,632.33,2.5586e-05,57.084,1.7992e-05,0.020735,-6.2112e-05,-601.85,2.4556
12763,21.052,4.2727,0,6.5261e-05,652.16,2.6218e-05,56.781,1.8664e-05,0.02116,-6.4109e-05,-621.9,2.4403
12764,21.052,4.3636,0.05,7.2179e-07,7.2129,5.5424e-07,4.1644,8.1845e-13,1.2843e-05,-5.5424e-07,-4.1643,2.4403
12765,21.328,4.3636,0,5.9513e-05,594.72,2.4627e-05,60.621,1.6562e-05,0.022676,-5.8249e-05,-562.08,2.4864
12766,21.236,4.2727,0,6.1489e-05,614.47,2.5257e-05,60.315,1.7232e-05,0.023013,-6.024e-05,-582.08,2.4711
12767,21.236,4.3636,0.05,7.2108e-07,7.2058,5.537e-07,4.1603,6.1231e-13,1.0124e-05,-5.537e-07,-4.1603,2.471
12768,21.512,4.3636,0,5.5792e-05,557.53,2.3703e-05,64.449,1.5129e-05,0.024935,-5.4415e-05,-522.5,2.5173
12769,21.42,4.2727,0,5.776e-05,577.2,2.433e-05,64.138,1.5797e-05,0.025154,-5.64e-05,-542.44,2.5019
12770,21.42,4.3636,0.05,7.2066e-07,7.2016,5.5338e-07,4.1578,6.9217e-13,8.1685e-06,-5.5338e-07,-4.1579,2.5018
12771,21.697,4.3636,0,5.2118e-05,520.82,2.2817e-05,68.598,1.3691e-05,0.027593,-5.061e-05,-483.11,2.5481
12772,21.605,4.2727,0,5.4076e-05,540.39,2.3442e-05,68.276,1.4358e-05,0.027644,-5.259e-05,-503,2.5327
12773,21.605,4.3636,0.05,7.2058e-07,7.2008,5.5331e-07,4.1574,4.3224e-13,9.178e-06,-5.5331e-07,-4.1574,2.5327
12774,21.881,4.3636,0,4.8495e-05,484.62,2.1973e-05,73.097,1.2248e-05,0.030758,-4.6836e-05,-443.9,2.579
12775,21.789,4.2727,0,5.0443e-05,504.08,2.2594e-05,72.757,1.2914e-05,0.030592,-4.8809e-05,-463.74,2.5636
12776,21.789,4.3636,0.05,7.2088e-07,7.2038,5.5354e-07,4.1591,3.8173e-13,1.0529e-05,-5.5354e-07,-4.1591,2.5635
12777,22.065,4.3636,0,4.493e-05,448.99,2.1173e-05,77.982,1.0799e-05,0.034569,-4.3092e-05,-404.88,2.6099
12778,21.973,4.2727,0,4.6865e-05,468.33,2.1789e-05,77.613,1.1464e-05,0.034111,-4.506e-05,-424.66,2.5945
12779,21.973,4.3636,0.05,7.2163e-07,7.2113,5.5412e-07,4.1635,7.2154e-13,1.5976e-05,-5.5412e-07,-4.1634,2.5944
12780,22.249,4.3636,0,4.1431e-05,414.03,2.0421e-05,83.291,9.3409e-06,0.039224,-3.9381e-05,-366.04,2.6409
12781,22.157,4.2727,0,4.335e-05,433.2,2.1031e-05,82.879,1.0006e-05,0.038367,-4.1341e-05,-385.76,2.6255
12782,22.157,4.3636,0.05,7.2291e-07,7.2241,5.551e-07,4.1708,5.609e-13,1.7569e-05,-5.551e-07,-4.1708,2.6254
12783,22.434,4.3636,0,3.8008e-05,379.82,1.9721e-05,89.065,7.8736e-06,0.045036,-3.5701e-05,-327.36,2.6719
12784,22.342,4.2727,0,3.9906e-05,398.78,2.0324e-05,88.592,8.5384e-06,0.0436,-3.7653e-05,-347.02,2.6564
12785,22.342,4.3636,0.05,7.248e-07,7.243,5.5656e-07,4.1818,8.8651e-13,1.5514e-05,-5.5656e-07,-4.1818,2.6564
12786,22.618,4.3636,0,3.4675e-05,346.51,1.9078e-05,95.347,6.3949e-06,0.052405,-3.2054e-05,-288.84,2.7029
12787,22.526,4.2727,0,3.6545e-05,365.19,1.9669e-05,94.791,7.0603e-06,0.050214,-3.3997e-05,-308.44,2.6874
12788,22.526,4.3636,0.05,7.2743e-07,7.2693,5.5858e-07,4.197,2.7507e-13,1.1088e-05,-5.5858e-07,-4.1969,2.6873
12789,22.802,4.3636,0,3.1449e-05,314.27,1.8494e-05,102.18,4.9025e-06,0.062314,-2.8439e-05,-250.45,2.7339
12790,22.71,4.2727,0,3.3282e-05,332.59,1.9072e-05,101.51,5.5693e-06,0.058646,-3.0372e-05,-269.99,2.7184
12791,22.71,4.3636,0.05,7.3094e-07,7.3043,5.6127e-07,4.2171,6.0834e-13,1.0157e-05,-5.6127e-07,-4.2171,2.7184
12792,22.987,4.3636,0,2.8356e-05,283.36,1.7973e-05,109.61,3.3943e-06,0.07513,-2.4854e-05,-212.17,2.7649
12793,22.894,4.2727,0,3.0138e-05,301.17,1.8535e-05,108.8,4.0635e-06,0.070499,-2.6775e-05,-231.64,2.7495
12794,22.894,4.3636,0.05,7.3547e-07,7.3496,5.6475e-07,4.2433,5.9563e-13,1.0143e-05,-5.6475e-07,-4.2433,2.7494
12795,23.171,4.3636,0,2.5429e-05,254.12,1.7516e-05,117.67,1.868e-06,0.096976,-2.1295e-05,-173.94,2.796
12796,23.079,4.2727,0,2.7143e-05,271.24,1.8059e-05,116.68,2.5405e-06,0.085071,-2.3205e-05,-193.36,2.7805
12797,23.079,4.3636,0.05,7.4119e-07,7.4068,5.6914e-07,4.2763,4.6985e-13,1.3033e-05,-5.6914e-07,-4.2763,2.7805
12798,23.355,4.3636,0,2.2719e-05,227.03,1.7124e-05,126.38,3.2019e-07,0.11865,-1.7758e-05,-135.72,2.8271
12799,23.263,4.2727,0,2.4336e-05,243.19,1.7645e-05,125.19,9.9878e-07,0.11574,-1.9657e-05,-155.09,2.8116
12800,23.263,4.3636,0.05,7.4828e-07,7.4776,5.7458e-07,4.3172,6.7198e-13,9.0376e-06,-5.7458e-07,-4.3172,2.8115
12801,23.539,4.3636,0,2.0297e-05,202.83,1.6797e-05,135.77,-1.2456e-06,0.21202,-1.4239e-05,-97.412,2.8582
12802,23.447,4.2727,0,2.1777e-05,217.62,1.7293e-05,134.32,-5.6646e-07,0.13198,-1.6125e-05,-116.77,2.8427
12803,23.447,4.3636,0.05,7.5683e-07,7.5631,5.8115e-07,4.3666,1.2614e-12,9.4436e-06,-5.8115e-07,-4.3666,2.8426
12804,23.724,4.3636,0,1.827e-05,182.57,1.6533e-05,145.79,-2.8449e-06,0.19941,-1.0729e-05,-59.041,2.8893
12805,23.631,4.2727,0,1.9553e-05,195.39,1.7e-05,144.14,-2.1421e-06,0.31398,-1.2608e-05,-78.32,2.8738
12806,23.631,4.3636,0.05,7.6735e-07,7.6683,5.8923e-07,4.4273,8.2969e-13,8.6255e-06,-5.8923e-07,-4.4273,2.8737
12807,23.816,4.2727,0,1.7785e-05,177.73,1.6767e-05,154.45,-3.7652e-06,0.17346,-9.0989e-06,-39.902,2.9049
12808,23.816,4.3636,0.05,7.8782e-07,7.8728,6.0495e-07,4.5454,9.5394e-13,9.6167e-06,-6.0495e-07,-4.5453,2.9048
12809,23.908,4.3636,0,1.6794e-05,167.83,1.63e-05,155.6,-4.3528e-06,0.42069,-7.4052e-06,-22.514,2.9204
12810,1.2431,4.1818,0,0.0011877,11869,0.00069369,3741.4,0.00018279,-97.32,-0.0010782,-9571.6,0.017294
12811,1.1509,4.0909,0,0.0015083,15072,0.00086415,4300.8,0.00022005,-538.66,-0.0013848,-12597,0.014512
12812,1.1509,4.1818,0.05,0.00010711,1070.3,8.2244e-05,617.95,-1.5114e-10,-0.0016818,-8.2244e-05,-617.95,0.013545
12813,1.0588,4.1818,0,0.0012203,12195,0.00089125,6134.8,1.3324e-05,-461.59,-0.0009816,-7937.1,0.010238
12814,1.4273,4.1818,0,0.00091629,9156.6,0.00042935,1559.6,0.00022188,0.76611,-0.00087973,-8276.4,0.024888
12815,1.3352,4.0909,0,0.0010468,10460,0.00047699,1641.4,0.00026549,52.196,-0.0010089,-9522.7,0.021636
12816,1.3352,4.1818,0.05,3.7114e-05,370.88,2.8499e-05,214.13,-1.2292e-10,-0.0013186,-2.8499e-05,-214.13,0.020915
12817,1.6116,4.1818,0,0.00078963,7890.8,0.0003126,622.97,0.00022807,-12.164,-0.00077731,-7566.2,0.032997
12818,1.5195,4.0909,0,0.00086994,8693.4,0.00033841,607.1,0.00025447,-23.566,-0.00085829,-8384.4,0.02937
12819,1.5195,4.1818,0.05,1.7731e-05,177.19,1.3616e-05,102.3,-7.829e-11,-0.00090534,-1.3616e-05,-102.3,0.028788
12820,1.7959,4.1818,0,0.00071611,7156.1,0.00025194,175,0.00022578,-21.605,-0.0007133,-7077.4,0.041596
12821,1.7037,4.0909,0,0.00077081,7702.8,0.0002673,135.4,0.0002448,-33.645,-0.00076894,-7650.5,0.037648
12822,1.7037,4.1818,0.05,1.3248e-05,132.39,1.0173e-05,76.434,-6.768e-11,-0.00076985,-1.0173e-05,-76.434,0.037158
12823,1.9801,4.1818,0,0.00066737,6669.1,0.00022796,19.76,0.0002089,-123.43,-0.00066902,-6719.8,0.05066
12824,1.888,4.0909,0,0.0007063,7058.1,0.00024371,15.632,0.00021638,-189.68,-0.00070903,-7142.9,0.046427
12825,1.888,4.1818,0.05,1.0465e-05,104.57,8.0356e-06,60.376,-5.4562e-11,-0.0005549,-8.0355e-06,-60.376,0.046
12826,2.1644,4.1818,0,0.0006329,6324.6,0.00022194,6.4233,0.00018701,-256.02,-0.00063673,-6445.3,0.060169
12827,2.0723,4.0909,0,0.00066152,6610.6,0.00023504,6.2319,0.00019006,-331.68,-0.0006664,-6766.8,0.055679
12828,2.0723,4.1818,0.05,8.4436e-06,84.378,6.4836e-06,48.715,-4.1002e-11,-0.00049123,-6.4836e-06,-48.715,0.055294
12829,2.3487,4.1818,0,0.00060718,6067.6,0.00021701,3.3439,0.00017198,-335,-0.00061212,-6226.4,0.070106
12830,2.2565,4.0909,0,0.00062859,6281.5,0.00022777,3.2984,0.00017252,-411.8,-0.0006345,-6475.5,0.065378
12831,2.2565,4.1818,0.05,6.9449e-06,69.401,5.3328e-06,40.069,-3.555e-11,-0.00037803,-5.3328e-06,-40.069,0.065024
12832,2.5329,4.1818,0,0.00058718,5867.8,0.00021232,2.0633,0.00016185,-377.22,-0.00059265,-6046.2,0.080457
12833,2.4408,4.0909,0,0.00060341,6030,0.00022126,2.0939,0.00016085,-451.8,-0.00060978,-6242,0.075507
12834,2.4408,4.1818,0.05,5.7833e-06,57.793,4.4409e-06,33.367,-3.4929e-11,-0.0003688,-4.4408e-06,-33.367,0.075173
12835,2.7172,4.1818,0,0.00057107,5706.8,0.00020785,1.3678,0.00015493,-396.27,-0.00057675,-5893.9,0.09121
12836,2.6251,4.0909,0,0.00058351,5831.1,0.00021534,1.393,0.00015301,-466.88,-0.00059002,-6049.7,0.08605
12837,2.6251,4.1818,0.05,4.8639e-06,48.605,3.7349e-06,28.062,-2.3526e-11,-0.00027006,-3.7348e-06,-28.062,0.085729
12838,2.9015,4.1818,0,0.00055772,5573.3,0.00020361,0.94781,0.00015016,-400.64,-0.00056343,-5762.3,0.10235
12839,2.8093,4.0909,0,0.00056735,5669.6,0.00020993,0.97122,0.00014773,-466.4,-0.00057382,-5887.8,0.096994
12840,2.8093,4.1818,0.05,4.1257e-06,41.228,3.168e-06,23.803,-2.8455e-11,-0.00026501,-3.168e-06,-23.803,0.096681
12841,3.0857,4.1818,0,0.00054637,5459.9,0.0001996,0.67339,0.00014685,-395.68,-0.00055201,-5646.6,0.11388
12842,2.9936,4.0909,0,0.00055391,5535.3,0.00020498,0.69097,0.00014417,-456.24,-0.00056025,-5748.9,0.10833
12843,2.9936,4.1818,0.05,3.5288e-06,35.263,2.7097e-06,20.359,-2.2666e-11,-0.00029559,-2.7096e-06,-20.359,0.10802
12844,3.27,4.1818,0,0.00053651,5361.4,0.00019581,0.48677,0.00014453,-384.76,-0.00054201,-5543.2,0.12578
12845,3.1779,4.0909,0,0.00054251,5421.3,0.00020043,0.49973,0.00014178,-440.12,-0.00054864,-5627.7,0.12004
12846,3.1779,4.1818,0.05,3.0447e-06,30.426,2.338e-06,17.567,-1.2092e-11,-0.000127,-2.338e-06,-17.567,0.11974
12847,3.4543,4.1818,0,0.0005278,5274.4,0.00019221,0.35604,0.00014291,-370.11,-0.00053311,-5449.5,0.13805
12848,3.3621,4.0909,0,0.00053264,5322.7,0.00019621,0.36504,0.00014021,-420.43,-0.00053854,-5520.3,0.13213
12849,3.3621,4.1818,0.05,2.6524e-06,26.505,2.0367e-06,15.303,-1.002e-11,-0.00015439,-2.0367e-06,-15.303,0.13183
12850,3.6385,4.1818,0,0.00051996,5196,0.00018881,0.26275,0.00014177,-353.18,-0.00052506,-5363.5,0.15069
12851,3.5464,4.0909,0,0.00052395,5235.8,0.0001923,0.2687,0.00013919,-398.77,-0.00052958,-5423.7,0.14458
12852,3.5464,4.1818,0.05,2.3349e-06,23.333,1.7929e-06,13.471,-1.1196e-11,-0.00011129,-1.7929e-06,-13.471,0.14428
12853,3.8228,4.1818,0,0.0005128,5124.4,0.00018556,0.19527,0.00014095,-334.97,-0.00051767,-5283.6,0.16368
12854,3.7307,4.0909,0,0.00051615,5158,0.00018864,0.19891,0.00013855,-376.17,-0.00052152,-5335.7,0.1574
12855,3.7307,4.1818,0.05,2.079e-06,20.775,1.5964e-06,11.995,-8.8298e-12,-9.7673e-05,-1.5964e-06,-11.995,0.15709
12856,4.0071,4.1818,0,0.00050615,5058,0.00018246,0.14598,0.00014036,-316.16,-0.00051079,-5208.6,0.17702
12857,3.9149,4.0909,0,0.00050906,5087,0.0001852,0.14791,0.00013815,-353.35,-0.00051414,-5254.4,0.17057
12858,3.9149,4.1818,0.05,1.8733e-06,18.72,1.4384e-06,10.808,-6.1678e-12,-4.1217e-05,-1.4384e-06,-10.808,0.17026
12859,4.1913,4.1818,0,0.00049991,4995.7,0.00017948,0.10968,0.00013991,-297.23,-0.0005043,-5137.6,0.19071
12860,4.0992,4.0909,0,0.00050249,5021.5,0.00018195,0.11039,0.00013791,-330.78,-0.0005073,-5178.6,0.18408
12861,4.0992,4.1818,0.05,1.7085e-06,17.073,1.3119e-06,9.8572,-5.9611e-12,-5.5652e-05,-1.3119e-06,-9.8573,0.18378
12862,4.3756,4.1818,0,0.00049398,4936.4,0.00017662,0.082805,0.00013954,-278.52,-0.00049813,-5069.7,0.20474
12863,4.2835,4.0909,0,0.00049634,4959.9,0.00017885,0.082663,0.00013775,-308.77,-0.00050087,-5107.1,0.19794
12864,4.2835,4.1818,0.05,1.5768e-06,15.757,1.2108e-06,9.0974,-3.4824e-13,-6.4154e-05,-1.2108e-06,-9.0976,0.19764
12865,4.5599,4.1818,0,0.00048829,4879.5,0.00017386,0.062794,0.00013922,-260.25,-0.0004922,-5004.4,0.2191
12866,4.4677,4.0909,0,0.00049049,4901.5,0.0001759,0.06208,0.00013762,-287.54,-0.00049475,-5039,0.21215
12867,4.4677,4.1818,0.05,1.4716e-06,14.706,1.13e-06,8.4906,-1.3027e-12,-5.7385e-05,-1.13e-06,-8.4907,0.21184
12868,4.7441,4.1818,0,0.00048278,4824.5,0.00017119,0.047833,0.00013889,-242.58,-0.00048645,-4941.1,0.23381
12869,4.652,4.0909,0,0.00048488,4845.5,0.00017307,0.046753,0.0001375,-267.23,-0.00048887,-4973.5,0.22668
12870,4.652,4.1818,0.05,1.3875e-06,13.866,1.0654e-06,8.0052,-1.1322e-12,-4.5008e-05,-1.0654e-06,-8.0054,0.22638
12871,4.9284,4.1818,0,0.0004774,4770.7,0.00016859,0.036608,0.00013855,-225.63,-0.00048084,-4879.5,0.24884
12872,4.8363,4.0909,0,0.00047945,4791.2,0.00017034,0.035313,0.00013734,-247.9,-0.00048318,-4910.3,0.24155
12873,4.8363,4.1818,0.05,1.32e-06,13.191,1.0136e-06,7.6156,1.1781e-12,-1.9846e-05,-1.0136e-06,-7.6157,0.24124
12874,5.1127,4.1818,0,0.00047212,4718,0.00016606,0.028161,0.00013818,-209.47,-0.00047534,-4819.2,0.2642
12875,5.0205,4.0909,0,0.00047414,4738.2,0.0001677,0.02676,0.00013714,-229.61,-0.00047763,-4848.8,0.25675
12876,5.0205,4.1818,0.05,1.2655e-06,12.646,9.7172e-07,7.3011,5.2674e-13,-1.678e-05,-9.7173e-07,-7.3012,0.25644
12877,5.2969,4.1818,0,0.00046692,4666,0.0001636,0.021792,0.00013776,-194.13,-0.00046992,-4760,0.27988
12878,5.2048,4.0909,0,0.00046893,4686.1,0.00016515,0.020358,0.00013688,-212.37,-0.00047218,-4788.6,0.27228
12879,5.2048,4.1818,0.05,1.2211e-06,12.203,9.3765e-07,7.0451,2.9165e-12,-2.0802e-05,-9.3765e-07,-7.0452,0.27196
12880,5.4812,4.1818,0,0.00046176,4614.4,0.00016119,0.016981,0.00013729,-179.62,-0.00046456,-4701.6,0.29589
12881,5.3891,4.0909,0,0.00046378,4634.6,0.00016266,0.015567,0.00013655,-196.16,-0.00046681,-4729.6,0.28812
12882,5.3891,4.1818,0.05,1.1846e-06,11.838,9.0965e-07,6.8348,2.255e-13,-4.8152e-06,-9.0965e-07,-6.8348,0.28781
12883,5.6655,4.1818,0,0.00045664,4563.3,0.00015884,0.013346,0.00013675,-165.96,-0.00045924,-4644,0.3122
12884,5.5733,4.0909,0,0.00045868,4583.6,0.00016024,0.011985,0.00013615,-180.97,-0.00046149,-4671.4,0.30428
12885,5.5733,4.1818,0.05,1.1543e-06,11.535,8.8638e-07,6.6599,2.6452e-12,-1.2102e-05,-8.8639e-07,-6.66,0.30397
12886,5.8497,4.1818,0,0.00045154,4512.3,0.00015653,0.0106,0.00013615,-153.13,-0.00045395,-4586.9,0.32883
12887,5.7576,4.0909,0,0.00045361,4532.9,0.00015788,0.0093134,0.00013568,-166.77,-0.00045621,-4614,0.32075
12888,5.7576,4.1818,0.05,1.1288e-06,11.281,8.6681e-07,6.5128,1.3003e-12,-1.0849e-05,-8.6681e-07,-6.5129,0.32044
12889,6.034,4.1818,0,0.00044646,4461.5,0.00015427,0.0085293,0.00013549,-141.1,-0.00044869,-4530.4,0.34577
12890,5.9419,4.0909,0,0.00044855,4482.4,0.00015556,0.007328,0.00013513,-153.51,-0.00045097,-4557.2,0.33754
12891,5.9419,4.1818,0.05,1.1071e-06,11.064,8.5012e-07,6.3875,3.2444e-12,-7.8731e-06,-8.5014e-07,-6.3876,0.33723
12892,6.2183,4.1818,0,0.00044138,4410.8,0.00015204,0.0069724,0.00013476,-129.85,-0.00044345,-4474.3,0.36301
12893,6.1261,4.0909,0,0.0004435,4432,0.00015329,0.0058623,0.00013451,-141.16,-0.00044574,-4500.9,0.35463
12894,6.1261,4.1818,0.05,1.0884e-06,10.876,8.3573e-07,6.2794,1.8881e-12,-6.3609e-06,-8.3574e-07,-6.2794,0.35432
12895,6.4025,4.1818,0,0.00043631,4360.1,0.00014985,0.0058077,0.00013397,-119.34,-0.00043821,-4418.5,0.38056
12896,6.3104,4.0909,0,0.00043846,4381.6,0.00015107,0.0047898,0.00013381,-129.66,-0.00044052,-4445,0.37202
12897,6.3104,4.1818,0.05,1.072e-06,10.713,8.2316e-07,6.1849,5.6624e-12,-5.824e-06,-8.2317e-07,-6.185,0.37171
12898,6.5868,4.1818,0,0.00043123,4309.3,0.0001477,0.004943,0.00013312,-109.55,-0.00043299,-4363,0.3984
12899,6.4947,4.0909,0,0.00043341,4331.1,0.00014888,0.0040154,0.00013304,-118.98,-0.00043531,-4389.4,0.38971
12900,6.4947,4.1818,0.05,1.0575e-06,10.568,8.1204e-07,6.1013,5.7837e-12,-8.8987e-06,-8.1205e-07,-6.1015,0.3894
12901,6.7711,4.1818,0,0.00042615,4258.5,0.00014558,0.0043077,0.00013221,-100.44,-0.00042777,-4307.9,0.41653
12902,6.6789,4.0909,0,0.00042836,4280.7,0.00014673,0.0034671,0.00013221,-109.05,-0.00043011,-4334.1,0.4077
12903,6.6789,4.1818,0.05,1.0446e-06,10.439,8.021e-07,6.0267,2.4619e-12,-5.2867e-06,-8.0211e-07,-6.0267,0.40739
12904,6.9553,4.1818,0,0.00042106,4207.7,0.00014348,0.0038491,0.00013124,-91.962,-0.00042255,-4252.9,0.43496
12905,6.8632,4.0909,0,0.0004233,4230.1,0.00014461,0.0030901,0.00013132,-99.844,-0.00042491,-4279.1,0.42598
12906,6.8632,4.1818,0.05,1.0329e-06,10.322,7.9312e-07,5.9591,2.6001e-12,-8.5436e-06,-7.9313e-07,-5.9594,0.42568
12907,7.1396,4.1818,0,0.00041597,4156.9,0.00014142,0.0035259,0.00013022,-84.086,-0.00041734,-4198.3,0.45367
12908,7.0475,4.0909,0,0.00041824,4179.5,0.00014252,0.0028437,0.00013036,-91.304,-0.00041972,-4224.4,0.44454
12909,7.0475,4.1818,0.05,1.0222e-06,10.215,7.8494e-07,5.8977,6.3569e-12,-6.0982e-06,-7.8495e-07,-5.8978,0.44424
12910,7.3239,4.1818,0,0.00041088,4105.9,0.00013937,0.0033065,0.00012916,-76.774,-0.00041213,-4143.8,0.47267
12911,7.2317,4.0909,0,0.00041317,4128.8,0.00014046,0.002695,0.00012936,-83.39,-0.00041452,-4169.9,0.4634
12912,7.2317,4.1818,0.05,1.0124e-06,10.117,7.7741e-07,5.8412,2.7715e-12,-5.2985e-06,-7.7742e-07,-5.8413,0.4631
12913,7.5081,4.1818,0,0.00040578,4055,0.00013736,0.0031671,0.00012804,-69.991,-0.00040692,-4089.5,0.49194
12914,7.416,4.0909,0,0.00040809,4078.1,0.00013842,0.002621,0.0001283,-76.059,-0.00040933,-4115.6,0.48253
12915,7.416,4.1818,0.05,1.0033e-06,10.027,7.7044e-07,5.7888,2.8871e-12,-3.8125e-06,-7.7045e-07,-5.7889,0.48224
12916,7.6924,4.1818,0,0.00040067,4004,0.00013536,0.0030895,0.00012689,-63.702,-0.00040172,-4035.4,0.51149
12917,7.6003,4.0909,0,0.000403,4027.3,0.00013641,0.0026024,0.00012719,-69.271,-0.00040414,-4061.5,0.50194
12918,7.6003,4.1818,0.05,9.9489e-07,9.942,7.6395e-07,5.74,6.5796e-12,-2.5061e-06,-7.6395e-07,-5.7401,0.50165
12919,7.8767,4.1818,0,0.00039556,3952.9,0.00013339,0.0030593,0.00012569,-57.874,-0.00039652,-3981.5,0.53132
12920,7.7845,4.0909,0,0.00039792,3976.4,0.00013442,0.0026268,0.00012604,-62.989,-0.00039895,-4007.5,0.52163
12921,7.7845,4.1818,0.05,9.8695e-07,9.8627,7.5785e-07,5.6942,1.2475e-12,-3.4679e-06,-7.5786e-07,-5.6943,0.52134
12922,8.0609,4.1818,0,0.00039046,3901.9,0.00013144,0.0030653,0.00012446,-52.475,-0.00039132,-3927.8,0.55141
12923,7.9688,4.0909,0,0.00039282,3925.5,0.00013245,0.0026819,0.00012484,-57.176,-0.00039376,-3953.8,0.54159
12924,7.9688,4.1818,0.05,9.7946e-07,9.7879,7.521e-07,5.651,3.1256e-12,-1.9956e-06,-7.5211e-07,-5.6511,0.5413
12925,8.2452,4.1818,0,0.00038534,3850.8,0.00012951,0.0031004,0.00012319,-47.475,-0.00038613,-3874.3,0.57177
12926,8.1531,4.0909,0,0.00038773,3874.6,0.00013051,0.0027608,0.00012361,-51.798,-0.00038858,-3900.2,0.56181
12927,8.1531,4.1818,0.05,9.7238e-07,9.7171,7.4666e-07,5.6101,-4.7105e-13,-2.6367e-06,-7.4667e-07,-5.6102,0.56153
12928,8.4295,4.1818,0,0.00038023,3799.7,0.00012759,0.0031579,0.00012189,-42.846,-0.00038094,-3821,0.59239
12929,8.3373,4.0909,0,0.00038263,3823.6,0.00012858,0.0028582,0.00012235,-46.823,-0.0003834,-3846.8,0.5823
12930,8.3373,4.1818,0.05,9.6564e-07,9.6497,7.4149e-07,5.5712,3.2277e-12,-2.2351e-06,-7.4149e-07,-5.5713,0.58202
12931,8.6137,4.1818,0,0.00037513,3748.7,0.0001257,0.0032336,0.00012056,-38.562,-0.00037577,-3767.8,0.61327
12932,8.5216,4.0909,0,0.00037753,3772.7,0.00012667,0.0029683,0.00012105,-42.222,-0.00037823,-3793.6,0.60305
12933,8.5216,4.1818,0.05,9.592e-07,9.5854,7.3655e-07,5.5341,3.2643e-12,-2.013e-06,-7.3655e-07,-5.5342,0.60277
12934,8.798,4.1818,0,0.00037002,3697.6,0.00012382,0.003324,0.00011921,-34.597,-0.00037059,-3714.8,0.63441
12935,8.7059,4.0909,0,0.00037243,3721.7,0.00012478,0.0030894,0.00011973,-37.968,-0.00037306,-3740.6,0.62405
12936,8.7059,4.1818,0.05,9.5304e-07,9.5239,7.3182e-07,5.4985,2.3766e-12,-7.5243e-07,-7.3182e-07,-5.4987,0.62378
12937,8.9823,4.1818,0,0.00036492,3646.6,0.00012195,0.0034272,0.00011783,-30.928,-0.00036543,-3662,0.6558
12938,8.8901,4.0909,0,0.00036734,3670.8,0.0001229,0.0032186,0.00011837,-34.033,-0.0003679,-3687.7,0.64531
12939,8.8901,4.1818,0.05,9.4712e-07,9.4647,7.2727e-07,5.4644,3.3213e-12,-1.1539e-06,-7.2728e-07,-5.4645,0.64504
12940,9.1665,4.1818,0,0.00035982,3595.7,0.0001201,0.0035427,0.00011644,-27.533,-0.00036028,-3609.4,0.67743
12941,9.0744,4.0909,0,0.00036224,3619.9,0.00012104,0.0033559,0.000117,-30.395,-0.00036275,-3635,0.66682
12942,9.0744,4.1818,0.05,9.4142e-07,9.4077,7.2289e-07,5.4315,3.362e-12,-8.7481e-07,-7.229e-07,-5.4316,0.66655
12943,9.3508,4.1818,0,0.00035472,3544.8,0.00011827,0.0036699,0.00011502,-24.391,-0.00035513,-3556.9,0.69931
12944,9.2587,4.0909,0,0.00035716,3569.1,0.0001192,0.0034999,0.0001156,-27.03,-0.00035761,-3582.5,0.68858
12945,9.2587,4.1818,0.05,9.3592e-07,9.3527,7.1867e-07,5.3997,3.3878e-12,-7.0936e-07,-7.1867e-07,-5.3999,0.68831
12946,9.5351,4.1818,0,0.00034964,3494,0.00011644,0.0038094,0.00011358,-21.484,-0.00035,-3504.6,0.72143
12947,9.4429,4.0909,0,0.00035207,3518.3,0.00011737,0.0036519,0.00011418,-23.917,-0.00035247,-3530.2,0.71058
12948,9.4429,4.1818,0.05,9.3059e-07,9.2995,7.1458e-07,5.369,3.4207e-12,-6.6895e-07,-7.1458e-07,-5.3691,0.71031
12949,9.7193,4.1818,0,0.00034456,3443.2,0.00011463,0.0039672,0.00011213,-18.793,-0.00034487,-3452.6,0.74379
12950,9.6272,4.0909,0,0.000347,3467.6,0.00011555,0.0038118,0.00011275,-21.039,-0.00034735,-3478,0.73281
12951,9.6272,4.1818,0.05,9.2543e-07,9.2479,7.1061e-07,5.3392,2.5282e-12,4.8028e-07,-7.1062e-07,-5.3393,0.73255
12952,9.9036,4.1818,0,0.00033949,3392.5,0.00011284,0.0041431,0.00011067,-16.302,-0.00033976,-3400.7,0.76638
12953,9.8115,4.0909,0,0.00034193,3416.9,0.00011375,0.0039906,0.0001113,-18.375,-0.00034224,-3426.1,0.75529
12954,9.8115,4.1818,0.05,9.2041e-07,9.1977,7.0675e-07,5.3102,2.5558e-12,5.7415e-07,-7.0676e-07,-5.3104,0.75503
12955,10.088,4.1818,0,0.00033443,3342,0.00011105,0.0043402,0.00010919,-13.996,-0.00033466,-3348.9,0.7892
12956,9.9957,4.0909,0,0.00033687,3366.4,0.00011195,0.0041763,0.00010984,-15.91,-0.00033714,-3374.3,0.77799
12957,9.9957,4.1818,0.05,9.1552e-07,9.1489,7.03e-07,5.2821,3.4908e-12,5.3976e-07,-7.0301e-07,-5.2822,0.77774
12958,10.272,4.1818,0,0.00032938,3291.5,0.00010928,0.0045768,0.0001077,-11.86,-0.00032958,-3297.4,0.81225
12959,10.18,4.0909,0,0.00033182,3315.9,0.00011017,0.0043857,0.00010836,-13.628,-0.00033205,-3322.7,0.80092
12960,10.18,4.1818,0.05,9.1075e-07,9.1013,6.9934e-07,5.2546,2.5948e-12,1.4812e-06,-6.9935e-07,-5.2547,0.80067
12961,10.456,4.1818,0,0.00032433,3241.1,0.00010752,0.0048426,0.0001062,-9.8808,-0.0003245,-3246,0.83553
12962,10.364,4.0909,0,0.00032678,3265.5,0.00010841,0.004634,0.00010687,-11.515,-0.00032697,-3271.2,0.82408
12963,10.364,4.1818,0.05,9.061e-07,9.0548,6.9577e-07,5.2277,3.5181e-12,1.2489e-06,-6.9578e-07,-5.2278,0.82384
12964,10.641,4.1818,0,0.00031931,3190.9,0.00010577,0.0051778,0.0001047,-8.0464,-0.00031944,-3194.9,0.85902
12965,10.549,4.0909,0,0.00032175,3215.2,0.00010665,0.004879,0.00010538,-9.558,-0.00032191,-3220,0.84746
12966,10.549,4.1818,0.05,9.0155e-07,9.0093,6.9228e-07,5.2015,1.7169e-12,1.4908e-06,-6.9228e-07,-5.2016,0.84722
12967,10.825,4.1818,0,0.00031429,3140.7,0.00010403,0.0056763,0.00010318,-6.3451,-0.0003144,-3143.9,0.88273
12968,10.733,4.0909,0,0.00031673,3165.1,0.0001049,0.0052319,0.00010387,-7.7438,-0.00031686,-3168.9,0.87106
12969,10.733,4.1818,0.05,8.9708e-07,8.9646,6.8884e-07,5.1756,3.5476e-12,1.4252e-06,-6.8885e-07,-5.1758,0.87082
12970,11.009,4.1818,0,0.00030928,3090.7,0.0001023,0.0064058,0.00010167,-4.7665,-0.00030937,-3093.1,0.90666
12971,10.917,4.0909,0,0.00031172,3115,0.00010317,0.0057466,0.00010236,-6.0612,-0.00031182,-3118.1,0.89488
12972,10.917,4.1818,0.05,8.927e-07,8.9209,6.8548e-07,5.1504,2.6544e-12,1.0384e-06,-6.8549e-07,-5.1505,0.89464
12973,11.193,4.1818,0,0.00030429,3040.8,0.00010058,0.007609,0.00010014,-3.3009,-0.00030435,-3042.5,0.93079
12974,11.101,4.0909,0,0.00030672,3065.1,0.00010144,0.0064529,0.00010084,-4.4999,-0.0003068,-3067.4,0.91891
12975,11.101,4.1818,0.05,8.8841e-07,8.878,6.8219e-07,5.1257,3.5769e-12,1.2583e-06,-6.8219e-07,-5.1258,0.91867
12976,11.378,4.1818,0,0.00029932,2991.1,9.8872e-05,0.010234,9.8612e-05,-1.94,-0.00029935,-2992.1,0.95513
12977,11.286,4.0909,0,0.00030174,3015.4,9.9727e-05,0.0076671,9.932e-05,-3.0502,-0.0003018,-3016.9,0.94314
12978,11.286,4.1818,0.05,8.842e-07,8.8359,6.7895e-07,5.1014,8.6022e-13,8.9915e-07,-6.7896e-07,-5.1014,0.94291
12979,11.562,4.1818,0,0.00029435,2941.5,9.7173e-05,0.021722,9.7079e-05,-0.68273,-0.00029437,-2941.8,0.97967
12980,11.47,4.0909,0,0.00029678,2965.7,9.8022e-05,0.010484,9.7793e-05,-1.7042,-0.00029681,-2966.6,0.96758
12981,11.47,4.1818,0.05,8.8004e-07,8.7944,6.7576e-07,5.0774,3.5996e-12,1.5398e-06,-6.7577e-07,-5.0775,0.96735
12982,11.746,4.1818,0,0.00028941,2892.1,9.555e-05,0.53965,9.5476e-05,-0.018532,-0.0002894,-2891.8,1.0044
12983,11.654,4.0909,0,0.00029182,2916.2,9.6327e-05,0.027133,9.6262e-05,-0.4653,-0.00029183,-2916.4,0.99222
12984,11.654,4.1818,0.05,8.7594e-07,8.7534,6.7261e-07,5.0537,2.7013e-12,1.5724e-06,-6.7262e-07,-5.0538,0.992
12985,11.931,4.1818,0,0.00028447,2842.8,9.4013e-05,1.6272,9.3796e-05,-0.0032456,-0.00028445,-2842,1.0294
12986,11.838,4.0909,0,0.00028689,2866.9,9.4735e-05,0.74218,9.4635e-05,-0.010121,-0.00028687,-2866.5,1.0171
12987,11.838,4.1818,0.05,8.719e-07,8.713,6.6951e-07,5.0304,3.6198e-12,1.8457e-06,-6.6951e-07,-5.0305,1.0168
12988,12.115,4.1818,0,0.00027956,2793.6,9.2476e-05,2.6545,9.2122e-05,-0.00027018,-0.00027951,-2792.3,1.0545
12989,12.023,4.0909,0,0.00028196,2817.7,9.32e-05,1.8255,9.2957e-05,-0.001382,-0.00028193,-2816.8,1.0421
12990,12.023,4.1818,0.05,8.6793e-07,8.6733,6.6646e-07,5.0075,9.003e-13,2.2538e-06,-6.6646e-07,-5.0076,1.0419
12991,12.299,4.1818,0,0.00027466,2744.7,9.0939e-05,3.6176,9.0457e-05,0.0010089,-0.00027459,-2742.9,1.0798
12992,12.207,4.0909,0,0.00027706,2768.6,9.1666e-05,2.8442,9.1288e-05,0.00081503,-0.00027701,-2767.2,1.0673
12993,12.207,4.1818,0.05,8.64e-07,8.6341,6.6344e-07,4.9849,3.6373e-12,2.6918e-06,-6.6345e-07,-4.9849,1.0671
12994,12.483,4.1818,0,0.00026977,2695.9,8.9402e-05,4.5214,8.8801e-05,0.0017422,-0.00026969,-2693.6,1.1053
12995,12.391,4.0909,0,0.00027216,2719.8,9.0132e-05,3.7992,8.9626e-05,0.0018194,-0.0002721,-2717.9,1.0927
12996,12.391,4.1818,0.05,8.6012e-07,8.5952,6.6046e-07,4.9624,2.7353e-12,1.9226e-06,-6.6047e-07,-4.9625,1.0925
12997,12.668,4.1818,0,0.0002649,2647.2,8.7867e-05,5.3713,8.7152e-05,0.0022644,-0.00026481,-2644.5,1.131
12998,12.575,4.0909,0,0.00026729,2671.1,8.8598e-05,4.6961,8.7973e-05,0.0024496,-0.00026721,-2668.7,1.1183
12999,12.575,4.1818,0.05,8.5627e-07,8.5567,6.575e-07,4.9402,2.7424e-12,1.5372e-06,-6.5751e-07,-4.9403,1.1181
13000,12.852,4.1818,0,0.00026005,2598.7,8.6333e-05,6.1724,8.5512e-05,0.0026585,-0.00025995,-2595.6,1.1569
13001,12.76,4.0909,0,0.00026243,2622.5,8.7065e-05,5.5402,8.6328e-05,0.0029227,-0.00026234,-2619.7,1.1441
13002,12.76,4.1818,0.05,8.5246e-07,8.5188,6.5458e-07,4.9183,1.8403e-12,2.4632e-06,-6.5459e-07,-4.9183,1.1439
13003,13.036,4.1818,0,0.00025522,2550.4,8.4801e-05,6.9296,8.3879e-05,0.0029568,-0.0002551,-2547,1.1829
13004,12.944,4.0909,0,0.00025759,2574.1,8.5534e-05,6.3365,8.4691e-05,0.0032623,-0.00025748,-2571,1.1701
13005,12.944,4.1818,0.05,8.4871e-07,8.4812,6.517e-07,4.8966,2.7547e-12,3.3064e-06,-6.517e-07,-4.8967,1.1699
13006,13.22,4.1818,0,0.0002504,2502.3,8.3272e-05,7.6477,8.2254e-05,0.00319,-0.00025027,-2498.5,1.2092
13007,13.128,4.0909,0,0.00025277,2525.9,8.4005e-05,7.0903,8.3062e-05,0.003533,-0.00025265,-2522.4,1.1962
13008,13.128,4.1818,0.05,8.4498e-07,8.444,6.4884e-07,4.8751,9.4067e-13,4.3198e-06,-6.4885e-07,-4.8752,1.196
13009,13.405,4.1818,0,0.00024561,2454.4,8.1745e-05,8.3312,8.0637e-05,0.0033932,-0.00024546,-2450.2,1.2355
13010,13.313,4.0909,0,0.00024796,2477.9,8.2479e-05,7.8059,8.1441e-05,0.0037368,-0.00024783,-2474,1.2225
13011,13.313,4.1818,0.05,8.4129e-07,8.4071,6.46e-07,4.8538,9.4382e-13,4.2823e-06,-6.4601e-07,-4.8539,1.2223
13012,13.589,4.1818,0,0.00024083,2406.6,8.0222e-05,8.9842,7.9027e-05,0.0036043,-0.00024067,-2402.1,1.2621
13013,13.497,4.0909,0,0.00024317,2430.1,8.0956e-05,8.4882,7.9827e-05,0.0039472,-0.00024303,-2425.8,1.249
13014,13.497,4.1818,0.05,8.3762e-07,8.3704,6.4319e-07,4.8326,3.7994e-14,4.3578e-06,-6.4319e-07,-4.8327,1.2488
13015,13.773,4.1818,0,0.00023606,2359,7.8703e-05,9.6108,7.7425e-05,0.0038027,-0.0002359,-2354.2,1.2888
13016,13.681,4.0909,0,0.0002384,2382.4,7.9436e-05,9.1412,7.822e-05,0.0041683,-0.00023825,-2377.8,1.2756
13017,13.681,4.1818,0.05,8.3399e-07,8.3341,6.404e-07,4.8117,9.5056e-13,3.1828e-06,-6.404e-07,-4.8117,1.2754
13018,13.957,4.1818,0,0.00023132,2311.6,7.7189e-05,10.215,7.583e-05,0.0039742,-0.00023114,-2306.5,1.3157
13019,13.865,4.0909,0,0.00023365,2334.9,7.7921e-05,9.769,7.6621e-05,0.004352,-0.00023348,-2330,1.3024
13020,13.865,4.1818,0.05,8.3039e-07,8.2982,6.3763e-07,4.7909,9.531e-13,3.2593e-06,-6.3764e-07,-4.791,1.3022
13021,14.142,4.1818,0,0.0002266,2264.4,7.5678e-05,10.8,7.4241e-05,0.0041231,-0.00022641,-2259,1.3427
13022,14.05,4.0909,0,0.00022892,2287.6,7.6409e-05,10.376,7.5029e-05,0.0045207,-0.00022874,-2282.4,1.3294
13023,14.05,4.1818,0.05,8.2682e-07,8.2625,6.349e-07,4.7703,1.8668e-12,3.5007e-06,-6.349e-07,-4.7704,1.3292
13024,14.326,4.1818,0,0.00022189,2217.4,7.4173e-05,11.37,7.266e-05,0.0042703,-0.0002217,-2211.7,1.3699
13025,14.234,4.0909,0,0.0002242,2240.5,7.4903e-05,10.964,7.3444e-05,0.0046606,-0.00022402,-2235,1.3565
13026,14.234,4.1818,0.05,8.2328e-07,8.2271,6.3217e-07,4.7499,1.8705e-12,2.7518e-06,-6.3217e-07,-4.7499,1.3563
13027,14.51,4.1818,0,0.0002172,2170.5,7.2673e-05,11.928,7.1086e-05,0.0044438,-0.000217,-2164.6,1.3973
13028,14.418,4.0909,0,0.00021951,2193.6,7.3402e-05,11.54,7.1866e-05,0.004825,-0.00021931,-2187.8,1.3837
13029,14.418,4.1818,0.05,8.1975e-07,8.1918,6.2946e-07,4.7295,1.8726e-12,3.7353e-06,-6.2946e-07,-4.7296,1.3836
13030,14.695,4.1818,0,0.00021254,2123.9,7.1179e-05,12.478,6.9519e-05,0.004618,-0.00021232,-2117.6,1.4248
13031,14.602,4.0909,0,0.00021483,2146.9,7.1906e-05,12.104,7.0295e-05,0.0050184,-0.00021463,-2140.8,1.4111
13032,14.602,4.1818,0.05,8.1625e-07,8.1569,6.2678e-07,4.7093,1.8697e-12,4.6517e-06,-6.2678e-07,-4.7094,1.411
13033,14.879,4.1818,0,0.00020789,2077.5,6.9691e-05,13.023,6.7958e-05,0.0047778,-0.00020767,-2070.9,1.4524
13034,14.787,4.0909,0,0.00021018,2100.3,7.0416e-05,12.662,6.8731e-05,0.0051868,-0.00020996,-2094,1.4387
13035,14.787,4.1818,0.05,8.1279e-07,8.1223,6.2412e-07,4.6894,1.8704e-12,6.0978e-06,-6.2412e-07,-4.6894,1.4385
13036,15.063,4.1818,0,0.00020326,2031.2,6.8209e-05,13.567,6.6404e-05,0.0049274,-0.00020303,-2024.4,1.4802
13037,14.971,4.0909,0,0.00020554,2054,6.8932e-05,13.217,6.7173e-05,0.005351,-0.00020531,-2047.4,1.4664
13038,14.971,4.1818,0.05,8.0935e-07,8.0879,6.2148e-07,4.6695,1.8707e-12,5.3981e-06,-6.2148e-07,-4.6696,1.4662
13039,15.247,4.1818,0,0.00019866,1985.2,6.6734e-05,14.112,6.4857e-05,0.0050808,-0.00019841,-1978.1,1.5081
13040,15.155,4.0909,0,0.00020093,2007.9,6.7455e-05,13.771,6.5622e-05,0.0054978,-0.00020069,-2000.9,1.4942
13041,15.155,4.1818,0.05,8.0593e-07,8.0538,6.1885e-07,4.6498,1.8739e-12,6.5919e-06,-6.1886e-07,-4.6499,1.4941
13042,15.432,4.1818,0,0.00019407,1939.4,6.5266e-05,14.662,6.3316e-05,0.0052632,-0.00019382,-1932,1.5361
13043,15.339,4.0909,0,0.00019633,1961.9,6.5984e-05,14.329,6.4078e-05,0.0056726,-0.00019608,-1954.7,1.5222
13044,15.339,4.1818,0.05,8.0253e-07,8.0198,6.1625e-07,4.6302,9.6754e-13,5.3326e-06,-6.1625e-07,-4.6302,1.5221
13045,15.616,4.1818,0,0.0001895,1893.7,6.3806e-05,15.22,6.1781e-05,0.0054539,-0.00018924,-1886.1,1.5643
13046,15.524,4.0909,0,0.00019175,1916.2,6.4521e-05,14.894,6.254e-05,0.0058786,-0.00019149,-1908.7,1.5503
13047,15.524,4.1818,0.05,7.9917e-07,7.9862,6.1366e-07,4.6108,1.8865e-12,3.9431e-06,-6.1366e-07,-4.6108,1.5502
13048,15.8,4.1818,0,0.00018496,1848.3,6.2353e-05,15.79,6.0252e-05,0.0056368,-0.00018468,-1840.3,1.5926
13049,15.708,4.0909,0,0.0001872,1870.7,6.3066e-05,15.469,6.1008e-05,0.0060695,-0.00018693,-1862.9,1.5786
13050,15.708,4.1818,0.05,7.9583e-07,7.9528,6.111e-07,4.5915,1.8858e-12,3.1048e-06,-6.111e-07,-4.5916,1.5784
13051,15.984,4.1818,0,0.00018043,1803.1,6.0909e-05,16.375,5.873e-05,0.0058147,-0.00018015,-1794.8,1.621
13052,15.892,4.0909,0,0.00018266,1825.4,6.1618e-05,16.057,5.9482e-05,0.0062602,-0.00018238,-1817.3,1.6069
13053,15.892,4.1818,0.05,7.9252e-07,7.9197,6.0856e-07,4.5725,1.8895e-12,3.9694e-06,-6.0856e-07,-4.5725,1.6068
13054,16.169,4.1818,0,0.00017593,1758.1,5.9472e-05,16.978,5.7214e-05,0.0060038,-0.00017563,-1749.5,1.6496
13055,16.077,4.0909,0,0.00017815,1780.3,6.0179e-05,16.663,5.7962e-05,0.0064424,-0.00017786,-1771.9,1.6354
13056,16.077,4.1818,0.05,7.8924e-07,7.8869,6.0603e-07,4.5535,1.4452e-12,4.0557e-06,-6.0604e-07,-4.5535,1.6353
13057,16.353,4.1818,0,0.00017144,1713.3,5.8045e-05,17.604,5.5703e-05,0.0062232,-0.00017114,-1704.4,1.6782
13058,16.261,4.0909,0,0.00017366,1735.4,5.8749e-05,17.29,5.6448e-05,0.0066563,-0.00017335,-1726.6,1.664
13059,16.261,4.1818,0.05,7.8597e-07,7.8543,6.0353e-07,4.5347,1.8926e-12,5.3964e-06,-6.0353e-07,-4.5347,1.6639
13060,16.537,4.1818,0,0.00016698,1668.7,5.6627e-05,18.255,5.4198e-05,0.0064557,-0.00016667,-1659.5,1.707
13061,16.445,4.0909,0,0.00016918,1690.7,5.7327e-05,17.942,5.494e-05,0.0068996,-0.00016887,-1681.6,1.6927
13062,16.445,4.1818,0.05,7.8275e-07,7.8221,6.0105e-07,4.5161,9.9223e-13,5.1932e-06,-6.0105e-07,-4.5161,1.6926
13063,16.721,4.1818,0,0.00016254,1624.3,5.5219e-05,18.937,5.2699e-05,0.0066891,-0.00016221,-1614.8,1.7359
13064,16.629,4.0909,0,0.00016473,1646.2,5.5915e-05,18.622,5.3438e-05,0.0071407,-0.00016441,-1636.8,1.7216
13065,16.629,4.1818,0.05,7.7955e-07,7.7902,5.986e-07,4.4976,5.4855e-13,6.5278e-06,-5.986e-07,-4.4977,1.7215
13066,16.906,4.1818,0,0.00015813,1580.2,5.382e-05,19.652,5.1206e-05,0.0069225,-0.00015778,-1570.2,1.7649
13067,16.814,4.0909,0,0.00016031,1602,5.4514e-05,19.335,5.1941e-05,0.0073859,-0.00015997,-1592.2,1.7505
13068,16.814,4.1818,0.05,7.7639e-07,7.7586,5.9618e-07,4.4794,1.4553e-12,4.8141e-06,-5.9617e-07,-4.4794,1.7504
13069,17.09,4.1818,0,0.00015373,1536.2,5.2432e-05,20.406,4.9717e-05,0.0071726,-0.00015337,-1525.9,1.7941
13070,16.998,4.0909,0,0.0001559,1557.9,5.3122e-05,20.086,5.045e-05,0.0076294,-0.00015555,-1547.8,1.7796
13071,16.998,4.1818,0.05,7.7327e-07,7.7273,5.9377e-07,4.4614,1.012e-12,5.0538e-06,-5.9378e-07,-4.4614,1.7795
13072,17.274,4.1818,0,0.00014936,1492.5,5.1055e-05,21.202,4.8234e-05,0.007458,-0.00014898,-1481.8,1.8233
13073,17.182,4.0909,0,0.00015152,1514.1,5.1741e-05,20.878,4.8964e-05,0.0079093,-0.00015115,-1503.6,1.8088
13074,17.182,4.1818,0.05,7.7017e-07,7.6964,5.914e-07,4.4435,1.014e-12,5.0153e-06,-5.914e-07,-4.4435,1.8086
13075,17.459,4.1818,0,0.00014501,1449.1,4.969e-05,22.046,4.6756e-05,0.0077622,-0.00014462,-1437.9,1.8526
13076,17.366,4.0909,0,0.00014716,1470.6,5.0372e-05,21.717,4.7483e-05,0.0082248,-0.00014678,-1459.6,1.838
13077,17.366,4.1818,0.05,7.6712e-07,7.6659,5.8905e-07,4.4259,1.4747e-12,5.0928e-06,-5.8905e-07,-4.4259,1.8379
13078,17.643,4.1818,0,0.00014068,1405.8,4.8336e-05,22.942,4.5283e-05,0.0080751,-0.00014027,-1394.2,1.882
13079,17.551,4.0909,0,0.00014282,1427.2,4.9015e-05,22.608,4.6007e-05,0.0085423,-0.00014242,-1415.8,1.8674
13080,17.551,4.1818,0.05,7.6412e-07,7.6359,5.8674e-07,4.4086,1.0292e-12,6.0799e-06,-5.8675e-07,-4.4086,1.8673
13081,17.827,4.1818,0,0.00013637,1362.8,4.6995e-05,23.897,4.3815e-05,0.0083995,-0.00013595,-1350.7,1.9115
13082,17.735,4.0909,0,0.00013851,1384.1,4.767e-05,23.555,4.4536e-05,0.0088755,-0.00013809,-1372.2,1.8969
13083,17.735,4.1818,0.05,7.6116e-07,7.6063,5.8447e-07,4.3915,1.4973e-12,3.8024e-06,-5.8447e-07,-4.3915,1.8968
13084,18.011,4.1818,0,0.00013209,1320,4.5666e-05,24.915,4.2352e-05,0.0087489,-0.00013165,-1307.4,1.9411
13085,17.919,4.0909,0,0.00013422,1341.2,4.6338e-05,24.566,4.3069e-05,0.0092183,-0.00013378,-1328.8,1.9264
13086,17.919,4.1818,0.05,7.5824e-07,7.5772,5.8223e-07,4.3747,1.3772e-13,4.7782e-06,-5.8224e-07,-4.3747,1.9263
13087,18.196,4.1818,0,0.00012784,1277.5,4.4352e-05,26.002,4.0893e-05,0.0091403,-0.00012737,-1264.3,1.9708
13088,18.103,4.0909,0,0.00012995,1298.6,4.5019e-05,25.645,4.1607e-05,0.0096029,-0.00012949,-1285.6,1.9561
13089,18.103,4.1818,0.05,7.5537e-07,7.5485,5.8003e-07,4.3581,1.0505e-12,5.1639e-06,-5.8003e-07,-4.3582,1.956
13090,18.38,4.1818,0,0.00012361,1235.2,4.3052e-05,27.166,3.9437e-05,0.0095632,-0.00012312,-1221.4,2.0006
13091,18.288,4.0909,0,0.00012571,1256.2,4.3715e-05,26.8,4.015e-05,0.010032,-0.00012523,-1242.6,1.9858
13092,18.288,4.1818,0.05,7.5257e-07,7.5205,5.7788e-07,4.342,1.0724e-12,6.2051e-06,-5.7788e-07,-4.342,1.9857
13093,18.564,4.1818,0,0.0001194,1193.2,4.1767e-05,28.413,3.7986e-05,0.010008,-0.00011889,-1178.7,2.0305
13094,18.472,4.0909,0,0.00012149,1214.1,4.2426e-05,28.037,3.8696e-05,0.010479,-0.00012099,-1199.8,2.0156
13095,18.472,4.1818,0.05,7.4983e-07,7.4931,5.7578e-07,4.3262,1.0942e-12,9.4108e-06,-5.7578e-07,-4.3262,2.0155
13096,18.748,4.1818,0,0.00011522,1151.4,4.0497e-05,29.75,3.6539e-05,0.010477,-0.00011468,-1136.2,2.0604
13097,18.656,4.0909,0,0.0001173,1172.2,4.1153e-05,29.364,3.7246e-05,0.010954,-0.00011677,-1157.2,2.0455
13098,18.656,4.1818,0.05,7.4716e-07,7.4664,5.7372e-07,4.3107,1.539e-12,5.1552e-06,-5.7372e-07,-4.3107,2.0454
13099,18.933,4.1818,0,0.00011106,1109.8,3.9244e-05,31.187,3.5095e-05,0.010988,-0.0001105,-1093.9,2.0905
13100,18.841,4.0909,0,0.00011313,1130.5,3.9896e-05,30.789,3.5799e-05,0.011456,-0.00011258,-1114.8,2.0755
13101,18.841,4.1818,0.05,7.4455e-07,7.4404,5.7172e-07,4.2957,1.1165e-12,3.9617e-06,-5.7172e-07,-4.2957,2.0754
13102,19.117,4.1818,0,0.00010693,1068.6,3.8009e-05,32.73,3.3654e-05,0.01156,-0.00010634,-1051.8,2.1206
13103,19.025,4.0909,0,0.00010899,1089.2,3.8656e-05,32.32,3.4356e-05,0.012014,-0.00010841,-1072.7,2.1056
13104,19.025,4.1818,0.05,7.4202e-07,7.4151,5.6978e-07,4.2811,2.3755e-13,6.5228e-06,-5.6978e-07,-4.2811,2.1055
13105,19.301,4.1818,0,0.00010283,1027.6,3.6792e-05,34.39,3.2216e-05,0.012181,-0.0001022,-1009.9,2.1507
13106,19.209,4.0909,0,0.00010488,1048.1,3.7435e-05,33.968,3.2916e-05,0.012637,-0.00010426,-1030.7,2.1357
13107,19.209,4.1818,0.05,7.3958e-07,7.3907,5.6791e-07,4.267,1.6231e-12,6.4285e-06,-5.6791e-07,-4.267,2.1356
13108,19.485,4.1818,0,9.8753e-05,986.85,3.5594e-05,36.176,3.0781e-05,0.012848,-9.8087e-05,-968.25,2.181
13109,19.393,4.0909,0,0.0001008,1007.3,3.6233e-05,35.741,3.1478e-05,0.013298,-0.00010014,-988.93,2.1659
13110,19.393,4.1818,0.05,7.3724e-07,7.3674,5.6611e-07,4.2535,1.1853e-12,8.3388e-06,-5.6611e-07,-4.2535,2.1658
13111,19.67,4.1818,0,9.4706e-05,946.41,3.4417e-05,38.1,2.9348e-05,0.013572,-9.4e-05,-926.78,2.2113
13112,19.578,4.0909,0,9.6741e-05,966.75,3.5052e-05,37.65,3.0043e-05,0.014018,-9.6046e-05,-947.36,2.1962
13113,19.578,4.1818,0.05,7.3501e-07,7.345,5.6439e-07,4.2406,7.5531e-13,8.5298e-06,-5.6439e-07,-4.2406,2.1961
13114,19.854,4.1818,0,9.0689e-05,906.26,3.3261e-05,40.172,2.7916e-05,0.01437,-8.9938e-05,-885.5,2.2416
13115,19.762,4.0909,0,9.2715e-05,926.51,3.3892e-05,39.708,2.8609e-05,0.014796,-9.1975e-05,-906.01,2.2265
13116,19.762,4.1818,0.05,7.3288e-07,7.3238,5.6276e-07,4.2284,7.732e-13,7.1402e-06,-5.6276e-07,-4.2284,2.2264
13117,20.038,4.1818,0,8.6701e-05,866.41,3.2128e-05,42.406,2.6486e-05,0.015262,-8.5902e-05,-844.42,2.2721
13118,19.946,4.0909,0,8.8718e-05,886.57,3.2755e-05,41.926,2.7177e-05,0.015661,-8.793e-05,-864.86,2.2569
13119,19.946,4.1818,0.05,7.3088e-07,7.3038,5.6123e-07,4.2168,7.6724e-13,5.2125e-06,-5.6123e-07,-4.2168,2.2568
13120,20.223,4.1818,0,8.2745e-05,826.88,3.102e-05,44.815,2.5057e-05,0.016249,-8.1891e-05,-803.55,2.3026
13121,20.13,4.0909,0,8.4753e-05,846.94,3.1642e-05,44.319,2.5746e-05,0.016632,-8.3912e-05,-823.91,2.2874
13122,20.13,4.1818,0.05,7.2902e-07,7.2852,5.598e-07,4.2061,7.8241e-13,7.7195e-06,-5.598e-07,-4.2061,2.2873
13123,20.407,4.1818,0,7.8821e-05,787.66,2.9936e-05,47.414,2.3628e-05,0.017341,-7.7907e-05,-762.88,2.3331
13124,20.315,4.0909,0,8.082e-05,807.64,3.0555e-05,46.9,2.4315e-05,0.017693,-7.9919e-05,-783.16,2.3179
13125,20.315,4.1818,0.05,7.2732e-07,7.2682,5.5849e-07,4.1963,3.2926e-13,1.014e-05,-5.5849e-07,-4.1963,2.3178
13126,20.591,4.1818,0,7.493e-05,748.78,2.888e-05,50.219,2.2199e-05,0.018558,-7.3949e-05,-722.4,2.3637
13127,20.499,4.0909,0,7.692e-05,768.67,2.9495e-05,49.686,2.2884e-05,0.018874,-7.5954e-05,-742.62,2.3484
13128,20.499,4.1818,0.05,7.2579e-07,7.2529,5.5732e-07,4.1875,5.2251e-13,1.1235e-05,-5.5732e-07,-4.1875,2.3484
13129,20.775,4.1818,0,7.1075e-05,710.26,2.7853e-05,53.247,2.0769e-05,0.019926,-7.0019e-05,-682.13,2.3943
13130,20.683,4.0909,0,7.3056e-05,730.06,2.8463e-05,52.693,2.1453e-05,0.020189,-7.2017e-05,-702.27,2.3791
13131,20.683,4.1818,0.05,7.2445e-07,7.2395,5.5629e-07,4.1798,5.0464e-13,1.3051e-05,-5.5629e-07,-4.1797,2.379
13132,20.96,4.1818,0,6.7257e-05,672.1,2.6857e-05,56.518,1.9338e-05,0.021484,-6.6116e-05,-642.05,2.425
13133,20.867,4.0909,0,6.9229e-05,691.81,2.7463e-05,55.941,2.002e-05,0.021677,-6.8107e-05,-662.13,2.4097
13134,20.867,4.1818,0.05,7.2333e-07,7.2283,5.5543e-07,4.1733,5.207e-13,1.0287e-05,-5.5542e-07,-4.1732,2.4097
13135,21.144,4.1818,0,6.3478e-05,634.34,2.5894e-05,60.052,1.7904e-05,0.023259,-6.2242e-05,-602.17,2.4558
13136,21.052,4.0909,0,6.544e-05,653.95,2.6494e-05,59.449,1.8585e-05,0.023374,-6.4225e-05,-622.18,2.4404
13137,21.052,4.1818,0.05,7.2245e-07,7.2195,5.5475e-07,4.1682,3.3626e-13,1.1991e-05,-5.5475e-07,-4.1682,2.4404
13138,21.328,4.1818,0,5.9741e-05,596.99,2.4965e-05,63.873,1.6468e-05,0.025291,-5.8397e-05,-562.48,2.4865
13139,21.236,4.0909,0,6.1693e-05,616.5,2.5561e-05,63.239,1.7148e-05,0.025302,-6.0373e-05,-582.43,2.4712
13140,21.236,4.1818,0.05,7.2184e-07,7.2134,5.5428e-07,4.1647,6.1948e-13,9.9491e-06,-5.5428e-07,-4.1647,2.4711
13141,21.512,4.1818,0,5.6048e-05,560.1,2.4074e-05,68.004,1.5027e-05,0.02764,-5.4581e-05,-522.98,2.5174
13142,21.42,4.0909,0,5.7989e-05,579.49,2.4664e-05,67.335,1.5706e-05,0.027517,-5.6549e-05,-542.87,2.502
13143,21.42,4.1818,0.05,7.2155e-07,7.2105,5.5406e-07,4.163,6.7174e-13,8.4342e-06,-5.5406e-07,-4.163,2.5019
13144,21.697,4.1818,0,5.2405e-05,523.69,2.3223e-05,72.473,1.3582e-05,0.030388,-5.0794e-05,-483.67,2.5482
13145,21.605,4.0909,0,5.4334e-05,542.96,2.3807e-05,71.762,1.426e-05,0.030083,-5.2756e-05,-503.5,2.5328
13146,21.605,4.1818,0.05,7.2161e-07,7.2111,5.541e-07,4.1633,6.5317e-13,7.0163e-06,-5.5411e-07,-4.1633,2.5328
13147,21.881,4.1818,0,4.8815e-05,487.82,2.2415e-05,77.31,1.213e-05,0.033648,-4.7038e-05,-444.53,2.5791
13148,21.789,4.0909,0,5.073e-05,506.95,2.2992e-05,76.547,1.2808e-05,0.033105,-4.8992e-05,-464.31,2.5637
13149,21.789,4.1818,0.05,7.2207e-07,7.2158,5.5446e-07,4.166,3.6327e-13,1.0379e-05,-5.5446e-07,-4.166,2.5636
13150,22.065,4.1818,0,4.5286e-05,452.54,2.1652e-05,82.546,1.0671e-05,0.037556,-4.3313e-05,-405.57,2.61
13151,21.973,4.0909,0,4.7184e-05,471.51,2.2221e-05,81.72,1.135e-05,0.036702,-4.5259e-05,-425.3,2.5946
13152,21.973,4.1818,0.05,7.2301e-07,7.2251,5.5518e-07,4.1714,4.4233e-13,1.4834e-05,-5.5518e-07,-4.1714,2.5946
13153,22.249,4.1818,0,4.1823e-05,417.94,2.0938e-05,88.214,9.2032e-06,0.042311,-3.9618e-05,-366.78,2.641
13154,22.157,4.0909,0,4.3701e-05,436.71,2.1497e-05,87.312,9.8823e-06,0.041037,-4.1556e-05,-386.44,2.6256
13155,22.157,4.1818,0.05,7.2449e-07,7.2399,5.5632e-07,4.18,4.8444e-13,1.6193e-05,-5.5632e-07,-4.1799,2.6255
13156,22.434,4.1818,0,3.8438e-05,384.11,2.0276e-05,94.349,7.725e-06,0.048227,-3.5953e-05,-328.13,2.672
13157,22.342,4.0909,0,4.0291e-05,402.63,2.0824e-05,93.353,8.4052e-06,0.046352,-3.7882e-05,-347.74,2.6565
13158,22.342,4.1818,0.05,7.266e-07,7.261,5.5794e-07,4.1922,1.7741e-13,1.256e-05,-5.5794e-07,-4.1921,2.6565
13159,22.618,4.1818,0,3.5143e-05,351.19,1.9668e-05,100.99,6.2346e-06,0.055716,-3.2318e-05,-289.61,2.703
13160,22.526,4.0909,0,3.6964e-05,369.39,2.0202e-05,99.877,6.9166e-06,0.053059,-3.4238e-05,-309.17,2.6875
13161,22.526,4.1818,0.05,7.2945e-07,7.2894,5.6012e-07,4.2086,4.2762e-13,9.9391e-06,-5.6012e-07,-4.2085,2.6874
13162,22.802,4.1818,0,3.1956e-05,319.34,1.9116e-05,108.16,4.7301e-06,0.065775,-2.8711e-05,-251.2,2.734
13163,22.71,4.0909,0,3.3736e-05,337.13,1.9636e-05,106.91,5.4147e-06,0.061604,-3.0621e-05,-270.7,2.7185
13164,22.71,4.1818,0.05,7.3313e-07,7.3263,5.6296e-07,4.2298,7.7753e-13,6.9582e-06,-5.6296e-07,-4.2298,2.7185
13165,22.987,4.1818,0,2.8901e-05,288.81,1.8624e-05,115.9,3.2095e-06,0.078792,-2.5129e-05,-212.85,2.765
13166,22.894,4.0909,0,3.0628e-05,306.06,1.9126e-05,114.49,3.8978e-06,0.073608,-2.7029e-05,-232.3,2.7495
13167,22.894,4.1818,0.05,7.3779e-07,7.3728,5.6653e-07,4.2567,7.5955e-13,7.9402e-06,-5.6653e-07,-4.2567,2.7495
13168,23.171,4.1818,0,2.6012e-05,259.94,1.8191e-05,124.22,1.6709e-06,0.10094,-2.1569e-05,-174.52,2.7961
13169,23.079,4.0909,0,2.7666e-05,276.47,1.8673e-05,122.63,2.3635e-06,0.08839,-2.3459e-05,-193.93,2.7806
13170,23.079,4.1818,0.05,7.4354e-07,7.4302,5.7094e-07,4.2899,6.7049e-13,9.0305e-06,-5.7094e-07,-4.2898,2.7805
13171,23.355,4.1818,0,2.3338e-05,233.22,1.7816e-05,133.15,1.1133e-07,0.12305,-1.8025e-05,-136.15,2.8272
13172,23.263,4.0909,0,2.4893e-05,248.76,1.8277e-05,131.35,8.1087e-07,0.11941,-1.9906e-05,-155.54,2.8117
13173,23.263,4.1818,0.05,7.5048e-07,7.4996,5.7628e-07,4.3299,4.1838e-13,7.7851e-06,-5.7628e-07,-4.3299,2.8116
13174,23.539,4.1818,0,2.095e-05,209.36,1.7498e-05,142.7,-1.4651e-06,0.21755,-1.4493e-05,-97.672,2.8583
13175,23.447,4.0909,0,2.2365e-05,223.5,1.7936e-05,140.64,-7.6449e-07,0.13614,-1.6365e-05,-117.08,2.8427
13176,23.447,4.1818,0.05,7.5867e-07,7.5814,5.8256e-07,4.3771,7.8394e-13,8.2992e-06,-5.8256e-07,-4.3771,2.8427
13177,23.724,4.1818,0,1.8948e-05,189.35,1.7236e-05,152.8,-3.073e-06,0.20793,-1.0968e-05,-59.111,2.8893
13178,23.631,4.0909,0,2.0168e-05,201.54,1.7647e-05,150.56,-2.3488e-06,0.31983,-1.2835e-05,-78.468,2.8738
13179,23.631,4.1818,0.05,7.6844e-07,7.6791,5.9007e-07,4.4335,3.6023e-13,8.3632e-06,-5.9007e-07,-4.4335,2.8738
13180,23.816,4.0909,0,1.8417e-05,184.05,1.7412e-05,160.9,-3.9783e-06,0.18477,-9.3095e-06,-39.871,2.9049
13181,23.816,4.1818,0.05,7.8601e-07,7.8547,6.0356e-07,4.5349,7.2221e-13,7.8008e-06,-6.0356e-07,-4.5349,2.9049
13182,23.908,4.1818,0,1.7499e-05,174.86,1.701e-05,162.7,-4.588e-06,0.42377,-7.6371e-06,-22.486,2.9205
13183,1.2431,4,0,0.0013737,13727,0.00065558,2261.9,0.0003016,-397.79,-0.0013225,-12600,0.018626
13184,1.1509,3.9091,0,0.0015835,15824,0.00069299,1859.3,0.00039441,-384.06,-0.0015464,-14967,0.015892
13185,1.1509,4,0.05,0.00020082,2006.8,0.0001542,1158.6,-1.0046e-10,-0.0014569,-0.0001542,-1158.6,0.015124
13186,1.0588,4,0,0.0024225,24209,0.001175,4300.8,0.0005261,-575.03,-0.002322,-21975,0.012077
13187,1.4273,4,0,0.0010027,10020,0.00038751,699.84,0.00029787,26.327,-0.00098867,-9640.2,0.025929
13188,1.3352,3.9091,0,0.0011309,11302,0.00041501,537.04,0.00035112,56.968,-0.0011201,-10997,0.022696
13189,1.3352,4,0.05,3.576e-05,357.35,2.7459e-05,206.32,-1.9599e-11,-0.00066029,-2.7459e-05,-206.32,0.022096
13190,1.6116,4,0,0.00085088,8503,0.00029425,128.12,0.00026966,-56.648,-0.00084952,-8465.7,0.033851
13191,1.5195,3.9091,0,0.00093144,9308,0.00031787,52.58,0.00029437,-123.97,-0.00093253,-9342.4,0.030221
13192,1.5195,4,0.05,2.3894e-05,238.77,1.8347e-05,137.86,-4.5742e-11,-0.00066413,-1.8347e-05,-137.86,0.029732
13193,1.7959,4,0,0.00076063,7601,0.00026468,18.183,0.0002293,-247.59,-0.00076418,-7712.3,0.042323
13194,1.7037,3.9091,0,0.00081737,8168,0.00028875,17.081,0.00023863,-359.46,-0.00082254,-8332.7,0.038358
13195,1.7037,4,0.05,1.6348e-05,163.36,1.2553e-05,94.318,-4.3382e-11,-0.00065497,-1.2553e-05,-94.318,0.037944
13196,1.9801,4,0,0.00070015,6996.7,0.00025134,6.3193,0.00019659,-405.11,-0.00070603,-7187,0.0513
13197,1.888,3.9091,0,0.00074108,7405.7,0.00026993,5.2175,0.00020102,-512.59,-0.00074835,-7645.8,0.047041
13198,1.888,4,0.05,1.2372e-05,123.64,9.5003e-06,71.381,-4.5509e-11,-0.00054516,-9.5003e-06,-71.382,0.04668
13199,2.1644,4,0,0.00065703,6565.8,0.00024094,3.6839,0.00017523,-490.04,-0.00066391,-6795,0.06075
13200,2.0723,3.9091,0,0.0006874,6869.3,0.00025577,3.7318,0.00017667,-590.65,-0.00069545,-7143.4,0.056227
13201,2.0723,4,0.05,9.7411e-06,97.344,7.48e-06,56.202,-2.5887e-11,-0.000484,-7.48e-06,-56.202,0.055902
13202,2.3487,4,0,0.00062473,6243,0.00023204,2.2312,0.0001612,-530.02,-0.000632,-6489.8,0.070647
13203,2.2565,3.9091,0,0.00064756,6471.2,0.00024403,2.1833,0.00016071,-623.86,-0.00065586,-6759.3,0.065882
13204,2.2565,4,0.05,7.879e-06,78.736,6.0501e-06,45.458,-2.8638e-11,-0.00037142,-6.0501e-06,-45.458,0.065583
13205,2.5329,4,0,0.00059971,5993,0.00022428,1.5044,0.00015191,-542.26,-0.00060705,-6244.8,0.080973
13206,2.4408,3.9091,0,0.00061707,6166.5,0.00023412,1.5205,0.0001502,-629.04,-0.00062532,-6456,0.075983
13207,2.4408,4,0.05,6.4799e-06,64.754,4.9758e-06,37.386,-2.6607e-11,-0.00026098,-4.9758e-06,-37.386,0.0757
13208,2.7172,4,0,0.00057979,5793.9,0.00021742,1.0385,0.00014575,-537.45,-0.00058703,-6043.3,0.091711
13209,2.6251,3.9091,0,0.00059311,5927,0.00022558,1.0478,0.00014331,-617.11,-0.00060116,-6210.8,0.086508
13210,2.6251,4,0.05,5.3961e-06,53.924,4.1435e-06,31.133,-2.7217e-11,-0.0002626,-4.1435e-06,-31.133,0.086237
13211,2.9015,4,0,0.00056356,5631.8,0.0002113,0.7384,0.0001417,-522.23,-0.00057061,-5874.3,0.10285
13212,2.8093,3.9091,0,0.00057387,5734.7,0.00021814,0.74872,0.00013887,-594.87,-0.00058165,-6008.5,0.097442
13213,2.8093,4,0.05,4.5397e-06,45.366,3.4859e-06,26.192,-2.3023e-11,-0.00018791,-3.4859e-06,-26.192,0.097178
13214,3.0857,4,0,0.00055008,5497,0.00020581,0.53185,0.00013909,-500.79,-0.00055687,-5729.9,0.11437
13215,2.9936,3.9091,0,0.00055813,5577.5,0.00021158,0.5389,0.00013609,-566.68,-0.00056559,-5838.9,0.10877
13216,2.9936,4,0.05,3.8554e-06,38.527,2.9605e-06,22.244,-1.3194e-11,-0.0001853,-2.9605e-06,-22.244,0.10851
13217,3.27,4,0,0.00053865,5382.8,0.00020084,0.38718,0.00013745,-475.83,-0.00054516,-5604.7,0.12627
13218,3.1779,3.9091,0,0.00054503,5446.5,0.00020576,0.39178,0.00013445,-535.36,-0.00055215,-5694.2,0.12049
13219,3.1779,4,0.05,3.3055e-06,33.032,2.5382e-06,19.071,-1.3574e-11,-0.00014098,-2.5382e-06,-19.071,0.12023
13220,3.4543,4,0,0.0005288,5284.4,0.0001963,0.2837,0.00013649,-449.11,-0.000535,-5494.4,0.13855
13221,3.3621,3.9091,0,0.00053393,5335.6,0.00020053,0.28612,0.00013359,-502.73,-0.00054069,-5569,0.13258
13222,3.3621,4,0.05,2.8624e-06,28.604,2.198e-06,16.515,-9.8139e-12,-0.00010784,-2.198e-06,-16.515,0.13232
13223,3.6385,4,0,0.00052015,5197.9,0.00019214,0.20887,0.00013597,-421.77,-0.00052604,-5395.9,0.15118
13224,3.5464,3.9091,0,0.00052435,5239.9,0.00019581,0.20968,0.00013323,-469.96,-0.00053076,-5458.9,0.14503
13225,3.5464,4,0.05,2.5053e-06,25.036,1.9238e-06,14.454,-9.5223e-12,-9.4594e-05,-1.9238e-06,-14.454,0.14477
13226,3.8228,4,0,0.00051243,5120.7,0.00018828,0.1543,0.00013575,-394.56,-0.00051799,-5306.5,0.16418
13227,3.7307,3.9091,0,0.00051595,5155.9,0.0001915,0.15393,0.00013321,-437.81,-0.00052199,-5360.8,0.15785
13228,3.7307,4,0.05,2.2178e-06,22.163,1.703e-06,12.796,-7.1226e-12,-6.4261e-05,-1.703e-06,-12.796,0.15759
13229,4.0071,4,0,0.0005054,5050.6,0.00018469,0.11426,0.0001357,-367.97,-0.00051066,-5224.4,0.17752
13230,3.9149,3.9091,0,0.00050843,5080.8,0.00018754,0.1131,0.00013338,-406.77,-0.00051413,-5271.9,0.17102
13231,3.9149,4,0.05,1.9867e-06,19.853,1.5255e-06,11.462,-8.1946e-12,-5.5927e-05,-1.5255e-06,-11.462,0.17076
13232,4.1913,4,0,0.00049892,4985.8,0.00018132,0.084764,0.00013575,-342.32,-0.00050386,-5148.1,0.19121
13233,4.0992,3.9091,0,0.0005016,5012.5,0.00018386,0.083094,0.00013366,-377.12,-0.00050695,-5190.4,0.18454
13234,4.0992,4,0.05,1.8011e-06,17.999,1.3831e-06,10.392,-2.8082e-12,-3.6895e-05,-1.3831e-06,-10.392,0.18428
13235,4.3756,4,0,0.00049285,4925.1,0.00017813,0.062958,0.00013583,-317.8,-0.00049749,-5076.3,0.20525
13236,4.2835,3.9091,0,0.00049528,4949.4,0.00018043,0.060992,0.00013397,-349.02,-0.00050029,-5114.6,0.19841
13237,4.2835,4,0.05,1.6524e-06,16.512,1.2688e-06,9.5334,-3.6614e-12,-2.8687e-05,-1.2688e-06,-9.5334,0.19815
13238,4.5599,4,0,0.00048709,4867.5,0.00017511,0.046802,0.00013591,-294.53,-0.00049143,-5008.1,0.21962
13239,4.4677,3.9091,0,0.00048935,4890.1,0.0001772,0.044694,0.00013427,-322.56,-0.00049404,-5043.4,0.21262
13240,4.4677,4,0.05,1.5331e-06,15.32,1.1772e-06,8.8451,-6.2829e-13,-4.9772e-05,-1.1772e-06,-8.8453,0.21235
13241,4.7441,4,0,0.00048155,4812.2,0.00017223,0.034815,0.00013595,-272.55,-0.00048561,-4942.7,0.23433
13242,4.652,3.9091,0,0.00048371,4833.7,0.00017415,0.032673,0.00013452,-297.73,-0.00048808,-4975.7,0.22716
13243,4.652,4,0.05,1.4373e-06,14.363,1.1037e-06,8.2927,-6.2336e-13,-1.012e-05,-1.1037e-06,-8.2927,0.22689
13244,4.9284,4,0,0.00047619,4758.6,0.00016946,0.025916,0.00013593,-251.88,-0.00047997,-4879.5,0.24936
13245,4.8363,3.9091,0,0.00047828,4779.5,0.00017124,0.023814,0.0001347,-274.54,-0.00048236,-4910.8,0.24203
13246,4.8363,4,0.05,1.3602e-06,13.593,1.0445e-06,7.8479,1.4988e-12,-7.2784e-06,-1.0445e-06,-7.8479,0.24176
13247,5.1127,4,0,0.00047095,4706.2,0.00016679,0.019312,0.00013584,-232.51,-0.00047447,-4818.2,0.26472
13248,5.0205,3.9091,0,0.000473,4726.8,0.00016845,0.017296,0.00013479,-252.92,-0.0004768,-4848.2,0.25723
13249,5.0205,4,0.05,1.2979e-06,12.97,9.966e-07,7.488,2.4502e-12,-1.6881e-05,-9.966e-07,-7.4881,0.25696
13250,5.2969,4,0,0.0004658,4654.7,0.00016421,0.014418,0.00013567,-214.4,-0.00046907,-4758.2,0.28041
13251,5.2048,3.9091,0,0.00046784,4675.2,0.00016578,0.012519,0.00013479,-232.81,-0.00047136,-4787.2,0.27275
13252,5.2048,4,0.05,1.2471e-06,12.462,9.5762e-07,7.1951,3.2157e-12,-1.9701e-05,-9.5762e-07,-7.1952,0.27249
13253,5.4812,4,0,0.0004607,4603.8,0.00016171,0.010801,0.00013542,-197.51,-0.00046374,-4699.4,0.29641
13254,5.3891,3.9091,0,0.00046275,4624.3,0.00016319,0.0090349,0.00013469,-214.14,-0.00046602,-4727.6,0.2886
13255,5.3891,4,0.05,1.2055e-06,12.046,9.2564e-07,6.9549,2.582e-12,-1.478e-06,-9.2564e-07,-6.9549,0.28833
13256,5.6655,4,0,0.00045565,4553.3,0.00015928,0.00814,0.00013508,-181.79,-0.00045847,-4641.5,0.31273
13257,5.5733,3.9091,0,0.00045771,4573.9,0.00016069,0.0065135,0.00013449,-196.82,-0.00046074,-4669.2,0.30476
13258,5.5733,4,0.05,1.171e-06,11.702,8.9915e-07,6.7559,2.6566e-12,-1.2461e-05,-8.9917e-07,-6.756,0.30449
13259,5.8497,4,0,0.00045061,4503,0.00015691,0.0061959,0.00013466,-167.16,-0.00045323,-4584.3,0.32936
13260,5.7576,3.9091,0,0.0004527,4523.9,0.00015826,0.0047091,0.0001342,-180.78,-0.00045551,-4611.6,0.32123
13261,5.7576,4,0.05,1.1421e-06,11.413,8.7701e-07,6.5894,-4.2609e-13,-9.499e-06,-8.7701e-07,-6.5895,0.32097
13262,6.034,4,0,0.0004456,4452.9,0.00015459,0.0047896,0.00013415,-153.58,-0.00044801,-4527.7,0.34629
13263,5.9419,3.9091,0,0.00044771,4474,0.00015589,0.0034385,0.0001338,-165.94,-0.0004503,-4554.7,0.33801
13264,5.9419,4,0.05,1.1177e-06,11.17,8.5827e-07,6.4487,3.5295e-12,-7.0148e-06,-8.5828e-07,-6.4488,0.33775
13265,6.2183,4,0,0.00044058,4402.8,0.00015232,0.0037872,0.00013356,-140.98,-0.00044281,-4471.6,0.36353
13266,6.1261,3.9091,0,0.00044272,4424.2,0.00015357,0.002565,0.00013332,-152.21,-0.00044512,-4498.3,0.3551
13267,6.1261,4,0.05,1.0968e-06,10.961,8.4224e-07,6.3282,2.016e-12,-1.0693e-05,-8.4224e-07,-6.3283,0.35484
13268,6.4025,4,0,0.00043556,4352.6,0.00015009,0.0030877,0.00013288,-129.3,-0.00043762,-4415.8,0.38108
13269,6.3104,3.9091,0,0.00043774,4374.4,0.00015131,0.0019865,0.00013274,-139.51,-0.00043994,-4442.4,0.37249
13270,6.3104,4,0.05,1.0788e-06,10.78,8.2836e-07,6.2239,3.9531e-12,-8.1877e-06,-8.2837e-07,-6.2241,0.37223
13271,6.5868,4,0,0.00043054,4302.5,0.00014791,0.0026155,0.00013214,-118.48,-0.00043244,-4360.5,0.39891
13272,6.4947,3.9091,0,0.00043275,4324.5,0.00014909,0.0016261,0.00013208,-127.78,-0.00043478,-4386.9,0.39018
13273,6.4947,4,0.05,1.0629e-06,10.622,8.1621e-07,6.1327,4.2085e-12,-5.6744e-06,-8.1622e-07,-6.1328,0.38992
13274,6.7711,4,0,0.00042552,4252.2,0.00014576,0.0023136,0.00013132,-108.45,-0.00042726,-4305.4,0.41705
13275,6.6789,3.9091,0,0.00042775,4274.5,0.00014691,0.001427,0.00013135,-116.94,-0.00042962,-4331.8,0.40817
13276,6.6789,4,0.05,1.0489e-06,10.482,8.0545e-07,6.0518,2.5701e-12,-5.351e-06,-8.0546e-07,-6.0519,0.40791
13277,6.9553,4,0,0.00042048,4201.9,0.00014364,0.0021388,0.00013044,-99.182,-0.00042208,-4250.6,0.43547
13278,6.8632,3.9091,0,0.00042274,4224.5,0.00014477,0.0013457,0.00013053,-106.93,-0.00042445,-4276.9,0.42645
13279,6.8632,4,0.05,1.0364e-06,10.357,7.9583e-07,5.9795,2.6604e-12,-4.3714e-06,-7.9584e-07,-5.9796,0.42619
13280,7.1396,4,0,0.00041543,4151.5,0.00014156,0.0020584,0.0001295,-90.603,-0.0004169,-4196,0.45418
13281,7.0475,3.9091,0,0.00041772,4174.3,0.00014266,0.0013503,0.00012966,-97.686,-0.00041929,-4222.3,0.44501
13282,7.0475,4,0.05,1.0251e-06,10.244,7.8714e-07,5.9142,4.6084e-12,-4.9954e-06,-7.8714e-07,-5.9143,0.44476
13283,7.3239,4,0,0.00041038,4101,0.0001395,0.0020477,0.0001285,-82.668,-0.00041172,-4141.7,0.47317
13284,7.2317,3.9091,0,0.00041269,4124,0.00014058,0.0014167,0.00012871,-89.15,-0.00041413,-4167.9,0.46386
13285,7.2317,4,0.05,1.0148e-06,10.141,7.7921e-07,5.8547,1.0897e-12,-2.9427e-06,-7.7921e-07,-5.8547,0.46361
13286,7.5081,4,0,0.00040532,4050.4,0.00013747,0.0020882,0.00012744,-75.332,-0.00040655,-4087.5,0.49244
13287,7.416,3.9091,0,0.00040765,4073.7,0.00013853,0.0015265,0.00012771,-81.269,-0.00040897,-4113.7,0.48299
13288,7.416,4,0.05,1.0053e-06,10.046,7.7192e-07,5.7998,2.9971e-12,-4.4201e-06,-7.7193e-07,-5.8,0.48274
13289,7.6924,4,0,0.00040025,3999.7,0.00013546,0.002166,0.00012634,-68.55,-0.00040137,-4033.6,0.51199
13290,7.6003,3.9091,0,0.0004026,4023.2,0.00013651,0.0016667,0.00012666,-73.993,-0.0004038,-4059.7,0.5024
13291,7.6003,4,0.05,9.9648e-07,9.9579,7.6517e-07,5.7492,1.2381e-12,-4.5256e-07,-7.6518e-07,-5.7492,0.50215
13292,7.8767,4,0,0.00039517,3949,0.00013348,0.0022709,0.00012519,-62.282,-0.0003962,-3979.8,0.53181
13293,7.7845,3.9091,0,0.00039754,3972.6,0.00013451,0.0018276,0.00012555,-67.275,-0.00039864,-4005.9,0.52208
13294,7.7845,4,0.05,9.8828e-07,9.876,7.5887e-07,5.7019,3.1053e-12,-1.9157e-06,-7.5889e-07,-5.702,0.52184
13295,8.0609,4,0,0.00039009,3898.3,0.00013152,0.0023946,0.000124,-56.489,-0.00039102,-3926.2,0.5519
13296,7.9688,3.9091,0,0.00039247,3922,0.00013253,0.002001,0.0001244,-61.073,-0.00039348,-3952.2,0.54204
13297,7.9688,4,0.05,9.806e-07,9.7992,7.5297e-07,5.6575,4.981e-12,-2.5981e-06,-7.5298e-07,-5.6576,0.54179
13298,8.2452,4,0,0.00038501,3847.4,0.00012958,0.002532,0.00012277,-51.135,-0.00038585,-3872.8,0.57226
13299,8.1531,3.9091,0,0.0003874,3871.4,0.00013058,0.0021828,0.00012321,-55.346,-0.00038832,-3898.7,0.56226
13300,8.1531,4,0.05,9.7334e-07,9.7267,7.474e-07,5.6157,1.3985e-12,-1.2962e-06,-7.4741e-07,-5.6158,0.56201
13301,8.4295,4,0,0.00037992,3796.6,0.00012766,0.0026786,0.00012151,-46.188,-0.00038069,-3819.5,0.59287
13302,8.3373,3.9091,0,0.00038233,3820.7,0.00012864,0.0023691,0.00012198,-50.059,-0.00038316,-3845.5,0.58274
13303,8.3373,4,0.05,9.6647e-07,9.658,7.4213e-07,5.576,2.3535e-12,-1.0253e-06,-7.4213e-07,-5.5761,0.5825
13304,8.6137,4,0,0.00037484,3745.8,0.00012575,0.002831,0.00012021,-41.616,-0.00037553,-3766.4,0.61375
13305,8.5216,3.9091,0,0.00037725,3769.9,0.00012673,0.0025566,0.00012071,-45.177,-0.000378,-3792.3,0.60349
13306,8.5216,4,0.05,9.5993e-07,9.5927,7.371e-07,5.5383,2.3914e-12,-6.3845e-07,-7.3711e-07,-5.5384,0.60325
13307,8.798,4,0,0.00036975,3695,0.00012387,0.0029882,0.00011889,-37.391,-0.00037037,-3713.5,0.63488
13308,8.7059,3.9091,0,0.00037218,3719.2,0.00012483,0.0027445,0.00011941,-40.668,-0.00037285,-3739.4,0.62449
13309,8.7059,4,0.05,9.5368e-07,9.5302,7.3231e-07,5.5022,1.5093e-12,-4.114e-07,-7.3231e-07,-5.5023,0.62425
13310,8.9823,4,0,0.00036467,3644.2,0.000122,0.0031491,0.00011754,-33.486,-0.00036523,-3660.8,0.65626
13311,8.8901,3.9091,0,0.0003671,3668.5,0.00012295,0.0029315,0.00011809,-36.503,-0.00036771,-3686.6,0.64574
13312,8.8901,4,0.05,9.4769e-07,9.4704,7.277e-07,5.4677,2.4493e-12,-1.1273e-07,-7.2772e-07,-5.4678,0.64551
13313,9.1665,4,0,0.00035959,3593.4,0.00012014,0.0033128,0.00011616,-29.877,-0.00036008,-3608.2,0.67789
13314,9.0744,3.9091,0,0.00036202,3617.7,0.00012108,0.0031178,0.00011674,-32.656,-0.00036257,-3634,0.66725
13315,9.0744,4,0.05,9.4193e-07,9.4128,7.2329e-07,5.4344,2.481e-12,1.8413e-08,-7.2329e-07,-5.4346,0.66701
13316,9.3508,4,0,0.00035451,3542.6,0.0001183,0.0034797,0.00011477,-26.541,-0.00035495,-3555.8,0.69976
13317,9.2587,3.9091,0,0.00035695,3567,0.00011923,0.0033026,0.00011536,-29.102,-0.00035744,-3581.5,0.689
13318,9.2587,4,0.05,9.3638e-07,9.3573,7.1902e-07,5.4024,3.4084e-12,2.5927e-07,-7.1903e-07,-5.4025,0.68877
13319,9.5351,4,0,0.00034944,3492,0.00011647,0.0036505,0.00011335,-23.456,-0.00034983,-3503.6,0.72188
13320,9.4429,3.9091,0,0.00035188,3516.4,0.0001174,0.0034885,0.00011396,-25.818,-0.00035231,-3529.2,0.71099
13321,9.4429,4,0.05,9.3101e-07,9.3037,7.149e-07,5.3714,2.5314e-12,1.4211e-07,-7.149e-07,-5.3715,0.71076
13322,9.7193,4,0,0.00034437,3441.3,0.00011466,0.00383,0.00011192,-20.604,-0.00034472,-3451.6,0.74423
13323,9.6272,3.9091,0,0.00034682,3465.8,0.00011558,0.0036731,0.00011254,-22.783,-0.0003472,-3477.1,0.73322
13324,9.6272,4,0.05,9.258e-07,9.2517,7.109e-07,5.3414,3.4638e-12,1.2838e-06,-7.1091e-07,-5.3415,0.733
13325,9.9036,4,0,0.00033931,3390.8,0.00011286,0.0040175,0.00011047,-17.966,-0.00033961,-3399.7,0.76682
13326,9.8115,3.9091,0,0.00034176,3415.3,0.00011377,0.003869,0.00011111,-19.976,-0.0003421,-3425.2,0.75569
13327,9.8115,4,0.05,9.2075e-07,9.2012,7.0702e-07,5.3123,1.6629e-12,1.6498e-06,-7.0703e-07,-5.3123,0.75547
13328,10.088,4,0,0.00033426,3340.3,0.00011107,0.0042145,0.00010901,-15.525,-0.00033452,-3348,0.78964
13329,9.9957,3.9091,0,0.00033671,3364.8,0.00011197,0.0040627,0.00010966,-17.381,-0.000337,-3373.4,0.77839
13330,9.9957,4,0.05,9.1584e-07,9.1521,7.0325e-07,5.2839,1.6847e-12,1.3604e-06,-7.0325e-07,-5.284,0.77817
13331,10.272,4,0,0.00032922,3289.9,0.0001093,0.0044349,0.00010753,-13.266,-0.00032944,-3296.5,0.81268
13332,10.18,3.9091,0,0.00033167,3314.4,0.00011019,0.0042674,0.0001082,-14.98,-0.00033192,-3321.9,0.80132
13333,10.18,4,0.05,9.1105e-07,9.1042,6.9957e-07,5.2563,3.5098e-12,2.7884e-06,-6.9957e-07,-5.2563,0.8011
13334,10.456,4,0,0.00032419,3239.7,0.00010754,0.0046618,0.00010605,-11.174,-0.00032438,-3245.2,0.83595
13335,10.364,3.9091,0,0.00032664,3264.1,0.00010842,0.0044963,0.00010672,-12.759,-0.00032685,-3270.5,0.82447
13336,10.364,4,0.05,9.0638e-07,9.0575,6.9599e-07,5.2293,2.6207e-12,2.0522e-06,-6.9598e-07,-5.2294,0.82426
13337,10.641,4,0,0.00031917,3189.5,0.00010578,0.0049241,0.00010455,-9.2362,-0.00031932,-3194.1,0.85944
13338,10.549,3.9091,0,0.00032161,3213.9,0.00010666,0.0047005,0.00010524,-10.702,-0.0003218,-3219.3,0.84785
13339,10.549,4,0.05,9.018e-07,9.0118,6.9247e-07,5.2029,2.6366e-12,2.3927e-06,-6.9247e-07,-5.203,0.84764
13340,10.825,4,0,0.00031416,3139.4,0.00010404,0.0052918,0.00010305,-7.4401,-0.00031428,-3143.1,0.88314
13341,10.733,3.9091,0,0.0003166,3163.8,0.00010491,0.0049791,0.00010374,-8.796,-0.00031675,-3168.2,0.87144
13342,10.733,4,0.05,8.9731e-07,8.9669,6.8902e-07,5.177,3.5592e-12,2.4367e-06,-6.8903e-07,-5.1771,0.87123
13343,11.009,4,0,0.00030916,3089.5,0.00010231,0.0057774,0.00010154,-5.7744,-0.00030926,-3092.4,0.90706
13344,10.917,3.9091,0,0.0003116,3113.9,0.00010318,0.0053623,0.00010224,-7.0296,-0.00031172,-3117.4,0.89525
13345,10.917,4,0.05,8.9292e-07,8.923,6.8565e-07,5.1517,2.6604e-12,1.982e-06,-6.8565e-07,-5.1518,0.89505
13346,11.193,4,0,0.00030418,3039.7,0.00010059,0.0064658,0.00010002,-4.2286,-0.00030425,-3041.8,0.93119
13347,11.101,3.9091,0,0.00030661,3064,0.00010145,0.0058221,0.00010073,-5.3913,-0.00030671,-3066.7,0.91927
13348,11.101,4,0.05,8.8862e-07,8.88,6.8234e-07,5.1269,2.6703e-12,2.1503e-06,-6.8235e-07,-5.1269,0.91907
13349,11.378,4,0,0.00029921,2990,9.8877e-05,0.0076706,9.8504e-05,-2.793,-0.00029925,-2991.4,0.95552
13350,11.286,3.9091,0,0.00030164,3014.3,9.9733e-05,0.0065036,9.9217e-05,-3.8705,-0.0003017,-3016.2,0.9435
13351,11.286,4,0.05,8.8439e-07,8.8378,6.7909e-07,5.1024,2.6837e-12,1.7222e-06,-6.791e-07,-5.1025,0.9433
13352,11.562,4,0,0.00029425,2940.5,9.7175e-05,0.010773,9.698e-05,-1.46,-0.00029427,-2941.2,0.98006
13353,11.47,3.9091,0,0.00029668,2964.7,9.8026e-05,0.0077445,9.7698e-05,-2.4581,-0.00029672,-2966,0.96793
13354,11.47,4,0.05,8.8022e-07,8.7961,6.7589e-07,5.0784,2.6934e-12,2.2299e-06,-6.759e-07,-5.0785,0.96774
13355,11.746,4,0,0.00028931,2891.1,9.5487e-05,0.041513,9.5448e-05,-0.24668,-0.00028931,-2891.2,1.0048
13356,11.654,3.9091,0,0.00029173,2915.3,9.6328e-05,0.011503,9.6174e-05,-1.1467,-0.00029175,-2915.8,0.99257
13357,11.654,4,0.05,8.761e-07,8.755,6.7274e-07,5.0546,1.7939e-12,2.3521e-06,-6.7274e-07,-5.0547,0.99238
13358,11.931,4,0,0.00028438,2841.8,9.3925e-05,0.95978,9.3797e-05,-0.0050545,-0.00028436,-2841.3,1.0297
13359,11.838,3.9091,0,0.0002868,2866,9.4657e-05,0.14248,9.4631e-05,-0.052511,-0.00028679,-2865.9,1.0174
13360,11.838,4,0.05,8.7206e-07,8.7145,6.6962e-07,5.0313,1.8012e-12,2.7319e-06,-6.6964e-07,-5.0314,1.0172
13361,12.115,4,0,0.00027947,2792.7,9.2394e-05,2.0375,9.2123e-05,0.00019787,-0.00027943,-2791.7,1.0549
13362,12.023,3.9091,0,0.00028188,2816.8,9.3122e-05,1.2341,9.2958e-05,-0.0015123,-0.00028186,-2816.2,1.0424
13363,12.023,4,0.05,8.6807e-07,8.6747,6.6657e-07,5.0083,-9.5146e-15,3.178e-06,-6.6657e-07,-5.0084,1.0422
13364,12.299,4,0,0.00027457,2743.8,9.0862e-05,3.049,9.0456e-05,0.0017942,-0.00027452,-2742.3,1.0802
13365,12.207,3.9091,0,0.00027697,2767.8,9.1593e-05,2.2986,9.1287e-05,0.0015699,-0.00027693,-2766.7,1.0676
13366,12.207,4,0.05,8.6413e-07,8.6354,6.6354e-07,4.9856,1.8172e-12,3.6075e-06,-6.6355e-07,-4.9857,1.0675
13367,12.483,4,0,0.00026969,2695,8.933e-05,3.9976,8.8799e-05,0.0026006,-0.00026962,-2693,1.1057
13368,12.391,3.9091,0,0.00027209,2719,9.0063e-05,3.2967,8.9625e-05,0.0026857,-0.00027203,-2717.3,1.0931
13369,12.391,4,0.05,8.6024e-07,8.5965,6.6056e-07,4.9631,2.7339e-12,2.5497e-06,-6.6056e-07,-4.9632,1.0929
13370,12.668,4,0,0.00026482,2646.4,8.78e-05,4.8891,8.7149e-05,0.0031421,-0.00026474,-2643.9,1.1314
13371,12.575,3.9091,0,0.00026721,2670.3,8.8534e-05,4.2335,8.7971e-05,0.0033247,-0.00026714,-2668.2,1.1186
13372,12.575,4,0.05,8.5638e-07,8.5579,6.5759e-07,4.9409,2.7401e-12,2.472e-06,-6.576e-07,-4.9409,1.1185
13373,12.852,4,0,0.00025997,2597.9,8.627e-05,5.7289,8.5508e-05,0.0035404,-0.00025988,-2595.1,1.1572
13374,12.76,3.9091,0,0.00026236,2621.8,8.7005e-05,5.1146,8.6325e-05,0.0037899,-0.00026227,-2619.2,1.1444
13375,12.76,4,0.05,8.5257e-07,8.5198,6.5467e-07,4.9189,1.8372e-12,3.6039e-06,-6.5467e-07,-4.919,1.1442
13376,13.036,4,0,0.00025514,2549.7,8.4742e-05,6.5221,8.3874e-05,0.0038404,-0.00025503,-2546.4,1.1833
13377,12.944,3.9091,0,0.00025752,2573.4,8.5478e-05,5.9454,8.4687e-05,0.0041186,-0.00025742,-2570.4,1.1704
13378,12.944,4,0.05,8.4881e-07,8.4822,6.5178e-07,4.8972,2.7507e-12,4.0143e-06,-6.5178e-07,-4.8972,1.1702
13379,13.22,4,0,0.00025033,2501.6,8.3216e-05,7.2738,8.2248e-05,0.004074,-0.0002502,-2497.9,1.2095
13380,13.128,3.9091,0,0.0002527,2525.2,8.3953e-05,6.7312,8.3057e-05,0.0043813,-0.00025258,-2521.9,1.1965
13381,13.128,4,0.05,8.4508e-07,8.4449,6.4891e-07,4.8757,1.8472e-12,5.3029e-06,-6.4892e-07,-4.8757,1.1963
13382,13.405,4,0,0.00024553,2453.6,8.1693e-05,7.9887,8.063e-05,0.0042795,-0.0002454,-2449.6,1.2359
13383,13.313,3.9091,0,0.00024789,2477.2,8.243e-05,7.4769,8.1435e-05,0.0045798,-0.00024777,-2473.5,1.2228
13384,13.313,4,0.05,8.4138e-07,8.408,6.4607e-07,4.8543,1.8505e-12,4.9365e-06,-6.4607e-07,-4.8544,1.2226
13385,13.589,4,0,0.00024076,2405.9,8.0173e-05,8.6714,7.902e-05,0.0044959,-0.00024061,-2401.5,1.2624
13386,13.497,3.9091,0,0.00024311,2429.4,8.0909e-05,8.1873,7.982e-05,0.0047884,-0.00024297,-2425.3,1.2493
13387,13.497,4,0.05,8.377e-07,8.3712,6.4325e-07,4.8331,1.8529e-12,5.4377e-06,-6.4325e-07,-4.8332,1.2491
13388,13.773,4,0,0.000236,2358.3,7.8657e-05,9.326,7.7417e-05,0.0046992,-0.00023584,-2353.7,1.2891
13389,13.681,3.9091,0,0.00023834,2381.8,7.9393e-05,8.867,7.8213e-05,0.0050108,-0.00023819,-2377.3,1.2759
13390,13.681,4,0.05,8.3406e-07,8.3349,6.4045e-07,4.8121,1.8533e-12,4.1472e-06,-6.4046e-07,-4.8122,1.2757
13391,13.957,4,0,0.00023125,2310.9,7.7145e-05,9.9566,7.5821e-05,0.0048775,-0.00023108,-2306,1.316
13392,13.865,3.9091,0,0.00023359,2334.3,7.788e-05,9.5199,7.6613e-05,0.005196,-0.00023343,-2329.5,1.3027
13393,13.865,4,0.05,8.3046e-07,8.2989,6.3769e-07,4.7913,3.6761e-12,4.2955e-06,-6.377e-07,-4.7914,1.3025
13394,14.142,4,0,0.00022653,2263.8,7.5638e-05,10.567,7.4232e-05,0.005035,-0.00022635,-2258.5,1.343
13395,14.05,3.9091,0,0.00022886,2287,7.6371e-05,10.15,7.5021e-05,0.0053693,-0.00022868,-2281.9,1.3296
13396,14.05,4,0.05,8.2689e-07,8.2632,6.3495e-07,4.7708,9.4976e-13,4.6056e-06,-6.3495e-07,-4.7708,1.3295
13397,14.326,4,0,0.00022183,2216.8,7.4135e-05,11.162,7.265e-05,0.0051903,-0.00022164,-2211.1,1.3702
13398,14.234,3.9091,0,0.00022415,2239.9,7.4867e-05,10.762,7.3435e-05,0.0055143,-0.00022396,-2234.5,1.3567
13399,14.234,4,0.05,8.2334e-07,8.2277,6.3223e-07,4.7503,2.7721e-12,4.1454e-06,-6.3222e-07,-4.7503,1.3566
13400,14.51,4,0,0.00021714,2169.9,7.2638e-05,11.744,7.1075e-05,0.0053729,-0.00021694,-2164,1.3976
13401,14.418,3.9091,0,0.00021945,2193,7.3368e-05,11.36,7.1857e-05,0.0056853,-0.00021926,-2187.3,1.384
13402,14.418,4,0.05,8.1981e-07,8.1924,6.2951e-07,4.7299,1.8658e-12,4.5913e-06,-6.2951e-07,-4.7299,1.3838
13403,14.695,4,0,0.00021248,2123.3,7.1146e-05,12.317,6.9507e-05,0.0055589,-0.00021227,-2117.1,1.425
13404,14.602,3.9091,0,0.00021478,2146.3,7.1874e-05,11.946,7.0285e-05,0.0058865,-0.00021457,-2140.3,1.4114
13405,14.602,4,0.05,8.1631e-07,8.1575,6.2682e-07,4.7097,1.8633e-12,6.0115e-06,-6.2683e-07,-4.7098,1.4113
13406,14.879,4,0,0.00020783,2076.9,6.966e-05,12.885,6.7946e-05,0.0057301,-0.00020761,-2070.4,1.4527
13407,14.787,3.9091,0,0.00021012,2099.8,7.0386e-05,12.525,6.872e-05,0.0060636,-0.00020991,-2093.5,1.439
13408,14.787,4,0.05,8.1285e-07,8.1229,6.2416e-07,4.6897,1.8623e-12,7.7458e-06,-6.2417e-07,-4.6898,1.4388
13409,15.063,4,0,0.00020321,2030.7,6.8181e-05,13.45,6.6392e-05,0.0058902,-0.00020297,-2023.9,1.4804
13410,14.971,3.9091,0,0.00020549,2053.5,6.8905e-05,13.101,6.7162e-05,0.0062367,-0.00020526,-2046.9,1.4666
13411,14.971,4,0.05,8.0941e-07,8.0885,6.2152e-07,4.6699,1.8648e-12,6.4321e-06,-6.2153e-07,-4.6699,1.4665
13412,15.247,4,0,0.0001986,1984.6,6.6708e-05,14.018,6.4843e-05,0.006057,-0.00019836,-1977.6,1.5083
13413,15.155,3.9091,0,0.00020087,2007.4,6.743e-05,13.676,6.561e-05,0.0063932,-0.00020064,-2000.5,1.4945
13414,15.155,4,0.05,8.0599e-07,8.0543,6.189e-07,4.6502,1.8699e-12,7.6287e-06,-6.189e-07,-4.6502,1.4943
13415,15.432,4,0,0.00019402,1938.8,6.5243e-05,14.591,6.3302e-05,0.0062541,-0.00019376,-1931.5,1.5364
13416,15.339,3.9091,0,0.00019628,1961.4,6.5962e-05,14.255,6.4065e-05,0.0065799,-0.00019603,-1954.3,1.5225
13417,15.339,4,0.05,8.0259e-07,8.0204,6.1629e-07,4.6305,9.6133e-13,7.0709e-06,-6.1629e-07,-4.6306,1.5223
13418,15.616,4,0,0.00018945,1893.2,6.3785e-05,15.173,6.1766e-05,0.0064591,-0.00018919,-1885.6,1.5645
13419,15.524,3.9091,0,0.0001917,1915.7,6.4501e-05,14.841,6.2526e-05,0.0067977,-0.00019145,-1908.3,1.5506
13420,15.524,4,0.05,7.9922e-07,7.9867,6.137e-07,4.6111,2.7854e-12,5.3148e-06,-6.137e-07,-4.6111,1.5504
13421,15.8,4,0,0.00018491,1847.8,6.2335e-05,15.767,6.0237e-05,0.0066565,-0.00018463,-1839.9,1.5928
13422,15.708,3.9091,0,0.00018715,1870.2,6.3048e-05,15.438,6.0994e-05,0.0070004,-0.00018688,-1862.4,1.5788
13423,15.708,4,0.05,7.9589e-07,7.9534,6.1114e-07,4.5919,1.8788e-12,4.7612e-06,-6.1114e-07,-4.5919,1.5787
13424,15.984,4,0,0.00018038,1802.6,6.0893e-05,16.377,5.8714e-05,0.00685,-0.0001801,-1794.3,1.6213
13425,15.892,3.9091,0,0.00018262,1824.9,6.1602e-05,16.05,5.9467e-05,0.0072048,-0.00018234,-1816.8,1.6071
13426,15.892,4,0.05,7.9258e-07,7.9203,6.086e-07,4.5728,9.7548e-13,5.2504e-06,-6.086e-07,-4.5728,1.607
13427,16.169,4,0,0.00017588,1757.6,5.9459e-05,17.007,5.7197e-05,0.0070556,-0.00017558,-1749,1.6498
13428,16.077,3.9091,0,0.0001781,1779.8,6.0166e-05,16.679,5.7947e-05,0.0073998,-0.00017781,-1771.4,1.6356
13429,16.077,4,0.05,7.8929e-07,7.8875,6.0608e-07,4.5538,1.885e-12,5.4111e-06,-6.0608e-07,-4.5538,1.6355
13430,16.353,4,0,0.0001714,1712.8,5.8035e-05,17.66,5.5685e-05,0.007292,-0.00017109,-1703.9,1.6785
13431,16.261,3.9091,0,0.00017361,1734.9,5.8738e-05,17.331,5.6432e-05,0.0076274,-0.00017331,-1726.2,1.6642
13432,16.261,4,0.05,7.8603e-07,7.8549,6.0357e-07,4.535,1.437e-12,6.8393e-06,-6.0357e-07,-4.535,1.6641
13433,16.537,4,0,0.00016694,1668.2,5.662e-05,18.341,5.418e-05,0.0075424,-0.00016662,-1659,1.7073
13434,16.445,3.9091,0,0.00016914,1690.3,5.732e-05,18.009,5.4924e-05,0.0078883,-0.00016883,-1681.2,1.693
13435,16.445,4,0.05,7.828e-07,7.8226,6.0109e-07,4.5164,1.437e-12,6.3856e-06,-6.011e-07,-4.5164,1.6928
13436,16.721,4,0,0.0001625,1623.9,5.5215e-05,19.054,5.268e-05,0.0077938,-0.00016217,-1614.3,1.7362
13437,16.629,3.9091,0,0.0001647,1645.8,5.5911e-05,18.718,5.3421e-05,0.0081436,-0.00016437,-1636.4,1.7218
13438,16.629,4,0.05,7.7961e-07,7.7908,5.9865e-07,4.498,1.4444e-12,7.7727e-06,-5.9865e-07,-4.498,1.7217
13439,16.906,4,0,0.00015809,1579.8,5.382e-05,19.803,5.1185e-05,0.0080475,-0.00015774,-1569.8,1.7652
13440,16.814,3.9091,0,0.00016027,1601.6,5.4512e-05,19.461,5.1923e-05,0.0084052,-0.00015993,-1591.8,1.7507
13441,16.814,4,0.05,7.7646e-07,7.7592,5.9622e-07,4.4798,1.4497e-12,6.3737e-06,-5.9623e-07,-4.4798,1.7506
13442,17.09,4,0,0.00015369,1535.9,5.2436e-05,20.592,4.9696e-05,0.008319,-0.00015333,-1525.5,1.7943
13443,16.998,3.9091,0,0.00015587,1557.6,5.3124e-05,20.244,5.0431e-05,0.0086674,-0.00015551,-1547.4,1.7798
13444,16.998,4,0.05,7.7333e-07,7.728,5.9382e-07,4.4618,1.4526e-12,6.8836e-06,-5.9383e-07,-4.4618,1.7797
13445,17.274,4,0,0.00014932,1492.2,5.1063e-05,21.428,4.8212e-05,0.0086272,-0.00014895,-1481.4,1.8235
13446,17.182,3.9091,0,0.00015149,1513.8,5.1747e-05,21.071,4.8944e-05,0.0089643,-0.00015112,-1503.2,1.809
13447,17.182,4,0.05,7.7024e-07,7.6971,5.9145e-07,4.4439,1.4538e-12,7.1152e-06,-5.9145e-07,-4.4439,1.8088
13448,17.459,4,0,0.00014498,1448.8,4.9702e-05,22.314,4.6733e-05,0.0089541,-0.00014458,-1437.5,1.8528
13449,17.366,3.9091,0,0.00014713,1470.3,5.0382e-05,21.948,4.7462e-05,0.0092996,-0.00014674,-1459.2,1.8382
13450,17.366,4,0.05,7.6719e-07,7.6666,5.8911e-07,4.4263,1.0088e-12,6.6906e-06,-5.8911e-07,-4.4264,1.8381
13451,17.643,4,0,0.00014065,1405.6,4.8353e-05,23.256,4.5259e-05,0.00929,-0.00014024,-1393.8,1.8822
13452,17.551,3.9091,0,0.00014279,1427,4.9029e-05,22.879,4.5985e-05,0.0096361,-0.00014239,-1415.4,1.8676
13453,17.551,4,0.05,7.6419e-07,7.6367,5.8681e-07,4.409,1.0153e-12,7.2107e-06,-5.8681e-07,-4.409,1.8675
13454,17.827,4,0,0.00013635,1362.6,4.7017e-05,24.26,4.379e-05,0.0096395,-0.00013592,-1350.3,1.9117
13455,17.735,3.9091,0,0.00013848,1383.9,4.7689e-05,23.871,4.4513e-05,0.0099917,-0.00013806,-1371.8,1.897
13456,17.735,4,0.05,7.6124e-07,7.6071,5.8454e-07,4.392,1.1338e-13,5.6157e-06,-5.8454e-07,-4.392,1.8969
13457,18.011,4,0,0.00013208,1319.8,4.5695e-05,25.332,4.2325e-05,0.010015,-0.00013163,-1307,1.9413
13458,17.919,3.9091,0,0.0001342,1341.1,4.6362e-05,24.93,4.3046e-05,0.010355,-0.00013376,-1328.4,1.9266
13459,17.919,4,0.05,7.5833e-07,7.5781,5.823e-07,4.3752,1.031e-12,6.1516e-06,-5.823e-07,-4.3752,1.9265
13460,18.196,4,0,0.00012782,1277.4,4.4387e-05,26.479,4.0864e-05,0.010435,-0.00012735,-1263.9,1.971
13461,18.103,3.9091,0,0.00012994,1298.5,4.5049e-05,26.062,4.1582e-05,0.010764,-0.00012947,-1285.2,1.9562
13462,18.103,4,0.05,7.5547e-07,7.5495,5.8011e-07,4.3587,1.4932e-12,7.4497e-06,-5.8011e-07,-4.3587,1.9561
13463,18.38,4,0,0.0001236,1235.1,4.3094e-05,27.707,3.9408e-05,0.010886,-0.0001231,-1221,2.0008
13464,18.288,3.9091,0,0.0001257,1256.1,4.3752e-05,27.274,4.0123e-05,0.011218,-0.00012521,-1242.3,1.986
13465,18.288,4,0.05,7.5267e-07,7.5215,5.7796e-07,4.3426,1.4669e-13,8.9448e-06,-5.7796e-07,-4.3426,1.9859
13466,18.564,4,0,0.0001194,1193.1,4.1817e-05,29.025,3.7955e-05,0.01136,-0.00011888,-1178.4,2.0307
13467,18.472,3.9091,0,0.00012149,1214,4.2469e-05,28.574,3.8668e-05,0.011689,-0.00012098,-1199.5,2.0158
13468,18.472,4,0.05,7.4994e-07,7.4942,5.7586e-07,4.3268,1.5196e-12,1.0937e-05,-5.7586e-07,-4.3268,2.0157
13469,18.748,4,0,0.00011522,1151.4,4.0556e-05,30.44,3.6506e-05,0.011864,-0.00011467,-1135.9,2.0606
13470,18.656,3.9091,0,0.0001173,1172.2,4.1204e-05,29.969,3.7216e-05,0.012193,-0.00011676,-1156.9,2.0457
13471,18.656,4,0.05,7.4728e-07,7.4676,5.7381e-07,4.3114,1.0677e-12,7.1677e-06,-5.7382e-07,-4.3114,2.0456
13472,18.933,4,0,0.00011107,1110,3.9312e-05,31.96,3.506e-05,0.01241,-0.00011049,-1093.6,2.0906
13473,18.841,3.9091,0,0.00011314,1130.6,3.9955e-05,31.469,3.5768e-05,0.012723,-0.00011257,-1114.6,2.0757
13474,18.841,4,0.05,7.4468e-07,7.4417,5.7182e-07,4.2965,6.3405e-13,6.156e-06,-5.7183e-07,-4.2965,2.0756
13475,19.117,4,0,0.00010695,1068.8,3.8087e-05,33.596,3.3618e-05,0.013017,-0.00010634,-1051.6,2.1207
13476,19.025,3.9091,0,0.00010901,1089.3,3.8725e-05,33.083,3.4323e-05,0.013312,-0.00010841,-1072.4,2.1057
13477,19.025,4,0.05,7.4217e-07,7.4166,5.6989e-07,4.282,1.1152e-12,8.2032e-06,-5.6989e-07,-4.282,2.1056
13478,19.301,4,0,0.00010286,1027.9,3.6881e-05,35.357,3.2178e-05,0.013676,-0.00010221,-1009.7,2.1509
13479,19.209,3.9091,0,0.00010491,1048.3,3.7513e-05,34.819,3.2881e-05,0.013965,-0.00010427,-1030.5,2.1358
13480,19.209,4,0.05,7.3975e-07,7.3924,5.6803e-07,4.268,1.1306e-12,8.8952e-06,-5.6803e-07,-4.268,2.1358
13481,19.485,4,0,9.8792e-05,987.23,3.5696e-05,37.253,3.074e-05,0.014385,-9.8105e-05,-968.07,2.1811
13482,19.393,3.9091,0,0.00010083,1007.6,3.6322e-05,36.69,3.1441e-05,0.014661,-0.00010016,-988.75,2.166
13483,19.393,4,0.05,7.3742e-07,7.3692,5.6625e-07,4.2546,7.0667e-13,9.7198e-06,-5.6625e-07,-4.2546,2.166
13484,19.67,4,0,9.4756e-05,946.9,3.4532e-05,39.297,2.9304e-05,0.015153,-9.4026e-05,-926.64,2.2114
13485,19.578,3.9091,0,9.6784e-05,967.17,3.5153e-05,38.707,3.0003e-05,0.015416,-9.6067e-05,-947.23,2.1963
13486,19.578,4,0.05,7.3521e-07,7.347,5.6455e-07,4.2418,2.6466e-13,1.0621e-05,-5.6455e-07,-4.2418,2.1962
13487,19.854,4,0,9.075e-05,906.87,3.3391e-05,41.501,2.787e-05,0.015994,-8.9972e-05,-885.4,2.2418
13488,19.762,3.9091,0,9.2768e-05,927.04,3.4006e-05,40.881,2.8567e-05,0.01623,-9.2004e-05,-905.91,2.2266
13489,19.762,4,0.05,7.3311e-07,7.326,5.6294e-07,4.2297,7.4045e-13,9.3371e-06,-5.6294e-07,-4.2297,2.2266
13490,20.038,4,0,8.6776e-05,867.16,3.2274e-05,43.878,2.6436e-05,0.016932,-8.5946e-05,-844.38,2.2722
13491,19.946,3.9091,0,8.8783e-05,887.21,3.2883e-05,43.226,2.7132e-05,0.017137,-8.7968e-05,-864.8,2.257
13492,19.946,4,0.05,7.3114e-07,7.3063,5.6142e-07,4.2183,2.8228e-13,6.8955e-06,-5.6142e-07,-4.2183,2.257
13493,20.223,4,0,8.2833e-05,827.76,3.1183e-05,46.443,2.5004e-05,0.01797,-8.1945e-05,-803.56,2.3027
13494,20.13,3.9091,0,8.483e-05,847.71,3.1786e-05,45.757,2.5698e-05,0.018147,-8.3959e-05,-823.9,2.2875
13495,20.13,4,0.05,7.2931e-07,7.2881,5.6002e-07,4.2078,2.9637e-13,9.8669e-06,-5.6002e-07,-4.2078,2.2874
13496,20.407,4,0,7.8925e-05,788.71,3.0118e-05,49.211,2.3571e-05,0.019113,-7.7972e-05,-762.94,2.3332
13497,20.315,3.9091,0,8.0911e-05,808.55,3.0715e-05,48.489,2.4264e-05,0.019253,-7.9976e-05,-783.21,2.318
13498,20.315,4,0.05,7.2765e-07,7.2715,5.5875e-07,4.1982,7.5451e-13,1.1823e-05,-5.5875e-07,-4.1982,2.3179
13499,20.591,4,0,7.5052e-05,750,2.9083e-05,52.199,2.2138e-05,0.020383,-7.4027e-05,-722.53,2.3638
13500,20.499,3.9091,0,7.7027e-05,769.73,2.9673e-05,51.437,2.283e-05,0.020478,-7.6022e-05,-742.72,2.3486
13501,20.499,4,0.05,7.2617e-07,7.2567,5.5761e-07,4.1897,7.1751e-13,1.2489e-05,-5.5761e-07,-4.1896,2.3485
13502,20.775,4,0,7.1215e-05,711.66,2.8078e-05,55.426,2.0704e-05,0.021807,-7.011e-05,-682.31,2.3944
13503,20.683,3.9091,0,7.3179e-05,731.28,2.8661e-05,54.621,2.1395e-05,0.021838,-7.2096e-05,-702.43,2.3792
13504,20.683,4,0.05,7.2489e-07,7.2439,5.5662e-07,4.1823,2.5234e-13,1.4724e-05,-5.5662e-07,-4.1822,2.3791
13505,20.96,4,0,6.7417e-05,673.7,2.7105e-05,58.91,1.9268e-05,0.023422,-6.6221e-05,-642.3,2.4251
13506,20.867,3.9091,0,6.9369e-05,693.21,2.7682e-05,58.058,1.9958e-05,0.023374,-6.8198e-05,-662.35,2.4098
13507,20.867,4,0.05,7.2383e-07,7.2333,5.5581e-07,4.1762,7.171e-13,1.2532e-05,-5.5581e-07,-4.1761,2.4098
13508,21.144,4,0,6.3659e-05,636.15,2.6167e-05,62.673,1.7829e-05,0.025257,-6.2361e-05,-602.49,2.4559
13509,21.052,3.9091,0,6.56e-05,655.54,2.6736e-05,61.77,1.8518e-05,0.02512,-6.433e-05,-622.46,2.4405
13510,21.052,4,0.05,7.2303e-07,7.2253,5.552e-07,4.1715,5.3338e-13,1.3268e-05,-5.552e-07,-4.1715,2.4405
13511,21.328,4,0,5.9946e-05,599.04,2.5265e-05,66.738,1.6386e-05,0.027349,-5.853e-05,-562.87,2.4866
13512,21.236,3.9091,0,6.1873e-05,618.3,2.5826e-05,65.778,1.7075e-05,0.027096,-6.0491e-05,-582.77,2.4713
13513,21.236,4,0.05,7.2252e-07,7.2202,5.548e-07,4.1686,1.0243e-12,1.0735e-05,-5.548e-07,-4.1686,2.4712
13514,21.512,4,0,5.6278e-05,562.39,2.4402e-05,71.128,1.4939e-05,0.029758,-5.4729e-05,-523.43,2.5175
13515,21.42,3.9091,0,5.8192e-05,581.52,2.4955e-05,70.104,1.5628e-05,0.02936,-5.6681e-05,-543.28,2.5021
13516,21.42,4,0.05,7.2233e-07,7.2183,5.5466e-07,4.1675,8.3093e-13,1.0407e-05,-5.5466e-07,-4.1675,2.502
13517,21.697,4,0,5.2661e-05,526.25,2.358e-05,75.87,1.3487e-05,0.032567,-5.0958e-05,-484.18,2.5483
13518,21.605,3.9091,0,5.456e-05,545.22,2.4124e-05,74.774,1.4176e-05,0.031977,-5.2902e-05,-503.96,2.5329
13519,21.605,4,0.05,7.2252e-07,7.2202,5.548e-07,4.1686,6.1243e-13,1.1444e-05,-5.548e-07,-4.1686,2.5329
13520,21.881,4,0,4.9099e-05,490.66,2.2802e-05,80.99,1.2028e-05,0.035888,-4.7217e-05,-445.11,2.5792
13521,21.789,3.9091,0,5.0981e-05,509.46,2.3336e-05,79.813,1.2718e-05,0.035047,-4.9152e-05,-464.83,2.5638
13522,21.789,4,0.05,7.2313e-07,7.2263,5.5527e-07,4.1721,7.8035e-13,1.098e-05,-5.5527e-07,-4.1721,2.5637
13523,22.065,4,0,4.5599e-05,455.67,2.207e-05,86.517,1.0561e-05,0.039857,-4.3506e-05,-406.2,2.6101
13524,21.973,3.9091,0,4.746e-05,474.28,2.2592e-05,85.248,1.1252e-05,0.038693,-4.5431e-05,-425.86,2.5947
13525,21.973,4,0.05,7.2422e-07,7.2372,5.5611e-07,4.1784,6.2262e-13,1.6266e-05,-5.5611e-07,-4.1784,2.5946
13526,22.249,4,0,4.2166e-05,421.37,2.1387e-05,92.48,9.0841e-06,0.044674,-3.9824e-05,-367.43,2.6411
13527,22.157,3.9091,0,4.4004e-05,439.74,2.1896e-05,91.105,9.7768e-06,0.043078,-4.174e-05,-387.04,2.6256
13528,22.157,4,0.05,7.2587e-07,7.2537,5.5738e-07,4.1879,4.3795e-13,1.6731e-05,-5.5738e-07,-4.1879,2.6256
13529,22.434,4,0,3.8811e-05,387.84,2.0754e-05,98.908,7.5967e-06,0.050662,-3.617e-05,-328.8,2.672
13530,22.342,3.9091,0,4.0622e-05,405.94,2.125e-05,97.411,8.2916e-06,0.048447,-3.8078e-05,-348.35,2.6566
13531,22.342,4,0.05,7.2815e-07,7.2765,5.5913e-07,4.2011,3.4684e-13,1.4994e-05,-5.5913e-07,-4.2011,2.6565
13532,22.618,4,0,3.5547e-05,355.23,2.0174e-05,105.83,6.0967e-06,0.058237,-3.2544e-05,-290.27,2.703
13533,22.526,3.9091,0,3.7323e-05,372.97,2.0654e-05,104.19,6.7945e-06,0.05522,-3.4442e-05,-309.78,2.6876
13534,22.526,4,0.05,7.3116e-07,7.3065,5.6144e-07,4.2185,6.0582e-13,1.1511e-05,-5.6144e-07,-4.2184,2.6875
13535,22.802,4,0,3.2391e-05,323.69,1.9648e-05,113.27,4.5823e-06,0.068408,-2.8942e-05,-251.82,2.7341
13536,22.71,3.9091,0,3.4122e-05,340.99,2.0112e-05,111.47,5.2837e-06,0.063847,-3.083e-05,-271.28,2.7186
13537,22.71,4,0.05,7.3498e-07,7.3447,5.6437e-07,4.2405,4.8722e-13,1.0211e-05,-5.6437e-07,-4.2405,2.7185
13538,22.987,4,0,2.9367e-05,293.46,1.9177e-05,121.24,3.0515e-06,0.08158,-2.5361e-05,-213.4,2.7651
13539,22.894,3.9091,0,3.1041e-05,310.19,1.9622e-05,119.28,3.7577e-06,0.075968,-2.7241e-05,-232.84,2.7496
13540,22.894,4,0.05,7.3971e-07,7.392,5.6801e-07,4.2678,6.8503e-13,9.1678e-06,-5.6801e-07,-4.2678,2.7496
13541,23.171,4,0,2.6507e-05,264.89,1.8761e-05,129.77,1.5031e-06,0.10397,-2.1798e-05,-174.97,2.7962
13542,23.079,3.9091,0,2.8106e-05,280.87,1.9186e-05,127.61,2.2144e-06,0.090918,-2.367e-05,-194.39,2.7807
13543,23.079,4,0.05,7.4544e-07,7.4493,5.7241e-07,4.3008,8.3269e-13,1.1366e-05,-5.7241e-07,-4.3008,2.7806
13544,23.355,4,0,2.3862e-05,238.45,1.8398e-05,138.86,-6.5754e-08,0.12643,-1.8247e-05,-136.48,2.8272
13545,23.263,3.9091,0,2.5358e-05,253.41,1.8803e-05,136.49,6.532e-07,0.12222,-2.0112e-05,-155.9,2.8117
13546,23.263,4,0.05,7.5223e-07,7.5171,5.7762e-07,4.34,5.7779e-13,1.0317e-05,-5.7762e-07,-4.34,2.8117
13547,23.539,4,0,2.15e-05,214.85,1.8087e-05,148.52,-1.6504e-06,0.22182,-1.4706e-05,-97.869,2.8583
13548,23.447,3.9091,0,2.2855e-05,228.4,1.847e-05,145.9,-9.3009e-07,0.13932,-1.6563e-05,-117.32,2.8428
13549,23.447,4,0.05,7.6009e-07,7.5957,5.8366e-07,4.3854,5.1844e-13,9.7879e-06,-5.8366e-07,-4.3854,2.8428
13550,23.724,4,0,1.9518e-05,195.05,1.7825e-05,158.68,-3.2651e-06,0.21463,-1.1167e-05,-59.155,2.8894
13551,23.631,3.9091,0,2.068e-05,206.65,1.8185e-05,155.9,-2.5212e-06,0.32436,-1.3022e-05,-78.575,2.8739
13552,23.631,4,0.05,7.6925e-07,7.6872,5.9069e-07,4.4382,5.2687e-13,1.174e-05,-5.9069e-07,-4.4382,2.8739
13553,23.816,3.9091,0,1.8942e-05,189.29,1.7947e-05,166.27,-4.1556e-06,0.19376,-9.4834e-06,-39.838,2.905
13554,23.816,4,0.05,7.8439e-07,7.8385,6.0232e-07,4.5256,8.9426e-13,9.3058e-06,-6.0232e-07,-4.5256,2.905
13555,23.908,4,0,1.8089e-05,180.77,1.7606e-05,168.67,-4.7856e-06,0.42609,-7.831e-06,-22.456,2.9205
13556,1.2431,3.8182,0,0.0013658,13648,0.00046973,264.6,0.00044271,61.569,-0.0013601,-13484,0.019698
13557,1.1509,3.7273,0,0.0015075,15065,0.00050547,87.345,0.00049199,-13.893,-0.0015063,-15028,0.016962
13558,1.1509,3.8182,0.05,9.0226e-05,901.64,6.9282e-05,520.56,4.5282e-11,-0.0003597,-6.9282e-05,-520.56,0.016368
13559,1.4273,3.8182,0,0.0010626,10619,0.00036587,43.87,0.0003288,-234.72,-0.0010656,-10712,0.026777
13560,1.3352,3.7273,0,0.0011737,11729,0.00040855,28.033,0.00035363,-384.65,-0.0011793,-11902,0.023538
13561,1.3352,3.8182,0.05,4.7407e-05,473.75,3.6403e-05,273.52,-8.4271e-13,-0.00044846,-3.6403e-05,-273.52,0.023052
13562,1.6116,3.8182,0,0.00089851,8978.9,0.00032114,7.5233,0.00025471,-491.64,-0.0009057,-9210.5,0.034546
13563,1.5195,3.7273,0,0.00097763,9769.6,0.00035384,4.8575,0.00026902,-632.45,-0.00098675,-10068,0.030902
13564,1.5195,3.8182,0.05,2.6348e-05,263.3,2.0232e-05,152.01,-3.0439e-11,-0.00055315,-2.0232e-05,-152.01,0.0305
13565,1.7959,3.8182,0,0.00079786,7973.1,0.00029451,7.9334,0.00020966,-629.67,-0.00080652,-8264.8,0.042912
13566,1.7037,3.7273,0,0.0008552,8546.1,0.00031952,7.5045,0.00021769,-757.61,-0.00086538,-8895.4,0.038925
13567,1.7037,3.8182,0.05,1.8323e-05,183.11,1.407e-05,105.72,-2.9744e-11,-0.00046459,-1.407e-05,-105.72,0.038584
13568,1.9801,3.8182,0,0.00072826,7277.6,0.00027445,3.3023,0.00018079,-700.44,-0.00073756,-7600.6,0.051817
13569,1.888,3.7273,0,0.00077058,7700.5,0.00029399,3.0119,0.00018468,-818.33,-0.00078115,-8075.2,0.04753
13570,1.888,3.8182,0.05,1.3767e-05,137.57,1.0571e-05,79.428,-2.3368e-11,-0.00037326,-1.0571e-05,-79.428,0.047231
13571,2.1644,3.8182,0,0.00067788,6774.1,0.00025889,2.4571,0.00016195,-725.93,-0.00068724,-7106.4,0.061218
13572,2.0723,3.7273,0,0.00070956,7090.7,0.00027447,2.4495,0.00016307,-834.56,-0.00072,-7469.6,0.056662
13573,2.0723,3.8182,0.05,1.077e-05,107.63,8.2702e-06,62.139,-2.9648e-11,-0.00032166,-8.2702e-06,-62.139,0.056393
13574,2.3487,3.8182,0,0.00063988,6394.4,0.00024612,1.5724,0.00014958,-723.79,-0.00064908,-6724.6,0.071084
13575,2.2565,3.7273,0,0.00066383,6633.7,0.00025872,1.5535,0.00014889,-823.63,-0.00067395,-7006.2,0.066282
13576,2.2565,3.8182,0.05,8.6486e-06,86.426,6.6411e-06,49.898,-2.4077e-11,-0.00025896,-6.641e-06,-49.898,0.066034
13577,2.5329,3.8182,0,0.00061047,6100.5,0.00023543,1.1156,0.00014153,-704.44,-0.00061936,-6421.5,0.08139
13578,2.4408,3.7273,0,0.00062871,6282.8,0.00024573,1.1223,0.00013968,-795.71,-0.00063843,-6642.1,0.07636
13579,2.4408,3.8182,0.05,7.0639e-06,70.591,5.4242e-06,40.755,-2.063e-11,-0.00025369,-5.4242e-06,-40.756,0.076126
13580,2.7172,3.8182,0,0.0005872,5867.9,0.0002263,0.78773,0.00013638,-674.84,-0.00059574,-6175.7,0.092116
13581,2.6251,3.7273,0,0.0006012,6007.9,0.00023481,0.79229,0.00013385,-757.83,-0.00061048,-6350.4,0.086872
13582,2.6251,3.8182,0.05,5.8428e-06,58.387,4.4865e-06,33.71,-2.2775e-11,-0.00017196,-4.4865e-06,-33.71,0.086647
13583,2.9015,3.8182,0,0.00056846,5680.6,0.00021842,0.56741,0.00013323,-639.49,-0.00057661,-5973,0.10325
13584,2.8093,3.7273,0,0.00057929,5788.9,0.00022551,0.57153,0.00013033,-714.58,-0.00058811,-6112.7,0.097799
13585,2.8093,3.8182,0.05,4.8841e-06,48.807,3.7504e-06,28.179,-1.526e-11,-0.00016209,-3.7504e-06,-28.179,0.097579
13586,3.0857,3.8182,0,0.0005531,5527.2,0.00021153,0.41048,0.00013144,-601.34,-0.00056086,-5803.1,0.11477
13587,2.9936,3.7273,0,0.00056157,5611.8,0.0002175,0.41232,0.0001284,-669.02,-0.00056994,-5916.1,0.10913
13588,2.9936,3.8182,0.05,4.1234e-06,41.205,3.1662e-06,23.79,-1.3208e-11,-0.00018275,-3.1662e-06,-23.79,0.10891
13589,3.27,3.8182,0,0.00054032,5399.5,0.00020546,0.29843,0.00013058,-562.29,-0.00054768,-5658.4,0.12667
13590,3.1779,3.7273,0,0.00054701,5466.4,0.00021052,0.29855,0.00012755,-623.1,-0.00055494,-5751,0.12084
13591,3.1779,3.8182,0.05,3.516e-06,35.136,2.6998e-06,20.285,-7.8203e-12,-0.00013119,-2.6998e-06,-20.286,0.12063
13592,3.4543,3.8182,0,0.00052949,5291.3,0.00020004,0.21734,0.00013033,-523.59,-0.00053645,-5533.5,0.13895
13593,3.3621,3.7273,0,0.00053487,5345,0.00020438,0.21611,0.00012741,-578.1,-0.00054234,-5610.4,0.13293
13594,3.3621,3.8182,0.05,3.0295e-06,30.274,2.3262e-06,17.478,-8.6689e-12,-9.5562e-05,-2.3262e-06,-17.479,0.13272
13595,3.6385,3.8182,0,0.00052016,5198,0.00019518,0.15838,0.00013047,-486.01,-0.00052671,-5423.8,0.15159
13596,3.5464,3.7273,0,0.00052455,5241.9,0.00019893,0.15626,0.00012773,-534.8,-0.0005316,-5488.7,0.14539
13597,3.5464,3.8182,0.05,2.6392e-06,26.373,2.0266e-06,15.227,-3.2311e-12,-8.0646e-05,-2.0265e-06,-15.227,0.14518
13598,3.8228,3.8182,0,0.00051196,5116.1,0.00019076,0.11532,0.00013085,-450.03,-0.00051813,-5326.2,0.16459
13599,3.7307,3.7273,0,0.00051564,5152.8,0.00019404,0.11266,0.00012832,-493.66,-0.00052226,-5381.8,0.15821
13600,3.7307,3.8182,0.05,2.3259e-06,23.243,1.786e-06,13.419,-4.8093e-12,-5.719e-05,-1.786e-06,-13.419,0.158
13601,4.0071,3.8182,0,0.00050463,5042.8,0.00018671,0.083798,0.00013134,-415.93,-0.00051042,-5237.9,0.17794
13602,3.9149,3.7273,0,0.00050779,5074.4,0.00018961,0.08086,0.00012905,-454.92,-0.00051399,-5286.5,0.17139
13603,3.9149,3.8182,0.05,2.0745e-06,20.731,1.593e-06,11.969,-3.3846e-12,-6.5672e-05,-1.593e-06,-11.969,0.17117
13604,4.1913,3.8182,0,0.00049796,4976.2,0.00018298,0.06069,0.00013188,-383.83,-0.00050337,-5156.9,0.19163
13605,4.0992,3.7273,0,0.00050074,5004,0.00018555,0.05766,0.00012982,-418.69,-0.00050655,-5200.1,0.18492
13606,4.0992,3.8182,0.05,1.8728e-06,18.715,1.4381e-06,10.805,-2.9852e-12,-2.0557e-05,-1.4381e-06,-10.805,0.1847
13607,4.3756,3.8182,0,0.00049178,4914.4,0.0001795,0.043747,0.00013241,-353.78,-0.00049684,-5081.7,0.20567
13608,4.2835,3.7273,0,0.0004943,4939.6,0.00018182,0.040751,0.00013058,-384.96,-0.00049972,-5120.8,0.19879
13609,4.2835,3.8182,0.05,1.7109e-06,17.098,1.3138e-06,9.8712,-1.3911e-12,-4.9452e-05,-1.3138e-06,-9.8714,0.19857
13610,4.5599,3.8182,0,0.00048597,4856.4,0.00017624,0.031335,0.00013288,-325.77,-0.00049069,-5011,0.22005
13611,4.4677,3.7273,0,0.00048831,4879.7,0.00017835,0.028454,0.00013127,-353.67,-0.00049336,-5046.9,0.213
13612,4.4677,3.8182,0.05,1.5809e-06,15.799,1.214e-06,9.1212,8.6692e-13,-2.2768e-05,-1.214e-06,-9.1213,0.21278
13613,4.7441,3.8182,0,0.00048043,4801,0.00017316,0.022262,0.00013327,-299.73,-0.00048483,-4943.8,0.23476
13614,4.652,3.7273,0,0.00048265,4823.2,0.00017509,0.019545,0.00013187,-324.73,-0.00048736,-4977.4,0.22754
13615,4.652,3.8182,0.05,1.4764e-06,14.753,1.1337e-06,8.5179,-1.4192e-13,-2.8147e-05,-1.1337e-06,-8.5179,0.22732
13616,4.9284,3.8182,0,0.00047509,4747.6,0.00017023,0.015652,0.00013356,-275.58,-0.00047918,-4879.4,0.24979
13617,4.8363,3.7273,0,0.00047724,4769.1,0.00017202,0.013126,0.00013236,-298.01,-0.00048161,-4911.1,0.24242
13618,4.8363,3.8182,0.05,1.392e-06,13.91,1.0689e-06,8.0311,2.1428e-12,-1.4125e-05,-1.0689e-06,-8.0311,0.24219
13619,5.1127,3.8182,0,0.00046989,4695.7,0.00016744,0.010864,0.00013374,-253.22,-0.00047369,-4817.2,0.26516
13620,5.0205,3.7273,0,0.000472,4716.8,0.00016911,0.0085394,0.00013272,-273.37,-0.00047606,-4847.5,0.25762
13621,5.0205,3.8182,0.05,1.3236e-06,13.227,1.0164e-06,7.6367,1.261e-12,-1.1445e-05,-1.0164e-06,-7.6368,0.2574
13622,5.2969,3.8182,0,0.00046479,4644.7,0.00016476,0.007423,0.00013381,-232.54,-0.00046831,-4756.6,0.28084
13623,5.2048,3.7273,0,0.00046689,4665.6,0.00016632,0.0053012,0.00013296,-250.67,-0.00047064,-4785.9,0.27314
13624,5.2048,3.8182,0.05,1.2679e-06,12.671,9.7362e-07,7.3154,6.649e-13,-1.3514e-05,-9.7363e-07,-7.3155,0.27292
13625,5.4812,3.8182,0,0.00045976,4594.4,0.00016217,0.004978,0.00013376,-213.45,-0.00046302,-4697.4,0.29685
13626,5.3891,3.7273,0,0.00046185,4615.3,0.00016365,0.0030536,0.00013307,-229.78,-0.00046533,-4725.9,0.28899
13627,5.3891,3.8182,0.05,1.2223e-06,12.214,9.3855e-07,7.0519,2.5442e-12,-1.153e-05,-9.3856e-07,-7.052,0.28877
13628,5.6655,3.8182,0,0.00045477,4544.5,0.00015967,0.0032694,0.00013361,-195.82,-0.00045778,-4639.3,0.31316
13629,5.5733,3.7273,0,0.00045687,4565.5,0.00016108,0.0015326,0.00013305,-210.56,-0.00046009,-4667.2,0.30515
13630,5.5733,3.8182,0.05,1.1845e-06,11.837,9.0955e-07,6.834,1.3792e-12,-4.262e-06,-9.0956e-07,-6.8341,0.30493
13631,5.8497,3.8182,0,0.0004498,4494.9,0.00015724,0.0021044,0.00013334,-179.56,-0.00045258,-4581.9,0.32979
13632,5.7576,3.7273,0,0.00045192,4516.1,0.00015859,0.00054277,0.00013291,-192.89,-0.00045489,-4609.4,0.32162
13633,5.7576,3.8182,0.05,1.153e-06,11.522,8.8537e-07,6.6523,3.7841e-12,-5.7078e-06,-8.8536e-07,-6.6523,0.3214
13634,6.034,3.8182,0,0.00044484,4445.3,0.00015487,0.0013397,0.00013297,-164.56,-0.00044741,-4525.3,0.34673
13635,5.9419,3.7273,0,0.00044699,4466.8,0.00015617,-6.0312e-05,0.00013266,-176.63,-0.00044973,-4552.5,0.33841
13636,5.9419,3.8182,0.05,1.1265e-06,11.257,8.6498e-07,6.4991,3.7738e-12,-5.6962e-06,-8.6498e-07,-6.4991,0.33819
13637,6.2183,3.8182,0,0.00043988,4395.8,0.00015256,0.00086854,0.0001325,-150.74,-0.00044225,-4469.2,0.36397
13638,6.1261,3.7273,0,0.00044206,4417.5,0.00015381,-0.0003833,0.0001323,-161.68,-0.00044458,-4496.1,0.35549
13639,6.1261,3.8182,0.05,1.1039e-06,11.031,8.4763e-07,6.3687,4.1323e-12,-5.0268e-06,-8.4762e-07,-6.3687,0.35528
13640,6.4025,3.8182,0,0.00043492,4346.2,0.0001503,0.00061163,0.00013194,-137.99,-0.0004371,-4413.5,0.38151
13641,6.3104,3.7273,0,0.00043712,4368.2,0.00015152,-0.00050604,0.00013183,-147.93,-0.00043945,-4440.3,0.37288
13642,6.3104,3.8182,0.05,1.0844e-06,10.837,8.3269e-07,6.2564,4.307e-12,-7.5047e-06,-8.3269e-07,-6.2565,0.37267
13643,6.5868,3.8182,0,0.00042995,4296.5,0.00014809,0.00051005,0.00013129,-126.24,-0.00043196,-4358.3,0.39934
13644,6.4947,3.7273,0,0.00043218,4318.8,0.00014927,-0.00048634,0.00013126,-135.29,-0.00043432,-4384.9,0.39057
13645,6.4947,3.8182,0.05,1.0675e-06,10.667,8.1969e-07,6.1588,2.5665e-12,-3.147e-06,-8.197e-07,-6.1588,0.39036
13646,6.7711,3.8182,0,0.00042497,4246.8,0.00014592,0.00051964,0.00013056,-115.41,-0.00042681,-4303.3,0.41747
13647,6.6789,3.7273,0,0.00042723,4269.3,0.00014707,-0.00036756,0.00013061,-123.65,-0.0004292,-4329.8,0.40856
13648,6.6789,3.8182,0.05,1.0526e-06,10.519,8.0826e-07,6.0729,-9.0118e-13,-4.2807e-06,-8.0826e-07,-6.073,0.40834
13649,6.9553,3.8182,0,0.00041998,4196.9,0.00014378,0.00060788,0.00012975,-105.43,-0.00042167,-4248.6,0.4359
13650,6.8632,3.7273,0,0.00042226,4219.7,0.0001449,-0.0001815,0.00012987,-112.94,-0.00042407,-4275,0.42683
13651,6.8632,3.8182,0.05,1.0394e-06,10.386,7.981e-07,5.9966,-7.1313e-13,-3.9181e-06,-7.981e-07,-5.9967,0.42662
13652,7.1396,3.8182,0,0.00041497,4146.8,0.00014168,0.00075107,0.00012887,-96.23,-0.00041652,-4194.1,0.4546
13653,7.0475,3.7273,0,0.00041728,4169.9,0.00014278,4.8944e-05,0.00012906,-103.09,-0.00041894,-4220.5,0.44539
13654,7.0475,3.8182,0.05,1.0275e-06,10.268,7.8898e-07,5.9281,1.0876e-12,-5.4814e-06,-7.8899e-07,-5.9282,0.44518
13655,7.3239,3.8182,0,0.00040995,4096.7,0.00013961,0.0009309,0.00012793,-87.746,-0.00041138,-4139.9,0.47359
13656,7.2317,3.7273,0,0.00041228,4120,0.00014068,0.00030678,0.00012817,-94.013,-0.0004138,-4166.2,0.46424
13657,7.2317,3.8182,0.05,1.0167e-06,10.16,7.8072e-07,5.8659,3.0263e-12,-4.1889e-06,-7.8072e-07,-5.8661,0.46403
13658,7.5081,3.8182,0,0.00040493,4046.5,0.00013757,0.0011344,0.00012693,-79.923,-0.00040623,-4085.8,0.49286
13659,7.416,3.7273,0,0.00040727,4069.9,0.00013862,0.00057968,0.00012722,-85.659,-0.00040866,-4112.1,0.48337
13660,7.416,3.8182,0.05,1.0069e-06,10.062,7.7317e-07,5.8092,1.2714e-12,-4.1608e-06,-7.7316e-07,-5.8093,0.48316
13661,7.6924,3.8182,0,0.00039989,3996.1,0.00013555,0.0013525,0.00012587,-72.71,-0.00040107,-4032,0.5124
13662,7.6003,3.7273,0,0.00040225,4019.8,0.00013659,0.0008596,0.00012621,-77.963,-0.00040352,-4058.2,0.50277
13663,7.6003,3.8182,0.05,9.9782e-07,9.9713,7.662e-07,5.7569,3.1149e-12,-2.7516e-06,-7.6621e-07,-5.757,0.50257
13664,7.8767,3.8182,0,0.00039484,3945.7,0.00013356,0.0015775,0.00012476,-66.057,-0.00039592,-3978.3,0.53222
13665,7.7845,3.7273,0,0.00039722,3969.5,0.00013458,0.00114,0.00012515,-70.873,-0.00039838,-4004.5,0.52245
13666,7.7845,3.8182,0.05,9.8941e-07,9.8872,7.5973e-07,5.7084,3.1767e-12,-3.2024e-06,-7.5975e-07,-5.7084,0.52225
13667,8.0609,3.8182,0,0.00038979,3895.2,0.00013159,0.0018051,0.00012361,-59.921,-0.00039077,-3924.8,0.55231
13668,7.9688,3.7273,0,0.00039218,3919.1,0.00013259,0.0014166,0.00012403,-64.339,-0.00039324,-3950.9,0.5424
13669,7.9688,3.8182,0.05,9.8154e-07,9.8087,7.537e-07,5.663,-3.9601e-13,-2.509e-06,-7.5371e-07,-5.6631,0.5422
13670,8.2452,3.8182,0,0.00038473,3844.6,0.00012964,0.0020323,0.00012242,-54.26,-0.00038562,-3871.4,0.57266
13671,8.1531,3.7273,0,0.00038714,3868.7,0.00013063,0.0016868,0.00012287,-58.316,-0.0003881,-3897.5,0.56262
13672,8.1531,3.8182,0.05,9.7415e-07,9.7348,7.4802e-07,5.6204,3.2702e-12,-1.2069e-06,-7.4803e-07,-5.6204,0.56242
13673,8.4295,3.8182,0,0.00037966,3794,0.00012771,0.0022565,0.00012118,-49.037,-0.00038047,-3818.3,0.59327
13674,8.3373,3.7273,0,0.00038208,3818.2,0.00012869,0.0019495,0.00012167,-52.764,-0.00038295,-3844.3,0.5831
13675,8.3373,3.8182,0.05,9.6717e-07,9.665,7.4266e-07,5.5801,1.4914e-12,-1.0198e-06,-7.4267e-07,-5.5801,0.5829
13676,8.6137,3.8182,0,0.00037459,3743.4,0.0001258,0.0024768,0.00011991,-44.216,-0.00037533,-3765.3,0.61414
13677,8.5216,3.7273,0,0.00037702,3767.6,0.00012677,0.0022033,0.00012043,-47.643,-0.00037781,-3791.2,0.60384
13678,8.5216,3.8182,0.05,9.6054e-07,9.5987,7.3757e-07,5.5418,2.4298e-12,-1.2823e-06,-7.3757e-07,-5.5419,0.60365
13679,8.798,3.8182,0,0.00036953,3692.7,0.00012391,0.0026921,0.00011862,-39.767,-0.00037019,-3712.4,0.63527
13680,8.7059,3.7273,0,0.00037196,3717.1,0.00012487,0.002448,0.00011916,-42.92,-0.00037268,-3738.3,0.62484
13681,8.7059,3.8182,0.05,9.5422e-07,9.5356,7.3272e-07,5.5054,3.3752e-12,-5.535e-07,-7.3272e-07,-5.5054,0.62464
13682,8.9823,3.8182,0,0.00036446,3642.1,0.00012203,0.0029025,0.00011729,-35.66,-0.00036505,-3659.8,0.65665
13683,8.8901,3.7273,0,0.0003669,3666.5,0.00012298,0.0026843,0.00011785,-38.561,-0.00036754,-3685.6,0.64609
13684,8.8901,3.8182,0.05,9.4817e-07,9.4751,7.2807e-07,5.4704,3.3992e-12,1.082e-07,-7.2808e-07,-5.4705,0.6459
13685,9.1665,3.8182,0,0.00035939,3591.4,0.00012017,0.0031082,0.00011593,-31.867,-0.00035992,-3607.3,0.67827
13686,9.0744,3.7273,0,0.00036184,3615.9,0.00012111,0.002912,0.00011652,-34.539,-0.00036242,-3633.1,0.66759
13687,9.0744,3.8182,0.05,9.4235e-07,9.417,7.2361e-07,5.4369,6.8668e-13,-6.4508e-07,-7.2362e-07,-5.437,0.6674
13688,9.3508,3.8182,0,0.00035433,3540.8,0.00011833,0.0033104,0.00011455,-28.365,-0.0003548,-3554.9,0.70014
13689,9.2587,3.7273,0,0.00035678,3565.3,0.00011926,0.003132,0.00011516,-30.827,-0.00035729,-3580.7,0.68934
13690,9.2587,3.8182,0.05,9.3676e-07,9.3611,7.1931e-07,5.4046,1.6288e-12,-2.4079e-07,-7.1932e-07,-5.4047,0.68915
13691,9.5351,3.8182,0,0.00034927,3490.3,0.0001165,0.0035089,0.00011316,-25.129,-0.00034969,-3502.7,0.72225
13692,9.4429,3.7273,0,0.00035172,3514.8,0.00011742,0.0033467,0.00011378,-27.399,-0.00035218,-3528.4,0.71133
13693,9.4429,3.8182,0.05,9.3135e-07,9.3071,7.1516e-07,5.3734,2.5582e-12,-1.0748e-07,-7.1517e-07,-5.3735,0.71114
13694,9.7193,3.8182,0,0.00034421,3439.7,0.00011469,0.0037087,0.00011174,-22.139,-0.00034458,-3450.8,0.7446
13695,9.6272,3.7273,0,0.00034667,3464.3,0.0001156,0.0035535,0.00011237,-24.232,-0.00034708,-3476.4,0.73355
13696,9.6272,3.8182,0.05,9.2612e-07,9.2548,7.1114e-07,5.3432,3.4871e-12,7.571e-07,-7.1115e-07,-5.3433,0.73337
13697,9.9036,3.8182,0,0.00033916,3389.3,0.00011288,0.0039098,0.0001103,-19.375,-0.00033949,-3398.9,0.76718
13698,9.8115,3.7273,0,0.00034162,3413.9,0.00011379,0.0037654,0.00011095,-21.307,-0.00034198,-3424.5,0.75602
13699,9.8115,3.8182,0.05,9.2104e-07,9.204,7.0724e-07,5.3139,1.6854e-12,1.3755e-06,-7.0725e-07,-5.314,0.75583
13700,10.088,3.8182,0,0.00033412,3338.9,0.00011109,0.0041106,0.00010885,-16.819,-0.00033441,-3347.3,0.78999
13701,9.9957,3.7273,0,0.00033658,3363.5,0.00011199,0.0039678,0.00010952,-18.603,-0.00033689,-3372.8,0.77871
13702,9.9957,3.8182,0.05,9.161e-07,9.1547,7.0345e-07,5.2854,2.6078e-12,1.1278e-06,-7.0345e-07,-5.2855,0.77853
13703,10.272,3.8182,0,0.00032909,3288.6,0.00010932,0.0043235,0.00010739,-14.455,-0.00032933,-3295.8,0.81303
13704,10.18,3.7273,0,0.00033155,3313.2,0.00011021,0.0041726,0.00010806,-16.103,-0.00033182,-3321.2,0.80164
13705,10.18,3.8182,0.05,9.1129e-07,9.1066,6.9976e-07,5.2577,2.6235e-12,1.7279e-06,-6.9976e-07,-5.2577,0.80146
13706,10.456,3.8182,0,0.00032407,3238.4,0.00010755,0.0045295,0.00010592,-12.268,-0.00032427,-3244.5,0.8363
13707,10.364,3.7273,0,0.00032652,3263,0.00010844,0.0043922,0.0001066,-13.79,-0.00032676,-3269.8,0.82479
13708,10.364,3.8182,0.05,9.066e-07,9.0597,6.9616e-07,5.2306,2.6367e-12,1.338e-06,-6.9616e-07,-5.2307,0.82461
13709,10.641,3.8182,0,0.00031905,3188.3,0.00010579,0.00475,0.00010443,-10.242,-0.00031923,-3193.4,0.85978
13710,10.549,3.7273,0,0.00032151,3212.9,0.00010667,0.004573,0.00010512,-11.65,-0.0003217,-3218.7,0.84816
13711,10.549,3.8182,0.05,9.0201e-07,9.0139,6.9263e-07,5.2041,2.6485e-12,1.8835e-06,-6.9263e-07,-5.2042,0.84798
13712,10.825,3.8182,0,0.00031405,3138.3,0.00010405,0.0050438,0.00010294,-8.3659,-0.00031419,-3142.5,0.88348
13713,10.733,3.7273,0,0.0003165,3162.8,0.00010492,0.0048082,0.00010364,-9.6683,-0.00031666,-3167.7,0.87175
13714,10.733,3.8182,0.05,8.975e-07,8.9688,6.8917e-07,5.1781,2.6592e-12,1.6809e-06,-6.8917e-07,-5.1782,0.87158
13715,11.009,3.8182,0,0.00030906,3088.5,0.00010232,0.0053987,0.00010144,-6.6263,-0.00030917,-3091.8,0.90739
13716,10.917,3.7273,0,0.00031151,3112.9,0.00010319,0.0051161,0.00010214,-7.8322,-0.00031164,-3116.8,0.89555
13717,10.917,3.8182,0.05,8.931e-07,8.9248,6.8579e-07,5.1528,2.6705e-12,1.3543e-06,-6.8579e-07,-5.1528,0.89538
13718,11.193,3.8182,0,0.00030408,3038.7,0.00010059,0.0058399,9.9927e-05,-5.0126,-0.00030416,-3041.2,0.93152
13719,11.101,3.7273,0,0.00030652,3063.1,0.00010146,0.0054428,0.00010064,-6.1298,-0.00030663,-3066.2,0.91957
13720,11.101,3.8182,0.05,8.8878e-07,8.8817,6.8248e-07,5.1278,8.6137e-13,1.3556e-06,-6.8247e-07,-5.1279,0.9194
13721,11.378,3.8182,0,0.00029911,2989.1,9.8882e-05,0.0064952,9.8413e-05,-3.5144,-0.00029917,-2990.8,0.95585
13722,11.286,3.7273,0,0.00030155,3013.5,9.9738e-05,0.0058681,9.9132e-05,-4.5502,-0.00030163,-3015.7,0.94379
13723,11.286,3.8182,0.05,8.8454e-07,8.8393,6.7921e-07,5.1033,2.6885e-12,8.3215e-07,-6.7922e-07,-5.1034,0.94363
13724,11.562,3.8182,0,0.00029416,2939.6,9.7179e-05,0.0078111,9.6895e-05,-2.1225,-0.0002942,-2940.6,0.98038
13725,11.47,3.7273,0,0.0002966,2963.9,9.803e-05,0.0065106,9.7618e-05,-3.0833,-0.00029665,-2965.4,0.96822
13726,11.47,3.8182,0.05,8.8036e-07,8.7975,6.7601e-07,5.0792,2.698e-12,1.5452e-06,-6.7601e-07,-5.0793,0.96806
13727,11.746,3.8182,0,0.00028922,2890.2,9.5485e-05,0.012697,9.5373e-05,-0.83074,-0.00028924,-2890.6,1.0051
13728,11.654,3.7273,0,0.00029165,2914.5,9.6331e-05,0.0079866,9.6101e-05,-1.72,-0.00029168,-2915.4,0.99285
13729,11.654,3.8182,0.05,8.7624e-07,8.7563,6.7284e-07,5.0554,8.8622e-13,1.6063e-06,-6.7284e-07,-5.0555,0.99269
13730,11.931,3.8182,0,0.0002843,2841,9.3852e-05,0.40171,9.3797e-05,-0.011464,-0.00028429,-2840.8,1.03
13731,11.838,3.7273,0,0.00028672,2865.2,9.4642e-05,0.016486,9.4579e-05,-0.45778,-0.00028673,-2865.5,1.0177
13732,11.838,3.8182,0.05,8.7218e-07,8.7158,6.6973e-07,5.032,1.8029e-12,1.8622e-06,-6.6973e-07,-5.0321,1.0175
13733,12.115,3.8182,0,0.00027939,2792,9.2325e-05,1.5171,9.2123e-05,0.00080551,-0.00027936,-2791.2,1.0552
13734,12.023,3.7273,0,0.00028181,2816.1,9.3058e-05,0.74527,9.2959e-05,-0.0019063,-0.00028179,-2815.7,1.0427
13735,12.023,3.8182,0.05,8.6819e-07,8.6759,6.6666e-07,5.009,9.0058e-13,2.1988e-06,-6.6666e-07,-5.009,1.0426
13736,12.299,3.8182,0,0.00027449,2743,9.0797e-05,2.5694,9.0456e-05,0.0026759,-0.00027445,-2741.8,1.0805
13737,12.207,3.7273,0,0.0002769,2767.1,9.1533e-05,1.8473,9.1287e-05,0.0024757,-0.00027687,-2766.2,1.0679
13738,12.207,3.8182,0.05,8.6424e-07,8.6365,6.6363e-07,4.9863,2.7261e-12,2.6047e-06,-6.6363e-07,-4.9863,1.0678
13739,12.483,3.8182,0,0.00026962,2694.3,8.927e-05,3.5562,8.8797e-05,0.0034826,-0.00026955,-2692.5,1.106
13740,12.391,3.7273,0,0.00027202,2718.3,9.0007e-05,2.8812,8.9624e-05,0.0035938,-0.00027197,-2716.9,1.0933
13741,12.391,3.8182,0.05,8.6034e-07,8.5975,6.6063e-07,4.9637,3.6417e-12,1.6486e-06,-6.6064e-07,-4.9638,1.0932
13742,12.668,3.8182,0,0.00026475,2645.7,8.7743e-05,4.4831,8.7147e-05,0.0039973,-0.00026468,-2643.5,1.1317
13743,12.575,3.7273,0,0.00026715,2669.7,8.8481e-05,3.8512,8.7969e-05,0.004178,-0.00026708,-2667.7,1.1189
13744,12.575,3.8182,0.05,8.5647e-07,8.5588,6.5766e-07,4.9414,1.8282e-12,1.2809e-06,-6.5767e-07,-4.9415,1.1188
13745,12.852,3.8182,0,0.00025991,2597.3,8.6217e-05,5.3557,8.5505e-05,0.0043714,-0.00025982,-2594.6,1.1575
13746,12.76,3.7273,0,0.0002623,2621.2,8.6956e-05,4.7632,8.6323e-05,0.0045993,-0.00026222,-2618.8,1.1447
13747,12.76,3.8182,0.05,8.5266e-07,8.5207,6.5473e-07,4.9194,2.743e-12,2.3406e-06,-6.5474e-07,-4.9195,1.1445
13748,13.036,3.8182,0,0.00025508,2549,8.4692e-05,6.1794,8.387e-05,0.0046514,-0.00025497,-2545.9,1.1835
13749,12.944,3.7273,0,0.00025746,2572.8,8.5432e-05,5.6226,8.4684e-05,0.0048961,-0.00025737,-2570,1.1706
13750,12.944,3.8182,0.05,8.4889e-07,8.483,6.5184e-07,4.8976,2.747e-12,3.0901e-06,-6.5184e-07,-4.8977,1.1705
13751,13.22,3.8182,0,0.00025027,2500.9,8.3169e-05,6.9597,8.2244e-05,0.0048721,-0.00025015,-2497.5,1.2098
13752,13.128,3.7273,0,0.00025264,2524.7,8.3909e-05,6.4352,8.3053e-05,0.0051357,-0.00025253,-2521.5,1.1967
13753,13.128,3.8182,0.05,8.4515e-07,8.4457,6.4897e-07,4.8761,9.3187e-13,4.0752e-06,-6.4898e-07,-4.8762,1.1966
13754,13.405,3.8182,0,0.00024547,2453,8.1649e-05,7.7013,8.0625e-05,0.0050691,-0.00024534,-2449.2,1.2361
13755,13.313,3.7273,0,0.00024784,2476.7,8.2389e-05,7.2058,8.143e-05,0.0053197,-0.00024772,-2473.1,1.223
13756,13.313,3.8182,0.05,8.4145e-07,8.4087,6.4613e-07,4.8547,1.8456e-12,3.9522e-06,-6.4613e-07,-4.8548,1.2229
13757,13.589,3.8182,0,0.0002407,2405.3,8.0132e-05,8.4091,7.9014e-05,0.0052805,-0.00024055,-2401.1,1.2627
13758,13.497,3.7273,0,0.00024306,2428.9,8.0871e-05,7.9397,7.9815e-05,0.0055174,-0.00024292,-2424.9,1.2495
13759,13.497,3.8182,0.05,8.3777e-07,8.3719,6.433e-07,4.8335,9.3878e-13,3.788e-06,-6.433e-07,-4.8336,1.2494
13760,13.773,3.8182,0,0.00023594,2357.8,7.8619e-05,9.0874,7.741e-05,0.0054824,-0.00023578,-2353.2,1.2894
13761,13.681,3.7273,0,0.00023829,2381.2,7.9357e-05,8.6414,7.8207e-05,0.0057333,-0.00023814,-2376.9,1.2761
13762,13.681,3.8182,0.05,8.3413e-07,8.3355,6.4051e-07,4.8125,9.405e-13,3.0948e-06,-6.4051e-07,-4.8126,1.276
13763,13.957,3.8182,0,0.0002312,2310.4,7.7109e-05,9.7406,7.5813e-05,0.0056607,-0.00023103,-2305.5,1.3163
13764,13.865,3.7273,0,0.00023354,2333.8,7.7846e-05,9.3153,7.6607e-05,0.0059156,-0.00023338,-2329.1,1.3029
13765,13.865,3.8182,0.05,8.3053e-07,8.2995,6.3774e-07,4.7917,9.438e-13,3.1812e-06,-6.3774e-07,-4.7917,1.3028
13766,14.142,3.8182,0,0.00022648,2263.2,7.5604e-05,10.373,7.4224e-05,0.0058197,-0.0002263,-2258,1.3433
13767,14.05,3.7273,0,0.00022881,2286.5,7.6339e-05,9.9658,7.5014e-05,0.0060873,-0.00022864,-2281.5,1.3299
13768,14.05,3.8182,0.05,8.2695e-07,8.2638,6.3499e-07,4.7711,9.453e-13,3.3646e-06,-6.35e-07,-4.7711,1.3297
13769,14.326,3.8182,0,0.00022178,2216.2,7.4103e-05,10.988,7.2642e-05,0.005979,-0.00022159,-2210.7,1.3705
13770,14.234,3.7273,0,0.0002241,2239.4,7.4837e-05,10.597,7.3428e-05,0.006233,-0.00022392,-2234.1,1.357
13771,14.234,3.8182,0.05,8.234e-07,8.2283,6.3226e-07,4.7506,9.477e-13,2.6135e-06,-6.3227e-07,-4.7506,1.3568
13772,14.51,3.8182,0,0.00021709,2169.4,7.2608e-05,11.59,7.1066e-05,0.0061673,-0.00021689,-2163.6,1.3978
13773,14.418,3.7273,0,0.00021941,2192.6,7.334e-05,11.213,7.1849e-05,0.0064071,-0.00021921,-2186.9,1.3842
13774,14.418,3.8182,0.05,8.1986e-07,8.193,6.2955e-07,4.7302,1.8595e-12,3.5168e-06,-6.2955e-07,-4.7302,1.3841
13775,14.695,3.8182,0,0.00021243,2122.8,7.1118e-05,12.183,6.9498e-05,0.0063584,-0.00021222,-2116.7,1.4253
13776,14.602,3.7273,0,0.00021473,2145.9,7.1849e-05,11.817,7.0277e-05,0.0066112,-0.00021453,-2139.9,1.4116
13777,14.602,3.8182,0.05,8.1637e-07,8.158,6.2687e-07,4.71,1.8586e-12,4.5903e-06,-6.2687e-07,-4.7101,1.4115
13778,14.879,3.8182,0,0.00020778,2076.4,6.9635e-05,12.77,6.7936e-05,0.0065363,-0.00020756,-2070,1.4529
13779,14.787,3.7273,0,0.00021008,2099.4,7.0363e-05,12.414,6.8711e-05,0.0067927,-0.00020987,-2093.1,1.4392
13780,14.787,3.8182,0.05,8.129e-07,8.1234,6.242e-07,4.69,2.7681e-12,6.0267e-06,-6.2421e-07,-4.6901,1.439
13781,15.063,3.8182,0,0.00020316,2030.2,6.8157e-05,13.356,6.6381e-05,0.0067048,-0.00020293,-2023.5,1.4807
13782,14.971,3.7273,0,0.00020545,2053,6.8883e-05,13.007,6.7153e-05,0.006972,-0.00020522,-2046.5,1.4669
13783,14.971,3.8182,0.05,8.0946e-07,8.089,6.2156e-07,4.6702,9.4933e-13,5.0727e-06,-6.2156e-07,-4.6702,1.4667
13784,15.247,3.8182,0,0.00019856,1984.2,6.6687e-05,13.943,6.4832e-05,0.0068801,-0.00019831,-1977.2,1.5086
13785,15.155,3.7273,0,0.00020083,2006.9,6.741e-05,13.6,6.56e-05,0.007135,-0.0002006,-2000.1,1.4947
13786,15.155,3.8182,0.05,8.0604e-07,8.0548,6.1893e-07,4.6504,2.7703e-12,6.2817e-06,-6.1894e-07,-4.6505,1.4946
13787,15.432,3.8182,0,0.00019397,1938.4,6.5223e-05,14.535,6.329e-05,0.0070864,-0.00019372,-1931.1,1.5366
13788,15.339,3.7273,0,0.00019624,1961,6.5943e-05,14.197,6.4055e-05,0.0073284,-0.00019599,-1953.9,1.5226
13789,15.339,3.8182,0.05,8.0264e-07,8.0208,6.1632e-07,4.6308,1.8635e-12,5.4676e-06,-6.1632e-07,-4.6308,1.5225
13790,15.616,3.8182,0,0.00018941,1892.8,6.3768e-05,15.137,6.1754e-05,0.007301,-0.00018915,-1885.2,1.5648
13791,15.524,3.7273,0,0.00019166,1915.3,6.4484e-05,14.801,6.2515e-05,0.0075546,-0.00019141,-1907.9,1.5507
13792,15.524,3.8182,0.05,7.9927e-07,7.9872,6.1374e-07,4.6114,1.8678e-12,4.2918e-06,-6.1374e-07,-4.6114,1.5506
13793,15.8,3.8182,0,0.00018486,1847.4,6.232e-05,15.752,6.0224e-05,0.0075096,-0.00018459,-1839.4,1.593
13794,15.708,3.7273,0,0.00018711,1869.8,6.3033e-05,15.416,6.0982e-05,0.0077647,-0.00018684,-1862.1,1.579
13795,15.708,3.8182,0.05,7.9593e-07,7.9538,6.1118e-07,4.5921,9.6193e-13,3.4972e-06,-6.1118e-07,-4.5921,1.5789
13796,15.984,3.8182,0,0.00018034,1802.2,6.088e-05,16.383,5.87e-05,0.0077143,-0.00018006,-1793.9,1.6215
13797,15.892,3.7273,0,0.00018258,1824.5,6.159e-05,16.047,5.9455e-05,0.0079795,-0.0001823,-1816.5,1.6073
13798,15.892,3.8182,0.05,7.9262e-07,7.9208,6.0863e-07,4.573,5.2967e-14,4.3413e-06,-6.0864e-07,-4.5731,1.6072
13799,16.169,3.8182,0,0.00017584,1757.2,5.9449e-05,17.036,5.7183e-05,0.0079302,-0.00017555,-1748.6,1.65
13800,16.077,3.7273,0,0.00017807,1779.5,6.0156e-05,16.697,5.7934e-05,0.0081839,-0.00017778,-1771.1,1.6358
13801,16.077,3.8182,0.05,7.8934e-07,7.8879,6.0611e-07,4.5541,1.4235e-12,4.1354e-06,-6.0612e-07,-4.5541,1.6357
13802,16.353,3.8182,0,0.00017136,1712.4,5.8027e-05,17.713,5.5671e-05,0.0081812,-0.00017105,-1703.5,1.6787
13803,16.261,3.7273,0,0.00017358,1734.6,5.873e-05,17.37,5.6419e-05,0.0084216,-0.00017328,-1725.8,1.6644
13804,16.261,3.8182,0.05,7.8608e-07,7.8553,6.0361e-07,4.5353,9.6934e-13,5.5881e-06,-6.0361e-07,-4.5353,1.6643
13805,16.537,3.8182,0,0.0001669,1667.9,5.6615e-05,18.419,5.4164e-05,0.0084457,-0.00016658,-1658.6,1.7074
13806,16.445,3.7273,0,0.00016911,1689.9,5.7314e-05,18.07,5.491e-05,0.0086942,-0.0001688,-1680.8,1.6931
13807,16.445,3.8182,0.05,7.8285e-07,7.8231,6.0113e-07,4.5167,9.7475e-13,5.9581e-06,-6.0114e-07,-4.5167,1.693
13808,16.721,3.8182,0,0.00016247,1623.6,5.5212e-05,19.159,5.2664e-05,0.0087099,-0.00016213,-1613.9,1.7363
13809,16.629,3.7273,0,0.00016467,1645.5,5.5908e-05,18.802,5.3406e-05,0.0089592,-0.00016434,-1636,1.722
13810,16.629,3.8182,0.05,7.7966e-07,7.7913,5.9869e-07,4.4983,6.7825e-14,6.0968e-06,-5.9869e-07,-4.4983,1.7219
13811,16.906,3.8182,0,0.00015806,1579.5,5.3821e-05,19.936,5.1169e-05,0.0089787,-0.00015771,-1569.4,1.7653
13812,16.814,3.7273,0,0.00016024,1601.3,5.4512e-05,19.571,5.1908e-05,0.0092338,-0.0001599,-1591.4,1.7509
13813,16.814,3.8182,0.05,7.7651e-07,7.7597,5.9626e-07,4.4801,9.8324e-13,4.9591e-06,-5.9626e-07,-4.4801,1.7508
13814,17.09,3.8182,0,0.00015367,1535.6,5.244e-05,20.757,4.9679e-05,0.0092648,-0.0001533,-1525.1,1.7944
13815,16.998,3.7273,0,0.00015584,1557.3,5.3127e-05,20.381,5.0415e-05,0.0095077,-0.00015548,-1547,1.78
13816,16.998,3.8182,0.05,7.7339e-07,7.7285,5.9387e-07,4.4621,5.3233e-13,5.3292e-06,-5.9387e-07,-4.4621,1.7799
13817,17.274,3.8182,0,0.0001493,1491.9,5.1071e-05,21.626,4.8194e-05,0.0095874,-0.00014892,-1481,1.8237
13818,17.182,3.7273,0,0.00015146,1513.6,5.1753e-05,21.237,4.8928e-05,0.0098183,-0.00015109,-1502.8,1.8091
13819,17.182,3.8182,0.05,7.703e-07,7.6977,5.9149e-07,4.4442,5.3348e-13,5.0958e-06,-5.9149e-07,-4.4442,1.809
13820,17.459,3.8182,0,0.00014495,1448.5,4.9714e-05,22.548,4.6714e-05,0.0099307,-0.00014456,-1437.1,1.853
13821,17.366,3.7273,0,0.00014711,1470.1,5.0391e-05,22.146,4.7445e-05,0.010166,-0.00014672,-1458.9,1.8384
13822,17.366,3.8182,0.05,7.6725e-07,7.6673,5.8916e-07,4.4267,5.4099e-13,4.9297e-06,-5.8916e-07,-4.4267,1.8383
13823,17.643,3.8182,0,0.00014063,1405.4,4.8369e-05,23.53,4.5239e-05,0.010285,-0.00014022,-1393.4,1.8824
13824,17.551,3.7273,0,0.00014278,1426.8,4.9042e-05,23.111,4.5967e-05,0.010518,-0.00014237,-1415.1,1.8677
13825,17.551,3.8182,0.05,7.6426e-07,7.6373,5.8685e-07,4.4094,1.4531e-12,5.9282e-06,-5.8685e-07,-4.4094,1.8676
13826,17.827,3.8182,0,0.00013634,1362.4,4.7038e-05,24.576,4.3769e-05,0.010653,-0.0001359,-1350,1.9119
13827,17.735,3.7273,0,0.00013847,1383.7,4.7706e-05,24.14,4.4494e-05,0.010889,-0.00013804,-1371.5,1.8972
13828,17.735,3.8182,0.05,7.6131e-07,7.6078,5.8459e-07,4.3924,1.007e-12,4.519e-06,-5.8459e-07,-4.3924,1.8971
13829,18.011,3.8182,0,0.00013206,1319.7,4.5721e-05,25.695,4.2303e-05,0.011047,-0.00013161,-1306.7,1.9415
13830,17.919,3.7273,0,0.00013418,1340.9,4.6384e-05,25.24,4.3026e-05,0.011269,-0.00013374,-1328.1,1.9267
13831,17.919,3.8182,0.05,7.584e-07,7.5788,5.8236e-07,4.3756,5.5972e-13,5.2892e-06,-5.8236e-07,-4.3756,1.9266
13832,18.196,3.8182,0,0.00012782,1277.3,4.4419e-05,26.893,4.0841e-05,0.011488,-0.00012734,-1263.6,1.9712
13833,18.103,3.7273,0,0.00012993,1298.4,4.5076e-05,26.416,4.1562e-05,0.011694,-0.00012946,-1285,1.9564
13834,18.103,3.8182,0.05,7.5555e-07,7.5503,5.8017e-07,4.3592,5.6768e-13,5.6276e-06,-5.8017e-07,-4.3592,1.9563
13835,18.38,3.8182,0,0.00012359,1235.1,4.3132e-05,28.177,3.9383e-05,0.011961,-0.00012309,-1220.7,2.0009
13836,18.288,3.7273,0,0.00012569,1256.1,4.3783e-05,27.676,4.0101e-05,0.012166,-0.0001252,-1242,1.9861
13837,18.288,3.8182,0.05,7.5276e-07,7.5224,5.7802e-07,4.3431,1.0353e-12,7.1251e-06,-5.7802e-07,-4.3431,1.986
13838,18.564,3.8182,0,0.0001194,1193.2,4.1861e-05,29.555,3.7929e-05,0.012459,-0.00011887,-1178.1,2.0308
13839,18.472,3.7273,0,0.00012149,1214,4.2507e-05,29.028,3.8645e-05,0.012656,-0.00012097,-1199.2,2.0159
13840,18.472,3.8182,0.05,7.5003e-07,7.4952,5.7593e-07,4.3273,5.8809e-13,9.562e-06,-5.7593e-07,-4.3273,2.0158
13841,18.748,3.8182,0,0.00011523,1151.5,4.0607e-05,31.036,3.6479e-05,0.012986,-0.00011467,-1135.6,2.0607
13842,18.656,3.7273,0,0.00011731,1172.2,4.1247e-05,30.482,3.7192e-05,0.013179,-0.00011676,-1156.7,2.0458
13843,18.656,3.8182,0.05,7.4738e-07,7.4686,5.7389e-07,4.312,1.0505e-12,6.2492e-06,-5.7389e-07,-4.312,2.0457
13844,18.933,3.8182,0,0.00011109,1110.1,3.9372e-05,32.629,3.5031e-05,0.013557,-0.00011049,-1093.4,2.0907
13845,18.841,3.7273,0,0.00011315,1130.7,4.0006e-05,32.044,3.5743e-05,0.01373,-0.00011257,-1114.4,2.0758
13846,18.841,3.8182,0.05,7.448e-07,7.4428,5.7191e-07,4.2971,6.124e-13,4.2899e-06,-5.7191e-07,-4.2971,2.0757
13847,19.117,3.8182,0,0.00010697,1069,3.8156e-05,34.343,3.3587e-05,0.01419,-0.00010634,-1051.4,2.1208
13848,19.025,3.7273,0,0.00010903,1089.5,3.8783e-05,33.726,3.4296e-05,0.014342,-0.00010841,-1072.2,2.1058
13849,19.025,3.8182,0.05,7.4229e-07,7.4178,5.6999e-07,4.2827,6.2768e-13,7.0309e-06,-5.6999e-07,-4.2827,2.1058
13850,19.301,3.8182,0,0.00010288,1028.1,3.6959e-05,36.19,3.2145e-05,0.014876,-0.00010222,-1009.6,2.151
13851,19.209,3.7273,0,0.00010493,1048.6,3.758e-05,35.538,3.2852e-05,0.015017,-0.00010428,-1030.3,2.136
13852,19.209,3.8182,0.05,7.3988e-07,7.3937,5.6814e-07,4.2688,6.4444e-13,6.686e-06,-5.6814e-07,-4.2688,2.1359
13853,19.485,3.8182,0,9.8828e-05,987.6,3.5784e-05,38.181,3.0705e-05,0.015614,-9.8123e-05,-967.94,2.1812
13854,19.393,3.7273,0,0.00010086,1007.9,3.6398e-05,37.491,3.1411e-05,0.015737,-0.00010017,-988.63,2.1661
13855,19.393,3.8182,0.05,7.3757e-07,7.3707,5.6637e-07,4.2555,6.6914e-13,8.2454e-06,-5.6637e-07,-4.2554,2.1661
13856,19.67,3.8182,0,9.4801e-05,947.36,3.4632e-05,40.328,2.9267e-05,0.016411,-9.405e-05,-926.54,2.2115
13857,19.578,3.7273,0,9.6822e-05,967.55,3.5239e-05,39.597,2.9971e-05,0.016518,-9.6087e-05,-947.13,2.1964
13858,19.578,3.8182,0.05,7.3538e-07,7.3487,5.6468e-07,4.2428,6.7965e-13,8.3973e-06,-5.6468e-07,-4.2428,2.1963
13859,19.854,3.8182,0,9.0806e-05,907.43,3.3503e-05,42.644,2.783e-05,0.017287,-9.0005e-05,-885.35,2.2419
13860,19.762,3.7273,0,9.2814e-05,927.5,3.4103e-05,41.869,2.8533e-05,0.017358,-9.2031e-05,-905.85,2.2267
13861,19.762,3.8182,0.05,7.333e-07,7.3279,5.6308e-07,4.2308,6.98e-13,6.6352e-06,-5.6308e-07,-4.2308,2.2267
13862,20.038,3.8182,0,8.6842e-05,867.82,3.24e-05,45.143,2.6394e-05,0.01826,-8.5986e-05,-844.36,2.2723
13863,19.946,3.7273,0,8.8839e-05,887.78,3.2992e-05,44.321,2.7096e-05,0.018294,-8.8002e-05,-864.78,2.2571
13864,19.946,3.8182,0.05,7.3135e-07,7.3085,5.6159e-07,4.2195,2.4569e-13,5.6383e-06,-5.6159e-07,-4.2195,2.2571
13865,20.223,3.8182,0,8.2913e-05,828.55,3.1323e-05,47.841,2.4959e-05,0.019332,-8.1995e-05,-803.59,2.3028
13866,20.13,3.7273,0,8.4897e-05,848.39,3.1907e-05,46.967,2.5659e-05,0.019333,-8.4e-05,-823.92,2.2876
13867,20.13,3.8182,0.05,7.2956e-07,7.2905,5.6021e-07,4.2092,7.031e-13,6.7135e-06,-5.6021e-07,-4.2092,2.2875
13868,20.407,3.8182,0,7.9017e-05,789.63,3.0275e-05,50.753,2.3523e-05,0.020513,-7.8031e-05,-763.02,2.3333
13869,20.315,3.7273,0,8.099e-05,809.34,3.0851e-05,49.823,2.4222e-05,0.020469,-8.0027e-05,-783.27,2.3181
13870,20.315,3.8182,0.05,7.2793e-07,7.2743,5.5896e-07,4.1998,7.0523e-13,9.5056e-06,-5.5896e-07,-4.1998,2.318
13871,20.591,3.8182,0,7.5159e-05,751.07,2.9257e-05,53.896,2.2087e-05,0.02182,-7.4096e-05,-722.66,2.3639
13872,20.499,3.7273,0,7.7118e-05,770.65,2.9824e-05,52.908,2.2785e-05,0.021725,-7.6081e-05,-742.82,2.3486
13873,20.499,3.8182,0.05,7.2649e-07,7.2599,5.5785e-07,4.1915,4.4748e-13,1.0764e-05,-5.5785e-07,-4.1915,2.3486
13874,20.775,3.8182,0,7.1338e-05,712.88,2.827e-05,57.29,2.0648e-05,0.023283,-7.019e-05,-682.5,2.3945
13875,20.683,3.7273,0,7.3284e-05,732.33,2.8828e-05,56.237,2.1346e-05,0.023117,-7.2165e-05,-702.58,2.3793
13876,20.683,3.8182,0.05,7.2526e-07,7.2476,5.5691e-07,4.1844,4.4137e-13,1.1641e-05,-5.5691e-07,-4.1844,2.3792
13877,20.96,3.8182,0,6.7556e-05,675.1,2.7317e-05,60.954,1.9208e-05,0.024939,-6.6312e-05,-642.54,2.4252
13878,20.867,3.7273,0,6.9489e-05,694.41,2.7866e-05,59.832,1.9906e-05,0.024687,-6.8277e-05,-662.55,2.4099
13879,20.867,3.8182,0.05,7.2426e-07,7.2376,5.5614e-07,4.1786,4.5123e-13,1.0805e-05,-5.5614e-07,-4.1786,2.4099
13880,21.144,3.8182,0,6.3817e-05,637.73,2.64e-05,64.91,1.7765e-05,0.026813,-6.2464e-05,-602.78,2.456
13881,21.052,3.7273,0,6.5736e-05,656.9,2.6938e-05,63.711,1.8463e-05,0.026466,-6.4419e-05,-622.72,2.4406
13882,21.052,3.8182,0.05,7.2353e-07,7.2303,5.5558e-07,4.1744,2.6421e-13,1.0597e-05,-5.5558e-07,-4.1744,2.4406
13883,21.328,3.8182,0,6.0123e-05,600.81,2.5521e-05,69.178,1.6318e-05,0.028943,-5.8646e-05,-563.22,2.4867
13884,21.236,3.7273,0,6.2026e-05,619.83,2.6048e-05,67.897,1.7016e-05,0.028473,-6.0591e-05,-583.08,2.4714
13885,21.236,3.8182,0.05,7.231e-07,7.226,5.5525e-07,4.1719,2.9298e-13,9.3418e-06,-5.5525e-07,-4.1719,2.4713
13886,21.512,3.8182,0,5.6476e-05,564.37,2.4681e-05,73.783,1.4865e-05,0.031392,-5.4858e-05,-523.84,2.5175
13887,21.42,3.7273,0,5.8363e-05,583.23,2.5197e-05,72.412,1.5564e-05,0.030768,-5.6793e-05,-543.63,2.5022
13888,21.42,3.8182,0.05,7.23e-07,7.2251,5.5518e-07,4.1714,3.2795e-13,4.4296e-06,-5.5518e-07,-4.1714,2.5021
13889,21.697,3.8182,0,5.2881e-05,528.45,2.3883e-05,78.749,1.3407e-05,0.034241,-5.1099e-05,-484.64,2.5484
13890,21.605,3.7273,0,5.475e-05,547.12,2.4388e-05,77.279,1.4107e-05,0.033417,-5.3024e-05,-504.36,2.533
13891,21.605,3.8182,0.05,7.233e-07,7.228,5.554e-07,4.1731,3.2405e-13,8.1709e-06,-5.554e-07,-4.1731,2.533
13892,21.881,3.8182,0,4.9342e-05,493.08,2.313e-05,84.101,1.1942e-05,0.037598,-4.737e-05,-445.61,2.5793
13893,21.789,3.7273,0,5.1191e-05,511.56,2.3621e-05,82.522,1.2643e-05,0.036518,-4.9285e-05,-465.27,2.5639
13894,21.789,3.8182,0.05,7.2402e-07,7.2352,5.5596e-07,4.1773,5.1053e-14,9.6929e-06,-5.5596e-07,-4.1772,2.5638
13895,22.065,3.8182,0,4.5865e-05,458.33,2.2422e-05,89.863,1.0468e-05,0.041607,-4.367e-05,-406.73,2.6102
13896,21.973,3.7273,0,4.7691e-05,476.58,2.29e-05,88.166,1.1171e-05,0.040196,-4.5575e-05,-426.33,2.5948
13897,21.973,3.8182,0.05,7.2525e-07,7.2475,5.569e-07,4.1843,3.3149e-13,1.3928e-05,-5.569e-07,-4.1843,2.5947
13898,22.249,3.8182,0,4.2456e-05,424.27,2.1763e-05,96.062,8.9843e-06,0.046466,-3.9998e-05,-367.98,2.6411
13899,22.157,3.7273,0,4.4256e-05,442.26,2.2226e-05,94.233,9.69e-06,0.044613,-4.1893e-05,-387.53,2.6257
13900,22.157,3.8182,0.05,7.2703e-07,7.2653,5.5827e-07,4.1946,3.626e-13,1.6153e-05,-5.5827e-07,-4.1946,2.6257
13901,22.434,3.8182,0,3.9125e-05,390.98,2.1154e-05,102.72,7.4893e-06,0.052502,-3.6352e-05,-329.35,2.6721
13902,22.342,3.7273,0,4.0895e-05,408.67,2.16e-05,100.75,8.1982e-06,0.05002,-3.8238e-05,-348.86,2.6567
13903,22.342,3.8182,0.05,7.2945e-07,7.2895,5.6013e-07,4.2086,2.9622e-13,1.1766e-05,-5.6013e-07,-4.2086,2.6566
13904,22.618,3.8182,0,3.5886e-05,358.61,2.0595e-05,109.86,5.9815e-06,0.060139,-3.2731e-05,-290.81,2.7031
13905,22.526,3.7273,0,3.7618e-05,375.92,2.1025e-05,107.73,6.6942e-06,0.056838,-3.4608e-05,-310.27,2.6876
13906,22.526,3.8182,0.05,7.3258e-07,7.3207,5.6253e-07,4.2266,3.1295e-13,9.1132e-06,-5.6253e-07,-4.2266,2.6876
13907,22.802,3.8182,0,3.2753e-05,327.31,2.0089e-05,117.5,4.4591e-06,0.070395,-2.9132e-05,-252.32,2.7341
13908,22.71,3.7273,0,3.4438e-05,344.15,2.05e-05,115.2,5.1765e-06,0.065527,-3.1001e-05,-271.75,2.7187
13909,22.71,3.8182,0.05,7.3649e-07,7.3598,5.6553e-07,4.2492,1.7352e-13,7.7318e-06,-5.6553e-07,-4.2492,2.7186
13910,22.987,3.8182,0,2.9752e-05,297.32,1.9634e-05,125.66,2.9204e-06,0.083689,-2.5551e-05,-213.84,2.7652
13911,22.894,3.7273,0,3.1378e-05,313.56,2.0026e-05,123.17,3.6433e-06,0.077738,-2.7412e-05,-233.26,2.7497
13912,22.894,3.8182,0.05,7.4126e-07,7.4075,5.692e-07,4.2767,-7.1862e-14,5.7507e-06,-5.692e-07,-4.2767,2.7496
13913,23.171,3.8182,0,2.6916e-05,268.98,1.923e-05,134.34,1.3641e-06,0.10628,-2.1985e-05,-175.33,2.7962
13914,23.079,3.7273,0,2.8463e-05,284.44,1.9602e-05,131.65,2.093e-06,0.092817,-2.3839e-05,-194.75,2.7807
13915,23.079,3.8182,0.05,7.4695e-07,7.4644,5.7357e-07,4.3096,3.0667e-13,1.0852e-05,-5.7357e-07,-4.3095,2.7807
13916,23.355,3.8182,0,2.4293e-05,242.76,1.8876e-05,143.55,-2.1195e-07,0.12901,-1.8428e-05,-136.74,2.8273
13917,23.263,3.7273,0,2.5736e-05,257.18,1.9228e-05,140.65,5.2511e-07,0.12434,-2.0277e-05,-156.18,2.8118
13918,23.263,3.8182,0.05,7.536e-07,7.5308,5.7867e-07,4.3479,2.872e-13,7.8665e-06,-5.7867e-07,-4.3479,2.8118
13919,23.539,3.8182,0,2.1952e-05,219.36,1.857e-05,153.3,-1.8031e-06,0.22509,-1.4878e-05,-98.016,2.8584
13920,23.447,3.7273,0,2.3252e-05,232.35,1.8901e-05,150.15,-1.0642e-06,0.14174,-1.6721e-05,-117.5,2.8429
13921,23.447,3.8182,0.05,7.6119e-07,7.6067,5.845e-07,4.3917,2.2953e-13,3.6898e-06,-5.845e-07,-4.3917,2.8428
13922,23.724,3.8182,0,1.9986e-05,199.72,1.8308e-05,163.5,-3.4228e-06,0.21984,-1.1329e-05,-59.182,2.8895
13923,23.631,3.7273,0,2.1092e-05,210.78,1.8619e-05,160.21,-2.6605e-06,0.32781,-1.3172e-05,-78.651,2.874
13924,23.631,3.8182,0.05,7.6986e-07,7.6933,5.9116e-07,4.4417,2.4154e-13,9.3983e-06,-5.9116e-07,-4.4417,2.8739
13925,23.816,3.7273,0,1.9365e-05,193.51,1.8378e-05,170.58,-4.2986e-06,0.20077,-9.6231e-06,-39.805,2.9051
13926,23.816,3.8182,0.05,7.8299e-07,7.8245,6.0124e-07,4.5175,4.1412e-13,8.9477e-06,-6.0124e-07,-4.5175,2.905
13927,23.908,3.8182,0,1.8574e-05,185.61,1.8093e-05,173.55,-4.9477e-06,0.42784,-7.9895e-06,-22.427,2.9206
13928,1.2431,3.6364,0,0.0013213,13203,0.00046228,-13.998,0.00038967,-559.55,-0.0013302,-13482,0.020522
13929,1.1509,3.5455,0,0.0014063,14053,0.00049824,-5.1837,0.00040476,-707.55,-0.0014171,-14396,0.017733
13930,1.1509,3.6364,0.05,4.4878e-05,448.47,3.4461e-05,258.93,-1.6082e-11,-0.00065467,-3.4461e-05,-258.93,0.01729
13931,1.4273,3.6364,0,0.0010912,10904,0.00039822,1.8179,0.00029408,-780.64,-0.0011023,-11273,0.027442
13932,1.3352,3.5455,0,0.0011794,11786,0.0004321,-2.0993,0.00031442,-886.29,-0.001192,-12205,0.024177
13933,1.3352,3.6364,0.05,3.5267e-05,352.43,2.7081e-05,203.47,7.9508e-13,-0.0004051,-2.7081e-05,-203.47,0.023798
13934,1.6116,3.6364,0,0.000935,9343.5,0.00035255,7.396,0.00023207,-897.84,-0.00094685,-9755.8,0.035092
13935,1.5195,3.5455,0,0.0010075,10068,0.00038144,6.5616,0.00024714,-1002.6,-0.0010207,-10528,0.031424
13936,1.5195,3.6364,0.05,2.6272e-05,262.54,2.0174e-05,151.58,-5.7072e-12,-0.00034048,-2.0174e-05,-151.58,0.031104
13937,1.7959,3.6364,0,0.00082807,8275,0.00031908,3.2211,0.00019263,-946.87,-0.00084002,-8705.8,0.043374
13938,1.7037,3.5455,0,0.00088405,8834.4,0.00034262,2.96,0.00020196,-1053.9,-0.00089717,-9312.3,0.03936
13939,1.7037,3.6364,0.05,1.9061e-05,190.48,1.4637e-05,109.97,-1.6936e-11,-0.00034873,-1.4637e-05,-109.97,0.039086
13940,1.9801,3.6364,0,0.0007519,7513.8,0.00029404,2.4161,0.00016683,-953.39,-0.0007635,-7943.6,0.05222
13941,1.888,3.5455,0,0.00079446,7939.1,0.00031306,2.4086,0.00017181,-1058.9,-0.00080709,-8414,0.047902
13942,1.888,3.6364,0.05,1.457e-05,145.6,1.1188e-05,84.06,-1.5931e-11,-0.00025649,-1.1188e-05,-84.061,0.047662
13943,2.1644,3.6364,0,0.00069551,6950.3,0.00027431,1.6649,0.00014991,-933.05,-0.00070662,-7368.7,0.061582
13944,2.0723,3.5455,0,0.0007278,7273,0.00028971,1.6646,0.00015184,-1034.2,-0.00073981,-7733.7,0.056992
13945,2.0723,3.6364,0.05,1.1486e-05,114.78,8.8195e-06,66.266,-1.8874e-11,-0.00024776,-8.8195e-06,-66.266,0.056776
13946,2.3487,3.6364,0,0.00065266,6522.1,0.00025833,1.1662,0.00013891,-896.09,-0.00066324,-6923.1,0.071423
13947,2.2565,3.5455,0,0.00067724,6767.7,0.00027087,1.1855,0.00013882,-991.01,-0.0006886,-7207.9,0.066584
13948,2.2565,3.6364,0.05,9.2295e-06,92.232,7.0871e-06,53.25,-1.6301e-11,-0.00022729,-7.0871e-06,-53.25,0.066384
13949,2.5329,3.6364,0,0.00061946,6190.3,0.00024512,0.83538,0.00013195,-849.44,-0.0006295,-6570.7,0.081713
13950,2.4408,3.5455,0,0.00063825,6378.1,0.0002554,0.85099,0.00013056,-937.14,-0.00064898,-6794.3,0.076645
13951,2.4408,3.6364,0.05,7.5186e-06,75.134,5.7734e-06,43.379,-1.7585e-11,-0.0001978,-5.7734e-06,-43.379,0.076456
13952,2.7172,3.6364,0,0.00059331,5929,0.00023403,0.59856,0.00012777,-797.78,-0.00060283,-6287.2,0.092431
13953,2.6251,3.5455,0,0.00060777,6073.5,0.00024252,0.60917,0.00012559,-877.94,-0.0006179,-6464.3,0.087147
13954,2.6251,3.6364,0.05,6.1931e-06,61.889,4.7556e-06,35.731,-1.3578e-11,-0.0001726,-4.7556e-06,-35.732,0.086965
13955,2.9015,3.6364,0,0.00057242,5720.3,0.0002246,0.43097,0.00012549,-744.22,-0.00058143,-6055.7,0.10356
13956,2.8093,3.5455,0,0.00058362,5832.2,0.00023167,0.4369,0.00012289,-816.92,-0.0005932,-6197.3,0.098069
13957,2.8093,3.6364,0.05,5.1527e-06,51.492,3.9567e-06,29.729,-1.114e-11,-0.00013281,-3.9567e-06,-29.729,0.097892
13958,3.0857,3.6364,0,0.0005555,5551.1,0.00021649,0.31014,0.00012451,-690.83,-0.00056401,-5864,0.11508
13959,2.9936,3.5455,0,0.00056426,5638.7,0.00022244,0.31243,0.00012173,-756.4,-0.0005733,-5978.5,0.1094
13960,2.9936,3.6364,0.05,4.3298e-06,43.268,3.3248e-06,24.981,-7.3622e-12,-0.00011367,-3.3248e-06,-24.981,0.10922
13961,3.27,3.6364,0,0.00054157,5412,0.00020945,0.22294,0.00012438,-638.93,-0.0005496,-5703,0.12699
13962,3.1779,3.5455,0,0.00054852,5481.4,0.00021449,0.22277,0.00012159,-697.83,-0.00055704,-5796.8,0.12111
13963,3.1779,3.6364,0.05,3.6758e-06,36.733,2.8226e-06,21.208,-5.3847e-12,-9.3508e-05,-2.8226e-06,-21.208,0.12094
13964,3.4543,3.6364,0,0.00052994,5295.7,0.00020327,0.15975,0.00012482,-589.31,-0.00053749,-5565.7,0.13926
13965,3.3621,3.5455,0,0.00053553,5351.6,0.00020758,0.15801,0.00012211,-642.08,-0.00054355,-5643.5,0.13321
13966,3.3621,3.6364,0.05,3.1545e-06,31.524,2.4223e-06,18.2,-5.4358e-12,-5.8698e-05,-2.4223e-06,-18.2,0.13303
13967,3.6385,3.6364,0,0.00052005,5196.9,0.00019779,0.11392,0.00012558,-542.45,-0.00052714,-5446.8,0.15191
13968,3.5464,3.5455,0,0.00052462,5242.6,0.00020152,0.11127,0.00012303,-589.64,-0.00053216,-5512.4,0.14567
13969,3.5464,3.6364,0.05,2.7382e-06,27.363,2.1026e-06,15.798,-7.1222e-12,-6.9486e-05,-2.1026e-06,-15.798,0.1455
13970,3.8228,3.6364,0,0.00051147,5111.2,0.00019288,0.080653,0.00012652,-498.55,-0.00051813,-5342.2,0.16491
13971,3.7307,3.5455,0,0.00051531,5149.6,0.00019614,0.077545,0.00012416,-540.71,-0.00052237,-5398.5,0.15849
13972,3.7307,3.6364,0.05,2.4053e-06,24.036,1.847e-06,13.877,-2.8746e-12,-3.2772e-05,-1.847e-06,-13.877,0.15832
13973,4.0071,3.6364,0,0.0005039,5035.6,0.00018845,0.056531,0.00012753,-457.68,-0.00051012,-5248.7,0.17826
13974,3.9149,3.5455,0,0.0005072,5068.5,0.00019132,0.05325,0.00012538,-495.34,-0.0005138,-5297.9,0.17167
13975,3.9149,3.6364,0.05,2.1388e-06,21.373,1.6423e-06,12.34,-1.7871e-12,-2.5932e-05,-1.6423e-06,-12.34,0.1715
13976,4.1913,3.6364,0,0.00049709,4967.4,0.0001844,0.039072,0.00012852,-419.82,-0.00050289,-5164,0.19196
13977,4.0992,3.5455,0,0.00049999,4996.5,0.00018695,0.035801,0.0001266,-453.46,-0.00050616,-5207.7,0.1852
13978,4.0992,3.6364,0.05,1.9252e-06,19.239,1.4783e-06,11.107,8.1449e-13,-3.5493e-05,-1.4783e-06,-11.107,0.18503
13979,4.3756,3.6364,0,0.00049083,4904.9,0.00018067,0.026478,0.00012944,-384.85,-0.00049624,-5086,0.20601
13980,4.2835,3.5455,0,0.00049346,4931.2,0.00018296,0.023328,0.00012774,-414.91,-0.00049921,-5125.5,0.19908
13981,4.2835,3.6364,0.05,1.7539e-06,17.527,1.3468e-06,10.119,-1.8476e-12,-1.4999e-05,-1.3468e-06,-10.119,0.1989
13982,4.5599,3.6364,0,0.00048499,4846.6,0.0001772,0.017441,0.00013026,-352.64,-0.00049003,-5013.3,0.22038
13983,4.4677,3.5455,0,0.00048743,4871,0.00017929,0.014475,0.00012877,-379.52,-0.00049278,-5049.6,0.21329
13984,4.4677,3.6364,0.05,1.6162e-06,16.151,1.241e-06,9.3247,1.066e-12,-1.3234e-05,-1.241e-06,-9.3247,0.21311
13985,4.7441,3.6364,0,0.00047946,4791.3,0.00017395,0.011008,0.00013096,-323.01,-0.00048414,-4944.6,0.2351
13986,4.652,3.5455,0,0.00048177,4814.4,0.00017587,0.0082585,0.00012967,-347.08,-0.00048674,-4978.6,0.22784
13987,4.652,3.6364,0.05,1.5053e-06,15.043,1.1559e-06,8.685,2.3675e-12,-2.2192e-05,-1.1559e-06,-8.6851,0.22766
13988,4.9284,3.6364,0,0.00047415,4738.2,0.00017089,0.00648,0.00013152,-295.8,-0.00047849,-4879.2,0.25014
13989,4.8363,3.5455,0,0.00047638,4760.5,0.00017266,0.0039586,0.00013042,-317.37,-0.00048098,-4911.3,0.24271
13990,4.8363,3.6364,0.05,1.4158e-06,14.148,1.0871e-06,8.1682,3.4156e-12,-1.1632e-05,-1.0871e-06,-8.1683,0.24254
13991,5.1127,3.6364,0,0.00046899,4686.7,0.00016799,0.0033437,0.00013194,-270.83,-0.00047301,-4816.2,0.2655
13992,5.0205,3.5455,0,0.00047118,4708.5,0.00016964,0.0010506,0.00013102,-290.18,-0.00047544,-4846.9,0.25792
13993,5.0205,3.6364,0.05,1.3431e-06,13.422,1.0313e-06,7.7489,-1.2873e-12,-7.3021e-06,-1.0313e-06,-7.749,0.25774
13994,5.2969,3.6364,0,0.00046394,4636.2,0.00016522,0.0012233,0.00013222,-247.92,-0.00046766,-4755.2,0.28119
13995,5.2048,3.5455,0,0.0004661,4657.8,0.00016677,-0.00084978,0.00013146,-265.32,-0.00047005,-4784.8,0.27344
13996,5.2048,3.6364,0.05,1.2838e-06,12.829,9.8581e-07,7.407,2.8717e-12,-5.7534e-06,-9.8582e-07,-7.4071,0.27327
13997,5.4812,3.6364,0,0.00045896,4586.5,0.00016256,-0.00015846,0.00013236,-226.9,-0.0004624,-4695.7,0.29719
13998,5.3891,3.5455,0,0.00046112,4608,0.00016403,-0.0020239,0.00013174,-242.57,-0.00046476,-4724.5,0.28929
13999,5.3891,3.6364,0.05,1.2352e-06,12.343,9.4847e-07,7.1264,-3.4666e-13,-7.8405e-06,-9.4848e-07,-7.1265,0.28911
14000,5.6655,3.6364,0,0.00045402,4537.1,0.00016,-0.0010058,0.00013236,-207.64,-0.0004572,-4637.4,0.31351
14001,5.5733,3.5455,0,0.00045619,4558.7,0.00016139,-0.0026787,0.00013188,-221.76,-0.00045955,-4665.6,0.30545
14002,5.5733,3.6364,0.05,1.195e-06,11.942,9.176e-07,6.8944,1.8577e-12,-6.8392e-06,-9.176e-07,-6.8946,0.30528
14003,5.8497,3.6364,0,0.00044911,4488,0.00015752,-0.001469,0.00013223,-189.96,-0.00045204,-4580,0.33014
14004,5.7576,3.5455,0,0.00045129,4509.8,0.00015885,-0.0029648,0.00013187,-202.73,-0.00045439,-4607.7,0.32193
14005,5.7576,3.6364,0.05,1.1615e-06,11.607,8.9187e-07,6.7011,2.7381e-13,-4.5882e-06,-8.9188e-07,-6.7013,0.32175
14006,6.034,3.6364,0,0.0004442,4439,0.00015511,-0.0016582,0.00013198,-173.75,-0.0004469,-4523.3,0.34707
14007,5.9419,3.5455,0,0.0004464,4460.9,0.0001564,-0.0029933,0.00013173,-185.3,-0.00044926,-4550.7,0.33871
14008,5.9419,3.6364,0.05,1.1333e-06,11.325,8.7024e-07,6.5386,2.2949e-12,-3.7647e-06,-8.7024e-07,-6.5387,0.33853
14009,6.2183,3.6364,0,0.0004393,4389.9,0.00015277,-0.001655,0.00013162,-158.88,-0.00044178,-4467.2,0.36431
14010,6.1261,3.5455,0,0.00044152,4412.1,0.00015401,-0.0028446,0.00013147,-169.34,-0.00044415,-4494.4,0.3558
14011,6.1261,3.6364,0.05,1.1094e-06,11.086,8.5187e-07,6.4005,-1.0715e-12,-7.5994e-06,-8.5187e-07,-6.4007,0.35562
14012,6.4025,3.6364,0,0.00043438,4340.8,0.00015048,-0.001519,0.00013115,-145.23,-0.00043667,-4411.6,0.38185
14013,6.3104,3.5455,0,0.00043663,4363.3,0.00015168,-0.0025778,0.00013109,-154.72,-0.00043905,-4438.6,0.37319
14014,6.3104,3.6364,0.05,1.0889e-06,10.881,8.3611e-07,6.2822,-8.9546e-13,-8.3563e-07,-8.3611e-07,-6.2822,0.37301
14015,6.5868,3.6364,0,0.00042946,4291.6,0.00014824,-0.0012934,0.00013058,-132.69,-0.00043156,-4356.4,0.39969
14016,6.4947,3.5455,0,0.00043173,4314.3,0.00014941,-0.0022354,0.0001306,-141.32,-0.00043396,-4383.2,0.39087
14017,6.4947,3.6364,0.05,1.0711e-06,10.703,8.2246e-07,6.1796,2.8315e-12,-2.3413e-06,-8.2246e-07,-6.1796,0.3907
14018,6.7711,3.6364,0,0.00042452,4242.2,0.00014605,-0.00101,0.00012992,-121.17,-0.00042645,-4301.5,0.41782
14019,6.6789,3.5455,0,0.00042681,4265.2,0.00014719,-0.0018478,0.00013002,-129.03,-0.00042886,-4328.2,0.40886
14020,6.6789,3.6364,0.05,1.0555e-06,10.548,8.105e-07,6.0898,4.7582e-12,-1.2452e-06,-8.1049e-07,-6.0898,0.40868
14021,6.9553,3.6364,0,0.00041956,4192.7,0.0001439,-0.0006916,0.00012918,-110.59,-0.00042133,-4246.9,0.43624
14022,6.8632,3.5455,0,0.00042188,4215.9,0.00014501,-0.0014362,0.00012934,-117.76,-0.00042376,-4273.5,0.42713
14023,6.8632,3.6364,0.05,1.0417e-06,10.41,7.9992e-07,6.0102,1.197e-12,-3.7969e-06,-7.9992e-07,-6.0103,0.42696
14024,7.1396,3.6364,0,0.00041459,4143,0.00014178,-0.0003547,0.00012836,-100.87,-0.00041621,-4192.6,0.45494
14025,7.0475,3.5455,0,0.00041693,4166.4,0.00014287,-0.0010163,0.00012858,-107.4,-0.00041865,-4219.1,0.44569
14026,7.0475,3.6364,0.05,1.0294e-06,10.287,7.9046e-07,5.9392,1.2544e-12,-3.2477e-06,-7.9046e-07,-5.9392,0.44552
14027,7.3239,3.6364,0,0.0004096,4093.2,0.0001397,-1.068e-05,0.00012746,-91.921,-0.00041109,-4138.4,0.47393
14028,7.2317,3.5455,0,0.00041196,4116.8,0.00014077,-0.0005992,0.00012774,-97.893,-0.00041354,-4164.8,0.46454
14029,7.2317,3.6364,0.05,1.0183e-06,10.176,7.8192e-07,5.8751,1.2976e-12,-2.6203e-06,-7.8194e-07,-5.8751,0.46437
14030,7.5081,3.6364,0,0.0004046,4043.3,0.00013764,0.00033279,0.0001265,-83.692,-0.00040596,-4084.4,0.49319
14031,7.416,3.5455,0,0.00040698,4067,0.0001387,-0.00019053,0.00012683,-89.154,-0.00040842,-4110.8,0.48366
14032,7.416,3.6364,0.05,1.0082e-06,10.075,7.7416e-07,5.8167,-4.3742e-13,-1.4474e-06,-7.7416e-07,-5.8168,0.48349
14033,7.6924,3.6364,0,0.00039959,3993.2,0.00013562,0.00067016,0.00012549,-76.119,-0.00040083,-4030.7,0.51274
14034,7.6003,3.5455,0,0.00040198,4017.1,0.00013665,0.0002043,0.00012586,-81.12,-0.0004033,-4057,0.50307
14035,7.6003,3.6364,0.05,9.989e-07,9.9821,7.6703e-07,5.7631,1.4135e-12,8.2671e-07,-7.6703e-07,-5.7632,0.5029
14036,7.8767,3.6364,0,0.00039457,3943,0.00013362,0.00099786,0.00012441,-69.146,-0.0003957,-3977.1,0.53255
14037,7.7845,3.5455,0,0.00039697,3967,0.00013464,0.00058309,0.00012482,-73.73,-0.00039818,-4003.4,0.52274
14038,7.7845,3.6364,0.05,9.9031e-07,9.8962,7.6043e-07,5.7136,1.4631e-12,-2.6744e-06,-7.6044e-07,-5.7136,0.52258
14039,8.0609,3.6364,0,0.00038954,3892.7,0.00013164,0.0013133,0.00012329,-62.725,-0.00039056,-3923.6,0.55263
14040,7.9688,3.5455,0,0.00039195,3916.8,0.00013265,0.00094378,0.00012374,-66.929,-0.00039305,-3949.9,0.54269
14041,7.9688,3.6364,0.05,9.823e-07,9.8163,7.5429e-07,5.6674,3.3202e-12,-9.3587e-07,-7.5428e-07,-5.6674,0.54253
14042,8.2452,3.6364,0,0.00038449,3842.3,0.00012969,0.0016159,0.00012213,-56.81,-0.00038543,-3870.4,0.57298
14043,8.1531,3.5455,0,0.00038692,3866.6,0.00013068,0.0012862,0.0001226,-60.669,-0.00038792,-3896.5,0.56291
14044,8.1531,3.6364,0.05,9.748e-07,9.7413,7.4853e-07,5.6241,1.5328e-12,-2.6937e-07,-7.4853e-07,-5.6242,0.56274
14045,8.4295,3.6364,0,0.00037945,3791.9,0.00012775,0.0019054,0.00012092,-51.359,-0.00038029,-3817.3,0.59359
14046,8.3373,3.5455,0,0.00038189,3816.2,0.00012873,0.0016114,0.00012143,-54.904,-0.00038279,-3843.4,0.58338
14047,8.3373,3.6364,0.05,9.6773e-07,9.6706,7.4309e-07,5.5833,2.4636e-12,-7.5335e-08,-7.431e-07,-5.5834,0.58322
14048,8.6137,3.6364,0,0.0003744,3741.4,0.00012584,0.0021812,0.00011967,-46.334,-0.00037516,-3764.3,0.61446
14049,8.5216,3.5455,0,0.00037684,3765.8,0.00012681,0.0019184,0.00012021,-49.593,-0.00037766,-3790.4,0.60412
14050,8.5216,3.6364,0.05,9.6102e-07,9.6036,7.3794e-07,5.5446,2.4852e-12,1.094e-07,-7.3795e-07,-5.5447,0.60396
14051,8.798,3.6364,0,0.00036934,3690.9,0.00012394,0.0024448,0.00011839,-41.701,-0.00037003,-3711.5,0.63558
14052,8.7059,3.5455,0,0.0003718,3715.4,0.0001249,0.0022092,0.00011895,-44.698,-0.00037254,-3737.5,0.62512
14053,8.7059,3.6364,0.05,9.5464e-07,9.5398,7.3305e-07,5.5078,2.5165e-12,-1.8087e-07,-7.3304e-07,-5.5078,0.62496
14054,8.9823,3.6364,0,0.00036429,3640.4,0.00012206,0.0026966,0.00011708,-37.428,-0.00036491,-3658.9,0.65696
14055,8.8901,3.5455,0,0.00036675,3664.9,0.00012301,0.0024846,0.00011766,-40.186,-0.00036741,-3684.9,0.64636
14056,8.8901,3.6364,0.05,9.4854e-07,9.4789,7.2836e-07,5.4726,3.443e-12,-1.2665e-08,-7.2837e-07,-5.4727,0.64621
14057,9.1665,3.6364,0,0.00035923,3589.8,0.0001202,0.002937,0.00011574,-33.485,-0.00035979,-3606.5,0.67858
14058,9.0744,3.5455,0,0.0003617,3614.5,0.00012114,0.0027459,0.00011634,-36.025,-0.0003623,-3632.3,0.66786
14059,9.0744,3.6364,0.05,9.4269e-07,9.4204,7.2387e-07,5.4388,1.6481e-12,1.1687e-07,-7.2387e-07,-5.4389,0.66771
14060,9.3508,3.6364,0,0.00035418,3539.3,0.00011835,0.0031681,0.00011438,-29.846,-0.00035468,-3554.2,0.70044
14061,9.2587,3.5455,0,0.00035665,3564,0.00011928,0.0029942,0.000115,-32.186,-0.00035718,-3580,0.6896
14062,9.2587,3.6364,0.05,9.3706e-07,9.3641,7.1954e-07,5.4064,7.525e-13,5.1609e-07,-7.1955e-07,-5.4064,0.68945
14063,9.5351,3.6364,0,0.00034913,3488.9,0.00011652,0.0033901,0.000113,-26.486,-0.00034957,-3502,0.72255
14064,9.4429,3.5455,0,0.0003516,3513.6,0.00011744,0.0032316,0.00011363,-28.644,-0.00035208,-3527.8,0.71159
14065,9.4429,3.6364,0.05,9.3163e-07,9.3098,7.1538e-07,5.375,1.6861e-12,-7.8223e-08,-7.1537e-07,-5.3751,0.71144
14066,9.7193,3.6364,0,0.00034408,3438.5,0.0001147,0.0036081,0.00011159,-23.384,-0.00034448,-3450.1,0.74489
14067,9.6272,3.5455,0,0.00034655,3463.1,0.00011562,0.0034571,0.00011224,-25.374,-0.00034698,-3475.8,0.73381
14068,9.6272,3.6364,0.05,9.2637e-07,9.2573,7.1133e-07,5.3447,1.6959e-12,1.2002e-06,-7.1134e-07,-5.3447,0.73367
14069,9.9036,3.6364,0,0.00033904,3388.1,0.0001129,0.0038206,0.00011017,-20.518,-0.00033939,-3398.3,0.76747
14070,9.8115,3.5455,0,0.00034151,3412.8,0.00011381,0.0036825,0.00011083,-22.354,-0.00034189,-3423.9,0.75627
14071,9.8115,3.6364,0.05,9.2127e-07,9.2063,7.0742e-07,5.3152,2.6208e-12,1.5439e-06,-7.0742e-07,-5.3153,0.75613
14072,10.088,3.6364,0,0.00033401,3337.8,0.00011111,0.0040266,0.00010873,-17.869,-0.00033431,-3346.7,0.79028
14073,9.9957,3.5455,0,0.00033648,3362.5,0.00011201,0.003893,0.0001094,-19.564,-0.00033681,-3372.2,0.77897
14074,9.9957,3.6364,0.05,9.1631e-07,9.1568,7.0361e-07,5.2867,8.1312e-13,1.4193e-06,-7.0362e-07,-5.2867,0.77882
14075,10.272,3.6364,0,0.00032898,3287.6,0.00010933,0.004238,0.00010728,-15.419,-0.00032924,-3295.2,0.81332
14076,10.18,3.5455,0,0.00033145,3312.2,0.00011022,0.0041007,0.00010796,-16.985,-0.00033174,-3320.7,0.80189
14077,10.18,3.6364,0.05,9.1149e-07,9.1086,6.9991e-07,5.2588,1.7326e-12,2.4627e-06,-6.9991e-07,-5.2589,0.80174
14078,10.456,3.6364,0,0.00032397,3237.4,0.00010756,0.0044325,0.00010581,-13.154,-0.00032419,-3244,0.83658
14079,10.364,3.5455,0,0.00032643,3262.1,0.00010845,0.0043163,0.0001065,-14.601,-0.00032668,-3269.4,0.82503
14080,10.364,3.6364,0.05,9.0678e-07,9.0615,6.9629e-07,5.2317,2.654e-12,2.0598e-06,-6.963e-07,-5.2317,0.82489
14081,10.641,3.6364,0,0.00031896,3187.4,0.0001058,0.0046285,0.00010433,-11.057,-0.00031915,-3192.9,0.86006
14082,10.549,3.5455,0,0.00032142,3212,0.00010668,0.004483,0.00010503,-12.396,-0.00032163,-3218.2,0.8484
14083,10.549,3.6364,0.05,9.0218e-07,9.0155,6.9276e-07,5.2051,2.6636e-12,2.241e-06,-6.9276e-07,-5.2051,0.84826
14084,10.825,3.6364,0,0.00031396,3137.4,0.00010406,0.0048784,0.00010285,-9.1152,-0.00031412,-3142,0.88375
14085,10.733,3.5455,0,0.00031642,3162,0.00010493,0.0046928,0.00010355,-10.354,-0.0003166,-3167.2,0.87199
14086,10.733,3.6364,0.05,8.9766e-07,8.9704,6.8929e-07,5.1791,1.7627e-12,2.0797e-06,-6.8929e-07,-5.1791,0.87185
14087,11.009,3.6364,0,0.00030898,3087.6,0.00010232,0.0051581,0.00010135,-7.3157,-0.0003091,-3091.3,0.90766
14088,10.917,3.5455,0,0.00031143,3112.2,0.00010319,0.0049561,0.00010206,-8.4629,-0.00031157,-3116.4,0.89579
14089,10.917,3.6364,0.05,8.9324e-07,8.9263,6.859e-07,5.1536,3.5894e-12,1.602e-06,-6.859e-07,-5.1536,0.89565
14090,11.193,3.6364,0,0.000304,3037.9,0.0001006,0.0054656,9.9848e-05,-5.647,-0.0003041,-3040.7,0.93178
14091,11.101,3.5455,0,0.00030645,3062.4,0.00010146,0.0052061,0.00010057,-6.7101,-0.00030657,-3065.8,0.9198
14092,11.101,3.6364,0.05,8.8892e-07,8.883,6.8257e-07,5.1286,2.6891e-12,1.7922e-06,-6.8258e-07,-5.1287,0.91967
14093,11.378,3.6364,0,0.00029904,2988.3,9.8886e-05,0.0058579,9.834e-05,-4.0981,-0.00029911,-2990.4,0.95611
14094,11.286,3.5455,0,0.00030149,3012.8,9.9742e-05,0.0054947,9.9065e-05,-5.0841,-0.00030157,-3015.3,0.94402
14095,11.286,3.6364,0.05,8.8466e-07,8.8405,6.7931e-07,5.1041,2.6959e-12,1.2776e-06,-6.7931e-07,-5.1041,0.94389
14096,11.562,3.6364,0,0.00029409,2938.9,9.7182e-05,0.0065156,9.6827e-05,-2.6592,-0.00029413,-2940.2,0.98063
14097,11.47,3.5455,0,0.00029653,2963.3,9.8033e-05,0.0058554,9.7556e-05,-3.5745,-0.00029659,-2965,0.96845
14098,11.47,3.6364,0.05,8.8048e-07,8.7987,6.761e-07,5.0799,1.794e-12,1.8499e-06,-6.761e-07,-5.08,0.96832
14099,11.746,3.6364,0,0.00028915,2889.5,9.5487e-05,0.0082202,9.531e-05,-1.3216,-0.00028918,-2890.2,1.0054
14100,11.654,3.5455,0,0.00029159,2913.9,9.6333e-05,0.0065467,9.6043e-05,-2.1714,-0.00029163,-2915,0.99308
14101,11.654,3.6364,0.05,8.7634e-07,8.7574,6.7292e-07,5.056,1.7994e-12,2.0057e-06,-6.7292e-07,-5.0561,0.99295
14102,11.931,3.6364,0,0.00028423,2840.4,9.3805e-05,0.041668,9.3786e-05,-0.10751,-0.00028423,-2840.4,1.0303
14103,11.838,3.5455,0,0.00028666,2864.6,9.4642e-05,0.0088258,9.4526e-05,-0.86704,-0.00028668,-2865.1,1.0179
14104,11.838,3.6364,0.05,8.7228e-07,8.7168,6.698e-07,5.0326,2.715e-12,2.0451e-06,-6.6981e-07,-5.0327,1.0178
14105,12.115,3.6364,0,0.00027933,2791.3,9.2269e-05,1.0964,9.2123e-05,0.0016472,-0.00027931,-2790.8,1.0554
14106,12.023,3.5455,0,0.00028175,2815.6,9.3008e-05,0.36266,9.2959e-05,-0.0031155,-0.00028174,-2815.4,1.0429
14107,12.023,3.6364,0.05,8.6828e-07,8.6768,6.6673e-07,5.0096,1.8113e-12,2.4742e-06,-6.6673e-07,-5.0096,1.0428
14108,12.299,3.6364,0,0.00027443,2742.4,9.0745e-05,2.182,9.0455e-05,0.0036355,-0.0002744,-2741.4,1.0807
14109,12.207,3.5455,0,0.00027685,2766.6,9.1486e-05,1.493,9.1287e-05,0.003529,-0.00027683,-2765.9,1.0681
14110,12.207,3.6364,0.05,8.6433e-07,8.6373,6.637e-07,4.9867,9.0709e-13,2.7984e-06,-6.637e-07,-4.9868,1.068
14111,12.483,3.6364,0,0.00026956,2693.7,8.9221e-05,3.1998,8.8796e-05,0.0043463,-0.0002695,-2692.1,1.1062
14112,12.391,3.5455,0,0.00027197,2717.8,8.9963e-05,2.5553,8.9623e-05,0.0044872,-0.00027192,-2716.5,1.0935
14113,12.391,3.6364,0.05,8.6042e-07,8.5983,6.6069e-07,4.9642,9.1196e-13,1.9815e-06,-6.607e-07,-4.9642,1.0934
14114,12.668,3.6364,0,0.0002647,2645.2,8.7697e-05,4.1554,8.7145e-05,0.0047878,-0.00026463,-2643.1,1.1319
14115,12.575,3.5455,0,0.0002671,2669.2,8.844e-05,3.5515,8.7968e-05,0.0049576,-0.00026704,-2667.4,1.1191
14116,12.575,3.6364,0.05,8.5655e-07,8.5596,6.5772e-07,4.9419,9.1644e-13,1.5505e-06,-6.5772e-07,-4.9419,1.119
14117,12.852,3.6364,0,0.00025985,2596.8,8.6174e-05,5.0546,8.5502e-05,0.0051129,-0.00025977,-2594.2,1.1577
14118,12.76,3.5455,0,0.00026225,2620.7,8.6917e-05,4.4878,8.6321e-05,0.005307,-0.00026217,-2618.4,1.1449
14119,12.76,3.6364,0.05,8.5273e-07,8.5214,6.5479e-07,4.9198,1.1064e-14,2.4834e-06,-6.5479e-07,-4.9198,1.1448
14120,13.036,3.6364,0,0.00025503,2548.5,8.4652e-05,5.9033,8.3867e-05,0.0053603,-0.00025493,-2545.6,1.1838
14121,12.944,3.5455,0,0.00025742,2572.4,8.5395e-05,5.3698,8.4681e-05,0.0055585,-0.00025732,-2569.7,1.1708
14122,12.944,3.6364,0.05,8.4895e-07,8.4837,6.5189e-07,4.898,1.8337e-12,3.0883e-06,-6.5189e-07,-4.8981,1.1707
14123,13.22,3.6364,0,0.00025022,2500.5,8.3132e-05,6.7066,8.224e-05,0.0055582,-0.0002501,-2497.1,1.21
14124,13.128,3.5455,0,0.0002526,2524.2,8.3875e-05,6.2034,8.305e-05,0.0057671,-0.00025249,-2521.1,1.1969
14125,13.128,3.6364,0.05,8.4522e-07,8.4463,6.4902e-07,4.8765,1.8369e-12,4.1247e-06,-6.4902e-07,-4.8765,1.1968
14126,13.405,3.6364,0,0.00024543,2452.6,8.1614e-05,7.47,8.0621e-05,0.0057398,-0.0002453,-2448.8,1.2364
14127,13.313,3.5455,0,0.0002478,2476.3,8.2357e-05,6.9938,8.1427e-05,0.0059295,-0.00024768,-2472.8,1.2232
14128,13.313,3.6364,0.05,8.4151e-07,8.4093,6.4617e-07,4.8551,9.2961e-13,4.267e-06,-6.4618e-07,-4.8551,1.2231
14129,13.589,3.6364,0,0.00024065,2404.8,8.0099e-05,8.1982,7.9009e-05,0.0059399,-0.00024051,-2400.7,1.2629
14130,13.497,3.5455,0,0.00024301,2428.5,8.0841e-05,7.7462,7.9811e-05,0.0061125,-0.00024288,-2424.6,1.2497
14131,13.497,3.6364,0.05,8.3782e-07,8.3725,6.4335e-07,4.8338,1.8416e-12,4.2253e-06,-6.4335e-07,-4.8339,1.2496
14132,13.773,3.6364,0,0.00023589,2357.3,7.8588e-05,8.8958,7.7405e-05,0.0061347,-0.00023574,-2352.9,1.2896
14133,13.681,3.5455,0,0.00023825,2380.8,7.9329e-05,8.4653,7.8203e-05,0.0063184,-0.0002381,-2376.6,1.2763
14134,13.681,3.6364,0.05,8.3418e-07,8.3361,6.4055e-07,4.8128,1.8437e-12,3.1654e-06,-6.4055e-07,-4.8128,1.2762
14135,13.957,3.6364,0,0.00023116,2310,7.708e-05,9.5674,7.5807e-05,0.0063093,-0.00023099,-2305.2,1.3165
14136,13.865,3.5455,0,0.0002335,2333.4,7.782e-05,9.1558,7.6602e-05,0.0064944,-0.00023334,-2328.8,1.3031
14137,13.865,3.6364,0.05,8.3057e-07,8.3,6.3778e-07,4.792,2.7551e-12,3.364e-06,-6.3778e-07,-4.792,1.303
14138,14.142,3.6364,0,0.00022644,2262.8,7.5577e-05,10.217,7.4218e-05,0.0064666,-0.00022626,-2257.7,1.3435
14139,14.05,3.5455,0,0.00022877,2286.1,7.6315e-05,9.8221,7.5009e-05,0.0066622,-0.0002286,-2281.2,1.33
14140,14.05,3.6364,0.05,8.27e-07,8.2643,6.3503e-07,4.7714,2.7577e-12,3.373e-06,-6.3503e-07,-4.7714,1.3299
14141,14.326,3.6364,0,0.00022173,2215.8,7.4078e-05,10.849,7.2635e-05,0.0066262,-0.00022155,-2210.4,1.3707
14142,14.234,3.5455,0,0.00022406,2239.1,7.4814e-05,10.468,7.3422e-05,0.0068063,-0.00022388,-2233.8,1.3571
14143,14.234,3.6364,0.05,8.2344e-07,8.2287,6.323e-07,4.7509,3.1261e-14,2.9745e-06,-6.323e-07,-4.7509,1.357
14144,14.51,3.6364,0,0.00021705,2169,7.2584e-05,11.468,7.1059e-05,0.0068152,-0.00021685,-2163.3,1.398
14145,14.418,3.5455,0,0.00021937,2192.2,7.3319e-05,11.099,7.1843e-05,0.0069802,-0.00021918,-2186.6,1.3844
14146,14.418,3.6364,0.05,8.1991e-07,8.1934,6.2958e-07,4.7305,9.4089e-13,3.8272e-06,-6.2959e-07,-4.7305,1.3843
14147,14.695,3.6364,0,0.00021239,2122.4,7.1097e-05,12.077,6.949e-05,0.0070089,-0.00021218,-2116.4,1.4255
14148,14.602,3.5455,0,0.0002147,2145.5,7.1829e-05,11.718,7.027e-05,0.0071846,-0.0002145,-2139.6,1.4118
14149,14.602,3.6364,0.05,8.1641e-07,8.1584,6.269e-07,4.7102,1.851e-12,4.8967e-06,-6.269e-07,-4.7103,1.4117
14150,14.879,3.6364,0,0.00020775,2076,6.9615e-05,12.68,6.7928e-05,0.0071911,-0.00020753,-2069.7,1.4531
14151,14.787,3.5455,0,0.00021005,2099,7.0344e-05,12.328,6.8704e-05,0.0073689,-0.00020983,-2092.8,1.4393
14152,14.787,3.6364,0.05,8.1294e-07,8.1238,6.2423e-07,4.6903,1.8513e-12,6.6765e-06,-6.2424e-07,-4.6903,1.4392
14153,15.063,3.6364,0,0.00020312,2029.8,6.8139e-05,13.281,6.6372e-05,0.0073641,-0.00020289,-2023.2,1.4808
14154,14.971,3.5455,0,0.00020541,2052.7,6.8866e-05,12.935,6.7145e-05,0.007551,-0.00020519,-2046.2,1.467
14155,14.971,3.6364,0.05,8.0949e-07,8.0894,6.2159e-07,4.6704,2.7601e-12,5.3634e-06,-6.2159e-07,-4.6704,1.4669
14156,15.247,3.6364,0,0.00019852,1983.8,6.667e-05,13.884,6.4823e-05,0.0075445,-0.00019828,-1976.8,1.5087
14157,15.155,3.5455,0,0.0002008,2006.6,6.7394e-05,13.542,6.5593e-05,0.0077172,-0.00020057,-1999.8,1.4948
14158,15.155,3.6364,0.05,8.0607e-07,8.0552,6.1896e-07,4.6507,9.4377e-13,6.5697e-06,-6.1896e-07,-4.6507,1.4947
14159,15.432,3.6364,0,0.00019394,1938,6.5208e-05,14.493,6.328e-05,0.007757,-0.00019369,-1930.7,1.5368
14160,15.339,3.5455,0,0.00019621,1960.7,6.5929e-05,14.153,6.4047e-05,0.0079153,-0.00019596,-1953.6,1.5228
14161,15.339,3.6364,0.05,8.0267e-07,8.0212,6.1635e-07,4.631,3.6948e-14,5.8752e-06,-6.1635e-07,-4.631,1.5227
14162,15.616,3.6364,0,0.00018937,1892.4,6.3754e-05,15.111,6.1744e-05,0.0079779,-0.00018911,-1884.8,1.5649
14163,15.524,3.5455,0,0.00019163,1915,6.4472e-05,14.771,6.2507e-05,0.0081464,-0.00019138,-1907.6,1.5509
14164,15.524,3.6364,0.05,7.993e-07,7.9875,6.1377e-07,4.6116,3.8985e-14,5.0617e-06,-6.1377e-07,-4.6116,1.5508
14165,15.8,3.6364,0,0.00018483,1847,6.2308e-05,15.743,6.0214e-05,0.0081933,-0.00018456,-1839.1,1.5932
14166,15.708,3.5455,0,0.00018708,1869.5,6.3022e-05,15.402,6.0974e-05,0.0083612,-0.00018682,-1861.8,1.5791
14167,15.708,3.6364,0.05,7.9597e-07,7.9542,6.112e-07,4.5924,4.0974e-14,3.5286e-06,-6.1121e-07,-4.5924,1.579
14168,15.984,3.6364,0,0.00018031,1801.9,6.087e-05,16.392,5.869e-05,0.008407,-0.00018003,-1793.6,1.6216
14169,15.892,3.5455,0,0.00018255,1824.3,6.1581e-05,16.047,5.9446e-05,0.0085829,-0.00018227,-1816.2,1.6075
14170,15.892,3.6364,0.05,7.9266e-07,7.9211,6.0866e-07,4.5733,4.3338e-14,4.6251e-06,-6.0866e-07,-4.5733,1.6074
14171,16.169,3.6364,0,0.00017581,1756.9,5.9441e-05,17.062,5.7171e-05,0.0086323,-0.00017551,-1748.3,1.6502
14172,16.077,3.5455,0,0.00017804,1779.2,6.0148e-05,16.713,5.7925e-05,0.0087947,-0.00017775,-1770.8,1.6359
14173,16.077,3.6364,0.05,7.8938e-07,7.8883,6.0614e-07,4.5543,9.5663e-13,5e-06,-6.0614e-07,-4.5543,1.6359
14174,16.353,3.6364,0,0.00017133,1712.2,5.8021e-05,17.759,5.5659e-05,0.0088907,-0.00017102,-1703.2,1.6788
14175,16.261,3.5455,0,0.00017355,1734.3,5.8724e-05,17.402,5.6409e-05,0.0090393,-0.00017325,-1725.6,1.6645
14176,16.261,3.6364,0.05,7.8611e-07,7.8557,6.0364e-07,4.5355,5.025e-13,5.9705e-06,-6.0364e-07,-4.5355,1.6645
14177,16.537,3.6364,0,0.00016688,1667.6,5.6611e-05,18.486,5.4152e-05,0.0091627,-0.00016655,-1658.3,1.7076
14178,16.445,3.5455,0,0.00016909,1689.7,5.731e-05,18.12,5.4899e-05,0.0093188,-0.00016877,-1680.6,1.6933
14179,16.445,3.6364,0.05,7.8289e-07,7.8235,6.0116e-07,4.5169,9.5979e-13,5.999e-06,-6.0116e-07,-4.5169,1.6932
14180,16.721,3.6364,0,0.00016244,1623.3,5.5211e-05,19.247,5.2651e-05,0.009437,-0.00016211,-1613.6,1.7365
14181,16.629,3.5455,0,0.00016464,1645.3,5.5906e-05,18.871,5.3395e-05,0.0095909,-0.00016431,-1635.8,1.7221
14182,16.629,3.6364,0.05,7.797e-07,7.7917,5.9872e-07,4.4985,9.6451e-13,6.7254e-06,-5.9872e-07,-4.4985,1.722
14183,16.906,3.6364,0,0.00015803,1579.2,5.3822e-05,20.049,5.1155e-05,0.0097157,-0.00015768,-1569.1,1.7655
14184,16.814,3.5455,0,0.00016022,1601.1,5.4512e-05,19.66,5.1897e-05,0.0098736,-0.00015988,-1591.2,1.751
14185,16.814,3.6364,0.05,7.7655e-07,7.7602,5.9629e-07,4.4803,5.7742e-14,5.6925e-06,-5.963e-07,-4.4803,1.7509
14186,17.09,3.6364,0,0.00015364,1535.4,5.2444e-05,20.895,4.9664e-05,0.010013,-0.00015328,-1524.8,1.7946
14187,16.998,3.5455,0,0.00015582,1557.1,5.3129e-05,20.492,5.0403e-05,0.010156,-0.00015546,-1546.8,1.7801
14188,16.998,3.6364,0.05,7.7343e-07,7.729,5.939e-07,4.4623,9.715e-13,6.1723e-06,-5.939e-07,-4.4623,1.78
14189,17.274,3.6364,0,0.00014928,1491.7,5.1078e-05,21.791,4.8179e-05,0.010347,-0.00014889,-1480.7,1.8238
14190,17.182,3.5455,0,0.00015144,1513.4,5.1758e-05,21.371,4.8915e-05,0.010477,-0.00015107,-1502.6,1.8092
14191,17.182,3.6364,0.05,7.7034e-07,7.6981,5.9153e-07,4.4445,5.1627e-13,5.4681e-06,-5.9153e-07,-4.4445,1.8092
14192,17.459,3.6364,0,0.00014494,1448.4,4.9724e-05,22.743,4.6699e-05,0.010702,-0.00014453,-1436.8,1.8531
14193,17.366,3.5455,0,0.00014709,1469.9,5.0399e-05,22.305,4.7432e-05,0.010833,-0.0001467,-1458.6,1.8385
14194,17.366,3.6364,0.05,7.673e-07,7.6677,5.8919e-07,4.427,6.7473e-14,5.5055e-06,-5.8919e-07,-4.427,1.8384
14195,17.643,3.6364,0,0.00014062,1405.2,4.8383e-05,23.757,4.5223e-05,0.01107,-0.0001402,-1393.2,1.8825
14196,17.551,3.5455,0,0.00014276,1426.6,4.9053e-05,23.298,4.5953e-05,0.011195,-0.00014235,-1414.8,1.8678
14197,17.551,3.6364,0.05,7.6431e-07,7.6378,5.8689e-07,4.4097,7.1084e-14,6.4974e-06,-5.8689e-07,-4.4097,1.8678
14198,17.827,3.6364,0,0.00013632,1362.3,4.7056e-05,24.838,4.3752e-05,0.011452,-0.00013588,-1349.7,1.912
14199,17.735,3.5455,0,0.00013846,1383.6,4.772e-05,24.356,4.448e-05,0.011577,-0.00013803,-1371.3,1.8973
14200,17.735,3.6364,0.05,7.6136e-07,7.6084,5.8463e-07,4.3927,1.4434e-12,4.8826e-06,-5.8463e-07,-4.3927,1.8972
14201,18.011,3.6364,0,0.00013205,1319.6,4.5743e-05,25.995,4.2285e-05,0.01186,-0.00013159,-1306.4,1.9416
14202,17.919,3.5455,0,0.00013418,1340.8,4.6401e-05,25.488,4.301e-05,0.011969,-0.00013372,-1327.9,1.9268
14203,17.919,3.6364,0.05,7.5846e-07,7.5794,5.824e-07,4.376,1.4462e-12,5.6173e-06,-5.824e-07,-4.376,1.9268
14204,18.196,3.6364,0,0.00012781,1277.2,4.4445e-05,27.235,4.0822e-05,0.012314,-0.00012732,-1263.4,1.9713
14205,18.103,3.5455,0,0.00012992,1298.3,4.5097e-05,26.699,4.1545e-05,0.012405,-0.00012945,-1284.7,1.9565
14206,18.103,3.6364,0.05,7.5561e-07,7.5509,5.8022e-07,4.3595,9.9941e-13,6.1559e-06,-5.8022e-07,-4.3595,1.9564
14207,18.38,3.6364,0,0.00012359,1235.1,4.3163e-05,28.564,3.9363e-05,0.012802,-0.00012308,-1220.5,2.001
14208,18.288,3.5455,0,0.00012569,1256,4.3809e-05,27.998,4.0084e-05,0.012889,-0.00012519,-1241.8,1.9862
14209,18.288,3.6364,0.05,7.5283e-07,7.5231,5.7808e-07,4.3434,5.5554e-13,7.6682e-06,-5.7808e-07,-4.3434,1.9861
14210,18.564,3.6364,0,0.0001194,1193.2,4.1898e-05,29.992,3.7908e-05,0.013316,-0.00011886,-1177.9,2.0309
14211,18.472,3.5455,0,0.00012149,1214,4.2537e-05,29.392,3.8627e-05,0.013393,-0.00012096,-1199.1,2.016
14212,18.472,3.6364,0.05,7.5011e-07,7.4959,5.7599e-07,4.3278,1.4709e-12,1.008e-05,-5.7599e-07,-4.3278,2.0159
14213,18.748,3.6364,0,0.00011524,1151.6,4.065e-05,31.527,3.6456e-05,0.01386,-0.00011467,-1135.5,2.0608
14214,18.656,3.5455,0,0.00011731,1172.3,4.1283e-05,30.891,3.7173e-05,0.013929,-0.00011675,-1156.5,2.0459
14215,18.656,3.6364,0.05,7.4746e-07,7.4694,5.7396e-07,4.3125,1.0222e-12,7.0282e-06,-5.7395e-07,-4.3125,2.0458
14216,18.933,3.6364,0,0.0001111,1110.2,3.9422e-05,33.179,3.5008e-05,0.014449,-0.0001105,-1093.2,2.0908
14217,18.841,3.5455,0,0.00011316,1130.8,4.0047e-05,32.503,3.5723e-05,0.014495,-0.00011257,-1114.2,2.0759
14218,18.841,3.6364,0.05,7.4488e-07,7.4437,5.7198e-07,4.2976,1.2364e-13,4.7641e-06,-5.7198e-07,-4.2976,2.0758
14219,19.117,3.6364,0,0.00010699,1069.2,3.8212e-05,34.958,3.3562e-05,0.015101,-0.00010635,-1051.2,2.1209
14220,19.025,3.5455,0,0.00010904,1089.6,3.883e-05,34.24,3.4275e-05,0.015121,-0.00010842,-1072.1,2.1059
14221,19.025,3.6364,0.05,7.4239e-07,7.4188,5.7006e-07,4.2832,1.4036e-13,7.701e-06,-5.7006e-07,-4.2832,2.1059
14222,19.301,3.6364,0,0.00010291,1028.4,3.7024e-05,36.876,3.2118e-05,0.015807,-0.00010223,-1009.4,2.1511
14223,19.209,3.5455,0,0.00010495,1048.8,3.7634e-05,36.111,3.283e-05,0.015814,-0.00010429,-1030.2,2.136
14224,19.209,3.6364,0.05,7.3999e-07,7.3948,5.6822e-07,4.2694,6.0842e-13,7.3375e-06,-5.6822e-07,-4.2694,2.136
14225,19.485,3.6364,0,9.8859e-05,987.91,3.5858e-05,38.944,3.0677e-05,0.016567,-9.8139e-05,-967.85,2.1813
14226,19.393,3.5455,0,0.00010088,1008.2,3.6459e-05,38.129,3.1387e-05,0.01655,-0.00010018,-988.54,2.1662
14227,19.393,3.6364,0.05,7.3769e-07,7.3719,5.6646e-07,4.2561,1.6825e-13,8.8955e-06,-5.6646e-07,-4.2561,2.1662
14228,19.67,3.6364,0,9.484e-05,947.75,3.4715e-05,41.175,2.9237e-05,0.017387,-9.4072e-05,-926.48,2.2116
14229,19.578,3.5455,0,9.6853e-05,967.86,3.5308e-05,40.306,2.9946e-05,0.017349,-9.6104e-05,-947.07,2.1965
14230,19.578,3.6364,0.05,7.3551e-07,7.35,5.6478e-07,4.2435,6.3729e-13,9.4874e-06,-5.6478e-07,-4.2435,2.1964
14231,19.854,3.6364,0,9.0853e-05,907.9,3.3596e-05,43.582,2.7798e-05,0.018284,-9.0033e-05,-885.32,2.242
14232,19.762,3.5455,0,9.2853e-05,927.89,3.418e-05,42.655,2.8506e-05,0.018209,-9.2053e-05,-905.82,2.2268
14233,19.762,3.6364,0.05,7.3345e-07,7.3294,5.632e-07,4.2317,6.4601e-13,8.1299e-06,-5.632e-07,-4.2316,2.2268
14234,20.038,3.6364,0,8.6899e-05,868.39,3.2504e-05,46.181,2.636e-05,0.019281,-8.6021e-05,-844.37,2.2724
14235,19.946,3.5455,0,8.8885e-05,888.24,3.3079e-05,45.19,2.7067e-05,0.019163,-8.803e-05,-864.77,2.2572
14236,19.946,3.6364,0.05,7.3152e-07,7.3102,5.6172e-07,4.2205,6.4832e-13,4.7986e-06,-5.6172e-07,-4.2205,2.2572
14237,20.223,3.6364,0,8.2979e-05,829.22,3.1439e-05,48.986,2.4923e-05,0.020379,-8.2037e-05,-803.63,2.3029
14238,20.13,3.5455,0,8.4952e-05,848.93,3.2004e-05,47.928,2.5628e-05,0.020224,-8.4035e-05,-823.94,2.2877
14239,20.13,3.6364,0.05,7.2975e-07,7.2925,5.6036e-07,4.2103,2.0384e-13,7.7026e-06,-5.6036e-07,-4.2103,2.2876
14240,20.407,3.6364,0,7.9095e-05,790.4,3.0404e-05,52.015,2.3484e-05,0.021584,-7.8081e-05,-763.1,2.3334
14241,20.315,3.5455,0,8.1054e-05,809.98,3.0959e-05,50.883,2.4189e-05,0.021379,-8.0068e-05,-783.33,2.3182
14242,20.315,3.6364,0.05,7.2816e-07,7.2765,5.5913e-07,4.2011,6.5757e-13,1.0094e-05,-5.5913e-07,-4.2011,2.3181
14243,20.591,3.6364,0,7.5248e-05,751.96,2.94e-05,55.284,2.2045e-05,0.022917,-7.4154e-05,-722.78,2.364
14244,20.499,3.5455,0,7.7192e-05,771.39,2.9944e-05,54.074,2.275e-05,0.022657,-7.6129e-05,-742.92,2.3487
14245,20.499,3.6364,0.05,7.2675e-07,7.2625,5.5806e-07,4.193,4.0976e-13,1.0921e-05,-5.5805e-07,-4.193,2.3487
14246,20.775,3.6364,0,7.144e-05,713.9,2.8428e-05,58.814,2.0604e-05,0.024406,-7.0257e-05,-682.67,2.3946
14247,20.683,3.5455,0,7.3369e-05,733.18,2.8961e-05,57.519,2.1309e-05,0.024071,-7.222e-05,-702.72,2.3793
14248,20.683,3.6364,0.05,7.2556e-07,7.2506,5.5714e-07,4.1861,6.3112e-13,1.2284e-05,-5.5714e-07,-4.1861,2.3793
14249,20.96,3.6364,0,6.7672e-05,676.26,2.7491e-05,62.623,1.916e-05,0.026088,-6.6389e-05,-642.76,2.4253
14250,20.867,3.5455,0,6.9586e-05,695.38,2.8012e-05,61.236,1.9865e-05,0.02566,-6.8341e-05,-662.72,2.41
14251,20.867,3.6364,0.05,7.2461e-07,7.2411,5.5641e-07,4.1807,4.0894e-13,1.093e-05,-5.5641e-07,-4.1806,2.4099
14252,21.144,3.6364,0,6.3948e-05,639.04,2.6591e-05,66.732,1.7713e-05,0.027988,-6.255e-05,-603.04,2.456
14253,21.052,3.5455,0,6.5845e-05,657.99,2.7099e-05,65.247,1.8419e-05,0.027461,-6.4491e-05,-622.93,2.4407
14254,21.052,3.6364,0.05,7.2393e-07,7.2343,5.5589e-07,4.1768,2.1157e-13,1.111e-05,-5.5589e-07,-4.1767,2.4406
14255,21.328,3.6364,0,6.0269e-05,602.28,2.5729e-05,71.163,1.6262e-05,0.030144,-5.8742e-05,-563.52,2.4868
14256,21.236,3.5455,0,6.2148e-05,621.06,2.6224e-05,69.571,1.6969e-05,0.029489,-6.0671e-05,-583.33,2.4714
14257,21.236,3.6364,0.05,7.2357e-07,7.2307,5.5561e-07,4.1747,2.3187e-13,9.3612e-06,-5.5561e-07,-4.1746,2.4714
14258,21.512,3.6364,0,5.6639e-05,566,2.4908e-05,75.939,1.4806e-05,0.032617,-5.4963e-05,-524.18,2.5176
14259,21.42,3.5455,0,5.85e-05,584.59,2.5389e-05,74.232,1.5513e-05,0.031806,-5.6882e-05,-543.92,2.5022
14260,21.42,3.6364,0.05,7.2355e-07,7.2305,5.556e-07,4.1746,2.6115e-13,6.7302e-06,-5.556e-07,-4.1745,2.5022
14261,21.697,3.6364,0,5.3061e-05,530.24,2.4129e-05,81.082,1.3343e-05,0.035491,-5.1214e-05,-485.02,2.5485
14262,21.605,3.5455,0,5.4901e-05,548.63,2.4596e-05,79.251,1.4052e-05,0.034472,-5.3122e-05,-504.68,2.5331
14263,21.605,3.6364,0.05,7.2393e-07,7.2343,5.5589e-07,4.1767,2.5891e-13,7.6482e-06,-5.5589e-07,-4.1767,2.533
14264,21.881,3.6364,0,4.954e-05,495.05,2.3395e-05,86.615,1.1872e-05,0.038874,-4.7494e-05,-446.02,2.5793
14265,21.789,3.5455,0,5.1358e-05,513.22,2.3846e-05,84.651,1.2584e-05,0.037595,-4.9391e-05,-465.62,2.5639
14266,21.789,3.6364,0.05,7.2475e-07,7.2425,5.5652e-07,4.1815,2.1354e-13,9.237e-06,-5.5652e-07,-4.1814,2.5639
14267,22.065,3.6364,0,4.608e-05,460.49,2.2707e-05,92.561,1.0393e-05,0.042908,-4.3802e-05,-407.16,2.6103
14268,21.973,3.5455,0,4.7873e-05,478.4,2.3141e-05,90.454,1.1108e-05,0.041292,-4.5688e-05,-426.7,2.5948
14269,21.973,3.6364,0.05,7.2608e-07,7.2558,5.5754e-07,4.1891,2.6345e-13,1.336e-05,-5.5754e-07,-4.1891,2.5948
14270,22.249,3.6364,0,4.269e-05,426.61,2.2066e-05,98.942,8.904e-06,0.047796,-4.0137e-05,-368.43,2.6412
14271,22.157,3.5455,0,4.4454e-05,444.24,2.2483e-05,96.68,9.6222e-06,0.045731,-4.2013e-05,-387.92,2.6258
14272,22.157,3.6364,0.05,7.2797e-07,7.2746,5.5899e-07,4.2,2.8749e-13,1.4576e-05,-5.5899e-07,-4.2,2.6257
14273,22.434,3.6364,0,3.9378e-05,393.51,2.1474e-05,105.78,7.4031e-06,0.053866,-3.6497e-05,-329.8,2.6722
14274,22.342,3.5455,0,4.1109e-05,410.81,2.1874e-05,103.35,8.1254e-06,0.051163,-3.8363e-05,-349.25,2.6567
14275,22.342,3.6364,0.05,7.3049e-07,7.2998,5.6092e-07,4.2146,2.3052e-13,1.1263e-05,-5.6092e-07,-4.2145,2.6567
14276,22.618,3.6364,0,3.6157e-05,361.32,2.0932e-05,113.09,5.8892e-06,0.061547,-3.288e-05,-291.24,2.7032
14277,22.526,3.5455,0,3.7848e-05,378.22,2.1313e-05,110.48,6.6161e-06,0.058014,-3.4737e-05,-310.66,2.6877
14278,22.526,3.6364,0.05,7.337e-07,7.3319,5.6339e-07,4.2331,4.6739e-13,9.4394e-06,-5.6339e-07,-4.2331,2.6877
14279,22.802,3.6364,0,3.3043e-05,330.2,2.0439e-05,120.88,4.3606e-06,0.071866,-2.9283e-05,-252.71,2.7342
14280,22.71,3.5455,0,3.4684e-05,346.6,2.0801e-05,118.09,5.093e-06,0.066747,-3.1132e-05,-272.11,2.7187
14281,22.71,3.6364,0.05,7.3767e-07,7.3717,5.6644e-07,4.256,-1.4613e-13,6.1031e-06,-5.6644e-07,-4.256,2.7187
14282,22.987,3.6364,0,3.006e-05,300.39,1.9996e-05,129.17,2.8157e-06,0.085253,-2.5702e-05,-214.18,2.7652
14283,22.894,3.5455,0,3.1639e-05,316.17,2.0338e-05,126.18,3.5545e-06,0.079025,-2.7544e-05,-233.58,2.7497
14284,22.894,3.6364,0.05,7.4247e-07,7.4195,5.7012e-07,4.2837,2.9732e-13,5.0811e-06,-5.7012e-07,-4.2837,2.7497
14285,23.171,3.6364,0,2.7241e-05,272.22,1.9602e-05,137.97,1.2536e-06,0.10798,-2.2132e-05,-175.6,2.7963
14286,23.079,3.5455,0,2.874e-05,287.2,1.9923e-05,134.77,1.9989e-06,0.094201,-2.3969e-05,-195.02,2.7808
14287,23.079,3.6364,0.05,7.4811e-07,7.476,5.7446e-07,4.3163,2.361e-13,7.4898e-06,-5.7446e-07,-4.3162,2.7807
14288,23.355,3.6364,0,2.4635e-05,246.18,1.9254e-05,147.26,-3.28e-07,0.13093,-1.857e-05,-136.94,2.8274
14289,23.263,3.5455,0,2.6027e-05,260.09,1.9556e-05,143.86,4.2607e-07,0.12588,-2.0403e-05,-156.38,2.8118
14290,23.263,3.6364,0.05,7.5464e-07,7.5412,5.7947e-07,4.3539,2.2021e-13,7.3579e-06,-5.7947e-07,-4.3539,2.8118
14291,23.539,3.6364,0,2.2309e-05,222.93,1.8951e-05,157.07,-1.9239e-06,0.22755,-1.5014e-05,-98.123,2.8584
14292,23.447,3.5455,0,2.3557e-05,235.41,1.9232e-05,153.42,-1.1678e-06,0.1435,-1.6842e-05,-117.63,2.8429
14293,23.447,3.6364,0.05,7.6201e-07,7.6149,5.8513e-07,4.3964,4.065e-13,3.2381e-06,-5.8513e-07,-4.3964,2.8429
14294,23.724,3.6364,0,2.0355e-05,203.41,1.8689e-05,167.3,-3.5476e-06,0.22379,-1.1456e-05,-59.198,2.8895
14295,23.631,3.5455,0,2.141e-05,213.95,1.8952e-05,163.52,-2.7678e-06,0.33035,-1.3287e-05,-78.705,2.874
14296,23.631,3.6364,0.05,7.703e-07,7.6977,5.9149e-07,4.4443,1.756e-13,7.028e-06,-5.9149e-07,-4.4442,2.874
14297,23.816,3.5455,0,1.969e-05,196.76,1.8709e-05,173.9,-4.4087e-06,0.20602,-9.7301e-06,-39.777,2.9051
14298,23.816,3.6364,0.05,7.8185e-07,7.8131,6.0036e-07,4.5109,5.8954e-13,2.9613e-06,-6.0036e-07,-4.5109,2.9051
14299,23.908,3.6364,0,1.8956e-05,189.42,1.8478e-05,177.4,-5.0756e-06,0.42912,-8.1143e-06,-22.402,2.9206
14300,1.2431,3.4545,0,0.001266,12651,0.00046805,6.687,0.00033078,-1024.7,-0.0012802,-13129,0.021114
14301,1.1509,3.3636,0,0.0013259,13250,0.00049344,3.7151,0.00034026,-1147.2,-0.0013416,-13784,0.01825
14302,1.1509,3.4545,0.05,2.9289e-05,292.69,2.249e-05,168.98,-1.1521e-11,-0.00043933,-2.249e-05,-168.98,0.017935
14303,1.4273,3.4545,0,0.0010973,10966,0.00041536,2.9038,0.00026889,-1097.6,-0.0011118,-11471,0.027932
14304,1.3352,3.3636,0,0.001168,11672,0.00044215,1.9273,0.00028605,-1171,-0.0011835,-12212,0.024621
14305,1.3352,3.4545,0.05,2.9017e-05,289.97,2.2282e-05,167.41,1.0395e-12,-0.00032439,-2.2282e-05,-167.42,0.024341
14306,1.6116,3.4545,0,0.00095728,9566.2,0.00037154,2.4111,0.00021759,-1154.3,-0.00097161,-10090,0.035497
14307,1.5195,3.3636,0,0.0010217,10210,0.00039607,2.0762,0.00023307,-1222.7,-0.0010369,-10765,0.031793
14308,1.5195,3.4545,0.05,2.367e-05,236.54,1.8176e-05,136.57,-1.5664e-12,-0.00023156,-1.8176e-05,-136.57,0.031551
14309,1.7959,3.4545,0,0.00085067,8500.8,0.00033663,2.3479,0.00018128,-1164.8,-0.00086441,-9021.8,0.043715
14310,1.7037,3.3636,0,0.00090348,9028.6,0.00035768,2.2327,0.00019221,-1241,-0.00091811,-9583.5,0.039667
14311,1.7037,3.4545,0.05,1.8833e-05,188.2,1.4462e-05,108.66,-7.1112e-12,-0.00021754,-1.4462e-05,-108.66,0.039457
14312,1.9801,3.4545,0,0.00077044,7699.1,0.00030874,1.771,0.00015682,-1139.7,-0.00078342,-8204.3,0.052517
14313,1.888,3.3636,0,0.00081188,8113.2,0.0003263,1.8119,0.00016343,-1222,-0.00082568,-8653.7,0.048164
14314,1.888,3.4545,0.05,1.4944e-05,149.33,1.1475e-05,86.217,-1.1031e-11,-0.00020487,-1.1475e-05,-86.218,0.047979
14315,2.1644,3.4545,0,0.00070956,7090.7,0.00028627,1.252,0.00014072,-1092.4,-0.00072177,-7572.8,0.061849
14316,2.0723,3.3636,0,0.00074153,7410.2,0.00030075,1.3125,0.00014403,-1176.2,-0.00075446,-7927.1,0.057223
14317,2.0723,3.4545,0.05,1.1949e-05,119.41,9.1756e-06,68.941,-9.6626e-12,-0.00016551,-9.1756e-06,-68.942,0.057056
14318,2.3487,3.4545,0,0.00066284,6623.8,0.00026794,0.91138,0.00013043,-1032.3,-0.00067431,-7078.8,0.071671
14319,2.2565,3.3636,0,0.00068738,6869.1,0.00027985,0.96343,0.00013145,-1114,-0.00069949,-7357.4,0.066796
14320,2.2565,3.4545,0.05,9.6453e-06,96.386,7.4064e-06,55.648,-1.1727e-11,-0.00017031,-7.4064e-06,-55.649,0.066641
14321,2.5329,3.4545,0,0.00062657,6261.3,0.00025281,0.65114,0.00012418,-965.83,-0.00063736,-6687.7,0.08195
14322,2.4408,3.3636,0,0.00064543,6449.9,0.00026262,0.68765,0.00012369,-1043.1,-0.0006568,-6907.4,0.076844
14323,2.4408,3.4545,0.05,7.8545e-06,78.49,6.0312e-06,45.316,-1.3577e-11,-0.00013409,-6.0313e-06,-45.316,0.076698
14324,2.7172,3.4545,0,0.00059808,5976.7,0.00024017,0.465,0.0001207,-897.2,-0.00060826,-6374.3,0.092662
14325,2.6251,3.3636,0,0.00061266,6122.4,0.0002483,0.48863,0.00011928,-968.94,-0.00062335,-6548.8,0.087339
14326,2.6251,3.4545,0.05,6.4523e-06,64.479,4.9546e-06,37.227,-9.4619e-12,-0.00011152,-4.9546e-06,-37.227,0.087199
14327,2.9015,3.4545,0,0.00057547,5750.7,0.00022952,0.33031,0.00011912,-829.17,-0.00058506,-6120.1,0.10379
14328,2.8093,3.3636,0,0.00058681,5864.1,0.0002363,0.34433,0.00011716,-894.85,-0.00059688,-6259.9,0.098259
14329,2.8093,3.4545,0.05,5.3493e-06,53.456,4.1076e-06,30.863,-7.9995e-12,-8.9666e-05,-4.1076e-06,-30.863,0.098122
14330,3.0857,3.4545,0,0.00055729,5569,0.00022044,0.23343,0.0001188,-763.43,-0.00056633,-5911.2,0.11531
14331,2.9936,3.3636,0,0.00056621,5658.2,0.00022615,0.24097,0.00011657,-823.06,-0.00057569,-6024.5,0.10958
14332,2.9936,3.4545,0.05,4.4785e-06,44.754,3.439e-06,25.839,-5.2284e-12,-7.7859e-05,-3.4389e-06,-25.839,0.10945
14333,3.27,3.4545,0,0.00054247,5421,0.00021263,0.16381,0.00011931,-701,-0.00055098,-5737.3,0.12722
14334,3.1779,3.3636,0,0.00054957,5492,0.00021747,0.16716,0.00011699,-754.82,-0.0005585,-5830.2,0.1213
14335,3.1779,3.4545,0.05,3.789e-06,37.864,2.9095e-06,21.861,-3.1387e-12,-7.5102e-05,-2.9095e-06,-21.861,0.12117
14336,3.4543,3.4545,0,0.00053021,5298.5,0.00020583,0.11386,0.00012032,-642.41,-0.00053821,-5590.3,0.1395
14337,3.3621,3.3636,0,0.00053596,5355.9,0.00020999,0.1146,0.00011803,-690.8,-0.00054435,-5667.7,0.1334
14338,3.3621,3.4545,0.05,3.2417e-06,32.395,2.4893e-06,18.703,-3.7435e-12,-4.7941e-05,-2.4893e-06,-18.703,0.13326
14339,3.6385,3.4545,0,0.00051989,5195.3,0.00019987,0.078074,0.00012161,-587.9,-0.00052739,-5464.2,0.15215
14340,3.5464,3.3636,0,0.00052462,5242.6,0.00020346,0.077247,0.00011943,-631.31,-0.0005325,-5529.7,0.14586
14341,3.5464,3.4545,0.05,2.8064e-06,28.045,2.155e-06,16.192,-3.1945e-12,-3.1794e-05,-2.155e-06,-16.192,0.14573
14342,3.8228,3.4545,0,0.00051104,5106.8,0.00019457,0.052497,0.00012303,-537.5,-0.00051805,-5354.3,0.16515
14343,3.7307,3.3636,0,0.00051502,5146.7,0.00019771,0.050779,0.00012099,-576.38,-0.0005224,-5410.6,0.15869
14344,3.7307,3.4545,0.05,2.4595e-06,24.578,1.8886e-06,14.19,-2.7435e-12,-2.9841e-05,-1.8886e-06,-14.19,0.15856
14345,4.0071,3.4545,0,0.00050329,5029.4,0.00018982,0.034284,0.00012445,-491.11,-0.00050984,-5256.9,0.17851
14346,3.9149,3.3636,0,0.00050673,5063.8,0.00019259,0.032102,0.0001226,-525.9,-0.00051362,-5306.2,0.17188
14347,3.9149,3.4545,0.05,2.1825e-06,21.81,1.6759e-06,12.592,-1.6171e-12,-3.7543e-05,-1.6759e-06,-12.592,0.17174
14348,4.1913,3.4545,0,0.00049637,4960.2,0.00018552,0.021391,0.00012582,-448.54,-0.00050247,-5169.3,0.19221
14349,4.0992,3.3636,0,0.00049941,4990.6,0.00018799,0.019011,0.00012415,-479.67,-0.00050583,-5213.1,0.18541
14350,4.0992,3.4545,0.05,1.9609e-06,19.595,1.5057e-06,11.313,8.4347e-13,-1.6629e-05,-1.5057e-06,-11.313,0.18527
14351,4.3756,3.4545,0,0.00049006,4897.2,0.00018158,0.012344,0.00012707,-409.57,-0.00049574,-5089.2,0.20626
14352,4.2835,3.3636,0,0.00049282,4924.8,0.00018382,0.0099298,0.0001256,-437.43,-0.0004988,-5128.9,0.19928
14353,4.2835,3.4545,0.05,1.7832e-06,17.82,1.3693e-06,10.288,1.5794e-12,-1.5179e-05,-1.3693e-06,-10.288,0.19915
14354,4.5599,3.4545,0,0.00048421,4838.8,0.00017796,0.0060759,0.00012818,-373.95,-0.00048949,-5014.9,0.22064
14355,4.4677,3.3636,0,0.00048677,4864.3,0.00017999,0.0037266,0.0001269,-398.9,-0.00049232,-5051.5,0.2135
14356,4.4677,3.4545,0.05,1.6405e-06,16.393,1.2597e-06,9.4646,3.2928e-12,-1.2108e-05,-1.2597e-06,-9.4646,0.21336
14357,4.7441,3.4545,0,0.00047869,4783.6,0.00017458,0.0018161,0.00012914,-341.43,-0.00048358,-4945.2,0.23535
14358,4.652,3.3636,0,0.00048111,4807.8,0.00017645,-0.00041219,0.00012803,-363.8,-0.00048626,-4979.3,0.22805
14359,4.652,3.4545,0.05,1.5254e-06,15.244,1.1713e-06,8.8009,-1.5113e-12,-7.7701e-06,-1.1713e-06,-8.8009,0.22791
14360,4.9284,3.4545,0,0.0004734,4730.8,0.00017141,-0.00099629,0.00012992,-311.75,-0.00047794,-4878.9,0.25039
14361,4.8363,3.3636,0,0.00047573,4754.1,0.00017314,-0.0030736,0.00012898,-331.82,-0.00048051,-4911.3,0.24293
14362,4.8363,3.4545,0.05,1.4324e-06,14.314,1.0999e-06,8.2641,9.4852e-13,-7.429e-06,-1.0999e-06,-8.2641,0.24279
14363,5.1127,3.4545,0,0.00046828,4679.6,0.00016842,-0.0027694,0.00013053,-284.68,-0.00047248,-4815.5,0.26576
14364,5.0205,3.3636,0,0.00047056,4702.3,0.00017004,-0.0046828,0.00012975,-302.71,-0.00047498,-4846.4,0.25813
14365,5.0205,3.4545,0.05,1.3568e-06,13.559,1.0419e-06,7.8281,-2.3052e-12,-7.1543e-06,-1.0419e-06,-7.8282,0.258
14366,5.2969,3.4545,0,0.00046328,4629.6,0.00016558,-0.0038008,0.00013098,-259.97,-0.00046715,-4754.1,0.28145
14367,5.2048,3.3636,0,0.00046552,4652,0.0001671,-0.0055478,0.00013034,-276.2,-0.0004696,-4783.9,0.27366
14368,5.2048,3.4545,0.05,1.2951e-06,12.942,9.9449e-07,7.4722,3.5863e-12,-2.7144e-06,-9.9449e-07,-7.4722,0.27353
14369,5.4812,3.4545,0,0.00045834,4580.2,0.00016286,-0.0043075,0.00013126,-237.43,-0.00046192,-4694.3,0.29745
14370,5.3891,3.3636,0,0.00046057,4602.6,0.0001643,-0.0058921,0.00013076,-252.05,-0.00046434,-4723.4,0.28951
14371,5.3891,3.4545,0.05,1.2445e-06,12.436,9.5558e-07,7.1799,2.0198e-13,-4.0709e-06,-9.5559e-07,-7.1799,0.28937
14372,5.6655,3.4545,0,0.00045345,4531.3,0.00016025,-0.0044473,0.00013139,-216.86,-0.00045675,-4635.9,0.31377
14373,5.5733,3.3636,0,0.00045568,4553.7,0.00016163,-0.005878,0.00013101,-230.05,-0.00045916,-4664.3,0.30567
14374,5.5733,3.4545,0.05,1.2026e-06,12.017,9.2342e-07,6.9382,-1.1954e-12,-2.1911e-06,-9.2342e-07,-6.9382,0.30554
14375,5.8497,3.4545,0,0.00044858,4482.7,0.00015773,-0.004335,0.00013137,-198.06,-0.00045162,-4578.4,0.3304
14376,5.7576,3.3636,0,0.00045082,4505.1,0.00015905,-0.005622,0.0001311,-209.99,-0.00045402,-4606.4,0.32214
14377,5.7576,3.4545,0.05,1.1677e-06,11.668,8.9661e-07,6.7367,7.1199e-13,-3.1696e-06,-8.9662e-07,-6.7369,0.32201
14378,6.034,3.4545,0,0.00044371,4434.1,0.00015529,-0.0040543,0.00013122,-180.89,-0.00044651,-4521.8,0.34733
14379,5.9419,3.3636,0,0.00044597,4456.6,0.00015656,-0.0052089,0.00013105,-191.68,-0.00044892,-4549.4,0.33893
14380,5.9419,3.4545,0.05,1.1383e-06,11.375,8.7409e-07,6.5675,9.308e-13,-3.2467e-06,-8.7409e-07,-6.5676,0.33879
14381,6.2183,3.4545,0,0.00043885,4385.4,0.00015292,-0.0036647,0.00013094,-165.19,-0.00044142,-4465.7,0.36457
14382,6.1261,3.3636,0,0.00044112,4408.2,0.00015415,-0.0046987,0.00013086,-174.97,-0.00044384,-4493.1,0.35601
14383,6.1261,3.4545,0.05,1.1135e-06,11.127,8.55e-07,6.424,-7.5722e-13,-7.3254e-07,-8.5499e-07,-6.4241,0.35588
14384,6.4025,3.4545,0,0.00043397,4336.7,0.00015062,-0.0032097,0.00013054,-150.82,-0.00043634,-4410.1,0.38211
14385,6.3104,3.3636,0,0.00043626,4359.6,0.00015181,-0.0041338,0.00013055,-159.71,-0.00043876,-4437.3,0.3734
14386,6.3104,3.4545,0.05,1.0922e-06,10.914,8.3864e-07,6.3012,-6.9105e-13,-1.1399e-06,-8.3865e-07,-6.3012,0.37327
14387,6.5868,3.4545,0,0.00042908,4287.8,0.00014836,-0.00272,0.00013004,-137.66,-0.00043125,-4355,0.39995
14388,6.4947,3.3636,0,0.00043139,4311,0.00014952,-0.0035453,0.00013012,-145.74,-0.00043369,-4382,0.39109
14389,6.4947,3.4545,0.05,1.0738e-06,10.73,8.2451e-07,6.195,-5.8783e-13,-5.0718e-07,-8.2451e-07,-6.195,0.39096
14390,6.7711,3.4545,0,0.00042417,4238.8,0.00014615,-0.0022162,0.00012943,-125.61,-0.00042617,-4300.2,0.41807
14391,6.6789,3.3636,0,0.00042651,4262.1,0.00014728,-0.0029533,0.00012959,-132.97,-0.00042861,-4327,0.40907
14392,6.6789,3.4545,0.05,1.0577e-06,10.569,8.1216e-07,6.1023,1.2861e-12,-3.7891e-06,-8.1217e-07,-6.1023,0.40894
14393,6.9553,3.4545,0,0.00041924,4189.5,0.00014399,-0.001713,0.00012874,-114.56,-0.00042107,-4245.6,0.43649
14394,6.8632,3.3636,0,0.0004216,4213.1,0.00014509,-0.0023711,0.00012895,-121.27,-0.00042353,-4272.4,0.42734
14395,6.8632,3.4545,0.05,1.0435e-06,10.428,8.0127e-07,6.0204,3.1672e-12,-1.5798e-06,-8.0128e-07,-6.0205,0.42721
14396,7.1396,3.4545,0,0.0004143,4140.1,0.00014186,-0.0012212,0.00012796,-104.43,-0.00041598,-4191.4,0.45519
14397,7.0475,3.3636,0,0.00041667,4163.8,0.00014294,-0.0018083,0.00012823,-110.55,-0.00041844,-4218,0.4459
14398,7.0475,3.4545,0.05,1.0309e-06,10.301,7.9157e-07,5.9475,3.2192e-12,7.0522e-07,-7.9157e-07,-5.9475,0.44577
14399,7.3239,3.4545,0,0.00040934,4090.5,0.00013977,-0.00074621,0.00012711,-95.121,-0.00041087,-4137.3,0.47418
14400,7.2317,3.3636,0,0.00041173,4114.4,0.00014083,-0.0012706,0.00012742,-100.72,-0.00041335,-4163.9,0.46475
14401,7.2317,3.4545,0.05,1.0195e-06,10.188,7.8283e-07,5.8819,1.4517e-12,-1.9101e-06,-7.8284e-07,-5.882,0.46462
14402,7.5081,3.4545,0,0.00040436,4040.8,0.0001377,-0.00029191,0.00012618,-86.576,-0.00040576,-4083.4,0.49344
14403,7.416,3.3636,0,0.00040676,4064.8,0.00013875,-0.0007605,0.00012654,-91.696,-0.00040825,-4109.9,0.48387
14404,7.416,3.4545,0.05,1.0092e-06,10.085,7.7491e-07,5.8223,3.3019e-12,-6.4702e-07,-7.7491e-07,-5.8224,0.48374
14405,7.6924,3.4545,0,0.00039937,3990.9,0.00013567,0.00013951,0.00012519,-78.724,-0.00040065,-4029.7,0.51298
14406,7.6003,3.3636,0,0.00040179,4015.1,0.0001367,-0.00027978,0.0001256,-83.413,-0.00040314,-4056.1,0.50327
14407,7.6003,3.4545,0.05,9.9971e-07,9.9902,7.6765e-07,5.7678,-2.8961e-13,-2.1895e-06,-7.6765e-07,-5.7678,0.50315
14408,7.8767,3.4545,0,0.00039436,3940.9,0.00013366,0.00054716,0.00012415,-71.505,-0.00039553,-3976.1,0.5328
14409,7.7845,3.3636,0,0.00039679,3965.2,0.00013468,0.00017204,0.00012459,-75.803,-0.00039803,-4002.5,0.52295
14410,7.7845,3.4545,0.05,9.9098e-07,9.903,7.6095e-07,5.7175,1.553e-12,-9.7023e-08,-7.6095e-07,-5.7175,0.52282
14411,8.0609,3.4545,0,0.00038934,3890.8,0.00013168,0.00093128,0.00012305,-64.864,-0.00039041,-3922.8,0.55288
14412,7.9688,3.3636,0,0.00039179,3915.2,0.00013268,0.0005954,0.00012353,-68.807,-0.00039291,-3949.1,0.54289
14413,7.9688,3.4545,0.05,9.8288e-07,9.822,7.5472e-07,5.6707,-2.3125e-13,1.364e-07,-7.5473e-07,-5.6707,0.54277
14414,8.2452,3.4545,0,0.00038432,3840.5,0.00012972,0.0012933,0.0001219,-58.753,-0.00038528,-3869.6,0.57322
14415,8.1531,3.3636,0,0.00038677,3865,0.00013071,0.00099134,0.00012241,-62.373,-0.00038779,-3895.8,0.56311
14416,8.1531,3.4545,0.05,9.7529e-07,9.7461,7.489e-07,5.6269,1.6059e-12,-1.7936e-07,-7.489e-07,-5.627,0.56299
14417,8.4295,3.4545,0,0.00037928,3790.2,0.00012779,0.0016334,0.00012072,-53.127,-0.00038016,-3816.5,0.59383
14418,8.3373,3.3636,0,0.00038174,3814.8,0.00012876,0.0013623,0.00012125,-56.453,-0.00038267,-3842.7,0.58358
14419,8.3373,3.4545,0.05,9.6815e-07,9.6748,7.4341e-07,5.5857,7.1615e-13,-1.7732e-08,-7.4342e-07,-5.5858,0.58346
14420,8.6137,3.4545,0,0.00037425,3739.9,0.00012587,0.0019531,0.00011949,-47.946,-0.00037504,-3763.6,0.6147
14421,8.5216,3.3636,0,0.00037671,3764.5,0.00012683,0.0017087,0.00012004,-51.003,-0.00037755,-3789.8,0.60432
14422,8.5216,3.4545,0.05,9.6139e-07,9.6072,7.3822e-07,5.5467,2.5555e-12,5.9524e-07,-7.3823e-07,-5.5468,0.6042
14423,8.798,3.4545,0,0.0003692,3689.5,0.00012397,0.0022538,0.00011822,-43.171,-0.00036992,-3710.9,0.63582
14424,8.7059,3.3636,0,0.00037168,3714.2,0.00012492,0.0020334,0.0001188,-45.984,-0.00037244,-3737,0.62531
14425,8.7059,3.4545,0.05,9.5496e-07,9.543,7.3329e-07,5.5096,2.5689e-12,-2.1835e-07,-7.3329e-07,-5.5097,0.62519
14426,8.9823,3.4545,0,0.00036416,3639.1,0.00012209,0.002537,0.00011693,-38.771,-0.0003648,-3658.3,0.65719
14427,8.8901,3.3636,0,0.00036663,3663.8,0.00012303,0.0023375,0.00011753,-41.36,-0.00036732,-3684.3,0.64656
14428,8.8901,3.4545,0.05,9.4882e-07,9.4817,7.2858e-07,5.4742,2.5859e-12,8.4627e-07,-7.2858e-07,-5.4743,0.64644
14429,9.1665,3.4545,0,0.00035911,3588.6,0.00012022,0.0028048,0.0001156,-34.713,-0.00035969,-3605.9,0.67881
14430,9.0744,3.3636,0,0.00036159,3613.4,0.00012116,0.0026233,0.00011622,-37.098,-0.00036221,-3631.8,0.66805
14431,9.0744,3.4545,0.05,9.4294e-07,9.4229,7.2406e-07,5.4403,1.6911e-12,4.8901e-07,-7.2407e-07,-5.4403,0.66794
14432,9.3508,3.4545,0,0.00035407,3538.2,0.00011837,0.0030582,0.00011425,-30.97,-0.00035458,-3553.6,0.70067
14433,9.2587,3.3636,0,0.00035655,3563,0.0001193,0.0028926,0.00011489,-33.167,-0.0003571,-3579.5,0.68979
14434,9.2587,3.4545,0.05,9.3729e-07,9.3664,7.1972e-07,5.4077,-1.1433e-13,8.178e-07,-7.1972e-07,-5.4077,0.68968
14435,9.5351,3.4545,0,0.00034902,3487.8,0.00011654,0.0032982,0.00011288,-27.516,-0.00034948,-3501.5,0.72277
14436,9.4429,3.3636,0,0.00035151,3512.7,0.00011746,0.0031466,0.00011353,-29.542,-0.000352,-3527.3,0.71178
14437,9.4429,3.4545,0.05,9.3183e-07,9.3119,7.1553e-07,5.3762,-1.0127e-13,8.9547e-07,-7.1553e-07,-5.3763,0.71166
14438,9.7193,3.4545,0,0.00034399,3437.5,0.00011472,0.0035304,0.00011148,-24.328,-0.00034439,-3449.6,0.74512
14439,9.6272,3.3636,0,0.00034647,3462.3,0.00011563,0.0033861,0.00011214,-26.197,-0.00034691,-3475.3,0.734
14440,9.6272,3.4545,0.05,9.2656e-07,9.2592,7.1148e-07,5.3458,1.7295e-12,1.2325e-06,-7.1148e-07,-5.3458,0.73389
14441,9.9036,3.4545,0,0.00033895,3387.2,0.00011291,0.0037533,0.00011007,-21.384,-0.00033931,-3397.8,0.76769
14442,9.8115,3.3636,0,0.00034144,3412,0.00011382,0.0036219,0.00011074,-23.109,-0.00034182,-3423.5,0.75646
14443,9.8115,3.4545,0.05,9.2144e-07,9.208,7.0755e-07,5.3162,8.2893e-13,2.0196e-06,-7.0755e-07,-5.3163,0.75635
14444,10.088,3.4545,0,0.00033392,3336.9,0.00011112,0.0039652,0.00010863,-18.664,-0.00033424,-3346.2,0.7905
14445,9.9957,3.3636,0,0.00033641,3361.7,0.00011202,0.0038391,0.00010932,-20.257,-0.00033675,-3371.8,0.77915
14446,9.9957,3.4545,0.05,9.1647e-07,9.1584,7.0374e-07,5.2876,8.3897e-13,1.8481e-06,-7.0374e-07,-5.2876,0.77904
14447,10.272,3.4545,0,0.0003289,3286.8,0.00010934,0.0041771,0.00010719,-16.15,-0.00032918,-3294.8,0.81353
14448,10.18,3.3636,0,0.00033138,3311.5,0.00011023,0.0040495,0.00010788,-17.621,-0.00033168,-3320.3,0.80207
14449,10.18,3.4545,0.05,9.1163e-07,9.11,7.0002e-07,5.2597,8.4714e-13,2.6267e-06,-7.0002e-07,-5.2597,0.80196
14450,10.456,3.4545,0,0.00032389,3236.7,0.00010757,0.0043653,0.00010573,-13.825,-0.00032412,-3243.6,0.83679
14451,10.364,3.3636,0,0.00032637,3261.4,0.00010845,0.0042635,0.00010643,-15.185,-0.00032662,-3269,0.82521
14452,10.364,3.4545,0.05,9.0691e-07,9.0629,6.964e-07,5.2324,8.5445e-13,2.2084e-06,-6.964e-07,-5.2325,0.8251
14453,10.641,3.4545,0,0.00031889,3186.7,0.00010581,0.0045466,0.00010426,-11.674,-0.00031909,-3192.5,0.86026
14454,10.549,3.3636,0,0.00032136,3211.4,0.00010669,0.004423,0.00010497,-12.933,-0.00032158,-3217.8,0.84857
14455,10.549,3.4545,0.05,9.023e-07,9.0168,6.9285e-07,5.2058,8.6133e-13,2.3767e-06,-6.9285e-07,-5.2059,0.84847
14456,10.825,3.4545,0,0.00031389,3136.8,0.00010406,0.0047709,0.00010278,-9.6823,-0.00031406,-3141.6,0.88396
14457,10.733,3.3636,0,0.00031636,3161.5,0.00010494,0.0046179,0.00010349,-10.848,-0.00031655,-3166.9,0.87216
14458,10.733,3.4545,0.05,8.9777e-07,8.9715,6.8938e-07,5.1797,8.6751e-13,2.1885e-06,-6.8938e-07,-5.1797,0.87206
14459,11.009,3.4545,0,0.00030891,3087,0.00010233,0.0050061,0.00010129,-7.8374,-0.00030904,-3090.9,0.90786
14460,10.917,3.3636,0,0.00031138,3111.6,0.0001032,0.0048549,0.00010201,-8.9169,-0.00031153,-3116.1,0.89596
14461,10.917,3.4545,0.05,8.9335e-07,8.9273,6.8598e-07,5.1542,8.7374e-13,1.8745e-06,-6.8598e-07,-5.1542,0.89586
14462,11.193,3.4545,0,0.00030394,3037.3,0.0001006,0.0052384,9.9788e-05,-6.1269,-0.00030404,-3040.4,0.93198
14463,11.101,3.3636,0,0.0003064,3061.9,0.00010147,0.0050613,0.00010052,-7.1278,-0.00030652,-3065.5,0.91997
14464,11.101,3.4545,0.05,8.8902e-07,8.884,6.8265e-07,5.1292,1.7892e-12,1.7451e-06,-6.8265e-07,-5.1292,0.91987
14465,11.378,3.4545,0,0.00029898,2987.8,9.8889e-05,0.0054917,9.8284e-05,-4.5397,-0.00029906,-2990,0.9563
14466,11.286,3.3636,0,0.00030144,3012.3,9.9745e-05,0.0052742,9.9017e-05,-5.4684,-0.00030153,-3015,0.94419
14467,11.286,3.4545,0.05,8.8476e-07,8.8415,6.7938e-07,5.1046,1.7951e-12,1.2195e-06,-6.7938e-07,-5.1046,0.94409
14468,11.562,3.4545,0,0.00029404,2938.3,9.7184e-05,0.0058474,9.6775e-05,-3.0653,-0.00029409,-2939.9,0.98083
14469,11.47,3.3636,0,0.00029649,2962.8,9.8035e-05,0.0054903,9.7512e-05,-3.928,-0.00029655,-2964.8,0.96861
14470,11.47,3.4545,0.05,8.8056e-07,8.7996,6.7616e-07,5.0804,8.9049e-13,1.8542e-06,-6.7617e-07,-5.0804,0.96851
14471,11.746,3.4545,0,0.0002891,2889,9.5488e-05,0.0065755,9.5262e-05,-1.6945,-0.00028913,-2889.9,1.0056
14472,11.654,3.3636,0,0.00029155,2913.5,9.6334e-05,0.0058421,9.6001e-05,-2.4964,-0.00029159,-2914.7,0.99324
14473,11.654,3.4545,0.05,8.7642e-07,8.7582,6.7298e-07,5.0565,2.714e-12,1.953e-06,-6.7299e-07,-5.0566,0.99314
14474,11.931,3.4545,0,0.00028418,2839.9,9.3802e-05,0.010515,9.3745e-05,-0.42107,-0.00028419,-2840.1,1.0305
14475,11.838,3.3636,0,0.00028662,2864.2,9.4643e-05,0.0066606,9.4487e-05,-1.1647,-0.00028664,-2864.8,1.0181
14476,11.838,3.4545,0.05,8.7236e-07,8.7175,6.6986e-07,5.0331,8.9932e-13,1.95e-06,-6.6986e-07,-5.0331,1.018
14477,12.115,3.4545,0,0.00027928,2790.9,9.2227e-05,0.77792,9.2124e-05,0.0028306,-0.00027927,-2790.5,1.0556
14478,12.023,3.3636,0,0.00028171,2815.2,9.2973e-05,0.093756,9.2959e-05,-0.010157,-0.00028171,-2815.1,1.0431
14479,12.023,3.4545,0.05,8.6835e-07,8.6775,6.6678e-07,5.0099,1.813e-12,2.3089e-06,-6.6679e-07,-5.01,1.043
14480,12.299,3.4545,0,0.00027439,2742,9.0706e-05,1.8892,9.0455e-05,0.0045934,-0.00027436,-2741.1,1.0809
14481,12.207,3.3636,0,0.00027681,2766.2,9.1452e-05,1.2379,9.1287e-05,0.0046333,-0.00027679,-2765.6,1.0683
14482,12.207,3.4545,0.05,8.644e-07,8.638,6.6375e-07,4.9871,1.8169e-12,2.6221e-06,-6.6375e-07,-4.9872,1.0682
14483,12.483,3.4545,0,0.00026952,2693.3,8.9185e-05,2.9306,8.8795e-05,0.0051213,-0.00026947,-2691.8,1.1064
14484,12.391,3.3636,0,0.00027193,2717.4,8.9931e-05,2.3209,8.9623e-05,0.0052692,-0.00027189,-2716.3,1.0937
14485,12.391,3.4545,0.05,8.6048e-07,8.5989,6.6074e-07,4.9646,9.1102e-13,1.7252e-06,-6.6074e-07,-4.9646,1.0936
14486,12.668,3.4545,0,0.00026466,2644.7,8.7663e-05,3.908,8.7144e-05,0.0054611,-0.00026459,-2642.8,1.1321
14487,12.575,3.3636,0,0.00026707,2668.8,8.841e-05,3.3362,8.7967e-05,0.0055944,-0.00026701,-2667.1,1.1193
14488,12.575,3.4545,0.05,8.5661e-07,8.5602,6.5777e-07,4.9422,1.8238e-12,1.1989e-06,-6.5777e-07,-4.9422,1.1192
14489,12.852,3.4545,0,0.00025981,2596.4,8.6142e-05,4.8275,8.55e-05,0.0057248,-0.00025973,-2593.9,1.1579
14490,12.76,3.3636,0,0.00026222,2620.4,8.6889e-05,4.29,8.6319e-05,0.0058641,-0.00026214,-2618.2,1.145
14491,12.76,3.4545,0.05,8.5278e-07,8.5219,6.5483e-07,4.9201,1.8268e-12,2.1759e-06,-6.5484e-07,-4.9202,1.1449
14492,13.036,3.4545,0,0.00025499,2548.1,8.4622e-05,5.6949,8.3865e-05,0.0059326,-0.00025489,-2545.3,1.1839
14493,12.944,3.3636,0,0.00025738,2572.1,8.5369e-05,5.1883,8.468e-05,0.006067,-0.00025729,-2569.5,1.171
14494,12.944,3.4545,0.05,8.49e-07,8.4842,6.5193e-07,4.8983,1.8296e-12,2.8212e-06,-6.5193e-07,-4.8983,1.1709
14495,13.22,3.4545,0,0.00025018,2500.1,8.3104e-05,6.5159,8.2237e-05,0.0061034,-0.00025007,-2496.8,1.2101
14496,13.128,3.3636,0,0.00025257,2523.9,8.3851e-05,6.0371,8.3048e-05,0.0062447,-0.00025246,-2520.9,1.1971
14497,13.128,3.4545,0.05,8.4526e-07,8.4468,6.4906e-07,4.8767,1.8317e-12,3.9102e-06,-6.4906e-07,-4.8768,1.197
14498,13.405,3.4545,0,0.00024539,2452.2,8.1588e-05,7.2957,8.0617e-05,0.006266,-0.00024526,-2448.5,1.2365
14499,13.313,3.3636,0,0.00024777,2476,8.2334e-05,6.8417,8.1424e-05,0.0063855,-0.00024765,-2472.5,1.2234
14500,13.313,3.4545,0.05,8.4155e-07,8.4097,6.4621e-07,4.8553,1.4686e-14,3.8071e-06,-6.4621e-07,-4.8554,1.2233
14501,13.589,3.4545,0,0.00024062,2404.5,8.0074e-05,8.0394,7.9005e-05,0.0064541,-0.00024048,-2400.5,1.2631
14502,13.497,3.3636,0,0.00024298,2428.2,8.082e-05,7.6074,7.9808e-05,0.0065531,-0.00024285,-2424.4,1.2498
14503,13.497,3.4545,0.05,8.3787e-07,8.3729,6.4338e-07,4.8341,9.2615e-13,3.6399e-06,-6.4338e-07,-4.8341,1.2497
14504,13.773,3.4545,0,0.00023586,2357,7.8564e-05,8.7517,7.7401e-05,0.0066407,-0.00023571,-2352.6,1.2898
14505,13.681,3.3636,0,0.00023822,2380.6,7.9309e-05,8.3392,7.82e-05,0.0067503,-0.00023808,-2376.4,1.2764
14506,13.681,3.4545,0.05,8.3422e-07,8.3365,6.4058e-07,4.813,1.8005e-14,2.6371e-06,-6.4058e-07,-4.8131,1.2764
14507,13.957,3.4545,0,0.00023112,2309.6,7.7058e-05,9.4373,7.5803e-05,0.0068094,-0.00023096,-2304.9,1.3166
14508,13.865,3.3636,0,0.00023347,2333.1,7.7801e-05,9.0415,7.6599e-05,0.0069184,-0.00023332,-2328.6,1.3032
14509,13.865,3.4545,0.05,8.3061e-07,8.3004,6.3781e-07,4.7922,1.9435e-14,2.7703e-06,-6.3781e-07,-4.7922,1.3031
14510,14.142,3.4545,0,0.0002264,2262.5,7.5556e-05,10.1,7.4213e-05,0.0069635,-0.00022623,-2257.4,1.3436
14511,14.05,3.3636,0,0.00022875,2285.9,7.6297e-05,9.7192,7.5005e-05,0.0070825,-0.00022858,-2281,1.3302
14512,14.05,3.4545,0.05,8.2703e-07,8.2646,6.3506e-07,4.7716,9.3033e-13,3.1369e-06,-6.3506e-07,-4.7716,1.3301
14513,14.326,3.4545,0,0.0002217,2215.5,7.4059e-05,10.745,7.263e-05,0.0071217,-0.00022152,-2210.1,1.3708
14514,14.234,3.3636,0,0.00022404,2238.8,7.4798e-05,10.376,7.3418e-05,0.0072229,-0.00022386,-2233.6,1.3573
14515,14.234,3.4545,0.05,8.2348e-07,8.2291,6.3233e-07,4.7511,2.2093e-14,2.6127e-06,-6.3233e-07,-4.7511,1.3572
14516,14.51,3.4545,0,0.00021702,2168.7,7.2567e-05,11.376,7.1054e-05,0.0073105,-0.00021683,-2163,1.3981
14517,14.418,3.3636,0,0.00021935,2191.9,7.3304e-05,11.017,7.1838e-05,0.0073956,-0.00021916,-2186.4,1.3845
14518,14.418,3.4545,0.05,8.1994e-07,8.1937,6.2961e-07,4.7306,9.328e-13,3.3943e-06,-6.2961e-07,-4.7306,1.3844
14519,14.695,3.4545,0,0.00021236,2122.1,7.108e-05,11.998,6.9484e-05,0.0075051,-0.00021215,-2116.1,1.4256
14520,14.602,3.3636,0,0.00021467,2145.3,7.1814e-05,11.647,7.0265e-05,0.0075998,-0.00021447,-2139.4,1.4119
14521,14.602,3.4545,0.05,8.1644e-07,8.1587,6.2692e-07,4.7104,9.3255e-13,4.5868e-06,-6.2692e-07,-4.7104,1.4118
14522,14.879,3.4545,0,0.00020772,2075.7,6.9599e-05,12.613,6.7922e-05,0.0076888,-0.0002075,-2069.4,1.4532
14523,14.787,3.3636,0,0.00021002,2098.8,7.0331e-05,12.268,6.8699e-05,0.0077851,-0.00020981,-2092.6,1.4394
14524,14.787,3.4545,0.05,8.1297e-07,8.1241,6.2426e-07,4.6904,3.661e-12,6.2562e-06,-6.2426e-07,-4.6904,1.4394
14525,15.063,3.4545,0,0.0002031,2029.5,6.8125e-05,13.226,6.6366e-05,0.0078634,-0.00020287,-2022.9,1.481
14526,14.971,3.3636,0,0.00020539,2052.5,6.8854e-05,12.885,6.714e-05,0.0079684,-0.00020517,-2046,1.4671
14527,14.971,3.4545,0.05,8.0952e-07,8.0896,6.2161e-07,4.6706,2.3602e-14,5.1865e-06,-6.2161e-07,-4.6706,1.4671
14528,15.247,3.4545,0,0.00019849,1983.6,6.6657e-05,13.841,6.4816e-05,0.0080469,-0.00019825,-1976.6,1.5089
14529,15.155,3.3636,0,0.00020078,2006.4,6.7383e-05,13.502,6.5587e-05,0.0081362,-0.00020054,-1999.6,1.495
14530,15.155,3.4545,0.05,8.061e-07,8.0555,6.1899e-07,4.6508,2.4733e-14,6.2635e-06,-6.1899e-07,-4.6508,1.4949
14531,15.432,3.4545,0,0.00019391,1937.8,6.5197e-05,14.462,6.3273e-05,0.008263,-0.00019366,-1930.5,1.5369
14532,15.339,3.3636,0,0.00019619,1960.5,6.5919e-05,14.122,6.4041e-05,0.0083368,-0.00019594,-1953.4,1.5229
14533,15.339,3.4545,0.05,8.027e-07,8.0215,6.1637e-07,4.6312,1.8451e-12,5.6829e-06,-6.1637e-07,-4.6312,1.5228
14534,15.616,3.4545,0,0.00018935,1892.2,6.3744e-05,15.093,6.1737e-05,0.0084875,-0.00018909,-1884.6,1.5651
14535,15.524,3.3636,0,0.00019161,1914.8,6.4463e-05,14.751,6.2501e-05,0.0085706,-0.00019136,-1907.4,1.551
14536,15.524,3.4545,0.05,7.9933e-07,7.9878,6.1379e-07,4.6118,9.3798e-13,4.3851e-06,-6.1379e-07,-4.6118,1.5509
14537,15.8,3.4545,0,0.00018481,1846.8,6.2299e-05,15.737,6.0206e-05,0.0087079,-0.00018453,-1838.9,1.5933
14538,15.708,3.3636,0,0.00018706,1869.3,6.3015e-05,15.392,6.0967e-05,0.0087901,-0.0001868,-1861.6,1.5792
14539,15.708,3.4545,0.05,7.96e-07,7.9545,6.1122e-07,4.5925,9.4007e-13,2.9711e-06,-6.1123e-07,-4.5925,1.5792
14540,15.984,3.4545,0,0.00018029,1801.6,6.0863e-05,16.4,5.8681e-05,0.008927,-0.00018,-1793.4,1.6218
14541,15.892,3.3636,0,0.00018253,1824.1,6.1574e-05,16.049,5.944e-05,0.0090146,-0.00018225,-1816,1.6076
14542,15.892,3.4545,0.05,7.9269e-07,7.9214,6.0869e-07,4.5734,9.4142e-13,4.1722e-06,-6.0868e-07,-4.5734,1.6075
14543,16.169,3.4545,0,0.00017579,1756.7,5.9435e-05,17.084,5.7163e-05,0.0091574,-0.00017549,-1748.1,1.6503
14544,16.077,3.3636,0,0.00017802,1779,6.0143e-05,16.726,5.7918e-05,0.0092297,-0.00017773,-1770.6,1.636
14545,16.077,3.4545,0.05,7.894e-07,7.8886,6.0616e-07,4.5545,4.8868e-13,4.6619e-06,-6.0616e-07,-4.5545,1.636
14546,16.353,3.4545,0,0.00017131,1711.9,5.8017e-05,17.796,5.565e-05,0.0094224,-0.000171,-1703,1.6789
14547,16.261,3.3636,0,0.00017354,1734.2,5.872e-05,17.427,5.6402e-05,0.0094791,-0.00017323,-1725.4,1.6646
14548,16.261,3.4545,0.05,7.8614e-07,7.856,6.0366e-07,4.5357,9.4446e-13,5.864e-06,-6.0366e-07,-4.5357,1.6646
14549,16.537,3.4545,0,0.00016686,1667.4,5.6609e-05,18.538,5.4143e-05,0.0097011,-0.00016653,-1658.1,1.7077
14550,16.445,3.3636,0,0.00016907,1689.5,5.7307e-05,18.158,5.4892e-05,0.009764,-0.00016875,-1680.4,1.6934
14551,16.445,3.4545,0.05,7.8292e-07,7.8238,6.0119e-07,4.5171,4.9226e-13,6.3665e-06,-6.0119e-07,-4.5171,1.6933
14552,16.721,3.4545,0,0.00016242,1623.1,5.5211e-05,19.317,5.2641e-05,0.0099808,-0.00016209,-1613.4,1.7366
14553,16.629,3.3636,0,0.00016463,1645.1,5.5905e-05,18.923,5.3387e-05,0.01004,-0.0001643,-1635.6,1.7222
14554,16.629,3.4545,0.05,7.7973e-07,7.792,5.9874e-07,4.4987,4.9419e-13,7.2189e-06,-5.9874e-07,-4.4987,1.7221
14555,16.906,3.4545,0,0.00015801,1579,5.3823e-05,20.136,5.1145e-05,0.010266,-0.00015766,-1568.9,1.7656
14556,16.814,3.3636,0,0.0001602,1600.9,5.4512e-05,19.726,5.1888e-05,0.01033,-0.00015986,-1591,1.7511
14557,16.814,3.4545,0.05,7.7658e-07,7.7605,5.9632e-07,4.4805,4.9744e-13,5.5665e-06,-5.9632e-07,-4.4805,1.7511
14558,17.09,3.4545,0,0.00015363,1535.2,5.2448e-05,21.002,4.9654e-05,0.010571,-0.00015326,-1524.6,1.7947
14559,16.998,3.3636,0,0.00015581,1557,5.3131e-05,20.573,5.0395e-05,0.010616,-0.00015545,-1546.6,1.7802
14560,16.998,3.4545,0.05,7.7346e-07,7.7293,5.9392e-07,4.4625,4.4074e-14,5.8171e-06,-5.9392e-07,-4.4625,1.7801
14561,17.274,3.4545,0,0.00014926,1491.6,5.1084e-05,21.919,4.8168e-05,0.010913,-0.00014888,-1480.5,1.8239
14562,17.182,3.3636,0,0.00015143,1513.3,5.1762e-05,21.47,4.8906e-05,0.010944,-0.00015105,-1502.4,1.8093
14563,17.182,3.4545,0.05,7.7038e-07,7.6985,5.9155e-07,4.4447,9.5537e-13,6.0617e-06,-5.9155e-07,-4.4447,1.8093
14564,17.459,3.4545,0,0.00014492,1448.2,4.9732e-05,22.893,4.6687e-05,0.011276,-0.00014452,-1436.6,1.8532
14565,17.366,3.3636,0,0.00014708,1469.8,5.0405e-05,22.421,4.7422e-05,0.011306,-0.00014669,-1458.4,1.8386
14566,17.366,3.4545,0.05,7.6734e-07,7.6681,5.8922e-07,4.4272,5.0403e-13,4.8996e-06,-5.8922e-07,-4.4272,1.8385
14567,17.643,3.4545,0,0.00014061,1405.1,4.8394e-05,23.932,4.521e-05,0.011652,-0.00014018,-1393,1.8826
14568,17.551,3.3636,0,0.00014275,1426.5,4.9061e-05,23.434,4.5943e-05,0.011676,-0.00014234,-1414.7,1.8679
14569,17.551,3.4545,0.05,7.6435e-07,7.6382,5.8692e-07,4.4099,5.0618e-13,6.354e-06,-5.8692e-07,-4.4099,1.8679
14570,17.827,3.4545,0,0.00013631,1362.2,4.707e-05,25.04,4.3739e-05,0.012042,-0.00013587,-1349.5,1.9121
14571,17.735,3.3636,0,0.00013845,1383.5,4.773e-05,24.514,4.4469e-05,0.012063,-0.00013801,-1371.1,1.8974
14572,17.735,3.4545,0.05,7.614e-07,7.6088,5.8466e-07,4.3929,5.6908e-14,4.7111e-06,-5.8466e-07,-4.3929,1.8973
14573,18.011,3.4545,0,0.00013205,1319.6,4.576e-05,26.226,4.2271e-05,0.01246,-0.00013158,-1306.2,1.9417
14574,17.919,3.3636,0,0.00013417,1340.8,4.6414e-05,25.669,4.2999e-05,0.012463,-0.00013371,-1327.7,1.9269
14575,17.919,3.4545,0.05,7.585e-07,7.5798,5.8244e-07,4.3762,5.1533e-13,5.7049e-06,-5.8244e-07,-4.3762,1.9269
14576,18.196,3.4545,0,0.00012781,1277.2,4.4466e-05,27.497,4.0808e-05,0.012924,-0.00012732,-1263.2,1.9714
14577,18.103,3.3636,0,0.00012992,1298.3,4.5113e-05,26.906,4.1534e-05,0.012906,-0.00012944,-1284.6,1.9566
14578,18.103,3.4545,0.05,7.5566e-07,7.5514,5.8025e-07,4.3598,6.6402e-14,6.2242e-06,-5.8025e-07,-4.3598,1.9565
14579,18.38,3.4545,0,0.00012359,1235.1,4.3188e-05,28.861,3.9348e-05,0.013422,-0.00012307,-1220.4,2.0011
14580,18.288,3.3636,0,0.00012569,1256,4.3828e-05,28.232,4.0072e-05,0.013399,-0.00012518,-1241.7,1.9863
14581,18.288,3.4545,0.05,7.5288e-07,7.5236,5.7811e-07,4.3437,7.2711e-14,7.4643e-06,-5.7811e-07,-4.3437,1.9862
14582,18.564,3.4545,0,0.0001194,1193.2,4.1927e-05,30.327,3.7892e-05,0.013947,-0.00011886,-1177.7,2.031
14583,18.472,3.3636,0,0.00012149,1214,4.2559e-05,29.657,3.8614e-05,0.013912,-0.00012096,-1198.9,2.0161
14584,18.472,3.4545,0.05,7.5016e-07,7.4964,5.7603e-07,4.3281,9.8635e-13,1.0355e-05,-5.7603e-07,-4.3281,2.016
14585,18.748,3.4545,0,0.00011524,1151.6,4.0684e-05,31.903,3.644e-05,0.014504,-0.00011467,-1135.3,2.0609
14586,18.656,3.3636,0,0.00011731,1172.3,4.1309e-05,31.188,3.716e-05,0.014456,-0.00011675,-1156.4,2.046
14587,18.656,3.4545,0.05,7.4752e-07,7.47,5.74e-07,4.3128,1.445e-12,6.3294e-06,-5.74e-07,-4.3128,2.0459
14588,18.933,3.4545,0,0.00011111,1110.3,3.946e-05,33.6,3.499e-05,0.015104,-0.0001105,-1093.1,2.0909
14589,18.841,3.3636,0,0.00011317,1130.9,4.0077e-05,32.837,3.5708e-05,0.015032,-0.00011257,-1114.1,2.0759
14590,18.841,3.4545,0.05,7.4495e-07,7.4443,5.7203e-07,4.298,5.4639e-13,5.2267e-06,-5.7203e-07,-4.298,2.0759
14591,19.117,3.4545,0,0.000107,1069.3,3.8256e-05,35.429,3.3543e-05,0.015768,-0.00010636,-1051.1,2.121
14592,19.025,3.3636,0,0.00010905,1089.8,3.8864e-05,34.613,3.426e-05,0.015669,-0.00010842,-1072,2.106
14593,19.025,3.4545,0.05,7.4246e-07,7.4195,5.7012e-07,4.2836,5.5537e-13,8.1502e-06,-5.7012e-07,-4.2836,2.1059
14594,19.301,3.4545,0,0.00010293,1028.6,3.7074e-05,37.401,3.2098e-05,0.016489,-0.00010224,-1009.4,2.1512
14595,19.209,3.3636,0,0.00010496,1048.9,3.7673e-05,36.528,3.2814e-05,0.016371,-0.00010429,-1030.1,2.1361
14596,19.209,3.4545,0.05,7.4007e-07,7.3956,5.6828e-07,4.2698,5.6673e-13,7.0381e-06,-5.6828e-07,-4.2698,2.1361
14597,19.485,3.4545,0,9.8884e-05,988.16,3.5914e-05,39.527,3.0656e-05,0.017261,-9.8152e-05,-967.79,2.1814
14598,19.393,3.3636,0,0.0001009,1008.3,3.6504e-05,38.593,3.137e-05,0.017119,-0.00010019,-988.48,2.1663
14599,19.393,3.4545,0.05,7.3778e-07,7.3728,5.6653e-07,4.2567,1.2394e-13,8.0769e-06,-5.6653e-07,-4.2567,2.1663
14600,19.67,3.4545,0,9.4871e-05,948.06,3.4778e-05,41.822,2.9214e-05,0.018097,-9.409e-05,-926.44,2.2117
14601,19.578,3.3636,0,9.6877e-05,968.1,3.5358e-05,40.821,2.9927e-05,0.017929,-9.6117e-05,-947.03,2.1966
14602,19.578,3.4545,0.05,7.3561e-07,7.351,5.6486e-07,4.2441,5.883e-13,9.1121e-06,-5.6486e-07,-4.2441,2.1965
14603,19.854,3.4545,0,9.089e-05,908.28,3.3668e-05,44.299,2.7774e-05,0.01901,-9.0055e-05,-885.31,2.242
14604,19.762,3.3636,0,9.2882e-05,928.17,3.4237e-05,43.226,2.8486e-05,0.018802,-9.207e-05,-905.8,2.2269
14605,19.762,3.4545,0.05,7.3356e-07,7.3306,5.6329e-07,4.2323,1.4022e-13,7.2765e-06,-5.6329e-07,-4.2323,2.2268
14606,20.038,3.4545,0,8.6943e-05,868.83,3.2584e-05,46.973,2.6335e-05,0.020023,-8.6049e-05,-844.38,2.2725
14607,19.946,3.3636,0,8.892e-05,888.58,3.3142e-05,45.822,2.7046e-05,0.019768,-8.8051e-05,-864.78,2.2573
14608,19.946,3.4545,0.05,7.3165e-07,7.3115,5.6182e-07,4.2213,1.0512e-12,4.8877e-06,-5.6182e-07,-4.2213,2.2572
14609,20.223,3.4545,0,8.3031e-05,829.74,3.1528e-05,49.861,2.4895e-05,0.021137,-8.207e-05,-803.67,2.3029
14610,20.13,3.3636,0,8.4992e-05,849.34,3.2075e-05,48.625,2.5606e-05,0.020841,-8.406e-05,-823.97,2.2877
14611,20.13,3.4545,0.05,7.299e-07,7.294,5.6047e-07,4.2112,6.0278e-13,5.8876e-06,-5.6047e-07,-4.2112,2.2877
14612,20.407,3.4545,0,7.9155e-05,791.01,3.0503e-05,52.978,2.3455e-05,0.02236,-7.812e-05,-763.18,2.3335
14613,20.315,3.3636,0,8.1101e-05,810.45,3.1037e-05,51.652,2.4166e-05,0.02201,-8.0098e-05,-783.38,2.3182
14614,20.315,3.4545,0.05,7.2833e-07,7.2783,5.5927e-07,4.2021,1.5058e-13,9.7428e-06,-5.5927e-07,-4.2021,2.3182
14615,20.591,3.4545,0,7.5317e-05,752.65,2.9509e-05,56.343,2.2013e-05,0.023711,-7.42e-05,-722.89,2.364
14616,20.499,3.3636,0,7.7246e-05,771.93,3.0031e-05,54.92,2.2724e-05,0.023303,-7.6165e-05,-742.99,2.3488
14617,20.499,3.4545,0.05,7.2695e-07,7.2645,5.5821e-07,4.1942,1.3605e-13,1.0083e-05,-5.5821e-07,-4.1941,2.3487
14618,20.775,3.4545,0,7.1519e-05,714.69,2.8549e-05,59.975,2.057e-05,0.025217,-7.0309e-05,-682.8,2.3947
14619,20.683,3.3636,0,7.3431e-05,733.8,2.9057e-05,58.447,2.1281e-05,0.02473,-7.2261e-05,-702.82,2.3794
14620,20.683,3.4545,0.05,7.2579e-07,7.2529,5.5732e-07,4.1875,1.3062e-13,1.0979e-05,-5.5732e-07,-4.1874,2.3793
14621,20.96,3.4545,0,6.7762e-05,677.15,2.7624e-05,63.893,1.9124e-05,0.026914,-6.6448e-05,-642.93,2.4254
14622,20.867,3.3636,0,6.9656e-05,696.08,2.8118e-05,62.252,1.9836e-05,0.026334,-6.8388e-05,-662.85,2.41
14623,20.867,3.4545,0.05,7.2488e-07,7.2438,5.5662e-07,4.1822,1.3437e-13,9.5912e-06,-5.5661e-07,-4.1822,2.41
14624,21.144,3.4545,0,6.4048e-05,640.04,2.6736e-05,68.118,1.7674e-05,0.028831,-6.2617e-05,-603.24,2.4561
14625,21.052,3.3636,0,6.5924e-05,658.79,2.7215e-05,66.357,1.8388e-05,0.028146,-6.4544e-05,-623.09,2.4407
14626,21.052,3.4545,0.05,7.2424e-07,7.2374,5.5613e-07,4.1786,1.5497e-13,1.0218e-05,-5.5613e-07,-4.1785,2.4407
14627,21.328,3.4545,0,6.0381e-05,603.39,2.5888e-05,72.671,1.622e-05,0.031004,-5.8815e-05,-563.76,2.4869
14628,21.236,3.3636,0,6.2237e-05,621.94,2.6351e-05,70.781,1.6935e-05,0.030189,-6.073e-05,-583.51,2.4715
14629,21.236,3.4545,0.05,7.2393e-07,7.2343,5.5589e-07,4.1767,1.6918e-13,6.0608e-06,-5.5589e-07,-4.1767,2.4714
14630,21.512,3.4545,0,5.6763e-05,567.24,2.508e-05,77.574,1.476e-05,0.033493,-5.5044e-05,-524.45,2.5177
14631,21.42,3.3636,0,5.8599e-05,585.58,2.5527e-05,75.545,1.5477e-05,0.032518,-5.6946e-05,-544.13,2.5023
14632,21.42,3.4545,0.05,7.2397e-07,7.2347,5.5592e-07,4.177,1.8925e-13,6.1943e-06,-5.5592e-07,-4.177,2.5022
14633,21.697,3.4545,0,5.3198e-05,531.61,2.4316e-05,82.848,1.3294e-05,0.036381,-5.1302e-05,-485.31,2.5485
14634,21.605,3.3636,0,5.5011e-05,549.73,2.4746e-05,80.672,1.4013e-05,0.035196,-5.3192e-05,-504.92,2.5331
14635,21.605,3.4545,0.05,7.2441e-07,7.2391,5.5626e-07,4.1795,1.8768e-13,6.1742e-06,-5.5626e-07,-4.1795,2.5331
14636,21.881,3.4545,0,4.969e-05,496.56,2.3595e-05,88.515,1.182e-05,0.039779,-4.7588e-05,-446.33,2.5794
14637,21.789,3.3636,0,5.1478e-05,514.42,2.4007e-05,86.183,1.2542e-05,0.038329,-4.9467e-05,-465.87,2.564
14638,21.789,3.4545,0.05,7.253e-07,7.248,5.5694e-07,4.1847,-2.9557e-13,9.7633e-06,-5.5694e-07,-4.1846,2.5639
14639,22.065,3.4545,0,4.6244e-05,462.12,2.2921e-05,94.596,1.0337e-05,0.043829,-4.3902e-05,-407.49,2.6103
14640,21.973,3.3636,0,4.8005e-05,479.71,2.3314e-05,92.097,1.1063e-05,0.042037,-4.577e-05,-426.97,2.5949
14641,21.973,3.4545,0.05,7.267e-07,7.262,5.5802e-07,4.1928,1.8448e-13,1.1916e-05,-5.5802e-07,-4.1927,2.5948
14642,22.249,3.4545,0,4.2867e-05,428.38,2.2294e-05,101.11,8.8435e-06,0.048735,-4.0242e-05,-368.76,2.6412
14643,22.157,3.3636,0,4.4597e-05,445.66,2.2668e-05,98.434,9.5735e-06,0.046492,-4.2099e-05,-388.2,2.6258
14644,22.157,3.4545,0.05,7.2867e-07,7.2817,5.5953e-07,4.2041,2.0777e-13,1.4923e-05,-5.5953e-07,-4.2041,2.6258
14645,22.434,3.4545,0,3.9569e-05,395.42,2.1715e-05,108.07,7.3383e-06,0.054829,-3.6606e-05,-330.13,2.6722
14646,22.342,3.3636,0,4.1263e-05,412.34,2.2069e-05,105.21,8.0732e-06,0.051938,-3.8453e-05,-349.53,2.6567
14647,22.342,3.4545,0.05,7.3126e-07,7.3076,5.6152e-07,4.2191,1.6388e-13,1.0771e-05,-5.6152e-07,-4.219,2.6567
14648,22.618,3.4545,0,3.6361e-05,363.36,2.1184e-05,115.5,5.8199e-06,0.062543,-3.2992e-05,-291.55,2.7032
14649,22.526,3.3636,0,3.8012e-05,379.86,2.1518e-05,112.45,6.5603e-06,0.058812,-3.4829e-05,-310.93,2.6877
14650,22.526,3.4545,0.05,7.3454e-07,7.3403,5.6403e-07,4.2379,-5.4321e-14,8.9111e-06,-5.6403e-07,-4.2379,2.6877
14651,22.802,3.4545,0,3.326e-05,332.37,2.0702e-05,123.41,4.2868e-06,0.072908,-2.9395e-05,-253,2.7342
14652,22.71,3.3636,0,3.486e-05,348.36,2.1015e-05,120.15,5.0334e-06,0.067577,-3.1225e-05,-272.37,2.7187
14653,22.71,3.4545,0.05,7.3855e-07,7.3804,5.6712e-07,4.2611,2.1724e-13,5.4686e-06,-5.6712e-07,-4.2611,2.7187
14654,22.987,3.4545,0,3.0289e-05,302.69,2.0267e-05,131.8,2.7374e-06,0.086363,-2.5813e-05,-214.43,2.7653
14655,22.894,3.3636,0,3.1825e-05,318.03,2.056e-05,128.33,3.4911e-06,0.079902,-2.7637e-05,-233.8,2.7498
14656,22.894,3.4545,0.05,7.4335e-07,7.4284,5.708e-07,4.2888,-1.6426e-14,4.4475e-06,-5.708e-07,-4.2888,2.7497
14657,23.171,3.4545,0,2.7483e-05,274.64,1.9879e-05,140.67,1.171e-06,0.1092,-2.2241e-05,-175.8,2.7963
14658,23.079,3.3636,0,2.8937e-05,289.17,2.0151e-05,136.99,1.9319e-06,0.095144,-2.4061e-05,-195.2,2.7808
14659,23.079,3.4545,0.05,7.4896e-07,7.4844,5.7511e-07,4.3211,-6.0757e-14,6.9765e-06,-5.751e-07,-4.3211,2.7808
14660,23.355,3.4545,0,2.4889e-05,248.72,1.9535e-05,150.03,-4.1452e-07,0.1323,-1.8675e-05,-137.07,2.8274
14661,23.263,3.3636,0,2.6234e-05,262.16,1.9788e-05,146.13,3.5564e-07,0.12694,-2.0493e-05,-156.52,2.8119
14662,23.263,3.4545,0.05,7.5539e-07,7.5487,5.8004e-07,4.3582,-7.358e-14,3.0566e-06,-5.8004e-07,-4.3582,2.8118
14663,23.539,3.4545,0,2.2574e-05,225.59,1.9234e-05,159.88,-2.0139e-06,0.2293,-1.5114e-05,-98.198,2.8585
14664,23.447,3.3636,0,2.3773e-05,237.57,1.9467e-05,155.74,-1.2413e-06,0.14471,-1.6927e-05,-117.71,2.843
14665,23.447,3.4545,0.05,7.626e-07,7.6207,5.8558e-07,4.3998,-1.0126e-13,2.8477e-06,-5.8558e-07,-4.3998,2.8429
14666,23.724,3.4545,0,2.0629e-05,206.15,1.8972e-05,170.13,-3.6403e-06,0.22663,-1.155e-05,-59.206,2.8896
14667,23.631,3.3636,0,2.1635e-05,216.2,1.9187e-05,165.87,-2.8439e-06,0.3321,-1.3368e-05,-78.739,2.874
14668,23.631,3.4545,0.05,7.7061e-07,7.7007,5.9173e-07,4.446,3.4928e-13,9.4209e-07,-5.9173e-07,-4.446,2.874
14669,23.816,3.3636,0,1.992e-05,199.06,1.8944e-05,176.26,-4.4866e-06,0.20968,-9.8057e-06,-39.756,2.9051
14670,23.816,3.4545,0.05,7.8097e-07,7.8044,5.9969e-07,4.5059,3.2548e-13,2.6565e-06,-5.9969e-07,-4.5058,2.9051
14671,23.908,3.4545,0,1.9239e-05,192.26,1.8764e-05,180.26,-5.1707e-06,0.43003,-8.2069e-06,-22.383,2.9207
14672,1.2431,3.2727,0,0.0012284,12275,0.00046753,-1.0466,0.00029587,-1290.9,-0.0012453,-12870,0.021494
14673,1.1509,3.1818,0,0.0012821,12812,0.00048963,-0.74461,0.00030578,-1382.1,-0.0013,-13447,0.018546
14674,1.1509,3.2727,0.05,2.2771e-05,227.56,1.7486e-05,131.38,-1.4017e-11,-0.00034058,-1.7486e-05,-131.38,0.018341
14675,1.4273,3.2727,0,0.0010934,10926,0.00042287,1.1174,0.00025114,-1289.2,-0.0011095,-11513,0.028254
14676,1.3352,3.1818,0,0.0011555,11547,0.0004454,0.18792,0.00026805,-1332.4,-0.0011723,-12155,0.024882
14677,1.3352,3.2727,0.05,2.3756e-05,237.39,1.8241e-05,137.06,-7.9552e-12,-0.00019595,-1.8242e-05,-137.06,0.024695
14678,1.6116,3.2727,0,0.00096852,9678.5,0.00038221,1.9565,0.0002083,-1304.8,-0.00098404,-10264,0.035764
14679,1.5195,3.1818,0,0.0010268,10261,0.00040325,1.7119,0.00022444,-1341.8,-0.0010429,-10864,0.032012
14680,1.5195,3.2727,0.05,2.1617e-05,216.02,1.6599e-05,124.72,-1.3994e-12,-0.00014312,-1.6599e-05,-124.72,0.031846
14681,1.7959,3.2727,0,0.00086499,8643.9,0.00034737,1.7612,0.00017464,-1296,-0.00087966,-9217.6,0.04394
14682,1.7037,3.1818,0,0.00091406,9134.3,0.00036581,1.7429,0.00018694,-1342.3,-0.00092941,-9730.1,0.03985
14683,1.7037,3.2727,0.05,1.8299e-05,182.86,1.4051e-05,105.57,-5.2898e-12,-0.00011341,-1.4051e-05,-105.58,0.039703
14684,1.9801,3.2727,0,0.0007831,7825.6,0.00031832,1.4063,0.00015075,-1257.7,-0.00079683,-8377.4,0.052712
14685,1.888,3.1818,0,0.00082234,8217.7,0.00033395,1.4978,0.00015891,-1313.7,-0.00083672,-8794.5,0.048321
14686,1.888,3.2727,0.05,1.503e-05,150.19,1.1541e-05,86.714,-5.3637e-12,-9.8056e-05,-1.1541e-05,-86.714,0.048189
14687,2.1644,3.2727,0,0.0007194,7189.1,0.00029433,1.0629,0.00013479,-1197.6,-0.00073222,-7712,0.062024
14688,2.0723,3.1818,0,0.00075005,7495.4,0.00030735,1.1635,0.0001396,-1259.3,-0.00076346,-8044.5,0.057361
14689,2.0723,3.2727,0.05,1.2216e-05,122.08,9.3807e-06,70.483,-4.0892e-12,-0.00010438,-9.3807e-06,-70.483,0.05724
14690,2.3487,3.2727,0,0.00067,6695.3,0.00027453,0.76744,0.00012472,-1124.8,-0.00068198,-7186,0.071833
14691,2.2565,3.1818,0,0.00069374,6932.6,0.00028532,0.85027,0.00012708,-1188.1,-0.00070624,-7449.3,0.066921
14692,2.2565,3.2727,0.05,9.9168e-06,99.099,7.6148e-06,57.215,-3.7082e-12,-0.00010088,-7.6148e-06,-57.215,0.066809
14693,2.5329,3.2727,0,0.00063154,6311,0.00025812,0.54484,0.00011879,-1046.3,-0.00064278,-6768.4,0.082105
14694,2.4408,3.1818,0,0.00064993,6494.8,0.00026706,0.60411,0.00011949,-1108.2,-0.00066163,-6977.2,0.076962
14695,2.4408,3.2727,0.05,8.0795e-06,80.74,6.2041e-06,46.615,-5.3028e-12,-8.9221e-05,-6.2041e-06,-46.615,0.076856
14696,2.7172,3.2727,0,0.00060139,6009.8,0.00024444,0.38203,0.00011573,-966.64,-0.00061196,-6434.3,0.092813
14697,2.6251,3.1818,0,0.00061571,6152.8,0.00025188,0.422,0.00011535,-1025.4,-0.00062669,-6600.8,0.087453
14698,2.6251,3.2727,0.05,6.6257e-06,66.211,5.0877e-06,38.227,-5.0603e-12,-5.0255e-05,-5.0877e-06,-38.227,0.087351
14699,2.9015,3.2727,0,0.00057755,5771.5,0.00023294,0.26513,0.00011461,-888.79,-0.00058751,-6164.2,0.10394
14700,2.8093,3.1818,0,0.00058878,5883.7,0.00023917,0.29106,0.00011356,-943.48,-0.00059912,-6298.3,0.098371
14701,2.8093,3.2727,0.05,5.4789e-06,54.751,4.2071e-06,31.611,-4.6102e-12,-6.2125e-05,-4.2071e-06,-31.611,0.098272
14702,3.0857,3.2727,0,0.00055849,5581.1,0.00022318,0.18209,0.00011476,-814.47,-0.00056786,-5943.4,0.11546
14703,2.9936,3.1818,0,0.00056739,5670,0.00022845,0.19844,0.00011333,-864.76,-0.00057713,-6052.6,0.1097
14704,2.9936,3.2727,0.05,4.5747e-06,45.716,3.5128e-06,26.394,-4.7474e-12,-5.0855e-05,-3.5128e-06,-26.394,0.1096
14705,3.27,3.2727,0,0.00054306,5426.8,0.00021483,0.12339,0.00011571,-744.63,-0.00055187,-5760.6,0.12737
14706,3.1779,3.1818,0,0.0005502,5498.3,0.00021932,0.13336,0.0001141,-790.49,-0.00055937,-5850.6,0.12141
14707,3.1779,3.2727,0.05,3.8609e-06,38.582,2.9647e-06,22.275,-3.4306e-12,-2.8977e-05,-2.9647e-06,-22.275,0.12132
14708,3.4543,3.2727,0,0.00053037,5300,0.00020761,0.082029,0.00011714,-679.7,-0.00053865,-5607,0.13965
14709,3.3621,3.1818,0,0.0005362,5358.3,0.00021147,0.087833,0.00011547,-721.28,-0.00054481,-5682.4,0.13351
14710,3.3621,3.2727,0.05,3.2962e-06,32.939,2.5311e-06,19.017,-2.4051e-12,-2.9683e-05,-2.5311e-06,-19.017,0.13342
14711,3.6385,3.2727,0,0.00051975,5194,0.0002013,0.052979,0.00011881,-619.77,-0.00052751,-5476,0.1523
14712,3.5464,3.1818,0,0.00052461,5242.4,0.00020466,0.056081,0.00011717,-657.34,-0.00053268,-5540.1,0.14598
14713,3.5464,3.2727,0.05,2.8485e-06,28.465,2.1873e-06,16.434,4.5809e-14,-2.0064e-05,-2.1873e-06,-16.434,0.14589
14714,3.8228,3.2727,0,0.00051071,5103.6,0.00019574,0.032667,0.00012057,-564.76,-0.00051797,-5362.5,0.16531
14715,3.7307,3.1818,0,0.00051483,5144.7,0.00019868,0.034033,0.00011901,-598.63,-0.00052239,-5417.8,0.15881
14716,3.7307,3.2727,0.05,2.4926e-06,24.909,1.914e-06,14.381,-1.2582e-12,-2.05e-05,-1.914e-06,-14.381,0.15872
14717,4.0071,3.2727,0,0.00050284,5025,0.00019077,0.018562,0.0001223,-514.45,-0.00050961,-5262.4,0.17867
14718,3.9149,3.1818,0,0.00050642,5060.7,0.00019339,0.018825,0.00012086,-544.93,-0.00051348,-5311.1,0.17199
14719,3.9149,3.2727,0.05,2.2091e-06,22.076,1.6963e-06,12.745,-6.1116e-13,-1.2346e-05,-1.6963e-06,-12.745,0.1719
14720,4.1913,3.2727,0,0.00049586,4955.1,0.00018629,0.0088735,0.00012393,-468.55,-0.00050216,-5172.8,0.19237
14721,4.0992,3.1818,0,0.00049904,4986.9,0.00018864,0.0084505,0.00012263,-495.97,-0.00050562,-5216.4,0.18553
14722,4.0992,3.2727,0.05,1.9826e-06,19.812,1.5224e-06,11.439,-1.9547e-12,-1.2537e-05,-1.5224e-06,-11.439,0.18544
14723,4.3756,3.2727,0,0.00048952,4891.8,0.00018222,0.0023304,0.00012542,-426.76,-0.00049538,-5091.2,0.20642
14724,4.2835,3.1818,0,0.00049241,4920.7,0.00018434,0.0014951,0.00012426,-451.41,-0.00049854,-5130.9,0.19941
14725,4.2835,3.2727,0.05,1.8012e-06,17.999,1.3831e-06,10.392,3.9366e-13,-9.0919e-06,-1.3831e-06,-10.392,0.19931
14726,4.5599,3.2727,0,0.00048366,4833.3,0.00017848,-0.0019742,0.00012674,-388.74,-0.0004891,-5015.9,0.2208
14727,4.4677,3.1818,0,0.00048635,4860.2,0.00018042,-0.0030409,0.00012573,-410.92,-0.00049204,-5052.6,0.21362
14728,4.4677,3.2727,0.05,1.6554e-06,16.542,1.2711e-06,9.5507,1.1457e-12,-4.3851e-06,-1.2711e-06,-9.5508,0.21353
14729,4.7441,3.2727,0,0.00047815,4778.2,0.00017501,-0.004689,0.00012787,-354.18,-0.00048319,-4945.5,0.23552
14730,4.652,3.1818,0,0.0004807,4803.6,0.0001768,-0.0058687,0.00012701,-374.14,-0.00048597,-4979.8,0.22817
14731,4.652,3.2727,0.05,1.5379e-06,15.368,1.1809e-06,8.8728,1.6093e-12,-1.1116e-05,-1.1809e-06,-8.8728,0.22808
14732,4.9284,3.2727,0,0.00047289,4725.6,0.00017177,-0.00628,0.00012881,-322.77,-0.00047755,-4878.7,0.25056
14733,4.8363,3.1818,0,0.00047533,4750.1,0.00017344,-0.007495,0.00012809,-340.75,-0.00048021,-4911.3,0.24305
14734,4.8363,3.2727,0.05,1.4428e-06,14.418,1.1079e-06,8.324,1.8034e-13,-2.9291e-06,-1.1079e-06,-8.3242,0.24296
14735,5.1127,3.2727,0,0.00046779,4674.7,0.00016872,-0.0070827,0.00012956,-294.23,-0.0004721,-4814.9,0.26593
14736,5.0205,3.1818,0,0.00047018,4698.5,0.00017028,-0.0082831,0.00012897,-310.43,-0.00047469,-4846.1,0.25826
14737,5.0205,3.2727,0.05,1.3655e-06,13.645,1.0485e-06,7.878,4.4532e-13,-2.9396e-06,-1.0485e-06,-7.8781,0.25817
14738,5.2969,3.2727,0,0.00046282,4625,0.00016582,-0.007339,0.00013012,-268.28,-0.0004668,-4753.3,0.28162
14739,5.2048,3.1818,0,0.00046516,4648.4,0.0001673,-0.008494,0.00012965,-282.9,-0.00046933,-4783.4,0.27379
14740,5.2048,3.2727,0.05,1.3023e-06,13.014,1e-06,7.5136,6.8641e-13,-8.2038e-06,-1e-06,-7.5136,0.2737
14741,5.4812,3.2727,0,0.00045791,4576,0.00016307,-0.0072231,0.00013051,-244.67,-0.00046158,-4693.4,0.29762
14742,5.3891,3.1818,0,0.00046024,4599.2,0.00016447,-0.0083142,0.00013015,-257.88,-0.00046408,-4722.7,0.28964
14743,5.3891,3.2727,0.05,1.2504e-06,12.495,9.6014e-07,7.2141,2.6679e-12,-5.6209e-06,-9.6014e-07,-7.2142,0.28954
14744,5.6655,3.2727,0,0.00045305,4527.4,0.00016043,-0.0068604,0.00013072,-223.18,-0.00045644,-4634.9,0.31394
14745,5.5733,3.1818,0,0.00045537,4550.6,0.00016177,-0.0078779,0.00013047,-235.14,-0.00045891,-4663.6,0.3058
14746,5.5733,3.2727,0.05,1.2074e-06,12.066,9.2716e-07,6.9663,-7.7815e-13,-5.8719e-07,-9.2717e-07,-6.9664,0.30571
14747,5.8497,3.2727,0,0.00044821,4479,0.00015788,-0.0063405,0.00013078,-203.61,-0.00045133,-4577.4,0.33057
14748,5.7576,3.1818,0,0.00045053,4502.2,0.00015917,-0.0072803,0.00013063,-214.44,-0.0004538,-4605.6,0.32227
14749,5.7576,3.2727,0.05,1.1717e-06,11.708,8.9968e-07,6.7599,-6.5864e-13,8.5252e-07,-8.9969e-07,-6.7599,0.32218
14750,6.034,3.2727,0,0.00044338,4430.7,0.00015542,-0.0057271,0.0001307,-185.77,-0.00044625,-4520.7,0.34751
14751,5.9419,3.1818,0,0.00044571,4454,0.00015667,-0.0065891,0.00013063,-195.6,-0.00044871,-4548.6,0.33905
14752,5.9419,3.2727,0.05,1.1416e-06,11.408,8.766e-07,6.5864,1.2631e-12,-2.2349e-06,-8.766e-07,-6.5864,0.33897
14753,6.2183,3.2727,0,0.00043854,4382.4,0.00015303,-0.0050648,0.00013047,-169.49,-0.00044118,-4464.7,0.36474
14754,6.1261,3.1818,0,0.00044088,4405.8,0.00015424,-0.0058517,0.00013049,-178.42,-0.00044364,-4492.3,0.35614
14755,6.1261,3.2727,0.05,1.1161e-06,11.153,8.5704e-07,6.4395,-4.8284e-13,2.3978e-07,-8.5704e-07,-6.4395,0.35605
14756,6.4025,3.2727,0,0.00043369,4333.9,0.00015071,-0.004385,0.00013013,-154.63,-0.00043611,-4409.1,0.38228
14757,6.3104,3.1818,0,0.00043604,4357.4,0.00015188,-0.0051,0.00013022,-162.75,-0.00043858,-4436.5,0.37353
14758,6.3104,3.2727,0.05,1.0943e-06,10.936,8.4031e-07,6.3137,-4.1063e-13,-3.1899e-06,-8.4031e-07,-6.3138,0.37344
14759,6.5868,3.2727,0,0.00042882,4285.2,0.00014844,-0.0037092,0.00012967,-141.05,-0.00043105,-4354,0.40012
14760,6.4947,3.1818,0,0.00043119,4308.9,0.00014958,-0.0043572,0.00012983,-148.44,-0.00043352,-4381.2,0.39122
14761,6.4947,3.2727,0.05,1.0755e-06,10.748,8.2586e-07,6.2052,-3.578e-13,-7.8596e-07,-8.2586e-07,-6.2052,0.39113
14762,6.7711,3.2727,0,0.00042393,4236.4,0.00014622,-0.0030509,0.0001291,-128.63,-0.00042598,-4299.3,0.41824
14763,6.6789,3.1818,0,0.00042632,4260.3,0.00014734,-0.0036373,0.00012932,-135.37,-0.00042846,-4326.3,0.4092
14764,6.6789,3.2727,0.05,1.0591e-06,10.584,8.1326e-07,6.1106,-3.1709e-13,-2.3495e-06,-8.1327e-07,-6.1106,0.40911
14765,6.9553,3.2727,0,0.00041903,4187.4,0.00014405,-0.002419,0.00012844,-117.25,-0.0004209,-4244.8,0.43666
14766,6.8632,3.1818,0,0.00042143,4211.4,0.00014514,-0.0029489,0.00012872,-123.41,-0.00042339,-4271.7,0.42747
14767,6.8632,3.2727,0.05,1.0447e-06,10.439,8.0217e-07,6.0272,-2.7602e-13,-1.1261e-06,-8.0217e-07,-6.0272,0.42738
14768,7.1396,3.2727,0,0.0004141,4138.2,0.00014191,-0.0018185,0.00012769,-106.84,-0.00041582,-4190.5,0.45536
14769,7.0475,3.1818,0,0.00041652,4162.3,0.00014298,-0.0022971,0.00012802,-112.46,-0.00041832,-4217.4,0.44603
14770,7.0475,3.2727,0.05,1.0318e-06,10.311,7.923e-07,5.953,-2.493e-13,1.01e-06,-7.923e-07,-5.953,0.44594
14771,7.3239,3.2727,0,0.00040916,4088.7,0.00013981,-0.0012525,0.00012686,-97.288,-0.00041072,-4136.5,0.47435
14772,7.2317,3.1818,0,0.00041159,4113,0.00014087,-0.0016846,0.00012723,-102.43,-0.00041323,-4163.3,0.46487
14773,7.2317,3.2727,0.05,1.0203e-06,10.196,7.8343e-07,5.8864,-2.2371e-13,2.5614e-07,-7.8344e-07,-5.8864,0.46479
14774,7.5081,3.2727,0,0.00040419,4039.1,0.00013774,-0.00072171,0.00012596,-88.527,-0.00040563,-4082.7,0.49361
14775,7.416,3.1818,0,0.00040663,4063.5,0.00013878,-0.0011117,0.00012637,-93.24,-0.00040814,-4109.4,0.484
14776,7.416,3.2727,0.05,1.0098e-06,10.091,7.754e-07,5.8261,1.6195e-12,3.9378e-07,-7.7541e-07,-5.8261,0.48391
14777,7.6924,3.2727,0,0.00039921,3989.4,0.00013571,-0.00022537,0.000125,-80.485,-0.00040052,-4029,0.51315
14778,7.6003,3.1818,0,0.00040167,4013.9,0.00013673,-0.00057766,0.00012544,-84.804,-0.00040304,-4055.6,0.5034
14779,7.6003,3.2727,0.05,1.0002e-06,9.9955,7.6806e-07,5.7709,-1.7825e-13,-3.8261e-07,-7.6807e-07,-5.7709,0.50331
14780,7.8767,3.2727,0,0.00039422,3939.5,0.0001337,0.00023811,0.00012397,-73.097,-0.00039541,-3975.5,0.53296
14781,7.7845,3.1818,0,0.00039668,3964.1,0.0001347,-8.0615e-05,0.00012445,-77.06,-0.00039794,-4002.1,0.52307
14782,7.7845,3.2727,0.05,9.9143e-07,9.9075,7.613e-07,5.7201,1.6597e-12,-2.3059e-07,-7.613e-07,-5.7201,0.52299
14783,8.0609,3.2727,0,0.00038921,3889.5,0.00013171,0.00066984,0.00012289,-66.307,-0.0003903,-3922.2,0.55304
14784,7.9688,3.1818,0,0.00039169,3914.2,0.00013271,0.0003815,0.0001234,-69.945,-0.00039283,-3948.7,0.54302
14785,7.9688,3.2727,0.05,9.8326e-07,9.8258,7.5501e-07,5.6729,1.6749e-12,8.346e-07,-7.5502e-07,-5.6729,0.54294
14786,8.2452,3.2727,0,0.0003842,3839.3,0.00012975,0.0010717,0.00012176,-60.063,-0.00038519,-3869,0.57338
14787,8.1531,3.1818,0,0.00038668,3864.1,0.00013073,0.00081014,0.00012229,-63.405,-0.00038772,-3895.4,0.56323
14788,8.1531,3.2727,0.05,9.7561e-07,9.7494,7.4915e-07,5.6288,1.6897e-12,-4.8584e-07,-7.4915e-07,-5.6288,0.56315
14789,8.4295,3.2727,0,0.00037917,3789.1,0.00012781,0.0014465,0.00012058,-54.319,-0.00038007,-3816,0.59399
14790,8.3373,3.1818,0,0.00038166,3814,0.00012878,0.0012088,0.00012114,-57.391,-0.0003826,-3842.3,0.5837
14791,8.3373,3.2727,0.05,9.6842e-07,9.6776,7.4363e-07,5.5873,7.9277e-13,1.0193e-06,-7.4363e-07,-5.5874,0.58362
14792,8.6137,3.2727,0,0.00037414,3738.9,0.00012589,0.0017958,0.00011936,-49.031,-0.00037495,-3763.1,0.61485
14793,8.5216,3.1818,0,0.00037663,3763.7,0.00012685,0.0015798,0.00011995,-51.857,-0.00037749,-3789.4,0.60444
14794,8.5216,3.2727,0.05,9.6163e-07,9.6096,7.3841e-07,5.5481,1.7132e-12,1.1109e-06,-7.3841e-07,-5.5481,0.60436
14795,8.798,3.2727,0,0.00036911,3688.5,0.00012399,0.002122,0.00011811,-44.161,-0.00036984,-3710.4,0.63597
14796,8.7059,3.1818,0,0.0003716,3713.5,0.00012494,0.0019247,0.00011871,-46.762,-0.00037238,-3736.6,0.62543
14797,8.7059,3.2727,0.05,9.5517e-07,9.5451,7.3345e-07,5.5109,-9.5493e-14,1.1935e-06,-7.3345e-07,-5.5109,0.62535
14798,8.9823,3.2727,0,0.00036407,3638.2,0.0001221,0.0024271,0.00011682,-39.674,-0.00036473,-3657.9,0.65734
14799,8.8901,3.1818,0,0.00036657,3663.1,0.00012304,0.002247,0.00011745,-42.069,-0.00036726,-3684,0.64667
14800,8.8901,3.2727,0.05,9.4901e-07,9.4836,7.2872e-07,5.4753,-8.5955e-14,1.7347e-06,-7.2872e-07,-5.4754,0.6466
14801,9.1665,3.2727,0,0.00035903,3587.8,0.00012024,0.0027131,0.00011551,-35.539,-0.00035962,-3605.5,0.67896
14802,9.0744,3.1818,0,0.00036153,3612.8,0.00012117,0.0025477,0.00011615,-37.746,-0.00036216,-3631.5,0.66817
14803,9.0744,3.2727,0.05,9.4311e-07,9.4246,7.2419e-07,5.4413,-7.7061e-14,8.4684e-07,-7.2419e-07,-5.4413,0.66809
14804,9.3508,3.2727,0,0.00035399,3537.5,0.00011839,0.0029819,0.00011416,-31.725,-0.00035452,-3553.2,0.70082
14805,9.2587,3.1818,0,0.00035649,3562.4,0.00011931,0.0028298,0.00011482,-33.76,-0.00035705,-3579.2,0.68991
14806,9.2587,3.2727,0.05,9.3744e-07,9.3679,7.1984e-07,5.4086,8.4007e-13,1.3853e-06,-7.1984e-07,-5.4086,0.68983
14807,9.5351,3.2727,0,0.00034895,3487.1,0.00011655,0.0032346,0.0001128,-28.208,-0.00034943,-3501.2,0.72292
14808,9.4429,3.1818,0,0.00035145,3512.1,0.00011747,0.0030943,0.00011346,-30.085,-0.00035196,-3527.1,0.71189
14809,9.4429,3.2727,0.05,9.3197e-07,9.3133,7.1564e-07,5.377,8.4731e-13,1.4401e-06,-7.1564e-07,-5.377,0.71181
14810,9.7193,3.2727,0,0.00034392,3436.8,0.00011473,0.0034771,0.00011141,-24.962,-0.00034434,-3449.2,0.74526
14811,9.6272,3.1818,0,0.00034642,3461.8,0.00011564,0.0033423,0.00011209,-26.694,-0.00034687,-3475.1,0.73411
14812,9.6272,3.2727,0.05,9.2668e-07,9.2604,7.1158e-07,5.3465,1.7637e-12,2.2104e-06,-7.1158e-07,-5.3465,0.73404
14813,9.9036,3.2727,0,0.00033889,3386.6,0.00011292,0.0037068,0.00011,-21.965,-0.00033926,-3397.5,0.76784
14814,9.8115,3.1818,0,0.00034139,3411.5,0.00011382,0.0035844,0.00011069,-23.564,-0.00034178,-3423.2,0.75657
14815,9.8115,3.2727,0.05,9.2155e-07,9.2092,7.0764e-07,5.3169,-4.9444e-14,2.4918e-06,-7.0764e-07,-5.3169,0.75649
14816,10.088,3.2727,0,0.00033387,3336.4,0.00011113,0.0039223,0.00010857,-19.197,-0.00033419,-3345.9,0.79064
14817,9.9957,3.1818,0,0.00033636,3361.3,0.00011202,0.0038056,0.00010927,-20.675,-0.00033671,-3371.6,0.77925
14818,9.9957,3.2727,0.05,9.1658e-07,9.1594,7.0381e-07,5.2882,-4.3397e-14,2.5344e-06,-7.0382e-07,-5.2882,0.77918
14819,10.272,3.2727,0,0.00032885,3286.2,0.00010934,0.004135,0.00010713,-16.64,-0.00032913,-3294.5,0.81367
14820,10.18,3.1818,0,0.00033134,3311.1,0.00011023,0.0040183,0.00010784,-18.005,-0.00033164,-3320.1,0.80217
14821,10.18,3.2727,0.05,9.1173e-07,9.111,7.0009e-07,5.2602,8.7102e-13,3.4102e-06,-7.0009e-07,-5.2602,0.8021
14822,10.456,3.2727,0,0.00032384,3236.2,0.00010757,0.0043209,0.00010567,-14.275,-0.00032408,-3243.3,0.83693
14823,10.364,3.1818,0,0.00032633,3261,0.00010846,0.0042315,0.00010639,-15.538,-0.00032659,-3268.8,0.82531
14824,10.364,3.2727,0.05,9.07e-07,9.0638,6.9646e-07,5.2329,8.7551e-13,2.4892e-06,-6.9647e-07,-5.233,0.82524
14825,10.641,3.2727,0,0.00031884,3186.2,0.00010582,0.004495,0.00010421,-12.088,-0.00031904,-3192.2,0.8604
14826,10.549,3.1818,0,0.00032133,3211,0.00010669,0.0043878,0.00010493,-13.256,-0.00032155,-3217.6,0.84868
14827,10.549,3.2727,0.05,9.0238e-07,9.0176,6.9292e-07,5.2063,1.7893e-12,2.8773e-06,-6.9292e-07,-5.2063,0.84861
14828,10.825,3.2727,0,0.00031385,3136.3,0.00010407,0.0047042,0.00010273,-10.063,-0.00031402,-3141.4,0.88409
14829,10.733,3.1818,0,0.00031633,3161.1,0.00010494,0.0045746,0.00010346,-11.145,-0.00031652,-3166.7,0.87226
14830,10.733,3.2727,0.05,8.9785e-07,8.9723,6.8943e-07,5.1802,-2.595e-14,2.785e-06,-6.8944e-07,-5.1802,0.87219
14831,11.009,3.2727,0,0.00030887,3086.6,0.00010233,0.0049148,0.00010124,-8.1874,-0.00030901,-3090.7,0.908
14832,10.917,3.1818,0,0.00031134,3111.3,0.0001032,0.0047979,0.00010198,-9.1907,-0.0003115,-3115.9,0.89606
14833,10.917,3.2727,0.05,8.9342e-07,8.928,6.8604e-07,5.1546,1.7971e-12,2.338e-06,-6.8603e-07,-5.1546,0.89599
14834,11.193,3.2727,0,0.0003039,3036.9,0.00010061,0.0051052,9.9748e-05,-6.4489,-0.00030401,-3040.1,0.93211
14835,11.101,3.1818,0,0.00030637,3061.6,0.00010147,0.0049819,0.00010049,-7.3796,-0.0003065,-3065.3,0.92007
14836,11.101,3.2727,0.05,8.8908e-07,8.8847,6.827e-07,5.1296,8.9148e-13,2.0689e-06,-6.827e-07,-5.1296,0.92
14837,11.378,3.2727,0,0.00029894,2987.4,9.8891e-05,0.0052846,9.8247e-05,-4.8359,-0.00029903,-2989.8,0.95643
14838,11.286,3.1818,0,0.00030141,3012,9.9747e-05,0.0051558,9.8988e-05,-5.7,-0.0003015,-3014.8,0.94429
14839,11.286,3.2727,0.05,8.8482e-07,8.8421,6.7943e-07,5.105,8.9474e-13,1.7383e-06,-6.7943e-07,-5.105,0.94422
14840,11.562,3.2727,0,0.000294,2938,9.7186e-05,0.0054942,9.6741e-05,-3.3378,-0.00029406,-2939.6,0.98095
14841,11.47,3.1818,0,0.00029646,2962.5,9.8036e-05,0.0053012,9.7485e-05,-4.1411,-0.00029653,-2964.6,0.96871
14842,11.47,3.2727,0.05,8.8062e-07,8.8001,6.7621e-07,5.0807,8.9771e-13,2.1167e-06,-6.7621e-07,-5.0808,0.96864
14843,11.746,3.2727,0,0.00028907,2888.7,9.5489e-05,0.0058338,9.523e-05,-1.9448,-0.0002891,-2889.7,1.0057
14844,11.654,3.1818,0,0.00029152,2913.2,9.6335e-05,0.0055033,9.5976e-05,-2.6924,-0.00029157,-2914.5,0.99333
14845,11.654,3.2727,0.05,8.7648e-07,8.7587,6.7302e-07,5.0569,-9.0311e-15,2.2025e-06,-6.7303e-07,-5.0569,0.99327
14846,11.931,3.2727,0,0.00028415,2839.5,9.3802e-05,0.0068047,9.3715e-05,-0.64844,-0.00028416,-2839.9,1.0306
14847,11.838,3.1818,0,0.0002866,2864,9.4644e-05,0.005825,9.4464e-05,-1.3445,-0.00028662,-2864.7,1.0182
14848,11.838,3.2727,0.05,8.7241e-07,8.718,6.699e-07,5.0333,-6.2818e-15,2.4707e-06,-6.699e-07,-5.0334,1.0181
14849,12.115,3.2727,0,0.00027925,2790.5,9.2199e-05,0.56377,9.2124e-05,0.0043379,-0.00027924,-2790.3,1.0557
14850,12.023,3.1818,0,0.00028169,2814.9,9.2962e-05,0.0093207,9.2948e-05,-0.092011,-0.00028169,-2815,1.0432
14851,12.023,3.2727,0.05,8.684e-07,8.678,6.6682e-07,5.0102,1.8152e-12,2.6835e-06,-6.6682e-07,-5.0102,1.0431
14852,12.299,3.2727,0,0.00027436,2741.7,9.068e-05,1.6927,9.0455e-05,0.0054096,-0.00027433,-2740.9,1.081
14853,12.207,3.1818,0,0.00027679,2766,9.1431e-05,1.084,9.1288e-05,0.0055377,-0.00027677,-2765.4,1.0684
14854,12.207,3.2727,0.05,8.6444e-07,8.6384,6.6378e-07,4.9874,9.0814e-13,3.1039e-06,-6.6378e-07,-4.9874,1.0683
14855,12.483,3.2727,0,0.00026949,2693,8.916e-05,2.7501,8.8795e-05,0.0057175,-0.00026944,-2691.6,1.1065
14856,12.391,3.1818,0,0.00027191,2717.2,8.9912e-05,2.1797,8.9623e-05,0.0058154,-0.00027187,-2716.1,1.0938
14857,12.391,3.2727,0.05,8.6052e-07,8.5993,6.6077e-07,4.9648,8.1846e-16,2.0216e-06,-6.6078e-07,-4.9648,1.0937
14858,12.668,3.2727,0,0.00026463,2644.5,8.764e-05,3.7422,8.7143e-05,0.0059561,-0.00026457,-2642.6,1.1322
14859,12.575,3.1818,0,0.00026705,2668.6,8.8392e-05,3.2064,8.7966e-05,0.006014,-0.00026699,-2667,1.1194
14860,12.575,3.2727,0.05,8.5664e-07,8.5605,6.578e-07,4.9424,2.8695e-15,1.7352e-06,-6.578e-07,-4.9424,1.1193
14861,12.852,3.2727,0,0.00025979,2596.1,8.612e-05,4.6753,8.5499e-05,0.0061622,-0.00025971,-2593.7,1.158
14862,12.76,3.1818,0,0.0002622,2620.2,8.6873e-05,4.1708,8.6319e-05,0.0062215,-0.00026212,-2618.1,1.1451
14863,12.76,3.2727,0.05,8.5282e-07,8.5223,6.5486e-07,4.9203,1.8237e-12,2.5536e-06,-6.5486e-07,-4.9204,1.1451
14864,13.036,3.2727,0,0.00025496,2547.9,8.4602e-05,5.5554,8.3863e-05,0.006335,-0.00025487,-2545.1,1.1841
14865,12.944,3.1818,0,0.00025736,2571.9,8.5354e-05,5.079,8.4679e-05,0.0063871,-0.00025728,-2569.3,1.1711
14866,12.944,3.2727,0.05,8.4904e-07,8.4845,6.5196e-07,4.8985,9.1581e-13,3.2065e-06,-6.5196e-07,-4.8986,1.171
14867,13.22,3.2727,0,0.00025016,2499.8,8.3085e-05,6.3882,8.2235e-05,0.0064833,-0.00025005,-2496.6,1.2103
14868,13.128,3.1818,0,0.00025255,2523.7,8.3836e-05,5.937,8.3047e-05,0.0065425,-0.00025245,-2520.8,1.1972
14869,13.128,3.2727,0.05,8.4529e-07,8.4471,6.4908e-07,4.8769,9.1722e-13,4.2603e-06,-6.4908e-07,-4.8769,1.1971
14870,13.405,3.2727,0,0.00024537,2452,8.157e-05,7.1791,8.0615e-05,0.0066298,-0.00024524,-2448.4,1.2366
14871,13.313,3.1818,0,0.00024775,2475.8,8.232e-05,6.7502,8.1423e-05,0.0066675,-0.00024763,-2472.4,1.2234
14872,13.313,3.2727,0.05,8.4158e-07,8.41,6.4623e-07,4.8555,9.1844e-13,4.3588e-06,-6.4623e-07,-4.8555,1.2234
14873,13.589,3.2727,0,0.00024059,2404.3,8.0058e-05,7.9332,7.9003e-05,0.006807,-0.00024046,-2400.3,1.2632
14874,13.497,3.1818,0,0.00024297,2428,8.0807e-05,7.5239,7.9807e-05,0.006825,-0.00024284,-2424.2,1.2499
14875,13.497,3.2727,0.05,8.3789e-07,8.3732,6.434e-07,4.8342,1.0019e-14,4.128e-06,-6.434e-07,-4.8342,1.2498
14876,13.773,3.2727,0,0.00023584,2356.7,7.8549e-05,8.6554,7.7398e-05,0.0069861,-0.00023569,-2352.4,1.2899
14877,13.681,3.1818,0,0.0002382,2380.4,7.9297e-05,8.2633,7.8198e-05,0.0070141,-0.00023806,-2376.2,1.2765
14878,13.681,3.2727,0.05,8.3425e-07,8.3367,6.406e-07,4.8132,1.0861e-14,3.2412e-06,-6.406e-07,-4.8132,1.2765
14879,13.957,3.2727,0,0.0002311,2309.4,7.7044e-05,9.3504,7.58e-05,0.0071498,-0.00023094,-2304.7,1.3167
14880,13.865,3.1818,0,0.00023346,2333,7.779e-05,8.9729,7.6597e-05,0.0071775,-0.0002333,-2328.5,1.3033
14881,13.865,3.2727,0.05,8.3064e-07,8.3006,6.3782e-07,4.7924,1.8308e-12,3.1886e-06,-6.3783e-07,-4.7924,1.3032
14882,14.142,3.2727,0,0.00022638,2262.3,7.5543e-05,10.022,7.421e-05,0.0073002,-0.00022621,-2257.2,1.3437
14883,14.05,3.1818,0,0.00022873,2285.7,7.6287e-05,9.6575,7.5002e-05,0.007338,-0.00022856,-2280.9,1.3302
14884,14.05,3.2727,0.05,8.2705e-07,8.2648,6.3507e-07,4.7717,1.8317e-12,3.7313e-06,-6.3508e-07,-4.7717,1.3302
14885,14.326,3.2727,0,0.00022168,2215.3,7.4046e-05,10.676,7.2626e-05,0.0074552,-0.0002215,-2209.9,1.3709
14886,14.234,3.1818,0,0.00022402,2238.7,7.4788e-05,10.321,7.3416e-05,0.0074756,-0.00022384,-2233.5,1.3573
14887,14.234,3.2727,0.05,8.235e-07,8.2293,6.3234e-07,4.7512,1.3599e-14,2.8448e-06,-6.3234e-07,-4.7512,1.3573
14888,14.51,3.2727,0,0.000217,2168.5,7.2555e-05,11.316,7.105e-05,0.0076432,-0.00021681,-2162.8,1.3982
14889,14.418,3.1818,0,0.00021933,2191.8,7.3294e-05,10.969,7.1836e-05,0.0076471,-0.00021914,-2186.3,1.3846
14890,14.418,3.2727,0.05,8.1996e-07,8.1939,6.2963e-07,4.7308,9.2382e-13,4.0402e-06,-6.2963e-07,-4.7308,1.3845
14891,14.695,3.2727,0,0.00021234,2121.9,7.1069e-05,11.945,6.9481e-05,0.0078379,-0.00021213,-2115.9,1.4257
14892,14.602,3.1818,0,0.00021466,2145.1,7.1806e-05,11.604,7.0263e-05,0.0078509,-0.00021446,-2139.3,1.412
14893,14.602,3.2727,0.05,8.1646e-07,8.1589,6.2694e-07,4.7106,1.3861e-14,4.874e-06,-6.2694e-07,-4.7106,1.4119
14894,14.879,3.2727,0,0.0002077,2075.6,6.9589e-05,12.568,6.7918e-05,0.0080226,-0.00020748,-2069.2,1.4533
14895,14.787,3.1818,0,0.00021001,2098.6,7.0323e-05,12.231,6.8696e-05,0.0080359,-0.0002098,-2092.5,1.4395
14896,14.787,3.2727,0.05,8.1299e-07,8.1243,6.2427e-07,4.6905,1.4262e-14,7.0212e-06,-6.2427e-07,-4.6905,1.4395
14897,15.063,3.2727,0,0.00020308,2029.4,6.8116e-05,13.19,6.6362e-05,0.0081987,-0.00020285,-2022.7,1.4811
14898,14.971,3.1818,0,0.00020538,2052.3,6.8847e-05,12.854,6.7137e-05,0.00822,-0.00020515,-2045.9,1.4672
14899,14.971,3.2727,0.05,8.0954e-07,8.0898,6.2163e-07,4.6707,1.4595e-14,5.8324e-06,-6.2163e-07,-4.6707,1.4671
14900,15.247,3.2727,0,0.00019847,1983.4,6.6649e-05,13.813,6.4812e-05,0.0083833,-0.00019824,-1976.4,1.509
14901,15.155,3.1818,0,0.00020076,2006.3,6.7377e-05,13.477,6.5584e-05,0.0083884,-0.00020053,-1999.5,1.495
14902,15.155,3.2727,0.05,8.0612e-07,8.0556,6.19e-07,4.6509,1.5326e-14,7.0285e-06,-6.19e-07,-4.6509,1.495
14903,15.432,3.2727,0,0.00019389,1937.6,6.519e-05,14.442,6.3269e-05,0.0086012,-0.00019364,-1930.3,1.537
14904,15.339,3.1818,0,0.00019617,1960.4,6.5914e-05,14.104,6.4037e-05,0.0085904,-0.00019593,-1953.3,1.523
14905,15.339,3.2727,0.05,8.0272e-07,8.0216,6.1639e-07,4.6313,1.5889e-14,6.4404e-06,-6.1639e-07,-4.6313,1.5229
14906,15.616,3.2727,0,0.00018933,1892,6.3738e-05,15.081,6.1732e-05,0.0088297,-0.00018907,-1884.4,1.5651
14907,15.524,3.1818,0,0.0001916,1914.7,6.4458e-05,14.74,6.2497e-05,0.0088258,-0.00019135,-1907.3,1.5511
14908,15.524,3.2727,0.05,7.9935e-07,7.988,6.138e-07,4.6119,1.8363e-12,5.1374e-06,-6.138e-07,-4.6119,1.551
14909,15.8,3.2727,0,0.00018479,1846.6,6.2294e-05,15.734,6.0201e-05,0.0090528,-0.00018452,-1838.7,1.5934
14910,15.708,3.1818,0,0.00018705,1869.2,6.301e-05,15.387,6.0963e-05,0.0090476,-0.00018678,-1861.5,1.5793
14911,15.708,3.2727,0.05,7.9601e-07,7.9546,6.1124e-07,4.5926,1.8769e-14,4.5485e-06,-6.1124e-07,-4.5926,1.5792
14912,15.984,3.2727,0,0.00018027,1801.5,6.0858e-05,16.406,5.8676e-05,0.0092727,-0.00017999,-1793.2,1.6218
14913,15.892,3.1818,0,0.00018252,1823.9,6.157e-05,16.05,5.9436e-05,0.0092732,-0.00018224,-1815.9,1.6076
14914,15.892,3.2727,0.05,7.9271e-07,7.9216,6.087e-07,4.5735,1.9385e-14,5.0334e-06,-6.087e-07,-4.5735,1.6076
14915,16.169,3.2727,0,0.00017577,1756.5,5.9432e-05,17.1,5.7157e-05,0.0095063,-0.00017548,-1747.9,1.6504
14916,16.077,3.1818,0,0.00017801,1778.9,6.014e-05,16.734,5.7914e-05,0.0094904,-0.00017772,-1770.5,1.6361
14917,16.077,3.2727,0.05,7.8942e-07,7.8888,6.0618e-07,4.5546,1.3846e-12,5.4003e-06,-6.0618e-07,-4.5546,1.6361
14918,16.353,3.2727,0,0.0001713,1711.8,5.8015e-05,17.822,5.5644e-05,0.009775,-0.00017099,-1702.8,1.679
14919,16.261,3.1818,0,0.00017352,1734,5.8718e-05,17.443,5.6398e-05,0.0097421,-0.00017322,-1725.3,1.6647
14920,16.261,3.2727,0.05,7.8616e-07,7.8562,6.0367e-07,4.5358,2.1243e-14,6.5978e-06,-6.0368e-07,-4.5358,1.6647
14921,16.537,3.2727,0,0.00016684,1667.3,5.6607e-05,18.575,5.4137e-05,0.010057,-0.00016652,-1657.9,1.7078
14922,16.445,3.1818,0,0.00016906,1689.4,5.7306e-05,18.182,5.4887e-05,0.010029,-0.00016874,-1680.3,1.6934
14923,16.445,3.2727,0.05,7.8294e-07,7.824,6.012e-07,4.5172,2.3222e-14,6.8484e-06,-6.012e-07,-4.5172,1.6934
14924,16.721,3.2727,0,0.00016241,1623,5.5211e-05,19.365,5.2635e-05,0.010343,-0.00016207,-1613.2,1.7367
14925,16.629,3.1818,0,0.00016462,1645,5.5904e-05,18.954,5.3383e-05,0.010309,-0.00016429,-1635.5,1.7222
14926,16.629,3.2727,0.05,7.7975e-07,7.7922,5.9875e-07,4.4988,9.3393e-13,7.3344e-06,-5.9875e-07,-4.4988,1.7222
14927,16.906,3.2727,0,0.000158,1578.9,5.3825e-05,20.196,5.1138e-05,0.010633,-0.00015765,-1568.7,1.7657
14928,16.814,3.1818,0,0.0001602,1600.9,5.4513e-05,19.767,5.1883e-05,0.010602,-0.00015985,-1590.9,1.7512
14929,16.814,3.2727,0.05,7.766e-07,7.7607,5.9633e-07,4.4806,2.6168e-14,6.6344e-06,-5.9634e-07,-4.4806,1.7511
14930,17.09,3.2727,0,0.00015362,1535.1,5.245e-05,21.075,4.9647e-05,0.01094,-0.00015325,-1524.4,1.7948
14931,16.998,3.1818,0,0.0001558,1556.9,5.3133e-05,20.623,5.0389e-05,0.010893,-0.00015544,-1546.5,1.7802
14932,16.998,3.2727,0.05,7.7348e-07,7.7295,5.9394e-07,4.4626,9.3675e-13,6.6425e-06,-5.9394e-07,-4.4626,1.7802
14933,17.274,3.2727,0,0.00014925,1491.5,5.1088e-05,22.006,4.816e-05,0.011287,-0.00014887,-1480.4,1.824
14934,17.182,3.1818,0,0.00015142,1513.2,5.1764e-05,21.53,4.89e-05,0.011222,-0.00015105,-1502.3,1.8094
14935,17.182,3.2727,0.05,7.704e-07,7.6987,5.9157e-07,4.4448,4.8263e-13,7.1237e-06,-5.9157e-07,-4.4448,1.8093
14936,17.459,3.2727,0,0.00014491,1448.1,4.9738e-05,22.996,4.6679e-05,0.011656,-0.00014451,-1436.5,1.8533
14937,17.366,3.1818,0,0.00014707,1469.7,5.0409e-05,22.492,4.7417e-05,0.011588,-0.00014668,-1458.3,1.8386
14938,17.366,3.2727,0.05,7.6736e-07,7.6683,5.8924e-07,4.4273,2.9989e-14,5.946e-06,-5.8924e-07,-4.4273,1.8386
14939,17.643,3.2727,0,0.0001406,1405,4.8402e-05,24.051,4.5202e-05,0.012036,-0.00014017,-1392.8,1.8827
14940,17.551,3.1818,0,0.00014275,1426.5,4.9066e-05,23.517,4.5937e-05,0.011962,-0.00014233,-1414.6,1.868
14941,17.551,3.2727,0.05,7.6437e-07,7.6384,5.8694e-07,4.4101,9.4103e-13,7.6265e-06,-5.8694e-07,-4.4101,1.8679
14942,17.827,3.2727,0,0.00013631,1362.1,4.7079e-05,25.177,4.373e-05,0.012432,-0.00013586,-1349.4,1.9122
14943,17.735,3.1818,0,0.00013844,1383.5,4.7737e-05,24.61,4.4463e-05,0.012352,-0.00013801,-1371,1.8974
14944,17.735,3.2727,0.05,7.6143e-07,7.609,5.8468e-07,4.3931,9.437e-13,5.5056e-06,-5.8468e-07,-4.3931,1.8974
14945,18.011,3.2727,0,0.00013204,1319.5,4.5772e-05,26.383,4.2262e-05,0.012856,-0.00013157,-1306.1,1.9417
14946,17.919,3.1818,0,0.00013417,1340.7,4.6422e-05,25.779,4.2993e-05,0.012757,-0.00013371,-1327.7,1.927
14947,17.919,3.2727,0.05,7.5853e-07,7.5801,5.8246e-07,4.3764,3.7146e-14,6.7141e-06,-5.8246e-07,-4.3764,1.9269
14948,18.196,3.2727,0,0.0001278,1277.2,4.448e-05,27.675,4.0798e-05,0.013326,-0.00012731,-1263.1,1.9714
14949,18.103,3.1818,0,0.00012991,1298.2,4.5123e-05,27.031,4.1527e-05,0.013204,-0.00012943,-1284.5,1.9566
14950,18.103,3.2727,0.05,7.5569e-07,7.5517,5.8028e-07,4.36,9.5019e-13,6.7417e-06,-5.8027e-07,-4.3599,1.9566
14951,18.38,3.2727,0,0.00012359,1235.1,4.3204e-05,29.063,3.9338e-05,0.013832,-0.00012307,-1220.3,2.0012
14952,18.288,3.1818,0,0.00012569,1256,4.3839e-05,28.375,4.0065e-05,0.013703,-0.00012518,-1241.6,1.9863
14953,18.288,3.2727,0.05,7.5291e-07,7.5239,5.7814e-07,4.3439,9.5337e-13,8.9134e-06,-5.7814e-07,-4.3439,1.9863
14954,18.564,3.2727,0,0.0001194,1193.2,4.1946e-05,30.554,3.7882e-05,0.014363,-0.00011886,-1177.6,2.031
14955,18.472,3.1818,0,0.00012149,1214.1,4.2573e-05,29.817,3.8606e-05,0.01422,-0.00012095,-1198.9,2.0161
14956,18.472,3.2727,0.05,7.502e-07,7.4968,5.7606e-07,4.3283,4.7012e-14,1.132e-05,-5.7606e-07,-4.3283,2.0161
14957,18.748,3.2727,0,0.00011525,1151.7,4.0706e-05,32.158,3.6428e-05,0.014925,-0.00011467,-1135.2,2.061
14958,18.656,3.1818,0,0.00011732,1172.4,4.1325e-05,31.369,3.7152e-05,0.014769,-0.00011675,-1156.4,2.046
14959,18.656,3.2727,0.05,7.4756e-07,7.4704,5.7403e-07,4.313,5.0367e-13,7.045e-06,-5.7403e-07,-4.313,2.046
14960,18.933,3.2727,0,0.00011112,1110.4,3.9486e-05,33.886,3.4978e-05,0.015535,-0.0001105,-1093.1,2.091
14961,18.841,3.1818,0,0.00011317,1130.9,4.0095e-05,33.04,3.57e-05,0.01535,-0.00011257,-1114.1,2.076
14962,18.841,3.2727,0.05,7.4499e-07,7.4448,5.7206e-07,4.2982,5.1038e-13,6.6168e-06,-5.7206e-07,-4.2982,2.0759
14963,19.117,3.2727,0,0.00010701,1069.4,3.8286e-05,35.748,3.353e-05,0.016208,-0.00010636,-1051.1,2.1211
14964,19.025,3.1818,0,0.00010906,1089.8,3.8885e-05,34.84,3.4251e-05,0.015994,-0.00010842,-1072,2.106
14965,19.025,3.2727,0.05,7.4251e-07,7.42,5.7015e-07,4.2839,6.154e-14,8.5709e-06,-5.7015e-07,-4.2839,2.106
14966,19.301,3.2727,0,0.00010294,1028.7,3.7108e-05,37.756,3.2085e-05,0.016935,-0.00010225,-1009.3,2.1512
14967,19.209,3.1818,0,0.00010497,1049,3.7697e-05,36.781,3.2804e-05,0.016701,-0.0001043,-1030.1,2.1361
14968,19.209,3.2727,0.05,7.4012e-07,7.3961,5.6832e-07,4.2702,5.2215e-13,8.1415e-06,-5.6832e-07,-4.2701,2.1361
14969,19.485,3.2727,0,9.8901e-05,988.33,3.5952e-05,39.922,3.0641e-05,0.017718,-9.8162e-05,-967.76,2.1814
14970,19.393,3.1818,0,0.00010092,1008.5,3.6531e-05,38.874,3.1359e-05,0.017455,-0.0001002,-988.45,2.1663
14971,19.393,3.2727,0.05,7.3784e-07,7.3734,5.6657e-07,4.257,7.4451e-14,9.1418e-06,-5.6657e-07,-4.257,2.1663
14972,19.67,3.2727,0,9.4892e-05,948.27,3.4821e-05,42.26,2.9199e-05,0.018562,-9.4102e-05,-926.42,2.2117
14973,19.578,3.1818,0,9.6891e-05,968.24,3.5389e-05,41.133,2.9916e-05,0.018271,-9.6126e-05,-947.01,2.1966
14974,19.578,3.2727,0.05,7.3568e-07,7.3517,5.6491e-07,4.2445,1.4455e-12,9.6716e-06,-5.6491e-07,-4.2445,2.1966
14975,19.854,3.2727,0,9.0916e-05,908.53,3.3716e-05,44.784,2.7758e-05,0.019484,-9.0071e-05,-885.3,2.2421
14976,19.762,3.1818,0,9.2899e-05,928.35,3.4271e-05,43.572,2.8475e-05,0.019153,-9.2081e-05,-905.79,2.2269
14977,19.762,3.2727,0.05,7.3364e-07,7.3313,5.6335e-07,4.2328,5.4077e-13,7.7957e-06,-5.6334e-07,-4.2327,2.2269
14978,20.038,3.2727,0,8.6974e-05,869.14,3.2638e-05,47.509,2.6318e-05,0.020506,-8.6068e-05,-844.4,2.2725
14979,19.946,3.1818,0,8.8941e-05,888.79,3.3181e-05,46.205,2.7034e-05,0.020125,-8.8064e-05,-864.78,2.2573
14980,19.946,3.2727,0.05,7.3174e-07,7.3124,5.6189e-07,4.2218,8.6329e-14,6.3758e-06,-5.6189e-07,-4.2218,2.2573
14981,20.223,3.2727,0,8.3067e-05,830.09,3.1589e-05,50.451,2.4877e-05,0.02163,-8.2093e-05,-803.71,2.303
14982,20.13,3.1818,0,8.5017e-05,849.58,3.2118e-05,49.048,2.5593e-05,0.021206,-8.4076e-05,-823.99,2.2877
14983,20.13,3.2727,0.05,7.3e-07,7.295,5.6055e-07,4.2118,9.1406e-14,7.3591e-06,-5.6055e-07,-4.2118,2.2877
14984,20.407,3.2727,0,7.9196e-05,791.42,3.057e-05,53.628,2.3435e-05,0.022864,-7.8147e-05,-763.23,2.3335
14985,20.315,3.1818,0,8.113e-05,810.74,3.1085e-05,52.118,2.4152e-05,0.022382,-8.0117e-05,-783.41,2.3182
14986,20.315,3.2727,0.05,7.2844e-07,7.2794,5.5935e-07,4.2028,9.1968e-14,9.2782e-06,-5.5935e-07,-4.2028,2.3182
14987,20.591,3.2727,0,7.5364e-05,753.12,2.9583e-05,57.057,2.1992e-05,0.024225,-7.4231e-05,-722.96,2.3641
14988,20.499,3.1818,0,7.728e-05,772.26,3.0084e-05,55.432,2.2709e-05,0.023683,-7.6187e-05,-743.04,2.3488
14989,20.499,3.2727,0.05,7.2708e-07,7.2658,5.5831e-07,4.1949,8.2279e-14,1.1109e-05,-5.5831e-07,-4.1949,2.3488
14990,20.775,3.2727,0,7.1572e-05,715.23,2.863e-05,60.757,2.0547e-05,0.025743,-7.0344e-05,-682.9,2.3947
14991,20.683,3.1818,0,7.3469e-05,734.18,2.9115e-05,59.008,2.1265e-05,0.025118,-7.2287e-05,-702.89,2.3794
14992,20.683,3.2727,0.05,7.2594e-07,7.2544,5.5744e-07,4.1884,3.0621e-13,1.2988e-05,-5.5743e-07,-4.1883,2.3794
14993,20.96,3.2727,0,6.7822e-05,677.75,2.7713e-05,64.748,1.91e-05,0.027451,-6.6488e-05,-643.04,2.4254
14994,20.867,3.1818,0,6.9699e-05,696.51,2.8182e-05,62.867,1.9819e-05,0.026729,-6.8416e-05,-662.93,2.4101
14995,20.867,3.2727,0.05,7.2506e-07,7.2456,5.5675e-07,4.1832,3.0896e-13,1.1585e-05,-5.5675e-07,-4.1832,2.41
14996,21.144,3.2727,0,6.4116e-05,640.72,2.6834e-05,69.05,1.7648e-05,0.029377,-6.2661e-05,-603.39,2.4561
14997,21.052,3.1818,0,6.5973e-05,659.27,2.7286e-05,67.028,1.8369e-05,0.028547,-6.4576e-05,-623.18,2.4408
14998,21.052,3.2727,0.05,7.2445e-07,7.2395,5.5629e-07,4.1798,9.3042e-14,1.0238e-05,-5.5629e-07,-4.1797,2.4407
14999,21.328,3.2727,0,6.0457e-05,604.15,2.5995e-05,73.685,1.6192e-05,0.031561,-5.8865e-05,-563.92,2.4869
15000,21.236,3.1818,0,6.2292e-05,622.49,2.6428e-05,71.511,1.6915e-05,0.030597,-6.0766e-05,-583.63,2.4715
15001,21.236,3.2727,0.05,7.2417e-07,7.2367,5.5607e-07,4.1781,1.0312e-13,9.3584e-06,-5.5607e-07,-4.1781,2.4715
15002,21.512,3.2727,0,5.6847e-05,568.08,2.5196e-05,78.672,1.473e-05,0.034058,-5.5098e-05,-524.63,2.5177
15003,21.42,3.1818,0,5.8659e-05,586.18,2.5611e-05,76.338,1.5455e-05,0.032935,-5.6985e-05,-544.26,2.5023
15004,21.42,3.2727,0.05,7.2425e-07,7.2375,5.5614e-07,4.1786,-1.1266e-13,7.5396e-06,-5.5614e-07,-4.1786,2.5023
15005,21.697,3.2727,0,5.329e-05,532.54,2.4441e-05,84.033,1.3262e-05,0.036954,-5.1361e-05,-485.51,2.5485
15006,21.605,3.1818,0,5.5077e-05,550.39,2.4836e-05,81.53,1.399e-05,0.035618,-5.3235e-05,-505.06,2.5331
15007,21.605,3.2727,0.05,7.2474e-07,7.2424,5.5651e-07,4.1814,-1.1433e-13,7.5272e-06,-5.5651e-07,-4.1814,2.5331
15008,21.881,3.2727,0,4.9791e-05,497.56,2.373e-05,89.789,1.1785e-05,0.040359,-4.7651e-05,-446.54,2.5794
15009,21.789,3.1818,0,5.155e-05,515.15,2.4105e-05,87.105,1.2517e-05,0.038757,-4.9513e-05,-466.03,2.564
15010,21.789,3.2727,0.05,7.2568e-07,7.2518,5.5723e-07,4.1868,9.5077e-14,1.1206e-05,-5.5723e-07,-4.1868,2.564
15011,22.065,3.2727,0,4.6354e-05,463.22,2.3065e-05,95.958,1.0299e-05,0.04442,-4.3969e-05,-407.71,2.6103
15012,21.973,3.1818,0,4.8084e-05,480.51,2.3419e-05,93.086,1.1036e-05,0.04247,-4.5819e-05,-427.14,2.5949
15013,21.973,3.2727,0.05,7.2713e-07,7.2662,5.5834e-07,4.1952,1.1257e-13,1.1328e-05,-5.5834e-07,-4.1952,2.5949
15014,22.249,3.2727,0,4.2986e-05,429.56,2.2446e-05,102.56,8.8031e-06,0.049337,-4.0312e-05,-368.99,2.6413
15015,22.157,3.1818,0,4.4683e-05,446.52,2.2779e-05,99.489,9.5443e-06,0.046934,-4.2151e-05,-388.37,2.6258
15016,22.157,3.2727,0.05,7.2914e-07,7.2864,5.5989e-07,4.2068,1.2328e-13,1.5238e-05,-5.5989e-07,-4.2068,2.6258
15017,22.434,3.2727,0,3.9696e-05,396.69,2.1875e-05,109.6,7.295e-06,0.055444,-3.6679e-05,-330.35,2.6722
15018,22.342,3.1818,0,4.1355e-05,413.27,2.2187e-05,106.33,8.0418e-06,0.052389,-3.8507e-05,-349.69,2.6568
15019,22.342,3.2727,0.05,7.3178e-07,7.3128,5.6192e-07,4.222,9.8134e-14,1.2187e-05,-5.6192e-07,-4.222,2.6567
15020,22.618,3.2727,0,3.6497e-05,364.72,2.1352e-05,117.11,5.7737e-06,0.063179,-3.3065e-05,-291.76,2.7032
15021,22.526,3.1818,0,3.8111e-05,380.85,2.1641e-05,113.63,6.5267e-06,0.059274,-3.4885e-05,-311.09,2.6878
15022,22.526,3.2727,0.05,7.3509e-07,7.3459,5.6446e-07,4.2411,1.0383e-13,7.4576e-06,-5.6446e-07,-4.2411,2.6877
15023,22.802,3.2727,0,3.3404e-05,333.81,2.0876e-05,125.09,4.2376e-06,0.073576,-2.9469e-05,-253.19,2.7343
15024,22.71,3.1818,0,3.4965e-05,349.41,2.1144e-05,121.38,4.9976e-06,0.06806,-3.1281e-05,-272.52,2.7188
15025,22.71,3.2727,0.05,7.3913e-07,7.3862,5.6756e-07,4.2644,1.31e-13,5.7521e-06,-5.6756e-07,-4.2644,2.7187
15026,22.987,3.2727,0,3.0442e-05,304.21,2.0446e-05,133.54,2.6854e-06,0.087073,-2.5887e-05,-214.59,2.7653
15027,22.894,3.1818,0,3.1937e-05,319.15,2.0693e-05,129.61,3.4531e-06,0.08041,-2.7693e-05,-233.94,2.7498
15028,22.894,3.2727,0.05,7.4393e-07,7.4341,5.7124e-07,4.2921,1.2514e-13,6.662e-06,-5.7124e-07,-4.2921,2.7498
15029,23.171,3.2727,0,2.7644e-05,276.25,2.0062e-05,142.46,1.1162e-06,0.10998,-2.2313e-05,-175.93,2.7964
15030,23.079,3.1818,0,2.9054e-05,290.34,2.0288e-05,138.31,1.8918e-06,0.095692,-2.4115e-05,-195.31,2.7808
15031,23.079,3.2727,0.05,7.4951e-07,7.4899,5.7553e-07,4.3243,-1.2855e-13,8.3704e-06,-5.7553e-07,-4.3243,2.7808
15032,23.355,3.2727,0,2.5057e-05,250.4,1.9721e-05,151.86,-4.7196e-07,0.13317,-1.8745e-05,-137.16,2.8274
15033,23.263,3.1818,0,2.6357e-05,263.39,1.9927e-05,147.49,3.1351e-07,0.12755,-2.0546e-05,-156.6,2.8119
15034,23.263,3.2727,0.05,7.5587e-07,7.5535,5.8042e-07,4.361,9.0751e-14,6.4004e-06,-5.8042e-07,-4.361,2.8119
15035,23.539,3.2727,0,2.275e-05,227.35,1.9422e-05,161.74,-2.0736e-06,0.23042,-1.518e-05,-98.246,2.8585
15036,23.447,3.1818,0,2.3903e-05,238.86,1.9607e-05,157.13,-1.2852e-06,0.14542,-1.6978e-05,-117.76,2.843
15037,23.447,3.2727,0.05,7.6297e-07,7.6245,5.8587e-07,4.402,7.3235e-14,4.3633e-06,-5.8587e-07,-4.402,2.8429
15038,23.724,3.2727,0,2.0811e-05,207.96,1.916e-05,172,-3.7018e-06,0.22848,-1.1613e-05,-59.21,2.8896
15039,23.631,3.1818,0,2.1769e-05,217.54,1.9328e-05,167.27,-2.8894e-06,0.33312,-1.3416e-05,-78.759,2.8741
15040,23.631,3.2727,0.05,7.708e-07,7.7027,5.9188e-07,4.4471,5.2705e-13,2.4568e-06,-5.9188e-07,-4.4471,2.874
15041,23.816,3.1818,0,2.0057e-05,200.43,1.9084e-05,177.66,-4.5332e-06,0.21183,-9.8508e-06,-39.743,2.9052
15042,23.816,3.2727,0.05,7.8039e-07,7.7985,5.9924e-07,4.5025,5.6428e-14,4.2405e-06,-5.9924e-07,-4.5024,2.9051
15043,23.908,3.2727,0,1.9427e-05,194.13,1.8953e-05,182.16,-5.2336e-06,0.43061,-8.2681e-06,-22.369,2.9207
15044,1.2431,3.0909,0,0.0012095,12086,0.0004675,0.48276,0.00027823,-1421.6,-0.0012273,-12734,0.021679
15045,1.1509,3,0,0.001268,12671,0.00048877,0.86336,0.00029425,-1460.7,-0.0012865,-13338,0.018643
15046,1.1509,3.0909,0.05,2.0497e-05,204.83,1.5739e-05,118.26,-2.4486e-12,-0.00010988,-1.574e-05,-118.26,0.018537
15047,1.4273,3.0909,0,0.0010895,10887,0.00042579,0.78897,0.00024199,-1380.2,-0.0011064,-11511,0.028413
15048,1.3352,3,0,0.0011506,11498,0.00044623,0.11207,0.00026192,-1384.7,-0.0011679,-12128,0.024968
15049,1.3352,3.0909,0.05,2.1647e-05,216.33,1.6623e-05,124.9,-4.294e-12,-9.3356e-05,-1.6623e-05,-124.9,0.024868
15050,1.6116,3.0909,0,0.00097284,9721.6,0.00038686,1.5193,0.00020363,-1375.2,-0.00098886,-10335,0.035897
15051,1.5195,3,0,0.0010278,10271,0.00040535,1.4609,0.00022151,-1379.8,-0.0010443,-10891,0.032085
15052,1.5195,3.0909,0.05,2.0453e-05,204.39,1.5705e-05,118,5.5519e-13,-5.0403e-05,-1.5705e-05,-118,0.031992
15053,1.7959,3.0909,0,0.00087174,8711.4,0.0003524,1.508,0.00017154,-1357.4,-0.00088682,-9309.5,0.044053
15054,1.7037,3,0,0.00091734,9167.1,0.00036836,1.5627,0.00018524,-1374.4,-0.00093291,-9775.7,0.039911
15055,1.7037,3.0909,0.05,1.7911e-05,178.98,1.3753e-05,103.34,-1.4679e-12,-5.0466e-05,-1.3753e-05,-103.34,0.039825
15056,1.9801,3.0909,0,0.00078947,7889.2,0.00032299,1.2841,0.00014793,-1314.1,-0.00080353,-8462.9,0.052809
15057,1.888,3,0,0.00082581,8252.4,0.00033644,1.4319,0.00015749,-1343.1,-0.00084037,-8840.6,0.048372
15058,1.888,3.0909,0.05,1.5021e-05,150.11,1.1534e-05,86.665,-2.2483e-12,-2.6062e-05,-1.1534e-05,-86.665,0.048293
15059,2.1644,3.0909,0,0.00072447,7239.7,0.00029835,0.97632,0.00013195,-1249.3,-0.00073756,-7782.4,0.062111
15060,2.0723,3,0,0.00075294,7524.2,0.00030954,1.1132,0.00013818,-1286.5,-0.00076649,-8083.8,0.057406
15061,2.0723,3.0909,0.05,1.2334e-05,123.25,9.4709e-06,71.161,-2.3099e-13,-5.5109e-05,-9.4709e-06,-71.161,0.057332
15062,2.3487,3.0909,0,0.0006737,6732.4,0.00027786,0.70738,0.00012188,-1171.3,-0.00068592,-7240.7,0.071913
15063,2.2565,3,0,0.00069591,6954.3,0.00028715,0.81796,0.00012564,-1212.7,-0.00070853,-7480.4,0.066962
15064,2.2565,3.0909,0.05,1.0051e-05,100.44,7.7178e-06,57.989,-3.0913e-12,-3.9006e-06,-7.7178e-06,-57.989,0.066892
15065,2.5329,3.0909,0,0.00063411,6336.7,0.00026083,0.4971,0.00011606,-1087.2,-0.00064555,-6809.6,0.082182
15066,2.4408,3,0,0.00065146,6510.1,0.00026856,0.57866,0.00011809,-1130,-0.00066327,-7000.8,0.077001
15067,2.4408,3.0909,0.05,8.1936e-06,81.879,6.2917e-06,47.273,-2.1231e-12,-2.6449e-05,-6.2917e-06,-47.273,0.076934
15068,2.7172,3.0909,0,0.00060309,6026.8,0.00024662,0.34306,0.00011318,-1002.2,-0.00061384,-6464.8,0.092888
15069,2.6251,3,0,0.00061674,6163.2,0.00025309,0.40099,0.00011403,-1044.5,-0.00062782,-6618.4,0.087491
15070,2.6251,3.0909,0.05,6.7133e-06,67.086,5.155e-06,38.732,-2.0151e-12,-1.8146e-05,-5.155e-06,-38.732,0.087427
15071,2.9015,3.0909,0,0.00057861,5782.2,0.00023469,0.23343,0.00011228,-919.46,-0.00058874,-6186.7,0.10401
15072,2.8093,3,0,0.00058945,5890.4,0.00024014,0.27379,0.00011234,-959.98,-0.00059987,-6311.2,0.098408
15073,2.8093,3.0909,0.05,5.5436e-06,55.398,4.2568e-06,31.984,-1.8732e-12,-2.612e-05,-4.2568e-06,-31.984,0.098346
15074,3.0857,3.0909,0,0.0005591,5587.1,0.00022459,0.15652,0.00011267,-840.78,-0.00056863,-5959.8,0.11553
15075,2.9936,3,0,0.00056779,5674,0.00022923,0.18437,0.00011223,-878.94,-0.00057761,-6062.1,0.10973
15076,2.9936,3.0909,0.05,4.622e-06,46.189,3.5492e-06,26.667,-9.2865e-13,-1.1731e-05,-3.5492e-06,-26.667,0.10967
15077,3.27,3.0909,0,0.00054334,5429.7,0.00021596,0.10294,0.00011385,-767.13,-0.00055231,-5772.4,0.12744
15078,3.1779,3,0,0.00055041,5500.4,0.00021995,0.12205,0.00011311,-802.62,-0.00055965,-5857.5,0.12145
15079,3.1779,3.0909,0.05,3.8957e-06,38.93,2.9914e-06,22.476,-2.8913e-12,-1.3365e-05,-2.9914e-06,-22.476,0.12139
15080,3.4543,3.0909,0,0.00053043,5300.7,0.00020852,0.065763,0.00011549,-698.92,-0.00053885,-5615.4,0.13973
15081,3.3621,3,0,0.00053628,5359.1,0.00021198,0.078802,0.00011459,-731.65,-0.00054496,-5687.3,0.13355
15082,3.3621,3.0909,0.05,3.3222e-06,33.199,2.551e-06,19.168,-1.2731e-12,-3.9388e-07,-2.551e-06,-19.168,0.13349
15083,3.6385,3.0909,0,0.00051968,5193.2,0.00020204,0.040075,0.00011736,-636.19,-0.00052756,-5481.9,0.15238
15084,3.5464,3,0,0.0005246,5242.3,0.00020507,0.048903,0.0001164,-666.2,-0.00053274,-5543.6,0.14602
15085,3.5464,3.0909,0.05,2.8683e-06,28.664,2.2025e-06,16.549,-2.5125e-12,-1.1536e-05,-2.2025e-06,-16.549,0.14596
15086,3.8228,3.0909,0,0.00051054,5101.8,0.00019633,0.02243,0.0001193,-578.79,-0.00051791,-5366.5,0.16539
15087,3.7307,3,0,0.00051476,5144.1,0.00019901,0.028336,0.00011833,-606.19,-0.00052238,-5420.3,0.15885
15088,3.7307,3.0909,0.05,2.5082e-06,25.065,1.926e-06,14.471,-2.0365e-12,-7.9407e-06,-1.926e-06,-14.471,0.15879
15089,4.0071,3.0909,0,0.00050261,5022.6,0.00019125,0.010427,0.00012119,-526.44,-0.00050949,-5265.1,0.17875
15090,3.9149,3,0,0.00050632,5059.7,0.00019365,0.0143,0.00012026,-551.4,-0.00051344,-5312.8,0.17203
15091,3.9149,3.0909,0.05,2.2216e-06,22.2,1.7059e-06,12.817,-7.3883e-13,-4.7572e-06,-1.7059e-06,-12.817,0.17198
15092,4.1913,3.0909,0,0.00049559,4952.5,0.00018669,0.0023889,0.00012296,-478.82,-0.000502,-5174.5,0.19246
15093,4.0992,3,0,0.00049891,4985.7,0.00018886,0.0048473,0.00012211,-501.5,-0.00050554,-5217.4,0.18557
15094,4.0992,3.0909,0.05,1.9928e-06,19.914,1.5302e-06,11.497,-1.3247e-12,-6.1516e-06,-1.5302e-06,-11.497,0.18552
15095,4.3756,3.0909,0,0.00048924,4889,0.00018254,-0.002859,0.00012457,-435.57,-0.00049519,-5092.2,0.2065
15096,4.2835,3,0,0.00049228,4919.4,0.00018452,-0.0013839,0.00012381,-456.16,-0.00049845,-5131.5,0.19945
15097,4.2835,3.0909,0.05,1.8096e-06,18.083,1.3895e-06,10.44,-1.0657e-12,-4.1998e-06,-1.3895e-06,-10.44,0.1994
15098,4.5599,3.0909,0,0.00048338,4830.5,0.00017874,-0.0061456,0.000126,-396.31,-0.0004889,-5016.4,0.22089
15099,4.4677,3,0,0.00048621,4858.7,0.00018057,-0.005351,0.00012533,-414.99,-0.00049194,-5052.9,0.21366
15100,4.4677,3.0909,0.05,1.6624e-06,16.613,1.2765e-06,9.5915,-8.5796e-13,1.1671e-06,-1.2765e-06,-9.5915,0.21361
15101,4.7441,3.0909,0,0.00047788,4775.5,0.00017523,-0.0080583,0.00012722,-360.7,-0.00048299,-4945.6,0.2356
15102,4.652,3,0,0.00048056,4802.2,0.00017692,-0.0077308,0.00012666,-377.64,-0.00048586,-4979.9,0.22821
15103,4.652,3.0909,0.05,1.5438e-06,15.427,1.1854e-06,8.9069,-6.928e-13,-5.2103e-06,-1.1854e-06,-8.9069,0.22816
15104,4.9284,3.0909,0,0.00047262,4723,0.00017195,-0.0090145,0.00012824,-328.41,-0.00047735,-4878.6,0.25065
15105,4.8363,3,0,0.0004752,4748.7,0.00017353,-0.0090033,0.00012778,-343.77,-0.00048011,-4911.3,0.24309
15106,4.8363,3.0909,0.05,1.4477e-06,14.467,1.1117e-06,8.3528,-5.6774e-13,-4.2229e-06,-1.1117e-06,-8.3527,0.24305
15107,5.1127,3.0909,0,0.00046754,4672.2,0.00016887,-0.0093129,0.00012906,-299.1,-0.00047191,-4814.6,0.26602
15108,5.0205,3,0,0.00047005,4697.3,0.00017036,-0.0095107,0.0001287,-313.05,-0.00047459,-4845.9,0.2583
15109,5.0205,3.0909,0.05,1.3696e-06,13.687,1.0517e-06,7.902,-4.626e-13,-3.5144e-06,-1.0517e-06,-7.9021,0.25825
15110,5.2969,3.0909,0,0.00046258,4622.6,0.00016595,-0.0091666,0.00012968,-272.51,-0.00046662,-4752.9,0.2817
15111,5.2048,3,0,0.00046504,4647.2,0.00016737,-0.0094979,0.00012942,-285.16,-0.00046924,-4783.2,0.27383
15112,5.2048,3.0909,0.05,1.3058e-06,13.049,1.0027e-06,7.5337,-3.7711e-13,-2.8326e-06,-1.0027e-06,-7.5337,0.27378
15113,5.4812,3.0909,0,0.0004577,4573.8,0.00016317,-0.0087276,0.00013012,-248.35,-0.00046141,-4692.9,0.29771
15114,5.3891,3,0,0.00046013,4598.1,0.00016453,-0.009139,0.00012995,-259.85,-0.00046399,-4722.5,0.28968
15115,5.3891,3.0909,0.05,1.2533e-06,12.524,9.6236e-07,7.2308,-3.1226e-13,-2.3454e-06,-9.6236e-07,-7.2308,0.28963
15116,5.6655,3.0909,0,0.00045285,4525.4,0.00016051,-0.0081041,0.00013038,-226.4,-0.00045628,-4634.3,0.31403
15117,5.5733,3,0,0.00045527,4549.5,0.00016182,-0.0085584,0.00013029,-236.85,-0.00045883,-4663.3,0.30584
15118,5.5733,3.0909,0.05,1.2098e-06,12.09,9.29e-07,6.9801,-2.6143e-13,-5.8223e-08,-9.29e-07,-6.9801,0.30579
15119,5.8497,3.0909,0,0.00044803,4477.2,0.00015796,-0.0073726,0.00013048,-206.43,-0.00045118,-4576.8,0.33066
15120,5.7576,3,0,0.00045044,4501.3,0.00015921,-0.0078439,0.00013047,-215.94,-0.00045372,-4605.4,0.32232
15121,5.7576,3.0909,0.05,1.1736e-06,11.728,9.0119e-07,6.7712,1.5974e-12,2.1538e-06,-9.0119e-07,-6.7712,0.32227
15122,6.034,3.0909,0,0.00044321,4429,0.00015548,-0.006587,0.00013043,-188.25,-0.00044611,-4520.2,0.34759
15123,5.9419,3,0,0.00044562,4453.1,0.0001567,-0.0070578,0.00013049,-196.91,-0.00044864,-4548.3,0.3391
15124,5.9419,3.0909,0.05,1.1432e-06,11.424,8.7784e-07,6.5957,-1.8796e-13,-1.4122e-06,-8.7784e-07,-6.5957,0.33905
15125,6.2183,3.0909,0,0.00043838,4380.8,0.00015309,-0.0057837,0.00013024,-171.68,-0.00044105,-4464.1,0.36483
15126,6.1261,3,0,0.0004408,4405,0.00015427,-0.0062428,0.00013037,-179.58,-0.00044358,-4492,0.35618
15127,6.1261,3.0909,0.05,1.1174e-06,11.167,8.5805e-07,6.447,-1.6265e-13,6.9202e-07,-8.5805e-07,-6.447,0.35614
15128,6.4025,3.0909,0,0.00043355,4332.5,0.00015075,-0.0049877,0.00012992,-156.56,-0.000436,-4408.6,0.38237
15129,6.3104,3,0,0.00043597,4356.7,0.00015191,-0.0054278,0.00013011,-163.77,-0.00043852,-4436.3,0.37357
15130,6.3104,3.0909,0.05,1.0954e-06,10.946,8.4113e-07,6.3199,-1.3951e-13,-1.0486e-06,-8.4113e-07,-6.3199,0.37353
15131,6.5868,3.0909,0,0.00042869,4283.9,0.00014848,-0.0042159,0.00012948,-142.76,-0.00043094,-4353.5,0.4002
15132,6.4947,3,0,0.00043112,4308.3,0.0001496,-0.0046323,0.00012973,-149.35,-0.00043347,-4381,0.39126
15133,6.4947,3.0909,0.05,1.0764e-06,10.756,8.2653e-07,6.2103,-1.2201e-13,-9.1198e-07,-8.2654e-07,-6.2103,0.39122
15134,6.7711,3.0909,0,0.00042382,4235.2,0.00014626,-0.0034781,0.00012893,-130.15,-0.00042588,-4298.8,0.41833
15135,6.6789,3,0,0.00042626,4259.6,0.00014736,-0.0038688,0.00012923,-136.18,-0.00042841,-4326.1,0.40924
15136,6.6789,3.0909,0.05,1.0598e-06,10.591,8.1381e-07,6.1147,1.7125e-12,-7.9874e-07,-8.1381e-07,-6.1147,0.4092
15137,6.9553,3.0909,0,0.00041892,4186.3,0.00014408,-0.0027799,0.00012829,-118.62,-0.00042081,-4244.3,0.43674
15138,6.8632,3,0,0.00042137,4210.8,0.00014516,-0.0031443,0.00012864,-124.13,-0.00042335,-4271.5,0.42751
15139,6.8632,3.0909,0.05,1.0452e-06,10.445,8.0262e-07,6.0305,-9.3763e-14,2.4883e-07,-8.0262e-07,-6.0305,0.42747
15140,7.1396,3.0909,0,0.000414,4137.2,0.00014194,-0.0021243,0.00012756,-108.06,-0.00041573,-4190.1,0.45545
15141,7.0475,3,0,0.00041647,4161.8,0.000143,-0.0024625,0.00012794,-113.11,-0.00041827,-4217.2,0.44607
15142,7.0475,3.0909,0.05,1.0323e-06,10.316,7.9266e-07,5.9558,-8.3504e-14,3.2756e-07,-7.9267e-07,-5.9558,0.44603
15143,7.3239,3.0909,0,0.00040906,4087.8,0.00013984,-0.0015117,0.00012674,-98.382,-0.00041065,-4136.1,0.47443
15144,7.2317,3,0,0.00041154,4112.5,0.00014088,-0.0018248,0.00012717,-103.01,-0.00041319,-4163.1,0.46491
15145,7.2317,3.0909,0.05,1.0207e-06,10.2,7.8374e-07,5.8887,-7.432e-14,3.9465e-07,-7.8374e-07,-5.8887,0.46487
15146,7.5081,3.0909,0,0.00040411,4038.3,0.00013777,-0.00094117,0.00012585,-89.511,-0.00040556,-4082.3,0.49369
15147,7.416,3,0,0.00040659,4063.1,0.00013879,-0.0012304,0.00012631,-93.758,-0.0004081,-4109.2,0.48404
15148,7.416,3.0909,0.05,1.0101e-06,10.094,7.7565e-07,5.828,-6.6769e-14,4.5246e-07,-7.7566e-07,-5.828,0.484
15149,7.6924,3.0909,0,0.00039914,3988.6,0.00013573,-0.00041121,0.0001249,-81.373,-0.00040046,-4028.7,0.51323
15150,7.6003,3,0,0.00040163,4013.5,0.00013674,-0.00067825,0.00012539,-85.271,-0.00040301,-4055.5,0.50344
15151,7.6003,3.0909,0.05,1.0005e-06,9.9982,7.6827e-07,5.7725,-5.9557e-14,1.4587e-06,-7.6827e-07,-5.7725,0.5034
15152,7.8767,3.0909,0,0.00039415,3938.8,0.00013371,8.0461e-05,0.00012388,-73.9,-0.00039535,-3975.2,0.53304
15153,7.7845,3,0,0.00039665,3963.7,0.00013471,-0.00016576,0.0001244,-77.481,-0.00039791,-4001.9,0.52311
15154,7.7845,3.0909,0.05,9.9166e-07,9.9097,7.6147e-07,5.7214,-5.3174e-14,2.4605e-06,-7.6147e-07,-5.7214,0.52307
15155,8.0609,3.0909,0,0.00038915,3888.8,0.00013173,0.00053608,0.0001228,-67.034,-0.00039025,-3921.9,0.55312
15156,7.9688,3,0,0.00039165,3913.8,0.00013271,0.00030904,0.00012335,-70.326,-0.0003928,-3948.5,0.54306
15157,7.9688,3.0909,0.05,9.8345e-07,9.8277,7.5516e-07,5.674,-4.7923e-14,3.4549e-06,-7.5516e-07,-5.674,0.54302
15158,8.2452,3.0909,0,0.00038414,3838.7,0.00012976,0.00095863,0.00012168,-60.723,-0.00038514,-3868.7,0.57346
15159,8.1531,3,0,0.00038665,3863.8,0.00013074,0.00074893,0.00012225,-63.751,-0.00038769,-3895.3,0.56327
15160,8.1531,3.0909,0.05,9.7577e-07,9.751,7.4927e-07,5.6297,-4.3354e-14,2.5351e-06,-7.4927e-07,-5.6297,0.56323
15161,8.4295,3.0909,0,0.00037912,3788.6,0.00012782,0.001351,0.00012051,-54.918,-0.00038002,-3815.7,0.59407
15162,8.3373,3,0,0.00038163,3813.7,0.00012879,0.0011571,0.00012111,-57.705,-0.00038258,-3842.2,0.58374
15163,8.3373,3.0909,0.05,9.6856e-07,9.6789,7.4374e-07,5.5881,-3.9234e-14,2.0891e-06,-7.4374e-07,-5.5881,0.5837
15164,8.6137,3.0909,0,0.00037409,3738.3,0.0001259,0.0017155,0.0001193,-49.576,-0.00037491,-3762.9,0.61493
15165,8.5216,3,0,0.00037661,3763.5,0.00012685,0.0015361,0.00011991,-52.142,-0.00037747,-3789.3,0.60448
15166,8.5216,3.0909,0.05,9.6175e-07,9.6109,7.385e-07,5.5488,-3.5561e-14,1.6397e-06,-7.385e-07,-5.5488,0.60444
15167,8.798,3.0909,0,0.00036906,3688.1,0.000124,0.0020547,0.00011805,-44.658,-0.0003698,-3710.2,0.63605
15168,8.7059,3,0,0.00037158,3713.2,0.00012494,0.0018883,0.00011868,-47.022,-0.00037235,-3736.5,0.62547
15169,8.7059,3.0909,0.05,9.5528e-07,9.5462,7.3354e-07,5.5115,-3.2172e-14,1.6663e-06,-7.3354e-07,-5.5115,0.62543
15170,8.9823,3.0909,0,0.00036403,3637.8,0.00012211,0.002371,0.00011677,-40.128,-0.00036469,-3657.7,0.65742
15171,8.8901,3,0,0.00036654,3662.9,0.00012305,0.0022163,0.00011742,-42.307,-0.00036725,-3683.9,0.64671
15172,8.8901,3.0909,0.05,9.4911e-07,9.4845,7.288e-07,5.4759,2.6995e-12,2.6427e-06,-7.288e-07,-5.4759,0.64667
15173,9.1665,3.0909,0,0.00035899,3587.4,0.00012024,0.0026665,0.00011546,-35.954,-0.00035959,-3605.3,0.67904
15174,9.0744,3,0,0.00036151,3612.6,0.00012117,0.0025221,0.00011612,-37.963,-0.00036214,-3631.4,0.66821
15175,9.0744,3.0909,0.05,9.4319e-07,9.4254,7.2425e-07,5.4418,-2.6059e-14,1.712e-06,-7.2426e-07,-5.4418,0.66817
15176,9.3508,3.0909,0,0.00035395,3537.1,0.00011839,0.0029434,0.00011412,-32.105,-0.00035449,-3553,0.7009
15177,9.2587,3,0,0.00035647,3562.3,0.00011931,0.0028085,0.00011479,-33.958,-0.00035704,-3579.1,0.68994
15178,9.2587,3.0909,0.05,9.3751e-07,9.3687,7.1989e-07,5.409,-2.3402e-14,2.4466e-06,-7.1989e-07,-5.409,0.68991
15179,9.5351,3.0909,0,0.00034892,3486.8,0.00011656,0.0032024,0.00011275,-28.556,-0.0003494,-3501,0.723
15180,9.4429,3,0,0.00035144,3511.9,0.00011747,0.0030767,0.00011344,-30.266,-0.00035194,-3527,0.71193
15181,9.4429,3.0909,0.05,9.3204e-07,9.3139,7.1569e-07,5.3774,8.886e-13,2.2274e-06,-7.1569e-07,-5.3774,0.71189
15182,9.7193,3.0909,0,0.00034389,3436.5,0.00011473,0.0034495,0.00011137,-25.281,-0.00034431,-3449.1,0.74534
15183,9.6272,3,0,0.0003464,3461.6,0.00011564,0.0033274,0.00011207,-26.86,-0.00034685,-3475,0.73415
15184,9.6272,3.0909,0.05,9.2674e-07,9.261,7.1162e-07,5.3469,-1.8546e-14,2.7216e-06,-7.1162e-07,-5.3469,0.73411
15185,9.9036,3.0909,0,0.00033886,3386.3,0.00011293,0.0036828,0.00010996,-22.257,-0.00033923,-3397.3,0.76791
15186,9.8115,3,0,0.00034137,3411.4,0.00011383,0.0035713,0.00011067,-23.717,-0.00034177,-3423.2,0.7566
15187,9.8115,3.0909,0.05,9.2161e-07,9.2097,7.0768e-07,5.3172,8.9291e-13,3.2133e-06,-7.0768e-07,-5.3172,0.75657
15188,10.088,3.0909,0,0.00033384,3336.1,0.00011113,0.003901,0.00010854,-19.465,-0.00033417,-3345.8,0.79071
15189,9.9957,3,0,0.00033635,3361.1,0.00011202,0.0037943,0.00010925,-20.814,-0.0003367,-3371.5,0.77929
15190,9.9957,3.0909,0.05,9.1663e-07,9.16,7.0386e-07,5.2885,8.9486e-13,2.7509e-06,-7.0386e-07,-5.2885,0.77925
15191,10.272,3.0909,0,0.00032882,3286,0.00010935,0.0041146,0.0001071,-16.886,-0.00032911,-3294.4,0.81374
15192,10.18,3,0,0.00033133,3311,0.00011024,0.0040082,0.00010782,-18.134,-0.00033163,-3320,0.80221
15193,10.18,3.0909,0.05,9.1178e-07,9.1115,7.0013e-07,5.2605,-1.2935e-14,3.7174e-06,-7.0013e-07,-5.2605,0.80217
15194,10.456,3.0909,0,0.00032382,3235.9,0.00010758,0.0042988,0.00010565,-14.501,-0.00032406,-3243.2,0.837
15195,10.364,3,0,0.00032632,3260.9,0.00010846,0.0042208,0.00010638,-15.656,-0.00032658,-3268.7,0.82535
15196,10.364,3.0909,0.05,9.0705e-07,9.0642,6.965e-07,5.2332,-1.1378e-14,3.4908e-06,-6.965e-07,-5.2332,0.82531
15197,10.641,3.0909,0,0.00031882,3186,0.00010582,0.004469,0.00010418,-12.295,-0.00031902,-3192.1,0.86047
15198,10.549,3,0,0.00032131,3210.9,0.00010669,0.004376,0.00010492,-13.365,-0.00032154,-3217.6,0.84871
15199,10.549,3.0909,0.05,9.0242e-07,9.018,6.9295e-07,5.2065,-1.0021e-14,3.5009e-06,-6.9295e-07,-5.2065,0.84868
15200,10.825,3.0909,0,0.00031383,3136.1,0.00010407,0.0046717,0.00010271,-10.254,-0.000314,-3141.2,0.88416
15201,10.733,3,0,0.00031632,3161,0.00010494,0.0045602,0.00010344,-11.245,-0.00031651,-3166.6,0.8723
15202,10.733,3.0909,0.05,8.9789e-07,8.9727,6.8947e-07,5.1804,-8.6629e-15,3.3919e-06,-6.8947e-07,-5.1804,0.87226
15203,11.009,3.0909,0,0.00030885,3086.4,0.00010233,0.0048712,0.00010122,-8.3631,-0.00030899,-3090.5,0.90806
15204,10.917,3,0,0.00031133,3111.2,0.0001032,0.0047795,0.00010196,-9.2822,-0.00031149,-3115.8,0.89609
15205,10.917,3.0909,0.05,8.9346e-07,8.9284,6.8606e-07,5.1548,-7.3958e-15,2.6266e-06,-6.8606e-07,-5.1548,0.89606
15206,11.193,3.0909,0,0.00030388,3036.7,0.00010061,0.0050431,9.9728e-05,-6.6105,-0.00030399,-3040,0.93218
15207,11.101,3,0,0.00030636,3061.5,0.00010147,0.004956,0.00010047,-7.4638,-0.00030649,-3065.2,0.9201
15208,11.101,3.0909,0.05,8.8911e-07,8.885,6.8273e-07,5.1298,-6.1137e-15,2.8747e-06,-6.8273e-07,-5.1298,0.92007
15209,11.378,3.0909,0,0.00029892,2987.2,9.8892e-05,0.00519,9.8228e-05,-4.9845,-0.00029901,-2989.7,0.9565
15210,11.286,3,0,0.0003014,3011.9,9.9748e-05,0.0051183,9.8978e-05,-5.7775,-0.0003015,-3014.8,0.94432
15211,11.286,3.0909,0.05,8.8485e-07,8.8424,6.7945e-07,5.1052,9.0452e-13,2.138e-06,-6.7945e-07,-5.1052,0.94428
15212,11.562,3.0909,0,0.00029398,2937.8,9.7186e-05,0.0053389,9.6723e-05,-3.4745,-0.00029404,-2939.5,0.98102
15213,11.47,3,0,0.00029645,2962.4,9.8037e-05,0.0052425,9.7476e-05,-4.2123,-0.00029652,-2964.5,0.96874
15214,11.47,3.0909,0.05,8.8065e-07,8.8004,6.7623e-07,5.0809,-3.9674e-15,2.6375e-06,-6.7623e-07,-5.0809,0.96871
15215,11.746,3.0909,0,0.00028905,2888.5,9.549e-05,0.0055319,9.5214e-05,-2.0705,-0.00028909,-2889.5,1.0057
15216,11.654,3,0,0.00029151,2913.1,9.6336e-05,0.0054014,9.5968e-05,-2.7579,-0.00029156,-2914.5,0.99336
15217,11.654,3.0909,0.05,8.765e-07,8.759,6.7305e-07,5.057,-3.0321e-15,2.8391e-06,-6.7305e-07,-5.057,0.99333
15218,11.931,3.0909,0,0.00028413,2839.4,9.3803e-05,0.0057781,9.37e-05,-0.76334,-0.00028415,-2839.8,1.0307
15219,11.838,3,0,0.00028659,2863.9,9.4644e-05,0.0055942,9.4456e-05,-1.4047,-0.00028661,-2864.6,1.0182
15220,11.838,3.0909,0.05,8.7243e-07,8.7183,6.6992e-07,5.0335,9.0735e-13,2.9791e-06,-6.6992e-07,-5.0335,1.0182
15221,12.115,3.0909,0,0.00027923,2790.4,9.2184e-05,0.45582,9.2124e-05,0.0056185,-0.00027922,-2790.2,1.0558
15222,12.023,3,0,0.00028168,2814.8,9.2961e-05,0.0057506,9.2941e-05,-0.14399,-0.00028168,-2814.9,1.0432
15223,12.023,3.0909,0.05,8.6842e-07,8.6782,6.6684e-07,5.0104,-1.2881e-15,3.2686e-06,-6.6684e-07,-5.0104,1.0432
15224,12.299,3.0909,0,0.00027434,2741.6,9.0667e-05,1.5941,9.0455e-05,0.0058898,-0.00027432,-2740.8,1.0811
15225,12.207,3,0,0.00027678,2765.9,9.1424e-05,1.0326,9.1288e-05,0.0058976,-0.00027677,-2765.4,1.0684
15226,12.207,3.0909,0.05,8.6446e-07,8.6386,6.638e-07,4.9875,-4.8047e-16,3.5429e-06,-6.638e-07,-4.9875,1.0684
15227,12.483,3.0909,0,0.00026947,2692.9,8.9148e-05,2.6596,8.8795e-05,0.0060432,-0.00026943,-2691.5,1.1066
15228,12.391,3,0,0.0002719,2717.1,8.9906e-05,2.1325,8.9623e-05,0.0060128,-0.00027187,-2716.1,1.0938
15229,12.391,3.0909,0.05,8.6054e-07,8.5995,6.6079e-07,4.9649,1.8192e-12,2.632e-06,-6.6079e-07,-4.9649,1.0938
15230,12.668,3.0909,0,0.00026462,2644.3,8.7628e-05,3.6591,8.7142e-05,0.0062177,-0.00026455,-2642.5,1.1322
15231,12.575,3,0,0.00026704,2668.5,8.8386e-05,3.1631,8.7966e-05,0.0061609,-0.00026698,-2667,1.1194
15232,12.575,3.0909,0.05,8.5666e-07,8.5607,6.5781e-07,4.9425,9.1044e-13,2.0262e-06,-6.5781e-07,-4.9425,1.1193
15233,12.852,3.0909,0,0.00025977,2596,8.611e-05,4.599,8.5498e-05,0.0063904,-0.0002597,-2593.7,1.1581
15234,12.76,3,0,0.00026219,2620.1,8.6867e-05,4.1311,8.6318e-05,0.0063443,-0.00026212,-2618,1.1451
15235,12.76,3.0909,0.05,8.5284e-07,8.5225,6.5487e-07,4.9205,9.1107e-13,2.992e-06,-6.5487e-07,-4.9205,1.1451
15236,13.036,3.0909,0,0.00025495,2547.7,8.4592e-05,5.4855,8.3862e-05,0.0065426,-0.00025486,-2545,1.1841
15237,12.944,3,0,0.00025736,2571.8,8.5349e-05,5.0425,8.4678e-05,0.0064966,-0.00025727,-2569.3,1.1711
15238,12.944,3.0909,0.05,8.4905e-07,8.4847,6.5197e-07,4.8986,2.1075e-15,3.4133e-06,-6.5197e-07,-4.8986,1.171
15239,13.22,3.0909,0,0.00025014,2499.7,8.3075e-05,6.3242,8.2234e-05,0.0066775,-0.00025004,-2496.5,1.2103
15240,13.128,3,0,0.00025254,2523.7,8.3831e-05,5.9036,8.3046e-05,0.0066433,-0.00025244,-2520.7,1.1972
15241,13.128,3.0909,0.05,8.4531e-07,8.4473,6.4909e-07,4.877,2.5807e-15,4.8772e-06,-6.4909e-07,-4.877,1.1972
15242,13.405,3.0909,0,0.00024535,2451.8,8.1561e-05,7.1207,8.0614e-05,0.0068156,-0.00024523,-2448.3,1.2367
15243,13.313,3,0,0.00024774,2475.7,8.2316e-05,6.7196,8.1422e-05,0.0067631,-0.00024763,-2472.3,1.2235
15244,13.313,3.0909,0.05,8.416e-07,8.4102,6.4624e-07,4.8556,3.0014e-15,4.6121e-06,-6.4624e-07,-4.8556,1.2234
15245,13.589,3.0909,0,0.00024058,2404.1,8.0049e-05,7.8801,7.9002e-05,0.0069863,-0.00024045,-2400.2,1.2632
15246,13.497,3,0,0.00024296,2427.9,8.0803e-05,7.4961,7.9806e-05,0.006917,-0.00024283,-2424.2,1.2499
15247,13.497,3.0909,0.05,8.3791e-07,8.3733,6.4341e-07,4.8343,1.8223e-12,4.6743e-06,-6.4341e-07,-4.8343,1.2499
15248,13.773,3.0909,0,0.00023583,2356.6,7.8541e-05,8.6072,7.7397e-05,0.0071607,-0.00023568,-2352.3,1.2899
15249,13.681,3,0,0.0002382,2380.3,7.9293e-05,8.238,7.8197e-05,0.0071029,-0.00023806,-2376.2,1.2765
15250,13.681,3.0909,0.05,8.3426e-07,8.3368,6.4061e-07,4.8133,3.6479e-15,3.1864e-06,-6.4061e-07,-4.8133,1.2765
15251,13.957,3.0909,0,0.00023109,2309.3,7.7036e-05,9.3069,7.5799e-05,0.0073215,-0.00023093,-2304.6,1.3168
15252,13.865,3,0,0.00023345,2332.9,7.7786e-05,8.95,7.6596e-05,0.0072645,-0.0002333,-2328.4,1.3033
15253,13.865,3.0909,0.05,8.3065e-07,8.3007,6.3783e-07,4.7925,4.0036e-15,3.3679e-06,-6.3783e-07,-4.7924,1.3033
15254,14.142,3.0909,0,0.00022637,2262.2,7.5536e-05,9.9835,7.4208e-05,0.0074697,-0.0002262,-2257.1,1.3438
15255,14.05,3,0,0.00022872,2285.7,7.6283e-05,9.6369,7.5002e-05,0.0074238,-0.00022856,-2280.8,1.3303
15256,14.05,3.0909,0.05,8.2707e-07,8.265,6.3508e-07,4.7718,9.1375e-13,3.9659e-06,-6.3508e-07,-4.7718,1.3302
15257,14.326,3.0909,0,0.00022167,2215.2,7.404e-05,10.642,7.2625e-05,0.007624,-0.00022149,-2209.8,1.371
15258,14.234,3,0,0.00022402,2238.6,7.4785e-05,10.303,7.3415e-05,0.0075607,-0.00022384,-2233.4,1.3574
15259,14.234,3.0909,0.05,8.2351e-07,8.2294,6.3235e-07,4.7512,9.1407e-13,3.3126e-06,-6.3235e-07,-4.7512,1.3573
15260,14.51,3.0909,0,0.00021699,2168.4,7.2549e-05,11.285,7.1048e-05,0.0078115,-0.0002168,-2162.8,1.3983
15261,14.418,3,0,0.00021933,2191.7,7.3291e-05,10.953,7.1835e-05,0.0077314,-0.00021914,-2186.2,1.3846
15262,14.418,3.0909,0.05,8.1997e-07,8.194,6.2964e-07,4.7308,9.1428e-13,4.4467e-06,-6.2963e-07,-4.7308,1.3846
15263,14.695,3.0909,0,0.00021233,2121.8,7.1064e-05,11.919,6.9479e-05,0.0080056,-0.00021213,-2115.9,1.4257
15264,14.602,3,0,0.00021465,2145.1,7.1803e-05,11.59,7.0262e-05,0.0079353,-0.00021445,-2139.2,1.412
15265,14.602,3.0909,0.05,8.1647e-07,8.159,6.2695e-07,4.7106,9.1422e-13,5.5192e-06,-6.2695e-07,-4.7106,1.412
15266,14.879,3.0909,0,0.00020769,2075.5,6.9584e-05,12.546,6.7916e-05,0.0081899,-0.00020747,-2069.2,1.4534
15267,14.787,3,0,0.00021,2098.6,7.0321e-05,12.219,6.8695e-05,0.0081196,-0.00020979,-2092.4,1.4395
15268,14.787,3.0909,0.05,8.13e-07,8.1244,6.2428e-07,4.6906,4.7643e-15,7.3076e-06,-6.2428e-07,-4.6906,1.4395
15269,15.063,3.0909,0,0.00020307,2029.3,6.8111e-05,13.171,6.6359e-05,0.0083661,-0.00020284,-2022.6,1.4811
15270,14.971,3,0,0.00020537,2052.3,6.8844e-05,12.844,6.7136e-05,0.0083036,-0.00020515,-2045.8,1.4672
15271,14.971,3.0909,0.05,8.0955e-07,8.0899,6.2164e-07,4.6707,4.8408e-15,6.4738e-06,-6.2164e-07,-4.6707,1.4672
15272,15.247,3.0909,0,0.00019847,1983.3,6.6645e-05,13.799,6.481e-05,0.0085518,-0.00019823,-1976.3,1.509
15273,15.155,3,0,0.00020076,2006.2,6.7374e-05,13.469,6.5583e-05,0.0084724,-0.00020053,-1999.4,1.495
15274,15.155,3.0909,0.05,8.0613e-07,8.0557,6.1901e-07,4.651,5.0863e-15,7.5483e-06,-6.1901e-07,-4.651,1.495
15275,15.432,3.0909,0,0.00019388,1937.5,6.5186e-05,14.432,6.3266e-05,0.0087709,-0.00019363,-1930.2,1.537
15276,15.339,3,0,0.00019617,1960.3,6.5912e-05,14.098,6.4036e-05,0.0086753,-0.00019592,-1953.2,1.523
15277,15.339,3.0909,0.05,8.0273e-07,8.0217,6.1639e-07,4.6313,9.149e-13,6.9547e-06,-6.1639e-07,-4.6313,1.523
15278,15.616,3.0909,0,0.00018932,1891.9,6.3734e-05,15.075,6.1729e-05,0.0089993,-0.00018906,-1884.3,1.5652
15279,15.524,3,0,0.0001916,1914.6,6.4456e-05,14.736,6.2496e-05,0.0089107,-0.00019134,-1907.2,1.5511
15280,15.524,3.0909,0.05,7.9936e-07,7.9881,6.1381e-07,4.6119,9.1534e-13,5.8852e-06,-6.1381e-07,-4.6119,1.5511
15281,15.8,3.0909,0,0.00018478,1846.6,6.2291e-05,15.733,6.0198e-05,0.0092232,-0.00018451,-1838.6,1.5935
15282,15.708,3,0,0.00018705,1869.2,6.3009e-05,15.385,6.0962e-05,0.0091326,-0.00018678,-1861.4,1.5793
15283,15.708,3.0909,0.05,7.9602e-07,7.9547,6.1125e-07,4.5927,6.2891e-15,4.9349e-06,-6.1125e-07,-4.5927,1.5793
15284,15.984,3.0909,0,0.00018026,1801.4,6.0856e-05,16.409,5.8673e-05,0.0094457,-0.00017998,-1793.1,1.6219
15285,15.892,3,0,0.00018252,1823.9,6.1569e-05,16.051,5.9434e-05,0.0093596,-0.00018224,-1815.8,1.6077
15286,15.892,3.0909,0.05,7.9271e-07,7.9217,6.0871e-07,4.5736,9.1603e-13,5.5328e-06,-6.087e-07,-4.5736,1.6076
15287,16.169,3.0909,0,0.00017577,1756.5,5.943e-05,17.108,5.7154e-05,0.0096806,-0.00017547,-1747.8,1.6504
15288,16.077,3,0,0.00017801,1778.8,6.0139e-05,16.737,5.7912e-05,0.0095773,-0.00017772,-1770.4,1.6361
15289,16.077,3.0909,0.05,7.8943e-07,7.8889,6.0618e-07,4.5547,6.9204e-15,6.0123e-06,-6.0618e-07,-4.5546,1.6361
15290,16.353,3.0909,0,0.00017129,1711.7,5.8013e-05,17.835,5.5641e-05,0.0099498,-0.00017098,-1702.7,1.6791
15291,16.261,3,0,0.00017352,1734,5.8717e-05,17.448,5.6396e-05,0.0098298,-0.00017322,-1725.2,1.6647
15292,16.261,3.0909,0.05,7.8617e-07,7.8563,6.0368e-07,4.5358,4.6189e-13,7.6829e-06,-6.0368e-07,-4.5358,1.6647
15293,16.537,3.0909,0,0.00016684,1667.2,5.6607e-05,18.593,5.4133e-05,0.010235,-0.00016651,-1657.8,1.7078
15294,16.445,3,0,0.00016906,1689.4,5.7305e-05,18.19,5.4886e-05,0.010117,-0.00016874,-1680.2,1.6934
15295,16.445,3.0909,0.05,7.8295e-07,7.8241,6.0121e-07,4.5172,7.6942e-15,7.8063e-06,-6.0121e-07,-4.5172,1.6934
15296,16.721,3.0909,0,0.00016241,1622.9,5.521e-05,19.389,5.2631e-05,0.010522,-0.00016207,-1613.1,1.7367
15297,16.629,3,0,0.00016461,1645,5.5904e-05,18.965,5.3381e-05,0.010399,-0.00016428,-1635.4,1.7223
15298,16.629,3.0909,0.05,7.7976e-07,7.7923,5.9876e-07,4.4989,4.628e-13,8.6438e-06,-5.9876e-07,-4.4989,1.7222
15299,16.906,3.0909,0,0.000158,1578.9,5.3825e-05,20.227,5.1135e-05,0.010814,-0.00015764,-1568.7,1.7657
15300,16.814,3,0,0.00016019,1600.8,5.4513e-05,19.78,5.1882e-05,0.010691,-0.00015985,-1590.8,1.7512
15301,16.814,3.0909,0.05,7.7661e-07,7.7608,5.9634e-07,4.4807,8.7302e-15,7.4564e-06,-5.9634e-07,-4.4807,1.7512
15302,17.09,3.0909,0,0.00015361,1535,5.2451e-05,21.112,4.9643e-05,0.011125,-0.00015324,-1524.4,1.7948
15303,16.998,3,0,0.0001558,1556.9,5.3133e-05,20.64,5.0388e-05,0.010984,-0.00015543,-1546.5,1.7802
15304,16.998,3.0909,0.05,7.735e-07,7.7296,5.9395e-07,4.4627,9.1043e-15,7.9359e-06,-5.9395e-07,-4.4627,1.7802
15305,17.274,3.0909,0,0.00014925,1491.5,5.109e-05,22.05,4.8157e-05,0.011473,-0.00014886,-1480.3,1.824
15306,17.182,3,0,0.00015142,1513.2,5.1765e-05,21.55,4.8899e-05,0.011313,-0.00015104,-1502.3,1.8094
15307,17.182,3.0909,0.05,7.7041e-07,7.6988,5.9158e-07,4.4449,9.2393e-15,7.6991e-06,-5.9158e-07,-4.4449,1.8094
15308,17.459,3.0909,0,0.00014491,1448.1,4.9741e-05,23.048,4.6675e-05,0.011844,-0.0001445,-1436.4,1.8533
15309,17.366,3,0,0.00014707,1469.7,5.041e-05,22.516,4.7415e-05,0.011683,-0.00014667,-1458.3,1.8386
15310,17.366,3.0909,0.05,7.6737e-07,7.6684,5.8925e-07,4.4274,4.6477e-13,7.2284e-06,-5.8925e-07,-4.4274,1.8386
15311,17.643,3.0909,0,0.0001406,1405,4.8406e-05,24.111,4.5198e-05,0.012227,-0.00014017,-1392.8,1.8827
15312,17.551,3,0,0.00014274,1426.5,4.9068e-05,23.545,4.5935e-05,0.012056,-0.00014233,-1414.5,1.868
15313,17.551,3.0909,0.05,7.6438e-07,7.6386,5.8695e-07,4.4101,1.0632e-14,8.663e-06,-5.8695e-07,-4.4101,1.868
15314,17.827,3.0909,0,0.00013631,1362.1,4.7084e-05,25.247,4.3726e-05,0.012625,-0.00013586,-1349.3,1.9122
15315,17.735,3,0,0.00013844,1383.5,4.7739e-05,24.643,4.4461e-05,0.012449,-0.00013801,-1371,1.8974
15316,17.735,3.0909,0.05,7.6144e-07,7.6092,5.8469e-07,4.3932,1.1544e-14,7.2391e-06,-5.8469e-07,-4.3931,1.8974
15317,18.011,3.0909,0,0.00013204,1319.5,4.5778e-05,26.462,4.2258e-05,0.013052,-0.00013157,-1306.1,1.9418
15318,17.919,3,0,0.00013417,1340.7,4.6425e-05,25.816,4.2991e-05,0.012854,-0.00013371,-1327.6,1.927
15319,17.919,3.0909,0.05,7.5855e-07,7.5802,5.8247e-07,4.3765,1.2427e-14,7.9611e-06,-5.8247e-07,-4.3764,1.927
15320,18.196,3.0909,0,0.0001278,1277.2,4.4487e-05,27.765,4.0793e-05,0.013526,-0.00012731,-1263,1.9715
15321,18.103,3,0,0.00012991,1298.2,4.5126e-05,27.073,4.1525e-05,0.013304,-0.00012943,-1284.5,1.9566
15322,18.103,3.0909,0.05,7.557e-07,7.5518,5.8029e-07,4.36,1.3485e-14,7.9695e-06,-5.8029e-07,-4.36,1.9566
15323,18.38,3.0909,0,0.00012359,1235.1,4.3213e-05,29.165,3.9333e-05,0.014034,-0.00012307,-1220.2,2.0012
15324,18.288,3,0,0.00012569,1256,4.3843e-05,28.422,4.0062e-05,0.013803,-0.00012518,-1241.6,1.9863
15325,18.288,3.0909,0.05,7.5293e-07,7.5241,5.7815e-07,4.344,4.6942e-13,9.8848e-06,-5.7815e-07,-4.344,1.9863
15326,18.564,3.0909,0,0.00011941,1193.2,4.1956e-05,30.669,3.7876e-05,0.014569,-0.00011885,-1177.6,2.0311
15327,18.472,3,0,0.00012149,1214.1,4.2578e-05,29.871,3.8604e-05,0.014321,-0.00012095,-1198.8,2.0161
15328,18.472,3.0909,0.05,7.5022e-07,7.497,5.7607e-07,4.3284,1.5746e-14,1.2039e-05,-5.7607e-07,-4.3284,2.0161
15329,18.748,3.0909,0,0.00011525,1151.7,4.0718e-05,32.287,3.6423e-05,0.015135,-0.00011467,-1135.2,2.061
15330,18.656,3,0,0.00011732,1172.4,4.133e-05,31.43,3.7149e-05,0.014875,-0.00011675,-1156.3,2.046
15331,18.656,3.0909,0.05,7.4758e-07,7.4706,5.7405e-07,4.3132,1.6364e-14,8.7061e-06,-5.7405e-07,-4.3132,2.046
15332,18.933,3.0909,0,0.00011112,1110.4,3.9499e-05,34.03,3.4972e-05,0.015747,-0.0001105,-1093,2.091
15333,18.841,3,0,0.00011317,1131,4.0101e-05,33.108,3.5697e-05,0.015456,-0.00011257,-1114,2.076
15334,18.841,3.0909,0.05,7.4501e-07,7.445,5.7208e-07,4.2984,4.7338e-13,7.5312e-06,-5.7208e-07,-4.2984,2.076
15335,19.117,3.0909,0,0.00010702,1069.5,3.8301e-05,35.909,3.3524e-05,0.016424,-0.00010636,-1051,2.1211
15336,19.025,3,0,0.00010906,1089.8,3.8892e-05,34.916,3.4248e-05,0.0161,-0.00010842,-1072,2.106
15337,19.025,3.0909,0.05,7.4253e-07,7.4202,5.7017e-07,4.2841,4.7536e-13,9.215e-06,-5.7017e-07,-4.284,2.106
15338,19.301,3.0909,0,0.00010295,1028.8,3.7125e-05,37.935,3.2078e-05,0.017156,-0.00010225,-1009.3,2.1512
15339,19.209,3,0,0.00010497,1049,3.7705e-05,36.866,3.2801e-05,0.016811,-0.0001043,-1030.1,2.1362
15340,19.209,3.0909,0.05,7.4015e-07,7.3964,5.6834e-07,4.2703,4.7738e-13,9.2297e-06,-5.6834e-07,-4.2703,2.1361
15341,19.485,3.0909,0,9.891e-05,988.42,3.5972e-05,40.121,3.0634e-05,0.017942,-9.8166e-05,-967.74,2.1815
15342,19.393,3,0,0.00010092,1008.5,3.654e-05,38.969,3.1356e-05,0.017566,-0.0001002,-988.44,2.1663
15343,19.393,3.0909,0.05,7.3787e-07,7.3736,5.666e-07,4.2572,2.4987e-14,1.0202e-05,-5.666e-07,-4.2572,2.1663
15344,19.67,3.0909,0,9.4903e-05,948.38,3.4843e-05,42.481,2.9192e-05,0.018791,-9.4109e-05,-926.41,2.2117
15345,19.578,3,0,9.6896e-05,968.29,3.5399e-05,41.238,2.9913e-05,0.018385,-9.6128e-05,-947.01,2.1966
15346,19.578,3.0909,0.05,7.3571e-07,7.3521,5.6494e-07,4.2447,4.8179e-13,1.0218e-05,-5.6494e-07,-4.2447,2.1966
15347,19.854,3.0909,0,9.0929e-05,908.66,3.374e-05,45.028,2.775e-05,0.019719,-9.0079e-05,-885.3,2.2421
15348,19.762,3,0,9.2905e-05,928.41,3.4283e-05,43.688,2.8471e-05,0.019268,-9.2085e-05,-905.79,2.2269
15349,19.762,3.0909,0.05,7.3368e-07,7.3317,5.6337e-07,4.233,2.8571e-14,8.7978e-06,-5.6337e-07,-4.233,2.2269
15350,20.038,3.0909,0,8.6989e-05,869.29,3.2665e-05,47.779,2.6309e-05,0.020747,-8.6077e-05,-844.41,2.2725
15351,19.946,3,0,8.8948e-05,888.87,3.3193e-05,46.333,2.703e-05,0.020242,-8.8069e-05,-864.78,2.2573
15352,19.946,3.0909,0.05,7.3178e-07,7.3128,5.6192e-07,4.222,4.8354e-13,6.891e-06,-5.6192e-07,-4.222,2.2573
15353,20.223,3.0909,0,8.3085e-05,830.27,3.1619e-05,50.749,2.4868e-05,0.021875,-8.2105e-05,-803.72,2.303
15354,20.13,3,0,8.5025e-05,849.67,3.2132e-05,49.19,2.5588e-05,0.021326,-8.4081e-05,-823.99,2.2877
15355,20.13,3.0909,0.05,7.3005e-07,7.2955,5.6059e-07,4.2121,3.0075e-14,7.8553e-06,-5.6059e-07,-4.212,2.2877
15356,20.407,3.0909,0,7.9217e-05,791.62,3.0603e-05,53.955,2.3425e-05,0.023113,-7.8161e-05,-763.26,2.3335
15357,20.315,3,0,8.1139e-05,810.83,3.1101e-05,52.274,2.4147e-05,0.022505,-8.0123e-05,-783.42,2.3182
15358,20.315,3.0909,0.05,7.285e-07,7.28,5.594e-07,4.2031,3.054e-14,1.0243e-05,-5.594e-07,-4.2031,2.3182
15359,20.591,3.0909,0,7.5388e-05,753.36,2.962e-05,57.416,2.1982e-05,0.024481,-7.4247e-05,-723,2.3641
15360,20.499,3,0,7.7291e-05,772.37,3.0101e-05,55.603,2.2704e-05,0.023809,-7.6194e-05,-743.06,2.3488
15361,20.499,3.0909,0.05,7.2715e-07,7.2665,5.5836e-07,4.1953,2.7209e-14,1.1649e-05,-5.5836e-07,-4.1953,2.3488
15362,20.775,3.0909,0,7.1599e-05,715.5,2.8671e-05,61.151,2.0536e-05,0.026002,-7.0362e-05,-682.95,2.3947
15363,20.683,3,0,7.3482e-05,734.31,2.9135e-05,59.197,2.126e-05,0.025245,-7.2295e-05,-702.91,2.3794
15364,20.683,3.0909,0.05,7.2602e-07,7.2552,5.5749e-07,4.1888,2.6049e-14,1.307e-05,-5.5749e-07,-4.1888,2.3794
15365,20.96,3.0909,0,6.7853e-05,678.06,2.7759e-05,65.178,1.9088e-05,0.027713,-6.6508e-05,-643.11,2.4254
15366,20.867,3,0,6.9714e-05,696.65,2.8204e-05,63.073,1.9813e-05,0.026859,-6.8426e-05,-662.96,2.4101
15367,20.867,3.0909,0.05,7.2515e-07,7.2465,5.5682e-07,4.1838,2.715e-14,1.0694e-05,-5.5682e-07,-4.1837,2.4101
15368,21.144,3.0909,0,6.4151e-05,641.06,2.6884e-05,69.519,1.7635e-05,0.029643,-6.2684e-05,-603.46,2.4561
15369,21.052,3,0,6.5989e-05,659.43,2.7309e-05,67.253,1.8362e-05,0.028679,-6.4587e-05,-623.22,2.4408
15370,21.052,3.0909,0.05,7.2456e-07,7.2406,5.5637e-07,4.1804,3.0938e-14,1.0723e-05,-5.5637e-07,-4.1803,2.4408
15371,21.328,3.0909,0,6.0495e-05,604.53,2.6048e-05,74.194,1.6178e-05,0.031831,-5.889e-05,-564,2.4869
15372,21.236,3,0,6.231e-05,622.67,2.6454e-05,71.756,1.6908e-05,0.03073,-6.0778e-05,-583.67,2.4715
15373,21.236,3.0909,0.05,7.2429e-07,7.2379,5.5617e-07,4.1788,3.4285e-14,8.8404e-06,-5.5617e-07,-4.1788,2.4715
15374,21.512,3.0909,0,5.6889e-05,568.5,2.5254e-05,79.223,1.4715e-05,0.034335,-5.5126e-05,-524.72,2.5177
15375,21.42,3,0,5.8679e-05,586.38,2.5639e-05,76.603,1.5448e-05,0.03307,-5.6999e-05,-544.3,2.5023
15376,21.42,3.0909,0.05,7.2439e-07,7.2389,5.5625e-07,4.1794,3.8259e-14,6.0093e-06,-5.5624e-07,-4.1794,2.5023
15377,21.697,3.0909,0,5.3337e-05,533,2.4504e-05,84.628,1.3245e-05,0.037234,-5.139e-05,-485.61,2.5486
15378,21.605,3,0,5.5099e-05,550.61,2.4866e-05,81.816,1.3982e-05,0.035757,-5.3249e-05,-505.11,2.5331
15379,21.605,3.0909,0.05,7.249e-07,7.244,5.5663e-07,4.1823,2.6498e-13,8.8659e-06,-5.5663e-07,-4.1823,2.5331
15380,21.881,3.0909,0,4.9842e-05,498.07,2.3797e-05,90.427,1.1767e-05,0.040643,-4.7683e-05,-446.65,2.5794
15381,21.789,3,0,5.1575e-05,515.39,2.4137e-05,87.414,1.2509e-05,0.038897,-4.9528e-05,-466.08,2.564
15382,21.789,3.0909,0.05,7.2586e-07,7.2536,5.5737e-07,4.1879,-1.9577e-13,8.8202e-06,-5.5737e-07,-4.1879,2.564
15383,22.065,3.0909,0,4.6409e-05,463.77,2.3136e-05,96.64,1.028e-05,0.044707,-4.4003e-05,-407.82,2.6104
15384,21.973,3,0,4.811e-05,480.77,2.3454e-05,93.416,1.1026e-05,0.042614,-4.5835e-05,-427.19,2.5949
15385,21.973,3.0909,0.05,7.2734e-07,7.2684,5.5851e-07,4.1964,3.6891e-14,1.2675e-05,-5.585e-07,-4.1964,2.5949
15386,22.249,3.0909,0,4.3045e-05,430.16,2.2522e-05,103.28,8.7829e-06,0.049631,-4.0348e-05,-369.1,2.6413
15387,22.157,3,0,4.4711e-05,446.81,2.2816e-05,99.841,9.5345e-06,0.047077,-4.2168e-05,-388.42,2.6258
15388,22.157,3.0909,0.05,7.2938e-07,7.2888,5.6007e-07,4.2082,4.0711e-14,1.5565e-05,-5.6007e-07,-4.2081,2.6258
15389,22.434,3.0909,0,3.976e-05,397.33,2.1955e-05,110.37,7.2734e-06,0.055745,-3.6715e-05,-330.46,2.6723
15390,22.342,3,0,4.1386e-05,413.57,2.2226e-05,106.7,8.0313e-06,0.052537,-3.8525e-05,-349.75,2.6568
15391,22.342,3.0909,0.05,7.3204e-07,7.3153,5.6212e-07,4.2235,-1.9512e-13,1.1686e-05,-5.6211e-07,-4.2235,2.6568
15392,22.618,3.0909,0,3.6565e-05,365.39,2.1436e-05,117.92,5.7506e-06,0.06349,-3.3102e-05,-291.86,2.7033
15393,22.526,3,0,3.8144e-05,381.18,2.1683e-05,114.02,6.5155e-06,0.059426,-3.4903e-05,-311.14,2.6878
15394,22.526,3.0909,0.05,7.3537e-07,7.3486,5.6467e-07,4.2427,3.4048e-14,7.8852e-06,-5.6467e-07,-4.2427,2.6877
15395,22.802,3.0909,0,3.3476e-05,334.53,2.0963e-05,125.93,4.213e-06,0.073901,-2.9506e-05,-253.28,2.7343
15396,22.71,3,0,3.5e-05,349.76,2.1187e-05,121.8,4.9857e-06,0.068217,-3.13e-05,-272.57,2.7188
15397,22.71,3.0909,0.05,7.3942e-07,7.3891,5.6778e-07,4.2661,4.9767e-13,6.998e-06,-5.6778e-07,-4.2661,2.7187
15398,22.987,3.0909,0,3.0518e-05,304.97,2.0536e-05,134.4,2.6593e-06,0.087419,-2.5923e-05,-214.67,2.7653
15399,22.894,3,0,3.1974e-05,319.52,2.0737e-05,130.04,3.4405e-06,0.080577,-2.7711e-05,-233.98,2.7498
15400,22.894,3.0909,0.05,7.4421e-07,7.437,5.7146e-07,4.2938,4.961e-13,4.126e-06,-5.7146e-07,-4.2937,2.7498
15401,23.171,3.0909,0,2.7724e-05,277.05,2.0154e-05,143.36,1.0888e-06,0.11036,-2.2349e-05,-175.99,2.7964
15402,23.079,3,0,2.9093e-05,290.73,2.0333e-05,138.76,1.8784e-06,0.095873,-2.4134e-05,-195.35,2.7808
15403,23.079,3.0909,0.05,7.4978e-07,7.4926,5.7574e-07,4.3259,3.2044e-14,1.1684e-05,-5.7573e-07,-4.3258,2.7808
15404,23.355,3.0909,0,2.5142e-05,251.24,1.9814e-05,152.77,-5.006e-07,0.1336,-1.8779e-05,-137.21,2.8274
15405,23.263,3,0,2.6399e-05,263.8,1.9973e-05,147.94,2.9949e-07,0.12775,-2.0563e-05,-156.63,2.8119
15406,23.263,3.0909,0.05,7.5611e-07,7.5559,5.806e-07,4.3624,2.5697e-13,5.9438e-06,-5.806e-07,-4.3624,2.8119
15407,23.539,3.0909,0,2.2838e-05,228.22,1.9515e-05,162.66,-2.1033e-06,0.23098,-1.5213e-05,-98.269,2.8585
15408,23.447,3,0,2.3946e-05,239.29,1.9654e-05,157.59,-1.2999e-06,0.14565,-1.6995e-05,-117.78,2.843
15409,23.447,3.0909,0.05,7.6316e-07,7.6263,5.8601e-07,4.4031,-2.0334e-13,3.9953e-06,-5.8601e-07,-4.4031,2.843
15410,23.724,3.0909,0,2.0901e-05,208.87,1.9253e-05,172.93,-3.7324e-06,0.22939,-1.1644e-05,-59.212,2.8896
15411,23.631,3,0,2.1814e-05,217.99,1.9375e-05,167.73,-2.9045e-06,0.33346,-1.3432e-05,-78.765,2.8741
15412,23.631,3.0909,0.05,7.7089e-07,7.7036,5.9195e-07,4.4477,2.5097e-13,5.899e-06,-5.9195e-07,-4.4477,2.8741
15413,23.816,3,0,2.0103e-05,200.89,1.913e-05,178.12,-4.5486e-06,0.21255,-9.8658e-06,-39.738,2.9052
15414,23.816,3.0909,0.05,7.8009e-07,7.7955,5.9901e-07,4.5007,1.8375e-14,5.8597e-06,-5.9901e-07,-4.5007,2.9051
15415,23.908,3.0909,0,1.952e-05,195.07,1.9047e-05,183.1,-5.2649e-06,0.43089,-8.2985e-06,-22.362,2.9207
15416,1.2431,2.9091,0,0.0012095,12086,0.0004675,0.48276,0.00027823,-1421.6,-0.0012273,-12734,0.021679
15417,1.1509,2.8182,0,0.0012821,12812,0.00048963,-0.74461,0.00030578,-1382.1,-0.0013,-13447,0.018546
15418,1.1509,2.9091,0.05,2.0497e-05,204.83,1.5739e-05,118.26,2.4367e-12,9.4621e-05,-1.5739e-05,-118.26,0.018537
15419,1.4273,2.9091,0,0.0010895,10887,0.00042579,0.78897,0.00024199,-1380.2,-0.0011064,-11511,0.028413
15420,1.3352,2.8182,0,0.0011555,11547,0.0004454,0.18793,0.00026805,-1332.4,-0.0011723,-12155,0.024882
15421,1.3352,2.9091,0.05,2.1647e-05,216.33,1.6623e-05,124.9,6.3597e-13,9.3263e-05,-1.6623e-05,-124.9,0.024868
15422,1.6116,2.9091,0,0.00097284,9721.6,0.00038686,1.5193,0.00020363,-1375.2,-0.00098886,-10335,0.035897
15423,1.5195,2.8182,0,0.0010268,10261,0.00040325,1.7119,0.00022444,-1341.8,-0.0010429,-10864,0.032012
15424,1.5195,2.9091,0.05,2.0453e-05,204.39,1.5705e-05,118,1.2614e-12,5.07e-05,-1.5705e-05,-118,0.031992
15425,1.7959,2.9091,0,0.00087174,8711.4,0.0003524,1.508,0.00017154,-1357.4,-0.00088682,-9309.5,0.044053
15426,1.7037,2.8182,0,0.00091406,9134.3,0.00036581,1.7429,0.00018694,-1342.3,-0.00092941,-9730.1,0.03985
15427,1.7037,2.9091,0.05,1.7911e-05,178.98,1.3753e-05,103.34,-3.2925e-13,5.0466e-05,-1.3753e-05,-103.34,0.039825
15428,1.9801,2.9091,0,0.00078947,7889.2,0.00032299,1.2841,0.00014793,-1314.1,-0.00080353,-8462.9,0.052809
15429,1.888,2.8182,0,0.00082234,8217.7,0.00033395,1.4978,0.00015891,-1313.7,-0.00083672,-8794.5,0.048321
15430,1.888,2.9091,0.05,1.5021e-05,150.11,1.1534e-05,86.665,2.2617e-12,4.1267e-05,-1.1534e-05,-86.665,0.048293
15431,2.1644,2.9091,0,0.00072447,7239.7,0.00029835,0.97632,0.00013195,-1249.3,-0.00073756,-7782.4,0.062111
15432,2.0723,2.8182,0,0.00075005,7495.4,0.00030735,1.1635,0.0001396,-1259.3,-0.00076346,-8044.5,0.057361
15433,2.0723,2.9091,0.05,1.2334e-05,123.25,9.4709e-06,71.161,2.1188e-12,4.0121e-05,-9.4709e-06,-71.161,0.057332
15434,2.3487,2.9091,0,0.0006737,6732.4,0.00027786,0.70738,0.00012188,-1171.3,-0.00068592,-7240.7,0.071913
15435,2.2565,2.8182,0,0.00069374,6932.6,0.00028532,0.85026,0.00012708,-1188.1,-0.00070624,-7449.3,0.066921
15436,2.2565,2.9091,0.05,1.0051e-05,100.44,7.7178e-06,57.989,1.2813e-12,3.4199e-05,-7.7178e-06,-57.989,0.066892
15437,2.5329,2.9091,0,0.00063411,6336.7,0.00026083,0.4971,0.00011606,-1087.2,-0.00064555,-6809.6,0.082182
15438,2.4408,2.8182,0,0.00064993,6494.8,0.00026706,0.60411,0.00011949,-1108.2,-0.00066163,-6977.2,0.076962
15439,2.4408,2.9091,0.05,8.1936e-06,81.879,6.2917e-06,47.273,2.1148e-12,2.638e-05,-6.2917e-06,-47.273,0.076934
15440,2.7172,2.9091,0,0.00060309,6026.8,0.00024662,0.34306,0.00011318,-1002.2,-0.00061384,-6464.8,0.092888
15441,2.6251,2.8182,0,0.00061571,6152.8,0.00025188,0.422,0.00011535,-1025.4,-0.00062669,-6600.8,0.087453
15442,2.6251,2.9091,0.05,6.7133e-06,67.086,5.155e-06,38.732,1.9554e-13,4.8796e-05,-5.155e-06,-38.732,0.087427
15443,2.9015,2.9091,0,0.00057861,5782.2,0.00023469,0.23343,0.00011228,-919.46,-0.00058874,-6186.7,0.10401
15444,2.8093,2.8182,0,0.00058878,5883.7,0.00023917,0.29106,0.00011356,-943.48,-0.00059912,-6298.3,0.098371
15445,2.8093,2.9091,0.05,5.5436e-06,55.398,4.2568e-06,31.984,9.6555e-13,1.8836e-05,-4.2568e-06,-31.984,0.098346
15446,3.0857,2.9091,0,0.0005591,5587.1,0.00022459,0.15652,0.00011267,-840.78,-0.00056863,-5959.8,0.11553
15447,2.9936,2.8182,0,0.00056739,5670,0.00022845,0.19844,0.00011333,-864.76,-0.00057713,-6052.6,0.1097
15448,2.9936,2.9091,0.05,4.622e-06,46.189,3.5492e-06,26.667,9.2555e-13,1.17e-05,-3.5492e-06,-26.667,0.10967
15449,3.27,2.9091,0,0.00054334,5429.7,0.00021596,0.10294,0.00011385,-767.13,-0.00055231,-5772.4,0.12744
15450,3.1779,2.8182,0,0.0005502,5498.3,0.00021932,0.13336,0.0001141,-790.49,-0.00055937,-5850.6,0.12141
15451,3.1779,2.9091,0.05,3.8957e-06,38.93,2.9914e-06,22.476,1.7452e-13,5.7485e-06,-2.9914e-06,-22.476,0.12139
15452,3.4543,2.9091,0,0.00053043,5300.7,0.00020852,0.065763,0.00011549,-698.92,-0.00053885,-5615.4,0.13973
15453,3.3621,2.8182,0,0.0005362,5358.3,0.00021147,0.087833,0.00011547,-721.28,-0.00054481,-5682.4,0.13351
15454,3.3621,2.9091,0.05,3.3222e-06,33.199,2.551e-06,19.168,1.2701e-12,7.9632e-06,-2.551e-06,-19.168,0.13349
15455,3.6385,2.9091,0,0.00051968,5193.2,0.00020204,0.040075,0.00011736,-636.19,-0.00052756,-5481.9,0.15238
15456,3.5464,2.8182,0,0.00052461,5242.4,0.00020466,0.056081,0.00011717,-657.34,-0.00053268,-5540.1,0.14598
15457,3.5464,2.9091,0.05,2.8683e-06,28.664,2.2025e-06,16.549,1.637e-12,-3.666e-06,-2.2025e-06,-16.549,0.14596
15458,3.8228,2.9091,0,0.00051054,5101.8,0.00019633,0.02243,0.0001193,-578.79,-0.00051791,-5366.5,0.16539
15459,3.7307,2.8182,0,0.00051483,5144.7,0.00019868,0.034032,0.00011901,-598.63,-0.00052239,-5417.8,0.15881
15460,3.7307,2.9091,0.05,2.5082e-06,25.065,1.926e-06,14.471,1.1287e-12,7.926e-06,-1.926e-06,-14.471,0.15879
15461,4.0071,2.9091,0,0.00050261,5022.6,0.00019125,0.010427,0.00012119,-526.44,-0.00050949,-5265.1,0.17875
15462,3.9149,2.8182,0,0.00050642,5060.7,0.00019339,0.018825,0.00012086,-544.93,-0.00051348,-5311.1,0.17199
15463,3.9149,2.9091,0.05,2.2216e-06,22.2,1.7059e-06,12.817,-1.0508e-12,4.7503e-06,-1.7059e-06,-12.817,0.17198
15464,4.1913,2.9091,0,0.00049559,4952.5,0.00018669,0.002389,0.00012296,-478.82,-0.000502,-5174.5,0.19246
15465,4.0992,2.8182,0,0.00049904,4986.9,0.00018864,0.0084504,0.00012263,-495.97,-0.00050562,-5216.4,0.18553
15466,4.0992,2.9091,0.05,1.9928e-06,19.914,1.5302e-06,11.497,1.3247e-12,2.3351e-06,-1.5302e-06,-11.497,0.18552
15467,4.3756,2.9091,0,0.00048924,4889,0.00018254,-0.0028589,0.00012457,-435.57,-0.00049519,-5092.2,0.2065
15468,4.2835,2.8182,0,0.00049241,4920.7,0.00018434,0.0014951,0.00012426,-451.41,-0.00049854,-5130.9,0.19941
15469,4.2835,2.9091,0.05,1.8096e-06,18.083,1.3895e-06,10.44,1.065e-12,4.1998e-06,-1.3895e-06,-10.44,0.1994
15470,4.5599,2.9091,0,0.00048338,4830.5,0.00017874,-0.0061456,0.000126,-396.31,-0.0004889,-5016.4,0.22089
15471,4.4677,2.8182,0,0.00048635,4860.2,0.00018042,-0.0030409,0.00012573,-410.92,-0.00049204,-5052.6,0.21362
15472,4.4677,2.9091,0.05,1.6624e-06,16.613,1.2765e-06,9.5915,8.7247e-13,6.447e-06,-1.2765e-06,-9.5915,0.21361
15473,4.7441,2.9091,0,0.00047788,4775.5,0.00017523,-0.0080583,0.00012722,-360.7,-0.00048299,-4945.6,0.2356
15474,4.652,2.8182,0,0.0004807,4803.6,0.0001768,-0.0058686,0.00012701,-374.14,-0.00048597,-4979.8,0.22817
15475,4.652,2.9091,0.05,1.5438e-06,15.427,1.1854e-06,8.9069,6.9223e-13,5.2007e-06,-1.1854e-06,-8.9069,0.22816
15476,4.9284,2.9091,0,0.00047262,4723,0.00017195,-0.0090147,0.00012824,-328.41,-0.00047735,-4878.6,0.25065
15477,4.8363,2.8182,0,0.00047533,4750.1,0.00017344,-0.0074949,0.00012809,-340.75,-0.00048021,-4911.3,0.24305
15478,4.8363,2.9091,0.05,1.4477e-06,14.467,1.1117e-06,8.3527,5.6671e-13,4.225e-06,-1.1117e-06,-8.3528,0.24305
15479,5.1127,2.9091,0,0.00046754,4672.2,0.00016887,-0.0093131,0.00012906,-299.1,-0.00047191,-4814.6,0.26602
15480,5.0205,2.8182,0,0.00047018,4698.5,0.00017028,-0.0082831,0.00012897,-310.43,-0.00047469,-4846.1,0.25826
15481,5.0205,2.9091,0.05,1.3696e-06,13.687,1.0517e-06,7.9021,4.626e-13,-2.9631e-07,-1.0517e-06,-7.902,0.25825
15482,5.2969,2.9091,0,0.00046258,4622.6,0.00016595,-0.0091667,0.00012968,-272.51,-0.00046662,-4752.9,0.2817
15483,5.2048,2.8182,0,0.00046516,4648.4,0.0001673,-0.0084941,0.00012965,-282.9,-0.00046933,-4783.4,0.27379
15484,5.2048,2.9091,0.05,1.3058e-06,13.049,1.0027e-06,7.5337,3.7711e-13,2.8361e-06,-1.0027e-06,-7.5337,0.27378
15485,5.4812,2.9091,0,0.0004577,4573.8,0.00016317,-0.0087276,0.00013012,-248.35,-0.00046141,-4692.9,0.29771
15486,5.3891,2.8182,0,0.00046024,4599.2,0.00016447,-0.0083144,0.00013015,-257.88,-0.00046408,-4722.7,0.28964
15487,5.3891,2.9091,0.05,1.2533e-06,12.524,9.6236e-07,7.2308,3.1253e-13,2.388e-06,-9.6236e-07,-7.2307,0.28963
15488,5.6655,2.9091,0,0.00045285,4525.4,0.00016051,-0.0081039,0.00013038,-226.4,-0.00045628,-4634.3,0.31403
15489,5.5733,2.8182,0,0.00045537,4550.6,0.00016177,-0.007878,0.00013047,-235.14,-0.00045891,-4663.6,0.3058
15490,5.5733,2.9091,0.05,1.2098e-06,12.09,9.29e-07,6.9801,2.6176e-13,1.9663e-06,-9.29e-07,-6.9801,0.30579
15491,5.8497,2.9091,0,0.00044803,4477.2,0.00015796,-0.0073724,0.00013048,-206.43,-0.00045118,-4576.8,0.33066
15492,5.7576,2.8182,0,0.00045053,4502.2,0.00015917,-0.0072802,0.00013063,-214.44,-0.0004538,-4605.6,0.32227
15493,5.7576,2.9091,0.05,1.1736e-06,11.728,9.0119e-07,6.7712,-1.5971e-12,1.6863e-06,-9.0119e-07,-6.7712,0.32227
15494,6.034,2.9091,0,0.00044321,4429,0.00015548,-0.0065867,0.00013043,-188.25,-0.00044611,-4520.2,0.34759
15495,5.9419,2.8182,0,0.00044571,4454,0.00015667,-0.006589,0.00013063,-195.6,-0.00044871,-4548.6,0.33905
15496,5.9419,2.9091,0.05,1.1432e-06,11.424,8.7784e-07,6.5957,1.8825e-13,1.4145e-06,-8.7784e-07,-6.5957,0.33905
15497,6.2183,2.9091,0,0.00043838,4380.8,0.00015309,-0.0057836,0.00013024,-171.68,-0.00044105,-4464.1,0.36483
15498,6.1261,2.8182,0,0.00044088,4405.8,0.00015424,-0.0058514,0.00013049,-178.42,-0.00044364,-4492.3,0.35614
15499,6.1261,2.9091,0.05,1.1174e-06,11.167,8.5805e-07,6.447,1.6296e-13,1.2172e-06,-8.5805e-07,-6.447,0.35614
15500,6.4025,2.9091,0,0.00043355,4332.5,0.00015075,-0.0049878,0.00012992,-156.56,-0.000436,-4408.6,0.38237
15501,6.3104,2.8182,0,0.00043604,4357.4,0.00015188,-0.0051002,0.00013022,-162.75,-0.00043858,-4436.5,0.37353
15502,6.3104,2.9091,0.05,1.0954e-06,10.946,8.4113e-07,6.3199,1.3981e-13,1.0499e-06,-8.4113e-07,-6.3199,0.37353
15503,6.5868,2.9091,0,0.00042869,4283.9,0.00014848,-0.0042159,0.00012948,-142.76,-0.00043094,-4353.5,0.4002
15504,6.4947,2.8182,0,0.00043119,4308.9,0.00014958,-0.0043573,0.00012983,-148.44,-0.00043352,-4381.2,0.39122
15505,6.4947,2.9091,0.05,1.0764e-06,10.756,8.2654e-07,6.2103,1.2223e-13,2.8213e-06,-8.2653e-07,-6.2103,0.39122
15506,6.7711,2.9091,0,0.00042382,4235.2,0.00014626,-0.003478,0.00012893,-130.15,-0.00042588,-4298.8,0.41833
15507,6.6789,2.8182,0,0.00042632,4260.3,0.00014734,-0.0036371,0.00012932,-135.37,-0.00042846,-4326.3,0.4092
15508,6.6789,2.9091,0.05,1.0598e-06,10.591,8.1381e-07,6.1147,-1.7123e-12,8.0073e-07,-8.1381e-07,-6.1147,0.4092
15509,6.9553,2.9091,0,0.00041892,4186.3,0.00014408,-0.0027799,0.00012829,-118.62,-0.00042081,-4244.3,0.43674
15510,6.8632,2.8182,0,0.00042143,4211.4,0.00014514,-0.0029487,0.00012872,-123.41,-0.00042339,-4271.7,0.42747
15511,6.8632,2.9091,0.05,1.0452e-06,10.445,8.0262e-07,6.0305,9.4117e-14,2.6143e-06,-8.0262e-07,-6.0305,0.42747
15512,7.1396,2.9091,0,0.000414,4137.2,0.00014194,-0.0021242,0.00012756,-108.06,-0.00041573,-4190.1,0.45545
15513,7.0475,2.8182,0,0.00041652,4162.3,0.00014298,-0.0022974,0.00012802,-112.46,-0.00041832,-4217.4,0.44603
15514,7.0475,2.9091,0.05,1.0323e-06,10.316,7.9267e-07,5.9558,8.3756e-14,6.271e-07,-7.9266e-07,-5.9558,0.44603
15515,7.3239,2.9091,0,0.00040906,4087.8,0.00013984,-0.0015115,0.00012674,-98.382,-0.00041065,-4136.1,0.47443
15516,7.2317,2.8182,0,0.00041159,4113,0.00014087,-0.0016847,0.00012723,-102.43,-0.00041323,-4163.3,0.46487
15517,7.2317,2.9091,0.05,1.0207e-06,10.2,7.8374e-07,5.8887,7.4659e-14,2.4667e-06,-7.8374e-07,-5.8887,0.46487
15518,7.5081,2.9091,0,0.00040411,4038.3,0.00013777,-0.00094114,0.00012585,-89.511,-0.00040556,-4082.3,0.49369
15519,7.416,2.8182,0,0.00040663,4063.5,0.00013878,-0.0011118,0.00012637,-93.24,-0.00040814,-4109.4,0.484
15520,7.416,2.9091,0.05,1.0101e-06,10.094,7.7566e-07,5.828,6.7022e-14,5.0554e-07,-7.7565e-07,-5.8279,0.484
15521,7.6924,2.9091,0,0.00039914,3988.6,0.00013573,-0.00041115,0.0001249,-81.373,-0.00040046,-4028.7,0.51323
15522,7.6003,2.8182,0,0.00040167,4013.9,0.00013673,-0.00057766,0.00012544,-84.804,-0.00040304,-4055.6,0.5034
15523,7.6003,2.9091,0.05,1.0005e-06,9.9982,7.6827e-07,5.7725,5.9785e-14,2.3586e-06,-7.6827e-07,-5.7725,0.5034
15524,7.8767,2.9091,0,0.00039415,3938.8,0.00013371,8.0461e-05,0.00012388,-73.9,-0.00039535,-3975.2,0.53304
15525,7.7845,2.8182,0,0.00039668,3964.1,0.0001347,-8.0437e-05,0.00012445,-77.06,-0.00039794,-4002.1,0.52307
15526,7.7845,2.9091,0.05,9.9166e-07,9.9098,7.6147e-07,5.7214,5.3419e-14,3.2627e-06,-7.6147e-07,-5.7214,0.52307
15527,8.0609,2.9091,0,0.00038915,3888.8,0.00013173,0.00053614,0.0001228,-67.034,-0.00039025,-3921.9,0.55312
15528,7.9688,2.8182,0,0.00039169,3914.2,0.00013271,0.00038132,0.0001234,-69.945,-0.00039283,-3948.7,0.54302
15529,7.9688,2.9091,0.05,9.8345e-07,9.8277,7.5516e-07,5.674,4.8144e-14,2.2692e-06,-7.5516e-07,-5.674,0.54302
15530,8.2452,2.9091,0,0.00038414,3838.7,0.00012976,0.00095875,0.00012168,-60.723,-0.00038514,-3868.7,0.57346
15531,8.1531,2.8182,0,0.00038668,3864.1,0.00013073,0.00080988,0.00012229,-63.405,-0.00038772,-3895.4,0.56323
15532,8.1531,2.9091,0.05,9.7577e-07,9.751,7.4927e-07,5.6297,4.3486e-14,2.7111e-06,-7.4927e-07,-5.6297,0.56323
15533,8.4295,2.9091,0,0.00037912,3788.6,0.00012782,0.0013511,0.00012051,-54.918,-0.00038002,-3815.7,0.59407
15534,8.3373,2.8182,0,0.00038166,3814,0.00012878,0.0012091,0.00012114,-57.391,-0.0003826,-3842.3,0.5837
15535,8.3373,2.9091,0.05,9.6856e-07,9.6789,7.4374e-07,5.5881,3.9413e-14,1.7265e-06,-7.4374e-07,-5.5881,0.5837
15536,8.6137,2.9091,0,0.00037409,3738.3,0.0001259,0.0017158,0.0001193,-49.576,-0.00037491,-3762.9,0.61493
15537,8.5216,2.8182,0,0.00037663,3763.7,0.00012685,0.0015794,0.00011995,-51.857,-0.00037749,-3789.4,0.60444
15538,8.5216,2.9091,0.05,9.6175e-07,9.6109,7.385e-07,5.5488,3.5669e-14,2.1758e-06,-7.385e-07,-5.5488,0.60444
15539,8.798,2.9091,0,0.00036906,3688.1,0.000124,0.0020549,0.00011805,-44.658,-0.0003698,-3710.2,0.63605
15540,8.7059,2.8182,0,0.0003716,3713.5,0.00012494,0.0019252,0.00011871,-46.762,-0.00037238,-3736.6,0.62543
15541,8.7059,2.9091,0.05,9.5528e-07,9.5462,7.3354e-07,5.5115,3.2269e-14,2.1492e-06,-7.3354e-07,-5.5115,0.62543
15542,8.9823,2.9091,0,0.00036403,3637.8,0.00012211,0.0023709,0.00011677,-40.128,-0.00036469,-3657.7,0.65742
15543,8.8901,2.8182,0,0.00036657,3663.1,0.00012304,0.0022466,0.00011745,-42.069,-0.00036726,-3684,0.64667
15544,8.8901,2.9091,0.05,9.4911e-07,9.4845,7.288e-07,5.4759,2.913e-14,2.127e-06,-7.288e-07,-5.4759,0.64667
15545,9.1665,2.9091,0,0.00035899,3587.4,0.00012024,0.0026663,0.00011546,-35.954,-0.00035959,-3605.3,0.67904
15546,9.0744,2.8182,0,0.00036153,3612.8,0.00012117,0.0025475,0.00011615,-37.746,-0.00036216,-3631.5,0.66817
15547,9.0744,2.9091,0.05,9.4319e-07,9.4254,7.2426e-07,5.4418,2.6255e-14,2.104e-06,-7.2425e-07,-5.4418,0.66817
15548,9.3508,2.9091,0,0.00035395,3537.1,0.00011839,0.002943,0.00011412,-32.105,-0.00035449,-3553,0.7009
15549,9.2587,2.8182,0,0.00035649,3562.4,0.00011931,0.0028296,0.00011482,-33.76,-0.00035705,-3579.2,0.68991
15550,9.2587,2.9091,0.05,9.3751e-07,9.3687,7.1989e-07,5.409,2.3542e-14,1.846e-06,-7.1989e-07,-5.409,0.68991
15551,9.5351,2.9091,0,0.00034892,3486.8,0.00011656,0.0032021,0.00011275,-28.556,-0.0003494,-3501,0.723
15552,9.4429,2.8182,0,0.00035145,3512.1,0.00011747,0.0030943,0.00011346,-30.085,-0.00035196,-3527.1,0.71189
15553,9.4429,2.9091,0.05,9.3204e-07,9.3139,7.1569e-07,5.3774,2.1057e-14,1.8265e-06,-7.1569e-07,-5.3774,0.71189
15554,9.7193,2.9091,0,0.00034389,3436.5,0.00011473,0.0034492,0.00011137,-25.281,-0.00034431,-3449.1,0.74534
15555,9.6272,2.8182,0,0.00034642,3461.8,0.00011564,0.0033424,0.00011209,-26.694,-0.00034687,-3475.1,0.73411
15556,9.6272,2.9091,0.05,9.2674e-07,9.261,7.1163e-07,5.3469,1.8673e-14,2.7627e-06,-7.1162e-07,-5.3469,0.73411
15557,9.9036,2.9091,0,0.00033886,3386.3,0.00011293,0.0036825,0.00010996,-22.257,-0.00033923,-3397.3,0.76791
15558,9.8115,2.8182,0,0.00034139,3411.5,0.00011382,0.0035838,0.00011069,-23.564,-0.00034178,-3423.2,0.75657
15559,9.8115,2.9091,0.05,9.2161e-07,9.2097,7.0768e-07,5.3172,1.6628e-14,2.7478e-06,-7.0768e-07,-5.3172,0.75657
15560,10.088,2.9091,0,0.00033384,3336.1,0.00011113,0.0039011,0.00010854,-19.466,-0.00033417,-3345.8,0.79071
15561,9.9957,2.8182,0,0.00033636,3361.3,0.00011202,0.0038061,0.00010927,-20.675,-0.00033671,-3371.6,0.77925
15562,9.9957,2.9091,0.05,9.1663e-07,9.16,7.0386e-07,5.2885,1.4724e-14,2.4946e-06,-7.0386e-07,-5.2885,0.77925
15563,10.272,2.9091,0,0.00032882,3286,0.00010935,0.0041143,0.0001071,-16.886,-0.00032911,-3294.4,0.81374
15564,10.18,2.8182,0,0.00033134,3311.1,0.00011023,0.0040184,0.00010784,-18.005,-0.00033164,-3320.1,0.80217
15565,10.18,2.9091,0.05,9.1178e-07,9.1115,7.0013e-07,5.2605,1.3033e-14,3.4359e-06,-7.0013e-07,-5.2605,0.80217
15566,10.456,2.9091,0,0.00032382,3235.9,0.00010758,0.0042986,0.00010565,-14.501,-0.00032406,-3243.2,0.837
15567,10.364,2.8182,0,0.00032633,3261,0.00010846,0.004231,0.00010639,-15.538,-0.00032659,-3268.8,0.82531
15568,10.364,2.9091,0.05,9.0705e-07,9.0642,6.965e-07,5.2332,1.1446e-14,2.8277e-06,-6.965e-07,-5.2332,0.82531
15569,10.641,2.9091,0,0.00031882,3186,0.00010582,0.004469,0.00010418,-12.295,-0.00031902,-3192.1,0.86047
15570,10.549,2.8182,0,0.00032133,3211,0.00010669,0.0043877,0.00010493,-13.256,-0.00032155,-3217.6,0.84868
15571,10.549,2.9091,0.05,9.0242e-07,9.018,6.9295e-07,5.2065,1.0126e-14,2.6986e-06,-6.9295e-07,-5.2065,0.84868
15572,10.825,2.9091,0,0.00031383,3136.1,0.00010407,0.0046717,0.00010271,-10.254,-0.000314,-3141.2,0.88416
15573,10.733,2.8182,0,0.00031633,3161.1,0.00010494,0.0045746,0.00010346,-11.145,-0.00031652,-3166.7,0.87226
15574,10.733,2.9091,0.05,8.9789e-07,8.9727,6.8947e-07,5.1804,8.7297e-15,2.4497e-06,-6.8946e-07,-5.1804,0.87226
15575,11.009,2.9091,0,0.00030885,3086.4,0.00010233,0.004871,0.00010122,-8.3631,-0.00030899,-3090.5,0.90806
15576,10.917,2.8182,0,0.00031134,3111.3,0.0001032,0.0047977,0.00010198,-9.1907,-0.0003115,-3115.9,0.89606
15577,10.917,2.9091,0.05,8.9346e-07,8.9284,6.8606e-07,5.1548,7.4509e-15,2.321e-06,-6.8606e-07,-5.1548,0.89606
15578,11.193,2.9091,0,0.00030388,3036.7,0.00010061,0.0050426,9.9728e-05,-6.6105,-0.00030399,-3040,0.93218
15579,11.101,2.8182,0,0.00030637,3061.6,0.00010147,0.0049815,0.00010049,-7.3796,-0.0003065,-3065.3,0.92007
15580,11.101,2.9091,0.05,8.8911e-07,8.885,6.8273e-07,5.1298,6.1589e-15,2.0728e-06,-6.8273e-07,-5.1298,0.92007
15581,11.378,2.9091,0,0.00029892,2987.2,9.8892e-05,0.0051901,9.8228e-05,-4.9845,-0.00029901,-2989.7,0.9565
15582,11.286,2.8182,0,0.00030141,3012,9.9747e-05,0.0051557,9.8988e-05,-5.7001,-0.0003015,-3014.8,0.94429
15583,11.286,2.9091,0.05,8.8485e-07,8.8424,6.7945e-07,5.1052,5.0225e-15,1.498e-06,-6.7945e-07,-5.1052,0.94428
15584,11.562,2.9091,0,0.00029398,2937.8,9.7186e-05,0.0053389,9.6723e-05,-3.4745,-0.00029404,-2939.5,0.98102
15585,11.47,2.8182,0,0.00029646,2962.5,9.8036e-05,0.0053013,9.7485e-05,-4.1411,-0.00029653,-2964.6,0.96871
15586,11.47,2.9091,0.05,8.8065e-07,8.8004,6.7623e-07,5.0809,4.003e-15,1.8479e-06,-6.7623e-07,-5.0809,0.96871
15587,11.746,2.9091,0,0.00028905,2888.5,9.549e-05,0.0055311,9.5214e-05,-2.0705,-0.00028909,-2889.5,1.0057
15588,11.654,2.8182,0,0.00029152,2913.2,9.6335e-05,0.005503,9.5976e-05,-2.6924,-0.00029157,-2914.5,0.99333
15589,11.654,2.9091,0.05,8.765e-07,8.759,6.7305e-07,5.057,3.0539e-15,1.9219e-06,-6.7305e-07,-5.057,0.99333
15590,11.931,2.9091,0,0.00028413,2839.4,9.3803e-05,0.0057778,9.37e-05,-0.76334,-0.00028415,-2839.8,1.0307
15591,11.838,2.8182,0,0.0002866,2864,9.4644e-05,0.0058251,9.4464e-05,-1.3446,-0.00028662,-2864.7,1.0182
15592,11.838,2.9091,0.05,8.7243e-07,8.7183,6.6992e-07,5.0335,2.1563e-15,1.9087e-06,-6.6992e-07,-5.0335,1.0182
15593,12.115,2.9091,0,0.00027923,2790.4,9.2184e-05,0.45582,9.2124e-05,0.0056185,-0.00027922,-2790.2,1.0558
15594,12.023,2.8182,0,0.00028169,2814.9,9.2962e-05,0.0093209,9.2948e-05,-0.092015,-0.00028169,-2815,1.0432
15595,12.023,2.9091,0.05,8.6842e-07,8.6782,6.6684e-07,5.0104,1.2998e-15,2.1854e-06,-6.6684e-07,-5.0104,1.0432
15596,12.299,2.9091,0,0.00027434,2741.6,9.0667e-05,1.5941,9.0455e-05,0.0058896,-0.00027432,-2740.8,1.0811
15597,12.207,2.8182,0,0.00027679,2766,9.1431e-05,1.084,9.1288e-05,0.0055374,-0.00027677,-2765.4,1.0684
15598,12.207,2.9091,0.05,8.6446e-07,8.6386,6.638e-07,4.9875,4.828e-16,2.5368e-06,-6.638e-07,-4.9875,1.0684
15599,12.483,2.9091,0,0.00026947,2692.9,8.9148e-05,2.6596,8.8795e-05,0.0060435,-0.00026943,-2691.5,1.1066
15600,12.391,2.8182,0,0.00027191,2717.2,8.9912e-05,2.1797,8.9623e-05,0.005815,-0.00027187,-2716.1,1.0938
15601,12.391,2.9091,0.05,8.6054e-07,8.5995,6.6079e-07,4.9649,-2.6096e-16,1.518e-06,-6.6079e-07,-4.9649,1.0938
15602,12.668,2.9091,0,0.00026462,2644.3,8.7628e-05,3.6591,8.7142e-05,0.006218,-0.00026455,-2642.5,1.1322
15603,12.575,2.8182,0,0.00026705,2668.6,8.8392e-05,3.2064,8.7966e-05,0.0060145,-0.00026699,-2667,1.1194
15604,12.575,2.9091,0.05,8.5666e-07,8.5607,6.5781e-07,4.9425,-9.5573e-16,1.0955e-06,-6.5781e-07,-4.9425,1.1193
15605,12.852,2.9091,0,0.00025977,2596,8.611e-05,4.599,8.5498e-05,0.0063903,-0.0002597,-2593.7,1.1581
15606,12.76,2.8182,0,0.0002622,2620.2,8.6873e-05,4.1708,8.6319e-05,0.0062213,-0.00026212,-2618.1,1.1451
15607,12.76,2.9091,0.05,8.5284e-07,8.5225,6.5487e-07,4.9205,-1.5909e-15,1.8358e-06,-6.5487e-07,-4.9205,1.1451
15608,13.036,2.9091,0,0.00025495,2547.7,8.4592e-05,5.4855,8.3862e-05,0.0065426,-0.00025486,-2545,1.1841
15609,12.944,2.8182,0,0.00025736,2571.9,8.5354e-05,5.079,8.4679e-05,0.0063869,-0.00025728,-2569.3,1.1711
15610,12.944,2.9091,0.05,8.4905e-07,8.4847,6.5197e-07,4.8986,-2.1413e-15,2.4278e-06,-6.5197e-07,-4.8986,1.171
15611,13.22,2.9091,0,0.00025014,2499.7,8.3075e-05,6.3242,8.2234e-05,0.0066777,-0.00025004,-2496.5,1.2103
15612,13.128,2.8182,0,0.00025255,2523.7,8.3836e-05,5.937,8.3047e-05,0.0065418,-0.00025245,-2520.8,1.1972
15613,13.128,2.9091,0.05,8.4531e-07,8.4473,6.4909e-07,4.877,-2.6213e-15,3.4672e-06,-6.4909e-07,-4.877,1.1972
15614,13.405,2.9091,0,0.00024535,2451.8,8.1561e-05,7.1207,8.0614e-05,0.0068158,-0.00024523,-2448.3,1.2367
15615,13.313,2.8182,0,0.00024775,2475.8,8.232e-05,6.7502,8.1423e-05,0.0066678,-0.00024763,-2472.4,1.2234
15616,13.313,2.9091,0.05,8.416e-07,8.4102,6.4624e-07,4.8556,-3.0537e-15,3.2553e-06,-6.4624e-07,-4.8556,1.2234
15617,13.589,2.9091,0,0.00024058,2404.1,8.0049e-05,7.8801,7.9002e-05,0.0069866,-0.00024045,-2400.2,1.2632
15618,13.497,2.8182,0,0.00024297,2428,8.0807e-05,7.5239,7.9807e-05,0.0068254,-0.00024284,-2424.2,1.2499
15619,13.497,2.9091,0.05,8.3791e-07,8.3733,6.4341e-07,4.8343,-3.3877e-15,3.6104e-06,-6.4341e-07,-4.8343,1.2499
15620,13.773,2.9091,0,0.00023583,2356.6,7.8541e-05,8.6072,7.7397e-05,0.007161,-0.00023568,-2352.3,1.2899
15621,13.681,2.8182,0,0.0002382,2380.4,7.9297e-05,8.2633,7.8198e-05,0.007014,-0.00023806,-2376.2,1.2765
15622,13.681,2.9091,0.05,8.3426e-07,8.3368,6.4061e-07,4.8133,-3.7027e-15,2.1181e-06,-6.4061e-07,-4.8133,1.2765
15623,13.957,2.9091,0,0.00023109,2309.3,7.7036e-05,9.3069,7.5799e-05,0.0073218,-0.00023093,-2304.6,1.3168
15624,13.865,2.8182,0,0.00023346,2333,7.779e-05,8.9729,7.6597e-05,0.0071781,-0.0002333,-2328.5,1.3033
15625,13.865,2.9091,0.05,8.3065e-07,8.3007,6.3784e-07,4.7925,-4.0561e-15,2.1749e-06,-6.3783e-07,-4.7924,1.3033
15626,14.142,2.9091,0,0.00022637,2262.2,7.5536e-05,9.9835,7.4208e-05,0.0074703,-0.0002262,-2257.1,1.3438
15627,14.05,2.8182,0,0.00022873,2285.7,7.6287e-05,9.6575,7.5002e-05,0.0073379,-0.00022856,-2280.9,1.3302
15628,14.05,2.9091,0.05,8.2707e-07,8.265,6.3509e-07,4.7718,-4.3107e-15,2.7094e-06,-6.3508e-07,-4.7718,1.3302
15629,14.326,2.9091,0,0.00022167,2215.2,7.404e-05,10.642,7.2625e-05,0.007624,-0.00022149,-2209.8,1.371
15630,14.234,2.8182,0,0.00022402,2238.7,7.4788e-05,10.321,7.3416e-05,0.007476,-0.00022384,-2233.5,1.3573
15631,14.234,2.9091,0.05,8.2351e-07,8.2294,6.3235e-07,4.7512,-4.6397e-15,2.0512e-06,-6.3235e-07,-4.7512,1.3573
15632,14.51,2.9091,0,0.00021699,2168.4,7.2549e-05,11.285,7.1048e-05,0.0078114,-0.0002168,-2162.8,1.3983
15633,14.418,2.8182,0,0.00021933,2191.8,7.3294e-05,10.969,7.1836e-05,0.007647,-0.00021914,-2186.3,1.3846
15634,14.418,2.9091,0.05,8.1997e-07,8.194,6.2964e-07,4.7308,-4.8627e-15,2.9437e-06,-6.2963e-07,-4.7308,1.3846
15635,14.695,2.9091,0,0.00021233,2121.8,7.1064e-05,11.919,6.9479e-05,0.0080055,-0.00021213,-2115.9,1.4257
15636,14.602,2.8182,0,0.00021466,2145.1,7.1806e-05,11.604,7.0263e-05,0.0078512,-0.00021446,-2139.3,1.412
15637,14.602,2.9091,0.05,8.1647e-07,8.159,6.2695e-07,4.7106,-4.7988e-15,4.2554e-06,-6.2695e-07,-4.7106,1.412
15638,14.879,2.9091,0,0.00020769,2075.5,6.9584e-05,12.546,6.7916e-05,0.0081895,-0.00020747,-2069.2,1.4534
15639,14.787,2.8182,0,0.00021001,2098.6,7.0323e-05,12.231,6.8696e-05,0.0080354,-0.0002098,-2092.5,1.4395
15640,14.787,2.9091,0.05,8.13e-07,8.1244,6.2428e-07,4.6906,-4.8555e-15,6.1623e-06,-6.2428e-07,-4.6906,1.4395
15641,15.063,2.9091,0,0.00020307,2029.3,6.8111e-05,13.171,6.6359e-05,0.0083661,-0.00020284,-2022.6,1.4811
15642,14.971,2.8182,0,0.00020538,2052.3,6.8847e-05,12.854,6.7137e-05,0.0082198,-0.00020515,-2045.9,1.4672
15643,14.971,2.9091,0.05,8.0955e-07,8.0899,6.2164e-07,4.6707,-4.947e-15,4.8506e-06,-6.2163e-07,-4.6707,1.4672
15644,15.247,2.9091,0,0.00019847,1983.3,6.6645e-05,13.799,6.481e-05,0.0085519,-0.00019823,-1976.3,1.509
15645,15.155,2.8182,0,0.00020076,2006.3,6.7377e-05,13.477,6.5584e-05,0.0083886,-0.00020053,-1999.5,1.495
15646,15.155,2.9091,0.05,8.0613e-07,8.0557,6.1901e-07,4.651,-5.1704e-15,6.3984e-06,-6.1901e-07,-4.651,1.495
15647,15.432,2.9091,0,0.00019388,1937.5,6.5186e-05,14.432,6.3266e-05,0.0087708,-0.00019363,-1930.2,1.537
15648,15.339,2.8182,0,0.00019617,1960.4,6.5914e-05,14.104,6.4037e-05,0.0085904,-0.00019593,-1953.3,1.523
15649,15.339,2.9091,0.05,8.0273e-07,8.0217,6.1639e-07,4.6313,-5.5275e-15,5.4421e-06,-6.1639e-07,-4.6313,1.523
15650,15.616,2.9091,0,0.00018932,1891.9,6.3734e-05,15.075,6.1729e-05,0.0089994,-0.00018906,-1884.3,1.5652
15651,15.524,2.8182,0,0.0001916,1914.7,6.4458e-05,14.739,6.2497e-05,0.0088259,-0.00019135,-1907.3,1.5511
15652,15.524,2.9091,0.05,7.9936e-07,7.9881,6.1381e-07,4.6119,-5.951e-15,4.1275e-06,-6.1381e-07,-4.6119,1.5511
15653,15.8,2.9091,0,0.00018478,1846.6,6.2291e-05,15.733,6.0198e-05,0.009224,-0.00018451,-1838.6,1.5935
15654,15.708,2.8182,0,0.00018705,1869.2,6.301e-05,15.387,6.0963e-05,0.0090471,-0.00018678,-1861.5,1.5793
15655,15.708,2.9091,0.05,7.9602e-07,7.9547,6.1125e-07,4.5927,-6.4253e-15,3.6475e-06,-6.1125e-07,-4.5927,1.5793
15656,15.984,2.9091,0,0.00018026,1801.4,6.0856e-05,16.409,5.8673e-05,0.0094459,-0.00017998,-1793.1,1.6219
15657,15.892,2.8182,0,0.00018252,1823.9,6.157e-05,16.05,5.9436e-05,0.0092734,-0.00018224,-1815.9,1.6076
15658,15.892,2.9091,0.05,7.9271e-07,7.9217,6.0871e-07,4.5736,-6.6468e-15,4.7185e-06,-6.087e-07,-4.5736,1.6076
15659,16.169,2.9091,0,0.00017577,1756.5,5.943e-05,17.108,5.7154e-05,0.0096807,-0.00017547,-1747.8,1.6504
15660,16.077,2.8182,0,0.00017801,1778.9,6.014e-05,16.734,5.7914e-05,0.0094905,-0.00017772,-1770.5,1.6361
15661,16.077,2.9091,0.05,7.8943e-07,7.8889,6.0618e-07,4.5547,-7.0379e-15,4.3576e-06,-6.0618e-07,-4.5546,1.6361
15662,16.353,2.9091,0,0.00017129,1711.7,5.8013e-05,17.835,5.5641e-05,0.0099506,-0.00017098,-1702.7,1.6791
15663,16.261,2.8182,0,0.00017352,1734,5.8718e-05,17.443,5.6398e-05,0.0097426,-0.00017322,-1725.3,1.6647
15664,16.261,2.9091,0.05,7.8617e-07,7.8563,6.0368e-07,4.5358,-7.2924e-15,5.5479e-06,-6.0368e-07,-4.5358,1.6647
15665,16.537,2.9091,0,0.00016684,1667.2,5.6607e-05,18.593,5.4133e-05,0.010235,-0.00016651,-1657.8,1.7078
15666,16.445,2.8182,0,0.00016906,1689.4,5.7306e-05,18.182,5.4887e-05,0.010028,-0.00016874,-1680.3,1.6934
15667,16.445,2.9091,0.05,7.8295e-07,7.8241,6.0121e-07,4.5172,-7.8523e-15,6.1398e-06,-6.0121e-07,-4.5172,1.6934
15668,16.721,2.9091,0,0.00016241,1622.9,5.521e-05,19.389,5.2631e-05,0.010522,-0.00016207,-1613.1,1.7367
15669,16.629,2.8182,0,0.00016462,1645,5.5904e-05,18.954,5.3383e-05,0.01031,-0.00016429,-1635.5,1.7222
15670,16.629,2.9091,0.05,7.7976e-07,7.7923,5.9876e-07,4.4989,-8.2494e-15,7.0906e-06,-5.9876e-07,-4.4988,1.7222
15671,16.906,2.9091,0,0.000158,1578.9,5.3825e-05,20.227,5.1135e-05,0.010814,-0.00015764,-1568.7,1.7657
15672,16.814,2.8182,0,0.0001602,1600.9,5.4513e-05,19.767,5.1883e-05,0.010601,-0.00015985,-1590.9,1.7512
15673,16.814,2.9091,0.05,7.7661e-07,7.7608,5.9634e-07,4.4807,-8.8951e-15,5.6551e-06,-5.9634e-07,-4.4807,1.7512
15674,17.09,2.9091,0,0.00015361,1535,5.2451e-05,21.112,4.9643e-05,0.011124,-0.00015324,-1524.4,1.7948
15675,16.998,2.8182,0,0.0001558,1556.9,5.3133e-05,20.623,5.0389e-05,0.010892,-0.00015544,-1546.5,1.7802
15676,16.998,2.9091,0.05,7.735e-07,7.7296,5.9395e-07,4.4627,-4.6401e-13,6.3671e-06,-5.9395e-07,-4.4627,1.7802
15677,17.274,2.9091,0,0.00014925,1491.5,5.109e-05,22.05,4.8157e-05,0.011473,-0.00014886,-1480.3,1.824
15678,17.182,2.8182,0,0.00015142,1513.2,5.1764e-05,21.53,4.89e-05,0.011221,-0.00015105,-1502.3,1.8094
15679,17.182,2.9091,0.05,7.7041e-07,7.6988,5.9158e-07,4.4449,-9.4433e-15,6.6047e-06,-5.9158e-07,-4.4449,1.8094
15680,17.459,2.9091,0,0.00014491,1448.1,4.9741e-05,23.048,4.6675e-05,0.011844,-0.0001445,-1436.4,1.8533
15681,17.366,2.8182,0,0.00014707,1469.7,5.0409e-05,22.492,4.7417e-05,0.011589,-0.00014668,-1458.3,1.8386
15682,17.366,2.9091,0.05,7.6737e-07,7.6684,5.8925e-07,4.4274,-1.0244e-14,5.6454e-06,-5.8925e-07,-4.4274,1.8386
15683,17.643,2.9091,0,0.0001406,1405,4.8406e-05,24.111,4.5198e-05,0.012227,-0.00014017,-1392.8,1.8827
15684,17.551,2.8182,0,0.00014275,1426.5,4.9066e-05,23.517,4.5937e-05,0.011961,-0.00014233,-1414.6,1.868
15685,17.551,2.9091,0.05,7.6438e-07,7.6386,5.8695e-07,4.4101,-1.0834e-14,7.071e-06,-5.8695e-07,-4.4101,1.868
15686,17.827,2.9091,0,0.00013631,1362.1,4.7084e-05,25.247,4.3726e-05,0.012626,-0.00013586,-1349.3,1.9122
15687,17.735,2.8182,0,0.00013844,1383.5,4.7737e-05,24.61,4.4463e-05,0.012354,-0.00013801,-1371,1.8974
15688,17.735,2.9091,0.05,7.6144e-07,7.6092,5.8469e-07,4.3932,-1.1747e-14,5.872e-06,-5.8469e-07,-4.3931,1.8974
15689,18.011,2.9091,0,0.00013204,1319.5,4.5778e-05,26.462,4.2258e-05,0.013052,-0.00013157,-1306.1,1.9418
15690,17.919,2.8182,0,0.00013417,1340.7,4.6422e-05,25.779,4.2993e-05,0.012756,-0.00013371,-1327.7,1.927
15691,17.919,2.9091,0.05,7.5855e-07,7.5802,5.8247e-07,4.3765,-1.2678e-14,6.3423e-06,-5.8247e-07,-4.3764,1.927
15692,18.196,2.9091,0,0.0001278,1277.2,4.4487e-05,27.765,4.0793e-05,0.013526,-0.00012731,-1263,1.9715
15693,18.103,2.8182,0,0.00012991,1298.2,4.5123e-05,27.031,4.1527e-05,0.013205,-0.00012943,-1284.5,1.9566
15694,18.103,2.9091,0.05,7.557e-07,7.5518,5.8029e-07,4.36,-1.3753e-14,6.5717e-06,-5.8029e-07,-4.36,1.9566
15695,18.38,2.9091,0,0.00012359,1235.1,4.3213e-05,29.165,3.9333e-05,0.014033,-0.00012307,-1220.2,2.0012
15696,18.288,2.8182,0,0.00012569,1256,4.3839e-05,28.375,4.0065e-05,0.013702,-0.00012518,-1241.6,1.9863
15697,18.288,2.9091,0.05,7.5293e-07,7.5241,5.7815e-07,4.344,-1.4912e-14,7.9941e-06,-5.7815e-07,-4.344,1.9863
15698,18.564,2.9091,0,0.00011941,1193.2,4.1956e-05,30.669,3.7876e-05,0.014569,-0.00011885,-1177.6,2.0311
15699,18.472,2.8182,0,0.00012149,1214.1,4.2573e-05,29.817,3.8606e-05,0.014218,-0.00012095,-1198.9,2.0161
15700,18.472,2.9091,0.05,7.5022e-07,7.497,5.7607e-07,4.3284,-1.6015e-14,1.0609e-05,-5.7607e-07,-4.3284,2.0161
15701,18.748,2.9091,0,0.00011525,1151.7,4.0718e-05,32.287,3.6423e-05,0.015137,-0.00011467,-1135.2,2.061
15702,18.656,2.8182,0,0.00011732,1172.4,4.1325e-05,31.369,3.7152e-05,0.01477,-0.00011675,-1156.4,2.046
15703,18.656,2.9091,0.05,7.4758e-07,7.4706,5.7405e-07,4.3132,-1.6734e-14,6.7877e-06,-5.7405e-07,-4.3132,2.046
15704,18.933,2.9091,0,0.00011112,1110.4,3.9499e-05,34.03,3.4972e-05,0.015748,-0.0001105,-1093,2.091
15705,18.841,2.8182,0,0.00011317,1130.9,4.0095e-05,33.04,3.57e-05,0.015351,-0.00011257,-1114.1,2.076
15706,18.841,2.9091,0.05,7.4501e-07,7.445,5.7208e-07,4.2984,-1.9092e-14,5.5786e-06,-5.7208e-07,-4.2984,2.076
15707,19.117,2.9091,0,0.00010702,1069.5,3.8301e-05,35.909,3.3524e-05,0.016424,-0.00010636,-1051,2.1211
15708,19.025,2.8182,0,0.00010906,1089.8,3.8885e-05,34.84,3.4251e-05,0.015993,-0.00010842,-1072,2.106
15709,19.025,2.9091,0.05,7.4253e-07,7.4202,5.7017e-07,4.2841,4.3367e-13,7.9481e-06,-5.7017e-07,-4.284,2.106
15710,19.301,2.9091,0,0.00010295,1028.8,3.7125e-05,37.935,3.2078e-05,0.017155,-0.00010225,-1009.3,2.1512
15711,19.209,2.8182,0,0.00010497,1049,3.7697e-05,36.781,3.2804e-05,0.016702,-0.0001043,-1030.1,2.1361
15712,19.209,2.9091,0.05,7.4015e-07,7.3964,5.6834e-07,4.2703,-2.3028e-14,7.456e-06,-5.6834e-07,-4.2703,2.1361
15713,19.485,2.9091,0,9.891e-05,988.42,3.5972e-05,40.121,3.0634e-05,0.017942,-9.8166e-05,-967.74,2.1815
15714,19.393,2.8182,0,0.00010092,1008.5,3.6531e-05,38.874,3.1359e-05,0.017455,-0.0001002,-988.45,2.1663
15715,19.393,2.9091,0.05,7.3787e-07,7.3736,5.666e-07,4.2572,-2.5442e-14,8.3922e-06,-5.666e-07,-4.2572,2.1663
15716,19.67,2.9091,0,9.4903e-05,948.38,3.4843e-05,42.481,2.9192e-05,0.018791,-9.4109e-05,-926.41,2.2117
15717,19.578,2.8182,0,9.6891e-05,968.24,3.5389e-05,41.133,2.9916e-05,0.018272,-9.6126e-05,-947.01,2.1966
15718,19.578,2.9091,0.05,7.3571e-07,7.3521,5.6494e-07,4.2447,-4.8227e-13,8.3761e-06,-5.6494e-07,-4.2447,2.1966
15719,19.854,2.9091,0,9.0929e-05,908.66,3.374e-05,45.028,2.775e-05,0.019718,-9.0079e-05,-885.3,2.2421
15720,19.762,2.8182,0,9.2899e-05,928.35,3.4271e-05,43.572,2.8475e-05,0.019151,-9.2081e-05,-905.79,2.2269
15721,19.762,2.9091,0.05,7.3368e-07,7.3317,5.6338e-07,4.233,-2.9093e-14,6.9346e-06,-5.6337e-07,-4.233,2.2269
15722,20.038,2.9091,0,8.6989e-05,869.29,3.2665e-05,47.779,2.6309e-05,0.020745,-8.6077e-05,-844.41,2.2725
15723,19.946,2.8182,0,8.8941e-05,888.79,3.3181e-05,46.205,2.7034e-05,0.020126,-8.8064e-05,-864.78,2.2573
15724,19.946,2.9091,0.05,7.3178e-07,7.3128,5.6192e-07,4.222,-2.905e-14,3.596e-06,-5.6192e-07,-4.222,2.2573
15725,20.223,2.9091,0,8.3085e-05,830.27,3.1619e-05,50.749,2.4868e-05,0.021874,-8.2105e-05,-803.72,2.303
15726,20.13,2.8182,0,8.5017e-05,849.58,3.2118e-05,49.048,2.5593e-05,0.021205,-8.4076e-05,-823.99,2.2877
15727,20.13,2.9091,0.05,7.3005e-07,7.2955,5.6059e-07,4.2121,-3.0478e-14,5.9696e-06,-5.6059e-07,-4.212,2.2877
15728,20.407,2.9091,0,7.9217e-05,791.62,3.0603e-05,53.955,2.3425e-05,0.023113,-7.8161e-05,-763.26,2.3335
15729,20.315,2.8182,0,8.113e-05,810.74,3.1085e-05,52.118,2.4152e-05,0.022382,-8.0117e-05,-783.41,2.3182
15730,20.315,2.9091,0.05,7.285e-07,7.28,5.594e-07,4.2031,-4.8569e-13,8.3508e-06,-5.594e-07,-4.2031,2.3182
15731,20.591,2.9091,0,7.5388e-05,753.36,2.962e-05,57.416,2.1982e-05,0.024479,-7.4247e-05,-723,2.3641
15732,20.499,2.8182,0,7.728e-05,772.26,3.0084e-05,55.432,2.2709e-05,0.023682,-7.6187e-05,-743.04,2.3488
15733,20.499,2.9091,0.05,7.2715e-07,7.2665,5.5836e-07,4.1953,-2.5494e-13,8.8528e-06,-5.5836e-07,-4.1953,2.3488
15734,20.775,2.9091,0,7.1599e-05,715.5,2.8671e-05,61.151,2.0536e-05,0.026,-7.0362e-05,-682.95,2.3947
15735,20.683,2.8182,0,7.3469e-05,734.18,2.9115e-05,59.008,2.1265e-05,0.025116,-7.2287e-05,-702.89,2.3794
15736,20.683,2.9091,0.05,7.2602e-07,7.2552,5.575e-07,4.1888,-4.8127e-13,9.8149e-06,-5.5749e-07,-4.1888,2.3794
15737,20.96,2.9091,0,6.7853e-05,678.06,2.7759e-05,65.178,1.9088e-05,0.027713,-6.6508e-05,-643.11,2.4254
15738,20.867,2.8182,0,6.9699e-05,696.51,2.8182e-05,62.867,1.9819e-05,0.026728,-6.8416e-05,-662.93,2.4101
15739,20.867,2.9091,0.05,7.2515e-07,7.2465,5.5682e-07,4.1838,-2.5534e-13,9.3275e-06,-5.5682e-07,-4.1837,2.4101
15740,21.144,2.9091,0,6.4151e-05,641.06,2.6884e-05,69.519,1.7635e-05,0.029643,-6.2684e-05,-603.46,2.4561
15741,21.052,2.8182,0,6.5973e-05,659.27,2.7286e-05,67.028,1.8369e-05,0.028548,-6.4576e-05,-623.18,2.4408
15742,21.052,2.9091,0.05,7.2456e-07,7.2406,5.5637e-07,4.1804,-2.5926e-13,7.3899e-06,-5.5637e-07,-4.1803,2.4408
15743,21.328,2.9091,0,6.0495e-05,604.53,2.6048e-05,74.194,1.6178e-05,0.03183,-5.889e-05,-564,2.4869
15744,21.236,2.8182,0,6.2292e-05,622.49,2.6428e-05,71.511,1.6915e-05,0.030597,-6.0766e-05,-583.63,2.4715
15745,21.236,2.9091,0.05,7.2429e-07,7.2379,5.5617e-07,4.1788,-2.6276e-13,6.4098e-06,-5.5617e-07,-4.1788,2.4715
15746,21.512,2.9091,0,5.6889e-05,568.5,2.5254e-05,79.223,1.4715e-05,0.034333,-5.5126e-05,-524.72,2.5177
15747,21.42,2.8182,0,5.8659e-05,586.18,2.5611e-05,76.338,1.5455e-05,0.032933,-5.6985e-05,-544.26,2.5023
15748,21.42,2.9091,0.05,7.2439e-07,7.2389,5.5625e-07,4.1794,-4.9407e-13,3.5202e-06,-5.5624e-07,-4.1794,2.5023
15749,21.697,2.9091,0,5.3337e-05,533,2.4504e-05,84.628,1.3245e-05,0.037233,-5.139e-05,-485.61,2.5486
15750,21.605,2.8182,0,5.5077e-05,550.39,2.4836e-05,81.53,1.399e-05,0.035619,-5.3235e-05,-505.06,2.5331
15751,21.605,2.9091,0.05,7.249e-07,7.244,5.5663e-07,4.1823,-2.6623e-13,5.4305e-06,-5.5663e-07,-4.1823,2.5331
15752,21.881,2.9091,0,4.9842e-05,498.07,2.3797e-05,90.427,1.1767e-05,0.040644,-4.7683e-05,-446.65,2.5794
15753,21.789,2.8182,0,5.155e-05,515.15,2.4105e-05,87.105,1.2517e-05,0.038757,-4.9513e-05,-466.03,2.564
15754,21.789,2.9091,0.05,7.2586e-07,7.2536,5.5737e-07,4.1879,-3.2618e-14,6.4315e-06,-5.5737e-07,-4.1879,2.564
15755,22.065,2.9091,0,4.6409e-05,463.77,2.3136e-05,96.64,1.028e-05,0.044707,-4.4003e-05,-407.82,2.6104
15756,21.973,2.8182,0,4.8084e-05,480.51,2.3419e-05,93.086,1.1036e-05,0.042472,-4.5819e-05,-427.14,2.5949
15757,21.973,2.9091,0.05,7.2734e-07,7.2684,5.5851e-07,4.1964,-3.7887e-14,1.0207e-05,-5.585e-07,-4.1964,2.5949
15758,22.249,2.9091,0,4.3045e-05,430.16,2.2522e-05,103.28,8.7829e-06,0.049629,-4.0348e-05,-369.1,2.6413
15759,22.157,2.8182,0,4.4683e-05,446.52,2.2779e-05,99.489,9.5443e-06,0.046931,-4.2151e-05,-388.37,2.6258
15760,22.157,2.9091,0.05,7.2938e-07,7.2888,5.6007e-07,4.2082,-4.1668e-14,1.1131e-05,-5.6007e-07,-4.2081,2.6258
15761,22.434,2.9091,0,3.976e-05,397.33,2.1955e-05,110.37,7.2734e-06,0.055745,-3.6715e-05,-330.46,2.6723
15762,22.342,2.8182,0,4.1355e-05,413.27,2.2187e-05,106.33,8.0418e-06,0.052389,-3.8507e-05,-349.69,2.6568
15763,22.342,2.9091,0.05,7.3204e-07,7.3153,5.6212e-07,4.2235,-3.2955e-14,9.2888e-06,-5.6211e-07,-4.2235,2.6568
15764,22.618,2.9091,0,3.6565e-05,365.39,2.1436e-05,117.92,5.7506e-06,0.063489,-3.3102e-05,-291.86,2.7033
15765,22.526,2.8182,0,3.8111e-05,380.85,2.1641e-05,113.63,6.5267e-06,0.059275,-3.4885e-05,-311.09,2.6878
15766,22.526,2.9091,0.05,7.3537e-07,7.3486,5.6467e-07,4.2427,-2.6283e-13,5.4563e-06,-5.6467e-07,-4.2427,2.6877
15767,22.802,2.9091,0,3.3476e-05,334.53,2.0963e-05,125.93,4.213e-06,0.0739,-2.9506e-05,-253.28,2.7343
15768,22.71,2.8182,0,3.4965e-05,349.41,2.1144e-05,121.38,4.9976e-06,0.068057,-3.1281e-05,-272.52,2.7188
15769,22.71,2.9091,0.05,7.3942e-07,7.3891,5.6778e-07,4.2661,-7.2637e-13,1.5745e-06,-5.6778e-07,-4.2661,2.7187
15770,22.987,2.9091,0,3.0518e-05,304.97,2.0536e-05,134.4,2.6593e-06,0.08742,-2.5923e-05,-214.67,2.7653
15771,22.894,2.8182,0,3.1937e-05,319.15,2.0693e-05,129.61,3.4531e-06,0.08041,-2.7693e-05,-233.94,2.7498
15772,22.894,2.9091,0.05,7.4421e-07,7.437,5.7146e-07,4.2938,-4.2827e-14,-3.2095e-07,-5.7146e-07,-4.2937,2.7498
15773,23.171,2.9091,0,2.7724e-05,277.05,2.0154e-05,143.36,1.0888e-06,0.11036,-2.2349e-05,-175.99,2.7964
15774,23.079,2.8182,0,2.9054e-05,290.34,2.0288e-05,138.31,1.8918e-06,0.095692,-2.4115e-05,-195.31,2.7808
15775,23.079,2.9091,0.05,7.4978e-07,7.4926,5.7574e-07,4.3259,-2.608e-13,3.5635e-06,-5.7573e-07,-4.3258,2.7808
15776,23.355,2.9091,0,2.5142e-05,251.24,1.9814e-05,152.77,-5.006e-07,0.1336,-1.8779e-05,-137.21,2.8274
15777,23.263,2.8182,0,2.6357e-05,263.39,1.9927e-05,147.49,3.1351e-07,0.12755,-2.0546e-05,-156.6,2.8119
15778,23.263,2.9091,0.05,7.5611e-07,7.5559,5.806e-07,4.3624,-4.8577e-13,1.6736e-06,-5.806e-07,-4.3624,2.8119
15779,23.539,2.9091,0,2.2838e-05,228.22,1.9515e-05,162.66,-2.1033e-06,0.23097,-1.5213e-05,-98.269,2.8585
15780,23.447,2.8182,0,2.3903e-05,238.86,1.9607e-05,157.13,-1.2852e-06,0.14542,-1.6978e-05,-117.76,2.843
15781,23.447,2.9091,0.05,7.6316e-07,7.6263,5.8601e-07,4.4031,-4.8025e-13,3.6224e-06,-5.8601e-07,-4.4031,2.843
15782,23.724,2.9091,0,2.0901e-05,208.87,1.9253e-05,172.93,-3.7324e-06,0.22939,-1.1644e-05,-59.212,2.8896
15783,23.631,2.8182,0,2.1769e-05,217.54,1.9328e-05,167.27,-2.8894e-06,0.33312,-1.3416e-05,-78.759,2.8741
15784,23.631,2.9091,0.05,7.7089e-07,7.7036,5.9195e-07,4.4477,-2.5287e-13,1.7163e-06,-5.9195e-07,-4.4477,2.8741
15785,23.816,2.8182,0,2.0057e-05,200.43,1.9084e-05,177.66,-4.5332e-06,0.21183,-9.8508e-06,-39.743,2.9052
15786,23.816,2.9091,0.05,7.8009e-07,7.7955,5.9901e-07,4.5007,-2.4793e-13,-1.5438e-07,-5.9901e-07,-4.5007,2.9051
15787,23.908,2.9091,0,1.952e-05,195.07,1.9047e-05,183.1,-5.2649e-06,0.43089,-8.2985e-06,-22.362,2.9207
15788,1.2431,2.7273,0,0.0012284,12275,0.00046753,-1.0466,0.00029587,-1290.9,-0.0012453,-12870,0.021494
15789,1.1509,2.6364,0,0.0013259,13250,0.00049344,3.7151,0.00034026,-1147.2,-0.0013416,-13784,0.01825
15790,1.1509,2.7273,0.05,2.2771e-05,227.56,1.7486e-05,131.38,1.0344e-11,0.00034085,-1.7486e-05,-131.38,0.018341
15791,1.4273,2.7273,0,0.0010934,10926,0.00042287,1.1174,0.00025114,-1289.2,-0.0011095,-11513,0.028254
15792,1.3352,2.6364,0,0.001168,11672,0.00044215,1.9273,0.00028605,-1171,-0.0011835,-12212,0.024621
15793,1.3352,2.7273,0.05,2.3756e-05,237.39,1.8242e-05,137.06,-2.7902e-12,0.00021117,-1.8241e-05,-137.06,0.024695
15794,1.6116,2.7273,0,0.00096852,9678.5,0.00038221,1.9565,0.0002083,-1304.8,-0.00098404,-10264,0.035764
15795,1.5195,2.6364,0,0.0010217,10210,0.00039607,2.0762,0.00023307,-1222.7,-0.0010369,-10765,0.031793
15796,1.5195,2.7273,0.05,2.1617e-05,216.02,1.6599e-05,124.72,1.2955e-12,0.00014312,-1.6599e-05,-124.72,0.031846
15797,1.7959,2.7273,0,0.00086499,8643.9,0.00034737,1.7612,0.00017464,-1296,-0.00087966,-9217.6,0.04394
15798,1.7037,2.6364,0,0.00090348,9028.6,0.00035768,2.2327,0.00019221,-1241,-0.00091811,-9583.5,0.039667
15799,1.7037,2.7273,0.05,1.8299e-05,182.86,1.4051e-05,105.58,1.5998e-12,0.00013121,-1.4051e-05,-105.57,0.039703
15800,1.9801,2.7273,0,0.0007831,7825.6,0.00031832,1.4063,0.00015075,-1257.7,-0.00079683,-8377.4,0.052712
15801,1.888,2.6364,0,0.00081188,8113.2,0.0003263,1.8119,0.00016343,-1222,-0.00082568,-8653.7,0.048164
15802,1.888,2.7273,0.05,1.503e-05,150.19,1.1541e-05,86.714,3.851e-12,9.9432e-05,-1.1541e-05,-86.714,0.048189
15803,2.1644,2.7273,0,0.0007194,7189.1,0.00029433,1.0629,0.00013479,-1197.6,-0.00073222,-7712,0.062024
15804,2.0723,2.6364,0,0.00074153,7410.2,0.00030075,1.3125,0.00014403,-1176.2,-0.00075446,-7927.1,0.057223
15805,2.0723,2.7273,0.05,1.2216e-05,122.08,9.3807e-06,70.483,5.9237e-12,9.1501e-05,-9.3807e-06,-70.482,0.05724
15806,2.3487,2.7273,0,0.00067,6695.3,0.00027453,0.76744,0.00012472,-1124.9,-0.00068198,-7186,0.071833
15807,2.2565,2.6364,0,0.00068738,6869.1,0.00027985,0.96343,0.00013145,-1114,-0.00069949,-7357.4,0.066796
15808,2.2565,2.7273,0.05,9.9168e-06,99.099,7.6148e-06,57.215,7.0836e-12,0.00010329,-7.6148e-06,-57.215,0.066809
15809,2.5329,2.7273,0,0.00063154,6311,0.00025812,0.54484,0.00011879,-1046.3,-0.00064278,-6768.4,0.082105
15810,2.4408,2.6364,0,0.00064543,6449.9,0.00026262,0.68765,0.00012369,-1043.1,-0.0006568,-6907.4,0.076844
15811,2.4408,2.7273,0.05,8.0795e-06,80.74,6.2041e-06,46.615,4.0353e-12,9.198e-05,-6.2041e-06,-46.615,0.076856
15812,2.7172,2.7273,0,0.00060139,6009.8,0.00024444,0.38203,0.00011573,-966.64,-0.00061196,-6434.3,0.092813
15813,2.6251,2.6364,0,0.00061266,6122.4,0.0002483,0.48863,0.00011928,-968.94,-0.00062335,-6548.8,0.087339
15814,2.6251,2.7273,0.05,6.6257e-06,66.211,5.0877e-06,38.227,5.0357e-12,6.4451e-05,-5.0877e-06,-38.227,0.087351
15815,2.9015,2.7273,0,0.00057755,5771.5,0.00023294,0.26513,0.00011461,-888.79,-0.00058751,-6164.2,0.10394
15816,2.8093,2.6364,0,0.00058681,5864.1,0.0002363,0.34433,0.00011716,-894.85,-0.00059688,-6259.9,0.098259
15817,2.8093,2.7273,0.05,5.4789e-06,54.751,4.2071e-06,31.611,5.4386e-12,6.1765e-05,-4.2071e-06,-31.611,0.098272
15818,3.0857,2.7273,0,0.00055849,5581.1,0.00022318,0.18209,0.00011476,-814.47,-0.00056786,-5943.4,0.11546
15819,2.9936,2.6364,0,0.00056621,5658.2,0.00022615,0.24097,0.00011657,-823.06,-0.00057569,-6024.5,0.10958
15820,2.9936,2.7273,0.05,4.5747e-06,45.716,3.5128e-06,26.394,4.193e-12,4.3307e-05,-3.5128e-06,-26.394,0.1096
15821,3.27,2.7273,0,0.00054306,5426.8,0.00021483,0.12339,0.00011571,-744.63,-0.00055187,-5760.6,0.12737
15822,3.1779,2.6364,0,0.00054957,5492,0.00021747,0.16716,0.00011699,-754.82,-0.0005585,-5830.2,0.1213
15823,3.1779,2.7273,0.05,3.8609e-06,38.582,2.9647e-06,22.275,2.5499e-12,3.8737e-05,-2.9647e-06,-22.275,0.12132
15824,3.4543,2.7273,0,0.00053037,5300,0.00020761,0.082029,0.00011714,-679.7,-0.00053865,-5607,0.13965
15825,3.3621,2.6364,0,0.00053596,5355.9,0.00020999,0.1146,0.00011803,-690.8,-0.00054435,-5667.7,0.1334
15826,3.3621,2.7273,0.05,3.2962e-06,32.939,2.5311e-06,19.017,2.0935e-12,3.6713e-05,-2.5311e-06,-19.017,0.13342
15827,3.6385,2.7273,0,0.00051975,5194,0.0002013,0.052979,0.00011881,-619.77,-0.00052751,-5476,0.1523
15828,3.5464,2.6364,0,0.00052462,5242.6,0.00020346,0.077247,0.00011943,-631.31,-0.0005325,-5529.7,0.14586
15829,3.5464,2.7273,0.05,2.8485e-06,28.465,2.1873e-06,16.434,-5.6615e-14,2.7225e-05,-2.1873e-06,-16.434,0.14589
15830,3.8228,2.7273,0,0.00051071,5103.6,0.00019574,0.032667,0.00012057,-564.76,-0.00051797,-5362.5,0.16531
15831,3.7307,2.6364,0,0.00051502,5146.7,0.00019771,0.050778,0.00012099,-576.38,-0.0005224,-5410.6,0.15869
15832,3.7307,2.7273,0.05,2.4926e-06,24.909,1.914e-06,14.381,3.8934e-13,2.2457e-05,-1.914e-06,-14.381,0.15872
15833,4.0071,2.7273,0,0.00050284,5025,0.00019077,0.018562,0.0001223,-514.45,-0.00050961,-5262.4,0.17867
15834,3.9149,2.6364,0,0.00050673,5063.8,0.00019259,0.032102,0.0001226,-525.9,-0.00051362,-5306.2,0.17188
15835,3.9149,2.7273,0.05,2.2091e-06,22.076,1.6963e-06,12.745,1.4844e-12,1.4053e-05,-1.6963e-06,-12.745,0.1719
15836,4.1913,2.7273,0,0.00049586,4955.1,0.00018629,0.0088735,0.00012393,-468.55,-0.00050216,-5172.8,0.19237
15837,4.0992,2.6364,0,0.00049941,4990.6,0.00018799,0.019011,0.00012415,-479.67,-0.00050583,-5213.1,0.18541
15838,4.0992,2.7273,0.05,1.9826e-06,19.812,1.5224e-06,11.439,1.9547e-12,1.6107e-05,-1.5224e-06,-11.439,0.18544
15839,4.3756,2.7273,0,0.00048952,4891.8,0.00018222,0.0023304,0.00012542,-426.76,-0.00049538,-5091.2,0.20642
15840,4.2835,2.6364,0,0.00049282,4924.8,0.00018382,0.0099299,0.0001256,-437.43,-0.0004988,-5128.9,0.19928
15841,4.2835,2.7273,0.05,1.8012e-06,17.999,1.3831e-06,10.392,-3.9366e-13,8.8859e-06,-1.3831e-06,-10.392,0.19931
15842,4.5599,2.7273,0,0.00048366,4833.3,0.00017848,-0.0019741,0.00012674,-388.74,-0.0004891,-5015.9,0.2208
15843,4.4677,2.6364,0,0.00048677,4864.3,0.00017999,0.0037266,0.0001269,-398.9,-0.00049232,-5051.5,0.2135
15844,4.4677,2.7273,0.05,1.6554e-06,16.542,1.2711e-06,9.5508,-1.1307e-12,1.1849e-05,-1.2711e-06,-9.5507,0.21353
15845,4.7441,2.7273,0,0.00047815,4778.2,0.00017501,-0.0046889,0.00012787,-354.18,-0.00048319,-4945.5,0.23552
15846,4.652,2.6364,0,0.00048111,4807.8,0.00017645,-0.00041202,0.00012803,-363.8,-0.00048626,-4979.3,0.22805
15847,4.652,2.7273,0.05,1.5379e-06,15.368,1.1809e-06,8.8728,-1.557e-12,-2.2045e-07,-1.1809e-06,-8.8728,0.22808
15848,4.9284,2.7273,0,0.00047289,4725.6,0.00017177,-0.0062797,0.00012881,-322.77,-0.00047755,-4878.7,0.25056
15849,4.8363,2.6364,0,0.00047573,4754.1,0.00017314,-0.0030734,0.00012898,-331.82,-0.00048051,-4911.3,0.24293
15850,4.8363,2.7273,0.05,1.4428e-06,14.418,1.1079e-06,8.3242,-1.8643e-13,6.6739e-06,-1.1079e-06,-8.324,0.24296
15851,5.1127,2.7273,0,0.00046779,4674.7,0.00016872,-0.0070826,0.00012956,-294.23,-0.0004721,-4814.9,0.26593
15852,5.0205,2.6364,0,0.00047056,4702.3,0.00017004,-0.0046825,0.00012975,-302.71,-0.00047498,-4846.4,0.25813
15853,5.0205,2.7273,0.05,1.3655e-06,13.645,1.0485e-06,7.8781,-2.2474e-12,3.5071e-06,-1.0485e-06,-7.878,0.25817
15854,5.2969,2.7273,0,0.00046282,4625,0.00016582,-0.0073391,0.00013012,-268.28,-0.0004668,-4753.3,0.28162
15855,5.2048,2.6364,0,0.00046552,4652,0.0001671,-0.0055476,0.00013034,-276.2,-0.0004696,-4783.9,0.27366
15856,5.2048,2.7273,0.05,1.3023e-06,13.014,1e-06,7.5136,-2.52e-12,4.3968e-06,-1e-06,-7.5136,0.2737
15857,5.4812,2.7273,0,0.00045791,4576,0.00016307,-0.0072232,0.00013051,-244.67,-0.00046158,-4693.4,0.29762
15858,5.3891,2.6364,0,0.00046057,4602.6,0.0001643,-0.0058922,0.00013076,-252.05,-0.00046434,-4723.4,0.28951
15859,5.3891,2.7273,0.05,1.2504e-06,12.495,9.6014e-07,7.2142,-2.669e-12,1.8284e-06,-9.6014e-07,-7.2141,0.28954
15860,5.6655,2.7273,0,0.00045305,4527.4,0.00016043,-0.0068604,0.00013072,-223.18,-0.00045644,-4634.9,0.31394
15861,5.5733,2.6364,0,0.00045568,4553.7,0.00016163,-0.0058778,0.00013101,-230.05,-0.00045916,-4664.3,0.30567
15862,5.5733,2.7273,0.05,1.2074e-06,12.066,9.2717e-07,6.9664,7.7767e-13,4.3804e-06,-9.2716e-07,-6.9663,0.30571
15863,5.8497,2.7273,0,0.00044821,4479,0.00015788,-0.0063405,0.00013078,-203.61,-0.00045133,-4577.4,0.33057
15864,5.7576,2.6364,0,0.00045082,4505.1,0.00015905,-0.0056219,0.0001311,-209.99,-0.00045402,-4606.4,0.32214
15865,5.7576,2.7273,0.05,1.1717e-06,11.708,8.9969e-07,6.7599,6.5842e-13,4.8489e-06,-8.9968e-07,-6.7599,0.32218
15866,6.034,2.7273,0,0.00044338,4430.7,0.00015542,-0.005727,0.0001307,-185.77,-0.00044625,-4520.7,0.34751
15867,5.9419,2.6364,0,0.00044597,4456.6,0.00015656,-0.0052087,0.00013105,-191.68,-0.00044892,-4549.4,0.33893
15868,5.9419,2.7273,0.05,1.1416e-06,11.408,8.766e-07,6.5864,-3.0769e-12,2.2357e-06,-8.766e-07,-6.5864,0.33897
15869,6.2183,2.7273,0,0.00043854,4382.4,0.00015303,-0.0050648,0.00013047,-169.49,-0.00044118,-4464.7,0.36474
15870,6.1261,2.6364,0,0.00044112,4408.2,0.00015415,-0.0046984,0.00013086,-174.97,-0.00044384,-4493.1,0.35601
15871,6.1261,2.7273,0.05,1.1161e-06,11.153,8.5704e-07,6.4395,-1.3318e-12,3.5692e-06,-8.5704e-07,-6.4395,0.35605
15872,6.4025,2.7273,0,0.00043369,4333.9,0.00015071,-0.0043852,0.00013013,-154.63,-0.00043611,-4409.1,0.38228
15873,6.3104,2.6364,0,0.00043626,4359.6,0.00015181,-0.0041339,0.00013055,-159.71,-0.00043876,-4437.3,0.3734
15874,6.3104,2.7273,0.05,1.0943e-06,10.936,8.4031e-07,6.3138,-1.3988e-12,3.1899e-06,-8.4031e-07,-6.3137,0.37344
15875,6.5868,2.7273,0,0.00042882,4285.2,0.00014844,-0.0037091,0.00012967,-141.05,-0.00043105,-4354,0.40012
15876,6.4947,2.6364,0,0.00043139,4311,0.00014952,-0.0035453,0.00013012,-145.74,-0.00043369,-4382,0.39109
15877,6.4947,2.7273,0.05,1.0755e-06,10.748,8.2586e-07,6.2052,-1.4592e-12,2.6907e-06,-8.2586e-07,-6.2052,0.39113
15878,6.7711,2.7273,0,0.00042393,4236.4,0.00014622,-0.0030506,0.0001291,-128.63,-0.00042598,-4299.3,0.41824
15879,6.6789,2.6364,0,0.00042651,4262.1,0.00014728,-0.0029529,0.00012959,-132.97,-0.00042861,-4327,0.40907
15880,6.6789,2.7273,0.05,1.0591e-06,10.584,8.1327e-07,6.1106,3.1804e-13,2.3534e-06,-8.1326e-07,-6.1106,0.40911
15881,6.9553,2.7273,0,0.00041903,4187.4,0.00014405,-0.002419,0.00012844,-117.25,-0.0004209,-4244.8,0.43666
15882,6.8632,2.6364,0,0.0004216,4213.1,0.00014509,-0.0023709,0.00012895,-121.27,-0.00042353,-4272.4,0.42734
15883,6.8632,2.7273,0.05,1.0447e-06,10.439,8.0217e-07,6.0272,-1.5405e-12,3.0353e-06,-8.0217e-07,-6.0272,0.42738
15884,7.1396,2.7273,0,0.0004141,4138.2,0.00014191,-0.001819,0.00012769,-106.84,-0.00041582,-4190.5,0.45536
15885,7.0475,2.6364,0,0.00041667,4163.8,0.00014294,-0.0018084,0.00012823,-110.55,-0.00041844,-4218,0.4459
15886,7.0475,2.7273,0.05,1.0318e-06,10.311,7.923e-07,5.953,2.493e-13,1.8617e-06,-7.923e-07,-5.953,0.44594
15887,7.3239,2.7273,0,0.00040916,4088.7,0.00013981,-0.0012529,0.00012686,-97.288,-0.00041072,-4136.5,0.47435
15888,7.2317,2.6364,0,0.00041173,4114.4,0.00014083,-0.0012706,0.00012742,-100.72,-0.00041335,-4163.9,0.46475
15889,7.2317,2.7273,0.05,1.0203e-06,10.196,7.8344e-07,5.8864,2.2438e-13,2.6089e-06,-7.8343e-07,-5.8864,0.46479
15890,7.5081,2.7273,0,0.00040419,4039.1,0.00013774,-0.00072189,0.00012596,-88.527,-0.00040563,-4082.7,0.49361
15891,7.416,2.6364,0,0.00040676,4064.8,0.00013875,-0.00076044,0.00012654,-91.696,-0.00040825,-4109.9,0.48387
15892,7.416,2.7273,0.05,1.0098e-06,10.091,7.7541e-07,5.8261,1.9923e-13,1.5228e-06,-7.754e-07,-5.8261,0.48391
15893,7.6924,2.7273,0,0.00039921,3989.4,0.00013571,-0.00022525,0.000125,-80.485,-0.00040052,-4029,0.51315
15894,7.6003,2.6364,0,0.00040179,4015.1,0.0001367,-0.00027969,0.0001256,-83.413,-0.00040314,-4056.1,0.50327
15895,7.6003,2.7273,0.05,1.0002e-06,9.9955,7.6807e-07,5.7709,1.7825e-13,4.205e-06,-7.6806e-07,-5.7709,0.50331
15896,7.8767,2.7273,0,0.00039422,3939.5,0.0001337,0.00023811,0.00012397,-73.097,-0.00039541,-3975.5,0.53296
15897,7.7845,2.6364,0,0.00039679,3965.2,0.00013468,0.00017224,0.00012459,-75.803,-0.00039803,-4002.5,0.52295
15898,7.7845,2.7273,0.05,9.9143e-07,9.9075,7.613e-07,5.7201,-1.6588e-12,3.1031e-06,-7.613e-07,-5.7201,0.52299
15899,8.0609,2.7273,0,0.00038921,3889.5,0.00013171,0.00066933,0.00012289,-66.307,-0.0003903,-3922.2,0.55304
15900,7.9688,2.6364,0,0.00039179,3915.2,0.00013268,0.00059557,0.00012353,-68.807,-0.00039291,-3949.1,0.54289
15901,7.9688,2.7273,0.05,9.8326e-07,9.8258,7.5502e-07,5.6729,-1.6749e-12,2.0294e-06,-7.5502e-07,-5.6729,0.54294
15902,8.2452,2.7273,0,0.0003842,3839.3,0.00012975,0.0010716,0.00012176,-60.063,-0.00038519,-3869,0.57338
15903,8.1531,2.6364,0,0.00038677,3865,0.00013071,0.00099148,0.00012241,-62.373,-0.00038779,-3895.8,0.56311
15904,8.1531,2.7273,0.05,9.7561e-07,9.7494,7.4915e-07,5.6288,1.293e-13,9.6922e-07,-7.4915e-07,-5.6288,0.56315
15905,8.4295,2.7273,0,0.00037917,3789.1,0.00012781,0.0014463,0.00012058,-54.319,-0.00038007,-3816,0.59399
15906,8.3373,2.6364,0,0.00038174,3814.8,0.00012876,0.0013621,0.00012125,-56.453,-0.00038267,-3842.7,0.58358
15907,8.3373,2.7273,0.05,9.6842e-07,9.6776,7.4363e-07,5.5874,-7.9277e-13,2.7978e-06,-7.4363e-07,-5.5873,0.58362
15908,8.6137,2.7273,0,0.00037414,3738.9,0.00012589,0.0017956,0.00011936,-49.031,-0.00037495,-3763.1,0.61485
15909,8.5216,2.6364,0,0.00037671,3764.5,0.00012683,0.0017085,0.00012004,-51.003,-0.00037755,-3789.8,0.60432
15910,8.5216,2.7273,0.05,9.6163e-07,9.6096,7.3841e-07,5.5481,-8.029e-13,2.7087e-06,-7.3841e-07,-5.5481,0.60436
15911,8.798,2.7273,0,0.00036911,3688.5,0.00012399,0.0021218,0.00011811,-44.161,-0.00036984,-3710.4,0.63597
15912,8.7059,2.6364,0,0.00037168,3714.2,0.00012492,0.0020335,0.0001188,-45.984,-0.00037244,-3737,0.62531
15913,8.7059,2.7273,0.05,9.5517e-07,9.5451,7.3345e-07,5.5109,9.6072e-14,2.6281e-06,-7.3345e-07,-5.5109,0.62535
15914,8.9823,2.7273,0,0.00036407,3638.2,0.0001221,0.0024267,0.00011682,-39.674,-0.00036473,-3657.9,0.65734
15915,8.8901,2.6364,0,0.00036663,3663.8,0.00012303,0.0023372,0.00011753,-41.36,-0.00036732,-3684.3,0.64656
15916,8.8901,2.7273,0.05,9.4901e-07,9.4836,7.2872e-07,5.4754,-1.7321e-12,2.5609e-06,-7.2872e-07,-5.4753,0.6466
15917,9.1665,2.7273,0,0.00035903,3587.8,0.00012024,0.0027131,0.00011551,-35.539,-0.00035962,-3605.5,0.67896
15918,9.0744,2.6364,0,0.00036159,3613.4,0.00012116,0.0026236,0.00011622,-37.098,-0.00036221,-3631.8,0.66805
15919,9.0744,2.7273,0.05,9.4311e-07,9.4246,7.2419e-07,5.4413,7.7998e-14,2.4928e-06,-7.2419e-07,-5.4413,0.66809
15920,9.3508,2.7273,0,0.00035399,3537.5,0.00011839,0.0029821,0.00011416,-31.725,-0.00035452,-3553.2,0.70082
15921,9.2587,2.6364,0,0.00035655,3563,0.0001193,0.0028926,0.00011489,-33.167,-0.0003571,-3579.5,0.68979
15922,9.2587,2.7273,0.05,9.3744e-07,9.3679,7.1984e-07,5.4086,-8.3965e-13,1.7228e-06,-7.1984e-07,-5.4086,0.68983
15923,9.5351,2.7273,0,0.00034895,3487.1,0.00011655,0.0032349,0.0001128,-28.208,-0.00034943,-3501.2,0.72292
15924,9.4429,2.6364,0,0.00035151,3512.7,0.00011746,0.0031469,0.00011353,-29.542,-0.000352,-3527.3,0.71178
15925,9.4429,2.7273,0.05,9.3197e-07,9.3133,7.1564e-07,5.377,6.2148e-14,2.3791e-06,-7.1564e-07,-5.377,0.71181
15926,9.7193,2.7273,0,0.00034392,3436.8,0.00011473,0.0034768,0.00011141,-24.962,-0.00034434,-3449.2,0.74526
15927,9.6272,2.6364,0,0.00034647,3462.3,0.00011563,0.0033865,0.00011214,-26.197,-0.00034691,-3475.3,0.734
15928,9.6272,2.7273,0.05,9.2668e-07,9.2604,7.1158e-07,5.3465,-8.5427e-13,2.804e-06,-7.1158e-07,-5.3465,0.73404
15929,9.9036,2.7273,0,0.00033889,3386.6,0.00011292,0.0037068,0.00011,-21.965,-0.00033926,-3397.5,0.76784
15930,9.8115,2.6364,0,0.00034144,3412,0.00011382,0.0036217,0.00011074,-23.109,-0.00034182,-3423.5,0.75646
15931,9.8115,2.7273,0.05,9.2155e-07,9.2092,7.0764e-07,5.3169,-8.5973e-13,2.7562e-06,-7.0764e-07,-5.3169,0.75649
15932,10.088,2.7273,0,0.00033387,3336.4,0.00011113,0.0039228,0.00010857,-19.197,-0.00033419,-3345.9,0.79064
15933,9.9957,2.6364,0,0.00033641,3361.7,0.00011202,0.0038397,0.00010932,-20.257,-0.00033675,-3371.8,0.77915
15934,9.9957,2.7273,0.05,9.1658e-07,9.1594,7.0382e-07,5.2882,4.4194e-14,2.4763e-06,-7.0381e-07,-5.2882,0.77918
15935,10.272,2.7273,0,0.00032885,3286.2,0.00010934,0.0041348,0.00010713,-16.64,-0.00032913,-3294.5,0.81367
15936,10.18,2.6364,0,0.00033138,3311.5,0.00011023,0.0040496,0.00010788,-17.621,-0.00033168,-3320.3,0.80207
15937,10.18,2.7273,0.05,9.1173e-07,9.111,7.001e-07,5.2602,3.8579e-14,3.5097e-06,-7.0009e-07,-5.2602,0.8021
15938,10.456,2.7273,0,0.00032384,3236.2,0.00010757,0.0043205,0.00010567,-14.275,-0.00032408,-3243.3,0.83693
15939,10.364,2.6364,0,0.00032637,3261.4,0.00010845,0.004263,0.00010643,-15.185,-0.00032662,-3269,0.82521
15940,10.364,2.7273,0.05,9.07e-07,9.0638,6.9647e-07,5.233,3.4179e-14,2.7612e-06,-6.9646e-07,-5.2329,0.82524
15941,10.641,2.7273,0,0.00031884,3186.2,0.00010582,0.0044948,0.00010421,-12.088,-0.00031904,-3192.2,0.8604
15942,10.549,2.6364,0,0.00032136,3211.4,0.00010669,0.0044231,0.00010497,-12.933,-0.00032158,-3217.8,0.84857
15943,10.549,2.7273,0.05,9.0238e-07,9.0176,6.9292e-07,5.2063,2.9876e-14,2.9669e-06,-6.9292e-07,-5.2063,0.84861
15944,10.825,2.7273,0,0.00031385,3136.3,0.00010407,0.004704,0.00010273,-10.063,-0.00031402,-3141.4,0.88409
15945,10.733,2.6364,0,0.00031636,3161.5,0.00010494,0.004618,0.00010349,-10.848,-0.00031655,-3166.9,0.87216
15946,10.733,2.7273,0.05,8.9785e-07,8.9723,6.8944e-07,5.1802,2.595e-14,2.582e-06,-6.8943e-07,-5.1802,0.87219
15947,11.009,2.7273,0,0.00030887,3086.6,0.00010233,0.0049144,0.00010124,-8.1874,-0.00030901,-3090.7,0.908
15948,10.917,2.6364,0,0.00031138,3111.6,0.0001032,0.0048549,0.00010201,-8.9169,-0.00031153,-3116.1,0.89596
15949,10.917,2.7273,0.05,8.9342e-07,8.928,6.8604e-07,5.1546,2.2187e-14,2.1941e-06,-6.8604e-07,-5.1546,0.89599
15950,11.193,2.7273,0,0.0003039,3036.9,0.00010061,0.0051052,9.9748e-05,-6.4489,-0.00030401,-3040.1,0.93211
15951,11.101,2.6364,0,0.0003064,3061.9,0.00010147,0.0050611,0.00010052,-7.1278,-0.00030652,-3065.5,0.91997
15952,11.101,2.7273,0.05,8.8908e-07,8.8847,6.827e-07,5.1296,-8.9148e-13,2.0456e-06,-6.827e-07,-5.1296,0.92
15953,11.378,2.7273,0,0.00029894,2987.4,9.8891e-05,0.0052845,9.8247e-05,-4.8359,-0.00029903,-2989.8,0.95643
15954,11.286,2.6364,0,0.00030144,3012.3,9.9745e-05,0.005274,9.9017e-05,-5.4684,-0.00030153,-3015,0.94419
15955,11.286,2.7273,0.05,8.8482e-07,8.8421,6.7943e-07,5.105,-1.804e-12,1.4238e-06,-6.7943e-07,-5.105,0.94422
15956,11.562,2.7273,0,0.000294,2938,9.7186e-05,0.005494,9.6741e-05,-3.3378,-0.00029406,-2939.6,0.98095
15957,11.47,2.6364,0,0.00029649,2962.8,9.8035e-05,0.0054901,9.7512e-05,-3.928,-0.00029655,-2964.8,0.96861
15958,11.47,2.7273,0.05,8.8062e-07,8.8001,6.7621e-07,5.0808,1.1784e-14,1.8482e-06,-6.7621e-07,-5.0807,0.96864
15959,11.746,2.7273,0,0.00028907,2888.7,9.5489e-05,0.0058343,9.523e-05,-1.9448,-0.0002891,-2889.7,1.0057
15960,11.654,2.6364,0,0.00029155,2913.5,9.6334e-05,0.0058424,9.6001e-05,-2.4964,-0.00029159,-2914.7,0.99324
15961,11.654,2.7273,0.05,8.7648e-07,8.7587,6.7303e-07,5.0569,8.9761e-15,1.8249e-06,-6.7302e-07,-5.0569,0.99327
15962,11.931,2.7273,0,0.00028415,2839.5,9.3802e-05,0.0068053,9.3715e-05,-0.64845,-0.00028416,-2839.9,1.0306
15963,11.838,2.6364,0,0.00028662,2864.2,9.4643e-05,0.0066609,9.4487e-05,-1.1647,-0.00028664,-2864.8,1.0181
15964,11.838,2.7273,0.05,8.7241e-07,8.718,6.699e-07,5.0334,6.3946e-15,1.9404e-06,-6.699e-07,-5.0333,1.0181
15965,12.115,2.7273,0,0.00027925,2790.5,9.2199e-05,0.56376,9.2124e-05,0.0043377,-0.00027924,-2790.3,1.0557
15966,12.023,2.6364,0,0.00028171,2815.2,9.2973e-05,0.093751,9.2959e-05,-0.010157,-0.00028171,-2815.1,1.0431
15967,12.023,2.7273,0.05,8.684e-07,8.678,6.6682e-07,5.0102,3.825e-15,2.0254e-06,-6.6682e-07,-5.0102,1.0431
15968,12.299,2.7273,0,0.00027436,2741.7,9.068e-05,1.6927,9.0455e-05,0.0054091,-0.00027433,-2740.9,1.081
15969,12.207,2.6364,0,0.00027681,2766.2,9.1452e-05,1.2379,9.1287e-05,0.0046334,-0.00027679,-2765.6,1.0683
15970,12.207,2.7273,0.05,8.6444e-07,8.6384,6.6378e-07,4.9874,1.3759e-15,2.2754e-06,-6.6378e-07,-4.9874,1.0683
15971,12.483,2.7273,0,0.00026949,2693,8.916e-05,2.7501,8.8795e-05,0.0057172,-0.00026944,-2691.6,1.1065
15972,12.391,2.6364,0,0.00027193,2717.4,8.9931e-05,2.3209,8.9623e-05,0.0052693,-0.00027189,-2716.3,1.0937
15973,12.391,2.7273,0.05,8.6052e-07,8.5993,6.6078e-07,4.9648,-8.3425e-16,1.2641e-06,-6.6077e-07,-4.9648,1.0937
15974,12.668,2.7273,0,0.00026463,2644.5,8.764e-05,3.7422,8.7143e-05,0.0059562,-0.00026457,-2642.6,1.1322
15975,12.575,2.6364,0,0.00026707,2668.8,8.841e-05,3.3362,8.7967e-05,0.0055947,-0.00026701,-2667.1,1.1193
15976,12.575,2.7273,0.05,8.5664e-07,8.5605,6.578e-07,4.9424,-2.9064e-15,8.4243e-07,-6.578e-07,-4.9424,1.1193
15977,12.852,2.7273,0,0.00025979,2596.1,8.612e-05,4.6753,8.5499e-05,0.0061621,-0.00025971,-2593.7,1.158
15978,12.76,2.6364,0,0.00026222,2620.4,8.6889e-05,4.29,8.6319e-05,0.0058646,-0.00026214,-2618.2,1.145
15979,12.76,2.7273,0.05,8.5282e-07,8.5223,6.5486e-07,4.9204,-4.8382e-15,1.5733e-06,-6.5486e-07,-4.9203,1.1451
15980,13.036,2.7273,0,0.00025496,2547.9,8.4602e-05,5.5554,8.3863e-05,0.0063342,-0.00025487,-2545.1,1.1841
15981,12.944,2.6364,0,0.00025738,2572.1,8.5369e-05,5.1883,8.468e-05,0.0060663,-0.00025729,-2569.5,1.171
15982,12.944,2.7273,0.05,8.4904e-07,8.4845,6.5196e-07,4.8986,-6.4815e-15,2.0075e-06,-6.5195e-07,-4.8985,1.171
15983,13.22,2.7273,0,0.00025016,2499.8,8.3085e-05,6.3882,8.2235e-05,0.0064828,-0.00025005,-2496.6,1.2103
15984,13.128,2.6364,0,0.00025257,2523.9,8.3851e-05,6.0371,8.3048e-05,0.0062442,-0.00025246,-2520.9,1.1971
15985,13.128,2.7273,0.05,8.4529e-07,8.4471,6.4908e-07,4.8769,-7.8822e-15,3.0701e-06,-6.4908e-07,-4.8769,1.1971
15986,13.405,2.7273,0,0.00024537,2452,8.157e-05,7.1791,8.0615e-05,0.0066301,-0.00024524,-2448.4,1.2366
15987,13.313,2.6364,0,0.00024777,2476,8.2334e-05,6.8417,8.1424e-05,0.0063859,-0.00024765,-2472.5,1.2234
15988,13.313,2.7273,0.05,8.4158e-07,8.41,6.4623e-07,4.8555,-9.0751e-15,3.0301e-06,-6.4623e-07,-4.8555,1.2234
15989,13.589,2.7273,0,0.00024059,2404.3,8.0058e-05,7.9332,7.9003e-05,0.006807,-0.00024046,-2400.3,1.2632
15990,13.497,2.6364,0,0.00024298,2428.2,8.082e-05,7.6074,7.9808e-05,0.0065535,-0.00024285,-2424.4,1.2498
15991,13.497,2.7273,0.05,8.3789e-07,8.3732,6.434e-07,4.8343,-1.0235e-14,2.8445e-06,-6.434e-07,-4.8342,1.2498
15992,13.773,2.7273,0,0.00023584,2356.7,7.8549e-05,8.6554,7.7398e-05,0.0069863,-0.00023569,-2352.4,1.2899
15993,13.681,2.6364,0,0.00023822,2380.6,7.9309e-05,8.3392,7.82e-05,0.0067502,-0.00023808,-2376.4,1.2764
15994,13.681,2.7273,0.05,8.3425e-07,8.3367,6.406e-07,4.8132,-1.8302e-12,1.7046e-06,-6.406e-07,-4.8132,1.2765
15995,13.957,2.7273,0,0.0002311,2309.4,7.7044e-05,9.3504,7.58e-05,0.0071501,-0.00023094,-2304.7,1.3167
15996,13.865,2.6364,0,0.00023347,2333.1,7.7801e-05,9.0415,7.6599e-05,0.0069193,-0.00023332,-2328.6,1.3032
15997,13.865,2.7273,0.05,8.3064e-07,8.3006,6.3783e-07,4.7924,-1.226e-14,2.0543e-06,-6.3782e-07,-4.7924,1.3032
15998,14.142,2.7273,0,0.00022638,2262.3,7.5543e-05,10.022,7.421e-05,0.0072999,-0.00022621,-2257.2,1.3437
15999,14.05,2.6364,0,0.00022875,2285.9,7.6297e-05,9.7192,7.5005e-05,0.0070822,-0.00022858,-2281,1.3302
16000,14.05,2.7273,0.05,8.2705e-07,8.2648,6.3508e-07,4.7717,-9.2238e-13,2.167e-06,-6.3507e-07,-4.7717,1.3302
16001,14.326,2.7273,0,0.00022168,2215.3,7.4046e-05,10.676,7.2626e-05,0.0074556,-0.0002215,-2209.9,1.3709
16002,14.234,2.6364,0,0.00022404,2238.8,7.4798e-05,10.376,7.3418e-05,0.0072228,-0.00022386,-2233.6,1.3573
16003,14.234,2.7273,0.05,8.235e-07,8.2293,6.3234e-07,4.7512,-1.3812e-14,1.5659e-06,-6.3234e-07,-4.7512,1.3573
16004,14.51,2.7273,0,0.000217,2168.5,7.2555e-05,11.316,7.105e-05,0.0076436,-0.00021681,-2162.8,1.3982
16005,14.418,2.6364,0,0.00021935,2191.9,7.3304e-05,11.017,7.1838e-05,0.0073954,-0.00021916,-2186.4,1.3845
16006,14.418,2.7273,0.05,8.1996e-07,8.1939,6.2963e-07,4.7308,-1.4547e-14,2.6326e-06,-6.2962e-07,-4.7308,1.3845
16007,14.695,2.7273,0,0.00021234,2121.9,7.1069e-05,11.945,6.9481e-05,0.0078379,-0.00021213,-2115.9,1.4257
16008,14.602,2.6364,0,0.00021467,2145.3,7.1814e-05,11.647,7.0265e-05,0.0076004,-0.00021447,-2139.4,1.4119
16009,14.602,2.7273,0.05,8.1646e-07,8.1589,6.2694e-07,4.7106,-1.4496e-14,4.0637e-06,-6.2694e-07,-4.7106,1.4119
16010,14.879,2.7273,0,0.0002077,2075.6,6.9589e-05,12.568,6.7918e-05,0.0080223,-0.00020748,-2069.2,1.4533
16011,14.787,2.6364,0,0.00021002,2098.8,7.0331e-05,12.268,6.8699e-05,0.007785,-0.00020981,-2092.6,1.4394
16012,14.787,2.7273,0.05,8.1299e-07,8.1243,6.2427e-07,4.6906,-1.4534e-14,5.2563e-06,-6.2427e-07,-4.6905,1.4395
16013,15.063,2.7273,0,0.00020308,2029.4,6.8116e-05,13.19,6.6362e-05,0.0081988,-0.00020285,-2022.7,1.4811
16014,14.971,2.6364,0,0.00020539,2052.5,6.8854e-05,12.885,6.714e-05,0.0079684,-0.00020517,-2046,1.4671
16015,14.971,2.7273,0.05,8.0954e-07,8.0898,6.2163e-07,4.6707,-1.474e-14,4.7773e-06,-6.2163e-07,-4.6707,1.4671
16016,15.247,2.7273,0,0.00019847,1983.4,6.6649e-05,13.813,6.4812e-05,0.0083834,-0.00019824,-1976.4,1.509
16017,15.155,2.6364,0,0.00020078,2006.4,6.7383e-05,13.502,6.5587e-05,0.0081369,-0.00020054,-1999.6,1.495
16018,15.155,2.7273,0.05,8.0612e-07,8.0556,6.19e-07,4.6509,-1.5606e-14,5.8449e-06,-6.19e-07,-4.6509,1.495
16019,15.432,2.7273,0,0.00019389,1937.6,6.519e-05,14.442,6.3269e-05,0.0086015,-0.00019364,-1930.3,1.537
16020,15.339,2.6364,0,0.00019619,1960.5,6.5919e-05,14.122,6.4041e-05,0.0083367,-0.00019594,-1953.4,1.5229
16021,15.339,2.7273,0.05,8.0272e-07,8.0216,6.1639e-07,4.6313,-1.6376e-14,5.001e-06,-6.1639e-07,-4.6313,1.5229
16022,15.616,2.7273,0,0.00018933,1892,6.3738e-05,15.081,6.1732e-05,0.0088292,-0.00018907,-1884.4,1.5651
16023,15.524,2.6364,0,0.00019161,1914.8,6.4463e-05,14.751,6.2501e-05,0.0085709,-0.00019136,-1907.4,1.551
16024,15.524,2.7273,0.05,7.9935e-07,7.988,6.138e-07,4.6119,-1.8146e-14,4.0374e-06,-6.138e-07,-4.6119,1.551
16025,15.8,2.7273,0,0.00018479,1846.6,6.2294e-05,15.734,6.0201e-05,0.0090518,-0.00018452,-1838.7,1.5934
16026,15.708,2.6364,0,0.00018706,1869.3,6.3015e-05,15.392,6.0967e-05,0.0087899,-0.0001868,-1861.6,1.5792
16027,15.708,2.7273,0.05,7.9601e-07,7.9546,6.1124e-07,4.5926,-1.9292e-14,3.4327e-06,-6.1124e-07,-4.5926,1.5792
16028,15.984,2.7273,0,0.00018027,1801.5,6.0858e-05,16.406,5.8676e-05,0.0092729,-0.00017999,-1793.2,1.6218
16029,15.892,2.6364,0,0.00018253,1824.1,6.1574e-05,16.049,5.944e-05,0.0090141,-0.00018225,-1816,1.6076
16030,15.892,2.7273,0.05,7.927e-07,7.9216,6.087e-07,4.5735,-2.0146e-14,4.261e-06,-6.087e-07,-4.5735,1.6076
16031,16.169,2.7273,0,0.00017577,1756.5,5.9432e-05,17.1,5.7157e-05,0.0095068,-0.00017548,-1747.9,1.6504
16032,16.077,2.6364,0,0.00017802,1779,6.0143e-05,16.726,5.7918e-05,0.0092299,-0.00017773,-1770.6,1.636
16033,16.077,2.7273,0.05,7.8942e-07,7.8888,6.0618e-07,4.5546,-2.0976e-14,4.2525e-06,-6.0618e-07,-4.5546,1.6361
16034,16.353,2.7273,0,0.0001713,1711.8,5.8015e-05,17.822,5.5644e-05,0.0097741,-0.00017099,-1702.8,1.679
16035,16.261,2.6364,0,0.00017354,1734.2,5.872e-05,17.427,5.6402e-05,0.0094789,-0.00017323,-1725.4,1.6646
16036,16.261,2.7273,0.05,7.8616e-07,7.8562,6.0367e-07,4.5358,-1.3859e-12,5.6793e-06,-6.0367e-07,-4.5358,1.6647
16037,16.537,2.7273,0,0.00016684,1667.3,5.6607e-05,18.575,5.4137e-05,0.010057,-0.00016652,-1657.9,1.7078
16038,16.445,2.6364,0,0.00016907,1689.5,5.7307e-05,18.158,5.4892e-05,0.0097623,-0.00016875,-1680.4,1.6934
16039,16.445,2.7273,0.05,7.8294e-07,7.824,6.012e-07,4.5172,-9.3293e-13,6.0214e-06,-6.012e-07,-4.5172,1.6934
16040,16.721,2.7273,0,0.00016241,1623,5.521e-05,19.365,5.2635e-05,0.010342,-0.00016207,-1613.2,1.7367
16041,16.629,2.6364,0,0.00016463,1645.1,5.5905e-05,18.923,5.3387e-05,0.010042,-0.0001643,-1635.6,1.7222
16042,16.629,2.7273,0.05,7.7975e-07,7.7922,5.9875e-07,4.4988,-4.7936e-13,7.206e-06,-5.9875e-07,-4.4988,1.7222
16043,16.906,2.7273,0,0.000158,1578.9,5.3825e-05,20.196,5.1138e-05,0.010632,-0.00015765,-1568.7,1.7657
16044,16.814,2.6364,0,0.0001602,1600.9,5.4512e-05,19.726,5.1888e-05,0.010329,-0.00015986,-1591,1.7511
16045,16.814,2.7273,0.05,7.766e-07,7.7607,5.9634e-07,4.4807,-4.8108e-13,5.522e-06,-5.9633e-07,-4.4806,1.7511
16046,17.09,2.7273,0,0.00015362,1535.1,5.245e-05,21.075,4.9647e-05,0.01094,-0.00015325,-1524.4,1.7948
16047,16.998,2.6364,0,0.00015581,1557,5.3131e-05,20.573,5.0395e-05,0.010618,-0.00015545,-1546.6,1.7802
16048,16.998,2.7273,0.05,7.7348e-07,7.7295,5.9394e-07,4.4626,-2.7491e-14,5.2759e-06,-5.9394e-07,-4.4626,1.7802
16049,17.274,2.7273,0,0.00014925,1491.5,5.1088e-05,22.006,4.816e-05,0.011287,-0.00014887,-1480.4,1.824
16050,17.182,2.6364,0,0.00015143,1513.3,5.1762e-05,21.47,4.8906e-05,0.010942,-0.00015105,-1502.4,1.8093
16051,17.182,2.7273,0.05,7.704e-07,7.6987,5.9157e-07,4.4449,-2.8663e-14,5.9863e-06,-5.9157e-07,-4.4448,1.8093
16052,17.459,2.7273,0,0.00014491,1448.1,4.9738e-05,22.996,4.6679e-05,0.011656,-0.00014451,-1436.5,1.8533
16053,17.366,2.6364,0,0.00014708,1469.8,5.0405e-05,22.421,4.7422e-05,0.011307,-0.00014669,-1458.4,1.8386
16054,17.366,2.7273,0.05,7.6736e-07,7.6683,5.8924e-07,4.4273,-3.0754e-14,5.4918e-06,-5.8924e-07,-4.4273,1.8386
16055,17.643,2.7273,0,0.0001406,1405,4.8402e-05,24.051,4.5202e-05,0.012037,-0.00014017,-1392.8,1.8827
16056,17.551,2.6364,0,0.00014275,1426.5,4.9061e-05,23.434,4.5943e-05,0.011676,-0.00014234,-1414.7,1.8679
16057,17.551,2.7273,0.05,7.6437e-07,7.6384,5.8694e-07,4.4101,-4.872e-13,6.4314e-06,-5.8694e-07,-4.41,1.8679
16058,17.827,2.7273,0,0.00013631,1362.1,4.7079e-05,25.177,4.373e-05,0.012432,-0.00013586,-1349.4,1.9122
16059,17.735,2.6364,0,0.00013845,1383.5,4.773e-05,24.514,4.4469e-05,0.012064,-0.00013801,-1371.1,1.8974
16060,17.735,2.7273,0.05,7.6143e-07,7.609,5.8468e-07,4.3931,-3.5188e-14,5.218e-06,-5.8468e-07,-4.3931,1.8974
16061,18.011,2.7273,0,0.00013204,1319.5,4.5772e-05,26.383,4.2262e-05,0.012855,-0.00013157,-1306.1,1.9417
16062,17.919,2.6364,0,0.00013417,1340.8,4.6414e-05,25.669,4.2999e-05,0.012463,-0.00013371,-1327.7,1.9269
16063,17.919,2.7273,0.05,7.5853e-07,7.5801,5.8246e-07,4.3764,-4.9248e-13,6.156e-06,-5.8246e-07,-4.3764,1.9269
16064,18.196,2.7273,0,0.0001278,1277.2,4.448e-05,27.675,4.0798e-05,0.013327,-0.00012731,-1263.1,1.9714
16065,18.103,2.6364,0,0.00012992,1298.3,4.5113e-05,26.906,4.1534e-05,0.012906,-0.00012944,-1284.6,1.9566
16066,18.103,2.7273,0.05,7.5569e-07,7.5517,5.8027e-07,4.36,-4.0596e-14,6.3681e-06,-5.8027e-07,-4.3599,1.9566
16067,18.38,2.7273,0,0.00012359,1235.1,4.3204e-05,29.063,3.9338e-05,0.013831,-0.00012307,-1220.3,2.0012
16068,18.288,2.6364,0,0.00012569,1256,4.3828e-05,28.232,4.0072e-05,0.013399,-0.00012518,-1241.7,1.9863
16069,18.288,2.7273,0.05,7.5291e-07,7.5239,5.7814e-07,4.344,-4.4537e-14,8.2481e-06,-5.7814e-07,-4.3439,1.9863
16070,18.564,2.7273,0,0.0001194,1193.2,4.1946e-05,30.554,3.7882e-05,0.014361,-0.00011886,-1177.6,2.031
16071,18.472,2.6364,0,0.00012149,1214,4.2559e-05,29.657,3.8614e-05,0.013911,-0.00012096,-1198.9,2.0161
16072,18.472,2.7273,0.05,7.502e-07,7.4968,5.7606e-07,4.3283,-4.754e-14,1.0131e-05,-5.7606e-07,-4.3283,2.0161
16073,18.748,2.7273,0,0.00011525,1151.7,4.0706e-05,32.158,3.6428e-05,0.014925,-0.00011467,-1135.2,2.061
16074,18.656,2.6364,0,0.00011731,1172.3,4.1309e-05,31.188,3.716e-05,0.014456,-0.00011675,-1156.4,2.046
16075,18.656,2.7273,0.05,7.4756e-07,7.4704,5.7403e-07,4.313,-5.0473e-13,6.7763e-06,-5.7403e-07,-4.313,2.046
16076,18.933,2.7273,0,0.00011112,1110.4,3.9486e-05,33.886,3.4978e-05,0.015536,-0.0001105,-1093.1,2.091
16077,18.841,2.6364,0,0.00011317,1130.9,4.0077e-05,32.837,3.5708e-05,0.015033,-0.00011257,-1114.1,2.0759
16078,18.841,2.7273,0.05,7.4499e-07,7.4448,5.7206e-07,4.2983,-5.666e-14,5.5352e-06,-5.7206e-07,-4.2982,2.0759
16079,19.117,2.7273,0,0.00010701,1069.4,3.8286e-05,35.748,3.353e-05,0.016209,-0.00010636,-1051.1,2.1211
16080,19.025,2.6364,0,0.00010905,1089.8,3.8864e-05,34.613,3.426e-05,0.015671,-0.00010842,-1072,2.106
16081,19.025,2.7273,0.05,7.4251e-07,7.42,5.7015e-07,4.2839,-6.2772e-14,7.1578e-06,-5.7015e-07,-4.2839,2.106
16082,19.301,2.7273,0,0.00010294,1028.7,3.7108e-05,37.756,3.2085e-05,0.016937,-0.00010225,-1009.3,2.1512
16083,19.209,2.6364,0,0.00010496,1048.9,3.7673e-05,36.528,3.2814e-05,0.016372,-0.00010429,-1030.1,2.1361
16084,19.209,2.7273,0.05,7.4012e-07,7.3961,5.6832e-07,4.2702,-6.924e-14,6.6356e-06,-5.6832e-07,-4.2701,2.1361
16085,19.485,2.7273,0,9.8901e-05,988.33,3.5952e-05,39.922,3.0641e-05,0.017718,-9.8162e-05,-967.76,2.1814
16086,19.393,2.6364,0,0.0001009,1008.3,3.6504e-05,38.593,3.137e-05,0.01712,-0.00010019,-988.48,2.1663
16087,19.393,2.7273,0.05,7.3784e-07,7.3733,5.6657e-07,4.257,-7.5732e-14,8.0114e-06,-5.6657e-07,-4.257,2.1663
16088,19.67,2.7273,0,9.4892e-05,948.27,3.4821e-05,42.26,2.9199e-05,0.018561,-9.4102e-05,-926.42,2.2117
16089,19.578,2.6364,0,9.6877e-05,968.1,3.5358e-05,40.821,2.9927e-05,0.017929,-9.6117e-05,-947.03,2.1966
16090,19.578,2.7273,0.05,7.3568e-07,7.3517,5.6491e-07,4.2445,-5.3744e-13,7.487e-06,-5.6491e-07,-4.2445,2.1966
16091,19.854,2.7273,0,9.0916e-05,908.53,3.3716e-05,44.784,2.7758e-05,0.019485,-9.0071e-05,-885.3,2.2421
16092,19.762,2.6364,0,9.2882e-05,928.17,3.4237e-05,43.226,2.8486e-05,0.018801,-9.207e-05,-905.8,2.2269
16093,19.762,2.7273,0.05,7.3364e-07,7.3313,5.6335e-07,4.2328,-5.4137e-13,5.5459e-06,-5.6334e-07,-4.2327,2.2269
16094,20.038,2.7273,0,8.6974e-05,869.14,3.2638e-05,47.509,2.6318e-05,0.020508,-8.6068e-05,-844.4,2.2725
16095,19.946,2.6364,0,8.892e-05,888.58,3.3142e-05,45.822,2.7046e-05,0.019769,-8.8051e-05,-864.78,2.2573
16096,19.946,2.7273,0.05,7.3174e-07,7.3124,5.6189e-07,4.2218,-8.6181e-14,3.1619e-06,-5.6188e-07,-4.2218,2.2573
16097,20.223,2.7273,0,8.3067e-05,830.09,3.1589e-05,50.451,2.4877e-05,0.021631,-8.2093e-05,-803.71,2.303
16098,20.13,2.6364,0,8.4992e-05,849.34,3.2075e-05,48.625,2.5606e-05,0.020842,-8.406e-05,-823.97,2.2877
16099,20.13,2.7273,0.05,7.3e-07,7.295,5.6055e-07,4.2118,-5.4549e-13,5.0367e-06,-5.6055e-07,-4.2118,2.2877
16100,20.407,2.7273,0,7.9196e-05,791.42,3.057e-05,53.628,2.3435e-05,0.022864,-7.8147e-05,-763.23,2.3335
16101,20.315,2.6364,0,8.1101e-05,810.45,3.1037e-05,51.652,2.4166e-05,0.022011,-8.0098e-05,-783.38,2.3182
16102,20.315,2.7273,0.05,7.2844e-07,7.2794,5.5935e-07,4.2028,-5.4772e-13,7.4093e-06,-5.5935e-07,-4.2028,2.3182
16103,20.591,2.7273,0,7.5364e-05,753.12,2.9583e-05,57.057,2.1992e-05,0.024225,-7.4231e-05,-722.96,2.3641
16104,20.499,2.6364,0,7.7246e-05,771.93,3.0031e-05,54.92,2.2724e-05,0.023303,-7.6165e-05,-742.99,2.3488
16105,20.499,2.7273,0.05,7.2708e-07,7.2658,5.5831e-07,4.1949,-3.0974e-13,7.4892e-06,-5.5831e-07,-4.1949,2.3488
16106,20.775,2.7273,0,7.1572e-05,715.23,2.863e-05,60.757,2.0547e-05,0.025741,-7.0344e-05,-682.9,2.3947
16107,20.683,2.6364,0,7.3431e-05,733.8,2.9057e-05,58.447,2.1281e-05,0.02473,-7.2261e-05,-702.82,2.3794
16108,20.683,2.7273,0.05,7.2594e-07,7.2544,5.5744e-07,4.1884,-7.9816e-14,9.4195e-06,-5.5743e-07,-4.1883,2.3794
16109,20.96,2.7273,0,6.7822e-05,677.75,2.7713e-05,64.748,1.91e-05,0.027451,-6.6488e-05,-643.04,2.4254
16110,20.867,2.6364,0,6.9656e-05,696.08,2.8118e-05,62.252,1.9836e-05,0.026335,-6.8388e-05,-662.85,2.41
16111,20.867,2.7273,0.05,7.2506e-07,7.2456,5.5675e-07,4.1832,-3.1053e-13,8.4334e-06,-5.5675e-07,-4.1832,2.41
16112,21.144,2.7273,0,6.4116e-05,640.72,2.6834e-05,69.05,1.7648e-05,0.029378,-6.2661e-05,-603.39,2.4561
16113,21.052,2.6364,0,6.5924e-05,658.79,2.7215e-05,66.357,1.8388e-05,0.028147,-6.4544e-05,-623.09,2.4407
16114,21.052,2.7273,0.05,7.2445e-07,7.2395,5.5629e-07,4.1798,-7.7677e-13,7.8658e-06,-5.5629e-07,-4.1797,2.4407
16115,21.328,2.7273,0,6.0457e-05,604.15,2.5995e-05,73.685,1.6192e-05,0.031559,-5.8865e-05,-563.92,2.4869
16116,21.236,2.6364,0,6.2237e-05,621.94,2.6351e-05,70.781,1.6935e-05,0.030189,-6.073e-05,-583.51,2.4715
16117,21.236,2.7273,0.05,7.2417e-07,7.2367,5.5607e-07,4.1781,-3.3356e-13,4.9361e-06,-5.5607e-07,-4.1781,2.4715
16118,21.512,2.7273,0,5.6847e-05,568.08,2.5196e-05,78.672,1.473e-05,0.034059,-5.5098e-05,-524.63,2.5177
16119,21.42,2.6364,0,5.8599e-05,585.58,2.5527e-05,75.545,1.5477e-05,0.032518,-5.6946e-05,-544.13,2.5023
16120,21.42,2.7273,0.05,7.2425e-07,7.2375,5.5614e-07,4.1786,-8.0007e-13,2.929e-06,-5.5613e-07,-4.1786,2.5023
16121,21.697,2.7273,0,5.329e-05,532.54,2.4441e-05,84.033,1.3262e-05,0.036954,-5.1361e-05,-485.51,2.5485
16122,21.605,2.6364,0,5.5011e-05,549.73,2.4746e-05,80.672,1.4013e-05,0.035197,-5.3192e-05,-504.92,2.5331
16123,21.605,2.7273,0.05,7.2474e-07,7.2424,5.5651e-07,4.1814,-7.985e-13,4.8536e-06,-5.5651e-07,-4.1814,2.5331
16124,21.881,2.7273,0,4.9791e-05,497.56,2.373e-05,89.789,1.1785e-05,0.040359,-4.7651e-05,-446.54,2.5794
16125,21.789,2.6364,0,5.1478e-05,514.42,2.4007e-05,86.182,1.2542e-05,0.038328,-4.9467e-05,-465.87,2.564
16126,21.789,2.7273,0.05,7.2568e-07,7.2518,5.5723e-07,4.1868,-7.7839e-13,5.9448e-06,-5.5723e-07,-4.1868,2.564
16127,22.065,2.7273,0,4.6354e-05,463.22,2.3065e-05,95.957,1.0299e-05,0.044418,-4.3969e-05,-407.71,2.6103
16128,21.973,2.6364,0,4.8005e-05,479.71,2.3314e-05,92.097,1.1063e-05,0.042038,-4.577e-05,-426.97,2.5949
16129,21.973,2.7273,0.05,7.2713e-07,7.2662,5.5834e-07,4.1952,-5.6687e-13,8.6932e-06,-5.5834e-07,-4.1952,2.5949
16130,22.249,2.7273,0,4.2986e-05,429.56,2.2446e-05,102.56,8.8031e-06,0.049337,-4.0312e-05,-368.99,2.6413
16131,22.157,2.6364,0,4.4597e-05,445.66,2.2668e-05,98.434,9.5735e-06,0.046491,-4.2099e-05,-388.2,2.6258
16132,22.157,2.7273,0.05,7.2914e-07,7.2864,5.5989e-07,4.2068,-1.2448e-13,9.56e-06,-5.5989e-07,-4.2068,2.6258
16133,22.434,2.7273,0,3.9696e-05,396.69,2.1875e-05,109.6,7.295e-06,0.055445,-3.6679e-05,-330.35,2.6722
16134,22.342,2.6364,0,4.1263e-05,412.34,2.2069e-05,105.21,8.0732e-06,0.051939,-3.8453e-05,-349.53,2.6567
16135,22.342,2.7273,0.05,7.3178e-07,7.3128,5.6192e-07,4.222,-9.7929e-14,7.8465e-06,-5.6192e-07,-4.222,2.6567
16136,22.618,2.7273,0,3.6497e-05,364.72,2.1352e-05,117.11,5.7737e-06,0.063178,-3.3065e-05,-291.76,2.7032
16137,22.526,2.6364,0,3.8012e-05,379.86,2.1518e-05,112.45,6.5603e-06,0.058812,-3.4829e-05,-310.93,2.6877
16138,22.526,2.7273,0.05,7.3509e-07,7.3459,5.6446e-07,4.2411,-5.5886e-13,5.8909e-06,-5.6446e-07,-4.2411,2.6877
16139,22.802,2.7273,0,3.3404e-05,333.81,2.0876e-05,125.09,4.2376e-06,0.073574,-2.9469e-05,-253.19,2.7343
16140,22.71,2.6364,0,3.486e-05,348.36,2.1015e-05,120.15,5.0334e-06,0.067577,-3.1225e-05,-272.37,2.7187
16141,22.71,2.7273,0.05,7.3913e-07,7.3862,5.6756e-07,4.2644,-3.5926e-13,9.1538e-07,-5.6756e-07,-4.2644,2.7187
16142,22.987,2.7273,0,3.0442e-05,304.21,2.0446e-05,133.54,2.6854e-06,0.087072,-2.5887e-05,-214.59,2.7653
16143,22.894,2.6364,0,3.1825e-05,318.03,2.056e-05,128.33,3.4911e-06,0.079902,-2.7637e-05,-233.8,2.7498
16144,22.894,2.7273,0.05,7.4393e-07,7.4341,5.7124e-07,4.2921,-3.5436e-13,1.9085e-06,-5.7124e-07,-4.2921,2.7498
16145,23.171,2.7273,0,2.7644e-05,276.25,2.0062e-05,142.46,1.1162e-06,0.10998,-2.2313e-05,-175.93,2.7964
16146,23.079,2.6364,0,2.8937e-05,289.17,2.0151e-05,136.99,1.9319e-06,0.095143,-2.4061e-05,-195.2,2.7808
16147,23.079,2.7273,0.05,7.4951e-07,7.4899,5.7553e-07,4.3243,-5.5285e-13,3.071e-06,-5.7553e-07,-4.3243,2.7808
16148,23.355,2.7273,0,2.5057e-05,250.4,1.9721e-05,151.86,-4.7196e-07,0.13317,-1.8745e-05,-137.16,2.8274
16149,23.263,2.6364,0,2.6234e-05,262.16,1.9788e-05,146.13,3.5564e-07,0.12694,-2.0493e-05,-156.52,2.8119
16150,23.263,2.7273,0.05,7.5587e-07,7.5535,5.8042e-07,4.361,-5.4706e-13,3.1159e-06,-5.8042e-07,-4.361,2.8119
16151,23.539,2.7273,0,2.275e-05,227.35,1.9422e-05,161.74,-2.0736e-06,0.23042,-1.518e-05,-98.246,2.8585
16152,23.447,2.6364,0,2.3773e-05,237.57,1.9467e-05,155.74,-1.2413e-06,0.14471,-1.6927e-05,-117.71,2.843
16153,23.447,2.7273,0.05,7.6297e-07,7.6245,5.8587e-07,4.402,-5.3177e-13,-5.8038e-07,-5.8587e-07,-4.402,2.8429
16154,23.724,2.7273,0,2.0811e-05,207.96,1.916e-05,172,-3.7018e-06,0.22848,-1.1613e-05,-59.21,2.8896
16155,23.631,2.6364,0,2.1635e-05,216.2,1.9187e-05,165.87,-2.8439e-06,0.3321,-1.3368e-05,-78.739,2.874
16156,23.631,2.7273,0.05,7.708e-07,7.7027,5.9188e-07,4.4472,-3.0435e-13,-5.767e-07,-5.9188e-07,-4.4471,2.874
16157,23.816,2.6364,0,1.992e-05,199.06,1.8944e-05,176.26,-4.4866e-06,0.20968,-9.8057e-06,-39.756,2.9051
16158,23.816,2.7273,0.05,7.8039e-07,7.7985,5.9924e-07,4.5025,-7.4338e-13,-4.7051e-07,-5.9924e-07,-4.5024,2.9051
16159,23.908,2.7273,0,1.9427e-05,194.13,1.8953e-05,182.16,-5.2336e-06,0.43061,-8.2681e-06,-22.369,2.9207
16160,1.2431,2.5455,0,0.001266,12651,0.00046805,6.687,0.00033078,-1024.7,-0.0012802,-13129,0.021114
16161,1.1509,2.4545,0,0.0014063,14053,0.00049824,-5.1837,0.00040476,-707.55,-0.0014171,-14396,0.017733
16162,1.1509,2.5455,0.05,2.9289e-05,292.69,2.249e-05,168.98,4.237e-12,0.00046997,-2.249e-05,-168.98,0.017935
16163,1.4273,2.5455,0,0.0010973,10966,0.00041536,2.9038,0.00026889,-1097.6,-0.0011118,-11471,0.027932
16164,1.3352,2.4545,0,0.0011794,11786,0.0004321,-2.0993,0.00031442,-886.29,-0.001192,-12205,0.024177
16165,1.3352,2.5455,0.05,2.9017e-05,289.97,2.2282e-05,167.42,3.1945e-12,0.00029613,-2.2282e-05,-167.41,0.024341
16166,1.6116,2.5455,0,0.00095728,9566.2,0.00037154,2.4111,0.00021759,-1154.3,-0.00097161,-10090,0.035497
16167,1.5195,2.4545,0,0.0010075,10068,0.00038144,6.5616,0.00024714,-1002.6,-0.0010207,-10528,0.031424
16168,1.5195,2.5455,0.05,2.367e-05,236.54,1.8176e-05,136.57,1.5664e-12,0.0002429,-1.8176e-05,-136.57,0.031551
16169,1.7959,2.5455,0,0.00085067,8500.8,0.00033663,2.3479,0.00018128,-1164.9,-0.00086441,-9021.8,0.043715
16170,1.7037,2.4545,0,0.00088405,8834.4,0.00034262,2.96,0.00020196,-1053.9,-0.00089717,-9312.3,0.03936
16171,1.7037,2.5455,0.05,1.8833e-05,188.2,1.4462e-05,108.66,4.3638e-12,0.00020911,-1.4462e-05,-108.66,0.039457
16172,1.9801,2.5455,0,0.00077044,7699.1,0.00030874,1.771,0.00015682,-1139.7,-0.00078342,-8204.3,0.052517
16173,1.888,2.4545,0,0.00079446,7939.1,0.00031306,2.4086,0.00017181,-1058.9,-0.00080709,-8414,0.047902
16174,1.888,2.5455,0.05,1.4944e-05,149.33,1.1475e-05,86.218,1.0177e-11,0.00020252,-1.1475e-05,-86.217,0.047979
16175,2.1644,2.5455,0,0.00070956,7090.7,0.00028627,1.252,0.00014072,-1092.4,-0.00072177,-7572.8,0.061849
16176,2.0723,2.4545,0,0.0007278,7273,0.00028971,1.6646,0.00015184,-1034.2,-0.00073981,-7733.7,0.056992
16177,2.0723,2.5455,0.05,1.1949e-05,119.41,9.1756e-06,68.942,9.9616e-12,0.00016551,-9.1756e-06,-68.941,0.057056
16178,2.3487,2.5455,0,0.00066284,6623.8,0.00026794,0.91138,0.00013043,-1032.3,-0.00067431,-7078.8,0.071671
16179,2.2565,2.4545,0,0.00067724,6767.7,0.00027087,1.1855,0.00013882,-991.01,-0.0006886,-7207.9,0.066584
16180,2.2565,2.5455,0.05,9.6453e-06,96.386,7.4064e-06,55.649,1.0609e-11,0.00015707,-7.4064e-06,-55.648,0.066641
16181,2.5329,2.5455,0,0.00062657,6261.3,0.00025281,0.65114,0.00012418,-965.83,-0.00063736,-6687.7,0.08195
16182,2.4408,2.4545,0,0.00063825,6378.1,0.0002554,0.85099,0.00013056,-937.15,-0.00064898,-6794.3,0.076645
16183,2.4408,2.5455,0.05,7.8545e-06,78.49,6.0312e-06,45.317,1.4335e-11,0.00012857,-6.0312e-06,-45.316,0.076698
16184,2.7172,2.5455,0,0.00059808,5976.7,0.00024017,0.465,0.0001207,-897.21,-0.00060826,-6374.3,0.092662
16185,2.6251,2.4545,0,0.00060776,6073.5,0.00024252,0.60917,0.00012559,-877.94,-0.0006179,-6464.3,0.087147
16186,2.6251,2.5455,0.05,6.4523e-06,64.479,4.9546e-06,37.227,8.3949e-12,0.00011021,-4.9546e-06,-37.227,0.087199
16187,2.9015,2.5455,0,0.00057547,5750.7,0.00022952,0.33031,0.00011912,-829.17,-0.00058506,-6120.1,0.10379
16188,2.8093,2.4545,0,0.00058362,5832.2,0.00023167,0.4369,0.00012289,-816.92,-0.0005932,-6197.3,0.098069
16189,2.8093,2.5455,0.05,5.3493e-06,53.456,4.1076e-06,30.863,7.9224e-12,0.00010341,-4.1076e-06,-30.863,0.098122
16190,3.0857,2.5455,0,0.00055729,5569,0.00022044,0.23343,0.0001188,-763.43,-0.00056633,-5911.2,0.11531
16191,2.9936,2.4545,0,0.00056426,5638.7,0.00022244,0.31243,0.00012173,-756.4,-0.0005733,-5978.5,0.1094
16192,2.9936,2.5455,0.05,4.4785e-06,44.754,3.4389e-06,25.839,3.5458e-12,7.7224e-05,-3.439e-06,-25.839,0.10945
16193,3.27,2.5455,0,0.00054247,5421,0.00021263,0.16381,0.00011931,-701,-0.00055098,-5737.3,0.12722
16194,3.1779,2.4545,0,0.00054852,5481.4,0.00021449,0.22277,0.00012159,-697.83,-0.00055704,-5796.8,0.12111
16195,3.1779,2.5455,0.05,3.789e-06,37.864,2.9095e-06,21.861,4.7849e-12,6.7765e-05,-2.9095e-06,-21.861,0.12117
16196,3.4543,2.5455,0,0.00053021,5298.5,0.00020583,0.11386,0.00012032,-642.41,-0.00053821,-5590.3,0.1395
16197,3.3621,2.4545,0,0.00053553,5351.6,0.00020758,0.15801,0.00012211,-642.08,-0.00054355,-5643.5,0.13321
16198,3.3621,2.5455,0.05,3.2417e-06,32.395,2.4893e-06,18.703,3.6544e-12,4.7642e-05,-2.4893e-06,-18.703,0.13326
16199,3.6385,2.5455,0,0.00051989,5195.3,0.00019987,0.078074,0.00012161,-587.9,-0.00052739,-5464.2,0.15215
16200,3.5464,2.4545,0,0.00052462,5242.6,0.00020152,0.11127,0.00012303,-589.64,-0.00053216,-5512.4,0.14567
16201,3.5464,2.5455,0.05,2.8064e-06,28.045,2.155e-06,16.192,1.4895e-12,4.4951e-05,-2.155e-06,-16.192,0.14573
16202,3.8228,2.5455,0,0.00051104,5106.8,0.00019457,0.052497,0.00012303,-537.5,-0.00051805,-5354.3,0.16515
16203,3.7307,2.4545,0,0.00051531,5149.6,0.00019614,0.077545,0.00012416,-540.71,-0.00052237,-5398.5,0.15849
16204,3.7307,2.5455,0.05,2.4595e-06,24.578,1.8886e-06,14.19,1.8828e-12,3.5289e-05,-1.8886e-06,-14.19,0.15856
16205,4.0071,2.5455,0,0.00050329,5029.4,0.00018982,0.034285,0.00012445,-491.11,-0.00050984,-5256.9,0.17851
16206,3.9149,2.4545,0,0.0005072,5068.5,0.00019132,0.05325,0.00012538,-495.34,-0.0005138,-5297.9,0.17167
16207,3.9149,2.5455,0.05,2.1825e-06,21.81,1.6759e-06,12.592,-9.0417e-14,3.3514e-05,-1.6759e-06,-12.592,0.17174
16208,4.1913,2.5455,0,0.00049637,4960.2,0.00018552,0.021392,0.00012582,-448.54,-0.00050247,-5169.3,0.19221
16209,4.0992,2.4545,0,0.00049999,4996.5,0.00018695,0.035801,0.0001266,-453.46,-0.00050616,-5207.7,0.1852
16210,4.0992,2.5455,0.05,1.9609e-06,19.595,1.5057e-06,11.313,-4.1282e-13,1.6509e-05,-1.5057e-06,-11.313,0.18527
16211,4.3756,2.5455,0,0.00049006,4897.2,0.00018158,0.012344,0.00012707,-409.57,-0.00049574,-5089.2,0.20626
16212,4.2835,2.4545,0,0.00049346,4931.2,0.00018296,0.023328,0.00012774,-414.91,-0.00049921,-5125.5,0.19908
16213,4.2835,2.5455,0.05,1.7832e-06,17.82,1.3693e-06,10.288,-2.03e-12,1.4959e-05,-1.3693e-06,-10.288,0.19915
16214,4.5599,2.5455,0,0.00048421,4838.8,0.00017796,0.006076,0.00012818,-373.95,-0.00048949,-5014.9,0.22064
16215,4.4677,2.4545,0,0.00048743,4871,0.00017929,0.014476,0.00012877,-379.52,-0.00049278,-5049.6,0.21329
16216,4.4677,2.5455,0.05,1.6405e-06,16.393,1.2597e-06,9.4646,1.6246e-13,1.2008e-05,-1.2597e-06,-9.4646,0.21336
16217,4.7441,2.5455,0,0.00047869,4783.6,0.00017458,0.0018163,0.00012914,-341.43,-0.00048358,-4945.2,0.23535
16218,4.652,2.4545,0,0.00048177,4814.4,0.00017587,0.0082587,0.00012967,-347.08,-0.00048674,-4978.6,0.22784
16219,4.652,2.5455,0.05,1.5254e-06,15.244,1.1713e-06,8.8009,-2.3791e-13,7.6784e-06,-1.1713e-06,-8.8009,0.22791
16220,4.9284,2.5455,0,0.0004734,4730.8,0.00017141,-0.00099612,0.00012992,-311.75,-0.00047794,-4878.9,0.25039
16221,4.8363,2.4545,0,0.00047638,4760.5,0.00017266,0.0039587,0.00013042,-317.37,-0.00048098,-4911.3,0.24271
16222,4.8363,2.5455,0.05,1.4324e-06,14.314,1.0999e-06,8.2641,-2.8338e-12,7.3463e-06,-1.0999e-06,-8.2641,0.24279
16223,5.1127,2.5455,0,0.00046828,4679.6,0.00016842,-0.0027691,0.00013053,-284.68,-0.00047248,-4815.5,0.26576
16224,5.0205,2.4545,0,0.00047118,4708.5,0.00016964,0.0010508,0.00013102,-290.18,-0.00047544,-4846.9,0.25792
16225,5.0205,2.5455,0.05,1.3568e-06,13.559,1.0419e-06,7.8282,2.2963e-12,7.0801e-06,-1.0419e-06,-7.8281,0.258
16226,5.2969,2.5455,0,0.00046328,4629.6,0.00016558,-0.0038006,0.00013098,-259.97,-0.00046715,-4754.1,0.28145
16227,5.2048,2.4545,0,0.0004661,4657.8,0.00016677,-0.0008494,0.00013146,-265.32,-0.00047005,-4784.8,0.27344
16228,5.2048,2.5455,0.05,1.2951e-06,12.942,9.9449e-07,7.4722,-5.3056e-12,1.0127e-05,-9.9449e-07,-7.4722,0.27353
16229,5.4812,2.5455,0,0.00045834,4580.2,0.00016286,-0.0043073,0.00013126,-237.43,-0.00046192,-4694.3,0.29745
16230,5.3891,2.4545,0,0.00046112,4608,0.00016403,-0.0020239,0.00013174,-242.57,-0.00046476,-4724.5,0.28929
16231,5.3891,2.5455,0.05,1.2445e-06,12.436,9.5559e-07,7.1799,-2.0032e-12,4.0413e-06,-9.5558e-07,-7.1799,0.28937
16232,5.6655,2.5455,0,0.00045345,4531.3,0.00016025,-0.0044469,0.00013139,-216.86,-0.00045675,-4635.9,0.31377
16233,5.5733,2.4545,0,0.00045619,4558.7,0.00016139,-0.0026783,0.00013188,-221.76,-0.00045955,-4665.6,0.30545
16234,5.5733,2.5455,0.05,1.2026e-06,12.017,9.2342e-07,6.9382,-2.4011e-12,2.1648e-06,-9.2342e-07,-6.9382,0.30554
16235,5.8497,2.5455,0,0.00044858,4482.7,0.00015773,-0.0043348,0.00013137,-198.06,-0.00045162,-4578.4,0.3304
16236,5.7576,2.4545,0,0.00045129,4509.8,0.00015885,-0.0029645,0.00013187,-202.73,-0.00045439,-4607.7,0.32193
16237,5.7576,2.5455,0.05,1.1677e-06,11.668,8.9662e-07,6.7369,-7.1477e-13,6.9242e-06,-8.9661e-07,-6.7367,0.32201
16238,6.034,2.5455,0,0.00044371,4434.1,0.00015529,-0.004054,0.00013122,-180.89,-0.00044651,-4521.8,0.34733
16239,5.9419,2.4545,0,0.0004464,4460.9,0.0001564,-0.002993,0.00013173,-185.3,-0.00044926,-4550.7,0.33871
16240,5.9419,2.5455,0.05,1.1383e-06,11.375,8.7409e-07,6.5676,8.716e-13,7.0144e-06,-8.7409e-07,-6.5675,0.33879
16241,6.2183,2.5455,0,0.00043885,4385.4,0.00015292,-0.0036645,0.00013094,-165.19,-0.00044142,-4465.7,0.36457
16242,6.1261,2.4545,0,0.00044152,4412.1,0.00015401,-0.0028444,0.00013147,-169.34,-0.00044415,-4494.4,0.3558
16243,6.1261,2.5455,0.05,1.1135e-06,11.127,8.5499e-07,6.4241,7.7569e-13,4.4968e-06,-8.55e-07,-6.424,0.35588
16244,6.4025,2.5455,0,0.00043397,4336.7,0.00015062,-0.0032095,0.00013054,-150.82,-0.00043634,-4410.1,0.38211
16245,6.3104,2.4545,0,0.00043663,4363.3,0.00015168,-0.0025776,0.00013109,-154.72,-0.00043905,-4438.6,0.37319
16246,6.3104,2.5455,0.05,1.0922e-06,10.914,8.3865e-07,6.3012,6.9007e-13,3.03e-06,-8.3864e-07,-6.3012,0.37327
16247,6.5868,2.5455,0,0.00042908,4287.8,0.00014836,-0.0027196,0.00013004,-137.66,-0.00043125,-4355,0.39995
16248,6.4947,2.4545,0,0.00043173,4314.3,0.00014941,-0.0022351,0.0001306,-141.32,-0.00043396,-4383.2,0.39087
16249,6.4947,2.5455,0.05,1.0738e-06,10.73,8.2451e-07,6.195,5.7076e-13,4.2931e-06,-8.2451e-07,-6.195,0.39096
16250,6.7711,2.5455,0,0.00042417,4238.8,0.00014615,-0.0022159,0.00012943,-125.61,-0.00042617,-4300.2,0.41807
16251,6.6789,2.4545,0,0.00042681,4265.2,0.00014719,-0.0018473,0.00013002,-129.03,-0.00042886,-4328.2,0.40886
16252,6.6789,2.5455,0.05,1.0577e-06,10.569,8.1217e-07,6.1023,-1.2877e-12,3.7761e-06,-8.1216e-07,-6.1023,0.40894
16253,6.9553,2.5455,0,0.00041924,4189.5,0.00014399,-0.001713,0.00012874,-114.56,-0.00042107,-4245.6,0.43649
16254,6.8632,2.4545,0,0.00042188,4215.9,0.00014501,-0.001436,0.00012934,-117.76,-0.00042376,-4273.5,0.42713
16255,6.8632,2.5455,0.05,1.0435e-06,10.428,8.0128e-07,6.0205,-1.3439e-12,3.4826e-06,-8.0127e-07,-6.0204,0.42721
16256,7.1396,2.5455,0,0.0004143,4140.1,0.00014186,-0.0012209,0.00012796,-104.43,-0.00041598,-4191.4,0.45519
16257,7.0475,2.4545,0,0.00041693,4166.4,0.00014287,-0.0010163,0.00012858,-107.4,-0.00041865,-4219.1,0.44569
16258,7.0475,2.5455,0.05,1.0309e-06,10.301,7.9157e-07,5.9475,4.0938e-13,3.9384e-06,-7.9157e-07,-5.9475,0.44577
16259,7.3239,2.5455,0,0.00040934,4090.5,0.00013977,-0.00074579,0.00012711,-95.121,-0.00041087,-4137.3,0.47418
16260,7.2317,2.4545,0,0.00041196,4116.8,0.00014077,-0.00059875,0.00012774,-97.893,-0.00041354,-4164.8,0.46454
16261,7.2317,2.5455,0.05,1.0195e-06,10.188,7.8284e-07,5.882,3.7003e-13,2.8623e-06,-7.8283e-07,-5.8819,0.46462
16262,7.5081,2.5455,0,0.00040436,4040.8,0.0001377,-0.00029158,0.00012618,-86.576,-0.00040576,-4083.4,0.49344
16263,7.416,2.4545,0,0.00040698,4067,0.0001387,-0.00019042,0.00012683,-89.154,-0.00040842,-4110.8,0.48366
16264,7.416,2.5455,0.05,1.0092e-06,10.085,7.7491e-07,5.8224,-3.3064e-12,3.413e-06,-7.7491e-07,-5.8223,0.48374
16265,7.6924,2.5455,0,0.00039937,3990.9,0.00013567,0.00013969,0.00012519,-78.724,-0.00040065,-4029.7,0.51298
16266,7.6003,2.4545,0,0.00040198,4017.1,0.00013665,0.00020469,0.00012586,-81.12,-0.0004033,-4057,0.50307
16267,7.6003,2.5455,0.05,9.9971e-07,9.9902,7.6765e-07,5.7679,2.914e-13,3.1724e-06,-7.6765e-07,-5.7678,0.50315
16268,7.8767,2.5455,0,0.00039436,3940.9,0.00013366,0.00054755,0.00012415,-71.505,-0.00039553,-3976.1,0.5328
16269,7.7845,2.4545,0,0.00039697,3967,0.00013464,0.00058309,0.00012482,-73.73,-0.00039818,-4003.4,0.52274
16270,7.7845,2.5455,0.05,9.9098e-07,9.903,7.6095e-07,5.7175,2.6288e-13,2.9558e-06,-7.6095e-07,-5.7175,0.52282
16271,8.0609,2.5455,0,0.00038934,3890.8,0.00013168,0.00093211,0.00012305,-64.864,-0.00039041,-3922.8,0.55288
16272,7.9688,2.4545,0,0.00039195,3916.8,0.00013265,0.00094402,0.00012374,-66.929,-0.00039305,-3949.9,0.54269
16273,7.9688,2.5455,0.05,9.8288e-07,9.822,7.5473e-07,5.6707,2.3506e-13,5.5896e-06,-7.5472e-07,-5.6707,0.54277
16274,8.2452,2.5455,0,0.00038432,3840.5,0.00012972,0.0012934,0.0001219,-58.753,-0.00038528,-3869.6,0.57322
16275,8.1531,2.4545,0,0.00038692,3866.6,0.00013068,0.0012869,0.0001226,-60.669,-0.00038792,-3896.5,0.56291
16276,8.1531,2.5455,0.05,9.7529e-07,9.7461,7.489e-07,5.627,-1.6059e-12,3.5155e-06,-7.489e-07,-5.6269,0.56299
16277,8.4295,2.5455,0,0.00037928,3790.2,0.00012779,0.0016332,0.00012072,-53.127,-0.00038016,-3816.5,0.59383
16278,8.3373,2.4545,0,0.00038189,3816.2,0.00012873,0.0016109,0.00012143,-54.904,-0.00038279,-3843.4,0.58338
16279,8.3373,2.5455,0.05,9.6815e-07,9.6748,7.4342e-07,5.5858,-1.6268e-12,3.364e-06,-7.4341e-07,-5.5857,0.58346
16280,8.6137,2.5455,0,0.00037425,3739.9,0.00012587,0.0019531,0.00011949,-47.946,-0.00037504,-3763.6,0.6147
16281,8.5216,2.4545,0,0.00037684,3765.8,0.00012681,0.0019185,0.00012021,-49.593,-0.00037766,-3790.4,0.60412
16282,8.5216,2.5455,0.05,9.6139e-07,9.6072,7.3823e-07,5.5468,-1.6442e-12,3.227e-06,-7.3822e-07,-5.5467,0.6042
16283,8.798,2.5455,0,0.0003692,3689.5,0.00012397,0.0022537,0.00011822,-43.171,-0.00036992,-3710.9,0.63582
16284,8.7059,2.4545,0,0.0003718,3715.4,0.0001249,0.0022091,0.00011895,-44.698,-0.00037254,-3737.5,0.62512
16285,8.7059,2.5455,0.05,9.5496e-07,9.543,7.3329e-07,5.5097,-7.5147e-13,3.1026e-06,-7.3329e-07,-5.5096,0.62519
16286,8.9823,2.5455,0,0.00036416,3639.1,0.00012209,0.0025374,0.00011693,-38.771,-0.0003648,-3658.3,0.65719
16287,8.8901,2.4545,0,0.00036675,3664.9,0.00012301,0.0024845,0.00011766,-40.186,-0.00036741,-3684.9,0.64636
16288,8.8901,2.5455,0.05,9.4882e-07,9.4817,7.2858e-07,5.4743,-7.6733e-13,2.9818e-06,-7.2858e-07,-5.4742,0.64644
16289,9.1665,2.5455,0,0.00035911,3588.6,0.00012022,0.0028052,0.0001156,-34.713,-0.00035969,-3605.9,0.67881
16290,9.0744,2.4545,0,0.0003617,3614.5,0.00012114,0.0027464,0.00011634,-36.025,-0.0003623,-3632.3,0.66786
16291,9.0744,2.5455,0.05,9.4294e-07,9.4229,7.2407e-07,5.4403,-7.8175e-13,3.338e-06,-7.2406e-07,-5.4403,0.66794
16292,9.3508,2.5455,0,0.00035407,3538.2,0.00011837,0.0030583,0.00011425,-30.97,-0.00035458,-3553.6,0.70067
16293,9.2587,2.4545,0,0.00035665,3564,0.00011928,0.0029945,0.000115,-32.186,-0.00035718,-3580,0.6896
16294,9.2587,2.5455,0.05,9.3729e-07,9.3664,7.1972e-07,5.4077,-1.7044e-12,3.0021e-06,-7.1972e-07,-5.4077,0.68968
16295,9.5351,2.5455,0,0.00034902,3487.8,0.00011654,0.0032985,0.00011288,-27.516,-0.00034948,-3501.5,0.72277
16296,9.4429,2.4545,0,0.0003516,3513.6,0.00011744,0.0032317,0.00011363,-28.644,-0.00035208,-3527.8,0.71159
16297,9.4429,2.5455,0.05,9.3183e-07,9.3119,7.1553e-07,5.3763,-1.7173e-12,2.9188e-06,-7.1553e-07,-5.3762,0.71166
16298,9.7193,2.5455,0,0.00034399,3437.5,0.00011472,0.0035308,0.00011148,-24.328,-0.00034439,-3449.6,0.74512
16299,9.6272,2.4545,0,0.00034655,3463.1,0.00011562,0.0034571,0.00011224,-25.374,-0.00034698,-3475.8,0.73381
16300,9.6272,2.5455,0.05,9.2656e-07,9.2592,7.1148e-07,5.3458,9.0436e-14,3.3017e-06,-7.1148e-07,-5.3458,0.73389
16301,9.9036,2.5455,0,0.00033895,3387.2,0.00011291,0.0037536,0.00011007,-21.384,-0.00033931,-3397.8,0.76769
16302,9.8115,2.4545,0,0.00034151,3412.8,0.00011381,0.0036829,0.00011083,-22.354,-0.00034189,-3423.9,0.75627
16303,9.8115,2.5455,0.05,9.2144e-07,9.208,7.0755e-07,5.3163,-8.2893e-13,3.4701e-06,-7.0755e-07,-5.3162,0.75635
16304,10.088,2.5455,0,0.00033392,3336.9,0.00011112,0.0039655,0.00010863,-18.664,-0.00033424,-3346.2,0.7905
16305,9.9957,2.4545,0,0.00033648,3362.5,0.00011201,0.0038935,0.0001094,-19.564,-0.00033681,-3372.2,0.77897
16306,9.9957,2.5455,0.05,9.1647e-07,9.1584,7.0374e-07,5.2876,-8.3787e-13,3.4004e-06,-7.0373e-07,-5.2876,0.77904
16307,10.272,2.5455,0,0.0003289,3286.8,0.00010934,0.004177,0.00010719,-16.15,-0.00032918,-3294.8,0.81353
16308,10.18,2.4545,0,0.00033145,3312.2,0.00011022,0.0041009,0.00010796,-16.985,-0.00033174,-3320.7,0.80189
16309,10.18,2.5455,0.05,9.1163e-07,9.11,7.0002e-07,5.2597,-8.4598e-13,3.9327e-06,-7.0002e-07,-5.2597,0.80196
16310,10.456,2.5455,0,0.00032389,3236.7,0.00010757,0.0043653,0.00010573,-13.825,-0.00032412,-3243.6,0.83679
16311,10.364,2.4545,0,0.00032643,3262.1,0.00010845,0.0043161,0.0001065,-14.601,-0.00032668,-3269.4,0.82503
16312,10.364,2.5455,0.05,9.0691e-07,9.0629,6.964e-07,5.2325,5.5349e-14,3.2779e-06,-6.964e-07,-5.2324,0.8251
16313,10.641,2.5455,0,0.00031889,3186.7,0.00010581,0.004547,0.00010426,-11.674,-0.00031909,-3192.5,0.86026
16314,10.549,2.4545,0,0.00032142,3212,0.00010668,0.0044833,0.00010503,-12.396,-0.00032163,-3218.2,0.8484
16315,10.549,2.5455,0.05,9.023e-07,9.0168,6.9285e-07,5.2059,4.9026e-14,3.5836e-06,-6.9286e-07,-5.2058,0.84847
16316,10.825,2.5455,0,0.00031389,3136.8,0.00010406,0.0047713,0.00010278,-9.6823,-0.00031406,-3141.6,0.88396
16317,10.733,2.4545,0,0.00031642,3162,0.00010493,0.0046931,0.00010355,-10.354,-0.0003166,-3167.2,0.87199
16318,10.733,2.5455,0.05,8.9777e-07,8.9715,6.8938e-07,5.1797,4.2221e-14,3.178e-06,-6.8938e-07,-5.1797,0.87206
16319,11.009,2.5455,0,0.00030891,3087,0.00010233,0.0050063,0.00010129,-7.8374,-0.00030904,-3090.9,0.90786
16320,10.917,2.4545,0,0.00031143,3112.2,0.00010319,0.0049567,0.00010206,-8.4629,-0.00031157,-3116.4,0.89579
16321,10.917,2.5455,0.05,8.9335e-07,8.9273,6.8598e-07,5.1542,3.5904e-14,2.8938e-06,-6.8598e-07,-5.1542,0.89586
16322,11.193,2.5455,0,0.00030394,3037.3,0.0001006,0.005238,9.9788e-05,-6.1269,-0.00030404,-3040.4,0.93198
16323,11.101,2.4545,0,0.00030645,3062.4,0.00010146,0.005206,0.00010057,-6.7101,-0.00030657,-3065.8,0.9198
16324,11.101,2.5455,0.05,8.8901e-07,8.884,6.8265e-07,5.1292,-1.7892e-12,2.6687e-06,-6.8265e-07,-5.1292,0.91987
16325,11.378,2.5455,0,0.00029898,2987.8,9.8889e-05,0.0054914,9.8284e-05,-4.5397,-0.00029906,-2990,0.9563
16326,11.286,2.4545,0,0.00030149,3012.8,9.9742e-05,0.0054951,9.9065e-05,-5.0841,-0.00030157,-3015.3,0.94402
16327,11.286,2.5455,0.05,8.8476e-07,8.8415,6.7939e-07,5.1046,-8.8532e-13,1.9693e-06,-6.7938e-07,-5.1046,0.94409
16328,11.562,2.5455,0,0.00029404,2938.3,9.7184e-05,0.0058476,9.6775e-05,-3.0653,-0.00029409,-2939.9,0.98083
16329,11.47,2.4545,0,0.00029653,2963.3,9.8033e-05,0.0058547,9.7556e-05,-3.5745,-0.00029659,-2965,0.96845
16330,11.47,2.5455,0.05,8.8056e-07,8.7996,6.7617e-07,5.0804,1.912e-14,2.499e-06,-6.7616e-07,-5.0804,0.96851
16331,11.746,2.5455,0,0.0002891,2889,9.5488e-05,0.0065755,9.5262e-05,-1.6945,-0.00028913,-2889.9,1.0056
16332,11.654,2.4545,0,0.00029159,2913.9,9.6333e-05,0.0065467,9.6043e-05,-2.1714,-0.00029163,-2915,0.99308
16333,11.654,2.5455,0.05,8.7642e-07,8.7582,6.7298e-07,5.0566,-8.9489e-13,2.405e-06,-6.7298e-07,-5.0565,0.99314
16334,11.931,2.5455,0,0.00028418,2839.9,9.3802e-05,0.010515,9.3745e-05,-0.42107,-0.00028419,-2840.1,1.0305
16335,11.838,2.4545,0,0.00028666,2864.6,9.4642e-05,0.0088257,9.4526e-05,-0.86705,-0.00028668,-2865.1,1.0179
16336,11.838,2.5455,0.05,8.7236e-07,8.7175,6.6986e-07,5.0331,1.0231e-14,2.3718e-06,-6.6986e-07,-5.0331,1.018
16337,12.115,2.5455,0,0.00027928,2790.9,9.2227e-05,0.77791,9.2124e-05,0.0028313,-0.00027927,-2790.5,1.0556
16338,12.023,2.4545,0,0.00028175,2815.6,9.3008e-05,0.36265,9.2959e-05,-0.0031154,-0.00028174,-2815.4,1.0429
16339,12.023,2.5455,0.05,8.6835e-07,8.6775,6.6679e-07,5.01,6.0792e-15,2.6085e-06,-6.6678e-07,-5.0099,1.043
16340,12.299,2.5455,0,0.00027439,2742,9.0706e-05,1.8892,9.0455e-05,0.0045941,-0.00027436,-2741.1,1.0809
16341,12.207,2.4545,0,0.00027685,2766.6,9.1486e-05,1.493,9.1287e-05,0.0035293,-0.00027683,-2765.9,1.0681
16342,12.207,2.5455,0.05,8.644e-07,8.638,6.6375e-07,4.9872,-9.0741e-13,2.8171e-06,-6.6375e-07,-4.9871,1.0682
16343,12.483,2.5455,0,0.00026952,2693.3,8.9185e-05,2.9306,8.8795e-05,0.005122,-0.00026947,-2691.8,1.1064
16344,12.391,2.4545,0,0.00027197,2717.8,8.9963e-05,2.5553,8.9623e-05,0.0044872,-0.00027192,-2716.5,1.0935
16345,12.391,2.5455,0.05,8.6048e-07,8.5989,6.6074e-07,4.9646,-9.1103e-13,1.7802e-06,-6.6074e-07,-4.9646,1.0936
16346,12.668,2.5455,0,0.00026466,2644.7,8.7663e-05,3.908,8.7144e-05,0.0054618,-0.00026459,-2642.8,1.1321
16347,12.575,2.4545,0,0.0002671,2669.2,8.844e-05,3.5515,8.7968e-05,0.0049582,-0.00026704,-2667.4,1.1191
16348,12.575,2.5455,0.05,8.5661e-07,8.5602,6.5777e-07,4.9422,-9.1447e-13,1.1476e-06,-6.5777e-07,-4.9422,1.1192
16349,12.852,2.5455,0,0.00025981,2596.4,8.6142e-05,4.8275,8.55e-05,0.0057248,-0.00025973,-2593.9,1.1579
16350,12.76,2.4545,0,0.00026225,2620.7,8.6917e-05,4.4878,8.6321e-05,0.0053074,-0.00026217,-2618.4,1.1449
16351,12.76,2.5455,0.05,8.5278e-07,8.5219,6.5483e-07,4.9202,-9.1754e-13,1.9513e-06,-6.5483e-07,-4.9201,1.1449
16352,13.036,2.5455,0,0.00025499,2548.1,8.4622e-05,5.6949,8.3865e-05,0.0059322,-0.00025489,-2545.3,1.1839
16353,12.944,2.4545,0,0.00025742,2572.4,8.5395e-05,5.3698,8.4681e-05,0.0055581,-0.00025732,-2569.7,1.1708
16354,12.944,2.5455,0.05,8.49e-07,8.4842,6.5193e-07,4.8983,-1.8298e-12,2.3936e-06,-6.5193e-07,-4.8983,1.1709
16355,13.22,2.5455,0,0.00025018,2500.1,8.3104e-05,6.5159,8.2237e-05,0.0061039,-0.00025007,-2496.8,1.2101
16356,13.128,2.4545,0,0.0002526,2524.2,8.3875e-05,6.2034,8.305e-05,0.0057671,-0.00025249,-2521.1,1.1969
16357,13.128,2.5455,0.05,8.4526e-07,8.4468,6.4906e-07,4.8768,-1.832e-12,3.4772e-06,-6.4906e-07,-4.8767,1.197
16358,13.405,2.5455,0,0.00024539,2452.2,8.1588e-05,7.2957,8.0617e-05,0.0062664,-0.00024526,-2448.5,1.2365
16359,13.313,2.4545,0,0.0002478,2476.3,8.2357e-05,6.9938,8.1427e-05,0.0059303,-0.00024768,-2472.8,1.2232
16360,13.313,2.5455,0.05,8.4155e-07,8.4097,6.4621e-07,4.8554,-1.5094e-14,3.3428e-06,-6.462e-07,-4.8553,1.2233
16361,13.589,2.5455,0,0.00024062,2404.5,8.0074e-05,8.0394,7.9005e-05,0.0064543,-0.00024048,-2400.5,1.2631
16362,13.497,2.4545,0,0.00024301,2428.5,8.0841e-05,7.7461,7.9811e-05,0.0061118,-0.00024288,-2424.6,1.2497
16363,13.497,2.5455,0.05,8.3787e-07,8.3729,6.4337e-07,4.8341,-1.7023e-14,3.1519e-06,-6.4338e-07,-4.8341,1.2497
16364,13.773,2.5455,0,0.00023586,2357,7.8564e-05,8.7517,7.7401e-05,0.0066411,-0.00023571,-2352.6,1.2898
16365,13.681,2.4545,0,0.00023825,2380.8,7.9329e-05,8.4653,7.8203e-05,0.0063192,-0.0002381,-2376.6,1.2763
16366,13.681,2.5455,0.05,8.3422e-07,8.3365,6.4058e-07,4.8131,-1.827e-14,1.949e-06,-6.4058e-07,-4.813,1.2764
16367,13.957,2.5455,0,0.00023112,2309.6,7.7058e-05,9.4373,7.5803e-05,0.0068096,-0.00023096,-2304.9,1.3166
16368,13.865,2.4545,0,0.0002335,2333.4,7.782e-05,9.1558,7.6602e-05,0.0064943,-0.00023334,-2328.8,1.3031
16369,13.865,2.5455,0.05,8.3061e-07,8.3004,6.3781e-07,4.7922,-2.0047e-14,2.0551e-06,-6.3781e-07,-4.7922,1.3031
16370,14.142,2.5455,0,0.0002264,2262.5,7.5556e-05,10.1,7.4213e-05,0.0069635,-0.00022623,-2257.4,1.3436
16371,14.05,2.4545,0,0.00022877,2286.1,7.6315e-05,9.822,7.5009e-05,0.0066628,-0.0002286,-2281.2,1.33
16372,14.05,2.5455,0.05,8.2703e-07,8.2646,6.3506e-07,4.7716,-9.3099e-13,2.7628e-06,-6.3506e-07,-4.7716,1.3301
16373,14.326,2.5455,0,0.0002217,2215.5,7.4059e-05,10.745,7.263e-05,0.007121,-0.00022152,-2210.1,1.3708
16374,14.234,2.4545,0,0.00022406,2239.1,7.4814e-05,10.468,7.3422e-05,0.0068063,-0.00022388,-2233.8,1.3571
16375,14.234,2.5455,0.05,8.2348e-07,8.2291,6.3233e-07,4.7511,-2.2478e-14,1.795e-06,-6.3233e-07,-4.7511,1.3572
16376,14.51,2.5455,0,0.00021702,2168.7,7.2567e-05,11.376,7.1054e-05,0.0073106,-0.00021683,-2163,1.3981
16377,14.418,2.4545,0,0.00021937,2192.2,7.3319e-05,11.099,7.1843e-05,0.0069793,-0.00021918,-2186.6,1.3844
16378,14.418,2.5455,0.05,8.1994e-07,8.1937,6.2961e-07,4.7306,-1.8431e-12,2.9187e-06,-6.2961e-07,-4.7306,1.3844
16379,14.695,2.5455,0,0.00021236,2122.1,7.108e-05,11.998,6.9484e-05,0.0075056,-0.00021215,-2116.1,1.4256
16380,14.602,2.4545,0,0.0002147,2145.5,7.1829e-05,11.718,7.027e-05,0.0071855,-0.0002145,-2139.6,1.4118
16381,14.602,2.5455,0.05,8.1644e-07,8.1587,6.2692e-07,4.7104,-9.3316e-13,3.9944e-06,-6.2692e-07,-4.7104,1.4118
16382,14.879,2.5455,0,0.00020772,2075.7,6.9599e-05,12.613,6.7922e-05,0.0076889,-0.0002075,-2069.4,1.4532
16383,14.787,2.4545,0,0.00021005,2099,7.0344e-05,12.328,6.8704e-05,0.007369,-0.00020983,-2092.8,1.4393
16384,14.787,2.5455,0.05,8.1297e-07,8.1241,6.2426e-07,4.6904,-2.3492e-14,6.0207e-06,-6.2426e-07,-4.6904,1.4394
16385,15.063,2.5455,0,0.0002031,2029.5,6.8125e-05,13.226,6.6366e-05,0.0078641,-0.00020287,-2022.9,1.481
16386,14.971,2.4545,0,0.00020541,2052.7,6.8866e-05,12.935,6.7145e-05,0.0075507,-0.00020519,-2046.2,1.467
16387,14.971,2.5455,0.05,8.0952e-07,8.0896,6.2161e-07,4.6706,-9.3356e-13,5.3063e-06,-6.2161e-07,-4.6705,1.4671
16388,15.247,2.5455,0,0.00019849,1983.6,6.6657e-05,13.841,6.4816e-05,0.0080475,-0.00019825,-1976.6,1.5089
16389,15.155,2.4545,0,0.0002008,2006.6,6.7394e-05,13.542,6.5593e-05,0.0077181,-0.00020057,-1999.8,1.4948
16390,15.155,2.5455,0.05,8.061e-07,8.0555,6.1899e-07,4.6508,-2.5207e-14,6.7264e-06,-6.1898e-07,-4.6508,1.4949
16391,15.432,2.5455,0,0.00019391,1937.8,6.5197e-05,14.462,6.3273e-05,0.008263,-0.00019366,-1930.5,1.5369
16392,15.339,2.4545,0,0.00019621,1960.7,6.5929e-05,14.153,6.4047e-05,0.0079153,-0.00019596,-1953.6,1.5228
16393,15.339,2.5455,0.05,8.027e-07,8.0215,6.1637e-07,4.6312,-2.7008e-14,6.1177e-06,-6.1637e-07,-4.6312,1.5228
16394,15.616,2.5455,0,0.00018935,1892.2,6.3744e-05,15.093,6.1737e-05,0.008488,-0.00018909,-1884.6,1.5651
16395,15.524,2.4545,0,0.00019163,1915,6.4472e-05,14.771,6.2507e-05,0.0081461,-0.00019138,-1907.6,1.5509
16396,15.524,2.5455,0.05,7.9933e-07,7.9878,6.1379e-07,4.6118,-2.8704e-14,4.6706e-06,-6.1379e-07,-4.6117,1.5509
16397,15.8,2.5455,0,0.00018481,1846.8,6.2299e-05,15.737,6.0206e-05,0.0087081,-0.00018453,-1838.9,1.5933
16398,15.708,2.4545,0,0.00018708,1869.5,6.3022e-05,15.402,6.0974e-05,0.0083629,-0.00018682,-1861.8,1.5791
16399,15.708,2.5455,0.05,7.96e-07,7.9545,6.1123e-07,4.5925,-9.4057e-13,4.0603e-06,-6.1122e-07,-4.5925,1.5792
16400,15.984,2.5455,0,0.00018029,1801.6,6.0863e-05,16.4,5.8681e-05,0.0089265,-0.00018,-1793.4,1.6218
16401,15.892,2.4545,0,0.00018255,1824.3,6.1581e-05,16.047,5.9446e-05,0.0085828,-0.00018227,-1816.2,1.6075
16402,15.892,2.5455,0.05,7.9269e-07,7.9214,6.0868e-07,4.5734,-3.2273e-14,4.7634e-06,-6.0869e-07,-4.5734,1.6075
16403,16.169,2.5455,0,0.00017579,1756.7,5.9435e-05,17.084,5.7163e-05,0.0091569,-0.00017549,-1748.1,1.6503
16404,16.077,2.4545,0,0.00017804,1779.2,6.0148e-05,16.713,5.7925e-05,0.0087938,-0.00017775,-1770.8,1.6359
16405,16.077,2.5455,0.05,7.894e-07,7.8886,6.0616e-07,4.5545,-9.4402e-13,5.1079e-06,-6.0616e-07,-4.5545,1.636
16406,16.353,2.5455,0,0.00017131,1711.9,5.8017e-05,17.796,5.565e-05,0.0094213,-0.000171,-1703,1.6789
16407,16.261,2.4545,0,0.00017355,1734.3,5.8724e-05,17.402,5.6409e-05,0.0090387,-0.00017325,-1725.6,1.6645
16408,16.261,2.5455,0.05,7.8614e-07,7.856,6.0366e-07,4.5357,-3.5286e-14,6.4065e-06,-6.0366e-07,-4.5357,1.6646
16409,16.537,2.5455,0,0.00016686,1667.4,5.6609e-05,18.538,5.4143e-05,0.009701,-0.00016653,-1658.1,1.7077
16410,16.445,2.4545,0,0.00016909,1689.7,5.731e-05,18.12,5.4899e-05,0.0093181,-0.00016877,-1680.6,1.6933
16411,16.445,2.5455,0.05,7.8292e-07,7.8238,6.0119e-07,4.5171,-3.7752e-14,7.2241e-06,-6.0118e-07,-4.5171,1.6933
16412,16.721,2.5455,0,0.00016242,1623.1,5.5211e-05,19.317,5.2641e-05,0.0099818,-0.00016209,-1613.4,1.7366
16413,16.629,2.4545,0,0.00016464,1645.3,5.5906e-05,18.871,5.3395e-05,0.0095911,-0.00016431,-1635.8,1.7221
16414,16.629,2.5455,0.05,7.7973e-07,7.792,5.9874e-07,4.4987,-9.4922e-13,7.5663e-06,-5.9874e-07,-4.4987,1.7221
16415,16.906,2.5455,0,0.00015801,1579,5.3823e-05,20.136,5.1145e-05,0.010267,-0.00015766,-1568.9,1.7656
16416,16.814,2.4545,0,0.00016022,1601.1,5.4512e-05,19.66,5.1897e-05,0.0098738,-0.00015988,-1591.2,1.751
16417,16.814,2.5455,0.05,7.7658e-07,7.7605,5.9632e-07,4.4805,-4.2935e-14,6.5904e-06,-5.9632e-07,-4.4805,1.7511
16418,17.09,2.5455,0,0.00015363,1535.2,5.2448e-05,21.002,4.9654e-05,0.010571,-0.00015326,-1524.6,1.7947
16419,16.998,2.4545,0,0.00015582,1557.1,5.3129e-05,20.492,5.0403e-05,0.010156,-0.00015546,-1546.8,1.7801
16420,16.998,2.5455,0.05,7.7346e-07,7.7293,5.9392e-07,4.4625,-4.9987e-13,6.8165e-06,-5.9392e-07,-4.4625,1.7801
16421,17.274,2.5455,0,0.00014926,1491.6,5.1084e-05,21.919,4.8168e-05,0.010913,-0.00014888,-1480.5,1.8239
16422,17.182,2.4545,0,0.00015144,1513.4,5.1758e-05,21.371,4.8915e-05,0.010476,-0.00015107,-1502.6,1.8092
16423,17.182,2.5455,0.05,7.7038e-07,7.6985,5.9156e-07,4.4447,-5.0042e-13,6.8055e-06,-5.9155e-07,-4.4447,1.8093
16424,17.459,2.5455,0,0.00014492,1448.2,4.9732e-05,22.893,4.6687e-05,0.011277,-0.00014452,-1436.6,1.8532
16425,17.366,2.4545,0,0.00014709,1469.9,5.0399e-05,22.305,4.7432e-05,0.010834,-0.0001467,-1458.6,1.8385
16426,17.366,2.5455,0.05,7.6734e-07,7.6681,5.8922e-07,4.4272,-4.9187e-14,6.2984e-06,-5.8922e-07,-4.4272,1.8385
16427,17.643,2.5455,0,0.00014061,1405.1,4.8394e-05,23.932,4.521e-05,0.011652,-0.00014018,-1393,1.8826
16428,17.551,2.4545,0,0.00014276,1426.6,4.9053e-05,23.298,4.5953e-05,0.011196,-0.00014235,-1414.8,1.8678
16429,17.551,2.5455,0.05,7.6435e-07,7.6382,5.8692e-07,4.4099,-5.1684e-14,7.7116e-06,-5.8692e-07,-4.4099,1.8679
16430,17.827,2.5455,0,0.00013631,1362.2,4.707e-05,25.04,4.3739e-05,0.012042,-0.00013587,-1349.5,1.9121
16431,17.735,2.4545,0,0.00013846,1383.6,4.772e-05,24.356,4.448e-05,0.011577,-0.00013803,-1371.3,1.8973
16432,17.735,2.5455,0.05,7.614e-07,7.6088,5.8466e-07,4.3929,-5.6599e-14,6.2477e-06,-5.8466e-07,-4.3929,1.8973
16433,18.011,2.5455,0,0.00013205,1319.6,4.576e-05,26.226,4.2271e-05,0.01246,-0.00013158,-1306.2,1.9417
16434,17.919,2.4545,0,0.00013418,1340.8,4.6401e-05,25.488,4.301e-05,0.011969,-0.00013372,-1327.9,1.9268
16435,17.919,2.5455,0.05,7.585e-07,7.5798,5.8244e-07,4.3762,-5.1498e-13,7.1758e-06,-5.8244e-07,-4.3762,1.9269
16436,18.196,2.5455,0,0.00012781,1277.2,4.4466e-05,27.497,4.0808e-05,0.012924,-0.00012732,-1263.2,1.9714
16437,18.103,2.4545,0,0.00012992,1298.3,4.5097e-05,26.699,4.1545e-05,0.012405,-0.00012945,-1284.7,1.9565
16438,18.103,2.5455,0.05,7.5566e-07,7.5514,5.8025e-07,4.3598,-9.7541e-13,7.6058e-06,-5.8025e-07,-4.3598,1.9565
16439,18.38,2.5455,0,0.00012359,1235.1,4.3188e-05,28.861,3.9348e-05,0.013423,-0.00012307,-1220.4,2.0011
16440,18.288,2.4545,0,0.00012569,1256,4.3809e-05,27.998,4.0084e-05,0.012889,-0.00012519,-1241.8,1.9862
16441,18.288,2.5455,0.05,7.5288e-07,7.5236,5.7812e-07,4.3437,-7.1874e-14,9.2355e-06,-5.7811e-07,-4.3437,1.9862
16442,18.564,2.5455,0,0.0001194,1193.2,4.1927e-05,30.327,3.7892e-05,0.013948,-0.00011886,-1177.7,2.031
16443,18.472,2.4545,0,0.00012149,1214,4.2537e-05,29.392,3.8627e-05,0.013394,-0.00012096,-1199.1,2.016
16444,18.472,2.5455,0.05,7.5016e-07,7.4964,5.7603e-07,4.3281,-7.7147e-14,1.1571e-05,-5.7603e-07,-4.3281,2.016
16445,18.748,2.5455,0,0.00011524,1151.6,4.0684e-05,31.903,3.644e-05,0.014504,-0.00011467,-1135.3,2.0609
16446,18.656,2.4545,0,0.00011731,1172.3,4.1283e-05,30.891,3.7173e-05,0.01393,-0.00011675,-1156.5,2.0459
16447,18.656,2.5455,0.05,7.4752e-07,7.47,5.74e-07,4.3128,-7.9632e-14,7.9677e-06,-5.74e-07,-4.3128,2.0459
16448,18.933,2.5455,0,0.00011111,1110.3,3.946e-05,33.6,3.499e-05,0.015106,-0.0001105,-1093.1,2.0909
16449,18.841,2.4545,0,0.00011316,1130.8,4.0047e-05,32.503,3.5723e-05,0.014496,-0.00011257,-1114.2,2.0759
16450,18.841,2.5455,0.05,7.4495e-07,7.4443,5.7203e-07,4.298,-9.156e-14,6.2232e-06,-5.7203e-07,-4.298,2.0759
16451,19.117,2.5455,0,0.000107,1069.3,3.8256e-05,35.429,3.3543e-05,0.01577,-0.00010636,-1051.1,2.121
16452,19.025,2.4545,0,0.00010904,1089.6,3.883e-05,34.24,3.4275e-05,0.015123,-0.00010842,-1072.1,2.1059
16453,19.025,2.5455,0.05,7.4246e-07,7.4195,5.7012e-07,4.2837,-1.0238e-13,8.7764e-06,-5.7012e-07,-4.2836,2.1059
16454,19.301,2.5455,0,0.00010293,1028.6,3.7074e-05,37.401,3.2098e-05,0.016488,-0.00010224,-1009.4,2.1512
16455,19.209,2.4545,0,0.00010495,1048.8,3.7634e-05,36.111,3.283e-05,0.015814,-0.00010429,-1030.2,2.136
16456,19.209,2.5455,0.05,7.4007e-07,7.3956,5.6828e-07,4.2698,-5.6678e-13,7.7337e-06,-5.6828e-07,-4.2698,2.1361
16457,19.485,2.5455,0,9.8884e-05,988.16,3.5914e-05,39.527,3.0656e-05,0.017262,-9.8152e-05,-967.79,2.1814
16458,19.393,2.4545,0,0.00010088,1008.2,3.6459e-05,38.129,3.1387e-05,0.016549,-0.00010018,-988.54,2.1662
16459,19.393,2.5455,0.05,7.3778e-07,7.3727,5.6653e-07,4.2567,-1.2439e-13,8.6028e-06,-5.6653e-07,-4.2566,2.1663
16460,19.67,2.5455,0,9.4871e-05,948.06,3.4778e-05,41.822,2.9214e-05,0.018098,-9.409e-05,-926.44,2.2117
16461,19.578,2.4545,0,9.6853e-05,967.86,3.5308e-05,40.306,2.9946e-05,0.017349,-9.6104e-05,-947.07,2.1965
16462,19.578,2.5455,0.05,7.3561e-07,7.351,5.6486e-07,4.2441,-1.3526e-13,8.0418e-06,-5.6486e-07,-4.2441,2.1965
16463,19.854,2.5455,0,9.089e-05,908.28,3.3668e-05,44.299,2.7774e-05,0.01901,-9.0055e-05,-885.31,2.242
16464,19.762,2.4545,0,9.2853e-05,927.89,3.418e-05,42.655,2.8506e-05,0.018209,-9.2053e-05,-905.82,2.2268
16465,19.762,2.5455,0.05,7.3356e-07,7.3306,5.6329e-07,4.2323,-1.4166e-13,7.0446e-06,-5.6329e-07,-4.2323,2.2268
16466,20.038,2.5455,0,8.6943e-05,868.83,3.2584e-05,46.973,2.6335e-05,0.020024,-8.6049e-05,-844.38,2.2725
16467,19.946,2.4545,0,8.8885e-05,888.24,3.3079e-05,45.19,2.7067e-05,0.019163,-8.803e-05,-864.77,2.2572
16468,19.946,2.5455,0.05,7.3165e-07,7.3115,5.6182e-07,4.2213,-1.4422e-13,4.1799e-06,-5.6182e-07,-4.2213,2.2572
16469,20.223,2.5455,0,8.3031e-05,829.74,3.1528e-05,49.861,2.4895e-05,0.021137,-8.207e-05,-803.67,2.3029
16470,20.13,2.4545,0,8.4952e-05,848.93,3.2004e-05,47.928,2.5628e-05,0.020223,-8.4035e-05,-823.94,2.2877
16471,20.13,2.5455,0.05,7.299e-07,7.294,5.6048e-07,4.2112,-1.5055e-13,6.0248e-06,-5.6047e-07,-4.2112,2.2877
16472,20.407,2.5455,0,7.9155e-05,791.01,3.0503e-05,52.978,2.3455e-05,0.02236,-7.812e-05,-763.18,2.3335
16473,20.315,2.4545,0,8.1054e-05,809.98,3.0959e-05,50.883,2.4189e-05,0.02138,-8.0068e-05,-783.33,2.3182
16474,20.315,2.5455,0.05,7.2833e-07,7.2783,5.5927e-07,4.2021,-1.5091e-13,7.9374e-06,-5.5926e-07,-4.2021,2.3182
16475,20.591,2.5455,0,7.5317e-05,752.65,2.9509e-05,56.343,2.2013e-05,0.023711,-7.42e-05,-722.89,2.364
16476,20.499,2.4545,0,7.7192e-05,771.39,2.9944e-05,54.074,2.275e-05,0.022659,-7.6129e-05,-742.92,2.3487
16477,20.499,2.5455,0.05,7.2695e-07,7.2645,5.5821e-07,4.1942,-3.622e-13,9.0164e-06,-5.5821e-07,-4.1941,2.3487
16478,20.775,2.5455,0,7.1519e-05,714.69,2.8549e-05,59.975,2.057e-05,0.025218,-7.0309e-05,-682.8,2.3947
16479,20.683,2.4545,0,7.3369e-05,733.18,2.8961e-05,57.519,2.1309e-05,0.02407,-7.222e-05,-702.72,2.3793
16480,20.683,2.5455,0.05,7.2579e-07,7.2529,5.5732e-07,4.1875,-3.5539e-13,1.0484e-05,-5.5732e-07,-4.1874,2.3793
16481,20.96,2.5455,0,6.7762e-05,677.15,2.7624e-05,63.893,1.9124e-05,0.026916,-6.6448e-05,-642.93,2.4254
16482,20.867,2.4545,0,6.9586e-05,695.38,2.8012e-05,61.236,1.9865e-05,0.025663,-6.8341e-05,-662.72,2.41
16483,20.867,2.5455,0.05,7.2488e-07,7.2438,5.5662e-07,4.1822,-3.5953e-13,8.5333e-06,-5.5661e-07,-4.1822,2.41
16484,21.144,2.5455,0,6.4048e-05,640.04,2.6736e-05,68.118,1.7674e-05,0.028831,-6.2617e-05,-603.24,2.4561
16485,21.052,2.4545,0,6.5845e-05,657.99,2.7099e-05,65.247,1.8419e-05,0.02746,-6.4491e-05,-622.93,2.4407
16486,21.052,2.5455,0.05,7.2424e-07,7.2374,5.5613e-07,4.1786,-3.8279e-13,7.8818e-06,-5.5613e-07,-4.1785,2.4407
16487,21.328,2.5455,0,6.0381e-05,603.39,2.5888e-05,72.671,1.622e-05,0.031005,-5.8815e-05,-563.76,2.4869
16488,21.236,2.4545,0,6.2148e-05,621.06,2.6224e-05,69.571,1.6969e-05,0.02949,-6.0671e-05,-583.33,2.4714
16489,21.236,2.5455,0.05,7.2393e-07,7.2343,5.5589e-07,4.1767,-3.9654e-13,5.3995e-06,-5.5589e-07,-4.1767,2.4714
16490,21.512,2.5455,0,5.6763e-05,567.24,2.508e-05,77.574,1.476e-05,0.033494,-5.5044e-05,-524.45,2.5177
16491,21.42,2.4545,0,5.85e-05,584.59,2.5389e-05,74.232,1.5513e-05,0.031806,-5.6882e-05,-543.92,2.5022
16492,21.42,2.5455,0.05,7.2397e-07,7.2347,5.5592e-07,4.177,-6.4526e-13,3.3413e-06,-5.5592e-07,-4.1769,2.5022
16493,21.697,2.5455,0,5.3198e-05,531.61,2.4316e-05,82.848,1.3294e-05,0.036381,-5.1302e-05,-485.31,2.5485
16494,21.605,2.4545,0,5.4901e-05,548.63,2.4596e-05,79.251,1.4052e-05,0.034474,-5.3122e-05,-504.68,2.5331
16495,21.605,2.5455,0.05,7.2441e-07,7.2391,5.5626e-07,4.1795,-4.1433e-13,4.3285e-06,-5.5626e-07,-4.1795,2.5331
16496,21.881,2.5455,0,4.969e-05,496.56,2.3595e-05,88.515,1.182e-05,0.039779,-4.7588e-05,-446.33,2.5794
16497,21.789,2.4545,0,5.1358e-05,513.22,2.3846e-05,84.651,1.2584e-05,0.037593,-4.9391e-05,-465.62,2.5639
16498,21.789,2.5455,0.05,7.253e-07,7.248,5.5694e-07,4.1847,-3.8299e-13,6.4601e-06,-5.5694e-07,-4.1846,2.5639
16499,22.065,2.5455,0,4.6244e-05,462.12,2.2921e-05,94.596,1.0337e-05,0.043831,-4.3902e-05,-407.49,2.6103
16500,21.973,2.4545,0,4.7873e-05,478.4,2.3141e-05,90.454,1.1108e-05,0.041293,-4.5688e-05,-426.7,2.5948
16501,21.973,2.5455,0.05,7.267e-07,7.262,5.5802e-07,4.1928,-4.0616e-13,9.149e-06,-5.5802e-07,-4.1927,2.5948
16502,22.249,2.5455,0,4.2867e-05,428.38,2.2294e-05,101.11,8.8435e-06,0.048735,-4.0242e-05,-368.76,2.6412
16503,22.157,2.4545,0,4.4454e-05,444.24,2.2483e-05,96.68,9.6222e-06,0.045732,-4.2013e-05,-387.92,2.6258
16504,22.157,2.5455,0.05,7.2867e-07,7.2817,5.5953e-07,4.2041,-6.5235e-13,1.1869e-05,-5.5953e-07,-4.2041,2.6258
16505,22.434,2.5455,0,3.9569e-05,395.42,2.1715e-05,108.07,7.3383e-06,0.054829,-3.6606e-05,-330.13,2.6722
16506,22.342,2.4545,0,4.1109e-05,410.81,2.1874e-05,103.35,8.1254e-06,0.051163,-3.8363e-05,-349.25,2.6567
16507,22.342,2.5455,0.05,7.3126e-07,7.3076,5.6152e-07,4.2191,-6.0844e-13,8.3804e-06,-5.6152e-07,-4.219,2.6567
16508,22.618,2.5455,0,3.6361e-05,363.36,2.1184e-05,115.5,5.8199e-06,0.062544,-3.2992e-05,-291.55,2.7032
16509,22.526,2.4545,0,3.7848e-05,378.22,2.1313e-05,110.48,6.6161e-06,0.058014,-3.4737e-05,-310.66,2.6877
16510,22.526,2.5455,0.05,7.3454e-07,7.3403,5.6404e-07,4.2379,-6.2134e-13,3.5147e-06,-5.6403e-07,-4.2379,2.6877
16511,22.802,2.5455,0,3.326e-05,332.37,2.0702e-05,123.41,4.2868e-06,0.07291,-2.9395e-05,-253,2.7342
16512,22.71,2.4545,0,3.4684e-05,346.6,2.0801e-05,118.09,5.093e-06,0.066749,-3.1132e-05,-272.11,2.7187
16513,22.71,2.5455,0.05,7.3855e-07,7.3804,5.6712e-07,4.2611,-6.639e-13,1.2602e-06,-5.6711e-07,-4.2611,2.7187
16514,22.987,2.5455,0,3.0289e-05,302.69,2.0267e-05,131.8,2.7374e-06,0.086363,-2.5813e-05,-214.43,2.7653
16515,22.894,2.4545,0,3.1639e-05,316.17,2.0338e-05,126.18,3.5545e-06,0.079027,-2.7544e-05,-233.58,2.7497
16516,22.894,2.5455,0.05,7.4335e-07,7.4284,5.708e-07,4.2888,-4.3154e-13,2.2795e-06,-5.708e-07,-4.2888,2.7497
16517,23.171,2.5455,0,2.7483e-05,274.64,1.9879e-05,140.67,1.171e-06,0.1092,-2.2241e-05,-175.8,2.7963
16518,23.079,2.4545,0,2.874e-05,287.2,1.9923e-05,134.77,1.9989e-06,0.094201,-2.3969e-05,-195.02,2.7808
16519,23.079,2.5455,0.05,7.4896e-07,7.4844,5.7511e-07,4.3211,-1.5616e-13,4.5553e-06,-5.751e-07,-4.3211,2.7808
16520,23.355,2.5455,0,2.4889e-05,248.72,1.9535e-05,150.03,-4.1452e-07,0.1323,-1.8675e-05,-137.07,2.8274
16521,23.263,2.4545,0,2.6027e-05,260.09,1.9556e-05,143.86,4.2607e-07,0.12588,-2.0403e-05,-156.38,2.8118
16522,23.263,2.5455,0.05,7.5539e-07,7.5487,5.8004e-07,4.3582,-3.7458e-13,7.9694e-07,-5.8004e-07,-4.3582,2.8118
16523,23.539,2.5455,0,2.2574e-05,225.59,1.9234e-05,159.88,-2.0139e-06,0.2293,-1.5114e-05,-98.198,2.8585
16524,23.447,2.4545,0,2.3557e-05,235.41,1.9232e-05,153.42,-1.1678e-06,0.1435,-1.6842e-05,-117.63,2.8429
16525,23.447,2.5455,0.05,7.626e-07,7.6207,5.8558e-07,4.3998,-1.219e-13,-9.1036e-07,-5.8558e-07,-4.3998,2.8429
16526,23.724,2.5455,0,2.0629e-05,206.15,1.8972e-05,170.13,-3.6403e-06,0.22663,-1.155e-05,-59.206,2.8896
16527,23.631,2.4545,0,2.141e-05,213.95,1.8952e-05,163.52,-2.7678e-06,0.33035,-1.3287e-05,-78.705,2.874
16528,23.631,2.5455,0.05,7.7061e-07,7.7007,5.9173e-07,4.446,-5.7529e-13,-9.1481e-07,-5.9173e-07,-4.446,2.874
16529,23.816,2.4545,0,1.969e-05,196.76,1.8709e-05,173.9,-4.4087e-06,0.20602,-9.7301e-06,-39.777,2.9051
16530,23.816,2.5455,0.05,7.8097e-07,7.8044,5.9969e-07,4.5059,-5.4794e-13,-7.0338e-07,-5.9969e-07,-4.5058,2.9051
16531,23.908,2.5455,0,1.9239e-05,192.26,1.8764e-05,180.26,-5.1707e-06,0.43003,-8.2069e-06,-22.383,2.9207
16532,1.2431,2.3636,0,0.0013213,13203,0.00046228,-13.998,0.00038967,-559.55,-0.0013302,-13482,0.020522
16533,1.1509,2.2727,0,0.0015075,15065,0.00050547,87.346,0.00049199,-13.893,-0.0015063,-15028,0.016962
16534,1.1509,2.3636,0.05,4.4878e-05,448.47,3.4461e-05,258.93,1.2661e-11,0.00066313,-3.4461e-05,-258.93,0.01729
16535,1.4273,2.3636,0,0.0010912,10904,0.00039822,1.8179,0.00029408,-780.64,-0.0011023,-11273,0.027442
16536,1.3352,2.2727,0,0.0011737,11729,0.00040855,28.033,0.00035363,-384.65,-0.0011793,-11902,0.023538
16537,1.3352,2.3636,0.05,3.5267e-05,352.43,2.7081e-05,203.47,-2.458e-12,0.0004258,-2.7081e-05,-203.47,0.023798
16538,1.6116,2.3636,0,0.000935,9343.5,0.00035255,7.3959,0.00023207,-897.84,-0.00094685,-9755.8,0.035092
16539,1.5195,2.2727,0,0.00097763,9769.6,0.00035384,4.8575,0.00026902,-632.45,-0.00098675,-10068,0.030902
16540,1.5195,2.3636,0.05,2.6272e-05,262.54,2.0174e-05,151.58,5.3305e-12,0.00031482,-2.0174e-05,-151.58,0.031104
16541,1.7959,2.3636,0,0.00082807,8275,0.00031908,3.2211,0.00019263,-946.87,-0.00084002,-8705.8,0.043374
16542,1.7037,2.2727,0,0.0008552,8546.1,0.00031952,7.5045,0.00021769,-757.61,-0.00086538,-8895.4,0.038925
16543,1.7037,2.3636,0.05,1.9061e-05,190.48,1.4637e-05,109.97,1.3987e-11,0.00032436,-1.4637e-05,-109.97,0.039086
16544,1.9801,2.3636,0,0.0007519,7513.8,0.00029404,2.4161,0.00016683,-953.39,-0.0007635,-7943.6,0.05222
16545,1.888,2.2727,0,0.00077058,7700.5,0.00029399,3.0119,0.00018468,-818.33,-0.00078115,-8075.2,0.04753
16546,1.888,2.3636,0.05,1.457e-05,145.6,1.1188e-05,84.061,2.1603e-11,0.0002507,-1.1188e-05,-84.06,0.047662
16547,2.1644,2.3636,0,0.00069551,6950.3,0.00027431,1.6649,0.00014991,-933.05,-0.00070662,-7368.7,0.061582
16548,2.0723,2.2727,0,0.00070956,7090.7,0.00027447,2.4495,0.00016307,-834.56,-0.00072,-7469.6,0.056662
16549,2.0723,2.3636,0.05,1.1486e-05,114.78,8.8195e-06,66.266,1.698e-11,0.00025111,-8.8195e-06,-66.266,0.056776
16550,2.3487,2.3636,0,0.00065266,6522.1,0.00025833,1.1662,0.00013891,-896.09,-0.00066324,-6923.1,0.071423
16551,2.2565,2.2727,0,0.00066383,6633.7,0.00025872,1.5535,0.00014889,-823.63,-0.00067395,-7006.2,0.066282
16552,2.2565,2.3636,0.05,9.2295e-06,92.232,7.0871e-06,53.25,1.4039e-11,0.00021664,-7.0871e-06,-53.25,0.066384
16553,2.5329,2.3636,0,0.00061946,6190.3,0.00024512,0.83538,0.00013195,-849.44,-0.0006295,-6570.7,0.081713
16554,2.4408,2.2727,0,0.00062871,6282.8,0.00024573,1.1223,0.00013968,-795.71,-0.00063843,-6642.1,0.07636
16555,2.4408,2.3636,0.05,7.5186e-06,75.134,5.7734e-06,43.379,1.7991e-11,0.00018493,-5.7734e-06,-43.379,0.076456
16556,2.7172,2.3636,0,0.00059331,5929,0.00023403,0.59856,0.00012777,-797.78,-0.00060283,-6287.2,0.092431
16557,2.6251,2.2727,0,0.0006012,6007.9,0.00023481,0.79229,0.00013385,-757.83,-0.00061048,-6350.4,0.086872
16558,2.6251,2.3636,0.05,6.1931e-06,61.889,4.7556e-06,35.732,1.3479e-11,0.00016612,-4.7556e-06,-35.731,0.086965
16559,2.9015,2.3636,0,0.00057242,5720.3,0.0002246,0.43097,0.00012549,-744.22,-0.00058143,-6055.7,0.10356
16560,2.8093,2.2727,0,0.00057929,5788.9,0.00022551,0.57153,0.00013033,-714.58,-0.00058811,-6112.7,0.097799
16561,2.8093,2.3636,0.05,5.1527e-06,51.492,3.9567e-06,29.729,1.5859e-11,0.00012585,-3.9566e-06,-29.729,0.097892
16562,3.0857,2.3636,0,0.0005555,5551.1,0.00021649,0.31014,0.00012451,-690.83,-0.00056401,-5864,0.11508
16563,2.9936,2.2727,0,0.00056157,5611.8,0.0002175,0.41232,0.0001284,-669.02,-0.00056994,-5916.1,0.10913
16564,2.9936,2.3636,0.05,4.3298e-06,43.268,3.3248e-06,24.981,8.5826e-12,0.00010371,-3.3248e-06,-24.981,0.10922
16565,3.27,2.3636,0,0.00054157,5412,0.00020945,0.22294,0.00012438,-638.93,-0.0005496,-5703,0.12699
16566,3.1779,2.2727,0,0.00054701,5466.4,0.00021052,0.29855,0.00012755,-623.1,-0.00055494,-5751,0.12084
16567,3.1779,2.3636,0.05,3.6758e-06,36.733,2.8226e-06,21.208,8.277e-12,9.2318e-05,-2.8226e-06,-21.208,0.12094
16568,3.4543,2.3636,0,0.00052994,5295.7,0.00020327,0.15975,0.00012482,-589.31,-0.00053749,-5565.7,0.13926
16569,3.3621,2.2727,0,0.00053487,5345,0.00020438,0.21611,0.00012741,-578.1,-0.00054234,-5610.4,0.13293
16570,3.3621,2.3636,0.05,3.1545e-06,31.524,2.4223e-06,18.2,5.344e-12,5.7928e-05,-2.4223e-06,-18.2,0.13303
16571,3.6385,2.3636,0,0.00052005,5196.9,0.00019779,0.11392,0.00012558,-542.45,-0.00052714,-5446.8,0.15191
16572,3.5464,2.2727,0,0.00052455,5241.9,0.00019893,0.15626,0.00012773,-534.8,-0.0005316,-5488.7,0.14539
16573,3.5464,2.3636,0.05,2.7382e-06,27.363,2.1026e-06,15.798,4.0269e-12,6.8374e-05,-2.1026e-06,-15.798,0.1455
16574,3.8228,2.3636,0,0.00051147,5111.2,0.00019288,0.080653,0.00012652,-498.55,-0.00051813,-5342.2,0.16491
16575,3.7307,2.2727,0,0.00051564,5152.8,0.00019404,0.11266,0.00012832,-493.66,-0.00052226,-5381.8,0.15821
16576,3.7307,2.3636,0.05,2.4053e-06,24.036,1.847e-06,13.877,5.5293e-13,3.5248e-05,-1.847e-06,-13.877,0.15832
16577,4.0071,2.3636,0,0.0005039,5035.6,0.00018845,0.056531,0.00012753,-457.68,-0.00051012,-5248.7,0.17826
16578,3.9149,2.2727,0,0.00050779,5074.4,0.00018961,0.08086,0.00012905,-454.92,-0.00051399,-5286.5,0.17139
16579,3.9149,2.3636,0.05,2.1388e-06,21.373,1.6423e-06,12.34,3.2638e-12,3.4069e-05,-1.6423e-06,-12.34,0.1715
16580,4.1913,2.3636,0,0.00049709,4967.4,0.0001844,0.039072,0.00012852,-419.82,-0.00050289,-5164,0.19196
16581,4.0992,2.2727,0,0.00050074,5004,0.00018555,0.05766,0.00012982,-418.69,-0.00050655,-5200.1,0.18492
16582,4.0992,2.3636,0.05,1.9252e-06,19.239,1.4783e-06,11.107,1.6427e-12,3.4865e-05,-1.4783e-06,-11.107,0.18503
16583,4.3756,2.3636,0,0.00049083,4904.9,0.00018067,0.026478,0.00012944,-384.85,-0.00049624,-5086,0.20601
16584,4.2835,2.2727,0,0.0004943,4939.6,0.00018182,0.040752,0.00013058,-384.96,-0.00049972,-5120.8,0.19879
16585,4.2835,2.3636,0.05,1.7539e-06,17.527,1.3468e-06,10.119,1.7781e-12,1.4124e-05,-1.3468e-06,-10.119,0.1989
16586,4.5599,2.3636,0,0.00048499,4846.6,0.0001772,0.017441,0.00013026,-352.64,-0.00049003,-5013.3,0.22038
16587,4.4677,2.2727,0,0.00048831,4879.7,0.00017835,0.028455,0.00013127,-353.67,-0.00049336,-5046.9,0.213
16588,4.4677,2.3636,0.05,1.6162e-06,16.151,1.241e-06,9.3247,5.6335e-13,7.8097e-06,-1.241e-06,-9.3248,0.21311
16589,4.7441,2.3636,0,0.00047946,4791.3,0.00017395,0.011008,0.00013096,-323.01,-0.00048414,-4944.6,0.2351
16590,4.652,2.2727,0,0.00048265,4823.2,0.00017509,0.019545,0.00013187,-324.73,-0.00048736,-4977.4,0.22754
16591,4.652,2.3636,0.05,1.5053e-06,15.043,1.1559e-06,8.6851,-2.4112e-12,2.2069e-05,-1.1559e-06,-8.685,0.22766
16592,4.9284,2.3636,0,0.00047415,4738.2,0.00017089,0.00648,0.00013152,-295.8,-0.00047849,-4879.2,0.25014
16593,4.8363,2.2727,0,0.00047724,4769.1,0.00017202,0.013126,0.00013236,-298.01,-0.00048161,-4911.1,0.24242
16594,4.8363,2.3636,0.05,1.4158e-06,14.148,1.0871e-06,8.1683,1.8274e-13,1.5228e-05,-1.0871e-06,-8.1682,0.24254
16595,5.1127,2.3636,0,0.00046899,4686.7,0.00016799,0.003344,0.00013194,-270.83,-0.00047301,-4816.2,0.2655
16596,5.0205,2.2727,0,0.000472,4716.8,0.00016911,0.0085397,0.00013272,-273.37,-0.00047606,-4847.5,0.25762
16597,5.0205,2.3636,0.05,1.3431e-06,13.422,1.0313e-06,7.749,-2.1837e-12,1.3444e-05,-1.0313e-06,-7.7489,0.25774
16598,5.2969,2.3636,0,0.00046394,4636.2,0.00016522,0.0012236,0.00013222,-247.92,-0.00046766,-4755.2,0.28119
16599,5.2048,2.2727,0,0.00046689,4665.6,0.00016632,0.0053015,0.00013296,-250.67,-0.00047064,-4785.9,0.27314
16600,5.2048,2.3636,0.05,1.2838e-06,12.829,9.8582e-07,7.4071,-2.8823e-12,1.4853e-05,-9.8581e-07,-7.407,0.27327
16601,5.4812,2.3636,0,0.00045896,4586.5,0.00016256,-0.00015819,0.00013236,-226.9,-0.0004624,-4695.7,0.29719
16602,5.3891,2.2727,0,0.00046185,4615.3,0.00016365,0.003054,0.00013307,-229.78,-0.00046533,-4725.9,0.28899
16603,5.3891,2.3636,0.05,1.2352e-06,12.343,9.4848e-07,7.1265,-1.4341e-12,7.7607e-06,-9.4847e-07,-7.1264,0.28911
16604,5.6655,2.3636,0,0.00045402,4537.1,0.00016,-0.0010055,0.00013236,-207.64,-0.0004572,-4637.4,0.31351
16605,5.5733,2.2727,0,0.00045687,4565.5,0.00016108,0.001533,0.00013305,-210.56,-0.00046009,-4667.2,0.30515
16606,5.5733,2.3636,0.05,1.195e-06,11.942,9.176e-07,6.8946,-1.949e-12,8.6676e-06,-9.176e-07,-6.8944,0.30528
16607,5.8497,2.3636,0,0.00044911,4488,0.00015752,-0.0014686,0.00013223,-189.96,-0.00045204,-4580,0.33014
16608,5.7576,2.2727,0,0.00045192,4516.1,0.00015859,0.00054319,0.00013291,-192.89,-0.00045489,-4609.4,0.32162
16609,5.7576,2.3636,0.05,1.1615e-06,11.607,8.9188e-07,6.7013,-3.9193e-12,8.2792e-06,-8.9187e-07,-6.7011,0.32175
16610,6.034,2.3636,0,0.0004442,4439,0.00015511,-0.0016579,0.00013198,-173.75,-0.0004469,-4523.3,0.34707
16611,5.9419,2.2727,0,0.00044699,4466.8,0.00015617,-5.993e-05,0.00013266,-176.63,-0.00044973,-4552.5,0.33841
16612,5.9419,2.3636,0.05,1.1333e-06,11.325,8.7024e-07,6.5387,-5.0833e-13,5.5959e-06,-8.7024e-07,-6.5386,0.33853
16613,6.2183,2.3636,0,0.0004393,4389.9,0.00015277,-0.0016547,0.00013162,-158.88,-0.00044178,-4467.2,0.36431
16614,6.1261,2.2727,0,0.00044206,4417.5,0.00015381,-0.00038313,0.0001323,-161.68,-0.00044458,-4496.1,0.35549
16615,6.1261,2.3636,0.05,1.1094e-06,11.086,8.5187e-07,6.4007,1.0686e-12,5.6757e-06,-8.5187e-07,-6.4005,0.35562
16616,6.4025,2.3636,0,0.00043438,4340.8,0.00015048,-0.0015187,0.00013115,-145.23,-0.00043667,-4411.6,0.38185
16617,6.3104,2.2727,0,0.00043712,4368.2,0.00015152,-0.00050545,0.00013183,-147.93,-0.00043945,-4440.3,0.37288
16618,6.3104,2.3636,0.05,1.0889e-06,10.881,8.3611e-07,6.2822,-9.1016e-13,4.5944e-06,-8.3611e-07,-6.2822,0.37301
16619,6.5868,2.3636,0,0.00042946,4291.6,0.00014824,-0.0012931,0.00013058,-132.69,-0.00043156,-4356.4,0.39969
16620,6.4947,2.2727,0,0.00043218,4318.8,0.00014927,-0.00048604,0.00013126,-135.29,-0.00043432,-4384.9,0.39057
16621,6.4947,2.3636,0.05,1.0711e-06,10.703,8.2246e-07,6.1796,-1.0252e-12,4.2155e-06,-8.2246e-07,-6.1796,0.3907
16622,6.7711,2.3636,0,0.00042452,4242.2,0.00014605,-0.0010097,0.00012992,-121.17,-0.00042645,-4301.5,0.41782
16623,6.6789,2.2727,0,0.00042723,4269.3,0.00014707,-0.00036721,0.00013061,-123.65,-0.0004292,-4329.8,0.40856
16624,6.6789,2.3636,0.05,1.0555e-06,10.548,8.105e-07,6.0898,-4.7262e-12,4.0548e-06,-8.105e-07,-6.0898,0.40868
16625,6.9553,2.3636,0,0.00041956,4192.7,0.0001439,-0.00069152,0.00012918,-110.59,-0.00042133,-4246.9,0.43624
16626,6.8632,2.2727,0,0.00042226,4219.7,0.0001449,-0.00018114,0.00012987,-112.94,-0.00042407,-4275,0.42683
16627,6.8632,2.3636,0.05,1.0417e-06,10.41,7.9992e-07,6.0103,-1.1846e-12,4.9861e-06,-7.9991e-07,-6.0102,0.42696
16628,7.1396,2.3636,0,0.00041459,4143,0.00014178,-0.0003545,0.00012836,-100.87,-0.00041621,-4192.6,0.45494
16629,7.0475,2.2727,0,0.00041728,4169.9,0.00014278,4.9419e-05,0.00012906,-103.09,-0.00041894,-4220.5,0.44539
16630,7.0475,2.3636,0.05,1.0294e-06,10.287,7.9046e-07,5.9392,-4.8992e-12,4.198e-06,-7.9046e-07,-5.9392,0.44552
16631,7.3239,2.3636,0,0.0004096,4093.2,0.0001397,-1.0533e-05,0.00012746,-91.921,-0.00041109,-4138.4,0.47393
16632,7.2317,2.2727,0,0.00041228,4120,0.00014068,0.00030713,0.00012817,-94.013,-0.0004138,-4166.2,0.46424
16633,7.2317,2.3636,0.05,1.0183e-06,10.176,7.8194e-07,5.8751,-1.2976e-12,3.5713e-06,-7.8192e-07,-5.8751,0.46437
16634,7.5081,2.3636,0,0.0004046,4043.3,0.00013764,0.00033297,0.0001265,-83.692,-0.00040596,-4084.4,0.49319
16635,7.416,2.2727,0,0.00040727,4069.9,0.00013862,0.00058009,0.00012722,-85.659,-0.00040866,-4112.1,0.48337
16636,7.416,2.3636,0.05,1.0082e-06,10.075,7.7416e-07,5.8168,4.4584e-13,5.3946e-06,-7.7416e-07,-5.8167,0.48349
16637,7.6924,2.3636,0,0.00039959,3993.2,0.00013562,0.00067036,0.00012549,-76.119,-0.00040083,-4030.7,0.51274
16638,7.6003,2.2727,0,0.00040225,4019.8,0.00013659,0.00086002,0.00012621,-77.963,-0.00040352,-4058.2,0.50277
16639,7.6003,2.3636,0.05,9.989e-07,9.9821,7.6703e-07,5.7632,-3.2365e-12,4.8846e-06,-7.6703e-07,-5.7631,0.5029
16640,7.8767,2.3636,0,0.00039457,3943,0.00013362,0.00099771,0.00012441,-69.146,-0.0003957,-3977.1,0.53255
16641,7.7845,2.2727,0,0.00039722,3969.5,0.00013458,0.00114,0.00012515,-70.873,-0.00039838,-4004.5,0.52245
16642,7.7845,2.3636,0.05,9.9031e-07,9.8962,7.6044e-07,5.7136,-3.2837e-12,3.6266e-06,-7.6043e-07,-5.7136,0.52258
16643,8.0609,2.3636,0,0.00038954,3892.7,0.00013164,0.0013134,0.00012329,-62.725,-0.00039056,-3923.6,0.55263
16644,7.9688,2.2727,0,0.00039218,3919.1,0.00013259,0.0014168,0.00012403,-64.339,-0.00039324,-3950.9,0.5424
16645,7.9688,2.3636,0.05,9.823e-07,9.8163,7.5429e-07,5.6674,-3.3157e-12,3.7934e-06,-7.5429e-07,-5.6674,0.54253
16646,8.2452,2.3636,0,0.00038449,3842.3,0.00012969,0.001616,0.00012213,-56.81,-0.00038543,-3870.4,0.57298
16647,8.1531,2.2727,0,0.00038714,3868.7,0.00013063,0.0016873,0.00012287,-58.316,-0.0003881,-3897.5,0.56262
16648,8.1531,2.3636,0.05,9.748e-07,9.7413,7.4853e-07,5.6242,-3.3499e-12,3.619e-06,-7.4852e-07,-5.6241,0.56274
16649,8.4295,2.3636,0,0.00037945,3791.9,0.00012775,0.0019052,0.00012092,-51.359,-0.00038029,-3817.3,0.59359
16650,8.3373,2.2727,0,0.00038208,3818.2,0.00012869,0.0019497,0.00012167,-52.764,-0.00038295,-3844.3,0.5831
16651,8.3373,2.3636,0.05,9.6773e-07,9.6706,7.4309e-07,5.5834,-2.473e-12,4.3634e-06,-7.4309e-07,-5.5833,0.58322
16652,8.6137,2.3636,0,0.0003744,3741.4,0.00012584,0.0021812,0.00011967,-46.334,-0.00037516,-3764.3,0.61446
16653,8.5216,2.2727,0,0.00037702,3767.6,0.00012677,0.0022036,0.00012043,-47.643,-0.00037781,-3791.2,0.60384
16654,8.5216,2.3636,0.05,9.6102e-07,9.6036,7.3794e-07,5.5447,-2.49e-12,4.6515e-06,-7.3795e-07,-5.5446,0.60396
16655,8.798,2.3636,0,0.00036934,3690.9,0.00012394,0.0024446,0.00011839,-41.701,-0.00037003,-3711.5,0.63558
16656,8.7059,2.2727,0,0.00037196,3717.1,0.00012487,0.0024481,0.00011916,-42.92,-0.00037268,-3738.3,0.62484
16657,8.7059,2.3636,0.05,9.5464e-07,9.5398,7.3304e-07,5.5078,-2.5139e-12,3.4948e-06,-7.3305e-07,-5.5078,0.62496
16658,8.9823,2.3636,0,0.00036429,3640.4,0.00012206,0.0026966,0.00011708,-37.428,-0.00036491,-3658.9,0.65696
16659,8.8901,2.2727,0,0.0003669,3666.5,0.00012298,0.0026846,0.00011785,-38.561,-0.00036754,-3685.6,0.64609
16660,8.8901,2.3636,0.05,9.4854e-07,9.4789,7.2836e-07,5.4727,-1.6264e-12,3.8456e-06,-7.2836e-07,-5.4726,0.64621
16661,9.1665,2.3636,0,0.00035923,3589.8,0.0001202,0.0029374,0.00011574,-33.485,-0.00035979,-3606.5,0.67858
16662,9.0744,2.2727,0,0.00036184,3615.9,0.00012111,0.0029122,0.00011652,-34.539,-0.00036242,-3633.1,0.66759
16663,9.0744,2.3636,0.05,9.4269e-07,9.4204,7.2387e-07,5.4389,-7.381e-13,3.2019e-06,-7.2387e-07,-5.4388,0.66771
16664,9.3508,2.3636,0,0.00035418,3539.3,0.00011835,0.0031684,0.00011438,-29.846,-0.00035468,-3554.2,0.70044
16665,9.2587,2.2727,0,0.00035678,3565.3,0.00011926,0.0031327,0.00011516,-30.827,-0.00035729,-3580.7,0.68934
16666,9.2587,2.3636,0.05,9.3706e-07,9.3641,7.1955e-07,5.4064,-1.6617e-12,3.3136e-06,-7.1954e-07,-5.4064,0.68945
16667,9.5351,2.3636,0,0.00034913,3488.9,0.00011652,0.0033899,0.000113,-26.486,-0.00034957,-3502,0.72255
16668,9.4429,2.2727,0,0.00035172,3514.8,0.00011742,0.0033464,0.00011378,-27.399,-0.00035218,-3528.4,0.71133
16669,9.4429,2.3636,0.05,9.3163e-07,9.3098,7.1537e-07,5.3751,-7.7254e-13,3.1984e-06,-7.1537e-07,-5.375,0.71144
16670,9.7193,2.3636,0,0.00034408,3438.5,0.0001147,0.0036081,0.00011159,-23.384,-0.00034448,-3450.1,0.74489
16671,9.6272,2.2727,0,0.00034667,3464.3,0.0001156,0.0035536,0.00011237,-24.232,-0.00034708,-3476.4,0.73355
16672,9.6272,2.3636,0.05,9.2637e-07,9.2573,7.1134e-07,5.3447,-1.6944e-12,3.7799e-06,-7.1133e-07,-5.3447,0.73367
16673,9.9036,2.3636,0,0.00033904,3388.1,0.0001129,0.0038211,0.00011017,-20.518,-0.00033939,-3398.3,0.76747
16674,9.8115,2.2727,0,0.00034162,3413.9,0.00011379,0.0037656,0.00011095,-21.307,-0.00034198,-3424.5,0.75602
16675,9.8115,2.3636,0.05,9.2127e-07,9.2063,7.0742e-07,5.3153,-1.7082e-12,3.9389e-06,-7.0742e-07,-5.3152,0.75613
16676,10.088,2.3636,0,0.00033401,3337.8,0.00011111,0.004027,0.00010873,-17.869,-0.00033431,-3346.7,0.79028
16677,9.9957,2.2727,0,0.00033658,3363.5,0.00011199,0.0039679,0.00010952,-18.603,-0.00033689,-3372.8,0.77871
16678,9.9957,2.3636,0.05,9.1631e-07,9.1568,7.0362e-07,5.2867,-8.1312e-13,3.597e-06,-7.0361e-07,-5.2867,0.77882
16679,10.272,2.3636,0,0.00032898,3287.6,0.00010933,0.0042382,0.00010728,-15.419,-0.00032924,-3295.2,0.81332
16680,10.18,2.2727,0,0.00033155,3313.2,0.00011021,0.0041727,0.00010806,-16.103,-0.00033182,-3321.2,0.80164
16681,10.18,2.3636,0.05,9.1149e-07,9.1086,6.9991e-07,5.2589,-1.7336e-12,4.1022e-06,-6.9991e-07,-5.2588,0.80174
16682,10.456,2.3636,0,0.00032397,3237.4,0.00010756,0.0044327,0.00010581,-13.154,-0.00032419,-3244,0.83658
16683,10.364,2.2727,0,0.00032652,3263,0.00010844,0.0043925,0.0001066,-13.79,-0.00032676,-3269.8,0.82479
16684,10.364,2.3636,0.05,9.0678e-07,9.0615,6.963e-07,5.2317,-1.7434e-12,3.7811e-06,-6.9629e-07,-5.2317,0.82489
16685,10.641,2.3636,0,0.00031896,3187.4,0.0001058,0.0046287,0.00010433,-11.057,-0.00031915,-3192.9,0.86006
16686,10.549,2.2727,0,0.00032151,3212.9,0.00010667,0.0045732,0.00010512,-11.65,-0.0003217,-3218.7,0.84816
16687,10.549,2.3636,0.05,9.0218e-07,9.0155,6.9276e-07,5.2051,6.5395e-14,3.7124e-06,-6.9276e-07,-5.2051,0.84826
16688,10.825,2.3636,0,0.00031396,3137.4,0.00010406,0.004879,0.00010285,-9.1152,-0.00031412,-3142,0.88375
16689,10.733,2.2727,0,0.0003165,3162.8,0.00010492,0.0048085,0.00010364,-9.6683,-0.00031666,-3167.7,0.87175
16690,10.733,2.3636,0.05,8.9766e-07,8.9704,6.8929e-07,5.1791,-8.5321e-13,3.7029e-06,-6.8929e-07,-5.179,0.87185
16691,11.009,2.3636,0,0.00030898,3087.6,0.00010232,0.0051584,0.00010135,-7.3157,-0.0003091,-3091.3,0.90766
16692,10.917,2.2727,0,0.00031151,3112.9,0.00010319,0.0051169,0.00010214,-7.8322,-0.00031164,-3116.8,0.89555
16693,10.917,2.3636,0.05,8.9324e-07,8.9263,6.859e-07,5.1536,-2.6799e-12,3.052e-06,-6.859e-07,-5.1536,0.89565
16694,11.193,2.3636,0,0.000304,3037.9,0.0001006,0.0054662,9.9848e-05,-5.647,-0.0003041,-3040.7,0.93178
16695,11.101,2.2727,0,0.00030652,3063.1,0.00010146,0.005443,0.00010064,-6.1299,-0.00030663,-3066.2,0.91957
16696,11.101,2.3636,0.05,8.8892e-07,8.883,6.8258e-07,5.1287,-1.7785e-12,2.746e-06,-6.8257e-07,-5.1286,0.91967
16697,11.378,2.3636,0,0.00029904,2988.3,9.8886e-05,0.0058578,9.834e-05,-4.0981,-0.00029911,-2990.4,0.95611
16698,11.286,2.2727,0,0.00030155,3013.5,9.9738e-05,0.0058684,9.9132e-05,-4.5502,-0.00030163,-3015.7,0.94379
16699,11.286,2.3636,0.05,8.8466e-07,8.8405,6.7931e-07,5.1041,-8.7699e-13,2.153e-06,-6.7931e-07,-5.1041,0.94389
16700,11.562,2.3636,0,0.00029409,2938.9,9.7182e-05,0.0065147,9.6827e-05,-2.6592,-0.00029413,-2940.2,0.98063
16701,11.47,2.2727,0,0.0002966,2963.9,9.803e-05,0.0065098,9.7618e-05,-3.0833,-0.00029665,-2965.4,0.96822
16702,11.47,2.3636,0.05,8.8048e-07,8.7987,6.761e-07,5.08,-3.612e-12,2.5012e-06,-6.761e-07,-5.0799,0.96832
16703,11.746,2.3636,0,0.00028915,2889.5,9.5487e-05,0.0082202,9.531e-05,-1.3216,-0.00028918,-2890.2,1.0054
16704,11.654,2.2727,0,0.00029165,2914.5,9.6331e-05,0.0079871,9.6101e-05,-1.72,-0.00029168,-2915.4,0.99285
16705,11.654,2.3636,0.05,8.7634e-07,8.7574,6.7292e-07,5.0561,1.9538e-14,2.4945e-06,-6.7292e-07,-5.0561,0.99295
16706,11.931,2.3636,0,0.00028423,2840.4,9.3805e-05,0.041666,9.3786e-05,-0.10751,-0.00028423,-2840.4,1.0303
16707,11.838,2.2727,0,0.00028672,2865.2,9.4642e-05,0.016485,9.4579e-05,-0.45779,-0.00028673,-2865.5,1.0177
16708,11.838,2.3636,0.05,8.7228e-07,8.7168,6.698e-07,5.0327,-1.8055e-12,2.4862e-06,-6.698e-07,-5.0326,1.0178
16709,12.115,2.3636,0,0.00027933,2791.3,9.2269e-05,1.0964,9.2123e-05,0.0016468,-0.00027931,-2790.8,1.0554
16710,12.023,2.2727,0,0.00028181,2816.1,9.3058e-05,0.74526,9.2959e-05,-0.0019064,-0.00028179,-2815.7,1.0427
16711,12.023,2.3636,0.05,8.6828e-07,8.6768,6.6673e-07,5.0096,7.7058e-15,2.5914e-06,-6.6673e-07,-5.0096,1.0428
16712,12.299,2.3636,0,0.00027443,2742.4,9.0745e-05,2.182,9.0455e-05,0.0036352,-0.0002744,-2741.4,1.0807
16713,12.207,2.2727,0,0.0002769,2767.1,9.1533e-05,1.8473,9.1287e-05,0.0024756,-0.00027687,-2766.2,1.0679
16714,12.207,2.3636,0.05,8.6433e-07,8.6373,6.637e-07,4.9868,-9.0706e-13,2.7451e-06,-6.637e-07,-4.9867,1.068
16715,12.483,2.3636,0,0.00026956,2693.7,8.9221e-05,3.1998,8.8796e-05,0.0043463,-0.0002695,-2692.1,1.1062
16716,12.391,2.2727,0,0.00027202,2718.3,9.0007e-05,2.8812,8.9624e-05,0.003594,-0.00027197,-2716.9,1.0933
16717,12.391,2.3636,0.05,8.6042e-07,8.5983,6.607e-07,4.9643,-1.8215e-12,1.8143e-06,-6.6069e-07,-4.9642,1.0934
16718,12.668,2.3636,0,0.0002647,2645.2,8.7697e-05,4.1554,8.7145e-05,0.0047881,-0.00026463,-2643.1,1.1319
16719,12.575,2.2727,0,0.00026715,2669.7,8.8481e-05,3.8512,8.7969e-05,0.0041784,-0.00026708,-2667.7,1.1189
16720,12.575,2.3636,0.05,8.5655e-07,8.5596,6.5773e-07,4.9419,-7.2119e-15,1.1943e-06,-6.5772e-07,-4.9419,1.119
16721,12.852,2.3636,0,0.00025985,2596.8,8.6174e-05,5.0546,8.5502e-05,0.0051128,-0.00025977,-2594.2,1.1577
16722,12.76,2.2727,0,0.0002623,2621.2,8.6956e-05,4.7632,8.6323e-05,0.0045991,-0.00026222,-2618.8,1.1447
16723,12.76,2.3636,0.05,8.5273e-07,8.5214,6.5479e-07,4.9198,-1.8305e-12,2.0453e-06,-6.5479e-07,-4.9198,1.1448
16724,13.036,2.3636,0,0.00025503,2548.5,8.4652e-05,5.9032,8.3867e-05,0.0053602,-0.00025493,-2545.6,1.1838
16725,12.944,2.2727,0,0.00025746,2572.8,8.5432e-05,5.6226,8.4684e-05,0.0048959,-0.00025737,-2570,1.1706
16726,12.944,2.3636,0.05,8.4895e-07,8.4837,6.519e-07,4.8981,-2.7435e-12,2.3605e-06,-6.5189e-07,-4.898,1.1707
16727,13.22,2.3636,0,0.00025022,2500.5,8.3132e-05,6.7066,8.224e-05,0.0055585,-0.0002501,-2497.1,1.21
16728,13.128,2.2727,0,0.00025264,2524.7,8.3909e-05,6.4352,8.3053e-05,0.0051361,-0.00025253,-2521.4,1.1967
16729,13.128,2.3636,0.05,8.4522e-07,8.4463,6.4902e-07,4.8765,-9.276e-13,3.4985e-06,-6.4902e-07,-4.8765,1.1968
16730,13.405,2.3636,0,0.00024543,2452.6,8.1614e-05,7.47,8.0621e-05,0.0057394,-0.0002453,-2448.8,1.2364
16731,13.313,2.2727,0,0.00024784,2476.7,8.2389e-05,7.2058,8.143e-05,0.0053203,-0.00024772,-2473.1,1.223
16732,13.313,2.3636,0.05,8.4151e-07,8.4093,6.4618e-07,4.8551,-2.0717e-14,3.1542e-06,-6.4617e-07,-4.8551,1.2231
16733,13.589,2.3636,0,0.00024065,2404.8,8.0099e-05,8.1982,7.9009e-05,0.0059397,-0.00024051,-2400.7,1.2629
16734,13.497,2.2727,0,0.00024306,2428.9,8.0871e-05,7.9397,7.9815e-05,0.005517,-0.00024292,-2424.9,1.2495
16735,13.497,2.3636,0.05,8.3782e-07,8.3725,6.4335e-07,4.8339,-9.3277e-13,3.0495e-06,-6.4335e-07,-4.8338,1.2496
16736,13.773,2.3636,0,0.00023589,2357.3,7.8588e-05,8.8958,7.7405e-05,0.0061349,-0.00023574,-2352.9,1.2896
16737,13.681,2.2727,0,0.00023829,2381.2,7.9357e-05,8.6414,7.8207e-05,0.0057333,-0.00023814,-2376.9,1.2761
16738,13.681,2.3636,0.05,8.3418e-07,8.3361,6.4055e-07,4.8128,-9.3501e-13,2.0169e-06,-6.4055e-07,-4.8128,1.2762
16739,13.957,2.3636,0,0.00023116,2310,7.708e-05,9.5674,7.5807e-05,0.0063096,-0.00023099,-2305.2,1.3165
16740,13.865,2.2727,0,0.00023354,2333.8,7.7846e-05,9.3153,7.6607e-05,0.0059156,-0.00023338,-2329.1,1.3029
16741,13.865,2.3636,0.05,8.3057e-07,8.3,6.3778e-07,4.792,-1.8464e-12,2.172e-06,-6.3777e-07,-4.792,1.303
16742,14.142,2.3636,0,0.00022644,2262.8,7.5577e-05,10.217,7.4218e-05,0.0064673,-0.00022626,-2257.7,1.3435
16743,14.05,2.2727,0,0.00022881,2286.5,7.6339e-05,9.9658,7.5014e-05,0.0060878,-0.00022864,-2281.5,1.3299
16744,14.05,2.3636,0.05,8.27e-07,8.2643,6.3503e-07,4.7714,-2.8794e-14,2.5833e-06,-6.3503e-07,-4.7714,1.3299
16745,14.326,2.3636,0,0.00022173,2215.8,7.4078e-05,10.849,7.2635e-05,0.0066258,-0.00022155,-2210.4,1.3707
16746,14.234,2.2727,0,0.0002241,2239.4,7.4837e-05,10.597,7.3428e-05,0.0062332,-0.00022392,-2234.1,1.357
16747,14.234,2.3636,0.05,8.2344e-07,8.2287,6.323e-07,4.7509,-1.8507e-12,2.0285e-06,-6.323e-07,-4.7508,1.357
16748,14.51,2.3636,0,0.00021705,2169,7.2584e-05,11.468,7.1059e-05,0.0068151,-0.00021685,-2163.3,1.398
16749,14.418,2.2727,0,0.00021941,2192.6,7.334e-05,11.213,7.1849e-05,0.0064065,-0.00021921,-2186.9,1.3842
16750,14.418,2.3636,0.05,8.1991e-07,8.1934,6.2959e-07,4.7305,-9.4315e-13,2.7291e-06,-6.2958e-07,-4.7305,1.3843
16751,14.695,2.3636,0,0.00021239,2122.4,7.1096e-05,12.077,6.949e-05,0.0070092,-0.00021218,-2116.4,1.4255
16752,14.602,2.2727,0,0.00021473,2145.9,7.1849e-05,11.817,7.0277e-05,0.0066114,-0.00021453,-2139.9,1.4116
16753,14.602,2.3636,0.05,8.1641e-07,8.1584,6.269e-07,4.7103,-3.254e-14,4.163e-06,-6.269e-07,-4.7102,1.4117
16754,14.879,2.3636,0,0.00020775,2076,6.9614e-05,12.68,6.7928e-05,0.0071907,-0.00020753,-2069.7,1.4531
16755,14.787,2.2727,0,0.00021008,2099.4,7.0363e-05,12.414,6.8711e-05,0.0067929,-0.00020987,-2093.1,1.4392
16756,14.787,2.3636,0.05,8.1294e-07,8.1238,6.2423e-07,4.6903,-3.2351e-14,5.7218e-06,-6.2424e-07,-4.6902,1.4392
16757,15.063,2.3636,0,0.00020312,2029.8,6.8139e-05,13.281,6.6372e-05,0.0073642,-0.00020289,-2023.2,1.4808
16758,14.971,2.2727,0,0.00020545,2053,6.8883e-05,13.007,6.7153e-05,0.0069719,-0.00020522,-2046.5,1.4669
16759,14.971,2.3636,0.05,8.0949e-07,8.0894,6.2159e-07,4.6704,-9.4305e-13,5.2434e-06,-6.2159e-07,-4.6703,1.4669
16760,15.247,2.3636,0,0.00019852,1983.8,6.667e-05,13.884,6.4823e-05,0.0075448,-0.00019828,-1976.8,1.5087
16761,15.155,2.2727,0,0.00020083,2006.9,6.741e-05,13.6,6.56e-05,0.0071354,-0.0002006,-2000.1,1.4947
16762,15.155,2.3636,0.05,8.0607e-07,8.0552,6.1897e-07,4.6507,-3.3305e-14,6.7831e-06,-6.1896e-07,-4.6506,1.4947
16763,15.432,2.3636,0,0.00019394,1938,6.5208e-05,14.493,6.328e-05,0.0077568,-0.00019369,-1930.7,1.5368
16764,15.339,2.2727,0,0.00019624,1961,6.5943e-05,14.197,6.4055e-05,0.0073288,-0.00019599,-1953.9,1.5226
16765,15.339,2.3636,0.05,8.0267e-07,8.0212,6.1635e-07,4.6311,-2.7645e-12,6.1671e-06,-6.1635e-07,-4.631,1.5227
16766,15.616,2.3636,0,0.00018937,1892.4,6.3754e-05,15.111,6.1744e-05,0.0079788,-0.00018911,-1884.8,1.5649
16767,15.524,2.2727,0,0.00019166,1915.3,6.4484e-05,14.801,6.2515e-05,0.0075544,-0.00019141,-1907.9,1.5507
16768,15.524,2.3636,0.05,7.993e-07,7.9875,6.1377e-07,4.6116,-1.8579e-12,4.7011e-06,-6.1377e-07,-4.6116,1.5508
16769,15.8,2.3636,0,0.00018483,1847,6.2308e-05,15.743,6.0214e-05,0.0081947,-0.00018456,-1839.1,1.5932
16770,15.708,2.2727,0,0.00018711,1869.8,6.3033e-05,15.416,6.0982e-05,0.007765,-0.00018684,-1862.1,1.579
16771,15.708,2.3636,0.05,7.9597e-07,7.9542,6.1121e-07,4.5924,-9.5032e-13,4.0888e-06,-6.112e-07,-4.5923,1.579
16772,15.984,2.3636,0,0.00018031,1801.9,6.087e-05,16.392,5.869e-05,0.0084065,-0.00018003,-1793.6,1.6216
16773,15.892,2.2727,0,0.00018258,1824.5,6.159e-05,16.047,5.9455e-05,0.0079797,-0.0001823,-1816.5,1.6073
16774,15.892,2.3636,0.05,7.9266e-07,7.9211,6.0867e-07,4.5733,-4.4002e-14,5.0311e-06,-6.0866e-07,-4.5733,1.6074
16775,16.169,2.3636,0,0.00017581,1756.9,5.9441e-05,17.062,5.7171e-05,0.0086312,-0.00017551,-1748.3,1.6502
16776,16.077,2.2727,0,0.00017807,1779.5,6.0156e-05,16.697,5.7934e-05,0.0081839,-0.00017778,-1771.1,1.6358
16777,16.077,2.3636,0.05,7.8938e-07,7.8883,6.0614e-07,4.5543,-5.0086e-13,5.143e-06,-6.0614e-07,-4.5543,1.6359
16778,16.353,2.3636,0,0.00017133,1712.2,5.8021e-05,17.759,5.5659e-05,0.0088904,-0.00017102,-1703.2,1.6788
16779,16.261,2.2727,0,0.00017358,1734.6,5.873e-05,17.37,5.6419e-05,0.0084215,-0.00017328,-1725.8,1.6644
16780,16.261,2.3636,0.05,7.8611e-07,7.8557,6.0364e-07,4.5355,-5.0237e-13,6.9207e-06,-6.0364e-07,-4.5355,1.6645
16781,16.537,2.3636,0,0.00016688,1667.6,5.6611e-05,18.486,5.4152e-05,0.0091624,-0.00016655,-1658.3,1.7076
16782,16.445,2.2727,0,0.00016911,1689.9,5.7314e-05,18.07,5.491e-05,0.0086941,-0.0001688,-1680.8,1.6931
16783,16.445,2.3636,0.05,7.8289e-07,7.8235,6.0116e-07,4.5169,-9.6155e-13,7.2359e-06,-6.0116e-07,-4.5169,1.6932
16784,16.721,2.3636,0,0.00016244,1623.3,5.5211e-05,19.247,5.2651e-05,0.0094365,-0.00016211,-1613.6,1.7365
16785,16.629,2.2727,0,0.00016467,1645.5,5.5908e-05,18.802,5.3406e-05,0.0089587,-0.00016434,-1636,1.722
16786,16.629,2.3636,0.05,7.797e-07,7.7917,5.9872e-07,4.4985,-5.0948e-13,7.5722e-06,-5.9872e-07,-4.4985,1.722
16787,16.906,2.3636,0,0.00015803,1579.2,5.3822e-05,20.049,5.1155e-05,0.0097157,-0.00015768,-1569.1,1.7655
16788,16.814,2.2727,0,0.00016024,1601.3,5.4512e-05,19.571,5.1908e-05,0.0092333,-0.0001599,-1591.4,1.7509
16789,16.814,2.3636,0.05,7.7655e-07,7.7602,5.963e-07,4.4803,-9.681e-13,6.4672e-06,-5.9629e-07,-4.4803,1.7509
16790,17.09,2.3636,0,0.00015364,1535.4,5.2444e-05,20.895,4.9664e-05,0.010013,-0.00015328,-1524.8,1.7946
16791,16.998,2.2727,0,0.00015584,1557.3,5.3127e-05,20.381,5.0415e-05,0.0095072,-0.00015548,-1547,1.78
16792,16.998,2.3636,0.05,7.7343e-07,7.729,5.939e-07,4.4623,-6.0512e-14,6.9326e-06,-5.939e-07,-4.4623,1.78
16793,17.274,2.3636,0,0.00014928,1491.7,5.1078e-05,21.791,4.8179e-05,0.010347,-0.00014889,-1480.7,1.8238
16794,17.182,2.2727,0,0.00015146,1513.6,5.1753e-05,21.237,4.8928e-05,0.0098178,-0.00015109,-1502.8,1.8091
16795,17.182,2.3636,0.05,7.7034e-07,7.6981,5.9153e-07,4.4445,-9.7133e-13,7.1684e-06,-5.9153e-07,-4.4445,1.8092
16796,17.459,2.3636,0,0.00014494,1448.4,4.9724e-05,22.743,4.6699e-05,0.010702,-0.00014453,-1436.8,1.8531
16797,17.366,2.2727,0,0.00014711,1470.1,5.0391e-05,22.146,4.7445e-05,0.010166,-0.00014672,-1458.9,1.8384
16798,17.366,2.3636,0.05,7.673e-07,7.6677,5.8919e-07,4.427,-1.4326e-12,5.93e-06,-5.8919e-07,-4.4269,1.8384
16799,17.643,2.3636,0,0.00014062,1405.2,4.8383e-05,23.757,4.5223e-05,0.01107,-0.0001402,-1393.2,1.8825
16800,17.551,2.2727,0,0.00014278,1426.8,4.9042e-05,23.111,4.5967e-05,0.010518,-0.00014237,-1415.1,1.8677
16801,17.551,2.3636,0.05,7.6431e-07,7.6378,5.869e-07,4.4097,-5.2355e-13,8.2869e-06,-5.8689e-07,-4.4097,1.8678
16802,17.827,2.3636,0,0.00013632,1362.3,4.7056e-05,24.838,4.3752e-05,0.011452,-0.00013588,-1349.7,1.912
16803,17.735,2.2727,0,0.00013847,1383.7,4.7706e-05,24.14,4.4494e-05,0.010889,-0.00013804,-1371.5,1.8972
16804,17.735,2.3636,0.05,7.6136e-07,7.6084,5.8463e-07,4.3927,-7.7892e-14,6.351e-06,-5.8463e-07,-4.3927,1.8972
16805,18.011,2.3636,0,0.00013205,1319.6,4.5743e-05,25.995,4.2285e-05,0.01186,-0.00013159,-1306.4,1.9416
16806,17.919,2.2727,0,0.00013418,1340.9,4.6384e-05,25.24,4.3026e-05,0.011269,-0.00013374,-1328.1,1.9267
16807,17.919,2.3636,0.05,7.5846e-07,7.5794,5.824e-07,4.376,-5.3686e-13,7.7084e-06,-5.824e-07,-4.3759,1.9268
16808,18.196,2.3636,0,0.00012781,1277.2,4.4445e-05,27.235,4.0822e-05,0.012314,-0.00012732,-1263.4,1.9713
16809,18.103,2.2727,0,0.00012993,1298.4,4.5076e-05,26.416,4.1562e-05,0.011694,-0.00012946,-1285,1.9564
16810,18.103,2.3636,0.05,7.5561e-07,7.5509,5.8022e-07,4.3595,-9.0991e-14,8.1663e-06,-5.8021e-07,-4.3595,1.9564
16811,18.38,2.3636,0,0.00012359,1235.1,4.3163e-05,28.564,3.9363e-05,0.012803,-0.00012308,-1220.5,2.001
16812,18.288,2.2727,0,0.00012569,1256.1,4.3783e-05,27.676,4.0101e-05,0.012165,-0.0001252,-1242,1.9861
16813,18.288,2.3636,0.05,7.5283e-07,7.5231,5.7808e-07,4.3435,-5.5427e-13,9.0605e-06,-5.7808e-07,-4.3434,1.9861
16814,18.564,2.3636,0,0.0001194,1193.2,4.1898e-05,29.991,3.7908e-05,0.013316,-0.00011886,-1177.9,2.0309
16815,18.472,2.2727,0,0.00012149,1214,4.2507e-05,29.028,3.8645e-05,0.012656,-0.00012097,-1199.2,2.0159
16816,18.472,2.3636,0.05,7.5011e-07,7.4959,5.7599e-07,4.3278,-1.0173e-13,1.2114e-05,-5.7599e-07,-4.3277,2.0159
16817,18.748,2.3636,0,0.00011524,1151.6,4.065e-05,31.527,3.6456e-05,0.01386,-0.00011467,-1135.5,2.0608
16818,18.656,2.2727,0,0.00011731,1172.2,4.1247e-05,30.482,3.7192e-05,0.013178,-0.00011676,-1156.7,2.0458
16819,18.656,2.3636,0.05,7.4746e-07,7.4694,5.7396e-07,4.3125,-1.1162e-13,8.2187e-06,-5.7395e-07,-4.3125,2.0458
16820,18.933,2.3636,0,0.0001111,1110.2,3.9422e-05,33.179,3.5008e-05,0.014449,-0.0001105,-1093.2,2.0908
16821,18.841,2.2727,0,0.00011315,1130.7,4.0006e-05,32.044,3.5743e-05,0.013732,-0.00011257,-1114.4,2.0758
16822,18.841,2.3636,0.05,7.4488e-07,7.4437,5.7198e-07,4.2976,-1.2244e-13,7.1665e-06,-5.7198e-07,-4.2976,2.0758
16823,19.117,2.3636,0,0.00010699,1069.2,3.8212e-05,34.958,3.3562e-05,0.015102,-0.00010635,-1051.2,2.1209
16824,19.025,2.2727,0,0.00010903,1089.5,3.8783e-05,33.726,3.4296e-05,0.014342,-0.00010841,-1072.2,2.1058
16825,19.025,2.3636,0.05,7.4239e-07,7.4188,5.7006e-07,4.2833,-1.4121e-13,8.7388e-06,-5.7006e-07,-4.2832,2.1059
16826,19.301,2.3636,0,0.00010291,1028.4,3.7024e-05,36.876,3.2118e-05,0.015807,-0.00010223,-1009.4,2.1511
16827,19.209,2.2727,0,0.00010493,1048.6,3.758e-05,35.538,3.2852e-05,0.015018,-0.00010428,-1030.3,2.136
16828,19.209,2.3636,0.05,7.3999e-07,7.3948,5.6822e-07,4.2694,-1.0615e-12,8.8614e-06,-5.6822e-07,-4.2694,2.136
16829,19.485,2.3636,0,9.8859e-05,987.91,3.5858e-05,38.944,3.0677e-05,0.016566,-9.8139e-05,-967.85,2.1813
16830,19.393,2.2727,0,0.00010086,1007.9,3.6398e-05,37.491,3.1411e-05,0.015735,-0.00010017,-988.63,2.1661
16831,19.393,2.3636,0.05,7.3769e-07,7.3719,5.6646e-07,4.2562,-1.6943e-13,8.7468e-06,-5.6646e-07,-4.2561,2.1662
16832,19.67,2.3636,0,9.484e-05,947.75,3.4715e-05,41.175,2.9237e-05,0.017386,-9.4072e-05,-926.48,2.2116
16833,19.578,2.2727,0,9.6822e-05,967.55,3.5239e-05,39.597,2.9971e-05,0.016519,-9.6087e-05,-947.13,2.1964
16834,19.578,2.3636,0.05,7.3551e-07,7.35,5.6478e-07,4.2436,-1.8249e-13,7.6871e-06,-5.6478e-07,-4.2435,2.1964
16835,19.854,2.3636,0,9.0853e-05,907.9,3.3596e-05,43.582,2.7798e-05,0.018283,-9.0033e-05,-885.32,2.242
16836,19.762,2.2727,0,9.2814e-05,927.5,3.4103e-05,41.869,2.8533e-05,0.017358,-9.2031e-05,-905.85,2.2267
16837,19.762,2.3636,0.05,7.3345e-07,7.3294,5.632e-07,4.2317,-6.5277e-13,6.6356e-06,-5.632e-07,-4.2316,2.2268
16838,20.038,2.3636,0,8.6899e-05,868.39,3.2504e-05,46.181,2.636e-05,0.01928,-8.6021e-05,-844.37,2.2724
16839,19.946,2.2727,0,8.8839e-05,887.78,3.2992e-05,44.32,2.7096e-05,0.018293,-8.8002e-05,-864.78,2.2571
16840,19.946,2.3636,0.05,7.3152e-07,7.3102,5.6172e-07,4.2206,-1.9712e-13,4.7328e-06,-5.6172e-07,-4.2205,2.2572
16841,20.223,2.3636,0,8.2979e-05,829.22,3.1439e-05,48.986,2.4923e-05,0.020378,-8.2037e-05,-803.63,2.3029
16842,20.13,2.2727,0,8.4897e-05,848.39,3.1907e-05,46.967,2.5659e-05,0.019333,-8.4e-05,-823.92,2.2876
16843,20.13,2.3636,0.05,7.2975e-07,7.2925,5.6036e-07,4.2103,-6.5694e-13,5.1383e-06,-5.6036e-07,-4.2103,2.2876
16844,20.407,2.3636,0,7.9095e-05,790.4,3.0404e-05,52.015,2.3484e-05,0.021585,-7.8081e-05,-763.1,2.3334
16845,20.315,2.2727,0,8.099e-05,809.34,3.0851e-05,49.823,2.4222e-05,0.020468,-8.0027e-05,-783.27,2.3181
16846,20.315,2.3636,0.05,7.2816e-07,7.2765,5.5913e-07,4.2011,-2.0684e-13,8.4414e-06,-5.5913e-07,-4.2011,2.3181
16847,20.591,2.3636,0,7.5248e-05,751.96,2.94e-05,55.284,2.2045e-05,0.022918,-7.4154e-05,-722.78,2.364
16848,20.499,2.2727,0,7.7118e-05,770.65,2.9824e-05,52.908,2.2785e-05,0.021725,-7.6081e-05,-742.82,2.3486
16849,20.499,2.3636,0.05,7.2675e-07,7.2625,5.5806e-07,4.193,-8.6571e-13,8.6494e-06,-5.5805e-07,-4.193,2.3487
16850,20.775,2.3636,0,7.144e-05,713.9,2.8428e-05,58.814,2.0604e-05,0.024407,-7.0257e-05,-682.67,2.3946
16851,20.683,2.2727,0,7.3284e-05,732.33,2.8828e-05,56.237,2.1346e-05,0.023117,-7.2165e-05,-702.58,2.3793
16852,20.683,2.3636,0.05,7.2556e-07,7.2506,5.5714e-07,4.1862,-1.733e-13,1.0168e-05,-5.5714e-07,-4.1861,2.3793
16853,20.96,2.3636,0,6.7672e-05,676.26,2.7491e-05,62.623,1.916e-05,0.026088,-6.6389e-05,-642.76,2.4253
16854,20.867,2.2727,0,6.9489e-05,694.41,2.7866e-05,59.832,1.9906e-05,0.024688,-6.8277e-05,-662.55,2.4099
16855,20.867,2.3636,0.05,7.2461e-07,7.2411,5.5641e-07,4.1807,-1.089e-12,8.6587e-06,-5.5641e-07,-4.1806,2.4099
16856,21.144,2.3636,0,6.3948e-05,639.04,2.6591e-05,66.732,1.7713e-05,0.027988,-6.255e-05,-603.04,2.456
16857,21.052,2.2727,0,6.5736e-05,656.9,2.6938e-05,63.711,1.8463e-05,0.026464,-6.4419e-05,-622.72,2.4406
16858,21.052,2.3636,0.05,7.2393e-07,7.2343,5.5589e-07,4.1768,-4.2879e-13,7.0387e-06,-5.5589e-07,-4.1767,2.4406
16859,21.328,2.3636,0,6.0269e-05,602.28,2.5729e-05,71.163,1.6262e-05,0.030144,-5.8742e-05,-563.52,2.4868
16860,21.236,2.2727,0,6.2026e-05,619.83,2.6048e-05,67.897,1.7016e-05,0.028473,-6.0591e-05,-583.08,2.4714
16861,21.236,2.3636,0.05,7.2357e-07,7.2307,5.5561e-07,4.1747,-9.1272e-13,4.9593e-06,-5.5561e-07,-4.1746,2.4714
16862,21.512,2.3636,0,5.6639e-05,566,2.4908e-05,75.939,1.4806e-05,0.032619,-5.4963e-05,-524.18,2.5176
16863,21.42,2.2727,0,5.8363e-05,583.23,2.5197e-05,72.412,1.5564e-05,0.030769,-5.6793e-05,-543.63,2.5022
16864,21.42,2.3636,0.05,7.2355e-07,7.2305,5.556e-07,4.1746,-2.564e-13,3.7577e-06,-5.556e-07,-4.1745,2.5022
16865,21.697,2.3636,0,5.3061e-05,530.24,2.4129e-05,81.082,1.3343e-05,0.03549,-5.1214e-05,-485.02,2.5485
16866,21.605,2.2727,0,5.475e-05,547.12,2.4388e-05,77.279,1.4107e-05,0.033417,-5.3024e-05,-504.36,2.533
16867,21.605,2.3636,0.05,7.2393e-07,7.2343,5.5589e-07,4.1767,-7.0769e-13,3.8146e-06,-5.5589e-07,-4.1767,2.533
16868,21.881,2.3636,0,4.954e-05,495.05,2.3395e-05,86.615,1.1872e-05,0.038873,-4.7494e-05,-446.02,2.5793
16869,21.789,2.2727,0,5.1191e-05,511.56,2.3621e-05,82.522,1.2643e-05,0.036518,-4.9285e-05,-465.27,2.5639
16870,21.789,2.3636,0.05,7.2475e-07,7.2425,5.5652e-07,4.1815,-6.605e-13,6.0629e-06,-5.5652e-07,-4.1814,2.5639
16871,22.065,2.3636,0,4.608e-05,460.49,2.2707e-05,92.561,1.0393e-05,0.042908,-4.3802e-05,-407.16,2.6103
16872,21.973,2.2727,0,4.7691e-05,476.58,2.29e-05,88.166,1.1171e-05,0.040195,-4.5575e-05,-426.33,2.5948
16873,21.973,2.3636,0.05,7.2608e-07,7.2558,5.5754e-07,4.1891,-2.3921e-13,8.7177e-06,-5.5754e-07,-4.1891,2.5948
16874,22.249,2.3636,0,4.269e-05,426.61,2.2066e-05,98.942,8.904e-06,0.047796,-4.0137e-05,-368.43,2.6412
16875,22.157,2.2727,0,4.4256e-05,442.26,2.2226e-05,94.233,9.69e-06,0.044614,-4.1893e-05,-387.53,2.6257
16876,22.157,2.3636,0.05,7.2797e-07,7.2746,5.5899e-07,4.2,-7.1079e-13,9.489e-06,-5.5899e-07,-4.2,2.6257
16877,22.434,2.3636,0,3.9378e-05,393.51,2.1474e-05,105.78,7.4031e-06,0.053866,-3.6497e-05,-329.8,2.6722
16878,22.342,2.2727,0,4.0895e-05,408.67,2.16e-05,100.75,8.1982e-06,0.050021,-3.8238e-05,-348.86,2.6567
16879,22.342,2.3636,0.05,7.3049e-07,7.2998,5.6092e-07,4.2146,-8.8536e-13,8.9834e-06,-5.6092e-07,-4.2145,2.6567
16880,22.618,2.3636,0,3.6157e-05,361.32,2.0932e-05,113.09,5.8892e-06,0.061547,-3.288e-05,-291.24,2.7032
16881,22.526,2.2727,0,3.7618e-05,375.92,2.1025e-05,107.73,6.6942e-06,0.056837,-3.4608e-05,-310.27,2.6876
16882,22.526,2.3636,0.05,7.337e-07,7.3319,5.6339e-07,4.2331,-4.4555e-13,5.0679e-06,-5.6339e-07,-4.2331,2.6877
16883,22.802,2.3636,0,3.3043e-05,330.2,2.0439e-05,120.88,4.3606e-06,0.071868,-2.9283e-05,-252.71,2.7342
16884,22.71,2.2727,0,3.4438e-05,344.15,2.05e-05,115.2,5.1765e-06,0.065528,-3.1001e-05,-271.75,2.7187
16885,22.71,2.3636,0.05,7.3767e-07,7.3717,5.6644e-07,4.256,-5.0962e-13,7.571e-07,-5.6644e-07,-4.256,2.7187
16886,22.987,2.3636,0,3.006e-05,300.39,1.9996e-05,129.17,2.8157e-06,0.085254,-2.5702e-05,-214.18,2.7652
16887,22.894,2.2727,0,3.1378e-05,313.56,2.0026e-05,123.17,3.6433e-06,0.077738,-2.7412e-05,-233.26,2.7497
16888,22.894,2.3636,0.05,7.4247e-07,7.4195,5.7012e-07,4.2837,-7.2524e-13,-1.2671e-07,-5.7012e-07,-4.2837,2.7497
16889,23.171,2.3636,0,2.7241e-05,272.22,1.9602e-05,137.97,1.2536e-06,0.10798,-2.2132e-05,-175.6,2.7963
16890,23.079,2.2727,0,2.8463e-05,284.44,1.9602e-05,131.65,2.093e-06,0.092818,-2.3839e-05,-194.75,2.7807
16891,23.079,2.3636,0.05,7.4811e-07,7.476,5.7446e-07,4.3163,-2.0469e-13,2.2765e-06,-5.7446e-07,-4.3162,2.7807
16892,23.355,2.3636,0,2.4635e-05,246.18,1.9254e-05,147.26,-3.28e-07,0.13093,-1.857e-05,-136.94,2.8274
16893,23.263,2.2727,0,2.5736e-05,257.18,1.9228e-05,140.65,5.2512e-07,0.12434,-2.0277e-05,-156.18,2.8118
16894,23.263,2.3636,0.05,7.5464e-07,7.5412,5.7947e-07,4.3539,-6.4469e-13,2.3442e-06,-5.7947e-07,-4.3539,2.8118
16895,23.539,2.3636,0,2.2309e-05,222.93,1.8951e-05,157.07,-1.9239e-06,0.22754,-1.5014e-05,-98.123,2.8584
16896,23.447,2.2727,0,2.3252e-05,232.35,1.8901e-05,150.15,-1.0642e-06,0.14174,-1.6721e-05,-117.5,2.8429
16897,23.447,2.3636,0.05,7.6201e-07,7.6149,5.8513e-07,4.3964,-3.8583e-13,-3.0807e-06,-5.8513e-07,-4.3964,2.8429
16898,23.724,2.3636,0,2.0355e-05,203.41,1.8689e-05,167.3,-3.5476e-06,0.22379,-1.1456e-05,-59.198,2.8895
16899,23.631,2.2727,0,2.1092e-05,210.78,1.8619e-05,160.21,-2.6605e-06,0.32781,-1.3172e-05,-78.651,2.874
16900,23.631,2.3636,0.05,7.703e-07,7.6977,5.9149e-07,4.4443,-8.3806e-13,-1.1877e-06,-5.9149e-07,-4.4442,2.874
16901,23.816,2.2727,0,1.9365e-05,193.51,1.8378e-05,170.58,-4.2986e-06,0.20077,-9.6231e-06,-39.805,2.9051
16902,23.816,2.3636,0.05,7.8185e-07,7.8131,6.0036e-07,4.5109,-3.4946e-13,-2.8209e-06,-6.0036e-07,-4.5109,2.9051
16903,23.908,2.3636,0,1.8956e-05,189.42,1.8478e-05,177.4,-5.0756e-06,0.42912,-8.1143e-06,-22.402,2.9206
16904,1.2431,2.1818,0,0.0013658,13648,0.00046973,264.6,0.00044271,61.569,-0.0013601,-13484,0.019698
16905,1.1509,2.0909,0,0.0015835,15824,0.00069299,1859.3,0.00039441,-384.06,-0.0015464,-14967,0.015892
16906,1.1509,2.1818,0.05,9.0226e-05,901.64,6.9282e-05,520.56,-4.5282e-11,0.00036228,-6.9282e-05,-520.56,0.016368
16907,1.4273,2.1818,0,0.0010626,10619,0.00036587,43.87,0.0003288,-234.72,-0.0010656,-10712,0.026777
16908,1.3352,2.0909,0,0.0011309,11302,0.00041501,537.04,0.00035112,56.968,-0.0011201,-10997,0.022696
16909,1.3352,2.1818,0.05,4.7407e-05,473.75,3.6403e-05,273.52,-5.1174e-12,0.00047644,-3.6403e-05,-273.52,0.023052
16910,1.6116,2.1818,0,0.00089851,8978.9,0.00032114,7.5233,0.00025471,-491.64,-0.0009057,-9210.5,0.034546
16911,1.5195,2.0909,0,0.00093144,9308,0.00031787,52.579,0.00029437,-123.97,-0.00093253,-9342.4,0.030221
16912,1.5195,2.1818,0.05,2.6348e-05,263.3,2.0232e-05,152.01,3.5121e-11,0.00055774,-2.0232e-05,-152.01,0.0305
16913,1.7959,2.1818,0,0.00079786,7973.1,0.00029451,7.9334,0.00020966,-629.67,-0.00080652,-8264.8,0.042912
16914,1.7037,2.0909,0,0.00081737,8168,0.00028875,17.081,0.00023863,-359.46,-0.00082254,-8332.7,0.038358
16915,1.7037,2.1818,0.05,1.8323e-05,183.11,1.407e-05,105.72,2.7834e-11,0.00044508,-1.407e-05,-105.72,0.038584
16916,1.9801,2.1818,0,0.00072826,7277.6,0.00027445,3.3023,0.00018079,-700.44,-0.00073756,-7600.6,0.051817
16917,1.888,2.0909,0,0.00074108,7405.7,0.00026993,5.2175,0.00020102,-512.59,-0.00074835,-7645.8,0.047041
16918,1.888,2.1818,0.05,1.3767e-05,137.57,1.0571e-05,79.428,3.2213e-11,0.00040361,-1.0571e-05,-79.428,0.047231
16919,2.1644,2.1818,0,0.00067788,6774.1,0.00025889,2.4571,0.00016195,-725.93,-0.00068724,-7106.4,0.061218
16920,2.0723,2.0909,0,0.0006874,6869.3,0.00025577,3.7318,0.00017667,-590.65,-0.00069545,-7143.4,0.056227
16921,2.0723,2.1818,0.05,1.077e-05,107.63,8.2702e-06,62.139,2.9647e-11,0.00031746,-8.2702e-06,-62.139,0.056393
16922,2.3487,2.1818,0,0.00063988,6394.4,0.00024612,1.5724,0.00014958,-723.79,-0.00064908,-6724.6,0.071084
16923,2.2565,2.0909,0,0.00064756,6471.2,0.00024403,2.1833,0.00016071,-623.86,-0.00065586,-6759.2,0.065882
16924,2.2565,2.1818,0.05,8.6486e-06,86.426,6.641e-06,49.898,2.1042e-11,0.00032793,-6.6411e-06,-49.898,0.066034
16925,2.5329,2.1818,0,0.00061047,6100.5,0.00023543,1.1156,0.00014152,-704.44,-0.00061936,-6421.5,0.08139
16926,2.4408,2.0909,0,0.00061707,6166.5,0.00023412,1.5205,0.0001502,-629.04,-0.00062532,-6456,0.075983
16927,2.4408,2.1818,0.05,7.0639e-06,70.591,5.4242e-06,40.756,2.0179e-11,0.00027567,-5.4242e-06,-40.755,0.076126
16928,2.7172,2.1818,0,0.0005872,5867.9,0.0002263,0.78772,0.00013638,-674.84,-0.00059574,-6175.7,0.092116
16929,2.6251,2.0909,0,0.00059311,5927,0.00022558,1.0478,0.00014331,-617.12,-0.00060116,-6210.8,0.086508
16930,2.6251,2.1818,0.05,5.8428e-06,58.387,4.4865e-06,33.71,1.9535e-11,0.00017454,-4.4865e-06,-33.71,0.086647
16931,2.9015,2.1818,0,0.00056846,5680.6,0.00021842,0.56741,0.00013323,-639.49,-0.00057661,-5973,0.10325
16932,2.8093,2.0909,0,0.00057387,5734.7,0.00021814,0.74872,0.00013887,-594.87,-0.00058165,-6008.5,0.097442
16933,2.8093,2.1818,0.05,4.8841e-06,48.807,3.7504e-06,28.179,1.5149e-11,0.00013568,-3.7504e-06,-28.179,0.097579
16934,3.0857,2.1818,0,0.0005531,5527.2,0.00021153,0.41048,0.00013144,-601.34,-0.00056086,-5803.1,0.11477
16935,2.9936,2.0909,0,0.00055813,5577.5,0.00021158,0.5389,0.00013609,-566.68,-0.00056559,-5838.9,0.10877
16936,2.9936,2.1818,0.05,4.1234e-06,41.205,3.1662e-06,23.79,1.2988e-11,0.00015824,-3.1662e-06,-23.79,0.10891
16937,3.27,2.1818,0,0.00054032,5399.5,0.00020546,0.29843,0.00013058,-562.29,-0.00054768,-5658.4,0.12667
16938,3.1779,2.0909,0,0.00054503,5446.5,0.00020576,0.39178,0.00013445,-535.36,-0.00055215,-5694.2,0.12049
16939,3.1779,2.1818,0.05,3.516e-06,35.136,2.6998e-06,20.286,1.0012e-11,9.8757e-05,-2.6998e-06,-20.285,0.12063
16940,3.4543,2.1818,0,0.00052949,5291.3,0.00020004,0.21734,0.00013033,-523.59,-0.00053645,-5533.5,0.13895
16941,3.3621,2.0909,0,0.00053393,5335.6,0.00020053,0.28612,0.00013359,-502.73,-0.00054069,-5569,0.13258
16942,3.3621,2.1818,0.05,3.0295e-06,30.274,2.3262e-06,17.479,7.3733e-12,9.3787e-05,-2.3262e-06,-17.478,0.13272
16943,3.6385,2.1818,0,0.00052016,5198,0.00019518,0.15838,0.00013047,-486.01,-0.00052671,-5423.8,0.15159
16944,3.5464,2.0909,0,0.00052435,5239.9,0.00019581,0.20968,0.00013323,-469.96,-0.00053076,-5458.9,0.14503
16945,3.5464,2.1818,0.05,2.6392e-06,26.373,2.0265e-06,15.227,5.159e-12,8.2507e-05,-2.0265e-06,-15.227,0.14518
16946,3.8228,2.1818,0,0.00051196,5116.1,0.00019076,0.11532,0.00013085,-450.03,-0.00051813,-5326.2,0.16459
16947,3.7307,2.0909,0,0.00051595,5155.9,0.0001915,0.15393,0.00013321,-437.81,-0.00052199,-5360.8,0.15785
16948,3.7307,2.1818,0.05,2.3259e-06,23.243,1.786e-06,13.419,7.3741e-12,5.5944e-05,-1.786e-06,-13.419,0.158
16949,4.0071,2.1818,0,0.00050463,5042.8,0.00018671,0.083798,0.00013134,-415.93,-0.00051042,-5237.9,0.17794
16950,3.9149,2.0909,0,0.00050843,5080.8,0.00018754,0.1131,0.00013338,-406.77,-0.00051413,-5271.9,0.17102
16951,3.9149,2.1818,0.05,2.0745e-06,20.731,1.593e-06,11.969,6.3665e-12,6.8244e-05,-1.593e-06,-11.969,0.17117
16952,4.1913,2.1818,0,0.00049796,4976.2,0.00018298,0.06069,0.00013188,-383.83,-0.00050337,-5156.9,0.19163
16953,4.0992,2.0909,0,0.0005016,5012.5,0.00018386,0.083094,0.00013366,-377.12,-0.00050695,-5190.4,0.18454
16954,4.0992,2.1818,0.05,1.8728e-06,18.715,1.4381e-06,10.805,-9.4987e-14,3.7591e-05,-1.4381e-06,-10.805,0.1847
16955,4.3756,2.1818,0,0.00049178,4914.4,0.0001795,0.043748,0.00013241,-353.78,-0.00049684,-5081.7,0.20567
16956,4.2835,2.0909,0,0.00049528,4949.4,0.00018043,0.060992,0.00013397,-349.02,-0.00050029,-5114.6,0.19841
16957,4.2835,2.1818,0.05,1.7109e-06,17.098,1.3138e-06,9.8714,-1.6641e-12,4.9452e-05,-1.3138e-06,-9.8712,0.19857
16958,4.5599,2.1818,0,0.00048597,4856.4,0.00017624,0.031336,0.00013288,-325.77,-0.00049069,-5011,0.22005
16959,4.4677,2.0909,0,0.00048935,4890.1,0.0001772,0.044694,0.00013427,-322.56,-0.00049404,-5043.4,0.21262
16960,4.4677,2.1818,0.05,1.5809e-06,15.799,1.214e-06,9.1213,2.2462e-14,2.2444e-05,-1.214e-06,-9.1212,0.21278
16961,4.7441,2.1818,0,0.00048043,4801,0.00017316,0.022262,0.00013327,-299.73,-0.00048483,-4943.8,0.23476
16962,4.652,2.0909,0,0.00048371,4833.7,0.00017415,0.032673,0.00013452,-297.74,-0.00048808,-4975.7,0.22716
16963,4.652,2.1818,0.05,1.4764e-06,14.753,1.1337e-06,8.5179,-1.1904e-12,1.7501e-05,-1.1337e-06,-8.5179,0.22732
16964,4.9284,2.1818,0,0.00047509,4747.6,0.00017023,0.015653,0.00013356,-275.58,-0.00047918,-4879.4,0.24979
16965,4.8363,2.0909,0,0.00047828,4779.5,0.00017124,0.023814,0.0001347,-274.54,-0.00048236,-4910.8,0.24203
16966,4.8363,2.1818,0.05,1.392e-06,13.91,1.0689e-06,8.0311,-4.9956e-13,1.372e-05,-1.0689e-06,-8.0311,0.24219
16967,5.1127,2.1818,0,0.00046989,4695.7,0.00016744,0.010865,0.00013374,-253.22,-0.00047369,-4817.2,0.26516
16968,5.0205,2.0909,0,0.000473,4726.8,0.00016845,0.017297,0.00013479,-252.92,-0.0004768,-4848.2,0.25723
16969,5.0205,2.1818,0.05,1.3236e-06,13.227,1.0164e-06,7.6368,-3.295e-12,1.487e-05,-1.0164e-06,-7.6367,0.2574
16970,5.2969,2.1818,0,0.00046479,4644.7,0.00016476,0.0074234,0.00013381,-232.54,-0.00046831,-4756.6,0.28084
16971,5.2048,2.0909,0,0.00046784,4675.2,0.00016578,0.012519,0.00013479,-232.81,-0.00047136,-4787.2,0.27275
16972,5.2048,2.1818,0.05,1.2679e-06,12.671,9.7363e-07,7.3155,-3.7322e-12,1.335e-05,-9.7362e-07,-7.3154,0.27292
16973,5.4812,2.1818,0,0.00045976,4594.4,0.00016217,0.0049785,0.00013376,-213.45,-0.00046302,-4697.4,0.29685
16974,5.3891,2.0909,0,0.00046275,4624.3,0.00016319,0.0090352,0.00013469,-214.14,-0.00046602,-4727.6,0.2886
16975,5.3891,2.1818,0.05,1.2223e-06,12.214,9.3856e-07,7.052,-2.7285e-12,1.3984e-05,-9.3856e-07,-7.0519,0.28877
16976,5.6655,2.1818,0,0.00045476,4544.5,0.00015967,0.0032699,0.00013361,-195.82,-0.00045778,-4639.3,0.31316
16977,5.5733,2.0909,0,0.00045771,4573.9,0.00016069,0.006514,0.00013449,-196.82,-0.00046074,-4669.2,0.30476
16978,5.5733,2.1818,0.05,1.1845e-06,11.837,9.0956e-07,6.8341,-1.3948e-12,5.6806e-06,-9.0955e-07,-6.8341,0.30493
16979,5.8497,2.1818,0,0.0004498,4494.9,0.00015724,0.0021048,0.00013334,-179.56,-0.00045258,-4581.9,0.32979
16980,5.7576,2.0909,0,0.0004527,4523.9,0.00015826,0.0047096,0.0001342,-180.78,-0.00045551,-4611.6,0.32123
16981,5.7576,2.1818,0.05,1.153e-06,11.522,8.8537e-07,6.6523,-5.2661e-12,5.6005e-06,-8.8536e-07,-6.6523,0.3214
16982,6.034,2.1818,0,0.00044484,4445.3,0.00015487,0.00134,0.00013297,-164.56,-0.00044741,-4525.3,0.34673
16983,5.9419,2.0909,0,0.00044771,4474,0.00015589,0.0034388,0.0001338,-165.94,-0.0004503,-4554.7,0.33801
16984,5.9419,2.1818,0.05,1.1265e-06,11.257,8.6498e-07,6.4992,-3.0455e-13,8.8031e-06,-8.6498e-07,-6.4991,0.33819
16985,6.2183,2.1818,0,0.00043988,4395.8,0.00015256,0.00086904,0.0001325,-150.74,-0.00044225,-4469.2,0.36397
16986,6.1261,2.0909,0,0.00044272,4424.2,0.00015357,0.0025654,0.00013332,-152.21,-0.00044512,-4498.3,0.3551
16987,6.1261,2.1818,0.05,1.1039e-06,11.031,8.4762e-07,6.3687,-2.2968e-12,6.8393e-06,-8.4762e-07,-6.3687,0.35528
16988,6.4025,2.1818,0,0.00043492,4346.2,0.0001503,0.00061225,0.00013194,-137.99,-0.0004371,-4413.5,0.38151
16989,6.3104,2.0909,0,0.00043774,4374.4,0.00015131,0.001987,0.00013274,-139.51,-0.00043994,-4442.4,0.37249
16990,6.3104,2.1818,0.05,1.0844e-06,10.837,8.3269e-07,6.2565,-4.3169e-12,8.4973e-06,-8.3269e-07,-6.2565,0.37267
16991,6.5868,2.1818,0,0.00042995,4296.5,0.00014809,0.0005104,0.00013129,-126.24,-0.00043196,-4358.3,0.39934
16992,6.4947,2.0909,0,0.00043275,4324.5,0.00014909,0.0016267,0.00013208,-127.78,-0.00043478,-4386.9,0.39018
16993,6.4947,2.1818,0.05,1.0675e-06,10.667,8.197e-07,6.1588,-2.5842e-12,6.7225e-06,-8.1969e-07,-6.1588,0.39036
16994,6.7711,2.1818,0,0.00042497,4246.8,0.00014592,0.00052003,0.00013056,-115.41,-0.00042681,-4303.3,0.41747
16995,6.6789,2.0909,0,0.00042775,4274.5,0.00014691,0.0014273,0.00013135,-116.94,-0.00042962,-4331.8,0.40817
16996,6.6789,2.1818,0.05,1.0526e-06,10.519,8.0826e-07,6.073,-8.8629e-13,6.9842e-06,-8.0826e-07,-6.0729,0.40834
16997,6.9553,2.1818,0,0.00041998,4196.9,0.00014378,0.00060862,0.00012975,-105.43,-0.00042167,-4248.6,0.4359
16998,6.8632,2.0909,0,0.00042274,4224.5,0.00014477,0.0013461,0.00013053,-106.93,-0.00042445,-4276.9,0.42645
16999,6.8632,2.1818,0.05,1.0394e-06,10.386,7.981e-07,5.9967,-2.8996e-12,4.8651e-06,-7.981e-07,-5.9966,0.42662
17000,7.1396,2.1818,0,0.00041497,4146.8,0.00014168,0.00075169,0.00012887,-96.23,-0.00041652,-4194.1,0.4546
17001,7.0475,2.0909,0,0.00041772,4174.3,0.00014266,0.0013509,0.00012966,-97.686,-0.00041929,-4222.3,0.44501
17002,7.0475,2.1818,0.05,1.0275e-06,10.268,7.8898e-07,5.9282,-2.921e-12,6.8064e-06,-7.8898e-07,-5.928,0.44518
17003,7.3239,2.1818,0,0.00040995,4096.7,0.00013961,0.00093152,0.00012793,-87.746,-0.00041138,-4139.9,0.47359
17004,7.2317,2.0909,0,0.00041269,4124,0.00014058,0.001417,0.00012871,-89.15,-0.00041413,-4167.9,0.46386
17005,7.2317,2.1818,0.05,1.0167e-06,10.16,7.8072e-07,5.8661,-1.2067e-12,7.005e-06,-7.8072e-07,-5.8659,0.46403
17006,7.5081,2.1818,0,0.00040493,4046.5,0.00013757,0.0011351,0.00012693,-79.923,-0.00040623,-4085.8,0.49286
17007,7.416,2.0909,0,0.00040765,4073.7,0.00013853,0.001527,0.00012771,-81.269,-0.00040897,-4113.7,0.48299
17008,7.416,2.1818,0.05,1.0069e-06,10.062,7.7316e-07,5.8093,-1.2718e-12,4.1033e-06,-7.7317e-07,-5.8092,0.48316
17009,7.6924,2.1818,0,0.00039989,3996.1,0.00013555,0.0013527,0.00012587,-72.71,-0.00040107,-4032,0.5124
17010,7.6003,2.0909,0,0.0004026,4023.2,0.00013651,0.0016669,0.00012666,-73.993,-0.0004038,-4059.7,0.5024
17011,7.6003,2.1818,0.05,9.9782e-07,9.9713,7.6621e-07,5.757,-1.3075e-12,4.6918e-06,-7.662e-07,-5.7569,0.50257
17012,7.8767,2.1818,0,0.00039484,3945.7,0.00013356,0.0015779,0.00012476,-66.057,-0.00039592,-3978.3,0.53222
17013,7.7845,2.0909,0,0.00039754,3972.6,0.00013451,0.0018278,0.00012555,-67.275,-0.00039864,-4005.9,0.52208
17014,7.7845,2.1818,0.05,9.8941e-07,9.8872,7.5975e-07,5.7084,-3.1854e-12,5.1318e-06,-7.5974e-07,-5.7084,0.52225
17015,8.0609,2.1818,0,0.00038979,3895.2,0.00013159,0.0018058,0.00012361,-59.921,-0.00039077,-3924.8,0.55231
17016,7.9688,2.0909,0,0.00039247,3922,0.00013253,0.0020016,0.0001244,-61.073,-0.00039348,-3952.2,0.54204
17017,7.9688,2.1818,0.05,9.8154e-07,9.8087,7.5371e-07,5.6631,-3.2399e-12,4.8885e-06,-7.537e-07,-5.663,0.5422
17018,8.2452,2.1818,0,0.00038473,3844.6,0.00012964,0.0020329,0.00012242,-54.26,-0.00038562,-3871.4,0.57266
17019,8.1531,2.0909,0,0.0003874,3871.4,0.00013058,0.0021833,0.00012321,-55.346,-0.00038832,-3898.7,0.56226
17020,8.1531,2.1818,0.05,9.7415e-07,9.7348,7.4803e-07,5.6204,-3.276e-12,4.5501e-06,-7.4802e-07,-5.6204,0.56242
17021,8.4295,2.1818,0,0.00037966,3794,0.00012771,0.0022572,0.00012118,-49.037,-0.00038047,-3818.3,0.59327
17022,8.3373,2.0909,0,0.00038233,3820.7,0.00012864,0.0023694,0.00012198,-50.059,-0.00038316,-3845.5,0.58274
17023,8.3373,2.1818,0.05,9.6717e-07,9.665,7.4267e-07,5.5801,-5.7896e-13,4.319e-06,-7.4266e-07,-5.5801,0.5829
17024,8.6137,2.1818,0,0.00037459,3743.4,0.0001258,0.0024773,0.00011991,-44.216,-0.00037533,-3765.3,0.61414
17025,8.5216,2.0909,0,0.00037725,3769.9,0.00012673,0.002557,0.00012071,-45.177,-0.000378,-3792.3,0.60349
17026,8.5216,2.1818,0.05,9.6054e-07,9.5987,7.3757e-07,5.5419,-2.4373e-12,4.1081e-06,-7.3758e-07,-5.5418,0.60365
17027,8.798,2.1818,0,0.00036953,3692.7,0.00012391,0.0026927,0.00011862,-39.767,-0.00037019,-3712.4,0.63527
17028,8.7059,2.0909,0,0.00037218,3719.2,0.00012483,0.002745,0.00011941,-40.668,-0.00037285,-3739.4,0.62449
17029,8.7059,2.1818,0.05,9.5422e-07,9.5356,7.3272e-07,5.5054,-1.5544e-12,4.3649e-06,-7.3272e-07,-5.5054,0.62464
17030,8.9823,2.1818,0,0.00036446,3642.1,0.00012203,0.002903,0.00011729,-35.66,-0.00036505,-3659.8,0.65665
17031,8.8901,2.0909,0,0.0003671,3668.5,0.00012295,0.0029321,0.00011809,-36.503,-0.00036771,-3686.6,0.64574
17032,8.8901,2.1818,0.05,9.4817e-07,9.4751,7.2808e-07,5.4705,-3.3966e-12,4.6569e-06,-7.2807e-07,-5.4704,0.6459
17033,9.1665,2.1818,0,0.00035939,3591.4,0.00012017,0.0031087,0.00011593,-31.867,-0.00035992,-3607.3,0.67827
17034,9.0744,2.0909,0,0.00036202,3617.7,0.00012108,0.003118,0.00011674,-32.656,-0.00036257,-3634,0.66725
17035,9.0744,2.1818,0.05,9.4235e-07,9.417,7.2362e-07,5.437,-1.6065e-12,4.4576e-06,-7.2361e-07,-5.4369,0.6674
17036,9.3508,2.1818,0,0.00035433,3540.8,0.00011833,0.0033106,0.00011455,-28.365,-0.0003548,-3554.9,0.70014
17037,9.2587,2.0909,0,0.00035695,3567,0.00011923,0.0033035,0.00011536,-29.102,-0.00035744,-3581.5,0.689
17038,9.2587,2.1818,0.05,9.3676e-07,9.3611,7.1932e-07,5.4047,-1.6239e-12,4.1084e-06,-7.1931e-07,-5.4046,0.68915
17039,9.5351,2.1818,0,0.00034927,3490.3,0.0001165,0.0035088,0.00011316,-25.129,-0.00034969,-3502.7,0.72225
17040,9.4429,2.0909,0,0.00035188,3516.4,0.0001174,0.0034884,0.00011396,-25.818,-0.00035231,-3529.2,0.71099
17041,9.4429,2.1818,0.05,9.3135e-07,9.3071,7.1516e-07,5.3735,-1.6504e-12,3.8843e-06,-7.1516e-07,-5.3734,0.71114
17042,9.7193,2.1818,0,0.00034421,3439.7,0.00011469,0.003709,0.00011174,-22.139,-0.00034458,-3450.8,0.7446
17043,9.6272,2.0909,0,0.00034682,3465.8,0.00011558,0.0036737,0.00011254,-22.783,-0.0003472,-3477.1,0.73322
17044,9.6272,2.1818,0.05,9.2612e-07,9.2548,7.1115e-07,5.3433,-1.6687e-12,4.2319e-06,-7.1114e-07,-5.3432,0.73337
17045,9.9036,2.1818,0,0.00033916,3389.3,0.00011288,0.0039096,0.0001103,-19.375,-0.00033949,-3398.9,0.76718
17046,9.8115,2.0909,0,0.00034176,3415.3,0.00011377,0.0038698,0.00011111,-19.976,-0.0003421,-3425.2,0.75569
17047,9.8115,2.1818,0.05,9.2104e-07,9.204,7.0724e-07,5.314,-7.7354e-13,3.8611e-06,-7.0724e-07,-5.3139,0.75583
17048,10.088,2.1818,0,0.00033412,3338.9,0.00011109,0.0041105,0.00010885,-16.819,-0.00033441,-3347.3,0.78999
17049,9.9957,2.0909,0,0.00033671,3364.8,0.00011197,0.004063,0.00010966,-17.381,-0.000337,-3373.4,0.77839
17050,9.9957,2.1818,0.05,9.161e-07,9.1547,7.0345e-07,5.2855,-2.6115e-12,3.9789e-06,-7.0346e-07,-5.2855,0.77853
17051,10.272,2.1818,0,0.00032909,3288.6,0.00010932,0.0043238,0.00010739,-14.455,-0.00032933,-3295.8,0.81303
17052,10.18,2.0909,0,0.00033167,3314.4,0.00011019,0.0042672,0.0001082,-14.98,-0.00033192,-3321.9,0.80132
17053,10.18,2.1818,0.05,9.1129e-07,9.1066,6.9976e-07,5.2577,-3.5315e-12,4.2474e-06,-6.9976e-07,-5.2577,0.80146
17054,10.456,2.1818,0,0.00032407,3238.4,0.00010755,0.0045298,0.00010592,-12.268,-0.00032427,-3244.5,0.8363
17055,10.364,2.0909,0,0.00032664,3264.1,0.00010842,0.0044966,0.00010672,-12.759,-0.00032685,-3270.5,0.82447
17056,10.364,2.1818,0.05,9.066e-07,9.0597,6.9616e-07,5.2307,-1.7269e-12,4.0324e-06,-6.9615e-07,-5.2306,0.82461
17057,10.641,2.1818,0,0.00031905,3188.3,0.00010579,0.0047503,0.00010443,-10.242,-0.00031923,-3193.4,0.85978
17058,10.549,2.0909,0,0.00032161,3213.9,0.00010666,0.0047009,0.00010524,-10.702,-0.0003218,-3219.3,0.84785
17059,10.549,2.1818,0.05,9.0201e-07,9.0139,6.9263e-07,5.2042,-8.2792e-13,4.1809e-06,-6.9263e-07,-5.2041,0.84798
17060,10.825,2.1818,0,0.00031405,3138.3,0.00010405,0.0050442,0.00010294,-8.3659,-0.00031419,-3142.5,0.88348
17061,10.733,2.0909,0,0.0003166,3163.8,0.00010491,0.0049794,0.00010374,-8.796,-0.00031675,-3168.2,0.87144
17062,10.733,2.1818,0.05,8.975e-07,8.9688,6.8917e-07,5.1782,-8.4031e-13,3.862e-06,-6.8917e-07,-5.1781,0.87158
17063,11.009,2.1818,0,0.00030906,3088.5,0.00010232,0.0053993,0.00010144,-6.6263,-0.00030917,-3091.8,0.90739
17064,10.917,2.0909,0,0.0003116,3113.9,0.00010318,0.0053629,0.00010224,-7.0296,-0.00031172,-3117.4,0.89525
17065,10.917,2.1818,0.05,8.931e-07,8.9248,6.8579e-07,5.1528,-2.6698e-12,3.4278e-06,-6.8579e-07,-5.1527,0.89538
17066,11.193,2.1818,0,0.00030408,3038.7,0.00010059,0.0058397,9.9927e-05,-5.0126,-0.00030416,-3041.2,0.93152
17067,11.101,2.0909,0,0.00030661,3064,0.00010145,0.0058224,0.00010073,-5.3913,-0.00030671,-3066.7,0.91927
17068,11.101,2.1818,0.05,8.8878e-07,8.8817,6.8247e-07,5.1279,-2.6796e-12,2.9499e-06,-6.8247e-07,-5.1278,0.9194
17069,11.378,2.1818,0,0.00029911,2989.1,9.8882e-05,0.0064948,9.8413e-05,-3.5144,-0.00029917,-2990.8,0.95585
17070,11.286,2.0909,0,0.00030164,3014.3,9.9733e-05,0.0065039,9.9217e-05,-3.8705,-0.0003017,-3016.2,0.9435
17071,11.286,2.1818,0.05,8.8454e-07,8.8393,6.7922e-07,5.1034,-2.689e-12,2.3767e-06,-6.7921e-07,-5.1034,0.94363
17072,11.562,2.1818,0,0.00029416,2939.6,9.7179e-05,0.0078116,9.6895e-05,-2.1225,-0.0002942,-2940.6,0.98038
17073,11.47,2.0909,0,0.00029668,2964.7,9.8026e-05,0.007745,9.7698e-05,-2.4581,-0.00029672,-2966,0.96793
17074,11.47,2.1818,0.05,8.8036e-07,8.7975,6.7601e-07,5.0793,-1.7885e-12,2.7545e-06,-6.7601e-07,-5.0792,0.96806
17075,11.746,2.1818,0,0.00028922,2890.2,9.5485e-05,0.012698,9.5373e-05,-0.83075,-0.00028924,-2890.6,1.0051
17076,11.654,2.0909,0,0.00029173,2915.3,9.6328e-05,0.011503,9.6174e-05,-1.1467,-0.00029175,-2915.8,0.99257
17077,11.654,2.1818,0.05,8.7624e-07,8.7563,6.7284e-07,5.0555,-1.7957e-12,2.7462e-06,-6.7284e-07,-5.0554,0.99269
17078,11.931,2.1818,0,0.0002843,2841,9.3852e-05,0.40171,9.3797e-05,-0.011464,-0.00028429,-2840.8,1.03
17079,11.838,2.0909,0,0.0002868,2866,9.4657e-05,0.14248,9.4631e-05,-0.052514,-0.00028679,-2865.9,1.0174
17080,11.838,2.1818,0.05,8.7218e-07,8.7158,6.6972e-07,5.0321,-8.9343e-13,2.5932e-06,-6.6973e-07,-5.032,1.0175
17081,12.115,2.1818,0,0.00027939,2792,9.2325e-05,1.5171,9.2123e-05,0.00080577,-0.00027936,-2791.2,1.0552
17082,12.023,2.0909,0,0.00028188,2816.8,9.3122e-05,1.2341,9.2958e-05,-0.0015123,-0.00028186,-2816.2,1.0424
17083,12.023,2.1818,0.05,8.6819e-07,8.6759,6.6666e-07,5.009,-1.81e-12,2.9282e-06,-6.6666e-07,-5.009,1.0426
17084,12.299,2.1818,0,0.00027449,2743,9.0797e-05,2.5694,9.0456e-05,0.0026764,-0.00027445,-2741.8,1.0805
17085,12.207,2.0909,0,0.00027697,2767.8,9.1593e-05,2.2986,9.1287e-05,0.0015701,-0.00027693,-2766.7,1.0676
17086,12.207,2.1818,0.05,8.6424e-07,8.6365,6.6363e-07,4.9863,-1.8166e-12,2.9385e-06,-6.6363e-07,-4.9862,1.0678
17087,12.483,2.1818,0,0.00026962,2694.3,8.927e-05,3.5562,8.8797e-05,0.0034832,-0.00026955,-2692.5,1.106
17088,12.391,2.0909,0,0.00027209,2719,9.0063e-05,3.2967,8.9625e-05,0.0026858,-0.00027203,-2717.3,1.0931
17089,12.391,2.1818,0.05,8.6034e-07,8.5975,6.6064e-07,4.9638,-1.8228e-12,1.902e-06,-6.6063e-07,-4.9637,1.0932
17090,12.668,2.1818,0,0.00026475,2645.7,8.7743e-05,4.4831,8.7147e-05,0.0039972,-0.00026468,-2643.5,1.1317
17091,12.575,2.0909,0,0.00026721,2670.3,8.8534e-05,4.2335,8.7971e-05,0.0033252,-0.00026714,-2668.2,1.1186
17092,12.575,2.1818,0.05,8.5647e-07,8.5588,6.5766e-07,4.9415,-9.1885e-13,1.3146e-06,-6.5767e-07,-4.9414,1.1188
17093,12.852,2.1818,0,0.00025991,2597.3,8.6217e-05,5.3556,8.5505e-05,0.004371,-0.00025982,-2594.6,1.1575
17094,12.76,2.0909,0,0.00026236,2621.8,8.7005e-05,5.1146,8.6325e-05,0.0037899,-0.00026227,-2619.2,1.1444
17095,12.76,2.1818,0.05,8.5266e-07,8.5207,6.5474e-07,4.9195,-1.8339e-12,2.1844e-06,-6.5473e-07,-4.9194,1.1445
17096,13.036,2.1818,0,0.00025508,2549,8.4692e-05,6.1794,8.387e-05,0.0046517,-0.00025497,-2545.9,1.1835
17097,12.944,2.0909,0,0.00025752,2573.4,8.5478e-05,5.9454,8.4687e-05,0.004119,-0.00025742,-2570.4,1.1704
17098,12.944,2.1818,0.05,8.4889e-07,8.483,6.5184e-07,4.8977,-1.9003e-14,2.3913e-06,-6.5184e-07,-4.8976,1.1705
17099,13.22,2.1818,0,0.00025027,2500.9,8.3169e-05,6.9597,8.2244e-05,0.0048729,-0.00025015,-2497.5,1.2098
17100,13.128,2.0909,0,0.0002527,2525.2,8.3953e-05,6.7312,8.3057e-05,0.0043811,-0.00025258,-2521.9,1.1965
17101,13.128,2.1818,0.05,8.4515e-07,8.4457,6.4898e-07,4.8762,-1.842e-12,3.5216e-06,-6.4897e-07,-4.8761,1.1966
17102,13.405,2.1818,0,0.00024547,2453,8.1649e-05,7.7013,8.0625e-05,0.0050698,-0.00024534,-2449.2,1.2361
17103,13.313,2.0909,0,0.00024789,2477.2,8.243e-05,7.4769,8.1435e-05,0.0045816,-0.00024777,-2473.5,1.2228
17104,13.313,2.1818,0.05,8.4145e-07,8.4087,6.4613e-07,4.8548,-1.8448e-12,3.3195e-06,-6.4613e-07,-4.8547,1.2229
17105,13.589,2.1818,0,0.0002407,2405.3,8.0132e-05,8.4091,7.9014e-05,0.0052804,-0.00024055,-2401.1,1.2627
17106,13.497,2.0909,0,0.00024311,2429.4,8.0909e-05,8.1873,7.982e-05,0.0047877,-0.00024297,-2425.3,1.2493
17107,13.497,2.1818,0.05,8.3777e-07,8.3719,6.433e-07,4.8336,-1.8474e-12,3.1819e-06,-6.433e-07,-4.8335,1.2494
17108,13.773,2.1818,0,0.00023594,2357.8,7.8619e-05,9.0874,7.741e-05,0.0054823,-0.00023578,-2353.2,1.2894
17109,13.681,2.0909,0,0.00023834,2381.8,7.9393e-05,8.8669,7.8213e-05,0.0050106,-0.00023819,-2377.3,1.2759
17110,13.681,2.1818,0.05,8.3413e-07,8.3355,6.4051e-07,4.8126,-3.1526e-14,1.9071e-06,-6.4051e-07,-4.8125,1.276
17111,13.957,2.1818,0,0.0002312,2310.4,7.7109e-05,9.7406,7.5813e-05,0.0056609,-0.00023103,-2305.5,1.3163
17112,13.865,2.0909,0,0.00023359,2334.3,7.788e-05,9.5199,7.6613e-05,0.0051967,-0.00023343,-2329.5,1.3027
17113,13.865,2.1818,0.05,8.3053e-07,8.2995,6.3774e-07,4.7917,-3.4415e-14,2.0631e-06,-6.3774e-07,-4.7917,1.3028
17114,14.142,2.1818,0,0.00022648,2263.2,7.5604e-05,10.373,7.4224e-05,0.0058197,-0.0002263,-2258,1.3433
17115,14.05,2.0909,0,0.00022886,2287,7.6371e-05,10.15,7.5021e-05,0.0053697,-0.00022868,-2281.9,1.3296
17116,14.05,2.1818,0.05,8.2695e-07,8.2638,6.35e-07,4.7711,-3.6749e-12,2.4672e-06,-6.3499e-07,-4.7711,1.3297
17117,14.326,2.1818,0,0.00022178,2216.2,7.4103e-05,10.988,7.2642e-05,0.005979,-0.00022159,-2210.7,1.3705
17118,14.234,2.0909,0,0.00022415,2239.9,7.4867e-05,10.762,7.3435e-05,0.0055136,-0.00022396,-2234.5,1.3567
17119,14.234,2.1818,0.05,8.234e-07,8.2283,6.3227e-07,4.7506,-4.0286e-14,1.9108e-06,-6.3227e-07,-4.7506,1.3568
17120,14.51,2.1818,0,0.00021709,2169.4,7.2608e-05,11.59,7.1066e-05,0.0061671,-0.00021689,-2163.6,1.3978
17121,14.418,2.0909,0,0.00021945,2193,7.3368e-05,11.36,7.1857e-05,0.0056857,-0.00021926,-2187.3,1.384
17122,14.418,2.1818,0.05,8.1986e-07,8.193,6.2956e-07,4.7303,-1.8594e-12,2.863e-06,-6.2955e-07,-4.7302,1.3841
17123,14.695,2.1818,0,0.00021243,2122.8,7.1118e-05,12.183,6.9498e-05,0.0063585,-0.00021222,-2116.7,1.4253
17124,14.602,2.0909,0,0.00021478,2146.3,7.1874e-05,11.946,7.0285e-05,0.0058864,-0.00021457,-2140.3,1.4114
17125,14.602,2.1818,0.05,8.1637e-07,8.158,6.2687e-07,4.7101,-9.4891e-13,4.2322e-06,-6.2687e-07,-4.71,1.4115
17126,14.879,2.1818,0,0.00020778,2076.4,6.9635e-05,12.77,6.7936e-05,0.0065367,-0.00020756,-2070,1.4529
17127,14.787,2.0909,0,0.00021012,2099.8,7.0386e-05,12.525,6.872e-05,0.0060632,-0.00020991,-2093.5,1.439
17128,14.787,2.1818,0.05,8.129e-07,8.1234,6.2421e-07,4.6901,-3.8797e-14,5.9105e-06,-6.242e-07,-4.69,1.439
17129,15.063,2.1818,0,0.00020316,2030.2,6.8157e-05,13.356,6.6381e-05,0.006705,-0.00020293,-2023.5,1.4807
17130,14.971,2.0909,0,0.00020549,2053.5,6.8905e-05,13.101,6.7162e-05,0.0062378,-0.00020526,-2046.9,1.4666
17131,14.971,2.1818,0.05,8.0946e-07,8.089,6.2156e-07,4.6702,-9.4933e-13,5.0604e-06,-6.2156e-07,-4.6702,1.4667
17132,15.247,2.1818,0,0.00019856,1984.2,6.6687e-05,13.943,6.4832e-05,0.0068805,-0.00019831,-1977.2,1.5086
17133,15.155,2.0909,0,0.00020087,2007.4,6.743e-05,13.676,6.561e-05,0.0063934,-0.00020064,-2000.5,1.4945
17134,15.155,2.1818,0.05,8.0604e-07,8.0548,6.1894e-07,4.6505,-9.5121e-13,6.6095e-06,-6.1893e-07,-4.6504,1.4946
17135,15.432,2.1818,0,0.00019397,1938.4,6.5223e-05,14.535,6.329e-05,0.0070868,-0.00019372,-1931.1,1.5366
17136,15.339,2.0909,0,0.00019628,1961.4,6.5962e-05,14.255,6.4065e-05,0.0065804,-0.00019603,-1954.3,1.5225
17137,15.339,2.1818,0.05,8.0264e-07,8.0208,6.1633e-07,4.6308,-4.4253e-14,6.2255e-06,-6.1632e-07,-4.6308,1.5225
17138,15.616,2.1818,0,0.00018941,1892.8,6.3768e-05,15.137,6.1754e-05,0.0073002,-0.00018915,-1885.2,1.5648
17139,15.524,2.0909,0,0.0001917,1915.7,6.4501e-05,14.841,6.2526e-05,0.0067976,-0.00019145,-1908.3,1.5506
17140,15.524,2.1818,0.05,7.9927e-07,7.9872,6.1374e-07,4.6114,-9.571e-13,4.9971e-06,-6.1374e-07,-4.6114,1.5506
17141,15.8,2.1818,0,0.00018486,1847.4,6.232e-05,15.752,6.0224e-05,0.0075087,-0.00018459,-1839.4,1.593
17142,15.708,2.0909,0,0.00018715,1870.2,6.3048e-05,15.438,6.0994e-05,0.0069986,-0.00018688,-1862.4,1.5788
17143,15.708,2.1818,0.05,7.9593e-07,7.9538,6.1118e-07,4.5922,-5.235e-14,4.0241e-06,-6.1117e-07,-4.5921,1.5789
17144,15.984,2.1818,0,0.00018034,1802.2,6.088e-05,16.383,5.87e-05,0.0077149,-0.00018006,-1793.9,1.6215
17145,15.892,2.0909,0,0.00018262,1824.9,6.1602e-05,16.05,5.9467e-05,0.0072054,-0.00018234,-1816.8,1.6071
17146,15.892,2.1818,0.05,7.9262e-07,7.9208,6.0864e-07,4.5731,-5.1832e-14,4.9607e-06,-6.0863e-07,-4.573,1.6072
17147,16.169,2.1818,0,0.00017584,1757.2,5.9449e-05,17.036,5.7183e-05,0.0079311,-0.00017555,-1748.6,1.65
17148,16.077,2.0909,0,0.0001781,1779.8,6.0166e-05,16.679,5.7947e-05,0.0074004,-0.00017781,-1771.4,1.6356
17149,16.077,2.1818,0.05,7.8934e-07,7.8879,6.0612e-07,4.5541,-1.4198e-12,5.7746e-06,-6.0611e-07,-4.5541,1.6357
17150,16.353,2.1818,0,0.00017136,1712.4,5.8027e-05,17.713,5.5671e-05,0.0081811,-0.00017105,-1703.5,1.6787
17151,16.261,2.0909,0,0.00017361,1734.9,5.8738e-05,17.331,5.6432e-05,0.0076272,-0.00017331,-1726.2,1.6642
17152,16.261,2.1818,0.05,7.8608e-07,7.8553,6.0361e-07,4.5353,-5.1443e-13,6.8242e-06,-6.0361e-07,-4.5353,1.6643
17153,16.537,2.1818,0,0.0001669,1667.9,5.6615e-05,18.419,5.4164e-05,0.0084454,-0.00016658,-1658.6,1.7074
17154,16.445,2.0909,0,0.00016914,1690.3,5.732e-05,18.009,5.4924e-05,0.0078891,-0.00016883,-1681.2,1.693
17155,16.445,2.1818,0.05,7.8285e-07,7.8231,6.0114e-07,4.5167,-5.185e-13,7.2765e-06,-6.0113e-07,-4.5167,1.693
17156,16.721,2.1818,0,0.00016247,1623.6,5.5212e-05,19.159,5.2664e-05,0.0087095,-0.00016213,-1613.9,1.7363
17157,16.629,2.0909,0,0.0001647,1645.8,5.5911e-05,18.718,5.3421e-05,0.0081431,-0.00016437,-1636.4,1.7218
17158,16.629,2.1818,0.05,7.7966e-07,7.7913,5.9869e-07,4.4983,-5.217e-13,7.8416e-06,-5.9868e-07,-4.4983,1.7219
17159,16.906,2.1818,0,0.00015806,1579.5,5.3821e-05,19.936,5.1169e-05,0.0089777,-0.00015771,-1569.4,1.7653
17160,16.814,2.0909,0,0.00016027,1601.6,5.4512e-05,19.461,5.1923e-05,0.0084062,-0.00015993,-1591.8,1.7507
17161,16.814,2.1818,0.05,7.7651e-07,7.7597,5.9627e-07,4.4801,-1.4359e-12,6.9648e-06,-5.9626e-07,-4.4801,1.7508
17162,17.09,2.1818,0,0.00015367,1535.6,5.244e-05,20.757,4.9679e-05,0.009264,-0.0001533,-1525.1,1.7944
17163,16.998,2.0909,0,0.00015587,1557.6,5.3124e-05,20.244,5.0431e-05,0.0086666,-0.00015551,-1547.4,1.7798
17164,16.998,2.1818,0.05,7.7339e-07,7.7285,5.9387e-07,4.4621,-1.4379e-12,7.2974e-06,-5.9386e-07,-4.4621,1.7799
17165,17.274,2.1818,0,0.0001493,1491.9,5.1071e-05,21.626,4.8194e-05,0.0095868,-0.00014892,-1481,1.8237
17166,17.182,2.0909,0,0.00015149,1513.8,5.1747e-05,21.071,4.8944e-05,0.008964,-0.00015112,-1503.2,1.809
17167,17.182,2.1818,0.05,7.703e-07,7.6977,5.9149e-07,4.4443,-5.299e-13,7.0537e-06,-5.9149e-07,-4.4442,1.809
17168,17.459,2.1818,0,0.00014495,1448.5,4.9714e-05,22.548,4.6714e-05,0.0099304,-0.00014456,-1437.1,1.853
17169,17.366,2.0909,0,0.00014713,1470.3,5.0382e-05,21.948,4.7462e-05,0.0092992,-0.00014674,-1459.2,1.8382
17170,17.366,2.1818,0.05,7.6725e-07,7.6673,5.8916e-07,4.4267,-5.347e-13,7.0062e-06,-5.8915e-07,-4.4267,1.8383
17171,17.643,2.1818,0,0.00014063,1405.4,4.8369e-05,23.53,4.5239e-05,0.010286,-0.00014022,-1393.4,1.8824
17172,17.551,2.0909,0,0.00014279,1427,4.9029e-05,22.879,4.5985e-05,0.0096358,-0.00014239,-1415.4,1.8676
17173,17.551,2.1818,0.05,7.6426e-07,7.6373,5.8686e-07,4.4094,-9.9531e-13,8.407e-06,-5.8685e-07,-4.4094,1.8676
17174,17.827,2.1818,0,0.00013634,1362.4,4.7038e-05,24.576,4.3769e-05,0.010653,-0.0001359,-1350,1.9119
17175,17.735,2.0909,0,0.00013848,1383.9,4.7689e-05,23.871,4.4513e-05,0.0099917,-0.00013806,-1371.8,1.897
17176,17.735,2.1818,0.05,7.6131e-07,7.6078,5.8459e-07,4.3924,-5.5137e-13,6.9062e-06,-5.8459e-07,-4.3924,1.8971
17177,18.011,2.1818,0,0.00013206,1319.7,4.5721e-05,25.695,4.2303e-05,0.011047,-0.00013161,-1306.7,1.9415
17178,17.919,2.0909,0,0.0001342,1341.1,4.6362e-05,24.93,4.3046e-05,0.010356,-0.00013376,-1328.4,1.9266
17179,17.919,2.1818,0.05,7.584e-07,7.5788,5.8236e-07,4.3757,-5.5607e-13,7.3737e-06,-5.8236e-07,-4.3756,1.9266
17180,18.196,2.1818,0,0.00012782,1277.3,4.4419e-05,26.893,4.0841e-05,0.011488,-0.00012734,-1263.6,1.9712
17181,18.103,2.0909,0,0.00012994,1298.5,4.5049e-05,26.062,4.1582e-05,0.010764,-0.00012947,-1285.2,1.9562
17182,18.103,2.1818,0.05,7.5555e-07,7.5503,5.8017e-07,4.3592,-1.1186e-13,8.4622e-06,-5.8017e-07,-4.3591,1.9563
17183,18.38,2.1818,0,0.00012359,1235.1,4.3132e-05,28.177,3.9383e-05,0.011961,-0.00012309,-1220.7,2.0009
17184,18.288,2.0909,0,0.0001257,1256.1,4.3752e-05,27.274,4.0123e-05,0.011217,-0.00012521,-1242.3,1.986
17185,18.288,2.1818,0.05,7.5276e-07,7.5224,5.7803e-07,4.3431,-1.4819e-12,1.007e-05,-5.7802e-07,-4.343,1.986
17186,18.564,2.1818,0,0.0001194,1193.2,4.1861e-05,29.555,3.7929e-05,0.012457,-0.00011887,-1178.1,2.0308
17187,18.472,2.0909,0,0.00012149,1214,4.2469e-05,28.574,3.8668e-05,0.011689,-0.00012098,-1199.5,2.0158
17188,18.472,2.1818,0.05,7.5003e-07,7.4952,5.7593e-07,4.3274,-1.2926e-13,1.2621e-05,-5.7593e-07,-4.3273,2.0158
17189,18.748,2.1818,0,0.00011523,1151.5,4.0607e-05,31.036,3.6479e-05,0.012987,-0.00011467,-1135.6,2.0607
17190,18.656,2.0909,0,0.0001173,1172.2,4.1204e-05,29.969,3.7216e-05,0.012191,-0.00011676,-1156.9,2.0457
17191,18.656,2.1818,0.05,7.4738e-07,7.4686,5.7389e-07,4.312,-1.0438e-12,8.7931e-06,-5.7389e-07,-4.312,2.0457
17192,18.933,2.1818,0,0.00011109,1110.1,3.9372e-05,32.628,3.5031e-05,0.013559,-0.00011049,-1093.4,2.0907
17193,18.841,2.0909,0,0.00011314,1130.6,3.9955e-05,31.469,3.5768e-05,0.012724,-0.00011257,-1114.6,2.0757
17194,18.841,2.1818,0.05,7.448e-07,7.4428,5.7191e-07,4.2971,-6.0831e-13,7.6549e-06,-5.7191e-07,-4.2971,2.0757
17195,19.117,2.1818,0,0.00010697,1069,3.8156e-05,34.343,3.3587e-05,0.01419,-0.00010634,-1051.4,2.1208
17196,19.025,2.0909,0,0.00010901,1089.3,3.8725e-05,33.083,3.4323e-05,0.013314,-0.00010841,-1072.4,2.1057
17197,19.025,2.1818,0.05,7.4229e-07,7.4178,5.6999e-07,4.2827,-6.2658e-13,9.4192e-06,-5.6999e-07,-4.2827,2.1058
17198,19.301,2.1818,0,0.00010288,1028.1,3.6959e-05,36.19,3.2145e-05,0.014875,-0.00010222,-1009.6,2.151
17199,19.209,2.0909,0,0.00010491,1048.3,3.7513e-05,34.819,3.2881e-05,0.013965,-0.00010427,-1030.5,2.1358
17200,19.209,2.1818,0.05,7.3988e-07,7.3937,5.6814e-07,4.2688,-1.8752e-13,8.8463e-06,-5.6814e-07,-4.2687,2.1359
17201,19.485,2.1818,0,9.8828e-05,987.6,3.5784e-05,38.181,3.0705e-05,0.015614,-9.8123e-05,-967.94,2.1812
17202,19.393,2.0909,0,0.00010083,1007.6,3.6322e-05,36.69,3.1441e-05,0.014661,-0.00010016,-988.75,2.166
17203,19.393,2.1818,0.05,7.3757e-07,7.3707,5.6637e-07,4.2555,-6.6634e-13,8.9164e-06,-5.6636e-07,-4.2554,2.1661
17204,19.67,2.1818,0,9.4801e-05,947.36,3.4632e-05,40.328,2.9267e-05,0.016413,-9.405e-05,-926.54,2.2115
17205,19.578,2.0909,0,9.6784e-05,967.17,3.5153e-05,38.707,3.0003e-05,0.015417,-9.6067e-05,-947.23,2.1963
17206,19.578,2.1818,0.05,7.3538e-07,7.3487,5.6468e-07,4.2428,-6.7983e-13,9.2703e-06,-5.6468e-07,-4.2427,2.1963
17207,19.854,2.1818,0,9.0806e-05,907.43,3.3503e-05,42.644,2.783e-05,0.017286,-9.0005e-05,-885.35,2.2419
17208,19.762,2.0909,0,9.2768e-05,927.04,3.4006e-05,40.881,2.8567e-05,0.016231,-9.2004e-05,-905.91,2.2266
17209,19.762,2.1818,0.05,7.333e-07,7.3279,5.6308e-07,4.2308,-2.4457e-13,7.2173e-06,-5.6308e-07,-4.2308,2.2267
17210,20.038,2.1818,0,8.6842e-05,867.82,3.24e-05,45.143,2.6394e-05,0.01826,-8.5986e-05,-844.36,2.2723
17211,19.946,2.0909,0,8.8783e-05,887.21,3.2883e-05,43.226,2.7132e-05,0.017136,-8.7968e-05,-864.8,2.257
17212,19.946,2.1818,0.05,7.3135e-07,7.3085,5.6159e-07,4.2196,-6.9302e-13,3.4459e-06,-5.6159e-07,-4.2195,2.2571
17213,20.223,2.1818,0,8.2913e-05,828.55,3.1323e-05,47.841,2.4959e-05,0.019332,-8.1995e-05,-803.59,2.3028
17214,20.13,2.0909,0,8.483e-05,847.71,3.1786e-05,45.757,2.5698e-05,0.018148,-8.3959e-05,-823.9,2.2875
17215,20.13,2.1818,0.05,7.2956e-07,7.2905,5.6021e-07,4.2092,-7.0774e-13,6.2279e-06,-5.6021e-07,-4.2092,2.2875
17216,20.407,2.1818,0,7.9017e-05,789.63,3.0275e-05,50.753,2.3523e-05,0.020511,-7.8031e-05,-763.02,2.3333
17217,20.315,2.0909,0,8.0911e-05,808.55,3.0715e-05,48.489,2.4264e-05,0.019252,-7.9976e-05,-783.21,2.318
17218,20.315,2.1818,0.05,7.2793e-07,7.2743,5.5896e-07,4.1998,-7.1027e-13,7.6042e-06,-5.5896e-07,-4.1998,2.318
17219,20.591,2.1818,0,7.5159e-05,751.07,2.9257e-05,53.896,2.2087e-05,0.021819,-7.4096e-05,-722.66,2.3639
17220,20.499,2.0909,0,7.7027e-05,769.73,2.9673e-05,51.437,2.283e-05,0.020478,-7.6022e-05,-742.72,2.3486
17221,20.499,2.1818,0.05,7.2649e-07,7.2599,5.5786e-07,4.1915,-6.7614e-13,8.3279e-06,-5.5785e-07,-4.1915,2.3486
17222,20.775,2.1818,0,7.1338e-05,712.88,2.827e-05,57.29,2.0648e-05,0.023284,-7.019e-05,-682.5,2.3945
17223,20.683,2.0909,0,7.3179e-05,731.28,2.8661e-05,54.621,2.1395e-05,0.021838,-7.2096e-05,-702.43,2.3792
17224,20.683,2.1818,0.05,7.2526e-07,7.2476,5.5691e-07,4.1844,-6.593e-13,9.4194e-06,-5.5691e-07,-4.1844,2.3792
17225,20.96,2.1818,0,6.7556e-05,675.1,2.7317e-05,60.954,1.9208e-05,0.024938,-6.6312e-05,-642.54,2.4252
17226,20.867,2.0909,0,6.9369e-05,693.21,2.7682e-05,58.058,1.9958e-05,0.023376,-6.8198e-05,-662.35,2.4098
17227,20.867,2.1818,0.05,7.2426e-07,7.2376,5.5614e-07,4.1787,-6.7475e-13,7.8741e-06,-5.5614e-07,-4.1786,2.4099
17228,21.144,2.1818,0,6.3817e-05,637.73,2.64e-05,64.91,1.7765e-05,0.026811,-6.2464e-05,-602.78,2.456
17229,21.052,2.0909,0,6.56e-05,655.54,2.6736e-05,61.77,1.8518e-05,0.02512,-6.433e-05,-622.46,2.4405
17230,21.052,2.1818,0.05,7.2353e-07,7.2303,5.5558e-07,4.1744,-7.0638e-13,7.2178e-06,-5.5558e-07,-4.1744,2.4406
17231,21.328,2.1818,0,6.0123e-05,600.81,2.5521e-05,69.178,1.6318e-05,0.028944,-5.8646e-05,-563.22,2.4867
17232,21.236,2.0909,0,6.1873e-05,618.3,2.5826e-05,65.778,1.7075e-05,0.027096,-6.0491e-05,-582.77,2.4713
17233,21.236,2.1818,0.05,7.231e-07,7.226,5.5525e-07,4.1719,-2.8122e-13,4.6002e-06,-5.5525e-07,-4.1719,2.4713
17234,21.512,2.1818,0,5.6476e-05,564.37,2.4681e-05,73.783,1.4865e-05,0.031392,-5.4858e-05,-523.84,2.5175
17235,21.42,2.0909,0,5.8192e-05,581.52,2.4955e-05,70.104,1.5628e-05,0.02936,-5.6681e-05,-543.28,2.5021
17236,21.42,2.1818,0.05,7.23e-07,7.2251,5.5518e-07,4.1714,-5.4265e-13,2.4266e-06,-5.5518e-07,-4.1714,2.5021
17237,21.697,2.1818,0,5.2881e-05,528.45,2.3883e-05,78.749,1.3407e-05,0.034241,-5.1099e-05,-484.64,2.5484
17238,21.605,2.0909,0,5.456e-05,545.22,2.4124e-05,74.774,1.4176e-05,0.031976,-5.2902e-05,-503.96,2.5329
17239,21.605,2.1818,0.05,7.233e-07,7.228,5.554e-07,4.1731,-9.8835e-13,3.4298e-06,-5.554e-07,-4.1731,2.533
17240,21.881,2.1818,0,4.9342e-05,493.08,2.313e-05,84.101,1.1942e-05,0.037599,-4.737e-05,-445.61,2.5793
17241,21.789,2.0909,0,5.0981e-05,509.46,2.3336e-05,79.813,1.2718e-05,0.035048,-4.9152e-05,-464.83,2.5638
17242,21.789,2.1818,0.05,7.2402e-07,7.2352,5.5596e-07,4.1773,-6.996e-13,6.82e-06,-5.5596e-07,-4.1772,2.5638
17243,22.065,2.1818,0,4.5865e-05,458.33,2.2422e-05,89.863,1.0468e-05,0.041606,-4.367e-05,-406.73,2.6102
17244,21.973,2.0909,0,4.746e-05,474.28,2.2592e-05,85.248,1.1252e-05,0.038693,-4.5431e-05,-425.86,2.5947
17245,21.973,2.1818,0.05,7.2525e-07,7.2475,5.569e-07,4.1843,-1.19e-12,7.4052e-06,-5.569e-07,-4.1843,2.5947
17246,22.249,2.1818,0,4.2456e-05,424.27,2.1763e-05,96.062,8.9843e-06,0.046467,-3.9998e-05,-367.98,2.6411
17247,22.157,2.0909,0,4.4004e-05,439.74,2.1896e-05,91.105,9.7768e-06,0.043078,-4.174e-05,-387.04,2.6256
17248,22.157,2.1818,0.05,7.2703e-07,7.2653,5.5827e-07,4.1946,-9.9521e-13,1.0015e-05,-5.5827e-07,-4.1946,2.6257
17249,22.434,2.1818,0,3.9125e-05,390.98,2.1154e-05,102.72,7.4893e-06,0.052502,-3.6352e-05,-329.35,2.6721
17250,22.342,2.0909,0,4.0622e-05,405.94,2.125e-05,97.411,8.2916e-06,0.048448,-3.8078e-05,-348.35,2.6566
17251,22.342,2.1818,0.05,7.2945e-07,7.2895,5.6013e-07,4.2086,-6.9396e-13,7.8137e-06,-5.6013e-07,-4.2085,2.6566
17252,22.618,2.1818,0,3.5886e-05,358.61,2.0595e-05,109.86,5.9815e-06,0.060139,-3.2731e-05,-290.81,2.7031
17253,22.526,2.0909,0,3.7323e-05,372.97,2.0654e-05,104.19,6.7945e-06,0.055218,-3.4442e-05,-309.78,2.6876
17254,22.526,2.1818,0.05,7.3258e-07,7.3207,5.6253e-07,4.2266,-4.7607e-13,3.7523e-06,-5.6253e-07,-4.2266,2.6876
17255,22.802,2.1818,0,3.2753e-05,327.31,2.0089e-05,117.5,4.4591e-06,0.070395,-2.9132e-05,-252.32,2.7341
17256,22.71,2.0909,0,3.4122e-05,340.99,2.0112e-05,111.47,5.2837e-06,0.063848,-3.083e-05,-271.28,2.7186
17257,22.71,2.1818,0.05,7.3649e-07,7.3598,5.6553e-07,4.2492,-5.6134e-13,3.6507e-07,-5.6553e-07,-4.2492,2.7186
17258,22.987,2.1818,0,2.9752e-05,297.32,1.9634e-05,125.66,2.9204e-06,0.083689,-2.5551e-05,-213.84,2.7652
17259,22.894,2.0909,0,3.1041e-05,310.19,1.9622e-05,119.28,3.7577e-06,0.075968,-2.7241e-05,-232.84,2.7496
17260,22.894,2.1818,0.05,7.4126e-07,7.4075,5.692e-07,4.2767,-1.0054e-12,-1.5001e-06,-5.692e-07,-4.2767,2.7496
17261,23.171,2.1818,0,2.6916e-05,268.98,1.923e-05,134.34,1.3642e-06,0.10627,-2.1985e-05,-175.33,2.7962
17262,23.079,2.0909,0,2.8106e-05,280.87,1.9186e-05,127.61,2.2144e-06,0.090919,-2.367e-05,-194.39,2.7807
17263,23.079,2.1818,0.05,7.4695e-07,7.4644,5.7357e-07,4.3096,-9.1739e-13,2.9951e-06,-5.7357e-07,-4.3095,2.7807
17264,23.355,2.1818,0,2.4293e-05,242.76,1.8876e-05,143.55,-2.1195e-07,0.12901,-1.8428e-05,-136.74,2.8273
17265,23.263,2.0909,0,2.5358e-05,253.41,1.8803e-05,136.49,6.532e-07,0.12222,-2.0112e-05,-155.9,2.8117
17266,23.263,2.1818,0.05,7.536e-07,7.5308,5.7867e-07,4.3479,-9.0378e-13,-3.5706e-06,-5.7867e-07,-4.3479,2.8118
17267,23.539,2.1818,0,2.1952e-05,219.36,1.857e-05,153.3,-1.8031e-06,0.2251,-1.4878e-05,-98.016,2.8584
17268,23.447,2.0909,0,2.2855e-05,228.4,1.847e-05,145.9,-9.3009e-07,0.13933,-1.6563e-05,-117.32,2.8428
17269,23.447,2.1818,0.05,7.6119e-07,7.6067,5.845e-07,4.3917,-8.5958e-13,5.3995e-07,-5.845e-07,-4.3917,2.8428
17270,23.724,2.1818,0,1.9986e-05,199.72,1.8308e-05,163.5,-3.4228e-06,0.21984,-1.1329e-05,-59.182,2.8895
17271,23.631,2.0909,0,2.068e-05,206.65,1.8185e-05,155.9,-2.5212e-06,0.32436,-1.3022e-05,-78.575,2.8739
17272,23.631,2.1818,0.05,7.6986e-07,7.6933,5.9116e-07,4.4417,-8.5941e-13,-1.3591e-06,-5.9116e-07,-4.4417,2.8739
17273,23.816,2.0909,0,1.8942e-05,189.29,1.7947e-05,166.27,-4.1556e-06,0.19376,-9.4834e-06,-39.838,2.905
17274,23.816,2.1818,0.05,7.8299e-07,7.8245,6.0124e-07,4.5175,-3.581e-13,-2.8933e-06,-6.0124e-07,-4.5175,2.905
17275,23.908,2.1818,0,1.8574e-05,185.61,1.8093e-05,173.55,-4.9477e-06,0.42783,-7.9895e-06,-22.427,2.9206
17276,1.2431,2,0,0.0013737,13727,0.00065558,2261.9,0.0003016,-397.79,-0.0013225,-12600,0.018626
17277,1.1509,1.9091,0,0.0015083,15072,0.00086415,4300.8,0.00022005,-538.66,-0.0013848,-12597,0.014512
17278,1.1509,2,0.05,0.00020082,2006.8,0.0001542,1158.6,1.1126e-10,0.0015581,-0.0001542,-1158.6,0.015124
17279,1.0588,2,0,0.0024225,24209,0.001175,4300.8,0.0005261,-575.02,-0.002322,-21975,0.012077
17280,1.4273,2,0,0.0010027,10020,0.00038751,699.84,0.00029787,26.327,-0.00098867,-9640.2,0.025929
17281,1.3352,1.9091,0,0.0010468,10460,0.00047699,1641.4,0.00026549,52.196,-0.0010089,-9522.7,0.021636
17282,1.3352,2,0.05,3.576e-05,357.35,2.7459e-05,206.32,2.7382e-11,0.00068909,-2.7459e-05,-206.32,0.022096
17283,1.6116,2,0,0.00085088,8503,0.00029425,128.12,0.00026966,-56.648,-0.00084952,-8465.7,0.033851
17284,1.5195,1.9091,0,0.00086994,8693.4,0.00033841,607.1,0.00025447,-23.566,-0.00085829,-8384.4,0.02937
17285,1.5195,2,0.05,2.3894e-05,238.77,1.8347e-05,137.86,4.9195e-11,0.000665,-1.8347e-05,-137.86,0.029732
17286,1.7959,2,0,0.00076063,7601,0.00026468,18.183,0.0002293,-247.59,-0.00076418,-7712.3,0.042323
17287,1.7037,1.9091,0,0.00077081,7702.8,0.0002673,135.4,0.0002448,-33.645,-0.00076894,-7650.5,0.037648
17288,1.7037,2,0.05,1.6348e-05,163.36,1.2553e-05,94.318,4.8567e-11,0.00064335,-1.2553e-05,-94.318,0.037944
17289,1.9801,2,0,0.00070015,6996.7,0.00025134,6.3193,0.00019659,-405.11,-0.00070603,-7187,0.0513
17290,1.888,1.9091,0,0.0007063,7058.1,0.00024371,15.632,0.00021638,-189.68,-0.00070903,-7142.9,0.046427
17291,1.888,2,0.05,1.2372e-05,123.64,9.5003e-06,71.382,3.9084e-11,0.00052986,-9.5003e-06,-71.381,0.04668
17292,2.1644,2,0,0.00065703,6565.8,0.00024094,3.6839,0.00017523,-490.04,-0.00066391,-6795,0.06075
17293,2.0723,1.9091,0,0.00066152,6610.6,0.00023504,6.2319,0.00019006,-331.68,-0.0006664,-6766.8,0.055679
17294,2.0723,2,0.05,9.7411e-06,97.344,7.48e-06,56.202,3.4157e-11,0.00039774,-7.48e-06,-56.202,0.055902
17295,2.3487,2,0,0.00062473,6243,0.00023204,2.2312,0.0001612,-530.02,-0.000632,-6489.8,0.070647
17296,2.2565,1.9091,0,0.00062858,6281.5,0.00022777,3.2984,0.00017252,-411.8,-0.0006345,-6475.5,0.065378
17297,2.2565,2,0.05,7.879e-06,78.736,6.0501e-06,45.458,2.7988e-11,0.0004097,-6.0501e-06,-45.458,0.065583
17298,2.5329,2,0,0.00059971,5993,0.00022428,1.5044,0.00015191,-542.26,-0.00060705,-6244.8,0.080973
17299,2.4408,1.9091,0,0.00060341,6030,0.00022126,2.0939,0.00016085,-451.8,-0.00060978,-6242,0.075507
17300,2.4408,2,0.05,6.4799e-06,64.754,4.9758e-06,37.386,2.5279e-11,0.00025913,-4.9758e-06,-37.386,0.0757
17301,2.7172,2,0,0.00057979,5793.9,0.00021742,1.0385,0.00014575,-537.45,-0.00058703,-6043.3,0.091711
17302,2.6251,1.9091,0,0.00058351,5831.1,0.00021534,1.393,0.00015301,-466.88,-0.00059002,-6049.7,0.08605
17303,2.6251,2,0.05,5.3961e-06,53.924,4.1435e-06,31.133,1.8796e-11,0.00026013,-4.1435e-06,-31.133,0.086237
17304,2.9015,2,0,0.00056356,5631.8,0.0002113,0.7384,0.0001417,-522.23,-0.00057061,-5874.3,0.10285
17305,2.8093,1.9091,0,0.00056735,5669.6,0.00020993,0.97122,0.00014773,-466.41,-0.00057382,-5887.8,0.096994
17306,2.8093,2,0.05,4.5397e-06,45.366,3.4859e-06,26.192,2.2684e-11,0.00025683,-3.4859e-06,-26.192,0.097178
17307,3.0857,2,0,0.00055008,5497,0.00020581,0.53185,0.00013909,-500.79,-0.00055687,-5729.9,0.11437
17308,2.9936,1.9091,0,0.00055391,5535.3,0.00020498,0.69097,0.00014417,-456.24,-0.00056025,-5748.9,0.10833
17309,2.9936,2,0.05,3.8554e-06,38.527,2.9605e-06,22.244,2.0407e-11,0.00011979,-2.9605e-06,-22.244,0.10851
17310,3.27,2,0,0.00053865,5382.8,0.00020084,0.38718,0.00013745,-475.83,-0.00054516,-5604.7,0.12627
17311,3.1779,1.9091,0,0.00054251,5421.3,0.00020043,0.49973,0.00014178,-440.12,-0.00054864,-5627.7,0.12004
17312,3.1779,2,0.05,3.3055e-06,33.032,2.5382e-06,19.071,1.4252e-11,0.00014304,-2.5382e-06,-19.071,0.12023
17313,3.4543,2,0,0.0005288,5284.4,0.0001963,0.2837,0.00013649,-449.11,-0.000535,-5494.4,0.13855
17314,3.3621,1.9091,0,0.00053264,5322.7,0.00019621,0.36504,0.00014021,-420.43,-0.00053854,-5520.3,0.13213
17315,3.3621,2,0.05,2.8624e-06,28.604,2.198e-06,16.515,9.5318e-12,0.00010619,-2.198e-06,-16.515,0.13232
17316,3.6385,2,0,0.00052015,5197.9,0.00019214,0.20887,0.00013597,-421.77,-0.00052604,-5395.9,0.15118
17317,3.5464,1.9091,0,0.00052395,5235.8,0.0001923,0.2687,0.00013919,-398.77,-0.00052958,-5423.7,0.14458
17318,3.5464,2,0.05,2.5053e-06,25.036,1.9238e-06,14.454,6.0535e-12,0.00010012,-1.9238e-06,-14.454,0.14477
17319,3.8228,2,0,0.00051243,5120.7,0.00018828,0.1543,0.00013575,-394.56,-0.00051799,-5306.5,0.16418
17320,3.7307,1.9091,0,0.00051615,5158,0.00018864,0.19891,0.00013855,-376.17,-0.00052152,-5335.7,0.1574
17321,3.7307,2,0.05,2.2178e-06,22.163,1.703e-06,12.796,6.9057e-12,4.1539e-05,-1.703e-06,-12.796,0.15759
17322,4.0071,2,0,0.0005054,5050.6,0.00018469,0.11426,0.0001357,-367.97,-0.00051066,-5224.4,0.17752
17323,3.9149,1.9091,0,0.00050906,5087,0.0001852,0.14791,0.00013815,-353.35,-0.00051414,-5254.4,0.17057
17324,3.9149,2,0.05,1.9867e-06,19.853,1.5255e-06,11.462,5.665e-12,5.814e-05,-1.5255e-06,-11.462,0.17076
17325,4.1913,2,0,0.00049892,4985.8,0.00018132,0.084764,0.00013575,-342.32,-0.00050386,-5148.1,0.19121
17326,4.0992,1.9091,0,0.00050249,5021.5,0.00018195,0.11039,0.00013791,-330.78,-0.0005073,-5178.6,0.18408
17327,4.0992,2,0.05,1.8011e-06,17.999,1.3831e-06,10.392,2.6086e-12,5.1962e-05,-1.3831e-06,-10.392,0.18428
17328,4.3756,2,0,0.00049285,4925.1,0.00017813,0.062958,0.00013583,-317.8,-0.00049749,-5076.3,0.20525
17329,4.2835,1.9091,0,0.00049634,4959.9,0.00017885,0.082663,0.00013775,-308.77,-0.00050087,-5107.1,0.19794
17330,4.2835,2,0.05,1.6524e-06,16.512,1.2688e-06,9.5334,7.2635e-13,2.5314e-05,-1.2688e-06,-9.5334,0.19815
17331,4.5599,2,0,0.00048709,4867.5,0.00017511,0.046803,0.00013591,-294.53,-0.00049143,-5008.1,0.21962
17332,4.4677,1.9091,0,0.00049049,4901.5,0.0001759,0.06208,0.00013762,-287.54,-0.00049475,-5038.9,0.21215
17333,4.4677,2,0.05,1.5331e-06,15.32,1.1772e-06,8.8453,5.4069e-13,4.5914e-05,-1.1772e-06,-8.8451,0.21235
17334,4.7441,2,0,0.00048155,4812.2,0.00017223,0.034816,0.00013595,-272.55,-0.00048561,-4942.7,0.23433
17335,4.652,1.9091,0,0.00048488,4845.5,0.00017307,0.046754,0.0001375,-267.23,-0.00048887,-4973.5,0.22668
17336,4.652,2,0.05,1.4373e-06,14.363,1.1037e-06,8.2927,5.4263e-13,1.2693e-05,-1.1037e-06,-8.2927,0.22689
17337,4.9284,2,0,0.00047619,4758.6,0.00016946,0.025917,0.00013593,-251.88,-0.00047997,-4879.5,0.24936
17338,4.8363,1.9091,0,0.00047945,4791.2,0.00017034,0.035314,0.00013734,-247.9,-0.00048318,-4910.3,0.24155
17339,4.8363,2,0.05,1.3602e-06,13.593,1.0445e-06,7.8479,-1.5725e-12,6.9691e-06,-1.0445e-06,-7.8479,0.24176
17340,5.1127,2,0,0.00047095,4706.2,0.00016679,0.019312,0.00013584,-232.51,-0.00047447,-4818.2,0.26472
17341,5.0205,1.9091,0,0.00047414,4738.2,0.0001677,0.02676,0.00013714,-229.61,-0.00047763,-4848.8,0.25675
17342,5.0205,2,0.05,1.2979e-06,12.97,9.966e-07,7.4881,-8.5511e-13,1.4596e-05,-9.966e-07,-7.488,0.25696
17343,5.2969,2,0,0.0004658,4654.7,0.00016421,0.014418,0.00013567,-214.4,-0.00046907,-4758.2,0.28041
17344,5.2048,1.9091,0,0.00046893,4686.1,0.00016515,0.020359,0.00013688,-212.37,-0.00047218,-4788.6,0.27228
17345,5.2048,2,0.05,1.2471e-06,12.462,9.5762e-07,7.1952,-3.5222e-12,1.7623e-05,-9.5762e-07,-7.1951,0.27249
17346,5.4812,2,0,0.0004607,4603.8,0.00016171,0.010801,0.00013542,-197.51,-0.00046374,-4699.4,0.29641
17347,5.3891,1.9091,0,0.00046378,4634.6,0.00016266,0.015568,0.00013655,-196.16,-0.00046681,-4729.6,0.28812
17348,5.3891,2,0.05,1.2055e-06,12.046,9.2564e-07,6.9549,-2.1848e-12,8.3648e-06,-9.2563e-07,-6.9549,0.28833
17349,5.6655,2,0,0.00045565,4553.3,0.00015928,0.0081405,0.00013508,-181.79,-0.00045847,-4641.5,0.31273
17350,5.5733,1.9091,0,0.00045868,4583.6,0.00016024,0.011986,0.00013615,-180.97,-0.00046149,-4671.4,0.30428
17351,5.5733,2,0.05,1.171e-06,11.702,8.9917e-07,6.756,-2.6793e-12,1.0441e-05,-8.9915e-07,-6.7559,0.30449
17352,5.8497,2,0,0.00045061,4503,0.00015691,0.0061964,0.00013466,-167.16,-0.00045323,-4584.3,0.32936
17353,5.7576,1.9091,0,0.00045361,4532.9,0.00015788,0.0093138,0.00013568,-166.77,-0.00045621,-4614,0.32075
17354,5.7576,2,0.05,1.1421e-06,11.413,8.7701e-07,6.5895,-1.3447e-12,1.1198e-05,-8.7701e-07,-6.5894,0.32097
17355,6.034,2,0,0.0004456,4452.9,0.00015459,0.00479,0.00013415,-153.58,-0.00044801,-4527.7,0.34629
17356,5.9419,1.9091,0,0.00044855,4482.4,0.00015556,0.0073287,0.00013513,-153.51,-0.00045097,-4557.2,0.33754
17357,5.9419,2,0.05,1.1177e-06,11.17,8.5828e-07,6.4488,8.4272e-14,1.0635e-05,-8.5826e-07,-6.4487,0.33775
17358,6.2183,2,0,0.00044058,4402.8,0.00015232,0.0037875,0.00013356,-140.98,-0.00044281,-4471.6,0.36353
17359,6.1261,1.9091,0,0.0004435,4432,0.00015329,0.0058628,0.00013451,-141.16,-0.00044574,-4500.9,0.35463
17360,6.1261,2,0.05,1.0968e-06,10.961,8.4224e-07,6.3283,-3.8093e-12,1.1955e-05,-8.4224e-07,-6.3282,0.35484
17361,6.4025,2,0,0.00043556,4352.6,0.00015009,0.0030882,0.00013288,-129.3,-0.00043762,-4415.8,0.38108
17362,6.3104,1.9091,0,0.00043846,4381.6,0.00015107,0.0047903,0.00013381,-129.66,-0.00044052,-4445,0.37202
17363,6.3104,2,0.05,1.0788e-06,10.78,8.2837e-07,6.2241,-3.9685e-12,1.1801e-05,-8.2836e-07,-6.2239,0.37223
17364,6.5868,2,0,0.00043054,4302.5,0.00014791,0.0026159,0.00013214,-118.48,-0.00043244,-4360.5,0.39891
17365,6.4947,1.9091,0,0.00043341,4331.1,0.00014888,0.0040158,0.00013304,-118.98,-0.00043531,-4389.4,0.38971
17366,6.4947,2,0.05,1.0629e-06,10.622,8.1622e-07,6.1328,-6.0755e-12,7.4371e-06,-8.1621e-07,-6.1327,0.38992
17367,6.7711,2,0,0.00042552,4252.2,0.00014576,0.0023139,0.00013132,-108.45,-0.00042726,-4305.4,0.41705
17368,6.6789,1.9091,0,0.00042836,4280.7,0.00014673,0.0034675,0.00013221,-109.05,-0.00043011,-4334.1,0.4077
17369,6.6789,2,0.05,1.0489e-06,10.482,8.0546e-07,6.0519,-2.5387e-12,6.2932e-06,-8.0545e-07,-6.0518,0.40791
17370,6.9553,2,0,0.00042048,4201.9,0.00014364,0.0021392,0.00013044,-99.182,-0.00042208,-4250.6,0.43547
17371,6.8632,1.9091,0,0.0004233,4230.1,0.00014461,0.0030907,0.00013132,-99.844,-0.00042491,-4279.1,0.42598
17372,6.8632,2,0.05,1.0364e-06,10.357,7.9584e-07,5.9796,-9.2946e-13,7.158e-06,-7.9583e-07,-5.9795,0.42619
17373,7.1396,2,0,0.00041543,4151.5,0.00014156,0.0020587,0.0001295,-90.603,-0.0004169,-4196,0.45418
17374,7.0475,1.9091,0,0.00041824,4179.5,0.00014252,0.002844,0.00013036,-91.304,-0.00041972,-4224.4,0.44454
17375,7.0475,2,0.05,1.0251e-06,10.244,7.8714e-07,5.9143,-2.8137e-12,7.834e-06,-7.8714e-07,-5.9142,0.44476
17376,7.3239,2,0,0.00041038,4101,0.0001395,0.002048,0.0001285,-82.668,-0.00041172,-4141.7,0.47317
17377,7.2317,1.9091,0,0.00041317,4128.8,0.00014046,0.0026955,0.00012936,-83.39,-0.00041452,-4169.9,0.4634
17378,7.2317,2,0.05,1.0148e-06,10.141,7.7921e-07,5.8547,7.1783e-13,4.838e-06,-7.7921e-07,-5.8547,0.46361
17379,7.5081,2,0,0.00040532,4050.4,0.00013747,0.0020882,0.00012744,-75.332,-0.00040655,-4087.5,0.49244
17380,7.416,1.9091,0,0.00040809,4078.1,0.00013842,0.0026214,0.0001283,-76.059,-0.00040933,-4115.6,0.48253
17381,7.416,2,0.05,1.0053e-06,10.046,7.7193e-07,5.8001,-3.0158e-12,6.6308e-06,-7.7192e-07,-5.7998,0.48274
17382,7.6924,2,0,0.00040025,3999.7,0.00013546,0.0021662,0.00012634,-68.55,-0.00040137,-4033.6,0.51199
17383,7.6003,1.9091,0,0.000403,4027.3,0.00013641,0.0026029,0.00012719,-69.271,-0.00040414,-4061.5,0.50194
17384,7.6003,2,0.05,9.9648e-07,9.9579,7.6518e-07,5.7493,-1.2308e-12,5.2669e-06,-7.6517e-07,-5.7492,0.50215
17385,7.8767,2,0,0.00039517,3949,0.00013348,0.0022713,0.00012519,-62.282,-0.0003962,-3979.8,0.53181
17386,7.7845,1.9091,0,0.00039792,3976.4,0.00013442,0.002627,0.00012604,-62.989,-0.00039895,-4007.5,0.52163
17387,7.7845,2,0.05,9.8828e-07,9.876,7.5888e-07,5.7019,-1.3181e-12,5.5581e-06,-7.5888e-07,-5.7019,0.52184
17388,8.0609,2,0,0.00039009,3898.2,0.00013152,0.002395,0.000124,-56.489,-0.00039102,-3926.2,0.5519
17389,7.9688,1.9091,0,0.00039282,3925.5,0.00013245,0.0026825,0.00012484,-57.176,-0.00039376,-3953.8,0.54159
17390,7.9688,2,0.05,9.806e-07,9.7992,7.5298e-07,5.6576,-1.3632e-12,4.9757e-06,-7.5298e-07,-5.6575,0.54179
17391,8.2452,2,0,0.00038501,3847.4,0.00012958,0.0025322,0.00012277,-51.135,-0.00038585,-3872.8,0.57226
17392,8.1531,1.9091,0,0.00038773,3874.6,0.00013051,0.0027615,0.00012361,-51.798,-0.00038858,-3900.2,0.56181
17393,8.1531,2,0.05,9.7334e-07,9.7267,7.4741e-07,5.6158,-1.4039e-12,5.126e-06,-7.4741e-07,-5.6157,0.56201
17394,8.4295,2,0,0.00037992,3796.6,0.00012766,0.0026786,0.00012151,-46.188,-0.00038069,-3819.5,0.59287
17395,8.3373,1.9091,0,0.00038263,3823.6,0.00012858,0.0028583,0.00012235,-46.823,-0.0003834,-3846.8,0.5823
17396,8.3373,2,0.05,9.6647e-07,9.658,7.4213e-07,5.5761,-3.2662e-12,4.7201e-06,-7.4213e-07,-5.576,0.5825
17397,8.6137,2,0,0.00037484,3745.8,0.00012575,0.0028315,0.00012021,-41.616,-0.00037553,-3766.4,0.61375
17398,8.5216,1.9091,0,0.00037753,3772.7,0.00012667,0.0029687,0.00012105,-42.222,-0.00037823,-3793.6,0.60305
17399,8.5216,2,0.05,9.5993e-07,9.5927,7.3711e-07,5.5384,-2.3859e-12,5.4736e-06,-7.371e-07,-5.5383,0.60325
17400,8.798,2,0,0.00036975,3695,0.00012387,0.0029888,0.00011889,-37.391,-0.00037037,-3713.5,0.63488
17401,8.7059,1.9091,0,0.00037243,3721.7,0.00012478,0.0030899,0.00011973,-37.968,-0.00037306,-3740.6,0.62405
17402,8.7059,2,0.05,9.5368e-07,9.5302,7.3231e-07,5.5023,-2.4301e-12,4.6977e-06,-7.3231e-07,-5.5022,0.62425
17403,8.9823,2,0,0.00036467,3644.2,0.000122,0.0031495,0.00011754,-33.486,-0.00036523,-3660.8,0.65626
17404,8.8901,1.9091,0,0.00036734,3670.8,0.0001229,0.0032189,0.00011837,-34.033,-0.0003679,-3687.7,0.64531
17405,8.8901,2,0.05,9.4769e-07,9.4704,7.2772e-07,5.4678,-3.3471e-12,4.4298e-06,-7.277e-07,-5.4677,0.64551
17406,9.1665,2,0,0.00035959,3593.4,0.00012014,0.0033134,0.00011616,-29.877,-0.00036008,-3608.2,0.67789
17407,9.0744,1.9091,0,0.00036224,3619.9,0.00012104,0.0033564,0.000117,-30.395,-0.00036275,-3635,0.66682
17408,9.0744,2,0.05,9.4193e-07,9.4128,7.2329e-07,5.4345,-3.3898e-12,3.7168e-06,-7.2329e-07,-5.4345,0.66701
17409,9.3508,2,0,0.00035451,3542.6,0.0001183,0.0034804,0.00011477,-26.541,-0.00035495,-3555.8,0.69976
17410,9.2587,1.9091,0,0.00035716,3569.1,0.0001192,0.0035003,0.0001156,-27.03,-0.00035761,-3582.5,0.68858
17411,9.2587,2,0.05,9.3638e-07,9.3573,7.1902e-07,5.4025,-1.5983e-12,4.0494e-06,-7.1902e-07,-5.4024,0.68877
17412,9.5351,2,0,0.00034944,3492,0.00011647,0.0036509,0.00011335,-23.456,-0.00034983,-3503.6,0.72188
17413,9.4429,1.9091,0,0.00035207,3518.3,0.00011737,0.0036525,0.00011418,-23.917,-0.00035247,-3530.2,0.71058
17414,9.4429,2,0.05,9.3101e-07,9.3037,7.149e-07,5.3715,-2.5307e-12,3.8551e-06,-7.149e-07,-5.3714,0.71076
17415,9.7193,2,0,0.00034437,3441.3,0.00011466,0.003831,0.00011192,-20.604,-0.00034472,-3451.6,0.74423
17416,9.6272,1.9091,0,0.000347,3467.6,0.00011555,0.003812,0.00011275,-21.039,-0.00034735,-3478,0.73281
17417,9.6272,2,0.05,9.258e-07,9.2517,7.109e-07,5.3415,-3.4645e-12,4.2043e-06,-7.1091e-07,-5.3414,0.733
17418,9.9036,2,0,0.00033931,3390.8,0.00011286,0.0040189,0.00011047,-17.966,-0.00033961,-3399.7,0.76682
17419,9.8115,1.9091,0,0.00034193,3416.9,0.00011375,0.0039913,0.0001113,-18.375,-0.00034224,-3426.1,0.75529
17420,9.8115,2,0.05,9.2075e-07,9.2012,7.0703e-07,5.3123,-3.4842e-12,4.274e-06,-7.0702e-07,-5.3123,0.75547
17421,10.088,2,0,0.00033426,3340.3,0.00011107,0.0042148,0.00010901,-15.525,-0.00033452,-3348,0.78964
17422,9.9957,1.9091,0,0.00033687,3366.4,0.00011195,0.0041772,0.00010984,-15.91,-0.00033714,-3374.3,0.77799
17423,9.9957,2,0.05,9.1584e-07,9.1521,7.0325e-07,5.284,-1.681e-12,3.8914e-06,-7.0325e-07,-5.2839,0.77817
17424,10.272,2,0,0.00032922,3289.9,0.0001093,0.0044347,0.00010753,-13.266,-0.00032944,-3296.5,0.81268
17425,10.18,1.9091,0,0.00033182,3315.9,0.00011017,0.0043859,0.00010836,-13.628,-0.00033205,-3322.7,0.80092
17426,10.18,2,0.05,9.1105e-07,9.1042,6.9957e-07,5.2564,-2.6037e-12,4.4881e-06,-6.9957e-07,-5.2563,0.8011
17427,10.456,2,0,0.00032419,3239.7,0.00010754,0.0046622,0.00010605,-11.174,-0.00032438,-3245.2,0.83595
17428,10.364,1.9091,0,0.00032678,3265.5,0.00010841,0.0046343,0.00010687,-11.515,-0.00032697,-3271.2,0.82408
17429,10.364,2,0.05,9.0638e-07,9.0575,6.9598e-07,5.2294,-8.0479e-13,3.7881e-06,-6.9599e-07,-5.2293,0.82426
17430,10.641,2,0,0.00031917,3189.5,0.00010578,0.0049244,0.00010455,-9.2362,-0.00031932,-3194.1,0.85944
17431,10.549,1.9091,0,0.00032175,3215.2,0.00010665,0.0048795,0.00010538,-9.558,-0.00032191,-3220,0.84746
17432,10.549,2,0.05,9.018e-07,9.0118,6.9248e-07,5.203,-1.7268e-12,3.918e-06,-6.9247e-07,-5.2029,0.84764
17433,10.825,2,0,0.00031416,3139.4,0.00010404,0.0052921,0.00010305,-7.4401,-0.00031428,-3143.1,0.88314
17434,10.733,1.9091,0,0.00031673,3165.1,0.0001049,0.0052323,0.00010387,-7.7438,-0.00031686,-3168.9,0.87106
17435,10.733,2,0.05,8.9731e-07,8.9669,6.8903e-07,5.1771,-2.6477e-12,3.5766e-06,-6.8902e-07,-5.177,0.87123
17436,11.009,2,0,0.00030916,3089.5,0.00010231,0.0057777,0.00010154,-5.7744,-0.00030926,-3092.4,0.90706
17437,10.917,1.9091,0,0.00031172,3115,0.00010317,0.005747,0.00010236,-6.0612,-0.00031182,-3118.1,0.89488
17438,10.917,2,0.05,8.9292e-07,8.923,6.8565e-07,5.1517,-8.4151e-13,3.0822e-06,-6.8565e-07,-5.1517,0.89505
17439,11.193,2,0,0.00030418,3039.7,0.00010059,0.0064666,0.00010002,-4.2286,-0.00030425,-3041.8,0.93119
17440,11.101,1.9091,0,0.00030672,3065.1,0.00010144,0.0064532,0.00010084,-4.4999,-0.0003068,-3067.4,0.91891
17441,11.101,2,0.05,8.8862e-07,8.88,6.8235e-07,5.1269,-1.764e-12,2.8848e-06,-6.8235e-07,-5.1269,0.91907
17442,11.378,2,0,0.00029921,2990,9.8877e-05,0.007672,9.8504e-05,-2.7931,-0.00029925,-2991.4,0.95552
17443,11.286,1.9091,0,0.00030174,3015.4,9.9727e-05,0.0076676,9.932e-05,-3.0502,-0.0003018,-3016.9,0.94314
17444,11.286,2,0.05,8.8439e-07,8.8378,6.791e-07,5.1025,-8.6364e-13,2.3367e-06,-6.7909e-07,-5.1024,0.9433
17445,11.562,2,0,0.00029425,2940.5,9.7175e-05,0.010773,9.698e-05,-1.4601,-0.00029427,-2941.2,0.98006
17446,11.47,1.9091,0,0.00029678,2965.7,9.8022e-05,0.010484,9.7793e-05,-1.7042,-0.00029681,-2966.6,0.96758
17447,11.47,2,0.05,8.8022e-07,8.7961,6.759e-07,5.0785,-1.784e-12,2.5861e-06,-6.7589e-07,-5.0784,0.96774
17448,11.746,2,0,0.00028931,2891.1,9.5487e-05,0.041512,9.5448e-05,-0.24669,-0.00028931,-2891.2,1.0048
17449,11.654,1.9091,0,0.00029182,2916.2,9.6327e-05,0.027133,9.6262e-05,-0.46532,-0.00029183,-2916.4,0.99222
17450,11.654,2,0.05,8.761e-07,8.755,6.7274e-07,5.0547,-2.7027e-12,2.4862e-06,-6.7274e-07,-5.0546,0.99238
17451,11.931,2,0,0.00028438,2841.8,9.3925e-05,0.95977,9.3797e-05,-0.0050547,-0.00028436,-2841.3,1.0297
17452,11.838,1.9091,0,0.00028689,2866.9,9.4735e-05,0.74216,9.4635e-05,-0.010122,-0.00028687,-2866.5,1.0171
17453,11.838,2,0.05,8.7206e-07,8.7145,6.6964e-07,5.0314,-1.8012e-12,2.5192e-06,-6.6962e-07,-5.0313,1.0172
17454,12.115,2,0,0.00027947,2792.7,9.2394e-05,2.0375,9.2123e-05,0.00019777,-0.00027943,-2791.7,1.0549
17455,12.023,1.9091,0,0.00028196,2817.7,9.32e-05,1.8254,9.2957e-05,-0.001382,-0.00028193,-2816.8,1.0421
17456,12.023,2,0.05,8.6807e-07,8.6747,6.6657e-07,5.0084,-2.7192e-12,2.576e-06,-6.6657e-07,-5.0083,1.0422
17457,12.299,2,0,0.00027457,2743.8,9.0862e-05,3.0489,9.0456e-05,0.0017941,-0.00027452,-2742.3,1.0802
17458,12.207,1.9091,0,0.00027706,2768.6,9.1666e-05,2.8442,9.1288e-05,0.0008151,-0.00027701,-2767.2,1.0673
17459,12.207,2,0.05,8.6413e-07,8.6354,6.6355e-07,4.9857,-2.7267e-12,2.6657e-06,-6.6354e-07,-4.9856,1.0675
17460,12.483,2,0,0.00026969,2695,8.933e-05,3.9976,8.8799e-05,0.0026006,-0.00026962,-2693,1.1057
17461,12.391,1.9091,0,0.00027216,2719.8,9.0132e-05,3.7992,8.9626e-05,0.0018192,-0.0002721,-2717.9,1.0927
17462,12.391,2,0.05,8.6024e-07,8.5965,6.6056e-07,4.9632,-1.8243e-12,1.5854e-06,-6.6056e-07,-4.9631,1.0929
17463,12.668,2,0,0.00026482,2646.4,8.7799e-05,4.8891,8.7149e-05,0.0031426,-0.00026474,-2643.9,1.1314
17464,12.575,1.9091,0,0.00026729,2671.1,8.8598e-05,4.6961,8.7973e-05,0.0024496,-0.00026721,-2668.7,1.1183
17465,12.575,2,0.05,8.5638e-07,8.5579,6.5759e-07,4.9409,-9.2174e-13,1.0135e-06,-6.5759e-07,-4.9409,1.1185
17466,12.852,2,0,0.00025997,2597.9,8.627e-05,5.7289,8.5508e-05,0.003541,-0.00025988,-2595.1,1.1572
17467,12.76,1.9091,0,0.00026243,2622.5,8.7065e-05,5.5402,8.6328e-05,0.0029233,-0.00026234,-2619.7,1.1441
17468,12.76,2,0.05,8.5257e-07,8.5198,6.5467e-07,4.919,-1.8367e-12,1.7394e-06,-6.5467e-07,-4.9189,1.1442
17469,13.036,2,0,0.00025514,2549.7,8.4742e-05,6.5221,8.3874e-05,0.0038402,-0.00025503,-2546.4,1.1833
17470,12.944,1.9091,0,0.00025759,2574.1,8.5534e-05,6.3365,8.4691e-05,0.0032624,-0.00025748,-2571,1.1701
17471,12.944,2,0.05,8.4881e-07,8.4822,6.5178e-07,4.8972,-1.8418e-12,1.9734e-06,-6.5177e-07,-4.8972,1.1702
17472,13.22,2,0,0.00025033,2501.6,8.3216e-05,7.2738,8.2248e-05,0.0040748,-0.0002502,-2497.9,1.2095
17473,13.128,1.9091,0,0.00025277,2525.9,8.4005e-05,7.0902,8.3062e-05,0.003533,-0.00025265,-2522.4,1.1962
17474,13.128,2,0.05,8.4508e-07,8.4449,6.4892e-07,4.8757,-3.6654e-12,2.8632e-06,-6.4891e-07,-4.8757,1.1963
17475,13.405,2,0,0.00024553,2453.6,8.1693e-05,7.9887,8.063e-05,0.00428,-0.0002454,-2449.6,1.2359
17476,13.313,1.9091,0,0.00024796,2477.9,8.2479e-05,7.8059,8.1441e-05,0.0037377,-0.00024783,-2474,1.2225
17477,13.313,2,0.05,8.4138e-07,8.408,6.4607e-07,4.8544,-1.8514e-12,2.8675e-06,-6.4607e-07,-4.8543,1.2226
17478,13.589,2,0,0.00024076,2405.9,8.0173e-05,8.6713,7.902e-05,0.0044951,-0.00024061,-2401.5,1.2624
17479,13.497,1.9091,0,0.00024317,2430.1,8.0956e-05,8.4882,7.9827e-05,0.0039458,-0.00024303,-2425.8,1.249
17480,13.497,2,0.05,8.377e-07,8.3712,6.4325e-07,4.8332,-9.4453e-13,2.4803e-06,-6.4325e-07,-4.8331,1.2491
17481,13.773,2,0,0.000236,2358.3,7.8657e-05,9.3259,7.7417e-05,0.0046998,-0.00023584,-2353.7,1.2891
17482,13.681,1.9091,0,0.0002384,2382.4,7.9436e-05,9.1412,7.822e-05,0.0041691,-0.00023825,-2377.8,1.2756
17483,13.681,2,0.05,8.3406e-07,8.3349,6.4046e-07,4.8122,-1.8546e-12,1.331e-06,-6.4045e-07,-4.8121,1.2757
17484,13.957,2,0,0.00023125,2310.9,7.7145e-05,9.9566,7.5821e-05,0.0048783,-0.00023108,-2306,1.316
17485,13.865,1.9091,0,0.00023365,2334.9,7.7921e-05,9.769,7.6621e-05,0.0043527,-0.00023348,-2330,1.3024
17486,13.865,2,0.05,8.3046e-07,8.2989,6.377e-07,4.7914,-4.0946e-14,1.4916e-06,-6.3769e-07,-4.7913,1.3025
17487,14.142,2,0,0.00022653,2263.8,7.5638e-05,10.567,7.4232e-05,0.0050348,-0.00022635,-2258.5,1.343
17488,14.05,1.9091,0,0.00022892,2287.6,7.6409e-05,10.376,7.5029e-05,0.0045208,-0.00022874,-2282.4,1.3294
17489,14.05,2,0.05,8.2689e-07,8.2632,6.3495e-07,4.7708,-2.7717e-12,1.8264e-06,-6.3495e-07,-4.7707,1.3295
17490,14.326,2,0,0.00022183,2216.8,7.4135e-05,11.162,7.265e-05,0.0051901,-0.00022164,-2211.1,1.3702
17491,14.234,1.9091,0,0.0002242,2240.5,7.4903e-05,10.964,7.3444e-05,0.0046605,-0.00022402,-2235,1.3565
17492,14.234,2,0.05,8.2334e-07,8.2277,6.3222e-07,4.7503,-9.5639e-13,1.0806e-06,-6.3222e-07,-4.7502,1.3566
17493,14.51,2,0,0.00021714,2169.9,7.2638e-05,11.744,7.1075e-05,0.0053735,-0.00021694,-2164,1.3976
17494,14.418,1.9091,0,0.00021951,2193.6,7.3402e-05,11.54,7.1866e-05,0.0048254,-0.00021931,-2187.8,1.3837
17495,14.418,2,0.05,8.1981e-07,8.1924,6.2951e-07,4.7299,-9.5626e-13,2.3315e-06,-6.2951e-07,-4.7299,1.3838
17496,14.695,2,0,0.00021248,2123.3,7.1146e-05,12.317,6.9507e-05,0.0055583,-0.00021227,-2117.1,1.425
17497,14.602,1.9091,0,0.00021483,2146.9,7.1906e-05,12.104,7.0295e-05,0.0050188,-0.00021463,-2140.8,1.4111
17498,14.602,2,0.05,8.1631e-07,8.1575,6.2683e-07,4.7098,-1.8652e-12,3.5246e-06,-6.2682e-07,-4.7097,1.4113
17499,14.879,2,0,0.00020783,2076.9,6.966e-05,12.884,6.7946e-05,0.0057304,-0.00020761,-2070.4,1.4527
17500,14.787,1.9091,0,0.00021018,2100.3,7.0416e-05,12.662,6.8731e-05,0.0051869,-0.00020996,-2094,1.4387
17501,14.787,2,0.05,8.1285e-07,8.1229,6.2417e-07,4.6898,-1.8662e-12,5.3746e-06,-6.2416e-07,-4.6897,1.4388
17502,15.063,2,0,0.00020321,2030.7,6.8181e-05,13.45,6.6392e-05,0.0058912,-0.00020297,-2023.9,1.4804
17503,14.971,1.9091,0,0.00020554,2054,6.8932e-05,13.217,6.7173e-05,0.0053517,-0.00020531,-2047.4,1.4664
17504,14.971,2,0.05,8.0941e-07,8.0885,6.2153e-07,4.6699,-1.8648e-12,4.8944e-06,-6.2152e-07,-4.6699,1.4665
17505,15.247,2,0,0.0001986,1984.6,6.6708e-05,14.018,6.4843e-05,0.0060572,-0.00019836,-1977.6,1.5083
17506,15.155,1.9091,0,0.00020093,2007.9,6.7455e-05,13.771,6.5622e-05,0.0054975,-0.00020069,-2000.9,1.4942
17507,15.155,2,0.05,8.0599e-07,8.0543,6.189e-07,4.6502,-9.5824e-13,6.2042e-06,-6.189e-07,-4.6501,1.4943
17508,15.432,2,0,0.00019402,1938.8,6.5243e-05,14.591,6.3302e-05,0.0062541,-0.00019376,-1931.5,1.5364
17509,15.339,1.9091,0,0.00019633,1961.9,6.5984e-05,14.329,6.4078e-05,0.0056731,-0.00019608,-1954.7,1.5222
17510,15.339,2,0.05,8.0259e-07,8.0204,6.1629e-07,4.6306,-1.8705e-12,6.0456e-06,-6.1629e-07,-4.6305,1.5223
17511,15.616,2,0,0.00018945,1893.2,6.3785e-05,15.173,6.1766e-05,0.0064579,-0.00018919,-1885.6,1.5645
17512,15.524,1.9091,0,0.00019175,1916.2,6.4521e-05,14.894,6.254e-05,0.0058788,-0.00019149,-1908.7,1.5503
17513,15.524,2,0.05,7.9922e-07,7.9867,6.1371e-07,4.6112,-9.6597e-13,4.603e-06,-6.137e-07,-4.6111,1.5504
17514,15.8,2,0,0.00018491,1847.8,6.2335e-05,15.767,6.0237e-05,0.0066561,-0.00018463,-1839.9,1.5928
17515,15.708,1.9091,0,0.0001872,1870.7,6.3066e-05,15.469,6.1008e-05,0.0060678,-0.00018693,-1862.9,1.5786
17516,15.708,2,0.05,7.9589e-07,7.9534,6.1114e-07,4.5919,-9.6938e-13,3.6064e-06,-6.1114e-07,-4.5919,1.5787
17517,15.984,2,0,0.00018038,1802.6,6.0893e-05,16.377,5.8714e-05,0.0068507,-0.0001801,-1794.3,1.6213
17518,15.892,1.9091,0,0.00018266,1825.4,6.1618e-05,16.057,5.9482e-05,0.0062612,-0.00018238,-1817.3,1.6069
17519,15.892,2,0.05,7.9258e-07,7.9203,6.086e-07,4.5728,-1.8815e-12,5.0162e-06,-6.086e-07,-4.5728,1.607
17520,16.169,2,0,0.00017588,1757.6,5.9459e-05,17.007,5.7197e-05,0.0070551,-0.00017558,-1749,1.6498
17521,16.077,1.9091,0,0.00017815,1780.3,6.0179e-05,16.663,5.7962e-05,0.006443,-0.00017786,-1771.9,1.6354
17522,16.077,2,0.05,7.8929e-07,7.8875,6.0608e-07,4.5539,-1.4268e-12,5.112e-06,-6.0608e-07,-4.5538,1.6355
17523,16.353,2,0,0.0001714,1712.8,5.8035e-05,17.66,5.5685e-05,0.0072926,-0.00017109,-1703.9,1.6785
17524,16.261,1.9091,0,0.00017366,1735.4,5.8749e-05,17.29,5.6448e-05,0.0066552,-0.00017335,-1726.6,1.664
17525,16.261,2,0.05,7.8603e-07,7.8549,6.0358e-07,4.535,-9.7553e-13,6.6472e-06,-6.0357e-07,-4.535,1.6641
17526,16.537,2,0,0.00016694,1668.2,5.662e-05,18.341,5.418e-05,0.007543,-0.00016662,-1659,1.7073
17527,16.445,1.9091,0,0.00016918,1690.7,5.7327e-05,17.942,5.494e-05,0.0069013,-0.00016887,-1681.6,1.6927
17528,16.445,2,0.05,7.828e-07,7.8226,6.011e-07,4.5164,-1.4395e-12,6.8471e-06,-6.0109e-07,-4.5164,1.6928
17529,16.721,2,0,0.0001625,1623.9,5.5215e-05,19.054,5.268e-05,0.0077947,-0.00016217,-1614.3,1.7362
17530,16.629,1.9091,0,0.00016473,1646.2,5.5915e-05,18.622,5.3438e-05,0.007139,-0.00016441,-1636.8,1.7216
17531,16.629,2,0.05,7.7961e-07,7.7908,5.9865e-07,4.498,-9.8686e-13,7.2827e-06,-5.9864e-07,-4.498,1.7217
17532,16.906,2,0,0.00015809,1579.8,5.382e-05,19.803,5.1185e-05,0.0080488,-0.00015774,-1569.8,1.7652
17533,16.814,1.9091,0,0.00016031,1602,5.4514e-05,19.335,5.1941e-05,0.0073873,-0.00015997,-1592.2,1.7505
17534,16.814,2,0.05,7.7646e-07,7.7592,5.9623e-07,4.4798,-9.9289e-13,6.7732e-06,-5.9622e-07,-4.4798,1.7506
17535,17.09,2,0,0.00015369,1535.9,5.2436e-05,20.592,4.9696e-05,0.0083188,-0.00015333,-1525.5,1.7943
17536,16.998,1.9091,0,0.0001559,1557.9,5.3122e-05,20.086,5.045e-05,0.0076293,-0.00015555,-1547.8,1.7796
17537,16.998,2,0.05,7.7333e-07,7.728,5.9382e-07,4.4618,-9.9616e-13,6.9844e-06,-5.9382e-07,-4.4617,1.7797
17538,17.274,2,0,0.00014932,1492.2,5.1063e-05,21.428,4.8212e-05,0.0086271,-0.00014895,-1481.4,1.8235
17539,17.182,1.9091,0,0.00015152,1514.1,5.1741e-05,20.878,4.8964e-05,0.0079089,-0.00015115,-1503.6,1.8088
17540,17.182,2,0.05,7.7024e-07,7.6971,5.9145e-07,4.4439,-9.9418e-13,6.7463e-06,-5.9145e-07,-4.4439,1.8088
17541,17.459,2,0,0.00014498,1448.8,4.9702e-05,22.314,4.6733e-05,0.0089538,-0.00014458,-1437.5,1.8528
17542,17.366,1.9091,0,0.00014716,1470.6,5.0372e-05,21.717,4.7483e-05,0.0082254,-0.00014678,-1459.6,1.838
17543,17.366,2,0.05,7.6719e-07,7.6666,5.8911e-07,4.4264,-5.495e-13,6.6838e-06,-5.8911e-07,-4.4263,1.8381
17544,17.643,2,0,0.00014065,1405.6,4.8353e-05,23.256,4.5259e-05,0.0092895,-0.00014024,-1393.8,1.8822
17545,17.551,1.9091,0,0.00014282,1427.2,4.9015e-05,22.608,4.6007e-05,0.0085415,-0.00014242,-1415.8,1.8674
17546,17.551,2,0.05,7.6419e-07,7.6367,5.8681e-07,4.4091,-1.0096e-12,7.6188e-06,-5.868e-07,-4.409,1.8675
17547,17.827,2,0,0.00013635,1362.6,4.7017e-05,24.26,4.379e-05,0.0096401,-0.00013592,-1350.3,1.9117
17548,17.735,1.9091,0,0.00013851,1384.1,4.767e-05,23.555,4.4536e-05,0.0088761,-0.00013809,-1372.2,1.8969
17549,17.735,2,0.05,7.6124e-07,7.6071,5.8454e-07,4.392,-5.6192e-13,6.3831e-06,-5.8453e-07,-4.392,1.8969
17550,18.011,2,0,0.00013208,1319.8,4.5695e-05,25.332,4.2325e-05,0.010016,-0.00013163,-1307,1.9413
17551,17.919,1.9091,0,0.00013422,1341.2,4.6338e-05,24.566,4.3069e-05,0.0092187,-0.00013378,-1328.8,1.9264
17552,17.919,2,0.05,7.5833e-07,7.5781,5.8231e-07,4.3752,-5.6764e-13,7.4729e-06,-5.823e-07,-4.3752,1.9265
17553,18.196,2,0,0.00012782,1277.4,4.4387e-05,26.479,4.0864e-05,0.010435,-0.00012735,-1263.9,1.971
17554,18.103,1.9091,0,0.00012995,1298.6,4.5019e-05,25.645,4.1607e-05,0.0096033,-0.00012949,-1285.6,1.9561
17555,18.103,2,0.05,7.5547e-07,7.5495,5.8011e-07,4.3587,-1.218e-13,8.3648e-06,-5.8011e-07,-4.3587,1.9561
17556,18.38,2,0,0.0001236,1235.1,4.3094e-05,27.707,3.9408e-05,0.010886,-0.0001231,-1221,2.0008
17557,18.288,1.9091,0,0.00012571,1256.2,4.3715e-05,26.8,4.015e-05,0.010032,-0.00012523,-1242.6,1.9858
17558,18.288,2,0.05,7.5267e-07,7.5215,5.7796e-07,4.3426,-1.3559e-13,9.4513e-06,-5.7796e-07,-4.3425,1.9859
17559,18.564,2,0,0.0001194,1193.1,4.1817e-05,29.025,3.7955e-05,0.011361,-0.00011888,-1178.4,2.0307
17560,18.472,1.9091,0,0.00012149,1214.1,4.2426e-05,28.037,3.8696e-05,0.010479,-0.00012099,-1199.8,2.0156
17561,18.472,2,0.05,7.4994e-07,7.4942,5.7586e-07,4.3268,-1.5083e-12,1.2514e-05,-5.7586e-07,-4.3268,2.0157
17562,18.748,2,0,0.00011522,1151.4,4.0556e-05,30.44,3.6506e-05,0.011864,-0.00011467,-1135.9,2.0606
17563,18.656,1.9091,0,0.0001173,1172.2,4.1152e-05,29.364,3.7246e-05,0.010954,-0.00011677,-1157.2,2.0455
17564,18.656,2,0.05,7.4728e-07,7.4676,5.7382e-07,4.3115,-6.1435e-13,8.4118e-06,-5.7381e-07,-4.3114,2.0456
17565,18.933,2,0,0.00011107,1110,3.9312e-05,31.96,3.506e-05,0.012411,-0.00011049,-1093.6,2.0906
17566,18.841,1.9091,0,0.00011313,1130.5,3.9896e-05,30.789,3.5799e-05,0.011457,-0.00011258,-1114.8,2.0755
17567,18.841,2,0.05,7.4468e-07,7.4417,5.7183e-07,4.2965,-1.0877e-12,6.9828e-06,-5.7182e-07,-4.2964,2.0756
17568,19.117,2,0,0.00010695,1068.8,3.8087e-05,33.596,3.3618e-05,0.013018,-0.00010634,-1051.6,2.1207
17569,19.025,1.9091,0,0.00010899,1089.2,3.8656e-05,32.32,3.4356e-05,0.012015,-0.00010841,-1072.7,2.1056
17570,19.025,2,0.05,7.4217e-07,7.4166,5.6989e-07,4.282,-2.0327e-13,8.7934e-06,-5.6989e-07,-4.2819,2.1056
17571,19.301,2,0,0.00010286,1027.9,3.6881e-05,35.357,3.2178e-05,0.013677,-0.00010221,-1009.7,2.1509
17572,19.209,1.9091,0,0.00010488,1048.1,3.7435e-05,33.968,3.2916e-05,0.012636,-0.00010426,-1030.7,2.1357
17573,19.209,2,0.05,7.3975e-07,7.3924,5.6803e-07,4.268,-1.1243e-12,8.5603e-06,-5.6803e-07,-4.268,2.1358
17574,19.485,2,0,9.8792e-05,987.23,3.5696e-05,37.253,3.074e-05,0.014386,-9.8105e-05,-968.07,2.1811
17575,19.393,1.9091,0,0.0001008,1007.3,3.6233e-05,35.741,3.1478e-05,0.0133,-0.00010014,-988.93,2.1659
17576,19.393,2,0.05,7.3742e-07,7.3692,5.6625e-07,4.2546,-6.9872e-13,8.4314e-06,-5.6625e-07,-4.2546,2.166
17577,19.67,2,0,9.4756e-05,946.9,3.4532e-05,39.297,2.9304e-05,0.015153,-9.4026e-05,-926.64,2.2114
17578,19.578,1.9091,0,9.6741e-05,966.75,3.5052e-05,37.65,3.0043e-05,0.014016,-9.6046e-05,-947.36,2.1962
17579,19.578,2,0.05,7.3521e-07,7.347,5.6455e-07,4.2418,-2.629e-13,7.5143e-06,-5.6455e-07,-4.2418,2.1962
17580,19.854,2,0,9.075e-05,906.87,3.3391e-05,41.501,2.787e-05,0.015994,-8.9972e-05,-885.4,2.2418
17581,19.762,1.9091,0,9.2715e-05,926.51,3.3892e-05,39.708,2.8609e-05,0.014796,-9.1975e-05,-906.01,2.2265
17582,19.762,2,0.05,7.3311e-07,7.326,5.6294e-07,4.2297,-7.2646e-13,6.0026e-06,-5.6294e-07,-4.2297,2.2266
17583,20.038,2,0,8.6776e-05,867.16,3.2274e-05,43.878,2.6436e-05,0.016932,-8.5946e-05,-844.38,2.2722
17584,19.946,1.9091,0,8.8718e-05,886.57,3.2755e-05,41.926,2.7177e-05,0.015662,-8.793e-05,-864.86,2.2569
17585,19.946,2,0.05,7.3114e-07,7.3063,5.6142e-07,4.2183,-1.1904e-12,3.5767e-06,-5.6142e-07,-4.2183,2.257
17586,20.223,2,0,8.2833e-05,827.76,3.1183e-05,46.443,2.5004e-05,0.01797,-8.1945e-05,-803.56,2.3027
17587,20.13,1.9091,0,8.4753e-05,846.94,3.1642e-05,44.319,2.5746e-05,0.016632,-8.3912e-05,-823.91,2.2874
17588,20.13,2,0.05,7.2931e-07,7.2881,5.6002e-07,4.2078,-1.2022e-12,4.9178e-06,-5.6002e-07,-4.2078,2.2874
17589,20.407,2,0,7.8925e-05,788.71,3.0118e-05,49.211,2.3571e-05,0.019114,-7.7972e-05,-762.94,2.3332
17590,20.315,1.9091,0,8.082e-05,807.64,3.0555e-05,46.9,2.4315e-05,0.017695,-7.9919e-05,-783.16,2.3179
17591,20.315,2,0.05,7.2765e-07,7.2715,5.5875e-07,4.1982,-9.7685e-13,6.8377e-06,-5.5874e-07,-4.1982,2.3179
17592,20.591,2,0,7.5052e-05,750,2.9083e-05,52.199,2.2138e-05,0.020384,-7.4027e-05,-722.53,2.3638
17593,20.499,1.9091,0,7.692e-05,768.67,2.9495e-05,49.686,2.2884e-05,0.018875,-7.5954e-05,-742.62,2.3484
17594,20.499,2,0.05,7.2617e-07,7.2567,5.5761e-07,4.1897,-9.399e-13,6.7069e-06,-5.5761e-07,-4.1896,2.3485
17595,20.775,2,0,7.1215e-05,711.66,2.8078e-05,55.426,2.0704e-05,0.021808,-7.011e-05,-682.31,2.3944
17596,20.683,1.9091,0,7.3056e-05,730.06,2.8463e-05,52.693,2.1453e-05,0.020189,-7.2017e-05,-702.27,2.3791
17597,20.683,2,0.05,7.2489e-07,7.2439,5.5663e-07,4.1823,-1.1473e-12,9.6189e-06,-5.5662e-07,-4.1822,2.3791
17598,20.96,2,0,6.7417e-05,673.7,2.7105e-05,58.91,1.9268e-05,0.023424,-6.6221e-05,-642.3,2.4251
17599,20.867,1.9091,0,6.9229e-05,691.81,2.7463e-05,55.941,2.002e-05,0.021679,-6.8107e-05,-662.13,2.4097
17600,20.867,2,0.05,7.2383e-07,7.2333,5.5581e-07,4.1762,-9.3903e-13,6.6475e-06,-5.5581e-07,-4.1761,2.4098
17601,21.144,2,0,6.3659e-05,636.15,2.6167e-05,62.673,1.7829e-05,0.025257,-6.2361e-05,-602.49,2.4559
17602,21.052,1.9091,0,6.544e-05,653.95,2.6494e-05,59.449,1.8585e-05,0.023374,-6.4225e-05,-622.18,2.4404
17603,21.052,2,0.05,7.2303e-07,7.2253,5.552e-07,4.1716,-7.4311e-13,6.4358e-06,-5.552e-07,-4.1715,2.4405
17604,21.328,2,0,5.9946e-05,599.04,2.5265e-05,66.738,1.6386e-05,0.027348,-5.853e-05,-562.87,2.4866
17605,21.236,1.9091,0,6.1693e-05,616.5,2.5561e-05,63.239,1.7148e-05,0.025301,-6.0373e-05,-582.43,2.4712
17606,21.236,2,0.05,7.2252e-07,7.2202,5.5481e-07,4.1686,-1.0124e-12,4.7146e-06,-5.548e-07,-4.1686,2.4712
17607,21.512,2,0,5.6278e-05,562.39,2.4402e-05,71.128,1.4939e-05,0.029758,-5.4729e-05,-523.43,2.5175
17608,21.42,1.9091,0,5.7989e-05,579.49,2.4664e-05,67.335,1.5706e-05,0.027518,-5.6549e-05,-542.87,2.502
17609,21.42,2,0.05,7.2233e-07,7.2183,5.5466e-07,4.1675,-8.1555e-13,1.0341e-06,-5.5466e-07,-4.1675,2.502
17610,21.697,2,0,5.2661e-05,526.25,2.358e-05,75.87,1.3487e-05,0.032568,-5.0958e-05,-484.18,2.5483
17611,21.605,1.9091,0,5.4334e-05,542.96,2.3807e-05,71.762,1.426e-05,0.030083,-5.2756e-05,-503.5,2.5328
17612,21.605,2,0.05,7.2252e-07,7.2202,5.5481e-07,4.1686,-1.0287e-12,2.0858e-06,-5.548e-07,-4.1686,2.5329
17613,21.881,2,0,4.9099e-05,490.66,2.2802e-05,80.99,1.2028e-05,0.035888,-4.7217e-05,-445.11,2.5792
17614,21.789,1.9091,0,5.073e-05,506.95,2.2992e-05,76.547,1.2808e-05,0.033106,-4.8992e-05,-464.31,2.5637
17615,21.789,2,0.05,7.2313e-07,7.2263,5.5527e-07,4.1721,-9.6921e-13,4.638e-06,-5.5527e-07,-4.1721,2.5637
17616,22.065,2,0,4.5599e-05,455.67,2.207e-05,86.517,1.0561e-05,0.039857,-4.3506e-05,-406.2,2.6101
17617,21.973,1.9091,0,4.7184e-05,471.51,2.2221e-05,81.72,1.135e-05,0.036703,-4.5259e-05,-425.3,2.5946
17618,21.973,2,0.05,7.2422e-07,7.2372,5.5611e-07,4.1784,-5.5174e-13,7.1093e-06,-5.5611e-07,-4.1784,2.5946
17619,22.249,2,0,4.2166e-05,421.37,2.1387e-05,92.48,9.0841e-06,0.044675,-3.9824e-05,-367.43,2.6411
17620,22.157,1.9091,0,4.3701e-05,436.71,2.1497e-05,87.311,9.8823e-06,0.041037,-4.1556e-05,-386.44,2.6256
17621,22.157,2,0.05,7.2587e-07,7.2537,5.5738e-07,4.1879,-3.5557e-13,6.806e-06,-5.5738e-07,-4.1879,2.6256
17622,22.434,2,0,3.8811e-05,387.84,2.0754e-05,98.908,7.5967e-06,0.050662,-3.617e-05,-328.8,2.672
17623,22.342,1.9091,0,4.0291e-05,402.63,2.0824e-05,93.353,8.4052e-06,0.046352,-3.7882e-05,-347.74,2.6565
17624,22.342,2,0.05,7.2815e-07,7.2765,5.5913e-07,4.2011,-9.3988e-13,5.7203e-06,-5.5913e-07,-4.2011,2.6565
17625,22.618,2,0,3.5547e-05,355.23,2.0174e-05,105.83,6.0967e-06,0.058236,-3.2544e-05,-290.27,2.703
17626,22.526,1.9091,0,3.6964e-05,369.39,2.0202e-05,99.877,6.9166e-06,0.053059,-3.4238e-05,-309.17,2.6875
17627,22.526,2,0.05,7.3116e-07,7.3065,5.6144e-07,4.2185,-7.5022e-13,1.6594e-06,-5.6144e-07,-4.2184,2.6875
17628,22.802,2,0,3.2391e-05,323.69,1.9648e-05,113.27,4.5823e-06,0.068408,-2.8942e-05,-251.82,2.7341
17629,22.71,1.9091,0,3.3736e-05,337.13,1.9636e-05,106.91,5.4147e-06,0.061603,-3.0621e-05,-270.7,2.7185
17630,22.71,2,0.05,7.3498e-07,7.3447,5.6437e-07,4.2405,-8.4572e-13,-1.1364e-06,-5.6437e-07,-4.2405,2.7185
17631,22.987,2,0,2.9366e-05,293.46,1.9177e-05,121.24,3.0516e-06,0.08158,-2.5361e-05,-213.4,2.7651
17632,22.894,1.9091,0,3.0628e-05,306.06,1.9126e-05,114.49,3.8978e-06,0.073609,-2.7029e-05,-232.3,2.7495
17633,22.894,2,0.05,7.3971e-07,7.392,5.6801e-07,4.2678,-8.306e-13,-1.7653e-06,-5.6801e-07,-4.2678,2.7496
17634,23.171,2,0,2.6507e-05,264.89,1.8761e-05,129.77,1.5031e-06,0.10397,-2.1798e-05,-174.97,2.7962
17635,23.079,1.9091,0,2.7666e-05,276.47,1.8673e-05,122.63,2.3635e-06,0.088391,-2.3459e-05,-193.93,2.7806
17636,23.079,2,0.05,7.4544e-07,7.4493,5.7241e-07,4.3008,-7.1821e-13,8.8141e-07,-5.7241e-07,-4.3008,2.7806
17637,23.355,2,0,2.3862e-05,238.45,1.8398e-05,138.86,-6.5753e-08,0.12644,-1.8247e-05,-136.48,2.8272
17638,23.263,1.9091,0,2.4893e-05,248.76,1.8277e-05,131.35,8.1087e-07,0.11941,-1.9906e-05,-155.54,2.8117
17639,23.263,2,0.05,7.5223e-07,7.5171,5.7762e-07,4.34,-9.319e-13,-1.9774e-08,-5.7762e-07,-4.34,2.8117
17640,23.539,2,0,2.15e-05,214.85,1.8087e-05,148.52,-1.6504e-06,0.22182,-1.4706e-05,-97.869,2.8583
17641,23.447,1.9091,0,2.2365e-05,223.5,1.7936e-05,140.64,-7.6449e-07,0.13614,-1.6365e-05,-117.08,2.8427
17642,23.447,2,0.05,7.6009e-07,7.5957,5.8366e-07,4.3854,-4.3446e-13,-1.4963e-06,-5.8366e-07,-4.3854,2.8428
17643,23.724,2,0,1.9518e-05,195.05,1.7825e-05,158.68,-3.2651e-06,0.21463,-1.1167e-05,-59.155,2.8894
17644,23.631,1.9091,0,2.0168e-05,201.54,1.7647e-05,150.56,-2.3488e-06,0.31983,-1.2835e-05,-78.468,2.8738
17645,23.631,2,0.05,7.6925e-07,7.6872,5.9069e-07,4.4382,-8.7823e-13,3.5026e-07,-5.9069e-07,-4.4382,2.8739
17646,23.816,1.9091,0,1.8417e-05,184.05,1.7412e-05,160.9,-3.9783e-06,0.18477,-9.3095e-06,-39.871,2.9049
17647,23.816,2,0.05,7.8439e-07,7.8385,6.0232e-07,4.5256,-8.1276e-13,-2.913e-06,-6.0232e-07,-4.5256,2.905
17648,23.908,2,0,1.8089e-05,180.77,1.7606e-05,168.67,-4.7856e-06,0.42609,-7.831e-06,-22.456,2.9205
17649,1.2431,1.8182,0,0.0011877,11869,0.00069369,3741.4,0.00018279,-97.32,-0.0010782,-9571.6,0.017294
17650,1.1509,1.7273,0,0.0012157,12149,0.00079457,4978,0.00011979,-92.03,-0.0010504,-8884.4,0.012835
17651,1.1509,1.8182,0.05,0.00010711,1070.3,8.2244e-05,617.95,1.5723e-10,0.001727,-8.2244e-05,-617.95,0.013545
17652,1.0588,1.8182,0,0.0012203,12195,0.00089125,6134.8,1.3324e-05,-461.59,-0.0009816,-7937.1,0.010238
17653,1.4273,1.8182,0,0.00091629,9156.6,0.00042935,1559.6,0.00022188,0.76611,-0.00087973,-8276.4,0.024888
17654,1.3352,1.7273,0,0.00092546,9248.3,0.00049115,2316.4,0.00018449,12.229,-0.00086405,-7866.1,0.020363
17655,1.3352,1.8182,0.05,3.7114e-05,370.88,2.8499e-05,214.13,1.3405e-10,0.0013186,-2.8499e-05,-214.13,0.020915
17656,1.6116,1.8182,0,0.00078962,7890.8,0.0003126,622.97,0.00022807,-12.164,-0.00077731,-7566.2,0.032997
17657,1.5195,1.7273,0,0.00079094,7903.9,0.00035157,1098.3,0.00020341,-14.88,-0.0007666,-7303.2,0.028346
17658,1.5195,1.8182,0.05,1.7731e-05,177.19,1.3616e-05,102.3,7.7791e-11,0.00090532,-1.3616e-05,-102.3,0.028788
17659,1.7959,1.8182,0,0.00071611,7156.1,0.00025194,175,0.00022578,-21.605,-0.0007133,-7077.4,0.041596
17660,1.7037,1.7273,0,0.00071542,7149.2,0.00027663,485.86,0.00021098,-7.4558,-0.000706,-6897.3,0.036789
17661,1.7037,1.8182,0.05,1.3248e-05,132.39,1.0173e-05,76.434,6.768e-11,0.00082319,-1.0173e-05,-76.434,0.037158
17662,1.9801,1.8182,0,0.00066737,6669.1,0.00022796,19.76,0.0002089,-123.43,-0.00066902,-6719.8,0.05066
17663,1.888,1.7273,0,0.00066587,6654.1,0.00023245,141.42,0.00021108,-19.15,-0.00066364,-6591.5,0.045682
17664,1.888,1.8182,0.05,1.0465e-05,104.57,8.0355e-06,60.376,4.7882e-11,0.0005549,-8.0356e-06,-60.376,0.046
17665,2.1644,1.8182,0,0.0006329,6324.6,0.00022194,6.4233,0.00018701,-256.02,-0.00063673,-6445.3,0.060169
17666,2.0723,1.7273,0,0.0006318,6313.7,0.00021497,17.591,0.00019911,-101.59,-0.00063315,-6354.8,0.055011
17667,2.0723,1.8182,0.05,8.4436e-06,84.378,6.4836e-06,48.715,4.6785e-11,0.00047619,-6.4836e-06,-48.715,0.055294
17668,2.3487,1.8182,0,0.00060718,6067.6,0.00021701,3.3439,0.00017198,-335,-0.00061212,-6226.4,0.070106
17669,2.2565,1.7273,0,0.00060687,6064.5,0.00021116,5.7589,0.00018216,-212.17,-0.00061009,-6164.8,0.064763
17670,2.2565,1.8182,0.05,6.9449e-06,69.401,5.3328e-06,40.069,3.4657e-11,0.00047166,-5.3328e-06,-40.069,0.065024
17671,2.5329,1.8182,0,0.00058718,5867.8,0.00021232,2.0633,0.00016185,-377.22,-0.00059265,-6046.2,0.080457
17672,2.4408,1.7273,0,0.00058774,5873.4,0.00020794,3.0598,0.00017018,-280.68,-0.00059195,-6007.1,0.074927
17673,2.4408,1.8182,0.05,5.7833e-06,57.793,4.4409e-06,33.367,2.9513e-11,0.00046679,-4.4409e-06,-33.367,0.075173
17674,2.7172,1.8182,0,0.00057107,5706.8,0.00020785,1.3678,0.00015493,-396.27,-0.00057675,-5893.9,0.09121
17675,2.6251,1.7273,0,0.00057243,5720.3,0.00020465,1.8877,0.00016191,-319.23,-0.00057715,-5872.3,0.085492
17676,2.6251,1.8182,0.05,4.8639e-06,48.605,3.7348e-06,28.062,2.3082e-11,0.0003129,-3.7349e-06,-28.062,0.085729
17677,2.9015,1.8182,0,0.00055772,5573.3,0.00020361,0.94781,0.00015016,-400.64,-0.00056343,-5762.3,0.10235
17678,2.8093,1.7273,0,0.00055973,5593.4,0.00020132,1.259,0.00015612,-338.36,-0.00056469,-5754.2,0.096448
17679,2.8093,1.8182,0.05,4.1257e-06,41.228,3.168e-06,23.803,1.8196e-11,0.00021806,-3.168e-06,-23.803,0.096681
17680,3.0857,1.8182,0,0.00054637,5459.9,0.0001996,0.67339,0.00014685,-395.68,-0.000552,-5646.6,0.11388
17681,2.9936,1.7273,0,0.00054889,5485.1,0.00019802,0.87376,0.000152,-344.87,-0.00055392,-5648.9,0.10779
17682,2.9936,1.8182,0.05,3.5288e-06,35.263,2.7096e-06,20.359,2.2451e-11,0.00025184,-2.7097e-06,-20.359,0.10802
17683,3.27,1.8182,0,0.00053651,5361.4,0.00019581,0.48677,0.00014453,-384.76,-0.00054201,-5543.2,0.12578
17684,3.1779,1.7273,0,0.0005394,5390.3,0.00019478,0.62245,0.00014903,-343.11,-0.00054441,-5553.3,0.11951
17685,3.1779,1.8182,0.05,3.0447e-06,30.426,2.338e-06,17.567,1.6318e-11,0.00012515,-2.338e-06,-17.567,0.11974
17686,3.4543,1.8182,0,0.0005278,5274.4,0.00019221,0.35604,0.00014291,-370.11,-0.00053311,-5449.5,0.13805
17687,3.3621,1.7273,0,0.00053094,5305.8,0.00019162,0.45104,0.00014686,-335.88,-0.00053585,-5465.5,0.13159
17688,3.3621,1.8182,0.05,2.6524e-06,26.505,2.0367e-06,15.303,1.1383e-11,0.00018688,-2.0367e-06,-15.303,0.13183
17689,3.6385,1.8182,0,0.00051996,5196,0.00018881,0.26275,0.00014177,-353.18,-0.00052506,-5363.5,0.15069
17690,3.5464,1.7273,0,0.00052327,5229.1,0.00018856,0.33099,0.00014525,-325.05,-0.00052803,-5383.8,0.14404
17691,3.5464,1.8182,0.05,2.3349e-06,23.333,1.7929e-06,13.471,1.0911e-11,0.00010938,-1.7929e-06,-13.471,0.14428
17692,3.8228,1.8182,0,0.0005128,5124.4,0.00018556,0.19527,0.00014095,-334.97,-0.00051767,-5283.6,0.16368
17693,3.7307,1.7273,0,0.00051619,5158.4,0.00018558,0.24526,0.00014404,-311.89,-0.00052079,-5307.1,0.15685
17694,3.7307,1.8182,0.05,2.079e-06,20.775,1.5964e-06,11.995,8.5472e-12,9.8358e-05,-1.5964e-06,-11.995,0.15709
17695,4.0071,1.8182,0,0.00050615,5058,0.00018246,0.14598,0.00014036,-316.16,-0.00051079,-5208.6,0.17702
17696,3.9149,1.7273,0,0.00050959,5092.4,0.00018269,0.18321,0.0001431,-297.27,-0.00051399,-5234.4,0.17002
17697,3.9149,1.8182,0.05,1.8733e-06,18.72,1.4384e-06,10.808,7.225e-12,8.5355e-05,-1.4384e-06,-10.808,0.17026
17698,4.1913,1.8182,0,0.00049991,4995.7,0.00017948,0.10969,0.00013991,-297.23,-0.0005043,-5137.6,0.19071
17699,4.0992,1.7273,0,0.00050336,5030.1,0.00017988,0.13781,0.00014236,-281.82,-0.00050756,-5165,0.18353
17700,4.0992,1.8182,0.05,1.7085e-06,17.073,1.3119e-06,9.8573,5.9611e-12,5.4306e-05,-1.3119e-06,-9.8572,0.18378
17701,4.3756,1.8182,0,0.00049398,4936.4,0.00017662,0.082805,0.00013954,-278.52,-0.00049813,-5069.7,0.20474
17702,4.2835,1.7273,0,0.00049741,4970.7,0.00017715,0.10432,0.00014174,-265.99,-0.0005014,-5098.3,0.19739
17703,4.2835,1.8182,0.05,1.5768e-06,15.757,1.2108e-06,9.0976,4.9428e-12,6.3727e-05,-1.2108e-06,-9.0974,0.19764
17704,4.5599,1.8182,0,0.00048829,4879.5,0.00017386,0.062794,0.00013922,-260.25,-0.0004922,-5004.4,0.2191
17705,4.4677,1.7273,0,0.00049168,4913.4,0.00017449,0.079443,0.00014119,-250.12,-0.00049546,-5033.7,0.21159
17706,4.4677,1.8182,0.05,1.4716e-06,14.706,1.13e-06,8.4907,-2.4432e-13,4.4408e-05,-1.13e-06,-8.4906,0.21184
17707,4.7441,1.8182,0,0.00048278,4824.5,0.00017119,0.047833,0.00013889,-242.58,-0.00048645,-4941.1,0.23381
17708,4.652,1.7273,0,0.00048613,4857.9,0.0001719,0.060849,0.00014069,-234.43,-0.00048969,-4970.9,0.22612
17709,4.652,1.8182,0.05,1.3875e-06,13.866,1.0654e-06,8.0054,-2.6264e-13,4.4267e-05,-1.0654e-06,-8.0052,0.22638
17710,4.9284,1.8182,0,0.0004774,4770.7,0.00016859,0.036608,0.00013855,-225.63,-0.00048084,-4879.5,0.24884
17711,4.8363,1.7273,0,0.0004807,4803.7,0.00016937,0.046881,0.0001402,-219.12,-0.00048405,-4909.5,0.24099
17712,4.8363,1.8182,0.05,1.32e-06,13.191,1.0136e-06,7.6157,-7.1568e-13,1.9336e-05,-1.0136e-06,-7.6156,0.24124
17713,5.1127,1.8182,0,0.00047212,4718,0.00016606,0.028162,0.00013818,-209.47,-0.00047534,-4819.2,0.2642
17714,5.0205,1.7273,0,0.00047538,4750.5,0.00016689,0.03634,0.00013969,-204.29,-0.00047852,-4849.3,0.25619
17715,5.0205,1.8182,0.05,1.2655e-06,12.646,9.7172e-07,7.3012,-1.7315e-12,1.983e-05,-9.7172e-07,-7.3011,0.25644
17716,5.2969,1.8182,0,0.00046692,4666,0.0001636,0.021792,0.00013776,-194.13,-0.00046992,-4760,0.27988
17717,5.2048,1.7273,0,0.00047012,4698,0.00016446,0.028353,0.00013916,-190.05,-0.00047306,-4790.1,0.27171
17718,5.2048,1.8182,0.05,1.2211e-06,12.203,9.3766e-07,7.0452,-9.6668e-13,2.2109e-05,-9.3765e-07,-7.0451,0.27196
17719,5.4812,1.8182,0,0.00046176,4614.4,0.00016119,0.016982,0.00013729,-179.62,-0.00046456,-4701.6,0.29589
17720,5.3891,1.7273,0,0.00046492,4646,0.00016208,0.022284,0.0001386,-176.44,-0.00046767,-4731.7,0.28755
17721,5.3891,1.8182,0.05,1.1846e-06,11.838,9.0965e-07,6.8348,-1.9378e-12,7.3865e-06,-9.0965e-07,-6.8348,0.28781
17722,5.6655,1.8182,0,0.00045664,4563.3,0.00015884,0.013347,0.00013675,-165.96,-0.00045924,-4644,0.3122
17723,5.5733,1.7273,0,0.00045975,4594.4,0.00015975,0.017659,0.00013798,-163.5,-0.00046232,-4673.9,0.30371
17724,5.5733,1.8182,0.05,1.1543e-06,11.535,8.8639e-07,6.66,-7.4484e-13,8.2719e-06,-8.8638e-07,-6.6599,0.30397
17725,5.8497,1.8182,0,0.00045154,4512.3,0.00015653,0.010601,0.00013615,-153.13,-0.00045395,-4586.9,0.32883
17726,5.7576,1.7273,0,0.00045462,4543,0.00015745,0.014128,0.00013732,-151.26,-0.000457,-4616.8,0.32018
17727,5.7576,1.8182,0.05,1.1288e-06,11.281,8.6681e-07,6.5129,-1.1648e-12,1.0647e-05,-8.6681e-07,-6.5128,0.32044
17728,6.034,1.8182,0,0.00044646,4461.5,0.00015427,0.00853,0.00013549,-141.1,-0.00044869,-4530.4,0.34577
17729,5.9419,1.7273,0,0.00044949,4491.8,0.0001552,0.01143,0.00013661,-139.7,-0.00045171,-4560,0.33697
17730,5.9419,1.8182,0.05,1.1071e-06,11.064,8.5014e-07,6.3876,-1.4989e-12,9.5279e-06,-8.5012e-07,-6.3875,0.33723
17731,6.2183,1.8182,0,0.00044138,4410.8,0.00015204,0.006973,0.00013476,-129.85,-0.00044345,-4474.3,0.36301
17732,6.1261,1.7273,0,0.00044438,4440.7,0.00015298,0.0093681,0.00013583,-128.83,-0.00044643,-4503.7,0.35406
17733,6.1261,1.8182,0.05,1.0884e-06,10.876,8.3575e-07,6.2794,-5.3283e-12,7.8581e-06,-8.3573e-07,-6.2794,0.35432
17734,6.4025,1.8182,0,0.00043631,4360.1,0.00014985,0.0058082,0.00013397,-119.34,-0.00043821,-4418.5,0.38056
17735,6.3104,1.7273,0,0.00043927,4389.7,0.0001508,0.0077938,0.00013501,-118.63,-0.00044117,-4447.8,0.37145
17736,6.3104,1.8182,0.05,1.072e-06,10.713,8.2317e-07,6.185,-3.8173e-12,6.4639e-06,-8.2316e-07,-6.1849,0.37171
17737,6.5868,1.8182,0,0.00043123,4309.3,0.0001477,0.0049434,0.00013312,-109.55,-0.00043299,-4363,0.3984
17738,6.4947,1.7273,0,0.00043416,4338.6,0.00014864,0.0065944,0.00013413,-109.08,-0.00043592,-4392.2,0.38915
17739,6.4947,1.8182,0.05,1.0575e-06,10.568,8.1205e-07,6.1015,-4.0307e-12,1.164e-05,-8.1204e-07,-6.1013,0.3894
17740,6.7711,1.8182,0,0.00042615,4258.5,0.00014558,0.0043084,0.00013221,-100.44,-0.00042777,-4307.9,0.41653
17741,6.6789,1.7273,0,0.00042906,4287.6,0.00014652,0.0056849,0.00013319,-100.15,-0.00043067,-4336.8,0.40714
17742,6.6789,1.8182,0.05,1.0446e-06,10.439,8.0211e-07,6.0268,-6.4288e-13,7.0483e-06,-8.021e-07,-6.0267,0.40739
17743,6.9553,1.8182,0,0.00042106,4207.7,0.00014348,0.0038496,0.00013124,-91.962,-0.00042255,-4252.9,0.43496
17744,6.8632,1.7273,0,0.00042395,4236.5,0.00014443,0.0049987,0.00013221,-91.817,-0.00042543,-4281.7,0.42542
17745,6.8632,1.8182,0.05,1.0329e-06,10.322,7.9314e-07,5.9593,-4.3638e-12,8.6204e-06,-7.9312e-07,-5.9592,0.42568
17746,7.1396,1.8182,0,0.00041597,4156.9,0.00014142,0.0035264,0.00013022,-84.086,-0.00041734,-4198.3,0.45367
17747,7.0475,1.7273,0,0.00041883,4185.4,0.00014236,0.0044864,0.00013117,-84.054,-0.0004202,-4226.8,0.44399
17748,7.0475,1.8182,0.05,1.0222e-06,10.215,7.8495e-07,5.8978,-6.2836e-12,7.0423e-06,-7.8494e-07,-5.8977,0.44424
17749,7.3239,1.8182,0,0.00041088,4105.9,0.00013937,0.0033072,0.00012916,-76.774,-0.00041213,-4143.8,0.47267
17750,7.2317,1.7273,0,0.00041372,4134.3,0.00014031,0.0041089,0.00013009,-76.829,-0.00041497,-4172.2,0.46285
17751,7.2317,1.8182,0.05,1.0124e-06,10.117,7.7742e-07,5.8413,-2.8023e-12,6.7445e-06,-7.7741e-07,-5.8411,0.4631
17752,7.5081,1.8182,0,0.00040578,4055,0.00013736,0.0031679,0.00012804,-69.991,-0.00040692,-4089.5,0.49194
17753,7.416,1.7273,0,0.0004086,4083.1,0.00013829,0.0038368,0.00012896,-70.11,-0.00040974,-4117.7,0.48198
17754,7.416,1.8182,0.05,1.0033e-06,10.027,7.7045e-07,5.7889,-2.8871e-12,7.8539e-06,-7.7044e-07,-5.7888,0.48224
17755,7.6924,1.8182,0,0.00040067,4004,0.00013536,0.0030899,0.00012689,-63.702,-0.00040172,-4035.4,0.51149
17756,7.6003,1.7273,0,0.00040347,4031.9,0.0001363,0.0036463,0.0001278,-63.869,-0.00040452,-4063.5,0.5014
17757,7.6003,1.8182,0.05,9.9489e-07,9.942,7.6395e-07,5.7401,-6.5796e-12,6.4404e-06,-7.6395e-07,-5.74,0.50165
17758,7.8767,1.8182,0,0.00039556,3952.9,0.00013339,0.0030596,0.00012569,-57.874,-0.00039652,-3981.5,0.53132
17759,7.7845,1.7273,0,0.00039835,3980.7,0.00013432,0.0035203,0.00012659,-58.075,-0.0003993,-4009.4,0.52109
17760,7.7845,1.8182,0.05,9.8695e-07,9.8627,7.5785e-07,5.6943,5.2233e-13,6.4431e-06,-7.5785e-07,-5.6942,0.52134
17761,8.0609,1.8182,0,0.00039046,3901.9,0.00013144,0.0030661,0.00012446,-52.475,-0.00039132,-3927.8,0.55141
17762,7.9688,1.7273,0,0.00039322,3929.5,0.00013237,0.0034448,0.00012535,-52.699,-0.00039409,-3955.6,0.54105
17763,7.9688,1.8182,0.05,9.7946e-07,9.7879,7.5211e-07,5.6511,-3.1192e-12,5.8539e-06,-7.521e-07,-5.651,0.5413
17764,8.2452,1.8182,0,0.00038534,3850.8,0.00012951,0.0031009,0.00012319,-47.475,-0.00038613,-3874.3,0.57177
17765,8.1531,1.7273,0,0.0003881,3878.3,0.00013043,0.0034096,0.00012408,-47.714,-0.00038889,-3901.9,0.56128
17766,8.1531,1.8182,0.05,9.7238e-07,9.7171,7.4667e-07,5.6102,-4.9635e-12,5.4372e-06,-7.4666e-07,-5.6101,0.56153
17767,8.4295,1.8182,0,0.00038023,3799.7,0.00012759,0.0031584,0.00012189,-42.846,-0.00038094,-3821,0.59239
17768,8.3373,1.7273,0,0.00038297,3827.1,0.00012851,0.0034064,0.00012277,-43.094,-0.00038369,-3848.4,0.58178
17769,8.3373,1.8182,0.05,9.6564e-07,9.6497,7.4149e-07,5.5713,-5.0246e-12,5.0421e-06,-7.4149e-07,-5.5712,0.58202
17770,8.6137,1.8182,0,0.00037513,3748.7,0.0001257,0.0032341,0.00012056,-38.562,-0.00037577,-3767.8,0.61327
17771,8.5216,1.7273,0,0.00037785,3775.9,0.00012661,0.0034297,0.00012144,-38.814,-0.00037849,-3795.1,0.60253
17772,8.5216,1.8182,0.05,9.592e-07,9.5854,7.3655e-07,5.5342,-3.2541e-12,5.5709e-06,-7.3655e-07,-5.5341,0.60277
17773,8.798,1.8182,0,0.00037002,3697.6,0.00012382,0.0033242,0.00011921,-34.597,-0.00037059,-3714.8,0.63441
17774,8.7059,1.7273,0,0.00037273,3724.7,0.00012472,0.0034743,0.00012008,-34.849,-0.00037331,-3742,0.62354
17775,8.7059,1.8182,0.05,9.5304e-07,9.5239,7.3182e-07,5.4986,-2.3707e-12,4.4345e-06,-7.3182e-07,-5.4986,0.62378
17776,8.9823,1.8182,0,0.00036492,3646.6,0.00012195,0.0034276,0.00011783,-30.928,-0.00036543,-3662,0.6558
17777,8.8901,1.7273,0,0.00036761,3673.6,0.00012285,0.0035384,0.0001187,-31.177,-0.00036813,-3689.1,0.64481
17778,8.8901,1.8182,0.05,9.4712e-07,9.4647,7.2728e-07,5.4645,-3.3165e-12,4.2435e-06,-7.2727e-07,-5.4644,0.64504
17779,9.1665,1.8182,0,0.00035982,3595.7,0.0001201,0.0035429,0.00011644,-27.533,-0.00036028,-3609.4,0.67743
17780,9.0744,1.7273,0,0.0003625,3622.5,0.000121,0.0036198,0.0001173,-27.777,-0.00036296,-3636.3,0.66632
17781,9.0744,1.8182,0.05,9.4142e-07,9.4077,7.229e-07,5.4316,-2.4535e-12,4.063e-06,-7.2289e-07,-5.4315,0.66655
17782,9.3508,1.8182,0,0.00035472,3544.8,0.00011827,0.0036702,0.00011502,-24.391,-0.00035513,-3556.9,0.69931
17783,9.2587,1.7273,0,0.00035739,3571.5,0.00011916,0.0037175,0.00011588,-24.629,-0.00035781,-3583.7,0.68808
17784,9.2587,1.8182,0.05,9.3592e-07,9.3527,7.1867e-07,5.3999,-3.3847e-12,4.0443e-06,-7.1867e-07,-5.3997,0.68831
17785,9.5351,1.8182,0,0.00034964,3494,0.00011644,0.0038098,0.00011358,-21.484,-0.00035,-3504.6,0.72143
17786,9.4429,1.7273,0,0.0003523,3520.5,0.00011733,0.0038328,0.00011444,-21.714,-0.00035266,-3531.3,0.71009
17787,9.4429,1.8182,0.05,9.3059e-07,9.2995,7.1458e-07,5.3691,-2.5093e-12,3.5995e-06,-7.1458e-07,-5.369,0.71031
17788,9.7193,1.8182,0,0.00034456,3443.2,0.00011463,0.0039671,0.00011213,-18.793,-0.00034487,-3452.6,0.74379
17789,9.6272,1.7273,0,0.00034721,3469.7,0.00011552,0.0039652,0.00011299,-19.015,-0.00034752,-3479.1,0.73233
17790,9.6272,1.8182,0.05,9.2543e-07,9.2479,7.1061e-07,5.3393,-3.4412e-12,4.3304e-06,-7.1061e-07,-5.3392,0.73255
17791,9.9036,1.8182,0,0.00033949,3392.5,0.00011284,0.0041432,0.00011067,-16.302,-0.00033976,-3400.7,0.76638
17792,9.8115,1.7273,0,0.00034212,3418.9,0.00011372,0.004128,0.00011152,-16.516,-0.0003424,-3427.1,0.75481
17793,9.8115,1.8182,0.05,9.2041e-07,9.1977,7.0676e-07,5.3104,-3.468e-12,4.1921e-06,-7.0675e-07,-5.3102,0.75503
17794,10.088,1.8182,0,0.00033443,3342,0.00011105,0.0043409,0.00010919,-13.996,-0.00033466,-3348.9,0.7892
17795,9.9957,1.7273,0,0.00033705,3368.2,0.00011193,0.0043113,0.00011004,-14.202,-0.00033729,-3375.3,0.77752
17796,9.9957,1.8182,0.05,9.1552e-07,9.1489,7.0301e-07,5.2822,-1.6699e-12,3.2487e-06,-7.03e-07,-5.2821,0.77774
17797,10.272,1.8182,0,0.00032938,3291.5,0.00010928,0.0045775,0.0001077,-11.86,-0.00032958,-3297.4,0.81225
17798,10.18,1.7273,0,0.00033199,3317.6,0.00011015,0.0045344,0.00010855,-12.057,-0.00033219,-3323.6,0.80046
17799,10.18,1.8182,0.05,9.1075e-07,9.1013,6.9935e-07,5.2547,-3.5051e-12,4.3666e-06,-6.9934e-07,-5.2546,0.80067
17800,10.456,1.8182,0,0.00032433,3241.1,0.00010752,0.0048432,0.0001062,-9.8808,-0.0003245,-3246,0.83553
17801,10.364,1.7273,0,0.00032694,3267.1,0.00010839,0.0048201,0.00010705,-10.07,-0.00032711,-3272.1,0.82363
17802,10.364,1.8182,0.05,9.061e-07,9.0548,6.9578e-07,5.2278,-2.6096e-12,3.4999e-06,-6.9577e-07,-5.2278,0.82384
17803,10.641,1.8182,0,0.00031931,3190.9,0.00010577,0.0051784,0.0001047,-8.0464,-0.00031944,-3194.9,0.85902
17804,10.549,1.7273,0,0.0003219,3216.8,0.00010663,0.005138,0.00010554,-8.2282,-0.00032204,-3220.9,0.84701
17805,10.549,1.8182,0.05,9.0155e-07,9.0093,6.9228e-07,5.2016,-3.5322e-12,3.8917e-06,-6.9228e-07,-5.2015,0.84722
17806,10.825,1.8182,0,0.00031429,3140.7,0.00010403,0.0056768,0.00010318,-6.3451,-0.0003144,-3143.9,0.88273
17807,10.733,1.7273,0,0.00031687,3166.5,0.00010489,0.0056244,0.00010402,-6.5198,-0.00031698,-3169.8,0.87062
17808,10.733,1.8182,0.05,8.9708e-07,8.9646,6.8885e-07,5.1758,-3.5496e-12,3.518e-06,-6.8884e-07,-5.1757,0.87082
17809,11.009,1.8182,0,0.00030928,3090.7,0.0001023,0.0064062,0.00010167,-4.7665,-0.00030937,-3093.1,0.90666
17810,10.917,1.7273,0,0.00031185,3116.4,0.00010316,0.0063886,0.0001025,-4.9344,-0.00031194,-3118.9,0.89444
17811,10.917,1.8182,0.05,8.927e-07,8.9209,6.8549e-07,5.1505,-2.6544e-12,2.8781e-06,-6.8548e-07,-5.1504,0.89464
17812,11.193,1.8182,0,0.00030429,3040.8,0.00010058,0.007609,0.00010014,-3.3009,-0.00030435,-3042.5,0.93079
17813,11.101,1.7273,0,0.00030685,3066.4,0.00010143,0.0076145,0.00010097,-3.4627,-0.00030691,-3068.1,0.91847
17814,11.101,1.8182,0.05,8.8841e-07,8.878,6.8219e-07,5.1257,-1.7578e-12,2.5702e-06,-6.8219e-07,-5.1257,0.91867
17815,11.378,1.8182,0,0.00029932,2991.1,9.8872e-05,0.010234,9.8612e-05,-1.94,-0.00029935,-2992.1,0.95513
17816,11.286,1.7273,0,0.00030187,3016.6,9.972e-05,0.01021,9.944e-05,-2.0961,-0.0003019,-3017.6,0.94271
17817,11.286,1.8182,0.05,8.842e-07,8.8359,6.7896e-07,5.1014,-2.6791e-12,2.1544e-06,-6.7895e-07,-5.1014,0.94291
17818,11.562,1.8182,0,0.00029435,2941.5,9.7173e-05,0.021721,9.7079e-05,-0.68274,-0.00029437,-2941.8,0.97967
17819,11.47,1.7273,0,0.00029689,2966.9,9.8018e-05,0.019977,9.7904e-05,-0.83222,-0.00029691,-2967.3,0.96716
17820,11.47,1.8182,0.05,8.8004e-07,8.7944,6.7577e-07,5.0775,-1.7817e-12,2.2369e-06,-6.7576e-07,-5.0774,0.96735
17821,11.746,1.8182,0,0.00028941,2892.1,9.555e-05,0.53963,9.5476e-05,-0.018533,-0.0002894,-2891.8,1.0044
17822,11.654,1.7273,0,0.00029193,2917.3,9.6374e-05,0.40413,9.6316e-05,-0.029965,-0.00029193,-2917.1,0.99181
17823,11.654,1.8182,0.05,8.7594e-07,8.7534,6.7262e-07,5.0538,-2.7013e-12,2.3317e-06,-6.7261e-07,-5.0537,0.992
17824,11.931,1.8182,0,0.00028447,2842.8,9.4013e-05,1.6271,9.3796e-05,-0.003246,-0.00028445,-2842,1.0294
17825,11.838,1.7273,0,0.00028699,2867.9,9.4832e-05,1.4859,9.4633e-05,-0.0051858,-0.00028697,-2867.2,1.0167
17826,11.838,1.8182,0.05,8.719e-07,8.713,6.6951e-07,5.0305,-8.913e-13,2.0328e-06,-6.6951e-07,-5.0304,1.0168
17827,12.115,1.8182,0,0.00027956,2793.6,9.2476e-05,2.6545,9.2122e-05,-0.00027002,-0.00027951,-2792.3,1.0545
17828,12.023,1.7273,0,0.00028206,2818.7,9.3291e-05,2.5154,9.2957e-05,-0.0013751,-0.00028202,-2817.4,1.0417
17829,12.023,1.8182,0.05,8.6793e-07,8.6733,6.6646e-07,5.0076,-2.7193e-12,2.4528e-06,-6.6646e-07,-5.0075,1.0419
17830,12.299,1.8182,0,0.00027466,2744.7,9.0939e-05,3.6176,9.0457e-05,0.001009,-0.00027459,-2742.9,1.0798
17831,12.207,1.7273,0,0.00027715,2769.6,9.1751e-05,3.4806,9.1288e-05,0.00018149,-0.00027709,-2767.9,1.0669
17832,12.207,1.8182,0.05,8.64e-07,8.6341,6.6345e-07,4.9849,-2.7278e-12,2.4044e-06,-6.6344e-07,-4.9849,1.0671
17833,12.483,1.8182,0,0.00026977,2695.9,8.9402e-05,4.5214,8.8801e-05,0.0017422,-0.00026969,-2693.6,1.1053
17834,12.391,1.7273,0,0.00027226,2720.7,9.0212e-05,4.3858,8.9628e-05,0.0010176,-0.00027218,-2718.5,1.0923
17835,12.391,1.8182,0.05,8.6012e-07,8.5952,6.6047e-07,4.9625,-9.1655e-13,1.3225e-06,-6.6046e-07,-4.9624,1.0925
17836,12.668,1.8182,0,0.0002649,2647.2,8.7867e-05,5.3713,8.7152e-05,0.0022646,-0.00026481,-2644.5,1.131
17837,12.575,1.7273,0,0.00026738,2672,8.8673e-05,5.2364,8.7976e-05,0.0015865,-0.00026729,-2669.3,1.1179
17838,12.575,1.8182,0.05,8.5627e-07,8.5567,6.5751e-07,4.9403,-1.8334e-12,5.7153e-07,-6.5751e-07,-4.9402,1.1181
17839,12.852,1.8182,0,0.00026005,2598.7,8.6333e-05,6.1723,8.5512e-05,0.0026585,-0.00025995,-2595.6,1.1569
17840,12.76,1.7273,0,0.00026252,2623.4,8.7135e-05,6.0375,8.6332e-05,0.0020343,-0.00026242,-2620.4,1.1437
17841,12.76,1.8182,0.05,8.5246e-07,8.5188,6.5459e-07,4.9183,-2.7498e-12,1.3167e-06,-6.5459e-07,-4.9183,1.1439
17842,13.036,1.8182,0,0.00025522,2550.4,8.4801e-05,6.9296,8.3879e-05,0.0029571,-0.0002551,-2547,1.1829
17843,12.944,1.7273,0,0.00025768,2575,8.56e-05,6.794,8.4696e-05,0.0023587,-0.00025756,-2571.6,1.1697
17844,12.944,1.8182,0.05,8.4871e-07,8.4812,6.517e-07,4.8967,-1.846e-12,1.5878e-06,-6.517e-07,-4.8966,1.1699
17845,13.22,1.8182,0,0.0002504,2502.3,8.3272e-05,7.6477,8.2254e-05,0.00319,-0.00025027,-2498.5,1.2092
17846,13.128,1.7273,0,0.00025285,2526.7,8.4067e-05,7.5105,8.3068e-05,0.0026193,-0.00025272,-2523,1.1958
17847,13.128,1.8182,0.05,8.4498e-07,8.444,6.4885e-07,4.8752,-2.7616e-12,2.4667e-06,-6.4884e-07,-4.8751,1.196
17848,13.405,1.8182,0,0.00024561,2454.4,8.1745e-05,8.3311,8.0637e-05,0.0033923,-0.00024546,-2450.2,1.2355
17849,13.313,1.7273,0,0.00024804,2478.7,8.2537e-05,8.1915,8.1447e-05,0.0028136,-0.0002479,-2474.6,1.2221
17850,13.313,1.8182,0.05,8.4129e-07,8.4071,6.4601e-07,4.8539,-2.7652e-12,2.1959e-06,-6.4601e-07,-4.8538,1.2223
17851,13.589,1.8182,0,0.00024083,2406.6,8.0222e-05,8.9842,7.9027e-05,0.0036045,-0.00024067,-2402.1,1.2621
17852,13.497,1.7273,0,0.00024325,2430.8,8.1011e-05,8.8411,7.9834e-05,0.0030133,-0.0002431,-2426.4,1.2486
17853,13.497,1.8182,0.05,8.3762e-07,8.3704,6.4319e-07,4.8327,-3.6797e-12,1.9875e-06,-6.4318e-07,-4.8326,1.2488
17854,13.773,1.8182,0,0.00023606,2359,7.8703e-05,9.6108,7.7425e-05,0.0038035,-0.0002359,-2354.2,1.2888
17855,13.681,1.7273,0,0.00023848,2383.1,7.9488e-05,9.4634,7.8229e-05,0.0032274,-0.00023832,-2378.4,1.2753
17856,13.681,1.8182,0.05,8.3399e-07,8.3341,6.404e-07,4.8117,-2.7695e-12,8.701e-07,-6.404e-07,-4.8117,1.2754
17857,13.957,1.8182,0,0.00023132,2311.6,7.7189e-05,10.215,7.583e-05,0.0039742,-0.00023114,-2306.5,1.3157
17858,13.865,1.7273,0,0.00023372,2335.6,7.7969e-05,10.062,7.663e-05,0.0034001,-0.00023355,-2330.6,1.3021
17859,13.865,1.8182,0.05,8.3039e-07,8.2982,6.3764e-07,4.791,-3.6833e-12,8.6529e-07,-6.3763e-07,-4.7909,1.3022
17860,14.142,1.8182,0,0.0002266,2264.4,7.5678e-05,10.8,7.4241e-05,0.0041234,-0.00022641,-2259,1.3427
17861,14.05,1.7273,0,0.00022899,2288.3,7.6455e-05,10.641,7.5039e-05,0.003558,-0.00022881,-2283,1.329
17862,14.05,1.8182,0.05,8.2682e-07,8.2625,6.349e-07,4.7704,-2.7778e-12,9.5631e-07,-6.3489e-07,-4.7703,1.3292
17863,14.326,1.8182,0,0.00022189,2217.4,7.4173e-05,11.37,7.266e-05,0.0042708,-0.0002217,-2211.7,1.3699
17864,14.234,1.7273,0,0.00022427,2241.2,7.4946e-05,11.203,7.3455e-05,0.0036859,-0.00022408,-2235.6,1.3561
17865,14.234,1.8182,0.05,8.2328e-07,8.2271,6.3217e-07,4.7499,-2.78e-12,5.5345e-07,-6.3217e-07,-4.7499,1.3563
17866,14.51,1.8182,0,0.0002172,2170.5,7.2673e-05,11.928,7.1086e-05,0.004444,-0.000217,-2164.6,1.3973
17867,14.418,1.7273,0,0.00021958,2194.3,7.3442e-05,11.753,7.1878e-05,0.0038386,-0.00021937,-2188.4,1.3834
17868,14.418,1.8182,0.05,8.1975e-07,8.1918,6.2946e-07,4.7296,-1.8723e-12,1.5095e-06,-6.2946e-07,-4.7295,1.3836
17869,14.695,1.8182,0,0.00021254,2123.9,7.1179e-05,12.478,6.9519e-05,0.0046191,-0.00021232,-2117.6,1.4248
17870,14.602,1.7273,0,0.0002149,2147.5,7.1943e-05,12.293,7.0307e-05,0.0040189,-0.00021469,-2141.3,1.4108
17871,14.602,1.8182,0.05,8.1625e-07,8.1569,6.2678e-07,4.7094,-1.8714e-12,2.9398e-06,-6.2678e-07,-4.7093,1.411
17872,14.879,1.8182,0,0.00020789,2077.5,6.9691e-05,13.023,6.7958e-05,0.0047784,-0.00020767,-2070.9,1.4524
17873,14.787,1.7273,0,0.00021024,2101,7.045e-05,12.826,6.8744e-05,0.0041737,-0.00021002,-2094.5,1.4384
17874,14.787,1.8182,0.05,8.1279e-07,8.1223,6.2412e-07,4.6894,-1.8723e-12,4.8119e-06,-6.2412e-07,-4.6894,1.4385
17875,15.063,1.8182,0,0.00020326,2031.2,6.8209e-05,13.567,6.6404e-05,0.0049268,-0.00020303,-2024.4,1.4802
17876,14.971,1.7273,0,0.0002056,2054.6,6.8964e-05,13.356,6.7187e-05,0.0043228,-0.00020537,-2047.9,1.4661
17877,14.971,1.8182,0.05,8.0935e-07,8.0879,6.2148e-07,4.6696,-1.873e-12,4.0394e-06,-6.2148e-07,-4.6695,1.4662
17878,15.247,1.8182,0,0.00019866,1985.2,6.6734e-05,14.112,6.4857e-05,0.0050809,-0.00019841,-1978.1,1.5081
17879,15.155,1.7273,0,0.00020099,2008.5,6.7484e-05,13.887,6.5637e-05,0.0044542,-0.00020075,-2001.5,1.4939
17880,15.155,1.8182,0.05,8.0593e-07,8.0538,6.1886e-07,4.6499,-1.8708e-12,5.8083e-06,-6.1885e-07,-4.6498,1.4941
17881,15.432,1.8182,0,0.00019407,1939.4,6.5266e-05,14.662,6.3316e-05,0.005264,-0.00019382,-1932,1.5361
17882,15.339,1.7273,0,0.00019639,1962.5,6.6011e-05,14.42,6.4093e-05,0.0046136,-0.00019614,-1955.3,1.5219
17883,15.339,1.8182,0.05,8.0253e-07,8.0198,6.1625e-07,4.6303,-1.8735e-12,5.0463e-06,-6.1624e-07,-4.6302,1.5221
17884,15.616,1.8182,0,0.0001895,1893.7,6.3806e-05,15.22,6.1781e-05,0.0054536,-0.00018924,-1886.1,1.5643
17885,15.524,1.7273,0,0.00019181,1916.8,6.4546e-05,14.96,6.2555e-05,0.0048036,-0.00019155,-1909.3,1.55
17886,15.524,1.8182,0.05,7.9917e-07,7.9862,6.1366e-07,4.6108,-9.7325e-13,4.189e-06,-6.1366e-07,-4.6108,1.5502
17887,15.8,1.8182,0,0.00018496,1848.3,6.2353e-05,15.79,6.0252e-05,0.0056363,-0.00018468,-1840.3,1.5926
17888,15.708,1.7273,0,0.00018725,1871.2,6.3088e-05,15.51,6.1024e-05,0.0049756,-0.00018698,-1863.4,1.5783
17889,15.708,1.8182,0.05,7.9583e-07,7.9528,6.111e-07,4.5916,-9.7341e-13,3.4244e-06,-6.111e-07,-4.5915,1.5784
17890,15.984,1.8182,0,0.00018043,1803.1,6.0909e-05,16.375,5.873e-05,0.0058155,-0.00018015,-1794.8,1.621
17891,15.892,1.7273,0,0.00018272,1825.9,6.1637e-05,16.072,5.9499e-05,0.0051499,-0.00018244,-1817.8,1.6067
17892,15.892,1.8182,0.05,7.9252e-07,7.9197,6.0856e-07,4.5725,-1.8921e-12,4.5877e-06,-6.0856e-07,-4.5724,1.6068
17893,16.169,1.8182,0,0.00017593,1758.1,5.9472e-05,16.978,5.7214e-05,0.0060038,-0.00017563,-1749.5,1.6496
17894,16.077,1.7273,0,0.0001782,1780.8,6.0195e-05,16.651,5.798e-05,0.0053125,-0.00017791,-1772.4,1.6352
17895,16.077,1.8182,0.05,7.8924e-07,7.8869,6.0604e-07,4.5535,-1.4376e-12,5.1857e-06,-6.0603e-07,-4.5535,1.6353
17896,16.353,1.8182,0,0.00017144,1713.3,5.8045e-05,17.604,5.5703e-05,0.0062232,-0.00017114,-1704.4,1.6782
17897,16.261,1.7273,0,0.00017371,1735.9,5.8762e-05,17.249,5.6467e-05,0.0055059,-0.00017341,-1727.2,1.6638
17898,16.261,1.8182,0.05,7.8597e-07,7.8543,6.0353e-07,4.5347,-9.8337e-13,5.759e-06,-6.0353e-07,-4.5347,1.6639
17899,16.537,1.8182,0,0.00016698,1668.7,5.6627e-05,18.255,5.4198e-05,0.0064551,-0.00016667,-1659.5,1.707
17900,16.445,1.7273,0,0.00016923,1691.2,5.7337e-05,17.87,5.496e-05,0.0057322,-0.00016892,-1682.1,1.6925
17901,16.445,1.8182,0.05,7.8275e-07,7.8221,6.0105e-07,4.5161,-9.945e-13,6.1453e-06,-6.0105e-07,-4.516,1.6926
17902,16.721,1.8182,0,0.00016254,1624.3,5.5219e-05,18.937,5.2699e-05,0.0066879,-0.00016221,-1614.8,1.7359
17903,16.629,1.7273,0,0.00016478,1646.7,5.5922e-05,18.519,5.3458e-05,0.0059485,-0.00016446,-1637.3,1.7213
17904,16.629,1.8182,0.05,7.7955e-07,7.7902,5.986e-07,4.4977,-1.9118e-12,7.3055e-06,-5.986e-07,-4.4976,1.7215
17905,16.906,1.8182,0,0.00015813,1580.2,5.382e-05,19.652,5.1206e-05,0.0069224,-0.00015778,-1570.2,1.7649
17906,16.814,1.7273,0,0.00016035,1602.4,5.4517e-05,19.198,5.1962e-05,0.0061725,-0.00016002,-1592.7,1.7503
17907,16.814,1.8182,0.05,7.7639e-07,7.7586,5.9618e-07,4.4795,-1.4528e-12,6.1154e-06,-5.9617e-07,-4.4794,1.7504
17908,17.09,1.8182,0,0.00015373,1536.2,5.2432e-05,20.406,4.9717e-05,0.0071723,-0.00015337,-1525.9,1.7941
17909,16.998,1.7273,0,0.00015594,1558.3,5.3121e-05,19.911,5.0472e-05,0.006392,-0.00015559,-1548.3,1.7794
17910,16.998,1.8182,0.05,7.7327e-07,7.7273,5.9378e-07,4.4614,-5.5673e-13,6.3148e-06,-5.9377e-07,-4.4614,1.7795
17911,17.274,1.8182,0,0.00014936,1492.5,5.1055e-05,21.202,4.8234e-05,0.0074583,-0.00014898,-1481.8,1.8233
17912,17.182,1.7273,0,0.00015156,1514.5,5.1736e-05,20.664,4.8987e-05,0.006647,-0.00015119,-1504.1,1.8085
17913,17.182,1.8182,0.05,7.7017e-07,7.6964,5.914e-07,4.4435,-1.9124e-12,6.2727e-06,-5.9139e-07,-4.4435,1.8086
17914,17.459,1.8182,0,0.00014501,1449.1,4.969e-05,22.046,4.6756e-05,0.0077623,-0.00014462,-1437.9,1.8526
17915,17.366,1.7273,0,0.00014719,1470.9,5.0362e-05,21.46,4.7507e-05,0.006937,-0.00014682,-1460.1,1.8378
17916,17.366,1.8182,0.05,7.6712e-07,7.6659,5.8906e-07,4.4259,-5.5348e-13,5.6924e-06,-5.8905e-07,-4.4259,1.8379
17917,17.643,1.8182,0,0.00014068,1405.8,4.8336e-05,22.942,4.5283e-05,0.0080753,-0.00014027,-1394.2,1.882
17918,17.551,1.7273,0,0.00014285,1427.5,4.9e-05,22.303,4.6032e-05,0.0072272,-0.00014246,-1416.2,1.8672
17919,17.551,1.8182,0.05,7.6412e-07,7.6359,5.8675e-07,4.4086,-1.4768e-12,7.2801e-06,-5.8674e-07,-4.4085,1.8673
17920,17.827,1.8182,0,0.00013637,1362.8,4.6995e-05,23.897,4.3815e-05,0.0083998,-0.00013595,-1350.7,1.9115
17921,17.735,1.7273,0,0.00013853,1384.4,4.7649e-05,23.2,4.4563e-05,0.0075326,-0.00013812,-1372.6,1.8967
17922,17.735,1.8182,0.05,7.6116e-07,7.6063,5.8447e-07,4.3915,-1.0301e-12,5.8078e-06,-5.8447e-07,-4.3915,1.8968
17923,18.011,1.8182,0,0.00013209,1320,4.5666e-05,24.915,4.2352e-05,0.0087486,-0.00013165,-1307.4,1.9411
17924,17.919,1.7273,0,0.00013424,1341.5,4.6311e-05,24.155,4.3097e-05,0.0078454,-0.00013381,-1329.2,1.9262
17925,17.919,1.8182,0.05,7.5824e-07,7.5772,5.8224e-07,4.3747,-1.4887e-12,6.9538e-06,-5.8223e-07,-4.3747,1.9263
17926,18.196,1.8182,0,0.00012784,1277.5,4.4352e-05,26.002,4.0893e-05,0.009141,-0.00012737,-1264.3,1.9708
17927,18.103,1.7273,0,0.00012997,1298.8,4.4986e-05,25.175,4.1637e-05,0.0081986,-0.00012952,-1286,1.9559
17928,18.103,1.8182,0.05,7.5537e-07,7.5485,5.8004e-07,4.3582,-1.0468e-12,8.0465e-06,-5.8003e-07,-4.3581,1.956
17929,18.38,1.8182,0,0.00012361,1235.2,4.3052e-05,27.166,3.9437e-05,0.009563,-0.00012312,-1221.4,2.0006
17930,18.288,1.7273,0,0.00012572,1256.3,4.3675e-05,26.264,4.0181e-05,0.0085958,-0.00012525,-1243,1.9856
17931,18.288,1.8182,0.05,7.5257e-07,7.5205,5.7788e-07,4.342,-1.0507e-12,8.8419e-06,-5.7788e-07,-4.3419,1.9857
17932,18.564,1.8182,0,0.0001194,1193.2,4.1767e-05,28.413,3.7986e-05,0.010007,-0.00011889,-1178.7,2.0305
17933,18.472,1.7273,0,0.0001215,1214.1,4.2378e-05,27.429,3.8728e-05,0.0090073,-0.00012101,-1200.2,2.0154
17934,18.472,1.8182,0.05,7.4983e-07,7.4931,5.7578e-07,4.3262,-1.0762e-12,1.2109e-05,-5.7577e-07,-4.3261,2.0155
17935,18.748,1.8182,0,0.00011522,1151.4,4.0497e-05,29.75,3.6539e-05,0.010479,-0.00011468,-1136.2,2.0604
17936,18.656,1.7273,0,0.0001173,1172.2,4.1096e-05,28.678,3.728e-05,0.0094455,-0.00011678,-1157.6,2.0454
17937,18.656,1.8182,0.05,7.4716e-07,7.4664,5.7372e-07,4.3107,-1.6995e-13,8.9568e-06,-5.7372e-07,-4.3107,2.0454
17938,18.933,1.8182,0,0.00011106,1109.8,3.9244e-05,31.187,3.5095e-05,0.01099,-0.0001105,-1093.9,2.0905
17939,18.841,1.7273,0,0.00011313,1130.5,3.9829e-05,30.017,3.5836e-05,0.0099089,-0.00011259,-1115.2,2.0753
17940,18.841,1.8182,0.05,7.4455e-07,7.4404,5.7172e-07,4.2957,-6.5185e-13,6.8675e-06,-5.7172e-07,-4.2957,2.0754
17941,19.117,1.8182,0,0.00010693,1068.6,3.8009e-05,32.73,3.3654e-05,0.011559,-0.00010634,-1051.8,2.1206
17942,19.025,1.7273,0,0.00010898,1089,3.858e-05,31.454,3.4395e-05,0.010426,-0.00010841,-1073,2.1054
17943,19.025,1.8182,0.05,7.4202e-07,7.4151,5.6978e-07,4.2811,-1.1257e-12,8.6198e-06,-5.6978e-07,-4.2811,2.1055
17944,19.301,1.8182,0,0.00010283,1027.6,3.6792e-05,34.39,3.2216e-05,0.01218,-0.0001022,-1009.9,2.1507
17945,19.209,1.7273,0,0.00010486,1047.9,3.7347e-05,32.999,3.2957e-05,0.011004,-0.00010426,-1031,2.1355
17946,19.209,1.8182,0.05,7.3958e-07,7.3907,5.6791e-07,4.2671,-2.3891e-13,7.6672e-06,-5.6791e-07,-4.267,2.1356
17947,19.485,1.8182,0,9.8753e-05,986.85,3.5594e-05,36.176,3.0781e-05,0.012847,-9.8087e-05,-968.25,2.181
17948,19.393,1.7273,0,0.00010076,1006.9,3.6133e-05,34.66,3.1521e-05,0.01162,-0.00010013,-989.16,2.1658
17949,19.393,1.8182,0.05,7.3724e-07,7.3674,5.6611e-07,4.2536,-1.1841e-12,8.2068e-06,-5.6611e-07,-4.2535,2.1658
17950,19.67,1.8182,0,9.4706e-05,946.41,3.4417e-05,38.1,2.9348e-05,0.013572,-9.4e-05,-926.78,2.2113
17951,19.578,1.7273,0,9.6697e-05,966.3,3.4938e-05,36.447,3.0089e-05,0.01229,-9.6025e-05,-947.56,2.196
17952,19.578,1.8182,0.05,7.3501e-07,7.345,5.644e-07,4.2407,-7.4734e-13,7.5366e-06,-5.6439e-07,-4.2406,2.1961
17953,19.854,1.8182,0,9.0689e-05,906.26,3.3261e-05,40.172,2.7916e-05,0.014371,-8.9938e-05,-885.5,2.2416
17954,19.762,1.7273,0,9.2658e-05,925.94,3.3763e-05,38.371,2.8658e-05,0.013017,-9.1946e-05,-906.15,2.2264
17955,19.762,1.8182,0.05,7.3288e-07,7.3238,5.6276e-07,4.2284,-7.7102e-13,6.2606e-06,-5.6276e-07,-4.2284,2.2264
17956,20.038,1.8182,0,8.6701e-05,866.41,3.2128e-05,42.406,2.6486e-05,0.015262,-8.5902e-05,-844.42,2.2721
17957,19.946,1.7273,0,8.8648e-05,885.87,3.261e-05,40.443,2.7229e-05,0.013831,-8.7891e-05,-864.95,2.2568
17958,19.946,1.8182,0.05,7.3088e-07,7.3038,5.6123e-07,4.2169,-7.6646e-13,2.9165e-06,-5.6122e-07,-4.2168,2.2568
17959,20.223,1.8182,0,8.2745e-05,826.88,3.102e-05,44.815,2.5057e-05,0.016251,-8.1891e-05,-803.55,2.3026
17960,20.13,1.7273,0,8.4669e-05,846.1,3.1479e-05,42.676,2.5801e-05,0.014744,-8.3862e-05,-823.95,2.2872
17961,20.13,1.8182,0.05,7.2902e-07,7.2852,5.598e-07,4.2061,-1.2381e-12,4.2404e-06,-5.598e-07,-4.2061,2.2873
17962,20.407,1.8182,0,7.8821e-05,787.66,2.9936e-05,47.414,2.3628e-05,0.017342,-7.7907e-05,-762.88,2.3331
17963,20.315,1.7273,0,8.072e-05,806.64,3.0373e-05,45.084,2.4374e-05,0.015746,-7.9858e-05,-783.15,2.3177
17964,20.315,1.8182,0.05,7.2732e-07,7.2682,5.5849e-07,4.1963,-7.9392e-13,6.5386e-06,-5.5849e-07,-4.1963,2.3178
17965,20.591,1.8182,0,7.493e-05,748.78,2.888e-05,50.219,2.2199e-05,0.018557,-7.3949e-05,-722.4,2.3637
17966,20.499,1.7273,0,7.6803e-05,767.5,2.9292e-05,47.681,2.2948e-05,0.016865,-7.588e-05,-742.54,2.3483
17967,20.499,1.8182,0.05,7.2579e-07,7.2529,5.5732e-07,4.1875,-7.3733e-13,6.948e-06,-5.5732e-07,-4.1874,2.3484
17968,20.775,1.8182,0,7.1075e-05,710.26,2.7853e-05,53.247,2.0769e-05,0.019926,-7.0019e-05,-682.13,2.3943
17969,20.683,1.7273,0,7.292e-05,728.69,2.8238e-05,50.484,2.1521e-05,0.018111,-7.1929e-05,-702.13,2.3789
17970,20.683,1.8182,0.05,7.2445e-07,7.2395,5.5629e-07,4.1798,-7.207e-13,7.9357e-06,-5.5629e-07,-4.1797,2.379
17971,20.96,1.8182,0,6.7257e-05,672.1,2.6857e-05,56.518,1.9338e-05,0.021483,-6.6116e-05,-642.05,2.425
17972,20.867,1.7273,0,6.9072e-05,690.24,2.7213e-05,53.511,2.0093e-05,0.019534,-6.8005e-05,-661.92,2.4096
17973,20.867,1.8182,0.05,7.2333e-07,7.2283,5.5543e-07,4.1733,-9.4937e-13,6.5646e-06,-5.5542e-07,-4.1732,2.4097
17974,21.144,1.8182,0,6.3478e-05,634.34,2.5894e-05,60.052,1.7904e-05,0.023258,-6.2242e-05,-602.17,2.4558
17975,21.052,1.7273,0,6.5261e-05,652.16,2.6218e-05,56.781,1.8664e-05,0.021157,-6.4109e-05,-621.9,2.4403
17976,21.052,1.8182,0.05,7.2245e-07,7.2195,5.5475e-07,4.1682,-9.9888e-13,5.7559e-06,-5.5475e-07,-4.1681,2.4404
17977,21.328,1.8182,0,5.9741e-05,596.99,2.4965e-05,63.873,1.6468e-05,0.025292,-5.8397e-05,-562.48,2.4865
17978,21.236,1.7273,0,6.1489e-05,614.47,2.5257e-05,60.315,1.7232e-05,0.023014,-6.024e-05,-582.08,2.4711
17979,21.236,1.8182,0.05,7.2184e-07,7.2134,5.5429e-07,4.1647,-1.2713e-12,2.4249e-06,-5.5428e-07,-4.1647,2.4711
17980,21.512,1.8182,0,5.6048e-05,560.1,2.4074e-05,68.004,1.5027e-05,0.027641,-5.4581e-05,-522.98,2.5174
17981,21.42,1.7273,0,5.776e-05,577.2,2.433e-05,64.138,1.5797e-05,0.025156,-5.64e-05,-542.44,2.5019
17982,21.42,1.8182,0.05,7.2155e-07,7.2105,5.5406e-07,4.163,-1.0931e-12,3.4486e-07,-5.5406e-07,-4.163,2.5019
17983,21.697,1.8182,0,5.2405e-05,523.69,2.3223e-05,72.473,1.3582e-05,0.030389,-5.0794e-05,-483.67,2.5482
17984,21.605,1.7273,0,5.4076e-05,540.39,2.3442e-05,68.276,1.4358e-05,0.027645,-5.259e-05,-503,2.5327
17985,21.605,1.8182,0.05,7.2161e-07,7.2111,5.5411e-07,4.1633,-1.2991e-12,-1.0195e-06,-5.541e-07,-4.1633,2.5328
17986,21.881,1.8182,0,4.8815e-05,487.82,2.2415e-05,77.31,1.213e-05,0.033648,-4.7038e-05,-444.53,2.5791
17987,21.789,1.7273,0,5.0443e-05,504.08,2.2594e-05,72.757,1.2914e-05,0.030591,-4.8809e-05,-463.74,2.5636
17988,21.789,1.8182,0.05,7.2207e-07,7.2158,5.5446e-07,4.166,-1.2071e-12,5.3316e-06,-5.5446e-07,-4.166,2.5636
17989,22.065,1.8182,0,4.5286e-05,452.54,2.1652e-05,82.546,1.0671e-05,0.037556,-4.3313e-05,-405.57,2.61
17990,21.973,1.7273,0,4.6865e-05,468.33,2.1789e-05,77.613,1.1464e-05,0.034112,-4.506e-05,-424.66,2.5945
17991,21.973,1.8182,0.05,7.2301e-07,7.2251,5.5518e-07,4.1714,-1.055e-12,4.8027e-06,-5.5518e-07,-4.1714,2.5946
17992,22.249,1.8182,0,4.1823e-05,417.94,2.0938e-05,88.214,9.2032e-06,0.042309,-3.9618e-05,-366.78,2.641
17993,22.157,1.7273,0,4.335e-05,433.2,2.1031e-05,82.879,1.0006e-05,0.038368,-4.1341e-05,-385.76,2.6255
17994,22.157,1.8182,0.05,7.2449e-07,7.2399,5.5632e-07,4.18,-1.2974e-12,7.5123e-06,-5.5632e-07,-4.1799,2.6255
17995,22.434,1.8182,0,3.8438e-05,384.11,2.0276e-05,94.349,7.725e-06,0.048227,-3.5953e-05,-328.13,2.672
17996,22.342,1.7273,0,3.9906e-05,398.78,2.0324e-05,88.592,8.5384e-06,0.043599,-3.7653e-05,-347.02,2.6564
17997,22.342,1.8182,0.05,7.266e-07,7.261,5.5794e-07,4.1922,-5.0888e-13,5.5578e-06,-5.5794e-07,-4.1921,2.6565
17998,22.618,1.8182,0,3.5143e-05,351.19,1.9668e-05,100.99,6.2346e-06,0.055717,-3.2318e-05,-289.61,2.703
17999,22.526,1.7273,0,3.6545e-05,365.19,1.9669e-05,94.791,7.0603e-06,0.050215,-3.3997e-05,-308.44,2.6874
18000,22.526,1.8182,0.05,7.2945e-07,7.2894,5.6012e-07,4.2086,-7.6499e-13,1.4957e-06,-5.6012e-07,-4.2085,2.6874
18001,22.802,1.8182,0,3.1956e-05,319.34,1.9116e-05,108.16,4.7301e-06,0.065775,-2.8711e-05,-251.2,2.734
18002,22.71,1.7273,0,3.3282e-05,332.59,1.9072e-05,101.51,5.5693e-06,0.058646,-3.0372e-05,-269.99,2.7184
18003,22.71,1.8182,0.05,7.3313e-07,7.3263,5.6296e-07,4.2298,-6.572e-13,-2.3115e-06,-5.6295e-07,-4.2298,2.7185
18004,22.987,1.8182,0,2.8901e-05,288.81,1.8624e-05,115.9,3.2095e-06,0.078792,-2.5129e-05,-212.85,2.765
18005,22.894,1.7273,0,3.0138e-05,301.17,1.8535e-05,108.8,4.0635e-06,0.0705,-2.6775e-05,-231.64,2.7495
18006,22.894,1.8182,0.05,7.3779e-07,7.3728,5.6653e-07,4.2567,-1.1081e-12,-2.235e-06,-5.6653e-07,-4.2567,2.7495
18007,23.171,1.8182,0,2.6012e-05,259.94,1.8191e-05,124.22,1.6709e-06,0.10094,-2.1569e-05,-174.52,2.7961
18008,23.079,1.7273,0,2.7143e-05,271.24,1.8059e-05,116.68,2.5405e-06,0.085071,-2.3205e-05,-193.36,2.7805
18009,23.079,1.8182,0.05,7.4354e-07,7.4302,5.7095e-07,4.2899,-5.2622e-13,-2.7774e-07,-5.7094e-07,-4.2898,2.7805
18010,23.355,1.8182,0,2.3338e-05,233.22,1.7816e-05,133.15,1.1133e-07,0.12306,-1.8025e-05,-136.15,2.8272
18011,23.263,1.7273,0,2.4336e-05,243.19,1.7645e-05,125.19,9.9878e-07,0.11574,-1.9657e-05,-155.09,2.8116
18012,23.263,1.8182,0.05,7.5048e-07,7.4996,5.7628e-07,4.3299,-9.5382e-13,-2.1645e-06,-5.7628e-07,-4.3299,2.8116
18013,23.539,1.8182,0,2.095e-05,209.36,1.7498e-05,142.7,-1.4651e-06,0.21755,-1.4493e-05,-97.672,2.8583
18014,23.447,1.7273,0,2.1777e-05,217.62,1.7293e-05,134.32,-5.6646e-07,0.13198,-1.6125e-05,-116.77,2.8427
18015,23.447,1.8182,0.05,7.5867e-07,7.5814,5.8256e-07,4.3772,-4.4235e-13,-3.5945e-06,-5.8256e-07,-4.3771,2.8427
18016,23.724,1.8182,0,1.8948e-05,189.35,1.7236e-05,152.8,-3.073e-06,0.20793,-1.0968e-05,-59.111,2.8893
18017,23.631,1.7273,0,1.9553e-05,195.39,1.7e-05,144.14,-2.1421e-06,0.31398,-1.2608e-05,-78.32,2.8738
18018,23.631,1.8182,0.05,7.6844e-07,7.6791,5.9007e-07,4.4335,-9.0342e-13,-3.5811e-06,-5.9007e-07,-4.4335,2.8738
18019,23.816,1.7273,0,1.7785e-05,177.73,1.6767e-05,154.45,-3.7652e-06,0.17346,-9.0989e-06,-39.902,2.9049
18020,23.816,1.8182,0.05,7.8601e-07,7.8547,6.0356e-07,4.5349,-8.2304e-13,-3.0982e-06,-6.0356e-07,-4.5349,2.9049
18021,23.908,1.8182,0,1.7499e-05,174.86,1.701e-05,162.7,-4.588e-06,0.42377,-7.6371e-06,-22.486,2.9205
18022,1.2431,1.6364,0,0.0009286,9279.6,0.00057698,3439.9,0.00012139,16.749,-0.00082114,-7065,0.015749
18023,1.1509,1.5455,0,0.00092168,9210.4,0.00062141,4071.8,7.8773e-05,-5.3687,-0.00078208,-6473.5,0.01102
18024,1.1509,1.6364,0.05,5.6007e-05,559.68,4.3006e-05,323.13,6.3827e-11,0.00065081,-4.3006e-05,-323.13,0.011742
18025,1.0588,1.6364,0,0.00083545,8348.7,0.00057244,3875.4,7.0323e-05,102.66,-0.00070114,-5693.8,0.0082281
18026,1.4273,1.6364,0,0.0007944,7938.6,0.00040997,1829.5,0.0001658,-5.1017,-0.00074729,-6865.7,0.023662
18027,1.3352,1.5455,0,0.0007747,7741.7,0.00043825,2288.8,0.00013402,2.8935,-0.00070996,-6338.4,0.018911
18028,1.3352,1.6364,0.05,2.3304e-05,232.88,1.7895e-05,134.45,8.078e-11,0.00084535,-1.7895e-05,-134.45,0.019528
18029,1.6116,1.6364,0,0.00071456,7140.7,0.00031407,949.73,0.00018629,-10.432,-0.00069372,-6622.5,0.031985
18030,1.5195,1.5455,0,0.00069953,6990.5,0.00033716,1302.8,0.00016233,-10.841,-0.00066822,-6251.3,0.027158
18031,1.5195,1.6364,0.05,1.5154e-05,151.44,1.1636e-05,87.432,8.843e-11,0.00083101,-1.1637e-05,-87.432,0.027672
18032,1.7959,1.6364,0,0.00066392,6634.6,0.00025626,445.66,0.00019611,-6.2902,-0.00065529,-6403.4,0.040729
18033,1.7037,1.5455,0,0.0006518,6513.5,0.0002734,706.89,0.00017878,-4.0709,-0.00063693,-6132.9,0.035783
18034,1.7037,1.6364,0.05,1.0943e-05,109.36,8.4032e-06,63.138,7.7786e-11,0.00063466,-8.4032e-06,-63.138,0.03622
18035,1.9801,1.6364,0,0.00062959,6291.6,0.00022097,150.53,0.00019912,-13.632,-0.0006271,-6221.5,0.049893
18036,1.888,1.5455,0,0.00062013,6197,0.00023316,340.17,0.00018699,-6.7514,-0.00061373,-6023,0.044802
18037,1.888,1.6364,0.05,8.6504e-06,86.444,6.6424e-06,49.909,7.1272e-11,0.00059383,-6.6425e-06,-49.909,0.045185
18038,2.1644,1.6364,0,0.00060539,6049.7,0.00020476,21.179,0.00019328,-65.073,-0.00060609,-6071.2,0.059471
18039,2.0723,1.5455,0,0.00059845,5980.4,0.00020798,118.76,0.00019055,-12.147,-0.00059653,-5926,0.054219
18040,2.0723,1.6364,0.05,7.1539e-06,71.49,5.4933e-06,41.275,5.535e-11,0.00052706,-5.4934e-06,-41.275,0.054563
18041,2.3487,1.6364,0,0.00058724,5868.3,0.00020217,6.0019,0.00018005,-160.18,-0.00058968,-5943.6,0.069454
18042,2.2565,1.5455,0,0.00058257,5821.7,0.00019649,18.528,0.00018676,-54.551,-0.00058315,-5839.3,0.064031
18043,2.2565,1.6364,0.05,5.9844e-06,59.803,4.5953e-06,34.527,5.0272e-11,0.00043105,-4.5953e-06,-34.527,0.06435
18044,2.5329,1.6364,0,0.0005729,5725.1,0.00020029,3.0461,0.00017009,-223.87,-0.00057632,-5832.1,0.079835
18045,2.4408,1.5455,0,0.00057019,5697.9,0.00019509,5.4805,0.00017687,-131.38,-0.0005722,-5759.6,0.074235
18046,2.4408,1.6364,0.05,5.0493e-06,50.458,3.8772e-06,29.132,4.0645e-11,0.00040828,-3.8772e-06,-29.132,0.074537
18047,2.7172,1.6364,0,0.00056106,5606.7,0.00019812,1.849,0.00016302,-261.93,-0.00056502,-5732.1,0.090607
18048,2.6251,1.5455,0,0.00055994,5595.5,0.00019411,2.781,0.00016908,-185.3,-0.0005628,-5684.4,0.084826
18049,2.6251,1.6364,0.05,4.2889e-06,42.86,3.2934e-06,24.745,3.7891e-11,0.00033481,-3.2934e-06,-24.745,0.085117
18050,2.9015,1.6364,0,0.0005509,5505.2,0.00019573,1.2205,0.00015792,-282.89,-0.00055514,-5640.6,0.10176
18051,2.8093,1.5455,0,0.00055104,5506.6,0.00019274,1.6898,0.00016333,-219.22,-0.00055441,-5612.1,0.095799
18052,2.8093,1.6364,0.05,3.667e-06,36.644,2.8158e-06,21.157,3.5872e-11,0.00037382,-2.8158e-06,-21.157,0.096084
18053,3.0857,1.6364,0,0.00054194,5415.7,0.0001932,0.84256,0.00015417,-292.45,-0.0005463,-5555.5,0.11329
18054,2.9936,1.5455,0,0.00054305,5426.8,0.00019102,1.1136,0.00015903,-239.29,-0.00054671,-5541.9,0.10715
18055,2.9936,1.6364,0.05,3.1577e-06,31.555,2.4247e-06,18.218,2.8384e-11,0.00020386,-2.4247e-06,-18.218,0.10743
18056,3.27,1.6364,0,0.00053385,5334.8,0.0001906,0.59833,0.00015135,-294.28,-0.00053824,-5475.6,0.1252
18057,3.1779,1.5455,0,0.0005357,5353.3,0.00018907,0.76835,0.00015573,-249.77,-0.00053949,-5473.4,0.11887
18058,3.1779,1.6364,0.05,2.7416e-06,27.397,2.1052e-06,15.818,1.4719e-11,0.00019277,-2.1052e-06,-15.818,0.11915
18059,3.4543,1.6364,0,0.00052643,5260.7,0.00018796,0.43312,0.0001492,-290.84,-0.00053076,-5399.8,0.13747
18060,3.3621,1.5455,0,0.0005288,5284.4,0.00018696,0.54573,0.00015314,-253.54,-0.00053265,-5406.3,0.13096
18061,3.3621,1.6364,0.05,2.4032e-06,24.015,1.8454e-06,13.865,1.8092e-11,0.00013537,-1.8454e-06,-13.865,0.13124
18062,3.6385,1.6364,0,0.00051952,5191.6,0.00018533,0.31804,0.00014752,-283.76,-0.00052375,-5327.5,0.1501
18063,3.5464,1.5455,0,0.00052226,5219,0.00018474,0.39562,0.00015108,-252.51,-0.00052609,-5340.5,0.14341
18064,3.5464,1.6364,0.05,2.1296e-06,21.281,1.6352e-06,12.287,1.1258e-11,0.0001234,-1.6352e-06,-12.287,0.14369
18065,3.8228,1.6364,0,0.000513,5126.5,0.00018271,0.23618,0.00014619,-274.18,-0.00051711,-5258,0.16308
18066,3.7307,1.5455,0,0.00051601,5156.5,0.00018244,0.29128,0.00014939,-248.03,-0.00051977,-5275.9,0.15621
18067,3.7307,1.6364,0.05,1.9097e-06,19.084,1.4664e-06,11.018,9.2611e-12,0.00010854,-1.4664e-06,-11.018,0.1565
18068,4.0071,1.6364,0,0.00050681,5064.6,0.00018012,0.17707,0.0001451,-262.92,-0.00051076,-5190.8,0.17642
18069,3.9149,1.5455,0,0.00050998,5096.3,0.00018011,0.21719,0.000148,-241.09,-0.00051365,-5212.4,0.16938
18070,3.9149,1.6364,0.05,1.7341e-06,17.329,1.3316e-06,10.005,5.0758e-12,9.3613e-05,-1.3316e-06,-10.005,0.16967
18071,4.1913,1.6364,0,0.00050086,5005.2,0.00017755,0.13386,0.00014418,-250.58,-0.00050465,-5125.7,0.1901
18072,4.0992,1.5455,0,0.00050413,5037.8,0.00017776,0.1637,0.0001468,-232.39,-0.00050768,-5149.9,0.18288
18073,4.0992,1.6364,0.05,1.5945e-06,15.934,1.2244e-06,9.1998,2.9986e-12,5.7777e-05,-1.2244e-06,-9.1997,0.18318
18074,4.3756,1.6364,0,0.00049512,4947.7,0.00017502,0.10198,0.00014339,-237.59,-0.00049873,-5062.2,0.20413
18075,4.2835,1.5455,0,0.00049844,4980.9,0.00017539,0.12458,0.00014577,-222.48,-0.00050185,-5088.4,0.19674
18076,4.2835,1.6364,0.05,1.484e-06,14.829,1.1395e-06,8.5619,-1.5302e-12,6.9945e-05,-1.1395e-06,-8.5617,0.19703
18077,4.5599,1.6364,0,0.00048952,4891.9,0.00017253,0.078254,0.00014267,-224.31,-0.00049295,-5000.1,0.2185
18078,4.4677,1.5455,0,0.00049287,4925.3,0.00017303,0.095645,0.00014483,-211.78,-0.00049612,-5027.7,0.21093
18079,4.4677,1.6364,0.05,1.3964e-06,13.954,1.0723e-06,8.0566,2.8641e-12,5.7892e-05,-1.0723e-06,-8.0565,0.21123
18080,4.7441,1.6364,0,0.00048405,4837.2,0.00017008,0.06047,0.00014199,-210.97,-0.0004873,-4939.2,0.2332
18081,4.652,1.5455,0,0.00048739,4870.6,0.00017068,0.074049,0.00014397,-200.61,-0.00049049,-4967.7,0.22547
18082,4.652,1.6364,0.05,1.3269e-06,13.259,1.0189e-06,7.6554,-3.2142e-12,4.8352e-05,-1.0189e-06,-7.6552,0.22577
18083,4.9284,1.6364,0,0.00047868,4783.5,0.00016766,0.047058,0.00014133,-197.78,-0.00048174,-4879.3,0.24823
18084,4.8363,1.5455,0,0.000482,4816.6,0.00016834,0.057793,0.00014315,-189.23,-0.00048494,-4908.4,0.24033
18085,4.8363,1.6364,0.05,1.2713e-06,12.704,9.7621e-07,7.3349,-1.2494e-12,1.9354e-05,-9.7621e-07,-7.3348,0.24063
18086,5.1127,1.6364,0,0.00047337,4730.5,0.00016528,0.036884,0.00014067,-184.88,-0.00047625,-4820.2,0.26359
18087,5.0205,1.5455,0,0.00047666,4763.3,0.00016603,0.045468,0.00014235,-177.83,-0.00047944,-4849.7,0.25553
18088,5.0205,1.6364,0.05,1.2266e-06,12.257,9.4185e-07,7.0768,-3.1625e-12,2.6791e-05,-9.4185e-07,-7.0766,0.25583
18089,5.2969,1.6364,0,0.00046812,4678,0.00016294,0.02913,0.00014,-172.37,-0.00047082,-4761.8,0.27927
18090,5.2048,1.5455,0,0.00047138,4710.5,0.00016374,0.036061,0.00014156,-166.58,-0.00047399,-4791.6,0.27105
18091,5.2048,1.6364,0.05,1.1901e-06,11.893,9.1385e-07,6.8664,-1.2441e-12,3.0118e-05,-9.1385e-07,-6.8662,0.27135
18092,5.4812,1.6364,0,0.00046291,4625.9,0.00016064,0.023194,0.00013929,-160.32,-0.00046543,-4704,0.29527
18093,5.3891,1.5455,0,0.00046613,4658,0.00016147,0.028839,0.00014076,-155.58,-0.00046858,-4733.9,0.28689
18094,5.3891,1.6364,0.05,1.16e-06,11.592,8.9073e-07,6.6927,-3.5119e-12,2.8372e-05,-8.9072e-07,-6.6925,0.28719
18095,5.6655,1.6364,0,0.00045773,4574.1,0.00015836,0.018633,0.00013856,-148.8,-0.00046008,-4646.7,0.31159
18096,5.5733,1.5455,0,0.0004609,4605.9,0.00015922,0.023266,0.00013993,-144.91,-0.0004632,-4676.6,0.30305
18097,5.5733,1.6364,0.05,1.1348e-06,11.34,8.7136e-07,6.547,-4.0515e-12,9.9302e-06,-8.7135e-07,-6.547,0.30335
18098,5.8497,1.6364,0,0.00045256,4522.5,0.00015612,0.015118,0.00013778,-137.83,-0.00045475,-4589.8,0.32822
18099,5.7576,1.5455,0,0.0004557,4553.9,0.000157,0.018947,0.00013908,-134.66,-0.00045784,-4619.7,0.31952
18100,5.7576,1.6364,0.05,1.1133e-06,11.125,8.5488e-07,6.4233,-2.5999e-12,1.1334e-05,-8.5487e-07,-6.4232,0.31983
18101,6.034,1.6364,0,0.00044741,4471,0.00015391,0.012404,0.00013695,-127.43,-0.00044944,-4533.4,0.34516
18102,5.9419,1.5455,0,0.00045051,4502,0.00015481,0.015584,0.00013819,-124.84,-0.00045251,-4563.1,0.33631
18103,5.9419,1.6364,0.05,1.0948e-06,10.94,8.4066e-07,6.3165,-1.2489e-12,1.32e-05,-8.4065e-07,-6.3163,0.33661
18104,6.2183,1.6364,0,0.00044227,4419.6,0.00015174,0.010303,0.00013608,-117.61,-0.00044415,-4477.3,0.3624
18105,6.1261,1.5455,0,0.00044533,4450.2,0.00015264,0.01296,0.00013727,-115.5,-0.00044718,-4506.9,0.3534
18106,6.1261,1.6364,0.05,1.0786e-06,10.778,8.2821e-07,6.2229,-5.2238e-12,1.2566e-05,-8.2821e-07,-6.2228,0.35371
18107,6.4025,1.6364,0,0.00043713,4368.3,0.00014959,0.0086773,0.00013517,-108.36,-0.00043887,-4421.4,0.37995
18108,6.3104,1.5455,0,0.00044016,4398.6,0.0001505,0.010905,0.00013631,-106.64,-0.00044188,-4450.9,0.3708
18109,6.3104,1.6364,0.05,1.0642e-06,10.635,8.1717e-07,6.1399,-1.9507e-12,7.9439e-06,-8.1716e-07,-6.1399,0.3711
18110,6.5868,1.6364,0,0.00043199,4316.9,0.00014747,0.0074188,0.0001342,-99.666,-0.0004336,-4365.9,0.39779
18111,6.4947,1.5455,0,0.00043499,4346.9,0.00014839,0.0092923,0.00013531,-98.275,-0.00043658,-4395.2,0.38849
18112,6.4947,1.6364,0.05,1.0513e-06,10.506,8.0726e-07,6.0655,-5.6387e-12,1.1571e-05,-8.0725e-07,-6.0653,0.3888
18113,6.7711,1.6364,0,0.00042685,4265.6,0.00014537,0.0064458,0.00013319,-91.522,-0.00042834,-4310.6,0.41593
18114,6.6789,1.5455,0,0.00042982,4295.3,0.0001463,0.0080257,0.00013426,-90.396,-0.00043129,-4339.7,0.40649
18115,6.6789,1.6364,0.05,1.0396e-06,10.389,7.9826e-07,5.9979,-4.1204e-12,9.53e-06,-7.9826e-07,-5.9977,0.40679
18116,6.9553,1.6364,0,0.00042172,4214.3,0.0001433,0.0056955,0.00013213,-83.904,-0.00042308,-4255.6,0.43436
18117,6.8632,1.5455,0,0.00042466,4243.6,0.00014423,0.0070301,0.00013318,-82.996,-0.00042601,-4284.5,0.42477
18118,6.8632,1.6364,0.05,1.0288e-06,10.281,7.9003e-07,5.936,-4.284e-12,7.3986e-06,-7.9002e-07,-5.9359,0.42507
18119,7.1396,1.6364,0,0.00041658,4162.9,0.00014126,0.0051199,0.00013104,-76.791,-0.00041783,-4200.8,0.45307
18120,7.0475,1.5455,0,0.00041949,4192,0.00014218,0.0062483,0.00013206,-76.059,-0.00042073,-4229.5,0.44335
18121,7.0475,1.6364,0.05,1.0189e-06,10.182,7.8243e-07,5.8789,-4.4113e-12,6.6236e-06,-7.8242e-07,-5.8788,0.44365
18122,7.3239,1.6364,0,0.00041144,4111.5,0.00013923,0.0046815,0.0001299,-70.158,-0.00041258,-4146.1,0.47207
18123,7.2317,1.5455,0,0.00041432,4140.4,0.00014016,0.0056351,0.0001309,-69.571,-0.00041546,-4174.7,0.46221
18124,7.2317,1.6364,0.05,1.0097e-06,10.091,7.7537e-07,5.8258,-4.5326e-12,6.0212e-06,-7.7535e-07,-5.8257,0.46251
18125,7.5081,1.6364,0,0.00040629,4060.1,0.00013723,0.0043513,0.00012872,-63.98,-0.00040734,-4091.7,0.49135
18126,7.416,1.5455,0,0.00040916,4088.8,0.00013816,0.0051561,0.0001297,-63.511,-0.0004102,-4120.2,0.48135
18127,7.416,1.6364,0.05,1.0011e-06,10.005,7.6876e-07,5.7762,-2.8333e-12,7.5158e-06,-7.6875e-07,-5.776,0.48165
18128,7.6924,1.6364,0,0.00040115,4008.7,0.00013525,0.0041066,0.0001275,-58.233,-0.00040211,-4037.5,0.51091
18129,7.6003,1.5455,0,0.00040399,4037.2,0.00013617,0.004784,0.00012847,-57.86,-0.00040495,-4065.8,0.50077
18130,7.6003,1.6364,0.05,9.9305e-07,9.9237,7.6255e-07,5.7295,-4.7345e-12,7.6255e-06,-7.6254e-07,-5.7294,0.50107
18131,7.8767,1.6364,0,0.00039601,3957.3,0.00013329,0.0039299,0.00012625,-52.89,-0.00039688,-3983.5,0.53074
18132,7.7845,1.5455,0,0.00039883,3985.6,0.00013421,0.0044978,0.00012721,-52.596,-0.0003997,-4011.6,0.52047
18133,7.7845,1.6364,0.05,9.8541e-07,9.8473,7.5668e-07,5.6854,-3.0163e-12,6.7322e-06,-7.5667e-07,-5.6853,0.52076
18134,8.0609,1.6364,0,0.00039086,3906,0.00013135,0.0038078,0.00012497,-47.929,-0.00039166,-3929.7,0.55084
18135,7.9688,1.5455,0,0.00039367,3934,0.00013227,0.0042811,0.00012592,-47.699,-0.00039446,-3957.6,0.54044
18136,7.9688,1.6364,0.05,9.7816e-07,9.7749,7.5111e-07,5.6436,-3.0678e-12,6.2877e-06,-7.511e-07,-5.6435,0.54073
18137,8.2452,1.6364,0,0.00038572,3854.6,0.00012943,0.0037301,0.00012366,-43.323,-0.00038644,-3876.1,0.57121
18138,8.1531,1.5455,0,0.00038851,3882.4,0.00013034,0.0041209,0.0001246,-43.145,-0.00038923,-3903.8,0.56067
18139,8.1531,1.6364,0.05,9.7126e-07,9.7059,7.4582e-07,5.6038,-4.913e-12,5.7144e-06,-7.458e-07,-5.6037,0.56096
18140,8.4295,1.6364,0,0.00038059,3803.2,0.00012752,0.0036887,0.00012233,-39.05,-0.00038124,-3822.6,0.59183
18141,8.3373,1.5455,0,0.00038336,3830.9,0.00012843,0.0040078,0.00012325,-38.915,-0.000384,-3850.2,0.58117
18142,8.3373,1.6364,0.05,9.6467e-07,9.6401,7.4076e-07,5.5658,-3.1822e-12,5.3174e-06,-7.4074e-07,-5.5656,0.58146
18143,8.6137,1.6364,0,0.00037545,3751.9,0.00012563,0.0036774,0.00012096,-35.088,-0.00037604,-3769.4,0.61272
18144,8.5216,1.5455,0,0.00037821,3779.5,0.00012654,0.0039341,0.00012188,-34.988,-0.00037879,-3796.8,0.60193
18145,8.5216,1.6364,0.05,9.5836e-07,9.577,7.3591e-07,5.5293,-3.2302e-12,4.8671e-06,-7.359e-07,-5.5292,0.60221
18146,8.798,1.6364,0,0.00037032,3700.7,0.00012376,0.0036928,0.00011958,-31.415,-0.00037085,-3716.3,0.63386
18147,8.7059,1.5455,0,0.00037306,3728,0.00012466,0.0038943,0.00012049,-31.343,-0.00037358,-3743.6,0.62295
18148,8.7059,1.6364,0.05,9.523e-07,9.5164,7.3125e-07,5.4944,-3.2778e-12,5.1188e-06,-7.3125e-07,-5.4942,0.62323
18149,8.9823,1.6364,0,0.0003652,3649.5,0.0001219,0.003732,0.00011817,-28.012,-0.00036567,-3663.4,0.65525
18150,8.8901,1.5455,0,0.00036792,3676.7,0.0001228,0.003885,0.00011907,-27.963,-0.00036839,-3690.6,0.64422
18151,8.8901,1.6364,0.05,9.4646e-07,9.4581,7.2677e-07,5.4607,-3.2996e-12,4.9087e-06,-7.2676e-07,-5.4606,0.6445
18152,9.1665,1.6364,0,0.00036008,3598.3,0.00012006,0.003793,0.00011675,-24.858,-0.0003605,-3610.7,0.67689
18153,9.0744,1.5455,0,0.00036279,3625.4,0.00012095,0.0039042,0.00011764,-24.828,-0.0003632,-3637.7,0.66574
18154,9.0744,1.6364,0.05,9.4083e-07,9.4018,7.2244e-07,5.4282,-3.3617e-12,4.4318e-06,-7.2244e-07,-5.4281,0.66601
18155,9.3508,1.6364,0,0.00035497,3547.2,0.00011823,0.0038763,0.00011531,-21.936,-0.00035534,-3558.2,0.69878
18156,9.2587,1.5455,0,0.00035766,3574.2,0.00011911,0.0039508,0.0001162,-21.922,-0.00035803,-3585.1,0.68751
18157,9.2587,1.6364,0.05,9.3538e-07,9.3474,7.1826e-07,5.3968,-3.3826e-12,4.1896e-06,-7.1826e-07,-5.3967,0.68778
18158,9.5351,1.6364,0,0.00034987,3496.3,0.00011641,0.0039823,0.00011385,-19.229,-0.00035019,-3505.8,0.72091
18159,9.4429,1.5455,0,0.00035255,3523,0.00011729,0.0040257,0.00011473,-19.228,-0.00035287,-3532.6,0.70952
18160,9.4429,1.6364,0.05,9.3011e-07,9.2947,7.1421e-07,5.3663,-3.4039e-12,3.6179e-06,-7.142e-07,-5.3662,0.70979
18161,9.7193,1.6364,0,0.00034477,3445.4,0.0001146,0.0041183,0.00011238,-16.722,-0.00034505,-3453.7,0.74327
18162,9.6272,1.5455,0,0.00034744,3472,0.00011548,0.0041317,0.00011326,-16.731,-0.00034772,-3480.3,0.73177
18163,9.6272,1.6364,0.05,9.2498e-07,9.2434,7.1027e-07,5.3368,-2.5297e-12,3.9043e-06,-7.1027e-07,-5.3367,0.73203
18164,9.9036,1.6364,0,0.00033969,3394.5,0.00011281,0.0042868,0.00011089,-14.398,-0.00033993,-3401.7,0.76587
18165,9.8115,1.5455,0,0.00034234,3421.1,0.00011369,0.0042821,0.00011177,-14.416,-0.00034259,-3428.3,0.75426
18166,9.8115,1.6364,0.05,9.2e-07,9.1936,7.0645e-07,5.308,-3.4487e-12,4.03e-06,-7.0644e-07,-5.3079,0.75452
18167,10.088,1.6364,0,0.00033462,3343.8,0.00011103,0.0044942,0.0001094,-12.245,-0.00033482,-3350,0.7887
18168,9.9957,1.5455,0,0.00033726,3370.3,0.0001119,0.0044717,0.00011027,-12.27,-0.00033747,-3376.4,0.77698
18169,9.9957,1.6364,0.05,9.1515e-07,9.1452,7.0272e-07,5.28,-3.4776e-12,3.7423e-06,-7.0272e-07,-5.2799,0.77723
18170,10.272,1.6364,0,0.00032955,3293.3,0.00010926,0.0047656,0.0001079,-10.249,-0.00032973,-3298.4,0.81176
18171,10.18,1.5455,0,0.00033218,3319.5,0.00011013,0.0047273,0.00010876,-10.28,-0.00033236,-3324.7,0.79992
18172,10.18,1.6364,0.05,9.1041e-07,9.0978,6.9909e-07,5.2527,-3.4962e-12,4.0992e-06,-6.9908e-07,-5.2526,0.80017
18173,10.456,1.6364,0,0.0003245,3242.8,0.0001075,0.0051031,0.00010638,-8.3987,-0.00032464,-3247,0.83504
18174,10.364,1.5455,0,0.00032712,3268.9,0.00010837,0.0050854,0.00010724,-8.4345,-0.00032726,-3273.2,0.8231
18175,10.364,1.6364,0.05,9.0579e-07,9.0516,6.9553e-07,5.226,-3.5183e-12,3.5648e-06,-6.9553e-07,-5.2259,0.82334
18176,10.641,1.6364,0,0.00031946,3192.4,0.00010575,0.0055721,0.00010486,-6.6822,-0.00031958,-3195.8,0.85854
18177,10.549,1.5455,0,0.00032207,3218.5,0.00010662,0.0055414,0.00010572,-6.7224,-0.00032218,-3221.8,0.84649
18178,10.549,1.6364,0.05,9.0126e-07,9.0063,6.9205e-07,5.1999,-2.62e-12,3.812e-06,-6.9205e-07,-5.1998,0.84673
18179,10.825,1.6364,0,0.00031444,3142.2,0.00010402,0.0063235,0.00010334,-5.0891,-0.00031452,-3144.8,0.88226
18180,10.733,1.5455,0,0.00031703,3168.1,0.00010488,0.0062923,0.00010419,-5.1333,-0.00031712,-3170.7,0.87011
18181,10.733,1.6364,0.05,8.968e-07,8.9619,6.8864e-07,5.1742,-2.6296e-12,3.3912e-06,-6.8863e-07,-5.1741,0.87034
18182,11.009,1.6364,0,0.00030943,3092.1,0.00010229,0.0075765,0.00010181,-3.6102,-0.00030949,-3093.9,0.90619
18183,10.917,1.5455,0,0.00031201,3117.9,0.00010314,0.0076069,0.00010266,-3.6578,-0.00031207,-3119.8,0.89393
18184,10.917,1.6364,0.05,8.9245e-07,8.9183,6.8529e-07,5.1491,-8.2939e-13,2.7739e-06,-6.8529e-07,-5.1489,0.89417
18185,11.193,1.6364,0,0.00030443,3042.2,0.00010057,0.010131,0.00010027,-2.237,-0.00030447,-3043.3,0.93033
18186,11.101,1.5455,0,0.000307,3067.9,0.00010142,0.010246,0.00010112,-2.2879,-0.00030704,-3069,0.91797
18187,11.101,1.6364,0.05,8.8818e-07,8.8757,6.8202e-07,5.1244,-2.6659e-12,2.6206e-06,-6.8201e-07,-5.1243,0.91821
18188,11.378,1.6364,0,0.00029944,2992.4,9.8866e-05,0.018825,9.8735e-05,-0.9659,-0.00029946,-2992.9,0.95468
18189,11.286,1.5455,0,0.00030201,3018,9.9714e-05,0.018921,9.9576e-05,-1.0197,-0.00030202,-3018.5,0.94222
18190,11.286,1.6364,0.05,8.8398e-07,8.8337,6.7879e-07,5.1002,-2.6758e-12,2.1414e-06,-6.7879e-07,-5.1001,0.94245
18191,11.562,1.6364,0,0.00029448,2942.7,9.7204e-05,0.29241,9.7159e-05,-0.047729,-0.00029447,-2942.6,0.97923
18192,11.47,1.5455,0,0.00029703,2968.2,9.8042e-05,0.24971,9.8001e-05,-0.061636,-0.00029702,-2968.1,0.96668
18193,11.47,1.6364,0.05,8.7984e-07,8.7923,6.7561e-07,5.0763,-1.7797e-12,2.4042e-06,-6.7561e-07,-5.0762,0.9669
18194,11.746,1.6364,0,0.00028952,2893.2,9.5657e-05,1.3632,9.5474e-05,-0.0072652,-0.0002895,-2892.6,1.004
18195,11.654,1.5455,0,0.00029206,2918.6,9.649e-05,1.3054,9.6315e-05,-0.0089806,-0.00029204,-2917.9,0.99133
18196,11.654,1.6364,0.05,8.7575e-07,8.7515,6.7247e-07,5.0527,-2.7011e-12,2.3477e-06,-6.7247e-07,-5.0526,0.99155
18197,11.931,1.6364,0,0.00028459,2843.9,9.4113e-05,2.3959,9.3794e-05,-0.0024919,-0.00028454,-2842.7,1.0289
18198,11.838,1.5455,0,0.00028711,2869.1,9.4942e-05,2.3345,9.4631e-05,-0.0034871,-0.00028707,-2868,1.0162
18199,11.838,1.6364,0.05,8.7173e-07,8.7113,6.6938e-07,5.0295,-3.6201e-12,2.1841e-06,-6.6937e-07,-5.0294,1.0164
18200,12.115,1.6364,0,0.00027966,2794.7,9.257e-05,3.3642,9.2122e-05,-0.00065719,-0.00027961,-2793,1.0541
18201,12.023,1.5455,0,0.00028218,2819.9,9.3395e-05,3.2995,9.2956e-05,-0.001441,-0.00028212,-2818.2,1.0412
18202,12.023,1.6364,0.05,8.6777e-07,8.6717,6.6634e-07,5.0066,-2.7201e-12,2.3235e-06,-6.6633e-07,-5.0066,1.0414
18203,12.299,1.6364,0,0.00027476,2745.7,9.1027e-05,4.2721,9.0459e-05,0.00031385,-0.00027469,-2743.6,1.0794
18204,12.207,1.5455,0,0.00027726,2770.7,9.1848e-05,4.2041,9.1289e-05,-0.00036353,-0.00027719,-2768.6,1.0665
18205,12.207,1.6364,0.05,8.6385e-07,8.6325,6.6333e-07,4.984,-1.8199e-12,2.3922e-06,-6.6333e-07,-4.984,1.0667
18206,12.483,1.6364,0,0.00026987,2696.8,8.9485e-05,5.1245,8.8803e-05,0.00092859,-0.00026978,-2694.3,1.1049
18207,12.391,1.5455,0,0.00027237,2721.8,9.0303e-05,5.0529,8.963e-05,0.00028295,-0.00027228,-2719.2,1.0919
18208,12.391,1.6364,0.05,8.5998e-07,8.5938,6.6036e-07,4.9617,-3.6474e-12,1.1968e-06,-6.6035e-07,-4.9616,1.0921
18209,12.668,1.6364,0,0.000265,2648.2,8.7945e-05,5.9268,8.7156e-05,0.0013939,-0.0002649,-2645.2,1.1306
18210,12.575,1.5455,0,0.00026748,2673,8.8758e-05,5.8513,8.798e-05,0.00075615,-0.00026738,-2670.1,1.1175
18211,12.575,1.6364,0.05,8.5613e-07,8.5554,6.5741e-07,4.9395,-1.8359e-12,4.8883e-07,-6.574e-07,-4.9395,1.1177
18212,12.852,1.6364,0,0.00026014,2599.7,8.6406e-05,6.6838,8.5517e-05,0.0017552,-0.00026003,-2596.3,1.1565
18213,12.76,1.5455,0,0.00026262,2624.4,8.7216e-05,6.6041,8.6337e-05,0.0011471,-0.00026251,-2621.1,1.1433
18214,12.76,1.6364,0.05,8.5234e-07,8.5175,6.5449e-07,4.9176,-2.7536e-12,1.1644e-06,-6.5449e-07,-4.9175,1.1435
18215,13.036,1.6364,0,0.00025531,2551.3,8.487e-05,7.3999,8.3885e-05,0.0020306,-0.00025518,-2547.6,1.1825
18216,12.944,1.5455,0,0.00025777,2575.9,8.5675e-05,7.3156,8.4702e-05,0.001433,-0.00025765,-2572.3,1.1693
18217,12.944,1.6364,0.05,8.4859e-07,8.48,6.5162e-07,4.896,-3.6692e-12,1.4675e-06,-6.5161e-07,-4.8959,1.1695
18218,13.22,1.6364,0,0.00025049,2503.2,8.3336e-05,8.0797,8.2261e-05,0.0022449,-0.00025035,-2499.1,1.2088
18219,13.128,1.5455,0,0.00025294,2527.7,8.4138e-05,7.9902,8.3075e-05,0.0016633,-0.00025281,-2523.7,1.1954
18220,13.128,1.6364,0.05,8.4487e-07,8.4429,6.4876e-07,4.8746,-1.8547e-12,2.3535e-06,-6.4876e-07,-4.8745,1.1956
18221,13.405,1.6364,0,0.00024569,2455.2,8.1806e-05,8.7272,8.0645e-05,0.0024309,-0.00024554,-2450.8,1.2352
18222,13.313,1.5455,0,0.00024813,2479.6,8.2604e-05,8.632,8.1455e-05,0.0018338,-0.00024798,-2475.3,1.2217
18223,13.313,1.6364,0.05,8.4119e-07,8.4061,6.4593e-07,4.8533,-9.4983e-13,2.02e-06,-6.4593e-07,-4.8532,1.2219
18224,13.589,1.6364,0,0.00024091,2407.4,8.028e-05,9.3465,7.9036e-05,0.0026282,-0.00024075,-2402.7,1.2617
18225,13.497,1.5455,0,0.00024334,2431.7,8.1073e-05,9.2449,7.9843e-05,0.0020119,-0.00024318,-2427.1,1.2482
18226,13.497,1.6364,0.05,8.3752e-07,8.3694,6.4311e-07,4.8321,-2.7727e-12,1.5401e-06,-6.4311e-07,-4.8321,1.2484
18227,13.773,1.6364,0,0.00023614,2359.8,7.8757e-05,9.9413,7.7434e-05,0.0028123,-0.00023597,-2354.8,1.2885
18228,13.681,1.5455,0,0.00023856,2384,7.9547e-05,9.8326,7.8239e-05,0.0022049,-0.00023839,-2379.1,1.2749
18229,13.681,1.6364,0.05,8.339e-07,8.3332,6.4033e-07,4.8112,-2.7762e-12,5.9755e-07,-6.4033e-07,-4.8111,1.2751
18230,13.957,1.6364,0,0.0002314,2312.4,7.7239e-05,10.515,7.584e-05,0.0029692,-0.00023122,-2307.1,1.3153
18231,13.865,1.5455,0,0.00023381,2336.5,7.8025e-05,10.399,7.6641e-05,0.0023578,-0.00023363,-2331.2,1.3017
18232,13.865,1.6364,0.05,8.303e-07,8.2973,6.3757e-07,4.7905,-1.8696e-12,4.5645e-07,-6.3757e-07,-4.7904,1.3019
18233,14.142,1.6364,0,0.00022667,2265.1,7.5726e-05,11.071,7.4253e-05,0.0031033,-0.00022648,-2259.6,1.3424
18234,14.05,1.5455,0,0.00022907,2289.1,7.6507e-05,10.946,7.5051e-05,0.0024971,-0.00022888,-2283.6,1.3287
18235,14.05,1.6364,0.05,8.2674e-07,8.2617,6.3484e-07,4.7699,-1.872e-12,9.0214e-07,-6.3483e-07,-4.7698,1.3288
18236,14.326,1.6364,0,0.00022196,2218.1,7.4218e-05,11.614,7.2672e-05,0.0032343,-0.00022176,-2212.3,1.3696
18237,14.234,1.5455,0,0.00022435,2242,7.4995e-05,11.479,7.3467e-05,0.0026049,-0.00022416,-2236.2,1.3558
18238,14.234,1.6364,0.05,8.232e-07,8.2263,6.3212e-07,4.7495,-2.7857e-12,2.5163e-07,-6.3211e-07,-4.7494,1.3559
18239,14.51,1.6364,0,0.00021728,2171.3,7.2715e-05,12.145,7.1099e-05,0.0033919,-0.00021707,-2165.2,1.3969
18240,14.418,1.5455,0,0.00021965,2195,7.3488e-05,12,7.1891e-05,0.0027379,-0.00021945,-2189,1.3831
18241,14.418,1.6364,0.05,8.1967e-07,8.1911,6.2941e-07,4.7291,-2.7874e-12,1.2524e-06,-6.294e-07,-4.7291,1.3832
18242,14.695,1.6364,0,0.00021261,2124.6,7.1218e-05,12.669,6.9532e-05,0.00355,-0.00021239,-2118.2,1.4244
18243,14.602,1.5455,0,0.00021498,2148.3,7.1986e-05,12.512,7.0322e-05,0.002899,-0.00021476,-2142,1.4105
18244,14.602,1.6364,0.05,8.1618e-07,8.1562,6.2673e-07,4.709,-1.8794e-12,2.6842e-06,-6.2672e-07,-4.7089,1.4106
18245,14.879,1.6364,0,0.00020796,2078.2,6.9727e-05,13.188,6.7973e-05,0.0036929,-0.00020773,-2071.5,1.4521
18246,14.787,1.5455,0,0.00021032,2101.7,7.0491e-05,13.018,6.8759e-05,0.0030331,-0.00021009,-2095.2,1.4381
18247,14.787,1.6364,0.05,8.1272e-07,8.1216,6.2407e-07,4.689,-1.8747e-12,4.5434e-06,-6.2406e-07,-4.689,1.4382
18248,15.063,1.6364,0,0.00020333,2031.9,6.8243e-05,13.706,6.6419e-05,0.0038233,-0.00020309,-2025,1.4798
18249,14.971,1.5455,0,0.00020568,2055.3,6.9002e-05,13.521,6.7203e-05,0.0031618,-0.00020544,-2048.6,1.4658
18250,14.971,1.6364,0.05,8.0928e-07,8.0872,6.2143e-07,4.6692,-9.6599e-13,4.0368e-06,-6.2143e-07,-4.6691,1.4659
18251,15.247,1.6364,0,0.00019872,1985.8,6.6765e-05,14.225,6.4873e-05,0.0039583,-0.00019848,-1978.7,1.5078
18252,15.155,1.5455,0,0.00020106,2009.2,6.7519e-05,14.024,6.5653e-05,0.0032716,-0.00020081,-2002.1,1.4936
18253,15.155,1.6364,0.05,8.0587e-07,8.0531,6.1881e-07,4.6495,-9.6912e-13,5.6823e-06,-6.188e-07,-4.6494,1.4938
18254,15.432,1.6364,0,0.00019413,1940,6.5295e-05,14.749,6.3332e-05,0.004123,-0.00019388,-1932.6,1.5358
18255,15.339,1.5455,0,0.00019646,1963.2,6.6043e-05,14.531,6.411e-05,0.0034103,-0.00019621,-1955.9,1.5216
18256,15.339,1.6364,0.05,8.0247e-07,8.0191,6.162e-07,4.6299,-9.6943e-13,5.0114e-06,-6.1619e-07,-4.6298,1.5218
18257,15.616,1.6364,0,0.00018956,1894.3,6.3831e-05,15.281,6.1798e-05,0.0042938,-0.0001893,-1886.7,1.564
18258,15.524,1.5455,0,0.00019188,1917.5,6.4575e-05,15.043,6.2573e-05,0.003577,-0.00019162,-1909.9,1.5497
18259,15.524,1.6364,0.05,7.991e-07,7.9855,6.1361e-07,4.6105,-1.8848e-12,4.2065e-06,-6.1361e-07,-4.6104,1.5499
18260,15.8,1.6364,0,0.00018502,1848.9,6.2376e-05,15.823,6.0271e-05,0.0044558,-0.00018474,-1840.9,1.5923
18261,15.708,1.5455,0,0.00018732,1871.9,6.3114e-05,15.565,6.1043e-05,0.0037263,-0.00018705,-1864.1,1.578
18262,15.708,1.6364,0.05,7.9577e-07,7.9522,6.1105e-07,4.5912,-1.8916e-12,3.3796e-06,-6.1105e-07,-4.5912,1.5781
18263,15.984,1.6364,0,0.00018049,1803.7,6.0928e-05,16.38,5.8749e-05,0.0046119,-0.00018021,-1795.4,1.6207
18264,15.892,1.5455,0,0.00018278,1826.5,6.1661e-05,16.098,5.9519e-05,0.003878,-0.0001825,-1818.4,1.6064
18265,15.892,1.6364,0.05,7.9246e-07,7.9191,6.0851e-07,4.5721,-9.8592e-13,4.5756e-06,-6.0851e-07,-4.5721,1.6065
18266,16.169,1.6364,0,0.00017598,1758.6,5.9489e-05,16.953,5.7233e-05,0.004778,-0.00017569,-1750.1,1.6493
18267,16.077,1.5455,0,0.00017826,1781.4,6.0215e-05,16.646,5.8001e-05,0.0040126,-0.00017797,-1773,1.6349
18268,16.077,1.6364,0.05,7.8917e-07,7.8863,6.0599e-07,4.5532,-1.4403e-12,4.7544e-06,-6.0598e-07,-4.5531,1.635
18269,16.353,1.6364,0,0.0001715,1713.8,5.8058e-05,17.548,5.5724e-05,0.0049765,-0.00017119,-1705,1.678
18270,16.261,1.5455,0,0.00017377,1736.5,5.8779e-05,17.212,5.6488e-05,0.0041812,-0.00017347,-1727.8,1.6635
18271,16.261,1.6364,0.05,7.8591e-07,7.8536,6.0348e-07,4.5343,-9.8578e-13,6.4628e-06,-6.0348e-07,-4.5343,1.6636
18272,16.537,1.6364,0,0.00016703,1669.2,5.6637e-05,18.166,5.422e-05,0.0051854,-0.00016672,-1660,1.7068
18273,16.445,1.5455,0,0.00016929,1691.7,5.7351e-05,17.8,5.4982e-05,0.0043807,-0.00016898,-1682.8,1.6922
18274,16.445,1.6364,0.05,7.8268e-07,7.8214,6.01e-07,4.5157,-1.0061e-12,6.8397e-06,-6.01e-07,-4.5156,1.6923
18275,16.721,1.6364,0,0.00016259,1624.8,5.5225e-05,18.813,5.2721e-05,0.0053911,-0.00016226,-1615.3,1.7357
18276,16.629,1.5455,0,0.00016484,1647.2,5.5932e-05,18.413,5.3482e-05,0.0045677,-0.00016451,-1637.9,1.7211
18277,16.629,1.6364,0.05,7.7948e-07,7.7894,5.9855e-07,4.4973,-1.4622e-12,7.046e-06,-5.9854e-07,-4.4972,1.7212
18278,16.906,1.6364,0,0.00015817,1580.6,5.3822e-05,19.49,5.1229e-05,0.0055981,-0.00015783,-1570.8,1.7647
18279,16.814,1.5455,0,0.0001604,1602.9,5.4522e-05,19.053,5.1987e-05,0.004763,-0.00016007,-1593.3,1.75
18280,16.814,1.6364,0.05,7.7632e-07,7.7578,5.9612e-07,4.479,-1.4661e-12,5.4233e-06,-5.9612e-07,-4.479,1.7502
18281,17.09,1.6364,0,0.00015377,1536.7,5.243e-05,20.203,4.9742e-05,0.0058208,-0.00015342,-1526.5,1.7938
18282,16.998,1.5455,0,0.00015599,1558.8,5.3122e-05,19.726,5.0497e-05,0.0049511,-0.00015565,-1548.9,1.7791
18283,16.998,1.6364,0.05,7.7319e-07,7.7266,5.9371e-07,4.461,-1.9214e-12,6.3811e-06,-5.9371e-07,-4.4609,1.7792
18284,17.274,1.6364,0,0.0001494,1492.9,5.1048e-05,20.956,4.826e-05,0.0060776,-0.00014903,-1482.3,1.823
18285,17.182,1.5455,0,0.0001516,1515,5.1733e-05,20.434,4.9014e-05,0.0051717,-0.00015124,-1504.7,1.8083
18286,17.182,1.6364,0.05,7.7009e-07,7.6956,5.9133e-07,4.4431,-1.0112e-12,6.0302e-06,-5.9133e-07,-4.443,1.8084
18287,17.459,1.6364,0,0.00014504,1449.4,4.9677e-05,21.752,4.6783e-05,0.0063515,-0.00014466,-1438.4,1.8524
18288,17.366,1.5455,0,0.00014724,1471.3,5.0353e-05,21.182,4.7535e-05,0.0054298,-0.00014686,-1460.6,1.8376
18289,17.366,1.6364,0.05,7.6703e-07,7.6651,5.8899e-07,4.4254,-1.4807e-12,5.7543e-06,-5.8898e-07,-4.4254,1.8377
18290,17.643,1.6364,0,0.00014071,1406.1,4.8318e-05,22.597,4.5311e-05,0.0066316,-0.00014031,-1394.7,1.8818
18291,17.551,1.5455,0,0.00014289,1427.9,4.8985e-05,21.974,4.6062e-05,0.0056836,-0.0001425,-1416.8,1.867
18292,17.551,1.6364,0.05,7.6402e-07,7.635,5.8668e-07,4.4081,-5.7295e-13,6.9761e-06,-5.8667e-07,-4.408,1.8671
18293,17.827,1.6364,0,0.0001364,1363.1,4.6971e-05,23.495,4.3845e-05,0.0069228,-0.00013599,-1351.2,1.9113
18294,17.735,1.5455,0,0.00013857,1384.7,4.7629e-05,22.815,4.4593e-05,0.0059516,-0.00013817,-1373.2,1.8964
18295,17.735,1.6364,0.05,7.6106e-07,7.6053,5.844e-07,4.391,-5.803e-13,5.5014e-06,-5.844e-07,-4.3909,1.8965
18296,18.011,1.6364,0,0.00013212,1320.3,4.5636e-05,24.452,4.2383e-05,0.0072372,-0.00013168,-1307.9,1.9409
18297,17.919,1.5455,0,0.00013427,1341.8,4.6284e-05,23.709,4.3129e-05,0.0062259,-0.00013385,-1329.7,1.926
18298,17.919,1.6364,0.05,7.5814e-07,7.5761,5.8216e-07,4.3741,-1.9421e-12,7.1086e-06,-5.8215e-07,-4.3741,1.9261
18299,18.196,1.6364,0,0.00012786,1277.7,4.4314e-05,25.473,4.0925e-05,0.0075923,-0.0001274,-1264.7,1.9706
18300,18.103,1.5455,0,0.00012999,1299,4.4952e-05,24.661,4.1671e-05,0.0065368,-0.00012955,-1286.5,1.9557
18301,18.103,1.6364,0.05,7.5526e-07,7.5474,5.7995e-07,4.3575,-1.9673e-12,7.784e-06,-5.7994e-07,-4.3575,1.9558
18302,18.38,1.6364,0,0.00012362,1235.3,4.3006e-05,26.564,3.9472e-05,0.0079759,-0.00012314,-1221.8,2.0004
18303,18.288,1.5455,0,0.00012574,1256.5,4.3632e-05,25.677,4.0216e-05,0.0068889,-0.00012528,-1243.5,1.9854
18304,18.288,1.6364,0.05,7.5245e-07,7.5193,5.7779e-07,4.3413,-1.0755e-12,9.5739e-06,-5.7779e-07,-4.3412,1.9855
18305,18.564,1.6364,0,0.0001194,1193.2,4.1712e-05,27.731,3.8022e-05,0.0083781,-0.00011891,-1179.1,2.0303
18306,18.472,1.5455,0,0.00012151,1214.3,4.2327e-05,26.763,3.8766e-05,0.0072542,-0.00012103,-1200.7,2.0152
18307,18.472,1.6364,0.05,7.497e-07,7.4918,5.7568e-07,4.3254,-1.077e-12,1.2782e-05,-5.7567e-07,-4.3254,2.0153
18308,18.748,1.6364,0,0.00011521,1151.4,4.0433e-05,28.982,3.6577e-05,0.0088043,-0.00011469,-1136.6,2.0602
18309,18.656,1.5455,0,0.0001173,1172.2,4.1035e-05,27.924,3.732e-05,0.0076435,-0.0001168,-1158,2.0452
18310,18.656,1.6364,0.05,7.4701e-07,7.465,5.7361e-07,4.3099,-1.5474e-12,9.1191e-06,-5.7361e-07,-4.3099,2.0452
18311,18.933,1.6364,0,0.00011105,1109.7,3.917e-05,30.323,3.5135e-05,0.0092699,-0.0001105,-1094.3,2.0903
18312,18.841,1.5455,0,0.00011312,1130.5,3.9758e-05,29.168,3.5877e-05,0.0080541,-0.0001126,-1115.6,2.0751
18313,18.841,1.6364,0.05,7.4439e-07,7.4388,5.716e-07,4.2948,-1.1329e-12,7.4692e-06,-5.716e-07,-4.2948,2.0752
18314,19.117,1.6364,0,0.00010691,1068.4,3.7923e-05,31.762,3.3697e-05,0.0097916,-0.00010634,-1052.1,2.1204
18315,19.025,1.5455,0,0.00010897,1088.9,3.8497e-05,30.501,3.4438e-05,0.0085174,-0.00010842,-1073.3,2.1052
18316,19.025,1.6364,0.05,7.4185e-07,7.4134,5.6965e-07,4.2801,-1.6077e-12,9.1808e-06,-5.6965e-07,-4.2801,2.1053
18317,19.301,1.6364,0,0.0001028,1027.3,3.6693e-05,33.308,3.2261e-05,0.010359,-0.00010219,-1010.2,2.1506
18318,19.209,1.5455,0,0.00010484,1047.6,3.7252e-05,31.932,3.3003e-05,0.0090365,-0.00010426,-1031.3,2.1354
18319,19.209,1.6364,0.05,7.3939e-07,7.3888,5.6776e-07,4.266,-2.6983e-13,7.987e-06,-5.6776e-07,-4.2659,2.1354
18320,19.485,1.6364,0,9.8714e-05,986.45,3.5482e-05,34.97,3.0829e-05,0.010973,-9.8072e-05,-968.5,2.1808
18321,19.393,1.5455,0,0.00010073,1006.6,3.6024e-05,33.468,3.1571e-05,0.0095904,-0.00010012,-989.46,2.1656
18322,19.393,1.6364,0.05,7.3703e-07,7.3652,5.6595e-07,4.2524,-7.4007e-13,8.0989e-06,-5.6595e-07,-4.2523,2.1656
18323,19.67,1.6364,0,9.4655e-05,945.89,3.4289e-05,36.758,2.9399e-05,0.01164,-9.3976e-05,-926.97,2.2111
18324,19.578,1.5455,0,9.6653e-05,965.86,3.4814e-05,35.119,3.0141e-05,0.010196,-9.6007e-05,-947.82,2.1959
18325,19.578,1.6364,0.05,7.3477e-07,7.3427,5.6421e-07,4.2393,-1.2351e-12,7.2489e-06,-5.6421e-07,-4.2393,2.1959
18326,19.854,1.6364,0,9.0624e-05,905.61,3.3117e-05,38.681,2.797e-05,0.012376,-8.9904e-05,-885.65,2.2415
18327,19.762,1.5455,0,9.2601e-05,925.37,3.3622e-05,36.893,2.8714e-05,0.010854,-9.1918e-05,-906.37,2.2262
18328,19.762,1.6364,0.05,7.3262e-07,7.3211,5.6256e-07,4.2269,-1.2671e-12,5.2835e-06,-5.6256e-07,-4.2268,2.2263
18329,20.038,1.6364,0,8.6622e-05,865.62,3.1966e-05,40.753,2.6544e-05,0.013204,-8.5856e-05,-844.52,2.2719
18330,19.946,1.5455,0,8.8577e-05,885.16,3.2451e-05,38.802,2.7288e-05,0.011593,-8.7853e-05,-865.11,2.2566
18331,19.946,1.6364,0.05,7.3059e-07,7.3008,5.61e-07,4.2151,-8.1186e-13,1.6849e-06,-5.61e-07,-4.2151,2.2567
18332,20.223,1.6364,0,8.265e-05,825.93,3.0838e-05,42.985,2.5119e-05,0.014122,-8.1834e-05,-803.59,2.3024
18333,20.13,1.5455,0,8.4581e-05,845.23,3.1301e-05,40.857,2.5864e-05,0.012428,-8.3812e-05,-824.05,2.2871
18334,20.13,1.6364,0.05,7.2869e-07,7.2819,5.5954e-07,4.2042,-1.2619e-12,4.5283e-06,-5.5954e-07,-4.2042,2.2871
18335,20.407,1.6364,0,7.8708e-05,786.54,2.9733e-05,45.392,2.3694e-05,0.015142,-7.7837e-05,-762.85,2.333
18336,20.315,1.5455,0,8.0615e-05,805.59,3.0172e-05,43.071,2.4442e-05,0.013345,-7.9795e-05,-783.18,2.3176
18337,20.315,1.6364,0.05,7.2694e-07,7.2644,5.582e-07,4.1941,-1.0548e-12,4.9817e-06,-5.582e-07,-4.1941,2.3177
18338,20.591,1.6364,0,7.4798e-05,747.47,2.8654e-05,47.987,2.227e-05,0.016283,-7.3866e-05,-722.31,2.3636
18339,20.499,1.5455,0,7.6678e-05,766.26,2.9068e-05,45.456,2.302e-05,0.014378,-7.5804e-05,-742.51,2.3482
18340,20.499,1.6364,0.05,7.2536e-07,7.2486,5.5699e-07,4.185,-1.2119e-12,7.1806e-06,-5.5698e-07,-4.1849,2.3482
18341,20.775,1.6364,0,7.0922e-05,708.73,2.7602e-05,50.789,2.0845e-05,0.017572,-6.9921e-05,-681.96,2.3942
18342,20.683,1.5455,0,7.2774e-05,727.24,2.7989e-05,48.029,2.1598e-05,0.015533,-7.1838e-05,-702.03,2.3788
18343,20.683,1.6364,0.05,7.2396e-07,7.2346,5.5591e-07,4.1769,-1.1833e-12,7.9065e-06,-5.5591e-07,-4.1769,2.3789
18344,20.96,1.6364,0,6.7081e-05,670.35,2.6579e-05,53.814,1.9419e-05,0.019047,-6.6003e-05,-641.81,2.4249
18345,20.867,1.5455,0,6.8903e-05,688.55,2.6936e-05,50.806,2.0176e-05,0.016859,-6.7898e-05,-661.74,2.4095
18346,20.867,1.6364,0.05,7.2275e-07,7.2226,5.5499e-07,4.17,-5.311e-13,5.9763e-06,-5.5498e-07,-4.1699,2.4095
18347,21.144,1.6364,0,6.3277e-05,632.33,2.5586e-05,57.084,1.7992e-05,0.020735,-6.2112e-05,-601.85,2.4556
18348,21.052,1.5455,0,6.5067e-05,650.22,2.5912e-05,53.805,1.8753e-05,0.018379,-6.3984e-05,-621.64,2.4402
18349,21.052,1.6364,0.05,7.2179e-07,7.2129,5.5424e-07,4.1644,-1.0209e-12,5.1079e-06,-5.5424e-07,-4.1643,2.4403
18350,21.328,1.6364,0,5.9513e-05,594.72,2.4627e-05,60.62,1.6562e-05,0.022679,-5.8249e-05,-562.08,2.4864
18351,21.236,1.5455,0,6.1268e-05,612.25,2.4918e-05,57.048,1.7328e-05,0.020129,-6.0097e-05,-581.72,2.471
18352,21.236,1.6364,0.05,7.2108e-07,7.2058,5.537e-07,4.1603,-1.0721e-12,2.2782e-06,-5.537e-07,-4.1602,2.471
18353,21.512,1.6364,0,5.5792e-05,557.53,2.3703e-05,64.449,1.5129e-05,0.024936,-5.4415e-05,-522.5,2.5173
18354,21.42,1.5455,0,5.7509e-05,574.69,2.3958e-05,60.558,1.5901e-05,0.022159,-5.6238e-05,-542,2.5018
18355,21.42,1.6364,0.05,7.2066e-07,7.2016,5.5338e-07,4.1579,-1.3514e-12,-4.297e-07,-5.5337e-07,-4.1578,2.5018
18356,21.697,1.6364,0,5.2118e-05,520.82,2.2817e-05,68.597,1.3691e-05,0.027592,-5.061e-05,-483.11,2.5481
18357,21.605,1.5455,0,5.3793e-05,537.56,2.3033e-05,64.361,1.447e-05,0.024535,-5.2408e-05,-502.47,2.5326
18358,21.605,1.6364,0.05,7.2058e-07,7.2008,5.5331e-07,4.1574,-8.8699e-13,-4.1553e-07,-5.5331e-07,-4.1574,2.5327
18359,21.881,1.6364,0,4.8495e-05,484.62,2.1973e-05,73.097,1.2248e-05,0.030757,-4.6836e-05,-443.9,2.579
18360,21.789,1.5455,0,5.0125e-05,500.91,2.2146e-05,68.486,1.3035e-05,0.027364,-4.8607e-05,-463.13,2.5635
18361,21.789,1.6364,0.05,7.2088e-07,7.2038,5.5355e-07,4.1591,-7.6945e-13,3.3634e-06,-5.5354e-07,-4.1591,2.5635
18362,22.065,1.6364,0,4.493e-05,448.99,2.1173e-05,77.982,1.0799e-05,0.03457,-4.3092e-05,-404.88,2.6099
18363,21.973,1.5455,0,4.6511e-05,464.78,2.1302e-05,72.969,1.1594e-05,0.030763,-4.4837e-05,-423.97,2.5944
18364,21.973,1.6364,0.05,7.2163e-07,7.2113,5.5412e-07,4.1635,-1.2947e-12,5.6633e-06,-5.5412e-07,-4.1634,2.5944
18365,22.249,1.6364,0,4.1431e-05,414.03,2.0421e-05,83.291,9.3409e-06,0.039224,-3.9381e-05,-366.04,2.6409
18366,22.157,1.5455,0,4.2956e-05,429.26,2.0503e-05,77.845,1.0147e-05,0.034896,-4.1099e-05,-385,2.6253
18367,22.157,1.6364,0.05,7.2291e-07,7.2241,5.551e-07,4.1709,-1.3295e-12,4.4538e-06,-5.551e-07,-4.1708,2.6254
18368,22.434,1.6364,0,3.8008e-05,379.82,1.9721e-05,89.065,7.8736e-06,0.045035,-3.5701e-05,-327.36,2.6719
18369,22.342,1.5455,0,3.9471e-05,394.44,1.9753e-05,83.159,8.6908e-06,0.039998,-3.7393e-05,-346.21,2.6563
18370,22.342,1.6364,0.05,7.248e-07,7.243,5.5656e-07,4.1818,-9.522e-13,3.4511e-06,-5.5656e-07,-4.1818,2.6564
18371,22.618,1.6364,0,3.4675e-05,346.51,1.9078e-05,95.347,6.3949e-06,0.052405,-3.2054e-05,-288.84,2.7029
18372,22.526,1.5455,0,3.6067e-05,360.43,1.9058e-05,88.957,7.2249e-06,0.046474,-3.3721e-05,-307.6,2.6873
18373,22.526,1.6364,0.05,7.2743e-07,7.2693,5.5858e-07,4.197,-1.0198e-12,3.9921e-07,-5.5858e-07,-4.1969,2.6873
18374,22.802,1.6364,0,3.1449e-05,314.27,1.8494e-05,102.18,4.9025e-06,0.062315,-2.8439e-05,-250.45,2.7339
18375,22.71,1.5455,0,3.2761e-05,327.38,1.8422e-05,95.288,5.747e-06,0.054748,-3.0082e-05,-269.15,2.7183
18376,22.71,1.6364,0.05,7.3094e-07,7.3043,5.6127e-07,4.2172,-9.4083e-13,-3.6265e-06,-5.6127e-07,-4.2171,2.7184
18377,22.987,1.6364,0,2.8356e-05,283.36,1.7973e-05,109.61,3.3943e-06,0.075131,-2.4854e-05,-212.17,2.7649
18378,22.894,1.5455,0,2.9573e-05,295.53,1.7848e-05,102.2,4.2548e-06,0.066401,-2.6478e-05,-230.85,2.7494
18379,22.894,1.6364,0.05,7.3547e-07,7.3496,5.6475e-07,4.2433,-9.0764e-13,-4.3435e-06,-5.6475e-07,-4.2433,2.7494
18380,23.171,1.6364,0,2.5429e-05,254.12,1.7516e-05,117.67,1.868e-06,0.096976,-2.1295e-05,-173.94,2.796
18381,23.079,1.5455,0,2.6534e-05,265.16,1.7342e-05,109.75,2.7456e-06,0.080701,-2.2905e-05,-192.65,2.7804
18382,23.079,1.6364,0.05,7.4119e-07,7.4068,5.6914e-07,4.2763,-1.1954e-12,-1.314e-06,-5.6914e-07,-4.2763,2.7805
18383,23.355,1.6364,0,2.2719e-05,227.03,1.7124e-05,126.38,3.2019e-07,0.11864,-1.7758e-05,-135.72,2.8271
18384,23.263,1.5455,0,2.3685e-05,236.69,1.6904e-05,117.97,1.2176e-06,0.11092,-1.9361e-05,-154.51,2.8115
18385,23.263,1.6364,0.05,7.4828e-07,7.4776,5.7458e-07,4.3172,-7.5082e-13,-4.0802e-06,-5.7458e-07,-4.3172,2.8115
18386,23.539,1.6364,0,2.0297e-05,202.83,1.6797e-05,135.77,-1.2456e-06,0.21202,-1.4239e-05,-97.412,2.8582
18387,23.447,1.5455,0,2.1087e-05,210.72,1.6536e-05,126.88,-3.3477e-07,0.12655,-1.5839e-05,-116.36,2.8426
18388,23.447,1.6364,0.05,7.5683e-07,7.5631,5.8115e-07,4.3666,-2.4011e-13,-3.5997e-06,-5.8115e-07,-4.3666,2.8426
18389,23.724,1.6364,0,1.827e-05,182.57,1.6533e-05,145.79,-2.8449e-06,0.19941,-1.0729e-05,-59.041,2.8893
18390,23.631,1.5455,0,1.8828e-05,188.15,1.6235e-05,136.56,-1.8992e-06,0.30642,-1.2337e-05,-78.117,2.8737
18391,23.631,1.6364,0.05,7.6735e-07,7.6683,5.8923e-07,4.4273,-9.2967e-13,-5.6139e-06,-5.8923e-07,-4.4273,2.8737
18392,23.816,1.5455,0,1.7039e-05,170.27,1.6005e-05,146.82,-3.5139e-06,0.15933,-8.8485e-06,-39.923,2.9048
18393,23.816,1.6364,0.05,7.8782e-07,7.8728,6.0495e-07,4.5454,-1.0606e-12,-5.0444e-06,-6.0495e-07,-4.5453,2.9048
18394,23.908,1.6364,0,1.6794e-05,167.83,1.63e-05,155.6,-4.3528e-06,0.42069,-7.4052e-06,-22.514,2.9204
18395,1.2431,1.4545,0,0.00073964,7391.3,0.00046365,2777.7,9.1412e-05,-19.167,-0.00065187,-5603.9,0.014073
18396,1.1509,1.3636,0,0.00071646,7159.6,0.00047943,3104.7,6.3115e-05,-23.358,-0.00061078,-5086.7,0.0091586
18397,1.1509,1.4545,0.05,3.6283e-05,362.58,2.7861e-05,209.33,2.7752e-11,0.00034324,-2.7861e-05,-209.33,0.009834
18398,1.0588,1.4545,0,0.00064742,6469.7,0.00044494,2966.9,4.6631e-05,-25.881,-0.00054317,-4457.4,0.0062385
18399,1.4273,1.4545,0,0.00067051,6700.4,0.00035919,1715.1,0.00013055,-2.8159,-0.00062464,-5677.1,0.022282
18400,1.3352,1.3636,0,0.00063783,6373.9,0.00036745,1970.2,0.00010515,-0.61255,-0.00058103,-5156.3,0.01734
18401,1.3352,1.4545,0.05,2.3475e-05,234.59,1.8026e-05,135.44,4.1809e-11,0.0004383,-1.8026e-05,-135.44,0.017989
18402,1.6116,1.4545,0,0.00063223,6317.9,0.00029327,1035.8,0.00015483,-4.3733,-0.00060822,-5737.7,0.030824
18403,1.5195,1.3636,0,0.00060496,6045.4,0.00030159,1256.9,0.00013374,-4.2493,-0.0005737,-5319.6,0.025831
18404,1.5195,1.4545,0.05,1.4195e-05,141.85,1.09e-05,81.898,5.1e-11,0.00056658,-1.09e-05,-81.898,0.026401
18405,1.7959,1.4545,0,0.00060569,6052.7,0.00024851,588,0.00016966,-4.4966,-0.00059358,-5739.2,0.039723
18406,1.7037,1.3636,0,0.00058398,5835.8,0.00025605,771.06,0.00015292,-3.8307,-0.00056706,-5413.5,0.03464
18407,1.7037,1.4545,0.05,1.0127e-05,101.2,7.7762e-06,58.427,6.0895e-11,0.00055602,-7.7762e-06,-58.427,0.035139
18408,1.9801,1.4545,0,0.00058775,5873.5,0.00021916,300.78,0.00017842,-5.341,-0.00058213,-5719.8,0.048997
18409,1.888,1.3636,0,0.00057098,5705.9,0.00022566,448.59,0.00016543,-3.9109,-0.00056207,-5470.1,0.043791
18410,1.888,1.4545,0.05,7.7302e-06,77.249,5.9358e-06,44.6,6.7698e-11,0.00058214,-5.9359e-06,-44.6,0.044236
18411,2.1644,1.4545,0,0.00057498,5745.8,0.00020012,119.19,0.00018304,-9.1097,-0.000573,-5689.7,0.05865
18412,2.0723,1.3636,0,0.00056249,5621,0.00020552,236.87,0.00017336,-4.7865,-0.00055815,-5501.1,0.053301
18413,2.0723,1.4545,0.05,6.2772e-06,62.729,4.8201e-06,36.216,4.9047e-11,0.00050956,-4.8201e-06,-36.216,0.053707
18414,2.3487,1.4545,0,0.00056519,5648,0.00019008,23.098,0.00018258,-33.311,-0.00056534,-5652.9,0.068686
18415,2.2565,1.3636,0,0.0005563,5559.2,0.00019221,98.834,0.00017799,-8.0089,-0.00055468,-5513,0.063179
18416,2.2565,1.4545,0.05,5.2246e-06,52.21,4.0118e-06,30.143,4.2352e-11,0.00052937,-4.0118e-06,-30.143,0.063557
18417,2.5329,1.4545,0,0.00055706,5566.8,0.00018899,5.8431,0.0001756,-94.786,-0.0005585,-5610.5,0.079102
18418,2.4408,1.3636,0,0.00055113,5507.5,0.00018498,21.802,0.00017861,-25.991,-0.00055118,-5509.4,0.073429
18419,2.4408,1.4545,0.05,4.4077e-06,44.047,3.3845e-06,25.43,3.0369e-11,0.00049758,-3.3846e-06,-25.43,0.073787
18420,2.7172,1.4545,0,0.00054986,5494.8,0.00018874,2.7926,0.00016928,-143.46,-0.00055211,-5563.7,0.089897
18421,2.6251,1.3636,0,0.00054628,5459,0.00018441,5.5171,0.00017376,-74.436,-0.00054741,-5493,0.08405
18422,2.6251,1.4545,0.05,3.7479e-06,37.453,2.8779e-06,21.624,4.1377e-11,0.00034966,-2.8779e-06,-21.624,0.084397
18423,2.9015,1.4545,0,0.00054318,5428.1,0.00018804,1.6501,0.00016439,-176.03,-0.00054593,-5513.1,0.10107
18424,2.8093,1.3636,0,0.00054145,5410.7,0.0001846,2.5813,0.00016884,-115.87,-0.00054328,-5466.4,0.095043
18425,2.8093,1.4545,0.05,3.2093e-06,32.071,2.4643e-06,18.516,3.1412e-11,0.00044471,-2.4643e-06,-18.516,0.095382
18426,3.0857,1.4545,0,0.00053682,5364.5,0.0001869,1.071,0.00016056,-196.81,-0.00053987,-5459.6,0.11261
18427,2.9936,1.3636,0,0.0005365,5361.3,0.00018431,1.5045,0.0001648,-145.09,-0.00053879,-5431.6,0.1064
18428,2.9936,1.4545,0.05,2.7693e-06,27.674,2.1265e-06,15.978,2.864e-11,0.00019229,-2.1265e-06,-15.978,0.10674
18429,3.27,1.4545,0,0.00053066,5302.9,0.00018543,0.73216,0.00015751,-209.11,-0.00053389,-5404,0.12451
18430,3.1779,1.3636,0,0.00053142,5310.5,0.00018355,0.96828,0.00016149,-164.79,-0.00053401,-5390.5,0.11813
18431,3.1779,1.4545,0.05,2.4119e-06,24.102,1.852e-06,13.915,1.9584e-11,0.00022924,-1.852e-06,-13.915,0.11846
18432,3.4543,1.4545,0,0.00052465,5242.9,0.00018373,0.51736,0.00015502,-215.23,-0.00052797,-5346.9,0.13678
18433,3.3621,1.3636,0,0.00052621,5258.5,0.00018241,0.65882,0.00015872,-177.35,-0.00052899,-5344.6,0.13022
18434,3.3621,1.4545,0.05,2.1239e-06,21.225,1.6309e-06,12.254,1.6959e-11,0.00020852,-1.6309e-06,-12.254,0.13056
18435,3.6385,1.4545,0,0.00051877,5184.1,0.00018185,0.37423,0.00015295,-216.78,-0.00052211,-5288.9,0.14941
18436,3.5464,1.3636,0,0.00052091,5205.5,0.000181,0.46474,0.00015638,-184.48,-0.0005238,-5295.1,0.14267
18437,3.5464,1.4545,0.05,1.8942e-06,18.929,1.4545e-06,10.929,1.3945e-11,0.00018643,-1.4545e-06,-10.929,0.14301
18438,3.8228,1.4545,0,0.00051299,5126.4,0.00017985,0.2756,0.0001512,-214.94,-0.00051631,-5230.3,0.16239
18439,3.7307,1.3636,0,0.00051555,5152,0.00017936,0.33646,0.00015437,-187.45,-0.00051848,-5243,0.15548
18440,3.7307,1.4545,0.05,1.7128e-06,17.116,1.3152e-06,9.8822,1.1347e-11,0.00012406,-1.3152e-06,-9.8822,0.15581
18441,4.0071,1.4545,0,0.00050731,5069.6,0.00017775,0.20596,0.0001497,-210.55,-0.00051056,-5171.5,0.17573
18442,3.9149,1.3636,0,0.00051017,5098.1,0.00017756,0.24854,0.00015261,-187.21,-0.00051309,-5189,0.16863
18443,3.9149,1.4545,0.05,1.5709e-06,15.698,1.2062e-06,9.0631,9.6907e-12,0.00010604,-1.2062e-06,-9.063,0.16897
18444,4.1913,1.4545,0,0.00050172,5013.7,0.0001756,0.15586,0.00014839,-204.29,-0.00050488,-5112.6,0.18941
18445,4.0992,1.3636,0,0.00050477,5044.2,0.00017564,0.18665,0.00015106,-184.51,-0.00050765,-5133.8,0.18214
18446,4.0992,1.4545,0.05,1.4604e-06,14.594,1.1214e-06,8.4261,6.7896e-12,8.9612e-05,-1.1214e-06,-8.426,0.18248
18447,4.3756,1.4545,0,0.0004962,4958.5,0.0001734,0.11927,0.00014721,-196.66,-0.00049925,-5053.9,0.20343
18448,4.2835,1.3636,0,0.00049937,4990.3,0.00017364,0.14217,0.00014967,-179.94,-0.00050219,-5077.7,0.19599
18449,4.2835,1.4545,0.05,1.3748e-06,13.739,1.0557e-06,7.932,4.5479e-12,7.4457e-05,-1.0557e-06,-7.9319,0.19634
18450,4.5599,1.4545,0,0.00049074,4904,0.00017118,0.092193,0.00014613,-188.08,-0.00049367,-4995.3,0.21779
18451,4.4677,1.3636,0,0.00049399,4936.5,0.00017157,0.10964,0.0001484,-173.96,-0.00049672,-5021.1,0.21018
18452,4.4677,1.4545,0.05,1.3083e-06,13.074,1.0046e-06,7.548,2.8725e-12,4.4219e-05,-1.0046e-06,-7.5479,0.21053
18453,4.7441,1.4545,0,0.00048534,4850,0.00016895,0.071944,0.00014513,-178.87,-0.00048813,-4936.9,0.23249
18454,4.652,1.3636,0,0.00048863,4882.9,0.00016945,0.085512,0.00014722,-166.95,-0.00049125,-4964.2,0.22471
18455,4.652,1.4545,0.05,1.2562e-06,12.553,9.6459e-07,7.2476,-4.5599e-13,3.6004e-05,-9.6459e-07,-7.2475,0.22506
18456,4.9284,1.4545,0,0.00047998,4796.5,0.00016671,0.056651,0.00014417,-169.28,-0.00048264,-4878.9,0.24752
18457,4.8363,1.3636,0,0.00048329,4829.5,0.00016731,0.06739,0.00014611,-159.24,-0.0004858,-4907.2,0.23958
18458,4.8363,1.4545,0.05,1.215e-06,12.141,9.3295e-07,7.0099,-7.3422e-13,4.4549e-05,-9.3294e-07,-7.0097,0.23993
18459,5.1127,1.4545,0,0.00047467,4743.4,0.00016448,0.045004,0.00014324,-159.54,-0.00047718,-4821.1,0.26288
18460,5.0205,1.3636,0,0.00047796,4776.4,0.00016516,0.05363,0.00014504,-151.08,-0.00048035,-4850.1,0.25477
18461,5.0205,1.4545,0.05,1.1818e-06,11.81,9.075e-07,6.8186,-1.1045e-12,2.8074e-05,-9.0749e-07,-6.8185,0.25512
18462,5.2969,1.4545,0,0.00046938,4690.6,0.00016226,0.036064,0.00014232,-149.79,-0.00047175,-4763.6,0.27856
18463,5.2048,1.3636,0,0.00047266,4723.3,0.00016299,0.043081,0.000144,-142.66,-0.00047493,-4793,0.27029
18464,5.2048,1.4545,0.05,1.1547e-06,11.539,8.8665e-07,6.662,-2.9371e-12,3.0712e-05,-8.8665e-07,-6.6618,0.27064
18465,5.4812,1.4545,0,0.00046412,4638,0.00016005,0.029156,0.00014139,-140.17,-0.00046634,-4706.5,0.29456
18466,5.3891,1.3636,0,0.00046737,4670.5,0.00016083,0.034925,0.00014297,-134.16,-0.00046951,-4736.1,0.28613
18467,5.3891,1.4545,0.05,1.132e-06,11.312,8.6924e-07,6.5312,-3.1998e-12,2.8853e-05,-8.6923e-07,-6.531,0.28648
18468,5.6655,1.4545,0,0.00045888,4585.6,0.00015786,0.023786,0.00014046,-130.77,-0.00046096,-4649.6,0.31088
18469,5.5733,1.3636,0,0.0004621,4617.8,0.00015868,0.028571,0.00014195,-125.7,-0.00046411,-4679.4,0.30229
18470,5.5733,1.4545,0.05,1.1127e-06,11.119,8.5438e-07,6.4196,-2.3889e-12,2.1486e-05,-8.5438e-07,-6.4194,0.30265
18471,5.8497,1.4545,0,0.00045365,4533.4,0.00015569,0.019587,0.0001395,-121.66,-0.0004556,-4593,0.32751
18472,5.7576,1.3636,0,0.00045684,4565.2,0.00015654,0.023586,0.00014091,-117.38,-0.00045872,-4622.8,0.31877
18473,5.7576,1.4545,0.05,1.0958e-06,10.951,8.4148e-07,6.3226,-4.4966e-12,1.5674e-05,-8.4147e-07,-6.3224,0.31912
18474,6.034,1.4545,0,0.00044843,4481.2,0.00015354,0.01629,0.00013851,-112.91,-0.00045025,-4536.6,0.34445
18475,5.9419,1.3636,0,0.00045159,4512.8,0.00015441,0.019653,0.00013986,-109.28,-0.00045335,-4566.4,0.33556
18476,5.9419,1.4545,0.05,1.081e-06,10.802,8.3006e-07,6.2368,-4.5339e-12,1.0503e-05,-8.3005e-07,-6.2367,0.33591
18477,6.2183,1.4545,0,0.00044322,4429.2,0.00015141,0.013689,0.0001375,-104.53,-0.00044491,-4480.5,0.3617
18478,6.1261,1.3636,0,0.00044634,4460.4,0.00015229,0.016531,0.00013879,-101.46,-0.00044798,-4510.2,0.35265
18479,6.1261,1.4545,0.05,1.0676e-06,10.669,8.1981e-07,6.1598,-3.4627e-12,1.375e-05,-8.1981e-07,-6.1597,0.353
18480,6.4025,1.4545,0,0.00043802,4377.2,0.0001493,0.01163,0.00013645,-96.558,-0.00043958,-4424.6,0.37925
18481,6.3104,1.3636,0,0.00044111,4408,0.0001502,0.014042,0.00013769,-93.951,-0.00044263,-4454.2,0.37005
18482,6.3104,1.4545,0.05,1.0555e-06,10.548,8.105e-07,6.0898,-5.3356e-12,1.0764e-05,-8.1049e-07,-6.0896,0.3704
18483,6.5868,1.4545,0,0.00043282,4325.2,0.00014722,0.0099942,0.00013537,-89.002,-0.00043427,-4369,0.3971
18484,6.4947,1.3636,0,0.00043587,4355.7,0.00014812,0.012048,0.00013656,-86.783,-0.00043729,-4398.5,0.38775
18485,6.4947,1.4545,0.05,1.0443e-06,10.436,8.0193e-07,6.0255,-5.6928e-12,1.144e-05,-8.0193e-07,-6.0253,0.3881
18486,6.7711,1.4545,0,0.00042762,4273.3,0.00014515,0.0086919,0.00013426,-81.865,-0.00042896,-4313.6,0.41524
18487,6.6789,1.3636,0,0.00043065,4303.5,0.00014606,0.010445,0.00013541,-79.973,-0.00043195,-4342.9,0.40575
18488,6.6789,1.4545,0.05,1.034e-06,10.333,7.94e-07,5.9659,-4.0046e-12,1.2192e-05,-7.9399e-07,-5.9656,0.4061
18489,6.9553,1.4545,0,0.00042243,4221.4,0.00014311,0.0076533,0.00013311,-75.145,-0.00042366,-4258.5,0.43367
18490,6.8632,1.3636,0,0.00042542,4251.3,0.00014402,0.0091506,0.00013423,-73.526,-0.00042663,-4287.6,0.42404
18491,6.8632,1.4545,0.05,1.0244e-06,10.237,7.8659e-07,5.9102,-5.9736e-12,8.4662e-06,-7.8658e-07,-5.91,0.42439
18492,7.1396,1.4545,0,0.00041724,4169.5,0.00014108,0.0068237,0.00013192,-68.833,-0.00041837,-4203.5,0.45239
18493,7.0475,1.3636,0,0.0004202,4199.1,0.00014199,0.0081034,0.00013302,-67.444,-0.00042131,-4232.4,0.44262
18494,7.0475,1.4545,0.05,1.0153e-06,10.146,7.7964e-07,5.8579,-2.5858e-12,8.3574e-06,-7.7963e-07,-5.8578,0.44296
18495,7.3239,1.4545,0,0.00041205,4117.7,0.00013908,0.006161,0.00013071,-62.917,-0.00041308,-4148.7,0.4714
18496,7.2317,1.3636,0,0.00041499,4147,0.00013999,0.007254,0.00013178,-61.723,-0.000416,-4177.5,0.46149
18497,7.2317,1.4545,0.05,1.0068e-06,10.061,7.7308e-07,5.8086,-6.3134e-12,7.3222e-06,-7.7307e-07,-5.8085,0.46183
18498,7.5081,1.4545,0,0.00040686,4065.8,0.0001371,0.0056321,0.00012946,-57.383,-0.00040781,-4094.2,0.49068
18499,7.416,1.3636,0,0.00040977,4094.9,0.00013801,0.0065638,0.00013051,-56.353,-0.0004107,-4122.8,0.48064
18500,7.416,1.4545,0.05,9.9869e-07,9.98,7.6687e-07,5.762,-2.8208e-12,6.5496e-06,-7.6686e-07,-5.7619,0.48097
18501,7.6924,1.4545,0,0.00040168,4014,0.00013513,0.0052113,0.00012818,-52.215,-0.00040254,-4039.9,0.51025
18502,7.6003,1.3636,0,0.00040456,4042.9,0.00013604,0.0060038,0.00012921,-51.324,-0.00040541,-4068.3,0.50006
18503,7.6003,1.4545,0.05,9.9101e-07,9.9032,7.6097e-07,5.7177,-6.4998e-12,7.077e-06,-7.6097e-07,-5.7176,0.5004
18504,7.8767,1.4545,0,0.0003965,3962.2,0.00013318,0.0048785,0.00012688,-47.395,-0.00039728,-3985.7,0.53008
18505,7.7845,1.3636,0,0.00039936,3990.9,0.00013409,0.0055486,0.00012789,-46.623,-0.00040013,-4014,0.51977
18506,7.7845,1.4545,0.05,9.8369e-07,9.8301,7.5535e-07,5.6755,-4.7419e-12,6.3552e-06,-7.5535e-07,-5.6754,0.5201
18507,8.0609,1.4545,0,0.00039132,3910.5,0.00013126,0.0046178,0.00012554,-42.905,-0.00039203,-3931.8,0.55019
18508,7.9688,1.3636,0,0.00039416,3938.9,0.00013216,0.0051812,0.00012654,-42.234,-0.00039486,-3959.8,0.53974
18509,7.9688,1.4545,0.05,9.767e-07,9.7602,7.4999e-07,5.6352,-3.0758e-12,6.4981e-06,-7.4998e-07,-5.635,0.54007
18510,8.2452,1.4545,0,0.00038615,3858.8,0.00012934,0.0044167,0.00012419,-38.726,-0.00038679,-3878,0.57056
18511,8.1531,1.3636,0,0.00038897,3887,0.00013024,0.0048862,0.00012517,-38.141,-0.0003896,-3905.9,0.55998
18512,8.1531,1.4545,0.05,9.7e-07,9.6934,7.4485e-07,5.5965,-4.9168e-12,5.6355e-06,-7.4484e-07,-5.5964,0.56031
18513,8.4295,1.4545,0,0.00038098,3807.2,0.00012745,0.0042664,0.00012281,-34.84,-0.00038156,-3824.5,0.59119
18514,8.3373,1.3636,0,0.00038378,3835.2,0.00012834,0.0046529,0.00012378,-34.33,-0.00038435,-3852.2,0.58049
18515,8.3373,1.4545,0.05,9.6358e-07,9.6292,7.3992e-07,5.5595,-3.1621e-12,5.5522e-06,-7.399e-07,-5.5593,0.58081
18516,8.6137,1.4545,0,0.00037582,3755.6,0.00012556,0.0041598,0.00012141,-31.23,-0.00037634,-3771.1,0.61208
18517,8.5216,1.3636,0,0.0003786,3783.4,0.00012646,0.0044725,0.00012236,-30.783,-0.00037912,-3798.7,0.60126
18518,8.5216,1.4545,0.05,9.574e-07,9.5674,7.3517e-07,5.5238,-4.0945e-12,5.7817e-06,-7.3516e-07,-5.5237,0.60158
18519,8.798,1.4545,0,0.00037066,3704.1,0.0001237,0.0040912,0.00011999,-27.877,-0.00037113,-3717.9,0.63323
18520,8.7059,1.3636,0,0.00037343,3731.7,0.00012459,0.0043396,0.00012093,-27.486,-0.00037389,-3745.4,0.62228
18521,8.7059,1.4545,0.05,9.5145e-07,9.508,7.306e-07,5.4895,-3.2465e-12,4.8308e-06,-7.306e-07,-5.4894,0.6226
18522,8.9823,1.4545,0,0.00036551,3652.6,0.00012184,0.0040581,0.00011855,-24.765,-0.00036593,-3664.9,0.65463
18523,8.8901,1.3636,0,0.00036826,3680.1,0.00012274,0.0042485,0.00011948,-24.422,-0.00036867,-3692.2,0.64356
18524,8.8901,1.4545,0.05,9.4571e-07,9.4506,7.2619e-07,5.4563,-3.2781e-12,5.2361e-06,-7.2618e-07,-5.4562,0.64387
18525,9.1665,1.4545,0,0.00036038,3601.3,0.00012001,0.0040593,0.00011709,-21.877,-0.00036074,-3612.2,0.67628
18526,9.0744,1.3636,0,0.00036311,3628.6,0.00012089,0.0041991,0.00011802,-21.576,-0.00036347,-3639.3,0.66509
18527,9.0744,1.4545,0.05,9.4015e-07,9.3951,7.2192e-07,5.4243,-3.3286e-12,4.8807e-06,-7.2192e-07,-5.4242,0.6654
18528,9.3508,1.4545,0,0.00035525,3550,0.00011818,0.0040943,0.00011563,-19.198,-0.00035557,-3559.6,0.69818
18529,9.2587,1.3636,0,0.00035796,3577.2,0.00011906,0.0041896,0.00011654,-18.933,-0.00035828,-3586.6,0.68686
18530,9.2587,1.4545,0.05,9.3477e-07,9.3413,7.1779e-07,5.3932,-4.2684e-12,3.9896e-06,-7.1778e-07,-5.3931,0.68717
18531,9.5351,1.4545,0,0.00035012,3498.8,0.00011637,0.0041663,0.00011414,-16.713,-0.00035041,-3507.2,0.72031
18532,9.4429,1.3636,0,0.00035283,3525.8,0.00011725,0.0042234,0.00011505,-16.48,-0.0003531,-3534,0.70888
18533,9.4429,1.4545,0.05,9.2955e-07,9.2891,7.1378e-07,5.3631,-3.3838e-12,3.5209e-06,-7.1377e-07,-5.363,0.70918
18534,9.7193,1.4545,0,0.00034501,3447.8,0.00011457,0.0042842,0.00011265,-14.408,-0.00034526,-3454.9,0.74268
18535,9.6272,1.3636,0,0.0003477,3474.6,0.00011545,0.004304,0.00011355,-14.204,-0.00034794,-3481.7,0.73114
18536,9.6272,1.4545,0.05,9.2447e-07,9.2384,7.0989e-07,5.3338,-3.4128e-12,4.2084e-06,-7.0988e-07,-5.3337,0.73144
18537,9.9036,1.4545,0,0.00033992,3396.8,0.00011278,0.0044538,0.00011115,-12.27,-0.00034012,-3402.9,0.76529
18538,9.8115,1.3636,0,0.00034259,3423.5,0.00011365,0.0044517,0.00011204,-12.091,-0.00034279,-3429.6,0.75364
18539,9.8115,1.4545,0.05,9.1953e-07,9.189,7.0609e-07,5.3053,-3.4393e-12,4.0226e-06,-7.0608e-07,-5.3052,0.75393
18540,10.088,1.4545,0,0.00033483,3346,0.000111,0.0046902,0.00010963,-10.287,-0.000335,-3351.1,0.78813
18541,9.9957,1.3636,0,0.00033749,3372.6,0.00011187,0.0046679,0.00011052,-10.13,-0.00033766,-3377.6,0.77636
18542,9.9957,1.4545,0.05,9.1472e-07,9.1409,7.0239e-07,5.2775,-3.4757e-12,3.4518e-06,-7.0239e-07,-5.2774,0.77665
18543,10.272,1.4545,0,0.00032975,3295.3,0.00010924,0.0050323,0.00010811,-8.4466,-0.0003299,-3299.5,0.81119
18544,10.18,1.3636,0,0.0003324,3321.7,0.0001101,0.0049951,0.000109,-8.3106,-0.00033254,-3325.9,0.79932
18545,10.18,1.4545,0.05,9.1001e-07,9.0939,6.9878e-07,5.2504,-3.4902e-12,4.1733e-06,-6.9877e-07,-5.2503,0.7996
18546,10.456,1.4545,0,0.00032469,3244.7,0.00010748,0.0055105,0.00010658,-6.7391,-0.00032481,-3248,0.83448
18547,10.364,1.3636,0,0.00032732,3271,0.00010835,0.0055017,0.00010746,-6.6211,-0.00032744,-3274.3,0.8225
18548,10.364,1.4545,0.05,9.0542e-07,9.048,6.9525e-07,5.2239,-3.5072e-12,3.4674e-06,-6.9525e-07,-5.2238,0.82278
18549,10.641,1.4545,0,0.00031964,3194.2,0.00010574,0.0062539,0.00010505,-5.154,-0.00031973,-3196.8,0.85799
18550,10.549,1.3636,0,0.00032226,3220.4,0.0001066,0.0062532,0.00010592,-5.0524,-0.00032235,-3222.9,0.8459
18551,10.549,1.4545,0.05,9.0092e-07,9.003,6.918e-07,5.1979,-3.5282e-12,3.4504e-06,-6.9179e-07,-5.1978,0.84618
18552,10.825,1.4545,0,0.00031461,3143.9,0.000104,0.0075819,0.00010351,-3.6819,-0.00031467,-3145.7,0.88171
18553,10.733,1.3636,0,0.00031722,3170,0.00010486,0.0076386,0.00010438,-3.5952,-0.00031728,-3171.8,0.86952
18554,10.733,1.4545,0.05,8.9649e-07,8.9587,6.884e-07,5.1724,-3.5484e-12,3.3248e-06,-6.8839e-07,-5.1723,0.8698
18555,11.009,1.4545,0,0.00030959,3093.7,0.00010228,0.010317,0.00010197,-2.315,-0.00030963,-3094.9,0.90565
18556,10.917,1.3636,0,0.00031218,3119.7,0.00010313,0.010618,0.00010283,-2.242,-0.00031222,-3120.8,0.89336
18557,10.917,1.4545,0.05,8.9216e-07,8.9154,6.8507e-07,5.1474,-3.5628e-12,2.8215e-06,-6.8506e-07,-5.1473,0.89363
18558,11.193,1.4545,0,0.00030458,3043.7,0.00010057,0.019111,0.00010042,-1.0496,-0.0003046,-3044.2,0.9298
18559,11.101,1.3636,0,0.00030716,3069.5,0.00010141,0.020541,0.00010128,-0.99022,-0.00030718,-3070,0.91741
18560,11.101,1.4545,0.05,8.8791e-07,8.873,6.8181e-07,5.1228,-3.5748e-12,2.7711e-06,-6.818e-07,-5.1228,0.91767
18561,11.378,1.4545,0,0.00029959,2993.8,9.8887e-05,0.22815,9.8847e-05,-0.072295,-0.00029959,-2993.7,0.95416
18562,11.286,1.3636,0,0.00030216,3019.5,9.9739e-05,0.26902,9.9695e-05,-0.063749,-0.00030216,-3019.4,0.94167
18563,11.286,1.4545,0.05,8.8373e-07,8.8312,6.786e-07,5.0987,-3.5879e-12,2.0026e-06,-6.7859e-07,-5.0986,0.94193
18564,11.562,1.4545,0,0.00029461,2944.1,9.7329e-05,1.272,9.7159e-05,-0.010372,-0.00029459,-2943.5,0.97872
18565,11.47,1.3636,0,0.00029717,2969.7,9.8178e-05,1.3112,9.8002e-05,-0.010873,-0.00029715,-2969,0.96613
18566,11.47,1.4545,0.05,8.7961e-07,8.79,6.7543e-07,5.075,-3.6001e-12,2.2575e-06,-6.7543e-07,-5.0749,0.96639
18567,11.746,1.4545,0,0.00028965,2894.5,9.5778e-05,2.2982,9.5472e-05,-0.0043666,-0.00028962,-2893.4,1.0035
18568,11.654,1.3636,0,0.0002922,2920,9.6622e-05,2.3273,9.6311e-05,-0.0049678,-0.00029216,-2918.9,0.99079
18569,11.654,1.4545,0.05,8.7553e-07,8.7493,6.7231e-07,5.0515,-2.7009e-12,2.2729e-06,-6.723e-07,-5.0514,0.99104
18570,11.931,1.4545,0,0.00028471,2845.1,9.4227e-05,3.2606,9.3793e-05,-0.002147,-0.00028466,-2843.5,1.0284
18571,11.838,1.3636,0,0.00028725,2870.5,9.5066e-05,3.2803,9.4629e-05,-0.0027191,-0.00028719,-2868.9,1.0157
18572,11.838,1.4545,0.05,8.7153e-07,8.7093,6.6923e-07,5.0283,-3.6213e-12,2.3658e-06,-6.6922e-07,-5.0283,1.0159
18573,12.115,1.4545,0,0.00027978,2795.9,9.2677e-05,4.1623,9.2123e-05,-0.0010002,-0.00027971,-2793.8,1.0536
18574,12.023,1.3636,0,0.00028231,2821.2,9.3511e-05,4.1729,9.2956e-05,-0.0015585,-0.00028224,-2819.1,1.0407
18575,12.023,1.4545,0.05,8.6758e-07,8.6698,6.662e-07,5.0056,-1.8125e-12,2.1655e-06,-6.6619e-07,-5.0055,1.041
18576,12.299,1.4545,0,0.00027487,2746.9,9.1127e-05,5.0084,9.046e-05,-0.00030679,-0.00027479,-2744.3,1.0789
18577,12.207,1.3636,0,0.00027739,2772,9.1957e-05,5.0102,9.129e-05,-0.00084823,-0.0002773,-2769.5,1.066
18578,12.207,1.4545,0.05,8.6368e-07,8.6308,6.632e-07,4.9831,-2.7315e-12,2.273e-06,-6.6319e-07,-4.9829,1.0662
18579,12.483,1.4545,0,0.00026998,2698,8.9579e-05,5.8036,8.8806e-05,0.00016675,-0.00026988,-2695.1,1.1044
18580,12.391,1.3636,0,0.00027249,2723,9.0405e-05,5.7968,8.9633e-05,-0.00039329,-0.00027239,-2720.1,1.0914
18581,12.391,1.4545,0.05,8.5981e-07,8.5922,6.6023e-07,4.9608,-1.8309e-12,1.4583e-06,-6.6023e-07,-4.9607,1.0916
18582,12.668,1.4545,0,0.00026511,2649.2,8.8032e-05,6.5529,8.716e-05,0.00054641,-0.00026499,-2646,1.1301
18583,12.575,1.3636,0,0.0002676,2674.1,8.8854e-05,6.5375,8.7984e-05,-3.5555e-05,-0.00026749,-2670.9,1.117
18584,12.575,1.4545,0.05,8.5598e-07,8.5539,6.5729e-07,4.9387,-2.7487e-12,4.455e-07,-6.5728e-07,-4.9385,1.1172
18585,12.852,1.4545,0,0.00026025,2600.7,8.6489e-05,7.2605,8.5522e-05,0.00084922,-0.00026012,-2597.1,1.156
18586,12.76,1.3636,0,0.00026273,2625.5,8.7306e-05,7.2368,8.6342e-05,0.0002761,-0.00026261,-2621.9,1.1428
18587,12.76,1.4545,0.05,8.522e-07,8.5161,6.5438e-07,4.9168,-2.755e-12,9.6249e-07,-6.5438e-07,-4.9167,1.143
18588,13.036,1.4545,0,0.00025541,2552.3,8.4947e-05,7.9309,8.3892e-05,0.0010809,-0.00025527,-2548.4,1.1821
18589,12.944,1.3636,0,0.00025788,2577,8.576e-05,7.8986,8.4709e-05,0.00050271,-0.00025774,-2573.1,1.1688
18590,12.944,1.4545,0.05,8.4846e-07,8.4787,6.5151e-07,4.8952,-2.762e-12,1.1319e-06,-6.5151e-07,-4.8952,1.169
18591,13.22,1.4545,0,0.00025059,2504.1,8.3409e-05,8.5679,8.2269e-05,0.0012605,-0.00025044,-2499.8,1.2083
18592,13.128,1.3636,0,0.00025305,2528.7,8.4218e-05,8.527,8.3083e-05,0.00068562,-0.0002529,-2524.5,1.1949
18593,13.128,1.4545,0.05,8.4475e-07,8.4417,6.4867e-07,4.8738,-3.6781e-12,2.0182e-06,-6.4866e-07,-4.8738,1.1952
18594,13.405,1.4545,0,0.00024578,2456.1,8.1875e-05,9.1755,8.0654e-05,0.0014176,-0.00024563,-2451.5,1.2347
18595,13.313,1.3636,0,0.00024823,2480.6,8.2679e-05,9.1256,8.1465e-05,0.00081673,-0.00024808,-2476,1.2213
18596,13.313,1.4545,0.05,8.4107e-07,8.4049,6.4584e-07,4.8526,-3.6814e-12,1.638e-06,-6.4584e-07,-4.8526,1.2215
18597,13.589,1.4545,0,0.000241,2408.3,8.0344e-05,9.7572,7.9046e-05,0.001587,-0.00024083,-2403.4,1.2613
18598,13.497,1.3636,0,0.00024344,2432.7,8.1144e-05,9.6981,7.9854e-05,0.00095864,-0.00024327,-2427.8,1.2478
18599,13.497,1.4545,0.05,8.3741e-07,8.3683,6.4303e-07,4.8315,-2.7758e-12,1.3763e-06,-6.4303e-07,-4.8314,1.248
18600,13.773,1.4545,0,0.00023623,2360.7,7.8818e-05,10.317,7.7445e-05,0.0017451,-0.00023606,-2355.5,1.288
18601,13.681,1.3636,0,0.00023866,2385,7.9614e-05,10.248,7.825e-05,0.00112,-0.00023848,-2379.8,1.2744
18602,13.681,1.4545,0.05,8.3379e-07,8.3322,6.4025e-07,4.8106,-9.5818e-13,1.571e-07,-6.4024e-07,-4.8106,1.2746
18603,13.957,1.4545,0,0.00023149,2313.3,7.7297e-05,10.857,7.5852e-05,0.0018772,-0.0002313,-2307.8,1.3149
18604,13.865,1.3636,0,0.0002339,2337.4,7.8088e-05,10.778,7.6653e-05,0.0012427,-0.00023372,-2332,1.3012
18605,13.865,1.4545,0.05,8.3021e-07,8.2963,6.375e-07,4.7899,-3.6891e-12,4.488e-08,-6.3749e-07,-4.7899,1.3014
18606,14.142,1.4545,0,0.00022676,2266,7.578e-05,11.381,7.4266e-05,0.0019874,-0.00022656,-2260.3,1.342
18607,14.05,1.3636,0,0.00022916,2290.1,7.6567e-05,11.291,7.5064e-05,0.0013532,-0.00022897,-2284.4,1.3282
18608,14.05,1.4545,0.05,8.2665e-07,8.2608,6.3476e-07,4.7694,-1.8722e-12,6.0347e-07,-6.3476e-07,-4.7693,1.3284
18609,14.326,1.4545,0,0.00022205,2218.9,7.4269e-05,11.893,7.2686e-05,0.0020948,-0.00022184,-2213,1.3692
18610,14.234,1.3636,0,0.00022444,2242.9,7.5051e-05,11.791,7.3482e-05,0.0014333,-0.00022424,-2237,1.3554
18611,14.234,1.4545,0.05,8.2311e-07,8.2254,6.3205e-07,4.749,-2.7884e-12,-1.5715e-07,-6.3204e-07,-4.7489,1.3556
18612,14.51,1.4545,0,0.00021736,2172.1,7.2763e-05,12.394,7.1114e-05,0.002229,-0.00021714,-2165.9,1.3966
18613,14.418,1.3636,0,0.00021974,2195.9,7.354e-05,12.28,7.1906e-05,0.0015388,-0.00021953,-2189.7,1.3826
18614,14.418,1.4545,0.05,8.1959e-07,8.1902,6.2934e-07,4.7287,-5.9069e-14,9.8505e-07,-6.2934e-07,-4.7286,1.3828
18615,14.695,1.4545,0,0.00021269,2125.4,7.1263e-05,12.889,6.9548e-05,0.0023639,-0.00021247,-2118.9,1.4241
18616,14.602,1.3636,0,0.00021506,2149.1,7.2036e-05,12.762,7.0338e-05,0.0016721,-0.00021484,-2142.7,1.4101
18617,14.602,1.4545,0.05,8.161e-07,8.1554,6.2667e-07,4.7085,-1.8784e-12,2.3709e-06,-6.2666e-07,-4.7085,1.4103
18618,14.879,1.4545,0,0.00020804,2078.9,6.9769e-05,13.38,6.7989e-05,0.0024818,-0.00020781,-2072.2,1.4517
18619,14.787,1.3636,0,0.0002104,2102.6,7.0537e-05,13.238,6.8776e-05,0.0017783,-0.00021017,-2095.9,1.4377
18620,14.787,1.4545,0.05,8.1264e-07,8.1208,6.2401e-07,4.6886,-9.606e-13,4.1959e-06,-6.2401e-07,-4.6885,1.4378
18621,15.063,1.4545,0,0.00020341,2032.7,6.8282e-05,13.869,6.6436e-05,0.002588,-0.00020317,-2025.7,1.4795
18622,14.971,1.3636,0,0.00020576,2056.2,6.9045e-05,13.712,6.722e-05,0.0018791,-0.00020552,-2049.3,1.4654
18623,14.971,1.4545,0.05,8.0921e-07,8.0865,6.2137e-07,4.6688,-3.691e-12,3.659e-06,-6.2137e-07,-4.6687,1.4656
18624,15.247,1.4545,0,0.0001988,1986.6,6.6801e-05,14.36,6.4891e-05,0.0026996,-0.00019855,-1979.4,1.5074
18625,15.155,1.3636,0,0.00020114,2010,6.7559e-05,14.186,6.5672e-05,0.0019619,-0.00020089,-2002.9,1.4932
18626,15.155,1.4545,0.05,8.0579e-07,8.0524,6.1875e-07,4.6491,-1.8722e-12,4.9762e-06,-6.1874e-07,-4.649,1.4934
18627,15.432,1.4545,0,0.00019421,1940.7,6.5328e-05,14.855,6.3351e-05,0.0028384,-0.00019395,-1933.3,1.5355
18628,15.339,1.3636,0,0.00019654,1964,6.6081e-05,14.663,6.413e-05,0.0020718,-0.00019628,-1956.6,1.5212
18629,15.339,1.4545,0.05,8.0239e-07,8.0184,6.1614e-07,4.6295,-1.8786e-12,4.859e-06,-6.1614e-07,-4.6294,1.5214
18630,15.616,1.4545,0,0.00018964,1895.1,6.3861e-05,15.358,6.1818e-05,0.0029818,-0.00018937,-1887.3,1.5637
18631,15.524,1.3636,0,0.00019196,1918.2,6.4609e-05,15.145,6.2594e-05,0.0022088,-0.00019169,-1910.6,1.5494
18632,15.524,1.4545,0.05,7.9903e-07,7.9848,6.1356e-07,4.61,-3.7039e-12,3.7654e-06,-6.1355e-07,-4.61,1.5495
18633,15.8,1.4545,0,0.00018509,1849.6,6.2403e-05,15.87,6.0291e-05,0.0031189,-0.00018481,-1841.6,1.592
18634,15.708,1.3636,0,0.00018739,1872.6,6.3145e-05,15.636,6.1064e-05,0.0023273,-0.00018712,-1864.8,1.5776
18635,15.708,1.4545,0.05,7.9569e-07,7.9514,6.11e-07,4.5908,-9.7941e-13,3.0586e-06,-6.1099e-07,-4.5907,1.5778
18636,15.984,1.4545,0,0.00018056,1804.3,6.0952e-05,16.395,5.877e-05,0.0032471,-0.00018027,-1796.1,1.6204
18637,15.892,1.3636,0,0.00018285,1827.3,6.1688e-05,16.137,5.9541e-05,0.0024484,-0.00018257,-1819.2,1.606
18638,15.892,1.4545,0.05,7.9238e-07,7.9183,6.0845e-07,4.5717,-1.8919e-12,4.7862e-06,-6.0845e-07,-4.5716,1.6062
18639,16.169,1.4545,0,0.00017605,1759.3,5.9509e-05,16.937,5.7256e-05,0.0033824,-0.00017576,-1750.7,1.649
18640,16.077,1.3636,0,0.00017833,1782.1,6.024e-05,16.652,5.8024e-05,0.0025513,-0.00017805,-1773.7,1.6345
18641,16.077,1.4545,0.05,7.8909e-07,7.8855,6.0593e-07,4.5527,-1.9049e-12,4.9917e-06,-6.0593e-07,-4.5527,1.6347
18642,16.353,1.4545,0,0.00017156,1714.4,5.8075e-05,17.497,5.5747e-05,0.0035501,-0.00017126,-1705.6,1.6777
18643,16.261,1.3636,0,0.00017384,1737.2,5.8799e-05,17.184,5.6513e-05,0.0026869,-0.00017354,-1728.5,1.6631
18644,16.261,1.4545,0.05,7.8583e-07,7.8528,6.0342e-07,4.5339,-1.9035e-12,6.3128e-06,-6.0341e-07,-4.5338,1.6633
18645,16.537,1.4545,0,0.0001671,1669.8,5.665e-05,18.079,5.4244e-05,0.0037256,-0.00016678,-1660.7,1.7065
18646,16.445,1.3636,0,0.00016936,1692.4,5.7367e-05,17.735,5.5007e-05,0.0028491,-0.00016905,-1683.5,1.6919
18647,16.445,1.4545,0.05,7.826e-07,7.8206,6.0094e-07,4.5152,-1.4626e-12,6.4483e-06,-6.0093e-07,-4.5152,1.692
18648,16.721,1.4545,0,0.00016265,1625.4,5.5233e-05,18.686,5.2747e-05,0.0039,-0.00016232,-1616,1.7354
18649,16.629,1.3636,0,0.0001649,1647.9,5.5944e-05,18.309,5.3508e-05,0.0030009,-0.00016458,-1638.6,1.7208
18650,16.629,1.4545,0.05,7.794e-07,7.7886,5.9848e-07,4.4968,-1.457e-12,6.4586e-06,-5.9848e-07,-4.4967,1.7209
18651,16.906,1.4545,0,0.00015823,1581.2,5.3827e-05,19.323,5.1255e-05,0.004074,-0.00015789,-1571.4,1.7644
18652,16.814,1.3636,0,0.00016046,1603.5,5.453e-05,18.908,5.2014e-05,0.0031585,-0.00016013,-1594,1.7497
18653,16.814,1.4545,0.05,7.7623e-07,7.757,5.9605e-07,4.4785,-1.472e-12,5.584e-06,-5.9605e-07,-4.4785,1.7499
18654,17.09,1.4545,0,0.00015383,1537.2,5.2429e-05,19.991,4.9769e-05,0.0042576,-0.00015348,-1527.1,1.7935
18655,16.998,1.3636,0,0.00015605,1559.4,5.3126e-05,19.536,5.0526e-05,0.0033066,-0.00015571,-1549.6,1.7788
18656,16.998,1.4545,0.05,7.731e-07,7.7257,5.9365e-07,4.4604,-1.4715e-12,5.3924e-06,-5.9364e-07,-4.4604,1.7789
18657,17.274,1.4545,0,0.00014945,1493.4,5.1043e-05,20.695,4.8289e-05,0.004477,-0.00014908,-1483,1.8228
18658,17.182,1.3636,0,0.00015166,1515.5,5.1731e-05,20.197,4.9044e-05,0.0034857,-0.0001513,-1505.3,1.808
18659,17.182,1.4545,0.05,7.6999e-07,7.6946,5.9126e-07,4.4425,-1.4659e-12,5.93e-06,-5.9126e-07,-4.4425,1.8081
18660,17.459,1.4545,0,0.00014509,1449.9,4.9666e-05,21.44,4.6813e-05,0.0047123,-0.00014471,-1439,1.8521
18661,17.366,1.3636,0,0.00014729,1471.9,5.0347e-05,20.893,4.7566e-05,0.0036997,-0.00014692,-1461.3,1.8373
18662,17.366,1.4545,0.05,7.6693e-07,7.664,5.8891e-07,4.4249,-1.9315e-12,5.7123e-06,-5.8891e-07,-4.4248,1.8374
18663,17.643,1.4545,0,0.00014075,1406.5,4.8301e-05,22.228,4.5343e-05,0.004951,-0.00014036,-1395.3,1.8815
18664,17.551,1.3636,0,0.00014294,1428.4,4.8972e-05,21.629,4.6094e-05,0.0039077,-0.00014256,-1417.5,1.8667
18665,17.551,1.4545,0.05,7.6392e-07,7.6339,5.866e-07,4.4075,-1.9435e-12,6.1475e-06,-5.8659e-07,-4.4074,1.8668
18666,17.827,1.4545,0,0.00013644,1363.4,4.6947e-05,23.065,4.3878e-05,0.0051991,-0.00013603,-1351.8,1.9111
18667,17.735,1.3636,0,0.00013861,1385.2,4.7609e-05,22.409,4.4627e-05,0.0041273,-0.00013822,-1373.8,1.8962
18668,17.735,1.4545,0.05,7.6094e-07,7.6042,5.8431e-07,4.3903,-1.9411e-12,5.0894e-06,-5.8431e-07,-4.3902,1.8963
18669,18.011,1.4545,0,0.00013215,1320.6,4.5605e-05,23.954,4.2417e-05,0.0054665,-0.00013172,-1308.4,1.9407
18670,17.919,1.3636,0,0.00013431,1342.1,4.6257e-05,23.236,4.3165e-05,0.004349,-0.0001339,-1330.4,1.9257
18671,17.919,1.4545,0.05,7.5801e-07,7.5749,5.8206e-07,4.3734,-1.5019e-12,6.3536e-06,-5.8206e-07,-4.3733,1.9259
18672,18.196,1.4545,0,0.00012788,1277.9,4.4275e-05,24.902,4.0962e-05,0.0057709,-0.00012744,-1265.3,1.9704
18673,18.103,1.3636,0,0.00013002,1299.3,4.4917e-05,24.116,4.1708e-05,0.0046056,-0.0001296,-1287.1,1.9554
18674,18.103,1.4545,0.05,7.5513e-07,7.5461,5.7985e-07,4.3568,-1.0527e-12,7.5551e-06,-5.7984e-07,-4.3567,1.9555
18675,18.38,1.4545,0,0.00012364,1235.5,4.2958e-05,25.914,3.951e-05,0.0061009,-0.00012318,-1222.3,2.0002
18676,18.288,1.3636,0,0.00012577,1256.8,4.3589e-05,25.053,4.0256e-05,0.0049002,-0.00012532,-1244.1,1.9852
18677,18.288,1.4545,0.05,7.5231e-07,7.5179,5.7768e-07,4.3405,-1.0705e-12,9.6803e-06,-5.7768e-07,-4.3404,1.9853
18678,18.564,1.4545,0,0.00011942,1193.3,4.1655e-05,26.994,3.8063e-05,0.0064491,-0.00011893,-1179.6,2.0301
18679,18.472,1.3636,0,0.00012153,1214.5,4.2274e-05,26.052,3.8808e-05,0.0052033,-0.00012106,-1201.2,2.015
18680,18.472,1.4545,0.05,7.4954e-07,7.4903,5.7556e-07,4.3245,-1.6957e-13,1.2778e-05,-5.7555e-07,-4.3245,2.0151
18681,18.748,1.4545,0,0.00011522,1151.4,4.0365e-05,28.149,3.662e-05,0.0068183,-0.00011471,-1137.1,2.06
18682,18.656,1.3636,0,0.00011732,1172.4,4.0972e-05,27.12,3.7364e-05,0.0055295,-0.00011683,-1158.6,2.0449
18683,18.656,1.4545,0.05,7.4684e-07,7.4633,5.7349e-07,4.309,-1.7881e-13,9.5375e-06,-5.7348e-07,-4.3089,2.045
18684,18.933,1.4545,0,0.00011105,1109.7,3.9091e-05,29.386,3.5181e-05,0.0072217,-0.00011052,-1094.7,2.0901
18685,18.841,1.3636,0,0.00011313,1130.5,3.9684e-05,28.26,3.5924e-05,0.0058706,-0.00011262,-1116.1,2.0749
18686,18.841,1.4545,0.05,7.4421e-07,7.437,5.7146e-07,4.2938,-2.2997e-13,7.3678e-06,-5.7146e-07,-4.2937,2.075
18687,19.117,1.4545,0,0.0001069,1068.2,3.7831e-05,30.711,3.3745e-05,0.0076771,-0.00010634,-1052.5,2.1202
18688,19.025,1.3636,0,0.00010896,1088.9,3.841e-05,29.48,3.4488e-05,0.0062611,-0.00010843,-1073.8,2.105
18689,19.025,1.4545,0.05,7.4165e-07,7.4114,5.695e-07,4.279,-2.4506e-13,9.1739e-06,-5.6949e-07,-4.2789,2.1051
18690,19.301,1.4545,0,0.00010277,1027,3.6588e-05,32.132,3.2312e-05,0.0081765,-0.00010219,-1010.6,2.1504
18691,19.209,1.3636,0,0.00010482,1047.5,3.7152e-05,30.787,3.3055e-05,0.0067024,-0.00010426,-1031.7,2.1352
18692,19.209,1.4545,0.05,7.3918e-07,7.3867,5.676e-07,4.2647,-1.6402e-12,7.503e-06,-5.6759e-07,-4.2647,2.1352
18693,19.485,1.4545,0,9.8677e-05,986.09,3.5361e-05,33.657,3.0883e-05,0.0087166,-9.8061e-05,-968.82,2.1806
18694,19.393,1.3636,0,0.0001007,1006.3,3.5909e-05,32.188,3.1626e-05,0.0071747,-0.00010012,-989.86,2.1654
18695,19.393,1.4545,0.05,7.3679e-07,7.3628,5.6577e-07,4.251,-1.6793e-12,7.994e-06,-5.6576e-07,-4.2509,2.1655
18696,19.67,1.4545,0,9.4605e-05,945.4,3.4152e-05,35.295,2.9456e-05,0.009306,-9.3955e-05,-927.25,2.2109
18697,19.578,1.3636,0,9.6612e-05,965.46,3.4682e-05,33.69,3.0199e-05,0.0076913,-9.5995e-05,-948.17,2.1957
18698,19.578,1.4545,0.05,7.345e-07,7.34,5.6401e-07,4.2378,-7.9137e-13,7.1374e-06,-5.6401e-07,-4.2377,2.1957
18699,19.854,1.4545,0,9.056e-05,904.97,3.2962e-05,37.055,2.8031e-05,0.0099584,-8.9872e-05,-885.87,2.2413
18700,19.762,1.3636,0,9.2546e-05,924.83,3.3473e-05,35.302,2.8776e-05,0.0082566,-9.1895e-05,-906.66,2.226
18701,19.762,1.4545,0.05,7.3232e-07,7.3182,5.6233e-07,4.2252,-1.2754e-12,5.1562e-06,-5.6233e-07,-4.2251,2.2261
18702,20.038,1.4545,0,8.6542e-05,864.82,3.1791e-05,38.948,2.6609e-05,0.010696,-8.5813e-05,-844.69,2.2717
18703,19.946,1.3636,0,8.8507e-05,884.46,3.2282e-05,37.034,2.7354e-05,0.0088943,-8.7818e-05,-865.35,2.2564
18704,19.946,1.4545,0.05,7.3025e-07,7.2975,5.6074e-07,4.2132,-1.2635e-12,2.3645e-06,-5.6074e-07,-4.2132,2.2565
18705,20.223,1.4545,0,8.2552e-05,824.95,3.0641e-05,40.985,2.5188e-05,0.011521,-8.1778e-05,-803.69,2.3022
18706,20.13,1.3636,0,8.4494e-05,844.35,3.111e-05,38.895,2.5935e-05,0.0096243,-8.3765e-05,-824.23,2.2869
18707,20.13,1.4545,0.05,7.2831e-07,7.2781,5.5925e-07,4.202,-1.735e-12,2.8179e-06,-5.5925e-07,-4.202,2.287
18708,20.407,1.4545,0,7.8591e-05,785.37,2.9513e-05,43.178,2.3768e-05,0.01244,-7.7767e-05,-762.88,2.3328
18709,20.315,1.3636,0,8.0508e-05,804.53,2.9959e-05,40.896,2.4517e-05,0.010429,-7.9735e-05,-783.3,2.3174
18710,20.315,1.4545,0.05,7.2651e-07,7.2601,5.5788e-07,4.1917,-1.2815e-12,4.9976e-06,-5.5787e-07,-4.1916,2.3175
18711,20.591,1.4545,0,7.466e-05,746.09,2.8408e-05,45.542,2.2349e-05,0.013475,-7.3781e-05,-722.27,2.3634
18712,20.499,1.3636,0,7.6552e-05,764.99,2.8829e-05,43.05,2.3101e-05,0.01134,-7.5728e-05,-742.55,2.348
18713,20.499,1.4545,0.05,7.2487e-07,7.2437,5.5661e-07,4.1822,-1.1973e-12,5.9279e-06,-5.5661e-07,-4.1821,2.3481
18714,20.775,1.4545,0,7.0761e-05,707.12,2.7328e-05,48.09,2.093e-05,0.014653,-6.982e-05,-681.84,2.3941
18715,20.683,1.3636,0,7.2624e-05,725.74,2.7721e-05,45.37,2.1685e-05,0.012366,-7.1746e-05,-701.99,2.3786
18716,20.683,1.4545,0.05,7.234e-07,7.229,5.5549e-07,4.1737,-7.1615e-13,7.4384e-06,-5.5548e-07,-4.1737,2.3787
18717,20.96,1.4545,0,6.6895e-05,668.48,2.6275e-05,50.841,1.951e-05,0.016007,-6.5884e-05,-641.61,2.4248
18718,20.867,1.3636,0,6.8728e-05,686.81,2.6638e-05,47.872,2.0269e-05,0.013554,-6.7788e-05,-661.61,2.4093
18719,20.867,1.4545,0.05,7.2212e-07,7.2162,5.545e-07,4.1663,-1.2022e-12,5.888e-06,-5.545e-07,-4.1663,2.4094
18720,21.144,1.4545,0,6.3063e-05,630.2,2.525e-05,53.814,1.809e-05,0.01757,-6.1975e-05,-601.56,2.4555
18721,21.052,1.3636,0,6.4864e-05,648.19,2.5581e-05,50.572,1.8852e-05,0.014928,-6.3855e-05,-621.42,2.4401
18722,21.052,1.4545,0.05,7.2105e-07,7.2056,5.5368e-07,4.1602,-9.8747e-13,3.6023e-06,-5.5368e-07,-4.1601,2.4401
18723,21.328,1.4545,0,5.9269e-05,592.28,2.4255e-05,57.029,1.6667e-05,0.019383,-5.8092e-05,-561.69,2.4863
18724,21.236,1.3636,0,6.1035e-05,609.93,2.4552e-05,53.49,1.7435e-05,0.016523,-5.9949e-05,-581.41,2.4708
18725,21.236,1.4545,0.05,7.2023e-07,7.1973,5.5305e-07,4.1554,-1.0802e-12,2.1707e-06,-5.5304e-07,-4.1554,2.4709
18726,21.512,1.4545,0,5.5515e-05,554.77,2.3293e-05,60.513,1.5242e-05,0.021505,-5.4237e-05,-522.02,2.5171
18727,21.42,1.3636,0,5.7243e-05,572.03,2.3553e-05,56.649,1.6016e-05,0.018391,-5.6068e-05,-541.59,2.5016
18728,21.42,1.4545,0.05,7.1968e-07,7.1918,5.5262e-07,4.1522,-1.3539e-12,-1.4467e-06,-5.5262e-07,-4.1522,2.5017
18729,21.697,1.4545,0,5.1805e-05,517.69,2.2368e-05,64.292,1.3814e-05,0.024019,-5.0411e-05,-482.54,2.548
18730,21.605,1.3636,0,5.3491e-05,534.54,2.2587e-05,60.073,1.4594e-05,0.020595,-5.2215e-05,-501.96,2.5325
18731,21.605,1.4545,0.05,7.1944e-07,7.1894,5.5244e-07,4.1508,-1.3496e-12,-9.6214e-07,-5.5244e-07,-4.1508,2.5325
18732,21.881,1.4545,0,4.8144e-05,481.11,2.1481e-05,68.4,1.2381e-05,0.027036,-4.6614e-05,-443.24,2.5789
18733,21.789,1.3636,0,4.9784e-05,497.5,2.1656e-05,63.793,1.3169e-05,0.023243,-4.8391e-05,-462.52,2.5634
18734,21.789,1.4545,0.05,7.1955e-07,7.1906,5.5253e-07,4.1515,-1.2156e-12,2.3045e-06,-5.5253e-07,-4.1515,2.5634
18735,22.065,1.4545,0,4.4539e-05,445.08,2.0637e-05,72.873,1.0942e-05,0.030695,-4.2849e-05,-404.14,2.6098
18736,21.973,1.3636,0,4.6127e-05,460.95,2.0765e-05,67.843,1.174e-05,0.026453,-4.4597e-05,-423.26,2.5943
18737,21.973,1.4545,0.05,7.2009e-07,7.196,5.5294e-07,4.1546,-1.073e-12,5.4558e-06,-5.5294e-07,-4.1546,2.5943
18738,22.249,1.4545,0,4.0996e-05,409.68,1.984e-05,77.753,9.4965e-06,0.035193,-3.9116e-05,-365.22,2.6408
18739,22.157,1.3636,0,4.2527e-05,424.98,1.9918e-05,72.264,1.0304e-05,0.03039,-4.0834e-05,-384.2,2.6252
18740,22.157,1.4545,0.05,7.2113e-07,7.2064,5.5374e-07,4.1606,-1.292e-12,4.349e-06,-5.5374e-07,-4.1606,2.6253
18741,22.434,1.4545,0,3.7528e-05,375.02,1.9095e-05,83.088,8.042e-06,0.040839,-3.5417e-05,-326.49,2.6718
18742,22.342,1.3636,0,3.8994e-05,389.67,1.9118e-05,77.102,8.8614e-06,0.035288,-3.7105e-05,-345.34,2.6562
18743,22.342,1.4545,0.05,7.2277e-07,7.2227,5.55e-07,4.1701,-1.1808e-12,4.7527e-06,-5.55e-07,-4.17,2.6562
18744,22.618,1.4545,0,3.4147e-05,341.24,1.8407e-05,88.931,6.577e-06,0.048031,-3.1753e-05,-287.95,2.7028
18745,22.526,1.3636,0,3.5538e-05,355.14,1.8373e-05,82.413,7.4099e-06,0.04155,-3.3411e-05,-306.67,2.6872
18746,22.526,1.4545,0.05,7.2513e-07,7.2463,5.5681e-07,4.1837,-9.7969e-13,-1.1174e-06,-5.5681e-07,-4.1836,2.6872
18747,22.802,1.4545,0,3.0873e-05,308.52,1.778e-05,95.339,5.0992e-06,0.057732,-2.8125e-05,-249.58,2.7338
18748,22.71,1.3636,0,3.2178e-05,321.56,1.7687e-05,88.256,5.9473e-06,0.049589,-2.9755e-05,-268.2,2.7182
18749,22.71,1.4545,0.05,7.2837e-07,7.2787,5.593e-07,4.2024,-1.3417e-12,-3.4457e-06,-5.593e-07,-4.2024,2.7183
18750,22.987,1.4545,0,2.7731e-05,277.12,1.7221e-05,102.37,3.606e-06,0.070284,-2.4533e-05,-211.35,2.7648
18751,22.894,1.3636,0,2.8935e-05,289.15,1.7067e-05,94.698,4.4714e-06,0.060962,-2.6137e-05,-229.92,2.7493
18752,22.894,1.4545,0.05,7.327e-07,7.322,5.6262e-07,4.2273,-1.1242e-12,-4.2809e-06,-5.6262e-07,-4.2273,2.7493
18753,23.171,1.4545,0,2.4756e-05,247.39,1.6733e-05,110.08,2.0949e-06,0.091735,-2.0974e-05,-173.24,2.7959
18754,23.079,1.3636,0,2.5841e-05,258.23,1.6519e-05,101.81,2.9791e-06,0.074905,-2.2557e-05,-191.79,2.7803
18755,23.079,1.4545,0.05,7.3834e-07,7.3783,5.6695e-07,4.2599,-5.0461e-13,-1.1461e-06,-5.6695e-07,-4.2598,2.7804
18756,23.355,1.4545,0,2.2e-05,219.84,1.6318e-05,118.5,5.6184e-07,0.11284,-1.7443e-05,-135.17,2.827
18757,23.263,1.3636,0,2.2938e-05,229.22,1.6048e-05,109.65,1.468e-06,0.10455,-1.9014e-05,-153.79,2.8114
18758,23.263,1.4545,0.05,7.4553e-07,7.4501,5.7247e-07,4.3013,-1.1783e-12,-3.9633e-06,-5.7247e-07,-4.3013,2.8114
18759,23.539,1.4545,0,1.9536e-05,195.22,1.5976e-05,127.68,-9.9046e-07,0.2048,-1.3937e-05,-97.067,2.8581
18760,23.447,1.3636,0,2.0288e-05,202.74,1.5656e-05,118.26,-6.8062e-08,0.11942,-1.5501e-05,-115.84,2.8425
18761,23.447,1.4545,0.05,7.5448e-07,7.5396,5.7935e-07,4.353,-6.6754e-13,-5.3603e-06,-5.7935e-07,-4.353,2.8425
18762,23.724,1.4545,0,1.7476e-05,174.63,1.5708e-05,137.59,-2.5786e-06,0.18852,-1.0447e-05,-58.933,2.8892
18763,23.631,1.3636,0,1.7985e-05,179.73,1.5343e-05,127.73,-1.618e-06,0.29661,-1.2017e-05,-77.837,2.8736
18764,23.631,1.4545,0.05,7.659e-07,7.6537,5.8812e-07,4.4189,-1.1037e-12,-5.6034e-06,-5.8812e-07,-4.4189,2.8736
18765,23.816,1.3636,0,1.6169e-05,161.58,1.5115e-05,137.92,-3.2219e-06,0.14164,-8.5541e-06,-39.922,2.9047
18766,23.816,1.4545,0.05,7.8975e-07,7.8921,6.0643e-07,4.5565,-6.2095e-13,-4.9405e-06,-6.0643e-07,-4.5565,2.9047
18767,23.908,1.4545,0,1.5968e-05,159.57,1.5467e-05,147.27,-4.0773e-06,0.41655,-7.1321e-06,-22.536,2.9203
18768,1.2431,1.2727,0,0.00059596,5955.5,0.00037043,2201,7.683e-05,-4.9981,-0.00052711,-4542.8,0.012329
18769,1.1509,1.1818,0,0.0005682,5678.1,0.0003742,2382.5,5.5594e-05,-11.377,-0.00048863,-4100.5,0.0073093
18770,1.1509,1.2727,0.05,2.8836e-05,288.16,2.2142e-05,166.37,7.175e-12,0.00010838,-2.2142e-05,-166.37,0.0078875
18771,1.0588,1.2727,0,0.00050854,5081.9,0.00034076,2223.8,4.6048e-05,9.4683,-0.00043295,-3589.6,0.0043788
18772,1.4273,1.2727,0,0.00056192,5615.3,0.00030252,1457,0.00010834,-2.046,-0.00052275,-4743.8,0.020789
18773,1.3352,1.1818,0,0.00052336,5230,0.00029891,1582.6,8.8296e-05,0.19627,-0.00047815,-4255.8,0.015692
18774,1.3352,1.2727,0.05,1.8657e-05,186.44,1.4327e-05,107.64,2.4143e-11,0.00025378,-1.4327e-05,-107.64,0.01635
18775,1.6116,1.2727,0,0.00055109,5507.1,0.00026025,961.21,0.00013184,-3.6327,-0.00052842,-4964.5,0.029535
18776,1.5195,1.1818,0,0.00051657,5162.2,0.0002581,1080.6,0.00011378,-3.7958,-0.00048964,-4537.6,0.024396
18777,1.5195,1.2727,0.05,1.3917e-05,139.08,1.0687e-05,80.295,2.9654e-11,0.00033773,-1.0687e-05,-80.295,0.025006
18778,1.7959,1.2727,0,0.00054621,5458.4,0.00023084,613.94,0.00014871,-3.1592,-0.0005332,-5126.8,0.038588
18779,1.7037,1.1818,0,0.00051763,5172.7,0.00023017,723.79,0.00013346,-2.8102,-0.00050152,-4773.8,0.033376
18780,1.7037,1.2727,0.05,1.0098e-05,100.91,7.7541e-06,58.261,3.7463e-11,0.00036067,-7.7541e-06,-58.261,0.033927
18781,1.9801,1.2727,0,0.00054407,5437,0.00021069,374.65,0.00016038,-3.2956,-0.00053677,-5241.4,0.047974
18782,1.888,1.1818,0,0.00052148,5211.2,0.00021122,473.07,0.00014788,-2.8192,-0.00051184,-4959.7,0.042656
18783,1.888,1.2727,0.05,7.6268e-06,76.216,5.8565e-06,44.003,4.1402e-11,0.00037272,-5.8565e-06,-44.003,0.043158
18784,2.1644,1.2727,0,0.00054294,5425.7,0.00019691,211.19,0.00016827,-3.9406,-0.00053909,-5318.8,0.057708
18785,2.0723,1.1818,0,0.00052576,5254,0.00019836,298.39,0.00015826,-2.9026,-0.00052008,-5099.7,0.052261
18786,2.0723,1.2727,0.05,5.9817e-06,59.776,4.5932e-06,34.512,4.668e-11,0.0004352,-4.5932e-06,-34.512,0.052725
18787,2.3487,1.2727,0,0.00054179,5414.1,0.00018738,99.663,0.00017334,-5.8915,-0.00054011,-5366.5,0.0678
18788,2.2565,1.1818,0,0.00052919,5288.3,0.0001894,175.64,0.00016557,-3.4012,-0.00052603,-5199.9,0.062208
18789,2.2565,1.2727,0.05,4.8365e-06,48.331,3.7138e-06,27.904,3.9821e-11,0.00038452,-3.7138e-06,-27.904,0.062644
18790,2.5329,1.2727,0,0.00054012,5397.5,0.00018137,28.863,0.00017558,-14.692,-0.00053986,-5390.2,0.078255
18791,2.4408,1.1818,0,0.00053127,5309,0.00018294,88.606,0.00017051,-4.7926,-0.00052978,-5266.5,0.072506
18792,2.4408,1.2727,0.05,3.9864e-06,39.837,3.0611e-06,23,4.3086e-11,0.00046983,-3.0611e-06,-23,0.072922
18793,2.7172,1.2727,0,0.00053776,5373.9,0.0001804,6.347,0.00017307,-48.761,-0.00053846,-5394.9,0.089076
18794,2.6251,1.1818,0,0.0005319,5315.4,0.00017851,29.597,0.00017319,-10.392,-0.00053156,-5305.6,0.08316
18795,2.6251,1.2727,0.05,3.3292e-06,33.269,2.5564e-06,19.208,3.3718e-11,0.00039872,-2.5564e-06,-19.208,0.083563
18796,2.9015,1.2727,0,0.00053473,5343.6,0.0001809,2.6517,0.00016916,-85.584,-0.00053608,-5384.5,0.10026
18797,2.8093,1.1818,0,0.00053121,5308.4,0.00017757,6.4211,0.00017205,-35.036,-0.00053168,-5322.6,0.094175
18798,2.8093,1.2727,0.05,2.811e-06,28.091,2.1585e-06,16.218,4.5405e-11,0.00037935,-2.1585e-06,-16.218,0.094569
18799,3.0857,1.2727,0,0.00053109,5307.3,0.00018097,1.472,0.00016569,-113.35,-0.0005329,-5362.3,0.11181
18800,2.9936,1.1818,0,0.00052939,5290.3,0.0001782,2.4826,0.00016899,-66.676,-0.00053045,-5322,0.10555
18801,2.9936,1.2727,0.05,2.4009e-06,23.993,1.8436e-06,13.852,3.5324e-11,0.00029728,-1.8436e-06,-13.852,0.10594
18802,3.27,1.2727,0,0.00052698,5266.1,0.00018053,0.92348,0.00016269,-133.15,-0.0005291,-5330.9,0.12372
18803,3.1779,1.1818,0,0.00052666,5263,0.00017844,1.3318,0.00016603,-91.872,-0.00052814,-5307.6,0.11729
18804,3.1779,1.2727,0.05,2.0785e-06,20.77,1.596e-06,11.992,2.5118e-11,0.00033263,-1.596e-06,-11.992,0.11767
18805,3.4543,1.2727,0,0.00052248,5221.2,0.00017968,0.61948,0.00016008,-146.63,-0.00052481,-5292.7,0.13599
18806,3.3621,1.1818,0,0.00052321,5228.5,0.00017818,0.8215,0.00016335,-110.54,-0.00052499,-5282.5,0.12938
18807,3.3621,1.2727,0.05,1.8282e-06,18.269,1.4038e-06,10.548,2.1699e-11,0.00024693,-1.4038e-06,-10.548,0.12977
18808,3.6385,1.2727,0,0.00051771,5173.5,0.00017851,0.43379,0.0001578,-155.14,-0.00052017,-5249.1,0.14862
18809,3.5464,1.1818,0,0.00051922,5188.6,0.00017748,0.54685,0.00016094,-123.77,-0.00052121,-5249.1,0.14183
18810,3.5464,1.2727,0.05,1.637e-06,16.358,1.257e-06,9.4444,2.4232e-11,0.0001665,-1.257e-06,-9.4444,0.14222
18811,3.8228,1.2727,0,0.00051274,5123.9,0.00017708,0.31321,0.00015578,-159.71,-0.00051526,-5201.7,0.1616
18812,3.7307,1.1818,0,0.00051483,5144.7,0.00017645,0.38223,0.00015875,-132.56,-0.00051695,-5209.5,0.15464
18813,3.7307,1.2727,0.05,1.4933e-06,14.923,1.1467e-06,8.6158,1.4344e-11,0.00014144,-1.1467e-06,-8.6158,0.15503
18814,4.0071,1.2727,0,0.00050763,5072.8,0.00017546,0.23153,0.00015398,-161.16,-0.00051018,-5151.4,0.17494
18815,3.9149,1.1818,0,0.00051013,5097.8,0.00017514,0.27661,0.00015678,-137.73,-0.00051233,-5165.1,0.16779
18816,3.9149,1.2727,0.05,1.387e-06,13.86,1.065e-06,8.0021,1.0392e-11,0.00011839,-1.065e-06,-8.0021,0.16818
18817,4.1913,1.2727,0,0.00050243,5020.9,0.00017369,0.17445,0.00015235,-160.15,-0.00050496,-5098.9,0.18861
18818,4.0992,1.1818,0,0.00050523,5048.8,0.00017363,0.20555,0.00015497,-139.98,-0.00050746,-5117.2,0.1813
18819,4.0992,1.2727,0.05,1.3089e-06,13.08,1.0051e-06,7.5517,8.394e-12,9.7402e-05,-1.0051e-06,-7.5516,0.18169
18820,4.3756,1.2727,0,0.00049718,4968.3,0.00017181,0.13358,0.00015086,-157.23,-0.00049966,-5045,0.20264
18821,4.2835,1.1818,0,0.00050018,4998.3,0.00017195,0.15604,0.00015331,-139.89,-0.00050241,-5066.7,0.19515
18822,4.2835,1.2727,0.05,1.2516e-06,12.508,9.6109e-07,7.2213,2.2419e-12,8.0545e-05,-9.6108e-07,-7.2212,0.19554
18823,4.5599,1.2727,0,0.00049189,4915.5,0.00016984,0.10372,0.00014949,-152.83,-0.00049431,-4990.1,0.217
18824,4.4677,1.1818,0,0.00049503,4946.8,0.00017015,0.12058,0.00015178,-137.95,-0.00049723,-5014.3,0.20934
18825,4.4677,1.2727,0.05,1.2092e-06,12.084,9.2855e-07,6.9768,3.7918e-12,6.3614e-05,-9.2854e-07,-6.9766,0.20973
18826,4.7441,1.2727,0,0.00048658,4862.5,0.00016782,0.081542,0.0001482,-147.33,-0.00048892,-4934.4,0.23169
18827,4.652,1.1818,0,0.00048981,4894.7,0.00016826,0.094597,0.00015034,-134.56,-0.00049195,-4960.5,0.22387
18828,4.652,1.2727,0.05,1.1773e-06,11.765,9.04e-07,6.7923,-2.5695e-13,3.6632e-05,-9.0399e-07,-6.7922,0.22426
18829,4.9284,1.2727,0,0.00048127,4809.4,0.00016576,0.064833,0.00014698,-141.03,-0.00048352,-4878.3,0.24672
18830,4.8363,1.1818,0,0.00048454,4842.1,0.00016631,0.075205,0.00014898,-130.08,-0.00048662,-4905.8,0.23873
18831,4.8363,1.2727,0.05,1.1525e-06,11.517,8.8495e-07,6.6492,-9.1044e-13,4.4655e-05,-8.8494e-07,-6.649,0.23913
18832,5.1127,1.2727,0,0.00047596,4756.3,0.00016367,0.052088,0.0001458,-134.2,-0.0004781,-4822,0.26208
18833,5.0205,1.1818,0,0.00047925,4789.2,0.0001643,0.060501,0.00014768,-124.8,-0.00048125,-4850.4,0.25392
18834,5.0205,1.2727,0.05,1.1325e-06,11.317,8.6964e-07,6.5342,-3.7676e-12,3.6183e-05,-8.6963e-07,-6.534,0.25432
18835,5.2969,1.2727,0,0.00047066,4703.3,0.00016157,0.042261,0.00014466,-127.03,-0.00047269,-4765.5,0.27776
18836,5.2048,1.1818,0,0.00047395,4736.2,0.00016226,0.049198,0.00014642,-118.95,-0.00047586,-4794.5,0.26944
18837,5.2048,1.2727,0.05,1.1159e-06,11.151,8.5687e-07,6.4382,-1.2831e-12,3.2101e-05,-8.5685e-07,-6.438,0.26984
18838,5.4812,1.2727,0,0.00046536,4650.4,0.00015946,0.03461,0.00014353,-119.69,-0.00046728,-4709,0.29376
18839,5.3891,1.1818,0,0.00046864,4683.1,0.0001602,0.040406,0.00014519,-112.74,-0.00047045,-4738.5,0.28528
18840,5.3891,1.2727,0.05,1.1015e-06,11.007,8.4582e-07,6.3552,-2.5963e-12,1.9347e-05,-8.4581e-07,-6.3551,0.28568
18841,5.6655,1.2727,0,0.00046006,4597.5,0.00015735,0.028605,0.0001424,-112.31,-0.00046187,-4652.6,0.31008
18842,5.5733,1.1818,0,0.00046332,4630,0.00015814,0.033498,0.00014398,-106.32,-0.00046504,-4682.2,0.30145
18843,5.5733,1.2727,0.05,1.0887e-06,10.879,8.3598e-07,6.2813,-3.289e-12,1.8555e-05,-8.3597e-07,-6.2811,0.30185
18844,5.8497,1.2727,0,0.00045478,4544.6,0.00015525,0.023854,0.00014127,-105,-0.00045647,-4596.2,0.32671
18845,5.7576,1.1818,0,0.00045801,4576.9,0.00015606,0.028018,0.00014277,-99.823,-0.00045963,-4626,0.31792
18846,5.7576,1.2727,0.05,1.077e-06,10.762,8.27e-07,6.2138,-4.3474e-12,1.1165e-05,-8.2699e-07,-6.2137,0.31832
18847,6.034,1.2727,0,0.0004495,4491.9,0.00015316,0.02007,0.00014013,-97.835,-0.00045108,-4540,0.34366
18848,5.9419,1.1818,0,0.0004527,4523.9,0.00015399,0.023637,0.00014157,-93.354,-0.00045422,-4569.8,0.33472
18849,5.9419,1.2727,0.05,1.0661e-06,10.654,8.1865e-07,6.1511,-3.2587e-12,1.4779e-05,-8.1864e-07,-6.1509,0.33511
18850,6.2183,1.2727,0,0.00044423,4439.2,0.00015108,0.017038,0.00013898,-90.878,-0.0004457,-4483.9,0.36091
18851,6.1261,1.1818,0,0.0004474,4470.9,0.00015193,0.020108,0.00014035,-86.99,-0.00044881,-4513.7,0.35181
18852,6.1261,1.2727,0.05,1.0559e-06,10.552,8.1079e-07,6.092,-5.239e-12,1.7099e-05,-8.1078e-07,-6.0918,0.35221
18853,6.4025,1.2727,0,0.00043896,4386.6,0.00014901,0.014595,0.0001378,-84.173,-0.00044033,-4428.1,0.37846
18854,6.3104,1.1818,0,0.0004421,4417.9,0.00014988,0.017247,0.00013912,-80.789,-0.00044342,-4457.8,0.36922
18855,6.3104,1.2727,0.05,1.0462e-06,10.455,8.0334e-07,6.036,-5.3474e-12,1.0101e-05,-8.0333e-07,-6.0359,0.36961
18856,6.5868,1.2727,0,0.0004337,4334,0.00014696,0.012616,0.00013661,-77.75,-0.00043497,-4372.4,0.39631
18857,6.4947,1.1818,0,0.0004368,4365,0.00014784,0.014912,0.00013788,-74.797,-0.00043803,-4401.9,0.38692
18858,6.4947,1.2727,0.05,1.0369e-06,10.362,7.9622e-07,5.9826,-5.7093e-12,1.1422e-05,-7.9622e-07,-5.9824,0.38732
18859,6.7711,1.2727,0,0.00042845,4281.5,0.00014492,0.011005,0.00013539,-71.628,-0.00042962,-4316.9,0.41446
18860,6.6789,1.1818,0,0.00043152,4312.2,0.00014581,0.012997,0.00013662,-69.044,-0.00043265,-4346.3,0.40492
18861,6.6789,1.2727,0.05,1.0281e-06,10.273,7.8942e-07,5.9314,-5.8398e-12,7.8198e-06,-7.8941e-07,-5.9313,0.40532
18862,6.9553,1.2727,0,0.0004232,4229,0.0001429,0.0096893,0.00013414,-65.819,-0.00042428,-4261.6,0.4329
18863,6.8632,1.1818,0,0.00042624,4259.4,0.00014379,0.011418,0.00013534,-63.552,-0.00042728,-4290.8,0.42322
18864,6.8632,1.2727,0.05,1.0196e-06,10.189,7.8289e-07,5.8825,-6.0761e-12,1.0715e-05,-7.8289e-07,-5.8822,0.42361
18865,7.1396,1.2727,0,0.00041795,4176.6,0.0001409,0.0086103,0.00013287,-60.327,-0.00041894,-4206.5,0.45162
18866,7.0475,1.1818,0,0.00042096,4206.7,0.0001418,0.010109,0.00013403,-58.332,-0.00042192,-4235.6,0.44181
18867,7.0475,1.2727,0.05,1.0114e-06,10.107,7.7663e-07,5.8354,-4.4299e-12,9.3481e-06,-7.7662e-07,-5.8352,0.44219
18868,7.3239,1.2727,0,0.00041271,4124.3,0.00013892,0.0077227,0.00013158,-55.151,-0.00041362,-4151.6,0.47063
18869,7.2317,1.1818,0,0.00041569,4154.1,0.00013982,0.0090212,0.00013271,-53.39,-0.00041657,-4180.5,0.46068
18870,7.2317,1.2727,0.05,1.0036e-06,10.029,7.7062e-07,5.7902,-6.3182e-12,8.5417e-06,-7.706e-07,-5.79,0.46106
18871,7.5081,1.2727,0,0.00040748,4072,0.00013695,0.0069914,0.00013026,-50.286,-0.00040831,-4096.9,0.48993
18872,7.416,1.1818,0,0.00041043,4101.5,0.00013785,0.0081129,0.00013136,-48.728,-0.00041124,-4125.6,0.47983
18873,7.416,1.2727,0.05,9.9603e-07,9.9534,7.6483e-07,5.7467,-4.5263e-12,7.9454e-06,-7.6482e-07,-5.7465,0.48021
18874,7.6924,1.2727,0,0.00040225,4019.7,0.000135,0.006388,0.00012892,-45.723,-0.00040301,-4042.4,0.5095
18875,7.6003,1.1818,0,0.00040518,4049,0.0001359,0.0073534,0.00013,-44.34,-0.00040591,-4071,0.49927
18876,7.6003,1.2727,0.05,9.8878e-07,9.881,7.5927e-07,5.7049,-4.6882e-12,7.5699e-06,-7.5925e-07,-5.7047,0.49964
18877,7.8767,1.2727,0,0.00039703,3967.5,0.00013307,0.0058899,0.00012755,-41.451,-0.00039772,-3988.1,0.52934
18878,7.7845,1.1818,0,0.00039993,3996.5,0.00013396,0.0067165,0.00012861,-40.222,-0.0004006,-4016.5,0.51898
18879,7.7845,1.2727,0.05,9.8181e-07,9.8113,7.5391e-07,5.6646,-6.6072e-12,7.1133e-06,-7.539e-07,-5.6645,0.51935
18880,8.0609,1.2727,0,0.00039181,3915.4,0.00013115,0.0054806,0.00012616,-37.459,-0.00039244,-3934,0.54945
18881,7.9688,1.1818,0,0.00039469,3944.2,0.00013205,0.0061834,0.00012721,-36.363,-0.0003953,-3962.2,0.53896
18882,7.9688,1.2727,0.05,9.7509e-07,9.7442,7.4876e-07,5.6259,-4.8331e-12,5.4163e-06,-7.4875e-07,-5.6258,0.53933
18883,8.2452,1.2727,0,0.00038661,3863.4,0.00012925,0.0051464,0.00012476,-33.733,-0.00038717,-3880.1,0.56983
18884,8.1531,1.1818,0,0.00038946,3891.9,0.00013014,0.0057384,0.00012578,-32.755,-0.00039001,-3908.2,0.55921
18885,8.1531,1.2727,0.05,9.6862e-07,9.6795,7.4378e-07,5.5885,-4.9041e-12,6.0522e-06,-7.4378e-07,-5.5884,0.55958
18886,8.4295,1.2727,0,0.00038141,3811.4,0.00012736,0.0048765,0.00012333,-30.26,-0.00038191,-3826.5,0.59047
18887,8.3373,1.1818,0,0.00038424,3839.8,0.00012825,0.0053699,0.00012434,-29.385,-0.00038473,-3854.4,0.57972
18888,8.3373,1.2727,0.05,9.6237e-07,9.6171,7.3899e-07,5.5525,-4.9633e-12,5.6122e-06,-7.3898e-07,-5.5523,0.58009
18889,8.6137,1.2727,0,0.00037622,3759.6,0.00012549,0.0046637,0.00012189,-27.026,-0.00037667,-3773,0.61137
18890,8.5216,1.1818,0,0.00037903,3787.7,0.00012638,0.0050677,0.00012288,-26.242,-0.00037947,-3800.7,0.6005
18891,8.5216,1.2727,0.05,9.5634e-07,9.5568,7.3436e-07,5.5177,-5.0163e-12,5.3437e-06,-7.3435e-07,-5.5176,0.60086
18892,8.798,1.2727,0,0.00037103,3707.8,0.00012363,0.0045026,0.00012043,-24.016,-0.00037144,-3719.7,0.63253
18893,8.7059,1.1818,0,0.00037383,3735.7,0.00012452,0.0048264,0.00012141,-23.313,-0.00037422,-3747.3,0.62153
18894,8.7059,1.2727,0.05,9.5051e-07,9.4986,7.2988e-07,5.4841,-3.2499e-12,5.1931e-06,-7.2987e-07,-5.4839,0.62189
18895,8.9823,1.2727,0,0.00036586,3656.1,0.00012178,0.00439,0.00011896,-21.217,-0.00036622,-3666.6,0.65394
18896,8.8901,1.1818,0,0.00036864,3683.8,0.00012267,0.0046417,0.00011993,-20.585,-0.00036898,-3694.1,0.64282
18897,8.8901,1.2727,0.05,9.4487e-07,9.4421,7.2555e-07,5.4515,-5.0982e-12,4.7718e-06,-7.2553e-07,-5.4513,0.64317
18898,9.1665,1.2727,0,0.0003607,3604.5,0.00011995,0.004325,0.00011747,-18.616,-0.00036101,-3613.8,0.67559
18899,9.0744,1.1818,0,0.00036346,3632.1,0.00012083,0.0045131,0.00011843,-18.048,-0.00036376,-3641,0.66436
18900,9.0744,1.2727,0.05,9.3939e-07,9.3875,7.2134e-07,5.4199,-3.3295e-12,4.7209e-06,-7.2133e-07,-5.4198,0.6647
18901,9.3508,1.2727,0,0.00035555,3553,0.00011813,0.0043098,0.00011598,-16.199,-0.00035582,-3561.1,0.69749
18902,9.2587,1.1818,0,0.00035829,3580.4,0.00011901,0.0044398,0.00011692,-15.688,-0.00035855,-3588.2,0.68614
18903,9.2587,1.2727,0.05,9.3408e-07,9.3344,7.1727e-07,5.3893,-3.346e-12,4.0576e-06,-7.1726e-07,-5.3891,0.68648
18904,9.5351,1.2727,0,0.00035041,3501.7,0.00011633,0.0043482,0.00011447,-13.955,-0.00035064,-3508.6,0.71964
18905,9.4429,1.1818,0,0.00035313,3528.9,0.0001172,0.0044301,0.00011541,-13.494,-0.00035336,-3535.6,0.70817
18906,9.4429,1.2727,0.05,9.2892e-07,9.2828,7.133e-07,5.3595,-4.3075e-12,3.9615e-06,-7.133e-07,-5.3594,0.70851
18907,9.7193,1.2727,0,0.00034528,3450.4,0.00011453,0.0044552,0.00011295,-11.87,-0.00034548,-3456.3,0.74202
18908,9.6272,1.1818,0,0.00034799,3477.5,0.0001154,0.0044912,0.00011388,-11.455,-0.00034818,-3483.2,0.73043
18909,9.6272,1.2727,0.05,9.239e-07,9.2326,7.0945e-07,5.3305,-4.3316e-12,4.1569e-06,-7.0944e-07,-5.3304,0.73077
18910,9.9036,1.2727,0,0.00034017,3399.3,0.00011275,0.0046473,0.00011142,-9.9339,-0.00034033,-3404.3,0.76463
18911,9.8115,1.1818,0,0.00034286,3426.2,0.00011362,0.0046541,0.00011234,-9.5609,-0.00034302,-3431,0.75294
18912,9.8115,1.2727,0.05,9.1901e-07,9.1837,7.0569e-07,5.3023,-6.1751e-12,3.7892e-06,-7.0568e-07,-5.3022,0.75327
18913,10.088,1.2727,0,0.00033506,3348.3,0.00011097,0.0049542,0.00010989,-8.136,-0.0003352,-3352.4,0.78748
18914,9.9957,1.1818,0,0.00033774,3375.1,0.00011184,0.0049409,0.0001108,-7.8004,-0.00033787,-3379,0.77567
18915,9.9957,1.2727,0.05,9.1423e-07,9.136,7.0202e-07,5.2748,-3.4778e-12,3.1394e-06,-7.0201e-07,-5.2746,0.776
18916,10.272,1.2727,0,0.00032997,3297.5,0.00010921,0.0054503,0.00010835,-6.4662,-0.00033008,-3300.7,0.81055
18917,10.18,1.1818,0,0.00033264,3324.1,0.00011008,0.005432,0.00010925,-6.1645,-0.00033274,-3327.2,0.79864
18918,10.18,1.2727,0.05,9.0957e-07,9.0894,6.9844e-07,5.2478,-3.4937e-12,3.8097e-06,-6.9843e-07,-5.2477,0.79896
18919,10.456,1.2727,0,0.0003249,3246.8,0.00010746,0.0062454,0.00010681,-4.915,-0.00032498,-3249.2,0.83385
18920,10.364,1.1818,0,0.00032755,3273.2,0.00010832,0.0062923,0.0001077,-4.644,-0.00032763,-3275.5,0.82183
18921,10.364,1.2727,0.05,9.0501e-07,9.0438,6.9494e-07,5.2215,-4.4239e-12,3.2133e-06,-6.9493e-07,-5.2214,0.82215
18922,10.641,1.2727,0,0.00031984,3196.2,0.00010572,0.0076868,0.00010526,-3.4738,-0.0003199,-3197.9,0.85737
18923,10.549,1.1818,0,0.00032247,3222.5,0.00010658,0.0078579,0.00010615,-3.2311,-0.00032253,-3224.1,0.84524
18924,10.549,1.2727,0.05,9.0053e-07,8.9991,6.915e-07,5.1957,-4.4444e-12,3.3562e-06,-6.9149e-07,-5.1956,0.84555
18925,10.825,1.2727,0,0.00031479,3145.8,0.00010399,0.010908,0.0001037,-2.1352,-0.00031483,-3146.8,0.8811
18926,10.733,1.1818,0,0.00031742,3172,0.00010484,0.011597,0.00010459,-1.9187,-0.00031745,-3172.9,0.86887
18927,10.733,1.2727,0.05,8.9614e-07,8.9552,6.8813e-07,5.1703,-3.5481e-12,2.9945e-06,-6.8812e-07,-5.1702,0.86918
18928,11.009,1.2727,0,0.00030976,3095.5,0.00010227,0.022501,0.00010215,-0.89813,-0.00030978,-3095.9,0.90505
18929,10.917,1.1818,0,0.00031237,3121.6,0.00010312,0.027586,0.00010302,-0.70938,-0.00031238,-3121.9,0.89272
18930,10.917,1.2727,0.05,8.9183e-07,8.9122,6.8482e-07,5.1455,-3.5634e-12,2.6721e-06,-6.8481e-07,-5.1454,0.89302
18931,11.193,1.2727,0,0.00030475,3045.4,0.0001006,0.33869,0.00010055,-0.051373,-0.00030474,-3045.2,0.92921
18932,11.101,1.1818,0,0.00030734,3071.3,0.00010147,0.49429,0.0001014,-0.034741,-0.00030734,-3071.1,0.91678
18933,11.101,1.2727,0.05,8.876e-07,8.8699,6.8157e-07,5.1211,-3.5782e-12,2.6863e-06,-6.8157e-07,-5.121,0.91708
18934,11.378,1.2727,0,0.00029975,2995.4,9.9033e-05,1.3822,9.8848e-05,-0.010773,-0.00029973,-2994.7,0.95357
18935,11.286,1.1818,0,0.00030233,3021.2,9.9899e-05,1.5336,9.9693e-05,-0.0098339,-0.00030231,-3020.5,0.94104
18936,11.286,1.2727,0.05,8.8345e-07,8.8284,6.7838e-07,5.0971,-3.5908e-12,1.9906e-06,-6.7837e-07,-5.097,0.94134
18937,11.562,1.2727,0,0.00029477,2945.6,9.7473e-05,2.3884,9.7154e-05,-0.0052955,-0.00029473,-2944.4,0.97814
18938,11.47,1.1818,0,0.00029734,2971.3,9.8333e-05,2.5223,9.7996e-05,-0.005288,-0.0002973,-2970.1,0.96552
18939,11.47,1.2727,0.05,8.7934e-07,8.7874,6.7523e-07,5.0735,-3.6028e-12,2.052e-06,-6.7522e-07,-5.0733,0.9658
18940,11.746,1.2727,0,0.0002898,2896,9.5913e-05,3.3317,9.5469e-05,-0.0031541,-0.00028974,-2894.3,1.0029
18941,11.654,1.1818,0,0.00029236,2921.6,9.6767e-05,3.4487,9.6308e-05,-0.0034047,-0.0002923,-2919.9,0.99019
18942,11.654,1.2727,0.05,8.7529e-07,8.7469,6.7212e-07,5.0501,-3.6139e-12,1.923e-06,-6.7211e-07,-5.0499,0.99047
18943,11.931,1.2727,0,0.00028485,2846.5,9.4353e-05,4.2153,9.3792e-05,-0.0020139,-0.00028478,-2844.4,1.0279
18944,11.838,1.1818,0,0.0002874,2872,9.5202e-05,4.3164,9.4627e-05,-0.0023533,-0.00028732,-2869.8,1.0151
18945,11.838,1.2727,0.05,8.713e-07,8.707,6.6905e-07,5.027,-3.6239e-12,1.8648e-06,-6.6905e-07,-5.0269,1.0153
18946,12.115,1.2727,0,0.00027992,2797.3,9.2795e-05,5.0439,9.2123e-05,-0.001323,-0.00027983,-2794.7,1.053
18947,12.023,1.1818,0,0.00028245,2822.6,9.3639e-05,5.1299,9.2956e-05,-0.001721,-0.00028237,-2820,1.0401
18948,12.023,1.2727,0.05,8.6737e-07,8.6677,6.6603e-07,5.0043,-2.7242e-12,2.1183e-06,-6.6603e-07,-5.0042,1.0404
18949,12.299,1.2727,0,0.000275,2748.1,9.1238e-05,5.8221,9.0463e-05,-0.00087319,-0.0002749,-2745.2,1.0784
18950,12.207,1.1818,0,0.00027753,2773.4,9.2077e-05,5.8941,9.1292e-05,-0.0012986,-0.00027743,-2770.4,1.0654
18951,12.207,1.2727,0.05,8.6348e-07,8.6288,6.6305e-07,4.9819,-3.6432e-12,2.1956e-06,-6.6304e-07,-4.9818,1.0657
18952,12.483,1.2727,0,0.00027011,2699.2,8.9683e-05,6.5547,8.881e-05,-0.00054955,-0.00026999,-2695.9,1.1039
18953,12.391,1.1818,0,0.00027262,2724.3,9.0517e-05,6.613,8.9636e-05,-0.0010264,-0.00027251,-2721,1.0908
18954,12.391,1.2727,0.05,8.5963e-07,8.5904,6.6009e-07,4.9597,-2.7425e-12,1.1048e-06,-6.6009e-07,-4.9596,1.0911
18955,12.668,1.2727,0,0.00026523,2650.4,8.813e-05,7.2459,8.7166e-05,-0.00027127,-0.0002651,-2646.8,1.1296
18956,12.575,1.1818,0,0.00026773,2675.4,8.8959e-05,7.2911,8.7989e-05,-0.0007936,-0.0002676,-2671.8,1.1165
18957,12.575,1.2727,0.05,8.5581e-07,8.5522,6.5716e-07,4.9376,-3.6595e-12,5.9907e-07,-6.5715e-07,-4.9376,1.1167
18958,12.852,1.2727,0,0.00026037,2601.9,8.658e-05,7.8997,8.5529e-05,-4.4624e-05,-0.00026023,-2597.9,1.1555
18959,12.76,1.1818,0,0.00026286,2626.7,8.7405e-05,7.9324,8.6349e-05,-0.00057735,-0.00026272,-2622.8,1.1423
18960,12.76,1.2727,0.05,8.5204e-07,8.5145,6.5426e-07,4.9159,-2.7576e-12,9.7108e-07,-6.5426e-07,-4.9158,1.1425
18961,13.036,1.2727,0,0.00025552,2553.5,8.5034e-05,8.5199,8.39e-05,0.00012625,-0.00025538,-2549.2,1.1816
18962,12.944,1.1818,0,0.000258,2578.2,8.5853e-05,8.5404,8.4717e-05,-0.00042471,-0.00025785,-2573.9,1.1683
18963,12.944,1.2727,0.05,8.4831e-07,8.4772,6.514e-07,4.8944,-3.6754e-12,8.6111e-07,-6.5139e-07,-4.8943,1.1685
18964,13.22,1.2727,0,0.0002507,2505.2,8.3491e-05,9.1103,8.2278e-05,0.00025494,-0.00025054,-2500.7,1.2078
18965,13.128,1.1818,0,0.00025316,2529.9,8.4306e-05,9.1186,8.3092e-05,-0.00030407,-0.00025301,-2525.3,1.1944
18966,13.128,1.2727,0.05,8.4461e-07,8.4403,6.4856e-07,4.873,-1.8587e-12,1.5386e-06,-6.4855e-07,-4.8729,1.1947
18967,13.405,1.2727,0,0.00024589,2457.2,8.1952e-05,9.6742,8.0664e-05,0.0003661,-0.00024572,-2452.4,1.2343
18968,13.313,1.1818,0,0.00024835,2481.8,8.2762e-05,9.6705,8.1475e-05,-0.00022787,-0.00024818,-2476.9,1.2208
18969,13.313,1.2727,0.05,8.4094e-07,8.4036,6.4574e-07,4.8519,-3.6837e-12,1.2112e-06,-6.4573e-07,-4.8518,1.221
18970,13.589,1.2727,0,0.0002411,2409.4,8.0417e-05,10.215,7.9057e-05,0.00049588,-0.00024093,-2404.2,1.2608
18971,13.497,1.1818,0,0.00024355,2433.8,8.1223e-05,10.199,7.9865e-05,-0.00013447,-0.00024337,-2428.7,1.2473
18972,13.497,1.2727,0.05,8.3729e-07,8.3671,6.4294e-07,4.8308,-9.5708e-13,5.8773e-07,-6.4293e-07,-4.8307,1.2475
18973,13.773,1.2727,0,0.00023633,2361.7,7.8887e-05,10.736,7.7458e-05,0.00061832,-0.00023615,-2356.3,1.2876
18974,13.681,1.1818,0,0.00023877,2386,7.9688e-05,10.708,7.8263e-05,-1.6875e-05,-0.00023858,-2380.7,1.2739
18975,13.681,1.2727,0.05,8.3368e-07,8.331,6.4016e-07,4.8099,-3.6885e-12,-1.3179e-07,-6.4016e-07,-4.8099,1.2742
18976,13.957,1.2727,0,0.00023158,2314.2,7.7361e-05,11.239,7.5866e-05,0.00071622,-0.00023139,-2308.6,1.3145
18977,13.865,1.1818,0,0.00023401,2338.5,7.8158e-05,11.199,7.6667e-05,6.4583e-05,-0.00023382,-2332.8,1.3008
18978,13.865,1.2727,0.05,8.301e-07,8.2952,6.3741e-07,4.7893,-2.7789e-12,-4.2184e-07,-6.3741e-07,-4.7892,1.301
18979,14.142,1.2727,0,0.00022685,2267,7.5841e-05,11.729,7.428e-05,0.00079372,-0.00022665,-2261.1,1.3415
18980,14.05,1.1818,0,0.00022927,2291.1,7.6633e-05,11.675,7.5079e-05,0.00013625,-0.00022907,-2285.2,1.3277
18981,14.05,1.2727,0.05,8.2654e-07,8.2597,6.3468e-07,4.7688,-1.8763e-12,3.4469e-07,-6.3468e-07,-4.7687,1.328
18982,14.326,1.2727,0,0.00022214,2219.9,7.4326e-05,12.207,7.2702e-05,0.00086935,-0.00022193,-2213.8,1.3688
18983,14.234,1.1818,0,0.00022454,2243.9,7.5113e-05,12.14,7.3498e-05,0.00017907,-0.00022434,-2237.8,1.3549
18984,14.234,1.2727,0.05,8.2301e-07,8.2244,6.3197e-07,4.7484,-2.7871e-12,-5.0197e-07,-6.3197e-07,-4.7483,1.3551
18985,14.51,1.2727,0,0.00021745,2173,7.2817e-05,12.676,7.113e-05,0.00097152,-0.00021723,-2166.6,1.3961
18986,14.418,1.1818,0,0.00021984,2196.9,7.3599e-05,12.595,7.1923e-05,0.00024882,-0.00021963,-2190.6,1.3822
18987,14.418,1.2727,0.05,8.1949e-07,8.1893,6.2927e-07,4.7281,-3.6973e-12,3.2266e-07,-6.2927e-07,-4.728,1.3824
18988,14.695,1.2727,0,0.00021278,2126.3,7.1314e-05,13.139,6.9565e-05,0.0010738,-0.00021255,-2119.7,1.4236
18989,14.602,1.1818,0,0.00021516,2150.1,7.2091e-05,13.044,7.0355e-05,0.00034459,-0.00021493,-2143.6,1.4096
18990,14.602,1.2727,0.05,8.1601e-07,8.1544,6.2659e-07,4.708,-3.6941e-12,1.5134e-06,-6.2659e-07,-4.7079,1.4098
18991,14.879,1.2727,0,0.00020813,2079.8,6.9817e-05,13.599,6.8007e-05,0.0011607,-0.00020789,-2073,1.4513
18992,14.787,1.1818,0,0.0002105,2103.5,7.059e-05,13.488,6.8795e-05,0.00041628,-0.00021026,-2096.7,1.4372
18993,14.787,1.2727,0.05,8.1255e-07,8.1199,6.2394e-07,4.6881,-3.6974e-12,3.2581e-06,-6.2394e-07,-4.688,1.4374
18994,15.063,1.2727,0,0.00020349,2033.5,6.8327e-05,14.058,6.6456e-05,0.001236,-0.00020325,-2026.5,1.4791
18995,14.971,1.1818,0,0.00020585,2057.1,6.9094e-05,13.93,6.724e-05,0.00048132,-0.00020561,-2050.1,1.4649
18996,14.971,1.2727,0.05,8.0912e-07,8.0856,6.2131e-07,4.6683,-9.6089e-13,3.0231e-06,-6.213e-07,-4.6682,1.4651
18997,15.247,1.2727,0,0.00019888,1987.4,6.6843e-05,14.518,6.4911e-05,0.0013151,-0.00019863,-1980.1,1.507
18998,15.155,1.1818,0,0.00020123,2010.9,6.7605e-05,14.373,6.5693e-05,0.00052883,-0.00020098,-2003.7,1.4928
18999,15.155,1.2727,0.05,8.0571e-07,8.0515,6.1869e-07,4.6486,-1.8766e-12,4.9865e-06,-6.1868e-07,-4.6485,1.493
19000,15.432,1.2727,0,0.00019429,1941.6,6.5366e-05,14.983,6.3372e-05,0.0014212,-0.00019403,-1934,1.5351
19001,15.339,1.1818,0,0.00019663,1964.9,6.6123e-05,14.818,6.4151e-05,0.00060083,-0.00019637,-1957.5,1.5208
19002,15.339,1.2727,0.05,8.0231e-07,8.0176,6.1608e-07,4.629,-9.6726e-13,4.4076e-06,-6.1607e-07,-4.6289,1.521
19003,15.616,1.2727,0,0.00018972,1895.9,6.3897e-05,15.454,6.184e-05,0.0015311,-0.00018945,-1888.1,1.5633
19004,15.524,1.1818,0,0.00019204,1919.1,6.4648e-05,15.268,6.2616e-05,0.00070149,-0.00019178,-1911.4,1.549
19005,15.524,1.2727,0.05,7.9894e-07,7.9839,6.1349e-07,4.6096,-2.7933e-12,3.4166e-06,-6.1349e-07,-4.6095,1.5491
19006,15.8,1.2727,0,0.00018517,1850.4,6.2434e-05,15.934,6.0314e-05,0.0016316,-0.00018489,-1842.4,1.5916
19007,15.708,1.1818,0,0.00018748,1873.5,6.3181e-05,15.726,6.1088e-05,0.00078248,-0.00018721,-1865.6,1.5772
19008,15.708,1.2727,0.05,7.9561e-07,7.9506,6.1093e-07,4.5903,-9.7804e-13,3.1098e-06,-6.1093e-07,-4.5902,1.5774
19009,15.984,1.2727,0,0.00018064,1805.1,6.098e-05,16.426,5.8794e-05,0.0017253,-0.00018035,-1796.8,1.6201
19010,15.892,1.1818,0,0.00018294,1828.1,6.1721e-05,16.194,5.9566e-05,0.00086107,-0.00018266,-1820,1.6056
19011,15.892,1.2727,0.05,7.923e-07,7.9175,6.0839e-07,4.5712,-1.8903e-12,4.7235e-06,-6.0838e-07,-4.5711,1.6058
19012,16.169,1.2727,0,0.00017612,1760,5.9534e-05,16.932,5.7281e-05,0.0018263,-0.00017583,-1751.5,1.6486
19013,16.077,1.1818,0,0.00017842,1782.9,6.0269e-05,16.674,5.805e-05,0.00092599,-0.00017813,-1774.5,1.6341
19014,16.077,1.2727,0.05,7.8901e-07,7.8846,6.0586e-07,4.5522,-1.9034e-12,4.931e-06,-6.0586e-07,-4.5522,1.6343
19015,16.353,1.2727,0,0.00017164,1715.2,5.8096e-05,17.455,5.5773e-05,0.0019542,-0.00017133,-1706.4,1.6773
19016,16.261,1.1818,0,0.00017391,1737.9,5.8824e-05,17.169,5.6539e-05,0.0010182,-0.00017362,-1729.3,1.6628
19017,16.261,1.2727,0.05,7.8574e-07,7.852,6.0335e-07,4.5334,-1.9072e-12,6.574e-06,-6.0335e-07,-4.5333,1.663
19018,16.537,1.2727,0,0.00016717,1670.5,5.6666e-05,17.998,5.4271e-05,0.0020903,-0.00016685,-1661.4,1.7061
19019,16.445,1.1818,0,0.00016943,1693.2,5.7388e-05,17.682,5.5035e-05,0.001136,-0.00016913,-1684.3,1.6915
19020,16.445,1.2727,0.05,7.8251e-07,7.8197,6.0087e-07,4.5147,-1.9112e-12,6.1082e-06,-6.0086e-07,-4.5146,1.6917
19021,16.721,1.2727,0,0.00016272,1626.1,5.5246e-05,18.564,5.2775e-05,0.0022227,-0.0001624,-1616.7,1.7351
19022,16.629,1.1818,0,0.00016498,1648.6,5.5961e-05,18.214,5.3537e-05,0.0012418,-0.00016466,-1639.4,1.7204
19023,16.629,1.2727,0.05,7.793e-07,7.7877,5.9841e-07,4.4963,-2.3642e-12,6.8397e-06,-5.9841e-07,-4.4962,1.7206
19024,16.906,1.2727,0,0.00015829,1581.8,5.3834e-05,19.156,5.1285e-05,0.0023519,-0.00015796,-1572.2,1.7641
19025,16.814,1.1818,0,0.00016054,1604.3,5.4543e-05,18.769,5.2045e-05,0.0013506,-0.00016021,-1594.8,1.7494
19026,16.814,1.2727,0.05,7.7614e-07,7.756,5.9598e-07,4.478,-1.9269e-12,4.7241e-06,-5.9597e-07,-4.4779,1.7495
19027,17.09,1.2727,0,0.00015389,1537.8,5.2432e-05,19.777,4.98e-05,0.0024926,-0.00015354,-1527.8,1.7932
19028,16.998,1.1818,0,0.00015612,1560.1,5.3133e-05,19.35,5.0558e-05,0.0014488,-0.00015578,-1550.3,1.7785
19029,16.998,1.2727,0.05,7.73e-07,7.7246,5.9357e-07,4.4599,-1.9181e-12,5.244e-06,-5.9356e-07,-4.4598,1.7786
19030,17.274,1.2727,0,0.0001495,1494,5.104e-05,20.429,4.8321e-05,0.0026633,-0.00014915,-1483.7,1.8225
19031,17.182,1.1818,0,0.00015172,1516.2,5.1733e-05,19.96,4.9077e-05,0.0015759,-0.00015137,-1506.1,1.8077
19032,17.182,1.2727,0.05,7.6989e-07,7.6935,5.9118e-07,4.4419,-1.9176e-12,5.5535e-06,-5.9118e-07,-4.4418,1.8078
19033,17.459,1.2727,0,0.00014514,1450.4,4.9657e-05,21.118,4.6847e-05,0.0028469,-0.00014477,-1439.7,1.8518
19034,17.366,1.1818,0,0.00014735,1472.5,5.0343e-05,20.601,4.7601e-05,0.0017314,-0.00014699,-1462.1,1.837
19035,17.366,1.2727,0.05,7.6682e-07,7.6629,5.8882e-07,4.4242,-1.929e-12,5.3238e-06,-5.8882e-07,-4.4241,1.8371
19036,17.643,1.2727,0,0.0001408,1407,4.8286e-05,21.846,4.5379e-05,0.0030324,-0.00014042,-1396,1.8813
19037,17.551,1.1818,0,0.000143,1429,4.8962e-05,21.278,4.6131e-05,0.001881,-0.00014262,-1418.2,1.8664
19038,17.551,1.2727,0.05,7.6379e-07,7.6327,5.865e-07,4.4068,-1.9343e-12,6.358e-06,-5.865e-07,-4.4067,1.8665
19039,17.827,1.2727,0,0.00013648,1363.9,4.6925e-05,22.617,4.3915e-05,0.0032219,-0.00013608,-1352.4,1.9108
19040,17.735,1.1818,0,0.00013866,1385.7,4.7592e-05,21.993,4.4665e-05,0.0020377,-0.00013828,-1374.6,1.8959
19041,17.735,1.2727,0.05,7.6081e-07,7.6029,5.8421e-07,4.3896,-1.9302e-12,4.4086e-06,-5.8421e-07,-4.3895,1.896
19042,18.011,1.2727,0,0.00013219,1321,4.5575e-05,23.435,4.2456e-05,0.0034288,-0.00013177,-1309.1,1.9404
19043,17.919,1.1818,0,0.00013435,1342.6,4.6233e-05,22.75,4.3205e-05,0.0021918,-0.00013395,-1331.1,1.9254
19044,17.919,1.2727,0.05,7.5787e-07,7.5735,5.8196e-07,4.3726,-1.4893e-12,5.6714e-06,-5.8195e-07,-4.3725,1.9256
19045,18.196,1.2727,0,0.00012791,1278.3,4.4237e-05,24.304,4.1002e-05,0.0036714,-0.00012748,-1265.9,1.9701
19046,18.103,1.1818,0,0.00013007,1299.8,4.4884e-05,23.553,4.175e-05,0.0023792,-0.00012965,-1287.8,1.9551
19047,18.103,1.2727,0.05,7.5498e-07,7.5446,5.7973e-07,4.3559,-1.0438e-12,7.407e-06,-5.7973e-07,-4.3558,1.9553
19048,18.38,1.2727,0,0.00012366,1235.8,4.2911e-05,25.23,3.9553e-05,0.0039343,-0.00012321,-1223,1.9999
19049,18.288,1.1818,0,0.0001258,1257.1,4.3548e-05,24.407,4.03e-05,0.0025984,-0.00012537,-1244.8,1.9849
19050,18.288,1.2727,0.05,7.5214e-07,7.5163,5.7755e-07,4.3395,-1.0561e-12,1.0046e-05,-5.7755e-07,-4.3395,1.985
19051,18.564,1.2727,0,0.00011944,1193.5,4.1597e-05,26.217,3.8108e-05,0.0042104,-0.00011897,-1180.2,2.0298
19052,18.472,1.1818,0,0.00012156,1214.7,4.2222e-05,25.314,3.8854e-05,0.0028225,-0.00012111,-1201.9,2.0147
19053,18.472,1.2727,0.05,7.4937e-07,7.4885,5.7542e-07,4.3235,-1.0736e-12,1.2811e-05,-5.7542e-07,-4.3235,2.0149
19054,18.748,1.2727,0,0.00011523,1151.5,4.0296e-05,27.27,3.6667e-05,0.0045032,-0.00011474,-1137.6,2.0598
19055,18.656,1.1818,0,0.00011734,1172.6,4.091e-05,26.281,3.7412e-05,0.003063,-0.00011687,-1159.2,2.0447
19056,18.656,1.2727,0.05,7.4665e-07,7.4614,5.7334e-07,4.3079,-1.0855e-12,9.8883e-06,-5.7334e-07,-4.3078,2.0448
19057,18.933,1.2727,0,0.00011105,1109.7,3.9009e-05,28.395,3.5231e-05,0.0048254,-0.00011054,-1095.2,2.0898
19058,18.841,1.1818,0,0.00011314,1130.6,3.961e-05,27.312,3.5975e-05,0.0033139,-0.00011265,-1116.7,2.0747
19059,18.841,1.2727,0.05,7.4401e-07,7.4349,5.7131e-07,4.2926,-6.7076e-13,7.8234e-06,-5.713e-07,-4.2925,2.0748
19060,19.117,1.2727,0,0.00010689,1068.2,3.7736e-05,29.597,3.3798e-05,0.0051952,-0.00010636,-1053.1,2.12
19061,19.025,1.1818,0,0.00010896,1088.9,3.8323e-05,28.413,3.4542e-05,0.0036087,-0.00010845,-1074.4,2.1048
19062,19.025,1.2727,0.05,7.4142e-07,7.4091,5.6932e-07,4.2777,-1.154e-12,9.2759e-06,-5.6932e-07,-4.2776,2.1049
19063,19.301,1.2727,0,0.00010276,1026.8,3.6478e-05,30.885,3.2368e-05,0.0056024,-0.0001022,-1011.1,2.1501
19064,19.209,1.1818,0,0.00010481,1047.4,3.705e-05,29.588,3.3112e-05,0.003946,-0.00010428,-1032.3,2.1349
19065,19.209,1.2727,0.05,7.3893e-07,7.3842,5.6741e-07,4.2633,-7.239e-13,8.1949e-06,-5.674e-07,-4.2632,2.135
19066,19.485,1.2727,0,9.8645e-05,985.77,3.5235e-05,32.263,3.0942e-05,0.0060433,-9.8057e-05,-969.24,2.1804
19067,19.393,1.1818,0,0.00010068,1006.1,3.5791e-05,30.845,3.1686e-05,0.0043084,-0.00010012,-990.36,2.1651
19068,19.393,1.2727,0.05,7.3652e-07,7.3601,5.6556e-07,4.2494,-1.6784e-12,7.4951e-06,-5.6555e-07,-4.2493,2.1652
19069,19.67,1.2727,0,9.456e-05,944.95,3.4009e-05,33.74,2.9519e-05,0.0065272,-9.3941e-05,-927.62,2.2107
19070,19.578,1.1818,0,9.6579e-05,965.12,3.4547e-05,32.19,3.0264e-05,0.004707,-9.5991e-05,-948.62,2.1954
19071,19.578,1.2727,0.05,7.342e-07,7.337,5.6378e-07,4.236,-1.2465e-12,7.1373e-06,-5.6377e-07,-4.236,2.1955
19072,19.854,1.2727,0,9.05e-05,904.37,3.2799e-05,35.324,2.8099e-05,0.0070682,-8.9847e-05,-886.19,2.2411
19073,19.762,1.1818,0,9.2498e-05,924.34,3.3319e-05,33.63,2.8844e-05,0.0051458,-9.188e-05,-907.07,2.2258
19074,19.762,1.2727,0.05,7.3199e-07,7.3148,5.6207e-07,4.2232,-1.2737e-12,5.5236e-06,-5.6207e-07,-4.2232,2.2259
19075,20.038,1.2727,0,8.6465e-05,864.05,3.1607e-05,37.025,2.668e-05,0.0076875,-8.5776e-05,-844.94,2.2716
19076,19.946,1.1818,0,8.8442e-05,883.81,3.2107e-05,35.172,2.7427e-05,0.0056482,-8.7791e-05,-865.7,2.2562
19077,19.946,1.2727,0.05,7.2988e-07,7.2937,5.6046e-07,4.2111,-1.734e-12,1.4998e-06,-5.6045e-07,-4.211,2.2563
19078,20.223,1.2727,0,8.2457e-05,824,3.0434e-05,38.851,2.5264e-05,0.0083853,-8.1727e-05,-803.88,2.3021
19079,20.13,1.1818,0,8.4412e-05,843.53,3.0913e-05,36.826,2.6012e-05,0.0062327,-8.3725e-05,-824.52,2.2867
19080,20.13,1.2727,0.05,7.2789e-07,7.2739,5.5893e-07,4.1996,-1.2839e-12,2.2516e-06,-5.5893e-07,-4.1996,2.2868
19081,20.407,1.2727,0,7.8475e-05,784.21,2.928e-05,40.814,2.385e-05,0.0091679,-7.7701e-05,-763.01,2.3326
19082,20.315,1.1818,0,8.0407e-05,803.51,2.9736e-05,38.601,2.46e-05,0.0068813,-7.968e-05,-783.51,2.3172
19083,20.315,1.2727,0.05,7.2604e-07,7.2554,5.5751e-07,4.1889,-1.4937e-12,4.5393e-06,-5.5751e-07,-4.1889,2.3173
19084,20.591,1.2727,0,7.4522e-05,744.71,2.8148e-05,42.925,2.2436e-05,0.010055,-7.3699e-05,-722.31,2.3632
19085,20.499,1.1818,0,7.6428e-05,763.75,2.8579e-05,40.507,2.3189e-05,0.0076224,-7.5658e-05,-742.69,2.3478
19086,20.499,1.2727,0.05,7.2434e-07,7.2384,5.562e-07,4.1791,-1.1978e-12,5.4188e-06,-5.562e-07,-4.1791,2.3479
19087,20.775,1.2727,0,7.0598e-05,705.49,2.7038e-05,45.199,2.1024e-05,0.011075,-6.972e-05,-681.8,2.3939
19088,20.683,1.1818,0,7.2476e-05,724.26,2.7442e-05,42.556,2.1779e-05,0.0084691,-7.1659e-05,-702.04,2.3785
19089,20.683,1.2727,0.05,7.2279e-07,7.223,5.5502e-07,4.1702,-1.1294e-12,7.3115e-06,-5.5501e-07,-4.1701,2.3785
19090,20.96,1.2727,0,6.6704e-05,666.58,2.5951e-05,47.65,1.9611e-05,0.012263,-6.5766e-05,-641.47,2.4246
19091,20.867,1.1818,0,6.8553e-05,685.06,2.6326e-05,44.761,2.037e-05,0.009461,-6.7682e-05,-661.58,2.4092
19092,20.867,1.2727,0.05,7.2142e-07,7.2093,5.5397e-07,4.1623,-1.1563e-12,6.097e-06,-5.5396e-07,-4.1622,2.4092
19093,21.144,1.2727,0,6.2843e-05,627.99,2.489e-05,50.297,1.8198e-05,0.013646,-6.1836e-05,-601.33,2.4554
19094,21.052,1.1818,0,6.466e-05,646.16,2.5233e-05,47.137,1.8961e-05,0.010628,-6.3729e-05,-621.29,2.4399
19095,21.052,1.2727,0.05,7.2026e-07,7.1976,5.5307e-07,4.1556,-1.2152e-12,4.9701e-06,-5.5307e-07,-4.1555,2.44
19096,21.328,1.2727,0,5.9016e-05,589.75,2.3857e-05,53.158,1.6784e-05,0.015268,-5.7931e-05,-561.36,2.4861
19097,21.236,1.1818,0,6.0799e-05,607.57,2.4166e-05,49.702,1.7552e-05,0.011998,-5.98e-05,-581.18,2.4707
19098,21.236,1.2727,0.05,7.1931e-07,7.1881,5.5234e-07,4.1501,-1.2672e-12,1.4586e-06,-5.5234e-07,-4.15,2.4707
19099,21.512,1.2727,0,5.5226e-05,551.87,2.2853e-05,56.257,1.5368e-05,0.017186,-5.4053e-05,-521.58,2.517
19100,21.42,1.1818,0,5.6971e-05,569.32,2.3125e-05,52.476,1.6142e-05,0.013623,-5.5896e-05,-541.26,2.5015
19101,21.42,1.2727,0.05,7.1861e-07,7.1812,5.5181e-07,4.1461,-1.1221e-12,-1.3999e-06,-5.518e-07,-4.146,2.5015
19102,21.697,1.2727,0,5.1476e-05,514.41,2.1882e-05,59.622,1.395e-05,0.019484,-5.0202e-05,-481.99,2.5478
19103,21.605,1.1818,0,5.318e-05,531.43,2.2113e-05,55.482,1.4731e-05,0.015568,-5.2018e-05,-501.51,2.5323
19104,21.605,1.2727,0.05,7.182e-07,7.1771,5.5149e-07,4.1437,-1.0877e-12,-1.6733e-06,-5.5149e-07,-4.1437,2.5324
19105,21.881,1.2727,0,4.7772e-05,477.39,2.0947e-05,63.284,1.2528e-05,0.022274,-4.638e-05,-442.59,2.5787
19106,21.789,1.1818,0,4.943e-05,493.96,2.1133e-05,58.749,1.3316e-05,0.017938,-4.8167e-05,-461.95,2.5632
19107,21.789,1.2727,0.05,7.1812e-07,7.1762,5.5143e-07,4.1432,-1.172e-12,9.169e-07,-5.5142e-07,-4.1432,2.5633
19108,22.065,1.2727,0,4.412e-05,440.89,2.0053e-05,67.282,1.1101e-05,0.025695,-4.2588e-05,-403.38,2.6097
19109,21.973,1.1818,0,4.5725e-05,456.94,2.0189e-05,62.311,1.1899e-05,0.020851,-4.4345e-05,-422.57,2.5941
19110,21.973,1.2727,0.05,7.1842e-07,7.1793,5.5166e-07,4.145,-1.2618e-12,3.5196e-06,-5.5166e-07,-4.1449,2.5942
19111,22.249,1.2727,0,4.0527e-05,404.99,1.9202e-05,71.66,9.669e-06,0.029944,-3.8829e-05,-364.37,2.6406
19112,22.157,1.1818,0,4.2073e-05,420.44,1.9286e-05,66.209,1.0477e-05,0.024474,-4.0554e-05,-383.4,2.6251
19113,22.157,1.2727,0.05,7.1919e-07,7.187,5.5225e-07,4.1494,-1.2953e-12,5.0527e-06,-5.5225e-07,-4.1494,2.6251
19114,22.434,1.2727,0,3.7004e-05,369.79,1.8402e-05,76.471,8.2292e-06,0.03533,-3.5105e-05,-325.56,2.6716
19115,22.342,1.1818,0,3.8483e-05,384.56,1.8427e-05,70.492,9.0492e-06,0.02904,-3.6796e-05,-344.43,2.6561
19116,22.342,1.2727,0.05,7.2052e-07,7.2002,5.5327e-07,4.1571,-1.13e-12,2.0204e-06,-5.5327e-07,-4.157,2.6561
19117,22.618,1.2727,0,3.3566e-05,335.43,1.7659e-05,81.779,6.7801e-06,0.042246,-3.1418e-05,-286.97,2.7026
19118,22.526,1.1818,0,3.4967e-05,349.43,1.762e-05,75.22,7.6139e-06,0.034949,-3.3074e-05,-305.68,2.6871
19119,22.526,1.2727,0.05,7.2255e-07,7.2205,5.5483e-07,4.1688,-1.1695e-12,-1.8541e-06,-5.5483e-07,-4.1687,2.6871
19120,22.802,1.2727,0,3.0232e-05,302.11,1.6978e-05,87.653,5.3194e-06,0.051639,-2.7771e-05,-248.58,2.7337
19121,22.71,1.1818,0,3.1541e-05,315.2,1.6873e-05,80.465,6.1691e-06,0.042609,-2.9392e-05,-267.15,2.7181
19122,22.71,1.2727,0.05,7.2545e-07,7.2495,5.5706e-07,4.1855,-1.5586e-12,-5.3603e-06,-5.5705e-07,-4.1855,2.7181
19123,22.987,1.2727,0,2.7028e-05,270.1,1.6369e-05,94.17,3.8443e-06,0.063823,-2.4165e-05,-210.39,2.7647
19124,22.894,1.1818,0,2.823e-05,282.1,1.6193e-05,86.311,4.7125e-06,0.053553,-2.5753e-05,-228.85,2.7491
19125,22.894,1.2727,0.05,7.2947e-07,7.2897,5.6014e-07,4.2087,-1.3311e-12,-5.6225e-06,-5.6014e-07,-4.2087,2.7492
19126,23.171,1.2727,0,2.3992e-05,239.76,1.5838e-05,101.41,2.3518e-06,0.08476,-2.0601e-05,-172.37,2.7958
19127,23.079,1.1818,0,2.5065e-05,250.47,1.5589e-05,92.849,3.2406e-06,0.066988,-2.2159e-05,-190.78,2.7802
19128,23.079,1.2727,0.05,7.349e-07,7.344,5.6432e-07,4.24,-6.6239e-13,-1.4358e-06,-5.6431e-07,-4.24,2.7802
19129,23.355,1.2727,0,2.1176e-05,211.62,1.5389e-05,109.44,8.3733e-07,0.10516,-1.7074e-05,-134.48,2.8269
19130,23.263,1.1818,0,2.2092e-05,220.76,1.5071e-05,100.18,1.7505e-06,0.095867,-1.8612e-05,-152.9,2.8113
19131,23.263,1.2727,0.05,7.4212e-07,7.416,5.6985e-07,4.2817,-9.6262e-13,-4.944e-06,-5.6985e-07,-4.2816,2.8113
19132,23.539,1.2727,0,1.8658e-05,186.45,1.5025e-05,118.33,-6.9771e-07,0.19533,-1.3582e-05,-96.612,2.858
19133,23.447,1.1818,0,1.9375e-05,193.62,1.4644e-05,108.37,2.3515e-07,0.10974,-1.5107e-05,-115.16,2.8424
19134,23.447,1.2727,0.05,7.5147e-07,7.5095,5.7703e-07,4.3356,-8.7308e-13,-5.6125e-06,-5.7703e-07,-4.3356,2.8424
19135,23.724,1.2727,0,1.6556e-05,165.44,1.4751e-05,128.08,-2.2713e-06,0.17455,-1.0116e-05,-58.767,2.8891
19136,23.631,1.1818,0,1.7015e-05,170.03,1.4312e-05,117.55,-1.296e-06,0.2835,-1.1642e-05,-77.449,2.8735
19137,23.631,1.2727,0.05,7.6394e-07,7.6341,5.8661e-07,4.4075,-8.7389e-13,-4.4665e-06,-5.8661e-07,-4.4075,2.8735
19138,23.816,1.1818,0,1.5162e-05,151.52,1.4084e-05,127.62,-2.8853e-06,0.11902,-8.2096e-06,-39.885,2.9046
19139,23.816,1.2727,0.05,7.9172e-07,7.9117,6.0794e-07,4.5678,-7.6133e-13,-6.2257e-06,-6.0794e-07,-4.5678,2.9046
19140,23.908,1.2727,0,1.5009e-05,149.98,1.45e-05,137.59,-3.7581e-06,0.41102,-6.8132e-06,-22.544,2.9202
19141,1.2431,1.0909,0,0.00048113,4808,0.00029259,1688.3,6.7026e-05,-6.4408,-0.00042955,-3737.5,0.010558
19142,1.1509,1,0,0.00045194,4516.3,0.0002905,1795.6,4.9999e-05,-11.444,-0.00039359,-3344.4,0.0055267
19143,1.1509,1.0909,0.05,2.2919e-05,229.04,1.7599e-05,132.23,6.3146e-12,6.9491e-05,-1.7599e-05,-132.23,0.0059323
19144,1.0588,1.0909,0,0.0004048,4045.2,0.00026433,1670.9,4.2066e-05,0.95592,-0.0003496,-2941.9,0.0029007
19145,1.4273,1.0909,0,0.00046874,4684.2,0.00024773,1155.4,9.3741e-05,-1.5664,-0.00043826,-3998.8,0.019215
19146,1.3352,1,0,0.00042775,4274.6,0.00023747,1203.8,7.7278e-05,0.12142,-0.00039436,-3543.6,0.013998
19147,1.3352,1.0909,0.05,1.6124e-05,161.13,1.2381e-05,93.029,1.4311e-11,0.00016958,-1.2381e-05,-93.029,0.014647
19148,1.6116,1.0909,0,0.00047746,4771.3,0.00022375,811.04,0.00011541,-2.9476,-0.00045847,-4314.9,0.028141
19149,1.5195,1,0,0.00043892,4386.2,0.00021462,858.52,9.9943e-05,-3.1494,-0.00041797,-3894.5,0.022878
19150,1.5195,1.0909,0.05,1.3021e-05,130.12,9.9982e-06,75.123,1.8498e-11,0.0002094,-9.9982e-06,-75.123,0.023514
19151,1.7959,1.0909,0,0.00048964,4893,0.00020799,563.76,0.00013264,-2.4246,-0.00047762,-4587.7,0.037337
19152,1.7037,1,0,0.00045668,4563.6,0.00020119,615.32,0.000119,-2.229,-0.0004431,-4225.6,0.032008
19153,1.7037,1.0909,0.05,1.0109e-05,101.02,7.7622e-06,58.322,2.1784e-11,0.00023309,-7.7622e-06,-58.322,0.032602
19154,1.9801,1.0909,0,0.00050135,5010,0.00019743,385.79,0.00014576,-2.3962,-0.0004937,-4807.1,0.046831
19155,1.888,1,0,0.00047469,4743.7,0.00019303,440.19,0.00013415,-2.2047,-0.00046569,-4509.2,0.041408
19156,1.888,1.0909,0.05,7.8036e-06,77.982,5.9922e-06,45.023,2.6074e-11,0.00025258,-5.9922e-06,-45.023,0.041961
19157,2.1644,1.0909,0,0.00051102,5106.7,0.00019004,256.72,0.00015556,-2.4059,-0.0005062,-4974.6,0.056645
19158,2.0723,1,0,0.00049032,4899.8,0.00018772,311.97,0.00014594,-2.0214,-0.00048429,-4737.3,0.051104
19159,2.0723,1.0909,0.05,6.0789e-06,60.747,4.6678e-06,35.072,2.8843e-11,0.0002848,-4.6678e-06,-35.072,0.051624
19160,2.3487,1.0909,0,0.00051815,5177.9,0.00018455,161.55,0.0001627,-2.67,-0.00051525,-5096.5,0.066796
19161,2.2565,1,0,0.00050261,5022.6,0.00018386,215.58,0.0001549,-2.0037,-0.00049862,-4912.3,0.061119
19162,2.2565,1.0909,0.05,4.7957e-06,47.924,3.6825e-06,27.669,3.0675e-11,0.00037883,-3.6825e-06,-27.669,0.061611
19163,2.5329,1.0909,0,0.00052278,5224.2,0.00018022,90.404,0.00016773,-3.4101,-0.00052124,-5180.1,0.077292
19164,2.4408,1,0,0.00051151,5111.6,0.00018067,141.4,0.00016157,-2.1359,-0.00050899,-5040.5,0.071465
19165,2.4408,1.0909,0.05,3.8296e-06,38.269,2.9406e-06,22.095,3.1256e-11,0.00032657,-2.9407e-06,-22.095,0.071939
19166,2.7172,1.0909,0,0.00052521,5248.5,0.00017678,37.927,0.00017094,-5.9057,-0.00052466,-5232.4,0.088141
19167,2.6251,1,0,0.00051739,5170.3,0.00017782,83.452,0.00016637,-2.5865,-0.00051596,-5129.4,0.082155
19168,2.6251,1.0909,0.05,3.0917e-06,30.896,2.374e-06,17.838,3.3011e-11,0.00037243,-2.374e-06,-17.838,0.082615
19169,2.9015,1.0909,0,0.00052581,5254.5,0.00017518,8.6446,0.0001715,-19.022,-0.00052599,-5259.6,0.099346
19170,2.8093,1,0,0.00052071,5203.5,0.00017525,38.555,0.00016958,-4.064,-0.00052011,-5186.2,0.093194
19171,2.8093,1.0909,0.05,2.525e-06,25.233,1.9389e-06,14.568,3.9193e-11,0.00027753,-1.9389e-06,-14.568,0.093645
19172,3.0857,1.0909,0,0.00052494,5245.7,0.00017571,2.6588,0.00016927,-45.756,-0.00052565,-5267.1,0.11091
19173,2.9936,1,0,0.00052196,5216,0.00017364,9.5909,0.00017077,-12.01,-0.000522,-5217.2,0.10459
19174,2.9936,1.0909,0.05,2.0925e-06,20.911,1.6068e-06,12.073,3.204e-11,0.00026617,-1.6068e-06,-12.073,0.10503
19175,3.27,1.0909,0,0.00052289,5225.3,0.00017609,1.3044,0.00016668,-69.445,-0.00052402,-5259.1,0.12283
19176,3.1779,1,0,0.00052157,5212.1,0.00017402,2.5066,0.00016914,-34.145,-0.0005221,-5227.8,0.11633
19177,3.1779,1.0909,0.05,1.7684e-06,17.672,1.3579e-06,10.203,2.9961e-11,0.00031151,-1.358e-06,-10.203,0.11677
19178,3.4543,1.0909,0,0.00051996,5196,0.00017598,0.77329,0.0001642,-87.741,-0.00052138,-5238.9,0.1351
19179,3.3621,1,0,0.00051989,5195.3,0.00017441,1.1542,0.00016685,-55.627,-0.0005208,-5222.4,0.12843
19180,3.3621,1.0909,0.05,1.5327e-06,15.316,1.1769e-06,8.8429,2.6719e-11,0.00022679,-1.1769e-06,-8.8429,0.12887
19181,3.6385,1.0909,0,0.00051635,5159.9,0.00017543,0.5051,0.00016189,-101.2,-0.00051799,-5209.5,0.14773
19182,3.5464,1,0,0.00051724,5168.8,0.00017433,0.66913,0.00016457,-72.615,-0.00051842,-5204.4,0.14089
19183,3.5464,1.0909,0.05,1.3678e-06,13.669,1.0503e-06,7.8916,2.2353e-11,0.00019643,-1.0503e-06,-7.8916,0.14133
19184,3.8228,1.0909,0,0.00051223,5118.8,0.00017451,0.35025,0.00015975,-110.57,-0.00051402,-5173,0.16071
19185,3.7307,1,0,0.00051384,5134.8,0.00017381,0.43432,0.0001624,-85.339,-0.00051523,-5176.7,0.15369
19186,3.7307,1.0909,0.05,1.2576e-06,12.567,9.6565e-07,7.2556,1.7627e-11,0.00016342,-9.6566e-07,-7.2555,0.15413
19187,4.0071,1.0909,0,0.00050774,5073.9,0.00017332,0.25314,0.00015777,-116.54,-0.00050962,-5131.1,0.17404
19188,3.9149,1,0,0.00050988,5095.3,0.00017294,0.30176,0.00016034,-94.373,-0.00051141,-5141.6,0.16685
19189,3.9149,1.0909,0.05,1.1871e-06,11.863,9.1157e-07,6.8492,1.3267e-11,0.00013112,-9.1157e-07,-6.8491,0.16729
19190,4.1913,1.0909,0,0.00050299,5026.4,0.0001719,0.18869,0.00015594,-119.71,-0.00050491,-5085.1,0.18772
19191,4.0992,1,0,0.00050551,5051.6,0.00017178,0.21957,0.0001584,-100.29,-0.00050714,-5100.9,0.18035
19192,4.0992,1.0909,0.05,1.1439e-06,11.431,8.7836e-07,6.5997,4.9679e-12,0.00010362,-8.7836e-07,-6.5996,0.1808
19193,4.3756,1.0909,0,0.00049803,4976.9,0.0001703,0.14411,0.00015423,-120.6,-0.00049997,-5036,0.20174
19194,4.2835,1,0,0.00050084,5004.9,0.0001704,0.16526,0.00015658,-103.63,-0.00050251,-5055.8,0.1942
19195,4.2835,1.0909,0.05,1.118e-06,11.172,8.585e-07,6.4505,5.2591e-12,8.1877e-05,-8.585e-07,-6.4504,0.19465
19196,4.5599,1.0909,0,0.00049295,4926.1,0.00016857,0.11225,0.00015263,-119.67,-0.00049487,-4984.8,0.2161
19197,4.4677,1,0,0.00049594,4956,0.00016884,0.12766,0.00015487,-104.85,-0.00049764,-5007.5,0.20839
19198,4.4677,1.0909,0.05,1.1026e-06,11.018,8.4664e-07,6.3614,3.4558e-12,6.4623e-05,-8.4663e-07,-6.3612,0.20884
19199,4.7441,1.0909,0,0.00048777,4874.3,0.00016675,0.088886,0.00015112,-117.31,-0.00048966,-4931.9,0.23079
19200,4.652,1,0,0.00049089,4905.6,0.00016715,0.10067,0.00015324,-104.37,-0.00049258,-4956.9,0.22292
19201,4.652,1.0909,0.05,1.0929e-06,10.921,8.3921e-07,6.3055,-4.7718e-12,5.2501e-05,-8.392e-07,-6.3054,0.22336
19202,4.9284,1.0909,0,0.00048252,4821.9,0.00016484,0.071388,0.00014968,-113.84,-0.00048436,-4877.8,0.24582
19203,4.8363,1,0,0.00048574,4854,0.00016535,0.080752,0.00015169,-102.53,-0.0004874,-4904.4,0.23778
19204,4.8363,1.0909,0.05,1.0861e-06,10.854,8.34e-07,6.2664,-3.5775e-12,4.2643e-05,-8.3399e-07,-6.2662,0.23823
19205,5.1127,1.0909,0,0.00047724,4769.1,0.00016289,0.058047,0.0001483,-109.54,-0.00047901,-4822.9,0.26118
19206,5.0205,1,0,0.0004805,4801.7,0.00016348,0.065701,0.00015021,-99.663,-0.00048212,-4850.7,0.25297
19207,5.0205,1.0909,0.05,1.0805e-06,10.798,8.2971e-07,6.2342,-1.1314e-12,3.6306e-05,-8.297e-07,-6.234,0.25342
19208,5.2969,1.0909,0,0.00047193,4716,0.0001609,0.04772,0.00014696,-104.65,-0.00047362,-4767.5,0.27686
19209,5.2048,1,0,0.00047521,4748.8,0.00016156,0.054111,0.00014877,-96.007,-0.00047677,-4796.1,0.26849
19210,5.2048,1.0909,0.05,1.0752e-06,10.745,8.2562e-07,6.2035,-4.139e-12,3.0426e-05,-8.2561e-07,-6.2033,0.26894
19211,5.4812,1.0909,0,0.0004666,4662.8,0.00015888,0.039622,0.00014565,-99.361,-0.00046821,-4711.7,0.29287
19212,5.3891,1,0,0.00046989,4695.7,0.00015959,0.045043,0.00014737,-91.785,-0.00047138,-4740.9,0.28434
19213,5.3891,1.0909,0.05,1.0697e-06,10.689,8.2138e-07,6.1716,-2.8749e-12,2.6937e-05,-8.2137e-07,-6.1714,0.28479
19214,5.6655,1.0909,0,0.00046127,4609.5,0.00015685,0.0332,0.00014435,-93.827,-0.00046279,-4655.7,0.30919
19215,5.5733,1,0,0.00046455,4642.3,0.0001576,0.03785,0.000146,-87.175,-0.00046597,-4685.2,0.3005
19216,5.5733,1.0909,0.05,1.0638e-06,10.63,8.1684e-07,6.1375,-3.4917e-12,2.3812e-05,-8.1683e-07,-6.1373,0.30095
19217,5.8497,1.0909,0,0.00045593,4556.2,0.00015481,0.028057,0.00014307,-88.175,-0.00045737,-4599.6,0.32582
19218,5.7576,1,0,0.0004592,4588.8,0.0001556,0.032078,0.00014464,-82.322,-0.00046054,-4629.4,0.31698
19219,5.7576,1.0909,0.05,1.0574e-06,10.567,8.1198e-07,6.101,-4.2364e-12,1.8493e-05,-8.1197e-07,-6.1007,0.31743
19220,6.034,1.0909,0,0.0004506,4502.9,0.00015277,0.023901,0.00014178,-82.505,-0.00045195,-4543.6,0.34277
19221,5.9419,1,0,0.00045384,4535.2,0.00015358,0.027399,0.00014329,-77.344,-0.0004551,-4573.4,0.33378
19222,5.9419,1.0909,0.05,1.0507e-06,10.5,8.0683e-07,6.0623,-4.6725e-12,1.8055e-05,-8.0682e-07,-6.062,0.33422
19223,6.2183,1.0909,0,0.00044527,4449.6,0.00015073,0.020518,0.0001405,-76.896,-0.00044653,-4487.5,0.36002
19224,6.1261,1,0,0.00044848,4481.7,0.00015157,0.023572,0.00014194,-72.334,-0.00044966,-4517.4,0.35088
19225,6.1261,1.0909,0.05,1.0437e-06,10.43,8.0145e-07,6.0219,-5.1196e-12,1.3934e-05,-8.0144e-07,-6.0217,0.35132
19226,6.4025,1.0909,0,0.00043994,4396.4,0.00014871,0.017742,0.0001392,-71.408,-0.00044111,-4431.6,0.37758
19227,6.3104,1,0,0.00044312,4428.2,0.00014956,0.020416,0.00014059,-67.366,-0.00044423,-4461.4,0.36829
19228,6.3104,1.0909,0.05,1.0365e-06,10.358,7.9592e-07,5.9803,-5.4552e-12,1.0666e-05,-7.9591e-07,-5.9802,0.36873
19229,6.5868,1.0909,0,0.00043462,4343.2,0.00014669,0.015452,0.00013789,-66.086,-0.00043571,-4375.9,0.39544
19230,6.4947,1,0,0.00043777,4374.7,0.00014755,0.017794,0.00013923,-62.496,-0.0004388,-4405.6,0.386
19231,6.4947,1.0909,0.05,1.0292e-06,10.285,7.9031e-07,5.9381,-5.5485e-12,9.0869e-06,-7.903e-07,-5.938,0.38644
19232,6.7711,1.0909,0,0.00042931,4290.1,0.00014468,0.013549,0.00013657,-60.962,-0.00043031,-4320.3,0.41359
19233,6.6789,1,0,0.00043242,4321.3,0.00014555,0.015602,0.00013786,-57.766,-0.00043338,-4349.8,0.40401
19234,6.6789,1.0909,0.05,1.0219e-06,10.212,7.8467e-07,5.8958,-5.8292e-12,1.1539e-05,-7.8466e-07,-5.8955,0.40444
19235,6.9553,1.0909,0,0.000424,4237.1,0.00014269,0.01196,0.00013523,-56.057,-0.00042493,-4264.8,0.43203
19236,6.8632,1,0,0.00042709,4267.9,0.00014357,0.013758,0.00013648,-53.206,-0.00042797,-4294.3,0.42231
19237,6.8632,1.0909,0.05,1.0145e-06,10.138,7.7905e-07,5.8535,-4.259e-12,9.1933e-06,-7.7904e-07,-5.8533,0.42274
19238,7.1396,1.0909,0,0.0004187,4184.2,0.00014071,0.010627,0.00013387,-51.387,-0.00041955,-4209.6,0.45077
19239,7.0475,1,0,0.00042176,4214.7,0.00014159,0.012198,0.00013509,-48.837,-0.00042257,-4238.9,0.4409
19240,7.0475,1.0909,0.05,1.0073e-06,10.066,7.735e-07,5.8118,-4.2163e-12,9.8451e-06,-7.7348e-07,-5.8116,0.44133
19241,7.3239,1.0909,0,0.00041341,4131.3,0.00013875,0.0095043,0.0001325,-46.958,-0.00041419,-4154.6,0.46978
19242,7.2317,1,0,0.00041644,4161.5,0.00013963,0.010873,0.00013368,-44.673,-0.00041718,-4183.6,0.45978
19243,7.2317,1.0909,0.05,1.0002e-06,9.995,7.6803e-07,5.7707,-6.215e-12,7.9959e-06,-7.6801e-07,-5.7705,0.46021
19244,7.5081,1.0909,0,0.00040813,4078.5,0.0001368,0.0085546,0.0001311,-42.772,-0.00040884,-4099.7,0.48908
19245,7.416,1,0,0.00041113,4108.4,0.00013768,0.0097422,0.00013226,-40.721,-0.0004118,-4128.6,0.47894
19246,7.416,1.0909,0.05,9.9322e-07,9.9254,7.6268e-07,5.7305,-4.611e-12,8.181e-06,-7.6267e-07,-5.7303,0.47937
19247,7.6924,1.0909,0,0.00040286,4025.8,0.00013486,0.0077495,0.00012969,-38.829,-0.00040351,-4045.1,0.50866
19248,7.6003,1,0,0.00040583,4055.5,0.00013575,0.0087742,0.00013083,-36.984,-0.00040644,-4073.8,0.49839
19249,7.6003,1.0909,0.05,9.8642e-07,9.8574,7.5746e-07,5.6913,-6.4861e-12,7.6658e-06,-7.5744e-07,-5.6911,0.49881
19250,7.8767,1.0909,0,0.0003976,3973.2,0.00013294,0.0070662,0.00012827,-35.123,-0.00039818,-3990.7,0.52851
19251,7.7845,1,0,0.00040053,4002.6,0.00013383,0.0079443,0.00012938,-33.461,-0.00040109,-4019.2,0.5181
19252,7.7845,1.0909,0.05,9.798e-07,9.7913,7.5237e-07,5.6531,-4.7623e-12,6.9228e-06,-7.5236e-07,-5.6529,0.51852
19253,8.0609,1.0909,0,0.00039234,3920.7,0.00013104,0.0064867,0.00012683,-31.647,-0.00039287,-3936.4,0.54863
19254,7.9688,1,0,0.00039526,3949.8,0.00013193,0.0072317,0.00012791,-30.147,-0.00039576,-3964.8,0.53809
19255,7.9688,1.0909,0.05,9.7337e-07,9.727,7.4743e-07,5.616,-6.6793e-12,6.6372e-06,-7.4742e-07,-5.6158,0.53851
19256,8.2452,1.0909,0,0.0003871,3868.3,0.00012915,0.0059975,0.00012537,-28.394,-0.00038757,-3882.4,0.56902
19257,8.1531,1,0,0.00038999,3897.2,0.00013003,0.0066213,0.00012643,-27.039,-0.00039044,-3910.6,0.55835
19258,8.1531,1.0909,0.05,9.6712e-07,9.6646,7.4264e-07,5.5799,-1.2775e-12,5.6585e-06,-7.4262e-07,-5.5798,0.55876
19259,8.4295,1.0909,0,0.00038187,3816,0.00012727,0.0055873,0.00012389,-25.353,-0.00038229,-3828.6,0.58967
19260,8.3373,1,0,0.00038473,3844.7,0.00012816,0.006102,0.00012494,-24.127,-0.00038514,-3856.7,0.57887
19261,8.3373,1.0909,0.05,9.6106e-07,9.604,7.3798e-07,5.545,-6.803e-12,5.4764e-06,-7.3797e-07,-5.5448,0.57928
19262,8.6137,1.0909,0,0.00037664,3763.8,0.00012541,0.0052476,0.00012241,-22.514,-0.00037702,-3775,0.61058
19263,8.5216,1,0,0.00037949,3792.3,0.00012629,0.0056626,0.00012344,-21.404,-0.00037985,-3802.9,0.59966
19264,8.5216,1.0909,0.05,9.5518e-07,9.5452,7.3347e-07,5.511,-6.8269e-12,5.0808e-06,-7.3346e-07,-5.5109,0.60006
19265,8.798,1.0909,0,0.00037143,3711.8,0.00012356,0.0049743,0.00012091,-19.867,-0.00037177,-3721.7,0.63174
19266,8.7059,1,0,0.00037426,3740,0.00012444,0.0052988,0.00012193,-18.86,-0.00037457,-3749.4,0.6207
19267,8.7059,1.0909,0.05,9.4948e-07,9.4882,7.2909e-07,5.4781,-5.0756e-12,4.7318e-06,-7.2907e-07,-5.4779,0.6211
19268,8.9823,1.0909,0,0.00036624,3659.8,0.00012172,0.0047656,0.0001194,-17.4,-0.00036653,-3668.5,0.65316
19269,8.8901,1,0,0.00036904,3687.8,0.0001226,0.0050065,0.0001204,-16.487,-0.00036931,-3696,0.642
19270,8.8901,1.0909,0.05,9.4394e-07,9.4329,7.2483e-07,5.4461,-4.2104e-12,4.6761e-06,-7.2482e-07,-5.446,0.64239
19271,9.1665,1.0909,0,0.00036105,3608,0.00011989,0.0046213,0.00011788,-15.104,-0.0003613,-3615.5,0.67482
19272,9.0744,1,0,0.00036383,3635.8,0.00012077,0.004789,0.00011887,-14.275,-0.00036407,-3642.9,0.66355
19273,9.0744,1.0909,0.05,9.3855e-07,9.3791,7.207e-07,5.4151,-4.2271e-12,4.0521e-06,-7.2069e-07,-5.4149,0.66393
19274,9.3508,1.0909,0,0.00035588,3556.3,0.00011808,0.0045467,0.00011635,-12.966,-0.00035609,-3562.8,0.69674
19275,9.2587,1,0,0.00035864,3583.9,0.00011896,0.0046475,0.00011733,-12.214,-0.00035884,-3590,0.68534
19276,9.2587,1.0909,0.05,9.3332e-07,9.3268,7.1668e-07,5.3849,-6.0915e-12,4.0421e-06,-7.1667e-07,-5.3847,0.68572
19277,9.5351,1.0909,0,0.00035072,3504.7,0.00011628,0.0045537,0.00011482,-10.978,-0.0003509,-3510.2,0.71889
19278,9.4429,1,0,0.00035346,3532.2,0.00011715,0.004598,0.00011578,-10.294,-0.00035363,-3537.3,0.70738
19279,9.4429,1.0909,0.05,9.2823e-07,9.2759,7.1277e-07,5.3555,-5.2291e-12,4.0754e-06,-7.1276e-07,-5.3553,0.70775
19280,9.7193,1.0909,0,0.00034557,3453.3,0.00011449,0.0046665,0.00011327,-9.1288,-0.00034572,-3457.9,0.74128
19281,9.6272,1,0,0.0003483,3480.6,0.00011536,0.0046606,0.00011423,-8.5078,-0.00034844,-3484.8,0.72965
19282,9.6272,1.0909,0.05,9.2326e-07,9.2263,7.0896e-07,5.3269,-5.2414e-12,4.099e-06,-7.0895e-07,-5.3267,0.73002
19283,9.9036,1.0909,0,0.00034044,3402,0.00011271,0.0049237,0.00011172,-7.4091,-0.00034056,-3405.7,0.7639
19284,9.8115,1,0,0.00034315,3429.1,0.00011358,0.0048927,0.00011267,-6.845,-0.00034326,-3432.5,0.75217
19285,9.8115,1.0909,0.05,9.1842e-07,9.1779,7.0524e-07,5.2989,-6.1668e-12,3.5773e-06,-7.0523e-07,-5.2988,0.75253
19286,10.088,1.0909,0,0.00033532,3350.9,0.00011094,0.0054036,0.00011017,-5.8101,-0.00033542,-3353.8,0.78676
19287,9.9957,1,0,0.00033801,3377.8,0.00011181,0.0053753,0.0001111,-5.2978,-0.0003381,-3380.4,0.77491
19288,9.9957,1.0909,0.05,9.1369e-07,9.1306,7.0161e-07,5.2716,-5.3035e-12,3.0544e-06,-7.016e-07,-5.2715,0.77527
19289,10.272,1.0909,0,0.00033021,3299.9,0.00010919,0.0062939,0.00010861,-4.3231,-0.00033029,-3302,0.80984
19290,10.18,1,0,0.00033289,3326.6,0.00011005,0.0063404,0.00010953,-3.8582,-0.00033296,-3328.6,0.79789
19291,10.18,1.0909,0.05,9.0907e-07,9.0844,6.9806e-07,5.245,-3.4957e-12,3.8381e-06,-6.9805e-07,-5.2448,0.79824
19292,10.456,1.0909,0,0.00032513,3249,0.00010744,0.0080519,0.00010705,-2.9406,-0.00032518,-3250.5,0.83315
19293,10.364,1,0,0.00032779,3275.6,0.0001083,0.0084513,0.00010796,-2.519,-0.00032783,-3276.9,0.82109
19294,10.364,1.0909,0.05,9.0454e-07,9.0392,6.9458e-07,5.2189,-4.4248e-12,3.212e-06,-6.9457e-07,-5.2187,0.82144
19295,10.641,1.0909,0,0.00032005,3198.3,0.0001057,0.01254,0.00010548,-1.6566,-0.00032008,-3199.2,0.85668
19296,10.549,1,0,0.0003227,3224.8,0.00010656,0.014655,0.00010638,-1.2763,-0.00032273,-3225.4,0.84451
19297,10.549,1.0909,0.05,9.0011e-07,8.9949,6.9118e-07,5.1933,-4.4507e-12,2.8613e-06,-6.9117e-07,-5.1931,0.84486
19298,10.825,1.0909,0,0.000315,3147.8,0.00010398,0.03822,0.00010391,-0.48222,-0.000315,-3148,0.88042
19299,10.733,1,0,0.00031763,3174.1,0.00010484,0.089528,0.0001048,-0.18726,-0.00031763,-3174.2,0.86815
19300,10.733,1.0909,0.05,8.9574e-07,8.9512,6.8782e-07,5.1681,-3.5505e-12,2.7646e-06,-6.8781e-07,-5.1679,0.86849
19301,11.009,1.0909,0,0.00030996,3097.4,0.00010235,0.69796,0.00010225,-0.02357,-0.00030995,-3097.1,0.90438
19302,10.917,1,0,0.00031258,3123.6,0.00010324,1.0027,0.0001031,-0.015197,-0.00031256,-3123.1,0.89201
19303,10.917,1.0909,0.05,8.9146e-07,8.9085,6.8454e-07,5.1434,-4.4806e-12,2.7604e-06,-6.8453e-07,-5.1433,0.89235
19304,11.193,1.0909,0,0.00030493,3047.2,0.00010077,1.726,0.00010054,-0.0085758,-0.0003049,-3046.4,0.92855
19305,11.101,1,0,0.00030754,3073.3,0.00010166,2.0071,0.00010139,-0.0070121,-0.00030751,-3072.3,0.91608
19306,11.101,1.0909,0.05,8.8726e-07,8.8665,6.8131e-07,5.1192,-3.5844e-12,2.7862e-06,-6.813e-07,-5.119,0.91641
19307,11.378,1.0909,0,0.00029992,2997.2,9.9201e-05,2.6963,9.8841e-05,-0.0050037,-0.00029988,-2995.8,0.95292
19308,11.286,1,0,0.00030252,3023.1,0.00010008,2.9503,9.9685e-05,-0.0044842,-0.00030247,-3021.6,0.94036
19309,11.286,1.0909,0.05,8.8313e-07,8.8252,6.7814e-07,5.0953,-3.5966e-12,2.2518e-06,-6.7813e-07,-5.0952,0.94068
19310,11.562,1.0909,0,0.00029493,2947.3,9.763e-05,3.6049,9.7149e-05,-0.0034513,-0.00029487,-2945.5,0.9775
19311,11.47,1,0,0.00029752,2973.1,9.8501e-05,3.8332,9.799e-05,-0.0033308,-0.00029745,-2971.2,0.96484
19312,11.47,1.0909,0.05,8.7905e-07,8.7844,6.7501e-07,5.0718,-4.5172e-12,1.9052e-06,-6.75e-07,-5.0716,0.96516
19313,11.746,1.0909,0,0.00028996,2897.6,9.6059e-05,4.456,9.5466e-05,-0.0025676,-0.00028988,-2895.4,1.0023
19314,11.654,1,0,0.00029253,2923.3,9.6924e-05,4.6604,9.6304e-05,-0.0026585,-0.00029245,-2921,0.98952
19315,11.654,1.0909,0.05,8.7502e-07,8.7441,6.7191e-07,5.0485,-3.6149e-12,1.9187e-06,-6.719e-07,-5.0484,0.98984
19316,11.931,1.0909,0,0.00028501,2848.1,9.4491e-05,5.254,9.3791e-05,-0.0020091,-0.00028492,-2845.5,1.0273
19317,11.838,1,0,0.00028756,2873.6,9.535e-05,5.4362,9.4626e-05,-0.0022003,-0.00028747,-2870.9,1.0144
19318,11.838,1.0909,0.05,8.7105e-07,8.7044,6.6886e-07,5.0256,-3.6269e-12,2.0193e-06,-6.6885e-07,-5.0255,1.0147
19319,12.115,1.0909,0,0.00028007,2798.7,9.2924e-05,6.0034,9.2124e-05,-0.001647,-0.00027996,-2795.7,1.0524
19320,12.023,1,0,0.00028261,2824.2,9.3777e-05,6.1648,9.2956e-05,-0.0019171,-0.00028251,-2821.1,1.0395
19321,12.023,1.0909,0.05,8.6713e-07,8.6653,6.6585e-07,5.003,-3.6367e-12,2.2464e-06,-6.6585e-07,-5.0029,1.0398
19322,12.299,1.0909,0,0.00027515,2749.6,9.1359e-05,6.7086,9.0466e-05,-0.0014078,-0.00027503,-2746.2,1.0778
19323,12.207,1,0,0.00027768,2774.9,9.2206e-05,6.8505,9.1294e-05,-0.0017244,-0.00027756,-2771.4,1.0647
19324,12.207,1.0909,0.05,8.6326e-07,8.6266,6.6288e-07,4.9807,-3.6456e-12,2.4294e-06,-6.6287e-07,-4.9805,1.065
19325,12.483,1.0909,0,0.00027024,2700.6,8.9796e-05,7.3735,8.8815e-05,-0.0012328,-0.00027012,-2696.9,1.1033
19326,12.391,1,0,0.00027276,2725.8,9.0639e-05,7.4969,8.9641e-05,-0.001618,-0.00027264,-2722,1.0902
19327,12.391,1.0909,0.05,8.5942e-07,8.5883,6.5993e-07,4.9585,-3.6541e-12,1.2642e-06,-6.5993e-07,-4.9584,1.0905
19328,12.668,1.0909,0,0.00026536,2651.8,8.8237e-05,8.0021,8.7172e-05,-0.0010682,-0.00026522,-2647.8,1.129
19329,12.575,1,0,0.00026787,2676.8,8.9074e-05,8.108,8.7995e-05,-0.0015121,-0.00026773,-2672.8,1.1158
19330,12.575,1.0909,0.05,8.5562e-07,8.5503,6.5701e-07,4.9366,-3.6638e-12,7.1922e-07,-6.57e-07,-4.9364,1.1161
19331,12.852,1.0909,0,0.00026049,2603.1,8.6681e-05,8.5979,8.5537e-05,-0.00093144,-0.00026035,-2598.8,1.1549
19332,12.76,1,0,0.00026299,2628.1,8.7513e-05,8.6872,8.6356e-05,-0.001397,-0.00026284,-2623.7,1.1417
19333,12.76,1.0909,0.05,8.5186e-07,8.5127,6.5413e-07,4.9149,-2.76e-12,7.8715e-07,-6.5412e-07,-4.9148,1.142
19334,13.036,1.0909,0,0.00025565,2554.7,8.5129e-05,9.1643,8.3909e-05,-0.00083394,-0.00025549,-2550.1,1.181
19335,12.944,1,0,0.00025813,2579.5,8.5955e-05,9.2376,8.4726e-05,-0.0013296,-0.00025797,-2574.9,1.1677
19336,12.944,1.0909,0.05,8.4814e-07,8.4756,6.5127e-07,4.8934,-3.6737e-12,8.9657e-07,-6.5127e-07,-4.8933,1.1679
19337,13.22,1.0909,0,0.00025082,2506.5,8.3581e-05,9.7044,8.2289e-05,-0.00077019,-0.00025065,-2501.6,1.2073
19338,13.128,1,0,0.00025329,2531.2,8.4402e-05,9.7624,8.3103e-05,-0.0012818,-0.00025313,-2526.3,1.1938
19339,13.128,1.0909,0.05,8.4445e-07,8.4387,6.4844e-07,4.8722,-3.6833e-12,1.5273e-06,-6.4843e-07,-4.872,1.1941
19340,13.405,1.0909,0,0.00024601,2458.4,8.2036e-05,10.221,8.0676e-05,-0.00071568,-0.00024583,-2453.3,1.2337
19341,13.313,1,0,0.00024847,2483,8.2853e-05,10.264,8.1487e-05,-0.0012705,-0.0002483,-2477.9,1.2202
19342,13.313,1.0909,0.05,8.4079e-07,8.4021,6.4563e-07,4.851,-3.6859e-12,1.2162e-06,-6.4562e-07,-4.8509,1.2205
19343,13.589,1.0909,0,0.00024122,2410.5,8.0497e-05,10.718,7.907e-05,-0.00063801,-0.00024103,-2405.1,1.2603
19344,13.497,1,0,0.00024367,2435,8.1309e-05,10.746,7.9878e-05,-0.0012337,-0.00024349,-2429.6,1.2467
19345,13.497,1.0909,0.05,8.3715e-07,8.3657,6.4283e-07,4.83,-2.7634e-12,7.815e-07,-6.4282e-07,-4.8299,1.247
19346,13.773,1.0909,0,0.00023645,2362.8,7.8962e-05,11.198,7.7472e-05,-0.00056462,-0.00023625,-2357.2,1.2871
19347,13.681,1,0,0.00023889,2387.2,7.9769e-05,11.211,7.8277e-05,-0.0011711,-0.0002387,-2381.6,1.2734
19348,13.681,1.0909,0.05,8.3355e-07,8.3297,6.4006e-07,4.8092,-3.6918e-12,-2.532e-07,-6.4006e-07,-4.8091,1.2736
19349,13.957,1.0909,0,0.00023169,2315.3,7.7433e-05,11.662,7.5881e-05,-0.00051235,-0.00023149,-2309.5,1.314
19350,13.865,1,0,0.00023412,2339.6,7.8235e-05,11.661,7.6683e-05,-0.0011399,-0.00023392,-2333.8,1.3002
19351,13.865,1.0909,0.05,8.2997e-07,8.294,6.3732e-07,4.7886,-3.696e-12,-4.9066e-07,-6.3731e-07,-4.7885,1.3005
19352,14.142,1.0909,0,0.00022696,2268.1,7.5909e-05,12.114,7.4296e-05,-0.00047811,-0.00022675,-2262,1.341
19353,14.05,1,0,0.00022938,2292.2,7.6706e-05,12.098,7.5096e-05,-0.0011168,-0.00022917,-2286.2,1.3272
19354,14.05,1.0909,0.05,8.2643e-07,8.2585,6.3459e-07,4.7681,-3.6952e-12,-1.7445e-07,-6.3459e-07,-4.768,1.3275
19355,14.326,1.0909,0,0.00022225,2220.9,7.439e-05,12.556,7.2719e-05,-0.00044374,-0.00022203,-2214.6,1.3683
19356,14.234,1,0,0.00022466,2245,7.5183e-05,12.525,7.3515e-05,-0.0011192,-0.00022444,-2238.7,1.3544
19357,14.234,1.0909,0.05,8.229e-07,8.2233,6.3189e-07,4.7478,-2.79e-12,-4.9951e-07,-6.3188e-07,-4.7477,1.3546
19358,14.51,1.0909,0,0.00021755,2174,7.2878e-05,12.991,7.1148e-05,-0.00038281,-0.00021733,-2167.5,1.3956
19359,14.418,1,0,0.00021995,2198,7.3665e-05,12.945,7.1942e-05,-0.0010947,-0.00021973,-2191.5,1.3817
19360,14.418,1.0909,0.05,8.1938e-07,8.1882,6.2919e-07,4.7275,-1.8779e-12,2.4866e-07,-6.2918e-07,-4.7274,1.3819
19361,14.695,1.0909,0,0.00021288,2127.3,7.1371e-05,13.421,6.9585e-05,-0.00031995,-0.00021265,-2120.6,1.4232
19362,14.602,1,0,0.00021527,2151.2,7.2153e-05,13.359,7.0375e-05,-0.0010413,-0.00021504,-2144.5,1.4091
19363,14.602,1.0909,0.05,8.159e-07,8.1534,6.2652e-07,4.7074,-1.8737e-12,1.117e-06,-6.2651e-07,-4.7073,1.4094
19364,14.879,1.0909,0,0.00020823,2080.8,6.9871e-05,13.848,6.8028e-05,-0.0002724,-0.00020799,-2073.9,1.4508
19365,14.787,1,0,0.0002106,2104.6,7.0648e-05,13.769,6.8815e-05,-0.0010126,-0.00021036,-2097.6,1.4367
19366,14.787,1.0909,0.05,8.1245e-07,8.1189,6.2387e-07,4.6875,-3.6952e-12,3.0727e-06,-6.2386e-07,-4.6874,1.437
19367,15.063,1.0909,0,0.00020359,2034.5,6.8377e-05,14.274,6.6477e-05,-0.00023734,-0.00020335,-2027.3,1.4786
19368,14.971,1,0,0.00020596,2058.1,6.9149e-05,14.178,6.7262e-05,-0.00099013,-0.00020571,-2051,1.4645
19369,14.971,1.0909,0.05,8.0902e-07,8.0846,6.2123e-07,4.6677,-2.7716e-12,3.0311e-06,-6.2122e-07,-4.6676,1.4647
19370,15.247,1.0909,0,0.00019898,1988.4,6.689e-05,14.702,6.4933e-05,-0.00019906,-0.00019872,-1981,1.5066
19371,15.155,1,0,0.00020133,2011.9,6.7657e-05,14.587,6.5715e-05,-0.00098708,-0.00020108,-2004.6,1.4923
19372,15.155,1.0909,0.05,8.0561e-07,8.0505,6.1861e-07,4.648,-1.867e-12,5.4369e-06,-6.1861e-07,-4.6479,1.4926
19373,15.432,1.0909,0,0.00019438,1942.5,6.541e-05,15.134,6.3396e-05,-0.00013464,-0.00019412,-1934.9,1.5347
19374,15.339,1,0,0.00019673,1965.9,6.6172e-05,14.999,6.4175e-05,-0.00095847,-0.00019647,-1958.4,1.5204
19375,15.339,1.0909,0.05,8.0221e-07,8.0166,6.16e-07,4.6284,-3.6965e-12,4.1067e-06,-6.16e-07,-4.6283,1.5206
19376,15.616,1.0909,0,0.00018981,1896.8,6.3937e-05,15.572,6.1864e-05,-6.5102e-05,-0.00018954,-1889,1.5629
19377,15.524,1,0,0.00019214,1920.1,6.4693e-05,15.416,6.2641e-05,-0.00090245,-0.00019187,-1912.3,1.5485
19378,15.524,1.0909,0.05,7.9885e-07,7.983,6.1342e-07,4.609,-2.7846e-12,2.9287e-06,-6.1341e-07,-4.6089,1.5487
19379,15.8,1.0909,0,0.00018526,1851.3,6.2471e-05,16.018,6.034e-05,-8.1929e-06,-0.00018498,-1843.2,1.5912
19380,15.708,1,0,0.00018758,1874.5,6.3222e-05,15.84,6.1114e-05,-0.00086706,-0.0001873,-1866.5,1.5768
19381,15.708,1.0909,0.05,7.9551e-07,7.9496,6.1086e-07,4.5898,-1.873e-12,3.6016e-06,-6.1085e-07,-4.5897,1.577
19382,15.984,1.0909,0,0.00018072,1806,6.1013e-05,16.474,5.8821e-05,3.9302e-05,-0.00018044,-1797.7,1.6197
19383,15.892,1,0,0.00018303,1829.1,6.1759e-05,16.273,5.9593e-05,-0.00083682,-0.00018275,-1820.9,1.6052
19384,15.892,1.0909,0.05,7.922e-07,7.9165,6.0831e-07,4.5706,-3.2605e-12,4.6316e-06,-6.0831e-07,-4.5706,1.6054
19385,16.169,1.0909,0,0.00017621,1760.9,5.9563e-05,16.944,5.7308e-05,9.3041e-05,-0.00017592,-1752.4,1.6482
19386,16.077,1,0,0.00017851,1783.9,6.0303e-05,16.716,5.8078e-05,-0.00082077,-0.00017822,-1775.4,1.6337
19387,16.077,1.0909,0.05,7.8891e-07,7.8836,6.0579e-07,4.5517,-1.9004e-12,5.7817e-06,-6.0578e-07,-4.5516,1.6339
19388,16.353,1.0909,0,0.00017172,1716,5.8121e-05,17.428,5.5802e-05,0.00017261,-0.00017142,-1707.2,1.677
19389,16.261,1,0,0.00017401,1738.9,5.8855e-05,17.173,5.6569e-05,-0.00077951,-0.00017371,-1730.2,1.6624
19390,16.261,1.0909,0.05,7.8564e-07,7.851,6.0328e-07,4.5328,-2.3471e-12,6.5801e-06,-6.0327e-07,-4.5327,1.6626
19391,16.537,1.0909,0,0.00016725,1671.3,5.6688e-05,17.93,5.4301e-05,0.00025758,-0.00016694,-1662.3,1.7058
19392,16.445,1,0,0.00016952,1694.1,5.7415e-05,17.645,5.5066e-05,-0.00071375,-0.00016922,-1685.2,1.6911
19393,16.445,1.0909,0.05,7.824e-07,7.8186,6.0079e-07,4.5141,-1.9077e-12,6.2051e-06,-6.0079e-07,-4.514,1.6913
19394,16.721,1.0909,0,0.0001628,1626.9,5.5262e-05,18.453,5.2807e-05,0.000337,-0.00016248,-1617.5,1.7347
19395,16.629,1,0,0.00016506,1649.5,5.5983e-05,18.134,5.3569e-05,-0.00066391,-0.00016474,-1640.3,1.72
19396,16.629,1.0909,0.05,7.792e-07,7.7866,5.9833e-07,4.4956,-2.3584e-12,6.3556e-06,-5.9832e-07,-4.4956,1.7202
19397,16.906,1.0909,0,0.00015837,1582.6,5.3846e-05,18.998,5.1318e-05,0.00041188,-0.00015804,-1573,1.7637
19398,16.814,1,0,0.00016062,1605.1,5.456e-05,18.644,5.2078e-05,-0.00061328,-0.00016029,-1595.7,1.749
19399,16.814,1.0909,0.05,7.7602e-07,7.7549,5.9589e-07,4.4773,-1.9156e-12,4.4302e-06,-5.9589e-07,-4.4772,1.7492
19400,17.09,1.0909,0,0.00015396,1538.5,5.2439e-05,19.568,4.9834e-05,0.00049332,-0.00015362,-1528.7,1.7929
19401,16.998,1,0,0.0001562,1560.9,5.3145e-05,19.176,5.0593e-05,-0.00057687,-0.00015586,-1551.2,1.7781
19402,16.998,1.0909,0.05,7.7288e-07,7.7234,5.9348e-07,4.4592,-1.9131e-12,4.7742e-06,-5.9347e-07,-4.4591,1.7783
19403,17.274,1.0909,0,0.00014957,1494.7,5.1041e-05,20.167,4.8357e-05,0.00060189,-0.00014922,-1484.5,1.8221
19404,17.182,1,0,0.0001518,1516.9,5.1739e-05,19.732,4.9113e-05,-0.000514,-0.00015145,-1507,1.8073
19405,17.182,1.0909,0.05,7.6976e-07,7.6923,5.9108e-07,4.4412,-1.9101e-12,6.0842e-06,-5.9108e-07,-4.4411,1.8075
19406,17.459,1.0909,0,0.00014521,1451.1,4.9652e-05,20.797,4.6884e-05,0.00071974,-0.00014484,-1440.6,1.8515
19407,17.366,1,0,0.00014742,1473.2,5.0343e-05,20.317,4.7639e-05,-0.00042782,-0.00014706,-1462.9,1.8366
19408,17.366,1.0909,0.05,7.6669e-07,7.6616,5.8872e-07,4.4235,-2.3758e-12,4.8059e-06,-5.8872e-07,-4.4234,1.8368
19409,17.643,1.0909,0,0.00014086,1407.7,4.8274e-05,21.461,4.5417e-05,0.00083659,-0.00014048,-1396.8,1.8809
19410,17.551,1,0,0.00014306,1429.6,4.8956e-05,20.931,4.617e-05,-0.00035342,-0.0001427,-1419.1,1.866
19411,17.551,1.0909,0.05,7.6365e-07,7.6313,5.8639e-07,4.406,-1.9183e-12,5.8823e-06,-5.8639e-07,-4.4059,1.8662
19412,17.827,1.0909,0,0.00013654,1364.4,4.6905e-05,22.163,4.3956e-05,0.00095362,-0.00013615,-1353.2,1.9105
19413,17.735,1,0,0.00013873,1386.3,4.7579e-05,21.579,4.4707e-05,-0.00027374,-0.00013835,-1375.4,1.8955
19414,17.735,1.0909,0.05,7.6066e-07,7.6014,5.841e-07,4.3887,-1.931e-12,3.7025e-06,-5.8409e-07,-4.3886,1.8957
19415,18.011,1.0909,0,0.00013224,1321.5,4.5547e-05,22.906,4.2499e-05,0.0010835,-0.00013183,-1309.9,1.9401
19416,17.919,1,0,0.00013441,1343.2,4.6212e-05,22.263,4.3249e-05,-0.00019996,-0.00013402,-1331.9,1.9251
19417,17.919,1.0909,0.05,7.5772e-07,7.5719,5.8183e-07,4.3717,-1.4788e-12,4.2588e-06,-5.8183e-07,-4.3716,1.9253
19418,18.196,1.0909,0,0.00012796,1278.7,4.42e-05,23.693,4.1047e-05,0.0012425,-0.00012754,-1266.7,1.9698
19419,18.103,1,0,0.00013012,1300.3,4.4855e-05,22.986,4.1796e-05,-0.00010098,-0.00012971,-1288.6,1.9548
19420,18.103,1.0909,0.05,7.5481e-07,7.5429,5.796e-07,4.3549,-1.9142e-12,7.5326e-06,-5.796e-07,-4.3548,1.955
19421,18.38,1.0909,0,0.0001237,1236.2,4.2865e-05,24.529,3.96e-05,0.0014173,-0.00012326,-1223.7,1.9997
19422,18.288,1,0,0.00012585,1257.6,4.3509e-05,23.753,4.0347e-05,2.4442e-05,-0.00012543,-1245.6,1.9846
19423,18.288,1.0909,0.05,7.5196e-07,7.5144,5.7741e-07,4.3385,-1.5032e-12,1.0427e-05,-5.7741e-07,-4.3384,1.9847
19424,18.564,1.0909,0,0.00011946,1193.8,4.154e-05,25.418,3.8158e-05,0.0015997,-0.00011901,-1180.9,2.0296
19425,18.472,1,0,0.0001216,1215.1,4.2173e-05,24.565,3.8904e-05,0.00014899,-0.00012116,-1202.7,2.0144
19426,18.472,1.0909,0.05,7.4917e-07,7.4865,5.7527e-07,4.3224,-1.5029e-13,1.3388e-05,-5.7527e-07,-4.3223,2.0146
19427,18.748,1.0909,0,0.00011525,1151.7,4.0228e-05,26.364,3.672e-05,0.0017918,-0.00011478,-1138.3,2.0595
19428,18.656,1,0,0.00011737,1172.9,4.0849e-05,25.428,3.7465e-05,0.00028094,-0.00011692,-1160,2.0444
19429,18.656,1.0909,0.05,7.4644e-07,7.4592,5.7318e-07,4.3066,-6.0967e-13,1.0053e-05,-5.7317e-07,-4.3066,2.0445
19430,18.933,1.0909,0,0.00011106,1109.8,3.8928e-05,27.371,3.5286e-05,0.002008,-0.00011057,-1095.9,2.0896
19431,18.841,1,0,0.00011316,1130.8,3.9537e-05,26.345,3.6031e-05,0.00041931,-0.00011269,-1117.4,2.0744
19432,18.841,1.0909,0.05,7.4377e-07,7.4326,5.7113e-07,4.2912,-1.1053e-12,9.0505e-06,-5.7112e-07,-4.2912,2.0745
19433,19.117,1.0909,0,0.00010689,1068.2,3.7642e-05,28.445,3.3856e-05,0.0022623,-0.00010638,-1053.7,2.1197
19434,19.025,1,0,0.00010898,1089,3.8237e-05,27.321,3.4601e-05,0.00058981,-0.00010849,-1075.1,2.1045
19435,19.025,1.0909,0.05,7.4117e-07,7.4066,5.6913e-07,4.2762,-1.6103e-12,1.0613e-05,-5.6912e-07,-4.2762,2.1046
19436,19.301,1.0909,0,0.00010275,1026.7,3.6368e-05,29.591,3.243e-05,0.002546,-0.00010221,-1011.6,2.1499
19437,19.209,1,0,0.00010481,1047.4,3.6949e-05,28.36,3.3174e-05,0.00079706,-0.0001043,-1032.9,2.1347
19438,19.209,1.0909,0.05,7.3865e-07,7.3814,5.6719e-07,4.2617,-7.1435e-13,8.2673e-06,-5.6719e-07,-4.2616,2.1348
19439,19.485,1.0909,0,9.8623e-05,985.55,3.5108e-05,30.815,3.1007e-05,0.0028564,-9.8063e-05,-969.78,2.1802
19440,19.393,1,0,0.00010067,1006,3.5674e-05,29.467,3.1752e-05,0.0010156,-0.00010014,-990.98,2.1649
19441,19.393,1.0909,0.05,7.3621e-07,7.357,5.6532e-07,4.2476,-1.6758e-12,7.9297e-06,-5.6532e-07,-4.2476,2.165
19442,19.67,1.0909,0,9.4524e-05,944.58,3.3863e-05,32.123,2.9588e-05,0.0031991,-9.3936e-05,-928.11,2.2105
19443,19.578,1,0,9.6556e-05,964.89,3.4412e-05,30.648,3.0333e-05,0.001263,-9.5998e-05,-949.2,2.1952
19444,19.578,1.0909,0.05,7.3386e-07,7.3336,5.6352e-07,4.2341,-1.7115e-12,7.7353e-06,-5.6351e-07,-4.234,2.1953
19445,19.854,1.0909,0,9.0448e-05,903.85,3.2633e-05,33.522,2.8172e-05,0.0035872,-8.9831e-05,-886.62,2.2409
19446,19.762,1,0,9.2461e-05,923.97,3.3164e-05,31.908,2.8918e-05,0.001535,-9.1876e-05,-907.6,2.2256
19447,19.762,1.0909,0.05,7.3161e-07,7.3111,5.6179e-07,4.2211,-1.2749e-12,5.3552e-06,-5.6178e-07,-4.221,2.2257
19448,20.038,1.0909,0,8.6396e-05,863.36,3.1419e-05,35.02,2.6759e-05,0.0040415,-8.5747e-05,-845.32,2.2713
19449,19.946,1,0,8.8388e-05,883.27,3.1931e-05,33.254,2.7506e-05,0.0018597,-8.7776e-05,-866.18,2.256
19450,19.946,1.0909,0.05,7.2946e-07,7.2896,5.6014e-07,4.2087,-1.2941e-12,1.5332e-06,-5.6013e-07,-4.2086,2.2561
19451,20.223,1.0909,0,8.2368e-05,823.12,3.0221e-05,36.623,2.5348e-05,0.0045619,-8.1684e-05,-804.19,2.3019
19452,20.13,1,0,8.434e-05,842.81,3.0713e-05,34.692,2.6096e-05,0.0022507,-8.3696e-05,-824.93,2.2865
19453,20.13,1.0909,0.05,7.2743e-07,7.2693,5.5858e-07,4.1969,-1.509e-12,2.2264e-06,-5.5857e-07,-4.1969,2.2866
19454,20.407,1.0909,0,7.8366e-05,783.12,2.9041e-05,38.342,2.3939e-05,0.0051521,-7.7643e-05,-763.24,2.3324
19455,20.315,1,0,8.0314e-05,802.59,2.9511e-05,36.229,2.4689e-05,0.0026916,-7.9637e-05,-783.86,2.317
19456,20.315,1.0909,0.05,7.2552e-07,7.2502,5.5711e-07,4.186,-1.4887e-12,4.0534e-06,-5.5711e-07,-4.1859,2.3171
19457,20.591,1.0909,0,7.4389e-05,743.38,2.7879e-05,40.187,2.2531e-05,0.0058333,-7.3624e-05,-722.47,2.363
19458,20.499,1,0,7.6313e-05,762.61,2.8325e-05,37.876,2.3284e-05,0.0032058,-7.5598e-05,-742.96,2.3476
19459,20.499,1.0909,0.05,7.2376e-07,7.2326,5.5576e-07,4.1758,-1.178e-12,5.3066e-06,-5.5575e-07,-4.1757,2.3477
19460,20.775,1.0909,0,7.0439e-05,703.91,2.6737e-05,42.168,2.1125e-05,0.0066304,-6.9627e-05,-681.87,2.3937
19461,20.683,1,0,7.2337e-05,722.87,2.7156e-05,39.64,2.1881e-05,0.0038067,-7.1581e-05,-702.24,2.3783
19462,20.683,1.0909,0.05,7.2213e-07,7.2164,5.5451e-07,4.1664,-1.3203e-12,7.7286e-06,-5.5451e-07,-4.1663,2.3784
19463,20.96,1.0909,0,6.6517e-05,664.71,2.5615e-05,44.3,1.972e-05,0.0075765,-6.5652e-05,-641.45,2.4244
19464,20.867,1,0,6.8387e-05,683.4,2.6007e-05,41.533,2.0479e-05,0.0045318,-6.7585e-05,-661.68,2.409
19465,20.867,1.0909,0.05,7.2067e-07,7.2018,5.5339e-07,4.158,-1.1178e-12,4.8615e-06,-5.5339e-07,-4.1579,2.409
19466,21.144,1.0909,0,6.2624e-05,625.81,2.4516e-05,46.596,1.8316e-05,0.0087009,-6.1701e-05,-601.2,2.4552
19467,21.052,1,0,6.4463e-05,644.19,2.4876e-05,43.567,1.9079e-05,0.0054097,-6.3611e-05,-621.29,2.4397
19468,21.052,1.0909,0.05,7.194e-07,7.189,5.5241e-07,4.1506,-9.8626e-13,6.0675e-06,-5.5241e-07,-4.1506,2.4398
19469,21.328,1.0909,0,5.8762e-05,587.21,2.3441e-05,49.074,1.691e-05,0.01004,-5.7773e-05,-561.13,2.486
19470,21.236,1,0,6.0568e-05,605.26,2.3767e-05,45.757,1.7679e-05,0.006461,-5.9659e-05,-581.08,2.4705
19471,21.236,1.0909,0.05,7.1833e-07,7.1783,5.5159e-07,4.1444,-1.2598e-12,1.9341e-06,-5.5158e-07,-4.1444,2.4706
19472,21.512,1.0909,0,5.4933e-05,548.95,2.2391e-05,51.756,1.5505e-05,0.011651,-5.3869e-05,-521.23,2.5168
19473,21.42,1,0,5.6702e-05,566.63,2.2681e-05,48.119,1.6278e-05,0.0077421,-5.573e-05,-541.04,2.5013
19474,21.42,1.0909,0.05,7.1748e-07,7.1698,5.5094e-07,4.1395,-1.3498e-12,-2.9313e-06,-5.5093e-07,-4.1395,2.5014
19475,21.697,1.0909,0,5.1141e-05,511.06,2.1371e-05,54.666,1.4097e-05,0.01362,-4.9991e-05,-481.52,2.5477
19476,21.605,1,0,5.287e-05,528.33,2.1621e-05,50.674,1.4877e-05,0.0093069,-5.1825e-05,-501.17,2.5322
19477,21.605,1.0909,0.05,7.1689e-07,7.1639,5.5048e-07,4.1361,-9.3021e-13,-1.3601e-06,-5.5048e-07,-4.1361,2.5322
19478,21.881,1.0909,0,4.739e-05,473.57,2.0383e-05,57.833,1.2688e-05,0.016053,-4.614e-05,-441.99,2.5786
19479,21.789,1,0,4.9073e-05,490.39,2.0587e-05,53.448,1.3475e-05,0.011262,-4.7945e-05,-461.47,2.5631
19480,21.789,1.0909,0.05,7.1659e-07,7.1609,5.5025e-07,4.1344,-1.0418e-12,4.6513e-06,-5.5025e-07,-4.1343,2.5631
19481,22.065,1.0909,0,4.3685e-05,436.55,1.943e-05,61.295,1.1275e-05,0.019091,-4.2318e-05,-402.65,2.6095
19482,21.973,1,0,4.5317e-05,452.86,1.9585e-05,56.472,1.2071e-05,0.013728,-4.4091e-05,-421.97,2.594
19483,21.973,1.0909,0.05,7.1664e-07,7.1614,5.5029e-07,4.1347,-1.0381e-12,3.7758e-06,-5.5029e-07,-4.1346,2.5941
19484,22.249,1.0909,0,4.0035e-05,400.07,1.8518e-05,65.097,9.8571e-06,0.02293,-3.8528e-05,-363.52,2.6405
19485,22.157,1,0,4.1608e-05,415.79,1.8618e-05,59.783,1.0664e-05,0.016861,-4.0267e-05,-382.66,2.6249
19486,22.157,1.0909,0.05,7.1711e-07,7.1661,5.5065e-07,4.1374,-1.6785e-12,2.9798e-06,-5.5065e-07,-4.1373,2.625
19487,22.434,1.0909,0,3.6449e-05,364.24,1.7653e-05,69.296,8.4338e-06,0.027878,-3.4772e-05,-324.6,2.6715
19488,22.342,1,0,3.7954e-05,379.28,1.7692e-05,63.431,9.2525e-06,0.020899,-3.6474e-05,-343.55,2.6559
19489,22.342,1.0909,0.05,7.1809e-07,7.1759,5.514e-07,4.143,-1.2499e-12,2.6789e-06,-5.514e-07,-4.143,2.656
19490,22.618,1.0909,0,3.2943e-05,329.2,1.6842e-05,73.959,7.0028e-06,0.034326,-3.1055e-05,-285.92,2.7025
19491,22.526,1,0,3.4367e-05,343.43,1.6813e-05,67.478,7.8355e-06,0.026234,-3.2718e-05,-304.67,2.6869
19492,22.526,1.0909,0.05,7.1971e-07,7.1921,5.5265e-07,4.1524,-1.325e-12,-1.5697e-06,-5.5265e-07,-4.1524,2.687
19493,22.802,1.0909,0,2.9535e-05,295.15,1.6093e-05,79.172,5.562e-06,0.043209,-2.738e-05,-247.47,2.7335
19494,22.71,1,0,3.0863e-05,308.42,1.599e-05,72.002,6.411e-06,0.033276,-2.9001e-05,-266.04,2.718
19495,22.71,1.0909,0.05,7.2217e-07,7.2167,5.5454e-07,4.1666,-1.5417e-12,-6.186e-06,-5.5454e-07,-4.1666,2.718
19496,22.987,1.0909,0,2.6254e-05,262.36,1.5418e-05,85.033,4.1085e-06,0.054822,-2.3752e-05,-209.28,2.7646
19497,22.894,1,0,2.7467e-05,274.49,1.5233e-05,77.102,4.9767e-06,0.043537,-2.5331e-05,-227.68,2.749
19498,22.894,1.0909,0.05,7.2575e-07,7.2525,5.5729e-07,4.1872,-1.208e-12,-7.2984e-06,-5.5729e-07,-4.1872,2.7491
19499,23.171,1.0909,0,2.3139e-05,231.23,1.4827e-05,91.655,2.6388e-06,0.075014,-2.0175e-05,-171.34,2.7957
19500,23.079,1,0,2.4212e-05,241.96,1.4555e-05,82.897,3.5293e-06,0.056204,-2.1712e-05,-189.6,2.7801
19501,23.079,1.0909,0.05,7.3082e-07,7.3032,5.6118e-07,4.2165,-8.7771e-13,-9.4863e-07,-5.6118e-07,-4.2165,2.7801
19502,23.355,1.0909,0,2.0245e-05,202.31,1.433e-05,99.144,1.1476e-06,0.09443,-1.6647e-05,-133.61,2.8267
19503,23.263,1,0,2.1147e-05,211.33,1.397e-05,89.529,2.0652e-06,0.083994,-1.8151e-05,-151.81,2.8111
19504,23.263,1.0909,0.05,7.379e-07,7.3739,5.6662e-07,4.2573,-9.1548e-13,-6.4439e-06,-5.6661e-07,-4.2573,2.8112
19505,23.539,1.0909,0,1.7656e-05,176.44,1.3934e-05,107.62,-3.6521e-07,0.18226,-1.3167e-05,-96.008,2.8578
19506,23.447,1,0,1.8342e-05,183.3,1.349e-05,97.128,5.7627e-07,0.096579,-1.4647e-05,-114.29,2.8422
19507,23.447,1.0909,0.05,7.4757e-07,7.4706,5.7404e-07,4.3131,-7.146e-13,-3.389e-06,-5.7404e-07,-4.3131,2.8423
19508,23.724,1.0909,0,1.5498e-05,154.87,1.3647e-05,117.12,-1.9196e-06,0.1558,-9.7282e-06,-58.515,2.8889
19509,23.631,1,0,1.5904e-05,158.93,1.3126e-05,105.88,-9.2999e-07,0.26591,-1.1201e-05,-76.908,2.8733
19510,23.631,1.0909,0.05,7.6125e-07,7.6072,5.8454e-07,4.392,-9.5519e-13,-3.2207e-06,-5.8454e-07,-4.392,2.8734
19511,23.816,1,0,1.4002e-05,139.92,1.2893e-05,115.75,-2.4994e-06,0.089973,-7.8065e-06,-39.785,2.9044
19512,23.816,1.0909,0.05,7.9357e-07,7.9302,6.0936e-07,4.5785,-5.7687e-13,-4.6669e-06,-6.0936e-07,-4.5785,2.9045
19513,23.908,1.0909,0,1.3901e-05,138.91,1.3382e-05,126.42,-3.3907e-06,0.40284,-6.4423e-06,-22.526,2.9201
19514,1.2431,0.90909,0,0.00038658,3863.1,0.00022694,1247.6,6.019e-05,-5.3464,-0.00034988,-3086.5,0.0087882
19515,1.1509,0.81818,0,0.00035598,3557.3,0.00022107,1308.3,4.562e-05,-9.9939,-0.00031506,-2720,0.003912
19516,1.1509,0.90909,0.05,1.9109e-05,190.96,1.4673e-05,110.25,1.0833e-12,2.705e-05,-1.4673e-05,-110.25,0.0039841
19517,1.0588,0.90909,0,0.00032118,3209.5,0.00020249,1228.2,3.9476e-05,3.3431,-0.00028218,-2413.4,0.0025106
19518,1.4273,0.90909,0,0.00038989,3896.3,0.00019834,861.55,8.3473e-05,-1.5164,-0.00036802,-3393.9,0.017584
19519,1.3352,0.81818,0,0.0003477,3474.6,0.00018412,862.23,6.9314e-05,-0.39296,-0.0003249,-2962.4,0.012278
19520,1.3352,0.90909,0.05,1.4156e-05,141.47,1.087e-05,81.676,1.0469e-11,9.6756e-05,-1.087e-05,-81.676,0.012902
19521,1.6116,0.90909,0,0.00041308,4128,0.00018813,633.21,0.00010353,-2.4385,-0.00039866,-3775.7,0.026661
19522,1.5195,0.81818,0,0.00037251,3722.6,0.0001746,632.88,8.9998e-05,-2.7592,-0.0003577,-3366.6,0.021294
19523,1.5195,0.90909,0.05,1.2136e-05,121.28,9.3192e-06,70.021,1.2739e-11,0.00012835,-9.3192e-06,-70.021,0.021946
19524,1.7959,0.90909,0,0.00043875,4384.5,0.00018383,473.79,0.00012051,-1.9963,-0.00042878,-4129.2,0.035983
19525,1.7037,0.81818,0,0.00040345,4031.7,0.0001729,483.37,0.00010831,-1.9125,-0.00039306,-3769,0.030551
19526,1.7037,0.90909,0.05,9.9592e-06,99.524,7.6474e-06,57.46,1.6348e-11,0.00015684,-7.6475e-06,-57.46,0.031181
19527,1.9801,0.90909,0,0.00046196,4616.5,0.00018193,355.91,0.00013432,-1.8203,-0.0004549,-4429,0.045577
19528,1.888,0.81818,0,0.00043293,4326.4,0.00017395,375.8,0.0001237,-1.74,-0.00042533,-4127,0.040057
19529,1.888,0.90909,0.05,7.9708e-06,79.653,6.1205e-06,45.987,1.476e-11,0.00016499,-6.1206e-06,-45.987,0.040656
19530,2.1644,0.90909,0,0.00048096,4806.2,0.00018075,264.9,0.00014527,-1.6385,-0.00047592,-4669.1,0.055468
19531,2.0723,0.81818,0,0.000458,4576.9,0.00017542,292.55,0.00013629,-1.4621,-0.00045234,-4424.2,0.049837
19532,2.0723,0.90909,0.05,6.2973e-06,62.929,4.8355e-06,36.332,1.3429e-11,0.0001846,-4.8355e-06,-36.332,0.050408
19533,2.3487,0.90909,0,0.00049545,4951.1,0.00017954,192.18,0.00015375,-1.5568,-0.00049192,-4852.9,0.065675
19534,2.2565,0.81818,0,0.00047786,4775.3,0.00017638,224.46,0.00014634,-1.2941,-0.00047367,-4659.7,0.059915
19535,2.2565,0.90909,0.05,4.9459e-06,49.425,3.7979e-06,28.536,1.6426e-11,0.00019983,-3.7979e-06,-28.536,0.060463
19536,2.5329,0.90909,0,0.00050584,5054.9,0.00017806,132.86,0.00016017,-1.5784,-0.00050347,-4987.9,0.076213
19537,2.4408,0.81818,0,0.00049277,4924.3,0.00017656,167.11,0.00015416,-1.1897,-0.00048973,-4839.1,0.07031
19538,2.4408,0.90909,0.05,3.8736e-06,38.709,2.9744e-06,22.349,1.6175e-11,0.00020993,-2.9744e-06,-22.349,0.07084
19539,2.7172,0.90909,0,0.00051274,5123.8,0.0001763,84.114,0.00016487,-1.7817,-0.00051128,-5082.1,0.087091
19540,2.6251,0.81818,0,0.00050336,5030.1,0.00017602,118.3,0.00016012,-1.1733,-0.00050126,-4970.5,0.081034
19541,2.6251,0.90909,0.05,3.0307e-06,30.286,2.3272e-06,17.486,2.4682e-11,0.0002515,-2.3272e-06,-17.486,0.081551
19542,2.9015,0.90909,0,0.00051679,5164.3,0.00017436,44.377,0.00016813,-2.4541,-0.00051606,-5143.2,0.098316
19543,2.8093,0.81818,0,0.00051037,5100.2,0.00017489,76.871,0.00016449,-1.2844,-0.00050904,-5061.9,0.092098
19544,2.8093,0.90909,0.05,2.3756e-06,23.74,1.8242e-06,13.706,2.6283e-11,0.0002389,-1.8242e-06,-13.706,0.092605
19545,3.0857,0.90909,0,0.00051856,5182.1,0.0001726,14.371,0.00016995,-5.593,-0.00051841,-5177.6,0.10989
19546,2.9936,0.81818,0,0.00051449,5141.4,0.00017339,42.23,0.00016754,-1.6973,-0.00051379,-5121,0.10351
19547,2.9936,0.90909,0.05,1.8766e-06,18.753,1.441e-06,10.827,2.8772e-11,0.00025278,-1.441e-06,-10.827,0.10401
19548,3.27,0.90909,0,0.00051856,5182,0.0001724,2.8706,0.00016923,-20.958,-0.00051886,-5191,0.12182
19549,3.1779,0.81818,0,0.00051632,5159.7,0.00017181,14.902,0.00016935,-3.5627,-0.00051613,-5154,0.11526
19550,3.1779,0.90909,0.05,1.5099e-06,15.089,1.1594e-06,8.7115,3.0914e-11,0.00031626,-1.1594e-06,-8.7116,0.11576
19551,3.4543,0.90909,0,0.00051717,5168.1,0.00017277,1.1231,0.00016721,-40.615,-0.00051783,-5187.8,0.1341
19552,3.3621,0.81818,0,0.00051637,5160.1,0.00017137,2.6376,0.000169,-15.201,-0.00051658,-5166.4,0.12737
19553,3.3621,0.90909,0.05,1.2567e-06,12.558,9.6497e-07,7.2505,3.0393e-11,0.00025393,-9.6499e-07,-7.2505,0.12787
19554,3.6385,0.90909,0,0.00051473,5143.8,0.00017272,0.61615,0.00016508,-56.774,-0.00051566,-5171.6,0.14673
19555,3.5464,0.81818,0,0.00051503,5146.7,0.00017165,0.94296,0.00016718,-32.682,-0.00051556,-5162.5,0.13983
19556,3.5464,0.90909,0.05,1.0981e-06,10.973,8.4317e-07,6.3353,2.6884e-11,0.00022807,-8.4319e-07,-6.3353,0.14033
19557,3.8228,0.90909,0,0.00051149,5111.4,0.00017224,0.39194,0.00016298,-69.133,-0.00051263,-5145.4,0.15971
19558,3.7307,0.81818,0,0.00051263,5122.7,0.00017154,0.50906,0.00016519,-47.25,-0.00051341,-5145.9,0.15264
19559,3.7307,0.90909,0.05,1.0125e-06,10.118,7.7748e-07,5.8418,2.1028e-11,0.00024172,-7.7749e-07,-5.8417,0.15313
19560,4.0071,0.90909,0,0.00050765,5073,0.0001714,0.27098,0.00016097,-78.111,-0.00050893,-5111.5,0.17305
19561,3.9149,0.81818,0,0.00050942,5090.7,0.00017102,0.32538,0.0001632,-58.435,-0.00051038,-5119.5,0.1658
19562,3.9149,0.90909,0.05,9.7688e-07,9.762,7.5012e-07,5.6361,9.5826e-12,0.0001448,-7.5012e-07,-5.6361,0.16629
19563,4.1913,0.90909,0,0.00050337,5030.2,0.00017028,0.19776,0.00015905,-84.197,-0.00050474,-5071.7,0.18672
19564,4.0992,0.81818,0,0.00050561,5052.6,0.00017016,0.22802,0.00016126,-66.588,-0.0005067,-5085.4,0.1793
19565,4.0992,0.90909,0.05,9.7064e-07,9.6997,7.4533e-07,5.6002,9.233e-12,0.00010908,-7.4533e-07,-5.6001,0.1798
19566,4.3756,0.90909,0,0.00049875,4984.1,0.00016893,0.14994,0.00015722,-87.861,-0.00050019,-5027.3,0.20074
19567,4.2835,0.81818,0,0.00050134,5010,0.00016902,0.16938,0.00015939,-72.143,-0.00050253,-5045.5,0.19315
19568,4.2835,0.90909,0.05,9.7896e-07,9.7828,7.5172e-07,5.6482,4.7633e-12,0.0001079,-7.5171e-07,-5.648,0.19365
19569,4.5599,0.90909,0,0.0004939,4935.6,0.00016741,0.11697,0.00015548,-89.53,-0.00049536,-4979.6,0.2151
19570,4.4677,0.81818,0,0.00049674,4963.9,0.00016766,0.13098,0.00015759,-75.519,-0.00049798,-5001.2,0.20734
19571,4.4677,0.90909,0.05,9.9268e-07,9.9199,7.6226e-07,5.7274,2.6541e-12,6.2646e-05,-7.6225e-07,-5.7272,0.20784
19572,4.7441,0.90909,0,0.00048887,4885.3,0.00016575,0.093276,0.00015382,-89.583,-0.00049033,-4929.4,0.2298
19573,4.652,0.81818,0,0.00049189,4915.5,0.00016614,0.10429,0.00015586,-77.101,-0.00049315,-4953.5,0.22187
19574,4.652,0.90909,0.05,1.0068e-06,10.061,7.7312e-07,5.8089,3.3658e-13,4.9126e-05,-7.731e-07,-5.8087,0.22237
19575,4.9284,0.90909,0,0.00048371,4833.8,0.00016399,0.075701,0.00015222,-88.353,-0.00048516,-4877.3,0.24482
19576,4.8363,0.81818,0,0.00048686,4865.2,0.00016448,0.084897,0.00015419,-77.233,-0.00048812,-4903.3,0.23673
19577,4.8363,0.90909,0.05,1.019e-06,10.183,7.8246e-07,5.8791,-3.5663e-12,4.0185e-05,-7.8245e-07,-5.8789,0.23723
19578,5.1127,0.90909,0,0.00047848,4781.5,0.00016215,0.062325,0.00015068,-86.123,-0.00047988,-4823.9,0.26018
19579,5.0205,0.81818,0,0.00048169,4813.6,0.00016273,0.070303,0.00015257,-76.211,-0.00048294,-4851.2,0.25193
19580,5.0205,0.90909,0.05,1.0283e-06,10.276,7.8959e-07,5.9327,-2.7048e-12,3.3452e-05,-7.8957e-07,-5.9325,0.25242
19581,5.2969,0.90909,0,0.00047318,4728.5,0.00016025,0.051932,0.00014918,-83.136,-0.00047454,-4769.5,0.27587
19582,5.2048,0.81818,0,0.00047644,4761.1,0.0001609,0.059017,0.000151,-74.294,-0.00047766,-4797.8,0.26745
19583,5.2048,0.90909,0.05,1.0345e-06,10.338,7.9438e-07,5.9687,-2.5666e-12,2.8978e-05,-7.9437e-07,-5.9685,0.26795
19584,5.4812,0.90909,0,0.00046784,4675.2,0.00015832,0.043717,0.00014772,-79.594,-0.00046914,-4714.4,0.29187
19585,5.3891,0.81818,0,0.00047113,4708,0.00015901,0.050096,0.00014947,-71.697,-0.0004723,-4743.4,0.2833
19586,5.3891,0.90909,0.05,1.038e-06,10.372,7.9703e-07,5.9886,-4.533e-12,2.5627e-05,-7.9701e-07,-5.9884,0.28379
19587,5.6655,0.90909,0,0.00046248,4621.6,0.00015635,0.03713,0.00014628,-75.665,-0.00046372,-4658.9,0.3082
19588,5.5733,0.81818,0,0.00046577,4654.5,0.00015709,0.042914,0.00014796,-68.603,-0.0004669,-4688.4,0.29946
19589,5.5733,0.90909,0.05,1.039e-06,10.383,7.9781e-07,5.9945,-4.3867e-12,2.2381e-05,-7.978e-07,-5.9943,0.29996
19590,5.8497,0.90909,0,0.0004571,4567.9,0.00015437,0.031783,0.00014485,-71.486,-0.00045827,-4603.2,0.32484
19591,5.7576,0.81818,0,0.00046038,4600.7,0.00015515,0.037047,0.00014647,-65.161,-0.00046146,-4632.9,0.31595
19592,5.7576,0.90909,0.05,1.038e-06,10.373,7.9706e-07,5.9888,-6.2124e-12,1.186e-05,-7.9705e-07,-5.9887,0.31644
19593,6.034,0.90909,0,0.00045172,4514.1,0.00015238,0.027397,0.00014344,-67.168,-0.00045282,-4547.3,0.34179
19594,5.9419,0.81818,0,0.00045498,4546.7,0.00015318,0.032192,0.00014499,-61.495,-0.000456,-4577.1,0.33275
19595,5.9419,0.90909,0.05,1.0354e-06,10.347,7.9508e-07,5.974,-4.8714e-12,1.7721e-05,-7.9507e-07,-5.9738,0.33324
19596,6.2183,0.90909,0,0.00044633,4460.2,0.00015039,0.023765,0.00014203,-62.799,-0.00044737,-4491.3,0.35905
19597,6.1261,0.81818,0,0.00044958,4492.7,0.00015121,0.028132,0.00014353,-57.703,-0.00045053,-4521.2,0.34986
19598,6.1261,0.90909,0.05,1.0316e-06,10.309,7.9217e-07,5.9521,-4.773e-12,1.3037e-05,-7.9215e-07,-5.9519,0.35035
19599,6.4025,0.90909,0,0.00044095,4406.5,0.0001484,0.020733,0.00014062,-58.448,-0.00044192,-4435.4,0.37661
19600,6.3104,0.81818,0,0.00044417,4438.6,0.00014924,0.024705,0.00014207,-53.863,-0.00044506,-4465.3,0.36727
19601,6.3104,0.90909,0.05,1.0269e-06,10.262,7.8853e-07,5.9248,-5.566e-12,1.286e-05,-7.8852e-07,-5.9246,0.36776
19602,6.5868,0.90909,0,0.00043557,4352.7,0.00014642,0.018183,0.0001392,-54.17,-0.00043647,-4379.6,0.39447
19603,6.4947,0.81818,0,0.00043876,4384.6,0.00014726,0.021788,0.0001406,-50.038,-0.00043959,-4409.4,0.38499
19604,6.4947,0.90909,0.05,1.0215e-06,10.208,7.8439e-07,5.8937,-5.6749e-12,1.264e-05,-7.8438e-07,-5.8934,0.38547
19605,6.7711,0.90909,0,0.0004302,4299.1,0.00014444,0.016024,0.00013778,-50.003,-0.00043103,-4323.8,0.41263
19606,6.6789,0.81818,0,0.00043336,4330.6,0.0001453,0.019288,0.00013913,-46.274,-0.00043413,-4353.5,0.403
19607,6.6789,0.90909,0.05,1.0156e-06,10.149,7.7989e-07,5.8598,-5.8448e-12,8.6031e-06,-7.7988e-07,-5.8597,0.40348
19608,6.9553,0.90909,0,0.00042484,4245.5,0.00014247,0.014186,0.00013635,-45.978,-0.00042561,-4268.3,0.43108
19609,6.8632,0.81818,0,0.00042797,4276.7,0.00014334,0.017131,0.00013766,-42.607,-0.00042868,-4297.8,0.42131
19610,6.8632,0.90909,0.05,1.0095e-06,10.088,7.7516e-07,5.8243,-4.0872e-12,1.0419e-05,-7.7514e-07,-5.8241,0.42179
19611,7.1396,0.90909,0,0.00041949,4192,0.00014051,0.012613,0.00013491,-42.115,-0.00042019,-4212.9,0.44982
19612,7.0475,0.81818,0,0.00042258,4222.9,0.00014138,0.015261,0.00013618,-39.064,-0.00042323,-4242.3,0.43991
19613,7.0475,0.90909,0.05,1.0031e-06,10.025,7.7029e-07,5.7878,-6.2126e-12,1.0367e-05,-7.7028e-07,-5.7875,0.44038
19614,7.3239,0.90909,0,0.00041415,4138.6,0.00013857,0.011259,0.00013345,-38.427,-0.00041479,-4157.7,0.46885
19615,7.2317,0.81818,0,0.00041721,4169.2,0.00013944,0.013632,0.0001347,-35.662,-0.00041781,-4186.9,0.4588
19616,7.2317,0.90909,0.05,9.9673e-07,9.9605,7.6538e-07,5.7508,-6.2277e-12,9.0398e-06,-7.6536e-07,-5.7506,0.45927
19617,7.5081,0.90909,0,0.00040882,4085.4,0.00013664,0.010091,0.00013199,-34.922,-0.0004094,-4102.7,0.48815
19618,7.416,0.81818,0,0.00041185,4115.7,0.00013751,0.012206,0.0001332,-32.414,-0.00041239,-4131.8,0.47797
19619,7.416,0.90909,0.05,9.9032e-07,9.8964,7.6045e-07,5.7138,-6.3038e-12,7.8593e-06,-7.6044e-07,-5.7136,0.47843
19620,7.6924,0.90909,0,0.0004035,4032.2,0.00013472,0.0090796,0.00013051,-31.604,-0.00040403,-4047.9,0.50774
19621,7.6003,0.81818,0,0.0004065,4062.2,0.0001356,0.010955,0.00013169,-29.327,-0.00040699,-4076.8,0.49742
19622,7.6003,0.90909,0.05,9.8396e-07,9.8328,7.5557e-07,5.6771,-6.4419e-12,8.0438e-06,-7.5555e-07,-5.6769,0.49788
19623,7.8767,0.90909,0,0.0003982,3979.2,0.00013281,0.008203,0.00012902,-28.473,-0.00039867,-3993.4,0.5276
19624,7.7845,0.81818,0,0.00040117,4008.9,0.00013369,0.0098556,0.00013018,-26.403,-0.00040161,-4022.1,0.51714
19625,7.7845,0.90909,0.05,9.7769e-07,9.7702,7.5075e-07,5.6409,-6.6048e-12,6.9852e-06,-7.5074e-07,-5.6407,0.5176
19626,8.0609,0.90909,0,0.0003929,3926.3,0.00013092,0.0074432,0.00012752,-25.526,-0.00039333,-3939,0.54773
19627,7.9688,0.81818,0,0.00039585,3955.8,0.0001318,0.0088877,0.00012865,-23.642,-0.00039625,-3967.5,0.53714
19628,7.9688,0.90909,0.05,9.7154e-07,9.7087,7.4603e-07,5.6054,-6.6421e-12,6.009e-06,-7.4602e-07,-5.6052,0.5376
19629,8.2452,0.90909,0,0.00038762,3873.5,0.00012904,0.006787,0.00012601,-22.758,-0.000388,-3884.9,0.56812
19630,8.1531,0.81818,0,0.00039054,3902.7,0.00012992,0.0080378,0.00012712,-21.043,-0.0003909,-3913.2,0.55741
19631,8.1531,0.90909,0.05,9.6552e-07,9.6486,7.4141e-07,5.5707,-6.7083e-12,4.941e-06,-7.4139e-07,-5.5705,0.55786
19632,8.4295,0.90909,0,0.00038235,3820.9,0.00012717,0.0062234,0.00012449,-20.163,-0.00038269,-3830.9,0.58878
19633,8.3373,0.81818,0,0.00038525,3849.8,0.00012805,0.0072934,0.00012558,-18.601,-0.00038556,-3859.1,0.57794
19634,8.3373,0.90909,0.05,9.5965e-07,9.5899,7.369e-07,5.5368,-5.0145e-12,5.0957e-06,-7.3688e-07,-5.5366,0.57839
19635,8.6137,0.90909,0,0.0003771,3768.4,0.00012532,0.0057454,0.00012296,-17.735,-0.0003774,-3777.2,0.6097
19636,8.5216,0.81818,0,0.00037997,3797.1,0.0001262,0.0066472,0.00012403,-16.311,-0.00038025,-3805.2,0.59874
19637,8.5216,0.90909,0.05,9.5392e-07,9.5326,7.325e-07,5.5038,-5.0501e-12,5.4904e-06,-7.3249e-07,-5.5036,0.59918
19638,8.798,0.90909,0,0.00037186,3716,0.00012348,0.0053487,0.00012142,-15.465,-0.00037212,-3723.7,0.63088
19639,8.7059,0.81818,0,0.00037471,3744.5,0.00012436,0.0060944,0.00012247,-14.166,-0.00037495,-3751.6,0.61979
19640,8.7059,0.90909,0.05,9.4834e-07,9.4769,7.2822e-07,5.4716,-6.8974e-12,4.7693e-06,-7.282e-07,-5.4714,0.62023
19641,8.9823,0.90909,0,0.00036663,3663.8,0.00012165,0.0050338,0.00011987,-13.346,-0.00036686,-3670.5,0.6523
19642,8.8901,0.81818,0,0.00036946,3692,0.00012252,0.0056333,0.0001209,-12.161,-0.00036967,-3698.1,0.6411
19643,8.8901,0.90909,0.05,9.4291e-07,9.4226,7.2405e-07,5.4402,-6.9739e-12,4.8253e-06,-7.2403e-07,-5.4401,0.64153
19644,9.1665,0.90909,0,0.00036142,3611.7,0.00011983,0.0048061,0.00011832,-11.368,-0.00036161,-3617.4,0.67398
19645,9.0744,0.81818,0,0.00036423,3639.8,0.0001207,0.005271,0.00011933,-10.287,-0.0003644,-3644.9,0.66266
19646,9.0744,0.90909,0.05,9.3762e-07,9.3698,7.1998e-07,5.4097,-4.2567e-12,4.8562e-06,-7.1997e-07,-5.4096,0.66308
19647,9.3508,0.90909,0,0.00035623,3559.8,0.00011803,0.0046776,0.00011676,-9.5246,-0.00035639,-3564.5,0.6959
19648,9.2587,0.81818,0,0.00035901,3587.6,0.0001189,0.0050194,0.00011776,-8.5374,-0.00035915,-3591.9,0.68446
19649,9.2587,0.90909,0.05,9.3247e-07,9.3183,7.1603e-07,5.38,-4.2646e-12,4.2985e-06,-7.1602e-07,-5.3798,0.68488
19650,9.5351,0.90909,0,0.00035104,3508,0.00011623,0.0046742,0.00011519,-7.8064,-0.00035118,-3511.9,0.71806
19651,9.4429,0.81818,0,0.00035381,3535.7,0.0001171,0.0049101,0.00011618,-6.9052,-0.00035393,-3539.1,0.70651
19652,9.4429,0.90909,0.05,9.2745e-07,9.2681,7.1217e-07,5.351,-5.2526e-12,3.5673e-06,-7.1216e-07,-5.3508,0.70692
19653,9.7193,0.90909,0,0.00034588,3456.4,0.00011445,0.0048536,0.00011362,-6.2058,-0.00034598,-3459.5,0.74046
19654,9.6272,0.81818,0,0.00034862,3483.8,0.00011531,0.0050049,0.0001146,-5.3831,-0.00034872,-3486.5,0.7288
19655,9.6272,0.90909,0.05,9.2255e-07,9.2191,7.084e-07,5.3227,-6.1706e-12,3.4803e-06,-7.084e-07,-5.3226,0.72921
19656,9.9036,0.90909,0,0.00034073,3404.9,0.00011267,0.0053288,0.00011205,-4.715,-0.00034081,-3407.3,0.7631
19657,9.8115,0.81818,0,0.00034346,3432.2,0.00011354,0.0054636,0.00011301,-3.9641,-0.00034352,-3434.2,0.75132
19658,9.8115,0.90909,0.05,9.1776e-07,9.1713,7.0473e-07,5.2951,-5.2867e-12,3.2043e-06,-7.0472e-07,-5.295,0.75172
19659,10.088,0.90909,0,0.00033559,3353.6,0.00011091,0.0063851,0.00011047,-3.3268,-0.00033565,-3355.3,0.78597
19660,9.9957,0.81818,0,0.0003383,3380.7,0.00011177,0.0066958,0.00011142,-2.6417,-0.00033835,-3382,0.77408
19661,9.9957,0.90909,0.05,9.1308e-07,9.1245,7.0114e-07,5.2682,-5.3211e-12,2.5596e-06,-7.0113e-07,-5.2679,0.77448
19662,10.272,0.90909,0,0.00033047,3302.5,0.00010916,0.008992,0.00010889,-2.0349,-0.00033051,-3303.5,0.80906
19663,10.18,0.81818,0,0.00033317,3329.4,0.00011002,0.010509,0.00010983,-1.4113,-0.00033319,-3330.1,0.79706
19664,10.18,0.90909,0.05,9.085e-07,9.0788,6.9762e-07,5.2417,-4.4096e-12,3.7462e-06,-6.9761e-07,-5.2415,0.79746
19665,10.456,0.90909,0,0.00032537,3251.5,0.00010742,0.019181,0.0001073,-0.83878,-0.00032538,-3251.9,0.83238
19666,10.364,0.81818,0,0.00032805,3278.2,0.00010827,0.043922,0.00010823,-0.29332,-0.00032805,-3278.4,0.82028
19667,10.364,0.90909,0.05,9.0402e-07,9.034,6.9418e-07,5.2158,-5.3477e-12,3.2214e-06,-6.9417e-07,-5.2157,0.82066
19668,10.641,0.90909,0,0.00032029,3200.6,0.00010573,0.34706,0.00010567,-0.041878,-0.00032028,-3200.5,0.85592
19669,10.549,0.81818,0,0.00032295,3227.3,0.00010664,0.83874,0.00010653,-0.013939,-0.00032294,-3226.9,0.84371
19670,10.549,0.90909,0.05,8.9962e-07,8.99,6.908e-07,5.1905,-4.4632e-12,2.8323e-06,-6.9079e-07,-5.1903,0.84409
19671,10.825,0.90909,0,0.00031522,3150,0.00010414,1.3645,0.00010395,-0.0098732,-0.00031519,-3149.3,0.87967
19672,10.733,0.81818,0,0.00031787,3176.5,0.00010505,1.8339,0.0001048,-0.006056,-0.00031783,-3175.5,0.86736
19673,10.733,0.90909,0.05,8.9529e-07,8.9467,6.8747e-07,5.1655,-4.4906e-12,2.717e-06,-6.8747e-07,-5.1653,0.86774
19674,11.009,0.90909,0,0.00031017,3099.5,0.00010255,2.34,0.00010224,-0.0054594,-0.00031013,-3098.3,0.90364
19675,10.917,0.81818,0,0.0003128,3125.8,0.00010346,2.769,0.00010309,-0.0039309,-0.00031275,-3124.5,0.89123
19676,10.917,0.90909,0.05,8.9104e-07,8.9043,6.8422e-07,5.141,-3.5755e-12,2.9649e-06,-6.8421e-07,-5.1408,0.8916
19677,11.193,0.90909,0,0.00030513,3049.2,0.00010097,3.2539,0.00010053,-0.0038238,-0.00030508,-3047.6,0.92782
19678,11.101,0.81818,0,0.00030775,3075.4,0.00010186,3.6445,0.00010138,-0.0030489,-0.00030769,-3073.6,0.91531
19679,11.101,0.90909,0.05,8.8687e-07,8.8626,6.8101e-07,5.1169,-6.321e-12,2.8099e-06,-6.81e-07,-5.1168,0.91568
19680,11.378,0.90909,0,0.00030011,2999.1,9.9381e-05,4.1095,9.8834e-05,-0.0030324,-0.00030004,-2997,0.95221
19681,11.286,0.81818,0,0.00030272,3025.1,0.00010027,4.4644,9.9676e-05,-0.0026159,-0.00030264,-3022.9,0.9396
19682,11.286,0.90909,0.05,8.8277e-07,8.8216,6.7786e-07,5.0932,-3.6036e-12,1.9053e-06,-6.7785e-07,-5.0931,0.93996
19683,11.562,0.90909,0,0.00029512,2949.1,9.7799e-05,4.9112,9.7145e-05,-0.002589,-0.00029503,-2946.7,0.9768
19684,11.47,0.81818,0,0.00029771,2975,9.8681e-05,5.2329,9.7984e-05,-0.0024196,-0.00029762,-2972.4,0.9641
19685,11.47,0.90909,0.05,8.7871e-07,8.7811,6.7475e-07,5.0698,-4.5207e-12,1.8885e-06,-6.7474e-07,-5.0697,0.96445
19686,11.746,0.90909,0,0.00029013,2899.3,9.6218e-05,5.6634,9.5464e-05,-0.0022863,-0.00029004,-2896.5,1.0016
19687,11.654,0.81818,0,0.00029271,2925.1,9.7093e-05,5.9543,9.63e-05,-0.0022949,-0.00029261,-2922.1,0.98879
19688,11.654,0.90909,0.05,8.747e-07,8.741,6.7167e-07,5.0467,-4.5308e-12,1.6422e-06,-6.7166e-07,-5.0465,0.98914
19689,11.931,0.90909,0,0.00028517,2849.8,9.4639e-05,6.3701,9.3791e-05,-0.0020832,-0.00028506,-2846.6,1.0266
19690,11.838,0.81818,0,0.00028774,2875.4,9.5508e-05,6.6325,9.4625e-05,-0.002195,-0.00028763,-2872.1,1.0137
19691,11.838,0.90909,0.05,8.7075e-07,8.7015,6.6864e-07,5.0239,-4.5408e-12,1.5756e-06,-6.6862e-07,-5.0238,1.014
19692,12.115,0.90909,0,0.00028023,2800.3,9.3063e-05,7.0353,9.2126e-05,-0.0019627,-0.00028011,-2796.8,1.0517
19693,12.023,0.81818,0,0.00028278,2825.9,9.3925e-05,7.2711,9.2957e-05,-0.002167,-0.00028266,-2822.2,1.0388
19694,12.023,0.90909,0.05,8.6686e-07,8.6626,6.6564e-07,5.0014,-3.6395e-12,1.0921e-06,-6.6564e-07,-5.0013,1.0391
19695,12.299,0.90909,0,0.0002753,2751.1,9.1489e-05,7.6626,9.0469e-05,-0.0019017,-0.00027517,-2747.3,1.0771
19696,12.207,0.81818,0,0.00027784,2776.5,9.2346e-05,7.8738,9.1298e-05,-0.0021696,-0.00027771,-2772.6,1.0641
19697,12.207,0.90909,0.05,8.63e-07,8.6241,6.6268e-07,4.9792,-4.5578e-12,1.4178e-06,-6.6268e-07,-4.979,1.0644
19698,12.483,0.90909,0,0.00027039,2702.1,8.9919e-05,8.2556,8.882e-05,-0.0018659,-0.00027025,-2697.9,1.1027
19699,12.391,0.81818,0,0.00027292,2727.3,9.077e-05,8.4437,8.9646e-05,-0.0022191,-0.00027278,-2723.1,1.0895
19700,12.391,0.90909,0.05,8.5919e-07,8.5859,6.5975e-07,4.9571,-4.5645e-12,1.3416e-06,-6.5974e-07,-4.957,1.0898
19701,12.668,0.90909,0,0.0002655,2653.2,8.8353e-05,8.8177,8.7179e-05,-0.0018122,-0.00026535,-2648.8,1.1284
19702,12.575,0.81818,0,0.00026802,2678.4,8.9198e-05,8.9839,8.8002e-05,-0.0022429,-0.00026787,-2673.9,1.1152
19703,12.575,0.90909,0.05,8.5539e-07,8.548,6.5684e-07,4.9353,-3.6643e-12,1.5554e-06,-6.5683e-07,-4.9352,1.1155
19704,12.852,0.90909,0,0.00026063,2604.5,8.679e-05,9.3519,8.5546e-05,-0.0017694,-0.00026047,-2599.9,1.1543
19705,12.76,0.81818,0,0.00026314,2629.6,8.7629e-05,9.4976,8.6365e-05,-0.0022374,-0.00026298,-2624.8,1.141
19706,12.76,0.90909,0.05,8.5165e-07,8.5106,6.5396e-07,4.9137,-3.6688e-12,1.6232e-06,-6.5396e-07,-4.9136,1.1413
19707,13.036,0.90909,0,0.00025578,2556.1,8.5232e-05,9.861,8.3919e-05,-0.0017549,-0.00025561,-2551.1,1.1804
19708,12.944,0.81818,0,0.00025828,2581,8.6066e-05,9.9872,8.4736e-05,-0.002268,-0.00025811,-2576,1.167
19709,12.944,0.90909,0.05,8.4794e-07,8.4736,6.5112e-07,4.8923,-3.6749e-12,1.1954e-07,-6.5111e-07,-4.8922,1.1673
19710,13.22,0.90909,0,0.00025095,2507.8,8.3678e-05,10.348,8.2301e-05,-0.0017628,-0.00025077,-2502.6,1.2067
19711,13.128,0.81818,0,0.00025343,2532.6,8.4506e-05,10.456,8.3114e-05,-0.0023074,-0.00025325,-2527.3,1.1932
19712,13.128,0.90909,0.05,8.4427e-07,8.4369,6.483e-07,4.8711,-3.6814e-12,2.6446e-07,-6.4829e-07,-4.871,1.1935
19713,13.405,0.90909,0,0.00024614,2459.7,8.2129e-05,10.815,8.0689e-05,-0.0017721,-0.00024595,-2454.3,1.2331
19714,13.313,0.81818,0,0.00024861,2484.4,8.2952e-05,10.905,8.15e-05,-0.0023742,-0.00024842,-2478.9,1.2196
19715,13.313,0.90909,0.05,8.4062e-07,8.4004,6.4549e-07,4.85,-3.6822e-12,8.0821e-07,-6.4549e-07,-4.8499,1.2199
19716,13.589,0.90909,0,0.00024134,2411.8,8.0584e-05,11.265,7.9085e-05,-0.0017533,-0.00024115,-2406.1,1.2597
19717,13.497,0.81818,0,0.0002438,2436.4,8.1402e-05,11.338,7.9893e-05,-0.0024088,-0.00024361,-2430.7,1.2461
19718,13.497,0.90909,0.05,8.3699e-07,8.3641,6.4271e-07,4.8291,-3.6767e-12,8.3175e-07,-6.427e-07,-4.829,1.2464
19719,13.773,0.90909,0,0.00023657,2364.1,7.9045e-05,11.701,7.7488e-05,-0.0017357,-0.00023637,-2358.2,1.2865
19720,13.681,0.81818,0,0.00023902,2388.5,7.9858e-05,11.757,7.8293e-05,-0.0024135,-0.00023882,-2382.6,1.2728
19721,13.681,0.90909,0.05,8.3339e-07,8.3282,6.3994e-07,4.8083,-3.6809e-12,-4.4462e-08,-6.3994e-07,-4.8082,1.2731
19722,13.957,0.90909,0,0.00023182,2316.6,7.7511e-05,12.124,7.5898e-05,-0.0017362,-0.00023161,-2310.5,1.3134
19723,13.865,0.81818,0,0.00023425,2340.9,7.8319e-05,12.163,7.67e-05,-0.0024457,-0.00023404,-2334.8,1.2996
19724,13.865,0.90909,0.05,8.2982e-07,8.2925,6.372e-07,4.7877,-3.6905e-12,-3.9236e-07,-6.372e-07,-4.7876,1.2999
19725,14.142,0.90909,0,0.00022708,2269.2,7.5983e-05,12.537,7.4314e-05,-0.0017522,-0.00022686,-2262.9,1.3405
19726,14.05,0.81818,0,0.00022951,2293.5,7.6786e-05,12.559,7.5114e-05,-0.0024835,-0.00022929,-2287.2,1.3266
19727,14.05,0.90909,0.05,8.2628e-07,8.2571,6.3449e-07,4.7673,-3.6879e-12,-1.8152e-07,-6.3448e-07,-4.7672,1.3269
19728,14.326,0.90909,0,0.00022236,2222.1,7.4461e-05,12.942,7.2738e-05,-0.0017669,-0.00022214,-2215.6,1.3677
19729,14.234,0.81818,0,0.00022478,2246.2,7.5258e-05,12.948,7.3535e-05,-0.0025442,-0.00022456,-2239.7,1.3538
19730,14.234,0.90909,0.05,8.2276e-07,8.2219,6.3178e-07,4.747,-3.6978e-12,-7.4944e-07,-6.3177e-07,-4.7469,1.3541
19731,14.51,0.90909,0,0.00021767,2175.2,7.2945e-05,13.341,7.1169e-05,-0.0017522,-0.00021744,-2168.5,1.3951
19732,14.418,0.81818,0,0.00022007,2199.2,7.3737e-05,13.33,7.1963e-05,-0.0025766,-0.00021984,-2192.5,1.3811
19733,14.418,0.90909,0.05,8.1925e-07,8.1869,6.2909e-07,4.7268,-3.702e-12,-1.5096e-06,-6.2908e-07,-4.7266,1.3814
19734,14.695,0.90909,0,0.00021299,2128.5,7.1434e-05,13.735,6.9606e-05,-0.0017353,-0.00021276,-2121.6,1.4226
19735,14.602,0.81818,0,0.00021539,2152.4,7.2222e-05,13.707,7.0397e-05,-0.0025776,-0.00021515,-2145.5,1.4086
19736,14.602,0.90909,0.05,8.1578e-07,8.1521,6.2642e-07,4.7067,-3.6813e-12,1.3925e-06,-6.2641e-07,-4.7066,1.4088
19737,14.879,0.90909,0,0.00020834,2081.9,6.9931e-05,14.128,6.805e-05,-0.0017339,-0.00020809,-2074.8,1.4503
19738,14.787,0.81818,0,0.00021072,2105.7,7.0713e-05,14.082,6.8838e-05,-0.0026051,-0.00021048,-2098.7,1.4362
19739,14.787,0.90909,0.05,8.1233e-07,8.1177,6.2377e-07,4.6868,-2.7839e-12,2.5678e-06,-6.2376e-07,-4.6867,1.4364
19740,15.063,0.90909,0,0.0002037,2035.6,6.8433e-05,14.52,6.6501e-05,-0.0017455,-0.00020345,-2028.3,1.4781
19741,14.971,0.81818,0,0.00020607,2059.3,6.9211e-05,14.457,6.7286e-05,-0.0026376,-0.00020582,-2052,1.4639
19742,14.971,0.90909,0.05,8.089e-07,8.0834,6.2114e-07,4.667,-3.6665e-12,1.8764e-06,-6.2113e-07,-4.6669,1.4642
19743,15.247,0.90909,0,0.00019908,1989.5,6.6943e-05,14.914,6.4958e-05,-0.0017543,-0.00019883,-1982,1.5061
19744,15.155,0.81818,0,0.00020145,2013.1,6.7715e-05,14.832,6.5741e-05,-0.0026903,-0.00020119,-2005.6,1.4918
19745,15.155,0.90909,0.05,8.0549e-07,8.0493,6.1852e-07,4.6474,-2.7795e-12,4.2869e-06,-6.1851e-07,-4.6472,1.4921
19746,15.432,0.90909,0,0.00019449,1943.5,6.5459e-05,15.312,6.3421e-05,-0.0017363,-0.00019422,-1935.8,1.5342
19747,15.339,0.81818,0,0.00019684,1967,6.6226e-05,15.21,6.4202e-05,-0.0027173,-0.00019658,-1959.4,1.5199
19748,15.339,0.90909,0.05,8.021e-07,8.0154,6.1591e-07,4.6277,-2.7818e-12,3.2659e-06,-6.1591e-07,-4.6277,1.5201
19749,15.616,0.90909,0,0.00018991,1897.8,6.3983e-05,15.715,6.1891e-05,-0.0017166,-0.00018964,-1889.9,1.5624
19750,15.524,0.81818,0,0.00019225,1921.2,6.4744e-05,15.592,6.2669e-05,-0.0027185,-0.00019198,-1913.3,1.548
19751,15.524,0.90909,0.05,7.9873e-07,7.9818,6.1333e-07,4.6083,-1.8536e-12,3.8128e-06,-6.1332e-07,-4.6082,1.5483
19752,15.8,0.90909,0,0.00018536,1852.3,6.2514e-05,16.126,6.0367e-05,-0.0017102,-0.00018508,-1844.2,1.5908
19753,15.708,0.81818,0,0.00018769,1875.6,6.327e-05,15.98,6.1143e-05,-0.0027427,-0.00018741,-1867.5,1.5763
19754,15.708,0.90909,0.05,7.9539e-07,7.9484,6.1077e-07,4.5891,-9.9096e-13,4.3744e-06,-6.1076e-07,-4.589,1.5765
19755,15.984,0.90909,0,0.00018082,1807,6.1052e-05,16.546,5.885e-05,-0.0017138,-0.00018054,-1798.7,1.6192
19756,15.892,0.81818,0,0.00018314,1830.1,6.1803e-05,16.377,5.9623e-05,-0.0027704,-0.00018285,-1821.9,1.6047
19757,15.892,0.90909,0.05,7.9208e-07,7.9153,6.0822e-07,4.57,-2.7888e-12,5.434e-06,-6.0822e-07,-4.5699,1.605
19758,16.169,0.90909,0,0.00017631,1761.9,5.9598e-05,16.977,5.7339e-05,-0.0017127,-0.00017601,-1753.3,1.6478
19759,16.077,0.81818,0,0.00017861,1784.9,6.0343e-05,16.783,5.8109e-05,-0.0028169,-0.00017832,-1776.4,1.6333
19760,16.077,0.90909,0.05,7.8879e-07,7.8824,6.0569e-07,4.551,-2.3615e-12,4.8295e-06,-6.0569e-07,-4.5509,1.6335
19761,16.353,0.90909,0,0.00017181,1717,5.8152e-05,17.422,5.5833e-05,-0.0016879,-0.00017151,-1708.2,1.6765
19762,16.261,0.81818,0,0.00017411,1739.9,5.8891e-05,17.2,5.6601e-05,-0.0028405,-0.00017381,-1731.2,1.6619
19763,16.261,0.90909,0.05,7.8551e-07,7.8497,6.0318e-07,4.5321,-2.8184e-12,5.8393e-06,-6.0317e-07,-4.532,1.6621
19764,16.537,0.90909,0,0.00016734,1672.2,5.6714e-05,17.881,5.4334e-05,-0.00166,-0.00016703,-1663.2,1.7054
19765,16.445,0.81818,0,0.00016962,1695.1,5.7446e-05,17.631,5.51e-05,-0.0028424,-0.00016932,-1686.2,1.6907
19766,16.445,0.90909,0.05,7.8227e-07,7.8173,6.0069e-07,4.5134,-1.9004e-12,6.791e-06,-6.0069e-07,-4.5133,1.6909
19767,16.721,0.90909,0,0.00016289,1627.8,5.5284e-05,18.359,5.2841e-05,-0.001642,-0.00016257,-1618.5,1.7343
19768,16.629,0.81818,0,0.00016516,1650.4,5.601e-05,18.076,5.3604e-05,-0.0028634,-0.00016484,-1641.3,1.7196
19769,16.629,0.90909,0.05,7.7906e-07,7.7853,5.9823e-07,4.4949,-2.3716e-12,6.264e-06,-5.9822e-07,-4.4948,1.7198
19770,16.906,0.90909,0,0.00015846,1583.5,5.3863e-05,18.856,5.1353e-05,-0.001633,-0.00015813,-1573.9,1.7634
19771,16.814,0.81818,0,0.00016071,1606,5.4582e-05,18.539,5.2114e-05,-0.0028902,-0.00016039,-1596.7,1.7486
19772,16.814,0.90909,0.05,7.7589e-07,7.7535,5.9579e-07,4.4765,-2.3615e-12,4.8565e-06,-5.9578e-07,-4.4764,1.7488
19773,17.09,0.90909,0,0.00015404,1539.4,5.245e-05,19.374,4.9872e-05,-0.0016186,-0.0001537,-1529.6,1.7925
19774,16.998,0.81818,0,0.00015629,1561.8,5.3163e-05,19.021,5.0631e-05,-0.0029317,-0.00015596,-1552.2,1.7777
19775,16.998,0.90909,0.05,7.7273e-07,7.722,5.9337e-07,4.4584,-2.3484e-12,5.0283e-06,-5.9336e-07,-4.4583,1.7779
19776,17.274,0.90909,0,0.00014965,1495.5,5.1047e-05,19.917,4.8395e-05,-0.0015818,-0.0001493,-1485.4,1.8218
19777,17.182,0.81818,0,0.00015189,1517.8,5.1751e-05,19.524,4.9153e-05,-0.0029528,-0.00015155,-1508,1.8069
19778,17.182,0.90909,0.05,7.6961e-07,7.6908,5.9097e-07,4.4403,-1.8837e-12,6.3279e-06,-5.9096e-07,-4.4402,1.8071
19779,17.459,0.90909,0,0.00014528,1451.8,4.9652e-05,20.487,4.6925e-05,-0.0015432,-0.00014492,-1441.5,1.8511
19780,17.366,0.81818,0,0.00014751,1474,5.0349e-05,20.05,4.768e-05,-0.0029568,-0.00014715,-1463.9,1.8362
19781,17.366,0.90909,0.05,7.6653e-07,7.66,5.886e-07,4.4225,-2.3913e-12,6.1861e-06,-5.886e-07,-4.4225,1.8364
19782,17.643,0.90909,0,0.00014093,1408.4,4.8266e-05,21.086,4.546e-05,-0.0015104,-0.00014056,-1397.7,1.8806
19783,17.551,0.81818,0,0.00014314,1430.5,4.8956e-05,20.601,4.6213e-05,-0.0029773,-0.00014278,-1420,1.8657
19784,17.551,0.90909,0.05,7.6349e-07,7.6296,5.8627e-07,4.405,-1.9228e-12,7.1523e-06,-5.8626e-07,-4.4049,1.8658
19785,17.827,0.90909,0,0.00013661,1365.1,4.689e-05,21.716,4.4e-05,-0.0014788,-0.00013622,-1354.1,1.9101
19786,17.735,0.81818,0,0.0001388,1387.1,4.7571e-05,21.18,4.4752e-05,-0.0030009,-0.00013843,-1376.4,1.8952
19787,17.735,0.90909,0.05,7.6048e-07,7.5996,5.8396e-07,4.3877,-1.9658e-12,4.4042e-06,-5.8396e-07,-4.3876,1.8953
19788,18.011,0.90909,0,0.0001323,1322.1,4.5524e-05,22.381,4.2545e-05,-0.0014412,-0.0001319,-1310.8,1.9398
19789,17.919,0.81818,0,0.00013448,1343.9,4.6196e-05,21.789,4.3296e-05,-0.0030366,-0.0001341,-1332.9,1.9248
19790,17.919,0.90909,0.05,7.5752e-07,7.57,5.8169e-07,4.3706,-1.9068e-12,4.5526e-06,-5.8168e-07,-4.3705,1.9249
19791,18.196,0.90909,0,0.00012801,1279.3,4.4168e-05,23.084,4.1096e-05,-0.0013817,-0.00012761,-1267.6,1.9695
19792,18.103,0.81818,0,0.00013019,1301,4.4831e-05,22.431,4.1845e-05,-0.003054,-0.00012979,-1289.6,1.9545
19793,18.103,0.90909,0.05,7.5461e-07,7.5408,5.7945e-07,4.3537,-1.8808e-12,8.971e-06,-5.7944e-07,-4.3537,1.9546
19794,18.38,0.90909,0,0.00012375,1236.6,4.2823e-05,23.828,3.9651e-05,-0.001313,-0.00012333,-1224.6,1.9993
19795,18.288,0.81818,0,0.00012591,1258.2,4.3475e-05,23.109,4.0399e-05,-0.0030533,-0.0001255,-1246.5,1.9843
19796,18.288,0.90909,0.05,7.5174e-07,7.5122,5.7725e-07,4.3372,-1.4814e-12,1.2317e-05,-5.7724e-07,-4.3372,1.9844
19797,18.564,0.90909,0,0.00011951,1194.2,4.1488e-05,24.615,3.8211e-05,-0.0012461,-0.00011907,-1181.7,2.0293
19798,18.472,0.81818,0,0.00012165,1215.7,4.2129e-05,23.824,3.8958e-05,-0.0030652,-0.00012123,-1203.6,2.0141
19799,18.472,0.90909,0.05,7.4893e-07,7.4842,5.7509e-07,4.321,-1.5066e-12,1.4267e-05,-5.7509e-07,-4.3209,2.0143
19800,18.748,0.90909,0,0.00011528,1152.1,4.0164e-05,25.451,3.6776e-05,-0.0011757,-0.00011483,-1139.1,2.0592
19801,18.656,0.81818,0,0.00011741,1173.3,4.0794e-05,24.581,3.7522e-05,-0.0030771,-0.00011698,-1160.8,2.0441
19802,18.656,0.90909,0.05,7.4619e-07,7.4567,5.7298e-07,4.3052,-1.4716e-12,1.2305e-05,-5.7298e-07,-4.3051,2.0442
19803,18.933,0.90909,0,0.00011108,1110.1,3.8851e-05,26.337,3.5345e-05,-0.0010918,-0.00011061,-1096.7,2.0893
19804,18.841,0.81818,0,0.0001132,1131.2,3.9469e-05,25.382,3.6091e-05,-0.0030958,-0.00011275,-1118.3,2.0741
19805,18.841,0.90909,0.05,7.435e-07,7.4298,5.7091e-07,4.2897,-6.4575e-13,1.1355e-05,-5.7091e-07,-4.2896,2.0742
19806,19.117,0.90909,0,0.00010691,1068.3,3.755e-05,27.279,3.3919e-05,-0.00097802,-0.00010642,-1054.4,2.1194
19807,19.025,0.81818,0,0.000109,1089.3,3.8155e-05,26.23,3.4664e-05,-0.003095,-0.00010853,-1075.9,2.1042
19808,19.025,0.90909,0.05,7.4087e-07,7.4036,5.689e-07,4.2745,-2.0385e-12,1.1471e-05,-5.689e-07,-4.2744,2.1043
19809,19.301,0.90909,0,0.00010275,1026.8,3.626e-05,28.28,3.2497e-05,-0.00084676,-0.00010224,-1012.3,2.1496
19810,19.209,0.81818,0,0.00010483,1047.6,3.6852e-05,27.13,3.3241e-05,-0.0030694,-0.00010434,-1033.8,2.1344
19811,19.209,0.90909,0.05,7.3833e-07,7.3782,5.6694e-07,4.2598,-2.101e-12,9.5563e-06,-5.6694e-07,-4.2598,2.1345
19812,19.485,0.90909,0,9.8613e-05,985.45,3.4984e-05,29.344,3.1078e-05,-0.00070329,-9.8081e-05,-970.45,2.1799
19813,19.393,0.81818,0,0.00010068,1006.1,3.5561e-05,28.084,3.1823e-05,-0.0030503,-0.00010017,-991.76,2.1646
19814,19.393,0.90909,0.05,7.3586e-07,7.3535,5.6505e-07,4.2456,-1.6128e-12,1.1349e-05,-5.6505e-07,-4.2455,2.1647
19815,19.67,0.90909,0,9.45e-05,944.35,3.3719e-05,30.478,2.9663e-05,-0.00054009,-9.3944e-05,-928.74,2.2102
19816,19.578,0.81818,0,9.6548e-05,964.81,3.4281e-05,29.098,3.0408e-05,-0.0030186,-9.602e-05,-949.93,2.1949
19817,19.578,0.90909,0.05,7.3348e-07,7.3297,5.6322e-07,4.2319,-1.227e-12,1.1678e-05,-5.6322e-07,-4.2318,2.1951
19818,19.854,0.90909,0,9.0408e-05,903.46,3.2469e-05,31.686,2.8251e-05,-0.00034664,-8.9828e-05,-887.2,2.2406
19819,19.762,0.81818,0,9.2438e-05,923.74,3.3014e-05,30.174,2.8997e-05,-0.0029798,-9.1888e-05,-908.29,2.2253
19820,19.762,0.90909,0.05,7.3119e-07,7.3069,5.6147e-07,4.2186,-1.228e-12,9.0854e-06,-5.6146e-07,-4.2186,2.2254
19821,20.038,0.90909,0,8.6339e-05,862.8,3.1232e-05,32.973,2.6843e-05,-0.00010218,-8.5731e-05,-845.84,2.2711
19822,19.946,0.81818,0,8.835e-05,882.89,3.1759e-05,31.318,2.759e-05,-0.0029076,-8.7775e-05,-866.81,2.2557
19823,19.946,0.90909,0.05,7.29e-07,7.2849,5.5978e-07,4.206,-1.3142e-12,3.681e-06,-5.5978e-07,-4.2059,2.2559
19824,20.223,0.90909,0,8.2293e-05,822.36,3.0009e-05,34.347,2.5437e-05,0.00019023,-8.1655e-05,-804.65,2.3016
19825,20.13,0.81818,0,8.4283e-05,842.25,3.0516e-05,32.535,2.6186e-05,-0.0027941,-8.3682e-05,-825.51,2.2862
19826,20.13,0.90909,0.05,7.2691e-07,7.2641,5.5818e-07,4.194,-1.7217e-12,2.0182e-06,-5.5818e-07,-4.1939,2.2864
19827,20.407,0.90909,0,7.8269e-05,782.15,2.8801e-05,35.814,2.4035e-05,0.00053344,-7.7598e-05,-763.63,2.3322
19828,20.315,0.81818,0,8.0238e-05,801.82,2.9288e-05,33.831,2.4785e-05,-0.002654,-7.9609e-05,-784.37,2.3168
19829,20.315,0.90909,0.05,7.2495e-07,7.2445,5.5668e-07,4.1827,-1.6425e-12,3.6586e-06,-5.5667e-07,-4.1826,2.3169
19830,20.591,0.90909,0,7.4269e-05,742.18,2.7609e-05,37.381,2.2634e-05,0.00094266,-7.3562e-05,-722.78,2.3628
19831,20.499,0.81818,0,7.6214e-05,761.62,2.8073e-05,35.211,2.3386e-05,-0.0024696,-7.5554e-05,-743.4,2.3474
19832,20.499,0.90909,0.05,7.2312e-07,7.2262,5.5527e-07,4.1721,-1.6014e-12,5.0175e-06,-5.5526e-07,-4.172,2.3475
19833,20.775,0.90909,0,7.0293e-05,702.44,2.6433e-05,39.059,2.1235e-05,0.0014435,-6.9547e-05,-682.1,2.3935
19834,20.683,0.81818,0,7.2214e-05,721.64,2.6873e-05,36.683,2.199e-05,-0.0022314,-7.152e-05,-702.6,2.3781
19835,20.683,0.90909,0.05,7.2142e-07,7.2092,5.5396e-07,4.1623,-1.0588e-12,7.1312e-06,-5.5396e-07,-4.1622,2.3781
19836,20.96,0.90909,0,6.6341e-05,662.95,2.5275e-05,40.856,1.9838e-05,0.002068,-6.5552e-05,-641.58,2.4242
19837,20.867,0.81818,0,6.8236e-05,681.89,2.5688e-05,38.254,2.0596e-05,-0.0019042,-6.7505e-05,-661.96,2.4088
19838,20.867,0.90909,0.05,7.1986e-07,7.1937,5.5277e-07,4.1533,-1.3035e-12,5.1466e-06,-5.5276e-07,-4.1532,2.4088
19839,21.144,0.90909,0,6.2416e-05,623.73,2.4136e-05,42.785,1.8442e-05,0.0028351,-6.1577e-05,-601.23,2.455
19840,21.052,0.81818,0,6.4282e-05,642.37,2.4519e-05,39.935,1.9204e-05,-0.001465,-6.3509e-05,-621.48,2.4395
19841,21.052,0.90909,0.05,7.1848e-07,7.1798,5.517e-07,4.1453,-1.0711e-12,6.2389e-06,-5.517e-07,-4.1453,2.4396
19842,21.328,0.90909,0,5.8517e-05,584.77,2.3016e-05,44.861,1.7046e-05,0.0037813,-5.7625e-05,-561.05,2.4858
19843,21.236,0.81818,0,6.0352e-05,603.11,2.3368e-05,41.735,1.7813e-05,-0.00090055,-5.9534e-05,-581.16,2.4703
19844,21.236,0.90909,0.05,7.1728e-07,7.1678,5.5078e-07,4.1384,-1.3068e-12,2.9462e-06,-5.5078e-07,-4.1383,2.4704
19845,21.512,0.90909,0,5.4648e-05,546.11,2.1919e-05,47.099,1.5651e-05,0.0049634,-5.3694e-05,-521.03,2.5166
19846,21.42,0.81818,0,5.6449e-05,564.1,2.2235e-05,43.668,1.6423e-05,-0.00015837,-5.5579e-05,-541,2.5011
19847,21.42,0.90909,0.05,7.1627e-07,7.1578,5.5001e-07,4.1326,-1.0544e-12,-3.8014e-07,-5.5001e-07,-4.1325,2.5012
19848,21.697,0.90909,0,5.0811e-05,507.76,2.0845e-05,49.521,1.4255e-05,0.0064548,-4.9787e-05,-481.19,2.5475
19849,21.605,0.81818,0,5.2574e-05,525.37,2.1123e-05,45.75,1.5034e-05,0.00081093,-5.1646e-05,-501,2.532
19850,21.605,0.90909,0.05,7.155e-07,7.15,5.4941e-07,4.1281,-9.8864e-13,3.8096e-06,-5.4941e-07,-4.1281,2.5321
19851,21.881,0.90909,0,4.701e-05,469.77,1.9799e-05,52.153,1.2859e-05,0.0083656,-4.5905e-05,-441.52,2.5784
19852,21.789,0.81818,0,4.8729e-05,486.96,2.0033e-05,48.001,1.3644e-05,0.0021001,-4.7735e-05,-461.18,2.5629
19853,21.789,0.90909,0.05,7.1498e-07,7.1448,5.4901e-07,4.1251,-1.0783e-12,4.4608e-06,-5.4901e-07,-4.125,2.563
19854,22.065,0.90909,0,4.3249e-05,432.19,1.8783e-05,55.027,1.146e-05,0.010831,-4.2049e-05,-402.04,2.6094
19855,21.973,0.81818,0,4.4919e-05,448.88,1.8968e-05,50.447,1.2254e-05,0.0038294,-4.3847e-05,-421.52,2.5938
19856,21.973,0.90909,0.05,7.1476e-07,7.1426,5.4885e-07,4.1238,-1.3042e-12,4.2202e-06,-5.4884e-07,-4.1238,2.5939
19857,22.249,0.90909,0,3.9535e-05,395.08,1.7801e-05,58.185,1.0059e-05,0.01404,-3.8223e-05,-362.76,2.6404
19858,22.157,0.81818,0,4.1148e-05,411.2,1.7932e-05,53.12,1.0863e-05,0.0061342,-3.9986e-05,-382.06,2.6248
19859,22.157,0.90909,0.05,7.149e-07,7.1441,5.4896e-07,4.1247,-1.6406e-12,3.8507e-06,-5.4895e-07,-4.1246,2.6248
19860,22.434,0.90909,0,3.5879e-05,358.54,1.6861e-05,61.683,8.6541e-06,0.018299,-3.4429e-05,-323.69,2.6713
19861,22.342,0.81818,0,3.7425e-05,373.99,1.693e-05,56.064,9.4694e-06,0.0092482,-3.6154e-05,-342.79,2.6558
19862,22.342,0.90909,0.05,7.1549e-07,7.1499,5.4941e-07,4.128,-9.0039e-13,3.0502e-06,-5.494e-07,-4.128,2.6558
19863,22.618,0.90909,0,3.2293e-05,322.71,1.597e-05,65.589,7.2435e-06,0.023995,-3.0673e-05,-284.87,2.7024
19864,22.526,0.81818,0,3.3759e-05,337.35,1.5968e-05,59.335,8.0725e-06,0.013552,-3.2355e-05,-303.75,2.6868
19865,22.526,0.90909,0.05,7.1665e-07,7.1615,5.503e-07,4.1347,-1.4647e-12,-2.2795e-06,-5.5029e-07,-4.1347,2.6868
19866,22.802,0.90909,0,2.8797e-05,287.78,1.5137e-05,69.998,5.8255e-06,0.032057,-2.6961e-05,-246.31,2.7334
19867,22.71,0.81818,0,3.0166e-05,301.45,1.5055e-05,63.012,6.6707e-06,0.019446,-2.8595e-05,-264.96,2.7178
19868,22.71,0.90909,0.05,7.1857e-07,7.1807,5.5177e-07,4.1458,-1.6117e-12,-9.1311e-06,-5.5177e-07,-4.1458,2.7179
19869,22.987,0.90909,0,2.542e-05,254.03,1.4377e-05,75.026,4.3972e-06,0.042767,-2.3299e-05,-208.05,2.7645
19870,22.894,0.81818,0,2.6668e-05,266.5,1.4202e-05,67.2,5.262e-06,0.028416,-2.4881e-05,-226.46,2.7489
19871,22.894,0.90909,0.05,7.2154e-07,7.2104,5.5405e-07,4.163,-1.3375e-12,-8.976e-06,-5.5405e-07,-4.1629,2.7489
19872,23.171,0.90909,0,2.2203e-05,221.88,1.3704e-05,80.824,2.9552e-06,0.061847,-1.9695e-05,-170.12,2.7955
19873,23.079,0.81818,0,2.33e-05,232.84,1.3426e-05,72.039,3.8432e-06,0.039619,-2.1223e-05,-188.3,2.7799
19874,23.079,0.90909,0.05,7.2602e-07,7.2552,5.575e-07,4.1888,-9.4265e-13,-1.2048e-06,-5.5749e-07,-4.1888,2.78
19875,23.355,0.90909,0,1.9206e-05,191.93,1.3135e-05,87.556,1.4931e-06,0.079946,-1.6156e-05,-132.53,2.8266
19876,23.263,0.81818,0,2.0114e-05,201,1.2746e-05,77.717,2.4109e-06,0.065543,-1.7631e-05,-150.52,2.811
19877,23.263,0.90909,0.05,7.3269e-07,7.3219,5.6262e-07,4.2273,-1.0567e-12,-4.4326e-06,-5.6262e-07,-4.2273,2.8111
19878,23.539,0.90909,0,1.652e-05,165.08,1.2687e-05,95.417,9.4181e-09,0.16475,-1.2683e-05,-95.203,2.8577
19879,23.447,0.81818,0,1.7186e-05,171.74,1.2185e-05,84.445,9.5592e-07,0.076005,-1.4115e-05,-113.16,2.8421
19880,23.447,0.90909,0.05,7.4249e-07,7.4198,5.7014e-07,4.2838,-3.1894e-13,-3.6291e-06,-5.7014e-07,-4.2838,2.8422
19881,23.724,0.90909,0,1.4285e-05,142.75,1.2376e-05,104.53,-1.519e-06,0.13128,-9.2737e-06,-58.135,2.8888
19882,23.631,0.81818,0,1.4638e-05,146.28,1.1765e-05,92.517,-5.1678e-07,0.23875,-1.0683e-05,-76.144,2.8732
19883,23.631,0.90909,0.05,7.5748e-07,7.5696,5.8165e-07,4.3703,-9.5961e-13,-7.537e-06,-5.8165e-07,-4.3703,2.8733
19884,23.816,0.81818,0,1.2664e-05,126.55,1.1517e-05,102.05,-2.0581e-06,0.0479,-7.3318e-06,-39.577,2.9043
19885,23.816,0.90909,0.05,7.9509e-07,7.9454,6.1053e-07,4.5873,-6.4569e-13,-3.712e-06,-6.1053e-07,-4.5873,2.9044
19886,23.908,0.90909,0,1.2623e-05,126.14,1.2091e-05,113.54,-2.9685e-06,0.39248,-6.0104e-06,-22.463,2.9199
19887,1.2431,0.72727,0,0.00030639,3061.8,0.00017058,865.31,5.4649e-05,-5.7501,-0.00028232,-2537.6,0.0070462
19888,1.1509,0.63636,0,0.00027363,2734.4,0.00016171,893.65,4.1374e-05,-10.493,-0.00024715,-2178.3,0.0027543
19889,1.1509,0.72727,0.05,1.642e-05,164.08,1.2608e-05,94.734,1.0259e-13,-2.0095e-14,-1.2608e-05,-94.734,0.0020506
19890,1.0588,0.72727,0,0.00025031,2501.4,0.00015061,860.17,3.6506e-05,2.8049,-0.00022435,-1957.2,0.0035215
19891,1.4273,0.72727,0,0.00032348,3232.6,0.00015508,593.76,7.5821e-05,-1.7673,-0.00030926,-2895.1,0.015912
19892,1.3352,0.63636,0,0.0002804,2802.1,0.00013834,564.53,6.3036e-05,-1.2837,-0.0002665,-2477.3,0.010548
19893,1.3352,0.72727,0.05,1.2841e-05,128.32,9.8603e-06,74.086,5.1402e-12,5.5007e-05,-9.8603e-06,-74.086,0.01113
19894,1.6116,0.72727,0,0.00035876,3585.1,0.00015605,458.17,9.4771e-05,-2.2688,-0.00034878,-3334.9,0.025109
19895,1.5195,0.63636,0,0.00031755,3173.3,0.00014002,428.74,8.259e-05,-2.7953,-0.00030809,-2938.2,0.019657
19896,1.5195,0.72727,0.05,1.1448e-05,114.4,8.7907e-06,66.05,7.557e-12,8.6269e-05,-8.7907e-06,-66.05,0.020319
19897,1.7959,0.72727,0,0.00039524,3949.6,0.00016104,370.61,0.0001115,-1.6546,-0.00038764,-3752,0.034539
19898,1.7037,0.63636,0,0.00035926,3590.2,0.00014774,353.47,0.00010047,-1.6575,-0.00035196,-3401.1,0.029018
19899,1.7037,0.72727,0.05,9.763e-06,97.563,7.4968e-06,56.328,9.765e-12,8.9804e-05,-7.4968e-06,-56.328,0.029677
19900,1.9801,0.72727,0,0.00042759,4273,0.00016629,303.82,0.00012567,-1.3773,-0.00042163,-4113.6,0.044221
19901,1.888,0.63636,0,0.0003977,3974.2,0.00015605,299.49,0.00011601,-1.314,-0.00039177,-3816.6,0.038613
19902,1.888,0.72727,0.05,8.061e-06,80.554,6.1898e-06,46.508,8.8349e-12,0.0001039,-6.1898e-06,-46.508,0.039253
19903,2.1644,0.72727,0,0.00045412,4538,0.0001704,247.13,0.00013735,-1.1284,-0.00044942,-4409.9,0.054181
19904,2.0723,0.63636,0,0.00043011,4298.1,0.00016294,253.07,0.00012913,-0.98381,-0.00042525,-4166.4,0.048466
19905,2.0723,0.72727,0.05,6.4991e-06,64.946,4.9905e-06,37.497,9.2604e-12,0.00011599,-4.9905e-06,-37.496,0.049085
19906,2.3487,0.72727,0,0.00047473,4744,0.00017303,196.55,0.00014674,-0.96292,-0.00047109,-4643.1,0.064441
19907,2.2565,0.63636,0,0.00045597,4556.6,0.00016791,209.66,0.0001399,-0.78722,-0.00045206,-4448.5,0.058602
19908,2.2565,0.72727,0.05,5.1467e-06,51.432,3.9521e-06,29.694,1.1355e-11,0.00012187,-3.9521e-06,-29.694,0.059202
19909,2.5329,0.72727,0,0.00049003,4896.9,0.00017431,150.97,0.0001541,-0.85733,-0.0004873,-4820.1,0.075019
19910,2.4408,0.63636,0,0.00047578,4754.5,0.00017105,168.59,0.00014853,-0.65097,-0.0004727,-4668.3,0.069041
19911,2.4408,0.72727,0.05,4.0153e-06,40.126,3.0833e-06,23.167,7.9504e-12,0.00011758,-3.0833e-06,-23.166,0.069626
19912,2.7172,0.72727,0,0.00050085,5005,0.0001745,110.27,0.00015972,-0.81587,-0.00049889,-4949.3,0.085927
19913,2.6251,0.63636,0,0.00049035,4900.1,0.00017269,130.34,0.00015527,-0.57042,-0.00048801,-4833.9,0.079799
19914,2.6251,0.72727,0.05,3.0899e-06,30.878,2.3727e-06,17.828,8.6733e-12,0.00012372,-2.3727e-06,-17.827,0.080372
19915,2.9015,0.72727,0,0.000508,5076.5,0.0001739,74.55,0.00016386,-0.8558,-0.0005067,-5039.2,0.097173
19916,2.8093,0.63636,0,0.00050056,5002.2,0.00017318,95.584,0.00016038,-0.53848,-0.00049888,-4953.9,0.090887
19917,2.8093,0.72727,0.05,2.3476e-06,23.459,1.8026e-06,13.544,1.2125e-11,0.00015716,-1.8026e-06,-13.544,0.091451
19918,3.0857,0.72727,0,0.00051222,5118.6,0.00017275,43.89,0.00016676,-1.056,-0.00051147,-5097.1,0.10876
19919,2.9936,0.63636,0,0.00050725,5069,0.00017283,64.815,0.00016412,-0.56647,-0.00050612,-5036.5,0.10231
19920,2.9936,0.72727,0.05,1.766e-06,17.647,1.356e-06,10.189,1.9478e-11,0.00018106,-1.356e-06,-10.189,0.10287
19921,3.27,0.72727,0,0.00051412,5137.7,0.0001713,18.599,0.00016858,-1.8582,-0.00051383,-5129.3,0.1207
19922,3.1779,0.63636,0,0.00051112,5107.7,0.0001719,38.295,0.00016671,-0.70776,-0.00051047,-5088.7,0.11408
19923,3.1779,0.72727,0.05,1.3279e-06,13.27,1.0197e-06,7.6614,2.5116e-11,0.00021561,-1.0197e-06,-7.6614,0.11464
19924,3.4543,0.72727,0,0.00051422,5138.7,0.00017037,3.2573,0.00016885,-8.1158,-0.0005143,-5141.1,0.13299
19925,3.3621,0.63636,0,0.00051277,5124.2,0.00017064,16.309,0.0001683,-1.2704,-0.00051251,-5116.6,0.1262
19926,3.3621,0.72727,0.05,1.0224e-06,10.217,7.8505e-07,5.8986,2.9373e-11,0.00029718,-7.8506e-07,-5.8986,0.12675
19927,3.6385,0.72727,0,0.00051293,5125.7,0.00017049,0.89127,0.00016728,-23.221,-0.0005133,-5136.8,0.14562
19928,3.5464,0.63636,0,0.00051269,5123.3,0.00016971,2.6273,0.00016854,-6.2229,-0.00051275,-5125.1,0.13867
19929,3.5464,0.72727,0.05,8.4068e-07,8.401,6.4553e-07,4.8503,2.9982e-11,0.00031141,-6.4555e-07,-4.8503,0.13921
19930,3.8228,0.72727,0,0.00051056,5102.1,0.00017033,0.45205,0.00016541,-36.55,-0.00051117,-5120,0.15861
19931,3.7307,0.63636,0,0.00051126,5109.1,0.00016973,0.68543,0.00016707,-19.313,-0.00051158,-5118.4,0.15148
19932,3.7307,0.72727,0.05,7.6507e-07,7.6454,5.8747e-07,4.4141,2.4744e-11,0.00021387,-5.8749e-07,-4.4141,0.15203
19933,4.0071,0.72727,0,0.00050738,5070.3,0.00016978,0.28561,0.0001635,-46.897,-0.00050816,-5093.5,0.17194
19934,3.9149,0.63636,0,0.0005088,5084.5,0.00016946,0.35482,0.00016531,-30.785,-0.00050932,-5099.7,0.16464
19935,3.9149,0.72727,0.05,7.6209e-07,7.6157,5.8519e-07,4.397,1.0772e-11,0.00015701,-5.852e-07,-4.3969,0.16519
19936,4.1913,0.72727,0,0.00050359,5032.4,0.00016889,0.20143,0.00016161,-54.516,-0.00050449,-5059.4,0.18562
19937,4.0992,0.63636,0,0.00050556,5052.1,0.00016881,0.23032,0.00016351,-39.631,-0.00050622,-5071.7,0.17815
19938,4.0992,0.72727,0.05,7.9558e-07,7.9503,6.1091e-07,4.5902,8.8544e-12,0.00010951,-6.1091e-07,-4.5901,0.17869
19939,4.3756,0.72727,0,0.00049933,4989.9,0.00016775,0.15177,0.00015977,-59.784,-0.00050032,-5019.4,0.19964
19940,4.2835,0.63636,0,0.00050171,5013.7,0.00016786,0.1667,0.0001617,-46.103,-0.00050248,-5036.5,0.192
19941,4.2835,0.72727,0.05,8.408e-07,8.4022,6.4564e-07,4.8511,4.6393e-12,7.6659e-05,-6.4563e-07,-4.8509,0.19254
19942,4.5599,0.72727,0,0.00049473,4943.9,0.00016639,0.11946,0.00015798,-63.076,-0.00049577,-4975.1,0.214
19943,4.4677,0.63636,0,0.00049742,4970.7,0.00016666,0.12851,0.00015991,-50.539,-0.00049826,-4995.8,0.20619
19944,4.4677,0.72727,0.05,8.852e-07,8.8459,6.7973e-07,5.1073,-8.2843e-13,5.6627e-05,-6.7972e-07,-5.1071,0.20674
19945,4.7441,0.72727,0,0.00048988,4895.4,0.00016486,0.096935,0.00015624,-64.739,-0.00049095,-4927.4,0.2287
19946,4.652,0.63636,0,0.00049278,4924.4,0.00016526,0.10315,0.00015816,-53.273,-0.00049367,-4950.8,0.22072
19947,4.652,0.72727,0.05,9.2365e-07,9.2301,7.0926e-07,5.3291,-8.8458e-13,4.4029e-05,-7.0924e-07,-5.3289,0.22127
19948,4.9284,0.72727,0,0.00048484,4845,0.00016322,0.080423,0.00015454,-65.081,-0.00048591,-4877.2,0.24373
19949,4.8363,0.63636,0,0.0004879,4875.6,0.00016371,0.085091,0.00015643,-54.609,-0.00048881,-4902.7,0.23558
19950,4.8363,0.72727,0.05,9.5469e-07,9.5403,7.3309e-07,5.5082,-2.4101e-12,3.6431e-05,-7.3308e-07,-5.508,0.23613
19951,5.1127,0.72727,0,0.00047966,4793.3,0.00016147,0.067838,0.0001529,-64.374,-0.00048073,-4825.2,0.25909
19952,5.0205,0.63636,0,0.00048283,4825,0.00016205,0.071563,0.00015474,-54.817,-0.00048374,-4852.1,0.25078
19953,5.0205,0.72727,0.05,9.7849e-07,9.7782,7.5137e-07,5.6455,-2.4454e-12,3.031e-05,-7.5136e-07,-5.6453,0.25133
19954,5.2969,0.72727,0,0.00047439,4740.7,0.00015966,0.057954,0.00015129,-62.847,-0.00047543,-4771.8,0.27477
19955,5.2048,0.63636,0,0.00047763,4773,0.0001603,0.061042,0.00015308,-54.131,-0.00047853,-4799.8,0.2663
19956,5.2048,0.72727,0.05,9.9588e-07,9.952,7.6472e-07,5.7459,-2.7853e-12,2.5651e-05,-7.6471e-07,-5.7457,0.26685
19957,5.4812,0.72727,0,0.00046906,4687.4,0.00015779,0.050004,0.00014971,-60.699,-0.00047006,-4717.4,0.29078
19958,5.3891,0.63636,0,0.00047234,4720.1,0.00015848,0.052624,0.00015145,-52.75,-0.00047321,-4746.2,0.28216
19959,5.3891,0.72727,0.05,1.0079e-06,10.072,7.7393e-07,5.815,-4.1006e-12,2.3326e-05,-7.7391e-07,-5.8148,0.2827
19960,5.6655,0.72727,0,0.00046368,4633.6,0.00015589,0.043486,0.00014815,-58.093,-0.00046464,-4662.3,0.30711
19961,5.5733,0.63636,0,0.00046698,4666.5,0.00015662,0.045738,0.00014984,-50.844,-0.00046782,-4691.7,0.29833
19962,5.5733,0.72727,0.05,1.0154e-06,10.147,7.7975e-07,5.8588,-4.1929e-12,2.1334e-05,-7.7973e-07,-5.8585,0.29887
19963,5.8497,0.72727,0,0.00045827,4579.5,0.00015396,0.038058,0.00014661,-55.164,-0.00045918,-4606.9,0.32376
19964,5.7576,0.63636,0,0.00046157,4612.5,0.00015472,0.040006,0.00014825,-48.553,-0.00046238,-4636.6,0.31482
19965,5.7576,0.72727,0.05,1.0195e-06,10.188,7.8286e-07,5.8822,-4.6047e-12,1.8052e-05,-7.8285e-07,-5.882,0.31536
19966,6.034,0.72727,0,0.00045285,4525.3,0.00015201,0.033481,0.00014508,-52.023,-0.00045371,-4551.1,0.34071
19967,5.9419,0.63636,0,0.00045614,4558.2,0.0001528,0.035168,0.00014667,-45.993,-0.0004569,-4581,0.33162
19968,5.9419,0.72727,0.05,1.0208e-06,10.201,7.8386e-07,5.8897,-4.9389e-12,1.6257e-05,-7.8385e-07,-5.8895,0.33216
19969,6.2183,0.72727,0,0.00044741,4471,0.00015006,0.029579,0.00014356,-48.76,-0.00044822,-4495.2,0.35798
19970,6.1261,0.63636,0,0.00045068,4503.7,0.00015087,0.031037,0.0001451,-43.257,-0.0004514,-4525.2,0.34873
19971,6.1261,0.72727,0.05,1.02e-06,10.193,7.8323e-07,5.885,-5.4367e-12,1.4671e-05,-7.8322e-07,-5.8847,0.34927
19972,6.4025,0.72727,0,0.00044198,4416.7,0.0001481,0.026224,0.00014205,-45.445,-0.00044273,-4439.3,0.37555
19973,6.3104,0.63636,0,0.00044523,4449.2,0.00014893,0.027479,0.00014354,-40.422,-0.0004459,-4469.3,0.36616
19974,6.3104,0.72727,0.05,1.0176e-06,10.169,7.8137e-07,5.871,-5.5788e-12,1.388e-05,-7.8136e-07,-5.8708,0.36669
19975,6.5868,0.72727,0,0.00043655,4362.5,0.00014614,0.023316,0.00014053,-42.134,-0.00043725,-4383.4,0.39342
19976,6.4947,0.63636,0,0.00043977,4394.7,0.00014698,0.024389,0.00014198,-37.547,-0.0004404,-4413.3,0.38388
19977,6.4947,0.72727,0.05,1.0139e-06,10.132,7.786e-07,5.8501,-5.5314e-12,1.1773e-05,-7.7858e-07,-5.8499,0.38441
19978,6.7711,0.72727,0,0.00043112,4308.3,0.00014419,0.020779,0.00013902,-38.869,-0.00043177,-4327.6,0.41158
19979,6.6789,0.63636,0,0.00043432,4340.2,0.00014504,0.021687,0.00014042,-34.679,-0.0004349,-4357.4,0.4019
19980,6.6789,0.72727,0.05,1.0095e-06,10.088,7.7515e-07,5.8243,-7.62e-12,1.074e-05,-7.7514e-07,-5.824,0.40243
19981,6.9553,0.72727,0,0.00042571,4254.2,0.00014225,0.018554,0.0001375,-35.684,-0.0004263,-4271.9,0.43004
19982,6.8632,0.63636,0,0.00042887,4285.7,0.0001431,0.019311,0.00013886,-31.855,-0.0004294,-4301.6,0.42022
19983,6.8632,0.72727,0.05,1.0044e-06,10.037,7.7124e-07,5.7949,-6.1847e-12,1.0756e-05,-7.7123e-07,-5.7947,0.42074
19984,7.1396,0.72727,0,0.00042031,4200.2,0.00014031,0.016592,0.00013597,-32.602,-0.00042085,-4216.4,0.44879
19985,7.0475,0.63636,0,0.00042343,4231.4,0.00014117,0.017213,0.0001373,-29.101,-0.00042392,-4245.9,0.43883
19986,7.0475,0.72727,0.05,9.9888e-07,9.9819,7.6703e-07,5.7632,-6.148e-12,8.8497e-06,-7.6701e-07,-5.763,0.43935
19987,7.3239,0.72727,0,0.00041491,4146.3,0.00013839,0.014857,0.00013444,-29.639,-0.00041541,-4161,0.46782
19988,7.2317,0.63636,0,0.00041801,4177.2,0.00013925,0.015351,0.00013573,-26.438,-0.00041846,-4190.4,0.45772
19989,7.2317,0.72727,0.05,9.9313e-07,9.9244,7.6261e-07,5.73,-6.171e-12,8.5434e-06,-7.6259e-07,-5.7298,0.45824
19990,7.5081,0.72727,0,0.00040954,4092.5,0.00013647,0.013317,0.0001329,-26.807,-0.00040999,-4105.9,0.48714
19991,7.416,0.63636,0,0.0004126,4123.2,0.00013734,0.013695,0.00013416,-23.879,-0.000413,-4135.1,0.4769
19992,7.416,0.72727,0.05,9.8724e-07,9.8656,7.5808e-07,5.696,-6.5254e-12,6.8348e-06,-7.5807e-07,-5.6958,0.47741
19993,7.6924,0.72727,0,0.00040417,4038.9,0.00013457,0.011947,0.00013136,-24.113,-0.00040458,-4050.9,0.50673
19994,7.6003,0.63636,0,0.00040721,4069.3,0.00013544,0.012216,0.00013259,-21.433,-0.00040757,-4079.9,0.49636
19995,7.6003,0.72727,0.05,9.8129e-07,9.8061,7.5352e-07,5.6617,-6.5083e-12,6.7783e-06,-7.535e-07,-5.6615,0.49687
19996,7.8767,0.72727,0,0.00039882,3985.5,0.00013268,0.010727,0.00012981,-21.559,-0.00039919,-3996.2,0.5266
19997,7.7845,0.63636,0,0.00040183,4015.5,0.00013355,0.010895,0.00013101,-19.106,-0.00040215,-4025,0.5161
19998,7.7845,0.72727,0.05,9.7535e-07,9.7468,7.4895e-07,5.6274,-4.866e-12,6.5219e-06,-7.4894e-07,-5.6272,0.5166
19999,8.0609,0.72727,0,0.00039349,3932.2,0.0001308,0.0096401,0.00012825,-19.146,-0.00039381,-3941.7,0.54674
20000,7.9688,0.63636,0,0.00039647,3961.9,0.00013167,0.0097126,0.00012942,-16.9,-0.00039675,-3970.3,0.53611
20001,7.9688,0.72727,0.05,9.6946e-07,9.6879,7.4443e-07,5.5935,-6.6899e-12,6.0002e-06,-7.4442e-07,-5.5932,0.53661
20002,8.2452,0.72727,0,0.00038817,3879,0.00012893,0.0086741,0.00012669,-16.872,-0.00038846,-3887.4,0.56715
20003,8.1531,0.63636,0,0.00039112,3908.5,0.0001298,0.008656,0.00012783,-14.815,-0.00039137,-3915.9,0.55639
20004,8.1531,0.72727,0.05,9.6366e-07,9.63,7.3998e-07,5.56,-4.9385e-12,5.0589e-06,-7.3997e-07,-5.5598,0.55688
20005,8.4295,0.72727,0,0.00038287,3826,0.00012708,0.0078196,0.00012511,-14.733,-0.00038312,-3833.4,0.58782
20006,8.3373,0.63636,0,0.00038579,3855.2,0.00012795,0.0077131,0.00012624,-12.85,-0.00038601,-3861.7,0.57693
20007,8.3373,0.72727,0.05,9.5797e-07,9.5731,7.3561e-07,5.5271,-5.0241e-12,4.3144e-06,-7.3559e-07,-5.5269,0.57742
20008,8.6137,0.72727,0,0.00037758,3773.2,0.00012523,0.0070711,0.00012354,-12.726,-0.0003778,-3779.5,0.60874
20009,8.5216,0.63636,0,0.00038048,3802.2,0.0001261,0.0068783,0.00012464,-11.001,-0.00038066,-3807.6,0.59774
20010,8.5216,0.72727,0.05,9.5239e-07,9.5173,7.3132e-07,5.4949,-5.065e-12,4.6457e-06,-7.3131e-07,-5.4947,0.59822
20011,8.798,0.72727,0,0.00037231,3720.5,0.0001234,0.0064261,0.00012196,-10.845,-0.00037249,-3725.9,0.62993
20012,8.7059,0.63636,0,0.00037518,3749.2,0.00012427,0.0061476,0.00012304,-9.2652,-0.00037534,-3753.9,0.6188
20013,8.7059,0.72727,0.05,9.4694e-07,9.4629,7.2714e-07,5.4635,-6.9086e-12,3.9409e-06,-7.2712e-07,-5.4633,0.61928
20014,8.9823,0.72727,0,0.00036706,3668,0.00012158,0.0058893,0.00012037,-9.0849,-0.00036721,-3672.6,0.65137
20015,8.8901,0.63636,0,0.00036991,3696.5,0.00012245,0.0055242,0.00012143,-7.6372,-0.00037003,-3700.3,0.64012
20016,8.8901,0.72727,0.05,9.4162e-07,9.4097,7.2305e-07,5.4328,-6.0193e-12,4.3848e-06,-7.2304e-07,-5.4326,0.64059
20017,9.1665,0.72727,0,0.00036182,3615.7,0.00011977,0.0054746,0.00011878,-7.4386,-0.00036194,-3619.4,0.67306
20018,9.0744,0.63636,0,0.00036464,3643.9,0.00012064,0.0050216,0.00011982,-6.1123,-0.00036475,-3647,0.66169
20019,9.0744,0.72727,0.05,9.3642e-07,9.3578,7.1906e-07,5.4028,-5.2199e-12,3.3787e-06,-7.1905e-07,-5.4026,0.66215
20020,9.3508,0.72727,0,0.0003566,3563.5,0.00011797,0.0052155,0.00011718,-5.9002,-0.0003567,-3566.4,0.69499
20021,9.2587,0.63636,0,0.0003594,3591.5,0.00011884,0.0046757,0.00011821,-4.6852,-0.00035948,-3593.9,0.6835
20022,9.2587,0.72727,0.05,9.3135e-07,9.3071,7.1517e-07,5.3735,-6.1094e-12,3.4974e-06,-7.1515e-07,-5.3734,0.68396
20023,9.5351,0.72727,0,0.00035139,3511.5,0.00011618,0.0051891,0.00011559,-4.4636,-0.00035147,-3513.7,0.71716
20024,9.4429,0.63636,0,0.00035418,3539.3,0.00011704,0.0045851,0.0001166,-3.3505,-0.00035423,-3541,0.70556
20025,9.4429,0.72727,0.05,9.264e-07,9.2576,7.1137e-07,5.345,-5.2034e-12,3.0183e-06,-7.1135e-07,-5.3448,0.70602
20026,9.7193,0.72727,0,0.00034621,3459.7,0.0001144,0.0056022,0.00011399,-3.1227,-0.00034626,-3461.2,0.73958
20027,9.6272,0.63636,0,0.00034897,3487.3,0.00011526,0.0050683,0.00011498,-2.1032,-0.00034901,-3488.3,0.72786
20028,9.6272,0.72727,0.05,9.2156e-07,9.2093,7.0765e-07,5.3171,-4.3907e-12,3.3891e-06,-7.0764e-07,-5.3169,0.72831
20029,9.9036,0.72727,0,0.00034104,3408,0.00011264,0.007162,0.00011238,-1.8721,-0.00034107,-3408.9,0.76222
20030,9.8115,0.63636,0,0.00034378,3435.4,0.0001135,0.0079571,0.00011337,-0.93973,-0.0003438,-3435.9,0.7504
20031,9.8115,0.72727,0.05,9.1683e-07,9.162,7.0402e-07,5.2898,-6.2005e-12,3.901e-06,-7.0401e-07,-5.2896,0.75084
20032,10.088,0.72727,0,0.00033588,3356.5,0.00011088,0.014937,0.00011078,-0.71081,-0.00033589,-3356.9,0.7851
20033,9.9957,0.63636,0,0.00033861,3383.8,0.00011176,0.1879,0.00011173,-0.029362,-0.00033861,-3383.7,0.77317
20034,9.9957,0.72727,0.05,9.1221e-07,9.1158,7.0047e-07,5.2631,-7.1569e-12,3.1427e-06,-7.0046e-07,-5.2629,0.77361
20035,10.272,0.72727,0,0.00033075,3305.2,0.00010918,0.41707,0.00010912,-0.021317,-0.00033074,-3305,0.80821
20036,10.18,0.63636,0,0.00033346,3332.3,0.00011014,1.1817,0.00010998,-0.0038591,-0.00033344,-3331.7,0.79617
20037,10.18,0.72727,0.05,9.0768e-07,9.0705,6.9699e-07,5.237,-5.3218e-12,3.7988e-06,-6.9698e-07,-5.2368,0.7966
20038,10.456,0.72727,0,0.00032563,3254.1,0.00010758,1.421,0.00010739,-0.0056613,-0.00032561,-3253.4,0.83154
20039,10.364,0.63636,0,0.00032833,3281,0.00010853,2.1332,0.00010824,-0.0020589,-0.00032829,-3279.9,0.81939
20040,10.364,0.72727,0.05,9.0324e-07,9.0262,6.9358e-07,5.2113,-4.4644e-12,2.8685e-06,-6.9357e-07,-5.2112,0.81982
20041,10.641,0.72727,0,0.00032053,3203.1,0.00010597,2.3716,0.00010566,-0.0033473,-0.00032049,-3201.9,0.85509
20042,10.549,0.63636,0,0.00032321,3229.9,0.00010691,3.0246,0.00010651,-0.001654,-0.00032316,-3228.4,0.84284
20043,10.549,0.72727,0.05,8.9888e-07,8.9826,6.9023e-07,5.1862,-4.4698e-12,3.6451e-06,-6.9023e-07,-5.186,0.84326
20044,10.825,0.72727,0,0.00031545,3152.3,0.00010437,3.262,0.00010394,-0.0025429,-0.0003154,-3150.7,0.87885
20045,10.733,0.63636,0,0.00031811,3178.9,0.0001053,3.8595,0.00010479,-0.0015658,-0.00031805,-3177,0.86651
20046,10.733,0.72727,0.05,8.9459e-07,8.9397,6.8694e-07,5.1614,-5.4052e-12,2.9242e-06,-6.8693e-07,-5.1613,0.86692
20047,11.009,0.72727,0,0.00031039,3101.7,0.00010277,4.0958,0.00010223,-0.0022096,-0.00031032,-3099.7,0.90284
20048,10.917,0.63636,0,0.00031303,3128.2,0.00010369,4.6421,0.00010307,-0.001572,-0.00031296,-3125.9,0.89039
20049,10.917,0.72727,0.05,8.9038e-07,8.8976,6.837e-07,5.1371,-4.4898e-12,2.2164e-06,-6.8369e-07,-5.137,0.89079
20050,11.193,0.72727,0,0.00030534,3051.3,0.00010117,4.8771,0.00010052,-0.0020981,-0.00030526,-3048.9,0.92703
20051,11.101,0.63636,0,0.00030798,3077.6,0.00010208,5.3761,0.00010137,-0.001674,-0.00030788,-3074.9,0.91448
20052,11.101,0.72727,0.05,8.8624e-07,8.8563,6.8053e-07,5.1132,-5.4162e-12,1.7671e-06,-6.8051e-07,-5.1131,0.91488
20053,11.378,0.72727,0,0.00030032,3001.1,9.9574e-05,5.6101,9.8827e-05,-0.002104,-0.00030022,-2998.3,0.95143
20054,11.286,0.63636,0,0.00030294,3027.3,0.00010048,6.0655,9.9668e-05,-0.0018115,-0.00030283,-3024.2,0.93878
20055,11.286,0.72727,0.05,8.8216e-07,8.8155,6.774e-07,5.0897,-4.5174e-12,1.2079e-06,-6.7738e-07,-5.0896,0.93917
20056,11.562,0.72727,0,0.00029531,2951.1,9.7979e-05,6.2986,9.714e-05,-0.0021586,-0.0002952,-2947.9,0.97603
20057,11.47,0.63636,0,0.00029791,2977.1,9.8872e-05,6.7137,9.7979e-05,-0.0019932,-0.0002978,-2973.7,0.96329
20058,11.47,0.72727,0.05,8.7813e-07,8.7753,6.743e-07,5.0665,-4.527e-12,2.1202e-06,-6.7429e-07,-5.0663,0.96368
20059,11.746,0.72727,0,0.00029032,2901.2,9.6386e-05,6.9464,9.5462e-05,-0.0022044,-0.0002902,-2897.7,1.0008
20060,11.654,0.63636,0,0.00029291,2927.1,9.7272e-05,7.3242,9.6297e-05,-0.0021406,-0.00029279,-2923.4,0.988
20061,11.654,0.72727,0.05,8.7415e-07,8.7354,6.7124e-07,5.0435,-4.5344e-12,1.6483e-06,-6.7123e-07,-5.0433,0.98838
20062,11.931,0.72727,0,0.00028535,2851.5,9.4797e-05,7.5569,9.3791e-05,-0.0022636,-0.00028522,-2847.8,1.0258
20063,11.838,0.63636,0,0.00028793,2877.3,9.5676e-05,7.9003,9.4624e-05,-0.0022491,-0.00028779,-2873.3,1.0129
20064,11.838,0.72727,0.05,8.7022e-07,8.6962,6.6823e-07,5.0208,-4.5438e-12,6.8315e-07,-6.6822e-07,-5.0207,1.0133
20065,12.115,0.72727,0,0.0002804,2802.1,9.3211e-05,8.1334,9.2129e-05,-0.002351,-0.00028026,-2798,1.051
20066,12.023,0.63636,0,0.00028296,2827.7,9.4083e-05,8.4448,9.2959e-05,-0.0023877,-0.00028282,-2823.5,1.038
20067,12.023,0.72727,0.05,8.6635e-07,8.6575,6.6525e-07,4.9985,-4.5512e-12,3.5925e-07,-6.6524e-07,-4.9983,1.0384
20068,12.299,0.72727,0,0.00027547,2752.8,9.1629e-05,8.6789,9.0474e-05,-0.0024607,-0.00027532,-2748.4,1.0764
20069,12.207,0.63636,0,0.00027802,2778.3,9.2495e-05,8.9606,9.1302e-05,-0.0025291,-0.00027786,-2773.8,1.0633
20070,12.207,0.72727,0.05,8.6252e-07,8.6192,6.6231e-07,4.9764,-6.3772e-12,7.9448e-07,-6.623e-07,-4.9762,1.0637
20071,12.483,0.72727,0,0.00027055,2703.7,9.0051e-05,9.1963,8.8827e-05,-0.0025688,-0.0002704,-2699.1,1.102
20072,12.391,0.63636,0,0.00027309,2729,9.091e-05,9.4504,8.9652e-05,-0.0026932,-0.00027293,-2724.3,1.0888
20073,12.391,0.72727,0.05,8.5872e-07,8.5812,6.5939e-07,4.9545,-3.6532e-12,4.5507e-07,-6.5938e-07,-4.9543,1.0891
20074,12.668,0.72727,0,0.00026566,2654.8,8.8477e-05,9.6885,8.7188e-05,-0.0026413,-0.00026549,-2649.9,1.1277
20075,12.575,0.63636,0,0.00026819,2680,8.933e-05,9.9167,8.801e-05,-0.0028179,-0.00026802,-2675,1.1144
20076,12.575,0.72727,0.05,8.5494e-07,8.5435,6.5649e-07,4.9327,-3.6637e-12,-1.4876e-07,-6.5648e-07,-4.9325,1.1148
20077,12.852,0.72727,0,0.00026079,2606.1,8.6908e-05,10.158,8.5556e-05,-0.0027104,-0.00026061,-2601,1.1536
20078,12.76,0.63636,0,0.0002633,2631.2,8.7754e-05,10.362,8.6375e-05,-0.0029009,-0.00026312,-2626,1.1403
20079,12.76,0.72727,0.05,8.5121e-07,8.5063,6.5363e-07,4.9112,-3.6735e-12,2.1546e-07,-6.5362e-07,-4.911,1.1406
20080,13.036,0.72727,0,0.00025593,2557.5,8.5343e-05,10.607,8.3931e-05,-0.0027967,-0.00025575,-2552.2,1.1797
20081,12.944,0.63636,0,0.00025843,2582.5,8.6184e-05,10.788,8.4748e-05,-0.0030113,-0.00025825,-2577.1,1.1663
20082,12.944,0.72727,0.05,8.4752e-07,8.4694,6.5079e-07,4.8899,-3.6801e-12,8.2129e-08,-6.5079e-07,-4.8897,1.1666
20083,13.22,0.72727,0,0.0002511,2509.2,8.3783e-05,11.038,8.2314e-05,-0.0028971,-0.00025091,-2503.7,1.206
20084,13.128,0.63636,0,0.00025359,2534.1,8.4618e-05,11.198,8.3128e-05,-0.0031222,-0.00025339,-2528.5,1.1925
20085,13.128,0.72727,0.05,8.4386e-07,8.4328,6.4798e-07,4.8687,-3.6724e-12,4.8894e-08,-6.4798e-07,-4.8686,1.1928
20086,13.405,0.72727,0,0.00024628,2461.1,8.2229e-05,11.454,8.0704e-05,-0.0029913,-0.00024608,-2455.3,1.2325
20087,13.313,0.63636,0,0.00024876,2485.9,8.3058e-05,11.593,8.1515e-05,-0.0032561,-0.00024856,-2480,1.2189
20088,13.313,0.72727,0.05,8.4022e-07,8.3964,6.4519e-07,4.8477,-3.6765e-12,-3.0493e-07,-6.4518e-07,-4.8476,1.2192
20089,13.589,0.72727,0,0.00024148,2413.2,8.0679e-05,11.855,7.9101e-05,-0.0030516,-0.00024128,-2407.2,1.2591
20090,13.497,0.63636,0,0.00024395,2437.8,8.1503e-05,11.975,7.9909e-05,-0.0033535,-0.00024374,-2431.8,1.2454
20091,13.497,0.72727,0.05,8.366e-07,8.3602,6.4241e-07,4.8268,-3.6807e-12,9.1574e-07,-6.424e-07,-4.8267,1.2457
20092,13.773,0.72727,0,0.00023671,2365.4,7.9135e-05,12.245,7.7505e-05,-0.0031083,-0.00023649,-2359.3,1.2859
20093,13.681,0.63636,0,0.00023916,2390,7.9954e-05,12.345,7.831e-05,-0.0034151,-0.00023895,-2383.8,1.2721
20094,13.681,0.72727,0.05,8.3301e-07,8.3244,6.3965e-07,4.8061,-3.6724e-12,2.6432e-07,-6.3965e-07,-4.806,1.2724
20095,13.957,0.72727,0,0.00023195,2317.9,7.7597e-05,12.625,7.5916e-05,-0.0031799,-0.00023173,-2311.5,1.3128
20096,13.865,0.63636,0,0.00023439,2342.3,7.841e-05,12.707,7.6719e-05,-0.0035021,-0.00023417,-2335.9,1.299
20097,13.865,0.72727,0.05,8.2946e-07,8.2888,6.3692e-07,4.7856,-3.6889e-12,-1.176e-07,-6.3692e-07,-4.7855,1.2993
20098,14.142,0.72727,0,0.00022721,2270.5,7.6065e-05,12.997,7.4334e-05,-0.0032645,-0.00022699,-2264,1.3399
20099,14.05,0.63636,0,0.00022964,2294.8,7.6873e-05,13.061,7.5134e-05,-0.0035918,-0.00022942,-2288.3,1.326
20100,14.05,0.72727,0.05,8.2592e-07,8.2535,6.3421e-07,4.7652,-3.6776e-12,-5.9434e-07,-6.342e-07,-4.7651,1.3263
20101,14.326,0.72727,0,0.00022249,2223.4,7.4538e-05,13.363,7.2759e-05,-0.003345,-0.00022226,-2216.7,1.3671
20102,14.234,0.63636,0,0.00022491,2247.6,7.5341e-05,13.409,7.3556e-05,-0.003704,-0.00022468,-2240.9,1.3532
20103,14.234,0.72727,0.05,8.2241e-07,8.2184,6.3151e-07,4.7449,-3.6955e-12,-2.8336e-06,-6.315e-07,-4.7449,1.3535
20104,14.51,0.72727,0,0.00021779,2176.4,7.3018e-05,13.724,7.1191e-05,-0.0033952,-0.00021756,-2169.5,1.3945
20105,14.418,0.63636,0,0.00022021,2200.5,7.3816e-05,13.753,7.1985e-05,-0.0037861,-0.00021997,-2193.6,1.3805
20106,14.418,0.72727,0.05,8.1891e-07,8.1834,6.2882e-07,4.7248,-3.6988e-12,-2.1995e-06,-6.2881e-07,-4.7246,1.3808
20107,14.695,0.72727,0,0.00021312,2129.7,7.1504e-05,14.083,6.9629e-05,-0.0034426,-0.00021287,-2122.6,1.4221
20108,14.602,0.63636,0,0.00021552,2153.7,7.2297e-05,14.093,7.0421e-05,-0.0038354,-0.00021527,-2146.6,1.408
20109,14.602,0.72727,0.05,8.1543e-07,8.1487,6.2615e-07,4.7047,-3.6687e-12,-8.4576e-08,-6.2615e-07,-4.7046,1.4083
20110,14.879,0.72727,0,0.00020846,2083.1,6.9997e-05,14.44,6.8075e-05,-0.0035061,-0.00020821,-2075.9,1.4498
20111,14.787,0.63636,0,0.00021085,2107,7.0785e-05,14.432,6.8863e-05,-0.0039114,-0.0002106,-2099.8,1.4356
20112,14.787,0.72727,0.05,8.1199e-07,8.1143,6.2351e-07,4.6848,-3.687e-12,1.4999e-06,-6.235e-07,-4.6847,1.4359
20113,15.063,0.72727,0,0.00020382,2036.8,6.8496e-05,14.798,6.6526e-05,-0.0035818,-0.00020357,-2029.4,1.4776
20114,14.971,0.63636,0,0.0002062,2060.6,6.9279e-05,14.771,6.7312e-05,-0.0039919,-0.00020594,-2053.1,1.4634
20115,14.971,0.72727,0.05,8.0857e-07,8.0801,6.2088e-07,4.6651,-3.6499e-12,5.4163e-07,-6.2087e-07,-4.665,1.4636
20116,15.247,0.72727,0,0.0001992,1990.7,6.7002e-05,15.157,6.4984e-05,-0.0036547,-0.00019894,-1983,1.5056
20117,15.155,0.63636,0,0.00020157,2014.3,6.778e-05,15.112,6.5768e-05,-0.004093,-0.00020131,-2006.7,1.4913
20118,15.155,0.72727,0.05,8.0516e-07,8.046,6.1827e-07,4.6454,-3.6915e-12,1.0105e-06,-6.1826e-07,-4.6453,1.4915
20119,15.432,0.72727,0,0.00019461,1944.7,6.5515e-05,15.52,6.3449e-05,-0.0037029,-0.00019434,-1936.9,1.5337
20120,15.339,0.63636,0,0.00019696,1968.3,6.6287e-05,15.455,6.423e-05,-0.0041705,-0.00019669,-1960.5,1.5193
20121,15.339,0.72727,0.05,8.0177e-07,8.0121,6.1566e-07,4.6258,-3.6725e-12,2.6425e-06,-6.1565e-07,-4.6258,1.5196
20122,15.616,0.72727,0,0.00019003,1899,6.4035e-05,15.888,6.192e-05,-0.0037501,-0.00018975,-1891,1.5619
20123,15.524,0.63636,0,0.00019237,1922.4,6.4802e-05,15.802,6.2699e-05,-0.0042225,-0.0001921,-1914.5,1.5475
20124,15.524,0.72727,0.05,7.984e-07,7.9785,6.1308e-07,4.6065,-1.8559e-12,4.0822e-06,-6.1307e-07,-4.6063,1.5477
20125,15.8,0.72727,0,0.00018547,1853.4,6.2563e-05,16.262,6.0398e-05,-0.0038107,-0.00018519,-1845.2,1.5903
20126,15.708,0.63636,0,0.00018781,1876.8,6.3324e-05,16.155,6.1173e-05,-0.0042983,-0.00018753,-1868.6,1.5758
20127,15.708,0.72727,0.05,7.9507e-07,7.9452,6.1051e-07,4.5872,-3.7006e-12,2.5685e-06,-6.1051e-07,-4.5871,1.576
20128,15.984,0.72727,0,0.00018093,1808.1,6.1097e-05,16.645,5.8881e-05,-0.0038837,-0.00018064,-1799.7,1.6187
20129,15.892,0.63636,0,0.00018326,1831.3,6.1853e-05,16.515,5.9655e-05,-0.0043795,-0.00018297,-1823,1.6042
20130,15.892,0.72727,0.05,7.9175e-07,7.9121,6.0797e-07,4.5681,-2.7687e-12,3.6121e-06,-6.0796e-07,-4.568,1.6045
20131,16.169,0.72727,0,0.00017642,1763,5.9639e-05,17.038,5.7371e-05,-0.0039574,-0.00017612,-1754.4,1.6473
20132,16.077,0.63636,0,0.00017873,1786.1,6.039e-05,16.883,5.8142e-05,-0.0044817,-0.00017844,-1777.6,1.6328
20133,16.077,0.72727,0.05,7.8846e-07,7.8791,6.0544e-07,4.5491,-3.264e-12,2.4221e-06,-6.0544e-07,-4.549,1.633
20134,16.353,0.72727,0,0.00017192,1718,5.8189e-05,17.442,5.5867e-05,-0.0040103,-0.00017162,-1709.2,1.6761
20135,16.261,0.63636,0,0.00017422,1741,5.8934e-05,17.261,5.6636e-05,-0.0045647,-0.00017392,-1732.3,1.6615
20136,16.261,0.72727,0.05,7.8518e-07,7.8464,6.0293e-07,4.5302,-3.2509e-12,3.2264e-06,-6.0292e-07,-4.5301,1.6617
20137,16.537,0.72727,0,0.00016745,1673.3,5.6747e-05,17.858,5.437e-05,-0.0040638,-0.00016713,-1664.3,1.7049
20138,16.445,0.63636,0,0.00016974,1696.2,5.7485e-05,17.65,5.5136e-05,-0.0046291,-0.00016943,-1687.3,1.6902
20139,16.445,0.72727,0.05,7.8194e-07,7.814,6.0044e-07,4.5115,-3.2534e-12,3.8102e-06,-6.0043e-07,-4.5114,1.6905
20140,16.721,0.72727,0,0.00016299,1628.8,5.5313e-05,18.29,5.2878e-05,-0.0041328,-0.00016267,-1619.6,1.7339
20141,16.629,0.63636,0,0.00016527,1651.5,5.6045e-05,18.051,5.3642e-05,-0.0047161,-0.00016495,-1642.4,1.7191
20142,16.629,0.72727,0.05,7.7873e-07,7.7819,5.9797e-07,4.4929,-2.3782e-12,5.0379e-06,-5.9796e-07,-4.4928,1.7194
20143,16.906,0.72727,0,0.00015855,1584.5,5.3886e-05,18.738,5.1392e-05,-0.0042134,-0.00015823,-1575,1.7629
20144,16.814,0.63636,0,0.00016082,1607.1,5.4612e-05,18.467,5.2154e-05,-0.0048121,-0.0001605,-1597.8,1.7482
20145,16.814,0.72727,0.05,7.7554e-07,7.7501,5.9552e-07,4.4746,-2.3369e-12,4.6626e-06,-5.9552e-07,-4.4745,1.7484
20146,17.09,0.72727,0,0.00015414,1540.3,5.2468e-05,19.204,4.9912e-05,-0.004294,-0.0001538,-1530.6,1.7921
20147,16.998,0.63636,0,0.0001564,1562.9,5.3187e-05,18.898,5.0671e-05,-0.0049273,-0.00015607,-1553.3,1.7773
20148,16.998,0.72727,0.05,7.7238e-07,7.7185,5.931e-07,4.4563,-3.2635e-12,5.7565e-06,-5.9309e-07,-4.4562,1.7775
20149,17.274,0.72727,0,0.00014975,1496.4,5.1059e-05,19.691,4.8437e-05,-0.0043598,-0.0001494,-1486.5,1.8214
20150,17.182,0.63636,0,0.00015199,1518.9,5.1771e-05,19.347,4.9195e-05,-0.0050285,-0.00015165,-1509.1,1.8065
20151,17.182,0.72727,0.05,7.6925e-07,7.6872,5.907e-07,4.4383,-2.7767e-12,6.4697e-06,-5.9069e-07,-4.4382,1.8067
20152,17.459,0.72727,0,0.00014537,1452.7,4.9658e-05,20.199,4.6969e-05,-0.0044273,-0.00014502,-1442.5,1.8507
20153,17.366,0.63636,0,0.0001476,1475,5.0362e-05,19.814,4.7724e-05,-0.0051164,-0.00014726,-1465,1.8358
20154,17.366,0.72727,0.05,7.6616e-07,7.6564,5.8832e-07,4.4204,-2.3641e-12,5.9021e-06,-5.8832e-07,-4.4204,1.836
20155,17.643,0.72727,0,0.00014102,1409.2,4.8265e-05,20.732,4.5505e-05,-0.0045091,-0.00014066,-1398.7,1.8802
20156,17.551,0.63636,0,0.00014324,1431.4,4.8962e-05,20.302,4.6259e-05,-0.0052243,-0.00014288,-1421.2,1.8653
20157,17.551,0.72727,0.05,7.6311e-07,7.6259,5.8598e-07,4.4028,-1.8744e-12,7.7826e-06,-5.8597e-07,-4.4028,1.8654
20158,17.827,0.72727,0,0.00013669,1365.9,4.6882e-05,21.29,4.4048e-05,-0.0046053,-0.00013631,-1355.2,1.9098
20159,17.735,0.63636,0,0.0001389,1388,4.7571e-05,20.813,4.48e-05,-0.0053449,-0.00013853,-1377.5,1.8948
20160,17.735,0.72727,0.05,7.601e-07,7.5958,5.8367e-07,4.3855,-1.9559e-12,5.5773e-06,-5.8366e-07,-4.3854,1.895
20161,18.011,0.72727,0,0.00013238,1322.8,4.5508e-05,21.877,4.2595e-05,-0.0047019,-0.00013199,-1311.8,1.9394
20162,17.919,0.63636,0,0.00013457,1344.8,4.6188e-05,21.347,4.3346e-05,-0.0054879,-0.00013419,-1334,1.9244
20163,17.919,0.72727,0.05,7.5713e-07,7.5661,5.8138e-07,4.3683,-1.8816e-12,8.9485e-06,-5.8138e-07,-4.3682,1.9246
20164,18.196,0.72727,0,0.00012808,1280,4.4143e-05,22.494,4.1148e-05,-0.0047847,-0.00012769,-1268.6,1.9692
20165,18.103,0.63636,0,0.00013027,1301.8,4.4814e-05,21.908,4.1898e-05,-0.0056181,-0.00012988,-1290.7,1.9541
20166,18.103,0.72727,0.05,7.542e-07,7.5368,5.7913e-07,4.3514,-1.4301e-12,1.0224e-05,-5.7913e-07,-4.3513,1.9543
20167,18.38,0.72727,0,0.00012381,1237.3,4.2787e-05,23.144,3.9706e-05,-0.0048719,-0.0001234,-1225.5,1.999
20168,18.288,0.63636,0,0.00012598,1259,4.3449e-05,22.496,4.0454e-05,-0.0057403,-0.00012558,-1247.6,1.9839
20169,18.288,0.72727,0.05,7.5132e-07,7.508,5.7692e-07,4.3348,-1.4547e-12,1.1525e-05,-5.7692e-07,-4.3347,1.9841
20170,18.564,0.72727,0,0.00011956,1194.8,4.1441e-05,23.83,3.8269e-05,-0.0049708,-0.00011914,-1182.7,2.0289
20171,18.472,0.63636,0,0.00012172,1216.3,4.2093e-05,23.114,3.9016e-05,-0.0058846,-0.00012131,-1204.6,2.0138
20172,18.472,0.72727,0.05,7.485e-07,7.4798,5.7476e-07,4.3185,-1.9798e-12,1.4758e-05,-5.7475e-07,-4.3184,2.0139
20173,18.748,0.72727,0,0.00011533,1152.5,4.0105e-05,24.553,3.6837e-05,-0.0050809,-0.0001149,-1140.1,2.0589
20174,18.656,0.63636,0,0.00011748,1173.9,4.0747e-05,23.764,3.7583e-05,-0.0060409,-0.00011705,-1161.9,2.0437
20175,18.656,0.72727,0.05,7.4573e-07,7.4522,5.7263e-07,4.3025,-1.8662e-12,1.1103e-05,-5.7263e-07,-4.3025,2.0439
20176,18.933,0.72727,0,0.00011112,1110.5,3.8779e-05,25.317,3.5409e-05,-0.0051931,-0.00011067,-1097.6,2.089
20177,18.841,0.63636,0,0.00011325,1131.7,3.941e-05,24.449,3.6155e-05,-0.0062178,-0.00011282,-1119.3,2.0738
20178,18.841,0.72727,0.05,7.4302e-07,7.4251,5.7055e-07,4.2869,-1.4953e-12,9.0968e-06,-5.7055e-07,-4.2868,2.0739
20179,19.117,0.72727,0,0.00010694,1068.6,3.7464e-05,26.125,3.3986e-05,-0.005292,-0.00010647,-1055.3,2.1191
20180,19.025,0.63636,0,0.00010905,1089.7,3.8082e-05,25.17,3.4732e-05,-0.0063875,-0.0001086,-1076.9,2.1039
20181,19.025,0.72727,0.05,7.4037e-07,7.3986,5.6852e-07,4.2716,-1.5598e-12,1.167e-05,-5.6851e-07,-4.2716,2.104
20182,19.301,0.72727,0,0.00010277,1027,3.6159e-05,26.979,3.2568e-05,-0.0053915,-0.00010228,-1013.2,2.1493
20183,19.209,0.63636,0,0.00010487,1047.9,3.6765e-05,25.93,3.3313e-05,-0.0065516,-0.0001044,-1034.7,2.1341
20184,19.209,0.72727,0.05,7.378e-07,7.3729,5.6654e-07,4.2568,-6.9317e-13,1.1585e-05,-5.6654e-07,-4.2567,2.1342
20185,19.485,0.72727,0,9.862e-05,985.52,3.4865e-05,27.883,3.1153e-05,-0.0054989,-9.8116e-05,-971.28,2.1796
20186,19.393,0.63636,0,0.0001007,1006.3,3.5457e-05,26.731,3.1898e-05,-0.006736,-0.00010022,-992.7,2.1643
20187,19.393,0.72727,0.05,7.3531e-07,7.348,5.6463e-07,4.2424,-6.5942e-13,1.5339e-05,-5.6462e-07,-4.2423,2.1645
20188,19.67,0.72727,0,9.4493e-05,944.28,3.3582e-05,28.84,2.9743e-05,-0.0056083,-9.3969e-05,-929.53,2.21
20189,19.578,0.63636,0,9.6559e-05,964.92,3.4159e-05,27.577,3.0488e-05,-0.0069287,-9.606e-05,-950.84,2.1947
20190,19.578,0.72727,0.05,7.3289e-07,7.3239,5.6277e-07,4.2285,-1.1834e-12,1.3413e-05,-5.6277e-07,-4.2284,2.1948
20191,19.854,0.72727,0,9.0386e-05,903.24,3.231e-05,29.854,2.8336e-05,-0.0057096,-8.9842e-05,-887.95,2.2404
20192,19.762,0.63636,0,9.2435e-05,923.72,3.2872e-05,28.47,2.9082e-05,-0.0071364,-9.1918e-05,-909.16,2.225
20193,19.762,0.72727,0.05,7.3057e-07,7.3006,5.6099e-07,4.215,-1.2382e-12,9.8145e-06,-5.6098e-07,-4.215,2.2252
20194,20.038,0.72727,0,8.6301e-05,862.41,3.105e-05,30.93,2.6933e-05,-0.0057897,-8.5733e-05,-846.53,2.2709
20195,19.946,0.63636,0,8.8332e-05,882.71,3.1595e-05,29.412,2.768e-05,-0.0073356,-8.7795e-05,-867.64,2.2555
20196,19.946,0.72727,0.05,7.2833e-07,7.2783,5.5927e-07,4.2021,-1.2379e-12,4.949e-06,-5.5927e-07,-4.2021,2.2556
20197,20.223,0.72727,0,8.2235e-05,821.79,2.9802e-05,32.07,2.5533e-05,-0.0058529,-8.1643e-05,-805.28,2.3014
20198,20.13,0.63636,0,8.4248e-05,841.9,3.0329e-05,30.408,2.6281e-05,-0.007522,-8.3689e-05,-826.28,2.286
20199,20.13,0.72727,0.05,7.262e-07,7.257,5.5763e-07,4.1899,-1.6877e-12,3.5171e-06,-5.5763e-07,-4.1898,2.2861
20200,20.407,0.72727,0,7.8191e-05,781.37,2.8567e-05,33.281,2.4136e-05,-0.0058995,-7.7572e-05,-764.2,2.332
20201,20.315,0.63636,0,8.0184e-05,801.28,2.9074e-05,31.461,2.4886e-05,-0.0077161,-7.9602e-05,-785.09,2.3165
20202,20.315,0.72727,0.05,7.2418e-07,7.2368,5.5608e-07,4.1782,-2.0587e-12,3.4316e-06,-5.5608e-07,-4.1781,2.3167
20203,20.591,0.72727,0,7.4168e-05,741.17,2.7344e-05,34.568,2.2743e-05,-0.0059183,-7.3519e-05,-723.28,2.3626
20204,20.499,0.63636,0,7.6139e-05,760.87,2.7831e-05,32.574,2.3494e-05,-0.0078981,-7.5533e-05,-744.06,2.3472
20205,20.499,0.72727,0.05,7.2228e-07,7.2178,5.5462e-07,4.1672,-1.5127e-12,3.4385e-06,-5.5462e-07,-4.1672,2.3473
20206,20.775,0.72727,0,7.0166e-05,701.17,2.6135e-05,35.936,2.1351e-05,-0.0058908,-6.9485e-05,-682.52,2.3933
20207,20.683,0.63636,0,7.2115e-05,720.65,2.6599e-05,33.753,2.2106e-05,-0.0080698,-7.1481e-05,-703.19,2.3778
20208,20.683,0.72727,0.05,7.205e-07,7.2001,5.5326e-07,4.157,-1.1586e-12,6.7187e-06,-5.5326e-07,-4.1569,2.3779
20209,20.96,0.72727,0,6.6186e-05,661.4,2.494e-05,37.393,1.9962e-05,-0.005792,-6.547e-05,-641.91,2.424
20210,20.867,0.63636,0,6.8111e-05,680.64,2.5379e-05,35.001,2.072e-05,-0.0082026,-6.7448e-05,-662.46,2.4085
20211,20.867,0.72727,0.05,7.1886e-07,7.1837,5.52e-07,4.1475,-1.2688e-12,5.2426e-06,-5.52e-07,-4.1475,2.4086
20212,21.144,0.72727,0,6.2228e-05,621.85,2.376e-05,38.947,1.8575e-05,-0.0056058,-6.1474e-05,-601.47,2.4548
20213,21.052,0.63636,0,6.4127e-05,640.83,2.4172e-05,36.326,1.9336e-05,-0.0082786,-6.3432e-05,-621.9,2.4393
20214,21.052,0.72727,0.05,7.1737e-07,7.1688,5.5085e-07,4.1389,-1.149e-12,5.7548e-06,-5.5085e-07,-4.1389,2.4394
20215,21.328,0.72727,0,5.8294e-05,582.54,2.2595e-05,40.608,1.719e-05,-0.0053047,-5.7497e-05,-561.17,2.4856
20216,21.236,0.63636,0,6.0165e-05,601.23,2.2978e-05,37.733,1.7955e-05,-0.0082922,-5.9434e-05,-581.48,2.4701
20217,21.236,0.72727,0.05,7.1604e-07,7.1555,5.4983e-07,4.1312,-1.0207e-12,4.0137e-06,-5.4983e-07,-4.1312,2.4702
20218,21.512,0.72727,0,5.4385e-05,543.47,2.1448e-05,42.388,1.5806e-05,-0.004846,-5.354e-05,-521.04,2.5165
20219,21.42,0.63636,0,5.6224e-05,561.85,2.1798e-05,39.231,1.6576e-05,-0.0082062,-5.5454e-05,-541.21,2.5009
20220,21.42,0.72727,0.05,7.1489e-07,7.144,5.4895e-07,4.1246,-1.1449e-12,3.0922e-06,-5.4894e-07,-4.1245,2.501
20221,21.697,0.72727,0,5.0502e-05,504.68,2.032e-05,44.303,1.4423e-05,-0.0041639,-4.9603e-05,-481.07,2.5473
20222,21.605,0.63636,0,5.2307e-05,522.71,2.0634e-05,40.83,1.5199e-05,-0.0079809,-5.1493e-05,-501.1,2.5318
20223,21.605,0.72727,0.05,7.1393e-07,7.1344,5.4821e-07,4.119,-8.4703e-13,1.6113e-06,-5.4821e-07,-4.119,2.5319
20224,21.881,0.72727,0,4.665e-05,466.17,1.9212e-05,46.372,1.304e-05,-0.0031601,-4.5687e-05,-441.26,2.5783
20225,21.789,0.63636,0,4.8415e-05,483.81,1.9486e-05,42.545,1.3822e-05,-0.0075373,-4.7551e-05,-461.14,2.5627
20226,21.789,0.72727,0.05,7.1319e-07,7.1269,5.4764e-07,4.1148,-9.8403e-13,2.8295e-06,-5.4764e-07,-4.1147,2.5628
20227,22.065,0.72727,0,4.283e-05,428.01,1.8128e-05,48.62,1.1657e-05,-0.0017203,-4.1795e-05,-401.62,2.6092
20228,21.973,0.63636,0,4.455e-05,445.2,1.8356e-05,44.392,1.2447e-05,-0.0067841,-4.3629e-05,-421.34,2.5936
20229,21.973,0.72727,0.05,7.127e-07,7.122,5.4726e-07,4.1119,-1.6143e-12,5.1491e-06,-5.4726e-07,-4.1119,2.5937
20230,22.249,0.72727,0,3.905e-05,390.23,1.7072e-05,51.082,1.0273e-05,0.0003254,-3.7929e-05,-362.17,2.6402
20231,22.157,0.63636,0,4.0718e-05,406.89,1.7248e-05,46.394,1.1073e-05,-0.0056047,-3.9729e-05,-381.71,2.6246
20232,22.157,0.72727,0.05,7.125e-07,7.1201,5.4712e-07,4.1108,-1.3818e-12,5.5867e-06,-5.4711e-07,-4.1108,2.6247
20233,22.434,0.72727,0,3.5317e-05,352.92,1.6048e-05,53.803,8.8876e-06,0.0032687,-3.4092e-05,-322.93,2.6712
20234,22.342,0.63636,0,3.6922e-05,368.96,1.6165e-05,48.585,9.6978e-06,-0.0037887,-3.5855e-05,-342.27,2.6556
20235,22.342,0.72727,0.05,7.1268e-07,7.1218,5.4725e-07,4.1118,-1.0815e-12,2.6248e-06,-5.4725e-07,-4.1118,2.6557
20236,22.618,0.72727,0,3.1642e-05,316.21,1.5064e-05,56.848,7.4994e-06,0.0074766,-3.0289e-05,-283.92,2.7022
20237,22.526,0.63636,0,3.3172e-05,331.49,1.5111e-05,51.008,8.3224e-06,-0.00098833,-3.2008e-05,-303.03,2.6866
20238,22.526,0.72727,0.05,7.1332e-07,7.1283,5.4774e-07,4.1155,-1.6129e-12,-4.5056e-06,-5.4774e-07,-4.1155,2.6867
20239,22.802,0.72727,0,2.8045e-05,280.26,1.4131e-05,60.305,6.1068e-06,0.013851,-2.6528e-05,-245.19,2.7333
20240,22.71,0.63636,0,2.948e-05,294.6,1.4096e-05,53.729,6.9452e-06,0.0031642,-2.8196e-05,-264.03,2.7177
20241,22.71,0.72727,0.05,7.146e-07,7.1411,5.4873e-07,4.1229,-1.6581e-12,-8.5255e-06,-5.4872e-07,-4.1229,2.7177
20242,22.987,0.72727,0,2.4552e-05,245.35,1.3262e-05,64.3,4.7076e-06,0.022634,-2.2817e-05,-206.79,2.7643
20243,22.894,0.63636,0,2.5866e-05,258.48,1.3129e-05,56.842,5.565e-06,0.010093,-2.4426e-05,-225.33,2.7487
20244,22.894,0.72727,0.05,7.1681e-07,7.1631,5.5042e-07,4.1356,-8.3619e-13,-2.624e-06,-5.5042e-07,-4.1356,2.7488
20245,23.171,0.72727,0,2.1204e-05,211.89,1.2478e-05,69.012,3.2984e-06,0.039435,-1.9169e-05,-168.77,2.7954
20246,23.079,0.63636,0,2.2362e-05,223.46,1.2227e-05,60.487,4.1792e-06,0.018958,-2.071e-05,-186.99,2.7798
20247,23.079,0.72727,0.05,7.2041e-07,7.1991,5.5319e-07,4.1564,-4.6693e-13,1.784e-06,-5.5319e-07,-4.1564,2.7798
20248,23.355,0.72727,0,1.8067e-05,180.54,1.1804e-05,74.672,1.8728e-06,0.054886,-1.5599e-05,-131.22,2.8265
20249,23.263,0.63636,0,1.9017e-05,190.04,1.1415e-05,64.88,2.7851e-06,0.041967,-1.7063e-05,-149.09,2.8109
20250,23.263,0.72727,0.05,7.2626e-07,7.2576,5.5768e-07,4.1902,-5.2239e-13,-4.6946e-07,-5.5768e-07,-4.1902,2.8109
20251,23.539,0.72727,0,1.5243e-05,152.32,1.1269e-05,81.595,4.2764e-07,0.13438,-1.2119e-05,-94.137,2.8576
20252,23.447,0.63636,0,1.5916e-05,159.05,1.0726e-05,70.317,1.3735e-06,0.048426,-1.3508e-05,-111.76,2.842
20253,23.447,0.72727,0.05,7.3573e-07,7.3522,5.6495e-07,4.2448,-4.477e-13,-2.4587e-06,-5.6495e-07,-4.2448,2.842
20254,23.724,0.72727,0,1.2896e-05,128.87,1.0911e-05,90.071,-1.0646e-06,0.090182,-8.7373e-06,-57.559,2.8887
20255,23.631,0.63636,0,1.3202e-05,131.93,1.0205e-05,77.277,-5.2786e-08,0.20381,-1.007e-05,-75.061,2.8731
20256,23.631,0.72727,0.05,7.5206e-07,7.5154,5.7749e-07,4.339,-6.3142e-13,-1.6467e-06,-5.7749e-07,-4.339,2.8731
20257,23.816,0.63636,0,1.1113e-05,111.05,9.9155e-06,86.158,-1.552e-06,-0.0041583,-6.765e-06,-39.173,2.9042
20258,23.816,0.72727,0.05,7.958e-07,7.9526,6.1108e-07,4.5914,-3.7527e-13,-1.6701e-06,-6.1108e-07,-4.5914,2.9042
20259,23.908,0.72727,0,1.1144e-05,111.37,1.0596e-05,98.642,-2.4834e-06,0.36902,-5.5034e-06,-22.322,2.9198
20260,1.2431,0.54545,0,0.00023757,2374.1,0.00012212,537.66,4.9594e-05,-7.2749,-0.00022381,-2061.5,0.0053717
20261,1.1509,0.45455,0,0.00020132,2011.8,0.0001104,541.86,3.6649e-05,-12.318,-0.0001865,-1689,0.0026841
20262,1.1509,0.54545,0.05,1.4625e-05,146.15,1.123e-05,84.378,-5.6762e-13,-4.2534e-05,-1.123e-05,-84.378,0.00013443
20263,1.0588,0.54545,0,0.00018778,1876.5,0.00010557,547.32,3.3107e-05,2.8753,-0.00017239,-1541.2,0.0051242
20264,1.4273,0.54545,0,0.00026899,2688.1,0.00011889,366.5,6.9766e-05,-2.5983,-0.00026089,-2487,0.014209
20265,1.3352,0.45455,0,0.00022559,2254.3,0.00010101,323.23,5.7604e-05,-2.9067,-0.00021836,-2076.4,0.0088196
20266,1.3352,0.54545,0.05,1.2077e-05,120.68,9.2733e-06,69.676,2.2067e-12,2.4514e-05,-9.2733e-06,-69.676,0.0093376
20267,1.6116,0.54545,0,0.00031512,3149.1,0.00012927,305.74,8.8287e-05,-2.2257,-0.00030883,-2986,0.023495
20268,1.5195,0.45455,0,0.00027479,2746,0.00011264,264.8,7.6984e-05,-3.0682,-0.00026936,-2605.3,0.017976
20269,1.5195,0.54545,0.05,1.1007e-05,110,8.4523e-06,63.507,5.102e-12,4.7842e-05,-8.4523e-06,-63.507,0.018641
20270,1.7959,0.54545,0,0.0003601,3598.5,0.00014137,272,0.00010499,-1.2973,-0.00035471,-3455.4,0.033012
20271,1.7037,0.45455,0,0.00032501,3247.9,0.00012732,242,9.4922e-05,-1.4236,-0.00032023,-3120.7,0.027415
20272,1.7037,0.54545,0.05,9.6093e-06,96.027,7.3788e-06,55.441,4.9971e-12,5.4907e-05,-7.3788e-06,-55.441,0.0281
20273,1.9801,0.54545,0,0.00039926,3989.9,0.0001519,242.69,0.00011947,-0.90646,-0.00039459,-3863.4,0.042768
20274,1.888,0.45455,0,0.0003698,3695.4,0.00014057,223.34,0.00011072,-0.9491,-0.00036551,-3579.1,0.037083
20275,1.888,0.54545,0.05,8.1096e-06,81.04,6.2272e-06,46.789,2.9989e-12,6.2117e-05,-6.2272e-06,-46.789,0.03776
20276,2.1644,0.54545,0,0.0004314,4311,0.00015998,212,0.00013168,-0.64659,-0.00042741,-4201.4,0.052789
20277,2.0723,0.45455,0,0.00040734,4070.6,0.00015117,201.54,0.00012426,-0.64452,-0.00040354,-3966.3,0.046998
20278,2.0723,0.54545,0.05,6.655e-06,66.504,5.1102e-06,38.396,4.1818e-12,5.5738e-05,-5.1102e-06,-38.396,0.047661
20279,2.3487,0.54545,0,0.00045669,4563.7,0.00016565,179.55,0.00014168,-0.4959,-0.00045337,-4471.5,0.063097
20280,2.2565,0.45455,0,0.00043753,4372.3,0.00015903,175.98,0.00013554,-0.49951,-0.00043428,-4281.9,0.057184
20281,2.2565,0.54545,0.05,5.3337e-06,53.3,4.0956e-06,30.773,1.6974e-12,4.8224e-05,-4.0956e-06,-30.773,0.057833
20282,2.5329,0.54545,0,0.00047589,4755.7,0.00016927,146.69,0.00014969,-0.39896,-0.00047323,-4680.8,0.073712
20283,2.4408,0.45455,0,0.00046103,4607.1,0.00016449,148.26,0.0001447,-0.4019,-0.00045833,-4531.4,0.067663
20284,2.4408,0.54545,0.05,4.1827e-06,41.798,3.2118e-06,24.132,1.3372e-12,5.3565e-05,-3.2118e-06,-24.132,0.0683
20285,2.7172,0.54545,0,0.00048994,4896,0.00017127,114.94,0.00015593,-0.34245,-0.00048789,-4837.7,0.084648
20286,2.6251,0.45455,0,0.00047873,4784,0.00016801,120.23,0.00015196,-0.33494,-0.00047658,-4722.9,0.078452
20287,2.6251,0.54545,0.05,3.2088e-06,32.066,2.464e-06,18.513,1.334e-12,6.1185e-05,-2.4639e-06,-18.513,0.079079
20288,2.9015,0.54545,0,0.00049974,4994,0.00017206,85.486,0.00016064,-0.31942,-0.00049824,-4950.9,0.095915
20289,2.8093,0.45455,0,0.00049158,4912.4,0.00017002,93.381,0.00015755,-0.28774,-0.00048993,-4865.2,0.089564
20290,2.8093,0.54545,0.05,2.4032e-06,24.015,1.8453e-06,13.865,1.9671e-12,6.9304e-05,-1.8453e-06,-13.865,0.090183
20291,3.0857,0.54545,0,0.00050611,5057.6,0.00017196,59.1,0.00016405,-0.33433,-0.00050509,-5028,0.10752
20292,2.9936,0.45455,0,0.00050046,5001.1,0.0001709,68.74,0.00016171,-0.26033,-0.00049926,-4966.5,0.10101
20293,2.9936,0.54545,0.05,1.751e-06,17.498,1.3445e-06,10.102,3.8684e-12,8.7049e-05,-1.3445e-06,-10.102,0.10162
20294,3.27,0.54545,0,0.00050975,5094,0.00017126,36.182,0.00016639,-0.41432,-0.00050913,-5076,0.11947
20295,3.1779,0.45455,0,0.00050612,5057.7,0.00017095,46.893,0.00016467,-0.25869,-0.00050531,-5034.3,0.11279
20296,3.1779,0.54545,0.05,1.238e-06,12.372,9.5065e-07,7.1429,1.0819e-11,0.00011697,-9.5065e-07,-7.1428,0.1134
20297,3.4543,0.54545,0,0.00051123,5108.8,0.00017016,16.953,0.00016781,-0.70202,-0.00051095,-5100.6,0.13176
20298,3.3621,0.45455,0,0.00050923,5088.8,0.00017041,28.096,0.00016663,-0.30625,-0.00050875,-5074.9,0.12492
20299,3.3621,0.54545,0.05,8.5704e-07,8.5645,6.5809e-07,4.9447,1.7972e-11,0.00016918,-6.581e-07,-4.9447,0.12552
20300,3.6385,0.54545,0,0.00051102,5106.7,0.00016906,3.1787,0.00016822,-3.0851,-0.00051102,-5106.6,0.1444
20301,3.5464,0.45455,0,0.00051032,5099.7,0.00016947,12.471,0.00016774,-0.52553,-0.00051012,-5093.7,0.13739
20302,3.5464,0.54545,0.05,6.1439e-07,6.1397,4.7177e-07,3.5447,2.6897e-11,0.00023379,-4.7178e-07,-3.5447,0.13799
20303,3.8228,0.54545,0,0.00050951,5091.6,0.00016886,0.61152,0.00016697,-13.564,-0.00050973,-5098,0.15739
20304,3.7307,0.45455,0,0.00050982,5094.7,0.00016854,1.8582,0.00016791,-2.9149,-0.00050984,-5095.2,0.15021
20305,3.7307,0.54545,0.05,5.2191e-07,5.2155,4.0075e-07,3.0111,2.8284e-11,0.00023828,-4.0077e-07,-3.0112,0.15081
20306,4.0071,0.54545,0,0.00050698,5066.3,0.00016849,0.30326,0.00016532,-23.508,-0.00050737,-5077.9,0.17073
20307,3.9149,0.45455,0,0.00050809,5077.4,0.00016829,0.40457,0.00016666,-11.868,-0.00050829,-5083.1,0.16337
20308,3.9149,0.54545,0.05,5.4882e-07,5.4844,4.2142e-07,3.1665,1.1521e-11,0.00025939,-4.2143e-07,-3.1664,0.16397
20309,4.1913,0.54545,0,0.00050369,5033.4,0.00016778,0.1979,0.0001636,-31.202,-0.00050421,-5048.8,0.18441
20310,4.0992,0.45455,0,0.00050541,5050.6,0.00016778,0.22511,0.00016512,-19.79,-0.00050574,-5060.4,0.17688
20311,4.0992,0.54545,0.05,6.2672e-07,6.2628,4.8124e-07,3.6159,7.176e-12,0.00013236,-4.8124e-07,-3.6158,0.17748
20312,4.3756,0.54545,0,0.0004998,4994.6,0.00016677,0.1455,0.00016185,-36.842,-0.00050042,-5012.8,0.19843
20313,4.2835,0.45455,0,0.00050199,5016.4,0.00016695,0.1635,0.00016349,-25.825,-0.00050242,-5029.2,0.19073
20314,4.2835,0.54545,0.05,7.1131e-07,7.1082,5.462e-07,4.104,-1.1524e-13,6.6249e-05,-5.462e-07,-4.1039,0.19134
20315,4.5599,0.54545,0,0.00049547,4951.3,0.00016553,0.11412,0.00016009,-40.722,-0.00049615,-4971.5,0.21279
20316,4.4677,0.45455,0,0.00049801,4976.7,0.00016585,0.13316,0.00016181,-30.182,-0.00049852,-4991.6,0.20493
20317,4.4677,0.54545,0.05,7.8638e-07,7.8584,6.0384e-07,4.5371,-2.0656e-12,4.7368e-05,-6.0384e-07,-4.5369,0.20553
20318,4.7441,0.54545,0,0.00049081,4904.7,0.00016411,0.093105,0.00015835,-43.131,-0.00049153,-4926.1,0.22749
20319,4.652,0.45455,0,0.00049361,4932.7,0.00016454,0.11484,0.00016012,-33.115,-0.00049416,-4949.1,0.21946
20320,4.652,0.54545,0.05,8.4793e-07,8.4734,6.5111e-07,4.8923,-4.0039e-12,4.8763e-05,-6.511e-07,-4.892,0.22006
20321,4.9284,0.54545,0,0.0004859,4855.6,0.00016254,0.077922,0.00015663,-44.334,-0.00048664,-4877.6,0.24253
20322,4.8363,0.45455,0,0.00048889,4885.5,0.00016307,0.1021,0.00015841,-34.867,-0.00048947,-4902.8,0.23433
20323,4.8363,0.54545,0.05,8.9628e-07,8.9566,6.8824e-07,5.1712,-3.6783e-12,3.1454e-05,-6.8823e-07,-5.171,0.23493
20324,5.1127,0.54545,0,0.0004808,4804.7,0.00016087,0.066362,0.00015493,-44.565,-0.00048155,-4826.8,0.25789
20325,5.0205,0.45455,0,0.00048393,4835.9,0.00016147,0.092285,0.00015671,-35.656,-0.00048452,-4853.6,0.24953
20326,5.0205,0.54545,0.05,9.3309e-07,9.3245,7.165e-07,5.3836,-9.7504e-12,3.3588e-05,-7.1649e-07,-5.3834,0.25013
20327,5.2969,0.54545,0,0.00047558,4752.5,0.00015912,0.057218,0.00015325,-44.025,-0.00047631,-4774.3,0.27358
20328,5.2048,0.45455,0,0.00047879,4784.6,0.00015977,0.08416,0.00015501,-35.672,-0.00047938,-4802.3,0.26506
20329,5.2048,0.54545,0.05,9.6029e-07,9.5963,7.3739e-07,5.5405,-3.4717e-12,2.251e-05,-7.3737e-07,-5.5403,0.26566
20330,5.4812,0.54545,0,0.00047026,4699.3,0.00015731,0.049779,0.00015159,-42.887,-0.00047097,-4720.6,0.28959
20331,5.3891,0.45455,0,0.00047352,4732,0.000158,0.077101,0.00015332,-35.08,-0.00047411,-4749.4,0.28091
20332,5.3891,0.54545,0.05,9.797e-07,9.7902,7.5229e-07,5.6525,-9.0108e-12,1.9849e-05,-7.5228e-07,-5.6523,0.28151
20333,5.6655,0.54545,0,0.00046487,4645.5,0.00015545,0.043595,0.00014995,-41.297,-0.00046556,-4666,0.30593
20334,5.5733,0.45455,0,0.00046817,4678.5,0.00015618,0.070781,0.00015165,-34.018,-0.00046874,-4695.3,0.29709
20335,5.5733,0.54545,0.05,9.929e-07,9.9222,7.6244e-07,5.7287,-4.3902e-12,2.2872e-05,-7.6242e-07,-5.7284,0.29769
20336,5.8497,0.54545,0,0.00045944,4591.2,0.00015356,0.038371,0.00014832,-39.374,-0.00046009,-4610.7,0.32258
20337,5.7576,0.45455,0,0.00046275,4624.3,0.00015432,0.065016,0.00014998,-32.603,-0.00046329,-4640.5,0.31359
20338,5.7576,0.54545,0.05,1.0012e-06,10.006,7.6883e-07,5.7768,-4.8949e-12,1.9921e-05,-7.6883e-07,-5.7765,0.31418
20339,6.034,0.54545,0,0.00045398,4536.6,0.00015165,0.033901,0.0001467,-37.219,-0.0004546,-4555.1,0.33954
20340,5.9419,0.45455,0,0.00045729,4569.7,0.00015244,0.0597,0.00014832,-30.931,-0.00045781,-4585.1,0.3304
20341,5.9419,0.54545,0.05,1.0058e-06,10.051,7.7234e-07,5.8031,-5.081e-12,1.3696e-05,-7.7233e-07,-5.8029,0.33099
20342,6.2183,0.54545,0,0.0004485,4481.9,0.00014973,0.030037,0.00014508,-34.911,-0.00044909,-4499.3,0.35681
20343,6.1261,0.45455,0,0.0004518,4514.9,0.00015054,0.054771,0.00014666,-29.081,-0.00045229,-4529.3,0.34752
20344,6.1261,0.54545,0.05,1.0075e-06,10.068,7.7362e-07,5.8127,-5.3231e-12,1.3407e-05,-7.7361e-07,-5.8125,0.3481
20345,6.4025,0.54545,0,0.00044302,4427.1,0.00014781,0.026668,0.00014348,-32.515,-0.00044356,-4443.3,0.37439
20346,6.3104,0.45455,0,0.0004463,4459.9,0.00014862,0.050186,0.00014501,-27.117,-0.00044676,-4473.4,0.36495
20347,6.3104,0.54545,0.05,1.0069e-06,10.062,7.7321e-07,5.8097,-7.3715e-12,1.2489e-05,-7.732e-07,-5.8094,0.36553
20348,6.5868,0.54545,0,0.00043754,4372.4,0.00014588,0.023711,0.00014187,-30.083,-0.00043804,-4387.3,0.39227
20349,6.4947,0.45455,0,0.0004408,4404.9,0.00014671,0.045916,0.00014336,-25.09,-0.00044122,-4417.4,0.38268
20350,6.4947,0.54545,0.05,1.0048e-06,10.041,7.7155e-07,5.7972,-7.5127e-12,1.1335e-05,-7.7153e-07,-5.7969,0.38325
20351,6.7711,0.54545,0,0.00043206,4317.7,0.00014395,0.0211,0.00014027,-27.655,-0.00043253,-4331.4,0.41044
20352,6.6789,0.45455,0,0.00043529,4349.9,0.00014479,0.04194,0.00014172,-23.041,-0.00043568,-4361.4,0.40071
20353,6.6789,0.54545,0.05,1.0014e-06,10.007,7.6895e-07,5.7777,-7.7687e-12,9.8013e-06,-7.6894e-07,-5.7774,0.40128
20354,6.9553,0.54545,0,0.0004266,4263,0.00014203,0.018783,0.00013866,-25.262,-0.00042702,-4275.6,0.42891
20355,6.8632,0.45455,0,0.0004298,4295,0.00014287,0.038237,0.00014007,-21.001,-0.00043015,-4305.4,0.41903
20356,6.8632,0.54545,0.05,9.9715e-07,9.9646,7.657e-07,5.7532,-8.0111e-12,8.4272e-06,-7.6568e-07,-5.753,0.4196
20357,7.1396,0.54545,0,0.00042114,4208.5,0.00014011,0.016719,0.00013706,-22.927,-0.00042153,-4219.9,0.44766
20358,7.0475,0.45455,0,0.00042431,4240.2,0.00014096,0.034793,0.00013843,-18.995,-0.00042463,-4249.6,0.43765
20359,7.0475,0.54545,0.05,9.9231e-07,9.9162,7.6198e-07,5.7252,-6.2885e-12,8.4104e-06,-7.6196e-07,-5.725,0.43822
20360,7.3239,0.54545,0,0.0004157,4154.2,0.00013821,0.014874,0.00013545,-20.666,-0.00041605,-4164.4,0.46671
20361,7.2317,0.45455,0,0.00041884,4185.5,0.00013906,0.031592,0.00013679,-17.04,-0.00041912,-4194,0.45656
20362,7.2317,0.54545,0.05,9.8705e-07,9.8637,7.5794e-07,5.6949,-6.4385e-12,7.7236e-06,-7.5793e-07,-5.6947,0.45712
20363,7.5081,0.54545,0,0.00041028,4099.9,0.00013631,0.013219,0.00013384,-18.492,-0.00041059,-4109.1,0.48603
20364,7.416,0.45455,0,0.00041338,4130.9,0.00013717,0.028618,0.00013515,-15.15,-0.00041363,-4138.5,0.47575
20365,7.416,0.54545,0.05,9.8155e-07,9.8087,7.5371e-07,5.6631,-6.5149e-12,6.0801e-06,-7.537e-07,-5.663,0.4763
20366,7.6924,0.54545,0,0.00040487,4045.9,0.00013442,0.011731,0.00013223,-16.413,-0.00040514,-4054.1,0.50564
20367,7.6003,0.45455,0,0.00040794,4076.6,0.00013528,0.025859,0.0001335,-13.333,-0.00040816,-4083.2,0.49522
20368,7.6003,0.54545,0.05,9.759e-07,9.7523,7.4937e-07,5.6306,-8.3582e-12,6.6613e-06,-7.4936e-07,-5.6304,0.49577
20369,7.8767,0.54545,0,0.00039947,3992,0.00013254,0.010391,0.00013062,-14.434,-0.00039972,-3999.2,0.52552
20370,7.7845,0.45455,0,0.00040251,4022.4,0.00013341,0.023301,0.00013186,-11.596,-0.00040271,-4028.1,0.51497
20371,7.7845,0.54545,0.05,9.702e-07,9.6953,7.45e-07,5.5977,-6.6375e-12,5.9071e-06,-7.4498e-07,-5.5974,0.51551
20372,8.0609,0.54545,0,0.0003941,3938.3,0.00013068,0.009183,0.000129,-12.555,-0.00039431,-3944.5,0.54567
20373,7.9688,0.45455,0,0.00039711,3968.4,0.00013154,0.02093,0.00013021,-9.9415,-0.00039728,-3973.3,0.53499
20374,7.9688,0.54545,0.05,9.645e-07,9.6383,7.4062e-07,5.5648,-8.4868e-12,5.5684e-06,-7.4061e-07,-5.5646,0.53553
20375,8.2452,0.54545,0,0.00038874,3884.7,0.00012882,0.0080942,0.00012738,-10.779,-0.00038892,-3890.1,0.56608
20376,8.1531,0.45455,0,0.00039172,3914.5,0.00012968,0.018735,0.00012857,-8.3718,-0.00039186,-3918.7,0.55528
20377,8.1531,0.54545,0.05,9.5885e-07,9.5819,7.3628e-07,5.5322,-6.7788e-12,5.2941e-06,-7.3627e-07,-5.532,0.55581
20378,8.4295,0.54545,0,0.0003834,3831.4,0.00012697,0.0071141,0.00012576,-9.1025,-0.00038356,-3835.9,0.58677
20379,8.3373,0.45455,0,0.00038636,3860.9,0.00012784,0.016702,0.00012692,-6.8863,-0.00038647,-3864.3,0.57583
20380,8.3373,0.54545,0.05,9.5327e-07,9.5262,7.32e-07,5.5,-6.9269e-12,4.2316e-06,-7.3199e-07,-5.4998,0.57636
20381,8.6137,0.54545,0,0.00037808,3778.2,0.00012514,0.0062367,0.00012414,-7.524,-0.00037821,-3782,0.60771
20382,8.5216,0.45455,0,0.00038101,3807.5,0.00012601,0.014823,0.00012527,-5.4839,-0.0003811,-3810.2,0.59665
20383,8.5216,0.54545,0.05,9.478e-07,9.4715,7.278e-07,5.4685,-6.8738e-12,3.8722e-06,-7.2778e-07,-5.4682,0.59717
20384,8.798,0.54545,0,0.00037278,3725.2,0.00012332,0.00546,0.00012251,-6.0402,-0.00037288,-3728.2,0.62891
20385,8.7059,0.45455,0,0.00037568,3754.2,0.00012418,0.013085,0.00012363,-4.1622,-0.00037575,-3756.3,0.61773
20386,8.7059,0.54545,0.05,9.4243e-07,9.4178,7.2368e-07,5.4375,-6.952e-12,3.9064e-06,-7.2366e-07,-5.4373,0.61824
20387,8.9823,0.54545,0,0.0003675,3672.4,0.0001215,0.0047909,0.00012089,-4.6473,-0.00036758,-3674.8,0.65036
20388,8.8901,0.45455,0,0.00037037,3701.2,0.00012237,0.011479,0.00012198,-2.9186,-0.00037042,-3702.6,0.63906
20389,8.8901,0.54545,0.05,9.3718e-07,9.3654,7.1965e-07,5.4072,-6.9683e-12,3.7423e-06,-7.1963e-07,-5.407,0.63957
20390,9.1665,0.54545,0,0.00036223,3619.8,0.0001197,0.0042577,0.00011926,-3.341,-0.00036229,-3621.5,0.67205
20391,9.0744,0.45455,0,0.00036508,3648.3,0.00012057,0.0099959,0.00012033,-1.7497,-0.00036511,-3649.2,0.66064
20392,9.0744,0.54545,0.05,9.3205e-07,9.3141,7.1571e-07,5.3776,-6.133e-12,3.093e-06,-7.1569e-07,-5.3774,0.66114
20393,9.3508,0.54545,0,0.00035699,3567.4,0.00011791,0.003966,0.00011763,-2.1169,-0.00035702,-3568.5,0.694
20394,9.2587,0.45455,0,0.00035982,3595.7,0.00011877,0.0086346,0.00011868,-0.65202,-0.00035983,-3596,0.68247
20395,9.2587,0.54545,0.05,9.2704e-07,9.264,7.1186e-07,5.3487,-7.0504e-12,2.7855e-06,-7.1184e-07,-5.3485,0.68297
20396,9.5351,0.54545,0,0.00035176,3515.2,0.00011613,0.0045137,0.000116,-0.97128,-0.00035178,-3515.6,0.71619
20397,9.4429,0.45455,0,0.00035457,3543.2,0.00011704,0.37827,0.00011699,0.0073099,-0.00035456,-3543,0.70454
20398,9.4429,0.54545,0.05,9.2214e-07,9.215,7.081e-07,5.3204,-7.0926e-12,2.7319e-06,-7.0808e-07,-5.3202,0.70503
20399,9.7193,0.54545,0,0.00034655,3463.1,0.00011437,0.12179,0.00011435,-0.015273,-0.00034655,-3463.1,0.73861
20400,9.6272,0.45455,0,0.00034934,3491,0.00011539,1.3448,0.00011522,0.0061613,-0.00034932,-3490.3,0.72686
20401,9.6272,0.54545,0.05,9.1735e-07,9.1671,7.0442e-07,5.2928,-5.3182e-12,3.5938e-06,-7.044e-07,-5.2925,0.72734
20402,9.9036,0.54545,0,0.00034136,3411.3,0.00011274,1.1119,0.00011259,-0.00048693,-0.00034134,-3410.7,0.76127
20403,9.8115,0.45455,0,0.00034413,3438.9,0.00011375,2.2515,0.00011345,0.0050879,-0.00034409,-3437.8,0.74941
20404,9.8115,0.54545,0.05,9.1266e-07,9.1203,7.0082e-07,5.2657,-7.1412e-12,4.3681e-06,-7.008e-07,-5.2655,0.74988
20405,10.088,0.54545,0,0.00033619,3359.6,0.00011111,2.0525,0.00011084,-9.893e-05,-0.00033616,-3358.6,0.78416
20406,9.9957,0.45455,0,0.00033894,3387.1,0.00011211,3.1022,0.0001117,0.0040856,-0.00033889,-3385.5,0.77219
20407,9.9957,0.54545,0.05,9.0808e-07,9.0745,6.9729e-07,5.2393,-6.2485e-12,3.9799e-06,-6.9729e-07,-5.2391,0.77266
20408,10.272,0.54545,0,0.00033104,3308.1,0.00010949,2.934,0.0001091,-0.0002166,-0.00033099,-3306.6,0.80728
20409,10.18,0.45455,0,0.00033377,3335.4,0.00011047,3.9004,0.00010995,0.0031609,-0.0003337,-3333.4,0.7952
20410,10.18,0.54545,0.05,9.0359e-07,9.0296,6.9385e-07,5.2133,-6.2705e-12,3.7721e-06,-6.9383e-07,-5.2132,0.79567
20411,10.456,0.54545,0,0.00032591,3256.8,0.00010786,3.7601,0.00010736,-0.00046835,-0.00032584,-3254.9,0.83063
20412,10.364,0.45455,0,0.00032862,3283.9,0.00010883,4.65,0.00010821,0.0023143,-0.00032854,-3281.6,0.81844
20413,10.364,0.54545,0.05,8.9918e-07,8.9856,6.9047e-07,5.188,-5.3899e-12,3.3937e-06,-6.9046e-07,-5.1877,0.8189
20414,10.641,0.54545,0,0.00032079,3205.7,0.00010624,4.5347,0.00010564,-0.00075441,-0.00032072,-3203.5,0.85419
20415,10.549,0.45455,0,0.00032349,3232.7,0.0001072,5.354,0.00010649,0.001483,-0.0003234,-3230,0.8419
20416,10.549,0.54545,0.05,8.9486e-07,8.9424,6.8715e-07,5.163,-6.3097e-12,3.5913e-06,-6.8713e-07,-5.1628,0.84235
20417,10.825,0.54545,0,0.0003157,3154.8,0.00010462,5.2617,0.00010392,-0.001004,-0.00031561,-3152.2,0.87797
20418,10.733,0.45455,0,0.00031838,3181.6,0.00010557,6.0161,0.00010477,0.00074991,-0.00031828,-3178.6,0.86558
20419,10.733,0.54545,0.05,8.906e-07,8.8998,6.8387e-07,5.1384,-6.3214e-12,3.0611e-06,-6.8386e-07,-5.1382,0.86603
20420,11.009,0.54545,0,0.00031063,3104.1,0.000103,5.9447,0.00010221,-0.0012443,-0.00031052,-3101.1,0.90196
20421,10.917,0.45455,0,0.00031329,3130.7,0.00010394,6.6393,0.00010306,0.00011137,-0.00031318,-3127.4,0.88948
20422,10.917,0.54545,0.05,8.8642e-07,8.858,6.8066e-07,5.1143,-7.2403e-12,9.0616e-07,-6.8065e-07,-5.1141,0.88991
20423,11.193,0.54545,0,0.00030557,3053.6,0.00010139,6.5869,0.00010051,-0.0014944,-0.00030546,-3050.3,0.92617
20424,11.101,0.45455,0,0.00030822,3080.1,0.00010232,7.2266,0.00010135,-0.00051385,-0.0003081,-3076.4,0.91358
20425,11.101,0.54545,0.05,8.8231e-07,8.817,6.7751e-07,5.0906,-3.6115e-12,9.2254e-07,-6.775e-07,-5.0904,0.91401
20426,11.378,0.54545,0,0.00030053,3003.3,9.9777e-05,7.1918,9.882e-05,-0.0017519,-0.00030041,-2999.7,0.95058
20427,11.286,0.45455,0,0.00030317,3029.6,0.0001007,7.7808,9.966e-05,-0.0011013,-0.00030303,-3025.7,0.9379
20428,11.286,0.54545,0.05,8.7826e-07,8.7765,6.744e-07,5.0672,-6.3471e-12,1.865e-06,-6.7439e-07,-5.0671,0.93832
20429,11.562,0.54545,0,0.00029552,2953.1,9.8169e-05,7.7623,9.7136e-05,-0.0019939,-0.00029539,-2949.3,0.97519
20430,11.47,0.45455,0,0.00029814,2979.3,9.9079e-05,8.3046,9.7973e-05,-0.0016804,-0.00029799,-2975.2,0.96242
20431,11.47,0.54545,0.05,8.7426e-07,8.7366,6.7133e-07,5.0441,-3.6257e-12,2.0237e-06,-6.7132e-07,-5.044,0.96284
20432,11.746,0.54545,0,0.00029052,2903.2,9.6565e-05,8.3014,9.546e-05,-0.0021843,-0.00029038,-2899,1
20433,11.654,0.45455,0,0.00029313,2929.2,9.7467e-05,8.8007,9.6295e-05,-0.0021835,-0.00029298,-2924.8,0.98714
20434,11.654,0.54545,0.05,8.703e-07,8.697,6.6829e-07,5.0213,-4.5413e-12,1.4394e-06,-6.6828e-07,-5.0212,0.98755
20435,11.931,0.54545,0,0.00028554,2853.5,9.4965e-05,8.8118,9.3792e-05,-0.0023602,-0.00028539,-2849,1.025
20436,11.838,0.45455,0,0.00028813,2879.4,9.5859e-05,9.2714,9.4625e-05,-0.002614,-0.00028798,-2874.7,1.0121
20437,11.838,0.54545,0.05,8.664e-07,8.6581,6.653e-07,4.9988,-4.5467e-12,2.4343e-07,-6.6529e-07,-4.9987,1.0125
20438,12.115,0.54545,0,0.00028059,2803.9,9.337e-05,9.296,9.2132e-05,-0.0025454,-0.00028043,-2799.3,1.0502
20439,12.023,0.45455,0,0.00028316,2829.7,9.4256e-05,9.7188,9.2962e-05,-0.0030463,-0.000283,-2824.8,1.0372
20440,12.023,0.54545,0.05,8.6256e-07,8.6196,6.6234e-07,4.9766,-5.4632e-12,4.0135e-07,-6.6233e-07,-4.9765,1.0376
20441,12.299,0.54545,0,0.00027565,2754.6,9.1778e-05,9.7565,9.048e-05,-0.0027369,-0.00027548,-2749.7,1.0756
20442,12.207,0.45455,0,0.00027821,2780.2,9.2657e-05,10.145,9.1307e-05,-0.003458,-0.00027804,-2775.1,1.0625
20443,12.207,0.54545,0.05,8.5875e-07,8.5816,6.5942e-07,4.9546,-4.5585e-12,1.3945e-06,-6.5941e-07,-4.9545,1.0629
20444,12.483,0.54545,0,0.00027073,2705.4,9.0192e-05,10.195,8.8835e-05,-0.0029152,-0.00027055,-2700.3,1.1012
20445,12.391,0.45455,0,0.00027328,2730.9,9.1064e-05,10.553,8.9659e-05,-0.0038716,-0.0002731,-2725.6,1.088
20446,12.391,0.54545,0.05,8.5497e-07,8.5438,6.5652e-07,4.9328,-4.566e-12,-1.1631e-07,-6.5651e-07,-4.9327,1.0884
20447,12.668,0.54545,0,0.00026583,2656.5,8.861e-05,10.615,8.7197e-05,-0.0030495,-0.00026565,-2651.1,1.127
20448,12.575,0.45455,0,0.00026837,2681.8,8.9476e-05,10.943,8.8019e-05,-0.0042276,-0.00026818,-2676.4,1.1137
20449,12.575,0.54545,0.05,8.5122e-07,8.5064,6.5364e-07,4.9112,-4.5715e-12,-1.2334e-06,-6.5363e-07,-4.9111,1.114
20450,12.852,0.54545,0,0.00026095,2607.7,8.7034e-05,11.018,8.5567e-05,-0.0031736,-0.00026076,-2602.2,1.1529
20451,12.76,0.45455,0,0.00026348,2633,8.7893e-05,11.318,8.6386e-05,-0.004527,-0.00026328,-2627.3,1.1395
20452,12.76,0.54545,0.05,8.4752e-07,8.4693,6.5079e-07,4.8898,-4.5766e-12,-4.5534e-07,-6.5078e-07,-4.8897,1.1399
20453,13.036,0.54545,0,0.00025609,2559.1,8.5462e-05,11.405,8.3944e-05,-0.0033091,-0.00025589,-2553.4,1.179
20454,12.944,0.45455,0,0.00025861,2584.3,8.6316e-05,11.68,8.4761e-05,-0.0048395,-0.00025841,-2578.4,1.1656
20455,12.944,0.54545,0.05,8.4385e-07,8.4327,6.4798e-07,4.8687,-3.6764e-12,5.5986e-07,-6.4796e-07,-4.8685,1.1659
20456,13.22,0.54545,0,0.00025125,2510.8,8.3897e-05,11.778,8.2328e-05,-0.0034543,-0.00025105,-2504.9,1.2053
20457,13.128,0.45455,0,0.00025375,2535.8,8.4744e-05,12.029,8.3142e-05,-0.005139,-0.00025355,-2529.8,1.1918
20458,13.128,0.54545,0.05,8.4021e-07,8.3963,6.4518e-07,4.8477,-4.5807e-12,1.8784e-06,-6.4517e-07,-4.8475,1.1921
20459,13.405,0.54545,0,0.00024643,2462.6,8.2336e-05,12.14,8.072e-05,-0.0035926,-0.00024622,-2456.5,1.2318
20460,13.313,0.45455,0,0.00024892,2487.5,8.3178e-05,12.369,8.1531e-05,-0.0054535,-0.00024871,-2481.3,1.2181
20461,13.313,0.54545,0.05,8.3659e-07,8.3601,6.424e-07,4.8268,-3.6693e-12,1.2339e-07,-6.4239e-07,-4.8267,1.2185
20462,13.589,0.54545,0,0.00024163,2414.6,8.0782e-05,12.491,7.9119e-05,-0.0036927,-0.00024142,-2408.4,1.2584
20463,13.497,0.45455,0,0.00024411,2439.4,8.1618e-05,12.699,7.9927e-05,-0.0057213,-0.00024389,-2433.1,1.2447
20464,13.497,0.54545,0.05,8.3299e-07,8.3241,6.3964e-07,4.806,-3.6722e-12,1.1799e-06,-6.3963e-07,-4.8059,1.245
20465,13.773,0.54545,0,0.00023685,2366.9,7.9233e-05,12.834,7.7524e-05,-0.003786,-0.00023663,-2360.4,1.2852
20466,13.681,0.45455,0,0.00023932,2391.6,8.0063e-05,13.021,7.833e-05,-0.0059465,-0.0002391,-2385,1.2714
20467,13.681,0.54545,0.05,8.2942e-07,8.2885,6.369e-07,4.7854,-4.5923e-12,7.9994e-07,-6.3689e-07,-4.7853,1.2718
20468,13.957,0.54545,0,0.00023209,2319.3,7.769e-05,13.17,7.5937e-05,-0.0038925,-0.00023186,-2312.7,1.3121
20469,13.865,0.45455,0,0.00023455,2343.9,7.8515e-05,13.338,7.6739e-05,-0.0061894,-0.00023432,-2337.2,1.2983
20470,13.865,0.54545,0.05,8.2589e-07,8.2532,6.3418e-07,4.765,-3.6785e-12,3.0851e-07,-6.3417e-07,-4.7649,1.2986
20471,14.142,0.54545,0,0.00022735,2271.9,7.6153e-05,13.501,7.4356e-05,-0.0040113,-0.00022712,-2265.2,1.3392
20472,14.05,0.45455,0,0.0002298,2296.4,7.6973e-05,13.649,7.5156e-05,-0.0064292,-0.00022956,-2289.6,1.3253
20473,14.05,0.54545,0.05,8.2237e-07,8.218,6.3148e-07,4.7448,-4.5976e-12,-1.0398e-06,-6.3147e-07,-4.7446,1.3257
20474,14.326,0.54545,0,0.00022263,2224.8,7.4623e-05,13.827,7.2782e-05,-0.0041267,-0.00022239,-2217.8,1.3665
20475,14.234,0.45455,0,0.00022507,2249.1,7.5438e-05,13.957,7.3579e-05,-0.0066884,-0.00022483,-2242.1,1.3525
20476,14.234,0.54545,0.05,8.1888e-07,8.1831,6.288e-07,4.7246,-5.5026e-12,-3.6001e-06,-6.2879e-07,-4.7245,1.3528
20477,14.51,0.54545,0,0.00021793,2177.8,7.3099e-05,14.15,7.1215e-05,-0.0042095,-0.00021769,-2170.7,1.3939
20478,14.418,0.45455,0,0.00022036,2202.1,7.3909e-05,14.262,7.201e-05,-0.0069132,-0.00022011,-2194.9,1.3799
20479,14.418,0.54545,0.05,8.1539e-07,8.1483,6.2612e-07,4.7045,-4.5862e-12,-1.6537e-06,-6.2612e-07,-4.7044,1.3802
20480,14.695,0.54545,0,0.00021325,2131.1,7.1581e-05,14.471,6.9655e-05,-0.0042889,-0.000213,-2123.8,1.4215
20481,14.602,0.45455,0,0.00021567,2155.2,7.2386e-05,14.565,7.0447e-05,-0.0071043,-0.00021542,-2147.9,1.4074
20482,14.602,0.54545,0.05,8.1194e-07,8.1138,6.2347e-07,4.6846,-3.679e-12,-1.039e-06,-6.2346e-07,-4.6844,1.4077
20483,14.879,0.54545,0,0.00020859,2084.5,7.0071e-05,14.793,6.8101e-05,-0.0043836,-0.00020834,-2077.1,1.4492
20484,14.787,0.45455,0,0.000211,2108.5,7.087e-05,14.869,6.889e-05,-0.007319,-0.00021074,-2101,1.435
20485,14.787,0.54545,0.05,8.0851e-07,8.0795,6.2084e-07,4.6648,-3.67e-12,9.1012e-07,-6.2083e-07,-4.6647,1.4353
20486,15.063,0.54545,0,0.00020395,2038.1,6.8566e-05,15.115,6.6554e-05,-0.0044912,-0.00020369,-2030.5,1.477
20487,14.971,0.45455,0,0.00020635,2062,6.9361e-05,15.173,6.734e-05,-0.0075384,-0.00020608,-2054.4,1.4628
20488,14.971,0.54545,0.05,8.051e-07,8.0455,6.1822e-07,4.6451,-3.6731e-12,-9.2822e-08,-6.1822e-07,-4.645,1.4631
20489,15.247,0.54545,0,0.00019933,1992,6.7069e-05,15.44,6.5013e-05,-0.0045986,-0.00019907,-1984.2,1.505
20490,15.155,0.45455,0,0.00020172,2015.8,6.7858e-05,15.479,6.5797e-05,-0.0077795,-0.00020145,-2008,1.4907
20491,15.155,0.54545,0.05,8.0171e-07,8.0116,6.1562e-07,4.6256,-3.6603e-12,5.0981e-07,-6.1561e-07,-4.6254,1.491
20492,15.432,0.54545,0,0.00019473,1946,6.5579e-05,15.767,6.3479e-05,-0.0046816,-0.00019446,-1938.1,1.5331
20493,15.339,0.45455,0,0.00019711,1969.7,6.6363e-05,15.788,6.4261e-05,-0.0079985,-0.00019683,-1961.8,1.5187
20494,15.339,0.54545,0.05,7.9834e-07,7.9779,6.1303e-07,4.6061,-3.6608e-12,2.69e-06,-6.1302e-07,-4.606,1.519
20495,15.616,0.54545,0,0.00019016,1900.2,6.4095e-05,16.1,6.1952e-05,-0.004764,-0.00018988,-1892.1,1.5614
20496,15.524,0.45455,0,0.00019252,1923.8,6.4874e-05,16.101,6.273e-05,-0.0081937,-0.00019224,-1915.7,1.5469
20497,15.524,0.54545,0.05,7.9499e-07,7.9444,6.1046e-07,4.5868,-3.6639e-12,2.1696e-06,-6.1045e-07,-4.5867,1.5472
20498,15.8,0.54545,0,0.0001856,1854.7,6.2619e-05,16.439,6.043e-05,-0.0048623,-0.00018531,-1846.4,1.5897
20499,15.708,0.45455,0,0.00018795,1878.2,6.3393e-05,16.419,6.1207e-05,-0.0084175,-0.00018766,-1869.9,1.5752
20500,15.708,0.54545,0.05,7.9167e-07,7.9112,6.0791e-07,4.5676,-3.6785e-12,3.0803e-07,-6.079e-07,-4.5675,1.5755
20501,15.984,0.54545,0,0.00018106,1809.3,6.115e-05,16.784,5.8915e-05,-0.0049747,-0.00018077,-1800.9,1.6182
20502,15.892,0.45455,0,0.0001834,1832.7,6.1919e-05,16.743,5.9689e-05,-0.0086514,-0.00018311,-1824.3,1.6037
20503,15.892,0.54545,0.05,7.8837e-07,7.8783,6.0537e-07,4.5486,-3.6652e-12,1.1195e-06,-6.0537e-07,-4.5485,1.6039
20504,16.169,0.54545,0,0.00017654,1764.2,5.9688e-05,17.138,5.7407e-05,-0.0050884,-0.00017624,-1755.6,1.6468
20505,16.077,0.45455,0,0.00017887,1787.4,6.0452e-05,17.074,5.8178e-05,-0.0089116,-0.00017857,-1778.9,1.6322
20506,16.077,0.54545,0.05,7.8509e-07,7.8455,6.0286e-07,4.5296,-3.2252e-12,1.6187e-06,-6.0285e-07,-4.5296,1.6325
20507,16.353,0.54545,0,0.00017204,1719.2,5.8234e-05,17.501,5.5904e-05,-0.0051853,-0.00017174,-1710.4,1.6756
20508,16.261,0.45455,0,0.00017436,1742.4,5.8992e-05,17.414,5.6673e-05,-0.0091587,-0.00017406,-1733.6,1.6609
20509,16.261,0.54545,0.05,7.8183e-07,7.8129,6.0035e-07,4.5108,-3.2425e-12,2.5589e-06,-6.0035e-07,-4.5107,1.6612
20510,16.537,0.54545,0,0.00016756,1674.5,5.6788e-05,17.875,5.4408e-05,-0.0052857,-0.00016725,-1665.5,1.7044
20511,16.445,0.45455,0,0.00016987,1697.5,5.754e-05,17.762,5.5174e-05,-0.0093952,-0.00016956,-1688.6,1.6897
20512,16.445,0.54545,0.05,7.786e-07,7.7806,5.9787e-07,4.4922,-3.2277e-12,1.5496e-06,-5.9787e-07,-4.4921,1.69
20513,16.721,0.54545,0,0.00016311,1629.9,5.5349e-05,18.262,5.2917e-05,-0.0054025,-0.00016279,-1620.7,1.7334
20514,16.629,0.45455,0,0.0001654,1652.9,5.6095e-05,18.121,5.3682e-05,-0.0096639,-0.00016509,-1643.7,1.7186
20515,16.629,0.54545,0.05,7.754e-07,7.7487,5.9542e-07,4.4737,-3.6853e-12,4.4968e-06,-5.9541e-07,-4.4737,1.7189
20516,16.906,0.54545,0,0.00015867,1585.6,5.3918e-05,18.661,5.1433e-05,-0.0055362,-0.00015834,-1576.2,1.7625
20517,16.814,0.45455,0,0.00016095,1608.4,5.4658e-05,18.491,5.2195e-05,-0.0099511,-0.00016063,-1599.1,1.7477
20518,16.814,0.54545,0.05,7.7223e-07,7.717,5.9298e-07,4.4555,-2.3242e-12,3.9859e-06,-5.9298e-07,-4.4553,1.7479
20519,17.09,0.54545,0,0.00015425,1541.5,5.2494e-05,19.075,4.9955e-05,-0.0056754,-0.00015392,-1531.8,1.7917
20520,16.998,0.45455,0,0.00015653,1564.2,5.3228e-05,18.873,5.0715e-05,-0.01027,-0.0001562,-1554.7,1.7768
20521,16.998,0.54545,0.05,7.6909e-07,7.6856,5.9057e-07,4.4373,-2.3598e-12,4.7804e-06,-5.9056e-07,-4.4372,1.777
20522,17.274,0.54545,0,0.00014985,1497.5,5.1079e-05,19.506,4.8482e-05,-0.0058025,-0.00014951,-1487.7,1.8209
20523,17.182,0.45455,0,0.00015212,1520.1,5.1806e-05,19.269,4.924e-05,-0.01059,-0.00015178,-1510.4,1.806
20524,17.182,0.54545,0.05,7.6597e-07,7.6544,5.8817e-07,4.4193,-2.7637e-12,3.7333e-06,-5.8817e-07,-4.4192,1.8063
20525,17.459,0.54545,0,0.00014548,1453.8,4.9672e-05,19.954,4.7015e-05,-0.005935,-0.00014513,-1443.7,1.8503
20526,17.366,0.45455,0,0.00014773,1476.3,5.0392e-05,19.68,4.7771e-05,-0.010907,-0.00014738,-1466.3,1.8354
20527,17.366,0.54545,0.05,7.6289e-07,7.6237,5.8581e-07,4.4016,-2.777e-12,3.4649e-06,-5.858e-07,-4.4015,1.8356
20528,17.643,0.54545,0,0.00014112,1410.2,4.8273e-05,20.42,4.5554e-05,-0.0060864,-0.00014076,-1399.9,1.8798
20529,17.551,0.45455,0,0.00014336,1432.6,4.8986e-05,20.106,4.6309e-05,-0.011266,-0.00014301,-1422.5,1.8648
20530,17.551,0.54545,0.05,7.5986e-07,7.5933,5.8348e-07,4.384,-1.8802e-12,5.4956e-06,-5.8347e-07,-4.384,1.865
20531,17.827,0.54545,0,0.00013678,1366.9,4.6882e-05,20.907,4.4099e-05,-0.0062591,-0.00013642,-1356.3,1.9094
20532,17.735,0.45455,0,0.00013901,1389.2,4.7588e-05,20.55,4.4851e-05,-0.011652,-0.00013865,-1378.8,1.8944
20533,17.735,0.54545,0.05,7.5686e-07,7.5633,5.8117e-07,4.3667,-1.9027e-12,7.4089e-06,-5.8117e-07,-4.3667,1.8946
20534,18.011,0.54545,0,0.00013247,1323.8,4.55e-05,21.416,4.2649e-05,-0.0064419,-0.00013209,-1312.9,1.939
20535,17.919,0.45455,0,0.00013468,1345.9,4.6198e-05,21.011,4.34e-05,-0.012081,-0.00013431,-1335.3,1.924
20536,17.919,0.54545,0.05,7.539e-07,7.5338,5.789e-07,4.3496,-1.3879e-12,1.3157e-05,-5.789e-07,-4.3496,1.9242
20537,18.196,0.54545,0,0.00012817,1280.8,4.4126e-05,21.948,4.1204e-05,-0.0066182,-0.00012778,-1269.7,1.9688
20538,18.103,0.45455,0,0.00013037,1302.8,4.4816e-05,21.492,4.1954e-05,-0.012524,-0.00013,-1292,1.9537
20539,18.103,0.54545,0.05,7.5097e-07,7.5046,5.7666e-07,4.3328,-1.4061e-12,1.1312e-05,-5.7665e-07,-4.3327,1.9539
20540,18.38,0.54545,0,0.00012389,1238.1,4.2761e-05,22.506,3.9765e-05,-0.0068051,-0.0001235,-1226.7,1.9986
20541,18.288,0.45455,0,0.00012609,1260,4.3442e-05,21.993,4.0513e-05,-0.012981,-0.0001257,-1248.9,1.9835
20542,18.288,0.54545,0.05,7.4811e-07,7.4759,5.7446e-07,4.3163,-2.2902e-12,9.544e-06,-5.7445e-07,-4.3162,1.9837
20543,18.564,0.54545,0,0.00011964,1195.6,4.1405e-05,23.09,3.8331e-05,-0.0070156,-0.00011923,-1183.8,2.0286
20544,18.472,0.45455,0,0.00012182,1217.3,4.2076e-05,22.517,3.9078e-05,-0.013488,-0.00012142,-1205.9,2.0134
20545,18.472,0.54545,0.05,7.4529e-07,7.4478,5.723e-07,4.3,-1.4573e-12,1.4223e-05,-5.7229e-07,-4.2999,2.0136
20546,18.748,0.54545,0,0.0001154,1153.2,4.0057e-05,23.702,3.6902e-05,-0.0072487,-0.00011498,-1141.2,2.0586
20547,18.656,0.45455,0,0.00011757,1174.9,4.0719e-05,23.063,3.7648e-05,-0.01404,-0.00011716,-1163.2,2.0434
20548,18.656,0.54545,0.05,7.4254e-07,7.4202,5.7018e-07,4.2841,-1.8936e-12,8.8368e-06,-5.7017e-07,-4.284,2.0435
20549,18.933,0.54545,0,0.00011118,1111.1,3.8718e-05,24.345,3.5477e-05,-0.0074946,-0.00011075,-1098.7,2.0887
20550,18.841,0.45455,0,0.00011334,1132.6,3.937e-05,23.634,3.6223e-05,-0.014645,-0.00011292,-1120.6,2.0734
20551,18.841,0.54545,0.05,7.3984e-07,7.3933,5.681e-07,4.2685,-1.8993e-12,6.3617e-06,-5.681e-07,-4.2685,2.0736
20552,19.117,0.54545,0,0.00010699,1069.1,3.7389e-05,25.019,3.4058e-05,-0.0077425,-0.00010654,-1056.4,2.1188
20553,19.025,0.45455,0,0.00010912,1090.5,3.803e-05,24.23,3.4803e-05,-0.015281,-0.00010869,-1078.2,2.1036
20554,19.025,0.54545,0.05,7.372e-07,7.3669,5.6608e-07,4.2533,-1.5039e-12,1.0826e-05,-5.6607e-07,-4.2532,2.1037
20555,19.301,0.54545,0,0.00010281,1027.4,3.6069e-05,25.728,3.2643e-05,-0.0080062,-0.00010235,-1014.3,2.149
20556,19.209,0.45455,0,0.00010493,1048.6,3.6698e-05,24.854,3.3388e-05,-0.015955,-0.00010449,-1036,2.1337
20557,19.209,0.54545,0.05,7.3463e-07,7.3412,5.6411e-07,4.2385,-5.7778e-13,1.4945e-05,-5.641e-07,-4.2384,2.1339
20558,19.485,0.54545,0,9.8648e-05,985.8,3.4758e-05,26.473,3.1233e-05,-0.008293,-9.8171e-05,-972.3,2.1793
20559,19.393,0.45455,0,0.00010076,1006.9,3.5375e-05,25.506,3.1978e-05,-0.016696,-0.0001003,-993.91,2.164
20560,19.393,0.54545,0.05,7.3214e-07,7.3163,5.6219e-07,4.2241,-2.2899e-13,1.5845e-05,-5.6219e-07,-4.2241,2.1642
20561,19.67,0.54545,0,9.4509e-05,944.43,3.3456e-05,27.255,2.9827e-05,-0.0086037,-9.4016e-05,-930.52,2.2097
20562,19.578,0.45455,0,9.6604e-05,965.38,3.406e-05,26.188,3.0572e-05,-0.017496,-9.6132e-05,-952.03,2.1943
20563,19.578,0.54545,0.05,7.2973e-07,7.2922,5.6034e-07,4.2102,-1.5915e-12,1.1817e-05,-5.6034e-07,-4.2101,2.1945
20564,19.854,0.54545,0,9.0388e-05,903.26,3.2164e-05,28.078,2.8426e-05,-0.008932,-8.9878e-05,-888.9,2.2401
20565,19.762,0.45455,0,9.2468e-05,924.04,3.2753e-05,26.901,2.9171e-05,-0.018372,-9.1982e-05,-910.31,2.2247
20566,19.762,0.54545,0.05,7.274e-07,7.269,5.5856e-07,4.1968,-7.0464e-13,9.9257e-06,-5.5855e-07,-4.1967,2.2249
20567,20.038,0.54545,0,8.6287e-05,862.27,3.0881e-05,28.943,2.7028e-05,-0.0092635,-8.5758e-05,-847.44,2.2706
20568,19.946,0.45455,0,8.8351e-05,882.9,3.1456e-05,27.646,2.7774e-05,-0.019305,-8.7848e-05,-868.76,2.2552
20569,19.946,0.54545,0.05,7.2516e-07,7.2466,5.5684e-07,4.1839,-1.2146e-12,5.6397e-06,-5.5683e-07,-4.1838,2.2553
20570,20.223,0.54545,0,8.2204e-05,821.47,2.9609e-05,29.853,2.5634e-05,-0.0096111,-8.1656e-05,-806.14,2.3011
20571,20.13,0.45455,0,8.4251e-05,841.93,3.0167e-05,28.426,2.6381e-05,-0.020298,-8.3732e-05,-827.37,2.2857
20572,20.13,0.54545,0.05,7.2303e-07,7.2253,5.552e-07,4.1715,-2.1611e-12,2.6776e-06,-5.5519e-07,-4.1715,2.2858
20573,20.407,0.54545,0,7.814e-05,780.86,2.8346e-05,30.811,2.4244e-05,-0.0099758,-7.7571e-05,-765.01,2.3317
20574,20.315,0.45455,0,8.0169e-05,801.14,2.8887e-05,29.241,2.4992e-05,-0.021383,-7.9632e-05,-786.13,2.3163
20575,20.315,0.54545,0.05,7.21e-07,7.205,5.5364e-07,4.1598,-2.0019e-12,-6.8449e-07,-5.5363e-07,-4.1598,2.3164
20576,20.591,0.54545,0,7.4095e-05,740.44,2.7094e-05,31.818,2.2858e-05,-0.010352,-7.3503e-05,-724.02,2.3624
20577,20.499,0.45455,0,7.6106e-05,760.53,2.7616e-05,30.093,2.3608e-05,-0.022548,-7.5549e-05,-745.05,2.3469
20578,20.499,0.54545,0.05,7.1908e-07,7.1858,5.5217e-07,4.1488,-1.8377e-12,2.149e-06,-5.5216e-07,-4.1487,2.347
20579,20.775,0.54545,0,7.0069e-05,700.21,2.5852e-05,32.88,2.1474e-05,-0.010732,-6.9452e-05,-683.19,2.3931
20580,20.683,0.45455,0,7.206e-05,720.1,2.6353e-05,30.985,2.2226e-05,-0.023814,-7.1483e-05,-704.12,2.3776
20581,20.683,0.54545,0.05,7.1728e-07,7.1678,5.5078e-07,4.1384,-1.2928e-12,6.555e-06,-5.5078e-07,-4.1383,2.3777
20582,20.96,0.54545,0,6.6062e-05,660.16,2.462e-05,33.999,2.0094e-05,-0.011097,-6.5418e-05,-642.51,2.4238
20583,20.867,0.45455,0,6.8031e-05,679.84,2.51e-05,31.917,2.0849e-05,-0.025162,-6.7432e-05,-663.33,2.4083
20584,20.867,0.54545,0.05,7.156e-07,7.1511,5.495e-07,4.1287,-8.8542e-13,8.0579e-06,-5.4949e-07,-4.1287,2.4084
20585,21.144,0.54545,0,6.2074e-05,620.31,2.34e-05,35.18,1.8716e-05,-0.01144,-6.1401e-05,-601.98,2.4546
20586,21.052,0.45455,0,6.4021e-05,639.76,2.3856e-05,32.892,1.9474e-05,-0.026597,-6.3398e-05,-622.7,2.4391
20587,21.052,0.54545,0.05,7.1407e-07,7.1357,5.4832e-07,4.1198,-7.9852e-13,7.6142e-06,-5.4831e-07,-4.1198,2.4392
20588,21.328,0.54545,0,5.8106e-05,580.66,2.2191e-05,36.428,1.7341e-05,-0.01175,-5.7401e-05,-561.59,2.4854
20589,21.236,0.45455,0,6.0028e-05,599.86,2.262e-05,33.913,1.8103e-05,-0.028135,-5.9379e-05,-582.2,2.4699
20590,21.236,0.54545,0.05,7.1268e-07,7.1218,5.4725e-07,4.1118,-5.5457e-13,5.1004e-06,-5.4725e-07,-4.1118,2.47
20591,21.512,0.54545,0,5.4158e-05,541.21,2.0994e-05,37.75,1.5969e-05,-0.011995,-5.3417e-05,-521.35,2.5163
20592,21.42,0.45455,0,5.6053e-05,560.14,2.1395e-05,34.984,1.6735e-05,-0.029769,-5.5376e-05,-541.84,2.5007
20593,21.42,0.54545,0.05,7.1144e-07,7.1095,5.463e-07,4.1047,-9.3974e-13,3.4327e-06,-5.463e-07,-4.1047,2.5008
20594,21.697,0.54545,0,5.0232e-05,501.97,1.9811e-05,39.155,1.4598e-05,-0.012127,-4.9451e-05,-481.26,2.5472
20595,21.605,0.45455,0,5.2096e-05,520.6,2.0179e-05,36.107,1.537e-05,-0.031489,-5.1388e-05,-501.62,2.5316
20596,21.605,0.54545,0.05,7.1037e-07,7.0988,5.4548e-07,4.0985,-1.2582e-12,-3.7191e-07,-5.4548e-07,-4.0985,2.5317
20597,21.881,0.54545,0,4.6329e-05,462.97,1.8642e-05,40.653,1.323e-05,-0.012081,-4.5504e-05,-441.31,2.5781
20598,21.789,0.45455,0,4.816e-05,481.26,1.8974e-05,37.29,1.4007e-05,-0.033269,-4.7417e-05,-461.55,2.5625
20599,21.789,0.54545,0.05,7.0949e-07,7.09,5.448e-07,4.0934,-1.3328e-12,3.1825e-06,-5.448e-07,-4.0934,2.5626
20600,22.065,0.54545,0,4.2452e-05,424.23,1.7489e-05,42.261,1.1863e-05,-0.011772,-4.1575e-05,-401.52,2.609
20601,21.973,0.45455,0,4.4244e-05,442.13,1.7781e-05,38.539,1.2647e-05,-0.035076,-4.3463e-05,-421.62,2.5935
20602,21.973,0.54545,0.05,7.0881e-07,7.0832,5.4428e-07,4.0895,-2.0558e-12,2.1461e-06,-5.4428e-07,-4.0895,2.5935
20603,22.249,0.54545,0,3.8605e-05,385.79,1.6355e-05,43.999,1.0497e-05,-0.011058,-3.7668e-05,-361.91,2.64
20604,22.157,0.45455,0,4.0352e-05,403.24,1.66e-05,39.867,1.1289e-05,-0.036861,-3.9526e-05,-381.84,2.6244
20605,22.157,0.54545,0.05,7.0837e-07,7.0788,5.4394e-07,4.087,-1.0314e-12,3.25e-06,-5.4394e-07,-4.0869,2.6245
20606,22.434,0.54545,0,3.4794e-05,347.7,1.5242e-05,45.9,9.1323e-06,-0.0096919,-3.3785e-05,-322.48,2.671
20607,22.342,0.45455,0,3.6486e-05,364.61,1.5434e-05,41.289,9.9339e-06,-0.038517,-3.5608e-05,-342.22,2.6554
20608,22.342,0.54545,0.05,7.0821e-07,7.0772,5.4382e-07,4.086,-1.363e-12,-3.9891e-07,-5.4381e-07,-4.086,2.6555
20609,22.618,0.54545,0,3.1027e-05,310.06,1.4158e-05,48.007,7.7679e-06,-0.0073623,-2.993e-05,-283.26,2.7021
20610,22.526,0.45455,0,3.2653e-05,326.31,1.4286e-05,42.83,8.5807e-06,-0.039827,-3.1713e-05,-302.79,2.6865
20611,22.526,0.54545,0.05,7.084e-07,7.0792,5.4397e-07,4.0872,-1.6845e-12,-6.8323e-06,-5.4397e-07,-4.0871,2.6865
20612,22.802,0.54545,0,2.7319e-05,273,1.311e-05,50.391,6.403e-06,-0.0032422,-2.611e-05,-244.3,2.7331
20613,22.71,0.45455,0,2.8861e-05,288.41,1.3161e-05,44.529,7.2293e-06,-0.040592,-2.7844e-05,-263.57,2.7175
20614,22.71,0.54545,0.05,7.0908e-07,7.086,5.4449e-07,4.0911,-8.269e-13,-3.0929e-06,-5.4449e-07,-4.0911,2.7176
20615,22.987,0.54545,0,2.3692e-05,236.75,1.2111e-05,53.158,5.0361e-06,0.0028844,-2.2335e-05,-205.65,2.7642
20616,22.894,0.45455,0,2.5123e-05,251.06,1.2066e-05,46.447,5.8794e-06,-0.039671,-2.4009e-05,-224.61,2.7486
20617,22.894,0.54545,0.05,7.1048e-07,7.0999,5.4556e-07,4.0991,-6.4307e-13,-1.4733e-06,-5.4556e-07,-4.0991,2.7486
20618,23.171,0.54545,0,2.0183e-05,201.69,1.1181e-05,56.484,3.6652e-06,0.016469,-1.862e-05,-167.42,2.7952
20619,23.079,0.45455,0,2.1464e-05,214.49,1.1015e-05,48.687,4.5298e-06,-0.03805,-2.0217e-05,-185.97,2.7796
20620,23.079,0.54545,0.05,7.1301e-07,7.1251,5.475e-07,4.1137,9.3285e-15,5.9511e-06,-5.475e-07,-4.1137,2.7797
20621,23.355,0.54545,0,1.6858e-05,168.46,1.0352e-05,60.641,2.2846e-06,0.027447,-1.4987e-05,-129.74,2.8263
20622,23.263,0.45455,0,1.7925e-05,179.12,1.0028e-05,51.43,3.1795e-06,-0.024902,-1.6487e-05,-147.79,2.8107
20623,23.263,0.54545,0.05,7.1758e-07,7.1709,5.5101e-07,4.1401,4.5187e-13,7.3001e-06,-5.5101e-07,-4.1401,2.8108
20624,23.539,0.54545,0,1.3832e-05,138.22,9.6733e-06,66.089,8.9081e-07,0.10113,-1.1468e-05,-92.759,2.8574
20625,23.447,0.45455,0,1.4583e-05,145.73,9.1441e-06,54.989,1.8217e-06,-0.028692,-1.2847e-05,-110.24,2.8418
20626,23.447,0.54545,0.05,7.2603e-07,7.2553,5.575e-07,4.1888,2.436e-14,3.151e-06,-5.575e-07,-4.1888,2.8419
20627,23.724,0.54545,0,1.1306e-05,112.98,9.2181e-06,73.429,-5.4847e-07,0.04739,-8.098e-06,-56.677,2.8885
20628,23.631,0.45455,0,1.1601e-05,115.93,8.4335e-06,60.019,4.586e-07,0.098551,-9.3511e-06,-73.608,2.8729
20629,23.631,0.54545,0.05,7.4302e-07,7.4251,5.7055e-07,4.2869,-6.8567e-13,-1.1473e-06,-5.7055e-07,-4.2869,2.873
20630,23.816,0.45455,0,9.2992e-06,92.928,8.0298e-06,67.501,-9.7443e-07,-0.15292,-6.0723e-06,-38.457,2.904
20631,23.816,0.54545,0.05,7.9516e-07,7.9461,6.1059e-07,4.5877,-7.0255e-13,-5.9341e-06,-6.1059e-07,-4.5877,2.9041
20632,23.908,0.54545,0,9.4158e-06,94.093,8.8453e-06,81.241,-1.9199e-06,0.35624,-4.8985e-06,-22.024,2.9197
20633,1.2431,0.36364,0,0.00018006,1799.3,8.2443e-05,275.95,4.428e-05,-10.792,-0.00017382,-1649.5,0.0038577
20634,1.1509,0.27273,0,0.00014023,1401.4,6.9459e-05,274.35,3.0164e-05,-20.896,-0.00013357,-1251.1,0.0037395
20635,1.1509,0.36364,0.05,1.372e-05,137.1,1.0535e-05,79.156,-2.7569e-12,-3.0835e-05,-1.0535e-05,-79.156,0.0017656
20636,1.0588,0.36364,0,0.00013077,1306.8,6.5744e-05,281.84,2.8834e-05,4.5099,-0.00012367,-1141.3,0.0068901
20637,1.4273,0.36364,0,0.00022781,2276.5,9.1799e-05,199.32,6.4756e-05,-3.8694,-0.0002238,-2172,0.012482
20638,1.3352,0.27273,0,0.00018719,1870.6,7.6229e-05,171.9,5.2541e-05,-6.0816,-0.00018374,-1781.4,0.0071077
20639,1.3352,0.36364,0.05,1.1888e-05,118.79,9.1282e-06,68.586,5.5093e-13,6.4647e-06,-9.1282e-06,-68.586,0.0075285
20640,1.6116,0.36364,0,0.00028308,2828.9,0.0001093,190.66,8.3626e-05,-2.209,-0.00027938,-2729.7,0.021826
20641,1.5195,0.27273,0,0.00024636,2461.9,9.48e-05,161.26,7.2898e-05,-3.307,-0.00024326,-2378.8,0.016255
20642,1.5195,0.36364,0.05,1.0917e-05,109.09,8.3827e-06,62.984,2.2744e-12,1.877e-05,-8.3827e-06,-62.984,0.016918
20643,1.7959,0.36364,0,0.00033385,3336.2,0.00012577,187.64,0.00010066,-0.9983,-0.00033028,-3238.9,0.03141
20644,1.7037,0.27273,0,0.0003016,3013.9,0.00011282,159.89,9.1433e-05,-0.83696,-0.00029858,-2931.2,0.025749
20645,1.7037,0.36364,0.05,9.6328e-06,96.261,7.3968e-06,55.577,1.6385e-12,2.697e-05,-7.3968e-06,-55.576,0.026455
20646,1.9801,0.36364,0,0.00037735,3770.9,0.00013939,178.74,0.00011551,-0.65583,-0.000374,-3678.7,0.041226
20647,1.888,0.27273,0,0.00034971,3494.7,0.00012816,153.56,0.00010769,-0.24473,-0.00034684,-3415.5,0.035473
20648,1.888,0.36364,0.05,8.2411e-06,82.354,6.3282e-06,47.547,8.7472e-13,2.7386e-05,-6.3282e-06,-47.547,0.036184
20649,2.1644,0.36364,0,0.00041314,4128.5,0.00014993,163.34,0.00012812,-0.49864,-0.00041012,-4044.7,0.051298
20650,2.0723,0.27273,0,0.00039003,3897.6,0.00014048,141.57,0.00012163,-0.029453,-0.00038743,-3824.9,0.045437
20651,2.0723,0.36364,0.05,6.8576e-06,68.528,5.2657e-06,39.565,9.8885e-13,1.9825e-05,-5.2658e-06,-39.565,0.046143
20652,2.3487,0.36364,0,0.00044166,4413.5,0.00015768,143.31,0.00013855,-0.42521,-0.00043905,-4340.3,0.061648
20653,2.2565,0.27273,0,0.00042283,4225.3,0.00014997,125.45,0.00013327,-0.012317,-0.00042055,-4161.2,0.055665
20654,2.2565,0.36364,0.05,5.5632e-06,55.593,4.2718e-06,32.097,-7.6838e-13,1.6117e-05,-4.2718e-06,-32.097,0.056362
20655,2.5329,0.36364,0,0.00046373,4634.1,0.00016311,120.94,0.00014697,-0.36761,-0.00046156,-4572.6,0.072296
20656,2.4408,0.27273,0,0.00044878,4484.7,0.00015702,107.16,0.00014275,-0.029425,-0.00044686,-4430.1,0.066179
20657,2.4408,0.36364,0.05,4.4038e-06,44.008,3.3816e-06,25.408,-2.458e-12,1.2108e-05,-3.3816e-06,-25.408,0.066867
20658,2.7172,0.36364,0,0.00048028,4799.5,0.00016669,98.15,0.00015358,-0.31548,-0.00047854,-4749.8,0.083258
20659,2.6251,0.27273,0,0.00046875,4684.2,0.00016205,88.351,0.00015029,-0.047807,-0.00046718,-4639.5,0.076995
20660,2.6251,0.36364,0.05,3.3981e-06,33.958,2.6093e-06,19.606,-5.9051e-12,8.0898e-06,-2.6093e-06,-19.605,0.077675
20661,2.9015,0.36364,0,0.00049224,4919,0.00016882,76.34,0.00015862,-0.26769,-0.0004909,-4880.5,0.094544
20662,2.8093,0.27273,0,0.00048364,4833.1,0.00016546,70.217,0.00015611,-0.055502,-0.00048241,-4797.6,0.088128
20663,2.8093,0.36364,0.05,2.5467e-06,25.45,1.9556e-06,14.694,-5.4572e-12,7.9451e-06,-1.9556e-06,-14.693,0.088802
20664,3.0857,0.36364,0,0.00050044,5000.9,0.00016986,56.384,0.00016232,-0.22842,-0.00049946,-4972.6,0.10616
20665,2.9936,0.27273,0,0.0004943,4939.6,0.00016759,53.523,0.00016046,-0.054981,-0.00049337,-4912.7,0.099589
20666,2.9936,0.36364,0.05,1.8403e-06,18.39,1.4131e-06,10.617,-4.8266e-12,1.2511e-05,-1.4131e-06,-10.617,0.10026
20667,3.27,0.36364,0,0.00050559,5052.4,0.00017009,38.758,0.0001649,-0.20435,-0.00050492,-5033,0.11812
20668,3.1779,0.27273,0,0.0005015,5011.6,0.00016873,38.683,0.00016357,-0.051579,-0.00050083,-4992.1,0.11138
20669,3.1779,0.36364,0.05,1.2652e-06,12.643,9.7149e-07,7.2995,-5.5186e-12,2.191e-05,-9.7149e-07,-7.2993,0.11205
20670,3.4543,0.36364,0,0.00050832,5079.7,0.00016973,23.648,0.00016655,-0.21058,-0.00050791,-5067.9,0.13043
20671,3.3621,0.27273,0,0.0005059,5055.5,0.00016911,25.864,0.00016566,-0.052768,-0.00050545,-5042.5,0.12352
20672,3.3621,0.36364,0.05,8.0933e-07,8.0877,6.2146e-07,4.6695,-4.7284e-12,4.6258e-05,-6.2146e-07,-4.6693,0.12418
20673,3.6385,0.36364,0,0.00050912,5087.7,0.00016895,11.091,0.00016743,-0.31155,-0.00050893,-5082.3,0.14307
20674,3.5464,0.27273,0,0.00050805,5077,0.00016892,15.072,0.0001669,-0.072884,-0.00050779,-5069.5,0.136
20675,3.5464,0.36364,0.05,4.7221e-07,4.7188,3.626e-07,2.7245,4.7201e-12,0.00011328,-3.626e-07,-2.7243,0.13666
20676,3.8228,0.36364,0,0.00050841,5080.6,0.00016801,1.9131,0.00016756,-1.4787,-0.0005084,-5080.4,0.15607
20677,3.7307,0.27273,0,0.00050841,5080.6,0.00016831,6.2632,0.00016745,-0.17785,-0.00050831,-5077.6,0.14882
20678,3.7307,0.36364,0.05,2.9762e-07,2.9742,2.2853e-07,1.7171,2.1571e-11,0.00035563,-2.2854e-07,-1.7171,0.14948
20679,4.0071,0.36364,0,0.00050652,5061.7,0.00016758,0.33218,0.00016645,-8.1452,-0.00050665,-5065.6,0.16941
20680,3.9149,0.27273,0,0.00050737,5070.2,0.00016758,0.71366,0.00016725,-1.8113,-0.00050739,-5070.8,0.16199
20681,3.9149,0.36364,0.05,3.3832e-07,3.3809,2.5979e-07,1.952,1.7879e-11,0.00021131,-2.5979e-07,-1.9519,0.16265
20682,4.1913,0.36364,0,0.00050371,5033.7,0.00016696,0.19541,0.00016501,-14.402,-0.00050395,-5040.8,0.18309
20683,4.0992,0.27273,0,0.00050523,5048.8,0.00016709,0.21976,0.00016613,-6.9622,-0.00050535,-5052.2,0.17551
20684,4.0992,0.36364,0.05,4.6543e-07,4.6511,3.574e-07,2.6854,3.384e-12,0.0001311,-3.5739e-07,-2.6852,0.17616
20685,4.3756,0.36364,0,0.0005002,4998.6,0.00016603,0.15586,0.00016346,-19.153,-0.00050052,-5008.1,0.19712
20686,4.2835,0.27273,0,0.00050224,5018.9,0.00016631,0.15641,0.00016479,-11.205,-0.00050242,-5024.4,0.18936
20687,4.2835,0.36364,0.05,5.882e-07,5.8779,4.5167e-07,3.3937,-1.9562e-12,6.5771e-05,-4.5165e-07,-3.3935,0.19002
20688,4.5599,0.36364,0,0.00049615,4958.1,0.00016486,0.13844,0.00016184,-22.563,-0.00049653,-4969.3,0.21148
20689,4.4677,0.27273,0,0.00049858,4982.3,0.00016525,0.13376,0.00016333,-14.342,-0.00049882,-4989.4,0.20356
20690,4.4677,0.36364,0.05,6.8957e-07,6.8909,5.2951e-07,3.9786,-2.8656e-12,4.7145e-05,-5.295e-07,-3.9784,0.20422
20691,4.7441,0.36364,0,0.00049169,4913.5,0.0001635,0.12828,0.00016017,-24.84,-0.00049211,-4925.8,0.22619
20692,4.652,0.27273,0,0.00049441,4940.7,0.00016398,0.12169,0.00016177,-16.522,-0.00049469,-4948.9,0.2181
20693,4.652,0.36364,0.05,7.6926e-07,7.6873,5.9071e-07,4.4384,-4.1375e-12,3.8265e-05,-5.9069e-07,-4.4382,0.21875
20694,4.9284,0.36364,0,0.00048692,4865.8,0.00016199,0.1208,0.00015849,-26.179,-0.00048736,-4878.8,0.24122
20695,4.8363,0.27273,0,0.00048986,4895.2,0.00016255,0.11336,0.00016015,-17.903,-0.00049016,-4904.1,0.23297
20696,4.8363,0.36364,0.05,8.3023e-07,8.2966,6.3752e-07,4.7902,-6.4704e-12,3.293e-05,-6.3751e-07,-4.7899,0.23362
20697,5.1127,0.36364,0,0.00048191,4815.8,0.00016036,0.11432,0.00015679,-26.754,-0.00048236,-4829.1,0.25659
20698,5.0205,0.27273,0,0.00048501,4846.8,0.00016098,0.10653,0.00015849,-18.626,-0.00048532,-4856,0.24818
20699,5.0205,0.36364,0.05,8.7581e-07,8.7521,6.7252e-07,5.0531,-8.6806e-12,2.2675e-05,-6.725e-07,-5.0529,0.24883
20700,5.2969,0.36364,0,0.00047674,4764.1,0.00015865,0.10817,0.00015508,-26.719,-0.00047719,-4777.4,0.27229
20701,5.2048,0.27273,0,0.00047995,4796.2,0.00015932,0.10037,0.0001568,-18.815,-0.00048026,-4805.5,0.26371
20702,5.2048,0.36364,0.05,9.0904e-07,9.0841,6.9804e-07,5.2449,-4.1296e-12,2.4339e-05,-6.9802e-07,-5.2446,0.26436
20703,5.4812,0.36364,0,0.00047144,4711.2,0.00015688,0.10211,0.00015338,-26.203,-0.00047188,-4724.1,0.28831
20704,5.3891,0.27273,0,0.00047472,4743.9,0.00015759,0.094578,0.0001551,-18.58,-0.00047503,-4753.2,0.27957
20705,5.3891,0.36364,0.05,9.325e-07,9.3186,7.1606e-07,5.3802,-6.1176e-12,2.2528e-05,-7.1604e-07,-5.3799,0.28022
20706,5.6655,0.36364,0,0.00046605,4657.3,0.00015506,0.096085,0.00015168,-25.316,-0.00046648,-4669.9,0.30465
20707,5.5733,0.27273,0,0.00046938,4690.6,0.00015579,0.089038,0.00015338,-18.013,-0.00046968,-4699.5,0.29576
20708,5.5733,0.36364,0.05,9.4832e-07,9.4766,7.282e-07,5.4715,-6.4834e-12,1.7012e-05,-7.2818e-07,-5.4712,0.2964
20709,5.8497,0.36364,0,0.0004606,4602.9,0.0001532,0.090094,0.00014998,-24.152,-0.00046101,-4614.9,0.3213
20710,5.7576,0.27273,0,0.00046396,4636.4,0.00015396,0.083735,0.00015166,-17.191,-0.00046424,-4644.9,0.31226
20711,5.7576,0.36364,0.05,9.5821e-07,9.5755,7.3579e-07,5.5285,-6.7951e-12,1.5436e-05,-7.3578e-07,-5.5283,0.3129
20712,6.034,0.36364,0,0.00045512,4548,0.00015132,0.084183,0.00014828,-22.785,-0.0004555,-4559.3,0.33827
20713,5.9419,0.27273,0,0.00045847,4581.6,0.0001521,0.078689,0.00014994,-16.179,-0.00045875,-4589.6,0.32908
20714,5.9419,0.36364,0.05,9.6356e-07,9.6289,7.399e-07,5.5595,-6.9699e-12,2.288e-05,-7.3988e-07,-5.5591,0.32971
20715,6.2183,0.36364,0,0.0004496,4492.9,0.00014943,0.078396,0.00014659,-21.279,-0.00044996,-4503.5,0.35555
20716,6.1261,0.27273,0,0.00045296,4526.5,0.00015023,0.073933,0.00014822,-15.03,-0.00045321,-4533.9,0.3462
20717,6.1261,0.36364,0.05,9.6545e-07,9.6478,7.4135e-07,5.5703,-7.1693e-12,1.3107e-05,-7.4134e-07,-5.5701,0.34684
20718,6.4025,0.36364,0,0.00044408,4437.7,0.00014753,0.072777,0.0001449,-19.683,-0.00044441,-4447.5,0.37314
20719,6.3104,0.27273,0,0.00044742,4471.1,0.00014834,0.069505,0.00014649,-13.79,-0.00044765,-4478,0.36364
20720,6.3104,0.36364,0.05,9.6476e-07,9.6409,7.4082e-07,5.5663,-9.4039e-12,1.214e-05,-7.4081e-07,-5.5661,0.36427
20721,6.5868,0.36364,0,0.00043855,4382.5,0.00014562,0.067362,0.00014321,-18.038,-0.00043885,-4391.4,0.39102
20722,6.4947,0.27273,0,0.00044187,4415.7,0.00014644,0.065444,0.00014477,-12.493,-0.00044208,-4421.9,0.38138
20723,6.4947,0.36364,0.05,9.6215e-07,9.6149,7.3882e-07,5.5513,-9.3883e-12,1.0302e-05,-7.388e-07,-5.551,0.38201
20724,6.7711,0.36364,0,0.00043303,4327.3,0.00014371,0.062178,0.00014153,-16.377,-0.0004333,-4335.4,0.40921
20725,6.6789,0.27273,0,0.00043632,4360.2,0.00014454,0.061808,0.00014305,-11.167,-0.00043651,-4365.8,0.39942
20726,6.6789,0.36364,0.05,9.5816e-07,9.575,7.3576e-07,5.5282,-7.7631e-12,9.6823e-06,-7.3574e-07,-5.528,0.40004
20727,6.9553,0.36364,0,0.00042751,4272.1,0.00014181,0.057245,0.00013984,-14.723,-0.00042776,-4279.5,0.42768
20728,6.8632,0.27273,0,0.00043078,4304.8,0.00014265,0.058617,0.00014133,-9.8352,-0.00043095,-4309.7,0.41776
20729,6.8632,0.36364,0.05,9.5319e-07,9.5253,7.3194e-07,5.4996,-7.9215e-12,8.1108e-06,-7.3192e-07,-5.4993,0.41837
20730,7.1396,0.36364,0,0.00042201,4217.1,0.00013991,0.052577,0.00013816,-13.096,-0.00042223,-4223.6,0.44645
20731,7.0475,0.27273,0,0.00042525,4249.5,0.00014076,0.055989,0.00013962,-8.515,-0.00042539,-4253.8,0.43639
20732,7.0475,0.36364,0.05,9.4755e-07,9.4689,7.2761e-07,5.467,-6.2812e-12,8.4257e-06,-7.2759e-07,-5.4668,0.437
20733,7.3239,0.36364,0,0.00041652,4162.3,0.00013802,0.048179,0.00013649,-11.511,-0.00041671,-4168,0.4655
20734,7.2317,0.27273,0,0.00041973,4194.4,0.00013887,0.05404,0.0001379,-7.2197,-0.00041985,-4198,0.4553
20735,7.2317,0.36364,0.05,9.4148e-07,9.4083,7.2295e-07,5.432,-9.9775e-12,8.2602e-06,-7.2293e-07,-5.4317,0.45591
20736,7.5081,0.36364,0,0.00041104,4107.6,0.00013614,0.044059,0.00013481,-9.9766,-0.00041121,-4112.5,0.48484
20737,7.416,0.27273,0,0.00041423,4139.4,0.00013699,0.052994,0.00013619,-5.9594,-0.00041433,-4142.3,0.47451
20738,7.416,0.36364,0.05,9.3516e-07,9.3451,7.1809e-07,5.3955,-6.5117e-12,6.791e-06,-7.1808e-07,-5.3953,0.47511
20739,7.6924,0.36364,0,0.00040559,4053.1,0.00013427,0.040217,0.00013313,-8.5011,-0.00040573,-4057.3,0.50446
20740,7.6003,0.27273,0,0.00040874,4084.6,0.00013512,0.053282,0.00013449,-4.7418,-0.00040882,-4086.9,0.49399
20741,7.6003,0.36364,0.05,9.2872e-07,9.2808,7.1315e-07,5.3584,-6.6039e-12,6.3514e-06,-7.1313e-07,-5.3581,0.49458
20742,7.8767,0.36364,0,0.00040015,3998.8,0.0001324,0.036659,0.00013146,-7.0889,-0.00040027,-4002.3,0.52435
20743,7.7845,0.27273,0,0.00040328,4030,0.00013326,0.055848,0.00013278,-3.5728,-0.00040334,-4031.7,0.51375
20744,7.7845,0.36364,0.05,9.2225e-07,9.2162,7.0818e-07,5.3211,-6.7339e-12,5.9623e-06,-7.0817e-07,-5.3208,0.51434
20745,8.0609,0.36364,0,0.00039474,3944.6,0.00013055,0.033395,0.00012978,-5.7428,-0.00039483,-3947.5,0.54451
20746,7.9688,0.27273,0,0.00039783,3975.6,0.00013141,0.063187,0.00013108,-2.4579,-0.00039787,-3976.8,0.53378
20747,7.9688,0.36364,0.05,9.1584e-07,9.152,7.0326e-07,5.2841,-6.7608e-12,5.1567e-06,-7.0324e-07,-5.2838,0.53436
20748,8.2452,0.36364,0,0.00038934,3890.7,0.00012871,0.030453,0.00012811,-4.4639,-0.00038942,-3892.9,0.56494
20749,8.1531,0.27273,0,0.00039241,3921.4,0.00012957,0.084431,0.00012937,-1.408,-0.00039243,-3922,0.55409
20750,8.1531,0.36364,0.05,9.0952e-07,9.0889,6.984e-07,5.2476,-6.9219e-12,4.919e-06,-6.9839e-07,-5.2473,0.55466
20751,8.4295,0.36364,0,0.00038397,3837,0.00012687,0.027911,0.00012644,-3.2522,-0.00038402,-3838.6,0.58563
20752,8.3373,0.27273,0,0.00038701,3867.4,0.00012775,0.18311,0.00012766,-0.48728,-0.00038701,-3867.6,0.57465
20753,8.3373,0.36364,0.05,9.0332e-07,9.027,6.9365e-07,5.2119,-6.8847e-12,4.4995e-06,-6.9363e-07,-5.2116,0.57522
20754,8.6137,0.36364,0,0.00037861,3783.5,0.00012505,0.026022,0.00012476,-2.1069,-0.00037865,-3784.5,0.60659
20755,8.5216,0.27273,0,0.00038163,3813.6,0.000126,0.75089,0.00012589,-0.087097,-0.00038162,-3813.3,0.59549
20756,8.5216,0.36364,0.05,8.9728e-07,8.9666,6.8901e-07,5.177,-6.9694e-12,3.9509e-06,-6.8899e-07,-5.1768,0.59605
20757,8.798,0.36364,0,0.00037328,3730.2,0.00012323,0.026058,0.00012309,-1.0275,-0.00037329,-3730.7,0.6278
20758,8.7059,0.27273,0,0.00037627,3760.1,0.0001243,1.6101,0.00012409,-0.028916,-0.00037624,-3759.3,0.61658
20759,8.7059,0.36364,0.05,8.914e-07,8.9079,6.8449e-07,5.1431,-6.9518e-12,3.8162e-06,-6.8448e-07,-5.1429,0.61713
20760,8.9823,0.36364,0,0.00036796,3677.1,0.00012144,0.082326,0.00012142,-0.066104,-0.00036796,-3677.1,0.64926
20761,8.8901,0.27273,0,0.00037093,3706.8,0.00012261,2.4625,0.00012228,-0.012974,-0.00037089,-3705.5,0.63792
20762,8.8901,0.36364,0.05,8.8569e-07,8.8508,6.8011e-07,5.1101,-7.0362e-12,3.2855e-06,-6.8009e-07,-5.1099,0.63847
20763,9.1665,0.36364,0,0.00036267,3624.2,0.00011976,0.96406,0.00011963,0.010597,-0.00036266,-3623.7,0.67098
20764,9.0744,0.27273,0,0.00036562,3653.7,0.00012093,3.277,0.00012049,-0.0063791,-0.00036556,-3652,0.65952
20765,9.0744,0.36364,0.05,8.8014e-07,8.7953,6.7584e-07,5.0781,-7.0894e-12,3.348e-06,-6.7584e-07,-5.0779,0.66006
20766,9.3508,0.36364,0,0.0003574,3571.5,0.0001181,1.8654,0.00011785,0.011321,-0.00035737,-3570.6,0.69293
20767,9.2587,0.27273,0,0.00036033,3600.8,0.00011925,4.0495,0.00011871,-0.0031724,-0.00036026,-3598.7,0.68136
20768,9.2587,0.36364,0.05,8.7476e-07,8.7415,6.7171e-07,5.0471,-7.0973e-12,2.4441e-06,-6.717e-07,-5.0468,0.6819
20769,9.5351,0.36364,0,0.00035215,3519.1,0.00011644,2.715,0.00011608,0.010334,-0.0003521,-3517.7,0.71513
20770,9.4429,0.27273,0,0.00035505,3548.1,0.00011757,4.7805,0.00011693,-0.001521,-0.00035497,-3545.7,0.70345
20771,9.4429,0.36364,0.05,8.6953e-07,8.6893,6.677e-07,5.0169,-7.1093e-12,1.9551e-06,-6.6768e-07,-5.0167,0.70398
20772,9.7193,0.36364,0,0.00034692,3466.8,0.00011478,3.5145,0.00011431,0.009029,-0.00034686,-3465,0.73757
20773,9.6272,0.27273,0,0.0003498,3495.6,0.00011589,5.4716,0.00011516,-0.00068805,-0.00034971,-3492.9,0.72577
20774,9.6272,0.36364,0.05,8.6446e-07,8.6386,6.638e-07,4.9876,-7.1631e-12,2.9105e-06,-6.6379e-07,-4.9874,0.7263
20775,9.9036,0.36364,0,0.00034171,3414.8,0.00011312,4.2667,0.00011255,0.0076711,-0.00034164,-3412.6,0.76025
20776,9.8115,0.27273,0,0.00034458,3443.4,0.00011422,6.1247,0.00011341,-0.00030928,-0.00034447,-3440.3,0.74834
20777,9.8115,0.36364,0.05,8.5953e-07,8.5894,6.6002e-07,4.9592,-7.1851e-12,3.5153e-06,-6.6001e-07,-4.959,0.74885
20778,10.088,0.36364,0,0.00033652,3362.9,0.00011147,4.9744,0.00011081,0.0063396,-0.00033644,-3360.4,0.78315
20779,9.9957,0.27273,0,0.00033937,3391.4,0.00011256,6.742,0.00011166,-0.00021413,-0.00033926,-3388,0.77114
20780,9.9957,0.36364,0.05,8.5474e-07,8.5415,6.5634e-07,4.9315,-6.2508e-12,3.8172e-06,-6.5633e-07,-4.9313,0.77164
20781,10.272,0.36364,0,0.00033135,3311.3,0.00010982,5.6407,0.00010907,0.0050741,-0.00033126,-3308.4,0.80629
20782,10.18,0.27273,0,0.00033418,3339.5,0.00011089,7.3257,0.00010992,-0.00028577,-0.00033406,-3335.9,0.79416
20783,10.18,0.36364,0.05,8.5007e-07,8.4949,6.5276e-07,4.9046,-6.2991e-12,3.8916e-06,-6.5274e-07,-4.9044,0.79466
20784,10.456,0.36364,0,0.00032621,3259.8,0.00010817,6.2684,0.00010734,0.0038601,-0.0003261,-3256.7,0.82964
20785,10.364,0.27273,0,0.00032902,3287.9,0.00010923,7.8781,0.00010819,-0.00045097,-0.00032889,-3284,0.81741
20786,10.364,0.36364,0.05,8.4553e-07,8.4495,6.4927e-07,4.8784,-6.3051e-12,3.0083e-06,-6.4926e-07,-4.8782,0.81791
20787,10.641,0.36364,0,0.00032108,3208.6,0.00010653,6.8601,0.00010562,0.0027148,-0.00032096,-3205.1,0.85322
20788,10.549,0.27273,0,0.00032388,3236.5,0.00010758,8.4012,0.00010646,-0.00072746,-0.00032373,-3232.3,0.84089
20789,10.549,0.36364,0.05,8.4109e-07,8.4051,6.4586e-07,4.8528,-6.3153e-12,3.2807e-06,-6.4585e-07,-4.8526,0.84138
20790,10.825,0.36364,0,0.00031597,3157.5,0.00010489,7.4187,0.0001039,0.0016826,-0.00031585,-3153.8,0.87702
20791,10.733,0.27273,0,0.00031876,3185.4,0.00010593,8.8973,0.00010475,-0.0010024,-0.0003186,-3180.9,0.86458
20792,10.733,0.36364,0.05,8.3675e-07,8.3617,6.4252e-07,4.8277,-5.4045e-12,2.6577e-06,-6.4251e-07,-4.8275,0.86506
20793,11.009,0.36364,0,0.00031089,3106.7,0.00010326,7.9466,0.0001022,0.00072295,-0.00031075,-3102.7,0.90102
20794,10.917,0.27273,0,0.00031365,3134.4,0.00010429,9.3684,0.00010304,-0.0012555,-0.00031349,-3129.7,0.88849
20795,10.917,0.36364,0.05,8.3251e-07,8.3193,6.3927e-07,4.8032,-6.3416e-12,3.2411e-07,-6.3926e-07,-4.8031,0.88897
20796,11.193,0.36364,0,0.00030582,3056.1,0.00010163,8.4461,0.0001005,-0.00019296,-0.00030568,-3051.9,0.92524
20797,11.101,0.27273,0,0.00030857,3083.6,0.00010265,9.8164,0.00010134,-0.0015529,-0.00030841,-3078.7,0.91262
20798,11.101,0.36364,0.05,8.2836e-07,8.2779,6.3609e-07,4.7794,-7.2573e-12,8.0987e-07,-6.3608e-07,-4.7792,0.91308
20799,11.378,0.36364,0,0.00030077,3005.7,0.0001,8.9196,9.8813e-05,-0.001067,-0.00030062,-3001.2,0.94967
20800,11.286,0.27273,0,0.00030352,3033.1,0.00010102,10.243,9.9652e-05,-0.0018587,-0.00030334,-3027.9,0.93695
20801,11.286,0.36364,0.05,8.243e-07,8.2373,6.3297e-07,4.7559,-5.4445e-12,1.5346e-06,-6.3296e-07,-4.7558,0.9374
20802,11.562,0.36364,0,0.00029575,2955.5,9.838e-05,9.3693,9.7133e-05,-0.0018805,-0.00029559,-2950.8,0.9743
20803,11.47,0.27273,0,0.00029848,2982.7,9.9387e-05,10.651,9.7969e-05,-0.0021911,-0.00029829,-2977.4,0.96148
20804,11.47,0.36364,0.05,8.2031e-07,8.1974,6.299e-07,4.7329,-5.4495e-12,2.089e-06,-6.2989e-07,-4.7327,0.96193
20805,11.746,0.36364,0,0.00029074,2905.4,9.6764e-05,9.7972,9.546e-05,-0.0026028,-0.00029058,-2900.5,0.99913
20806,11.654,0.27273,0,0.00029346,2932.6,9.7763e-05,11.04,9.6294e-05,-0.0024798,-0.00029327,-2927,0.98622
20807,11.654,0.36364,0.05,8.1638e-07,8.1581,6.2688e-07,4.7102,-5.4528e-12,2.199e-06,-6.2687e-07,-4.71,0.98666
20808,11.931,0.36364,0,0.00028576,2855.6,9.5153e-05,10.205,9.3794e-05,-0.0032735,-0.00028558,-2850.5,1.0242
20809,11.838,0.27273,0,0.00028846,2882.6,9.6145e-05,11.414,9.4626e-05,-0.0027201,-0.00028827,-2876.9,1.0112
20810,11.838,0.36364,0.05,8.1252e-07,8.1196,6.2392e-07,4.6879,-4.5491e-12,1.536e-06,-6.2391e-07,-4.6878,1.0116
20811,12.115,0.36364,0,0.00028079,2806,9.3547e-05,10.595,9.2137e-05,-0.0039192,-0.00028061,-2800.7,1.0494
20812,12.023,0.27273,0,0.00028348,2832.9,9.4533e-05,11.773,9.2966e-05,-0.0029826,-0.00028328,-2827,1.0363
20813,12.023,0.36364,0.05,8.0873e-07,8.0817,6.2101e-07,4.6661,-5.4645e-12,1.0009e-06,-6.21e-07,-4.6659,1.0367
20814,12.299,0.36364,0,0.00027585,2756.6,9.1947e-05,10.969,9.0486e-05,-0.0045426,-0.00027566,-2751.1,1.0748
20815,12.207,0.27273,0,0.00027853,2783.4,9.2926e-05,12.118,9.1313e-05,-0.0032412,-0.00027832,-2777.3,1.0616
20816,12.207,0.36364,0.05,8.05e-07,8.0444,6.1814e-07,4.6445,-3.6485e-12,1.599e-06,-6.1813e-07,-4.6444,1.062
20817,12.483,0.36364,0,0.00027093,2707.4,9.0352e-05,11.328,8.8843e-05,-0.0051254,-0.00027073,-2701.7,1.1004
20818,12.391,0.27273,0,0.00027359,2734,9.1326e-05,12.452,8.9668e-05,-0.0035186,-0.00027338,-2727.8,1.0871
20819,12.391,0.36364,0.05,8.0131e-07,8.0076,6.1531e-07,4.6232,-6.3777e-12,1.5675e-07,-6.153e-07,-4.6231,1.0875
20820,12.668,0.36364,0,0.00026602,2658.4,8.8762e-05,11.675,8.7208e-05,-0.0056395,-0.00026582,-2652.5,1.1261
20821,12.575,0.27273,0,0.00026868,2684.9,8.9731e-05,12.776,8.803e-05,-0.0037492,-0.00026846,-2678.5,1.1128
20822,12.575,0.36364,0.05,7.9766e-07,7.9711,6.1251e-07,4.6022,-4.5692e-12,-3.4415e-07,-6.125e-07,-4.6021,1.1132
20823,12.852,0.36364,0,0.00026114,2609.6,8.7179e-05,12.009,8.558e-05,-0.0061214,-0.00026093,-2603.6,1.1521
20824,12.76,0.27273,0,0.00026378,2636,8.8142e-05,13.09,8.6399e-05,-0.0039365,-0.00026356,-2629.4,1.1387
20825,12.76,0.36364,0.05,7.9407e-07,7.9352,6.0975e-07,4.5815,-4.5686e-12,5.7005e-07,-6.0974e-07,-4.5813,1.1391
20826,13.036,0.36364,0,0.00025628,2561,8.5601e-05,12.334,8.3959e-05,-0.0065929,-0.00025606,-2554.8,1.1782
20827,12.944,0.27273,0,0.00025891,2587.3,8.6559e-05,13.397,8.4775e-05,-0.0041437,-0.00025868,-2580.6,1.1647
20828,12.944,0.36364,0.05,7.9053e-07,7.8998,6.0703e-07,4.561,-3.6675e-12,1.834e-06,-6.0702e-07,-4.5609,1.1651
20829,13.22,0.36364,0,0.00025143,2512.6,8.4029e-05,12.649,8.2345e-05,-0.0070575,-0.00025121,-2506.2,1.2045
20830,13.128,0.27273,0,0.00025406,2538.8,8.4982e-05,13.696,8.3159e-05,-0.0043468,-0.00025382,-2531.9,1.191
20831,13.128,0.36364,0.05,7.8702e-07,7.8648,6.0434e-07,4.5408,-4.5864e-12,3.3499e-06,-6.0433e-07,-4.5407,1.1913
20832,13.405,0.36364,0,0.00024661,2464.4,8.2463e-05,12.957,8.0738e-05,-0.0074979,-0.00024639,-2457.9,1.231
20833,13.313,0.27273,0,0.00024922,2490.5,8.3412e-05,13.989,8.1549e-05,-0.0045703,-0.00024898,-2483.5,1.2174
20834,13.313,0.36364,0.05,7.8355e-07,7.8301,6.0168e-07,4.5208,-4.5701e-12,1.9154e-06,-6.0167e-07,-4.5206,1.2177
20835,13.589,0.36364,0,0.00024181,2416.4,8.0903e-05,13.259,7.9138e-05,-0.0078877,-0.00024158,-2409.7,1.2577
20836,13.497,0.27273,0,0.00024441,2442.4,8.1847e-05,14.278,7.9947e-05,-0.0047539,-0.00024416,-2435.2,1.2439
20837,13.497,0.36364,0.05,7.8011e-07,7.7957,5.9903e-07,4.5009,-3.6553e-12,1.6182e-06,-5.9902e-07,-4.5008,1.2443
20838,13.773,0.36364,0,0.00023702,2368.6,7.935e-05,13.555,7.7545e-05,-0.0082597,-0.00023679,-2361.8,1.2845
20839,13.681,0.27273,0,0.00023962,2394.5,8.029e-05,14.563,7.8351e-05,-0.0049021,-0.00023937,-2387.2,1.2707
20840,13.681,0.36364,0.05,7.7671e-07,7.7617,5.9642e-07,4.4813,-4.5735e-12,1.0734e-06,-5.9641e-07,-4.4812,1.271
20841,13.957,0.36364,0,0.00023226,2321,7.7803e-05,13.847,7.5959e-05,-0.0086334,-0.00023202,-2314.1,1.3114
20842,13.865,0.27273,0,0.00023485,2346.8,7.8738e-05,14.844,7.6762e-05,-0.0050699,-0.00023459,-2339.4,1.2976
20843,13.865,0.36364,0.05,7.7335e-07,7.7281,5.9384e-07,4.4619,-5.4841e-12,1.2194e-06,-5.9383e-07,-4.4618,1.2979
20844,14.142,0.36364,0,0.00022752,2273.6,7.6262e-05,14.136,7.4379e-05,-0.0090111,-0.00022728,-2266.5,1.3386
20845,14.05,0.27273,0,0.00023009,2299.4,7.7194e-05,15.124,7.518e-05,-0.0052402,-0.00022983,-2291.8,1.3246
20846,14.05,0.36364,0.05,7.7001e-07,7.6948,5.9128e-07,4.4427,-3.668e-12,4.0148e-07,-5.9127e-07,-4.4426,1.3249
20847,14.326,0.36364,0,0.0002228,2226.4,7.4728e-05,14.423,7.2807e-05,-0.0093775,-0.00022255,-2219.2,1.3658
20848,14.234,0.27273,0,0.00022536,2252.1,7.5656e-05,15.402,7.3605e-05,-0.0054309,-0.0002251,-2244.3,1.3518
20849,14.234,0.36364,0.05,7.6671e-07,7.6618,5.8874e-07,4.4236,-3.6694e-12,2.8407e-07,-5.8873e-07,-4.4235,1.3521
20850,14.51,0.36364,0,0.0002181,2179.5,7.32e-05,14.709,7.1241e-05,-0.0097086,-0.00021784,-2172.1,1.3933
20851,14.418,0.27273,0,0.00022065,2205,7.4124e-05,15.68,7.2037e-05,-0.0055908,-0.00022038,-2197.1,1.3792
20852,14.418,0.36364,0.05,7.6343e-07,7.629,5.8622e-07,4.4047,-3.6614e-12,1.6946e-06,-5.8621e-07,-4.4045,1.3795
20853,14.695,0.36364,0,0.00021341,2132.7,7.1679e-05,14.995,6.9682e-05,-0.010033,-0.00021316,-2125.1,1.4208
20854,14.602,0.27273,0,0.00021596,2158.1,7.26e-05,15.959,7.0475e-05,-0.0057223,-0.00021569,-2150.1,1.4067
20855,14.602,0.36364,0.05,7.6018e-07,7.5966,5.8373e-07,4.3859,-5.4802e-12,9.6597e-08,-5.8372e-07,-4.3858,1.407
20856,14.879,0.36364,0,0.00020875,2086.1,7.0165e-05,15.282,6.813e-05,-0.010371,-0.00020849,-2078.4,1.4485
20857,14.787,0.27273,0,0.00021129,2111.5,7.1082e-05,16.238,6.892e-05,-0.0058772,-0.00021101,-2103.3,1.4343
20858,14.787,0.36364,0.05,7.5697e-07,7.5645,5.8126e-07,4.3674,-4.5594e-12,1.4813e-06,-5.8125e-07,-4.3673,1.4346
20859,15.063,0.36364,0,0.00020411,2039.7,6.8657e-05,15.57,6.6584e-05,-0.010722,-0.00020384,-2031.9,1.4764
20860,14.971,0.27273,0,0.00020664,2065,6.9571e-05,16.52,6.7371e-05,-0.0060394,-0.00020636,-2056.7,1.4621
20861,14.971,0.36364,0.05,7.5379e-07,7.5327,5.7882e-07,4.349,-4.5701e-12,1.8444e-07,-5.7881e-07,-4.3489,1.4624
20862,15.247,0.36364,0,0.00019949,1993.5,6.7157e-05,15.861,6.5044e-05,-0.011072,-0.00019922,-1985.6,1.5044
20863,15.155,0.27273,0,0.00020201,2018.7,6.8067e-05,16.804,6.583e-05,-0.0062237,-0.00020172,-2010.3,1.49
20864,15.155,0.36364,0.05,7.5063e-07,7.5011,5.7639e-07,4.3308,-3.6269e-12,1.7735e-06,-5.7639e-07,-4.3307,1.4904
20865,15.432,0.36364,0,0.00019489,1947.6,6.5663e-05,16.156,6.3512e-05,-0.011402,-0.00019461,-1939.5,1.5325
20866,15.339,0.27273,0,0.0001974,1972.7,6.657e-05,17.092,6.4294e-05,-0.0063864,-0.00019711,-1964.1,1.5181
20867,15.339,0.36364,0.05,7.4749e-07,7.4697,5.7398e-07,4.3127,-3.6274e-12,2.8223e-06,-5.7398e-07,-4.3126,1.5184
20868,15.616,0.36364,0,0.00019031,1901.8,6.4177e-05,16.455,6.1985e-05,-0.011737,-0.00019003,-1893.5,1.5608
20869,15.524,0.27273,0,0.00019281,1926.8,6.508e-05,17.384,6.2765e-05,-0.0065275,-0.00019251,-1918.1,1.5463
20870,15.524,0.36364,0.05,7.4439e-07,7.4388,5.716e-07,4.2948,-2.7572e-12,2.1068e-06,-5.716e-07,-4.2947,1.5466
20871,15.8,0.36364,0,0.00018575,1856.2,6.2697e-05,16.759,6.0465e-05,-0.012094,-0.00018546,-1847.8,1.5892
20872,15.708,0.27273,0,0.00018825,1881.2,6.3597e-05,17.68,6.1243e-05,-0.0066969,-0.00018794,-1872.3,1.5746
20873,15.708,0.36364,0.05,7.4132e-07,7.4081,5.6925e-07,4.2771,-3.6647e-12,1.1669e-06,-5.6924e-07,-4.277,1.5749
20874,15.984,0.36364,0,0.00018121,1810.9,6.1225e-05,17.069,5.8952e-05,-0.012474,-0.00018092,-1802.3,1.6177
20875,15.892,0.27273,0,0.0001837,1835.7,6.2121e-05,17.983,5.9727e-05,-0.0068778,-0.00018339,-1826.7,1.6031
20876,15.892,0.36364,0.05,7.3829e-07,7.3778,5.6692e-07,4.2596,-3.2147e-12,1.4948e-06,-5.6691e-07,-4.2595,1.6034
20877,16.169,0.36364,0,0.00017669,1765.7,5.976e-05,17.386,5.7444e-05,-0.012866,-0.00017639,-1757,1.6463
20878,16.077,0.27273,0,0.00017917,1790.5,6.0652e-05,18.291,5.8217e-05,-0.007085,-0.00017885,-1781.2,1.6317
20879,16.077,0.36364,0.05,7.3528e-07,7.3478,5.6461e-07,4.2423,-3.6697e-12,2.1786e-06,-5.646e-07,-4.2422,1.6319
20880,16.353,0.36364,0,0.00017219,1720.7,5.8302e-05,17.711,5.5943e-05,-0.013251,-0.00017189,-1711.8,1.675
20881,16.261,0.27273,0,0.00017466,1745.4,5.9191e-05,18.606,5.6714e-05,-0.0072797,-0.00017434,-1736,1.6604
20882,16.261,0.36364,0.05,7.323e-07,7.318,5.6232e-07,4.2251,-3.6843e-12,3.1854e-06,-5.6231e-07,-4.225,1.6606
20883,16.537,0.36364,0,0.00016771,1676,5.6852e-05,18.045,5.4448e-05,-0.013654,-0.0001674,-1666.9,1.7039
20884,16.445,0.27273,0,0.00017017,1700.6,5.7737e-05,18.929,5.5216e-05,-0.0074635,-0.00016984,-1691,1.6892
20885,16.445,0.36364,0.05,7.2936e-07,7.2886,5.6006e-07,4.2081,-3.1975e-12,3.1093e-06,-5.6006e-07,-4.208,1.6894
20886,16.721,0.36364,0,0.00016325,1631.4,5.5409e-05,18.388,5.296e-05,-0.014092,-0.00016293,-1622.2,1.7329
20887,16.629,0.27273,0,0.00016571,1655.9,5.629e-05,19.26,5.3725e-05,-0.0076795,-0.00016537,-1646.2,1.7181
20888,16.629,0.36364,0.05,7.2647e-07,7.2596,5.5784e-07,4.1914,-2.7811e-12,3.4004e-06,-5.5783e-07,-4.1913,1.7184
20889,16.906,0.36364,0,0.00015882,1587.1,5.3973e-05,18.742,5.1477e-05,-0.014563,-0.00015849,-1577.6,1.762
20890,16.814,0.27273,0,0.00016126,1611.5,5.485e-05,19.6,5.2241e-05,-0.0079145,-0.00016092,-1601.6,1.7472
20891,16.814,0.36364,0.05,7.2361e-07,7.2311,5.5564e-07,4.1749,-3.2153e-12,3.5306e-06,-5.5564e-07,-4.1748,1.7474
20892,17.09,0.36364,0,0.0001544,1542.9,5.2545e-05,19.107,5e-05,-0.015061,-0.00015406,-1533.3,1.7912
20893,16.998,0.27273,0,0.00015683,1567.2,5.3418e-05,19.949,5.0762e-05,-0.0081816,-0.00015648,-1557.1,1.7763
20894,16.998,0.36364,0.05,7.2078e-07,7.2029,5.5347e-07,4.1586,-1.8603e-12,4.866e-06,-5.5347e-07,-4.1585,1.7765
20895,17.274,0.36364,0,0.00015,1498.9,5.1125e-05,19.484,4.8529e-05,-0.01557,-0.00014966,-1489.1,1.8205
20896,17.182,0.27273,0,0.00015242,1523.2,5.1993e-05,20.308,4.9289e-05,-0.0084502,-0.00015207,-1512.9,1.8056
20897,17.182,0.36364,0.05,7.18e-07,7.175,5.5134e-07,4.1426,-2.7856e-12,2.1534e-06,-5.5133e-07,-4.1424,1.8058
20898,17.459,0.36364,0,0.00014562,1455.2,4.9712e-05,19.874,4.7065e-05,-0.016112,-0.00014527,-1445.1,1.8499
20899,17.366,0.27273,0,0.00014803,1479.3,5.0576e-05,20.679,4.7822e-05,-0.0087174,-0.00014767,-1468.9,1.8349
20900,17.366,0.36364,0.05,7.1526e-07,7.1477,5.4924e-07,4.1268,-3.2199e-12,2.9811e-06,-5.4923e-07,-4.1267,1.8351
20901,17.643,0.36364,0,0.00014126,1411.6,4.8307e-05,20.278,4.5606e-05,-0.016705,-0.0001409,-1401.4,1.8794
20902,17.551,0.27273,0,0.00014366,1435.7,4.9166e-05,21.06,4.6362e-05,-0.0090303,-0.0001433,-1425,1.8644
20903,17.551,0.36364,0.05,7.1258e-07,7.1209,5.4718e-07,4.1113,-2.7625e-12,6.4517e-06,-5.4717e-07,-4.1112,1.8646
20904,17.827,0.36364,0,0.00013692,1368.2,4.6909e-05,20.696,4.4152e-05,-0.017346,-0.00013655,-1357.8,1.9089
20905,17.735,0.27273,0,0.00013932,1392.2,4.7763e-05,21.454,4.4907e-05,-0.0093694,-0.00013894,-1381.4,1.8939
20906,17.735,0.36364,0.05,7.0996e-07,7.0947,5.4516e-07,4.0961,-2.2953e-12,7.7308e-06,-5.4516e-07,-4.0961,1.8941
20907,18.011,0.36364,0,0.0001326,1325.1,4.5519e-05,21.131,4.2705e-05,-0.018034,-0.00013223,-1314.4,1.9386
20908,17.919,0.27273,0,0.00013499,1348.9,4.6368e-05,21.86,4.3458e-05,-0.009754,-0.0001346,-1337.9,1.9236
20909,17.919,0.36364,0.05,7.0738e-07,7.0689,5.4318e-07,4.0813,-1.3881e-12,1.0883e-05,-5.4318e-07,-4.0812,1.9238
20910,18.196,0.36364,0,0.0001283,1282.1,4.4138e-05,21.581,4.1263e-05,-0.018757,-0.00012792,-1271.2,1.9684
20911,18.103,0.27273,0,0.00013068,1305.9,4.4981e-05,22.279,4.2014e-05,-0.010155,-0.00013028,-1294.6,1.9533
20912,18.103,0.36364,0.05,7.0486e-07,7.0438,5.4125e-07,4.0667,-1.861e-12,1.0372e-05,-5.4124e-07,-4.0667,1.9535
20913,18.38,0.36364,0,0.00012401,1239.3,4.2763e-05,22.05,3.9826e-05,-0.019535,-0.00012363,-1228.1,1.9983
20914,18.288,0.27273,0,0.00012639,1263,4.36e-05,22.711,4.0576e-05,-0.010577,-0.00012598,-1251.5,1.9831
20915,18.288,0.36364,0.05,7.0241e-07,7.0193,5.3937e-07,4.0526,-1.8675e-12,1.0486e-05,-5.3936e-07,-4.0525,1.9833
20916,18.564,0.36364,0,0.00011975,1196.7,4.1397e-05,22.536,3.8395e-05,-0.020385,-0.00011935,-1185.3,2.0282
20917,18.472,0.27273,0,0.00012211,1220.3,4.2228e-05,23.158,3.9144e-05,-0.011055,-0.0001217,-1208.6,2.013
20918,18.472,0.36364,0.05,7.0004e-07,6.9955,5.3754e-07,4.0389,-1.858e-12,1.2057e-05,-5.3754e-07,-4.0388,2.0132
20919,18.748,0.36364,0,0.00011551,1154.3,4.0039e-05,23.042,3.6969e-05,-0.02131,-0.0001151,-1142.6,2.0582
20920,18.656,0.27273,0,0.00011786,1177.8,4.0862e-05,23.619,3.7717e-05,-0.011586,-0.00011744,-1165.8,2.043
20921,18.656,0.36364,0.05,6.9773e-07,6.9725,5.3578e-07,4.0256,-1.8982e-12,7.3526e-06,-5.3577e-07,-4.0256,2.0432
20922,18.933,0.36364,0,0.00011128,1112.1,3.8688e-05,23.568,3.5548e-05,-0.022309,-0.00011087,-1100.1,2.0883
20923,18.841,0.27273,0,0.00011363,1135.5,3.9504e-05,24.095,3.6296e-05,-0.012179,-0.0001132,-1123.2,2.0731
20924,18.841,0.36364,0.05,6.9551e-07,6.9503,5.3407e-07,4.0128,-1.8695e-12,6.134e-06,-5.3406e-07,-4.0127,2.0732
20925,19.117,0.36364,0,0.00010708,1070.1,3.7346e-05,24.115,3.4133e-05,-0.023375,-0.00010665,-1057.8,2.1185
20926,19.025,0.27273,0,0.00010941,1093.3,3.8154e-05,24.586,3.488e-05,-0.012817,-0.00010897,-1080.9,2.1032
20927,19.025,0.36364,0.05,6.9337e-07,6.9289,5.3242e-07,4.0005,-1.9301e-12,8.827e-06,-5.3242e-07,-4.0004,2.1034
20928,19.301,0.36364,0,0.00010289,1028.2,3.6011e-05,24.683,3.2722e-05,-0.024533,-0.00010245,-1015.7,2.1487
20929,19.209,0.27273,0,0.00010521,1051.4,3.681e-05,25.093,3.3469e-05,-0.01351,-0.00010476,-1038.6,2.1334
20930,19.209,0.36364,0.05,6.9133e-07,6.9085,5.3086e-07,3.9887,-1.4572e-12,1.3287e-05,-5.3085e-07,-3.9886,2.1336
20931,19.485,0.36364,0,9.8723e-05,986.55,3.4684e-05,25.274,3.1317e-05,-0.025794,-9.8269e-05,-973.68,2.179
20932,19.393,0.27273,0,0.00010103,1009.6,3.5474e-05,25.616,3.2063e-05,-0.014289,-0.00010057,-996.59,2.1637
20933,19.393,0.36364,0.05,6.8939e-07,6.8891,5.2936e-07,3.9775,-1.0806e-12,1.3438e-05,-5.2936e-07,-3.9774,2.1638
20934,19.67,0.36364,0,9.4572e-05,945.07,3.3365e-05,25.888,2.9915e-05,-0.027169,-9.4106e-05,-931.87,2.2094
20935,19.578,0.27273,0,9.6871e-05,968.04,3.4145e-05,26.154,3.0662e-05,-0.015157,-9.6399e-05,-954.7,2.194
20936,19.578,0.36364,0.05,6.8755e-07,6.8708,5.2796e-07,3.9669,-1.616e-12,9.6306e-06,-5.2795e-07,-3.9668,2.1942
20937,19.854,0.36364,0,9.0439e-05,903.77,3.2053e-05,26.526,2.8519e-05,-0.028662,-8.9959e-05,-890.23,2.2398
20938,19.762,0.27273,0,9.2726e-05,926.62,3.2822e-05,26.707,2.9266e-05,-0.016124,-9.2243e-05,-912.98,2.2244
20939,19.762,0.36364,0.05,6.8583e-07,6.8536,5.2663e-07,3.957,-1.2611e-12,6.6402e-06,-5.2663e-07,-3.9569,2.2246
20940,20.038,0.36364,0,8.6324e-05,862.64,3.075e-05,27.188,2.7127e-05,-0.030273,-8.583e-05,-848.74,2.2703
20941,19.946,0.27273,0,8.8598e-05,885.37,3.1507e-05,27.276,2.7874e-05,-0.017192,-8.8103e-05,-871.42,2.2549
20942,19.946,0.36364,0.05,6.8423e-07,6.8376,5.2541e-07,3.9477,-1.7948e-12,1.6141e-06,-5.2541e-07,-3.9477,2.255
20943,20.223,0.36364,0,8.2226e-05,821.69,2.9454e-05,27.876,2.5739e-05,-0.032024,-8.1717e-05,-807.41,2.3009
20944,20.13,0.27273,0,8.4487e-05,844.29,3.0198e-05,27.861,2.6488e-05,-0.018369,-8.3979e-05,-830.02,2.2854
20945,20.13,0.36364,0.05,6.8277e-07,6.823,5.2428e-07,3.9393,-1.266e-12,3.5882e-06,-5.2428e-07,-3.9392,2.2856
20946,20.407,0.36364,0,7.8145e-05,780.91,2.8165e-05,28.588,2.4356e-05,-0.033936,-7.762e-05,-766.24,2.3315
20947,20.315,0.27273,0,8.0392e-05,803.37,2.8896e-05,28.459,2.5106e-05,-0.019697,-7.987e-05,-788.77,2.316
20948,20.315,0.36364,0.05,6.8145e-07,6.8098,5.2327e-07,3.9317,-1.9018e-12,1.1047e-06,-5.2327e-07,-3.9316,2.3161
20949,20.591,0.36364,0,7.4081e-05,740.29,2.6884e-05,29.327,2.2976e-05,-0.036023,-7.3539e-05,-725.21,2.3621
20950,20.499,0.27273,0,7.6313e-05,762.61,2.76e-05,29.072,2.3728e-05,-0.021183,-7.5777e-05,-747.66,2.3466
20951,20.499,0.36364,0.05,6.8028e-07,6.7981,5.2237e-07,3.9249,-2.3843e-12,-9.2501e-07,-5.2237e-07,-3.9249,2.3468
20952,20.775,0.36364,0,7.0033e-05,699.85,2.5611e-05,30.093,2.1601e-05,-0.038298,-6.9473e-05,-684.33,2.3928
20953,20.683,0.27273,0,7.225e-05,722,2.631e-05,29.697,2.2354e-05,-0.022859,-7.1699e-05,-706.7,2.3773
20954,20.683,0.36364,0.05,6.7927e-07,6.788,5.216e-07,3.9191,-1.2485e-12,7.9561e-06,-5.2159e-07,-3.919,2.3774
20955,20.96,0.36364,0,6.6002e-05,659.56,2.4345e-05,30.886,2.0229e-05,-0.040768,-6.5422e-05,-643.59,2.4236
20956,20.867,0.27273,0,6.8202e-05,681.55,2.5026e-05,30.335,2.0985e-05,-0.024732,-6.7635e-05,-665.88,2.4081
20957,20.867,0.36364,0.05,6.7843e-07,6.7796,5.2095e-07,3.9142,-5.3241e-13,1.0558e-05,-5.2095e-07,-3.9142,2.4082
20958,21.144,0.36364,0,6.1986e-05,619.44,2.3087e-05,31.706,1.8861e-05,-0.043463,-6.1387e-05,-602.99,2.4543
20959,21.052,0.27273,0,6.4168e-05,641.24,2.3747e-05,30.982,1.962e-05,-0.026837,-6.3585e-05,-625.2,2.4388
20960,21.052,0.36364,0.05,6.7777e-07,6.773,5.2045e-07,3.9104,-4.7411e-13,1.1237e-05,-5.2044e-07,-3.9104,2.4389
20961,21.328,0.36364,0,5.7988e-05,579.48,2.1836e-05,32.555,1.7497e-05,-0.046407,-5.7366e-05,-562.53,2.4852
20962,21.236,0.27273,0,6.0149e-05,601.08,2.2474e-05,31.638,1.8259e-05,-0.029223,-5.9549e-05,-584.65,2.4696
20963,21.236,0.36364,0.05,6.7731e-07,6.7684,5.2009e-07,3.9077,-4.9774e-13,1.0292e-05,-5.2009e-07,-3.9077,2.4697
20964,21.512,0.36364,0,5.4005e-05,539.68,2.0592e-05,33.432,1.6136e-05,-0.049622,-5.3359e-05,-522.21,2.516
20965,21.42,0.27273,0,5.6145e-05,561.06,2.1205e-05,32.301,1.6902e-05,-0.031932,-5.5526e-05,-544.23,2.5005
20966,21.42,0.36364,0.05,6.7704e-07,6.7658,5.1989e-07,3.9062,-1.1552e-13,8.2212e-06,-5.1989e-07,-3.9062,2.5006
20967,21.697,0.36364,0,5.004e-05,500.05,1.9356e-05,34.341,1.4778e-05,-0.053126,-4.9367e-05,-482.02,2.5469
20968,21.605,0.27273,0,5.2155e-05,521.19,1.9942e-05,32.969,1.5549e-05,-0.03502,-5.1516e-05,-503.93,2.5314
20969,21.605,0.36364,0.05,6.77e-07,6.7653,5.1985e-07,3.906,-9.2607e-13,1.554e-06,-5.1985e-07,-3.9059,2.5315
20970,21.881,0.36364,0,4.6091e-05,460.6,1.8128e-05,35.284,1.3424e-05,-0.056935,-4.539e-05,-441.96,2.5779
20971,21.789,0.27273,0,4.8178e-05,481.45,1.8682e-05,33.638,1.42e-05,-0.038539,-4.7518e-05,-463.77,2.5623
20972,21.789,0.36364,0.05,6.7718e-07,6.7672,5.1999e-07,3.907,-1.4411e-12,1.284e-06,-5.1999e-07,-3.907,2.5624
20973,22.065,0.36364,0,4.2162e-05,421.33,1.6908e-05,36.263,1.2073e-05,-0.061068,-4.1428e-05,-402.05,2.6088
20974,21.973,0.27273,0,4.4217e-05,441.86,1.7427e-05,34.307,1.2855e-05,-0.042565,-4.3533e-05,-423.73,2.5933
20975,21.973,0.36364,0.05,6.7762e-07,6.7715,5.2033e-07,3.9096,-1.3131e-12,2.6038e-06,-5.2032e-07,-3.9095,2.5933
20976,22.249,0.36364,0,3.8253e-05,382.27,1.5697e-05,37.286,1.0726e-05,-0.065532,-3.7483e-05,-362.29,2.6398
20977,22.157,0.27273,0,4.027e-05,402.42,1.6176e-05,34.973,1.1515e-05,-0.047207,-3.9562e-05,-383.82,2.6242
20978,22.157,0.36364,0.05,6.7832e-07,6.7786,5.2087e-07,3.9136,-8.6561e-13,6.8574e-06,-5.2087e-07,-3.9136,2.6243
20979,22.434,0.36364,0,3.4368e-05,343.45,1.4497e-05,38.364,9.382e-06,-0.070286,-3.3555e-05,-322.68,2.6708
20980,22.342,0.27273,0,3.634e-05,363.15,1.4929e-05,35.635,1.0179e-05,-0.052577,-3.5603e-05,-344.04,2.6552
20981,22.342,0.36364,0.05,6.7933e-07,6.7887,5.2165e-07,3.9195,-1.9841e-12,-4.5052e-06,-5.2164e-07,-3.9194,2.6553
20982,22.618,0.36364,0,3.0513e-05,304.92,1.3311e-05,39.513,8.0418e-06,-0.075285,-2.9648e-05,-283.26,2.7019
20983,22.526,0.27273,0,3.2429e-05,324.07,1.3686e-05,36.29,8.8484e-06,-0.058774,-3.1659e-05,-304.42,2.6863
20984,22.526,0.36364,0.05,6.807e-07,6.8023,5.2269e-07,3.9273,-2.9439e-13,5.0595e-06,-5.2269e-07,-3.9273,2.6864
20985,22.802,0.36364,0,2.6694e-05,266.76,1.2141e-05,40.766,6.7053e-06,-0.080109,-2.5766e-05,-244.06,2.7329
20986,22.71,0.27273,0,2.854e-05,285.2,1.2449e-05,36.942,7.5231e-06,-0.066041,-2.7732e-05,-264.96,2.7173
20987,22.71,0.36364,0.05,6.825e-07,6.8202,5.2407e-07,3.9377,4.9617e-14,4.6848e-06,-5.2407e-07,-3.9377,2.7174
20988,22.987,0.36364,0,2.2927e-05,229.11,1.0997e-05,42.177,5.3725e-06,-0.085004,-2.1917e-05,-205.12,2.764
20989,22.894,0.27273,0,2.468e-05,246.63,1.1218e-05,37.6,6.204e-06,-0.074033,-2.3824e-05,-225.7,2.7484
20990,22.894,0.36364,0.05,6.8488e-07,6.8441,5.2591e-07,3.9515,-7.7126e-13,-1.6475e-06,-5.259e-07,-3.9514,2.7485
20991,23.171,0.36364,0,1.9237e-05,192.24,9.8913e-06,43.854,4.0433e-06,-0.085962,-1.8112e-05,-166.55,2.7951
20992,23.079,0.27273,0,2.0859e-05,208.45,9.9988e-06,38.287,4.8919e-06,-0.084495,-1.9943e-05,-186.68,2.7795
20993,23.079,0.36364,0.05,6.8816e-07,6.8769,5.2842e-07,3.9704,1.6019e-13,7.7881e-06,-5.2842e-07,-3.9704,2.7795
20994,23.355,0.36364,0,1.5674e-05,156.63,8.8504e-06,46.006,2.7152e-06,-0.091564,-1.4376e-05,-128.5,2.8262
20995,23.263,0.27273,0,1.71e-05,170.89,8.7994e-06,39.063,3.5884e-06,-0.090155,-1.6097e-05,-148,2.8106
20996,23.263,0.36364,0.05,6.9295e-07,6.9247,5.321e-07,3.998,1.2839e-12,1.4748e-05,-5.321e-07,-3.998,2.8106
20997,23.539,0.36364,0,1.2348e-05,123.39,7.9314e-06,49.122,1.3868e-06,-0.051357,-1.0754e-05,-91.273,2.8573
20998,23.447,0.27273,0,1.3448e-05,134.39,7.6404e-06,40.071,2.292e-06,-0.11528,-1.231e-05,-109.83,2.8417
20999,23.447,0.36364,0.05,7.011e-07,7.0061,5.3836e-07,4.045,-2.5041e-13,2.21e-06,-5.3836e-07,-4.045,2.8417
21000,23.724,0.36364,0,9.5076e-06,95.011,7.2646e-06,54.236,2.4447e-08,-0.1633,-7.3366e-06,-55.471,2.8884
21001,23.631,0.27273,0,1.002e-05,100.13,6.5746e-06,41.757,1.0098e-06,-0.055241,-8.6323e-06,-72.502,2.8728
21002,23.631,0.36364,0.05,7.1964e-07,7.1914,5.5259e-07,4.152,-2.6708e-13,1.7584e-06,-5.5259e-07,-4.152,2.8728
21003,23.816,0.27273,0,7.1925e-06,71.875,5.8016e-06,45.544,-3.1127e-07,-0.38569,-5.2225e-06,-37.287,2.9039
21004,23.816,0.36364,0.05,7.8564e-07,7.851,6.0328e-07,4.5328,-1.2225e-12,-8.682e-06,-6.0327e-07,-4.5328,2.9039
21005,23.908,0.36364,0,7.3624e-06,73.574,6.7563e-06,60.476,-1.271e-06,0.16187,-4.1535e-06,-21.496,2.9195
21006,1.2431,0.18182,0,0.00014118,1410.8,5.8879e-05,137.5,3.7836e-05,-20.607,-0.00013852,-1345.7,0.0027816
21007,1.1509,0.18182,0.05,1.5139e-05,151.28,1.1625e-05,87.343,-2.3516e-12,-1.4801e-05,-1.1625e-05,-87.343,0.0036552
21008,1.1509,0.090909,0,9.0042e-05,899.8,3.624e-05,68.082,2.4648e-05,-19.017,-8.8891e-05,-872.1,0.0052772
21009,1.0588,0.18182,0,7.9331e-05,792.77,3.3061e-05,84.62,2.2017e-05,1.6428,-7.7537e-05,-746.37,0.0087048
21010,1.4273,0.18182,0,0.00020432,2041.8,7.7962e-05,124.31,6.0746e-05,-5.0451,-0.00020199,-1979.1,0.010735
21011,1.3352,0.18182,0.05,1.3599e-05,135.9,1.0442e-05,78.46,-1.0405e-20,-4.304e-06,-1.0442e-05,-78.46,0.0057004
21012,1.3352,0.090909,0,0.00015896,1588.5,5.7098e-05,55.32,4.9615e-05,-0.91033,-0.00015796,-1560.5,0.0054432
21013,1.6116,0.18182,0,0.00026424,2640.6,9.772e-05,125.92,8.0757e-05,-1.5376,-0.00026189,-2576.1,0.020106
21014,1.5195,0.18182,0.05,1.2597e-05,125.88,9.6727e-06,72.677,1.7845e-12,1.7754e-06,-9.6727e-06,-72.677,0.015152
21015,1.5195,0.090909,0,0.00022426,2241.1,7.9231e-05,62.344,7.0837e-05,-0.72637,-0.00022315,-2209.6,0.014495
21016,1.7959,0.18182,0,0.00031706,3168.4,0.00011484,122.93,9.8489e-05,0.10307,-0.00031478,-3105.1,0.029737
21017,1.7037,0.18182,0.05,1.1316e-05,113.09,8.6896e-06,65.29,1.4783e-13,6.6005e-06,-8.6896e-06,-65.29,0.024747
21018,1.7037,0.090909,0,0.00028257,2823.8,9.8725e-05,65.821,8.9979e-05,0.10506,-0.00028139,-2790.2,0.024022
21019,1.9801,0.18182,0,0.00036211,3618.6,0.00012899,114.43,0.00011382,0.45269,-0.00036002,-3559.8,0.0396
21020,1.888,0.18182,0.05,9.8614e-06,98.546,7.5723e-06,56.895,-7.2059e-14,4.0439e-06,-7.5723e-06,-56.895,0.034529
21021,1.888,0.090909,0,0.00033302,3327.9,0.00011524,64.089,0.00010671,0.026285,-0.00033189,-3295.4,0.033786
21022,2.1644,0.18182,0,0.00039953,3992.5,0.00014034,102.35,0.00012678,0.46061,-0.00039768,-3940.1,0.049713
21023,2.0723,0.18182,0.05,8.3543e-06,83.486,6.4151e-06,48.201,-3.1749e-13,9.0585e-07,-6.4151e-06,-48.201,0.044534
21024,2.0723,0.090909,0,0.00037555,3752.9,0.00012886,59.076,0.000121,0.021525,-0.00037451,-3723,0.043789
21025,2.3487,0.18182,0,0.00042981,4295.2,0.00014919,88.427,0.00013746,0.3447,-0.00042824,-4250.1,0.060098
21026,2.2565,0.18182,0.05,6.8949e-06,68.901,5.2944e-06,39.78,-2.3247e-12,-3.2196e-06,-5.2944e-06,-39.78,0.054792
21027,2.2565,0.090909,0,0.00041049,4102.1,0.00013981,52.169,0.00013287,-0.013095,-0.00040958,-4075.8,0.054051
21028,2.5329,0.18182,0,0.00045371,4534,0.00015588,74.024,0.00014606,0.22676,-0.0004524,-4496.4,0.070774
21029,2.4408,0.18182,0.05,5.5514e-06,55.476,4.2628e-06,32.029,-8.0954e-12,-5.4897e-06,-4.2628e-06,-32.029,0.065329
21030,2.4408,0.090909,0,0.00043849,4381.9,0.00014841,44.467,0.00014249,-0.023314,-0.00043772,-4359.5,0.064593
21031,2.7172,0.18182,0,0.00047205,4717.2,0.00016078,60.094,0.0001528,0.13744,-0.00047099,-4686.8,0.081758
21032,2.6251,0.18182,0.05,4.3612e-06,43.582,3.3489e-06,25.162,-4.3721e-12,-8.2202e-06,-3.3489e-06,-25.162,0.076163
21033,2.6251,0.090909,0,0.00046036,4600.4,0.00015498,36.711,0.0001501,-0.021784,-0.00045973,-4582,0.075432
21034,2.9015,0.18182,0,0.00048567,4853.3,0.00016421,47.229,0.00015793,0.0812,-0.00048484,-4829.5,0.093063
21035,2.8093,0.18182,0.05,3.338e-06,33.357,2.5632e-06,19.259,-6.1212e-12,-5.731e-06,-2.5632e-06,-19.259,0.087311
21036,2.8093,0.090909,0,0.00047696,4766.3,0.00015985,29.369,0.00015594,-0.010802,-0.00047645,-4751.6,0.086584
21037,3.0857,0.18182,0,0.00049535,4950.1,0.00016645,35.748,0.0001617,0.050582,-0.00049473,-4932.1,0.1047
21038,2.9936,0.18182,0.05,2.4794e-06,24.777,1.9039e-06,14.305,-7.8601e-12,-4.432e-06,-1.9038e-06,-14.305,0.098783
21039,2.9936,0.090909,0,0.00048912,4887.8,0.0001633,22.709,0.00016028,0.0045878,-0.00048873,-4876.4,0.09806
21040,3.27,0.18182,0,0.0005018,5014.5,0.00016774,25.774,0.00016432,0.035874,-0.00050135,-5001.6,0.11667
21041,3.1779,0.18182,0.05,1.7733e-06,17.721,1.3617e-06,10.231,-7.6355e-12,-4.5321e-06,-1.3617e-06,-10.231,0.11059
21042,3.1779,0.090909,0,0.0004976,4972.5,0.00016561,16.852,0.00016337,0.021324,-0.00049731,-4964.1,0.10987
21043,3.4543,0.18182,0,0.00050562,5052.7,0.0001683,17.31,0.000166,0.027321,-0.00050533,-5044.1,0.12898
21044,3.3621,0.18182,0.05,1.2034e-06,12.026,9.2409e-07,6.9433,-7.5594e-12,-3.145e-06,-9.2407e-07,-6.9431,0.12273
21045,3.3621,0.090909,0,0.00050307,5027.2,0.000167,11.829,0.00016543,0.037138,-0.00050287,-5021.3,0.12201
21046,3.6385,0.18182,0,0.00050734,5069.9,0.00016828,10.281,0.00016691,0.012992,-0.00050717,-5064.8,0.14163
21047,3.5464,0.18182,0.05,7.5223e-07,7.5171,5.7763e-07,4.3401,-9.1885e-12,-2.0479e-06,-5.7761e-07,-4.3399,0.13521
21048,3.5464,0.090909,0,0.00050611,5057.7,0.00016765,7.6154,0.00016664,0.050311,-0.00050598,-5053.8,0.1345
21049,3.8228,0.18182,0,0.00050738,5070.3,0.00016782,4.6004,0.0001672,-0.042344,-0.0005073,-5068,0.15463
21050,3.7307,0.18182,0.05,4.0529e-07,4.0501,3.1122e-07,2.3385,-8.0471e-12,7.0528e-06,-3.1121e-07,-2.3382,0.14804
21051,3.7307,0.090909,0,0.00050721,5068.6,0.00016772,4.1554,0.00016718,0.058238,-0.00050714,-5066.5,0.14733
21052,4.0071,0.18182,0,0.00050609,5057.4,0.00016711,0.71227,0.00016691,-0.72547,-0.00050609,-5057.4,0.16798
21053,3.9149,0.18182,0.05,1.6862e-07,1.6851,1.2948e-07,0.97294,6.5121e-12,0.00010197,-1.2948e-07,-0.97279,0.16122
21054,3.9149,0.090909,0,0.00050676,5064.1,0.00016734,1.3919,0.00016716,0.044632,-0.00050673,-5063.4,0.1605
21055,4.1913,0.18182,0,0.00050376,5034.1,0.00016645,0.21372,0.00016591,-3.7784,-0.00050382,-5035.9,0.18166
21056,4.0992,0.18182,0.05,1.6114e-07,1.6103,1.2373e-07,0.92973,2.0548e-11,0.00024175,-1.2374e-07,-0.92967,0.17473
21057,4.0992,0.090909,0,0.00050508,5047.3,0.00016673,0.13798,0.0001666,-0.88208,-0.00050509,-5047.7,0.17402
21058,4.3756,0.18182,0,0.00050061,5002.7,0.00016553,0.1631,0.00016466,-6.3997,-0.00050072,-5005.8,0.19569
21059,4.2835,0.18182,0.05,2.8192e-07,2.8173,2.1648e-07,1.6267,3.0143e-12,0.0001631,-2.1648e-07,-1.6264,0.18859
21060,4.2835,0.090909,0,0.00050244,5021,0.00016594,0.11384,0.00016559,-2.5202,-0.00050248,-5022.2,0.18788
21061,4.5599,0.18182,0,0.00049684,4965,0.00016438,0.14607,0.00016326,-8.306,-0.00049698,-4969,0.21006
21062,4.4677,0.18182,0.05,3.8296e-07,3.827,2.9407e-07,2.2097,8.7048e-13,9.7357e-05,-2.9407e-07,-2.2094,0.20279
21063,4.4677,0.090909,0,0.00049906,4987.1,0.00016488,0.11271,0.00016437,-3.7368,-0.00049912,-4988.9,0.20209
21064,4.7441,0.18182,0,0.00049258,4922.4,0.00016304,0.1371,0.00016174,-9.591,-0.00049274,-4927.1,0.22477
21065,4.652,0.18182,0.05,4.5452e-07,4.5421,3.4902e-07,2.6225,-6.1559e-13,8.152e-05,-3.4901e-07,-2.6222,0.21734
21066,4.652,0.090909,0,0.00049509,4947.5,0.00016362,0.11356,0.00016299,-4.579,-0.00049516,-4949.7,0.21663
21067,4.9284,0.18182,0,0.00048795,4876.2,0.00016155,0.13091,0.00016015,-10.356,-0.00048813,-4881.3,0.23981
21068,4.8363,0.18182,0.05,5.008e-07,5.0046,3.8456e-07,2.8895,-1.5228e-12,4.9517e-05,-3.8455e-07,-2.8893,0.23221
21069,4.8363,0.090909,0,0.00049067,4903.4,0.00016219,0.11436,0.00016149,-5.106,-0.00049076,-4905.9,0.23151
21070,5.1127,0.18182,0,0.00048305,4827.1,0.00015995,0.12591,0.00015851,-10.692,-0.00048323,-4832.4,0.25519
21071,5.0205,0.18182,0.05,5.2688e-07,5.2652,4.0459e-07,3.04,-4.1035e-12,7.0724e-05,-4.0458e-07,-3.0397,0.24742
21072,5.0205,0.090909,0,0.00048592,4855.9,0.00016063,0.11477,0.0001599,-5.3721,-0.00048601,-4858.5,0.24672
21073,5.2969,0.18182,0,0.00047793,4776,0.00015826,0.12161,0.00015682,-10.682,-0.00047811,-4781.3,0.27089
21074,5.2048,0.18182,0.05,5.3728e-07,5.3691,4.1257e-07,3.1,-4.2818e-12,6.684e-05,-4.1256e-07,-3.0997,0.26296
21075,5.2048,0.090909,0,0.00048091,4805.8,0.00015898,0.11486,0.00015824,-5.4252,-0.000481,-4808.4,0.26226
21076,5.4812,0.18182,0,0.00047267,4723.4,0.0001565,0.11791,0.00015511,-10.395,-0.00047284,-4728.5,0.28692
21077,5.3891,0.18182,0.05,5.3575e-07,5.3538,4.114e-07,3.0911,-5.1404e-12,4.5822e-05,-4.1138e-07,-3.0909,0.27882
21078,5.3891,0.090909,0,0.00047571,4753.8,0.00015726,0.1148,0.00015653,-5.3068,-0.00047579,-4756.4,0.27813
21079,5.6655,0.18182,0,0.00046729,4669.7,0.0001547,0.11486,0.00015337,-9.8917,-0.00046745,-4674.5,0.30326
21080,5.5733,0.18182,0.05,5.2533e-07,5.2497,4.0339e-07,3.0311,-3.7546e-12,6.53e-05,-4.0339e-07,-3.0308,0.29501
21081,5.5733,0.090909,0,0.00047036,4700.4,0.00015548,0.11483,0.00015479,-5.0528,-0.00047045,-4702.8,0.29432
21082,5.8497,0.18182,0,0.00046183,4615.1,0.00015287,0.11261,0.00015163,-9.222,-0.00046199,-4619.7,0.31993
21083,5.7576,0.18182,0.05,5.0845e-07,5.081,3.9043e-07,2.9336,-5.147e-12,5.5057e-05,-3.9042e-07,-2.9334,0.31152
21084,5.7576,0.090909,0,0.00046492,4646,0.00015366,0.11524,0.00015302,-4.6937,-0.00046499,-4648.2,0.31083
21085,6.034,0.18182,0,0.00045632,4560.1,0.00015101,0.11136,0.00014988,-8.4288,-0.00045646,-4564.2,0.33691
21086,5.9419,0.18182,0.05,4.8704e-07,4.867,3.7399e-07,2.8101,-3.6692e-12,5.63e-05,-3.7398e-07,-2.8098,0.32834
21087,5.9419,0.090909,0,0.0004594,4590.8,0.00015182,0.11639,0.00015124,-4.2554,-0.00045947,-4592.9,0.32766
21088,6.2183,0.18182,0,0.00045078,4504.7,0.00014914,0.11142,0.00014812,-7.5476,-0.00045091,-4508.4,0.35419
21089,6.1261,0.18182,0.05,4.6259e-07,4.6227,3.5522e-07,2.669,-2.2517e-12,5.6284e-05,-3.5521e-07,-2.6688,0.34548
21090,6.1261,0.090909,0,0.00045384,4535.2,0.00014996,0.11878,0.00014945,-3.7597,-0.0004539,-4537.1,0.34479
21091,6.4025,0.18182,0,0.00044522,4449.1,0.00014726,0.11324,0.00014636,-6.6076,-0.00044533,-4452.4,0.37179
21092,6.3104,0.18182,0.05,4.3628e-07,4.3598,3.3502e-07,2.5172,-3.5696e-12,4.4563e-05,-3.3501e-07,-2.517,0.36292
21093,6.3104,0.090909,0,0.00044825,4479.4,0.00014809,0.12319,0.00014765,-3.2251,-0.0004483,-4480.9,0.36224
21094,6.5868,0.18182,0,0.00043965,4393.5,0.00014537,0.11758,0.00014461,-5.6332,-0.00043975,-4396.2,0.38968
21095,6.4947,0.18182,0.05,4.0902e-07,4.0873,3.1408e-07,2.3599,-2.1231e-12,5.7495e-05,-3.1407e-07,-2.3597,0.38066
21096,6.4947,0.090909,0,0.00044264,4423.3,0.00014621,0.13093,0.00014584,-2.6672,-0.00044268,-4424.6,0.37999
21097,6.7711,0.18182,0,0.00043408,4337.9,0.00014349,0.12575,0.00014285,-4.6445,-0.00043416,-4340.1,0.40788
21098,6.6789,0.18182,0.05,3.8147e-07,3.812,2.9293e-07,2.201,-3.5871e-12,4.4829e-05,-2.9291e-07,-2.2008,0.39871
21099,6.6789,0.090909,0,0.00043703,4367.3,0.00014434,0.14457,0.00014404,-2.1004,-0.00043706,-4368.3,0.39804
21100,6.9553,0.18182,0,0.00042853,4282.3,0.00014161,0.14036,0.0001411,-3.6591,-0.00042859,-4284.1,0.42637
21101,6.8632,0.18182,0.05,3.5415e-07,3.539,2.7195e-07,2.0433,-1.8665e-12,4.5021e-05,-2.7193e-07,-2.0431,0.41705
21102,6.8632,0.090909,0,0.00043142,4311.3,0.00014246,0.16976,0.00014223,-1.5396,-0.00043145,-4311.9,0.41639
21103,7.1396,0.18182,0,0.00042298,4226.9,0.00013973,0.16732,0.00013935,-2.6947,-0.00042302,-4228.1,0.44515
21104,7.0475,0.18182,0.05,3.2743e-07,3.272,2.5143e-07,1.8892,-2.1601e-12,5.6209e-05,-2.5142e-07,-1.889,0.43569
21105,7.0475,0.090909,0,0.00042583,4255.3,0.00014059,0.22127,0.00014043,-1.0072,-0.00042584,-4255.7,0.43503
21106,7.3239,0.18182,0,0.00041745,4171.6,0.00013786,0.22266,0.0001376,-1.7762,-0.00041747,-4172.4,0.46421
21107,7.2317,0.18182,0.05,3.0157e-07,3.0137,2.3158e-07,1.7401,-1.9272e-12,5.6947e-05,-2.3156e-07,-1.7398,0.45461
21108,7.2317,0.090909,0,0.00042024,4199.5,0.00013874,0.34158,0.00013862,-0.55131,-0.00042025,-4199.7,0.45396
21109,7.5081,0.18182,0,0.00041193,4116.5,0.00013602,0.35986,0.00013584,-0.96392,-0.00041194,-4116.8,0.48356
21110,7.416,0.18182,0.05,2.7677e-07,2.7658,2.1253e-07,1.597,-3.3528e-12,4.6733e-05,-2.1252e-07,-1.5968,0.47382
21111,7.416,0.090909,0,0.00041468,4143.9,0.00013691,0.61205,0.00013679,-0.2577,-0.00041467,-4143.8,0.47317
21112,7.6924,0.18182,0,0.00040644,4061.6,0.00013421,0.73202,0.00013405,-0.41584,-0.00040643,-4061.4,0.50319
21113,7.6003,0.18182,0.05,2.5314e-07,2.5297,1.9439e-07,1.4606,-1.2663e-13,5.2716e-05,-1.9437e-07,-1.4604,0.49331
21114,7.6003,0.090909,0,0.00040914,4088.5,0.00013511,1.0302,0.00013495,-0.12713,-0.00040912,-4088.1,0.49267
21115,7.8767,0.18182,0,0.00040097,4006.9,0.00013244,1.3954,0.00013223,-0.19164,-0.00040095,-4006.3,0.52309
21116,7.7845,0.18182,0.05,2.3075e-07,2.3059,1.7719e-07,1.3314,-4.3589e-12,4.5945e-05,-1.7718e-07,-1.3312,0.51308
21117,7.7845,0.090909,0,0.00040361,4033.3,0.00013332,1.5057,0.00013311,-0.07161,-0.00040359,-4032.6,0.51244
21118,8.0609,0.18182,0,0.00039551,3952.4,0.00013071,2.1653,0.0001304,-0.10867,-0.00039548,-3951.4,0.54327
21119,7.9688,0.18182,0.05,2.0963e-07,2.0948,1.6097e-07,1.2095,-3.2314e-13,4.9678e-05,-1.6096e-07,-1.2093,0.53312
21120,7.9688,0.090909,0,0.00039811,3978.4,0.00013155,1.99,0.00013127,-0.044222,-0.00039808,-3977.4,0.53249
21121,8.2452,0.18182,0,0.00039009,3898.2,0.00012898,2.9438,0.00012858,-0.070468,-0.00039004,-3896.7,0.56371
21122,8.1531,0.18182,0.05,1.8977e-07,1.8964,1.4573e-07,1.095,-1.355e-12,6.0491e-05,-1.4572e-07,-1.0948,0.55343
21123,8.1531,0.090909,0,0.00039264,3923.6,0.00012978,2.4663,0.00012945,-0.028876,-0.00039259,-3922.4,0.55281
21124,8.4295,0.18182,0,0.00038468,3844.1,0.00012726,3.7031,0.00012676,-0.0495,-0.00038462,-3842.3,0.58442
21125,8.3373,0.18182,0.05,1.7118e-07,1.7106,1.3145e-07,0.98771,-2.1261e-12,4.9769e-05,-1.3144e-07,-0.98752,0.574
21126,8.3373,0.090909,0,0.00038718,3869.2,0.00012802,2.9278,0.00012762,-0.019518,-0.00038713,-3867.7,0.57339
21127,8.6137,0.18182,0,0.0003793,3790.3,0.00012554,4.4343,0.00012494,-0.036622,-0.00037922,-3788.1,0.60539
21128,8.5216,0.18182,0.05,1.538e-07,1.537,1.1811e-07,0.88747,-2.9096e-12,5.3373e-05,-1.181e-07,-0.88728,0.59484
21129,8.5216,0.090909,0,0.00038175,3814.9,0.00012626,3.3719,0.00012581,-0.01349,-0.0003817,-3813.2,0.59424
21130,8.798,0.18182,0,0.00037394,3736.8,0.00012383,5.1341,0.00012314,-0.028099,-0.00037385,-3734.2,0.62661
21131,8.7059,0.18182,0.05,1.3761e-07,1.3751,1.0567e-07,0.79406,-2.6774e-13,7.0619e-05,-1.0566e-07,-0.7938,0.61594
21132,8.7059,0.090909,0,0.00037635,3760.9,0.00012451,3.7975,0.00012401,-0.0094669,-0.00037629,-3759,0.61534
21133,8.9823,0.18182,0,0.0003686,3683.4,0.00012212,5.8018,0.00012135,-0.022153,-0.0003685,-3680.5,0.64809
21134,8.8901,0.18182,0.05,1.2254e-07,1.2245,9.41e-08,0.70709,-1.4446e-13,5.5061e-05,-9.4089e-08,-0.7069,0.63729
21135,8.8901,0.090909,0,0.00037097,3707.1,0.00012277,4.2044,0.00012221,-0.0067217,-0.0003709,-3705,0.6367
21136,9.1665,0.18182,0,0.00036328,3630.3,0.00012042,6.4376,0.00011956,-0.01784,-0.00036317,-3627.1,0.66982
21137,9.0744,0.18182,0.05,1.0854e-07,1.0847,8.335e-08,0.62634,-2.2448e-12,5.6085e-05,-8.3347e-08,-0.62615,0.65889
21138,9.0744,0.090909,0,0.00036562,3653.6,0.00012104,4.5927,0.00012043,-0.004827,-0.00036554,-3651.3,0.65831
21139,9.3508,0.18182,0,0.00035799,3577.4,0.00011873,7.0426,0.00011779,-0.014616,-0.00035787,-3573.9,0.69179
21140,9.2587,0.18182,0.05,9.5565e-08,0.95499,7.3384e-08,0.55146,-6.0837e-13,5.3997e-05,-7.338e-08,-0.55127,0.68074
21141,9.2587,0.090909,0,0.00036028,3600.4,0.00011931,4.9629,0.00011865,-0.0035159,-0.0003602,-3597.9,0.68017
21142,9.5351,0.18182,0,0.00035272,3524.8,0.00011703,7.6178,0.00011602,-0.012148,-0.00035259,-3521,0.71401
21143,9.4429,0.18182,0.05,8.3545e-08,0.83487,6.4156e-08,0.48211,-6.2912e-13,5.6874e-05,-6.4148e-08,-0.48192,0.70284
21144,9.4429,0.090909,0,0.00035498,3547.3,0.00011759,5.3158,0.00011688,-0.0026144,-0.00035489,-3544.7,0.70227
21145,9.7193,0.18182,0,0.00034747,3472.3,0.00011535,8.1647,0.00011426,-0.010218,-0.00034733,-3468.3,0.73646
21146,9.6272,0.18182,0.05,7.2425e-08,0.72375,5.5617e-08,0.41794,-5.6789e-14,5.3807e-05,-5.561e-08,-0.41778,0.72517
21147,9.6272,0.090909,0,0.00034969,3494.5,0.00011587,5.652,0.00011512,-0.0020073,-0.0003496,-3491.7,0.72461
21148,9.9036,0.18182,0,0.00034225,3420.1,0.00011367,8.6849,0.00011251,-0.0086825,-0.0003421,-3415.8,0.75915
21149,9.8115,0.18182,0.05,6.2152e-08,0.62109,4.773e-08,0.35867,6.3595e-13,5.4176e-05,-4.772e-08,-0.3585,0.74775
21150,9.8115,0.090909,0,0.00034443,3441.9,0.00011416,5.9726,0.00011337,-0.0016047,-0.00034433,-3439,0.74719
21151,10.088,0.18182,0,0.00033705,3368.1,0.00011199,9.1798,0.00011077,-0.0074478,-0.00033689,-3363.5,0.78207
21152,9.9957,0.18182,0.05,5.2672e-08,0.52635,4.0448e-08,0.30397,-9.274e-14,5.628e-05,-4.0443e-08,-0.30381,0.77055
21153,9.9957,0.090909,0,0.0003392,3389.6,0.00011246,6.2783,0.00011162,-0.0013637,-0.00033909,-3386.5,0.77001
21154,10.272,0.18182,0,0.00033186,3316.4,0.00011032,9.6512,0.00010904,-0.0064342,-0.0003317,-3311.5,0.80522
21155,10.18,0.18182,0.05,4.393e-08,0.439,3.3736e-08,0.25352,6.5297e-13,5.5191e-05,-3.373e-08,-0.25339,0.79359
21156,10.18,0.090909,0,0.00033398,3337.5,0.00011076,6.57,0.00010989,-0.0012347,-0.00033387,-3334.2,0.79305
21157,10.456,0.18182,0,0.00032671,3264.8,0.00010866,10.101,0.00010731,-0.0056148,-0.00032653,-3259.7,0.82859
21158,10.364,0.18182,0.05,3.5885e-08,0.3586,2.7558e-08,0.20713,1.6065e-12,7.0707e-05,-2.7552e-08,-0.20695,0.81685
21159,10.364,0.090909,0,0.00032879,3285.6,0.00010907,6.8489,0.00010816,-0.0011788,-0.00032867,-3282.2,0.81632
21160,10.641,0.18182,0,0.00032157,3213.5,0.000107,10.529,0.00010559,-0.0049384,-0.00032139,-3208.2,0.85218
21161,10.549,0.18182,0.05,2.8486e-08,0.28467,2.188e-08,0.1644,2.6829e-12,5.0075e-05,-2.1868e-08,-0.1643,0.84033
21162,10.549,0.090909,0,0.00032362,3234,0.00010739,7.1155,0.00010644,-0.0012292,-0.0003235,-3230.4,0.83981
21163,10.825,0.18182,0,0.00031645,3162.3,0.00010534,10.939,0.00010389,-0.0043322,-0.00031626,-3156.8,0.87599
21164,10.733,0.18182,0.05,2.1691e-08,0.21676,1.6656e-08,0.12522,1.1081e-12,7.3262e-05,-1.6656e-08,-0.12507,0.86403
21165,10.733,0.090909,0,0.00031848,3182.6,0.00010571,7.3711,0.00010473,-0.0012871,-0.00031835,-3178.9,0.86352
21166,11.009,0.18182,0,0.00031136,3111.4,0.00010369,11.332,0.00010219,-0.0038116,-0.00031116,-3105.7,0.90002
21167,10.917,0.18182,0.05,1.5497e-08,0.15487,1.19e-08,0.089484,3.7789e-12,0.00010066,-1.19e-08,-0.089339,0.88795
21168,10.917,0.090909,0,0.00031335,3131.4,0.00010404,7.6164,0.00010303,-0.0013375,-0.00031322,-3127.5,0.88745
21169,11.193,0.18182,0,0.00030628,3060.7,0.00010205,11.709,0.00010049,-0.0033842,-0.00030608,-3054.9,0.92425
21170,11.101,0.18182,0.05,9.9183e-09,0.099114,7.6176e-09,0.05726,8.5931e-12,8.1968e-05,-7.6144e-09,-0.057187,0.91208
21171,11.101,0.090909,0,0.00030825,3080.4,0.00010238,7.8522,0.00010133,-0.001445,-0.00030812,-3076.4,0.91158
21172,11.378,0.18182,0,0.00030123,3010.2,0.00010041,12.071,9.8808e-05,-0.0030342,-0.00030102,-3004.2,0.94869
21173,11.286,0.18182,0.05,5.1762e-09,0.051727,3.9703e-09,0.029886,1.4131e-11,0.00020192,-3.979e-09,-0.029842,0.93642
21174,11.286,0.090909,0,0.00030317,3029.6,0.00010072,8.0794,9.9646e-05,-0.0015746,-0.00030303,-3025.6,0.93593
21175,11.562,0.18182,0,0.0002962,2960,9.8783e-05,12.419,9.713e-05,-0.0027306,-0.00029599,-2953.7,0.97334
21176,11.47,0.18182,0.05,3.2181e-09,0.032159,2.4706e-09,0.018595,9.2545e-12,6.7989e-05,-2.4716e-09,-0.018538,0.96096
21177,11.47,0.090909,0,0.00029811,2979.1,9.9071e-05,8.2986,9.7966e-05,-0.0017451,-0.00029797,-2974.9,0.96048
21178,11.746,0.18182,0,0.00029119,2909.9,9.7158e-05,12.756,9.546e-05,-0.0024301,-0.00029097,-2903.5,0.99818
21179,11.654,0.18182,0.05,6.0575e-09,0.060533,4.6568e-09,0.035055,-6.2987e-12,3.1193e-06,-4.6459e-09,-0.034842,0.98571
21180,11.654,0.090909,0,0.00029308,2928.7,9.7426e-05,8.5108,9.6293e-05,-0.001884,-0.00029293,-2924.5,0.98523
21181,11.931,0.18182,0,0.0002862,2860,9.5539e-05,13.081,9.3798e-05,-0.00216,-0.00028598,-2853.5,1.0232
21182,11.838,0.18182,0.05,9.755e-09,0.097483,7.4975e-09,0.056371,-6.3507e-12,9.3023e-06,-7.4838e-09,-0.056194,1.0107
21183,11.838,0.090909,0,0.00028806,2878.6,9.5789e-05,8.7167,9.4628e-05,-0.00199,-0.00028791,-2874.3,1.0102
21184,12.115,0.18182,0,0.00028123,2810.4,9.3926e-05,13.397,9.2143e-05,-0.0019381,-0.000281,-2803.7,1.0485
21185,12.023,0.18182,0.05,1.3305e-08,0.13296,1.022e-08,0.076835,-4.7139e-12,1.417e-05,-1.0214e-08,-0.076694,1.0358
21186,12.023,0.090909,0,0.00028307,2828.7,9.4158e-05,8.9168,9.2971e-05,-0.0021292,-0.00028292,-2824.3,1.0353
21187,12.299,0.18182,0,0.00027629,2761,9.2319e-05,13.704,9.0495e-05,-0.0017586,-0.00027605,-2754.1,1.0739
21188,12.207,0.18182,0.05,1.6592e-08,0.16581,1.2747e-08,0.095824,-2.6957e-12,2.6457e-05,-1.2735e-08,-0.095633,1.0611
21189,12.207,0.090909,0,0.0002781,2779.1,9.2533e-05,9.1118,9.132e-05,-0.002273,-0.00027794,-2774.5,1.0607
21190,12.483,0.18182,0,0.00027136,2711.7,9.0718e-05,14.004,8.8854e-05,-0.0015969,-0.00027112,-2704.7,1.0995
21191,12.391,0.18182,0.05,1.9605e-08,0.19592,1.5057e-08,0.11317,-1.294e-12,1.5225e-05,-1.5052e-08,-0.11306,1.0866
21192,12.391,0.090909,0,0.00027315,2729.6,9.0915e-05,9.3024,8.9677e-05,-0.0024439,-0.00027299,-2724.9,1.0862
21193,12.668,0.18182,0,0.00026646,2662.7,8.9124e-05,14.297,8.7221e-05,-0.0014183,-0.00026621,-2655.5,1.1253
21194,12.575,0.18182,0.05,2.2357e-08,0.22342,1.7171e-08,0.12905,-3.1865e-12,2.4787e-05,-1.7164e-08,-0.12893,1.1123
21195,12.575,0.090909,0,0.00026822,2680.3,8.9304e-05,9.4891,8.8041e-05,-0.0025779,-0.00026805,-2675.6,1.1119
21196,12.852,0.18182,0,0.00026157,2613.9,8.7536e-05,14.584,8.5595e-05,-0.0012531,-0.00026132,-2606.6,1.1513
21197,12.76,0.18182,0.05,2.484e-08,0.24823,1.9076e-08,0.14337,-1.1454e-12,2.3617e-05,-1.9072e-08,-0.14326,1.1382
21198,12.76,0.090909,0,0.00026331,2631.3,8.77e-05,9.6727,8.6412e-05,-0.0026756,-0.00026314,-2626.4,1.1378
21199,13.036,0.18182,0,0.00025671,2565.3,8.5954e-05,14.867,8.3975e-05,-0.001118,-0.00025645,-2557.8,1.1774
21200,12.944,0.18182,0.05,2.7074e-08,0.27055,2.0793e-08,0.15627,-1.0749e-13,2.9459e-05,-2.0786e-08,-0.15614,1.1643
21201,12.944,0.090909,0,0.00025842,2582.4,8.6102e-05,9.8534,8.479e-05,-0.002798,-0.00025825,-2577.5,1.1639
21202,13.22,0.18182,0,0.00025186,2516.9,8.4379e-05,15.145,8.2363e-05,-0.0010099,-0.0002516,-2509.3,1.2037
21203,13.128,0.18182,0.05,2.9079e-08,0.29059,2.2333e-08,0.16785,-7.9268e-13,3.8687e-05,-2.2326e-08,-0.1677,1.1905
21204,13.128,0.090909,0,0.00025355,2533.8,8.4511e-05,10.032,8.3175e-05,-0.0029232,-0.00025338,-2528.8,1.1901
21205,13.405,0.18182,0,0.00024704,2468.7,8.2811e-05,15.421,8.0758e-05,-0.00090973,-0.00024677,-2461,1.2302
21206,13.313,0.18182,0.05,3.0873e-08,0.30852,2.3708e-08,0.17817,-9.0782e-13,2.4667e-05,-2.3705e-08,-0.17807,1.2169
21207,13.313,0.090909,0,0.00024871,2485.4,8.2926e-05,10.209,8.1567e-05,-0.0030695,-0.00024853,-2480.2,1.2165
21208,13.589,0.18182,0,0.00024224,2420.7,8.1249e-05,15.694,7.916e-05,-0.0007877,-0.00024197,-2412.8,1.2569
21209,13.497,0.18182,0.05,3.2474e-08,0.32452,2.4939e-08,0.18742,-1.2397e-12,3.3516e-05,-2.4933e-08,-0.1873,1.2435
21210,13.497,0.090909,0,0.00024388,2437.1,8.1349e-05,10.385,7.9966e-05,-0.0031838,-0.0002437,-2431.9,1.2431
21211,13.773,0.18182,0,0.00023746,2372.9,7.9693e-05,15.965,7.7568e-05,-0.00067028,-0.00023718,-2364.9,1.2837
21212,13.681,0.18182,0.05,3.3876e-08,0.33852,2.6015e-08,0.1955,-2.7851e-13,2.8562e-05,-2.601e-08,-0.1954,1.2702
21213,13.681,0.090909,0,0.00023908,2389.1,7.9778e-05,10.559,7.8372e-05,-0.0032634,-0.0002389,-2383.8,1.2698
21214,13.957,0.18182,0,0.0002327,2325.4,7.8145e-05,16.236,7.5984e-05,-0.00057534,-0.00023242,-2317.2,1.3107
21215,13.865,0.18182,0.05,3.5095e-08,0.35071,2.6951e-08,0.20253,2.8632e-13,3.2109e-05,-2.6946e-08,-0.20243,1.2971
21216,13.865,0.090909,0,0.00023429,2341.3,7.8214e-05,10.734,7.6785e-05,-0.0033664,-0.00023411,-2335.9,1.2968
21217,14.142,0.18182,0,0.00022796,2278,7.6603e-05,16.506,7.4406e-05,-0.00050096,-0.00022767,-2269.7,1.3378
21218,14.05,0.18182,0.05,3.6147e-08,0.36122,2.7758e-08,0.2086,8.8809e-13,4.4273e-05,-2.7754e-08,-0.20849,1.3242
21219,14.05,0.090909,0,0.00022953,2293.7,7.6656e-05,10.909,7.5204e-05,-0.0034714,-0.00022934,-2288.3,1.3238
21220,14.326,0.18182,0,0.00022324,2230.8,7.5068e-05,16.777,7.2835e-05,-0.00042885,-0.00022295,-2222.4,1.3651
21221,14.234,0.18182,0.05,3.7045e-08,0.37019,2.8448e-08,0.21377,5.4311e-13,3.9325e-05,-2.8443e-08,-0.21369,1.3514
21222,14.234,0.090909,0,0.00022479,2246.3,7.5106e-05,11.084,7.363e-05,-0.0035978,-0.0002246,-2240.8,1.351
21223,14.51,0.18182,0,0.00021854,2183.9,7.354e-05,17.049,7.1271e-05,-0.00033371,-0.00021824,-2175.3,1.3925
21224,14.418,0.18182,0.05,3.7801e-08,0.37775,2.9026e-08,0.21814,-4.2748e-13,3.6409e-05,-2.9028e-08,-0.21805,1.3788
21225,14.418,0.090909,0,0.00022007,2199.1,7.3562e-05,11.26,7.2063e-05,-0.0036947,-0.00021987,-2193.5,1.3784
21226,14.695,0.18182,0,0.00021386,2137.1,7.2019e-05,17.323,6.9713e-05,-0.00024095,-0.00021356,-2128.4,1.4201
21227,14.602,0.18182,0.05,3.8411e-08,0.38385,2.9497e-08,0.22166,6.007e-13,4.0575e-05,-2.9493e-08,-0.22157,1.4063
21228,14.602,0.090909,0,0.00021536,2152.2,7.2025e-05,11.438,7.0502e-05,-0.0037634,-0.00021517,-2146.4,1.4059
21229,14.879,0.18182,0,0.0002092,2090.5,7.0504e-05,17.599,6.8162e-05,-0.00016594,-0.00020889,-2081.7,1.4479
21230,14.787,0.18182,0.05,3.8886e-08,0.3886,2.9863e-08,0.2244,1.0352e-12,4.1587e-05,-2.9857e-08,-0.22431,1.4339
21231,14.787,0.090909,0,0.00021068,2105.4,7.0495e-05,11.617,6.8949e-05,-0.0038559,-0.00021048,-2099.5,1.4336
21232,15.063,0.18182,0,0.00020456,2044.2,6.8997e-05,17.878,6.6617e-05,-0.0001066,-0.00020425,-2035.2,1.4757
21233,14.971,0.18182,0.05,3.9239e-08,0.39212,3.0132e-08,0.22644,6.9829e-13,4.4296e-05,-3.013e-08,-0.22634,1.4617
21234,14.971,0.090909,0,0.00020602,2058.8,6.8972e-05,11.798,6.7401e-05,-0.0039489,-0.00020582,-2052.9,1.4614
21235,15.247,0.18182,0,0.00019994,1998,6.7496e-05,18.16,6.5079e-05,-4.7497e-05,-0.00019963,-1988.9,1.5037
21236,15.155,0.18182,0.05,3.9482e-08,0.39455,3.032e-08,0.22784,2.2587e-12,4.3697e-05,-3.0316e-08,-0.22775,1.4897
21237,15.155,0.090909,0,0.00020138,2012.4,6.7456e-05,11.982,6.5861e-05,-0.0040663,-0.00020117,-2006.4,1.4894
21238,15.432,0.18182,0,0.00019535,1952.1,6.6003e-05,18.447,6.3548e-05,3.4264e-05,-0.00019502,-1942.8,1.5319
21239,15.339,0.18182,0.05,3.9627e-08,0.39599,3.0429e-08,0.22867,2.6588e-12,4.646e-05,-3.0428e-08,-0.22859,1.5178
21240,15.339,0.090909,0,0.00019676,1966.2,6.5947e-05,12.168,6.4327e-05,-0.0041571,-0.00019655,-1960.1,1.5174
21241,15.616,0.18182,0,0.00019077,1906.4,6.4517e-05,18.738,6.2023e-05,0.00011606,-0.00019044,-1896.9,1.5601
21242,15.524,0.18182,0.05,3.967e-08,0.39643,3.0463e-08,0.22891,2.8926e-12,4.9358e-05,-3.046e-08,-0.22884,1.546
21243,15.524,0.090909,0,0.00019216,1920.3,6.4444e-05,12.358,6.2799e-05,-0.0042242,-0.00019195,-1914.1,1.5457
21244,15.8,0.18182,0,0.00018621,1860.8,6.3038e-05,19.035,6.0504e-05,0.00018254,-0.00018588,-1851.2,1.5885
21245,15.708,0.18182,0.05,3.9626e-08,0.39599,3.0429e-08,0.22866,2.9462e-12,5.8657e-05,-3.0427e-08,-0.22859,1.5743
21246,15.708,0.090909,0,0.00018758,1874.5,6.2949e-05,12.551,6.1278e-05,-0.0043148,-0.00018736,-1868.2,1.574
21247,15.984,0.18182,0,0.00018167,1815.5,6.1566e-05,19.337,5.8992e-05,0.0002357,-0.00018134,-1805.7,1.6171
21248,15.892,0.18182,0.05,3.9512e-08,0.39485,3.0341e-08,0.228,3.139e-12,6.0787e-05,-3.034e-08,-0.22793,1.6028
21249,15.892,0.090909,0,0.00018302,1828.9,6.146e-05,12.747,5.9763e-05,-0.0044133,-0.0001828,-1822.5,1.6025
21250,16.169,0.18182,0,0.00017716,1770.4,6.0101e-05,19.645,5.7486e-05,0.00028943,-0.00017682,-1760.5,1.6457
21251,16.077,0.18182,0.05,3.9344e-08,0.39317,3.0211e-08,0.22702,3.9223e-12,5.9931e-05,-3.0211e-08,-0.22697,1.6314
21252,16.077,0.090909,0,0.00017848,1783.5,5.9978e-05,12.948,5.8254e-05,-0.0045289,-0.00017825,-1777,1.6311
21253,16.353,0.18182,0,0.00017266,1725.4,5.8643e-05,19.96,5.5987e-05,0.00036278,-0.00017231,-1715.4,1.6745
21254,16.261,0.18182,0.05,3.9141e-08,0.39114,3.0055e-08,0.22585,4.9639e-12,6.2764e-05,-3.0056e-08,-0.2258,1.6601
21255,16.261,0.090909,0,0.00017396,1738.4,5.8504e-05,13.154,5.6752e-05,-0.0046282,-0.00017373,-1731.8,1.6598
21256,16.537,0.18182,0,0.00016819,1680.7,5.7193e-05,20.282,5.4494e-05,0.00043659,-0.00016783,-1670.5,1.7034
21257,16.445,0.18182,0.05,3.8915e-08,0.38888,2.988e-08,0.22455,2.6641e-12,7.6311e-05,-2.9884e-08,-0.2245,1.6889
21258,16.445,0.090909,0,0.00016946,1693.4,5.7036e-05,13.364,5.5257e-05,-0.004708,-0.00016922,-1686.7,1.6886
21259,16.721,0.18182,0,0.00016373,1636.2,5.575e-05,20.612,5.3007e-05,0.00049743,-0.00016337,-1625.8,1.7323
21260,16.629,0.18182,0.05,3.8695e-08,0.38668,2.9711e-08,0.22327,5.9501e-12,7.2518e-05,-2.9715e-08,-0.22323,1.7178
21261,16.629,0.090909,0,0.00016497,1648.6,5.5575e-05,13.579,5.3767e-05,-0.0048111,-0.00016474,-1641.8,1.7176
21262,16.906,0.18182,0,0.00015929,1591.8,5.4314e-05,20.949,5.1526e-05,0.00054525,-0.00015893,-1581.3,1.7615
21263,16.814,0.18182,0.05,3.8513e-08,0.38487,2.9572e-08,0.22222,5.7789e-12,8.6584e-05,-2.9575e-08,-0.22218,1.7469
21264,16.814,0.090909,0,0.00016051,1604,5.4121e-05,13.799,5.2284e-05,-0.0049206,-0.00016027,-1597.1,1.7466
21265,17.09,0.18182,0,0.00015488,1547.7,5.2885e-05,21.295,5.0051e-05,0.00059201,-0.0001545,-1536.9,1.7907
21266,16.998,0.18182,0.05,3.8409e-08,0.38383,2.9491e-08,0.22162,6.5191e-12,9.3603e-05,-2.9496e-08,-0.22158,1.776
21267,16.998,0.090909,0,0.00015607,1559.6,5.2674e-05,14.025,5.0807e-05,-0.0050514,-0.00015583,-1552.6,1.7758
21268,17.274,0.18182,0,0.00015048,1503.8,5.1464e-05,21.65,4.8582e-05,0.00065519,-0.0001501,-1492.8,1.82
21269,17.182,0.18182,0.05,3.8428e-08,0.38401,2.9506e-08,0.22173,8.7346e-12,9.8785e-05,-2.951e-08,-0.2217,1.8053
21270,17.182,0.090909,0,0.00015165,1515.4,5.1234e-05,14.256,4.9336e-05,-0.0051689,-0.0001514,-1508.3,1.805
21271,17.459,0.18182,0,0.0001461,1460,5.005e-05,22.014,4.712e-05,0.00071445,-0.00014572,-1448.9,1.8494
21272,17.366,0.18182,0.05,3.8615e-08,0.38588,2.965e-08,0.2228,6.2979e-12,9.3597e-05,-2.9653e-08,-0.22278,1.8346
21273,17.366,0.090909,0,0.00014725,1471.5,4.9801e-05,14.494,4.7871e-05,-0.0052746,-0.00014699,-1464.2,1.8344
21274,17.643,0.18182,0,0.00014175,1416.5,4.8643e-05,22.388,4.5663e-05,0.00075864,-0.00014135,-1405.2,1.8789
21275,17.551,0.18182,0.05,3.903e-08,0.39003,2.9967e-08,0.22519,1.1427e-11,9.9979e-05,-2.9973e-08,-0.22517,1.8641
21276,17.551,0.090909,0,0.00014286,1427.6,4.8375e-05,14.738,4.6412e-05,-0.0054019,-0.00014261,-1420.2,1.8639
21277,17.827,0.18182,0,0.00013741,1373.1,4.7243e-05,22.771,4.4212e-05,0.00078839,-0.00013701,-1361.6,1.9085
21278,17.735,0.18182,0.05,3.9737e-08,0.3971,3.051e-08,0.22927,8.6373e-12,0.00011827,-3.0516e-08,-0.22926,1.8937
21279,17.735,0.090909,0,0.0001385,1384,4.6955e-05,14.989,4.496e-05,-0.0055388,-0.00013824,-1376.5,1.8934
21280,18.011,0.18182,0,0.00013309,1330,4.585e-05,23.164,4.2767e-05,0.00081223,-0.00013268,-1318.2,1.9382
21281,17.919,0.18182,0.05,4.0803e-08,0.40775,3.1328e-08,0.23542,1.0693e-11,6.0158e-05,-3.1334e-08,-0.23541,1.9233
21282,17.919,0.090909,0,0.00013415,1340.6,4.5543e-05,15.246,4.3513e-05,-0.0056955,-0.00013389,-1332.9,1.9231
21283,18.196,0.18182,0,0.00012879,1287,4.4465e-05,23.568,4.1328e-05,0.00084325,-0.00012837,-1275.1,1.968
21284,18.103,0.18182,0.05,4.2292e-08,0.42263,3.2472e-08,0.24401,1.0898e-11,9.145e-05,-3.2478e-08,-0.244,1.953
21285,18.103,0.090909,0,0.00012983,1297.4,4.4137e-05,15.51,4.2072e-05,-0.0058463,-0.00012956,-1289.6,1.9528
21286,18.38,0.18182,0,0.00012451,1244.2,4.3086e-05,23.981,3.9894e-05,0.00086257,-0.00012408,-1232.1,1.9978
21287,18.288,0.18182,0.05,4.4266e-08,0.44235,3.3988e-08,0.2554,9.0289e-12,0.00010604,-3.3994e-08,-0.25539,1.9829
21288,18.288,0.090909,0,0.00012552,1254.3,4.2738e-05,15.781,4.0637e-05,-0.0059869,-0.00012524,-1246.4,1.9827
21289,18.564,0.18182,0,0.00012025,1201.6,4.1715e-05,24.406,3.8467e-05,0.00085811,-0.00011981,-1189.3,2.0278
21290,18.472,0.18182,0.05,4.6781e-08,0.46749,3.5919e-08,0.26991,1.0612e-11,8.9722e-05,-3.5926e-08,-0.2699,2.0128
21291,18.472,0.090909,0,0.00012123,1211.5,4.1345e-05,16.059,3.9207e-05,-0.006151,-0.00012095,-1203.4,2.0126
21292,18.748,0.18182,0,0.000116,1159.2,4.035e-05,24.84,3.7044e-05,0.00082822,-0.00011556,-1146.6,2.0578
21293,18.656,0.18182,0.05,4.9886e-08,0.49851,3.8304e-08,0.28782,7.5274e-12,0.0001004,-3.8309e-08,-0.28781,2.0428
21294,18.656,0.090909,0,0.00011696,1168.8,3.996e-05,16.345,3.7783e-05,-0.006327,-0.00011667,-1160.5,2.0426
21295,18.933,0.18182,0,0.00011178,1117,3.8992e-05,25.285,3.5627e-05,0.0007776,-0.00011133,-1104.2,2.0879
21296,18.841,0.18182,0.05,5.3619e-08,0.53582,4.117e-08,0.30936,5.9168e-12,6.9193e-05,-4.1175e-08,-0.30935,2.0728
21297,18.841,0.090909,0,0.00011271,1126.3,3.858e-05,16.637,3.6365e-05,-0.006518,-0.00011241,-1117.9,2.0727
21298,19.117,0.18182,0,0.00010757,1075,3.7641e-05,25.74,3.4216e-05,0.00071282,-0.00010711,-1061.9,2.1181
21299,19.025,0.18182,0.05,5.8014e-08,0.57974,4.4546e-08,0.33472,6.1891e-12,5.0362e-05,-4.4549e-08,-0.3347,2.103
21300,19.025,0.090909,0,0.00010847,1084,3.7208e-05,16.936,3.4953e-05,-0.0067099,-0.00010817,-1075.4,2.1028
21301,19.301,0.18182,0,0.00010338,1033.1,3.6297e-05,26.204,3.281e-05,0.00061585,-0.00010291,-1019.7,2.1483
21302,19.209,0.18182,0.05,6.3102e-08,0.63059,4.8454e-08,0.36408,5.0399e-12,6.0978e-05,-4.8455e-08,-0.36406,2.1332
21303,19.209,0.090909,0,0.00010425,1041.8,3.5841e-05,17.242,3.3546e-05,-0.0068916,-0.00010395,-1033.1,2.133
21304,19.485,0.18182,0,9.9209e-05,991.4,3.4959e-05,26.678,3.1409e-05,0.00046828,-9.8728e-05,-977.79,2.1787
21305,19.393,0.18182,0.05,6.8912e-08,0.68865,5.2915e-08,0.39761,4.5064e-12,5.5737e-05,-5.2916e-08,-0.39757,2.1635
21306,19.393,0.090909,0,0.00010005,999.85,3.4481e-05,17.555,3.2144e-05,-0.0070917,-9.9744e-05,-990.96,2.1633
21307,19.67,0.18182,0,9.5053e-05,949.88,3.3627e-05,27.16,3.0013e-05,0.00026765,-9.4562e-05,-936.01,2.209
21308,19.578,0.18182,0.05,7.5472e-08,0.7542,5.7952e-08,0.43545,4.1403e-12,5.2873e-05,-5.7953e-08,-0.43542,2.1938
21309,19.578,0.090909,0,9.5871e-05,958.05,3.3127e-05,17.874,3.0747e-05,-0.0073073,-9.5555e-05,-948.99,2.1937
21310,19.854,0.18182,0,9.0914e-05,908.52,3.2302e-05,27.649,2.8622e-05,9.9446e-06,-9.0412e-05,-894.38,2.2395
21311,19.762,0.18182,0.05,8.2807e-08,0.8275,6.3586e-08,0.47778,3.6075e-12,3.3349e-05,-6.3586e-08,-0.47774,2.2242
21312,19.762,0.090909,0,9.1705e-05,916.42,3.1779e-05,18.199,2.9356e-05,-0.0075249,-9.1382e-05,-907.19,2.2241
21313,20.038,0.18182,0,8.6792e-05,867.32,3.0982e-05,28.145,2.7236e-05,-0.0003121,-8.6279e-05,-852.9,2.27
21314,19.946,0.18182,0.05,9.0957e-08,0.90894,6.9843e-08,0.52479,1.8351e-12,3.1205e-05,-6.9844e-08,-0.52476,2.2547
21315,19.946,0.090909,0,8.7556e-05,874.95,3.0437e-05,18.53,2.797e-05,-0.0077449,-8.7226e-05,-865.55,2.2546
21316,20.223,0.18182,0,8.2685e-05,826.28,2.9667e-05,28.646,2.5855e-05,-0.00072382,-8.216e-05,-811.58,2.3006
21317,20.13,0.18182,0.05,9.9958e-08,0.99889,7.6756e-08,0.57673,1.1718e-12,2.3352e-05,-7.6755e-08,-0.57669,2.2853
21318,20.13,0.090909,0,8.3423e-05,833.65,2.9101e-05,18.865,2.6589e-05,-0.0079416,-8.3086e-05,-824.06,2.2851
21319,20.407,0.18182,0,7.8593e-05,785.39,2.8358e-05,29.15,2.4478e-05,-0.0012506,-7.8056e-05,-770.41,2.3312
21320,20.315,0.18182,0.05,1.0986e-07,1.0978,8.4358e-08,0.63385,2.3435e-12,2.9035e-05,-8.4357e-08,-0.63381,2.3158
21321,20.315,0.090909,0,7.9305e-05,792.51,2.777e-05,19.203,2.5213e-05,-0.0081504,-7.8961e-05,-782.74,2.3157
21322,20.591,0.18182,0,7.4516e-05,744.64,2.7054e-05,29.655,2.3107e-05,-0.0019114,-7.3967e-05,-729.38,2.3618
21323,20.499,0.18182,0.05,1.207e-07,1.2062,9.2687e-08,0.69642,2.5215e-12,2.8834e-05,-9.2685e-08,-0.69639,2.3465
21324,20.499,0.090909,0,7.5204e-05,751.52,2.6445e-05,19.545,2.3842e-05,-0.0083482,-7.4852e-05,-741.56,2.3463
21325,20.775,0.18182,0,7.0453e-05,704.05,2.5754e-05,30.159,2.1739e-05,-0.0027308,-6.9892e-05,-688.48,2.3925
21326,20.683,0.18182,0.05,1.3255e-07,1.3246,1.0178e-07,0.76477,2.2584e-12,3.7222e-05,-1.0178e-07,-0.76474,2.3772
21327,20.683,0.090909,0,7.1118e-05,710.69,2.5124e-05,19.887,2.2476e-05,-0.0085254,-7.0759e-05,-700.54,2.377
21328,20.96,0.18182,0,6.6404e-05,663.58,2.4458e-05,30.658,2.0377e-05,-0.0037386,-6.583e-05,-647.72,2.4233
21329,20.867,0.18182,0.05,1.4546e-07,1.4536,1.117e-07,0.83927,1.6085e-12,2.8467e-05,-1.117e-07,-0.83924,2.4079
21330,20.867,0.090909,0,6.7046e-05,670,2.3809e-05,20.23,2.1115e-05,-0.0086703,-6.668e-05,-659.66,2.4078
21331,21.144,0.18182,0,6.2368e-05,623.25,2.3165e-05,31.15,1.9019e-05,-0.0049842,-6.178e-05,-607.1,2.4541
21332,21.052,0.18182,0.05,1.5951e-07,1.594,1.2249e-07,0.92034,1.3989e-12,2.5828e-05,-1.2249e-07,-0.9203,2.4387
21333,21.052,0.090909,0,6.299e-05,629.47,2.2498e-05,20.57,1.9759e-05,-0.0087576,-6.2615e-05,-618.93,2.4386
21334,21.328,0.18182,0,5.8345e-05,583.05,2.1876e-05,31.63,1.7665e-05,-0.0065263,-5.7743e-05,-566.6,2.4849
21335,21.236,0.18182,0.05,1.7478e-07,1.7466,1.3421e-07,1.0084,1.3249e-12,2.7205e-05,-1.3421e-07,-1.0084,2.4695
21336,21.236,0.090909,0,5.8948e-05,589.08,2.1191e-05,20.907,1.8407e-05,-0.0087843,-5.8565e-05,-578.35,2.4694
21337,21.512,0.18182,0,5.4335e-05,542.97,2.0589e-05,32.094,1.6317e-05,-0.0084376,-5.3718e-05,-526.22,2.5158
21338,21.42,0.18182,0.05,1.9136e-07,1.9123,1.4694e-07,1.1041,3.4814e-13,1.4638e-05,-1.4694e-07,-1.104,2.5004
21339,21.42,0.090909,0,5.4921e-05,548.83,1.9889e-05,21.236,1.7061e-05,-0.0087182,-5.4529e-05,-537.91,2.5003
21340,21.697,0.18182,0,5.0336e-05,503.01,1.9304e-05,32.534,1.4972e-05,-0.010801,-4.9704e-05,-485.96,2.5467
21341,21.605,0.18182,0.05,2.0935e-07,2.092,1.6075e-07,1.2078,2.7365e-13,1.2522e-05,-1.6075e-07,-1.2078,2.5313
21342,21.605,0.090909,0,5.0908e-05,508.73,1.859e-05,21.555,1.572e-05,-0.0085291,-5.0507e-05,-497.62,2.5312
21343,21.881,0.18182,0,4.6349e-05,463.17,1.802e-05,32.945,1.3633e-05,-0.013723,-4.5701e-05,-445.82,2.5777
21344,21.789,0.18182,0.05,2.2885e-07,2.287,1.7573e-07,1.3204,5.4927e-13,1.7388e-05,-1.7573e-07,-1.3204,2.5622
21345,21.789,0.090909,0,4.691e-05,468.78,1.7295e-05,21.86,1.4384e-05,-0.0081427,-4.65e-05,-457.47,2.5621
21346,22.065,0.18182,0,4.2373e-05,423.44,1.6735e-05,33.318,1.2299e-05,-0.017369,-4.1708e-05,-405.8,2.6086
21347,21.973,0.18182,0.05,2.5002e-07,2.4985,1.9199e-07,1.4425,1.3424e-12,1.9944e-05,-1.9199e-07,-1.4425,2.5931
21348,21.973,0.090909,0,4.2927e-05,428.98,1.6003e-05,22.147,1.3054e-05,-0.0074886,-4.2508e-05,-417.48,2.5931
21349,22.249,0.18182,0,3.8409e-05,383.83,1.5451e-05,33.643,1.097e-05,-0.021949,-3.7726e-05,-365.91,2.6396
21350,22.157,0.18182,0.05,2.73e-07,2.7282,2.0963e-07,1.5751,4.7781e-13,1.4899e-05,-2.0963e-07,-1.5751,2.6241
21351,22.157,0.090909,0,3.8961e-05,389.34,1.4714e-05,22.409,1.173e-05,-0.0064589,-3.8531e-05,-377.65,2.624
21352,22.434,0.18182,0,3.4457e-05,344.33,1.4164e-05,33.907,9.6475e-06,-0.027731,-3.3755e-05,-326.14,2.6707
21353,22.342,0.18182,0.05,2.9799e-07,2.9778,2.2882e-07,1.7193,3.3486e-13,1.4145e-05,-2.2882e-07,-1.7192,2.6551
21354,22.342,0.090909,0,3.5011e-05,349.86,1.3427e-05,22.64,1.0413e-05,-0.0048914,-3.457e-05,-338,2.6551
21355,22.618,0.18182,0,3.0518e-05,304.97,1.2874e-05,34.098,8.3317e-06,-0.035141,-2.9795e-05,-286.51,2.7017
21356,22.526,0.18182,0.05,3.252e-07,3.2498,2.4971e-07,1.8763,1.2727e-12,2.1832e-05,-2.4971e-07,-1.8762,2.6862
21357,22.526,0.090909,0,3.108e-05,310.58,1.2143e-05,22.83,9.1044e-06,-0.0024911,-3.0628e-05,-298.54,2.6861
21358,22.802,0.18182,0,2.6595e-05,265.77,1.1581e-05,34.196,7.0239e-06,-0.044586,-2.5848e-05,-247.03,2.7328
21359,22.71,0.18182,0.05,3.5494e-07,3.5469,2.7255e-07,2.0478,4.9316e-13,1.1993e-05,-2.7255e-07,-2.0478,2.7172
21360,22.71,0.090909,0,2.717e-05,271.52,1.0861e-05,22.969,7.8045e-06,0.0010881,-2.6707e-05,-259.3,2.7171
21361,22.987,0.18182,0,2.2691e-05,226.75,1.0283e-05,34.182,5.7256e-06,-0.057449,-2.1915e-05,-207.74,2.7638
21362,22.894,0.18182,0.05,3.876e-07,3.8733,2.9763e-07,2.2363,-3.1422e-13,3.9789e-06,-2.9763e-07,-2.2363,2.7483
21363,22.894,0.090909,0,2.3287e-05,232.71,9.5814e-06,23.041,6.5158e-06,0.0069508,-2.2809e-05,-220.33,2.7482
21364,23.171,0.18182,0,1.8813e-05,188,8.979e-06,34.038,4.4392e-06,-0.072786,-1.8002e-05,-168.69,2.7949
21365,23.079,0.18182,0.05,4.2374e-07,4.2345,3.2538e-07,2.4448,1.1712e-12,1.5104e-05,-3.2538e-07,-2.4448,2.7794
21366,23.079,0.090909,0,1.9437e-05,194.23,8.3034e-06,23.024,5.2411e-06,0.015107,-1.8942e-05,-181.69,2.7793
21367,23.355,0.18182,0,1.4979e-05,149.69,7.6729e-06,33.755,3.167e-06,-0.10053,-1.4117e-05,-129.96,2.826
21368,23.263,0.18182,0.05,4.6433e-07,4.6401,3.5654e-07,2.6789,1.4975e-12,1.6502e-05,-3.5655e-07,-2.6789,2.8105
21369,23.263,0.090909,0,1.5631e-05,156.2,7.0277e-06,22.892,3.9854e-06,0.03379,-1.5115e-05,-143.48,2.8104
21370,23.539,0.18182,0,1.1231e-05,112.23,6.3775e-06,33.411,1.9154e-06,-0.11565,-1.0282e-05,-91.763,2.8571
21371,23.447,0.18182,0.05,5.1067e-07,5.1032,3.9213e-07,2.9463,-3.2885e-13,2.3494e-06,-3.9213e-07,-2.9463,2.8416
21372,23.447,0.090909,0,1.1888e-05,118.8,5.7551e-06,22.593,2.7545e-06,0.047339,-1.1341e-05,-105.86,2.8415
21373,23.724,0.18182,0,7.7513e-06,77.459,5.1981e-06,33.714,6.6968e-07,-0.31049,-6.6003e-06,-54.934,2.8883
21374,23.631,0.18182,0.05,5.6881e-07,5.6842,4.3678e-07,3.2818,8.7222e-14,5.8917e-06,-4.3677e-07,-3.2818,2.8727
21375,23.631,0.090909,0,8.2606e-06,82.549,4.4964e-06,22.154,1.5668e-06,0.14186,-7.658e-06,-69.169,2.8726
21376,23.816,0.18182,0.05,6.9316e-07,6.9268,5.3226e-07,3.9992,3.0128e-13,5.1835e-06,-5.3226e-07,-3.9992,2.9038
21377,23.816,0.090909,0,4.8953e-06,48.919,3.2909e-06,21.469,4.2373e-07,-0.073913,-4.1614e-06,-34.525,2.9037
21378,23.908,0.18182,0,4.8638e-06,48.604,4.1768e-06,34.945,-4.7884e-07,-0.036012,-3.2096e-06,-20.554,2.9194
21379,0.64,1.7273,0,0.0010424,10417,0.00050304,1830.1,0.00022937,-226.15,-0.00099974,-9461.2,0.0022273
21380,0.56,1.8182,0,0.0010609,10601,0.00042279,688.29,0.00028709,-331.33,-0.0010511,-10386,0.0019937
21381,0.64,1.8182,0.05,0.00011925,1191.7,9.1572e-05,688.04,1.5497e-10,0.0014835,-9.1572e-05,-688.04,0.0025424
21382,0.72,1.8182,0,0.0010387,10380,0.00056243,2495.5,0.00017238,-435.24,-0.00097209,-9034.3,0.0032462
21383,0.64,1.5455,0,0.0007093,7088.1,0.00034798,1372.7,0.00015772,-56.852,-0.00067601,-6321.2,0.0016105
21384,0.56,1.6364,0,0.0007362,7357,0.0003018,672.51,0.00020264,-72.552,-0.00072316,-7028.6,0.001483
21385,0.64,1.6364,0.05,5.7967e-05,579.27,4.4511e-05,334.44,1.0149e-11,0.00012235,-4.4511e-05,-334.44,0.0018685
21386,0.72,1.6364,0,0.00067804,6775.7,0.00030545,1068.8,0.00017921,120.3,-0.00065281,-6131.2,0.0023377
21387,0.64,1.3636,0,0.0004932,4928.6,0.00023484,852.56,0.00011343,-59.652,-0.00047333,-4468.4,0.0011381
21388,0.56,1.4545,0,0.00052196,5215.9,0.00021175,432.62,0.00014348,-80.327,-0.00051407,-5020.9,0.0010687
21389,0.64,1.4545,0.05,3.9438e-05,394.11,3.0284e-05,227.54,2.0718e-12,2.6085e-05,-3.0284e-05,-227.54,0.0013347
21390,0.72,1.4545,0,0.00048264,4823,0.00022129,749.74,0.0001191,-18.094,-0.00046558,-4411.1,0.0016556
21391,0.64,1.1818,0,0.00034795,3477.1,0.00016126,547.64,8.3241e-05,-38.59,-0.00033556,-3185.3,0.00078972
21392,0.56,1.2727,0,0.00037207,3718.1,0.00014841,277.81,0.00010396,-56.183,-0.00036717,-3596.1,0.00075139
21393,0.64,1.2727,0.05,2.8292e-05,282.72,2.1724e-05,163.23,-2.1992e-12,-1.9542e-05,-2.1724e-05,-163.23,0.00093419
21394,0.72,1.2727,0,0.00034323,3429.9,0.00014909,443.67,9.1583e-05,11.618,-0.00033343,-3181.8,0.0011537
21395,0.64,1,0,0.00024404,2438.8,0.00011005,343.34,6.0209e-05,-31.158,-0.00023657,-2261,0.00053983
21396,0.56,1.0909,0,0.00026318,2630,0.00010303,165.57,7.41e-05,-51.773,-0.00026057,-2566.3,0.00051821
21397,0.64,1.0909,0.05,2.0296e-05,202.82,1.5584e-05,117.1,-2.4725e-12,-3.2981e-05,-1.5584e-05,-117.1,0.00064282
21398,0.72,1.0909,0,0.00024415,2439.8,0.00010259,269.48,6.7079e-05,2.6405,-0.00023842,-2292.8,0.00079257
21399,0.64,0.81818,0,0.00016908,1689.6,7.448e-05,214.34,4.2751e-05,-24.058,-0.00016458,-1581.8,0.0003649
21400,0.56,0.90909,0,0.00018404,1839.2,7.1055e-05,98.148,5.1924e-05,-45.593,-0.00018273,-1808.7,0.00035211
21401,0.64,0.90909,0.05,1.4708e-05,146.98,1.1294e-05,84.86,-4.4534e-12,-2.4514e-06,-1.1294e-05,-84.86,0.00043654
21402,0.72,0.90909,0,0.0001717,1715.8,6.9668e-05,159.81,4.885e-05,3.3867,-0.00016838,-1628.8,0.0005382
21403,0.64,0.63636,0,0.00011462,1145.4,4.9665e-05,133.3,2.9356e-05,-19.293,-0.00011191,-1080.7,0.00024472
21404,0.56,0.72727,0,0.00012651,1264.2,4.8565e-05,59.258,3.5411e-05,-39.579,-0.00012589,-1251.5,0.00023672
21405,0.64,0.72727,0.05,1.0656e-05,106.49,8.1825e-06,61.48,-1.991e-12,-1.6944e-05,-8.1825e-06,-61.48,0.0002937
21406,0.72,0.72727,0,0.00011823,1181.5,4.6584e-05,92.815,3.4503e-05,2.0412,-0.00011636,-1131.4,0.00036251
21407,0.64,0.45455,0,7.4854e-05,748.03,3.2285e-05,83.332,1.9089e-05,-15.819,-7.3211e-05,-709.33,0.00016253
21408,0.56,0.54545,0,8.5031e-05,849.73,3.2821e-05,39.127,2.341e-05,-31.587,-8.4682e-05,-843.75,0.0001576
21409,0.64,0.54545,0.05,7.7447e-06,77.394,5.947e-06,44.683,1.9384e-14,2.7138e-06,-5.947e-06,-44.683,0.00019607
21410,0.72,0.54545,0,7.8553e-05,784.99,3.0188e-05,52.325,2.3401e-05,1.3267,-7.7516e-05,-756.92,0.00024282
21411,0.64,0.27273,0,4.6055e-05,460.23,2.0493e-05,55.861,1.1005e-05,-15.426,-4.4951e-05,-435.86,0.00010447
21412,0.56,0.36364,0,5.5534e-05,554.95,2.1944e-05,31.037,1.4893e-05,-21.939,-5.5189e-05,-548.51,0.00010242
21413,0.64,0.36364,0.05,5.7047e-06,57.008,4.3805e-06,32.914,3.6472e-13,-6.9815e-15,-4.3805e-06,-32.914,0.00012856
21414,0.72,0.36364,0,4.8647e-05,486.13,1.827e-05,27.293,1.4762e-05,0.93954,-4.8113e-05,-471.48,0.00016096
21415,0.56,0.18182,0,3.731e-05,372.85,1.631e-05,41.395,9.0899e-06,-12.852,-3.6527e-05,-355.6,6.055e-05
21416,0.64,0.18182,0.05,4.747e-06,47.437,3.6451e-06,27.388,4.0488e-13,4.4634e-06,-3.6451e-06,-27.388,7.8421e-05
21417,0.64,0.090909,0,2.4683e-05,246.66,1.0022e-05,19.164,6.644e-06,-6.22,-2.4365e-05,-239.21,5.8904e-05
21418,0.72,0.18182,0,2.5734e-05,257.16,1.0091e-05,16.895,7.2818e-06,-4.2113,-2.5453e-05,-250.17,0.00010224
21419,0.48,1.7273,0,0.00078686,7863.2,0.0003015,131.48,0.00019857,-641.93,-0.00079269,-8089.8,0.0012791
21420,0.4,1.8182,0,0.00081777,8172.1,0.00033488,-50.875,0.00014742,-1459.4,-0.0008343,-8835.6,0.001021
21421,0.48,1.8182,0.05,4.723e-05,471.97,3.6267e-05,272.49,1.0283e-10,0.0012017,-3.6267e-05,-272.49,0.0014242
21422,0.48,1.5455,0,0.00057564,5752.5,0.00021592,110.81,0.0001551,-346.15,-0.00057828,-5856.5,0.00094437
21423,0.4,1.6364,0,0.00060993,6095.1,0.00024216,-44.4,0.00012393,-932.74,-0.00062167,-6534.9,0.00077344
21424,0.48,1.6364,0.05,3.3558e-05,335.35,2.5768e-05,193.61,4.6315e-11,0.00052994,-2.5768e-05,-193.61,0.0010707
21425,0.48,1.3636,0,0.00041711,4168.2,0.00015609,89.086,0.00011388,-228.04,-0.00041856,-4228.6,0.00067576
21426,0.4,1.4545,0,0.00044727,4469.6,0.00017574,-25.685,9.5028e-05,-632.16,-0.00045537,-4767.6,0.00056532
21427,0.48,1.4545,0.05,2.5387e-05,253.69,1.9494e-05,146.47,1.6898e-11,0.00031443,-1.9494e-05,-146.47,0.00077795
21428,0.48,1.1818,0,0.00029829,2980.9,0.00011227,61.779,8.0098e-05,-179.94,-0.00029957,-3032.6,0.00047157
21429,0.4,1.2727,0,0.00032266,3224.4,0.00012713,-16.643,6.8088e-05,-460.23,-0.00032847,-3439.8,0.00040057
21430,0.48,1.2727,0.05,1.8283e-05,182.71,1.4039e-05,105.49,5.1249e-12,8.4836e-05,-1.4039e-05,-105.49,0.00054921
21431,0.48,1,0,0.00021065,2105.1,8.0127e-05,41.327,5.482e-05,-148.82,-0.00021183,-2152.4,0.00032275
21432,0.4,1.0909,0,0.00022935,2291.9,9.1254e-05,-10.53,4.6838e-05,-344.26,-0.00023355,-2451,0.00027683
21433,0.48,1.0909,0.05,1.3649e-05,136.4,1.0481e-05,78.75,-9.742e-13,3.9015e-05,-1.0481e-05,-78.749,0.00037905
21434,0.48,0.81818,0,0.00014665,1465.5,5.6386e-05,27.567,3.6948e-05,-118.49,-0.00014765,-1505.5,0.00021779
21435,0.4,0.90909,0,0.00016052,1604.1,6.4589e-05,-6.4399,3.1499e-05,-255.06,-0.00016352,-1720.3,0.00018779
21436,0.48,0.90909,0.05,1.0034e-05,100.27,7.7048e-06,57.891,-1.8357e-12,-4.7412e-06,-7.7048e-06,-57.891,0.00025724
21437,0.48,0.63636,0,0.00010054,1004.7,3.8944e-05,19.353,2.4852e-05,-86.532,-0.00010127,-1034.1,0.00014539
21438,0.4,0.72727,0,0.00011066,1105.8,4.4873e-05,-3.476,2.114e-05,-181.79,-0.00011272,-1187.6,0.00012572
21439,0.48,0.72727,0.05,7.4026e-06,73.975,5.6843e-06,42.709,-1.7884e-12,1.7313e-06,-5.6843e-06,-42.709,0.00017248
21440,0.48,0.45455,0,6.822e-05,681.73,2.6316e-05,15.657,1.7304e-05,-52.054,-6.8587e-05,-697.4,9.5352e-05
21441,0.4,0.54545,0,7.5619e-05,755.67,3.0396e-05,-0.71637,1.5128e-05,-115.44,-7.6938e-05,-807.18,8.2998e-05
21442,0.48,0.54545,0.05,5.4963e-06,54.925,4.2205e-06,31.711,5.759e-13,2.6661e-06,-4.2205e-06,-31.711,0.00011423
21443,0.48,0.27273,0,4.7931e-05,478.98,1.855e-05,22.502,1.315e-05,-18.072,-4.7727e-05,-475.48,5.8576e-05
21444,0.4,0.36364,0,5.2622e-05,525.86,2.0142e-05,4.451,1.2901e-05,-49.958,-5.3185e-05,-546.5,5.2508e-05
21445,0.48,0.36364,0.05,4.0721e-06,40.693,3.1269e-06,23.494,9.076e-13,8.7402e-06,-3.1269e-06,-23.494,7.2996e-05
21446,0.4,0.18182,0,4.1704e-05,416.75,1.7439e-05,41.024,1.1131e-05,-6.3768,-4.0912e-05,-397.4,2.7651e-05
21447,0.48,0.18182,0.05,3.1193e-06,31.171,2.3952e-06,17.997,1.0551e-12,1.1724e-05,-2.3952e-06,-17.997,4.0045e-05
21448,0.48,0.090909,0,3.4821e-05,347.97,1.3271e-05,21.613,1.0419e-05,0.17967,-3.44e-05,-336.57,2.7269e-05
21449,0.32,1.7273,0,0.00065392,6534.7,0.00027827,-206.2,8.0162e-05,-1694.7,-0.00067341,-7356.7,0.00057462
21450,0.24,1.8182,0,0.00073158,7310.7,0.00036341,355,4.0767e-05,-2069.2,-0.00072993,-7859.9,0.00037351
21451,0.32,1.8182,0.05,3.2198e-05,321.75,2.4724e-05,185.76,8.3446e-11,0.0010682,-2.4724e-05,-185.76,0.00061345
21452,0.32,1.5455,0,0.00049476,4944.2,0.00020595,-151.11,7.0425e-05,-1169.4,-0.00050929,-5525.1,0.00042978
21453,0.24,1.6364,0,0.00055886,5584.7,0.00027444,271.42,3.8254e-05,-1503.2,-0.00055823,-5985,0.00028561
21454,0.32,1.6364,0.05,2.638e-05,263.62,2.0257e-05,152.2,6.1631e-11,0.00067504,-2.0257e-05,-152.2,0.00046758
21455,0.32,1.3636,0,0.00036396,3637,0.00015025,-105.42,5.4896e-05,-821.84,-0.0003744,-4047.4,0.00031019
21456,0.24,1.4545,0,0.00041365,4133.6,0.00020219,203.36,3.0668e-05,-1085.4,-0.00041329,-4421.1,0.00021044
21457,0.32,1.4545,0.05,2.0982e-05,209.68,1.6112e-05,121.06,2.7781e-11,0.00029851,-1.6112e-05,-121.06,0.00034336
21458,0.32,1.1818,0,0.00026188,2617,0.00010824,-72.951,3.9531e-05,-589.21,-0.0002693,-2909.6,0.00021711
21459,0.24,1.2727,0,0.00029813,2979.3,0.00014565,144.08,2.1995e-05,-785.05,-0.00029796,-3189.1,0.00014958
21460,0.32,1.2727,0.05,1.6049e-05,160.38,1.2324e-05,92.598,8.6743e-12,0.00015068,-1.2324e-05,-92.597,0.00024364
21461,0.32,1,0,0.00018504,1849.2,7.6988e-05,-48.742,2.7211e-05,-422.75,-0.0001902,-2056.3,0.00014835
21462,0.24,1.0909,0,0.00021034,2101.9,0.00010289,98.618,1.4912e-05,-562.37,-0.00021028,-2254.4,0.00010318
21463,0.32,1.0909,0.05,1.1963e-05,119.54,9.1859e-06,69.019,-1.4656e-12,3.96e-05,-9.1859e-06,-69.019,0.0001681
21464,0.32,0.81818,0,0.00012857,1284.8,5.3844e-05,-31.711,1.8421e-05,-297.86,-0.00013209,-1428.7,9.9658e-05
21465,0.24,0.90909,0,0.00014558,1454.8,7.1332e-05,65.775,9.775e-06,-396.74,-0.00014558,-1564,6.9621e-05
21466,0.32,0.90909,0.05,8.8588e-06,88.527,6.8024e-06,51.111,-1.4784e-12,2.4931e-06,-6.8024e-06,-51.111,0.0001136
21467,0.32,0.63636,0,8.8378e-05,883.17,3.6821e-05,-19.815,1.3247e-05,-196.94,-9.0722e-05,-978.12,6.6078e-05
21468,0.24,0.72727,0,9.9226e-05,991.57,4.8541e-05,43.36,6.676e-06,-271.2,-9.9284e-05,-1067.3,4.6282e-05
21469,0.32,0.72727,0.05,6.5284e-06,65.239,5.013e-06,37.666,-2.4439e-12,-2.1571e-05,-5.013e-06,-37.666,7.5685e-05
21470,0.32,0.45455,0,6.142e-05,613.77,2.4462e-05,-10.12,1.1775e-05,-105.44,-6.2828e-05,-665.98,4.2671e-05
21471,0.24,0.54545,0,6.7095e-05,670.48,3.2165e-05,28.515,5.8684e-06,-169.07,-6.7264e-05,-718.56,3.0256e-05
21472,0.32,0.54545,0.05,4.8826e-06,48.793,3.7492e-06,28.17,-1.3389e-12,-4.2571e-06,-3.7492e-06,-28.17,4.9607e-05
21473,0.32,0.27273,0,4.6504e-05,464.72,1.711e-05,8.5351,1.3087e-05,-21.691,-4.6654e-05,-470.56,2.4581e-05
21474,0.24,0.36364,0,4.6092e-05,460.6,2.0148e-05,18.821,7.9942e-06,-72.502,-4.6321e-05,-480.61,1.8541e-05
21475,0.32,0.36364,0.05,3.7422e-06,37.396,2.8735e-06,21.591,-5.6109e-13,-7.9371e-07,-2.8735e-06,-21.591,3.0625e-05
21476,0.24,0.18182,0,3.6276e-05,362.51,1.5531e-05,42.041,9.6284e-06,-2.3063,-3.5396e-05,-340.6,8.1245e-06
21477,0.32,0.18182,0.05,2.3536e-06,23.52,1.8073e-06,13.579,1.0279e-12,6.7203e-06,-1.8073e-06,-13.579,1.3749e-05
21478,0.32,0.090909,0,3.7413e-05,373.87,1.5361e-05,38.445,1.0664e-05,3.1466,-3.658e-05,-351.83,8.3007e-06
21479,0.16,1.7273,0,0.00065407,6536.2,0.00036001,835.78,1.3454e-05,-1768.1,-0.00062977,-6601,0.00015458
21480,0.16,1.8182,0.05,3e-05,299.8,2.3037e-05,173.09,7.1355e-11,0.00086465,-2.3037e-05,-173.09,0.00013763
21481,0.08,1.8182,0,0.00054514,5447.6,0.00020435,-1319.2,4.0036e-06,-2824.5,-0.00059979,-7361.2,5.6612e-05
21482,0.16,1.5455,0,0.00049467,4943.3,0.00027128,630.39,1.2351e-05,-1315.1,-0.0004767,-4989.6,0.00011634
21483,0.16,1.6364,0.05,2.5661e-05,256.43,1.9704e-05,148.05,4.7908e-11,0.00047669,-1.9704e-05,-148.05,0.00010543
21484,0.08,1.6364,0,0.00041804,4177.5,0.0001562,-1011.8,4.1316e-06,-2154.4,-0.00046001,-5641.8,4.3446e-05
21485,0.16,1.3636,0,0.0003622,3619.5,0.00019818,457.24,9.6291e-06,-959.48,-0.0003493,-3656.4,8.4214e-05
21486,0.16,1.4545,0.05,2.0652e-05,206.38,1.5858e-05,119.15,2.2012e-11,0.00021735,-1.5858e-05,-119.15,7.7684e-05
21487,0.08,1.4545,0,0.00030933,3091.1,0.00011558,-746.95,3.2405e-06,-1591,-0.00034032,-4172.4,3.2098e-05
21488,0.16,1.1818,0,0.00025769,2575.1,0.00014077,319.21,6.683e-06,-688.29,-0.00024872,-2607.3,5.88e-05
21489,0.16,1.2727,0.05,1.6089e-05,160.78,1.2354e-05,92.824,4.3857e-12,9.8422e-05,-1.2354e-05,-92.824,5.4974e-05
21490,0.08,1.2727,0,0.00022119,2210.4,8.3035e-05,-528.52,2.089e-06,-1136.7,-0.00024315,-2979.3,2.2771e-05
21491,0.16,1,0,0.00017889,1787.7,9.7577e-05,215.75,4.3246e-06,-484.91,-0.00017285,-1816.1,3.9912e-05
21492,0.16,1.0909,0.05,1.2172e-05,121.63,9.3464e-06,70.225,-3.5425e-12,-8.8729e-06,-9.3464e-06,-70.225,3.7595e-05
21493,0.08,1.0909,0,0.0001536,1535,5.8092e-05,-360.98,1.1796e-06,-788.6,-0.00016862,-2064.4,1.5602e-05
21494,0.16,0.81818,0,0.00012178,1217,6.6281e-05,142.74,2.8138e-06,-334.13,-0.00011781,-1240.5,2.6578e-05
21495,0.16,0.90909,0.05,8.9546e-06,89.484,6.876e-06,51.664,-3.2968e-12,-2.4001e-05,-6.876e-06,-51.664,2.5091e-05
21496,0.08,0.90909,0,0.00010431,1042.3,3.9765e-05,-240.46,6.22e-07,-534.56,-0.00011433,-1398.2,1.0424e-05
21497,0.16,0.63636,0,8.1589e-05,815.33,4.4078e-05,93.135,2.3792e-06,-220.17,-7.91e-05,-832.38,1.7463e-05
21498,0.16,0.72727,0.05,6.4844e-06,64.8,4.9792e-06,37.412,-4.7306e-12,-2.081e-05,-4.9792e-06,-37.412,1.6506e-05
21499,0.08,0.72727,0,6.9721e-05,696.72,2.6732e-05,-157.72,4.1046e-07,-355.49,-7.6312e-05,-931.95,6.8598e-06
21500,0.16,0.45455,0,5.3713e-05,536.76,2.8011e-05,58.652,3.6028e-06,-124.74,-5.2432e-05,-545.77,1.1104e-05
21501,0.16,0.54545,0.05,4.797e-06,47.937,3.6835e-06,27.676,-3.6319e-12,-2.4667e-05,-3.6835e-06,-27.676,1.0693e-05
21502,0.08,0.54545,0,4.5919e-05,458.88,1.7515e-05,-101.63,7.0698e-07,-227.91,-5.0202e-05,-610.42,4.4426e-06
21503,0.16,0.27273,0,3.5706e-05,356.81,1.5214e-05,27.116,8.2144e-06,-25.478,-3.5386e-05,-353.07,5.8711e-06
21504,0.16,0.36364,0.05,4.0071e-06,40.044,3.077e-06,23.119,-2.6519e-12,-1.6718e-05,-3.077e-06,-23.119,6.3437e-06
21505,0.08,0.36364,0,2.9229e-05,292.09,1.0669e-05,-58.542,2.089e-06,-123.01,-3.1778e-05,-377.48,2.6624e-06
21506,0.16,0.18182,0.05,3.6714e-06,36.688,2.8192e-06,21.182,-2.0324e-12,-4.7427e-06,-2.8192e-06,-21.182,1.6724e-06
21507,0.16,0.090909,0,2.6703e-05,266.85,1.2852e-05,44.96,5.7491e-06,-8.4101,-2.5678e-05,-244.54,2.7065e-06
21508,0.08,0.18182,0,1.8773e-05,187.6,8.0714e-06,16.226,4.3763e-06,-11.536,-1.8539e-05,-183.71,1.0927e-06
21509,0.16,0.27273,0.1,3.5706e-05,356.81,3.5386e-05,353.07,-8.2144e-06,25.478,-1.5214e-05,-27.116,5.8711e-06
21510,0.24,0.18182,0.1,3.6276e-05,362.51,3.5396e-05,340.6,-9.6284e-06,2.3063,-1.5531e-05,-42.041,8.1245e-06
21511,0.08,0.18182,0.1,1.8773e-05,187.6,1.8539e-05,183.71,-4.3763e-06,11.536,-8.0714e-06,-16.226,1.0927e-06
21512,0.16,0.090909,0.1,2.6703e-05,266.85,2.5678e-05,244.54,-5.7491e-06,8.4101,-1.2852e-05,-44.96,2.7065e-06
21513,0.16,0.45455,0.1,5.3713e-05,536.76,5.2432e-05,545.77,-3.6028e-06,124.74,-2.8011e-05,-58.652,1.1104e-05
21514,0.24,0.36364,0.1,4.6092e-05,460.61,4.6321e-05,480.61,-7.9942e-06,72.502,-2.0148e-05,-18.821,1.8541e-05
21515,0.08,0.36364,0.1,2.9229e-05,292.09,3.1778e-05,377.48,-2.089e-06,123.01,-1.0669e-05,58.542,2.6624e-06
21516,0.16,0.63636,0.1,8.1589e-05,815.33,7.91e-05,832.38,-2.3792e-06,220.17,-4.4078e-05,-93.135,1.7463e-05
21517,0.24,0.54545,0.1,6.7095e-05,670.48,6.7264e-05,718.56,-5.8684e-06,169.07,-3.2165e-05,-28.515,3.0256e-05
21518,0.08,0.54545,0.1,4.5919e-05,458.88,5.0202e-05,610.42,-7.0698e-07,227.91,-1.7515e-05,101.63,4.4426e-06
21519,0.16,0.81818,0.1,0.00012178,1217,0.00011781,1240.5,-2.8138e-06,334.13,-6.6281e-05,-142.74,2.6578e-05
21520,0.24,0.72727,0.1,9.9226e-05,991.57,9.9284e-05,1067.3,-6.676e-06,271.2,-4.8541e-05,-43.36,4.6282e-05
21521,0.08,0.72727,0.1,6.9721e-05,696.72,7.6312e-05,931.95,-4.1047e-07,355.49,-2.6732e-05,157.72,6.8598e-06
21522,0.16,1,0.1,0.00017889,1787.7,0.00017285,1816.1,-4.3246e-06,484.91,-9.7577e-05,-215.75,3.9912e-05
21523,0.24,0.90909,0.1,0.00014558,1454.8,0.00014558,1564,-9.775e-06,396.74,-7.1332e-05,-65.775,6.9621e-05
21524,0.08,0.90909,0.1,0.00010431,1042.3,0.00011433,1398.2,-6.2201e-07,534.56,-3.9765e-05,240.46,1.0424e-05
21525,0.16,1.1818,0.1,0.00025769,2575.1,0.00024872,2607.3,-6.683e-06,688.29,-0.00014077,-319.21,5.88e-05
21526,0.24,1.0909,0.1,0.00021034,2101.9,0.00021028,2254.4,-1.4912e-05,562.37,-0.00010289,-98.618,0.00010318
21527,0.08,1.0909,0.1,0.0001536,1535,0.00016862,2064.4,-1.1796e-06,788.6,-5.8092e-05,360.98,1.5602e-05
21528,0.16,1.3636,0.1,0.0003622,3619.5,0.0003493,3656.4,-9.6291e-06,959.48,-0.00019818,-457.24,8.4214e-05
21529,0.24,1.2727,0.1,0.00029813,2979.3,0.00029796,3189.1,-2.1995e-05,785.05,-0.00014565,-144.08,0.00014958
21530,0.08,1.2727,0.1,0.00022119,2210.4,0.00024315,2979.3,-2.089e-06,1136.7,-8.3035e-05,528.52,2.2771e-05
21531,0.16,1.5455,0.1,0.00049467,4943.3,0.0004767,4989.6,-1.2351e-05,1315.1,-0.00027128,-630.39,0.00011634
21532,0.24,1.4545,0.1,0.00041365,4133.6,0.00041329,4421.1,-3.0668e-05,1085.4,-0.00020219,-203.36,0.00021044
21533,0.08,1.4545,0.1,0.00030933,3091.1,0.00034032,4172.4,-3.2405e-06,1591,-0.00011558,746.95,3.2098e-05
21534,0.16,1.7273,0.1,0.00065407,6536.2,0.00062977,6601,-1.3454e-05,1768.1,-0.00036001,-835.78,0.00015458
21535,0.24,1.6364,0.1,0.00055886,5584.7,0.00055824,5985,-3.8254e-05,1503.2,-0.00027444,-271.42,0.00028561
21536,0.08,1.6364,0.1,0.00041804,4177.5,0.00046001,5641.8,-4.1316e-06,2154.4,-0.0001562,1011.8,4.3446e-05
21537,0.24,1.8182,0.1,0.00073158,7310.8,0.00072993,7859.9,-4.0767e-05,2069.2,-0.00036341,-355,0.00037351
21538,0.16,1.9091,0.1,0.00083561,8350.3,0.00080372,8433.8,-1.3545e-05,2293.3,-0.00046175,-1074.4,0.00019852
21539,0.08,1.8182,0.1,0.00054514,5447.6,0.00059979,7361.2,-4.0036e-06,2824.5,-0.00020435,1319.2,5.6612e-05
21540,0.32,0.27273,0.1,4.6504e-05,464.72,4.6654e-05,470.56,-1.3087e-05,21.691,-1.711e-05,-8.5351,2.4581e-05
21541,0.4,0.18182,0.1,4.1704e-05,416.75,4.0912e-05,397.4,-1.1131e-05,6.3768,-1.7439e-05,-41.024,2.7651e-05
21542,0.32,0.090909,0.1,3.7413e-05,373.87,3.658e-05,351.83,-1.0664e-05,-3.1466,-1.5361e-05,-38.445,8.3007e-06
21543,0.32,0.45455,0.1,6.142e-05,613.77,6.2828e-05,665.98,-1.1775e-05,105.44,-2.4462e-05,10.12,4.2671e-05
21544,0.4,0.36364,0.1,5.2622e-05,525.86,5.3185e-05,546.5,-1.2901e-05,49.958,-2.0142e-05,-4.451,5.2508e-05
21545,0.32,0.63636,0.1,8.8378e-05,883.17,9.0722e-05,978.12,-1.3247e-05,196.94,-3.6821e-05,19.815,6.6078e-05
21546,0.4,0.54545,0.1,7.5619e-05,755.67,7.6938e-05,807.18,-1.5128e-05,115.44,-3.0396e-05,0.71637,8.2998e-05
21547,0.32,0.81818,0.1,0.00012857,1284.8,0.00013209,1428.7,-1.8421e-05,297.86,-5.3844e-05,31.711,9.9658e-05
21548,0.4,0.72727,0.1,0.00011066,1105.8,0.00011272,1187.6,-2.114e-05,181.79,-4.4873e-05,3.476,0.00012572
21549,0.32,1,0.1,0.00018504,1849.2,0.0001902,2056.3,-2.7211e-05,422.75,-7.6988e-05,48.742,0.00014835
21550,0.4,0.90909,0.1,0.00016052,1604.1,0.00016352,1720.3,-3.1499e-05,255.06,-6.4589e-05,6.4399,0.00018779
21551,0.32,1.1818,0.1,0.00026188,2617,0.0002693,2909.6,-3.9531e-05,589.21,-0.00010824,72.951,0.00021711
21552,0.4,1.0909,0.1,0.00022935,2291.9,0.00023355,2451,-4.6838e-05,344.26,-9.1254e-05,10.53,0.00027683
21553,0.32,1.3636,0.1,0.00036396,3637,0.0003744,4047.4,-5.4896e-05,821.84,-0.00015025,105.42,0.00031019
21554,0.4,1.2727,0.1,0.00032266,3224.4,0.00032847,3439.8,-6.8088e-05,460.23,-0.00012713,16.643,0.00040057
21555,0.32,1.5455,0.1,0.00049476,4944.2,0.00050929,5525.1,-7.0425e-05,1169.4,-0.00020595,151.11,0.00042978
21556,0.4,1.4545,0.1,0.00044727,4469.6,0.00045537,4767.6,-9.5028e-05,632.16,-0.00017574,25.685,0.00056532
21557,0.32,1.7273,0.1,0.00065392,6534.7,0.00067341,7356.7,-8.0162e-05,1694.7,-0.00027827,206.2,0.00057462
21558,0.4,1.6364,0.1,0.00060993,6095.1,0.00062167,6534.9,-0.00012393,932.74,-0.00024216,44.4,0.00077344
21559,0.4,1.8182,0.1,0.00081777,8172.1,0.0008343,8835.6,-0.00014742,1459.4,-0.00033488,50.875,0.001021
21560,0.32,1.9091,0.1,0.00083274,8321.7,0.0008576,9439.7,-8.4182e-05,2363.5,-0.00036258,271.73,0.00074069
21561,0.48,0.27273,0.1,4.7931e-05,478.98,4.7727e-05,475.48,-1.315e-05,18.072,-1.855e-05,-22.502,5.8576e-05
21562,0.56,0.18182,0.1,3.731e-05,372.85,3.6527e-05,355.6,-9.0899e-06,12.852,-1.631e-05,-41.395,6.055e-05
21563,0.48,0.090909,0.1,3.4821e-05,347.97,3.44e-05,336.57,-1.0419e-05,-0.17967,-1.3271e-05,-21.613,2.7269e-05
21564,0.48,0.45455,0.1,6.822e-05,681.73,6.8587e-05,697.4,-1.7304e-05,52.054,-2.6316e-05,-15.657,9.5352e-05
21565,0.56,0.36364,0.1,5.5534e-05,554.95,5.5189e-05,548.51,-1.4893e-05,21.939,-2.1944e-05,-31.037,0.00010242
21566,0.48,0.63636,0.1,0.00010054,1004.7,0.00010127,1034.1,-2.4852e-05,86.532,-3.8944e-05,-19.353,0.00014539
21567,0.56,0.54545,0.1,8.5031e-05,849.73,8.4682e-05,843.75,-2.341e-05,31.587,-3.2821e-05,-39.127,0.0001576
21568,0.48,0.81818,0.1,0.00014665,1465.5,0.00014765,1505.5,-3.6948e-05,118.49,-5.6386e-05,-27.567,0.00021779
21569,0.56,0.72727,0.1,0.00012651,1264.2,0.00012589,1251.5,-3.5411e-05,39.579,-4.8565e-05,-59.258,0.00023672
21570,0.48,1,0.1,0.00021065,2105.1,0.00021183,2152.4,-5.482e-05,148.82,-8.0127e-05,-41.327,0.00032275
21571,0.56,0.90909,0.1,0.00018404,1839.2,0.00018273,1808.7,-5.1924e-05,45.593,-7.1055e-05,-98.148,0.00035211
21572,0.48,1.1818,0.1,0.00029829,2980.9,0.00029957,3032.6,-8.0098e-05,179.94,-0.00011227,-61.779,0.00047157
21573,0.56,1.0909,0.1,0.00026318,2630,0.00026057,2566.3,-7.41e-05,51.773,-0.00010303,-165.57,0.00051821
21574,0.48,1.3636,0.1,0.00041711,4168.2,0.00041856,4228.6,-0.00011388,228.04,-0.00015609,-89.086,0.00067576
21575,0.56,1.2727,0.1,0.00037207,3718.1,0.00036717,3596.1,-0.00010396,56.183,-0.00014841,-277.8,0.00075139
21576,0.48,1.5455,0.1,0.00057564,5752.5,0.00057828,5856.5,-0.0001551,346.15,-0.00021592,-110.81,0.00094437
21577,0.56,1.4545,0.1,0.00052196,5216,0.00051407,5020.9,-0.00014348,80.327,-0.00021175,-432.62,0.0010687
21578,0.48,1.7273,0.1,0.00078686,7863.2,0.00079269,8089.8,-0.00019857,641.93,-0.0003015,-131.48,0.0012791
21579,0.56,1.6364,0.1,0.0007362,7357,0.00072316,7028.6,-0.00020264,72.552,-0.0003018,-672.51,0.001483
21580,0.56,1.8182,0.1,0.0010609,10601,0.0010511,10386,-0.00028709,331.33,-0.00042279,-688.29,0.0019937
21581,0.48,1.9091,0.1,0.001022,10213,0.0010335,10714,-0.00021398,1341.3,-0.0004151,-169.81,0.0016692
21582,0.64,0.27273,0.1,4.6055e-05,460.23,4.4951e-05,435.86,-1.1005e-05,15.426,-2.0493e-05,-55.861,0.00010447
21583,0.72,0.18182,0.1,2.5734e-05,257.16,2.5453e-05,250.17,-7.2818e-06,4.2113,-1.0091e-05,-16.895,0.00010224
21584,0.64,0.090909,0.1,2.4683e-05,246.66,2.4365e-05,239.21,-6.644e-06,6.22,-1.0022e-05,-19.164,5.8904e-05
21585,0.64,0.45455,0.1,7.4854e-05,748.03,7.3211e-05,709.33,-1.9089e-05,15.819,-3.2285e-05,-83.332,0.00016253
21586,0.72,0.36364,0.1,4.8647e-05,486.13,4.8113e-05,471.48,-1.4762e-05,-0.93954,-1.827e-05,-27.293,0.00016096
21587,0.64,0.63636,0.1,0.00011462,1145.4,0.00011191,1080.7,-2.9356e-05,19.293,-4.9665e-05,-133.3,0.00024472
21588,0.72,0.54545,0.1,7.8553e-05,784.99,7.7516e-05,756.92,-2.3401e-05,-1.3267,-3.0188e-05,-52.325,0.00024282
21589,0.64,0.81818,0.1,0.00016908,1689.6,0.00016458,1581.8,-4.2751e-05,24.058,-7.448e-05,-214.34,0.0003649
21590,0.72,0.72727,0.1,0.00011823,1181.5,0.00011636,1131.4,-3.4503e-05,-2.0412,-4.6584e-05,-92.815,0.00036251
21591,0.64,1,0.1,0.00024404,2438.8,0.00023657,2261,-6.0209e-05,31.158,-0.00011005,-343.34,0.00053983
21592,0.72,0.90909,0.1,0.0001717,1715.8,0.00016838,1628.8,-4.885e-05,-3.3867,-6.9668e-05,-159.81,0.0005382
21593,0.64,1.1818,0.1,0.00034795,3477.1,0.00033556,3185.3,-8.3241e-05,38.59,-0.00016126,-547.64,0.00078972
21594,0.72,1.0909,0.1,0.00024415,2439.8,0.00023842,2292.8,-6.7079e-05,-2.6405,-0.00010259,-269.48,0.00079257
21595,0.64,1.3636,0.1,0.0004932,4928.6,0.00047333,4468.4,-0.00011343,59.652,-0.00023484,-852.56,0.0011381
21596,0.72,1.2727,0.1,0.00034323,3429.9,0.00033343,3181.8,-9.1583e-05,-11.618,-0.00014909,-443.67,0.0011537
21597,0.64,1.5455,0.1,0.0007093,7088.1,0.00067601,6321.2,-0.00015772,56.852,-0.00034798,-1372.7,0.0016105
21598,0.72,1.4545,0.1,0.00048264,4823,0.00046558,4411.1,-0.0001191,18.094,-0.00022129,-749.74,0.0016556
21599,0.64,1.7273,0.1,0.0010424,10417,0.00099974,9461.2,-0.00022937,226.15,-0.00050304,-1830.1,0.0022273
21600,0.72,1.6364,0.1,0.00067804,6775.7,0.00065281,6131.2,-0.00017921,-120.3,-0.00030545,-1068.8,0.0023377
21601,0.64,1.9091,0.1,0.0014606,14596,0.0014458,14319,-0.00036705,697.91,-0.00060484,-1088.7,0.0029904
21602,0.72,1.8182,0.1,0.0010387,10380,0.00097209,9034.3,-0.00017238,435.24,-0.00056243,-2495.5,0.0032462
21603,23.724,0.18182,0.1,7.7513e-06,77.459,6.6003e-06,54.934,-6.6968e-07,0.31049,-5.1981e-06,-33.714,2.8883
21604,23.816,0.27273,0.1,7.1925e-06,71.875,5.2225e-06,37.287,3.1127e-07,0.38569,-5.8016e-06,-45.544,2.9039
21605,23.908,0.18182,0.1,4.8638e-06,48.604,3.2096e-06,20.554,4.7884e-07,0.036015,-4.1768e-06,-34.945,2.9194
21606,23.816,0.090909,0.1,4.8953e-06,48.919,4.1614e-06,34.525,-4.2373e-07,0.073914,-3.2909e-06,-21.469,2.9037
21607,23.539,0.18182,0.1,1.1231e-05,112.23,1.0282e-05,91.763,-1.9154e-06,0.11565,-6.3775e-06,-33.411,2.8571
21608,23.631,0.27273,0.1,1.002e-05,100.13,8.6323e-06,72.502,-1.0098e-06,0.055241,-6.5746e-06,-41.757,2.8728
21609,23.631,0.090909,0.1,8.2606e-06,82.549,7.658e-06,69.169,-1.5668e-06,-0.14186,-4.4964e-06,-22.154,2.8726
21610,23.355,0.18182,0.1,1.4979e-05,149.69,1.4117e-05,129.96,-3.167e-06,0.10053,-7.6729e-06,-33.755,2.826
21611,23.447,0.27273,0.1,1.3448e-05,134.39,1.231e-05,109.83,-2.292e-06,0.11528,-7.6404e-06,-40.071,2.8417
21612,23.447,0.090909,0.1,1.1888e-05,118.8,1.1341e-05,105.86,-2.7545e-06,-0.047337,-5.7551e-06,-22.593,2.8415
21613,23.171,0.18182,0.1,1.8813e-05,188,1.8002e-05,168.69,-4.4392e-06,0.072786,-8.979e-06,-34.038,2.7949
21614,23.263,0.27273,0.1,1.71e-05,170.89,1.6097e-05,148,-3.5884e-06,0.090157,-8.7994e-06,-39.063,2.8106
21615,23.263,0.090909,0.1,1.5631e-05,156.2,1.5115e-05,143.48,-3.9854e-06,-0.033789,-7.0277e-06,-22.892,2.8104
21616,22.987,0.18182,0.1,2.2691e-05,226.75,2.1915e-05,207.74,-5.7256e-06,0.057448,-1.0283e-05,-34.182,2.7638
21617,23.079,0.27273,0.1,2.0859e-05,208.45,1.9943e-05,186.68,-4.892e-06,0.084494,-9.9988e-06,-38.287,2.7795
21618,23.079,0.090909,0.1,1.9437e-05,194.23,1.8942e-05,181.69,-5.2411e-06,-0.015106,-8.3034e-06,-23.024,2.7793
21619,22.802,0.18182,0.1,2.6595e-05,265.77,2.5848e-05,247.03,-7.0239e-06,0.044586,-1.1581e-05,-34.196,2.7328
21620,22.894,0.27273,0.1,2.468e-05,246.63,2.3824e-05,225.7,-6.204e-06,0.074032,-1.1218e-05,-37.6,2.7484
21621,22.894,0.090909,0.1,2.3287e-05,232.71,2.2809e-05,220.33,-6.5158e-06,-0.0069509,-9.5814e-06,-23.041,2.7482
21622,22.618,0.18182,0.1,3.0518e-05,304.97,2.9795e-05,286.51,-8.3317e-06,0.035141,-1.2874e-05,-34.098,2.7017
21623,22.71,0.27273,0.1,2.854e-05,285.2,2.7732e-05,264.96,-7.5231e-06,0.06604,-1.2449e-05,-36.942,2.7173
21624,22.71,0.090909,0.1,2.717e-05,271.52,2.6707e-05,259.3,-7.8045e-06,-0.0010869,-1.0861e-05,-22.969,2.7171
21625,22.434,0.18182,0.1,3.4457e-05,344.33,3.3755e-05,326.14,-9.6475e-06,0.027732,-1.4164e-05,-33.907,2.6707
21626,22.526,0.27273,0.1,3.2429e-05,324.07,3.1659e-05,304.42,-8.8484e-06,0.058774,-1.3686e-05,-36.29,2.6863
21627,22.526,0.090909,0.1,3.108e-05,310.58,3.0628e-05,298.54,-9.1044e-06,0.002495,-1.2143e-05,-22.83,2.6861
21628,22.249,0.18182,0.1,3.8409e-05,383.83,3.7726e-05,365.91,-1.097e-05,0.021949,-1.5451e-05,-33.643,2.6396
21629,22.342,0.27273,0.1,3.634e-05,363.15,3.5603e-05,344.04,-1.0179e-05,0.052577,-1.4929e-05,-35.635,2.6552
21630,22.342,0.090909,0.1,3.5011e-05,349.86,3.457e-05,338,-1.0413e-05,0.0048923,-1.3427e-05,-22.64,2.6551
21631,22.065,0.18182,0.1,4.2373e-05,423.44,4.1708e-05,405.8,-1.2299e-05,0.01737,-1.6735e-05,-33.318,2.6086
21632,22.157,0.27273,0.1,4.027e-05,402.42,3.9562e-05,383.82,-1.1515e-05,0.047208,-1.6176e-05,-34.973,2.6242
21633,22.157,0.090909,0.1,3.8961e-05,389.34,3.8531e-05,377.65,-1.173e-05,0.0064594,-1.4714e-05,-22.409,2.624
21634,21.881,0.18182,0.1,4.6349e-05,463.17,4.5701e-05,445.82,-1.3633e-05,0.013725,-1.802e-05,-32.945,2.5777
21635,21.973,0.27273,0.1,4.4217e-05,441.86,4.3533e-05,423.73,-1.2855e-05,0.042566,-1.7427e-05,-34.307,2.5933
21636,21.973,0.090909,0.1,4.2927e-05,428.98,4.2508e-05,417.48,-1.3054e-05,0.0074903,-1.6003e-05,-22.147,2.5931
21637,21.697,0.18182,0.1,5.0336e-05,503.01,4.9704e-05,485.96,-1.4972e-05,0.010799,-1.9304e-05,-32.534,2.5467
21638,21.789,0.27273,0.1,4.8178e-05,481.45,4.7518e-05,463.77,-1.42e-05,0.038539,-1.8682e-05,-33.638,2.5623
21639,21.789,0.090909,0.1,4.691e-05,468.78,4.65e-05,457.47,-1.4384e-05,0.0081431,-1.7295e-05,-21.86,2.5621
21640,21.512,0.18182,0.1,5.4335e-05,542.97,5.3718e-05,526.22,-1.6317e-05,0.0084367,-2.0589e-05,-32.094,2.5158
21641,21.605,0.27273,0.1,5.2155e-05,521.19,5.1516e-05,503.93,-1.5549e-05,0.035019,-1.9942e-05,-32.969,2.5314
21642,21.605,0.090909,0.1,5.0908e-05,508.73,5.0507e-05,497.62,-1.572e-05,0.0085258,-1.859e-05,-21.555,2.5312
21643,21.328,0.18182,0.1,5.8345e-05,583.05,5.7743e-05,566.6,-1.7665e-05,0.0065271,-2.1876e-05,-31.63,2.4849
21644,21.42,0.27273,0.1,5.6145e-05,561.06,5.5526e-05,544.23,-1.6902e-05,0.031932,-2.1205e-05,-32.301,2.5005
21645,21.42,0.090909,0.1,5.4921e-05,548.83,5.4529e-05,537.91,-1.7061e-05,0.0087245,-1.9889e-05,-21.236,2.5003
21646,21.144,0.18182,0.1,6.2368e-05,623.25,6.178e-05,607.1,-1.9019e-05,0.0049843,-2.3165e-05,-31.15,2.4541
21647,21.236,0.27273,0.1,6.0149e-05,601.08,5.9549e-05,584.65,-1.8259e-05,0.029224,-2.2474e-05,-31.638,2.4696
21648,21.236,0.090909,0.1,5.8948e-05,589.08,5.8565e-05,578.35,-1.8407e-05,0.0087838,-2.1191e-05,-20.907,2.4694
21649,20.96,0.18182,0.1,6.6404e-05,663.58,6.583e-05,647.72,-2.0377e-05,0.0037388,-2.4458e-05,-30.658,2.4233
21650,21.052,0.27273,0.1,6.4168e-05,641.24,6.3585e-05,625.2,-1.962e-05,0.026837,-2.3747e-05,-30.982,2.4388
21651,21.052,0.090909,0.1,6.299e-05,629.47,6.2615e-05,618.93,-1.9759e-05,0.008759,-2.2498e-05,-20.57,2.4386
21652,20.775,0.18182,0.1,7.0453e-05,704.05,6.9892e-05,688.48,-2.1739e-05,0.0027322,-2.5754e-05,-30.159,2.3925
21653,20.867,0.27273,0.1,6.8202e-05,681.55,6.7635e-05,665.88,-2.0985e-05,0.024732,-2.5026e-05,-30.335,2.4081
21654,20.867,0.090909,0.1,6.7046e-05,670,6.668e-05,659.66,-2.1115e-05,0.0086718,-2.3809e-05,-20.23,2.4078
21655,20.591,0.18182,0.1,7.4516e-05,744.64,7.3967e-05,729.38,-2.3107e-05,0.0019133,-2.7054e-05,-29.655,2.3618
21656,20.683,0.27273,0.1,7.225e-05,722,7.1699e-05,706.7,-2.2354e-05,0.02286,-2.631e-05,-29.697,2.3773
21657,20.683,0.090909,0.1,7.1118e-05,710.69,7.0759e-05,700.54,-2.2476e-05,0.0085288,-2.5124e-05,-19.887,2.377
21658,20.407,0.18182,0.1,7.8593e-05,785.39,7.8056e-05,770.41,-2.4478e-05,0.001251,-2.8358e-05,-29.15,2.3312
21659,20.499,0.27273,0.1,7.6313e-05,762.61,7.5777e-05,747.66,-2.3728e-05,0.021184,-2.76e-05,-29.072,2.3466
21660,20.499,0.090909,0.1,7.5204e-05,751.52,7.4852e-05,741.56,-2.3842e-05,0.0083463,-2.6445e-05,-19.545,2.3463
21661,20.223,0.18182,0.1,8.2685e-05,826.28,8.216e-05,811.58,-2.5855e-05,0.00072404,-2.9667e-05,-28.646,2.3006
21662,20.315,0.27273,0.1,8.0392e-05,803.37,7.987e-05,788.77,-2.5106e-05,0.019697,-2.8896e-05,-28.459,2.316
21663,20.315,0.090909,0.1,7.9305e-05,792.51,7.8961e-05,782.74,-2.5213e-05,0.0081509,-2.777e-05,-19.203,2.3157
21664,20.038,0.18182,0.1,8.6792e-05,867.32,8.6279e-05,852.9,-2.7236e-05,0.00031224,-3.0982e-05,-28.145,2.27
21665,20.13,0.27273,0.1,8.4487e-05,844.29,8.3979e-05,830.02,-2.6488e-05,0.018369,-3.0198e-05,-27.861,2.2854
21666,20.13,0.090909,0.1,8.3423e-05,833.65,8.3086e-05,824.06,-2.6589e-05,0.0079437,-2.9101e-05,-18.865,2.2851
21667,19.854,0.18182,0.1,9.0914e-05,908.52,9.0412e-05,894.38,-2.8622e-05,-1.1611e-05,-3.2302e-05,-27.649,2.2395
21668,19.946,0.27273,0.1,8.8598e-05,885.37,8.8103e-05,871.42,-2.7874e-05,0.017191,-3.1507e-05,-27.276,2.2549
21669,19.946,0.090909,0.1,8.7556e-05,874.95,8.7226e-05,865.55,-2.797e-05,0.0077425,-3.0437e-05,-18.53,2.2546
21670,19.67,0.18182,0.1,9.5053e-05,949.88,9.4562e-05,936.01,-3.0013e-05,-0.0002702,-3.3627e-05,-27.16,2.209
21671,19.762,0.27273,0.1,9.2726e-05,926.62,9.2243e-05,912.98,-2.9266e-05,0.016124,-3.2822e-05,-26.707,2.2244
21672,19.762,0.090909,0.1,9.1705e-05,916.42,9.1382e-05,907.19,-2.9356e-05,0.0075258,-3.1779e-05,-18.199,2.2241
21673,19.485,0.18182,0.1,9.9209e-05,991.4,9.8728e-05,977.79,-3.1409e-05,-0.00046888,-3.4959e-05,-26.678,2.1787
21674,19.578,0.27273,0.1,9.6871e-05,968.04,9.64e-05,954.7,-3.0662e-05,0.015156,-3.4145e-05,-26.154,2.194
21675,19.578,0.090909,0.1,9.5871e-05,958.05,9.5555e-05,948.99,-3.0747e-05,0.0073061,-3.3127e-05,-17.874,2.1937
21676,19.301,0.18182,0.1,0.00010338,1033.1,0.00010291,1019.7,-3.281e-05,-0.00061497,-3.6297e-05,-26.204,2.1483
21677,19.393,0.27273,0.1,0.00010103,1009.6,0.00010057,996.59,-3.2063e-05,0.014289,-3.5474e-05,-25.616,2.1637
21678,19.393,0.090909,0.1,0.00010005,999.85,9.9744e-05,990.96,-3.2144e-05,0.0070944,-3.4481e-05,-17.555,2.1633
21679,19.117,0.18182,0.1,0.00010757,1075,0.00010711,1061.9,-3.4216e-05,-0.00071287,-3.7641e-05,-25.74,2.1181
21680,19.209,0.27273,0.1,0.00010521,1051.4,0.00010476,1038.6,-3.3469e-05,0.01351,-3.681e-05,-25.093,2.1334
21681,19.209,0.090909,0.1,0.00010425,1041.8,0.00010395,1033.1,-3.3546e-05,0.006894,-3.5841e-05,-17.242,2.133
21682,18.933,0.18182,0.1,0.00011178,1117,0.00011133,1104.2,-3.5627e-05,-0.00077806,-3.8992e-05,-25.285,2.0879
21683,19.025,0.27273,0.1,0.00010941,1093.3,0.00010897,1080.9,-3.488e-05,0.012818,-3.8154e-05,-24.586,2.1032
21684,19.025,0.090909,0.1,0.00010847,1084,0.00010817,1075.4,-3.4953e-05,0.0067091,-3.7208e-05,-16.936,2.1028
21685,18.748,0.18182,0.1,0.000116,1159.2,0.00011556,1146.6,-3.7044e-05,-0.00082919,-4.035e-05,-24.84,2.0578
21686,18.841,0.27273,0.1,0.00011363,1135.5,0.0001132,1123.2,-3.6296e-05,0.012179,-3.9504e-05,-24.095,2.0731
21687,18.841,0.090909,0.1,0.00011271,1126.3,0.00011241,1117.9,-3.6365e-05,0.0065199,-3.858e-05,-16.637,2.0727
21688,18.564,0.18182,0.1,0.00012025,1201.6,0.00011981,1189.3,-3.8467e-05,-0.00085871,-4.1715e-05,-24.406,2.0278
21689,18.656,0.27273,0.1,0.00011786,1177.8,0.00011744,1165.8,-3.7717e-05,0.011585,-4.0862e-05,-23.619,2.043
21690,18.656,0.090909,0.1,0.00011696,1168.8,0.00011667,1160.5,-3.7783e-05,0.0063268,-3.996e-05,-16.345,2.0426
21691,18.38,0.18182,0.1,0.00012451,1244.2,0.00012408,1232.1,-3.9895e-05,-0.00086211,-4.3086e-05,-23.981,1.9978
21692,18.472,0.27273,0.1,0.00012211,1220.3,0.0001217,1208.6,-3.9144e-05,0.011056,-4.2228e-05,-23.158,2.013
21693,18.472,0.090909,0.1,0.00012123,1211.5,0.00012095,1203.4,-3.9207e-05,0.0061523,-4.1345e-05,-16.059,2.0126
21694,18.196,0.18182,0.1,0.00012879,1287,0.00012837,1275.1,-4.1328e-05,-0.00084269,-4.4465e-05,-23.568,1.968
21695,18.288,0.27273,0.1,0.00012639,1263,0.00012598,1251.5,-4.0576e-05,0.010577,-4.36e-05,-22.711,1.9831
21696,18.288,0.090909,0.1,0.00012552,1254.3,0.00012524,1246.4,-4.0637e-05,0.0059888,-4.2738e-05,-15.781,1.9827
21697,18.011,0.18182,0.1,0.00013309,1330,0.00013268,1318.2,-4.2767e-05,-0.00081235,-4.585e-05,-23.164,1.9382
21698,18.103,0.27273,0.1,0.00013068,1305.9,0.00013028,1294.6,-4.2014e-05,0.010155,-4.4981e-05,-22.279,1.9533
21699,18.103,0.090909,0.1,0.00012983,1297.4,0.00012956,1289.6,-4.2072e-05,0.0058468,-4.4137e-05,-15.51,1.9528
21700,17.827,0.18182,0.1,0.00013741,1373.1,0.00013701,1361.6,-4.4212e-05,-0.00078908,-4.7243e-05,-22.771,1.9085
21701,17.919,0.27273,0.1,0.00013499,1348.9,0.0001346,1337.9,-4.3458e-05,0.0097541,-4.6368e-05,-21.86,1.9236
21702,17.919,0.090909,0.1,0.00013415,1340.6,0.00013389,1332.9,-4.3513e-05,0.0056971,-4.5543e-05,-15.246,1.9231
21703,17.643,0.18182,0.1,0.00014175,1416.5,0.00014135,1405.2,-4.5663e-05,-0.00075943,-4.8643e-05,-22.387,1.8789
21704,17.735,0.27273,0.1,0.00013932,1392.2,0.00013894,1381.4,-4.4907e-05,0.009369,-4.7763e-05,-21.454,1.8939
21705,17.735,0.090909,0.1,0.0001385,1384,0.00013824,1376.5,-4.496e-05,0.0055389,-4.6955e-05,-14.989,1.8934
21706,17.459,0.18182,0.1,0.0001461,1460,0.00014572,1448.9,-4.712e-05,-0.00071466,-5.005e-05,-22.014,1.8494
21707,17.551,0.27273,0.1,0.00014366,1435.7,0.0001433,1425,-4.6362e-05,0.0090297,-4.9166e-05,-21.06,1.8644
21708,17.551,0.090909,0.1,0.00014286,1427.6,0.00014261,1420.2,-4.6412e-05,0.0054023,-4.8375e-05,-14.738,1.8639
21709,17.274,0.18182,0.1,0.00015048,1503.8,0.0001501,1492.8,-4.8582e-05,-0.00065439,-5.1464e-05,-21.65,1.82
21710,17.366,0.27273,0.1,0.00014803,1479.3,0.00014767,1468.9,-4.7822e-05,0.0087183,-5.0576e-05,-20.679,1.8349
21711,17.366,0.090909,0.1,0.00014725,1471.5,0.00014699,1464.2,-4.7871e-05,0.0052755,-4.9801e-05,-14.494,1.8344
21712,17.09,0.18182,0.1,0.00015488,1547.7,0.0001545,1536.9,-5.0051e-05,-0.00059157,-5.2885e-05,-21.295,1.7907
21713,17.182,0.27273,0.1,0.00015242,1523.2,0.00015207,1512.9,-4.9289e-05,0.00845,-5.1993e-05,-20.308,1.8056
21714,17.182,0.090909,0.1,0.00015165,1515.4,0.0001514,1508.3,-4.9336e-05,0.00517,-5.1234e-05,-14.256,1.805
21715,16.906,0.18182,0.1,0.00015929,1591.8,0.00015893,1581.3,-5.1526e-05,-0.00054483,-5.4314e-05,-20.949,1.7615
21716,16.998,0.27273,0.1,0.00015683,1567.2,0.00015648,1557.1,-5.0762e-05,0.0081826,-5.3418e-05,-19.949,1.7763
21717,16.998,0.090909,0.1,0.00015607,1559.6,0.00015583,1552.6,-5.0807e-05,0.0050516,-5.2674e-05,-14.025,1.7758
21718,16.721,0.18182,0.1,0.00016373,1636.2,0.00016337,1625.8,-5.3007e-05,-0.0004967,-5.575e-05,-20.612,1.7323
21719,16.814,0.27273,0.1,0.00016126,1611.5,0.00016092,1601.6,-5.2241e-05,0.0079151,-5.485e-05,-19.6,1.7472
21720,16.814,0.090909,0.1,0.00016051,1604,0.00016027,1597.1,-5.2284e-05,0.0049215,-5.4121e-05,-13.799,1.7466
21721,16.537,0.18182,0.1,0.00016819,1680.7,0.00016783,1670.5,-5.4494e-05,-0.00043667,-5.7193e-05,-20.282,1.7034
21722,16.629,0.27273,0.1,0.00016571,1655.9,0.00016537,1646.2,-5.3725e-05,0.00768,-5.629e-05,-19.26,1.7181
21723,16.629,0.090909,0.1,0.00016497,1648.6,0.00016474,1641.8,-5.3767e-05,0.0048111,-5.5575e-05,-13.579,1.7176
21724,16.353,0.18182,0.1,0.00017266,1725.4,0.00017231,1715.4,-5.5987e-05,-0.00036307,-5.8643e-05,-19.96,1.6745
21725,16.445,0.27273,0.1,0.00017017,1700.6,0.00016984,1691,-5.5216e-05,0.007464,-5.7737e-05,-18.929,1.6892
21726,16.445,0.090909,0.1,0.00016946,1693.4,0.00016922,1686.7,-5.5257e-05,0.0047084,-5.7036e-05,-13.364,1.6886
21727,16.169,0.18182,0.1,0.00017716,1770.4,0.00017682,1760.5,-5.7486e-05,-0.00028981,-6.0101e-05,-19.645,1.6457
21728,16.261,0.27273,0.1,0.00017466,1745.4,0.00017434,1736,-5.6714e-05,0.0072802,-5.9191e-05,-18.606,1.6604
21729,16.261,0.090909,0.1,0.00017396,1738.4,0.00017373,1731.8,-5.6752e-05,0.0046284,-5.8504e-05,-13.154,1.6598
21730,15.984,0.18182,0.1,0.00018167,1815.5,0.00018134,1805.7,-5.8992e-05,-0.00023582,-6.1566e-05,-19.337,1.6171
21731,16.077,0.27273,0.1,0.00017917,1790.5,0.00017885,1781.2,-5.8217e-05,0.0070844,-6.0652e-05,-18.291,1.6317
21732,16.077,0.090909,0.1,0.00017848,1783.5,0.00017825,1777,-5.8255e-05,0.0045293,-5.9978e-05,-12.948,1.6311
21733,15.8,0.18182,0.1,0.00018621,1860.8,0.00018588,1851.2,-6.0504e-05,-0.0001821,-6.3038e-05,-19.035,1.5885
21734,15.892,0.27273,0.1,0.0001837,1835.7,0.00018339,1826.7,-5.9727e-05,0.0068784,-6.2121e-05,-17.983,1.6031
21735,15.892,0.090909,0.1,0.00018302,1828.9,0.0001828,1822.5,-5.9763e-05,0.0044133,-6.146e-05,-12.747,1.6025
21736,15.616,0.18182,0.1,0.00019077,1906.4,0.00019044,1896.9,-6.2023e-05,-0.00011623,-6.4517e-05,-18.738,1.5601
21737,15.708,0.27273,0.1,0.00018825,1881.2,0.00018794,1872.3,-6.1243e-05,0.006697,-6.3597e-05,-17.68,1.5746
21738,15.708,0.090909,0.1,0.00018758,1874.5,0.00018736,1868.2,-6.1278e-05,0.0043153,-6.2949e-05,-12.551,1.574
21739,15.432,0.18182,0.1,0.00019535,1952.1,0.00019502,1942.8,-6.3548e-05,-3.4752e-05,-6.6003e-05,-18.447,1.5319
21740,15.524,0.27273,0.1,0.00019281,1926.8,0.00019251,1918.1,-6.2765e-05,0.0065276,-6.508e-05,-17.384,1.5463
21741,15.524,0.090909,0.1,0.00019216,1920.3,0.00019195,1914.1,-6.2799e-05,0.0042243,-6.4444e-05,-12.358,1.5457
21742,15.247,0.18182,0.1,0.00019994,1998,0.00019963,1988.9,-6.5079e-05,4.7606e-05,-6.7496e-05,-18.16,1.5037
21743,15.339,0.27273,0.1,0.0001974,1972.7,0.00019711,1964.1,-6.4294e-05,0.0063861,-6.657e-05,-17.092,1.5181
21744,15.339,0.090909,0.1,0.00019676,1966.2,0.00019655,1960.1,-6.4327e-05,0.0041577,-6.5947e-05,-12.168,1.5174
21745,15.063,0.18182,0.1,0.00020456,2044.2,0.00020425,2035.2,-6.6617e-05,0.00010646,-6.8997e-05,-17.878,1.4757
21746,15.155,0.27273,0.1,0.00020201,2018.7,0.00020172,2010.3,-6.583e-05,0.0062241,-6.8067e-05,-16.804,1.49
21747,15.155,0.090909,0.1,0.00020138,2012.4,0.00020117,2006.4,-6.5861e-05,0.0040669,-6.7456e-05,-11.982,1.4894
21748,14.879,0.18182,0.1,0.0002092,2090.5,0.00020889,2081.7,-6.8162e-05,0.00016552,-7.0504e-05,-17.599,1.4479
21749,14.971,0.27273,0.1,0.00020664,2065,0.00020636,2056.7,-6.7371e-05,0.0060392,-6.9571e-05,-16.52,1.4621
21750,14.971,0.090909,0.1,0.00020602,2058.8,0.00020582,2052.9,-6.7401e-05,0.0039497,-6.8972e-05,-11.798,1.4614
21751,14.695,0.18182,0.1,0.00021386,2137.1,0.00021356,2128.4,-6.9713e-05,0.00024127,-7.2019e-05,-17.323,1.4201
21752,14.787,0.27273,0.1,0.00021129,2111.5,0.00021101,2103.3,-6.892e-05,0.0058776,-7.1082e-05,-16.238,1.4343
21753,14.787,0.090909,0.1,0.00021068,2105.4,0.00021048,2099.5,-6.8949e-05,0.0038563,-7.0495e-05,-11.617,1.4336
21754,14.51,0.18182,0.1,0.00021854,2183.9,0.00021824,2175.3,-7.1271e-05,0.00033416,-7.354e-05,-17.049,1.3925
21755,14.602,0.27273,0.1,0.00021596,2158.1,0.00021569,2150.1,-7.0475e-05,0.0057233,-7.26e-05,-15.959,1.4067
21756,14.602,0.090909,0.1,0.00021536,2152.2,0.00021517,2146.4,-7.0502e-05,0.0037636,-7.2025e-05,-11.438,1.4059
21757,14.326,0.18182,0.1,0.00022324,2230.8,0.00022295,2222.4,-7.2835e-05,0.00042833,-7.5068e-05,-16.777,1.3651
21758,14.418,0.27273,0.1,0.00022065,2205,0.00022038,2197.1,-7.2037e-05,0.0055908,-7.4124e-05,-15.68,1.3792
21759,14.418,0.090909,0.1,0.00022007,2199.1,0.00021987,2193.5,-7.2063e-05,0.0036951,-7.3562e-05,-11.26,1.3784
21760,14.142,0.18182,0.1,0.00022796,2278,0.00022767,2269.7,-7.4406e-05,0.00050005,-7.6603e-05,-16.506,1.3378
21761,14.234,0.27273,0.1,0.00022536,2252.1,0.0002251,2244.3,-7.3605e-05,0.0054307,-7.5656e-05,-15.402,1.3518
21762,14.234,0.090909,0.1,0.00022479,2246.3,0.0002246,2240.8,-7.363e-05,0.0035988,-7.5106e-05,-11.084,1.351
21763,13.957,0.18182,0.1,0.0002327,2325.4,0.00023242,2317.2,-7.5984e-05,0.00057525,-7.8145e-05,-16.236,1.3107
21764,14.05,0.27273,0.1,0.00023009,2299.4,0.00022983,2291.8,-7.518e-05,0.0052398,-7.7194e-05,-15.124,1.3246
21765,14.05,0.090909,0.1,0.00022953,2293.7,0.00022934,2288.3,-7.5204e-05,0.0034715,-7.6656e-05,-10.909,1.3238
21766,13.773,0.18182,0.1,0.00023746,2372.9,0.00023718,2364.9,-7.7568e-05,0.00066996,-7.9693e-05,-15.965,1.2837
21767,13.865,0.27273,0.1,0.00023485,2346.8,0.00023459,2339.4,-7.6762e-05,0.0050706,-7.8739e-05,-14.844,1.2976
21768,13.865,0.090909,0.1,0.00023429,2341.3,0.00023411,2335.9,-7.6785e-05,0.003367,-7.8214e-05,-10.734,1.2968
21769,13.589,0.18182,0.1,0.00024224,2420.7,0.00024197,2412.8,-7.916e-05,0.00078719,-8.1249e-05,-15.694,1.2569
21770,13.681,0.27273,0.1,0.00023962,2394.5,0.00023937,2387.2,-7.8351e-05,0.0049011,-8.029e-05,-14.563,1.2707
21771,13.681,0.090909,0.1,0.00023908,2389.1,0.0002389,2383.8,-7.8372e-05,0.0032626,-7.9778e-05,-10.559,1.2698
21772,13.405,0.18182,0.1,0.00024704,2468.7,0.00024677,2461,-8.0758e-05,0.00090993,-8.2811e-05,-15.421,1.2302
21773,13.497,0.27273,0.1,0.00024441,2442.4,0.00024416,2435.2,-7.9947e-05,0.0047544,-8.1847e-05,-14.278,1.2439
21774,13.497,0.090909,0.1,0.00024388,2437.1,0.0002437,2431.9,-7.9966e-05,0.0031848,-8.1349e-05,-10.385,1.2431
21775,13.22,0.18182,0.1,0.00025186,2516.9,0.0002516,2509.3,-8.2363e-05,0.0010101,-8.4379e-05,-15.145,1.2037
21776,13.313,0.27273,0.1,0.00024922,2490.5,0.00024898,2483.5,-8.1549e-05,0.0045706,-8.3412e-05,-13.989,1.2174
21777,13.313,0.090909,0.1,0.00024871,2485.4,0.00024853,2480.2,-8.1567e-05,0.0030691,-8.2926e-05,-10.209,1.2165
21778,13.036,0.18182,0.1,0.00025671,2565.3,0.00025645,2557.8,-8.3976e-05,0.0011177,-8.5954e-05,-14.867,1.1774
21779,13.128,0.27273,0.1,0.00025406,2538.8,0.00025382,2531.9,-8.3159e-05,0.0043475,-8.4982e-05,-13.696,1.191
21780,13.128,0.090909,0.1,0.00025355,2533.8,0.00025338,2528.8,-8.3175e-05,0.0029245,-8.4511e-05,-10.032,1.1901
21781,12.852,0.18182,0.1,0.00026157,2613.9,0.00026132,2606.6,-8.5595e-05,0.0012522,-8.7536e-05,-14.584,1.1513
21782,12.944,0.27273,0.1,0.00025891,2587.3,0.00025868,2580.6,-8.4775e-05,0.0041433,-8.6559e-05,-13.397,1.1647
21783,12.944,0.090909,0.1,0.00025842,2582.4,0.00025825,2577.5,-8.479e-05,0.002798,-8.6102e-05,-9.8534,1.1639
21784,12.668,0.18182,0.1,0.00026646,2662.7,0.00026621,2655.5,-8.7221e-05,0.0014178,-8.9124e-05,-14.297,1.1253
21785,12.76,0.27273,0.1,0.00026378,2636,0.00026356,2629.4,-8.6399e-05,0.0039361,-8.8142e-05,-13.09,1.1387
21786,12.76,0.090909,0.1,0.00026331,2631.3,0.00026314,2626.4,-8.6412e-05,0.0026756,-8.77e-05,-9.6727,1.1378
21787,12.483,0.18182,0.1,0.00027136,2711.7,0.00027112,2704.7,-8.8854e-05,0.0015966,-9.0718e-05,-14.004,1.0995
21788,12.575,0.27273,0.1,0.00026868,2684.9,0.00026846,2678.5,-8.803e-05,0.0037496,-8.9731e-05,-12.776,1.1128
21789,12.575,0.090909,0.1,0.00026822,2680.3,0.00026805,2675.6,-8.8041e-05,0.0025776,-8.9304e-05,-9.4891,1.1119
21790,12.299,0.18182,0.1,0.00027629,2761,0.00027605,2754.1,-9.0495e-05,0.0017589,-9.2319e-05,-13.704,1.0739
21791,12.391,0.27273,0.1,0.00027359,2734,0.00027338,2727.8,-8.9668e-05,0.0035181,-9.1326e-05,-12.452,1.0871
21792,12.391,0.090909,0.1,0.00027315,2729.6,0.00027299,2724.9,-8.9677e-05,0.0024436,-9.0915e-05,-9.3024,1.0862
21793,12.115,0.18182,0.1,0.00028123,2810.4,0.000281,2803.7,-9.2143e-05,0.0019383,-9.3926e-05,-13.397,1.0485
21794,12.207,0.27273,0.1,0.00027853,2783.4,0.00027832,2777.3,-9.1313e-05,0.0032419,-9.2926e-05,-12.118,1.0616
21795,12.207,0.090909,0.1,0.0002781,2779.1,0.00027794,2774.5,-9.132e-05,0.0022736,-9.2533e-05,-9.1118,1.0607
21796,11.931,0.18182,0.1,0.0002862,2860,0.00028598,2853.5,-9.3798e-05,0.0021598,-9.5539e-05,-13.081,1.0232
21797,12.023,0.27273,0.1,0.00028348,2832.9,0.00028328,2827,-9.2966e-05,0.0029824,-9.4533e-05,-11.773,1.0363
21798,12.023,0.090909,0.1,0.00028307,2828.7,0.00028292,2824.3,-9.2971e-05,0.002129,-9.4158e-05,-8.9168,1.0353
21799,11.746,0.18182,0.1,0.00029119,2909.9,0.00029097,2903.5,-9.546e-05,0.0024299,-9.7158e-05,-12.756,0.99818
21800,11.838,0.27273,0.1,0.00028846,2882.6,0.00028827,2876.9,-9.4626e-05,0.0027203,-9.6145e-05,-11.414,1.0112
21801,11.838,0.090909,0.1,0.00028806,2878.6,0.00028791,2874.3,-9.4628e-05,0.0019907,-9.5789e-05,-8.7167,1.0102
21802,11.562,0.18182,0.1,0.0002962,2960,0.00029599,2953.7,-9.713e-05,0.0027305,-9.8783e-05,-12.419,0.97334
21803,11.654,0.27273,0.1,0.00029346,2932.6,0.00029327,2927,-9.6294e-05,0.0024795,-9.7763e-05,-11.04,0.98622
21804,11.654,0.090909,0.1,0.00029308,2928.8,0.00029293,2924.5,-9.6293e-05,0.001885,-9.7426e-05,-8.5108,0.98523
21805,11.378,0.18182,0.1,0.00030123,3010.2,0.00030102,3004.2,-9.8808e-05,0.0030344,-0.00010041,-12.071,0.94869
21806,11.47,0.27273,0.1,0.00029848,2982.7,0.00029829,2977.4,-9.7969e-05,0.0021917,-9.9387e-05,-10.65,0.96148
21807,11.47,0.090909,0.1,0.00029811,2979.1,0.00029797,2974.9,-9.7966e-05,0.0017453,-9.9071e-05,-8.2986,0.96048
21808,11.193,0.18182,0.1,0.00030628,3060.7,0.00030608,3054.9,-0.00010049,0.0033838,-0.00010205,-11.709,0.92425
21809,11.286,0.27273,0.1,0.00030352,3033.1,0.00030334,3027.9,-9.9652e-05,0.0018586,-0.00010102,-10.243,0.93695
21810,11.286,0.090909,0.1,0.00030317,3029.6,0.00030303,3025.6,-9.9646e-05,0.0015748,-0.00010072,-8.0794,0.93593
21811,11.009,0.18182,0.1,0.00031136,3111.4,0.00031116,3105.7,-0.00010219,0.0038113,-0.00010369,-11.332,0.90002
21812,11.101,0.27273,0.1,0.00030857,3083.6,0.00030841,3078.7,-0.00010134,0.0015526,-0.00010265,-9.8164,0.91262
21813,11.101,0.090909,0.1,0.00030825,3080.4,0.00030812,3076.4,-0.00010133,0.0014448,-0.00010238,-7.8522,0.91158
21814,10.825,0.18182,0.1,0.00031645,3162.3,0.00031626,3156.9,-0.00010389,0.0043322,-0.00010534,-10.939,0.87599
21815,10.917,0.27273,0.1,0.00031365,3134.4,0.00031349,3129.7,-0.00010304,0.0012558,-0.00010429,-9.3684,0.88849
21816,10.917,0.090909,0.1,0.00031335,3131.4,0.00031322,3127.5,-0.00010303,0.001338,-0.00010404,-7.6164,0.88745
21817,10.641,0.18182,0.1,0.00032157,3213.5,0.00032139,3208.2,-0.00010559,0.0049384,-0.000107,-10.529,0.85218
21818,10.733,0.27273,0.1,0.00031876,3185.4,0.0003186,3180.9,-0.00010475,0.0010025,-0.00010593,-8.8973,0.86458
21819,10.733,0.090909,0.1,0.00031848,3182.6,0.00031835,3178.9,-0.00010473,0.0012873,-0.00010571,-7.3711,0.86352
21820,10.456,0.18182,0.1,0.00032671,3264.8,0.00032653,3259.7,-0.00010731,0.0056149,-0.00010866,-10.101,0.82859
21821,10.549,0.27273,0.1,0.00032388,3236.5,0.00032373,3232.3,-0.00010646,0.00072747,-0.00010758,-8.4012,0.84089
21822,10.549,0.090909,0.1,0.00032362,3234,0.0003235,3230.4,-0.00010644,0.0012303,-0.00010739,-7.1155,0.83981
21823,10.272,0.18182,0.1,0.00033186,3316.4,0.0003317,3311.5,-0.00010904,0.0064346,-0.00011032,-9.6512,0.80522
21824,10.364,0.27273,0.1,0.00032902,3287.9,0.00032889,3284,-0.00010819,0.00045115,-0.00010923,-7.8781,0.81741
21825,10.364,0.090909,0.1,0.00032879,3285.6,0.00032867,3282.2,-0.00010816,0.0011791,-0.00010907,-6.8489,0.81632
21826,10.088,0.18182,0.1,0.00033705,3368.1,0.00033689,3363.5,-0.00011077,0.0074479,-0.00011199,-9.1798,0.78207
21827,10.18,0.27273,0.1,0.00033418,3339.5,0.00033406,3335.9,-0.00010992,0.00028613,-0.00011089,-7.3257,0.79416
21828,10.18,0.090909,0.1,0.00033398,3337.5,0.00033387,3334.2,-0.00010989,0.0012355,-0.00011076,-6.57,0.79305
21829,9.9036,0.18182,0.1,0.00034225,3420.1,0.0003421,3415.8,-0.00011251,0.0086824,-0.00011367,-8.6849,0.75915
21830,9.9957,0.27273,0.1,0.00033937,3391.4,0.00033926,3388,-0.00011166,0.00021385,-0.00011256,-6.742,0.77114
21831,9.9957,0.090909,0.1,0.0003392,3389.6,0.00033909,3386.5,-0.00011162,0.0013641,-0.00011246,-6.2783,0.77001
21832,9.7193,0.18182,0.1,0.00034747,3472.3,0.00034733,3468.3,-0.00011426,0.010217,-0.00011535,-8.1647,0.73646
21833,9.8115,0.27273,0.1,0.00034458,3443.4,0.00034447,3440.3,-0.00011341,0.00030931,-0.00011422,-6.1247,0.74834
21834,9.8115,0.090909,0.1,0.00034443,3441.9,0.00034433,3439,-0.00011337,0.001605,-0.00011416,-5.9726,0.74719
21835,9.5351,0.18182,0.1,0.00035272,3524.8,0.00035259,3521,-0.00011602,0.012148,-0.00011703,-7.6178,0.71401
21836,9.6272,0.27273,0.1,0.0003498,3495.6,0.00034971,3492.9,-0.00011516,0.0006876,-0.00011589,-5.4716,0.72577
21837,9.6272,0.090909,0.1,0.00034969,3494.5,0.0003496,3491.7,-0.00011512,0.0020072,-0.00011587,-5.652,0.72461
21838,9.3508,0.18182,0.1,0.00035799,3577.4,0.00035787,3573.9,-0.00011779,0.014616,-0.00011873,-7.0426,0.69179
21839,9.4429,0.27273,0.1,0.00035505,3548.1,0.00035497,3545.7,-0.00011693,0.0015211,-0.00011757,-4.7805,0.70345
21840,9.4429,0.090909,0.1,0.00035498,3547.3,0.00035489,3544.7,-0.00011688,0.0026144,-0.00011759,-5.3158,0.70227
21841,9.1665,0.18182,0.1,0.00036328,3630.3,0.00036317,3627.1,-0.00011956,0.01784,-0.00012042,-6.4376,0.66982
21842,9.2587,0.27273,0.1,0.00036033,3600.8,0.00036026,3598.7,-0.00011871,0.003172,-0.00011925,-4.0495,0.68136
21843,9.2587,0.090909,0.1,0.00036028,3600.4,0.0003602,3597.9,-0.00011865,0.0035157,-0.00011931,-4.9629,0.68017
21844,8.9823,0.18182,0.1,0.0003686,3683.4,0.0003685,3680.5,-0.00012135,0.022153,-0.00012212,-5.8018,0.64809
21845,9.0744,0.27273,0.1,0.00036562,3653.7,0.00036556,3652,-0.00012049,0.0063789,-0.00012093,-3.277,0.65952
21846,9.0744,0.090909,0.1,0.00036562,3653.6,0.00036554,3651.3,-0.00012043,0.0048272,-0.00012104,-4.5927,0.65831
21847,8.798,0.18182,0.1,0.00037394,3736.8,0.00037385,3734.2,-0.00012314,0.028099,-0.00012383,-5.1341,0.62661
21848,8.8901,0.27273,0.1,0.00037093,3706.8,0.00037089,3705.5,-0.00012228,0.012974,-0.00012261,-2.4625,0.63792
21849,8.8901,0.090909,0.1,0.00037097,3707.1,0.0003709,3705,-0.00012221,0.0067217,-0.00012277,-4.2044,0.6367
21850,8.6137,0.18182,0.1,0.0003793,3790.3,0.00037922,3788.1,-0.00012494,0.036622,-0.00012554,-4.4343,0.60539
21851,8.7059,0.27273,0.1,0.00037627,3760.1,0.00037624,3759.3,-0.00012409,0.028917,-0.0001243,-1.6101,0.61658
21852,8.7059,0.090909,0.1,0.00037635,3760.9,0.00037629,3759,-0.00012401,0.0094672,-0.00012451,-3.7975,0.61534
21853,8.4295,0.18182,0.1,0.00038468,3844.1,0.00038462,3842.3,-0.00012676,0.049501,-0.00012726,-3.7031,0.58442
21854,8.5216,0.27273,0.1,0.00038163,3813.6,0.00038162,3813.3,-0.00012589,0.087098,-0.000126,-0.75088,0.59549
21855,8.5216,0.090909,0.1,0.00038175,3814.9,0.0003817,3813.2,-0.00012581,0.01349,-0.00012626,-3.3719,0.59424
21856,8.2452,0.18182,0.1,0.00039009,3898.2,0.00039004,3896.7,-0.00012858,0.070468,-0.00012898,-2.9438,0.56371
21857,8.3373,0.27273,0.1,0.00038701,3867.4,0.00038701,3867.6,-0.00012766,0.48728,-0.00012775,-0.18311,0.57465
21858,8.3373,0.090909,0.1,0.00038718,3869.2,0.00038713,3867.7,-0.00012762,0.019518,-0.00012802,-2.9278,0.57339
21859,8.0609,0.18182,0.1,0.00039551,3952.4,0.00039548,3951.4,-0.0001304,0.10867,-0.00013071,-2.1653,0.54327
21860,8.1531,0.27273,0.1,0.00039241,3921.4,0.00039243,3922,-0.00012937,1.408,-0.00012957,-0.084431,0.55409
21861,8.1531,0.090909,0.1,0.00039264,3923.6,0.00039259,3922.4,-0.00012945,0.028876,-0.00012978,-2.4663,0.55281
21862,7.8767,0.18182,0.1,0.00040097,4006.9,0.00040095,4006.3,-0.00013223,0.19164,-0.00013244,-1.3954,0.52309
21863,7.9688,0.27273,0.1,0.00039783,3975.6,0.00039787,3976.8,-0.00013108,2.4579,-0.00013141,-0.063187,0.53378
21864,7.9688,0.090909,0.1,0.00039811,3978.4,0.00039808,3977.4,-0.00013127,0.044222,-0.00013155,-1.99,0.53249
21865,7.6924,0.18182,0.1,0.00040644,4061.6,0.00040643,4061.4,-0.00013405,0.41584,-0.00013421,-0.73202,0.50319
21866,7.7845,0.27273,0.1,0.00040328,4030,0.00040334,4031.7,-0.00013278,3.5728,-0.00013326,-0.055848,0.51375
21867,7.7845,0.090909,0.1,0.00040361,4033.3,0.00040359,4032.6,-0.00013311,0.07161,-0.00013332,-1.5057,0.51244
21868,7.5081,0.18182,0.1,0.00041193,4116.5,0.00041194,4116.8,-0.00013584,0.96392,-0.00013602,-0.35986,0.48356
21869,7.6003,0.27273,0.1,0.00040874,4084.6,0.00040882,4086.9,-0.00013449,4.7418,-0.00013512,-0.053282,0.49399
21870,7.6003,0.090909,0.1,0.00040914,4088.5,0.00040912,4088.1,-0.00013495,0.12713,-0.00013511,-1.0302,0.49267
21871,7.3239,0.18182,0.1,0.00041745,4171.6,0.00041747,4172.4,-0.0001376,1.7762,-0.00013786,-0.22266,0.46421
21872,7.416,0.27273,0.1,0.00041423,4139.4,0.00041433,4142.3,-0.00013619,5.9594,-0.00013699,-0.052994,0.47451
21873,7.416,0.090909,0.1,0.00041468,4143.9,0.00041467,4143.8,-0.00013679,0.2577,-0.00013691,-0.61205,0.47317
21874,7.1396,0.18182,0.1,0.00042298,4226.9,0.00042302,4228.1,-0.00013935,2.6947,-0.00013973,-0.16732,0.44515
21875,7.2317,0.27273,0.1,0.00041973,4194.4,0.00041985,4198,-0.0001379,7.2197,-0.00013887,-0.05404,0.4553
21876,7.2317,0.090909,0.1,0.00042024,4199.5,0.00042025,4199.7,-0.00013862,0.55131,-0.00013874,-0.34158,0.45396
21877,6.9553,0.18182,0.1,0.00042853,4282.3,0.00042859,4284.1,-0.0001411,3.6591,-0.00014161,-0.14036,0.42637
21878,7.0475,0.27273,0.1,0.00042525,4249.5,0.00042539,4253.8,-0.00013962,8.515,-0.00014076,-0.055989,0.43639
21879,7.0475,0.090909,0.1,0.00042583,4255.3,0.00042584,4255.7,-0.00014043,1.0072,-0.00014059,-0.22127,0.43503
21880,6.7711,0.18182,0.1,0.00043409,4337.9,0.00043416,4340.1,-0.00014285,4.6445,-0.00014349,-0.12575,0.40788
21881,6.8632,0.27273,0.1,0.00043078,4304.8,0.00043095,4309.7,-0.00014133,9.8352,-0.00014265,-0.058617,0.41776
21882,6.8632,0.090909,0.1,0.00043142,4311.3,0.00043145,4311.9,-0.00014223,1.5396,-0.00014246,-0.16976,0.41639
21883,6.5868,0.18182,0.1,0.00043965,4393.5,0.00043975,4396.2,-0.00014461,5.6332,-0.00014537,-0.11758,0.38968
21884,6.6789,0.27273,0.1,0.00043632,4360.2,0.00043651,4365.8,-0.00014305,11.167,-0.00014454,-0.061808,0.39942
21885,6.6789,0.090909,0.1,0.00043703,4367.3,0.00043706,4368.3,-0.00014404,2.1004,-0.00014434,-0.14457,0.39804
21886,6.4025,0.18182,0.1,0.00044522,4449.1,0.00044533,4452.4,-0.00014636,6.6076,-0.00014726,-0.11324,0.37179
21887,6.4947,0.27273,0.1,0.00044187,4415.7,0.00044208,4421.9,-0.00014477,12.493,-0.00014644,-0.065444,0.38138
21888,6.4947,0.090909,0.1,0.00044264,4423.3,0.00044268,4424.6,-0.00014584,2.6672,-0.00014621,-0.13093,0.37999
21889,6.2183,0.18182,0.1,0.00045078,4504.7,0.00045091,4508.4,-0.00014812,7.5476,-0.00014914,-0.11142,0.35419
21890,6.3104,0.27273,0.1,0.00044742,4471.1,0.00044765,4478,-0.00014649,13.79,-0.00014834,-0.069505,0.36364
21891,6.3104,0.090909,0.1,0.00044825,4479.4,0.0004483,4480.9,-0.00014765,3.2251,-0.00014809,-0.12319,0.36224
21892,6.034,0.18182,0.1,0.00045632,4560.1,0.00045646,4564.2,-0.00014988,8.4288,-0.00015101,-0.11136,0.33691
21893,6.1261,0.27273,0.1,0.00045296,4526.5,0.00045321,4533.9,-0.00014822,15.03,-0.00015023,-0.073933,0.3462
21894,6.1261,0.090909,0.1,0.00045384,4535.2,0.0004539,4537.1,-0.00014945,3.7597,-0.00014996,-0.11878,0.34479
21895,5.8497,0.18182,0.1,0.00046183,4615.1,0.00046199,4619.7,-0.00015163,9.222,-0.00015287,-0.1126,0.31993
21896,5.9419,0.27273,0.1,0.00045847,4581.6,0.00045875,4589.6,-0.00014994,16.179,-0.0001521,-0.078689,0.32908
21897,5.9419,0.090909,0.1,0.0004594,4590.8,0.00045947,4592.9,-0.00015124,4.2554,-0.00015182,-0.11639,0.32766
21898,5.6655,0.18182,0.1,0.00046729,4669.7,0.00046745,4674.5,-0.00015337,9.8917,-0.0001547,-0.11486,0.30326
21899,5.7576,0.27273,0.1,0.00046396,4636.4,0.00046424,4644.9,-0.00015166,17.191,-0.00015396,-0.083735,0.31226
21900,5.7576,0.090909,0.1,0.00046492,4646,0.00046499,4648.2,-0.00015302,4.6937,-0.00015366,-0.11524,0.31083
21901,5.4812,0.18182,0.1,0.00047267,4723.4,0.00047284,4728.5,-0.00015511,10.395,-0.0001565,-0.11791,0.28692
21902,5.5733,0.27273,0.1,0.00046938,4690.6,0.00046968,4699.5,-0.00015338,18.013,-0.00015579,-0.089038,0.29576
21903,5.5733,0.090909,0.1,0.00047036,4700.4,0.00047045,4702.8,-0.00015479,5.0528,-0.00015548,-0.11483,0.29432
21904,5.2969,0.18182,0.1,0.00047793,4776,0.00047811,4781.3,-0.00015682,10.682,-0.00015826,-0.12161,0.27089
21905,5.3891,0.27273,0.1,0.00047472,4743.9,0.00047503,4753.2,-0.0001551,18.58,-0.00015759,-0.094578,0.27957
21906,5.3891,0.090909,0.1,0.00047571,4753.8,0.00047579,4756.4,-0.00015653,5.3068,-0.00015726,-0.1148,0.27813
21907,5.1127,0.18182,0.1,0.00048305,4827.1,0.00048323,4832.4,-0.00015851,10.692,-0.00015995,-0.12591,0.25519
21908,5.2048,0.27273,0.1,0.00047995,4796.2,0.00048026,4805.5,-0.0001568,18.815,-0.00015932,-0.10037,0.26371
21909,5.2048,0.090909,0.1,0.00048091,4805.8,0.000481,4808.4,-0.00015824,5.4252,-0.00015898,-0.11486,0.26226
21910,4.9284,0.18182,0.1,0.00048795,4876.2,0.00048813,4881.3,-0.00016015,10.356,-0.00016155,-0.13091,0.23981
21911,5.0205,0.27273,0.1,0.00048501,4846.8,0.00048532,4856,-0.00015849,18.626,-0.00016098,-0.10653,0.24818
21912,5.0205,0.090909,0.1,0.00048592,4855.9,0.00048601,4858.5,-0.0001599,5.3722,-0.00016063,-0.11477,0.24672
21913,4.7441,0.18182,0.1,0.00049258,4922.4,0.00049274,4927.1,-0.00016174,9.591,-0.00016304,-0.1371,0.22477
21914,4.8363,0.27273,0.1,0.00048986,4895.2,0.00049016,4904.1,-0.00016015,17.903,-0.00016255,-0.11336,0.23297
21915,4.8363,0.090909,0.1,0.00049067,4903.4,0.00049076,4905.9,-0.00016149,5.106,-0.00016219,-0.11436,0.23151
21916,4.5599,0.18182,0.1,0.00049684,4965,0.00049698,4969,-0.00016326,8.306,-0.00016438,-0.14607,0.21006
21917,4.652,0.27273,0.1,0.00049441,4940.7,0.00049469,4948.9,-0.00016177,16.522,-0.00016398,-0.12169,0.2181
21918,4.652,0.090909,0.1,0.00049509,4947.5,0.00049516,4949.7,-0.00016299,4.579,-0.00016362,-0.11356,0.21663
21919,4.3756,0.18182,0.1,0.00050061,5002.7,0.00050072,5005.8,-0.00016466,6.3997,-0.00016553,-0.1631,0.19569
21920,4.4677,0.27273,0.1,0.00049858,4982.3,0.00049882,4989.4,-0.00016333,14.342,-0.00016525,-0.13376,0.20356
21921,4.4677,0.090909,0.1,0.00049906,4987.1,0.00049912,4988.9,-0.00016437,3.7368,-0.00016488,-0.11271,0.20209
21922,4.1913,0.18182,0.1,0.00050376,5034.1,0.00050382,5035.9,-0.00016591,3.7784,-0.00016645,-0.21372,0.18166
21923,4.2835,0.27273,0.1,0.00050224,5018.9,0.00050242,5024.4,-0.00016479,11.205,-0.00016631,-0.15641,0.18936
21924,4.2835,0.090909,0.1,0.00050244,5021,0.00050248,5022.2,-0.00016559,2.5202,-0.00016594,-0.11384,0.18788
21925,4.0071,0.18182,0.1,0.00050609,5057.4,0.00050609,5057.4,-0.00016691,0.72546,-0.00016711,-0.71227,0.16798
21926,4.0992,0.27273,0.1,0.00050523,5048.8,0.00050535,5052.2,-0.00016613,6.9622,-0.00016709,-0.21976,0.17551
21927,4.0992,0.090909,0.1,0.00050508,5047.3,0.00050509,5047.7,-0.0001666,0.88208,-0.00016673,-0.13798,0.17402
21928,3.8228,0.18182,0.1,0.00050738,5070.3,0.0005073,5068,-0.0001672,0.042344,-0.00016782,-4.6004,0.15463
21929,3.9149,0.27273,0.1,0.00050737,5070.2,0.00050739,5070.8,-0.00016725,1.8113,-0.00016758,-0.71366,0.16199
21930,3.9149,0.090909,0.1,0.00050676,5064.1,0.00050673,5063.4,-0.00016716,-0.044632,-0.00016734,-1.3919,0.1605
21931,3.6385,0.18182,0.1,0.00050734,5069.9,0.00050717,5064.8,-0.00016691,-0.012992,-0.00016828,-10.281,0.14163
21932,3.7307,0.27273,0.1,0.00050841,5080.6,0.00050831,5077.6,-0.00016745,0.17785,-0.00016831,-6.2632,0.14882
21933,3.7307,0.090909,0.1,0.00050721,5068.6,0.00050714,5066.5,-0.00016718,-0.058238,-0.00016772,-4.1554,0.14733
21934,3.4543,0.18182,0.1,0.00050562,5052.7,0.00050533,5044.1,-0.000166,-0.027321,-0.0001683,-17.31,0.12898
21935,3.5464,0.27273,0.1,0.00050805,5077,0.00050779,5069.5,-0.0001669,0.072884,-0.00016892,-15.072,0.136
21936,3.5464,0.090909,0.1,0.00050611,5057.7,0.00050598,5053.8,-0.00016664,-0.050311,-0.00016765,-7.6154,0.1345
21937,3.27,0.18182,0.1,0.0005018,5014.5,0.00050135,5001.6,-0.00016432,-0.035874,-0.00016774,-25.774,0.11667
21938,3.3621,0.27273,0.1,0.0005059,5055.5,0.00050545,5042.5,-0.00016566,0.052768,-0.00016911,-25.864,0.12352
21939,3.3621,0.090909,0.1,0.00050307,5027.2,0.00050287,5021.3,-0.00016543,-0.037138,-0.000167,-11.829,0.12201
21940,3.0857,0.18182,0.1,0.00049535,4950.1,0.00049473,4932.1,-0.0001617,-0.050582,-0.00016645,-35.748,0.1047
21941,3.1779,0.27273,0.1,0.0005015,5011.6,0.00050083,4992.1,-0.00016357,0.051579,-0.00016873,-38.683,0.11138
21942,3.1779,0.090909,0.1,0.0004976,4972.5,0.00049731,4964.1,-0.00016337,-0.021324,-0.00016561,-16.852,0.10987
21943,2.9015,0.18182,0.1,0.00048567,4853.3,0.00048484,4829.5,-0.00015793,-0.0812,-0.00016421,-47.229,0.093063
21944,2.9936,0.27273,0.1,0.0004943,4939.6,0.00049337,4912.7,-0.00016046,0.054981,-0.00016759,-53.523,0.099589
21945,2.9936,0.090909,0.1,0.00048912,4887.8,0.00048873,4876.4,-0.00016028,-0.0045878,-0.0001633,-22.709,0.09806
21946,2.7172,0.18182,0.1,0.00047205,4717.2,0.00047099,4686.8,-0.0001528,-0.13744,-0.00016078,-60.094,0.081758
21947,2.8093,0.27273,0.1,0.00048364,4833.1,0.00048241,4797.6,-0.00015611,0.055502,-0.00016546,-70.217,0.088128
21948,2.8093,0.090909,0.1,0.00047696,4766.3,0.00047645,4751.6,-0.00015594,0.010802,-0.00015985,-29.369,0.086584
21949,2.5329,0.18182,0.1,0.00045371,4534,0.0004524,4496.4,-0.00014606,-0.22676,-0.00015588,-74.024,0.070774
21950,2.6251,0.27273,0.1,0.00046875,4684.2,0.00046718,4639.5,-0.00015029,0.047807,-0.00016205,-88.351,0.076995
21951,2.6251,0.090909,0.1,0.00046036,4600.4,0.00045973,4582,-0.0001501,0.021784,-0.00015498,-36.711,0.075432
21952,2.3487,0.18182,0.1,0.00042981,4295.2,0.00042824,4250.1,-0.00013746,-0.3447,-0.00014919,-88.427,0.060098
21953,2.4408,0.27273,0.1,0.00044878,4484.7,0.00044686,4430.1,-0.00014275,0.029425,-0.00015702,-107.16,0.066179
21954,2.4408,0.090909,0.1,0.00043849,4381.9,0.00043772,4359.5,-0.00014249,0.023314,-0.00014841,-44.467,0.064593
21955,2.1644,0.18182,0.1,0.00039953,3992.5,0.00039768,3940.1,-0.00012678,-0.46061,-0.00014034,-102.35,0.049713
21956,2.2565,0.27273,0.1,0.00042283,4225.3,0.00042055,4161.2,-0.00013327,0.012317,-0.00014997,-125.45,0.055665
21957,2.2565,0.090909,0.1,0.00041049,4102.1,0.00040958,4075.8,-0.00013287,0.013095,-0.00013981,-52.169,0.054051
21958,1.9801,0.18182,0.1,0.00036211,3618.6,0.00036002,3559.8,-0.00011382,-0.45269,-0.00012899,-114.43,0.0396
21959,2.0723,0.27273,0.1,0.00039003,3897.6,0.00038743,3824.9,-0.00012163,0.029453,-0.00014048,-141.57,0.045437
21960,2.0723,0.090909,0.1,0.00037555,3752.9,0.00037451,3723,-0.000121,-0.021524,-0.00012886,-59.076,0.043789
21961,1.7959,0.18182,0.1,0.00031706,3168.4,0.00031478,3105.1,-9.8489e-05,-0.10307,-0.00011484,-122.93,0.029737
21962,1.888,0.27273,0.1,0.00034971,3494.7,0.00034684,3415.5,-0.00010769,0.24473,-0.00012816,-153.56,0.035473
21963,1.888,0.090909,0.1,0.00033302,3327.9,0.00033189,3295.4,-0.00010671,-0.026286,-0.00011524,-64.089,0.033786
21964,1.6116,0.18182,0.1,0.00026424,2640.6,0.00026189,2576.1,-8.0757e-05,1.5376,-9.772e-05,-125.92,0.020106
21965,1.7037,0.27273,0.1,0.0003016,3013.9,0.00029858,2931.2,-9.1433e-05,0.83696,-0.00011282,-159.89,0.025749
21966,1.7037,0.090909,0.1,0.00028257,2823.8,0.00028139,2790.2,-8.9979e-05,-0.10506,-9.8725e-05,-65.821,0.024022
21967,1.4273,0.18182,0.1,0.00020432,2041.8,0.00020199,1979.1,-6.0746e-05,5.0451,-7.7962e-05,-124.31,0.010735
21968,1.5195,0.27273,0.1,0.00024636,2461.9,0.00024326,2378.8,-7.2898e-05,3.307,-9.48e-05,-161.26,0.016255
21969,1.5195,0.090909,0.1,0.00022426,2241.1,0.00022315,2209.6,-7.0837e-05,0.72637,-7.9231e-05,-62.344,0.014495
21970,1.2431,0.18182,0.1,0.00014118,1410.8,0.00013852,1345.7,-3.7836e-05,20.607,-5.8879e-05,-137.5,0.0027816
21971,1.3352,0.27273,0.1,0.00018719,1870.6,0.00018374,1781.4,-5.2541e-05,6.0816,-7.6229e-05,-171.9,0.0071077
21972,1.3352,0.090909,0.1,0.00015896,1588.5,0.00015796,1560.5,-4.9615e-05,0.91033,-5.7098e-05,-55.32,0.0054432
21973,1.1509,0.27273,0.1,0.00014023,1401.4,0.00013357,1251.1,-3.0164e-05,20.896,-6.9459e-05,-274.35,0.0037395
21974,1.0588,0.18182,0.1,7.9331e-05,792.77,7.7537e-05,746.37,-2.2017e-05,-1.6428,-3.3061e-05,-84.62,0.0087048
21975,1.1509,0.090909,0.1,9.0042e-05,899.8,8.8891e-05,872.1,-2.4648e-05,19.017,-3.624e-05,-68.082,0.0052772
21976,23.724,0.36364,0.1,9.5076e-06,95.011,7.3366e-06,55.471,-2.4447e-08,0.1633,-7.2646e-06,-54.236,2.8884
21977,23.816,0.45455,0.1,9.2992e-06,92.928,6.0723e-06,38.457,9.7443e-07,0.15292,-8.0298e-06,-67.501,2.904
21978,23.908,0.36364,0.1,7.3624e-06,73.574,4.1535e-06,21.496,1.271e-06,-0.16187,-6.7563e-06,-60.476,2.9195
21979,23.539,0.36364,0.1,1.2348e-05,123.39,1.0754e-05,91.273,-1.3868e-06,0.051357,-7.9314e-06,-49.122,2.8573
21980,23.631,0.45455,0.1,1.1601e-05,115.93,9.3511e-06,73.608,-4.586e-07,-0.098549,-8.4335e-06,-60.019,2.8729
21981,23.355,0.36364,0.1,1.5674e-05,156.63,1.4376e-05,128.5,-2.7152e-06,0.091565,-8.8504e-06,-46.006,2.8262
21982,23.447,0.45455,0.1,1.4583e-05,145.73,1.2847e-05,110.24,-1.8217e-06,0.028692,-9.1441e-06,-54.989,2.8418
21983,23.171,0.36364,0.1,1.9237e-05,192.24,1.8112e-05,166.55,-4.0433e-06,0.085963,-9.8913e-06,-43.854,2.7951
21984,23.263,0.45455,0.1,1.7925e-05,179.12,1.6487e-05,147.79,-3.1795e-06,0.024904,-1.0028e-05,-51.43,2.8107
21985,22.987,0.36364,0.1,2.2927e-05,229.11,2.1917e-05,205.12,-5.3725e-06,0.085004,-1.0997e-05,-42.177,2.764
21986,23.079,0.45455,0.1,2.1464e-05,214.49,2.0217e-05,185.97,-4.5298e-06,0.03805,-1.1015e-05,-48.687,2.7796
21987,22.802,0.36364,0.1,2.6694e-05,266.76,2.5766e-05,244.06,-6.7053e-06,0.080107,-1.2141e-05,-40.766,2.7329
21988,22.894,0.45455,0.1,2.5123e-05,251.06,2.4009e-05,224.61,-5.8794e-06,0.039671,-1.2066e-05,-46.447,2.7486
21989,22.618,0.36364,0.1,3.0513e-05,304.92,2.9648e-05,283.26,-8.0418e-06,0.075282,-1.3311e-05,-39.513,2.7019
21990,22.71,0.45455,0.1,2.8861e-05,288.41,2.7844e-05,263.57,-7.2293e-06,0.04059,-1.3161e-05,-44.529,2.7175
21991,22.434,0.36364,0.1,3.4368e-05,343.45,3.3555e-05,322.68,-9.382e-06,0.070286,-1.4497e-05,-38.364,2.6708
21992,22.526,0.45455,0.1,3.2653e-05,326.31,3.1713e-05,302.79,-8.5807e-06,0.039826,-1.4286e-05,-42.83,2.6865
21993,22.249,0.36364,0.1,3.8253e-05,382.27,3.7483e-05,362.29,-1.0726e-05,0.065533,-1.5697e-05,-37.286,2.6398
21994,22.342,0.45455,0.1,3.6486e-05,364.61,3.5608e-05,342.22,-9.9339e-06,0.038517,-1.5434e-05,-41.289,2.6554
21995,22.065,0.36364,0.1,4.2162e-05,421.33,4.1428e-05,402.05,-1.2073e-05,0.061068,-1.6908e-05,-36.263,2.6088
21996,22.157,0.45455,0.1,4.0352e-05,403.24,3.9526e-05,381.84,-1.1289e-05,0.036861,-1.66e-05,-39.867,2.6244
21997,21.881,0.36364,0.1,4.6091e-05,460.6,4.539e-05,441.96,-1.3424e-05,0.056935,-1.8128e-05,-35.284,2.5779
21998,21.973,0.45455,0.1,4.4244e-05,442.13,4.3463e-05,421.62,-1.2647e-05,0.035077,-1.7781e-05,-38.539,2.5935
21999,21.697,0.36364,0.1,5.004e-05,500.05,4.9367e-05,482.02,-1.4778e-05,0.053126,-1.9356e-05,-34.341,2.5469
22000,21.789,0.45455,0.1,4.816e-05,481.26,4.7417e-05,461.55,-1.4007e-05,0.033269,-1.8974e-05,-37.29,2.5625
22001,21.512,0.36364,0.1,5.4005e-05,539.68,5.3359e-05,522.21,-1.6136e-05,0.049621,-2.0592e-05,-33.432,2.516
22002,21.605,0.45455,0.1,5.2096e-05,520.6,5.1388e-05,501.63,-1.537e-05,0.031489,-2.0179e-05,-36.107,2.5316
22003,21.328,0.36364,0.1,5.7988e-05,579.48,5.7366e-05,562.53,-1.7497e-05,0.046407,-2.1836e-05,-32.554,2.4852
22004,21.42,0.45455,0.1,5.6053e-05,560.14,5.5376e-05,541.84,-1.6735e-05,0.029767,-2.1395e-05,-34.983,2.5007
22005,21.144,0.36364,0.1,6.1986e-05,619.44,6.1387e-05,602.99,-1.8861e-05,0.043463,-2.3087e-05,-31.706,2.4543
22006,21.236,0.45455,0.1,6.0028e-05,599.86,5.9379e-05,582.2,-1.8103e-05,0.028135,-2.262e-05,-33.913,2.4699
22007,20.96,0.36364,0.1,6.6002e-05,659.56,6.5422e-05,643.59,-2.0229e-05,0.040769,-2.4345e-05,-30.886,2.4236
22008,21.052,0.45455,0.1,6.4021e-05,639.76,6.3398e-05,622.7,-1.9474e-05,0.026597,-2.3856e-05,-32.892,2.4391
22009,20.775,0.36364,0.1,7.0033e-05,699.85,6.9473e-05,684.33,-2.1601e-05,0.038298,-2.5611e-05,-30.093,2.3928
22010,20.867,0.45455,0.1,6.8031e-05,679.84,6.7432e-05,663.33,-2.0849e-05,0.025163,-2.51e-05,-31.917,2.4083
22011,20.591,0.36364,0.1,7.4081e-05,740.29,7.3539e-05,725.21,-2.2976e-05,0.036024,-2.6884e-05,-29.327,2.3621
22012,20.683,0.45455,0.1,7.206e-05,720.1,7.1483e-05,704.12,-2.2226e-05,0.023814,-2.6353e-05,-30.985,2.3776
22013,20.407,0.36364,0.1,7.8145e-05,780.91,7.762e-05,766.24,-2.4356e-05,0.033937,-2.8165e-05,-28.588,2.3315
22014,20.499,0.45455,0.1,7.6106e-05,760.53,7.5549e-05,745.05,-2.3608e-05,0.022548,-2.7616e-05,-30.093,2.3469
22015,20.223,0.36364,0.1,8.2226e-05,821.69,8.1717e-05,807.41,-2.5739e-05,0.032024,-2.9454e-05,-27.876,2.3009
22016,20.315,0.45455,0.1,8.0169e-05,801.14,7.9632e-05,786.13,-2.4992e-05,0.021383,-2.8887e-05,-29.241,2.3163
22017,20.038,0.36364,0.1,8.6324e-05,862.64,8.583e-05,848.74,-2.7127e-05,0.030272,-3.075e-05,-27.188,2.2703
22018,20.13,0.45455,0.1,8.4251e-05,841.93,8.3732e-05,827.37,-2.6381e-05,0.020298,-3.0167e-05,-28.426,2.2857
22019,19.854,0.36364,0.1,9.0439e-05,903.77,8.9959e-05,890.23,-2.8519e-05,0.028663,-3.2053e-05,-26.526,2.2398
22020,19.946,0.45455,0.1,8.8351e-05,882.9,8.7848e-05,868.76,-2.7774e-05,0.019304,-3.1456e-05,-27.646,2.2552
22021,19.67,0.36364,0.1,9.4572e-05,945.07,9.4106e-05,931.87,-2.9915e-05,0.027171,-3.3365e-05,-25.888,2.2094
22022,19.762,0.45455,0.1,9.2468e-05,924.05,9.1982e-05,910.31,-2.9171e-05,0.018374,-3.2753e-05,-26.901,2.2247
22023,19.485,0.36364,0.1,9.8723e-05,986.55,9.8269e-05,973.68,-3.1317e-05,0.025795,-3.4684e-05,-25.274,2.179
22024,19.578,0.45455,0.1,9.6604e-05,965.38,9.6133e-05,952.03,-3.0572e-05,0.017497,-3.406e-05,-26.188,2.1943
22025,19.301,0.36364,0.1,0.00010289,1028.2,0.00010245,1015.7,-3.2722e-05,0.024532,-3.6011e-05,-24.683,2.1487
22026,19.393,0.45455,0.1,0.00010076,1006.9,0.0001003,993.91,-3.1978e-05,0.016695,-3.5375e-05,-25.506,2.164
22027,19.117,0.36364,0.1,0.00010708,1070.1,0.00010665,1057.8,-3.4133e-05,0.023376,-3.7346e-05,-24.115,2.1185
22028,19.209,0.45455,0.1,0.00010493,1048.6,0.00010449,1036,-3.3388e-05,0.015955,-3.6698e-05,-24.854,2.1337
22029,18.933,0.36364,0.1,0.00011128,1112.1,0.00011087,1100.1,-3.5549e-05,0.02231,-3.8688e-05,-23.568,2.0883
22030,19.025,0.45455,0.1,0.00010912,1090.5,0.00010869,1078.2,-3.4803e-05,0.015282,-3.803e-05,-24.23,2.1036
22031,18.748,0.36364,0.1,0.00011551,1154.3,0.0001151,1142.6,-3.6969e-05,0.021312,-4.0039e-05,-23.042,2.0582
22032,18.841,0.45455,0.1,0.00011334,1132.6,0.00011292,1120.6,-3.6223e-05,0.014645,-3.937e-05,-23.634,2.0734
22033,18.564,0.36364,0.1,0.00011975,1196.7,0.00011935,1185.3,-3.8395e-05,0.020386,-4.1397e-05,-22.536,2.0282
22034,18.656,0.45455,0.1,0.00011757,1174.9,0.00011716,1163.2,-3.7648e-05,0.01404,-4.0719e-05,-23.063,2.0434
22035,18.38,0.36364,0.1,0.00012401,1239.3,0.00012363,1228.1,-3.9826e-05,0.019535,-4.2763e-05,-22.05,1.9983
22036,18.472,0.45455,0.1,0.00012182,1217.3,0.00012142,1205.9,-3.9078e-05,0.013489,-4.2076e-05,-22.517,2.0134
22037,18.196,0.36364,0.1,0.0001283,1282.1,0.00012792,1271.2,-4.1263e-05,0.018756,-4.4138e-05,-21.581,1.9684
22038,18.288,0.45455,0.1,0.00012609,1260,0.0001257,1248.9,-4.0513e-05,0.01298,-4.3442e-05,-21.993,1.9835
22039,18.011,0.36364,0.1,0.0001326,1325.1,0.00013223,1314.4,-4.2705e-05,0.018034,-4.5519e-05,-21.131,1.9386
22040,18.103,0.45455,0.1,0.00013037,1302.8,0.00013,1292,-4.1954e-05,0.012523,-4.4816e-05,-21.492,1.9537
22041,17.827,0.36364,0.1,0.00013692,1368.2,0.00013655,1357.8,-4.4152e-05,0.017346,-4.6909e-05,-20.696,1.9089
22042,17.919,0.45455,0.1,0.00013468,1345.9,0.00013431,1335.3,-4.34e-05,0.012082,-4.6198e-05,-21.011,1.924
22043,17.643,0.36364,0.1,0.00014126,1411.6,0.0001409,1401.4,-4.5606e-05,0.016704,-4.8307e-05,-20.278,1.8794
22044,17.735,0.45455,0.1,0.00013901,1389.2,0.00013865,1378.8,-4.4851e-05,0.011652,-4.7588e-05,-20.55,1.8944
22045,17.459,0.36364,0.1,0.00014562,1455.2,0.00014527,1445.1,-4.7065e-05,0.016113,-4.9712e-05,-19.874,1.8499
22046,17.551,0.45455,0.1,0.00014336,1432.6,0.00014301,1422.5,-4.6309e-05,0.011266,-4.8986e-05,-20.106,1.8648
22047,17.274,0.36364,0.1,0.00015,1498.9,0.00014966,1489.1,-4.8529e-05,0.01557,-5.1125e-05,-19.484,1.8205
22048,17.366,0.45455,0.1,0.00014773,1476.3,0.00014738,1466.3,-4.7771e-05,0.010907,-5.0392e-05,-19.68,1.8354
22049,17.09,0.36364,0.1,0.0001544,1542.9,0.00015406,1533.3,-5e-05,0.015061,-5.2545e-05,-19.107,1.7912
22050,17.182,0.45455,0.1,0.00015212,1520.1,0.00015178,1510.4,-4.924e-05,0.010589,-5.1806e-05,-19.269,1.806
22051,16.906,0.36364,0.1,0.00015882,1587.1,0.00015849,1577.6,-5.1477e-05,0.014564,-5.3973e-05,-18.742,1.762
22052,16.998,0.45455,0.1,0.00015653,1564.2,0.0001562,1554.7,-5.0715e-05,0.010272,-5.3228e-05,-18.873,1.7768
22053,16.721,0.36364,0.1,0.00016325,1631.4,0.00016293,1622.2,-5.296e-05,0.014092,-5.5409e-05,-18.388,1.7329
22054,16.814,0.45455,0.1,0.00016095,1608.4,0.00016063,1599.1,-5.2195e-05,0.0099509,-5.4658e-05,-18.491,1.7477
22055,16.537,0.36364,0.1,0.00016771,1676,0.0001674,1666.9,-5.4448e-05,0.013655,-5.6852e-05,-18.045,1.7039
22056,16.629,0.45455,0.1,0.0001654,1652.9,0.00016509,1643.7,-5.3682e-05,0.0096648,-5.6095e-05,-18.121,1.7186
22057,16.353,0.36364,0.1,0.00017219,1720.7,0.00017189,1711.8,-5.5943e-05,0.013252,-5.8302e-05,-17.711,1.675
22058,16.445,0.45455,0.1,0.00016987,1697.5,0.00016956,1688.6,-5.5174e-05,0.0093949,-5.754e-05,-17.762,1.6897
22059,16.169,0.36364,0.1,0.00017669,1765.7,0.00017639,1757,-5.7444e-05,0.012866,-5.976e-05,-17.386,1.6463
22060,16.261,0.45455,0.1,0.00017436,1742.4,0.00017406,1733.6,-5.6673e-05,0.0091596,-5.8992e-05,-17.414,1.6609
22061,15.984,0.36364,0.1,0.00018121,1810.9,0.00018092,1802.3,-5.8952e-05,0.012474,-6.1225e-05,-17.069,1.6177
22062,16.077,0.45455,0.1,0.00017887,1787.4,0.00017857,1778.9,-5.8178e-05,0.0089116,-6.0452e-05,-17.074,1.6322
22063,15.8,0.36364,0.1,0.00018575,1856.2,0.00018546,1847.8,-6.0465e-05,0.012095,-6.2697e-05,-16.759,1.5892
22064,15.892,0.45455,0.1,0.0001834,1832.7,0.00018311,1824.3,-5.9689e-05,0.0086511,-6.1919e-05,-16.743,1.6037
22065,15.616,0.36364,0.1,0.00019031,1901.8,0.00019003,1893.5,-6.1985e-05,0.011737,-6.4177e-05,-16.455,1.5608
22066,15.708,0.45455,0.1,0.00018795,1878.2,0.00018766,1869.9,-6.1207e-05,0.0084171,-6.3393e-05,-16.419,1.5752
22067,15.432,0.36364,0.1,0.00019489,1947.6,0.00019461,1939.5,-6.3512e-05,0.011402,-6.5663e-05,-16.156,1.5325
22068,15.524,0.45455,0.1,0.00019252,1923.8,0.00019224,1915.7,-6.273e-05,0.0081942,-6.4874e-05,-16.101,1.5469
22069,15.247,0.36364,0.1,0.00019949,1993.6,0.00019922,1985.6,-6.5044e-05,0.011072,-6.7157e-05,-15.861,1.5044
22070,15.339,0.45455,0.1,0.00019711,1969.7,0.00019683,1961.8,-6.4261e-05,0.0079986,-6.6363e-05,-15.788,1.5187
22071,15.063,0.36364,0.1,0.00020411,2039.7,0.00020384,2031.9,-6.6584e-05,0.010722,-6.8657e-05,-15.57,1.4764
22072,15.155,0.45455,0.1,0.00020172,2015.8,0.00020145,2008,-6.5797e-05,0.0077799,-6.7858e-05,-15.479,1.4907
22073,14.879,0.36364,0.1,0.00020875,2086.1,0.00020849,2078.4,-6.813e-05,0.010371,-7.0165e-05,-15.282,1.4485
22074,14.971,0.45455,0.1,0.00020635,2062,0.00020608,2054.4,-6.734e-05,0.0075386,-6.9361e-05,-15.173,1.4628
22075,14.695,0.36364,0.1,0.00021342,2132.7,0.00021316,2125.1,-6.9682e-05,0.010034,-7.1679e-05,-14.995,1.4208
22076,14.787,0.45455,0.1,0.000211,2108.5,0.00021074,2101,-6.889e-05,0.0073194,-7.087e-05,-14.869,1.435
22077,14.51,0.36364,0.1,0.0002181,2179.5,0.00021784,2172.1,-7.1241e-05,0.009709,-7.32e-05,-14.709,1.3933
22078,14.602,0.45455,0.1,0.00021567,2155.2,0.00021542,2147.9,-7.0447e-05,0.0071048,-7.2386e-05,-14.565,1.4074
22079,14.326,0.36364,0.1,0.0002228,2226.4,0.00022255,2219.2,-7.2807e-05,0.0093776,-7.4728e-05,-14.423,1.3658
22080,14.418,0.45455,0.1,0.00022036,2202.1,0.00022011,2194.9,-7.201e-05,0.0069123,-7.3909e-05,-14.262,1.3799
22081,14.142,0.36364,0.1,0.00022752,2273.6,0.00022728,2266.5,-7.4379e-05,0.0090113,-7.6262e-05,-14.136,1.3386
22082,14.234,0.45455,0.1,0.00022507,2249.1,0.00022483,2242.1,-7.3579e-05,0.0066882,-7.5438e-05,-13.957,1.3525
22083,13.957,0.36364,0.1,0.00023226,2321,0.00023202,2314.1,-7.5959e-05,0.0086337,-7.7803e-05,-13.847,1.3114
22084,14.05,0.45455,0.1,0.0002298,2296.4,0.00022956,2289.6,-7.5156e-05,0.0064293,-7.6973e-05,-13.649,1.3253
22085,13.773,0.36364,0.1,0.00023702,2368.6,0.00023679,2361.8,-7.7545e-05,0.0082597,-7.935e-05,-13.555,1.2845
22086,13.865,0.45455,0.1,0.00023455,2343.9,0.00023432,2337.2,-7.6739e-05,0.0061895,-7.8515e-05,-13.338,1.2983
22087,13.589,0.36364,0.1,0.00024181,2416.4,0.00024158,2409.7,-7.9138e-05,0.0078878,-8.0903e-05,-13.259,1.2577
22088,13.681,0.45455,0.1,0.00023932,2391.6,0.0002391,2385,-7.833e-05,0.0059464,-8.0063e-05,-13.021,1.2714
22089,13.405,0.36364,0.1,0.00024661,2464.4,0.00024639,2457.9,-8.0738e-05,0.0074986,-8.2463e-05,-12.957,1.231
22090,13.497,0.45455,0.1,0.00024411,2439.4,0.00024389,2433.1,-7.9927e-05,0.0057214,-8.1618e-05,-12.699,1.2447
22091,13.22,0.36364,0.1,0.00025143,2512.6,0.00025121,2506.2,-8.2345e-05,0.0070583,-8.4029e-05,-12.649,1.2045
22092,13.313,0.45455,0.1,0.00024892,2487.5,0.00024871,2481.3,-8.1531e-05,0.0054535,-8.3178e-05,-12.369,1.2181
22093,13.036,0.36364,0.1,0.00025628,2561,0.00025606,2554.8,-8.3959e-05,0.0065935,-8.5601e-05,-12.334,1.1782
22094,13.128,0.45455,0.1,0.00025376,2535.8,0.00025355,2529.8,-8.3142e-05,0.0051398,-8.4744e-05,-12.029,1.1918
22095,12.852,0.36364,0.1,0.00026114,2609.6,0.00026093,2603.6,-8.558e-05,0.0061215,-8.7179e-05,-12.009,1.1521
22096,12.944,0.45455,0.1,0.00025861,2584.3,0.00025841,2578.4,-8.4761e-05,0.004839,-8.6316e-05,-11.68,1.1656
22097,12.668,0.36364,0.1,0.00026602,2658.4,0.00026582,2652.5,-8.7208e-05,0.0056401,-8.8762e-05,-11.675,1.1261
22098,12.76,0.45455,0.1,0.00026348,2633,0.00026328,2627.3,-8.6386e-05,0.0045273,-8.7893e-05,-11.318,1.1395
22099,12.483,0.36364,0.1,0.00027093,2707.4,0.00027073,2701.7,-8.8843e-05,0.0051256,-9.0352e-05,-11.328,1.1004
22100,12.575,0.45455,0.1,0.00026837,2681.8,0.00026818,2676.4,-8.8019e-05,0.0042274,-8.9476e-05,-10.943,1.1137
22101,12.299,0.36364,0.1,0.00027585,2756.6,0.00027566,2751.1,-9.0486e-05,0.0045426,-9.1947e-05,-10.969,1.0748
22102,12.391,0.45455,0.1,0.00027328,2730.9,0.0002731,2725.6,-8.9659e-05,0.0038717,-9.1064e-05,-10.553,1.088
22103,12.115,0.36364,0.1,0.00028079,2806,0.00028061,2800.7,-9.2137e-05,0.0039195,-9.3547e-05,-10.595,1.0494
22104,12.207,0.45455,0.1,0.00027821,2780.2,0.00027804,2775.1,-9.1307e-05,0.0034581,-9.2657e-05,-10.145,1.0625
22105,11.931,0.36364,0.1,0.00028576,2855.6,0.00028558,2850.5,-9.3794e-05,0.0032736,-9.5153e-05,-10.205,1.0242
22106,12.023,0.45455,0.1,0.00028316,2829.7,0.000283,2824.8,-9.2962e-05,0.0030465,-9.4256e-05,-9.7188,1.0372
22107,11.746,0.36364,0.1,0.00029074,2905.4,0.00029058,2900.5,-9.546e-05,0.0026029,-9.6764e-05,-9.7972,0.99913
22108,11.838,0.45455,0.1,0.00028813,2879.4,0.00028798,2874.7,-9.4625e-05,0.0026141,-9.5859e-05,-9.2714,1.0121
22109,11.562,0.36364,0.1,0.00029575,2955.5,0.00029559,2950.8,-9.7133e-05,0.0018807,-9.838e-05,-9.3693,0.9743
22110,11.654,0.45455,0.1,0.00029313,2929.2,0.00029298,2924.8,-9.6295e-05,0.0021836,-9.7467e-05,-8.8007,0.98714
22111,11.378,0.36364,0.1,0.00030077,3005.7,0.00030062,3001.2,-9.8813e-05,0.0010672,-0.0001,-8.9196,0.94967
22112,11.47,0.45455,0.1,0.00029814,2979.3,0.00029799,2975.2,-9.7973e-05,0.0016809,-9.9079e-05,-8.3046,0.96242
22113,11.193,0.36364,0.1,0.00030582,3056.1,0.00030568,3051.9,-0.0001005,0.000193,-0.00010163,-8.4461,0.92524
22114,11.286,0.45455,0.1,0.00030317,3029.6,0.00030303,3025.7,-9.966e-05,0.0011013,-0.0001007,-7.7808,0.9379
22115,11.009,0.36364,0.1,0.00031089,3106.7,0.00031075,3102.7,-0.0001022,-0.00072255,-0.00010326,-7.9466,0.90102
22116,11.101,0.45455,0.1,0.00030822,3080.1,0.0003081,3076.4,-0.00010135,0.0005138,-0.00010232,-7.2266,0.91358
22117,10.825,0.36364,0.1,0.00031597,3157.5,0.00031585,3153.8,-0.0001039,-0.0016821,-0.00010489,-7.4187,0.87702
22118,10.917,0.45455,0.1,0.00031329,3130.7,0.00031318,3127.4,-0.00010306,-0.00011113,-0.00010394,-6.6393,0.88948
22119,10.641,0.36364,0.1,0.00032108,3208.6,0.00032096,3205.1,-0.00010562,-0.0027146,-0.00010653,-6.8601,0.85322
22120,10.733,0.45455,0.1,0.00031838,3181.6,0.00031828,3178.6,-0.00010477,-0.00074957,-0.00010557,-6.0161,0.86558
22121,10.456,0.36364,0.1,0.00032621,3259.8,0.0003261,3256.7,-0.00010734,-0.00386,-0.00010817,-6.2684,0.82964
22122,10.549,0.45455,0.1,0.00032349,3232.7,0.0003234,3230,-0.00010649,-0.0014832,-0.0001072,-5.354,0.8419
22123,10.272,0.36364,0.1,0.00033135,3311.3,0.00033126,3308.4,-0.00010907,-0.005074,-0.00010982,-5.6407,0.80629
22124,10.364,0.45455,0.1,0.00032862,3283.9,0.00032854,3281.6,-0.00010821,-0.0023142,-0.00010883,-4.65,0.81844
22125,10.088,0.36364,0.1,0.00033652,3362.9,0.00033644,3360.4,-0.00011081,-0.0063396,-0.00011147,-4.9744,0.78315
22126,10.18,0.45455,0.1,0.00033377,3335.4,0.0003337,3333.4,-0.00010995,-0.0031606,-0.00011047,-3.9004,0.7952
22127,9.9036,0.36364,0.1,0.00034171,3414.8,0.00034164,3412.6,-0.00011255,-0.0076713,-0.00011312,-4.2666,0.76025
22128,9.9957,0.45455,0.1,0.00033894,3387.1,0.00033889,3385.5,-0.0001117,-0.0040858,-0.00011211,-3.1022,0.77219
22129,9.7193,0.36364,0.1,0.00034692,3466.8,0.00034686,3465,-0.00011431,-0.009029,-0.00011478,-3.5145,0.73757
22130,9.8115,0.45455,0.1,0.00034413,3438.9,0.00034409,3437.8,-0.00011345,-0.0050879,-0.00011375,-2.2515,0.74941
22131,9.5351,0.36364,0.1,0.00035215,3519.1,0.0003521,3517.7,-0.00011608,-0.010334,-0.00011644,-2.715,0.71513
22132,9.6272,0.45455,0.1,0.00034934,3491,0.00034932,3490.3,-0.00011522,-0.006161,-0.00011539,-1.3448,0.72686
22133,9.3508,0.36364,0.1,0.0003574,3571.5,0.00035737,3570.6,-0.00011785,-0.011321,-0.0001181,-1.8654,0.69293
22134,9.4429,0.45455,0.1,0.00035457,3543.2,0.00035456,3543,-0.00011699,-0.00731,-0.00011704,-0.37826,0.70454
22135,9.1665,0.36364,0.1,0.00036267,3624.2,0.00036266,3623.7,-0.00011963,-0.010597,-0.00011976,-0.96405,0.67098
22136,9.2587,0.45455,0.1,0.00035982,3595.7,0.00035983,3596,-0.00011868,0.65203,-0.00011877,-0.0086346,0.68247
22137,8.9823,0.36364,0.1,0.00036796,3677.1,0.00036796,3677.1,-0.00012142,0.066106,-0.00012144,-0.082323,0.64926
22138,9.0744,0.45455,0.1,0.00036508,3648.3,0.00036511,3649.2,-0.00012033,1.7497,-0.00012057,-0.0099958,0.66064
22139,8.798,0.36364,0.1,0.00037328,3730.2,0.00037329,3730.7,-0.00012309,1.0275,-0.00012323,-0.026057,0.6278
22140,8.8901,0.45455,0.1,0.00037037,3701.2,0.00037042,3702.6,-0.00012198,2.9186,-0.00012237,-0.011479,0.63906
22141,8.6137,0.36364,0.1,0.00037861,3783.5,0.00037865,3784.5,-0.00012476,2.1069,-0.00012505,-0.026021,0.60659
22142,8.7059,0.45455,0.1,0.00037568,3754.2,0.00037575,3756.3,-0.00012363,4.1622,-0.00012418,-0.013085,0.61773
22143,8.4295,0.36364,0.1,0.00038397,3837,0.00038402,3838.6,-0.00012644,3.2522,-0.00012687,-0.027911,0.58563
22144,8.5216,0.45455,0.1,0.00038101,3807.5,0.0003811,3810.2,-0.00012527,5.4839,-0.00012601,-0.014823,0.59665
22145,8.2452,0.36364,0.1,0.00038934,3890.7,0.00038942,3892.9,-0.00012811,4.464,-0.00012871,-0.030453,0.56494
22146,8.3373,0.45455,0.1,0.00038636,3860.9,0.00038647,3864.3,-0.00012692,6.8863,-0.00012784,-0.016703,0.57583
22147,8.0609,0.36364,0.1,0.00039474,3944.6,0.00039483,3947.5,-0.00012978,5.7429,-0.00013055,-0.033395,0.54451
22148,8.1531,0.45455,0.1,0.00039172,3914.5,0.00039186,3918.7,-0.00012857,8.3718,-0.00012968,-0.018735,0.55528
22149,7.8767,0.36364,0.1,0.00040015,3998.8,0.00040027,4002.3,-0.00013146,7.0889,-0.0001324,-0.036659,0.52435
22150,7.9688,0.45455,0.1,0.00039711,3968.4,0.00039728,3973.3,-0.00013021,9.9415,-0.00013154,-0.02093,0.53499
22151,7.6924,0.36364,0.1,0.00040559,4053.1,0.00040573,4057.3,-0.00013313,8.5011,-0.00013427,-0.040217,0.50446
22152,7.7845,0.45455,0.1,0.00040251,4022.4,0.00040271,4028.1,-0.00013186,11.596,-0.00013341,-0.0233,0.51497
22153,7.5081,0.36364,0.1,0.00041104,4107.6,0.00041121,4112.5,-0.00013481,9.9766,-0.00013614,-0.044058,0.48484
22154,7.6003,0.45455,0.1,0.00040794,4076.6,0.00040816,4083.2,-0.0001335,13.333,-0.00013528,-0.025859,0.49522
22155,7.3239,0.36364,0.1,0.00041652,4162.3,0.00041671,4168,-0.00013649,11.511,-0.00013802,-0.048179,0.4655
22156,7.416,0.45455,0.1,0.00041338,4130.9,0.00041363,4138.5,-0.00013515,15.15,-0.00013717,-0.028618,0.47575
22157,7.1396,0.36364,0.1,0.00042201,4217.1,0.00042223,4223.6,-0.00013816,13.096,-0.00013991,-0.052576,0.44645
22158,7.2317,0.45455,0.1,0.00041884,4185.5,0.00041912,4194,-0.00013679,17.04,-0.00013906,-0.031592,0.45656
22159,6.9553,0.36364,0.1,0.00042751,4272.1,0.00042776,4279.5,-0.00013984,14.723,-0.00014181,-0.057245,0.42768
22160,7.0475,0.45455,0.1,0.00042431,4240.2,0.00042463,4249.6,-0.00013843,18.995,-0.00014096,-0.034793,0.43765
22161,6.7711,0.36364,0.1,0.00043303,4327.3,0.0004333,4335.4,-0.00014153,16.377,-0.00014371,-0.062178,0.40921
22162,6.8632,0.45455,0.1,0.0004298,4295,0.00043015,4305.4,-0.00014007,21.001,-0.00014287,-0.038237,0.41903
22163,6.5868,0.36364,0.1,0.00043855,4382.5,0.00043885,4391.4,-0.00014321,18.038,-0.00014562,-0.067362,0.39102
22164,6.6789,0.45455,0.1,0.00043529,4349.9,0.00043568,4361.4,-0.00014172,23.041,-0.00014479,-0.041939,0.40071
22165,6.4025,0.36364,0.1,0.00044408,4437.7,0.00044441,4447.5,-0.0001449,19.683,-0.00014753,-0.072778,0.37314
22166,6.4947,0.45455,0.1,0.0004408,4404.9,0.00044122,4417.4,-0.00014336,25.09,-0.00014671,-0.045916,0.38268
22167,6.2183,0.36364,0.1,0.0004496,4492.9,0.00044996,4503.5,-0.00014659,21.279,-0.00014943,-0.078396,0.35555
22168,6.3104,0.45455,0.1,0.0004463,4459.9,0.00044676,4473.4,-0.00014501,27.117,-0.00014862,-0.050186,0.36495
22169,6.034,0.36364,0.1,0.00045512,4548,0.0004555,4559.3,-0.00014828,22.785,-0.00015132,-0.084183,0.33827
22170,6.1261,0.45455,0.1,0.0004518,4514.9,0.00045229,4529.3,-0.00014666,29.081,-0.00015054,-0.054771,0.34752
22171,5.8497,0.36364,0.1,0.0004606,4602.9,0.00046101,4614.9,-0.00014998,24.152,-0.0001532,-0.090094,0.3213
22172,5.9419,0.45455,0.1,0.00045729,4569.7,0.00045781,4585.1,-0.00014832,30.931,-0.00015244,-0.0597,0.3304
22173,5.6655,0.36364,0.1,0.00046605,4657.3,0.00046648,4669.9,-0.00015168,25.316,-0.00015506,-0.096085,0.30465
22174,5.7576,0.45455,0.1,0.00046275,4624.3,0.00046329,4640.5,-0.00014998,32.603,-0.00015432,-0.065016,0.31359
22175,5.4812,0.36364,0.1,0.00047144,4711.2,0.00047188,4724.1,-0.00015338,26.203,-0.00015688,-0.10211,0.28831
22176,5.5733,0.45455,0.1,0.00046817,4678.5,0.00046874,4695.3,-0.00015165,34.018,-0.00015618,-0.070781,0.29709
22177,5.2969,0.36364,0.1,0.00047674,4764.1,0.00047719,4777.4,-0.00015508,26.719,-0.00015865,-0.10817,0.27229
22178,5.3891,0.45455,0.1,0.00047352,4732,0.00047411,4749.4,-0.00015332,35.08,-0.000158,-0.077102,0.28091
22179,5.1127,0.36364,0.1,0.00048191,4815.8,0.00048236,4829.1,-0.00015679,26.754,-0.00016036,-0.11432,0.25659
22180,5.2048,0.45455,0.1,0.00047879,4784.6,0.00047938,4802.3,-0.00015501,35.672,-0.00015977,-0.08416,0.26506
22181,4.9284,0.36364,0.1,0.00048692,4865.8,0.00048736,4878.8,-0.00015849,26.179,-0.00016199,-0.1208,0.24122
22182,5.0205,0.45455,0.1,0.00048393,4835.9,0.00048452,4853.6,-0.00015671,35.656,-0.00016147,-0.092285,0.24953
22183,4.7441,0.36364,0.1,0.00049169,4913.5,0.00049211,4925.8,-0.00016017,24.84,-0.0001635,-0.12828,0.22619
22184,4.8363,0.45455,0.1,0.00048889,4885.5,0.00048947,4902.8,-0.00015841,34.867,-0.00016307,-0.1021,0.23433
22185,4.5599,0.36364,0.1,0.00049615,4958.1,0.00049653,4969.3,-0.00016184,22.563,-0.00016486,-0.13844,0.21148
22186,4.652,0.45455,0.1,0.00049361,4932.7,0.00049416,4949.1,-0.00016012,33.115,-0.00016454,-0.11484,0.21946
22187,4.3756,0.36364,0.1,0.0005002,4998.6,0.00050052,5008.1,-0.00016346,19.153,-0.00016603,-0.15586,0.19712
22188,4.4677,0.45455,0.1,0.00049801,4976.7,0.00049852,4991.6,-0.00016181,30.182,-0.00016585,-0.13316,0.20493
22189,4.1913,0.36364,0.1,0.00050371,5033.7,0.00050395,5040.8,-0.00016501,14.402,-0.00016696,-0.19541,0.18309
22190,4.2835,0.45455,0.1,0.00050199,5016.4,0.00050242,5029.2,-0.00016349,25.825,-0.00016695,-0.1635,0.19073
22191,4.0071,0.36364,0.1,0.00050652,5061.7,0.00050665,5065.6,-0.00016645,8.1452,-0.00016758,-0.33218,0.16941
22192,4.0992,0.45455,0.1,0.00050541,5050.6,0.00050574,5060.4,-0.00016512,19.79,-0.00016778,-0.22511,0.17688
22193,3.8228,0.36364,0.1,0.00050841,5080.6,0.0005084,5080.4,-0.00016756,1.4787,-0.00016801,-1.9131,0.15607
22194,3.9149,0.45455,0.1,0.00050809,5077.4,0.00050829,5083.1,-0.00016666,11.868,-0.00016829,-0.40457,0.16337
22195,3.6385,0.36364,0.1,0.00050912,5087.7,0.00050893,5082.3,-0.00016743,0.31155,-0.00016895,-11.091,0.14307
22196,3.7307,0.45455,0.1,0.00050982,5094.7,0.00050984,5095.2,-0.00016791,2.9149,-0.00016854,-1.8583,0.15021
22197,3.4543,0.36364,0.1,0.00050832,5079.7,0.00050791,5067.9,-0.00016655,0.21058,-0.00016973,-23.648,0.13043
22198,3.5464,0.45455,0.1,0.00051032,5099.7,0.00051012,5093.7,-0.00016774,0.52553,-0.00016947,-12.471,0.13739
22199,3.27,0.36364,0.1,0.00050559,5052.4,0.00050492,5033,-0.0001649,0.20435,-0.00017009,-38.758,0.11812
22200,3.3621,0.45455,0.1,0.00050923,5088.8,0.00050875,5074.9,-0.00016663,0.30625,-0.00017041,-28.097,0.12492
22201,3.0857,0.36364,0.1,0.00050044,5000.9,0.00049946,4972.6,-0.00016232,0.22842,-0.00016986,-56.384,0.10616
22202,3.1779,0.45455,0.1,0.00050612,5057.7,0.00050531,5034.3,-0.00016467,0.25869,-0.00017095,-46.893,0.11279
22203,2.9015,0.36364,0.1,0.00049224,4919,0.0004909,4880.5,-0.00015862,0.26769,-0.00016882,-76.34,0.094544
22204,2.9936,0.45455,0.1,0.00050046,5001.1,0.00049926,4966.5,-0.00016171,0.26033,-0.0001709,-68.74,0.10101
22205,2.7172,0.36364,0.1,0.00048028,4799.5,0.00047854,4749.8,-0.00015358,0.31548,-0.00016669,-98.15,0.083258
22206,2.8093,0.45455,0.1,0.00049158,4912.4,0.00048993,4865.2,-0.00015755,0.28774,-0.00017002,-93.381,0.089564
22207,2.5329,0.36364,0.1,0.00046373,4634.1,0.00046156,4572.6,-0.00014697,0.36761,-0.00016311,-120.94,0.072296
22208,2.6251,0.45455,0.1,0.00047873,4784,0.00047658,4722.9,-0.00015196,0.33494,-0.00016801,-120.23,0.078452
22209,2.3487,0.36364,0.1,0.00044166,4413.5,0.00043905,4340.3,-0.00013855,0.42521,-0.00015768,-143.31,0.061648
22210,2.4408,0.45455,0.1,0.00046103,4607.1,0.00045833,4531.4,-0.0001447,0.4019,-0.00016449,-148.26,0.067663
22211,2.1644,0.36364,0.1,0.00041314,4128.5,0.00041012,4044.7,-0.00012812,0.49864,-0.00014993,-163.34,0.051298
22212,2.2565,0.45455,0.1,0.00043753,4372.3,0.00043428,4281.9,-0.00013554,0.49951,-0.00015903,-175.98,0.057184
22213,1.9801,0.36364,0.1,0.00037735,3770.9,0.000374,3678.7,-0.00011551,0.65583,-0.00013939,-178.74,0.041226
22214,2.0723,0.45455,0.1,0.00040734,4070.6,0.00040354,3966.3,-0.00012426,0.64452,-0.00015117,-201.54,0.046998
22215,1.7959,0.36364,0.1,0.00033385,3336.2,0.00033028,3238.9,-0.00010066,0.9983,-0.00012577,-187.64,0.03141
22216,1.888,0.45455,0.1,0.0003698,3695.4,0.00036551,3579.1,-0.00011072,0.9491,-0.00014057,-223.34,0.037083
22217,1.6116,0.36364,0.1,0.00028308,2828.9,0.00027938,2729.7,-8.3626e-05,2.209,-0.0001093,-190.66,0.021826
22218,1.7037,0.45455,0.1,0.00032501,3247.9,0.00032023,3120.7,-9.4922e-05,1.4236,-0.00012732,-242,0.027415
22219,1.4273,0.36364,0.1,0.00022781,2276.5,0.0002238,2172,-6.4756e-05,3.8694,-9.1799e-05,-199.32,0.012482
22220,1.5195,0.45455,0.1,0.00027479,2746,0.00026936,2605.3,-7.6984e-05,3.0682,-0.00011264,-264.8,0.017976
22221,1.2431,0.36364,0.1,0.00018006,1799.3,0.00017382,1649.5,-4.428e-05,10.792,-8.2443e-05,-275.95,0.0038577
22222,1.3352,0.45455,0.1,0.00022559,2254.3,0.00021836,2076.4,-5.7604e-05,2.9067,-0.00010101,-323.23,0.0088196
22223,1.1509,0.45455,0.1,0.00020132,2011.8,0.0001865,1689,-3.6649e-05,12.318,-0.0001104,-541.86,0.0026841
22224,1.0588,0.36364,0.1,0.00013077,1306.8,0.00012367,1141.3,-2.8834e-05,-4.5099,-6.5744e-05,-281.84,0.0068901
22225,23.724,0.54545,0.1,1.1306e-05,112.98,8.098e-06,56.677,5.4847e-07,-0.047389,-9.2181e-06,-73.429,2.8885
22226,23.816,0.63636,0.1,1.1113e-05,111.05,6.765e-06,39.173,1.552e-06,0.0041586,-9.9155e-06,-86.158,2.9042
22227,23.908,0.54545,0.1,9.4158e-06,94.093,4.8985e-06,22.024,1.9199e-06,-0.35624,-8.8453e-06,-81.241,2.9197
22228,23.539,0.54545,0.1,1.3832e-05,138.22,1.1468e-05,92.759,-8.9081e-07,-0.10113,-9.6733e-06,-66.089,2.8574
22229,23.631,0.63636,0.1,1.3202e-05,131.93,1.007e-05,75.061,5.2786e-08,-0.20381,-1.0205e-05,-77.277,2.8731
22230,23.355,0.54545,0.1,1.6858e-05,168.46,1.4987e-05,129.74,-2.2846e-06,-0.027447,-1.0352e-05,-60.641,2.8263
22231,23.447,0.63636,0.1,1.5916e-05,159.05,1.3508e-05,111.76,-1.3735e-06,-0.048427,-1.0726e-05,-70.317,2.842
22232,23.171,0.54545,0.1,2.0183e-05,201.69,1.862e-05,167.42,-3.6652e-06,-0.01647,-1.1181e-05,-56.484,2.7952
22233,23.263,0.63636,0.1,1.9017e-05,190.04,1.7063e-05,149.09,-2.7851e-06,-0.041967,-1.1415e-05,-64.88,2.8109
22234,22.987,0.54545,0.1,2.3692e-05,236.75,2.2335e-05,205.65,-5.0361e-06,-0.0028844,-1.2111e-05,-53.158,2.7642
22235,23.079,0.63636,0.1,2.2362e-05,223.46,2.071e-05,186.99,-4.1792e-06,-0.018958,-1.2227e-05,-60.487,2.7798
22236,22.802,0.54545,0.1,2.7319e-05,273,2.611e-05,244.3,-6.403e-06,0.003242,-1.311e-05,-50.391,2.7331
22237,22.894,0.63636,0.1,2.5866e-05,258.48,2.4426e-05,225.33,-5.565e-06,-0.010092,-1.3129e-05,-56.842,2.7487
22238,22.618,0.54545,0.1,3.1027e-05,310.06,2.993e-05,283.26,-7.7679e-06,0.0073611,-1.4158e-05,-48.007,2.7021
22239,22.71,0.63636,0.1,2.948e-05,294.6,2.8196e-05,264.03,-6.9452e-06,-0.003165,-1.4096e-05,-53.729,2.7177
22240,22.434,0.54545,0.1,3.4794e-05,347.7,3.3785e-05,322.48,-9.1323e-06,0.0096916,-1.5242e-05,-45.9,2.671
22241,22.526,0.63636,0.1,3.3172e-05,331.49,3.2008e-05,303.03,-8.3224e-06,0.00098914,-1.5111e-05,-51.008,2.6866
22242,22.249,0.54545,0.1,3.8605e-05,385.79,3.7668e-05,361.91,-1.0497e-05,0.011057,-1.6355e-05,-43.999,2.64
22243,22.342,0.63636,0.1,3.6922e-05,368.96,3.5855e-05,342.27,-9.6978e-06,0.0037885,-1.6165e-05,-48.585,2.6556
22244,22.065,0.54545,0.1,4.2452e-05,424.23,4.1575e-05,401.52,-1.1863e-05,0.011772,-1.7489e-05,-42.261,2.609
22245,22.157,0.63636,0.1,4.0718e-05,406.89,3.9729e-05,381.71,-1.1073e-05,0.0056047,-1.7248e-05,-46.394,2.6246
22246,21.881,0.54545,0.1,4.6329e-05,462.97,4.5504e-05,441.31,-1.323e-05,0.012082,-1.8642e-05,-40.653,2.5781
22247,21.973,0.63636,0.1,4.455e-05,445.2,4.3629e-05,421.34,-1.2447e-05,0.006787,-1.8356e-05,-44.392,2.5936
22248,21.697,0.54545,0.1,5.0232e-05,501.97,4.9451e-05,481.26,-1.4598e-05,0.012127,-1.9811e-05,-39.155,2.5472
22249,21.789,0.63636,0.1,4.8415e-05,483.81,4.7551e-05,461.14,-1.3822e-05,0.0075367,-1.9486e-05,-42.545,2.5627
22250,21.512,0.54545,0.1,5.4158e-05,541.21,5.3417e-05,521.35,-1.5969e-05,0.011994,-2.0994e-05,-37.75,2.5163
22251,21.605,0.63636,0.1,5.2307e-05,522.71,5.1493e-05,501.1,-1.5199e-05,0.0079797,-2.0634e-05,-40.83,2.5318
22252,21.328,0.54545,0.1,5.8106e-05,580.66,5.7401e-05,561.59,-1.7341e-05,0.011749,-2.2191e-05,-36.428,2.4854
22253,21.42,0.63636,0.1,5.6224e-05,561.85,5.5454e-05,541.21,-1.6576e-05,0.0082061,-2.1798e-05,-39.231,2.5009
22254,21.144,0.54545,0.1,6.2074e-05,620.31,6.1401e-05,601.98,-1.8716e-05,0.011439,-2.34e-05,-35.18,2.4546
22255,21.236,0.63636,0.1,6.0165e-05,601.23,5.9434e-05,581.48,-1.7955e-05,0.0082926,-2.2978e-05,-37.733,2.4701
22256,20.96,0.54545,0.1,6.6062e-05,660.16,6.5418e-05,642.51,-2.0094e-05,0.011097,-2.462e-05,-33.999,2.4238
22257,21.052,0.63636,0.1,6.4127e-05,640.83,6.3432e-05,621.9,-1.9336e-05,0.0082768,-2.4172e-05,-36.326,2.4393
22258,20.775,0.54545,0.1,7.0069e-05,700.21,6.9452e-05,683.19,-2.1474e-05,0.010733,-2.5852e-05,-32.88,2.3931
22259,20.867,0.63636,0.1,6.8111e-05,680.64,6.7448e-05,662.47,-2.072e-05,0.0082031,-2.5379e-05,-35.001,2.4085
22260,20.591,0.54545,0.1,7.4095e-05,740.44,7.3503e-05,724.02,-2.2858e-05,0.010351,-2.7094e-05,-31.818,2.3624
22261,20.683,0.63636,0.1,7.2115e-05,720.65,7.1481e-05,703.19,-2.2106e-05,0.0080706,-2.6599e-05,-33.753,2.3778
22262,20.407,0.54545,0.1,7.814e-05,780.86,7.7571e-05,765.01,-2.4244e-05,0.0099747,-2.8346e-05,-30.811,2.3317
22263,20.499,0.63636,0.1,7.6139e-05,760.87,7.5533e-05,744.06,-2.3494e-05,0.0078973,-2.7831e-05,-32.574,2.3472
22264,20.223,0.54545,0.1,8.2204e-05,821.47,8.1656e-05,806.14,-2.5634e-05,0.0096113,-2.9609e-05,-29.853,2.3011
22265,20.315,0.63636,0.1,8.0184e-05,801.28,7.9602e-05,785.09,-2.4886e-05,0.0077161,-2.9074e-05,-31.461,2.3165
22266,20.038,0.54545,0.1,8.6287e-05,862.27,8.5758e-05,847.44,-2.7028e-05,0.009264,-3.0881e-05,-28.943,2.2706
22267,20.13,0.63636,0.1,8.4248e-05,841.9,8.3689e-05,826.28,-2.6281e-05,0.007523,-3.0329e-05,-30.408,2.286
22268,19.854,0.54545,0.1,9.0388e-05,903.26,8.9878e-05,888.9,-2.8426e-05,0.0089324,-3.2164e-05,-28.078,2.2401
22269,19.946,0.63636,0.1,8.8332e-05,882.71,8.7795e-05,867.64,-2.768e-05,0.0073346,-3.1595e-05,-29.412,2.2555
22270,19.67,0.54545,0.1,9.4509e-05,944.43,9.4016e-05,930.52,-2.9827e-05,0.0086042,-3.3456e-05,-27.255,2.2097
22271,19.762,0.63636,0.1,9.2435e-05,923.72,9.1918e-05,909.16,-2.9082e-05,0.0071374,-3.2872e-05,-28.47,2.225
22272,19.485,0.54545,0.1,9.8648e-05,985.8,9.8171e-05,972.3,-3.1233e-05,0.0082924,-3.4758e-05,-26.473,2.1793
22273,19.578,0.63636,0.1,9.6559e-05,964.92,9.606e-05,950.84,-3.0488e-05,0.0069284,-3.4159e-05,-27.577,2.1947
22274,19.301,0.54545,0.1,0.00010281,1027.4,0.00010235,1014.3,-3.2643e-05,0.0080059,-3.6069e-05,-25.728,2.149
22275,19.393,0.63636,0.1,0.0001007,1006.3,0.00010022,992.7,-3.1898e-05,0.0067366,-3.5457e-05,-26.731,2.1643
22276,19.117,0.54545,0.1,0.00010699,1069.1,0.00010654,1056.4,-3.4058e-05,0.0077429,-3.7389e-05,-25.019,2.1188
22277,19.209,0.63636,0.1,0.00010487,1047.9,0.0001044,1034.7,-3.3313e-05,0.0065517,-3.6765e-05,-25.93,2.1341
22278,18.933,0.54545,0.1,0.00011118,1111.1,0.00011075,1098.7,-3.5477e-05,0.0074944,-3.8718e-05,-24.345,2.0887
22279,19.025,0.63636,0.1,0.00010905,1089.7,0.0001086,1076.9,-3.4732e-05,0.0063875,-3.8082e-05,-25.17,2.1039
22280,18.748,0.54545,0.1,0.0001154,1153.2,0.00011498,1141.2,-3.6902e-05,0.0072478,-4.0057e-05,-23.702,2.0586
22281,18.841,0.63636,0.1,0.00011325,1131.7,0.00011282,1119.3,-3.6155e-05,0.0062171,-3.941e-05,-24.449,2.0738
22282,18.564,0.54545,0.1,0.00011964,1195.6,0.00011923,1183.8,-3.8331e-05,0.0070158,-4.1405e-05,-23.09,2.0286
22283,18.656,0.63636,0.1,0.00011748,1173.9,0.00011705,1161.9,-3.7583e-05,0.0060407,-4.0747e-05,-23.764,2.0437
22284,18.38,0.54545,0.1,0.00012389,1238.1,0.0001235,1226.7,-3.9765e-05,0.0068055,-4.2761e-05,-22.506,1.9986
22285,18.472,0.63636,0.1,0.00012172,1216.3,0.00012131,1204.6,-3.9016e-05,0.0058854,-4.2093e-05,-23.114,2.0138
22286,18.196,0.54545,0.1,0.00012817,1280.8,0.00012778,1269.7,-4.1204e-05,0.0066178,-4.4126e-05,-21.948,1.9688
22287,18.288,0.63636,0.1,0.00012598,1259,0.00012558,1247.6,-4.0454e-05,0.0057402,-4.3449e-05,-22.496,1.9839
22288,18.011,0.54545,0.1,0.00013247,1323.8,0.00013209,1312.9,-4.2649e-05,0.0064418,-4.55e-05,-21.416,1.939
22289,18.103,0.63636,0.1,0.00013027,1301.8,0.00012988,1290.7,-4.1898e-05,0.0056181,-4.4814e-05,-21.908,1.9541
22290,17.827,0.54545,0.1,0.00013678,1366.9,0.00013642,1356.3,-4.4099e-05,0.006259,-4.6882e-05,-20.907,1.9094
22291,17.919,0.63636,0.1,0.00013457,1344.8,0.00013419,1334,-4.3346e-05,0.0054879,-4.6188e-05,-21.347,1.9244
22292,17.643,0.54545,0.1,0.00014112,1410.2,0.00014076,1399.9,-4.5554e-05,0.006086,-4.8273e-05,-20.42,1.8798
22293,17.735,0.63636,0.1,0.0001389,1388,0.00013853,1377.5,-4.48e-05,0.0053451,-4.7571e-05,-20.813,1.8948
22294,17.459,0.54545,0.1,0.00014548,1453.8,0.00014513,1443.7,-4.7015e-05,0.0059342,-4.9672e-05,-19.954,1.8503
22295,17.551,0.63636,0.1,0.00014324,1431.4,0.00014288,1421.2,-4.626e-05,0.0052247,-4.8962e-05,-20.302,1.8653
22296,17.274,0.54545,0.1,0.00014985,1497.5,0.00014951,1487.7,-4.8482e-05,0.0058018,-5.1079e-05,-19.506,1.8209
22297,17.366,0.63636,0.1,0.0001476,1475,0.00014726,1465,-4.7724e-05,0.0051159,-5.0362e-05,-19.814,1.8358
22298,17.09,0.54545,0.1,0.00015425,1541.5,0.00015392,1531.8,-4.9955e-05,0.0056756,-5.2494e-05,-19.075,1.7917
22299,17.182,0.63636,0.1,0.00015199,1518.9,0.00015165,1509.1,-4.9195e-05,0.0050293,-5.1771e-05,-19.347,1.8065
22300,16.906,0.54545,0.1,0.00015867,1585.6,0.00015834,1576.2,-5.1433e-05,0.0055363,-5.3918e-05,-18.661,1.7625
22301,16.998,0.63636,0.1,0.0001564,1562.9,0.00015607,1553.3,-5.0671e-05,0.0049279,-5.3187e-05,-18.898,1.7773
22302,16.721,0.54545,0.1,0.00016311,1629.9,0.00016279,1620.7,-5.2918e-05,0.0054028,-5.5349e-05,-18.262,1.7334
22303,16.814,0.63636,0.1,0.00016082,1607.1,0.0001605,1597.8,-5.2154e-05,0.0048115,-5.4612e-05,-18.467,1.7482
22304,16.537,0.54545,0.1,0.00016756,1674.5,0.00016725,1665.5,-5.4408e-05,0.0052852,-5.6788e-05,-17.875,1.7044
22305,16.629,0.63636,0.1,0.00016527,1651.5,0.00016495,1642.4,-5.3642e-05,0.0047166,-5.6045e-05,-18.051,1.7191
22306,16.353,0.54545,0.1,0.00017204,1719.2,0.00017174,1710.4,-5.5904e-05,0.0051846,-5.8234e-05,-17.501,1.6756
22307,16.445,0.63636,0.1,0.00016974,1696.2,0.00016943,1687.3,-5.5136e-05,0.0046278,-5.7485e-05,-17.65,1.6902
22308,16.169,0.54545,0.1,0.00017654,1764.2,0.00017624,1755.6,-5.7407e-05,0.0050891,-5.9688e-05,-17.138,1.6468
22309,16.261,0.63636,0.1,0.00017422,1741,0.00017392,1732.3,-5.6636e-05,0.004565,-5.8934e-05,-17.261,1.6615
22310,15.984,0.54545,0.1,0.00018106,1809.3,0.00018077,1800.9,-5.8915e-05,0.0049743,-6.115e-05,-16.784,1.6182
22311,16.077,0.63636,0.1,0.00017873,1786.1,0.00017844,1777.6,-5.8142e-05,0.0044821,-6.039e-05,-16.883,1.6328
22312,15.8,0.54545,0.1,0.0001856,1854.7,0.00018531,1846.4,-6.043e-05,0.0048613,-6.2619e-05,-16.439,1.5897
22313,15.892,0.63636,0.1,0.00018326,1831.3,0.00018297,1823,-5.9655e-05,0.004379,-6.1853e-05,-16.515,1.6042
22314,15.616,0.54545,0.1,0.00019016,1900.2,0.00018988,1892.1,-6.1952e-05,0.0047636,-6.4095e-05,-16.1,1.5614
22315,15.708,0.63636,0.1,0.00018781,1876.8,0.00018753,1868.6,-6.1173e-05,0.0042982,-6.3324e-05,-16.155,1.5758
22316,15.432,0.54545,0.1,0.00019473,1946,0.00019446,1938.1,-6.3479e-05,0.0046818,-6.5579e-05,-15.767,1.5331
22317,15.524,0.63636,0.1,0.00019237,1922.4,0.0001921,1914.5,-6.2699e-05,0.0042226,-6.4802e-05,-15.802,1.5475
22318,15.247,0.54545,0.1,0.00019933,1992,0.00019907,1984.2,-6.5013e-05,0.0045992,-6.7069e-05,-15.439,1.505
22319,15.339,0.63636,0.1,0.00019696,1968.3,0.00019669,1960.5,-6.423e-05,0.0041709,-6.6287e-05,-15.455,1.5193
22320,15.063,0.54545,0.1,0.00020395,2038.1,0.00020369,2030.5,-6.6554e-05,0.0044915,-6.8566e-05,-15.115,1.477
22321,15.155,0.63636,0.1,0.00020157,2014.3,0.00020131,2006.7,-6.5768e-05,0.0040941,-6.778e-05,-15.112,1.4913
22322,14.879,0.54545,0.1,0.00020859,2084.5,0.00020834,2077.1,-6.8101e-05,0.0043835,-7.0071e-05,-14.793,1.4492
22323,14.971,0.63636,0.1,0.0002062,2060.6,0.00020594,2053.1,-6.7312e-05,0.0039916,-6.9279e-05,-14.771,1.4634
22324,14.695,0.54545,0.1,0.00021325,2131.1,0.000213,2123.8,-6.9655e-05,0.0042888,-7.1581e-05,-14.471,1.4215
22325,14.787,0.63636,0.1,0.00021085,2107,0.0002106,2099.8,-6.8863e-05,0.0039111,-7.0785e-05,-14.432,1.4356
22326,14.51,0.54545,0.1,0.00021793,2177.8,0.00021769,2170.7,-7.1215e-05,0.0042087,-7.3099e-05,-14.15,1.3939
22327,14.602,0.63636,0.1,0.00021552,2153.7,0.00021527,2146.6,-7.0421e-05,0.0038357,-7.2297e-05,-14.093,1.408
22328,14.326,0.54545,0.1,0.00022263,2224.8,0.00022239,2217.8,-7.2782e-05,0.0041256,-7.4623e-05,-13.827,1.3665
22329,14.418,0.63636,0.1,0.00022021,2200.5,0.00021997,2193.6,-7.1985e-05,0.0037851,-7.3816e-05,-13.753,1.3805
22330,14.142,0.54545,0.1,0.00022735,2271.9,0.00022712,2265.2,-7.4356e-05,0.004011,-7.6153e-05,-13.501,1.3392
22331,14.234,0.63636,0.1,0.00022491,2247.6,0.00022468,2240.9,-7.3556e-05,0.0037039,-7.5341e-05,-13.409,1.3532
22332,13.957,0.54545,0.1,0.00023209,2319.3,0.00023186,2312.7,-7.5937e-05,0.0038924,-7.769e-05,-13.17,1.3121
22333,14.05,0.63636,0.1,0.00022964,2294.8,0.00022942,2288.3,-7.5134e-05,0.0035916,-7.6873e-05,-13.061,1.326
22334,13.773,0.54545,0.1,0.00023685,2366.9,0.00023663,2360.4,-7.7524e-05,0.003786,-7.9233e-05,-12.834,1.2852
22335,13.865,0.63636,0.1,0.00023439,2342.3,0.00023417,2335.9,-7.6719e-05,0.0035018,-7.841e-05,-12.707,1.299
22336,13.589,0.54545,0.1,0.00024163,2414.6,0.00024142,2408.4,-7.9119e-05,0.0036925,-8.0782e-05,-12.491,1.2584
22337,13.681,0.63636,0.1,0.00023916,2390,0.00023895,2383.8,-7.831e-05,0.0034154,-7.9954e-05,-12.345,1.2721
22338,13.405,0.54545,0.1,0.00024643,2462.6,0.00024622,2456.5,-8.072e-05,0.003592,-8.2336e-05,-12.14,1.2318
22339,13.497,0.63636,0.1,0.00024395,2437.8,0.00024374,2431.8,-7.9909e-05,0.0033533,-8.1503e-05,-11.974,1.2454
22340,13.22,0.54545,0.1,0.00025125,2510.8,0.00025105,2504.9,-8.2328e-05,0.0034544,-8.3897e-05,-11.778,1.2053
22341,13.313,0.63636,0.1,0.00024876,2485.9,0.00024856,2480,-8.1515e-05,0.0032558,-8.3058e-05,-11.593,1.2189
22342,13.036,0.54545,0.1,0.00025609,2559.1,0.00025589,2553.4,-8.3944e-05,0.0033089,-8.5462e-05,-11.405,1.179
22343,13.128,0.63636,0.1,0.00025359,2534.1,0.00025339,2528.5,-8.3128e-05,0.0031226,-8.4618e-05,-11.198,1.1925
22344,12.852,0.54545,0.1,0.00026095,2607.7,0.00026076,2602.2,-8.5567e-05,0.0031732,-8.7034e-05,-11.018,1.1529
22345,12.944,0.63636,0.1,0.00025843,2582.5,0.00025825,2577.1,-8.4748e-05,0.0030108,-8.6184e-05,-10.788,1.1663
22346,12.668,0.54545,0.1,0.00026583,2656.5,0.00026565,2651.1,-8.7197e-05,0.0030489,-8.861e-05,-10.615,1.127
22347,12.76,0.63636,0.1,0.0002633,2631.2,0.00026312,2626,-8.6375e-05,0.0029009,-8.7754e-05,-10.362,1.1403
22348,12.483,0.54545,0.1,0.00027073,2705.4,0.00027055,2700.3,-8.8835e-05,0.0029148,-9.0192e-05,-10.195,1.1012
22349,12.575,0.63636,0.1,0.00026819,2680,0.00026802,2675,-8.801e-05,0.0028171,-8.933e-05,-9.9167,1.1144
22350,12.299,0.54545,0.1,0.00027565,2754.6,0.00027548,2749.7,-9.048e-05,0.0027371,-9.1778e-05,-9.7564,1.0756
22351,12.391,0.63636,0.1,0.00027309,2729,0.00027293,2724.3,-8.9652e-05,0.0026934,-9.091e-05,-9.4504,1.0888
22352,12.115,0.54545,0.1,0.00028059,2803.9,0.00028043,2799.3,-9.2132e-05,0.0025455,-9.337e-05,-9.296,1.0502
22353,12.207,0.63636,0.1,0.00027802,2778.3,0.00027786,2773.8,-9.1302e-05,0.0025286,-9.2495e-05,-8.9606,1.0633
22354,11.931,0.54545,0.1,0.00028554,2853.5,0.00028539,2849,-9.3792e-05,0.0023604,-9.4965e-05,-8.8118,1.025
22355,12.023,0.63636,0.1,0.00028296,2827.7,0.00028282,2823.5,-9.2959e-05,0.0023876,-9.4083e-05,-8.4448,1.038
22356,11.746,0.54545,0.1,0.00029052,2903.2,0.00029038,2899,-9.546e-05,0.0021845,-9.6565e-05,-8.3014,1
22357,11.838,0.63636,0.1,0.00028793,2877.3,0.00028779,2873.3,-9.4624e-05,0.0022492,-9.5676e-05,-7.9003,1.0129
22358,11.562,0.54545,0.1,0.00029552,2953.1,0.00029539,2949.3,-9.7136e-05,0.0019942,-9.8169e-05,-7.7623,0.97519
22359,11.654,0.63636,0.1,0.00029291,2927.1,0.00029279,2923.4,-9.6297e-05,0.0021408,-9.7273e-05,-7.3242,0.988
22360,11.378,0.54545,0.1,0.00030053,3003.3,0.00030041,2999.7,-9.882e-05,0.0017522,-9.9777e-05,-7.1918,0.95058
22361,11.47,0.63636,0.1,0.00029791,2977.1,0.0002978,2973.7,-9.7979e-05,0.0019936,-9.8872e-05,-6.7136,0.96329
22362,11.193,0.54545,0.1,0.00030557,3053.6,0.00030546,3050.3,-0.00010051,0.0014943,-0.00010139,-6.5869,0.92617
22363,11.286,0.63636,0.1,0.00030294,3027.3,0.00030283,3024.2,-9.9668e-05,0.001811,-0.00010048,-6.0655,0.93878
22364,11.009,0.54545,0.1,0.00031063,3104.1,0.00031052,3101.1,-0.00010221,0.0012441,-0.000103,-5.9447,0.90196
22365,11.101,0.63636,0.1,0.00030798,3077.6,0.00030788,3074.9,-0.00010137,0.0016739,-0.00010208,-5.3761,0.91448
22366,10.825,0.54545,0.1,0.0003157,3154.8,0.00031561,3152.2,-0.00010392,0.001004,-0.00010462,-5.2617,0.87797
22367,10.917,0.63636,0.1,0.00031303,3128.2,0.00031296,3125.9,-0.00010307,0.0015723,-0.00010369,-4.6421,0.89039
22368,10.641,0.54545,0.1,0.00032079,3205.7,0.00032072,3203.5,-0.00010564,0.00075437,-0.00010624,-4.5347,0.85419
22369,10.733,0.63636,0.1,0.00031811,3178.9,0.00031805,3177,-0.00010479,0.0015659,-0.0001053,-3.8595,0.86651
22370,10.456,0.54545,0.1,0.00032591,3256.8,0.00032584,3254.9,-0.00010736,0.00046812,-0.00010786,-3.76,0.83063
22371,10.549,0.63636,0.1,0.00032321,3229.9,0.00032316,3228.4,-0.00010651,0.0016538,-0.00010691,-3.0245,0.84284
22372,10.272,0.54545,0.1,0.00033104,3308.1,0.00033099,3306.6,-0.0001091,0.00021671,-0.00010949,-2.9339,0.80728
22373,10.364,0.63636,0.1,0.00032833,3281,0.00032829,3279.9,-0.00010824,0.0020587,-0.00010853,-2.1332,0.81939
22374,10.088,0.54545,0.1,0.00033619,3359.6,0.00033616,3358.6,-0.00011084,9.8912e-05,-0.00011111,-2.0525,0.78416
22375,10.18,0.63636,0.1,0.00033346,3332.3,0.00033344,3331.7,-0.00010998,0.0038595,-0.00011014,-1.1817,0.79617
22376,9.9036,0.54545,0.1,0.00034136,3411.3,0.00034134,3410.7,-0.00011259,0.00048683,-0.00011274,-1.1119,0.76127
22377,9.9957,0.63636,0.1,0.00033861,3383.8,0.00033861,3383.7,-0.00011173,0.029362,-0.00011176,-0.18789,0.77317
22378,9.7193,0.54545,0.1,0.00034655,3463.1,0.00034655,3463.1,-0.00011435,0.015274,-0.00011437,-0.12179,0.73861
22379,9.8115,0.63636,0.1,0.00034378,3435.4,0.0003438,3435.9,-0.00011337,0.93973,-0.0001135,-0.0079568,0.7504
22380,9.5351,0.54545,0.1,0.00035176,3515.2,0.00035178,3515.6,-0.000116,0.97129,-0.00011613,-0.0045136,0.71619
22381,9.6272,0.63636,0.1,0.00034897,3487.3,0.00034901,3488.3,-0.00011498,2.1033,-0.00011526,-0.0050678,0.72786
22382,9.3508,0.54545,0.1,0.00035699,3567.4,0.00035702,3568.5,-0.00011763,2.117,-0.00011791,-0.003966,0.694
22383,9.4429,0.63636,0.1,0.00035418,3539.3,0.00035423,3541,-0.0001166,3.3505,-0.00011704,-0.0045855,0.70556
22384,9.1665,0.54545,0.1,0.00036223,3619.8,0.00036229,3621.5,-0.00011926,3.341,-0.0001197,-0.0042576,0.67205
22385,9.2587,0.63636,0.1,0.0003594,3591.5,0.00035948,3593.9,-0.00011821,4.6852,-0.00011884,-0.0046758,0.6835
22386,8.9823,0.54545,0.1,0.0003675,3672.4,0.00036758,3674.8,-0.00012089,4.6473,-0.0001215,-0.0047907,0.65036
22387,9.0744,0.63636,0.1,0.00036464,3643.9,0.00036475,3647,-0.00011982,6.1123,-0.00012064,-0.0050217,0.66169
22388,8.798,0.54545,0.1,0.00037278,3725.2,0.00037288,3728.2,-0.00012251,6.0402,-0.00012332,-0.0054599,0.62891
22389,8.8901,0.63636,0.1,0.00036991,3696.5,0.00037003,3700.3,-0.00012143,7.6372,-0.00012245,-0.0055239,0.64012
22390,8.6137,0.54545,0.1,0.00037808,3778.2,0.00037821,3782,-0.00012414,7.524,-0.00012514,-0.0062369,0.60771
22391,8.7059,0.63636,0.1,0.00037518,3749.2,0.00037534,3753.9,-0.00012304,9.2652,-0.00012427,-0.0061478,0.6188
22392,8.4295,0.54545,0.1,0.0003834,3831.4,0.00038356,3835.9,-0.00012576,9.1025,-0.00012697,-0.0071143,0.58677
22393,8.5216,0.63636,0.1,0.00038048,3802.2,0.00038066,3807.6,-0.00012464,11.001,-0.0001261,-0.0068784,0.59774
22394,8.2452,0.54545,0.1,0.00038874,3884.7,0.00038892,3890.1,-0.00012738,10.779,-0.00012882,-0.0080943,0.56608
22395,8.3373,0.63636,0.1,0.00038579,3855.2,0.00038601,3861.7,-0.00012624,12.85,-0.00012795,-0.0077135,0.57693
22396,8.0609,0.54545,0.1,0.0003941,3938.3,0.00039431,3944.5,-0.000129,12.555,-0.00013068,-0.0091832,0.54567
22397,8.1531,0.63636,0.1,0.00039112,3908.5,0.00039137,3915.9,-0.00012783,14.815,-0.0001298,-0.008656,0.55639
22398,7.8767,0.54545,0.1,0.00039947,3992,0.00039972,3999.2,-0.00013062,14.434,-0.00013254,-0.010391,0.52552
22399,7.9688,0.63636,0.1,0.00039647,3961.9,0.00039675,3970.3,-0.00012942,16.9,-0.00013167,-0.0097129,0.53611
22400,7.6924,0.54545,0.1,0.00040487,4045.9,0.00040514,4054.1,-0.00013223,16.413,-0.00013442,-0.011731,0.50564
22401,7.7845,0.63636,0.1,0.00040183,4015.5,0.00040215,4025,-0.00013101,19.106,-0.00013355,-0.010895,0.5161
22402,7.5081,0.54545,0.1,0.00041028,4099.9,0.00041059,4109.1,-0.00013384,18.492,-0.00013631,-0.013219,0.48603
22403,7.6003,0.63636,0.1,0.00040721,4069.3,0.00040757,4079.9,-0.00013259,21.433,-0.00013544,-0.012217,0.49636
22404,7.3239,0.54545,0.1,0.0004157,4154.2,0.00041605,4164.4,-0.00013545,20.666,-0.00013821,-0.014874,0.46671
22405,7.416,0.63636,0.1,0.0004126,4123.2,0.000413,4135.1,-0.00013416,23.879,-0.00013734,-0.013695,0.4769
22406,7.1396,0.54545,0.1,0.00042114,4208.5,0.00042153,4219.9,-0.00013706,22.927,-0.00014011,-0.016719,0.44766
22407,7.2317,0.63636,0.1,0.00041801,4177.2,0.00041846,4190.4,-0.00013573,26.438,-0.00013925,-0.015352,0.45772
22408,6.9553,0.54545,0.1,0.0004266,4263,0.00042702,4275.6,-0.00013866,25.262,-0.00014203,-0.018784,0.42891
22409,7.0475,0.63636,0.1,0.00042343,4231.4,0.00042392,4245.9,-0.0001373,29.101,-0.00014117,-0.017213,0.43883
22410,6.7711,0.54545,0.1,0.00043206,4317.7,0.00043253,4331.4,-0.00014027,27.655,-0.00014395,-0.0211,0.41044
22411,6.8632,0.63636,0.1,0.00042887,4285.7,0.0004294,4301.6,-0.00013886,31.855,-0.0001431,-0.019312,0.42022
22412,6.5868,0.54545,0.1,0.00043754,4372.4,0.00043804,4387.3,-0.00014187,30.083,-0.00014588,-0.023711,0.39227
22413,6.6789,0.63636,0.1,0.00043432,4340.2,0.0004349,4357.4,-0.00014042,34.679,-0.00014504,-0.021687,0.4019
22414,6.4025,0.54545,0.1,0.00044302,4427.1,0.00044356,4443.3,-0.00014348,32.515,-0.00014781,-0.026668,0.37439
22415,6.4947,0.63636,0.1,0.00043977,4394.7,0.0004404,4413.3,-0.00014198,37.547,-0.00014698,-0.024388,0.38388
22416,6.2183,0.54545,0.1,0.0004485,4481.9,0.00044909,4499.3,-0.00014508,34.911,-0.00014973,-0.030037,0.35681
22417,6.3104,0.63636,0.1,0.00044523,4449.2,0.0004459,4469.3,-0.00014354,40.422,-0.00014893,-0.027479,0.36616
22418,6.034,0.54545,0.1,0.00045398,4536.6,0.0004546,4555.1,-0.0001467,37.219,-0.00015166,-0.033901,0.33954
22419,6.1261,0.63636,0.1,0.00045068,4503.7,0.0004514,4525.2,-0.0001451,43.257,-0.00015087,-0.031038,0.34873
22420,5.8497,0.54545,0.1,0.00045944,4591.2,0.00046009,4610.7,-0.00014832,39.374,-0.00015356,-0.038371,0.32258
22421,5.9419,0.63636,0.1,0.00045614,4558.2,0.0004569,4581,-0.00014667,45.993,-0.0001528,-0.035168,0.33162
22422,5.6655,0.54545,0.1,0.00046487,4645.5,0.00046556,4666,-0.00014995,41.297,-0.00015545,-0.043595,0.30593
22423,5.7576,0.63636,0.1,0.00046157,4612.5,0.00046238,4636.6,-0.00014825,48.553,-0.00015472,-0.040006,0.31482
22424,5.4812,0.54545,0.1,0.00047026,4699.3,0.00047097,4720.6,-0.00015159,42.887,-0.00015731,-0.049779,0.28959
22425,5.5733,0.63636,0.1,0.00046698,4666.5,0.00046782,4691.7,-0.00014984,50.844,-0.00015662,-0.045738,0.29833
22426,5.2969,0.54545,0.1,0.00047558,4752.5,0.00047631,4774.3,-0.00015325,44.025,-0.00015912,-0.057218,0.27358
22427,5.3891,0.63636,0.1,0.00047234,4720.1,0.00047321,4746.2,-0.00015145,52.75,-0.00015848,-0.052624,0.28216
22428,5.1127,0.54545,0.1,0.0004808,4804.7,0.00048155,4826.8,-0.00015493,44.565,-0.00016087,-0.066362,0.25789
22429,5.2048,0.63636,0.1,0.00047763,4773,0.00047853,4799.8,-0.00015308,54.131,-0.0001603,-0.061042,0.2663
22430,4.9284,0.54545,0.1,0.0004859,4855.6,0.00048664,4877.6,-0.00015663,44.334,-0.00016254,-0.077922,0.24253
22431,5.0205,0.63636,0.1,0.00048283,4825,0.00048374,4852.1,-0.00015474,54.817,-0.00016205,-0.071562,0.25078
22432,4.7441,0.54545,0.1,0.00049081,4904.7,0.00049153,4926.1,-0.00015835,43.131,-0.00016411,-0.093105,0.22749
22433,4.8363,0.63636,0.1,0.0004879,4875.6,0.00048881,4902.7,-0.00015643,54.609,-0.00016371,-0.085091,0.23558
22434,4.5599,0.54545,0.1,0.00049547,4951.3,0.00049615,4971.5,-0.00016009,40.722,-0.00016553,-0.11412,0.21279
22435,4.652,0.63636,0.1,0.00049278,4924.4,0.00049367,4950.8,-0.00015816,53.273,-0.00016526,-0.10315,0.22072
22436,4.3756,0.54545,0.1,0.0004998,4994.6,0.00050042,5012.8,-0.00016185,36.842,-0.00016677,-0.1455,0.19843
22437,4.4677,0.63636,0.1,0.00049742,4970.7,0.00049826,4995.8,-0.00015991,50.539,-0.00016666,-0.12851,0.20619
22438,4.1913,0.54545,0.1,0.00050369,5033.4,0.00050421,5048.8,-0.0001636,31.202,-0.00016778,-0.1979,0.18441
22439,4.2835,0.63636,0.1,0.00050171,5013.7,0.00050248,5036.5,-0.0001617,46.102,-0.00016786,-0.1667,0.192
22440,4.0071,0.54545,0.1,0.00050698,5066.3,0.00050737,5077.9,-0.00016532,23.508,-0.00016849,-0.30326,0.17073
22441,4.0992,0.63636,0.1,0.00050556,5052.1,0.00050622,5071.7,-0.00016351,39.631,-0.00016881,-0.23032,0.17815
22442,3.8228,0.54545,0.1,0.00050951,5091.6,0.00050973,5098,-0.00016697,13.564,-0.00016886,-0.61152,0.15739
22443,3.9149,0.63636,0.1,0.0005088,5084.5,0.00050932,5099.7,-0.00016531,30.785,-0.00016946,-0.35482,0.16464
22444,3.6385,0.54545,0.1,0.00051102,5106.7,0.00051102,5106.6,-0.00016822,3.085,-0.00016906,-3.1787,0.1444
22445,3.7307,0.63636,0.1,0.00051126,5109.1,0.00051158,5118.4,-0.00016707,19.313,-0.00016973,-0.68543,0.15148
22446,3.4543,0.54545,0.1,0.00051123,5108.8,0.00051095,5100.6,-0.00016781,0.70202,-0.00017016,-16.953,0.13176
22447,3.5464,0.63636,0.1,0.00051269,5123.3,0.00051275,5125.1,-0.00016854,6.2229,-0.00016971,-2.6273,0.13867
22448,3.27,0.54545,0.1,0.00050975,5094,0.00050913,5076,-0.00016639,0.41432,-0.00017126,-36.182,0.11947
22449,3.3621,0.63636,0.1,0.00051277,5124.2,0.00051251,5116.6,-0.0001683,1.2704,-0.00017064,-16.309,0.1262
22450,3.0857,0.54545,0.1,0.00050611,5057.6,0.00050509,5028,-0.00016405,0.33433,-0.00017196,-59.1,0.10752
22451,3.1779,0.63636,0.1,0.00051112,5107.7,0.00051047,5088.7,-0.00016671,0.70776,-0.0001719,-38.295,0.11408
22452,2.9015,0.54545,0.1,0.00049974,4994,0.00049824,4950.9,-0.00016064,0.31942,-0.00017206,-85.486,0.095915
22453,2.9936,0.63636,0.1,0.00050725,5069,0.00050612,5036.5,-0.00016412,0.56647,-0.00017283,-64.815,0.10231
22454,2.7172,0.54545,0.1,0.00048994,4896,0.00048789,4837.7,-0.00015593,0.34245,-0.00017127,-114.94,0.084648
22455,2.8093,0.63636,0.1,0.00050056,5002.2,0.00049888,4953.9,-0.00016038,0.53848,-0.00017318,-95.584,0.090887
22456,2.5329,0.54545,0.1,0.00047589,4755.7,0.00047323,4680.8,-0.00014969,0.39896,-0.00016927,-146.69,0.073712
22457,2.6251,0.63636,0.1,0.00049035,4900.1,0.00048801,4833.9,-0.00015527,0.57042,-0.00017269,-130.34,0.079799
22458,2.3487,0.54545,0.1,0.00045669,4563.7,0.00045337,4471.5,-0.00014168,0.4959,-0.00016565,-179.55,0.063097
22459,2.4408,0.63636,0.1,0.00047578,4754.5,0.0004727,4668.3,-0.00014853,0.65097,-0.00017105,-168.59,0.069041
22460,2.1644,0.54545,0.1,0.0004314,4311,0.00042741,4201.4,-0.00013168,0.64659,-0.00015998,-212,0.052789
22461,2.2565,0.63636,0.1,0.00045597,4556.6,0.00045206,4448.5,-0.0001399,0.78722,-0.00016791,-209.66,0.058602
22462,1.9801,0.54545,0.1,0.00039926,3989.9,0.00039459,3863.4,-0.00011947,0.90646,-0.0001519,-242.69,0.042768
22463,2.0723,0.63636,0.1,0.00043011,4298.1,0.00042525,4166.4,-0.00012913,0.98381,-0.00016294,-253.07,0.048466
22464,1.7959,0.54545,0.1,0.0003601,3598.5,0.00035471,3455.4,-0.00010499,1.2973,-0.00014137,-272,0.033012
22465,1.888,0.63636,0.1,0.0003977,3974.2,0.00039177,3816.6,-0.00011601,1.314,-0.00015605,-299.49,0.038613
22466,1.6116,0.54545,0.1,0.00031512,3149.1,0.00030883,2986,-8.8287e-05,2.2257,-0.00012927,-305.74,0.023495
22467,1.7037,0.63636,0.1,0.00035926,3590.2,0.00035196,3401.1,-0.00010047,1.6575,-0.00014774,-353.47,0.029018
22468,1.4273,0.54545,0.1,0.00026899,2688.1,0.00026089,2487,-6.9766e-05,2.5983,-0.00011889,-366.5,0.014209
22469,1.5195,0.63636,0.1,0.00031755,3173.3,0.00030809,2938.2,-8.259e-05,2.7953,-0.00014002,-428.74,0.019657
22470,1.2431,0.54545,0.1,0.00023757,2374.1,0.00022381,2061.5,-4.9594e-05,7.2749,-0.00012212,-537.66,0.0053717
22471,1.3352,0.63636,0.1,0.0002804,2802.1,0.0002665,2477.3,-6.3036e-05,1.2837,-0.00013834,-564.53,0.010548
22472,1.1509,0.63636,0.1,0.00027363,2734.4,0.00024715,2178.3,-4.1374e-05,10.493,-0.00016171,-893.65,0.0027543
22473,1.0588,0.54545,0.1,0.00018778,1876.5,0.00017239,1541.2,-3.3107e-05,-2.8753,-0.00010557,-547.32,0.0051242
22474,23.724,0.72727,0.1,1.2896e-05,128.87,8.7373e-06,57.559,1.0646e-06,-0.090182,-1.0911e-05,-90.071,2.8887
22475,23.816,0.81818,0.1,1.2664e-05,126.55,7.3318e-06,39.577,2.0581e-06,-0.047901,-1.1517e-05,-102.05,2.9043
22476,23.908,0.72727,0.1,1.1144e-05,111.37,5.5034e-06,22.322,2.4834e-06,-0.36902,-1.0596e-05,-98.642,2.9198
22477,23.539,0.72727,0.1,1.5243e-05,152.32,1.2119e-05,94.137,-4.2764e-07,-0.13438,-1.1269e-05,-81.595,2.8576
22478,23.631,0.81818,0.1,1.4638e-05,146.28,1.0683e-05,76.144,5.1678e-07,-0.23875,-1.1765e-05,-92.517,2.8732
22479,23.355,0.72727,0.1,1.8067e-05,180.54,1.5599e-05,131.22,-1.8728e-06,-0.054887,-1.1804e-05,-74.672,2.8265
22480,23.447,0.81818,0.1,1.7186e-05,171.74,1.4115e-05,113.16,-9.5592e-07,-0.076007,-1.2185e-05,-84.445,2.8421
22481,23.171,0.72727,0.1,2.1204e-05,211.89,1.9169e-05,168.77,-3.2984e-06,-0.039435,-1.2478e-05,-69.012,2.7954
22482,23.263,0.81818,0.1,2.0114e-05,201,1.7631e-05,150.52,-2.4109e-06,-0.065543,-1.2746e-05,-77.717,2.811
22483,22.987,0.72727,0.1,2.4552e-05,245.35,2.2817e-05,206.79,-4.7076e-06,-0.022634,-1.3262e-05,-64.3,2.7643
22484,23.079,0.81818,0.1,2.33e-05,232.84,2.1223e-05,188.3,-3.8432e-06,-0.039618,-1.3426e-05,-72.039,2.7799
22485,22.802,0.72727,0.1,2.8045e-05,280.26,2.6528e-05,245.19,-6.1068e-06,-0.013851,-1.4131e-05,-60.305,2.7333
22486,22.894,0.81818,0.1,2.6668e-05,266.5,2.4881e-05,226.46,-5.262e-06,-0.028416,-1.4202e-05,-67.2,2.7489
22487,22.618,0.72727,0.1,3.1642e-05,316.21,3.0289e-05,283.92,-7.4994e-06,-0.0074754,-1.5064e-05,-56.848,2.7022
22488,22.71,0.81818,0.1,3.0166e-05,301.45,2.8595e-05,264.96,-6.6707e-06,-0.019445,-1.5055e-05,-63.012,2.7178
22489,22.434,0.72727,0.1,3.5317e-05,352.92,3.4092e-05,322.93,-8.8876e-06,-0.0032676,-1.6048e-05,-53.803,2.6712
22490,22.526,0.81818,0.1,3.3759e-05,337.35,3.2355e-05,303.75,-8.0725e-06,-0.01355,-1.5968e-05,-59.335,2.6868
22491,22.249,0.72727,0.1,3.905e-05,390.23,3.7929e-05,362.17,-1.0273e-05,-0.00032466,-1.7072e-05,-51.082,2.6402
22492,22.342,0.81818,0.1,3.7425e-05,373.99,3.6154e-05,342.79,-9.4694e-06,-0.0092483,-1.693e-05,-56.064,2.6558
22493,22.065,0.72727,0.1,4.283e-05,428.01,4.1795e-05,401.62,-1.1657e-05,0.0017233,-1.8128e-05,-48.62,2.6092
22494,22.157,0.81818,0.1,4.1148e-05,411.2,3.9986e-05,382.06,-1.0863e-05,-0.0061337,-1.7932e-05,-53.12,2.6248
22495,21.881,0.72727,0.1,4.665e-05,466.17,4.5687e-05,441.26,-1.304e-05,0.0031613,-1.9212e-05,-46.372,2.5783
22496,21.973,0.81818,0.1,4.4919e-05,448.88,4.3847e-05,421.52,-1.2254e-05,-0.0038262,-1.8968e-05,-50.447,2.5938
22497,21.697,0.72727,0.1,5.0502e-05,504.68,4.9603e-05,481.07,-1.4423e-05,0.0041626,-2.032e-05,-44.303,2.5473
22498,21.789,0.81818,0.1,4.8729e-05,486.96,4.7735e-05,461.18,-1.3644e-05,-0.0021013,-2.0033e-05,-48.001,2.5629
22499,21.512,0.72727,0.1,5.4385e-05,543.47,5.354e-05,521.04,-1.5806e-05,0.004846,-2.1448e-05,-42.388,2.5165
22500,21.605,0.81818,0.1,5.2574e-05,525.37,5.1646e-05,501,-1.5034e-05,-0.00081087,-2.1123e-05,-45.75,2.532
22501,21.328,0.72727,0.1,5.8294e-05,582.54,5.7497e-05,561.17,-1.719e-05,0.0053059,-2.2595e-05,-40.608,2.4856
22502,21.42,0.81818,0.1,5.6449e-05,564.1,5.5579e-05,541,-1.6423e-05,0.00015762,-2.2235e-05,-43.668,2.5011
22503,21.144,0.72727,0.1,6.2228e-05,621.85,6.1474e-05,601.47,-1.8575e-05,0.0056055,-2.376e-05,-38.947,2.4548
22504,21.236,0.81818,0.1,6.0352e-05,603.11,5.9534e-05,581.16,-1.7813e-05,0.00090173,-2.3368e-05,-41.735,2.4703
22505,20.96,0.72727,0.1,6.6186e-05,661.4,6.547e-05,641.91,-1.9962e-05,0.005791,-2.494e-05,-37.393,2.424
22506,21.052,0.81818,0.1,6.4282e-05,642.38,6.3509e-05,621.48,-1.9204e-05,0.0014646,-2.4519e-05,-39.935,2.4395
22507,20.775,0.72727,0.1,7.0166e-05,701.17,6.9485e-05,682.52,-2.1351e-05,0.0058916,-2.6135e-05,-35.936,2.3933
22508,20.867,0.81818,0.1,6.8236e-05,681.89,6.7505e-05,661.96,-2.0596e-05,0.0019042,-2.5688e-05,-38.254,2.4088
22509,20.591,0.72727,0.1,7.4168e-05,741.17,7.3519e-05,723.28,-2.2743e-05,0.0059191,-2.7344e-05,-34.568,2.3626
22510,20.683,0.81818,0.1,7.2214e-05,721.64,7.152e-05,702.6,-2.199e-05,0.0022321,-2.6873e-05,-36.683,2.3781
22511,20.407,0.72727,0.1,7.8191e-05,781.37,7.7572e-05,764.2,-2.4136e-05,0.0058999,-2.8567e-05,-33.281,2.332
22512,20.499,0.81818,0.1,7.6214e-05,761.62,7.5554e-05,743.4,-2.3386e-05,0.0024698,-2.8073e-05,-35.211,2.3474
22513,20.223,0.72727,0.1,8.2235e-05,821.79,8.1643e-05,805.28,-2.5533e-05,0.0058538,-2.9802e-05,-32.07,2.3014
22514,20.315,0.81818,0.1,8.0238e-05,801.82,7.9609e-05,784.37,-2.4785e-05,0.0026544,-2.9288e-05,-33.831,2.3168
22515,20.038,0.72727,0.1,8.6301e-05,862.41,8.5733e-05,846.53,-2.6933e-05,0.0057893,-3.105e-05,-30.93,2.2709
22516,20.13,0.81818,0.1,8.4283e-05,842.25,8.3682e-05,825.51,-2.6186e-05,0.0027937,-3.0516e-05,-32.535,2.2862
22517,19.854,0.72727,0.1,9.0386e-05,903.24,8.9842e-05,887.95,-2.8336e-05,0.0057091,-3.231e-05,-29.854,2.2404
22518,19.946,0.81818,0.1,8.835e-05,882.89,8.7775e-05,866.81,-2.759e-05,0.0029071,-3.1759e-05,-31.318,2.2557
22519,19.67,0.72727,0.1,9.4493e-05,944.28,9.3969e-05,929.53,-2.9743e-05,0.0056084,-3.3582e-05,-28.84,2.21
22520,19.762,0.81818,0.1,9.2438e-05,923.74,9.1888e-05,908.29,-2.8997e-05,0.0029804,-3.3014e-05,-30.174,2.2253
22521,19.485,0.72727,0.1,9.862e-05,985.52,9.8116e-05,971.28,-3.1153e-05,0.0054998,-3.4865e-05,-27.883,2.1796
22522,19.578,0.81818,0.1,9.6548e-05,964.81,9.602e-05,949.93,-3.0408e-05,0.003019,-3.4281e-05,-29.097,2.1949
22523,19.301,0.72727,0.1,0.00010277,1027,0.00010228,1013.2,-3.2568e-05,0.0053926,-3.6159e-05,-26.979,2.1493
22524,19.393,0.81818,0.1,0.00010068,1006.1,0.00010017,991.76,-3.1823e-05,0.0030506,-3.5561e-05,-28.084,2.1646
22525,19.117,0.72727,0.1,0.00010694,1068.6,0.00010647,1055.3,-3.3986e-05,0.0052916,-3.7464e-05,-26.125,2.1191
22526,19.209,0.81818,0.1,0.00010483,1047.6,0.00010434,1033.8,-3.3241e-05,0.0030699,-3.6852e-05,-27.13,2.1344
22527,18.933,0.72727,0.1,0.00011112,1110.5,0.00011067,1097.6,-3.5409e-05,0.0051925,-3.8779e-05,-25.317,2.089
22528,19.025,0.81818,0.1,0.000109,1089.3,0.00010853,1075.9,-3.4664e-05,0.0030938,-3.8155e-05,-26.23,2.1042
22529,18.748,0.72727,0.1,0.00011533,1152.5,0.0001149,1140.1,-3.6837e-05,0.0050809,-4.0105e-05,-24.553,2.0589
22530,18.841,0.81818,0.1,0.0001132,1131.2,0.00011275,1118.3,-3.6091e-05,0.0030967,-3.9469e-05,-25.382,2.0741
22531,18.564,0.72727,0.1,0.00011956,1194.8,0.00011914,1182.7,-3.8269e-05,0.0049713,-4.1441e-05,-23.83,2.0289
22532,18.656,0.81818,0.1,0.00011741,1173.3,0.00011698,1160.8,-3.7522e-05,0.0030775,-4.0794e-05,-24.581,2.0441
22533,18.38,0.72727,0.1,0.00012381,1237.3,0.0001234,1225.5,-3.9706e-05,0.0048722,-4.2787e-05,-23.144,1.999
22534,18.472,0.81818,0.1,0.00012165,1215.7,0.00012123,1203.6,-3.8958e-05,0.0030656,-4.2129e-05,-23.824,2.0141
22535,18.196,0.72727,0.1,0.00012808,1280,0.00012769,1268.6,-4.1148e-05,0.0047849,-4.4143e-05,-22.494,1.9692
22536,18.288,0.81818,0.1,0.00012591,1258.2,0.0001255,1246.5,-4.0399e-05,0.0030531,-4.3475e-05,-23.109,1.9843
22537,18.011,0.72727,0.1,0.00013238,1322.8,0.00013199,1311.8,-4.2595e-05,0.0047018,-4.5508e-05,-21.877,1.9394
22538,18.103,0.81818,0.1,0.00013019,1301,0.00012979,1289.6,-4.1845e-05,0.0030537,-4.4831e-05,-22.431,1.9545
22539,17.827,0.72727,0.1,0.00013669,1365.9,0.00013631,1355.2,-4.4048e-05,0.0046056,-4.6882e-05,-21.29,1.9098
22540,17.919,0.81818,0.1,0.00013448,1343.9,0.0001341,1332.9,-4.3296e-05,0.0030364,-4.6196e-05,-21.789,1.9248
22541,17.643,0.72727,0.1,0.00014102,1409.2,0.00014066,1398.7,-4.5505e-05,0.0045101,-4.8265e-05,-20.732,1.8802
22542,17.735,0.81818,0.1,0.0001388,1387.1,0.00013843,1376.4,-4.4752e-05,0.0030004,-4.7571e-05,-21.18,1.8952
22543,17.459,0.72727,0.1,0.00014537,1452.7,0.00014502,1442.5,-4.6969e-05,0.004428,-4.9658e-05,-20.199,1.8507
22544,17.551,0.81818,0.1,0.00014314,1430.5,0.00014278,1420,-4.6213e-05,0.0029773,-4.8956e-05,-20.601,1.8657
22545,17.274,0.72727,0.1,0.00014975,1496.4,0.0001494,1486.5,-4.8437e-05,0.0043608,-5.1059e-05,-19.691,1.8214
22546,17.366,0.81818,0.1,0.00014751,1474,0.00014715,1463.9,-4.768e-05,0.0029576,-5.0349e-05,-20.05,1.8362
22547,17.09,0.72727,0.1,0.00015414,1540.3,0.0001538,1530.6,-4.9912e-05,0.0042951,-5.2468e-05,-19.204,1.7921
22548,17.182,0.81818,0.1,0.00015189,1517.8,0.00015155,1508,-4.9153e-05,0.0029543,-5.1751e-05,-19.524,1.8069
22549,16.906,0.72727,0.1,0.00015855,1584.5,0.00015823,1575,-5.1392e-05,0.0042133,-5.3886e-05,-18.738,1.7629
22550,16.998,0.81818,0.1,0.00015629,1561.8,0.00015596,1552.2,-5.0631e-05,0.0029315,-5.3163e-05,-19.021,1.7777
22551,16.721,0.72727,0.1,0.00016299,1628.8,0.00016267,1619.6,-5.2878e-05,0.0041324,-5.5313e-05,-18.29,1.7339
22552,16.814,0.81818,0.1,0.00016071,1606,0.00016039,1596.7,-5.2114e-05,0.00289,-5.4582e-05,-18.539,1.7486
22553,16.537,0.72727,0.1,0.00016745,1673.3,0.00016713,1664.3,-5.437e-05,0.0040635,-5.6747e-05,-17.858,1.7049
22554,16.629,0.81818,0.1,0.00016516,1650.4,0.00016484,1641.3,-5.3604e-05,0.0028632,-5.601e-05,-18.076,1.7196
22555,16.353,0.72727,0.1,0.00017192,1718,0.00017162,1709.2,-5.5867e-05,0.00401,-5.8189e-05,-17.442,1.6761
22556,16.445,0.81818,0.1,0.00016962,1695.1,0.00016932,1686.2,-5.51e-05,0.0028423,-5.7446e-05,-17.631,1.6907
22557,16.169,0.72727,0.1,0.00017642,1763,0.00017612,1754.4,-5.7371e-05,0.0039575,-5.9639e-05,-17.038,1.6473
22558,16.261,0.81818,0.1,0.00017411,1739.9,0.00017381,1731.2,-5.6601e-05,0.0028411,-5.8891e-05,-17.2,1.6619
22559,15.984,0.72727,0.1,0.00018093,1808.1,0.00018065,1799.7,-5.8881e-05,0.003884,-6.1097e-05,-16.645,1.6187
22560,16.077,0.81818,0.1,0.00017861,1784.9,0.00017832,1776.4,-5.8109e-05,0.002817,-6.0343e-05,-16.783,1.6333
22561,15.8,0.72727,0.1,0.00018547,1853.4,0.00018519,1845.2,-6.0398e-05,0.0038111,-6.2563e-05,-16.262,1.5903
22562,15.892,0.81818,0.1,0.00018314,1830.1,0.00018285,1821.9,-5.9623e-05,0.0027703,-6.1803e-05,-16.377,1.6047
22563,15.616,0.72727,0.1,0.00019003,1899,0.00018975,1891,-6.192e-05,0.0037504,-6.4035e-05,-15.888,1.5619
22564,15.708,0.81818,0.1,0.00018769,1875.6,0.00018741,1867.5,-6.1143e-05,0.0027425,-6.327e-05,-15.98,1.5763
22565,15.432,0.72727,0.1,0.00019461,1944.7,0.00019434,1936.9,-6.3449e-05,0.0037032,-6.5515e-05,-15.52,1.5337
22566,15.524,0.81818,0.1,0.00019225,1921.2,0.00019198,1913.3,-6.2669e-05,0.0027187,-6.4744e-05,-15.592,1.548
22567,15.247,0.72727,0.1,0.0001992,1990.7,0.00019894,1983,-6.4984e-05,0.0036556,-6.7002e-05,-15.157,1.5056
22568,15.339,0.81818,0.1,0.00019684,1967,0.00019658,1959.4,-6.4202e-05,0.0027176,-6.6226e-05,-15.21,1.5199
22569,15.063,0.72727,0.1,0.00020382,2036.8,0.00020357,2029.4,-6.6526e-05,0.0035822,-6.8496e-05,-14.798,1.4776
22570,15.155,0.81818,0.1,0.00020145,2013.1,0.00020119,2005.6,-6.5741e-05,0.0026917,-6.7715e-05,-14.832,1.4918
22571,14.879,0.72727,0.1,0.00020846,2083.1,0.00020821,2075.9,-6.8075e-05,0.0035056,-6.9997e-05,-14.44,1.4498
22572,14.971,0.81818,0.1,0.00020607,2059.3,0.00020582,2052,-6.7286e-05,0.0026373,-6.9211e-05,-14.457,1.4639
22573,14.695,0.72727,0.1,0.00021312,2129.7,0.00021287,2122.6,-6.9629e-05,0.0034428,-7.1504e-05,-14.083,1.4221
22574,14.787,0.81818,0.1,0.00021072,2105.7,0.00021048,2098.7,-6.8838e-05,0.0026053,-7.0713e-05,-14.082,1.4362
22575,14.51,0.72727,0.1,0.00021779,2176.4,0.00021756,2169.5,-7.1191e-05,0.0033953,-7.3018e-05,-13.724,1.3945
22576,14.602,0.81818,0.1,0.00021539,2152.4,0.00021515,2145.5,-7.0397e-05,0.0025781,-7.2222e-05,-13.707,1.4086
22577,14.326,0.72727,0.1,0.00022249,2223.4,0.00022226,2216.7,-7.2759e-05,0.0033451,-7.4538e-05,-13.363,1.3671
22578,14.418,0.81818,0.1,0.00022007,2199.2,0.00021984,2192.5,-7.1963e-05,0.0025756,-7.3737e-05,-13.33,1.3811
22579,14.142,0.72727,0.1,0.00022721,2270.5,0.00022699,2264,-7.4334e-05,0.0032645,-7.6065e-05,-12.997,1.3399
22580,14.234,0.81818,0.1,0.00022478,2246.2,0.00022456,2239.7,-7.3535e-05,0.002545,-7.5258e-05,-12.948,1.3538
22581,13.957,0.72727,0.1,0.00023195,2317.9,0.00023173,2311.5,-7.5916e-05,0.0031795,-7.7597e-05,-12.625,1.3128
22582,14.05,0.81818,0.1,0.00022951,2293.5,0.00022929,2287.2,-7.5114e-05,0.0024829,-7.6786e-05,-12.559,1.3266
22583,13.773,0.72727,0.1,0.00023671,2365.4,0.00023649,2359.3,-7.7505e-05,0.0031083,-7.9135e-05,-12.245,1.2859
22584,13.865,0.81818,0.1,0.00023425,2340.9,0.00023404,2334.8,-7.67e-05,0.0024457,-7.8319e-05,-12.163,1.2996
22585,13.589,0.72727,0.1,0.00024148,2413.2,0.00024128,2407.2,-7.9101e-05,0.0030518,-8.0679e-05,-11.855,1.2591
22586,13.681,0.81818,0.1,0.00023902,2388.5,0.00023882,2382.6,-7.8293e-05,0.0024138,-7.9858e-05,-11.756,1.2728
22587,13.405,0.72727,0.1,0.00024628,2461.1,0.00024608,2455.3,-8.0704e-05,0.0029914,-8.2229e-05,-11.454,1.2325
22588,13.497,0.81818,0.1,0.0002438,2436.4,0.00024361,2430.7,-7.9893e-05,0.0024095,-8.1402e-05,-11.338,1.2461
22589,13.22,0.72727,0.1,0.0002511,2509.2,0.00025091,2503.7,-8.2314e-05,0.0028971,-8.3783e-05,-11.038,1.206
22590,13.313,0.81818,0.1,0.00024861,2484.4,0.00024842,2478.9,-8.15e-05,0.0023742,-8.2952e-05,-10.905,1.2196
22591,13.036,0.72727,0.1,0.00025593,2557.5,0.00025575,2552.2,-8.3931e-05,0.0027968,-8.5343e-05,-10.607,1.1797
22592,13.128,0.81818,0.1,0.00025343,2532.6,0.00025325,2527.3,-8.3114e-05,0.0023075,-8.4506e-05,-10.456,1.1932
22593,12.852,0.72727,0.1,0.00026079,2606.1,0.00026061,2601,-8.5556e-05,0.0027103,-8.6908e-05,-10.158,1.1536
22594,12.944,0.81818,0.1,0.00025828,2581,0.00025811,2576,-8.4736e-05,0.0022679,-8.6066e-05,-9.9872,1.167
22595,12.668,0.72727,0.1,0.00026566,2654.8,0.00026549,2649.9,-8.7188e-05,0.0026411,-8.8477e-05,-9.6885,1.1277
22596,12.76,0.81818,0.1,0.00026314,2629.6,0.00026298,2624.8,-8.6365e-05,0.0022372,-8.7629e-05,-9.4976,1.141
22597,12.483,0.72727,0.1,0.00027055,2703.7,0.0002704,2699.1,-8.8827e-05,0.0025687,-9.0051e-05,-9.1963,1.102
22598,12.575,0.81818,0.1,0.00026802,2678.4,0.00026787,2673.9,-8.8002e-05,0.0022428,-8.9198e-05,-8.9839,1.1152
22599,12.299,0.72727,0.1,0.00027547,2752.8,0.00027532,2748.4,-9.0474e-05,0.0024603,-9.1629e-05,-8.6788,1.0764
22600,12.391,0.81818,0.1,0.00027292,2727.3,0.00027278,2723.1,-8.9646e-05,0.0022189,-9.077e-05,-8.4436,1.0895
22601,12.115,0.72727,0.1,0.0002804,2802.1,0.00028026,2798,-9.2129e-05,0.0023504,-9.3211e-05,-8.1333,1.051
22602,12.207,0.81818,0.1,0.00027784,2776.5,0.00027771,2772.6,-9.1298e-05,0.0021693,-9.2346e-05,-7.8738,1.0641
22603,11.931,0.72727,0.1,0.00028535,2851.5,0.00028522,2847.8,-9.3791e-05,0.0022633,-9.4797e-05,-7.5569,1.0258
22604,12.023,0.81818,0.1,0.00028278,2825.9,0.00028266,2822.2,-9.2957e-05,0.0021668,-9.3925e-05,-7.2711,1.0388
22605,11.746,0.72727,0.1,0.00029032,2901.2,0.0002902,2897.7,-9.5462e-05,0.0022044,-9.6386e-05,-6.9464,1.0008
22606,11.838,0.81818,0.1,0.00028774,2875.4,0.00028763,2872.1,-9.4625e-05,0.0021951,-9.5508e-05,-6.6325,1.0137
22607,11.562,0.72727,0.1,0.00029531,2951.1,0.0002952,2947.9,-9.714e-05,0.0021588,-9.7979e-05,-6.2986,0.97603
22608,11.654,0.81818,0.1,0.00029271,2925.1,0.00029261,2922.1,-9.63e-05,0.0022948,-9.7093e-05,-5.9543,0.98879
22609,11.378,0.72727,0.1,0.00030032,3001.1,0.00030022,2998.3,-9.8827e-05,0.0021037,-9.9574e-05,-5.6101,0.95143
22610,11.47,0.81818,0.1,0.00029771,2975,0.00029762,2972.4,-9.7984e-05,0.0024199,-9.8681e-05,-5.2329,0.9641
22611,11.193,0.72727,0.1,0.00030534,3051.3,0.00030526,3048.9,-0.00010052,0.0020976,-0.00010117,-4.8771,0.92703
22612,11.286,0.81818,0.1,0.00030272,3025.1,0.00030264,3022.9,-9.9676e-05,0.0026159,-0.00010027,-4.4644,0.9396
22613,11.009,0.72727,0.1,0.00031039,3101.7,0.00031032,3099.7,-0.00010223,0.00221,-0.00010277,-4.0958,0.90284
22614,11.101,0.81818,0.1,0.00030775,3075.4,0.00030769,3073.6,-0.00010138,0.0030488,-0.00010186,-3.6445,0.91531
22615,10.825,0.72727,0.1,0.00031545,3152.3,0.0003154,3150.7,-0.00010394,0.0025434,-0.00010437,-3.262,0.87885
22616,10.917,0.81818,0.1,0.0003128,3125.8,0.00031275,3124.5,-0.00010309,0.0039315,-0.00010346,-2.769,0.89123
22617,10.641,0.72727,0.1,0.00032053,3203.1,0.00032049,3201.9,-0.00010566,0.0033472,-0.00010597,-2.3716,0.85509
22618,10.733,0.81818,0.1,0.00031787,3176.5,0.00031783,3175.5,-0.0001048,0.0060558,-0.00010505,-1.8339,0.86736
22619,10.456,0.72727,0.1,0.00032563,3254.1,0.00032561,3253.4,-0.00010739,0.0056612,-0.00010758,-1.421,0.83154
22620,10.549,0.81818,0.1,0.00032295,3227.3,0.00032294,3226.9,-0.00010653,0.01394,-0.00010664,-0.83873,0.84371
22621,10.272,0.72727,0.1,0.00033075,3305.2,0.00033074,3305,-0.00010912,0.021317,-0.00010918,-0.41706,0.80821
22622,10.364,0.81818,0.1,0.00032805,3278.2,0.00032805,3278.4,-0.00010823,0.29333,-0.00010827,-0.043922,0.82028
22623,10.088,0.72727,0.1,0.00033588,3356.5,0.00033589,3356.9,-0.00011078,0.71082,-0.00011088,-0.014937,0.7851
22624,10.18,0.81818,0.1,0.00033317,3329.4,0.00033319,3330.1,-0.00010983,1.4113,-0.00011002,-0.010509,0.79706
22625,9.9036,0.72727,0.1,0.00034104,3408,0.00034107,3408.9,-0.00011238,1.8721,-0.00011264,-0.0071618,0.76222
22626,9.9957,0.81818,0.1,0.0003383,3380.7,0.00033835,3382,-0.00011142,2.6417,-0.00011177,-0.0066959,0.77408
22627,9.7193,0.72727,0.1,0.00034621,3459.7,0.00034626,3461.2,-0.00011399,3.1227,-0.0001144,-0.0056018,0.73958
22628,9.8115,0.81818,0.1,0.00034346,3432.2,0.00034352,3434.2,-0.00011301,3.9641,-0.00011354,-0.0054634,0.75132
22629,9.5351,0.72727,0.1,0.00035139,3511.5,0.00035147,3513.7,-0.00011559,4.4637,-0.00011618,-0.0051892,0.71716
22630,9.6272,0.81818,0.1,0.00034862,3483.8,0.00034872,3486.5,-0.0001146,5.3831,-0.00011531,-0.0050047,0.7288
22631,9.3508,0.72727,0.1,0.0003566,3563.5,0.0003567,3566.4,-0.00011718,5.9002,-0.00011797,-0.0052159,0.69499
22632,9.4429,0.81818,0.1,0.00035381,3535.7,0.00035393,3539.1,-0.00011618,6.9052,-0.0001171,-0.0049102,0.70651
22633,9.1665,0.72727,0.1,0.00036182,3615.7,0.00036194,3619.4,-0.00011878,7.4386,-0.00011977,-0.005475,0.67306
22634,9.2587,0.81818,0.1,0.00035901,3587.6,0.00035915,3591.9,-0.00011776,8.5374,-0.0001189,-0.0050196,0.68446
22635,8.9823,0.72727,0.1,0.00036706,3668,0.00036721,3672.6,-0.00012037,9.0849,-0.00012158,-0.0058894,0.65137
22636,9.0744,0.81818,0.1,0.00036423,3639.8,0.0003644,3644.9,-0.00011933,10.287,-0.0001207,-0.005271,0.66266
22637,8.798,0.72727,0.1,0.00037231,3720.5,0.00037249,3725.9,-0.00012196,10.845,-0.0001234,-0.0064261,0.62993
22638,8.8901,0.81818,0.1,0.00036946,3692.1,0.00036967,3698.1,-0.0001209,12.161,-0.00012252,-0.0056333,0.6411
22639,8.6137,0.72727,0.1,0.00037758,3773.2,0.0003778,3779.5,-0.00012354,12.726,-0.00012523,-0.0070712,0.60874
22640,8.7059,0.81818,0.1,0.00037471,3744.5,0.00037495,3751.6,-0.00012247,14.166,-0.00012436,-0.0060944,0.61979
22641,8.4295,0.72727,0.1,0.00038287,3826,0.00038312,3833.4,-0.00012511,14.733,-0.00012708,-0.0078198,0.58782
22642,8.5216,0.81818,0.1,0.00037997,3797.1,0.00038025,3805.2,-0.00012403,16.311,-0.0001262,-0.006647,0.59874
22643,8.2452,0.72727,0.1,0.00038817,3879,0.00038846,3887.4,-0.00012669,16.872,-0.00012893,-0.0086743,0.56715
22644,8.3373,0.81818,0.1,0.00038525,3849.8,0.00038556,3859.1,-0.00012558,18.601,-0.00012805,-0.0072934,0.57794
22645,8.0609,0.72727,0.1,0.00039349,3932.2,0.00039381,3941.7,-0.00012825,19.146,-0.0001308,-0.0096402,0.54674
22646,8.1531,0.81818,0.1,0.00039054,3902.7,0.0003909,3913.2,-0.00012712,21.043,-0.00012992,-0.0080379,0.55741
22647,7.8767,0.72727,0.1,0.00039882,3985.5,0.00039919,3996.2,-0.00012981,21.559,-0.00013268,-0.010727,0.5266
22648,7.9688,0.81818,0.1,0.00039585,3955.8,0.00039625,3967.5,-0.00012865,23.642,-0.0001318,-0.0088879,0.53714
22649,7.6924,0.72727,0.1,0.00040417,4038.9,0.00040458,4050.9,-0.00013136,24.113,-0.00013457,-0.011947,0.50673
22650,7.7845,0.81818,0.1,0.00040117,4008.9,0.00040161,4022.1,-0.00013018,26.403,-0.00013369,-0.0098553,0.51714
22651,7.5081,0.72727,0.1,0.00040954,4092.5,0.00040999,4105.9,-0.0001329,26.807,-0.00013647,-0.013317,0.48714
22652,7.6003,0.81818,0.1,0.0004065,4062.2,0.00040699,4076.8,-0.00013169,29.327,-0.0001356,-0.010955,0.49742
22653,7.3239,0.72727,0.1,0.00041491,4146.3,0.00041541,4161,-0.00013444,29.639,-0.00013839,-0.014857,0.46782
22654,7.416,0.81818,0.1,0.00041185,4115.7,0.00041239,4131.8,-0.0001332,32.414,-0.00013751,-0.012206,0.47797
22655,7.1396,0.72727,0.1,0.00042031,4200.2,0.00042085,4216.4,-0.00013597,32.602,-0.00014031,-0.016592,0.44879
22656,7.2317,0.81818,0.1,0.00041721,4169.2,0.00041781,4186.9,-0.0001347,35.662,-0.00013944,-0.013632,0.4588
22657,6.9553,0.72727,0.1,0.00042571,4254.2,0.0004263,4271.9,-0.0001375,35.684,-0.00014225,-0.018554,0.43004
22658,7.0475,0.81818,0.1,0.00042258,4222.9,0.00042323,4242.3,-0.00013618,39.064,-0.00014138,-0.015261,0.43991
22659,6.7711,0.72727,0.1,0.00043112,4308.3,0.00043177,4327.6,-0.00013902,38.869,-0.00014419,-0.020779,0.41158
22660,6.8632,0.81818,0.1,0.00042797,4276.7,0.00042868,4297.8,-0.00013766,42.607,-0.00014334,-0.017131,0.42131
22661,6.5868,0.72727,0.1,0.00043655,4362.5,0.00043725,4383.4,-0.00014053,42.134,-0.00014614,-0.023316,0.39342
22662,6.6789,0.81818,0.1,0.00043336,4330.6,0.00043413,4353.5,-0.00013913,46.274,-0.0001453,-0.019288,0.403
22663,6.4025,0.72727,0.1,0.00044198,4416.7,0.00044273,4439.3,-0.00014205,45.445,-0.0001481,-0.026224,0.37555
22664,6.4947,0.81818,0.1,0.00043876,4384.6,0.00043959,4409.4,-0.0001406,50.038,-0.00014726,-0.021788,0.38499
22665,6.2183,0.72727,0.1,0.00044741,4471,0.00044822,4495.2,-0.00014356,48.76,-0.00015006,-0.029579,0.35798
22666,6.3104,0.81818,0.1,0.00044417,4438.6,0.00044506,4465.3,-0.00014207,53.863,-0.00014924,-0.024705,0.36727
22667,6.034,0.72727,0.1,0.00045285,4525.3,0.00045371,4551.1,-0.00014508,52.023,-0.00015201,-0.033481,0.34071
22668,6.1261,0.81818,0.1,0.00044958,4492.7,0.00045053,4521.2,-0.00014353,57.703,-0.00015121,-0.028132,0.34986
22669,5.8497,0.72727,0.1,0.00045827,4579.5,0.00045918,4606.9,-0.00014661,55.164,-0.00015396,-0.038058,0.32376
22670,5.9419,0.81818,0.1,0.00045498,4546.7,0.000456,4577.1,-0.00014499,61.495,-0.00015318,-0.032192,0.33275
22671,5.6655,0.72727,0.1,0.00046368,4633.6,0.00046464,4662.3,-0.00014815,58.093,-0.00015589,-0.043486,0.30711
22672,5.7576,0.81818,0.1,0.00046038,4600.7,0.00046146,4632.9,-0.00014647,65.161,-0.00015515,-0.037047,0.31595
22673,5.4812,0.72727,0.1,0.00046906,4687.4,0.00047006,4717.4,-0.00014971,60.699,-0.00015779,-0.050004,0.29078
22674,5.5733,0.81818,0.1,0.00046577,4654.5,0.0004669,4688.4,-0.00014796,68.603,-0.00015709,-0.042914,0.29946
22675,5.2969,0.72727,0.1,0.00047439,4740.7,0.00047543,4771.8,-0.00015129,62.847,-0.00015966,-0.057954,0.27477
22676,5.3891,0.81818,0.1,0.00047113,4708,0.0004723,4743.4,-0.00014947,71.697,-0.00015901,-0.050096,0.2833
22677,5.1127,0.72727,0.1,0.00047966,4793.3,0.00048073,4825.2,-0.0001529,64.374,-0.00016147,-0.067838,0.25909
22678,5.2048,0.81818,0.1,0.00047644,4761.1,0.00047766,4797.8,-0.000151,74.294,-0.0001609,-0.059017,0.26745
22679,4.9284,0.72727,0.1,0.00048484,4845,0.00048591,4877.2,-0.00015454,65.081,-0.00016322,-0.080423,0.24373
22680,5.0205,0.81818,0.1,0.00048169,4813.6,0.00048294,4851.2,-0.00015257,76.211,-0.00016273,-0.070303,0.25193
22681,4.7441,0.72727,0.1,0.00048988,4895.4,0.00049095,4927.4,-0.00015624,64.739,-0.00016486,-0.096935,0.2287
22682,4.8363,0.81818,0.1,0.00048686,4865.2,0.00048812,4903.3,-0.00015419,77.233,-0.00016448,-0.084897,0.23673
22683,4.5599,0.72727,0.1,0.00049473,4943.9,0.00049577,4975.1,-0.00015798,63.076,-0.00016639,-0.11946,0.214
22684,4.652,0.81818,0.1,0.00049189,4915.5,0.00049315,4953.5,-0.00015586,77.101,-0.00016614,-0.10429,0.22187
22685,4.3756,0.72727,0.1,0.00049933,4989.9,0.00050032,5019.4,-0.00015977,59.784,-0.00016775,-0.15177,0.19964
22686,4.4677,0.81818,0.1,0.00049674,4963.9,0.00049798,5001.2,-0.00015759,75.519,-0.00016766,-0.13098,0.20734
22687,4.1913,0.72727,0.1,0.00050359,5032.4,0.00050449,5059.4,-0.00016161,54.516,-0.00016889,-0.20143,0.18562
22688,4.2835,0.81818,0.1,0.00050134,5010,0.00050253,5045.6,-0.00015939,72.143,-0.00016902,-0.16938,0.19315
22689,4.0071,0.72727,0.1,0.00050738,5070.3,0.00050816,5093.5,-0.0001635,46.897,-0.00016978,-0.28561,0.17194
22690,4.0992,0.81818,0.1,0.00050561,5052.6,0.0005067,5085.4,-0.00016126,66.588,-0.00017016,-0.22802,0.1793
22691,3.8228,0.72727,0.1,0.00051056,5102.1,0.00051117,5120,-0.00016541,36.55,-0.00017033,-0.45205,0.15861
22692,3.9149,0.81818,0.1,0.00050942,5090.7,0.00051038,5119.5,-0.0001632,58.435,-0.00017102,-0.32538,0.1658
22693,3.6385,0.72727,0.1,0.00051293,5125.7,0.0005133,5136.8,-0.00016728,23.221,-0.00017049,-0.89127,0.14562
22694,3.7307,0.81818,0.1,0.00051263,5122.7,0.00051341,5145.9,-0.00016519,47.25,-0.00017154,-0.50906,0.15264
22695,3.4543,0.72727,0.1,0.00051422,5138.7,0.0005143,5141.1,-0.00016885,8.1158,-0.00017037,-3.2573,0.13299
22696,3.5464,0.81818,0.1,0.00051503,5146.7,0.00051556,5162.5,-0.00016718,32.682,-0.00017165,-0.94296,0.13983
22697,3.27,0.72727,0.1,0.00051412,5137.7,0.00051383,5129.3,-0.00016858,1.8581,-0.0001713,-18.599,0.1207
22698,3.3621,0.81818,0.1,0.00051637,5160.1,0.00051658,5166.4,-0.000169,15.201,-0.00017137,-2.6376,0.12737
22699,3.0857,0.72727,0.1,0.00051222,5118.6,0.00051147,5097.1,-0.00016676,1.056,-0.00017275,-43.89,0.10876
22700,3.1779,0.81818,0.1,0.00051632,5159.7,0.00051613,5154,-0.00016935,3.5626,-0.00017181,-14.902,0.11526
22701,2.9015,0.72727,0.1,0.000508,5076.5,0.0005067,5039.2,-0.00016386,0.8558,-0.0001739,-74.55,0.097173
22702,2.9936,0.81818,0.1,0.00051449,5141.4,0.00051379,5121,-0.00016754,1.6973,-0.00017339,-42.23,0.10351
22703,2.7172,0.72727,0.1,0.00050085,5005,0.00049889,4949.3,-0.00015972,0.81587,-0.0001745,-110.27,0.085927
22704,2.8093,0.81818,0.1,0.00051037,5100.2,0.00050904,5061.9,-0.00016449,1.2844,-0.00017489,-76.871,0.092098
22705,2.5329,0.72727,0.1,0.00049003,4896.9,0.0004873,4820.1,-0.0001541,0.85733,-0.00017431,-150.97,0.075019
22706,2.6251,0.81818,0.1,0.00050336,5030.1,0.00050126,4970.5,-0.00016012,1.1733,-0.00017602,-118.3,0.081034
22707,2.3487,0.72727,0.1,0.00047473,4744,0.00047109,4643.1,-0.00014674,0.96292,-0.00017303,-196.55,0.064441
22708,2.4408,0.81818,0.1,0.00049277,4924.3,0.00048973,4839.1,-0.00015416,1.1897,-0.00017656,-167.11,0.07031
22709,2.1644,0.72727,0.1,0.00045412,4538,0.00044942,4409.9,-0.00013735,1.1284,-0.0001704,-247.13,0.054181
22710,2.2565,0.81818,0.1,0.00047786,4775.3,0.00047367,4659.7,-0.00014634,1.2941,-0.00017638,-224.46,0.059915
22711,1.9801,0.72727,0.1,0.00042759,4273,0.00042163,4113.6,-0.00012567,1.3773,-0.00016629,-303.82,0.044221
22712,2.0723,0.81818,0.1,0.000458,4576.9,0.00045234,4424.2,-0.00013629,1.4621,-0.00017542,-292.55,0.049837
22713,1.7959,0.72727,0.1,0.00039524,3949.6,0.00038764,3752,-0.0001115,1.6546,-0.00016104,-370.61,0.034539
22714,1.888,0.81818,0.1,0.00043293,4326.4,0.00042533,4127,-0.0001237,1.74,-0.00017395,-375.8,0.040057
22715,1.6116,0.72727,0.1,0.00035876,3585.1,0.00034878,3334.9,-9.4771e-05,2.2688,-0.00015605,-458.17,0.025109
22716,1.7037,0.81818,0.1,0.00040345,4031.7,0.00039306,3769,-0.00010831,1.9125,-0.0001729,-483.37,0.030551
22717,1.4273,0.72727,0.1,0.00032348,3232.6,0.00030926,2895.1,-7.5821e-05,1.7673,-0.00015508,-593.76,0.015912
22718,1.5195,0.81818,0.1,0.00037251,3722.6,0.0003577,3366.6,-8.9998e-05,2.7592,-0.0001746,-632.88,0.021294
22719,1.2431,0.72727,0.1,0.00030639,3061.8,0.00028232,2537.6,-5.4649e-05,5.7501,-0.00017058,-865.31,0.0070462
22720,1.3352,0.81818,0.1,0.0003477,3474.6,0.0003249,2962.4,-6.9314e-05,0.39296,-0.00018412,-862.23,0.012278
22721,1.1509,0.81818,0.1,0.00035598,3557.3,0.00031506,2720,-4.562e-05,9.9939,-0.00022107,-1308.3,0.003912
22722,1.0588,0.72727,0.1,0.00025031,2501.4,0.00022435,1957.2,-3.6506e-05,-2.8049,-0.00015061,-860.17,0.0035215
22723,23.724,0.90909,0.1,1.4285e-05,142.75,9.2737e-06,58.135,1.519e-06,-0.13129,-1.2376e-05,-104.53,2.8888
22724,23.816,1,0.1,1.4002e-05,139.92,7.8065e-06,39.785,2.4994e-06,-0.089975,-1.2893e-05,-115.75,2.9044
22725,23.908,0.90909,0.1,1.2623e-05,126.14,6.0104e-06,22.463,2.9685e-06,-0.39248,-1.2091e-05,-113.54,2.9199
22726,23.539,0.90909,0.1,1.652e-05,165.08,1.2683e-05,95.203,-9.4185e-09,-0.16475,-1.2687e-05,-95.417,2.8577
22727,23.631,1,0.1,1.5904e-05,158.93,1.1201e-05,76.908,9.2999e-07,-0.2659,-1.3126e-05,-105.88,2.8733
22728,23.355,0.90909,0.1,1.9206e-05,191.93,1.6156e-05,132.53,-1.4931e-06,-0.079946,-1.3135e-05,-87.556,2.8266
22729,23.447,1,0.1,1.8342e-05,183.3,1.4647e-05,114.29,-5.7627e-07,-0.096581,-1.349e-05,-97.128,2.8422
22730,23.171,0.90909,0.1,2.2203e-05,221.88,1.9695e-05,170.12,-2.9552e-06,-0.061847,-1.3704e-05,-80.824,2.7955
22731,23.263,1,0.1,2.1147e-05,211.33,1.8151e-05,151.81,-2.0652e-06,-0.083994,-1.397e-05,-89.529,2.8111
22732,22.987,0.90909,0.1,2.542e-05,254.03,2.3299e-05,208.05,-4.3972e-06,-0.042768,-1.4377e-05,-75.026,2.7645
22733,23.079,1,0.1,2.4212e-05,241.96,2.1712e-05,189.6,-3.5293e-06,-0.056204,-1.4555e-05,-82.897,2.7801
22734,22.802,0.90909,0.1,2.8797e-05,287.78,2.6961e-05,246.31,-5.8255e-06,-0.032058,-1.5137e-05,-69.998,2.7334
22735,22.894,1,0.1,2.7468e-05,274.49,2.5331e-05,227.68,-4.9767e-06,-0.043538,-1.5233e-05,-77.102,2.749
22736,22.618,0.90909,0.1,3.2293e-05,322.71,3.0673e-05,284.87,-7.2435e-06,-0.023994,-1.597e-05,-65.589,2.7024
22737,22.71,1,0.1,3.0863e-05,308.42,2.9001e-05,266.04,-6.411e-06,-0.033276,-1.599e-05,-72.002,2.718
22738,22.434,0.90909,0.1,3.5879e-05,358.54,3.4429e-05,323.69,-8.6541e-06,-0.018298,-1.6861e-05,-61.683,2.6713
22739,22.526,1,0.1,3.4367e-05,343.43,3.2718e-05,304.67,-7.8355e-06,-0.026234,-1.6813e-05,-67.478,2.6869
22740,22.249,0.90909,0.1,3.9535e-05,395.08,3.8223e-05,362.76,-1.0059e-05,-0.01404,-1.7801e-05,-58.185,2.6404
22741,22.342,1,0.1,3.7954e-05,379.28,3.6474e-05,343.55,-9.2525e-06,-0.020899,-1.7692e-05,-63.431,2.6559
22742,22.065,0.90909,0.1,4.3249e-05,432.19,4.2049e-05,402.04,-1.146e-05,-0.01083,-1.8783e-05,-55.027,2.6094
22743,22.157,1,0.1,4.1608e-05,415.79,4.0267e-05,382.66,-1.0664e-05,-0.016861,-1.8618e-05,-59.783,2.6249
22744,21.881,0.90909,0.1,4.701e-05,469.77,4.5905e-05,441.52,-1.2859e-05,-0.0083648,-1.9799e-05,-52.153,2.5784
22745,21.973,1,0.1,4.5317e-05,452.86,4.4091e-05,421.97,-1.2071e-05,-0.013727,-1.9585e-05,-56.472,2.594
22746,21.697,0.90909,0.1,5.0811e-05,507.76,4.9787e-05,481.19,-1.4255e-05,-0.0064546,-2.0845e-05,-49.521,2.5475
22747,21.789,1,0.1,4.9073e-05,490.39,4.7945e-05,461.48,-1.3475e-05,-0.011261,-2.0587e-05,-53.448,2.5631
22748,21.512,0.90909,0.1,5.4648e-05,546.11,5.3694e-05,521.03,-1.5651e-05,-0.0049641,-2.1919e-05,-47.099,2.5166
22749,21.605,1,0.1,5.287e-05,528.33,5.1825e-05,501.17,-1.4877e-05,-0.0093072,-2.1621e-05,-50.674,2.5322
22750,21.328,0.90909,0.1,5.8517e-05,584.77,5.7625e-05,561.05,-1.7046e-05,-0.003782,-2.3016e-05,-44.861,2.4858
22751,21.42,1,0.1,5.6702e-05,566.63,5.573e-05,541.04,-1.6278e-05,-0.007742,-2.2681e-05,-48.119,2.5013
22752,21.144,0.90909,0.1,6.2416e-05,623.73,6.1577e-05,601.23,-1.8442e-05,-0.002834,-2.4136e-05,-42.785,2.455
22753,21.236,1,0.1,6.0568e-05,605.26,5.9659e-05,581.08,-1.7679e-05,-0.0064604,-2.3767e-05,-45.757,2.4705
22754,20.96,0.90909,0.1,6.6341e-05,662.95,6.5552e-05,641.58,-1.9838e-05,-0.0020673,-2.5275e-05,-40.856,2.4242
22755,21.052,1,0.1,6.4463e-05,644.19,6.3611e-05,621.29,-1.9079e-05,-0.0054096,-2.4876e-05,-43.567,2.4397
22756,20.775,0.90909,0.1,7.0293e-05,702.44,6.9547e-05,682.1,-2.1235e-05,-0.0014436,-2.6433e-05,-39.059,2.3935
22757,20.867,1,0.1,6.8387e-05,683.4,6.7585e-05,661.68,-2.0479e-05,-0.0045322,-2.6007e-05,-41.533,2.409
22758,20.591,0.90909,0.1,7.4269e-05,742.18,7.3562e-05,722.78,-2.2634e-05,-0.00094262,-2.7609e-05,-37.381,2.3628
22759,20.683,1,0.1,7.2337e-05,722.87,7.1581e-05,702.24,-2.1881e-05,-0.0038067,-2.7156e-05,-39.64,2.3783
22760,20.407,0.90909,0.1,7.8269e-05,782.15,7.7598e-05,763.63,-2.4035e-05,-0.00053315,-2.8801e-05,-35.814,2.3322
22761,20.499,1,0.1,7.6313e-05,762.61,7.5598e-05,742.96,-2.3284e-05,-0.0032062,-2.8325e-05,-37.876,2.3476
22762,20.223,0.90909,0.1,8.2293e-05,822.36,8.1655e-05,804.65,-2.5437e-05,-0.00019109,-3.0009e-05,-34.347,2.3016
22763,20.315,1,0.1,8.0314e-05,802.59,7.9637e-05,783.86,-2.4689e-05,-0.0026915,-2.9511e-05,-36.229,2.317
22764,20.038,0.90909,0.1,8.6339e-05,862.8,8.5731e-05,845.84,-2.6843e-05,0.00010163,-3.1232e-05,-32.973,2.2711
22765,20.13,1,0.1,8.434e-05,842.81,8.3696e-05,824.93,-2.6096e-05,-0.002251,-3.0713e-05,-34.692,2.2865
22766,19.854,0.90909,0.1,9.0408e-05,903.46,8.9828e-05,887.2,-2.8251e-05,0.00034712,-3.2469e-05,-31.686,2.2406
22767,19.946,1,0.1,8.8388e-05,883.27,8.7776e-05,866.18,-2.7506e-05,-0.0018608,-3.1931e-05,-33.254,2.256
22768,19.67,0.90909,0.1,9.45e-05,944.35,9.3944e-05,928.74,-2.9663e-05,0.00054086,-3.3719e-05,-30.478,2.2102
22769,19.762,1,0.1,9.2461e-05,923.97,9.1876e-05,907.6,-2.8918e-05,-0.0015347,-3.3164e-05,-31.908,2.2256
22770,19.485,0.90909,0.1,9.8613e-05,985.45,9.8081e-05,970.45,-3.1078e-05,0.00070308,-3.4984e-05,-29.344,2.1799
22771,19.578,1,0.1,9.6556e-05,964.89,9.5998e-05,949.2,-3.0333e-05,-0.0012623,-3.4412e-05,-30.648,2.1952
22772,19.301,0.90909,0.1,0.00010275,1026.8,0.00010224,1012.3,-3.2497e-05,0.00084656,-3.626e-05,-28.28,2.1496
22773,19.393,1,0.1,0.00010067,1006,0.00010014,990.98,-3.1752e-05,-0.001016,-3.5674e-05,-29.467,2.1649
22774,19.117,0.90909,0.1,0.00010691,1068.3,0.00010642,1054.4,-3.3919e-05,0.00097766,-3.755e-05,-27.279,2.1194
22775,19.209,1,0.1,0.00010481,1047.4,0.0001043,1032.9,-3.3174e-05,-0.00079698,-3.6949e-05,-28.36,2.1347
22776,18.933,0.90909,0.1,0.00011108,1110.1,0.00011061,1096.7,-3.5345e-05,0.0010921,-3.8851e-05,-26.337,2.0893
22777,19.025,1,0.1,0.00010898,1089,0.00010849,1075.1,-3.4601e-05,-0.00059043,-3.8237e-05,-27.321,2.1045
22778,18.748,0.90909,0.1,0.00011528,1152.1,0.00011483,1139.1,-3.6776e-05,0.0011771,-4.0164e-05,-25.451,2.0592
22779,18.841,1,0.1,0.00011316,1130.8,0.00011269,1117.4,-3.6031e-05,-0.00041885,-3.9537e-05,-26.345,2.0744
22780,18.564,0.90909,0.1,0.00011951,1194.2,0.00011907,1181.7,-3.8211e-05,0.0012464,-4.1488e-05,-24.615,2.0293
22781,18.656,1,0.1,0.00011737,1172.9,0.00011692,1160,-3.7465e-05,-0.00028137,-4.0849e-05,-25.428,2.0444
22782,18.38,0.90909,0.1,0.00012375,1236.6,0.00012333,1224.6,-3.9651e-05,0.0013129,-4.2823e-05,-23.828,1.9993
22783,18.472,1,0.1,0.0001216,1215.1,0.00012116,1202.7,-3.8904e-05,-0.00014803,-4.2173e-05,-24.565,2.0144
22784,18.196,0.90909,0.1,0.00012801,1279.3,0.00012761,1267.6,-4.1096e-05,0.001381,-4.4168e-05,-23.084,1.9695
22785,18.288,1,0.1,0.00012585,1257.6,0.00012543,1245.6,-4.0347e-05,-2.5441e-05,-4.3509e-05,-23.753,1.9846
22786,18.011,0.90909,0.1,0.0001323,1322.1,0.0001319,1310.8,-4.2545e-05,0.0014407,-4.5524e-05,-22.381,1.9398
22787,18.103,1,0.1,0.00013012,1300.3,0.00012971,1288.6,-4.1796e-05,0.00010117,-4.4855e-05,-22.986,1.9548
22788,17.827,0.90909,0.1,0.00013661,1365.1,0.00013622,1354.1,-4.4e-05,0.0014778,-4.689e-05,-21.716,1.9101
22789,17.919,1,0.1,0.00013441,1343.2,0.00013402,1331.9,-4.3249e-05,0.00019891,-4.6212e-05,-22.263,1.9251
22790,17.643,0.90909,0.1,0.00014093,1408.4,0.00014056,1397.7,-4.546e-05,0.0015089,-4.8266e-05,-21.086,1.8806
22791,17.735,1,0.1,0.00013873,1386.3,0.00013835,1375.4,-4.4707e-05,0.00027258,-4.7579e-05,-21.579,1.8955
22792,17.459,0.90909,0.1,0.00014528,1451.8,0.00014492,1441.5,-4.6925e-05,0.0015434,-4.9652e-05,-20.487,1.8511
22793,17.551,1,0.1,0.00014306,1429.6,0.0001427,1419.1,-4.617e-05,0.00035266,-4.8956e-05,-20.931,1.866
22794,17.274,0.90909,0.1,0.00014965,1495.5,0.0001493,1485.4,-4.8395e-05,0.0015832,-5.1047e-05,-19.917,1.8218
22795,17.366,1,0.1,0.00014742,1473.2,0.00014706,1462.9,-4.7639e-05,0.00042788,-5.0343e-05,-20.317,1.8366
22796,17.09,0.90909,0.1,0.00015404,1539.4,0.0001537,1529.6,-4.9872e-05,0.0016187,-5.245e-05,-19.374,1.7925
22797,17.182,1,0.1,0.0001518,1516.9,0.00015145,1507,-4.9113e-05,0.00051509,-5.1739e-05,-19.732,1.8073
22798,16.906,0.90909,0.1,0.00015846,1583.5,0.00015813,1573.9,-5.1353e-05,0.0016327,-5.3863e-05,-18.856,1.7634
22799,16.998,1,0.1,0.0001562,1560.9,0.00015586,1551.2,-5.0593e-05,0.00057637,-5.3145e-05,-19.176,1.7781
22800,16.721,0.90909,0.1,0.00016289,1627.8,0.00016257,1618.5,-5.2841e-05,0.001642,-5.5284e-05,-18.359,1.7343
22801,16.814,1,0.1,0.00016062,1605.1,0.00016029,1595.7,-5.2078e-05,0.00061344,-5.456e-05,-18.644,1.749
22802,16.537,0.90909,0.1,0.00016734,1672.2,0.00016703,1663.2,-5.4334e-05,0.0016601,-5.6714e-05,-17.881,1.7054
22803,16.629,1,0.1,0.00016506,1649.5,0.00016474,1640.3,-5.3569e-05,0.00066322,-5.5983e-05,-18.134,1.72
22804,16.353,0.90909,0.1,0.00017181,1717,0.00017151,1708.2,-5.5833e-05,0.0016887,-5.8152e-05,-17.422,1.6765
22805,16.445,1,0.1,0.00016952,1694.1,0.00016922,1685.2,-5.5066e-05,0.00071376,-5.7415e-05,-17.645,1.6911
22806,16.169,0.90909,0.1,0.00017631,1761.9,0.00017601,1753.3,-5.7339e-05,0.0017133,-5.9598e-05,-16.977,1.6478
22807,16.261,1,0.1,0.00017401,1738.9,0.00017371,1730.2,-5.6569e-05,0.00077978,-5.8855e-05,-17.173,1.6624
22808,15.984,0.90909,0.1,0.00018082,1807,0.00018054,1798.7,-5.885e-05,0.0017135,-6.1052e-05,-16.546,1.6192
22809,16.077,1,0.1,0.00017851,1783.9,0.00017822,1775.4,-5.8078e-05,0.0008207,-6.0303e-05,-16.716,1.6337
22810,15.8,0.90909,0.1,0.00018536,1852.3,0.00018508,1844.2,-6.0367e-05,0.0017096,-6.2514e-05,-16.126,1.5908
22811,15.892,1,0.1,0.00018303,1829.1,0.00018275,1820.9,-5.9593e-05,0.00083559,-6.1759e-05,-16.273,1.6052
22812,15.616,0.90909,0.1,0.00018991,1897.8,0.00018964,1889.9,-6.1891e-05,0.0017164,-6.3983e-05,-15.715,1.5624
22813,15.708,1,0.1,0.00018758,1874.5,0.0001873,1866.5,-6.1114e-05,0.00086693,-6.3222e-05,-15.84,1.5768
22814,15.432,0.90909,0.1,0.00019449,1943.5,0.00019422,1935.8,-6.3421e-05,0.0017366,-6.5459e-05,-15.312,1.5342
22815,15.524,1,0.1,0.00019214,1920.1,0.00019187,1912.3,-6.2642e-05,0.00090211,-6.4693e-05,-15.416,1.5485
22816,15.247,0.90909,0.1,0.00019908,1989.5,0.00019883,1982,-6.4958e-05,0.0017551,-6.6943e-05,-14.914,1.5061
22817,15.339,1,0.1,0.00019673,1965.9,0.00019647,1958.4,-6.4175e-05,0.00095864,-6.6172e-05,-14.999,1.5204
22818,15.063,0.90909,0.1,0.0002037,2035.6,0.00020345,2028.3,-6.6501e-05,0.0017461,-6.8433e-05,-14.52,1.4781
22819,15.155,1,0.1,0.00020133,2011.9,0.00020108,2004.6,-6.5715e-05,0.00098837,-6.7657e-05,-14.587,1.4923
22820,14.879,0.90909,0.1,0.00020834,2081.9,0.00020809,2074.8,-6.805e-05,0.0017343,-6.9931e-05,-14.128,1.4503
22821,14.971,1,0.1,0.00020596,2058.1,0.00020571,2051,-6.7262e-05,0.00098956,-6.9149e-05,-14.178,1.4645
22822,14.695,0.90909,0.1,0.00021299,2128.5,0.00021276,2121.6,-6.9606e-05,0.0017358,-7.1434e-05,-13.735,1.4226
22823,14.787,1,0.1,0.0002106,2104.6,0.00021036,2097.6,-6.8815e-05,0.0010136,-7.0648e-05,-13.769,1.4367
22824,14.51,0.90909,0.1,0.00021767,2175.2,0.00021744,2168.5,-7.1169e-05,0.0017516,-7.2945e-05,-13.341,1.3951
22825,14.602,1,0.1,0.00021527,2151.2,0.00021504,2144.5,-7.0375e-05,0.0010411,-7.2153e-05,-13.359,1.4091
22826,14.326,0.90909,0.1,0.00022236,2222.1,0.00022214,2215.6,-7.2738e-05,0.0017667,-7.4461e-05,-12.942,1.3677
22827,14.418,1,0.1,0.00021995,2198,0.00021973,2191.5,-7.1942e-05,0.0010941,-7.3665e-05,-12.945,1.3817
22828,14.142,0.90909,0.1,0.00022708,2269.2,0.00022686,2262.9,-7.4314e-05,0.0017525,-7.5983e-05,-12.537,1.3405
22829,14.234,1,0.1,0.00022466,2245,0.00022444,2238.7,-7.3515e-05,0.0011197,-7.5183e-05,-12.525,1.3544
22830,13.957,0.90909,0.1,0.00023182,2316.6,0.00023161,2310.5,-7.5898e-05,0.001736,-7.7511e-05,-12.124,1.3134
22831,14.05,1,0.1,0.00022938,2292.2,0.00022917,2286.2,-7.5096e-05,0.0011165,-7.6706e-05,-12.098,1.3272
22832,13.773,0.90909,0.1,0.00023657,2364.1,0.00023637,2358.2,-7.7488e-05,0.001736,-7.9045e-05,-11.701,1.2865
22833,13.865,1,0.1,0.00023412,2339.6,0.00023392,2333.8,-7.6683e-05,0.0011397,-7.8235e-05,-11.661,1.3002
22834,13.589,0.90909,0.1,0.00024134,2411.8,0.00024115,2406.1,-7.9085e-05,0.0017541,-8.0584e-05,-11.265,1.2597
22835,13.681,1,0.1,0.00023889,2387.2,0.0002387,2381.6,-7.8277e-05,0.0011714,-7.9769e-05,-11.211,1.2734
22836,13.405,0.90909,0.1,0.00024614,2459.7,0.00024595,2454.3,-8.0689e-05,0.0017728,-8.2129e-05,-10.815,1.2331
22837,13.497,1,0.1,0.00024367,2435,0.00024349,2429.6,-7.9878e-05,0.0012342,-8.1309e-05,-10.746,1.2467
22838,13.22,0.90909,0.1,0.00025095,2507.8,0.00025077,2502.6,-8.2301e-05,0.0017629,-8.3678e-05,-10.348,1.2067
22839,13.313,1,0.1,0.00024847,2483,0.0002483,2477.9,-8.1487e-05,0.0012708,-8.2853e-05,-10.264,1.2202
22840,13.036,0.90909,0.1,0.00025578,2556.1,0.00025561,2551.1,-8.3919e-05,0.0017548,-8.5232e-05,-9.861,1.1804
22841,13.128,1,0.1,0.00025329,2531.2,0.00025313,2526.3,-8.3103e-05,0.0012817,-8.4402e-05,-9.7624,1.1938
22842,12.852,0.90909,0.1,0.00026063,2604.5,0.00026047,2599.9,-8.5546e-05,0.0017692,-8.679e-05,-9.3518,1.1543
22843,12.944,1,0.1,0.00025813,2579.5,0.00025797,2574.9,-8.4726e-05,0.0013299,-8.5955e-05,-9.2376,1.1677
22844,12.668,0.90909,0.1,0.0002655,2653.2,0.00026535,2648.8,-8.7179e-05,0.0018121,-8.8353e-05,-8.8177,1.1284
22845,12.76,1,0.1,0.00026299,2628.1,0.00026284,2623.7,-8.6356e-05,0.0013962,-8.7513e-05,-8.6872,1.1417
22846,12.483,0.90909,0.1,0.00027039,2702.1,0.00027025,2697.9,-8.882e-05,0.0018657,-8.9919e-05,-8.2556,1.1027
22847,12.575,1,0.1,0.00026787,2676.8,0.00026773,2672.8,-8.7995e-05,0.0015119,-8.9074e-05,-8.108,1.1158
22848,12.299,0.90909,0.1,0.0002753,2751.1,0.00027517,2747.3,-9.0469e-05,0.0019016,-9.1489e-05,-7.6626,1.0771
22849,12.391,1,0.1,0.00027276,2725.8,0.00027264,2722,-8.9641e-05,0.001618,-9.0639e-05,-7.4969,1.0902
22850,12.115,0.90909,0.1,0.00028023,2800.3,0.00028011,2796.8,-9.2126e-05,0.0019628,-9.3063e-05,-7.0353,1.0517
22851,12.207,1,0.1,0.00027768,2774.9,0.00027756,2771.4,-9.1294e-05,0.0017251,-9.2206e-05,-6.8504,1.0647
22852,11.931,0.90909,0.1,0.00028517,2849.8,0.00028506,2846.6,-9.3791e-05,0.0020833,-9.4639e-05,-6.3701,1.0266
22853,12.023,1,0.1,0.00028261,2824.2,0.00028251,2821.1,-9.2956e-05,0.0019167,-9.3777e-05,-6.1648,1.0395
22854,11.746,0.90909,0.1,0.00029013,2899.3,0.00029004,2896.5,-9.5464e-05,0.0022862,-9.6218e-05,-5.6634,1.0016
22855,11.838,1,0.1,0.00028756,2873.6,0.00028747,2870.9,-9.4626e-05,0.0022008,-9.535e-05,-5.4362,1.0144
22856,11.562,0.90909,0.1,0.00029512,2949.1,0.00029503,2946.7,-9.7145e-05,0.002589,-9.7799e-05,-4.9112,0.9768
22857,11.654,1,0.1,0.00029253,2923.3,0.00029245,2921,-9.6304e-05,0.0026586,-9.6924e-05,-4.6604,0.98952
22858,11.378,0.90909,0.1,0.00030011,2999.1,0.00030004,2997,-9.8834e-05,0.003033,-9.9381e-05,-4.1095,0.95221
22859,11.47,1,0.1,0.00029752,2973.1,0.00029745,2971.2,-9.799e-05,0.0033309,-9.8501e-05,-3.8332,0.96484
22860,11.193,0.90909,0.1,0.00030513,3049.2,0.00030508,3047.6,-0.00010053,0.0038243,-0.00010097,-3.2539,0.92782
22861,11.286,1,0.1,0.00030252,3023.1,0.00030247,3021.6,-9.9685e-05,0.0044845,-0.00010008,-2.9503,0.94036
22862,11.009,0.90909,0.1,0.00031017,3099.5,0.00031013,3098.3,-0.00010224,0.0054595,-0.00010255,-2.3399,0.90364
22863,11.101,1,0.1,0.00030754,3073.3,0.00030751,3072.3,-0.00010139,0.0070117,-0.00010166,-2.0071,0.91608
22864,10.825,0.90909,0.1,0.00031522,3150,0.00031519,3149.3,-0.00010395,0.0098731,-0.00010414,-1.3645,0.87967
22865,10.917,1,0.1,0.00031258,3123.6,0.00031256,3123.1,-0.0001031,0.015197,-0.00010324,-1.0027,0.89201
22866,10.641,0.90909,0.1,0.00032029,3200.6,0.00032028,3200.5,-0.00010567,0.041878,-0.00010573,-0.34705,0.85592
22867,10.733,1,0.1,0.00031763,3174.1,0.00031763,3174.2,-0.0001048,0.18726,-0.00010484,-0.089524,0.86815
22868,10.456,0.90909,0.1,0.00032537,3251.5,0.00032538,3251.9,-0.0001073,0.83879,-0.00010742,-0.019181,0.83238
22869,10.549,1,0.1,0.0003227,3224.8,0.00032273,3225.4,-0.00010638,1.2763,-0.00010656,-0.014655,0.84451
22870,10.272,0.90909,0.1,0.00033047,3302.5,0.00033051,3303.5,-0.00010889,2.035,-0.00010916,-0.0089921,0.80906
22871,10.364,1,0.1,0.00032779,3275.6,0.00032783,3276.9,-0.00010796,2.519,-0.0001083,-0.0084513,0.82109
22872,10.088,0.90909,0.1,0.00033559,3353.6,0.00033565,3355.3,-0.00011047,3.3268,-0.00011091,-0.0063852,0.78597
22873,10.18,1,0.1,0.00033289,3326.6,0.00033296,3328.6,-0.00010953,3.8582,-0.00011005,-0.0063403,0.79789
22874,9.9036,0.90909,0.1,0.00034073,3404.9,0.00034081,3407.3,-0.00011205,4.715,-0.00011267,-0.005329,0.7631
22875,9.9957,1,0.1,0.00033801,3377.8,0.0003381,3380.4,-0.0001111,5.2978,-0.00011181,-0.0053755,0.77491
22876,9.7193,0.90909,0.1,0.00034588,3456.4,0.00034598,3459.5,-0.00011362,6.2058,-0.00011445,-0.0048536,0.74046
22877,9.8115,1,0.1,0.00034315,3429.1,0.00034326,3432.5,-0.00011267,6.845,-0.00011358,-0.004893,0.75217
22878,9.5351,0.90909,0.1,0.00035104,3508,0.00035118,3511.9,-0.00011519,7.8064,-0.00011623,-0.004674,0.71806
22879,9.6272,1,0.1,0.0003483,3480.6,0.00034844,3484.8,-0.00011423,8.5078,-0.00011536,-0.0046605,0.72965
22880,9.3508,0.90909,0.1,0.00035623,3559.8,0.00035639,3564.6,-0.00011676,9.5246,-0.00011803,-0.0046774,0.6959
22881,9.4429,1,0.1,0.00035346,3532.2,0.00035363,3537.3,-0.00011578,10.294,-0.00011715,-0.0045977,0.70738
22882,9.1665,0.90909,0.1,0.00036142,3611.7,0.00036161,3617.4,-0.00011832,11.368,-0.00011983,-0.0048059,0.67398
22883,9.2587,1,0.1,0.00035864,3583.9,0.00035884,3590,-0.00011733,12.214,-0.00011896,-0.0046477,0.68534
22884,8.9823,0.90909,0.1,0.00036663,3663.8,0.00036686,3670.5,-0.00011987,13.346,-0.00012165,-0.0050337,0.6523
22885,9.0744,1,0.1,0.00036383,3635.8,0.00036407,3642.9,-0.00011887,14.275,-0.00012077,-0.0047884,0.66355
22886,8.798,0.90909,0.1,0.00037186,3716,0.00037212,3723.7,-0.00012142,15.465,-0.00012348,-0.0053488,0.63088
22887,8.8901,1,0.1,0.00036904,3687.8,0.00036931,3696,-0.0001204,16.487,-0.0001226,-0.0050067,0.642
22888,8.6137,0.90909,0.1,0.0003771,3768.4,0.0003774,3777.2,-0.00012296,17.735,-0.00012532,-0.0057452,0.6097
22889,8.7059,1,0.1,0.00037426,3740,0.00037457,3749.4,-0.00012193,18.86,-0.00012444,-0.0052988,0.6207
22890,8.4295,0.90909,0.1,0.00038235,3820.9,0.00038269,3830.9,-0.00012449,20.163,-0.00012717,-0.006223,0.58878
22891,8.5216,1,0.1,0.00037949,3792.3,0.00037985,3802.9,-0.00012344,21.404,-0.00012629,-0.0056624,0.59966
22892,8.2452,0.90909,0.1,0.00038762,3873.5,0.000388,3884.9,-0.00012601,22.758,-0.00012904,-0.006787,0.56812
22893,8.3373,1,0.1,0.00038473,3844.7,0.00038514,3856.7,-0.00012494,24.127,-0.00012816,-0.0061015,0.57887
22894,8.0609,0.90909,0.1,0.0003929,3926.3,0.00039333,3939,-0.00012752,25.526,-0.00013092,-0.0074435,0.54773
22895,8.1531,1,0.1,0.00038999,3897.2,0.00039044,3910.6,-0.00012643,27.039,-0.00013003,-0.0066217,0.55835
22896,7.8767,0.90909,0.1,0.0003982,3979.2,0.00039867,3993.4,-0.00012902,28.473,-0.00013281,-0.0082028,0.5276
22897,7.9688,1,0.1,0.00039526,3949.8,0.00039576,3964.8,-0.00012791,30.147,-0.00013193,-0.0072317,0.53809
22898,7.6924,0.90909,0.1,0.0004035,4032.2,0.00040403,4047.9,-0.00013051,31.604,-0.00013472,-0.0090793,0.50774
22899,7.7845,1,0.1,0.00040053,4002.6,0.00040109,4019.2,-0.00012938,33.461,-0.00013383,-0.007944,0.5181
22900,7.5081,0.90909,0.1,0.00040882,4085.4,0.0004094,4102.7,-0.00013199,34.922,-0.00013664,-0.010091,0.48815
22901,7.6003,1,0.1,0.00040583,4055.5,0.00040644,4073.8,-0.00013083,36.984,-0.00013575,-0.0087743,0.49839
22902,7.3239,0.90909,0.1,0.00041415,4138.6,0.00041479,4157.7,-0.00013345,38.427,-0.00013857,-0.011259,0.46885
22903,7.416,1,0.1,0.00041113,4108.4,0.0004118,4128.6,-0.00013226,40.721,-0.00013768,-0.0097421,0.47894
22904,7.1396,0.90909,0.1,0.00041949,4192,0.00042019,4212.9,-0.00013491,42.115,-0.00014051,-0.012612,0.44982
22905,7.2317,1,0.1,0.00041644,4161.5,0.00041718,4183.6,-0.00013368,44.673,-0.00013963,-0.010873,0.45978
22906,6.9553,0.90909,0.1,0.00042484,4245.5,0.00042561,4268.3,-0.00013635,45.978,-0.00014247,-0.014186,0.43108
22907,7.0475,1,0.1,0.00042176,4214.7,0.00042257,4238.9,-0.00013509,48.837,-0.00014159,-0.012198,0.4409
22908,6.7711,0.90909,0.1,0.0004302,4299.1,0.00043103,4323.8,-0.00013778,50.003,-0.00014444,-0.016024,0.41263
22909,6.8632,1,0.1,0.00042709,4267.9,0.00042797,4294.3,-0.00013648,53.206,-0.00014357,-0.013758,0.42231
22910,6.5868,0.90909,0.1,0.00043557,4352.7,0.00043647,4379.6,-0.0001392,54.17,-0.00014642,-0.018183,0.39447
22911,6.6789,1,0.1,0.00043242,4321.3,0.00043338,4349.8,-0.00013786,57.766,-0.00014555,-0.015602,0.40401
22912,6.4025,0.90909,0.1,0.00044095,4406.5,0.00044192,4435.4,-0.00014062,58.448,-0.0001484,-0.020733,0.37661
22913,6.4947,1,0.1,0.00043777,4374.7,0.0004388,4405.6,-0.00013923,62.496,-0.00014755,-0.017794,0.386
22914,6.2183,0.90909,0.1,0.00044633,4460.2,0.00044737,4491.3,-0.00014203,62.799,-0.00015039,-0.023765,0.35905
22915,6.3104,1,0.1,0.00044312,4428.2,0.00044423,4461.4,-0.00014059,67.366,-0.00014956,-0.020416,0.36829
22916,6.034,0.90909,0.1,0.00045172,4514.1,0.00045282,4547.3,-0.00014344,67.168,-0.00015238,-0.027397,0.34179
22917,6.1261,1,0.1,0.00044848,4481.7,0.00044966,4517.4,-0.00014194,72.334,-0.00015157,-0.023572,0.35088
22918,5.8497,0.90909,0.1,0.0004571,4567.9,0.00045827,4603.2,-0.00014485,71.486,-0.00015437,-0.031783,0.32484
22919,5.9419,1,0.1,0.00045384,4535.2,0.0004551,4573.4,-0.00014329,77.344,-0.00015358,-0.027399,0.33378
22920,5.6655,0.90909,0.1,0.00046248,4621.6,0.00046372,4658.9,-0.00014628,75.665,-0.00015635,-0.03713,0.3082
22921,5.7576,1,0.1,0.0004592,4588.8,0.00046054,4629.4,-0.00014464,82.322,-0.0001556,-0.032078,0.31698
22922,5.4812,0.90909,0.1,0.00046784,4675.2,0.00046914,4714.4,-0.00014772,79.594,-0.00015832,-0.043717,0.29187
22923,5.5733,1,0.1,0.00046455,4642.3,0.00046597,4685.2,-0.000146,87.175,-0.0001576,-0.03785,0.3005
22924,5.2969,0.90909,0.1,0.00047318,4728.5,0.00047454,4769.5,-0.00014918,83.136,-0.00016025,-0.051932,0.27587
22925,5.3891,1,0.1,0.00046989,4695.7,0.00047138,4740.9,-0.00014737,91.785,-0.00015959,-0.045043,0.28434
22926,5.1127,0.90909,0.1,0.00047848,4781.5,0.00047988,4823.9,-0.00015068,86.123,-0.00016215,-0.062325,0.26018
22927,5.2048,1,0.1,0.00047521,4748.8,0.00047677,4796.1,-0.00014877,96.007,-0.00016156,-0.054111,0.26849
22928,4.9284,0.90909,0.1,0.00048372,4833.8,0.00048516,4877.3,-0.00015222,88.353,-0.00016399,-0.075701,0.24482
22929,5.0205,1,0.1,0.0004805,4801.7,0.00048212,4850.7,-0.00015021,99.663,-0.00016348,-0.065701,0.25297
22930,4.7441,0.90909,0.1,0.00048887,4885.3,0.00049033,4929.4,-0.00015382,89.583,-0.00016575,-0.093276,0.2298
22931,4.8363,1,0.1,0.00048574,4854,0.0004874,4904.4,-0.00015169,102.53,-0.00016535,-0.080752,0.23778
22932,4.5599,0.90909,0.1,0.0004939,4935.6,0.00049536,4979.6,-0.00015548,89.53,-0.00016741,-0.11697,0.2151
22933,4.652,1,0.1,0.00049089,4905.6,0.00049259,4956.9,-0.00015324,104.37,-0.00016715,-0.10067,0.22292
22934,4.3756,0.90909,0.1,0.00049875,4984.1,0.00050019,5027.3,-0.00015722,87.861,-0.00016893,-0.14994,0.20074
22935,4.4677,1,0.1,0.00049594,4956,0.00049764,5007.5,-0.00015487,104.85,-0.00016884,-0.12766,0.20839
22936,4.1913,0.90909,0.1,0.00050337,5030.2,0.00050474,5071.7,-0.00015905,84.197,-0.00017028,-0.19776,0.18672
22937,4.2835,1,0.1,0.00050084,5004.9,0.00050251,5055.8,-0.00015658,103.63,-0.0001704,-0.16526,0.1942
22938,4.0071,0.90909,0.1,0.00050765,5073,0.00050893,5111.5,-0.00016097,78.111,-0.0001714,-0.27098,0.17305
22939,4.0992,1,0.1,0.00050551,5051.6,0.00050714,5100.9,-0.0001584,100.29,-0.00017178,-0.21957,0.18035
22940,3.8228,0.90909,0.1,0.00051149,5111.4,0.00051263,5145.4,-0.00016298,69.133,-0.00017224,-0.39194,0.15971
22941,3.9149,1,0.1,0.00050988,5095.3,0.00051141,5141.6,-0.00016034,94.373,-0.00017294,-0.30176,0.16685
22942,3.6385,0.90909,0.1,0.00051473,5143.8,0.00051566,5171.6,-0.00016508,56.774,-0.00017272,-0.61616,0.14673
22943,3.7307,1,0.1,0.00051384,5134.8,0.00051523,5176.7,-0.0001624,85.339,-0.00017381,-0.43432,0.15369
22944,3.4543,0.90909,0.1,0.00051717,5168.1,0.00051783,5187.8,-0.00016721,40.615,-0.00017277,-1.1231,0.1341
22945,3.5464,1,0.1,0.00051724,5168.8,0.00051842,5204.4,-0.00016457,72.615,-0.00017433,-0.66913,0.14089
22946,3.27,0.90909,0.1,0.00051856,5182,0.00051886,5191,-0.00016923,20.958,-0.0001724,-2.8706,0.12182
22947,3.3621,1,0.1,0.00051989,5195.3,0.0005208,5222.4,-0.00016685,55.627,-0.00017441,-1.1542,0.12843
22948,3.0857,0.90909,0.1,0.00051856,5182.1,0.00051841,5177.6,-0.00016995,5.593,-0.0001726,-14.371,0.10989
22949,3.1779,1,0.1,0.00052157,5212.1,0.0005221,5227.8,-0.00016914,34.145,-0.00017402,-2.5066,0.11633
22950,2.9015,0.90909,0.1,0.00051679,5164.3,0.00051606,5143.2,-0.00016813,2.4541,-0.00017436,-44.378,0.098316
22951,2.9936,1,0.1,0.00052196,5216,0.000522,5217.2,-0.00017077,12.01,-0.00017364,-9.5909,0.10459
22952,2.7172,0.90909,0.1,0.00051274,5123.8,0.00051128,5082.1,-0.00016487,1.7817,-0.0001763,-84.114,0.087091
22953,2.8093,1,0.1,0.00052071,5203.5,0.00052011,5186.2,-0.00016958,4.064,-0.00017525,-38.555,0.093194
22954,2.5329,0.90909,0.1,0.00050584,5054.9,0.00050347,4987.9,-0.00016017,1.5784,-0.00017806,-132.86,0.076213
22955,2.6251,1,0.1,0.00051739,5170.3,0.00051596,5129.4,-0.00016637,2.5865,-0.00017782,-83.452,0.082155
22956,2.3487,0.90909,0.1,0.00049545,4951.1,0.00049192,4852.9,-0.00015375,1.5568,-0.00017954,-192.18,0.065675
22957,2.4408,1,0.1,0.00051151,5111.6,0.00050899,5040.5,-0.00016157,2.1359,-0.00018067,-141.4,0.071465
22958,2.1644,0.90909,0.1,0.00048096,4806.2,0.00047592,4669.1,-0.00014527,1.6385,-0.00018075,-264.9,0.055468
22959,2.2565,1,0.1,0.00050261,5022.6,0.00049862,4912.3,-0.0001549,2.0037,-0.00018386,-215.58,0.061119
22960,1.9801,0.90909,0.1,0.00046196,4616.5,0.0004549,4429,-0.00013432,1.8203,-0.00018193,-355.91,0.045577
22961,2.0723,1,0.1,0.00049032,4899.8,0.00048429,4737.3,-0.00014594,2.0214,-0.00018772,-311.97,0.051104
22962,1.7959,0.90909,0.1,0.00043875,4384.5,0.00042878,4129.2,-0.00012051,1.9963,-0.00018383,-473.79,0.035983
22963,1.888,1,0.1,0.00047469,4743.7,0.00046569,4509.2,-0.00013415,2.2047,-0.00019303,-440.19,0.041408
22964,1.6116,0.90909,0.1,0.00041308,4128,0.00039866,3775.7,-0.00010353,2.4385,-0.00018813,-633.21,0.026661
22965,1.7037,1,0.1,0.00045668,4563.6,0.0004431,4225.6,-0.000119,2.229,-0.00020119,-615.32,0.032008
22966,1.4273,0.90909,0.1,0.00038989,3896.3,0.00036802,3393.9,-8.3473e-05,1.5164,-0.00019834,-861.55,0.017584
22967,1.5195,1,0.1,0.00043892,4386.2,0.00041797,3894.5,-9.9943e-05,3.1494,-0.00021462,-858.52,0.022878
22968,1.2431,0.90909,0.1,0.00038658,3863.1,0.00034988,3086.5,-6.019e-05,5.3464,-0.00022694,-1247.6,0.0087882
22969,1.3352,1,0.1,0.00042775,4274.6,0.00039436,3543.6,-7.7278e-05,-0.12142,-0.00023747,-1203.8,0.013998
22970,1.1509,1,0.1,0.00045194,4516.3,0.00039359,3344.4,-4.9999e-05,11.444,-0.0002905,-1795.6,0.0055267
22971,1.0588,0.90909,0.1,0.00032118,3209.5,0.00028218,2413.4,-3.9476e-05,-3.3431,-0.00020249,-1228.2,0.0025106
22972,23.724,1.0909,0.1,1.5498e-05,154.87,9.7282e-06,58.515,1.9196e-06,-0.1558,-1.3647e-05,-117.12,2.8889
22973,23.816,1.1818,0.1,1.5162e-05,151.52,8.2096e-06,39.885,2.8853e-06,-0.11902,-1.4084e-05,-127.62,2.9046
22974,23.908,1.0909,0.1,1.3901e-05,138.91,6.4423e-06,22.526,3.3907e-06,-0.40284,-1.3382e-05,-126.42,2.9201
22975,23.539,1.0909,0.1,1.7656e-05,176.44,1.3167e-05,96.008,3.6521e-07,-0.18225,-1.3934e-05,-107.62,2.8578
22976,23.631,1.1818,0.1,1.7015e-05,170.03,1.1642e-05,77.449,1.296e-06,-0.28349,-1.4312e-05,-117.55,2.8735
22977,23.355,1.0909,0.1,2.0245e-05,202.31,1.6647e-05,133.61,-1.1476e-06,-0.094431,-1.433e-05,-99.144,2.8267
22978,23.447,1.1818,0.1,1.9375e-05,193.62,1.5107e-05,115.16,-2.3515e-07,-0.10974,-1.4644e-05,-108.37,2.8424
22979,23.171,1.0909,0.1,2.3139e-05,231.23,2.0175e-05,171.34,-2.6388e-06,-0.075015,-1.4827e-05,-91.655,2.7957
22980,23.263,1.1818,0.1,2.2092e-05,220.76,1.8612e-05,152.9,-1.7505e-06,-0.095865,-1.5071e-05,-100.18,2.8113
22981,22.987,1.0909,0.1,2.6254e-05,262.36,2.3752e-05,209.28,-4.1085e-06,-0.054823,-1.5418e-05,-85.033,2.7646
22982,23.079,1.1818,0.1,2.5065e-05,250.47,2.2159e-05,190.78,-3.2406e-06,-0.066989,-1.5589e-05,-92.849,2.7802
22983,22.802,1.0909,0.1,2.9535e-05,295.15,2.738e-05,247.47,-5.562e-06,-0.04321,-1.6093e-05,-79.172,2.7335
22984,22.894,1.1818,0.1,2.823e-05,282.1,2.5753e-05,228.85,-4.7125e-06,-0.053553,-1.6193e-05,-86.311,2.7491
22985,22.618,1.0909,0.1,3.2943e-05,329.2,3.1055e-05,285.92,-7.0028e-06,-0.034327,-1.6842e-05,-73.959,2.7025
22986,22.71,1.1818,0.1,3.1541e-05,315.2,2.9392e-05,267.15,-6.1691e-06,-0.04261,-1.6873e-05,-80.465,2.7181
22987,22.434,1.0909,0.1,3.6449e-05,364.24,3.4772e-05,324.6,-8.4338e-06,-0.027879,-1.7653e-05,-69.296,2.6715
22988,22.526,1.1818,0.1,3.4967e-05,349.43,3.3074e-05,305.68,-7.6139e-06,-0.034949,-1.762e-05,-75.22,2.6871
22989,22.249,1.0909,0.1,4.0035e-05,400.07,3.8528e-05,363.52,-9.8571e-06,-0.022929,-1.8518e-05,-65.097,2.6405
22990,22.342,1.1818,0.1,3.8483e-05,384.56,3.6796e-05,344.43,-9.0492e-06,-0.02904,-1.8427e-05,-70.492,2.6561
22991,22.065,1.0909,0.1,4.3685e-05,436.55,4.2318e-05,402.65,-1.1275e-05,-0.019091,-1.943e-05,-61.295,2.6095
22992,22.157,1.1818,0.1,4.2073e-05,420.44,4.0554e-05,383.4,-1.0477e-05,-0.024473,-1.9286e-05,-66.209,2.6251
22993,21.881,1.0909,0.1,4.739e-05,473.57,4.614e-05,441.99,-1.2688e-05,-0.016053,-2.0383e-05,-57.833,2.5786
22994,21.973,1.1818,0.1,4.5725e-05,456.94,4.4345e-05,422.57,-1.1899e-05,-0.020851,-2.0189e-05,-62.311,2.5941
22995,21.697,1.0909,0.1,5.1141e-05,511.06,4.9991e-05,481.52,-1.4097e-05,-0.01362,-2.1371e-05,-54.666,2.5477
22996,21.789,1.1818,0.1,4.943e-05,493.96,4.8167e-05,461.95,-1.3316e-05,-0.017938,-2.1133e-05,-58.749,2.5632
22997,21.512,1.0909,0.1,5.4933e-05,548.95,5.3869e-05,521.23,-1.5505e-05,-0.011653,-2.2391e-05,-51.756,2.5168
22998,21.605,1.1818,0.1,5.318e-05,531.43,5.2018e-05,501.51,-1.4731e-05,-0.015569,-2.2113e-05,-55.482,2.5323
22999,21.328,1.0909,0.1,5.8762e-05,587.21,5.7773e-05,561.13,-1.691e-05,-0.01004,-2.3441e-05,-49.074,2.486
23000,21.42,1.1818,0.1,5.6971e-05,569.32,5.5896e-05,541.26,-1.6142e-05,-0.013622,-2.3125e-05,-52.476,2.5015
23001,21.144,1.0909,0.1,6.2624e-05,625.81,6.1701e-05,601.2,-1.8316e-05,-0.0087013,-2.4516e-05,-46.596,2.4552
23002,21.236,1.1818,0.1,6.0799e-05,607.57,5.98e-05,581.18,-1.7552e-05,-0.011998,-2.4166e-05,-49.702,2.4707
23003,20.96,1.0909,0.1,6.6517e-05,664.71,6.5652e-05,641.45,-1.972e-05,-0.0075775,-2.5615e-05,-44.3,2.4244
23004,21.052,1.1818,0.1,6.466e-05,646.16,6.3729e-05,621.29,-1.8961e-05,-0.010629,-2.5233e-05,-47.137,2.4399
23005,20.775,1.0909,0.1,7.0439e-05,703.91,6.9627e-05,681.87,-2.1125e-05,-0.0066307,-2.6737e-05,-42.168,2.3937
23006,20.867,1.1818,0.1,6.8553e-05,685.06,6.7682e-05,661.58,-2.037e-05,-0.009461,-2.6326e-05,-44.761,2.4092
23007,20.591,1.0909,0.1,7.4389e-05,743.38,7.3624e-05,722.47,-2.2531e-05,-0.0058339,-2.7879e-05,-40.187,2.363
23008,20.683,1.1818,0.1,7.2476e-05,724.26,7.1659e-05,702.04,-2.1779e-05,-0.0084692,-2.7442e-05,-42.556,2.3785
23009,20.407,1.0909,0.1,7.8366e-05,783.12,7.7643e-05,763.24,-2.3939e-05,-0.0051528,-2.9041e-05,-38.342,2.3324
23010,20.499,1.1818,0.1,7.6428e-05,763.75,7.5658e-05,742.69,-2.3189e-05,-0.0076229,-2.8579e-05,-40.507,2.3478
23011,20.223,1.0909,0.1,8.2368e-05,823.12,8.1684e-05,804.19,-2.5348e-05,-0.0045614,-3.0221e-05,-36.623,2.3019
23012,20.315,1.1818,0.1,8.0407e-05,803.51,7.968e-05,783.51,-2.46e-05,-0.0068814,-2.9736e-05,-38.601,2.3172
23013,20.038,1.0909,0.1,8.6396e-05,863.36,8.5747e-05,845.32,-2.6759e-05,-0.0040425,-3.1419e-05,-35.02,2.2713
23014,20.13,1.1818,0.1,8.4412e-05,843.53,8.3725e-05,824.52,-2.6012e-05,-0.0062318,-3.0913e-05,-36.826,2.2867
23015,19.854,1.0909,0.1,9.0448e-05,903.85,8.9831e-05,886.62,-2.8172e-05,-0.0035886,-3.2633e-05,-33.522,2.2409
23016,19.946,1.1818,0.1,8.8442e-05,883.81,8.7791e-05,865.7,-2.7427e-05,-0.0056507,-3.2107e-05,-35.172,2.2562
23017,19.67,1.0909,0.1,9.4524e-05,944.58,9.3936e-05,928.11,-2.9588e-05,-0.0031989,-3.3863e-05,-32.123,2.2105
23018,19.762,1.1818,0.1,9.2498e-05,924.34,9.188e-05,907.07,-2.8844e-05,-0.0051446,-3.3319e-05,-33.63,2.2258
23019,19.485,1.0909,0.1,9.8623e-05,985.55,9.8063e-05,969.78,-3.1008e-05,-0.0028559,-3.5108e-05,-30.815,2.1802
23020,19.578,1.1818,0.1,9.6579e-05,965.12,9.5991e-05,948.62,-3.0264e-05,-0.004707,-3.4547e-05,-32.19,2.1954
23021,19.301,1.0909,0.1,0.00010275,1026.7,0.00010221,1011.6,-3.243e-05,-0.0025461,-3.6368e-05,-29.591,2.1499
23022,19.393,1.1818,0.1,0.00010068,1006.1,0.00010012,990.36,-3.1686e-05,-0.0043081,-3.5791e-05,-30.845,2.1651
23023,19.117,1.0909,0.1,0.00010689,1068.2,0.00010638,1053.7,-3.3856e-05,-0.0022625,-3.7642e-05,-28.445,2.1197
23024,19.209,1.1818,0.1,0.00010481,1047.4,0.00010428,1032.3,-3.3112e-05,-0.0039462,-3.705e-05,-29.588,2.1349
23025,18.933,1.0909,0.1,0.00011106,1109.8,0.00011057,1095.9,-3.5286e-05,-0.0020085,-3.8928e-05,-27.371,2.0896
23026,19.025,1.1818,0.1,0.00010896,1088.9,0.00010845,1074.4,-3.4542e-05,-0.0036088,-3.8323e-05,-28.413,2.1048
23027,18.748,1.0909,0.1,0.00011525,1151.7,0.00011478,1138.3,-3.672e-05,-0.0017932,-4.0228e-05,-26.364,2.0595
23028,18.841,1.1818,0.1,0.00011314,1130.6,0.00011265,1116.7,-3.5975e-05,-0.0033152,-3.961e-05,-27.312,2.0747
23029,18.564,1.0909,0.1,0.00011946,1193.8,0.00011901,1180.9,-3.8158e-05,-0.0015996,-4.154e-05,-25.418,2.0296
23030,18.656,1.1818,0.1,0.00011734,1172.6,0.00011687,1159.2,-3.7412e-05,-0.0030637,-4.091e-05,-26.281,2.0447
23031,18.38,1.0909,0.1,0.0001237,1236.2,0.00012326,1223.7,-3.96e-05,-0.0014172,-4.2865e-05,-24.529,1.9997
23032,18.472,1.1818,0.1,0.00012156,1214.7,0.00012111,1201.9,-3.8854e-05,-0.0028211,-4.2222e-05,-25.314,2.0147
23033,18.196,1.0909,0.1,0.00012796,1278.7,0.00012754,1266.7,-4.1047e-05,-0.0012426,-4.42e-05,-23.693,1.9698
23034,18.288,1.1818,0.1,0.0001258,1257.1,0.00012537,1244.8,-4.03e-05,-0.002599,-4.3548e-05,-24.406,1.9849
23035,18.011,1.0909,0.1,0.00013224,1321.5,0.00013183,1309.9,-4.2499e-05,-0.0010839,-4.5547e-05,-22.906,1.9401
23036,18.103,1.1818,0.1,0.00013007,1299.8,0.00012965,1287.8,-4.175e-05,-0.0023783,-4.4884e-05,-23.553,1.9551
23037,17.827,1.0909,0.1,0.00013654,1364.4,0.00013615,1353.2,-4.3956e-05,-0.00095482,-4.6905e-05,-22.163,1.9105
23038,17.919,1.1818,0.1,0.00013435,1342.6,0.00013395,1331.1,-4.3205e-05,-0.0021931,-4.6233e-05,-22.75,1.9254
23039,17.643,1.0909,0.1,0.00014086,1407.7,0.00014048,1396.8,-4.5417e-05,-0.00083701,-4.8274e-05,-21.461,1.8809
23040,17.735,1.1818,0.1,0.00013866,1385.7,0.00013828,1374.6,-4.4665e-05,-0.0020372,-4.7592e-05,-21.993,1.8959
23041,17.459,1.0909,0.1,0.00014521,1451.1,0.00014484,1440.6,-4.6884e-05,-0.00072068,-4.9652e-05,-20.797,1.8515
23042,17.551,1.1818,0.1,0.000143,1429,0.00014262,1418.2,-4.6131e-05,-0.0018804,-4.8962e-05,-21.278,1.8664
23043,17.274,1.0909,0.1,0.00014957,1494.7,0.00014922,1484.5,-4.8357e-05,-0.00060215,-5.1041e-05,-20.167,1.8221
23044,17.366,1.1818,0.1,0.00014735,1472.5,0.00014699,1462.1,-4.7601e-05,-0.0017322,-5.0343e-05,-20.601,1.837
23045,17.09,1.0909,0.1,0.00015396,1538.5,0.00015362,1528.7,-4.9834e-05,-0.00049291,-5.2439e-05,-19.568,1.7929
23046,17.182,1.1818,0.1,0.00015172,1516.2,0.00015137,1506.1,-4.9077e-05,-0.0015752,-5.1733e-05,-19.96,1.8077
23047,16.906,1.0909,0.1,0.00015837,1582.6,0.00015804,1573,-5.1318e-05,-0.00041192,-5.3846e-05,-18.998,1.7637
23048,16.998,1.1818,0.1,0.00015612,1560.1,0.00015578,1550.3,-5.0558e-05,-0.0014492,-5.3133e-05,-19.35,1.7785
23049,16.721,1.0909,0.1,0.0001628,1626.9,0.00016248,1617.5,-5.2807e-05,-0.00033755,-5.5262e-05,-18.453,1.7347
23050,16.814,1.1818,0.1,0.00016054,1604.3,0.00016021,1594.8,-5.2045e-05,-0.0013507,-5.4543e-05,-18.769,1.7494
23051,16.537,1.0909,0.1,0.00016725,1671.3,0.00016694,1662.3,-5.4301e-05,-0.00025834,-5.6688e-05,-17.93,1.7058
23052,16.629,1.1818,0.1,0.00016498,1648.6,0.00016466,1639.4,-5.3537e-05,-0.0012415,-5.5961e-05,-18.214,1.7204
23053,16.353,1.0909,0.1,0.00017172,1716,0.00017142,1707.2,-5.5802e-05,-0.00017317,-5.8121e-05,-17.428,1.677
23054,16.445,1.1818,0.1,0.00016943,1693.2,0.00016913,1684.3,-5.5035e-05,-0.0011367,-5.7388e-05,-17.682,1.6915
23055,16.169,1.0909,0.1,0.00017621,1760.9,0.00017592,1752.4,-5.7308e-05,-9.3445e-05,-5.9563e-05,-16.944,1.6482
23056,16.261,1.1818,0.1,0.00017391,1737.9,0.00017362,1729.3,-5.6539e-05,-0.001018,-5.8824e-05,-17.169,1.6628
23057,15.984,1.0909,0.1,0.00018072,1806,0.00018044,1797.7,-5.8821e-05,-4.0323e-05,-6.1013e-05,-16.474,1.6197
23058,16.077,1.1818,0.1,0.00017842,1782.9,0.00017813,1774.5,-5.805e-05,-0.00092621,-6.0269e-05,-16.674,1.6341
23059,15.8,1.0909,0.1,0.00018526,1851.3,0.00018498,1843.2,-6.034e-05,7.4713e-06,-6.2471e-05,-16.018,1.5912
23060,15.892,1.1818,0.1,0.00018294,1828.1,0.00018266,1820,-5.9566e-05,-0.000862,-6.1721e-05,-16.194,1.6056
23061,15.616,1.0909,0.1,0.00018981,1896.8,0.00018954,1889,-6.1864e-05,6.4869e-05,-6.3937e-05,-15.572,1.5629
23062,15.708,1.1818,0.1,0.00018748,1873.5,0.00018721,1865.6,-6.1088e-05,-0.00078322,-6.3181e-05,-15.726,1.5772
23063,15.432,1.0909,0.1,0.00019438,1942.5,0.00019412,1934.9,-6.3396e-05,0.00013412,-6.541e-05,-15.134,1.5347
23064,15.524,1.1818,0.1,0.00019204,1919.1,0.00019178,1911.4,-6.2616e-05,-0.0007016,-6.4648e-05,-15.268,1.549
23065,15.247,1.0909,0.1,0.00019898,1988.4,0.00019872,1981,-6.4933e-05,0.00019975,-6.689e-05,-14.702,1.5066
23066,15.339,1.1818,0.1,0.00019663,1964.9,0.00019637,1957.5,-6.4151e-05,-0.0006007,-6.6123e-05,-14.818,1.5208
23067,15.063,1.0909,0.1,0.00020359,2034.5,0.00020335,2027.3,-6.6477e-05,0.00023746,-6.8377e-05,-14.274,1.4786
23068,15.155,1.1818,0.1,0.00020123,2010.9,0.00020098,2003.7,-6.5693e-05,-0.00052786,-6.7605e-05,-14.373,1.4928
23069,14.879,1.0909,0.1,0.00020823,2080.8,0.00020799,2073.9,-6.8028e-05,0.00027238,-6.9871e-05,-13.848,1.4508
23070,14.971,1.1818,0.1,0.00020585,2057.1,0.00020561,2050.1,-6.724e-05,-0.00048245,-6.9094e-05,-13.93,1.4649
23071,14.695,1.0909,0.1,0.00021288,2127.3,0.00021265,2120.6,-6.9585e-05,0.00032025,-7.1371e-05,-13.421,1.4232
23072,14.787,1.1818,0.1,0.0002105,2103.5,0.00021026,2096.7,-6.8795e-05,-0.00041661,-7.059e-05,-13.488,1.4372
23073,14.51,1.0909,0.1,0.00021755,2174,0.00021733,2167.5,-7.1148e-05,0.00038265,-7.2878e-05,-12.991,1.3956
23074,14.602,1.1818,0.1,0.00021516,2150.1,0.00021493,2143.6,-7.0355e-05,-0.00034481,-7.2091e-05,-13.044,1.4096
23075,14.326,1.0909,0.1,0.00022225,2220.9,0.00022203,2214.6,-7.2719e-05,0.00044386,-7.439e-05,-12.556,1.3683
23076,14.418,1.1818,0.1,0.00021984,2196.9,0.00021963,2190.6,-7.1923e-05,-0.00024908,-7.3599e-05,-12.595,1.3822
23077,14.142,1.0909,0.1,0.00022696,2268.1,0.00022675,2262,-7.4296e-05,0.00047805,-7.5909e-05,-12.114,1.341
23078,14.234,1.1818,0.1,0.00022454,2243.9,0.00022434,2237.8,-7.3498e-05,-0.00017902,-7.5113e-05,-12.14,1.3549
23079,13.957,1.0909,0.1,0.00023169,2315.3,0.00023149,2309.5,-7.5881e-05,0.00051202,-7.7433e-05,-11.662,1.314
23080,14.05,1.1818,0.1,0.00022927,2291.1,0.00022907,2285.2,-7.5079e-05,-0.00013561,-7.6633e-05,-11.675,1.3277
23081,13.773,1.0909,0.1,0.00023645,2362.8,0.00023625,2357.2,-7.7472e-05,0.00056434,-7.8962e-05,-11.198,1.2871
23082,13.865,1.1818,0.1,0.00023401,2338.5,0.00023382,2332.8,-7.6667e-05,-6.5162e-05,-7.8158e-05,-11.199,1.3008
23083,13.589,1.0909,0.1,0.00024122,2410.5,0.00024103,2405.1,-7.907e-05,0.00063805,-8.0497e-05,-10.718,1.2603
23084,13.681,1.1818,0.1,0.00023877,2386,0.00023858,2380.7,-7.8263e-05,1.6924e-05,-7.9688e-05,-10.708,1.2739
23085,13.405,1.0909,0.1,0.00024601,2458.4,0.00024583,2453.3,-8.0676e-05,0.00071587,-8.2036e-05,-10.221,1.2337
23086,13.497,1.1818,0.1,0.00024355,2433.8,0.00024337,2428.7,-7.9865e-05,0.00013387,-8.1223e-05,-10.199,1.2473
23087,13.22,1.0909,0.1,0.00025082,2506.5,0.00025065,2501.6,-8.2289e-05,0.00077021,-8.3581e-05,-9.7044,1.2073
23088,13.313,1.1818,0.1,0.00024835,2481.8,0.00024818,2476.9,-8.1475e-05,0.00022805,-8.2762e-05,-9.6705,1.2208
23089,13.036,1.0909,0.1,0.00025565,2554.7,0.00025549,2550.1,-8.3909e-05,0.00083422,-8.5129e-05,-9.1643,1.181
23090,13.128,1.1818,0.1,0.00025316,2529.9,0.00025301,2525.3,-8.3092e-05,0.00030378,-8.4306e-05,-9.1186,1.1944
23091,12.852,1.0909,0.1,0.00026049,2603.1,0.00026035,2598.8,-8.5537e-05,0.00093112,-8.6681e-05,-8.5979,1.1549
23092,12.944,1.1818,0.1,0.000258,2578.2,0.00025785,2573.9,-8.4717e-05,0.00042498,-8.5853e-05,-8.5403,1.1683
23093,12.668,1.0909,0.1,0.00026536,2651.8,0.00026522,2647.8,-8.7172e-05,0.0010672,-8.8237e-05,-8.0021,1.129
23094,12.76,1.1818,0.1,0.00026286,2626.7,0.00026272,2622.8,-8.6349e-05,0.00057672,-8.7405e-05,-7.9324,1.1423
23095,12.483,1.0909,0.1,0.00027024,2700.6,0.00027012,2696.9,-8.8815e-05,0.0012328,-8.9796e-05,-7.3735,1.1033
23096,12.575,1.1818,0.1,0.00026773,2675.4,0.0002676,2671.8,-8.7989e-05,0.00079349,-8.8959e-05,-7.2911,1.1165
23097,12.299,1.0909,0.1,0.00027515,2749.6,0.00027503,2746.2,-9.0466e-05,0.0014086,-9.1359e-05,-6.7086,1.0778
23098,12.391,1.1818,0.1,0.00027262,2724.3,0.00027251,2721,-8.9636e-05,0.0010265,-9.0517e-05,-6.613,1.0908
23099,12.115,1.0909,0.1,0.00028007,2798.7,0.00027996,2795.7,-9.2124e-05,0.0016472,-9.2924e-05,-6.0034,1.0524
23100,12.207,1.1818,0.1,0.00027753,2773.4,0.00027743,2770.4,-9.1292e-05,0.001299,-9.2077e-05,-5.894,1.0654
23101,11.931,1.0909,0.1,0.00028501,2848.1,0.00028492,2845.5,-9.3791e-05,0.002009,-9.4491e-05,-5.254,1.0273
23102,12.023,1.1818,0.1,0.00028245,2822.6,0.00028237,2820,-9.2956e-05,0.0017206,-9.3639e-05,-5.1299,1.0401
23103,11.746,1.0909,0.1,0.00028996,2897.6,0.00028988,2895.4,-9.5466e-05,0.0025681,-9.6059e-05,-4.4559,1.0023
23104,11.838,1.1818,0.1,0.0002874,2872,0.00028732,2869.8,-9.4627e-05,0.0023531,-9.5202e-05,-4.3164,1.0151
23105,11.562,1.0909,0.1,0.00029493,2947.3,0.00029487,2945.5,-9.7149e-05,0.0034514,-9.763e-05,-3.6049,0.9775
23106,11.654,1.1818,0.1,0.00029236,2921.6,0.0002923,2919.9,-9.6308e-05,0.0034046,-9.6767e-05,-3.4487,0.99019
23107,11.378,1.0909,0.1,0.00029992,2997.2,0.00029988,2995.8,-9.8841e-05,0.0050035,-9.9201e-05,-2.6962,0.95292
23108,11.47,1.1818,0.1,0.00029734,2971.3,0.0002973,2970.1,-9.7996e-05,0.0052879,-9.8333e-05,-2.5223,0.96552
23109,11.193,1.0909,0.1,0.00030493,3047.2,0.0003049,3046.4,-0.00010054,0.0085754,-0.00010077,-1.726,0.92855
23110,11.286,1.1818,0.1,0.00030233,3021.2,0.00030231,3020.5,-9.9693e-05,0.0098339,-9.9899e-05,-1.5336,0.94104
23111,11.009,1.0909,0.1,0.00030996,3097.4,0.00030995,3097.1,-0.00010225,0.02357,-0.00010235,-0.69795,0.90438
23112,11.101,1.1818,0.1,0.00030734,3071.3,0.00030734,3071.1,-0.0001014,0.034741,-0.00010147,-0.49429,0.91678
23113,10.825,1.0909,0.1,0.000315,3147.8,0.000315,3148,-0.00010391,0.48222,-0.00010398,-0.03822,0.88042
23114,10.917,1.1818,0.1,0.00031237,3121.6,0.00031238,3121.9,-0.00010302,0.70939,-0.00010312,-0.027586,0.89272
23115,10.641,1.0909,0.1,0.00032005,3198.3,0.00032008,3199.2,-0.00010548,1.6566,-0.0001057,-0.01254,0.85668
23116,10.733,1.1818,0.1,0.00031742,3172,0.00031745,3172.9,-0.00010459,1.9187,-0.00010484,-0.011596,0.86887
23117,10.456,1.0909,0.1,0.00032513,3249,0.00032518,3250.5,-0.00010705,2.9406,-0.00010744,-0.0080518,0.83315
23118,10.549,1.1818,0.1,0.00032247,3222.5,0.00032253,3224.1,-0.00010615,3.2311,-0.00010658,-0.0078576,0.84524
23119,10.272,1.0909,0.1,0.00033021,3299.9,0.00033029,3302,-0.00010861,4.3231,-0.00010919,-0.0062937,0.80984
23120,10.364,1.1818,0.1,0.00032755,3273.2,0.00032763,3275.5,-0.0001077,4.644,-0.00010832,-0.0062923,0.82183
23121,10.088,1.0909,0.1,0.00033532,3350.9,0.00033542,3353.8,-0.00011017,5.8101,-0.00011094,-0.0054036,0.78676
23122,10.18,1.1818,0.1,0.00033264,3324.1,0.00033274,3327.2,-0.00010925,6.1645,-0.00011008,-0.0054324,0.79864
23123,9.9036,1.0909,0.1,0.00034044,3402,0.00034056,3405.7,-0.00011172,7.4092,-0.00011271,-0.004924,0.7639
23124,9.9957,1.1818,0.1,0.00033774,3375.1,0.00033787,3379,-0.0001108,7.8004,-0.00011184,-0.0049412,0.77567
23125,9.7193,1.0909,0.1,0.00034557,3453.3,0.00034572,3457.9,-0.00011327,9.1288,-0.00011449,-0.0046667,0.74128
23126,9.8115,1.1818,0.1,0.00034286,3426.2,0.00034302,3431,-0.00011234,9.5609,-0.00011362,-0.0046543,0.75294
23127,9.5351,1.0909,0.1,0.00035072,3504.7,0.0003509,3510.2,-0.00011482,10.978,-0.00011628,-0.0045536,0.71889
23128,9.6272,1.1818,0.1,0.00034799,3477.5,0.00034818,3483.2,-0.00011388,11.455,-0.0001154,-0.0044911,0.73043
23129,9.3508,1.0909,0.1,0.00035588,3556.3,0.00035609,3562.8,-0.00011635,12.966,-0.00011808,-0.0045468,0.69674
23130,9.4429,1.1818,0.1,0.00035313,3528.9,0.00035336,3535.6,-0.00011541,13.494,-0.0001172,-0.0044301,0.70817
23131,9.1665,1.0909,0.1,0.00036105,3608,0.0003613,3615.5,-0.00011788,15.104,-0.00011989,-0.004621,0.67482
23132,9.2587,1.1818,0.1,0.00035829,3580.4,0.00035855,3588.2,-0.00011692,15.688,-0.00011901,-0.0044401,0.68614
23133,8.9823,1.0909,0.1,0.00036624,3659.8,0.00036653,3668.5,-0.0001194,17.4,-0.00012172,-0.0047653,0.65316
23134,9.0744,1.1818,0.1,0.00036346,3632.1,0.00036376,3641,-0.00011843,18.048,-0.00012083,-0.0045125,0.66436
23135,8.798,1.0909,0.1,0.00037143,3711.8,0.00037177,3721.7,-0.00012091,19.867,-0.00012356,-0.0049743,0.63174
23136,8.8901,1.1818,0.1,0.00036864,3683.8,0.00036898,3694.1,-0.00011993,20.585,-0.00012267,-0.0046418,0.64282
23137,8.6137,1.0909,0.1,0.00037664,3763.8,0.00037702,3775,-0.00012241,22.514,-0.00012541,-0.0052477,0.61058
23138,8.7059,1.1818,0.1,0.00037383,3735.7,0.00037422,3747.3,-0.00012141,23.313,-0.00012452,-0.0048264,0.62153
23139,8.4295,1.0909,0.1,0.00038187,3816,0.00038229,3828.6,-0.0001239,25.353,-0.00012727,-0.0055871,0.58967
23140,8.5216,1.1818,0.1,0.00037903,3787.7,0.00037947,3800.7,-0.00012288,26.242,-0.00012638,-0.0050679,0.6005
23141,8.2452,1.0909,0.1,0.0003871,3868.3,0.00038757,3882.4,-0.00012537,28.394,-0.00012915,-0.0059974,0.56902
23142,8.3373,1.1818,0.1,0.00038424,3839.8,0.00038473,3854.4,-0.00012434,29.385,-0.00012825,-0.0053697,0.57972
23143,8.0609,1.0909,0.1,0.00039234,3920.7,0.00039287,3936.4,-0.00012683,31.647,-0.00013104,-0.0064868,0.54863
23144,8.1531,1.1818,0.1,0.00038946,3891.9,0.00039001,3908.2,-0.00012578,32.755,-0.00013014,-0.0057384,0.55921
23145,7.8767,1.0909,0.1,0.0003976,3973.2,0.00039818,3990.7,-0.00012827,35.123,-0.00013294,-0.0070662,0.52851
23146,7.9688,1.1818,0.1,0.00039469,3944.2,0.0003953,3962.2,-0.00012721,36.363,-0.00013205,-0.0061834,0.53896
23147,7.6924,1.0909,0.1,0.00040286,4025.8,0.00040351,4045.1,-0.00012969,38.829,-0.00013486,-0.0077495,0.50866
23148,7.7845,1.1818,0.1,0.00039993,3996.5,0.0004006,4016.5,-0.00012861,40.222,-0.00013396,-0.0067165,0.51898
23149,7.5081,1.0909,0.1,0.00040813,4078.5,0.00040884,4099.7,-0.0001311,42.772,-0.0001368,-0.0085545,0.48908
23150,7.6003,1.1818,0.1,0.00040518,4049,0.00040591,4071,-0.00013,44.34,-0.0001359,-0.0073532,0.49927
23151,7.3239,1.0909,0.1,0.00041341,4131.3,0.00041419,4154.6,-0.0001325,46.958,-0.00013875,-0.0095043,0.46978
23152,7.416,1.1818,0.1,0.00041043,4101.5,0.00041124,4125.6,-0.00013136,48.728,-0.00013785,-0.0081131,0.47983
23153,7.1396,1.0909,0.1,0.0004187,4184.2,0.00041955,4209.6,-0.00013387,51.387,-0.00014071,-0.010627,0.45077
23154,7.2317,1.1818,0.1,0.00041569,4154.1,0.00041657,4180.5,-0.00013271,53.39,-0.00013982,-0.0090214,0.46068
23155,6.9553,1.0909,0.1,0.000424,4237.1,0.00042493,4264.8,-0.00013523,56.057,-0.00014269,-0.01196,0.43203
23156,7.0475,1.1818,0.1,0.00042096,4206.7,0.00042192,4235.6,-0.00013403,58.332,-0.0001418,-0.01011,0.44181
23157,6.7711,1.0909,0.1,0.00042931,4290.1,0.00043031,4320.3,-0.00013657,60.962,-0.00014468,-0.013549,0.41359
23158,6.8632,1.1818,0.1,0.00042624,4259.4,0.00042728,4290.8,-0.00013534,63.552,-0.00014379,-0.011418,0.42322
23159,6.5868,1.0909,0.1,0.00043462,4343.2,0.00043571,4375.9,-0.00013789,66.086,-0.00014669,-0.015451,0.39544
23160,6.6789,1.1818,0.1,0.00043152,4312.2,0.00043265,4346.3,-0.00013662,69.044,-0.00014581,-0.012997,0.40492
23161,6.4025,1.0909,0.1,0.00043994,4396.4,0.00044111,4431.6,-0.0001392,71.408,-0.00014871,-0.017742,0.37758
23162,6.4947,1.1818,0.1,0.0004368,4365,0.00043803,4401.9,-0.00013788,74.797,-0.00014784,-0.014912,0.38692
23163,6.2183,1.0909,0.1,0.00044527,4449.6,0.00044653,4487.5,-0.0001405,76.896,-0.00015073,-0.020518,0.36002
23164,6.3104,1.1818,0.1,0.0004421,4417.9,0.00044342,4457.8,-0.00013912,80.789,-0.00014988,-0.017247,0.36922
23165,6.034,1.0909,0.1,0.0004506,4502.9,0.00045195,4543.6,-0.00014178,82.505,-0.00015277,-0.023901,0.34277
23166,6.1261,1.1818,0.1,0.0004474,4470.9,0.00044881,4513.7,-0.00014035,86.99,-0.00015193,-0.020108,0.35181
23167,5.8497,1.0909,0.1,0.00045593,4556.2,0.00045737,4599.6,-0.00014307,88.175,-0.00015481,-0.028057,0.32582
23168,5.9419,1.1818,0.1,0.0004527,4523.9,0.00045422,4569.8,-0.00014157,93.354,-0.00015399,-0.023637,0.33472
23169,5.6655,1.0909,0.1,0.00046127,4609.5,0.00046279,4655.7,-0.00014435,93.827,-0.00015685,-0.0332,0.30919
23170,5.7576,1.1818,0.1,0.00045801,4576.9,0.00045963,4626,-0.00014277,99.823,-0.00015606,-0.028018,0.31792
23171,5.4812,1.0909,0.1,0.0004666,4662.8,0.00046821,4711.7,-0.00014565,99.361,-0.00015888,-0.039622,0.29287
23172,5.5733,1.1818,0.1,0.00046332,4630,0.00046504,4682.2,-0.00014398,106.32,-0.00015814,-0.033498,0.30145
23173,5.2969,1.0909,0.1,0.00047193,4716,0.00047362,4767.5,-0.00014696,104.65,-0.0001609,-0.04772,0.27686
23174,5.3891,1.1818,0.1,0.00046864,4683.1,0.00047045,4738.5,-0.00014519,112.74,-0.0001602,-0.040407,0.28528
23175,5.1127,1.0909,0.1,0.00047724,4769.1,0.00047901,4822.9,-0.0001483,109.54,-0.00016289,-0.058047,0.26118
23176,5.2048,1.1818,0.1,0.00047395,4736.2,0.00047586,4794.5,-0.00014642,118.95,-0.00016226,-0.049198,0.26944
23177,4.9284,1.0909,0.1,0.00048252,4821.9,0.00048436,4877.8,-0.00014968,113.84,-0.00016484,-0.071388,0.24582
23178,5.0205,1.1818,0.1,0.00047925,4789.2,0.00048125,4850.4,-0.00014768,124.8,-0.0001643,-0.060501,0.25392
23179,4.7441,1.0909,0.1,0.00048777,4874.3,0.00048966,4931.9,-0.00015112,117.31,-0.00016675,-0.088886,0.23079
23180,4.8363,1.1818,0.1,0.00048454,4842.1,0.00048662,4905.8,-0.00014898,130.08,-0.00016631,-0.075205,0.23873
23181,4.5599,1.0909,0.1,0.00049295,4926.1,0.00049487,4984.8,-0.00015263,119.67,-0.00016857,-0.11225,0.2161
23182,4.652,1.1818,0.1,0.00048981,4894.7,0.00049195,4960.5,-0.00015034,134.56,-0.00016826,-0.094597,0.22387
23183,4.3756,1.0909,0.1,0.00049803,4976.9,0.00049997,5036,-0.00015423,120.6,-0.0001703,-0.14411,0.20174
23184,4.4677,1.1818,0.1,0.00049503,4946.8,0.00049723,5014.3,-0.00015178,137.95,-0.00017015,-0.12058,0.20934
23185,4.1913,1.0909,0.1,0.00050299,5026.4,0.00050491,5085.1,-0.00015594,119.71,-0.0001719,-0.18869,0.18772
23186,4.2835,1.1818,0.1,0.00050018,4998.3,0.00050241,5066.7,-0.00015331,139.89,-0.00017195,-0.15604,0.19515
23187,4.0071,1.0909,0.1,0.00050774,5073.9,0.00050962,5131.1,-0.00015777,116.54,-0.00017332,-0.25314,0.17404
23188,4.0992,1.1818,0.1,0.00050523,5048.8,0.00050746,5117.2,-0.00015497,139.98,-0.00017363,-0.20555,0.1813
23189,3.8228,1.0909,0.1,0.00051223,5118.8,0.00051402,5173,-0.00015975,110.57,-0.00017451,-0.35025,0.16071
23190,3.9149,1.1818,0.1,0.00051013,5097.8,0.00051233,5165.1,-0.00015678,137.73,-0.00017514,-0.27661,0.16779
23191,3.6385,1.0909,0.1,0.00051635,5159.9,0.00051799,5209.5,-0.00016189,101.2,-0.00017543,-0.5051,0.14773
23192,3.7307,1.1818,0.1,0.00051483,5144.7,0.00051695,5209.5,-0.00015875,132.56,-0.00017645,-0.38223,0.15464
23193,3.4543,1.0909,0.1,0.00051996,5196,0.00052138,5238.9,-0.0001642,87.741,-0.00017598,-0.77329,0.1351
23194,3.5464,1.1818,0.1,0.00051922,5188.6,0.00052121,5249.1,-0.00016094,123.77,-0.00017748,-0.54685,0.14183
23195,3.27,1.0909,0.1,0.0005229,5225.3,0.00052402,5259.1,-0.00016668,69.445,-0.00017609,-1.3044,0.12283
23196,3.3621,1.1818,0.1,0.00052321,5228.5,0.00052499,5282.5,-0.00016335,110.54,-0.00017818,-0.8215,0.12938
23197,3.0857,1.0909,0.1,0.00052494,5245.7,0.00052565,5267.1,-0.00016927,45.756,-0.00017571,-2.6588,0.11091
23198,3.1779,1.1818,0.1,0.00052666,5263,0.00052814,5307.6,-0.00016603,91.872,-0.00017844,-1.3318,0.11729
23199,2.9015,1.0909,0.1,0.00052581,5254.5,0.00052599,5259.6,-0.0001715,19.022,-0.00017518,-8.6446,0.099346
23200,2.9936,1.1818,0.1,0.00052939,5290.3,0.00053045,5322,-0.00016899,66.676,-0.0001782,-2.4826,0.10555
23201,2.7172,1.0909,0.1,0.00052521,5248.5,0.00052466,5232.4,-0.00017094,5.9056,-0.00017678,-37.927,0.088141
23202,2.8093,1.1818,0.1,0.00053121,5308.4,0.00053168,5322.6,-0.00017205,35.035,-0.00017757,-6.4211,0.094175
23203,2.5329,1.0909,0.1,0.00052278,5224.2,0.00052124,5180.1,-0.00016773,3.4101,-0.00018022,-90.404,0.077292
23204,2.6251,1.1818,0.1,0.0005319,5315.4,0.00053156,5305.6,-0.00017319,10.392,-0.00017851,-29.597,0.08316
23205,2.3487,1.0909,0.1,0.00051815,5177.9,0.00051525,5096.5,-0.0001627,2.67,-0.00018455,-161.55,0.066796
23206,2.4408,1.1818,0.1,0.00053127,5309,0.00052978,5266.5,-0.00017051,4.7926,-0.00018294,-88.606,0.072506
23207,2.1644,1.0909,0.1,0.00051102,5106.7,0.0005062,4974.6,-0.00015556,2.4059,-0.00019004,-256.72,0.056645
23208,2.2565,1.1818,0.1,0.00052919,5288.3,0.00052603,5199.9,-0.00016557,3.4012,-0.0001894,-175.64,0.062208
23209,1.9801,1.0909,0.1,0.00050135,5010,0.0004937,4807.1,-0.00014576,2.3962,-0.00019743,-385.79,0.046831
23210,2.0723,1.1818,0.1,0.00052576,5254,0.00052008,5099.7,-0.00015826,2.9026,-0.00019836,-298.39,0.052261
23211,1.7959,1.0909,0.1,0.00048964,4893,0.00047762,4587.7,-0.00013264,2.4246,-0.00020799,-563.76,0.037337
23212,1.888,1.1818,0.1,0.00052148,5211.2,0.00051184,4959.7,-0.00014788,2.8192,-0.00021122,-473.07,0.042656
23213,1.6116,1.0909,0.1,0.00047746,4771.3,0.00045847,4314.9,-0.00011541,2.9476,-0.00022375,-811.04,0.028141
23214,1.7037,1.1818,0.1,0.00051763,5172.7,0.00050152,4773.8,-0.00013346,2.8102,-0.00023017,-723.79,0.033376
23215,1.4273,1.0909,0.1,0.00046874,4684.2,0.00043826,3998.8,-9.3741e-05,1.5664,-0.00024773,-1155.4,0.019215
23216,1.5195,1.1818,0.1,0.00051657,5162.2,0.00048964,4537.6,-0.00011378,3.7958,-0.0002581,-1080.6,0.024396
23217,1.2431,1.0909,0.1,0.00048113,4808,0.00042955,3737.5,-6.7026e-05,6.4408,-0.00029259,-1688.3,0.010558
23218,1.3352,1.1818,0.1,0.00052336,5230,0.00047815,4255.8,-8.8296e-05,-0.19627,-0.00029891,-1582.6,0.015692
23219,1.1509,1.1818,0.1,0.0005682,5678.1,0.00048863,4100.5,-5.5594e-05,11.377,-0.0003742,-2382.5,0.0073093
23220,1.0588,1.0909,0.1,0.0004048,4045.2,0.0003496,2941.9,-4.2066e-05,-0.95592,-0.00026433,-1670.9,0.0029007
23221,23.724,1.2727,0.1,1.6556e-05,165.44,1.0116e-05,58.767,2.2713e-06,-0.17455,-1.4751e-05,-128.08,2.8891
23222,23.816,1.3636,0.1,1.6169e-05,161.58,8.5541e-06,39.922,3.2219e-06,-0.14164,-1.5115e-05,-137.92,2.9047
23223,23.908,1.2727,0.1,1.5009e-05,149.98,6.8132e-06,22.544,3.7581e-06,-0.41102,-1.45e-05,-137.59,2.9202
23224,23.539,1.2727,0.1,1.8658e-05,186.45,1.3582e-05,96.612,6.9771e-07,-0.19534,-1.5025e-05,-118.33,2.858
23225,23.631,1.3636,0.1,1.7985e-05,179.73,1.2017e-05,77.837,1.618e-06,-0.29661,-1.5343e-05,-127.73,2.8736
23226,23.355,1.2727,0.1,2.1176e-05,211.62,1.7074e-05,134.48,-8.3733e-07,-0.10516,-1.5389e-05,-109.44,2.8269
23227,23.447,1.3636,0.1,2.0288e-05,202.74,1.5501e-05,115.84,6.8062e-08,-0.11942,-1.5656e-05,-118.26,2.8425
23228,23.171,1.2727,0.1,2.3992e-05,239.76,2.0601e-05,172.37,-2.3518e-06,-0.084758,-1.5838e-05,-101.41,2.7958
23229,23.263,1.3636,0.1,2.2938e-05,229.22,1.9014e-05,153.79,-1.468e-06,-0.10455,-1.6048e-05,-109.65,2.8114
23230,22.987,1.2727,0.1,2.7028e-05,270.1,2.4165e-05,210.39,-3.8443e-06,-0.063823,-1.6369e-05,-94.17,2.7647
23231,23.079,1.3636,0.1,2.5841e-05,258.23,2.2557e-05,191.79,-2.9791e-06,-0.074905,-1.6519e-05,-101.81,2.7803
23232,22.802,1.2727,0.1,3.0232e-05,302.11,2.7771e-05,248.58,-5.3194e-06,-0.051638,-1.6978e-05,-87.653,2.7337
23233,22.894,1.3636,0.1,2.8935e-05,289.15,2.6137e-05,229.92,-4.4714e-06,-0.060961,-1.7067e-05,-94.698,2.7493
23234,22.618,1.2727,0.1,3.3566e-05,335.43,3.1418e-05,286.97,-6.7801e-06,-0.042246,-1.7659e-05,-81.779,2.7026
23235,22.71,1.3636,0.1,3.2178e-05,321.56,2.9755e-05,268.2,-5.9473e-06,-0.049589,-1.7687e-05,-88.256,2.7182
23236,22.434,1.2727,0.1,3.7004e-05,369.79,3.5105e-05,325.56,-8.2292e-06,-0.035331,-1.8402e-05,-76.471,2.6716
23237,22.526,1.3636,0.1,3.5538e-05,355.14,3.3411e-05,306.67,-7.4099e-06,-0.04155,-1.8373e-05,-82.413,2.6872
23238,22.249,1.2727,0.1,4.0527e-05,404.99,3.8829e-05,364.37,-9.669e-06,-0.029944,-1.9202e-05,-71.66,2.6406
23239,22.342,1.3636,0.1,3.8994e-05,389.67,3.7105e-05,345.34,-8.8615e-06,-0.035289,-1.9118e-05,-77.102,2.6562
23240,22.065,1.2727,0.1,4.412e-05,440.89,4.2588e-05,403.38,-1.1101e-05,-0.025695,-2.0053e-05,-67.282,2.6097
23241,22.157,1.3636,0.1,4.2527e-05,424.98,4.0834e-05,384.2,-1.0304e-05,-0.030389,-1.9918e-05,-72.264,2.6252
23242,21.881,1.2727,0.1,4.7772e-05,477.39,4.638e-05,442.59,-1.2528e-05,-0.022274,-2.0947e-05,-63.284,2.5787
23243,21.973,1.3636,0.1,4.6127e-05,460.95,4.4597e-05,423.26,-1.174e-05,-0.026452,-2.0765e-05,-67.843,2.5943
23244,21.697,1.2727,0.1,5.1476e-05,514.41,5.0202e-05,481.99,-1.395e-05,-0.019485,-2.1882e-05,-59.622,2.5478
23245,21.789,1.3636,0.1,4.9784e-05,497.5,4.8391e-05,462.52,-1.3169e-05,-0.023243,-2.1656e-05,-63.793,2.5634
23246,21.512,1.2727,0.1,5.5226e-05,551.87,5.4053e-05,521.58,-1.5368e-05,-0.017186,-2.2853e-05,-56.257,2.517
23247,21.605,1.3636,0.1,5.3491e-05,534.54,5.2215e-05,501.96,-1.4594e-05,-0.020596,-2.2587e-05,-60.073,2.5325
23248,21.328,1.2727,0.1,5.9016e-05,589.75,5.7931e-05,561.36,-1.6784e-05,-0.015268,-2.3857e-05,-53.158,2.4861
23249,21.42,1.3636,0.1,5.7243e-05,572.03,5.6068e-05,541.59,-1.6016e-05,-0.01839,-2.3553e-05,-56.649,2.5016
23250,21.144,1.2727,0.1,6.2843e-05,627.99,6.1836e-05,601.33,-1.8198e-05,-0.013647,-2.489e-05,-50.296,2.4554
23251,21.236,1.3636,0.1,6.1035e-05,609.93,5.9949e-05,581.41,-1.7435e-05,-0.016524,-2.4552e-05,-53.49,2.4708
23252,20.96,1.2727,0.1,6.6704e-05,666.58,6.5766e-05,641.47,-1.9611e-05,-0.012263,-2.5951e-05,-47.65,2.4246
23253,21.052,1.3636,0.1,6.4864e-05,648.19,6.3855e-05,621.42,-1.8852e-05,-0.01493,-2.5581e-05,-50.572,2.4401
23254,20.775,1.2727,0.1,7.0598e-05,705.49,6.972e-05,681.8,-2.1024e-05,-0.011075,-2.7038e-05,-45.199,2.3939
23255,20.867,1.3636,0.1,6.8728e-05,686.81,6.7788e-05,661.61,-2.0269e-05,-0.013553,-2.6638e-05,-47.872,2.4093
23256,20.591,1.2727,0.1,7.4522e-05,744.71,7.3699e-05,722.31,-2.2436e-05,-0.010055,-2.8148e-05,-42.925,2.3632
23257,20.683,1.3636,0.1,7.2624e-05,725.74,7.1746e-05,701.99,-2.1685e-05,-0.012366,-2.7721e-05,-45.37,2.3786
23258,20.407,1.2727,0.1,7.8475e-05,784.21,7.7701e-05,763.01,-2.385e-05,-0.0091676,-2.928e-05,-40.813,2.3326
23259,20.499,1.3636,0.1,7.6552e-05,764.99,7.5728e-05,742.55,-2.3101e-05,-0.011339,-2.8829e-05,-43.05,2.348
23260,20.223,1.2727,0.1,8.2457e-05,824,8.1727e-05,803.88,-2.5264e-05,-0.0083849,-3.0434e-05,-38.851,2.3021
23261,20.315,1.3636,0.1,8.0508e-05,804.53,7.9735e-05,783.3,-2.4517e-05,-0.010429,-2.9959e-05,-40.896,2.3174
23262,20.038,1.2727,0.1,8.6465e-05,864.05,8.5776e-05,844.94,-2.668e-05,-0.0076882,-3.1607e-05,-37.025,2.2716
23263,20.13,1.3636,0.1,8.4494e-05,844.36,8.3765e-05,824.23,-2.5935e-05,-0.0096238,-3.111e-05,-38.895,2.2869
23264,19.854,1.2727,0.1,9.05e-05,904.37,8.9847e-05,886.19,-2.8099e-05,-0.0070682,-3.2799e-05,-35.324,2.2411
23265,19.946,1.3636,0.1,8.8507e-05,884.46,8.7818e-05,865.35,-2.7354e-05,-0.0088962,-3.2282e-05,-37.034,2.2564
23266,19.67,1.2727,0.1,9.456e-05,944.95,9.3941e-05,927.62,-2.9519e-05,-0.0065261,-3.4009e-05,-33.74,2.2107
23267,19.762,1.3636,0.1,9.2546e-05,924.83,9.1895e-05,906.66,-2.8776e-05,-0.0082551,-3.3473e-05,-35.302,2.226
23268,19.485,1.2727,0.1,9.8645e-05,985.77,9.8057e-05,969.24,-3.0942e-05,-0.0060435,-3.5235e-05,-32.263,2.1804
23269,19.578,1.3636,0.1,9.6612e-05,965.46,9.5995e-05,948.17,-3.0199e-05,-0.007691,-3.4682e-05,-33.69,2.1957
23270,19.301,1.2727,0.1,0.00010276,1026.8,0.0001022,1011.1,-3.2368e-05,-0.0056023,-3.6478e-05,-30.884,2.1501
23271,19.393,1.3636,0.1,0.0001007,1006.3,0.00010012,989.86,-3.1626e-05,-0.0071745,-3.5909e-05,-32.188,2.1654
23272,19.117,1.2727,0.1,0.00010689,1068.2,0.00010636,1053.1,-3.3798e-05,-0.0051954,-3.7736e-05,-29.597,2.12
23273,19.209,1.3636,0.1,0.00010482,1047.5,0.00010426,1031.7,-3.3055e-05,-0.0067027,-3.7152e-05,-30.787,2.1352
23274,18.933,1.2727,0.1,0.00011105,1109.7,0.00011054,1095.2,-3.5231e-05,-0.0048263,-3.9009e-05,-28.395,2.0898
23275,19.025,1.3636,0.1,0.00010896,1088.9,0.00010843,1073.8,-3.4488e-05,-0.0062618,-3.841e-05,-29.48,2.105
23276,18.748,1.2727,0.1,0.00011523,1151.5,0.00011474,1137.6,-3.6667e-05,-0.0045037,-4.0296e-05,-27.27,2.0598
23277,18.841,1.3636,0.1,0.00011313,1130.5,0.00011262,1116.1,-3.5924e-05,-0.0058717,-3.9684e-05,-28.26,2.0749
23278,18.564,1.2727,0.1,0.00011944,1193.5,0.00011897,1180.2,-3.8108e-05,-0.0042099,-4.1597e-05,-26.217,2.0298
23279,18.656,1.3636,0.1,0.00011732,1172.4,0.00011683,1158.6,-3.7364e-05,-0.00553,-4.0972e-05,-27.119,2.0449
23280,18.38,1.2727,0.1,0.00012366,1235.8,0.00012321,1223,-3.9553e-05,-0.0039336,-4.2911e-05,-25.23,1.9999
23281,18.472,1.3636,0.1,0.00012153,1214.5,0.00012106,1201.2,-3.8808e-05,-0.0052025,-4.2274e-05,-26.052,2.015
23282,18.196,1.2727,0.1,0.00012791,1278.3,0.00012748,1265.9,-4.1002e-05,-0.003671,-4.4237e-05,-24.304,1.9701
23283,18.288,1.3636,0.1,0.00012577,1256.8,0.00012532,1244.1,-4.0256e-05,-0.0049003,-4.3589e-05,-25.053,1.9852
23284,18.011,1.2727,0.1,0.00013219,1321,0.00013177,1309.1,-4.2456e-05,-0.0034289,-4.5575e-05,-23.435,1.9404
23285,18.103,1.3636,0.1,0.00013002,1299.3,0.0001296,1287.1,-4.1708e-05,-0.0046055,-4.4917e-05,-24.116,1.9554
23286,17.827,1.2727,0.1,0.00013648,1363.9,0.00013608,1352.4,-4.3915e-05,-0.0032214,-4.6925e-05,-22.617,1.9108
23287,17.919,1.3636,0.1,0.00013431,1342.1,0.0001339,1330.4,-4.3165e-05,-0.0043488,-4.6257e-05,-23.236,1.9257
23288,17.643,1.2727,0.1,0.0001408,1407,0.00014042,1396,-4.5379e-05,-0.0030308,-4.8286e-05,-21.846,1.8813
23289,17.735,1.3636,0.1,0.00013861,1385.2,0.00013822,1373.8,-4.4627e-05,-0.0041268,-4.7609e-05,-22.409,1.8962
23290,17.459,1.2727,0.1,0.00014514,1450.4,0.00014477,1439.7,-4.6847e-05,-0.0028461,-4.9658e-05,-21.118,1.8518
23291,17.551,1.3636,0.1,0.00014294,1428.4,0.00014256,1417.5,-4.6094e-05,-0.003907,-4.8973e-05,-21.629,1.8667
23292,17.274,1.2727,0.1,0.0001495,1494,0.00014915,1483.7,-4.8321e-05,-0.0026631,-5.104e-05,-20.429,1.8225
23293,17.366,1.3636,0.1,0.00014729,1471.9,0.00014692,1461.3,-4.7566e-05,-0.0036994,-5.0347e-05,-20.893,1.8373
23294,17.09,1.2727,0.1,0.00015389,1537.8,0.00015354,1527.8,-4.98e-05,-0.0024927,-5.2432e-05,-19.777,1.7932
23295,17.182,1.3636,0.1,0.00015166,1515.5,0.0001513,1505.3,-4.9044e-05,-0.0034865,-5.1731e-05,-20.197,1.808
23296,16.906,1.2727,0.1,0.00015829,1581.8,0.00015796,1572.2,-5.1285e-05,-0.0023524,-5.3834e-05,-19.156,1.7641
23297,16.998,1.3636,0.1,0.00015605,1559.4,0.00015571,1549.6,-5.0526e-05,-0.0033071,-5.3126e-05,-19.536,1.7788
23298,16.721,1.2727,0.1,0.00016272,1626.1,0.0001624,1616.7,-5.2775e-05,-0.002222,-5.5246e-05,-18.564,1.7351
23299,16.814,1.3636,0.1,0.00016046,1603.5,0.00016013,1594,-5.2014e-05,-0.0031584,-5.453e-05,-18.908,1.7497
23300,16.537,1.2727,0.1,0.00016717,1670.5,0.00016685,1661.4,-5.4271e-05,-0.0020899,-5.6666e-05,-17.998,1.7061
23301,16.629,1.3636,0.1,0.0001649,1647.9,0.00016458,1638.6,-5.3508e-05,-0.0030013,-5.5944e-05,-18.309,1.7208
23302,16.353,1.2727,0.1,0.00017164,1715.2,0.00017133,1706.4,-5.5773e-05,-0.0019542,-5.8096e-05,-17.455,1.6773
23303,16.445,1.3636,0.1,0.00016936,1692.4,0.00016905,1683.5,-5.5007e-05,-0.0028495,-5.7367e-05,-17.735,1.6919
23304,16.169,1.2727,0.1,0.00017612,1760,0.00017583,1751.5,-5.7281e-05,-0.0018259,-5.9534e-05,-16.932,1.6486
23305,16.261,1.3636,0.1,0.00017384,1737.2,0.00017354,1728.5,-5.6513e-05,-0.002686,-5.8799e-05,-17.184,1.6631
23306,15.984,1.2727,0.1,0.00018064,1805.1,0.00018035,1796.8,-5.8794e-05,-0.0017254,-6.098e-05,-16.426,1.6201
23307,16.077,1.3636,0.1,0.00017833,1782.1,0.00017805,1773.7,-5.8024e-05,-0.0025521,-6.024e-05,-16.652,1.6345
23308,15.8,1.2727,0.1,0.00018517,1850.4,0.00018489,1842.4,-6.0314e-05,-0.0016325,-6.2434e-05,-15.934,1.5916
23309,15.892,1.3636,0.1,0.00018285,1827.3,0.00018257,1819.2,-5.9541e-05,-0.0024475,-6.1688e-05,-16.137,1.606
23310,15.616,1.2727,0.1,0.00018972,1895.9,0.00018945,1888.1,-6.184e-05,-0.0015317,-6.3897e-05,-15.454,1.5633
23311,15.708,1.3636,0.1,0.00018739,1872.6,0.00018712,1864.8,-6.1064e-05,-0.0023283,-6.3145e-05,-15.636,1.5776
23312,15.432,1.2727,0.1,0.00019429,1941.6,0.00019403,1934,-6.3372e-05,-0.0014206,-6.5366e-05,-14.983,1.5351
23313,15.524,1.3636,0.1,0.00019196,1918.2,0.00019169,1910.6,-6.2594e-05,-0.0022088,-6.4609e-05,-15.145,1.5494
23314,15.247,1.2727,0.1,0.00019888,1987.4,0.00019863,1980.1,-6.4911e-05,-0.0013147,-6.6843e-05,-14.518,1.507
23315,15.339,1.3636,0.1,0.00019654,1964,0.00019628,1956.6,-6.413e-05,-0.0020712,-6.6081e-05,-14.663,1.5212
23316,15.063,1.2727,0.1,0.00020349,2033.5,0.00020325,2026.5,-6.6456e-05,-0.0012363,-6.8327e-05,-14.058,1.4791
23317,15.155,1.3636,0.1,0.00020114,2010,0.00020089,2002.9,-6.5672e-05,-0.0019621,-6.7559e-05,-14.186,1.4932
23318,14.879,1.2727,0.1,0.00020813,2079.8,0.00020789,2073,-6.8007e-05,-0.0011622,-6.9817e-05,-13.599,1.4513
23319,14.971,1.3636,0.1,0.00020576,2056.2,0.00020552,2049.3,-6.722e-05,-0.0018797,-6.9045e-05,-13.712,1.4654
23320,14.695,1.2727,0.1,0.00021278,2126.3,0.00021255,2119.7,-6.9565e-05,-0.0010747,-7.1314e-05,-13.139,1.4236
23321,14.787,1.3636,0.1,0.0002104,2102.6,0.00021017,2095.9,-6.8776e-05,-0.0017789,-7.0537e-05,-13.238,1.4377
23322,14.51,1.2727,0.1,0.00021745,2173,0.00021723,2166.6,-7.113e-05,-0.00097184,-7.2817e-05,-12.676,1.3961
23323,14.602,1.3636,0.1,0.00021506,2149.1,0.00021484,2142.7,-7.0338e-05,-0.0016716,-7.2036e-05,-12.762,1.4101
23324,14.326,1.2727,0.1,0.00022214,2219.9,0.00022193,2213.8,-7.2702e-05,-0.0008697,-7.4326e-05,-12.207,1.3688
23325,14.418,1.3636,0.1,0.00021974,2195.9,0.00021953,2189.7,-7.1906e-05,-0.0015395,-7.354e-05,-12.28,1.3826
23326,14.142,1.2727,0.1,0.00022685,2267,0.00022665,2261.1,-7.428e-05,-0.00079298,-7.5841e-05,-11.729,1.3415
23327,14.234,1.3636,0.1,0.00022444,2242.9,0.00022424,2237,-7.3482e-05,-0.0014332,-7.5051e-05,-11.791,1.3554
23328,13.957,1.2727,0.1,0.00023158,2314.2,0.00023139,2308.6,-7.5866e-05,-0.00071582,-7.7361e-05,-11.239,1.3145
23329,14.05,1.3636,0.1,0.00022916,2290.1,0.00022897,2284.4,-7.5064e-05,-0.0013526,-7.6567e-05,-11.291,1.3282
23330,13.773,1.2727,0.1,0.00023633,2361.7,0.00023615,2356.3,-7.7458e-05,-0.00061857,-7.8887e-05,-10.736,1.2876
23331,13.865,1.3636,0.1,0.0002339,2337.4,0.00023372,2332,-7.6653e-05,-0.0012431,-7.8088e-05,-10.778,1.3012
23332,13.589,1.2727,0.1,0.0002411,2409.4,0.00024093,2404.2,-7.9057e-05,-0.00049647,-8.0417e-05,-10.215,1.2608
23333,13.681,1.3636,0.1,0.00023866,2385,0.00023848,2379.8,-7.825e-05,-0.00112,-7.9614e-05,-10.248,1.2744
23334,13.405,1.2727,0.1,0.00024589,2457.2,0.00024572,2452.4,-8.0664e-05,-0.00036671,-8.1952e-05,-9.6741,1.2343
23335,13.497,1.3636,0.1,0.00024344,2432.7,0.00024327,2427.8,-7.9854e-05,-0.00095905,-8.1144e-05,-9.6981,1.2478
23336,13.22,1.2727,0.1,0.0002507,2505.2,0.00025054,2500.7,-8.2278e-05,-0.00025508,-8.3491e-05,-9.1103,1.2078
23337,13.313,1.3636,0.1,0.00024823,2480.6,0.00024808,2476,-8.1465e-05,-0.00081664,-8.2679e-05,-9.1256,1.2213
23338,13.036,1.2727,0.1,0.00025552,2553.5,0.00025538,2549.2,-8.39e-05,-0.00012655,-8.5034e-05,-8.5199,1.1816
23339,13.128,1.3636,0.1,0.00025305,2528.7,0.0002529,2524.5,-8.3083e-05,-0.00068576,-8.4218e-05,-8.527,1.1949
23340,12.852,1.2727,0.1,0.00026037,2601.9,0.00026023,2597.9,-8.5529e-05,4.4573e-05,-8.658e-05,-7.8997,1.1555
23341,12.944,1.3636,0.1,0.00025788,2577,0.00025774,2573.1,-8.4709e-05,-0.00050318,-8.576e-05,-7.8986,1.1688
23342,12.668,1.2727,0.1,0.00026523,2650.4,0.0002651,2646.8,-8.7166e-05,0.00027149,-8.813e-05,-7.2458,1.1296
23343,12.76,1.3636,0.1,0.00026273,2625.5,0.00026261,2621.9,-8.6342e-05,-0.00027634,-8.7306e-05,-7.2368,1.1428
23344,12.483,1.2727,0.1,0.00027011,2699.2,0.00026999,2695.9,-8.881e-05,0.00054963,-8.9683e-05,-6.5547,1.1039
23345,12.575,1.3636,0.1,0.0002676,2674.1,0.00026749,2670.9,-8.7984e-05,3.5317e-05,-8.8854e-05,-6.5375,1.117
23346,12.299,1.2727,0.1,0.000275,2748.1,0.0002749,2745.2,-9.0463e-05,0.00087297,-9.1238e-05,-5.8221,1.0784
23347,12.391,1.3636,0.1,0.00027249,2723,0.00027239,2720.1,-8.9633e-05,0.00039403,-9.0405e-05,-5.7968,1.0914
23348,12.115,1.2727,0.1,0.00027992,2797.3,0.00027983,2794.7,-9.2123e-05,0.0013228,-9.2795e-05,-5.0439,1.053
23349,12.207,1.3636,0.1,0.00027739,2772,0.0002773,2769.5,-9.129e-05,0.00084782,-9.1957e-05,-5.0102,1.066
23350,11.931,1.2727,0.1,0.00028485,2846.5,0.00028478,2844.4,-9.3792e-05,0.0020134,-9.4353e-05,-4.2153,1.0279
23351,12.023,1.3636,0.1,0.00028231,2821.2,0.00028224,2819.1,-9.2956e-05,0.0015583,-9.3511e-05,-4.1729,1.0407
23352,11.746,1.2727,0.1,0.0002898,2896,0.00028974,2894.3,-9.5469e-05,0.0031533,-9.5913e-05,-3.3317,1.0029
23353,11.838,1.3636,0.1,0.00028725,2870.5,0.00028719,2868.9,-9.4629e-05,0.0027194,-9.5066e-05,-3.2802,1.0157
23354,11.562,1.2727,0.1,0.00029477,2945.6,0.00029473,2944.4,-9.7154e-05,0.0052952,-9.7473e-05,-2.3884,0.97814
23355,11.654,1.3636,0.1,0.0002922,2920,0.00029216,2918.9,-9.6311e-05,0.0049676,-9.6622e-05,-2.3273,0.99079
23356,11.378,1.2727,0.1,0.00029975,2995.4,0.00029973,2994.7,-9.8848e-05,0.010773,-9.9033e-05,-1.3822,0.95357
23357,11.47,1.3636,0.1,0.00029717,2969.7,0.00029715,2969,-9.8002e-05,0.010873,-9.8178e-05,-1.3112,0.96613
23358,11.193,1.2727,0.1,0.00030475,3045.4,0.00030474,3045.2,-0.00010055,0.051374,-0.0001006,-0.33868,0.92921
23359,11.286,1.3636,0.1,0.00030216,3019.5,0.00030216,3019.4,-9.9695e-05,0.06375,-9.9739e-05,-0.26902,0.94167
23360,11.009,1.2727,0.1,0.00030976,3095.5,0.00030978,3095.9,-0.00010215,0.89813,-0.00010227,-0.022501,0.90505
23361,11.101,1.3636,0.1,0.00030716,3069.5,0.00030718,3070,-0.00010128,0.99023,-0.00010141,-0.020541,0.91741
23362,10.825,1.2727,0.1,0.00031479,3145.8,0.00031483,3146.8,-0.0001037,2.1352,-0.00010399,-0.010908,0.8811
23363,10.917,1.3636,0.1,0.00031218,3119.7,0.00031222,3120.8,-0.00010283,2.242,-0.00010313,-0.010618,0.89336
23364,10.641,1.2727,0.1,0.00031984,3196.2,0.0003199,3197.9,-0.00010526,3.4738,-0.00010572,-0.0076864,0.85737
23365,10.733,1.3636,0.1,0.00031722,3170,0.00031728,3171.8,-0.00010438,3.5952,-0.00010486,-0.0076384,0.86952
23366,10.456,1.2727,0.1,0.0003249,3246.8,0.00032498,3249.2,-0.00010681,4.915,-0.00010746,-0.0062452,0.83385
23367,10.549,1.3636,0.1,0.00032226,3220.4,0.00032235,3222.9,-0.00010592,5.0524,-0.0001066,-0.0062529,0.8459
23368,10.272,1.2727,0.1,0.00032997,3297.5,0.00033008,3300.7,-0.00010835,6.4662,-0.00010921,-0.0054508,0.81055
23369,10.364,1.3636,0.1,0.00032732,3271,0.00032744,3274.3,-0.00010746,6.6211,-0.00010835,-0.005502,0.8225
23370,10.088,1.2727,0.1,0.00033506,3348.3,0.0003352,3352.4,-0.00010989,8.136,-0.00011097,-0.0049548,0.78748
23371,10.18,1.3636,0.1,0.0003324,3321.7,0.00033254,3325.9,-0.000109,8.3106,-0.0001101,-0.0049954,0.79932
23372,9.9036,1.2727,0.1,0.00034017,3399.3,0.00034033,3404.3,-0.00011142,9.9339,-0.00011275,-0.0046475,0.76463
23373,9.9957,1.3636,0.1,0.00033749,3372.6,0.00033766,3377.6,-0.00011052,10.13,-0.00011187,-0.0046683,0.77636
23374,9.7193,1.2727,0.1,0.00034528,3450.4,0.00034548,3456.3,-0.00011295,11.87,-0.00011453,-0.0044552,0.74202
23375,9.8115,1.3636,0.1,0.00034259,3423.5,0.00034279,3429.6,-0.00011204,12.091,-0.00011365,-0.0044515,0.75364
23376,9.5351,1.2727,0.1,0.00035041,3501.7,0.00035064,3508.6,-0.00011447,13.955,-0.00011633,-0.0043481,0.71964
23377,9.6272,1.3636,0.1,0.0003477,3474.6,0.00034794,3481.7,-0.00011355,14.204,-0.00011545,-0.0043041,0.73114
23378,9.3508,1.2727,0.1,0.00035555,3553,0.00035582,3561.1,-0.00011598,16.199,-0.00011813,-0.0043098,0.69749
23379,9.4429,1.3636,0.1,0.00035283,3525.8,0.0003531,3534,-0.00011505,16.48,-0.00011725,-0.0042237,0.70888
23380,9.1665,1.2727,0.1,0.0003607,3604.5,0.00036101,3613.8,-0.00011747,18.616,-0.00011995,-0.0043249,0.67559
23381,9.2587,1.3636,0.1,0.00035796,3577.2,0.00035828,3586.6,-0.00011654,18.933,-0.00011906,-0.0041897,0.68686
23382,8.9823,1.2727,0.1,0.00036586,3656.1,0.00036622,3666.6,-0.00011896,21.217,-0.00012178,-0.0043899,0.65394
23383,9.0744,1.3636,0.1,0.00036311,3628.6,0.00036347,3639.3,-0.00011802,21.576,-0.00012089,-0.0041989,0.66509
23384,8.798,1.2727,0.1,0.00037103,3707.8,0.00037144,3719.7,-0.00012043,24.016,-0.00012363,-0.0045027,0.63253
23385,8.8901,1.3636,0.1,0.00036826,3680.1,0.00036867,3692.2,-0.00011948,24.422,-0.00012274,-0.0042489,0.64356
23386,8.6137,1.2727,0.1,0.00037622,3759.6,0.00037667,3773,-0.00012189,27.026,-0.00012549,-0.0046639,0.61137
23387,8.7059,1.3636,0.1,0.00037343,3731.7,0.00037389,3745.4,-0.00012093,27.486,-0.00012459,-0.0043395,0.62228
23388,8.4295,1.2727,0.1,0.00038141,3811.4,0.00038191,3826.5,-0.00012333,30.26,-0.00012736,-0.0048767,0.59047
23389,8.5216,1.3636,0.1,0.0003786,3783.4,0.00037912,3798.7,-0.00012236,30.783,-0.00012646,-0.0044727,0.60126
23390,8.2452,1.2727,0.1,0.00038661,3863.4,0.00038717,3880.1,-0.00012476,33.733,-0.00012925,-0.0051462,0.56983
23391,8.3373,1.3636,0.1,0.00038378,3835.2,0.00038435,3852.2,-0.00012378,34.33,-0.00012834,-0.004653,0.58049
23392,8.0609,1.2727,0.1,0.00039181,3915.4,0.00039244,3934,-0.00012616,37.459,-0.00013115,-0.0054805,0.54945
23393,8.1531,1.3636,0.1,0.00038897,3887,0.0003896,3905.9,-0.00012517,38.141,-0.00013024,-0.004886,0.55998
23394,7.8767,1.2727,0.1,0.00039703,3967.5,0.00039772,3988.1,-0.00012755,41.451,-0.00013307,-0.0058899,0.52934
23395,7.9688,1.3636,0.1,0.00039416,3938.9,0.00039486,3959.8,-0.00012654,42.234,-0.00013216,-0.0051813,0.53974
23396,7.6924,1.2727,0.1,0.00040225,4019.7,0.00040301,4042.4,-0.00012892,45.723,-0.000135,-0.0063878,0.5095
23397,7.7845,1.3636,0.1,0.00039936,3990.9,0.00040013,4014,-0.00012789,46.623,-0.00013409,-0.0055487,0.51977
23398,7.5081,1.2727,0.1,0.00040748,4072,0.00040831,4096.9,-0.00013026,50.286,-0.00013695,-0.0069915,0.48993
23399,7.6003,1.3636,0.1,0.00040456,4042.9,0.00040541,4068.3,-0.00012921,51.324,-0.00013604,-0.0060036,0.50006
23400,7.3239,1.2727,0.1,0.00041271,4124.3,0.00041362,4151.6,-0.00013158,55.151,-0.00013892,-0.007723,0.47063
23401,7.416,1.3636,0.1,0.00040977,4094.9,0.0004107,4122.8,-0.00013051,56.353,-0.00013801,-0.0065641,0.48064
23402,7.1396,1.2727,0.1,0.00041795,4176.6,0.00041894,4206.5,-0.00013287,60.327,-0.0001409,-0.0086105,0.45162
23403,7.2317,1.3636,0.1,0.00041499,4147,0.000416,4177.5,-0.00013178,61.723,-0.00013999,-0.007254,0.46149
23404,6.9553,1.2727,0.1,0.0004232,4229,0.00042428,4261.6,-0.00013414,65.819,-0.0001429,-0.0096895,0.4329
23405,7.0475,1.3636,0.1,0.0004202,4199.1,0.00042131,4232.4,-0.00013302,67.444,-0.00014199,-0.0081036,0.44262
23406,6.7711,1.2727,0.1,0.00042845,4281.5,0.00042962,4316.9,-0.00013539,71.628,-0.00014492,-0.011005,0.41446
23407,6.8632,1.3636,0.1,0.00042542,4251.3,0.00042663,4287.6,-0.00013423,73.526,-0.00014402,-0.0091507,0.42404
23408,6.5868,1.2727,0.1,0.0004337,4334,0.00043497,4372.4,-0.00013661,77.75,-0.00014696,-0.012616,0.39631
23409,6.6789,1.3636,0.1,0.00043065,4303.5,0.00043195,4342.9,-0.00013541,79.973,-0.00014606,-0.010445,0.40575
23410,6.4025,1.2727,0.1,0.00043896,4386.6,0.00044033,4428.1,-0.0001378,84.173,-0.00014901,-0.014595,0.37846
23411,6.4947,1.3636,0.1,0.00043587,4355.7,0.00043729,4398.5,-0.00013656,86.783,-0.00014812,-0.012048,0.38775
23412,6.2183,1.2727,0.1,0.00044423,4439.2,0.0004457,4483.9,-0.00013898,90.878,-0.00015108,-0.017038,0.36091
23413,6.3104,1.3636,0.1,0.00044111,4408,0.00044263,4454.2,-0.00013769,93.951,-0.0001502,-0.014042,0.37005
23414,6.034,1.2727,0.1,0.0004495,4491.9,0.00045108,4540,-0.00014013,97.835,-0.00015316,-0.02007,0.34366
23415,6.1261,1.3636,0.1,0.00044634,4460.4,0.00044798,4510.2,-0.00013879,101.46,-0.00015229,-0.016531,0.35265
23416,5.8497,1.2727,0.1,0.00045478,4544.6,0.00045647,4596.2,-0.00014127,105,-0.00015525,-0.023854,0.32671
23417,5.9419,1.3636,0.1,0.00045159,4512.8,0.00045335,4566.4,-0.00013986,109.28,-0.00015441,-0.019653,0.33556
23418,5.6655,1.2727,0.1,0.00046006,4597.5,0.00046187,4652.6,-0.0001424,112.31,-0.00015735,-0.028604,0.31008
23419,5.7576,1.3636,0.1,0.00045684,4565.2,0.00045872,4622.8,-0.00014091,117.38,-0.00015654,-0.023586,0.31877
23420,5.4812,1.2727,0.1,0.00046536,4650.4,0.00046728,4709,-0.00014353,119.69,-0.00015946,-0.034611,0.29376
23421,5.5733,1.3636,0.1,0.0004621,4617.8,0.00046411,4679.4,-0.00014195,125.7,-0.00015868,-0.028571,0.30229
23422,5.2969,1.2727,0.1,0.00047066,4703.3,0.00047269,4765.5,-0.00014466,127.03,-0.00016157,-0.042261,0.27776
23423,5.3891,1.3636,0.1,0.00046737,4670.5,0.00046951,4736.1,-0.00014297,134.16,-0.00016083,-0.034925,0.28613
23424,5.1127,1.2727,0.1,0.00047596,4756.3,0.0004781,4822,-0.0001458,134.2,-0.00016367,-0.052088,0.26208
23425,5.2048,1.3636,0.1,0.00047266,4723.3,0.00047493,4793,-0.000144,142.66,-0.00016299,-0.043081,0.27029
23426,4.9284,1.2727,0.1,0.00048127,4809.4,0.00048352,4878.3,-0.00014698,141.03,-0.00016576,-0.064833,0.24672
23427,5.0205,1.3636,0.1,0.00047796,4776.4,0.00048035,4850.1,-0.00014504,151.08,-0.00016516,-0.05363,0.25477
23428,4.7441,1.2727,0.1,0.00048658,4862.5,0.00048892,4934.4,-0.0001482,147.33,-0.00016782,-0.081542,0.23169
23429,4.8363,1.3636,0.1,0.00048329,4829.5,0.0004858,4907.2,-0.00014611,159.24,-0.00016731,-0.06739,0.23958
23430,4.5599,1.2727,0.1,0.00049189,4915.5,0.00049431,4990.1,-0.00014949,152.83,-0.00016984,-0.10372,0.217
23431,4.652,1.3636,0.1,0.00048863,4882.9,0.00049125,4964.2,-0.00014722,166.95,-0.00016945,-0.085512,0.22471
23432,4.3756,1.2727,0.1,0.00049718,4968.3,0.00049966,5045,-0.00015086,157.23,-0.00017181,-0.13358,0.20264
23433,4.4677,1.3636,0.1,0.00049399,4936.5,0.00049672,5021.1,-0.0001484,173.96,-0.00017157,-0.10964,0.21018
23434,4.1913,1.2727,0.1,0.00050243,5020.9,0.00050496,5098.9,-0.00015235,160.15,-0.00017369,-0.17445,0.18861
23435,4.2835,1.3636,0.1,0.00049937,4990.3,0.00050219,5077.7,-0.00014967,179.94,-0.00017364,-0.14217,0.19599
23436,4.0071,1.2727,0.1,0.00050763,5072.8,0.00051018,5151.4,-0.00015398,161.16,-0.00017546,-0.23153,0.17494
23437,4.0992,1.3636,0.1,0.00050477,5044.2,0.00050765,5133.8,-0.00015106,184.51,-0.00017564,-0.18665,0.18214
23438,3.8228,1.2727,0.1,0.00051274,5123.9,0.00051526,5201.7,-0.00015578,159.71,-0.00017708,-0.31321,0.1616
23439,3.9149,1.3636,0.1,0.00051017,5098.1,0.00051309,5189,-0.00015261,187.21,-0.00017756,-0.24854,0.16863
23440,3.6385,1.2727,0.1,0.00051771,5173.5,0.00052017,5249.1,-0.0001578,155.14,-0.00017851,-0.43379,0.14862
23441,3.7307,1.3636,0.1,0.00051555,5152,0.00051848,5243,-0.00015437,187.45,-0.00017936,-0.33646,0.15548
23442,3.4543,1.2727,0.1,0.00052248,5221.2,0.00052481,5292.7,-0.00016008,146.63,-0.00017968,-0.61948,0.13599
23443,3.5464,1.3636,0.1,0.00052091,5205.5,0.0005238,5295.1,-0.00015638,184.48,-0.000181,-0.46474,0.14267
23444,3.27,1.2727,0.1,0.00052698,5266.1,0.0005291,5330.9,-0.00016269,133.15,-0.00018053,-0.92348,0.12372
23445,3.3621,1.3636,0.1,0.00052621,5258.5,0.00052899,5344.6,-0.00015872,177.35,-0.00018241,-0.65882,0.13022
23446,3.0857,1.2727,0.1,0.00053109,5307.3,0.0005329,5362.3,-0.00016569,113.35,-0.00018097,-1.472,0.11181
23447,3.1779,1.3636,0.1,0.00053142,5310.5,0.00053401,5390.5,-0.00016149,164.79,-0.00018355,-0.96829,0.11813
23448,2.9015,1.2727,0.1,0.00053473,5343.6,0.00053608,5384.5,-0.00016916,85.583,-0.0001809,-2.6517,0.10026
23449,2.9936,1.3636,0.1,0.0005365,5361.3,0.00053879,5431.6,-0.0001648,145.09,-0.00018431,-1.5045,0.1064
23450,2.7172,1.2727,0.1,0.00053776,5373.9,0.00053846,5394.9,-0.00017307,48.76,-0.0001804,-6.347,0.089076
23451,2.8093,1.3636,0.1,0.00054145,5410.7,0.00054328,5466.4,-0.00016884,115.87,-0.0001846,-2.5813,0.095043
23452,2.5329,1.2727,0.1,0.00054012,5397.5,0.00053986,5390.2,-0.00017558,14.692,-0.00018137,-28.863,0.078255
23453,2.6251,1.3636,0.1,0.00054628,5459,0.00054741,5493,-0.00017376,74.436,-0.00018441,-5.5171,0.08405
23454,2.3487,1.2727,0.1,0.00054179,5414.1,0.00054011,5366.5,-0.00017334,5.8915,-0.00018738,-99.663,0.0678
23455,2.4408,1.3636,0.1,0.00055113,5507.5,0.00055118,5509.4,-0.00017861,25.991,-0.00018498,-21.802,0.073429
23456,2.1644,1.2727,0.1,0.00054294,5425.7,0.00053909,5318.8,-0.00016827,3.9406,-0.00019691,-211.19,0.057708
23457,2.2565,1.3636,0.1,0.0005563,5559.2,0.00055468,5513,-0.00017799,8.0089,-0.00019221,-98.834,0.063179
23458,1.9801,1.2727,0.1,0.00054407,5437,0.00053677,5241.4,-0.00016038,3.2956,-0.00021069,-374.65,0.047974
23459,2.0723,1.3636,0.1,0.00056249,5621,0.00055815,5501.1,-0.00017336,4.7865,-0.00020552,-236.87,0.053301
23460,1.7959,1.2727,0.1,0.00054621,5458.4,0.0005332,5126.8,-0.00014871,3.1592,-0.00023084,-613.94,0.038588
23461,1.888,1.3636,0.1,0.00057098,5705.9,0.00056207,5470.1,-0.00016543,3.9109,-0.00022566,-448.59,0.043791
23462,1.6116,1.2727,0.1,0.00055109,5507.1,0.00052842,4964.5,-0.00013184,3.6327,-0.00026025,-961.21,0.029535
23463,1.7037,1.3636,0.1,0.00058398,5835.8,0.00056706,5413.5,-0.00015292,3.8307,-0.00025605,-771.06,0.03464
23464,1.4273,1.2727,0.1,0.00056192,5615.3,0.00052275,4743.8,-0.00010834,2.046,-0.00030252,-1457,0.020789
23465,1.5195,1.3636,0.1,0.00060496,6045.4,0.0005737,5319.6,-0.00013374,4.2493,-0.00030159,-1256.9,0.025831
23466,1.2431,1.2727,0.1,0.00059596,5955.5,0.00052711,4542.8,-7.683e-05,4.9981,-0.00037043,-2201,0.012329
23467,1.3352,1.3636,0.1,0.00063783,6373.9,0.00058103,5156.3,-0.00010515,0.61255,-0.00036745,-1970.2,0.01734
23468,1.1509,1.3636,0.1,0.00071646,7159.6,0.00061078,5086.7,-6.3115e-05,23.358,-0.00047943,-3104.7,0.0091586
23469,1.0588,1.2727,0.1,0.00050854,5081.9,0.00043295,3589.6,-4.6048e-05,-9.4683,-0.00034076,-2223.8,0.0043788
23470,23.724,1.4545,0.1,1.7476e-05,174.64,1.0447e-05,58.933,2.5786e-06,-0.18852,-1.5708e-05,-137.59,2.8892
23471,23.816,1.5455,0.1,1.7039e-05,170.27,8.8485e-06,39.923,3.5139e-06,-0.15933,-1.6005e-05,-146.82,2.9048
23472,23.908,1.4545,0.1,1.5968e-05,159.57,7.1321e-06,22.536,4.0773e-06,-0.41655,-1.5467e-05,-147.27,2.9203
23473,23.539,1.4545,0.1,1.9536e-05,195.22,1.3937e-05,97.067,9.9046e-07,-0.20481,-1.5976e-05,-127.68,2.8581
23474,23.631,1.5455,0.1,1.8828e-05,188.15,1.2337e-05,78.117,1.8992e-06,-0.30642,-1.6235e-05,-136.56,2.8737
23475,23.355,1.4545,0.1,2.2e-05,219.84,1.7443e-05,135.17,-5.6184e-07,-0.11284,-1.6318e-05,-118.5,2.827
23476,23.447,1.5455,0.1,2.1087e-05,210.72,1.5839e-05,116.36,3.3477e-07,-0.12655,-1.6536e-05,-126.88,2.8426
23477,23.171,1.4545,0.1,2.4756e-05,247.39,2.0974e-05,173.24,-2.0949e-06,-0.091734,-1.6733e-05,-110.08,2.7959
23478,23.263,1.5455,0.1,2.3685e-05,236.69,1.9361e-05,154.51,-1.2176e-06,-0.11092,-1.6904e-05,-117.97,2.8115
23479,22.987,1.4545,0.1,2.7731e-05,277.12,2.4533e-05,211.35,-3.606e-06,-0.070284,-1.7221e-05,-102.37,2.7648
23480,23.079,1.5455,0.1,2.6534e-05,265.16,2.2905e-05,192.65,-2.7456e-06,-0.080701,-1.7342e-05,-109.75,2.7804
23481,22.802,1.4545,0.1,3.0873e-05,308.52,2.8125e-05,249.58,-5.0992e-06,-0.057731,-1.778e-05,-95.339,2.7338
23482,22.894,1.5455,0.1,2.9573e-05,295.53,2.6478e-05,230.85,-4.2548e-06,-0.066401,-1.7848e-05,-102.2,2.7494
23483,22.618,1.4545,0.1,3.4147e-05,341.24,3.1753e-05,287.95,-6.577e-06,-0.04803,-1.8407e-05,-88.931,2.7028
23484,22.71,1.5455,0.1,3.2761e-05,327.38,3.0082e-05,269.15,-5.747e-06,-0.054747,-1.8422e-05,-95.288,2.7183
23485,22.434,1.4545,0.1,3.7528e-05,375.02,3.5417e-05,326.49,-8.042e-06,-0.04084,-1.9095e-05,-83.088,2.6718
23486,22.526,1.5455,0.1,3.6067e-05,360.43,3.3721e-05,307.6,-7.2249e-06,-0.046474,-1.9058e-05,-88.957,2.6873
23487,22.249,1.4545,0.1,4.0996e-05,409.68,3.9116e-05,365.22,-9.4965e-06,-0.035192,-1.984e-05,-77.753,2.6408
23488,22.342,1.5455,0.1,3.9471e-05,394.44,3.7393e-05,346.21,-8.6908e-06,-0.039998,-1.9753e-05,-83.159,2.6563
23489,22.065,1.4545,0.1,4.4539e-05,445.08,4.2849e-05,404.14,-1.0942e-05,-0.030694,-2.0637e-05,-72.873,2.6098
23490,22.157,1.5455,0.1,4.2956e-05,429.27,4.1099e-05,385,-1.0147e-05,-0.034895,-2.0503e-05,-77.845,2.6253
23491,21.881,1.4545,0.1,4.8144e-05,481.11,4.6614e-05,443.24,-1.2381e-05,-0.027035,-2.1481e-05,-68.4,2.5789
23492,21.973,1.5455,0.1,4.6511e-05,464.78,4.4837e-05,423.97,-1.1594e-05,-0.030762,-2.1302e-05,-72.969,2.5944
23493,21.697,1.4545,0.1,5.1805e-05,517.69,5.0411e-05,482.54,-1.3814e-05,-0.024018,-2.2368e-05,-64.292,2.548
23494,21.789,1.5455,0.1,5.0125e-05,500.91,4.8607e-05,463.13,-1.3035e-05,-0.027364,-2.2146e-05,-68.486,2.5635
23495,21.512,1.4545,0.1,5.5515e-05,554.77,5.4237e-05,522.02,-1.5242e-05,-0.021505,-2.3293e-05,-60.513,2.5171
23496,21.605,1.5455,0.1,5.3793e-05,537.56,5.2408e-05,502.47,-1.447e-05,-0.024537,-2.3033e-05,-64.36,2.5326
23497,21.328,1.4545,0.1,5.9269e-05,592.28,5.8092e-05,561.69,-1.6667e-05,-0.019384,-2.4255e-05,-57.029,2.4863
23498,21.42,1.5455,0.1,5.7509e-05,574.69,5.6238e-05,542,-1.5901e-05,-0.022159,-2.3958e-05,-60.558,2.5018
23499,21.144,1.4545,0.1,6.3063e-05,630.2,6.1975e-05,601.56,-1.809e-05,-0.017571,-2.525e-05,-53.814,2.4555
23500,21.236,1.5455,0.1,6.1268e-05,612.25,6.0097e-05,581.72,-1.7328e-05,-0.020129,-2.4918e-05,-57.048,2.471
23501,20.96,1.4545,0.1,6.6895e-05,668.48,6.5884e-05,641.61,-1.951e-05,-0.016009,-2.6275e-05,-50.841,2.4248
23502,21.052,1.5455,0.1,6.5067e-05,650.22,6.3984e-05,621.64,-1.8753e-05,-0.01838,-2.5912e-05,-53.805,2.4402
23503,20.775,1.4545,0.1,7.0761e-05,707.12,6.982e-05,681.84,-2.093e-05,-0.014652,-2.7328e-05,-48.09,2.3941
23504,20.867,1.5455,0.1,6.8903e-05,688.55,6.7898e-05,661.74,-2.0176e-05,-0.016858,-2.6936e-05,-50.806,2.4095
23505,20.591,1.4545,0.1,7.466e-05,746.09,7.3781e-05,722.27,-2.2349e-05,-0.013475,-2.8408e-05,-45.541,2.3634
23506,20.683,1.5455,0.1,7.2774e-05,727.24,7.1838e-05,702.03,-2.1598e-05,-0.015533,-2.7989e-05,-48.029,2.3788
23507,20.407,1.4545,0.1,7.8591e-05,785.37,7.7767e-05,762.88,-2.3768e-05,-0.012441,-2.9513e-05,-43.178,2.3328
23508,20.499,1.5455,0.1,7.6678e-05,766.26,7.5804e-05,742.51,-2.302e-05,-0.014378,-2.9068e-05,-45.456,2.3482
23509,20.223,1.4545,0.1,8.2552e-05,824.95,8.1778e-05,803.69,-2.5188e-05,-0.011521,-3.0641e-05,-40.985,2.3022
23510,20.315,1.5455,0.1,8.0615e-05,805.59,7.9795e-05,783.18,-2.4442e-05,-0.013346,-3.0172e-05,-43.071,2.3176
23511,20.038,1.4545,0.1,8.6542e-05,864.82,8.5813e-05,844.69,-2.6609e-05,-0.010697,-3.1791e-05,-38.948,2.2717
23512,20.13,1.5455,0.1,8.4581e-05,845.23,8.3812e-05,824.05,-2.5864e-05,-0.012428,-3.1301e-05,-40.857,2.2871
23513,19.854,1.4545,0.1,9.056e-05,904.97,8.9872e-05,885.87,-2.8031e-05,-0.0099588,-3.2962e-05,-37.055,2.2413
23514,19.946,1.5455,0.1,8.8577e-05,885.16,8.7853e-05,865.11,-2.7288e-05,-0.011594,-3.2451e-05,-38.802,2.2566
23515,19.67,1.4545,0.1,9.4605e-05,945.4,9.3955e-05,927.25,-2.9456e-05,-0.0093052,-3.4152e-05,-35.295,2.2109
23516,19.762,1.5455,0.1,9.2601e-05,925.37,9.1918e-05,906.37,-2.8714e-05,-0.010854,-3.3622e-05,-36.893,2.2262
23517,19.485,1.4545,0.1,9.8677e-05,986.09,9.8061e-05,968.82,-3.0883e-05,-0.0087159,-3.5361e-05,-33.657,2.1806
23518,19.578,1.5455,0.1,9.6653e-05,965.86,9.6007e-05,947.82,-3.0141e-05,-0.010196,-3.4814e-05,-35.118,2.1959
23519,19.301,1.4545,0.1,0.00010277,1027,0.00010219,1010.6,-3.2312e-05,-0.0081767,-3.6588e-05,-32.132,2.1504
23520,19.393,1.5455,0.1,0.00010073,1006.6,0.00010012,989.46,-3.1571e-05,-0.0095899,-3.6024e-05,-33.468,2.1656
23521,19.117,1.4545,0.1,0.0001069,1068.2,0.00010634,1052.5,-3.3745e-05,-0.007678,-3.7831e-05,-30.711,2.1202
23522,19.209,1.5455,0.1,0.00010484,1047.6,0.00010426,1031.3,-3.3003e-05,-0.0090369,-3.7252e-05,-31.932,2.1354
23523,18.933,1.4545,0.1,0.00011105,1109.7,0.00011052,1094.7,-3.5181e-05,-0.0072226,-3.9091e-05,-29.386,2.0901
23524,19.025,1.5455,0.1,0.00010897,1088.9,0.00010842,1073.3,-3.4438e-05,-0.0085176,-3.8497e-05,-30.501,2.1052
23525,18.748,1.4545,0.1,0.00011522,1151.4,0.00011471,1137.1,-3.662e-05,-0.0068193,-4.0365e-05,-28.149,2.06
23526,18.841,1.5455,0.1,0.00011312,1130.5,0.0001126,1115.6,-3.5877e-05,-0.0080548,-3.9758e-05,-29.168,2.0751
23527,18.564,1.4545,0.1,0.00011942,1193.3,0.00011893,1179.6,-3.8063e-05,-0.0064494,-4.1655e-05,-26.994,2.0301
23528,18.656,1.5455,0.1,0.0001173,1172.2,0.0001168,1158,-3.732e-05,-0.0076443,-4.1035e-05,-27.924,2.0452
23529,18.38,1.4545,0.1,0.00012364,1235.5,0.00012318,1222.3,-3.951e-05,-0.0061011,-4.2958e-05,-25.913,2.0002
23530,18.472,1.5455,0.1,0.00012151,1214.3,0.00012103,1200.7,-3.8766e-05,-0.0072527,-4.2327e-05,-26.763,2.0152
23531,18.196,1.4545,0.1,0.00012788,1277.9,0.00012744,1265.3,-4.0962e-05,-0.0057714,-4.4275e-05,-24.902,1.9704
23532,18.288,1.5455,0.1,0.00012574,1256.5,0.00012528,1243.5,-4.0216e-05,-0.0068891,-4.3632e-05,-25.677,1.9854
23533,18.011,1.4545,0.1,0.00013215,1320.6,0.00013172,1308.4,-4.2417e-05,-0.0054662,-4.5605e-05,-23.954,1.9407
23534,18.103,1.5455,0.1,0.00012999,1299,0.00012955,1286.5,-4.1671e-05,-0.006537,-4.4952e-05,-24.661,1.9557
23535,17.827,1.4545,0.1,0.00013644,1363.4,0.00013603,1351.8,-4.3878e-05,-0.0051989,-4.6947e-05,-23.065,1.9111
23536,17.919,1.5455,0.1,0.00013427,1341.8,0.00013385,1329.7,-4.3129e-05,-0.0062254,-4.6284e-05,-23.709,1.926
23537,17.643,1.4545,0.1,0.00014075,1406.5,0.00014036,1395.3,-4.5343e-05,-0.0049514,-4.8301e-05,-22.228,1.8815
23538,17.735,1.5455,0.1,0.00013857,1384.7,0.00013817,1373.2,-4.4593e-05,-0.0059525,-4.7629e-05,-22.815,1.8964
23539,17.459,1.4545,0.1,0.00014509,1449.9,0.00014471,1439,-4.6813e-05,-0.0047122,-4.9666e-05,-21.44,1.8521
23540,17.551,1.5455,0.1,0.00014289,1427.9,0.0001425,1416.8,-4.6062e-05,-0.0056839,-4.8985e-05,-21.974,1.867
23541,17.274,1.4545,0.1,0.00014945,1493.4,0.00014908,1483,-4.8289e-05,-0.0044778,-5.1043e-05,-20.695,1.8228
23542,17.366,1.5455,0.1,0.00014724,1471.3,0.00014686,1460.6,-4.7535e-05,-0.0054293,-5.0353e-05,-21.182,1.8376
23543,17.09,1.4545,0.1,0.00015383,1537.2,0.00015348,1527.1,-4.9769e-05,-0.0042588,-5.2429e-05,-19.991,1.7935
23544,17.182,1.5455,0.1,0.0001516,1515,0.00015124,1504.7,-4.9014e-05,-0.0051729,-5.1733e-05,-20.434,1.8083
23545,16.906,1.4545,0.1,0.00015823,1581.2,0.00015789,1571.4,-5.1255e-05,-0.0040739,-5.3827e-05,-19.322,1.7644
23546,16.998,1.5455,0.1,0.00015599,1558.8,0.00015565,1548.9,-5.0497e-05,-0.0049512,-5.3122e-05,-19.726,1.7791
23547,16.721,1.4545,0.1,0.00016265,1625.4,0.00016233,1616,-5.2747e-05,-0.0039011,-5.5233e-05,-18.686,1.7354
23548,16.814,1.5455,0.1,0.0001604,1602.9,0.00016007,1593.3,-5.1987e-05,-0.0047631,-5.4522e-05,-19.053,1.75
23549,16.537,1.4545,0.1,0.0001671,1669.8,0.00016678,1660.7,-5.4244e-05,-0.0037267,-5.665e-05,-18.079,1.7065
23550,16.629,1.5455,0.1,0.00016484,1647.2,0.00016451,1637.9,-5.3482e-05,-0.0045683,-5.5932e-05,-18.412,1.7211
23551,16.353,1.4545,0.1,0.00017156,1714.4,0.00017126,1705.6,-5.5747e-05,-0.0035495,-5.8075e-05,-17.497,1.6777
23552,16.445,1.5455,0.1,0.00016929,1691.7,0.00016898,1682.8,-5.4982e-05,-0.0043804,-5.7351e-05,-17.8,1.6922
23553,16.169,1.4545,0.1,0.00017605,1759.3,0.00017576,1750.7,-5.7256e-05,-0.0033826,-5.9509e-05,-16.937,1.649
23554,16.261,1.5455,0.1,0.00017377,1736.5,0.00017347,1727.8,-5.6488e-05,-0.0041812,-5.8779e-05,-17.212,1.6635
23555,15.984,1.4545,0.1,0.00018056,1804.3,0.00018027,1796.1,-5.877e-05,-0.0032468,-6.0952e-05,-16.395,1.6204
23556,16.077,1.5455,0.1,0.00017826,1781.4,0.00017797,1773,-5.8001e-05,-0.0040136,-6.0215e-05,-16.646,1.6349
23557,15.8,1.4545,0.1,0.00018509,1849.6,0.00018481,1841.6,-6.0291e-05,-0.0031181,-6.2403e-05,-15.87,1.592
23558,15.892,1.5455,0.1,0.00018278,1826.5,0.0001825,1818.4,-5.9519e-05,-0.0038775,-6.1661e-05,-16.098,1.6064
23559,15.616,1.4545,0.1,0.00018964,1895.1,0.00018937,1887.3,-6.1818e-05,-0.0029823,-6.3862e-05,-15.358,1.5637
23560,15.708,1.5455,0.1,0.00018732,1871.9,0.00018705,1864.1,-6.1043e-05,-0.0037265,-6.3114e-05,-15.564,1.578
23561,15.432,1.4545,0.1,0.00019421,1940.7,0.00019395,1933.3,-6.3351e-05,-0.0028383,-6.5328e-05,-14.855,1.5355
23562,15.524,1.5455,0.1,0.00019188,1917.5,0.00019162,1909.9,-6.2573e-05,-0.003577,-6.4575e-05,-15.043,1.5497
23563,15.247,1.4545,0.1,0.0001988,1986.6,0.00019855,1979.4,-6.4891e-05,-0.0026996,-6.6801e-05,-14.36,1.5074
23564,15.339,1.5455,0.1,0.00019646,1963.2,0.00019621,1955.9,-6.411e-05,-0.00341,-6.6044e-05,-14.531,1.5216
23565,15.063,1.4545,0.1,0.00020341,2032.7,0.00020317,2025.7,-6.6436e-05,-0.0025886,-6.8282e-05,-13.869,1.4795
23566,15.155,1.5455,0.1,0.00020106,2009.2,0.00020081,2002.1,-6.5653e-05,-0.0032718,-6.7519e-05,-14.024,1.4936
23567,14.879,1.4545,0.1,0.00020804,2078.9,0.00020781,2072.2,-6.7989e-05,-0.0024816,-6.9769e-05,-13.38,1.4517
23568,14.971,1.5455,0.1,0.00020568,2055.3,0.00020544,2048.6,-6.7203e-05,-0.0031621,-6.9002e-05,-13.521,1.4658
23569,14.695,1.4545,0.1,0.00021269,2125.4,0.00021247,2118.9,-6.9548e-05,-0.0023631,-7.1263e-05,-12.889,1.4241
23570,14.787,1.5455,0.1,0.00021032,2101.7,0.00021009,2095.2,-6.8759e-05,-0.0030325,-7.0491e-05,-13.018,1.4381
23571,14.51,1.4545,0.1,0.00021736,2172.1,0.00021714,2165.9,-7.1114e-05,-0.0022288,-7.2763e-05,-12.394,1.3966
23572,14.602,1.5455,0.1,0.00021498,2148.3,0.00021476,2142,-7.0322e-05,-0.0028987,-7.1986e-05,-12.512,1.4105
23573,14.326,1.4545,0.1,0.00022205,2218.9,0.00022184,2213,-7.2686e-05,-0.002095,-7.4269e-05,-11.893,1.3692
23574,14.418,1.5455,0.1,0.00021965,2195,0.00021945,2189,-7.1891e-05,-0.0027382,-7.3488e-05,-12,1.3831
23575,14.142,1.4545,0.1,0.00022676,2266,0.00022656,2260.3,-7.4266e-05,-0.0019874,-7.578e-05,-11.381,1.342
23576,14.234,1.5455,0.1,0.00022435,2242,0.00022416,2236.2,-7.3467e-05,-0.0026049,-7.4995e-05,-11.479,1.3558
23577,13.957,1.4545,0.1,0.00023149,2313.3,0.0002313,2307.8,-7.5852e-05,-0.0018774,-7.7297e-05,-10.857,1.3149
23578,14.05,1.5455,0.1,0.00022907,2289.1,0.00022888,2283.6,-7.5051e-05,-0.0024969,-7.6507e-05,-10.946,1.3287
23579,13.773,1.4545,0.1,0.00023623,2360.7,0.00023606,2355.5,-7.7445e-05,-0.0017452,-7.8818e-05,-10.317,1.288
23580,13.865,1.5455,0.1,0.00023381,2336.5,0.00023363,2331.2,-7.6641e-05,-0.0023581,-7.8025e-05,-10.399,1.3017
23581,13.589,1.4545,0.1,0.000241,2408.3,0.00024083,2403.4,-7.9046e-05,-0.0015868,-8.0344e-05,-9.7572,1.2613
23582,13.681,1.5455,0.1,0.00023856,2384,0.00023839,2379.1,-7.8239e-05,-0.0022048,-7.9547e-05,-9.8326,1.2749
23583,13.405,1.4545,0.1,0.00024578,2456.1,0.00024563,2451.5,-8.0654e-05,-0.0014173,-8.1875e-05,-9.1755,1.2347
23584,13.497,1.5455,0.1,0.00024334,2431.7,0.00024318,2427.1,-7.9843e-05,-0.0020121,-8.1073e-05,-9.2449,1.2482
23585,13.22,1.4545,0.1,0.00025059,2504.1,0.00025044,2499.8,-8.2269e-05,-0.0012604,-8.3409e-05,-8.5679,1.2083
23586,13.313,1.5455,0.1,0.00024813,2479.6,0.00024798,2475.3,-8.1455e-05,-0.0018335,-8.2604e-05,-8.632,1.2217
23587,13.036,1.4545,0.1,0.00025541,2552.3,0.00025527,2548.4,-8.3892e-05,-0.0010812,-8.4947e-05,-7.9309,1.1821
23588,13.128,1.5455,0.1,0.00025294,2527.7,0.00025281,2523.7,-8.3075e-05,-0.0016631,-8.4138e-05,-7.9902,1.1954
23589,12.852,1.4545,0.1,0.00026025,2600.7,0.00026012,2597.1,-8.5522e-05,-0.00084989,-8.6489e-05,-7.2605,1.156
23590,12.944,1.5455,0.1,0.00025777,2575.9,0.00025765,2572.3,-8.4702e-05,-0.0014332,-8.5676e-05,-7.3155,1.1693
23591,12.668,1.4545,0.1,0.00026511,2649.2,0.00026499,2646,-8.716e-05,-0.0005471,-8.8033e-05,-6.5528,1.1301
23592,12.76,1.5455,0.1,0.00026262,2624.4,0.00026251,2621.1,-8.6337e-05,-0.0011477,-8.7216e-05,-6.6041,1.1433
23593,12.483,1.4545,0.1,0.00026998,2698,0.00026988,2695.1,-8.8806e-05,-0.00016633,-8.9579e-05,-5.8036,1.1044
23594,12.575,1.5455,0.1,0.00026748,2673,0.00026738,2670.1,-8.798e-05,-0.00075693,-8.8758e-05,-5.8513,1.1175
23595,12.299,1.4545,0.1,0.00027487,2746.9,0.00027479,2744.3,-9.046e-05,0.00030734,-9.1127e-05,-5.0084,1.0789
23596,12.391,1.5455,0.1,0.00027237,2721.8,0.00027228,2719.2,-8.963e-05,-0.00028245,-9.0303e-05,-5.0529,1.0919
23597,12.115,1.4545,0.1,0.00027978,2795.9,0.00027971,2793.8,-9.2123e-05,0.00099971,-9.2677e-05,-4.1623,1.0536
23598,12.207,1.5455,0.1,0.00027726,2770.7,0.00027719,2768.6,-9.1289e-05,0.00036304,-9.1848e-05,-4.204,1.0665
23599,11.931,1.4545,0.1,0.00028471,2845.1,0.00028466,2843.5,-9.3793e-05,0.0021476,-9.4227e-05,-3.2606,1.0284
23600,12.023,1.5455,0.1,0.00028218,2819.9,0.00028212,2818.2,-9.2956e-05,0.0014405,-9.3395e-05,-3.2995,1.0412
23601,11.746,1.4545,0.1,0.00028965,2894.5,0.00028962,2893.4,-9.5472e-05,0.0043676,-9.5778e-05,-2.2982,1.0035
23602,11.838,1.5455,0.1,0.00028711,2869.1,0.00028707,2868,-9.4631e-05,0.0034877,-9.4942e-05,-2.3345,1.0162
23603,11.562,1.4545,0.1,0.00029461,2944.1,0.00029459,2943.5,-9.7159e-05,0.010372,-9.7329e-05,-1.272,0.97872
23604,11.654,1.5455,0.1,0.00029206,2918.6,0.00029204,2918,-9.6315e-05,0.0089809,-9.649e-05,-1.3054,0.99133
23605,11.378,1.4545,0.1,0.00029959,2993.8,0.00029959,2993.7,-9.8847e-05,0.072296,-9.8887e-05,-0.22814,0.95416
23606,11.47,1.5455,0.1,0.00029703,2968.2,0.00029702,2968.1,-9.8001e-05,0.061637,-9.8042e-05,-0.2497,0.96668
23607,11.193,1.4545,0.1,0.00030458,3043.7,0.0003046,3044.2,-0.00010042,1.0496,-0.00010057,-0.019111,0.9298
23608,11.286,1.5455,0.1,0.00030201,3018,0.00030202,3018.5,-9.9576e-05,1.0197,-9.9714e-05,-0.018921,0.94222
23609,11.009,1.4545,0.1,0.00030959,3093.7,0.00030963,3094.9,-0.00010197,2.315,-0.00010228,-0.010316,0.90565
23610,11.101,1.5455,0.1,0.000307,3067.9,0.00030704,3069,-0.00010112,2.2879,-0.00010142,-0.010246,0.91797
23611,10.825,1.4545,0.1,0.00031461,3143.9,0.00031467,3145.7,-0.00010351,3.6819,-0.000104,-0.0075818,0.88171
23612,10.917,1.5455,0.1,0.00031201,3117.9,0.00031207,3119.8,-0.00010266,3.6578,-0.00010314,-0.007607,0.89393
23613,10.641,1.4545,0.1,0.00031964,3194.2,0.00031973,3196.8,-0.00010505,5.154,-0.00010574,-0.0062539,0.85799
23614,10.733,1.5455,0.1,0.00031703,3168.1,0.00031712,3170.7,-0.00010419,5.1333,-0.00010488,-0.0062921,0.87011
23615,10.456,1.4545,0.1,0.00032469,3244.7,0.00032481,3248,-0.00010658,6.7391,-0.00010748,-0.0055107,0.83448
23616,10.549,1.5455,0.1,0.00032207,3218.5,0.00032218,3221.8,-0.00010572,6.7224,-0.00010662,-0.0055415,0.84649
23617,10.272,1.4545,0.1,0.00032975,3295.3,0.0003299,3299.5,-0.00010811,8.4467,-0.00010924,-0.0050324,0.81119
23618,10.364,1.5455,0.1,0.00032712,3268.9,0.00032726,3273.2,-0.00010724,8.4345,-0.00010837,-0.0050856,0.8231
23619,10.088,1.4545,0.1,0.00033483,3346,0.000335,3351.1,-0.00010963,10.287,-0.000111,-0.0046903,0.78813
23620,10.18,1.5455,0.1,0.00033218,3319.5,0.00033236,3324.7,-0.00010876,10.28,-0.00011013,-0.0047271,0.79992
23621,9.9036,1.4545,0.1,0.00033992,3396.8,0.00034012,3402.9,-0.00011115,12.27,-0.00011278,-0.0044539,0.76529
23622,9.9957,1.5455,0.1,0.00033726,3370.3,0.00033747,3376.4,-0.00011027,12.27,-0.0001119,-0.0044717,0.77698
23623,9.7193,1.4545,0.1,0.00034501,3447.8,0.00034526,3454.9,-0.00011265,14.408,-0.00011457,-0.0042842,0.74268
23624,9.8115,1.5455,0.1,0.00034234,3421.1,0.00034259,3428.3,-0.00011177,14.416,-0.00011369,-0.004282,0.75426
23625,9.5351,1.4545,0.1,0.00035012,3498.8,0.00035041,3507.2,-0.00011414,16.713,-0.00011637,-0.0041668,0.72031
23626,9.6272,1.5455,0.1,0.00034744,3472,0.00034772,3480.3,-0.00011326,16.731,-0.00011548,-0.0041316,0.73177
23627,9.3508,1.4545,0.1,0.00035525,3550,0.00035557,3559.6,-0.00011563,19.198,-0.00011818,-0.0040947,0.69818
23628,9.4429,1.5455,0.1,0.00035255,3523,0.00035287,3532.6,-0.00011473,19.228,-0.00011729,-0.0040263,0.70952
23629,9.1665,1.4545,0.1,0.00036038,3601.3,0.00036074,3612.2,-0.00011709,21.877,-0.00012001,-0.0040593,0.67628
23630,9.2587,1.5455,0.1,0.00035766,3574.2,0.00035803,3585.1,-0.0001162,21.922,-0.00011911,-0.0039506,0.68751
23631,8.9823,1.4545,0.1,0.00036551,3652.6,0.00036593,3664.9,-0.00011855,24.765,-0.00012184,-0.0040584,0.65463
23632,9.0744,1.5455,0.1,0.00036279,3625.4,0.0003632,3637.7,-0.00011764,24.828,-0.00012095,-0.0039043,0.66574
23633,8.798,1.4545,0.1,0.00037066,3704.1,0.00037113,3717.9,-0.00011999,27.877,-0.0001237,-0.0040914,0.63323
23634,8.8901,1.5455,0.1,0.00036792,3676.7,0.00036839,3690.6,-0.00011907,27.963,-0.0001228,-0.0038853,0.64422
23635,8.6137,1.4545,0.1,0.00037582,3755.6,0.00037634,3771.1,-0.00012141,31.23,-0.00012556,-0.0041597,0.61208
23636,8.7059,1.5455,0.1,0.00037306,3728,0.00037358,3743.6,-0.00012049,31.343,-0.00012466,-0.0038945,0.62295
23637,8.4295,1.4545,0.1,0.00038098,3807.2,0.00038156,3824.5,-0.00012281,34.84,-0.00012745,-0.0042665,0.59119
23638,8.5216,1.5455,0.1,0.00037821,3779.5,0.00037879,3796.8,-0.00012188,34.988,-0.00012654,-0.0039342,0.60193
23639,8.2452,1.4545,0.1,0.00038615,3858.8,0.00038679,3878,-0.00012419,38.726,-0.00012934,-0.0044168,0.57056
23640,8.3373,1.5455,0.1,0.00038336,3830.9,0.000384,3850.2,-0.00012325,38.915,-0.00012843,-0.0040076,0.58117
23641,8.0609,1.4545,0.1,0.00039132,3910.5,0.00039203,3931.8,-0.00012554,42.905,-0.00013126,-0.0046178,0.55019
23642,8.1531,1.5455,0.1,0.00038851,3882.4,0.00038923,3903.8,-0.0001246,43.145,-0.00013034,-0.004121,0.56067
23643,7.8767,1.4545,0.1,0.0003965,3962.2,0.00039728,3985.7,-0.00012688,47.395,-0.00013318,-0.0048787,0.53008
23644,7.9688,1.5455,0.1,0.00039367,3934,0.00039446,3957.6,-0.00012592,47.699,-0.00013227,-0.004281,0.54044
23645,7.6924,1.4545,0.1,0.00040168,4014,0.00040254,4039.9,-0.00012818,52.215,-0.00013513,-0.0052115,0.51025
23646,7.7845,1.5455,0.1,0.00039883,3985.6,0.0003997,4011.6,-0.00012721,52.596,-0.00013421,-0.0044977,0.52047
23647,7.5081,1.4545,0.1,0.00040686,4065.8,0.00040781,4094.2,-0.00012946,57.383,-0.0001371,-0.0056322,0.49068
23648,7.6003,1.5455,0.1,0.00040399,4037.2,0.00040495,4065.8,-0.00012847,57.86,-0.00013617,-0.004784,0.50077
23649,7.3239,1.4545,0.1,0.00041205,4117.7,0.00041308,4148.7,-0.00013071,62.917,-0.00013908,-0.006161,0.4714
23650,7.416,1.5455,0.1,0.00040916,4088.8,0.0004102,4120.2,-0.0001297,63.511,-0.00013816,-0.0051563,0.48135
23651,7.1396,1.4545,0.1,0.00041724,4169.5,0.00041837,4203.5,-0.00013192,68.833,-0.00014108,-0.0068238,0.45239
23652,7.2317,1.5455,0.1,0.00041432,4140.4,0.00041546,4174.7,-0.0001309,69.571,-0.00014016,-0.005635,0.46221
23653,6.9553,1.4545,0.1,0.00042243,4221.4,0.00042366,4258.5,-0.00013311,75.145,-0.00014311,-0.0076535,0.43367
23654,7.0475,1.5455,0.1,0.00041949,4192,0.00042073,4229.5,-0.00013206,76.059,-0.00014218,-0.0062484,0.44335
23655,6.7711,1.4545,0.1,0.00042762,4273.3,0.00042896,4313.6,-0.00013426,81.865,-0.00014515,-0.008692,0.41524
23656,6.8632,1.5455,0.1,0.00042466,4243.6,0.00042601,4284.5,-0.00013318,82.996,-0.00014423,-0.0070302,0.42477
23657,6.5868,1.4545,0.1,0.00043282,4325.2,0.00043427,4369,-0.00013537,89.002,-0.00014722,-0.0099941,0.3971
23658,6.6789,1.5455,0.1,0.00042982,4295.3,0.00043129,4339.7,-0.00013426,90.396,-0.0001463,-0.0080256,0.40649
23659,6.4025,1.4545,0.1,0.00043802,4377.2,0.00043958,4424.6,-0.00013645,96.558,-0.0001493,-0.011629,0.37925
23660,6.4947,1.5455,0.1,0.00043499,4346.9,0.00043658,4395.2,-0.00013531,98.275,-0.00014839,-0.0092921,0.38849
23661,6.2183,1.4545,0.1,0.00044322,4429.2,0.00044491,4480.5,-0.0001375,104.53,-0.00015141,-0.013689,0.3617
23662,6.3104,1.5455,0.1,0.00044016,4398.6,0.00044188,4450.9,-0.00013631,106.64,-0.0001505,-0.010904,0.3708
23663,6.034,1.4545,0.1,0.00044843,4481.2,0.00045025,4536.6,-0.00013851,112.91,-0.00015354,-0.01629,0.34445
23664,6.1261,1.5455,0.1,0.00044533,4450.2,0.00044718,4506.9,-0.00013727,115.5,-0.00015264,-0.01296,0.3534
23665,5.8497,1.4545,0.1,0.00045365,4533.4,0.0004556,4593,-0.0001395,121.66,-0.00015569,-0.019587,0.32751
23666,5.9419,1.5455,0.1,0.00045051,4502,0.00045251,4563.1,-0.00013819,124.84,-0.00015481,-0.015585,0.33631
23667,5.6655,1.4545,0.1,0.00045888,4585.6,0.00046096,4649.6,-0.00014046,130.77,-0.00015786,-0.023785,0.31088
23668,5.7576,1.5455,0.1,0.0004557,4553.9,0.00045784,4619.7,-0.00013908,134.66,-0.000157,-0.018946,0.31952
23669,5.4812,1.4545,0.1,0.00046412,4638,0.00046634,4706.5,-0.00014139,140.17,-0.00016005,-0.029156,0.29456
23670,5.5733,1.5455,0.1,0.0004609,4605.9,0.0004632,4676.6,-0.00013993,144.91,-0.00015922,-0.023266,0.30305
23671,5.2969,1.4545,0.1,0.00046938,4690.6,0.00047175,4763.6,-0.00014232,149.79,-0.00016226,-0.036064,0.27856
23672,5.3891,1.5455,0.1,0.00046613,4658,0.00046858,4733.9,-0.00014076,155.58,-0.00016147,-0.028839,0.28689
23673,5.1127,1.4545,0.1,0.00047467,4743.4,0.00047718,4821.1,-0.00014324,159.54,-0.00016448,-0.045004,0.26288
23674,5.2048,1.5455,0.1,0.00047138,4710.5,0.00047399,4791.6,-0.00014156,166.58,-0.00016374,-0.036061,0.27105
23675,4.9284,1.4545,0.1,0.00047998,4796.5,0.00048264,4878.9,-0.00014417,169.28,-0.00016671,-0.056652,0.24752
23676,5.0205,1.5455,0.1,0.00047666,4763.3,0.00047944,4849.7,-0.00014235,177.83,-0.00016603,-0.045468,0.25553
23677,4.7441,1.4545,0.1,0.00048534,4850,0.00048813,4936.9,-0.00014513,178.87,-0.00016895,-0.071944,0.23249
23678,4.8363,1.5455,0.1,0.000482,4816.6,0.00048494,4908.4,-0.00014315,189.23,-0.00016834,-0.057793,0.24033
23679,4.5599,1.4545,0.1,0.00049074,4904,0.00049367,4995.3,-0.00014613,188.08,-0.00017118,-0.092193,0.21779
23680,4.652,1.5455,0.1,0.00048739,4870.6,0.00049049,4967.7,-0.00014397,200.61,-0.00017068,-0.074049,0.22547
23681,4.3756,1.4545,0.1,0.0004962,4958.5,0.00049925,5053.9,-0.00014721,196.66,-0.0001734,-0.11927,0.20343
23682,4.4677,1.5455,0.1,0.00049287,4925.3,0.00049612,5027.7,-0.00014483,211.78,-0.00017303,-0.095645,0.21093
23683,4.1913,1.4545,0.1,0.00050172,5013.7,0.00050488,5112.6,-0.00014839,204.29,-0.0001756,-0.15586,0.18941
23684,4.2835,1.5455,0.1,0.00049844,4980.9,0.00050185,5088.4,-0.00014577,222.48,-0.00017539,-0.12458,0.19674
23685,4.0071,1.4545,0.1,0.00050731,5069.6,0.00051056,5171.5,-0.0001497,210.55,-0.00017775,-0.20596,0.17573
23686,4.0992,1.5455,0.1,0.00050413,5037.8,0.00050768,5149.9,-0.0001468,232.39,-0.00017776,-0.1637,0.18288
23687,3.8228,1.4545,0.1,0.00051299,5126.4,0.00051631,5230.3,-0.0001512,214.94,-0.00017985,-0.2756,0.16239
23688,3.9149,1.5455,0.1,0.00050998,5096.3,0.00051365,5212.4,-0.000148,241.09,-0.00018011,-0.21719,0.16938
23689,3.6385,1.4545,0.1,0.00051877,5184.1,0.00052211,5288.9,-0.00015295,216.78,-0.00018185,-0.37423,0.14941
23690,3.7307,1.5455,0.1,0.00051601,5156.5,0.00051977,5275.9,-0.00014939,248.03,-0.00018244,-0.29128,0.15621
23691,3.4543,1.4545,0.1,0.00052465,5242.9,0.00052797,5346.9,-0.00015502,215.23,-0.00018373,-0.51736,0.13678
23692,3.5464,1.5455,0.1,0.00052226,5219,0.00052609,5340.5,-0.00015108,252.51,-0.00018474,-0.39562,0.14341
23693,3.27,1.4545,0.1,0.00053066,5302.9,0.00053389,5404,-0.00015751,209.11,-0.00018543,-0.73216,0.12451
23694,3.3621,1.5455,0.1,0.0005288,5284.4,0.00053265,5406.3,-0.00015314,253.54,-0.00018696,-0.54573,0.13096
23695,3.0857,1.4545,0.1,0.00053682,5364.5,0.00053987,5459.6,-0.00016056,196.81,-0.0001869,-1.071,0.11261
23696,3.1779,1.5455,0.1,0.0005357,5353.3,0.00053949,5473.4,-0.00015573,249.77,-0.00018907,-0.76835,0.11887
23697,2.9015,1.4545,0.1,0.00054318,5428.1,0.00054593,5513.1,-0.00016439,176.03,-0.00018804,-1.6501,0.10107
23698,2.9936,1.5455,0.1,0.00054305,5426.8,0.00054671,5541.9,-0.00015903,239.29,-0.00019102,-1.1136,0.10715
23699,2.7172,1.4545,0.1,0.00054986,5494.8,0.00055211,5563.7,-0.00016928,143.46,-0.00018874,-2.7926,0.089897
23700,2.8093,1.5455,0.1,0.00055104,5506.6,0.00055441,5612.1,-0.00016333,219.22,-0.00019274,-1.6898,0.095799
23701,2.5329,1.4545,0.1,0.00055706,5566.8,0.0005585,5610.5,-0.0001756,94.786,-0.00018899,-5.8432,0.079102
23702,2.6251,1.5455,0.1,0.00055994,5595.5,0.0005628,5684.4,-0.00016908,185.3,-0.00019411,-2.781,0.084826
23703,2.3487,1.4545,0.1,0.00056519,5648,0.00056534,5652.9,-0.00018258,33.311,-0.00019008,-23.099,0.068686
23704,2.4408,1.5455,0.1,0.00057019,5697.9,0.0005722,5759.6,-0.00017687,131.38,-0.00019509,-5.4806,0.074235
23705,2.1644,1.4545,0.1,0.00057498,5745.8,0.000573,5689.7,-0.00018304,9.1097,-0.00020012,-119.19,0.05865
23706,2.2565,1.5455,0.1,0.00058257,5821.7,0.00058315,5839.3,-0.00018676,54.55,-0.00019649,-18.528,0.064031
23707,1.9801,1.4545,0.1,0.00058775,5873.5,0.00058213,5719.8,-0.00017842,5.341,-0.00021916,-300.78,0.048997
23708,2.0723,1.5455,0.1,0.00059845,5980.4,0.00059653,5926,-0.00019055,12.147,-0.00020798,-118.76,0.054219
23709,1.7959,1.4545,0.1,0.00060569,6052.7,0.00059358,5739.2,-0.00016966,4.4966,-0.00024851,-588,0.039723
23710,1.888,1.5455,0.1,0.00062013,6197,0.00061373,6023,-0.00018699,6.7514,-0.00023316,-340.17,0.044802
23711,1.6116,1.4545,0.1,0.00063223,6317.9,0.00060822,5737.7,-0.00015483,4.3733,-0.00029327,-1035.8,0.030824
23712,1.7037,1.5455,0.1,0.0006518,6513.5,0.00063693,6132.9,-0.00017878,4.0709,-0.0002734,-706.89,0.035783
23713,1.4273,1.4545,0.1,0.00067051,6700.4,0.00062464,5677.1,-0.00013055,2.8159,-0.00035919,-1715.1,0.022282
23714,1.5195,1.5455,0.1,0.00069953,6990.5,0.00066822,6251.3,-0.00016233,10.841,-0.00033716,-1302.8,0.027158
23715,1.2431,1.4545,0.1,0.00073964,7391.3,0.00065187,5603.9,-9.1412e-05,19.167,-0.00046365,-2777.7,0.014073
23716,1.3352,1.5455,0.1,0.0007747,7741.7,0.00070996,6338.4,-0.00013402,-2.8935,-0.00043825,-2288.8,0.018911
23717,1.1509,1.5455,0.1,0.00092168,9210.4,0.00078208,6473.5,-7.8773e-05,5.3687,-0.00062141,-4071.8,0.01102
23718,1.0588,1.4545,0.1,0.00064742,6469.7,0.00054317,4457.4,-4.6631e-05,25.881,-0.00044494,-2966.9,0.0062385
23719,23.724,1.6364,0.1,1.827e-05,182.57,1.0729e-05,59.041,2.8449e-06,-0.19941,-1.6533e-05,-145.79,2.8893
23720,23.816,1.7273,0.1,1.7785e-05,177.73,9.0989e-06,39.902,3.7652e-06,-0.17347,-1.6767e-05,-154.45,2.9049
23721,23.908,1.6364,0.1,1.6794e-05,167.83,7.4052e-06,22.514,4.3528e-06,-0.42069,-1.63e-05,-155.6,2.9204
23722,23.539,1.6364,0.1,2.0297e-05,202.83,1.4239e-05,97.412,1.2456e-06,-0.21202,-1.6797e-05,-135.77,2.8582
23723,23.631,1.7273,0.1,1.9553e-05,195.39,1.2608e-05,78.32,2.1421e-06,-0.31398,-1.7e-05,-144.14,2.8738
23724,23.355,1.6364,0.1,2.2719e-05,227.03,1.7758e-05,135.72,-3.2019e-07,-0.11864,-1.7124e-05,-126.38,2.8271
23725,23.447,1.7273,0.1,2.1777e-05,217.62,1.6125e-05,116.77,5.6646e-07,-0.13198,-1.7293e-05,-134.32,2.8427
23726,23.171,1.6364,0.1,2.5429e-05,254.12,2.1295e-05,173.94,-1.868e-06,-0.096976,-1.7516e-05,-117.67,2.796
23727,23.263,1.7273,0.1,2.4336e-05,243.19,1.9657e-05,155.09,-9.9878e-07,-0.11574,-1.7645e-05,-125.19,2.8116
23728,22.987,1.6364,0.1,2.8356e-05,283.36,2.4854e-05,212.17,-3.3943e-06,-0.075131,-1.7973e-05,-109.61,2.7649
23729,23.079,1.7273,0.1,2.7143e-05,271.24,2.3205e-05,193.36,-2.5405e-06,-0.085071,-1.8059e-05,-116.68,2.7805
23730,22.802,1.6364,0.1,3.1449e-05,314.27,2.8439e-05,250.45,-4.9025e-06,-0.062315,-1.8494e-05,-102.18,2.7339
23731,22.894,1.7273,0.1,3.0138e-05,301.17,2.6775e-05,231.64,-4.0635e-06,-0.070501,-1.8535e-05,-108.8,2.7495
23732,22.618,1.6364,0.1,3.4675e-05,346.51,3.2054e-05,288.84,-6.3949e-06,-0.052404,-1.9078e-05,-95.347,2.7029
23733,22.71,1.7273,0.1,3.3282e-05,332.59,3.0372e-05,269.99,-5.5693e-06,-0.058647,-1.9072e-05,-101.51,2.7184
23734,22.434,1.6364,0.1,3.8008e-05,379.82,3.5701e-05,327.36,-7.8737e-06,-0.045034,-1.9721e-05,-89.065,2.6719
23735,22.526,1.7273,0.1,3.6545e-05,365.19,3.3997e-05,308.44,-7.0603e-06,-0.050214,-1.9669e-05,-94.791,2.6874
23736,22.249,1.6364,0.1,4.1431e-05,414.03,3.9381e-05,366.04,-9.3409e-06,-0.039224,-2.0421e-05,-83.291,2.6409
23737,22.342,1.7273,0.1,3.9906e-05,398.78,3.7653e-05,347.02,-8.5384e-06,-0.043599,-2.0324e-05,-88.592,2.6564
23738,22.065,1.6364,0.1,4.493e-05,448.99,4.3092e-05,404.88,-1.0799e-05,-0.034569,-2.1173e-05,-77.982,2.6099
23739,22.157,1.7273,0.1,4.335e-05,433.2,4.1341e-05,385.76,-1.0006e-05,-0.038367,-2.1031e-05,-82.879,2.6255
23740,21.881,1.6364,0.1,4.8495e-05,484.62,4.6836e-05,443.9,-1.2248e-05,-0.030757,-2.1973e-05,-73.097,2.579
23741,21.973,1.7273,0.1,4.6865e-05,468.33,4.506e-05,424.66,-1.1464e-05,-0.034112,-2.1789e-05,-77.613,2.5945
23742,21.697,1.6364,0.1,5.2118e-05,520.82,5.061e-05,483.11,-1.3691e-05,-0.027593,-2.2817e-05,-68.597,2.5481
23743,21.789,1.7273,0.1,5.0443e-05,504.08,4.8809e-05,463.74,-1.2914e-05,-0.030591,-2.2594e-05,-72.757,2.5636
23744,21.512,1.6364,0.1,5.5792e-05,557.53,5.4415e-05,522.5,-1.5129e-05,-0.024937,-2.3703e-05,-64.449,2.5173
23745,21.605,1.7273,0.1,5.4076e-05,540.39,5.259e-05,503,-1.4358e-05,-0.027647,-2.3442e-05,-68.276,2.5327
23746,21.328,1.6364,0.1,5.9513e-05,594.72,5.8249e-05,562.08,-1.6562e-05,-0.022678,-2.4627e-05,-60.62,2.4864
23747,21.42,1.7273,0.1,5.776e-05,577.2,5.64e-05,542.44,-1.5797e-05,-0.025155,-2.433e-05,-64.138,2.5019
23748,21.144,1.6364,0.1,6.3277e-05,632.33,6.2112e-05,601.85,-1.7992e-05,-0.020734,-2.5586e-05,-57.084,2.4556
23749,21.236,1.7273,0.1,6.1489e-05,614.47,6.024e-05,582.08,-1.7232e-05,-0.023014,-2.5257e-05,-60.315,2.4711
23750,20.96,1.6364,0.1,6.7081e-05,670.35,6.6003e-05,641.81,-1.9419e-05,-0.019046,-2.6579e-05,-53.814,2.4249
23751,21.052,1.7273,0.1,6.5261e-05,652.16,6.4109e-05,621.9,-1.8664e-05,-0.021158,-2.6218e-05,-56.78,2.4403
23752,20.775,1.6364,0.1,7.0922e-05,708.73,6.9921e-05,681.96,-2.0845e-05,-0.017572,-2.7602e-05,-50.789,2.3942
23753,20.867,1.7273,0.1,6.9072e-05,690.24,6.8005e-05,661.92,-2.0093e-05,-0.019534,-2.7213e-05,-53.511,2.4096
23754,20.591,1.6364,0.1,7.4798e-05,747.47,7.3866e-05,722.31,-2.227e-05,-0.016283,-2.8654e-05,-47.987,2.3636
23755,20.683,1.7273,0.1,7.292e-05,728.69,7.1929e-05,702.13,-2.1521e-05,-0.018112,-2.8238e-05,-50.484,2.3789
23756,20.407,1.6364,0.1,7.8708e-05,786.54,7.7837e-05,762.85,-2.3694e-05,-0.015142,-2.9733e-05,-45.392,2.333
23757,20.499,1.7273,0.1,7.6803e-05,767.5,7.588e-05,742.54,-2.2948e-05,-0.016865,-2.9292e-05,-47.681,2.3483
23758,20.223,1.6364,0.1,8.265e-05,825.93,8.1834e-05,803.59,-2.5119e-05,-0.014122,-3.0838e-05,-42.985,2.3024
23759,20.315,1.7273,0.1,8.072e-05,806.64,7.9858e-05,783.15,-2.4374e-05,-0.015746,-3.0373e-05,-45.084,2.3177
23760,20.038,1.6364,0.1,8.6622e-05,865.62,8.5856e-05,844.52,-2.6544e-05,-0.013204,-3.1966e-05,-40.753,2.2719
23761,20.13,1.7273,0.1,8.4669e-05,846.1,8.3862e-05,823.95,-2.5801e-05,-0.014743,-3.1479e-05,-42.676,2.2872
23762,19.854,1.6364,0.1,9.0624e-05,905.61,8.9904e-05,885.65,-2.797e-05,-0.012377,-3.3117e-05,-38.681,2.2415
23763,19.946,1.7273,0.1,8.8648e-05,885.87,8.7891e-05,864.95,-2.7229e-05,-0.013832,-3.261e-05,-40.443,2.2568
23764,19.67,1.6364,0.1,9.4655e-05,945.89,9.3976e-05,926.97,-2.9399e-05,-0.01164,-3.4289e-05,-36.758,2.2111
23765,19.762,1.7273,0.1,9.2658e-05,925.94,9.1946e-05,906.15,-2.8658e-05,-0.013017,-3.3763e-05,-38.371,2.2264
23766,19.485,1.6364,0.1,9.8714e-05,986.45,9.8072e-05,968.5,-3.0829e-05,-0.010973,-3.5482e-05,-34.97,2.1808
23767,19.578,1.7273,0.1,9.6697e-05,966.3,9.6025e-05,947.56,-3.0089e-05,-0.01229,-3.4938e-05,-36.447,2.196
23768,19.301,1.6364,0.1,0.0001028,1027.3,0.00010219,1010.2,-3.2261e-05,-0.010359,-3.6693e-05,-33.308,2.1506
23769,19.393,1.7273,0.1,0.00010076,1006.9,0.00010013,989.16,-3.1521e-05,-0.011619,-3.6133e-05,-34.66,2.1658
23770,19.117,1.6364,0.1,0.00010691,1068.4,0.00010634,1052.1,-3.3697e-05,-0.0097913,-3.7923e-05,-31.762,2.1204
23771,19.209,1.7273,0.1,0.00010486,1047.9,0.00010426,1031,-3.2957e-05,-0.011004,-3.7347e-05,-32.999,2.1355
23772,18.933,1.6364,0.1,0.00011105,1109.7,0.0001105,1094.3,-3.5135e-05,-0.0092699,-3.917e-05,-30.323,2.0903
23773,19.025,1.7273,0.1,0.00010898,1089,0.00010841,1073,-3.4395e-05,-0.010426,-3.858e-05,-31.454,2.1054
23774,18.748,1.6364,0.1,0.00011521,1151.4,0.00011469,1136.6,-3.6577e-05,-0.0088048,-4.0433e-05,-28.982,2.0602
23775,18.841,1.7273,0.1,0.00011313,1130.5,0.00011259,1115.2,-3.5836e-05,-0.0099093,-3.9829e-05,-30.017,2.0753
23776,18.564,1.6364,0.1,0.0001194,1193.2,0.00011891,1179.1,-3.8022e-05,-0.0083771,-4.1712e-05,-27.731,2.0303
23777,18.656,1.7273,0.1,0.0001173,1172.2,0.00011678,1157.6,-3.728e-05,-0.0094459,-4.1096e-05,-28.677,2.0454
23778,18.38,1.6364,0.1,0.00012362,1235.3,0.00012314,1221.8,-3.9472e-05,-0.0079744,-4.3006e-05,-26.564,2.0004
23779,18.472,1.7273,0.1,0.0001215,1214.1,0.00012101,1200.2,-3.8728e-05,-0.0090055,-4.2378e-05,-27.429,2.0154
23780,18.196,1.6364,0.1,0.00012786,1277.7,0.0001274,1264.7,-4.0925e-05,-0.0075922,-4.4314e-05,-25.473,1.9706
23781,18.288,1.7273,0.1,0.00012572,1256.3,0.00012525,1243,-4.0181e-05,-0.0085961,-4.3675e-05,-26.264,1.9856
23782,18.011,1.6364,0.1,0.00013212,1320.3,0.00013168,1307.9,-4.2383e-05,-0.0072373,-4.5636e-05,-24.452,1.9409
23783,18.103,1.7273,0.1,0.00012997,1298.8,0.00012952,1286,-4.1637e-05,-0.0081986,-4.4986e-05,-25.175,1.9559
23784,17.827,1.6364,0.1,0.0001364,1363.1,0.00013599,1351.2,-4.3845e-05,-0.0069233,-4.6971e-05,-23.495,1.9113
23785,17.919,1.7273,0.1,0.00013424,1341.5,0.00013381,1329.2,-4.3097e-05,-0.0078461,-4.6311e-05,-24.155,1.9262
23786,17.643,1.6364,0.1,0.00014071,1406.1,0.00014031,1394.7,-4.5311e-05,-0.0066324,-4.8318e-05,-22.597,1.8818
23787,17.735,1.7273,0.1,0.00013853,1384.4,0.00013812,1372.6,-4.4563e-05,-0.007533,-4.7649e-05,-23.2,1.8967
23788,17.459,1.6364,0.1,0.00014504,1449.4,0.00014466,1438.4,-4.6783e-05,-0.0063514,-4.9677e-05,-21.752,1.8524
23789,17.551,1.7273,0.1,0.00014285,1427.5,0.00014246,1416.2,-4.6032e-05,-0.0072271,-4.9e-05,-22.303,1.8672
23790,17.274,1.6364,0.1,0.0001494,1492.9,0.00014903,1482.3,-4.826e-05,-0.0060775,-5.1048e-05,-20.956,1.823
23791,17.366,1.7273,0.1,0.00014719,1470.9,0.00014682,1460.1,-4.7507e-05,-0.0069372,-5.0362e-05,-21.46,1.8378
23792,17.09,1.6364,0.1,0.00015377,1536.7,0.00015342,1526.5,-4.9742e-05,-0.0058209,-5.243e-05,-20.203,1.7938
23793,17.182,1.7273,0.1,0.00015156,1514.5,0.00015119,1504.1,-4.8987e-05,-0.0066464,-5.1736e-05,-20.664,1.8085
23794,16.906,1.6364,0.1,0.00015817,1580.6,0.00015783,1570.8,-5.1229e-05,-0.0055985,-5.3822e-05,-19.49,1.7647
23795,16.998,1.7273,0.1,0.00015594,1558.3,0.00015559,1548.3,-5.0472e-05,-0.0063923,-5.3121e-05,-19.911,1.7794
23796,16.721,1.6364,0.1,0.00016259,1624.8,0.00016226,1615.3,-5.2721e-05,-0.0053906,-5.5225e-05,-18.813,1.7357
23797,16.814,1.7273,0.1,0.00016035,1602.4,0.00016002,1592.7,-5.1962e-05,-0.0061722,-5.4517e-05,-19.198,1.7503
23798,16.537,1.6364,0.1,0.00016704,1669.2,0.00016672,1660,-5.422e-05,-0.0051845,-5.6637e-05,-18.166,1.7068
23799,16.629,1.7273,0.1,0.00016478,1646.7,0.00016446,1637.3,-5.3458e-05,-0.0059479,-5.5922e-05,-18.519,1.7213
23800,16.353,1.6364,0.1,0.0001715,1713.8,0.00017119,1705,-5.5724e-05,-0.0049768,-5.8058e-05,-17.548,1.678
23801,16.445,1.7273,0.1,0.00016923,1691.2,0.00016892,1682.1,-5.496e-05,-0.0057324,-5.7337e-05,-17.87,1.6925
23802,16.169,1.6364,0.1,0.00017598,1758.6,0.00017569,1750.1,-5.7233e-05,-0.0047787,-5.9489e-05,-16.953,1.6493
23803,16.261,1.7273,0.1,0.00017371,1735.9,0.00017341,1727.2,-5.6467e-05,-0.0055071,-5.8762e-05,-17.249,1.6638
23804,15.984,1.6364,0.1,0.00018049,1803.7,0.00018021,1795.4,-5.8749e-05,-0.0046128,-6.0928e-05,-16.38,1.6207
23805,16.077,1.7273,0.1,0.0001782,1780.8,0.00017791,1772.4,-5.798e-05,-0.0053124,-6.0195e-05,-16.651,1.6352
23806,15.8,1.6364,0.1,0.00018502,1848.9,0.00018474,1840.9,-6.0271e-05,-0.0044563,-6.2376e-05,-15.823,1.5923
23807,15.892,1.7273,0.1,0.00018272,1825.9,0.00018244,1817.8,-5.9499e-05,-0.0051507,-6.1637e-05,-16.072,1.6067
23808,15.616,1.6364,0.1,0.00018956,1894.3,0.0001893,1886.7,-6.1798e-05,-0.0042935,-6.3831e-05,-15.281,1.564
23809,15.708,1.7273,0.1,0.00018725,1871.2,0.00018698,1863.4,-6.1024e-05,-0.0049759,-6.3088e-05,-15.51,1.5783
23810,15.432,1.6364,0.1,0.00019413,1940,0.00019388,1932.6,-6.3332e-05,-0.0041228,-6.5295e-05,-14.749,1.5358
23811,15.524,1.7273,0.1,0.00019181,1916.8,0.00019155,1909.3,-6.2555e-05,-0.0048035,-6.4546e-05,-14.96,1.55
23812,15.247,1.6364,0.1,0.00019872,1985.8,0.00019848,1978.7,-6.4873e-05,-0.0039581,-6.6765e-05,-14.225,1.5078
23813,15.339,1.7273,0.1,0.00019639,1962.5,0.00019614,1955.3,-6.4093e-05,-0.0046136,-6.6011e-05,-14.42,1.5219
23814,15.063,1.6364,0.1,0.00020333,2031.9,0.00020309,2025,-6.6419e-05,-0.0038232,-6.8243e-05,-13.706,1.4798
23815,15.155,1.7273,0.1,0.00020099,2008.5,0.00020075,2001.5,-6.5637e-05,-0.0044535,-6.7484e-05,-13.887,1.4939
23816,14.879,1.6364,0.1,0.00020796,2078.2,0.00020773,2071.5,-6.7973e-05,-0.0036929,-6.9727e-05,-13.188,1.4521
23817,14.971,1.7273,0.1,0.0002056,2054.6,0.00020537,2047.9,-6.7187e-05,-0.0043236,-6.8964e-05,-13.356,1.4661
23818,14.695,1.6364,0.1,0.00021261,2124.6,0.00021239,2118.2,-6.9532e-05,-0.0035499,-7.1218e-05,-12.669,1.4244
23819,14.787,1.7273,0.1,0.00021024,2101,0.00021002,2094.5,-6.8744e-05,-0.0041732,-7.045e-05,-12.826,1.4384
23820,14.51,1.6364,0.1,0.00021728,2171.3,0.00021707,2165.2,-7.1099e-05,-0.003392,-7.2715e-05,-12.145,1.3969
23821,14.602,1.7273,0.1,0.0002149,2147.5,0.00021469,2141.3,-7.0307e-05,-0.004019,-7.1943e-05,-12.293,1.4108
23822,14.326,1.6364,0.1,0.00022196,2218.1,0.00022176,2212.3,-7.2672e-05,-0.0032344,-7.4218e-05,-11.614,1.3696
23823,14.418,1.7273,0.1,0.00021958,2194.3,0.00021937,2188.4,-7.1878e-05,-0.0038389,-7.3442e-05,-11.753,1.3834
23824,14.142,1.6364,0.1,0.00022667,2265.1,0.00022648,2259.6,-7.4253e-05,-0.0031032,-7.5726e-05,-11.071,1.3424
23825,14.234,1.7273,0.1,0.00022427,2241.2,0.00022408,2235.6,-7.3455e-05,-0.0036861,-7.4946e-05,-11.203,1.3561
23826,13.957,1.6364,0.1,0.0002314,2312.4,0.00023122,2307.1,-7.584e-05,-0.0029692,-7.7239e-05,-10.515,1.3153
23827,14.05,1.7273,0.1,0.00022899,2288.3,0.00022881,2283,-7.5039e-05,-0.0035584,-7.6455e-05,-10.641,1.329
23828,13.773,1.6364,0.1,0.00023614,2359.8,0.00023597,2354.8,-7.7434e-05,-0.0028125,-7.8757e-05,-9.9413,1.2885
23829,13.865,1.7273,0.1,0.00023372,2335.6,0.00023355,2330.6,-7.663e-05,-0.0034001,-7.7969e-05,-10.062,1.3021
23830,13.589,1.6364,0.1,0.00024091,2407.4,0.00024075,2402.7,-7.9036e-05,-0.0026286,-8.028e-05,-9.3465,1.2617
23831,13.681,1.7273,0.1,0.00023848,2383.1,0.00023832,2378.4,-7.8229e-05,-0.0032271,-7.9488e-05,-9.4634,1.2753
23832,13.405,1.6364,0.1,0.00024569,2455.2,0.00024554,2450.8,-8.0645e-05,-0.0024312,-8.1806e-05,-8.7272,1.2352
23833,13.497,1.7273,0.1,0.00024325,2430.8,0.0002431,2426.4,-7.9834e-05,-0.0030136,-8.1011e-05,-8.8411,1.2486
23834,13.22,1.6364,0.1,0.00025049,2503.2,0.00025035,2499.1,-8.2261e-05,-0.0022445,-8.3336e-05,-8.0797,1.2088
23835,13.313,1.7273,0.1,0.00024804,2478.7,0.0002479,2474.6,-8.1447e-05,-0.0028134,-8.2537e-05,-8.1915,1.2221
23836,13.036,1.6364,0.1,0.00025531,2551.3,0.00025518,2547.6,-8.3885e-05,-0.0020303,-8.487e-05,-7.3999,1.1825
23837,13.128,1.7273,0.1,0.00025285,2526.7,0.00025272,2523,-8.3068e-05,-0.0026192,-8.4067e-05,-7.5105,1.1958
23838,12.852,1.6364,0.1,0.00026014,2599.7,0.00026003,2596.3,-8.5517e-05,-0.0017553,-8.6406e-05,-6.6838,1.1565
23839,12.944,1.7273,0.1,0.00025768,2575,0.00025756,2571.6,-8.4696e-05,-0.0023589,-8.56e-05,-6.794,1.1697
23840,12.668,1.6364,0.1,0.000265,2648.2,0.0002649,2645.2,-8.7156e-05,-0.0013946,-8.7945e-05,-5.9268,1.1306
23841,12.76,1.7273,0.1,0.00026252,2623.4,0.00026242,2620.4,-8.6332e-05,-0.0020344,-8.7135e-05,-6.0375,1.1437
23842,12.483,1.6364,0.1,0.00026987,2696.8,0.00026978,2694.3,-8.8803e-05,-0.00092928,-8.9485e-05,-5.1245,1.1049
23843,12.575,1.7273,0.1,0.00026738,2672,0.00026729,2669.3,-8.7976e-05,-0.0015875,-8.8673e-05,-5.2364,1.1179
23844,12.299,1.6364,0.1,0.00027476,2745.7,0.00027469,2743.6,-9.0459e-05,-0.0003144,-9.1027e-05,-4.2721,1.0794
23845,12.391,1.7273,0.1,0.00027226,2720.7,0.00027218,2718.5,-8.9628e-05,-0.0010179,-9.0212e-05,-4.3858,1.0923
23846,12.115,1.6364,0.1,0.00027966,2794.7,0.00027961,2793,-9.2122e-05,0.00065674,-9.257e-05,-3.3642,1.0541
23847,12.207,1.7273,0.1,0.00027715,2769.6,0.00027709,2767.9,-9.1288e-05,-0.00018181,-9.1751e-05,-3.4806,1.0669
23848,11.931,1.6364,0.1,0.00028459,2843.9,0.00028454,2842.7,-9.3794e-05,0.0024915,-9.4113e-05,-2.3959,1.0289
23849,12.023,1.7273,0.1,0.00028206,2818.7,0.00028202,2817.4,-9.2957e-05,0.0013751,-9.3291e-05,-2.5154,1.0417
23850,11.746,1.6364,0.1,0.00028952,2893.2,0.0002895,2892.6,-9.5474e-05,0.0072651,-9.5657e-05,-1.3632,1.004
23851,11.838,1.7273,0.1,0.00028699,2867.9,0.00028697,2867.2,-9.4633e-05,0.0051854,-9.4832e-05,-1.4859,1.0167
23852,11.562,1.6364,0.1,0.00029448,2942.7,0.00029447,2942.6,-9.7159e-05,0.04773,-9.7204e-05,-0.29241,0.97923
23853,11.654,1.7273,0.1,0.00029193,2917.3,0.00029193,2917.1,-9.6316e-05,0.029966,-9.6374e-05,-0.40412,0.99181
23854,11.378,1.6364,0.1,0.00029945,2992.4,0.00029946,2992.9,-9.8735e-05,0.96591,-9.8866e-05,-0.018825,0.95468
23855,11.47,1.7273,0.1,0.00029689,2966.9,0.00029691,2967.3,-9.7904e-05,0.83223,-9.8018e-05,-0.019977,0.96716
23856,11.193,1.6364,0.1,0.00030443,3042.2,0.00030447,3043.3,-0.00010027,2.237,-0.00010057,-0.010131,0.93033
23857,11.286,1.7273,0.1,0.00030187,3016.6,0.0003019,3017.6,-9.944e-05,2.0961,-9.972e-05,-0.01021,0.94271
23858,11.009,1.6364,0.1,0.00030943,3092.1,0.00030949,3093.9,-0.00010181,3.6102,-0.00010229,-0.0075766,0.90619
23859,11.101,1.7273,0.1,0.00030685,3066.4,0.00030691,3068.1,-0.00010097,3.4627,-0.00010143,-0.0076146,0.91847
23860,10.825,1.6364,0.1,0.00031444,3142.2,0.00031452,3144.8,-0.00010334,5.0891,-0.00010402,-0.0063234,0.88226
23861,10.917,1.7273,0.1,0.00031185,3116.4,0.00031194,3118.9,-0.0001025,4.9344,-0.00010316,-0.0063886,0.89444
23862,10.641,1.6364,0.1,0.00031946,3192.4,0.00031958,3195.8,-0.00010486,6.6822,-0.00010575,-0.0055719,0.85854
23863,10.733,1.7273,0.1,0.00031687,3166.5,0.00031698,3169.8,-0.00010402,6.5198,-0.00010489,-0.0056241,0.87062
23864,10.456,1.6364,0.1,0.0003245,3242.8,0.00032464,3247,-0.00010638,8.3987,-0.0001075,-0.0051031,0.83504
23865,10.549,1.7273,0.1,0.0003219,3216.8,0.00032204,3220.9,-0.00010554,8.2282,-0.00010663,-0.005138,0.84701
23866,10.272,1.6364,0.1,0.00032955,3293.3,0.00032973,3298.4,-0.0001079,10.249,-0.00010926,-0.0047655,0.81176
23867,10.364,1.7273,0.1,0.00032694,3267.1,0.00032711,3272.1,-0.00010705,10.07,-0.00010839,-0.00482,0.82363
23868,10.088,1.6364,0.1,0.00033462,3343.8,0.00033482,3350,-0.0001094,12.245,-0.00011103,-0.004494,0.7887
23869,10.18,1.7273,0.1,0.00033199,3317.6,0.00033219,3323.6,-0.00010855,12.057,-0.00011015,-0.0045342,0.80046
23870,9.9036,1.6364,0.1,0.00033969,3394.5,0.00033993,3401.7,-0.00011089,14.398,-0.00011281,-0.0042867,0.76587
23871,9.9957,1.7273,0.1,0.00033705,3368.2,0.00033729,3375.3,-0.00011004,14.202,-0.00011193,-0.0043115,0.77752
23872,9.7193,1.6364,0.1,0.00034477,3445.4,0.00034505,3453.7,-0.00011238,16.722,-0.0001146,-0.0041183,0.74327
23873,9.8115,1.7273,0.1,0.00034212,3418.9,0.0003424,3427.1,-0.00011152,16.516,-0.00011372,-0.0041281,0.75481
23874,9.5351,1.6364,0.1,0.00034987,3496.3,0.00035019,3505.8,-0.00011385,19.229,-0.00011641,-0.0039824,0.72091
23875,9.6272,1.7273,0.1,0.00034721,3469.7,0.00034752,3479.1,-0.00011299,19.015,-0.00011552,-0.0039654,0.73233
23876,9.3508,1.6364,0.1,0.00035497,3547.2,0.00035534,3558.2,-0.00011531,21.936,-0.00011823,-0.0038763,0.69878
23877,9.4429,1.7273,0.1,0.0003523,3520.5,0.00035266,3531.3,-0.00011444,21.714,-0.00011733,-0.0038328,0.71009
23878,9.1665,1.6364,0.1,0.00036008,3598.3,0.0003605,3610.7,-0.00011675,24.858,-0.00012006,-0.0037929,0.67689
23879,9.2587,1.7273,0.1,0.00035739,3571.5,0.00035781,3583.7,-0.00011588,24.629,-0.00011916,-0.0037177,0.68808
23880,8.9823,1.6364,0.1,0.0003652,3649.5,0.00036567,3663.4,-0.00011817,28.012,-0.0001219,-0.0037319,0.65525
23881,9.0744,1.7273,0.1,0.0003625,3622.5,0.00036296,3636.3,-0.0001173,27.777,-0.000121,-0.0036198,0.66632
23882,8.798,1.6364,0.1,0.00037032,3700.7,0.00037085,3716.3,-0.00011958,31.415,-0.00012376,-0.003693,0.63386
23883,8.8901,1.7273,0.1,0.00036761,3673.6,0.00036813,3689.1,-0.0001187,31.177,-0.00012285,-0.0035384,0.64481
23884,8.6137,1.6364,0.1,0.00037545,3751.9,0.00037604,3769.4,-0.00012096,35.088,-0.00012563,-0.0036778,0.61272
23885,8.7059,1.7273,0.1,0.00037273,3724.7,0.00037331,3742,-0.00012008,34.849,-0.00012472,-0.0034745,0.62354
23886,8.4295,1.6364,0.1,0.00038059,3803.2,0.00038124,3822.6,-0.00012233,39.05,-0.00012752,-0.0036886,0.59183
23887,8.5216,1.7273,0.1,0.00037785,3775.9,0.00037849,3795.1,-0.00012144,38.814,-0.00012661,-0.0034297,0.60253
23888,8.2452,1.6364,0.1,0.00038572,3854.6,0.00038644,3876.1,-0.00012366,43.323,-0.00012943,-0.0037301,0.57121
23889,8.3373,1.7273,0.1,0.00038297,3827.1,0.00038369,3848.4,-0.00012277,43.094,-0.00012851,-0.0034061,0.58178
23890,8.0609,1.6364,0.1,0.00039086,3906,0.00039166,3929.7,-0.00012497,47.929,-0.00013135,-0.0038077,0.55084
23891,8.1531,1.7273,0.1,0.0003881,3878.3,0.00038889,3901.9,-0.00012408,47.714,-0.00013043,-0.0034098,0.56128
23892,7.8767,1.6364,0.1,0.00039601,3957.3,0.00039688,3983.5,-0.00012625,52.89,-0.00013329,-0.0039295,0.53074
23893,7.9688,1.7273,0.1,0.00039322,3929.5,0.00039409,3955.6,-0.00012535,52.699,-0.00013237,-0.0034447,0.54105
23894,7.6924,1.6364,0.1,0.00040115,4008.7,0.00040211,4037.5,-0.0001275,58.233,-0.00013525,-0.0041063,0.51091
23895,7.7845,1.7273,0.1,0.00039835,3980.7,0.0003993,4009.4,-0.00012659,58.075,-0.00013432,-0.0035201,0.52109
23896,7.5081,1.6364,0.1,0.00040629,4060.1,0.00040734,4091.7,-0.00012872,63.98,-0.00013723,-0.0043514,0.49135
23897,7.6003,1.7273,0.1,0.00040347,4031.9,0.00040452,4063.5,-0.0001278,63.869,-0.0001363,-0.0036463,0.5014
23898,7.3239,1.6364,0.1,0.00041144,4111.5,0.00041258,4146.1,-0.0001299,70.158,-0.00013923,-0.0046817,0.47207
23899,7.416,1.7273,0.1,0.0004086,4083.1,0.00040974,4117.7,-0.00012896,70.11,-0.00013829,-0.0038368,0.48198
23900,7.1396,1.6364,0.1,0.00041658,4162.9,0.00041783,4200.8,-0.00013104,76.791,-0.00014126,-0.00512,0.45307
23901,7.2317,1.7273,0.1,0.00041372,4134.3,0.00041497,4172.2,-0.00013009,76.829,-0.00014031,-0.004109,0.46285
23902,6.9553,1.6364,0.1,0.00042172,4214.3,0.00042308,4255.6,-0.00013213,83.904,-0.0001433,-0.0056956,0.43436
23903,7.0475,1.7273,0.1,0.00041883,4185.4,0.0004202,4226.8,-0.00013117,84.054,-0.00014236,-0.0044865,0.44399
23904,6.7711,1.6364,0.1,0.00042685,4265.6,0.00042834,4310.6,-0.00013319,91.522,-0.00014537,-0.0064456,0.41593
23905,6.8632,1.7273,0.1,0.00042395,4236.5,0.00042543,4281.7,-0.00013221,91.817,-0.00014443,-0.0049989,0.42542
23906,6.5868,1.6364,0.1,0.00043199,4316.9,0.0004336,4365.9,-0.0001342,99.666,-0.00014747,-0.0074186,0.39779
23907,6.6789,1.7273,0.1,0.00042906,4287.6,0.00043067,4336.8,-0.00013319,100.15,-0.00014652,-0.0056847,0.40714
23908,6.4025,1.6364,0.1,0.00043713,4368.3,0.00043887,4421.4,-0.00013517,108.36,-0.00014959,-0.0086772,0.37995
23909,6.4947,1.7273,0.1,0.00043416,4338.6,0.00043592,4392.2,-0.00013413,109.08,-0.00014864,-0.0065944,0.38915
23910,6.2183,1.6364,0.1,0.00044227,4419.6,0.00044415,4477.3,-0.00013608,117.61,-0.00015174,-0.010303,0.3624
23911,6.3104,1.7273,0.1,0.00043927,4389.7,0.00044117,4447.8,-0.00013501,118.63,-0.0001508,-0.0077938,0.37145
23912,6.034,1.6364,0.1,0.00044741,4471,0.00044944,4533.4,-0.00013695,127.43,-0.00015391,-0.012403,0.34516
23913,6.1261,1.7273,0.1,0.00044438,4440.7,0.00044643,4503.7,-0.00013583,128.83,-0.00015298,-0.0093682,0.35406
23914,5.8497,1.6364,0.1,0.00045256,4522.5,0.00045475,4589.8,-0.00013778,137.83,-0.00015612,-0.015118,0.32822
23915,5.9419,1.7273,0.1,0.00044949,4491.8,0.00045171,4560,-0.00013661,139.7,-0.0001552,-0.01143,0.33697
23916,5.6655,1.6364,0.1,0.00045773,4574.1,0.00046008,4646.7,-0.00013856,148.8,-0.00015836,-0.018633,0.31159
23917,5.7576,1.7273,0.1,0.00045462,4543,0.000457,4616.8,-0.00013732,151.26,-0.00015745,-0.014128,0.32018
23918,5.4812,1.6364,0.1,0.00046291,4625.9,0.00046543,4704,-0.00013929,160.32,-0.00016064,-0.023194,0.29527
23919,5.5733,1.7273,0.1,0.00045975,4594.4,0.00046232,4673.9,-0.00013798,163.5,-0.00015975,-0.017659,0.30371
23920,5.2969,1.6364,0.1,0.00046812,4678,0.00047082,4761.8,-0.00014,172.37,-0.00016294,-0.02913,0.27927
23921,5.3891,1.7273,0.1,0.00046492,4646,0.00046767,4731.7,-0.0001386,176.44,-0.00016208,-0.022284,0.28755
23922,5.1127,1.6364,0.1,0.00047337,4730.5,0.00047625,4820.2,-0.00014067,184.88,-0.00016528,-0.036884,0.26359
23923,5.2048,1.7273,0.1,0.00047012,4698,0.00047306,4790.1,-0.00013916,190.05,-0.00016446,-0.028353,0.27171
23924,4.9284,1.6364,0.1,0.00047868,4783.5,0.00048174,4879.3,-0.00014133,197.78,-0.00016766,-0.047058,0.24823
23925,5.0205,1.7273,0.1,0.00047538,4750.5,0.00047852,4849.3,-0.00013969,204.29,-0.00016689,-0.036339,0.25619
23926,4.7441,1.6364,0.1,0.00048405,4837.2,0.0004873,4939.2,-0.00014199,210.97,-0.00017008,-0.060471,0.2332
23927,4.8363,1.7273,0.1,0.0004807,4803.7,0.00048405,4909.5,-0.0001402,219.12,-0.00016937,-0.046881,0.24099
23928,4.5599,1.6364,0.1,0.00048952,4891.9,0.00049295,5000.1,-0.00014267,224.31,-0.00017253,-0.078254,0.2185
23929,4.652,1.7273,0.1,0.00048613,4857.9,0.00048969,4970.9,-0.00014069,234.43,-0.0001719,-0.060849,0.22612
23930,4.3756,1.6364,0.1,0.00049512,4947.7,0.00049873,5062.2,-0.00014339,237.59,-0.00017502,-0.10198,0.20413
23931,4.4677,1.7273,0.1,0.00049168,4913.4,0.00049546,5033.7,-0.00014119,250.12,-0.00017449,-0.079443,0.21159
23932,4.1913,1.6364,0.1,0.00050086,5005.2,0.00050465,5125.7,-0.00014418,250.58,-0.00017755,-0.13387,0.1901
23933,4.2835,1.7273,0.1,0.00049741,4970.7,0.0005014,5098.3,-0.00014174,265.99,-0.00017715,-0.10432,0.19739
23934,4.0071,1.6364,0.1,0.00050681,5064.6,0.00051076,5190.8,-0.0001451,262.92,-0.00018012,-0.17707,0.17642
23935,4.0992,1.7273,0.1,0.00050336,5030.1,0.00050756,5165,-0.00014236,281.82,-0.00017988,-0.13781,0.18353
23936,3.8228,1.6364,0.1,0.000513,5126.5,0.00051711,5258,-0.00014619,274.18,-0.00018271,-0.23618,0.16308
23937,3.9149,1.7273,0.1,0.00050959,5092.4,0.00051399,5234.4,-0.0001431,297.27,-0.00018269,-0.18321,0.17002
23938,3.6385,1.6364,0.1,0.00051952,5191.6,0.00052375,5327.5,-0.00014752,283.76,-0.00018533,-0.31804,0.1501
23939,3.7307,1.7273,0.1,0.00051619,5158.4,0.00052079,5307.1,-0.00014404,311.89,-0.00018558,-0.24526,0.15685
23940,3.4543,1.6364,0.1,0.00052643,5260.7,0.00053076,5399.8,-0.0001492,290.84,-0.00018796,-0.43312,0.13747
23941,3.5464,1.7273,0.1,0.00052327,5229.1,0.00052803,5383.8,-0.00014525,325.05,-0.00018856,-0.33099,0.14404
23942,3.27,1.6364,0.1,0.00053385,5334.8,0.00053824,5475.6,-0.00015135,294.28,-0.0001906,-0.59834,0.1252
23943,3.3621,1.7273,0.1,0.00053094,5305.8,0.00053585,5465.5,-0.00014686,335.88,-0.00019162,-0.45104,0.13159
23944,3.0857,1.6364,0.1,0.00054194,5415.7,0.0005463,5555.5,-0.00015417,292.44,-0.0001932,-0.84256,0.11329
23945,3.1779,1.7273,0.1,0.0005394,5390.3,0.00054441,5553.3,-0.00014903,343.11,-0.00019478,-0.62245,0.11951
23946,2.9015,1.6364,0.1,0.0005509,5505.2,0.00055514,5640.6,-0.00015792,282.89,-0.00019573,-1.2205,0.10176
23947,2.9936,1.7273,0.1,0.00054889,5485.1,0.00055392,5648.9,-0.000152,344.87,-0.00019802,-0.87376,0.10779
23948,2.7172,1.6364,0.1,0.00056106,5606.7,0.00056502,5732.1,-0.00016302,261.93,-0.00019812,-1.849,0.090607
23949,2.8093,1.7273,0.1,0.00055973,5593.4,0.00056469,5754.2,-0.00015612,338.36,-0.00020132,-1.259,0.096448
23950,2.5329,1.6364,0.1,0.0005729,5725.1,0.00057632,5832.1,-0.00017009,223.87,-0.00020029,-3.0461,0.079835
23951,2.6251,1.7273,0.1,0.00057243,5720.3,0.00057715,5872.3,-0.00016191,319.23,-0.00020465,-1.8877,0.085492
23952,2.3487,1.6364,0.1,0.00058724,5868.3,0.00058968,5943.6,-0.00018005,160.18,-0.00020217,-6.0019,0.069454
23953,2.4408,1.7273,0.1,0.00058774,5873.4,0.00059195,6007.1,-0.00017018,280.68,-0.00020794,-3.0598,0.074927
23954,2.1644,1.6364,0.1,0.00060539,6049.7,0.00060609,6071.2,-0.00019328,65.073,-0.00020476,-21.179,0.059471
23955,2.2565,1.7273,0.1,0.00060687,6064.5,0.00061009,6164.8,-0.00018216,212.17,-0.00021116,-5.7589,0.064763
23956,1.9801,1.6364,0.1,0.00062959,6291.6,0.0006271,6221.5,-0.00019912,13.632,-0.00022097,-150.53,0.049893
23957,2.0723,1.7273,0.1,0.0006318,6313.7,0.00063315,6354.8,-0.00019911,101.59,-0.00021497,-17.591,0.055011
23958,1.7959,1.6364,0.1,0.00066392,6634.6,0.00065529,6403.4,-0.00019611,6.2901,-0.00025626,-445.66,0.040729
23959,1.888,1.7273,0.1,0.00066587,6654.1,0.00066364,6591.5,-0.00021108,19.15,-0.00023245,-141.43,0.045682
23960,1.6116,1.6364,0.1,0.00071456,7140.7,0.00069372,6622.5,-0.00018629,10.432,-0.00031408,-949.73,0.031985
23961,1.7037,1.7273,0.1,0.00071542,7149.2,0.000706,6897.3,-0.00021098,7.4558,-0.00027663,-485.87,0.036789
23962,1.4273,1.6364,0.1,0.0007944,7938.6,0.00074729,6865.7,-0.0001658,5.1017,-0.00040997,-1829.5,0.023662
23963,1.5195,1.7273,0.1,0.00079094,7903.9,0.0007666,7303.2,-0.00020341,14.88,-0.00035157,-1098.3,0.028346
23964,1.2431,1.6364,0.1,0.0009286,9279.6,0.00082114,7065,-0.00012139,-16.749,-0.00057698,-3439.9,0.015749
23965,1.3352,1.7273,0.1,0.00092546,9248.3,0.00086405,7866.1,-0.00018449,-12.229,-0.00049115,-2316.4,0.020363
23966,1.1509,1.7273,0.1,0.0012157,12149,0.0010504,8884.4,-0.00011979,92.03,-0.00079457,-4978,0.012835
23967,1.0588,1.6364,0.1,0.00083545,8348.7,0.00070114,5693.8,-7.0323e-05,-102.66,-0.00057244,-3875.4,0.0082281
23968,23.724,1.8182,0.1,1.8948e-05,189.35,1.0968e-05,59.111,3.073e-06,-0.20793,-1.7236e-05,-152.8,2.8893
23969,23.816,1.9091,0.1,1.8417e-05,184.05,9.3095e-06,39.871,3.9783e-06,-0.18477,-1.7412e-05,-160.9,2.9049
23970,23.908,1.8182,0.1,1.7499e-05,174.86,7.6371e-06,22.486,4.588e-06,-0.42377,-1.701e-05,-162.7,2.9205
23971,23.539,1.8182,0.1,2.095e-05,209.36,1.4493e-05,97.672,1.4651e-06,-0.21755,-1.7498e-05,-142.7,2.8583
23972,23.631,1.9091,0.1,2.0168e-05,201.54,1.2835e-05,78.468,2.3488e-06,-0.31983,-1.7647e-05,-150.56,2.8738
23973,23.355,1.8182,0.1,2.3338e-05,233.22,1.8025e-05,136.15,-1.1133e-07,-0.12305,-1.7816e-05,-133.15,2.8272
23974,23.447,1.9091,0.1,2.2365e-05,223.5,1.6365e-05,117.08,7.6449e-07,-0.13614,-1.7936e-05,-140.64,2.8427
23975,23.171,1.8182,0.1,2.6012e-05,259.94,2.1569e-05,174.52,-1.6709e-06,-0.10094,-1.8191e-05,-124.22,2.7961
23976,23.263,1.9091,0.1,2.4893e-05,248.76,1.9906e-05,155.54,-8.1088e-07,-0.11941,-1.8277e-05,-131.35,2.8117
23977,22.987,1.8182,0.1,2.8901e-05,288.81,2.5129e-05,212.85,-3.2095e-06,-0.078793,-1.8624e-05,-115.9,2.765
23978,23.079,1.9091,0.1,2.7666e-05,276.47,2.3459e-05,193.93,-2.3635e-06,-0.08839,-1.8673e-05,-122.63,2.7806
23979,22.802,1.8182,0.1,3.1956e-05,319.34,2.8711e-05,251.2,-4.7301e-06,-0.065776,-1.9116e-05,-108.16,2.734
23980,22.894,1.9091,0.1,3.0628e-05,306.06,2.7029e-05,232.3,-3.8978e-06,-0.07361,-1.9126e-05,-114.49,2.7495
23981,22.618,1.8182,0.1,3.5143e-05,351.19,3.2318e-05,289.61,-6.2346e-06,-0.055718,-1.9668e-05,-100.99,2.703
23982,22.71,1.9091,0.1,3.3736e-05,337.13,3.0621e-05,270.7,-5.4147e-06,-0.061604,-1.9636e-05,-106.91,2.7185
23983,22.434,1.8182,0.1,3.8438e-05,384.11,3.5953e-05,328.13,-7.725e-06,-0.048227,-2.0276e-05,-94.349,2.672
23984,22.526,1.9091,0.1,3.6964e-05,369.39,3.4238e-05,309.17,-6.9166e-06,-0.05306,-2.0202e-05,-99.877,2.6875
23985,22.249,1.8182,0.1,4.1823e-05,417.94,3.9618e-05,366.78,-9.2032e-06,-0.042309,-2.0938e-05,-88.214,2.641
23986,22.342,1.9091,0.1,4.0291e-05,402.63,3.7882e-05,347.74,-8.4052e-06,-0.046351,-2.0824e-05,-93.353,2.6565
23987,22.065,1.8182,0.1,4.5286e-05,452.54,4.3313e-05,405.57,-1.0671e-05,-0.037556,-2.1652e-05,-82.546,2.61
23988,22.157,1.9091,0.1,4.3701e-05,436.71,4.1556e-05,386.44,-9.8823e-06,-0.041037,-2.1497e-05,-87.311,2.6256
23989,21.881,1.8182,0.1,4.8815e-05,487.82,4.7038e-05,444.53,-1.213e-05,-0.033649,-2.2415e-05,-77.31,2.5791
23990,21.973,1.9091,0.1,4.7184e-05,471.51,4.5259e-05,425.3,-1.135e-05,-0.036702,-2.2221e-05,-81.72,2.5946
23991,21.697,1.8182,0.1,5.2405e-05,523.69,5.0794e-05,483.67,-1.3582e-05,-0.030389,-2.3223e-05,-72.473,2.5482
23992,21.789,1.9091,0.1,5.073e-05,506.95,4.8992e-05,464.31,-1.2808e-05,-0.033106,-2.2992e-05,-76.547,2.5637
23993,21.512,1.8182,0.1,5.6048e-05,560.1,5.4581e-05,522.98,-1.5027e-05,-0.027641,-2.4074e-05,-68.004,2.5174
23994,21.605,1.9091,0.1,5.4334e-05,542.96,5.2756e-05,503.5,-1.426e-05,-0.030085,-2.3807e-05,-71.762,2.5328
23995,21.328,1.8182,0.1,5.9741e-05,596.99,5.8397e-05,562.48,-1.6468e-05,-0.025292,-2.4965e-05,-63.872,2.4865
23996,21.42,1.9091,0.1,5.7989e-05,579.49,5.6549e-05,542.87,-1.5706e-05,-0.027518,-2.4664e-05,-67.335,2.502
23997,21.144,1.8182,0.1,6.3478e-05,634.34,6.2242e-05,602.17,-1.7904e-05,-0.023258,-2.5894e-05,-60.052,2.4558
23998,21.236,1.9091,0.1,6.1693e-05,616.5,6.0373e-05,582.43,-1.7148e-05,-0.025301,-2.5561e-05,-63.239,2.4712
23999,20.96,1.8182,0.1,6.7257e-05,672.1,6.6116e-05,642.05,-1.9338e-05,-0.021483,-2.6857e-05,-56.518,2.425
24000,21.052,1.9091,0.1,6.544e-05,653.95,6.4225e-05,622.18,-1.8585e-05,-0.023375,-2.6494e-05,-59.449,2.4404
24001,20.775,1.8182,0.1,7.1075e-05,710.26,7.0019e-05,682.13,-2.0769e-05,-0.019926,-2.7853e-05,-53.247,2.3943
24002,20.867,1.9091,0.1,6.9229e-05,691.81,6.8107e-05,662.13,-2.002e-05,-0.021679,-2.7463e-05,-55.941,2.4097
24003,20.591,1.8182,0.1,7.493e-05,748.78,7.3949e-05,722.4,-2.2199e-05,-0.018558,-2.888e-05,-50.219,2.3637
24004,20.683,1.9091,0.1,7.3056e-05,730.06,7.2017e-05,702.27,-2.1453e-05,-0.020189,-2.8463e-05,-52.693,2.3791
24005,20.407,1.8182,0.1,7.8821e-05,787.66,7.7907e-05,762.88,-2.3628e-05,-0.017343,-2.9936e-05,-47.414,2.3331
24006,20.499,1.9091,0.1,7.692e-05,768.67,7.5954e-05,742.62,-2.2884e-05,-0.018875,-2.9495e-05,-49.686,2.3484
24007,20.223,1.8182,0.1,8.2745e-05,826.88,8.1891e-05,803.55,-2.5057e-05,-0.01625,-3.102e-05,-44.815,2.3026
24008,20.315,1.9091,0.1,8.082e-05,807.64,7.9919e-05,783.16,-2.4315e-05,-0.017695,-3.0555e-05,-46.9,2.3179
24009,20.038,1.8182,0.1,8.6701e-05,866.41,8.5902e-05,844.42,-2.6486e-05,-0.015262,-3.2128e-05,-42.406,2.2721
24010,20.13,1.9091,0.1,8.4753e-05,846.94,8.3912e-05,823.91,-2.5746e-05,-0.016631,-3.1642e-05,-44.319,2.2874
24011,19.854,1.8182,0.1,9.0689e-05,906.26,8.9938e-05,885.5,-2.7916e-05,-0.014371,-3.3261e-05,-40.172,2.2416
24012,19.946,1.9091,0.1,8.8718e-05,886.57,8.793e-05,864.86,-2.7177e-05,-0.015664,-3.2755e-05,-41.926,2.2569
24013,19.67,1.8182,0.1,9.4706e-05,946.41,9.4e-05,926.78,-2.9348e-05,-0.013572,-3.4417e-05,-38.1,2.2113
24014,19.762,1.9091,0.1,9.2715e-05,926.51,9.1975e-05,906.01,-2.8609e-05,-0.014795,-3.3892e-05,-39.708,2.2265
24015,19.485,1.8182,0.1,9.8753e-05,986.85,9.8087e-05,968.25,-3.0781e-05,-0.012847,-3.5594e-05,-36.176,2.181
24016,19.578,1.9091,0.1,9.6741e-05,966.75,9.6046e-05,947.36,-3.0043e-05,-0.014017,-3.5052e-05,-37.65,2.1962
24017,19.301,1.8182,0.1,0.00010283,1027.6,0.0001022,1009.9,-3.2216e-05,-0.01218,-3.6792e-05,-34.39,2.1507
24018,19.393,1.9091,0.1,0.0001008,1007.3,0.00010014,988.93,-3.1478e-05,-0.013299,-3.6233e-05,-35.741,2.1659
24019,19.117,1.8182,0.1,0.00010693,1068.6,0.00010634,1051.8,-3.3654e-05,-0.01156,-3.8009e-05,-32.73,2.1206
24020,19.209,1.9091,0.1,0.00010488,1048.1,0.00010426,1030.7,-3.2916e-05,-0.012636,-3.7435e-05,-33.968,2.1357
24021,18.933,1.8182,0.1,0.00011106,1109.8,0.0001105,1093.9,-3.5095e-05,-0.01099,-3.9244e-05,-31.187,2.0905
24022,19.025,1.9091,0.1,0.00010899,1089.2,0.00010841,1072.7,-3.4356e-05,-0.012015,-3.8656e-05,-32.32,2.1056
24023,18.748,1.8182,0.1,0.00011522,1151.4,0.00011468,1136.2,-3.6539e-05,-0.010479,-4.0497e-05,-29.75,2.0604
24024,18.841,1.9091,0.1,0.00011313,1130.5,0.00011258,1114.8,-3.5799e-05,-0.011457,-3.9896e-05,-30.789,2.0755
24025,18.564,1.8182,0.1,0.0001194,1193.2,0.00011889,1178.7,-3.7986e-05,-0.010007,-4.1767e-05,-28.413,2.0305
24026,18.656,1.9091,0.1,0.0001173,1172.2,0.00011677,1157.2,-3.7246e-05,-0.010955,-4.1152e-05,-29.364,2.0455
24027,18.38,1.8182,0.1,0.00012361,1235.2,0.00012312,1221.4,-3.9437e-05,-0.0095629,-4.3052e-05,-27.166,2.0006
24028,18.472,1.9091,0.1,0.00012149,1214.1,0.00012099,1199.8,-3.8696e-05,-0.010478,-4.2426e-05,-28.037,2.0156
24029,18.196,1.8182,0.1,0.00012784,1277.5,0.00012737,1264.3,-4.0893e-05,-0.0091414,-4.4352e-05,-26.002,1.9708
24030,18.288,1.9091,0.1,0.00012571,1256.2,0.00012523,1242.6,-4.015e-05,-0.010033,-4.3715e-05,-26.8,1.9858
24031,18.011,1.8182,0.1,0.00013209,1320,0.00013165,1307.4,-4.2352e-05,-0.0087493,-4.5666e-05,-24.915,1.9411
24032,18.103,1.9091,0.1,0.00012995,1298.6,0.00012949,1285.6,-4.1607e-05,-0.0096027,-4.5019e-05,-25.645,1.9561
24033,17.827,1.8182,0.1,0.00013637,1362.8,0.00013595,1350.7,-4.3815e-05,-0.0084004,-4.6995e-05,-23.897,1.9115
24034,17.919,1.9091,0.1,0.00013422,1341.2,0.00013378,1328.8,-4.3069e-05,-0.0092194,-4.6338e-05,-24.566,1.9264
24035,17.643,1.8182,0.1,0.00014068,1405.8,0.00014027,1394.2,-4.5283e-05,-0.0080749,-4.8336e-05,-22.942,1.882
24036,17.735,1.9091,0.1,0.00013851,1384.1,0.00013809,1372.2,-4.4536e-05,-0.0088766,-4.767e-05,-23.555,1.8969
24037,17.459,1.8182,0.1,0.00014501,1449.1,0.00014462,1437.9,-4.6756e-05,-0.0077624,-4.969e-05,-22.046,1.8526
24038,17.551,1.9091,0.1,0.00014282,1427.2,0.00014242,1415.8,-4.6007e-05,-0.0085415,-4.9015e-05,-22.608,1.8674
24039,17.274,1.8182,0.1,0.00014936,1492.5,0.00014898,1481.8,-4.8234e-05,-0.007458,-5.1055e-05,-21.202,1.8233
24040,17.366,1.9091,0.1,0.00014716,1470.6,0.00014678,1459.6,-4.7483e-05,-0.0082251,-5.0372e-05,-21.717,1.838
24041,17.09,1.8182,0.1,0.00015373,1536.2,0.00015337,1525.9,-4.9717e-05,-0.0071718,-5.2432e-05,-20.406,1.7941
24042,17.182,1.9091,0.1,0.00015152,1514.1,0.00015115,1503.6,-4.8964e-05,-0.0079084,-5.1741e-05,-20.878,1.8088
24043,16.906,1.8182,0.1,0.00015813,1580.2,0.00015778,1570.2,-5.1206e-05,-0.0069221,-5.382e-05,-19.652,1.7649
24044,16.998,1.9091,0.1,0.0001559,1557.9,0.00015555,1547.8,-5.045e-05,-0.0076294,-5.3122e-05,-20.086,1.7796
24045,16.721,1.8182,0.1,0.00016254,1624.3,0.00016221,1614.8,-5.2699e-05,-0.0066874,-5.5219e-05,-18.937,1.7359
24046,16.814,1.9091,0.1,0.00016031,1602,0.00015997,1592.2,-5.1941e-05,-0.0073861,-5.4514e-05,-19.335,1.7505
24047,16.537,1.8182,0.1,0.00016698,1668.7,0.00016667,1659.5,-5.4198e-05,-0.0064556,-5.6627e-05,-18.255,1.707
24048,16.629,1.9091,0.1,0.00016473,1646.2,0.00016441,1636.8,-5.3438e-05,-0.0071394,-5.5915e-05,-18.622,1.7216
24049,16.353,1.8182,0.1,0.00017144,1713.3,0.00017114,1704.4,-5.5703e-05,-0.0062244,-5.8045e-05,-17.604,1.6782
24050,16.445,1.9091,0.1,0.00016918,1690.7,0.00016887,1681.6,-5.494e-05,-0.0069018,-5.7327e-05,-17.942,1.6927
24051,16.169,1.8182,0.1,0.00017593,1758.1,0.00017563,1749.5,-5.7214e-05,-0.0060041,-5.9472e-05,-16.978,1.6496
24052,16.261,1.9091,0.1,0.00017366,1735.4,0.00017335,1726.6,-5.6448e-05,-0.0066559,-5.8749e-05,-17.29,1.664
24053,15.984,1.8182,0.1,0.00018043,1803.1,0.00018015,1794.8,-5.873e-05,-0.0058153,-6.0909e-05,-16.375,1.621
24054,16.077,1.9091,0.1,0.00017815,1780.3,0.00017786,1771.9,-5.7962e-05,-0.006443,-6.0179e-05,-16.663,1.6354
24055,15.8,1.8182,0.1,0.00018496,1848.3,0.00018468,1840.3,-6.0253e-05,-0.005637,-6.2353e-05,-15.79,1.5926
24056,15.892,1.9091,0.1,0.00018266,1825.4,0.00018238,1817.3,-5.9482e-05,-0.0062613,-6.1618e-05,-16.057,1.6069
24057,15.616,1.8182,0.1,0.0001895,1893.7,0.00018924,1886.1,-6.1781e-05,-0.0054541,-6.3806e-05,-15.22,1.5643
24058,15.708,1.9091,0.1,0.0001872,1870.7,0.00018693,1862.9,-6.1008e-05,-0.0060688,-6.3066e-05,-15.469,1.5786
24059,15.432,1.8182,0.1,0.00019407,1939.4,0.00019382,1932,-6.3316e-05,-0.0052641,-6.5266e-05,-14.662,1.5361
24060,15.524,1.9091,0.1,0.00019175,1916.2,0.00019149,1908.7,-6.254e-05,-0.0058792,-6.4521e-05,-14.894,1.5503
24061,15.247,1.8182,0.1,0.00019866,1985.2,0.00019841,1978.1,-6.4857e-05,-0.0050804,-6.6734e-05,-14.112,1.5081
24062,15.339,1.9091,0.1,0.00019633,1961.9,0.00019608,1954.7,-6.4078e-05,-0.0056724,-6.5984e-05,-14.329,1.5222
24063,15.063,1.8182,0.1,0.00020326,2031.2,0.00020303,2024.4,-6.6404e-05,-0.004927,-6.8209e-05,-13.567,1.4802
24064,15.155,1.9091,0.1,0.00020093,2007.9,0.00020069,2000.9,-6.5622e-05,-0.0054972,-6.7455e-05,-13.771,1.4942
24065,14.879,1.8182,0.1,0.00020789,2077.5,0.00020767,2070.9,-6.7958e-05,-0.0047786,-6.9691e-05,-13.023,1.4524
24066,14.971,1.9091,0.1,0.00020554,2054,0.00020531,2047.4,-6.7173e-05,-0.005352,-6.8932e-05,-13.217,1.4664
24067,14.695,1.8182,0.1,0.00021254,2123.9,0.00021232,2117.6,-6.9519e-05,-0.0046188,-7.1179e-05,-12.478,1.4248
24068,14.787,1.9091,0.1,0.00021018,2100.3,0.00020996,2094,-6.8731e-05,-0.0051866,-7.0416e-05,-12.662,1.4387
24069,14.51,1.8182,0.1,0.0002172,2170.5,0.000217,2164.6,-7.1086e-05,-0.0044443,-7.2673e-05,-11.928,1.3973
24070,14.602,1.9091,0.1,0.00021483,2146.9,0.00021463,2140.8,-7.0295e-05,-0.005019,-7.1906e-05,-12.104,1.4111
24071,14.326,1.8182,0.1,0.00022189,2217.4,0.0002217,2211.7,-7.266e-05,-0.0042711,-7.4173e-05,-11.37,1.3699
24072,14.418,1.9091,0.1,0.00021951,2193.6,0.00021931,2187.8,-7.1866e-05,-0.004826,-7.3402e-05,-11.54,1.3837
24073,14.142,1.8182,0.1,0.0002266,2264.4,0.00022641,2259,-7.4241e-05,-0.0041241,-7.5678e-05,-10.8,1.3427
24074,14.234,1.9091,0.1,0.0002242,2240.5,0.00022402,2235,-7.3444e-05,-0.0046612,-7.4903e-05,-10.964,1.3565
24075,13.957,1.8182,0.1,0.00023132,2311.6,0.00023114,2306.5,-7.583e-05,-0.0039746,-7.7189e-05,-10.215,1.3157
24076,14.05,1.9091,0.1,0.00022892,2287.6,0.00022874,2282.4,-7.5029e-05,-0.0045213,-7.6409e-05,-10.376,1.3294
24077,13.773,1.8182,0.1,0.00023606,2359,0.0002359,2354.2,-7.7425e-05,-0.0038031,-7.8703e-05,-9.6108,1.2888
24078,13.865,1.9091,0.1,0.00023365,2334.9,0.00023348,2330,-7.6621e-05,-0.0043525,-7.7921e-05,-9.769,1.3024
24079,13.589,1.8182,0.1,0.00024083,2406.6,0.00024067,2402.1,-7.9027e-05,-0.0036041,-8.0222e-05,-8.9842,1.2621
24080,13.681,1.9091,0.1,0.0002384,2382.4,0.00023825,2377.8,-7.822e-05,-0.0041692,-7.9436e-05,-9.1412,1.2756
24081,13.405,1.8182,0.1,0.00024561,2454.4,0.00024546,2450.2,-8.0637e-05,-0.0033922,-8.1745e-05,-8.3311,1.2355
24082,13.497,1.9091,0.1,0.00024317,2430.1,0.00024303,2425.8,-7.9827e-05,-0.0039458,-8.0956e-05,-8.4882,1.249
24083,13.22,1.8182,0.1,0.0002504,2502.3,0.00025027,2498.5,-8.2254e-05,-0.0031901,-8.3272e-05,-7.6477,1.2092
24084,13.313,1.9091,0.1,0.00024796,2477.9,0.00024783,2474,-8.1441e-05,-0.0037372,-8.2479e-05,-7.8059,1.2225
24085,13.036,1.8182,0.1,0.00025522,2550.4,0.0002551,2547,-8.3879e-05,-0.0029574,-8.4801e-05,-6.9296,1.1829
24086,13.128,1.9091,0.1,0.00025277,2525.9,0.00025265,2522.4,-8.3062e-05,-0.0035333,-8.4005e-05,-7.0902,1.1962
24087,12.852,1.8182,0.1,0.00026005,2598.7,0.00025995,2595.6,-8.5512e-05,-0.0026587,-8.6333e-05,-6.1723,1.1569
24088,12.944,1.9091,0.1,0.00025759,2574.1,0.00025748,2571,-8.4691e-05,-0.0032629,-8.5534e-05,-6.3365,1.1701
24089,12.668,1.8182,0.1,0.0002649,2647.2,0.00026481,2644.5,-8.7152e-05,-0.0022649,-8.7867e-05,-5.3713,1.131
24090,12.76,1.9091,0.1,0.00026243,2622.5,0.00026234,2619.7,-8.6328e-05,-0.002923,-8.7065e-05,-5.5402,1.1441
24091,12.483,1.8182,0.1,0.00026977,2695.9,0.00026969,2693.6,-8.8801e-05,-0.0017427,-8.9402e-05,-4.5214,1.1053
24092,12.575,1.9091,0.1,0.00026729,2671.1,0.00026721,2668.7,-8.7973e-05,-0.0024502,-8.8598e-05,-4.6961,1.1183
24093,12.299,1.8182,0.1,0.00027466,2744.7,0.00027459,2742.9,-9.0457e-05,-0.001009,-9.0939e-05,-3.6176,1.0798
24094,12.391,1.9091,0.1,0.00027216,2719.8,0.0002721,2717.9,-8.9626e-05,-0.0018193,-9.0132e-05,-3.7992,1.0927
24095,12.115,1.8182,0.1,0.00027956,2793.6,0.00027951,2792.3,-9.2122e-05,0.00027014,-9.2476e-05,-2.6545,1.0545
24096,12.207,1.9091,0.1,0.00027706,2768.6,0.00027701,2767.2,-9.1288e-05,-0.00081518,-9.1666e-05,-2.8442,1.0673
24097,11.931,1.8182,0.1,0.00028447,2842.8,0.00028445,2842,-9.3796e-05,0.003246,-9.4013e-05,-1.6271,1.0294
24098,12.023,1.9091,0.1,0.00028196,2817.7,0.00028193,2816.8,-9.2957e-05,0.001382,-9.32e-05,-1.8254,1.0421
24099,11.746,1.8182,0.1,0.00028941,2892.1,0.0002894,2891.8,-9.5476e-05,0.018532,-9.555e-05,-0.53963,1.0044
24100,11.838,1.9091,0.1,0.00028689,2866.9,0.00028687,2866.5,-9.4635e-05,0.010122,-9.4735e-05,-0.74216,1.0171
24101,11.562,1.8182,0.1,0.00029435,2941.5,0.00029437,2941.8,-9.7079e-05,0.68275,-9.7173e-05,-0.021722,0.97967
24102,11.654,1.9091,0.1,0.00029182,2916.2,0.00029183,2916.4,-9.6262e-05,0.46532,-9.6327e-05,-0.027133,0.99222
24103,11.378,1.8182,0.1,0.00029932,2991.1,0.00029935,2992.1,-9.8612e-05,1.94,-9.8872e-05,-0.010234,0.95513
24104,11.47,1.9091,0.1,0.00029678,2965.7,0.00029681,2966.6,-9.7793e-05,1.7042,-9.8022e-05,-0.010484,0.96758
24105,11.193,1.8182,0.1,0.00030429,3040.8,0.00030435,3042.5,-0.00010014,3.3009,-0.00010058,-0.0076093,0.93079
24106,11.286,1.9091,0.1,0.00030174,3015.4,0.0003018,3016.9,-9.932e-05,3.0503,-9.9727e-05,-0.0076676,0.94314
24107,11.009,1.8182,0.1,0.00030928,3090.7,0.00030937,3093.1,-0.00010167,4.7665,-0.0001023,-0.0064063,0.90666
24108,11.101,1.9091,0.1,0.00030672,3065.1,0.0003068,3067.4,-0.00010084,4.4999,-0.00010144,-0.0064532,0.91891
24109,10.825,1.8182,0.1,0.00031429,3140.7,0.0003144,3143.9,-0.00010318,6.3451,-0.00010403,-0.0056767,0.88273
24110,10.917,1.9091,0.1,0.00031172,3115,0.00031182,3118.1,-0.00010236,6.0612,-0.00010317,-0.005747,0.89488
24111,10.641,1.8182,0.1,0.00031931,3190.9,0.00031944,3194.9,-0.0001047,8.0464,-0.00010577,-0.0051782,0.85902
24112,10.733,1.9091,0.1,0.00031673,3165.1,0.00031686,3168.9,-0.00010387,7.7438,-0.0001049,-0.0052324,0.87106
24113,10.456,1.8182,0.1,0.00032433,3241.1,0.0003245,3246,-0.0001062,9.8808,-0.00010752,-0.004843,0.83553
24114,10.549,1.9091,0.1,0.00032175,3215.2,0.00032191,3220,-0.00010538,9.558,-0.00010665,-0.0048793,0.84746
24115,10.272,1.8182,0.1,0.00032938,3291.5,0.00032958,3297.4,-0.0001077,11.86,-0.00010928,-0.0045773,0.81225
24116,10.364,1.9091,0.1,0.00032678,3265.5,0.00032697,3271.2,-0.00010687,11.515,-0.00010841,-0.0046344,0.82408
24117,10.088,1.8182,0.1,0.00033443,3342,0.00033466,3348.9,-0.00010919,13.996,-0.00011105,-0.0043412,0.7892
24118,10.18,1.9091,0.1,0.00033182,3315.9,0.00033205,3322.7,-0.00010836,13.628,-0.00011017,-0.004386,0.80092
24119,9.9036,1.8182,0.1,0.00033949,3392.5,0.00033976,3400.7,-0.00011067,16.302,-0.00011284,-0.0041437,0.76638
24120,9.9957,1.9091,0.1,0.00033687,3366.4,0.00033714,3374.3,-0.00010984,15.91,-0.00011195,-0.0041776,0.77799
24121,9.7193,1.8182,0.1,0.00034456,3443.2,0.00034487,3452.6,-0.00011213,18.793,-0.00011463,-0.0039675,0.74379
24122,9.8115,1.9091,0.1,0.00034193,3416.9,0.00034224,3426.1,-0.0001113,18.375,-0.00011375,-0.003991,0.75529
24123,9.5351,1.8182,0.1,0.00034964,3494,0.00035,3504.6,-0.00011358,21.484,-0.00011644,-0.00381,0.72143
24124,9.6272,1.9091,0.1,0.000347,3467.6,0.00034735,3478,-0.00011275,21.039,-0.00011555,-0.0038122,0.73281
24125,9.3508,1.8182,0.1,0.00035472,3544.8,0.00035513,3556.9,-0.00011502,24.391,-0.00011827,-0.0036705,0.69931
24126,9.4429,1.9091,0.1,0.00035207,3518.3,0.00035247,3530.2,-0.00011418,23.917,-0.00011737,-0.0036526,0.71058
24127,9.1665,1.8182,0.1,0.00035982,3595.7,0.00036028,3609.4,-0.00011644,27.533,-0.0001201,-0.0035433,0.67743
24128,9.2587,1.9091,0.1,0.00035716,3569.1,0.00035761,3582.5,-0.0001156,27.03,-0.0001192,-0.0035006,0.68858
24129,8.9823,1.8182,0.1,0.00036492,3646.6,0.00036543,3662,-0.00011783,30.928,-0.00012195,-0.0034277,0.6558
24130,9.0744,1.9091,0.1,0.00036224,3619.9,0.00036275,3635,-0.000117,30.395,-0.00012104,-0.0033562,0.66682
24131,8.798,1.8182,0.1,0.00037002,3697.6,0.00037059,3714.8,-0.00011921,34.597,-0.00012382,-0.0033242,0.63441
24132,8.8901,1.9091,0.1,0.00036734,3670.8,0.0003679,3687.7,-0.00011837,34.033,-0.0001229,-0.0032189,0.64531
24133,8.6137,1.8182,0.1,0.00037513,3748.7,0.00037577,3767.8,-0.00012056,38.562,-0.0001257,-0.0032339,0.61327
24134,8.7059,1.9091,0.1,0.00037243,3721.7,0.00037306,3740.6,-0.00011973,37.968,-0.00012478,-0.0030898,0.62405
24135,8.4295,1.8182,0.1,0.00038023,3799.7,0.00038094,3821,-0.00012189,42.846,-0.00012759,-0.0031582,0.59239
24136,8.5216,1.9091,0.1,0.00037753,3772.7,0.00037823,3793.6,-0.00012105,42.222,-0.00012667,-0.0029689,0.60305
24137,8.2452,1.8182,0.1,0.00038534,3850.8,0.00038613,3874.3,-0.00012319,47.475,-0.00012951,-0.0031009,0.57177
24138,8.3373,1.9091,0.1,0.00038263,3823.6,0.0003834,3846.8,-0.00012235,46.823,-0.00012858,-0.0028583,0.5823
24139,8.0609,1.8182,0.1,0.00039046,3901.9,0.00039132,3927.8,-0.00012446,52.475,-0.00013144,-0.0030662,0.55141
24140,8.1531,1.9091,0.1,0.00038773,3874.6,0.00038858,3900.2,-0.00012361,51.798,-0.00013051,-0.0027616,0.56181
24141,7.8767,1.8182,0.1,0.00039556,3952.9,0.00039652,3981.5,-0.00012569,57.874,-0.00013339,-0.0030598,0.53132
24142,7.9688,1.9091,0.1,0.00039282,3925.5,0.00039376,3953.8,-0.00012484,57.176,-0.00013245,-0.0026826,0.54159
24143,7.6924,1.8182,0.1,0.00040067,4004,0.00040172,4035.4,-0.00012689,63.702,-0.00013536,-0.00309,0.51149
24144,7.7845,1.9091,0.1,0.00039792,3976.4,0.00039895,4007.5,-0.00012604,62.989,-0.00013442,-0.0026272,0.52163
24145,7.5081,1.8182,0.1,0.00040578,4055,0.00040692,4089.5,-0.00012804,69.991,-0.00013736,-0.0031678,0.49194
24146,7.6003,1.9091,0.1,0.000403,4027.3,0.00040414,4061.5,-0.00012719,69.271,-0.00013641,-0.0026029,0.50194
24147,7.3239,1.8182,0.1,0.00041088,4105.9,0.00041213,4143.8,-0.00012916,76.774,-0.00013937,-0.0033072,0.47267
24148,7.416,1.9091,0.1,0.00040809,4078.1,0.00040933,4115.6,-0.0001283,76.059,-0.00013842,-0.0026214,0.48253
24149,7.1396,1.8182,0.1,0.00041597,4156.9,0.00041734,4198.3,-0.00013022,84.086,-0.00014142,-0.0035265,0.45367
24150,7.2317,1.9091,0.1,0.00041317,4128.8,0.00041452,4169.9,-0.00012936,83.39,-0.00014046,-0.0026955,0.4634
24151,6.9553,1.8182,0.1,0.00042106,4207.7,0.00042255,4252.9,-0.00013124,91.962,-0.00014348,-0.0038499,0.43496
24152,7.0475,1.9091,0.1,0.00041824,4179.5,0.00041972,4224.4,-0.00013036,91.304,-0.00014252,-0.002844,0.44454
24153,6.7711,1.8182,0.1,0.00042615,4258.5,0.00042777,4307.9,-0.00013221,100.44,-0.00014558,-0.0043085,0.41653
24154,6.8632,1.9091,0.1,0.0004233,4230.1,0.00042491,4279.1,-0.00013132,99.844,-0.00014461,-0.0030909,0.42598
24155,6.5868,1.8182,0.1,0.00043123,4309.3,0.00043299,4363,-0.00013312,109.55,-0.0001477,-0.0049434,0.3984
24156,6.6789,1.9091,0.1,0.00042836,4280.7,0.00043011,4334.1,-0.00013221,109.05,-0.00014673,-0.0034676,0.4077
24157,6.4025,1.8182,0.1,0.00043631,4360.1,0.00043821,4418.5,-0.00013397,119.34,-0.00014985,-0.0058082,0.38056
24158,6.4947,1.9091,0.1,0.00043341,4331.1,0.00043531,4389.4,-0.00013304,118.98,-0.00014888,-0.004016,0.38971
24159,6.2183,1.8182,0.1,0.00044138,4410.8,0.00044345,4474.3,-0.00013476,129.85,-0.00015204,-0.0069731,0.36301
24160,6.3104,1.9091,0.1,0.00043846,4381.6,0.00044052,4445,-0.00013381,129.66,-0.00015107,-0.0047903,0.37202
24161,6.034,1.8182,0.1,0.00044646,4461.5,0.00044869,4530.4,-0.00013549,141.1,-0.00015427,-0.0085301,0.34577
24162,6.1261,1.9091,0.1,0.0004435,4432,0.00044574,4500.9,-0.00013451,141.16,-0.00015329,-0.0058629,0.35463
24163,5.8497,1.8182,0.1,0.00045154,4512.3,0.00045395,4586.9,-0.00013615,153.13,-0.00015653,-0.010601,0.32883
24164,5.9419,1.9091,0.1,0.00044855,4482.4,0.00045097,4557.2,-0.00013513,153.51,-0.00015556,-0.0073287,0.33754
24165,5.6655,1.8182,0.1,0.00045664,4563.3,0.00045924,4644,-0.00013675,165.96,-0.00015884,-0.013347,0.3122
24166,5.7576,1.9091,0.1,0.00045361,4532.9,0.00045621,4614,-0.00013568,166.77,-0.00015788,-0.0093139,0.32075
24167,5.4812,1.8182,0.1,0.00046176,4614.4,0.00046456,4701.6,-0.00013729,179.62,-0.00016119,-0.016982,0.29589
24168,5.5733,1.9091,0.1,0.00045868,4583.6,0.00046149,4671.4,-0.00013615,180.97,-0.00016024,-0.011986,0.30428
24169,5.2969,1.8182,0.1,0.00046692,4666,0.00046992,4760,-0.00013776,194.13,-0.0001636,-0.021792,0.27988
24170,5.3891,1.9091,0.1,0.00046378,4634.6,0.00046681,4729.6,-0.00013655,196.16,-0.00016266,-0.015568,0.28812
24171,5.1127,1.8182,0.1,0.00047212,4718,0.00047534,4819.2,-0.00013818,209.47,-0.00016606,-0.028162,0.2642
24172,5.2048,1.9091,0.1,0.00046893,4686.1,0.00047218,4788.6,-0.00013688,212.37,-0.00016515,-0.020359,0.27228
24173,4.9284,1.8182,0.1,0.0004774,4770.7,0.00048084,4879.5,-0.00013855,225.63,-0.00016859,-0.036608,0.24884
24174,5.0205,1.9091,0.1,0.00047414,4738.2,0.00047763,4848.8,-0.00013714,229.61,-0.0001677,-0.02676,0.25675
24175,4.7441,1.8182,0.1,0.00048278,4824.5,0.00048645,4941.1,-0.00013889,242.58,-0.00017119,-0.047833,0.23381
24176,4.8363,1.9091,0.1,0.00047945,4791.2,0.00048318,4910.3,-0.00013734,247.9,-0.00017034,-0.035314,0.24155
24177,4.5599,1.8182,0.1,0.00048829,4879.5,0.0004922,5004.4,-0.00013922,260.25,-0.00017386,-0.062795,0.2191
24178,4.652,1.9091,0.1,0.00048488,4845.5,0.00048887,4973.5,-0.0001375,267.23,-0.00017307,-0.046754,0.22668
24179,4.3756,1.8182,0.1,0.00049398,4936.4,0.00049813,5069.7,-0.00013954,278.52,-0.00017662,-0.082806,0.20474
24180,4.4677,1.9091,0.1,0.00049049,4901.5,0.00049475,5039,-0.00013762,287.54,-0.0001759,-0.06208,0.21215
24181,4.1913,1.8182,0.1,0.00049991,4995.7,0.0005043,5137.6,-0.00013991,297.23,-0.00017948,-0.10969,0.19071
24182,4.2835,1.9091,0.1,0.00049634,4959.9,0.00050087,5107.1,-0.00013775,308.77,-0.00017885,-0.082663,0.19794
24183,4.0071,1.8182,0.1,0.00050615,5058,0.00051079,5208.6,-0.00014036,316.16,-0.00018246,-0.14598,0.17702
24184,4.0992,1.9091,0.1,0.00050249,5021.5,0.0005073,5178.6,-0.00013791,330.78,-0.00018195,-0.11039,0.18408
24185,3.8228,1.8182,0.1,0.0005128,5124.4,0.00051767,5283.6,-0.00014095,334.97,-0.00018556,-0.19527,0.16368
24186,3.9149,1.9091,0.1,0.00050906,5087,0.00051414,5254.4,-0.00013815,353.35,-0.0001852,-0.14791,0.17057
24187,3.6385,1.8182,0.1,0.00051996,5196,0.00052506,5363.5,-0.00014177,353.18,-0.00018881,-0.26275,0.15069
24188,3.7307,1.9091,0.1,0.00051615,5158,0.00052152,5335.7,-0.00013855,376.17,-0.00018864,-0.19891,0.1574
24189,3.4543,1.8182,0.1,0.0005278,5274.4,0.00053311,5449.5,-0.00014291,370.11,-0.00019221,-0.35604,0.13805
24190,3.5464,1.9091,0.1,0.00052395,5235.8,0.00052958,5423.7,-0.00013919,398.77,-0.0001923,-0.2687,0.14458
24191,3.27,1.8182,0.1,0.00053651,5361.4,0.00054201,5543.2,-0.00014453,384.76,-0.00019581,-0.48677,0.12578
24192,3.3621,1.9091,0.1,0.00053264,5322.7,0.00053854,5520.3,-0.00014021,420.43,-0.00019621,-0.36504,0.13213
24193,3.0857,1.8182,0.1,0.00054637,5459.9,0.00055201,5646.6,-0.00014685,395.68,-0.0001996,-0.67339,0.11388
24194,3.1779,1.9091,0.1,0.00054251,5421.3,0.00054864,5627.7,-0.00014178,440.12,-0.00020043,-0.49973,0.12004
24195,2.9015,1.8182,0.1,0.00055772,5573.3,0.00056343,5762.3,-0.00015016,400.64,-0.00020361,-0.94781,0.10235
24196,2.9936,1.9091,0.1,0.00055391,5535.3,0.00056025,5748.9,-0.00014417,456.24,-0.00020498,-0.69097,0.10833
24197,2.7172,1.8182,0.1,0.00057107,5706.8,0.00057675,5893.9,-0.00015493,396.27,-0.00020785,-1.3678,0.09121
24198,2.8093,1.9091,0.1,0.00056735,5669.6,0.00057382,5887.8,-0.00014773,466.4,-0.00020993,-0.97122,0.096994
24199,2.5329,1.8182,0.1,0.00058718,5867.8,0.00059265,6046.2,-0.00016185,377.22,-0.00021232,-2.0633,0.080457
24200,2.6251,1.9091,0.1,0.00058351,5831.1,0.00059002,6049.7,-0.00015301,466.88,-0.00021534,-1.393,0.08605
24201,2.3487,1.8182,0.1,0.00060718,6067.6,0.00061212,6226.4,-0.00017198,335,-0.00021701,-3.3439,0.070106
24202,2.4408,1.9091,0.1,0.00060341,6030,0.00060978,6242,-0.00016085,451.8,-0.00022126,-2.0939,0.075507
24203,2.1644,1.8182,0.1,0.0006329,6324.6,0.00063673,6445.3,-0.00018701,256.02,-0.00022194,-6.4233,0.060169
24204,2.2565,1.9091,0.1,0.00062859,6281.5,0.0006345,6475.5,-0.00017252,411.8,-0.00022777,-3.2984,0.065378
24205,1.9801,1.8182,0.1,0.00066737,6669.1,0.00066902,6719.8,-0.0002089,123.43,-0.00022796,-19.76,0.05066
24206,2.0723,1.9091,0.1,0.00066152,6610.6,0.0006664,6766.8,-0.00019006,331.68,-0.00023504,-6.2319,0.055679
24207,1.7959,1.8182,0.1,0.00071611,7156.1,0.0007133,7077.4,-0.00022578,21.605,-0.00025194,-175,0.041596
24208,1.888,1.9091,0.1,0.0007063,7058.1,0.00070903,7142.9,-0.00021638,189.68,-0.00024371,-15.632,0.046427
24209,1.6116,1.8182,0.1,0.00078963,7890.8,0.00077731,7566.2,-0.00022807,12.164,-0.0003126,-622.97,0.032997
24210,1.7037,1.9091,0.1,0.00077081,7702.8,0.00076894,7650.5,-0.0002448,33.645,-0.0002673,-135.4,0.037648
24211,1.4273,1.8182,0.1,0.00091629,9156.6,0.00087973,8276.4,-0.00022188,-0.76611,-0.00042935,-1559.6,0.024888
24212,1.5195,1.9091,0.1,0.00086994,8693.4,0.00085829,8384.4,-0.00025447,23.566,-0.00033841,-607.1,0.02937
24213,1.2431,1.8182,0.1,0.0011877,11869,0.0010782,9571.6,-0.00018279,97.32,-0.00069369,-3741.4,0.017294
24214,1.3352,1.9091,0.1,0.0010468,10460,0.0010089,9522.7,-0.00026549,-52.196,-0.00047699,-1641.4,0.021636
24215,1.1509,1.9091,0.1,0.0015083,15072,0.0013848,12597,-0.00022005,538.66,-0.00086415,-4300.8,0.014512
24216,1.0588,1.8182,0.1,0.0012203,12195,0.0009816,7937.1,-1.3325e-05,461.59,-0.00089125,-6134.8,0.010238
24217,23.724,2,0.1,1.9518e-05,195.05,1.1167e-05,59.155,3.2651e-06,-0.21463,-1.7825e-05,-158.68,2.8894
24218,23.816,2.0909,0.1,1.8942e-05,189.29,9.4834e-06,39.838,4.1556e-06,-0.19376,-1.7947e-05,-166.27,2.905
24219,23.908,2,0.1,1.8089e-05,180.77,7.831e-06,22.456,4.7856e-06,-0.42609,-1.7606e-05,-168.67,2.9205
24220,23.539,2,0.1,2.15e-05,214.85,1.4706e-05,97.869,1.6504e-06,-0.22182,-1.8087e-05,-148.52,2.8583
24221,23.631,2.0909,0.1,2.068e-05,206.65,1.3022e-05,78.575,2.5212e-06,-0.32436,-1.8185e-05,-155.9,2.8739
24222,23.355,2,0.1,2.3862e-05,238.45,1.8247e-05,136.48,6.5752e-08,-0.12644,-1.8398e-05,-138.86,2.8272
24223,23.447,2.0909,0.1,2.2855e-05,228.4,1.6563e-05,117.32,9.3009e-07,-0.13933,-1.847e-05,-145.9,2.8428
24224,23.171,2,0.1,2.6507e-05,264.89,2.1798e-05,174.97,-1.5031e-06,-0.10397,-1.8761e-05,-129.77,2.7962
24225,23.263,2.0909,0.1,2.5358e-05,253.41,2.0112e-05,155.9,-6.532e-07,-0.12222,-1.8803e-05,-136.49,2.8117
24226,22.987,2,0.1,2.9366e-05,293.46,2.5361e-05,213.4,-3.0516e-06,-0.08158,-1.9177e-05,-121.24,2.7651
24227,23.079,2.0909,0.1,2.8106e-05,280.87,2.367e-05,194.39,-2.2144e-06,-0.090917,-1.9186e-05,-127.61,2.7807
24228,22.802,2,0.1,3.2391e-05,323.69,2.8942e-05,251.82,-4.5823e-06,-0.068408,-1.9648e-05,-113.27,2.7341
24229,22.894,2.0909,0.1,3.1041e-05,310.19,2.7241e-05,232.84,-3.7577e-06,-0.075969,-1.9622e-05,-119.28,2.7496
24230,22.618,2,0.1,3.5547e-05,355.23,3.2544e-05,290.27,-6.0967e-06,-0.058237,-2.0174e-05,-105.83,2.703
24231,22.71,2.0909,0.1,3.4122e-05,340.99,3.083e-05,271.28,-5.2837e-06,-0.063847,-2.0112e-05,-111.47,2.7186
24232,22.434,2,0.1,3.8811e-05,387.84,3.617e-05,328.8,-7.5967e-06,-0.050662,-2.0754e-05,-98.908,2.672
24233,22.526,2.0909,0.1,3.7323e-05,372.97,3.4442e-05,309.78,-6.7945e-06,-0.05522,-2.0654e-05,-104.19,2.6876
24234,22.249,2,0.1,4.2166e-05,421.37,3.9824e-05,367.43,-9.0842e-06,-0.044675,-2.1387e-05,-92.48,2.6411
24235,22.342,2.0909,0.1,4.0622e-05,405.94,3.8078e-05,348.35,-8.2916e-06,-0.048447,-2.125e-05,-97.411,2.6566
24236,22.065,2,0.1,4.5599e-05,455.67,4.3506e-05,406.2,-1.0561e-05,-0.039857,-2.207e-05,-86.517,2.6101
24237,22.157,2.0909,0.1,4.4004e-05,439.74,4.174e-05,387.04,-9.7768e-06,-0.043079,-2.1896e-05,-91.105,2.6256
24238,21.881,2,0.1,4.9099e-05,490.66,4.7217e-05,445.11,-1.2028e-05,-0.035888,-2.2802e-05,-80.99,2.5792
24239,21.973,2.0909,0.1,4.746e-05,474.28,4.5432e-05,425.86,-1.1252e-05,-0.038692,-2.2592e-05,-85.248,2.5947
24240,21.697,2,0.1,5.2661e-05,526.25,5.0958e-05,484.18,-1.3487e-05,-0.032569,-2.358e-05,-75.87,2.5483
24241,21.789,2.0909,0.1,5.0981e-05,509.46,4.9152e-05,464.83,-1.2718e-05,-0.035047,-2.3336e-05,-79.813,2.5638
24242,21.512,2,0.1,5.6278e-05,562.39,5.4729e-05,523.43,-1.4939e-05,-0.029759,-2.4402e-05,-71.128,2.5175
24243,21.605,2.0909,0.1,5.456e-05,545.22,5.2902e-05,503.96,-1.4176e-05,-0.031978,-2.4124e-05,-74.774,2.5329
24244,21.328,2,0.1,5.9946e-05,599.04,5.853e-05,562.87,-1.6386e-05,-0.027348,-2.5265e-05,-66.738,2.4866
24245,21.42,2.0909,0.1,5.8192e-05,581.52,5.6681e-05,543.28,-1.5628e-05,-0.02936,-2.4955e-05,-70.104,2.5021
24246,21.144,2,0.1,6.3659e-05,636.15,6.2361e-05,602.49,-1.7829e-05,-0.025257,-2.6167e-05,-62.673,2.4559
24247,21.236,2.0909,0.1,6.1873e-05,618.3,6.0491e-05,582.77,-1.7075e-05,-0.027096,-2.5826e-05,-65.778,2.4713
24248,20.96,2,0.1,6.7417e-05,673.7,6.6221e-05,642.3,-1.9268e-05,-0.023424,-2.7105e-05,-58.91,2.4251
24249,21.052,2.0909,0.1,6.56e-05,655.54,6.433e-05,622.46,-1.8518e-05,-0.02512,-2.6736e-05,-61.77,2.4405
24250,20.775,2,0.1,7.1215e-05,711.66,7.011e-05,682.31,-2.0704e-05,-0.021808,-2.8078e-05,-55.426,2.3944
24251,20.867,2.0909,0.1,6.9369e-05,693.21,6.8198e-05,662.35,-1.9958e-05,-0.023375,-2.7682e-05,-58.058,2.4098
24252,20.591,2,0.1,7.5052e-05,750,7.4027e-05,722.53,-2.2138e-05,-0.020383,-2.9083e-05,-52.199,2.3638
24253,20.683,2.0909,0.1,7.3179e-05,731.28,7.2096e-05,702.43,-2.1395e-05,-0.021838,-2.8661e-05,-54.621,2.3792
24254,20.407,2,0.1,7.8925e-05,788.71,7.7972e-05,762.94,-2.3571e-05,-0.019114,-3.0118e-05,-49.211,2.3332
24255,20.499,2.0909,0.1,7.7027e-05,769.73,7.6022e-05,742.72,-2.283e-05,-0.020478,-2.9673e-05,-51.437,2.3486
24256,20.223,2,0.1,8.2833e-05,827.76,8.1945e-05,803.56,-2.5004e-05,-0.017971,-3.1183e-05,-46.443,2.3027
24257,20.315,2.0909,0.1,8.0911e-05,808.55,7.9976e-05,783.21,-2.4264e-05,-0.019253,-3.0715e-05,-48.489,2.318
24258,20.038,2,0.1,8.6776e-05,867.16,8.5946e-05,844.38,-2.6436e-05,-0.016934,-3.2274e-05,-43.878,2.2722
24259,20.13,2.0909,0.1,8.483e-05,847.71,8.3959e-05,823.9,-2.5698e-05,-0.018148,-3.1786e-05,-45.757,2.2875
24260,19.854,2,0.1,9.075e-05,906.87,8.9972e-05,885.4,-2.787e-05,-0.015995,-3.3391e-05,-41.501,2.2418
24261,19.946,2.0909,0.1,8.8783e-05,887.21,8.7968e-05,864.8,-2.7132e-05,-0.017138,-3.2883e-05,-43.226,2.257
24262,19.67,2,0.1,9.4756e-05,946.9,9.4026e-05,926.64,-2.9304e-05,-0.015152,-3.4532e-05,-39.297,2.2114
24263,19.762,2.0909,0.1,9.2768e-05,927.04,9.2004e-05,905.91,-2.8567e-05,-0.01623,-3.4006e-05,-40.881,2.2266
24264,19.485,2,0.1,9.8792e-05,987.23,9.8105e-05,968.07,-3.074e-05,-0.014385,-3.5696e-05,-37.253,2.1811
24265,19.578,2.0909,0.1,9.6784e-05,967.17,9.6067e-05,947.23,-3.0003e-05,-0.015416,-3.5153e-05,-38.707,2.1963
24266,19.301,2,0.1,0.00010286,1027.9,0.00010221,1009.7,-3.2178e-05,-0.013676,-3.6881e-05,-35.357,2.1509
24267,19.393,2.0909,0.1,0.00010083,1007.6,0.00010016,988.75,-3.1441e-05,-0.014661,-3.6322e-05,-36.69,2.166
24268,19.117,2,0.1,0.00010695,1068.8,0.00010634,1051.6,-3.3618e-05,-0.013017,-3.8087e-05,-33.596,2.1207
24269,19.209,2.0909,0.1,0.00010491,1048.3,0.00010427,1030.5,-3.2881e-05,-0.013966,-3.7513e-05,-34.819,2.1358
24270,18.933,2,0.1,0.00011107,1110,0.00011049,1093.6,-3.506e-05,-0.01241,-3.9312e-05,-31.96,2.0906
24271,19.025,2.0909,0.1,0.00010901,1089.3,0.00010841,1072.4,-3.4323e-05,-0.013313,-3.8725e-05,-33.082,2.1057
24272,18.748,2,0.1,0.00011522,1151.4,0.00011467,1135.9,-3.6506e-05,-0.011865,-4.0556e-05,-30.44,2.0606
24273,18.841,2.0909,0.1,0.00011314,1130.6,0.00011257,1114.6,-3.5768e-05,-0.012723,-3.9955e-05,-31.469,2.0757
24274,18.564,2,0.1,0.0001194,1193.1,0.00011888,1178.4,-3.7955e-05,-0.011361,-4.1817e-05,-29.025,2.0307
24275,18.656,2.0909,0.1,0.0001173,1172.2,0.00011676,1156.9,-3.7216e-05,-0.012193,-4.1204e-05,-29.969,2.0457
24276,18.38,2,0.1,0.0001236,1235.1,0.0001231,1221,-3.9408e-05,-0.010886,-4.3094e-05,-27.707,2.0008
24277,18.472,2.0909,0.1,0.00012149,1214,0.00012098,1199.5,-3.8668e-05,-0.011688,-4.2469e-05,-28.574,2.0158
24278,18.196,2,0.1,0.00012782,1277.4,0.00012735,1263.9,-4.0864e-05,-0.010435,-4.4387e-05,-26.479,1.971
24279,18.288,2.0909,0.1,0.0001257,1256.1,0.00012521,1242.3,-4.0123e-05,-0.011218,-4.3752e-05,-27.274,1.986
24280,18.011,2,0.1,0.00013208,1319.8,0.00013163,1307,-4.2325e-05,-0.010016,-4.5695e-05,-25.332,1.9413
24281,18.103,2.0909,0.1,0.00012994,1298.5,0.00012947,1285.2,-4.1582e-05,-0.010764,-4.5049e-05,-26.062,1.9562
24282,17.827,2,0.1,0.00013635,1362.6,0.00013592,1350.3,-4.379e-05,-0.0096407,-4.7017e-05,-24.26,1.9117
24283,17.919,2.0909,0.1,0.0001342,1341.1,0.00013376,1328.4,-4.3046e-05,-0.010357,-4.6362e-05,-24.93,1.9266
24284,17.643,2,0.1,0.00014065,1405.6,0.00014024,1393.8,-4.5259e-05,-0.0092904,-4.8353e-05,-23.256,1.8822
24285,17.735,2.0909,0.1,0.00013848,1383.9,0.00013806,1371.8,-4.4513e-05,-0.0099924,-4.7689e-05,-23.871,1.897
24286,17.459,2,0.1,0.00014498,1448.8,0.00014458,1437.5,-4.6733e-05,-0.0089534,-4.9702e-05,-22.314,1.8528
24287,17.551,2.0909,0.1,0.00014279,1427,0.00014239,1415.4,-4.5985e-05,-0.0096359,-4.9029e-05,-22.879,1.8676
24288,17.274,2,0.1,0.00014932,1492.2,0.00014895,1481.4,-4.8212e-05,-0.0086267,-5.1063e-05,-21.428,1.8235
24289,17.366,2.0909,0.1,0.00014713,1470.3,0.00014674,1459.2,-4.7462e-05,-0.0092992,-5.0382e-05,-21.948,1.8382
24290,17.09,2,0.1,0.00015369,1535.9,0.00015333,1525.5,-4.9696e-05,-0.0083189,-5.2436e-05,-20.592,1.7943
24291,17.182,2.0909,0.1,0.00015149,1513.8,0.00015112,1503.2,-4.8944e-05,-0.0089645,-5.1747e-05,-21.071,1.809
24292,16.906,2,0.1,0.00015809,1579.8,0.00015774,1569.8,-5.1185e-05,-0.008048,-5.382e-05,-19.803,1.7652
24293,16.998,2.0909,0.1,0.00015587,1557.6,0.00015551,1547.4,-5.0431e-05,-0.0086663,-5.3124e-05,-20.244,1.7798
24294,16.721,2,0.1,0.0001625,1623.9,0.00016217,1614.3,-5.268e-05,-0.0077943,-5.5215e-05,-19.054,1.7362
24295,16.814,2.0909,0.1,0.00016027,1601.6,0.00015993,1591.8,-5.1923e-05,-0.0084064,-5.4512e-05,-19.461,1.7507
24296,16.537,2,0.1,0.00016694,1668.2,0.00016662,1659,-5.418e-05,-0.0075433,-5.662e-05,-18.341,1.7073
24297,16.629,2.0909,0.1,0.0001647,1645.8,0.00016437,1636.4,-5.3421e-05,-0.0081432,-5.5911e-05,-18.718,1.7218
24298,16.353,2,0.1,0.0001714,1712.8,0.00017109,1703.9,-5.5685e-05,-0.0072925,-5.8035e-05,-17.66,1.6785
24299,16.445,2.0909,0.1,0.00016914,1690.3,0.00016883,1681.2,-5.4924e-05,-0.0078897,-5.732e-05,-18.009,1.693
24300,16.169,2,0.1,0.00017588,1757.6,0.00017558,1749,-5.7197e-05,-0.0070554,-5.9459e-05,-17.006,1.6498
24301,16.261,2.0909,0.1,0.00017361,1734.9,0.00017331,1726.2,-5.6432e-05,-0.0076279,-5.8738e-05,-17.331,1.6642
24302,15.984,2,0.1,0.00018038,1802.6,0.0001801,1794.3,-5.8714e-05,-0.0068511,-6.0893e-05,-16.377,1.6213
24303,16.077,2.0909,0.1,0.0001781,1779.8,0.00017781,1771.4,-5.7947e-05,-0.0074009,-6.0166e-05,-16.679,1.6356
24304,15.8,2,0.1,0.00018491,1847.8,0.00018463,1839.9,-6.0237e-05,-0.0066566,-6.2335e-05,-15.767,1.5928
24305,15.892,2.0909,0.1,0.00018262,1824.9,0.00018234,1816.8,-5.9467e-05,-0.0072055,-6.1602e-05,-16.05,1.6071
24306,15.616,2,0.1,0.00018945,1893.2,0.00018919,1885.6,-6.1766e-05,-0.0064586,-6.3785e-05,-15.173,1.5645
24307,15.708,2.0909,0.1,0.00018715,1870.2,0.00018688,1862.4,-6.0994e-05,-0.0070003,-6.3048e-05,-15.438,1.5788
24308,15.432,2,0.1,0.00019402,1938.8,0.00019376,1931.5,-6.3302e-05,-0.0062536,-6.5243e-05,-14.591,1.5364
24309,15.524,2.0909,0.1,0.0001917,1915.7,0.00019145,1908.3,-6.2526e-05,-0.0067973,-6.4501e-05,-14.841,1.5506
24310,15.247,2,0.1,0.0001986,1984.6,0.00019836,1977.6,-6.4843e-05,-0.0060567,-6.6708e-05,-14.018,1.5083
24311,15.339,2.0909,0.1,0.00019628,1961.4,0.00019603,1954.3,-6.4065e-05,-0.0065794,-6.5962e-05,-14.255,1.5225
24312,15.063,2,0.1,0.00020321,2030.7,0.00020297,2023.9,-6.6392e-05,-0.005891,-6.8181e-05,-13.45,1.4804
24313,15.155,2.0909,0.1,0.00020087,2007.4,0.00020064,2000.5,-6.561e-05,-0.0063936,-6.743e-05,-13.676,1.4945
24314,14.879,2,0.1,0.00020783,2076.9,0.00020761,2070.4,-6.7946e-05,-0.0057301,-6.966e-05,-12.884,1.4527
24315,14.971,2.0909,0.1,0.00020549,2053.5,0.00020526,2046.9,-6.7162e-05,-0.0062378,-6.8905e-05,-13.101,1.4666
24316,14.695,2,0.1,0.00021248,2123.3,0.00021227,2117.1,-6.9507e-05,-0.0055584,-7.1146e-05,-12.317,1.425
24317,14.787,2.0909,0.1,0.00021012,2099.8,0.00020991,2093.5,-6.872e-05,-0.0060632,-7.0386e-05,-12.525,1.439
24318,14.51,2,0.1,0.00021714,2169.9,0.00021694,2164,-7.1075e-05,-0.0053739,-7.2638e-05,-11.744,1.3976
24319,14.602,2.0909,0.1,0.00021478,2146.3,0.00021457,2140.3,-7.0285e-05,-0.0058868,-7.1874e-05,-11.946,1.4114
24320,14.326,2,0.1,0.00022183,2216.8,0.00022164,2211.1,-7.265e-05,-0.0051909,-7.4135e-05,-11.162,1.3702
24321,14.418,2.0909,0.1,0.00021945,2193,0.00021926,2187.3,-7.1857e-05,-0.0056863,-7.3368e-05,-11.36,1.384
24322,14.142,2,0.1,0.00022653,2263.8,0.00022635,2258.5,-7.4232e-05,-0.0050352,-7.5638e-05,-10.567,1.343
24323,14.234,2.0909,0.1,0.00022415,2239.9,0.00022396,2234.5,-7.3435e-05,-0.0055145,-7.4867e-05,-10.762,1.3567
24324,13.957,2,0.1,0.00023125,2310.9,0.00023108,2306,-7.5821e-05,-0.0048783,-7.7145e-05,-9.9566,1.316
24325,14.05,2.0909,0.1,0.00022886,2287,0.00022868,2281.9,-7.5021e-05,-0.0053702,-7.6371e-05,-10.15,1.3296
24326,13.773,2,0.1,0.000236,2358.3,0.00023584,2353.7,-7.7417e-05,-0.0047002,-7.8657e-05,-9.3259,1.2891
24327,13.865,2.0909,0.1,0.00023359,2334.3,0.00023343,2329.5,-7.6613e-05,-0.0051968,-7.788e-05,-9.5199,1.3027
24328,13.589,2,0.1,0.00024076,2405.9,0.00024061,2401.5,-7.902e-05,-0.0044956,-8.0173e-05,-8.6713,1.2624
24329,13.681,2.0909,0.1,0.00023834,2381.8,0.00023819,2377.3,-7.8213e-05,-0.0050115,-7.9393e-05,-8.8669,1.2759
24330,13.405,2,0.1,0.00024553,2453.6,0.0002454,2449.6,-8.063e-05,-0.0042796,-8.1693e-05,-7.9887,1.2359
24331,13.497,2.0909,0.1,0.00024311,2429.4,0.00024297,2425.3,-7.982e-05,-0.0047875,-8.0909e-05,-8.1873,1.2493
24332,13.22,2,0.1,0.00025033,2501.6,0.0002502,2497.9,-8.2248e-05,-0.0040746,-8.3216e-05,-7.2738,1.2095
24333,13.313,2.0909,0.1,0.00024789,2477.2,0.00024777,2473.5,-8.1435e-05,-0.0045811,-8.243e-05,-7.4769,1.2228
24334,13.036,2,0.1,0.00025514,2549.7,0.00025503,2546.4,-8.3874e-05,-0.0038406,-8.4742e-05,-6.5221,1.1833
24335,13.128,2.0909,0.1,0.0002527,2525.2,0.00025258,2521.9,-8.3057e-05,-0.0043814,-8.3953e-05,-6.7312,1.1965
24336,12.852,2,0.1,0.00025997,2597.9,0.00025988,2595.1,-8.5508e-05,-0.0035411,-8.627e-05,-5.7289,1.1572
24337,12.944,2.0909,0.1,0.00025752,2573.4,0.00025742,2570.4,-8.4687e-05,-0.0041193,-8.5478e-05,-5.9454,1.1704
24338,12.668,2,0.1,0.00026482,2646.4,0.00026474,2643.9,-8.7149e-05,-0.0031426,-8.7799e-05,-4.8891,1.1314
24339,12.76,2.0909,0.1,0.00026236,2621.8,0.00026227,2619.2,-8.6325e-05,-0.0037897,-8.7005e-05,-5.1146,1.1444
24340,12.483,2,0.1,0.00026969,2695,0.00026962,2693,-8.8799e-05,-0.0026008,-8.933e-05,-3.9976,1.1057
24341,12.575,2.0909,0.1,0.00026721,2670.3,0.00026714,2668.2,-8.7971e-05,-0.0033255,-8.8534e-05,-4.2335,1.1186
24342,12.299,2,0.1,0.00027457,2743.8,0.00027452,2742.3,-9.0456e-05,-0.0017942,-9.0862e-05,-3.0489,1.0802
24343,12.391,2.0909,0.1,0.00027209,2719,0.00027203,2717.3,-8.9625e-05,-0.0026854,-9.0063e-05,-3.2967,1.0931
24344,12.115,2,0.1,0.00027947,2792.7,0.00027943,2791.7,-9.2123e-05,-0.000198,-9.2394e-05,-2.0375,1.0549
24345,12.207,2.0909,0.1,0.00027697,2767.8,0.00027693,2766.7,-9.1287e-05,-0.0015705,-9.1593e-05,-2.2986,1.0676
24346,11.931,2,0.1,0.00028438,2841.8,0.00028436,2841.3,-9.3797e-05,0.0050547,-9.3925e-05,-0.95976,1.0297
24347,12.023,2.0909,0.1,0.00028188,2816.8,0.00028186,2816.2,-9.2958e-05,0.0015123,-9.3122e-05,-1.2341,1.0424
24348,11.746,2,0.1,0.00028931,2891.1,0.00028931,2891.2,-9.5448e-05,0.2467,-9.5487e-05,-0.041511,1.0048
24349,11.838,2.0909,0.1,0.0002868,2866,0.00028679,2865.9,-9.4631e-05,0.052517,-9.4657e-05,-0.14247,1.0174
24350,11.562,2,0.1,0.00029425,2940.5,0.00029427,2941.2,-9.698e-05,1.4601,-9.7175e-05,-0.010774,0.98006
24351,11.654,2.0909,0.1,0.00029173,2915.3,0.00029175,2915.8,-9.6174e-05,1.1467,-9.6328e-05,-0.011504,0.99257
24352,11.378,2,0.1,0.00029921,2990,0.00029925,2991.4,-9.8504e-05,2.7931,-9.8877e-05,-0.0076719,0.95552
24353,11.47,2.0909,0.1,0.00029668,2964.7,0.00029672,2966,-9.7698e-05,2.4581,-9.8026e-05,-0.007745,0.96793
24354,11.193,2,0.1,0.00030418,3039.7,0.00030425,3041.8,-0.00010002,4.2286,-0.00010059,-0.0064664,0.93119
24355,11.286,2.0909,0.1,0.00030164,3014.3,0.0003017,3016.2,-9.9217e-05,3.8705,-9.9733e-05,-0.0065043,0.9435
24356,11.009,2,0.1,0.00030916,3089.5,0.00030926,3092.4,-0.00010154,5.7744,-0.00010231,-0.0057777,0.90706
24357,11.101,2.0909,0.1,0.00030661,3064,0.00030671,3066.7,-0.00010073,5.3913,-0.00010145,-0.0058223,0.91927
24358,10.825,2,0.1,0.00031416,3139.4,0.00031428,3143.1,-0.00010305,7.4401,-0.00010404,-0.0052924,0.88314
24359,10.917,2.0909,0.1,0.0003116,3113.9,0.00031172,3117.4,-0.00010224,7.0296,-0.00010318,-0.0053625,0.89525
24360,10.641,2,0.1,0.00031917,3189.5,0.00031932,3194.1,-0.00010455,9.2362,-0.00010578,-0.0049245,0.85944
24361,10.733,2.0909,0.1,0.0003166,3163.8,0.00031675,3168.2,-0.00010374,8.796,-0.00010491,-0.0049796,0.87144
24362,10.456,2,0.1,0.00032419,3239.7,0.00032438,3245.2,-0.00010605,11.174,-0.00010754,-0.0046622,0.83595
24363,10.549,2.0909,0.1,0.00032161,3213.9,0.0003218,3219.3,-0.00010524,10.702,-0.00010666,-0.0047004,0.84785
24364,10.272,2,0.1,0.00032922,3289.9,0.00032944,3296.5,-0.00010753,13.266,-0.0001093,-0.004435,0.81268
24365,10.364,2.0909,0.1,0.00032664,3264.1,0.00032685,3270.5,-0.00010672,12.759,-0.00010842,-0.0044967,0.82447
24366,10.088,2,0.1,0.00033426,3340.3,0.00033452,3348,-0.00010901,15.525,-0.00011107,-0.0042151,0.78964
24367,10.18,2.0909,0.1,0.00033167,3314.4,0.00033192,3321.9,-0.0001082,14.98,-0.00011019,-0.0042674,0.80132
24368,9.9036,2,0.1,0.00033931,3390.8,0.00033961,3399.7,-0.00011047,17.966,-0.00011286,-0.0040186,0.76682
24369,9.9957,2.0909,0.1,0.00033671,3364.8,0.000337,3373.4,-0.00010966,17.381,-0.00011197,-0.0040632,0.77839
24370,9.7193,2,0.1,0.00034437,3441.3,0.00034472,3451.6,-0.00011192,20.604,-0.00011466,-0.0038305,0.74423
24371,9.8115,2.0909,0.1,0.00034176,3415.3,0.0003421,3425.2,-0.00011111,19.976,-0.00011377,-0.0038696,0.75569
24372,9.5351,2,0.1,0.00034944,3492,0.00034983,3503.6,-0.00011335,23.456,-0.00011647,-0.0036511,0.72188
24373,9.6272,2.0909,0.1,0.00034682,3465.8,0.0003472,3477.1,-0.00011254,22.783,-0.00011558,-0.0036737,0.73322
24374,9.3508,2,0.1,0.00035451,3542.6,0.00035495,3555.8,-0.00011477,26.541,-0.0001183,-0.0034805,0.69976
24375,9.4429,2.0909,0.1,0.00035188,3516.4,0.00035231,3529.2,-0.00011396,25.818,-0.0001174,-0.0034889,0.71099
24376,9.1665,2,0.1,0.00035959,3593.4,0.00036008,3608.2,-0.00011616,29.877,-0.00012014,-0.0033132,0.67789
24377,9.2587,2.0909,0.1,0.00035695,3567,0.00035744,3581.5,-0.00011536,29.102,-0.00011923,-0.0033035,0.689
24378,8.9823,2,0.1,0.00036467,3644.2,0.00036523,3660.8,-0.00011754,33.486,-0.000122,-0.0031493,0.65626
24379,9.0744,2.0909,0.1,0.00036202,3617.7,0.00036257,3634,-0.00011674,32.656,-0.00012108,-0.003118,0.66725
24380,8.798,2,0.1,0.00036975,3695,0.00037037,3713.5,-0.00011889,37.391,-0.00012387,-0.0029887,0.63488
24381,8.8901,2.0909,0.1,0.0003671,3668.5,0.00036771,3686.6,-0.00011809,36.503,-0.00012295,-0.0029318,0.64574
24382,8.6137,2,0.1,0.00037484,3745.8,0.00037553,3766.4,-0.00012021,41.616,-0.00012575,-0.0028318,0.61375
24383,8.7059,2.0909,0.1,0.00037218,3719.2,0.00037285,3739.4,-0.00011941,40.668,-0.00012483,-0.0027451,0.62449
24384,8.4295,2,0.1,0.00037992,3796.6,0.00038069,3819.5,-0.00012151,46.188,-0.00012766,-0.0026789,0.59287
24385,8.5216,2.0909,0.1,0.00037725,3769.9,0.000378,3792.3,-0.00012071,45.177,-0.00012673,-0.0025572,0.60349
24386,8.2452,2,0.1,0.00038501,3847.4,0.00038585,3872.8,-0.00012277,51.135,-0.00012958,-0.0025324,0.57226
24387,8.3373,2.0909,0.1,0.00038233,3820.7,0.00038316,3845.5,-0.00012198,50.059,-0.00012864,-0.0023695,0.58274
24388,8.0609,2,0.1,0.00039009,3898.3,0.00039102,3926.2,-0.000124,56.489,-0.00013152,-0.0023952,0.5519
24389,8.1531,2.0909,0.1,0.0003874,3871.4,0.00038832,3898.7,-0.00012321,55.346,-0.00013058,-0.0021836,0.56226
24390,7.8767,2,0.1,0.00039517,3949,0.0003962,3979.8,-0.00012519,62.282,-0.00013348,-0.0022714,0.53181
24391,7.9688,2.0909,0.1,0.00039247,3922,0.00039348,3952.2,-0.0001244,61.073,-0.00013253,-0.0020017,0.54204
24392,7.6924,2,0.1,0.00040025,3999.7,0.00040137,4033.6,-0.00012634,68.551,-0.00013546,-0.0021664,0.51199
24393,7.7845,2.0909,0.1,0.00039754,3972.6,0.00039864,4005.9,-0.00012555,67.275,-0.00013451,-0.001828,0.52208
24394,7.5081,2,0.1,0.00040532,4050.4,0.00040655,4087.5,-0.00012744,75.332,-0.00013747,-0.0020884,0.49244
24395,7.6003,2.0909,0.1,0.0004026,4023.2,0.0004038,4059.7,-0.00012666,73.993,-0.00013651,-0.0016671,0.5024
24396,7.3239,2,0.1,0.00041038,4101,0.00041172,4141.7,-0.0001285,82.668,-0.0001395,-0.002048,0.47317
24397,7.416,2.0909,0.1,0.00040765,4073.7,0.00040897,4113.7,-0.00012771,81.269,-0.00013853,-0.0015269,0.48299
24398,7.1396,2,0.1,0.00041543,4151.5,0.0004169,4196,-0.0001295,90.603,-0.00014156,-0.0020585,0.45418
24399,7.2317,2.0909,0.1,0.00041269,4124,0.00041413,4167.9,-0.00012871,89.15,-0.00014058,-0.0014171,0.46386
24400,6.9553,2,0.1,0.00042048,4201.9,0.00042208,4250.6,-0.00013044,99.182,-0.00014364,-0.0021391,0.43547
24401,7.0475,2.0909,0.1,0.00041772,4174.3,0.00041929,4222.3,-0.00012966,97.686,-0.00014266,-0.0013507,0.44501
24402,6.7711,2,0.1,0.00042552,4252.2,0.00042726,4305.4,-0.00013132,108.45,-0.00014576,-0.0023141,0.41705
24403,6.8632,2.0909,0.1,0.00042274,4224.5,0.00042445,4276.9,-0.00013053,106.93,-0.00014477,-0.0013462,0.42645
24404,6.5868,2,0.1,0.00043054,4302.5,0.00043244,4360.5,-0.00013214,118.48,-0.00014791,-0.0026162,0.39891
24405,6.6789,2.0909,0.1,0.00042775,4274.5,0.00042962,4331.8,-0.00013135,116.94,-0.00014691,-0.0014276,0.40817
24406,6.4025,2,0.1,0.00043556,4352.6,0.00043762,4415.8,-0.00013288,129.3,-0.00015009,-0.0030884,0.38108
24407,6.4947,2.0909,0.1,0.00043275,4324.5,0.00043478,4386.9,-0.00013208,127.78,-0.00014909,-0.0016268,0.39018
24408,6.2183,2,0.1,0.00044058,4402.8,0.00044281,4471.6,-0.00013356,140.98,-0.00015232,-0.0037876,0.36353
24409,6.3104,2.0909,0.1,0.00043774,4374.4,0.00043994,4442.4,-0.00013274,139.51,-0.00015131,-0.001987,0.37249
24410,6.034,2,0.1,0.0004456,4452.9,0.00044801,4527.7,-0.00013415,153.58,-0.00015459,-0.0047901,0.34629
24411,6.1261,2.0909,0.1,0.00044272,4424.2,0.00044512,4498.3,-0.00013332,152.21,-0.00015357,-0.0025654,0.3551
24412,5.8497,2,0.1,0.00045061,4503,0.00045323,4584.3,-0.00013466,167.16,-0.00015691,-0.0061964,0.32936
24413,5.9419,2.0909,0.1,0.00044771,4474,0.0004503,4554.7,-0.0001338,165.94,-0.00015589,-0.003439,0.33801
24414,5.6655,2,0.1,0.00045565,4553.3,0.00045847,4641.5,-0.00013508,181.79,-0.00015928,-0.0081405,0.31273
24415,5.7576,2.0909,0.1,0.0004527,4523.9,0.00045551,4611.6,-0.0001342,180.78,-0.00015826,-0.0047095,0.32123
24416,5.4812,2,0.1,0.0004607,4603.8,0.00046374,4699.4,-0.00013542,197.51,-0.00016171,-0.010801,0.29641
24417,5.5733,2.0909,0.1,0.00045771,4573.9,0.00046074,4669.2,-0.00013449,196.82,-0.00016069,-0.0065139,0.30476
24418,5.2969,2,0.1,0.0004658,4654.7,0.00046907,4758.2,-0.00013567,214.4,-0.00016421,-0.014418,0.28041
24419,5.3891,2.0909,0.1,0.00046275,4624.3,0.00046602,4727.6,-0.00013469,214.14,-0.00016319,-0.0090353,0.2886
24420,5.1127,2,0.1,0.00047095,4706.2,0.00047447,4818.2,-0.00013584,232.51,-0.00016679,-0.019313,0.26472
24421,5.2048,2.0909,0.1,0.00046784,4675.2,0.00047136,4787.2,-0.00013479,232.81,-0.00016578,-0.01252,0.27275
24422,4.9284,2,0.1,0.00047619,4758.6,0.00047997,4879.5,-0.00013593,251.88,-0.00016946,-0.025917,0.24936
24423,5.0205,2.0909,0.1,0.000473,4726.8,0.0004768,4848.2,-0.00013479,252.92,-0.00016845,-0.017297,0.25723
24424,4.7441,2,0.1,0.00048155,4812.2,0.00048561,4942.7,-0.00013595,272.55,-0.00017223,-0.034816,0.23433
24425,4.8363,2.0909,0.1,0.00047828,4779.5,0.00048236,4910.8,-0.0001347,274.54,-0.00017124,-0.023814,0.24203
24426,4.5599,2,0.1,0.00048709,4867.5,0.00049143,5008.1,-0.00013591,294.53,-0.00017511,-0.046803,0.21962
24427,4.652,2.0909,0.1,0.00048371,4833.7,0.00048808,4975.7,-0.00013452,297.73,-0.00017415,-0.032673,0.22716
24428,4.3756,2,0.1,0.00049285,4925.1,0.00049749,5076.3,-0.00013583,317.8,-0.00017813,-0.062959,0.20525
24429,4.4677,2.0909,0.1,0.00048935,4890.1,0.00049404,5043.4,-0.00013427,322.56,-0.0001772,-0.044694,0.21262
24430,4.1913,2,0.1,0.00049892,4985.8,0.00050386,5148.1,-0.00013575,342.32,-0.00018132,-0.084765,0.19121
24431,4.2835,2.0909,0.1,0.00049528,4949.4,0.00050029,5114.6,-0.00013397,349.02,-0.00018043,-0.060992,0.19841
24432,4.0071,2,0.1,0.0005054,5050.6,0.00051066,5224.4,-0.0001357,367.97,-0.00018469,-0.11426,0.17752
24433,4.0992,2.0909,0.1,0.0005016,5012.5,0.00050695,5190.4,-0.00013366,377.12,-0.00018386,-0.083094,0.18454
24434,3.8228,2,0.1,0.00051243,5120.7,0.00051799,5306.5,-0.00013575,394.56,-0.00018828,-0.1543,0.16418
24435,3.9149,2.0909,0.1,0.00050843,5080.8,0.00051413,5271.9,-0.00013338,406.77,-0.00018754,-0.1131,0.17102
24436,3.6385,2,0.1,0.00052015,5197.9,0.00052604,5395.9,-0.00013597,421.77,-0.00019214,-0.20887,0.15118
24437,3.7307,2.0909,0.1,0.00051595,5155.9,0.00052199,5360.8,-0.00013321,437.81,-0.0001915,-0.15393,0.15785
24438,3.4543,2,0.1,0.0005288,5284.4,0.000535,5494.4,-0.00013649,449.11,-0.0001963,-0.2837,0.13855
24439,3.5464,2.0909,0.1,0.00052435,5239.9,0.00053076,5458.9,-0.00013323,469.96,-0.00019581,-0.20968,0.14503
24440,3.27,2,0.1,0.00053865,5382.8,0.00054516,5604.7,-0.00013745,475.83,-0.00020084,-0.38718,0.12627
24441,3.3621,2.0909,0.1,0.00053393,5335.6,0.00054069,5569,-0.00013359,502.73,-0.00020053,-0.28612,0.13258
24442,3.0857,2,0.1,0.00055008,5497,0.00055687,5729.9,-0.00013909,500.79,-0.00020581,-0.53185,0.11437
24443,3.1779,2.0909,0.1,0.00054503,5446.5,0.00055215,5694.2,-0.00013445,535.36,-0.00020576,-0.39178,0.12049
24444,2.9015,2,0.1,0.00056356,5631.8,0.00057061,5874.3,-0.0001417,522.23,-0.0002113,-0.7384,0.10285
24445,2.9936,2.0909,0.1,0.00055813,5577.5,0.00056559,5838.9,-0.00013609,566.68,-0.00021158,-0.5389,0.10877
24446,2.7172,2,0.1,0.00057979,5793.9,0.00058703,6043.3,-0.00014575,537.45,-0.00021742,-1.0385,0.091711
24447,2.8093,2.0909,0.1,0.00057387,5734.7,0.00058165,6008.5,-0.00013887,594.87,-0.00021814,-0.74872,0.097442
24448,2.5329,2,0.1,0.00059971,5993,0.00060705,6244.8,-0.00015191,542.26,-0.00022428,-1.5044,0.080973
24449,2.6251,2.0909,0.1,0.00059311,5927,0.00060116,6210.8,-0.00014331,617.11,-0.00022558,-1.0478,0.086508
24450,2.3487,2,0.1,0.00062473,6243,0.000632,6489.8,-0.0001612,530.02,-0.00023204,-2.2312,0.070647
24451,2.4408,2.0909,0.1,0.00061707,6166.5,0.00062532,6456,-0.0001502,629.04,-0.00023412,-1.5205,0.075983
24452,2.1644,2,0.1,0.00065703,6565.8,0.00066391,6795,-0.00017523,490.04,-0.00024094,-3.6839,0.06075
24453,2.2565,2.0909,0.1,0.00064756,6471.2,0.00065586,6759.3,-0.00016071,623.86,-0.00024403,-2.1833,0.065882
24454,1.9801,2,0.1,0.00070015,6996.7,0.00070603,7187,-0.00019659,405.11,-0.00025134,-6.3193,0.0513
24455,2.0723,2.0909,0.1,0.0006874,6869.3,0.00069545,7143.4,-0.00017667,590.65,-0.00025577,-3.7318,0.056227
24456,1.7959,2,0.1,0.00076063,7601,0.00076418,7712.3,-0.0002293,247.59,-0.00026468,-18.183,0.042323
24457,1.888,2.0909,0.1,0.00074108,7405.7,0.00074835,7645.8,-0.00020102,512.59,-0.00026993,-5.2175,0.047041
24458,1.6116,2,0.1,0.00085088,8503,0.00084952,8465.7,-0.00026966,56.648,-0.00029425,-128.12,0.033851
24459,1.7037,2.0909,0.1,0.00081737,8168,0.00082254,8332.7,-0.00023863,359.46,-0.00028875,-17.081,0.038358
24460,1.4273,2,0.1,0.0010027,10020,0.00098867,9640.2,-0.00029787,-26.327,-0.00038751,-699.84,0.025929
24461,1.5195,2.0909,0.1,0.00093144,9308,0.00093253,9342.4,-0.00029437,123.97,-0.00031787,-52.58,0.030221
24462,1.2431,2,0.1,0.0013737,13727,0.0013225,12600,-0.0003016,397.79,-0.00065558,-2261.9,0.018626
24463,1.3352,2.0909,0.1,0.0011309,11302,0.0011201,10997,-0.00035112,-56.968,-0.00041501,-537.04,0.022696
24464,1.1509,2.0909,0.1,0.0015835,15824,0.0015464,14967,-0.00039441,384.06,-0.00069299,-1859.3,0.015892
24465,1.0588,2,0.1,0.0024225,24209,0.002322,21975,-0.0005261,575.03,-0.001175,-4300.8,0.012077
24466,23.724,2.1818,0.1,1.9986e-05,199.72,1.1329e-05,59.182,3.4228e-06,-0.21984,-1.8308e-05,-163.5,2.8895
24467,23.816,2.2727,0.1,1.9365e-05,193.51,9.6231e-06,39.805,4.2986e-06,-0.20077,-1.8378e-05,-170.58,2.9051
24468,23.908,2.1818,0.1,1.8574e-05,185.61,7.9895e-06,22.427,4.9477e-06,-0.42784,-1.8093e-05,-173.55,2.9206
24469,23.539,2.1818,0.1,2.1952e-05,219.36,1.4878e-05,98.016,1.803e-06,-0.22509,-1.857e-05,-153.3,2.8584
24470,23.631,2.2727,0.1,2.1092e-05,210.78,1.3172e-05,78.651,2.6605e-06,-0.32781,-1.8619e-05,-160.21,2.874
24471,23.355,2.1818,0.1,2.4293e-05,242.76,1.8428e-05,136.74,2.1194e-07,-0.12901,-1.8876e-05,-143.55,2.8273
24472,23.447,2.2727,0.1,2.3252e-05,232.35,1.6721e-05,117.5,1.0642e-06,-0.14174,-1.8901e-05,-150.15,2.8429
24473,23.171,2.1818,0.1,2.6916e-05,268.98,2.1985e-05,175.33,-1.3642e-06,-0.10627,-1.923e-05,-134.34,2.7962
24474,23.263,2.2727,0.1,2.5736e-05,257.18,2.0277e-05,156.18,-5.2512e-07,-0.12434,-1.9228e-05,-140.65,2.8118
24475,22.987,2.1818,0.1,2.9752e-05,297.32,2.5551e-05,213.84,-2.9204e-06,-0.083689,-1.9634e-05,-125.66,2.7652
24476,23.079,2.2727,0.1,2.8463e-05,284.44,2.3839e-05,194.75,-2.093e-06,-0.092816,-1.9602e-05,-131.65,2.7807
24477,22.802,2.1818,0.1,3.2753e-05,327.31,2.9132e-05,252.32,-4.4591e-06,-0.070395,-2.0089e-05,-117.5,2.7341
24478,22.894,2.2727,0.1,3.1378e-05,313.56,2.7412e-05,233.26,-3.6433e-06,-0.077739,-2.0026e-05,-123.17,2.7497
24479,22.618,2.1818,0.1,3.5886e-05,358.61,3.2731e-05,290.81,-5.9815e-06,-0.06014,-2.0595e-05,-109.86,2.7031
24480,22.71,2.2727,0.1,3.4438e-05,344.15,3.1001e-05,271.75,-5.1765e-06,-0.065527,-2.05e-05,-115.2,2.7187
24481,22.434,2.1818,0.1,3.9125e-05,390.98,3.6352e-05,329.35,-7.4893e-06,-0.052503,-2.1154e-05,-102.72,2.6721
24482,22.526,2.2727,0.1,3.7618e-05,375.92,3.4608e-05,310.27,-6.6943e-06,-0.056839,-2.1025e-05,-107.73,2.6876
24483,22.249,2.1818,0.1,4.2456e-05,424.27,3.9998e-05,367.98,-8.9843e-06,-0.046465,-2.1763e-05,-96.062,2.6411
24484,22.342,2.2727,0.1,4.0895e-05,408.67,3.8238e-05,348.86,-8.1982e-06,-0.050019,-2.16e-05,-100.75,2.6567
24485,22.065,2.1818,0.1,4.5865e-05,458.33,4.367e-05,406.73,-1.0468e-05,-0.041606,-2.2422e-05,-89.863,2.6102
24486,22.157,2.2727,0.1,4.4256e-05,442.26,4.1893e-05,387.53,-9.69e-06,-0.044613,-2.2226e-05,-94.233,2.6257
24487,21.881,2.1818,0.1,4.9342e-05,493.08,4.737e-05,445.61,-1.1942e-05,-0.037598,-2.313e-05,-84.101,2.5793
24488,21.973,2.2727,0.1,4.7691e-05,476.58,4.5575e-05,426.33,-1.1171e-05,-0.040195,-2.29e-05,-88.166,2.5948
24489,21.697,2.1818,0.1,5.2881e-05,528.45,5.1099e-05,484.64,-1.3407e-05,-0.03424,-2.3883e-05,-78.749,2.5484
24490,21.789,2.2727,0.1,5.1191e-05,511.56,4.9285e-05,465.27,-1.2643e-05,-0.036518,-2.3621e-05,-82.522,2.5639
24491,21.512,2.1818,0.1,5.6476e-05,564.37,5.4858e-05,523.84,-1.4865e-05,-0.031392,-2.4681e-05,-73.783,2.5175
24492,21.605,2.2727,0.1,5.475e-05,547.12,5.3024e-05,504.36,-1.4107e-05,-0.033417,-2.4388e-05,-77.279,2.533
24493,21.328,2.1818,0.1,6.0123e-05,600.81,5.8646e-05,563.22,-1.6318e-05,-0.028944,-2.5521e-05,-69.178,2.4867
24494,21.42,2.2727,0.1,5.8363e-05,583.23,5.6793e-05,543.63,-1.5564e-05,-0.030769,-2.5197e-05,-72.412,2.5022
24495,21.144,2.1818,0.1,6.3817e-05,637.73,6.2464e-05,602.78,-1.7765e-05,-0.026811,-2.64e-05,-64.91,2.456
24496,21.236,2.2727,0.1,6.2026e-05,619.83,6.0591e-05,583.08,-1.7016e-05,-0.028473,-2.6048e-05,-67.897,2.4714
24497,20.96,2.1818,0.1,6.7556e-05,675.1,6.6312e-05,642.54,-1.9208e-05,-0.024937,-2.7317e-05,-60.954,2.4252
24498,21.052,2.2727,0.1,6.5736e-05,656.9,6.4419e-05,622.72,-1.8463e-05,-0.026463,-2.6938e-05,-63.711,2.4406
24499,20.775,2.1818,0.1,7.1338e-05,712.88,7.019e-05,682.5,-2.0648e-05,-0.023284,-2.827e-05,-57.29,2.3945
24500,20.867,2.2727,0.1,6.9489e-05,694.41,6.8277e-05,662.55,-1.9906e-05,-0.024686,-2.7866e-05,-59.832,2.4099
24501,20.591,2.1818,0.1,7.5159e-05,751.07,7.4096e-05,722.66,-2.2087e-05,-0.021821,-2.9257e-05,-53.896,2.3639
24502,20.683,2.2727,0.1,7.3284e-05,732.33,7.2165e-05,702.58,-2.1346e-05,-0.023117,-2.8828e-05,-56.237,2.3793
24503,20.407,2.1818,0.1,7.9017e-05,789.63,7.8031e-05,763.02,-2.3523e-05,-0.020512,-3.0275e-05,-50.752,2.3333
24504,20.499,2.2727,0.1,7.7118e-05,770.65,7.6081e-05,742.82,-2.2785e-05,-0.021726,-2.9824e-05,-52.908,2.3486
24505,20.223,2.1818,0.1,8.2913e-05,828.55,8.1995e-05,803.59,-2.4959e-05,-0.019332,-3.1323e-05,-47.841,2.3028
24506,20.315,2.2727,0.1,8.099e-05,809.34,8.0027e-05,783.27,-2.4222e-05,-0.020468,-3.0851e-05,-49.823,2.3181
24507,20.038,2.1818,0.1,8.6842e-05,867.82,8.5986e-05,844.36,-2.6394e-05,-0.018261,-3.24e-05,-45.143,2.2723
24508,20.13,2.2727,0.1,8.4897e-05,848.39,8.4e-05,823.92,-2.5659e-05,-0.019334,-3.1907e-05,-46.967,2.2876
24509,19.854,2.1818,0.1,9.0806e-05,907.43,9.0005e-05,885.35,-2.783e-05,-0.017287,-3.3503e-05,-42.644,2.2419
24510,19.946,2.2727,0.1,8.8839e-05,887.78,8.8002e-05,864.78,-2.7096e-05,-0.018294,-3.2992e-05,-44.32,2.2571
24511,19.67,2.1818,0.1,9.4801e-05,947.36,9.405e-05,926.54,-2.9267e-05,-0.016412,-3.4632e-05,-40.328,2.2115
24512,19.762,2.2727,0.1,9.2814e-05,927.5,9.2031e-05,905.85,-2.8533e-05,-0.017359,-3.4103e-05,-41.869,2.2267
24513,19.485,2.1818,0.1,9.8828e-05,987.6,9.8123e-05,967.94,-3.0705e-05,-0.015614,-3.5784e-05,-38.181,2.1812
24514,19.578,2.2727,0.1,9.6822e-05,967.55,9.6087e-05,947.13,-2.9971e-05,-0.016518,-3.5239e-05,-39.597,2.1964
24515,19.301,2.1818,0.1,0.00010288,1028.1,0.00010222,1009.6,-3.2145e-05,-0.014877,-3.6959e-05,-36.19,2.151
24516,19.393,2.2727,0.1,0.00010086,1007.9,0.00010017,988.63,-3.1411e-05,-0.015736,-3.6398e-05,-37.491,2.1661
24517,19.117,2.1818,0.1,0.00010697,1069,0.00010634,1051.4,-3.3587e-05,-0.014191,-3.8156e-05,-34.343,2.1208
24518,19.209,2.2727,0.1,0.00010493,1048.6,0.00010428,1030.3,-3.2852e-05,-0.015018,-3.758e-05,-35.538,2.136
24519,18.933,2.1818,0.1,0.00011109,1110.1,0.00011049,1093.4,-3.5031e-05,-0.013557,-3.9372e-05,-32.628,2.0907
24520,19.025,2.2727,0.1,0.00010903,1089.5,0.00010841,1072.2,-3.4296e-05,-0.014341,-3.8783e-05,-33.726,2.1058
24521,18.748,2.1818,0.1,0.00011523,1151.5,0.00011467,1135.6,-3.6479e-05,-0.012986,-4.0607e-05,-31.036,2.0607
24522,18.841,2.2727,0.1,0.00011315,1130.7,0.00011257,1114.4,-3.5743e-05,-0.013732,-4.0006e-05,-32.044,2.0758
24523,18.564,2.1818,0.1,0.0001194,1193.2,0.00011887,1178.1,-3.7929e-05,-0.012457,-4.1861e-05,-29.555,2.0308
24524,18.656,2.2727,0.1,0.00011731,1172.2,0.00011676,1156.7,-3.7192e-05,-0.013179,-4.1247e-05,-30.482,2.0458
24525,18.38,2.1818,0.1,0.00012359,1235.1,0.00012309,1220.7,-3.9383e-05,-0.011961,-4.3132e-05,-28.177,2.0009
24526,18.472,2.2727,0.1,0.00012149,1214,0.00012097,1199.2,-3.8645e-05,-0.012655,-4.2507e-05,-29.028,2.0159
24527,18.196,2.1818,0.1,0.00012782,1277.3,0.00012734,1263.6,-4.0841e-05,-0.011489,-4.4419e-05,-26.893,1.9712
24528,18.288,2.2727,0.1,0.00012569,1256.1,0.0001252,1242,-4.0101e-05,-0.012166,-4.3783e-05,-27.676,1.9861
24529,18.011,2.1818,0.1,0.00013206,1319.7,0.00013161,1306.7,-4.2303e-05,-0.011049,-4.5721e-05,-25.695,1.9415
24530,18.103,2.2727,0.1,0.00012993,1298.4,0.00012946,1285,-4.1562e-05,-0.011694,-4.5076e-05,-26.416,1.9564
24531,17.827,2.1818,0.1,0.00013634,1362.4,0.0001359,1350,-4.3769e-05,-0.010654,-4.7038e-05,-24.576,1.9119
24532,17.919,2.2727,0.1,0.00013418,1340.9,0.00013374,1328.1,-4.3026e-05,-0.01127,-4.6384e-05,-25.24,1.9267
24533,17.643,2.1818,0.1,0.00014063,1405.4,0.00014022,1393.4,-4.5239e-05,-0.010285,-4.8369e-05,-23.53,1.8824
24534,17.735,2.2727,0.1,0.00013847,1383.7,0.00013804,1371.5,-4.4494e-05,-0.01089,-4.7706e-05,-24.14,1.8972
24535,17.459,2.1818,0.1,0.00014495,1448.5,0.00014456,1437.1,-4.6714e-05,-0.0099309,-4.9714e-05,-22.548,1.853
24536,17.551,2.2727,0.1,0.00014278,1426.8,0.00014237,1415.1,-4.5967e-05,-0.010518,-4.9042e-05,-23.111,1.8677
24537,17.274,2.1818,0.1,0.0001493,1491.9,0.00014892,1481,-4.8194e-05,-0.0095877,-5.1071e-05,-21.626,1.8237
24538,17.366,2.2727,0.1,0.00014711,1470.1,0.00014672,1458.9,-4.7445e-05,-0.010167,-5.0391e-05,-22.146,1.8384
24539,17.09,2.1818,0.1,0.00015367,1535.6,0.0001533,1525.1,-4.9679e-05,-0.009264,-5.244e-05,-20.757,1.7944
24540,17.182,2.2727,0.1,0.00015146,1513.6,0.00015109,1502.8,-4.8928e-05,-0.0098181,-5.1753e-05,-21.237,1.8091
24541,16.906,2.1818,0.1,0.00015806,1579.5,0.00015771,1569.4,-5.1169e-05,-0.0089782,-5.3821e-05,-19.936,1.7653
24542,16.998,2.2727,0.1,0.00015584,1557.3,0.00015548,1547,-5.0415e-05,-0.0095073,-5.3127e-05,-20.381,1.78
24543,16.721,2.1818,0.1,0.00016247,1623.6,0.00016213,1613.9,-5.2664e-05,-0.0087101,-5.5212e-05,-19.159,1.7363
24544,16.814,2.2727,0.1,0.00016024,1601.3,0.0001599,1591.4,-5.1908e-05,-0.0092342,-5.4512e-05,-19.571,1.7509
24545,16.537,2.1818,0.1,0.0001669,1667.9,0.00016658,1658.6,-5.4164e-05,-0.0084457,-5.6615e-05,-18.419,1.7074
24546,16.629,2.2727,0.1,0.00016467,1645.5,0.00016434,1636,-5.3406e-05,-0.0089589,-5.5908e-05,-18.802,1.722
24547,16.353,2.1818,0.1,0.00017136,1712.4,0.00017105,1703.5,-5.5671e-05,-0.0081825,-5.8027e-05,-17.713,1.6787
24548,16.445,2.2727,0.1,0.00016911,1689.9,0.0001688,1680.8,-5.491e-05,-0.0086945,-5.7314e-05,-18.07,1.6931
24549,16.169,2.1818,0.1,0.00017584,1757.2,0.00017555,1748.6,-5.7183e-05,-0.007932,-5.9449e-05,-17.036,1.65
24550,16.261,2.2727,0.1,0.00017358,1734.6,0.00017328,1725.8,-5.6419e-05,-0.0084223,-5.873e-05,-17.37,1.6644
24551,15.984,2.1818,0.1,0.00018034,1802.2,0.00018006,1793.9,-5.87e-05,-0.007715,-6.088e-05,-16.383,1.6215
24552,16.077,2.2727,0.1,0.00017807,1779.5,0.00017778,1771.1,-5.7934e-05,-0.008184,-6.0156e-05,-16.697,1.6358
24553,15.8,2.1818,0.1,0.00018486,1847.4,0.00018459,1839.4,-6.0224e-05,-0.0075101,-6.232e-05,-15.752,1.593
24554,15.892,2.2727,0.1,0.00018258,1824.5,0.0001823,1816.5,-5.9455e-05,-0.0079797,-6.159e-05,-16.047,1.6073
24555,15.616,2.1818,0.1,0.00018941,1892.8,0.00018915,1885.2,-6.1754e-05,-0.0073009,-6.3768e-05,-15.137,1.5648
24556,15.708,2.2727,0.1,0.00018711,1869.8,0.00018684,1862.1,-6.0982e-05,-0.0077656,-6.3033e-05,-15.416,1.579
24557,15.432,2.1818,0.1,0.00019397,1938.4,0.00019372,1931.1,-6.329e-05,-0.0070861,-6.5223e-05,-14.535,1.5366
24558,15.524,2.2727,0.1,0.00019166,1915.3,0.00019141,1907.9,-6.2515e-05,-0.0075536,-6.4484e-05,-14.801,1.5507
24559,15.247,2.1818,0.1,0.00019856,1984.2,0.00019831,1977.2,-6.4832e-05,-0.0068803,-6.6687e-05,-13.943,1.5086
24560,15.339,2.2727,0.1,0.00019624,1961,0.00019599,1953.9,-6.4055e-05,-0.0073281,-6.5943e-05,-14.197,1.5226
24561,15.063,2.1818,0.1,0.00020316,2030.2,0.00020293,2023.5,-6.6381e-05,-0.0067053,-6.8157e-05,-13.356,1.4807
24562,15.155,2.2727,0.1,0.00020083,2006.9,0.0002006,2000.1,-6.56e-05,-0.007135,-6.741e-05,-13.6,1.4947
24563,14.879,2.1818,0.1,0.00020778,2076.4,0.00020756,2070,-6.7936e-05,-0.0065369,-6.9635e-05,-12.77,1.4529
24564,14.971,2.2727,0.1,0.00020545,2053,0.00020522,2046.5,-6.7153e-05,-0.0069725,-6.8883e-05,-13.007,1.4669
24565,14.695,2.1818,0.1,0.00021243,2122.8,0.00021222,2116.7,-6.9498e-05,-0.0063588,-7.1118e-05,-12.183,1.4253
24566,14.787,2.2727,0.1,0.00021008,2099.4,0.00020987,2093.1,-6.8711e-05,-0.0067931,-7.0363e-05,-12.414,1.4392
24567,14.51,2.1818,0.1,0.00021709,2169.4,0.00021689,2163.6,-7.1066e-05,-0.0061677,-7.2608e-05,-11.59,1.3978
24568,14.602,2.2727,0.1,0.00021473,2145.9,0.00021453,2139.9,-7.0277e-05,-0.0066116,-7.1849e-05,-11.817,1.4116
24569,14.326,2.1818,0.1,0.00022178,2216.2,0.00022159,2210.7,-7.2642e-05,-0.0059795,-7.4103e-05,-10.988,1.3705
24570,14.418,2.2727,0.1,0.00021941,2192.6,0.00021921,2186.9,-7.1849e-05,-0.0064075,-7.334e-05,-11.213,1.3842
24571,14.142,2.1818,0.1,0.00022648,2263.2,0.0002263,2258,-7.4224e-05,-0.0058206,-7.5604e-05,-10.373,1.3433
24572,14.234,2.2727,0.1,0.0002241,2239.4,0.00022392,2234.1,-7.3428e-05,-0.0062333,-7.4837e-05,-10.597,1.357
24573,13.957,2.1818,0.1,0.0002312,2310.4,0.00023103,2305.5,-7.5813e-05,-0.0056615,-7.7109e-05,-9.7406,1.3163
24574,14.05,2.2727,0.1,0.00022881,2286.5,0.00022864,2281.5,-7.5014e-05,-0.0060882,-7.6339e-05,-9.9658,1.3299
24575,13.773,2.1818,0.1,0.00023594,2357.8,0.00023578,2353.2,-7.741e-05,-0.0054828,-7.8619e-05,-9.0874,1.2894
24576,13.865,2.2727,0.1,0.00023354,2333.8,0.00023338,2329.1,-7.6607e-05,-0.0059155,-7.7846e-05,-9.3153,1.3029
24577,13.589,2.1818,0.1,0.0002407,2405.3,0.00024055,2401.1,-7.9014e-05,-0.0052805,-8.0132e-05,-8.409,1.2627
24578,13.681,2.2727,0.1,0.00023829,2381.2,0.00023814,2376.9,-7.8207e-05,-0.0057339,-7.9357e-05,-8.6414,1.2761
24579,13.405,2.1818,0.1,0.00024547,2453,0.00024534,2449.2,-8.0625e-05,-0.0050694,-8.1649e-05,-7.7013,1.2361
24580,13.497,2.2727,0.1,0.00024306,2428.9,0.00024292,2424.9,-7.9815e-05,-0.0055167,-8.0871e-05,-7.9397,1.2495
24581,13.22,2.1818,0.1,0.00025027,2500.9,0.00025015,2497.5,-8.2244e-05,-0.0048729,-8.3169e-05,-6.9597,1.2098
24582,13.313,2.2727,0.1,0.00024784,2476.7,0.00024772,2473.1,-8.143e-05,-0.0053204,-8.2389e-05,-7.2058,1.223
24583,13.036,2.1818,0.1,0.00025508,2549,0.00025497,2545.9,-8.387e-05,-0.0046519,-8.4692e-05,-6.1794,1.1835
24584,13.128,2.2727,0.1,0.00025264,2524.7,0.00025253,2521.5,-8.3053e-05,-0.005136,-8.3909e-05,-6.4352,1.1967
24585,12.852,2.1818,0.1,0.00025991,2597.3,0.00025982,2594.6,-8.5505e-05,-0.0043711,-8.6217e-05,-5.3556,1.1575
24586,12.944,2.2727,0.1,0.00025746,2572.8,0.00025737,2570,-8.4684e-05,-0.0048963,-8.5432e-05,-5.6226,1.1706
24587,12.668,2.1818,0.1,0.00026475,2645.7,0.00026468,2643.5,-8.7147e-05,-0.0039974,-8.7743e-05,-4.4831,1.1317
24588,12.76,2.2727,0.1,0.0002623,2621.2,0.00026222,2618.8,-8.6323e-05,-0.0045988,-8.6956e-05,-4.7632,1.1447
24589,12.483,2.1818,0.1,0.00026962,2694.3,0.00026955,2692.5,-8.8797e-05,-0.003483,-8.927e-05,-3.5562,1.106
24590,12.575,2.2727,0.1,0.00026715,2669.7,0.00026708,2667.7,-8.7969e-05,-0.0041791,-8.8481e-05,-3.8512,1.1189
24591,12.299,2.1818,0.1,0.00027449,2743,0.00027445,2741.8,-9.0456e-05,-0.0026764,-9.0797e-05,-2.5694,1.0805
24592,12.391,2.2727,0.1,0.00027202,2718.3,0.00027197,2716.9,-8.9624e-05,-0.0035935,-9.0007e-05,-2.8812,1.0933
24593,12.115,2.1818,0.1,0.00027939,2792,0.00027936,2791.2,-9.2123e-05,-0.00080601,-9.2325e-05,-1.5171,1.0552
24594,12.207,2.2727,0.1,0.0002769,2767.1,0.00027687,2766.2,-9.1287e-05,-0.0024761,-9.1533e-05,-1.8473,1.0679
24595,11.931,2.1818,0.1,0.0002843,2841,0.00028429,2840.8,-9.3797e-05,0.011464,-9.3852e-05,-0.4017,1.03
24596,12.023,2.2727,0.1,0.00028181,2816.1,0.00028179,2815.7,-9.2959e-05,0.0019062,-9.3058e-05,-0.74526,1.0427
24597,11.746,2.1818,0.1,0.00028922,2890.2,0.00028924,2890.6,-9.5373e-05,0.83075,-9.5485e-05,-0.012698,1.0051
24598,11.838,2.2727,0.1,0.00028672,2865.2,0.00028673,2865.5,-9.4579e-05,0.45779,-9.4642e-05,-0.016486,1.0177
24599,11.562,2.1818,0.1,0.00029416,2939.6,0.0002942,2940.6,-9.6895e-05,2.1225,-9.7179e-05,-0.0078117,0.98038
24600,11.654,2.2727,0.1,0.00029165,2914.5,0.00029168,2915.4,-9.6101e-05,1.72,-9.6331e-05,-0.0079874,0.99285
24601,11.378,2.1818,0.1,0.00029911,2989.1,0.00029917,2990.8,-9.8413e-05,3.5144,-9.8882e-05,-0.0064952,0.95585
24602,11.47,2.2727,0.1,0.0002966,2963.9,0.00029665,2965.4,-9.7618e-05,3.0833,-9.803e-05,-0.0065099,0.96822
24603,11.193,2.1818,0.1,0.00030408,3038.7,0.00030416,3041.2,-9.9927e-05,5.0126,-0.00010059,-0.0058403,0.93152
24604,11.286,2.2727,0.1,0.00030155,3013.5,0.00030163,3015.7,-9.9132e-05,4.5502,-9.9738e-05,-0.0058691,0.94379
24605,11.009,2.1818,0.1,0.00030906,3088.5,0.00030917,3091.8,-0.00010144,6.6263,-0.00010232,-0.0053988,0.90739
24606,11.101,2.2727,0.1,0.00030652,3063.1,0.00030663,3066.2,-0.00010064,6.1299,-0.00010146,-0.0054431,0.91957
24607,10.825,2.1818,0.1,0.00031405,3138.3,0.00031419,3142.5,-0.00010294,8.3659,-0.00010405,-0.0050438,0.88348
24608,10.917,2.2727,0.1,0.00031151,3112.9,0.00031164,3116.8,-0.00010214,7.8322,-0.00010319,-0.0051162,0.89555
24609,10.641,2.1818,0.1,0.00031905,3188.3,0.00031923,3193.4,-0.00010443,10.242,-0.00010579,-0.0047499,0.85978
24610,10.733,2.2727,0.1,0.0003165,3162.8,0.00031666,3167.7,-0.00010364,9.6683,-0.00010492,-0.0048086,0.87175
24611,10.456,2.1818,0.1,0.00032407,3238.4,0.00032427,3244.5,-0.00010592,12.268,-0.00010755,-0.0045294,0.8363
24612,10.549,2.2727,0.1,0.00032151,3212.9,0.0003217,3218.7,-0.00010512,11.65,-0.00010667,-0.004573,0.84816
24613,10.272,2.1818,0.1,0.00032909,3288.6,0.00032933,3295.8,-0.00010739,14.455,-0.00010932,-0.0043238,0.81303
24614,10.364,2.2727,0.1,0.00032652,3263,0.00032676,3269.8,-0.0001066,13.79,-0.00010844,-0.0043925,0.82479
24615,10.088,2.1818,0.1,0.00033412,3338.9,0.00033441,3347.3,-0.00010885,16.819,-0.00011109,-0.0041106,0.78999
24616,10.18,2.2727,0.1,0.00033155,3313.2,0.00033182,3321.2,-0.00010806,16.103,-0.00011021,-0.004173,0.80164
24617,9.9036,2.1818,0.1,0.00033916,3389.3,0.00033949,3398.9,-0.0001103,19.375,-0.00011288,-0.0039099,0.76718
24618,9.9957,2.2727,0.1,0.00033658,3363.5,0.00033689,3372.8,-0.00010952,18.603,-0.00011199,-0.0039679,0.77871
24619,9.7193,2.1818,0.1,0.00034421,3439.7,0.00034458,3450.8,-0.00011174,22.139,-0.00011469,-0.0037094,0.7446
24620,9.8115,2.2727,0.1,0.00034162,3413.9,0.00034198,3424.5,-0.00011095,21.307,-0.00011379,-0.0037657,0.75602
24621,9.5351,2.1818,0.1,0.00034927,3490.3,0.00034969,3502.7,-0.00011316,25.129,-0.0001165,-0.0035092,0.72225
24622,9.6272,2.2727,0.1,0.00034667,3464.3,0.00034708,3476.4,-0.00011237,24.232,-0.0001156,-0.0035539,0.73355
24623,9.3508,2.1818,0.1,0.00035433,3540.8,0.0003548,3554.9,-0.00011455,28.365,-0.00011833,-0.0033108,0.70014
24624,9.4429,2.2727,0.1,0.00035172,3514.8,0.00035218,3528.4,-0.00011378,27.399,-0.00011742,-0.0033468,0.71133
24625,9.1665,2.1818,0.1,0.00035939,3591.4,0.00035992,3607.3,-0.00011593,31.867,-0.00012017,-0.0031088,0.67827
24626,9.2587,2.2727,0.1,0.00035678,3565.3,0.00035729,3580.7,-0.00011516,30.827,-0.00011926,-0.0031326,0.68934
24627,8.9823,2.1818,0.1,0.00036446,3642.1,0.00036505,3659.8,-0.00011729,35.66,-0.00012203,-0.0029028,0.65665
24628,9.0744,2.2727,0.1,0.00036184,3615.9,0.00036242,3633.1,-0.00011652,34.539,-0.00012111,-0.0029126,0.66759
24629,8.798,2.1818,0.1,0.00036953,3692.7,0.00037019,3712.4,-0.00011862,39.767,-0.00012391,-0.0026925,0.63527
24630,8.8901,2.2727,0.1,0.0003669,3666.5,0.00036754,3685.6,-0.00011785,38.561,-0.00012298,-0.0026845,0.64609
24631,8.6137,2.1818,0.1,0.00037459,3743.4,0.00037533,3765.3,-0.00011991,44.216,-0.0001258,-0.0024773,0.61414
24632,8.7059,2.2727,0.1,0.00037196,3717.1,0.00037268,3738.3,-0.00011916,42.92,-0.00012487,-0.0024486,0.62484
24633,8.4295,2.1818,0.1,0.00037966,3794,0.00038047,3818.3,-0.00012118,49.037,-0.00012771,-0.0022572,0.59327
24634,8.5216,2.2727,0.1,0.00037702,3767.6,0.00037781,3791.2,-0.00012043,47.643,-0.00012677,-0.0022035,0.60384
24635,8.2452,2.1818,0.1,0.00038473,3844.6,0.00038562,3871.4,-0.00012242,54.26,-0.00012964,-0.0020331,0.57266
24636,8.3373,2.2727,0.1,0.00038208,3818.2,0.00038295,3844.3,-0.00012167,52.764,-0.00012869,-0.0019498,0.5831
24637,8.0609,2.1818,0.1,0.00038979,3895.2,0.00039077,3924.8,-0.00012361,59.921,-0.00013159,-0.001806,0.55231
24638,8.1531,2.2727,0.1,0.00038714,3868.7,0.0003881,3897.5,-0.00012287,58.316,-0.00013063,-0.0016875,0.56262
24639,7.8767,2.1818,0.1,0.00039484,3945.7,0.00039592,3978.3,-0.00012476,66.057,-0.00013356,-0.001578,0.53222
24640,7.9688,2.2727,0.1,0.00039218,3919.1,0.00039324,3950.9,-0.00012403,64.339,-0.00013259,-0.0014168,0.5424
24641,7.6924,2.1818,0.1,0.00039989,3996.1,0.00040107,4032,-0.00012587,72.71,-0.00013555,-0.001353,0.5124
24642,7.7845,2.2727,0.1,0.00039722,3969.5,0.00039838,4004.5,-0.00012515,70.873,-0.00013458,-0.0011403,0.52245
24643,7.5081,2.1818,0.1,0.00040493,4046.5,0.00040623,4085.8,-0.00012693,79.923,-0.00013757,-0.001135,0.49286
24644,7.6003,2.2727,0.1,0.00040225,4019.8,0.00040352,4058.2,-0.00012621,77.963,-0.00013659,-0.00085996,0.50277
24645,7.3239,2.1818,0.1,0.00040995,4096.7,0.00041138,4139.9,-0.00012793,87.746,-0.00013961,-0.00093137,0.47359
24646,7.416,2.2727,0.1,0.00040727,4069.9,0.00040866,4112.1,-0.00012722,85.659,-0.00013862,-0.00058015,0.48337
24647,7.1396,2.1818,0.1,0.00041497,4146.8,0.00041652,4194.1,-0.00012887,96.23,-0.00014168,-0.00075172,0.4546
24648,7.2317,2.2727,0.1,0.00041228,4120,0.0004138,4166.2,-0.00012817,94.013,-0.00014068,-0.00030722,0.46424
24649,6.9553,2.1818,0.1,0.00041998,4196.9,0.00042167,4248.6,-0.00012975,105.43,-0.00014378,-0.00060859,0.4359
24650,7.0475,2.2727,0.1,0.00041728,4169.9,0.00041894,4220.5,-0.00012906,103.09,-0.00014278,-4.9508e-05,0.44539
24651,6.7711,2.1818,0.1,0.00042497,4246.8,0.00042681,4303.3,-0.00013056,115.41,-0.00014592,-0.00052024,0.41747
24652,6.8632,2.2727,0.1,0.00042226,4219.7,0.00042407,4275,-0.00012987,112.94,-0.0001449,0.00018094,0.42683
24653,6.5868,2.1818,0.1,0.00042995,4296.5,0.00043196,4358.3,-0.00013129,126.24,-0.00014809,-0.00051052,0.39934
24654,6.6789,2.2727,0.1,0.00042723,4269.3,0.0004292,4329.8,-0.00013061,123.65,-0.00014707,0.00036727,0.40856
24655,6.4025,2.1818,0.1,0.00043492,4346.2,0.0004371,4413.5,-0.00013194,137.99,-0.0001503,-0.00061208,0.38151
24656,6.4947,2.2727,0.1,0.00043218,4318.8,0.00043432,4384.9,-0.00013126,135.29,-0.00014927,0.00048604,0.39057
24657,6.2183,2.1818,0.1,0.00043988,4395.8,0.00044225,4469.2,-0.0001325,150.74,-0.00015256,-0.00086886,0.36397
24658,6.3104,2.2727,0.1,0.00043712,4368.2,0.00043945,4440.3,-0.00013183,147.93,-0.00015152,0.00050562,0.37288
24659,6.034,2.1818,0.1,0.00044484,4445.3,0.00044741,4525.3,-0.00013297,164.56,-0.00015487,-0.00134,0.34673
24660,6.1261,2.2727,0.1,0.00044206,4417.5,0.00044458,4496.1,-0.0001323,161.68,-0.00015381,0.00038313,0.35549
24661,5.8497,2.1818,0.1,0.0004498,4494.9,0.00045258,4581.9,-0.00013334,179.56,-0.00015724,-0.0021049,0.32979
24662,5.9419,2.2727,0.1,0.00044699,4466.8,0.00044973,4552.5,-0.00013266,176.63,-0.00015617,5.978e-05,0.33841
24663,5.6655,2.1818,0.1,0.00045477,4544.5,0.00045778,4639.3,-0.00013361,195.82,-0.00015967,-0.0032698,0.31316
24664,5.7576,2.2727,0.1,0.00045192,4516.1,0.00045489,4609.4,-0.00013291,192.89,-0.00015859,-0.00054313,0.32162
24665,5.4812,2.1818,0.1,0.00045976,4594.4,0.00046302,4697.4,-0.00013376,213.45,-0.00016217,-0.0049783,0.29685
24666,5.5733,2.2727,0.1,0.00045687,4565.5,0.00046009,4667.2,-0.00013305,210.56,-0.00016108,-0.0015328,0.30515
24667,5.2969,2.1818,0.1,0.00046479,4644.7,0.00046831,4756.6,-0.00013381,232.54,-0.00016476,-0.0074234,0.28084
24668,5.3891,2.2727,0.1,0.00046185,4615.3,0.00046533,4725.9,-0.00013307,229.78,-0.00016365,-0.003054,0.28899
24669,5.1127,2.1818,0.1,0.00046989,4695.7,0.00047369,4817.2,-0.00013374,253.22,-0.00016744,-0.010865,0.26516
24670,5.2048,2.2727,0.1,0.00046689,4665.6,0.00047064,4785.9,-0.00013296,250.67,-0.00016632,-0.0053015,0.27314
24671,4.9284,2.1818,0.1,0.00047509,4747.6,0.00047918,4879.4,-0.00013356,275.58,-0.00017023,-0.015653,0.24979
24672,5.0205,2.2727,0.1,0.000472,4716.8,0.00047606,4847.5,-0.00013272,273.37,-0.00016911,-0.0085398,0.25762
24673,4.7441,2.1818,0.1,0.00048043,4801,0.00048483,4943.8,-0.00013327,299.73,-0.00017316,-0.022262,0.23476
24674,4.8363,2.2727,0.1,0.00047724,4769.1,0.00048161,4911.1,-0.00013236,298.01,-0.00017202,-0.013126,0.24242
24675,4.5599,2.1818,0.1,0.00048597,4856.4,0.00049069,5011,-0.00013288,325.77,-0.00017624,-0.031336,0.22005
24676,4.652,2.2727,0.1,0.00048265,4823.2,0.00048736,4977.4,-0.00013187,324.73,-0.00017509,-0.019545,0.22754
24677,4.3756,2.1818,0.1,0.00049178,4914.4,0.00049684,5081.7,-0.00013241,353.78,-0.0001795,-0.043748,0.20567
24678,4.4677,2.2727,0.1,0.00048831,4879.7,0.00049336,5046.9,-0.00013127,353.67,-0.00017835,-0.028455,0.213
24679,4.1913,2.1818,0.1,0.00049796,4976.2,0.00050337,5156.9,-0.00013188,383.83,-0.00018298,-0.06069,0.19163
24680,4.2835,2.2727,0.1,0.0004943,4939.6,0.00049972,5120.8,-0.00013058,384.96,-0.00018182,-0.040752,0.19879
24681,4.0071,2.1818,0.1,0.00050463,5042.8,0.00051042,5237.9,-0.00013134,415.93,-0.00018671,-0.083798,0.17794
24682,4.0992,2.2727,0.1,0.00050074,5004,0.00050655,5200.1,-0.00012982,418.69,-0.00018555,-0.05766,0.18492
24683,3.8228,2.1818,0.1,0.00051196,5116.1,0.00051813,5326.2,-0.00013085,450.03,-0.00019076,-0.11532,0.16459
24684,3.9149,2.2727,0.1,0.00050779,5074.4,0.00051399,5286.5,-0.00012905,454.92,-0.00018961,-0.08086,0.17139
24685,3.6385,2.1818,0.1,0.00052016,5198,0.00052671,5423.8,-0.00013047,486.01,-0.00019518,-0.15838,0.15159
24686,3.7307,2.2727,0.1,0.00051564,5152.8,0.00052226,5381.8,-0.00012832,493.66,-0.00019404,-0.11266,0.15821
24687,3.4543,2.1818,0.1,0.00052949,5291.3,0.00053645,5533.5,-0.00013033,523.59,-0.00020004,-0.21734,0.13895
24688,3.5464,2.2727,0.1,0.00052455,5241.9,0.0005316,5488.7,-0.00012773,534.8,-0.00019893,-0.15626,0.14539
24689,3.27,2.1818,0.1,0.00054032,5399.5,0.00054768,5658.4,-0.00013058,562.29,-0.00020546,-0.29843,0.12667
24690,3.3621,2.2727,0.1,0.00053487,5345,0.00054234,5610.4,-0.00012741,578.1,-0.00020438,-0.21611,0.13293
24691,3.0857,2.1818,0.1,0.0005531,5527.2,0.00056086,5803.1,-0.00013144,601.34,-0.00021153,-0.41048,0.11477
24692,3.1779,2.2727,0.1,0.00054701,5466.4,0.00055494,5751,-0.00012755,623.1,-0.00021052,-0.29855,0.12084
24693,2.9015,2.1818,0.1,0.00056846,5680.6,0.00057661,5973,-0.00013323,639.49,-0.00021842,-0.56741,0.10325
24694,2.9936,2.2727,0.1,0.00056157,5611.8,0.00056994,5916.1,-0.0001284,669.02,-0.0002175,-0.41232,0.10913
24695,2.7172,2.1818,0.1,0.0005872,5867.9,0.00059574,6175.7,-0.00013638,674.84,-0.0002263,-0.78773,0.092116
24696,2.8093,2.2727,0.1,0.00057929,5788.9,0.00058811,6112.7,-0.00013033,714.58,-0.00022551,-0.57153,0.097799
24697,2.5329,2.1818,0.1,0.00061047,6100.5,0.00061936,6421.5,-0.00014153,704.44,-0.00023543,-1.1156,0.08139
24698,2.6251,2.2727,0.1,0.0006012,6007.9,0.00061048,6350.4,-0.00013385,757.83,-0.00023481,-0.79229,0.086872
24699,2.3487,2.1818,0.1,0.00063988,6394.4,0.00064908,6724.6,-0.00014958,723.79,-0.00024612,-1.5724,0.071084
24700,2.4408,2.2727,0.1,0.00062871,6282.8,0.00063843,6642.1,-0.00013968,795.71,-0.00024573,-1.1223,0.07636
24701,2.1644,2.1818,0.1,0.00067788,6774.1,0.00068724,7106.4,-0.00016195,725.93,-0.00025889,-2.4571,0.061218
24702,2.2565,2.2727,0.1,0.00066383,6633.7,0.00067395,7006.2,-0.00014889,823.63,-0.00025872,-1.5535,0.066282
24703,1.9801,2.1818,0.1,0.00072826,7277.6,0.00073756,7600.6,-0.00018079,700.44,-0.00027445,-3.3023,0.051817
24704,2.0723,2.2727,0.1,0.00070956,7090.7,0.00072,7469.6,-0.00016307,834.56,-0.00027447,-2.4495,0.056662
24705,1.7959,2.1818,0.1,0.00079786,7973.1,0.00080652,8264.8,-0.00020966,629.67,-0.00029451,-7.9334,0.042912
24706,1.888,2.2727,0.1,0.00077058,7700.5,0.00078115,8075.2,-0.00018468,818.33,-0.00029399,-3.0119,0.04753
24707,1.6116,2.1818,0.1,0.00089851,8978.9,0.0009057,9210.5,-0.00025471,491.64,-0.00032114,-7.5233,0.034546
24708,1.7037,2.2727,0.1,0.0008552,8546.1,0.00086538,8895.4,-0.00021769,757.61,-0.00031952,-7.5045,0.038925
24709,1.4273,2.1818,0.1,0.0010626,10619,0.0010656,10712,-0.0003288,234.72,-0.00036587,-43.87,0.026777
24710,1.5195,2.2727,0.1,0.00097763,9769.6,0.00098675,10068,-0.00026902,632.45,-0.00035384,-4.8575,0.030902
24711,1.2431,2.1818,0.1,0.0013658,13648,0.0013601,13484,-0.00044271,-61.569,-0.00046973,-264.6,0.019698
24712,1.3352,2.2727,0.1,0.0011737,11729,0.0011793,11902,-0.00035363,384.65,-0.00040855,-28.033,0.023538
24713,1.1509,2.2727,0.1,0.0015075,15065,0.0015063,15028,-0.00049199,13.893,-0.00050547,-87.345,0.016962
24714,1.0588,2.1818,0.1,0.0018433,18420,0.0018313,18074,-0.00059311,-142.45,-0.00064663,-544.6,0.013487
24715,23.724,2.3636,0.1,2.0355e-05,203.41,1.1456e-05,59.198,3.5476e-06,-0.22379,-1.8689e-05,-167.3,2.8895
24716,23.816,2.4545,0.1,1.969e-05,196.76,9.7301e-06,39.777,4.4087e-06,-0.20602,-1.8709e-05,-173.9,2.9051
24717,23.908,2.3636,0.1,1.8956e-05,189.42,8.1143e-06,22.402,5.0756e-06,-0.42912,-1.8478e-05,-177.4,2.9206
24718,23.539,2.3636,0.1,2.2309e-05,222.93,1.5014e-05,98.123,1.9239e-06,-0.22755,-1.8951e-05,-157.07,2.8584
24719,23.631,2.4545,0.1,2.141e-05,213.95,1.3287e-05,78.705,2.7678e-06,-0.33035,-1.8952e-05,-163.52,2.874
24720,23.355,2.3636,0.1,2.4635e-05,246.18,1.857e-05,136.94,3.28e-07,-0.13093,-1.9254e-05,-147.26,2.8274
24721,23.447,2.4545,0.1,2.3557e-05,235.41,1.6842e-05,117.63,1.1678e-06,-0.14351,-1.9232e-05,-153.42,2.8429
24722,23.171,2.3636,0.1,2.7241e-05,272.22,2.2132e-05,175.6,-1.2536e-06,-0.10798,-1.9602e-05,-137.97,2.7963
24723,23.263,2.4545,0.1,2.6027e-05,260.09,2.0403e-05,156.38,-4.2608e-07,-0.12588,-1.9556e-05,-143.86,2.8118
24724,22.987,2.3636,0.1,3.006e-05,300.39,2.5702e-05,214.18,-2.8157e-06,-0.085254,-1.9996e-05,-129.17,2.7652
24725,23.079,2.4545,0.1,2.874e-05,287.2,2.3969e-05,195.02,-1.9989e-06,-0.0942,-1.9923e-05,-134.77,2.7808
24726,22.802,2.3636,0.1,3.3043e-05,330.2,2.9283e-05,252.71,-4.3606e-06,-0.071868,-2.0439e-05,-120.88,2.7342
24727,22.894,2.4545,0.1,3.1639e-05,316.17,2.7544e-05,233.58,-3.5545e-06,-0.079027,-2.0338e-05,-126.18,2.7497
24728,22.618,2.3636,0.1,3.6157e-05,361.32,3.288e-05,291.24,-5.8892e-06,-0.061548,-2.0932e-05,-113.09,2.7032
24729,22.71,2.4545,0.1,3.4684e-05,346.6,3.1132e-05,272.11,-5.093e-06,-0.066749,-2.0801e-05,-118.09,2.7187
24730,22.434,2.3636,0.1,3.9378e-05,393.51,3.6497e-05,329.8,-7.4031e-06,-0.053866,-2.1474e-05,-105.78,2.6722
24731,22.526,2.4545,0.1,3.7848e-05,378.22,3.4737e-05,310.66,-6.6161e-06,-0.058014,-2.1313e-05,-110.48,2.6877
24732,22.249,2.3636,0.1,4.269e-05,426.61,4.0137e-05,368.43,-8.904e-06,-0.047794,-2.2066e-05,-98.942,2.6412
24733,22.342,2.4545,0.1,4.1109e-05,410.81,3.8363e-05,349.25,-8.1254e-06,-0.051162,-2.1874e-05,-103.35,2.6567
24734,22.065,2.3636,0.1,4.608e-05,460.49,4.3802e-05,407.16,-1.0393e-05,-0.042906,-2.2707e-05,-92.561,2.6103
24735,22.157,2.4545,0.1,4.4454e-05,444.24,4.2013e-05,387.92,-9.6222e-06,-0.04573,-2.2483e-05,-96.68,2.6258
24736,21.881,2.3636,0.1,4.954e-05,495.05,4.7494e-05,446.02,-1.1872e-05,-0.038874,-2.3395e-05,-86.615,2.5793
24737,21.973,2.4545,0.1,4.7873e-05,478.4,4.5688e-05,426.7,-1.1108e-05,-0.041292,-2.3141e-05,-90.454,2.5948
24738,21.697,2.3636,0.1,5.3061e-05,530.24,5.1214e-05,485.02,-1.3343e-05,-0.035491,-2.4129e-05,-81.082,2.5485
24739,21.789,2.4545,0.1,5.1358e-05,513.22,4.9391e-05,465.62,-1.2584e-05,-0.037594,-2.3846e-05,-84.651,2.5639
24740,21.512,2.3636,0.1,5.6639e-05,566,5.4963e-05,524.18,-1.4806e-05,-0.032618,-2.4908e-05,-75.939,2.5176
24741,21.605,2.4545,0.1,5.4901e-05,548.63,5.3122e-05,504.68,-1.4052e-05,-0.034475,-2.4596e-05,-79.251,2.5331
24742,21.328,2.3636,0.1,6.0269e-05,602.28,5.8742e-05,563.52,-1.6262e-05,-0.030144,-2.5729e-05,-71.163,2.4868
24743,21.42,2.4545,0.1,5.85e-05,584.59,5.6882e-05,543.92,-1.5513e-05,-0.031807,-2.5389e-05,-74.232,2.5022
24744,21.144,2.3636,0.1,6.3948e-05,639.04,6.255e-05,603.04,-1.7713e-05,-0.027987,-2.6591e-05,-66.732,2.456
24745,21.236,2.4545,0.1,6.2148e-05,621.06,6.0671e-05,583.33,-1.6969e-05,-0.02949,-2.6224e-05,-69.571,2.4714
24746,20.96,2.3636,0.1,6.7672e-05,676.26,6.6389e-05,642.76,-1.916e-05,-0.026087,-2.7491e-05,-62.623,2.4253
24747,21.052,2.4545,0.1,6.5845e-05,657.99,6.4491e-05,622.93,-1.8419e-05,-0.02746,-2.7099e-05,-65.247,2.4407
24748,20.775,2.3636,0.1,7.144e-05,713.9,7.0257e-05,682.67,-2.0604e-05,-0.024406,-2.8428e-05,-58.814,2.3946
24749,20.867,2.4545,0.1,6.9586e-05,695.38,6.8341e-05,662.72,-1.9865e-05,-0.025661,-2.8012e-05,-61.236,2.41
24750,20.591,2.3636,0.1,7.5248e-05,751.96,7.4155e-05,722.78,-2.2045e-05,-0.022917,-2.94e-05,-55.284,2.364
24751,20.683,2.4545,0.1,7.3369e-05,733.18,7.222e-05,702.72,-2.1309e-05,-0.02407,-2.8961e-05,-57.519,2.3793
24752,20.407,2.3636,0.1,7.9095e-05,790.4,7.8081e-05,763.1,-2.3484e-05,-0.021584,-3.0404e-05,-52.015,2.3334
24753,20.499,2.4545,0.1,7.7192e-05,771.39,7.6129e-05,742.92,-2.275e-05,-0.022658,-2.9944e-05,-54.074,2.3487
24754,20.223,2.3636,0.1,8.2979e-05,829.22,8.2037e-05,803.63,-2.4923e-05,-0.020378,-3.1439e-05,-48.986,2.3029
24755,20.315,2.4545,0.1,8.1054e-05,809.98,8.0068e-05,783.33,-2.4189e-05,-0.02138,-3.0959e-05,-50.883,2.3182
24756,20.038,2.3636,0.1,8.6899e-05,868.39,8.6021e-05,844.37,-2.636e-05,-0.019281,-3.2504e-05,-46.181,2.2724
24757,20.13,2.4545,0.1,8.4952e-05,848.93,8.4035e-05,823.94,-2.5628e-05,-0.020224,-3.2004e-05,-47.928,2.2877
24758,19.854,2.3636,0.1,9.0853e-05,907.9,9.0033e-05,885.32,-2.7798e-05,-0.018284,-3.3596e-05,-43.582,2.242
24759,19.946,2.4545,0.1,8.8885e-05,888.24,8.803e-05,864.77,-2.7067e-05,-0.019163,-3.3079e-05,-45.19,2.2572
24760,19.67,2.3636,0.1,9.484e-05,947.75,9.4072e-05,926.48,-2.9237e-05,-0.017387,-3.4715e-05,-41.175,2.2116
24761,19.762,2.4545,0.1,9.2853e-05,927.89,9.2053e-05,905.82,-2.8506e-05,-0.018209,-3.418e-05,-42.655,2.2268
24762,19.485,2.3636,0.1,9.8859e-05,987.91,9.8139e-05,967.85,-3.0677e-05,-0.016566,-3.5858e-05,-38.944,2.1813
24763,19.578,2.4545,0.1,9.6853e-05,967.86,9.6104e-05,947.07,-2.9946e-05,-0.017349,-3.5308e-05,-40.306,2.1965
24764,19.301,2.3636,0.1,0.00010291,1028.4,0.00010223,1009.4,-3.2118e-05,-0.015807,-3.7024e-05,-36.876,2.1511
24765,19.393,2.4545,0.1,0.00010088,1008.2,0.00010018,988.54,-3.1387e-05,-0.01655,-3.6459e-05,-38.129,2.1662
24766,19.117,2.3636,0.1,0.00010699,1069.2,0.00010635,1051.2,-3.3562e-05,-0.015101,-3.8212e-05,-34.958,2.1209
24767,19.209,2.4545,0.1,0.00010495,1048.8,0.00010429,1030.2,-3.283e-05,-0.015814,-3.7634e-05,-36.111,2.136
24768,18.933,2.3636,0.1,0.0001111,1110.2,0.0001105,1093.2,-3.5008e-05,-0.01445,-3.9422e-05,-33.179,2.0908
24769,19.025,2.4545,0.1,0.00010904,1089.6,0.00010842,1072.1,-3.4275e-05,-0.015122,-3.883e-05,-34.24,2.1059
24770,18.748,2.3636,0.1,0.00011524,1151.6,0.00011467,1135.5,-3.6456e-05,-0.013862,-4.065e-05,-31.527,2.0608
24771,18.841,2.4545,0.1,0.00011316,1130.8,0.00011257,1114.2,-3.5723e-05,-0.014497,-4.0047e-05,-32.503,2.0759
24772,18.564,2.3636,0.1,0.0001194,1193.2,0.00011886,1177.9,-3.7908e-05,-0.013316,-4.1898e-05,-29.991,2.0309
24773,18.656,2.4545,0.1,0.00011731,1172.3,0.00011675,1156.5,-3.7173e-05,-0.01393,-4.1283e-05,-30.891,2.0459
24774,18.38,2.3636,0.1,0.00012359,1235.1,0.00012308,1220.5,-3.9363e-05,-0.012802,-4.3163e-05,-28.564,2.001
24775,18.472,2.4545,0.1,0.00012149,1214,0.00012096,1199.1,-3.8627e-05,-0.013393,-4.2537e-05,-29.392,2.016
24776,18.196,2.3636,0.1,0.00012781,1277.2,0.00012732,1263.4,-4.0822e-05,-0.012315,-4.4445e-05,-27.234,1.9713
24777,18.288,2.4545,0.1,0.00012569,1256,0.00012519,1241.8,-4.0084e-05,-0.012889,-4.3809e-05,-27.997,1.9862
24778,18.011,2.3636,0.1,0.00013205,1319.6,0.00013159,1306.4,-4.2285e-05,-0.01186,-4.5743e-05,-25.995,1.9416
24779,18.103,2.4545,0.1,0.00012992,1298.3,0.00012945,1284.7,-4.1545e-05,-0.012406,-4.5097e-05,-26.699,1.9565
24780,17.827,2.3636,0.1,0.00013632,1362.3,0.00013588,1349.7,-4.3752e-05,-0.011451,-4.7056e-05,-24.838,1.912
24781,17.919,2.4545,0.1,0.00013418,1340.8,0.00013372,1327.9,-4.301e-05,-0.011969,-4.6401e-05,-25.488,1.9268
24782,17.643,2.3636,0.1,0.00014062,1405.2,0.0001402,1393.2,-4.5223e-05,-0.01107,-4.8383e-05,-23.757,1.8825
24783,17.735,2.4545,0.1,0.00013846,1383.6,0.00013803,1371.3,-4.448e-05,-0.011578,-4.772e-05,-24.356,1.8973
24784,17.459,2.3636,0.1,0.00014494,1448.4,0.00014453,1436.8,-4.6699e-05,-0.010703,-4.9724e-05,-22.743,1.8531
24785,17.551,2.4545,0.1,0.00014276,1426.6,0.00014235,1414.8,-4.5953e-05,-0.011196,-4.9053e-05,-23.297,1.8678
24786,17.274,2.3636,0.1,0.00014928,1491.7,0.00014889,1480.7,-4.8179e-05,-0.010348,-5.1078e-05,-21.791,1.8238
24787,17.366,2.4545,0.1,0.00014709,1469.9,0.0001467,1458.6,-4.7432e-05,-0.010835,-5.0399e-05,-22.305,1.8385
24788,17.09,2.3636,0.1,0.00015364,1535.4,0.00015328,1524.8,-4.9664e-05,-0.010013,-5.2444e-05,-20.895,1.7946
24789,17.182,2.4545,0.1,0.00015144,1513.4,0.00015107,1502.6,-4.8915e-05,-0.010476,-5.1758e-05,-21.371,1.8092
24790,16.906,2.3636,0.1,0.00015803,1579.2,0.00015768,1569.1,-5.1155e-05,-0.0097162,-5.3822e-05,-20.049,1.7655
24791,16.998,2.4545,0.1,0.00015582,1557.1,0.00015546,1546.8,-5.0403e-05,-0.010157,-5.3129e-05,-20.492,1.7801
24792,16.721,2.3636,0.1,0.00016244,1623.3,0.00016211,1613.6,-5.2651e-05,-0.009437,-5.5211e-05,-19.247,1.7365
24793,16.814,2.4545,0.1,0.00016022,1601.1,0.00015988,1591.2,-5.1897e-05,-0.0098748,-5.4512e-05,-19.66,1.751
24794,16.537,2.3636,0.1,0.00016688,1667.6,0.00016655,1658.3,-5.4152e-05,-0.0091627,-5.6611e-05,-18.486,1.7076
24795,16.629,2.4545,0.1,0.00016464,1645.3,0.00016431,1635.8,-5.3395e-05,-0.0095905,-5.5906e-05,-18.871,1.7221
24796,16.353,2.3636,0.1,0.00017133,1712.2,0.00017102,1703.2,-5.5659e-05,-0.0088903,-5.8021e-05,-17.759,1.6788
24797,16.445,2.4545,0.1,0.00016909,1689.7,0.00016877,1680.6,-5.4899e-05,-0.0093187,-5.731e-05,-18.12,1.6933
24798,16.169,2.3636,0.1,0.00017581,1756.9,0.00017551,1748.3,-5.7171e-05,-0.0086313,-5.9441e-05,-17.062,1.6502
24799,16.261,2.4545,0.1,0.00017355,1734.3,0.00017325,1725.6,-5.6409e-05,-0.0090388,-5.8724e-05,-17.402,1.6645
24800,15.984,2.3636,0.1,0.00018031,1801.9,0.00018003,1793.6,-5.869e-05,-0.0084066,-6.087e-05,-16.392,1.6216
24801,16.077,2.4545,0.1,0.00017804,1779.2,0.00017775,1770.8,-5.7925e-05,-0.0087945,-6.0148e-05,-16.713,1.6359
24802,15.8,2.3636,0.1,0.00018483,1847,0.00018456,1839.1,-6.0214e-05,-0.0081939,-6.2308e-05,-15.742,1.5932
24803,15.892,2.4545,0.1,0.00018255,1824.3,0.00018227,1816.2,-5.9446e-05,-0.008583,-6.1581e-05,-16.047,1.6075
24804,15.616,2.3636,0.1,0.00018937,1892.4,0.00018911,1884.8,-6.1744e-05,-0.0079777,-6.3754e-05,-15.111,1.5649
24805,15.708,2.4545,0.1,0.00018708,1869.5,0.00018682,1861.8,-6.0974e-05,-0.0083626,-6.3022e-05,-15.402,1.5791
24806,15.432,2.3636,0.1,0.00019394,1938,0.00019369,1930.7,-6.328e-05,-0.0077559,-6.5208e-05,-14.493,1.5368
24807,15.524,2.4545,0.1,0.00019163,1915,0.00019138,1907.6,-6.2507e-05,-0.0081461,-6.4472e-05,-14.771,1.5509
24808,15.247,2.3636,0.1,0.00019852,1983.8,0.00019828,1976.8,-6.4823e-05,-0.0075439,-6.667e-05,-13.884,1.5087
24809,15.339,2.4545,0.1,0.00019621,1960.7,0.00019596,1953.6,-6.4047e-05,-0.0079148,-6.5929e-05,-14.153,1.5228
24810,15.063,2.3636,0.1,0.00020312,2029.8,0.00020289,2023.2,-6.6372e-05,-0.0073641,-6.8139e-05,-13.281,1.4808
24811,15.155,2.4545,0.1,0.0002008,2006.6,0.00020057,1999.8,-6.5593e-05,-0.0077172,-6.7394e-05,-13.542,1.4948
24812,14.879,2.3636,0.1,0.00020775,2076,0.00020753,2069.7,-6.7928e-05,-0.0071914,-6.9614e-05,-12.68,1.4531
24813,14.971,2.4545,0.1,0.00020541,2052.7,0.00020519,2046.2,-6.7145e-05,-0.007551,-6.8866e-05,-12.935,1.467
24814,14.695,2.3636,0.1,0.00021239,2122.4,0.00021218,2116.4,-6.949e-05,-0.0070094,-7.1096e-05,-12.077,1.4255
24815,14.787,2.4545,0.1,0.00021005,2099,0.00020983,2092.8,-6.8704e-05,-0.0073689,-7.0344e-05,-12.328,1.4393
24816,14.51,2.3636,0.1,0.00021705,2169,0.00021685,2163.3,-7.1059e-05,-0.0068157,-7.2584e-05,-11.468,1.398
24817,14.602,2.4545,0.1,0.0002147,2145.5,0.0002145,2139.6,-7.027e-05,-0.0071854,-7.1829e-05,-11.718,1.4118
24818,14.326,2.3636,0.1,0.00022173,2215.8,0.00022155,2210.4,-7.2635e-05,-0.0066265,-7.4078e-05,-10.849,1.3707
24819,14.418,2.4545,0.1,0.00021937,2192.2,0.00021918,2186.6,-7.1843e-05,-0.0069805,-7.3319e-05,-11.099,1.3844
24820,14.142,2.3636,0.1,0.00022644,2262.8,0.00022626,2257.7,-7.4218e-05,-0.006467,-7.5577e-05,-10.217,1.3435
24821,14.234,2.4545,0.1,0.00022406,2239.1,0.00022388,2233.8,-7.3422e-05,-0.0068068,-7.4814e-05,-10.468,1.3571
24822,13.957,2.3636,0.1,0.00023116,2310,0.00023099,2305.2,-7.5807e-05,-0.0063092,-7.708e-05,-9.5674,1.3165
24823,14.05,2.4545,0.1,0.00022877,2286.1,0.0002286,2281.2,-7.5009e-05,-0.0066625,-7.6315e-05,-9.822,1.33
24824,13.773,2.3636,0.1,0.00023589,2357.3,0.00023574,2352.9,-7.7405e-05,-0.0061348,-7.8588e-05,-8.8958,1.2896
24825,13.865,2.4545,0.1,0.0002335,2333.4,0.00023334,2328.8,-7.6602e-05,-0.0064947,-7.782e-05,-9.1558,1.3031
24826,13.589,2.3636,0.1,0.00024065,2404.8,0.00024051,2400.7,-7.9009e-05,-0.0059399,-8.0099e-05,-8.1982,1.2629
24827,13.681,2.4545,0.1,0.00023825,2380.8,0.0002381,2376.6,-7.8203e-05,-0.0063192,-7.9329e-05,-8.4653,1.2763
24828,13.405,2.3636,0.1,0.00024543,2452.6,0.0002453,2448.8,-8.0621e-05,-0.0057395,-8.1614e-05,-7.4699,1.2364
24829,13.497,2.4545,0.1,0.00024301,2428.5,0.00024288,2424.6,-7.9811e-05,-0.0061121,-8.0841e-05,-7.7461,1.2497
24830,13.22,2.3636,0.1,0.00025022,2500.5,0.0002501,2497.1,-8.224e-05,-0.0055584,-8.3132e-05,-6.7066,1.21
24831,13.313,2.4545,0.1,0.0002478,2476.3,0.00024768,2472.8,-8.1427e-05,-0.0059298,-8.2357e-05,-6.9938,1.2232
24832,13.036,2.3636,0.1,0.00025503,2548.5,0.00025493,2545.6,-8.3867e-05,-0.0053602,-8.4652e-05,-5.9032,1.1838
24833,13.128,2.4545,0.1,0.0002526,2524.2,0.00025249,2521.1,-8.305e-05,-0.0057673,-8.3875e-05,-6.2034,1.1969
24834,12.852,2.3636,0.1,0.00025985,2596.8,0.00025977,2594.2,-8.5502e-05,-0.0051128,-8.6174e-05,-5.0546,1.1577
24835,12.944,2.4545,0.1,0.00025742,2572.4,0.00025732,2569.7,-8.4681e-05,-0.0055586,-8.5395e-05,-5.3698,1.1708
24836,12.668,2.3636,0.1,0.0002647,2645.2,0.00026463,2643.1,-8.7145e-05,-0.0047884,-8.7697e-05,-4.1554,1.1319
24837,12.76,2.4545,0.1,0.00026225,2620.7,0.00026217,2618.4,-8.6321e-05,-0.0053076,-8.6917e-05,-4.4878,1.1449
24838,12.483,2.3636,0.1,0.00026956,2693.7,0.0002695,2692.1,-8.8796e-05,-0.0043467,-8.9221e-05,-3.1998,1.1062
24839,12.575,2.4545,0.1,0.0002671,2669.2,0.00026704,2667.4,-8.7968e-05,-0.0049589,-8.844e-05,-3.5515,1.1191
24840,12.299,2.3636,0.1,0.00027443,2742.4,0.0002744,2741.4,-9.0455e-05,-0.0036352,-9.0745e-05,-2.182,1.0807
24841,12.391,2.4545,0.1,0.00027197,2717.8,0.00027192,2716.5,-8.9623e-05,-0.0044871,-8.9963e-05,-2.5553,1.0935
24842,12.115,2.3636,0.1,0.00027933,2791.3,0.00027931,2790.8,-9.2123e-05,-0.0016472,-9.2269e-05,-1.0963,1.0554
24843,12.207,2.4545,0.1,0.00027685,2766.6,0.00027683,2765.9,-9.1287e-05,-0.0035291,-9.1486e-05,-1.4929,1.0681
24844,11.931,2.3636,0.1,0.00028423,2840.4,0.00028423,2840.4,-9.3786e-05,0.10752,-9.3805e-05,-0.041665,1.0303
24845,12.023,2.4545,0.1,0.00028175,2815.6,0.00028174,2815.4,-9.2959e-05,0.0031155,-9.3008e-05,-0.36265,1.0429
24846,11.746,2.3636,0.1,0.00028915,2889.5,0.00028918,2890.2,-9.531e-05,1.3216,-9.5487e-05,-0.0082203,1.0054
24847,11.838,2.4545,0.1,0.00028666,2864.6,0.00028668,2865.1,-9.4526e-05,0.86706,-9.4642e-05,-0.0088258,1.0179
24848,11.562,2.3636,0.1,0.00029409,2938.9,0.00029413,2940.2,-9.6827e-05,2.6592,-9.7182e-05,-0.006515,0.98063
24849,11.654,2.4545,0.1,0.00029159,2913.9,0.00029163,2915,-9.6043e-05,2.1714,-9.6333e-05,-0.0065469,0.99308
24850,11.378,2.3636,0.1,0.00029904,2988.3,0.00029911,2990.4,-9.834e-05,4.0981,-9.8886e-05,-0.0058581,0.95611
24851,11.47,2.4545,0.1,0.00029653,2963.3,0.00029659,2965,-9.7556e-05,3.5745,-9.8033e-05,-0.0058546,0.96845
24852,11.193,2.3636,0.1,0.000304,3037.9,0.0003041,3040.7,-9.9848e-05,5.647,-0.0001006,-0.0054665,0.93178
24853,11.286,2.4545,0.1,0.00030149,3012.8,0.00030157,3015.3,-9.9065e-05,5.0841,-9.9742e-05,-0.0054954,0.94402
24854,11.009,2.3636,0.1,0.00030898,3087.6,0.0003091,3091.3,-0.00010135,7.3157,-0.00010232,-0.0051583,0.90766
24855,11.101,2.4545,0.1,0.00030645,3062.4,0.00030657,3065.8,-0.00010057,6.7101,-0.00010146,-0.0052063,0.9198
24856,10.825,2.3636,0.1,0.00031396,3137.4,0.00031412,3142,-0.00010285,9.1152,-0.00010406,-0.0048788,0.88375
24857,10.917,2.4545,0.1,0.00031143,3112.2,0.00031157,3116.4,-0.00010206,8.4629,-0.00010319,-0.0049561,0.89579
24858,10.641,2.3636,0.1,0.00031896,3187.4,0.00031915,3192.9,-0.00010433,11.057,-0.0001058,-0.0046289,0.86006
24859,10.733,2.4545,0.1,0.00031642,3162,0.0003166,3167.2,-0.00010355,10.354,-0.00010493,-0.004693,0.87199
24860,10.456,2.3636,0.1,0.00032397,3237.4,0.00032419,3244,-0.00010581,13.154,-0.00010756,-0.004433,0.83658
24861,10.549,2.4545,0.1,0.00032142,3212,0.00032163,3218.2,-0.00010503,12.396,-0.00010668,-0.0044836,0.8484
24862,10.272,2.3636,0.1,0.00032898,3287.6,0.00032924,3295.2,-0.00010728,15.419,-0.00010933,-0.0042385,0.81332
24863,10.364,2.4545,0.1,0.00032643,3262.1,0.00032668,3269.4,-0.0001065,14.601,-0.00010845,-0.004316,0.82503
24864,10.088,2.3636,0.1,0.00033401,3337.8,0.00033431,3346.7,-0.00010873,17.869,-0.00011111,-0.0040272,0.79028
24865,10.18,2.4545,0.1,0.00033145,3312.2,0.00033174,3320.7,-0.00010796,16.985,-0.00011022,-0.004101,0.80189
24866,9.9036,2.3636,0.1,0.00033904,3388.1,0.00033939,3398.3,-0.00011017,20.518,-0.0001129,-0.003821,0.76747
24867,9.9957,2.4545,0.1,0.00033648,3362.5,0.00033681,3372.2,-0.0001094,19.564,-0.00011201,-0.0038933,0.77897
24868,9.7193,2.3636,0.1,0.00034408,3438.5,0.00034448,3450.1,-0.00011159,23.384,-0.0001147,-0.0036082,0.74489
24869,9.8115,2.4545,0.1,0.00034151,3412.8,0.00034189,3423.9,-0.00011083,22.354,-0.00011381,-0.0036828,0.75627
24870,9.5351,2.3636,0.1,0.00034913,3488.9,0.00034957,3502,-0.000113,26.486,-0.00011652,-0.0033903,0.72255
24871,9.6272,2.4545,0.1,0.00034655,3463.1,0.00034698,3475.8,-0.00011224,25.374,-0.00011562,-0.0034573,0.73381
24872,9.3508,2.3636,0.1,0.00035418,3539.3,0.00035468,3554.2,-0.00011438,29.846,-0.00011835,-0.0031684,0.70044
24873,9.4429,2.4545,0.1,0.0003516,3513.6,0.00035208,3527.8,-0.00011363,28.644,-0.00011744,-0.003232,0.71159
24874,9.1665,2.3636,0.1,0.00035923,3589.8,0.00035979,3606.5,-0.00011574,33.485,-0.0001202,-0.0029376,0.67858
24875,9.2587,2.4545,0.1,0.00035665,3564,0.00035718,3580,-0.000115,32.186,-0.00011928,-0.0029943,0.6896
24876,8.9823,2.3636,0.1,0.00036429,3640.4,0.00036491,3658.9,-0.00011708,37.428,-0.00012206,-0.002697,0.65696
24877,9.0744,2.4545,0.1,0.0003617,3614.5,0.0003623,3632.3,-0.00011634,36.025,-0.00012114,-0.0027464,0.66786
24878,8.798,2.3636,0.1,0.00036934,3690.9,0.00037003,3711.5,-0.00011839,41.701,-0.00012394,-0.0024452,0.63558
24879,8.8901,2.4545,0.1,0.00036675,3664.9,0.00036741,3684.9,-0.00011766,40.186,-0.00012301,-0.0024848,0.64636
24880,8.6137,2.3636,0.1,0.0003744,3741.4,0.00037516,3764.3,-0.00011967,46.334,-0.00012584,-0.0021816,0.61446
24881,8.7059,2.4545,0.1,0.0003718,3715.4,0.00037254,3737.5,-0.00011895,44.698,-0.0001249,-0.0022094,0.62512
24882,8.4295,2.3636,0.1,0.00037945,3791.9,0.00038029,3817.3,-0.00012092,51.359,-0.00012775,-0.0019052,0.59359
24883,8.5216,2.4545,0.1,0.00037684,3765.8,0.00037766,3790.4,-0.00012021,49.593,-0.00012681,-0.0019185,0.60412
24884,8.2452,2.3636,0.1,0.00038449,3842.3,0.00038543,3870.4,-0.00012213,56.81,-0.00012969,-0.001616,0.57298
24885,8.3373,2.4545,0.1,0.00038189,3816.2,0.00038279,3843.4,-0.00012143,54.904,-0.00012873,-0.0016111,0.58338
24886,8.0609,2.3636,0.1,0.00038954,3892.7,0.00039056,3923.6,-0.00012329,62.725,-0.00013164,-0.0013133,0.55263
24887,8.1531,2.4545,0.1,0.00038692,3866.6,0.00038792,3896.5,-0.0001226,60.669,-0.00013068,-0.0012868,0.56291
24888,7.8767,2.3636,0.1,0.00039457,3943,0.0003957,3977.1,-0.00012441,69.146,-0.00013362,-0.00099774,0.53255
24889,7.9688,2.4545,0.1,0.00039195,3916.8,0.00039305,3949.9,-0.00012374,66.929,-0.00013265,-0.00094384,0.54269
24890,7.6924,2.3636,0.1,0.00039959,3993.2,0.00040083,4030.7,-0.00012549,76.119,-0.00013562,-0.00067024,0.51274
24891,7.7845,2.4545,0.1,0.00039697,3967,0.00039818,4003.4,-0.00012482,73.73,-0.00013464,-0.00058312,0.52274
24892,7.5081,2.3636,0.1,0.0004046,4043.3,0.00040596,4084.4,-0.0001265,83.692,-0.00013764,-0.00033309,0.49319
24893,7.6003,2.4545,0.1,0.00040198,4017.1,0.0004033,4057,-0.00012586,81.12,-0.00013665,-0.00020445,0.50307
24894,7.3239,2.3636,0.1,0.0004096,4093.2,0.00041109,4138.4,-0.00012746,91.921,-0.0001397,1.0235e-05,0.47393
24895,7.416,2.4545,0.1,0.00040698,4067,0.00040842,4110.8,-0.00012683,89.154,-0.0001387,0.00019006,0.48366
24896,7.1396,2.3636,0.1,0.00041459,4143,0.00041621,4192.6,-0.00012836,100.87,-0.00014178,0.00035435,0.45494
24897,7.2317,2.4545,0.1,0.00041196,4116.8,0.00041354,4164.8,-0.00012774,97.893,-0.00014077,0.00059864,0.46454
24898,6.9553,2.3636,0.1,0.00041956,4192.7,0.00042133,4246.9,-0.00012918,110.59,-0.0001439,0.00069119,0.43624
24899,7.0475,2.4545,0.1,0.00041693,4166.4,0.00041865,4219.1,-0.00012858,107.4,-0.00014287,0.0010162,0.44569
24900,6.7711,2.3636,0.1,0.00042452,4242.2,0.00042645,4301.5,-0.00012992,121.17,-0.00014605,0.0010098,0.41782
24901,6.8632,2.4545,0.1,0.00042188,4215.9,0.00042376,4273.5,-0.00012934,117.76,-0.00014501,0.0014357,0.42713
24902,6.5868,2.3636,0.1,0.00042946,4291.6,0.00043156,4356.4,-0.00013058,132.69,-0.00014824,0.0012933,0.39969
24903,6.6789,2.4545,0.1,0.00042681,4265.2,0.00042886,4328.2,-0.00013002,129.03,-0.00014719,0.0018475,0.40886
24904,6.4025,2.3636,0.1,0.00043438,4340.8,0.00043667,4411.6,-0.00013115,145.23,-0.00015048,0.0015187,0.38185
24905,6.4947,2.4545,0.1,0.00043173,4314.3,0.00043396,4383.2,-0.0001306,141.32,-0.00014941,0.0022351,0.39087
24906,6.2183,2.3636,0.1,0.0004393,4389.9,0.00044178,4467.2,-0.00013162,158.88,-0.00015277,0.0016547,0.36431
24907,6.3104,2.4545,0.1,0.00043663,4363.3,0.00043905,4438.6,-0.00013109,154.72,-0.00015168,0.0025777,0.37319
24908,6.034,2.3636,0.1,0.0004442,4439,0.0004469,4523.3,-0.00013198,173.75,-0.00015511,0.0016578,0.34707
24909,6.1261,2.4545,0.1,0.00044152,4412.1,0.00044415,4494.4,-0.00013147,169.34,-0.00015401,0.0028443,0.3558
24910,5.8497,2.3636,0.1,0.00044911,4488,0.00045204,4580,-0.00013223,189.96,-0.00015752,0.0014685,0.33014
24911,5.9419,2.4545,0.1,0.0004464,4460.9,0.00044926,4550.7,-0.00013173,185.3,-0.0001564,0.0029929,0.33871
24912,5.6655,2.3636,0.1,0.00045402,4537.1,0.0004572,4637.4,-0.00013236,207.64,-0.00016,0.0010056,0.31351
24913,5.7576,2.4545,0.1,0.00045129,4509.8,0.00045439,4607.7,-0.00013187,202.73,-0.00015885,0.0029645,0.32193
24914,5.4812,2.3636,0.1,0.00045896,4586.5,0.0004624,4695.7,-0.00013236,226.9,-0.00016256,0.00015816,0.29719
24915,5.5733,2.4545,0.1,0.00045619,4558.7,0.00045955,4665.6,-0.00013188,221.76,-0.00016139,0.0026784,0.30545
24916,5.2969,2.3636,0.1,0.00046394,4636.2,0.00046766,4755.2,-0.00013222,247.92,-0.00016522,-0.0012237,0.28119
24917,5.3891,2.4545,0.1,0.00046112,4608,0.00046476,4724.5,-0.00013174,242.57,-0.00016403,0.0020237,0.28929
24918,5.1127,2.3636,0.1,0.00046899,4686.7,0.00047301,4816.2,-0.00013194,270.83,-0.00016799,-0.003344,0.2655
24919,5.2048,2.4545,0.1,0.0004661,4657.8,0.00047005,4784.8,-0.00013146,265.32,-0.00016677,0.00084955,0.27344
24920,4.9284,2.3636,0.1,0.00047415,4738.2,0.00047849,4879.2,-0.00013152,295.8,-0.00017089,-0.0064802,0.25014
24921,5.0205,2.4545,0.1,0.00047118,4708.5,0.00047544,4846.9,-0.00013102,290.18,-0.00016964,-0.0010509,0.25792
24922,4.7441,2.3636,0.1,0.00047946,4791.3,0.00048414,4944.6,-0.00013096,323.01,-0.00017395,-0.011008,0.2351
24923,4.8363,2.4545,0.1,0.00047638,4760.5,0.00048098,4911.3,-0.00013042,317.37,-0.00017266,-0.0039588,0.24271
24924,4.5599,2.3636,0.1,0.00048499,4846.6,0.00049003,5013.3,-0.00013026,352.64,-0.0001772,-0.017442,0.22038
24925,4.652,2.4545,0.1,0.00048177,4814.4,0.00048674,4978.6,-0.00012967,347.08,-0.00017587,-0.0082588,0.22784
24926,4.3756,2.3636,0.1,0.00049083,4904.9,0.00049624,5086,-0.00012944,384.85,-0.00018067,-0.026478,0.20601
24927,4.4677,2.4545,0.1,0.00048743,4871,0.00049278,5049.6,-0.00012877,379.52,-0.00017929,-0.014476,0.21329
24928,4.1913,2.3636,0.1,0.00049709,4967.4,0.00050289,5164,-0.00012852,419.82,-0.0001844,-0.039072,0.19196
24929,4.2835,2.4545,0.1,0.00049346,4931.2,0.00049921,5125.5,-0.00012774,414.91,-0.00018296,-0.023328,0.19908
24930,4.0071,2.3636,0.1,0.0005039,5035.6,0.00051012,5248.7,-0.00012753,457.68,-0.00018845,-0.056531,0.17826
24931,4.0992,2.4545,0.1,0.00049999,4996.5,0.00050616,5207.7,-0.0001266,453.46,-0.00018695,-0.035801,0.1852
24932,3.8228,2.3636,0.1,0.00051147,5111.2,0.00051813,5342.2,-0.00012652,498.55,-0.00019288,-0.080653,0.16491
24933,3.9149,2.4545,0.1,0.0005072,5068.5,0.0005138,5297.9,-0.00012538,495.34,-0.00019132,-0.05325,0.17167
24934,3.6385,2.3636,0.1,0.00052005,5196.9,0.00052714,5446.8,-0.00012558,542.45,-0.00019779,-0.11392,0.15191
24935,3.7307,2.4545,0.1,0.00051531,5149.6,0.00052237,5398.5,-0.00012416,540.71,-0.00019614,-0.077545,0.15849
24936,3.4543,2.3636,0.1,0.00052994,5295.7,0.00053749,5565.7,-0.00012482,589.31,-0.00020327,-0.15975,0.13926
24937,3.5464,2.4545,0.1,0.00052462,5242.6,0.00053216,5512.4,-0.00012303,589.64,-0.00020152,-0.11127,0.14567
24938,3.27,2.3636,0.1,0.00054157,5412,0.0005496,5703,-0.00012438,638.93,-0.00020945,-0.22294,0.12699
24939,3.3621,2.4545,0.1,0.00053553,5351.6,0.00054355,5643.5,-0.00012211,642.08,-0.00020758,-0.15802,0.13321
24940,3.0857,2.3636,0.1,0.0005555,5551.1,0.00056401,5864,-0.00012451,690.83,-0.00021649,-0.31014,0.11508
24941,3.1779,2.4545,0.1,0.00054852,5481.4,0.00055704,5796.8,-0.00012159,697.83,-0.00021449,-0.22277,0.12111
24942,2.9015,2.3636,0.1,0.00057242,5720.3,0.00058143,6055.7,-0.00012549,744.22,-0.0002246,-0.43097,0.10356
24943,2.9936,2.4545,0.1,0.00056426,5638.7,0.0005733,5978.5,-0.00012173,756.4,-0.00022244,-0.31243,0.1094
24944,2.7172,2.3636,0.1,0.00059331,5929,0.00060283,6287.2,-0.00012777,797.78,-0.00023403,-0.59856,0.092431
24945,2.8093,2.4545,0.1,0.00058362,5832.2,0.0005932,6197.3,-0.00012289,816.92,-0.00023167,-0.4369,0.098069
24946,2.5329,2.3636,0.1,0.00061946,6190.3,0.0006295,6570.7,-0.00013195,849.44,-0.00024512,-0.83538,0.081713
24947,2.6251,2.4545,0.1,0.00060777,6073.5,0.0006179,6464.3,-0.00012559,877.94,-0.00024252,-0.60917,0.087147
24948,2.3487,2.3636,0.1,0.00065266,6522.1,0.00066324,6923.1,-0.00013891,896.09,-0.00025833,-1.1662,0.071423
24949,2.4408,2.4545,0.1,0.00063825,6378.1,0.00064898,6794.3,-0.00013056,937.15,-0.0002554,-0.85099,0.076645
24950,2.1644,2.3636,0.1,0.00069551,6950.3,0.00070662,7368.7,-0.00014991,933.05,-0.00027431,-1.6649,0.061582
24951,2.2565,2.4545,0.1,0.00067724,6767.7,0.0006886,7207.9,-0.00013882,991.01,-0.00027087,-1.1855,0.066584
24952,1.9801,2.3636,0.1,0.0007519,7513.8,0.0007635,7943.6,-0.00016683,953.39,-0.00029404,-2.4161,0.05222
24953,2.0723,2.4545,0.1,0.0007278,7273,0.00073981,7733.7,-0.00015184,1034.2,-0.00028971,-1.6646,0.056992
24954,1.7959,2.3636,0.1,0.00082807,8275,0.00084002,8705.8,-0.00019263,946.87,-0.00031908,-3.2211,0.043374
24955,1.888,2.4545,0.1,0.00079446,7939.1,0.00080709,8414,-0.00017181,1058.9,-0.00031306,-2.4086,0.047902
24956,1.6116,2.3636,0.1,0.000935,9343.5,0.00094685,9755.8,-0.00023207,897.84,-0.00035255,-7.3959,0.035092
24957,1.7037,2.4545,0.1,0.00088405,8834.4,0.00089717,9312.3,-0.00020196,1053.9,-0.00034262,-2.96,0.03936
24958,1.4273,2.3636,0.1,0.0010912,10904,0.0011023,11273,-0.00029408,780.64,-0.00039822,-1.8179,0.027442
24959,1.5195,2.4545,0.1,0.0010075,10068,0.0010207,10528,-0.00024714,1002.6,-0.00038144,-6.5616,0.031424
24960,1.2431,2.3636,0.1,0.0013213,13203,0.0013302,13482,-0.00038967,559.55,-0.00046228,13.998,0.020522
24961,1.3352,2.4545,0.1,0.0011794,11786,0.001192,12205,-0.00031442,886.29,-0.0004321,2.0993,0.024177
24962,1.1509,2.4545,0.1,0.0014063,14053,0.0014171,14396,-0.00040476,707.55,-0.00049824,5.1837,0.017733
24963,1.0588,2.3636,0.1,0.001572,15709,0.0015796,15941,-0.00048262,446.54,-0.0005385,26.711,0.014483
24964,23.724,2.5455,0.1,2.0629e-05,206.15,1.155e-05,59.206,3.6403e-06,-0.22663,-1.8972e-05,-170.13,2.8896
24965,23.816,2.6364,0.1,1.992e-05,199.06,9.8057e-06,39.756,4.4866e-06,-0.20968,-1.8944e-05,-176.26,2.9051
24966,23.908,2.5455,0.1,1.9239e-05,192.26,8.2069e-06,22.383,5.1707e-06,-0.43003,-1.8764e-05,-180.26,2.9207
24967,23.539,2.5455,0.1,2.2574e-05,225.59,1.5114e-05,98.198,2.0139e-06,-0.2293,-1.9234e-05,-159.88,2.8585
24968,23.631,2.6364,0.1,2.1635e-05,216.2,1.3368e-05,78.739,2.8439e-06,-0.3321,-1.9187e-05,-165.87,2.874
24969,23.355,2.5455,0.1,2.4889e-05,248.72,1.8675e-05,137.07,4.1452e-07,-0.1323,-1.9535e-05,-150.03,2.8274
24970,23.447,2.6364,0.1,2.3773e-05,237.57,1.6927e-05,117.71,1.2413e-06,-0.14471,-1.9467e-05,-155.74,2.843
24971,23.171,2.5455,0.1,2.7483e-05,274.64,2.2241e-05,175.8,-1.171e-06,-0.1092,-1.9879e-05,-140.67,2.7963
24972,23.263,2.6364,0.1,2.6234e-05,262.16,2.0493e-05,156.52,-3.5564e-07,-0.12694,-1.9788e-05,-146.13,2.8119
24973,22.987,2.5455,0.1,3.0289e-05,302.69,2.5813e-05,214.43,-2.7374e-06,-0.086363,-2.0267e-05,-131.8,2.7653
24974,23.079,2.6364,0.1,2.8937e-05,289.17,2.4061e-05,195.2,-1.9319e-06,-0.095143,-2.0151e-05,-136.99,2.7808
24975,22.802,2.5455,0.1,3.326e-05,332.37,2.9395e-05,253,-4.2868e-06,-0.07291,-2.0702e-05,-123.41,2.7342
24976,22.894,2.6364,0.1,3.1825e-05,318.03,2.7637e-05,233.8,-3.4911e-06,-0.079903,-2.056e-05,-128.33,2.7498
24977,22.618,2.5455,0.1,3.6361e-05,363.36,3.2992e-05,291.55,-5.8199e-06,-0.062543,-2.1184e-05,-115.5,2.7032
24978,22.71,2.6364,0.1,3.486e-05,348.36,3.1225e-05,272.37,-5.0334e-06,-0.067578,-2.1015e-05,-120.15,2.7187
24979,22.434,2.5455,0.1,3.9569e-05,395.42,3.6606e-05,330.13,-7.3383e-06,-0.054829,-2.1715e-05,-108.07,2.6722
24980,22.526,2.6364,0.1,3.8012e-05,379.86,3.4829e-05,310.93,-6.5603e-06,-0.058812,-2.1518e-05,-112.45,2.6877
24981,22.249,2.5455,0.1,4.2867e-05,428.38,4.0242e-05,368.76,-8.8435e-06,-0.048735,-2.2294e-05,-101.11,2.6412
24982,22.342,2.6364,0.1,4.1263e-05,412.34,3.8453e-05,349.53,-8.0732e-06,-0.051938,-2.2069e-05,-105.21,2.6567
24983,22.065,2.5455,0.1,4.6244e-05,462.12,4.3902e-05,407.49,-1.0337e-05,-0.043829,-2.2921e-05,-94.596,2.6103
24984,22.157,2.6364,0.1,4.4597e-05,445.66,4.2099e-05,388.2,-9.5735e-06,-0.04649,-2.2668e-05,-98.434,2.6258
24985,21.881,2.5455,0.1,4.969e-05,496.56,4.7588e-05,446.33,-1.182e-05,-0.039779,-2.3595e-05,-88.515,2.5794
24986,21.973,2.6364,0.1,4.8005e-05,479.71,4.577e-05,426.97,-1.1063e-05,-0.042038,-2.3314e-05,-92.097,2.5949
24987,21.697,2.5455,0.1,5.3198e-05,531.61,5.1302e-05,485.31,-1.3294e-05,-0.036382,-2.4316e-05,-82.848,2.5485
24988,21.789,2.6364,0.1,5.1478e-05,514.42,4.9467e-05,465.87,-1.2542e-05,-0.038329,-2.4007e-05,-86.182,2.564
24989,21.512,2.5455,0.1,5.6763e-05,567.24,5.5044e-05,524.45,-1.476e-05,-0.033495,-2.508e-05,-77.574,2.5177
24990,21.605,2.6364,0.1,5.5011e-05,549.73,5.3192e-05,504.92,-1.4013e-05,-0.035198,-2.4746e-05,-80.672,2.5331
24991,21.328,2.5455,0.1,6.0381e-05,603.39,5.8815e-05,563.76,-1.622e-05,-0.031005,-2.5888e-05,-72.671,2.4869
24992,21.42,2.6364,0.1,5.8599e-05,585.58,5.6946e-05,544.13,-1.5477e-05,-0.032519,-2.5527e-05,-75.545,2.5023
24993,21.144,2.5455,0.1,6.4048e-05,640.04,6.2617e-05,603.24,-1.7674e-05,-0.028832,-2.6736e-05,-68.118,2.4561
24994,21.236,2.6364,0.1,6.2237e-05,621.95,6.073e-05,583.51,-1.6935e-05,-0.030189,-2.6351e-05,-70.781,2.4715
24995,20.96,2.5455,0.1,6.7762e-05,677.15,6.6448e-05,642.93,-1.9124e-05,-0.026916,-2.7624e-05,-63.893,2.4254
24996,21.052,2.6364,0.1,6.5924e-05,658.79,6.4544e-05,623.09,-1.8388e-05,-0.028147,-2.7215e-05,-66.357,2.4407
24997,20.775,2.5455,0.1,7.1519e-05,714.69,7.0309e-05,682.8,-2.057e-05,-0.025217,-2.8549e-05,-59.975,2.3947
24998,20.867,2.6364,0.1,6.9656e-05,696.08,6.8388e-05,662.85,-1.9836e-05,-0.026334,-2.8118e-05,-62.252,2.41
24999,20.591,2.5455,0.1,7.5317e-05,752.65,7.42e-05,722.89,-2.2013e-05,-0.023711,-2.9509e-05,-56.343,2.364
25000,20.683,2.6364,0.1,7.3431e-05,733.8,7.2261e-05,702.82,-2.1281e-05,-0.02473,-2.9057e-05,-58.447,2.3794
25001,20.407,2.5455,0.1,7.9155e-05,791.01,7.812e-05,763.18,-2.3455e-05,-0.022361,-3.0503e-05,-52.978,2.3335
25002,20.499,2.6364,0.1,7.7246e-05,771.93,7.6165e-05,742.99,-2.2724e-05,-0.023303,-3.0031e-05,-54.92,2.3488
25003,20.223,2.5455,0.1,8.3031e-05,829.74,8.207e-05,803.67,-2.4895e-05,-0.021138,-3.1528e-05,-49.861,2.3029
25004,20.315,2.6364,0.1,8.1101e-05,810.45,8.0098e-05,783.38,-2.4166e-05,-0.022011,-3.1037e-05,-51.652,2.3182
25005,20.038,2.5455,0.1,8.6943e-05,868.83,8.6049e-05,844.38,-2.6335e-05,-0.020024,-3.2584e-05,-46.973,2.2725
25006,20.13,2.6364,0.1,8.4992e-05,849.34,8.406e-05,823.97,-2.5606e-05,-0.020842,-3.2075e-05,-48.625,2.2877
25007,19.854,2.5455,0.1,9.089e-05,908.28,9.0055e-05,885.31,-2.7774e-05,-0.01901,-3.3668e-05,-44.299,2.242
25008,19.946,2.6364,0.1,8.892e-05,888.58,8.8051e-05,864.78,-2.7046e-05,-0.019769,-3.3142e-05,-45.822,2.2573
25009,19.67,2.5455,0.1,9.4871e-05,948.06,9.409e-05,926.44,-2.9214e-05,-0.018096,-3.4778e-05,-41.822,2.2117
25010,19.762,2.6364,0.1,9.2882e-05,928.17,9.207e-05,905.8,-2.8486e-05,-0.018802,-3.4237e-05,-43.226,2.2269
25011,19.485,2.5455,0.1,9.8884e-05,988.16,9.8152e-05,967.79,-3.0656e-05,-0.017261,-3.5914e-05,-39.527,2.1814
25012,19.578,2.6364,0.1,9.6877e-05,968.1,9.6117e-05,947.03,-2.9927e-05,-0.017928,-3.5358e-05,-40.821,2.1966
25013,19.301,2.5455,0.1,0.00010293,1028.6,0.00010224,1009.4,-3.2098e-05,-0.016489,-3.7074e-05,-37.401,2.1512
25014,19.393,2.6364,0.1,0.0001009,1008.3,0.00010019,988.48,-3.137e-05,-0.01712,-3.6504e-05,-38.593,2.1663
25015,19.117,2.5455,0.1,0.000107,1069.3,0.00010636,1051.1,-3.3543e-05,-0.01577,-3.8256e-05,-35.429,2.121
25016,19.209,2.6364,0.1,0.00010496,1048.9,0.00010429,1030.1,-3.2814e-05,-0.016371,-3.7673e-05,-36.528,2.1361
25017,18.933,2.5455,0.1,0.00011111,1110.3,0.0001105,1093.1,-3.499e-05,-0.015106,-3.946e-05,-33.6,2.0909
25018,19.025,2.6364,0.1,0.00010905,1089.8,0.00010842,1072,-3.426e-05,-0.01567,-3.8864e-05,-34.613,2.106
25019,18.748,2.5455,0.1,0.00011524,1151.6,0.00011467,1135.3,-3.644e-05,-0.014504,-4.0684e-05,-31.903,2.0609
25020,18.841,2.6364,0.1,0.00011317,1130.9,0.00011257,1114.1,-3.5708e-05,-0.015034,-4.0077e-05,-32.837,2.0759
25021,18.564,2.5455,0.1,0.0001194,1193.2,0.00011886,1177.7,-3.7892e-05,-0.013948,-4.1927e-05,-30.327,2.031
25022,18.656,2.6364,0.1,0.00011731,1172.3,0.00011675,1156.4,-3.716e-05,-0.014456,-4.1309e-05,-31.188,2.046
25023,18.38,2.5455,0.1,0.00012359,1235.1,0.00012307,1220.4,-3.9348e-05,-0.013423,-4.3188e-05,-28.861,2.0011
25024,18.472,2.6364,0.1,0.00012149,1214,0.00012096,1198.9,-3.8614e-05,-0.013911,-4.2559e-05,-29.657,2.0161
25025,18.196,2.5455,0.1,0.00012781,1277.2,0.00012732,1263.2,-4.0808e-05,-0.012925,-4.4466e-05,-27.497,1.9714
25026,18.288,2.6364,0.1,0.00012569,1256,0.00012518,1241.7,-4.0072e-05,-0.013399,-4.3828e-05,-28.232,1.9863
25027,18.011,2.5455,0.1,0.00013205,1319.6,0.00013158,1306.2,-4.2271e-05,-0.012461,-4.576e-05,-26.226,1.9417
25028,18.103,2.6364,0.1,0.00012992,1298.3,0.00012944,1284.6,-4.1534e-05,-0.012908,-4.5113e-05,-26.905,1.9566
25029,17.827,2.5455,0.1,0.00013631,1362.2,0.00013587,1349.5,-4.3739e-05,-0.012043,-4.707e-05,-25.04,1.9121
25030,17.919,2.6364,0.1,0.00013417,1340.8,0.00013371,1327.7,-4.2999e-05,-0.012463,-4.6414e-05,-25.669,1.9269
25031,17.643,2.5455,0.1,0.00014061,1405.1,0.00014018,1393,-4.521e-05,-0.011652,-4.8394e-05,-23.932,1.8826
25032,17.735,2.6364,0.1,0.00013845,1383.5,0.00013801,1371.1,-4.4469e-05,-0.012065,-4.773e-05,-24.514,1.8974
25033,17.459,2.5455,0.1,0.00014492,1448.2,0.00014452,1436.6,-4.6687e-05,-0.011277,-4.9732e-05,-22.893,1.8532
25034,17.551,2.6364,0.1,0.00014275,1426.5,0.00014234,1414.7,-4.5943e-05,-0.011676,-4.9061e-05,-23.434,1.8679
25035,17.274,2.5455,0.1,0.00014926,1491.6,0.00014888,1480.5,-4.8168e-05,-0.010913,-5.1084e-05,-21.919,1.8239
25036,17.366,2.6364,0.1,0.00014708,1469.8,0.00014669,1458.4,-4.7422e-05,-0.011308,-5.0405e-05,-22.421,1.8386
25037,17.09,2.5455,0.1,0.00015363,1535.2,0.00015326,1524.6,-4.9654e-05,-0.010571,-5.2448e-05,-21.002,1.7947
25038,17.182,2.6364,0.1,0.00015143,1513.3,0.00015105,1502.4,-4.8906e-05,-0.010943,-5.1762e-05,-21.47,1.8093
25039,16.906,2.5455,0.1,0.00015801,1579,0.00015766,1568.9,-5.1145e-05,-0.010268,-5.3823e-05,-20.136,1.7656
25040,16.998,2.6364,0.1,0.00015581,1557,0.00015545,1546.6,-5.0395e-05,-0.010618,-5.3131e-05,-20.573,1.7802
25041,16.721,2.5455,0.1,0.00016242,1623.1,0.00016209,1613.4,-5.2641e-05,-0.0099816,-5.5211e-05,-19.317,1.7366
25042,16.814,2.6364,0.1,0.0001602,1600.9,0.00015986,1591,-5.1888e-05,-0.01033,-5.4512e-05,-19.726,1.7511
25043,16.537,2.5455,0.1,0.00016686,1667.4,0.00016653,1658.1,-5.4143e-05,-0.0097006,-5.6609e-05,-18.538,1.7077
25044,16.629,2.6364,0.1,0.00016463,1645.1,0.0001643,1635.6,-5.3387e-05,-0.010041,-5.5905e-05,-18.923,1.7222
25045,16.353,2.5455,0.1,0.00017131,1711.9,0.000171,1703,-5.565e-05,-0.0094222,-5.8017e-05,-17.796,1.6789
25046,16.445,2.6364,0.1,0.00016907,1689.5,0.00016875,1680.4,-5.4892e-05,-0.0097636,-5.7307e-05,-18.158,1.6934
25047,16.169,2.5455,0.1,0.00017579,1756.7,0.00017549,1748.1,-5.7163e-05,-0.0091578,-5.9435e-05,-17.084,1.6503
25048,16.261,2.6364,0.1,0.00017354,1734.2,0.00017323,1725.4,-5.6402e-05,-0.0094785,-5.872e-05,-17.427,1.6646
25049,15.984,2.5455,0.1,0.00018029,1801.6,0.00018,1793.4,-5.8681e-05,-0.0089274,-6.0863e-05,-16.4,1.6218
25050,16.077,2.6364,0.1,0.00017802,1779,0.00017773,1770.6,-5.7918e-05,-0.0092307,-6.0143e-05,-16.726,1.636
25051,15.8,2.5455,0.1,0.00018481,1846.8,0.00018453,1838.9,-6.0206e-05,-0.0087088,-6.2299e-05,-15.737,1.5933
25052,15.892,2.6364,0.1,0.00018253,1824.1,0.00018225,1816,-5.944e-05,-0.0090145,-6.1574e-05,-16.049,1.6076
25053,15.616,2.5455,0.1,0.00018935,1892.2,0.00018909,1884.6,-6.1737e-05,-0.0084887,-6.3744e-05,-15.093,1.5651
25054,15.708,2.6364,0.1,0.00018706,1869.3,0.0001868,1861.6,-6.0967e-05,-0.0087905,-6.3015e-05,-15.392,1.5792
25055,15.432,2.5455,0.1,0.00019391,1937.8,0.00019366,1930.5,-6.3273e-05,-0.0082632,-6.5197e-05,-14.462,1.5369
25056,15.524,2.6364,0.1,0.00019161,1914.8,0.00019136,1907.4,-6.2501e-05,-0.0085711,-6.4463e-05,-14.751,1.551
25057,15.247,2.5455,0.1,0.00019849,1983.6,0.00019825,1976.6,-6.4816e-05,-0.008047,-6.6657e-05,-13.841,1.5089
25058,15.339,2.6364,0.1,0.00019619,1960.5,0.00019594,1953.4,-6.4041e-05,-0.0083367,-6.5919e-05,-14.122,1.5229
25059,15.063,2.5455,0.1,0.0002031,2029.5,0.00020287,2022.9,-6.6366e-05,-0.0078636,-6.8125e-05,-13.226,1.481
25060,15.155,2.6364,0.1,0.00020078,2006.4,0.00020054,1999.6,-6.5587e-05,-0.0081369,-6.7383e-05,-13.502,1.495
25061,14.879,2.5455,0.1,0.00020772,2075.7,0.0002075,2069.4,-6.7922e-05,-0.0076885,-6.9599e-05,-12.613,1.4532
25062,14.971,2.6364,0.1,0.00020539,2052.5,0.00020517,2046,-6.714e-05,-0.0079678,-6.8854e-05,-12.885,1.4671
25063,14.695,2.5455,0.1,0.00021236,2122.1,0.00021215,2116.1,-6.9484e-05,-0.0075053,-7.108e-05,-11.998,1.4256
25064,14.787,2.6364,0.1,0.00021002,2098.8,0.00020981,2092.6,-6.8699e-05,-0.0077849,-7.0331e-05,-12.268,1.4394
25065,14.51,2.5455,0.1,0.00021702,2168.7,0.00021683,2163,-7.1054e-05,-0.007311,-7.2567e-05,-11.376,1.3981
25066,14.602,2.6364,0.1,0.00021467,2145.3,0.00021447,2139.4,-7.0265e-05,-0.0076006,-7.1814e-05,-11.647,1.4119
25067,14.326,2.5455,0.1,0.0002217,2215.5,0.00022152,2210.1,-7.263e-05,-0.0071222,-7.4059e-05,-10.745,1.3708
25068,14.418,2.6364,0.1,0.00021935,2191.9,0.00021916,2186.4,-7.1838e-05,-0.0073959,-7.3304e-05,-11.017,1.3845
25069,14.142,2.5455,0.1,0.0002264,2262.5,0.00022623,2257.4,-7.4213e-05,-0.006964,-7.5556e-05,-10.1,1.3436
25070,14.234,2.6364,0.1,0.00022404,2238.8,0.00022386,2233.6,-7.3418e-05,-0.0072239,-7.4798e-05,-10.376,1.3573
25071,13.957,2.5455,0.1,0.00023112,2309.6,0.00023096,2304.9,-7.5803e-05,-0.00681,-7.7058e-05,-9.4373,1.3166
25072,14.05,2.6364,0.1,0.00022875,2285.9,0.00022858,2281,-7.5005e-05,-0.0070823,-7.6297e-05,-9.7192,1.3302
25073,13.773,2.5455,0.1,0.00023586,2357,0.00023571,2352.6,-7.7401e-05,-0.0066416,-7.8564e-05,-8.7517,1.2898
25074,13.865,2.6364,0.1,0.00023347,2333.1,0.00023332,2328.6,-7.6599e-05,-0.0069193,-7.7801e-05,-9.0415,1.3032
25075,13.589,2.5455,0.1,0.00024062,2404.5,0.00024048,2400.5,-7.9005e-05,-0.0064544,-8.0074e-05,-8.0394,1.2631
25076,13.681,2.6364,0.1,0.00023822,2380.6,0.00023808,2376.4,-7.82e-05,-0.0067505,-7.9309e-05,-8.3391,1.2764
25077,13.405,2.5455,0.1,0.00024539,2452.2,0.00024526,2448.5,-8.0617e-05,-0.0062661,-8.1588e-05,-7.2957,1.2365
25078,13.497,2.6364,0.1,0.00024298,2428.2,0.00024285,2424.4,-7.9808e-05,-0.0065536,-8.082e-05,-7.6074,1.2498
25079,13.22,2.5455,0.1,0.00025018,2500.1,0.00025007,2496.8,-8.2237e-05,-0.0061037,-8.3104e-05,-6.5159,1.2101
25080,13.313,2.6364,0.1,0.00024777,2476,0.00024765,2472.5,-8.1424e-05,-0.0063854,-8.2334e-05,-6.8417,1.2234
25081,13.036,2.5455,0.1,0.00025499,2548.1,0.00025489,2545.3,-8.3865e-05,-0.0059329,-8.4622e-05,-5.6949,1.1839
25082,13.128,2.6364,0.1,0.00025257,2523.9,0.00025246,2520.9,-8.3048e-05,-0.006245,-8.3851e-05,-6.0371,1.1971
25083,12.852,2.5455,0.1,0.00025981,2596.4,0.00025973,2593.9,-8.55e-05,-0.0057255,-8.6142e-05,-4.8275,1.1579
25084,12.944,2.6364,0.1,0.00025738,2572.1,0.00025729,2569.5,-8.468e-05,-0.0060668,-8.5369e-05,-5.1883,1.171
25085,12.668,2.5455,0.1,0.00026466,2644.7,0.00026459,2642.8,-8.7144e-05,-0.0054624,-8.7663e-05,-3.908,1.1321
25086,12.76,2.6364,0.1,0.00026222,2620.4,0.00026214,2618.2,-8.6319e-05,-0.005865,-8.6889e-05,-4.29,1.145
25087,12.483,2.5455,0.1,0.00026952,2693.3,0.00026947,2691.8,-8.8795e-05,-0.005122,-8.9185e-05,-2.9306,1.1064
25088,12.575,2.6364,0.1,0.00026707,2668.8,0.00026701,2667.1,-8.7967e-05,-0.0055949,-8.841e-05,-3.3362,1.1193
25089,12.299,2.5455,0.1,0.00027439,2742,0.00027436,2741.1,-9.0455e-05,-0.0045938,-9.0706e-05,-1.8891,1.0809
25090,12.391,2.6364,0.1,0.00027193,2717.4,0.00027189,2716.3,-8.9623e-05,-0.0052692,-8.9931e-05,-2.3209,1.0937
25091,12.115,2.5455,0.1,0.00027928,2790.9,0.00027927,2790.5,-9.2124e-05,-0.0028308,-9.2227e-05,-0.7779,1.0556
25092,12.207,2.6364,0.1,0.00027681,2766.2,0.00027679,2765.6,-9.1287e-05,-0.0046334,-9.1452e-05,-1.2379,1.0683
25093,11.931,2.5455,0.1,0.00028418,2839.9,0.00028419,2840.1,-9.3745e-05,0.42108,-9.3802e-05,-0.010515,1.0305
25094,12.023,2.6364,0.1,0.00028171,2815.2,0.00028171,2815.1,-9.2959e-05,0.010158,-9.2973e-05,-0.093746,1.0431
25095,11.746,2.5455,0.1,0.0002891,2889,0.00028913,2889.9,-9.5262e-05,1.6945,-9.5488e-05,-0.0065756,1.0056
25096,11.838,2.6364,0.1,0.00028662,2864.2,0.00028664,2864.8,-9.4487e-05,1.1647,-9.4643e-05,-0.0066605,1.0181
25097,11.562,2.5455,0.1,0.00029404,2938.3,0.00029409,2939.9,-9.6775e-05,3.0653,-9.7184e-05,-0.0058474,0.98083
25098,11.654,2.6364,0.1,0.00029155,2913.5,0.00029159,2914.7,-9.6001e-05,2.4964,-9.6334e-05,-0.0058429,0.99324
25099,11.378,2.5455,0.1,0.00029898,2987.8,0.00029906,2990,-9.8284e-05,4.5397,-9.8889e-05,-0.0054912,0.9563
25100,11.47,2.6364,0.1,0.00029649,2962.8,0.00029655,2964.8,-9.7512e-05,3.928,-9.8035e-05,-0.0054898,0.96861
25101,11.193,2.5455,0.1,0.00030394,3037.3,0.00030404,3040.4,-9.9788e-05,6.1269,-0.0001006,-0.0052382,0.93198
25102,11.286,2.6364,0.1,0.00030144,3012.3,0.00030153,3015,-9.9017e-05,5.4684,-9.9745e-05,-0.0052745,0.94419
25103,11.009,2.5455,0.1,0.00030891,3087,0.00030904,3090.9,-0.00010129,7.8374,-0.00010233,-0.005006,0.90786
25104,11.101,2.6364,0.1,0.0003064,3061.9,0.00030652,3065.5,-0.00010052,7.1278,-0.00010147,-0.0050612,0.91997
25105,10.825,2.5455,0.1,0.00031389,3136.8,0.00031406,3141.6,-0.00010278,9.6823,-0.00010406,-0.0047708,0.88396
25106,10.917,2.6364,0.1,0.00031138,3111.6,0.00031153,3116.1,-0.00010201,8.9169,-0.0001032,-0.0048546,0.89596
25107,10.641,2.5455,0.1,0.00031889,3186.7,0.00031909,3192.5,-0.00010426,11.674,-0.00010581,-0.004547,0.86026
25108,10.733,2.6364,0.1,0.00031636,3161.5,0.00031655,3166.9,-0.00010349,10.848,-0.00010494,-0.004618,0.87216
25109,10.456,2.5455,0.1,0.00032389,3236.7,0.00032412,3243.6,-0.00010573,13.825,-0.00010757,-0.0043651,0.83679
25110,10.549,2.6364,0.1,0.00032136,3211.4,0.00032158,3217.8,-0.00010497,12.933,-0.00010669,-0.004423,0.84857
25111,10.272,2.5455,0.1,0.0003289,3286.8,0.00032918,3294.8,-0.00010719,16.15,-0.00010934,-0.0041767,0.81353
25112,10.364,2.6364,0.1,0.00032637,3261.4,0.00032662,3269,-0.00010643,15.185,-0.00010845,-0.0042631,0.82521
25113,10.088,2.5455,0.1,0.00033392,3336.9,0.00033424,3346.2,-0.00010863,18.664,-0.00011112,-0.0039652,0.7905
25114,10.18,2.6364,0.1,0.00033138,3311.5,0.00033168,3320.3,-0.00010788,17.621,-0.00011023,-0.0040499,0.80207
25115,9.9036,2.5455,0.1,0.00033895,3387.2,0.00033931,3397.8,-0.00011007,21.384,-0.00011291,-0.0037535,0.76769
25116,9.9957,2.6364,0.1,0.00033641,3361.7,0.00033675,3371.8,-0.00010932,20.257,-0.00011202,-0.0038393,0.77915
25117,9.7193,2.5455,0.1,0.00034399,3437.5,0.00034439,3449.6,-0.00011148,24.328,-0.00011472,-0.0035308,0.74512
25118,9.8115,2.6364,0.1,0.00034144,3412,0.00034182,3423.5,-0.00011074,23.109,-0.00011382,-0.0036219,0.75646
25119,9.5351,2.5455,0.1,0.00034902,3487.8,0.00034948,3501.5,-0.00011288,27.516,-0.00011654,-0.0032986,0.72277
25120,9.6272,2.6364,0.1,0.00034647,3462.3,0.00034691,3475.3,-0.00011214,26.197,-0.00011563,-0.0033864,0.734
25121,9.3508,2.5455,0.1,0.00035407,3538.2,0.00035458,3553.6,-0.00011425,30.97,-0.00011837,-0.0030584,0.70067
25122,9.4429,2.6364,0.1,0.00035151,3512.7,0.000352,3527.3,-0.00011353,29.542,-0.00011746,-0.0031472,0.71178
25123,9.1665,2.5455,0.1,0.00035911,3588.6,0.00035969,3605.9,-0.0001156,34.713,-0.00012022,-0.0028049,0.67881
25124,9.2587,2.6364,0.1,0.00035655,3563,0.0003571,3579.5,-0.00011489,33.167,-0.0001193,-0.0028927,0.68979
25125,8.9823,2.5455,0.1,0.00036416,3639.1,0.0003648,3658.3,-0.00011693,38.771,-0.00012209,-0.0025373,0.65719
25126,9.0744,2.6364,0.1,0.00036159,3613.4,0.00036221,3631.8,-0.00011622,37.098,-0.00012116,-0.0026236,0.66805
25127,8.798,2.5455,0.1,0.0003692,3689.5,0.00036992,3710.9,-0.00011822,43.171,-0.00012397,-0.0022538,0.63582
25128,8.8901,2.6364,0.1,0.00036663,3663.8,0.00036732,3684.3,-0.00011753,41.36,-0.00012303,-0.0023378,0.64656
25129,8.6137,2.5455,0.1,0.00037425,3739.9,0.00037504,3763.6,-0.00011949,47.946,-0.00012587,-0.0019531,0.6147
25130,8.7059,2.6364,0.1,0.00037168,3714.2,0.00037244,3737,-0.0001188,45.984,-0.00012492,-0.0020334,0.62531
25131,8.4295,2.5455,0.1,0.00037928,3790.2,0.00038016,3816.5,-0.00012072,53.127,-0.00012779,-0.0016333,0.59383
25132,8.5216,2.6364,0.1,0.00037671,3764.5,0.00037755,3789.8,-0.00012004,51.003,-0.00012683,-0.0017089,0.60432
25133,8.2452,2.5455,0.1,0.00038432,3840.5,0.00038528,3869.6,-0.0001219,58.753,-0.00012972,-0.0012935,0.57322
25134,8.3373,2.6364,0.1,0.00038174,3814.8,0.00038267,3842.7,-0.00012125,56.453,-0.00012876,-0.0013621,0.58358
25135,8.0609,2.5455,0.1,0.00038934,3890.8,0.00039041,3922.8,-0.00012305,64.864,-0.00013168,-0.00093196,0.55288
25136,8.1531,2.6364,0.1,0.00038677,3865,0.00038779,3895.8,-0.00012241,62.373,-0.00013071,-0.00099193,0.56311
25137,7.8767,2.5455,0.1,0.00039436,3940.9,0.00039553,3976.1,-0.00012415,71.505,-0.00013366,-0.00054737,0.5328
25138,7.9688,2.6364,0.1,0.00039179,3915.2,0.00039291,3949.1,-0.00012353,68.807,-0.00013268,-0.00059551,0.54289
25139,7.6924,2.5455,0.1,0.00039937,3990.9,0.00040065,4029.7,-0.00012519,78.724,-0.00013567,-0.0001396,0.51298
25140,7.7845,2.6364,0.1,0.00039679,3965.2,0.00039803,4002.5,-0.00012459,75.803,-0.00013468,-0.00017236,0.52295
25141,7.5081,2.5455,0.1,0.00040436,4040.8,0.00040576,4083.4,-0.00012618,86.576,-0.0001377,0.00029158,0.49344
25142,7.6003,2.6364,0.1,0.00040179,4015.1,0.00040314,4056.1,-0.0001256,83.413,-0.0001367,0.0002799,0.50327
25143,7.3239,2.5455,0.1,0.00040934,4090.5,0.00041087,4137.3,-0.00012711,95.121,-0.00013977,0.00074561,0.47418
25144,7.416,2.6364,0.1,0.00040676,4064.8,0.00040825,4109.9,-0.00012654,91.696,-0.00013875,0.00076023,0.48387
25145,7.1396,2.5455,0.1,0.0004143,4140.1,0.00041598,4191.4,-0.00012796,104.43,-0.00014186,0.0012208,0.45519
25146,7.2317,2.6364,0.1,0.00041173,4114.4,0.00041335,4163.9,-0.00012742,100.72,-0.00014083,0.0012703,0.46475
25147,6.9553,2.5455,0.1,0.00041924,4189.5,0.00042107,4245.6,-0.00012874,114.56,-0.00014399,0.0017129,0.43649
25148,7.0475,2.6364,0.1,0.00041667,4163.8,0.00041844,4218,-0.00012823,110.55,-0.00014294,0.0018083,0.4459
25149,6.7711,2.5455,0.1,0.00042417,4238.8,0.00042617,4300.2,-0.00012943,125.61,-0.00014615,0.0022157,0.41807
25150,6.8632,2.6364,0.1,0.0004216,4213.1,0.00042353,4272.4,-0.00012895,121.27,-0.00014509,0.0023708,0.42734
25151,6.5868,2.5455,0.1,0.00042908,4287.8,0.00043125,4355,-0.00013004,137.66,-0.00014836,0.0027196,0.39995
25152,6.6789,2.6364,0.1,0.00042651,4262.1,0.00042861,4327,-0.00012959,132.97,-0.00014728,0.002953,0.40907
25153,6.4025,2.5455,0.1,0.00043397,4336.7,0.00043634,4410.1,-0.00013054,150.82,-0.00015062,0.0032096,0.38211
25154,6.4947,2.6364,0.1,0.00043139,4311,0.00043369,4382,-0.00013012,145.74,-0.00014952,0.0035453,0.39109
25155,6.2183,2.5455,0.1,0.00043885,4385.4,0.00044142,4465.7,-0.00013094,165.19,-0.00015292,0.0036645,0.36457
25156,6.3104,2.6364,0.1,0.00043626,4359.6,0.00043876,4437.3,-0.00013055,159.71,-0.00015181,0.0041337,0.3734
25157,6.034,2.5455,0.1,0.00044371,4434.1,0.00044651,4521.8,-0.00013122,180.89,-0.00015529,0.0040539,0.34733
25158,6.1261,2.6364,0.1,0.00044112,4408.2,0.00044384,4493.1,-0.00013086,174.97,-0.00015415,0.0046983,0.35601
25159,5.8497,2.5455,0.1,0.00044858,4482.7,0.00045162,4578.4,-0.00013137,198.06,-0.00015773,0.0043348,0.3304
25160,5.9419,2.6364,0.1,0.00044597,4456.6,0.00044892,4549.4,-0.00013105,191.68,-0.00015656,0.0052087,0.33893
25161,5.6655,2.5455,0.1,0.00045345,4531.3,0.00045675,4635.9,-0.00013139,216.86,-0.00016025,0.0044469,0.31377
25162,5.7576,2.6364,0.1,0.00045082,4505.1,0.00045402,4606.4,-0.0001311,209.99,-0.00015905,0.0056218,0.32214
25163,5.4812,2.5455,0.1,0.00045834,4580.2,0.00046192,4694.3,-0.00013126,237.43,-0.00016286,0.0043072,0.29745
25164,5.5733,2.6364,0.1,0.00045568,4553.7,0.00045916,4664.3,-0.00013101,230.05,-0.00016163,0.0058778,0.30567
25165,5.2969,2.5455,0.1,0.00046328,4629.6,0.00046715,4754.1,-0.00013098,259.97,-0.00016558,0.0038006,0.28145
25166,5.3891,2.6364,0.1,0.00046057,4602.6,0.00046434,4723.4,-0.00013076,252.05,-0.0001643,0.0058921,0.28951
25167,5.1127,2.5455,0.1,0.00046828,4679.6,0.00047248,4815.5,-0.00013053,284.68,-0.00016842,0.0027692,0.26576
25168,5.2048,2.6364,0.1,0.00046552,4652,0.0004696,4783.9,-0.00013034,276.2,-0.0001671,0.0055477,0.27366
25169,4.9284,2.5455,0.1,0.0004734,4730.8,0.00047794,4878.9,-0.00012992,311.75,-0.00017141,0.00099606,0.25039
25170,5.0205,2.6364,0.1,0.00047056,4702.3,0.00047498,4846.4,-0.00012975,302.71,-0.00017004,0.0046826,0.25813
25171,4.7441,2.5455,0.1,0.00047869,4783.6,0.00048358,4945.2,-0.00012914,341.43,-0.00017458,-0.0018163,0.23535
25172,4.8363,2.6364,0.1,0.00047573,4754.1,0.00048051,4911.3,-0.00012898,331.82,-0.00017314,0.0030734,0.24293
25173,4.5599,2.5455,0.1,0.00048421,4838.8,0.00048949,5014.9,-0.00012818,373.95,-0.00017796,-0.006076,0.22064
25174,4.652,2.6364,0.1,0.00048111,4807.8,0.00048626,4979.3,-0.00012803,363.8,-0.00017645,0.00041199,0.22805
25175,4.3756,2.5455,0.1,0.00049006,4897.2,0.00049574,5089.2,-0.00012707,409.57,-0.00018158,-0.012344,0.20626
25176,4.4677,2.6364,0.1,0.00048677,4864.3,0.00049232,5051.5,-0.0001269,398.9,-0.00017999,-0.0037267,0.2135
25177,4.1913,2.5455,0.1,0.00049637,4960.2,0.00050247,5169.3,-0.00012582,448.54,-0.00018552,-0.021392,0.19221
25178,4.2835,2.6364,0.1,0.00049282,4924.8,0.0004988,5128.9,-0.0001256,437.43,-0.00018382,-0.00993,0.19928
25179,4.0071,2.5455,0.1,0.00050329,5029.4,0.00050984,5256.9,-0.00012445,491.11,-0.00018982,-0.034285,0.17851
25180,4.0992,2.6364,0.1,0.00049941,4990.6,0.00050583,5213.1,-0.00012415,479.67,-0.00018799,-0.019012,0.18541
25181,3.8228,2.5455,0.1,0.00051104,5106.8,0.00051805,5354.3,-0.00012303,537.5,-0.00019457,-0.052497,0.16515
25182,3.9149,2.6364,0.1,0.00050673,5063.8,0.00051362,5306.2,-0.0001226,525.9,-0.00019259,-0.032102,0.17188
25183,3.6385,2.5455,0.1,0.00051989,5195.3,0.00052739,5464.2,-0.00012161,587.9,-0.00019987,-0.078074,0.15215
25184,3.7307,2.6364,0.1,0.00051502,5146.7,0.0005224,5410.6,-0.00012099,576.38,-0.00019771,-0.050779,0.15869
25185,3.4543,2.5455,0.1,0.00053021,5298.5,0.00053821,5590.3,-0.00012032,642.41,-0.00020583,-0.11386,0.1395
25186,3.5464,2.6364,0.1,0.00052462,5242.6,0.0005325,5529.7,-0.00011943,631.31,-0.00020346,-0.077247,0.14586
25187,3.27,2.5455,0.1,0.00054247,5421,0.00055098,5737.3,-0.00011931,701,-0.00021263,-0.16381,0.12722
25188,3.3621,2.6364,0.1,0.00053596,5355.9,0.00054435,5667.7,-0.00011803,690.8,-0.00020999,-0.1146,0.1334
25189,3.0857,2.5455,0.1,0.00055729,5569,0.00056633,5911.2,-0.0001188,763.43,-0.00022044,-0.23343,0.11531
25190,3.1779,2.6364,0.1,0.00054957,5492,0.0005585,5830.2,-0.00011699,754.82,-0.00021747,-0.16716,0.1213
25191,2.9015,2.5455,0.1,0.00057547,5750.7,0.00058506,6120.1,-0.00011912,829.17,-0.00022952,-0.33031,0.10379
25192,2.9936,2.6364,0.1,0.00056621,5658.2,0.00057569,6024.5,-0.00011657,823.06,-0.00022615,-0.24097,0.10958
25193,2.7172,2.5455,0.1,0.00059808,5976.7,0.00060826,6374.3,-0.0001207,897.2,-0.00024017,-0.465,0.092662
25194,2.8093,2.6364,0.1,0.00058681,5864.1,0.00059688,6259.9,-0.00011716,894.85,-0.0002363,-0.34433,0.098259
25195,2.5329,2.5455,0.1,0.00062657,6261.3,0.00063736,6687.7,-0.00012418,965.83,-0.00025281,-0.65114,0.08195
25196,2.6251,2.6364,0.1,0.00061266,6122.4,0.00062335,6548.8,-0.00011928,968.94,-0.0002483,-0.48863,0.087339
25197,2.3487,2.5455,0.1,0.00066284,6623.8,0.00067431,7078.8,-0.00013043,1032.3,-0.00026794,-0.91138,0.071671
25198,2.4408,2.6364,0.1,0.00064543,6449.9,0.0006568,6907.4,-0.00012369,1043.1,-0.00026262,-0.68765,0.076844
25199,2.1644,2.5455,0.1,0.00070956,7090.7,0.00072177,7572.8,-0.00014072,1092.4,-0.00028627,-1.252,0.061849
25200,2.2565,2.6364,0.1,0.00068738,6869.1,0.00069949,7357.4,-0.00013145,1114,-0.00027985,-0.96343,0.066796
25201,1.9801,2.5455,0.1,0.00077044,7699.1,0.00078342,8204.3,-0.00015682,1139.7,-0.00030874,-1.771,0.052517
25202,2.0723,2.6364,0.1,0.00074153,7410.2,0.00075446,7927.1,-0.00014403,1176.2,-0.00030075,-1.3125,0.057223
25203,1.7959,2.5455,0.1,0.00085067,8500.8,0.00086441,9021.8,-0.00018128,1164.8,-0.00033663,-2.3479,0.043715
25204,1.888,2.6364,0.1,0.00081188,8113.2,0.00082568,8653.7,-0.00016343,1222,-0.0003263,-1.8119,0.048164
25205,1.6116,2.5455,0.1,0.00095728,9566.2,0.00097161,10090,-0.00021759,1154.3,-0.00037154,-2.4111,0.035497
25206,1.7037,2.6364,0.1,0.00090348,9028.6,0.00091811,9583.5,-0.00019221,1241,-0.00035768,-2.2327,0.039667
25207,1.4273,2.5455,0.1,0.0010973,10966,0.0011118,11471,-0.00026889,1097.6,-0.00041536,-2.9038,0.027932
25208,1.5195,2.6364,0.1,0.0010217,10210,0.0010369,10765,-0.00023307,1222.7,-0.00039607,-2.0762,0.031793
25209,1.2431,2.5455,0.1,0.001266,12651,0.0012802,13129,-0.00033078,1024.7,-0.00046805,-6.687,0.021114
25210,1.3352,2.6364,0.1,0.001168,11672,0.0011835,12212,-0.00028605,1171,-0.00044215,-1.9273,0.024621
25211,1.1509,2.6364,0.1,0.0013259,13250,0.0013416,13784,-0.00034026,1147.2,-0.00049344,-3.7151,0.01825
25212,1.0588,2.5455,0.1,0.0014254,14244,0.0014403,14739,-0.00038121,1053.3,-0.00052189,-3.6967,0.015159
25213,23.724,2.7273,0.1,2.0811e-05,207.96,1.1613e-05,59.21,3.7018e-06,-0.22848,-1.916e-05,-172,2.8896
25214,23.816,2.8182,0.1,2.0057e-05,200.43,9.8508e-06,39.743,4.5332e-06,-0.21183,-1.9084e-05,-177.66,2.9052
25215,23.908,2.7273,0.1,1.9427e-05,194.13,8.2681e-06,22.369,5.2336e-06,-0.43061,-1.8953e-05,-182.16,2.9207
25216,23.539,2.7273,0.1,2.275e-05,227.35,1.518e-05,98.246,2.0736e-06,-0.23042,-1.9422e-05,-161.74,2.8585
25217,23.631,2.8182,0.1,2.1769e-05,217.54,1.3416e-05,78.759,2.8894e-06,-0.33312,-1.9328e-05,-167.27,2.8741
25218,23.355,2.7273,0.1,2.5057e-05,250.4,1.8745e-05,137.16,4.7196e-07,-0.13317,-1.9721e-05,-151.86,2.8274
25219,23.447,2.8182,0.1,2.3903e-05,238.86,1.6978e-05,117.76,1.2852e-06,-0.14542,-1.9607e-05,-157.13,2.843
25220,23.171,2.7273,0.1,2.7644e-05,276.25,2.2313e-05,175.93,-1.1162e-06,-0.10998,-2.0062e-05,-142.46,2.7964
25221,23.263,2.8182,0.1,2.6357e-05,263.39,2.0546e-05,156.6,-3.1351e-07,-0.12755,-1.9927e-05,-147.49,2.8119
25222,22.987,2.7273,0.1,3.0442e-05,304.21,2.5887e-05,214.59,-2.6854e-06,-0.087073,-2.0446e-05,-133.54,2.7653
25223,23.079,2.8182,0.1,2.9054e-05,290.34,2.4115e-05,195.31,-1.8918e-06,-0.09569,-2.0288e-05,-138.31,2.7808
25224,22.802,2.7273,0.1,3.3404e-05,333.81,2.9469e-05,253.19,-4.2376e-06,-0.073576,-2.0876e-05,-125.09,2.7343
25225,22.894,2.8182,0.1,3.1937e-05,319.15,2.7693e-05,233.94,-3.4531e-06,-0.080412,-2.0693e-05,-129.61,2.7498
25226,22.618,2.7273,0.1,3.6497e-05,364.72,3.3065e-05,291.76,-5.7737e-06,-0.06318,-2.1352e-05,-117.11,2.7032
25227,22.71,2.8182,0.1,3.4965e-05,349.41,3.1281e-05,272.52,-4.9976e-06,-0.068059,-2.1144e-05,-121.38,2.7188
25228,22.434,2.7273,0.1,3.9696e-05,396.69,3.6679e-05,330.35,-7.2951e-06,-0.055445,-2.1875e-05,-109.6,2.6722
25229,22.526,2.8182,0.1,3.8111e-05,380.85,3.4885e-05,311.09,-6.5267e-06,-0.059276,-2.1641e-05,-113.63,2.6878
25230,22.249,2.7273,0.1,4.2986e-05,429.56,4.0312e-05,368.99,-8.8031e-06,-0.049336,-2.2446e-05,-102.56,2.6413
25231,22.342,2.8182,0.1,4.1355e-05,413.27,3.8507e-05,349.69,-8.0418e-06,-0.052389,-2.2187e-05,-106.33,2.6568
25232,22.065,2.7273,0.1,4.6354e-05,463.22,4.3969e-05,407.71,-1.0299e-05,-0.044419,-2.3065e-05,-95.957,2.6103
25233,22.157,2.8182,0.1,4.4683e-05,446.52,4.2151e-05,388.37,-9.5443e-06,-0.046931,-2.2779e-05,-99.489,2.6258
25234,21.881,2.7273,0.1,4.9791e-05,497.56,4.7651e-05,446.54,-1.1785e-05,-0.04036,-2.373e-05,-89.789,2.5794
25235,21.973,2.8182,0.1,4.8084e-05,480.51,4.5819e-05,427.14,-1.1036e-05,-0.042472,-2.3419e-05,-93.086,2.5949
25236,21.697,2.7273,0.1,5.329e-05,532.54,5.1361e-05,485.51,-1.3262e-05,-0.036955,-2.4441e-05,-84.033,2.5485
25237,21.789,2.8182,0.1,5.155e-05,515.15,4.9513e-05,466.03,-1.2517e-05,-0.038757,-2.4105e-05,-87.105,2.564
25238,21.512,2.7273,0.1,5.6847e-05,568.08,5.5098e-05,524.63,-1.473e-05,-0.034059,-2.5196e-05,-78.672,2.5177
25239,21.605,2.8182,0.1,5.5077e-05,550.39,5.3235e-05,505.06,-1.399e-05,-0.035619,-2.4836e-05,-81.529,2.5331
25240,21.328,2.7273,0.1,6.0457e-05,604.15,5.8865e-05,563.92,-1.6192e-05,-0.03156,-2.5995e-05,-73.685,2.4869
25241,21.42,2.8182,0.1,5.8659e-05,586.18,5.6985e-05,544.26,-1.5455e-05,-0.032934,-2.5611e-05,-76.338,2.5023
25242,21.144,2.7273,0.1,6.4116e-05,640.72,6.2661e-05,603.39,-1.7648e-05,-0.029378,-2.6834e-05,-69.05,2.4561
25243,21.236,2.8182,0.1,6.2292e-05,622.49,6.0766e-05,583.63,-1.6915e-05,-0.030598,-2.6428e-05,-71.511,2.4715
25244,20.96,2.7273,0.1,6.7822e-05,677.75,6.6488e-05,643.04,-1.91e-05,-0.027452,-2.7713e-05,-64.748,2.4254
25245,21.052,2.8182,0.1,6.5973e-05,659.27,6.4576e-05,623.18,-1.8369e-05,-0.028548,-2.7286e-05,-67.028,2.4408
25246,20.775,2.7273,0.1,7.1572e-05,715.23,7.0344e-05,682.9,-2.0548e-05,-0.025742,-2.863e-05,-60.757,2.3947
25247,20.867,2.8182,0.1,6.9699e-05,696.51,6.8416e-05,662.93,-1.9819e-05,-0.026728,-2.8182e-05,-62.867,2.4101
25248,20.591,2.7273,0.1,7.5364e-05,753.12,7.4231e-05,722.96,-2.1992e-05,-0.024226,-2.9583e-05,-57.057,2.3641
25249,20.683,2.8182,0.1,7.3469e-05,734.18,7.2287e-05,702.89,-2.1265e-05,-0.025117,-2.9115e-05,-59.008,2.3794
25250,20.407,2.7273,0.1,7.9196e-05,791.42,7.8147e-05,763.23,-2.3435e-05,-0.022864,-3.057e-05,-53.628,2.3335
25251,20.499,2.8182,0.1,7.728e-05,772.26,7.6187e-05,743.04,-2.2709e-05,-0.023682,-3.0084e-05,-55.432,2.3488
25252,20.223,2.7273,0.1,8.3067e-05,830.09,8.2093e-05,803.71,-2.4877e-05,-0.021631,-3.1589e-05,-50.451,2.303
25253,20.315,2.8182,0.1,8.113e-05,810.74,8.0117e-05,783.41,-2.4152e-05,-0.022382,-3.1085e-05,-52.118,2.3182
25254,20.038,2.7273,0.1,8.6974e-05,869.14,8.6068e-05,844.4,-2.6318e-05,-0.020508,-3.2638e-05,-47.509,2.2725
25255,20.13,2.8182,0.1,8.5017e-05,849.58,8.4076e-05,823.99,-2.5593e-05,-0.021206,-3.2118e-05,-49.048,2.2877
25256,19.854,2.7273,0.1,9.0916e-05,908.53,9.0071e-05,885.3,-2.7758e-05,-0.019485,-3.3716e-05,-44.784,2.2421
25257,19.946,2.8182,0.1,8.8941e-05,888.79,8.8064e-05,864.78,-2.7034e-05,-0.020126,-3.3181e-05,-46.205,2.2573
25258,19.67,2.7273,0.1,9.4892e-05,948.27,9.4102e-05,926.42,-2.9199e-05,-0.018562,-3.4821e-05,-42.26,2.2117
25259,19.762,2.8182,0.1,9.2899e-05,928.35,9.2081e-05,905.79,-2.8475e-05,-0.019152,-3.4271e-05,-43.572,2.2269
25260,19.485,2.7273,0.1,9.8901e-05,988.33,9.8162e-05,967.76,-3.0641e-05,-0.017717,-3.5952e-05,-39.922,2.1814
25261,19.578,2.8182,0.1,9.6891e-05,968.24,9.6126e-05,947.01,-2.9916e-05,-0.018271,-3.5389e-05,-41.133,2.1966
25262,19.301,2.7273,0.1,0.00010294,1028.7,0.00010225,1009.3,-3.2085e-05,-0.016936,-3.7108e-05,-37.756,2.1512
25263,19.393,2.8182,0.1,0.00010092,1008.5,0.0001002,988.45,-3.1359e-05,-0.017456,-3.6531e-05,-38.874,2.1663
25264,19.117,2.7273,0.1,0.00010701,1069.4,0.00010636,1051.1,-3.353e-05,-0.016208,-3.8286e-05,-35.748,2.1211
25265,19.209,2.8182,0.1,0.00010497,1049,0.0001043,1030.1,-3.2804e-05,-0.016701,-3.7697e-05,-36.781,2.1361
25266,18.933,2.7273,0.1,0.00011112,1110.4,0.0001105,1093.1,-3.4978e-05,-0.015537,-3.9486e-05,-33.886,2.091
25267,19.025,2.8182,0.1,0.00010906,1089.8,0.00010842,1072,-3.4251e-05,-0.015993,-3.8885e-05,-34.84,2.106
25268,18.748,2.7273,0.1,0.00011525,1151.7,0.00011467,1135.2,-3.6428e-05,-0.014926,-4.0706e-05,-32.158,2.061
25269,18.841,2.8182,0.1,0.00011317,1130.9,0.00011257,1114.1,-3.57e-05,-0.015352,-4.0095e-05,-33.04,2.076
25270,18.564,2.7273,0.1,0.0001194,1193.2,0.00011886,1177.6,-3.7882e-05,-0.014362,-4.1946e-05,-30.554,2.031
25271,18.656,2.8182,0.1,0.00011732,1172.4,0.00011675,1156.4,-3.7152e-05,-0.01477,-4.1325e-05,-31.369,2.046
25272,18.38,2.7273,0.1,0.00012359,1235.1,0.00012307,1220.3,-3.9338e-05,-0.013831,-4.3204e-05,-29.063,2.0012
25273,18.472,2.8182,0.1,0.00012149,1214.1,0.00012095,1198.9,-3.8606e-05,-0.014218,-4.2573e-05,-29.817,2.0161
25274,18.196,2.7273,0.1,0.0001278,1277.2,0.00012731,1263.1,-4.0798e-05,-0.013327,-4.448e-05,-27.675,1.9714
25275,18.288,2.8182,0.1,0.00012569,1256,0.00012518,1241.6,-4.0065e-05,-0.013703,-4.3839e-05,-28.374,1.9863
25276,18.011,2.7273,0.1,0.00013204,1319.5,0.00013157,1306.1,-4.2262e-05,-0.012856,-4.5772e-05,-26.383,1.9417
25277,18.103,2.8182,0.1,0.00012991,1298.2,0.00012943,1284.5,-4.1527e-05,-0.013205,-4.5123e-05,-27.031,1.9566
25278,17.827,2.7273,0.1,0.00013631,1362.1,0.00013586,1349.4,-4.373e-05,-0.012433,-4.7079e-05,-25.177,1.9122
25279,17.919,2.8182,0.1,0.00013417,1340.7,0.00013371,1327.7,-4.2993e-05,-0.012757,-4.6422e-05,-25.779,1.927
25280,17.643,2.7273,0.1,0.0001406,1405,0.00014017,1392.8,-4.5202e-05,-0.012037,-4.8402e-05,-24.051,1.8827
25281,17.735,2.8182,0.1,0.00013844,1383.5,0.00013801,1371,-4.4463e-05,-0.012354,-4.7737e-05,-24.61,1.8974
25282,17.459,2.7273,0.1,0.00014491,1448.1,0.00014451,1436.5,-4.6679e-05,-0.011657,-4.9738e-05,-22.996,1.8533
25283,17.551,2.8182,0.1,0.00014275,1426.5,0.00014233,1414.6,-4.5937e-05,-0.011961,-4.9066e-05,-23.517,1.868
25284,17.274,2.7273,0.1,0.00014925,1491.5,0.00014887,1480.4,-4.816e-05,-0.011288,-5.1088e-05,-22.006,1.824
25285,17.366,2.8182,0.1,0.00014707,1469.7,0.00014668,1458.3,-4.7417e-05,-0.01159,-5.0409e-05,-22.492,1.8386
25286,17.09,2.7273,0.1,0.00015362,1535.1,0.00015325,1524.4,-4.9647e-05,-0.010941,-5.245e-05,-21.075,1.7948
25287,17.182,2.8182,0.1,0.00015142,1513.2,0.00015105,1502.3,-4.89e-05,-0.011221,-5.1764e-05,-21.53,1.8094
25288,16.906,2.7273,0.1,0.000158,1578.9,0.00015765,1568.7,-5.1138e-05,-0.010632,-5.3825e-05,-20.196,1.7657
25289,16.998,2.8182,0.1,0.0001558,1556.9,0.00015544,1546.5,-5.0389e-05,-0.010893,-5.3133e-05,-20.623,1.7802
25290,16.721,2.7273,0.1,0.00016241,1623,0.00016207,1613.2,-5.2635e-05,-0.010342,-5.5211e-05,-19.365,1.7367
25291,16.814,2.8182,0.1,0.0001602,1600.9,0.00015985,1590.9,-5.1883e-05,-0.010602,-5.4513e-05,-19.767,1.7512
25292,16.537,2.7273,0.1,0.00016684,1667.3,0.00016652,1657.9,-5.4137e-05,-0.010057,-5.6607e-05,-18.575,1.7078
25293,16.629,2.8182,0.1,0.00016462,1645,0.00016429,1635.5,-5.3383e-05,-0.01031,-5.5904e-05,-18.954,1.7222
25294,16.353,2.7273,0.1,0.0001713,1711.8,0.00017099,1702.8,-5.5644e-05,-0.0097742,-5.8015e-05,-17.822,1.679
25295,16.445,2.8182,0.1,0.00016906,1689.4,0.00016874,1680.3,-5.4887e-05,-0.010029,-5.7306e-05,-18.182,1.6934
25296,16.169,2.7273,0.1,0.00017577,1756.5,0.00017548,1747.9,-5.7157e-05,-0.0095063,-5.9432e-05,-17.1,1.6504
25297,16.261,2.8182,0.1,0.00017352,1734,0.00017322,1725.3,-5.6398e-05,-0.0097417,-5.8718e-05,-17.443,1.6647
25298,15.984,2.7273,0.1,0.00018027,1801.5,0.00017999,1793.2,-5.8676e-05,-0.0092733,-6.0858e-05,-16.406,1.6218
25299,16.077,2.8182,0.1,0.00017801,1778.9,0.00017772,1770.5,-5.7914e-05,-0.0094914,-6.014e-05,-16.734,1.6361
25300,15.8,2.7273,0.1,0.00018479,1846.6,0.00018452,1838.7,-6.0201e-05,-0.0090522,-6.2294e-05,-15.734,1.5934
25301,15.892,2.8182,0.1,0.00018252,1823.9,0.00018224,1815.9,-5.9436e-05,-0.0092731,-6.157e-05,-16.05,1.6076
25302,15.616,2.7273,0.1,0.00018933,1892,0.00018907,1884.4,-6.1732e-05,-0.0088294,-6.3738e-05,-15.081,1.5651
25303,15.708,2.8182,0.1,0.00018705,1869.2,0.00018678,1861.5,-6.0963e-05,-0.0090472,-6.301e-05,-15.387,1.5793
25304,15.432,2.7273,0.1,0.00019389,1937.6,0.00019364,1930.3,-6.3269e-05,-0.0086015,-6.519e-05,-14.442,1.537
25305,15.524,2.8182,0.1,0.0001916,1914.7,0.00019135,1907.3,-6.2497e-05,-0.008826,-6.4458e-05,-14.739,1.5511
25306,15.247,2.7273,0.1,0.00019847,1983.4,0.00019824,1976.4,-6.4812e-05,-0.0083839,-6.6649e-05,-13.813,1.509
25307,15.339,2.8182,0.1,0.00019617,1960.4,0.00019593,1953.3,-6.4037e-05,-0.0085905,-6.5914e-05,-14.104,1.523
25308,15.063,2.7273,0.1,0.00020308,2029.4,0.00020285,2022.7,-6.6362e-05,-0.0081987,-6.8116e-05,-13.189,1.4811
25309,15.155,2.8182,0.1,0.00020076,2006.3,0.00020053,1999.5,-6.5584e-05,-0.0083889,-6.7377e-05,-13.477,1.495
25310,14.879,2.7273,0.1,0.0002077,2075.6,0.00020748,2069.2,-6.7918e-05,-0.0080222,-6.9589e-05,-12.568,1.4533
25311,14.971,2.8182,0.1,0.00020538,2052.3,0.00020515,2045.9,-6.7137e-05,-0.0082194,-6.8847e-05,-12.854,1.4672
25312,14.695,2.7273,0.1,0.00021234,2121.9,0.00021213,2115.9,-6.9481e-05,-0.0078383,-7.1069e-05,-11.945,1.4257
25313,14.787,2.8182,0.1,0.00021001,2098.6,0.0002098,2092.5,-6.8696e-05,-0.0080357,-7.0323e-05,-12.231,1.4395
25314,14.51,2.7273,0.1,0.000217,2168.5,0.00021681,2162.8,-7.105e-05,-0.0076438,-7.2555e-05,-11.316,1.3982
25315,14.602,2.8182,0.1,0.00021466,2145.1,0.00021446,2139.3,-7.0263e-05,-0.0078512,-7.1806e-05,-11.604,1.412
25316,14.326,2.7273,0.1,0.00022168,2215.3,0.0002215,2209.9,-7.2626e-05,-0.007456,-7.4046e-05,-10.676,1.3709
25317,14.418,2.8182,0.1,0.00021933,2191.8,0.00021914,2186.3,-7.1836e-05,-0.0076473,-7.3294e-05,-10.969,1.3846
25318,14.142,2.7273,0.1,0.00022638,2262.3,0.00022621,2257.2,-7.421e-05,-0.0073005,-7.5543e-05,-10.022,1.3437
25319,14.234,2.8182,0.1,0.00022402,2238.7,0.00022384,2233.5,-7.3416e-05,-0.0074767,-7.4788e-05,-10.321,1.3573
25320,13.957,2.7273,0.1,0.0002311,2309.4,0.00023094,2304.7,-7.58e-05,-0.0071498,-7.7044e-05,-9.3504,1.3167
25321,14.05,2.8182,0.1,0.00022873,2285.7,0.00022856,2280.9,-7.5002e-05,-0.0073379,-7.6287e-05,-9.6575,1.3302
25322,13.773,2.7273,0.1,0.00023584,2356.7,0.00023569,2352.4,-7.7398e-05,-0.0069863,-7.8549e-05,-8.6554,1.2899
25323,13.865,2.8182,0.1,0.00023346,2333,0.0002333,2328.5,-7.6597e-05,-0.007178,-7.779e-05,-8.9729,1.3033
25324,13.589,2.7273,0.1,0.00024059,2404.3,0.00024046,2400.3,-7.9003e-05,-0.0068073,-8.0058e-05,-7.9332,1.2632
25325,13.681,2.8182,0.1,0.0002382,2380.4,0.00023806,2376.2,-7.8198e-05,-0.0070145,-7.9297e-05,-8.2633,1.2765
25326,13.405,2.7273,0.1,0.00024537,2452,0.00024524,2448.4,-8.0615e-05,-0.0066301,-8.157e-05,-7.1791,1.2366
25327,13.497,2.8182,0.1,0.00024297,2428,0.00024284,2424.2,-7.9807e-05,-0.0068247,-8.0807e-05,-7.5239,1.2499
25328,13.22,2.7273,0.1,0.00025016,2499.8,0.00025005,2496.6,-8.2235e-05,-0.0064833,-8.3085e-05,-6.3882,1.2103
25329,13.313,2.8182,0.1,0.00024775,2475.8,0.00024763,2472.4,-8.1423e-05,-0.0066675,-8.232e-05,-6.7502,1.2234
25330,13.036,2.7273,0.1,0.00025496,2547.9,0.00025487,2545.1,-8.3863e-05,-0.0063349,-8.4602e-05,-5.5554,1.1841
25331,13.128,2.8182,0.1,0.00025255,2523.7,0.00025245,2520.8,-8.3047e-05,-0.0065422,-8.3836e-05,-5.937,1.1972
25332,12.852,2.7273,0.1,0.00025979,2596.1,0.00025971,2593.7,-8.5499e-05,-0.0061623,-8.612e-05,-4.6753,1.158
25333,12.944,2.8182,0.1,0.00025736,2571.9,0.00025728,2569.3,-8.4679e-05,-0.0063871,-8.5354e-05,-5.079,1.1711
25334,12.668,2.7273,0.1,0.00026463,2644.5,0.00026457,2642.6,-8.7143e-05,-0.0059561,-8.764e-05,-3.7422,1.1322
25335,12.76,2.8182,0.1,0.0002622,2620.2,0.00026212,2618.1,-8.6319e-05,-0.0062216,-8.6873e-05,-4.1708,1.1451
25336,12.483,2.7273,0.1,0.00026949,2693,0.00026944,2691.6,-8.8795e-05,-0.0057173,-8.916e-05,-2.7501,1.1065
25337,12.575,2.8182,0.1,0.00026705,2668.6,0.00026699,2667,-8.7966e-05,-0.0060147,-8.8392e-05,-3.2064,1.1194
25338,12.299,2.7273,0.1,0.00027436,2741.7,0.00027433,2740.9,-9.0455e-05,-0.0054094,-9.068e-05,-1.6927,1.081
25339,12.391,2.8182,0.1,0.00027191,2717.2,0.00027187,2716.1,-8.9623e-05,-0.0058153,-8.9912e-05,-2.1797,1.0938
25340,12.115,2.7273,0.1,0.00027925,2790.5,0.00027924,2790.3,-9.2124e-05,-0.0043382,-9.2199e-05,-0.56375,1.0557
25341,12.207,2.8182,0.1,0.00027679,2766,0.00027677,2765.4,-9.1288e-05,-0.0055375,-9.1431e-05,-1.084,1.0684
25342,11.931,2.7273,0.1,0.00028415,2839.5,0.00028416,2839.9,-9.3715e-05,0.64845,-9.3802e-05,-0.0068051,1.0306
25343,12.023,2.8182,0.1,0.00028169,2814.9,0.00028169,2815,-9.2948e-05,0.09202,-9.2962e-05,-0.0093211,1.0432
25344,11.746,2.7273,0.1,0.00028907,2888.7,0.0002891,2889.7,-9.523e-05,1.9448,-9.5489e-05,-0.0058342,1.0057
25345,11.838,2.8182,0.1,0.0002866,2864,0.00028662,2864.7,-9.4464e-05,1.3446,-9.4644e-05,-0.0058248,1.0182
25346,11.562,2.7273,0.1,0.000294,2938,0.00029406,2939.6,-9.6741e-05,3.3378,-9.7186e-05,-0.0054945,0.98095
25347,11.654,2.8182,0.1,0.00029152,2913.2,0.00029157,2914.5,-9.5976e-05,2.6924,-9.6335e-05,-0.0055037,0.99333
25348,11.378,2.7273,0.1,0.00029894,2987.4,0.00029903,2989.8,-9.8247e-05,4.8359,-9.8891e-05,-0.0052847,0.95643
25349,11.47,2.8182,0.1,0.00029646,2962.5,0.00029653,2964.6,-9.7485e-05,4.1411,-9.8036e-05,-0.0053014,0.96871
25350,11.193,2.7273,0.1,0.0003039,3036.9,0.00030401,3040.1,-9.9748e-05,6.4489,-0.00010061,-0.0051054,0.93211
25351,11.286,2.8182,0.1,0.00030141,3012,0.0003015,3014.8,-9.8988e-05,5.7001,-9.9747e-05,-0.0051562,0.94429
25352,11.009,2.7273,0.1,0.00030887,3086.6,0.00030901,3090.7,-0.00010124,8.1874,-0.00010233,-0.0049145,0.908
25353,11.101,2.8182,0.1,0.00030637,3061.6,0.0003065,3065.3,-0.00010049,7.3796,-0.00010147,-0.0049816,0.92007
25354,10.825,2.7273,0.1,0.00031385,3136.3,0.00031402,3141.4,-0.00010273,10.063,-0.00010407,-0.0047042,0.88409
25355,10.917,2.8182,0.1,0.00031134,3111.3,0.0003115,3115.9,-0.00010198,9.1907,-0.0001032,-0.0047978,0.89606
25356,10.641,2.7273,0.1,0.00031884,3186.2,0.00031904,3192.2,-0.00010421,12.088,-0.00010582,-0.0044948,0.8604
25357,10.733,2.8182,0.1,0.00031633,3161.1,0.00031652,3166.7,-0.00010346,11.145,-0.00010494,-0.004575,0.87226
25358,10.456,2.7273,0.1,0.00032384,3236.2,0.00032408,3243.3,-0.00010567,14.275,-0.00010757,-0.0043208,0.83693
25359,10.549,2.8182,0.1,0.00032133,3211,0.00032155,3217.6,-0.00010493,13.256,-0.00010669,-0.0043874,0.84868
25360,10.272,2.7273,0.1,0.00032885,3286.2,0.00032913,3294.5,-0.00010713,16.64,-0.00010934,-0.0041355,0.81367
25361,10.364,2.8182,0.1,0.00032633,3261,0.00032659,3268.8,-0.00010639,15.538,-0.00010846,-0.0042315,0.82531
25362,10.088,2.7273,0.1,0.00033387,3336.4,0.00033419,3345.9,-0.00010857,19.197,-0.00011113,-0.003923,0.79064
25363,10.18,2.8182,0.1,0.00033134,3311.1,0.00033164,3320.1,-0.00010784,18.005,-0.00011023,-0.0040184,0.80217
25364,9.9036,2.7273,0.1,0.00033889,3386.6,0.00033926,3397.5,-0.00011,21.965,-0.00011292,-0.0037069,0.76784
25365,9.9957,2.8182,0.1,0.00033636,3361.3,0.00033671,3371.6,-0.00010927,20.675,-0.00011202,-0.0038062,0.77925
25366,9.7193,2.7273,0.1,0.00034392,3436.8,0.00034434,3449.2,-0.00011141,24.962,-0.00011473,-0.003477,0.74526
25367,9.8115,2.8182,0.1,0.00034139,3411.5,0.00034178,3423.2,-0.00011069,23.564,-0.00011382,-0.0035842,0.75657
25368,9.5351,2.7273,0.1,0.00034895,3487.1,0.00034943,3501.2,-0.0001128,28.208,-0.00011655,-0.0032352,0.72292
25369,9.6272,2.8182,0.1,0.00034642,3461.8,0.00034687,3475.1,-0.00011209,26.694,-0.00011564,-0.0033424,0.73411
25370,9.3508,2.7273,0.1,0.00035399,3537.5,0.00035452,3553.2,-0.00011416,31.725,-0.00011839,-0.0029825,0.70082
25371,9.4429,2.8182,0.1,0.00035145,3512.1,0.00035196,3527.1,-0.00011346,30.085,-0.00011747,-0.0030947,0.71189
25372,9.1665,2.7273,0.1,0.00035903,3587.8,0.00035962,3605.5,-0.00011551,35.539,-0.00012024,-0.0027135,0.67896
25373,9.2587,2.8182,0.1,0.00035649,3562.4,0.00035705,3579.2,-0.00011482,33.76,-0.00011931,-0.0028298,0.68991
25374,8.9823,2.7273,0.1,0.00036407,3638.2,0.00036473,3657.9,-0.00011682,39.674,-0.0001221,-0.0024274,0.65734
25375,9.0744,2.8182,0.1,0.00036153,3612.8,0.00036216,3631.5,-0.00011615,37.746,-0.00012117,-0.002548,0.66817
25376,8.798,2.7273,0.1,0.00036911,3688.5,0.00036984,3710.4,-0.00011811,44.161,-0.00012399,-0.0021222,0.63597
25377,8.8901,2.8182,0.1,0.00036657,3663.1,0.00036726,3684,-0.00011745,42.069,-0.00012304,-0.0022471,0.64667
25378,8.6137,2.7273,0.1,0.00037414,3738.9,0.00037495,3763.1,-0.00011936,49.031,-0.00012589,-0.001796,0.61485
25379,8.7059,2.8182,0.1,0.0003716,3713.5,0.00037238,3736.6,-0.00011871,46.762,-0.00012494,-0.0019251,0.62543
25380,8.4295,2.7273,0.1,0.00037917,3789.1,0.00038007,3816,-0.00012058,54.319,-0.00012781,-0.0014467,0.59399
25381,8.5216,2.8182,0.1,0.00037663,3763.7,0.00037749,3789.4,-0.00011995,51.857,-0.00012685,-0.0015798,0.60444
25382,8.2452,2.7273,0.1,0.0003842,3839.3,0.00038519,3869,-0.00012176,60.063,-0.00012975,-0.001072,0.57338
25383,8.3373,2.8182,0.1,0.00038166,3814,0.0003826,3842.3,-0.00012114,57.391,-0.00012878,-0.0012091,0.5837
25384,8.0609,2.7273,0.1,0.00038921,3889.5,0.0003903,3922.2,-0.00012289,66.307,-0.00013171,-0.00066987,0.55304
25385,8.1531,2.8182,0.1,0.00038668,3864.1,0.00038772,3895.4,-0.00012229,63.405,-0.00013073,-0.0008105,0.56323
25386,7.8767,2.7273,0.1,0.00039422,3939.5,0.00039541,3975.5,-0.00012397,73.097,-0.0001337,-0.00023834,0.53296
25387,7.9688,2.8182,0.1,0.00039169,3914.2,0.00039283,3948.7,-0.0001234,69.945,-0.00013271,-0.00038138,0.54302
25388,7.6924,2.7273,0.1,0.00039921,3989.4,0.00040052,4029,-0.000125,80.485,-0.00013571,0.00022525,0.51315
25389,7.7845,2.8182,0.1,0.00039668,3964.1,0.00039794,4002.1,-0.00012445,77.06,-0.0001347,8.0318e-05,0.52307
25390,7.5081,2.7273,0.1,0.00040419,4039.1,0.00040563,4082.7,-0.00012596,88.527,-0.00013774,0.00072189,0.49361
25391,7.6003,2.8182,0.1,0.00040167,4013.9,0.00040304,4055.6,-0.00012544,84.804,-0.00013673,0.00057778,0.5034
25392,7.3239,2.7273,0.1,0.00040916,4088.7,0.00041072,4136.5,-0.00012686,97.288,-0.00013981,0.0012526,0.47435
25393,7.416,2.8182,0.1,0.00040663,4063.5,0.00040814,4109.4,-0.00012637,93.24,-0.00013878,0.0011115,0.484
25394,7.1396,2.7273,0.1,0.0004141,4138.2,0.00041582,4190.5,-0.00012769,106.84,-0.00014191,0.0018187,0.45536
25395,7.2317,2.8182,0.1,0.00041159,4113,0.00041323,4163.3,-0.00012723,102.43,-0.00014087,0.0016846,0.46487
25396,6.9553,2.7273,0.1,0.00041903,4187.4,0.0004209,4244.8,-0.00012844,117.25,-0.00014405,0.0024189,0.43666
25397,7.0475,2.8182,0.1,0.00041652,4162.3,0.00041832,4217.4,-0.00012802,112.46,-0.00014298,0.0022972,0.44603
25398,6.7711,2.7273,0.1,0.00042393,4236.4,0.00042598,4299.3,-0.0001291,128.63,-0.00014622,0.0030508,0.41824
25399,6.8632,2.8182,0.1,0.00042143,4211.4,0.00042339,4271.7,-0.00012872,123.41,-0.00014514,0.0029487,0.42747
25400,6.5868,2.7273,0.1,0.00042882,4285.2,0.00043105,4354,-0.00012967,141.05,-0.00014844,0.0037092,0.40012
25401,6.6789,2.8182,0.1,0.00042632,4260.3,0.00042846,4326.3,-0.00012932,135.37,-0.00014734,0.0036372,0.4092
25402,6.4025,2.7273,0.1,0.00043369,4333.9,0.00043611,4409.1,-0.00013013,154.63,-0.00015071,0.004385,0.38228
25403,6.4947,2.8182,0.1,0.00043119,4308.9,0.00043352,4381.2,-0.00012983,148.44,-0.00014958,0.0043574,0.39122
25404,6.2183,2.7273,0.1,0.00043854,4382.4,0.00044118,4464.7,-0.00013047,169.49,-0.00015303,0.0050646,0.36474
25405,6.3104,2.8182,0.1,0.00043604,4357.4,0.00043858,4436.5,-0.00013022,162.75,-0.00015188,0.0050999,0.37353
25406,6.034,2.7273,0.1,0.00044338,4430.7,0.00044625,4520.7,-0.0001307,185.77,-0.00015542,0.0057268,0.34751
25407,6.1261,2.8182,0.1,0.00044088,4405.8,0.00044364,4492.3,-0.00013049,178.42,-0.00015424,0.0058514,0.35614
25408,5.8497,2.7273,0.1,0.00044821,4479,0.00045133,4577.4,-0.00013078,203.61,-0.00015788,0.0063403,0.33057
25409,5.9419,2.8182,0.1,0.00044571,4454,0.00044871,4548.6,-0.00013063,195.6,-0.00015667,0.006589,0.33905
25410,5.6655,2.7273,0.1,0.00045305,4527.4,0.00045644,4634.9,-0.00013072,223.18,-0.00016043,0.0068603,0.31394
25411,5.7576,2.8182,0.1,0.00045053,4502.2,0.0004538,4605.6,-0.00013063,214.44,-0.00015917,0.0072802,0.32227
25412,5.4812,2.7273,0.1,0.00045791,4576,0.00046158,4693.4,-0.00013051,244.67,-0.00016307,0.0072231,0.29762
25413,5.5733,2.8182,0.1,0.00045537,4550.6,0.00045891,4663.6,-0.00013047,235.14,-0.00016177,0.0078779,0.3058
25414,5.2969,2.7273,0.1,0.00046282,4625,0.0004668,4753.3,-0.00013012,268.28,-0.00016582,0.007339,0.28162
25415,5.3891,2.8182,0.1,0.00046024,4599.2,0.00046408,4722.7,-0.00013015,257.88,-0.00016447,0.0083142,0.28964
25416,5.1127,2.7273,0.1,0.00046779,4674.7,0.0004721,4814.9,-0.00012956,294.23,-0.00016872,0.0070826,0.26593
25417,5.2048,2.8182,0.1,0.00046516,4648.4,0.00046933,4783.4,-0.00012965,282.9,-0.0001673,0.008494,0.27379
25418,4.9284,2.7273,0.1,0.00047289,4725.6,0.00047755,4878.7,-0.00012881,322.77,-0.00017177,0.0062798,0.25056
25419,5.0205,2.8182,0.1,0.00047018,4698.5,0.00047469,4846.1,-0.00012897,310.43,-0.00017028,0.0082831,0.25826
25420,4.7441,2.7273,0.1,0.00047815,4778.2,0.00048319,4945.5,-0.00012787,354.18,-0.00017501,0.0046888,0.23552
25421,4.8363,2.8182,0.1,0.00047533,4750.1,0.00048021,4911.3,-0.00012809,340.75,-0.00017344,0.0074948,0.24305
25422,4.5599,2.7273,0.1,0.00048366,4833.3,0.0004891,5015.9,-0.00012674,388.74,-0.00017848,0.001974,0.2208
25423,4.652,2.8182,0.1,0.0004807,4803.6,0.00048597,4979.8,-0.00012701,374.14,-0.0001768,0.0058685,0.22817
25424,4.3756,2.7273,0.1,0.00048952,4891.8,0.00049538,5091.2,-0.00012542,426.76,-0.00018222,-0.0023306,0.20642
25425,4.4677,2.8182,0.1,0.00048635,4860.2,0.00049204,5052.6,-0.00012573,410.92,-0.00018042,0.0030408,0.21362
25426,4.1913,2.7273,0.1,0.00049586,4955.1,0.00050216,5172.8,-0.00012393,468.55,-0.00018629,-0.0088737,0.19237
25427,4.2835,2.8182,0.1,0.00049241,4920.7,0.00049854,5130.9,-0.00012426,451.41,-0.00018434,-0.0014953,0.19941
25428,4.0071,2.7273,0.1,0.00050284,5025,0.00050961,5262.4,-0.0001223,514.45,-0.00019077,-0.018562,0.17867
25429,4.0992,2.8182,0.1,0.00049904,4986.9,0.00050562,5216.4,-0.00012263,495.97,-0.00018864,-0.0084506,0.18553
25430,3.8228,2.7273,0.1,0.00051071,5103.6,0.00051797,5362.5,-0.00012057,564.76,-0.00019574,-0.032667,0.16531
25431,3.9149,2.8182,0.1,0.00050642,5060.7,0.00051348,5311.1,-0.00012086,544.93,-0.00019339,-0.018825,0.17199
25432,3.6385,2.7273,0.1,0.00051975,5194,0.00052751,5476,-0.00011881,619.77,-0.0002013,-0.052979,0.1523
25433,3.7307,2.8182,0.1,0.00051483,5144.7,0.00052239,5417.8,-0.00011901,598.63,-0.00019868,-0.034033,0.15881
25434,3.4543,2.7273,0.1,0.00053037,5300,0.00053865,5607,-0.00011714,679.7,-0.00020761,-0.082029,0.13965
25435,3.5464,2.8182,0.1,0.00052461,5242.4,0.00053268,5540.1,-0.00011717,657.34,-0.00020466,-0.056081,0.14598
25436,3.27,2.7273,0.1,0.00054306,5426.8,0.00055187,5760.6,-0.00011571,744.63,-0.00021483,-0.12339,0.12737
25437,3.3621,2.8182,0.1,0.0005362,5358.3,0.00054481,5682.4,-0.00011547,721.28,-0.00021147,-0.087833,0.13351
25438,3.0857,2.7273,0.1,0.00055849,5581.1,0.00056786,5943.4,-0.00011476,814.47,-0.00022318,-0.18209,0.11546
25439,3.1779,2.8182,0.1,0.0005502,5498.3,0.00055937,5850.6,-0.0001141,790.49,-0.00021932,-0.13336,0.12141
25440,2.9015,2.7273,0.1,0.00057755,5771.5,0.00058751,6164.2,-0.00011461,888.79,-0.00023294,-0.26513,0.10394
25441,2.9936,2.8182,0.1,0.00056739,5670,0.00057713,6052.6,-0.00011333,864.76,-0.00022845,-0.19844,0.1097
25442,2.7172,2.7273,0.1,0.00060139,6009.8,0.00061196,6434.3,-0.00011573,966.64,-0.00024444,-0.38203,0.092813
25443,2.8093,2.8182,0.1,0.00058878,5883.7,0.00059912,6298.3,-0.00011356,943.48,-0.00023917,-0.29106,0.098371
25444,2.5329,2.7273,0.1,0.00063154,6311,0.00064278,6768.4,-0.00011879,1046.3,-0.00025812,-0.54484,0.082105
25445,2.6251,2.8182,0.1,0.00061571,6152.8,0.00062669,6600.8,-0.00011535,1025.4,-0.00025188,-0.422,0.087453
25446,2.3487,2.7273,0.1,0.00067,6695.3,0.00068198,7186,-0.00012472,1124.8,-0.00027453,-0.76744,0.071833
25447,2.4408,2.8182,0.1,0.00064993,6494.8,0.00066163,6977.2,-0.00011949,1108.2,-0.00026706,-0.60411,0.076962
25448,2.1644,2.7273,0.1,0.0007194,7189.1,0.00073222,7712,-0.00013479,1197.6,-0.00029433,-1.0629,0.062024
25449,2.2565,2.8182,0.1,0.00069374,6932.6,0.00070624,7449.3,-0.00012708,1188.1,-0.00028532,-0.85026,0.066921
25450,1.9801,2.7273,0.1,0.0007831,7825.6,0.00079683,8377.4,-0.00015075,1257.7,-0.00031832,-1.4063,0.052712
25451,2.0723,2.8182,0.1,0.00075005,7495.4,0.00076346,8044.5,-0.0001396,1259.3,-0.00030735,-1.1635,0.057361
25452,1.7959,2.7273,0.1,0.00086499,8643.9,0.00087966,9217.6,-0.00017464,1296,-0.00034737,-1.7612,0.04394
25453,1.888,2.8182,0.1,0.00082234,8217.7,0.00083672,8794.5,-0.00015891,1313.7,-0.00033395,-1.4978,0.048321
25454,1.6116,2.7273,0.1,0.00096852,9678.5,0.00098404,10264,-0.0002083,1304.8,-0.00038221,-1.9565,0.035764
25455,1.7037,2.8182,0.1,0.00091406,9134.3,0.00092941,9730.1,-0.00018694,1342.3,-0.00036581,-1.7429,0.03985
25456,1.4273,2.7273,0.1,0.0010934,10926,0.0011095,11513,-0.00025114,1289.2,-0.00042287,-1.1174,0.028254
25457,1.5195,2.8182,0.1,0.0010268,10261,0.0010429,10864,-0.00022444,1341.8,-0.00040325,-1.7119,0.032012
25458,1.2431,2.7273,0.1,0.0012284,12275,0.0012453,12870,-0.00029587,1290.9,-0.00046753,1.0466,0.021494
25459,1.3352,2.8182,0.1,0.0011555,11547,0.0011723,12155,-0.00026805,1332.4,-0.0004454,-0.18792,0.024882
25460,1.1509,2.8182,0.1,0.0012821,12812,0.0013,13447,-0.00030578,1382.1,-0.00048963,0.74461,0.018546
25461,1.0588,2.7273,0.1,0.0013457,13448,0.0013643,14101,-0.00032445,1412.3,-0.00051186,4.1914,0.015577
25462,23.724,2.9091,0.1,2.0901e-05,208.87,1.1644e-05,59.212,3.7324e-06,-0.22939,-1.9253e-05,-172.93,2.8896
25463,23.816,3,0.1,2.0103e-05,200.89,9.8658e-06,39.738,4.5486e-06,-0.21255,-1.913e-05,-178.12,2.9052
25464,23.908,2.9091,0.1,1.952e-05,195.07,8.2985e-06,22.362,5.2649e-06,-0.43089,-1.9047e-05,-183.1,2.9207
25465,23.539,2.9091,0.1,2.2838e-05,228.22,1.5213e-05,98.269,2.1033e-06,-0.23097,-1.9515e-05,-162.66,2.8585
25466,23.631,3,0.1,2.1814e-05,217.99,1.3432e-05,78.766,2.9045e-06,-0.33346,-1.9375e-05,-167.73,2.8741
25467,23.355,2.9091,0.1,2.5142e-05,251.24,1.8779e-05,137.21,5.006e-07,-0.1336,-1.9814e-05,-152.77,2.8274
25468,23.447,3,0.1,2.3946e-05,239.29,1.6995e-05,117.78,1.2999e-06,-0.14565,-1.9654e-05,-157.59,2.843
25469,23.171,2.9091,0.1,2.7724e-05,277.05,2.2349e-05,175.99,-1.0888e-06,-0.11036,-2.0154e-05,-143.36,2.7964
25470,23.263,3,0.1,2.6399e-05,263.8,2.0563e-05,156.63,-2.9949e-07,-0.12775,-1.9973e-05,-147.94,2.8119
25471,22.987,2.9091,0.1,3.0518e-05,304.97,2.5923e-05,214.67,-2.6593e-06,-0.08742,-2.0536e-05,-134.4,2.7653
25472,23.079,3,0.1,2.9093e-05,290.73,2.4134e-05,195.35,-1.8784e-06,-0.095871,-2.0333e-05,-138.76,2.7808
25473,22.802,2.9091,0.1,3.3476e-05,334.53,2.9506e-05,253.28,-4.213e-06,-0.073901,-2.0963e-05,-125.93,2.7343
25474,22.894,3,0.1,3.1974e-05,319.52,2.7711e-05,233.98,-3.4405e-06,-0.080578,-2.0737e-05,-130.04,2.7498
25475,22.618,2.9091,0.1,3.6565e-05,365.39,3.3102e-05,291.86,-5.7506e-06,-0.06349,-2.1436e-05,-117.92,2.7033
25476,22.71,3,0.1,3.5e-05,349.76,3.13e-05,272.57,-4.9857e-06,-0.068217,-2.1187e-05,-121.8,2.7188
25477,22.434,2.9091,0.1,3.976e-05,397.33,3.6715e-05,330.46,-7.2734e-06,-0.055746,-2.1955e-05,-110.37,2.6723
25478,22.526,3,0.1,3.8144e-05,381.18,3.4903e-05,311.14,-6.5155e-06,-0.059428,-2.1683e-05,-114.02,2.6878
25479,22.249,2.9091,0.1,4.3045e-05,430.16,4.0348e-05,369.1,-8.7829e-06,-0.049629,-2.2522e-05,-103.28,2.6413
25480,22.342,3,0.1,4.1386e-05,413.57,3.8525e-05,349.75,-8.0313e-06,-0.052536,-2.2226e-05,-106.7,2.6568
25481,22.065,2.9091,0.1,4.6409e-05,463.77,4.4003e-05,407.82,-1.028e-05,-0.044707,-2.3136e-05,-96.64,2.6104
25482,22.157,3,0.1,4.4711e-05,446.81,4.2168e-05,388.42,-9.5345e-06,-0.047076,-2.2816e-05,-99.841,2.6258
25483,21.881,2.9091,0.1,4.9842e-05,498.07,4.7683e-05,446.65,-1.1767e-05,-0.040644,-2.3797e-05,-90.427,2.5794
25484,21.973,3,0.1,4.811e-05,480.77,4.5835e-05,427.19,-1.1026e-05,-0.042614,-2.3454e-05,-93.416,2.5949
25485,21.697,2.9091,0.1,5.3337e-05,533,5.139e-05,485.61,-1.3245e-05,-0.037233,-2.4504e-05,-84.628,2.5486
25486,21.789,3,0.1,5.1575e-05,515.39,4.9528e-05,466.08,-1.2509e-05,-0.038897,-2.4137e-05,-87.414,2.564
25487,21.512,2.9091,0.1,5.6889e-05,568.5,5.5126e-05,524.72,-1.4715e-05,-0.034334,-2.5254e-05,-79.223,2.5177
25488,21.605,3,0.1,5.5099e-05,550.61,5.3249e-05,505.11,-1.3982e-05,-0.035756,-2.4866e-05,-81.816,2.5331
25489,21.328,2.9091,0.1,6.0495e-05,604.53,5.889e-05,564,-1.6178e-05,-0.031832,-2.6048e-05,-74.194,2.4869
25490,21.42,3,0.1,5.8679e-05,586.38,5.6999e-05,544.3,-1.5448e-05,-0.033071,-2.5639e-05,-76.603,2.5023
25491,21.144,2.9091,0.1,6.4151e-05,641.06,6.2684e-05,603.46,-1.7635e-05,-0.029644,-2.6884e-05,-69.519,2.4561
25492,21.236,3,0.1,6.231e-05,622.67,6.0778e-05,583.67,-1.6908e-05,-0.030732,-2.6454e-05,-71.756,2.4715
25493,20.96,2.9091,0.1,6.7853e-05,678.06,6.6508e-05,643.11,-1.9088e-05,-0.027712,-2.7759e-05,-65.178,2.4254
25494,21.052,3,0.1,6.5989e-05,659.43,6.4587e-05,623.22,-1.8362e-05,-0.028679,-2.7309e-05,-67.253,2.4408
25495,20.775,2.9091,0.1,7.1599e-05,715.5,7.0362e-05,682.95,-2.0536e-05,-0.026001,-2.8671e-05,-61.151,2.3947
25496,20.867,3,0.1,6.9714e-05,696.65,6.8426e-05,662.96,-1.9813e-05,-0.026859,-2.8204e-05,-63.073,2.4101
25497,20.591,2.9091,0.1,7.5388e-05,753.36,7.4247e-05,723,-2.1982e-05,-0.024479,-2.962e-05,-57.416,2.3641
25498,20.683,3,0.1,7.3482e-05,734.31,7.2295e-05,702.91,-2.126e-05,-0.025244,-2.9135e-05,-59.196,2.3794
25499,20.407,2.9091,0.1,7.9217e-05,791.63,7.8161e-05,763.26,-2.3425e-05,-0.023113,-3.0603e-05,-53.955,2.3335
25500,20.499,3,0.1,7.7291e-05,772.37,7.6194e-05,743.06,-2.2704e-05,-0.023806,-3.0101e-05,-55.603,2.3488
25501,20.223,2.9091,0.1,8.3085e-05,830.27,8.2105e-05,803.72,-2.4868e-05,-0.021875,-3.1619e-05,-50.749,2.303
25502,20.315,3,0.1,8.1139e-05,810.83,8.0123e-05,783.42,-2.4147e-05,-0.022506,-3.1101e-05,-52.274,2.3182
25503,20.038,2.9091,0.1,8.6989e-05,869.29,8.6077e-05,844.41,-2.6309e-05,-0.020746,-3.2665e-05,-47.779,2.2725
25504,20.13,3,0.1,8.5025e-05,849.67,8.4081e-05,823.99,-2.5588e-05,-0.021326,-3.2132e-05,-49.19,2.2877
25505,19.854,2.9091,0.1,9.0929e-05,908.66,9.0079e-05,885.3,-2.775e-05,-0.019718,-3.374e-05,-45.028,2.2421
25506,19.946,3,0.1,8.8948e-05,888.87,8.8069e-05,864.78,-2.703e-05,-0.020244,-3.3193e-05,-46.333,2.2573
25507,19.67,2.9091,0.1,9.4903e-05,948.38,9.4109e-05,926.41,-2.9192e-05,-0.018791,-3.4843e-05,-42.481,2.2117
25508,19.762,3,0.1,9.2905e-05,928.41,9.2085e-05,905.79,-2.8471e-05,-0.019267,-3.4283e-05,-43.688,2.2269
25509,19.485,2.9091,0.1,9.891e-05,988.42,9.8166e-05,967.74,-3.0634e-05,-0.017942,-3.5972e-05,-40.121,2.1815
25510,19.578,3,0.1,9.6896e-05,968.29,9.6128e-05,947.01,-2.9913e-05,-0.018385,-3.5399e-05,-41.238,2.1966
25511,19.301,2.9091,0.1,0.00010295,1028.8,0.00010225,1009.3,-3.2078e-05,-0.017156,-3.7125e-05,-37.935,2.1512
25512,19.393,3,0.1,0.00010092,1008.5,0.0001002,988.44,-3.1356e-05,-0.017566,-3.654e-05,-38.969,2.1663
25513,19.117,2.9091,0.1,0.00010702,1069.5,0.00010636,1051,-3.3524e-05,-0.016424,-3.8301e-05,-35.909,2.1211
25514,19.209,3,0.1,0.00010497,1049,0.0001043,1030.1,-3.2801e-05,-0.016811,-3.7705e-05,-36.866,2.1362
25515,18.933,2.9091,0.1,0.00011112,1110.4,0.0001105,1093,-3.4972e-05,-0.015748,-3.9499e-05,-34.03,2.091
25516,19.025,3,0.1,0.00010906,1089.8,0.00010842,1072,-3.4248e-05,-0.0161,-3.8892e-05,-34.916,2.106
25517,18.748,2.9091,0.1,0.00011525,1151.7,0.00011467,1135.2,-3.6423e-05,-0.015136,-4.0718e-05,-32.287,2.061
25518,18.841,3,0.1,0.00011317,1131,0.00011257,1114,-3.5697e-05,-0.015456,-4.0101e-05,-33.108,2.076
25519,18.564,2.9091,0.1,0.00011941,1193.2,0.00011885,1177.6,-3.7876e-05,-0.014568,-4.1956e-05,-30.669,2.0311
25520,18.656,3,0.1,0.00011732,1172.4,0.00011675,1156.3,-3.7149e-05,-0.014874,-4.133e-05,-31.43,2.046
25521,18.38,2.9091,0.1,0.00012359,1235.1,0.00012307,1220.2,-3.9333e-05,-0.014033,-4.3213e-05,-29.165,2.0012
25522,18.472,3,0.1,0.00012149,1214.1,0.00012095,1198.8,-3.8604e-05,-0.01432,-4.2578e-05,-29.871,2.0161
25523,18.196,2.9091,0.1,0.0001278,1277.2,0.00012731,1263,-4.0793e-05,-0.013526,-4.4487e-05,-27.765,1.9715
25524,18.288,3,0.1,0.00012569,1256,0.00012518,1241.6,-4.0062e-05,-0.013803,-4.3843e-05,-28.422,1.9863
25525,18.011,2.9091,0.1,0.00013204,1319.5,0.00013157,1306.1,-4.2258e-05,-0.013052,-4.5778e-05,-26.462,1.9418
25526,18.103,3,0.1,0.00012991,1298.2,0.00012943,1284.5,-4.1525e-05,-0.013304,-4.5126e-05,-27.073,1.9566
25527,17.827,2.9091,0.1,0.00013631,1362.1,0.00013586,1349.3,-4.3726e-05,-0.012626,-4.7084e-05,-25.247,1.9122
25528,17.919,3,0.1,0.00013417,1340.7,0.00013371,1327.6,-4.2991e-05,-0.012854,-4.6425e-05,-25.816,1.927
25529,17.643,2.9091,0.1,0.0001406,1405,0.00014017,1392.8,-4.5198e-05,-0.012227,-4.8406e-05,-24.111,1.8827
25530,17.735,3,0.1,0.00013844,1383.5,0.00013801,1371,-4.4461e-05,-0.012449,-4.7739e-05,-24.643,1.8974
25531,17.459,2.9091,0.1,0.00014491,1448.1,0.0001445,1436.4,-4.6675e-05,-0.011844,-4.9741e-05,-23.048,1.8533
25532,17.551,3,0.1,0.00014274,1426.5,0.00014233,1414.5,-4.5935e-05,-0.012056,-4.9068e-05,-23.545,1.868
25533,17.274,2.9091,0.1,0.00014925,1491.5,0.00014886,1480.3,-4.8157e-05,-0.011473,-5.109e-05,-22.05,1.824
25534,17.366,3,0.1,0.00014707,1469.7,0.00014667,1458.3,-4.7415e-05,-0.011683,-5.041e-05,-22.516,1.8386
25535,17.09,2.9091,0.1,0.00015361,1535,0.00015324,1524.4,-4.9643e-05,-0.011124,-5.2451e-05,-21.112,1.7948
25536,17.182,3,0.1,0.00015142,1513.2,0.00015104,1502.3,-4.8899e-05,-0.011313,-5.1765e-05,-21.55,1.8094
25537,16.906,2.9091,0.1,0.000158,1578.9,0.00015764,1568.7,-5.1135e-05,-0.010814,-5.3825e-05,-20.227,1.7657
25538,16.998,3,0.1,0.0001558,1556.9,0.00015543,1546.5,-5.0388e-05,-0.010984,-5.3133e-05,-20.64,1.7802
25539,16.721,2.9091,0.1,0.00016241,1622.9,0.00016207,1613.1,-5.2631e-05,-0.010522,-5.521e-05,-19.389,1.7367
25540,16.814,3,0.1,0.00016019,1600.8,0.00015985,1590.8,-5.1882e-05,-0.010692,-5.4513e-05,-19.78,1.7512
25541,16.537,2.9091,0.1,0.00016684,1667.2,0.00016651,1657.8,-5.4133e-05,-0.010235,-5.6607e-05,-18.593,1.7078
25542,16.629,3,0.1,0.00016461,1645,0.00016428,1635.4,-5.3381e-05,-0.0104,-5.5904e-05,-18.965,1.7223
25543,16.353,2.9091,0.1,0.00017129,1711.7,0.00017098,1702.7,-5.5641e-05,-0.0099506,-5.8013e-05,-17.835,1.6791
25544,16.445,3,0.1,0.00016906,1689.4,0.00016874,1680.2,-5.4886e-05,-0.010117,-5.7305e-05,-18.19,1.6934
25545,16.169,2.9091,0.1,0.00017577,1756.5,0.00017547,1747.8,-5.7154e-05,-0.0096812,-5.943e-05,-17.108,1.6504
25546,16.261,3,0.1,0.00017352,1734,0.00017322,1725.2,-5.6396e-05,-0.0098299,-5.8717e-05,-17.448,1.6647
25547,15.984,2.9091,0.1,0.00018026,1801.4,0.00017998,1793.1,-5.8673e-05,-0.0094461,-6.0856e-05,-16.409,1.6219
25548,16.077,3,0.1,0.00017801,1778.8,0.00017772,1770.4,-5.7912e-05,-0.0095779,-6.0139e-05,-16.737,1.6361
25549,15.8,2.9091,0.1,0.00018478,1846.6,0.00018451,1838.6,-6.0198e-05,-0.0092234,-6.2291e-05,-15.733,1.5935
25550,15.892,3,0.1,0.00018252,1823.9,0.00018224,1815.8,-5.9434e-05,-0.0093597,-6.1569e-05,-16.051,1.6077
25551,15.616,2.9091,0.1,0.00018932,1891.9,0.00018906,1884.3,-6.1729e-05,-0.0089995,-6.3734e-05,-15.075,1.5652
25552,15.708,3,0.1,0.00018705,1869.2,0.00018678,1861.4,-6.0962e-05,-0.0091326,-6.3009e-05,-15.385,1.5793
25553,15.432,2.9091,0.1,0.00019388,1937.5,0.00019363,1930.2,-6.3266e-05,-0.008771,-6.5186e-05,-14.432,1.537
25554,15.524,3,0.1,0.0001916,1914.6,0.00019134,1907.2,-6.2496e-05,-0.0089104,-6.4456e-05,-14.736,1.5511
25555,15.247,2.9091,0.1,0.00019847,1983.3,0.00019823,1976.3,-6.481e-05,-0.0085518,-6.6645e-05,-13.799,1.509
25556,15.339,3,0.1,0.00019617,1960.3,0.00019592,1953.2,-6.4036e-05,-0.0086751,-6.5912e-05,-14.098,1.523
25557,15.063,2.9091,0.1,0.00020307,2029.3,0.00020284,2022.6,-6.6359e-05,-0.0083662,-6.8111e-05,-13.171,1.4811
25558,15.155,3,0.1,0.00020076,2006.2,0.00020053,1999.4,-6.5583e-05,-0.0084729,-6.7374e-05,-13.469,1.495
25559,14.879,2.9091,0.1,0.00020769,2075.5,0.00020747,2069.2,-6.7916e-05,-0.0081896,-6.9584e-05,-12.546,1.4534
25560,14.971,3,0.1,0.00020537,2052.3,0.00020515,2045.8,-6.7136e-05,-0.0083038,-6.8844e-05,-12.844,1.4672
25561,14.695,2.9091,0.1,0.00021233,2121.8,0.00021213,2115.9,-6.9479e-05,-0.0080053,-7.1064e-05,-11.919,1.4257
25562,14.787,3,0.1,0.00021,2098.6,0.00020979,2092.4,-6.8695e-05,-0.0081192,-7.0321e-05,-12.219,1.4395
25563,14.51,2.9091,0.1,0.00021699,2168.4,0.0002168,2162.8,-7.1048e-05,-0.0078114,-7.2549e-05,-11.285,1.3983
25564,14.602,3,0.1,0.00021465,2145.1,0.00021445,2139.2,-7.0262e-05,-0.0079353,-7.1803e-05,-11.59,1.412
25565,14.326,2.9091,0.1,0.00022167,2215.2,0.00022149,2209.8,-7.2625e-05,-0.0076245,-7.404e-05,-10.642,1.371
25566,14.418,3,0.1,0.00021933,2191.7,0.00021914,2186.2,-7.1835e-05,-0.0077318,-7.3291e-05,-10.953,1.3846
25567,14.142,2.9091,0.1,0.00022637,2262.2,0.0002262,2257.1,-7.4208e-05,-0.0074704,-7.5536e-05,-9.9835,1.3438
25568,14.234,3,0.1,0.00022402,2238.6,0.00022384,2233.4,-7.3415e-05,-0.0075615,-7.4785e-05,-10.303,1.3574
25569,13.957,2.9091,0.1,0.00023109,2309.3,0.00023093,2304.6,-7.5799e-05,-0.0073219,-7.7036e-05,-9.3069,1.3168
25570,14.05,3,0.1,0.00022872,2285.7,0.00022856,2280.8,-7.5002e-05,-0.0074235,-7.6283e-05,-9.6369,1.3303
25571,13.773,2.9091,0.1,0.00023583,2356.6,0.00023568,2352.3,-7.7397e-05,-0.0071613,-7.8541e-05,-8.6072,1.2899
25572,13.865,3,0.1,0.00023345,2332.9,0.0002333,2328.4,-7.6596e-05,-0.0072651,-7.7786e-05,-8.95,1.3033
25573,13.589,2.9091,0.1,0.00024058,2404.1,0.00024045,2400.2,-7.9002e-05,-0.006986,-8.0049e-05,-7.8801,1.2632
25574,13.681,3,0.1,0.0002382,2380.3,0.00023806,2376.2,-7.8197e-05,-0.0071036,-7.9293e-05,-8.238,1.2765
25575,13.405,2.9091,0.1,0.00024535,2451.8,0.00024523,2448.3,-8.0614e-05,-0.006815,-8.1561e-05,-7.1207,1.2367
25576,13.497,3,0.1,0.00024296,2427.9,0.00024283,2424.2,-7.9806e-05,-0.006916,-8.0803e-05,-7.4961,1.2499
25577,13.22,2.9091,0.1,0.00025014,2499.7,0.00025004,2496.5,-8.2234e-05,-0.0066773,-8.3075e-05,-6.3242,1.2103
25578,13.313,3,0.1,0.00024774,2475.7,0.00024763,2472.3,-8.1422e-05,-0.0067631,-8.2316e-05,-6.7196,1.2235
25579,13.036,2.9091,0.1,0.00025495,2547.7,0.00025486,2545,-8.3862e-05,-0.0065425,-8.4592e-05,-5.4855,1.1841
25580,13.128,3,0.1,0.00025254,2523.7,0.00025244,2520.7,-8.3046e-05,-0.0066427,-8.3831e-05,-5.9036,1.1972
25581,12.852,2.9091,0.1,0.00025977,2596,0.0002597,2593.7,-8.5498e-05,-0.0063905,-8.611e-05,-4.599,1.1581
25582,12.944,3,0.1,0.00025736,2571.8,0.00025727,2569.3,-8.4678e-05,-0.0064969,-8.5349e-05,-5.0425,1.1711
25583,12.668,2.9091,0.1,0.00026462,2644.3,0.00026455,2642.5,-8.7142e-05,-0.0062185,-8.7628e-05,-3.6591,1.1322
25584,12.76,3,0.1,0.00026219,2620.1,0.00026212,2618,-8.6318e-05,-0.0063447,-8.6867e-05,-4.1311,1.1451
25585,12.483,2.9091,0.1,0.00026947,2692.9,0.00026943,2691.5,-8.8795e-05,-0.0060439,-8.9148e-05,-2.6596,1.1066
25586,12.575,3,0.1,0.00026704,2668.5,0.00026698,2667,-8.7966e-05,-0.0061618,-8.8386e-05,-3.1631,1.1194
25587,12.299,2.9091,0.1,0.00027434,2741.6,0.00027432,2740.8,-9.0455e-05,-0.0058897,-9.0667e-05,-1.5941,1.0811
25588,12.391,3,0.1,0.0002719,2717.1,0.00027187,2716.1,-8.9623e-05,-0.0060128,-8.9906e-05,-2.1325,1.0938
25589,12.115,2.9091,0.1,0.00027923,2790.4,0.00027922,2790.2,-9.2124e-05,-0.0056186,-9.2184e-05,-0.45581,1.0558
25590,12.207,3,0.1,0.00027678,2765.9,0.00027677,2765.4,-9.1288e-05,-0.0058974,-9.1424e-05,-1.0326,1.0684
25591,11.931,2.9091,0.1,0.00028413,2839.4,0.00028415,2839.8,-9.37e-05,0.76335,-9.3803e-05,-0.0057781,1.0307
25592,12.023,3,0.1,0.00028168,2814.8,0.00028168,2814.9,-9.2941e-05,0.144,-9.2961e-05,-0.0057505,1.0432
25593,11.746,2.9091,0.1,0.00028905,2888.5,0.00028909,2889.5,-9.5214e-05,2.0705,-9.549e-05,-0.0055316,1.0057
25594,11.838,3,0.1,0.00028659,2863.9,0.00028661,2864.6,-9.4456e-05,1.4047,-9.4644e-05,-0.0055941,1.0182
25595,11.562,2.9091,0.1,0.00029398,2937.8,0.00029404,2939.5,-9.6723e-05,3.4745,-9.7186e-05,-0.0053392,0.98102
25596,11.654,3,0.1,0.00029151,2913.1,0.00029156,2914.5,-9.5968e-05,2.7579,-9.6336e-05,-0.0054014,0.99336
25597,11.378,2.9091,0.1,0.00029892,2987.2,0.00029901,2989.7,-9.8228e-05,4.9845,-9.8892e-05,-0.0051905,0.9565
25598,11.47,3,0.1,0.00029645,2962.4,0.00029652,2964.5,-9.7476e-05,4.2123,-9.8037e-05,-0.0052426,0.96874
25599,11.193,2.9091,0.1,0.00030388,3036.7,0.00030399,3040,-9.9728e-05,6.6105,-0.00010061,-0.005043,0.93218
25600,11.286,3,0.1,0.0003014,3011.9,0.0003015,3014.8,-9.8978e-05,5.7775,-9.9748e-05,-0.0051186,0.94432
25601,11.009,2.9091,0.1,0.00030885,3086.4,0.00030899,3090.5,-0.00010122,8.3631,-0.00010233,-0.0048711,0.90806
25602,11.101,3,0.1,0.00030636,3061.5,0.00030649,3065.2,-0.00010047,7.4638,-0.00010147,-0.0049558,0.9201
25603,10.825,2.9091,0.1,0.00031383,3136.1,0.000314,3141.2,-0.00010271,10.254,-0.00010407,-0.004672,0.88416
25604,10.917,3,0.1,0.00031133,3111.2,0.00031149,3115.8,-0.00010196,9.2822,-0.0001032,-0.0047796,0.89609
25605,10.641,2.9091,0.1,0.00031882,3186,0.00031902,3192.1,-0.00010418,12.295,-0.00010582,-0.0044691,0.86047
25606,10.733,3,0.1,0.00031632,3161,0.00031651,3166.6,-0.00010344,11.245,-0.00010494,-0.0045604,0.8723
25607,10.456,2.9091,0.1,0.00032382,3235.9,0.00032406,3243.2,-0.00010565,14.501,-0.00010758,-0.0042985,0.837
25608,10.549,3,0.1,0.00032131,3210.9,0.00032154,3217.6,-0.00010492,13.365,-0.00010669,-0.0043757,0.84871
25609,10.272,2.9091,0.1,0.00032882,3286,0.00032911,3294.4,-0.0001071,16.886,-0.00010935,-0.0041141,0.81374
25610,10.364,3,0.1,0.00032632,3260.9,0.00032658,3268.7,-0.00010638,15.656,-0.00010846,-0.0042206,0.82535
25611,10.088,2.9091,0.1,0.00033384,3336.1,0.00033417,3345.8,-0.00010854,19.466,-0.00011113,-0.0039011,0.79071
25612,10.18,3,0.1,0.00033133,3311,0.00033163,3320,-0.00010782,18.134,-0.00011024,-0.0040077,0.80221
25613,9.9036,2.9091,0.1,0.00033886,3386.3,0.00033923,3397.3,-0.00010996,22.257,-0.00011293,-0.003683,0.76791
25614,9.9957,3,0.1,0.00033635,3361.1,0.0003367,3371.5,-0.00010925,20.814,-0.00011202,-0.0037949,0.77929
25615,9.7193,2.9091,0.1,0.00034389,3436.5,0.00034431,3449.1,-0.00011137,25.281,-0.00011473,-0.0034493,0.74534
25616,9.8115,3,0.1,0.00034137,3411.4,0.00034177,3423.2,-0.00011067,23.717,-0.00011383,-0.0035713,0.7566
25617,9.5351,2.9091,0.1,0.00034892,3486.8,0.0003494,3501,-0.00011275,28.556,-0.00011656,-0.0032023,0.723
25618,9.6272,3,0.1,0.0003464,3461.6,0.00034685,3475,-0.00011207,26.86,-0.00011564,-0.0033271,0.73415
25619,9.3508,2.9091,0.1,0.00035395,3537.1,0.00035449,3553,-0.00011412,32.105,-0.00011839,-0.0029432,0.7009
25620,9.4429,3,0.1,0.00035144,3511.9,0.00035194,3527,-0.00011344,30.266,-0.00011747,-0.0030768,0.71193
25621,9.1665,2.9091,0.1,0.00035899,3587.4,0.00035959,3605.3,-0.00011546,35.954,-0.00012024,-0.0026665,0.67904
25622,9.2587,3,0.1,0.00035647,3562.3,0.00035704,3579.1,-0.00011479,33.958,-0.00011931,-0.0028081,0.68994
25623,8.9823,2.9091,0.1,0.00036403,3637.8,0.00036469,3657.7,-0.00011677,40.128,-0.00012211,-0.0023711,0.65742
25624,9.0744,3,0.1,0.00036151,3612.6,0.00036214,3631.4,-0.00011612,37.963,-0.00012117,-0.0025222,0.66821
25625,8.798,2.9091,0.1,0.00036906,3688.1,0.0003698,3710.2,-0.00011805,44.658,-0.000124,-0.0020549,0.63605
25626,8.8901,3,0.1,0.00036654,3662.9,0.00036725,3683.9,-0.00011742,42.307,-0.00012305,-0.0022163,0.64671
25627,8.6137,2.9091,0.1,0.00037409,3738.3,0.00037491,3762.9,-0.0001193,49.576,-0.0001259,-0.0017156,0.61493
25628,8.7059,3,0.1,0.00037158,3713.2,0.00037235,3736.5,-0.00011868,47.022,-0.00012494,-0.0018883,0.62547
25629,8.4295,2.9091,0.1,0.00037912,3788.6,0.00038002,3815.7,-0.00012051,54.918,-0.00012782,-0.0013512,0.59407
25630,8.5216,3,0.1,0.00037661,3763.5,0.00037747,3789.3,-0.00011991,52.142,-0.00012685,-0.0015362,0.60448
25631,8.2452,2.9091,0.1,0.00038414,3838.7,0.00038514,3868.7,-0.00012168,60.723,-0.00012976,-0.00095899,0.57346
25632,8.3373,3,0.1,0.00038163,3813.7,0.00038258,3842.2,-0.00012111,57.705,-0.00012879,-0.0011572,0.58374
25633,8.0609,2.9091,0.1,0.00038915,3888.8,0.00039025,3921.9,-0.0001228,67.034,-0.00013173,-0.00053629,0.55312
25634,8.1531,3,0.1,0.00038665,3863.8,0.00038769,3895.3,-0.00012225,63.751,-0.00013074,-0.00074923,0.56327
25635,7.8767,2.9091,0.1,0.00039415,3938.8,0.00039535,3975.2,-0.00012388,73.9,-0.00013371,-8.04e-05,0.53304
25636,7.9688,3,0.1,0.00039165,3913.8,0.0003928,3948.5,-0.00012335,70.326,-0.00013271,-0.00030895,0.54306
25637,7.6924,2.9091,0.1,0.00039914,3988.6,0.00040046,4028.7,-0.0001249,81.373,-0.00013573,0.00041115,0.51323
25638,7.7845,3,0.1,0.00039665,3963.7,0.00039791,4001.9,-0.0001244,77.481,-0.00013471,0.00016588,0.52311
25639,7.5081,2.9091,0.1,0.00040411,4038.3,0.00040556,4082.3,-0.00012585,89.511,-0.00013777,0.0009409,0.49369
25640,7.6003,3,0.1,0.00040163,4013.5,0.00040301,4055.5,-0.00012539,85.271,-0.00013674,0.00067816,0.50344
25641,7.3239,2.9091,0.1,0.00040906,4087.8,0.00041065,4136.1,-0.00012674,98.382,-0.00013984,0.0015113,0.47443
25642,7.416,3,0.1,0.00040659,4063.1,0.0004081,4109.2,-0.00012631,93.758,-0.00013879,0.0012304,0.48404
25643,7.1396,2.9091,0.1,0.000414,4137.2,0.00041573,4190.1,-0.00012756,108.06,-0.00014194,0.0021242,0.45545
25644,7.2317,3,0.1,0.00041154,4112.5,0.00041319,4163.1,-0.00012717,103.01,-0.00014088,0.0018247,0.46491
25645,6.9553,2.9091,0.1,0.00041892,4186.3,0.00042081,4244.3,-0.00012829,118.62,-0.00014408,0.0027799,0.43674
25646,7.0475,3,0.1,0.00041647,4161.8,0.00041827,4217.2,-0.00012794,113.11,-0.000143,0.0024625,0.44607
25647,6.7711,2.9091,0.1,0.00042382,4235.2,0.00042588,4298.8,-0.00012893,130.15,-0.00014626,0.003478,0.41833
25648,6.8632,3,0.1,0.00042137,4210.8,0.00042335,4271.5,-0.00012864,124.13,-0.00014516,0.0031443,0.42751
25649,6.5868,2.9091,0.1,0.00042869,4283.9,0.00043094,4353.5,-0.00012948,142.76,-0.00014848,0.0042159,0.4002
25650,6.6789,3,0.1,0.00042626,4259.6,0.00042841,4326.1,-0.00012923,136.18,-0.00014736,0.0038688,0.40924
25651,6.4025,2.9091,0.1,0.00043355,4332.5,0.000436,4408.6,-0.00012992,156.56,-0.00015075,0.0049877,0.38237
25652,6.4947,3,0.1,0.00043112,4308.3,0.00043347,4381,-0.00012973,149.35,-0.0001496,0.0046325,0.39126
25653,6.2183,2.9091,0.1,0.00043838,4380.8,0.00044105,4464.1,-0.00013024,171.68,-0.00015309,0.0057834,0.36483
25654,6.3104,3,0.1,0.00043597,4356.7,0.00043852,4436.3,-0.00013011,163.77,-0.00015191,0.0054277,0.37357
25655,6.034,2.9091,0.1,0.00044321,4429,0.00044611,4520.2,-0.00013043,188.25,-0.00015548,0.0065868,0.34759
25656,6.1261,3,0.1,0.0004408,4405,0.00044358,4492,-0.00013037,179.58,-0.00015427,0.0062427,0.35618
25657,5.8497,2.9091,0.1,0.00044803,4477.2,0.00045118,4576.8,-0.00013048,206.43,-0.00015796,0.0073726,0.33066
25658,5.9419,3,0.1,0.00044562,4453.1,0.00044864,4548.3,-0.00013049,196.91,-0.0001567,0.0070579,0.3391
25659,5.6655,2.9091,0.1,0.00045285,4525.4,0.00045628,4634.3,-0.00013038,226.4,-0.00016051,0.008104,0.31403
25660,5.7576,3,0.1,0.00045044,4501.3,0.00045372,4605.4,-0.00013047,215.94,-0.00015921,0.0078441,0.32232
25661,5.4812,2.9091,0.1,0.0004577,4573.8,0.00046141,4692.9,-0.00013012,248.35,-0.00016317,0.0087274,0.29771
25662,5.5733,3,0.1,0.00045527,4549.5,0.00045883,4663.3,-0.00013029,236.85,-0.00016182,0.0085584,0.30584
25663,5.2969,2.9091,0.1,0.00046258,4622.6,0.00046662,4752.9,-0.00012968,272.51,-0.00016595,0.0091665,0.2817
25664,5.3891,3,0.1,0.00046013,4598.1,0.00046399,4722.5,-0.00012995,259.85,-0.00016453,0.009139,0.28968
25665,5.1127,2.9091,0.1,0.00046754,4672.2,0.00047191,4814.6,-0.00012906,299.1,-0.00016887,0.0093129,0.26602
25666,5.2048,3,0.1,0.00046504,4647.2,0.00046924,4783.2,-0.00012942,285.16,-0.00016737,0.0094979,0.27383
25667,4.9284,2.9091,0.1,0.00047262,4723,0.00047735,4878.6,-0.00012824,328.41,-0.00017195,0.0090145,0.25065
25668,5.0205,3,0.1,0.00047005,4697.3,0.00047459,4845.9,-0.0001287,313.05,-0.00017036,0.0095108,0.2583
25669,4.7441,2.9091,0.1,0.00047788,4775.5,0.00048299,4945.6,-0.00012722,360.7,-0.00017523,0.0080581,0.2356
25670,4.8363,3,0.1,0.0004752,4748.7,0.00048011,4911.3,-0.00012778,343.77,-0.00017353,0.0090031,0.24309
25671,4.5599,2.9091,0.1,0.00048338,4830.5,0.0004889,5016.4,-0.000126,396.31,-0.00017874,0.0061455,0.22089
25672,4.652,3,0.1,0.00048056,4802.2,0.00048586,4979.9,-0.00012666,377.64,-0.00017692,0.0077307,0.22821
25673,4.3756,2.9091,0.1,0.00048924,4889,0.00049519,5092.2,-0.00012457,435.57,-0.00018254,0.0028588,0.2065
25674,4.4677,3,0.1,0.00048621,4858.7,0.00049194,5052.9,-0.00012533,414.99,-0.00018057,0.005351,0.21366
25675,4.1913,2.9091,0.1,0.00049559,4952.5,0.000502,5174.5,-0.00012296,478.82,-0.00018669,-0.0023891,0.19246
25676,4.2835,3,0.1,0.00049228,4919.4,0.00049845,5131.5,-0.00012381,456.16,-0.00018452,0.0013838,0.19945
25677,4.0071,2.9091,0.1,0.00050261,5022.6,0.00050949,5265.1,-0.00012119,526.44,-0.00019125,-0.010427,0.17875
25678,4.0992,3,0.1,0.00049891,4985.7,0.00050554,5217.4,-0.00012211,501.5,-0.00018886,-0.0048474,0.18557
25679,3.8228,2.9091,0.1,0.00051054,5101.8,0.00051791,5366.5,-0.0001193,578.79,-0.00019633,-0.02243,0.16539
25680,3.9149,3,0.1,0.00050632,5059.7,0.00051344,5312.8,-0.00012026,551.4,-0.00019365,-0.0143,0.17203
25681,3.6385,2.9091,0.1,0.00051968,5193.2,0.00052756,5481.9,-0.00011736,636.19,-0.00020204,-0.040075,0.15238
25682,3.7307,3,0.1,0.00051476,5144.1,0.00052238,5420.3,-0.00011833,606.19,-0.00019901,-0.028335,0.15885
25683,3.4543,2.9091,0.1,0.00053043,5300.7,0.00053885,5615.4,-0.00011549,698.92,-0.00020852,-0.065763,0.13973
25684,3.5464,3,0.1,0.0005246,5242.3,0.00053274,5543.6,-0.0001164,666.2,-0.00020507,-0.048903,0.14602
25685,3.27,2.9091,0.1,0.00054334,5429.7,0.00055231,5772.4,-0.00011385,767.13,-0.00021596,-0.10294,0.12744
25686,3.3621,3,0.1,0.00053628,5359.1,0.00054496,5687.3,-0.00011459,731.65,-0.00021198,-0.078801,0.13355
25687,3.0857,2.9091,0.1,0.0005591,5587.1,0.00056863,5959.8,-0.00011267,840.78,-0.00022459,-0.15652,0.11553
25688,3.1779,3,0.1,0.00055041,5500.4,0.00055965,5857.5,-0.00011311,802.62,-0.00021995,-0.12205,0.12145
25689,2.9015,2.9091,0.1,0.00057861,5782.2,0.00058874,6186.7,-0.00011228,919.46,-0.00023469,-0.23343,0.10401
25690,2.9936,3,0.1,0.00056779,5674,0.00057761,6062.1,-0.00011223,878.94,-0.00022923,-0.18437,0.10973
25691,2.7172,2.9091,0.1,0.00060309,6026.8,0.00061384,6464.8,-0.00011318,1002.2,-0.00024662,-0.34306,0.092888
25692,2.8093,3,0.1,0.00058945,5890.4,0.00059987,6311.2,-0.00011234,959.98,-0.00024014,-0.27379,0.098408
25693,2.5329,2.9091,0.1,0.00063411,6336.7,0.00064555,6809.6,-0.00011606,1087.2,-0.00026083,-0.4971,0.082182
25694,2.6251,3,0.1,0.00061674,6163.2,0.00062782,6618.4,-0.00011403,1044.5,-0.00025309,-0.40099,0.087491
25695,2.3487,2.9091,0.1,0.0006737,6732.4,0.00068592,7240.7,-0.00012188,1171.3,-0.00027786,-0.70738,0.071913
25696,2.4408,3,0.1,0.00065146,6510.1,0.00066327,7000.8,-0.00011809,1130,-0.00026856,-0.57866,0.077001
25697,2.1644,2.9091,0.1,0.00072447,7239.7,0.00073756,7782.4,-0.00013195,1249.3,-0.00029835,-0.97632,0.062111
25698,2.2565,3,0.1,0.00069591,6954.3,0.00070853,7480.4,-0.00012564,1212.7,-0.00028715,-0.81796,0.066962
25699,1.9801,2.9091,0.1,0.00078947,7889.2,0.00080353,8462.9,-0.00014793,1314.1,-0.00032299,-1.2841,0.052809
25700,2.0723,3,0.1,0.00075294,7524.2,0.00076649,8083.8,-0.00013818,1286.5,-0.00030954,-1.1132,0.057406
25701,1.7959,2.9091,0.1,0.00087174,8711.4,0.00088682,9309.5,-0.00017154,1357.4,-0.0003524,-1.508,0.044053
25702,1.888,3,0.1,0.00082581,8252.4,0.00084037,8840.6,-0.00015749,1343.1,-0.00033644,-1.4319,0.048372
25703,1.6116,2.9091,0.1,0.00097284,9721.6,0.00098886,10335,-0.00020363,1375.2,-0.00038686,-1.5193,0.035897
25704,1.7037,3,0.1,0.00091734,9167.1,0.00093291,9775.7,-0.00018524,1374.4,-0.00036836,-1.5627,0.039911
25705,1.4273,2.9091,0.1,0.0010895,10887,0.0011064,11511,-0.00024199,1380.2,-0.00042579,-0.78897,0.028413
25706,1.5195,3,0.1,0.0010278,10271,0.0010443,10891,-0.00022151,1379.8,-0.00040535,-1.4609,0.032085
25707,1.2431,2.9091,0.1,0.0012095,12086,0.0012273,12734,-0.00027823,1421.6,-0.0004675,-0.48276,0.021679
25708,1.3352,3,0.1,0.0011506,11498,0.0011679,12128,-0.00026192,1384.7,-0.00044623,-0.11207,0.024968
25709,1.1509,3,0.1,0.001268,12671,0.0012865,13338,-0.00029425,1460.7,-0.00048877,-0.86336,0.018643
25710,1.0588,2.9091,0.1,0.0013104,13095,0.0013303,13819,-0.0002972,1590.9,-0.00050873,1.5678,0.015777
25711,23.724,3.0909,0.1,2.0901e-05,208.87,1.1644e-05,59.212,3.7324e-06,-0.22939,-1.9253e-05,-172.93,2.8896
25712,23.816,3.1818,0.1,2.0057e-05,200.43,9.8508e-06,39.743,4.5332e-06,-0.21183,-1.9084e-05,-177.66,2.9052
25713,23.908,3.0909,0.1,1.952e-05,195.07,8.2985e-06,22.362,5.2649e-06,-0.43089,-1.9047e-05,-183.1,2.9207
25714,23.539,3.0909,0.1,2.2838e-05,228.22,1.5213e-05,98.269,2.1033e-06,-0.23098,-1.9515e-05,-162.66,2.8585
25715,23.631,3.1818,0.1,2.1769e-05,217.54,1.3416e-05,78.759,2.8894e-06,-0.33312,-1.9328e-05,-167.27,2.8741
25716,23.355,3.0909,0.1,2.5142e-05,251.24,1.8779e-05,137.21,5.006e-07,-0.1336,-1.9814e-05,-152.77,2.8274
25717,23.447,3.1818,0.1,2.3903e-05,238.86,1.6978e-05,117.76,1.2852e-06,-0.14542,-1.9607e-05,-157.13,2.843
25718,23.171,3.0909,0.1,2.7724e-05,277.05,2.2349e-05,175.99,-1.0888e-06,-0.11036,-2.0154e-05,-143.36,2.7964
25719,23.263,3.1818,0.1,2.6357e-05,263.39,2.0546e-05,156.6,-3.1351e-07,-0.12755,-1.9927e-05,-147.49,2.8119
25720,22.987,3.0909,0.1,3.0518e-05,304.97,2.5923e-05,214.67,-2.6593e-06,-0.087419,-2.0536e-05,-134.4,2.7653
25721,23.079,3.1818,0.1,2.9054e-05,290.34,2.4115e-05,195.31,-1.8918e-06,-0.095692,-2.0288e-05,-138.31,2.7808
25722,22.802,3.0909,0.1,3.3476e-05,334.53,2.9506e-05,253.28,-4.213e-06,-0.073901,-2.0963e-05,-125.93,2.7343
25723,22.894,3.1818,0.1,3.1937e-05,319.15,2.7693e-05,233.94,-3.4531e-06,-0.08041,-2.0693e-05,-129.61,2.7498
25724,22.618,3.0909,0.1,3.6565e-05,365.39,3.3102e-05,291.86,-5.7506e-06,-0.063491,-2.1436e-05,-117.92,2.7033
25725,22.71,3.1818,0.1,3.4965e-05,349.41,3.1281e-05,272.52,-4.9976e-06,-0.06806,-2.1144e-05,-121.38,2.7188
25726,22.434,3.0909,0.1,3.976e-05,397.33,3.6715e-05,330.46,-7.2734e-06,-0.055745,-2.1955e-05,-110.37,2.6723
25727,22.526,3.1818,0.1,3.8111e-05,380.85,3.4885e-05,311.09,-6.5267e-06,-0.059274,-2.1641e-05,-113.63,2.6878
25728,22.249,3.0909,0.1,4.3045e-05,430.16,4.0348e-05,369.1,-8.7829e-06,-0.049628,-2.2522e-05,-103.28,2.6413
25729,22.342,3.1818,0.1,4.1355e-05,413.27,3.8507e-05,349.69,-8.0418e-06,-0.052389,-2.2187e-05,-106.33,2.6568
25730,22.065,3.0909,0.1,4.6409e-05,463.77,4.4003e-05,407.82,-1.028e-05,-0.044706,-2.3136e-05,-96.64,2.6104
25731,22.157,3.1818,0.1,4.4683e-05,446.52,4.2151e-05,388.37,-9.5443e-06,-0.046931,-2.2779e-05,-99.489,2.6258
25732,21.881,3.0909,0.1,4.9842e-05,498.07,4.7683e-05,446.65,-1.1767e-05,-0.040643,-2.3797e-05,-90.427,2.5794
25733,21.973,3.1818,0.1,4.8084e-05,480.51,4.5819e-05,427.14,-1.1036e-05,-0.042471,-2.3419e-05,-93.086,2.5949
25734,21.697,3.0909,0.1,5.3337e-05,533,5.139e-05,485.61,-1.3245e-05,-0.037234,-2.4504e-05,-84.628,2.5486
25735,21.789,3.1818,0.1,5.155e-05,515.15,4.9513e-05,466.03,-1.2517e-05,-0.038757,-2.4105e-05,-87.105,2.564
25736,21.512,3.0909,0.1,5.6889e-05,568.5,5.5126e-05,524.72,-1.4715e-05,-0.034334,-2.5254e-05,-79.223,2.5177
25737,21.605,3.1818,0.1,5.5077e-05,550.39,5.3235e-05,505.06,-1.399e-05,-0.035618,-2.4836e-05,-81.529,2.5331
25738,21.328,3.0909,0.1,6.0495e-05,604.53,5.889e-05,564,-1.6178e-05,-0.031832,-2.6048e-05,-74.194,2.4869
25739,21.42,3.1818,0.1,5.8659e-05,586.18,5.6985e-05,544.26,-1.5455e-05,-0.032934,-2.5611e-05,-76.338,2.5023
25740,21.144,3.0909,0.1,6.4151e-05,641.06,6.2684e-05,603.46,-1.7635e-05,-0.029643,-2.6884e-05,-69.519,2.4561
25741,21.236,3.1818,0.1,6.2292e-05,622.49,6.0766e-05,583.63,-1.6915e-05,-0.030597,-2.6428e-05,-71.511,2.4715
25742,20.96,3.0909,0.1,6.7853e-05,678.06,6.6508e-05,643.11,-1.9088e-05,-0.027714,-2.7759e-05,-65.178,2.4254
25743,21.052,3.1818,0.1,6.5973e-05,659.27,6.4576e-05,623.18,-1.8369e-05,-0.028547,-2.7286e-05,-67.028,2.4408
25744,20.775,3.0909,0.1,7.1599e-05,715.5,7.0362e-05,682.95,-2.0536e-05,-0.026001,-2.8671e-05,-61.151,2.3947
25745,20.867,3.1818,0.1,6.9699e-05,696.51,6.8416e-05,662.93,-1.9819e-05,-0.026729,-2.8182e-05,-62.867,2.4101
25746,20.591,3.0909,0.1,7.5388e-05,753.36,7.4247e-05,723,-2.1982e-05,-0.024478,-2.962e-05,-57.416,2.3641
25747,20.683,3.1818,0.1,7.3469e-05,734.18,7.2287e-05,702.89,-2.1265e-05,-0.025117,-2.9115e-05,-59.008,2.3794
25748,20.407,3.0909,0.1,7.9217e-05,791.63,7.8161e-05,763.26,-2.3425e-05,-0.023112,-3.0603e-05,-53.955,2.3335
25749,20.499,3.1818,0.1,7.728e-05,772.26,7.6187e-05,743.04,-2.2709e-05,-0.023681,-3.0084e-05,-55.432,2.3488
25750,20.223,3.0909,0.1,8.3085e-05,830.27,8.2105e-05,803.72,-2.4868e-05,-0.021876,-3.1619e-05,-50.749,2.303
25751,20.315,3.1818,0.1,8.113e-05,810.74,8.0117e-05,783.41,-2.4152e-05,-0.022383,-3.1085e-05,-52.118,2.3182
25752,20.038,3.0909,0.1,8.6989e-05,869.29,8.6077e-05,844.41,-2.6309e-05,-0.020747,-3.2665e-05,-47.779,2.2725
25753,20.13,3.1818,0.1,8.5017e-05,849.58,8.4076e-05,823.99,-2.5593e-05,-0.021206,-3.2118e-05,-49.048,2.2877
25754,19.854,3.0909,0.1,9.0929e-05,908.66,9.0079e-05,885.3,-2.775e-05,-0.01972,-3.374e-05,-45.028,2.2421
25755,19.946,3.1818,0.1,8.8941e-05,888.79,8.8064e-05,864.78,-2.7034e-05,-0.020126,-3.3181e-05,-46.205,2.2573
25756,19.67,3.0909,0.1,9.4903e-05,948.38,9.4109e-05,926.41,-2.9192e-05,-0.018792,-3.4843e-05,-42.481,2.2117
25757,19.762,3.1818,0.1,9.2899e-05,928.35,9.2081e-05,905.79,-2.8475e-05,-0.019152,-3.4271e-05,-43.572,2.2269
25758,19.485,3.0909,0.1,9.891e-05,988.42,9.8166e-05,967.74,-3.0634e-05,-0.017942,-3.5972e-05,-40.121,2.1815
25759,19.578,3.1818,0.1,9.6891e-05,968.24,9.6126e-05,947.01,-2.9916e-05,-0.018271,-3.5389e-05,-41.133,2.1966
25760,19.301,3.0909,0.1,0.00010295,1028.8,0.00010225,1009.3,-3.2078e-05,-0.017156,-3.7125e-05,-37.935,2.1512
25761,19.393,3.1818,0.1,0.00010092,1008.5,0.0001002,988.45,-3.1359e-05,-0.017456,-3.6531e-05,-38.874,2.1663
25762,19.117,3.0909,0.1,0.00010702,1069.5,0.00010636,1051,-3.3524e-05,-0.016424,-3.8301e-05,-35.909,2.1211
25763,19.209,3.1818,0.1,0.00010497,1049,0.0001043,1030.1,-3.2804e-05,-0.016702,-3.7697e-05,-36.781,2.1361
25764,18.933,3.0909,0.1,0.00011112,1110.4,0.0001105,1093,-3.4972e-05,-0.015747,-3.9499e-05,-34.03,2.091
25765,19.025,3.1818,0.1,0.00010906,1089.8,0.00010842,1072,-3.4251e-05,-0.015994,-3.8885e-05,-34.84,2.106
25766,18.748,3.0909,0.1,0.00011525,1151.7,0.00011467,1135.2,-3.6423e-05,-0.015135,-4.0718e-05,-32.287,2.061
25767,18.841,3.1818,0.1,0.00011317,1130.9,0.00011257,1114.1,-3.57e-05,-0.015351,-4.0095e-05,-33.04,2.076
25768,18.564,3.0909,0.1,0.00011941,1193.2,0.00011885,1177.6,-3.7876e-05,-0.014568,-4.1956e-05,-30.669,2.0311
25769,18.656,3.1818,0.1,0.00011732,1172.4,0.00011675,1156.4,-3.7152e-05,-0.01477,-4.1325e-05,-31.369,2.046
25770,18.38,3.0909,0.1,0.00012359,1235.1,0.00012307,1220.2,-3.9333e-05,-0.014034,-4.3213e-05,-29.165,2.0012
25771,18.472,3.1818,0.1,0.00012149,1214.1,0.00012095,1198.9,-3.8606e-05,-0.014219,-4.2573e-05,-29.817,2.0161
25772,18.196,3.0909,0.1,0.0001278,1277.2,0.00012731,1263,-4.0793e-05,-0.013526,-4.4487e-05,-27.765,1.9715
25773,18.288,3.1818,0.1,0.00012569,1256,0.00012518,1241.6,-4.0065e-05,-0.013702,-4.3839e-05,-28.374,1.9863
25774,18.011,3.0909,0.1,0.00013204,1319.5,0.00013157,1306.1,-4.2258e-05,-0.013053,-4.5778e-05,-26.462,1.9418
25775,18.103,3.1818,0.1,0.00012991,1298.2,0.00012943,1284.5,-4.1527e-05,-0.013206,-4.5123e-05,-27.031,1.9566
25776,17.827,3.0909,0.1,0.00013631,1362.1,0.00013586,1349.3,-4.3726e-05,-0.012625,-4.7084e-05,-25.247,1.9122
25777,17.919,3.1818,0.1,0.00013417,1340.7,0.00013371,1327.7,-4.2993e-05,-0.012757,-4.6422e-05,-25.779,1.927
25778,17.643,3.0909,0.1,0.0001406,1405,0.00014017,1392.8,-4.5198e-05,-0.012227,-4.8406e-05,-24.111,1.8827
25779,17.735,3.1818,0.1,0.00013844,1383.5,0.00013801,1371,-4.4463e-05,-0.012353,-4.7737e-05,-24.61,1.8974
25780,17.459,3.0909,0.1,0.00014491,1448.1,0.0001445,1436.4,-4.6675e-05,-0.011844,-4.9741e-05,-23.048,1.8533
25781,17.551,3.1818,0.1,0.00014275,1426.5,0.00014233,1414.6,-4.5937e-05,-0.011961,-4.9066e-05,-23.517,1.868
25782,17.274,3.0909,0.1,0.00014925,1491.5,0.00014886,1480.3,-4.8157e-05,-0.011473,-5.109e-05,-22.05,1.824
25783,17.366,3.1818,0.1,0.00014707,1469.7,0.00014668,1458.3,-4.7417e-05,-0.011589,-5.0409e-05,-22.492,1.8386
25784,17.09,3.0909,0.1,0.00015361,1535,0.00015324,1524.4,-4.9643e-05,-0.011124,-5.2451e-05,-21.112,1.7948
25785,17.182,3.1818,0.1,0.00015142,1513.2,0.00015105,1502.3,-4.89e-05,-0.011221,-5.1764e-05,-21.53,1.8094
25786,16.906,3.0909,0.1,0.000158,1578.9,0.00015764,1568.7,-5.1135e-05,-0.010814,-5.3825e-05,-20.227,1.7657
25787,16.998,3.1818,0.1,0.0001558,1556.9,0.00015544,1546.5,-5.0389e-05,-0.010892,-5.3133e-05,-20.623,1.7802
25788,16.721,3.0909,0.1,0.00016241,1622.9,0.00016207,1613.1,-5.2631e-05,-0.010522,-5.521e-05,-19.389,1.7367
25789,16.814,3.1818,0.1,0.0001602,1600.9,0.00015985,1590.9,-5.1883e-05,-0.010601,-5.4513e-05,-19.767,1.7512
25790,16.537,3.0909,0.1,0.00016684,1667.2,0.00016651,1657.8,-5.4133e-05,-0.010235,-5.6607e-05,-18.593,1.7078
25791,16.629,3.1818,0.1,0.00016462,1645,0.00016429,1635.5,-5.3383e-05,-0.01031,-5.5904e-05,-18.954,1.7222
25792,16.353,3.0909,0.1,0.00017129,1711.7,0.00017098,1702.7,-5.5641e-05,-0.0099503,-5.8013e-05,-17.835,1.6791
25793,16.445,3.1818,0.1,0.00016906,1689.4,0.00016874,1680.3,-5.4887e-05,-0.010029,-5.7306e-05,-18.182,1.6934
25794,16.169,3.0909,0.1,0.00017577,1756.5,0.00017547,1747.8,-5.7154e-05,-0.0096808,-5.943e-05,-17.108,1.6504
25795,16.261,3.1818,0.1,0.00017352,1734,0.00017322,1725.3,-5.6398e-05,-0.0097423,-5.8718e-05,-17.443,1.6647
25796,15.984,3.0909,0.1,0.00018026,1801.4,0.00017998,1793.1,-5.8673e-05,-0.0094461,-6.0856e-05,-16.409,1.6219
25797,16.077,3.1818,0.1,0.00017801,1778.9,0.00017772,1770.5,-5.7914e-05,-0.0094907,-6.014e-05,-16.734,1.6361
25798,15.8,3.0909,0.1,0.00018478,1846.6,0.00018451,1838.6,-6.0198e-05,-0.0092239,-6.2291e-05,-15.733,1.5935
25799,15.892,3.1818,0.1,0.00018252,1823.9,0.00018224,1815.9,-5.9436e-05,-0.0092733,-6.157e-05,-16.05,1.6076
25800,15.616,3.0909,0.1,0.00018932,1891.9,0.00018906,1884.3,-6.1729e-05,-0.0089989,-6.3734e-05,-15.075,1.5652
25801,15.708,3.1818,0.1,0.00018705,1869.2,0.00018678,1861.5,-6.0963e-05,-0.0090474,-6.301e-05,-15.387,1.5793
25802,15.432,3.0909,0.1,0.00019388,1937.5,0.00019363,1930.2,-6.3266e-05,-0.0087703,-6.5186e-05,-14.432,1.537
25803,15.524,3.1818,0.1,0.0001916,1914.7,0.00019135,1907.3,-6.2497e-05,-0.0088256,-6.4458e-05,-14.739,1.5511
25804,15.247,3.0909,0.1,0.00019847,1983.3,0.00019823,1976.3,-6.481e-05,-0.0085521,-6.6645e-05,-13.799,1.509
25805,15.339,3.1818,0.1,0.00019617,1960.4,0.00019593,1953.3,-6.4037e-05,-0.0085901,-6.5914e-05,-14.104,1.523
25806,15.063,3.0909,0.1,0.00020307,2029.3,0.00020284,2022.6,-6.6359e-05,-0.0083666,-6.8111e-05,-13.171,1.4811
25807,15.155,3.1818,0.1,0.00020076,2006.3,0.00020053,1999.5,-6.5584e-05,-0.008389,-6.7377e-05,-13.477,1.495
25808,14.879,3.0909,0.1,0.00020769,2075.5,0.00020747,2069.2,-6.7916e-05,-0.0081896,-6.9584e-05,-12.546,1.4534
25809,14.971,3.1818,0.1,0.00020538,2052.3,0.00020515,2045.9,-6.7137e-05,-0.0082199,-6.8847e-05,-12.854,1.4672
25810,14.695,3.0909,0.1,0.00021233,2121.8,0.00021213,2115.9,-6.9479e-05,-0.0080054,-7.1064e-05,-11.919,1.4257
25811,14.787,3.1818,0.1,0.00021001,2098.6,0.0002098,2092.5,-6.8696e-05,-0.0080351,-7.0323e-05,-12.231,1.4395
25812,14.51,3.0909,0.1,0.00021699,2168.4,0.0002168,2162.8,-7.1048e-05,-0.0078118,-7.2549e-05,-11.285,1.3983
25813,14.602,3.1818,0.1,0.00021466,2145.1,0.00021446,2139.3,-7.0263e-05,-0.0078512,-7.1806e-05,-11.604,1.412
25814,14.326,3.0909,0.1,0.00022167,2215.2,0.00022149,2209.8,-7.2625e-05,-0.0076246,-7.404e-05,-10.642,1.371
25815,14.418,3.1818,0.1,0.00021933,2191.8,0.00021914,2186.3,-7.1836e-05,-0.0076471,-7.3294e-05,-10.969,1.3846
25816,14.142,3.0909,0.1,0.00022637,2262.2,0.0002262,2257.1,-7.4208e-05,-0.0074701,-7.5536e-05,-9.9835,1.3438
25817,14.234,3.1818,0.1,0.00022402,2238.7,0.00022384,2233.5,-7.3416e-05,-0.0074766,-7.4788e-05,-10.321,1.3573
25818,13.957,3.0909,0.1,0.00023109,2309.3,0.00023093,2304.6,-7.5799e-05,-0.0073216,-7.7036e-05,-9.3069,1.3168
25819,14.05,3.1818,0.1,0.00022873,2285.7,0.00022856,2280.9,-7.5002e-05,-0.0073376,-7.6287e-05,-9.6575,1.3302
25820,13.773,3.0909,0.1,0.00023583,2356.6,0.00023568,2352.3,-7.7397e-05,-0.0071615,-7.8541e-05,-8.6072,1.2899
25821,13.865,3.1818,0.1,0.00023346,2333,0.0002333,2328.5,-7.6597e-05,-0.0071778,-7.779e-05,-8.9729,1.3033
25822,13.589,3.0909,0.1,0.00024058,2404.1,0.00024045,2400.2,-7.9002e-05,-0.0069866,-8.0049e-05,-7.8801,1.2632
25823,13.681,3.1818,0.1,0.0002382,2380.4,0.00023806,2376.2,-7.8198e-05,-0.0070147,-7.9297e-05,-8.2633,1.2765
25824,13.405,3.0909,0.1,0.00024535,2451.8,0.00024523,2448.3,-8.0614e-05,-0.0068154,-8.1561e-05,-7.1207,1.2367
25825,13.497,3.1818,0.1,0.00024297,2428,0.00024284,2424.2,-7.9807e-05,-0.0068245,-8.0807e-05,-7.5239,1.2499
25826,13.22,3.0909,0.1,0.00025014,2499.7,0.00025004,2496.5,-8.2234e-05,-0.0066773,-8.3075e-05,-6.3242,1.2103
25827,13.313,3.1818,0.1,0.00024775,2475.8,0.00024763,2472.4,-8.1423e-05,-0.0066677,-8.232e-05,-6.7502,1.2234
25828,13.036,3.0909,0.1,0.00025495,2547.7,0.00025486,2545,-8.3862e-05,-0.0065424,-8.4592e-05,-5.4855,1.1841
25829,13.128,3.1818,0.1,0.00025255,2523.7,0.00025245,2520.8,-8.3047e-05,-0.006542,-8.3836e-05,-5.937,1.1972
25830,12.852,3.0909,0.1,0.00025977,2596,0.0002597,2593.7,-8.5498e-05,-0.0063908,-8.611e-05,-4.599,1.1581
25831,12.944,3.1818,0.1,0.00025736,2571.9,0.00025728,2569.3,-8.4679e-05,-0.0063873,-8.5354e-05,-5.079,1.1711
25832,12.668,3.0909,0.1,0.00026462,2644.3,0.00026455,2642.5,-8.7142e-05,-0.0062186,-8.7628e-05,-3.6591,1.1322
25833,12.76,3.1818,0.1,0.0002622,2620.2,0.00026212,2618.1,-8.6319e-05,-0.0062216,-8.6873e-05,-4.1708,1.1451
25834,12.483,3.0909,0.1,0.00026947,2692.9,0.00026943,2691.5,-8.8795e-05,-0.0060437,-8.9148e-05,-2.6596,1.1066
25835,12.575,3.1818,0.1,0.00026705,2668.6,0.00026699,2667,-8.7966e-05,-0.0060147,-8.8392e-05,-3.2064,1.1194
25836,12.299,3.0909,0.1,0.00027434,2741.6,0.00027432,2740.8,-9.0455e-05,-0.0058896,-9.0667e-05,-1.5941,1.0811
25837,12.391,3.1818,0.1,0.00027191,2717.2,0.00027187,2716.1,-8.9623e-05,-0.0058155,-8.9912e-05,-2.1797,1.0938
25838,12.115,3.0909,0.1,0.00027923,2790.4,0.00027922,2790.2,-9.2124e-05,-0.0056182,-9.2184e-05,-0.45581,1.0558
25839,12.207,3.1818,0.1,0.00027679,2766,0.00027677,2765.4,-9.1288e-05,-0.0055372,-9.1431e-05,-1.084,1.0684
25840,11.931,3.0909,0.1,0.00028413,2839.4,0.00028415,2839.8,-9.37e-05,0.76335,-9.3803e-05,-0.0057776,1.0307
25841,12.023,3.1818,0.1,0.00028169,2814.9,0.00028169,2815,-9.2948e-05,0.092016,-9.2962e-05,-0.0093209,1.0432
25842,11.746,3.0909,0.1,0.00028905,2888.5,0.00028909,2889.5,-9.5214e-05,2.0705,-9.549e-05,-0.0055313,1.0057
25843,11.838,3.1818,0.1,0.0002866,2864,0.00028662,2864.7,-9.4464e-05,1.3446,-9.4644e-05,-0.0058246,1.0182
25844,11.562,3.0909,0.1,0.00029398,2937.8,0.00029404,2939.5,-9.6723e-05,3.4745,-9.7186e-05,-0.0053387,0.98102
25845,11.654,3.1818,0.1,0.00029152,2913.2,0.00029157,2914.5,-9.5976e-05,2.6924,-9.6335e-05,-0.0055034,0.99333
25846,11.378,3.0909,0.1,0.00029892,2987.2,0.00029901,2989.7,-9.8228e-05,4.9845,-9.8892e-05,-0.0051901,0.9565
25847,11.47,3.1818,0.1,0.00029646,2962.5,0.00029653,2964.6,-9.7485e-05,4.1411,-9.8036e-05,-0.0053011,0.96871
25848,11.193,3.0909,0.1,0.00030388,3036.7,0.00030399,3040,-9.9728e-05,6.6105,-0.00010061,-0.0050429,0.93218
25849,11.286,3.1818,0.1,0.00030141,3012,0.0003015,3014.8,-9.8988e-05,5.7001,-9.9747e-05,-0.0051559,0.94429
25850,11.009,3.0909,0.1,0.00030885,3086.4,0.00030899,3090.5,-0.00010122,8.3631,-0.00010233,-0.0048711,0.90806
25851,11.101,3.1818,0.1,0.00030637,3061.6,0.0003065,3065.3,-0.00010049,7.3796,-0.00010147,-0.0049814,0.92007
25852,10.825,3.0909,0.1,0.00031383,3136.1,0.000314,3141.2,-0.00010271,10.254,-0.00010407,-0.0046718,0.88416
25853,10.917,3.1818,0.1,0.00031134,3111.3,0.0003115,3115.9,-0.00010198,9.1907,-0.0001032,-0.0047979,0.89606
25854,10.641,3.0909,0.1,0.00031882,3186,0.00031902,3192.1,-0.00010418,12.295,-0.00010582,-0.0044688,0.86047
25855,10.733,3.1818,0.1,0.00031633,3161.1,0.00031652,3166.7,-0.00010346,11.145,-0.00010494,-0.0045745,0.87226
25856,10.456,3.0909,0.1,0.00032382,3235.9,0.00032406,3243.2,-0.00010565,14.501,-0.00010758,-0.0042984,0.837
25857,10.549,3.1818,0.1,0.00032133,3211,0.00032155,3217.6,-0.00010493,13.256,-0.00010669,-0.0043876,0.84868
25858,10.272,3.0909,0.1,0.00032882,3286,0.00032911,3294.4,-0.0001071,16.886,-0.00010935,-0.0041141,0.81374
25859,10.364,3.1818,0.1,0.00032633,3261,0.00032659,3268.8,-0.00010639,15.538,-0.00010846,-0.0042313,0.82531
25860,10.088,3.0909,0.1,0.00033384,3336.1,0.00033417,3345.8,-0.00010854,19.466,-0.00011113,-0.0039011,0.79071
25861,10.18,3.1818,0.1,0.00033134,3311.1,0.00033164,3320.1,-0.00010784,18.005,-0.00011023,-0.0040182,0.80217
25862,9.9036,3.0909,0.1,0.00033886,3386.3,0.00033923,3397.3,-0.00010996,22.257,-0.00011293,-0.0036829,0.76791
25863,9.9957,3.1818,0.1,0.00033636,3361.3,0.00033671,3371.6,-0.00010927,20.675,-0.00011202,-0.0038059,0.77925
25864,9.7193,3.0909,0.1,0.00034389,3436.5,0.00034431,3449.1,-0.00011137,25.281,-0.00011473,-0.003449,0.74534
25865,9.8115,3.1818,0.1,0.00034139,3411.5,0.00034178,3423.2,-0.00011069,23.564,-0.00011382,-0.003584,0.75657
25866,9.5351,3.0909,0.1,0.00034892,3486.8,0.0003494,3501,-0.00011275,28.556,-0.00011656,-0.0032021,0.723
25867,9.6272,3.1818,0.1,0.00034642,3461.8,0.00034687,3475.1,-0.00011209,26.694,-0.00011564,-0.003342,0.73411
25868,9.3508,3.0909,0.1,0.00035395,3537.1,0.00035449,3553,-0.00011412,32.105,-0.00011839,-0.0029429,0.7009
25869,9.4429,3.1818,0.1,0.00035145,3512.1,0.00035196,3527.1,-0.00011346,30.085,-0.00011747,-0.0030947,0.71189
25870,9.1665,3.0909,0.1,0.00035899,3587.4,0.00035959,3605.3,-0.00011546,35.954,-0.00012024,-0.0026661,0.67904
25871,9.2587,3.1818,0.1,0.00035649,3562.4,0.00035705,3579.2,-0.00011482,33.76,-0.00011931,-0.0028294,0.68991
25872,8.9823,3.0909,0.1,0.00036403,3637.8,0.00036469,3657.7,-0.00011677,40.128,-0.00012211,-0.002371,0.65742
25873,9.0744,3.1818,0.1,0.00036153,3612.8,0.00036216,3631.5,-0.00011615,37.746,-0.00012117,-0.0025478,0.66817
25874,8.798,3.0909,0.1,0.00036906,3688.1,0.0003698,3710.2,-0.00011805,44.658,-0.000124,-0.0020548,0.63605
25875,8.8901,3.1818,0.1,0.00036657,3663.1,0.00036726,3684,-0.00011745,42.069,-0.00012304,-0.0022469,0.64667
25876,8.6137,3.0909,0.1,0.00037409,3738.3,0.00037491,3762.9,-0.0001193,49.576,-0.0001259,-0.0017157,0.61493
25877,8.7059,3.1818,0.1,0.0003716,3713.5,0.00037238,3736.6,-0.00011871,46.762,-0.00012494,-0.0019248,0.62543
25878,8.4295,3.0909,0.1,0.00037912,3788.6,0.00038002,3815.7,-0.00012051,54.918,-0.00012782,-0.0013511,0.59407
25879,8.5216,3.1818,0.1,0.00037663,3763.7,0.00037749,3789.4,-0.00011995,51.857,-0.00012685,-0.0015799,0.60444
25880,8.2452,3.0909,0.1,0.00038414,3838.7,0.00038514,3868.7,-0.00012168,60.723,-0.00012976,-0.00095881,0.57346
25881,8.3373,3.1818,0.1,0.00038166,3814,0.0003826,3842.3,-0.00012114,57.391,-0.00012878,-0.0012089,0.5837
25882,8.0609,3.0909,0.1,0.00038915,3888.8,0.00039025,3921.9,-0.0001228,67.034,-0.00013173,-0.00053614,0.55312
25883,8.1531,3.1818,0.1,0.00038668,3864.1,0.00038772,3895.4,-0.00012229,63.405,-0.00013073,-0.00081038,0.56323
25884,7.8767,3.0909,0.1,0.00039415,3938.8,0.00039535,3975.2,-0.00012388,73.9,-0.00013371,-8.0311e-05,0.53304
25885,7.9688,3.1818,0.1,0.00039169,3914.2,0.00039283,3948.7,-0.0001234,69.945,-0.00013271,-0.0003812,0.54302
25886,7.6924,3.0909,0.1,0.00039914,3988.6,0.00040046,4028.7,-0.0001249,81.373,-0.00013573,0.00041124,0.51323
25887,7.7845,3.1818,0.1,0.00039668,3964.1,0.00039794,4002.1,-0.00012445,77.06,-0.0001347,8.0586e-05,0.52307
25888,7.5081,3.0909,0.1,0.00040411,4038.3,0.00040556,4082.3,-0.00012585,89.511,-0.00013777,0.00094123,0.49369
25889,7.6003,3.1818,0.1,0.00040167,4013.9,0.00040304,4055.6,-0.00012544,84.804,-0.00013673,0.00057754,0.5034
25890,7.3239,3.0909,0.1,0.00040906,4087.8,0.00041065,4136.1,-0.00012674,98.382,-0.00013984,0.0015117,0.47443
25891,7.416,3.1818,0.1,0.00040663,4063.5,0.00040814,4109.4,-0.00012637,93.24,-0.00013878,0.0011118,0.484
25892,7.1396,3.0909,0.1,0.000414,4137.2,0.00041573,4190.1,-0.00012756,108.06,-0.00014194,0.0021242,0.45545
25893,7.2317,3.1818,0.1,0.00041159,4113,0.00041323,4163.3,-0.00012723,102.43,-0.00014087,0.0016847,0.46487
25894,6.9553,3.0909,0.1,0.00041892,4186.3,0.00042081,4244.3,-0.00012829,118.62,-0.00014408,0.0027798,0.43674
25895,7.0475,3.1818,0.1,0.00041652,4162.3,0.00041832,4217.4,-0.00012802,112.46,-0.00014298,0.0022972,0.44603
25896,6.7711,3.0909,0.1,0.00042382,4235.2,0.00042588,4298.8,-0.00012893,130.15,-0.00014626,0.0034781,0.41833
25897,6.8632,3.1818,0.1,0.00042143,4211.4,0.00042339,4271.7,-0.00012872,123.41,-0.00014514,0.0029488,0.42747
25898,6.5868,3.0909,0.1,0.00042869,4283.9,0.00043094,4353.5,-0.00012948,142.76,-0.00014848,0.0042161,0.4002
25899,6.6789,3.1818,0.1,0.00042632,4260.3,0.00042846,4326.3,-0.00012932,135.37,-0.00014734,0.0036372,0.4092
25900,6.4025,3.0909,0.1,0.00043355,4332.5,0.000436,4408.6,-0.00012992,156.56,-0.00015075,0.0049879,0.38237
25901,6.4947,3.1818,0.1,0.00043119,4308.9,0.00043352,4381.2,-0.00012983,148.44,-0.00014958,0.0043573,0.39122
25902,6.2183,3.0909,0.1,0.00043838,4380.8,0.00044105,4464.1,-0.00013024,171.68,-0.00015309,0.0057836,0.36483
25903,6.3104,3.1818,0.1,0.00043604,4357.4,0.00043858,4436.5,-0.00013022,162.75,-0.00015188,0.0051001,0.37353
25904,6.034,3.0909,0.1,0.00044321,4429,0.00044611,4520.2,-0.00013043,188.25,-0.00015548,0.0065868,0.34759
25905,6.1261,3.1818,0.1,0.00044088,4405.8,0.00044364,4492.3,-0.00013049,178.42,-0.00015424,0.0058515,0.35614
25906,5.8497,3.0909,0.1,0.00044803,4477.2,0.00045118,4576.8,-0.00013048,206.43,-0.00015796,0.0073726,0.33066
25907,5.9419,3.1818,0.1,0.00044571,4454,0.00044871,4548.6,-0.00013063,195.6,-0.00015667,0.0065891,0.33905
25908,5.6655,3.0909,0.1,0.00045285,4525.4,0.00045628,4634.3,-0.00013038,226.4,-0.00016051,0.0081041,0.31403
25909,5.7576,3.1818,0.1,0.00045053,4502.2,0.0004538,4605.6,-0.00013063,214.44,-0.00015917,0.0072804,0.32227
25910,5.4812,3.0909,0.1,0.0004577,4573.8,0.00046141,4692.9,-0.00013012,248.35,-0.00016317,0.0087277,0.29771
25911,5.5733,3.1818,0.1,0.00045537,4550.6,0.00045891,4663.6,-0.00013047,235.14,-0.00016177,0.007878,0.3058
25912,5.2969,3.0909,0.1,0.00046258,4622.6,0.00046662,4752.9,-0.00012968,272.51,-0.00016595,0.0091668,0.2817
25913,5.3891,3.1818,0.1,0.00046024,4599.2,0.00046408,4722.7,-0.00013015,257.88,-0.00016447,0.0083144,0.28964
25914,5.1127,3.0909,0.1,0.00046754,4672.2,0.00047191,4814.6,-0.00012906,299.1,-0.00016887,0.0093131,0.26602
25915,5.2048,3.1818,0.1,0.00046516,4648.4,0.00046933,4783.4,-0.00012965,282.9,-0.0001673,0.0084942,0.27379
25916,4.9284,3.0909,0.1,0.00047262,4723,0.00047735,4878.6,-0.00012824,328.41,-0.00017195,0.0090146,0.25065
25917,5.0205,3.1818,0.1,0.00047018,4698.5,0.00047469,4846.1,-0.00012897,310.43,-0.00017028,0.0082833,0.25826
25918,4.7441,3.0909,0.1,0.00047788,4775.5,0.00048299,4945.6,-0.00012722,360.7,-0.00017523,0.0080582,0.2356
25919,4.8363,3.1818,0.1,0.00047533,4750.1,0.00048021,4911.3,-0.00012809,340.75,-0.00017344,0.0074948,0.24305
25920,4.5599,3.0909,0.1,0.00048338,4830.5,0.0004889,5016.4,-0.000126,396.31,-0.00017874,0.0061456,0.22089
25921,4.652,3.1818,0.1,0.0004807,4803.6,0.00048597,4979.8,-0.00012701,374.14,-0.0001768,0.0058686,0.22817
25922,4.3756,3.0909,0.1,0.00048924,4889,0.00049519,5092.2,-0.00012457,435.57,-0.00018254,0.0028589,0.2065
25923,4.4677,3.1818,0.1,0.00048635,4860.2,0.00049204,5052.6,-0.00012573,410.92,-0.00018042,0.0030409,0.21362
25924,4.1913,3.0909,0.1,0.00049559,4952.5,0.000502,5174.5,-0.00012296,478.82,-0.00018669,-0.002389,0.19246
25925,4.2835,3.1818,0.1,0.00049241,4920.7,0.00049854,5130.9,-0.00012426,451.41,-0.00018434,-0.0014951,0.19941
25926,4.0071,3.0909,0.1,0.00050261,5022.6,0.00050949,5265.1,-0.00012119,526.44,-0.00019125,-0.010427,0.17875
25927,4.0992,3.1818,0.1,0.00049904,4986.9,0.00050562,5216.4,-0.00012263,495.97,-0.00018864,-0.0084504,0.18553
25928,3.8228,3.0909,0.1,0.00051054,5101.8,0.00051791,5366.5,-0.0001193,578.79,-0.00019633,-0.02243,0.16539
25929,3.9149,3.1818,0.1,0.00050642,5060.7,0.00051348,5311.1,-0.00012086,544.93,-0.00019339,-0.018825,0.17199
25930,3.6385,3.0909,0.1,0.00051968,5193.2,0.00052756,5481.9,-0.00011736,636.19,-0.00020204,-0.040075,0.15238
25931,3.7307,3.1818,0.1,0.00051483,5144.7,0.00052239,5417.8,-0.00011901,598.63,-0.00019868,-0.034032,0.15881
25932,3.4543,3.0909,0.1,0.00053043,5300.7,0.00053885,5615.4,-0.00011549,698.92,-0.00020852,-0.065763,0.13973
25933,3.5464,3.1818,0.1,0.00052461,5242.4,0.00053268,5540.1,-0.00011717,657.34,-0.00020466,-0.056081,0.14598
25934,3.27,3.0909,0.1,0.00054334,5429.7,0.00055231,5772.4,-0.00011385,767.13,-0.00021596,-0.10294,0.12744
25935,3.3621,3.1818,0.1,0.0005362,5358.3,0.00054481,5682.4,-0.00011547,721.28,-0.00021147,-0.087833,0.13351
25936,3.0857,3.0909,0.1,0.0005591,5587.1,0.00056863,5959.8,-0.00011267,840.78,-0.00022459,-0.15652,0.11553
25937,3.1779,3.1818,0.1,0.0005502,5498.3,0.00055937,5850.6,-0.0001141,790.49,-0.00021932,-0.13336,0.12141
25938,2.9015,3.0909,0.1,0.00057861,5782.2,0.00058874,6186.7,-0.00011228,919.46,-0.00023469,-0.23343,0.10401
25939,2.9936,3.1818,0.1,0.00056739,5670,0.00057713,6052.6,-0.00011333,864.76,-0.00022845,-0.19844,0.1097
25940,2.7172,3.0909,0.1,0.00060309,6026.8,0.00061384,6464.8,-0.00011318,1002.2,-0.00024662,-0.34306,0.092888
25941,2.8093,3.1818,0.1,0.00058878,5883.7,0.00059912,6298.3,-0.00011356,943.48,-0.00023917,-0.29106,0.098371
25942,2.5329,3.0909,0.1,0.00063411,6336.7,0.00064555,6809.6,-0.00011606,1087.2,-0.00026083,-0.4971,0.082182
25943,2.6251,3.1818,0.1,0.00061571,6152.8,0.00062669,6600.8,-0.00011535,1025.4,-0.00025188,-0.422,0.087453
25944,2.3487,3.0909,0.1,0.0006737,6732.4,0.00068592,7240.7,-0.00012188,1171.3,-0.00027786,-0.70738,0.071913
25945,2.4408,3.1818,0.1,0.00064993,6494.8,0.00066163,6977.2,-0.00011949,1108.2,-0.00026706,-0.60411,0.076962
25946,2.1644,3.0909,0.1,0.00072447,7239.7,0.00073756,7782.4,-0.00013195,1249.3,-0.00029835,-0.97632,0.062111
25947,2.2565,3.1818,0.1,0.00069374,6932.6,0.00070624,7449.3,-0.00012708,1188.1,-0.00028532,-0.85026,0.066921
25948,1.9801,3.0909,0.1,0.00078947,7889.2,0.00080353,8462.9,-0.00014793,1314.1,-0.00032299,-1.2841,0.052809
25949,2.0723,3.1818,0.1,0.00075005,7495.4,0.00076346,8044.5,-0.0001396,1259.3,-0.00030735,-1.1635,0.057361
25950,1.7959,3.0909,0.1,0.00087174,8711.4,0.00088682,9309.5,-0.00017154,1357.4,-0.0003524,-1.508,0.044053
25951,1.888,3.1818,0.1,0.00082234,8217.7,0.00083672,8794.5,-0.00015891,1313.7,-0.00033395,-1.4978,0.048321
25952,1.6116,3.0909,0.1,0.00097284,9721.6,0.00098886,10335,-0.00020363,1375.2,-0.00038686,-1.5193,0.035897
25953,1.7037,3.1818,0.1,0.00091406,9134.3,0.00092941,9730.1,-0.00018694,1342.3,-0.00036581,-1.7429,0.03985
25954,1.4273,3.0909,0.1,0.0010895,10887,0.0011064,11511,-0.00024199,1380.2,-0.00042579,-0.78897,0.028413
25955,1.5195,3.1818,0.1,0.0010268,10261,0.0010429,10864,-0.00022444,1341.8,-0.00040325,-1.7119,0.032012
25956,1.2431,3.0909,0.1,0.0012095,12086,0.0012273,12734,-0.00027823,1421.6,-0.0004675,-0.48276,0.021679
25957,1.3352,3.1818,0.1,0.0011555,11547,0.0011723,12155,-0.00026805,1332.4,-0.0004454,-0.18792,0.024882
25958,1.1509,3.1818,0.1,0.0012821,12812,0.0013,13447,-0.00030578,1382.1,-0.00048963,0.74461,0.018546
25959,1.0588,3.0909,0.1,0.0013104,13095,0.0013303,13819,-0.0002972,1590.9,-0.00050873,1.5678,0.015777
25960,23.724,3.2727,0.1,2.0811e-05,207.96,1.1613e-05,59.21,3.7018e-06,-0.22848,-1.916e-05,-172,2.8896
25961,23.816,3.3636,0.1,1.992e-05,199.06,9.8057e-06,39.756,4.4866e-06,-0.20968,-1.8944e-05,-176.26,2.9051
25962,23.908,3.2727,0.1,1.9427e-05,194.13,8.2681e-06,22.369,5.2336e-06,-0.43061,-1.8953e-05,-182.16,2.9207
25963,23.539,3.2727,0.1,2.275e-05,227.35,1.518e-05,98.246,2.0736e-06,-0.23042,-1.9422e-05,-161.74,2.8585
25964,23.631,3.3636,0.1,2.1635e-05,216.2,1.3368e-05,78.739,2.8439e-06,-0.3321,-1.9187e-05,-165.87,2.874
25965,23.355,3.2727,0.1,2.5057e-05,250.4,1.8745e-05,137.16,4.7196e-07,-0.13317,-1.9721e-05,-151.86,2.8274
25966,23.447,3.3636,0.1,2.3773e-05,237.57,1.6927e-05,117.71,1.2413e-06,-0.14471,-1.9467e-05,-155.74,2.843
25967,23.171,3.2727,0.1,2.7644e-05,276.25,2.2313e-05,175.93,-1.1162e-06,-0.10998,-2.0062e-05,-142.46,2.7964
25968,23.263,3.3636,0.1,2.6234e-05,262.16,2.0493e-05,156.52,-3.5564e-07,-0.12694,-1.9788e-05,-146.13,2.8119
25969,22.987,3.2727,0.1,3.0442e-05,304.21,2.5887e-05,214.59,-2.6854e-06,-0.087073,-2.0446e-05,-133.54,2.7653
25970,23.079,3.3636,0.1,2.8937e-05,289.17,2.4061e-05,195.2,-1.9319e-06,-0.095143,-2.0151e-05,-136.99,2.7808
25971,22.802,3.2727,0.1,3.3404e-05,333.81,2.9469e-05,253.19,-4.2376e-06,-0.073576,-2.0876e-05,-125.09,2.7343
25972,22.894,3.3636,0.1,3.1825e-05,318.03,2.7637e-05,233.8,-3.4911e-06,-0.079902,-2.056e-05,-128.33,2.7498
25973,22.618,3.2727,0.1,3.6497e-05,364.72,3.3065e-05,291.76,-5.7737e-06,-0.063179,-2.1352e-05,-117.11,2.7032
25974,22.71,3.3636,0.1,3.486e-05,348.36,3.1225e-05,272.37,-5.0334e-06,-0.067579,-2.1015e-05,-120.15,2.7187
25975,22.434,3.2727,0.1,3.9696e-05,396.69,3.6679e-05,330.35,-7.2951e-06,-0.055445,-2.1875e-05,-109.6,2.6722
25976,22.526,3.3636,0.1,3.8012e-05,379.86,3.4829e-05,310.93,-6.5603e-06,-0.058811,-2.1518e-05,-112.45,2.6877
25977,22.249,3.2727,0.1,4.2986e-05,429.56,4.0312e-05,368.99,-8.8031e-06,-0.049336,-2.2446e-05,-102.56,2.6413
25978,22.342,3.3636,0.1,4.1263e-05,412.34,3.8453e-05,349.53,-8.0732e-06,-0.051938,-2.2069e-05,-105.21,2.6567
25979,22.065,3.2727,0.1,4.6354e-05,463.22,4.3969e-05,407.71,-1.0299e-05,-0.044418,-2.3065e-05,-95.957,2.6103
25980,22.157,3.3636,0.1,4.4597e-05,445.66,4.2099e-05,388.2,-9.5735e-06,-0.04649,-2.2668e-05,-98.434,2.6258
25981,21.881,3.2727,0.1,4.9791e-05,497.56,4.7651e-05,446.54,-1.1785e-05,-0.04036,-2.373e-05,-89.789,2.5794
25982,21.973,3.3636,0.1,4.8005e-05,479.71,4.577e-05,426.97,-1.1063e-05,-0.042037,-2.3314e-05,-92.097,2.5949
25983,21.697,3.2727,0.1,5.329e-05,532.54,5.1361e-05,485.51,-1.3262e-05,-0.036954,-2.4441e-05,-84.033,2.5485
25984,21.789,3.3636,0.1,5.1478e-05,514.42,4.9467e-05,465.87,-1.2542e-05,-0.038329,-2.4007e-05,-86.182,2.564
25985,21.512,3.2727,0.1,5.6847e-05,568.08,5.5098e-05,524.63,-1.473e-05,-0.034057,-2.5196e-05,-78.672,2.5177
25986,21.605,3.3636,0.1,5.5011e-05,549.73,5.3192e-05,504.92,-1.4013e-05,-0.035197,-2.4746e-05,-80.672,2.5331
25987,21.328,3.2727,0.1,6.0457e-05,604.15,5.8865e-05,563.92,-1.6192e-05,-0.031559,-2.5995e-05,-73.685,2.4869
25988,21.42,3.3636,0.1,5.8599e-05,585.58,5.6946e-05,544.13,-1.5477e-05,-0.032519,-2.5527e-05,-75.545,2.5023
25989,21.144,3.2727,0.1,6.4116e-05,640.72,6.2661e-05,603.39,-1.7648e-05,-0.029377,-2.6834e-05,-69.05,2.4561
25990,21.236,3.3636,0.1,6.2237e-05,621.95,6.073e-05,583.51,-1.6935e-05,-0.030189,-2.6351e-05,-70.781,2.4715
25991,20.96,3.2727,0.1,6.7822e-05,677.75,6.6488e-05,643.04,-1.91e-05,-0.02745,-2.7713e-05,-64.748,2.4254
25992,21.052,3.3636,0.1,6.5924e-05,658.79,6.4544e-05,623.09,-1.8388e-05,-0.028147,-2.7215e-05,-66.357,2.4407
25993,20.775,3.2727,0.1,7.1572e-05,715.23,7.0344e-05,682.9,-2.0548e-05,-0.025742,-2.863e-05,-60.757,2.3947
25994,20.867,3.3636,0.1,6.9656e-05,696.08,6.8388e-05,662.85,-1.9836e-05,-0.026334,-2.8118e-05,-62.252,2.41
25995,20.591,3.2727,0.1,7.5364e-05,753.12,7.4231e-05,722.96,-2.1992e-05,-0.024225,-2.9583e-05,-57.057,2.3641
25996,20.683,3.3636,0.1,7.3431e-05,733.8,7.2261e-05,702.82,-2.1281e-05,-0.02473,-2.9057e-05,-58.447,2.3794
25997,20.407,3.2727,0.1,7.9196e-05,791.42,7.8147e-05,763.23,-2.3435e-05,-0.022864,-3.057e-05,-53.628,2.3335
25998,20.499,3.3636,0.1,7.7246e-05,771.93,7.6165e-05,742.99,-2.2724e-05,-0.023303,-3.0031e-05,-54.92,2.3488
25999,20.223,3.2727,0.1,8.3067e-05,830.09,8.2093e-05,803.71,-2.4877e-05,-0.021631,-3.1589e-05,-50.451,2.303
26000,20.315,3.3636,0.1,8.1101e-05,810.45,8.0098e-05,783.38,-2.4166e-05,-0.022011,-3.1037e-05,-51.652,2.3182
26001,20.038,3.2727,0.1,8.6974e-05,869.14,8.6068e-05,844.4,-2.6318e-05,-0.020508,-3.2638e-05,-47.509,2.2725
26002,20.13,3.3636,0.1,8.4992e-05,849.34,8.406e-05,823.97,-2.5606e-05,-0.020842,-3.2075e-05,-48.625,2.2877
26003,19.854,3.2727,0.1,9.0916e-05,908.53,9.0071e-05,885.3,-2.7758e-05,-0.019485,-3.3716e-05,-44.784,2.2421
26004,19.946,3.3636,0.1,8.892e-05,888.58,8.8051e-05,864.78,-2.7046e-05,-0.01977,-3.3142e-05,-45.822,2.2573
26005,19.67,3.2727,0.1,9.4892e-05,948.27,9.4102e-05,926.42,-2.9199e-05,-0.018561,-3.4821e-05,-42.26,2.2117
26006,19.762,3.3636,0.1,9.2882e-05,928.17,9.207e-05,905.8,-2.8486e-05,-0.018802,-3.4237e-05,-43.226,2.2269
26007,19.485,3.2727,0.1,9.8901e-05,988.33,9.8162e-05,967.76,-3.0641e-05,-0.017717,-3.5952e-05,-39.922,2.1814
26008,19.578,3.3636,0.1,9.6877e-05,968.1,9.6117e-05,947.03,-2.9927e-05,-0.017928,-3.5358e-05,-40.821,2.1966
26009,19.301,3.2727,0.1,0.00010294,1028.7,0.00010225,1009.3,-3.2085e-05,-0.016936,-3.7108e-05,-37.756,2.1512
26010,19.393,3.3636,0.1,0.0001009,1008.3,0.00010019,988.48,-3.137e-05,-0.017119,-3.6504e-05,-38.593,2.1663
26011,19.117,3.2727,0.1,0.00010701,1069.4,0.00010636,1051.1,-3.353e-05,-0.016209,-3.8286e-05,-35.748,2.1211
26012,19.209,3.3636,0.1,0.00010496,1048.9,0.00010429,1030.1,-3.2814e-05,-0.016372,-3.7673e-05,-36.528,2.1361
26013,18.933,3.2727,0.1,0.00011112,1110.4,0.0001105,1093.1,-3.4978e-05,-0.015537,-3.9486e-05,-33.886,2.091
26014,19.025,3.3636,0.1,0.00010905,1089.8,0.00010842,1072,-3.426e-05,-0.01567,-3.8864e-05,-34.613,2.106
26015,18.748,3.2727,0.1,0.00011525,1151.7,0.00011467,1135.2,-3.6428e-05,-0.014927,-4.0706e-05,-32.158,2.061
26016,18.841,3.3636,0.1,0.00011317,1130.9,0.00011257,1114.1,-3.5708e-05,-0.015033,-4.0077e-05,-32.837,2.0759
26017,18.564,3.2727,0.1,0.0001194,1193.2,0.00011886,1177.6,-3.7882e-05,-0.014363,-4.1946e-05,-30.554,2.031
26018,18.656,3.3636,0.1,0.00011731,1172.3,0.00011675,1156.4,-3.716e-05,-0.014457,-4.1309e-05,-31.188,2.046
26019,18.38,3.2727,0.1,0.00012359,1235.1,0.00012307,1220.3,-3.9338e-05,-0.013831,-4.3204e-05,-29.063,2.0012
26020,18.472,3.3636,0.1,0.00012149,1214,0.00012096,1198.9,-3.8614e-05,-0.013911,-4.2559e-05,-29.657,2.0161
26021,18.196,3.2727,0.1,0.0001278,1277.2,0.00012731,1263.1,-4.0798e-05,-0.013327,-4.448e-05,-27.675,1.9714
26022,18.288,3.3636,0.1,0.00012569,1256,0.00012518,1241.7,-4.0072e-05,-0.0134,-4.3828e-05,-28.232,1.9863
26023,18.011,3.2727,0.1,0.00013204,1319.5,0.00013157,1306.1,-4.2262e-05,-0.012857,-4.5772e-05,-26.383,1.9417
26024,18.103,3.3636,0.1,0.00012992,1298.3,0.00012944,1284.6,-4.1534e-05,-0.012908,-4.5113e-05,-26.905,1.9566
26025,17.827,3.2727,0.1,0.00013631,1362.1,0.00013586,1349.4,-4.373e-05,-0.012432,-4.7079e-05,-25.177,1.9122
26026,17.919,3.3636,0.1,0.00013417,1340.8,0.00013371,1327.7,-4.2999e-05,-0.012463,-4.6414e-05,-25.669,1.9269
26027,17.643,3.2727,0.1,0.0001406,1405,0.00014017,1392.8,-4.5202e-05,-0.012036,-4.8402e-05,-24.051,1.8827
26028,17.735,3.3636,0.1,0.00013845,1383.5,0.00013801,1371.1,-4.4469e-05,-0.012064,-4.773e-05,-24.514,1.8974
26029,17.459,3.2727,0.1,0.00014491,1448.1,0.00014451,1436.5,-4.6679e-05,-0.011655,-4.9738e-05,-22.996,1.8533
26030,17.551,3.3636,0.1,0.00014275,1426.5,0.00014234,1414.7,-4.5943e-05,-0.011676,-4.9061e-05,-23.434,1.8679
26031,17.274,3.2727,0.1,0.00014925,1491.5,0.00014887,1480.4,-4.816e-05,-0.011287,-5.1088e-05,-22.006,1.824
26032,17.366,3.3636,0.1,0.00014708,1469.8,0.00014669,1458.4,-4.7422e-05,-0.011307,-5.0405e-05,-22.421,1.8386
26033,17.09,3.2727,0.1,0.00015362,1535.1,0.00015325,1524.4,-4.9647e-05,-0.010939,-5.245e-05,-21.075,1.7948
26034,17.182,3.3636,0.1,0.00015143,1513.3,0.00015105,1502.4,-4.8906e-05,-0.010943,-5.1762e-05,-21.47,1.8093
26035,16.906,3.2727,0.1,0.000158,1578.9,0.00015765,1568.7,-5.1138e-05,-0.010631,-5.3825e-05,-20.196,1.7657
26036,16.998,3.3636,0.1,0.00015581,1557,0.00015545,1546.6,-5.0395e-05,-0.010616,-5.3131e-05,-20.573,1.7802
26037,16.721,3.2727,0.1,0.00016241,1623,0.00016207,1613.2,-5.2635e-05,-0.010342,-5.5211e-05,-19.365,1.7367
26038,16.814,3.3636,0.1,0.0001602,1600.9,0.00015986,1591,-5.1888e-05,-0.01033,-5.4512e-05,-19.726,1.7511
26039,16.537,3.2727,0.1,0.00016684,1667.3,0.00016652,1657.9,-5.4137e-05,-0.010057,-5.6607e-05,-18.575,1.7078
26040,16.629,3.3636,0.1,0.00016463,1645.1,0.0001643,1635.6,-5.3387e-05,-0.010041,-5.5905e-05,-18.923,1.7222
26041,16.353,3.2727,0.1,0.0001713,1711.8,0.00017099,1702.8,-5.5644e-05,-0.0097747,-5.8015e-05,-17.822,1.679
26042,16.445,3.3636,0.1,0.00016907,1689.5,0.00016875,1680.4,-5.4892e-05,-0.0097636,-5.7307e-05,-18.158,1.6934
26043,16.169,3.2727,0.1,0.00017577,1756.5,0.00017548,1747.9,-5.7157e-05,-0.0095066,-5.9432e-05,-17.1,1.6504
26044,16.261,3.3636,0.1,0.00017354,1734.2,0.00017323,1725.4,-5.6402e-05,-0.0094786,-5.872e-05,-17.427,1.6646
26045,15.984,3.2727,0.1,0.00018027,1801.5,0.00017999,1793.2,-5.8676e-05,-0.0092727,-6.0858e-05,-16.406,1.6218
26046,16.077,3.3636,0.1,0.00017802,1779,0.00017773,1770.6,-5.7918e-05,-0.0092295,-6.0143e-05,-16.726,1.636
26047,15.8,3.2727,0.1,0.00018479,1846.6,0.00018452,1838.7,-6.0201e-05,-0.0090521,-6.2294e-05,-15.734,1.5934
26048,15.892,3.3636,0.1,0.00018253,1824.1,0.00018225,1816,-5.944e-05,-0.0090143,-6.1574e-05,-16.049,1.6076
26049,15.616,3.2727,0.1,0.00018933,1892,0.00018907,1884.4,-6.1732e-05,-0.0088297,-6.3738e-05,-15.081,1.5651
26050,15.708,3.3636,0.1,0.00018706,1869.3,0.0001868,1861.6,-6.0967e-05,-0.0087905,-6.3015e-05,-15.392,1.5792
26051,15.432,3.2727,0.1,0.00019389,1937.6,0.00019364,1930.3,-6.3269e-05,-0.0086014,-6.519e-05,-14.442,1.537
26052,15.524,3.3636,0.1,0.00019161,1914.8,0.00019136,1907.4,-6.2501e-05,-0.0085708,-6.4463e-05,-14.751,1.551
26053,15.247,3.2727,0.1,0.00019847,1983.4,0.00019824,1976.4,-6.4812e-05,-0.0083833,-6.6649e-05,-13.813,1.509
26054,15.339,3.3636,0.1,0.00019619,1960.5,0.00019594,1953.4,-6.4041e-05,-0.0083366,-6.5919e-05,-14.122,1.5229
26055,15.063,3.2727,0.1,0.00020308,2029.4,0.00020285,2022.7,-6.6362e-05,-0.0081988,-6.8116e-05,-13.189,1.4811
26056,15.155,3.3636,0.1,0.00020078,2006.4,0.00020054,1999.6,-6.5587e-05,-0.0081369,-6.7383e-05,-13.502,1.495
26057,14.879,3.2727,0.1,0.0002077,2075.6,0.00020748,2069.2,-6.7918e-05,-0.008022,-6.9589e-05,-12.568,1.4533
26058,14.971,3.3636,0.1,0.00020539,2052.5,0.00020517,2046,-6.714e-05,-0.0079687,-6.8854e-05,-12.885,1.4671
26059,14.695,3.2727,0.1,0.00021234,2121.9,0.00021213,2115.9,-6.9481e-05,-0.0078376,-7.1069e-05,-11.945,1.4257
26060,14.787,3.3636,0.1,0.00021002,2098.8,0.00020981,2092.6,-6.8699e-05,-0.0077844,-7.0331e-05,-12.268,1.4394
26061,14.51,3.2727,0.1,0.000217,2168.5,0.00021681,2162.8,-7.105e-05,-0.0076432,-7.2555e-05,-11.316,1.3982
26062,14.602,3.3636,0.1,0.00021467,2145.3,0.00021447,2139.4,-7.0265e-05,-0.0076002,-7.1814e-05,-11.647,1.4119
26063,14.326,3.2727,0.1,0.00022168,2215.3,0.0002215,2209.9,-7.2626e-05,-0.0074556,-7.4046e-05,-10.676,1.3709
26064,14.418,3.3636,0.1,0.00021935,2191.9,0.00021916,2186.4,-7.1838e-05,-0.007396,-7.3304e-05,-11.017,1.3845
26065,14.142,3.2727,0.1,0.00022638,2262.3,0.00022621,2257.2,-7.421e-05,-0.0073003,-7.5543e-05,-10.022,1.3437
26066,14.234,3.3636,0.1,0.00022404,2238.8,0.00022386,2233.6,-7.3418e-05,-0.0072235,-7.4798e-05,-10.376,1.3573
26067,13.957,3.2727,0.1,0.0002311,2309.4,0.00023094,2304.7,-7.58e-05,-0.0071496,-7.7044e-05,-9.3504,1.3167
26068,14.05,3.3636,0.1,0.00022875,2285.9,0.00022858,2281,-7.5005e-05,-0.0070827,-7.6297e-05,-9.7192,1.3302
26069,13.773,3.2727,0.1,0.00023584,2356.7,0.00023569,2352.4,-7.7398e-05,-0.0069861,-7.8549e-05,-8.6554,1.2899
26070,13.865,3.3636,0.1,0.00023347,2333.1,0.00023332,2328.6,-7.6599e-05,-0.006919,-7.7801e-05,-9.0415,1.3032
26071,13.589,3.2727,0.1,0.00024059,2404.3,0.00024046,2400.3,-7.9003e-05,-0.0068068,-8.0058e-05,-7.9332,1.2632
26072,13.681,3.3636,0.1,0.00023822,2380.6,0.00023808,2376.4,-7.82e-05,-0.0067505,-7.9309e-05,-8.3392,1.2764
26073,13.405,3.2727,0.1,0.00024537,2452,0.00024524,2448.4,-8.0615e-05,-0.0066296,-8.157e-05,-7.1791,1.2366
26074,13.497,3.3636,0.1,0.00024298,2428.2,0.00024285,2424.4,-7.9808e-05,-0.0065533,-8.082e-05,-7.6074,1.2498
26075,13.22,3.2727,0.1,0.00025016,2499.8,0.00025005,2496.6,-8.2235e-05,-0.0064832,-8.3085e-05,-6.3882,1.2103
26076,13.313,3.3636,0.1,0.00024777,2476,0.00024765,2472.5,-8.1424e-05,-0.0063855,-8.2334e-05,-6.8417,1.2234
26077,13.036,3.2727,0.1,0.00025496,2547.9,0.00025487,2545.1,-8.3863e-05,-0.006335,-8.4602e-05,-5.5554,1.1841
26078,13.128,3.3636,0.1,0.00025257,2523.9,0.00025246,2520.9,-8.3048e-05,-0.0062448,-8.3851e-05,-6.0371,1.1971
26079,12.852,3.2727,0.1,0.00025979,2596.1,0.00025971,2593.7,-8.5499e-05,-0.0061622,-8.612e-05,-4.6753,1.158
26080,12.944,3.3636,0.1,0.00025738,2572.1,0.00025729,2569.5,-8.468e-05,-0.0060668,-8.5369e-05,-5.1883,1.171
26081,12.668,3.2727,0.1,0.00026463,2644.5,0.00026457,2642.6,-8.7143e-05,-0.0059561,-8.764e-05,-3.7422,1.1322
26082,12.76,3.3636,0.1,0.00026222,2620.4,0.00026214,2618.2,-8.6319e-05,-0.0058646,-8.6889e-05,-4.29,1.145
26083,12.483,3.2727,0.1,0.00026949,2693,0.00026944,2691.6,-8.8795e-05,-0.0057177,-8.916e-05,-2.7501,1.1065
26084,12.575,3.3636,0.1,0.00026707,2668.8,0.00026701,2667.1,-8.7967e-05,-0.005595,-8.841e-05,-3.3362,1.1193
26085,12.299,3.2727,0.1,0.00027436,2741.7,0.00027433,2740.9,-9.0455e-05,-0.0054095,-9.068e-05,-1.6927,1.081
26086,12.391,3.3636,0.1,0.00027193,2717.4,0.00027189,2716.3,-8.9623e-05,-0.0052695,-8.9931e-05,-2.3209,1.0937
26087,12.115,3.2727,0.1,0.00027925,2790.5,0.00027924,2790.3,-9.2124e-05,-0.004338,-9.2199e-05,-0.56376,1.0557
26088,12.207,3.3636,0.1,0.00027681,2766.2,0.00027679,2765.6,-9.1287e-05,-0.004633,-9.1452e-05,-1.2379,1.0683
26089,11.931,3.2727,0.1,0.00028415,2839.5,0.00028416,2839.9,-9.3715e-05,0.64845,-9.3802e-05,-0.0068051,1.0306
26090,12.023,3.3636,0.1,0.00028171,2815.2,0.00028171,2815.1,-9.2959e-05,0.010157,-9.2973e-05,-0.093753,1.0431
26091,11.746,3.2727,0.1,0.00028907,2888.7,0.0002891,2889.7,-9.523e-05,1.9448,-9.5489e-05,-0.005834,1.0057
26092,11.838,3.3636,0.1,0.00028662,2864.2,0.00028664,2864.8,-9.4487e-05,1.1647,-9.4643e-05,-0.0066605,1.0181
26093,11.562,3.2727,0.1,0.000294,2938,0.00029406,2939.6,-9.6741e-05,3.3378,-9.7186e-05,-0.0054943,0.98095
26094,11.654,3.3636,0.1,0.00029155,2913.5,0.00029159,2914.7,-9.6001e-05,2.4964,-9.6334e-05,-0.0058425,0.99324
26095,11.378,3.2727,0.1,0.00029894,2987.4,0.00029903,2989.8,-9.8247e-05,4.8359,-9.8891e-05,-0.0052844,0.95643
26096,11.47,3.3636,0.1,0.00029649,2962.8,0.00029655,2964.8,-9.7512e-05,3.928,-9.8035e-05,-0.0054899,0.96861
26097,11.193,3.2727,0.1,0.0003039,3036.9,0.00030401,3040.1,-9.9748e-05,6.4489,-0.00010061,-0.0051051,0.93211
26098,11.286,3.3636,0.1,0.00030144,3012.3,0.00030153,3015,-9.9017e-05,5.4684,-9.9745e-05,-0.0052742,0.94419
26099,11.009,3.2727,0.1,0.00030887,3086.6,0.00030901,3090.7,-0.00010124,8.1874,-0.00010233,-0.0049145,0.908
26100,11.101,3.3636,0.1,0.0003064,3061.9,0.00030652,3065.5,-0.00010052,7.1278,-0.00010147,-0.0050613,0.91997
26101,10.825,3.2727,0.1,0.00031385,3136.3,0.00031402,3141.4,-0.00010273,10.063,-0.00010407,-0.004704,0.88409
26102,10.917,3.3636,0.1,0.00031138,3111.6,0.00031153,3116.1,-0.00010201,8.9169,-0.0001032,-0.0048549,0.89596
26103,10.641,3.2727,0.1,0.00031884,3186.2,0.00031904,3192.2,-0.00010421,12.088,-0.00010582,-0.0044948,0.8604
26104,10.733,3.3636,0.1,0.00031636,3161.5,0.00031655,3166.9,-0.00010349,10.848,-0.00010494,-0.0046179,0.87216
26105,10.456,3.2727,0.1,0.00032384,3236.2,0.00032408,3243.3,-0.00010567,14.275,-0.00010757,-0.0043208,0.83693
26106,10.549,3.3636,0.1,0.00032136,3211.4,0.00032158,3217.8,-0.00010497,12.933,-0.00010669,-0.004423,0.84857
26107,10.272,3.2727,0.1,0.00032885,3286.2,0.00032913,3294.5,-0.00010713,16.64,-0.00010934,-0.0041352,0.81367
26108,10.364,3.3636,0.1,0.00032637,3261.4,0.00032662,3269,-0.00010643,15.185,-0.00010845,-0.0042633,0.82521
26109,10.088,3.2727,0.1,0.00033387,3336.4,0.00033419,3345.9,-0.00010857,19.197,-0.00011113,-0.0039224,0.79064
26110,10.18,3.3636,0.1,0.00033138,3311.5,0.00033168,3320.3,-0.00010788,17.621,-0.00011023,-0.0040496,0.80207
26111,9.9036,3.2727,0.1,0.00033889,3386.6,0.00033926,3397.5,-0.00011,21.965,-0.00011292,-0.0037065,0.76784
26112,9.9957,3.3636,0.1,0.00033641,3361.7,0.00033675,3371.8,-0.00010932,20.257,-0.00011202,-0.0038391,0.77915
26113,9.7193,3.2727,0.1,0.00034392,3436.8,0.00034434,3449.2,-0.00011141,24.962,-0.00011473,-0.0034768,0.74526
26114,9.8115,3.3636,0.1,0.00034144,3412,0.00034182,3423.5,-0.00011074,23.109,-0.00011382,-0.0036217,0.75646
26115,9.5351,3.2727,0.1,0.00034895,3487.1,0.00034943,3501.2,-0.0001128,28.208,-0.00011655,-0.003235,0.72292
26116,9.6272,3.3636,0.1,0.00034647,3462.3,0.00034691,3475.3,-0.00011214,26.197,-0.00011563,-0.0033863,0.734
26117,9.3508,3.2727,0.1,0.00035399,3537.5,0.00035452,3553.2,-0.00011416,31.725,-0.00011839,-0.0029824,0.70082
26118,9.4429,3.3636,0.1,0.00035151,3512.7,0.000352,3527.3,-0.00011353,29.542,-0.00011746,-0.0031474,0.71178
26119,9.1665,3.2727,0.1,0.00035903,3587.8,0.00035962,3605.5,-0.00011551,35.539,-0.00012024,-0.0027133,0.67896
26120,9.2587,3.3636,0.1,0.00035655,3563,0.0003571,3579.5,-0.00011489,33.167,-0.0001193,-0.0028926,0.68979
26121,8.9823,3.2727,0.1,0.00036407,3638.2,0.00036473,3657.9,-0.00011682,39.674,-0.0001221,-0.0024273,0.65734
26122,9.0744,3.3636,0.1,0.00036159,3613.4,0.00036221,3631.8,-0.00011622,37.098,-0.00012116,-0.0026236,0.66805
26123,8.798,3.2727,0.1,0.00036911,3688.5,0.00036984,3710.4,-0.00011811,44.161,-0.00012399,-0.002122,0.63597
26124,8.8901,3.3636,0.1,0.00036663,3663.8,0.00036732,3684.3,-0.00011753,41.36,-0.00012303,-0.0023376,0.64656
26125,8.6137,3.2727,0.1,0.00037414,3738.9,0.00037495,3763.1,-0.00011936,49.031,-0.00012589,-0.0017959,0.61485
26126,8.7059,3.3636,0.1,0.00037168,3714.2,0.00037244,3737,-0.0001188,45.984,-0.00012492,-0.0020333,0.62531
26127,8.4295,3.2727,0.1,0.00037917,3789.1,0.00038007,3816,-0.00012058,54.319,-0.00012781,-0.0014466,0.59399
26128,8.5216,3.3636,0.1,0.00037671,3764.5,0.00037755,3789.8,-0.00012004,51.003,-0.00012683,-0.0017088,0.60432
26129,8.2452,3.2727,0.1,0.0003842,3839.3,0.00038519,3869,-0.00012176,60.063,-0.00012975,-0.0010719,0.57338
26130,8.3373,3.3636,0.1,0.00038174,3814.8,0.00038267,3842.7,-0.00012125,56.453,-0.00012876,-0.001362,0.58358
26131,8.0609,3.2727,0.1,0.00038921,3889.5,0.0003903,3922.2,-0.00012289,66.307,-0.00013171,-0.00066972,0.55304
26132,8.1531,3.3636,0.1,0.00038677,3865,0.00038779,3895.8,-0.00012241,62.373,-0.00013071,-0.00099151,0.56311
26133,7.8767,3.2727,0.1,0.00039422,3939.5,0.00039541,3975.5,-0.00012397,73.097,-0.0001337,-0.00023799,0.53296
26134,7.9688,3.3636,0.1,0.00039179,3915.2,0.00039291,3949.1,-0.00012353,68.807,-0.00013268,-0.00059533,0.54289
26135,7.6924,3.2727,0.1,0.00039921,3989.4,0.00040052,4029,-0.000125,80.485,-0.00013571,0.00022519,0.51315
26136,7.7845,3.3636,0.1,0.00039679,3965.2,0.00039803,4002.5,-0.00012459,75.803,-0.00013468,-0.00017207,0.52295
26137,7.5081,3.2727,0.1,0.00040419,4039.1,0.00040563,4082.7,-0.00012596,88.527,-0.00013774,0.00072171,0.49361
26138,7.6003,3.3636,0.1,0.00040179,4015.1,0.00040314,4056.1,-0.0001256,83.413,-0.0001367,0.0002796,0.50327
26139,7.3239,3.2727,0.1,0.00040916,4088.7,0.00041072,4136.5,-0.00012686,97.288,-0.00013981,0.0012527,0.47435
26140,7.416,3.3636,0.1,0.00040676,4064.8,0.00040825,4109.9,-0.00012654,91.696,-0.00013875,0.00076053,0.48387
26141,7.1396,3.2727,0.1,0.0004141,4138.2,0.00041582,4190.5,-0.00012769,106.84,-0.00014191,0.0018188,0.45536
26142,7.2317,3.3636,0.1,0.00041173,4114.4,0.00041335,4163.9,-0.00012742,100.72,-0.00014083,0.0012705,0.46475
26143,6.9553,3.2727,0.1,0.00041903,4187.4,0.0004209,4244.8,-0.00012844,117.25,-0.00014405,0.002419,0.43666
26144,7.0475,3.3636,0.1,0.00041667,4163.8,0.00041844,4218,-0.00012823,110.55,-0.00014294,0.0018084,0.4459
26145,6.7711,3.2727,0.1,0.00042393,4236.4,0.00042598,4299.3,-0.0001291,128.63,-0.00014622,0.0030508,0.41824
26146,6.8632,3.3636,0.1,0.0004216,4213.1,0.00042353,4272.4,-0.00012895,121.27,-0.00014509,0.002371,0.42734
26147,6.5868,3.2727,0.1,0.00042882,4285.2,0.00043105,4354,-0.00012967,141.05,-0.00014844,0.0037091,0.40012
26148,6.6789,3.3636,0.1,0.00042651,4262.1,0.00042861,4327,-0.00012959,132.97,-0.00014728,0.002953,0.40907
26149,6.4025,3.2727,0.1,0.00043369,4333.9,0.00043611,4409.1,-0.00013013,154.63,-0.00015071,0.004385,0.38228
26150,6.4947,3.3636,0.1,0.00043139,4311,0.00043369,4382,-0.00013012,145.74,-0.00014952,0.0035452,0.39109
26151,6.2183,3.2727,0.1,0.00043854,4382.4,0.00044118,4464.7,-0.00013047,169.49,-0.00015303,0.0050647,0.36474
26152,6.3104,3.3636,0.1,0.00043626,4359.6,0.00043876,4437.3,-0.00013055,159.71,-0.00015181,0.0041338,0.3734
26153,6.034,3.2727,0.1,0.00044338,4430.7,0.00044625,4520.7,-0.0001307,185.77,-0.00015542,0.0057269,0.34751
26154,6.1261,3.3636,0.1,0.00044112,4408.2,0.00044384,4493.1,-0.00013086,174.97,-0.00015415,0.0046985,0.35601
26155,5.8497,3.2727,0.1,0.00044821,4479,0.00045133,4577.4,-0.00013078,203.61,-0.00015788,0.0063405,0.33057
26156,5.9419,3.3636,0.1,0.00044597,4456.6,0.00044892,4549.4,-0.00013105,191.68,-0.00015656,0.0052088,0.33893
26157,5.6655,3.2727,0.1,0.00045305,4527.4,0.00045644,4634.9,-0.00013072,223.18,-0.00016043,0.0068605,0.31394
26158,5.7576,3.3636,0.1,0.00045082,4505.1,0.00045402,4606.4,-0.0001311,209.99,-0.00015905,0.0056222,0.32214
26159,5.4812,3.2727,0.1,0.00045791,4576,0.00046158,4693.4,-0.00013051,244.67,-0.00016307,0.0072231,0.29762
26160,5.5733,3.3636,0.1,0.00045568,4553.7,0.00045916,4664.3,-0.00013101,230.05,-0.00016163,0.0058779,0.30567
26161,5.2969,3.2727,0.1,0.00046282,4625,0.0004668,4753.3,-0.00013012,268.28,-0.00016582,0.0073391,0.28162
26162,5.3891,3.3636,0.1,0.00046057,4602.6,0.00046434,4723.4,-0.00013076,252.05,-0.0001643,0.0058922,0.28951
26163,5.1127,3.2727,0.1,0.00046779,4674.7,0.0004721,4814.9,-0.00012956,294.23,-0.00016872,0.0070828,0.26593
26164,5.2048,3.3636,0.1,0.00046552,4652,0.0004696,4783.9,-0.00013034,276.2,-0.0001671,0.005548,0.27366
26165,4.9284,3.2727,0.1,0.00047289,4725.6,0.00047755,4878.7,-0.00012881,322.77,-0.00017177,0.0062799,0.25056
26166,5.0205,3.3636,0.1,0.00047056,4702.3,0.00047498,4846.4,-0.00012975,302.71,-0.00017004,0.0046828,0.25813
26167,4.7441,3.2727,0.1,0.00047815,4778.2,0.00048319,4945.5,-0.00012787,354.18,-0.00017501,0.0046889,0.23552
26168,4.8363,3.3636,0.1,0.00047573,4754.1,0.00048051,4911.3,-0.00012898,331.82,-0.00017314,0.0030735,0.24293
26169,4.5599,3.2727,0.1,0.00048366,4833.3,0.0004891,5015.9,-0.00012674,388.74,-0.00017848,0.0019742,0.2208
26170,4.652,3.3636,0.1,0.00048111,4807.8,0.00048626,4979.3,-0.00012803,363.8,-0.00017645,0.00041216,0.22805
26171,4.3756,3.2727,0.1,0.00048952,4891.8,0.00049538,5091.2,-0.00012542,426.76,-0.00018222,-0.0023303,0.20642
26172,4.4677,3.3636,0.1,0.00048677,4864.3,0.00049232,5051.5,-0.0001269,398.9,-0.00017999,-0.0037266,0.2135
26173,4.1913,3.2727,0.1,0.00049586,4955.1,0.00050216,5172.8,-0.00012393,468.55,-0.00018629,-0.0088734,0.19237
26174,4.2835,3.3636,0.1,0.00049282,4924.8,0.0004988,5128.9,-0.0001256,437.43,-0.00018382,-0.0099298,0.19928
26175,4.0071,3.2727,0.1,0.00050284,5025,0.00050961,5262.4,-0.0001223,514.45,-0.00019077,-0.018562,0.17867
26176,4.0992,3.3636,0.1,0.00049941,4990.6,0.00050583,5213.1,-0.00012415,479.67,-0.00018799,-0.019011,0.18541
26177,3.8228,3.2727,0.1,0.00051071,5103.6,0.00051797,5362.5,-0.00012057,564.76,-0.00019574,-0.032667,0.16531
26178,3.9149,3.3636,0.1,0.00050673,5063.8,0.00051362,5306.2,-0.0001226,525.9,-0.00019259,-0.032102,0.17188
26179,3.6385,3.2727,0.1,0.00051975,5194,0.00052751,5476,-0.00011881,619.77,-0.0002013,-0.052979,0.1523
26180,3.7307,3.3636,0.1,0.00051502,5146.7,0.0005224,5410.6,-0.00012099,576.38,-0.00019771,-0.050779,0.15869
26181,3.4543,3.2727,0.1,0.00053037,5300,0.00053865,5607,-0.00011714,679.7,-0.00020761,-0.082029,0.13965
26182,3.5464,3.3636,0.1,0.00052462,5242.6,0.0005325,5529.7,-0.00011943,631.31,-0.00020346,-0.077246,0.14586
26183,3.27,3.2727,0.1,0.00054306,5426.8,0.00055187,5760.6,-0.00011571,744.63,-0.00021483,-0.12339,0.12737
26184,3.3621,3.3636,0.1,0.00053596,5355.9,0.00054435,5667.7,-0.00011803,690.8,-0.00020999,-0.1146,0.1334
26185,3.0857,3.2727,0.1,0.00055849,5581.1,0.00056786,5943.4,-0.00011476,814.47,-0.00022318,-0.18209,0.11546
26186,3.1779,3.3636,0.1,0.00054957,5492,0.0005585,5830.2,-0.00011699,754.82,-0.00021747,-0.16716,0.1213
26187,2.9015,3.2727,0.1,0.00057755,5771.5,0.00058751,6164.2,-0.00011461,888.79,-0.00023294,-0.26513,0.10394
26188,2.9936,3.3636,0.1,0.00056621,5658.2,0.00057569,6024.5,-0.00011657,823.06,-0.00022615,-0.24097,0.10958
26189,2.7172,3.2727,0.1,0.00060139,6009.8,0.00061196,6434.3,-0.00011573,966.64,-0.00024444,-0.38203,0.092813
26190,2.8093,3.3636,0.1,0.00058681,5864.1,0.00059688,6259.9,-0.00011716,894.85,-0.0002363,-0.34433,0.098259
26191,2.5329,3.2727,0.1,0.00063154,6311,0.00064278,6768.4,-0.00011879,1046.3,-0.00025812,-0.54484,0.082105
26192,2.6251,3.3636,0.1,0.00061266,6122.4,0.00062335,6548.8,-0.00011928,968.94,-0.0002483,-0.48863,0.087339
26193,2.3487,3.2727,0.1,0.00067,6695.3,0.00068198,7186,-0.00012472,1124.9,-0.00027453,-0.76744,0.071833
26194,2.4408,3.3636,0.1,0.00064543,6449.9,0.0006568,6907.4,-0.00012369,1043.1,-0.00026262,-0.68765,0.076844
26195,2.1644,3.2727,0.1,0.0007194,7189.1,0.00073222,7712,-0.00013479,1197.6,-0.00029433,-1.0629,0.062024
26196,2.2565,3.3636,0.1,0.00068738,6869.1,0.00069949,7357.4,-0.00013145,1114,-0.00027985,-0.96343,0.066796
26197,1.9801,3.2727,0.1,0.0007831,7825.6,0.00079683,8377.4,-0.00015075,1257.7,-0.00031832,-1.4063,0.052712
26198,2.0723,3.3636,0.1,0.00074153,7410.2,0.00075446,7927.1,-0.00014403,1176.2,-0.00030075,-1.3125,0.057223
26199,1.7959,3.2727,0.1,0.00086499,8643.9,0.00087966,9217.6,-0.00017464,1296,-0.00034737,-1.7612,0.04394
26200,1.888,3.3636,0.1,0.00081188,8113.2,0.00082568,8653.7,-0.00016343,1222,-0.0003263,-1.8119,0.048164
26201,1.6116,3.2727,0.1,0.00096852,9678.5,0.00098404,10264,-0.0002083,1304.8,-0.00038221,-1.9565,0.035764
26202,1.7037,3.3636,0.1,0.00090348,9028.6,0.00091811,9583.5,-0.00019221,1241,-0.00035768,-2.2327,0.039667
26203,1.4273,3.2727,0.1,0.0010934,10926,0.0011095,11513,-0.00025114,1289.2,-0.00042287,-1.1174,0.028254
26204,1.5195,3.3636,0.1,0.0010217,10210,0.0010369,10765,-0.00023307,1222.7,-0.00039607,-2.0762,0.031793
26205,1.2431,3.2727,0.1,0.0012284,12275,0.0012453,12870,-0.00029587,1290.9,-0.00046753,1.0466,0.021494
26206,1.3352,3.3636,0.1,0.001168,11672,0.0011835,12212,-0.00028605,1171,-0.00044215,-1.9273,0.024621
26207,1.1509,3.3636,0.1,0.0013259,13250,0.0013416,13784,-0.00034026,1147.2,-0.00049344,-3.7151,0.01825
26208,1.0588,3.2727,0.1,0.0013457,13448,0.0013643,14101,-0.00032445,1412.3,-0.00051186,4.1914,0.015577
26209,23.724,3.4545,0.1,2.0629e-05,206.15,1.155e-05,59.206,3.6403e-06,-0.22663,-1.8972e-05,-170.13,2.8896
26210,23.816,3.5455,0.1,1.969e-05,196.76,9.7301e-06,39.777,4.4087e-06,-0.20602,-1.8709e-05,-173.9,2.9051
26211,23.908,3.4545,0.1,1.9239e-05,192.26,8.2069e-06,22.383,5.1707e-06,-0.43003,-1.8764e-05,-180.26,2.9207
26212,23.539,3.4545,0.1,2.2574e-05,225.59,1.5114e-05,98.198,2.0139e-06,-0.2293,-1.9234e-05,-159.88,2.8585
26213,23.631,3.5455,0.1,2.141e-05,213.95,1.3287e-05,78.705,2.7678e-06,-0.33035,-1.8952e-05,-163.52,2.874
26214,23.355,3.4545,0.1,2.4889e-05,248.72,1.8675e-05,137.07,4.1452e-07,-0.1323,-1.9535e-05,-150.03,2.8274
26215,23.447,3.5455,0.1,2.3557e-05,235.41,1.6842e-05,117.63,1.1678e-06,-0.14351,-1.9232e-05,-153.42,2.8429
26216,23.171,3.4545,0.1,2.7483e-05,274.64,2.2241e-05,175.8,-1.171e-06,-0.1092,-1.9879e-05,-140.67,2.7963
26217,23.263,3.5455,0.1,2.6027e-05,260.09,2.0403e-05,156.38,-4.2607e-07,-0.12588,-1.9556e-05,-143.86,2.8118
26218,22.987,3.4545,0.1,3.0289e-05,302.69,2.5813e-05,214.43,-2.7374e-06,-0.086362,-2.0267e-05,-131.8,2.7653
26219,23.079,3.5455,0.1,2.874e-05,287.2,2.3969e-05,195.02,-1.9989e-06,-0.0942,-1.9923e-05,-134.77,2.7808
26220,22.802,3.4545,0.1,3.326e-05,332.37,2.9395e-05,253,-4.2868e-06,-0.07291,-2.0702e-05,-123.41,2.7342
26221,22.894,3.5455,0.1,3.1639e-05,316.17,2.7544e-05,233.58,-3.5545e-06,-0.079027,-2.0338e-05,-126.18,2.7497
26222,22.618,3.4545,0.1,3.6361e-05,363.36,3.2992e-05,291.55,-5.8199e-06,-0.062544,-2.1184e-05,-115.5,2.7032
26223,22.71,3.5455,0.1,3.4684e-05,346.6,3.1132e-05,272.11,-5.093e-06,-0.06675,-2.0801e-05,-118.09,2.7187
26224,22.434,3.4545,0.1,3.9569e-05,395.42,3.6606e-05,330.13,-7.3383e-06,-0.054829,-2.1715e-05,-108.07,2.6722
26225,22.526,3.5455,0.1,3.7848e-05,378.22,3.4737e-05,310.66,-6.6161e-06,-0.058015,-2.1313e-05,-110.48,2.6877
26226,22.249,3.4545,0.1,4.2867e-05,428.38,4.0242e-05,368.76,-8.8435e-06,-0.048734,-2.2294e-05,-101.11,2.6412
26227,22.342,3.5455,0.1,4.1109e-05,410.81,3.8363e-05,349.25,-8.1254e-06,-0.051162,-2.1874e-05,-103.35,2.6567
26228,22.065,3.4545,0.1,4.6244e-05,462.12,4.3902e-05,407.49,-1.0337e-05,-0.043828,-2.2921e-05,-94.596,2.6103
26229,22.157,3.5455,0.1,4.4454e-05,444.24,4.2013e-05,387.92,-9.6222e-06,-0.04573,-2.2483e-05,-96.68,2.6258
26230,21.881,3.4545,0.1,4.969e-05,496.56,4.7588e-05,446.33,-1.182e-05,-0.039779,-2.3595e-05,-88.515,2.5794
26231,21.973,3.5455,0.1,4.7873e-05,478.4,4.5688e-05,426.7,-1.1108e-05,-0.041291,-2.3141e-05,-90.454,2.5948
26232,21.697,3.4545,0.1,5.3198e-05,531.61,5.1302e-05,485.31,-1.3294e-05,-0.036382,-2.4316e-05,-82.848,2.5485
26233,21.789,3.5455,0.1,5.1358e-05,513.22,4.9391e-05,465.62,-1.2584e-05,-0.037595,-2.3846e-05,-84.651,2.5639
26234,21.512,3.4545,0.1,5.6763e-05,567.24,5.5044e-05,524.45,-1.476e-05,-0.033495,-2.508e-05,-77.574,2.5177
26235,21.605,3.5455,0.1,5.4901e-05,548.63,5.3122e-05,504.68,-1.4052e-05,-0.034475,-2.4596e-05,-79.251,2.5331
26236,21.328,3.4545,0.1,6.0381e-05,603.39,5.8815e-05,563.76,-1.622e-05,-0.031006,-2.5888e-05,-72.671,2.4869
26237,21.42,3.5455,0.1,5.85e-05,584.59,5.6882e-05,543.92,-1.5513e-05,-0.031809,-2.5389e-05,-74.232,2.5022
26238,21.144,3.4545,0.1,6.4048e-05,640.04,6.2617e-05,603.24,-1.7674e-05,-0.028832,-2.6736e-05,-68.118,2.4561
26239,21.236,3.5455,0.1,6.2148e-05,621.06,6.0671e-05,583.33,-1.6969e-05,-0.02949,-2.6224e-05,-69.571,2.4714
26240,20.96,3.4545,0.1,6.7762e-05,677.15,6.6448e-05,642.93,-1.9124e-05,-0.026915,-2.7624e-05,-63.893,2.4254
26241,21.052,3.5455,0.1,6.5845e-05,657.99,6.4491e-05,622.93,-1.8419e-05,-0.027461,-2.7099e-05,-65.247,2.4407
26242,20.775,3.4545,0.1,7.1519e-05,714.69,7.0309e-05,682.8,-2.057e-05,-0.025217,-2.8549e-05,-59.975,2.3947
26243,20.867,3.5455,0.1,6.9586e-05,695.38,6.8341e-05,662.72,-1.9865e-05,-0.025661,-2.8012e-05,-61.236,2.41
26244,20.591,3.4545,0.1,7.5317e-05,752.65,7.42e-05,722.89,-2.2013e-05,-0.023711,-2.9509e-05,-56.343,2.364
26245,20.683,3.5455,0.1,7.3369e-05,733.18,7.222e-05,702.72,-2.1309e-05,-0.024072,-2.8961e-05,-57.519,2.3793
26246,20.407,3.4545,0.1,7.9155e-05,791.01,7.812e-05,763.18,-2.3455e-05,-0.02236,-3.0503e-05,-52.978,2.3335
26247,20.499,3.5455,0.1,7.7192e-05,771.39,7.6129e-05,742.92,-2.275e-05,-0.022657,-2.9944e-05,-54.074,2.3487
26248,20.223,3.4545,0.1,8.3031e-05,829.74,8.207e-05,803.67,-2.4895e-05,-0.021137,-3.1528e-05,-49.861,2.3029
26249,20.315,3.5455,0.1,8.1054e-05,809.98,8.0068e-05,783.33,-2.4189e-05,-0.021379,-3.0959e-05,-50.883,2.3182
26250,20.038,3.4545,0.1,8.6943e-05,868.83,8.6049e-05,844.38,-2.6335e-05,-0.020024,-3.2584e-05,-46.973,2.2725
26251,20.13,3.5455,0.1,8.4952e-05,848.93,8.4035e-05,823.94,-2.5628e-05,-0.020224,-3.2004e-05,-47.928,2.2877
26252,19.854,3.4545,0.1,9.089e-05,908.28,9.0055e-05,885.31,-2.7774e-05,-0.019011,-3.3668e-05,-44.299,2.242
26253,19.946,3.5455,0.1,8.8885e-05,888.24,8.803e-05,864.77,-2.7067e-05,-0.019165,-3.3079e-05,-45.19,2.2572
26254,19.67,3.4545,0.1,9.4871e-05,948.06,9.409e-05,926.44,-2.9214e-05,-0.018097,-3.4778e-05,-41.822,2.2117
26255,19.762,3.5455,0.1,9.2853e-05,927.89,9.2053e-05,905.82,-2.8506e-05,-0.018209,-3.418e-05,-42.655,2.2268
26256,19.485,3.4545,0.1,9.8884e-05,988.16,9.8152e-05,967.79,-3.0656e-05,-0.017261,-3.5914e-05,-39.527,2.1814
26257,19.578,3.5455,0.1,9.6853e-05,967.86,9.6104e-05,947.07,-2.9946e-05,-0.017348,-3.5308e-05,-40.306,2.1965
26258,19.301,3.4545,0.1,0.00010293,1028.6,0.00010224,1009.4,-3.2098e-05,-0.016489,-3.7074e-05,-37.401,2.1512
26259,19.393,3.5455,0.1,0.00010088,1008.2,0.00010018,988.54,-3.1387e-05,-0.01655,-3.6459e-05,-38.129,2.1662
26260,19.117,3.4545,0.1,0.000107,1069.3,0.00010636,1051.1,-3.3543e-05,-0.015769,-3.8256e-05,-35.429,2.121
26261,19.209,3.5455,0.1,0.00010495,1048.8,0.00010429,1030.2,-3.283e-05,-0.015815,-3.7634e-05,-36.111,2.136
26262,18.933,3.4545,0.1,0.00011111,1110.3,0.0001105,1093.1,-3.499e-05,-0.015104,-3.946e-05,-33.6,2.0909
26263,19.025,3.5455,0.1,0.00010904,1089.6,0.00010842,1072.1,-3.4275e-05,-0.015121,-3.883e-05,-34.24,2.1059
26264,18.748,3.4545,0.1,0.00011524,1151.6,0.00011467,1135.3,-3.644e-05,-0.014504,-4.0684e-05,-31.903,2.0609
26265,18.841,3.5455,0.1,0.00011316,1130.8,0.00011257,1114.2,-3.5723e-05,-0.014496,-4.0047e-05,-32.503,2.0759
26266,18.564,3.4545,0.1,0.0001194,1193.2,0.00011886,1177.7,-3.7892e-05,-0.013948,-4.1927e-05,-30.327,2.031
26267,18.656,3.5455,0.1,0.00011731,1172.3,0.00011675,1156.5,-3.7173e-05,-0.01393,-4.1283e-05,-30.891,2.0459
26268,18.38,3.4545,0.1,0.00012359,1235.1,0.00012307,1220.4,-3.9348e-05,-0.013423,-4.3188e-05,-28.861,2.0011
26269,18.472,3.5455,0.1,0.00012149,1214,0.00012096,1199.1,-3.8627e-05,-0.013392,-4.2537e-05,-29.392,2.016
26270,18.196,3.4545,0.1,0.00012781,1277.2,0.00012732,1263.2,-4.0808e-05,-0.012925,-4.4466e-05,-27.497,1.9714
26271,18.288,3.5455,0.1,0.00012569,1256,0.00012519,1241.8,-4.0084e-05,-0.01289,-4.3809e-05,-27.998,1.9862
26272,18.011,3.4545,0.1,0.00013205,1319.6,0.00013158,1306.2,-4.2271e-05,-0.012461,-4.576e-05,-26.226,1.9417
26273,18.103,3.5455,0.1,0.00012992,1298.3,0.00012945,1284.7,-4.1545e-05,-0.012406,-4.5097e-05,-26.699,1.9565
26274,17.827,3.4545,0.1,0.00013631,1362.2,0.00013587,1349.5,-4.3739e-05,-0.012043,-4.707e-05,-25.04,1.9121
26275,17.919,3.5455,0.1,0.00013418,1340.8,0.00013372,1327.9,-4.301e-05,-0.01197,-4.6401e-05,-25.488,1.9268
26276,17.643,3.4545,0.1,0.00014061,1405.1,0.00014018,1393,-4.521e-05,-0.011653,-4.8394e-05,-23.932,1.8826
26277,17.735,3.5455,0.1,0.00013846,1383.6,0.00013803,1371.3,-4.448e-05,-0.011578,-4.772e-05,-24.356,1.8973
26278,17.459,3.4545,0.1,0.00014492,1448.2,0.00014452,1436.6,-4.6687e-05,-0.011277,-4.9732e-05,-22.893,1.8532
26279,17.551,3.5455,0.1,0.00014276,1426.6,0.00014235,1414.8,-4.5953e-05,-0.011196,-4.9053e-05,-23.298,1.8678
26280,17.274,3.4545,0.1,0.00014926,1491.6,0.00014888,1480.5,-4.8168e-05,-0.010914,-5.1084e-05,-21.919,1.8239
26281,17.366,3.5455,0.1,0.00014709,1469.9,0.0001467,1458.6,-4.7432e-05,-0.010834,-5.0399e-05,-22.305,1.8385
26282,17.09,3.4545,0.1,0.00015363,1535.2,0.00015326,1524.6,-4.9654e-05,-0.010571,-5.2448e-05,-21.002,1.7947
26283,17.182,3.5455,0.1,0.00015144,1513.4,0.00015107,1502.6,-4.8915e-05,-0.010477,-5.1758e-05,-21.371,1.8092
26284,16.906,3.4545,0.1,0.00015801,1579,0.00015766,1568.9,-5.1145e-05,-0.010267,-5.3823e-05,-20.136,1.7656
26285,16.998,3.5455,0.1,0.00015582,1557.1,0.00015546,1546.8,-5.0403e-05,-0.010156,-5.3129e-05,-20.492,1.7801
26286,16.721,3.4545,0.1,0.00016242,1623.1,0.00016209,1613.4,-5.2641e-05,-0.0099815,-5.5211e-05,-19.317,1.7366
26287,16.814,3.5455,0.1,0.00016022,1601.1,0.00015988,1591.2,-5.1897e-05,-0.0098746,-5.4512e-05,-19.66,1.751
26288,16.537,3.4545,0.1,0.00016686,1667.4,0.00016653,1658.1,-5.4143e-05,-0.0097008,-5.6609e-05,-18.538,1.7077
26289,16.629,3.5455,0.1,0.00016464,1645.3,0.00016431,1635.8,-5.3395e-05,-0.0095907,-5.5906e-05,-18.871,1.7221
26290,16.353,3.4545,0.1,0.00017131,1711.9,0.000171,1703,-5.565e-05,-0.0094218,-5.8017e-05,-17.796,1.6789
26291,16.445,3.5455,0.1,0.00016909,1689.7,0.00016877,1680.6,-5.4899e-05,-0.0093188,-5.731e-05,-18.12,1.6933
26292,16.169,3.4545,0.1,0.00017579,1756.7,0.00017549,1748.1,-5.7163e-05,-0.0091564,-5.9435e-05,-17.084,1.6503
26293,16.261,3.5455,0.1,0.00017355,1734.3,0.00017325,1725.6,-5.6409e-05,-0.0090387,-5.8724e-05,-17.402,1.6645
26294,15.984,3.4545,0.1,0.00018029,1801.6,0.00018,1793.4,-5.8681e-05,-0.0089266,-6.0863e-05,-16.4,1.6218
26295,16.077,3.5455,0.1,0.00017804,1779.2,0.00017775,1770.8,-5.7925e-05,-0.0087939,-6.0148e-05,-16.713,1.6359
26296,15.8,3.4545,0.1,0.00018481,1846.8,0.00018453,1838.9,-6.0206e-05,-0.0087088,-6.2299e-05,-15.737,1.5933
26297,15.892,3.5455,0.1,0.00018255,1824.3,0.00018227,1816.2,-5.9446e-05,-0.008583,-6.1581e-05,-16.047,1.6075
26298,15.616,3.4545,0.1,0.00018935,1892.2,0.00018909,1884.6,-6.1737e-05,-0.008488,-6.3744e-05,-15.093,1.5651
26299,15.708,3.5455,0.1,0.00018708,1869.5,0.00018682,1861.8,-6.0974e-05,-0.008363,-6.3022e-05,-15.402,1.5791
26300,15.432,3.4545,0.1,0.00019391,1937.8,0.00019366,1930.5,-6.3273e-05,-0.0082629,-6.5197e-05,-14.462,1.5369
26301,15.524,3.5455,0.1,0.00019163,1915,0.00019138,1907.6,-6.2507e-05,-0.0081459,-6.4472e-05,-14.771,1.5509
26302,15.247,3.4545,0.1,0.00019849,1983.6,0.00019825,1976.6,-6.4816e-05,-0.0080475,-6.6657e-05,-13.841,1.5089
26303,15.339,3.5455,0.1,0.00019621,1960.7,0.00019596,1953.6,-6.4047e-05,-0.0079154,-6.5929e-05,-14.153,1.5228
26304,15.063,3.4545,0.1,0.0002031,2029.5,0.00020287,2022.9,-6.6366e-05,-0.0078645,-6.8125e-05,-13.226,1.481
26305,15.155,3.5455,0.1,0.0002008,2006.6,0.00020057,1999.8,-6.5593e-05,-0.0077175,-6.7394e-05,-13.542,1.4948
26306,14.879,3.4545,0.1,0.00020772,2075.7,0.0002075,2069.4,-6.7922e-05,-0.007689,-6.9599e-05,-12.613,1.4532
26307,14.971,3.5455,0.1,0.00020541,2052.7,0.00020519,2046.2,-6.7145e-05,-0.0075513,-6.8866e-05,-12.935,1.467
26308,14.695,3.4545,0.1,0.00021236,2122.1,0.00021215,2116.1,-6.9484e-05,-0.0075051,-7.108e-05,-11.998,1.4256
26309,14.787,3.5455,0.1,0.00021005,2099,0.00020983,2092.8,-6.8704e-05,-0.0073685,-7.0344e-05,-12.328,1.4393
26310,14.51,3.4545,0.1,0.00021702,2168.7,0.00021683,2163,-7.1054e-05,-0.0073112,-7.2567e-05,-11.376,1.3981
26311,14.602,3.5455,0.1,0.0002147,2145.5,0.0002145,2139.6,-7.027e-05,-0.0071851,-7.1829e-05,-11.718,1.4118
26312,14.326,3.4545,0.1,0.0002217,2215.5,0.00022152,2210.1,-7.263e-05,-0.0071223,-7.4059e-05,-10.745,1.3708
26313,14.418,3.5455,0.1,0.00021937,2192.2,0.00021918,2186.6,-7.1843e-05,-0.0069805,-7.3319e-05,-11.099,1.3844
26314,14.142,3.4545,0.1,0.0002264,2262.5,0.00022623,2257.4,-7.4213e-05,-0.0069642,-7.5556e-05,-10.1,1.3436
26315,14.234,3.5455,0.1,0.00022406,2239.1,0.00022388,2233.8,-7.3422e-05,-0.0068066,-7.4814e-05,-10.468,1.3571
26316,13.957,3.4545,0.1,0.00023112,2309.6,0.00023096,2304.9,-7.5803e-05,-0.0068103,-7.7058e-05,-9.4373,1.3166
26317,14.05,3.5455,0.1,0.00022877,2286.1,0.0002286,2281.2,-7.5009e-05,-0.0066629,-7.6315e-05,-9.822,1.33
26318,13.773,3.4545,0.1,0.00023586,2357,0.00023571,2352.6,-7.7401e-05,-0.0066415,-7.8564e-05,-8.7517,1.2898
26319,13.865,3.5455,0.1,0.0002335,2333.4,0.00023334,2328.8,-7.6602e-05,-0.0064946,-7.782e-05,-9.1558,1.3031
26320,13.589,3.4545,0.1,0.00024062,2404.5,0.00024048,2400.5,-7.9005e-05,-0.0064546,-8.0074e-05,-8.0394,1.2631
26321,13.681,3.5455,0.1,0.00023825,2380.8,0.0002381,2376.6,-7.8203e-05,-0.0063189,-7.9329e-05,-8.4653,1.2763
26322,13.405,3.4545,0.1,0.00024539,2452.2,0.00024526,2448.5,-8.0617e-05,-0.0062663,-8.1588e-05,-7.2957,1.2365
26323,13.497,3.5455,0.1,0.00024301,2428.5,0.00024288,2424.6,-7.9811e-05,-0.0061122,-8.0841e-05,-7.7461,1.2497
26324,13.22,3.4545,0.1,0.00025018,2500.1,0.00025007,2496.8,-8.2237e-05,-0.0061037,-8.3104e-05,-6.5159,1.2101
26325,13.313,3.5455,0.1,0.0002478,2476.3,0.00024768,2472.8,-8.1427e-05,-0.0059293,-8.2357e-05,-6.9938,1.2232
26326,13.036,3.4545,0.1,0.00025499,2548.1,0.00025489,2545.3,-8.3865e-05,-0.0059327,-8.4622e-05,-5.6949,1.1839
26327,13.128,3.5455,0.1,0.0002526,2524.2,0.00025249,2521.1,-8.305e-05,-0.0057672,-8.3875e-05,-6.2034,1.1969
26328,12.852,3.4545,0.1,0.00025981,2596.4,0.00025973,2593.9,-8.55e-05,-0.0057252,-8.6142e-05,-4.8275,1.1579
26329,12.944,3.5455,0.1,0.00025742,2572.4,0.00025732,2569.7,-8.4681e-05,-0.0055584,-8.5395e-05,-5.3698,1.1708
26330,12.668,3.4545,0.1,0.00026466,2644.7,0.00026459,2642.8,-8.7144e-05,-0.0054622,-8.7663e-05,-3.908,1.1321
26331,12.76,3.5455,0.1,0.00026225,2620.7,0.00026217,2618.4,-8.6321e-05,-0.0053077,-8.6917e-05,-4.4878,1.1449
26332,12.483,3.4545,0.1,0.00026952,2693.3,0.00026947,2691.8,-8.8795e-05,-0.0051219,-8.9185e-05,-2.9306,1.1064
26333,12.575,3.5455,0.1,0.0002671,2669.2,0.00026704,2667.4,-8.7968e-05,-0.0049584,-8.844e-05,-3.5515,1.1191
26334,12.299,3.4545,0.1,0.00027439,2742,0.00027436,2741.1,-9.0455e-05,-0.0045936,-9.0706e-05,-1.8892,1.0809
26335,12.391,3.5455,0.1,0.00027197,2717.8,0.00027192,2716.5,-8.9623e-05,-0.004487,-8.9963e-05,-2.5553,1.0935
26336,12.115,3.4545,0.1,0.00027928,2790.9,0.00027927,2790.5,-9.2124e-05,-0.0028306,-9.2227e-05,-0.77791,1.0556
26337,12.207,3.5455,0.1,0.00027685,2766.6,0.00027683,2765.9,-9.1287e-05,-0.003529,-9.1486e-05,-1.493,1.0681
26338,11.931,3.4545,0.1,0.00028418,2839.9,0.00028419,2840.1,-9.3745e-05,0.42107,-9.3802e-05,-0.010515,1.0305
26339,12.023,3.5455,0.1,0.00028175,2815.6,0.00028174,2815.4,-9.2959e-05,0.0031157,-9.3008e-05,-0.36266,1.0429
26340,11.746,3.4545,0.1,0.0002891,2889,0.00028913,2889.9,-9.5262e-05,1.6945,-9.5488e-05,-0.0065755,1.0056
26341,11.838,3.5455,0.1,0.00028666,2864.6,0.00028668,2865.1,-9.4526e-05,0.86705,-9.4642e-05,-0.0088259,1.0179
26342,11.562,3.4545,0.1,0.00029404,2938.3,0.00029409,2939.9,-9.6775e-05,3.0653,-9.7184e-05,-0.0058473,0.98083
26343,11.654,3.5455,0.1,0.00029159,2913.9,0.00029163,2915,-9.6043e-05,2.1714,-9.6333e-05,-0.0065466,0.99308
26344,11.378,3.4545,0.1,0.00029898,2987.8,0.00029906,2990,-9.8284e-05,4.5397,-9.8889e-05,-0.0054914,0.9563
26345,11.47,3.5455,0.1,0.00029653,2963.3,0.00029659,2965,-9.7556e-05,3.5745,-9.8033e-05,-0.005855,0.96845
26346,11.193,3.4545,0.1,0.00030394,3037.3,0.00030404,3040.4,-9.9788e-05,6.1269,-0.0001006,-0.0052384,0.93198
26347,11.286,3.5455,0.1,0.00030149,3012.8,0.00030157,3015.3,-9.9065e-05,5.0841,-9.9742e-05,-0.0054948,0.94402
26348,11.009,3.4545,0.1,0.00030891,3087,0.00030904,3090.9,-0.00010129,7.8374,-0.00010233,-0.0050064,0.90786
26349,11.101,3.5455,0.1,0.00030645,3062.4,0.00030657,3065.8,-0.00010057,6.7101,-0.00010146,-0.0052062,0.9198
26350,10.825,3.4545,0.1,0.00031389,3136.8,0.00031406,3141.6,-0.00010278,9.6823,-0.00010406,-0.0047711,0.88396
26351,10.917,3.5455,0.1,0.00031143,3112.2,0.00031157,3116.4,-0.00010206,8.4629,-0.00010319,-0.0049563,0.89579
26352,10.641,3.4545,0.1,0.00031889,3186.7,0.00031909,3192.5,-0.00010426,11.674,-0.00010581,-0.0045468,0.86026
26353,10.733,3.5455,0.1,0.00031642,3162,0.0003166,3167.2,-0.00010355,10.354,-0.00010493,-0.004693,0.87199
26354,10.456,3.4545,0.1,0.00032389,3236.7,0.00032412,3243.6,-0.00010573,13.825,-0.00010757,-0.0043652,0.83679
26355,10.549,3.5455,0.1,0.00032142,3212,0.00032163,3218.2,-0.00010503,12.396,-0.00010668,-0.004483,0.8484
26356,10.272,3.4545,0.1,0.0003289,3286.8,0.00032918,3294.8,-0.00010719,16.15,-0.00010934,-0.0041769,0.81353
26357,10.364,3.5455,0.1,0.00032643,3262.1,0.00032668,3269.4,-0.0001065,14.601,-0.00010845,-0.004316,0.82503
26358,10.088,3.4545,0.1,0.00033392,3336.9,0.00033424,3346.2,-0.00010863,18.664,-0.00011112,-0.0039653,0.7905
26359,10.18,3.5455,0.1,0.00033145,3312.2,0.00033174,3320.7,-0.00010796,16.985,-0.00011022,-0.0041006,0.80189
26360,9.9036,3.4545,0.1,0.00033895,3387.2,0.00033931,3397.8,-0.00011007,21.384,-0.00011291,-0.0037535,0.76769
26361,9.9957,3.5455,0.1,0.00033648,3362.5,0.00033681,3372.2,-0.0001094,19.564,-0.00011201,-0.0038935,0.77897
26362,9.7193,3.4545,0.1,0.00034399,3437.5,0.00034439,3449.6,-0.00011148,24.328,-0.00011472,-0.0035307,0.74512
26363,9.8115,3.5455,0.1,0.00034151,3412.8,0.00034189,3423.9,-0.00011083,22.354,-0.00011381,-0.0036821,0.75627
26364,9.5351,3.4545,0.1,0.00034902,3487.8,0.00034948,3501.5,-0.00011288,27.516,-0.00011654,-0.0032987,0.72277
26365,9.6272,3.5455,0.1,0.00034655,3463.1,0.00034698,3475.8,-0.00011224,25.374,-0.00011562,-0.0034572,0.73381
26366,9.3508,3.4545,0.1,0.00035407,3538.2,0.00035458,3553.6,-0.00011425,30.97,-0.00011837,-0.0030585,0.70067
26367,9.4429,3.5455,0.1,0.0003516,3513.6,0.00035208,3527.8,-0.00011363,28.644,-0.00011744,-0.003232,0.71159
26368,9.1665,3.4545,0.1,0.00035911,3588.6,0.00035969,3605.9,-0.0001156,34.713,-0.00012022,-0.0028049,0.67881
26369,9.2587,3.5455,0.1,0.00035665,3564,0.00035718,3580,-0.000115,32.186,-0.00011928,-0.0029944,0.6896
26370,8.9823,3.4545,0.1,0.00036416,3639.1,0.0003648,3658.3,-0.00011693,38.771,-0.00012209,-0.0025373,0.65719
26371,9.0744,3.5455,0.1,0.0003617,3614.5,0.0003623,3632.3,-0.00011634,36.025,-0.00012114,-0.0027459,0.66786
26372,8.798,3.4545,0.1,0.0003692,3689.5,0.00036992,3710.9,-0.00011822,43.171,-0.00012397,-0.0022539,0.63582
26373,8.8901,3.5455,0.1,0.00036675,3664.9,0.00036741,3684.9,-0.00011766,40.186,-0.00012301,-0.0024848,0.64636
26374,8.6137,3.4545,0.1,0.00037425,3739.9,0.00037504,3763.6,-0.00011949,47.946,-0.00012587,-0.0019531,0.6147
26375,8.7059,3.5455,0.1,0.0003718,3715.4,0.00037254,3737.5,-0.00011895,44.698,-0.0001249,-0.0022092,0.62512
26376,8.4295,3.4545,0.1,0.00037928,3790.2,0.00038016,3816.5,-0.00012072,53.127,-0.00012779,-0.0016332,0.59383
26377,8.5216,3.5455,0.1,0.00037684,3765.8,0.00037766,3790.4,-0.00012021,49.593,-0.00012681,-0.0019184,0.60412
26378,8.2452,3.4545,0.1,0.00038432,3840.5,0.00038528,3869.6,-0.0001219,58.753,-0.00012972,-0.0012931,0.57322
26379,8.3373,3.5455,0.1,0.00038189,3816.2,0.00038279,3843.4,-0.00012143,54.904,-0.00012873,-0.0016111,0.58338
26380,8.0609,3.4545,0.1,0.00038934,3890.8,0.00039041,3922.8,-0.00012305,64.864,-0.00013168,-0.00093151,0.55288
26381,8.1531,3.5455,0.1,0.00038692,3866.6,0.00038792,3896.5,-0.0001226,60.669,-0.00013068,-0.0012864,0.56291
26382,7.8767,3.4545,0.1,0.00039436,3940.9,0.00039553,3976.1,-0.00012415,71.505,-0.00013366,-0.00054725,0.5328
26383,7.9688,3.5455,0.1,0.00039195,3916.8,0.00039305,3949.9,-0.00012374,66.929,-0.00013265,-0.0009439,0.54269
26384,7.6924,3.4545,0.1,0.00039937,3990.9,0.00040065,4029.7,-0.00012519,78.724,-0.00013567,-0.00013954,0.51298
26385,7.7845,3.5455,0.1,0.00039697,3967,0.00039818,4003.4,-0.00012482,73.73,-0.00013464,-0.00058282,0.52274
26386,7.5081,3.4545,0.1,0.00040436,4040.8,0.00040576,4083.4,-0.00012618,86.576,-0.0001377,0.00029176,0.49344
26387,7.6003,3.5455,0.1,0.00040198,4017.1,0.0004033,4057,-0.00012586,81.12,-0.00013665,-0.00020439,0.50307
26388,7.3239,3.4545,0.1,0.00040934,4090.5,0.00041087,4137.3,-0.00012711,95.121,-0.00013977,0.00074597,0.47418
26389,7.416,3.5455,0.1,0.00040698,4067,0.00040842,4110.8,-0.00012683,89.154,-0.0001387,0.0001905,0.48366
26390,7.1396,3.4545,0.1,0.0004143,4140.1,0.00041598,4191.4,-0.00012796,104.43,-0.00014186,0.001221,0.45519
26391,7.2317,3.5455,0.1,0.00041196,4116.8,0.00041354,4164.8,-0.00012774,97.893,-0.00014077,0.00059887,0.46454
26392,6.9553,3.4545,0.1,0.00041924,4189.5,0.00042107,4245.6,-0.00012874,114.56,-0.00014399,0.0017131,0.43649
26393,7.0475,3.5455,0.1,0.00041693,4166.4,0.00041865,4219.1,-0.00012858,107.4,-0.00014287,0.0010165,0.44569
26394,6.7711,3.4545,0.1,0.00042417,4238.8,0.00042617,4300.2,-0.00012943,125.61,-0.00014615,0.0022159,0.41807
26395,6.8632,3.5455,0.1,0.00042188,4215.9,0.00042376,4273.5,-0.00012934,117.76,-0.00014501,0.0014362,0.42713
26396,6.5868,3.4545,0.1,0.00042908,4287.8,0.00043125,4355,-0.00013004,137.66,-0.00014836,0.0027196,0.39995
26397,6.6789,3.5455,0.1,0.00042681,4265.2,0.00042886,4328.2,-0.00013002,129.03,-0.00014719,0.0018475,0.40886
26398,6.4025,3.4545,0.1,0.00043397,4336.7,0.00043634,4410.1,-0.00013054,150.82,-0.00015062,0.0032096,0.38211
26399,6.4947,3.5455,0.1,0.00043173,4314.3,0.00043396,4383.2,-0.0001306,141.32,-0.00014941,0.0022353,0.39087
26400,6.2183,3.4545,0.1,0.00043885,4385.4,0.00044142,4465.7,-0.00013094,165.19,-0.00015292,0.0036646,0.36457
26401,6.3104,3.5455,0.1,0.00043663,4363.3,0.00043905,4438.6,-0.00013109,154.72,-0.00015168,0.0025779,0.37319
26402,6.034,3.4545,0.1,0.00044371,4434.1,0.00044651,4521.8,-0.00013122,180.89,-0.00015529,0.0040541,0.34733
26403,6.1261,3.5455,0.1,0.00044152,4412.1,0.00044415,4494.4,-0.00013147,169.34,-0.00015401,0.0028445,0.3558
26404,5.8497,3.4545,0.1,0.00044858,4482.7,0.00045162,4578.4,-0.00013137,198.06,-0.00015773,0.004335,0.3304
26405,5.9419,3.5455,0.1,0.0004464,4460.9,0.00044926,4550.7,-0.00013173,185.3,-0.0001564,0.0029931,0.33871
26406,5.6655,3.4545,0.1,0.00045345,4531.3,0.00045675,4635.9,-0.00013139,216.86,-0.00016025,0.0044472,0.31377
26407,5.7576,3.5455,0.1,0.00045129,4509.8,0.00045439,4607.7,-0.00013187,202.73,-0.00015885,0.0029647,0.32193
26408,5.4812,3.4545,0.1,0.00045834,4580.2,0.00046192,4694.3,-0.00013126,237.43,-0.00016286,0.0043074,0.29745
26409,5.5733,3.5455,0.1,0.00045619,4558.7,0.00045955,4665.6,-0.00013188,221.76,-0.00016139,0.0026786,0.30545
26410,5.2969,3.4545,0.1,0.00046328,4629.6,0.00046715,4754.1,-0.00013098,259.97,-0.00016558,0.0038009,0.28145
26411,5.3891,3.5455,0.1,0.00046112,4608,0.00046476,4724.5,-0.00013174,242.57,-0.00016403,0.0020241,0.28929
26412,5.1127,3.4545,0.1,0.00046828,4679.6,0.00047248,4815.5,-0.00013053,284.68,-0.00016842,0.0027695,0.26576
26413,5.2048,3.5455,0.1,0.0004661,4657.8,0.00047005,4784.8,-0.00013146,265.32,-0.00016677,0.00084979,0.27344
26414,4.9284,3.4545,0.1,0.0004734,4730.8,0.00047794,4878.9,-0.00012992,311.75,-0.00017141,0.00099635,0.25039
26415,5.0205,3.5455,0.1,0.00047118,4708.5,0.00047544,4846.9,-0.00013102,290.18,-0.00016964,-0.0010506,0.25792
26416,4.7441,3.4545,0.1,0.00047869,4783.6,0.00048358,4945.2,-0.00012914,341.43,-0.00017458,-0.001816,0.23535
26417,4.8363,3.5455,0.1,0.00047638,4760.5,0.00048098,4911.3,-0.00013042,317.37,-0.00017266,-0.0039585,0.24271
26418,4.5599,3.4545,0.1,0.00048421,4838.8,0.00048949,5014.9,-0.00012818,373.95,-0.00017796,-0.0060759,0.22064
26419,4.652,3.5455,0.1,0.00048177,4814.4,0.00048674,4978.6,-0.00012967,347.08,-0.00017587,-0.0082585,0.22784
26420,4.3756,3.4545,0.1,0.00049006,4897.2,0.00049574,5089.2,-0.00012707,409.57,-0.00018158,-0.012344,0.20626
26421,4.4677,3.5455,0.1,0.00048743,4871,0.00049278,5049.6,-0.00012877,379.52,-0.00017929,-0.014475,0.21329
26422,4.1913,3.4545,0.1,0.00049637,4960.2,0.00050247,5169.3,-0.00012582,448.54,-0.00018552,-0.021391,0.19221
26423,4.2835,3.5455,0.1,0.00049346,4931.2,0.00049921,5125.5,-0.00012774,414.91,-0.00018296,-0.023327,0.19908
26424,4.0071,3.4545,0.1,0.00050329,5029.4,0.00050984,5256.9,-0.00012445,491.11,-0.00018982,-0.034284,0.17851
26425,4.0992,3.5455,0.1,0.00049999,4996.5,0.00050616,5207.7,-0.0001266,453.46,-0.00018695,-0.035801,0.1852
26426,3.8228,3.4545,0.1,0.00051104,5106.8,0.00051805,5354.3,-0.00012303,537.5,-0.00019457,-0.052497,0.16515
26427,3.9149,3.5455,0.1,0.0005072,5068.5,0.0005138,5297.9,-0.00012538,495.34,-0.00019132,-0.05325,0.17167
26428,3.6385,3.4545,0.1,0.00051989,5195.3,0.00052739,5464.2,-0.00012161,587.9,-0.00019987,-0.078074,0.15215
26429,3.7307,3.5455,0.1,0.00051531,5149.6,0.00052237,5398.5,-0.00012416,540.71,-0.00019614,-0.077545,0.15849
26430,3.4543,3.4545,0.1,0.00053021,5298.5,0.00053821,5590.3,-0.00012032,642.41,-0.00020583,-0.11386,0.1395
26431,3.5464,3.5455,0.1,0.00052462,5242.6,0.00053216,5512.4,-0.00012303,589.64,-0.00020152,-0.11127,0.14567
26432,3.27,3.4545,0.1,0.00054247,5421,0.00055098,5737.3,-0.00011931,701,-0.00021263,-0.16381,0.12722
26433,3.3621,3.5455,0.1,0.00053553,5351.6,0.00054355,5643.5,-0.00012211,642.08,-0.00020758,-0.15801,0.13321
26434,3.0857,3.4545,0.1,0.00055729,5569,0.00056633,5911.2,-0.0001188,763.43,-0.00022044,-0.23343,0.11531
26435,3.1779,3.5455,0.1,0.00054852,5481.4,0.00055704,5796.8,-0.00012159,697.83,-0.00021449,-0.22277,0.12111
26436,2.9015,3.4545,0.1,0.00057547,5750.7,0.00058506,6120.1,-0.00011912,829.17,-0.00022952,-0.33031,0.10379
26437,2.9936,3.5455,0.1,0.00056426,5638.7,0.0005733,5978.5,-0.00012173,756.4,-0.00022244,-0.31243,0.1094
26438,2.7172,3.4545,0.1,0.00059808,5976.7,0.00060826,6374.3,-0.0001207,897.21,-0.00024017,-0.465,0.092662
26439,2.8093,3.5455,0.1,0.00058362,5832.2,0.0005932,6197.3,-0.00012289,816.92,-0.00023167,-0.4369,0.098069
26440,2.5329,3.4545,0.1,0.00062657,6261.3,0.00063736,6687.7,-0.00012418,965.83,-0.00025281,-0.65114,0.08195
26441,2.6251,3.5455,0.1,0.00060776,6073.5,0.0006179,6464.3,-0.00012559,877.94,-0.00024252,-0.60917,0.087147
26442,2.3487,3.4545,0.1,0.00066284,6623.8,0.00067431,7078.8,-0.00013043,1032.3,-0.00026794,-0.91138,0.071671
26443,2.4408,3.5455,0.1,0.00063825,6378.1,0.00064898,6794.3,-0.00013056,937.15,-0.0002554,-0.85099,0.076645
26444,2.1644,3.4545,0.1,0.00070956,7090.7,0.00072177,7572.8,-0.00014072,1092.4,-0.00028627,-1.252,0.061849
26445,2.2565,3.5455,0.1,0.00067724,6767.7,0.0006886,7207.9,-0.00013882,991.01,-0.00027087,-1.1855,0.066584
26446,1.9801,3.4545,0.1,0.00077044,7699.1,0.00078342,8204.3,-0.00015682,1139.7,-0.00030874,-1.771,0.052517
26447,2.0723,3.5455,0.1,0.0007278,7273,0.00073981,7733.7,-0.00015184,1034.2,-0.00028971,-1.6646,0.056992
26448,1.7959,3.4545,0.1,0.00085067,8500.8,0.00086441,9021.8,-0.00018128,1164.8,-0.00033663,-2.3479,0.043715
26449,1.888,3.5455,0.1,0.00079446,7939.1,0.00080709,8414,-0.00017181,1058.9,-0.00031306,-2.4086,0.047902
26450,1.6116,3.4545,0.1,0.00095728,9566.2,0.00097161,10090,-0.00021759,1154.3,-0.00037154,-2.4111,0.035497
26451,1.7037,3.5455,0.1,0.00088405,8834.4,0.00089717,9312.3,-0.00020196,1053.9,-0.00034262,-2.96,0.03936
26452,1.4273,3.4545,0.1,0.0010973,10966,0.0011118,11471,-0.00026889,1097.6,-0.00041536,-2.9038,0.027932
26453,1.5195,3.5455,0.1,0.0010075,10068,0.0010207,10528,-0.00024714,1002.6,-0.00038144,-6.5616,0.031424
26454,1.2431,3.4545,0.1,0.001266,12651,0.0012802,13129,-0.00033078,1024.7,-0.00046805,-6.687,0.021114
26455,1.3352,3.5455,0.1,0.0011794,11786,0.001192,12205,-0.00031442,886.29,-0.0004321,2.0993,0.024177
26456,1.1509,3.5455,0.1,0.0014063,14053,0.0014171,14396,-0.00040476,707.55,-0.00049824,5.1837,0.017733
26457,1.0588,3.4545,0.1,0.0014254,14244,0.0014403,14739,-0.00038121,1053.3,-0.00052189,-3.6967,0.015159
26458,23.724,3.6364,0.1,2.0355e-05,203.41,1.1456e-05,59.198,3.5476e-06,-0.22379,-1.8689e-05,-167.3,2.8895
26459,23.816,3.7273,0.1,1.9365e-05,193.51,9.6231e-06,39.805,4.2986e-06,-0.20077,-1.8378e-05,-170.58,2.9051
26460,23.908,3.6364,0.1,1.8956e-05,189.42,8.1143e-06,22.402,5.0756e-06,-0.42912,-1.8478e-05,-177.4,2.9206
26461,23.539,3.6364,0.1,2.2309e-05,222.93,1.5014e-05,98.123,1.9239e-06,-0.22755,-1.8951e-05,-157.07,2.8584
26462,23.631,3.7273,0.1,2.1092e-05,210.78,1.3172e-05,78.651,2.6605e-06,-0.32781,-1.8619e-05,-160.21,2.874
26463,23.355,3.6364,0.1,2.4635e-05,246.18,1.857e-05,136.94,3.28e-07,-0.13093,-1.9254e-05,-147.26,2.8274
26464,23.447,3.7273,0.1,2.3252e-05,232.35,1.6721e-05,117.5,1.0642e-06,-0.14174,-1.8901e-05,-150.15,2.8429
26465,23.171,3.6364,0.1,2.7241e-05,272.22,2.2132e-05,175.6,-1.2536e-06,-0.10798,-1.9602e-05,-137.97,2.7963
26466,23.263,3.7273,0.1,2.5736e-05,257.18,2.0277e-05,156.18,-5.2512e-07,-0.12434,-1.9228e-05,-140.65,2.8118
26467,22.987,3.6364,0.1,3.006e-05,300.39,2.5702e-05,214.18,-2.8157e-06,-0.085254,-1.9996e-05,-129.17,2.7652
26468,23.079,3.7273,0.1,2.8463e-05,284.44,2.3839e-05,194.75,-2.093e-06,-0.092816,-1.9602e-05,-131.65,2.7807
26469,22.802,3.6364,0.1,3.3043e-05,330.2,2.9283e-05,252.71,-4.3606e-06,-0.071869,-2.0439e-05,-120.88,2.7342
26470,22.894,3.7273,0.1,3.1378e-05,313.56,2.7412e-05,233.26,-3.6433e-06,-0.077739,-2.0026e-05,-123.17,2.7497
26471,22.618,3.6364,0.1,3.6157e-05,361.32,3.288e-05,291.24,-5.8892e-06,-0.061549,-2.0932e-05,-113.09,2.7032
26472,22.71,3.7273,0.1,3.4438e-05,344.15,3.1001e-05,271.75,-5.1765e-06,-0.065528,-2.05e-05,-115.2,2.7187
26473,22.434,3.6364,0.1,3.9378e-05,393.51,3.6497e-05,329.8,-7.4031e-06,-0.053867,-2.1474e-05,-105.78,2.6722
26474,22.526,3.7273,0.1,3.7618e-05,375.92,3.4608e-05,310.27,-6.6943e-06,-0.056839,-2.1025e-05,-107.73,2.6876
26475,22.249,3.6364,0.1,4.269e-05,426.61,4.0137e-05,368.43,-8.904e-06,-0.047795,-2.2066e-05,-98.942,2.6412
26476,22.342,3.7273,0.1,4.0895e-05,408.67,3.8238e-05,348.86,-8.1982e-06,-0.050021,-2.16e-05,-100.75,2.6567
26477,22.065,3.6364,0.1,4.608e-05,460.49,4.3802e-05,407.16,-1.0393e-05,-0.042907,-2.2707e-05,-92.561,2.6103
26478,22.157,3.7273,0.1,4.4256e-05,442.26,4.1893e-05,387.53,-9.69e-06,-0.044612,-2.2226e-05,-94.233,2.6257
26479,21.881,3.6364,0.1,4.954e-05,495.05,4.7494e-05,446.02,-1.1872e-05,-0.038874,-2.3395e-05,-86.615,2.5793
26480,21.973,3.7273,0.1,4.7691e-05,476.58,4.5575e-05,426.33,-1.1171e-05,-0.040196,-2.29e-05,-88.166,2.5948
26481,21.697,3.6364,0.1,5.3061e-05,530.24,5.1214e-05,485.02,-1.3343e-05,-0.035492,-2.4129e-05,-81.082,2.5485
26482,21.789,3.7273,0.1,5.1191e-05,511.56,4.9285e-05,465.27,-1.2643e-05,-0.036517,-2.3621e-05,-82.522,2.5639
26483,21.512,3.6364,0.1,5.6639e-05,566,5.4963e-05,524.18,-1.4806e-05,-0.03262,-2.4908e-05,-75.939,2.5176
26484,21.605,3.7273,0.1,5.475e-05,547.12,5.3024e-05,504.36,-1.4107e-05,-0.033417,-2.4388e-05,-77.279,2.533
26485,21.328,3.6364,0.1,6.0269e-05,602.28,5.8742e-05,563.52,-1.6262e-05,-0.030146,-2.5729e-05,-71.163,2.4868
26486,21.42,3.7273,0.1,5.8363e-05,583.23,5.6793e-05,543.63,-1.5564e-05,-0.03077,-2.5197e-05,-72.412,2.5022
26487,21.144,3.6364,0.1,6.3948e-05,639.04,6.255e-05,603.04,-1.7713e-05,-0.027988,-2.6591e-05,-66.732,2.456
26488,21.236,3.7273,0.1,6.2026e-05,619.83,6.0591e-05,583.08,-1.7016e-05,-0.028473,-2.6048e-05,-67.897,2.4714
26489,20.96,3.6364,0.1,6.7672e-05,676.26,6.6389e-05,642.76,-1.916e-05,-0.026088,-2.7491e-05,-62.623,2.4253
26490,21.052,3.7273,0.1,6.5736e-05,656.9,6.4419e-05,622.72,-1.8463e-05,-0.026465,-2.6938e-05,-63.711,2.4406
26491,20.775,3.6364,0.1,7.144e-05,713.9,7.0257e-05,682.67,-2.0604e-05,-0.024407,-2.8428e-05,-58.814,2.3946
26492,20.867,3.7273,0.1,6.9489e-05,694.41,6.8277e-05,662.55,-1.9906e-05,-0.024686,-2.7866e-05,-59.832,2.4099
26493,20.591,3.6364,0.1,7.5248e-05,751.96,7.4154e-05,722.78,-2.2045e-05,-0.022917,-2.94e-05,-55.284,2.364
26494,20.683,3.7273,0.1,7.3284e-05,732.33,7.2165e-05,702.58,-2.1346e-05,-0.023119,-2.8828e-05,-56.237,2.3793
26495,20.407,3.6364,0.1,7.9095e-05,790.4,7.8081e-05,763.1,-2.3484e-05,-0.021583,-3.0404e-05,-52.015,2.3334
26496,20.499,3.7273,0.1,7.7118e-05,770.65,7.6081e-05,742.82,-2.2785e-05,-0.021725,-2.9824e-05,-52.908,2.3486
26497,20.223,3.6364,0.1,8.2979e-05,829.22,8.2037e-05,803.63,-2.4923e-05,-0.020378,-3.1439e-05,-48.986,2.3029
26498,20.315,3.7273,0.1,8.099e-05,809.34,8.0027e-05,783.27,-2.4222e-05,-0.020469,-3.0851e-05,-49.823,2.3181
26499,20.038,3.6364,0.1,8.6899e-05,868.39,8.6021e-05,844.37,-2.636e-05,-0.019282,-3.2504e-05,-46.181,2.2724
26500,20.13,3.7273,0.1,8.4897e-05,848.39,8.4e-05,823.92,-2.5659e-05,-0.019334,-3.1907e-05,-46.967,2.2876
26501,19.854,3.6364,0.1,9.0853e-05,907.9,9.0033e-05,885.32,-2.7798e-05,-0.018284,-3.3596e-05,-43.582,2.242
26502,19.946,3.7273,0.1,8.8839e-05,887.78,8.8002e-05,864.78,-2.7096e-05,-0.018295,-3.2992e-05,-44.321,2.2571
26503,19.67,3.6364,0.1,9.484e-05,947.75,9.4072e-05,926.48,-2.9237e-05,-0.017386,-3.4715e-05,-41.175,2.2116
26504,19.762,3.7273,0.1,9.2814e-05,927.5,9.2031e-05,905.85,-2.8533e-05,-0.017359,-3.4103e-05,-41.869,2.2267
26505,19.485,3.6364,0.1,9.8859e-05,987.91,9.8139e-05,967.85,-3.0677e-05,-0.016566,-3.5858e-05,-38.944,2.1813
26506,19.578,3.7273,0.1,9.6822e-05,967.55,9.6087e-05,947.13,-2.9971e-05,-0.016517,-3.5239e-05,-39.597,2.1964
26507,19.301,3.6364,0.1,0.00010291,1028.4,0.00010223,1009.4,-3.2118e-05,-0.015807,-3.7024e-05,-36.876,2.1511
26508,19.393,3.7273,0.1,0.00010086,1007.9,0.00010017,988.63,-3.1411e-05,-0.015737,-3.6398e-05,-37.491,2.1661
26509,19.117,3.6364,0.1,0.00010699,1069.2,0.00010635,1051.2,-3.3562e-05,-0.015101,-3.8212e-05,-34.958,2.1209
26510,19.209,3.7273,0.1,0.00010493,1048.6,0.00010428,1030.3,-3.2852e-05,-0.015018,-3.758e-05,-35.538,2.136
26511,18.933,3.6364,0.1,0.0001111,1110.2,0.0001105,1093.2,-3.5008e-05,-0.014449,-3.9422e-05,-33.179,2.0908
26512,19.025,3.7273,0.1,0.00010903,1089.5,0.00010841,1072.2,-3.4296e-05,-0.014341,-3.8783e-05,-33.726,2.1058
26513,18.748,3.6364,0.1,0.00011524,1151.6,0.00011467,1135.5,-3.6456e-05,-0.01386,-4.065e-05,-31.527,2.0608
26514,18.841,3.7273,0.1,0.00011315,1130.7,0.00011257,1114.4,-3.5743e-05,-0.013731,-4.0006e-05,-32.044,2.0758
26515,18.564,3.6364,0.1,0.0001194,1193.2,0.00011886,1177.9,-3.7908e-05,-0.013315,-4.1898e-05,-29.991,2.0309
26516,18.656,3.7273,0.1,0.00011731,1172.2,0.00011676,1156.7,-3.7192e-05,-0.013179,-4.1247e-05,-30.482,2.0458
26517,18.38,3.6364,0.1,0.00012359,1235.1,0.00012308,1220.5,-3.9363e-05,-0.012802,-4.3163e-05,-28.564,2.001
26518,18.472,3.7273,0.1,0.00012149,1214,0.00012097,1199.2,-3.8645e-05,-0.012655,-4.2507e-05,-29.028,2.0159
26519,18.196,3.6364,0.1,0.00012781,1277.2,0.00012732,1263.4,-4.0822e-05,-0.012315,-4.4445e-05,-27.235,1.9713
26520,18.288,3.7273,0.1,0.00012569,1256.1,0.0001252,1242,-4.0101e-05,-0.012166,-4.3783e-05,-27.676,1.9861
26521,18.011,3.6364,0.1,0.00013205,1319.6,0.00013159,1306.4,-4.2285e-05,-0.011861,-4.5743e-05,-25.995,1.9416
26522,18.103,3.7273,0.1,0.00012993,1298.4,0.00012946,1285,-4.1562e-05,-0.011694,-4.5076e-05,-26.416,1.9564
26523,17.827,3.6364,0.1,0.00013632,1362.3,0.00013588,1349.7,-4.3752e-05,-0.011452,-4.7056e-05,-24.838,1.912
26524,17.919,3.7273,0.1,0.00013418,1340.9,0.00013374,1328.1,-4.3026e-05,-0.011269,-4.6384e-05,-25.24,1.9267
26525,17.643,3.6364,0.1,0.00014062,1405.2,0.0001402,1393.2,-4.5223e-05,-0.01107,-4.8383e-05,-23.757,1.8825
26526,17.735,3.7273,0.1,0.00013847,1383.7,0.00013804,1371.5,-4.4494e-05,-0.010889,-4.7706e-05,-24.14,1.8972
26527,17.459,3.6364,0.1,0.00014494,1448.4,0.00014453,1436.8,-4.6699e-05,-0.010703,-4.9724e-05,-22.743,1.8531
26528,17.551,3.7273,0.1,0.00014278,1426.8,0.00014237,1415.1,-4.5967e-05,-0.010518,-4.9042e-05,-23.111,1.8677
26529,17.274,3.6364,0.1,0.00014928,1491.7,0.00014889,1480.7,-4.8179e-05,-0.010348,-5.1078e-05,-21.791,1.8238
26530,17.366,3.7273,0.1,0.00014711,1470.1,0.00014672,1458.9,-4.7445e-05,-0.010166,-5.0391e-05,-22.146,1.8384
26531,17.09,3.6364,0.1,0.00015364,1535.4,0.00015328,1524.8,-4.9664e-05,-0.010013,-5.2444e-05,-20.895,1.7946
26532,17.182,3.7273,0.1,0.00015146,1513.6,0.00015109,1502.8,-4.8928e-05,-0.0098181,-5.1753e-05,-21.237,1.8091
26533,16.906,3.6364,0.1,0.00015803,1579.2,0.00015768,1569.1,-5.1155e-05,-0.0097162,-5.3822e-05,-20.049,1.7655
26534,16.998,3.7273,0.1,0.00015584,1557.3,0.00015548,1547,-5.0415e-05,-0.0095074,-5.3127e-05,-20.381,1.78
26535,16.721,3.6364,0.1,0.00016244,1623.3,0.00016211,1613.6,-5.2651e-05,-0.0094372,-5.5211e-05,-19.247,1.7365
26536,16.814,3.7273,0.1,0.00016024,1601.3,0.0001599,1591.4,-5.1908e-05,-0.0092342,-5.4512e-05,-19.571,1.7509
26537,16.537,3.6364,0.1,0.00016688,1667.6,0.00016655,1658.3,-5.4152e-05,-0.0091629,-5.6611e-05,-18.486,1.7076
26538,16.629,3.7273,0.1,0.00016467,1645.5,0.00016434,1636,-5.3406e-05,-0.0089593,-5.5908e-05,-18.802,1.722
26539,16.353,3.6364,0.1,0.00017133,1712.2,0.00017102,1703.2,-5.5659e-05,-0.0088907,-5.8021e-05,-17.759,1.6788
26540,16.445,3.7273,0.1,0.00016911,1689.9,0.0001688,1680.8,-5.491e-05,-0.0086939,-5.7314e-05,-18.07,1.6931
26541,16.169,3.6364,0.1,0.00017581,1756.9,0.00017551,1748.3,-5.7171e-05,-0.0086319,-5.9441e-05,-17.062,1.6502
26542,16.261,3.7273,0.1,0.00017358,1734.6,0.00017328,1725.8,-5.6419e-05,-0.0084215,-5.873e-05,-17.37,1.6644
26543,15.984,3.6364,0.1,0.00018031,1801.9,0.00018003,1793.6,-5.869e-05,-0.0084068,-6.087e-05,-16.392,1.6216
26544,16.077,3.7273,0.1,0.00017807,1779.5,0.00017778,1771.1,-5.7934e-05,-0.0081842,-6.0156e-05,-16.697,1.6358
26545,15.8,3.6364,0.1,0.00018483,1847,0.00018456,1839.1,-6.0214e-05,-0.0081943,-6.2308e-05,-15.743,1.5932
26546,15.892,3.7273,0.1,0.00018258,1824.5,0.0001823,1816.5,-5.9455e-05,-0.0079792,-6.159e-05,-16.047,1.6073
26547,15.616,3.6364,0.1,0.00018937,1892.4,0.00018911,1884.8,-6.1744e-05,-0.0079786,-6.3754e-05,-15.111,1.5649
26548,15.708,3.7273,0.1,0.00018711,1869.8,0.00018684,1862.1,-6.0982e-05,-0.0077656,-6.3033e-05,-15.416,1.579
26549,15.432,3.6364,0.1,0.00019394,1938,0.00019369,1930.7,-6.328e-05,-0.0077568,-6.5208e-05,-14.493,1.5368
26550,15.524,3.7273,0.1,0.00019166,1915.3,0.00019141,1907.9,-6.2515e-05,-0.0075539,-6.4484e-05,-14.801,1.5507
26551,15.247,3.6364,0.1,0.00019852,1983.8,0.00019828,1976.8,-6.4823e-05,-0.0075443,-6.667e-05,-13.884,1.5087
26552,15.339,3.7273,0.1,0.00019624,1961,0.00019599,1953.9,-6.4055e-05,-0.0073283,-6.5943e-05,-14.197,1.5226
26553,15.063,3.6364,0.1,0.00020312,2029.8,0.00020289,2023.2,-6.6372e-05,-0.0073637,-6.8139e-05,-13.281,1.4808
26554,15.155,3.7273,0.1,0.00020083,2006.9,0.0002006,2000.1,-6.56e-05,-0.007134,-6.741e-05,-13.6,1.4947
26555,14.879,3.6364,0.1,0.00020775,2076,0.00020753,2069.7,-6.7928e-05,-0.0071907,-6.9614e-05,-12.68,1.4531
26556,14.971,3.7273,0.1,0.00020545,2053,0.00020522,2046.5,-6.7153e-05,-0.0069723,-6.8883e-05,-13.007,1.4669
26557,14.695,3.6364,0.1,0.00021239,2122.4,0.00021218,2116.4,-6.949e-05,-0.0070088,-7.1096e-05,-12.077,1.4255
26558,14.787,3.7273,0.1,0.00021008,2099.4,0.00020987,2093.1,-6.8711e-05,-0.0067923,-7.0363e-05,-12.414,1.4392
26559,14.51,3.6364,0.1,0.00021705,2169,0.00021685,2163.3,-7.1059e-05,-0.0068152,-7.2584e-05,-11.468,1.398
26560,14.602,3.7273,0.1,0.00021473,2145.9,0.00021453,2139.9,-7.0277e-05,-0.006611,-7.1849e-05,-11.817,1.4116
26561,14.326,3.6364,0.1,0.00022173,2215.8,0.00022155,2210.4,-7.2635e-05,-0.0066262,-7.4078e-05,-10.849,1.3707
26562,14.418,3.7273,0.1,0.00021941,2192.6,0.00021921,2186.9,-7.1849e-05,-0.0064074,-7.334e-05,-11.213,1.3842
26563,14.142,3.6364,0.1,0.00022644,2262.8,0.00022626,2257.7,-7.4218e-05,-0.0064669,-7.5577e-05,-10.217,1.3435
26564,14.234,3.7273,0.1,0.0002241,2239.4,0.00022392,2234.1,-7.3428e-05,-0.0062333,-7.4837e-05,-10.597,1.357
26565,13.957,3.6364,0.1,0.00023116,2310,0.00023099,2305.2,-7.5807e-05,-0.0063093,-7.708e-05,-9.5674,1.3165
26566,14.05,3.7273,0.1,0.00022881,2286.5,0.00022864,2281.5,-7.5014e-05,-0.0060875,-7.6339e-05,-9.9658,1.3299
26567,13.773,3.6364,0.1,0.00023589,2357.3,0.00023574,2352.9,-7.7405e-05,-0.0061346,-7.8588e-05,-8.8958,1.2896
26568,13.865,3.7273,0.1,0.00023354,2333.8,0.00023338,2329.1,-7.6607e-05,-0.0059155,-7.7846e-05,-9.3153,1.3029
26569,13.589,3.6364,0.1,0.00024065,2404.8,0.00024051,2400.7,-7.9009e-05,-0.0059395,-8.0099e-05,-8.1982,1.2629
26570,13.681,3.7273,0.1,0.00023829,2381.2,0.00023814,2376.9,-7.8207e-05,-0.0057332,-7.9357e-05,-8.6414,1.2761
26571,13.405,3.6364,0.1,0.00024543,2452.6,0.0002453,2448.8,-8.0621e-05,-0.005739,-8.1614e-05,-7.47,1.2364
26572,13.497,3.7273,0.1,0.00024306,2428.9,0.00024292,2424.9,-7.9815e-05,-0.005517,-8.0871e-05,-7.9397,1.2495
26573,13.22,3.6364,0.1,0.00025022,2500.5,0.0002501,2497.1,-8.224e-05,-0.0055579,-8.3132e-05,-6.7066,1.21
26574,13.313,3.7273,0.1,0.00024784,2476.7,0.00024772,2473.1,-8.143e-05,-0.0053194,-8.2389e-05,-7.2058,1.223
26575,13.036,3.6364,0.1,0.00025503,2548.5,0.00025493,2545.6,-8.3867e-05,-0.0053602,-8.4652e-05,-5.9032,1.1838
26576,13.128,3.7273,0.1,0.00025264,2524.7,0.00025253,2521.4,-8.3053e-05,-0.005136,-8.3909e-05,-6.4352,1.1967
26577,12.852,3.6364,0.1,0.00025985,2596.8,0.00025977,2594.2,-8.5502e-05,-0.0051129,-8.6174e-05,-5.0546,1.1577
26578,12.944,3.7273,0.1,0.00025746,2572.8,0.00025737,2570,-8.4684e-05,-0.0048955,-8.5432e-05,-5.6226,1.1706
26579,12.668,3.6364,0.1,0.0002647,2645.2,0.00026463,2643.1,-8.7145e-05,-0.0047882,-8.7697e-05,-4.1554,1.1319
26580,12.76,3.7273,0.1,0.0002623,2621.2,0.00026222,2618.8,-8.6323e-05,-0.0045993,-8.6956e-05,-4.7632,1.1447
26581,12.483,3.6364,0.1,0.00026956,2693.7,0.0002695,2692.1,-8.8796e-05,-0.0043463,-8.9221e-05,-3.1998,1.1062
26582,12.575,3.7273,0.1,0.00026715,2669.7,0.00026708,2667.7,-8.7969e-05,-0.0041788,-8.8481e-05,-3.8512,1.1189
26583,12.299,3.6364,0.1,0.00027443,2742.4,0.0002744,2741.4,-9.0455e-05,-0.0036352,-9.0745e-05,-2.182,1.0807
26584,12.391,3.7273,0.1,0.00027202,2718.3,0.00027197,2716.9,-8.9624e-05,-0.0035936,-9.0007e-05,-2.8812,1.0933
26585,12.115,3.6364,0.1,0.00027933,2791.3,0.00027931,2790.8,-9.2123e-05,-0.0016469,-9.2269e-05,-1.0964,1.0554
26586,12.207,3.7273,0.1,0.0002769,2767.1,0.00027687,2766.2,-9.1287e-05,-0.0024756,-9.1533e-05,-1.8473,1.0679
26587,11.931,3.6364,0.1,0.00028423,2840.4,0.00028423,2840.4,-9.3786e-05,0.10751,-9.3805e-05,-0.041667,1.0303
26588,12.023,3.7273,0.1,0.00028181,2816.1,0.00028179,2815.7,-9.2959e-05,0.0019064,-9.3058e-05,-0.74527,1.0427
26589,11.746,3.6364,0.1,0.00028915,2889.5,0.00028918,2890.2,-9.531e-05,1.3216,-9.5487e-05,-0.0082203,1.0054
26590,11.838,3.7273,0.1,0.00028672,2865.2,0.00028673,2865.5,-9.4579e-05,0.45778,-9.4642e-05,-0.016485,1.0177
26591,11.562,3.6364,0.1,0.00029409,2938.9,0.00029413,2940.2,-9.6827e-05,2.6592,-9.7182e-05,-0.0065152,0.98063
26592,11.654,3.7273,0.1,0.00029165,2914.5,0.00029168,2915.4,-9.6101e-05,1.72,-9.6331e-05,-0.0079868,0.99285
26593,11.378,3.6364,0.1,0.00029904,2988.3,0.00029911,2990.4,-9.834e-05,4.0981,-9.8886e-05,-0.0058578,0.95611
26594,11.47,3.7273,0.1,0.0002966,2963.9,0.00029665,2965.4,-9.7618e-05,3.0833,-9.803e-05,-0.00651,0.96822
26595,11.193,3.6364,0.1,0.000304,3037.9,0.0003041,3040.7,-9.9848e-05,5.647,-0.0001006,-0.0054657,0.93178
26596,11.286,3.7273,0.1,0.00030155,3013.5,0.00030163,3015.7,-9.9132e-05,4.5502,-9.9738e-05,-0.0058687,0.94379
26597,11.009,3.6364,0.1,0.00030898,3087.6,0.0003091,3091.3,-0.00010135,7.3157,-0.00010232,-0.0051582,0.90766
26598,11.101,3.7273,0.1,0.00030652,3063.1,0.00030663,3066.2,-0.00010064,6.1299,-0.00010146,-0.0054425,0.91957
26599,10.825,3.6364,0.1,0.00031396,3137.4,0.00031412,3142,-0.00010285,9.1152,-0.00010406,-0.0048788,0.88375
26600,10.917,3.7273,0.1,0.00031151,3112.9,0.00031164,3116.8,-0.00010214,7.8322,-0.00010319,-0.0051162,0.89555
26601,10.641,3.6364,0.1,0.00031896,3187.4,0.00031915,3192.9,-0.00010433,11.057,-0.0001058,-0.0046286,0.86006
26602,10.733,3.7273,0.1,0.0003165,3162.8,0.00031666,3167.7,-0.00010364,9.6683,-0.00010492,-0.0048083,0.87175
26603,10.456,3.6364,0.1,0.00032397,3237.4,0.00032419,3244,-0.00010581,13.154,-0.00010756,-0.0044324,0.83658
26604,10.549,3.7273,0.1,0.00032151,3212.9,0.0003217,3218.7,-0.00010512,11.65,-0.00010667,-0.0045726,0.84816
26605,10.272,3.6364,0.1,0.00032898,3287.6,0.00032924,3295.2,-0.00010728,15.419,-0.00010933,-0.0042379,0.81332
26606,10.364,3.7273,0.1,0.00032652,3263,0.00032676,3269.8,-0.0001066,13.79,-0.00010844,-0.0043922,0.82479
26607,10.088,3.6364,0.1,0.00033401,3337.8,0.00033431,3346.7,-0.00010873,17.869,-0.00011111,-0.0040269,0.79028
26608,10.18,3.7273,0.1,0.00033155,3313.2,0.00033182,3321.2,-0.00010806,16.103,-0.00011021,-0.0041725,0.80164
26609,9.9036,3.6364,0.1,0.00033904,3388.1,0.00033939,3398.3,-0.00011017,20.518,-0.0001129,-0.0038204,0.76747
26610,9.9957,3.7273,0.1,0.00033658,3363.5,0.00033689,3372.8,-0.00010952,18.603,-0.00011199,-0.0039678,0.77871
26611,9.7193,3.6364,0.1,0.00034408,3438.5,0.00034448,3450.1,-0.00011159,23.384,-0.0001147,-0.0036074,0.74489
26612,9.8115,3.7273,0.1,0.00034162,3413.9,0.00034198,3424.5,-0.00011095,21.307,-0.00011379,-0.003765,0.75602
26613,9.5351,3.6364,0.1,0.00034913,3488.9,0.00034957,3502,-0.000113,26.486,-0.00011652,-0.00339,0.72255
26614,9.6272,3.7273,0.1,0.00034667,3464.3,0.00034708,3476.4,-0.00011237,24.232,-0.0001156,-0.0035534,0.73355
26615,9.3508,3.6364,0.1,0.00035418,3539.3,0.00035468,3554.2,-0.00011438,29.846,-0.00011835,-0.0031683,0.70044
26616,9.4429,3.7273,0.1,0.00035172,3514.8,0.00035218,3528.4,-0.00011378,27.399,-0.00011742,-0.0033468,0.71133
26617,9.1665,3.6364,0.1,0.00035923,3589.8,0.00035979,3606.5,-0.00011574,33.485,-0.0001202,-0.0029371,0.67858
26618,9.2587,3.7273,0.1,0.00035678,3565.3,0.00035729,3580.7,-0.00011516,30.827,-0.00011926,-0.0031323,0.68934
26619,8.9823,3.6364,0.1,0.00036429,3640.4,0.00036491,3658.9,-0.00011708,37.428,-0.00012206,-0.0026965,0.65696
26620,9.0744,3.7273,0.1,0.00036184,3615.9,0.00036242,3633.1,-0.00011652,34.539,-0.00012111,-0.0029119,0.66759
26621,8.798,3.6364,0.1,0.00036934,3690.9,0.00037003,3711.5,-0.00011839,41.701,-0.00012394,-0.0024449,0.63558
26622,8.8901,3.7273,0.1,0.0003669,3666.5,0.00036754,3685.6,-0.00011785,38.561,-0.00012298,-0.0026845,0.64609
26623,8.6137,3.6364,0.1,0.0003744,3741.4,0.00037516,3764.3,-0.00011967,46.334,-0.00012584,-0.0021813,0.61446
26624,8.7059,3.7273,0.1,0.00037196,3717.1,0.00037268,3738.3,-0.00011916,42.92,-0.00012487,-0.0024482,0.62484
26625,8.4295,3.6364,0.1,0.00037945,3791.9,0.00038029,3817.3,-0.00012092,51.359,-0.00012775,-0.0019052,0.59359
26626,8.5216,3.7273,0.1,0.00037702,3767.6,0.00037781,3791.2,-0.00012043,47.643,-0.00012677,-0.0022032,0.60384
26627,8.2452,3.6364,0.1,0.00038449,3842.3,0.00038543,3870.4,-0.00012213,56.81,-0.00012969,-0.0016159,0.57298
26628,8.3373,3.7273,0.1,0.00038208,3818.2,0.00038295,3844.3,-0.00012167,52.764,-0.00012869,-0.0019495,0.5831
26629,8.0609,3.6364,0.1,0.00038954,3892.7,0.00039056,3923.6,-0.00012329,62.725,-0.00013164,-0.0013134,0.55263
26630,8.1531,3.7273,0.1,0.00038714,3868.7,0.0003881,3897.5,-0.00012287,58.316,-0.00013063,-0.0016871,0.56262
26631,7.8767,3.6364,0.1,0.00039457,3943,0.0003957,3977.1,-0.00012441,69.146,-0.00013362,-0.00099762,0.53255
26632,7.9688,3.7273,0.1,0.00039218,3919.1,0.00039324,3950.9,-0.00012403,64.339,-0.00013259,-0.0014167,0.5424
26633,7.6924,3.6364,0.1,0.00039959,3993.2,0.00040083,4030.7,-0.00012549,76.119,-0.00013562,-0.00066995,0.51274
26634,7.7845,3.7273,0.1,0.00039722,3969.5,0.00039838,4004.5,-0.00012515,70.873,-0.00013458,-0.0011398,0.52245
26635,7.5081,3.6364,0.1,0.0004046,4043.3,0.00040596,4084.4,-0.0001265,83.692,-0.00013764,-0.00033276,0.49319
26636,7.6003,3.7273,0.1,0.00040225,4019.8,0.00040352,4058.2,-0.00012621,77.963,-0.00013659,-0.00085951,0.50277
26637,7.3239,3.6364,0.1,0.0004096,4093.2,0.00041109,4138.4,-0.00012746,91.921,-0.0001397,1.0561e-05,0.47393
26638,7.416,3.7273,0.1,0.00040727,4069.9,0.00040866,4112.1,-0.00012722,85.659,-0.00013862,-0.00057992,0.48337
26639,7.1396,3.6364,0.1,0.00041459,4143,0.00041621,4192.6,-0.00012836,100.87,-0.00014178,0.00035473,0.45494
26640,7.2317,3.7273,0.1,0.00041228,4120,0.0004138,4166.2,-0.00012817,94.013,-0.00014068,-0.00030698,0.46424
26641,6.9553,3.6364,0.1,0.00041956,4192.7,0.00042133,4246.9,-0.00012918,110.59,-0.0001439,0.00069184,0.43624
26642,7.0475,3.7273,0.1,0.00041728,4169.9,0.00041894,4220.5,-0.00012906,103.09,-0.00014278,-4.8944e-05,0.44539
26643,6.7711,3.6364,0.1,0.00042452,4242.2,0.00042645,4301.5,-0.00012992,121.17,-0.00014605,0.0010101,0.41782
26644,6.8632,3.7273,0.1,0.00042226,4219.7,0.00042407,4275,-0.00012987,112.94,-0.0001449,0.00018141,0.42683
26645,6.5868,3.6364,0.1,0.00042946,4291.6,0.00043156,4356.4,-0.00013058,132.69,-0.00014824,0.0012934,0.39969
26646,6.6789,3.7273,0.1,0.00042723,4269.3,0.0004292,4329.8,-0.00013061,123.65,-0.00014707,0.00036745,0.40856
26647,6.4025,3.6364,0.1,0.00043438,4340.8,0.00043667,4411.6,-0.00013115,145.23,-0.00015048,0.0015191,0.38185
26648,6.4947,3.7273,0.1,0.00043218,4318.8,0.00043432,4384.9,-0.00013126,135.29,-0.00014927,0.00048631,0.39057
26649,6.2183,3.6364,0.1,0.0004393,4389.9,0.00044178,4467.2,-0.00013162,158.88,-0.00015277,0.0016551,0.36431
26650,6.3104,3.7273,0.1,0.00043712,4368.2,0.00043945,4440.3,-0.00013183,147.93,-0.00015152,0.00050607,0.37288
26651,6.034,3.6364,0.1,0.0004442,4439,0.0004469,4523.3,-0.00013198,173.75,-0.00015511,0.001658,0.34707
26652,6.1261,3.7273,0.1,0.00044206,4417.5,0.00044458,4496.1,-0.0001323,161.68,-0.00015381,0.00038333,0.35549
26653,5.8497,3.6364,0.1,0.00044911,4488,0.00045204,4580,-0.00013223,189.96,-0.00015752,0.0014687,0.33014
26654,5.9419,3.7273,0.1,0.00044699,4466.8,0.00044973,4552.5,-0.00013266,176.63,-0.00015617,6.0166e-05,0.33841
26655,5.6655,3.6364,0.1,0.00045402,4537.1,0.0004572,4637.4,-0.00013236,207.64,-0.00016,0.0010057,0.31351
26656,5.7576,3.7273,0.1,0.00045192,4516.1,0.00045489,4609.4,-0.00013291,192.89,-0.00015859,-0.00054295,0.32162
26657,5.4812,3.6364,0.1,0.00045896,4586.5,0.0004624,4695.7,-0.00013236,226.9,-0.00016256,0.00015858,0.29719
26658,5.5733,3.7273,0.1,0.00045687,4565.5,0.00046009,4667.2,-0.00013305,210.56,-0.00016108,-0.0015325,0.30515
26659,5.2969,3.6364,0.1,0.00046394,4636.2,0.00046766,4755.2,-0.00013222,247.92,-0.00016522,-0.0012234,0.28119
26660,5.3891,3.7273,0.1,0.00046185,4615.3,0.00046533,4725.9,-0.00013307,229.78,-0.00016365,-0.0030536,0.28899
26661,5.1127,3.6364,0.1,0.00046899,4686.7,0.00047301,4816.2,-0.00013194,270.83,-0.00016799,-0.0033439,0.2655
26662,5.2048,3.7273,0.1,0.00046689,4665.6,0.00047064,4785.9,-0.00013296,250.67,-0.00016632,-0.0053012,0.27314
26663,4.9284,3.6364,0.1,0.00047415,4738.2,0.00047849,4879.2,-0.00013152,295.8,-0.00017089,-0.0064799,0.25014
26664,5.0205,3.7273,0.1,0.000472,4716.8,0.00047606,4847.5,-0.00013272,273.37,-0.00016911,-0.0085395,0.25762
26665,4.7441,3.6364,0.1,0.00047946,4791.3,0.00048414,4944.6,-0.00013096,323.01,-0.00017395,-0.011008,0.2351
26666,4.8363,3.7273,0.1,0.00047724,4769.1,0.00048161,4911.1,-0.00013236,298.01,-0.00017202,-0.013126,0.24242
26667,4.5599,3.6364,0.1,0.00048499,4846.6,0.00049003,5013.3,-0.00013026,352.64,-0.0001772,-0.017441,0.22038
26668,4.652,3.7273,0.1,0.00048265,4823.2,0.00048736,4977.4,-0.00013187,324.73,-0.00017509,-0.019545,0.22754
26669,4.3756,3.6364,0.1,0.00049083,4904.9,0.00049624,5086,-0.00012944,384.85,-0.00018067,-0.026478,0.20601
26670,4.4677,3.7273,0.1,0.00048831,4879.7,0.00049336,5046.9,-0.00013127,353.67,-0.00017835,-0.028454,0.213
26671,4.1913,3.6364,0.1,0.00049709,4967.4,0.00050289,5164,-0.00012852,419.82,-0.0001844,-0.039072,0.19196
26672,4.2835,3.7273,0.1,0.0004943,4939.6,0.00049972,5120.8,-0.00013058,384.96,-0.00018182,-0.040751,0.19879
26673,4.0071,3.6364,0.1,0.0005039,5035.6,0.00051012,5248.7,-0.00012753,457.68,-0.00018845,-0.056531,0.17826
26674,4.0992,3.7273,0.1,0.00050074,5004,0.00050655,5200.1,-0.00012982,418.69,-0.00018555,-0.05766,0.18492
26675,3.8228,3.6364,0.1,0.00051147,5111.2,0.00051813,5342.2,-0.00012652,498.55,-0.00019288,-0.080653,0.16491
26676,3.9149,3.7273,0.1,0.00050779,5074.4,0.00051399,5286.5,-0.00012905,454.92,-0.00018961,-0.080859,0.17139
26677,3.6385,3.6364,0.1,0.00052005,5196.9,0.00052714,5446.8,-0.00012558,542.45,-0.00019779,-0.11392,0.15191
26678,3.7307,3.7273,0.1,0.00051564,5152.8,0.00052226,5381.8,-0.00012832,493.66,-0.00019404,-0.11266,0.15821
26679,3.4543,3.6364,0.1,0.00052994,5295.7,0.00053749,5565.7,-0.00012482,589.31,-0.00020327,-0.15975,0.13926
26680,3.5464,3.7273,0.1,0.00052455,5241.9,0.0005316,5488.7,-0.00012773,534.8,-0.00019893,-0.15626,0.14539
26681,3.27,3.6364,0.1,0.00054157,5412,0.0005496,5703,-0.00012438,638.93,-0.00020945,-0.22294,0.12699
26682,3.3621,3.7273,0.1,0.00053487,5345,0.00054234,5610.4,-0.00012741,578.1,-0.00020438,-0.21611,0.13293
26683,3.0857,3.6364,0.1,0.0005555,5551.1,0.00056401,5864,-0.00012451,690.83,-0.00021649,-0.31014,0.11508
26684,3.1779,3.7273,0.1,0.00054701,5466.4,0.00055494,5751,-0.00012755,623.1,-0.00021052,-0.29855,0.12084
26685,2.9015,3.6364,0.1,0.00057242,5720.3,0.00058143,6055.7,-0.00012549,744.22,-0.0002246,-0.43097,0.10356
26686,2.9936,3.7273,0.1,0.00056157,5611.8,0.00056994,5916.1,-0.0001284,669.02,-0.0002175,-0.41232,0.10913
26687,2.7172,3.6364,0.1,0.00059331,5929,0.00060283,6287.2,-0.00012777,797.78,-0.00023403,-0.59856,0.092431
26688,2.8093,3.7273,0.1,0.00057929,5788.9,0.00058811,6112.7,-0.00013033,714.58,-0.00022551,-0.57153,0.097799
26689,2.5329,3.6364,0.1,0.00061946,6190.3,0.0006295,6570.7,-0.00013195,849.44,-0.00024512,-0.83538,0.081713
26690,2.6251,3.7273,0.1,0.0006012,6007.9,0.00061048,6350.4,-0.00013385,757.83,-0.00023481,-0.79229,0.086872
26691,2.3487,3.6364,0.1,0.00065266,6522.1,0.00066324,6923.1,-0.00013891,896.09,-0.00025833,-1.1662,0.071423
26692,2.4408,3.7273,0.1,0.00062871,6282.8,0.00063843,6642.1,-0.00013968,795.71,-0.00024573,-1.1223,0.07636
26693,2.1644,3.6364,0.1,0.00069551,6950.3,0.00070662,7368.7,-0.00014991,933.05,-0.00027431,-1.6649,0.061582
26694,2.2565,3.7273,0.1,0.00066383,6633.7,0.00067395,7006.2,-0.00014889,823.63,-0.00025872,-1.5535,0.066282
26695,1.9801,3.6364,0.1,0.0007519,7513.8,0.0007635,7943.6,-0.00016683,953.39,-0.00029404,-2.4161,0.05222
26696,2.0723,3.7273,0.1,0.00070956,7090.7,0.00072,7469.6,-0.00016307,834.56,-0.00027447,-2.4495,0.056662
26697,1.7959,3.6364,0.1,0.00082807,8275,0.00084002,8705.8,-0.00019263,946.87,-0.00031908,-3.2211,0.043374
26698,1.888,3.7273,0.1,0.00077058,7700.5,0.00078115,8075.2,-0.00018468,818.33,-0.00029399,-3.0119,0.04753
26699,1.6116,3.6364,0.1,0.000935,9343.5,0.00094685,9755.8,-0.00023207,897.84,-0.00035255,-7.396,0.035092
26700,1.7037,3.7273,0.1,0.0008552,8546.1,0.00086538,8895.4,-0.00021769,757.61,-0.00031952,-7.5045,0.038925
26701,1.4273,3.6364,0.1,0.0010912,10904,0.0011023,11273,-0.00029408,780.64,-0.00039822,-1.8179,0.027442
26702,1.5195,3.7273,0.1,0.00097763,9769.6,0.00098675,10068,-0.00026902,632.45,-0.00035384,-4.8575,0.030902
26703,1.2431,3.6364,0.1,0.0013213,13203,0.0013302,13482,-0.00038967,559.55,-0.00046228,13.998,0.020522
26704,1.3352,3.7273,0.1,0.0011737,11729,0.0011793,11902,-0.00035363,384.65,-0.00040855,-28.033,0.023538
26705,1.1509,3.7273,0.1,0.0015075,15065,0.0015063,15028,-0.00049199,13.893,-0.00050547,-87.346,0.016962
26706,1.0588,3.6364,0.1,0.001572,15709,0.0015796,15941,-0.00048262,446.54,-0.0005385,26.711,0.014483
26707,23.724,3.8182,0.1,1.9986e-05,199.72,1.1329e-05,59.182,3.4228e-06,-0.21984,-1.8308e-05,-163.5,2.8895
26708,23.816,3.9091,0.1,1.8942e-05,189.29,9.4834e-06,39.838,4.1556e-06,-0.19376,-1.7947e-05,-166.27,2.905
26709,23.908,3.8182,0.1,1.8574e-05,185.61,7.9895e-06,22.427,4.9477e-06,-0.42784,-1.8093e-05,-173.55,2.9206
26710,23.539,3.8182,0.1,2.1952e-05,219.36,1.4878e-05,98.016,1.8031e-06,-0.22509,-1.857e-05,-153.3,2.8584
26711,23.631,3.9091,0.1,2.068e-05,206.65,1.3022e-05,78.575,2.5212e-06,-0.32436,-1.8185e-05,-155.9,2.8739
26712,23.355,3.8182,0.1,2.4293e-05,242.76,1.8428e-05,136.74,2.1195e-07,-0.12901,-1.8876e-05,-143.55,2.8273
26713,23.447,3.9091,0.1,2.2855e-05,228.4,1.6563e-05,117.32,9.3009e-07,-0.13933,-1.847e-05,-145.9,2.8428
26714,23.171,3.8182,0.1,2.6916e-05,268.98,2.1985e-05,175.33,-1.3642e-06,-0.10627,-1.923e-05,-134.34,2.7962
26715,23.263,3.9091,0.1,2.5358e-05,253.41,2.0112e-05,155.9,-6.532e-07,-0.12222,-1.8803e-05,-136.49,2.8117
26716,22.987,3.8182,0.1,2.9752e-05,297.32,2.5551e-05,213.84,-2.9204e-06,-0.083689,-1.9634e-05,-125.66,2.7652
26717,23.079,3.9091,0.1,2.8106e-05,280.87,2.367e-05,194.39,-2.2144e-06,-0.090916,-1.9186e-05,-127.61,2.7807
26718,22.802,3.8182,0.1,3.2753e-05,327.31,2.9132e-05,252.32,-4.4591e-06,-0.070396,-2.0089e-05,-117.5,2.7341
26719,22.894,3.9091,0.1,3.1041e-05,310.19,2.7241e-05,232.84,-3.7577e-06,-0.07597,-1.9622e-05,-119.28,2.7496
26720,22.618,3.8182,0.1,3.5886e-05,358.61,3.2731e-05,290.81,-5.9815e-06,-0.060139,-2.0595e-05,-109.86,2.7031
26721,22.71,3.9091,0.1,3.4122e-05,340.99,3.083e-05,271.28,-5.2837e-06,-0.063847,-2.0112e-05,-111.47,2.7186
26722,22.434,3.8182,0.1,3.9125e-05,390.98,3.6352e-05,329.35,-7.4893e-06,-0.052503,-2.1154e-05,-102.72,2.6721
26723,22.526,3.9091,0.1,3.7323e-05,372.97,3.4442e-05,309.78,-6.7945e-06,-0.05522,-2.0654e-05,-104.19,2.6876
26724,22.249,3.8182,0.1,4.2456e-05,424.27,3.9998e-05,367.98,-8.9843e-06,-0.046467,-2.1763e-05,-96.062,2.6411
26725,22.342,3.9091,0.1,4.0622e-05,405.94,3.8078e-05,348.35,-8.2916e-06,-0.048449,-2.125e-05,-97.411,2.6566
26726,22.065,3.8182,0.1,4.5865e-05,458.33,4.367e-05,406.73,-1.0468e-05,-0.041607,-2.2422e-05,-89.863,2.6102
26727,22.157,3.9091,0.1,4.4004e-05,439.74,4.174e-05,387.04,-9.7768e-06,-0.043078,-2.1896e-05,-91.105,2.6256
26728,21.881,3.8182,0.1,4.9342e-05,493.08,4.737e-05,445.61,-1.1942e-05,-0.037598,-2.313e-05,-84.101,2.5793
26729,21.973,3.9091,0.1,4.746e-05,474.28,4.5431e-05,425.86,-1.1252e-05,-0.038693,-2.2592e-05,-85.248,2.5947
26730,21.697,3.8182,0.1,5.2881e-05,528.45,5.1099e-05,484.64,-1.3407e-05,-0.034239,-2.3883e-05,-78.749,2.5484
26731,21.789,3.9091,0.1,5.0981e-05,509.46,4.9152e-05,464.83,-1.2718e-05,-0.035046,-2.3336e-05,-79.813,2.5638
26732,21.512,3.8182,0.1,5.6476e-05,564.37,5.4858e-05,523.84,-1.4865e-05,-0.031392,-2.4681e-05,-73.783,2.5175
26733,21.605,3.9091,0.1,5.456e-05,545.22,5.2902e-05,503.96,-1.4176e-05,-0.031977,-2.4124e-05,-74.774,2.5329
26734,21.328,3.8182,0.1,6.0123e-05,600.81,5.8646e-05,563.22,-1.6318e-05,-0.028943,-2.5521e-05,-69.178,2.4867
26735,21.42,3.9091,0.1,5.8192e-05,581.52,5.6681e-05,543.28,-1.5628e-05,-0.02936,-2.4955e-05,-70.104,2.5021
26736,21.144,3.8182,0.1,6.3817e-05,637.73,6.2464e-05,602.78,-1.7765e-05,-0.026811,-2.64e-05,-64.91,2.456
26737,21.236,3.9091,0.1,6.1873e-05,618.3,6.0491e-05,582.77,-1.7075e-05,-0.027097,-2.5826e-05,-65.778,2.4713
26738,20.96,3.8182,0.1,6.7556e-05,675.1,6.6312e-05,642.54,-1.9208e-05,-0.024938,-2.7317e-05,-60.954,2.4252
26739,21.052,3.9091,0.1,6.56e-05,655.54,6.433e-05,622.46,-1.8518e-05,-0.025119,-2.6736e-05,-61.77,2.4405
26740,20.775,3.8182,0.1,7.1338e-05,712.88,7.019e-05,682.5,-2.0648e-05,-0.023283,-2.827e-05,-57.29,2.3945
26741,20.867,3.9091,0.1,6.9369e-05,693.21,6.8198e-05,662.35,-1.9958e-05,-0.023374,-2.7682e-05,-58.058,2.4098
26742,20.591,3.8182,0.1,7.5159e-05,751.07,7.4096e-05,722.66,-2.2087e-05,-0.021821,-2.9257e-05,-53.896,2.3639
26743,20.683,3.9091,0.1,7.3179e-05,731.28,7.2096e-05,702.43,-2.1395e-05,-0.021838,-2.8661e-05,-54.621,2.3792
26744,20.407,3.8182,0.1,7.9017e-05,789.63,7.8031e-05,763.02,-2.3523e-05,-0.020513,-3.0275e-05,-50.753,2.3333
26745,20.499,3.9091,0.1,7.7027e-05,769.73,7.6022e-05,742.72,-2.283e-05,-0.020479,-2.9673e-05,-51.437,2.3486
26746,20.223,3.8182,0.1,8.2913e-05,828.55,8.1995e-05,803.59,-2.4959e-05,-0.019333,-3.1323e-05,-47.841,2.3028
26747,20.315,3.9091,0.1,8.0911e-05,808.55,7.9976e-05,783.21,-2.4264e-05,-0.019253,-3.0715e-05,-48.489,2.318
26748,20.038,3.8182,0.1,8.6842e-05,867.82,8.5986e-05,844.36,-2.6394e-05,-0.018261,-3.24e-05,-45.143,2.2723
26749,20.13,3.9091,0.1,8.483e-05,847.71,8.3959e-05,823.9,-2.5698e-05,-0.018148,-3.1786e-05,-45.757,2.2875
26750,19.854,3.8182,0.1,9.0806e-05,907.43,9.0005e-05,885.35,-2.783e-05,-0.017288,-3.3503e-05,-42.644,2.2419
26751,19.946,3.9091,0.1,8.8783e-05,887.21,8.7968e-05,864.8,-2.7132e-05,-0.017138,-3.2883e-05,-43.226,2.257
26752,19.67,3.8182,0.1,9.4801e-05,947.36,9.405e-05,926.54,-2.9267e-05,-0.016412,-3.4632e-05,-40.328,2.2115
26753,19.762,3.9091,0.1,9.2768e-05,927.04,9.2004e-05,905.91,-2.8567e-05,-0.01623,-3.4006e-05,-40.881,2.2266
26754,19.485,3.8182,0.1,9.8828e-05,987.6,9.8123e-05,967.94,-3.0705e-05,-0.015614,-3.5784e-05,-38.181,2.1812
26755,19.578,3.9091,0.1,9.6784e-05,967.17,9.6067e-05,947.23,-3.0003e-05,-0.015415,-3.5153e-05,-38.707,2.1963
26756,19.301,3.8182,0.1,0.00010288,1028.1,0.00010222,1009.6,-3.2145e-05,-0.014876,-3.6959e-05,-36.19,2.151
26757,19.393,3.9091,0.1,0.00010083,1007.6,0.00010016,988.75,-3.1441e-05,-0.014661,-3.6322e-05,-36.69,2.166
26758,19.117,3.8182,0.1,0.00010697,1069,0.00010634,1051.4,-3.3587e-05,-0.01419,-3.8156e-05,-34.343,2.1208
26759,19.209,3.9091,0.1,0.00010491,1048.3,0.00010427,1030.5,-3.2881e-05,-0.013965,-3.7513e-05,-34.819,2.1358
26760,18.933,3.8182,0.1,0.00011109,1110.1,0.00011049,1093.4,-3.5031e-05,-0.013558,-3.9372e-05,-32.629,2.0907
26761,19.025,3.9091,0.1,0.00010901,1089.3,0.00010841,1072.4,-3.4323e-05,-0.013312,-3.8725e-05,-33.083,2.1057
26762,18.748,3.8182,0.1,0.00011523,1151.5,0.00011467,1135.6,-3.6479e-05,-0.012987,-4.0607e-05,-31.036,2.0607
26763,18.841,3.9091,0.1,0.00011314,1130.6,0.00011257,1114.6,-3.5768e-05,-0.012724,-3.9955e-05,-31.469,2.0757
26764,18.564,3.8182,0.1,0.0001194,1193.2,0.00011887,1178.1,-3.7929e-05,-0.012458,-4.1861e-05,-29.555,2.0308
26765,18.656,3.9091,0.1,0.0001173,1172.2,0.00011676,1156.9,-3.7216e-05,-0.012193,-4.1204e-05,-29.969,2.0457
26766,18.38,3.8182,0.1,0.00012359,1235.1,0.00012309,1220.7,-3.9383e-05,-0.01196,-4.3132e-05,-28.177,2.0009
26767,18.472,3.9091,0.1,0.00012149,1214,0.00012098,1199.5,-3.8668e-05,-0.011688,-4.2469e-05,-28.574,2.0158
26768,18.196,3.8182,0.1,0.00012782,1277.3,0.00012734,1263.6,-4.0841e-05,-0.011488,-4.4419e-05,-26.893,1.9712
26769,18.288,3.9091,0.1,0.0001257,1256.1,0.00012521,1242.3,-4.0123e-05,-0.011218,-4.3752e-05,-27.274,1.986
26770,18.011,3.8182,0.1,0.00013206,1319.7,0.00013161,1306.7,-4.2303e-05,-0.011048,-4.5721e-05,-25.695,1.9415
26771,18.103,3.9091,0.1,0.00012994,1298.5,0.00012947,1285.2,-4.1582e-05,-0.010764,-4.5049e-05,-26.062,1.9562
26772,17.827,3.8182,0.1,0.00013634,1362.4,0.0001359,1350,-4.3769e-05,-0.010653,-4.7038e-05,-24.576,1.9119
26773,17.919,3.9091,0.1,0.0001342,1341.1,0.00013376,1328.4,-4.3046e-05,-0.010356,-4.6362e-05,-24.93,1.9266
26774,17.643,3.8182,0.1,0.00014063,1405.4,0.00014022,1393.4,-4.5239e-05,-0.010285,-4.8369e-05,-23.53,1.8824
26775,17.735,3.9091,0.1,0.00013848,1383.9,0.00013806,1371.8,-4.4513e-05,-0.0099917,-4.7689e-05,-23.871,1.897
26776,17.459,3.8182,0.1,0.00014495,1448.5,0.00014456,1437.1,-4.6714e-05,-0.0099308,-4.9714e-05,-22.548,1.853
26777,17.551,3.9091,0.1,0.00014279,1427,0.00014239,1415.4,-4.5985e-05,-0.0096355,-4.9029e-05,-22.879,1.8676
26778,17.274,3.8182,0.1,0.0001493,1491.9,0.00014892,1481,-4.8194e-05,-0.009587,-5.1071e-05,-21.626,1.8237
26779,17.366,3.9091,0.1,0.00014713,1470.3,0.00014674,1459.2,-4.7462e-05,-0.0092991,-5.0382e-05,-21.948,1.8382
26780,17.09,3.8182,0.1,0.00015367,1535.6,0.0001533,1525.1,-4.9679e-05,-0.0092639,-5.244e-05,-20.757,1.7944
26781,17.182,3.9091,0.1,0.00015149,1513.8,0.00015112,1503.2,-4.8944e-05,-0.0089641,-5.1747e-05,-21.071,1.809
26782,16.906,3.8182,0.1,0.00015806,1579.5,0.00015771,1569.4,-5.1169e-05,-0.0089784,-5.3821e-05,-19.936,1.7653
26783,16.998,3.9091,0.1,0.00015587,1557.6,0.00015551,1547.4,-5.0431e-05,-0.0086666,-5.3124e-05,-20.244,1.7798
26784,16.721,3.8182,0.1,0.00016247,1623.6,0.00016213,1613.9,-5.2664e-05,-0.0087103,-5.5212e-05,-19.159,1.7363
26785,16.814,3.9091,0.1,0.00016027,1601.6,0.00015993,1591.8,-5.1923e-05,-0.0084061,-5.4512e-05,-19.461,1.7507
26786,16.537,3.8182,0.1,0.0001669,1667.9,0.00016658,1658.6,-5.4164e-05,-0.0084453,-5.6615e-05,-18.419,1.7074
26787,16.629,3.9091,0.1,0.0001647,1645.8,0.00016437,1636.4,-5.3421e-05,-0.0081432,-5.5911e-05,-18.718,1.7218
26788,16.353,3.8182,0.1,0.00017136,1712.4,0.00017105,1703.5,-5.5671e-05,-0.0081807,-5.8027e-05,-17.713,1.6787
26789,16.445,3.9091,0.1,0.00016914,1690.3,0.00016883,1681.2,-5.4924e-05,-0.0078887,-5.732e-05,-18.009,1.693
26790,16.169,3.8182,0.1,0.00017584,1757.2,0.00017555,1748.6,-5.7183e-05,-0.0079308,-5.9449e-05,-17.036,1.65
26791,16.261,3.9091,0.1,0.00017361,1734.9,0.00017331,1726.2,-5.6432e-05,-0.0076273,-5.8738e-05,-17.331,1.6642
26792,15.984,3.8182,0.1,0.00018034,1802.2,0.00018006,1793.9,-5.87e-05,-0.0077145,-6.088e-05,-16.383,1.6215
26793,16.077,3.9091,0.1,0.0001781,1779.8,0.00017781,1771.4,-5.7947e-05,-0.0074002,-6.0166e-05,-16.679,1.6356
26794,15.8,3.8182,0.1,0.00018486,1847.4,0.00018459,1839.4,-6.0224e-05,-0.0075091,-6.232e-05,-15.752,1.593
26795,15.892,3.9091,0.1,0.00018262,1824.9,0.00018234,1816.8,-5.9467e-05,-0.0072051,-6.1602e-05,-16.05,1.6071
26796,15.616,3.8182,0.1,0.00018941,1892.8,0.00018915,1885.2,-6.1754e-05,-0.0073004,-6.3768e-05,-15.137,1.5648
26797,15.708,3.9091,0.1,0.00018715,1870.2,0.00018688,1862.4,-6.0994e-05,-0.0069998,-6.3048e-05,-15.438,1.5788
26798,15.432,3.8182,0.1,0.00019397,1938.4,0.00019372,1931.1,-6.329e-05,-0.0070858,-6.5223e-05,-14.535,1.5366
26799,15.524,3.9091,0.1,0.0001917,1915.7,0.00019145,1908.3,-6.2526e-05,-0.0067975,-6.4501e-05,-14.841,1.5506
26800,15.247,3.8182,0.1,0.00019856,1984.2,0.00019831,1977.2,-6.4832e-05,-0.0068792,-6.6687e-05,-13.943,1.5086
26801,15.339,3.9091,0.1,0.00019628,1961.4,0.00019603,1954.3,-6.4065e-05,-0.0065793,-6.5962e-05,-14.255,1.5225
26802,15.063,3.8182,0.1,0.00020316,2030.2,0.00020293,2023.5,-6.6381e-05,-0.0067045,-6.8157e-05,-13.356,1.4807
26803,15.155,3.9091,0.1,0.00020087,2007.4,0.00020064,2000.5,-6.561e-05,-0.0063923,-6.743e-05,-13.676,1.4945
26804,14.879,3.8182,0.1,0.00020778,2076.4,0.00020756,2070,-6.7936e-05,-0.0065366,-6.9635e-05,-12.77,1.4529
26805,14.971,3.9091,0.1,0.00020549,2053.5,0.00020526,2046.9,-6.7162e-05,-0.0062373,-6.8905e-05,-13.101,1.4666
26806,14.695,3.8182,0.1,0.00021243,2122.8,0.00021222,2116.7,-6.9498e-05,-0.006358,-7.1118e-05,-12.183,1.4253
26807,14.787,3.9091,0.1,0.00021012,2099.8,0.00020991,2093.5,-6.872e-05,-0.0060629,-7.0386e-05,-12.525,1.439
26808,14.51,3.8182,0.1,0.00021709,2169.4,0.00021689,2163.6,-7.1066e-05,-0.0061675,-7.2608e-05,-11.59,1.3978
26809,14.602,3.9091,0.1,0.00021478,2146.3,0.00021457,2140.3,-7.0285e-05,-0.0058863,-7.1874e-05,-11.946,1.4114
26810,14.326,3.8182,0.1,0.00022178,2216.2,0.00022159,2210.7,-7.2642e-05,-0.0059796,-7.4103e-05,-10.988,1.3705
26811,14.418,3.9091,0.1,0.00021945,2193,0.00021926,2187.3,-7.1857e-05,-0.0056863,-7.3368e-05,-11.36,1.384
26812,14.142,3.8182,0.1,0.00022648,2263.2,0.0002263,2258,-7.4224e-05,-0.0058199,-7.5604e-05,-10.373,1.3433
26813,14.234,3.9091,0.1,0.00022415,2239.9,0.00022396,2234.5,-7.3435e-05,-0.0055142,-7.4867e-05,-10.762,1.3567
26814,13.957,3.8182,0.1,0.0002312,2310.4,0.00023103,2305.5,-7.5813e-05,-0.0056608,-7.7109e-05,-9.7406,1.3163
26815,14.05,3.9091,0.1,0.00022886,2287,0.00022868,2281.9,-7.5021e-05,-0.0053697,-7.6371e-05,-10.15,1.3296
26816,13.773,3.8182,0.1,0.00023594,2357.8,0.00023578,2353.2,-7.741e-05,-0.0054823,-7.8619e-05,-9.0874,1.2894
26817,13.865,3.9091,0.1,0.00023359,2334.3,0.00023343,2329.5,-7.6613e-05,-0.0051964,-7.788e-05,-9.5199,1.3027
26818,13.589,3.8182,0.1,0.0002407,2405.3,0.00024055,2401.1,-7.9014e-05,-0.0052805,-8.0132e-05,-8.4091,1.2627
26819,13.681,3.9091,0.1,0.00023834,2381.8,0.00023819,2377.3,-7.8213e-05,-0.0050112,-7.9393e-05,-8.867,1.2759
26820,13.405,3.8182,0.1,0.00024547,2453,0.00024534,2449.2,-8.0625e-05,-0.0050693,-8.1649e-05,-7.7013,1.2361
26821,13.497,3.9091,0.1,0.00024311,2429.4,0.00024297,2425.3,-7.982e-05,-0.0047878,-8.0909e-05,-8.1873,1.2493
26822,13.22,3.8182,0.1,0.00025027,2500.9,0.00025015,2497.5,-8.2244e-05,-0.0048723,-8.3169e-05,-6.9597,1.2098
26823,13.313,3.9091,0.1,0.00024789,2477.2,0.00024777,2473.5,-8.1435e-05,-0.0045802,-8.243e-05,-7.4769,1.2228
26824,13.036,3.8182,0.1,0.00025508,2549,0.00025497,2545.9,-8.387e-05,-0.0046512,-8.4692e-05,-6.1794,1.1835
26825,13.128,3.9091,0.1,0.0002527,2525.2,0.00025258,2521.9,-8.3057e-05,-0.0043814,-8.3953e-05,-6.7312,1.1965
26826,12.852,3.8182,0.1,0.00025991,2597.3,0.00025982,2594.6,-8.5505e-05,-0.0043707,-8.6217e-05,-5.3557,1.1575
26827,12.944,3.9091,0.1,0.00025752,2573.4,0.00025742,2570.4,-8.4687e-05,-0.0041183,-8.5478e-05,-5.9454,1.1704
26828,12.668,3.8182,0.1,0.00026475,2645.7,0.00026468,2643.5,-8.7147e-05,-0.0039976,-8.7743e-05,-4.4831,1.1317
26829,12.76,3.9091,0.1,0.00026236,2621.8,0.00026227,2619.2,-8.6325e-05,-0.0037897,-8.7005e-05,-5.1146,1.1444
26830,12.483,3.8182,0.1,0.00026962,2694.3,0.00026955,2692.5,-8.8797e-05,-0.0034831,-8.927e-05,-3.5562,1.106
26831,12.575,3.9091,0.1,0.00026721,2670.3,0.00026714,2668.2,-8.7971e-05,-0.0033248,-8.8534e-05,-4.2335,1.1186
26832,12.299,3.8182,0.1,0.00027449,2743,0.00027445,2741.8,-9.0456e-05,-0.0026759,-9.0797e-05,-2.5694,1.0805
26833,12.391,3.9091,0.1,0.00027209,2719,0.00027203,2717.3,-8.9625e-05,-0.002686,-9.0063e-05,-3.2967,1.0931
26834,12.115,3.8182,0.1,0.00027939,2792,0.00027936,2791.2,-9.2123e-05,-0.00080552,-9.2325e-05,-1.5171,1.0552
26835,12.207,3.9091,0.1,0.00027697,2767.8,0.00027693,2766.7,-9.1287e-05,-0.0015699,-9.1593e-05,-2.2986,1.0676
26836,11.931,3.8182,0.1,0.0002843,2841,0.00028429,2840.8,-9.3797e-05,0.011464,-9.3852e-05,-0.40171,1.03
26837,12.023,3.9091,0.1,0.00028188,2816.8,0.00028186,2816.2,-9.2958e-05,0.0015125,-9.3122e-05,-1.2341,1.0424
26838,11.746,3.8182,0.1,0.00028922,2890.2,0.00028924,2890.6,-9.5373e-05,0.83074,-9.5485e-05,-0.012697,1.0051
26839,11.838,3.9091,0.1,0.0002868,2866,0.00028679,2865.9,-9.4631e-05,0.052511,-9.4657e-05,-0.14248,1.0174
26840,11.562,3.8182,0.1,0.00029416,2939.6,0.0002942,2940.6,-9.6895e-05,2.1225,-9.7179e-05,-0.0078111,0.98038
26841,11.654,3.9091,0.1,0.00029173,2915.3,0.00029175,2915.8,-9.6174e-05,1.1467,-9.6328e-05,-0.011504,0.99257
26842,11.378,3.8182,0.1,0.00029911,2989.1,0.00029917,2990.8,-9.8413e-05,3.5144,-9.8882e-05,-0.0064952,0.95585
26843,11.47,3.9091,0.1,0.00029668,2964.7,0.00029672,2966,-9.7698e-05,2.4581,-9.8026e-05,-0.0077442,0.96793
26844,11.193,3.8182,0.1,0.00030408,3038.7,0.00030416,3041.2,-9.9927e-05,5.0126,-0.00010059,-0.00584,0.93152
26845,11.286,3.9091,0.1,0.00030164,3014.3,0.0003017,3016.2,-9.9217e-05,3.8705,-9.9733e-05,-0.0065041,0.9435
26846,11.009,3.8182,0.1,0.00030906,3088.5,0.00030917,3091.8,-0.00010144,6.6263,-0.00010232,-0.0053982,0.90739
26847,11.101,3.9091,0.1,0.00030661,3064,0.00030671,3066.7,-0.00010073,5.3913,-0.00010145,-0.0058217,0.91927
26848,10.825,3.8182,0.1,0.00031405,3138.3,0.00031419,3142.5,-0.00010294,8.3659,-0.00010405,-0.0050435,0.88348
26849,10.917,3.9091,0.1,0.0003116,3113.9,0.00031172,3117.4,-0.00010224,7.0296,-0.00010318,-0.0053623,0.89525
26850,10.641,3.8182,0.1,0.00031905,3188.3,0.00031923,3193.4,-0.00010443,10.242,-0.00010579,-0.0047496,0.85978
26851,10.733,3.9091,0.1,0.0003166,3163.8,0.00031675,3168.2,-0.00010374,8.796,-0.00010491,-0.0049791,0.87144
26852,10.456,3.8182,0.1,0.00032407,3238.4,0.00032427,3244.5,-0.00010592,12.268,-0.00010755,-0.0045293,0.8363
26853,10.549,3.9091,0.1,0.00032161,3213.9,0.0003218,3219.3,-0.00010524,10.702,-0.00010666,-0.0046999,0.84785
26854,10.272,3.8182,0.1,0.00032909,3288.6,0.00032933,3295.8,-0.00010739,14.455,-0.00010932,-0.0043235,0.81303
26855,10.364,3.9091,0.1,0.00032664,3264.1,0.00032685,3270.5,-0.00010672,12.759,-0.00010842,-0.0044963,0.82447
26856,10.088,3.8182,0.1,0.00033412,3338.9,0.00033441,3347.3,-0.00010885,16.819,-0.00011109,-0.0041102,0.78999
26857,10.18,3.9091,0.1,0.00033167,3314.4,0.00033192,3321.9,-0.0001082,14.98,-0.00011019,-0.004267,0.80132
26858,9.9036,3.8182,0.1,0.00033916,3389.3,0.00033949,3398.9,-0.0001103,19.375,-0.00011288,-0.0039096,0.76718
26859,9.9957,3.9091,0.1,0.00033671,3364.8,0.000337,3373.4,-0.00010966,17.381,-0.00011197,-0.0040627,0.77839
26860,9.7193,3.8182,0.1,0.00034421,3439.7,0.00034458,3450.8,-0.00011174,22.139,-0.00011469,-0.0037089,0.7446
26861,9.8115,3.9091,0.1,0.00034176,3415.3,0.0003421,3425.2,-0.00011111,19.976,-0.00011377,-0.0038691,0.75569
26862,9.5351,3.8182,0.1,0.00034927,3490.3,0.00034969,3502.7,-0.00011316,25.129,-0.0001165,-0.0035089,0.72225
26863,9.6272,3.9091,0.1,0.00034682,3465.8,0.0003472,3477.1,-0.00011254,22.783,-0.00011558,-0.0036731,0.73322
26864,9.3508,3.8182,0.1,0.00035433,3540.8,0.0003548,3554.9,-0.00011455,28.365,-0.00011833,-0.0033106,0.70014
26865,9.4429,3.9091,0.1,0.00035188,3516.4,0.00035231,3529.2,-0.00011396,25.818,-0.0001174,-0.0034886,0.71099
26866,9.1665,3.8182,0.1,0.00035939,3591.4,0.00035992,3607.3,-0.00011593,31.867,-0.00012017,-0.0031083,0.67827
26867,9.2587,3.9091,0.1,0.00035695,3567,0.00035744,3581.5,-0.00011536,29.102,-0.00011923,-0.0033031,0.689
26868,8.9823,3.8182,0.1,0.00036446,3642.1,0.00036505,3659.8,-0.00011729,35.66,-0.00012203,-0.0029026,0.65665
26869,9.0744,3.9091,0.1,0.00036202,3617.7,0.00036257,3634,-0.00011674,32.656,-0.00012108,-0.0031178,0.66725
26870,8.798,3.8182,0.1,0.00036953,3692.7,0.00037019,3712.4,-0.00011862,39.767,-0.00012391,-0.0026924,0.63527
26871,8.8901,3.9091,0.1,0.0003671,3668.5,0.00036771,3686.6,-0.00011809,36.503,-0.00012295,-0.0029318,0.64574
26872,8.6137,3.8182,0.1,0.00037459,3743.4,0.00037533,3765.3,-0.00011991,44.216,-0.0001258,-0.0024769,0.61414
26873,8.7059,3.9091,0.1,0.00037218,3719.2,0.00037285,3739.4,-0.00011941,40.668,-0.00012483,-0.0027446,0.62449
26874,8.4295,3.8182,0.1,0.00037966,3794,0.00038047,3818.3,-0.00012118,49.037,-0.00012771,-0.0022566,0.59327
26875,8.5216,3.9091,0.1,0.00037725,3769.9,0.000378,3792.3,-0.00012071,45.177,-0.00012673,-0.0025567,0.60349
26876,8.2452,3.8182,0.1,0.00038473,3844.6,0.00038562,3871.4,-0.00012242,54.26,-0.00012964,-0.0020325,0.57266
26877,8.3373,3.9091,0.1,0.00038233,3820.7,0.00038316,3845.5,-0.00012198,50.059,-0.00012864,-0.0023689,0.58274
26878,8.0609,3.8182,0.1,0.00038979,3895.2,0.00039077,3924.8,-0.00012361,59.921,-0.00013159,-0.0018054,0.55231
26879,8.1531,3.9091,0.1,0.0003874,3871.4,0.00038832,3898.7,-0.00012321,55.346,-0.00013058,-0.002183,0.56226
26880,7.8767,3.8182,0.1,0.00039484,3945.7,0.00039592,3978.3,-0.00012476,66.057,-0.00013356,-0.0015776,0.53222
26881,7.9688,3.9091,0.1,0.00039247,3922,0.00039348,3952.2,-0.0001244,61.073,-0.00013253,-0.0020013,0.54204
26882,7.6924,3.8182,0.1,0.00039989,3996.1,0.00040107,4032,-0.00012587,72.71,-0.00013555,-0.0013524,0.5124
26883,7.7845,3.9091,0.1,0.00039754,3972.6,0.00039864,4005.9,-0.00012555,67.275,-0.00013451,-0.0018276,0.52208
26884,7.5081,3.8182,0.1,0.00040493,4046.5,0.00040623,4085.8,-0.00012693,79.923,-0.00013757,-0.0011346,0.49286
26885,7.6003,3.9091,0.1,0.0004026,4023.2,0.0004038,4059.7,-0.00012666,73.993,-0.00013651,-0.0016667,0.5024
26886,7.3239,3.8182,0.1,0.00040995,4096.7,0.00041138,4139.9,-0.00012793,87.746,-0.00013961,-0.00093123,0.47359
26887,7.416,3.9091,0.1,0.00040765,4073.7,0.00040897,4113.7,-0.00012771,81.269,-0.00013853,-0.0015266,0.48299
26888,7.1396,3.8182,0.1,0.00041497,4146.8,0.00041652,4194.1,-0.00012887,96.23,-0.00014168,-0.00075131,0.4546
26889,7.2317,3.9091,0.1,0.00041269,4124,0.00041413,4167.9,-0.00012871,89.15,-0.00014058,-0.0014167,0.46386
26890,6.9553,3.8182,0.1,0.00041998,4196.9,0.00042167,4248.6,-0.00012975,105.43,-0.00014378,-0.00060821,0.4359
26891,7.0475,3.9091,0.1,0.00041772,4174.3,0.00041929,4222.3,-0.00012966,97.686,-0.00014266,-0.0013504,0.44501
26892,6.7711,3.8182,0.1,0.00042497,4246.8,0.00042681,4303.3,-0.00013056,115.41,-0.00014592,-0.00051988,0.41747
26893,6.8632,3.9091,0.1,0.00042274,4224.5,0.00042445,4276.9,-0.00013053,106.93,-0.00014477,-0.0013458,0.42645
26894,6.5868,3.8182,0.1,0.00042995,4296.5,0.00043196,4358.3,-0.00013129,126.24,-0.00014809,-0.00051017,0.39934
26895,6.6789,3.9091,0.1,0.00042775,4274.5,0.00042962,4331.8,-0.00013135,116.94,-0.00014691,-0.0014272,0.40817
26896,6.4025,3.8182,0.1,0.00043492,4346.2,0.0004371,4413.5,-0.00013194,137.99,-0.0001503,-0.00061178,0.38151
26897,6.4947,3.9091,0.1,0.00043275,4324.5,0.00043478,4386.9,-0.00013208,127.78,-0.00014909,-0.0016264,0.39018
26898,6.2183,3.8182,0.1,0.00043988,4395.8,0.00044225,4469.2,-0.0001325,150.74,-0.00015256,-0.0008686,0.36397
26899,6.3104,3.9091,0.1,0.00043774,4374.4,0.00043994,4442.4,-0.00013274,139.51,-0.00015131,-0.0019866,0.37249
26900,6.034,3.8182,0.1,0.00044484,4445.3,0.00044741,4525.3,-0.00013297,164.56,-0.00015487,-0.0013397,0.34673
26901,6.1261,3.9091,0.1,0.00044272,4424.2,0.00044512,4498.3,-0.00013332,152.21,-0.00015357,-0.0025651,0.3551
26902,5.8497,3.8182,0.1,0.0004498,4494.9,0.00045258,4581.9,-0.00013334,179.56,-0.00015724,-0.0021045,0.32979
26903,5.9419,3.9091,0.1,0.00044771,4474,0.0004503,4554.7,-0.0001338,165.94,-0.00015589,-0.0034385,0.33801
26904,5.6655,3.8182,0.1,0.00045476,4544.5,0.00045778,4639.3,-0.00013361,195.82,-0.00015967,-0.0032695,0.31316
26905,5.7576,3.9091,0.1,0.0004527,4523.9,0.00045551,4611.6,-0.0001342,180.78,-0.00015826,-0.0047091,0.32123
26906,5.4812,3.8182,0.1,0.00045976,4594.4,0.00046302,4697.4,-0.00013376,213.45,-0.00016217,-0.004978,0.29685
26907,5.5733,3.9091,0.1,0.00045771,4573.9,0.00046074,4669.2,-0.00013449,196.82,-0.00016069,-0.0065135,0.30476
26908,5.2969,3.8182,0.1,0.00046479,4644.7,0.00046831,4756.6,-0.00013381,232.54,-0.00016476,-0.007423,0.28084
26909,5.3891,3.9091,0.1,0.00046275,4624.3,0.00046602,4727.6,-0.00013469,214.14,-0.00016319,-0.0090349,0.2886
26910,5.1127,3.8182,0.1,0.00046989,4695.7,0.00047369,4817.2,-0.00013374,253.22,-0.00016744,-0.010864,0.26516
26911,5.2048,3.9091,0.1,0.00046784,4675.2,0.00047136,4787.2,-0.00013479,232.81,-0.00016578,-0.012519,0.27275
26912,4.9284,3.8182,0.1,0.00047509,4747.6,0.00047918,4879.4,-0.00013356,275.58,-0.00017023,-0.015652,0.24979
26913,5.0205,3.9091,0.1,0.000473,4726.8,0.0004768,4848.2,-0.00013479,252.92,-0.00016845,-0.017297,0.25723
26914,4.7441,3.8182,0.1,0.00048043,4801,0.00048483,4943.8,-0.00013327,299.73,-0.00017316,-0.022262,0.23476
26915,4.8363,3.9091,0.1,0.00047828,4779.5,0.00048236,4910.8,-0.0001347,274.54,-0.00017124,-0.023814,0.24203
26916,4.5599,3.8182,0.1,0.00048597,4856.4,0.00049069,5011,-0.00013288,325.77,-0.00017624,-0.031335,0.22005
26917,4.652,3.9091,0.1,0.00048371,4833.7,0.00048808,4975.7,-0.00013452,297.74,-0.00017415,-0.032673,0.22716
26918,4.3756,3.8182,0.1,0.00049178,4914.4,0.00049684,5081.7,-0.00013241,353.78,-0.0001795,-0.043747,0.20567
26919,4.4677,3.9091,0.1,0.00048935,4890.1,0.00049404,5043.4,-0.00013427,322.56,-0.0001772,-0.044694,0.21262
26920,4.1913,3.8182,0.1,0.00049796,4976.2,0.00050337,5156.9,-0.00013188,383.83,-0.00018298,-0.06069,0.19163
26921,4.2835,3.9091,0.1,0.00049528,4949.4,0.00050029,5114.6,-0.00013397,349.02,-0.00018043,-0.060992,0.19841
26922,4.0071,3.8182,0.1,0.00050463,5042.8,0.00051042,5237.9,-0.00013134,415.93,-0.00018671,-0.083798,0.17794
26923,4.0992,3.9091,0.1,0.0005016,5012.5,0.00050695,5190.4,-0.00013366,377.12,-0.00018386,-0.083093,0.18454
26924,3.8228,3.8182,0.1,0.00051196,5116.1,0.00051813,5326.2,-0.00013085,450.03,-0.00019076,-0.11532,0.16459
26925,3.9149,3.9091,0.1,0.00050843,5080.8,0.00051413,5271.9,-0.00013338,406.77,-0.00018754,-0.1131,0.17102
26926,3.6385,3.8182,0.1,0.00052016,5198,0.00052671,5423.8,-0.00013047,486.01,-0.00019518,-0.15838,0.15159
26927,3.7307,3.9091,0.1,0.00051595,5155.9,0.00052199,5360.8,-0.00013321,437.81,-0.0001915,-0.15393,0.15785
26928,3.4543,3.8182,0.1,0.00052949,5291.3,0.00053645,5533.5,-0.00013033,523.59,-0.00020004,-0.21734,0.13895
26929,3.5464,3.9091,0.1,0.00052435,5239.9,0.00053076,5458.9,-0.00013323,469.96,-0.00019581,-0.20967,0.14503
26930,3.27,3.8182,0.1,0.00054032,5399.5,0.00054768,5658.4,-0.00013058,562.29,-0.00020546,-0.29843,0.12667
26931,3.3621,3.9091,0.1,0.00053393,5335.6,0.00054069,5569,-0.00013359,502.73,-0.00020053,-0.28612,0.13258
26932,3.0857,3.8182,0.1,0.0005531,5527.2,0.00056086,5803.1,-0.00013144,601.34,-0.00021153,-0.41048,0.11477
26933,3.1779,3.9091,0.1,0.00054503,5446.5,0.00055215,5694.2,-0.00013445,535.36,-0.00020576,-0.39178,0.12049
26934,2.9015,3.8182,0.1,0.00056846,5680.6,0.00057661,5973,-0.00013323,639.49,-0.00021842,-0.56741,0.10325
26935,2.9936,3.9091,0.1,0.00055813,5577.5,0.00056559,5838.9,-0.00013609,566.68,-0.00021158,-0.5389,0.10877
26936,2.7172,3.8182,0.1,0.0005872,5867.9,0.00059574,6175.7,-0.00013638,674.84,-0.0002263,-0.78772,0.092116
26937,2.8093,3.9091,0.1,0.00057387,5734.7,0.00058165,6008.5,-0.00013887,594.87,-0.00021814,-0.74872,0.097442
26938,2.5329,3.8182,0.1,0.00061047,6100.5,0.00061936,6421.5,-0.00014152,704.44,-0.00023543,-1.1156,0.08139
26939,2.6251,3.9091,0.1,0.00059311,5927,0.00060116,6210.8,-0.00014331,617.12,-0.00022558,-1.0478,0.086508
26940,2.3487,3.8182,0.1,0.00063988,6394.4,0.00064908,6724.6,-0.00014958,723.79,-0.00024612,-1.5724,0.071084
26941,2.4408,3.9091,0.1,0.00061707,6166.5,0.00062532,6456,-0.0001502,629.04,-0.00023412,-1.5205,0.075983
26942,2.1644,3.8182,0.1,0.00067788,6774.1,0.00068724,7106.4,-0.00016195,725.93,-0.00025889,-2.4571,0.061218
26943,2.2565,3.9091,0.1,0.00064756,6471.2,0.00065586,6759.2,-0.00016071,623.86,-0.00024403,-2.1833,0.065882
26944,1.9801,3.8182,0.1,0.00072826,7277.6,0.00073756,7600.6,-0.00018079,700.44,-0.00027445,-3.3023,0.051817
26945,2.0723,3.9091,0.1,0.0006874,6869.3,0.00069545,7143.4,-0.00017667,590.65,-0.00025577,-3.7318,0.056227
26946,1.7959,3.8182,0.1,0.00079786,7973.1,0.00080652,8264.8,-0.00020966,629.67,-0.00029451,-7.9334,0.042912
26947,1.888,3.9091,0.1,0.00074108,7405.7,0.00074835,7645.8,-0.00020102,512.59,-0.00026993,-5.2175,0.047041
26948,1.6116,3.8182,0.1,0.00089851,8978.9,0.0009057,9210.5,-0.00025471,491.64,-0.00032114,-7.5233,0.034546
26949,1.7037,3.9091,0.1,0.00081737,8168,0.00082254,8332.7,-0.00023863,359.46,-0.00028875,-17.081,0.038358
26950,1.4273,3.8182,0.1,0.0010626,10619,0.0010656,10712,-0.0003288,234.72,-0.00036587,-43.87,0.026777
26951,1.5195,3.9091,0.1,0.00093144,9308,0.00093253,9342.4,-0.00029437,123.97,-0.00031787,-52.58,0.030221
26952,1.2431,3.8182,0.1,0.0013658,13648,0.0013601,13484,-0.00044271,-61.569,-0.00046973,-264.6,0.019698
26953,1.3352,3.9091,0.1,0.0011309,11302,0.0011201,10997,-0.00035112,-56.968,-0.00041501,-537.04,0.022696
26954,1.1509,3.9091,0.1,0.0015835,15824,0.0015464,14967,-0.00039441,384.06,-0.00069299,-1859.3,0.015892
26955,1.0588,3.8182,0.1,0.0018433,18420,0.0018313,18074,-0.00059311,-142.45,-0.00064663,-544.6,0.013487
26956,23.724,4,0.1,1.9518e-05,195.05,1.1167e-05,59.155,3.2651e-06,-0.21463,-1.7825e-05,-158.68,2.8894
26957,23.816,4.0909,0.1,1.8417e-05,184.05,9.3095e-06,39.871,3.9783e-06,-0.18477,-1.7412e-05,-160.9,2.9049
26958,23.908,4,0.1,1.8089e-05,180.77,7.831e-06,22.456,4.7856e-06,-0.42609,-1.7606e-05,-168.67,2.9205
26959,23.539,4,0.1,2.15e-05,214.85,1.4706e-05,97.869,1.6504e-06,-0.22182,-1.8087e-05,-148.52,2.8583
26960,23.631,4.0909,0.1,2.0168e-05,201.54,1.2835e-05,78.468,2.3488e-06,-0.31983,-1.7647e-05,-150.56,2.8738
26961,23.355,4,0.1,2.3862e-05,238.45,1.8247e-05,136.48,6.5753e-08,-0.12643,-1.8398e-05,-138.86,2.8272
26962,23.447,4.0909,0.1,2.2365e-05,223.5,1.6365e-05,117.08,7.6449e-07,-0.13614,-1.7936e-05,-140.64,2.8427
26963,23.171,4,0.1,2.6507e-05,264.89,2.1798e-05,174.97,-1.5031e-06,-0.10397,-1.8761e-05,-129.77,2.7962
26964,23.263,4.0909,0.1,2.4893e-05,248.76,1.9906e-05,155.54,-8.1087e-07,-0.11941,-1.8277e-05,-131.35,2.8117
26965,22.987,4,0.1,2.9367e-05,293.46,2.5361e-05,213.4,-3.0516e-06,-0.08158,-1.9177e-05,-121.24,2.7651
26966,23.079,4.0909,0.1,2.7666e-05,276.47,2.3459e-05,193.93,-2.3635e-06,-0.08839,-1.8673e-05,-122.63,2.7806
26967,22.802,4,0.1,3.2391e-05,323.69,2.8942e-05,251.82,-4.5823e-06,-0.068408,-1.9648e-05,-113.27,2.7341
26968,22.894,4.0909,0.1,3.0628e-05,306.06,2.7029e-05,232.3,-3.8978e-06,-0.07361,-1.9126e-05,-114.49,2.7495
26969,22.618,4,0.1,3.5547e-05,355.23,3.2544e-05,290.27,-6.0967e-06,-0.058237,-2.0174e-05,-105.83,2.703
26970,22.71,4.0909,0.1,3.3736e-05,337.13,3.0621e-05,270.7,-5.4147e-06,-0.061604,-1.9636e-05,-106.91,2.7185
26971,22.434,4,0.1,3.8811e-05,387.84,3.617e-05,328.8,-7.5967e-06,-0.050663,-2.0754e-05,-98.908,2.672
26972,22.526,4.0909,0.1,3.6964e-05,369.39,3.4238e-05,309.17,-6.9166e-06,-0.05306,-2.0202e-05,-99.877,2.6875
26973,22.249,4,0.1,4.2166e-05,421.37,3.9824e-05,367.43,-9.0841e-06,-0.044675,-2.1387e-05,-92.48,2.6411
26974,22.342,4.0909,0.1,4.0291e-05,402.63,3.7882e-05,347.74,-8.4052e-06,-0.046352,-2.0824e-05,-93.353,2.6565
26975,22.065,4,0.1,4.5599e-05,455.67,4.3506e-05,406.2,-1.0561e-05,-0.039857,-2.207e-05,-86.517,2.6101
26976,22.157,4.0909,0.1,4.3701e-05,436.71,4.1556e-05,386.44,-9.8823e-06,-0.041037,-2.1497e-05,-87.312,2.6256
26977,21.881,4,0.1,4.9099e-05,490.66,4.7217e-05,445.11,-1.2028e-05,-0.035888,-2.2802e-05,-80.99,2.5792
26978,21.973,4.0909,0.1,4.7184e-05,471.51,4.5259e-05,425.3,-1.135e-05,-0.036702,-2.2221e-05,-81.72,2.5946
26979,21.697,4,0.1,5.2661e-05,526.25,5.0958e-05,484.18,-1.3487e-05,-0.032568,-2.358e-05,-75.87,2.5483
26980,21.789,4.0909,0.1,5.073e-05,506.95,4.8992e-05,464.31,-1.2808e-05,-0.033106,-2.2992e-05,-76.547,2.5637
26981,21.512,4,0.1,5.6278e-05,562.39,5.4729e-05,523.43,-1.4939e-05,-0.029759,-2.4402e-05,-71.128,2.5175
26982,21.605,4.0909,0.1,5.4334e-05,542.96,5.2756e-05,503.5,-1.426e-05,-0.030084,-2.3807e-05,-71.762,2.5328
26983,21.328,4,0.1,5.9946e-05,599.04,5.853e-05,562.87,-1.6386e-05,-0.027349,-2.5265e-05,-66.738,2.4866
26984,21.42,4.0909,0.1,5.7989e-05,579.49,5.6549e-05,542.87,-1.5706e-05,-0.027517,-2.4664e-05,-67.335,2.502
26985,21.144,4,0.1,6.3659e-05,636.15,6.2361e-05,602.49,-1.7829e-05,-0.025257,-2.6167e-05,-62.673,2.4559
26986,21.236,4.0909,0.1,6.1693e-05,616.5,6.0373e-05,582.43,-1.7148e-05,-0.025302,-2.5561e-05,-63.239,2.4712
26987,20.96,4,0.1,6.7417e-05,673.7,6.6221e-05,642.3,-1.9268e-05,-0.023422,-2.7105e-05,-58.91,2.4251
26988,21.052,4.0909,0.1,6.544e-05,653.95,6.4225e-05,622.18,-1.8585e-05,-0.023374,-2.6494e-05,-59.449,2.4404
26989,20.775,4,0.1,7.1215e-05,711.66,7.011e-05,682.31,-2.0704e-05,-0.021806,-2.8078e-05,-55.426,2.3944
26990,20.867,4.0909,0.1,6.9229e-05,691.81,6.8107e-05,662.13,-2.002e-05,-0.021678,-2.7463e-05,-55.941,2.4097
26991,20.591,4,0.1,7.5052e-05,750,7.4027e-05,722.53,-2.2138e-05,-0.020383,-2.9083e-05,-52.199,2.3638
26992,20.683,4.0909,0.1,7.3056e-05,730.06,7.2017e-05,702.27,-2.1453e-05,-0.020188,-2.8463e-05,-52.693,2.3791
26993,20.407,4,0.1,7.8925e-05,788.71,7.7972e-05,762.94,-2.3571e-05,-0.019114,-3.0118e-05,-49.211,2.3332
26994,20.499,4.0909,0.1,7.692e-05,768.67,7.5954e-05,742.62,-2.2884e-05,-0.018876,-2.9495e-05,-49.686,2.3484
26995,20.223,4,0.1,8.2833e-05,827.76,8.1945e-05,803.56,-2.5004e-05,-0.01797,-3.1183e-05,-46.443,2.3027
26996,20.315,4.0909,0.1,8.082e-05,807.64,7.9919e-05,783.16,-2.4315e-05,-0.017694,-3.0555e-05,-46.9,2.3179
26997,20.038,4,0.1,8.6776e-05,867.16,8.5946e-05,844.38,-2.6436e-05,-0.016933,-3.2274e-05,-43.878,2.2722
26998,20.13,4.0909,0.1,8.4753e-05,846.94,8.3912e-05,823.91,-2.5746e-05,-0.016632,-3.1642e-05,-44.319,2.2874
26999,19.854,4,0.1,9.075e-05,906.87,8.9972e-05,885.4,-2.787e-05,-0.015993,-3.3391e-05,-41.501,2.2418
27000,19.946,4.0909,0.1,8.8718e-05,886.57,8.793e-05,864.86,-2.7177e-05,-0.015663,-3.2755e-05,-41.926,2.2569
27001,19.67,4,0.1,9.4756e-05,946.9,9.4026e-05,926.64,-2.9304e-05,-0.015151,-3.4532e-05,-39.297,2.2114
27002,19.762,4.0909,0.1,9.2715e-05,926.51,9.1975e-05,906.01,-2.8609e-05,-0.014795,-3.3892e-05,-39.708,2.2265
27003,19.485,4,0.1,9.8792e-05,987.23,9.8105e-05,968.07,-3.074e-05,-0.014384,-3.5696e-05,-37.253,2.1811
27004,19.578,4.0909,0.1,9.6741e-05,966.75,9.6046e-05,947.36,-3.0043e-05,-0.014017,-3.5052e-05,-37.65,2.1962
27005,19.301,4,0.1,0.00010286,1027.9,0.00010221,1009.7,-3.2178e-05,-0.013675,-3.6881e-05,-35.357,2.1509
27006,19.393,4.0909,0.1,0.0001008,1007.3,0.00010014,988.93,-3.1478e-05,-0.013298,-3.6233e-05,-35.741,2.1659
27007,19.117,4,0.1,0.00010695,1068.8,0.00010634,1051.6,-3.3618e-05,-0.013016,-3.8087e-05,-33.596,2.1207
27008,19.209,4.0909,0.1,0.00010488,1048.1,0.00010426,1030.7,-3.2916e-05,-0.012636,-3.7435e-05,-33.968,2.1357
27009,18.933,4,0.1,0.00011107,1110,0.00011049,1093.6,-3.506e-05,-0.01241,-3.9312e-05,-31.96,2.0906
27010,19.025,4.0909,0.1,0.00010899,1089.2,0.00010841,1072.7,-3.4356e-05,-0.012015,-3.8656e-05,-32.32,2.1056
27011,18.748,4,0.1,0.00011522,1151.4,0.00011467,1135.9,-3.6506e-05,-0.011864,-4.0556e-05,-30.44,2.0606
27012,18.841,4.0909,0.1,0.00011313,1130.5,0.00011258,1114.8,-3.5799e-05,-0.011456,-3.9896e-05,-30.789,2.0755
27013,18.564,4,0.1,0.0001194,1193.1,0.00011888,1178.4,-3.7955e-05,-0.01136,-4.1817e-05,-29.025,2.0307
27014,18.656,4.0909,0.1,0.0001173,1172.2,0.00011677,1157.2,-3.7246e-05,-0.010955,-4.1153e-05,-29.364,2.0455
27015,18.38,4,0.1,0.0001236,1235.1,0.0001231,1221,-3.9408e-05,-0.010885,-4.3094e-05,-27.707,2.0008
27016,18.472,4.0909,0.1,0.00012149,1214.1,0.00012099,1199.8,-3.8696e-05,-0.010478,-4.2426e-05,-28.037,2.0156
27017,18.196,4,0.1,0.00012782,1277.4,0.00012735,1263.9,-4.0864e-05,-0.010435,-4.4387e-05,-26.479,1.971
27018,18.288,4.0909,0.1,0.00012571,1256.2,0.00012523,1242.6,-4.015e-05,-0.010033,-4.3715e-05,-26.8,1.9858
27019,18.011,4,0.1,0.00013208,1319.8,0.00013163,1307,-4.2325e-05,-0.010016,-4.5695e-05,-25.332,1.9413
27020,18.103,4.0909,0.1,0.00012995,1298.6,0.00012949,1285.6,-4.1607e-05,-0.0096028,-4.5019e-05,-25.645,1.9561
27021,17.827,4,0.1,0.00013635,1362.6,0.00013592,1350.3,-4.379e-05,-0.0096404,-4.7017e-05,-24.26,1.9117
27022,17.919,4.0909,0.1,0.00013422,1341.2,0.00013378,1328.8,-4.3069e-05,-0.0092189,-4.6338e-05,-24.566,1.9264
27023,17.643,4,0.1,0.00014065,1405.6,0.00014024,1393.8,-4.5259e-05,-0.0092895,-4.8353e-05,-23.256,1.8822
27024,17.735,4.0909,0.1,0.00013851,1384.1,0.00013809,1372.2,-4.4536e-05,-0.008876,-4.767e-05,-23.555,1.8969
27025,17.459,4,0.1,0.00014498,1448.8,0.00014458,1437.5,-4.6733e-05,-0.0089531,-4.9702e-05,-22.314,1.8528
27026,17.551,4.0909,0.1,0.00014282,1427.2,0.00014242,1415.8,-4.6007e-05,-0.008541,-4.9015e-05,-22.608,1.8674
27027,17.274,4,0.1,0.00014932,1492.2,0.00014895,1481.4,-4.8212e-05,-0.008627,-5.1063e-05,-21.428,1.8235
27028,17.366,4.0909,0.1,0.00014716,1470.6,0.00014678,1459.6,-4.7483e-05,-0.0082245,-5.0372e-05,-21.717,1.838
27029,17.09,4,0.1,0.00015369,1535.9,0.00015333,1525.5,-4.9696e-05,-0.008319,-5.2436e-05,-20.592,1.7943
27030,17.182,4.0909,0.1,0.00015152,1514.1,0.00015115,1503.6,-4.8964e-05,-0.007909,-5.1741e-05,-20.878,1.8088
27031,16.906,4,0.1,0.00015809,1579.8,0.00015774,1569.8,-5.1185e-05,-0.0080479,-5.382e-05,-19.803,1.7652
27032,16.998,4.0909,0.1,0.0001559,1557.9,0.00015555,1547.8,-5.045e-05,-0.0076296,-5.3122e-05,-20.086,1.7796
27033,16.721,4,0.1,0.0001625,1623.9,0.00016217,1614.3,-5.268e-05,-0.0077939,-5.5215e-05,-19.054,1.7362
27034,16.814,4.0909,0.1,0.00016031,1602,0.00015997,1592.2,-5.1941e-05,-0.0073867,-5.4514e-05,-19.335,1.7505
27035,16.537,4,0.1,0.00016694,1668.2,0.00016662,1659,-5.418e-05,-0.0075428,-5.662e-05,-18.341,1.7073
27036,16.629,4.0909,0.1,0.00016473,1646.2,0.00016441,1636.8,-5.3438e-05,-0.0071395,-5.5915e-05,-18.622,1.7216
27037,16.353,4,0.1,0.0001714,1712.8,0.00017109,1703.9,-5.5685e-05,-0.0072926,-5.8035e-05,-17.66,1.6785
27038,16.445,4.0909,0.1,0.00016918,1690.7,0.00016887,1681.6,-5.494e-05,-0.006901,-5.7327e-05,-17.942,1.6927
27039,16.169,4,0.1,0.00017588,1757.6,0.00017558,1749,-5.7197e-05,-0.0070553,-5.9459e-05,-17.007,1.6498
27040,16.261,4.0909,0.1,0.00017366,1735.4,0.00017335,1726.6,-5.6448e-05,-0.0066555,-5.8749e-05,-17.29,1.664
27041,15.984,4,0.1,0.00018038,1802.6,0.0001801,1794.3,-5.8714e-05,-0.0068505,-6.0893e-05,-16.377,1.6213
27042,16.077,4.0909,0.1,0.00017815,1780.3,0.00017786,1771.9,-5.7962e-05,-0.0064426,-6.0179e-05,-16.663,1.6354
27043,15.8,4,0.1,0.00018491,1847.8,0.00018463,1839.9,-6.0237e-05,-0.0066565,-6.2335e-05,-15.767,1.5928
27044,15.892,4.0909,0.1,0.00018266,1825.4,0.00018238,1817.3,-5.9482e-05,-0.0062607,-6.1618e-05,-16.057,1.6069
27045,15.616,4,0.1,0.00018945,1893.2,0.00018919,1885.6,-6.1766e-05,-0.0064587,-6.3785e-05,-15.173,1.5645
27046,15.708,4.0909,0.1,0.0001872,1870.7,0.00018693,1862.9,-6.1008e-05,-0.0060687,-6.3066e-05,-15.469,1.5786
27047,15.432,4,0.1,0.00019402,1938.8,0.00019376,1931.5,-6.3302e-05,-0.0062539,-6.5243e-05,-14.591,1.5364
27048,15.524,4.0909,0.1,0.00019175,1916.2,0.00019149,1908.7,-6.254e-05,-0.0058791,-6.4521e-05,-14.894,1.5503
27049,15.247,4,0.1,0.0001986,1984.6,0.00019836,1977.6,-6.4843e-05,-0.0060564,-6.6708e-05,-14.018,1.5083
27050,15.339,4.0909,0.1,0.00019633,1961.9,0.00019608,1954.7,-6.4078e-05,-0.0056723,-6.5984e-05,-14.329,1.5222
27051,15.063,4,0.1,0.00020321,2030.7,0.00020297,2023.9,-6.6392e-05,-0.0058901,-6.8181e-05,-13.45,1.4804
27052,15.155,4.0909,0.1,0.00020093,2007.9,0.00020069,2000.9,-6.5622e-05,-0.0054967,-6.7455e-05,-13.771,1.4942
27053,14.879,4,0.1,0.00020783,2076.9,0.00020761,2070.4,-6.7946e-05,-0.0057297,-6.966e-05,-12.885,1.4527
27054,14.971,4.0909,0.1,0.00020554,2054,0.00020531,2047.4,-6.7173e-05,-0.0053512,-6.8932e-05,-13.217,1.4664
27055,14.695,4,0.1,0.00021248,2123.3,0.00021227,2117.1,-6.9507e-05,-0.0055585,-7.1146e-05,-12.317,1.425
27056,14.787,4.0909,0.1,0.00021018,2100.3,0.00020996,2094,-6.8731e-05,-0.0051868,-7.0416e-05,-12.662,1.4387
27057,14.51,4,0.1,0.00021714,2169.9,0.00021694,2164,-7.1075e-05,-0.0053736,-7.2638e-05,-11.744,1.3976
27058,14.602,4.0909,0.1,0.00021483,2146.9,0.00021463,2140.8,-7.0295e-05,-0.0050186,-7.1906e-05,-12.104,1.4111
27059,14.326,4,0.1,0.00022183,2216.8,0.00022164,2211.1,-7.265e-05,-0.0051907,-7.4135e-05,-11.162,1.3702
27060,14.418,4.0909,0.1,0.00021951,2193.6,0.00021931,2187.8,-7.1866e-05,-0.0048259,-7.3402e-05,-11.54,1.3837
27061,14.142,4,0.1,0.00022653,2263.8,0.00022635,2258.5,-7.4232e-05,-0.0050352,-7.5638e-05,-10.567,1.343
27062,14.234,4.0909,0.1,0.0002242,2240.5,0.00022402,2235,-7.3444e-05,-0.0046608,-7.4903e-05,-10.964,1.3565
27063,13.957,4,0.1,0.00023125,2310.9,0.00023108,2306,-7.5821e-05,-0.0048781,-7.7145e-05,-9.9566,1.316
27064,14.05,4.0909,0.1,0.00022892,2287.6,0.00022874,2282.4,-7.5029e-05,-0.0045211,-7.6409e-05,-10.376,1.3294
27065,13.773,4,0.1,0.000236,2358.3,0.00023584,2353.7,-7.7417e-05,-0.0047,-7.8657e-05,-9.326,1.2891
27066,13.865,4.0909,0.1,0.00023365,2334.9,0.00023348,2330,-7.6621e-05,-0.0043526,-7.7921e-05,-9.769,1.3024
27067,13.589,4,0.1,0.00024076,2405.9,0.00024061,2401.5,-7.902e-05,-0.0044956,-8.0173e-05,-8.6714,1.2624
27068,13.681,4.0909,0.1,0.0002384,2382.4,0.00023825,2377.8,-7.822e-05,-0.0041689,-7.9436e-05,-9.1412,1.2756
27069,13.405,4,0.1,0.00024553,2453.6,0.0002454,2449.6,-8.063e-05,-0.0042791,-8.1693e-05,-7.9887,1.2359
27070,13.497,4.0909,0.1,0.00024317,2430.1,0.00024303,2425.8,-7.9827e-05,-0.0039462,-8.0956e-05,-8.4882,1.249
27071,13.22,4,0.1,0.00025033,2501.6,0.0002502,2497.9,-8.2248e-05,-0.0040742,-8.3216e-05,-7.2738,1.2095
27072,13.313,4.0909,0.1,0.00024796,2477.9,0.00024783,2474,-8.1441e-05,-0.0037366,-8.2479e-05,-7.8059,1.2225
27073,13.036,4,0.1,0.00025514,2549.7,0.00025503,2546.4,-8.3874e-05,-0.0038403,-8.4742e-05,-6.5221,1.1833
27074,13.128,4.0909,0.1,0.00025277,2525.9,0.00025265,2522.4,-8.3062e-05,-0.0035329,-8.4005e-05,-7.0903,1.1962
27075,12.852,4,0.1,0.00025997,2597.9,0.00025988,2595.1,-8.5508e-05,-0.0035406,-8.627e-05,-5.7289,1.1572
27076,12.944,4.0909,0.1,0.00025759,2574.1,0.00025748,2571,-8.4691e-05,-0.0032621,-8.5534e-05,-6.3365,1.1701
27077,12.668,4,0.1,0.00026482,2646.4,0.00026474,2643.9,-8.7149e-05,-0.0031416,-8.7799e-05,-4.8891,1.1314
27078,12.76,4.0909,0.1,0.00026243,2622.5,0.00026234,2619.7,-8.6328e-05,-0.0029229,-8.7065e-05,-5.5402,1.1441
27079,12.483,4,0.1,0.00026969,2695,0.00026962,2693,-8.8799e-05,-0.0026005,-8.933e-05,-3.9976,1.1057
27080,12.575,4.0909,0.1,0.00026729,2671.1,0.00026721,2668.7,-8.7973e-05,-0.0024495,-8.8598e-05,-4.6961,1.1183
27081,12.299,4,0.1,0.00027457,2743.8,0.00027452,2742.3,-9.0456e-05,-0.0017945,-9.0862e-05,-3.049,1.0802
27082,12.391,4.0909,0.1,0.00027216,2719.8,0.0002721,2717.9,-8.9626e-05,-0.0018193,-9.0132e-05,-3.7992,1.0927
27083,12.115,4,0.1,0.00027947,2792.7,0.00027943,2791.7,-9.2123e-05,-0.00019762,-9.2394e-05,-2.0375,1.0549
27084,12.207,4.0909,0.1,0.00027706,2768.6,0.00027701,2767.2,-9.1288e-05,-0.00081485,-9.1666e-05,-2.8442,1.0673
27085,11.931,4,0.1,0.00028438,2841.8,0.00028436,2841.3,-9.3797e-05,0.0050548,-9.3925e-05,-0.95978,1.0297
27086,12.023,4.0909,0.1,0.00028196,2817.7,0.00028193,2816.8,-9.2957e-05,0.0013822,-9.32e-05,-1.8255,1.0421
27087,11.746,4,0.1,0.00028931,2891.1,0.00028931,2891.2,-9.5448e-05,0.24668,-9.5487e-05,-0.041513,1.0048
27088,11.838,4.0909,0.1,0.00028689,2866.9,0.00028687,2866.5,-9.4635e-05,0.010121,-9.4735e-05,-0.74218,1.0171
27089,11.562,4,0.1,0.00029425,2940.5,0.00029427,2941.2,-9.698e-05,1.46,-9.7175e-05,-0.010773,0.98006
27090,11.654,4.0909,0.1,0.00029182,2916.2,0.00029183,2916.4,-9.6262e-05,0.4653,-9.6327e-05,-0.027134,0.99222
27091,11.378,4,0.1,0.00029921,2990,0.00029925,2991.4,-9.8504e-05,2.793,-9.8877e-05,-0.0076709,0.95552
27092,11.47,4.0909,0.1,0.00029678,2965.7,0.00029681,2966.6,-9.7793e-05,1.7042,-9.8022e-05,-0.010483,0.96758
27093,11.193,4,0.1,0.00030418,3039.7,0.00030425,3041.8,-0.00010002,4.2286,-0.00010059,-0.0064659,0.93119
27094,11.286,4.0909,0.1,0.00030174,3015.4,0.0003018,3016.9,-9.932e-05,3.0502,-9.9727e-05,-0.0076674,0.94314
27095,11.009,4,0.1,0.00030916,3089.5,0.00030926,3092.4,-0.00010154,5.7744,-0.00010231,-0.0057774,0.90706
27096,11.101,4.0909,0.1,0.00030672,3065.1,0.0003068,3067.4,-0.00010084,4.4999,-0.00010144,-0.0064527,0.91891
27097,10.825,4,0.1,0.00031416,3139.4,0.00031428,3143.1,-0.00010305,7.4401,-0.00010404,-0.0052919,0.88314
27098,10.917,4.0909,0.1,0.00031172,3115,0.00031182,3118.1,-0.00010236,6.0612,-0.00010317,-0.0057467,0.89488
27099,10.641,4,0.1,0.00031917,3189.5,0.00031932,3194.1,-0.00010455,9.2362,-0.00010578,-0.0049239,0.85944
27100,10.733,4.0909,0.1,0.00031673,3165.1,0.00031686,3168.9,-0.00010387,7.7438,-0.0001049,-0.0052319,0.87106
27101,10.456,4,0.1,0.00032419,3239.7,0.00032438,3245.2,-0.00010605,11.174,-0.00010754,-0.0046615,0.83595
27102,10.549,4.0909,0.1,0.00032175,3215.2,0.00032191,3220,-0.00010538,9.558,-0.00010665,-0.0048787,0.84746
27103,10.272,4,0.1,0.00032922,3289.9,0.00032944,3296.5,-0.00010753,13.266,-0.0001093,-0.0044345,0.81268
27104,10.364,4.0909,0.1,0.00032678,3265.5,0.00032697,3271.2,-0.00010687,11.515,-0.00010841,-0.0046339,0.82408
27105,10.088,4,0.1,0.00033426,3340.3,0.00033452,3348,-0.00010901,15.525,-0.00011107,-0.0042146,0.78964
27106,10.18,4.0909,0.1,0.00033182,3315.9,0.00033205,3322.7,-0.00010836,13.628,-0.00011017,-0.0043855,0.80092
27107,9.9036,4,0.1,0.00033931,3390.8,0.00033961,3399.7,-0.00011047,17.966,-0.00011286,-0.0040179,0.76682
27108,9.9957,4.0909,0.1,0.00033687,3366.4,0.00033714,3374.3,-0.00010984,15.91,-0.00011195,-0.0041768,0.77799
27109,9.7193,4,0.1,0.00034437,3441.3,0.00034472,3451.6,-0.00011192,20.604,-0.00011466,-0.0038298,0.74423
27110,9.8115,4.0909,0.1,0.00034193,3416.9,0.00034224,3426.1,-0.0001113,18.375,-0.00011375,-0.0039906,0.75529
27111,9.5351,4,0.1,0.00034944,3492,0.00034983,3503.6,-0.00011335,23.456,-0.00011647,-0.0036504,0.72188
27112,9.6272,4.0909,0.1,0.000347,3467.6,0.00034735,3478,-0.00011275,21.039,-0.00011555,-0.0038117,0.73281
27113,9.3508,4,0.1,0.00035451,3542.6,0.00035495,3555.8,-0.00011477,26.541,-0.0001183,-0.00348,0.69976
27114,9.4429,4.0909,0.1,0.00035207,3518.3,0.00035247,3530.2,-0.00011418,23.917,-0.00011737,-0.0036521,0.71058
27115,9.1665,4,0.1,0.00035959,3593.4,0.00036008,3608.2,-0.00011616,29.877,-0.00012014,-0.0033131,0.67789
27116,9.2587,4.0909,0.1,0.00035716,3569.1,0.00035761,3582.5,-0.0001156,27.03,-0.0001192,-0.0035001,0.68858
27117,8.9823,4,0.1,0.00036467,3644.2,0.00036523,3660.8,-0.00011754,33.486,-0.000122,-0.0031493,0.65626
27118,9.0744,4.0909,0.1,0.00036224,3619.9,0.00036275,3635,-0.000117,30.395,-0.00012104,-0.0033558,0.66682
27119,8.798,4,0.1,0.00036975,3695,0.00037037,3713.5,-0.00011889,37.391,-0.00012387,-0.0029884,0.63488
27120,8.8901,4.0909,0.1,0.00036734,3670.8,0.0003679,3687.7,-0.00011837,34.033,-0.0001229,-0.0032187,0.64531
27121,8.6137,4,0.1,0.00037484,3745.8,0.00037553,3766.4,-0.00012021,41.616,-0.00012575,-0.0028312,0.61375
27122,8.7059,4.0909,0.1,0.00037243,3721.7,0.00037306,3740.6,-0.00011973,37.968,-0.00012478,-0.0030892,0.62405
27123,8.4295,4,0.1,0.00037992,3796.6,0.00038069,3819.5,-0.00012151,46.188,-0.00012766,-0.0026785,0.59287
27124,8.5216,4.0909,0.1,0.00037753,3772.7,0.00037823,3793.6,-0.00012105,42.222,-0.00012667,-0.0029685,0.60305
27125,8.2452,4,0.1,0.00038501,3847.4,0.00038585,3872.8,-0.00012277,51.135,-0.00012958,-0.0025318,0.57226
27126,8.3373,4.0909,0.1,0.00038263,3823.6,0.0003834,3846.8,-0.00012235,46.823,-0.00012858,-0.0028578,0.5823
27127,8.0609,4,0.1,0.00039009,3898.2,0.00039102,3926.2,-0.000124,56.489,-0.00013152,-0.0023947,0.5519
27128,8.1531,4.0909,0.1,0.00038773,3874.6,0.00038858,3900.2,-0.00012361,51.798,-0.00013051,-0.0027611,0.56181
27129,7.8767,4,0.1,0.00039517,3949,0.0003962,3979.8,-0.00012519,62.282,-0.00013348,-0.0022709,0.53181
27130,7.9688,4.0909,0.1,0.00039282,3925.5,0.00039376,3953.8,-0.00012484,57.176,-0.00013245,-0.002682,0.54159
27131,7.6924,4,0.1,0.00040025,3999.7,0.00040137,4033.6,-0.00012634,68.55,-0.00013546,-0.0021662,0.51199
27132,7.7845,4.0909,0.1,0.00039792,3976.4,0.00039895,4007.5,-0.00012604,62.989,-0.00013442,-0.0026267,0.52163
27133,7.5081,4,0.1,0.00040532,4050.4,0.00040655,4087.5,-0.00012744,75.332,-0.00013747,-0.0020882,0.49244
27134,7.6003,4.0909,0.1,0.000403,4027.3,0.00040414,4061.5,-0.00012719,69.271,-0.00013641,-0.0026027,0.50194
27135,7.3239,4,0.1,0.00041038,4101,0.00041172,4141.7,-0.0001285,82.668,-0.0001395,-0.0020475,0.47317
27136,7.416,4.0909,0.1,0.00040809,4078.1,0.00040933,4115.6,-0.0001283,76.059,-0.00013842,-0.0026208,0.48253
27137,7.1396,4,0.1,0.00041543,4151.5,0.0004169,4196,-0.0001295,90.603,-0.00014156,-0.0020583,0.45418
27138,7.2317,4.0909,0.1,0.00041317,4128.8,0.00041452,4169.9,-0.00012936,83.39,-0.00014046,-0.0026952,0.4634
27139,6.9553,4,0.1,0.00042048,4201.9,0.00042208,4250.6,-0.00013044,99.182,-0.00014364,-0.0021387,0.43547
27140,7.0475,4.0909,0.1,0.00041824,4179.5,0.00041972,4224.4,-0.00013036,91.304,-0.00014252,-0.0028435,0.44454
27141,6.7711,4,0.1,0.00042552,4252.2,0.00042726,4305.4,-0.00013132,108.45,-0.00014576,-0.0023137,0.41705
27142,6.8632,4.0909,0.1,0.0004233,4230.1,0.00042491,4279.1,-0.00013132,99.844,-0.00014461,-0.0030901,0.42598
27143,6.5868,4,0.1,0.00043054,4302.5,0.00043244,4360.5,-0.00013214,118.48,-0.00014791,-0.0026158,0.39891
27144,6.6789,4.0909,0.1,0.00042836,4280.7,0.00043011,4334.1,-0.00013221,109.05,-0.00014673,-0.0034673,0.4077
27145,6.4025,4,0.1,0.00043556,4352.6,0.00043762,4415.8,-0.00013288,129.3,-0.00015009,-0.0030879,0.38108
27146,6.4947,4.0909,0.1,0.00043341,4331.1,0.00043531,4389.4,-0.00013304,118.98,-0.00014888,-0.0040154,0.38971
27147,6.2183,4,0.1,0.00044058,4402.8,0.00044281,4471.6,-0.00013356,140.98,-0.00015232,-0.0037872,0.36353
27148,6.3104,4.0909,0.1,0.00043846,4381.6,0.00044052,4445,-0.00013381,129.66,-0.00015107,-0.0047898,0.37202
27149,6.034,4,0.1,0.0004456,4452.9,0.00044801,4527.7,-0.00013415,153.58,-0.00015459,-0.0047897,0.34629
27150,6.1261,4.0909,0.1,0.0004435,4432,0.00044574,4500.9,-0.00013451,141.16,-0.00015329,-0.0058624,0.35463
27151,5.8497,4,0.1,0.00045061,4503,0.00045323,4584.3,-0.00013466,167.16,-0.00015691,-0.0061959,0.32936
27152,5.9419,4.0909,0.1,0.00044855,4482.4,0.00045097,4557.2,-0.00013513,153.51,-0.00015556,-0.0073282,0.33754
27153,5.6655,4,0.1,0.00045565,4553.3,0.00045847,4641.5,-0.00013508,181.79,-0.00015928,-0.00814,0.31273
27154,5.7576,4.0909,0.1,0.00045361,4532.9,0.00045621,4614,-0.00013568,166.77,-0.00015788,-0.0093133,0.32075
27155,5.4812,4,0.1,0.0004607,4603.8,0.00046374,4699.4,-0.00013542,197.51,-0.00016171,-0.010801,0.29641
27156,5.5733,4.0909,0.1,0.00045868,4583.6,0.00046149,4671.4,-0.00013615,180.97,-0.00016024,-0.011985,0.30428
27157,5.2969,4,0.1,0.0004658,4654.7,0.00046907,4758.2,-0.00013567,214.4,-0.00016421,-0.014418,0.28041
27158,5.3891,4.0909,0.1,0.00046378,4634.6,0.00046681,4729.6,-0.00013655,196.16,-0.00016266,-0.015568,0.28812
27159,5.1127,4,0.1,0.00047095,4706.2,0.00047447,4818.2,-0.00013584,232.51,-0.00016679,-0.019312,0.26472
27160,5.2048,4.0909,0.1,0.00046893,4686.1,0.00047218,4788.6,-0.00013688,212.37,-0.00016515,-0.020358,0.27228
27161,4.9284,4,0.1,0.00047619,4758.6,0.00047997,4879.5,-0.00013593,251.88,-0.00016946,-0.025916,0.24936
27162,5.0205,4.0909,0.1,0.00047414,4738.2,0.00047763,4848.8,-0.00013714,229.61,-0.0001677,-0.02676,0.25675
27163,4.7441,4,0.1,0.00048155,4812.2,0.00048561,4942.7,-0.00013595,272.55,-0.00017223,-0.034815,0.23433
27164,4.8363,4.0909,0.1,0.00047945,4791.2,0.00048318,4910.3,-0.00013734,247.9,-0.00017034,-0.035313,0.24155
27165,4.5599,4,0.1,0.00048709,4867.5,0.00049143,5008.1,-0.00013591,294.53,-0.00017511,-0.046802,0.21962
27166,4.652,4.0909,0.1,0.00048488,4845.5,0.00048887,4973.5,-0.0001375,267.23,-0.00017307,-0.046753,0.22668
27167,4.3756,4,0.1,0.00049285,4925.1,0.00049749,5076.3,-0.00013583,317.8,-0.00017813,-0.062958,0.20525
27168,4.4677,4.0909,0.1,0.00049049,4901.5,0.00049475,5038.9,-0.00013762,287.54,-0.0001759,-0.06208,0.21215
27169,4.1913,4,0.1,0.00049892,4985.8,0.00050386,5148.1,-0.00013575,342.32,-0.00018132,-0.084764,0.19121
27170,4.2835,4.0909,0.1,0.00049634,4959.9,0.00050087,5107.1,-0.00013775,308.77,-0.00017885,-0.082663,0.19794
27171,4.0071,4,0.1,0.0005054,5050.6,0.00051066,5224.4,-0.0001357,367.97,-0.00018469,-0.11426,0.17752
27172,4.0992,4.0909,0.1,0.00050249,5021.5,0.0005073,5178.6,-0.00013791,330.78,-0.00018195,-0.11039,0.18408
27173,3.8228,4,0.1,0.00051243,5120.7,0.00051799,5306.5,-0.00013575,394.56,-0.00018828,-0.1543,0.16418
27174,3.9149,4.0909,0.1,0.00050906,5087,0.00051414,5254.4,-0.00013815,353.35,-0.0001852,-0.14791,0.17057
27175,3.6385,4,0.1,0.00052015,5197.9,0.00052604,5395.9,-0.00013597,421.77,-0.00019214,-0.20887,0.15118
27176,3.7307,4.0909,0.1,0.00051615,5158,0.00052152,5335.7,-0.00013855,376.17,-0.00018864,-0.19891,0.1574
27177,3.4543,4,0.1,0.0005288,5284.4,0.000535,5494.4,-0.00013649,449.11,-0.0001963,-0.2837,0.13855
27178,3.5464,4.0909,0.1,0.00052395,5235.8,0.00052958,5423.7,-0.00013919,398.77,-0.0001923,-0.2687,0.14458
27179,3.27,4,0.1,0.00053865,5382.8,0.00054516,5604.7,-0.00013745,475.83,-0.00020084,-0.38718,0.12627
27180,3.3621,4.0909,0.1,0.00053264,5322.7,0.00053854,5520.3,-0.00014021,420.43,-0.00019621,-0.36504,0.13213
27181,3.0857,4,0.1,0.00055008,5497,0.00055687,5729.9,-0.00013909,500.79,-0.00020581,-0.53185,0.11437
27182,3.1779,4.0909,0.1,0.00054251,5421.3,0.00054864,5627.7,-0.00014178,440.12,-0.00020043,-0.49973,0.12004
27183,2.9015,4,0.1,0.00056356,5631.8,0.00057061,5874.3,-0.0001417,522.23,-0.0002113,-0.7384,0.10285
27184,2.9936,4.0909,0.1,0.00055391,5535.3,0.00056025,5748.9,-0.00014417,456.24,-0.00020498,-0.69097,0.10833
27185,2.7172,4,0.1,0.00057979,5793.9,0.00058703,6043.3,-0.00014575,537.45,-0.00021742,-1.0385,0.091711
27186,2.8093,4.0909,0.1,0.00056735,5669.6,0.00057382,5887.8,-0.00014773,466.4,-0.00020993,-0.97122,0.096994
27187,2.5329,4,0.1,0.00059971,5993,0.00060705,6244.8,-0.00015191,542.26,-0.00022428,-1.5044,0.080973
27188,2.6251,4.0909,0.1,0.00058351,5831.1,0.00059002,6049.7,-0.00015301,466.88,-0.00021534,-1.393,0.08605
27189,2.3487,4,0.1,0.00062473,6243,0.000632,6489.8,-0.0001612,530.02,-0.00023204,-2.2312,0.070647
27190,2.4408,4.0909,0.1,0.00060341,6030,0.00060978,6242,-0.00016085,451.8,-0.00022126,-2.0939,0.075507
27191,2.1644,4,0.1,0.00065703,6565.8,0.00066391,6795,-0.00017523,490.04,-0.00024094,-3.6839,0.06075
27192,2.2565,4.0909,0.1,0.00062859,6281.5,0.0006345,6475.5,-0.00017252,411.8,-0.00022777,-3.2984,0.065378
27193,1.9801,4,0.1,0.00070015,6996.7,0.00070603,7187,-0.00019659,405.11,-0.00025134,-6.3193,0.0513
27194,2.0723,4.0909,0.1,0.00066152,6610.6,0.0006664,6766.8,-0.00019006,331.68,-0.00023504,-6.2319,0.055679
27195,1.7959,4,0.1,0.00076063,7601,0.00076418,7712.3,-0.0002293,247.59,-0.00026468,-18.183,0.042323
27196,1.888,4.0909,0.1,0.0007063,7058.1,0.00070903,7142.9,-0.00021638,189.68,-0.00024371,-15.632,0.046427
27197,1.6116,4,0.1,0.00085088,8503,0.00084952,8465.7,-0.00026966,56.648,-0.00029425,-128.12,0.033851
27198,1.7037,4.0909,0.1,0.00077081,7702.8,0.00076894,7650.5,-0.0002448,33.645,-0.0002673,-135.4,0.037648
27199,1.4273,4,0.1,0.0010027,10020,0.00098867,9640.2,-0.00029787,-26.327,-0.00038751,-699.84,0.025929
27200,1.5195,4.0909,0.1,0.00086994,8693.4,0.00085829,8384.4,-0.00025447,23.566,-0.00033841,-607.1,0.02937
27201,1.2431,4,0.1,0.0013737,13727,0.0013225,12600,-0.0003016,397.79,-0.00065558,-2261.9,0.018626
27202,1.3352,4.0909,0.1,0.0010468,10460,0.0010089,9522.7,-0.00026549,-52.196,-0.00047699,-1641.4,0.021636
27203,1.1509,4.0909,0.1,0.0015083,15072,0.0013848,12597,-0.00022005,538.66,-0.00086415,-4300.8,0.014512
27204,1.0588,4,0.1,0.0024225,24209,0.002322,21975,-0.0005261,575.02,-0.001175,-4300.8,0.012077
27205,23.724,4.1818,0.1,1.8948e-05,189.35,1.0968e-05,59.111,3.073e-06,-0.20793,-1.7236e-05,-152.8,2.8893
27206,23.816,4.2727,0.1,1.7785e-05,177.73,9.0989e-06,39.902,3.7652e-06,-0.17346,-1.6767e-05,-154.45,2.9049
27207,23.908,4.1818,0.1,1.7499e-05,174.86,7.6371e-06,22.486,4.588e-06,-0.42377,-1.701e-05,-162.7,2.9205
27208,23.539,4.1818,0.1,2.095e-05,209.36,1.4493e-05,97.672,1.4651e-06,-0.21755,-1.7498e-05,-142.7,2.8583
27209,23.631,4.2727,0.1,1.9553e-05,195.39,1.2608e-05,78.32,2.1421e-06,-0.31398,-1.7e-05,-144.14,2.8738
27210,23.355,4.1818,0.1,2.3338e-05,233.22,1.8025e-05,136.15,-1.1133e-07,-0.12305,-1.7816e-05,-133.15,2.8272
27211,23.447,4.2727,0.1,2.1777e-05,217.62,1.6125e-05,116.77,5.6646e-07,-0.13198,-1.7293e-05,-134.32,2.8427
27212,23.171,4.1818,0.1,2.6012e-05,259.94,2.1569e-05,174.52,-1.6709e-06,-0.10094,-1.8191e-05,-124.22,2.7961
27213,23.263,4.2727,0.1,2.4336e-05,243.19,1.9657e-05,155.09,-9.9878e-07,-0.11574,-1.7645e-05,-125.19,2.8116
27214,22.987,4.1818,0.1,2.8901e-05,288.81,2.5129e-05,212.85,-3.2095e-06,-0.078792,-1.8624e-05,-115.9,2.765
27215,23.079,4.2727,0.1,2.7143e-05,271.24,2.3205e-05,193.36,-2.5405e-06,-0.085071,-1.8059e-05,-116.68,2.7805
27216,22.802,4.1818,0.1,3.1956e-05,319.34,2.8711e-05,251.2,-4.7301e-06,-0.065776,-1.9116e-05,-108.16,2.734
27217,22.894,4.2727,0.1,3.0138e-05,301.17,2.6775e-05,231.64,-4.0635e-06,-0.0705,-1.8535e-05,-108.8,2.7495
27218,22.618,4.1818,0.1,3.5143e-05,351.19,3.2318e-05,289.61,-6.2346e-06,-0.055717,-1.9668e-05,-100.99,2.703
27219,22.71,4.2727,0.1,3.3282e-05,332.59,3.0372e-05,269.99,-5.5693e-06,-0.058646,-1.9072e-05,-101.51,2.7184
27220,22.434,4.1818,0.1,3.8438e-05,384.11,3.5953e-05,328.13,-7.725e-06,-0.048227,-2.0276e-05,-94.349,2.672
27221,22.526,4.2727,0.1,3.6545e-05,365.19,3.3997e-05,308.44,-7.0603e-06,-0.050215,-1.9669e-05,-94.791,2.6874
27222,22.249,4.1818,0.1,4.1823e-05,417.94,3.9618e-05,366.78,-9.2032e-06,-0.042309,-2.0938e-05,-88.214,2.641
27223,22.342,4.2727,0.1,3.9906e-05,398.78,3.7653e-05,347.02,-8.5384e-06,-0.043598,-2.0324e-05,-88.592,2.6564
27224,22.065,4.1818,0.1,4.5286e-05,452.54,4.3313e-05,405.57,-1.0671e-05,-0.037556,-2.1652e-05,-82.546,2.61
27225,22.157,4.2727,0.1,4.335e-05,433.2,4.1341e-05,385.76,-1.0006e-05,-0.038367,-2.1031e-05,-82.879,2.6255
27226,21.881,4.1818,0.1,4.8815e-05,487.82,4.7038e-05,444.53,-1.213e-05,-0.033649,-2.2415e-05,-77.31,2.5791
27227,21.973,4.2727,0.1,4.6865e-05,468.33,4.506e-05,424.66,-1.1464e-05,-0.034111,-2.1789e-05,-77.613,2.5945
27228,21.697,4.1818,0.1,5.2405e-05,523.69,5.0794e-05,483.67,-1.3582e-05,-0.03039,-2.3223e-05,-72.473,2.5482
27229,21.789,4.2727,0.1,5.0443e-05,504.08,4.8809e-05,463.74,-1.2914e-05,-0.030592,-2.2594e-05,-72.757,2.5636
27230,21.512,4.1818,0.1,5.6048e-05,560.1,5.4581e-05,522.98,-1.5027e-05,-0.02764,-2.4074e-05,-68.004,2.5174
27231,21.605,4.2727,0.1,5.4076e-05,540.39,5.259e-05,503,-1.4358e-05,-0.027646,-2.3442e-05,-68.276,2.5327
27232,21.328,4.1818,0.1,5.9741e-05,596.99,5.8397e-05,562.48,-1.6468e-05,-0.025291,-2.4965e-05,-63.873,2.4865
27233,21.42,4.2727,0.1,5.776e-05,577.2,5.64e-05,542.44,-1.5797e-05,-0.025155,-2.433e-05,-64.138,2.5019
27234,21.144,4.1818,0.1,6.3478e-05,634.34,6.2242e-05,602.17,-1.7904e-05,-0.023258,-2.5894e-05,-60.052,2.4558
27235,21.236,4.2727,0.1,6.1489e-05,614.47,6.024e-05,582.08,-1.7232e-05,-0.023013,-2.5257e-05,-60.315,2.4711
27236,20.96,4.1818,0.1,6.7257e-05,672.1,6.6116e-05,642.05,-1.9338e-05,-0.021484,-2.6857e-05,-56.518,2.425
27237,21.052,4.2727,0.1,6.5261e-05,652.16,6.4109e-05,621.9,-1.8664e-05,-0.021159,-2.6218e-05,-56.781,2.4403
27238,20.775,4.1818,0.1,7.1075e-05,710.26,7.0019e-05,682.13,-2.0769e-05,-0.019927,-2.7853e-05,-53.247,2.3943
27239,20.867,4.2727,0.1,6.9072e-05,690.24,6.8005e-05,661.92,-2.0093e-05,-0.019533,-2.7213e-05,-53.511,2.4096
27240,20.591,4.1818,0.1,7.493e-05,748.78,7.3949e-05,722.4,-2.2199e-05,-0.018558,-2.888e-05,-50.219,2.3637
27241,20.683,4.2727,0.1,7.292e-05,728.69,7.1929e-05,702.13,-2.1521e-05,-0.018113,-2.8238e-05,-50.484,2.3789
27242,20.407,4.1818,0.1,7.8821e-05,787.66,7.7907e-05,762.88,-2.3628e-05,-0.017341,-2.9936e-05,-47.414,2.3331
27243,20.499,4.2727,0.1,7.6803e-05,767.5,7.588e-05,742.54,-2.2948e-05,-0.016863,-2.9292e-05,-47.681,2.3483
27244,20.223,4.1818,0.1,8.2745e-05,826.88,8.1891e-05,803.55,-2.5057e-05,-0.01625,-3.102e-05,-44.815,2.3026
27245,20.315,4.2727,0.1,8.072e-05,806.64,7.9858e-05,783.15,-2.4374e-05,-0.015746,-3.0373e-05,-45.084,2.3177
27246,20.038,4.1818,0.1,8.6701e-05,866.41,8.5902e-05,844.42,-2.6486e-05,-0.015263,-3.2128e-05,-42.406,2.2721
27247,20.13,4.2727,0.1,8.4669e-05,846.1,8.3862e-05,823.95,-2.5801e-05,-0.014744,-3.1479e-05,-42.676,2.2872
27248,19.854,4.1818,0.1,9.0689e-05,906.26,8.9938e-05,885.5,-2.7916e-05,-0.014371,-3.3261e-05,-40.172,2.2416
27249,19.946,4.2727,0.1,8.8648e-05,885.87,8.7891e-05,864.95,-2.7229e-05,-0.013831,-3.261e-05,-40.443,2.2568
27250,19.67,4.1818,0.1,9.4706e-05,946.41,9.4e-05,926.78,-2.9348e-05,-0.013572,-3.4417e-05,-38.1,2.2113
27251,19.762,4.2727,0.1,9.2658e-05,925.94,9.1946e-05,906.15,-2.8658e-05,-0.013017,-3.3763e-05,-38.371,2.2264
27252,19.485,4.1818,0.1,9.8753e-05,986.85,9.8087e-05,968.25,-3.0781e-05,-0.012847,-3.5594e-05,-36.176,2.181
27253,19.578,4.2727,0.1,9.6697e-05,966.3,9.6025e-05,947.56,-3.0089e-05,-0.012289,-3.4938e-05,-36.447,2.196
27254,19.301,4.1818,0.1,0.00010283,1027.6,0.0001022,1009.9,-3.2216e-05,-0.01218,-3.6792e-05,-34.39,2.1507
27255,19.393,4.2727,0.1,0.00010076,1006.9,0.00010013,989.16,-3.1521e-05,-0.01162,-3.6133e-05,-34.66,2.1658
27256,19.117,4.1818,0.1,0.00010693,1068.6,0.00010634,1051.8,-3.3654e-05,-0.01156,-3.8009e-05,-32.73,2.1206
27257,19.209,4.2727,0.1,0.00010486,1047.9,0.00010426,1031,-3.2957e-05,-0.011004,-3.7347e-05,-32.999,2.1355
27258,18.933,4.1818,0.1,0.00011106,1109.8,0.0001105,1093.9,-3.5095e-05,-0.01099,-3.9244e-05,-31.187,2.0905
27259,19.025,4.2727,0.1,0.00010898,1089,0.00010841,1073,-3.4395e-05,-0.010427,-3.858e-05,-31.454,2.1054
27260,18.748,4.1818,0.1,0.00011522,1151.4,0.00011468,1136.2,-3.6539e-05,-0.010478,-4.0497e-05,-29.75,2.0604
27261,18.841,4.2727,0.1,0.00011313,1130.5,0.00011259,1115.2,-3.5836e-05,-0.0099089,-3.9829e-05,-30.017,2.0753
27262,18.564,4.1818,0.1,0.0001194,1193.2,0.00011889,1178.7,-3.7986e-05,-0.010007,-4.1767e-05,-28.413,2.0305
27263,18.656,4.2727,0.1,0.0001173,1172.2,0.00011678,1157.6,-3.728e-05,-0.0094454,-4.1096e-05,-28.678,2.0454
27264,18.38,4.1818,0.1,0.00012361,1235.2,0.00012312,1221.4,-3.9437e-05,-0.0095627,-4.3052e-05,-27.166,2.0006
27265,18.472,4.2727,0.1,0.0001215,1214.1,0.00012101,1200.2,-3.8728e-05,-0.0090056,-4.2378e-05,-27.429,2.0154
27266,18.196,4.1818,0.1,0.00012784,1277.5,0.00012737,1264.3,-4.0892e-05,-0.0091409,-4.4352e-05,-26.002,1.9708
27267,18.288,4.2727,0.1,0.00012572,1256.3,0.00012525,1243,-4.0181e-05,-0.0085955,-4.3675e-05,-26.264,1.9856
27268,18.011,4.1818,0.1,0.00013209,1320,0.00013165,1307.4,-4.2352e-05,-0.0087487,-4.5666e-05,-24.915,1.9411
27269,18.103,4.2727,0.1,0.00012997,1298.8,0.00012952,1286,-4.1637e-05,-0.0081986,-4.4986e-05,-25.175,1.9559
27270,17.827,4.1818,0.1,0.00013637,1362.8,0.00013595,1350.7,-4.3815e-05,-0.0083996,-4.6995e-05,-23.897,1.9115
27271,17.919,4.2727,0.1,0.00013424,1341.5,0.00013381,1329.2,-4.3097e-05,-0.0078456,-4.6311e-05,-24.156,1.9262
27272,17.643,4.1818,0.1,0.00014068,1405.8,0.00014027,1394.2,-4.5283e-05,-0.0080747,-4.8336e-05,-22.942,1.882
27273,17.735,4.2727,0.1,0.00013853,1384.4,0.00013812,1372.6,-4.4563e-05,-0.0075332,-4.7649e-05,-23.2,1.8967
27274,17.459,4.1818,0.1,0.00014501,1449.1,0.00014462,1437.9,-4.6756e-05,-0.0077617,-4.969e-05,-22.046,1.8526
27275,17.551,4.2727,0.1,0.00014285,1427.5,0.00014246,1416.2,-4.6032e-05,-0.0072266,-4.9e-05,-22.303,1.8672
27276,17.274,4.1818,0.1,0.00014936,1492.5,0.00014898,1481.8,-4.8234e-05,-0.0074577,-5.1055e-05,-21.202,1.8233
27277,17.366,4.2727,0.1,0.00014719,1470.9,0.00014682,1460.1,-4.7507e-05,-0.0069369,-5.0362e-05,-21.46,1.8378
27278,17.09,4.1818,0.1,0.00015373,1536.2,0.00015337,1525.9,-4.9717e-05,-0.0071726,-5.2432e-05,-20.406,1.7941
27279,17.182,4.2727,0.1,0.00015156,1514.5,0.00015119,1504.1,-4.8987e-05,-0.0066459,-5.1736e-05,-20.664,1.8085
27280,16.906,4.1818,0.1,0.00015813,1580.2,0.00015778,1570.2,-5.1206e-05,-0.006923,-5.382e-05,-19.652,1.7649
27281,16.998,4.2727,0.1,0.00015594,1558.3,0.00015559,1548.3,-5.0472e-05,-0.0063929,-5.3121e-05,-19.911,1.7794
27282,16.721,4.1818,0.1,0.00016254,1624.3,0.00016221,1614.8,-5.2699e-05,-0.0066885,-5.5219e-05,-18.937,1.7359
27283,16.814,4.2727,0.1,0.00016035,1602.4,0.00016002,1592.7,-5.1962e-05,-0.0061724,-5.4517e-05,-19.198,1.7503
27284,16.537,4.1818,0.1,0.00016698,1668.7,0.00016667,1659.5,-5.4198e-05,-0.0064555,-5.6627e-05,-18.255,1.707
27285,16.629,4.2727,0.1,0.00016478,1646.7,0.00016446,1637.3,-5.3458e-05,-0.0059485,-5.5922e-05,-18.519,1.7213
27286,16.353,4.1818,0.1,0.00017144,1713.3,0.00017114,1704.4,-5.5703e-05,-0.0062232,-5.8045e-05,-17.604,1.6782
27287,16.445,4.2727,0.1,0.00016923,1691.2,0.00016892,1682.1,-5.496e-05,-0.0057312,-5.7337e-05,-17.87,1.6925
27288,16.169,4.1818,0.1,0.00017593,1758.1,0.00017563,1749.5,-5.7214e-05,-0.0060035,-5.9472e-05,-16.978,1.6496
27289,16.261,4.2727,0.1,0.00017371,1735.9,0.00017341,1727.2,-5.6467e-05,-0.0055066,-5.8762e-05,-17.249,1.6638
27290,15.984,4.1818,0.1,0.00018043,1803.1,0.00018015,1794.8,-5.873e-05,-0.0058149,-6.0909e-05,-16.375,1.621
27291,16.077,4.2727,0.1,0.0001782,1780.8,0.00017791,1772.4,-5.798e-05,-0.0053132,-6.0195e-05,-16.651,1.6352
27292,15.8,4.1818,0.1,0.00018496,1848.3,0.00018468,1840.3,-6.0252e-05,-0.0056363,-6.2353e-05,-15.79,1.5926
27293,15.892,4.2727,0.1,0.00018272,1825.9,0.00018244,1817.8,-5.9499e-05,-0.0051493,-6.1637e-05,-16.072,1.6067
27294,15.616,4.1818,0.1,0.0001895,1893.7,0.00018924,1886.1,-6.1781e-05,-0.0054539,-6.3806e-05,-15.22,1.5643
27295,15.708,4.2727,0.1,0.00018725,1871.2,0.00018698,1863.4,-6.1024e-05,-0.0049758,-6.3088e-05,-15.51,1.5783
27296,15.432,4.1818,0.1,0.00019407,1939.4,0.00019382,1932,-6.3316e-05,-0.0052637,-6.5266e-05,-14.662,1.5361
27297,15.524,4.2727,0.1,0.00019181,1916.8,0.00019155,1909.3,-6.2555e-05,-0.0048035,-6.4546e-05,-14.96,1.55
27298,15.247,4.1818,0.1,0.00019866,1985.2,0.00019841,1978.1,-6.4857e-05,-0.0050801,-6.6734e-05,-14.112,1.5081
27299,15.339,4.2727,0.1,0.00019639,1962.5,0.00019614,1955.3,-6.4093e-05,-0.0046129,-6.6011e-05,-14.42,1.5219
27300,15.063,4.1818,0.1,0.00020326,2031.2,0.00020303,2024.4,-6.6404e-05,-0.0049266,-6.8209e-05,-13.567,1.4802
27301,15.155,4.2727,0.1,0.00020099,2008.5,0.00020075,2001.5,-6.5637e-05,-0.0044536,-6.7484e-05,-13.887,1.4939
27302,14.879,4.1818,0.1,0.00020789,2077.5,0.00020767,2070.9,-6.7958e-05,-0.0047785,-6.9691e-05,-13.023,1.4524
27303,14.971,4.2727,0.1,0.0002056,2054.6,0.00020537,2047.9,-6.7187e-05,-0.0043229,-6.8964e-05,-13.357,1.4661
27304,14.695,4.1818,0.1,0.00021254,2123.9,0.00021232,2117.6,-6.9519e-05,-0.0046186,-7.1179e-05,-12.478,1.4248
27305,14.787,4.2727,0.1,0.00021024,2101,0.00021002,2094.5,-6.8744e-05,-0.0041727,-7.045e-05,-12.826,1.4384
27306,14.51,4.1818,0.1,0.0002172,2170.5,0.000217,2164.6,-7.1086e-05,-0.0044441,-7.2673e-05,-11.928,1.3973
27307,14.602,4.2727,0.1,0.0002149,2147.5,0.00021469,2141.3,-7.0307e-05,-0.0040184,-7.1943e-05,-12.293,1.4108
27308,14.326,4.1818,0.1,0.00022189,2217.4,0.0002217,2211.7,-7.266e-05,-0.004271,-7.4173e-05,-11.37,1.3699
27309,14.418,4.2727,0.1,0.00021958,2194.3,0.00021937,2188.4,-7.1878e-05,-0.0038389,-7.3442e-05,-11.753,1.3834
27310,14.142,4.1818,0.1,0.0002266,2264.4,0.00022641,2259,-7.4241e-05,-0.0041236,-7.5678e-05,-10.8,1.3427
27311,14.234,4.2727,0.1,0.00022427,2241.2,0.00022408,2235.6,-7.3455e-05,-0.0036858,-7.4946e-05,-11.203,1.3561
27312,13.957,4.1818,0.1,0.00023132,2311.6,0.00023114,2306.5,-7.583e-05,-0.0039747,-7.7189e-05,-10.215,1.3157
27313,14.05,4.2727,0.1,0.00022899,2288.3,0.00022881,2283,-7.5039e-05,-0.0035581,-7.6455e-05,-10.641,1.329
27314,13.773,4.1818,0.1,0.00023606,2359,0.0002359,2354.2,-7.7425e-05,-0.0038031,-7.8703e-05,-9.6108,1.2888
27315,13.865,4.2727,0.1,0.00023372,2335.6,0.00023355,2330.6,-7.663e-05,-0.0034,-7.7969e-05,-10.062,1.3021
27316,13.589,4.1818,0.1,0.00024083,2406.6,0.00024067,2402.1,-7.9027e-05,-0.0036042,-8.0222e-05,-8.9842,1.2621
27317,13.681,4.2727,0.1,0.00023848,2383.1,0.00023832,2378.4,-7.8229e-05,-0.0032267,-7.9488e-05,-9.4634,1.2753
27318,13.405,4.1818,0.1,0.00024561,2454.4,0.00024546,2450.2,-8.0637e-05,-0.0033924,-8.1745e-05,-8.3311,1.2355
27319,13.497,4.2727,0.1,0.00024325,2430.8,0.0002431,2426.4,-7.9834e-05,-0.0030139,-8.1011e-05,-8.8411,1.2486
27320,13.22,4.1818,0.1,0.0002504,2502.3,0.00025027,2498.5,-8.2254e-05,-0.0031894,-8.3272e-05,-7.6477,1.2092
27321,13.313,4.2727,0.1,0.00024804,2478.7,0.0002479,2474.6,-8.1447e-05,-0.0028131,-8.2537e-05,-8.1915,1.2221
27322,13.036,4.1818,0.1,0.00025522,2550.4,0.0002551,2547,-8.3879e-05,-0.0029566,-8.4801e-05,-6.9296,1.1829
27323,13.128,4.2727,0.1,0.00025285,2526.7,0.00025272,2523,-8.3068e-05,-0.0026188,-8.4067e-05,-7.5106,1.1958
27324,12.852,4.1818,0.1,0.00026005,2598.7,0.00025995,2595.6,-8.5512e-05,-0.0026583,-8.6333e-05,-6.1724,1.1569
27325,12.944,4.2727,0.1,0.00025768,2575,0.00025756,2571.6,-8.4696e-05,-0.0023585,-8.56e-05,-6.794,1.1697
27326,12.668,4.1818,0.1,0.0002649,2647.2,0.00026481,2644.5,-8.7152e-05,-0.002265,-8.7867e-05,-5.3713,1.131
27327,12.76,4.2727,0.1,0.00026252,2623.4,0.00026242,2620.4,-8.6332e-05,-0.0020341,-8.7135e-05,-6.0376,1.1437
27328,12.483,4.1818,0.1,0.00026977,2695.9,0.00026969,2693.6,-8.8801e-05,-0.0017422,-8.9402e-05,-4.5214,1.1053
27329,12.575,4.2727,0.1,0.00026738,2672,0.00026729,2669.3,-8.7976e-05,-0.0015873,-8.8673e-05,-5.2364,1.1179
27330,12.299,4.1818,0.1,0.00027466,2744.7,0.00027459,2742.9,-9.0457e-05,-0.0010083,-9.0939e-05,-3.6176,1.0798
27331,12.391,4.2727,0.1,0.00027226,2720.7,0.00027218,2718.5,-8.9628e-05,-0.0010169,-9.0212e-05,-4.3858,1.0923
27332,12.115,4.1818,0.1,0.00027956,2793.6,0.00027951,2792.3,-9.2122e-05,0.0002703,-9.2476e-05,-2.6545,1.0545
27333,12.207,4.2727,0.1,0.00027715,2769.6,0.00027709,2767.9,-9.1288e-05,-0.00018138,-9.1751e-05,-3.4806,1.0669
27334,11.931,4.1818,0.1,0.00028447,2842.8,0.00028445,2842,-9.3796e-05,0.0032457,-9.4013e-05,-1.6272,1.0294
27335,12.023,4.2727,0.1,0.00028206,2818.7,0.00028202,2817.4,-9.2957e-05,0.0013752,-9.3291e-05,-2.5154,1.0417
27336,11.746,4.1818,0.1,0.00028941,2892.1,0.0002894,2891.8,-9.5476e-05,0.018531,-9.555e-05,-0.53965,1.0044
27337,11.838,4.2727,0.1,0.00028699,2867.9,0.00028697,2867.2,-9.4633e-05,0.0051853,-9.4832e-05,-1.4859,1.0167
27338,11.562,4.1818,0.1,0.00029435,2941.5,0.00029437,2941.8,-9.7079e-05,0.68273,-9.7173e-05,-0.021722,0.97967
27339,11.654,4.2727,0.1,0.00029193,2917.3,0.00029193,2917.1,-9.6316e-05,0.029964,-9.6374e-05,-0.40414,0.99181
27340,11.378,4.1818,0.1,0.00029932,2991.1,0.00029935,2992.1,-9.8612e-05,1.94,-9.8872e-05,-0.010234,0.95513
27341,11.47,4.2727,0.1,0.00029689,2966.9,0.00029691,2967.3,-9.7904e-05,0.83221,-9.8018e-05,-0.019977,0.96716
27342,11.193,4.1818,0.1,0.00030429,3040.8,0.00030435,3042.5,-0.00010014,3.3009,-0.00010058,-0.007609,0.93079
27343,11.286,4.2727,0.1,0.00030187,3016.6,0.0003019,3017.6,-9.944e-05,2.0961,-9.972e-05,-0.01021,0.94271
27344,11.009,4.1818,0.1,0.00030928,3090.7,0.00030937,3093.1,-0.00010167,4.7665,-0.0001023,-0.0064057,0.90666
27345,11.101,4.2727,0.1,0.00030685,3066.4,0.00030691,3068.1,-0.00010097,3.4627,-0.00010143,-0.0076141,0.91847
27346,10.825,4.1818,0.1,0.00031429,3140.7,0.0003144,3143.9,-0.00010318,6.3451,-0.00010403,-0.0056763,0.88273
27347,10.917,4.2727,0.1,0.00031185,3116.4,0.00031194,3118.9,-0.0001025,4.9344,-0.00010316,-0.0063879,0.89444
27348,10.641,4.1818,0.1,0.00031931,3190.9,0.00031944,3194.9,-0.0001047,8.0464,-0.00010577,-0.0051778,0.85902
27349,10.733,4.2727,0.1,0.00031687,3166.5,0.00031698,3169.8,-0.00010402,6.5198,-0.00010489,-0.0056237,0.87062
27350,10.456,4.1818,0.1,0.00032433,3241.1,0.0003245,3246,-0.0001062,9.8808,-0.00010752,-0.0048426,0.83553
27351,10.549,4.2727,0.1,0.0003219,3216.8,0.00032204,3220.9,-0.00010554,8.2282,-0.00010663,-0.0051374,0.84701
27352,10.272,4.1818,0.1,0.00032938,3291.5,0.00032958,3297.4,-0.0001077,11.86,-0.00010928,-0.0045768,0.81225
27353,10.364,4.2727,0.1,0.00032694,3267.1,0.00032711,3272.1,-0.00010705,10.07,-0.00010839,-0.0048194,0.82363
27354,10.088,4.1818,0.1,0.00033443,3342,0.00033466,3348.9,-0.00010919,13.996,-0.00011105,-0.0043403,0.7892
27355,10.18,4.2727,0.1,0.00033199,3317.6,0.00033219,3323.6,-0.00010855,12.057,-0.00011015,-0.0045336,0.80046
27356,9.9036,4.1818,0.1,0.00033949,3392.5,0.00033976,3400.7,-0.00011067,16.302,-0.00011284,-0.0041431,0.76638
27357,9.9957,4.2727,0.1,0.00033705,3368.2,0.00033729,3375.3,-0.00011004,14.202,-0.00011193,-0.0043108,0.77752
27358,9.7193,4.1818,0.1,0.00034456,3443.2,0.00034487,3452.6,-0.00011213,18.793,-0.00011463,-0.0039672,0.74379
27359,9.8115,4.2727,0.1,0.00034212,3418.9,0.0003424,3427.1,-0.00011152,16.516,-0.00011372,-0.0041278,0.75481
27360,9.5351,4.1818,0.1,0.00034964,3494,0.00035,3504.6,-0.00011358,21.484,-0.00011644,-0.0038096,0.72143
27361,9.6272,4.2727,0.1,0.00034721,3469.7,0.00034752,3479.1,-0.00011299,19.015,-0.00011552,-0.0039651,0.73233
27362,9.3508,4.1818,0.1,0.00035472,3544.8,0.00035513,3556.9,-0.00011502,24.391,-0.00011827,-0.00367,0.69931
27363,9.4429,4.2727,0.1,0.0003523,3520.5,0.00035266,3531.3,-0.00011444,21.714,-0.00011733,-0.0038325,0.71009
27364,9.1665,4.1818,0.1,0.00035982,3595.7,0.00036028,3609.4,-0.00011644,27.533,-0.0001201,-0.0035425,0.67743
27365,9.2587,4.2727,0.1,0.00035739,3571.5,0.00035781,3583.7,-0.00011588,24.629,-0.00011916,-0.0037171,0.68808
27366,8.9823,4.1818,0.1,0.00036492,3646.6,0.00036543,3662,-0.00011783,30.928,-0.00012195,-0.0034272,0.6558
27367,9.0744,4.2727,0.1,0.0003625,3622.5,0.00036296,3636.3,-0.0001173,27.777,-0.000121,-0.0036192,0.66632
27368,8.798,4.1818,0.1,0.00037002,3697.6,0.00037059,3714.8,-0.00011921,34.597,-0.00012382,-0.0033239,0.63441
27369,8.8901,4.2727,0.1,0.00036761,3673.6,0.00036813,3689.1,-0.0001187,31.177,-0.00012285,-0.0035379,0.64481
27370,8.6137,4.1818,0.1,0.00037513,3748.7,0.00037577,3767.8,-0.00012056,38.562,-0.0001257,-0.0032335,0.61327
27371,8.7059,4.2727,0.1,0.00037273,3724.7,0.00037331,3742,-0.00012008,34.849,-0.00012472,-0.0034741,0.62354
27372,8.4295,4.1818,0.1,0.00038023,3799.7,0.00038094,3821,-0.00012189,42.846,-0.00012759,-0.0031579,0.59239
27373,8.5216,4.2727,0.1,0.00037785,3775.9,0.00037849,3795.1,-0.00012144,38.814,-0.00012661,-0.0034289,0.60253
27374,8.2452,4.1818,0.1,0.00038534,3850.8,0.00038613,3874.3,-0.00012319,47.475,-0.00012951,-0.0031005,0.57177
27375,8.3373,4.2727,0.1,0.00038297,3827.1,0.00038369,3848.4,-0.00012277,43.094,-0.00012851,-0.0034058,0.58178
27376,8.0609,4.1818,0.1,0.00039046,3901.9,0.00039132,3927.8,-0.00012446,52.475,-0.00013144,-0.0030657,0.55141
27377,8.1531,4.2727,0.1,0.0003881,3878.3,0.00038889,3901.9,-0.00012408,47.714,-0.00013043,-0.0034091,0.56128
27378,7.8767,4.1818,0.1,0.00039556,3952.9,0.00039652,3981.5,-0.00012569,57.874,-0.00013339,-0.0030593,0.53132
27379,7.9688,4.2727,0.1,0.00039322,3929.5,0.00039409,3955.6,-0.00012535,52.699,-0.00013237,-0.0034441,0.54105
27380,7.6924,4.1818,0.1,0.00040067,4004,0.00040172,4035.4,-0.00012689,63.702,-0.00013536,-0.0030895,0.51149
27381,7.7845,4.2727,0.1,0.00039835,3980.7,0.0003993,4009.4,-0.00012659,58.075,-0.00013432,-0.0035196,0.52109
27382,7.5081,4.1818,0.1,0.00040578,4055,0.00040692,4089.5,-0.00012804,69.991,-0.00013736,-0.0031672,0.49194
27383,7.6003,4.2727,0.1,0.00040347,4031.9,0.00040452,4063.5,-0.0001278,63.869,-0.0001363,-0.0036457,0.5014
27384,7.3239,4.1818,0.1,0.00041088,4105.9,0.00041213,4143.8,-0.00012916,76.774,-0.00013937,-0.0033067,0.47267
27385,7.416,4.2727,0.1,0.0004086,4083.1,0.00040974,4117.7,-0.00012896,70.11,-0.00013829,-0.0038361,0.48198
27386,7.1396,4.1818,0.1,0.00041597,4156.9,0.00041734,4198.3,-0.00013022,84.086,-0.00014142,-0.003526,0.45367
27387,7.2317,4.2727,0.1,0.00041372,4134.3,0.00041497,4172.2,-0.00013009,76.829,-0.00014031,-0.0041083,0.46285
27388,6.9553,4.1818,0.1,0.00042106,4207.7,0.00042255,4252.9,-0.00013124,91.962,-0.00014348,-0.0038491,0.43496
27389,7.0475,4.2727,0.1,0.00041883,4185.4,0.0004202,4226.8,-0.00013117,84.054,-0.00014236,-0.004486,0.44399
27390,6.7711,4.1818,0.1,0.00042615,4258.5,0.00042777,4307.9,-0.00013221,100.44,-0.00014558,-0.0043079,0.41653
27391,6.8632,4.2727,0.1,0.00042395,4236.5,0.00042543,4281.7,-0.00013221,91.817,-0.00014443,-0.0049982,0.42542
27392,6.5868,4.1818,0.1,0.00043123,4309.3,0.00043299,4363,-0.00013312,109.55,-0.0001477,-0.004943,0.3984
27393,6.6789,4.2727,0.1,0.00042906,4287.6,0.00043067,4336.8,-0.00013319,100.15,-0.00014652,-0.0056843,0.40714
27394,6.4025,4.1818,0.1,0.00043631,4360.1,0.00043821,4418.5,-0.00013397,119.34,-0.00014985,-0.0058076,0.38056
27395,6.4947,4.2727,0.1,0.00043416,4338.6,0.00043592,4392.2,-0.00013413,109.08,-0.00014864,-0.0065939,0.38915
27396,6.2183,4.1818,0.1,0.00044138,4410.8,0.00044345,4474.3,-0.00013476,129.85,-0.00015204,-0.0069725,0.36301
27397,6.3104,4.2727,0.1,0.00043927,4389.7,0.00044117,4447.8,-0.00013501,118.63,-0.0001508,-0.0077932,0.37145
27398,6.034,4.1818,0.1,0.00044646,4461.5,0.00044869,4530.4,-0.00013549,141.1,-0.00015427,-0.0085295,0.34577
27399,6.1261,4.2727,0.1,0.00044438,4440.7,0.00044643,4503.7,-0.00013583,128.83,-0.00015298,-0.0093675,0.35406
27400,5.8497,4.1818,0.1,0.00045154,4512.3,0.00045395,4586.9,-0.00013615,153.13,-0.00015653,-0.0106,0.32883
27401,5.9419,4.2727,0.1,0.00044949,4491.8,0.00045171,4560,-0.00013661,139.7,-0.0001552,-0.01143,0.33697
27402,5.6655,4.1818,0.1,0.00045664,4563.3,0.00045924,4644,-0.00013675,165.96,-0.00015884,-0.013346,0.3122
27403,5.7576,4.2727,0.1,0.00045462,4543,0.000457,4616.8,-0.00013732,151.26,-0.00015745,-0.014128,0.32018
27404,5.4812,4.1818,0.1,0.00046176,4614.4,0.00046456,4701.6,-0.00013729,179.62,-0.00016119,-0.016982,0.29589
27405,5.5733,4.2727,0.1,0.00045975,4594.4,0.00046232,4673.9,-0.00013798,163.5,-0.00015975,-0.017658,0.30371
27406,5.2969,4.1818,0.1,0.00046692,4666,0.00046992,4760,-0.00013776,194.13,-0.0001636,-0.021792,0.27988
27407,5.3891,4.2727,0.1,0.00046492,4646,0.00046767,4731.7,-0.0001386,176.44,-0.00016208,-0.022283,0.28755
27408,5.1127,4.1818,0.1,0.00047212,4718,0.00047534,4819.2,-0.00013818,209.47,-0.00016606,-0.028161,0.2642
27409,5.2048,4.2727,0.1,0.00047012,4698,0.00047306,4790.1,-0.00013916,190.05,-0.00016446,-0.028353,0.27171
27410,4.9284,4.1818,0.1,0.0004774,4770.7,0.00048084,4879.5,-0.00013855,225.63,-0.00016859,-0.036608,0.24884
27411,5.0205,4.2727,0.1,0.00047538,4750.5,0.00047852,4849.3,-0.00013969,204.29,-0.00016689,-0.036339,0.25619
27412,4.7441,4.1818,0.1,0.00048278,4824.5,0.00048645,4941.1,-0.00013889,242.58,-0.00017119,-0.047833,0.23381
27413,4.8363,4.2727,0.1,0.0004807,4803.7,0.00048405,4909.5,-0.0001402,219.12,-0.00016937,-0.04688,0.24099
27414,4.5599,4.1818,0.1,0.00048829,4879.5,0.0004922,5004.4,-0.00013922,260.25,-0.00017386,-0.062794,0.2191
27415,4.652,4.2727,0.1,0.00048613,4857.9,0.00048969,4970.9,-0.00014069,234.43,-0.0001719,-0.060849,0.22612
27416,4.3756,4.1818,0.1,0.00049398,4936.4,0.00049813,5069.7,-0.00013954,278.52,-0.00017662,-0.082805,0.20474
27417,4.4677,4.2727,0.1,0.00049168,4913.4,0.00049546,5033.7,-0.00014119,250.12,-0.00017449,-0.079442,0.21159
27418,4.1913,4.1818,0.1,0.00049991,4995.7,0.0005043,5137.6,-0.00013991,297.23,-0.00017948,-0.10968,0.19071
27419,4.2835,4.2727,0.1,0.00049741,4970.7,0.0005014,5098.3,-0.00014174,265.99,-0.00017715,-0.10432,0.19739
27420,4.0071,4.1818,0.1,0.00050615,5058,0.00051079,5208.6,-0.00014036,316.16,-0.00018246,-0.14597,0.17702
27421,4.0992,4.2727,0.1,0.00050336,5030.1,0.00050756,5165,-0.00014236,281.82,-0.00017988,-0.13781,0.18353
27422,3.8228,4.1818,0.1,0.0005128,5124.4,0.00051767,5283.6,-0.00014095,334.97,-0.00018556,-0.19527,0.16368
27423,3.9149,4.2727,0.1,0.00050959,5092.4,0.00051399,5234.4,-0.0001431,297.27,-0.00018269,-0.18321,0.17002
27424,3.6385,4.1818,0.1,0.00051996,5196,0.00052506,5363.5,-0.00014177,353.18,-0.00018881,-0.26275,0.15069
27425,3.7307,4.2727,0.1,0.00051619,5158.4,0.00052079,5307.1,-0.00014404,311.89,-0.00018558,-0.24526,0.15685
27426,3.4543,4.1818,0.1,0.0005278,5274.4,0.00053311,5449.5,-0.00014291,370.11,-0.00019221,-0.35604,0.13805
27427,3.5464,4.2727,0.1,0.00052327,5229.1,0.00052803,5383.8,-0.00014525,325.05,-0.00018856,-0.33099,0.14404
27428,3.27,4.1818,0.1,0.00053651,5361.4,0.00054201,5543.2,-0.00014453,384.76,-0.00019581,-0.48677,0.12578
27429,3.3621,4.2727,0.1,0.00053094,5305.8,0.00053585,5465.5,-0.00014686,335.88,-0.00019162,-0.45104,0.13159
27430,3.0857,4.1818,0.1,0.00054637,5459.9,0.000552,5646.6,-0.00014685,395.68,-0.0001996,-0.67339,0.11388
27431,3.1779,4.2727,0.1,0.0005394,5390.3,0.00054441,5553.3,-0.00014903,343.11,-0.00019478,-0.62245,0.11951
27432,2.9015,4.1818,0.1,0.00055772,5573.3,0.00056343,5762.3,-0.00015016,400.64,-0.00020361,-0.94781,0.10235
27433,2.9936,4.2727,0.1,0.00054889,5485.1,0.00055392,5648.9,-0.000152,344.87,-0.00019802,-0.87376,0.10779
27434,2.7172,4.1818,0.1,0.00057107,5706.8,0.00057675,5893.9,-0.00015493,396.27,-0.00020785,-1.3678,0.09121
27435,2.8093,4.2727,0.1,0.00055973,5593.4,0.00056469,5754.2,-0.00015612,338.36,-0.00020132,-1.259,0.096448
27436,2.5329,4.1818,0.1,0.00058718,5867.8,0.00059265,6046.2,-0.00016185,377.22,-0.00021232,-2.0633,0.080457
27437,2.6251,4.2727,0.1,0.00057243,5720.3,0.00057715,5872.3,-0.00016191,319.23,-0.00020465,-1.8877,0.085492
27438,2.3487,4.1818,0.1,0.00060718,6067.6,0.00061212,6226.4,-0.00017198,335,-0.00021701,-3.3439,0.070106
27439,2.4408,4.2727,0.1,0.00058774,5873.4,0.00059195,6007.1,-0.00017018,280.68,-0.00020794,-3.0598,0.074927
27440,2.1644,4.1818,0.1,0.0006329,6324.6,0.00063673,6445.3,-0.00018701,256.02,-0.00022194,-6.4233,0.060169
27441,2.2565,4.2727,0.1,0.00060687,6064.5,0.00061009,6164.8,-0.00018216,212.17,-0.00021116,-5.7589,0.064763
27442,1.9801,4.1818,0.1,0.00066737,6669.1,0.00066902,6719.8,-0.0002089,123.43,-0.00022796,-19.76,0.05066
27443,2.0723,4.2727,0.1,0.0006318,6313.7,0.00063315,6354.8,-0.00019911,101.59,-0.00021497,-17.591,0.055011
27444,1.7959,4.1818,0.1,0.00071611,7156.1,0.0007133,7077.4,-0.00022578,21.605,-0.00025194,-175,0.041596
27445,1.888,4.2727,0.1,0.00066587,6654.1,0.00066364,6591.5,-0.00021108,19.15,-0.00023245,-141.43,0.045682
27446,1.6116,4.1818,0.1,0.00078962,7890.8,0.00077731,7566.2,-0.00022807,12.164,-0.0003126,-622.97,0.032997
27447,1.7037,4.2727,0.1,0.00071542,7149.2,0.000706,6897.3,-0.00021098,7.4557,-0.00027663,-485.87,0.036789
27448,1.4273,4.1818,0.1,0.00091629,9156.6,0.00087973,8276.4,-0.00022188,-0.76612,-0.00042935,-1559.6,0.024888
27449,1.5195,4.2727,0.1,0.00079094,7903.9,0.0007666,7303.2,-0.00020341,14.88,-0.00035157,-1098.3,0.028346
27450,1.2431,4.1818,0.1,0.0011877,11869,0.0010782,9571.6,-0.00018279,97.32,-0.00069369,-3741.4,0.017294
27451,1.3352,4.2727,0.1,0.00092546,9248.3,0.00086405,7866.1,-0.00018449,-12.229,-0.00049115,-2316.4,0.020363
27452,1.1509,4.2727,0.1,0.0012157,12149,0.0010504,8884.4,-0.00011979,92.03,-0.00079457,-4978,0.012835
27453,1.0588,4.1818,0.1,0.0012203,12195,0.0009816,7937.1,-1.3324e-05,461.59,-0.00089125,-6134.8,0.010238
27454,23.724,4.3636,0.1,1.827e-05,182.57,1.0729e-05,59.041,2.8449e-06,-0.19941,-1.6533e-05,-145.79,2.8893
27455,23.816,4.4545,0.1,1.7039e-05,170.27,8.8485e-06,39.923,3.5139e-06,-0.15933,-1.6005e-05,-146.82,2.9048
27456,23.908,4.3636,0.1,1.6794e-05,167.83,7.4052e-06,22.514,4.3528e-06,-0.42069,-1.63e-05,-155.6,2.9204
27457,23.539,4.3636,0.1,2.0297e-05,202.83,1.4239e-05,97.412,1.2456e-06,-0.21202,-1.6797e-05,-135.77,2.8582
27458,23.631,4.4545,0.1,1.8828e-05,188.15,1.2337e-05,78.117,1.8992e-06,-0.30642,-1.6235e-05,-136.56,2.8737
27459,23.355,4.3636,0.1,2.2719e-05,227.03,1.7758e-05,135.72,-3.2019e-07,-0.11864,-1.7124e-05,-126.38,2.8271
27460,23.447,4.4545,0.1,2.1087e-05,210.72,1.5839e-05,116.36,3.3478e-07,-0.12655,-1.6536e-05,-126.88,2.8426
27461,23.171,4.3636,0.1,2.5429e-05,254.12,2.1295e-05,173.94,-1.868e-06,-0.096976,-1.7516e-05,-117.67,2.796
27462,23.263,4.4545,0.1,2.3685e-05,236.69,1.9361e-05,154.51,-1.2176e-06,-0.11092,-1.6904e-05,-117.97,2.8115
27463,22.987,4.3636,0.1,2.8356e-05,283.36,2.4854e-05,212.17,-3.3943e-06,-0.075131,-1.7973e-05,-109.61,2.7649
27464,23.079,4.4545,0.1,2.6534e-05,265.16,2.2905e-05,192.65,-2.7456e-06,-0.080701,-1.7342e-05,-109.75,2.7804
27465,22.802,4.3636,0.1,3.1449e-05,314.27,2.8439e-05,250.45,-4.9025e-06,-0.062314,-1.8494e-05,-102.18,2.7339
27466,22.894,4.4545,0.1,2.9573e-05,295.53,2.6478e-05,230.85,-4.2548e-06,-0.066401,-1.7848e-05,-102.2,2.7494
27467,22.618,4.3636,0.1,3.4675e-05,346.51,3.2054e-05,288.84,-6.3949e-06,-0.052405,-1.9078e-05,-95.347,2.7029
27468,22.71,4.4545,0.1,3.2761e-05,327.38,3.0082e-05,269.15,-5.747e-06,-0.054747,-1.8422e-05,-95.288,2.7183
27469,22.434,4.3636,0.1,3.8008e-05,379.82,3.5701e-05,327.36,-7.8736e-06,-0.045035,-1.9721e-05,-89.065,2.6719
27470,22.526,4.4545,0.1,3.6067e-05,360.43,3.3721e-05,307.6,-7.2249e-06,-0.046474,-1.9058e-05,-88.957,2.6873
27471,22.249,4.3636,0.1,4.1431e-05,414.03,3.9381e-05,366.04,-9.3409e-06,-0.039223,-2.0421e-05,-83.291,2.6409
27472,22.342,4.4545,0.1,3.9471e-05,394.44,3.7393e-05,346.21,-8.6908e-06,-0.039996,-1.9753e-05,-83.16,2.6563
27473,22.065,4.3636,0.1,4.493e-05,448.99,4.3092e-05,404.88,-1.0799e-05,-0.034569,-2.1173e-05,-77.982,2.6099
27474,22.157,4.4545,0.1,4.2956e-05,429.27,4.1099e-05,385,-1.0147e-05,-0.034894,-2.0503e-05,-77.846,2.6253
27475,21.881,4.3636,0.1,4.8495e-05,484.62,4.6836e-05,443.9,-1.2248e-05,-0.030756,-2.1973e-05,-73.097,2.579
27476,21.973,4.4545,0.1,4.6511e-05,464.78,4.4837e-05,423.97,-1.1594e-05,-0.030761,-2.1302e-05,-72.969,2.5944
27477,21.697,4.3636,0.1,5.2118e-05,520.82,5.061e-05,483.11,-1.3691e-05,-0.027592,-2.2817e-05,-68.597,2.5481
27478,21.789,4.4545,0.1,5.0125e-05,500.91,4.8607e-05,463.13,-1.3035e-05,-0.027364,-2.2146e-05,-68.486,2.5635
27479,21.512,4.3636,0.1,5.5792e-05,557.53,5.4415e-05,522.5,-1.5129e-05,-0.024936,-2.3703e-05,-64.449,2.5173
27480,21.605,4.4545,0.1,5.3793e-05,537.56,5.2408e-05,502.47,-1.447e-05,-0.024535,-2.3033e-05,-64.361,2.5326
27481,21.328,4.3636,0.1,5.9513e-05,594.72,5.8249e-05,562.08,-1.6562e-05,-0.022678,-2.4627e-05,-60.621,2.4864
27482,21.42,4.4545,0.1,5.7509e-05,574.69,5.6238e-05,542,-1.5901e-05,-0.022159,-2.3958e-05,-60.558,2.5018
27483,21.144,4.3636,0.1,6.3277e-05,632.33,6.2112e-05,601.85,-1.7992e-05,-0.020735,-2.5586e-05,-57.084,2.4556
27484,21.236,4.4545,0.1,6.1268e-05,612.25,6.0097e-05,581.72,-1.7328e-05,-0.020129,-2.4918e-05,-57.048,2.471
27485,20.96,4.3636,0.1,6.7081e-05,670.35,6.6003e-05,641.81,-1.9419e-05,-0.019046,-2.6579e-05,-53.814,2.4249
27486,21.052,4.4545,0.1,6.5067e-05,650.22,6.3984e-05,621.64,-1.8753e-05,-0.018381,-2.5912e-05,-53.805,2.4402
27487,20.775,4.3636,0.1,7.0922e-05,708.73,6.9921e-05,681.96,-2.0845e-05,-0.017571,-2.7602e-05,-50.789,2.3942
27488,20.867,4.4545,0.1,6.8903e-05,688.55,6.7898e-05,661.74,-2.0176e-05,-0.016857,-2.6936e-05,-50.806,2.4095
27489,20.591,4.3636,0.1,7.4798e-05,747.47,7.3866e-05,722.31,-2.227e-05,-0.016282,-2.8654e-05,-47.987,2.3636
27490,20.683,4.4545,0.1,7.2774e-05,727.24,7.1838e-05,702.03,-2.1598e-05,-0.015534,-2.7989e-05,-48.029,2.3788
27491,20.407,4.3636,0.1,7.8708e-05,786.54,7.7837e-05,762.85,-2.3694e-05,-0.015142,-2.9733e-05,-45.392,2.333
27492,20.499,4.4545,0.1,7.6678e-05,766.26,7.5804e-05,742.51,-2.302e-05,-0.014377,-2.9068e-05,-45.456,2.3482
27493,20.223,4.3636,0.1,8.265e-05,825.93,8.1834e-05,803.59,-2.5119e-05,-0.014123,-3.0838e-05,-42.985,2.3024
27494,20.315,4.4545,0.1,8.0615e-05,805.59,7.9795e-05,783.18,-2.4442e-05,-0.013348,-3.0173e-05,-43.071,2.3176
27495,20.038,4.3636,0.1,8.6622e-05,865.62,8.5856e-05,844.52,-2.6544e-05,-0.013204,-3.1966e-05,-40.753,2.2719
27496,20.13,4.4545,0.1,8.4581e-05,845.23,8.3812e-05,824.05,-2.5864e-05,-0.012428,-3.1301e-05,-40.857,2.2871
27497,19.854,4.3636,0.1,9.0624e-05,905.61,8.9904e-05,885.65,-2.797e-05,-0.012376,-3.3117e-05,-38.682,2.2415
27498,19.946,4.4545,0.1,8.8577e-05,885.16,8.7853e-05,865.11,-2.7288e-05,-0.011594,-3.2451e-05,-38.802,2.2566
27499,19.67,4.3636,0.1,9.4655e-05,945.89,9.3976e-05,926.97,-2.9399e-05,-0.011639,-3.4289e-05,-36.758,2.2111
27500,19.762,4.4545,0.1,9.2601e-05,925.37,9.1918e-05,906.37,-2.8714e-05,-0.010854,-3.3622e-05,-36.893,2.2262
27501,19.485,4.3636,0.1,9.8714e-05,986.45,9.8072e-05,968.5,-3.0829e-05,-0.010972,-3.5482e-05,-34.97,2.1808
27502,19.578,4.4545,0.1,9.6653e-05,965.86,9.6007e-05,947.82,-3.0141e-05,-0.010196,-3.4814e-05,-35.119,2.1959
27503,19.301,4.3636,0.1,0.0001028,1027.3,0.00010219,1010.2,-3.2261e-05,-0.010359,-3.6693e-05,-33.308,2.1506
27504,19.393,4.4545,0.1,0.00010073,1006.6,0.00010012,989.46,-3.1571e-05,-0.0095897,-3.6024e-05,-33.468,2.1656
27505,19.117,4.3636,0.1,0.00010691,1068.4,0.00010634,1052.1,-3.3697e-05,-0.0097906,-3.7923e-05,-31.762,2.1204
27506,19.209,4.4545,0.1,0.00010484,1047.6,0.00010426,1031.3,-3.3003e-05,-0.0090369,-3.7252e-05,-31.932,2.1354
27507,18.933,4.3636,0.1,0.00011105,1109.7,0.0001105,1094.3,-3.5135e-05,-0.0092703,-3.917e-05,-30.323,2.0903
27508,19.025,4.4545,0.1,0.00010897,1088.9,0.00010842,1073.3,-3.4438e-05,-0.0085172,-3.8497e-05,-30.501,2.1052
27509,18.748,4.3636,0.1,0.00011521,1151.4,0.00011469,1136.6,-3.6577e-05,-0.0088046,-4.0433e-05,-28.982,2.0602
27510,18.841,4.4545,0.1,0.00011312,1130.5,0.0001126,1115.6,-3.5877e-05,-0.0080559,-3.9758e-05,-29.168,2.0751
27511,18.564,4.3636,0.1,0.0001194,1193.2,0.00011891,1179.1,-3.8022e-05,-0.0083764,-4.1712e-05,-27.731,2.0303
27512,18.656,4.4545,0.1,0.0001173,1172.2,0.0001168,1158,-3.732e-05,-0.0076432,-4.1035e-05,-27.924,2.0452
27513,18.38,4.3636,0.1,0.00012362,1235.3,0.00012314,1221.8,-3.9472e-05,-0.0079741,-4.3006e-05,-26.564,2.0004
27514,18.472,4.4545,0.1,0.00012151,1214.3,0.00012103,1200.7,-3.8766e-05,-0.0072537,-4.2327e-05,-26.763,2.0152
27515,18.196,4.3636,0.1,0.00012786,1277.7,0.0001274,1264.7,-4.0925e-05,-0.0075921,-4.4314e-05,-25.473,1.9706
27516,18.288,4.4545,0.1,0.00012574,1256.5,0.00012528,1243.5,-4.0216e-05,-0.0068893,-4.3632e-05,-25.677,1.9854
27517,18.011,4.3636,0.1,0.00013212,1320.3,0.00013168,1307.9,-4.2383e-05,-0.0072374,-4.5636e-05,-24.452,1.9409
27518,18.103,4.4545,0.1,0.00012999,1299,0.00012955,1286.5,-4.1671e-05,-0.0065368,-4.4952e-05,-24.661,1.9557
27519,17.827,4.3636,0.1,0.0001364,1363.1,0.00013599,1351.2,-4.3845e-05,-0.0069238,-4.6971e-05,-23.495,1.9113
27520,17.919,4.4545,0.1,0.00013427,1341.8,0.00013385,1329.7,-4.3129e-05,-0.0062243,-4.6284e-05,-23.709,1.926
27521,17.643,4.3636,0.1,0.00014071,1406.1,0.00014031,1394.7,-4.5311e-05,-0.0066322,-4.8318e-05,-22.597,1.8818
27522,17.735,4.4545,0.1,0.00013857,1384.7,0.00013817,1373.2,-4.4593e-05,-0.0059528,-4.7629e-05,-22.815,1.8964
27523,17.459,4.3636,0.1,0.00014504,1449.4,0.00014466,1438.4,-4.6783e-05,-0.0063514,-4.9677e-05,-21.752,1.8524
27524,17.551,4.4545,0.1,0.00014289,1427.9,0.0001425,1416.8,-4.6062e-05,-0.0056838,-4.8985e-05,-21.974,1.867
27525,17.274,4.3636,0.1,0.0001494,1492.9,0.00014903,1482.3,-4.826e-05,-0.006077,-5.1048e-05,-20.956,1.823
27526,17.366,4.4545,0.1,0.00014724,1471.3,0.00014686,1460.6,-4.7535e-05,-0.0054292,-5.0353e-05,-21.182,1.8376
27527,17.09,4.3636,0.1,0.00015377,1536.7,0.00015342,1526.5,-4.9742e-05,-0.0058203,-5.243e-05,-20.203,1.7938
27528,17.182,4.4545,0.1,0.0001516,1515,0.00015124,1504.7,-4.9014e-05,-0.0051721,-5.1733e-05,-20.434,1.8083
27529,16.906,4.3636,0.1,0.00015817,1580.6,0.00015783,1570.8,-5.1229e-05,-0.0055984,-5.3822e-05,-19.49,1.7647
27530,16.998,4.4545,0.1,0.00015599,1558.8,0.00015565,1548.9,-5.0497e-05,-0.0049513,-5.3122e-05,-19.726,1.7791
27531,16.721,4.3636,0.1,0.00016259,1624.8,0.00016226,1615.3,-5.2721e-05,-0.0053903,-5.5225e-05,-18.813,1.7357
27532,16.814,4.4545,0.1,0.0001604,1602.9,0.00016007,1593.3,-5.1987e-05,-0.0047621,-5.4522e-05,-19.053,1.75
27533,16.537,4.3636,0.1,0.00016703,1669.2,0.00016672,1660,-5.422e-05,-0.0051841,-5.6637e-05,-18.166,1.7068
27534,16.629,4.4545,0.1,0.00016484,1647.2,0.00016451,1637.9,-5.3482e-05,-0.0045682,-5.5932e-05,-18.413,1.7211
27535,16.353,4.3636,0.1,0.0001715,1713.8,0.00017119,1705,-5.5724e-05,-0.0049763,-5.8058e-05,-17.548,1.678
27536,16.445,4.4545,0.1,0.00016929,1691.7,0.00016898,1682.8,-5.4982e-05,-0.0043789,-5.7351e-05,-17.8,1.6922
27537,16.169,4.3636,0.1,0.00017598,1758.6,0.00017569,1750.1,-5.7233e-05,-0.0047797,-5.9489e-05,-16.953,1.6493
27538,16.261,4.4545,0.1,0.00017377,1736.5,0.00017347,1727.8,-5.6488e-05,-0.0041818,-5.8779e-05,-17.212,1.6635
27539,15.984,4.3636,0.1,0.00018049,1803.7,0.00018021,1795.4,-5.8749e-05,-0.0046127,-6.0928e-05,-16.38,1.6207
27540,16.077,4.4545,0.1,0.00017826,1781.4,0.00017797,1773,-5.8001e-05,-0.0040145,-6.0215e-05,-16.646,1.6349
27541,15.8,4.3636,0.1,0.00018502,1848.9,0.00018474,1840.9,-6.0271e-05,-0.0044555,-6.2376e-05,-15.823,1.5923
27542,15.892,4.4545,0.1,0.00018278,1826.5,0.0001825,1818.4,-5.9519e-05,-0.0038755,-6.1661e-05,-16.098,1.6064
27543,15.616,4.3636,0.1,0.00018956,1894.3,0.0001893,1886.7,-6.1798e-05,-0.0042937,-6.3831e-05,-15.281,1.564
27544,15.708,4.4545,0.1,0.00018732,1871.9,0.00018705,1864.1,-6.1043e-05,-0.0037267,-6.3114e-05,-15.565,1.578
27545,15.432,4.3636,0.1,0.00019413,1940,0.00019388,1932.6,-6.3332e-05,-0.0041226,-6.5295e-05,-14.749,1.5358
27546,15.524,4.4545,0.1,0.00019188,1917.5,0.00019162,1909.9,-6.2573e-05,-0.0035776,-6.4575e-05,-15.043,1.5497
27547,15.247,4.3636,0.1,0.00019872,1985.8,0.00019848,1978.7,-6.4873e-05,-0.0039579,-6.6765e-05,-14.225,1.5078
27548,15.339,4.4545,0.1,0.00019646,1963.2,0.00019621,1955.9,-6.411e-05,-0.0034089,-6.6044e-05,-14.531,1.5216
27549,15.063,4.3636,0.1,0.00020333,2031.9,0.00020309,2025,-6.6419e-05,-0.003823,-6.8243e-05,-13.706,1.4798
27550,15.155,4.4545,0.1,0.00020106,2009.2,0.00020081,2002.1,-6.5653e-05,-0.0032719,-6.7519e-05,-14.024,1.4936
27551,14.879,4.3636,0.1,0.00020796,2078.2,0.00020773,2071.5,-6.7973e-05,-0.003692,-6.9727e-05,-13.188,1.4521
27552,14.971,4.4545,0.1,0.00020568,2055.3,0.00020544,2048.6,-6.7203e-05,-0.003162,-6.9002e-05,-13.521,1.4658
27553,14.695,4.3636,0.1,0.00021261,2124.6,0.00021239,2118.2,-6.9532e-05,-0.0035491,-7.1218e-05,-12.669,1.4244
27554,14.787,4.4545,0.1,0.00021032,2101.7,0.00021009,2095.2,-6.8759e-05,-0.0030322,-7.0491e-05,-13.018,1.4381
27555,14.51,4.3636,0.1,0.00021728,2171.3,0.00021707,2165.2,-7.1099e-05,-0.0033916,-7.2715e-05,-12.145,1.3969
27556,14.602,4.4545,0.1,0.00021498,2148.3,0.00021476,2142,-7.0322e-05,-0.0028978,-7.1986e-05,-12.512,1.4105
27557,14.326,4.3636,0.1,0.00022196,2218.1,0.00022176,2212.3,-7.2672e-05,-0.0032342,-7.4218e-05,-11.614,1.3696
27558,14.418,4.4545,0.1,0.00021965,2195,0.00021945,2189,-7.1891e-05,-0.0027382,-7.3488e-05,-12,1.3831
27559,14.142,4.3636,0.1,0.00022667,2265.1,0.00022648,2259.6,-7.4253e-05,-0.0031031,-7.5726e-05,-11.072,1.3424
27560,14.234,4.4545,0.1,0.00022435,2242,0.00022416,2236.2,-7.3467e-05,-0.0026043,-7.4995e-05,-11.479,1.3558
27561,13.957,4.3636,0.1,0.0002314,2312.4,0.00023122,2307.1,-7.584e-05,-0.0029687,-7.7239e-05,-10.515,1.3153
27562,14.05,4.4545,0.1,0.00022907,2289.1,0.00022888,2283.6,-7.5051e-05,-0.0024971,-7.6507e-05,-10.946,1.3287
27563,13.773,4.3636,0.1,0.00023614,2359.8,0.00023597,2354.8,-7.7434e-05,-0.0028119,-7.8757e-05,-9.9413,1.2885
27564,13.865,4.4545,0.1,0.00023381,2336.5,0.00023363,2331.2,-7.6641e-05,-0.0023568,-7.8025e-05,-10.399,1.3017
27565,13.589,4.3636,0.1,0.00024091,2407.4,0.00024075,2402.7,-7.9036e-05,-0.0026283,-8.028e-05,-9.3465,1.2617
27566,13.681,4.4545,0.1,0.00023856,2384,0.00023839,2379.1,-7.8239e-05,-0.0022045,-7.9547e-05,-9.8327,1.2749
27567,13.405,4.3636,0.1,0.00024569,2455.2,0.00024554,2450.8,-8.0645e-05,-0.002431,-8.1806e-05,-8.7272,1.2352
27568,13.497,4.4545,0.1,0.00024334,2431.7,0.00024318,2427.1,-7.9843e-05,-0.0020116,-8.1073e-05,-9.2449,1.2482
27569,13.22,4.3636,0.1,0.00025049,2503.2,0.00025035,2499.1,-8.2261e-05,-0.0022445,-8.3336e-05,-8.0797,1.2088
27570,13.313,4.4545,0.1,0.00024813,2479.6,0.00024798,2475.3,-8.1455e-05,-0.0018329,-8.2604e-05,-8.632,1.2217
27571,13.036,4.3636,0.1,0.00025531,2551.3,0.00025518,2547.6,-8.3885e-05,-0.0020304,-8.487e-05,-7.4,1.1825
27572,13.128,4.4545,0.1,0.00025294,2527.7,0.00025281,2523.7,-8.3075e-05,-0.0016635,-8.4138e-05,-7.9902,1.1954
27573,12.852,4.3636,0.1,0.00026014,2599.7,0.00026003,2596.3,-8.5517e-05,-0.0017549,-8.6406e-05,-6.6838,1.1565
27574,12.944,4.4545,0.1,0.00025777,2575.9,0.00025765,2572.3,-8.4702e-05,-0.0014325,-8.5675e-05,-7.3156,1.1693
27575,12.668,4.3636,0.1,0.000265,2648.2,0.0002649,2645.2,-8.7156e-05,-0.001394,-8.7945e-05,-5.9269,1.1306
27576,12.76,4.4545,0.1,0.00026262,2624.4,0.00026251,2621.1,-8.6337e-05,-0.0011471,-8.7216e-05,-6.6041,1.1433
27577,12.483,4.3636,0.1,0.00026987,2696.8,0.00026978,2694.3,-8.8803e-05,-0.00092854,-8.9485e-05,-5.1246,1.1049
27578,12.575,4.4545,0.1,0.00026748,2673,0.00026738,2670.1,-8.798e-05,-0.0007568,-8.8758e-05,-5.8514,1.1175
27579,12.299,4.3636,0.1,0.00027476,2745.7,0.00027469,2743.6,-9.0459e-05,-0.00031366,-9.1027e-05,-4.2721,1.0794
27580,12.391,4.4545,0.1,0.00027237,2721.8,0.00027228,2719.2,-8.963e-05,-0.00028167,-9.0303e-05,-5.0529,1.0919
27581,12.115,4.3636,0.1,0.00027966,2794.7,0.00027961,2793,-9.2122e-05,0.00065711,-9.257e-05,-3.3643,1.0541
27582,12.207,4.4545,0.1,0.00027726,2770.7,0.00027719,2768.6,-9.1289e-05,0.00036329,-9.1848e-05,-4.2041,1.0665
27583,11.931,4.3636,0.1,0.00028459,2843.9,0.00028454,2842.7,-9.3794e-05,0.0024918,-9.4113e-05,-2.3959,1.0289
27584,12.023,4.4545,0.1,0.00028218,2819.9,0.00028212,2818.2,-9.2956e-05,0.0014412,-9.3395e-05,-3.2996,1.0412
27585,11.746,4.3636,0.1,0.00028952,2893.2,0.0002895,2892.6,-9.5474e-05,0.0072654,-9.5657e-05,-1.3632,1.004
27586,11.838,4.4545,0.1,0.00028711,2869.1,0.00028707,2868,-9.4631e-05,0.0034881,-9.4942e-05,-2.3345,1.0162
27587,11.562,4.3636,0.1,0.00029448,2942.7,0.00029447,2942.6,-9.7159e-05,0.047728,-9.7204e-05,-0.29242,0.97923
27588,11.654,4.4545,0.1,0.00029206,2918.6,0.00029204,2917.9,-9.6315e-05,0.0089808,-9.649e-05,-1.3054,0.99133
27589,11.378,4.3636,0.1,0.00029944,2992.4,0.00029946,2992.9,-9.8735e-05,0.96589,-9.8866e-05,-0.018824,0.95468
27590,11.47,4.4545,0.1,0.00029703,2968.2,0.00029702,2968.1,-9.8001e-05,0.061634,-9.8042e-05,-0.24972,0.96668
27591,11.193,4.3636,0.1,0.00030443,3042.2,0.00030447,3043.3,-0.00010027,2.237,-0.00010057,-0.010131,0.93033
27592,11.286,4.4545,0.1,0.00030201,3018,0.00030202,3018.5,-9.9576e-05,1.0197,-9.9714e-05,-0.018921,0.94222
27593,11.009,4.3636,0.1,0.00030943,3092.1,0.00030949,3093.9,-0.00010181,3.6102,-0.00010229,-0.0075759,0.90619
27594,11.101,4.4545,0.1,0.000307,3067.9,0.00030704,3069,-0.00010112,2.2879,-0.00010142,-0.010245,0.91797
27595,10.825,4.3636,0.1,0.00031444,3142.2,0.00031452,3144.8,-0.00010334,5.0891,-0.00010402,-0.0063226,0.88226
27596,10.917,4.4545,0.1,0.00031201,3117.9,0.00031207,3119.8,-0.00010266,3.6578,-0.00010314,-0.0076063,0.89393
27597,10.641,4.3636,0.1,0.00031946,3192.4,0.00031958,3195.8,-0.00010486,6.6821,-0.00010575,-0.0055714,0.85854
27598,10.733,4.4545,0.1,0.00031703,3168.1,0.00031712,3170.7,-0.00010419,5.1333,-0.00010488,-0.0062916,0.87011
27599,10.456,4.3636,0.1,0.0003245,3242.8,0.00032464,3247,-0.00010638,8.3987,-0.0001075,-0.0051023,0.83504
27600,10.549,4.4545,0.1,0.00032207,3218.5,0.00032218,3221.8,-0.00010572,6.7224,-0.00010662,-0.0055408,0.84649
27601,10.272,4.3636,0.1,0.00032955,3293.3,0.00032973,3298.4,-0.0001079,10.249,-0.00010926,-0.0047648,0.81176
27602,10.364,4.4545,0.1,0.00032712,3268.9,0.00032726,3273.2,-0.00010724,8.4345,-0.00010837,-0.0050849,0.8231
27603,10.088,4.3636,0.1,0.00033462,3343.8,0.00033482,3350,-0.0001094,12.245,-0.00011103,-0.0044936,0.7887
27604,10.18,4.4545,0.1,0.00033218,3319.5,0.00033236,3324.7,-0.00010876,10.28,-0.00011013,-0.0047264,0.79992
27605,9.9036,4.3636,0.1,0.00033969,3394.5,0.00033993,3401.7,-0.00011089,14.398,-0.00011281,-0.0042862,0.76587
27606,9.9957,4.4545,0.1,0.00033726,3370.3,0.00033747,3376.4,-0.00011027,12.27,-0.0001119,-0.0044712,0.77698
27607,9.7193,4.3636,0.1,0.00034477,3445.4,0.00034505,3453.7,-0.00011238,16.722,-0.0001146,-0.0041179,0.74327
27608,9.8115,4.4545,0.1,0.00034234,3421.1,0.00034259,3428.3,-0.00011177,14.416,-0.00011369,-0.0042814,0.75426
27609,9.5351,4.3636,0.1,0.00034987,3496.3,0.00035019,3505.8,-0.00011385,19.229,-0.00011641,-0.0039821,0.72091
27610,9.6272,4.4545,0.1,0.00034744,3472,0.00034772,3480.3,-0.00011326,16.731,-0.00011548,-0.0041307,0.73177
27611,9.3508,4.3636,0.1,0.00035497,3547.2,0.00035534,3558.2,-0.00011531,21.936,-0.00011823,-0.003876,0.69878
27612,9.4429,4.4545,0.1,0.00035255,3523,0.00035287,3532.6,-0.00011473,19.228,-0.00011729,-0.0040258,0.70952
27613,9.1665,4.3636,0.1,0.00036008,3598.3,0.0003605,3610.7,-0.00011675,24.858,-0.00012006,-0.0037925,0.67689
27614,9.2587,4.4545,0.1,0.00035766,3574.2,0.00035803,3585.1,-0.0001162,21.922,-0.00011911,-0.0039503,0.68751
27615,8.9823,4.3636,0.1,0.0003652,3649.5,0.00036567,3663.4,-0.00011817,28.012,-0.0001219,-0.0037313,0.65525
27616,9.0744,4.4545,0.1,0.00036279,3625.4,0.0003632,3637.7,-0.00011764,24.828,-0.00012095,-0.0039036,0.66574
27617,8.798,4.3636,0.1,0.00037032,3700.7,0.00037085,3716.3,-0.00011958,31.415,-0.00012376,-0.0036924,0.63386
27618,8.8901,4.4545,0.1,0.00036792,3676.7,0.00036839,3690.6,-0.00011907,27.963,-0.0001228,-0.0038846,0.64422
27619,8.6137,4.3636,0.1,0.00037545,3751.9,0.00037604,3769.4,-0.00012096,35.088,-0.00012563,-0.003677,0.61272
27620,8.7059,4.4545,0.1,0.00037306,3728,0.00037358,3743.6,-0.00012049,31.343,-0.00012466,-0.0038941,0.62295
27621,8.4295,4.3636,0.1,0.00038059,3803.2,0.00038124,3822.6,-0.00012233,39.05,-0.00012752,-0.0036878,0.59183
27622,8.5216,4.4545,0.1,0.00037821,3779.5,0.00037879,3796.8,-0.00012188,34.988,-0.00012654,-0.0039335,0.60193
27623,8.2452,4.3636,0.1,0.00038572,3854.6,0.00038644,3876.1,-0.00012366,43.323,-0.00012943,-0.0037295,0.57121
27624,8.3373,4.4545,0.1,0.00038336,3830.9,0.000384,3850.2,-0.00012325,38.915,-0.00012843,-0.004007,0.58117
27625,8.0609,4.3636,0.1,0.00039086,3906,0.00039166,3929.7,-0.00012497,47.929,-0.00013135,-0.0038071,0.55084
27626,8.1531,4.4545,0.1,0.00038851,3882.4,0.00038923,3903.8,-0.0001246,43.145,-0.00013034,-0.0041204,0.56067
27627,7.8767,4.3636,0.1,0.00039601,3957.3,0.00039688,3983.5,-0.00012625,52.89,-0.00013329,-0.0039289,0.53074
27628,7.9688,4.4545,0.1,0.00039367,3934,0.00039446,3957.6,-0.00012592,47.699,-0.00013227,-0.0042802,0.54044
27629,7.6924,4.3636,0.1,0.00040115,4008.7,0.00040211,4037.5,-0.0001275,58.233,-0.00013525,-0.0041057,0.51091
27630,7.7845,4.4545,0.1,0.00039883,3985.6,0.0003997,4011.6,-0.00012721,52.596,-0.00013421,-0.004497,0.52047
27631,7.5081,4.3636,0.1,0.00040629,4060.1,0.00040734,4091.7,-0.00012872,63.98,-0.00013723,-0.0043506,0.49135
27632,7.6003,4.4545,0.1,0.00040399,4037.2,0.00040495,4065.8,-0.00012847,57.86,-0.00013617,-0.0047834,0.50077
27633,7.3239,4.3636,0.1,0.00041144,4111.5,0.00041258,4146.1,-0.0001299,70.158,-0.00013923,-0.0046807,0.47207
27634,7.416,4.4545,0.1,0.00040916,4088.8,0.0004102,4120.2,-0.0001297,63.511,-0.00013816,-0.0051556,0.48135
27635,7.1396,4.3636,0.1,0.00041658,4162.9,0.00041783,4200.8,-0.00013104,76.791,-0.00014126,-0.0051193,0.45307
27636,7.2317,4.4545,0.1,0.00041432,4140.4,0.00041546,4174.7,-0.0001309,69.571,-0.00014016,-0.0056344,0.46221
27637,6.9553,4.3636,0.1,0.00042172,4214.3,0.00042308,4255.6,-0.00013213,83.904,-0.0001433,-0.0056951,0.43436
27638,7.0475,4.4545,0.1,0.00041949,4192,0.00042073,4229.5,-0.00013206,76.059,-0.00014218,-0.0062478,0.44335
27639,6.7711,4.3636,0.1,0.00042685,4265.6,0.00042834,4310.6,-0.00013319,91.522,-0.00014537,-0.0064451,0.41593
27640,6.8632,4.4545,0.1,0.00042466,4243.6,0.00042601,4284.5,-0.00013318,82.995,-0.00014423,-0.0070296,0.42477
27641,6.5868,4.3636,0.1,0.00043199,4316.9,0.0004336,4365.9,-0.0001342,99.666,-0.00014747,-0.007418,0.39779
27642,6.6789,4.4545,0.1,0.00042982,4295.3,0.00043129,4339.7,-0.00013426,90.396,-0.0001463,-0.008025,0.40649
27643,6.4025,4.3636,0.1,0.00043713,4368.3,0.00043887,4421.4,-0.00013517,108.36,-0.00014959,-0.0086767,0.37995
27644,6.4947,4.4545,0.1,0.00043499,4346.9,0.00043658,4395.2,-0.00013531,98.275,-0.00014839,-0.0092915,0.38849
27645,6.2183,4.3636,0.1,0.00044227,4419.6,0.00044415,4477.3,-0.00013608,117.61,-0.00015174,-0.010303,0.3624
27646,6.3104,4.4545,0.1,0.00044016,4398.6,0.00044188,4450.9,-0.00013631,106.64,-0.0001505,-0.010904,0.3708
27647,6.034,4.3636,0.1,0.00044741,4471,0.00044944,4533.4,-0.00013695,127.43,-0.00015391,-0.012403,0.34516
27648,6.1261,4.4545,0.1,0.00044533,4450.2,0.00044718,4506.9,-0.00013727,115.5,-0.00015264,-0.012959,0.3534
27649,5.8497,4.3636,0.1,0.00045256,4522.5,0.00045475,4589.8,-0.00013778,137.83,-0.00015612,-0.015118,0.32822
27650,5.9419,4.4545,0.1,0.00045051,4502,0.00045251,4563.1,-0.00013819,124.84,-0.00015481,-0.015584,0.33631
27651,5.6655,4.3636,0.1,0.00045773,4574.1,0.00046008,4646.7,-0.00013856,148.8,-0.00015836,-0.018632,0.31159
27652,5.7576,4.4545,0.1,0.0004557,4553.9,0.00045784,4619.7,-0.00013908,134.66,-0.000157,-0.018946,0.31952
27653,5.4812,4.3636,0.1,0.00046291,4625.9,0.00046543,4704,-0.00013929,160.32,-0.00016064,-0.023193,0.29527
27654,5.5733,4.4545,0.1,0.0004609,4605.9,0.0004632,4676.6,-0.00013993,144.91,-0.00015922,-0.023266,0.30305
27655,5.2969,4.3636,0.1,0.00046812,4678,0.00047082,4761.8,-0.00014,172.37,-0.00016294,-0.029129,0.27927
27656,5.3891,4.4545,0.1,0.00046613,4658,0.00046858,4733.9,-0.00014076,155.58,-0.00016147,-0.028838,0.28689
27657,5.1127,4.3636,0.1,0.00047337,4730.5,0.00047625,4820.2,-0.00014067,184.88,-0.00016528,-0.036884,0.26359
27658,5.2048,4.4545,0.1,0.00047138,4710.5,0.00047399,4791.6,-0.00014156,166.58,-0.00016374,-0.03606,0.27105
27659,4.9284,4.3636,0.1,0.00047868,4783.5,0.00048174,4879.3,-0.00014133,197.78,-0.00016766,-0.047057,0.24823
27660,5.0205,4.4545,0.1,0.00047666,4763.3,0.00047944,4849.7,-0.00014235,177.83,-0.00016603,-0.045467,0.25553
27661,4.7441,4.3636,0.1,0.00048405,4837.2,0.0004873,4939.2,-0.00014199,210.97,-0.00017008,-0.06047,0.2332
27662,4.8363,4.4545,0.1,0.000482,4816.6,0.00048494,4908.4,-0.00014315,189.23,-0.00016834,-0.057793,0.24033
27663,4.5599,4.3636,0.1,0.00048952,4891.9,0.00049295,5000.1,-0.00014267,224.31,-0.00017253,-0.078253,0.2185
27664,4.652,4.4545,0.1,0.00048739,4870.6,0.00049049,4967.7,-0.00014397,200.61,-0.00017068,-0.074048,0.22547
27665,4.3756,4.3636,0.1,0.00049512,4947.7,0.00049873,5062.2,-0.00014339,237.59,-0.00017502,-0.10198,0.20413
27666,4.4677,4.4545,0.1,0.00049287,4925.3,0.00049612,5027.7,-0.00014483,211.78,-0.00017303,-0.095644,0.21093
27667,4.1913,4.3636,0.1,0.00050086,5005.2,0.00050465,5125.7,-0.00014418,250.58,-0.00017755,-0.13386,0.1901
27668,4.2835,4.4545,0.1,0.00049844,4980.9,0.00050185,5088.4,-0.00014577,222.48,-0.00017539,-0.12458,0.19674
27669,4.0071,4.3636,0.1,0.00050681,5064.6,0.00051076,5190.8,-0.0001451,262.92,-0.00018012,-0.17707,0.17642
27670,4.0992,4.4545,0.1,0.00050413,5037.8,0.00050768,5149.9,-0.0001468,232.39,-0.00017776,-0.1637,0.18288
27671,3.8228,4.3636,0.1,0.000513,5126.5,0.00051711,5258,-0.00014619,274.18,-0.00018271,-0.23618,0.16308
27672,3.9149,4.4545,0.1,0.00050998,5096.3,0.00051365,5212.4,-0.000148,241.09,-0.00018011,-0.21719,0.16938
27673,3.6385,4.3636,0.1,0.00051952,5191.6,0.00052375,5327.5,-0.00014752,283.76,-0.00018533,-0.31804,0.1501
27674,3.7307,4.4545,0.1,0.00051601,5156.5,0.00051977,5275.9,-0.00014939,248.03,-0.00018244,-0.29128,0.15621
27675,3.4543,4.3636,0.1,0.00052643,5260.7,0.00053076,5399.8,-0.0001492,290.84,-0.00018796,-0.43312,0.13747
27676,3.5464,4.4545,0.1,0.00052226,5219,0.00052609,5340.5,-0.00015108,252.51,-0.00018474,-0.39562,0.14341
27677,3.27,4.3636,0.1,0.00053385,5334.8,0.00053824,5475.6,-0.00015135,294.28,-0.0001906,-0.59833,0.1252
27678,3.3621,4.4545,0.1,0.0005288,5284.4,0.00053265,5406.3,-0.00015314,253.54,-0.00018696,-0.54573,0.13096
27679,3.0857,4.3636,0.1,0.00054194,5415.7,0.0005463,5555.5,-0.00015417,292.44,-0.0001932,-0.84256,0.11329
27680,3.1779,4.4545,0.1,0.0005357,5353.3,0.00053949,5473.4,-0.00015573,249.77,-0.00018907,-0.76835,0.11887
27681,2.9015,4.3636,0.1,0.0005509,5505.2,0.00055514,5640.6,-0.00015792,282.89,-0.00019573,-1.2205,0.10176
27682,2.9936,4.4545,0.1,0.00054305,5426.8,0.00054671,5541.9,-0.00015903,239.29,-0.00019102,-1.1136,0.10715
27683,2.7172,4.3636,0.1,0.00056106,5606.7,0.00056502,5732.1,-0.00016302,261.93,-0.00019812,-1.849,0.090607
27684,2.8093,4.4545,0.1,0.00055104,5506.6,0.00055441,5612.1,-0.00016333,219.22,-0.00019274,-1.6898,0.095799
27685,2.5329,4.3636,0.1,0.0005729,5725.1,0.00057632,5832.1,-0.00017009,223.87,-0.00020029,-3.0461,0.079835
27686,2.6251,4.4545,0.1,0.00055994,5595.5,0.0005628,5684.4,-0.00016908,185.3,-0.00019411,-2.781,0.084826
27687,2.3487,4.3636,0.1,0.00058724,5868.3,0.00058968,5943.6,-0.00018005,160.18,-0.00020217,-6.0019,0.069454
27688,2.4408,4.4545,0.1,0.00057019,5697.9,0.0005722,5759.6,-0.00017687,131.38,-0.00019509,-5.4805,0.074235
27689,2.1644,4.3636,0.1,0.00060539,6049.7,0.00060609,6071.2,-0.00019328,65.073,-0.00020476,-21.179,0.059471
27690,2.2565,4.4545,0.1,0.00058257,5821.7,0.00058315,5839.3,-0.00018676,54.55,-0.00019649,-18.528,0.064031
27691,1.9801,4.3636,0.1,0.00062959,6291.6,0.0006271,6221.5,-0.00019912,13.632,-0.00022097,-150.53,0.049893
27692,2.0723,4.4545,0.1,0.00059845,5980.4,0.00059653,5926,-0.00019055,12.147,-0.00020798,-118.76,0.054219
27693,1.7959,4.3636,0.1,0.00066392,6634.6,0.00065529,6403.4,-0.00019611,6.2901,-0.00025626,-445.66,0.040729
27694,1.888,4.4545,0.1,0.00062013,6197,0.00061373,6023,-0.00018699,6.7514,-0.00023316,-340.17,0.044802
27695,1.6116,4.3636,0.1,0.00071456,7140.7,0.00069372,6622.5,-0.00018629,10.432,-0.00031408,-949.73,0.031985
27696,1.7037,4.4545,0.1,0.0006518,6513.5,0.00063693,6132.9,-0.00017878,4.0709,-0.0002734,-706.9,0.035783
27697,1.4273,4.3636,0.1,0.0007944,7938.6,0.00074729,6865.7,-0.0001658,5.1017,-0.00040997,-1829.5,0.023662
27698,1.5195,4.4545,0.1,0.00069953,6990.5,0.00066822,6251.3,-0.00016233,10.841,-0.00033716,-1302.8,0.027158
27699,1.2431,4.3636,0.1,0.0009286,9279.6,0.00082114,7065,-0.00012139,-16.749,-0.00057698,-3439.9,0.015749
27700,1.3352,4.4545,0.1,0.0007747,7741.7,0.00070996,6338.4,-0.00013402,-2.8935,-0.00043825,-2288.8,0.018911
27701,1.1509,4.4545,0.1,0.00092168,9210.4,0.00078208,6473.5,-7.8773e-05,5.3687,-0.00062141,-4071.8,0.01102
27702,1.0588,4.3636,0.1,0.00083545,8348.7,0.00070114,5693.8,-7.0323e-05,-102.66,-0.00057244,-3875.4,0.0082281
27703,23.724,4.5455,0.1,1.7476e-05,174.64,1.0447e-05,58.933,2.5786e-06,-0.18852,-1.5708e-05,-137.59,2.8892
27704,23.816,4.6364,0.1,1.6169e-05,161.58,8.5541e-06,39.922,3.2219e-06,-0.14164,-1.5115e-05,-137.92,2.9047
27705,23.908,4.5455,0.1,1.5968e-05,159.57,7.1321e-06,22.536,4.0773e-06,-0.41655,-1.5467e-05,-147.27,2.9203
27706,23.539,4.5455,0.1,1.9536e-05,195.22,1.3937e-05,97.067,9.9047e-07,-0.20481,-1.5976e-05,-127.68,2.8581
27707,23.631,4.6364,0.1,1.7985e-05,179.73,1.2017e-05,77.837,1.618e-06,-0.29661,-1.5343e-05,-127.73,2.8736
27708,23.355,4.5455,0.1,2.2e-05,219.84,1.7443e-05,135.17,-5.6184e-07,-0.11284,-1.6318e-05,-118.5,2.827
27709,23.447,4.6364,0.1,2.0288e-05,202.74,1.5501e-05,115.84,6.8064e-08,-0.11942,-1.5656e-05,-118.26,2.8425
27710,23.171,4.5455,0.1,2.4756e-05,247.39,2.0974e-05,173.24,-2.0949e-06,-0.091734,-1.6733e-05,-110.08,2.7959
27711,23.263,4.6364,0.1,2.2938e-05,229.22,1.9014e-05,153.79,-1.468e-06,-0.10455,-1.6048e-05,-109.65,2.8114
27712,22.987,4.5455,0.1,2.7731e-05,277.12,2.4533e-05,211.35,-3.606e-06,-0.070285,-1.7221e-05,-102.37,2.7648
27713,23.079,4.6364,0.1,2.5841e-05,258.23,2.2557e-05,191.79,-2.9791e-06,-0.074905,-1.6519e-05,-101.81,2.7803
27714,22.802,4.5455,0.1,3.0873e-05,308.52,2.8125e-05,249.58,-5.0991e-06,-0.057732,-1.778e-05,-95.34,2.7338
27715,22.894,4.6364,0.1,2.8935e-05,289.15,2.6137e-05,229.92,-4.4714e-06,-0.060962,-1.7067e-05,-94.698,2.7493
27716,22.618,4.5455,0.1,3.4147e-05,341.24,3.1753e-05,287.95,-6.577e-06,-0.04803,-1.8407e-05,-88.932,2.7028
27717,22.71,4.6364,0.1,3.2178e-05,321.56,2.9755e-05,268.2,-5.9473e-06,-0.049588,-1.7687e-05,-88.256,2.7182
27718,22.434,4.5455,0.1,3.7528e-05,375.02,3.5417e-05,326.49,-8.042e-06,-0.040839,-1.9095e-05,-83.088,2.6718
27719,22.526,4.6364,0.1,3.5538e-05,355.14,3.3411e-05,306.67,-7.4099e-06,-0.041551,-1.8373e-05,-82.413,2.6872
27720,22.249,4.5455,0.1,4.0996e-05,409.68,3.9116e-05,365.22,-9.4965e-06,-0.035191,-1.984e-05,-77.753,2.6408
27721,22.342,4.6364,0.1,3.8994e-05,389.67,3.7105e-05,345.34,-8.8614e-06,-0.035288,-1.9118e-05,-77.102,2.6562
27722,22.065,4.5455,0.1,4.4539e-05,445.08,4.2849e-05,404.14,-1.0942e-05,-0.030693,-2.0637e-05,-72.873,2.6098
27723,22.157,4.6364,0.1,4.2527e-05,424.98,4.0834e-05,384.2,-1.0304e-05,-0.030389,-1.9918e-05,-72.264,2.6252
27724,21.881,4.5455,0.1,4.8144e-05,481.11,4.6614e-05,443.24,-1.2381e-05,-0.027034,-2.1481e-05,-68.4,2.5789
27725,21.973,4.6364,0.1,4.6127e-05,460.95,4.4597e-05,423.26,-1.174e-05,-0.026453,-2.0765e-05,-67.843,2.5943
27726,21.697,4.5455,0.1,5.1805e-05,517.69,5.0411e-05,482.54,-1.3814e-05,-0.024018,-2.2368e-05,-64.292,2.548
27727,21.789,4.6364,0.1,4.9784e-05,497.5,4.8391e-05,462.52,-1.3169e-05,-0.023243,-2.1656e-05,-63.793,2.5634
27728,21.512,4.5455,0.1,5.5515e-05,554.77,5.4237e-05,522.02,-1.5242e-05,-0.021504,-2.3293e-05,-60.513,2.5171
27729,21.605,4.6364,0.1,5.3491e-05,534.54,5.2215e-05,501.96,-1.4594e-05,-0.020595,-2.2587e-05,-60.073,2.5325
27730,21.328,4.5455,0.1,5.9269e-05,592.28,5.8092e-05,561.69,-1.6667e-05,-0.019384,-2.4255e-05,-57.03,2.4863
27731,21.42,4.6364,0.1,5.7243e-05,572.03,5.6068e-05,541.59,-1.6016e-05,-0.018392,-2.3553e-05,-56.649,2.5016
27732,21.144,4.5455,0.1,6.3063e-05,630.2,6.1975e-05,601.56,-1.809e-05,-0.017571,-2.525e-05,-53.814,2.4555
27733,21.236,4.6364,0.1,6.1035e-05,609.93,5.9949e-05,581.41,-1.7435e-05,-0.016523,-2.4552e-05,-53.49,2.4708
27734,20.96,4.5455,0.1,6.6895e-05,668.48,6.5884e-05,641.61,-1.951e-05,-0.016008,-2.6275e-05,-50.841,2.4248
27735,21.052,4.6364,0.1,6.4864e-05,648.19,6.3855e-05,621.42,-1.8852e-05,-0.01493,-2.5581e-05,-50.572,2.4401
27736,20.775,4.5455,0.1,7.0761e-05,707.12,6.982e-05,681.84,-2.093e-05,-0.014652,-2.7328e-05,-48.09,2.3941
27737,20.867,4.6364,0.1,6.8728e-05,686.81,6.7788e-05,661.61,-2.0269e-05,-0.013552,-2.6638e-05,-47.872,2.4093
27738,20.591,4.5455,0.1,7.466e-05,746.09,7.3781e-05,722.27,-2.2349e-05,-0.013476,-2.8408e-05,-45.542,2.3634
27739,20.683,4.6364,0.1,7.2624e-05,725.74,7.1746e-05,701.99,-2.1685e-05,-0.012367,-2.7721e-05,-45.37,2.3786
27740,20.407,4.5455,0.1,7.8591e-05,785.37,7.7767e-05,762.88,-2.3768e-05,-0.012442,-2.9513e-05,-43.178,2.3328
27741,20.499,4.6364,0.1,7.6552e-05,764.99,7.5728e-05,742.55,-2.3101e-05,-0.011339,-2.8829e-05,-43.05,2.348
27742,20.223,4.5455,0.1,8.2552e-05,824.95,8.1778e-05,803.69,-2.5188e-05,-0.011521,-3.0641e-05,-40.985,2.3022
27743,20.315,4.6364,0.1,8.0508e-05,804.53,7.9735e-05,783.3,-2.4517e-05,-0.01043,-2.9959e-05,-40.896,2.3174
27744,20.038,4.5455,0.1,8.6542e-05,864.82,8.5813e-05,844.69,-2.6609e-05,-0.010696,-3.1791e-05,-38.948,2.2717
27745,20.13,4.6364,0.1,8.4494e-05,844.36,8.3765e-05,824.23,-2.5935e-05,-0.0096227,-3.111e-05,-38.895,2.2869
27746,19.854,4.5455,0.1,9.056e-05,904.97,8.9872e-05,885.87,-2.8031e-05,-0.0099592,-3.2962e-05,-37.055,2.2413
27747,19.946,4.6364,0.1,8.8507e-05,884.46,8.7818e-05,865.35,-2.7354e-05,-0.0088964,-3.2282e-05,-37.034,2.2564
27748,19.67,4.5455,0.1,9.4605e-05,945.4,9.3955e-05,927.25,-2.9456e-05,-0.0093061,-3.4152e-05,-35.295,2.2109
27749,19.762,4.6364,0.1,9.2546e-05,924.83,9.1895e-05,906.66,-2.8776e-05,-0.008256,-3.3473e-05,-35.302,2.226
27750,19.485,4.5455,0.1,9.8677e-05,986.09,9.8061e-05,968.82,-3.0883e-05,-0.0087161,-3.5361e-05,-33.657,2.1806
27751,19.578,4.6364,0.1,9.6612e-05,965.46,9.5995e-05,948.17,-3.0199e-05,-0.0076918,-3.4682e-05,-33.69,2.1957
27752,19.301,4.5455,0.1,0.00010277,1027,0.00010219,1010.6,-3.2312e-05,-0.008177,-3.6588e-05,-32.132,2.1504
27753,19.393,4.6364,0.1,0.0001007,1006.3,0.00010012,989.86,-3.1626e-05,-0.0071744,-3.5909e-05,-32.188,2.1654
27754,19.117,4.5455,0.1,0.0001069,1068.2,0.00010634,1052.5,-3.3745e-05,-0.0076783,-3.7831e-05,-30.711,2.1202
27755,19.209,4.6364,0.1,0.00010482,1047.5,0.00010426,1031.7,-3.3055e-05,-0.0067033,-3.7152e-05,-30.787,2.1352
27756,18.933,4.5455,0.1,0.00011105,1109.7,0.00011052,1094.7,-3.518e-05,-0.007223,-3.9091e-05,-29.386,2.0901
27757,19.025,4.6364,0.1,0.00010896,1088.9,0.00010843,1073.8,-3.4488e-05,-0.0062603,-3.841e-05,-29.481,2.105
27758,18.748,4.5455,0.1,0.00011522,1151.4,0.00011471,1137.1,-3.662e-05,-0.0068195,-4.0365e-05,-28.149,2.06
27759,18.841,4.6364,0.1,0.00011313,1130.5,0.00011262,1116.1,-3.5924e-05,-0.0058729,-3.9684e-05,-28.26,2.0749
27760,18.564,4.5455,0.1,0.00011942,1193.3,0.00011893,1179.6,-3.8063e-05,-0.0064499,-4.1655e-05,-26.994,2.0301
27761,18.656,4.6364,0.1,0.00011732,1172.4,0.00011683,1158.6,-3.7364e-05,-0.0055285,-4.0972e-05,-27.12,2.0449
27762,18.38,4.5455,0.1,0.00012364,1235.5,0.00012318,1222.3,-3.951e-05,-0.0061025,-4.2958e-05,-25.914,2.0002
27763,18.472,4.6364,0.1,0.00012153,1214.5,0.00012106,1201.2,-3.8808e-05,-0.0052035,-4.2274e-05,-26.053,2.015
27764,18.196,4.5455,0.1,0.00012788,1277.9,0.00012744,1265.3,-4.0962e-05,-0.0057715,-4.4275e-05,-24.902,1.9704
27765,18.288,4.6364,0.1,0.00012577,1256.8,0.00012532,1244.1,-4.0256e-05,-0.0049,-4.3589e-05,-25.053,1.9852
27766,18.011,4.5455,0.1,0.00013215,1320.6,0.00013172,1308.4,-4.2417e-05,-0.0054647,-4.5605e-05,-23.954,1.9407
27767,18.103,4.6364,0.1,0.00013002,1299.3,0.0001296,1287.1,-4.1708e-05,-0.0046055,-4.4917e-05,-24.116,1.9554
27768,17.827,4.5455,0.1,0.00013644,1363.4,0.00013603,1351.8,-4.3878e-05,-0.0051976,-4.6947e-05,-23.065,1.9111
27769,17.919,4.6364,0.1,0.00013431,1342.1,0.0001339,1330.4,-4.3165e-05,-0.0043476,-4.6257e-05,-23.236,1.9257
27770,17.643,4.5455,0.1,0.00014075,1406.5,0.00014036,1395.3,-4.5343e-05,-0.0049518,-4.8301e-05,-22.228,1.8815
27771,17.735,4.6364,0.1,0.00013861,1385.2,0.00013822,1373.8,-4.4627e-05,-0.0041276,-4.7609e-05,-22.409,1.8962
27772,17.459,4.5455,0.1,0.00014509,1449.9,0.00014471,1439,-4.6813e-05,-0.0047119,-4.9666e-05,-21.44,1.8521
27773,17.551,4.6364,0.1,0.00014294,1428.4,0.00014256,1417.5,-4.6094e-05,-0.0039067,-4.8973e-05,-21.629,1.8667
27774,17.274,4.5455,0.1,0.00014945,1493.4,0.00014908,1483,-4.8289e-05,-0.0044774,-5.1043e-05,-20.695,1.8228
27775,17.366,4.6364,0.1,0.00014729,1471.9,0.00014692,1461.3,-4.7566e-05,-0.0036989,-5.0347e-05,-20.893,1.8373
27776,17.09,4.5455,0.1,0.00015383,1537.2,0.00015348,1527.1,-4.9769e-05,-0.0042588,-5.2429e-05,-19.991,1.7935
27777,17.182,4.6364,0.1,0.00015166,1515.5,0.0001513,1505.3,-4.9044e-05,-0.0034865,-5.1731e-05,-20.197,1.808
27778,16.906,4.5455,0.1,0.00015823,1581.2,0.00015789,1571.4,-5.1255e-05,-0.0040731,-5.3827e-05,-19.323,1.7644
27779,16.998,4.6364,0.1,0.00015605,1559.4,0.00015571,1549.6,-5.0526e-05,-0.0033063,-5.3126e-05,-19.536,1.7788
27780,16.721,4.5455,0.1,0.00016265,1625.4,0.00016233,1616,-5.2747e-05,-0.0039003,-5.5233e-05,-18.686,1.7354
27781,16.814,4.6364,0.1,0.00016046,1603.5,0.00016013,1594,-5.2014e-05,-0.0031577,-5.453e-05,-18.908,1.7497
27782,16.537,4.5455,0.1,0.0001671,1669.8,0.00016678,1660.7,-5.4244e-05,-0.0037255,-5.665e-05,-18.079,1.7065
27783,16.629,4.6364,0.1,0.0001649,1647.9,0.00016458,1638.6,-5.3508e-05,-0.0030012,-5.5944e-05,-18.309,1.7208
27784,16.353,4.5455,0.1,0.00017156,1714.4,0.00017126,1705.6,-5.5747e-05,-0.0035489,-5.8075e-05,-17.497,1.6777
27785,16.445,4.6364,0.1,0.00016936,1692.4,0.00016905,1683.5,-5.5007e-05,-0.0028491,-5.7367e-05,-17.735,1.6919
27786,16.169,4.5455,0.1,0.00017605,1759.3,0.00017576,1750.7,-5.7256e-05,-0.0033832,-5.9509e-05,-16.937,1.649
27787,16.261,4.6364,0.1,0.00017384,1737.2,0.00017354,1728.5,-5.6513e-05,-0.0026862,-5.8799e-05,-17.184,1.6631
27788,15.984,4.5455,0.1,0.00018056,1804.3,0.00018027,1796.1,-5.877e-05,-0.0032459,-6.0952e-05,-16.395,1.6204
27789,16.077,4.6364,0.1,0.00017833,1782.1,0.00017805,1773.7,-5.8024e-05,-0.0025524,-6.024e-05,-16.652,1.6345
27790,15.8,4.5455,0.1,0.00018509,1849.6,0.00018481,1841.6,-6.0291e-05,-0.0031171,-6.2403e-05,-15.87,1.592
27791,15.892,4.6364,0.1,0.00018285,1827.3,0.00018257,1819.2,-5.9541e-05,-0.0024464,-6.1688e-05,-16.137,1.606
27792,15.616,4.5455,0.1,0.00018964,1895.1,0.00018937,1887.3,-6.1818e-05,-0.0029828,-6.3862e-05,-15.358,1.5637
27793,15.708,4.6364,0.1,0.00018739,1872.6,0.00018712,1864.8,-6.1064e-05,-0.0023282,-6.3145e-05,-15.636,1.5776
27794,15.432,4.5455,0.1,0.00019421,1940.7,0.00019395,1933.3,-6.3351e-05,-0.002838,-6.5328e-05,-14.855,1.5355
27795,15.524,4.6364,0.1,0.00019196,1918.2,0.00019169,1910.6,-6.2594e-05,-0.0022092,-6.4609e-05,-15.145,1.5494
27796,15.247,4.5455,0.1,0.0001988,1986.6,0.00019855,1979.4,-6.4891e-05,-0.0026989,-6.6801e-05,-14.36,1.5074
27797,15.339,4.6364,0.1,0.00019654,1964,0.00019628,1956.6,-6.413e-05,-0.0020711,-6.6081e-05,-14.663,1.5212
27798,15.063,4.5455,0.1,0.00020341,2032.7,0.00020317,2025.7,-6.6436e-05,-0.0025888,-6.8282e-05,-13.869,1.4795
27799,15.155,4.6364,0.1,0.00020114,2010,0.00020089,2002.9,-6.5672e-05,-0.0019615,-6.7559e-05,-14.186,1.4932
27800,14.879,4.5455,0.1,0.00020804,2078.9,0.00020781,2072.2,-6.7989e-05,-0.002482,-6.9769e-05,-13.38,1.4517
27801,14.971,4.6364,0.1,0.00020576,2056.2,0.00020552,2049.3,-6.722e-05,-0.0018799,-6.9045e-05,-13.712,1.4654
27802,14.695,4.5455,0.1,0.00021269,2125.4,0.00021247,2118.9,-6.9548e-05,-0.0023627,-7.1263e-05,-12.889,1.4241
27803,14.787,4.6364,0.1,0.0002104,2102.6,0.00021017,2095.9,-6.8776e-05,-0.0017782,-7.0537e-05,-13.238,1.4377
27804,14.51,4.5455,0.1,0.00021736,2172.1,0.00021714,2165.9,-7.1114e-05,-0.0022283,-7.2763e-05,-12.394,1.3966
27805,14.602,4.6364,0.1,0.00021506,2149.1,0.00021484,2142.7,-7.0338e-05,-0.0016709,-7.2036e-05,-12.762,1.4101
27806,14.326,4.5455,0.1,0.00022205,2218.9,0.00022184,2213,-7.2686e-05,-0.0020944,-7.4269e-05,-11.893,1.3692
27807,14.418,4.6364,0.1,0.00021974,2195.9,0.00021953,2189.7,-7.1906e-05,-0.0015386,-7.354e-05,-12.28,1.3826
27808,14.142,4.5455,0.1,0.00022676,2266,0.00022656,2260.3,-7.4266e-05,-0.0019871,-7.578e-05,-11.381,1.342
27809,14.234,4.6364,0.1,0.00022444,2242.9,0.00022424,2237,-7.3482e-05,-0.001433,-7.5051e-05,-11.791,1.3554
27810,13.957,4.5455,0.1,0.00023149,2313.3,0.0002313,2307.8,-7.5852e-05,-0.0018767,-7.7297e-05,-10.857,1.3149
27811,14.05,4.6364,0.1,0.00022916,2290.1,0.00022897,2284.4,-7.5064e-05,-0.0013529,-7.6567e-05,-11.291,1.3282
27812,13.773,4.5455,0.1,0.00023623,2360.7,0.00023606,2355.5,-7.7445e-05,-0.0017441,-7.8818e-05,-10.317,1.288
27813,13.865,4.6364,0.1,0.0002339,2337.4,0.00023372,2332,-7.6653e-05,-0.0012425,-7.8088e-05,-10.778,1.3012
27814,13.589,4.5455,0.1,0.000241,2408.3,0.00024083,2403.4,-7.9046e-05,-0.0015863,-8.0344e-05,-9.7573,1.2613
27815,13.681,4.6364,0.1,0.00023866,2385,0.00023848,2379.8,-7.825e-05,-0.0011193,-7.9614e-05,-10.248,1.2744
27816,13.405,4.5455,0.1,0.00024578,2456.1,0.00024563,2451.5,-8.0654e-05,-0.0014164,-8.1875e-05,-9.1755,1.2347
27817,13.497,4.6364,0.1,0.00024344,2432.7,0.00024327,2427.8,-7.9854e-05,-0.00095863,-8.1144e-05,-9.6981,1.2478
27818,13.22,4.5455,0.1,0.00025059,2504.1,0.00025044,2499.8,-8.2269e-05,-0.0012602,-8.3409e-05,-8.568,1.2083
27819,13.313,4.6364,0.1,0.00024823,2480.6,0.00024808,2476,-8.1465e-05,-0.00081592,-8.2679e-05,-9.1257,1.2213
27820,13.036,4.5455,0.1,0.00025541,2552.3,0.00025527,2548.4,-8.3892e-05,-0.0010808,-8.4947e-05,-7.9309,1.1821
27821,13.128,4.6364,0.1,0.00025305,2528.7,0.0002529,2524.5,-8.3083e-05,-0.00068602,-8.4218e-05,-8.5271,1.1949
27822,12.852,4.5455,0.1,0.00026025,2600.7,0.00026012,2597.1,-8.5522e-05,-0.000849,-8.6489e-05,-7.2606,1.156
27823,12.944,4.6364,0.1,0.00025788,2577,0.00025774,2573.1,-8.4709e-05,-0.00050206,-8.576e-05,-7.8987,1.1688
27824,12.668,4.5455,0.1,0.00026511,2649.2,0.00026499,2646,-8.716e-05,-0.00054698,-8.8032e-05,-6.5529,1.1301
27825,12.76,4.6364,0.1,0.00026273,2625.5,0.00026261,2621.9,-8.6342e-05,-0.00027587,-8.7306e-05,-7.2368,1.1428
27826,12.483,4.5455,0.1,0.00026998,2698,0.00026988,2695.1,-8.8806e-05,-0.00016616,-8.9579e-05,-5.8036,1.1044
27827,12.575,4.6364,0.1,0.0002676,2674.1,0.00026749,2670.9,-8.7984e-05,3.5503e-05,-8.8854e-05,-6.5376,1.117
27828,12.299,4.5455,0.1,0.00027487,2746.9,0.00027479,2744.3,-9.046e-05,0.00030764,-9.1127e-05,-5.0084,1.0789
27829,12.391,4.6364,0.1,0.00027249,2723,0.00027239,2720.1,-8.9633e-05,0.00039466,-9.0405e-05,-5.7968,1.0914
27830,12.115,4.5455,0.1,0.00027978,2795.9,0.00027971,2793.8,-9.2123e-05,0.0010002,-9.2677e-05,-4.1624,1.0536
27831,12.207,4.6364,0.1,0.00027739,2772,0.0002773,2769.5,-9.129e-05,0.0008484,-9.1957e-05,-5.0102,1.066
27832,11.931,4.5455,0.1,0.00028471,2845.1,0.00028466,2843.5,-9.3793e-05,0.0021483,-9.4227e-05,-3.2606,1.0284
27833,12.023,4.6364,0.1,0.00028231,2821.2,0.00028224,2819.1,-9.2956e-05,0.0015588,-9.3511e-05,-4.1729,1.0407
27834,11.746,4.5455,0.1,0.00028965,2894.5,0.00028962,2893.4,-9.5472e-05,0.0043676,-9.5778e-05,-2.2982,1.0035
27835,11.838,4.6364,0.1,0.00028725,2870.5,0.00028719,2868.9,-9.4629e-05,0.0027197,-9.5066e-05,-3.2803,1.0157
27836,11.562,4.5455,0.1,0.00029461,2944.1,0.00029459,2943.5,-9.7159e-05,0.010372,-9.7329e-05,-1.2721,0.97872
27837,11.654,4.6364,0.1,0.0002922,2920,0.00029216,2918.9,-9.6311e-05,0.0049679,-9.6622e-05,-2.3274,0.99079
27838,11.378,4.5455,0.1,0.00029959,2993.8,0.00029959,2993.7,-9.8847e-05,0.072291,-9.8887e-05,-0.22816,0.95416
27839,11.47,4.6364,0.1,0.00029717,2969.7,0.00029715,2969,-9.8002e-05,0.010874,-9.8178e-05,-1.3112,0.96613
27840,11.193,4.5455,0.1,0.00030458,3043.7,0.0003046,3044.2,-0.00010042,1.0496,-0.00010057,-0.019111,0.9298
27841,11.286,4.6364,0.1,0.00030216,3019.5,0.00030216,3019.4,-9.9695e-05,0.063745,-9.9739e-05,-0.26903,0.94167
27842,11.009,4.5455,0.1,0.00030959,3093.7,0.00030963,3094.9,-0.00010197,2.315,-0.00010228,-0.010316,0.90565
27843,11.101,4.6364,0.1,0.00030716,3069.5,0.00030718,3070,-0.00010128,0.99021,-0.00010141,-0.020541,0.91741
27844,10.825,4.5455,0.1,0.00031461,3143.9,0.00031467,3145.7,-0.00010351,3.6819,-0.000104,-0.0075814,0.88171
27845,10.917,4.6364,0.1,0.00031218,3119.7,0.00031222,3120.8,-0.00010283,2.242,-0.00010313,-0.010618,0.89336
27846,10.641,4.5455,0.1,0.00031964,3194.2,0.00031973,3196.8,-0.00010505,5.154,-0.00010574,-0.0062532,0.85799
27847,10.733,4.6364,0.1,0.00031722,3170,0.00031728,3171.8,-0.00010438,3.5952,-0.00010486,-0.0076378,0.86952
27848,10.456,4.5455,0.1,0.00032469,3244.7,0.00032481,3248,-0.00010658,6.7391,-0.00010748,-0.0055101,0.83448
27849,10.549,4.6364,0.1,0.00032226,3220.4,0.00032235,3222.9,-0.00010592,5.0524,-0.0001066,-0.006253,0.8459
27850,10.272,4.5455,0.1,0.00032975,3295.3,0.0003299,3299.5,-0.00010811,8.4466,-0.00010924,-0.0050316,0.81119
27851,10.364,4.6364,0.1,0.00032732,3271,0.00032744,3274.3,-0.00010746,6.6211,-0.00010835,-0.0055015,0.8225
27852,10.088,4.5455,0.1,0.00033483,3346,0.000335,3351.1,-0.00010963,10.287,-0.000111,-0.0046895,0.78813
27853,10.18,4.6364,0.1,0.0003324,3321.7,0.00033254,3325.9,-0.000109,8.3106,-0.0001101,-0.0049944,0.79932
27854,9.9036,4.5455,0.1,0.00033992,3396.8,0.00034012,3402.9,-0.00011115,12.27,-0.00011278,-0.0044532,0.76529
27855,9.9957,4.6364,0.1,0.00033749,3372.6,0.00033766,3377.6,-0.00011052,10.13,-0.00011187,-0.0046677,0.77636
27856,9.7193,4.5455,0.1,0.00034501,3447.8,0.00034526,3454.9,-0.00011265,14.408,-0.00011457,-0.004283,0.74268
27857,9.8115,4.6364,0.1,0.00034259,3423.5,0.00034279,3429.6,-0.00011204,12.091,-0.00011365,-0.0044508,0.75364
27858,9.5351,4.5455,0.1,0.00035012,3498.8,0.00035041,3507.2,-0.00011414,16.713,-0.00011637,-0.0041656,0.72031
27859,9.6272,4.6364,0.1,0.0003477,3474.6,0.00034794,3481.7,-0.00011355,14.204,-0.00011545,-0.0043031,0.73114
27860,9.3508,4.5455,0.1,0.00035525,3550,0.00035557,3559.6,-0.00011563,19.198,-0.00011818,-0.0040942,0.69818
27861,9.4429,4.6364,0.1,0.00035283,3525.8,0.0003531,3534,-0.00011505,16.48,-0.00011725,-0.004223,0.70888
27862,9.1665,4.5455,0.1,0.00036038,3601.3,0.00036074,3612.2,-0.00011709,21.877,-0.00012001,-0.0040587,0.67628
27863,9.2587,4.6364,0.1,0.00035796,3577.2,0.00035828,3586.6,-0.00011654,18.933,-0.00011906,-0.0041892,0.68686
27864,8.9823,4.5455,0.1,0.00036551,3652.6,0.00036593,3664.9,-0.00011855,24.765,-0.00012184,-0.0040578,0.65463
27865,9.0744,4.6364,0.1,0.00036311,3628.6,0.00036347,3639.3,-0.00011802,21.576,-0.00012089,-0.0041985,0.66509
27866,8.798,4.5455,0.1,0.00037066,3704.1,0.00037113,3717.9,-0.00011999,27.877,-0.0001237,-0.0040909,0.63323
27867,8.8901,4.6364,0.1,0.00036826,3680.1,0.00036867,3692.2,-0.00011948,24.422,-0.00012274,-0.0042483,0.64356
27868,8.6137,4.5455,0.1,0.00037582,3755.6,0.00037634,3771.1,-0.00012141,31.23,-0.00012556,-0.0041593,0.61208
27869,8.7059,4.6364,0.1,0.00037343,3731.7,0.00037389,3745.4,-0.00012093,27.486,-0.00012459,-0.0043388,0.62228
27870,8.4295,4.5455,0.1,0.00038098,3807.2,0.00038156,3824.5,-0.00012281,34.84,-0.00012745,-0.0042659,0.59119
27871,8.5216,4.6364,0.1,0.0003786,3783.4,0.00037912,3798.7,-0.00012236,30.783,-0.00012646,-0.0044723,0.60126
27872,8.2452,4.5455,0.1,0.00038615,3858.8,0.00038679,3878,-0.00012419,38.726,-0.00012934,-0.0044162,0.57056
27873,8.3373,4.6364,0.1,0.00038378,3835.2,0.00038435,3852.2,-0.00012378,34.33,-0.00012834,-0.0046522,0.58049
27874,8.0609,4.5455,0.1,0.00039132,3910.5,0.00039203,3931.8,-0.00012554,42.905,-0.00013126,-0.0046171,0.55019
27875,8.1531,4.6364,0.1,0.00038897,3887,0.0003896,3905.9,-0.00012517,38.141,-0.00013024,-0.0048856,0.55998
27876,7.8767,4.5455,0.1,0.0003965,3962.2,0.00039728,3985.7,-0.00012688,47.395,-0.00013318,-0.0048779,0.53008
27877,7.9688,4.6364,0.1,0.00039416,3938.9,0.00039486,3959.8,-0.00012654,42.234,-0.00013216,-0.0051803,0.53974
27878,7.6924,4.5455,0.1,0.00040168,4014,0.00040254,4039.9,-0.00012818,52.215,-0.00013513,-0.0052108,0.51025
27879,7.7845,4.6364,0.1,0.00039936,3990.9,0.00040013,4014,-0.00012789,46.623,-0.00013409,-0.005548,0.51977
27880,7.5081,4.5455,0.1,0.00040686,4065.8,0.00040781,4094.2,-0.00012946,57.383,-0.0001371,-0.0056317,0.49068
27881,7.6003,4.6364,0.1,0.00040456,4042.9,0.00040541,4068.3,-0.00012921,51.324,-0.00013604,-0.0060028,0.50006
27882,7.3239,4.5455,0.1,0.00041205,4117.7,0.00041308,4148.7,-0.00013071,62.917,-0.00013908,-0.0061606,0.4714
27883,7.416,4.6364,0.1,0.00040977,4094.9,0.0004107,4122.8,-0.00013051,56.353,-0.00013801,-0.0065635,0.48064
27884,7.1396,4.5455,0.1,0.00041724,4169.5,0.00041837,4203.5,-0.00013192,68.833,-0.00014108,-0.0068232,0.45239
27885,7.2317,4.6364,0.1,0.00041499,4147,0.000416,4177.5,-0.00013178,61.723,-0.00013999,-0.0072534,0.46149
27886,6.9553,4.5455,0.1,0.00042243,4221.4,0.00042366,4258.5,-0.00013311,75.145,-0.00014311,-0.0076527,0.43367
27887,7.0475,4.6364,0.1,0.0004202,4199.1,0.00042131,4232.4,-0.00013302,67.444,-0.00014199,-0.0081027,0.44262
27888,6.7711,4.5455,0.1,0.00042762,4273.3,0.00042896,4313.6,-0.00013426,81.865,-0.00014515,-0.0086914,0.41524
27889,6.8632,4.6364,0.1,0.00042542,4251.3,0.00042663,4287.6,-0.00013423,73.526,-0.00014402,-0.0091499,0.42404
27890,6.5868,4.5455,0.1,0.00043282,4325.2,0.00043427,4369,-0.00013537,89.002,-0.00014722,-0.0099935,0.3971
27891,6.6789,4.6364,0.1,0.00043065,4303.5,0.00043195,4342.9,-0.00013541,79.973,-0.00014606,-0.010444,0.40575
27892,6.4025,4.5455,0.1,0.00043802,4377.2,0.00043958,4424.6,-0.00013645,96.558,-0.0001493,-0.011629,0.37925
27893,6.4947,4.6364,0.1,0.00043587,4355.7,0.00043729,4398.5,-0.00013656,86.783,-0.00014812,-0.012047,0.38775
27894,6.2183,4.5455,0.1,0.00044322,4429.2,0.00044491,4480.5,-0.0001375,104.53,-0.00015141,-0.013688,0.3617
27895,6.3104,4.6364,0.1,0.00044111,4408,0.00044263,4454.2,-0.00013769,93.951,-0.0001502,-0.014041,0.37005
27896,6.034,4.5455,0.1,0.00044843,4481.2,0.00045025,4536.6,-0.00013851,112.91,-0.00015354,-0.016289,0.34445
27897,6.1261,4.6364,0.1,0.00044634,4460.4,0.00044798,4510.2,-0.00013879,101.46,-0.00015229,-0.01653,0.35265
27898,5.8497,4.5455,0.1,0.00045365,4533.4,0.0004556,4593,-0.0001395,121.66,-0.00015569,-0.019586,0.32751
27899,5.9419,4.6364,0.1,0.00045159,4512.8,0.00045335,4566.4,-0.00013986,109.28,-0.00015441,-0.019652,0.33556
27900,5.6655,4.5455,0.1,0.00045888,4585.6,0.00046096,4649.6,-0.00014046,130.77,-0.00015786,-0.023785,0.31088
27901,5.7576,4.6364,0.1,0.00045684,4565.2,0.00045872,4622.8,-0.00014091,117.38,-0.00015654,-0.023586,0.31877
27902,5.4812,4.5455,0.1,0.00046412,4638,0.00046634,4706.5,-0.00014139,140.17,-0.00016005,-0.029155,0.29456
27903,5.5733,4.6364,0.1,0.0004621,4617.8,0.00046411,4679.4,-0.00014195,125.7,-0.00015868,-0.02857,0.30229
27904,5.2969,4.5455,0.1,0.00046938,4690.6,0.00047175,4763.6,-0.00014232,149.79,-0.00016226,-0.036063,0.27856
27905,5.3891,4.6364,0.1,0.00046737,4670.5,0.00046951,4736.1,-0.00014297,134.16,-0.00016083,-0.034924,0.28613
27906,5.1127,4.5455,0.1,0.00047467,4743.4,0.00047718,4821.1,-0.00014324,159.54,-0.00016448,-0.045003,0.26288
27907,5.2048,4.6364,0.1,0.00047266,4723.3,0.00047493,4793,-0.000144,142.66,-0.00016299,-0.04308,0.27029
27908,4.9284,4.5455,0.1,0.00047998,4796.5,0.00048264,4878.9,-0.00014417,169.28,-0.00016671,-0.056651,0.24752
27909,5.0205,4.6364,0.1,0.00047796,4776.4,0.00048035,4850.1,-0.00014504,151.08,-0.00016516,-0.053629,0.25477
27910,4.7441,4.5455,0.1,0.00048534,4850,0.00048813,4936.9,-0.00014513,178.87,-0.00016895,-0.071943,0.23249
27911,4.8363,4.6364,0.1,0.00048329,4829.5,0.0004858,4907.2,-0.00014611,159.24,-0.00016731,-0.067389,0.23958
27912,4.5599,4.5455,0.1,0.00049074,4904,0.00049367,4995.3,-0.00014613,188.08,-0.00017118,-0.092192,0.21779
27913,4.652,4.6364,0.1,0.00048863,4882.9,0.00049125,4964.2,-0.00014722,166.95,-0.00016945,-0.085512,0.22471
27914,4.3756,4.5455,0.1,0.0004962,4958.5,0.00049925,5053.9,-0.00014721,196.66,-0.0001734,-0.11927,0.20343
27915,4.4677,4.6364,0.1,0.00049399,4936.5,0.00049672,5021.1,-0.0001484,173.96,-0.00017157,-0.10964,0.21018
27916,4.1913,4.5455,0.1,0.00050172,5013.7,0.00050488,5112.6,-0.00014839,204.29,-0.0001756,-0.15586,0.18941
27917,4.2835,4.6364,0.1,0.00049937,4990.3,0.00050219,5077.7,-0.00014967,179.94,-0.00017364,-0.14217,0.19599
27918,4.0071,4.5455,0.1,0.00050731,5069.6,0.00051056,5171.5,-0.0001497,210.55,-0.00017775,-0.20596,0.17573
27919,4.0992,4.6364,0.1,0.00050477,5044.2,0.00050765,5133.8,-0.00015106,184.51,-0.00017564,-0.18665,0.18214
27920,3.8228,4.5455,0.1,0.00051299,5126.4,0.00051631,5230.3,-0.0001512,214.94,-0.00017985,-0.2756,0.16239
27921,3.9149,4.6364,0.1,0.00051017,5098.1,0.00051309,5189,-0.00015261,187.21,-0.00017756,-0.24854,0.16863
27922,3.6385,4.5455,0.1,0.00051877,5184.1,0.00052211,5288.9,-0.00015295,216.78,-0.00018185,-0.37423,0.14941
27923,3.7307,4.6364,0.1,0.00051555,5152,0.00051848,5243,-0.00015437,187.45,-0.00017936,-0.33646,0.15548
27924,3.4543,4.5455,0.1,0.00052465,5242.9,0.00052797,5346.9,-0.00015502,215.23,-0.00018373,-0.51735,0.13678
27925,3.5464,4.6364,0.1,0.00052091,5205.5,0.0005238,5295.1,-0.00015638,184.48,-0.000181,-0.46474,0.14267
27926,3.27,4.5455,0.1,0.00053066,5302.9,0.00053389,5404,-0.00015751,209.11,-0.00018543,-0.73216,0.12451
27927,3.3621,4.6364,0.1,0.00052621,5258.5,0.00052899,5344.6,-0.00015872,177.35,-0.00018241,-0.65882,0.13022
27928,3.0857,4.5455,0.1,0.00053682,5364.5,0.00053987,5459.6,-0.00016056,196.81,-0.0001869,-1.071,0.11261
27929,3.1779,4.6364,0.1,0.00053142,5310.5,0.00053401,5390.5,-0.00016149,164.79,-0.00018355,-0.96828,0.11813
27930,2.9015,4.5455,0.1,0.00054318,5428.1,0.00054593,5513.1,-0.00016439,176.03,-0.00018804,-1.6501,0.10107
27931,2.9936,4.6364,0.1,0.0005365,5361.3,0.00053879,5431.6,-0.0001648,145.09,-0.00018431,-1.5045,0.1064
27932,2.7172,4.5455,0.1,0.00054986,5494.8,0.00055211,5563.7,-0.00016928,143.46,-0.00018874,-2.7926,0.089897
27933,2.8093,4.6364,0.1,0.00054145,5410.7,0.00054328,5466.4,-0.00016884,115.87,-0.0001846,-2.5813,0.095043
27934,2.5329,4.5455,0.1,0.00055706,5566.8,0.0005585,5610.5,-0.0001756,94.786,-0.00018899,-5.8432,0.079102
27935,2.6251,4.6364,0.1,0.00054628,5459,0.00054741,5493,-0.00017376,74.436,-0.00018441,-5.5171,0.08405
27936,2.3487,4.5455,0.1,0.00056519,5648,0.00056534,5652.9,-0.00018258,33.311,-0.00019008,-23.099,0.068686
27937,2.4408,4.6364,0.1,0.00055113,5507.5,0.00055118,5509.4,-0.00017861,25.991,-0.00018498,-21.802,0.073429
27938,2.1644,4.5455,0.1,0.00057498,5745.8,0.000573,5689.7,-0.00018304,9.1097,-0.00020012,-119.19,0.05865
27939,2.2565,4.6364,0.1,0.0005563,5559.2,0.00055468,5513,-0.00017799,8.0089,-0.00019221,-98.834,0.063179
27940,1.9801,4.5455,0.1,0.00058775,5873.5,0.00058213,5719.8,-0.00017842,5.341,-0.00021916,-300.78,0.048997
27941,2.0723,4.6364,0.1,0.00056249,5621,0.00055815,5501.1,-0.00017336,4.7865,-0.00020552,-236.87,0.053301
27942,1.7959,4.5455,0.1,0.00060569,6052.7,0.00059358,5739.2,-0.00016966,4.4966,-0.00024851,-588,0.039723
27943,1.888,4.6364,0.1,0.00057098,5705.9,0.00056207,5470.1,-0.00016543,3.9109,-0.00022566,-448.59,0.043791
27944,1.6116,4.5455,0.1,0.00063223,6317.9,0.00060822,5737.7,-0.00015483,4.3733,-0.00029327,-1035.8,0.030824
27945,1.7037,4.6364,0.1,0.00058398,5835.8,0.00056706,5413.5,-0.00015292,3.8307,-0.00025605,-771.06,0.03464
27946,1.4273,4.5455,0.1,0.00067051,6700.4,0.00062464,5677.1,-0.00013055,2.8159,-0.00035919,-1715.1,0.022282
27947,1.5195,4.6364,0.1,0.00060496,6045.4,0.0005737,5319.6,-0.00013374,4.2493,-0.00030159,-1256.9,0.025831
27948,1.2431,4.5455,0.1,0.00073964,7391.3,0.00065187,5603.9,-9.1412e-05,19.167,-0.00046365,-2777.7,0.014073
27949,1.3352,4.6364,0.1,0.00063783,6373.9,0.00058103,5156.3,-0.00010515,0.61255,-0.00036745,-1970.2,0.01734
27950,1.1509,4.6364,0.1,0.00071646,7159.6,0.00061078,5086.7,-6.3115e-05,23.358,-0.00047943,-3104.7,0.0091586
27951,1.0588,4.5455,0.1,0.00064742,6469.7,0.00054317,4457.4,-4.6631e-05,25.881,-0.00044494,-2966.9,0.0062385
27952,23.724,4.7273,0.1,1.6556e-05,165.44,1.0116e-05,58.767,2.2713e-06,-0.17455,-1.4751e-05,-128.08,2.8891
27953,23.816,4.8182,0.1,1.5162e-05,151.52,8.2096e-06,39.885,2.8853e-06,-0.11902,-1.4084e-05,-127.62,2.9046
27954,23.908,4.7273,0.1,1.5009e-05,149.98,6.8132e-06,22.544,3.7581e-06,-0.41102,-1.45e-05,-137.59,2.9202
27955,23.539,4.7273,0.1,1.8658e-05,186.45,1.3582e-05,96.612,6.9771e-07,-0.19533,-1.5025e-05,-118.33,2.858
27956,23.631,4.8182,0.1,1.7015e-05,170.03,1.1642e-05,77.449,1.296e-06,-0.2835,-1.4312e-05,-117.55,2.8735
27957,23.355,4.7273,0.1,2.1176e-05,211.62,1.7074e-05,134.48,-8.3733e-07,-0.10516,-1.5389e-05,-109.44,2.8269
27958,23.447,4.8182,0.1,1.9375e-05,193.62,1.5107e-05,115.16,-2.3515e-07,-0.10974,-1.4644e-05,-108.37,2.8424
27959,23.171,4.7273,0.1,2.3992e-05,239.76,2.0601e-05,172.37,-2.3518e-06,-0.084758,-1.5838e-05,-101.41,2.7958
27960,23.263,4.8182,0.1,2.2092e-05,220.76,1.8612e-05,152.9,-1.7505e-06,-0.095863,-1.5071e-05,-100.18,2.8113
27961,22.987,4.7273,0.1,2.7028e-05,270.1,2.4165e-05,210.39,-3.8443e-06,-0.063823,-1.6369e-05,-94.17,2.7647
27962,23.079,4.8182,0.1,2.5065e-05,250.47,2.2159e-05,190.78,-3.2406e-06,-0.066986,-1.5589e-05,-92.849,2.7802
27963,22.802,4.7273,0.1,3.0232e-05,302.11,2.7771e-05,248.58,-5.3194e-06,-0.051638,-1.6978e-05,-87.653,2.7337
27964,22.894,4.8182,0.1,2.823e-05,282.1,2.5753e-05,228.85,-4.7125e-06,-0.053554,-1.6193e-05,-86.311,2.7491
27965,22.618,4.7273,0.1,3.3566e-05,335.43,3.1418e-05,286.97,-6.7801e-06,-0.042247,-1.7659e-05,-81.779,2.7026
27966,22.71,4.8182,0.1,3.1541e-05,315.2,2.9392e-05,267.15,-6.1691e-06,-0.042609,-1.6873e-05,-80.465,2.7181
27967,22.434,4.7273,0.1,3.7004e-05,369.79,3.5105e-05,325.56,-8.2292e-06,-0.035331,-1.8402e-05,-76.471,2.6716
27968,22.526,4.8182,0.1,3.4967e-05,349.43,3.3074e-05,305.68,-7.6139e-06,-0.03495,-1.762e-05,-75.22,2.6871
27969,22.249,4.7273,0.1,4.0527e-05,404.99,3.8829e-05,364.37,-9.669e-06,-0.029944,-1.9202e-05,-71.66,2.6406
27970,22.342,4.8182,0.1,3.8483e-05,384.56,3.6796e-05,344.43,-9.0492e-06,-0.029039,-1.8427e-05,-70.492,2.6561
27971,22.065,4.7273,0.1,4.412e-05,440.89,4.2588e-05,403.38,-1.1101e-05,-0.025697,-2.0053e-05,-67.282,2.6097
27972,22.157,4.8182,0.1,4.2073e-05,420.44,4.0554e-05,383.4,-1.0477e-05,-0.024473,-1.9286e-05,-66.209,2.6251
27973,21.881,4.7273,0.1,4.7772e-05,477.39,4.638e-05,442.59,-1.2528e-05,-0.022275,-2.0947e-05,-63.284,2.5787
27974,21.973,4.8182,0.1,4.5725e-05,456.94,4.4345e-05,422.57,-1.1899e-05,-0.020852,-2.0189e-05,-62.311,2.5941
27975,21.697,4.7273,0.1,5.1476e-05,514.41,5.0202e-05,481.99,-1.395e-05,-0.019484,-2.1882e-05,-59.622,2.5478
27976,21.789,4.8182,0.1,4.943e-05,493.96,4.8167e-05,461.95,-1.3316e-05,-0.017937,-2.1133e-05,-58.749,2.5632
27977,21.512,4.7273,0.1,5.5226e-05,551.87,5.4053e-05,521.58,-1.5368e-05,-0.017186,-2.2853e-05,-56.257,2.517
27978,21.605,4.8182,0.1,5.318e-05,531.43,5.2018e-05,501.51,-1.4731e-05,-0.015567,-2.2113e-05,-55.482,2.5323
27979,21.328,4.7273,0.1,5.9016e-05,589.75,5.7931e-05,561.36,-1.6784e-05,-0.015268,-2.3857e-05,-53.158,2.4861
27980,21.42,4.8182,0.1,5.6971e-05,569.32,5.5896e-05,541.26,-1.6142e-05,-0.013623,-2.3125e-05,-52.476,2.5015
27981,21.144,4.7273,0.1,6.2843e-05,627.99,6.1836e-05,601.33,-1.8198e-05,-0.013647,-2.489e-05,-50.297,2.4554
27982,21.236,4.8182,0.1,6.0799e-05,607.57,5.98e-05,581.18,-1.7552e-05,-0.011997,-2.4166e-05,-49.702,2.4707
27983,20.96,4.7273,0.1,6.6704e-05,666.58,6.5766e-05,641.47,-1.9611e-05,-0.012262,-2.5951e-05,-47.65,2.4246
27984,21.052,4.8182,0.1,6.466e-05,646.16,6.3729e-05,621.29,-1.8961e-05,-0.01063,-2.5233e-05,-47.138,2.4399
27985,20.775,4.7273,0.1,7.0598e-05,705.49,6.972e-05,681.8,-2.1024e-05,-0.011074,-2.7038e-05,-45.199,2.3939
27986,20.867,4.8182,0.1,6.8553e-05,685.06,6.7682e-05,661.58,-2.037e-05,-0.0094606,-2.6326e-05,-44.761,2.4092
27987,20.591,4.7273,0.1,7.4522e-05,744.71,7.3699e-05,722.31,-2.2436e-05,-0.010055,-2.8148e-05,-42.925,2.3632
27988,20.683,4.8182,0.1,7.2476e-05,724.26,7.1659e-05,702.04,-2.1779e-05,-0.0084689,-2.7442e-05,-42.556,2.3785
27989,20.407,4.7273,0.1,7.8475e-05,784.21,7.7701e-05,763.01,-2.385e-05,-0.0091668,-2.928e-05,-40.814,2.3326
27990,20.499,4.8182,0.1,7.6428e-05,763.75,7.5658e-05,742.69,-2.3189e-05,-0.0076227,-2.8579e-05,-40.507,2.3478
27991,20.223,4.7273,0.1,8.2457e-05,824,8.1727e-05,803.88,-2.5264e-05,-0.0083841,-3.0434e-05,-38.851,2.3021
27992,20.315,4.8182,0.1,8.0407e-05,803.51,7.968e-05,783.51,-2.46e-05,-0.0068808,-2.9736e-05,-38.601,2.3172
27993,20.038,4.7273,0.1,8.6465e-05,864.05,8.5776e-05,844.94,-2.668e-05,-0.0076877,-3.1607e-05,-37.025,2.2716
27994,20.13,4.8182,0.1,8.4412e-05,843.53,8.3725e-05,824.52,-2.6012e-05,-0.0062311,-3.0913e-05,-36.826,2.2867
27995,19.854,4.7273,0.1,9.05e-05,904.37,8.9847e-05,886.19,-2.8099e-05,-0.0070688,-3.2799e-05,-35.324,2.2411
27996,19.946,4.8182,0.1,8.8442e-05,883.81,8.7791e-05,865.7,-2.7427e-05,-0.0056501,-3.2107e-05,-35.172,2.2562
27997,19.67,4.7273,0.1,9.456e-05,944.95,9.3941e-05,927.62,-2.9519e-05,-0.0065269,-3.4009e-05,-33.74,2.2107
27998,19.762,4.8182,0.1,9.2498e-05,924.34,9.188e-05,907.07,-2.8844e-05,-0.0051441,-3.3319e-05,-33.63,2.2258
27999,19.485,4.7273,0.1,9.8645e-05,985.77,9.8057e-05,969.24,-3.0942e-05,-0.006044,-3.5235e-05,-32.263,2.1804
28000,19.578,4.8182,0.1,9.6579e-05,965.12,9.5991e-05,948.62,-3.0264e-05,-0.0047073,-3.4547e-05,-32.19,2.1954
28001,19.301,4.7273,0.1,0.00010276,1026.8,0.0001022,1011.1,-3.2368e-05,-0.0056024,-3.6478e-05,-30.885,2.1501
28002,19.393,4.8182,0.1,0.00010068,1006.1,0.00010012,990.36,-3.1686e-05,-0.0043076,-3.5791e-05,-30.845,2.1651
28003,19.117,4.7273,0.1,0.00010689,1068.2,0.00010636,1053.1,-3.3798e-05,-0.0051942,-3.7736e-05,-29.598,2.12
28004,19.209,4.8182,0.1,0.00010481,1047.4,0.00010428,1032.3,-3.3112e-05,-0.0039466,-3.705e-05,-29.588,2.1349
28005,18.933,4.7273,0.1,0.00011105,1109.7,0.00011054,1095.2,-3.5231e-05,-0.0048256,-3.9009e-05,-28.395,2.0898
28006,19.025,4.8182,0.1,0.00010896,1088.9,0.00010845,1074.4,-3.4542e-05,-0.0036075,-3.8323e-05,-28.413,2.1048
28007,18.748,4.7273,0.1,0.00011523,1151.5,0.00011474,1137.6,-3.6667e-05,-0.0045033,-4.0296e-05,-27.27,2.0598
28008,18.841,4.8182,0.1,0.00011314,1130.6,0.00011265,1116.7,-3.5975e-05,-0.003316,-3.961e-05,-27.312,2.0747
28009,18.564,4.7273,0.1,0.00011944,1193.5,0.00011897,1180.2,-3.8108e-05,-0.0042089,-4.1597e-05,-26.217,2.0298
28010,18.656,4.8182,0.1,0.00011734,1172.6,0.00011687,1159.2,-3.7412e-05,-0.0030621,-4.091e-05,-26.281,2.0447
28011,18.38,4.7273,0.1,0.00012366,1235.8,0.00012321,1223,-3.9553e-05,-0.0039329,-4.2911e-05,-25.23,1.9999
28012,18.472,4.8182,0.1,0.00012156,1214.7,0.00012111,1201.9,-3.8854e-05,-0.0028212,-4.2222e-05,-25.314,2.0147
28013,18.196,4.7273,0.1,0.00012791,1278.3,0.00012748,1265.9,-4.1002e-05,-0.0036705,-4.4237e-05,-24.304,1.9701
28014,18.288,4.8182,0.1,0.0001258,1257.1,0.00012537,1244.8,-4.03e-05,-0.0025983,-4.3548e-05,-24.407,1.9849
28015,18.011,4.7273,0.1,0.00013219,1321,0.00013177,1309.1,-4.2456e-05,-0.0034291,-4.5575e-05,-23.435,1.9404
28016,18.103,4.8182,0.1,0.00013007,1299.8,0.00012965,1287.8,-4.175e-05,-0.0023787,-4.4884e-05,-23.553,1.9551
28017,17.827,4.7273,0.1,0.00013648,1363.9,0.00013608,1352.4,-4.3915e-05,-0.0032223,-4.6925e-05,-22.617,1.9108
28018,17.919,4.8182,0.1,0.00013435,1342.6,0.00013395,1331.1,-4.3205e-05,-0.0021926,-4.6233e-05,-22.75,1.9254
28019,17.643,4.7273,0.1,0.0001408,1407,0.00014042,1396,-4.5379e-05,-0.0030309,-4.8286e-05,-21.846,1.8813
28020,17.735,4.8182,0.1,0.00013866,1385.7,0.00013828,1374.6,-4.4665e-05,-0.0020377,-4.7592e-05,-21.993,1.8959
28021,17.459,4.7273,0.1,0.00014514,1450.4,0.00014477,1439.7,-4.6847e-05,-0.0028454,-4.9658e-05,-21.118,1.8518
28022,17.551,4.8182,0.1,0.000143,1429,0.00014262,1418.2,-4.6131e-05,-0.0018798,-4.8962e-05,-21.278,1.8664
28023,17.274,4.7273,0.1,0.0001495,1494,0.00014915,1483.7,-4.8321e-05,-0.0026629,-5.104e-05,-20.429,1.8225
28024,17.366,4.8182,0.1,0.00014735,1472.5,0.00014699,1462.1,-4.7601e-05,-0.0017319,-5.0343e-05,-20.602,1.837
28025,17.09,4.7273,0.1,0.00015389,1537.8,0.00015354,1527.8,-4.98e-05,-0.002492,-5.2432e-05,-19.777,1.7932
28026,17.182,4.8182,0.1,0.00015172,1516.2,0.00015137,1506.1,-4.9077e-05,-0.0015756,-5.1733e-05,-19.96,1.8077
28027,16.906,4.7273,0.1,0.00015829,1581.8,0.00015796,1572.2,-5.1285e-05,-0.0023516,-5.3834e-05,-19.156,1.7641
28028,16.998,4.8182,0.1,0.00015612,1560.1,0.00015578,1550.3,-5.0558e-05,-0.0014487,-5.3133e-05,-19.35,1.7785
28029,16.721,4.7273,0.1,0.00016272,1626.1,0.0001624,1616.7,-5.2775e-05,-0.002222,-5.5246e-05,-18.564,1.7351
28030,16.814,4.8182,0.1,0.00016054,1604.3,0.00016021,1594.8,-5.2045e-05,-0.0013503,-5.4543e-05,-18.77,1.7494
28031,16.537,4.7273,0.1,0.00016717,1670.5,0.00016685,1661.4,-5.4271e-05,-0.0020906,-5.6666e-05,-17.998,1.7061
28032,16.629,4.8182,0.1,0.00016498,1648.6,0.00016466,1639.4,-5.3537e-05,-0.0012423,-5.5961e-05,-18.214,1.7204
28033,16.353,4.7273,0.1,0.00017164,1715.2,0.00017133,1706.4,-5.5773e-05,-0.0019546,-5.8096e-05,-17.455,1.6773
28034,16.445,4.8182,0.1,0.00016943,1693.2,0.00016913,1684.3,-5.5035e-05,-0.0011373,-5.7389e-05,-17.682,1.6915
28035,16.169,4.7273,0.1,0.00017612,1760,0.00017583,1751.5,-5.7281e-05,-0.0018259,-5.9534e-05,-16.932,1.6486
28036,16.261,4.8182,0.1,0.00017391,1737.9,0.00017362,1729.3,-5.6539e-05,-0.0010175,-5.8824e-05,-17.169,1.6628
28037,15.984,4.7273,0.1,0.00018064,1805.1,0.00018035,1796.8,-5.8794e-05,-0.0017256,-6.098e-05,-16.426,1.6201
28038,16.077,4.8182,0.1,0.00017842,1782.9,0.00017813,1774.5,-5.805e-05,-0.00092567,-6.0269e-05,-16.674,1.6341
28039,15.8,4.7273,0.1,0.00018517,1850.4,0.00018489,1842.4,-6.0314e-05,-0.0016323,-6.2434e-05,-15.934,1.5916
28040,15.892,4.8182,0.1,0.00018294,1828.1,0.00018266,1820,-5.9566e-05,-0.00086136,-6.1721e-05,-16.194,1.6056
28041,15.616,4.7273,0.1,0.00018972,1895.9,0.00018945,1888.1,-6.184e-05,-0.0015314,-6.3897e-05,-15.454,1.5633
28042,15.708,4.8182,0.1,0.00018748,1873.5,0.00018721,1865.6,-6.1088e-05,-0.00078196,-6.3181e-05,-15.726,1.5772
28043,15.432,4.7273,0.1,0.00019429,1941.6,0.00019403,1934,-6.3372e-05,-0.0014211,-6.5366e-05,-14.983,1.5351
28044,15.524,4.8182,0.1,0.00019204,1919.1,0.00019178,1911.4,-6.2616e-05,-0.00070098,-6.4648e-05,-15.268,1.549
28045,15.247,4.7273,0.1,0.00019888,1987.4,0.00019863,1980.1,-6.4911e-05,-0.0013146,-6.6843e-05,-14.518,1.507
28046,15.339,4.8182,0.1,0.00019663,1964.9,0.00019637,1957.5,-6.4151e-05,-0.00060056,-6.6123e-05,-14.818,1.5208
28047,15.063,4.7273,0.1,0.00020349,2033.5,0.00020325,2026.5,-6.6456e-05,-0.0012357,-6.8327e-05,-14.058,1.4791
28048,15.155,4.8182,0.1,0.00020123,2010.9,0.00020098,2003.7,-6.5693e-05,-0.00052716,-6.7605e-05,-14.373,1.4928
28049,14.879,4.7273,0.1,0.00020813,2079.8,0.00020789,2073,-6.8007e-05,-0.0011612,-6.9817e-05,-13.599,1.4513
28050,14.971,4.8182,0.1,0.00020585,2057.1,0.00020561,2050.1,-6.724e-05,-0.00048171,-6.9094e-05,-13.93,1.4649
28051,14.695,4.7273,0.1,0.00021278,2126.3,0.00021255,2119.7,-6.9565e-05,-0.0010737,-7.1314e-05,-13.139,1.4236
28052,14.787,4.8182,0.1,0.0002105,2103.5,0.00021026,2096.7,-6.8795e-05,-0.00041543,-7.059e-05,-13.488,1.4372
28053,14.51,4.7273,0.1,0.00021745,2173,0.00021723,2166.6,-7.113e-05,-0.00097077,-7.2817e-05,-12.676,1.3961
28054,14.602,4.8182,0.1,0.00021516,2150.1,0.00021493,2143.6,-7.0355e-05,-0.00034478,-7.2091e-05,-13.044,1.4096
28055,14.326,4.7273,0.1,0.00022214,2219.9,0.00022193,2213.8,-7.2702e-05,-0.00086921,-7.4326e-05,-12.207,1.3688
28056,14.418,4.8182,0.1,0.00021984,2196.9,0.00021963,2190.6,-7.1923e-05,-0.00024784,-7.3599e-05,-12.595,1.3822
28057,14.142,4.7273,0.1,0.00022685,2267,0.00022665,2261.1,-7.428e-05,-0.00079349,-7.5841e-05,-11.729,1.3415
28058,14.234,4.8182,0.1,0.00022454,2243.9,0.00022434,2237.8,-7.3498e-05,-0.00017922,-7.5113e-05,-12.14,1.3549
28059,13.957,4.7273,0.1,0.00023158,2314.2,0.00023139,2308.6,-7.5866e-05,-0.00071612,-7.7361e-05,-11.239,1.3145
28060,14.05,4.8182,0.1,0.00022927,2291.1,0.00022907,2285.2,-7.5079e-05,-0.0001358,-7.6633e-05,-11.675,1.3277
28061,13.773,4.7273,0.1,0.00023633,2361.7,0.00023615,2356.3,-7.7458e-05,-0.00061829,-7.8887e-05,-10.736,1.2876
28062,13.865,4.8182,0.1,0.00023401,2338.5,0.00023382,2332.8,-7.6667e-05,-6.5349e-05,-7.8158e-05,-11.199,1.3008
28063,13.589,4.7273,0.1,0.0002411,2409.4,0.00024093,2404.2,-7.9057e-05,-0.00049586,-8.0417e-05,-10.215,1.2608
28064,13.681,4.8182,0.1,0.00023877,2386,0.00023858,2380.7,-7.8263e-05,1.7174e-05,-7.9688e-05,-10.708,1.2739
28065,13.405,4.7273,0.1,0.00024589,2457.2,0.00024572,2452.4,-8.0664e-05,-0.00036644,-8.1952e-05,-9.6742,1.2343
28066,13.497,4.8182,0.1,0.00024355,2433.8,0.00024337,2428.7,-7.9865e-05,0.00013398,-8.1223e-05,-10.199,1.2473
28067,13.22,4.7273,0.1,0.0002507,2505.2,0.00025054,2500.7,-8.2278e-05,-0.00025485,-8.3491e-05,-9.1103,1.2078
28068,13.313,4.8182,0.1,0.00024835,2481.8,0.00024818,2476.9,-8.1475e-05,0.00022831,-8.2762e-05,-9.6705,1.2208
28069,13.036,4.7273,0.1,0.00025552,2553.5,0.00025538,2549.2,-8.39e-05,-0.00012606,-8.5034e-05,-8.5199,1.1816
28070,13.128,4.8182,0.1,0.00025316,2529.9,0.00025301,2525.3,-8.3092e-05,0.0003042,-8.4306e-05,-9.1187,1.1944
28071,12.852,4.7273,0.1,0.00026037,2601.9,0.00026023,2597.9,-8.5529e-05,4.527e-05,-8.658e-05,-7.8997,1.1555
28072,12.944,4.8182,0.1,0.000258,2578.2,0.00025785,2573.9,-8.4717e-05,0.00042532,-8.5853e-05,-8.5404,1.1683
28073,12.668,4.7273,0.1,0.00026523,2650.4,0.0002651,2646.8,-8.7166e-05,0.00027202,-8.813e-05,-7.2459,1.1296
28074,12.76,4.8182,0.1,0.00026286,2626.7,0.00026272,2622.8,-8.6349e-05,0.00057697,-8.7405e-05,-7.9324,1.1423
28075,12.483,4.7273,0.1,0.00027011,2699.2,0.00026999,2695.9,-8.881e-05,0.00055028,-8.9683e-05,-6.5547,1.1039
28076,12.575,4.8182,0.1,0.00026773,2675.4,0.0002676,2671.8,-8.7989e-05,0.00079417,-8.8959e-05,-7.2912,1.1165
28077,12.299,4.7273,0.1,0.000275,2748.1,0.0002749,2745.2,-9.0463e-05,0.00087389,-9.1238e-05,-5.8222,1.0784
28078,12.391,4.8182,0.1,0.00027262,2724.3,0.00027251,2721,-8.9636e-05,0.001027,-9.0517e-05,-6.613,1.0908
28079,12.115,4.7273,0.1,0.00027992,2797.3,0.00027983,2794.7,-9.2123e-05,0.0013234,-9.2795e-05,-5.0439,1.053
28080,12.207,4.8182,0.1,0.00027753,2773.4,0.00027743,2770.4,-9.1292e-05,0.0012995,-9.2077e-05,-5.8941,1.0654
28081,11.931,4.7273,0.1,0.00028485,2846.5,0.00028478,2844.4,-9.3792e-05,0.0020136,-9.4353e-05,-4.2153,1.0279
28082,12.023,4.8182,0.1,0.00028245,2822.6,0.00028237,2820,-9.2956e-05,0.001721,-9.3639e-05,-5.13,1.0401
28083,11.746,4.7273,0.1,0.0002898,2896,0.00028974,2894.3,-9.5469e-05,0.0031539,-9.5913e-05,-3.3317,1.0029
28084,11.838,4.8182,0.1,0.0002874,2872,0.00028732,2869.8,-9.4627e-05,0.0023537,-9.5202e-05,-4.3164,1.0151
28085,11.562,4.7273,0.1,0.00029477,2945.6,0.00029473,2944.4,-9.7154e-05,0.0052957,-9.7473e-05,-2.3884,0.97814
28086,11.654,4.8182,0.1,0.00029236,2921.6,0.0002923,2919.9,-9.6308e-05,0.0034049,-9.6767e-05,-3.4487,0.99019
28087,11.378,4.7273,0.1,0.00029975,2995.4,0.00029973,2994.7,-9.8848e-05,0.010773,-9.9033e-05,-1.3822,0.95357
28088,11.47,4.8182,0.1,0.00029734,2971.3,0.0002973,2970.1,-9.7996e-05,0.0052884,-9.8333e-05,-2.5223,0.96552
28089,11.193,4.7273,0.1,0.00030475,3045.4,0.00030474,3045.2,-0.00010055,0.05137,-0.0001006,-0.3387,0.92921
28090,11.286,4.8182,0.1,0.00030233,3021.2,0.00030231,3020.5,-9.9693e-05,0.0098341,-9.9899e-05,-1.5337,0.94104
28091,11.009,4.7273,0.1,0.00030976,3095.5,0.00030978,3095.9,-0.00010215,0.89811,-0.00010227,-0.022501,0.90505
28092,11.101,4.8182,0.1,0.00030734,3071.3,0.00030734,3071.1,-0.0001014,0.03474,-0.00010147,-0.49431,0.91678
28093,10.825,4.7273,0.1,0.00031479,3145.8,0.00031483,3146.8,-0.0001037,2.1352,-0.00010399,-0.010908,0.8811
28094,10.917,4.8182,0.1,0.00031237,3121.6,0.00031238,3121.9,-0.00010302,0.70936,-0.00010312,-0.027586,0.89272
28095,10.641,4.7273,0.1,0.00031984,3196.2,0.0003199,3197.9,-0.00010526,3.4738,-0.00010572,-0.0076865,0.85737
28096,10.733,4.8182,0.1,0.00031742,3172,0.00031745,3172.9,-0.00010459,1.9187,-0.00010484,-0.011596,0.86887
28097,10.456,4.7273,0.1,0.0003249,3246.8,0.00032498,3249.2,-0.00010681,4.915,-0.00010746,-0.0062453,0.83385
28098,10.549,4.8182,0.1,0.00032247,3222.5,0.00032253,3224.1,-0.00010615,3.2311,-0.00010658,-0.007857,0.84524
28099,10.272,4.7273,0.1,0.00032997,3297.5,0.00033008,3300.7,-0.00010835,6.4662,-0.00010921,-0.00545,0.81055
28100,10.364,4.8182,0.1,0.00032755,3273.2,0.00032763,3275.5,-0.0001077,4.644,-0.00010832,-0.0062919,0.82183
28101,10.088,4.7273,0.1,0.00033506,3348.3,0.0003352,3352.4,-0.00010989,8.136,-0.00011097,-0.004954,0.78748
28102,10.18,4.8182,0.1,0.00033264,3324.1,0.00033274,3327.2,-0.00010925,6.1645,-0.00011008,-0.0054315,0.79864
28103,9.9036,4.7273,0.1,0.00034017,3399.3,0.00034033,3404.3,-0.00011142,9.9339,-0.00011275,-0.0046469,0.76463
28104,9.9957,4.8182,0.1,0.00033774,3375.1,0.00033787,3379,-0.0001108,7.8004,-0.00011184,-0.0049405,0.77567
28105,9.7193,4.7273,0.1,0.00034528,3450.4,0.00034548,3456.3,-0.00011295,11.87,-0.00011453,-0.0044546,0.74202
28106,9.8115,4.8182,0.1,0.00034286,3426.2,0.00034302,3431,-0.00011234,9.5609,-0.00011362,-0.0046537,0.75294
28107,9.5351,4.7273,0.1,0.00035041,3501.7,0.00035064,3508.6,-0.00011447,13.955,-0.00011633,-0.0043475,0.71964
28108,9.6272,4.8182,0.1,0.00034799,3477.5,0.00034818,3483.2,-0.00011388,11.455,-0.0001154,-0.0044906,0.73043
28109,9.3508,4.7273,0.1,0.00035555,3553,0.00035582,3561.1,-0.00011598,16.199,-0.00011813,-0.0043091,0.69749
28110,9.4429,4.8182,0.1,0.00035313,3528.9,0.00035336,3535.6,-0.00011541,13.494,-0.0001172,-0.0044295,0.70817
28111,9.1665,4.7273,0.1,0.0003607,3604.5,0.00036101,3613.8,-0.00011747,18.616,-0.00011995,-0.0043246,0.67559
28112,9.2587,4.8182,0.1,0.00035829,3580.4,0.00035855,3588.2,-0.00011692,15.688,-0.00011901,-0.0044395,0.68614
28113,8.9823,4.7273,0.1,0.00036586,3656.1,0.00036622,3666.6,-0.00011896,21.217,-0.00012178,-0.0043895,0.65394
28114,9.0744,4.8182,0.1,0.00036346,3632.1,0.00036376,3641,-0.00011843,18.048,-0.00012083,-0.004512,0.66436
28115,8.798,4.7273,0.1,0.00037103,3707.8,0.00037144,3719.7,-0.00012043,24.016,-0.00012363,-0.004502,0.63253
28116,8.8901,4.8182,0.1,0.00036864,3683.8,0.00036898,3694.1,-0.00011993,20.585,-0.00012267,-0.0046412,0.64282
28117,8.6137,4.7273,0.1,0.00037622,3759.6,0.00037667,3773,-0.00012189,27.026,-0.00012549,-0.0046632,0.61137
28118,8.7059,4.8182,0.1,0.00037383,3735.7,0.00037422,3747.3,-0.00012141,23.313,-0.00012452,-0.0048257,0.62153
28119,8.4295,4.7273,0.1,0.00038141,3811.4,0.00038191,3826.5,-0.00012333,30.26,-0.00012736,-0.004876,0.59047
28120,8.5216,4.8182,0.1,0.00037903,3787.7,0.00037947,3800.7,-0.00012288,26.242,-0.00012638,-0.0050673,0.6005
28121,8.2452,4.7273,0.1,0.00038661,3863.4,0.00038717,3880.1,-0.00012476,33.733,-0.00012925,-0.0051457,0.56983
28122,8.3373,4.8182,0.1,0.00038424,3839.8,0.00038473,3854.4,-0.00012434,29.385,-0.00012825,-0.0053688,0.57972
28123,8.0609,4.7273,0.1,0.00039181,3915.4,0.00039244,3934,-0.00012616,37.459,-0.00013115,-0.0054799,0.54945
28124,8.1531,4.8182,0.1,0.00038946,3891.9,0.00039001,3908.2,-0.00012578,32.755,-0.00013014,-0.0057379,0.55921
28125,7.8767,4.7273,0.1,0.00039703,3967.5,0.00039772,3988.1,-0.00012755,41.451,-0.00013307,-0.0058891,0.52934
28126,7.9688,4.8182,0.1,0.00039469,3944.2,0.0003953,3962.2,-0.00012721,36.363,-0.00013205,-0.0061828,0.53896
28127,7.6924,4.7273,0.1,0.00040225,4019.7,0.00040301,4042.4,-0.00012892,45.723,-0.000135,-0.0063869,0.5095
28128,7.7845,4.8182,0.1,0.00039993,3996.5,0.0004006,4016.5,-0.00012861,40.222,-0.00013396,-0.0067158,0.51898
28129,7.5081,4.7273,0.1,0.00040748,4072,0.00040831,4096.9,-0.00013026,50.286,-0.00013695,-0.0069905,0.48993
28130,7.6003,4.8182,0.1,0.00040518,4049,0.00040591,4071,-0.00013,44.34,-0.0001359,-0.0073524,0.49927
28131,7.3239,4.7273,0.1,0.00041271,4124.3,0.00041362,4151.6,-0.00013158,55.151,-0.00013892,-0.0077221,0.47063
28132,7.416,4.8182,0.1,0.00041043,4101.5,0.00041124,4125.6,-0.00013136,48.728,-0.00013785,-0.0081124,0.47983
28133,7.1396,4.7273,0.1,0.00041795,4176.6,0.00041894,4206.5,-0.00013287,60.327,-0.0001409,-0.0086096,0.45162
28134,7.2317,4.8182,0.1,0.00041569,4154.1,0.00041657,4180.5,-0.00013271,53.39,-0.00013982,-0.0090206,0.46068
28135,6.9553,4.7273,0.1,0.0004232,4229,0.00042428,4261.6,-0.00013414,65.819,-0.0001429,-0.0096885,0.4329
28136,7.0475,4.8182,0.1,0.00042096,4206.7,0.00042192,4235.6,-0.00013403,58.332,-0.0001418,-0.010109,0.44181
28137,6.7711,4.7273,0.1,0.00042845,4281.5,0.00042962,4316.9,-0.00013539,71.628,-0.00014492,-0.011004,0.41446
28138,6.8632,4.8182,0.1,0.00042624,4259.4,0.00042728,4290.8,-0.00013534,63.552,-0.00014379,-0.011417,0.42322
28139,6.5868,4.7273,0.1,0.0004337,4334,0.00043497,4372.4,-0.00013661,77.75,-0.00014696,-0.012615,0.39631
28140,6.6789,4.8182,0.1,0.00043152,4312.2,0.00043265,4346.3,-0.00013662,69.044,-0.00014581,-0.012996,0.40492
28141,6.4025,4.7273,0.1,0.00043896,4386.6,0.00044033,4428.1,-0.0001378,84.173,-0.00014901,-0.014594,0.37846
28142,6.4947,4.8182,0.1,0.0004368,4365,0.00043803,4401.9,-0.00013788,74.797,-0.00014784,-0.014911,0.38692
28143,6.2183,4.7273,0.1,0.00044423,4439.2,0.0004457,4483.9,-0.00013898,90.878,-0.00015108,-0.017037,0.36091
28144,6.3104,4.8182,0.1,0.0004421,4417.9,0.00044342,4457.8,-0.00013912,80.789,-0.00014988,-0.017246,0.36922
28145,6.034,4.7273,0.1,0.0004495,4491.9,0.00045108,4540,-0.00014013,97.835,-0.00015316,-0.020069,0.34366
28146,6.1261,4.8182,0.1,0.0004474,4470.9,0.00044881,4513.7,-0.00014035,86.99,-0.00015193,-0.020107,0.35181
28147,5.8497,4.7273,0.1,0.00045478,4544.6,0.00045647,4596.2,-0.00014127,105,-0.00015525,-0.023853,0.32671
28148,5.9419,4.8182,0.1,0.0004527,4523.9,0.00045422,4569.8,-0.00014157,93.354,-0.00015399,-0.023636,0.33471
28149,5.6655,4.7273,0.1,0.00046006,4597.5,0.00046187,4652.6,-0.0001424,112.31,-0.00015735,-0.028604,0.31008
28150,5.7576,4.8182,0.1,0.00045801,4576.9,0.00045963,4626,-0.00014277,99.823,-0.00015606,-0.028018,0.31792
28151,5.4812,4.7273,0.1,0.00046536,4650.4,0.00046728,4709,-0.00014353,119.69,-0.00015946,-0.03461,0.29376
28152,5.5733,4.8182,0.1,0.00046332,4630,0.00046504,4682.2,-0.00014398,106.32,-0.00015814,-0.033497,0.30145
28153,5.2969,4.7273,0.1,0.00047066,4703.3,0.00047269,4765.5,-0.00014466,127.03,-0.00016157,-0.04226,0.27776
28154,5.3891,4.8182,0.1,0.00046864,4683.1,0.00047045,4738.5,-0.00014519,112.74,-0.0001602,-0.040406,0.28528
28155,5.1127,4.7273,0.1,0.00047596,4756.3,0.0004781,4822,-0.0001458,134.2,-0.00016367,-0.052087,0.26208
28156,5.2048,4.8182,0.1,0.00047395,4736.2,0.00047586,4794.5,-0.00014642,118.95,-0.00016226,-0.049197,0.26944
28157,4.9284,4.7273,0.1,0.00048127,4809.4,0.00048352,4878.3,-0.00014698,141.03,-0.00016576,-0.064833,0.24672
28158,5.0205,4.8182,0.1,0.00047925,4789.2,0.00048125,4850.4,-0.00014768,124.8,-0.0001643,-0.0605,0.25392
28159,4.7441,4.7273,0.1,0.00048658,4862.5,0.00048892,4934.4,-0.0001482,147.33,-0.00016782,-0.081541,0.23169
28160,4.8363,4.8182,0.1,0.00048454,4842.1,0.00048662,4905.8,-0.00014898,130.08,-0.00016631,-0.075205,0.23873
28161,4.5599,4.7273,0.1,0.00049189,4915.5,0.00049431,4990.1,-0.00014949,152.83,-0.00016984,-0.10372,0.217
28162,4.652,4.8182,0.1,0.00048981,4894.7,0.00049195,4960.5,-0.00015034,134.56,-0.00016826,-0.094596,0.22387
28163,4.3756,4.7273,0.1,0.00049718,4968.3,0.00049966,5045,-0.00015086,157.23,-0.00017181,-0.13358,0.20264
28164,4.4677,4.8182,0.1,0.00049503,4946.8,0.00049723,5014.3,-0.00015178,137.95,-0.00017015,-0.12058,0.20934
28165,4.1913,4.7273,0.1,0.00050243,5020.9,0.00050496,5098.9,-0.00015235,160.15,-0.00017369,-0.17445,0.18861
28166,4.2835,4.8182,0.1,0.00050018,4998.3,0.00050241,5066.7,-0.00015331,139.89,-0.00017195,-0.15604,0.19515
28167,4.0071,4.7273,0.1,0.00050763,5072.8,0.00051018,5151.4,-0.00015398,161.16,-0.00017546,-0.23153,0.17494
28168,4.0992,4.8182,0.1,0.00050523,5048.8,0.00050746,5117.2,-0.00015497,139.98,-0.00017363,-0.20555,0.1813
28169,3.8228,4.7273,0.1,0.00051274,5123.9,0.00051526,5201.7,-0.00015578,159.71,-0.00017708,-0.3132,0.1616
28170,3.9149,4.8182,0.1,0.00051013,5097.8,0.00051233,5165.1,-0.00015678,137.73,-0.00017514,-0.27661,0.16779
28171,3.6385,4.7273,0.1,0.00051771,5173.5,0.00052017,5249.1,-0.0001578,155.14,-0.00017851,-0.43379,0.14862
28172,3.7307,4.8182,0.1,0.00051483,5144.7,0.00051695,5209.5,-0.00015875,132.56,-0.00017645,-0.38223,0.15464
28173,3.4543,4.7273,0.1,0.00052248,5221.2,0.00052481,5292.7,-0.00016008,146.63,-0.00017968,-0.61948,0.13599
28174,3.5464,4.8182,0.1,0.00051922,5188.6,0.00052121,5249.1,-0.00016094,123.77,-0.00017748,-0.54685,0.14183
28175,3.27,4.7273,0.1,0.00052698,5266.1,0.0005291,5330.9,-0.00016269,133.15,-0.00018053,-0.92348,0.12372
28176,3.3621,4.8182,0.1,0.00052321,5228.5,0.00052499,5282.5,-0.00016335,110.54,-0.00017818,-0.8215,0.12938
28177,3.0857,4.7273,0.1,0.00053109,5307.3,0.0005329,5362.3,-0.00016569,113.35,-0.00018097,-1.472,0.11181
28178,3.1779,4.8182,0.1,0.00052666,5263,0.00052814,5307.6,-0.00016603,91.872,-0.00017844,-1.3318,0.11729
28179,2.9015,4.7273,0.1,0.00053473,5343.6,0.00053608,5384.5,-0.00016916,85.583,-0.0001809,-2.6517,0.10026
28180,2.9936,4.8182,0.1,0.00052939,5290.3,0.00053045,5322,-0.00016899,66.676,-0.0001782,-2.4826,0.10555
28181,2.7172,4.7273,0.1,0.00053776,5373.9,0.00053846,5394.9,-0.00017307,48.76,-0.0001804,-6.347,0.089076
28182,2.8093,4.8182,0.1,0.00053121,5308.4,0.00053168,5322.6,-0.00017205,35.035,-0.00017757,-6.4211,0.094175
28183,2.5329,4.7273,0.1,0.00054012,5397.5,0.00053986,5390.2,-0.00017558,14.692,-0.00018137,-28.863,0.078255
28184,2.6251,4.8182,0.1,0.0005319,5315.4,0.00053156,5305.6,-0.00017319,10.392,-0.00017851,-29.597,0.08316
28185,2.3487,4.7273,0.1,0.00054179,5414.1,0.00054011,5366.5,-0.00017334,5.8915,-0.00018738,-99.663,0.0678
28186,2.4408,4.8182,0.1,0.00053127,5309,0.00052978,5266.5,-0.00017051,4.7926,-0.00018294,-88.606,0.072506
28187,2.1644,4.7273,0.1,0.00054294,5425.7,0.00053909,5318.8,-0.00016827,3.9406,-0.00019691,-211.19,0.057708
28188,2.2565,4.8182,0.1,0.00052919,5288.3,0.00052603,5199.9,-0.00016557,3.4012,-0.0001894,-175.64,0.062208
28189,1.9801,4.7273,0.1,0.00054407,5437,0.00053677,5241.4,-0.00016038,3.2956,-0.00021069,-374.65,0.047974
28190,2.0723,4.8182,0.1,0.00052576,5254,0.00052008,5099.7,-0.00015826,2.9026,-0.00019836,-298.39,0.052261
28191,1.7959,4.7273,0.1,0.00054621,5458.4,0.0005332,5126.8,-0.00014871,3.1592,-0.00023084,-613.94,0.038588
28192,1.888,4.8182,0.1,0.00052148,5211.2,0.00051184,4959.7,-0.00014788,2.8192,-0.00021122,-473.07,0.042656
28193,1.6116,4.7273,0.1,0.00055109,5507.1,0.00052842,4964.5,-0.00013184,3.6327,-0.00026025,-961.21,0.029535
28194,1.7037,4.8182,0.1,0.00051763,5172.7,0.00050152,4773.8,-0.00013346,2.8102,-0.00023017,-723.79,0.033376
28195,1.4273,4.7273,0.1,0.00056192,5615.3,0.00052275,4743.8,-0.00010834,2.046,-0.00030252,-1457,0.020789
28196,1.5195,4.8182,0.1,0.00051657,5162.2,0.00048964,4537.6,-0.00011378,3.7958,-0.0002581,-1080.6,0.024396
28197,1.2431,4.7273,0.1,0.00059596,5955.5,0.00052711,4542.8,-7.683e-05,4.9981,-0.00037043,-2201,0.012329
28198,1.3352,4.8182,0.1,0.00052336,5230,0.00047815,4255.8,-8.8296e-05,-0.19627,-0.00029891,-1582.6,0.015692
28199,1.1509,4.8182,0.1,0.0005682,5678.1,0.00048863,4100.5,-5.5594e-05,11.377,-0.0003742,-2382.5,0.0073093
28200,1.0588,4.7273,0.1,0.00050854,5081.9,0.00043295,3589.6,-4.6048e-05,-9.4683,-0.00034076,-2223.8,0.0043788
28201,23.724,4.9091,0.1,1.5498e-05,154.87,9.7282e-06,58.515,1.9196e-06,-0.1558,-1.3647e-05,-117.12,2.8889
28202,23.816,5,0.1,1.4002e-05,139.92,7.8065e-06,39.785,2.4994e-06,-0.089973,-1.2893e-05,-115.75,2.9044
28203,23.908,4.9091,0.1,1.3901e-05,138.91,6.4423e-06,22.526,3.3907e-06,-0.40284,-1.3382e-05,-126.42,2.9201
28204,23.539,4.9091,0.1,1.7656e-05,176.44,1.3167e-05,96.008,3.6521e-07,-0.18226,-1.3934e-05,-107.62,2.8578
28205,23.631,5,0.1,1.5904e-05,158.93,1.1201e-05,76.908,9.3e-07,-0.2659,-1.3126e-05,-105.88,2.8733
28206,23.355,4.9091,0.1,2.0245e-05,202.31,1.6647e-05,133.61,-1.1476e-06,-0.094429,-1.433e-05,-99.144,2.8267
28207,23.447,5,0.1,1.8342e-05,183.3,1.4647e-05,114.29,-5.7626e-07,-0.096579,-1.349e-05,-97.128,2.8422
28208,23.171,4.9091,0.1,2.3139e-05,231.23,2.0175e-05,171.34,-2.6388e-06,-0.075011,-1.4827e-05,-91.655,2.7957
28209,23.263,5,0.1,2.1147e-05,211.33,1.8151e-05,151.81,-2.0652e-06,-0.083992,-1.397e-05,-89.529,2.8111
28210,22.987,4.9091,0.1,2.6254e-05,262.36,2.3752e-05,209.28,-4.1085e-06,-0.054821,-1.5418e-05,-85.033,2.7646
28211,23.079,5,0.1,2.4212e-05,241.96,2.1712e-05,189.6,-3.5293e-06,-0.056201,-1.4555e-05,-82.897,2.7801
28212,22.802,4.9091,0.1,2.9535e-05,295.15,2.738e-05,247.47,-5.562e-06,-0.04321,-1.6093e-05,-79.172,2.7335
28213,22.894,5,0.1,2.7468e-05,274.49,2.5331e-05,227.68,-4.9767e-06,-0.043537,-1.5233e-05,-77.102,2.749
28214,22.618,4.9091,0.1,3.2943e-05,329.2,3.1055e-05,285.92,-7.0028e-06,-0.034325,-1.6842e-05,-73.959,2.7025
28215,22.71,5,0.1,3.0863e-05,308.42,2.9001e-05,266.04,-6.411e-06,-0.033275,-1.599e-05,-72.002,2.718
28216,22.434,4.9091,0.1,3.6449e-05,364.24,3.4772e-05,324.6,-8.4338e-06,-0.027877,-1.7653e-05,-69.296,2.6715
28217,22.526,5,0.1,3.4367e-05,343.43,3.2718e-05,304.67,-7.8355e-06,-0.026233,-1.6813e-05,-67.478,2.6869
28218,22.249,4.9091,0.1,4.0035e-05,400.07,3.8528e-05,363.52,-9.8571e-06,-0.022927,-1.8518e-05,-65.098,2.6405
28219,22.342,5,0.1,3.7954e-05,379.28,3.6474e-05,343.55,-9.2525e-06,-0.020895,-1.7692e-05,-63.431,2.6559
28220,22.065,4.9091,0.1,4.3685e-05,436.55,4.2318e-05,402.65,-1.1275e-05,-0.019089,-1.943e-05,-61.295,2.6095
28221,22.157,5,0.1,4.1608e-05,415.79,4.0267e-05,382.66,-1.0664e-05,-0.016859,-1.8618e-05,-59.783,2.6249
28222,21.881,4.9091,0.1,4.739e-05,473.57,4.614e-05,441.99,-1.2688e-05,-0.016052,-2.0383e-05,-57.833,2.5786
28223,21.973,5,0.1,4.5317e-05,452.86,4.4091e-05,421.97,-1.2071e-05,-0.013727,-1.9585e-05,-56.472,2.594
28224,21.697,4.9091,0.1,5.1141e-05,511.06,4.9991e-05,481.52,-1.4097e-05,-0.013618,-2.1371e-05,-54.666,2.5477
28225,21.789,5,0.1,4.9073e-05,490.39,4.7945e-05,461.48,-1.3475e-05,-0.011261,-2.0587e-05,-53.448,2.5631
28226,21.512,4.9091,0.1,5.4933e-05,548.95,5.3869e-05,521.23,-1.5505e-05,-0.01165,-2.2391e-05,-51.756,2.5168
28227,21.605,5,0.1,5.287e-05,528.33,5.1825e-05,501.17,-1.4877e-05,-0.009305,-2.1621e-05,-50.674,2.5322
28228,21.328,4.9091,0.1,5.8762e-05,587.21,5.7773e-05,561.13,-1.691e-05,-0.010039,-2.3441e-05,-49.075,2.486
28229,21.42,5,0.1,5.6702e-05,566.63,5.573e-05,541.04,-1.6278e-05,-0.0077422,-2.2681e-05,-48.119,2.5013
28230,21.144,4.9091,0.1,6.2624e-05,625.81,6.1701e-05,601.2,-1.8316e-05,-0.0087018,-2.4516e-05,-46.596,2.4552
28231,21.236,5,0.1,6.0568e-05,605.26,5.9659e-05,581.08,-1.7679e-05,-0.0064587,-2.3767e-05,-45.757,2.4705
28232,20.96,4.9091,0.1,6.6517e-05,664.71,6.5652e-05,641.45,-1.972e-05,-0.007579,-2.5615e-05,-44.3,2.4244
28233,21.052,5,0.1,6.4463e-05,644.19,6.3611e-05,621.29,-1.9079e-05,-0.0054089,-2.4876e-05,-43.567,2.4397
28234,20.775,4.9091,0.1,7.0439e-05,703.91,6.9627e-05,681.87,-2.1125e-05,-0.0066308,-2.6737e-05,-42.168,2.3937
28235,20.867,5,0.1,6.8387e-05,683.4,6.7585e-05,661.68,-2.0479e-05,-0.0045309,-2.6007e-05,-41.533,2.409
28236,20.591,4.9091,0.1,7.4389e-05,743.38,7.3624e-05,722.47,-2.2531e-05,-0.0058342,-2.7879e-05,-40.187,2.363
28237,20.683,5,0.1,7.2337e-05,722.87,7.1581e-05,702.24,-2.1881e-05,-0.0038061,-2.7156e-05,-39.64,2.3783
28238,20.407,4.9091,0.1,7.8366e-05,783.12,7.7643e-05,763.24,-2.3939e-05,-0.0051529,-2.9041e-05,-38.342,2.3324
28239,20.499,5,0.1,7.6313e-05,762.61,7.5598e-05,742.96,-2.3284e-05,-0.0032053,-2.8325e-05,-37.876,2.3476
28240,20.223,4.9091,0.1,8.2368e-05,823.12,8.1684e-05,804.19,-2.5348e-05,-0.0045609,-3.0221e-05,-36.623,2.3019
28241,20.315,5,0.1,8.0314e-05,802.59,7.9637e-05,783.86,-2.4689e-05,-0.0026899,-2.9511e-05,-36.23,2.317
28242,20.038,4.9091,0.1,8.6396e-05,863.36,8.5747e-05,845.32,-2.6759e-05,-0.0040416,-3.1419e-05,-35.02,2.2713
28243,20.13,5,0.1,8.434e-05,842.81,8.3696e-05,824.93,-2.6096e-05,-0.0022495,-3.0713e-05,-34.692,2.2865
28244,19.854,4.9091,0.1,9.0448e-05,903.85,8.9831e-05,886.62,-2.8172e-05,-0.0035868,-3.2633e-05,-33.522,2.2409
28245,19.946,5,0.1,8.8388e-05,883.27,8.7776e-05,866.18,-2.7506e-05,-0.0018602,-3.1931e-05,-33.254,2.256
28246,19.67,4.9091,0.1,9.4524e-05,944.58,9.3936e-05,928.11,-2.9588e-05,-0.0031979,-3.3863e-05,-32.123,2.2105
28247,19.762,5,0.1,9.2461e-05,923.97,9.1876e-05,907.6,-2.8918e-05,-0.0015322,-3.3164e-05,-31.908,2.2256
28248,19.485,4.9091,0.1,9.8623e-05,985.55,9.8063e-05,969.78,-3.1007e-05,-0.0028552,-3.5108e-05,-30.815,2.1802
28249,19.578,5,0.1,9.6556e-05,964.89,9.5998e-05,949.2,-3.0333e-05,-0.0012606,-3.4412e-05,-30.648,2.1952
28250,19.301,4.9091,0.1,0.00010275,1026.7,0.00010221,1011.6,-3.243e-05,-0.0025458,-3.6368e-05,-29.591,2.1499
28251,19.393,5,0.1,0.00010067,1006,0.00010014,990.98,-3.1752e-05,-0.0010125,-3.5674e-05,-29.467,2.1649
28252,19.117,4.9091,0.1,0.00010689,1068.2,0.00010638,1053.7,-3.3856e-05,-0.0022627,-3.7642e-05,-28.445,2.1197
28253,19.209,5,0.1,0.00010481,1047.4,0.0001043,1032.9,-3.3174e-05,-0.00079531,-3.6949e-05,-28.36,2.1347
28254,18.933,4.9091,0.1,0.00011106,1109.8,0.00011057,1095.9,-3.5286e-05,-0.0020086,-3.8928e-05,-27.371,2.0896
28255,19.025,5,0.1,0.00010898,1089,0.00010849,1075.1,-3.4601e-05,-0.00058886,-3.8237e-05,-27.321,2.1045
28256,18.748,4.9091,0.1,0.00011525,1151.7,0.00011478,1138.3,-3.672e-05,-0.0017928,-4.0228e-05,-26.364,2.0595
28257,18.841,5,0.1,0.00011316,1130.8,0.00011269,1117.4,-3.6031e-05,-0.00041947,-3.9537e-05,-26.345,2.0744
28258,18.564,4.9091,0.1,0.00011946,1193.8,0.00011901,1180.9,-3.8158e-05,-0.001599,-4.154e-05,-25.418,2.0296
28259,18.656,5,0.1,0.00011737,1172.9,0.00011692,1160,-3.7465e-05,-0.00028083,-4.0849e-05,-25.428,2.0444
28260,18.38,4.9091,0.1,0.0001237,1236.2,0.00012326,1223.7,-3.96e-05,-0.0014174,-4.2865e-05,-24.529,1.9997
28261,18.472,5,0.1,0.0001216,1215.1,0.00012116,1202.7,-3.8904e-05,-0.00014648,-4.2173e-05,-24.565,2.0144
28262,18.196,4.9091,0.1,0.00012796,1278.7,0.00012754,1266.7,-4.1047e-05,-0.0012428,-4.42e-05,-23.693,1.9698
28263,18.288,5,0.1,0.00012585,1257.6,0.00012543,1245.6,-4.0347e-05,-2.456e-05,-4.3509e-05,-23.753,1.9846
28264,18.011,4.9091,0.1,0.00013224,1321.5,0.00013183,1309.9,-4.2499e-05,-0.0010836,-4.5547e-05,-22.906,1.9401
28265,18.103,5,0.1,0.00013012,1300.3,0.00012971,1288.6,-4.1796e-05,0.00010205,-4.4855e-05,-22.987,1.9548
28266,17.827,4.9091,0.1,0.00013654,1364.4,0.00013615,1353.2,-4.3956e-05,-0.00095392,-4.6905e-05,-22.163,1.9105
28267,17.919,5,0.1,0.00013441,1343.2,0.00013402,1331.9,-4.3249e-05,0.0002011,-4.6212e-05,-22.263,1.9251
28268,17.643,4.9091,0.1,0.00014086,1407.7,0.00014048,1396.8,-4.5417e-05,-0.00083689,-4.8274e-05,-21.461,1.8809
28269,17.735,5,0.1,0.00013873,1386.3,0.00013835,1375.4,-4.4707e-05,0.00027347,-4.7579e-05,-21.579,1.8955
28270,17.459,4.9091,0.1,0.00014521,1451.1,0.00014484,1440.6,-4.6884e-05,-0.00072049,-4.9652e-05,-20.797,1.8515
28271,17.551,5,0.1,0.00014306,1429.6,0.0001427,1419.1,-4.617e-05,0.00035249,-4.8956e-05,-20.931,1.866
28272,17.274,4.9091,0.1,0.00014957,1494.7,0.00014922,1484.5,-4.8357e-05,-0.0006024,-5.1041e-05,-20.167,1.8221
28273,17.366,5,0.1,0.00014742,1473.2,0.00014706,1462.9,-4.7639e-05,0.00042916,-5.0343e-05,-20.317,1.8366
28274,17.09,4.9091,0.1,0.00015396,1538.5,0.00015362,1528.7,-4.9834e-05,-0.00049353,-5.2439e-05,-19.568,1.7929
28275,17.182,5,0.1,0.0001518,1516.9,0.00015145,1507,-4.9113e-05,0.00051586,-5.1739e-05,-19.733,1.8073
28276,16.906,4.9091,0.1,0.00015837,1582.6,0.00015804,1573,-5.1318e-05,-0.00041174,-5.3846e-05,-18.998,1.7637
28277,16.998,5,0.1,0.0001562,1560.9,0.00015586,1551.2,-5.0593e-05,0.00057801,-5.3145e-05,-19.176,1.7781
28278,16.721,4.9091,0.1,0.0001628,1626.9,0.00016248,1617.5,-5.2807e-05,-0.00033793,-5.5262e-05,-18.453,1.7347
28279,16.814,5,0.1,0.00016062,1605.1,0.00016029,1595.7,-5.2078e-05,0.00061428,-5.456e-05,-18.644,1.749
28280,16.537,4.9091,0.1,0.00016725,1671.3,0.00016694,1662.3,-5.4301e-05,-0.00025901,-5.6688e-05,-17.93,1.7058
28281,16.629,5,0.1,0.00016506,1649.5,0.00016474,1640.3,-5.3569e-05,0.00066492,-5.5983e-05,-18.134,1.72
28282,16.353,4.9091,0.1,0.00017172,1716,0.00017142,1707.2,-5.5802e-05,-0.00017279,-5.8121e-05,-17.428,1.677
28283,16.445,5,0.1,0.00016952,1694.1,0.00016922,1685.2,-5.5066e-05,0.00071382,-5.7415e-05,-17.645,1.6911
28284,16.169,4.9091,0.1,0.00017621,1760.9,0.00017592,1752.4,-5.7308e-05,-9.2389e-05,-5.9563e-05,-16.944,1.6482
28285,16.261,5,0.1,0.00017401,1738.9,0.00017371,1730.2,-5.6569e-05,0.00078084,-5.8855e-05,-17.173,1.6624
28286,15.984,4.9091,0.1,0.00018072,1806,0.00018044,1797.7,-5.8821e-05,-3.9e-05,-6.1013e-05,-16.474,1.6197
28287,16.077,5,0.1,0.00017851,1783.9,0.00017822,1775.4,-5.8078e-05,0.00082162,-6.0303e-05,-16.716,1.6337
28288,15.8,4.9091,0.1,0.00018526,1851.3,0.00018498,1843.2,-6.034e-05,9.1831e-06,-6.2471e-05,-16.018,1.5912
28289,15.892,5,0.1,0.00018303,1829.1,0.00018275,1820.9,-5.9593e-05,0.00083661,-6.1759e-05,-16.273,1.6052
28290,15.616,4.9091,0.1,0.00018981,1896.8,0.00018954,1889,-6.1864e-05,6.6479e-05,-6.3937e-05,-15.572,1.5629
28291,15.708,5,0.1,0.00018758,1874.5,0.0001873,1866.5,-6.1114e-05,0.00086923,-6.3222e-05,-15.84,1.5768
28292,15.432,4.9091,0.1,0.00019438,1942.5,0.00019412,1934.9,-6.3396e-05,0.0001354,-6.541e-05,-15.134,1.5347
28293,15.524,5,0.1,0.00019214,1920.1,0.00019187,1912.3,-6.2641e-05,0.00090434,-6.4693e-05,-15.416,1.5485
28294,15.247,4.9091,0.1,0.00019898,1988.4,0.00019872,1981,-6.4933e-05,0.00020053,-6.689e-05,-14.702,1.5066
28295,15.339,5,0.1,0.00019673,1965.9,0.00019647,1958.4,-6.4175e-05,0.00096009,-6.6172e-05,-14.999,1.5204
28296,15.063,4.9091,0.1,0.00020359,2034.5,0.00020335,2027.3,-6.6477e-05,0.0002383,-6.8377e-05,-14.274,1.4786
28297,15.155,5,0.1,0.00020133,2011.9,0.00020108,2004.6,-6.5715e-05,0.00098931,-6.7657e-05,-14.587,1.4923
28298,14.879,4.9091,0.1,0.00020823,2080.8,0.00020799,2073.9,-6.8028e-05,0.00027337,-6.9871e-05,-13.848,1.4508
28299,14.971,5,0.1,0.00020596,2058.1,0.00020571,2051,-6.7262e-05,0.00099119,-6.9149e-05,-14.178,1.4645
28300,14.695,4.9091,0.1,0.00021288,2127.3,0.00021265,2120.6,-6.9585e-05,0.00032051,-7.1371e-05,-13.421,1.4232
28301,14.787,5,0.1,0.0002106,2104.6,0.00021036,2097.6,-6.8815e-05,0.0010146,-7.0648e-05,-13.769,1.4367
28302,14.51,4.9091,0.1,0.00021755,2174,0.00021733,2167.5,-7.1148e-05,0.00038286,-7.2878e-05,-12.991,1.3956
28303,14.602,5,0.1,0.00021527,2151.2,0.00021504,2144.5,-7.0375e-05,0.0010422,-7.2153e-05,-13.359,1.4091
28304,14.326,4.9091,0.1,0.00022225,2220.9,0.00022203,2214.6,-7.2719e-05,0.00044442,-7.439e-05,-12.556,1.3683
28305,14.418,5,0.1,0.00021995,2198,0.00021973,2191.5,-7.1942e-05,0.0010952,-7.3665e-05,-12.945,1.3817
28306,14.142,4.9091,0.1,0.00022696,2268.1,0.00022675,2262,-7.4296e-05,0.00047817,-7.5909e-05,-12.114,1.341
28307,14.234,5,0.1,0.00022466,2245,0.00022444,2238.7,-7.3515e-05,0.0011201,-7.5183e-05,-12.526,1.3544
28308,13.957,4.9091,0.1,0.00023169,2315.3,0.00023149,2309.5,-7.5881e-05,0.00051194,-7.7433e-05,-11.662,1.314
28309,14.05,5,0.1,0.00022938,2292.2,0.00022917,2286.2,-7.5096e-05,0.0011174,-7.6706e-05,-12.098,1.3272
28310,13.773,4.9091,0.1,0.00023645,2362.8,0.00023625,2357.2,-7.7472e-05,0.00056412,-7.8962e-05,-11.198,1.2871
28311,13.865,5,0.1,0.00023412,2339.6,0.00023392,2333.8,-7.6683e-05,0.0011403,-7.8235e-05,-11.661,1.3002
28312,13.589,4.9091,0.1,0.00024122,2410.5,0.00024103,2405.1,-7.907e-05,0.0006378,-8.0497e-05,-10.718,1.2603
28313,13.681,5,0.1,0.00023889,2387.2,0.0002387,2381.6,-7.8277e-05,0.0011723,-7.9769e-05,-11.211,1.2734
28314,13.405,4.9091,0.1,0.00024601,2458.4,0.00024583,2453.3,-8.0676e-05,0.00071597,-8.2036e-05,-10.221,1.2337
28315,13.497,5,0.1,0.00024367,2435,0.00024349,2429.6,-7.9878e-05,0.0012349,-8.1309e-05,-10.746,1.2467
28316,13.22,4.9091,0.1,0.00025082,2506.5,0.00025065,2501.6,-8.2289e-05,0.00077067,-8.3581e-05,-9.7044,1.2073
28317,13.313,5,0.1,0.00024847,2483,0.0002483,2477.9,-8.1487e-05,0.0012716,-8.2853e-05,-10.264,1.2202
28318,13.036,4.9091,0.1,0.00025565,2554.7,0.00025549,2550.1,-8.3909e-05,0.00083449,-8.5129e-05,-9.1643,1.181
28319,13.128,5,0.1,0.00025329,2531.2,0.00025313,2526.3,-8.3103e-05,0.0012827,-8.4402e-05,-9.7624,1.1938
28320,12.852,4.9091,0.1,0.00026049,2603.1,0.00026035,2598.8,-8.5537e-05,0.00093102,-8.6681e-05,-8.598,1.1549
28321,12.944,5,0.1,0.00025813,2579.5,0.00025797,2574.9,-8.4726e-05,0.0013305,-8.5955e-05,-9.2376,1.1677
28322,12.668,4.9091,0.1,0.00026536,2651.8,0.00026522,2647.8,-8.7172e-05,0.0010676,-8.8237e-05,-8.0022,1.129
28323,12.76,5,0.1,0.00026299,2628.1,0.00026284,2623.7,-8.6356e-05,0.0013972,-8.7513e-05,-8.6873,1.1417
28324,12.483,4.9091,0.1,0.00027024,2700.6,0.00027012,2696.9,-8.8815e-05,0.0012333,-8.9796e-05,-7.3736,1.1033
28325,12.575,5,0.1,0.00026787,2676.8,0.00026773,2672.8,-8.7995e-05,0.0015126,-8.9074e-05,-8.1081,1.1158
28326,12.299,4.9091,0.1,0.00027515,2749.6,0.00027503,2746.2,-9.0466e-05,0.0014087,-9.1359e-05,-6.7086,1.0778
28327,12.391,5,0.1,0.00027276,2725.8,0.00027264,2722,-8.9641e-05,0.001619,-9.0639e-05,-7.497,1.0902
28328,12.115,4.9091,0.1,0.00028007,2798.7,0.00027996,2795.7,-9.2124e-05,0.0016475,-9.2924e-05,-6.0035,1.0524
28329,12.207,5,0.1,0.00027768,2774.9,0.00027756,2771.4,-9.1294e-05,0.0017263,-9.2206e-05,-6.8505,1.0647
28330,11.931,4.9091,0.1,0.00028501,2848.1,0.00028492,2845.5,-9.3791e-05,0.0020098,-9.4491e-05,-5.254,1.0273
28331,12.023,5,0.1,0.00028261,2824.2,0.00028251,2821.1,-9.2956e-05,0.0019183,-9.3777e-05,-6.1648,1.0395
28332,11.746,4.9091,0.1,0.00028996,2897.6,0.00028988,2895.4,-9.5466e-05,0.0025684,-9.6059e-05,-4.456,1.0023
28333,11.838,5,0.1,0.00028756,2873.6,0.00028747,2870.9,-9.4626e-05,0.0022018,-9.535e-05,-5.4362,1.0144
28334,11.562,4.9091,0.1,0.00029493,2947.3,0.00029487,2945.5,-9.7149e-05,0.0034517,-9.763e-05,-3.6049,0.9775
28335,11.654,5,0.1,0.00029253,2923.3,0.00029245,2921,-9.6304e-05,0.0026589,-9.6924e-05,-4.6604,0.98952
28336,11.378,4.9091,0.1,0.00029992,2997.2,0.00029988,2995.8,-9.8841e-05,0.0050042,-9.9201e-05,-2.6963,0.95292
28337,11.47,5,0.1,0.00029752,2973.1,0.00029745,2971.2,-9.799e-05,0.0033319,-9.8501e-05,-3.8333,0.96484
28338,11.193,4.9091,0.1,0.00030493,3047.2,0.0003049,3046.4,-0.00010054,0.0085761,-0.00010077,-1.7261,0.92855
28339,11.286,5,0.1,0.00030252,3023.1,0.00030247,3021.6,-9.9685e-05,0.0044848,-0.00010008,-2.9503,0.94036
28340,11.009,4.9091,0.1,0.00030996,3097.4,0.00030995,3097.1,-0.00010225,0.023569,-0.00010235,-0.69797,0.90438
28341,11.101,5,0.1,0.00030754,3073.3,0.00030751,3072.3,-0.00010139,0.0070131,-0.00010166,-2.0071,0.91608
28342,10.825,4.9091,0.1,0.000315,3147.8,0.000315,3148,-0.00010391,0.4822,-0.00010398,-0.03822,0.88042
28343,10.917,5,0.1,0.00031258,3123.6,0.00031256,3123.1,-0.0001031,0.015198,-0.00010324,-1.0028,0.89201
28344,10.641,4.9091,0.1,0.00032005,3198.3,0.00032008,3199.2,-0.00010548,1.6566,-0.0001057,-0.012539,0.85668
28345,10.733,5,0.1,0.00031763,3174.1,0.00031763,3174.2,-0.0001048,0.18725,-0.00010484,-0.08953,0.86815
28346,10.456,4.9091,0.1,0.00032513,3249,0.00032518,3250.5,-0.00010705,2.9406,-0.00010744,-0.0080507,0.83315
28347,10.549,5,0.1,0.0003227,3224.8,0.00032273,3225.4,-0.00010638,1.2762,-0.00010656,-0.014654,0.84451
28348,10.272,4.9091,0.1,0.00033021,3299.9,0.00033029,3302,-0.00010861,4.3231,-0.00010919,-0.0062932,0.80984
28349,10.364,5,0.1,0.00032779,3275.6,0.00032783,3276.9,-0.00010796,2.519,-0.0001083,-0.0084504,0.82109
28350,10.088,4.9091,0.1,0.00033532,3350.9,0.00033542,3353.8,-0.00011017,5.8101,-0.00011094,-0.0054028,0.78676
28351,10.18,5,0.1,0.00033289,3326.6,0.00033296,3328.6,-0.00010953,3.8581,-0.00011005,-0.0063392,0.79789
28352,9.9036,4.9091,0.1,0.00034044,3402,0.00034056,3405.7,-0.00011172,7.4091,-0.00011271,-0.0049234,0.7639
28353,9.9957,5,0.1,0.00033801,3377.8,0.0003381,3380.4,-0.0001111,5.2978,-0.00011181,-0.0053743,0.77491
28354,9.7193,4.9091,0.1,0.00034557,3453.3,0.00034572,3457.9,-0.00011327,9.1288,-0.00011449,-0.0046661,0.74128
28355,9.8115,5,0.1,0.00034315,3429.1,0.00034326,3432.5,-0.00011267,6.845,-0.00011358,-0.0048922,0.75217
28356,9.5351,4.9091,0.1,0.00035072,3504.7,0.0003509,3510.2,-0.00011482,10.978,-0.00011628,-0.0045531,0.71889
28357,9.6272,5,0.1,0.0003483,3480.6,0.00034844,3484.8,-0.00011423,8.5078,-0.00011536,-0.0046597,0.72965
28358,9.3508,4.9091,0.1,0.00035588,3556.3,0.00035609,3562.8,-0.00011635,12.966,-0.00011808,-0.0045463,0.69674
28359,9.4429,5,0.1,0.00035346,3532.2,0.00035363,3537.3,-0.00011578,10.294,-0.00011715,-0.0045971,0.70738
28360,9.1665,4.9091,0.1,0.00036105,3608,0.0003613,3615.5,-0.00011788,15.104,-0.00011989,-0.0046204,0.67482
28361,9.2587,5,0.1,0.00035864,3583.9,0.00035884,3590,-0.00011733,12.214,-0.00011896,-0.0046464,0.68534
28362,8.9823,4.9091,0.1,0.00036624,3659.8,0.00036653,3668.5,-0.0001194,17.4,-0.00012172,-0.0047647,0.65316
28363,9.0744,5,0.1,0.00036383,3635.8,0.00036407,3642.9,-0.00011887,14.275,-0.00012077,-0.004787,0.66355
28364,8.798,4.9091,0.1,0.00037143,3711.8,0.00037177,3721.7,-0.00012091,19.867,-0.00012356,-0.0049737,0.63174
28365,8.8901,5,0.1,0.00036904,3687.8,0.00036931,3696,-0.0001204,16.487,-0.0001226,-0.0050058,0.642
28366,8.6137,4.9091,0.1,0.00037664,3763.8,0.00037702,3775,-0.00012241,22.514,-0.00012541,-0.005247,0.61058
28367,8.7059,5,0.1,0.00037426,3740,0.00037457,3749.4,-0.00012193,18.86,-0.00012444,-0.0052973,0.6207
28368,8.4295,4.9091,0.1,0.00038187,3816,0.00038229,3828.6,-0.00012389,25.353,-0.00012727,-0.0055863,0.58967
28369,8.5216,5,0.1,0.00037949,3792.3,0.00037985,3802.9,-0.00012344,21.404,-0.00012629,-0.0056614,0.59966
28370,8.2452,4.9091,0.1,0.0003871,3868.3,0.00038757,3882.4,-0.00012537,28.394,-0.00012915,-0.0059966,0.56902
28371,8.3373,5,0.1,0.00038473,3844.7,0.00038514,3856.7,-0.00012494,24.127,-0.00012816,-0.0061002,0.57887
28372,8.0609,4.9091,0.1,0.00039234,3920.7,0.00039287,3936.4,-0.00012683,31.647,-0.00013104,-0.0064863,0.54863
28373,8.1531,5,0.1,0.00038999,3897.2,0.00039044,3910.6,-0.00012643,27.039,-0.00013003,-0.0066204,0.55835
28374,7.8767,4.9091,0.1,0.0003976,3973.2,0.00039818,3990.7,-0.00012827,35.123,-0.00013294,-0.0070656,0.52851
28375,7.9688,5,0.1,0.00039526,3949.8,0.00039576,3964.8,-0.00012791,30.147,-0.00013193,-0.0072306,0.53809
28376,7.6924,4.9091,0.1,0.00040286,4025.8,0.00040351,4045.1,-0.00012969,38.829,-0.00013486,-0.0077488,0.50866
28377,7.7845,5,0.1,0.00040053,4002.6,0.00040109,4019.2,-0.00012938,33.461,-0.00013383,-0.0079429,0.5181
28378,7.5081,4.9091,0.1,0.00040813,4078.5,0.00040884,4099.7,-0.0001311,42.772,-0.0001368,-0.008554,0.48908
28379,7.6003,5,0.1,0.00040583,4055.5,0.00040644,4073.8,-0.00013083,36.984,-0.00013575,-0.0087731,0.49839
28380,7.3239,4.9091,0.1,0.00041341,4131.3,0.00041419,4154.6,-0.0001325,46.958,-0.00013875,-0.0095037,0.46978
28381,7.416,5,0.1,0.00041113,4108.4,0.0004118,4128.6,-0.00013226,40.721,-0.00013768,-0.009741,0.47894
28382,7.1396,4.9091,0.1,0.0004187,4184.2,0.00041955,4209.6,-0.00013387,51.387,-0.00014071,-0.010627,0.45077
28383,7.2317,5,0.1,0.00041644,4161.5,0.00041718,4183.6,-0.00013368,44.673,-0.00013963,-0.010872,0.45978
28384,6.9553,4.9091,0.1,0.000424,4237.1,0.00042493,4264.8,-0.00013523,56.057,-0.00014269,-0.01196,0.43203
28385,7.0475,5,0.1,0.00042176,4214.7,0.00042257,4238.9,-0.00013509,48.837,-0.00014159,-0.012197,0.4409
28386,6.7711,4.9091,0.1,0.00042931,4290.1,0.00043031,4320.3,-0.00013657,60.962,-0.00014468,-0.013548,0.41359
28387,6.8632,5,0.1,0.00042709,4267.9,0.00042797,4294.3,-0.00013648,53.206,-0.00014357,-0.013757,0.42231
28388,6.5868,4.9091,0.1,0.00043462,4343.2,0.00043571,4375.9,-0.00013789,66.086,-0.00014669,-0.015451,0.39544
28389,6.6789,5,0.1,0.00043242,4321.3,0.00043338,4349.8,-0.00013786,57.766,-0.00014555,-0.0156,0.40401
28390,6.4025,4.9091,0.1,0.00043994,4396.4,0.00044111,4431.6,-0.0001392,71.408,-0.00014871,-0.017742,0.37758
28391,6.4947,5,0.1,0.00043777,4374.7,0.0004388,4405.6,-0.00013923,62.496,-0.00014755,-0.017793,0.386
28392,6.2183,4.9091,0.1,0.00044527,4449.6,0.00044653,4487.5,-0.0001405,76.896,-0.00015073,-0.020517,0.36002
28393,6.3104,5,0.1,0.00044312,4428.2,0.00044423,4461.4,-0.00014059,67.366,-0.00014956,-0.020414,0.36829
28394,6.034,4.9091,0.1,0.0004506,4502.9,0.00045195,4543.6,-0.00014178,82.505,-0.00015277,-0.023901,0.34277
28395,6.1261,5,0.1,0.00044848,4481.7,0.00044966,4517.4,-0.00014194,72.334,-0.00015157,-0.023571,0.35088
28396,5.8497,4.9091,0.1,0.00045593,4556.2,0.00045737,4599.6,-0.00014307,88.175,-0.00015481,-0.028056,0.32582
28397,5.9419,5,0.1,0.00045384,4535.2,0.0004551,4573.4,-0.00014329,77.344,-0.00015358,-0.027398,0.33378
28398,5.6655,4.9091,0.1,0.00046127,4609.5,0.00046279,4655.7,-0.00014435,93.827,-0.00015685,-0.033199,0.30919
28399,5.7576,5,0.1,0.0004592,4588.8,0.00046054,4629.4,-0.00014464,82.322,-0.0001556,-0.032077,0.31698
28400,5.4812,4.9091,0.1,0.0004666,4662.8,0.00046821,4711.7,-0.00014565,99.361,-0.00015888,-0.039621,0.29287
28401,5.5733,5,0.1,0.00046455,4642.3,0.00046597,4685.2,-0.000146,87.175,-0.0001576,-0.037849,0.3005
28402,5.2969,4.9091,0.1,0.00047193,4716,0.00047362,4767.5,-0.00014696,104.65,-0.0001609,-0.047719,0.27686
28403,5.3891,5,0.1,0.00046989,4695.7,0.00047138,4740.9,-0.00014737,91.785,-0.00015959,-0.045041,0.28434
28404,5.1127,4.9091,0.1,0.00047724,4769.1,0.00047901,4822.9,-0.0001483,109.54,-0.00016289,-0.058046,0.26118
28405,5.2048,5,0.1,0.00047521,4748.8,0.00047677,4796.1,-0.00014877,96.007,-0.00016156,-0.05411,0.26849
28406,4.9284,4.9091,0.1,0.00048252,4821.9,0.00048436,4877.8,-0.00014968,113.84,-0.00016484,-0.071388,0.24582
28407,5.0205,5,0.1,0.0004805,4801.7,0.00048212,4850.7,-0.00015021,99.663,-0.00016348,-0.0657,0.25297
28408,4.7441,4.9091,0.1,0.00048777,4874.3,0.00048966,4931.9,-0.00015112,117.31,-0.00016675,-0.088886,0.23079
28409,4.8363,5,0.1,0.00048574,4854,0.0004874,4904.4,-0.00015169,102.53,-0.00016535,-0.080751,0.23778
28410,4.5599,4.9091,0.1,0.00049295,4926.1,0.00049487,4984.8,-0.00015263,119.67,-0.00016857,-0.11225,0.2161
28411,4.652,5,0.1,0.00049089,4905.6,0.00049258,4956.9,-0.00015324,104.37,-0.00016715,-0.10067,0.22292
28412,4.3756,4.9091,0.1,0.00049803,4976.9,0.00049997,5036,-0.00015423,120.6,-0.0001703,-0.14411,0.20174
28413,4.4677,5,0.1,0.00049594,4956,0.00049764,5007.5,-0.00015487,104.85,-0.00016884,-0.12765,0.20839
28414,4.1913,4.9091,0.1,0.00050299,5026.4,0.00050491,5085.1,-0.00015594,119.71,-0.0001719,-0.18869,0.18772
28415,4.2835,5,0.1,0.00050084,5004.9,0.00050251,5055.8,-0.00015658,103.63,-0.0001704,-0.16526,0.1942
28416,4.0071,4.9091,0.1,0.00050774,5073.9,0.00050962,5131.1,-0.00015777,116.54,-0.00017332,-0.25314,0.17404
28417,4.0992,5,0.1,0.00050551,5051.6,0.00050714,5100.9,-0.0001584,100.29,-0.00017178,-0.21957,0.18035
28418,3.8228,4.9091,0.1,0.00051223,5118.8,0.00051402,5173,-0.00015975,110.57,-0.00017451,-0.35025,0.16071
28419,3.9149,5,0.1,0.00050988,5095.3,0.00051141,5141.6,-0.00016034,94.373,-0.00017294,-0.30175,0.16685
28420,3.6385,4.9091,0.1,0.00051635,5159.9,0.00051799,5209.5,-0.00016189,101.2,-0.00017543,-0.5051,0.14773
28421,3.7307,5,0.1,0.00051384,5134.8,0.00051523,5176.7,-0.0001624,85.339,-0.00017381,-0.43432,0.15369
28422,3.4543,4.9091,0.1,0.00051996,5196,0.00052138,5238.9,-0.0001642,87.741,-0.00017598,-0.77329,0.1351
28423,3.5464,5,0.1,0.00051724,5168.8,0.00051842,5204.4,-0.00016457,72.615,-0.00017433,-0.66913,0.14089
28424,3.27,4.9091,0.1,0.00052289,5225.3,0.00052402,5259.1,-0.00016668,69.445,-0.00017609,-1.3044,0.12283
28425,3.3621,5,0.1,0.00051989,5195.3,0.0005208,5222.4,-0.00016685,55.627,-0.00017441,-1.1542,0.12843
28426,3.0857,4.9091,0.1,0.00052494,5245.7,0.00052565,5267.1,-0.00016927,45.756,-0.00017571,-2.6588,0.11091
28427,3.1779,5,0.1,0.00052157,5212.1,0.0005221,5227.8,-0.00016914,34.145,-0.00017402,-2.5066,0.11633
28428,2.9015,4.9091,0.1,0.00052581,5254.5,0.00052599,5259.6,-0.0001715,19.022,-0.00017518,-8.6446,0.099346
28429,2.9936,5,0.1,0.00052196,5216,0.000522,5217.2,-0.00017077,12.01,-0.00017364,-9.5909,0.10459
28430,2.7172,4.9091,0.1,0.00052521,5248.5,0.00052466,5232.4,-0.00017094,5.9056,-0.00017678,-37.927,0.088141
28431,2.8093,5,0.1,0.00052071,5203.5,0.00052011,5186.2,-0.00016958,4.064,-0.00017525,-38.555,0.093194
28432,2.5329,4.9091,0.1,0.00052278,5224.2,0.00052124,5180.1,-0.00016773,3.4101,-0.00018022,-90.404,0.077292
28433,2.6251,5,0.1,0.00051739,5170.3,0.00051596,5129.4,-0.00016637,2.5865,-0.00017782,-83.452,0.082155
28434,2.3487,4.9091,0.1,0.00051815,5177.9,0.00051525,5096.5,-0.0001627,2.67,-0.00018455,-161.55,0.066796
28435,2.4408,5,0.1,0.00051151,5111.6,0.00050899,5040.5,-0.00016157,2.1359,-0.00018067,-141.4,0.071465
28436,2.1644,4.9091,0.1,0.00051102,5106.7,0.0005062,4974.6,-0.00015556,2.4059,-0.00019004,-256.72,0.056645
28437,2.2565,5,0.1,0.00050261,5022.6,0.00049862,4912.3,-0.0001549,2.0037,-0.00018386,-215.58,0.061119
28438,1.9801,4.9091,0.1,0.00050135,5010,0.0004937,4807.1,-0.00014576,2.3962,-0.00019743,-385.79,0.046831
28439,2.0723,5,0.1,0.00049032,4899.8,0.00048429,4737.3,-0.00014594,2.0214,-0.00018772,-311.97,0.051104
28440,1.7959,4.9091,0.1,0.00048964,4893,0.00047762,4587.7,-0.00013264,2.4246,-0.00020799,-563.76,0.037337
28441,1.888,5,0.1,0.00047469,4743.7,0.00046569,4509.2,-0.00013415,2.2047,-0.00019303,-440.19,0.041408
28442,1.6116,4.9091,0.1,0.00047746,4771.3,0.00045847,4314.9,-0.00011541,2.9476,-0.00022375,-811.04,0.028141
28443,1.7037,5,0.1,0.00045668,4563.6,0.0004431,4225.6,-0.000119,2.229,-0.00020119,-615.32,0.032008
28444,1.4273,4.9091,0.1,0.00046874,4684.2,0.00043826,3998.8,-9.3741e-05,1.5664,-0.00024773,-1155.4,0.019215
28445,1.5195,5,0.1,0.00043892,4386.2,0.00041797,3894.5,-9.9943e-05,3.1494,-0.00021462,-858.52,0.022878
28446,1.2431,4.9091,0.1,0.00048113,4808,0.00042955,3737.5,-6.7026e-05,6.4408,-0.00029259,-1688.3,0.010558
28447,1.3352,5,0.1,0.00042775,4274.6,0.00039436,3543.6,-7.7278e-05,-0.12142,-0.00023747,-1203.8,0.013998
28448,1.1509,5,0.1,0.00045194,4516.3,0.00039359,3344.4,-4.9999e-05,11.444,-0.0002905,-1795.6,0.0055267
28449,1.0588,4.9091,0.1,0.0004048,4045.2,0.0003496,2941.9,-4.2066e-05,-0.95591,-0.00026433,-1670.9,0.0029007
28450,23.724,5.0909,0.1,1.4285e-05,142.75,9.2737e-06,58.135,1.519e-06,-0.13128,-1.2376e-05,-104.53,2.8888
28451,23.816,5.1818,0.1,1.2664e-05,126.55,7.3318e-06,39.577,2.0581e-06,-0.047898,-1.1517e-05,-102.05,2.9043
28452,23.908,5.0909,0.1,1.2623e-05,126.14,6.0104e-06,22.463,2.9685e-06,-0.39248,-1.2091e-05,-113.54,2.9199
28453,23.539,5.0909,0.1,1.652e-05,165.08,1.2683e-05,95.203,-9.4153e-09,-0.16475,-1.2687e-05,-95.417,2.8577
28454,23.631,5.1818,0.1,1.4638e-05,146.28,1.0683e-05,76.144,5.1679e-07,-0.23875,-1.1765e-05,-92.517,2.8732
28455,23.355,5.0909,0.1,1.9206e-05,191.93,1.6156e-05,132.53,-1.4931e-06,-0.079945,-1.3135e-05,-87.556,2.8266
28456,23.447,5.1818,0.1,1.7186e-05,171.74,1.4115e-05,113.16,-9.5592e-07,-0.076004,-1.2185e-05,-84.445,2.8421
28457,23.171,5.0909,0.1,2.2203e-05,221.88,1.9695e-05,170.12,-2.9551e-06,-0.061846,-1.3704e-05,-80.824,2.7955
28458,23.263,5.1818,0.1,2.0114e-05,201,1.7631e-05,150.52,-2.4109e-06,-0.065542,-1.2746e-05,-77.717,2.811
28459,22.987,5.0909,0.1,2.542e-05,254.03,2.3299e-05,208.05,-4.3972e-06,-0.042765,-1.4377e-05,-75.026,2.7645
28460,23.079,5.1818,0.1,2.33e-05,232.84,2.1223e-05,188.3,-3.8432e-06,-0.039617,-1.3426e-05,-72.039,2.7799
28461,22.802,5.0909,0.1,2.8797e-05,287.78,2.6961e-05,246.31,-5.8255e-06,-0.032055,-1.5137e-05,-69.998,2.7334
28462,22.894,5.1818,0.1,2.6668e-05,266.5,2.4881e-05,226.46,-5.262e-06,-0.028413,-1.4202e-05,-67.2,2.7489
28463,22.618,5.0909,0.1,3.2293e-05,322.71,3.0673e-05,284.87,-7.2435e-06,-0.023993,-1.597e-05,-65.589,2.7024
28464,22.71,5.1818,0.1,3.0166e-05,301.45,2.8595e-05,264.96,-6.6707e-06,-0.019444,-1.5055e-05,-63.012,2.7178
28465,22.434,5.0909,0.1,3.5879e-05,358.54,3.4429e-05,323.69,-8.6541e-06,-0.018295,-1.6861e-05,-61.683,2.6713
28466,22.526,5.1818,0.1,3.3759e-05,337.35,3.2355e-05,303.75,-8.0725e-06,-0.013549,-1.5968e-05,-59.335,2.6868
28467,22.249,5.0909,0.1,3.9535e-05,395.08,3.8223e-05,362.76,-1.0059e-05,-0.014037,-1.7801e-05,-58.185,2.6404
28468,22.342,5.1818,0.1,3.7425e-05,373.99,3.6154e-05,342.79,-9.4694e-06,-0.0092436,-1.693e-05,-56.064,2.6558
28469,22.065,5.0909,0.1,4.3249e-05,432.19,4.2049e-05,402.04,-1.146e-05,-0.010831,-1.8783e-05,-55.027,2.6094
28470,22.157,5.1818,0.1,4.1148e-05,411.2,3.9986e-05,382.06,-1.0863e-05,-0.0061316,-1.7932e-05,-53.12,2.6248
28471,21.881,5.0909,0.1,4.701e-05,469.77,4.5905e-05,441.52,-1.2859e-05,-0.0083659,-1.9799e-05,-52.153,2.5784
28472,21.973,5.1818,0.1,4.4919e-05,448.88,4.3847e-05,421.52,-1.2254e-05,-0.0038265,-1.8968e-05,-50.447,2.5938
28473,21.697,5.0909,0.1,5.0811e-05,507.76,4.9787e-05,481.19,-1.4255e-05,-0.0064546,-2.0845e-05,-49.521,2.5475
28474,21.789,5.1818,0.1,4.8729e-05,486.96,4.7735e-05,461.18,-1.3644e-05,-0.0021009,-2.0033e-05,-48.001,2.5629
28475,21.512,5.0909,0.1,5.4648e-05,546.11,5.3694e-05,521.03,-1.5651e-05,-0.0049618,-2.1919e-05,-47.099,2.5166
28476,21.605,5.1818,0.1,5.2574e-05,525.37,5.1646e-05,501,-1.5034e-05,-0.00081068,-2.1123e-05,-45.75,2.532
28477,21.328,5.0909,0.1,5.8517e-05,584.77,5.7625e-05,561.05,-1.7046e-05,-0.0037791,-2.3016e-05,-44.861,2.4858
28478,21.42,5.1818,0.1,5.6449e-05,564.1,5.5579e-05,541,-1.6423e-05,0.00016063,-2.2235e-05,-43.668,2.5011
28479,21.144,5.0909,0.1,6.2416e-05,623.73,6.1577e-05,601.23,-1.8442e-05,-0.002831,-2.4136e-05,-42.785,2.455
28480,21.236,5.1818,0.1,6.0352e-05,603.11,5.9534e-05,581.16,-1.7813e-05,0.00090307,-2.3368e-05,-41.735,2.4703
28481,20.96,5.0909,0.1,6.6341e-05,662.95,6.5552e-05,641.58,-1.9838e-05,-0.0020637,-2.5275e-05,-40.856,2.4242
28482,21.052,5.1818,0.1,6.4282e-05,642.38,6.3509e-05,621.48,-1.9204e-05,0.0014693,-2.4519e-05,-39.935,2.4395
28483,20.775,5.0909,0.1,7.0293e-05,702.44,6.9547e-05,682.1,-2.1235e-05,-0.0014416,-2.6433e-05,-39.059,2.3935
28484,20.867,5.1818,0.1,6.8236e-05,681.89,6.7505e-05,661.96,-2.0596e-05,0.0019068,-2.5688e-05,-38.254,2.4088
28485,20.591,5.0909,0.1,7.4269e-05,742.18,7.3562e-05,722.78,-2.2634e-05,-0.0009408,-2.7609e-05,-37.381,2.3628
28486,20.683,5.1818,0.1,7.2214e-05,721.64,7.152e-05,702.6,-2.199e-05,0.0022342,-2.6873e-05,-36.683,2.3781
28487,20.407,5.0909,0.1,7.8269e-05,782.15,7.7598e-05,763.63,-2.4035e-05,-0.00053059,-2.8801e-05,-35.814,2.3322
28488,20.499,5.1818,0.1,7.6214e-05,761.62,7.5554e-05,743.4,-2.3386e-05,0.0024716,-2.8073e-05,-35.211,2.3474
28489,20.223,5.0909,0.1,8.2293e-05,822.36,8.1655e-05,804.65,-2.5437e-05,-0.00018844,-3.0009e-05,-34.347,2.3016
28490,20.315,5.1818,0.1,8.0238e-05,801.82,7.9609e-05,784.37,-2.4785e-05,0.0026571,-2.9288e-05,-33.831,2.3168
28491,20.038,5.0909,0.1,8.6339e-05,862.8,8.5731e-05,845.84,-2.6843e-05,0.00010284,-3.1232e-05,-32.973,2.2711
28492,20.13,5.1818,0.1,8.4283e-05,842.25,8.3682e-05,825.51,-2.6186e-05,0.0027958,-3.0516e-05,-32.535,2.2862
28493,19.854,5.0909,0.1,9.0408e-05,903.46,8.9828e-05,887.2,-2.8251e-05,0.0003484,-3.2469e-05,-31.686,2.2406
28494,19.946,5.1818,0.1,8.835e-05,882.89,8.7775e-05,866.81,-2.759e-05,0.0029077,-3.1759e-05,-31.318,2.2557
28495,19.67,5.0909,0.1,9.45e-05,944.35,9.3944e-05,928.74,-2.9663e-05,0.00054394,-3.3719e-05,-30.478,2.2102
28496,19.762,5.1818,0.1,9.2438e-05,923.74,9.1888e-05,908.29,-2.8997e-05,0.0029824,-3.3014e-05,-30.174,2.2253
28497,19.485,5.0909,0.1,9.8613e-05,985.45,9.8081e-05,970.45,-3.1078e-05,0.00070753,-3.4984e-05,-29.345,2.1799
28498,19.578,5.1818,0.1,9.6548e-05,964.81,9.602e-05,949.93,-3.0408e-05,0.0030206,-3.4281e-05,-29.098,2.1949
28499,19.301,5.0909,0.1,0.00010275,1026.8,0.00010224,1012.3,-3.2496e-05,0.00085147,-3.626e-05,-28.28,2.1496
28500,19.393,5.1818,0.1,0.00010068,1006.1,0.00010017,991.76,-3.1823e-05,0.0030532,-3.5561e-05,-28.084,2.1646
28501,19.117,5.0909,0.1,0.00010691,1068.3,0.00010642,1054.4,-3.3919e-05,0.00098111,-3.755e-05,-27.279,2.1194
28502,19.209,5.1818,0.1,0.00010483,1047.6,0.00010434,1033.8,-3.3241e-05,0.003074,-3.6852e-05,-27.13,2.1344
28503,18.933,5.0909,0.1,0.00011108,1110.1,0.00011061,1096.7,-3.5345e-05,0.0010932,-3.8851e-05,-26.337,2.0893
28504,19.025,5.1818,0.1,0.000109,1089.3,0.00010853,1075.9,-3.4664e-05,0.0030965,-3.8155e-05,-26.23,2.1042
28505,18.748,5.0909,0.1,0.00011528,1152.1,0.00011483,1139.1,-3.6776e-05,0.0011767,-4.0164e-05,-25.451,2.0592
28506,18.841,5.1818,0.1,0.0001132,1131.2,0.00011275,1118.3,-3.6091e-05,0.003098,-3.9469e-05,-25.382,2.0741
28507,18.564,5.0909,0.1,0.00011951,1194.2,0.00011907,1181.7,-3.8211e-05,0.001248,-4.1488e-05,-24.616,2.0293
28508,18.656,5.1818,0.1,0.00011741,1173.3,0.00011698,1160.8,-3.7522e-05,0.0030783,-4.0794e-05,-24.581,2.0441
28509,18.38,5.0909,0.1,0.00012375,1236.6,0.00012333,1224.6,-3.9651e-05,0.0013155,-4.2823e-05,-23.828,1.9993
28510,18.472,5.1818,0.1,0.00012165,1215.7,0.00012123,1203.6,-3.8958e-05,0.003068,-4.213e-05,-23.824,2.0141
28511,18.196,5.0909,0.1,0.00012801,1279.3,0.00012761,1267.6,-4.1096e-05,0.001383,-4.4168e-05,-23.084,1.9695
28512,18.288,5.1818,0.1,0.00012591,1258.2,0.0001255,1246.5,-4.0399e-05,0.0030552,-4.3475e-05,-23.109,1.9843
28513,18.011,5.0909,0.1,0.0001323,1322.1,0.0001319,1310.8,-4.2545e-05,0.0014435,-4.5524e-05,-22.381,1.9398
28514,18.103,5.1818,0.1,0.00013019,1301,0.00012979,1289.6,-4.1845e-05,0.0030561,-4.4831e-05,-22.431,1.9545
28515,17.827,5.0909,0.1,0.00013661,1365.1,0.00013622,1354.1,-4.4e-05,0.00148,-4.689e-05,-21.716,1.9101
28516,17.919,5.1818,0.1,0.00013448,1343.9,0.0001341,1332.9,-4.3296e-05,0.0030382,-4.6196e-05,-21.789,1.9248
28517,17.643,5.0909,0.1,0.00014093,1408.4,0.00014056,1397.7,-4.546e-05,0.0015095,-4.8266e-05,-21.086,1.8806
28518,17.735,5.1818,0.1,0.0001388,1387.1,0.00013843,1376.4,-4.4752e-05,0.0030018,-4.7571e-05,-21.18,1.8952
28519,17.459,5.0909,0.1,0.00014528,1451.8,0.00014492,1441.5,-4.6925e-05,0.0015443,-4.9652e-05,-20.487,1.8511
28520,17.551,5.1818,0.1,0.00014314,1430.5,0.00014278,1420,-4.6213e-05,0.0029788,-4.8956e-05,-20.601,1.8657
28521,17.274,5.0909,0.1,0.00014965,1495.5,0.0001493,1485.4,-4.8395e-05,0.0015855,-5.1047e-05,-19.917,1.8218
28522,17.366,5.1818,0.1,0.00014751,1474,0.00014715,1463.9,-4.768e-05,0.0029592,-5.0349e-05,-20.05,1.8362
28523,17.09,5.0909,0.1,0.00015404,1539.4,0.0001537,1529.6,-4.9872e-05,0.0016218,-5.245e-05,-19.374,1.7925
28524,17.182,5.1818,0.1,0.00015189,1517.8,0.00015155,1508,-4.9153e-05,0.0029561,-5.1751e-05,-19.524,1.8069
28525,16.906,5.0909,0.1,0.00015846,1583.5,0.00015813,1573.9,-5.1353e-05,0.001635,-5.3863e-05,-18.856,1.7634
28526,16.998,5.1818,0.1,0.00015629,1561.8,0.00015596,1552.2,-5.0631e-05,0.0029346,-5.3163e-05,-19.021,1.7777
28527,16.721,5.0909,0.1,0.00016289,1627.8,0.00016257,1618.5,-5.2841e-05,0.0016449,-5.5284e-05,-18.359,1.7343
28528,16.814,5.1818,0.1,0.00016071,1606,0.00016039,1596.7,-5.2114e-05,0.002891,-5.4582e-05,-18.539,1.7486
28529,16.537,5.0909,0.1,0.00016734,1672.2,0.00016703,1663.2,-5.4334e-05,0.0016625,-5.6714e-05,-17.882,1.7054
28530,16.629,5.1818,0.1,0.00016516,1650.4,0.00016484,1641.3,-5.3604e-05,0.0028666,-5.601e-05,-18.076,1.7196
28531,16.353,5.0909,0.1,0.00017181,1717,0.00017151,1708.2,-5.5833e-05,0.0016895,-5.8152e-05,-17.422,1.6765
28532,16.445,5.1818,0.1,0.00016962,1695.1,0.00016932,1686.2,-5.51e-05,0.0028439,-5.7446e-05,-17.631,1.6907
28533,16.169,5.0909,0.1,0.00017631,1761.9,0.00017601,1753.3,-5.7339e-05,0.0017142,-5.9598e-05,-16.977,1.6478
28534,16.261,5.1818,0.1,0.00017411,1739.9,0.00017381,1731.2,-5.6601e-05,0.0028426,-5.8891e-05,-17.2,1.6619
28535,15.984,5.0909,0.1,0.00018082,1807,0.00018054,1798.7,-5.885e-05,0.0017141,-6.1052e-05,-16.546,1.6192
28536,16.077,5.1818,0.1,0.00017861,1784.9,0.00017832,1776.4,-5.8109e-05,0.0028187,-6.0343e-05,-16.783,1.6333
28537,15.8,5.0909,0.1,0.00018536,1852.3,0.00018508,1844.2,-6.0367e-05,0.0017112,-6.2514e-05,-16.126,1.5908
28538,15.892,5.1818,0.1,0.00018314,1830.1,0.00018285,1821.9,-5.9623e-05,0.0027708,-6.1803e-05,-16.377,1.6047
28539,15.616,5.0909,0.1,0.00018991,1897.8,0.00018964,1889.9,-6.1891e-05,0.0017193,-6.3983e-05,-15.715,1.5624
28540,15.708,5.1818,0.1,0.00018769,1875.6,0.00018741,1867.5,-6.1143e-05,0.0027436,-6.327e-05,-15.98,1.5763
28541,15.432,5.0909,0.1,0.00019449,1943.5,0.00019422,1935.8,-6.3421e-05,0.001739,-6.5459e-05,-15.312,1.5342
28542,15.524,5.1818,0.1,0.00019225,1921.2,0.00019198,1913.3,-6.2669e-05,0.0027201,-6.4744e-05,-15.592,1.548
28543,15.247,5.0909,0.1,0.00019908,1989.5,0.00019883,1982,-6.4958e-05,0.0017567,-6.6943e-05,-14.914,1.5061
28544,15.339,5.1818,0.1,0.00019684,1967,0.00019658,1959.4,-6.4202e-05,0.0027189,-6.6226e-05,-15.21,1.5199
28545,15.063,5.0909,0.1,0.0002037,2035.6,0.00020345,2028.3,-6.6501e-05,0.0017478,-6.8433e-05,-14.52,1.4781
28546,15.155,5.1818,0.1,0.00020145,2013.1,0.00020119,2005.6,-6.5741e-05,0.0026926,-6.7715e-05,-14.832,1.4918
28547,14.879,5.0909,0.1,0.00020834,2081.9,0.00020809,2074.8,-6.805e-05,0.0017359,-6.9931e-05,-14.128,1.4503
28548,14.971,5.1818,0.1,0.00020607,2059.3,0.00020582,2052,-6.7286e-05,0.002639,-6.9211e-05,-14.457,1.4639
28549,14.695,5.0909,0.1,0.00021299,2128.5,0.00021276,2121.6,-6.9606e-05,0.0017376,-7.1434e-05,-13.735,1.4226
28550,14.787,5.1818,0.1,0.00021072,2105.7,0.00021048,2098.7,-6.8838e-05,0.0026072,-7.0713e-05,-14.082,1.4362
28551,14.51,5.0909,0.1,0.00021767,2175.2,0.00021744,2168.5,-7.1169e-05,0.0017536,-7.2945e-05,-13.341,1.3951
28552,14.602,5.1818,0.1,0.00021539,2152.4,0.00021515,2145.5,-7.0397e-05,0.0025802,-7.2222e-05,-13.707,1.4086
28553,14.326,5.0909,0.1,0.00022236,2222.1,0.00022214,2215.6,-7.2738e-05,0.0017676,-7.4461e-05,-12.942,1.3677
28554,14.418,5.1818,0.1,0.00022007,2199.2,0.00021984,2192.5,-7.1963e-05,0.0025775,-7.3737e-05,-13.33,1.3811
28555,14.142,5.0909,0.1,0.00022708,2269.2,0.00022686,2262.9,-7.4314e-05,0.0017537,-7.5983e-05,-12.537,1.3405
28556,14.234,5.1818,0.1,0.00022478,2246.2,0.00022456,2239.7,-7.3535e-05,0.0025459,-7.5258e-05,-12.948,1.3538
28557,13.957,5.0909,0.1,0.00023182,2316.6,0.00023161,2310.5,-7.5898e-05,0.0017377,-7.7511e-05,-12.124,1.3134
28558,14.05,5.1818,0.1,0.00022951,2293.5,0.00022929,2287.2,-7.5114e-05,0.002485,-7.6786e-05,-12.559,1.3266
28559,13.773,5.0909,0.1,0.00023657,2364.1,0.00023637,2358.2,-7.7488e-05,0.0017377,-7.9045e-05,-11.701,1.2865
28560,13.865,5.1818,0.1,0.00023425,2340.9,0.00023404,2334.8,-7.67e-05,0.0024476,-7.8319e-05,-12.163,1.2996
28561,13.589,5.0909,0.1,0.00024134,2411.8,0.00024115,2406.1,-7.9085e-05,0.0017559,-8.0584e-05,-11.265,1.2597
28562,13.681,5.1818,0.1,0.00023902,2388.5,0.00023882,2382.6,-7.8293e-05,0.0024157,-7.9858e-05,-11.757,1.2728
28563,13.405,5.0909,0.1,0.00024614,2459.7,0.00024595,2454.3,-8.0689e-05,0.0017741,-8.2129e-05,-10.815,1.2331
28564,13.497,5.1818,0.1,0.0002438,2436.4,0.00024361,2430.7,-7.9893e-05,0.0024114,-8.1402e-05,-11.338,1.2461
28565,13.22,5.0909,0.1,0.00025095,2507.8,0.00025077,2502.6,-8.2301e-05,0.0017642,-8.3678e-05,-10.348,1.2067
28566,13.313,5.1818,0.1,0.00024861,2484.4,0.00024842,2478.9,-8.15e-05,0.0023756,-8.2952e-05,-10.905,1.2196
28567,13.036,5.0909,0.1,0.00025578,2556.1,0.00025561,2551.1,-8.3919e-05,0.0017561,-8.5232e-05,-9.861,1.1804
28568,13.128,5.1818,0.1,0.00025343,2532.6,0.00025325,2527.3,-8.3114e-05,0.0023082,-8.4506e-05,-10.456,1.1932
28569,12.852,5.0909,0.1,0.00026063,2604.5,0.00026047,2599.9,-8.5546e-05,0.0017709,-8.679e-05,-9.3519,1.1543
28570,12.944,5.1818,0.1,0.00025828,2581,0.00025811,2576,-8.4736e-05,0.0022694,-8.6066e-05,-9.9872,1.167
28571,12.668,5.0909,0.1,0.0002655,2653.2,0.00026535,2648.8,-8.7179e-05,0.0018134,-8.8353e-05,-8.8177,1.1284
28572,12.76,5.1818,0.1,0.00026314,2629.6,0.00026298,2624.8,-8.6365e-05,0.0022394,-8.7629e-05,-9.4976,1.141
28573,12.483,5.0909,0.1,0.00027039,2702.1,0.00027025,2697.9,-8.882e-05,0.0018669,-8.9919e-05,-8.2557,1.1027
28574,12.575,5.1818,0.1,0.00026802,2678.4,0.00026787,2673.9,-8.8002e-05,0.0022439,-8.9198e-05,-8.984,1.1152
28575,12.299,5.0909,0.1,0.0002753,2751.1,0.00027517,2747.3,-9.0469e-05,0.0019038,-9.1489e-05,-7.6626,1.0771
28576,12.391,5.1818,0.1,0.00027292,2727.3,0.00027278,2723.1,-8.9646e-05,0.0022205,-9.077e-05,-8.4437,1.0895
28577,12.115,5.0909,0.1,0.00028023,2800.3,0.00028011,2796.8,-9.2126e-05,0.0019652,-9.3063e-05,-7.0353,1.0517
28578,12.207,5.1818,0.1,0.00027784,2776.5,0.00027771,2772.6,-9.1298e-05,0.0021718,-9.2346e-05,-7.8738,1.0641
28579,11.931,5.0909,0.1,0.00028517,2849.8,0.00028506,2846.6,-9.3791e-05,0.0020851,-9.4639e-05,-6.3701,1.0266
28580,12.023,5.1818,0.1,0.00028278,2825.9,0.00028266,2822.2,-9.2957e-05,0.0021688,-9.3925e-05,-7.2712,1.0388
28581,11.746,5.0909,0.1,0.00029013,2899.3,0.00029004,2896.5,-9.5464e-05,0.0022873,-9.6218e-05,-5.6634,1.0016
28582,11.838,5.1818,0.1,0.00028774,2875.4,0.00028763,2872.1,-9.4625e-05,0.0021962,-9.5508e-05,-6.6325,1.0137
28583,11.562,5.0909,0.1,0.00029512,2949.1,0.00029503,2946.7,-9.7145e-05,0.0025901,-9.7799e-05,-4.9112,0.9768
28584,11.654,5.1818,0.1,0.00029271,2925.1,0.00029261,2922.1,-9.63e-05,0.002296,-9.7093e-05,-5.9543,0.98879
28585,11.378,5.0909,0.1,0.00030011,2999.1,0.00030004,2997,-9.8834e-05,0.0030337,-9.9381e-05,-4.1096,0.95221
28586,11.47,5.1818,0.1,0.00029771,2975,0.00029762,2972.4,-9.7984e-05,0.0024216,-9.8681e-05,-5.2329,0.9641
28587,11.193,5.0909,0.1,0.00030513,3049.2,0.00030508,3047.6,-0.00010053,0.0038251,-0.00010097,-3.2539,0.92782
28588,11.286,5.1818,0.1,0.00030272,3025.1,0.00030264,3022.9,-9.9676e-05,0.0026165,-0.00010027,-4.4644,0.9396
28589,11.009,5.0909,0.1,0.00031017,3099.5,0.00031013,3098.3,-0.00010224,0.0054612,-0.00010255,-2.34,0.90364
28590,11.101,5.1818,0.1,0.00030775,3075.4,0.00030769,3073.6,-0.00010138,0.0030507,-0.00010186,-3.6445,0.91531
28591,10.825,5.0909,0.1,0.00031522,3150,0.00031519,3149.3,-0.00010395,0.0098747,-0.00010414,-1.3646,0.87967
28592,10.917,5.1818,0.1,0.0003128,3125.8,0.00031275,3124.5,-0.00010309,0.0039325,-0.00010346,-2.769,0.89123
28593,10.641,5.0909,0.1,0.00032029,3200.6,0.00032028,3200.5,-0.00010567,0.041877,-0.00010573,-0.34707,0.85592
28594,10.733,5.1818,0.1,0.00031787,3176.5,0.00031783,3175.5,-0.0001048,0.0060571,-0.00010505,-1.8339,0.86736
28595,10.456,5.0909,0.1,0.00032537,3251.5,0.00032538,3251.9,-0.0001073,0.83877,-0.00010742,-0.01918,0.83238
28596,10.549,5.1818,0.1,0.00032295,3227.3,0.00032294,3226.9,-0.00010653,0.013941,-0.00010664,-0.83874,0.84371
28597,10.272,5.0909,0.1,0.00033047,3302.5,0.00033051,3303.5,-0.00010889,2.0349,-0.00010916,-0.0089906,0.80906
28598,10.364,5.1818,0.1,0.00032805,3278.2,0.00032805,3278.4,-0.00010823,0.29332,-0.00010827,-0.043921,0.82028
28599,10.088,5.0909,0.1,0.00033559,3353.6,0.00033565,3355.3,-0.00011047,3.3268,-0.00011091,-0.0063836,0.78597
28600,10.18,5.1818,0.1,0.00033317,3329.4,0.00033319,3330.1,-0.00010983,1.4113,-0.00011002,-0.010508,0.79706
28601,9.9036,5.0909,0.1,0.00034073,3404.9,0.00034081,3407.3,-0.00011205,4.715,-0.00011267,-0.0053276,0.7631
28602,9.9957,5.1818,0.1,0.0003383,3380.7,0.00033835,3382,-0.00011142,2.6417,-0.00011177,-0.0066942,0.77408
28603,9.7193,5.0909,0.1,0.00034588,3456.4,0.00034598,3459.5,-0.00011362,6.2058,-0.00011445,-0.0048525,0.74046
28604,9.8115,5.1818,0.1,0.00034346,3432.2,0.00034352,3434.2,-0.00011301,3.9641,-0.00011354,-0.0054623,0.75132
28605,9.5351,5.0909,0.1,0.00035104,3508,0.00035118,3511.9,-0.00011519,7.8064,-0.00011623,-0.0046731,0.71806
28606,9.6272,5.1818,0.1,0.00034862,3483.8,0.00034872,3486.5,-0.0001146,5.3831,-0.00011531,-0.0050034,0.7288
28607,9.3508,5.0909,0.1,0.00035623,3559.8,0.00035639,3564.5,-0.00011676,9.5246,-0.00011803,-0.004676,0.6959
28608,9.4429,5.1818,0.1,0.00035381,3535.7,0.00035393,3539.1,-0.00011618,6.9052,-0.0001171,-0.004909,0.70651
28609,9.1665,5.0909,0.1,0.00036142,3611.7,0.00036161,3617.4,-0.00011832,11.368,-0.00011983,-0.004804,0.67398
28610,9.2587,5.1818,0.1,0.00035901,3587.6,0.00035915,3591.9,-0.00011776,8.5374,-0.0001189,-0.0050179,0.68446
28611,8.9823,5.0909,0.1,0.00036663,3663.8,0.00036686,3670.5,-0.00011987,13.346,-0.00012165,-0.0050321,0.6523
28612,9.0744,5.1818,0.1,0.00036423,3639.8,0.0003644,3644.9,-0.00011933,10.287,-0.0001207,-0.0052692,0.66266
28613,8.798,5.0909,0.1,0.00037186,3716,0.00037212,3723.7,-0.00012142,15.465,-0.00012348,-0.0053469,0.63088
28614,8.8901,5.1818,0.1,0.00036946,3692,0.00036967,3698.1,-0.0001209,12.161,-0.00012252,-0.005632,0.6411
28615,8.6137,5.0909,0.1,0.0003771,3768.4,0.0003774,3777.2,-0.00012296,17.735,-0.00012532,-0.0057433,0.6097
28616,8.7059,5.1818,0.1,0.00037471,3744.5,0.00037495,3751.6,-0.00012247,14.166,-0.00012436,-0.0060928,0.61979
28617,8.4295,5.0909,0.1,0.00038235,3820.9,0.00038269,3830.9,-0.00012449,20.163,-0.00012717,-0.0062215,0.58878
28618,8.5216,5.1818,0.1,0.00037997,3797.1,0.00038025,3805.2,-0.00012403,16.311,-0.0001262,-0.0066457,0.59874
28619,8.2452,5.0909,0.1,0.00038762,3873.5,0.000388,3884.9,-0.00012601,22.758,-0.00012904,-0.0067852,0.56812
28620,8.3373,5.1818,0.1,0.00038525,3849.8,0.00038556,3859.1,-0.00012558,18.601,-0.00012805,-0.007292,0.57794
28621,8.0609,5.0909,0.1,0.0003929,3926.3,0.00039333,3939,-0.00012752,25.526,-0.00013092,-0.0074416,0.54773
28622,8.1531,5.1818,0.1,0.00039054,3902.7,0.0003909,3913.2,-0.00012712,21.043,-0.00012992,-0.0080363,0.55741
28623,7.8767,5.0909,0.1,0.0003982,3979.2,0.00039867,3993.4,-0.00012902,28.473,-0.00013281,-0.0082012,0.5276
28624,7.9688,5.1818,0.1,0.00039585,3955.8,0.00039625,3967.5,-0.00012865,23.642,-0.0001318,-0.0088864,0.53714
28625,7.6924,5.0909,0.1,0.0004035,4032.2,0.00040403,4047.9,-0.00013051,31.604,-0.00013472,-0.0090777,0.50774
28626,7.7845,5.1818,0.1,0.00040117,4008.9,0.00040161,4022.1,-0.00013018,26.403,-0.00013369,-0.0098539,0.51714
28627,7.5081,5.0909,0.1,0.00040882,4085.4,0.0004094,4102.7,-0.00013199,34.922,-0.00013664,-0.010089,0.48815
28628,7.6003,5.1818,0.1,0.0004065,4062.2,0.00040699,4076.8,-0.00013169,29.327,-0.0001356,-0.010954,0.49742
28629,7.3239,5.0909,0.1,0.00041415,4138.6,0.00041479,4157.7,-0.00013345,38.427,-0.00013857,-0.011257,0.46885
28630,7.416,5.1818,0.1,0.00041185,4115.7,0.00041239,4131.8,-0.0001332,32.414,-0.00013751,-0.012205,0.47797
28631,7.1396,5.0909,0.1,0.00041949,4192,0.00042019,4212.9,-0.00013491,42.115,-0.00014051,-0.012611,0.44982
28632,7.2317,5.1818,0.1,0.00041721,4169.2,0.00041781,4186.9,-0.0001347,35.662,-0.00013944,-0.01363,0.4588
28633,6.9553,5.0909,0.1,0.00042484,4245.5,0.00042561,4268.3,-0.00013635,45.978,-0.00014247,-0.014184,0.43108
28634,7.0475,5.1818,0.1,0.00042258,4222.9,0.00042323,4242.3,-0.00013618,39.064,-0.00014138,-0.01526,0.43991
28635,6.7711,5.0909,0.1,0.0004302,4299.1,0.00043103,4323.8,-0.00013778,50.003,-0.00014444,-0.016023,0.41263
28636,6.8632,5.1818,0.1,0.00042797,4276.7,0.00042868,4297.8,-0.00013766,42.607,-0.00014334,-0.01713,0.42131
28637,6.5868,5.0909,0.1,0.00043557,4352.7,0.00043647,4379.6,-0.0001392,54.17,-0.00014642,-0.018181,0.39447
28638,6.6789,5.1818,0.1,0.00043336,4330.6,0.00043413,4353.5,-0.00013913,46.274,-0.0001453,-0.019286,0.403
28639,6.4025,5.0909,0.1,0.00044095,4406.5,0.00044192,4435.4,-0.00014062,58.448,-0.0001484,-0.020731,0.37661
28640,6.4947,5.1818,0.1,0.00043876,4384.6,0.00043959,4409.4,-0.0001406,50.038,-0.00014726,-0.021786,0.38499
28641,6.2183,5.0909,0.1,0.00044633,4460.2,0.00044737,4491.3,-0.00014203,62.799,-0.00015039,-0.023764,0.35905
28642,6.3104,5.1818,0.1,0.00044417,4438.6,0.00044506,4465.3,-0.00014207,53.863,-0.00014924,-0.024703,0.36727
28643,6.034,5.0909,0.1,0.00045172,4514.1,0.00045282,4547.3,-0.00014344,67.168,-0.00015238,-0.027396,0.34179
28644,6.1261,5.1818,0.1,0.00044958,4492.7,0.00045053,4521.2,-0.00014353,57.703,-0.00015121,-0.028131,0.34986
28645,5.8497,5.0909,0.1,0.0004571,4567.9,0.00045827,4603.2,-0.00014485,71.486,-0.00015437,-0.031782,0.32484
28646,5.9419,5.1818,0.1,0.00045498,4546.7,0.000456,4577.1,-0.00014499,61.495,-0.00015318,-0.032191,0.33275
28647,5.6655,5.0909,0.1,0.00046248,4621.6,0.00046372,4658.9,-0.00014628,75.665,-0.00015635,-0.037129,0.3082
28648,5.7576,5.1818,0.1,0.00046038,4600.7,0.00046146,4632.9,-0.00014647,65.161,-0.00015515,-0.037046,0.31595
28649,5.4812,5.0909,0.1,0.00046784,4675.2,0.00046914,4714.4,-0.00014772,79.594,-0.00015832,-0.043716,0.29187
28650,5.5733,5.1818,0.1,0.00046577,4654.5,0.0004669,4688.4,-0.00014796,68.603,-0.00015709,-0.042913,0.29946
28651,5.2969,5.0909,0.1,0.00047318,4728.5,0.00047454,4769.5,-0.00014918,83.136,-0.00016025,-0.051931,0.27587
28652,5.3891,5.1818,0.1,0.00047113,4708,0.0004723,4743.4,-0.00014947,71.697,-0.00015901,-0.050095,0.2833
28653,5.1127,5.0909,0.1,0.00047848,4781.5,0.00047988,4823.9,-0.00015068,86.123,-0.00016215,-0.062323,0.26018
28654,5.2048,5.1818,0.1,0.00047644,4761.1,0.00047766,4797.8,-0.000151,74.294,-0.0001609,-0.059016,0.26745
28655,4.9284,5.0909,0.1,0.00048371,4833.8,0.00048516,4877.3,-0.00015222,88.353,-0.00016399,-0.075699,0.24482
28656,5.0205,5.1818,0.1,0.00048169,4813.6,0.00048294,4851.2,-0.00015257,76.211,-0.00016273,-0.070302,0.25193
28657,4.7441,5.0909,0.1,0.00048887,4885.3,0.00049033,4929.4,-0.00015382,89.583,-0.00016575,-0.093275,0.2298
28658,4.8363,5.1818,0.1,0.00048686,4865.2,0.00048812,4903.3,-0.00015419,77.233,-0.00016448,-0.084896,0.23673
28659,4.5599,5.0909,0.1,0.0004939,4935.6,0.00049536,4979.6,-0.00015548,89.53,-0.00016741,-0.11697,0.2151
28660,4.652,5.1818,0.1,0.00049189,4915.5,0.00049315,4953.5,-0.00015586,77.101,-0.00016614,-0.10429,0.22187
28661,4.3756,5.0909,0.1,0.00049875,4984.1,0.00050019,5027.3,-0.00015722,87.861,-0.00016893,-0.14994,0.20074
28662,4.4677,5.1818,0.1,0.00049674,4963.9,0.00049798,5001.2,-0.00015759,75.519,-0.00016766,-0.13098,0.20734
28663,4.1913,5.0909,0.1,0.00050337,5030.2,0.00050474,5071.7,-0.00015905,84.197,-0.00017028,-0.19776,0.18672
28664,4.2835,5.1818,0.1,0.00050134,5010,0.00050253,5045.6,-0.00015939,72.143,-0.00016902,-0.16938,0.19315
28665,4.0071,5.0909,0.1,0.00050765,5073,0.00050893,5111.5,-0.00016097,78.111,-0.0001714,-0.27098,0.17305
28666,4.0992,5.1818,0.1,0.00050561,5052.6,0.0005067,5085.4,-0.00016126,66.588,-0.00017016,-0.22801,0.1793
28667,3.8228,5.0909,0.1,0.00051149,5111.4,0.00051263,5145.4,-0.00016298,69.133,-0.00017224,-0.39194,0.15971
28668,3.9149,5.1818,0.1,0.00050942,5090.7,0.00051038,5119.5,-0.0001632,58.435,-0.00017102,-0.32538,0.1658
28669,3.6385,5.0909,0.1,0.00051473,5143.8,0.00051566,5171.6,-0.00016508,56.774,-0.00017272,-0.61615,0.14673
28670,3.7307,5.1818,0.1,0.00051263,5122.7,0.00051341,5145.9,-0.00016519,47.25,-0.00017154,-0.50906,0.15264
28671,3.4543,5.0909,0.1,0.00051717,5168.1,0.00051783,5187.8,-0.00016721,40.615,-0.00017277,-1.1231,0.1341
28672,3.5464,5.1818,0.1,0.00051503,5146.7,0.00051556,5162.5,-0.00016718,32.682,-0.00017165,-0.94296,0.13983
28673,3.27,5.0909,0.1,0.00051856,5182,0.00051886,5191,-0.00016923,20.958,-0.0001724,-2.8706,0.12182
28674,3.3621,5.1818,0.1,0.00051637,5160.1,0.00051658,5166.4,-0.000169,15.201,-0.00017137,-2.6376,0.12737
28675,3.0857,5.0909,0.1,0.00051856,5182.1,0.00051841,5177.6,-0.00016995,5.593,-0.0001726,-14.371,0.10989
28676,3.1779,5.1818,0.1,0.00051632,5159.7,0.00051613,5154,-0.00016935,3.5626,-0.00017181,-14.902,0.11526
28677,2.9015,5.0909,0.1,0.00051679,5164.3,0.00051606,5143.2,-0.00016813,2.4541,-0.00017436,-44.378,0.098316
28678,2.9936,5.1818,0.1,0.00051449,5141.4,0.00051379,5121,-0.00016754,1.6973,-0.00017339,-42.23,0.10351
28679,2.7172,5.0909,0.1,0.00051274,5123.8,0.00051128,5082.1,-0.00016487,1.7817,-0.0001763,-84.114,0.087091
28680,2.8093,5.1818,0.1,0.00051037,5100.2,0.00050904,5061.9,-0.00016449,1.2844,-0.00017489,-76.871,0.092098
28681,2.5329,5.0909,0.1,0.00050584,5054.9,0.00050347,4987.9,-0.00016017,1.5784,-0.00017806,-132.86,0.076213
28682,2.6251,5.1818,0.1,0.00050336,5030.1,0.00050126,4970.5,-0.00016012,1.1733,-0.00017602,-118.3,0.081034
28683,2.3487,5.0909,0.1,0.00049545,4951.1,0.00049192,4852.9,-0.00015375,1.5568,-0.00017954,-192.18,0.065675
28684,2.4408,5.1818,0.1,0.00049277,4924.3,0.00048973,4839.1,-0.00015416,1.1897,-0.00017656,-167.11,0.07031
28685,2.1644,5.0909,0.1,0.00048096,4806.2,0.00047592,4669.1,-0.00014527,1.6385,-0.00018075,-264.9,0.055468
28686,2.2565,5.1818,0.1,0.00047786,4775.3,0.00047367,4659.7,-0.00014634,1.2941,-0.00017638,-224.46,0.059915
28687,1.9801,5.0909,0.1,0.00046196,4616.5,0.0004549,4429,-0.00013432,1.8203,-0.00018193,-355.91,0.045577
28688,2.0723,5.1818,0.1,0.000458,4576.9,0.00045234,4424.2,-0.00013629,1.4621,-0.00017542,-292.55,0.049837
28689,1.7959,5.0909,0.1,0.00043875,4384.5,0.00042878,4129.2,-0.00012051,1.9963,-0.00018383,-473.79,0.035983
28690,1.888,5.1818,0.1,0.00043293,4326.4,0.00042533,4127,-0.0001237,1.74,-0.00017395,-375.8,0.040057
28691,1.6116,5.0909,0.1,0.00041308,4128,0.00039866,3775.7,-0.00010353,2.4385,-0.00018813,-633.21,0.026661
28692,1.7037,5.1818,0.1,0.00040345,4031.7,0.00039306,3769,-0.00010831,1.9125,-0.0001729,-483.37,0.030551
28693,1.4273,5.0909,0.1,0.00038989,3896.3,0.00036802,3393.9,-8.3473e-05,1.5164,-0.00019834,-861.55,0.017584
28694,1.5195,5.1818,0.1,0.00037251,3722.6,0.0003577,3366.6,-8.9998e-05,2.7592,-0.0001746,-632.88,0.021294
28695,1.2431,5.0909,0.1,0.00038658,3863.1,0.00034988,3086.5,-6.019e-05,5.3464,-0.00022694,-1247.6,0.0087882
28696,1.3352,5.1818,0.1,0.0003477,3474.6,0.0003249,2962.4,-6.9314e-05,0.39296,-0.00018412,-862.23,0.012278
28697,1.1509,5.1818,0.1,0.00035598,3557.3,0.00031506,2720,-4.562e-05,9.9939,-0.00022107,-1308.3,0.003912
28698,1.0588,5.0909,0.1,0.00032118,3209.5,0.00028218,2413.4,-3.9476e-05,-3.3431,-0.00020249,-1228.2,0.0025106
28699,23.724,5.2727,0.1,1.2896e-05,128.87,8.7373e-06,57.559,1.0646e-06,-0.09018,-1.0911e-05,-90.071,2.8887
28700,23.816,5.3636,0.1,1.1113e-05,111.05,6.765e-06,39.173,1.552e-06,0.004158,-9.9155e-06,-86.158,2.9042
28701,23.908,5.2727,0.1,1.1144e-05,111.37,5.5034e-06,22.322,2.4834e-06,-0.36901,-1.0596e-05,-98.642,2.9198
28702,23.539,5.2727,0.1,1.5243e-05,152.32,1.2119e-05,94.137,-4.2764e-07,-0.13438,-1.1269e-05,-81.595,2.8576
28703,23.631,5.3636,0.1,1.3202e-05,131.93,1.007e-05,75.061,5.2786e-08,-0.20381,-1.0205e-05,-77.277,2.8731
28704,23.355,5.2727,0.1,1.8067e-05,180.54,1.5599e-05,131.22,-1.8728e-06,-0.054885,-1.1804e-05,-74.672,2.8265
28705,23.447,5.3636,0.1,1.5916e-05,159.05,1.3508e-05,111.76,-1.3735e-06,-0.048427,-1.0726e-05,-70.317,2.842
28706,23.171,5.2727,0.1,2.1204e-05,211.89,1.9169e-05,168.77,-3.2984e-06,-0.039434,-1.2478e-05,-69.012,2.7954
28707,23.263,5.3636,0.1,1.9017e-05,190.04,1.7063e-05,149.09,-2.7851e-06,-0.041967,-1.1415e-05,-64.88,2.8109
28708,22.987,5.2727,0.1,2.4552e-05,245.35,2.2817e-05,206.79,-4.7076e-06,-0.022632,-1.3262e-05,-64.3,2.7643
28709,23.079,5.3636,0.1,2.2362e-05,223.46,2.071e-05,186.99,-4.1792e-06,-0.018959,-1.2227e-05,-60.487,2.7798
28710,22.802,5.2727,0.1,2.8045e-05,280.26,2.6528e-05,245.19,-6.1068e-06,-0.013848,-1.4131e-05,-60.305,2.7333
28711,22.894,5.3636,0.1,2.5866e-05,258.49,2.4426e-05,225.33,-5.565e-06,-0.010089,-1.3129e-05,-56.842,2.7487
28712,22.618,5.2727,0.1,3.1642e-05,316.21,3.0289e-05,283.92,-7.4994e-06,-0.0074739,-1.5064e-05,-56.848,2.7022
28713,22.71,5.3636,0.1,2.948e-05,294.6,2.8196e-05,264.03,-6.9452e-06,-0.003164,-1.4096e-05,-53.729,2.7177
28714,22.434,5.2727,0.1,3.5317e-05,352.92,3.4092e-05,322.93,-8.8876e-06,-0.0032652,-1.6048e-05,-53.804,2.6712
28715,22.526,5.3636,0.1,3.3172e-05,331.49,3.2008e-05,303.03,-8.3224e-06,0.00098799,-1.5111e-05,-51.008,2.6866
28716,22.249,5.2727,0.1,3.905e-05,390.23,3.7929e-05,362.17,-1.0273e-05,-0.00032107,-1.7072e-05,-51.082,2.6402
28717,22.342,5.3636,0.1,3.6922e-05,368.96,3.5855e-05,342.27,-9.6978e-06,0.0037879,-1.6165e-05,-48.585,2.6556
28718,22.065,5.2727,0.1,4.283e-05,428.01,4.1795e-05,401.62,-1.1657e-05,0.0017256,-1.8128e-05,-48.62,2.6092
28719,22.157,5.3636,0.1,4.0718e-05,406.89,3.9729e-05,381.71,-1.1073e-05,0.0056055,-1.7248e-05,-46.394,2.6246
28720,21.881,5.2727,0.1,4.665e-05,466.17,4.5687e-05,441.26,-1.304e-05,0.0031625,-1.9212e-05,-46.372,2.5783
28721,21.973,5.3636,0.1,4.455e-05,445.2,4.3629e-05,421.34,-1.2447e-05,0.0067871,-1.8356e-05,-44.392,2.5936
28722,21.697,5.2727,0.1,5.0502e-05,504.68,4.9603e-05,481.07,-1.4423e-05,0.0041632,-2.032e-05,-44.303,2.5473
28723,21.789,5.3636,0.1,4.8415e-05,483.81,4.7551e-05,461.14,-1.3822e-05,0.0075384,-1.9486e-05,-42.545,2.5627
28724,21.512,5.2727,0.1,5.4385e-05,543.47,5.354e-05,521.04,-1.5806e-05,0.0048469,-2.1448e-05,-42.388,2.5165
28725,21.605,5.3636,0.1,5.2307e-05,522.71,5.1493e-05,501.1,-1.5199e-05,0.0079803,-2.0634e-05,-40.83,2.5318
28726,21.328,5.2727,0.1,5.8294e-05,582.54,5.7497e-05,561.17,-1.719e-05,0.0053073,-2.2595e-05,-40.608,2.4856
28727,21.42,5.3636,0.1,5.6224e-05,561.85,5.5454e-05,541.21,-1.6576e-05,0.0082074,-2.1798e-05,-39.231,2.5009
28728,21.144,5.2727,0.1,6.2228e-05,621.85,6.1474e-05,601.47,-1.8575e-05,0.0056086,-2.376e-05,-38.947,2.4548
28729,21.236,5.3636,0.1,6.0165e-05,601.23,5.9434e-05,581.48,-1.7955e-05,0.0082929,-2.2978e-05,-37.733,2.4701
28730,20.96,5.2727,0.1,6.6186e-05,661.4,6.547e-05,641.91,-1.9962e-05,0.0057946,-2.494e-05,-37.393,2.424
28731,21.052,5.3636,0.1,6.4127e-05,640.83,6.3432e-05,621.9,-1.9336e-05,0.0082812,-2.4172e-05,-36.326,2.4393
28732,20.775,5.2727,0.1,7.0166e-05,701.17,6.9485e-05,682.52,-2.1351e-05,0.0058942,-2.6135e-05,-35.936,2.3933
28733,20.867,5.3636,0.1,6.8111e-05,680.64,6.7448e-05,662.46,-2.072e-05,0.0082023,-2.5379e-05,-35.001,2.4085
28734,20.591,5.2727,0.1,7.4168e-05,741.17,7.3519e-05,723.28,-2.2743e-05,0.0059212,-2.7344e-05,-34.568,2.3626
28735,20.683,5.3636,0.1,7.2115e-05,720.65,7.1481e-05,703.19,-2.2106e-05,0.0080718,-2.6599e-05,-33.753,2.3778
28736,20.407,5.2727,0.1,7.8191e-05,781.37,7.7572e-05,764.2,-2.4136e-05,0.0059019,-2.8567e-05,-33.281,2.332
28737,20.499,5.3636,0.1,7.6139e-05,760.87,7.5533e-05,744.06,-2.3494e-05,0.0078992,-2.7831e-05,-32.574,2.3472
28738,20.223,5.2727,0.1,8.2235e-05,821.79,8.1643e-05,805.28,-2.5533e-05,0.005856,-2.9802e-05,-32.07,2.3014
28739,20.315,5.3636,0.1,8.0184e-05,801.28,7.9602e-05,785.09,-2.4886e-05,0.0077162,-2.9074e-05,-31.461,2.3165
28740,20.038,5.2727,0.1,8.6301e-05,862.41,8.5733e-05,846.53,-2.6933e-05,0.0057908,-3.105e-05,-30.93,2.2709
28741,20.13,5.3636,0.1,8.4248e-05,841.9,8.3689e-05,826.28,-2.6281e-05,0.0075228,-3.0329e-05,-30.408,2.286
28742,19.854,5.2727,0.1,9.0386e-05,903.24,8.9842e-05,887.95,-2.8336e-05,0.0057105,-3.231e-05,-29.854,2.2404
28743,19.946,5.3636,0.1,8.8332e-05,882.71,8.7795e-05,867.64,-2.768e-05,0.0073345,-3.1595e-05,-29.412,2.2555
28744,19.67,5.2727,0.1,9.4493e-05,944.28,9.3969e-05,929.53,-2.9743e-05,0.005609,-3.3582e-05,-28.84,2.21
28745,19.762,5.3636,0.1,9.2435e-05,923.72,9.1918e-05,909.16,-2.9082e-05,0.0071375,-3.2872e-05,-28.47,2.225
28746,19.485,5.2727,0.1,9.862e-05,985.52,9.8116e-05,971.28,-3.1153e-05,0.0054996,-3.4865e-05,-27.883,2.1796
28747,19.578,5.3636,0.1,9.6559e-05,964.92,9.606e-05,950.84,-3.0488e-05,0.0069291,-3.4159e-05,-27.577,2.1947
28748,19.301,5.2727,0.1,0.00010277,1027,0.00010228,1013.2,-3.2568e-05,0.0053943,-3.6159e-05,-26.979,2.1493
28749,19.393,5.3636,0.1,0.0001007,1006.3,0.00010022,992.7,-3.1898e-05,0.0067361,-3.5457e-05,-26.731,2.1643
28750,19.117,5.2727,0.1,0.00010694,1068.6,0.00010647,1055.3,-3.3986e-05,0.005295,-3.7464e-05,-26.125,2.1191
28751,19.209,5.3636,0.1,0.00010487,1047.9,0.0001044,1034.7,-3.3313e-05,0.0065525,-3.6765e-05,-25.93,2.1341
28752,18.933,5.2727,0.1,0.00011112,1110.5,0.00011067,1097.6,-3.5409e-05,0.0051954,-3.8779e-05,-25.317,2.089
28753,19.025,5.3636,0.1,0.00010905,1089.7,0.0001086,1076.9,-3.4732e-05,0.0063885,-3.8082e-05,-25.17,2.1039
28754,18.748,5.2727,0.1,0.00011533,1152.5,0.0001149,1140.1,-3.6837e-05,0.0050835,-4.0105e-05,-24.553,2.0589
28755,18.841,5.3636,0.1,0.00011325,1131.7,0.00011282,1119.3,-3.6155e-05,0.0062184,-3.941e-05,-24.449,2.0738
28756,18.564,5.2727,0.1,0.00011956,1194.8,0.00011914,1182.7,-3.8269e-05,0.0049729,-4.1441e-05,-23.83,2.0289
28757,18.656,5.3636,0.1,0.00011748,1173.9,0.00011705,1161.9,-3.7583e-05,0.006041,-4.0747e-05,-23.764,2.0437
28758,18.38,5.2727,0.1,0.00012381,1237.3,0.0001234,1225.5,-3.9706e-05,0.0048741,-4.2787e-05,-23.144,1.999
28759,18.472,5.3636,0.1,0.00012172,1216.3,0.00012131,1204.6,-3.9016e-05,0.0058868,-4.2093e-05,-23.114,2.0138
28760,18.196,5.2727,0.1,0.00012808,1280,0.00012769,1268.6,-4.1148e-05,0.0047874,-4.4143e-05,-22.494,1.9692
28761,18.288,5.3636,0.1,0.00012598,1259,0.00012558,1247.6,-4.0454e-05,0.0057414,-4.3449e-05,-22.496,1.9839
28762,18.011,5.2727,0.1,0.00013238,1322.8,0.00013199,1311.8,-4.2595e-05,0.0047033,-4.5508e-05,-21.877,1.9394
28763,18.103,5.3636,0.1,0.00013027,1301.8,0.00012988,1290.7,-4.1898e-05,0.0056197,-4.4814e-05,-21.908,1.9541
28764,17.827,5.2727,0.1,0.00013669,1365.9,0.00013631,1355.2,-4.4048e-05,0.0046067,-4.6882e-05,-21.29,1.9098
28765,17.919,5.3636,0.1,0.00013457,1344.8,0.00013419,1334,-4.3346e-05,0.0054876,-4.6188e-05,-21.347,1.9244
28766,17.643,5.2727,0.1,0.00014102,1409.2,0.00014066,1398.7,-4.5505e-05,0.0045124,-4.8265e-05,-20.732,1.8802
28767,17.735,5.3636,0.1,0.0001389,1388,0.00013853,1377.5,-4.48e-05,0.0053473,-4.7571e-05,-20.813,1.8948
28768,17.459,5.2727,0.1,0.00014537,1452.7,0.00014502,1442.5,-4.6969e-05,0.0044302,-4.9658e-05,-20.199,1.8507
28769,17.551,5.3636,0.1,0.00014324,1431.4,0.00014288,1421.2,-4.6259e-05,0.0052268,-4.8962e-05,-20.302,1.8653
28770,17.274,5.2727,0.1,0.00014975,1496.4,0.0001494,1486.5,-4.8437e-05,0.0043619,-5.1059e-05,-19.691,1.8214
28771,17.366,5.3636,0.1,0.0001476,1475,0.00014726,1465,-4.7724e-05,0.0051167,-5.0362e-05,-19.814,1.8358
28772,17.09,5.2727,0.1,0.00015414,1540.3,0.0001538,1530.6,-4.9912e-05,0.0042971,-5.2468e-05,-19.205,1.7921
28773,17.182,5.3636,0.1,0.00015199,1518.9,0.00015165,1509.1,-4.9195e-05,0.0050298,-5.1771e-05,-19.347,1.8065
28774,16.906,5.2727,0.1,0.00015855,1584.5,0.00015823,1575,-5.1392e-05,0.0042151,-5.3886e-05,-18.738,1.7629
28775,16.998,5.3636,0.1,0.0001564,1562.9,0.00015607,1553.3,-5.0671e-05,0.0049291,-5.3187e-05,-18.898,1.7773
28776,16.721,5.2727,0.1,0.00016299,1628.8,0.00016267,1619.6,-5.2878e-05,0.0041339,-5.5313e-05,-18.29,1.7339
28777,16.814,5.3636,0.1,0.00016082,1607.1,0.0001605,1597.8,-5.2154e-05,0.0048115,-5.4612e-05,-18.467,1.7482
28778,16.537,5.2727,0.1,0.00016745,1673.3,0.00016713,1664.3,-5.437e-05,0.0040662,-5.6747e-05,-17.859,1.7049
28779,16.629,5.3636,0.1,0.00016527,1651.5,0.00016495,1642.4,-5.3642e-05,0.0047172,-5.6045e-05,-18.051,1.7191
28780,16.353,5.2727,0.1,0.00017192,1718,0.00017162,1709.2,-5.5867e-05,0.0040125,-5.8189e-05,-17.442,1.6761
28781,16.445,5.3636,0.1,0.00016974,1696.2,0.00016943,1687.3,-5.5136e-05,0.0046304,-5.7485e-05,-17.65,1.6902
28782,16.169,5.2727,0.1,0.00017642,1763,0.00017612,1754.4,-5.7371e-05,0.0039598,-5.9639e-05,-17.038,1.6473
28783,16.261,5.3636,0.1,0.00017422,1741,0.00017392,1732.3,-5.6636e-05,0.0045664,-5.8934e-05,-17.261,1.6615
28784,15.984,5.2727,0.1,0.00018093,1808.1,0.00018064,1799.7,-5.8881e-05,0.0038856,-6.1097e-05,-16.645,1.6187
28785,16.077,5.3636,0.1,0.00017873,1786.1,0.00017844,1777.6,-5.8142e-05,0.0044833,-6.039e-05,-16.883,1.6328
28786,15.8,5.2727,0.1,0.00018547,1853.4,0.00018519,1845.2,-6.0398e-05,0.0038111,-6.2563e-05,-16.262,1.5903
28787,15.892,5.3636,0.1,0.00018326,1831.3,0.00018297,1823,-5.9655e-05,0.0043803,-6.1853e-05,-16.515,1.6042
28788,15.616,5.2727,0.1,0.00019003,1899,0.00018975,1891,-6.192e-05,0.00375,-6.4035e-05,-15.888,1.5619
28789,15.708,5.3636,0.1,0.00018781,1876.8,0.00018753,1868.6,-6.1173e-05,0.004298,-6.3324e-05,-16.155,1.5758
28790,15.432,5.2727,0.1,0.00019461,1944.7,0.00019434,1936.9,-6.3449e-05,0.0037035,-6.5515e-05,-15.52,1.5337
28791,15.524,5.3636,0.1,0.00019237,1922.4,0.0001921,1914.5,-6.2699e-05,0.0042223,-6.4802e-05,-15.802,1.5475
28792,15.247,5.2727,0.1,0.0001992,1990.7,0.00019894,1983,-6.4984e-05,0.0036562,-6.7002e-05,-15.157,1.5056
28793,15.339,5.3636,0.1,0.00019696,1968.3,0.00019669,1960.5,-6.423e-05,0.0041711,-6.6287e-05,-15.455,1.5193
28794,15.063,5.2727,0.1,0.00020382,2036.8,0.00020357,2029.4,-6.6526e-05,0.0035831,-6.8496e-05,-14.798,1.4776
28795,15.155,5.3636,0.1,0.00020157,2014.3,0.00020131,2006.7,-6.5768e-05,0.0040944,-6.778e-05,-15.112,1.4913
28796,14.879,5.2727,0.1,0.00020846,2083.1,0.00020821,2075.9,-6.8075e-05,0.0035076,-6.9997e-05,-14.44,1.4498
28797,14.971,5.3636,0.1,0.0002062,2060.6,0.00020594,2053.1,-6.7312e-05,0.0039926,-6.9279e-05,-14.771,1.4634
28798,14.695,5.2727,0.1,0.00021312,2129.7,0.00021287,2122.6,-6.9629e-05,0.0034451,-7.1504e-05,-14.083,1.4221
28799,14.787,5.3636,0.1,0.00021085,2107,0.0002106,2099.8,-6.8863e-05,0.0039128,-7.0785e-05,-14.432,1.4356
28800,14.51,5.2727,0.1,0.00021779,2176.4,0.00021756,2169.5,-7.1191e-05,0.0033974,-7.3018e-05,-13.724,1.3945
28801,14.602,5.3636,0.1,0.00021552,2153.7,0.00021527,2146.6,-7.0421e-05,0.0038373,-7.2297e-05,-14.093,1.408
28802,14.326,5.2727,0.1,0.00022249,2223.4,0.00022226,2216.7,-7.2759e-05,0.0033469,-7.4538e-05,-13.363,1.3671
28803,14.418,5.3636,0.1,0.00022021,2200.5,0.00021997,2193.6,-7.1985e-05,0.0037858,-7.3816e-05,-13.753,1.3805
28804,14.142,5.2727,0.1,0.00022721,2270.5,0.00022699,2264,-7.4334e-05,0.0032662,-7.6065e-05,-12.997,1.3399
28805,14.234,5.3636,0.1,0.00022491,2247.6,0.00022468,2240.9,-7.3556e-05,0.0037047,-7.5341e-05,-13.409,1.3532
28806,13.957,5.2727,0.1,0.00023195,2317.9,0.00023173,2311.5,-7.5916e-05,0.0031819,-7.7597e-05,-12.625,1.3128
28807,14.05,5.3636,0.1,0.00022964,2294.8,0.00022942,2288.3,-7.5134e-05,0.0035925,-7.6873e-05,-13.061,1.326
28808,13.773,5.2727,0.1,0.00023671,2365.4,0.00023649,2359.3,-7.7505e-05,0.0031104,-7.9135e-05,-12.245,1.2859
28809,13.865,5.3636,0.1,0.00023439,2342.3,0.00023417,2335.9,-7.6719e-05,0.0035029,-7.841e-05,-12.707,1.299
28810,13.589,5.2727,0.1,0.00024148,2413.2,0.00024128,2407.2,-7.9101e-05,0.0030538,-8.0679e-05,-11.855,1.2591
28811,13.681,5.3636,0.1,0.00023916,2390,0.00023895,2383.8,-7.831e-05,0.0034163,-7.9954e-05,-12.346,1.2721
28812,13.405,5.2727,0.1,0.00024628,2461.1,0.00024608,2455.3,-8.0704e-05,0.0029932,-8.2229e-05,-11.454,1.2325
28813,13.497,5.3636,0.1,0.00024395,2437.8,0.00024374,2431.8,-7.9909e-05,0.0033541,-8.1503e-05,-11.975,1.2454
28814,13.22,5.2727,0.1,0.0002511,2509.2,0.00025091,2503.7,-8.2314e-05,0.0028978,-8.3783e-05,-11.038,1.206
28815,13.313,5.3636,0.1,0.00024876,2485.9,0.00024856,2480,-8.1515e-05,0.0032568,-8.3058e-05,-11.593,1.2189
28816,13.036,5.2727,0.1,0.00025593,2557.5,0.00025575,2552.2,-8.3931e-05,0.0027978,-8.5343e-05,-10.607,1.1797
28817,13.128,5.3636,0.1,0.00025359,2534.1,0.00025339,2528.5,-8.3128e-05,0.0031232,-8.4618e-05,-11.198,1.1925
28818,12.852,5.2727,0.1,0.00026079,2606.1,0.00026061,2601,-8.5556e-05,0.0027124,-8.6908e-05,-10.158,1.1536
28819,12.944,5.3636,0.1,0.00025843,2582.5,0.00025825,2577.1,-8.4748e-05,0.0030122,-8.6184e-05,-10.788,1.1663
28820,12.668,5.2727,0.1,0.00026566,2654.8,0.00026549,2649.9,-8.7188e-05,0.002643,-8.8477e-05,-9.6885,1.1277
28821,12.76,5.3636,0.1,0.0002633,2631.2,0.00026312,2626,-8.6375e-05,0.0029027,-8.7754e-05,-10.362,1.1403
28822,12.483,5.2727,0.1,0.00027055,2703.7,0.0002704,2699.1,-8.8827e-05,0.0025701,-9.0051e-05,-9.1963,1.102
28823,12.575,5.3636,0.1,0.00026819,2680,0.00026802,2675,-8.801e-05,0.0028183,-8.933e-05,-9.9167,1.1144
28824,12.299,5.2727,0.1,0.00027547,2752.8,0.00027532,2748.4,-9.0474e-05,0.0024622,-9.1629e-05,-8.6789,1.0764
28825,12.391,5.3636,0.1,0.00027309,2729,0.00027293,2724.3,-8.9652e-05,0.0026944,-9.091e-05,-9.4504,1.0888
28826,12.115,5.2727,0.1,0.0002804,2802.1,0.00028026,2798,-9.2129e-05,0.0023524,-9.3211e-05,-8.1334,1.051
28827,12.207,5.3636,0.1,0.00027802,2778.3,0.00027786,2773.8,-9.1302e-05,0.0025293,-9.2495e-05,-8.9606,1.0633
28828,11.931,5.2727,0.1,0.00028535,2851.5,0.00028522,2847.8,-9.3791e-05,0.0022648,-9.4797e-05,-7.5569,1.0258
28829,12.023,5.3636,0.1,0.00028296,2827.7,0.00028282,2823.5,-9.2959e-05,0.0023886,-9.4083e-05,-8.4448,1.038
28830,11.746,5.2727,0.1,0.00029032,2901.2,0.0002902,2897.7,-9.5462e-05,0.0022057,-9.6386e-05,-6.9464,1.0008
28831,11.838,5.3636,0.1,0.00028793,2877.3,0.00028779,2873.3,-9.4624e-05,0.0022501,-9.5676e-05,-7.9003,1.0129
28832,11.562,5.2727,0.1,0.00029531,2951.1,0.0002952,2947.9,-9.714e-05,0.0021606,-9.7979e-05,-6.2986,0.97603
28833,11.654,5.3636,0.1,0.00029291,2927.1,0.00029279,2923.4,-9.6297e-05,0.0021418,-9.7272e-05,-7.3242,0.988
28834,11.378,5.2727,0.1,0.00030032,3001.1,0.00030022,2998.3,-9.8827e-05,0.0021054,-9.9574e-05,-5.6101,0.95143
28835,11.47,5.3636,0.1,0.00029791,2977.1,0.0002978,2973.7,-9.7979e-05,0.001995,-9.8872e-05,-6.7137,0.96329
28836,11.193,5.2727,0.1,0.00030534,3051.3,0.00030526,3048.9,-0.00010052,0.0020993,-0.00010117,-4.8771,0.92703
28837,11.286,5.3636,0.1,0.00030294,3027.3,0.00030283,3024.2,-9.9668e-05,0.0018123,-0.00010048,-6.0655,0.93878
28838,11.009,5.2727,0.1,0.00031039,3101.7,0.00031032,3099.7,-0.00010223,0.0022112,-0.00010277,-4.0958,0.90284
28839,11.101,5.3636,0.1,0.00030798,3077.6,0.00030788,3074.9,-0.00010137,0.0016751,-0.00010208,-5.3761,0.91448
28840,10.825,5.2727,0.1,0.00031545,3152.3,0.0003154,3150.7,-0.00010394,0.002544,-0.00010437,-3.262,0.87885
28841,10.917,5.3636,0.1,0.00031303,3128.2,0.00031296,3125.9,-0.00010307,0.0015724,-0.00010369,-4.6421,0.89039
28842,10.641,5.2727,0.1,0.00032053,3203.1,0.00032049,3201.9,-0.00010566,0.0033486,-0.00010597,-2.3716,0.85509
28843,10.733,5.3636,0.1,0.00031811,3178.9,0.00031805,3177,-0.00010479,0.0015667,-0.0001053,-3.8595,0.86651
28844,10.456,5.2727,0.1,0.00032563,3254.1,0.00032561,3253.4,-0.00010739,0.0056631,-0.00010758,-1.421,0.83154
28845,10.549,5.3636,0.1,0.00032321,3229.9,0.00032316,3228.4,-0.00010651,0.0016546,-0.00010691,-3.0246,0.84284
28846,10.272,5.2727,0.1,0.00033075,3305.2,0.00033074,3305,-0.00010912,0.021318,-0.00010918,-0.41707,0.80821
28847,10.364,5.3636,0.1,0.00032833,3281,0.00032829,3279.9,-0.00010824,0.0020599,-0.00010853,-2.1332,0.81939
28848,10.088,5.2727,0.1,0.00033588,3356.5,0.00033589,3356.9,-0.00011078,0.71081,-0.00011088,-0.014936,0.7851
28849,10.18,5.3636,0.1,0.00033346,3332.3,0.00033344,3331.7,-0.00010998,0.0038604,-0.00011014,-1.1817,0.79617
28850,9.9036,5.2727,0.1,0.00034104,3408,0.00034107,3408.9,-0.00011238,1.8721,-0.00011264,-0.0071603,0.76222
28851,9.9957,5.3636,0.1,0.00033861,3383.8,0.00033861,3383.7,-0.00011173,0.029362,-0.00011176,-0.1879,0.77317
28852,9.7193,5.2727,0.1,0.00034621,3459.7,0.00034626,3461.2,-0.00011399,3.1227,-0.0001144,-0.0056005,0.73958
28853,9.8115,5.3636,0.1,0.00034378,3435.4,0.0003438,3435.9,-0.00011337,0.93973,-0.0001135,-0.0079557,0.7504
28854,9.5351,5.2727,0.1,0.00035139,3511.5,0.00035147,3513.7,-0.00011559,4.4637,-0.00011618,-0.0051877,0.71716
28855,9.6272,5.3636,0.1,0.00034897,3487.3,0.00034901,3488.3,-0.00011498,2.1033,-0.00011526,-0.0050667,0.72786
28856,9.3508,5.2727,0.1,0.0003566,3563.5,0.0003567,3566.4,-0.00011718,5.9002,-0.00011797,-0.0052144,0.69499
28857,9.4429,5.3636,0.1,0.00035418,3539.3,0.00035423,3541,-0.0001166,3.3505,-0.00011704,-0.0045846,0.70556
28858,9.1665,5.2727,0.1,0.00036182,3615.7,0.00036194,3619.4,-0.00011878,7.4386,-0.00011977,-0.0054734,0.67306
28859,9.2587,5.3636,0.1,0.0003594,3591.5,0.00035948,3593.9,-0.00011821,4.6852,-0.00011884,-0.0046751,0.6835
28860,8.9823,5.2727,0.1,0.00036706,3668,0.00036721,3672.6,-0.00012037,9.0849,-0.00012158,-0.0058881,0.65137
28861,9.0744,5.3636,0.1,0.00036464,3643.9,0.00036475,3647,-0.00011982,6.1123,-0.00012064,-0.0050205,0.66169
28862,8.798,5.2727,0.1,0.00037231,3720.5,0.00037249,3725.9,-0.00012196,10.845,-0.0001234,-0.0064251,0.62993
28863,8.8901,5.3636,0.1,0.00036991,3696.5,0.00037003,3700.3,-0.00012143,7.6372,-0.00012245,-0.0055235,0.64012
28864,8.6137,5.2727,0.1,0.00037758,3773.2,0.0003778,3779.5,-0.00012354,12.726,-0.00012523,-0.0070701,0.60874
28865,8.7059,5.3636,0.1,0.00037518,3749.2,0.00037534,3753.9,-0.00012304,9.2652,-0.00012427,-0.0061474,0.6188
28866,8.4295,5.2727,0.1,0.00038287,3826,0.00038312,3833.4,-0.00012511,14.733,-0.00012708,-0.0078187,0.58782
28867,8.5216,5.3636,0.1,0.00038048,3802.2,0.00038066,3807.6,-0.00012464,11.001,-0.0001261,-0.0068777,0.59774
28868,8.2452,5.2727,0.1,0.00038817,3879,0.00038846,3887.4,-0.00012669,16.872,-0.00012893,-0.008673,0.56715
28869,8.3373,5.3636,0.1,0.00038579,3855.2,0.00038601,3861.7,-0.00012624,12.85,-0.00012795,-0.0077129,0.57693
28870,8.0609,5.2727,0.1,0.00039349,3932.2,0.00039381,3941.7,-0.00012825,19.146,-0.0001308,-0.009639,0.54674
28871,8.1531,5.3636,0.1,0.00039112,3908.5,0.00039137,3915.9,-0.00012783,14.815,-0.0001298,-0.0086551,0.55639
28872,7.8767,5.2727,0.1,0.00039882,3985.5,0.00039919,3996.2,-0.00012981,21.559,-0.00013268,-0.010726,0.5266
28873,7.9688,5.3636,0.1,0.00039647,3961.9,0.00039675,3970.3,-0.00012942,16.9,-0.00013167,-0.0097122,0.53611
28874,7.6924,5.2727,0.1,0.00040417,4038.9,0.00040458,4050.9,-0.00013136,24.113,-0.00013457,-0.011946,0.50673
28875,7.7845,5.3636,0.1,0.00040183,4015.5,0.00040215,4025,-0.00013101,19.106,-0.00013355,-0.010894,0.5161
28876,7.5081,5.2727,0.1,0.00040954,4092.5,0.00040999,4105.9,-0.0001329,26.807,-0.00013647,-0.013316,0.48714
28877,7.6003,5.3636,0.1,0.00040721,4069.3,0.00040757,4079.9,-0.00013259,21.433,-0.00013544,-0.012216,0.49636
28878,7.3239,5.2727,0.1,0.00041491,4146.3,0.00041541,4161,-0.00013444,29.639,-0.00013839,-0.014856,0.46782
28879,7.416,5.3636,0.1,0.0004126,4123.2,0.000413,4135.1,-0.00013416,23.879,-0.00013734,-0.013694,0.4769
28880,7.1396,5.2727,0.1,0.00042031,4200.2,0.00042085,4216.4,-0.00013597,32.602,-0.00014031,-0.016591,0.44879
28881,7.2317,5.3636,0.1,0.00041801,4177.2,0.00041846,4190.4,-0.00013573,26.438,-0.00013925,-0.015351,0.45772
28882,6.9553,5.2727,0.1,0.00042571,4254.2,0.0004263,4271.9,-0.0001375,35.684,-0.00014225,-0.018553,0.43004
28883,7.0475,5.3636,0.1,0.00042343,4231.4,0.00042392,4245.9,-0.0001373,29.101,-0.00014117,-0.017212,0.43883
28884,6.7711,5.2727,0.1,0.00043112,4308.3,0.00043177,4327.6,-0.00013902,38.869,-0.00014419,-0.020778,0.41158
28885,6.8632,5.3636,0.1,0.00042887,4285.7,0.0004294,4301.6,-0.00013886,31.855,-0.0001431,-0.019311,0.42022
28886,6.5868,5.2727,0.1,0.00043655,4362.5,0.00043725,4383.4,-0.00014053,42.134,-0.00014614,-0.023315,0.39342
28887,6.6789,5.3636,0.1,0.00043432,4340.2,0.0004349,4357.4,-0.00014042,34.679,-0.00014504,-0.021686,0.4019
28888,6.4025,5.2727,0.1,0.00044198,4416.7,0.00044273,4439.3,-0.00014205,45.445,-0.0001481,-0.026223,0.37555
28889,6.4947,5.3636,0.1,0.00043977,4394.7,0.0004404,4413.3,-0.00014198,37.547,-0.00014698,-0.024388,0.38388
28890,6.2183,5.2727,0.1,0.00044741,4471,0.00044822,4495.2,-0.00014356,48.76,-0.00015006,-0.029578,0.35798
28891,6.3104,5.3636,0.1,0.00044523,4449.2,0.0004459,4469.3,-0.00014354,40.422,-0.00014893,-0.027478,0.36616
28892,6.034,5.2727,0.1,0.00045285,4525.3,0.00045371,4551.1,-0.00014508,52.023,-0.00015201,-0.03348,0.34071
28893,6.1261,5.3636,0.1,0.00045068,4503.7,0.0004514,4525.2,-0.0001451,43.257,-0.00015087,-0.031037,0.34873
28894,5.8497,5.2727,0.1,0.00045827,4579.5,0.00045918,4606.9,-0.00014661,55.164,-0.00015396,-0.038057,0.32376
28895,5.9419,5.3636,0.1,0.00045614,4558.2,0.0004569,4581,-0.00014667,45.993,-0.0001528,-0.035167,0.33162
28896,5.6655,5.2727,0.1,0.00046368,4633.6,0.00046464,4662.3,-0.00014815,58.093,-0.00015589,-0.043485,0.30711
28897,5.7576,5.3636,0.1,0.00046157,4612.5,0.00046238,4636.6,-0.00014825,48.553,-0.00015472,-0.040005,0.31482
28898,5.4812,5.2727,0.1,0.00046906,4687.4,0.00047006,4717.4,-0.00014971,60.699,-0.00015779,-0.050003,0.29078
28899,5.5733,5.3636,0.1,0.00046698,4666.5,0.00046782,4691.7,-0.00014984,50.844,-0.00015662,-0.045737,0.29833
28900,5.2969,5.2727,0.1,0.00047439,4740.7,0.00047543,4771.8,-0.00015129,62.847,-0.00015966,-0.057953,0.27477
28901,5.3891,5.3636,0.1,0.00047234,4720.1,0.00047321,4746.2,-0.00015145,52.75,-0.00015848,-0.052623,0.28216
28902,5.1127,5.2727,0.1,0.00047966,4793.3,0.00048073,4825.2,-0.0001529,64.374,-0.00016147,-0.067838,0.25909
28903,5.2048,5.3636,0.1,0.00047763,4773,0.00047853,4799.8,-0.00015308,54.131,-0.0001603,-0.061042,0.2663
28904,4.9284,5.2727,0.1,0.00048484,4845,0.00048591,4877.2,-0.00015454,65.081,-0.00016322,-0.080422,0.24373
28905,5.0205,5.3636,0.1,0.00048283,4825,0.00048374,4852.1,-0.00015474,54.817,-0.00016205,-0.071562,0.25078
28906,4.7441,5.2727,0.1,0.00048988,4895.4,0.00049095,4927.4,-0.00015624,64.739,-0.00016486,-0.096935,0.2287
28907,4.8363,5.3636,0.1,0.0004879,4875.6,0.00048881,4902.7,-0.00015643,54.609,-0.00016371,-0.08509,0.23558
28908,4.5599,5.2727,0.1,0.00049473,4943.9,0.00049577,4975.1,-0.00015798,63.076,-0.00016639,-0.11946,0.214
28909,4.652,5.3636,0.1,0.00049278,4924.4,0.00049367,4950.8,-0.00015816,53.273,-0.00016526,-0.10315,0.22072
28910,4.3756,5.2727,0.1,0.00049933,4989.9,0.00050032,5019.4,-0.00015977,59.784,-0.00016775,-0.15177,0.19964
28911,4.4677,5.3636,0.1,0.00049742,4970.7,0.00049826,4995.8,-0.00015991,50.539,-0.00016666,-0.12851,0.20619
28912,4.1913,5.2727,0.1,0.00050359,5032.4,0.00050449,5059.4,-0.00016161,54.516,-0.00016889,-0.20143,0.18562
28913,4.2835,5.3636,0.1,0.00050171,5013.7,0.00050248,5036.5,-0.0001617,46.102,-0.00016786,-0.1667,0.192
28914,4.0071,5.2727,0.1,0.00050738,5070.3,0.00050816,5093.5,-0.0001635,46.897,-0.00016978,-0.28561,0.17194
28915,4.0992,5.3636,0.1,0.00050556,5052.1,0.00050622,5071.7,-0.00016351,39.631,-0.00016881,-0.23032,0.17814
28916,3.8228,5.2727,0.1,0.00051056,5102.1,0.00051117,5120,-0.00016541,36.55,-0.00017033,-0.45205,0.15861
28917,3.9149,5.3636,0.1,0.0005088,5084.5,0.00050932,5099.7,-0.00016531,30.785,-0.00016946,-0.35482,0.16464
28918,3.6385,5.2727,0.1,0.00051293,5125.7,0.0005133,5136.8,-0.00016728,23.221,-0.00017049,-0.89127,0.14562
28919,3.7307,5.3636,0.1,0.00051126,5109.1,0.00051158,5118.4,-0.00016707,19.313,-0.00016973,-0.68543,0.15148
28920,3.4543,5.2727,0.1,0.00051422,5138.7,0.0005143,5141.1,-0.00016885,8.1158,-0.00017037,-3.2573,0.13299
28921,3.5464,5.3636,0.1,0.00051269,5123.3,0.00051275,5125.1,-0.00016854,6.2229,-0.00016971,-2.6273,0.13867
28922,3.27,5.2727,0.1,0.00051412,5137.7,0.00051383,5129.3,-0.00016858,1.8581,-0.0001713,-18.599,0.1207
28923,3.3621,5.3636,0.1,0.00051277,5124.2,0.00051251,5116.6,-0.0001683,1.2704,-0.00017064,-16.309,0.1262
28924,3.0857,5.2727,0.1,0.00051222,5118.6,0.00051147,5097.1,-0.00016676,1.056,-0.00017275,-43.89,0.10876
28925,3.1779,5.3636,0.1,0.00051112,5107.7,0.00051047,5088.7,-0.00016671,0.70776,-0.0001719,-38.295,0.11408
28926,2.9015,5.2727,0.1,0.000508,5076.5,0.0005067,5039.2,-0.00016386,0.8558,-0.0001739,-74.55,0.097173
28927,2.9936,5.3636,0.1,0.00050725,5069,0.00050612,5036.5,-0.00016412,0.56647,-0.00017283,-64.815,0.10231
28928,2.7172,5.2727,0.1,0.00050085,5005,0.00049889,4949.3,-0.00015972,0.81587,-0.0001745,-110.27,0.085927
28929,2.8093,5.3636,0.1,0.00050056,5002.2,0.00049888,4953.9,-0.00016038,0.53848,-0.00017318,-95.584,0.090887
28930,2.5329,5.2727,0.1,0.00049003,4896.9,0.0004873,4820.1,-0.0001541,0.85733,-0.00017431,-150.97,0.075019
28931,2.6251,5.3636,0.1,0.00049035,4900.1,0.00048801,4833.9,-0.00015527,0.57042,-0.00017269,-130.34,0.079799
28932,2.3487,5.2727,0.1,0.00047473,4744,0.00047109,4643.1,-0.00014674,0.96292,-0.00017303,-196.55,0.064441
28933,2.4408,5.3636,0.1,0.00047578,4754.5,0.0004727,4668.3,-0.00014853,0.65097,-0.00017105,-168.59,0.069041
28934,2.1644,5.2727,0.1,0.00045412,4538,0.00044942,4409.9,-0.00013735,1.1284,-0.0001704,-247.13,0.054181
28935,2.2565,5.3636,0.1,0.00045597,4556.6,0.00045206,4448.5,-0.0001399,0.78722,-0.00016791,-209.66,0.058602
28936,1.9801,5.2727,0.1,0.00042759,4273,0.00042163,4113.6,-0.00012567,1.3773,-0.00016629,-303.82,0.044221
28937,2.0723,5.3636,0.1,0.00043011,4298.1,0.00042525,4166.4,-0.00012913,0.98381,-0.00016294,-253.07,0.048466
28938,1.7959,5.2727,0.1,0.00039524,3949.6,0.00038764,3752,-0.0001115,1.6546,-0.00016104,-370.61,0.034539
28939,1.888,5.3636,0.1,0.0003977,3974.2,0.00039177,3816.6,-0.00011601,1.314,-0.00015605,-299.49,0.038613
28940,1.6116,5.2727,0.1,0.00035876,3585.1,0.00034878,3334.9,-9.4771e-05,2.2688,-0.00015605,-458.17,0.025109
28941,1.7037,5.3636,0.1,0.00035926,3590.2,0.00035196,3401.1,-0.00010047,1.6575,-0.00014774,-353.47,0.029018
28942,1.4273,5.2727,0.1,0.00032348,3232.6,0.00030926,2895.1,-7.5821e-05,1.7673,-0.00015508,-593.76,0.015912
28943,1.5195,5.3636,0.1,0.00031755,3173.3,0.00030809,2938.2,-8.259e-05,2.7953,-0.00014002,-428.74,0.019657
28944,1.2431,5.2727,0.1,0.00030639,3061.8,0.00028232,2537.6,-5.4649e-05,5.7501,-0.00017058,-865.31,0.0070462
28945,1.3352,5.3636,0.1,0.0002804,2802.1,0.0002665,2477.3,-6.3036e-05,1.2837,-0.00013834,-564.53,0.010548
28946,1.1509,5.3636,0.1,0.00027363,2734.4,0.00024715,2178.3,-4.1374e-05,10.493,-0.00016171,-893.65,0.0027543
28947,1.0588,5.2727,0.1,0.00025031,2501.4,0.00022435,1957.2,-3.6506e-05,-2.8049,-0.00015061,-860.17,0.0035215
28948,23.724,5.4545,0.1,1.1306e-05,112.98,8.098e-06,56.677,5.4847e-07,-0.047391,-9.2181e-06,-73.429,2.8885
28949,23.816,5.5455,0.1,9.2992e-06,92.928,6.0723e-06,38.457,9.7443e-07,0.15292,-8.0298e-06,-67.501,2.904
28950,23.908,5.4545,0.1,9.4158e-06,94.093,4.8985e-06,22.024,1.9199e-06,-0.35624,-8.8453e-06,-81.241,2.9197
28951,23.539,5.4545,0.1,1.3832e-05,138.22,1.1468e-05,92.759,-8.9081e-07,-0.10113,-9.6733e-06,-66.089,2.8574
28952,23.631,5.5455,0.1,1.1601e-05,115.93,9.3511e-06,73.608,-4.5861e-07,-0.09855,-8.4335e-06,-60.019,2.8729
28953,23.355,5.4545,0.1,1.6858e-05,168.46,1.4987e-05,129.74,-2.2846e-06,-0.02745,-1.0352e-05,-60.641,2.8263
28954,23.447,5.5455,0.1,1.4583e-05,145.73,1.2847e-05,110.24,-1.8217e-06,0.028689,-9.1441e-06,-54.989,2.8418
28955,23.171,5.4545,0.1,2.0183e-05,201.69,1.862e-05,167.42,-3.6652e-06,-0.016472,-1.1181e-05,-56.484,2.7952
28956,23.263,5.5455,0.1,1.7925e-05,179.12,1.6487e-05,147.79,-3.1796e-06,0.0249,-1.0028e-05,-51.43,2.8107
28957,22.987,5.4545,0.1,2.3692e-05,236.75,2.2335e-05,205.65,-5.0361e-06,-0.0028845,-1.2111e-05,-53.158,2.7642
28958,23.079,5.5455,0.1,2.1464e-05,214.49,2.0217e-05,185.97,-4.5298e-06,0.038047,-1.1015e-05,-48.686,2.7796
28959,22.802,5.4545,0.1,2.7319e-05,273,2.611e-05,244.3,-6.403e-06,0.0032427,-1.311e-05,-50.391,2.7331
28960,22.894,5.5455,0.1,2.5123e-05,251.06,2.4009e-05,224.61,-5.8794e-06,0.03967,-1.2066e-05,-46.447,2.7486
28961,22.618,5.4545,0.1,3.1027e-05,310.06,2.993e-05,283.26,-7.7679e-06,0.0073593,-1.4158e-05,-48.007,2.7021
28962,22.71,5.5455,0.1,2.8861e-05,288.41,2.7844e-05,263.57,-7.2293e-06,0.040589,-1.3161e-05,-44.529,2.7175
28963,22.434,5.4545,0.1,3.4794e-05,347.7,3.3785e-05,322.48,-9.1323e-06,0.0096873,-1.5242e-05,-45.9,2.671
28964,22.526,5.5455,0.1,3.2653e-05,326.31,3.1713e-05,302.79,-8.5807e-06,0.039822,-1.4286e-05,-42.83,2.6865
28965,22.249,5.4545,0.1,3.8605e-05,385.79,3.7668e-05,361.91,-1.0497e-05,0.011053,-1.6355e-05,-43.999,2.64
28966,22.342,5.5455,0.1,3.6486e-05,364.61,3.5608e-05,342.22,-9.9339e-06,0.038514,-1.5434e-05,-41.289,2.6554
28967,22.065,5.4545,0.1,4.2452e-05,424.23,4.1575e-05,401.52,-1.1863e-05,0.011771,-1.7489e-05,-42.261,2.609
28968,22.157,5.5455,0.1,4.0352e-05,403.24,3.9526e-05,381.84,-1.1289e-05,0.036858,-1.66e-05,-39.867,2.6244
28969,21.881,5.4545,0.1,4.6329e-05,462.97,4.5504e-05,441.31,-1.323e-05,0.012083,-1.8642e-05,-40.653,2.5781
28970,21.973,5.5455,0.1,4.4244e-05,442.13,4.3463e-05,421.62,-1.2647e-05,0.035076,-1.7781e-05,-38.539,2.5935
28971,21.697,5.4545,0.1,5.0232e-05,501.97,4.9451e-05,481.26,-1.4598e-05,0.012128,-1.9811e-05,-39.155,2.5472
28972,21.789,5.5455,0.1,4.816e-05,481.26,4.7417e-05,461.55,-1.4007e-05,0.033269,-1.8974e-05,-37.29,2.5625
28973,21.512,5.4545,0.1,5.4158e-05,541.21,5.3417e-05,521.35,-1.5969e-05,0.011995,-2.0994e-05,-37.75,2.5163
28974,21.605,5.5455,0.1,5.2096e-05,520.6,5.1388e-05,501.63,-1.537e-05,0.031488,-2.0179e-05,-36.107,2.5316
28975,21.328,5.4545,0.1,5.8106e-05,580.66,5.7401e-05,561.59,-1.7341e-05,0.011749,-2.2191e-05,-36.428,2.4854
28976,21.42,5.5455,0.1,5.6053e-05,560.14,5.5376e-05,541.84,-1.6735e-05,0.029767,-2.1395e-05,-34.984,2.5007
28977,21.144,5.4545,0.1,6.2074e-05,620.31,6.1401e-05,601.98,-1.8716e-05,0.011441,-2.34e-05,-35.18,2.4546
28978,21.236,5.5455,0.1,6.0028e-05,599.86,5.9379e-05,582.2,-1.8103e-05,0.028133,-2.262e-05,-33.913,2.4699
28979,20.96,5.4545,0.1,6.6062e-05,660.16,6.5418e-05,642.51,-2.0094e-05,0.011097,-2.462e-05,-33.999,2.4238
28980,21.052,5.5455,0.1,6.4021e-05,639.76,6.3398e-05,622.7,-1.9474e-05,0.026597,-2.3856e-05,-32.892,2.4391
28981,20.775,5.4545,0.1,7.0069e-05,700.21,6.9452e-05,683.19,-2.1474e-05,0.010731,-2.5852e-05,-32.88,2.3931
28982,20.867,5.5455,0.1,6.8031e-05,679.84,6.7432e-05,663.33,-2.0849e-05,0.02516,-2.51e-05,-31.917,2.4083
28983,20.591,5.4545,0.1,7.4095e-05,740.44,7.3503e-05,724.02,-2.2858e-05,0.010352,-2.7094e-05,-31.819,2.3624
28984,20.683,5.5455,0.1,7.206e-05,720.1,7.1483e-05,704.12,-2.2226e-05,0.023813,-2.6353e-05,-30.985,2.3776
28985,20.407,5.4545,0.1,7.814e-05,780.86,7.7571e-05,765.01,-2.4244e-05,0.0099747,-2.8346e-05,-30.811,2.3317
28986,20.499,5.5455,0.1,7.6106e-05,760.53,7.5549e-05,745.05,-2.3608e-05,0.022549,-2.7616e-05,-30.093,2.3469
28987,20.223,5.4545,0.1,8.2204e-05,821.47,8.1656e-05,806.14,-2.5634e-05,0.009609,-2.9609e-05,-29.853,2.3011
28988,20.315,5.5455,0.1,8.0169e-05,801.14,7.9632e-05,786.13,-2.4992e-05,0.021381,-2.8887e-05,-29.241,2.3163
28989,20.038,5.4545,0.1,8.6287e-05,862.27,8.5758e-05,847.44,-2.7028e-05,0.0092621,-3.0881e-05,-28.943,2.2706
28990,20.13,5.5455,0.1,8.4251e-05,841.93,8.3732e-05,827.37,-2.6381e-05,0.020297,-3.0167e-05,-28.426,2.2857
28991,19.854,5.4545,0.1,9.0388e-05,903.26,8.9878e-05,888.9,-2.8426e-05,0.008931,-3.2164e-05,-28.078,2.2401
28992,19.946,5.5455,0.1,8.8351e-05,882.9,8.7848e-05,868.76,-2.7774e-05,0.019302,-3.1456e-05,-27.646,2.2552
28993,19.67,5.4545,0.1,9.4509e-05,944.43,9.4016e-05,930.52,-2.9827e-05,0.0086045,-3.3456e-05,-27.255,2.2097
28994,19.762,5.5455,0.1,9.2468e-05,924.04,9.1982e-05,910.31,-2.9171e-05,0.018372,-3.2753e-05,-26.901,2.2247
28995,19.485,5.4545,0.1,9.8648e-05,985.8,9.8171e-05,972.3,-3.1233e-05,0.0082929,-3.4758e-05,-26.473,2.1793
28996,19.578,5.5455,0.1,9.6604e-05,965.38,9.6132e-05,952.03,-3.0572e-05,0.017496,-3.406e-05,-26.188,2.1943
28997,19.301,5.4545,0.1,0.00010281,1027.4,0.00010235,1014.3,-3.2643e-05,0.0080044,-3.6069e-05,-25.728,2.149
28998,19.393,5.5455,0.1,0.00010076,1006.9,0.0001003,993.91,-3.1978e-05,0.016694,-3.5375e-05,-25.506,2.164
28999,19.117,5.4545,0.1,0.00010699,1069.1,0.00010654,1056.4,-3.4058e-05,0.0077414,-3.7389e-05,-25.019,2.1188
29000,19.209,5.5455,0.1,0.00010493,1048.6,0.00010449,1036,-3.3388e-05,0.015953,-3.6698e-05,-24.854,2.1337
29001,18.933,5.4545,0.1,0.00011118,1111.1,0.00011075,1098.7,-3.5477e-05,0.0074938,-3.8718e-05,-24.345,2.0887
29002,19.025,5.5455,0.1,0.00010912,1090.5,0.00010869,1078.2,-3.4803e-05,0.015281,-3.803e-05,-24.23,2.1036
29003,18.748,5.4545,0.1,0.0001154,1153.2,0.00011498,1141.2,-3.6902e-05,0.0072469,-4.0057e-05,-23.702,2.0586
29004,18.841,5.5455,0.1,0.00011334,1132.6,0.00011292,1120.6,-3.6223e-05,0.014643,-3.937e-05,-23.634,2.0734
29005,18.564,5.4545,0.1,0.00011964,1195.6,0.00011923,1183.8,-3.8331e-05,0.0070159,-4.1405e-05,-23.09,2.0286
29006,18.656,5.5455,0.1,0.00011757,1174.9,0.00011716,1163.2,-3.7648e-05,0.014037,-4.0719e-05,-23.063,2.0434
29007,18.38,5.4545,0.1,0.00012389,1238.1,0.0001235,1226.7,-3.9765e-05,0.0068063,-4.2761e-05,-22.506,1.9986
29008,18.472,5.5455,0.1,0.00012182,1217.3,0.00012142,1205.9,-3.9078e-05,0.013489,-4.2076e-05,-22.517,2.0134
29009,18.196,5.4545,0.1,0.00012817,1280.8,0.00012778,1269.7,-4.1204e-05,0.0066182,-4.4126e-05,-21.948,1.9688
29010,18.288,5.5455,0.1,0.00012609,1260,0.0001257,1248.9,-4.0513e-05,0.01298,-4.3442e-05,-21.993,1.9835
29011,18.011,5.4545,0.1,0.00013247,1323.8,0.00013209,1312.9,-4.2649e-05,0.0064416,-4.55e-05,-21.416,1.939
29012,18.103,5.5455,0.1,0.00013037,1302.8,0.00013,1292,-4.1954e-05,0.012523,-4.4816e-05,-21.492,1.9537
29013,17.827,5.4545,0.1,0.00013678,1366.9,0.00013642,1356.3,-4.4099e-05,0.0062599,-4.6882e-05,-20.907,1.9094
29014,17.919,5.5455,0.1,0.00013468,1345.9,0.00013431,1335.3,-4.34e-05,0.01208,-4.6198e-05,-21.011,1.924
29015,17.643,5.4545,0.1,0.00014112,1410.2,0.00014076,1399.9,-4.5554e-05,0.006088,-4.8273e-05,-20.42,1.8798
29016,17.735,5.5455,0.1,0.00013901,1389.2,0.00013865,1378.8,-4.4851e-05,0.011653,-4.7588e-05,-20.55,1.8944
29017,17.459,5.4545,0.1,0.00014548,1453.8,0.00014513,1443.7,-4.7015e-05,0.0059349,-4.9672e-05,-19.954,1.8503
29018,17.551,5.5455,0.1,0.00014336,1432.6,0.00014301,1422.5,-4.6309e-05,0.011265,-4.8986e-05,-20.106,1.8648
29019,17.274,5.4545,0.1,0.00014985,1497.5,0.00014951,1487.7,-4.8482e-05,0.0058019,-5.1079e-05,-19.506,1.8209
29020,17.366,5.5455,0.1,0.00014773,1476.3,0.00014738,1466.3,-4.7771e-05,0.010907,-5.0392e-05,-19.68,1.8354
29021,17.09,5.4545,0.1,0.00015425,1541.5,0.00015392,1531.8,-4.9955e-05,0.0056754,-5.2494e-05,-19.075,1.7917
29022,17.182,5.5455,0.1,0.00015212,1520.1,0.00015178,1510.4,-4.924e-05,0.010589,-5.1806e-05,-19.269,1.806
29023,16.906,5.4545,0.1,0.00015867,1585.6,0.00015834,1576.2,-5.1433e-05,0.0055357,-5.3918e-05,-18.661,1.7625
29024,16.998,5.5455,0.1,0.00015653,1564.2,0.0001562,1554.7,-5.0715e-05,0.01027,-5.3228e-05,-18.873,1.7768
29025,16.721,5.4545,0.1,0.00016311,1629.9,0.00016279,1620.7,-5.2918e-05,0.0054019,-5.5349e-05,-18.262,1.7334
29026,16.814,5.5455,0.1,0.00016095,1608.4,0.00016063,1599.1,-5.2195e-05,0.0099498,-5.4658e-05,-18.491,1.7477
29027,16.537,5.4545,0.1,0.00016756,1674.5,0.00016725,1665.5,-5.4408e-05,0.0052857,-5.6788e-05,-17.875,1.7044
29028,16.629,5.5455,0.1,0.0001654,1652.9,0.00016509,1643.7,-5.3682e-05,0.009664,-5.6095e-05,-18.121,1.7186
29029,16.353,5.4545,0.1,0.00017204,1719.2,0.00017174,1710.4,-5.5904e-05,0.0051861,-5.8234e-05,-17.501,1.6756
29030,16.445,5.5455,0.1,0.00016987,1697.5,0.00016956,1688.6,-5.5174e-05,0.0093952,-5.754e-05,-17.762,1.6897
29031,16.169,5.4545,0.1,0.00017654,1764.2,0.00017624,1755.6,-5.7407e-05,0.0050894,-5.9688e-05,-17.138,1.6468
29032,16.261,5.5455,0.1,0.00017436,1742.4,0.00017406,1733.6,-5.6673e-05,0.0091592,-5.8992e-05,-17.414,1.6609
29033,15.984,5.4545,0.1,0.00018106,1809.3,0.00018077,1800.9,-5.8915e-05,0.0049753,-6.115e-05,-16.784,1.6182
29034,16.077,5.5455,0.1,0.00017887,1787.4,0.00017857,1778.9,-5.8178e-05,0.0089116,-6.0452e-05,-17.074,1.6322
29035,15.8,5.4545,0.1,0.0001856,1854.7,0.00018531,1846.4,-6.043e-05,0.0048624,-6.2619e-05,-16.439,1.5897
29036,15.892,5.5455,0.1,0.0001834,1832.7,0.00018311,1824.3,-5.9689e-05,0.0086512,-6.1919e-05,-16.743,1.6037
29037,15.616,5.4545,0.1,0.00019016,1900.2,0.00018988,1892.1,-6.1952e-05,0.0047636,-6.4095e-05,-16.1,1.5614
29038,15.708,5.5455,0.1,0.00018795,1878.2,0.00018766,1869.9,-6.1207e-05,0.0084169,-6.3393e-05,-16.419,1.5752
29039,15.432,5.4545,0.1,0.00019473,1946,0.00019446,1938.1,-6.3479e-05,0.0046814,-6.5579e-05,-15.767,1.5331
29040,15.524,5.5455,0.1,0.00019252,1923.8,0.00019224,1915.7,-6.273e-05,0.008194,-6.4874e-05,-16.101,1.5469
29041,15.247,5.4545,0.1,0.00019933,1992,0.00019907,1984.2,-6.5013e-05,0.0045991,-6.7069e-05,-15.44,1.505
29042,15.339,5.5455,0.1,0.00019711,1969.7,0.00019683,1961.8,-6.4261e-05,0.0079979,-6.6363e-05,-15.788,1.5187
29043,15.063,5.4545,0.1,0.00020395,2038.1,0.00020369,2030.5,-6.6554e-05,0.004492,-6.8566e-05,-15.115,1.477
29044,15.155,5.5455,0.1,0.00020172,2015.8,0.00020145,2008,-6.5797e-05,0.0077803,-6.7858e-05,-15.479,1.4907
29045,14.879,5.4545,0.1,0.00020859,2084.5,0.00020834,2077.1,-6.8101e-05,0.0043842,-7.0071e-05,-14.793,1.4492
29046,14.971,5.5455,0.1,0.00020635,2062,0.00020608,2054.4,-6.734e-05,0.0075387,-6.9361e-05,-15.173,1.4628
29047,14.695,5.4545,0.1,0.00021325,2131.1,0.000213,2123.8,-6.9655e-05,0.0042897,-7.1581e-05,-14.471,1.4215
29048,14.787,5.5455,0.1,0.000211,2108.5,0.00021074,2101,-6.889e-05,0.0073192,-7.087e-05,-14.869,1.435
29049,14.51,5.4545,0.1,0.00021793,2177.8,0.00021769,2170.7,-7.1215e-05,0.0042087,-7.3099e-05,-14.15,1.3939
29050,14.602,5.5455,0.1,0.00021567,2155.2,0.00021542,2147.9,-7.0447e-05,0.0071045,-7.2386e-05,-14.565,1.4074
29051,14.326,5.4545,0.1,0.00022263,2224.8,0.00022239,2217.8,-7.2782e-05,0.0041251,-7.4623e-05,-13.827,1.3665
29052,14.418,5.5455,0.1,0.00022036,2202.1,0.00022011,2194.9,-7.201e-05,0.0069121,-7.3909e-05,-14.262,1.3799
29053,14.142,5.4545,0.1,0.00022735,2271.9,0.00022712,2265.2,-7.4356e-05,0.0040111,-7.6153e-05,-13.501,1.3392
29054,14.234,5.5455,0.1,0.00022507,2249.1,0.00022483,2242.1,-7.3579e-05,0.0066878,-7.5438e-05,-13.957,1.3525
29055,13.957,5.4545,0.1,0.00023209,2319.3,0.00023186,2312.7,-7.5937e-05,0.0038921,-7.769e-05,-13.17,1.3121
29056,14.05,5.5455,0.1,0.0002298,2296.4,0.00022956,2289.6,-7.5156e-05,0.0064293,-7.6973e-05,-13.649,1.3253
29057,13.773,5.4545,0.1,0.00023685,2366.9,0.00023663,2360.4,-7.7524e-05,0.0037859,-7.9233e-05,-12.834,1.2852
29058,13.865,5.5455,0.1,0.00023455,2343.9,0.00023432,2337.2,-7.6739e-05,0.0061887,-7.8515e-05,-13.338,1.2983
29059,13.589,5.4545,0.1,0.00024163,2414.6,0.00024142,2408.4,-7.9119e-05,0.0036922,-8.0782e-05,-12.491,1.2584
29060,13.681,5.5455,0.1,0.00023932,2391.6,0.0002391,2385,-7.833e-05,0.0059463,-8.0063e-05,-13.021,1.2714
29061,13.405,5.4545,0.1,0.00024643,2462.6,0.00024622,2456.5,-8.072e-05,0.003592,-8.2336e-05,-12.14,1.2318
29062,13.497,5.5455,0.1,0.00024411,2439.4,0.00024389,2433.1,-7.9927e-05,0.0057214,-8.1618e-05,-12.699,1.2447
29063,13.22,5.4545,0.1,0.00025125,2510.8,0.00025105,2504.9,-8.2328e-05,0.0034553,-8.3897e-05,-11.778,1.2053
29064,13.313,5.5455,0.1,0.00024892,2487.5,0.00024871,2481.3,-8.1531e-05,0.0054533,-8.3178e-05,-12.369,1.2181
29065,13.036,5.4545,0.1,0.00025609,2559.1,0.00025589,2553.4,-8.3944e-05,0.00331,-8.5462e-05,-11.405,1.179
29066,13.128,5.5455,0.1,0.00025375,2535.8,0.00025355,2529.8,-8.3142e-05,0.0051405,-8.4744e-05,-12.029,1.1918
29067,12.852,5.4545,0.1,0.00026095,2607.7,0.00026076,2602.2,-8.5567e-05,0.0031744,-8.7034e-05,-11.018,1.1529
29068,12.944,5.5455,0.1,0.00025861,2584.3,0.00025841,2578.4,-8.4761e-05,0.0048396,-8.6316e-05,-11.68,1.1656
29069,12.668,5.4545,0.1,0.00026583,2656.5,0.00026565,2651.1,-8.7197e-05,0.00305,-8.861e-05,-10.615,1.127
29070,12.76,5.5455,0.1,0.00026348,2633,0.00026328,2627.3,-8.6386e-05,0.0045275,-8.7893e-05,-11.318,1.1395
29071,12.483,5.4545,0.1,0.00027073,2705.4,0.00027055,2700.3,-8.8835e-05,0.0029156,-9.0192e-05,-10.195,1.1012
29072,12.575,5.5455,0.1,0.00026837,2681.8,0.00026818,2676.4,-8.8019e-05,0.0042279,-8.9476e-05,-10.943,1.1137
29073,12.299,5.4545,0.1,0.00027565,2754.6,0.00027548,2749.7,-9.048e-05,0.0027368,-9.1778e-05,-9.7565,1.0756
29074,12.391,5.5455,0.1,0.00027328,2730.9,0.0002731,2725.6,-8.9659e-05,0.0038723,-9.1064e-05,-10.553,1.088
29075,12.115,5.4545,0.1,0.00028059,2803.9,0.00028043,2799.3,-9.2132e-05,0.002545,-9.337e-05,-9.296,1.0502
29076,12.207,5.5455,0.1,0.00027821,2780.2,0.00027804,2775.1,-9.1307e-05,0.0034575,-9.2657e-05,-10.145,1.0625
29077,11.931,5.4545,0.1,0.00028554,2853.5,0.00028539,2849,-9.3792e-05,0.0023608,-9.4965e-05,-8.8118,1.025
29078,12.023,5.5455,0.1,0.00028316,2829.7,0.000283,2824.8,-9.2962e-05,0.0030468,-9.4256e-05,-9.7188,1.0372
29079,11.746,5.4545,0.1,0.00029052,2903.2,0.00029038,2899,-9.546e-05,0.0021851,-9.6565e-05,-8.3014,1
29080,11.838,5.5455,0.1,0.00028813,2879.4,0.00028798,2874.7,-9.4625e-05,0.0026146,-9.5859e-05,-9.2714,1.0121
29081,11.562,5.4545,0.1,0.00029552,2953.1,0.00029539,2949.3,-9.7136e-05,0.0019948,-9.8169e-05,-7.7623,0.97519
29082,11.654,5.5455,0.1,0.00029313,2929.2,0.00029298,2924.8,-9.6295e-05,0.0021841,-9.7467e-05,-8.8007,0.98714
29083,11.378,5.4545,0.1,0.00030053,3003.3,0.00030041,2999.7,-9.882e-05,0.0017531,-9.9777e-05,-7.1918,0.95058
29084,11.47,5.5455,0.1,0.00029814,2979.3,0.00029799,2975.2,-9.7973e-05,0.0016812,-9.9079e-05,-8.3046,0.96242
29085,11.193,5.4545,0.1,0.00030557,3053.6,0.00030546,3050.3,-0.00010051,0.0014952,-0.00010139,-6.587,0.92617
29086,11.286,5.5455,0.1,0.00030317,3029.6,0.00030303,3025.7,-9.966e-05,0.001102,-0.0001007,-7.7808,0.9379
29087,11.009,5.4545,0.1,0.00031063,3104.1,0.00031052,3101.1,-0.00010221,0.0012443,-0.000103,-5.9447,0.90196
29088,11.101,5.5455,0.1,0.00030822,3080.1,0.0003081,3076.4,-0.00010135,0.00051409,-0.00010232,-7.2266,0.91358
29089,10.825,5.4545,0.1,0.0003157,3154.8,0.00031561,3152.2,-0.00010392,0.0010043,-0.00010462,-5.2617,0.87797
29090,10.917,5.5455,0.1,0.00031329,3130.7,0.00031318,3127.4,-0.00010306,-0.00011115,-0.00010394,-6.6393,0.88948
29091,10.641,5.4545,0.1,0.00032079,3205.7,0.00032072,3203.5,-0.00010564,0.00075463,-0.00010624,-4.5347,0.85419
29092,10.733,5.5455,0.1,0.00031838,3181.6,0.00031828,3178.6,-0.00010477,-0.00074897,-0.00010557,-6.0161,0.86558
29093,10.456,5.4545,0.1,0.00032591,3256.8,0.00032584,3254.9,-0.00010736,0.00046818,-0.00010786,-3.76,0.83063
29094,10.549,5.5455,0.1,0.00032349,3232.7,0.0003234,3230,-0.00010649,-0.0014828,-0.0001072,-5.354,0.8419
29095,10.272,5.4545,0.1,0.00033104,3308.1,0.00033099,3306.6,-0.0001091,0.0002174,-0.00010949,-2.934,0.80728
29096,10.364,5.5455,0.1,0.00032862,3283.9,0.00032854,3281.6,-0.00010821,-0.0023138,-0.00010883,-4.65,0.81844
29097,10.088,5.4545,0.1,0.00033619,3359.6,0.00033616,3358.6,-0.00011084,9.9555e-05,-0.00011111,-2.0525,0.78416
29098,10.18,5.5455,0.1,0.00033377,3335.4,0.0003337,3333.4,-0.00010995,-0.0031596,-0.00011047,-3.9004,0.7952
29099,9.9036,5.4545,0.1,0.00034136,3411.3,0.00034134,3410.7,-0.00011259,0.00048729,-0.00011274,-1.1119,0.76127
29100,9.9957,5.5455,0.1,0.00033894,3387.1,0.00033889,3385.5,-0.0001117,-0.0040856,-0.00011211,-3.1022,0.77219
29101,9.7193,5.4545,0.1,0.00034655,3463.1,0.00034655,3463.1,-0.00011435,0.015273,-0.00011437,-0.12178,0.73861
29102,9.8115,5.5455,0.1,0.00034413,3438.9,0.00034409,3437.8,-0.00011345,-0.005087,-0.00011375,-2.2515,0.74941
29103,9.5351,5.4545,0.1,0.00035176,3515.2,0.00035178,3515.6,-0.000116,0.97129,-0.00011613,-0.0045131,0.71619
29104,9.6272,5.5455,0.1,0.00034934,3491,0.00034932,3490.3,-0.00011522,-0.0061605,-0.00011539,-1.3448,0.72686
29105,9.3508,5.4545,0.1,0.00035699,3567.4,0.00035702,3568.5,-0.00011763,2.117,-0.00011791,-0.0039659,0.694
29106,9.4429,5.5455,0.1,0.00035457,3543.2,0.00035456,3543,-0.00011699,-0.0073092,-0.00011704,-0.37825,0.70454
29107,9.1665,5.4545,0.1,0.00036223,3619.8,0.00036229,3621.5,-0.00011926,3.341,-0.0001197,-0.0042572,0.67205
29108,9.2587,5.5455,0.1,0.00035982,3595.7,0.00035983,3596,-0.00011868,0.65204,-0.00011877,-0.0086342,0.68247
29109,8.9823,5.4545,0.1,0.0003675,3672.4,0.00036758,3674.8,-0.00012089,4.6473,-0.0001215,-0.0047904,0.65036
29110,9.0744,5.5455,0.1,0.00036508,3648.3,0.00036511,3649.2,-0.00012033,1.7497,-0.00012057,-0.009995,0.66064
29111,8.798,5.4545,0.1,0.00037278,3725.2,0.00037288,3728.2,-0.00012251,6.0403,-0.00012332,-0.0054601,0.62891
29112,8.8901,5.5455,0.1,0.00037037,3701.2,0.00037042,3702.6,-0.00012198,2.9186,-0.00012237,-0.011478,0.63906
29113,8.6137,5.4545,0.1,0.00037808,3778.2,0.00037821,3782,-0.00012414,7.524,-0.00012514,-0.0062368,0.60771
29114,8.7059,5.5455,0.1,0.00037568,3754.2,0.00037575,3756.3,-0.00012363,4.1623,-0.00012418,-0.013084,0.61773
29115,8.4295,5.4545,0.1,0.0003834,3831.4,0.00038356,3835.9,-0.00012576,9.1025,-0.00012697,-0.0071143,0.58677
29116,8.5216,5.5455,0.1,0.00038101,3807.5,0.0003811,3810.2,-0.00012527,5.4839,-0.00012601,-0.014822,0.59665
29117,8.2452,5.4545,0.1,0.00038874,3884.7,0.00038892,3890.1,-0.00012738,10.779,-0.00012882,-0.0080941,0.56608
29118,8.3373,5.5455,0.1,0.00038636,3860.9,0.00038647,3864.3,-0.00012692,6.8863,-0.00012784,-0.016702,0.57583
29119,8.0609,5.4545,0.1,0.0003941,3938.3,0.00039431,3944.5,-0.000129,12.555,-0.00013068,-0.0091829,0.54567
29120,8.1531,5.5455,0.1,0.00039172,3914.5,0.00039186,3918.7,-0.00012857,8.3718,-0.00012968,-0.018734,0.55528
29121,7.8767,5.4545,0.1,0.00039947,3992,0.00039972,3999.2,-0.00013062,14.434,-0.00013254,-0.010391,0.52552
29122,7.9688,5.5455,0.1,0.00039711,3968.4,0.00039728,3973.3,-0.00013021,9.9415,-0.00013154,-0.020929,0.53499
29123,7.6924,5.4545,0.1,0.00040487,4045.9,0.00040514,4054.1,-0.00013223,16.413,-0.00013442,-0.011731,0.50564
29124,7.7845,5.5455,0.1,0.00040251,4022.4,0.00040271,4028.1,-0.00013186,11.596,-0.00013341,-0.0233,0.51497
29125,7.5081,5.4545,0.1,0.00041028,4099.9,0.00041059,4109.1,-0.00013384,18.492,-0.00013631,-0.013219,0.48603
29126,7.6003,5.5455,0.1,0.00040794,4076.6,0.00040816,4083.2,-0.0001335,13.333,-0.00013528,-0.025858,0.49522
29127,7.3239,5.4545,0.1,0.0004157,4154.2,0.00041605,4164.4,-0.00013545,20.666,-0.00013821,-0.014874,0.46671
29128,7.416,5.5455,0.1,0.00041338,4130.9,0.00041363,4138.5,-0.00013515,15.15,-0.00013717,-0.028617,0.47575
29129,7.1396,5.4545,0.1,0.00042114,4208.5,0.00042153,4219.9,-0.00013706,22.927,-0.00014011,-0.01672,0.44766
29130,7.2317,5.5455,0.1,0.00041884,4185.5,0.00041912,4194,-0.00013679,17.04,-0.00013906,-0.031591,0.45656
29131,6.9553,5.4545,0.1,0.0004266,4263,0.00042702,4275.6,-0.00013866,25.262,-0.00014203,-0.018783,0.42891
29132,7.0475,5.5455,0.1,0.00042431,4240.2,0.00042463,4249.6,-0.00013843,18.995,-0.00014096,-0.034792,0.43765
29133,6.7711,5.4545,0.1,0.00043206,4317.7,0.00043253,4331.4,-0.00014027,27.655,-0.00014395,-0.0211,0.41044
29134,6.8632,5.5455,0.1,0.0004298,4295,0.00043015,4305.4,-0.00014007,21.001,-0.00014287,-0.038237,0.41903
29135,6.5868,5.4545,0.1,0.00043754,4372.4,0.00043804,4387.3,-0.00014187,30.083,-0.00014588,-0.023711,0.39227
29136,6.6789,5.5455,0.1,0.00043529,4349.9,0.00043568,4361.4,-0.00014172,23.041,-0.00014479,-0.041939,0.40071
29137,6.4025,5.4545,0.1,0.00044302,4427.1,0.00044356,4443.3,-0.00014348,32.515,-0.00014781,-0.026668,0.37439
29138,6.4947,5.5455,0.1,0.0004408,4404.9,0.00044122,4417.4,-0.00014336,25.09,-0.00014671,-0.045915,0.38268
29139,6.2183,5.4545,0.1,0.0004485,4481.9,0.00044909,4499.3,-0.00014508,34.911,-0.00014973,-0.030037,0.35681
29140,6.3104,5.5455,0.1,0.0004463,4459.9,0.00044676,4473.4,-0.00014501,27.117,-0.00014862,-0.050185,0.36495
29141,6.034,5.4545,0.1,0.00045398,4536.6,0.0004546,4555.1,-0.0001467,37.219,-0.00015166,-0.033901,0.33954
29142,6.1261,5.5455,0.1,0.0004518,4514.9,0.00045229,4529.3,-0.00014666,29.081,-0.00015054,-0.05477,0.34752
29143,5.8497,5.4545,0.1,0.00045944,4591.2,0.00046009,4610.7,-0.00014832,39.374,-0.00015356,-0.038371,0.32258
29144,5.9419,5.5455,0.1,0.00045729,4569.7,0.00045781,4585.1,-0.00014832,30.931,-0.00015244,-0.059699,0.3304
29145,5.6655,5.4545,0.1,0.00046487,4645.5,0.00046556,4666,-0.00014995,41.297,-0.00015545,-0.043595,0.30593
29146,5.7576,5.5455,0.1,0.00046275,4624.3,0.00046329,4640.5,-0.00014998,32.603,-0.00015432,-0.065015,0.31359
29147,5.4812,5.4545,0.1,0.00047026,4699.3,0.00047097,4720.6,-0.00015159,42.887,-0.00015731,-0.049778,0.28959
29148,5.5733,5.5455,0.1,0.00046817,4678.5,0.00046874,4695.3,-0.00015165,34.018,-0.00015618,-0.07078,0.29709
29149,5.2969,5.4545,0.1,0.00047558,4752.5,0.00047631,4774.3,-0.00015325,44.025,-0.00015912,-0.057218,0.27358
29150,5.3891,5.5455,0.1,0.00047352,4732,0.00047411,4749.4,-0.00015332,35.08,-0.000158,-0.0771,0.28091
29151,5.1127,5.4545,0.1,0.0004808,4804.7,0.00048155,4826.8,-0.00015493,44.565,-0.00016087,-0.066362,0.25789
29152,5.2048,5.5455,0.1,0.00047879,4784.6,0.00047938,4802.3,-0.00015501,35.672,-0.00015977,-0.084159,0.26506
29153,4.9284,5.4545,0.1,0.0004859,4855.6,0.00048664,4877.6,-0.00015663,44.334,-0.00016254,-0.077922,0.24253
29154,5.0205,5.5455,0.1,0.00048393,4835.9,0.00048452,4853.6,-0.00015671,35.656,-0.00016147,-0.092284,0.24953
29155,4.7441,5.4545,0.1,0.00049081,4904.7,0.00049153,4926.1,-0.00015835,43.131,-0.00016411,-0.093104,0.22749
29156,4.8363,5.5455,0.1,0.00048889,4885.5,0.00048947,4902.8,-0.00015841,34.867,-0.00016307,-0.1021,0.23433
29157,4.5599,5.4545,0.1,0.00049547,4951.3,0.00049615,4971.5,-0.00016009,40.722,-0.00016553,-0.11412,0.21279
29158,4.652,5.5455,0.1,0.00049361,4932.7,0.00049416,4949.1,-0.00016012,33.115,-0.00016454,-0.11484,0.21946
29159,4.3756,5.4545,0.1,0.0004998,4994.6,0.00050042,5012.8,-0.00016185,36.842,-0.00016677,-0.1455,0.19843
29160,4.4677,5.5455,0.1,0.00049801,4976.7,0.00049852,4991.6,-0.00016181,30.182,-0.00016585,-0.13316,0.20493
29161,4.1913,5.4545,0.1,0.00050369,5033.4,0.00050421,5048.8,-0.0001636,31.202,-0.00016778,-0.1979,0.18441
29162,4.2835,5.5455,0.1,0.00050199,5016.4,0.00050242,5029.2,-0.00016349,25.825,-0.00016695,-0.1635,0.19073
29163,4.0071,5.4545,0.1,0.00050698,5066.3,0.00050737,5077.9,-0.00016532,23.508,-0.00016849,-0.30326,0.17073
29164,4.0992,5.5455,0.1,0.00050541,5050.6,0.00050574,5060.4,-0.00016512,19.79,-0.00016778,-0.22511,0.17688
29165,3.8228,5.4545,0.1,0.00050951,5091.6,0.00050973,5098,-0.00016697,13.564,-0.00016886,-0.61152,0.15739
29166,3.9149,5.5455,0.1,0.00050809,5077.4,0.00050829,5083.1,-0.00016666,11.868,-0.00016829,-0.40457,0.16337
29167,3.6385,5.4545,0.1,0.00051102,5106.7,0.00051102,5106.6,-0.00016822,3.085,-0.00016906,-3.1787,0.1444
29168,3.7307,5.5455,0.1,0.00050982,5094.7,0.00050984,5095.2,-0.00016791,2.9149,-0.00016854,-1.8583,0.15021
29169,3.4543,5.4545,0.1,0.00051123,5108.8,0.00051095,5100.6,-0.00016781,0.70202,-0.00017016,-16.953,0.13176
29170,3.5464,5.5455,0.1,0.00051032,5099.7,0.00051012,5093.7,-0.00016774,0.52554,-0.00016947,-12.471,0.13739
29171,3.27,5.4545,0.1,0.00050975,5094,0.00050913,5076,-0.00016639,0.41432,-0.00017126,-36.182,0.11947
29172,3.3621,5.5455,0.1,0.00050923,5088.8,0.00050875,5074.9,-0.00016663,0.30625,-0.00017041,-28.097,0.12492
29173,3.0857,5.4545,0.1,0.00050611,5057.6,0.00050509,5028,-0.00016405,0.33433,-0.00017196,-59.1,0.10752
29174,3.1779,5.5455,0.1,0.00050612,5057.7,0.00050531,5034.3,-0.00016467,0.25869,-0.00017095,-46.893,0.11279
29175,2.9015,5.4545,0.1,0.00049974,4994,0.00049824,4950.9,-0.00016064,0.31942,-0.00017206,-85.486,0.095915
29176,2.9936,5.5455,0.1,0.00050046,5001.1,0.00049926,4966.5,-0.00016171,0.26033,-0.0001709,-68.74,0.10101
29177,2.7172,5.4545,0.1,0.00048994,4896,0.00048789,4837.7,-0.00015593,0.34245,-0.00017127,-114.94,0.084648
29178,2.8093,5.5455,0.1,0.00049158,4912.4,0.00048993,4865.2,-0.00015755,0.28774,-0.00017002,-93.381,0.089564
29179,2.5329,5.4545,0.1,0.00047589,4755.7,0.00047323,4680.8,-0.00014969,0.39896,-0.00016927,-146.69,0.073712
29180,2.6251,5.5455,0.1,0.00047873,4784,0.00047658,4722.9,-0.00015196,0.33494,-0.00016801,-120.23,0.078452
29181,2.3487,5.4545,0.1,0.00045669,4563.7,0.00045337,4471.5,-0.00014168,0.4959,-0.00016565,-179.55,0.063097
29182,2.4408,5.5455,0.1,0.00046103,4607.1,0.00045833,4531.4,-0.0001447,0.4019,-0.00016449,-148.26,0.067663
29183,2.1644,5.4545,0.1,0.0004314,4311,0.00042741,4201.4,-0.00013168,0.64659,-0.00015998,-212,0.052789
29184,2.2565,5.5455,0.1,0.00043753,4372.3,0.00043428,4281.9,-0.00013554,0.49951,-0.00015903,-175.98,0.057184
29185,1.9801,5.4545,0.1,0.00039926,3989.9,0.00039459,3863.4,-0.00011947,0.90646,-0.0001519,-242.69,0.042768
29186,2.0723,5.5455,0.1,0.00040734,4070.6,0.00040354,3966.3,-0.00012426,0.64452,-0.00015117,-201.54,0.046998
29187,1.7959,5.4545,0.1,0.0003601,3598.5,0.00035471,3455.4,-0.00010499,1.2973,-0.00014137,-272,0.033012
29188,1.888,5.5455,0.1,0.0003698,3695.4,0.00036551,3579.1,-0.00011072,0.9491,-0.00014057,-223.34,0.037083
29189,1.6116,5.4545,0.1,0.00031512,3149.1,0.00030883,2986,-8.8287e-05,2.2257,-0.00012927,-305.74,0.023495
29190,1.7037,5.5455,0.1,0.00032501,3247.9,0.00032023,3120.7,-9.4922e-05,1.4236,-0.00012732,-242,0.027415
29191,1.4273,5.4545,0.1,0.00026899,2688.1,0.00026089,2487,-6.9766e-05,2.5983,-0.00011889,-366.5,0.014209
29192,1.5195,5.5455,0.1,0.00027479,2746,0.00026936,2605.3,-7.6984e-05,3.0682,-0.00011264,-264.8,0.017976
29193,1.2431,5.4545,0.1,0.00023757,2374.1,0.00022381,2061.5,-4.9594e-05,7.2749,-0.00012212,-537.66,0.0053717
29194,1.3352,5.5455,0.1,0.00022559,2254.3,0.00021836,2076.4,-5.7604e-05,2.9067,-0.00010101,-323.23,0.0088196
29195,1.1509,5.5455,0.1,0.00020132,2011.8,0.0001865,1689,-3.6649e-05,12.318,-0.0001104,-541.86,0.0026841
29196,1.0588,5.4545,0.1,0.00018778,1876.5,0.00017239,1541.2,-3.3107e-05,-2.8753,-0.00010557,-547.32,0.0051242
29197,23.724,5.6364,0.1,9.5076e-06,95.011,7.3366e-06,55.471,-2.4449e-08,0.1633,-7.2646e-06,-54.236,2.8884
29198,23.816,5.7273,0.1,7.1925e-06,71.875,5.2225e-06,37.287,3.1127e-07,0.38569,-5.8016e-06,-45.544,2.9039
29199,23.908,5.6364,0.1,7.3624e-06,73.574,4.1535e-06,21.496,1.271e-06,-0.16187,-6.7562e-06,-60.476,2.9195
29200,23.539,5.6364,0.1,1.2348e-05,123.39,1.0754e-05,91.273,-1.3868e-06,0.051355,-7.9314e-06,-49.122,2.8573
29201,23.631,5.7273,0.1,1.002e-05,100.13,8.6323e-06,72.502,-1.0098e-06,0.055238,-6.5746e-06,-41.757,2.8728
29202,23.355,5.6364,0.1,1.5674e-05,156.63,1.4376e-05,128.5,-2.7152e-06,0.091562,-8.8504e-06,-46.006,2.8262
29203,23.447,5.7273,0.1,1.3448e-05,134.39,1.231e-05,109.83,-2.292e-06,0.11528,-7.6404e-06,-40.071,2.8417
29204,23.171,5.6364,0.1,1.9237e-05,192.24,1.8112e-05,166.55,-4.0433e-06,0.08596,-9.8913e-06,-43.853,2.7951
29205,23.263,5.7273,0.1,1.71e-05,170.89,1.6097e-05,148,-3.5884e-06,0.090155,-8.7994e-06,-39.063,2.8106
29206,22.987,5.6364,0.1,2.2927e-05,229.11,2.1917e-05,205.12,-5.3725e-06,0.085001,-1.0997e-05,-42.177,2.764
29207,23.079,5.7273,0.1,2.0859e-05,208.45,1.9943e-05,186.68,-4.892e-06,0.084493,-9.9988e-06,-38.287,2.7795
29208,22.802,5.6364,0.1,2.6694e-05,266.76,2.5766e-05,244.06,-6.7053e-06,0.080105,-1.2141e-05,-40.766,2.7329
29209,22.894,5.7273,0.1,2.468e-05,246.63,2.3824e-05,225.7,-6.204e-06,0.074029,-1.1218e-05,-37.6,2.7484
29210,22.618,5.6364,0.1,3.0513e-05,304.92,2.9648e-05,283.26,-8.0418e-06,0.07528,-1.3311e-05,-39.513,2.7019
29211,22.71,5.7273,0.1,2.854e-05,285.2,2.7732e-05,264.96,-7.5231e-06,0.066039,-1.2449e-05,-36.942,2.7173
29212,22.434,5.6364,0.1,3.4368e-05,343.45,3.3555e-05,322.68,-9.382e-06,0.070283,-1.4497e-05,-38.364,2.6708
29213,22.526,5.7273,0.1,3.2429e-05,324.07,3.1659e-05,304.42,-8.8484e-06,0.058772,-1.3686e-05,-36.29,2.6863
29214,22.249,5.6364,0.1,3.8253e-05,382.27,3.7483e-05,362.29,-1.0726e-05,0.06553,-1.5697e-05,-37.286,2.6398
29215,22.342,5.7273,0.1,3.634e-05,363.15,3.5603e-05,344.04,-1.0179e-05,0.052578,-1.4929e-05,-35.635,2.6552
29216,22.065,5.6364,0.1,4.2162e-05,421.33,4.1428e-05,402.05,-1.2073e-05,0.061066,-1.6908e-05,-36.263,2.6088
29217,22.157,5.7273,0.1,4.027e-05,402.42,3.9562e-05,383.82,-1.1515e-05,0.047208,-1.6176e-05,-34.973,2.6242
29218,21.881,5.6364,0.1,4.6091e-05,460.6,4.539e-05,441.96,-1.3424e-05,0.056933,-1.8128e-05,-35.284,2.5779
29219,21.973,5.7273,0.1,4.4217e-05,441.86,4.3533e-05,423.73,-1.2855e-05,0.042566,-1.7427e-05,-34.307,2.5933
29220,21.697,5.6364,0.1,5.004e-05,500.05,4.9367e-05,482.02,-1.4778e-05,0.053123,-1.9356e-05,-34.341,2.5469
29221,21.789,5.7273,0.1,4.8178e-05,481.45,4.7518e-05,463.77,-1.42e-05,0.038537,-1.8682e-05,-33.638,2.5623
29222,21.512,5.6364,0.1,5.4005e-05,539.68,5.3359e-05,522.21,-1.6136e-05,0.04962,-2.0592e-05,-33.432,2.516
29223,21.605,5.7273,0.1,5.2155e-05,521.19,5.1516e-05,503.93,-1.5549e-05,0.035017,-1.9942e-05,-32.969,2.5314
29224,21.328,5.6364,0.1,5.7988e-05,579.48,5.7366e-05,562.53,-1.7497e-05,0.046405,-2.1836e-05,-32.555,2.4852
29225,21.42,5.7273,0.1,5.6145e-05,561.06,5.5526e-05,544.23,-1.6902e-05,0.031929,-2.1205e-05,-32.301,2.5005
29226,21.144,5.6364,0.1,6.1986e-05,619.44,6.1387e-05,602.99,-1.8861e-05,0.04346,-2.3087e-05,-31.706,2.4543
29227,21.236,5.7273,0.1,6.0149e-05,601.08,5.9549e-05,584.65,-1.8259e-05,0.029221,-2.2474e-05,-31.638,2.4696
29228,20.96,5.6364,0.1,6.6002e-05,659.56,6.5422e-05,643.59,-2.0229e-05,0.040766,-2.4345e-05,-30.886,2.4236
29229,21.052,5.7273,0.1,6.4168e-05,641.24,6.3585e-05,625.2,-1.962e-05,0.026834,-2.3747e-05,-30.982,2.4388
29230,20.775,5.6364,0.1,7.0033e-05,699.85,6.9473e-05,684.33,-2.1601e-05,0.038296,-2.5611e-05,-30.093,2.3928
29231,20.867,5.7273,0.1,6.8202e-05,681.55,6.7635e-05,665.88,-2.0985e-05,0.02473,-2.5026e-05,-30.335,2.4081
29232,20.591,5.6364,0.1,7.4081e-05,740.29,7.3539e-05,725.21,-2.2976e-05,0.036023,-2.6884e-05,-29.327,2.3621
29233,20.683,5.7273,0.1,7.225e-05,722,7.1699e-05,706.7,-2.2354e-05,0.022858,-2.631e-05,-29.697,2.3773
29234,20.407,5.6364,0.1,7.8145e-05,780.91,7.762e-05,766.24,-2.4356e-05,0.033936,-2.8165e-05,-28.588,2.3315
29235,20.499,5.7273,0.1,7.6313e-05,762.61,7.5777e-05,747.66,-2.3728e-05,0.021182,-2.76e-05,-29.072,2.3466
29236,20.223,5.6364,0.1,8.2226e-05,821.69,8.1717e-05,807.41,-2.5739e-05,0.032023,-2.9454e-05,-27.876,2.3009
29237,20.315,5.7273,0.1,8.0392e-05,803.37,7.987e-05,788.77,-2.5106e-05,0.019696,-2.8896e-05,-28.459,2.316
29238,20.038,5.6364,0.1,8.6324e-05,862.64,8.583e-05,848.74,-2.7127e-05,0.03027,-3.075e-05,-27.188,2.2703
29239,20.13,5.7273,0.1,8.4487e-05,844.29,8.3979e-05,830.02,-2.6488e-05,0.018368,-3.0198e-05,-27.861,2.2854
29240,19.854,5.6364,0.1,9.0439e-05,903.77,8.9959e-05,890.23,-2.8519e-05,0.02866,-3.2053e-05,-26.526,2.2398
29241,19.946,5.7273,0.1,8.8598e-05,885.37,8.8103e-05,871.42,-2.7874e-05,0.017191,-3.1507e-05,-27.276,2.2549
29242,19.67,5.6364,0.1,9.4572e-05,945.07,9.4106e-05,931.87,-2.9915e-05,0.027168,-3.3365e-05,-25.888,2.2094
29243,19.762,5.7273,0.1,9.2726e-05,926.62,9.2243e-05,912.98,-2.9266e-05,0.016124,-3.2822e-05,-26.707,2.2244
29244,19.485,5.6364,0.1,9.8723e-05,986.55,9.8269e-05,973.68,-3.1317e-05,0.025792,-3.4684e-05,-25.274,2.179
29245,19.578,5.7273,0.1,9.6871e-05,968.04,9.6399e-05,954.7,-3.0662e-05,0.015153,-3.4145e-05,-26.154,2.194
29246,19.301,5.6364,0.1,0.00010289,1028.2,0.00010245,1015.7,-3.2722e-05,0.024529,-3.6011e-05,-24.683,2.1487
29247,19.393,5.7273,0.1,0.00010103,1009.6,0.00010057,996.59,-3.2063e-05,0.014287,-3.5474e-05,-25.616,2.1637
29248,19.117,5.6364,0.1,0.00010708,1070.1,0.00010665,1057.8,-3.4133e-05,0.023375,-3.7346e-05,-24.115,2.1185
29249,19.209,5.7273,0.1,0.00010521,1051.4,0.00010476,1038.6,-3.3469e-05,0.013507,-3.681e-05,-25.093,2.1334
29250,18.933,5.6364,0.1,0.00011128,1112.1,0.00011087,1100.1,-3.5548e-05,0.022308,-3.8688e-05,-23.568,2.0883
29251,19.025,5.7273,0.1,0.00010941,1093.3,0.00010897,1080.9,-3.488e-05,0.012816,-3.8154e-05,-24.586,2.1032
29252,18.748,5.6364,0.1,0.00011551,1154.3,0.0001151,1142.6,-3.6969e-05,0.021308,-4.0039e-05,-23.042,2.0582
29253,18.841,5.7273,0.1,0.00011363,1135.5,0.0001132,1123.2,-3.6296e-05,0.012177,-3.9504e-05,-24.095,2.0731
29254,18.564,5.6364,0.1,0.00011975,1196.7,0.00011935,1185.3,-3.8395e-05,0.020383,-4.1397e-05,-22.536,2.0282
29255,18.656,5.7273,0.1,0.00011786,1177.8,0.00011744,1165.8,-3.7717e-05,0.011583,-4.0862e-05,-23.619,2.043
29256,18.38,5.6364,0.1,0.00012401,1239.3,0.00012363,1228.1,-3.9826e-05,0.019534,-4.2763e-05,-22.05,1.9983
29257,18.472,5.7273,0.1,0.00012211,1220.3,0.0001217,1208.6,-3.9144e-05,0.011055,-4.2228e-05,-23.158,2.013
29258,18.196,5.6364,0.1,0.0001283,1282.1,0.00012792,1271.2,-4.1263e-05,0.018756,-4.4138e-05,-21.581,1.9684
29259,18.288,5.7273,0.1,0.00012639,1263,0.00012598,1251.5,-4.0576e-05,0.010575,-4.36e-05,-22.711,1.9831
29260,18.011,5.6364,0.1,0.0001326,1325.1,0.00013223,1314.4,-4.2705e-05,0.018033,-4.5519e-05,-21.131,1.9386
29261,18.103,5.7273,0.1,0.00013068,1305.9,0.00013028,1294.6,-4.2014e-05,0.010153,-4.4981e-05,-22.279,1.9533
29262,17.827,5.6364,0.1,0.00013692,1368.2,0.00013655,1357.8,-4.4152e-05,0.017345,-4.6909e-05,-20.696,1.9089
29263,17.919,5.7273,0.1,0.00013499,1348.9,0.0001346,1337.9,-4.3458e-05,0.0097522,-4.6368e-05,-21.86,1.9236
29264,17.643,5.6364,0.1,0.00014126,1411.6,0.0001409,1401.4,-4.5606e-05,0.016702,-4.8307e-05,-20.278,1.8794
29265,17.735,5.7273,0.1,0.00013932,1392.2,0.00013894,1381.4,-4.4907e-05,0.0093675,-4.7763e-05,-21.454,1.8939
29266,17.459,5.6364,0.1,0.00014562,1455.2,0.00014527,1445.1,-4.7065e-05,0.016111,-4.9712e-05,-19.874,1.8499
29267,17.551,5.7273,0.1,0.00014366,1435.7,0.0001433,1425,-4.6362e-05,0.0090268,-4.9166e-05,-21.06,1.8644
29268,17.274,5.6364,0.1,0.00015,1498.9,0.00014966,1489.1,-4.8529e-05,0.015569,-5.1125e-05,-19.484,1.8205
29269,17.366,5.7273,0.1,0.00014803,1479.3,0.00014767,1468.9,-4.7822e-05,0.0087175,-5.0576e-05,-20.679,1.8349
29270,17.09,5.6364,0.1,0.0001544,1542.9,0.00015406,1533.3,-5e-05,0.01506,-5.2545e-05,-19.107,1.7912
29271,17.182,5.7273,0.1,0.00015242,1523.2,0.00015207,1512.9,-4.9289e-05,0.0084482,-5.1993e-05,-20.308,1.8056
29272,16.906,5.6364,0.1,0.00015882,1587.1,0.00015849,1577.6,-5.1477e-05,0.014562,-5.3973e-05,-18.742,1.762
29273,16.998,5.7273,0.1,0.00015683,1567.2,0.00015648,1557.1,-5.0762e-05,0.0081816,-5.3418e-05,-19.949,1.7763
29274,16.721,5.6364,0.1,0.00016325,1631.4,0.00016293,1622.2,-5.296e-05,0.014091,-5.5409e-05,-18.388,1.7329
29275,16.814,5.7273,0.1,0.00016126,1611.5,0.00016092,1601.6,-5.2241e-05,0.0079129,-5.485e-05,-19.6,1.7472
29276,16.537,5.6364,0.1,0.00016771,1676,0.0001674,1666.9,-5.4448e-05,0.013654,-5.6852e-05,-18.045,1.7039
29277,16.629,5.7273,0.1,0.00016571,1655.9,0.00016537,1646.2,-5.3725e-05,0.007679,-5.629e-05,-19.26,1.7181
29278,16.353,5.6364,0.1,0.00017219,1720.7,0.00017189,1711.8,-5.5943e-05,0.013251,-5.8302e-05,-17.711,1.675
29279,16.445,5.7273,0.1,0.00017017,1700.6,0.00016984,1691,-5.5216e-05,0.0074623,-5.7737e-05,-18.929,1.6892
29280,16.169,5.6364,0.1,0.00017669,1765.7,0.00017639,1757,-5.7444e-05,0.012866,-5.976e-05,-17.386,1.6463
29281,16.261,5.7273,0.1,0.00017466,1745.4,0.00017434,1736,-5.6714e-05,0.0072788,-5.9191e-05,-18.606,1.6604
29282,15.984,5.6364,0.1,0.00018121,1810.9,0.00018092,1802.3,-5.8952e-05,0.012474,-6.1225e-05,-17.069,1.6177
29283,16.077,5.7273,0.1,0.00017917,1790.5,0.00017885,1781.2,-5.8217e-05,0.0070841,-6.0652e-05,-18.291,1.6317
29284,15.8,5.6364,0.1,0.00018575,1856.2,0.00018546,1847.8,-6.0465e-05,0.012093,-6.2697e-05,-16.759,1.5892
29285,15.892,5.7273,0.1,0.0001837,1835.7,0.00018339,1826.7,-5.9727e-05,0.0068762,-6.2121e-05,-17.983,1.6031
29286,15.616,5.6364,0.1,0.00019031,1901.8,0.00019003,1893.5,-6.1985e-05,0.011737,-6.4177e-05,-16.455,1.5608
29287,15.708,5.7273,0.1,0.00018825,1881.2,0.00018794,1872.3,-6.1243e-05,0.0066964,-6.3597e-05,-17.68,1.5746
29288,15.432,5.6364,0.1,0.00019489,1947.6,0.00019461,1939.5,-6.3512e-05,0.011402,-6.5663e-05,-16.156,1.5325
29289,15.524,5.7273,0.1,0.00019281,1926.8,0.00019251,1918.1,-6.2765e-05,0.0065274,-6.508e-05,-17.384,1.5463
29290,15.247,5.6364,0.1,0.00019949,1993.6,0.00019922,1985.6,-6.5044e-05,0.011072,-6.7157e-05,-15.861,1.5044
29291,15.339,5.7273,0.1,0.0001974,1972.7,0.00019711,1964.1,-6.4294e-05,0.0063856,-6.657e-05,-17.092,1.5181
29292,15.063,5.6364,0.1,0.00020411,2039.7,0.00020384,2031.9,-6.6584e-05,0.010722,-6.8657e-05,-15.57,1.4764
29293,15.155,5.7273,0.1,0.00020201,2018.7,0.00020172,2010.3,-6.583e-05,0.0062233,-6.8067e-05,-16.804,1.49
29294,14.879,5.6364,0.1,0.00020875,2086.1,0.00020849,2078.4,-6.813e-05,0.01037,-7.0165e-05,-15.282,1.4485
29295,14.971,5.7273,0.1,0.00020664,2065,0.00020636,2056.7,-6.7371e-05,0.0060387,-6.9571e-05,-16.52,1.4621
29296,14.695,5.6364,0.1,0.00021342,2132.7,0.00021316,2125.1,-6.9682e-05,0.010033,-7.1679e-05,-14.995,1.4208
29297,14.787,5.7273,0.1,0.00021129,2111.5,0.00021101,2103.3,-6.892e-05,0.0058767,-7.1082e-05,-16.238,1.4343
29298,14.51,5.6364,0.1,0.0002181,2179.5,0.00021784,2172.1,-7.1241e-05,0.0097085,-7.32e-05,-14.709,1.3933
29299,14.602,5.7273,0.1,0.00021596,2158.1,0.00021569,2150.1,-7.0475e-05,0.0057216,-7.26e-05,-15.959,1.4067
29300,14.326,5.6364,0.1,0.0002228,2226.4,0.00022255,2219.2,-7.2807e-05,0.0093774,-7.4728e-05,-14.423,1.3658
29301,14.418,5.7273,0.1,0.00022065,2205,0.00022038,2197.1,-7.2037e-05,0.0055915,-7.4124e-05,-15.68,1.3792
29302,14.142,5.6364,0.1,0.00022752,2273.6,0.00022728,2266.5,-7.4379e-05,0.0090108,-7.6262e-05,-14.136,1.3386
29303,14.234,5.7273,0.1,0.00022536,2252.1,0.0002251,2244.3,-7.3605e-05,0.0054306,-7.5656e-05,-15.402,1.3518
29304,13.957,5.6364,0.1,0.00023226,2321,0.00023202,2314.1,-7.5959e-05,0.0086331,-7.7803e-05,-13.847,1.3114
29305,14.05,5.7273,0.1,0.00023009,2299.4,0.00022983,2291.8,-7.518e-05,0.0052401,-7.7194e-05,-15.124,1.3246
29306,13.773,5.6364,0.1,0.00023702,2368.6,0.00023679,2361.8,-7.7545e-05,0.0082589,-7.935e-05,-13.555,1.2845
29307,13.865,5.7273,0.1,0.00023485,2346.8,0.00023459,2339.4,-7.6762e-05,0.0050692,-7.8738e-05,-14.844,1.2976
29308,13.589,5.6364,0.1,0.00024181,2416.4,0.00024158,2409.7,-7.9138e-05,0.0078881,-8.0903e-05,-13.259,1.2577
29309,13.681,5.7273,0.1,0.00023962,2394.5,0.00023937,2387.2,-7.8351e-05,0.0049009,-8.029e-05,-14.563,1.2707
29310,13.405,5.6364,0.1,0.00024661,2464.4,0.00024639,2457.9,-8.0738e-05,0.0074985,-8.2463e-05,-12.957,1.231
29311,13.497,5.7273,0.1,0.00024441,2442.4,0.00024416,2435.2,-7.9947e-05,0.0047543,-8.1847e-05,-14.278,1.2439
29312,13.22,5.6364,0.1,0.00025143,2512.6,0.00025121,2506.2,-8.2345e-05,0.0070579,-8.4029e-05,-12.649,1.2045
29313,13.313,5.7273,0.1,0.00024922,2490.5,0.00024898,2483.5,-8.1549e-05,0.00457,-8.3412e-05,-13.989,1.2174
29314,13.036,5.6364,0.1,0.00025628,2561,0.00025606,2554.8,-8.3959e-05,0.0065938,-8.5601e-05,-12.334,1.1782
29315,13.128,5.7273,0.1,0.00025406,2538.8,0.00025382,2531.9,-8.3159e-05,0.0043476,-8.4982e-05,-13.696,1.191
29316,12.852,5.6364,0.1,0.00026114,2609.6,0.00026093,2603.6,-8.558e-05,0.0061212,-8.7179e-05,-12.009,1.1521
29317,12.944,5.7273,0.1,0.00025891,2587.3,0.00025868,2580.6,-8.4775e-05,0.0041429,-8.6559e-05,-13.397,1.1647
29318,12.668,5.6364,0.1,0.00026602,2658.4,0.00026582,2652.5,-8.7208e-05,0.0056397,-8.8762e-05,-11.675,1.1261
29319,12.76,5.7273,0.1,0.00026378,2636,0.00026356,2629.4,-8.6399e-05,0.0039361,-8.8142e-05,-13.09,1.1387
29320,12.483,5.6364,0.1,0.00027093,2707.4,0.00027073,2701.7,-8.8843e-05,0.0051259,-9.0352e-05,-11.328,1.1004
29321,12.575,5.7273,0.1,0.00026868,2684.9,0.00026846,2678.5,-8.803e-05,0.0037498,-8.9731e-05,-12.776,1.1128
29322,12.299,5.6364,0.1,0.00027585,2756.6,0.00027566,2751.1,-9.0486e-05,0.0045428,-9.1947e-05,-10.969,1.0748
29323,12.391,5.7273,0.1,0.00027359,2734,0.00027338,2727.8,-8.9668e-05,0.0035187,-9.1326e-05,-12.452,1.0871
29324,12.115,5.6364,0.1,0.00028079,2806,0.00028061,2800.7,-9.2137e-05,0.0039197,-9.3547e-05,-10.595,1.0494
29325,12.207,5.7273,0.1,0.00027853,2783.4,0.00027832,2777.3,-9.1313e-05,0.0032416,-9.2926e-05,-12.118,1.0616
29326,11.931,5.6364,0.1,0.00028576,2855.6,0.00028558,2850.5,-9.3794e-05,0.003274,-9.5153e-05,-10.205,1.0242
29327,12.023,5.7273,0.1,0.00028348,2832.9,0.00028328,2827,-9.2966e-05,0.002983,-9.4533e-05,-11.773,1.0363
29328,11.746,5.6364,0.1,0.00029074,2905.4,0.00029058,2900.5,-9.546e-05,0.0026033,-9.6764e-05,-9.7972,0.99913
29329,11.838,5.7273,0.1,0.00028846,2882.6,0.00028827,2876.9,-9.4626e-05,0.0027204,-9.6145e-05,-11.414,1.0112
29330,11.562,5.6364,0.1,0.00029575,2955.5,0.00029559,2950.8,-9.7133e-05,0.001881,-9.838e-05,-9.3692,0.9743
29331,11.654,5.7273,0.1,0.00029346,2932.6,0.00029327,2927,-9.6294e-05,0.0024802,-9.7763e-05,-11.04,0.98622
29332,11.378,5.6364,0.1,0.00030077,3005.7,0.00030062,3001.2,-9.8813e-05,0.0010673,-0.0001,-8.9196,0.94967
29333,11.47,5.7273,0.1,0.00029848,2982.7,0.00029829,2977.4,-9.7969e-05,0.0021917,-9.9387e-05,-10.65,0.96148
29334,11.193,5.6364,0.1,0.00030582,3056.1,0.00030568,3051.9,-0.0001005,0.00019315,-0.00010163,-8.4461,0.92524
29335,11.286,5.7273,0.1,0.00030352,3033.1,0.00030334,3027.9,-9.9652e-05,0.0018588,-0.00010102,-10.243,0.93695
29336,11.009,5.6364,0.1,0.00031089,3106.7,0.00031075,3102.7,-0.0001022,-0.00072245,-0.00010326,-7.9465,0.90102
29337,11.101,5.7273,0.1,0.00030857,3083.6,0.00030841,3078.7,-0.00010134,0.0015529,-0.00010265,-9.8164,0.91262
29338,10.825,5.6364,0.1,0.00031597,3157.5,0.00031585,3153.8,-0.0001039,-0.0016818,-0.00010489,-7.4187,0.87702
29339,10.917,5.7273,0.1,0.00031365,3134.4,0.00031349,3129.7,-0.00010304,0.0012562,-0.00010429,-9.3684,0.88849
29340,10.641,5.6364,0.1,0.00032108,3208.6,0.00032096,3205.1,-0.00010562,-0.0027139,-0.00010653,-6.8601,0.85322
29341,10.733,5.7273,0.1,0.00031876,3185.4,0.0003186,3180.9,-0.00010475,0.0010032,-0.00010593,-8.8972,0.86458
29342,10.456,5.6364,0.1,0.00032621,3259.8,0.0003261,3256.7,-0.00010734,-0.0038592,-0.00010817,-6.2684,0.82964
29343,10.549,5.7273,0.1,0.00032388,3236.5,0.00032373,3232.3,-0.00010646,0.00072808,-0.00010758,-8.4011,0.84089
29344,10.272,5.6364,0.1,0.00033135,3311.3,0.00033126,3308.4,-0.00010907,-0.0050732,-0.00010982,-5.6407,0.80629
29345,10.364,5.7273,0.1,0.00032902,3287.9,0.00032889,3284,-0.00010819,0.00045191,-0.00010923,-7.878,0.81741
29346,10.088,5.6364,0.1,0.00033652,3362.9,0.00033644,3360.4,-0.00011081,-0.006339,-0.00011147,-4.9744,0.78315
29347,10.18,5.7273,0.1,0.00033418,3339.5,0.00033406,3335.9,-0.00010992,0.00028645,-0.00011089,-7.3256,0.79416
29348,9.9036,5.6364,0.1,0.00034171,3414.8,0.00034164,3412.6,-0.00011255,-0.0076707,-0.00011312,-4.2666,0.76025
29349,9.9957,5.7273,0.1,0.00033937,3391.4,0.00033926,3388,-0.00011166,0.00021457,-0.00011256,-6.7419,0.77113
29350,9.7193,5.6364,0.1,0.00034692,3466.8,0.00034686,3465,-0.00011431,-0.0090284,-0.00011478,-3.5144,0.73757
29351,9.8115,5.7273,0.1,0.00034458,3443.4,0.00034447,3440.3,-0.00011341,0.00031006,-0.00011422,-6.1246,0.74834
29352,9.5351,5.6364,0.1,0.00035215,3519.1,0.0003521,3517.7,-0.00011608,-0.010333,-0.00011644,-2.7149,0.71513
29353,9.6272,5.7273,0.1,0.0003498,3495.6,0.00034971,3492.9,-0.00011516,0.00068858,-0.00011589,-5.4715,0.72577
29354,9.3508,5.6364,0.1,0.0003574,3571.5,0.00035737,3570.6,-0.00011785,-0.011319,-0.0001181,-1.8653,0.69293
29355,9.4429,5.7273,0.1,0.00035505,3548.1,0.00035497,3545.7,-0.00011693,0.0015224,-0.00011757,-4.7805,0.70345
29356,9.1665,5.6364,0.1,0.00036267,3624.2,0.00036266,3623.7,-0.00011963,-0.010596,-0.00011976,-0.96403,0.67098
29357,9.2587,5.7273,0.1,0.00036033,3600.8,0.00036026,3598.7,-0.00011871,0.0031731,-0.00011925,-4.0495,0.68136
29358,8.9823,5.6364,0.1,0.00036796,3677.1,0.00036796,3677.1,-0.00012142,0.066123,-0.00012144,-0.082313,0.64926
29359,9.0744,5.7273,0.1,0.00036562,3653.7,0.00036556,3652,-0.00012049,0.00638,-0.00012093,-3.2769,0.65952
29360,8.798,5.6364,0.1,0.00037328,3730.2,0.00037329,3730.7,-0.00012309,1.0275,-0.00012323,-0.026056,0.6278
29361,8.8901,5.7273,0.1,0.00037093,3706.8,0.00037089,3705.5,-0.00012228,0.012975,-0.00012261,-2.4625,0.63792
29362,8.6137,5.6364,0.1,0.00037861,3783.5,0.00037865,3784.5,-0.00012476,2.1069,-0.00012505,-0.02602,0.60659
29363,8.7059,5.7273,0.1,0.00037627,3760.1,0.00037624,3759.3,-0.00012409,0.028919,-0.0001243,-1.6101,0.61658
29364,8.4295,5.6364,0.1,0.00038397,3837,0.00038402,3838.6,-0.00012644,3.2522,-0.00012687,-0.02791,0.58563
29365,8.5216,5.7273,0.1,0.00038163,3813.6,0.00038162,3813.3,-0.00012589,0.087102,-0.000126,-0.75086,0.59549
29366,8.2452,5.6364,0.1,0.00038934,3890.7,0.00038942,3892.9,-0.00012811,4.464,-0.00012871,-0.030452,0.56494
29367,8.3373,5.7273,0.1,0.00038701,3867.4,0.00038701,3867.6,-0.00012766,0.4873,-0.00012775,-0.1831,0.57465
29368,8.0609,5.6364,0.1,0.00039474,3944.6,0.00039483,3947.5,-0.00012978,5.7429,-0.00013055,-0.033394,0.54451
29369,8.1531,5.7273,0.1,0.00039241,3921.4,0.00039243,3922,-0.00012937,1.408,-0.00012957,-0.084429,0.55409
29370,7.8767,5.6364,0.1,0.00040015,3998.8,0.00040027,4002.3,-0.00013146,7.089,-0.0001324,-0.036657,0.52435
29371,7.9688,5.7273,0.1,0.00039783,3975.6,0.00039787,3976.8,-0.00013108,2.4579,-0.00013141,-0.063185,0.53378
29372,7.6924,5.6364,0.1,0.00040559,4053.1,0.00040573,4057.3,-0.00013313,8.5011,-0.00013427,-0.040215,0.50446
29373,7.7845,5.7273,0.1,0.00040328,4030,0.00040334,4031.7,-0.00013278,3.5728,-0.00013326,-0.055846,0.51375
29374,7.5081,5.6364,0.1,0.00041104,4107.6,0.00041121,4112.5,-0.00013481,9.9766,-0.00013614,-0.044057,0.48484
29375,7.6003,5.7273,0.1,0.00040874,4084.6,0.00040882,4086.9,-0.00013449,4.7419,-0.00013512,-0.05328,0.49399
29376,7.3239,5.6364,0.1,0.00041652,4162.3,0.00041671,4168,-0.00013649,11.511,-0.00013802,-0.048178,0.4655
29377,7.416,5.7273,0.1,0.00041423,4139.4,0.00041433,4142.3,-0.00013619,5.9595,-0.00013699,-0.052993,0.47451
29378,7.1396,5.6364,0.1,0.00042201,4217.1,0.00042223,4223.6,-0.00013816,13.096,-0.00013991,-0.052575,0.44645
29379,7.2317,5.7273,0.1,0.00041973,4194.4,0.00041985,4198,-0.0001379,7.2197,-0.00013887,-0.054039,0.4553
29380,6.9553,5.6364,0.1,0.00042751,4272.1,0.00042776,4279.5,-0.00013984,14.723,-0.00014181,-0.057244,0.42768
29381,7.0475,5.7273,0.1,0.00042525,4249.5,0.00042539,4253.8,-0.00013962,8.515,-0.00014076,-0.055988,0.43639
29382,6.7711,5.6364,0.1,0.00043303,4327.3,0.0004333,4335.4,-0.00014153,16.377,-0.00014371,-0.062177,0.40921
29383,6.8632,5.7273,0.1,0.00043078,4304.8,0.00043095,4309.7,-0.00014133,9.8353,-0.00014265,-0.058616,0.41776
29384,6.5868,5.6364,0.1,0.00043855,4382.5,0.00043885,4391.4,-0.00014321,18.038,-0.00014562,-0.067361,0.39102
29385,6.6789,5.7273,0.1,0.00043632,4360.2,0.00043651,4365.8,-0.00014305,11.167,-0.00014454,-0.061808,0.39942
29386,6.4025,5.6364,0.1,0.00044408,4437.7,0.00044441,4447.5,-0.0001449,19.683,-0.00014753,-0.072776,0.37314
29387,6.4947,5.7273,0.1,0.00044187,4415.7,0.00044208,4421.9,-0.00014477,12.493,-0.00014644,-0.065442,0.38138
29388,6.2183,5.6364,0.1,0.0004496,4492.9,0.00044996,4503.5,-0.00014659,21.279,-0.00014943,-0.078395,0.35555
29389,6.3104,5.7273,0.1,0.00044742,4471.1,0.00044765,4478,-0.00014649,13.79,-0.00014834,-0.069503,0.36364
29390,6.034,5.6364,0.1,0.00045512,4548,0.0004555,4559.3,-0.00014828,22.785,-0.00015132,-0.084181,0.33827
29391,6.1261,5.7273,0.1,0.00045296,4526.5,0.00045321,4533.9,-0.00014822,15.03,-0.00015023,-0.073932,0.3462
29392,5.8497,5.6364,0.1,0.0004606,4602.9,0.00046101,4614.9,-0.00014998,24.152,-0.0001532,-0.090093,0.3213
29393,5.9419,5.7273,0.1,0.00045847,4581.6,0.00045875,4589.6,-0.00014994,16.179,-0.0001521,-0.078688,0.32908
29394,5.6655,5.6364,0.1,0.00046605,4657.3,0.00046648,4669.9,-0.00015168,25.316,-0.00015506,-0.096083,0.30465
29395,5.7576,5.7273,0.1,0.00046396,4636.4,0.00046424,4644.9,-0.00015166,17.191,-0.00015396,-0.083733,0.31226
29396,5.4812,5.6364,0.1,0.00047144,4711.2,0.00047188,4724.1,-0.00015338,26.203,-0.00015688,-0.10211,0.28831
29397,5.5733,5.7273,0.1,0.00046938,4690.6,0.00046968,4699.5,-0.00015338,18.013,-0.00015579,-0.089036,0.29576
29398,5.2969,5.6364,0.1,0.00047674,4764.1,0.00047719,4777.4,-0.00015508,26.719,-0.00015865,-0.10817,0.27229
29399,5.3891,5.7273,0.1,0.00047472,4743.9,0.00047503,4753.2,-0.0001551,18.58,-0.00015759,-0.094577,0.27957
29400,5.1127,5.6364,0.1,0.00048191,4815.8,0.00048236,4829.1,-0.00015679,26.754,-0.00016036,-0.11432,0.25659
29401,5.2048,5.7273,0.1,0.00047995,4796.2,0.00048026,4805.5,-0.0001568,18.815,-0.00015932,-0.10037,0.26371
29402,4.9284,5.6364,0.1,0.00048692,4865.8,0.00048736,4878.8,-0.00015849,26.179,-0.00016199,-0.1208,0.24122
29403,5.0205,5.7273,0.1,0.00048501,4846.8,0.00048532,4856,-0.00015849,18.626,-0.00016098,-0.10653,0.24818
29404,4.7441,5.6364,0.1,0.00049169,4913.5,0.00049211,4925.8,-0.00016017,24.84,-0.0001635,-0.12828,0.22619
29405,4.8363,5.7273,0.1,0.00048986,4895.2,0.00049016,4904.1,-0.00016015,17.903,-0.00016255,-0.11336,0.23297
29406,4.5599,5.6364,0.1,0.00049615,4958.1,0.00049653,4969.3,-0.00016184,22.563,-0.00016486,-0.13844,0.21148
29407,4.652,5.7273,0.1,0.00049441,4940.7,0.00049469,4948.9,-0.00016177,16.522,-0.00016398,-0.12169,0.2181
29408,4.3756,5.6364,0.1,0.0005002,4998.6,0.00050052,5008.1,-0.00016346,19.153,-0.00016603,-0.15586,0.19712
29409,4.4677,5.7273,0.1,0.00049858,4982.3,0.00049882,4989.4,-0.00016333,14.342,-0.00016525,-0.13376,0.20356
29410,4.1913,5.6364,0.1,0.00050371,5033.7,0.00050395,5040.8,-0.00016501,14.402,-0.00016696,-0.19541,0.18309
29411,4.2835,5.7273,0.1,0.00050224,5018.9,0.00050242,5024.4,-0.00016479,11.205,-0.00016631,-0.15641,0.18936
29412,4.0071,5.6364,0.1,0.00050652,5061.7,0.00050665,5065.6,-0.00016645,8.1452,-0.00016758,-0.33218,0.16941
29413,4.0992,5.7273,0.1,0.00050523,5048.8,0.00050535,5052.2,-0.00016613,6.9622,-0.00016709,-0.21976,0.17551
29414,3.8228,5.6364,0.1,0.00050841,5080.6,0.0005084,5080.4,-0.00016756,1.4787,-0.00016801,-1.9131,0.15607
29415,3.9149,5.7273,0.1,0.00050737,5070.2,0.00050739,5070.8,-0.00016725,1.8113,-0.00016758,-0.71366,0.16199
29416,3.6385,5.6364,0.1,0.00050912,5087.7,0.00050893,5082.3,-0.00016743,0.31155,-0.00016895,-11.091,0.14307
29417,3.7307,5.7273,0.1,0.00050841,5080.6,0.00050831,5077.6,-0.00016745,0.17785,-0.00016831,-6.2632,0.14882
29418,3.4543,5.6364,0.1,0.00050832,5079.7,0.00050791,5067.9,-0.00016655,0.21058,-0.00016973,-23.648,0.13043
29419,3.5464,5.7273,0.1,0.00050805,5077,0.00050779,5069.5,-0.0001669,0.072886,-0.00016892,-15.072,0.136
29420,3.27,5.6364,0.1,0.00050559,5052.4,0.00050492,5033,-0.0001649,0.20435,-0.00017009,-38.758,0.11812
29421,3.3621,5.7273,0.1,0.0005059,5055.5,0.00050545,5042.5,-0.00016566,0.05277,-0.00016911,-25.864,0.12352
29422,3.0857,5.6364,0.1,0.00050044,5000.9,0.00049946,4972.6,-0.00016232,0.22842,-0.00016986,-56.384,0.10616
29423,3.1779,5.7273,0.1,0.0005015,5011.6,0.00050083,4992.1,-0.00016357,0.051581,-0.00016873,-38.683,0.11138
29424,2.9015,5.6364,0.1,0.00049224,4919,0.0004909,4880.5,-0.00015862,0.26769,-0.00016882,-76.34,0.094544
29425,2.9936,5.7273,0.1,0.0004943,4939.6,0.00049337,4912.7,-0.00016046,0.054983,-0.00016759,-53.523,0.099589
29426,2.7172,5.6364,0.1,0.00048028,4799.5,0.00047854,4749.8,-0.00015358,0.31548,-0.00016669,-98.15,0.083258
29427,2.8093,5.7273,0.1,0.00048364,4833.1,0.00048241,4797.6,-0.00015611,0.055504,-0.00016546,-70.217,0.088128
29428,2.5329,5.6364,0.1,0.00046373,4634.1,0.00046156,4572.6,-0.00014697,0.36761,-0.00016311,-120.94,0.072296
29429,2.6251,5.7273,0.1,0.00046875,4684.2,0.00046718,4639.5,-0.00015029,0.047809,-0.00016205,-88.351,0.076995
29430,2.3487,5.6364,0.1,0.00044166,4413.5,0.00043905,4340.3,-0.00013855,0.42521,-0.00015768,-143.31,0.061648
29431,2.4408,5.7273,0.1,0.00044878,4484.7,0.00044686,4430.1,-0.00014275,0.029427,-0.00015702,-107.16,0.066179
29432,2.1644,5.6364,0.1,0.00041314,4128.5,0.00041012,4044.7,-0.00012812,0.49864,-0.00014993,-163.34,0.051298
29433,2.2565,5.7273,0.1,0.00042283,4225.3,0.00042055,4161.2,-0.00013327,0.012319,-0.00014997,-125.45,0.055665
29434,1.9801,5.6364,0.1,0.00037735,3770.9,0.000374,3678.7,-0.00011551,0.65583,-0.00013939,-178.74,0.041226
29435,2.0723,5.7273,0.1,0.00039003,3897.6,0.00038743,3824.9,-0.00012163,0.029455,-0.00014048,-141.57,0.045437
29436,1.7959,5.6364,0.1,0.00033385,3336.2,0.00033028,3238.9,-0.00010066,0.9983,-0.00012577,-187.64,0.03141
29437,1.888,5.7273,0.1,0.00034971,3494.7,0.00034684,3415.5,-0.00010769,0.24473,-0.00012816,-153.56,0.035473
29438,1.6116,5.6364,0.1,0.00028308,2828.9,0.00027938,2729.7,-8.3626e-05,2.209,-0.0001093,-190.66,0.021826
29439,1.7037,5.7273,0.1,0.0003016,3013.9,0.00029858,2931.2,-9.1433e-05,0.83696,-0.00011282,-159.89,0.025749
29440,1.4273,5.6364,0.1,0.00022781,2276.5,0.0002238,2172,-6.4756e-05,3.8694,-9.1799e-05,-199.32,0.012482
29441,1.5195,5.7273,0.1,0.00024636,2461.9,0.00024326,2378.8,-7.2898e-05,3.307,-9.48e-05,-161.26,0.016255
29442,1.2431,5.6364,0.1,0.00018006,1799.3,0.00017382,1649.5,-4.428e-05,10.792,-8.2443e-05,-275.95,0.0038577
29443,1.3352,5.7273,0.1,0.00018719,1870.6,0.00018374,1781.4,-5.2541e-05,6.0816,-7.6229e-05,-171.9,0.0071077
29444,1.1509,5.7273,0.1,0.00014023,1401.4,0.00013357,1251.1,-3.0164e-05,20.896,-6.9459e-05,-274.35,0.0037395
29445,1.0588,5.6364,0.1,0.00013077,1306.8,0.00012367,1141.3,-2.8834e-05,-4.5099,-6.5744e-05,-281.84,0.0068901
29446,23.724,5.8182,0.1,7.7513e-06,77.46,6.6003e-06,54.934,-6.6968e-07,0.31049,-5.1981e-06,-33.714,2.8883
29447,23.816,5.9091,0.1,4.8953e-06,48.919,4.1614e-06,34.525,-4.2373e-07,0.073915,-3.2909e-06,-21.469,2.9037
29448,23.908,5.8182,0.1,4.8638e-06,48.604,3.2096e-06,20.554,4.7884e-07,0.036015,-4.1768e-06,-34.945,2.9194
29449,23.539,5.8182,0.1,1.1231e-05,112.23,1.0282e-05,91.763,-1.9154e-06,0.11565,-6.3775e-06,-33.411,2.8571
29450,23.631,5.9091,0.1,8.2606e-06,82.549,7.658e-06,69.169,-1.5668e-06,-0.14186,-4.4964e-06,-22.154,2.8726
29451,23.355,5.8182,0.1,1.4979e-05,149.69,1.4117e-05,129.96,-3.167e-06,0.10053,-7.6729e-06,-33.755,2.826
29452,23.447,5.9091,0.1,1.1888e-05,118.8,1.1341e-05,105.86,-2.7545e-06,-0.047338,-5.7551e-06,-22.593,2.8415
29453,23.171,5.8182,0.1,1.8813e-05,188,1.8002e-05,168.69,-4.4392e-06,0.072787,-8.979e-06,-34.038,2.7949
29454,23.263,5.9091,0.1,1.5631e-05,156.2,1.5115e-05,143.48,-3.9854e-06,-0.033786,-7.0277e-06,-22.892,2.8104
29455,22.987,5.8182,0.1,2.2691e-05,226.75,2.1915e-05,207.74,-5.7256e-06,0.057446,-1.0283e-05,-34.182,2.7638
29456,23.079,5.9091,0.1,1.9437e-05,194.23,1.8942e-05,181.69,-5.2411e-06,-0.015104,-8.3034e-06,-23.024,2.7793
29457,22.802,5.8182,0.1,2.6595e-05,265.77,2.5848e-05,247.03,-7.0239e-06,0.044584,-1.1581e-05,-34.196,2.7328
29458,22.894,5.9091,0.1,2.3287e-05,232.71,2.2809e-05,220.33,-6.5158e-06,-0.006951,-9.5814e-06,-23.041,2.7482
29459,22.618,5.8182,0.1,3.0518e-05,304.97,2.9795e-05,286.51,-8.3317e-06,0.035141,-1.2874e-05,-34.098,2.7017
29460,22.71,5.9091,0.1,2.717e-05,271.52,2.6707e-05,259.3,-7.8045e-06,-0.0010876,-1.0861e-05,-22.969,2.7171
29461,22.434,5.8182,0.1,3.4457e-05,344.33,3.3755e-05,326.14,-9.6475e-06,0.027734,-1.4164e-05,-33.907,2.6707
29462,22.526,5.9091,0.1,3.108e-05,310.58,3.0628e-05,298.54,-9.1044e-06,0.0024943,-1.2143e-05,-22.83,2.6861
29463,22.249,5.8182,0.1,3.8409e-05,383.83,3.7726e-05,365.91,-1.097e-05,0.021953,-1.5451e-05,-33.643,2.6396
29464,22.342,5.9091,0.1,3.5011e-05,349.86,3.457e-05,338,-1.0413e-05,0.0048919,-1.3427e-05,-22.64,2.6551
29465,22.065,5.8182,0.1,4.2373e-05,423.44,4.1708e-05,405.8,-1.2299e-05,0.017372,-1.6735e-05,-33.318,2.6086
29466,22.157,5.9091,0.1,3.8961e-05,389.34,3.8531e-05,377.65,-1.173e-05,0.0064631,-1.4714e-05,-22.409,2.624
29467,21.881,5.8182,0.1,4.6349e-05,463.17,4.5701e-05,445.82,-1.3633e-05,0.013725,-1.802e-05,-32.945,2.5777
29468,21.973,5.9091,0.1,4.2927e-05,428.98,4.2508e-05,417.48,-1.3054e-05,0.0074875,-1.6003e-05,-22.147,2.5931
29469,21.697,5.8182,0.1,5.0336e-05,503.01,4.9704e-05,485.96,-1.4972e-05,0.010798,-1.9304e-05,-32.534,2.5467
29470,21.789,5.9091,0.1,4.691e-05,468.78,4.65e-05,457.47,-1.4384e-05,0.008145,-1.7295e-05,-21.86,2.5621
29471,21.512,5.8182,0.1,5.4335e-05,542.97,5.3718e-05,526.22,-1.6317e-05,0.0084337,-2.0589e-05,-32.094,2.5158
29472,21.605,5.9091,0.1,5.0908e-05,508.73,5.0507e-05,497.62,-1.572e-05,0.0085271,-1.859e-05,-21.555,2.5312
29473,21.328,5.8182,0.1,5.8345e-05,583.05,5.7743e-05,566.6,-1.7665e-05,0.0065235,-2.1876e-05,-31.63,2.4849
29474,21.42,5.9091,0.1,5.4921e-05,548.83,5.4529e-05,537.91,-1.7061e-05,0.0087207,-1.9889e-05,-21.236,2.5003
29475,21.144,5.8182,0.1,6.2368e-05,623.25,6.178e-05,607.1,-1.9019e-05,0.0049808,-2.3165e-05,-31.15,2.4541
29476,21.236,5.9091,0.1,5.8948e-05,589.08,5.8565e-05,578.35,-1.8407e-05,0.0087861,-2.1191e-05,-20.907,2.4694
29477,20.96,5.8182,0.1,6.6404e-05,663.58,6.583e-05,647.72,-2.0377e-05,0.0037358,-2.4458e-05,-30.658,2.4233
29478,21.052,5.9091,0.1,6.299e-05,629.47,6.2615e-05,618.93,-1.9759e-05,0.0087581,-2.2498e-05,-20.57,2.4386
29479,20.775,5.8182,0.1,7.0453e-05,704.05,6.9892e-05,688.48,-2.1739e-05,0.0027302,-2.5754e-05,-30.159,2.3925
29480,20.867,5.9091,0.1,6.7046e-05,670,6.668e-05,659.66,-2.1115e-05,0.0086703,-2.3809e-05,-20.23,2.4078
29481,20.591,5.8182,0.1,7.4516e-05,744.64,7.3967e-05,729.38,-2.3107e-05,0.0019102,-2.7054e-05,-29.655,2.3618
29482,20.683,5.9091,0.1,7.1118e-05,710.69,7.0759e-05,700.54,-2.2476e-05,0.0085284,-2.5124e-05,-19.887,2.377
29483,20.407,5.8182,0.1,7.8593e-05,785.39,7.8056e-05,770.41,-2.4478e-05,0.0012491,-2.8358e-05,-29.15,2.3312
29484,20.499,5.9091,0.1,7.5204e-05,751.52,7.4852e-05,741.56,-2.3842e-05,0.0083461,-2.6445e-05,-19.545,2.3463
29485,20.223,5.8182,0.1,8.2685e-05,826.28,8.216e-05,811.58,-2.5855e-05,0.00072353,-2.9667e-05,-28.646,2.3006
29486,20.315,5.9091,0.1,7.9305e-05,792.51,7.8961e-05,782.74,-2.5213e-05,0.0081523,-2.777e-05,-19.203,2.3157
29487,20.038,5.8182,0.1,8.6792e-05,867.32,8.6279e-05,852.9,-2.7236e-05,0.00031262,-3.0982e-05,-28.145,2.27
29488,20.13,5.9091,0.1,8.3423e-05,833.65,8.3086e-05,824.06,-2.6589e-05,0.0079447,-2.9101e-05,-18.865,2.2851
29489,19.854,5.8182,0.1,9.0914e-05,908.52,9.0412e-05,894.38,-2.8622e-05,-9.5503e-06,-3.2302e-05,-27.649,2.2395
29490,19.946,5.9091,0.1,8.7556e-05,874.95,8.7226e-05,865.55,-2.797e-05,0.0077432,-3.0437e-05,-18.53,2.2546
29491,19.67,5.8182,0.1,9.5053e-05,949.88,9.4562e-05,936.01,-3.0013e-05,-0.00027021,-3.3627e-05,-27.16,2.209
29492,19.762,5.9091,0.1,9.1705e-05,916.42,9.1382e-05,907.19,-2.9356e-05,0.0075284,-3.1779e-05,-18.199,2.2241
29493,19.485,5.8182,0.1,9.9209e-05,991.4,9.8728e-05,977.79,-3.1409e-05,-0.00047088,-3.4959e-05,-26.678,2.1787
29494,19.578,5.9091,0.1,9.5871e-05,958.05,9.5555e-05,948.99,-3.0747e-05,0.0073062,-3.3127e-05,-17.874,2.1937
29495,19.301,5.8182,0.1,0.00010338,1033.1,0.00010291,1019.7,-3.281e-05,-0.00061685,-3.6297e-05,-26.204,2.1483
29496,19.393,5.9091,0.1,0.00010005,999.85,9.9744e-05,990.96,-3.2144e-05,0.007095,-3.4481e-05,-17.555,2.1633
29497,19.117,5.8182,0.1,0.00010757,1075,0.00010711,1061.9,-3.4216e-05,-0.00071511,-3.7641e-05,-25.74,2.1181
29498,19.209,5.9091,0.1,0.00010425,1041.8,0.00010395,1033.1,-3.3546e-05,0.0068925,-3.5841e-05,-17.242,2.133
29499,18.933,5.8182,0.1,0.00011178,1117,0.00011133,1104.2,-3.5627e-05,-0.00077966,-3.8992e-05,-25.285,2.0879
29500,19.025,5.9091,0.1,0.00010847,1084,0.00010817,1075.4,-3.4953e-05,0.0067087,-3.7208e-05,-16.936,2.1028
29501,18.748,5.8182,0.1,0.000116,1159.2,0.00011556,1146.6,-3.7044e-05,-0.00083006,-4.035e-05,-24.84,2.0578
29502,18.841,5.9091,0.1,0.00011271,1126.3,0.00011241,1117.9,-3.6365e-05,0.0065203,-3.858e-05,-16.637,2.0727
29503,18.564,5.8182,0.1,0.00012025,1201.6,0.00011981,1189.3,-3.8467e-05,-0.00085929,-4.1715e-05,-24.406,2.0278
29504,18.656,5.9091,0.1,0.00011696,1168.8,0.00011667,1160.5,-3.7783e-05,0.0063262,-3.996e-05,-16.345,2.0426
29505,18.38,5.8182,0.1,0.00012451,1244.2,0.00012408,1232.1,-3.9894e-05,-0.00086412,-4.3086e-05,-23.981,1.9978
29506,18.472,5.9091,0.1,0.00012123,1211.5,0.00012095,1203.4,-3.9207e-05,0.0061523,-4.1345e-05,-16.059,2.0126
29507,18.196,5.8182,0.1,0.00012879,1287,0.00012837,1275.1,-4.1328e-05,-0.00084539,-4.4465e-05,-23.568,1.968
29508,18.288,5.9091,0.1,0.00012552,1254.3,0.00012524,1246.4,-4.0637e-05,0.0059869,-4.2738e-05,-15.781,1.9827
29509,18.011,5.8182,0.1,0.00013309,1330,0.00013268,1318.2,-4.2767e-05,-0.00081439,-4.585e-05,-23.164,1.9382
29510,18.103,5.9091,0.1,0.00012983,1297.4,0.00012956,1289.6,-4.2072e-05,0.0058468,-4.4137e-05,-15.51,1.9528
29511,17.827,5.8182,0.1,0.00013741,1373.1,0.00013701,1361.6,-4.4212e-05,-0.00079119,-4.7243e-05,-22.771,1.9085
29512,17.919,5.9091,0.1,0.00013415,1340.6,0.00013389,1332.9,-4.3513e-05,0.0056975,-4.5543e-05,-15.246,1.9231
29513,17.643,5.8182,0.1,0.00014175,1416.5,0.00014135,1405.2,-4.5663e-05,-0.0007618,-4.8643e-05,-22.387,1.8789
29514,17.735,5.9091,0.1,0.0001385,1384,0.00013824,1376.5,-4.496e-05,0.0055384,-4.6955e-05,-14.989,1.8934
29515,17.459,5.8182,0.1,0.0001461,1460,0.00014572,1448.9,-4.712e-05,-0.00071656,-5.005e-05,-22.014,1.8494
29516,17.551,5.9091,0.1,0.00014286,1427.6,0.00014261,1420.2,-4.6412e-05,0.0054017,-4.8375e-05,-14.738,1.8639
29517,17.274,5.8182,0.1,0.00015048,1503.8,0.0001501,1492.8,-4.8582e-05,-0.00065658,-5.1464e-05,-21.65,1.82
29518,17.366,5.9091,0.1,0.00014725,1471.5,0.00014699,1464.2,-4.7871e-05,0.0052745,-4.9801e-05,-14.494,1.8344
29519,17.09,5.8182,0.1,0.00015488,1547.7,0.0001545,1536.9,-5.0051e-05,-0.00059344,-5.2885e-05,-21.295,1.7907
29520,17.182,5.9091,0.1,0.00015165,1515.4,0.0001514,1508.3,-4.9336e-05,0.0051697,-5.1234e-05,-14.256,1.805
29521,16.906,5.8182,0.1,0.00015929,1591.8,0.00015893,1581.3,-5.1526e-05,-0.00054656,-5.4314e-05,-20.949,1.7615
29522,16.998,5.9091,0.1,0.00015607,1559.6,0.00015583,1552.6,-5.0807e-05,0.0050524,-5.2674e-05,-14.025,1.7758
29523,16.721,5.8182,0.1,0.00016373,1636.2,0.00016337,1625.8,-5.3007e-05,-0.00049899,-5.575e-05,-20.612,1.7323
29524,16.814,5.9091,0.1,0.00016051,1604,0.00016027,1597.1,-5.2284e-05,0.0049206,-5.4121e-05,-13.799,1.7466
29525,16.537,5.8182,0.1,0.00016819,1680.7,0.00016783,1670.5,-5.4494e-05,-0.00043838,-5.7193e-05,-20.282,1.7034
29526,16.629,5.9091,0.1,0.00016497,1648.6,0.00016474,1641.8,-5.3767e-05,0.0048108,-5.5575e-05,-13.579,1.7176
29527,16.353,5.8182,0.1,0.00017266,1725.4,0.00017231,1715.4,-5.5987e-05,-0.00036457,-5.8643e-05,-19.96,1.6745
29528,16.445,5.9091,0.1,0.00016946,1693.4,0.00016922,1686.7,-5.5257e-05,0.0047084,-5.7036e-05,-13.364,1.6886
29529,16.169,5.8182,0.1,0.00017716,1770.4,0.00017682,1760.5,-5.7486e-05,-0.00029078,-6.0101e-05,-19.645,1.6457
29530,16.261,5.9091,0.1,0.00017396,1738.4,0.00017373,1731.8,-5.6752e-05,0.0046278,-5.8504e-05,-13.154,1.6598
29531,15.984,5.8182,0.1,0.00018167,1815.5,0.00018134,1805.7,-5.8992e-05,-0.00023741,-6.1566e-05,-19.337,1.6171
29532,16.077,5.9091,0.1,0.00017848,1783.5,0.00017825,1777,-5.8254e-05,0.0045299,-5.9978e-05,-12.948,1.6311
29533,15.8,5.8182,0.1,0.00018621,1860.8,0.00018588,1851.2,-6.0504e-05,-0.00018373,-6.3038e-05,-19.035,1.5885
29534,15.892,5.9091,0.1,0.00018302,1828.9,0.0001828,1822.5,-5.9763e-05,0.0044123,-6.146e-05,-12.747,1.6025
29535,15.616,5.8182,0.1,0.00019077,1906.4,0.00019044,1896.9,-6.2023e-05,-0.00011687,-6.4517e-05,-18.738,1.5601
29536,15.708,5.9091,0.1,0.00018758,1874.5,0.00018736,1868.2,-6.1278e-05,0.0043169,-6.2949e-05,-12.551,1.574
29537,15.432,5.8182,0.1,0.00019535,1952.1,0.00019502,1942.8,-6.3548e-05,-3.511e-05,-6.6003e-05,-18.447,1.5319
29538,15.524,5.9091,0.1,0.00019216,1920.3,0.00019195,1914.1,-6.2799e-05,0.0042264,-6.4444e-05,-12.358,1.5457
29539,15.247,5.8182,0.1,0.00019994,1998,0.00019963,1988.9,-6.5079e-05,4.6517e-05,-6.7496e-05,-18.16,1.5037
29540,15.339,5.9091,0.1,0.00019676,1966.2,0.00019655,1960.1,-6.4327e-05,0.0041577,-6.5947e-05,-12.168,1.5174
29541,15.063,5.8182,0.1,0.00020456,2044.2,0.00020425,2035.2,-6.6617e-05,0.00010515,-6.8997e-05,-17.878,1.4757
29542,15.155,5.9091,0.1,0.00020138,2012.4,0.00020117,2006.4,-6.5861e-05,0.004066,-6.7456e-05,-11.982,1.4894
29543,14.879,5.8182,0.1,0.0002092,2090.5,0.00020889,2081.7,-6.8162e-05,0.00016473,-7.0504e-05,-17.599,1.4479
29544,14.971,5.9091,0.1,0.00020602,2058.8,0.00020582,2052.9,-6.7401e-05,0.0039505,-6.8972e-05,-11.798,1.4614
29545,14.695,5.8182,0.1,0.00021386,2137.1,0.00021356,2128.4,-6.9713e-05,0.00023995,-7.2019e-05,-17.323,1.4201
29546,14.787,5.9091,0.1,0.00021068,2105.4,0.00021048,2099.5,-6.8949e-05,0.003855,-7.0495e-05,-11.617,1.4336
29547,14.51,5.8182,0.1,0.00021854,2183.9,0.00021824,2175.3,-7.1271e-05,0.00033366,-7.354e-05,-17.049,1.3925
29548,14.602,5.9091,0.1,0.00021536,2152.2,0.00021517,2146.4,-7.0502e-05,0.0037645,-7.2025e-05,-11.438,1.4059
29549,14.326,5.8182,0.1,0.00022324,2230.8,0.00022295,2222.4,-7.2835e-05,0.00042913,-7.5068e-05,-16.777,1.3651
29550,14.418,5.9091,0.1,0.00022007,2199.1,0.00021987,2193.5,-7.2063e-05,0.0036961,-7.3562e-05,-11.26,1.3784
29551,14.142,5.8182,0.1,0.00022796,2278,0.00022767,2269.7,-7.4406e-05,0.00050069,-7.6603e-05,-16.506,1.3378
29552,14.234,5.9091,0.1,0.00022479,2246.3,0.0002246,2240.8,-7.363e-05,0.0035984,-7.5106e-05,-11.084,1.351
29553,13.957,5.8182,0.1,0.0002327,2325.4,0.00023242,2317.2,-7.5984e-05,0.00057474,-7.8145e-05,-16.236,1.3107
29554,14.05,5.9091,0.1,0.00022953,2293.7,0.00022934,2288.3,-7.5204e-05,0.0034724,-7.6656e-05,-10.909,1.3238
29555,13.773,5.8182,0.1,0.00023746,2372.9,0.00023718,2364.9,-7.7568e-05,0.00066908,-7.9693e-05,-15.965,1.2837
29556,13.865,5.9091,0.1,0.00023429,2341.3,0.00023411,2335.9,-7.6785e-05,0.0033663,-7.8214e-05,-10.734,1.2968
29557,13.589,5.8182,0.1,0.00024224,2420.7,0.00024197,2412.8,-7.916e-05,0.00078643,-8.1249e-05,-15.694,1.2569
29558,13.681,5.9091,0.1,0.00023908,2389.1,0.0002389,2383.8,-7.8372e-05,0.0032634,-7.9778e-05,-10.559,1.2698
29559,13.405,5.8182,0.1,0.00024704,2468.7,0.00024677,2461,-8.0758e-05,0.00090921,-8.2811e-05,-15.421,1.2302
29560,13.497,5.9091,0.1,0.00024388,2437.1,0.0002437,2431.9,-7.9966e-05,0.0031837,-8.1349e-05,-10.385,1.2431
29561,13.22,5.8182,0.1,0.00025186,2516.9,0.0002516,2509.3,-8.2363e-05,0.0010099,-8.4379e-05,-15.145,1.2037
29562,13.313,5.9091,0.1,0.00024871,2485.4,0.00024853,2480.2,-8.1567e-05,0.003071,-8.2926e-05,-10.209,1.2165
29563,13.036,5.8182,0.1,0.00025671,2565.3,0.00025645,2557.8,-8.3975e-05,0.0011171,-8.5954e-05,-14.867,1.1774
29564,13.128,5.9091,0.1,0.00025355,2533.8,0.00025338,2528.8,-8.3175e-05,0.002924,-8.4511e-05,-10.032,1.1901
29565,12.852,5.8182,0.1,0.00026157,2613.9,0.00026132,2606.6,-8.5595e-05,0.0012521,-8.7536e-05,-14.584,1.1513
29566,12.944,5.9091,0.1,0.00025842,2582.4,0.00025825,2577.5,-8.479e-05,0.002799,-8.6102e-05,-9.8534,1.1639
29567,12.668,5.8182,0.1,0.00026646,2662.7,0.00026621,2655.5,-8.7221e-05,0.0014183,-8.9124e-05,-14.297,1.1253
29568,12.76,5.9091,0.1,0.00026331,2631.3,0.00026314,2626.4,-8.6412e-05,0.0026758,-8.77e-05,-9.6727,1.1378
29569,12.483,5.8182,0.1,0.00027136,2711.7,0.00027112,2704.7,-8.8854e-05,0.0015969,-9.0718e-05,-14.004,1.0995
29570,12.575,5.9091,0.1,0.00026822,2680.3,0.00026805,2675.6,-8.8041e-05,0.0025787,-8.9304e-05,-9.4891,1.1119
29571,12.299,5.8182,0.1,0.00027629,2761,0.00027605,2754.1,-9.0495e-05,0.0017588,-9.2319e-05,-13.704,1.0739
29572,12.391,5.9091,0.1,0.00027315,2729.6,0.00027299,2724.9,-8.9677e-05,0.0024443,-9.0915e-05,-9.3023,1.0862
29573,12.115,5.8182,0.1,0.00028123,2810.4,0.000281,2803.7,-9.2143e-05,0.0019383,-9.3926e-05,-13.397,1.0485
29574,12.207,5.9091,0.1,0.0002781,2779.1,0.00027794,2774.5,-9.132e-05,0.0022739,-9.2533e-05,-9.1118,1.0607
29575,11.931,5.8182,0.1,0.0002862,2860,0.00028598,2853.5,-9.3798e-05,0.0021599,-9.5539e-05,-13.081,1.0232
29576,12.023,5.9091,0.1,0.00028307,2828.7,0.00028292,2824.3,-9.2971e-05,0.0021302,-9.4158e-05,-8.9167,1.0353
29577,11.746,5.8182,0.1,0.00029119,2909.9,0.00029097,2903.5,-9.546e-05,0.0024301,-9.7158e-05,-12.756,0.99818
29578,11.838,5.9091,0.1,0.00028806,2878.6,0.00028791,2874.3,-9.4628e-05,0.001991,-9.5789e-05,-8.7167,1.0102
29579,11.562,5.8182,0.1,0.0002962,2960,0.00029599,2953.7,-9.713e-05,0.002731,-9.8783e-05,-12.419,0.97334
29580,11.654,5.9091,0.1,0.00029308,2928.7,0.00029293,2924.5,-9.6293e-05,0.0018856,-9.7426e-05,-8.5108,0.98523
29581,11.378,5.8182,0.1,0.00030123,3010.2,0.00030102,3004.2,-9.8808e-05,0.0030346,-0.00010041,-12.071,0.94869
29582,11.47,5.9091,0.1,0.00029811,2979.1,0.00029797,2974.9,-9.7966e-05,0.0017446,-9.9071e-05,-8.2986,0.96048
29583,11.193,5.8182,0.1,0.00030628,3060.7,0.00030608,3054.9,-0.00010049,0.003384,-0.00010205,-11.709,0.92425
29584,11.286,5.9091,0.1,0.00030317,3029.6,0.00030303,3025.6,-9.9646e-05,0.0015753,-0.00010072,-8.0794,0.93593
29585,11.009,5.8182,0.1,0.00031136,3111.4,0.00031116,3105.7,-0.00010219,0.0038118,-0.00010369,-11.332,0.90002
29586,11.101,5.9091,0.1,0.00030825,3080.4,0.00030812,3076.4,-0.00010133,0.0014461,-0.00010238,-7.8522,0.91158
29587,10.825,5.8182,0.1,0.00031645,3162.3,0.00031626,3156.8,-0.00010389,0.0043329,-0.00010534,-10.939,0.87599
29588,10.917,5.9091,0.1,0.00031335,3131.4,0.00031322,3127.5,-0.00010303,0.0013387,-0.00010404,-7.6164,0.88745
29589,10.641,5.8182,0.1,0.00032157,3213.5,0.00032139,3208.2,-0.00010559,0.0049389,-0.000107,-10.529,0.85218
29590,10.733,5.9091,0.1,0.00031848,3182.6,0.00031835,3178.9,-0.00010473,0.0012887,-0.00010571,-7.3711,0.86352
29591,10.456,5.8182,0.1,0.00032671,3264.8,0.00032653,3259.7,-0.00010731,0.0056155,-0.00010866,-10.101,0.82859
29592,10.549,5.9091,0.1,0.00032362,3234,0.0003235,3230.4,-0.00010644,0.0012304,-0.00010739,-7.1155,0.83981
29593,10.272,5.8182,0.1,0.00033186,3316.4,0.0003317,3311.5,-0.00010904,0.0064348,-0.00011032,-9.6512,0.80522
29594,10.364,5.9091,0.1,0.00032879,3285.6,0.00032867,3282.2,-0.00010816,0.0011796,-0.00010907,-6.8488,0.81632
29595,10.088,5.8182,0.1,0.00033705,3368.1,0.00033689,3363.5,-0.00011077,0.0074482,-0.00011199,-9.1798,0.78207
29596,10.18,5.9091,0.1,0.00033398,3337.5,0.00033387,3334.2,-0.00010989,0.0012358,-0.00011076,-6.57,0.79305
29597,9.9036,5.8182,0.1,0.00034225,3420.1,0.0003421,3415.8,-0.00011251,0.0086832,-0.00011367,-8.6849,0.75915
29598,9.9957,5.9091,0.1,0.0003392,3389.6,0.00033909,3386.5,-0.00011162,0.0013643,-0.00011246,-6.2782,0.77001
29599,9.7193,5.8182,0.1,0.00034747,3472.3,0.00034733,3468.3,-0.00011426,0.010218,-0.00011535,-8.1647,0.73646
29600,9.8115,5.9091,0.1,0.00034443,3441.9,0.00034433,3439,-0.00011337,0.0016059,-0.00011416,-5.9725,0.74719
29601,9.5351,5.8182,0.1,0.00035272,3524.8,0.00035259,3521,-0.00011602,0.012149,-0.00011703,-7.6178,0.71401
29602,9.6272,5.9091,0.1,0.00034969,3494.5,0.0003496,3491.7,-0.00011512,0.0020083,-0.00011587,-5.652,0.72461
29603,9.3508,5.8182,0.1,0.00035799,3577.4,0.00035787,3573.9,-0.00011779,0.014617,-0.00011873,-7.0426,0.69179
29604,9.4429,5.9091,0.1,0.00035498,3547.3,0.00035489,3544.7,-0.00011688,0.0026155,-0.00011759,-5.3158,0.70227
29605,9.1665,5.8182,0.1,0.00036328,3630.3,0.00036317,3627.1,-0.00011956,0.017841,-0.00012042,-6.4376,0.66982
29606,9.2587,5.9091,0.1,0.00036028,3600.4,0.0003602,3597.9,-0.00011865,0.0035166,-0.00011931,-4.9629,0.68017
29607,8.9823,5.8182,0.1,0.0003686,3683.4,0.0003685,3680.5,-0.00012135,0.022154,-0.00012212,-5.8017,0.64809
29608,9.0744,5.9091,0.1,0.00036562,3653.6,0.00036554,3651.3,-0.00012043,0.004828,-0.00012104,-4.5927,0.65831
29609,8.798,5.8182,0.1,0.00037394,3736.8,0.00037385,3734.2,-0.00012314,0.0281,-0.00012383,-5.134,0.62661
29610,8.8901,5.9091,0.1,0.00037097,3707.1,0.0003709,3705,-0.00012221,0.0067229,-0.00012277,-4.2044,0.6367
29611,8.6137,5.8182,0.1,0.0003793,3790.3,0.00037922,3788.1,-0.00012494,0.036624,-0.00012554,-4.4342,0.60539
29612,8.7059,5.9091,0.1,0.00037635,3760.9,0.00037629,3759,-0.00012401,0.0094682,-0.00012451,-3.7975,0.61534
29613,8.4295,5.8182,0.1,0.00038468,3844.1,0.00038462,3842.3,-0.00012676,0.049502,-0.00012726,-3.7031,0.58442
29614,8.5216,5.9091,0.1,0.00038175,3814.9,0.0003817,3813.2,-0.00012581,0.013492,-0.00012626,-3.3719,0.59424
29615,8.2452,5.8182,0.1,0.00039009,3898.2,0.00039004,3896.7,-0.00012858,0.070469,-0.00012898,-2.9438,0.56371
29616,8.3373,5.9091,0.1,0.00038718,3869.2,0.00038713,3867.7,-0.00012762,0.01952,-0.00012802,-2.9278,0.57339
29617,8.0609,5.8182,0.1,0.00039551,3952.4,0.00039548,3951.4,-0.0001304,0.10867,-0.00013071,-2.1652,0.54327
29618,8.1531,5.9091,0.1,0.00039264,3923.6,0.00039259,3922.4,-0.00012945,0.028877,-0.00012978,-2.4662,0.55281
29619,7.8767,5.8182,0.1,0.00040097,4006.9,0.00040095,4006.3,-0.00013223,0.19164,-0.00013244,-1.3954,0.52309
29620,7.9688,5.9091,0.1,0.00039811,3978.4,0.00039808,3977.4,-0.00013127,0.044223,-0.00013155,-1.99,0.53249
29621,7.6924,5.8182,0.1,0.00040644,4061.6,0.00040643,4061.4,-0.00013405,0.41585,-0.00013421,-0.732,0.50319
29622,7.7845,5.9091,0.1,0.00040361,4033.3,0.00040359,4032.6,-0.00013311,0.071612,-0.00013332,-1.5057,0.51244
29623,7.5081,5.8182,0.1,0.00041193,4116.5,0.00041194,4116.8,-0.00013584,0.96394,-0.00013602,-0.35985,0.48356
29624,7.6003,5.9091,0.1,0.00040914,4088.5,0.00040912,4088.1,-0.00013495,0.12714,-0.00013511,-1.0302,0.49267
29625,7.3239,5.8182,0.1,0.00041745,4171.6,0.00041747,4172.4,-0.0001376,1.7762,-0.00013786,-0.22266,0.46421
29626,7.416,5.9091,0.1,0.00041468,4143.9,0.00041467,4143.8,-0.00013679,0.25771,-0.00013691,-0.61204,0.47317
29627,7.1396,5.8182,0.1,0.00042298,4226.9,0.00042302,4228.1,-0.00013935,2.6947,-0.00013973,-0.16732,0.44515
29628,7.2317,5.9091,0.1,0.00042024,4199.5,0.00042025,4199.7,-0.00013862,0.55132,-0.00013874,-0.34157,0.45396
29629,6.9553,5.8182,0.1,0.00042853,4282.3,0.00042859,4284.1,-0.0001411,3.6592,-0.00014161,-0.14036,0.42637
29630,7.0475,5.9091,0.1,0.00042583,4255.3,0.00042584,4255.7,-0.00014043,1.0072,-0.00014059,-0.22126,0.43503
29631,6.7711,5.8182,0.1,0.00043408,4337.9,0.00043416,4340.1,-0.00014285,4.6446,-0.00014349,-0.12575,0.40788
29632,6.8632,5.9091,0.1,0.00043142,4311.3,0.00043145,4311.9,-0.00014223,1.5397,-0.00014246,-0.16976,0.41639
29633,6.5868,5.8182,0.1,0.00043965,4393.5,0.00043975,4396.2,-0.00014461,5.6333,-0.00014537,-0.11758,0.38968
29634,6.6789,5.9091,0.1,0.00043703,4367.3,0.00043706,4368.3,-0.00014404,2.1004,-0.00014434,-0.14457,0.39804
29635,6.4025,5.8182,0.1,0.00044522,4449.1,0.00044533,4452.4,-0.00014636,6.6077,-0.00014726,-0.11324,0.37179
29636,6.4947,5.9091,0.1,0.00044264,4423.3,0.00044268,4424.6,-0.00014584,2.6672,-0.00014621,-0.13093,0.37999
29637,6.2183,5.8182,0.1,0.00045078,4504.7,0.00045091,4508.4,-0.00014812,7.5476,-0.00014914,-0.11141,0.35419
29638,6.3104,5.9091,0.1,0.00044825,4479.4,0.0004483,4480.9,-0.00014765,3.2251,-0.00014809,-0.12318,0.36224
29639,6.034,5.8182,0.1,0.00045632,4560.1,0.00045646,4564.2,-0.00014988,8.4288,-0.00015101,-0.11135,0.33691
29640,6.1261,5.9091,0.1,0.00045384,4535.2,0.0004539,4537.1,-0.00014945,3.7597,-0.00014996,-0.11878,0.34479
29641,5.8497,5.8182,0.1,0.00046183,4615.1,0.00046199,4619.7,-0.00015163,9.222,-0.00015287,-0.1126,0.31993
29642,5.9419,5.9091,0.1,0.0004594,4590.8,0.00045947,4592.9,-0.00015124,4.2554,-0.00015182,-0.11638,0.32766
29643,5.6655,5.8182,0.1,0.00046729,4669.7,0.00046745,4674.5,-0.00015337,9.8917,-0.0001547,-0.11486,0.30326
29644,5.7576,5.9091,0.1,0.00046492,4646,0.00046499,4648.2,-0.00015302,4.6937,-0.00015366,-0.11524,0.31083
29645,5.4812,5.8182,0.1,0.00047267,4723.4,0.00047284,4728.5,-0.00015511,10.395,-0.0001565,-0.11791,0.28692
29646,5.5733,5.9091,0.1,0.00047036,4700.4,0.00047045,4702.8,-0.00015479,5.0528,-0.00015548,-0.11483,0.29432
29647,5.2969,5.8182,0.1,0.00047793,4776,0.00047811,4781.3,-0.00015682,10.682,-0.00015826,-0.12161,0.27089
29648,5.3891,5.9091,0.1,0.00047571,4753.8,0.00047579,4756.4,-0.00015653,5.3068,-0.00015726,-0.1148,0.27813
29649,5.1127,5.8182,0.1,0.00048305,4827.1,0.00048323,4832.4,-0.00015851,10.692,-0.00015995,-0.12591,0.25519
29650,5.2048,5.9091,0.1,0.00048091,4805.8,0.000481,4808.4,-0.00015824,5.4252,-0.00015898,-0.11486,0.26226
29651,4.9284,5.8182,0.1,0.00048795,4876.2,0.00048813,4881.3,-0.00016015,10.356,-0.00016155,-0.1309,0.23981
29652,5.0205,5.9091,0.1,0.00048592,4855.9,0.00048601,4858.5,-0.0001599,5.3722,-0.00016063,-0.11477,0.24672
29653,4.7441,5.8182,0.1,0.00049258,4922.4,0.00049274,4927.1,-0.00016174,9.591,-0.00016304,-0.1371,0.22477
29654,4.8363,5.9091,0.1,0.00049067,4903.4,0.00049076,4905.9,-0.00016149,5.106,-0.00016219,-0.11435,0.23151
29655,4.5599,5.8182,0.1,0.00049684,4965,0.00049698,4969,-0.00016326,8.306,-0.00016438,-0.14607,0.21006
29656,4.652,5.9091,0.1,0.00049509,4947.5,0.00049516,4949.7,-0.00016299,4.579,-0.00016362,-0.11356,0.21663
29657,4.3756,5.8182,0.1,0.00050061,5002.7,0.00050072,5005.8,-0.00016466,6.3997,-0.00016553,-0.16309,0.19569
29658,4.4677,5.9091,0.1,0.00049906,4987.1,0.00049912,4988.9,-0.00016437,3.7368,-0.00016488,-0.11271,0.20209
29659,4.1913,5.8182,0.1,0.00050376,5034.1,0.00050382,5035.9,-0.00016591,3.7784,-0.00016645,-0.21371,0.18166
29660,4.2835,5.9091,0.1,0.00050244,5021,0.00050248,5022.2,-0.00016559,2.5202,-0.00016594,-0.11384,0.18788
29661,4.0071,5.8182,0.1,0.00050609,5057.4,0.00050609,5057.4,-0.00016691,0.72547,-0.00016711,-0.71227,0.16798
29662,4.0992,5.9091,0.1,0.00050508,5047.3,0.00050509,5047.7,-0.0001666,0.88208,-0.00016673,-0.13798,0.17402
29663,3.8228,5.8182,0.1,0.00050738,5070.3,0.0005073,5068,-0.0001672,0.042345,-0.00016782,-4.6004,0.15463
29664,3.9149,5.9091,0.1,0.00050676,5064.1,0.00050673,5063.4,-0.00016716,-0.04463,-0.00016734,-1.3919,0.1605
29665,3.6385,5.8182,0.1,0.00050734,5069.9,0.00050717,5064.8,-0.00016691,-0.01299,-0.00016828,-10.281,0.14163
29666,3.7307,5.9091,0.1,0.00050721,5068.6,0.00050714,5066.5,-0.00016718,-0.058237,-0.00016772,-4.1554,0.14733
29667,3.4543,5.8182,0.1,0.00050562,5052.7,0.00050533,5044.1,-0.000166,-0.027319,-0.0001683,-17.31,0.12898
29668,3.5464,5.9091,0.1,0.00050611,5057.7,0.00050598,5053.8,-0.00016664,-0.05031,-0.00016765,-7.6154,0.1345
29669,3.27,5.8182,0.1,0.0005018,5014.5,0.00050135,5001.6,-0.00016432,-0.035872,-0.00016774,-25.774,0.11667
29670,3.3621,5.9091,0.1,0.00050307,5027.2,0.00050287,5021.3,-0.00016543,-0.037136,-0.000167,-11.829,0.12201
29671,3.0857,5.8182,0.1,0.00049535,4950.1,0.00049473,4932.1,-0.0001617,-0.05058,-0.00016645,-35.748,0.1047
29672,3.1779,5.9091,0.1,0.0004976,4972.5,0.00049731,4964.1,-0.00016337,-0.021322,-0.00016561,-16.852,0.10987
29673,2.9015,5.8182,0.1,0.00048567,4853.3,0.00048484,4829.5,-0.00015793,-0.081198,-0.00016421,-47.229,0.093063
29674,2.9936,5.9091,0.1,0.00048912,4887.8,0.00048873,4876.4,-0.00016028,-0.0045861,-0.0001633,-22.709,0.09806
29675,2.7172,5.8182,0.1,0.00047205,4717.2,0.00047099,4686.8,-0.0001528,-0.13743,-0.00016078,-60.094,0.081758
29676,2.8093,5.9091,0.1,0.00047696,4766.3,0.00047645,4751.6,-0.00015594,0.010804,-0.00015985,-29.369,0.086584
29677,2.5329,5.8182,0.1,0.00045371,4534,0.0004524,4496.4,-0.00014606,-0.22676,-0.00015588,-74.024,0.070774
29678,2.6251,5.9091,0.1,0.00046036,4600.4,0.00045973,4582,-0.0001501,0.021785,-0.00015498,-36.711,0.075432
29679,2.3487,5.8182,0.1,0.00042981,4295.2,0.00042824,4250.1,-0.00013746,-0.34469,-0.00014919,-88.427,0.060098
29680,2.4408,5.9091,0.1,0.00043849,4381.9,0.00043772,4359.5,-0.00014249,0.023316,-0.00014841,-44.467,0.064593
29681,2.1644,5.8182,0.1,0.00039953,3992.5,0.00039768,3940.1,-0.00012678,-0.46061,-0.00014034,-102.35,0.049713
29682,2.2565,5.9091,0.1,0.00041049,4102.1,0.00040958,4075.8,-0.00013287,0.013097,-0.00013981,-52.169,0.054051
29683,1.9801,5.8182,0.1,0.00036211,3618.6,0.00036002,3559.8,-0.00011382,-0.45268,-0.00012899,-114.43,0.0396
29684,2.0723,5.9091,0.1,0.00037555,3752.9,0.00037451,3723,-0.000121,-0.021523,-0.00012886,-59.076,0.043789
29685,1.7959,5.8182,0.1,0.00031706,3168.4,0.00031478,3105.1,-9.8489e-05,-0.10306,-0.00011484,-122.93,0.029737
29686,1.888,5.9091,0.1,0.00033302,3327.9,0.00033189,3295.4,-0.00010671,-0.026284,-0.00011524,-64.089,0.033786
29687,1.6116,5.8182,0.1,0.00026424,2640.6,0.00026189,2576.1,-8.0757e-05,1.5376,-9.772e-05,-125.92,0.020106
29688,1.7037,5.9091,0.1,0.00028257,2823.8,0.00028139,2790.2,-8.9979e-05,-0.10506,-9.8725e-05,-65.821,0.024022
29689,1.4273,5.8182,0.1,0.00020432,2041.8,0.00020199,1979.1,-6.0746e-05,5.0451,-7.7962e-05,-124.31,0.010735
29690,1.5195,5.9091,0.1,0.00022426,2241.1,0.00022315,2209.6,-7.0837e-05,0.72637,-7.9231e-05,-62.344,0.014495
29691,1.2431,5.8182,0.1,0.00014118,1410.8,0.00013852,1345.7,-3.7836e-05,20.607,-5.8879e-05,-137.5,0.0027816
29692,1.3352,5.9091,0.1,0.00015896,1588.5,0.00015796,1560.5,-4.9615e-05,0.91033,-5.7098e-05,-55.32,0.0054432
29693,1.0588,5.8182,0.1,7.9331e-05,792.77,7.7537e-05,746.37,-2.2017e-05,-1.6428,-3.3061e-05,-84.62,0.0087048
29694,1.1509,5.9091,0.1,9.0042e-05,899.8,8.8891e-05,872.1,-2.4648e-05,19.017,-3.624e-05,-68.082,0.0052772
29695,0.72,2.1818,0.1,0.0019353,19340,0.0019489,19800,-0.00053719,1120.1,-0.00070469,-138.48,0.0054306
29696,0.8,2.2727,0.1,0.0019636,19622,0.0019737,19943,-0.00058389,726.27,-0.00068863,-60.706,0.0074101
29697,0.88333,2.1818,0.1,0.0021484,21470,0.0021461,21404,-0.00069555,52.217,-0.00072679,-182.52,0.0086993
29698,0.8,2.0909,0.1,0.0026423,26404,0.0026397,26675,-0.00061487,2222,-0.0010866,-1322.4,0.0062699
29699,0.56,2.1818,0.1,0.0015187,15177,0.0015391,15974,-0.00033178,1917.4,-0.00060252,-116.78,0.0031696
29700,0.64,2.2727,0.1,0.0016433,16421,0.0016648,17178,-0.00040124,1654.8,-0.00062327,-13.426,0.0045611
29701,0.64,2.0909,0.1,0.0016835,16823,0.0017021,17378,-0.00050828,770.44,-0.0005645,348.05,0.0038054
29702,0.4,2.1818,0.1,0.0012104,12096,0.0012371,13336,-0.00015913,2845.6,-0.00052383,105.33,0.0015905
29703,0.48,2.2727,0.1,0.0013581,13572,0.0013791,14585,-0.00021962,2573,-0.00058035,-137.34,0.0025066
29704,0.48,2.0909,0.1,0.0012327,12319,0.0012493,13124,-0.00021433,2127,-0.00052245,-188.1,0.0020921
29705,0.24,2.1818,0.1,0.0011035,11028,0.0010992,11862,-5.1482e-05,3216.5,-0.00055365,-556.64,0.00058038
29706,0.32,2.2727,0.1,0.0011536,11528,0.0011883,13165,-9.7411e-05,3504.7,-0.00050999,404.76,0.0011095
29707,0.32,2.0909,0.1,0.0010089,10082,0.0010391,11489,-8.9749e-05,3007.7,-0.00044443,342.75,0.00092359
29708,0.16,2.2727,0.1,0.0012161,12153,0.0011672,12208,-2.0927e-05,3280.7,-0.00067483,-1632.5,0.00030006
29709,0.16,2.0909,0.1,0.001029,10283,0.00098868,10365,-1.5956e-05,2816.9,-0.00057002,-1346,0.00024796
29710,0.08,2.1818,0.1,0.00083968,8391,0.00092524,11370,-6.8037e-06,4367.3,-0.00031257,2069.9,8.8624e-05
29711,0.72,2.3636,0.1,0.0016631,16620,0.0016828,17271,-0.00043868,1330.7,-0.0006097,45.678,0.0062484
29712,0.8,2.4545,0.1,0.0016367,16356,0.0016544,16939,-0.00043834,1215.2,-0.00059779,17.251,0.0081831
29713,0.88333,2.3636,0.1,0.0017096,17084,0.0017212,17443,-0.00050682,703.27,-0.00059573,35.214,0.0097239
29714,0.56,2.3636,0.1,0.0014929,14919,0.0015174,15884,-0.00030253,2209.3,-0.00060024,-27.581,0.0036905
29715,0.64,2.4545,0.1,0.0015345,15335,0.0015598,16263,-0.00033766,2005.5,-0.0005993,39.559,0.0051336
29716,0.4,2.3636,0.1,0.0013039,13030,0.0013343,14444,-0.00016202,3201.2,-0.00056639,162.89,0.0018636
29717,0.48,2.4545,0.1,0.0013944,13935,0.0014169,15071,-0.00020483,2886.4,-0.00060519,-121.68,0.0028542
29718,0.24,2.3636,0.1,0.0012559,12550,0.0012498,13461,-6.0275e-05,3618.4,-0.00063121,-671.36,0.00068495
29719,0.32,2.4545,0.1,0.0012498,12489,0.0012882,14315,-9.7905e-05,3900.4,-0.0005546,468.94,0.0012743
29720,0.16,2.4545,0.1,0.0013763,13754,0.0013189,13765,-2.4303e-05,3672.2,-0.00076605,-1900.9,0.00034802
29721,0.08,2.3636,0.1,0.00098395,9832.7,0.0010861,13363,-1.0114e-05,5126.1,-0.00036268,2477.1,0.00010567
29722,0.72,2.5455,0.1,0.0015061,15051,0.0015297,15918,-0.00033542,1904.3,-0.00058757,9.7848,0.0068084
29723,0.8,2.6364,0.1,0.0014838,14828,0.0015057,15624,-0.00034028,1753.9,-0.00057438,-5.0614,0.0086808
29724,0.88333,2.5455,0.1,0.0015147,15136,0.0015329,15757,-0.00038713,1330.3,-0.00056447,-2.1578,0.010395
29725,0.56,2.5455,0.1,0.0014394,14384,0.0014643,15488,-0.00024502,2644.6,-0.00060425,-54.527,0.0040782
29726,0.64,2.6364,0.1,0.0014464,14454,0.0014734,15545,-0.00026885,2454.4,-0.00059102,33.721,0.0055193
29727,0.4,2.5455,0.1,0.0013431,13422,0.0013746,14971,-0.00014459,3556.5,-0.00059335,184.7,0.0020806
29728,0.48,2.6364,0.1,0.0013953,13943,0.001417,15172,-0.00017566,3205.6,-0.00062079,-138.91,0.0031016
29729,0.24,2.5455,0.1,0.0013633,13624,0.0013548,14599,-5.9294e-05,3974.1,-0.00068947,-760.8,0.00077175
29730,0.32,2.6364,0.1,0.0013038,13029,0.0013445,15012,-8.7963e-05,4248.9,-0.0005833,527.2,0.0013971
29731,0.16,2.6364,0.1,0.0014951,14940,0.0014304,14911,-2.3875e-05,3984.5,-0.00083552,-2113.9,0.00038486
29732,0.08,2.5455,0.1,0.0011022,11014,0.0012184,15012,-1.1445e-05,5771.8,-0.00040371,2824.4,0.00012022
29733,0.72,2.7273,0.1,0.001424,14230,0.0014497,15253,-0.00027393,2302.3,-0.00057784,18.825,0.0071538
29734,0.8,2.8182,0.1,0.0014111,14101,0.0014348,15022,-0.00028794,2078.1,-0.0005652,-5.0912,0.0089585
29735,0.88333,2.7273,0.1,0.0014139,14130,0.0014355,14922,-0.00031825,1744.2,-0.00055022,1.3575,0.010803
29736,0.56,2.7273,0.1,0.0014039,14029,0.0014289,15251,-0.00020232,2994.2,-0.00060757,-50.694,0.0043265
29737,0.64,2.8182,0.1,0.0014007,13998,0.0014283,15193,-0.00022822,2746.1,-0.00058843,39.561,0.0057383
29738,0.4,2.7273,0.1,0.0013581,13572,0.0013897,15234,-0.00012183,3877,-0.00061072,203.66,0.0022251
29739,0.48,2.8182,0.1,0.0013892,13883,0.00141,15182,-0.00015099,3453.4,-0.00062994,-145.21,0.0032461
29740,0.24,2.7273,0.1,0.0014309,14299,0.0014197,15321,-5.2143e-05,4262.4,-0.00072937,-826.01,0.00083123
29741,0.32,2.8182,0.1,0.0013311,13302,0.0013727,15388,-7.6466e-05,4499,-0.00060055,561.26,0.0014705
29742,0.16,2.8182,0.1,0.0015665,15655,0.001497,15601,-2.1649e-05,4191.1,-0.0008783,-2245.4,0.00040725
29743,0.08,2.7273,0.1,0.0011827,11819,0.0013087,16146,-1.0774e-05,6232.7,-0.00043213,3066.8,0.00013036
29744,0.72,2.9091,0.1,0.0013884,13874,0.0014144,14969,-0.00024323,2514.4,-0.0005758,15.645,0.0073178
29745,0.8,3,0.1,0.0013896,13886,0.0014136,14846,-0.00027106,2188.2,-0.0005632,-6.8633,0.0090477
29746,0.88333,2.9091,0.1,0.0013713,13703,0.001394,14574,-0.00028574,1953.6,-0.00054594,-1.4376,0.010997
29747,0.56,2.9091,0.1,0.0013871,13862,0.0014116,15141,-0.00017905,3189.1,-0.00061081,-54.978,0.0044462
29748,0.64,3,0.1,0.0013865,13856,0.0014141,15084,-0.00021422,2849.5,-0.00058839,38.161,0.005809
29749,0.4,2.9091,0.1,0.001364,13630,0.0013953,15353,-0.00010782,4058.9,-0.00061977,212.37,0.0022961
29750,0.48,3,0.1,0.0013868,13859,0.0014072,15183,-0.00014189,3543.6,-0.00063322,-148.09,0.0032933
29751,0.24,2.9091,0.1,0.0014634,14624,0.0014507,15673,-4.6662e-05,4422.5,-0.0007495,-858.3,0.00086084
29752,0.32,3,0.1,0.0013395,13386,0.0013813,15507,-7.1758e-05,4589.4,-0.00060632,572.87,0.0014948
29753,0.16,3,0.1,0.0015903,15892,0.001519,15831,-2.0545e-05,4263.4,-0.00089266,-2289.3,0.00041468
29754,0.08,2.9091,0.1,0.0012228,12220,0.0013536,16713,-9.8969e-06,6468.6,-0.00044649,3188.2,0.00013543
29755,0.72,3.0909,0.1,0.0013884,13874,0.0014144,14969,-0.00024323,2514.4,-0.0005758,15.645,0.0073178
29756,0.8,3.1818,0.1,0.0014111,14101,0.0014348,15022,-0.00028794,2078.1,-0.0005652,-5.0912,0.0089585
29757,0.88333,3.0909,0.1,0.0013713,13703,0.001394,14574,-0.00028574,1953.6,-0.00054594,-1.4376,0.010997
29758,0.56,3.0909,0.1,0.0013871,13862,0.0014116,15141,-0.00017905,3189.1,-0.00061081,-54.978,0.0044462
29759,0.64,3.1818,0.1,0.0014007,13998,0.0014283,15193,-0.00022822,2746.1,-0.00058843,39.561,0.0057383
29760,0.4,3.0909,0.1,0.001364,13630,0.0013953,15353,-0.00010782,4058.9,-0.00061977,212.37,0.0022961
29761,0.48,3.1818,0.1,0.0013892,13883,0.00141,15182,-0.00015099,3453.4,-0.00062994,-145.21,0.0032461
29762,0.24,3.0909,0.1,0.0014634,14624,0.0014507,15673,-4.6662e-05,4422.5,-0.0007495,-858.3,0.00086084
29763,0.32,3.1818,0.1,0.0013311,13302,0.0013727,15388,-7.6466e-05,4499,-0.00060055,561.26,0.0014705
29764,0.16,3.1818,0.1,0.0015665,15655,0.001497,15601,-2.1649e-05,4191.1,-0.0008783,-2245.4,0.00040725
29765,0.08,3.0909,0.1,0.0012228,12220,0.0013536,16713,-9.8969e-06,6468.6,-0.00044649,3188.2,0.00013543
29766,0.72,3.2727,0.1,0.001424,14230,0.0014497,15253,-0.00027393,2302.3,-0.00057784,18.825,0.0071538
29767,0.8,3.3636,0.1,0.0014838,14828,0.0015057,15624,-0.00034028,1753.9,-0.00057438,-5.0614,0.0086808
29768,0.88333,3.2727,0.1,0.0014139,14130,0.0014355,14922,-0.00031825,1744.2,-0.00055022,1.3575,0.010803
29769,0.56,3.2727,0.1,0.0014039,14029,0.0014289,15251,-0.00020232,2994.2,-0.00060757,-50.694,0.0043265
29770,0.64,3.3636,0.1,0.0014464,14454,0.0014734,15545,-0.00026885,2454.4,-0.00059102,33.721,0.0055193
29771,0.4,3.2727,0.1,0.0013581,13572,0.0013897,15234,-0.00012183,3877,-0.00061072,203.66,0.0022251
29772,0.48,3.3636,0.1,0.0013953,13943,0.001417,15172,-0.00017566,3205.6,-0.00062079,-138.91,0.0031016
29773,0.24,3.2727,0.1,0.0014309,14299,0.0014197,15321,-5.2143e-05,4262.4,-0.00072937,-826.01,0.00083123
29774,0.32,3.3636,0.1,0.0013038,13029,0.0013445,15012,-8.7963e-05,4248.9,-0.0005833,527.2,0.0013971
29775,0.16,3.3636,0.1,0.0014951,14940,0.0014304,14911,-2.3875e-05,3984.5,-0.00083552,-2113.9,0.00038486
29776,0.08,3.2727,0.1,0.0011827,11819,0.0013087,16146,-1.0774e-05,6232.7,-0.00043213,3066.8,0.00013036
29777,0.72,3.4545,0.1,0.0015061,15051,0.0015297,15918,-0.00033542,1904.3,-0.00058757,9.7848,0.0068084
29778,0.8,3.5455,0.1,0.0016367,16356,0.0016544,16939,-0.00043834,1215.2,-0.00059778,17.251,0.0081831
29779,0.88333,3.4545,0.1,0.0015147,15136,0.0015329,15757,-0.00038713,1330.3,-0.00056447,-2.1578,0.010395
29780,0.56,3.4545,0.1,0.0014394,14384,0.0014643,15488,-0.00024502,2644.6,-0.00060425,-54.527,0.0040782
29781,0.64,3.5455,0.1,0.0015345,15335,0.0015598,16263,-0.00033766,2005.5,-0.0005993,39.559,0.0051336
29782,0.4,3.4545,0.1,0.0013431,13422,0.0013746,14971,-0.00014459,3556.5,-0.00059335,184.7,0.0020806
29783,0.48,3.5455,0.1,0.0013944,13935,0.0014169,15071,-0.00020483,2886.4,-0.00060519,-121.68,0.0028542
29784,0.24,3.4545,0.1,0.0013633,13624,0.0013548,14599,-5.9294e-05,3974.1,-0.00068947,-760.8,0.00077175
29785,0.32,3.5455,0.1,0.0012498,12489,0.0012882,14315,-9.7905e-05,3900.4,-0.0005546,468.94,0.0012743
29786,0.16,3.5455,0.1,0.0013763,13754,0.0013189,13765,-2.4303e-05,3672.2,-0.00076605,-1900.9,0.00034802
29787,0.08,3.4545,0.1,0.0011022,11014,0.0012184,15012,-1.1445e-05,5771.7,-0.00040371,2824.4,0.00012022
29788,0.72,3.6364,0.1,0.0016631,16620,0.0016828,17271,-0.00043868,1330.6,-0.0006097,45.678,0.0062484
29789,0.8,3.7273,0.1,0.0019636,19622,0.0019737,19943,-0.00058389,726.26,-0.00068863,-60.707,0.0074101
29790,0.88333,3.6364,0.1,0.0017096,17084,0.0017212,17443,-0.00050682,703.27,-0.00059573,35.214,0.0097239
29791,0.56,3.6364,0.1,0.0014929,14919,0.0015174,15884,-0.00030253,2209.3,-0.00060024,-27.581,0.0036905
29792,0.64,3.7273,0.1,0.0016433,16421,0.0016648,17178,-0.00040124,1654.8,-0.00062327,-13.426,0.0045611
29793,0.4,3.6364,0.1,0.0013039,13030,0.0013343,14444,-0.00016202,3201.2,-0.00056639,162.89,0.0018636
29794,0.48,3.7273,0.1,0.0013581,13572,0.0013791,14585,-0.00021962,2573,-0.00058035,-137.34,0.0025066
29795,0.24,3.6364,0.1,0.0012559,12550,0.0012498,13461,-6.0275e-05,3618.4,-0.00063121,-671.36,0.00068495
29796,0.32,3.7273,0.1,0.0011536,11528,0.0011883,13165,-9.7411e-05,3504.7,-0.00050999,404.76,0.0011095
29797,0.16,3.7273,0.1,0.0012161,12153,0.0011672,12208,-2.0926e-05,3280.7,-0.00067483,-1632.5,0.00030006
29798,0.08,3.6364,0.1,0.00098395,9832.7,0.0010861,13363,-1.0114e-05,5126.1,-0.00036268,2477.1,0.00010567
29799,0.72,3.8182,0.1,0.0019353,19340,0.0019489,19800,-0.00053719,1120.1,-0.00070469,-138.48,0.0054306
29800,0.88333,3.8182,0.1,0.0021484,21470,0.0021461,21404,-0.00069555,52.214,-0.00072679,-182.52,0.0086993
29801,0.8,3.9091,0.1,0.0026423,26404,0.0026397,26675,-0.00061487,2222,-0.0010866,-1322.4,0.0062699
29802,0.56,3.8182,0.1,0.0015187,15177,0.0015391,15974,-0.00033178,1917.4,-0.00060252,-116.78,0.0031696
29803,0.64,3.9091,0.1,0.0016835,16823,0.0017021,17378,-0.00050828,770.44,-0.0005645,348.05,0.0038054
29804,0.4,3.8182,0.1,0.0012104,12096,0.0012371,13336,-0.00015913,2845.6,-0.00052383,105.33,0.0015905
29805,0.48,3.9091,0.1,0.0012327,12319,0.0012493,13124,-0.00021433,2127,-0.00052245,-188.1,0.0020921
29806,0.24,3.8182,0.1,0.0011035,11028,0.0010992,11862,-5.1482e-05,3216.5,-0.00055365,-556.64,0.00058038
29807,0.32,3.9091,0.1,0.0010089,10082,0.0010391,11489,-8.9749e-05,3007.7,-0.00044443,342.75,0.00092359
29808,0.16,3.9091,0.1,0.001029,10283,0.00098868,10365,-1.5956e-05,2816.9,-0.00057001,-1346,0.00024796
29809,0.08,3.8182,0.1,0.00083968,8391,0.00092524,11370,-6.8037e-06,4367.3,-0.00031257,2069.9,8.8624e-05
29810,0.16,4.2727,0.1,0.00065407,6536.2,0.00062977,6601,-1.3454e-05,1768.1,-0.00036001,-835.78,0.00015458
29811,0.24,4.1818,0.1,0.00073158,7310.7,0.00072993,7859.9,-4.0767e-05,2069.2,-0.00036341,-355,0.00037351
29812,0.16,4.0909,0.1,0.00083561,8350.3,0.00080372,8433.8,-1.3545e-05,2293.3,-0.00046175,-1074.4,0.00019852
29813,0.08,4.1818,0.1,0.00054514,5447.6,0.00059979,7361.2,-4.0036e-06,2824.5,-0.00020435,1319.2,5.6612e-05
29814,0.16,4.4545,0.1,0.00049467,4943.3,0.0004767,4989.6,-1.2351e-05,1315.1,-0.00027128,-630.39,0.00011634
29815,0.24,4.3636,0.1,0.00055886,5584.7,0.00055823,5985,-3.8254e-05,1503.2,-0.00027444,-271.42,0.00028561
29816,0.08,4.3636,0.1,0.00041804,4177.5,0.00046001,5641.8,-4.1316e-06,2154.4,-0.0001562,1011.8,4.3446e-05
29817,0.16,4.6364,0.1,0.0003622,3619.5,0.0003493,3656.4,-9.6291e-06,959.48,-0.00019818,-457.24,8.4214e-05
29818,0.24,4.5455,0.1,0.00041365,4133.6,0.00041329,4421.1,-3.0668e-05,1085.4,-0.00020219,-203.36,0.00021044
29819,0.08,4.5455,0.1,0.00030933,3091.1,0.00034032,4172.4,-3.2405e-06,1591,-0.00011558,746.95,3.2098e-05
29820,0.16,4.8182,0.1,0.00025769,2575.1,0.00024872,2607.3,-6.683e-06,688.29,-0.00014077,-319.21,5.88e-05
29821,0.24,4.7273,0.1,0.00029813,2979.3,0.00029796,3189.1,-2.1995e-05,785.05,-0.00014565,-144.08,0.00014958
29822,0.08,4.7273,0.1,0.00022119,2210.4,0.00024315,2979.3,-2.089e-06,1136.7,-8.3035e-05,528.52,2.2771e-05
29823,0.16,5,0.1,0.00017889,1787.7,0.00017285,1816.1,-4.3246e-06,484.91,-9.7577e-05,-215.75,3.9912e-05
29824,0.24,4.9091,0.1,0.00021034,2101.9,0.00021028,2254.4,-1.4912e-05,562.37,-0.00010289,-98.618,0.00010318
29825,0.08,4.9091,0.1,0.0001536,1535,0.00016862,2064.4,-1.1796e-06,788.6,-5.8092e-05,360.98,1.5602e-05
29826,0.16,5.1818,0.1,0.00012178,1217,0.00011781,1240.5,-2.8138e-06,334.13,-6.6281e-05,-142.74,2.6578e-05
29827,0.24,5.0909,0.1,0.00014558,1454.8,0.00014558,1564,-9.775e-06,396.74,-7.1332e-05,-65.775,6.9621e-05
29828,0.08,5.0909,0.1,0.00010431,1042.3,0.00011433,1398.2,-6.22e-07,534.56,-3.9765e-05,240.46,1.0424e-05
29829,0.16,5.3636,0.1,8.1589e-05,815.33,7.91e-05,832.38,-2.3792e-06,220.17,-4.4078e-05,-93.135,1.7463e-05
29830,0.24,5.2727,0.1,9.9226e-05,991.57,9.9284e-05,1067.3,-6.676e-06,271.2,-4.8541e-05,-43.36,4.6282e-05
29831,0.08,5.2727,0.1,6.9721e-05,696.72,7.6312e-05,931.95,-4.1046e-07,355.49,-2.6732e-05,157.72,6.8598e-06
29832,0.16,5.5455,0.1,5.3713e-05,536.76,5.2432e-05,545.77,-3.6028e-06,124.74,-2.8011e-05,-58.652,1.1104e-05
29833,0.24,5.4545,0.1,6.7095e-05,670.48,6.7264e-05,718.56,-5.8684e-06,169.07,-3.2165e-05,-28.515,3.0256e-05
29834,0.08,5.4545,0.1,4.5919e-05,458.88,5.0202e-05,610.42,-7.0698e-07,227.91,-1.7515e-05,101.63,4.4426e-06
29835,0.16,5.7273,0.1,3.5706e-05,356.81,3.5386e-05,353.07,-8.2144e-06,25.478,-1.5214e-05,-27.116,5.8711e-06
29836,0.24,5.6364,0.1,4.6092e-05,460.6,4.6321e-05,480.6,-7.9942e-06,72.502,-2.0148e-05,-18.821,1.8541e-05
29837,0.08,5.6364,0.1,2.9229e-05,292.09,3.1778e-05,377.48,-2.089e-06,123.01,-1.0669e-05,58.542,2.6624e-06
29838,0.24,5.8182,0.1,3.6276e-05,362.51,3.5396e-05,340.6,-9.6284e-06,2.3063,-1.5531e-05,-42.041,8.1245e-06
29839,0.08,5.8182,0.1,1.8773e-05,187.6,1.8539e-05,183.71,-4.3763e-06,11.536,-8.0714e-06,-16.226,1.0927e-06
29840,0.16,5.9091,0.1,2.6703e-05,266.85,2.5678e-05,244.54,-5.7491e-06,8.4101,-1.2852e-05,-44.96,2.7065e-06
29841,0.32,4.2727,0.1,0.00065392,6534.7,0.00067341,7356.7,-8.0162e-05,1694.7,-0.00027827,206.2,0.00057462
29842,0.4,4.1818,0.1,0.00081777,8172.1,0.0008343,8835.6,-0.00014742,1459.4,-0.00033488,50.875,0.001021
29843,0.32,4.0909,0.1,0.00083274,8321.7,0.0008576,9439.7,-8.4182e-05,2363.5,-0.00036258,271.73,0.00074069
29844,0.32,4.4545,0.1,0.00049476,4944.2,0.00050929,5525.1,-7.0425e-05,1169.4,-0.00020595,151.11,0.00042978
29845,0.4,4.3636,0.1,0.00060993,6095.1,0.00062167,6534.9,-0.00012393,932.74,-0.00024216,44.4,0.00077344
29846,0.32,4.6364,0.1,0.00036396,3637,0.0003744,4047.4,-5.4896e-05,821.84,-0.00015025,105.42,0.00031019
29847,0.4,4.5455,0.1,0.00044727,4469.6,0.00045536,4767.6,-9.5028e-05,632.16,-0.00017574,25.685,0.00056532
29848,0.32,4.8182,0.1,0.00026188,2617,0.0002693,2909.6,-3.9531e-05,589.21,-0.00010824,72.951,0.00021711
29849,0.4,4.7273,0.1,0.00032266,3224.4,0.00032847,3439.8,-6.8088e-05,460.23,-0.00012713,16.643,0.00040057
29850,0.32,5,0.1,0.00018504,1849.2,0.0001902,2056.3,-2.7211e-05,422.75,-7.6988e-05,48.742,0.00014835
29851,0.4,4.9091,0.1,0.00022935,2291.9,0.00023355,2451,-4.6838e-05,344.26,-9.1254e-05,10.53,0.00027683
29852,0.32,5.1818,0.1,0.00012857,1284.8,0.00013209,1428.7,-1.8421e-05,297.86,-5.3844e-05,31.711,9.9658e-05
29853,0.4,5.0909,0.1,0.00016052,1604.1,0.00016352,1720.3,-3.1499e-05,255.06,-6.4589e-05,6.4399,0.00018779
29854,0.32,5.3636,0.1,8.8378e-05,883.17,9.0722e-05,978.12,-1.3247e-05,196.94,-3.6821e-05,19.815,6.6078e-05
29855,0.4,5.2727,0.1,0.00011066,1105.8,0.00011272,1187.6,-2.114e-05,181.79,-4.4873e-05,3.476,0.00012572
29856,0.32,5.5455,0.1,6.142e-05,613.77,6.2828e-05,665.98,-1.1775e-05,105.44,-2.4462e-05,10.12,4.2671e-05
29857,0.4,5.4545,0.1,7.5619e-05,755.67,7.6938e-05,807.18,-1.5128e-05,115.44,-3.0396e-05,0.71637,8.2998e-05
29858,0.32,5.7273,0.1,4.6504e-05,464.72,4.6654e-05,470.56,-1.3087e-05,21.691,-1.711e-05,-8.5351,2.4581e-05
29859,0.4,5.6364,0.1,5.2622e-05,525.86,5.3185e-05,546.5,-1.2901e-05,49.958,-2.0142e-05,-4.451,5.2508e-05
29860,0.4,5.8182,0.1,4.1704e-05,416.75,4.0912e-05,397.4,-1.1131e-05,6.3768,-1.7439e-05,-41.024,2.7651e-05
29861,0.32,5.9091,0.1,3.7413e-05,373.87,3.658e-05,351.83,-1.0664e-05,-3.1466,-1.5361e-05,-38.445,8.3007e-06
29862,0.48,4.2727,0.1,0.00078686,7863.2,0.00079269,8089.8,-0.00019857,641.93,-0.0003015,-131.48,0.0012791
29863,0.56,4.1818,0.1,0.0010609,10601,0.0010511,10386,-0.00028709,331.33,-0.00042279,-688.29,0.0019937
29864,0.48,4.0909,0.1,0.001022,10213,0.0010335,10714,-0.00021398,1341.3,-0.0004151,-169.81,0.0016692
29865,0.48,4.4545,0.1,0.00057564,5752.5,0.00057828,5856.5,-0.0001551,346.15,-0.00021592,-110.81,0.00094437
29866,0.56,4.3636,0.1,0.0007362,7357,0.00072316,7028.6,-0.00020264,72.552,-0.0003018,-672.51,0.001483
29867,0.48,4.6364,0.1,0.00041711,4168.2,0.00041856,4228.6,-0.00011388,228.04,-0.00015609,-89.086,0.00067576
29868,0.56,4.5455,0.1,0.00052196,5215.9,0.00051407,5020.9,-0.00014348,80.327,-0.00021175,-432.62,0.0010687
29869,0.48,4.8182,0.1,0.00029829,2980.9,0.00029957,3032.6,-8.0098e-05,179.94,-0.00011227,-61.779,0.00047157
29870,0.56,4.7273,0.1,0.00037207,3718.1,0.00036717,3596.1,-0.00010396,56.183,-0.00014841,-277.8,0.00075139
29871,0.48,5,0.1,0.00021065,2105.1,0.00021183,2152.4,-5.482e-05,148.82,-8.0127e-05,-41.327,0.00032275
29872,0.56,4.9091,0.1,0.00026318,2630,0.00026057,2566.3,-7.41e-05,51.773,-0.00010303,-165.57,0.00051821
29873,0.48,5.1818,0.1,0.00014665,1465.5,0.00014765,1505.5,-3.6948e-05,118.49,-5.6386e-05,-27.567,0.00021779
29874,0.56,5.0909,0.1,0.00018404,1839.2,0.00018273,1808.7,-5.1924e-05,45.592,-7.1055e-05,-98.148,0.00035211
29875,0.48,5.3636,0.1,0.00010054,1004.7,0.00010127,1034.1,-2.4852e-05,86.532,-3.8944e-05,-19.353,0.00014539
29876,0.56,5.2727,0.1,0.00012651,1264.2,0.00012589,1251.5,-3.5411e-05,39.579,-4.8565e-05,-59.258,0.00023672
29877,0.48,5.5455,0.1,6.822e-05,681.73,6.8587e-05,697.4,-1.7304e-05,52.054,-2.6316e-05,-15.657,9.5352e-05
29878,0.56,5.4545,0.1,8.5031e-05,849.73,8.4682e-05,843.75,-2.341e-05,31.587,-3.2821e-05,-39.127,0.0001576
29879,0.48,5.7273,0.1,4.7931e-05,478.98,4.7727e-05,475.48,-1.315e-05,18.072,-1.855e-05,-22.502,5.8576e-05
29880,0.56,5.6364,0.1,5.5534e-05,554.95,5.5189e-05,548.51,-1.4893e-05,21.939,-2.1944e-05,-31.037,0.00010242
29881,0.56,5.8182,0.1,3.731e-05,372.85,3.6527e-05,355.6,-9.0899e-06,12.852,-1.631e-05,-41.395,6.055e-05
29882,0.48,5.9091,0.1,3.4821e-05,347.97,3.44e-05,336.57,-1.0419e-05,-0.17967,-1.3271e-05,-21.613,2.7269e-05
29883,0.64,4.2727,0.1,0.0010424,10417,0.00099974,9461.2,-0.00022937,226.15,-0.00050304,-1830.1,0.0022273
29884,0.64,4.0909,0.1,0.0014606,14596,0.0014458,14319,-0.00036705,697.91,-0.00060484,-1088.7,0.0029904
29885,0.72,4.1818,0.1,0.0010387,10380,0.00097209,9034.3,-0.00017238,435.24,-0.00056243,-2495.5,0.0032462
29886,0.64,4.4545,0.1,0.0007093,7088.1,0.00067601,6321.2,-0.00015772,56.852,-0.00034798,-1372.7,0.0016105
29887,0.72,4.3636,0.1,0.00067804,6775.7,0.00065281,6131.2,-0.00017921,-120.3,-0.00030545,-1068.8,0.0023377
29888,0.64,4.6364,0.1,0.0004932,4928.6,0.00047333,4468.4,-0.00011343,59.652,-0.00023484,-852.56,0.0011381
29889,0.72,4.5455,0.1,0.00048264,4823,0.00046558,4411.1,-0.0001191,18.094,-0.00022129,-749.74,0.0016556
29890,0.64,4.8182,0.1,0.00034795,3477.1,0.00033556,3185.3,-8.3241e-05,38.59,-0.00016126,-547.64,0.00078972
29891,0.72,4.7273,0.1,0.00034323,3429.9,0.00033343,3181.8,-9.1583e-05,-11.618,-0.00014909,-443.67,0.0011537
29892,0.64,5,0.1,0.00024404,2438.8,0.00023657,2261,-6.0209e-05,31.158,-0.00011005,-343.34,0.00053983
29893,0.72,4.9091,0.1,0.00024415,2439.8,0.00023842,2292.8,-6.7079e-05,-2.6405,-0.00010259,-269.48,0.00079257
29894,0.64,5.1818,0.1,0.00016908,1689.6,0.00016458,1581.8,-4.2751e-05,24.058,-7.448e-05,-214.34,0.0003649
29895,0.72,5.0909,0.1,0.0001717,1715.8,0.00016838,1628.8,-4.885e-05,-3.3867,-6.9668e-05,-159.81,0.0005382
29896,0.64,5.3636,0.1,0.00011462,1145.4,0.00011191,1080.7,-2.9356e-05,19.293,-4.9665e-05,-133.3,0.00024472
29897,0.72,5.2727,0.1,0.00011823,1181.5,0.00011636,1131.4,-3.4503e-05,-2.0412,-4.6584e-05,-92.815,0.00036251
29898,0.64,5.5455,0.1,7.4854e-05,748.03,7.3211e-05,709.33,-1.9089e-05,15.819,-3.2285e-05,-83.332,0.00016253
29899,0.72,5.4545,0.1,7.8553e-05,784.99,7.7516e-05,756.92,-2.3401e-05,-1.3267,-3.0188e-05,-52.325,0.00024282
29900,0.64,5.7273,0.1,4.6055e-05,460.23,4.4951e-05,435.86,-1.1005e-05,15.426,-2.0493e-05,-55.861,0.00010447
29901,0.72,5.6364,0.1,4.8647e-05,486.13,4.8113e-05,471.48,-1.4762e-05,-0.93954,-1.827e-05,-27.293,0.00016096
29902,0.72,5.8182,0.1,2.5734e-05,257.16,2.5453e-05,250.17,-7.2818e-06,4.2113,-1.0091e-05,-16.895,0.00010224
29903,0.64,5.9091,0.1,2.4683e-05,246.66,2.4365e-05,239.21,-6.644e-06,6.22,-1.0022e-05,-19.164,5.8904e-05
29904,0.56,4,0.1,0.0014178,14169,0.0014346,14695,-0.00039378,957.83,-0.00050373,131.68,0.0025753
29905,0.72,4,0.1,0.0024438,24422,0.0024468,24660,-0.000644,1436.3,-0.00094238,-805.59,0.0043664
29906,0.4,4,0.1,0.0010295,10287,0.0010507,11273,-0.00014414,2295.1,-0.00044333,47.152,0.0012986
29907,0.24,4,0.1,0.00092037,9197.4,0.00091746,9908.9,-4.3139e-05,2691.4,-0.00046081,-446.83,0.00047291
29908,0.08,4,0.1,0.00068799,6875.2,0.00075717,9299.1,-4.1894e-06,3578.5,-0.00025796,1671.8,7.1725e-05
29909,0.96667,3.7273,0.1,0.00193,19286,0.001925,19140,-0.00063369,-85.059,-0.00065004,-207.96,0.011385
29910,0.96667,3.9091,0.1,0.0026349,26331,0.0025674,24785,-0.00064269,665.49,-0.0011713,-3306.3,0.010111
29911,0.96667,3.5455,0.1,0.0015967,15956,0.0016085,16327,-0.00046475,749.6,-0.0005621,18.149,0.012235
29912,0.96667,3.3636,0.1,0.001447,14460,0.0014648,15070,-0.00036724,1304.6,-0.00054032,4.1366,0.012782
29913,0.96667,3.1818,0.1,0.0013745,13735,0.0013949,14475,-0.00031624,1618.3,-0.00053096,4.9787,0.013088
29914,0.96667,3,0.1,0.0013529,13520,0.0013741,14301,-0.00030014,1721.2,-0.00052869,3.9741,0.013186
29915,0.96667,2.8182,0.1,0.0013745,13735,0.0013949,14475,-0.00031624,1618.3,-0.00053096,4.9787,0.013088
29916,0.96667,2.6364,0.1,0.001447,14460,0.0014648,15070,-0.00036724,1304.6,-0.00054032,4.1366,0.012782
29917,0.96667,2.4545,0.1,0.0015967,15956,0.0016085,16327,-0.00046475,749.6,-0.0005621,18.149,0.012235
29918,0.96667,2.2727,0.1,0.00193,19286,0.001925,19140,-0.00063369,-85.059,-0.00065004,-207.96,0.011385
29919,0.96667,2.0909,0.1,0.0026349,26331,0.0025674,24785,-0.00064269,665.49,-0.0011713,-3306.3,0.010111
29920,0.56,2,0.1,0.0014178,14169,0.0014346,14695,-0.00039378,957.83,-0.00050373,131.68,0.0025753
29921,0.72,2,0.1,0.0024438,24422,0.0024468,24660,-0.000644,1436.3,-0.00094238,-805.59,0.0043664
29922,0.4,2,0.1,0.0010295,10287,0.0010507,11273,-0.00014414,2295.1,-0.00044333,47.152,0.0012986
29923,0.24,2,0.1,0.00092037,9197.4,0.00091746,9908.9,-4.3139e-05,2691.4,-0.00046081,-446.83,0.00047291
29924,0.08,2,0.1,0.00068799,6875.2,0.00075717,9299.1,-4.1895e-06,3578.5,-0.00025796,1671.8,7.1725e-05
29925,0.96667,5.7273,0.1,8.8003e-05,879.42,8.2522e-05,748.43,-1.9825e-05,-20.568,-4.5092e-05,-210.41,0.012273
29926,0.96667,5.9091,0.1,3.1796e-05,317.74,3.1017e-05,297.11,-9.0312e-06,-3.8012,-1.3202e-05,-35.143,0.014168
29927,0.96667,5.8182,0.05,2.3734e-05,237.17,1.8224e-05,136.93,-2.0789e-13,-3.4433e-06,-1.8224e-05,-136.93,0.012969
29928,0.96667,5.5455,0.1,0.00013878,1386.9,0.00012709,1125.3,-2.5775e-05,-23.327,-7.7962e-05,-415.44,0.010352
29929,0.96667,5.6364,0.05,5.0424e-05,503.89,3.8719e-05,290.92,-8.3109e-13,6.5773e-07,-3.8719e-05,-290.92,0.011021
29930,0.96667,5.3636,0.1,0.00019013,1900,0.00017031,1475.6,-2.9398e-05,-24.878,-0.00011403,-660.77,0.0084041
29931,0.96667,5.4545,0.05,7.7027e-05,769.74,5.9147e-05,444.41,-1.7622e-12,4.7653e-07,-5.9147e-05,-444.41,0.0090295
29932,0.96667,5.1818,0.1,0.00024654,2463.7,0.00021637,1837.7,-3.199e-05,-28.37,-0.00015531,-954.95,0.0064431
29933,0.96667,5.2727,0.05,0.00010587,1058,8.1298e-05,610.84,-2.2208e-12,4.1756e-07,-8.1298e-05,-610.84,0.0069849
29934,0.96667,5,0.1,0.00031189,3116.8,0.00026851,2238.7,-3.3755e-05,-32.369,-0.00020442,-1314.7,0.0045253
29935,0.96667,5.0909,0.05,0.00013848,1383.8,0.00010633,798.95,-2.6751e-12,4.0673e-07,-0.00010633,-798.95,0.0048817
29936,0.96667,4.8182,0.1,0.00039193,3916.6,0.00033126,2711.5,-3.5248e-05,-42.297,-0.00026549,-1772.3,0.0028774
29937,0.96667,4.9091,0.05,0.00017707,1769.5,0.00013597,1021.6,-1.7753e-12,4.4014e-07,-0.00013597,-1021.6,0.0027162
29938,0.96667,4.6364,0.1,0.00049867,4983.3,0.0004132,3319.8,-3.5003e-05,-47.806,-0.00034869,-2404.7,0.0023978
29939,0.96667,4.7273,0.05,0.00022558,2254.2,0.00017321,1301.5,-2.6811e-12,3.6125e-07,-0.00017321,-1301.5,0.00048597
29940,0.96667,4.4545,0.1,0.00063976,6393.2,0.00052413,4142.9,-4.1663e-05,-108.31,-0.00045439,-3209.4,0.0037086
29941,0.96667,4.5455,0.05,0.00029038,2901.8,0.00022298,1675.4,2.96e-12,5.7151e-05,-0.00022298,-1675.4,0.0018099
29942,0.96667,4.2727,0.1,0.00099591,9952.2,0.00077029,5783,-1.1876e-05,-93.9,-0.00075905,-5707.9,0.0057545
29943,0.96667,4.3636,0.05,0.00039619,3959.1,0.00030422,2285.8,-9.5705e-12,-8.8345e-05,-0.00030422,-2285.8,0.0041706
29944,0.96667,4.0909,0.1,0.0019416,19403,0.0017525,16065,-0.00017314,1596.6,-0.001182,-5983.5,0.0080637
29945,0.96667,4.1818,0.05,0.0006537,6532.5,0.00050196,3771.5,8.1937e-11,0.00069986,-0.00050196,-3771.5,0.006582
29946,0.88333,4,0.1,0.0026958,26939,0.0026602,27045,-0.00041372,3949.4,-0.0012786,-2549.1,0.0071627
29947,0.96667,4,0.05,0.00060542,6050,0.00046488,3493,-2.0284e-10,-0.003723,-0.00046488,-3493,0.0090764
29948,0.8,4.0909,0.1,0.0018268,18255,0.0017774,17904,-0.00022985,2822.7,-0.00092367,-2390.4,0.0046579
29949,0.8,4,0.05,0.00050948,5091.3,0.00039122,2939.5,-5.7481e-10,-0.0057685,-0.00039122,-2939.5,0.0054336
29950,0.8,4.2727,0.1,0.00085306,8524.7,0.00077812,6853.6,-0.00015534,-160.08,-0.00048468,-2634.6,0.0032898
29951,0.8,4.1818,0.05,0.00055354,5531.6,0.00042505,3193.7,5.3588e-11,0.00069367,-0.00042505,-3193.7,0.0038574
29952,0.8,4.4545,0.1,0.00053234,5319.7,0.00050881,4720.3,-0.00013844,-142.91,-0.00024734,-961.16,0.0023298
29953,0.8,4.3636,0.05,0.00028572,2855.2,0.0002194,1648.5,-2.0476e-11,-7.4461e-05,-0.0002194,-1648.5,0.0027484
29954,0.8,4.6364,0.1,0.00038642,3861.5,0.00037026,3459.5,-9.7379e-05,-54.167,-0.00017997,-674.76,0.0016265
29955,0.8,4.5455,0.05,0.00018599,1858.7,0.00014282,1073.1,-4.0175e-12,4.1773e-05,-0.00014282,-1073.1,0.0019307
29956,0.8,4.8182,0.1,0.00027573,2755.4,0.0002664,2515.5,-7.4043e-05,-42.502,-0.0001219,-402.09,0.0011218
29957,0.8,4.7273,0.05,0.00012353,1234.5,9.4859e-05,712.73,-4.8235e-12,-6.4673e-06,-9.4859e-05,-712.73,0.0013397
29958,0.8,5,0.1,0.00019665,1965.2,0.00019095,1816.2,-5.4383e-05,-27.145,-8.4256e-05,-251.6,0.00076469
29959,0.8,4.9091,0.05,8.2691e-05,826.34,6.3496e-05,477.08,-2.9464e-12,5.1724e-07,-6.3496e-05,-477.08,0.00091801
29960,0.8,5.1818,0.1,0.00013788,1377.8,0.0001344,1285.4,-3.9224e-05,-19.134,-5.7384e-05,-155.58,0.00051672
29961,0.8,5.0909,0.05,5.4843e-05,548.05,4.2113e-05,316.42,-1.7678e-12,-1.4702e-06,-4.2113e-05,-316.42,0.00062261
29962,0.8,5.3636,0.1,9.3851e-05,937.86,9.1743e-05,881.16,-2.7252e-05,-12.927,-3.8185e-05,-95.075,0.00034737
29963,0.8,5.2727,0.05,3.5707e-05,356.82,2.7419e-05,206.01,3.9176e-14,3.2863e-07,-2.7419e-05,-206.01,0.00041934
29964,0.8,5.5455,0.1,6.0443e-05,604.01,5.9195e-05,569.99,-1.7881e-05,-9.1264,-2.4141e-05,-56.161,0.00023277
29965,0.8,5.4545,0.05,2.243e-05,224.14,1.7223e-05,129.41,-3.6533e-21,-2.745e-14,-1.7223e-05,-129.41,0.0002814
29966,0.8,5.7273,0.1,3.3976e-05,339.53,3.3303e-05,321.02,-1.018e-05,-5.6988,-1.3416e-05,-30.01,0.00015422
29967,0.8,5.6364,0.05,1.3033e-05,130.24,1.0008e-05,75.195,-2.1228e-21,-5.6366e-07,-1.0008e-05,-75.195,0.0001878
29968,0.8,5.9091,0.1,1.1096e-05,110.89,1.0986e-05,108.37,-3.0226e-06,3.1138,-4.4219e-06,-7.4001,9.6977e-05
29969,0.8,5.8182,0.05,5.3855e-06,53.818,4.1354e-06,31.072,-1.1815e-13,2.7775e-07,-4.1354e-06,-31.072,0.00012193
29970,0.96667,0.27273,0.1,8.8003e-05,879.42,8.2522e-05,748.43,-1.9825e-05,-20.568,-4.5092e-05,-210.41,0.012273
29971,0.96667,0.090909,0.1,3.1796e-05,317.74,3.1017e-05,297.11,-9.0312e-06,-3.8011,-1.3202e-05,-35.143,0.014168
29972,0.96667,0.18182,0.05,2.3734e-05,237.17,1.8224e-05,136.93,5.2046e-14,-6.5367e-07,-1.8224e-05,-136.93,0.012969
29973,0.96667,0.45455,0.1,0.00013878,1386.9,0.00012709,1125.3,-2.5775e-05,-23.327,-7.7962e-05,-415.44,0.010352
29974,0.96667,0.36364,0.05,5.0424e-05,503.89,3.8719e-05,290.92,8.1149e-13,-6.5773e-07,-3.8719e-05,-290.92,0.011021
29975,0.96667,0.63636,0.1,0.00019013,1900,0.00017031,1475.6,-2.9398e-05,-24.878,-0.00011403,-660.77,0.0084041
29976,0.96667,0.54545,0.05,7.7027e-05,769.74,5.9147e-05,444.41,1.3122e-12,-4.7654e-07,-5.9147e-05,-444.41,0.0090295
29977,0.96667,0.81818,0.1,0.00024654,2463.7,0.00021637,1837.7,-3.199e-05,-28.37,-0.00015531,-954.95,0.0064431
29978,0.96667,0.72727,0.05,0.00010587,1058,8.1298e-05,610.84,1.7568e-12,-6.2634e-07,-8.1298e-05,-610.84,0.0069849
29979,0.96667,1,0.1,0.00031189,3116.8,0.00026851,2238.7,-3.3755e-05,-32.369,-0.00020442,-1314.7,0.0045253
29980,0.96667,0.90909,0.05,0.00013848,1383.8,0.00010633,798.95,3.205e-12,-4.0673e-07,-0.00010633,-798.95,0.0048817
29981,0.96667,1.1818,0.1,0.00039193,3916.6,0.00033126,2711.5,-3.5248e-05,-42.297,-0.00026549,-1772.3,0.0028774
29982,0.96667,1.0909,0.05,0.00017707,1769.5,0.00013597,1021.6,1.7665e-12,3.7816e-06,-0.00013597,-1021.6,0.0027162
29983,0.96667,1.3636,0.1,0.00049867,4983.3,0.0004132,3319.8,-3.5003e-05,-47.806,-0.00034869,-2404.7,0.0023978
29984,0.96667,1.2727,0.05,0.00022558,2254.2,0.00017321,1301.5,2.6811e-12,-2.89e-07,-0.00017321,-1301.5,0.00048597
29985,0.96667,1.5455,0.1,0.00063976,6393.2,0.00052413,4142.9,-4.1663e-05,-108.31,-0.00045439,-3209.4,0.0037086
29986,0.96667,1.4545,0.05,0.00029038,2901.8,0.00022298,1675.4,-1.603e-12,-5.7336e-05,-0.00022298,-1675.4,0.0018099
29987,0.96667,1.7273,0.1,0.00099591,9952.2,0.00077029,5783,-1.1876e-05,-93.9,-0.00075905,-5707.9,0.0057545
29988,0.96667,1.6364,0.05,0.00039619,3959.1,0.00030422,2285.8,8.2217e-12,9.5628e-05,-0.00030422,-2285.8,0.0041706
29989,0.96667,1.9091,0.1,0.0019416,19403,0.0017525,16065,-0.00017314,1596.6,-0.001182,-5983.5,0.0080637
29990,0.96667,1.8182,0.05,0.0006537,6532.5,0.00050196,3771.5,-8.1937e-11,-0.00071865,-0.00050196,-3771.5,0.006582
29991,0.88333,2,0.1,0.0026958,26940,0.0026602,27045,-0.00041372,3949.4,-0.0012786,-2549.1,0.0071627
29992,0.96667,2,0.05,0.00060541,6050,0.00046488,3493,2.7154e-10,0.0040085,-0.00046488,-3493,0.0090764
29993,0.8,1.9091,0.1,0.0018268,18255,0.0017774,17904,-0.00022985,2822.7,-0.00092367,-2390.4,0.0046579
29994,0.8,2,0.05,0.00050948,5091.3,0.00039122,2939.5,5.6314e-10,0.0066246,-0.00039122,-2939.5,0.0054336
29995,0.8,1.7273,0.1,0.00085306,8524.7,0.00077812,6853.6,-0.00015534,-160.08,-0.00048468,-2634.6,0.0032898
29996,0.8,1.8182,0.05,0.00055354,5531.6,0.00042505,3193.7,-5.4726e-11,-0.00072891,-0.00042505,-3193.7,0.0038574
29997,0.8,1.5455,0.1,0.00053234,5319.7,0.00050881,4720.3,-0.00013844,-142.91,-0.00024734,-961.16,0.0023298
29998,0.8,1.6364,0.05,0.00028572,2855.2,0.0002194,1648.5,2.0476e-11,8.2606e-05,-0.0002194,-1648.5,0.0027484
29999,0.8,1.3636,0.1,0.00038642,3861.5,0.00037026,3459.5,-9.7379e-05,-54.167,-0.00017997,-674.76,0.0016265
30000,0.8,1.4545,0.05,0.00018599,1858.7,0.00014282,1073.1,7.6292e-12,-4.1807e-05,-0.00014282,-1073.1,0.0019307
30001,0.8,1.1818,0.1,0.00027573,2755.4,0.0002664,2515.5,-7.4043e-05,-42.502,-0.0001219,-402.09,0.0011218
30002,0.8,1.2727,0.05,0.00012353,1234.5,9.4859e-05,712.73,8.4303e-12,6.9905e-06,-9.4859e-05,-712.73,0.0013397
30003,0.8,1,0.1,0.00019665,1965.2,0.00019095,1816.2,-5.4383e-05,-27.145,-8.4256e-05,-251.6,0.00076469
30004,0.8,1.0909,0.05,8.2691e-05,826.34,6.3496e-05,477.08,1.7111e-12,-7.7587e-07,-6.3496e-05,-477.08,0.00091801
30005,0.8,0.81818,0.1,0.00013788,1377.8,0.0001344,1285.4,-3.9224e-05,-19.134,-5.7384e-05,-155.58,0.00051672
30006,0.8,0.90909,0.05,5.4843e-05,548.05,4.2113e-05,316.42,-3.4095e-14,-2.8601e-07,-4.2113e-05,-316.42,0.00062261
30007,0.8,0.63636,0.1,9.3851e-05,937.86,9.1743e-05,881.16,-2.7252e-05,-12.927,-3.8185e-05,-95.075,0.00034737
30008,0.8,0.72727,0.05,3.5707e-05,356.82,2.7419e-05,206.01,4.0887e-22,-1.6432e-07,-2.7419e-05,-206.01,0.00041934
30009,0.8,0.45455,0.1,6.0443e-05,604.01,5.9195e-05,569.99,-1.7881e-05,-9.1264,-2.4141e-05,-56.161,0.00023277
30010,0.8,0.54545,0.05,2.243e-05,224.14,1.7223e-05,129.41,1.049e-13,-2.745e-14,-1.7223e-05,-129.41,0.0002814
30011,0.8,0.27273,0.1,3.3976e-05,339.53,3.3303e-05,321.02,-1.018e-05,-5.6988,-1.3416e-05,-30.01,0.00015422
30012,0.8,0.36364,0.05,1.3033e-05,130.24,1.0008e-05,75.195,-2.1228e-21,-1.595e-14,-1.0008e-05,-75.195,0.0001878
30013,0.8,0.090909,0.1,1.1096e-05,110.89,1.0986e-05,108.37,-3.0226e-06,3.1138,-4.4219e-06,-7.4001,9.6977e-05
30014,0.8,0.18182,0.05,5.3855e-06,53.818,4.1354e-06,31.072,-8.7718e-22,9.9115e-07,-4.1354e-06,-31.072,0.00012193
30015,1.0588,6,0.1,3.9495e-05,394.68,3.9698e-05,402.76,-1.0434e-05,26.085,-1.4937e-05,-7.7502,0.010542
30016,0.96667,6,0.05,7.1347e-06,71.297,5.4785e-06,41.164,-2.1069e-13,-3.9686e-06,-5.4785e-06,-41.164,0.014887
30017,1.2431,6,0.1,0.00011354,1134.6,0.00011314,1123.1,-3.6273e-05,0.47169,-3.9426e-05,-23.22,0.002737
30018,1.1509,6,0.05,4.1952e-06,41.923,3.2214e-06,24.204,-1.0868e-12,-1.9581e-14,-3.2214e-06,-24.204,0.0055457
30019,1.4273,6,0.1,0.0001838,1836.7,0.00018331,1822.5,-5.9503e-05,-1.8861,-6.2757e-05,-26.337,0.0089722
30020,1.3352,6,0.05,1.1601e-05,115.93,8.9084e-06,66.934,-9.5451e-13,9.4475e-07,-8.9084e-06,-66.934,0.0038474
30021,1.6116,6,0.1,0.00024619,2460.2,0.00024573,2447,-7.9902e-05,0.262,-8.3473e-05,-26.571,0.018334
30022,1.5195,6,0.05,1.4692e-05,146.82,1.1282e-05,84.766,-1.8181e-12,9.6377e-07,-1.1282e-05,-84.765,0.01334
30023,1.7959,6,0.1,0.00030108,3008.7,0.00030067,2997,-9.8046e-05,1.1304,-0.00010146,-24.486,0.027997
30024,1.7037,6,0.05,1.5699e-05,156.88,1.2055e-05,90.577,3.1987e-15,9.5325e-07,-1.2055e-05,-90.577,0.022978
30025,1.9801,6,0.1,0.0003482,3479.6,0.00034787,3469.8,-0.0001137,1.8085,-0.00011678,-21.315,0.037894
30026,1.888,6,0.05,1.528e-05,152.7,1.1733e-05,88.159,-1.8028e-12,1.5367e-06,-1.1733e-05,-88.159,0.032799
30027,2.1644,6,0.1,0.00038767,3874,0.0003874,3866.1,-0.00012687,2.0829,-0.00012953,-17.924,0.048038
30028,2.0723,6,0.05,1.404e-05,140.3,1.0781e-05,81.002,-2.2868e-21,9.5062e-07,-1.0781e-05,-81.002,0.04284
30029,2.3487,6,0.1,0.00041992,4196.3,0.0004197,4189.9,-0.00013767,2.1055,-0.0001399,-14.696,0.058451
30030,2.2565,6,0.05,1.2395e-05,123.86,9.5175e-06,71.511,-6.0688e-14,-2.7298e-07,-9.5175e-06,-71.511,0.053129
30031,2.5329,6,0.1,0.00044561,4453.1,0.00044544,4448.1,-0.0001463,1.949,-0.00014814,-11.82,0.06915
30032,2.4408,6,0.05,1.0644e-05,106.36,8.173e-06,61.409,-3.9703e-14,-1.3026e-14,-8.173e-06,-61.409,0.063692
30033,2.7172,6,0.1,0.00046556,4652.4,0.00046543,4648.6,-0.00015303,1.6923,-0.0001545,-9.347,0.080153
30034,2.6251,6,0.05,8.9817e-06,89.755,6.8968e-06,51.82,7.0734e-12,-1.0992e-14,-6.8968e-06,-51.82,0.074548
30035,2.9015,6,0.1,0.00048058,4802.5,0.00048048,4799.6,-0.00015812,1.3905,-0.00015927,-7.2693,0.091473
30036,2.8093,6,0.05,7.5239e-06,75.188,5.7775e-06,43.41,3.5263e-12,-9.2078e-15,-5.7775e-06,-43.41,0.085713
30037,3.0857,6,0.1,0.00049147,4911.3,0.00049139,4909.1,-0.00016182,1.0824,-0.0001627,-5.5485,0.10312
30038,2.9936,6,0.05,6.3266e-06,63.223,4.8581e-06,36.502,3.4605e-12,-1.3748e-06,-4.8581e-06,-36.502,0.097198
30039,3.27,6,0.1,0.00049893,4985.9,0.00049888,4984.2,-0.00016438,0.79179,-0.00016503,-4.1383,0.1151
30040,3.1779,6,0.05,5.406e-06,54.023,4.1511e-06,31.19,7.1105e-12,-1.1101e-06,-4.1511e-06,-31.19,0.10901
30041,3.4543,6,0.1,0.0005036,5032.5,0.00050356,5031.3,-0.000166,0.53207,-0.00016647,-2.9941,0.12742
30042,3.3621,6,0.05,4.7526e-06,47.493,3.6494e-06,27.42,7.1506e-12,-8.6213e-07,-3.6494e-06,-27.42,0.12117
30043,3.6385,6,0.1,0.00050601,5056.6,0.00050598,5055.7,-0.00016686,0.30943,-0.00016717,-2.0769,0.14008
30044,3.5464,6,0.05,4.3424e-06,43.394,3.3344e-06,25.053,7.2153e-12,-6.1042e-07,-3.3344e-06,-25.053,0.13366
30045,3.8228,6,0.1,0.00050661,5062.6,0.00050659,5062,-0.0001671,0.12586,-0.0001673,-1.3543,0.15309
30046,3.7307,6,0.05,4.1436e-06,41.407,3.1817e-06,23.906,1.4519e-11,-1.5271e-07,-3.1818e-06,-23.907,0.14649
30047,4.0071,6,0.1,0.00050576,5054.2,0.00050575,5053.7,-0.00016686,-0.017139,-0.00016697,-0.80178,0.16643
30048,3.9149,6,0.05,4.1222e-06,41.193,3.1653e-06,23.783,1.4543e-11,-5.3302e-08,-3.1653e-06,-23.783,0.15967
30049,4.1913,6,0.1,0.00050378,5034.3,0.00050377,5034.1,-0.00016624,-0.10219,-0.00016628,-0.41678,0.18013
30050,4.0992,6,0.05,4.2448e-06,42.418,3.2594e-06,24.49,1.4552e-11,2.0621e-09,-3.2595e-06,-24.49,0.17319
30051,4.3756,6,0.1,0.0005009,5005.6,0.0005009,5005.4,-0.00016528,-0.0097314,-0.00016532,-0.30301,0.19416
30052,4.2835,6,0.05,4.4805e-06,44.774,3.4405e-06,25.85,1.0912e-11,-2.2998e-08,-3.4405e-06,-25.851,0.18706
30053,4.5599,6,0.1,0.00049732,4969.8,0.00049732,4969.7,-0.00016409,0.15374,-0.00016415,-0.34092,0.20854
30054,4.4677,6,0.05,4.8023e-06,47.99,3.6876e-06,27.707,1.0905e-11,3.021e-07,-3.6876e-06,-27.707,0.20127
30055,4.7441,6,0.1,0.0004932,4928.6,0.0004932,4928.6,-0.00016272,0.24908,-0.0001628,-0.38023,0.22325
30056,4.652,6,0.05,5.1867e-06,51.832,3.9828e-06,29.925,7.2553e-12,4.1703e-07,-3.9828e-06,-29.925,0.21581
30057,4.9284,6,0.1,0.00048867,4883.3,0.00048866,4883.2,-0.00016122,0.27275,-0.00016131,-0.40754,0.2383
30058,4.8363,6,0.05,5.6143e-06,56.104,4.3111e-06,32.392,1.0898e-11,4.5911e-07,-4.3111e-06,-32.392,0.23069
30059,5.1127,6,0.1,0.00048381,4834.8,0.00048381,4834.7,-0.00015962,0.23388,-0.0001597,-0.42318,0.25368
30060,5.0205,6,0.05,6.0689e-06,60.647,4.6601e-06,35.014,7.255e-12,4.7935e-07,-4.6602e-06,-35.015,0.24591
30061,5.2969,6,0.1,0.00047872,4783.9,0.00047871,4783.7,-0.00015794,0.14239,-0.00015802,-0.42907,0.26939
30062,5.2048,6,0.05,6.5375e-06,65.33,5.02e-06,37.718,1.4538e-11,6.2748e-07,-5.02e-06,-37.718,0.26145
30063,5.4812,6,0.1,0.00047344,4731.2,0.00047344,4731,-0.00015621,0.0076324,-0.00015627,-0.42728,0.28542
30064,5.3891,6,0.05,7.0098e-06,70.05,5.3827e-06,40.443,1.4531e-11,5.5705e-07,-5.3827e-06,-40.443,0.27733
30065,5.6655,6,0.1,0.00046804,4677.2,0.00046803,4676.9,-0.00015445,-0.16163,-0.00015448,-0.42003,0.30178
30066,5.5733,6,0.05,7.4777e-06,74.725,5.7419e-06,43.142,7.2615e-12,8.4968e-07,-5.7419e-06,-43.143,0.29352
30067,5.8497,6,0.1,0.00046254,4622.2,0.00046253,4621.9,-0.00015265,-0.35088,-0.00015266,-0.41598,0.31845
30068,5.7576,6,0.05,7.9349e-06,79.294,6.093e-06,45.78,1.4548e-11,7.1559e-07,-6.093e-06,-45.781,0.31004
30069,6.034,6,0.1,0.00045698,4566.7,0.00045697,4566.2,-0.00015081,-0.38577,-0.00015083,-0.58424,0.33544
30070,5.9419,6,0.05,8.3769e-06,83.712,6.4324e-06,48.331,1.0911e-11,1.032e-06,-6.4325e-06,-48.331,0.32687
30071,6.2183,6,0.1,0.00045138,4510.7,0.00045136,4510.1,-0.00014895,-0.3691,-0.000149,-0.81746,0.35274
30072,6.1261,6,0.05,8.8004e-06,87.943,6.7576e-06,50.774,7.2637e-12,9.5017e-07,-6.7576e-06,-50.774,0.34402
30073,6.4025,6,0.1,0.00044575,4454.4,0.00044573,4453.7,-0.00014707,-0.34972,-0.00014717,-1.0628,0.37034
30074,6.3104,6,0.05,9.203e-06,91.967,7.0668e-06,53.097,1.4545e-11,1.143e-06,-7.0668e-06,-53.097,0.36147
30075,6.5868,6,0.1,0.00044011,4398.1,0.00044008,4397.3,-0.0001452,-0.32924,-0.00014533,-1.3153,0.38825
30076,6.4947,6,0.05,9.5834e-06,95.768,7.3589e-06,55.292,7.2708e-12,1.3419e-06,-7.3589e-06,-55.292,0.37922
30077,6.7711,6,0.1,0.00043447,4341.7,0.00043444,4340.8,-0.00014332,-0.30833,-0.00014349,-1.5715,0.40646
30078,6.6789,6,0.05,9.9407e-06,99.339,7.6332e-06,57.353,1.0905e-11,1.2059e-06,-7.6333e-06,-57.353,0.39728
30079,6.9553,6,0.1,0.00042884,4285.4,0.0004288,4284.4,-0.00014145,-0.28742,-0.00014165,-1.8284,0.42496
30080,6.8632,6,0.05,1.0275e-05,102.68,7.8897e-06,59.28,7.2731e-12,1.282e-06,-7.8898e-06,-59.281,0.41564
30081,7.1396,6,0.1,0.00042322,4229.2,0.00042318,4228.1,-0.00013958,-0.26683,-0.00013982,-2.0838,0.44375
30082,7.0475,6,0.05,1.0586e-05,105.78,8.1284e-06,61.074,1.4553e-11,1.4969e-06,-8.1285e-06,-61.074,0.43428
30083,7.3239,6,0.1,0.00041761,4173.2,0.00041757,4171.9,-0.00013772,-0.24679,-0.00013799,-2.3359,0.46283
30084,7.2317,6,0.05,1.0874e-05,108.66,8.3497e-06,62.736,1.0912e-11,1.2982e-06,-8.3497e-06,-62.737,0.45322
30085,7.5081,6,0.1,0.00041203,4117.4,0.00041198,4116,-0.00013586,-0.22746,-0.00013617,-2.5834,0.48219
30086,7.416,6,0.05,1.114e-05,111.32,8.554e-06,64.271,1.0915e-11,1.5087e-06,-8.554e-06,-64.272,0.47244
30087,7.6924,6,0.1,0.00040646,4061.8,0.00040641,4060.3,-0.00013401,-0.20894,-0.00013436,-2.8252,0.50183
30088,7.6003,6,0.05,1.1385e-05,113.77,8.742e-06,65.684,7.2747e-12,1.5184e-06,-8.742e-06,-65.684,0.49194
30089,7.8767,6,0.1,0.00040092,4006.4,0.00040086,4004.8,-0.00013217,-0.1913,-0.00013255,-3.0604,0.52175
30090,7.7845,6,0.05,1.1609e-05,116.01,8.9143e-06,66.979,1.091e-11,1.6806e-06,-8.9143e-06,-66.979,0.51173
30091,8.0609,6,0.1,0.0003954,3951.3,0.00039534,3949.6,-0.00013033,-0.17459,-0.00013075,-3.2887,0.54194
30092,7.9688,6,0.05,1.1814e-05,118.06,9.0718e-06,68.162,1.0913e-11,1.5853e-06,-9.0719e-06,-68.162,0.53178
30093,8.2452,6,0.1,0.00038991,3896.4,0.00038985,3894.6,-0.00012851,-0.15881,-0.00012896,-3.5095,0.5624
30094,8.1531,6,0.05,1.2001e-05,119.93,9.2153e-06,69.24,7.2772e-12,1.8432e-06,-9.2153e-06,-69.24,0.5521
30095,8.4295,6,0.1,0.00038445,3841.8,0.00038438,3839.9,-0.00012669,-0.14396,-0.00012717,-3.7229,0.58312
30096,8.3373,6,0.05,1.217e-05,121.62,9.3454e-06,70.218,7.2754e-12,1.7249e-06,-9.3454e-06,-70.218,0.5727
30097,8.6137,6,0.1,0.00037901,3787.4,0.00037894,3785.4,-0.00012489,-0.13003,-0.00012539,-3.9286,0.6041
30098,8.5216,6,0.05,1.2324e-05,123.15,9.4631e-06,71.102,7.2771e-12,2.0229e-06,-9.4631e-06,-71.102,0.59355
30099,8.798,6,0.1,0.00037359,3733.3,0.00037352,3731.2,-0.00012309,-0.11699,-0.00012362,-4.1269,0.62534
30100,8.7059,6,0.05,1.2462e-05,124.53,9.569e-06,71.898,7.2756e-12,2.0715e-06,-9.569e-06,-71.898,0.61466
30101,8.9823,6,0.1,0.0003682,3679.5,0.00036813,3677.3,-0.0001213,-0.1048,-0.00012186,-4.3179,0.64684
30102,8.8901,6,0.05,1.2585e-05,125.77,9.664e-06,72.611,7.2769e-12,1.916e-06,-9.664e-06,-72.612,0.63603
30103,9.1665,6,0.1,0.00036284,3625.9,0.00036276,3623.6,-0.00011952,-0.093428,-0.00012011,-4.5017,0.66858
30104,9.0744,6,0.05,1.2696e-05,126.87,9.7487e-06,73.248,9.0947e-12,2.1439e-06,-9.7487e-06,-73.248,0.65765
30105,9.3508,6,0.1,0.0003575,3572.5,0.00035742,3570.1,-0.00011775,-0.082833,-0.00011836,-4.6787,0.69057
30106,9.2587,6,0.05,1.2794e-05,127.85,9.8239e-06,73.813,7.2768e-12,2.0254e-06,-9.8239e-06,-73.813,0.67952
30107,9.5351,6,0.1,0.00035218,3519.4,0.0003521,3516.9,-0.00011599,-0.072972,-0.00011662,-4.8492,0.7128
30108,9.4429,6,0.05,1.288e-05,128.71,9.8902e-06,74.311,7.2767e-12,2.3309e-06,-9.8902e-06,-74.311,0.70163
30109,9.7193,6,0.1,0.00034689,3466.5,0.00034681,3464,-0.00011423,-0.063805,-0.00011489,-5.0135,0.73527
30110,9.6272,6,0.05,1.2955e-05,129.46,9.9481e-06,74.746,7.2759e-12,2.6158e-06,-9.9481e-06,-74.746,0.72398
30111,9.9036,6,0.1,0.00034163,3413.9,0.00034154,3411.3,-0.00011249,-0.055286,-0.00011317,-5.172,0.75798
30112,9.8115,6,0.05,1.3021e-05,130.12,9.9984e-06,75.124,7.2759e-12,2.3186e-06,-9.9984e-06,-75.124,0.74657
30113,10.088,6,0.1,0.00033639,3361.5,0.0003363,3358.9,-0.00011075,-0.04737,-0.00011145,-5.325,0.78091
30114,9.9957,6,0.05,1.3077e-05,130.68,1.0041e-05,75.448,7.2753e-12,2.5626e-06,-1.0041e-05,-75.448,0.76939
30115,10.272,6,0.1,0.00033117,3309.4,0.00033108,3306.6,-0.00010902,-0.040025,-0.00010974,-5.4729,0.80408
30116,10.18,6,0.05,1.3124e-05,131.15,1.0078e-05,75.721,7.2764e-12,2.5071e-06,-1.0078e-05,-75.722,0.79244
30117,10.456,6,0.1,0.00032598,3257.5,0.00032588,3254.7,-0.0001073,-0.03319,-0.00010804,-5.6161,0.82747
30118,10.364,6,0.05,1.3164e-05,131.55,1.0108e-05,75.949,7.2763e-12,2.5628e-06,-1.0108e-05,-75.949,0.81572
30119,10.641,6,0.1,0.0003208,3205.8,0.00032071,3202.9,-0.00010558,-0.02684,-0.00010634,-5.7549,0.85107
30120,10.549,6,0.05,1.3196e-05,131.87,1.0133e-05,76.133,7.2756e-12,2.739e-06,-1.0133e-05,-76.133,0.83922
30121,10.825,6,0.1,0.00031566,3154.4,0.00031556,3151.4,-0.00010388,-0.020977,-0.00010466,-5.8897,0.8749
30122,10.733,6,0.05,1.3221e-05,132.12,1.0152e-05,76.277,7.2759e-12,2.861e-06,-1.0152e-05,-76.277,0.86293
30123,11.009,6,0.1,0.00031053,3103.2,0.00031043,3100.2,-0.00010218,-0.015534,-0.00010298,-6.021,0.89894
30124,10.917,6,0.05,1.3239e-05,132.3,1.0166e-05,76.384,7.276e-12,2.7418e-06,-1.0166e-05,-76.384,0.88687
30125,11.193,6,0.1,0.00030543,3052.2,0.00030532,3049.1,-0.00010049,-0.010461,-0.0001013,-6.1489,0.92319
30126,11.101,6,0.05,1.3252e-05,132.43,1.0176e-05,76.457,5.457e-12,3.2782e-06,-1.0176e-05,-76.457,0.91102
30127,11.378,6,0.1,0.00030035,3001.4,0.00030024,2998.3,-9.8805e-05,-0.005729,-9.9639e-05,-6.2739,0.94765
30128,11.286,6,0.05,1.3259e-05,132.5,1.0181e-05,76.497,5.457e-12,2.861e-06,-1.0181e-05,-76.497,0.93537
30129,11.562,6,0.1,0.00029529,2950.9,0.00029518,2947.7,-9.713e-05,-0.0013218,-9.7981e-05,-6.3962,0.97231
30130,11.47,6,0.05,1.3261e-05,132.52,1.0183e-05,76.508,7.276e-12,3.1594e-06,-1.0183e-05,-76.508,0.95993
30131,11.746,6,0.1,0.00029026,2900.6,0.00029015,2897.3,-9.5461e-05,0.002742,-9.6329e-05,-6.5163,0.99717
30132,11.654,6,0.05,1.3258e-05,132.49,1.018e-05,76.491,7.276e-12,3.9339e-06,-1.018e-05,-76.491,0.98469
30133,11.931,6,0.1,0.00028524,2850.5,0.00028513,2847.1,-9.3801e-05,0.0065318,-9.4685e-05,-6.6345,1.0222
30134,11.838,6,0.05,1.325e-05,132.41,1.0175e-05,76.448,7.276e-12,2.5034e-06,-1.0175e-05,-76.448,1.0097
30135,12.115,6,0.1,0.00028025,2800.6,0.00028014,2797.2,-9.2147e-05,0.010085,-9.3047e-05,-6.7509,1.0475
30136,12.023,6,0.05,1.3239e-05,132.3,1.0166e-05,76.381,7.276e-12,2.8603e-06,-1.0166e-05,-76.381,1.0348
30137,12.299,6,0.1,0.00027528,2750.9,0.00027516,2747.5,-9.0501e-05,0.013422,-9.1417e-05,-6.8659,1.0729
30138,12.207,6,0.05,1.3223e-05,132.14,1.0154e-05,76.292,7.2758e-12,3.8137e-06,-1.0154e-05,-76.292,1.0602
30139,12.483,6,0.1,0.00027033,2701.4,0.00027021,2698,-8.8862e-05,0.016548,-8.9793e-05,-6.9797,1.0985
30140,12.391,6,0.05,1.3204e-05,131.95,1.0139e-05,76.181,7.2758e-12,3.4558e-06,-1.0139e-05,-76.181,1.0857
30141,12.668,6,0.1,0.0002654,2652.2,0.00026528,2648.7,-8.723e-05,0.019453,-8.8177e-05,-7.0928,1.1244
30142,12.575,6,0.05,1.3182e-05,131.72,1.0122e-05,76.051,5.457e-12,3.8727e-06,-1.0122e-05,-76.051,1.1114
30143,12.852,6,0.1,0.0002605,2603.2,0.00026037,2599.6,-8.5605e-05,0.022185,-8.6567e-05,-7.2052,1.1503
30144,12.76,6,0.05,1.3156e-05,131.47,1.0102e-05,75.902,5.457e-12,3.6358e-06,-1.0102e-05,-75.903,1.1373
30145,13.036,6,0.1,0.00025561,2554.4,0.00025549,2550.7,-8.3987e-05,0.024778,-8.4964e-05,-7.3173,1.1765
30146,12.944,6,0.05,1.3127e-05,131.18,1.008e-05,75.737,3.638e-12,3.2782e-06,-1.008e-05,-75.737,1.1634
30147,13.22,6,0.1,0.00025075,2505.7,0.00025062,2502,-8.2376e-05,0.027246,-8.3368e-05,-7.4292,1.2028
30148,13.128,6,0.05,1.3095e-05,130.86,1.0056e-05,75.554,7.2757e-12,4.4107e-06,-1.0056e-05,-75.554,1.1896
30149,13.405,6,0.1,0.0002459,2457.3,0.00024578,2453.6,-8.0772e-05,0.029589,-8.178e-05,-7.5413,1.2294
30150,13.313,6,0.05,1.3061e-05,130.52,1.0029e-05,75.357,5.4567e-12,3.755e-06,-1.0029e-05,-75.357,1.2161
30151,13.589,6,0.1,0.00024108,2409.1,0.00024095,2405.3,-7.9175e-05,0.031798,-8.0198e-05,-7.6537,1.256
30152,13.497,6,0.05,1.3024e-05,130.15,1.0001e-05,75.144,7.2759e-12,3.755e-06,-1.0001e-05,-75.144,1.2426
30153,13.773,6,0.1,0.00023628,2361.2,0.00023615,2357.3,-7.7584e-05,0.033912,-7.8622e-05,-7.7668,1.2829
30154,13.681,6,0.05,1.2985e-05,129.76,9.9709e-06,74.917,5.457e-12,3.6954e-06,-9.9709e-06,-74.917,1.2694
30155,13.957,6,0.1,0.0002315,2313.4,0.00023136,2309.5,-7.6001e-05,0.035961,-7.7054e-05,-7.8805,1.3099
30156,13.865,6,0.05,1.2943e-05,129.35,9.9389e-06,74.677,3.6376e-12,4.2318e-06,-9.939e-06,-74.677,1.2963
30157,14.142,6,0.1,0.00022674,2265.8,0.0002266,2261.8,-7.4424e-05,0.037955,-7.5493e-05,-7.9953,1.337
30158,14.05,6,0.05,1.29e-05,128.91,9.9053e-06,74.424,3.6384e-12,4.4669e-06,-9.9053e-06,-74.424,1.3234
30159,14.326,6,0.1,0.000222,2218.4,0.00022186,2214.4,-7.2854e-05,0.039894,-7.3938e-05,-8.1112,1.3643
30160,14.234,6,0.05,1.2854e-05,128.45,9.8699e-06,74.159,3.6375e-12,4.7647e-06,-9.8699e-06,-74.159,1.3506
30161,14.51,6,0.1,0.00021728,2171.3,0.00021714,2167.2,-7.129e-05,0.041767,-7.2391e-05,-8.2286,1.3918
30162,14.418,6,0.05,1.2805e-05,127.97,9.833e-06,73.881,3.6375e-12,3.7513e-06,-9.833e-06,-73.881,1.378
30163,14.695,6,0.1,0.00021258,2124.3,0.00021244,2120.2,-6.9733e-05,0.043609,-7.085e-05,-8.3475,1.4194
30164,14.602,6,0.05,1.2755e-05,127.46,9.7944e-06,73.591,3.6375e-12,5.5989e-06,-9.7944e-06,-73.591,1.4055
30165,14.879,6,0.1,0.0002079,2077.6,0.00020775,2073.3,-6.8183e-05,0.045446,-6.9316e-05,-8.4682,1.4471
30166,14.787,6,0.05,1.2703e-05,126.94,9.7543e-06,73.29,5.4569e-12,3.9934e-06,-9.7543e-06,-73.29,1.4332
30167,15.063,6,0.1,0.00020324,2031,0.00020309,2026.7,-6.6639e-05,0.04729,-6.7789e-05,-8.5908,1.475
30168,14.971,6,0.05,1.2649e-05,126.4,9.7127e-06,72.977,3.638e-12,4.2914e-06,-9.7127e-06,-72.977,1.461
30169,15.247,6,0.1,0.0001986,1984.6,0.00019845,1980.3,-6.5102e-05,0.049137,-6.6269e-05,-8.7155,1.503
30170,15.155,6,0.05,1.2592e-05,125.84,9.6695e-06,72.653,3.6374e-12,5.0618e-06,-9.6695e-06,-72.653,1.489
30171,15.432,6,0.1,0.00019398,1938.5,0.00019383,1934.1,-6.3572e-05,0.050981,-6.4755e-05,-8.8425,1.5312
30172,15.339,6,0.05,1.2534e-05,125.26,9.6247e-06,72.316,3.6374e-12,5.6074e-06,-9.6247e-06,-72.316,1.5171
30173,15.616,6,0.1,0.00018938,1892.5,0.00018923,1888.1,-6.2048e-05,0.052853,-6.3249e-05,-8.972,1.5595
30174,15.524,6,0.05,1.2474e-05,124.65,9.5784e-06,71.968,3.638e-12,4.3558e-06,-9.5784e-06,-71.968,1.5453
30175,15.8,6,0.1,0.00018481,1846.8,0.00018465,1842.2,-6.053e-05,0.054779,-6.1749e-05,-9.1041,1.5879
30176,15.708,6,0.05,1.2412e-05,124.03,9.5305e-06,71.609,3.638e-12,5.8956e-06,-9.5305e-06,-71.609,1.5736
30177,15.984,6,0.1,0.00018025,1801.2,0.00018009,1796.6,-5.9019e-05,0.056769,-6.0256e-05,-9.239,1.6164
30178,15.892,6,0.05,1.2347e-05,123.39,9.481e-06,71.237,3.638e-12,4.7033e-06,-9.481e-06,-71.237,1.6021
30179,16.169,6,0.1,0.00017571,1755.9,0.00017555,1751.2,-5.7514e-05,0.058825,-5.877e-05,-9.3768,1.6451
30180,16.077,6,0.05,1.228e-05,122.72,9.4298e-06,70.852,3.6373e-12,5.841e-06,-9.4298e-06,-70.852,1.6307
30181,16.353,6,0.1,0.00017119,1710.7,0.00017103,1706,-5.6015e-05,0.060941,-5.729e-05,-9.5177,1.6739
30182,16.261,6,0.05,1.2212e-05,122.03,9.3769e-06,70.455,3.6379e-12,5.4777e-06,-9.3769e-06,-70.455,1.6594
30183,16.537,6,0.1,0.00016669,1665.8,0.00016652,1660.9,-5.4523e-05,0.06315,-5.5817e-05,-9.6619,1.7028
30184,16.445,6,0.05,1.214e-05,121.32,9.3223e-06,70.044,3.6379e-12,6.6159e-06,-9.3223e-06,-70.044,1.6883
30185,16.721,6,0.1,0.00016221,1621,0.00016204,1616.1,-5.3037e-05,0.065477,-5.4351e-05,-9.8093,1.7318
30186,16.629,6,0.05,1.2067e-05,120.58,9.2657e-06,69.619,3.6379e-12,4.6427e-06,-9.2657e-06,-69.619,1.7172
30187,16.906,6,0.1,0.00015775,1576.4,0.00015758,1571.4,-5.1558e-05,0.067936,-5.2892e-05,-9.9603,1.7609
30188,16.814,6,0.05,1.199e-05,119.82,9.2072e-06,69.179,3.6379e-12,7.3376e-06,-9.2072e-06,-69.179,1.7463
30189,17.09,6,0.1,0.00015331,1532,0.00015313,1527,-5.0084e-05,0.070532,-5.144e-05,-10.115,1.7901
30190,16.998,6,0.05,1.1912e-05,119.03,9.1466e-06,68.724,2.7293e-12,4.1652e-06,-9.1466e-06,-68.724,1.7755
30191,17.274,6,0.1,0.00014889,1487.8,0.00014871,1482.7,-4.8617e-05,0.073267,-4.9994e-05,-10.273,1.8194
30192,17.182,6,0.05,1.183e-05,118.22,9.0839e-06,68.253,2.7267e-12,7.5028e-06,-9.0839e-06,-68.253,1.8047
30193,17.459,6,0.1,0.00014448,1443.8,0.0001443,1438.6,-4.7155e-05,0.076173,-4.8554e-05,-10.435,1.8489
30194,17.366,6,0.05,1.1745e-05,117.37,9.0188e-06,67.764,1.819e-12,6.6828e-06,-9.0188e-06,-67.764,1.8341
30195,17.643,6,0.1,0.0001401,1400,0.00013992,1394.7,-4.57e-05,0.079278,-4.7121e-05,-10.601,1.8784
30196,17.551,6,0.05,1.1657e-05,116.49,8.9513e-06,67.257,2.7294e-12,5.9006e-06,-8.9513e-06,-67.257,1.8636
30197,17.827,6,0.1,0.00013573,1356.4,0.00013555,1351,-4.4251e-05,0.082603,-4.5695e-05,-10.77,1.908
30198,17.735,6,0.05,1.1566e-05,115.58,8.8812e-06,66.73,2.7284e-12,6.4966e-06,-8.8812e-06,-66.73,1.8932
30199,18.011,6,0.1,0.00013139,1313,0.0001312,1307.5,-4.2807e-05,0.086159,-4.4275e-05,-10.944,1.9377
30200,17.919,6,0.05,1.1471e-05,114.63,8.8083e-06,66.182,3.639e-12,7.4502e-06,-8.8083e-06,-66.182,1.9228
30201,18.196,6,0.1,0.00012706,1269.7,0.00012687,1264.2,-4.137e-05,0.089955,-4.2862e-05,-11.121,1.9675
30202,18.103,6,0.05,1.1372e-05,113.64,8.7324e-06,65.612,1.8189e-12,6.3177e-06,-8.7324e-06,-65.612,1.9526
30203,18.38,6,0.1,0.00012275,1226.7,0.00012256,1221,-3.9938e-05,0.09403,-4.1455e-05,-11.303,1.9974
30204,18.288,6,0.05,1.1269e-05,112.61,8.6533e-06,65.018,2.7284e-12,7.2215e-06,-8.6533e-06,-65.018,1.9824
30205,18.564,6,0.1,0.00011846,1183.8,0.00011826,1178,-3.8513e-05,0.098418,-4.0055e-05,-11.488,2.0274
30206,18.472,6,0.05,1.1162e-05,111.54,8.5708e-06,64.397,2.7272e-12,6.4964e-06,-8.5708e-06,-64.398,2.0123
30207,18.748,6,0.1,0.00011418,1141.1,0.00011398,1135.2,-3.7093e-05,0.10315,-3.866e-05,-11.677,2.0574
30208,18.656,6,0.05,1.1049e-05,110.42,8.4846e-06,63.75,2.7271e-12,6.5348e-06,-8.4846e-06,-63.75,2.0423
30209,18.933,6,0.1,0.00010993,1098.5,0.00010972,1092.6,-3.5678e-05,0.10824,-3.7272e-05,-11.869,2.0875
30210,18.841,6,0.05,1.0932e-05,109.24,8.3944e-06,63.072,1.8189e-12,7.3906e-06,-8.3944e-06,-63.072,2.0724
30211,19.117,6,0.1,0.00010569,1056.2,0.00010548,1050.2,-3.4269e-05,0.11371,-3.589e-05,-12.065,2.1177
30212,19.025,6,0.05,1.0809e-05,108.01,8.2999e-06,62.362,1.8204e-12,6.3295e-06,-8.2999e-06,-62.362,2.1026
30213,19.301,6,0.1,0.00010147,1014,0.00010126,1007.9,-3.2866e-05,0.11962,-3.4514e-05,-12.264,2.148
30214,19.209,6,0.05,1.068e-05,106.73,8.2008e-06,61.618,1.8189e-12,7.2842e-06,-8.2008e-06,-61.618,2.1328
30215,19.485,6,0.1,9.7266e-05,971.99,9.705e-05,965.76,-3.1468e-05,0.12601,-3.3144e-05,-12.466,2.1783
30216,19.393,6,0.05,1.0544e-05,105.37,8.0968e-06,60.836,1.8206e-12,6.1384e-06,-8.0968e-06,-60.836,2.1631
30217,19.67,6,0.1,9.3079e-05,930.15,9.2859e-05,923.81,-3.0075e-05,0.13292,-3.1779e-05,-12.671,2.2087
30218,19.578,6,0.05,1.0402e-05,103.95,7.9874e-06,60.014,1.8189e-12,7.0326e-06,-7.9874e-06,-60.014,2.1935
30219,19.854,6,0.1,8.8908e-05,888.47,8.8684e-05,882.03,-2.8688e-05,0.14039,-3.042e-05,-12.877,2.2392
30220,19.762,6,0.05,1.0252e-05,102.45,7.8721e-06,59.148,1.3623e-12,6.8382e-06,-7.8721e-06,-59.148,2.2239
30221,20.038,6,0.1,8.4754e-05,846.95,8.4526e-05,840.41,-2.7306e-05,0.14847,-2.9067e-05,-13.084,2.2697
30222,19.946,6,0.05,1.0094e-05,100.87,7.7506e-06,58.235,9.0747e-13,7.7313e-06,-7.7506e-06,-58.235,2.2544
30223,20.223,6,0.1,8.0615e-05,805.6,8.0384e-05,798.95,-2.5929e-05,0.15722,-2.7719e-05,-13.293,2.3002
30224,20.13,6,0.05,9.9264e-06,99.196,7.6223e-06,57.271,1.362e-12,8.8809e-06,-7.6223e-06,-57.271,2.2849
30225,20.407,6,0.1,7.6493e-05,764.4,7.6257e-05,757.64,-2.4557e-05,0.16671,-2.6376e-05,-13.501,2.3309
30226,20.315,6,0.05,9.7497e-06,97.43,7.4866e-06,56.251,9.0947e-13,8.1554e-06,-7.4866e-06,-56.251,2.3155
30227,20.591,6,0.1,7.2386e-05,723.36,7.2146e-05,716.49,-2.319e-05,0.17702,-2.5038e-05,-13.708,2.3615
30228,20.499,6,0.05,9.5626e-06,95.56,7.3429e-06,55.172,4.5221e-13,6.8034e-06,-7.3429e-06,-55.172,2.3462
30229,20.775,6,0.1,6.8294e-05,682.47,6.805e-05,675.5,-2.1829e-05,0.18822,-2.3705e-05,-13.912,2.3923
30230,20.683,6,0.05,9.3642e-06,93.577,7.1905e-06,54.027,9.0399e-13,8.6864e-06,-7.1905e-06,-54.027,2.3769
30231,20.96,6,0.1,6.4217e-05,641.73,6.3969e-05,634.66,-2.0472e-05,0.20042,-2.2377e-05,-14.113,2.423
30232,20.867,6,0.05,9.1535e-06,91.471,7.0287e-06,52.811,3.0568e-15,8.0213e-06,-7.0287e-06,-52.811,2.4076
30233,21.144,6,0.1,6.0156e-05,601.15,5.9903e-05,593.97,-1.912e-05,0.21371,-2.1053e-05,-14.309,2.4538
30234,21.052,6,0.05,8.9293e-06,89.232,6.8566e-06,51.518,4.5798e-13,8.5511e-06,-6.8566e-06,-51.518,2.4384
30235,21.328,6,0.1,5.611e-05,560.71,5.5852e-05,553.43,-1.7774e-05,0.22826,-1.9734e-05,-14.497,2.4847
30236,21.236,6,0.05,8.6906e-06,86.846,6.6733e-06,50.141,9.1306e-13,7.9877e-06,-6.6733e-06,-50.141,2.4693
30237,21.512,6,0.1,5.2079e-05,520.43,5.1817e-05,513.05,-1.6433e-05,0.24421,-1.8419e-05,-14.676,2.5156
30238,21.42,6,0.05,8.4359e-06,84.301,6.4777e-06,48.671,9.1349e-13,9.6615e-06,-6.4777e-06,-48.671,2.5001
30239,21.697,6,0.1,4.8063e-05,480.3,4.7797e-05,472.83,-1.5098e-05,0.26175,-1.7108e-05,-14.842,2.5465
30240,21.605,6,0.05,8.1636e-06,81.58,6.2686e-06,47.1,4.4274e-15,8.5837e-06,-6.2686e-06,-47.1,2.531
30241,21.881,6,0.1,4.4064e-05,440.33,4.3794e-05,432.78,-1.3768e-05,0.28114,-1.5801e-05,-14.992,2.5775
30242,21.789,6,0.05,7.8719e-06,78.665,6.0447e-06,45.417,4.548e-13,1.0342e-05,-6.0447e-06,-45.417,2.562
30243,22.065,6,0.1,4.0081e-05,400.54,3.9807e-05,392.9,-1.2445e-05,0.30268,-1.4498e-05,-15.123,2.6084
30244,21.973,6,0.05,7.5589e-06,75.537,5.8043e-06,43.611,4.6035e-13,9.4339e-06,-5.8043e-06,-43.611,2.5929
30245,22.249,6,0.1,3.6118e-05,360.93,3.5839e-05,353.22,-1.1129e-05,0.32678,-1.3199e-05,-15.227,2.6394
30246,22.157,6,0.05,7.2219e-06,72.17,5.5456e-06,41.667,4.672e-13,8.8314e-06,-5.5456e-06,-41.667,2.6239
30247,22.434,6,0.1,3.2174e-05,321.52,3.1891e-05,313.76,-9.8206e-06,0.35397,-1.1904e-05,-15.3,2.6705
30248,22.342,6,0.05,6.8582e-06,68.535,5.2663e-06,39.569,2.2753e-13,7.0346e-06,-5.2663e-06,-39.569,2.6549
30249,22.618,6,0.1,2.8254e-05,282.35,2.7967e-05,274.54,-8.5214e-06,0.38502,-1.0613e-05,-15.331,2.7015
30250,22.526,6,0.05,6.4642e-06,64.597,4.9637e-06,37.295,2.3614e-13,9.1847e-06,-4.9637e-06,-37.295,2.686
30251,22.802,6,0.1,2.4362e-05,243.45,2.407e-05,235.62,-7.2333e-06,0.42088,-9.3267e-06,-15.308,2.7326
30252,22.71,6,0.05,6.0353e-06,60.311,4.6344e-06,34.821,2.5565e-13,8.9696e-06,-4.6344e-06,-34.821,2.717
30253,22.987,6,0.1,2.0503e-05,204.89,2.0207e-05,197.07,-5.959e-06,0.46347,-8.0452e-06,-15.212,2.7637
30254,22.894,6,0.05,5.5657e-06,55.619,4.2738e-06,32.112,2.4996e-13,8.3394e-06,-4.2738e-06,-32.112,2.7481
30255,23.171,6,0.1,1.6689e-05,166.77,1.6388e-05,158.98,-4.7028e-06,0.51373,-6.7694e-06,-15.014,2.7948
30256,23.079,6,0.05,5.0475e-06,50.44,3.8758e-06,29.122,6.8908e-13,9.6839e-06,-3.8758e-06,-29.122,2.7792
30257,23.355,6,0.1,1.2933e-05,129.25,1.2627e-05,121.54,-3.4712e-06,0.58304,-5.499e-06,-14.653,2.8259
30258,23.263,6,0.05,4.469e-06,44.659,3.4316e-06,25.784,2.3752e-13,9.4406e-06,-3.4316e-06,-25.784,2.8103
30259,23.539,6,0.1,9.2688e-06,92.624,8.9523e-06,85.036,-2.277e-06,0.66327,-4.2382e-06,-14.072,2.857
30260,23.447,6,0.05,3.812e-06,38.094,2.9272e-06,21.994,5.575e-13,9.5601e-06,-2.9272e-06,-21.994,2.8414
30261,23.724,6,0.1,5.722e-06,57.181,5.4036e-06,50.147,-1.153e-06,0.88245,-2.9417e-06,-12.557,2.8881
30262,23.631,6,0.05,3.0421e-06,30.4,2.336e-06,17.552,9.4896e-13,8.7714e-06,-2.336e-06,-17.552,2.8725
30263,23.908,6,0.1,2.3978e-06,23.961,2.1239e-06,18.599,-2.639e-07,0.65842,-1.4978e-06,-8.6124,2.9192
30264,23.816,6,0.05,2.0499e-06,20.485,1.5741e-06,11.827,2.7936e-13,9.2235e-06,-1.5741e-06,-11.827,2.9036
30265,24,5.9091,0.1,2.3237e-06,23.221,1.3385e-06,5.8785,2.399e-07,-2.3757,-2.1513e-06,-20.342,2.9349
30266,24,6,0.05,7.8625e-07,7.8571,6.0374e-07,4.5363,3.8969e-12,4.2757e-05,-6.0375e-07,-4.5363,2.9348
30267,24,5.7273,0.1,5.3361e-06,53.324,2.4282e-06,6.924,1.2163e-06,-2.1821,-5.1968e-06,-50.367,2.935
30268,24,5.8182,0.05,6.9989e-07,6.9941,5.3743e-07,4.038,9.7081e-13,9.084e-06,-5.3743e-07,-4.038,2.9349
30269,24,5.5455,0.1,7.7669e-06,77.615,3.2614e-06,7.1806,2.003e-06,-2.2749,-7.6401e-06,-74.729,2.9351
30270,24,5.6364,0.05,8.022e-07,8.0165,6.1599e-07,4.6283,1.1264e-12,2.401e-05,-6.1599e-07,-4.6283,2.9351
30271,24,5.3636,0.1,9.7017e-06,96.95,3.915e-06,7.2634,2.63e-06,-2.3915,-9.5827e-06,-94.153,2.9353
30272,24,5.4545,0.05,8.9101e-07,8.9039,6.8418e-07,5.1407,7.0679e-13,1.1925e-05,-6.8418e-07,-5.1407,2.9352
30273,24,5.1818,0.1,1.1331e-05,113.23,4.4567e-06,7.2733,3.1658e-06,-2.4264,-1.1217e-05,-110.49,2.9354
30274,24,5.2727,0.05,9.3914e-07,9.3849,7.2114e-07,5.4184,4.8187e-13,7.9498e-06,-7.2114e-07,-5.4184,2.9353
30275,24,5,0.1,1.2727e-05,127.18,4.9176e-06,7.2433,3.6267e-06,-2.456,-1.2618e-05,-124.51,2.9355
30276,24,5.0909,0.05,9.6104e-07,9.6037,7.3796e-07,5.5447,2.7849e-13,7.9682e-06,-7.3796e-07,-5.5447,2.9355
30277,24,4.8182,0.1,1.3934e-05,139.24,5.314e-06,7.1984,4.0264e-06,-2.4758,-1.3828e-05,-136.63,2.9357
30278,24,4.9091,0.05,9.6479e-07,9.6412,7.4084e-07,5.5664,4.0806e-13,7.7432e-06,-7.4084e-07,-5.5664,2.9356
30279,24,4.6364,0.1,1.4979e-05,149.69,5.6561e-06,7.1472,4.3733e-06,-2.4911,-1.4877e-05,-147.13,2.9358
30280,24,4.7273,0.05,9.5586e-07,9.552,7.3398e-07,5.5148,4.4298e-13,1.1118e-05,-7.3398e-07,-5.5148,2.9357
30281,24,4.4545,0.1,1.5882e-05,158.71,5.9507e-06,7.0953,4.6733e-06,-2.5028,-1.5782e-05,-156.2,2.9359
30282,24,4.5455,0.05,9.3825e-07,9.3761,7.2046e-07,5.4133,1.3591e-13,4.6466e-06,-7.2046e-07,-5.4133,2.9358
30283,24,4.2727,0.1,1.6656e-05,166.44,6.2027e-06,7.046,4.9306e-06,-2.512,-1.6558e-05,-163.97,2.936
30284,24,4.3636,0.05,9.1508e-07,9.1445,7.0267e-07,5.2796,4.0501e-13,8.338e-06,-7.0267e-07,-5.2796,2.9359
30285,24,4.0909,0.1,1.731e-05,172.98,6.4156e-06,7.0011,5.1485e-06,-2.5192,-1.7214e-05,-170.54,2.936
30286,24,4.1818,0.05,8.8889e-07,8.8827,6.8255e-07,5.1285,1.047e-13,5.1843e-06,-6.8255e-07,-5.1284,2.936
30287,24,3.9091,0.1,1.7853e-05,178.41,6.5921e-06,6.9618,5.3295e-06,-2.5248,-1.7759e-05,-176,2.9361
30288,24,4,0.05,8.6185e-07,8.6126,6.6179e-07,4.9725,1.241e-13,8.5001e-06,-6.6179e-07,-4.9725,2.9361
30289,24,3.7273,0.1,1.8291e-05,182.78,6.7342e-06,6.929,5.4754e-06,-2.5291,-1.8198e-05,-180.4,2.9362
30290,24,3.8182,0.05,8.359e-07,8.3533,6.4187e-07,4.8228,-1.8178e-13,5.8341e-06,-6.4187e-07,-4.8228,2.9361
30291,24,3.5455,0.1,1.8627e-05,186.14,6.8433e-06,6.903,5.5875e-06,-2.5323,-1.8535e-05,-183.78,2.9362
30292,24,3.6364,0.05,8.1276e-07,8.122,6.241e-07,4.6892,2.0046e-13,5.7213e-06,-6.241e-07,-4.6892,2.9362
30293,24,3.3636,0.1,1.8865e-05,188.52,6.9205e-06,6.8843,5.6669e-06,-2.5345,-1.8774e-05,-186.17,2.9362
30294,24,3.4545,0.05,7.9392e-07,7.9338,6.0963e-07,4.5806,-1.9438e-13,2.4004e-06,-6.0963e-07,-4.5805,2.9362
30295,24,3.1818,0.1,1.9007e-05,189.94,6.9666e-06,6.873,5.7143e-06,-2.5358,-1.8916e-05,-187.6,2.9363
30296,24,3.2727,0.05,7.8062e-07,7.8008,5.9942e-07,4.5038,-1.4814e-13,2.7125e-06,-5.9942e-07,-4.5038,2.9362
30297,24,3,0.1,1.9055e-05,190.41,6.9819e-06,6.8692,5.7301e-06,-2.5362,-1.8963e-05,-188.07,2.9363
30298,24,3.0909,0.05,7.7373e-07,7.732,5.9413e-07,4.4641,4.1623e-13,7.339e-06,-5.9413e-07,-4.4641,2.9363
30299,24,2.8182,0.1,1.9007e-05,189.94,6.9666e-06,6.873,5.7143e-06,-2.5358,-1.8916e-05,-187.6,2.9363
30300,24,2.9091,0.05,7.7373e-07,7.732,5.9413e-07,4.4641,-4.1587e-13,2.9427e-07,-5.9413e-07,-4.4641,2.9363
30301,24,2.6364,0.1,1.8865e-05,188.52,6.9205e-06,6.8843,5.6669e-06,-2.5345,-1.8774e-05,-186.17,2.9362
30302,24,2.7273,0.05,7.8062e-07,7.8008,5.9942e-07,4.5038,-2.8953e-13,1.2224e-06,-5.9942e-07,-4.5038,2.9362
30303,24,2.4545,0.1,1.8627e-05,186.14,6.8433e-06,6.903,5.5875e-06,-2.5323,-1.8535e-05,-183.78,2.9362
30304,24,2.5455,0.05,7.9392e-07,7.9338,6.0963e-07,4.5806,2.6039e-13,2.1294e-06,-6.0963e-07,-4.5806,2.9362
30305,24,2.2727,0.1,1.8291e-05,182.78,6.7342e-06,6.929,5.4754e-06,-2.5291,-1.8198e-05,-180.4,2.9362
30306,24,2.3636,0.05,8.1276e-07,8.122,6.241e-07,4.6892,-4.682e-14,-4.8293e-07,-6.241e-07,-4.6892,2.9362
30307,24,2.0909,0.1,1.7853e-05,178.41,6.5921e-06,6.9618,5.3295e-06,-2.5248,-1.7759e-05,-176,2.9361
30308,24,2.1818,0.05,8.359e-07,8.3533,6.4187e-07,4.8228,8.6994e-14,5.9946e-07,-6.4187e-07,-4.8228,2.9361
30309,24,1.9091,0.1,1.731e-05,172.98,6.4156e-06,7.0011,5.1485e-06,-2.5192,-1.7214e-05,-170.54,2.936
30310,24,2,0.05,8.6185e-07,8.6126,6.6179e-07,4.9725,-1.7657e-13,4.5245e-06,-6.6179e-07,-4.9725,2.9361
30311,24,1.7273,0.1,1.6655e-05,166.44,6.2027e-06,7.046,4.9306e-06,-2.512,-1.6558e-05,-163.97,2.936
30312,24,1.8182,0.05,8.8889e-07,8.8827,6.8255e-07,5.1284,-2.2465e-14,2.5631e-06,-6.8255e-07,-5.1284,2.936
30313,24,1.5455,0.1,1.5882e-05,158.71,5.9507e-06,7.0953,4.6733e-06,-2.5028,-1.5782e-05,-156.2,2.9359
30314,24,1.6364,0.05,9.1508e-07,9.1445,7.0267e-07,5.2796,4.0918e-13,3.3183e-06,-7.0267e-07,-5.2796,2.9359
30315,24,1.3636,0.1,1.4979e-05,149.69,5.6561e-06,7.1472,4.3733e-06,-2.4911,-1.4877e-05,-147.13,2.9358
30316,24,1.4545,0.05,9.3825e-07,9.3761,7.2046e-07,5.4133,3.0477e-13,3.9184e-06,-7.2046e-07,-5.4133,2.9358
30317,24,1.1818,0.1,1.3934e-05,139.24,5.314e-06,7.1984,4.0264e-06,-2.4758,-1.3828e-05,-136.63,2.9357
30318,24,1.2727,0.05,9.5586e-07,9.552,7.3398e-07,5.5148,3.3737e-13,4.3459e-06,-7.3398e-07,-5.5148,2.9357
30319,24,1,0.1,1.2727e-05,127.18,4.9176e-06,7.2433,3.6267e-06,-2.456,-1.2618e-05,-124.51,2.9355
30320,24,1.0909,0.05,9.6479e-07,9.6412,7.4084e-07,5.5664,4.5412e-13,6.6607e-06,-7.4084e-07,-5.5664,2.9356
30321,24,0.81818,0.1,1.1331e-05,113.23,4.4567e-06,7.2733,3.1658e-06,-2.4264,-1.1217e-05,-110.49,2.9354
30322,24,0.90909,0.05,9.6104e-07,9.6037,7.3796e-07,5.5447,5.5724e-13,5.7714e-06,-7.3796e-07,-5.5447,2.9355
30323,24,0.63636,0.1,9.7017e-06,96.95,3.915e-06,7.2634,2.63e-06,-2.3915,-9.5827e-06,-94.153,2.9353
30324,24,0.72727,0.05,9.3914e-07,9.385,7.2115e-07,5.4184,4.0913e-13,5.9065e-06,-7.2115e-07,-5.4184,2.9353
30325,24,0.45455,0.1,7.7669e-06,77.615,3.2614e-06,7.1806,2.003e-06,-2.2749,-7.6401e-06,-74.729,2.9351
30326,24,0.54545,0.05,8.9101e-07,8.9039,6.8418e-07,5.1407,-1.0626e-13,-1.3762e-06,-6.8418e-07,-5.1407,2.9352
30327,24,0.27273,0.1,5.3361e-06,53.324,2.4282e-06,6.924,1.2163e-06,-2.1821,-5.1968e-06,-50.367,2.935
30328,24,0.36364,0.05,8.022e-07,8.0165,6.1599e-07,4.6283,-5.2855e-13,7.7278e-07,-6.1599e-07,-4.6283,2.9351
30329,24,0.090909,0.1,2.3237e-06,23.221,1.3385e-06,5.8785,2.399e-07,-2.3757,-2.1513e-06,-20.342,2.9349
30330,24,0.18182,0.05,6.9989e-07,6.9941,5.3743e-07,4.038,2.1345e-12,2.3116e-05,-5.3743e-07,-4.038,2.9349
30331,2.3842e-15,0.27273,0.1,1.1308e-05,113,1.4398e-05,204.11,-1.7356e-07,94.623,-1.0702e-06,87.886,0
30332,7.9472e-16,0.090909,0.1,1.3146e-05,131.37,6.8328e-06,5.803,-3.4851e-08,-45.798,-1.3042e-05,-143.53,0
30333,1.6109e-15,0.18182,0.05,3.5518e-06,35.494,2.7274e-06,20.492,-1.8354e-12,-5.1346e-06,-2.7274e-06,-20.492,0
30334,3.9736e-15,0.45455,0.1,2.3209e-05,231.93,3.063e-05,450.26,3.2305e-07,222.54,-7.6995e-07,214.33,0
30335,3.2219e-15,0.36364,0.05,1.811e-06,18.098,1.3906e-06,10.449,-2.771e-12,-1.397e-05,-1.3906e-06,-10.449,0
30336,5.563e-15,0.63636,0.1,3.7054e-05,370.29,4.9013e-05,722.01,4.6153e-07,357.21,-9.6762e-07,346.48,0
30337,4.8328e-15,0.54545,0.05,2.7986e-06,27.967,2.149e-06,16.147,-3.1388e-12,-2.3782e-05,-2.149e-06,-16.147,0
30338,7.1525e-15,0.81818,0.1,5.6742e-05,567.02,7.5094e-05,1106.8,7.0156e-07,547.8,-1.4014e-06,532,0
30339,6.4438e-15,0.72727,0.05,3.9507e-06,39.479,3.0336e-06,22.793,-4.6111e-12,-3.6148e-05,-3.0336e-06,-22.793,0
30340,8.7419e-15,1,0.1,8.5509e-05,854.5,0.00011324,1670.2,1.1111e-06,827.64,-2.0111e-06,804.18,0
30341,8.0547e-15,0.90909,0.05,5.0101e-06,50.067,3.8472e-06,28.906,-7.5113e-12,-3.1235e-05,-3.8471e-06,-28.906,0
30342,1.0331e-14,1.1818,0.1,0.00012614,1260.5,0.00016718,2467.5,1.6699e-06,1223.9,-2.7434e-06,1190.8,0
30343,9.6657e-15,1.0909,0.05,5.8115e-06,58.075,4.4625e-06,33.53,-1.4601e-11,-4.9193e-05,-4.4625e-06,-33.53,0
30344,1.1921e-14,1.3636,0.1,0.00018035,1802.2,0.00023922,3533.3,2.3074e-06,1753.3,-3.4848e-06,1709.8,0
30345,1.1277e-14,1.2727,0.05,6.3941e-06,63.897,4.9099e-06,36.891,-2.0579e-11,-7.0382e-05,-4.9099e-06,-36.891,0
30346,1.351e-14,1.5455,0.1,0.00024808,2479.1,0.0003293,4867.1,2.9297e-06,2414.9,-4.1064e-06,2362,0
30347,1.2888e-14,1.4545,0.05,7.1428e-06,71.378,5.4848e-06,41.211,-2.6147e-11,-4.7544e-05,-5.4847e-06,-41.21,0
30348,1.51e-14,1.7273,0.1,0.0003282,3279.8,0.0004359,6446.1,3.5232e-06,3197.4,-4.6195e-06,3136.2,0
30349,1.4498e-14,1.6364,0.05,8.7801e-06,87.741,6.7421e-06,50.658,-2.4644e-11,6.9849e-05,-6.742e-06,-50.657,0
30350,1.6689e-14,1.9091,0.1,0.00042069,4204,0.00055899,8269.6,4.1833e-06,4101,-5.1293e-06,4031.1,0
30351,1.6109e-14,1.8182,0.05,1.1353e-05,113.45,8.7179e-06,65.503,-2.2455e-11,0.00033793,-8.7178e-06,-65.502,0
30352,1.8279e-14,2.0909,0.1,0.00052571,5253.5,0.00069882,10342,4.9242e-06,5128.6,-5.5574e-06,5049.8,0
30353,1.772e-14,2,0.05,1.2463e-05,124.54,9.5697e-06,71.904,1.8185e-13,0.00064172,-9.5697e-06,-71.902,0
30354,1.9868e-14,2.2727,0.1,0.00063765,6372.1,0.00084794,12554,5.3983e-06,6223.1,-5.5556e-06,6140.8,0
30355,1.9331e-14,2.1818,0.05,9.1449e-06,91.386,7.0221e-06,52.762,6.929e-11,0.0011675,-7.0221e-06,-52.761,0
30356,2.1457e-14,2.4545,0.1,0.00074257,7420.6,0.00098772,14626,5.0774e-06,7243.2,-4.8053e-06,7168.9,0
30357,2.0942e-14,2.3636,0.05,8.5513e-06,85.454,6.5663e-06,49.338,5.3094e-11,0.0010419,-6.5663e-06,-49.336,0
30358,2.3047e-14,2.6364,0.1,0.00082505,8244.8,0.0010975,16254,3.8839e-06,8036.7,-3.3976e-06,7982,0
30359,2.2553e-14,2.5455,0.05,1.7295e-05,172.83,1.328e-05,99.784,-2.0412e-11,0.00034867,-1.328e-05,-99.782,0
30360,2.4636e-14,2.8182,0.1,0.00087606,8754.6,0.0011654,17259,2.2314e-06,8519.6,-1.7011e-06,8490.1,0
30361,2.4164e-14,2.7273,0.05,2.4896e-05,248.79,1.9117e-05,143.64,-1.5678e-11,0.00013539,-1.9117e-05,-143.64,0
30362,2.6226e-14,3,0.1,0.0008931,8924.9,0.0011881,17595,9.3463e-07,8675.2,-4.0745e-07,8665.1,0
30363,2.5775e-14,2.9091,0.05,2.8676e-05,286.56,2.2019e-05,165.44,-5.2358e-12,-3.9334e-05,-2.2019e-05,-165.44,0
30364,2.7815e-14,3.1818,0.1,0.00087606,8754.6,0.0011654,17259,2.2314e-06,8519.6,-1.7011e-06,8490.1,0
30365,2.7386e-14,3.0909,0.05,2.8676e-05,286.56,2.2019e-05,165.44,5.2358e-12,3.9296e-05,-2.2019e-05,-165.44,0
30366,2.9405e-14,3.3636,0.1,0.00082505,8244.8,0.0010975,16254,3.8839e-06,8036.7,-3.3976e-06,7982,0
30367,2.8997e-14,3.2727,0.05,2.4896e-05,248.79,1.9117e-05,143.64,1.5602e-11,-0.00037502,-1.9117e-05,-143.64,0
30368,3.0994e-14,3.5455,0.1,0.00074257,7420.6,0.00098772,14626,5.0774e-06,7243.2,-4.8053e-06,7168.9,0
30369,3.0608e-14,3.4545,0.05,1.7295e-05,172.83,1.328e-05,99.782,2.3309e-11,-0.00034867,-1.328e-05,-99.784,0
30370,3.2583e-14,3.7273,0.1,0.00063765,6372.1,0.00084794,12554,5.3983e-06,6223.1,-5.5556e-06,6140.8,0
30371,3.2219e-14,3.6364,0.05,8.5513e-06,85.454,6.5663e-06,49.336,-4.3934e-11,-0.00099668,-6.5663e-06,-49.337,0
30372,3.4173e-14,3.9091,0.1,0.00052571,5253.5,0.00069882,10342,4.9242e-06,5128.6,-5.5574e-06,5049.8,0
30373,3.383e-14,3.8182,0.05,9.1449e-06,91.386,7.0221e-06,52.761,-7.0168e-11,-0.0011711,-7.0221e-06,-52.762,0
30374,3.5762e-14,4.0909,0.1,0.00042069,4204,0.00055899,8269.6,4.1833e-06,4101,-5.1293e-06,4031.1,0
30375,3.5441e-14,4,0.05,1.2463e-05,124.54,9.5697e-06,71.902,-6.0035e-13,-0.00064172,-9.5697e-06,-71.904,0
30376,3.7352e-14,4.2727,0.1,0.0003282,3279.8,0.0004359,6446.1,3.5232e-06,3197.4,-4.6195e-06,3136.2,0
30377,3.7052e-14,4.1818,0.05,1.1353e-05,113.45,8.7178e-06,65.502,2.246e-11,-0.00033964,-8.7179e-06,-65.503,0
30378,3.8941e-14,4.4545,0.1,0.00024808,2479.1,0.0003293,4867.1,2.9297e-06,2414.9,-4.1064e-06,2362,0
30379,3.8663e-14,4.3636,0.05,8.7801e-06,87.741,6.742e-06,50.657,2.4658e-11,-7.6366e-05,-6.7421e-06,-50.658,0
30380,4.0531e-14,4.6364,0.1,0.00018035,1802.2,0.00023922,3533.3,2.3074e-06,1753.3,-3.4848e-06,1709.8,0
30381,4.0274e-14,4.5455,0.05,7.1428e-06,71.378,5.4847e-06,41.21,2.5713e-11,2.4974e-05,-5.4848e-06,-41.211,0
30382,4.212e-14,4.8182,0.1,0.00012614,1260.5,0.00016718,2467.5,1.6699e-06,1223.9,-2.7434e-06,1190.8,0
30383,4.1885e-14,4.7273,0.05,6.3941e-06,63.897,4.9099e-06,36.891,2.036e-11,4.7479e-05,-4.9099e-06,-36.891,0
30384,4.371e-14,5,0.1,8.5509e-05,854.5,0.00011324,1670.2,1.1111e-06,827.64,-2.0111e-06,804.18,0
30385,4.3495e-14,4.9091,0.05,5.8115e-06,58.075,4.4625e-06,33.53,1.2889e-11,5.5575e-05,-4.4625e-06,-33.53,0
30386,4.5299e-14,5.1818,0.1,5.6742e-05,567.02,7.5094e-05,1106.8,7.0157e-07,547.8,-1.4014e-06,532,0
30387,4.5106e-14,5.0909,0.05,5.0101e-06,50.067,3.8471e-06,28.906,7.5235e-12,3.4877e-05,-3.8472e-06,-28.906,0
30388,4.6888e-14,5.3636,0.1,3.7054e-05,370.29,4.9013e-05,722.01,4.6153e-07,357.21,-9.6762e-07,346.48,0
30389,4.6717e-14,5.2727,0.05,3.9507e-06,39.479,3.0336e-06,22.793,4.4507e-12,3.5855e-05,-3.0336e-06,-22.793,0
30390,4.8478e-14,5.5455,0.1,2.3209e-05,231.93,3.063e-05,450.26,3.2305e-07,222.54,-7.6995e-07,214.33,0
30391,4.8328e-14,5.4545,0.05,2.7986e-06,27.967,2.149e-06,16.147,3.1388e-12,2.3486e-05,-2.149e-06,-16.147,0
30392,5.0067e-14,5.7273,0.1,1.1308e-05,113,1.4398e-05,204.11,-1.7356e-07,94.623,-1.0701e-06,87.886,0
30393,4.9939e-14,5.6364,0.05,1.811e-06,18.098,1.3906e-06,10.449,2.771e-12,1.5391e-05,-1.3906e-06,-10.449,0
30394,5.1657e-14,5.9091,0.1,1.3146e-05,131.37,6.8328e-06,5.8029,-3.485e-08,-45.798,-1.3042e-05,-143.53,0
30395,5.155e-14,5.8182,0.05,3.5518e-06,35.494,2.7274e-06,20.492,1.7731e-12,6.0701e-06,-2.7274e-06,-20.492,0
30396,23.908,0,0.1,2.3978e-06,23.961,2.1239e-06,18.599,-2.639e-07,0.65842,-1.4978e-06,-8.6124,2.9192
30397,24,0,0.05,7.8625e-07,7.8571,6.0374e-07,4.5363,4.3126e-12,4.1491e-05,-6.0375e-07,-4.5363,2.9348
30398,23.724,0,0.1,5.722e-06,57.181,5.4036e-06,50.147,-1.153e-06,0.88245,-2.9417e-06,-12.557,2.8881
30399,23.816,0,0.05,2.0499e-06,20.485,1.5741e-06,11.827,8.1714e-13,2.2812e-06,-1.5741e-06,-11.827,2.9036
30400,23.539,0,0.1,9.2688e-06,92.624,8.9523e-06,85.036,-2.277e-06,0.66328,-4.2382e-06,-14.072,2.857
30401,23.631,0,0.05,3.0421e-06,30.4,2.336e-06,17.552,8.2753e-13,1.1947e-05,-2.336e-06,-17.552,2.8725
30402,23.355,0,0.1,1.2933e-05,129.25,1.2627e-05,121.54,-3.4712e-06,0.58304,-5.499e-06,-14.653,2.8259
30403,23.447,0,0.05,3.812e-06,38.094,2.9272e-06,21.994,1.758e-13,1.1672e-05,-2.9272e-06,-21.994,2.8414
30404,23.171,0,0.1,1.6689e-05,166.77,1.6388e-05,158.98,-4.7028e-06,0.51373,-6.7694e-06,-15.014,2.7948
30405,23.263,0,0.05,4.469e-06,44.659,3.4316e-06,25.784,4.9872e-13,1.1123e-05,-3.4316e-06,-25.784,2.8103
30406,22.987,0,0.1,2.0503e-05,204.89,2.0207e-05,197.07,-5.959e-06,0.46348,-8.0452e-06,-15.212,2.7637
30407,23.079,0,0.05,5.0475e-06,50.44,3.8758e-06,29.122,3.4872e-13,9.6249e-06,-3.8758e-06,-29.122,2.7792
30408,22.802,0,0.1,2.4362e-05,243.45,2.407e-05,235.62,-7.2333e-06,0.42088,-9.3267e-06,-15.308,2.7326
30409,22.894,0,0.05,5.5657e-06,55.619,4.2738e-06,32.112,4.4974e-13,8.9981e-06,-4.2738e-06,-32.112,2.7481
30410,22.618,0,0.1,2.8254e-05,282.35,2.7967e-05,274.54,-8.5214e-06,0.38502,-1.0613e-05,-15.331,2.7015
30411,22.71,0,0.05,6.0353e-06,60.311,4.6344e-06,34.821,2.4204e-13,9.8087e-06,-4.6344e-06,-34.821,2.717
30412,22.434,0,0.1,3.2174e-05,321.52,3.1891e-05,313.76,-9.8206e-06,0.35398,-1.1904e-05,-15.3,2.6705
30413,22.526,0,0.05,6.4642e-06,64.597,4.9637e-06,37.295,-4.3336e-13,1.0755e-05,-4.9637e-06,-37.295,2.686
30414,22.249,0,0.1,3.6118e-05,360.93,3.5839e-05,353.22,-1.1129e-05,0.32678,-1.3199e-05,-15.227,2.6394
30415,22.342,0,0.05,6.8582e-06,68.535,5.2663e-06,39.569,1.7573e-14,8.9693e-06,-5.2663e-06,-39.569,2.6549
30416,22.065,0,0.1,4.0081e-05,400.54,3.9807e-05,392.9,-1.2445e-05,0.30268,-1.4498e-05,-15.123,2.6084
30417,22.157,0,0.05,7.2219e-06,72.17,5.5456e-06,41.667,-6.8728e-13,1.1872e-05,-5.5456e-06,-41.667,2.6239
30418,21.881,0,0.1,4.4064e-05,440.33,4.3794e-05,432.78,-1.3768e-05,0.28114,-1.5801e-05,-14.992,2.5775
30419,21.973,0,0.05,7.5589e-06,75.537,5.8043e-06,43.611,-6.922e-13,8.3046e-06,-5.8043e-06,-43.611,2.5929
30420,21.697,0,0.1,4.8063e-05,480.3,4.7797e-05,472.83,-1.5098e-05,0.26175,-1.7108e-05,-14.842,2.5465
30421,21.789,0,0.05,7.8719e-06,78.665,6.0447e-06,45.417,-2.3177e-13,1.1328e-05,-6.0447e-06,-45.417,2.562
30422,21.512,0,0.1,5.2079e-05,520.43,5.1817e-05,513.05,-1.6433e-05,0.24421,-1.8419e-05,-14.676,2.5156
30423,21.605,0,0.05,8.1636e-06,81.58,6.2686e-06,47.1,-4.6315e-13,5.8302e-06,-6.2686e-06,-47.1,2.531
30424,21.328,0,0.1,5.611e-05,560.71,5.5852e-05,553.43,-1.7774e-05,0.22826,-1.9734e-05,-14.497,2.4847
30425,21.42,0,0.05,8.4359e-06,84.301,6.4777e-06,48.671,-9.0117e-13,6.9182e-06,-6.4777e-06,-48.671,2.5001
30426,21.144,0,0.1,6.0156e-05,601.15,5.9903e-05,593.97,-1.912e-05,0.21371,-2.1053e-05,-14.309,2.4538
30427,21.236,0,0.05,8.6906e-06,86.846,6.6733e-06,50.141,-8.9489e-13,6.1421e-06,-6.6733e-06,-50.141,2.4693
30428,20.96,0,0.1,6.4217e-05,641.73,6.3969e-05,634.66,-2.0472e-05,0.20042,-2.2377e-05,-14.113,2.423
30429,21.052,0,0.05,8.9293e-06,89.232,6.8566e-06,51.518,-1.3606e-12,8.9118e-06,-6.8566e-06,-51.518,2.4384
30430,20.775,0,0.1,6.8294e-05,682.47,6.805e-05,675.5,-2.1829e-05,0.18823,-2.3705e-05,-13.912,2.3923
30431,20.867,0,0.05,9.1535e-06,91.471,7.0287e-06,52.811,-9.0326e-13,7.5673e-06,-7.0287e-06,-52.811,2.4076
30432,20.591,0,0.1,7.2386e-05,723.36,7.2146e-05,716.49,-2.319e-05,0.17702,-2.5038e-05,-13.708,2.3615
30433,20.683,0,0.05,9.3642e-06,93.577,7.1905e-06,54.027,-1.3613e-12,9.1673e-06,-7.1905e-06,-54.027,2.3769
30434,20.407,0,0.1,7.6493e-05,764.4,7.6257e-05,757.64,-2.4557e-05,0.16671,-2.6376e-05,-13.501,2.3309
30435,20.499,0,0.05,9.5626e-06,95.56,7.3429e-06,55.172,-4.521e-13,9.0524e-06,-7.3429e-06,-55.172,2.3462
30436,20.223,0,0.1,8.0615e-05,805.6,8.0384e-05,798.95,-2.5929e-05,0.15722,-2.7719e-05,-13.293,2.3002
30437,20.315,0,0.05,9.7497e-06,97.43,7.4866e-06,56.251,-9.1171e-13,8.7237e-06,-7.4866e-06,-56.251,2.3155
30438,20.038,0,0.1,8.4754e-05,846.95,8.4526e-05,840.41,-2.7306e-05,0.14847,-2.9067e-05,-13.084,2.2697
30439,20.13,0,0.05,9.9264e-06,99.196,7.6223e-06,57.271,-9.1583e-13,7.8146e-06,-7.6223e-06,-57.271,2.2849
30440,19.854,0,0.1,8.8908e-05,888.47,8.8684e-05,882.03,-2.8688e-05,0.14039,-3.042e-05,-12.877,2.2392
30441,19.946,0,0.05,1.0094e-05,100.87,7.7506e-06,58.235,-9.0937e-13,5.3655e-06,-7.7506e-06,-58.235,2.2544
30442,19.67,0,0.1,9.3079e-05,930.15,9.2859e-05,923.81,-3.0075e-05,0.13292,-3.1779e-05,-12.671,2.2087
30443,19.762,0,0.05,1.0252e-05,102.45,7.8721e-06,59.148,-1.3604e-12,9.2401e-06,-7.8721e-06,-59.148,2.2239
30444,19.485,0,0.1,9.7266e-05,971.99,9.705e-05,965.76,-3.1468e-05,0.12601,-3.3144e-05,-12.466,2.1783
30445,19.578,0,0.05,1.0402e-05,103.95,7.9874e-06,60.014,-1.8189e-12,7.5855e-06,-7.9874e-06,-60.014,2.1935
30446,19.301,0,0.1,0.00010147,1014,0.00010126,1007.9,-3.2866e-05,0.11962,-3.4514e-05,-12.264,2.148
30447,19.393,0,0.05,1.0544e-05,105.37,8.0968e-06,60.836,-1.8172e-12,7.0344e-06,-8.0968e-06,-60.836,2.1631
30448,19.117,0,0.1,0.00010569,1056.2,0.00010548,1050.2,-3.4269e-05,0.11371,-3.589e-05,-12.065,2.1177
30449,19.209,0,0.05,1.068e-05,106.73,8.2008e-06,61.618,-1.8174e-12,6.4383e-06,-8.2008e-06,-61.618,2.1328
30450,18.933,0,0.1,0.00010993,1098.5,0.00010972,1092.6,-3.5678e-05,0.10824,-3.7272e-05,-11.869,2.0875
30451,19.025,0,0.05,1.0809e-05,108.01,8.2999e-06,62.362,-1.8203e-12,8.0947e-06,-8.2999e-06,-62.362,2.1026
30452,18.748,0,0.1,0.00011418,1141.1,0.00011398,1135.2,-3.7093e-05,0.10315,-3.866e-05,-11.677,2.0574
30453,18.841,0,0.05,1.0932e-05,109.24,8.3944e-06,63.072,-1.8175e-12,5.9615e-06,-8.3944e-06,-63.072,2.0724
30454,18.564,0,0.1,0.00011846,1183.8,0.00011826,1178,-3.8513e-05,0.09842,-4.0055e-05,-11.488,2.0274
30455,18.656,0,0.05,1.1049e-05,110.42,8.4846e-06,63.75,-2.7258e-12,7.2343e-06,-8.4846e-06,-63.75,2.0423
30456,18.38,0,0.1,0.00012275,1226.7,0.00012256,1221,-3.9938e-05,0.094031,-4.1455e-05,-11.303,1.9974
30457,18.472,0,0.05,1.1162e-05,111.54,8.5708e-06,64.398,-2.7284e-12,7.332e-06,-8.5708e-06,-64.397,2.0123
30458,18.196,0,0.1,0.00012706,1269.7,0.00012687,1264.2,-4.137e-05,0.089956,-4.2862e-05,-11.121,1.9675
30459,18.288,0,0.05,1.1269e-05,112.61,8.6533e-06,65.018,-3.6391e-12,5.8324e-06,-8.6533e-06,-65.017,1.9824
30460,18.011,0,0.1,0.00013139,1313,0.0001312,1307.5,-4.2807e-05,0.086158,-4.4276e-05,-10.944,1.9377
30461,18.103,0,0.05,1.1372e-05,113.64,8.7324e-06,65.612,-3.6379e-12,5.6033e-06,-8.7324e-06,-65.612,1.9526
30462,17.827,0,0.1,0.00013573,1356.4,0.00013555,1351,-4.4251e-05,0.082602,-4.5695e-05,-10.77,1.908
30463,17.919,0,0.05,1.1471e-05,114.63,8.8083e-06,66.182,-2.7284e-12,5.4246e-06,-8.8083e-06,-66.182,1.9228
30464,17.643,0,0.1,0.0001401,1400,0.00013992,1394.7,-4.57e-05,0.079279,-4.7121e-05,-10.601,1.8784
30465,17.735,0,0.05,1.1566e-05,115.58,8.8812e-06,66.73,-3.6389e-12,5.2458e-06,-8.8812e-06,-66.73,1.8932
30466,17.459,0,0.1,0.00014448,1443.8,0.0001443,1438.6,-4.7155e-05,0.076174,-4.8554e-05,-10.435,1.8489
30467,17.551,0,0.05,1.1657e-05,116.49,8.9513e-06,67.257,-2.7284e-12,7.8086e-06,-8.9513e-06,-67.257,1.8636
30468,17.274,0,0.1,0.00014889,1487.8,0.00014871,1482.7,-4.8617e-05,0.073268,-4.9994e-05,-10.273,1.8194
30469,17.366,0,0.05,1.1745e-05,117.37,9.0188e-06,67.764,-3.6379e-12,5.782e-06,-9.0188e-06,-67.764,1.8341
30470,17.09,0,0.1,0.00015331,1532,0.00015313,1527,-5.0084e-05,0.070533,-5.144e-05,-10.115,1.7901
30471,17.182,0,0.05,1.183e-05,118.22,9.0839e-06,68.253,-3.6379e-12,6.2064e-06,-9.0839e-06,-68.253,1.8047
30472,16.906,0,0.1,0.00015775,1576.4,0.00015758,1571.4,-5.1558e-05,0.067937,-5.2892e-05,-9.9603,1.7609
30473,16.998,0,0.05,1.1912e-05,119.03,9.1466e-06,68.724,-3.6379e-12,6.4973e-06,-9.1466e-06,-68.724,1.7755
30474,16.721,0,0.1,0.00016221,1621,0.00016204,1616.1,-5.3037e-05,0.065479,-5.4351e-05,-9.8093,1.7318
30475,16.814,0,0.05,1.199e-05,119.82,9.2072e-06,69.179,-3.6379e-12,4.5899e-06,-9.2072e-06,-69.179,1.7463
30476,16.537,0,0.1,0.00016669,1665.8,0.00016652,1660.9,-5.4523e-05,0.063152,-5.5817e-05,-9.6619,1.7028
30477,16.629,0,0.05,1.2067e-05,120.58,9.2657e-06,69.619,-2.7277e-12,7.2062e-06,-9.2657e-06,-69.619,1.7172
30478,16.353,0,0.1,0.00017119,1710.7,0.00017103,1706,-5.6015e-05,0.060942,-5.729e-05,-9.5178,1.6739
30479,16.445,0,0.05,1.214e-05,121.32,9.3223e-06,70.044,-3.6387e-12,5.1263e-06,-9.3223e-06,-70.044,1.6883
30480,16.169,0,0.1,0.00017571,1755.9,0.00017555,1751.2,-5.7514e-05,0.058825,-5.877e-05,-9.3768,1.6451
30481,16.261,0,0.05,1.2212e-05,122.03,9.3769e-06,70.455,-3.6386e-12,6.9087e-06,-9.3769e-06,-70.455,1.6594
30482,15.984,0,0.1,0.00018025,1801.2,0.00018009,1796.6,-5.9019e-05,0.05677,-6.0256e-05,-9.239,1.6164
30483,16.077,0,0.05,1.228e-05,122.72,9.4299e-06,70.852,-4.5474e-12,5.1914e-06,-9.4298e-06,-70.852,1.6307
30484,15.8,0,0.1,0.00018481,1846.8,0.00018465,1842.2,-6.053e-05,0.05478,-6.1749e-05,-9.1042,1.5879
30485,15.892,0,0.05,1.2347e-05,123.39,9.481e-06,71.237,-3.6379e-12,5.5978e-06,-9.481e-06,-71.237,1.6021
30486,15.616,0,0.1,0.00018938,1892.5,0.00018923,1888.1,-6.2048e-05,0.052853,-6.3249e-05,-8.972,1.5595
30487,15.708,0,0.05,1.2412e-05,124.03,9.5305e-06,71.609,-3.6379e-12,4.416e-06,-9.5305e-06,-71.609,1.5736
30488,15.432,0,0.1,0.00019398,1938.5,0.00019383,1934.1,-6.3572e-05,0.050981,-6.4755e-05,-8.8425,1.5312
30489,15.524,0,0.05,1.2474e-05,124.65,9.5784e-06,71.969,-3.6374e-12,4.9522e-06,-9.5784e-06,-71.968,1.5453
30490,15.247,0,0.1,0.0001986,1984.6,0.00019845,1980.3,-6.5102e-05,0.049138,-6.6269e-05,-8.7155,1.503
30491,15.339,0,0.05,1.2534e-05,125.26,9.6247e-06,72.316,-5.4564e-12,5.5481e-06,-9.6247e-06,-72.316,1.5171
30492,15.063,0,0.1,0.00020324,2031,0.00020309,2026.7,-6.6639e-05,0.047291,-6.7789e-05,-8.5908,1.475
30493,15.155,0,0.05,1.2592e-05,125.84,9.6695e-06,72.653,-5.4575e-12,5.7267e-06,-9.6695e-06,-72.653,1.489
30494,14.879,0,0.1,0.0002079,2077.6,0.00020775,2073.3,-6.8183e-05,0.045448,-6.9316e-05,-8.4682,1.4471
30495,14.971,0,0.05,1.2649e-05,126.4,9.7127e-06,72.977,-3.638e-12,4.6536e-06,-9.7127e-06,-72.977,1.461
30496,14.695,0,0.1,0.00021258,2124.3,0.00021244,2120.2,-6.9733e-05,0.043611,-7.085e-05,-8.3475,1.4194
30497,14.787,0,0.05,1.2703e-05,126.94,9.7543e-06,73.29,-3.638e-12,5.0069e-06,-9.7543e-06,-73.29,1.4332
30498,14.51,0,0.1,0.00021728,2171.3,0.00021714,2167.2,-7.129e-05,0.041768,-7.2391e-05,-8.2286,1.3918
30499,14.602,0,0.05,1.2755e-05,127.46,9.7944e-06,73.592,-3.6384e-12,5.1779e-06,-9.7944e-06,-73.591,1.4055
30500,14.326,0,0.1,0.000222,2218.4,0.00022186,2214.4,-7.2854e-05,0.039895,-7.3938e-05,-8.1112,1.3643
30501,14.418,0,0.05,1.2805e-05,127.97,9.833e-06,73.881,-5.4574e-12,4.2246e-06,-9.833e-06,-73.881,1.378
30502,14.142,0,0.1,0.00022674,2265.8,0.0002266,2261.8,-7.4424e-05,0.037957,-7.5493e-05,-7.9953,1.337
30503,14.234,0,0.05,1.2854e-05,128.45,9.8699e-06,74.159,-3.6384e-12,4.5301e-06,-9.8699e-06,-74.159,1.3506
30504,13.957,0,0.1,0.0002315,2313.4,0.00023136,2309.5,-7.6001e-05,0.035962,-7.7054e-05,-7.8805,1.3099
30505,14.05,0,0.05,1.29e-05,128.91,9.9053e-06,74.424,-3.638e-12,4.9439e-06,-9.9053e-06,-74.424,1.3234
30506,13.773,0,0.1,0.00023628,2361.2,0.00023615,2357.3,-7.7584e-05,0.033913,-7.8623e-05,-7.7668,1.2829
30507,13.865,0,0.05,1.2943e-05,129.35,9.939e-06,74.678,-3.638e-12,4.5897e-06,-9.9389e-06,-74.677,1.2963
30508,13.589,0,0.1,0.00024108,2409.1,0.00024095,2405.3,-7.9175e-05,0.031799,-8.0198e-05,-7.6538,1.256
30509,13.681,0,0.05,1.2985e-05,129.76,9.9709e-06,74.918,-5.457e-12,3.8744e-06,-9.9709e-06,-74.917,1.2694
30510,13.405,0,0.1,0.0002459,2457.3,0.00024578,2453.6,-8.0772e-05,0.02959,-8.178e-05,-7.5413,1.2294
30511,13.497,0,0.05,1.3024e-05,130.15,1.0001e-05,75.144,-3.6376e-12,4.5896e-06,-1.0001e-05,-75.144,1.2426
30512,13.22,0,0.1,0.00025075,2505.7,0.00025062,2502,-8.2376e-05,0.027245,-8.3368e-05,-7.4292,1.2028
30513,13.313,0,0.05,1.3061e-05,130.52,1.0029e-05,75.357,-3.638e-12,3.636e-06,-1.0029e-05,-75.357,1.2161
30514,13.036,0,0.1,0.00025561,2554.4,0.00025549,2550.7,-8.3987e-05,0.024777,-8.4964e-05,-7.3173,1.1765
30515,13.128,0,0.05,1.3095e-05,130.86,1.0056e-05,75.555,-3.6382e-12,4.4704e-06,-1.0056e-05,-75.554,1.1896
30516,12.852,0,0.1,0.0002605,2603.2,0.00026037,2599.6,-8.5605e-05,0.022185,-8.6567e-05,-7.2052,1.1503
30517,12.944,0,0.05,1.3127e-05,131.18,1.008e-05,75.737,-5.4572e-12,3.3358e-06,-1.008e-05,-75.737,1.1634
30518,12.668,0,0.1,0.0002654,2652.2,0.00026528,2648.7,-8.723e-05,0.019454,-8.8177e-05,-7.0928,1.1244
30519,12.76,0,0.05,1.3156e-05,131.47,1.0102e-05,75.903,-3.638e-12,3.9936e-06,-1.0102e-05,-75.903,1.1373
30520,12.483,0,0.1,0.00027033,2701.4,0.00027021,2698,-8.8862e-05,0.016548,-8.9793e-05,-6.9797,1.0985
30521,12.575,0,0.05,1.3182e-05,131.72,1.0122e-05,76.051,-7.2761e-12,3.3959e-06,-1.0122e-05,-76.051,1.1114
30522,12.299,0,0.1,0.00027528,2750.9,0.00027516,2747.5,-9.0501e-05,0.013423,-9.1417e-05,-6.8659,1.0729
30523,12.391,0,0.05,1.3204e-05,131.95,1.0139e-05,76.181,-3.6377e-12,3.5167e-06,-1.0139e-05,-76.181,1.0857
30524,12.115,0,0.1,0.00028025,2800.6,0.00028014,2797.2,-9.2147e-05,0.010086,-9.3047e-05,-6.7509,1.0475
30525,12.207,0,0.05,1.3223e-05,132.14,1.0154e-05,76.292,-3.638e-12,4.0541e-06,-1.0154e-05,-76.292,1.0602
30526,11.931,0,0.1,0.00028524,2850.5,0.00028513,2847.1,-9.3801e-05,0.0065318,-9.4685e-05,-6.6345,1.0222
30527,12.023,0,0.05,1.3239e-05,132.3,1.0166e-05,76.381,-7.276e-12,3.3379e-06,-1.0166e-05,-76.381,1.0348
30528,11.746,0,0.1,0.00029026,2900.6,0.00029015,2897.3,-9.5461e-05,0.0027421,-9.6329e-05,-6.5164,0.99717
30529,11.838,0,0.05,1.325e-05,132.41,1.0175e-05,76.448,-3.638e-12,2.9203e-06,-1.0175e-05,-76.448,1.0097
30530,11.562,0,0.1,0.00029529,2950.9,0.00029518,2947.7,-9.713e-05,-0.0013207,-9.7981e-05,-6.3962,0.97231
30531,11.654,0,0.05,1.3258e-05,132.49,1.018e-05,76.491,-7.276e-12,3.5763e-06,-1.018e-05,-76.491,0.98469
30532,11.378,0,0.1,0.00030035,3001.4,0.00030024,2998.3,-9.8805e-05,-0.0057278,-9.9639e-05,-6.2739,0.94765
30533,11.47,0,0.05,1.3261e-05,132.52,1.0183e-05,76.508,-5.457e-12,3.6359e-06,-1.0183e-05,-76.508,0.95993
30534,11.193,0,0.1,0.00030543,3052.2,0.00030532,3049.1,-0.00010049,-0.010461,-0.0001013,-6.1489,0.92319
30535,11.286,0,0.05,1.3259e-05,132.5,1.0181e-05,76.497,-7.276e-12,2.9802e-06,-1.0181e-05,-76.497,0.93537
30536,11.009,0,0.1,0.00031053,3103.2,0.00031043,3100.2,-0.00010218,-0.015534,-0.00010298,-6.021,0.89894
30537,11.101,0,0.05,1.3252e-05,132.43,1.0176e-05,76.457,-5.457e-12,3.3379e-06,-1.0176e-05,-76.457,0.91102
30538,10.825,0,0.1,0.00031566,3154.4,0.00031556,3151.4,-0.00010388,-0.020976,-0.00010466,-5.8897,0.8749
30539,10.917,0,0.05,1.3239e-05,132.3,1.0166e-05,76.384,-7.276e-12,2.9803e-06,-1.0166e-05,-76.384,0.88687
30540,10.641,0,0.1,0.0003208,3205.8,0.00032071,3202.9,-0.00010558,-0.02684,-0.00010634,-5.7549,0.85107
30541,10.733,0,0.05,1.3221e-05,132.12,1.0152e-05,76.277,-7.2762e-12,3.2187e-06,-1.0152e-05,-76.277,0.86293
30542,10.456,0,0.1,0.00032598,3257.5,0.00032588,3254.7,-0.0001073,-0.03319,-0.00010804,-5.6161,0.82747
30543,10.549,0,0.05,1.3196e-05,131.87,1.0133e-05,76.133,-7.2759e-12,2.8611e-06,-1.0133e-05,-76.133,0.83922
30544,10.272,0,0.1,0.00033117,3309.4,0.00033108,3306.6,-0.00010902,-0.040024,-0.00010974,-5.4729,0.80408
30545,10.364,0,0.05,1.3164e-05,131.55,1.0108e-05,75.949,-7.2763e-12,2.5002e-06,-1.0108e-05,-75.949,0.81572
30546,10.088,0,0.1,0.00033639,3361.5,0.0003363,3358.9,-0.00011075,-0.04737,-0.00011145,-5.325,0.78091
30547,10.18,0,0.05,1.3124e-05,131.15,1.0078e-05,75.722,-7.2759e-12,2.9845e-06,-1.0078e-05,-75.721,0.79244
30548,9.9036,0,0.1,0.00034163,3413.9,0.00034154,3411.3,-0.00011249,-0.055286,-0.00011317,-5.172,0.75798
30549,9.9957,0,0.05,1.3077e-05,130.68,1.0041e-05,75.448,-9.0949e-12,1.9626e-06,-1.0041e-05,-75.448,0.76939
30550,9.7193,0,0.1,0.00034689,3466.5,0.00034681,3464,-0.00011423,-0.063805,-0.00011489,-5.0135,0.73527
30551,9.8115,0,0.05,1.3021e-05,130.12,9.9984e-06,75.124,-9.0949e-12,2.4388e-06,-9.9984e-06,-75.124,0.74657
30552,9.5351,0,0.1,0.00035218,3519.4,0.0003521,3516.9,-0.00011599,-0.072972,-0.00011662,-4.8492,0.7128
30553,9.6272,0,0.05,1.2955e-05,129.46,9.9481e-06,74.747,-7.2759e-12,2.8617e-06,-9.9481e-06,-74.746,0.72398
30554,9.3508,0,0.1,0.0003575,3572.5,0.00035742,3570.1,-0.00011775,-0.082833,-0.00011836,-4.6787,0.69057
30555,9.4429,0,0.05,1.288e-05,128.71,9.8902e-06,74.311,-7.2758e-12,1.9678e-06,-9.8902e-06,-74.311,0.70163
30556,9.1665,0,0.1,0.00036284,3625.9,0.00036276,3623.6,-0.00011952,-0.093428,-0.00012011,-4.5017,0.66858
30557,9.2587,0,0.05,1.2794e-05,127.85,9.8239e-06,73.813,-9.0948e-12,2.3853e-06,-9.8239e-06,-73.813,0.67952
30558,8.9823,0,0.1,0.0003682,3679.5,0.00036813,3677.3,-0.0001213,-0.1048,-0.00012186,-4.3179,0.64684
30559,9.0744,0,0.05,1.2696e-05,126.87,9.7488e-06,73.248,-9.0958e-12,2.1565e-06,-9.7487e-06,-73.248,0.65765
30560,8.798,0,0.1,0.00037359,3733.3,0.00037352,3731.2,-0.00012309,-0.11699,-0.00012362,-4.1269,0.62534
30561,8.8901,0,0.05,1.2585e-05,125.77,9.664e-06,72.612,-7.2757e-12,2.2072e-06,-9.664e-06,-72.612,0.63603
30562,8.6137,0,0.1,0.00037901,3787.4,0.00037894,3785.4,-0.00012489,-0.13003,-0.00012539,-3.9286,0.6041
30563,8.7059,0,0.05,1.2462e-05,124.53,9.5691e-06,71.898,-1.4552e-11,2.0289e-06,-9.569e-06,-71.898,0.61466
30564,8.4295,0,0.1,0.00038445,3841.8,0.00038438,3839.9,-0.00012669,-0.14396,-0.00012717,-3.7229,0.58312
30565,8.5216,0,0.05,1.2324e-05,123.15,9.4631e-06,71.102,-7.2772e-12,1.9102e-06,-9.4631e-06,-71.102,0.59355
30566,8.2452,0,0.1,0.00038991,3896.4,0.00038985,3894.6,-0.00012851,-0.15881,-0.00012896,-3.5095,0.5624
30567,8.3373,0,0.05,1.2171e-05,121.62,9.3454e-06,70.218,-7.2754e-12,1.9715e-06,-9.3454e-06,-70.218,0.5727
30568,8.0609,0,0.1,0.0003954,3951.3,0.00039534,3949.6,-0.00013033,-0.17459,-0.00013075,-3.2887,0.54194
30569,8.1531,0,0.05,1.2001e-05,119.93,9.2153e-06,69.24,-1.0913e-11,1.8534e-06,-9.2153e-06,-69.24,0.5521
30570,7.8767,0,0.1,0.00040092,4006.4,0.00040086,4004.8,-0.00013217,-0.1913,-0.00013255,-3.0604,0.52175
30571,7.9688,0,0.05,1.1814e-05,118.06,9.0719e-06,68.163,-1.0911e-11,1.6773e-06,-9.0718e-06,-68.162,0.53178
30572,7.6924,0,0.1,0.00040646,4061.8,0.00040641,4060.3,-0.00013401,-0.20894,-0.00013436,-2.8252,0.50183
30573,7.7845,0,0.05,1.1609e-05,116.01,8.9144e-06,66.979,-7.2749e-12,1.6776e-06,-8.9143e-06,-66.979,0.51173
30574,7.5081,0,0.1,0.00041203,4117.4,0.00041198,4116,-0.00013586,-0.22746,-0.00013617,-2.5834,0.48219
30575,7.6003,0,0.05,1.1385e-05,113.77,8.742e-06,65.684,-7.2774e-12,1.4782e-06,-8.742e-06,-65.684,0.49194
30576,7.3239,0,0.1,0.00041761,4173.2,0.00041757,4171.9,-0.00013772,-0.24679,-0.00013799,-2.336,0.46283
30577,7.416,0,0.05,1.114e-05,111.32,8.554e-06,64.272,-1.0909e-11,1.4755e-06,-8.554e-06,-64.271,0.47244
30578,7.1396,0,0.1,0.00042322,4229.2,0.00042318,4228.1,-0.00013958,-0.26683,-0.00013982,-2.0838,0.44375
30579,7.2317,0,0.05,1.0874e-05,108.66,8.3497e-06,62.737,-1.0912e-11,1.4434e-06,-8.3497e-06,-62.736,0.45322
30580,6.9553,0,0.1,0.00042884,4285.4,0.0004288,4284.4,-0.00014145,-0.28742,-0.00014166,-1.8284,0.42496
30581,7.0475,0,0.05,1.0586e-05,105.78,8.1285e-06,61.074,-1.0911e-11,1.4751e-06,-8.1284e-06,-61.074,0.43428
30582,6.7711,0,0.1,0.00043447,4341.7,0.00043444,4340.8,-0.00014332,-0.30833,-0.00014349,-1.5715,0.40646
30583,6.8632,0,0.05,1.0275e-05,102.68,7.8898e-06,59.281,-7.2771e-12,1.3063e-06,-7.8898e-06,-59.28,0.41564
30584,6.5868,0,0.1,0.00044011,4398.1,0.00044008,4397.3,-0.0001452,-0.32924,-0.00014533,-1.3153,0.38825
30585,6.6789,0,0.05,9.9408e-06,99.339,7.6333e-06,57.354,-7.2769e-12,1.2157e-06,-7.6333e-06,-57.353,0.39728
30586,6.4025,0,0.1,0.00044575,4454.4,0.00044573,4453.7,-0.00014707,-0.34972,-0.00014717,-1.0628,0.37034
30587,6.4947,0,0.05,9.5834e-06,95.768,7.3589e-06,55.292,-7.2757e-12,1.3544e-06,-7.3589e-06,-55.292,0.37922
30588,6.2183,0,0.1,0.00045138,4510.7,0.00045136,4510.1,-0.00014895,-0.3691,-0.000149,-0.81747,0.35274
30589,6.3104,0,0.05,9.2031e-06,91.967,7.0668e-06,53.097,-1.4546e-11,1.2268e-06,-7.0668e-06,-53.097,0.36147
30590,6.034,0,0.1,0.00045698,4566.7,0.00045697,4566.2,-0.00015081,-0.38578,-0.00015083,-0.58425,0.33544
30591,6.1261,0,0.05,8.8004e-06,87.943,6.7576e-06,50.774,-1.0907e-11,1.2452e-06,-6.7576e-06,-50.774,0.34402
30592,5.8497,0,0.1,0.00046254,4622.2,0.00046253,4621.9,-0.00015265,-0.35089,-0.00015266,-0.41598,0.31845
30593,5.9419,0,0.05,8.377e-06,83.712,6.4325e-06,48.331,-1.0906e-11,9.9415e-07,-6.4325e-06,-48.331,0.32687
30594,5.6655,0,0.1,0.00046804,4677.2,0.00046803,4676.9,-0.00015445,-0.16164,-0.00015448,-0.42003,0.30178
30595,5.7576,0,0.05,7.9349e-06,79.295,6.0931e-06,45.781,-1.0897e-11,1.1022e-06,-6.093e-06,-45.781,0.31004
30596,5.4812,0,0.1,0.00047344,4731.2,0.00047344,4731,-0.00015621,0.0076269,-0.00015627,-0.42728,0.28542
30597,5.5733,0,0.05,7.4777e-06,74.725,5.7419e-06,43.143,-1.0908e-11,1.1417e-06,-5.7419e-06,-43.143,0.29352
30598,5.2969,0,0.1,0.00047872,4783.9,0.00047871,4783.7,-0.00015794,0.14239,-0.00015802,-0.42907,0.26939
30599,5.3891,0,0.05,7.0098e-06,70.05,5.3827e-06,40.444,-1.4535e-11,1.1113e-06,-5.3827e-06,-40.443,0.27733
30600,5.1127,0,0.1,0.00048381,4834.8,0.00048381,4834.7,-0.00015962,0.23387,-0.0001597,-0.42318,0.25368
30601,5.2048,0,0.05,6.5375e-06,65.33,5.02e-06,37.719,-1.0894e-11,1.0409e-06,-5.02e-06,-37.718,0.26145
30602,4.9284,0,0.1,0.00048867,4883.3,0.00048866,4883.2,-0.00016122,0.27274,-0.00016131,-0.40754,0.2383
30603,5.0205,0,0.05,6.0689e-06,60.647,4.6602e-06,35.015,-7.2622e-12,1.0922e-06,-4.6602e-06,-35.015,0.24591
30604,4.7441,0,0.1,0.0004932,4928.6,0.0004932,4928.6,-0.00016272,0.24908,-0.0001628,-0.38023,0.22325
30605,4.8363,0,0.05,5.6143e-06,56.104,4.3111e-06,32.392,-1.4536e-11,1.0673e-06,-4.3111e-06,-32.392,0.23069
30606,4.5599,0,0.1,0.00049732,4969.8,0.00049732,4969.7,-0.00016409,0.15373,-0.00016415,-0.34092,0.20854
30607,4.652,0,0.05,5.1867e-06,51.832,3.9828e-06,29.925,-7.2635e-12,9.9845e-07,-3.9828e-06,-29.925,0.21581
30608,4.3756,0,0.1,0.0005009,5005.6,0.0005009,5005.4,-0.00016528,-0.0097341,-0.00016532,-0.30301,0.19416
30609,4.4677,0,0.05,4.8023e-06,47.99,3.6876e-06,27.707,-1.0901e-11,9.2057e-07,-3.6876e-06,-27.707,0.20127
30610,4.1913,0,0.1,0.00050378,5034.3,0.00050377,5034.1,-0.00016624,-0.10219,-0.00016628,-0.41678,0.18013
30611,4.2835,0,0.05,4.4806e-06,44.775,3.4405e-06,25.851,-1.091e-11,8.8718e-07,-3.4405e-06,-25.851,0.18706
30612,4.0071,0,0.1,0.00050576,5054.2,0.00050575,5053.7,-0.00016686,-0.01714,-0.00016697,-0.80178,0.16643
30613,4.0992,0,0.05,4.2448e-06,42.419,3.2595e-06,24.491,-1.4552e-11,9.4186e-07,-3.2595e-06,-24.49,0.17319
30614,3.8228,0,0.1,0.00050661,5062.6,0.00050659,5062,-0.0001671,0.12586,-0.0001673,-1.3543,0.15309
30615,3.9149,0,0.05,4.1222e-06,41.194,3.1654e-06,23.783,-1.0906e-11,9.2269e-07,-3.1653e-06,-23.783,0.15967
30616,3.6385,0,0.1,0.00050601,5056.6,0.00050598,5055.7,-0.00016686,0.30943,-0.00016717,-2.0769,0.14008
30617,3.7307,0,0.05,4.1436e-06,41.407,3.1818e-06,23.907,-1.4519e-11,1.0611e-06,-3.1817e-06,-23.906,0.14649
30618,3.4543,0,0.1,0.0005036,5032.5,0.00050356,5031.3,-0.000166,0.53207,-0.00016647,-2.9941,0.12742
30619,3.5464,0,0.05,4.3424e-06,43.394,3.3344e-06,25.054,-7.206e-12,1.529e-06,-3.3344e-06,-25.053,0.13366
30620,3.27,0,0.1,0.00049893,4985.9,0.00049888,4984.2,-0.00016438,0.79178,-0.00016503,-4.1383,0.1151
30621,3.3621,0,0.05,4.7526e-06,47.494,3.6494e-06,27.421,-7.1633e-12,1.6771e-06,-3.6494e-06,-27.42,0.12117
30622,3.0857,0,0.1,0.00049147,4911.3,0.00049139,4909.1,-0.00016182,1.0824,-0.0001627,-5.5485,0.10312
30623,3.1779,0,0.05,5.406e-06,54.023,4.1512e-06,31.19,-7.1105e-12,2.0298e-06,-4.1511e-06,-31.19,0.10901
30624,2.9015,0,0.1,0.00048058,4802.5,0.00048048,4799.6,-0.00015812,1.3905,-0.00015927,-7.2693,0.091473
30625,2.9936,0,0.05,6.3267e-06,63.223,4.8581e-06,36.502,-3.4946e-12,2.2638e-06,-4.8581e-06,-36.502,0.097198
30626,2.7172,0,0.1,0.00046556,4652.4,0.00046543,4648.6,-0.00015303,1.6923,-0.0001545,-9.347,0.080153
30627,2.8093,0,0.05,7.524e-06,75.188,5.7775e-06,43.41,-3.5263e-12,8.9034e-07,-5.7775e-06,-43.41,0.085713
30628,2.5329,0,0.1,0.00044561,4453.1,0.00044544,4448.1,-0.0001463,1.949,-0.00014814,-11.82,0.06915
30629,2.6251,0,0.05,8.9817e-06,89.755,6.8969e-06,51.82,-7.1439e-12,-1.0992e-14,-6.8968e-06,-51.82,0.074548
30630,2.3487,0,0.1,0.00041992,4196.3,0.0004197,4189.9,-0.00013767,2.1055,-0.0001399,-14.696,0.058451
30631,2.4408,0,0.05,1.0644e-05,106.36,8.173e-06,61.409,-1.7336e-21,-1.3026e-14,-8.173e-06,-61.409,0.063692
30632,2.1644,0,0.1,0.00038767,3874,0.0003874,3866.1,-0.00012687,2.0829,-0.00012953,-17.924,0.048038
30633,2.2565,0,0.05,1.2395e-05,123.86,9.5175e-06,71.511,3.2541e-14,-1.5168e-14,-9.5175e-06,-71.511,0.053129
30634,1.9801,0,0.1,0.0003482,3479.6,0.00034787,3469.8,-0.0001137,1.8085,-0.00011678,-21.315,0.037894
30635,2.0723,0,0.05,1.404e-05,140.3,1.0781e-05,81.002,5.1401e-14,-1.4259e-06,-1.0781e-05,-81.002,0.04284
30636,1.7959,0,0.1,0.00030108,3008.7,0.00030067,2997,-9.8046e-05,1.1304,-0.00010146,-24.486,0.027997
30637,1.888,0,0.05,1.528e-05,152.7,1.1733e-05,88.159,1.8028e-12,-9.5198e-07,-1.1733e-05,-88.159,0.032799
30638,1.6116,0,0.1,0.00024619,2460.2,0.00024573,2447,-7.9902e-05,0.262,-8.3473e-05,-26.571,0.018334
30639,1.7037,0,0.05,1.5699e-05,156.88,1.2055e-05,90.577,-3.1987e-15,-1.9333e-06,-1.2055e-05,-90.577,0.022978
30640,1.4273,0,0.1,0.0001838,1836.7,0.00018331,1822.5,-5.9503e-05,-1.8861,-6.2757e-05,-26.337,0.0089722
30641,1.5195,0,0.05,1.4692e-05,146.82,1.1282e-05,84.765,1.8181e-12,-1.8184e-06,-1.1282e-05,-84.766,0.01334
30642,1.2431,0,0.1,0.00011354,1134.6,0.00011314,1123.1,-3.6273e-05,0.47169,-3.9426e-05,-23.22,0.002737
30643,1.3352,0,0.05,1.1601e-05,115.93,8.9084e-06,66.934,9.5451e-13,-7.8134e-07,-8.9084e-06,-66.934,0.0038474
30644,1.0588,0,0.1,3.9495e-05,394.68,3.9698e-05,402.76,-1.0434e-05,26.085,-1.4937e-05,-7.7502,0.010542
30645,1.1509,0,0.05,4.1952e-06,41.923,3.2214e-06,24.204,3.7543e-13,-5.1341e-15,-3.2214e-06,-24.204,0.0055457
30646,0.96667,0,0.05,7.1347e-06,71.298,5.4785e-06,41.164,2.3494e-13,2.7211e-06,-5.4785e-06,-41.164,0.014887
30647,0.72,-3.6509e-31,0.1,9.448e-06,94.415,9.3811e-06,93.527,-2.3244e-06,5.5762,-3.8971e-06,-6.2402,5.4569e-05
30648,0.8,-4.0566e-31,0.05,2.1207e-06,21.192,1.6284e-06,12.235,-3.6329e-14,-4.5589e-07,-1.6284e-06,-12.235,7.0192e-05
30649,0.56,-2.8396e-31,0.1,2.5048e-05,250.31,2.4584e-05,237.81,-7.3374e-06,-2.0364,-9.9664e-06,-21.79,2.4214e-05
30650,0.64,0,0.05,3.9461e-06,39.433,3.0301e-06,22.767,-6.4273e-22,-8.84e-07,-3.0301e-06,-22.767,3.4255e-05
30651,0.4,-2.0283e-31,0.1,3.2895e-05,328.73,3.2013e-05,305.6,-9.1722e-06,-3.8445,-1.3917e-05,-39.499,9.5901e-06
30652,0.48,0,0.05,8.7043e-06,86.983,6.6838e-06,50.22,-2.2544e-13,-1.3297e-06,-6.6838e-06,-50.22,7.2518e-06
30653,0.24,-1.217e-31,0.1,2.9416e-05,293.96,2.8063e-05,264.79,-6.0037e-06,8.8219,-1.4664e-05,-56.251,8.57e-06
30654,0.32,0,0.05,1.1965e-05,119.57,9.1875e-06,69.031,-4.5428e-13,5.1796e-09,-9.1875e-06,-69.031,6.1141e-06
30655,0.08,-4.0566e-32,0.1,1.9959e-05,199.45,1.3444e-05,62.668,-1.4987e-06,-49.609,-1.7204e-05,-167.61,3.0414e-06
30656,0.16,0,0.05,1.5406e-05,153.95,1.183e-05,88.884,-1.6961e-12,-5.0262e-06,-1.183e-05,-88.884,5.9339e-06
30657,0,0,0.05,1.7303e-05,172.91,1.3286e-05,99.827,1.4145e-13,4.3001e-05,-1.3286e-05,-99.827,0
30658,0.08,6,0.1,1.9959e-05,199.45,1.3444e-05,62.668,-1.4987e-06,-49.609,-1.7204e-05,-167.61,3.0414e-06
30659,5.2451e-14,6,0.05,1.7302e-05,172.91,1.3286e-05,99.827,-1.4145e-13,-4.6814e-05,-1.3286e-05,-99.827,0
30660,0.24,6,0.1,2.9416e-05,293.95,2.8063e-05,264.79,-6.0037e-06,8.8219,-1.4664e-05,-56.251,8.57e-06
30661,0.16,6,0.05,1.5406e-05,153.95,1.183e-05,88.884,1.5911e-12,5.1222e-06,-1.183e-05,-88.884,5.9339e-06
30662,0.4,6,0.1,3.2895e-05,328.73,3.2013e-05,305.6,-9.1722e-06,-3.8445,-1.3917e-05,-39.499,9.5901e-06
30663,0.32,6,0.05,1.1965e-05,119.57,9.1875e-06,69.031,4.6266e-13,-2.5899e-09,-9.1875e-06,-69.031,6.1141e-06
30664,0.56,6,0.1,2.5048e-05,250.31,2.4584e-05,237.81,-7.3374e-06,-2.0364,-9.9664e-06,-21.79,2.4214e-05
30665,0.48,6,0.05,8.7043e-06,86.983,6.6838e-06,50.22,2.2544e-13,1.3297e-06,-6.6838e-06,-50.22,7.2518e-06
30666,0.72,6,0.1,9.448e-06,94.415,9.3811e-06,93.527,-2.3244e-06,5.5762,-3.8971e-06,-6.2402,5.4569e-05
30667,0.64,6,0.05,3.9461e-06,39.433,3.0301e-06,22.767,4.8212e-14,-2.904e-07,-3.0301e-06,-22.767,3.4255e-05
30668,0.8,6,0.05,2.1207e-06,21.192,1.6284e-06,12.235,4.8074e-14,2.348e-07,-1.6284e-06,-12.235,7.0192e-05
30669,0.56,6,0,2.5048e-05,250.31,9.9664e-06,21.79,7.3374e-06,2.0364,-2.4584e-05,-237.81,2.4214e-05
30670,0.72,6,0,9.448e-06,94.415,3.8971e-06,6.2402,2.3244e-06,-5.5762,-9.3811e-06,-93.527,5.4569e-05
30671,0.4,6,0,3.2895e-05,328.73,1.3917e-05,39.499,9.1722e-06,3.8445,-3.2013e-05,-305.6,9.5901e-06
30672,0.24,6,0,2.9416e-05,293.96,1.4664e-05,56.251,6.0037e-06,-8.8219,-2.8063e-05,-264.79,8.57e-06
30673,0.08,6,0,1.9959e-05,199.45,1.7204e-05,167.61,1.4987e-06,49.609,-1.3444e-05,-62.668,3.0414e-06
30674,0.8,5.9091,0,1.1096e-05,110.89,4.4219e-06,7.4001,3.0226e-06,-3.1138,-1.0986e-05,-108.37,9.6977e-05
30675,5.1657e-14,5.9091,0,1.3146e-05,131.37,1.3042e-05,143.53,3.485e-08,45.798,-6.8328e-06,-5.803,0
30676,0.24,-1.217e-31,0,2.9416e-05,293.96,1.4664e-05,56.251,6.0037e-06,-8.8219,-2.8063e-05,-264.79,8.57e-06
30677,0.08,-4.0566e-32,0,1.9959e-05,199.45,1.7204e-05,167.61,1.4987e-06,49.609,-1.3444e-05,-62.668,3.0414e-06
30678,0.4,-2.0283e-31,0,3.2895e-05,328.73,1.3917e-05,39.499,9.1722e-06,3.8445,-3.2013e-05,-305.6,9.5901e-06
30679,0.56,-2.8396e-31,0,2.5048e-05,250.31,9.9664e-06,21.79,7.3374e-06,2.0364,-2.4584e-05,-237.81,2.4214e-05
30680,0.72,-3.6509e-31,0,9.448e-06,94.415,3.8971e-06,6.2402,2.3244e-06,-5.5762,-9.3811e-06,-93.527,5.4569e-05
30681,0.8,0.090909,0,1.1096e-05,110.89,4.4219e-06,7.4001,3.0226e-06,-3.1138,-1.0986e-05,-108.37,9.6977e-05
30682,7.9472e-16,0.090909,0,1.3146e-05,131.37,1.3042e-05,143.53,3.485e-08,45.798,-6.8328e-06,-5.8029,0
30683,1.2431,0,0,0.00011354,1134.6,3.9426e-05,23.22,3.6273e-05,-0.47169,-0.00011314,-1123.1,0.002737
30684,1.0588,0,0,3.9495e-05,394.68,1.4937e-05,7.7502,1.0434e-05,-26.085,-3.9698e-05,-402.76,0.010542
30685,1.4273,0,0,0.0001838,1836.7,6.2757e-05,26.337,5.9503e-05,1.8861,-0.00018331,-1822.5,0.0089722
30686,1.6116,0,0,0.00024619,2460.2,8.3473e-05,26.571,7.9902e-05,-0.262,-0.00024573,-2447,0.018334
30687,1.7959,0,0,0.00030108,3008.7,0.00010146,24.486,9.8046e-05,-1.1304,-0.00030067,-2997,0.027997
30688,1.9801,0,0,0.0003482,3479.6,0.00011678,21.315,0.0001137,-1.8085,-0.00034787,-3469.8,0.037894
30689,2.1644,0,0,0.00038767,3874,0.00012953,17.924,0.00012687,-2.0829,-0.0003874,-3866.1,0.048038
30690,2.3487,0,0,0.00041992,4196.3,0.0001399,14.696,0.00013767,-2.1055,-0.0004197,-4189.9,0.058451
30691,2.5329,0,0,0.00044561,4453.1,0.00014814,11.82,0.0001463,-1.949,-0.00044544,-4448.1,0.06915
30692,2.7172,0,0,0.00046556,4652.4,0.0001545,9.347,0.00015303,-1.6923,-0.00046543,-4648.6,0.080153
30693,2.9015,0,0,0.00048058,4802.5,0.00015927,7.2693,0.00015812,-1.3905,-0.00048048,-4799.6,0.091473
30694,3.0857,0,0,0.00049147,4911.3,0.0001627,5.5485,0.00016182,-1.0824,-0.00049139,-4909.1,0.10312
30695,3.27,0,0,0.00049893,4985.9,0.00016503,4.1383,0.00016438,-0.79178,-0.00049888,-4984.2,0.1151
30696,3.4543,0,0,0.0005036,5032.5,0.00016647,2.9941,0.000166,-0.53207,-0.00050356,-5031.3,0.12742
30697,3.6385,0,0,0.00050601,5056.6,0.00016717,2.0769,0.00016686,-0.30943,-0.00050598,-5055.7,0.14008
30698,3.8228,0,0,0.00050661,5062.6,0.0001673,1.3543,0.0001671,-0.12586,-0.00050659,-5062,0.15309
30699,4.0071,0,0,0.00050576,5054.2,0.00016697,0.80178,0.00016686,0.01714,-0.00050575,-5053.7,0.16643
30700,4.1913,0,0,0.00050378,5034.3,0.00016628,0.41678,0.00016624,0.10219,-0.00050377,-5034.1,0.18013
30701,4.3756,0,0,0.0005009,5005.6,0.00016532,0.30301,0.00016528,0.0097352,-0.0005009,-5005.4,0.19416
30702,4.5599,0,0,0.00049732,4969.8,0.00016415,0.34092,0.00016409,-0.15373,-0.00049732,-4969.7,0.20854
30703,4.7441,0,0,0.0004932,4928.6,0.0001628,0.38023,0.00016272,-0.24908,-0.0004932,-4928.6,0.22325
30704,4.9284,0,0,0.00048867,4883.3,0.00016131,0.40754,0.00016122,-0.27274,-0.00048866,-4883.2,0.2383
30705,5.1127,0,0,0.00048381,4834.8,0.0001597,0.42318,0.00015962,-0.23387,-0.00048381,-4834.7,0.25368
30706,5.2969,0,0,0.00047872,4783.9,0.00015802,0.42907,0.00015794,-0.14238,-0.00047871,-4783.7,0.26939
30707,5.4812,0,0,0.00047344,4731.2,0.00015627,0.42728,0.00015621,-0.0076248,-0.00047344,-4731,0.28542
30708,5.6655,0,0,0.00046804,4677.2,0.00015448,0.42003,0.00015445,0.16164,-0.00046803,-4676.9,0.30178
30709,5.8497,0,0,0.00046254,4622.2,0.00015266,0.41598,0.00015265,0.35089,-0.00046253,-4621.9,0.31845
30710,6.034,0,0,0.00045698,4566.7,0.00015083,0.58425,0.00015081,0.38578,-0.00045697,-4566.2,0.33544
30711,6.2183,0,0,0.00045138,4510.7,0.000149,0.81747,0.00014895,0.3691,-0.00045136,-4510.1,0.35274
30712,6.4025,0,0,0.00044575,4454.4,0.00014717,1.0628,0.00014707,0.34972,-0.00044573,-4453.7,0.37034
30713,6.5868,0,0,0.00044011,4398.1,0.00014533,1.3153,0.0001452,0.32924,-0.00044008,-4397.3,0.38825
30714,6.7711,0,0,0.00043447,4341.7,0.00014349,1.5715,0.00014332,0.30833,-0.00043444,-4340.8,0.40646
30715,6.9553,0,0,0.00042884,4285.4,0.00014165,1.8284,0.00014145,0.28742,-0.0004288,-4284.4,0.42496
30716,7.1396,0,0,0.00042322,4229.2,0.00013982,2.0838,0.00013958,0.26683,-0.00042318,-4228.1,0.44375
30717,7.3239,0,0,0.00041761,4173.2,0.00013799,2.336,0.00013772,0.24679,-0.00041757,-4171.9,0.46283
30718,7.5081,0,0,0.00041203,4117.4,0.00013617,2.5834,0.00013586,0.22746,-0.00041198,-4116,0.48219
30719,7.6924,0,0,0.00040646,4061.8,0.00013436,2.8252,0.00013401,0.20894,-0.00040641,-4060.3,0.50183
30720,7.8767,0,0,0.00040092,4006.4,0.00013255,3.0604,0.00013217,0.1913,-0.00040086,-4004.8,0.52175
30721,8.0609,0,0,0.0003954,3951.3,0.00013075,3.2887,0.00013033,0.17459,-0.00039534,-3949.6,0.54194
30722,8.2452,0,0,0.00038991,3896.4,0.00012896,3.5095,0.00012851,0.15881,-0.00038985,-3894.6,0.5624
30723,8.4295,0,0,0.00038445,3841.8,0.00012717,3.7229,0.00012669,0.14396,-0.00038438,-3839.9,0.58312
30724,8.6137,0,0,0.00037901,3787.4,0.00012539,3.9286,0.00012489,0.13003,-0.00037894,-3785.4,0.6041
30725,8.798,0,0,0.00037359,3733.3,0.00012362,4.1269,0.00012309,0.11699,-0.00037352,-3731.2,0.62534
30726,8.9823,0,0,0.0003682,3679.5,0.00012186,4.3179,0.0001213,0.1048,-0.00036813,-3677.3,0.64684
30727,9.1665,0,0,0.00036284,3625.9,0.00012011,4.5017,0.00011952,0.093428,-0.00036276,-3623.6,0.66858
30728,9.3508,0,0,0.0003575,3572.5,0.00011836,4.6787,0.00011775,0.082834,-0.00035742,-3570.1,0.69057
30729,9.5351,0,0,0.00035218,3519.4,0.00011662,4.8492,0.00011599,0.072973,-0.0003521,-3516.9,0.7128
30730,9.7193,0,0,0.00034689,3466.5,0.00011489,5.0135,0.00011423,0.063805,-0.00034681,-3464,0.73527
30731,9.9036,0,0,0.00034163,3413.9,0.00011317,5.172,0.00011249,0.055286,-0.00034154,-3411.3,0.75798
30732,10.088,0,0,0.00033639,3361.5,0.00011145,5.325,0.00011075,0.04737,-0.0003363,-3358.9,0.78091
30733,10.272,0,0,0.00033117,3309.4,0.00010974,5.4729,0.00010902,0.040025,-0.00033108,-3306.6,0.80408
30734,10.456,0,0,0.00032598,3257.5,0.00010804,5.6161,0.0001073,0.03319,-0.00032588,-3254.7,0.82747
30735,10.641,0,0,0.0003208,3205.8,0.00010634,5.7549,0.00010558,0.026841,-0.00032071,-3202.9,0.85107
30736,10.825,0,0,0.00031566,3154.4,0.00010466,5.8897,0.00010388,0.020977,-0.00031556,-3151.4,0.8749
30737,11.009,0,0,0.00031053,3103.2,0.00010298,6.021,0.00010218,0.015535,-0.00031043,-3100.2,0.89894
30738,11.193,0,0,0.00030543,3052.2,0.0001013,6.1489,0.00010049,0.010462,-0.00030532,-3049.1,0.92319
30739,11.378,0,0,0.00030035,3001.4,9.9639e-05,6.2739,9.8805e-05,0.0057286,-0.00030024,-2998.3,0.94765
30740,11.562,0,0,0.00029529,2950.9,9.7981e-05,6.3962,9.713e-05,0.0013197,-0.00029518,-2947.7,0.97231
30741,11.746,0,0,0.00029026,2900.6,9.6329e-05,6.5164,9.5461e-05,-0.0027412,-0.00029015,-2897.3,0.99717
30742,11.931,0,0,0.00028524,2850.5,9.4685e-05,6.6345,9.3801e-05,-0.0065311,-0.00028513,-2847.1,1.0222
30743,12.115,0,0,0.00028025,2800.6,9.3047e-05,6.7509,9.2147e-05,-0.010085,-0.00028014,-2797.2,1.0475
30744,12.299,0,0,0.00027528,2750.9,9.1417e-05,6.8659,9.0501e-05,-0.013422,-0.00027516,-2747.5,1.0729
30745,12.483,0,0,0.00027033,2701.4,8.9793e-05,6.9797,8.8862e-05,-0.016547,-0.00027021,-2698,1.0985
30746,12.668,0,0,0.0002654,2652.2,8.8177e-05,7.0928,8.723e-05,-0.019453,-0.00026528,-2648.7,1.1244
30747,12.852,0,0,0.0002605,2603.2,8.6567e-05,7.2052,8.5605e-05,-0.022184,-0.00026037,-2599.6,1.1503
30748,13.036,0,0,0.00025561,2554.4,8.4964e-05,7.3173,8.3987e-05,-0.024776,-0.00025549,-2550.7,1.1765
30749,13.22,0,0,0.00025075,2505.7,8.3368e-05,7.4293,8.2376e-05,-0.027244,-0.00025062,-2502,1.2028
30750,13.405,0,0,0.0002459,2457.3,8.178e-05,7.5413,8.0772e-05,-0.029588,-0.00024578,-2453.6,1.2294
30751,13.589,0,0,0.00024108,2409.1,8.0198e-05,7.6538,7.9175e-05,-0.031798,-0.00024095,-2405.3,1.256
30752,13.773,0,0,0.00023628,2361.2,7.8622e-05,7.7668,7.7584e-05,-0.033913,-0.00023615,-2357.3,1.2829
30753,13.957,0,0,0.0002315,2313.4,7.7054e-05,7.8806,7.6001e-05,-0.035961,-0.00023136,-2309.5,1.3099
30754,14.142,0,0,0.00022674,2265.8,7.5493e-05,7.9953,7.4424e-05,-0.037955,-0.0002266,-2261.8,1.337
30755,14.326,0,0,0.000222,2218.4,7.3938e-05,8.1112,7.2854e-05,-0.039895,-0.00022186,-2214.4,1.3643
30756,14.51,0,0,0.00021728,2171.3,7.2391e-05,8.2286,7.129e-05,-0.041767,-0.00021714,-2167.2,1.3918
30757,14.695,0,0,0.00021258,2124.3,7.085e-05,8.3475,6.9733e-05,-0.04361,-0.00021244,-2120.2,1.4194
30758,14.879,0,0,0.0002079,2077.6,6.9316e-05,8.4682,6.8183e-05,-0.045446,-0.00020775,-2073.3,1.4471
30759,15.063,0,0,0.00020324,2031,6.7789e-05,8.5908,6.6639e-05,-0.047288,-0.00020309,-2026.7,1.475
30760,15.247,0,0,0.0001986,1984.6,6.6269e-05,8.7155,6.5102e-05,-0.049136,-0.00019845,-1980.3,1.503
30761,15.432,0,0,0.00019398,1938.5,6.4755e-05,8.8426,6.3572e-05,-0.05098,-0.00019383,-1934.1,1.5312
30762,15.616,0,0,0.00018938,1892.5,6.3249e-05,8.9721,6.2048e-05,-0.052852,-0.00018923,-1888.1,1.5595
30763,15.8,0,0,0.00018481,1846.8,6.1749e-05,9.1042,6.053e-05,-0.054778,-0.00018465,-1842.2,1.5879
30764,15.984,0,0,0.00018025,1801.2,6.0256e-05,9.239,5.9019e-05,-0.056769,-0.00018009,-1796.6,1.6164
30765,16.169,0,0,0.00017571,1755.9,5.877e-05,9.3769,5.7514e-05,-0.058824,-0.00017555,-1751.2,1.6451
30766,16.353,0,0,0.00017119,1710.7,5.729e-05,9.5178,5.6015e-05,-0.060941,-0.00017103,-1706,1.6739
30767,16.537,0,0,0.00016669,1665.8,5.5817e-05,9.6619,5.4523e-05,-0.06315,-0.00016652,-1660.9,1.7028
30768,16.721,0,0,0.00016221,1621,5.4351e-05,9.8094,5.3037e-05,-0.065477,-0.00016204,-1616.1,1.7318
30769,16.906,0,0,0.00015775,1576.4,5.2892e-05,9.9603,5.1558e-05,-0.067936,-0.00015758,-1571.4,1.7609
30770,17.09,0,0,0.00015331,1532,5.144e-05,10.115,5.0084e-05,-0.070531,-0.00015313,-1527,1.7901
30771,17.274,0,0,0.00014889,1487.8,4.9994e-05,10.273,4.8617e-05,-0.073266,-0.00014871,-1482.7,1.8194
30772,17.459,0,0,0.00014448,1443.8,4.8554e-05,10.435,4.7155e-05,-0.076173,-0.0001443,-1438.6,1.8489
30773,17.643,0,0,0.0001401,1400,4.7121e-05,10.601,4.57e-05,-0.079277,-0.00013992,-1394.7,1.8784
30774,17.827,0,0,0.00013573,1356.4,4.5695e-05,10.77,4.4251e-05,-0.0826,-0.00013555,-1351,1.908
30775,18.011,0,0,0.00013139,1313,4.4275e-05,10.944,4.2807e-05,-0.086157,-0.0001312,-1307.5,1.9377
30776,18.196,0,0,0.00012706,1269.7,4.2862e-05,11.121,4.137e-05,-0.089955,-0.00012687,-1264.2,1.9675
30777,18.38,0,0,0.00012275,1226.7,4.1455e-05,11.303,3.9938e-05,-0.09403,-0.00012256,-1221,1.9974
30778,18.564,0,0,0.00011846,1183.8,4.0055e-05,11.488,3.8513e-05,-0.098418,-0.00011826,-1178,2.0274
30779,18.748,0,0,0.00011418,1141.1,3.866e-05,11.677,3.7093e-05,-0.10315,-0.00011398,-1135.2,2.0574
30780,18.933,0,0,0.00010993,1098.5,3.7272e-05,11.869,3.5678e-05,-0.10824,-0.00010972,-1092.6,2.0875
30781,19.117,0,0,0.00010569,1056.2,3.589e-05,12.065,3.4269e-05,-0.11371,-0.00010548,-1050.2,2.1177
30782,19.301,0,0,0.00010147,1014,3.4514e-05,12.264,3.2866e-05,-0.11962,-0.00010126,-1007.9,2.148
30783,19.485,0,0,9.7266e-05,971.99,3.3144e-05,12.466,3.1468e-05,-0.12601,-9.705e-05,-965.76,2.1783
30784,19.67,0,0,9.3079e-05,930.15,3.1779e-05,12.671,3.0075e-05,-0.13292,-9.2859e-05,-923.81,2.2087
30785,19.854,0,0,8.8908e-05,888.47,3.042e-05,12.877,2.8688e-05,-0.14039,-8.8684e-05,-882.03,2.2392
30786,20.038,0,0,8.4754e-05,846.95,2.9067e-05,13.084,2.7306e-05,-0.14847,-8.4526e-05,-840.41,2.2697
30787,20.223,0,0,8.0615e-05,805.6,2.7719e-05,13.293,2.5929e-05,-0.15722,-8.0384e-05,-798.95,2.3002
30788,20.407,0,0,7.6493e-05,764.4,2.6376e-05,13.501,2.4557e-05,-0.16671,-7.6257e-05,-757.64,2.3309
30789,20.591,0,0,7.2386e-05,723.36,2.5038e-05,13.708,2.319e-05,-0.17702,-7.2146e-05,-716.49,2.3615
30790,20.775,0,0,6.8294e-05,682.47,2.3705e-05,13.913,2.1829e-05,-0.18823,-6.805e-05,-675.5,2.3923
30791,20.96,0,0,6.4217e-05,641.73,2.2377e-05,14.113,2.0472e-05,-0.20042,-6.3969e-05,-634.66,2.423
30792,21.144,0,0,6.0156e-05,601.15,2.1053e-05,14.309,1.912e-05,-0.21371,-5.9903e-05,-593.97,2.4538
30793,21.328,0,0,5.611e-05,560.71,1.9734e-05,14.497,1.7774e-05,-0.22826,-5.5852e-05,-553.43,2.4847
30794,21.512,0,0,5.2079e-05,520.43,1.8419e-05,14.676,1.6433e-05,-0.24421,-5.1817e-05,-513.05,2.5156
30795,21.697,0,0,4.8063e-05,480.3,1.7108e-05,14.842,1.5098e-05,-0.26175,-4.7797e-05,-472.83,2.5465
30796,21.881,0,0,4.4064e-05,440.33,1.5801e-05,14.992,1.3768e-05,-0.28114,-4.3794e-05,-432.78,2.5775
30797,22.065,0,0,4.0081e-05,400.54,1.4498e-05,15.123,1.2445e-05,-0.30268,-3.9807e-05,-392.9,2.6084
30798,22.249,0,0,3.6118e-05,360.93,1.3199e-05,15.227,1.1129e-05,-0.32678,-3.5839e-05,-353.22,2.6394
30799,22.434,0,0,3.2174e-05,321.52,1.1904e-05,15.3,9.8206e-06,-0.35398,-3.1891e-05,-313.76,2.6705
30800,22.618,0,0,2.8254e-05,282.35,1.0613e-05,15.331,8.5214e-06,-0.38502,-2.7967e-05,-274.54,2.7015
30801,22.802,0,0,2.4362e-05,243.45,9.3267e-06,15.308,7.2333e-06,-0.42088,-2.407e-05,-235.62,2.7326
30802,22.987,0,0,2.0503e-05,204.89,8.0452e-06,15.212,5.959e-06,-0.46347,-2.0207e-05,-197.07,2.7637
30803,23.171,0,0,1.6689e-05,166.77,6.7694e-06,15.014,4.7028e-06,-0.51372,-1.6388e-05,-158.98,2.7948
30804,23.355,0,0,1.2933e-05,129.25,5.499e-06,14.653,3.4712e-06,-0.58304,-1.2627e-05,-121.54,2.8259
30805,23.539,0,0,9.2688e-06,92.624,4.2382e-06,14.072,2.277e-06,-0.66327,-8.9523e-06,-85.036,2.857
30806,23.724,0,0,5.722e-06,57.181,2.9417e-06,12.557,1.153e-06,-0.88245,-5.4036e-06,-50.147,2.8881
30807,23.908,0,0,2.3978e-06,23.961,1.4978e-06,8.6124,2.639e-07,-0.65842,-2.1239e-06,-18.599,2.9192
30808,0.96667,0.090909,0,3.1796e-05,317.74,1.3202e-05,35.143,9.0312e-06,3.8011,-3.1017e-05,-297.11,0.014168
30809,24,0.090909,0,2.3237e-06,23.221,2.1513e-06,20.342,-2.399e-07,2.3757,-1.3385e-06,-5.8785,2.9349
30810,5.0067e-14,5.7273,0,1.1308e-05,113,1.0701e-06,-87.886,1.7356e-07,-94.623,-1.4398e-05,-204.11,0
30811,4.8478e-14,5.5455,0,2.3209e-05,231.93,7.6995e-07,-214.33,-3.2305e-07,-222.54,-3.063e-05,-450.26,0
30812,4.6888e-14,5.3636,0,3.7054e-05,370.29,9.6762e-07,-346.48,-4.6153e-07,-357.21,-4.9013e-05,-722.01,0
30813,4.5299e-14,5.1818,0,5.6742e-05,567.02,1.4014e-06,-532,-7.0156e-07,-547.8,-7.5094e-05,-1106.8,0
30814,4.371e-14,5,0,8.5509e-05,854.5,2.0111e-06,-804.18,-1.1111e-06,-827.64,-0.00011324,-1670.2,0
30815,4.212e-14,4.8182,0,0.00012614,1260.5,2.7434e-06,-1190.8,-1.6699e-06,-1223.9,-0.00016718,-2467.5,0
30816,4.0531e-14,4.6364,0,0.00018035,1802.2,3.4848e-06,-1709.8,-2.3074e-06,-1753.3,-0.00023922,-3533.3,0
30817,3.8941e-14,4.4545,0,0.00024808,2479.1,4.1064e-06,-2362,-2.9297e-06,-2414.9,-0.0003293,-4867.1,0
30818,3.7352e-14,4.2727,0,0.0003282,3279.8,4.6195e-06,-3136.2,-3.5232e-06,-3197.4,-0.0004359,-6446.1,0
30819,3.5762e-14,4.0909,0,0.00042069,4204,5.1293e-06,-4031.1,-4.1833e-06,-4101,-0.00055899,-8269.6,0
30820,3.4173e-14,3.9091,0,0.00052571,5253.5,5.5574e-06,-5049.8,-4.9242e-06,-5128.6,-0.00069882,-10342,0
30821,3.2583e-14,3.7273,0,0.00063765,6372.1,5.5556e-06,-6140.8,-5.3983e-06,-6223.1,-0.00084794,-12554,0
30822,3.0994e-14,3.5455,0,0.00074257,7420.6,4.8053e-06,-7168.9,-5.0774e-06,-7243.2,-0.00098772,-14626,0
30823,2.9405e-14,3.3636,0,0.00082505,8244.8,3.3976e-06,-7982,-3.8839e-06,-8036.7,-0.0010975,-16254,0
30824,2.7815e-14,3.1818,0,0.00087606,8754.6,1.7011e-06,-8490.1,-2.2314e-06,-8519.6,-0.0011654,-17259,0
30825,2.6226e-14,3,0,0.0008931,8924.9,4.0745e-07,-8665.1,-9.3463e-07,-8675.2,-0.0011881,-17595,0
30826,2.4636e-14,2.8182,0,0.00087606,8754.6,1.7011e-06,-8490.1,-2.2314e-06,-8519.6,-0.0011654,-17259,0
30827,2.3047e-14,2.6364,0,0.00082505,8244.8,3.3976e-06,-7982,-3.8839e-06,-8036.7,-0.0010975,-16254,0
30828,2.1457e-14,2.4545,0,0.00074257,7420.6,4.8053e-06,-7168.9,-5.0774e-06,-7243.2,-0.00098772,-14626,0
30829,1.9868e-14,2.2727,0,0.00063765,6372.1,5.5556e-06,-6140.8,-5.3983e-06,-6223.1,-0.00084794,-12554,0
30830,1.8279e-14,2.0909,0,0.00052571,5253.5,5.5574e-06,-5049.8,-4.9242e-06,-5128.6,-0.00069882,-10342,0
30831,1.6689e-14,1.9091,0,0.00042069,4204,5.1293e-06,-4031.1,-4.1833e-06,-4101,-0.00055899,-8269.6,0
30832,1.51e-14,1.7273,0,0.0003282,3279.8,4.6195e-06,-3136.2,-3.5232e-06,-3197.4,-0.0004359,-6446.1,0
30833,1.351e-14,1.5455,0,0.00024808,2479.1,4.1064e-06,-2362,-2.9297e-06,-2414.9,-0.0003293,-4867.1,0
30834,1.1921e-14,1.3636,0,0.00018035,1802.2,3.4848e-06,-1709.8,-2.3074e-06,-1753.3,-0.00023922,-3533.3,0
30835,1.0331e-14,1.1818,0,0.00012614,1260.5,2.7434e-06,-1190.8,-1.6699e-06,-1223.9,-0.00016718,-2467.5,0
30836,8.7419e-15,1,0,8.5509e-05,854.5,2.0111e-06,-804.18,-1.1111e-06,-827.64,-0.00011324,-1670.2,0
30837,7.1525e-15,0.81818,0,5.6742e-05,567.02,1.4014e-06,-532,-7.0157e-07,-547.8,-7.5094e-05,-1106.8,0
30838,5.563e-15,0.63636,0,3.7054e-05,370.29,9.6762e-07,-346.48,-4.6153e-07,-357.21,-4.9013e-05,-722.01,0
30839,3.9736e-15,0.45455,0,2.3209e-05,231.93,7.6995e-07,-214.33,-3.2305e-07,-222.54,-3.063e-05,-450.26,0
30840,2.3842e-15,0.27273,0,1.1308e-05,113,1.0701e-06,-87.886,1.7356e-07,-94.623,-1.4398e-05,-204.11,0
30841,24,0.27273,0,5.3361e-06,53.324,5.1968e-06,50.367,-1.2163e-06,2.1821,-2.4282e-06,-6.924,2.935
30842,24,0.45455,0,7.7669e-06,77.615,7.6401e-06,74.729,-2.003e-06,2.2749,-3.2614e-06,-7.1806,2.9351
30843,24,0.63636,0,9.7017e-06,96.95,9.5827e-06,94.153,-2.63e-06,2.3915,-3.915e-06,-7.2633,2.9353
30844,24,0.81818,0,1.1331e-05,113.23,1.1217e-05,110.49,-3.1658e-06,2.4264,-4.4567e-06,-7.2733,2.9354
30845,24,1,0,1.2727e-05,127.18,1.2618e-05,124.51,-3.6267e-06,2.456,-4.9176e-06,-7.2433,2.9355
30846,24,1.1818,0,1.3934e-05,139.24,1.3828e-05,136.63,-4.0264e-06,2.4758,-5.314e-06,-7.1984,2.9357
30847,24,1.3636,0,1.4979e-05,149.69,1.4877e-05,147.13,-4.3733e-06,2.4911,-5.6561e-06,-7.1471,2.9358
30848,24,1.5455,0,1.5882e-05,158.71,1.5782e-05,156.2,-4.6733e-06,2.5028,-5.9507e-06,-7.0953,2.9359
30849,24,1.7273,0,1.6655e-05,166.44,1.6558e-05,163.97,-4.9306e-06,2.512,-6.2027e-06,-7.046,2.936
30850,24,1.9091,0,1.731e-05,172.98,1.7214e-05,170.54,-5.1485e-06,2.5192,-6.4156e-06,-7.0011,2.936
30851,24,2.0909,0,1.7853e-05,178.41,1.7759e-05,176,-5.3295e-06,2.5248,-6.5921e-06,-6.9618,2.9361
30852,24,2.2727,0,1.8291e-05,182.78,1.8198e-05,180.4,-5.4754e-06,2.5291,-6.7342e-06,-6.929,2.9362
30853,24,2.4545,0,1.8627e-05,186.14,1.8535e-05,183.78,-5.5875e-06,2.5323,-6.8433e-06,-6.903,2.9362
30854,24,2.6364,0,1.8865e-05,188.52,1.8774e-05,186.17,-5.6669e-06,2.5345,-6.9205e-06,-6.8843,2.9362
30855,24,2.8182,0,1.9007e-05,189.94,1.8916e-05,187.6,-5.7143e-06,2.5358,-6.9666e-06,-6.873,2.9363
30856,24,3,0,1.9055e-05,190.41,1.8963e-05,188.07,-5.7301e-06,2.5362,-6.9819e-06,-6.8692,2.9363
30857,24,3.1818,0,1.9007e-05,189.94,1.8916e-05,187.6,-5.7143e-06,2.5358,-6.9666e-06,-6.873,2.9363
30858,24,3.3636,0,1.8865e-05,188.52,1.8774e-05,186.17,-5.6669e-06,2.5345,-6.9205e-06,-6.8843,2.9362
30859,24,3.5455,0,1.8627e-05,186.14,1.8535e-05,183.78,-5.5875e-06,2.5323,-6.8433e-06,-6.903,2.9362
30860,24,3.7273,0,1.8291e-05,182.78,1.8198e-05,180.4,-5.4754e-06,2.5291,-6.7342e-06,-6.929,2.9362
30861,24,3.9091,0,1.7853e-05,178.41,1.7759e-05,176,-5.3295e-06,2.5248,-6.5921e-06,-6.9618,2.9361
30862,24,4.0909,0,1.731e-05,172.98,1.7214e-05,170.54,-5.1485e-06,2.5192,-6.4156e-06,-7.0011,2.936
30863,24,4.2727,0,1.6656e-05,166.44,1.6558e-05,163.97,-4.9306e-06,2.512,-6.2027e-06,-7.046,2.936
30864,24,4.4545,0,1.5882e-05,158.71,1.5782e-05,156.2,-4.6733e-06,2.5028,-5.9507e-06,-7.0953,2.9359
30865,24,4.6364,0,1.4979e-05,149.69,1.4877e-05,147.13,-4.3733e-06,2.4911,-5.6561e-06,-7.1471,2.9358
30866,24,4.8182,0,1.3934e-05,139.24,1.3828e-05,136.63,-4.0264e-06,2.4758,-5.314e-06,-7.1984,2.9357
30867,24,5,0,1.2727e-05,127.18,1.2618e-05,124.51,-3.6267e-06,2.456,-4.9176e-06,-7.2433,2.9355
30868,24,5.1818,0,1.1331e-05,113.23,1.1217e-05,110.49,-3.1658e-06,2.4264,-4.4567e-06,-7.2733,2.9354
30869,24,5.3636,0,9.7017e-06,96.95,9.5827e-06,94.153,-2.63e-06,2.3915,-3.915e-06,-7.2633,2.9353
30870,24,5.5455,0,7.7669e-06,77.615,7.6401e-06,74.729,-2.003e-06,2.2749,-3.2614e-06,-7.1806,2.9351
30871,24,5.7273,0,5.3361e-06,53.324,5.1968e-06,50.367,-1.2163e-06,2.1821,-2.4282e-06,-6.924,2.935
30872,24,5.9091,0,2.3237e-06,23.221,2.1513e-06,20.342,-2.399e-07,2.3757,-1.3385e-06,-5.8785,2.9349
30873,23.908,6,0,2.3978e-06,23.961,1.4978e-06,8.6124,2.639e-07,-0.65842,-2.1239e-06,-18.599,2.9192
30874,23.724,6,0,5.722e-06,57.181,2.9417e-06,12.557,1.153e-06,-0.88245,-5.4036e-06,-50.147,2.8881
30875,23.539,6,0,9.2688e-06,92.624,4.2382e-06,14.072,2.277e-06,-0.66327,-8.9523e-06,-85.036,2.857
30876,23.355,6,0,1.2933e-05,129.25,5.499e-06,14.653,3.4712e-06,-0.58304,-1.2627e-05,-121.54,2.8259
30877,23.171,6,0,1.6689e-05,166.77,6.7694e-06,15.014,4.7028e-06,-0.51372,-1.6388e-05,-158.98,2.7948
30878,22.987,6,0,2.0503e-05,204.89,8.0452e-06,15.212,5.959e-06,-0.46347,-2.0207e-05,-197.07,2.7637
30879,22.802,6,0,2.4362e-05,243.45,9.3267e-06,15.308,7.2333e-06,-0.42088,-2.407e-05,-235.62,2.7326
30880,22.618,6,0,2.8254e-05,282.35,1.0613e-05,15.331,8.5214e-06,-0.38502,-2.7967e-05,-274.54,2.7015
30881,22.434,6,0,3.2174e-05,321.52,1.1904e-05,15.3,9.8206e-06,-0.35397,-3.1891e-05,-313.76,2.6705
30882,22.249,6,0,3.6118e-05,360.93,1.3199e-05,15.227,1.1129e-05,-0.32678,-3.5839e-05,-353.22,2.6394
30883,22.065,6,0,4.0081e-05,400.54,1.4498e-05,15.123,1.2445e-05,-0.30268,-3.9807e-05,-392.9,2.6084
30884,21.881,6,0,4.4064e-05,440.33,1.5801e-05,14.992,1.3768e-05,-0.28114,-4.3794e-05,-432.78,2.5775
30885,21.697,6,0,4.8063e-05,480.3,1.7108e-05,14.842,1.5098e-05,-0.26175,-4.7797e-05,-472.83,2.5465
30886,21.512,6,0,5.2079e-05,520.43,1.8419e-05,14.676,1.6433e-05,-0.24421,-5.1817e-05,-513.05,2.5156
30887,21.328,6,0,5.611e-05,560.71,1.9734e-05,14.497,1.7774e-05,-0.22826,-5.5852e-05,-553.43,2.4847
30888,21.144,6,0,6.0156e-05,601.15,2.1053e-05,14.309,1.912e-05,-0.21371,-5.9903e-05,-593.97,2.4538
30889,20.96,6,0,6.4217e-05,641.73,2.2377e-05,14.113,2.0472e-05,-0.20042,-6.3969e-05,-634.66,2.423
30890,20.775,6,0,6.8294e-05,682.47,2.3705e-05,13.913,2.1829e-05,-0.18822,-6.805e-05,-675.5,2.3923
30891,20.591,6,0,7.2386e-05,723.36,2.5038e-05,13.708,2.319e-05,-0.17702,-7.2146e-05,-716.49,2.3615
30892,20.407,6,0,7.6493e-05,764.4,2.6376e-05,13.501,2.4557e-05,-0.16671,-7.6257e-05,-757.64,2.3309
30893,20.223,6,0,8.0615e-05,805.6,2.7719e-05,13.293,2.5929e-05,-0.15722,-8.0384e-05,-798.95,2.3002
30894,20.038,6,0,8.4754e-05,846.95,2.9067e-05,13.084,2.7306e-05,-0.14847,-8.4526e-05,-840.41,2.2697
30895,19.854,6,0,8.8908e-05,888.47,3.042e-05,12.877,2.8688e-05,-0.14039,-8.8684e-05,-882.03,2.2392
30896,19.67,6,0,9.3079e-05,930.15,3.1779e-05,12.671,3.0075e-05,-0.13292,-9.2859e-05,-923.81,2.2087
30897,19.485,6,0,9.7266e-05,971.99,3.3144e-05,12.466,3.1468e-05,-0.12601,-9.705e-05,-965.76,2.1783
30898,19.301,6,0,0.00010147,1014,3.4514e-05,12.264,3.2866e-05,-0.11962,-0.00010126,-1007.9,2.148
30899,19.117,6,0,0.00010569,1056.2,3.589e-05,12.065,3.4269e-05,-0.11371,-0.00010548,-1050.2,2.1177
30900,18.933,6,0,0.00010993,1098.5,3.7272e-05,11.869,3.5678e-05,-0.10824,-0.00010972,-1092.6,2.0875
30901,18.748,6,0,0.00011418,1141.1,3.866e-05,11.677,3.7093e-05,-0.10314,-0.00011398,-1135.2,2.0574
30902,18.564,6,0,0.00011846,1183.8,4.0055e-05,11.488,3.8513e-05,-0.098418,-0.00011826,-1178,2.0274
30903,18.38,6,0,0.00012275,1226.7,4.1455e-05,11.303,3.9938e-05,-0.094029,-0.00012256,-1221,1.9974
30904,18.196,6,0,0.00012706,1269.7,4.2862e-05,11.121,4.137e-05,-0.089954,-0.00012687,-1264.2,1.9675
30905,18.011,6,0,0.00013139,1313,4.4276e-05,10.944,4.2807e-05,-0.086158,-0.0001312,-1307.5,1.9377
30906,17.827,6,0,0.00013573,1356.4,4.5695e-05,10.77,4.4251e-05,-0.082603,-0.00013555,-1351,1.908
30907,17.643,6,0,0.0001401,1400,4.7121e-05,10.601,4.57e-05,-0.079278,-0.00013992,-1394.7,1.8784
30908,17.459,6,0,0.00014448,1443.8,4.8554e-05,10.435,4.7155e-05,-0.076172,-0.0001443,-1438.6,1.8489
30909,17.274,6,0,0.00014889,1487.8,4.9994e-05,10.273,4.8617e-05,-0.073265,-0.00014871,-1482.7,1.8194
30910,17.09,6,0,0.00015331,1532,5.144e-05,10.115,5.0084e-05,-0.07053,-0.00015313,-1527,1.7901
30911,16.906,6,0,0.00015775,1576.4,5.2892e-05,9.9603,5.1558e-05,-0.067935,-0.00015758,-1571.4,1.7609
30912,16.721,6,0,0.00016221,1621,5.4351e-05,9.8094,5.3037e-05,-0.065477,-0.00016204,-1616.1,1.7318
30913,16.537,6,0,0.00016669,1665.8,5.5817e-05,9.6619,5.4523e-05,-0.06315,-0.00016652,-1660.9,1.7028
30914,16.353,6,0,0.00017119,1710.7,5.729e-05,9.5178,5.6015e-05,-0.06094,-0.00017103,-1706,1.6739
30915,16.169,6,0,0.00017571,1755.9,5.877e-05,9.3768,5.7514e-05,-0.058824,-0.00017555,-1751.2,1.6451
30916,15.984,6,0,0.00018025,1801.2,6.0256e-05,9.239,5.9019e-05,-0.056768,-0.00018009,-1796.6,1.6164
30917,15.8,6,0,0.00018481,1846.8,6.1749e-05,9.1042,6.053e-05,-0.054779,-0.00018465,-1842.2,1.5879
30918,15.616,6,0,0.00018938,1892.5,6.3249e-05,8.972,6.2048e-05,-0.052853,-0.00018923,-1888.1,1.5595
30919,15.432,6,0,0.00019398,1938.5,6.4755e-05,8.8425,6.3572e-05,-0.05098,-0.00019383,-1934.1,1.5312
30920,15.247,6,0,0.0001986,1984.6,6.6269e-05,8.7155,6.5102e-05,-0.049136,-0.00019845,-1980.3,1.503
30921,15.063,6,0,0.00020324,2031,6.7789e-05,8.5908,6.6639e-05,-0.047289,-0.00020309,-2026.7,1.475
30922,14.879,6,0,0.0002079,2077.6,6.9316e-05,8.4682,6.8183e-05,-0.045446,-0.00020775,-2073.3,1.4471
30923,14.695,6,0,0.00021258,2124.3,7.085e-05,8.3475,6.9733e-05,-0.043609,-0.00021244,-2120.2,1.4194
30924,14.51,6,0,0.00021728,2171.3,7.2391e-05,8.2286,7.129e-05,-0.041767,-0.00021714,-2167.2,1.3918
30925,14.326,6,0,0.000222,2218.4,7.3938e-05,8.1112,7.2854e-05,-0.039893,-0.00022186,-2214.4,1.3643
30926,14.142,6,0,0.00022674,2265.8,7.5493e-05,7.9953,7.4424e-05,-0.037955,-0.0002266,-2261.8,1.337
30927,13.957,6,0,0.0002315,2313.4,7.7054e-05,7.8805,7.6001e-05,-0.035961,-0.00023136,-2309.5,1.3099
30928,13.773,6,0,0.00023628,2361.2,7.8623e-05,7.7668,7.7584e-05,-0.033912,-0.00023615,-2357.3,1.2829
30929,13.589,6,0,0.00024108,2409.1,8.0198e-05,7.6538,7.9175e-05,-0.031798,-0.00024095,-2405.3,1.256
30930,13.405,6,0,0.0002459,2457.3,8.178e-05,7.5413,8.0772e-05,-0.029589,-0.00024578,-2453.6,1.2294
30931,13.22,6,0,0.00025075,2505.7,8.3368e-05,7.4292,8.2376e-05,-0.027245,-0.00025062,-2502,1.2028
30932,13.036,6,0,0.00025561,2554.4,8.4964e-05,7.3173,8.3987e-05,-0.024777,-0.00025549,-2550.7,1.1765
30933,12.852,6,0,0.0002605,2603.2,8.6567e-05,7.2052,8.5605e-05,-0.022185,-0.00026037,-2599.6,1.1503
30934,12.668,6,0,0.0002654,2652.2,8.8177e-05,7.0928,8.723e-05,-0.019453,-0.00026528,-2648.7,1.1244
30935,12.483,6,0,0.00027033,2701.4,8.9793e-05,6.9797,8.8862e-05,-0.016547,-0.00027021,-2698,1.0985
30936,12.299,6,0,0.00027528,2750.9,9.1417e-05,6.8659,9.0501e-05,-0.013422,-0.00027516,-2747.5,1.0729
30937,12.115,6,0,0.00028025,2800.6,9.3047e-05,6.7509,9.2147e-05,-0.010085,-0.00028014,-2797.2,1.0475
30938,11.931,6,0,0.00028524,2850.5,9.4685e-05,6.6345,9.3801e-05,-0.0065315,-0.00028513,-2847.1,1.0222
30939,11.746,6,0,0.00029026,2900.6,9.6329e-05,6.5163,9.5461e-05,-0.0027416,-0.00029015,-2897.3,0.99717
30940,11.562,6,0,0.00029529,2950.9,9.7981e-05,6.3962,9.713e-05,0.0013198,-0.00029518,-2947.7,0.97231
30941,11.378,6,0,0.00030035,3001.4,9.9639e-05,6.2739,9.8805e-05,0.0057292,-0.00030024,-2998.3,0.94765
30942,11.193,6,0,0.00030543,3052.2,0.0001013,6.1489,0.00010049,0.010462,-0.00030532,-3049.1,0.92319
30943,11.009,6,0,0.00031053,3103.2,0.00010298,6.021,0.00010218,0.015535,-0.00031043,-3100.2,0.89894
30944,10.825,6,0,0.00031566,3154.4,0.00010466,5.8897,0.00010388,0.020977,-0.00031556,-3151.4,0.8749
30945,10.641,6,0,0.0003208,3205.8,0.00010634,5.7549,0.00010558,0.02684,-0.00032071,-3202.9,0.85107
30946,10.456,6,0,0.00032598,3257.5,0.00010804,5.6161,0.0001073,0.03319,-0.00032588,-3254.7,0.82747
30947,10.272,6,0,0.00033117,3309.4,0.00010974,5.4729,0.00010902,0.040024,-0.00033108,-3306.6,0.80408
30948,10.088,6,0,0.00033639,3361.5,0.00011145,5.325,0.00011075,0.04737,-0.0003363,-3358.9,0.78091
30949,9.9036,6,0,0.00034163,3413.9,0.00011317,5.172,0.00011249,0.055286,-0.00034154,-3411.3,0.75798
30950,9.7193,6,0,0.00034689,3466.5,0.00011489,5.0135,0.00011423,0.063805,-0.00034681,-3464,0.73527
30951,9.5351,6,0,0.00035218,3519.4,0.00011662,4.8492,0.00011599,0.072972,-0.0003521,-3516.9,0.7128
30952,9.3508,6,0,0.0003575,3572.5,0.00011836,4.6787,0.00011775,0.082833,-0.00035742,-3570.1,0.69057
30953,9.1665,6,0,0.00036284,3625.9,0.00012011,4.5017,0.00011952,0.093428,-0.00036276,-3623.6,0.66858
30954,8.9823,6,0,0.0003682,3679.5,0.00012186,4.3179,0.0001213,0.1048,-0.00036813,-3677.3,0.64684
30955,8.798,6,0,0.00037359,3733.3,0.00012362,4.1269,0.00012309,0.11699,-0.00037352,-3731.2,0.62534
30956,8.6137,6,0,0.00037901,3787.4,0.00012539,3.9286,0.00012489,0.13003,-0.00037894,-3785.4,0.6041
30957,8.4295,6,0,0.00038445,3841.8,0.00012717,3.7229,0.00012669,0.14396,-0.00038438,-3839.9,0.58312
30958,8.2452,6,0,0.00038991,3896.4,0.00012896,3.5095,0.00012851,0.15881,-0.00038985,-3894.6,0.5624
30959,8.0609,6,0,0.0003954,3951.3,0.00013075,3.2887,0.00013033,0.17459,-0.00039534,-3949.6,0.54194
30960,7.8767,6,0,0.00040092,4006.4,0.00013255,3.0604,0.00013217,0.1913,-0.00040086,-4004.8,0.52175
30961,7.6924,6,0,0.00040646,4061.8,0.00013436,2.8252,0.00013401,0.20894,-0.00040641,-4060.3,0.50183
30962,7.5081,6,0,0.00041203,4117.4,0.00013617,2.5834,0.00013586,0.22746,-0.00041198,-4116,0.48219
30963,7.3239,6,0,0.00041761,4173.2,0.00013799,2.3359,0.00013772,0.24679,-0.00041757,-4171.9,0.46283
30964,7.1396,6,0,0.00042322,4229.2,0.00013982,2.0838,0.00013958,0.26683,-0.00042318,-4228.1,0.44375
30965,6.9553,6,0,0.00042884,4285.4,0.00014166,1.8284,0.00014145,0.28742,-0.0004288,-4284.4,0.42496
30966,6.7711,6,0,0.00043447,4341.7,0.00014349,1.5715,0.00014332,0.30833,-0.00043444,-4340.8,0.40646
30967,6.5868,6,0,0.00044011,4398.1,0.00014533,1.3153,0.0001452,0.32924,-0.00044008,-4397.3,0.38825
30968,6.4025,6,0,0.00044575,4454.4,0.00014717,1.0628,0.00014707,0.34972,-0.00044573,-4453.7,0.37034
30969,6.2183,6,0,0.00045138,4510.7,0.000149,0.81747,0.00014895,0.3691,-0.00045136,-4510.1,0.35274
30970,6.034,6,0,0.00045698,4566.7,0.00015083,0.58424,0.00015081,0.38577,-0.00045697,-4566.2,0.33544
30971,5.8497,6,0,0.00046254,4622.2,0.00015266,0.41598,0.00015265,0.35088,-0.00046253,-4621.9,0.31845
30972,5.6655,6,0,0.00046804,4677.2,0.00015448,0.42003,0.00015445,0.16164,-0.00046803,-4676.9,0.30178
30973,5.4812,6,0,0.00047344,4731.2,0.00015627,0.42728,0.00015621,-0.0076309,-0.00047344,-4731,0.28542
30974,5.2969,6,0,0.00047872,4783.9,0.00015802,0.42907,0.00015794,-0.14239,-0.00047871,-4783.7,0.26939
30975,5.1127,6,0,0.00048381,4834.8,0.0001597,0.42318,0.00015962,-0.23387,-0.00048381,-4834.7,0.25368
30976,4.9284,6,0,0.00048867,4883.3,0.00016131,0.40754,0.00016122,-0.27275,-0.00048866,-4883.2,0.2383
30977,4.7441,6,0,0.0004932,4928.6,0.0001628,0.38023,0.00016272,-0.24908,-0.0004932,-4928.6,0.22325
30978,4.5599,6,0,0.00049732,4969.8,0.00016415,0.34092,0.00016409,-0.15373,-0.00049732,-4969.7,0.20854
30979,4.3756,6,0,0.0005009,5005.6,0.00016532,0.30301,0.00016528,0.0097318,-0.0005009,-5005.4,0.19416
30980,4.1913,6,0,0.00050378,5034.3,0.00016628,0.41678,0.00016624,0.10219,-0.00050377,-5034.1,0.18013
30981,4.0071,6,0,0.00050576,5054.2,0.00016697,0.80178,0.00016686,0.017139,-0.00050575,-5053.7,0.16643
30982,3.8228,6,0,0.00050661,5062.6,0.0001673,1.3543,0.0001671,-0.12586,-0.00050659,-5062,0.15309
30983,3.6385,6,0,0.00050601,5056.6,0.00016717,2.0769,0.00016686,-0.30943,-0.00050598,-5055.7,0.14008
30984,3.4543,6,0,0.0005036,5032.5,0.00016647,2.9941,0.000166,-0.53208,-0.00050356,-5031.3,0.12742
30985,3.27,6,0,0.00049893,4985.9,0.00016503,4.1383,0.00016438,-0.79179,-0.00049888,-4984.2,0.1151
30986,3.0857,6,0,0.00049147,4911.3,0.0001627,5.5485,0.00016182,-1.0824,-0.00049139,-4909.1,0.10312
30987,2.9015,6,0,0.00048058,4802.5,0.00015927,7.2693,0.00015812,-1.3905,-0.00048048,-4799.6,0.091473
30988,2.7172,6,0,0.00046556,4652.4,0.0001545,9.347,0.00015303,-1.6923,-0.00046543,-4648.6,0.080153
30989,2.5329,6,0,0.00044561,4453.1,0.00014814,11.82,0.0001463,-1.949,-0.00044544,-4448.1,0.06915
30990,2.3487,6,0,0.00041992,4196.3,0.0001399,14.696,0.00013767,-2.1055,-0.0004197,-4189.9,0.058451
30991,2.1644,6,0,0.00038767,3874,0.00012953,17.924,0.00012687,-2.0829,-0.0003874,-3866.1,0.048038
30992,1.9801,6,0,0.0003482,3479.6,0.00011678,21.315,0.0001137,-1.8085,-0.00034787,-3469.8,0.037894
30993,1.7959,6,0,0.00030108,3008.7,0.00010146,24.486,9.8046e-05,-1.1304,-0.00030067,-2997,0.027997
30994,1.6116,6,0,0.00024619,2460.2,8.3473e-05,26.571,7.9902e-05,-0.262,-0.00024573,-2447,0.018334
30995,1.4273,6,0,0.0001838,1836.7,6.2757e-05,26.337,5.9503e-05,1.8861,-0.00018331,-1822.5,0.0089722
30996,1.2431,6,0,0.00011354,1134.6,3.9426e-05,23.22,3.6273e-05,-0.47169,-0.00011314,-1123.1,0.002737
30997,1.0588,6,0,3.9495e-05,394.68,1.4937e-05,7.7502,1.0434e-05,-26.085,-3.9698e-05,-402.76,0.010542
30998,0.96667,5.9091,0,3.1796e-05,317.74,1.3202e-05,35.143,9.0312e-06,3.8012,-3.1017e-05,-297.11,0.014168
30999,0.8,1.7273,0,0.00085306,8524.7,0.00048468,2634.6,0.00015534,160.08,-0.00077812,-6853.6,0.0032898
31000,0.8,1.9091,0,0.0018268,18255,0.00092367,2390.4,0.00022985,-2822.7,-0.0017774,-17904,0.0046579
31001,0.8,1.5455,0,0.00053234,5319.7,0.00024734,961.16,0.00013844,142.91,-0.00050881,-4720.3,0.0023298
31002,0.8,1.3636,0,0.00038642,3861.5,0.00017997,674.76,9.7379e-05,54.167,-0.00037026,-3459.5,0.0016265
31003,0.8,1.1818,0,0.00027573,2755.4,0.0001219,402.09,7.4043e-05,42.502,-0.0002664,-2515.5,0.0011218
31004,0.8,1,0,0.00019665,1965.2,8.4256e-05,251.6,5.4383e-05,27.145,-0.00019095,-1816.2,0.00076469
31005,0.8,0.81818,0,0.00013788,1377.8,5.7384e-05,155.58,3.9224e-05,19.134,-0.0001344,-1285.4,0.00051672
31006,0.8,0.63636,0,9.3851e-05,937.86,3.8185e-05,95.075,2.7252e-05,12.927,-9.1743e-05,-881.16,0.00034737
31007,0.8,0.45455,0,6.0443e-05,604.01,2.4141e-05,56.161,1.7881e-05,9.1264,-5.9195e-05,-569.99,0.00023277
31008,0.8,0.27273,0,3.3976e-05,339.53,1.3416e-05,30.01,1.018e-05,5.6988,-3.3303e-05,-321.02,0.00015422
31009,0.88333,2,0,0.0026958,26939,0.0012786,2549.1,0.00041372,-3949.4,-0.0026602,-27045,0.0071627
31010,0.96667,0.27273,0,8.8003e-05,879.42,4.5092e-05,210.41,1.9825e-05,20.568,-8.2522e-05,-748.43,0.012273
31011,0.96667,0.45455,0,0.00013878,1386.9,7.7962e-05,415.44,2.5775e-05,23.327,-0.00012709,-1125.3,0.010352
31012,0.96667,0.63636,0,0.00019013,1900,0.00011403,660.77,2.9398e-05,24.878,-0.00017031,-1475.6,0.0084041
31013,0.96667,0.81818,0,0.00024654,2463.7,0.00015531,954.95,3.199e-05,28.37,-0.00021637,-1837.7,0.0064431
31014,0.96667,1,0,0.00031189,3116.8,0.00020442,1314.7,3.3755e-05,32.369,-0.00026851,-2238.7,0.0045253
31015,0.96667,1.1818,0,0.00039193,3916.6,0.00026549,1772.3,3.5248e-05,42.297,-0.00033126,-2711.5,0.0028774
31016,0.96667,1.3636,0,0.00049867,4983.3,0.00034869,2404.7,3.5003e-05,47.806,-0.0004132,-3319.8,0.0023978
31017,0.96667,1.5455,0,0.00063976,6393.2,0.00045439,3209.4,4.1663e-05,108.31,-0.00052413,-4142.9,0.0037086
31018,0.96667,1.7273,0,0.00099591,9952.2,0.00075905,5707.9,1.1876e-05,93.9,-0.00077029,-5783,0.0057545
31019,0.96667,1.9091,0,0.0019416,19403,0.001182,5983.5,0.00017314,-1596.6,-0.0017525,-16065,0.0080637
31020,0.8,4.2727,0,0.00085306,8524.7,0.00048468,2634.6,0.00015534,160.08,-0.00077812,-6853.6,0.0032898
31021,0.8,4.0909,0,0.0018268,18255,0.00092367,2390.4,0.00022985,-2822.7,-0.0017774,-17904,0.0046579
31022,0.8,4.4545,0,0.00053234,5319.7,0.00024734,961.16,0.00013844,142.91,-0.00050881,-4720.3,0.0023298
31023,0.8,4.6364,0,0.00038642,3861.5,0.00017997,674.76,9.7379e-05,54.167,-0.00037026,-3459.5,0.0016265
31024,0.8,4.8182,0,0.00027573,2755.4,0.0001219,402.09,7.4043e-05,42.502,-0.0002664,-2515.5,0.0011218
31025,0.8,5,0,0.00019665,1965.2,8.4256e-05,251.6,5.4383e-05,27.145,-0.00019095,-1816.2,0.00076469
31026,0.8,5.1818,0,0.00013788,1377.8,5.7384e-05,155.58,3.9224e-05,19.134,-0.0001344,-1285.4,0.00051672
31027,0.8,5.3636,0,9.3851e-05,937.86,3.8185e-05,95.075,2.7252e-05,12.927,-9.1743e-05,-881.16,0.00034737
31028,0.8,5.5455,0,6.0443e-05,604.01,2.4141e-05,56.161,1.7881e-05,9.1264,-5.9195e-05,-569.99,0.00023277
31029,0.8,5.7273,0,3.3976e-05,339.53,1.3416e-05,30.01,1.018e-05,5.6988,-3.3303e-05,-321.02,0.00015422
31030,0.88333,4,0,0.0026958,26940,0.0012786,2549.1,0.00041372,-3949.4,-0.0026602,-27045,0.0071627
31031,0.96667,5.7273,0,8.8003e-05,879.42,4.5092e-05,210.41,1.9825e-05,20.568,-8.2522e-05,-748.43,0.012273
31032,0.96667,5.5455,0,0.00013878,1386.9,7.7962e-05,415.44,2.5775e-05,23.327,-0.00012709,-1125.3,0.010352
31033,0.96667,5.3636,0,0.00019013,1900,0.00011403,660.77,2.9398e-05,24.878,-0.00017031,-1475.6,0.0084041
31034,0.96667,5.1818,0,0.00024654,2463.7,0.00015531,954.95,3.199e-05,28.37,-0.00021637,-1837.7,0.0064431
31035,0.96667,5,0,0.00031189,3116.8,0.00020442,1314.7,3.3755e-05,32.369,-0.00026851,-2238.7,0.0045253
31036,0.96667,4.8182,0,0.00039193,3916.6,0.00026549,1772.3,3.5248e-05,42.297,-0.00033126,-2711.5,0.0028775
31037,0.96667,4.6364,0,0.00049867,4983.3,0.00034869,2404.7,3.5003e-05,47.806,-0.0004132,-3319.8,0.0023978
31038,0.96667,4.4545,0,0.00063976,6393.2,0.00045439,3209.4,4.1663e-05,108.31,-0.00052413,-4142.9,0.0037086
31039,0.96667,4.2727,0,0.00099591,9952.2,0.00075905,5707.9,1.1876e-05,93.9,-0.00077029,-5783,0.0057545
31040,0.96667,4.0909,0,0.0019416,19403,0.001182,5983.5,0.00017314,-1596.6,-0.0017525,-16065,0.0080637
