Node Number	X Location (in)	Y Location (in)	Z Location (in)	Minimum Principal Stress (psi)
1	4.0514	3.4863	0.	-7105.4
2	4.6801	2.7754	0.	-7371.3
3	4.9503	4.1838	0.	-5416.7
4	2.3549	1.6915	0.	-7694.8
5	2.3317	0.63976	0.	-5410.9
6	3.5198	3.3672	0.	-9934.6
7	2.1548	5.1867	0.	-5225.9
8	4.2488	5.0493	0.	-3648.3
9	5.0024	3.5495	0.	-5915.8
10	4.8734	0.77887	0.	-4109.5
11	4.5586	4.6248	0.	-6779.8
12	1.0471	4.9504	0.	-5463.1
13	6.1227	1.0407	0.	-4446.5
14	4.4675	5.477	0.	-3713.
15	5.5203	2.5442	0.	-4891.
16	1.4621	2.7188	0.	-6150.6
17	1.2336	1.2778	0.	-5206.5
18	1.0924	3.8512	0.	-6459.7
19	7.2971	1.1563	0.	-4198.3
20	8.4883	1.1717	0.	-3803.2
21	9.6458	1.1785	0.	-3475.1
22	10.746	1.1806	0.	-3177.4
23	11.765	1.1232	0.	-2880.7
24	12.713	0.96052	0.	-2641.1
25	13.774	0.9087	0.	-2339.1
26	14.927	1.0707	0.	-2063.1
27	16.032	1.1798	0.	-1776.4
28	17.167	1.1909	0.	-1507.7
29	18.305	1.191	0.	-1238.8
30	19.443	1.1913	0.	-978.76
31	20.581	1.1918	0.	-724.46
32	21.72	1.1928	0.	-476.48
33	22.859	1.1956	0.	-237.55
34	22.851	2.3941	0.	-243.59
35	22.848	3.6004	0.	-244.49
36	22.853	4.8082	0.	-238.66
37	21.709	4.8094	0.	-478.99
38	20.568	4.8108	0.	-727.4
39	19.428	4.8112	0.	-982.
40	18.282	4.7938	0.	-1246.3
41	17.096	4.7743	0.	-1532.5
42	15.852	4.7029	0.	-1839.4
43	14.651	4.6544	0.	-2105.6
44	13.459	4.7034	0.	-2425.4
45	12.269	4.72	0.	-2744.
46	11.08	4.7521	0.	-3081.8
47	9.9347	4.7384	0.	-3399.1
48	8.755	4.7384	0.	-3744.7
49	7.5905	4.7603	0.	-4096.3
50	6.271	4.7091	0.	-4190.4
51	5.4457	5.2543	0.	-4093.9
52	6.0618	3.5868	0.	-4775.4
53	6.2021	2.1351	0.	-4580.2
54	7.6727	2.3003	0.	-4122.8
55	8.9267	2.3191	0.	-3667.
56	10.117	2.3508	0.	-3332.2
57	11.277	2.381	0.	-3015.5
58	12.362	2.3858	0.	-2673.6
59	12.987	1.9893	0.	-2723.4
60	13.669	1.6013	0.	-2280.8
61	14.766	2.2102	0.	-2110.7
62	15.987	2.3859	0.	-1785.1
63	17.124	2.3929	0.	-1520.7
64	18.284	2.3885	0.	-1243.4
65	19.423	2.3889	0.	-981.06
66	20.563	2.3897	0.	-728.32
67	21.706	2.3913	0.	-483.25
68	21.702	3.6004	0.	-484.27
69	20.559	3.6001	0.	-729.79
70	19.418	3.5999	0.	-982.93
71	18.276	3.5964	0.	-1243.1
72	17.078	3.5831	0.	-1515.4
73	15.791	3.5178	0.	-1834.6
74	14.306	3.2513	0.	-2124.3
75	13.005	3.5073	0.	-2651.9
76	11.799	3.5471	0.	-2846.2
77	10.619	3.5153	0.	-3189.9
78	9.4374	3.4723	0.	-3518.9
79	8.2696	3.4823	0.	-3807.8
80	7.1068	3.5091	0.	-4360.8
81	2.6324	1.1043	0.	-4804.4
82	2.4221	2.3862	0.	-7750.1
83	2.7421	3.0231	0.	-7205.3
84	2.4158	3.6582	0.	-7318.3
85	4.8466	1.4206	0.	-4803.9
86	4.4898	1.8472	0.	-6649.3
87	4.2006	2.1382	0.	-5421.6
88	3.3158	2.8492	0.	-10002
89	3.8606	2.8103	0.	-9525.7
90	2.214	4.3694	0.	-6714.2
91	2.214	4.3694	0.1	513.42
92	3.8606	2.8103	0.1	-624.45
93	3.3158	2.8492	0.1	-1886.
94	4.2006	2.1382	0.1	-491.44
95	4.4898	1.8472	0.1	-96.744
96	4.8466	1.4206	0.1	-454.32
97	2.4158	3.6582	0.1	379.12
98	2.7421	3.0231	0.1	-473.83
99	2.4221	2.3862	0.1	234.89
100	2.6324	1.1043	0.1	-550.04
101	7.1068	3.5091	0.1	8.3677
102	8.2696	3.4823	0.1	-15.467
103	9.4374	3.4723	0.1	-4.4419
104	10.619	3.5153	0.1	-9.2905
105	11.799	3.5471	0.1	5.7878
106	13.005	3.5073	0.1	7.0816
107	14.306	3.2513	0.1	-11.394
108	15.791	3.5178	0.1	-23.534
109	17.078	3.5831	0.1	-16.342
110	18.276	3.5964	0.1	-25.247
111	19.418	3.5999	0.1	-36.364
112	20.559	3.6001	0.1	-53.903
113	21.702	3.6004	0.1	-80.849
114	21.706	2.3913	0.1	-80.811
115	20.563	2.3897	0.1	-53.95
116	19.423	2.3889	0.1	-37.084
117	18.284	2.3885	0.1	-26.484
118	17.124	2.3929	0.1	-14.686
119	15.987	2.3859	0.1	-8.2809
120	14.766	2.2102	0.1	-17.577
121	13.669	1.6013	0.1	-28.38
122	12.987	1.9893	0.1	5.1523
123	12.362	2.3858	0.1	-32.799
124	11.277	2.381	0.1	10.334
125	10.117	2.3508	0.1	-5.2542
126	8.9267	2.3191	0.1	14.699
127	7.6727	2.3003	0.1	8.7885
128	6.2021	2.1351	0.1	-45.632
129	6.0618	3.5868	0.1	90.746
130	5.4457	5.2543	0.1	-170.54
131	6.271	4.7091	0.1	-301.91
132	7.5905	4.7603	0.1	25.833
133	8.755	4.7384	0.1	29.59
134	9.9347	4.7384	0.1	-5.9542
135	11.08	4.7521	0.1	6.4431
136	12.269	4.72	0.1	-23.719
137	13.459	4.7034	0.1	6.3094
138	14.651	4.6544	0.1	-22.027
139	15.852	4.7029	0.1	-17.091
140	17.096	4.7743	0.1	-14.673
141	18.282	4.7938	0.1	-21.443
142	19.428	4.8112	0.1	-29.427
143	20.568	4.8108	0.1	-40.195
144	21.709	4.8094	0.1	-56.396
145	22.853	4.8082	0.1	-83.739
146	22.848	3.6004	0.1	-123.56
147	22.851	2.3941	0.1	-123.66
148	22.859	1.1956	0.1	-84.256
149	21.72	1.1928	0.1	-56.688
150	20.581	1.1918	0.1	-40.675
151	19.443	1.1913	0.1	-30.293
152	18.305	1.191	0.1	-23.172
153	17.167	1.1909	0.1	-23.587
154	16.032	1.1798	0.1	-18.447
155	14.927	1.0707	0.1	-18.431
156	13.774	0.9087	0.1	-24.547
157	12.713	0.96052	0.1	-8.3409
158	11.765	1.1232	0.1	2.2523
159	10.746	1.1806	0.1	-7.2604
160	9.6458	1.1785	0.1	-3.0511
161	8.4883	1.1717	0.1	-1.1174
162	7.2971	1.1563	0.1	18.067
163	1.0924	3.8512	0.1	-897.88
164	1.2336	1.2778	0.1	-878.85
165	1.4621	2.7188	0.1	-1302.4
166	5.5203	2.5442	0.1	-77.165
167	4.4675	5.477	0.1	-342.85
168	6.1227	1.0407	0.1	-6.5753
169	1.0471	4.9504	0.1	-1059.9
170	4.5586	4.6248	0.1	-117.05
171	4.8734	0.77887	0.1	-275.22
172	5.0024	3.5495	0.1	-119.7
173	4.2488	5.0493	0.1	-530.99
174	2.1548	5.1867	0.1	159.23
175	3.5198	3.3672	0.1	-3874.1
176	2.3317	0.63976	0.1	-85.415
177	2.3549	1.6915	0.1	333.67
178	4.9503	4.1838	0.1	253.74
179	4.6801	2.7754	0.1	-165.69
180	4.0514	3.4863	0.1	-834.92
181	3.5467	4.	0.1	-2983.6
182	3.5467	4.5	0.1	-4605.
183	3.5467	5.	0.1	-1882.8
184	3.5467	5.5	0.1	-679.37
185	3.38	5.5	0.1	-947.29
186	3.38	5.	0.1	-2726.3
187	3.38	4.5	0.1	-349.45
188	3.38	4.	0.1	1767.3
189	3.5467	2.	0.1	-1411.1
190	3.5467	1.5	0.1	-3530.2
191	3.5467	1.	0.1	-1001.7
192	3.5467	0.5	0.1	-692.25
193	3.38	0.5	0.1	-1127.2
194	3.38	1.	0.1	-1459.3
195	3.38	1.5	0.1	-5506.
196	3.38	2.	0.1	1341.9
197	3.5467	6.	0.1	-130.57
198	4.683	6.	0.1	-50.651
199	5.8193	6.	0.1	-151.99
200	6.9556	6.	0.1	59.078
201	8.0919	6.	0.1	-221.05
202	9.2281	6.	0.1	-2.683
203	10.364	6.	0.1	-26.859
204	11.501	6.	0.1	-20.816
205	12.637	6.	0.1	5.1424
206	13.773	6.	0.1	-27.958
207	14.91	6.	0.1	-15.453
208	16.046	6.	0.1	-14.219
209	17.182	6.	0.1	-6.2574
210	18.319	6.	0.1	-12.719
211	19.455	6.	0.1	-14.534
212	20.591	6.	0.1	-14.95
213	21.727	6.	0.1	-14.956
214	22.864	6.	0.1	-14.426
215	24.	6.	0.1	-23.591
216	24.	4.8	0.1	-144.32
217	24.	3.6	0.1	-184.4
218	24.	2.4	0.1	-184.23
219	24.	1.2	0.1	-144.14
220	0.	1.2	0.1	3556.4
221	0.	2.4	0.1	3495.1
222	0.	3.6	0.1	3522.6
223	0.	4.8	0.1	3680.7
224	24.	0.	0.1	-19.354
225	22.864	0.	0.1	-14.589
226	21.727	0.	0.1	-15.141
227	20.591	0.	0.1	-15.321
228	19.455	0.	0.1	-14.564
229	18.319	0.	0.1	-13.137
230	17.182	0.	0.1	-8.2023
231	16.046	0.	0.1	-26.721
232	14.91	0.	0.1	-2.8749
233	13.773	0.	0.1	-14.568
234	12.637	0.	0.1	-18.251
235	11.501	0.	0.1	-18.174
236	10.364	0.	0.1	-5.5819
237	9.2281	0.	0.1	-9.0676
238	8.0919	0.	0.1	-14.674
239	6.9556	0.	0.1	-90.524
240	5.8193	0.	0.1	-12.5
241	4.683	0.	0.1	-118.58
242	3.5467	0.	0.1	-72.735
243	3.38	0.	0.1	-424.03
244	2.2533	0.	0.1	24.357
245	1.1267	0.	0.1	-564.61
246	0.	0.	0.1	1008.7
247	0.	6.	0.1	916.25
248	1.1267	6.	0.1	-488.39
249	2.2533	6.	0.1	-133.87
250	3.38	6.	0.1	-232.87
251	2.2533	6.	0.	-4411.2
252	1.1267	6.	0.	-6242.
253	3.38	6.	0.	-232.33
254	0.	6.	0.	-2428.7
255	1.1267	0.	0.	-5972.
256	2.2533	0.	0.	-4433.9
257	3.38	0.	0.	-704.15
258	0.	0.	0.	-2765.9
259	4.683	0.	0.	-3298.
260	5.8193	0.	0.	-4186.8
261	6.9556	0.	0.	-4177.9
262	8.0919	0.	0.	-3942.5
263	9.2281	0.	0.	-3616.5
264	10.364	0.	0.	-3285.
265	11.501	0.	0.	-2977.
266	12.637	0.	0.	-2676.4
267	13.773	0.	0.	-2357.5
268	14.91	0.	0.	-2053.3
269	16.046	0.	0.	-1771.
270	17.182	0.	0.	-1505.6
271	18.319	0.	0.	-1236.9
272	19.455	0.	0.	-974.04
273	20.591	0.	0.	-718.16
274	21.727	0.	0.	-468.06
275	22.864	0.	0.	-219.61
276	3.5467	0.	0.	-136.26
277	24.	0.	0.	-11.664
278	0.	4.8	0.	-7508.3
279	0.	3.6	0.	-7638.7
280	0.	2.4	0.	-7637.4
281	0.	1.2	0.	-7375.5
282	24.	1.2	0.	-2.6722
283	24.	2.4	0.	-3.1815
284	24.	3.6	0.	-3.2842
285	24.	4.8	0.	-3.9126
286	24.	6.	0.	-12.299
287	22.864	6.	0.	-219.84
288	21.727	6.	0.	-468.33
289	20.591	6.	0.	-718.95
290	19.455	6.	0.	-975.96
291	18.319	6.	0.	-1239.6
292	17.182	6.	0.	-1510.
293	16.046	6.	0.	-1782.6
294	14.91	6.	0.	-2052.2
295	13.773	6.	0.	-2336.2
296	12.637	6.	0.	-2682.7
297	11.501	6.	0.	-2969.6
298	10.364	6.	0.	-3279.3
299	9.2281	6.	0.	-3618.7
300	8.0919	6.	0.	-3839.6
301	6.9556	6.	0.	-4326.4
302	5.8193	6.	0.	-4483.9
303	4.683	6.	0.	-3334.9
304	3.5467	6.	0.	-810.28
305	3.38	1.5	0.	-5468.9
306	3.38	1.	0.	-3909.1
307	3.38	0.5	0.	-1456.3
308	3.38	2.	0.	-18527
309	3.5467	0.5	0.	-1614.5
310	3.5467	1.	0.	-3709.2
311	3.5467	1.5	0.	-5495.6
312	3.5467	2.	0.	-19405
313	3.38	4.5	0.	-10741
314	3.38	5.	0.	-4243.7
315	3.38	5.5	0.	-2365.2
316	3.38	4.	0.	-20425
317	3.5467	5.5	0.	-1067.5
318	3.5467	5.	0.	-2878.7
319	3.5467	4.5	0.	-2630.7
320	3.5467	4.	0.	-16568
321	3.7856	3.4267	0.	-8519.
322	4.5269	3.5179	0.	-6507.2
323	3.956	3.1483	0.	-8246.3
324	4.0514	3.4863	5.e-002	-38.896
325	3.799	3.7431	0.	-11651
326	4.8412	3.1624	0.	-6629.5
327	5.1002	2.6598	0.	-6130.2
328	4.4403	2.4568	0.	-6305.7
329	4.2703	2.7928	0.	-8441.8
330	4.6801	2.7754	5.e-002	-128.31
331	4.9763	3.8666	0.	-5656.1
332	4.7544	4.4043	0.	-6033.4
333	5.6107	4.4465	0.	-4802.7
334	4.9503	4.1838	5.e-002	-116.8
335	4.2485	4.0919	0.	-10749
336	1.7942	1.4846	0.	-6449.8
337	2.4936	1.3979	0.	-6034.
338	2.3885	2.0389	0.	-7720.8
339	2.3549	1.6915	5.e-002	-201.37
340	2.8674	1.5957	0.	-5608.5
341	1.7826	0.95878	0.	-5295.8
342	2.482	0.87201	0.	-4999.7
343	2.3317	0.63976	5.e-002	-26.465
344	2.2925	0.31988	0.	-4914.2
345	2.8558	0.56988	0.	-2769.3
346	3.4178	3.1082	0.	-9922.2
347	3.5198	3.3672	5.e-002	-204.63
348	3.4499	3.6836	0.	-14665
349	1.6009	5.0686	0.	-5337.
350	2.1844	4.7781	0.	-5966.3
351	2.1548	5.1867	5.e-002	-86.755
352	2.204	5.5934	0.	-4809.8
353	2.7674	5.3434	0.	-3432.4
354	4.4037	4.8371	0.	-5167.9
355	4.3581	5.2632	0.	-3638.3
356	4.2488	5.0493	5.e-002	-144.6
357	3.8977	5.0247	0.	-3017.9
358	5.5321	3.5681	0.	-5340.5
359	5.0024	3.5495	5.e-002	-227.39
360	5.498	0.90978	0.	-4266.7
361	4.86	1.0997	0.	-4456.6
362	4.8734	0.77887	5.e-002	-24.189
363	4.7782	0.38944	0.	-3702.2
364	4.21	0.63944	0.	-2488.7
365	5.0021	4.9395	0.	-5415.9
366	4.5586	4.6248	5.e-002	-265.73
367	4.0526	4.5624	0.	-4053.6
368	1.0697	4.4008	0.	-5950.
369	1.0471	4.9504	5.e-002	-2.3904
370	1.0869	5.4752	0.	-5849.4
371	0.52355	4.8752	0.	-6468.9
372	6.7099	1.0985	0.	-4321.5
373	6.1624	1.5879	0.	-4512.
374	6.1227	1.0407	5.e-002	-17.997
375	5.971	0.52034	0.	-4316.6
376	4.9566	5.3657	0.	-3890.2
377	4.4675	5.477	5.e-002	-59.925
378	4.5752	5.7385	0.	-3518.8
379	4.0071	5.4885	0.	-1965.5
380	5.791	3.0655	0.	-4833.
381	5.8612	2.3397	0.	-4735.6
382	5.005	2.1957	0.	-5736.3
383	5.5203	2.5442	5.e-002	-100.52
384	1.3478	1.9983	0.	-5670.5
385	1.2772	3.285	0.	-6288.2
386	1.9421	2.5525	0.	-6933.5
387	1.9389	3.1885	0.	-6661.8
388	1.4621	2.7188	5.e-002	-42.483
389	0.73103	2.5594	0.	-6886.
390	1.2336	1.2778	5.e-002	-57.515
391	1.1801	0.63891	0.	-5581.
392	0.61679	1.2389	0.	-6272.9
393	1.6532	4.1103	0.	-6567.2
394	1.0924	3.8512	5.e-002	-40.407
395	0.54618	3.7256	0.	-7044.6
396	7.8927	1.164	0.	-4000.6
397	7.4849	1.7283	0.	-4160.5
398	7.2971	1.1563	5.e-002	-2.5251
399	7.1263	0.57815	0.	-4187.9
400	9.0671	1.1751	0.	-3639.2
401	8.7075	1.7454	0.	-3734.9
402	8.4883	1.1717	5.e-002	-4.4543
403	8.2901	0.58586	0.	-3872.8
404	10.196	1.1795	0.	-3326.3
405	9.8816	1.7647	0.	-3403.5
406	9.6458	1.1785	5.e-002	-3.3143
407	9.437	0.58925	0.	-3545.8
408	11.255	1.1519	0.	-3028.9
409	11.011	1.7808	0.	-3096.3
410	10.746	1.1806	5.e-002	-4.0755
411	10.555	0.59029	0.	-3231.
412	12.239	1.0419	0.	-2760.8
413	12.064	1.7545	0.	-2776.6
414	11.765	1.1232	5.e-002	-3.0072
415	11.633	0.56162	0.	-2928.8
416	13.243	0.93461	0.	-2490.
417	12.85	1.4749	0.	-2681.4
418	12.713	0.96052	5.e-002	-4.7969
419	12.675	0.48026	0.	-2658.5
420	14.35	0.98971	0.	-2200.7
421	13.721	1.255	0.	-2309.9
422	13.774	0.9087	5.e-002	-10.768
423	13.773	0.45435	0.	-2348.2
424	15.48	1.1252	0.	-1919.7
425	14.847	1.6405	0.	-2086.
426	14.927	1.0707	5.e-002	-1.2849
427	14.918	0.53536	0.	-2058.1
428	16.6	1.1853	0.	-1642.
429	16.01	1.7828	0.	-1780.
430	16.032	1.1798	5.e-002	-2.9878
431	16.039	0.58989	0.	-1773.6
432	17.736	1.191	0.	-1373.2
433	17.146	1.7919	0.	-1513.2
434	17.167	1.1909	5.e-002	-2.5061
435	17.175	0.59546	0.	-1506.5
436	18.874	1.1911	0.	-1108.7
437	18.294	1.7897	0.	-1240.2
438	18.305	1.191	5.e-002	-1.7033
439	18.312	0.59551	0.	-1237.6
440	20.012	1.1915	0.	-851.57
441	19.433	1.7901	0.	-979.04
442	19.443	1.1913	5.e-002	-1.3881
443	19.449	0.59564	0.	-976.11
444	21.151	1.1923	0.	-600.45
445	20.572	1.7908	0.	-725.49
446	20.581	1.1918	5.e-002	-1.3314
447	20.586	0.5959	0.	-720.87
448	22.29	1.1942	0.	-357.01
449	21.713	1.7921	0.	-479.03
450	21.72	1.1928	5.e-002	-1.5821
451	21.724	0.59642	0.	-471.52
452	22.855	1.7948	0.	-240.04
453	22.859	1.1956	5.e-002	-2.2823
454	22.861	0.5978	0.	-227.13
455	23.43	1.1978	0.	-118.33
456	22.849	2.9972	0.	-243.73
457	22.278	2.3927	0.	-363.42
458	22.851	2.3941	5.e-002	-2.4183
459	23.426	2.397	0.	-122.24
460	22.851	4.2043	0.	-241.02
461	22.275	3.6004	0.	-364.37
462	22.848	3.6004	5.e-002	-2.4365
463	23.424	3.6002	0.	-122.75
464	22.281	4.8088	0.	-358.82
465	22.853	4.8082	5.e-002	-2.2666
466	23.427	4.8041	0.	-119.92
467	22.858	5.4041	0.	-227.8
468	21.138	4.8101	0.	-603.18
469	21.705	4.2049	0.	-480.76
470	21.709	4.8094	5.e-002	-1.5266
471	21.718	5.4047	0.	-472.92
472	19.998	4.811	0.	-854.66
473	20.563	4.2055	0.	-727.66
474	20.568	4.8108	5.e-002	-1.2307
475	20.579	5.4054	0.	-722.74
476	18.855	4.8025	0.	-1114.1
477	19.423	4.2056	0.	-981.6
478	19.428	4.8112	5.e-002	-1.2
479	19.441	5.4056	0.	-978.68
480	17.689	4.7841	0.	-1389.4
481	18.279	4.1951	0.	-1243.9
482	18.282	4.7938	5.e-002	-1.7232
483	18.3	5.3969	0.	-1242.7
484	16.474	4.7386	0.	-1685.8
485	17.087	4.1787	0.	-1523.1
486	17.096	4.7743	5.e-002	-2.3968
487	17.139	5.3871	0.	-1521.
488	15.252	4.6787	0.	-1972.5
489	15.822	4.1104	0.	-1836.3
490	15.852	4.7029	5.e-002	-1.7113
491	15.949	5.3515	0.	-1810.6
492	14.055	4.6789	0.	-2265.5
493	14.478	3.9529	0.	-2113.8
494	14.651	4.6544	5.e-002	-6.9056
495	14.781	5.3272	0.	-2078.5
496	12.864	4.7117	0.	-2584.7
497	13.232	4.1054	0.	-2538.2
498	13.459	4.7034	5.e-002	-7.9347
499	13.616	5.3517	0.	-2380.7
500	11.674	4.736	0.	-2912.9
501	12.034	4.1335	0.	-2794.7
502	12.269	4.72	5.e-002	-8.171
503	12.453	5.36	0.	-2713.
504	10.507	4.7453	0.	-3240.4
505	10.849	4.1337	0.	-3135.4
506	11.08	4.7521	5.e-002	-1.3605
507	11.29	5.3761	0.	-3025.3
508	9.3449	4.7384	0.	-3571.8
509	9.686	4.1054	0.	-3458.5
510	9.9347	4.7384	5.e-002	-3.8184
511	10.15	5.3692	0.	-3338.9
512	8.1728	4.7494	0.	-3920.5
513	8.5123	4.1104	0.	-3775.9
514	8.755	4.7384	5.e-002	-5.2398
515	8.9916	5.3692	0.	-3681.2
516	6.9308	4.7347	0.	-4143.3
517	7.3487	4.1347	0.	-4228.5
518	7.5905	4.7603	5.e-002	-7.6581
519	7.8412	5.3802	0.	-3967.9
520	5.8584	4.9817	0.	-4134.4
521	6.1664	4.148	0.	-4482.9
522	6.271	4.7091	5.e-002	-14.84
523	6.6133	5.3546	0.	-4246.7
524	5.4457	5.2543	5.e-002	-84.477
525	5.6325	5.6271	0.	-4241.1
526	6.5843	3.5479	0.	-4568.1
527	6.0618	3.5868	5.e-002	-13.049
528	6.9374	2.2177	0.	-4351.5
529	6.6544	2.8221	0.	-4470.4
530	5.5244	1.7778	0.	-4673.1
531	6.2021	2.1351	5.e-002	-38.888
532	8.2997	2.3097	0.	-3894.9
533	7.9711	2.8913	0.	-3965.3
534	7.6727	2.3003	5.e-002	-10.531
535	9.5221	2.3349	0.	-3499.6
536	9.1821	2.8957	0.	-3592.9
537	8.9267	2.3191	5.e-002	-5.0095
538	10.697	2.3659	0.	-3173.9
539	10.368	2.933	0.	-3260.8
540	10.117	2.3508	5.e-002	-0.30636
541	11.82	2.3834	0.	-2844.5
542	11.538	2.9641	0.	-2930.4
543	11.277	2.381	5.e-002	-8.2662
544	12.674	2.1876	0.	-2698.5
545	12.684	2.9466	0.	-2662.2
546	12.362	2.3858	5.e-002	-9.5651
547	13.328	1.7953	0.	-2501.3
548	13.646	2.6203	0.	-2423.5
549	12.987	1.9893	5.e-002	-7.4012
550	14.217	1.9058	0.	-2195.4
551	13.669	1.6013	5.e-002	-27.444
552	15.376	2.298	0.	-1947.8
553	14.536	2.7308	0.	-2116.9
554	14.766	2.2102	5.e-002	-4.9102
555	16.555	2.3894	0.	-1652.9
556	15.889	2.9518	0.	-1809.4
557	15.987	2.3859	5.e-002	-5.0651
558	17.704	2.3907	0.	-1382.
559	17.101	2.988	0.	-1517.5
560	17.124	2.3929	5.e-002	-0.94103
561	18.853	2.3887	0.	-1112.2
562	18.28	2.9924	0.	-1242.5
563	18.284	2.3885	5.e-002	-0.98879
564	19.993	2.3893	0.	-854.69
565	19.421	2.9944	0.	-981.15
566	19.423	2.3889	5.e-002	-1.1825
567	21.135	2.3905	0.	-605.79
568	20.561	2.9949	0.	-728.29
569	20.563	2.3897	5.e-002	-1.5496
570	21.704	2.9958	0.	-483.18
571	21.706	2.3913	5.e-002	-2.0286
572	21.13	3.6002	0.	-607.03
573	21.702	3.6004	5.e-002	-2.0051
574	19.989	3.6	0.	-856.36
575	20.559	3.6001	5.e-002	-1.5318
576	18.847	3.5982	0.	-1113.
577	19.418	3.5999	5.e-002	-1.5199
578	17.677	3.5897	0.	-1379.2
579	18.276	3.5964	5.e-002	-1.5102
580	16.434	3.5504	0.	-1675.
581	17.078	3.5831	5.e-002	-1.082
582	15.048	3.3846	0.	-1979.4
583	15.791	3.5178	5.e-002	-3.0074
584	13.655	3.3793	0.	-2388.
585	14.306	3.2513	5.e-002	-6.3972
586	12.402	3.5272	0.	-2749.
587	13.005	3.5073	5.e-002	-3.6099
588	11.209	3.5312	0.	-3018.
589	11.799	3.5471	5.e-002	-10.208
590	10.028	3.4938	0.	-3354.4
591	10.619	3.5153	5.e-002	-1.8831
592	8.8535	3.4773	0.	-3663.3
593	9.4374	3.4723	5.e-002	-1.1326
594	7.6882	3.4957	0.	-4084.3
595	8.2696	3.4823	5.e-002	-4.1371
596	7.1068	3.5091	5.e-002	-12.883
597	2.6324	1.1043	5.e-002	-374.65
598	3.0062	1.0521	0.	-4254.
599	2.5821	2.7047	0.	-7426.
600	2.4221	2.3862	5.e-002	-74.821
601	2.9011	2.1931	0.	-13132
602	2.5789	3.3407	0.	-7209.7
603	3.0289	2.9362	0.	-8602.3
604	2.7421	3.0231	5.e-002	-155.47
605	3.061	3.5116	0.	-13621
606	2.3149	4.0138	0.	-7015.3
607	2.4158	3.6582	5.e-002	-158.5
608	2.8979	4.0791	0.	-8821.9
609	2.8979	3.8291	0.	-13850
610	4.6682	1.6339	0.	-5725.
611	4.8466	1.4206	5.e-002	-48.145
612	4.1967	1.2103	0.	-3809.7
613	4.3452	1.9927	0.	-6016.7
614	4.4898	1.8472	5.e-002	-81.44
615	4.0182	1.6736	0.	-5330.3
616	4.2006	2.1382	5.e-002	-525.04
617	3.8736	2.0691	0.	-12406
618	3.5882	2.8298	0.	-9751.9
619	3.3158	2.8492	5.e-002	-40.646
620	3.3479	2.4246	0.	-14043
621	3.8606	2.8103	5.e-002	-208.94
622	3.7036	2.4051	0.	-14337
623	2.214	4.3694	5.e-002	-46.702
624	2.797	4.6847	0.	-4971.9
625	2.3149	4.0138	0.1	447.2
626	1.6532	4.1103	0.1	-190.84
627	2.1844	4.7781	0.1	364.92
628	2.797	4.6847	0.1	-300.51
629	3.5882	2.8298	0.1	-1241.3
630	4.2703	2.7928	0.1	-215.55
631	3.956	3.1483	0.1	-345.71
632	3.7036	2.4051	0.1	-900.31
633	3.0289	2.9362	0.1	-1145.7
634	3.4178	3.1082	0.1	-2835.1
635	3.3479	2.4246	0.1	72.442
636	4.3452	1.9927	0.1	-286.06
637	4.4403	2.4568	0.1	-180.61
638	3.8736	2.0691	0.1	-709.06
639	4.6682	1.6339	0.1	-247.38
640	5.005	2.1957	0.1	-67.036
641	4.0182	1.6736	0.1	-1040.1
642	5.5244	1.7778	0.1	-87.689
643	4.86	1.0997	0.1	-364.61
644	4.1967	1.2103	0.1	-281.91
645	2.5789	3.3407	0.1	79.898
646	1.9389	3.1885	0.1	-459.74
647	2.8979	4.0791	0.1	296.33
648	2.8979	3.8291	0.1	1128.
649	2.5821	2.7047	0.1	38.357
650	3.061	3.5116	0.1	867.6
651	1.9421	2.5525	0.1	-532.05
652	2.3885	2.0389	0.1	382.55
653	2.9011	2.1931	0.1	851.23
654	2.482	0.87201	0.1	-138.14
655	2.4936	1.3979	0.1	-5.591
656	3.0062	1.0521	0.1	-511.76
657	7.6882	3.4957	0.1	-3.5082
658	6.6544	2.8221	0.1	-17.535
659	6.5843	3.5479	0.1	49.611
660	7.3487	4.1347	0.1	17.288
661	8.8535	3.4773	0.1	-9.9445
662	7.9711	2.8913	0.1	-3.3067
663	8.5123	4.1104	0.1	7.0659
664	10.028	3.4938	0.1	-6.8425
665	9.1821	2.8957	0.1	5.1452
666	9.686	4.1054	0.1	-5.1867
667	11.209	3.5312	0.1	1.0438e-002
668	10.368	2.933	0.1	-7.2567
669	10.849	4.1337	0.1	-1.4082
670	12.402	3.5272	0.1	8.2672
671	11.538	2.9641	0.1	9.4309
672	12.034	4.1335	0.1	-6.9851
673	13.655	3.3793	0.1	1.9985
674	12.684	2.9466	0.1	-11.7
675	13.232	4.1054	0.1	11.073
676	15.048	3.3846	0.1	-14.453
677	14.536	2.7308	0.1	-12.678
678	13.646	2.6203	0.1	-1.2295
679	14.478	3.9529	0.1	-15.625
680	16.434	3.5504	0.1	-13.898
681	15.889	2.9518	0.1	-15.552
682	15.822	4.1104	0.1	-13.865
683	17.677	3.5897	0.1	-20.778
684	17.101	2.988	0.1	-14.983
685	17.087	4.1787	0.1	-14.697
686	18.847	3.5982	0.1	-30.802
687	18.28	2.9924	0.1	-25.066
688	18.279	4.1951	0.1	-22.544
689	19.989	3.6	0.1	-45.132
690	19.421	2.9944	0.1	-35.879
691	19.423	4.2056	0.1	-32.026
692	21.13	3.6002	0.1	-67.376
693	20.561	2.9949	0.1	-53.159
694	20.563	4.2055	0.1	-46.116
695	21.704	2.9958	0.1	-80.251
696	21.705	4.2049	0.1	-67.751
697	22.275	3.6004	0.1	-102.2
698	21.135	2.3905	0.1	-67.38
699	22.278	2.3927	0.1	-102.23
700	21.713	1.7921	0.1	-67.911
701	19.993	2.3893	0.1	-45.515
702	20.572	1.7908	0.1	-46.415
703	18.853	2.3887	0.1	-31.777
704	19.433	1.7901	0.1	-32.823
705	17.704	2.3907	0.1	-20.569
706	18.294	1.7897	0.1	-23.977
707	16.555	2.3894	0.1	-10.59
708	17.146	1.7919	0.1	-18.151
709	15.376	2.298	0.1	-11.565
710	16.01	1.7828	0.1	-11.559
711	14.217	1.9058	0.1	-22.718
712	14.847	1.6405	0.1	-16.822
713	13.328	1.7953	0.1	-2.5376
714	13.721	1.255	0.1	-14.147
715	12.674	2.1876	0.1	-13.193
716	12.85	1.4749	0.1	-0.23326
717	11.82	2.3834	0.1	-10.999
718	12.064	1.7545	0.1	-2.287
719	10.697	2.3659	0.1	3.455
720	11.011	1.7808	0.1	1.7723
721	9.5221	2.3349	0.1	4.7367
722	9.8816	1.7647	0.1	-4.1369
723	8.2997	2.3097	0.1	11.924
724	8.7075	1.7454	0.1	7.0161
725	6.9374	2.2177	0.1	-18.181
726	7.4849	1.7283	0.1	13.442
727	5.8612	2.3397	0.1	-59.087
728	6.1624	1.5879	0.1	-19.602
729	6.1664	4.148	0.1	-49.112
730	5.791	3.0655	0.1	11.328
731	5.5321	3.5681	0.1	-13.158
732	5.8584	4.9817	0.1	-227.64
733	4.9566	5.3657	0.1	-230.71
734	5.0021	4.9395	0.1	-29.708
735	5.6325	5.6271	0.1	-109.66
736	6.9308	4.7347	0.1	-80.714
737	5.6107	4.4465	0.1	34.813
738	6.6133	5.3546	0.1	-63.188
739	8.1728	4.7494	0.1	27.712
740	7.8412	5.3802	0.1	-34.413
741	9.3449	4.7384	0.1	11.819
742	8.9916	5.3692	0.1	13.663
743	10.507	4.7453	0.1	0.26265
744	10.15	5.3692	0.1	-4.6143
745	11.674	4.736	0.1	-7.4006
746	11.29	5.3761	0.1	9.4272e-003
747	12.864	4.7117	0.1	-3.4837
748	12.453	5.36	0.1	-8.7823
749	14.055	4.6789	0.1	-7.4443
750	13.616	5.3517	0.1	-9.8094
751	15.252	4.6787	0.1	-19.283
752	14.781	5.3272	0.1	-18.259
753	16.474	4.7386	0.1	-15.772
754	15.949	5.3515	0.1	-15.236
755	17.689	4.7841	0.1	-18.011
756	17.139	5.3871	0.1	-10.228
757	18.855	4.8025	0.1	-25.393
758	18.3	5.3969	0.1	-16.856
759	19.998	4.811	0.1	-34.773
760	19.441	5.4056	0.1	-21.642
761	21.138	4.8101	0.1	-48.276
762	20.579	5.4054	0.1	-27.076
763	22.281	4.8088	0.1	-70.067
764	21.718	5.4047	0.1	-34.826
765	22.851	4.2043	0.1	-103.1
766	22.858	5.4041	0.1	-47.521
767	23.427	4.8041	0.1	-113.91
768	22.849	2.9972	0.1	-123.3
769	23.424	3.6002	0.1	-153.97
770	22.855	1.7948	0.1	-103.42
771	23.426	2.397	0.1	-153.94
772	22.29	1.1942	0.1	-70.471
773	23.43	1.1978	0.1	-114.03
774	22.861	0.5978	0.1	-47.827
775	21.151	1.1923	0.1	-48.663
776	21.724	0.59642	0.1	-35.034
777	20.012	1.1915	0.1	-35.45
778	20.586	0.5959	0.1	-27.47
779	18.874	1.1911	0.1	-26.7
780	19.449	0.59564	0.1	-22.048
781	17.736	1.191	0.1	-23.345
782	18.312	0.59551	0.1	-17.867
783	16.6	1.1853	0.1	-20.766
784	17.175	0.59546	0.1	-15.716
785	15.48	1.1252	0.1	-18.336
786	16.039	0.58989	0.1	-22.425
787	14.35	0.98971	0.1	-13.841
788	14.918	0.53536	0.1	-9.7258
789	13.243	0.93461	0.1	-15.192
790	13.773	0.45435	0.1	-16.347
791	12.239	1.0419	0.1	0.88126
792	12.675	0.48026	0.1	-9.4309
793	11.255	1.1519	0.1	8.6728
794	11.633	0.56162	0.1	3.7106
795	10.196	1.1795	0.1	-5.0513
796	10.555	0.59029	0.1	-6.4135
797	9.0671	1.1751	0.1	-2.0484
798	9.437	0.58925	0.1	5.1043
799	7.8927	1.164	0.1	8.5407
800	8.2901	0.58586	0.1	-7.7475
801	6.7099	1.0985	0.1	12.
802	7.1263	0.57815	0.1	-0.73391
803	1.2772	3.285	0.1	-1099.9
804	1.0697	4.4008	0.1	-978.86
805	0.54618	3.7256	0.1	1424.9
806	1.3478	1.9983	0.1	-1090.3
807	1.7826	0.95878	0.1	-278.7
808	1.7942	1.4846	0.1	-160.09
809	0.61679	1.2389	0.1	1381.
810	1.1801	0.63891	0.1	-672.27
811	0.73103	2.5594	0.1	1220.5
812	5.1002	2.6598	0.1	-112.14
813	4.3581	5.2632	0.1	-396.43
814	4.0071	5.4885	0.1	-105.27
815	4.5752	5.7385	0.1	-189.6
816	5.498	0.90978	0.1	-122.54
817	5.971	0.52034	0.1	-8.5978
818	1.6009	5.0686	0.1	-414.39
819	0.52355	4.8752	0.1	1324.
820	1.0869	5.4752	0.1	-772.85
821	4.4037	4.8371	0.1	-252.59
822	4.7544	4.4043	0.1	160.69
823	4.0526	4.5624	0.1	-1594.
824	4.21	0.63944	0.1	-112.13
825	4.7782	0.38944	0.1	-194.49
826	4.9763	3.8666	0.1	74.501
827	4.8412	3.1624	0.1	-141.71
828	4.5269	3.5179	0.1	-473.67
829	3.8977	5.0247	0.1	-951.68
830	2.7674	5.3434	0.1	-3.5673e-002
831	2.204	5.5934	0.1	54.918
832	3.7856	3.4267	0.1	-1955.9
833	3.4499	3.6836	0.1	-384.12
834	2.8558	0.56988	0.1	34.043
835	2.2925	0.31988	0.1	-18.259
836	2.8674	1.5957	0.1	-1552.2
837	4.2485	4.0919	0.1	-837.17
838	3.799	3.7431	0.1	-1335.
839	3.5467	4.25	0.1	-3225.8
840	3.4633	4.	0.1	1160.5
841	3.5467	4.	5.e-002	-614.13
842	3.5467	4.75	0.1	-3228.2
843	3.5467	4.5	5.e-002	-231.98
844	3.5467	5.25	0.1	-1221.2
845	3.5467	5.	5.e-002	-518.78
846	3.5467	5.75	0.1	-103.16
847	3.5467	5.5	5.e-002	-116.33
848	3.38	5.25	0.1	-1828.4
849	3.38	5.75	0.1	-371.93
850	3.38	5.5	5.e-002	-119.84
851	3.38	4.75	0.1	-1337.7
852	3.38	5.	5.e-002	-170.66
853	3.38	4.25	0.1	1017.1
854	3.38	4.5	5.e-002	-937.41
855	3.38	4.	5.e-002	-313.57
856	3.5467	1.75	0.1	-1643.3
857	3.4633	2.	0.1	606.58
858	3.5467	2.	5.e-002	-590.68
859	3.5467	1.25	0.1	-2260.2
860	3.5467	1.5	5.e-002	-387.35
861	3.5467	0.75	0.1	-834.88
862	3.5467	1.	5.e-002	-197.97
863	3.5467	0.25	0.1	-349.63
864	3.5467	0.5	5.e-002	-97.588
865	3.38	0.75	0.1	-1157.2
866	3.38	0.25	0.1	-355.99
867	3.38	0.5	5.e-002	-94.107
868	3.38	1.25	0.1	-3464.8
869	3.38	1.	5.e-002	-528.76
870	3.38	1.75	0.1	-812.56
871	3.38	1.5	5.e-002	-335.16
872	3.38	2.	5.e-002	-320.42
873	4.1148	6.	0.1	-75.864
874	3.5467	6.	5.e-002	-71.21
875	5.2511	6.	0.1	-17.072
876	4.683	6.	5.e-002	-46.25
877	6.3874	6.	0.1	-0.83501
878	5.8193	6.	5.e-002	-62.64
879	7.5237	6.	0.1	6.293
880	6.9556	6.	5.e-002	-79.009
881	8.66	6.	0.1	-98.429
882	8.0919	6.	5.e-002	-21.569
883	9.7963	6.	0.1	-5.7475
884	9.2281	6.	5.e-002	-14.354
885	10.933	6.	0.1	-23.471
886	10.364	6.	5.e-002	-17.562
887	12.069	6.	0.1	0.57056
888	11.501	6.	5.e-002	-19.39
889	13.205	6.	0.1	-4.2393
890	12.637	6.	5.e-002	-14.682
891	14.341	6.	0.1	-21.363
892	13.773	6.	5.e-002	-11.205
893	15.478	6.	0.1	-14.792
894	14.91	6.	5.e-002	-15.997
895	16.614	6.	0.1	-10.156
896	16.046	6.	5.e-002	-16.212
897	17.75	6.	0.1	-9.3351
898	17.182	6.	5.e-002	-15.878
899	18.887	6.	0.1	-13.512
900	18.319	6.	5.e-002	-13.493
901	20.023	6.	0.1	-14.595
902	19.455	6.	5.e-002	-13.694
903	21.159	6.	0.1	-14.717
904	20.591	6.	5.e-002	-12.784
905	22.296	6.	0.1	-14.318
906	21.727	6.	5.e-002	-10.727
907	23.432	6.	0.1	-14.91
908	22.864	6.	5.e-002	-7.9336
909	24.	5.4	0.1	-77.148
910	24.	6.	5.e-002	-3.9588
911	24.	4.2	0.1	-164.27
912	24.	4.8	5.e-002	-3.3318
913	24.	3.	0.1	-184.26
914	24.	3.6	5.e-002	-3.1048
915	24.	1.8	0.1	-164.15
916	24.	2.4	5.e-002	-3.0097
917	24.	0.6	0.1	-76.256
918	24.	1.2	5.e-002	-3.215
919	0.	1.8	0.1	3526.
920	0.	0.6	0.1	2369.6
921	0.	1.2	5.e-002	-139.68
922	0.	3.	0.1	3767.4
923	0.	2.4	5.e-002	-331.28
924	0.	4.2	0.1	3602.8
925	0.	3.6	5.e-002	-270.88
926	0.	5.4	0.1	2337.9
927	0.	4.8	5.e-002	-63.339
928	23.432	0.	0.1	-13.901
929	24.	0.	5.e-002	-4.1204
930	22.296	0.	0.1	-14.496
931	22.864	0.	5.e-002	-8.0032
932	21.159	0.	0.1	-14.997
933	21.727	0.	5.e-002	-10.688
934	20.023	0.	0.1	-14.793
935	20.591	0.	5.e-002	-12.652
936	18.887	0.	0.1	-13.75
937	19.455	0.	5.e-002	-13.562
938	17.75	0.	0.1	-10.592
939	18.319	0.	5.e-002	-14.107
940	16.614	0.	0.1	-17.309
941	17.182	0.	5.e-002	-16.399
942	15.478	0.	0.1	-13.92
943	16.046	0.	5.e-002	-13.609
944	14.341	0.	0.1	-7.6318
945	14.91	0.	5.e-002	-21.423
946	13.205	0.	0.1	-15.472
947	13.773	0.	5.e-002	-24.767
948	12.069	0.	0.1	-5.6144
949	12.637	0.	5.e-002	-27.889
950	10.933	0.	0.1	-11.767
951	11.501	0.	5.e-002	-7.9803
952	9.7963	0.	0.1	-7.8409e-002
953	10.364	0.	5.e-002	-14.053
954	8.66	0.	0.1	-0.63353
955	9.2281	0.	5.e-002	-16.495
956	7.5237	0.	0.1	-28.743
957	8.0919	0.	5.e-002	-23.34
958	6.3874	0.	0.1	-49.129
959	6.9556	0.	5.e-002	-11.299
960	5.2511	0.	0.1	-59.503
961	5.8193	0.	5.e-002	-16.363
962	4.1148	0.	0.1	-1.5844
963	4.683	0.	5.e-002	-7.8765
964	3.5467	0.	5.e-002	-13.193
965	2.8167	0.	0.1	-53.94
966	3.38	0.	5.e-002	-175.53
967	1.69	0.	0.1	-265.81
968	2.2533	0.	5.e-002	-143.69
969	0.56333	0.	0.1	253.46
970	1.1267	0.	5.e-002	-34.836
971	0.	0.	5.e-002	-390.45
972	0.56333	6.	0.1	264.23
973	0.	6.	5.e-002	-302.44
974	1.69	6.	0.1	-260.25
975	1.1267	6.	5.e-002	-60.276
976	2.8167	6.	0.1	-12.337
977	2.2533	6.	5.e-002	-100.6
978	3.38	6.	5.e-002	-70.61
979	1.69	6.	0.	-5323.2
980	2.8167	6.	0.	-2153.
981	0.56333	6.	0.	-4289.4
982	3.38	5.75	0.	-1080.3
983	0.	5.4	0.	-4875.2
984	1.69	0.	0.	-5198.6
985	0.56333	0.	0.	-4322.5
986	2.8167	0.	0.	-2501.7
987	3.38	0.25	0.	-637.36
988	0.	0.6	0.	-4969.7
989	5.2511	0.	0.	-3738.7
990	4.1148	0.	0.	-1616.6
991	6.3874	0.	0.	-4182.2
992	7.5237	0.	0.	-4060.2
993	8.66	0.	0.	-3779.5
994	9.7963	0.	0.	-3450.6
995	10.933	0.	0.	-3130.9
996	12.069	0.	0.	-2825.8
997	13.205	0.	0.	-2516.7
998	14.341	0.	0.	-2205.1
999	15.478	0.	0.	-1912.2
1000	16.614	0.	0.	-1638.2
1001	17.75	0.	0.	-1371.2
1002	18.887	0.	0.	-1105.4
1003	20.023	0.	0.	-845.95
1004	21.159	0.	0.	-592.88
1005	22.296	0.	0.	-343.46
1006	23.432	0.	0.	-112.36
1007	3.5467	0.25	0.	-841.95
1008	24.	0.6	0.	-3.922
1009	0.	4.2	0.	-7572.2
1010	0.	3.	0.	-7637.
1011	0.	1.8	0.	-7505.7
1012	24.	1.8	0.	-2.8787
1013	24.	3.	0.	-3.2005
1014	24.	4.2	0.	-3.5392
1015	24.	5.4	0.	-3.9196
1016	23.432	6.	0.	-111.81
1017	22.296	6.	0.	-343.71
1018	21.159	6.	0.	-593.4
1019	20.023	6.	0.	-847.31
1020	18.887	6.	0.	-1107.6
1021	17.75	6.	0.	-1374.7
1022	16.614	6.	0.	-1646.3
1023	15.478	6.	0.	-1917.4
1024	14.341	6.	0.	-2193.9
1025	13.205	6.	0.	-2509.4
1026	12.069	6.	0.	-2826.1
1027	10.933	6.	0.	-3124.4
1028	9.7963	6.	0.	-3449.
1029	8.66	6.	0.	-3728.4
1030	7.5237	6.	0.	-4073.
1031	6.3874	6.	0.	-4350.3
1032	5.2511	6.	0.	-3850.8
1033	4.1148	6.	0.	-2041.5
1034	3.5467	5.75	0.	-563.97
1035	3.38	1.25	0.	-4684.8
1036	3.38	1.75	0.	-10833
1037	3.38	0.75	0.	-2573.5
1038	3.4633	2.	0.	-17788
1039	3.5467	0.75	0.	-2649.8
1040	3.5467	1.25	0.	-4597.
1041	3.5467	1.75	0.	-11632
1042	3.38	4.75	0.	-7321.4
1043	3.38	4.25	0.	-15399
1044	3.38	5.25	0.	-3295.7
1045	3.4633	4.	0.	-16686
1046	3.5467	5.25	0.	-1943.1
1047	3.5467	4.75	0.	-2748.8
1048	3.5467	4.25	0.	-9027.1
