Node Numbers,X Locations (inches),Y Locations (inches),Z Locations (inches),Equivalent Elastic Strains (in/in),Equivalent Stress (psi),Max Principal Elastic Strain (in/in),Max Principal Stress (psi),Middle Principal Elastic Strain (in/in),Middle Principal Stress (psi),Min Principal Elastic Strain (in/in),Min Principal Stress (psi),Total Deformation (in)
1,3.846,3.132,0,0.0011929,11686,0.00051165,1309.3,0.00028524,-391.82,-0.0011445,-11134,0.09182
2,5.5546,1.6297,0,0.00048428,4378,0.00015373,-20.253,0.00012697,-221.29,-0.00044187,-4495.3,0.20677
3,3.3026,3.6145,0,0.00094314,9197.3,0.00036882,900.45,0.0002744,191.04,-0.00089974,-8631,0.064596
4,5.6413,3.9196,0,0.00053153,4818.1,0.00019574,466.14,0.00013865,37.204,-0.00047214,-4552.1,0.21644
5,2.8268,2.7192,0,0.0008074,7814.3,0.00032901,-10.189,0.00012759,-1523.6,-0.00079698,-8470.5,0.047001
6,2.7423,0.83112,0,0.00049299,4884.9,0.0001881,371.8,0.00014954,82.049,-0.00048046,-4651.6,0.038281
7,4.8595,0.49425,0,0.0003843,3749.8,0.00015034,344.44,0.00010977,39.606,-0.00036777,-3548.5,0.14376
8,3.085,4.6121,0,0.00061779,6072.7,0.00022745,351.54,0.00018676,45.773,-0.00060036,-5868.3,0.051453
9,2.8282,5.2103,0,0.00048342,4782.6,0.00018173,292.06,0.00014393,8.0447,-0.00047285,-4626.2,0.040282
10,4.5952,5.0715,0,0.00045622,3892.8,0.00018703,492.79,6.8049e-05,-401.2,-0.00038021,-3769.2,0.12869
11,1.8899,3.2756,0,0.00054905,5465.2,0.0002398,-160.48,5.3685e-05,-1558.9,-0.00056255,-6189,0.020804
12,1.0032,4.7344,0,0.00061021,6068.8,0.00033436,1015.4,3.9694e-05,-1198.6,-0.0005793,-5849.5,0.0051809
13,0.90975,1.1475,0,0.00060153,5974.9,0.00032765,979.59,4.0377e-05,-1178.9,-0.00057128,-5774.6,0.0041686
14,4.9869,1.2322,0,0.00064582,6046.5,0.00023203,35.661,0.00014605,-610.37,-0.00061224,-6307.9,0.15905
15,5.1489,4.6074,0,0.00060038,5540.8,0.00023185,246.93,0.00011874,-602.95,-0.0005556,-5669.7,0.17403
16,1.8293,1.0415,0,0.00052486,5226,0.00019122,-171.93,0.00012377,-678.71,-0.00053558,-5632.9,0.017372
17,1.991,4.6013,0,0.0005116,5054.2,0.00020302,-230.75,7.9154e-05,-1161.4,-0.00052298,-5685.6,0.021493
18,5.8086,0.65444,0,0.00042276,4036.3,0.00016032,48.354,8.9801e-05,-481.47,-0.00040866,-4226.7,0.22258
19,4.7892,5.4758,0,0.0003413,3281.5,0.00013268,304.06,9.4293e-05,15.618,-0.00032199,-3112.1,0.14053
20,0.92144,2.3165,0,0.00066988,6667.1,0.00037798,966.67,7.7014e-07,-1867.6,-0.00063564,-6649.3,0.0047101
21,0.96001,3.5135,0,0.00067515,6724.3,0.00037861,997.86,9.9301e-06,-1772.2,-0.00064179,-6669,0.0051596
22,5.9395,2.2461,0,0.00051078,4988.8,0.00019543,-77.208,0.00010267,-774.21,-0.00051004,-5377.8,0.24095
23,7.6138,1.5734,0,0.00037064,3688.9,0.00012659,-9.6843,0.00011279,-113.37,-0.00037113,-3749.3,0.39518
24,9.0026,1.5336,0,0.00036643,3660.5,0.00012943,55.875,0.0001114,-79.616,-0.00036652,-3670.5,0.54158
25,10.221,1.5352,0,0.00032783,3274.5,0.00010878,-23.122,0.00010492,-52.116,-0.00032895,-3312.1,0.6818
26,11.396,1.5398,0,0.00029819,2978.7,9.9804e-05,4.7348,9.636e-05,-21.145,-0.00029834,-2986.8,0.82633
27,12.56,1.5417,0,0.00026732,2670,8.8367e-05,-2.1496,8.7642e-05,-7.6001,-0.00026735,-2674.9,0.97766
28,13.704,1.5483,0,0.00023841,2381.1,7.8902e-05,6.8463,7.8795e-05,6.0363,-0.00023805,-2374.6,1.1334
29,14.852,1.4999,0,0.00020595,2056.7,7.1272e-05,33.791,6.5312e-05,-10.996,-0.00020538,-2044.9,1.2958
30,16.036,1.3415,0,0.00017985,1796.1,6.0051e-05,0.78369,5.813e-05,-13.646,-0.00017994,-1802.4,1.4688
31,17.278,1.189,0,0.00015015,1499,5.0476e-05,17.567,4.9461e-05,9.9408,-0.00014953,-1485.2,1.6556
32,18.4,1.1945,0,0.00012302,1228,4.2272e-05,19.068,3.9386e-05,-2.6136,-0.0001226,-1219.7,1.8288
33,19.521,1.1938,0,9.8041e-05,978.21,3.4853e-05,30.931,3.0799e-05,0.47081,-9.7319e-05,-962.16,2.0049
34,20.641,1.1907,0,7.3478e-05,732.66,2.7667e-05,41.619,2.2061e-05,-0.49753,-7.2526e-05,-711.19,2.1831
35,21.758,1.192,0,5.0155e-05,499.61,2.1236e-05,57.747,1.3563e-05,0.094923,-4.8761e-05,-468.19,2.3628
36,22.878,1.1951,0,2.87e-05,285.69,1.6234e-05,85.123,4.8831e-06,-0.16627,-2.6171e-05,-233.5,2.5441
37,22.867,2.3931,0,3.2255e-05,321.41,2.0416e-05,124.74,3.8243e-06,0.076158,-2.817e-05,-240.32,2.5433
38,22.863,3.6011,0,3.234e-05,322.28,2.046e-05,124.89,3.8428e-06,0.039536,-2.8256e-05,-241.14,2.5433
39,22.871,4.7953,0,2.8909e-05,287.78,1.634e-05,85.629,4.9336e-06,-0.077736,-2.6368e-05,-235.26,2.5445
40,21.751,4.7978,0,5.0319e-05,501.26,2.1324e-05,58.031,1.3585e-05,-0.1179,-4.8922e-05,-469.77,2.3632
41,20.625,4.793,0,7.3907e-05,736.96,2.7875e-05,42.528,2.2173e-05,-0.31556,-7.2936e-05,-714.92,2.182
42,19.509,4.7893,0,9.8216e-05,980.01,3.5048e-05,32.404,3.076e-05,0.18217,-9.7475e-05,-963.32,2.0044
43,18.398,4.7934,0,0.00012322,1230,4.2378e-05,21.646,3.962e-05,0.91889,-0.00012269,-1218.6,1.83
44,17.313,4.8153,0,0.00014953,1492.6,5.1488e-05,28.585,4.8182e-05,3.7431,-0.0001488,-1476.3,1.6624
45,16.236,4.8801,0,0.00017398,1735.3,5.8416e-05,6.514,5.6019e-05,-11.492,-0.00017373,-1737.7,1.4995
46,15.105,4.9111,0,0.00020115,2006.1,6.7627e-05,5.7394,6.4436e-05,-18.238,-0.00020095,-2012.3,1.3328
47,14.116,4.6251,0,0.00022939,2290.1,7.8489e-05,29.626,7.3478e-05,-8.0238,-0.00022877,-2279,1.1919
48,13.105,4.5191,0,0.00025264,2523.6,8.3646e-05,4.6176,8.3232e-05,1.5015,-0.00025243,-2520.5,1.0521
49,11.965,4.5295,0,0.00028301,2827,9.3875e-05,-2.1221,9.228e-05,-14.106,-0.00028317,-2835.1,0.90041
50,10.815,4.522,0,0.00031335,3130.4,0.00010431,-6.2456,0.00010122,-29.476,-0.00031385,-3148.2,0.75484
51,9.6453,4.5027,0,0.0003449,3445.8,0.00011756,9.7254,0.00010828,-59.984,-0.00034562,-3470.4,0.61535
52,8.43,4.4892,0,0.00037243,3719.7,0.0001303,25.887,0.00011245,-108.21,-0.00037345,-3759.1,0.48046
53,7.0517,4.4777,0,0.00040709,3995.4,0.00014505,209.77,0.00012887,88.138,-0.00039461,-3845,0.34108
54,5.8573,5.1692,0,0.00048542,4648,0.00017267,-40.776,0.0001161,-465.83,-0.00047227,-4886.7,0.22956
55,7.3604,3.0277,0,0.00038704,3857.4,0.000128,-97.521,0.00011738,-177.29,-0.00039062,-3994.2,0.37301
56,16.039,2.5285,0,0.0001824,1816.8,6.4796e-05,62.065,5.7518e-05,7.3793,-0.00018056,-1781.5,1.4713
57,17.228,2.4178,0,0.00015023,1499.4,5.2154e-05,28.079,4.7603e-05,-6.1151,-0.00014964,-1488.1,1.65
58,18.369,2.3841,0,0.00012406,1238.5,4.3332e-05,30.022,3.9516e-05,1.3429,-0.00012338,-1222.6,1.8257
59,19.502,2.3873,0,9.8557e-05,983.6,3.5694e-05,38.801,3.0559e-05,0.22338,-9.7708e-05,-963.52,2.0033
60,20.618,2.3914,0,7.4854e-05,746.72,2.9276e-05,55.882,2.1839e-05,-0.0028047,-7.3616e-05,-717.21,2.1808
61,21.739,2.3899,0,5.2423e-05,522.59,2.401e-05,82.555,1.2973e-05,-0.37558,-5.0401e-05,-476.54,2.3608
62,21.74,3.5972,0,5.2397e-05,522.36,2.4014e-05,82.705,1.2958e-05,-0.37033,-5.0373e-05,-476.21,2.3615
63,20.621,3.5935,0,7.4789e-05,746.09,2.9231e-05,56.053,2.1878e-05,0.80843,-7.354e-05,-716.13,2.1817
64,19.499,3.5865,0,9.8651e-05,984.57,3.5898e-05,39.739,3.0378e-05,-1.7338,-9.7813e-05,-964.91,2.0035
65,18.373,3.5834,0,0.00012436,1241.6,4.3673e-05,34.701,3.9643e-05,4.4182,-0.00012355,-1221.8,1.8268
66,17.273,3.6195,0,0.00014774,1474.3,5.1006e-05,18.591,4.6448e-05,-15.657,-0.00014746,-1472.6,1.6573
67,16.19,3.7062,0,0.00017288,1717,5.9212e-05,18.352,5.4109e-05,-19.988,-0.00017181,-1717.5,1.4939
68,15.341,3.9055,0,0.00020524,2046,6.8651e-05,20.658,6.7623e-05,12.929,-0.00020417,-2029.2,1.3686
69,14.679,3.073,0,0.00020715,2067.6,6.9744e-05,-1.1327,6.5687e-05,-31.615,-0.00020744,-2083.8,1.2732
70,13.426,3.0444,0,0.00024443,2441.1,8.2559e-05,13.917,7.8587e-05,-15.929,-0.0002443,-2442,1.0972
71,12.255,3.0322,0,0.00027317,2728.7,9.1246e-05,-3.6415,8.7853e-05,-29.141,-0.00027361,-2745,0.93969
72,11.089,3.0278,0,0.0003047,3044,0.00010377,9.6522,9.5874e-05,-49.712,-0.00030524,-3063.6,0.79048
73,9.8933,3.0196,0,0.00033573,3354.1,0.00011396,-6.5181,0.00010472,-75.921,-0.00033699,-3394.8,0.64595
74,8.6543,3.0195,0,0.00037553,3751.1,0.00013329,37.765,0.00011119,-128.28,-0.00037663,-3793.6,0.50646
75,2.7651,1.7111,0,0.00065591,6494.9,0.00023364,-37.606,0.00017782,-457.06,-0.00065734,-6732.1,0.042775
76,3.3853,4.2334,0,0.0010506,10223,0.00047698,1234.6,0.00020125,-837.17,-0.0010004,-9865.7,0.064538
77,4.6012,0.9037,0,0.00046611,4122.9,0.00018508,531.31,9.8769e-05,-117.18,-0.00040168,-3877.4,0.12729
78,3.9845,2.6167,0,0.0011005,10807,0.00060291,3379.4,0.00022571,545.3,-0.00098639,-8561.9,0.098827
79,4.2391,2.51,0,0.00081872,8072,0.0003325,1179.2,0.00026197,649.24,-0.00077535,-7144.7,0.11367
80,4.3942,3.1495,0,0.00075639,7365.3,0.00034699,1761.8,0.00022546,848.68,-0.00068837,-6017.5,0.12472
81,5.941,3.0982,0,0.00053517,5277.7,0.00022079,-51.374,8.447e-05,-1075.7,-0.00053979,-5766.1,0.24219
82,3.4301,2.8776,0,0.00095724,9352.8,0.00043008,1386.6,0.00022242,-173.72,-0.00090548,-8648.3,0.071244
83,1.8525,2.1166,0,0.00055676,5549.9,0.00023135,-268.97,6.853e-05,-1492.3,-0.00057512,-6328.5,0.019596
84,6.6943,0.96031,0,0.00045508,4417.2,0.00016815,377.22,0.00014249,184.46,-0.00043216,-4133.3,0.30346
85,2.7948,3.8668,0,0.00072362,7098.6,0.00025435,464.08,0.00024319,380.23,-0.00069595,-6676.1,0.045123
86,2.7948,3.8668,0.1,0.00072362,7098.6,0.00069595,6676.1,-0.00024319,-380.23,-0.00025435,-464.08,0.045123
87,6.6943,0.96031,0.1,0.00045508,4417.2,0.00043216,4133.3,-0.00014249,-184.46,-0.00016815,-377.22,0.30346
88,1.8525,2.1166,0.1,0.00055676,5549.9,0.00057512,6328.5,-6.853e-05,1492.3,-0.00023135,268.97,0.019596
89,3.4301,2.8776,0.1,0.00095724,9352.8,0.00090548,8648.3,-0.00022242,173.72,-0.00043008,-1386.6,0.071244
90,5.941,3.0982,0.1,0.00053517,5277.7,0.00053979,5766.1,-8.447e-05,1075.7,-0.00022079,51.374,0.24219
91,4.3942,3.1495,0.1,0.00075639,7365.3,0.00068837,6017.5,-0.00022546,-848.68,-0.00034699,-1761.8,0.12472
92,4.2391,2.51,0.1,0.00081872,8072,0.00077535,7144.7,-0.00026197,-649.24,-0.0003325,-1179.2,0.11367
93,3.9845,2.6167,0.1,0.0011005,10807,0.00098639,8561.9,-0.00022571,-545.3,-0.00060291,-3379.4,0.098827
94,4.6012,0.9037,0.1,0.00046611,4122.9,0.00040168,3877.4,-9.8769e-05,117.18,-0.00018508,-531.31,0.12729
95,3.3853,4.2334,0.1,0.0010506,10223,0.0010004,9865.7,-0.00020125,837.17,-0.00047698,-1234.6,0.064538
96,2.7651,1.7111,0.1,0.00065591,6494.9,0.00065734,6732.1,-0.00017782,457.06,-0.00023364,37.606,0.042775
97,8.6543,3.0195,0.1,0.00037553,3751.1,0.00037663,3793.6,-0.00011119,128.28,-0.00013329,-37.765,0.50646
98,9.8933,3.0196,0.1,0.00033573,3354.1,0.00033699,3394.8,-0.00010472,75.921,-0.00011396,6.5181,0.64595
99,11.089,3.0278,0.1,0.0003047,3044,0.00030524,3063.6,-9.5874e-05,49.712,-0.00010377,-9.6522,0.79048
100,12.255,3.0322,0.1,0.00027317,2728.7,0.00027361,2745,-8.7853e-05,29.141,-9.1246e-05,3.6415,0.93969
101,13.426,3.0444,0.1,0.00024443,2441.1,0.0002443,2442,-7.8587e-05,15.929,-8.2559e-05,-13.917,1.0972
102,14.679,3.073,0.1,0.00020715,2067.6,0.00020744,2083.8,-6.5687e-05,31.615,-6.9744e-05,1.1327,1.2732
103,15.341,3.9055,0.1,0.00020524,2046,0.00020417,2029.2,-6.7623e-05,-12.929,-6.8651e-05,-20.658,1.3686
104,16.19,3.7062,0.1,0.00017288,1717,0.00017181,1717.5,-5.4109e-05,19.988,-5.9212e-05,-18.352,1.4939
105,17.273,3.6195,0.1,0.00014774,1474.3,0.00014746,1472.6,-4.6448e-05,15.657,-5.1006e-05,-18.591,1.6573
106,18.373,3.5834,0.1,0.00012436,1241.6,0.00012355,1221.8,-3.9643e-05,-4.4182,-4.3673e-05,-34.701,1.8268
107,19.499,3.5865,0.1,9.8651e-05,984.57,9.7813e-05,964.91,-3.0378e-05,1.7338,-3.5898e-05,-39.739,2.0035
108,20.621,3.5935,0.1,7.4789e-05,746.09,7.354e-05,716.13,-2.1878e-05,-0.80843,-2.9231e-05,-56.053,2.1817
109,21.74,3.5972,0.1,5.2397e-05,522.36,5.0373e-05,476.21,-1.2958e-05,0.37033,-2.4014e-05,-82.705,2.3615
110,21.739,2.3899,0.1,5.2423e-05,522.59,5.0401e-05,476.54,-1.2973e-05,0.37558,-2.401e-05,-82.555,2.3608
111,20.618,2.3914,0.1,7.4854e-05,746.72,7.3616e-05,717.21,-2.1839e-05,0.002804,-2.9276e-05,-55.882,2.1808
112,19.502,2.3873,0.1,9.8557e-05,983.6,9.7708e-05,963.52,-3.0559e-05,-0.22338,-3.5694e-05,-38.801,2.0033
113,18.369,2.3841,0.1,0.00012406,1238.5,0.00012338,1222.6,-3.9516e-05,-1.3429,-4.3332e-05,-30.022,1.8257
114,17.228,2.4178,0.1,0.00015023,1499.4,0.00014964,1488.1,-4.7603e-05,6.1151,-5.2154e-05,-28.079,1.65
115,16.039,2.5285,0.1,0.0001824,1816.8,0.00018056,1781.5,-5.7518e-05,-7.3793,-6.4796e-05,-62.065,1.4713
116,7.3604,3.0277,0.1,0.00038704,3857.4,0.00039062,3994.2,-0.00011738,177.29,-0.000128,97.521,0.37301
117,5.8573,5.1692,0.1,0.00048542,4648,0.00047227,4886.7,-0.0001161,465.83,-0.00017267,40.776,0.22956
118,7.0517,4.4777,0.1,0.00040709,3995.4,0.00039461,3845,-0.00012887,-88.138,-0.00014505,-209.77,0.34108
119,8.43,4.4892,0.1,0.00037243,3719.7,0.00037345,3759.1,-0.00011245,108.21,-0.0001303,-25.887,0.48046
120,9.6453,4.5027,0.1,0.0003449,3445.8,0.00034562,3470.4,-0.00010828,59.984,-0.00011756,-9.7254,0.61535
121,10.815,4.522,0.1,0.00031335,3130.4,0.00031385,3148.2,-0.00010122,29.476,-0.00010431,6.2456,0.75484
122,11.965,4.5295,0.1,0.00028301,2827,0.00028317,2835.1,-9.228e-05,14.106,-9.3875e-05,2.1221,0.90041
123,13.105,4.5191,0.1,0.00025264,2523.6,0.00025243,2520.5,-8.3232e-05,-1.5015,-8.3646e-05,-4.6176,1.0521
124,14.116,4.6251,0.1,0.00022939,2290.1,0.00022877,2279,-7.3478e-05,8.0238,-7.8489e-05,-29.626,1.1919
125,15.105,4.9111,0.1,0.00020115,2006.1,0.00020095,2012.3,-6.4436e-05,18.238,-6.7627e-05,-5.7394,1.3328
126,16.236,4.8801,0.1,0.00017398,1735.3,0.00017373,1737.7,-5.6019e-05,11.492,-5.8416e-05,-6.514,1.4995
127,17.313,4.8153,0.1,0.00014953,1492.6,0.0001488,1476.3,-4.8182e-05,-3.7431,-5.1488e-05,-28.585,1.6624
128,18.398,4.7934,0.1,0.00012322,1230,0.00012269,1218.6,-3.962e-05,-0.91889,-4.2378e-05,-21.646,1.83
129,19.509,4.7893,0.1,9.8216e-05,980.01,9.7475e-05,963.32,-3.076e-05,-0.18218,-3.5048e-05,-32.404,2.0044
130,20.625,4.793,0.1,7.3907e-05,736.96,7.2936e-05,714.92,-2.2173e-05,0.31556,-2.7875e-05,-42.528,2.182
131,21.751,4.7978,0.1,5.0319e-05,501.26,4.8922e-05,469.77,-1.3585e-05,0.1179,-2.1324e-05,-58.031,2.3632
132,22.871,4.7953,0.1,2.8909e-05,287.78,2.6368e-05,235.26,-4.9336e-06,0.077738,-1.634e-05,-85.629,2.5445
133,22.863,3.6011,0.1,3.234e-05,322.28,2.8256e-05,241.14,-3.8428e-06,-0.039537,-2.046e-05,-124.89,2.5433
134,22.867,2.3931,0.1,3.2255e-05,321.41,2.817e-05,240.32,-3.8243e-06,-0.076159,-2.0416e-05,-124.74,2.5433
135,22.878,1.1951,0.1,2.87e-05,285.69,2.6171e-05,233.5,-4.8831e-06,0.16627,-1.6234e-05,-85.123,2.5441
136,21.758,1.192,0.1,5.0155e-05,499.61,4.8761e-05,468.19,-1.3563e-05,-0.094924,-2.1236e-05,-57.747,2.3628
137,20.641,1.1907,0.1,7.3478e-05,732.66,7.2526e-05,711.19,-2.2061e-05,0.49753,-2.7667e-05,-41.619,2.1831
138,19.521,1.1938,0.1,9.8041e-05,978.21,9.7319e-05,962.16,-3.0799e-05,-0.47081,-3.4853e-05,-30.931,2.0049
139,18.4,1.1945,0.1,0.00012302,1228,0.0001226,1219.7,-3.9386e-05,2.6136,-4.2272e-05,-19.068,1.8288
140,17.278,1.189,0.1,0.00015015,1499,0.00014953,1485.2,-4.9461e-05,-9.9408,-5.0476e-05,-17.567,1.6556
141,16.036,1.3415,0.1,0.00017985,1796.1,0.00017994,1802.4,-5.813e-05,13.646,-6.0051e-05,-0.78369,1.4688
142,14.852,1.4999,0.1,0.00020595,2056.7,0.00020538,2044.9,-6.5312e-05,10.996,-7.1272e-05,-33.791,1.2958
143,13.704,1.5483,0.1,0.00023841,2381.1,0.00023805,2374.6,-7.8795e-05,-6.0363,-7.8902e-05,-6.8463,1.1334
144,12.56,1.5417,0.1,0.00026732,2670,0.00026735,2674.9,-8.7642e-05,7.6001,-8.8367e-05,2.1496,0.97766
145,11.396,1.5398,0.1,0.00029819,2978.7,0.00029834,2986.8,-9.636e-05,21.145,-9.9804e-05,-4.7348,0.82633
146,10.221,1.5352,0.1,0.00032783,3274.5,0.00032895,3312.1,-0.00010492,52.116,-0.00010878,23.122,0.6818
147,9.0026,1.5336,0.1,0.00036643,3660.5,0.00036652,3670.5,-0.0001114,79.616,-0.00012943,-55.875,0.54158
148,7.6138,1.5734,0.1,0.00037064,3688.9,0.00037113,3749.3,-0.00011279,113.37,-0.00012659,9.6843,0.39518
149,5.9395,2.2461,0.1,0.00051078,4988.8,0.00051004,5377.8,-0.00010267,774.21,-0.00019543,77.208,0.24095
150,0.96001,3.5135,0.1,0.00067515,6724.3,0.00064179,6669,-9.9301e-06,1772.2,-0.00037861,-997.86,0.0051596
151,0.92144,2.3165,0.1,0.00066988,6667.1,0.00063564,6649.3,-7.7014e-07,1867.6,-0.00037798,-966.67,0.0047101
152,4.7892,5.4758,0.1,0.0003413,3281.5,0.00032199,3112.1,-9.4293e-05,-15.618,-0.00013268,-304.06,0.14053
153,5.8086,0.65444,0.1,0.00042276,4036.3,0.00040866,4226.7,-8.9801e-05,481.47,-0.00016032,-48.354,0.22258
154,1.991,4.6013,0.1,0.0005116,5054.2,0.00052298,5685.6,-7.9154e-05,1161.4,-0.00020302,230.75,0.021493
155,1.8293,1.0415,0.1,0.00052486,5226,0.00053558,5632.9,-0.00012377,678.71,-0.00019122,171.93,0.017372
156,5.1489,4.6074,0.1,0.00060038,5540.8,0.0005556,5669.7,-0.00011874,602.95,-0.00023185,-246.93,0.17403
157,4.9869,1.2322,0.1,0.00064582,6046.5,0.00061224,6307.9,-0.00014605,610.37,-0.00023203,-35.661,0.15905
158,0.90975,1.1475,0.1,0.00060153,5974.9,0.00057128,5774.6,-4.0377e-05,1178.9,-0.00032765,-979.59,0.0041686
159,1.0032,4.7344,0.1,0.00061021,6068.8,0.0005793,5849.5,-3.9694e-05,1198.6,-0.00033436,-1015.4,0.0051809
160,1.8899,3.2756,0.1,0.00054905,5465.2,0.00056255,6189,-5.3685e-05,1558.9,-0.0002398,160.48,0.020804
161,4.5952,5.0715,0.1,0.00045622,3892.8,0.00038021,3769.2,-6.8049e-05,401.2,-0.00018703,-492.79,0.12869
162,2.8282,5.2103,0.1,0.00048342,4782.6,0.00047285,4626.2,-0.00014393,-8.0447,-0.00018173,-292.06,0.040282
163,3.085,4.6121,0.1,0.00061779,6072.7,0.00060036,5868.3,-0.00018676,-45.773,-0.00022745,-351.54,0.051453
164,4.8595,0.49425,0.1,0.0003843,3749.8,0.00036777,3548.5,-0.00010977,-39.606,-0.00015034,-344.44,0.14376
165,2.7423,0.83112,0.1,0.00049299,4884.9,0.00048046,4651.6,-0.00014954,-82.049,-0.0001881,-371.8,0.038281
166,2.8268,2.7192,0.1,0.0008074,7814.3,0.00079698,8470.5,-0.00012759,1523.6,-0.00032901,10.189,0.047001
167,5.6413,3.9196,0.1,0.00053153,4818.1,0.00047214,4552.1,-0.00013865,-37.204,-0.00019574,-466.14,0.21644
168,3.3026,3.6145,0.1,0.00094314,9197.3,0.00089974,8631,-0.0002744,-191.04,-0.00036882,-900.45,0.064596
169,5.5546,1.6297,0.1,0.00048428,4378,0.00044187,4495.3,-0.00012697,221.29,-0.00015373,20.253,0.20677
170,3.846,3.132,0.1,0.0011929,11686,0.0011445,11134,-0.00028524,391.82,-0.00051165,-1309.3,0.09182
171,3.9267,4,0,0.0015061,14910,0.00054832,-634.27,0.00033427,-2242.6,-0.0015345,-16284,0.091493
172,3.9267,4.5,0,0.00065717,6523.8,0.00045135,3381.5,8.7035e-05,644.21,-0.00053972,-4065,0.085492
173,3.9267,5,0,0.00054639,5341.8,0.00043752,3531.2,-2.278e-05,72.672,-0.00038131,-2621.2,0.079563
174,3.9267,5.5,0,0.00017579,1097.9,6.4593e-05,235.82,3.3743e-06,-224.15,-0.00010218,-1017.2,0.074611
175,3.76,4,0,0.002058,20292,0.00076485,115.47,0.00051503,-1761.6,-0.0020521,-21050,0.082555
176,3.76,5.5,0,0.00026475,2605.2,0.0001695,957.64,1.4837e-05,-204.43,-0.00022765,-2026.4,0.066092
177,3.76,5,0,0.00039499,3810.1,0.00021526,981.8,5.1147e-05,-251.29,-0.00035356,-3292.1,0.070936
178,3.76,4.5,0,0.0010197,9943.9,0.00089807,8321.6,-7.2852e-05,1026.5,-0.00060941,-3005,0.07645
179,3.9267,2,0,0.0016463,16293,0.0007059,463.83,0.00027576,-2768,-0.0016454,-17203,0.090898
180,3.9267,1.5,0,0.00061248,6043.9,0.00049926,4432,2.3566e-05,857.81,-0.00042948,-2546.2,0.084509
181,3.9267,1,0,0.00045242,4443.5,0.00034147,2502.4,-8.8101e-06,-129.43,-0.00034133,-2627.8,0.078234
182,3.9267,0.5,0,0.00017236,1531.5,8.6962e-05,397.92,1.994e-05,-105.65,-0.00014193,-1321.9,0.072762
183,3.76,2,0,0.0023599,23380,0.00089827,-907.44,0.00046078,-4194.6,-0.002409,-25757,0.082037
184,3.76,0.5,0,0.00026305,2577.9,0.00016816,974.96,1.686e-05,-161.84,-0.00022458,-1975.9,0.066204
185,3.76,1,0,0.00058945,5875.9,0.00041878,3017.3,4.3631e-05,198.52,-0.00048015,-3736.9,0.071223
186,3.76,1.5,0,0.00099985,9898.4,0.00051045,2022.6,0.0001813,-450.5,-0.00094031,-8877.8,0.076933
187,3.9267,6,0,7.2762e-05,727.12,4.0227e-05,185.53,1.1442e-05,-30.75,-6.7673e-05,-625.19,0.069769
188,5.0419,6,0,0.00031876,3179.8,0.00011797,91.992,9.1115e-05,-109.8,-0.00031802,-3183.9,0.15617
189,6.157,6,0,0.0004498,4483.1,0.00016402,196.94,0.00013883,7.7015,-0.00044484,-4377.8,0.25007
190,7.2722,6,0,0.00036871,3676.2,0.0001296,-161.44,9.2094e-05,-443.22,-0.00037735,-3970.4,0.35458
191,8.3874,6,0,0.00039172,3914,0.00013916,144.07,0.00012563,42.422,-0.0003884,-3819.8,0.46867
192,9.5026,6,0,0.00035098,3506.9,0.00011641,-16.731,0.00011326,-40.431,-0.0003519,-3535.5,0.59222
193,10.618,6,0,0.00032207,3218.1,0.00010741,18.757,0.00010605,8.5234,-0.00032156,-3204.4,0.7245
194,11.733,6,0,0.00029084,2906.1,9.6362e-05,6.8074,9.5923e-05,3.5061,-0.00029063,-2900.9,0.86476
195,12.848,6,0,0.00025954,2593.4,8.5619e-05,-8.2996,8.4921e-05,-13.548,-0.00025989,-2604.3,1.0122
196,13.963,6,0,0.00023239,2321.9,7.787e-05,21.866,7.6658e-05,12.764,-0.00023176,-2304.6,1.1661
197,15.079,6,0,0.00020245,2022.7,6.6896e-05,-10.042,6.5707e-05,-18.977,-0.0002029,-2037.2,1.3258
198,16.194,6,0,0.00017768,1775.6,6.1511e-05,39.389,5.7368e-05,8.2646,-0.00017685,-1751.6,1.4904
199,17.309,6,0,0.00014771,1476,4.9692e-05,5.1909,4.7608e-05,-10.466,-0.00014779,-1478.6,1.6594
200,18.424,6,0,0.00012171,1216.3,4.2159e-05,20.763,3.8677e-05,-5.4007,-0.00012143,-1208.4,1.8321
201,19.539,6,0,9.6397e-05,963.3,3.3117e-05,16.203,3.1081e-05,0.90399,-9.6096e-05,-954.66,2.0077
202,20.654,6,0,7.1229e-05,711.79,2.4797e-05,15.334,2.2716e-05,-0.30074,-7.096e-05,-704.15,2.1857
203,21.77,6,0,4.6758e-05,467.23,1.6647e-05,15.022,1.4734e-05,0.65175,-4.6472e-05,-459.23,2.3654
204,22.885,6,0,2.2348e-05,223.29,8.5794e-06,14.629,6.6455e-06,0.098781,-2.2058e-05,-215.57,2.5462
205,24,6,0,2.8508e-06,28.489,2.4664e-06,20.151,-4.1563e-07,-1.504,-1.8288e-06,-12.122,2.7275
206,24,4.8,0,1.4458e-05,144.37,1.4442e-05,144.44,-4.3202e-06,3.4681,-5.1948e-06,-3.1036,2.7279
207,24,3.6,0,1.8531e-05,184.95,1.8493e-05,184.67,-5.6963e-06,2.9222,-6.5273e-06,-3.3216,2.7279
208,24,2.4,0,1.8535e-05,184.98,1.8505e-05,184.96,-5.6927e-06,3.1526,-6.5146e-06,-3.0228,2.7274
209,24,1.2,0,1.444e-05,144.17,1.4424e-05,144.28,-4.319e-06,3.4564,-5.1809e-06,-3.0197,2.7264
210,0,1.2,0,0.00038999,3852.1,8.4967e-07,-3757.5,-3.1494e-06,-3787.5,-0.00051382,-7624.5,0
211,0,2.4,0,0.00038144,3800.1,1.3349e-05,-3613,-1.606e-05,-3834,-0.00050648,-7518.8,0
212,0,3.6,0,0.00038825,3867.7,1.201e-06,-3766.4,-3.1781e-06,-3799.4,-0.00051573,-7650.5,0
213,0,4.8,0,0.00038494,3795.2,1.0588e-06,-3695,-2.8382e-06,-3724.3,-0.00050598,-7504.7,0
214,24,0,0,3.4313e-06,34.289,2.9641e-06,24.332,-4.6635e-07,-1.4435,-2.2153e-06,-14.584,2.725
215,3.9267,0,0,7.4382e-05,743.31,4.1959e-05,256.88,1.7072e-05,69.895,-6.7036e-05,-562.06,0.06752
216,22.885,0,0,2.2333e-05,223.05,8.5538e-06,14.547,6.6614e-06,0.32782,-2.2033e-05,-215.27,2.5437
217,21.77,0,0,4.6747e-05,467.08,1.6626e-05,14.778,1.4733e-05,0.55323,-4.6463e-05,-459.25,2.3629
218,20.654,0,0,7.1338e-05,712.82,2.4817e-05,15.518,2.2792e-05,0.30141,-7.105e-05,-704.79,2.1832
219,19.539,0,0,9.6396e-05,963.19,3.3122e-05,15.881,3.1032e-05,0.17763,-9.6102e-05,-955.06,2.0053
220,18.424,0,0,0.00012208,1219.8,4.1669e-05,15.914,3.9387e-05,-1.233,-0.00012181,-1212.4,1.8296
221,17.309,0,0,0.00014865,1485.4,4.9699e-05,-0.7608,4.789e-05,-14.351,-0.0001489,-1492.9,1.657
222,16.194,0,0,0.00017779,1776.6,5.9773e-05,20.484,5.8679e-05,12.266,-0.00017723,-1760.2,1.488
223,15.079,0,0,0.00020075,2005.8,6.7321e-05,2.3425,6.4619e-05,-17.961,-0.00020098,-2013.6,1.3234
224,13.963,0,0,0.00023089,2307.2,7.8131e-05,19.883,7.4723e-05,-5.7208,-0.00023063,-2300,1.1637
225,12.848,0,0,0.00026112,2609.2,8.6766e-05,7.9479,8.5872e-05,1.2306,-0.00026094,-2604.6,1.0098
226,11.733,0,0,0.00029152,2912.9,9.7828e-05,16.984,9.498e-05,-4.4158,-0.00029127,-2906.6,0.86232
227,10.618,0,0,0.0003222,3219.4,0.0001076,19.319,0.00010591,6.6689,-0.00032172,-3206.4,0.72206
228,9.5026,0,0,0.00034944,3491.4,0.00011695,-13.212,0.00011128,-55.831,-0.00035054,-3525.8,0.5898
229,8.3874,0,0,0.00039674,3964.3,0.00013915,139.85,0.00012976,69.305,-0.0003931,-3859.2,0.46627
230,7.2722,0,0,0.00033593,3355.6,0.00013223,-108.27,6.2008e-05,-635.89,-0.00034532,-3696.4,0.35219
231,6.157,0,0,0.00046291,4617.4,0.00017841,430.84,0.00014775,200.47,-0.00045089,-4297.4,0.24776
232,5.0419,0,0,0.00033138,3310,0.00011234,-75.715,9.7138e-05,-189.93,-0.0003356,-3441.4,0.15382
233,0,0,0,0.00015103,1509.2,3.2531e-05,-771.21,7.7684e-06,-957.26,-0.00017957,-2364.8,0
234,3.76,0,0,6.2298e-05,622.55,3.2246e-05,183.48,1.6901e-05,68.179,-5.721e-05,-488.66,0.061805
235,2.82,0,0,0.00039262,3907.6,0.00016253,459.42,0.00011338,90.084,-0.00038037,-3619.7,0.035085
236,1.88,0,0,0.00054204,5414,0.00020197,135.48,0.00015117,-246.23,-0.00054264,-5459.2,0.014218
237,0.94,0,0,0.00064033,6396,0.00023795,414.3,0.00020363,156.4,-0.00062994,-6106.7,0.0024794
238,0,6,0,0.00015796,1578.5,2.922e-05,-889.14,8.9991e-06,-1041.1,-0.00019025,-2538.1,0
239,3.76,6,0,4.9028e-05,489.94,2.6312e-05,222.45,1.9229e-05,169.24,-4.2147e-05,-291.92,0.061675
240,0.94,6,0,0.0006462,6451.9,0.00023826,404.68,0.00020728,171.91,-0.00063551,-6160.5,0.002508
241,1.88,6,0,0.00053026,5296,0.00019062,-27.611,0.00014509,-369.73,-0.0005359,-5486.4,0.014244
242,2.82,6,0,0.00035289,3518.9,0.00012516,86.76,0.00010889,-35.494,-0.0003511,-3491.7,0.034924
243,3.9267,4,0.1,0.0015061,14910,0.0015345,16284,-0.00033427,2242.6,-0.00054832,634.27,0.091493
244,3.9267,4.5,0.1,0.00065717,6523.8,0.00053972,4065,-8.7035e-05,-644.21,-0.00045135,-3381.5,0.085492
245,3.9267,5,0.1,0.00054639,5341.8,0.00038131,2621.2,2.278e-05,-72.672,-0.00043752,-3531.2,0.079563
246,3.9267,5.5,0.1,0.00017579,1097.9,0.00010218,1017.2,-3.3743e-06,224.15,-6.4593e-05,-235.82,0.074611
247,3.76,5.5,0.1,0.00026475,2605.2,0.00022765,2026.4,-1.4837e-05,204.43,-0.0001695,-957.64,0.066092
248,3.76,5,0.1,0.00039499,3810.1,0.00035356,3292.1,-5.1147e-05,251.29,-0.00021526,-981.8,0.070936
249,3.76,4.5,0.1,0.0010197,9943.9,0.00060941,3005,7.2852e-05,-1026.5,-0.00089807,-8321.6,0.07645
250,3.76,4,0.1,0.002058,20292,0.0020521,21050,-0.00051503,1761.6,-0.00076485,-115.47,0.082555
251,3.9267,2,0.1,0.0016463,16293,0.0016454,17203,-0.00027576,2768,-0.0007059,-463.83,0.090898
252,3.9267,1.5,0.1,0.00061248,6043.9,0.00042948,2546.2,-2.3566e-05,-857.81,-0.00049926,-4432,0.084509
253,3.9267,1,0.1,0.00045242,4443.5,0.00034133,2627.8,8.8101e-06,129.43,-0.00034147,-2502.4,0.078234
254,3.9267,0.5,0.1,0.00017236,1531.5,0.00014193,1321.9,-1.994e-05,105.65,-8.6962e-05,-397.92,0.072762
255,3.76,0.5,0.1,0.00026305,2577.9,0.00022458,1975.9,-1.686e-05,161.84,-0.00016816,-974.96,0.066204
256,3.76,1,0.1,0.00058945,5875.9,0.00048015,3736.9,-4.3631e-05,-198.52,-0.00041878,-3017.3,0.071223
257,3.76,1.5,0.1,0.00099985,9898.4,0.00094031,8877.8,-0.0001813,450.5,-0.00051045,-2022.6,0.076933
258,3.76,2,0.1,0.0023599,23380,0.002409,25757,-0.00046078,4194.6,-0.00089827,907.44,0.082037
259,3.9267,6,0.1,7.2762e-05,727.12,6.7673e-05,625.19,-1.1442e-05,30.75,-4.0227e-05,-185.53,0.069769
260,5.0419,6,0.1,0.00031876,3179.8,0.00031802,3183.9,-9.1115e-05,109.8,-0.00011797,-91.992,0.15617
261,6.157,6,0.1,0.0004498,4483.1,0.00044484,4377.8,-0.00013883,-7.7015,-0.00016402,-196.94,0.25007
262,7.2722,6,0.1,0.00036871,3676.2,0.00037735,3970.4,-9.2094e-05,443.22,-0.0001296,161.44,0.35458
263,8.3874,6,0.1,0.00039172,3914,0.0003884,3819.8,-0.00012563,-42.422,-0.00013916,-144.07,0.46867
264,9.5026,6,0.1,0.00035098,3506.9,0.0003519,3535.5,-0.00011326,40.431,-0.00011641,16.731,0.59222
265,10.618,6,0.1,0.00032207,3218.1,0.00032156,3204.4,-0.00010605,-8.5234,-0.00010741,-18.757,0.7245
266,11.733,6,0.1,0.00029084,2906.1,0.00029063,2900.9,-9.5923e-05,-3.5061,-9.6362e-05,-6.8074,0.86476
267,12.848,6,0.1,0.00025954,2593.4,0.00025989,2604.3,-8.4921e-05,13.548,-8.5619e-05,8.2996,1.0122
268,13.963,6,0.1,0.00023239,2321.9,0.00023176,2304.6,-7.6658e-05,-12.764,-7.787e-05,-21.866,1.1661
269,15.079,6,0.1,0.00020245,2022.7,0.0002029,2037.2,-6.5707e-05,18.977,-6.6896e-05,10.042,1.3258
270,16.194,6,0.1,0.00017768,1775.6,0.00017685,1751.6,-5.7368e-05,-8.2647,-6.1511e-05,-39.389,1.4904
271,17.309,6,0.1,0.00014771,1476,0.00014779,1478.6,-4.7608e-05,10.466,-4.9692e-05,-5.1909,1.6594
272,18.424,6,0.1,0.00012171,1216.3,0.00012143,1208.4,-3.8677e-05,5.4007,-4.2159e-05,-20.763,1.8321
273,19.539,6,0.1,9.6397e-05,963.3,9.6096e-05,954.66,-3.1081e-05,-0.90398,-3.3117e-05,-16.203,2.0077
274,20.654,6,0.1,7.1229e-05,711.79,7.096e-05,704.15,-2.2716e-05,0.30074,-2.4797e-05,-15.334,2.1857
275,21.77,6,0.1,4.6758e-05,467.23,4.6472e-05,459.23,-1.4734e-05,-0.65175,-1.6647e-05,-15.022,2.3654
276,22.885,6,0.1,2.2348e-05,223.29,2.2058e-05,215.57,-6.6455e-06,-0.098782,-8.5794e-06,-14.629,2.5462
277,24,6,0.1,2.8508e-06,28.489,1.8288e-06,12.122,4.1563e-07,1.504,-2.4664e-06,-20.151,2.7275
278,24,4.8,0.1,1.4458e-05,144.37,5.1948e-06,3.1036,4.3202e-06,-3.4681,-1.4442e-05,-144.44,2.7279
279,24,3.6,0.1,1.8531e-05,184.95,6.5273e-06,3.3216,5.6963e-06,-2.9222,-1.8493e-05,-184.67,2.7279
280,24,2.4,0.1,1.8535e-05,184.98,6.5146e-06,3.0228,5.6927e-06,-3.1526,-1.8505e-05,-184.96,2.7274
281,24,1.2,0.1,1.444e-05,144.17,5.1809e-06,3.0197,4.319e-06,-3.4564,-1.4424e-05,-144.28,2.7264
282,0,1.2,0.1,0.00038999,3852.1,0.00051382,7624.5,3.1494e-06,3787.5,-8.4967e-07,3757.5,0
283,0,2.4,0.1,0.00038144,3800.1,0.00050648,7518.8,1.606e-05,3834,-1.3349e-05,3613,0
284,0,3.6,0.1,0.00038825,3867.7,0.00051573,7650.5,3.1781e-06,3799.4,-1.201e-06,3766.4,0
285,0,4.8,0.1,0.00038494,3795.2,0.00050598,7504.7,2.8382e-06,3724.3,-1.0588e-06,3695,0
286,24,0,0.1,3.4313e-06,34.289,2.2153e-06,14.584,4.6635e-07,1.4435,-2.9641e-06,-24.332,2.725
287,22.885,0,0.1,2.2333e-05,223.05,2.2033e-05,215.27,-6.6614e-06,-0.32782,-8.5538e-06,-14.547,2.5437
288,21.77,0,0.1,4.6747e-05,467.08,4.6463e-05,459.25,-1.4733e-05,-0.55323,-1.6626e-05,-14.778,2.3629
289,20.654,0,0.1,7.1338e-05,712.82,7.105e-05,704.79,-2.2792e-05,-0.30141,-2.4817e-05,-15.518,2.1832
290,19.539,0,0.1,9.6396e-05,963.19,9.6102e-05,955.06,-3.1032e-05,-0.17763,-3.3122e-05,-15.881,2.0053
291,18.424,0,0.1,0.00012208,1219.8,0.00012181,1212.4,-3.9387e-05,1.233,-4.1669e-05,-15.914,1.8296
292,17.309,0,0.1,0.00014865,1485.4,0.0001489,1492.9,-4.789e-05,14.351,-4.9699e-05,0.7608,1.657
293,16.194,0,0.1,0.00017779,1776.6,0.00017723,1760.2,-5.8679e-05,-12.266,-5.9773e-05,-20.484,1.488
294,15.079,0,0.1,0.00020075,2005.8,0.00020098,2013.6,-6.4619e-05,17.961,-6.7321e-05,-2.3425,1.3234
295,13.963,0,0.1,0.00023089,2307.2,0.00023063,2300,-7.4723e-05,5.7208,-7.8131e-05,-19.883,1.1637
296,12.848,0,0.1,0.00026112,2609.2,0.00026094,2604.6,-8.5872e-05,-1.2306,-8.6766e-05,-7.9479,1.0098
297,11.733,0,0.1,0.00029152,2912.9,0.00029127,2906.6,-9.498e-05,4.4158,-9.7828e-05,-16.984,0.86232
298,10.618,0,0.1,0.0003222,3219.4,0.00032172,3206.4,-0.00010591,-6.6689,-0.0001076,-19.319,0.72206
299,9.5026,0,0.1,0.00034944,3491.4,0.00035054,3525.8,-0.00011128,55.831,-0.00011695,13.212,0.5898
300,8.3874,0,0.1,0.00039674,3964.3,0.0003931,3859.2,-0.00012976,-69.305,-0.00013915,-139.85,0.46627
301,7.2722,0,0.1,0.00033593,3355.6,0.00034532,3696.4,-6.2008e-05,635.89,-0.00013223,108.27,0.35219
302,6.157,0,0.1,0.00046291,4617.4,0.00045089,4297.4,-0.00014775,-200.47,-0.00017841,-430.84,0.24776
303,5.0419,0,0.1,0.00033138,3310,0.0003356,3441.4,-9.7138e-05,189.93,-0.00011234,75.715,0.15382
304,3.9267,0,0.1,7.4382e-05,743.31,6.7036e-05,562.06,-1.7072e-05,-69.895,-4.1959e-05,-256.88,0.06752
305,3.76,0,0.1,6.2298e-05,622.55,5.721e-05,488.66,-1.6901e-05,-68.179,-3.2246e-05,-183.48,0.061805
306,2.82,0,0.1,0.00039262,3907.6,0.00038037,3619.7,-0.00011338,-90.084,-0.00016253,-459.42,0.035085
307,1.88,0,0.1,0.00054204,5414,0.00054264,5459.2,-0.00015117,246.23,-0.00020197,-135.48,0.014218
308,0.94,0,0.1,0.00064033,6396,0.00062994,6106.7,-0.00020363,-156.4,-0.00023795,-414.3,0.0024794
309,0,0,0.1,0.00015103,1509.2,0.00017957,2364.8,-7.7684e-06,957.26,-3.2531e-05,771.21,0
310,0,6,0.1,0.00015796,1578.5,0.00019025,2538.1,-8.9991e-06,1041.1,-2.922e-05,889.14,0
311,0.94,6,0.1,0.0006462,6451.9,0.00063551,6160.5,-0.00020728,-171.91,-0.00023826,-404.68,0.002508
312,1.88,6,0.1,0.00053026,5296,0.0005359,5486.4,-0.00014509,369.73,-0.00019062,27.611,0.014244
313,2.82,6,0.1,0.00035289,3518.9,0.0003511,3491.7,-0.00010889,35.494,-0.00012516,-86.76,0.034924
314,3.76,6,0.1,4.9028e-05,489.94,4.2147e-05,291.92,-1.9229e-05,-169.24,-2.6312e-05,-222.45,0.061675
315,3.9152,2.8744,0,0.0011467,11034,0.00053751,2195.9,0.00025979,109.14,-0.00105,-9732,0.095592
316,4.1201,3.1407,0,0.00097465,9522.8,0.0004281,1526.4,0.0002565,237.1,-0.00091636,-8575.4,0.10758
317,3.638,3.0048,0,0.0010751,10509,0.00046749,1322.6,0.00025676,-260.78,-0.0010245,-9888,0.081075
318,3.846,3.132,0.05,0.0011929,469.34,3.6064e-05,270.97,-3.9698e-13,-3.3301e-06,-3.6064e-05,-270.97,0.091773
319,3.803,3.566,0,0.0016254,15597,0.00053954,-29.31,0.00047047,-548.24,-0.0015699,-15879,0.088116
320,5.2708,1.4309,0,0.00056505,5154.7,0.00018665,-39.092,0.00013808,-404.03,-0.0005224,-5366.6,0.18272
321,5.747,1.9379,0,0.00049753,4674.4,0.00017314,-59.533,0.00011593,-489.44,-0.00047562,-4934.1,0.22383
322,6.1244,1.295,0,0.00046968,4392.6,0.00014955,92.879,0.00014597,66.012,-0.00043686,-4313.1,0.25366
323,5.5546,1.6297,0.05,0.00048428,182.36,1.4013e-05,105.29,-3.9475e-13,2.5233e-06,-1.4013e-05,-105.29,0.20673
324,4.7406,1.8148,0,0.0010653,10101,0.00040075,3.384,0.00021401,-1399.7,-0.0010272,-10726,0.14419
325,3.344,3.9239,0,0.00099686,9547.8,0.00041146,981.55,0.00023678,-330.9,-0.00093758,-9154.6,0.064845
326,3.3663,3.246,0,0.00095019,8979.9,0.00037223,939,0.00025166,33.071,-0.00087864,-8459.5,0.068197
327,3.0487,3.7406,0,0.00083338,8144,0.00031058,674.75,0.00025977,292.99,-0.00079783,-7653.4,0.054296
328,3.3026,3.6145,0.05,0.00094314,500.7,3.8474e-05,289.08,-8.161e-21,-3.5698e-05,-3.8474e-05,-289.08,0.064556
329,3.5313,3.8072,0,0.0015006,14698,0.00052197,170.88,0.00043834,-457.51,-0.0014747,-14831,0.073423
330,5.3951,4.2635,0,0.00056596,5122.9,0.00019064,182.56,0.00014901,-130.22,-0.00051103,-5089.5,0.19525
331,6.3465,4.1986,0,0.00046931,4398.9,0.00016231,277.21,0.00014166,122.04,-0.00043319,-4197.2,0.27647
332,5.7911,3.5089,0,0.00053335,5001.8,0.00017941,-9.4157,0.0001397,-307.8,-0.00050525,-5153.7,0.2294
333,5.6413,3.9196,0.05,0.00053153,163.63,1.2573e-05,94.472,-6.8455e-14,-2.0039e-14,-1.2573e-05,-94.472,0.2164
334,4.784,3.9598,0,0.0010188,9674.3,0.00035605,-204.15,0.00023632,-1103.7,-0.0009872,-10297,0.14932
335,2.3583,2.9974,0,0.00067823,6624.3,0.00028416,-87.169,8.9622e-05,-1548.9,-0.00067851,-7320.3,0.032545
336,2.796,2.2151,0,0.00073166,7070,0.00028083,-27.605,0.00014622,-1039.1,-0.00072018,-7548.8,0.045228
337,3.1284,2.7984,0,0.00088232,8478.8,0.00029335,40.58,0.00026093,-203.04,-0.00085096,-8557.4,0.058389
338,2.8108,3.293,0,0.00076551,7271.3,0.00028606,184.73,0.00017639,-639.27,-0.00073185,-7463.5,0.046584
339,2.8268,2.7192,0.05,0.0008074,189.64,1.4572e-05,109.49,-1.6934e-12,1.2832e-05,-1.4572e-05,-109.49,0.046962
340,3.2934,2.1096,0,0.00090363,7930.2,0.00025894,-201.94,0.00024835,-281.48,-0.00080176,-8171.6,0.062894
341,2.2858,0.93633,0,0.00050892,5015.2,0.00017119,-38.855,0.00015253,-179.07,-0.00050542,-5122.7,0.026973
342,2.7537,1.2711,0,0.00057445,5675.3,0.00019461,44.936,0.0001793,-70.111,-0.00056827,-5687.1,0.040746
343,2.7423,0.83112,0.05,0.00049299,68.149,5.2366e-06,39.346,-1.1108e-21,-1.1779e-14,-5.2366e-06,-39.346,0.038252
344,3.2511,0.66556,0,0.00037802,2950.2,0.00011721,215.66,8.3015e-05,-41.282,-0.00029142,-2854.6,0.052061
345,2.7811,0.41556,0,0.0004428,4389.3,0.00017454,409.73,0.00013171,87.932,-0.00042988,-4131.6,0.036906
346,5.3341,0.57435,0,0.00040353,3870.3,0.00014605,126.71,0.00010791,-159.91,-0.00038706,-3878.9,0.18237
347,4.7304,0.69897,0,0.0004252,3874.5,0.00016258,399.33,0.00010439,-37.881,-0.00037972,-3675.3,0.13546
348,4.8595,0.49425,0.05,0.0003843,212.81,1.6353e-05,122.87,3.132e-13,-2.6062e-14,-1.6353e-05,-122.87,0.14371
349,4.3931,0.49713,0,0.00027833,2136.6,8.3533e-05,107.32,5.7897e-05,-85.299,-0.00021278,-2119,0.10788
350,4.9507,0.24713,0,0.00035784,3519.5,0.00012789,108.44,0.00010621,-54.462,-0.00035099,-3489.7,0.1488
351,2.9566,4.9112,0,0.0005506,5335.9,0.00019713,265.75,0.00016483,23.047,-0.00052863,-5187.3,0.045737
352,3.2352,4.4227,0,0.00083418,8087.6,0.00034817,762.61,0.00019449,-392.06,-0.0007968,-7840.2,0.057767
353,2.9399,4.2395,0,0.00067071,6355.3,0.00022383,279.55,0.00021183,189.42,-0.00062795,-6120.4,0.04857
354,3.085,4.6121,0.05,0.00061779,270.9,2.0816e-05,156.4,-1.4323e-12,-5.3027e-14,-2.0816e-05,-156.4,0.051421
355,3.4225,4.8061,0,0.00050639,4530,0.00018634,403.55,0.00012282,-73.724,-0.00044581,-4346.1,0.061408
356,2.4096,4.9058,0,0.00049751,4866.5,0.00017598,-92.555,0.0001255,-471.78,-0.00049548,-5137.6,0.030551
357,2.8282,5.2103,0.05,0.00048342,148.44,1.1406e-05,85.704,-2.4195e-21,-5.2452e-06,-1.1406e-05,-85.704,0.040253
358,3.2941,5.3552,0,0.00037408,3046.2,0.00012535,247.18,8.0167e-05,-92.303,-0.00030077,-2954.5,0.053032
359,2.8241,5.6052,0,0.00041815,4098.5,0.00014449,122.16,0.00013099,20.692,-0.0004076,-4026.1,0.037787
360,4.8721,4.8395,0,0.0005283,4621.6,0.00017882,139.76,0.00011978,-303.78,-0.00046367,-4687.6,0.15143
361,4.6922,5.2737,0,0.00039876,3572.5,0.00015899,391.87,8.144e-05,-190.77,-0.00035049,-3436.1,0.13458
362,4.5952,5.0715,0.05,0.00045622,312.66,2.4025e-05,180.52,-5.0961e-21,-2.3643e-06,-2.4025e-05,-180.52,0.12863
363,4.261,5.0358,0,0.00050131,3571.2,0.00023713,1447.4,2.4391e-05,-151.07,-0.00030737,-2643.8,0.10408
364,1.9404,3.9385,0,0.00053033,5230.1,0.00022127,-196.62,6.3831e-05,-1379.6,-0.00054005,-5916.9,0.021466
365,1.4249,3.3945,0,0.0006121,6079.4,0.00030918,418.51,3.1814e-05,-1665.5,-0.00060215,-6428.9,0.011653
366,1.8712,2.6961,0,0.00055291,5487.9,0.0002354,-216,5.9362e-05,-1538.7,-0.00056692,-6244.4,0.020333
367,1.8899,3.2756,0.05,0.00054905,46.301,3.5578e-06,26.732,-7.0998e-12,1.0153e-06,-3.5578e-06,-26.732,0.020768
368,1.4971,4.6678,0,0.00056091,5537.8,0.00026845,390.57,5.9124e-05,-1182.2,-0.00055061,-5763.5,0.011901
369,0.9816,4.1239,0,0.00064268,6385.4,0.00035648,1006.6,2.3667e-05,-1494,-0.0006094,-6250.6,0.0052679
370,1.0032,4.7344,0.05,0.00061021,23.067,1.7725e-06,13.318,-3.3388e-13,-2.8249e-15,-1.7725e-06,-13.318,0.005144
371,0.50159,4.7672,0,0.00049757,4859.8,0.00016729,-1342.9,1.7475e-05,-2468.6,-0.00054127,-6666.8,0.0012631
372,0.97159,5.3672,0,0.00062821,6187,0.00028525,702.09,0.00012402,-509.29,-0.00060688,-6001,0.0041623
373,1.3695,1.0945,0,0.0005632,5559.2,0.00025929,402.71,8.1943e-05,-929.78,-0.00055315,-5701.6,0.0096358
374,0.91559,1.732,0,0.00063571,6307.6,0.00035282,973.12,1.9301e-05,-1532.8,-0.00060219,-6202.4,0.0045468
375,0.90975,1.1475,0.05,0.00060153,29.048,2.2321e-06,16.771,-4.7345e-22,1.6564e-06,-2.2321e-06,-16.771,0.0041323
376,0.45487,1.1737,0,0.00049576,4838.4,0.00016394,-1391.3,1.7112e-05,-2494.5,-0.00054074,-6686,0.0010313
377,0.92487,0.57373,0,0.00062093,6119.1,0.00028237,693.66,0.00012209,-510.56,-0.00060026,-5938.1,0.0036657
378,5.3978,0.9433,0,0.00053429,4994.7,0.00016447,-196.21,0.0001477,-322.22,-0.00050852,-5252.8,0.19022
379,4.7941,1.0679,0,0.00055596,5009.3,0.00019344,169.92,0.00013229,-289.53,-0.00050173,-5053.3,0.14324
380,4.9869,1.2322,0.05,0.00064582,506.46,3.8916e-05,292.4,2.1717e-13,1.02e-06,-3.8916e-05,-292.4,0.15899
381,4.4568,1.3661,0,0.00062915,4830.1,0.00025962,1437.2,0.00011363,340.3,-0.00044367,-3847,0.12055
382,5.5031,4.8883,0,0.0005429,5055.2,0.00017447,-105.73,0.00014422,-333,-0.00051295,-5270.7,0.20138
383,5.1489,4.6074,0.05,0.00060038,489.45,3.7609e-05,282.58,-3.7898e-13,-2.3439e-06,-3.7609e-05,-282.58,0.17398
384,4.5378,4.5537,0,0.00062878,5207.7,0.00024364,1078.2,0.00014621,346.16,-0.00049303,-4456.8,0.12826
385,1.8409,1.5791,0,0.00054081,5368.7,0.00021125,-220.71,9.5083e-05,-1093.6,-0.00055425,-5972.4,0.018699
386,1.8293,1.0415,0.05,0.00052486,75.663,5.814e-06,43.684,-1.2332e-21,4.3284e-05,-5.814e-06,-43.684,0.017339
387,1.8547,0.52077,0,0.00053345,5303.5,0.00017183,-204.28,0.000162,-278.17,-0.00053888,-5544.3,0.016237
388,2.3929,4.234,0,0.00061761,6051.5,0.00022315,75.083,0.00016638,-351.48,-0.00060914,-6178.4,0.032179
389,1.991,4.6013,0.05,0.0005116,126.05,9.6856e-06,72.774,5.7275e-14,-1.3218e-05,-9.6856e-06,-72.774,0.021459
390,1.9355,5.3006,0,0.00052093,5143.7,0.00017401,-300.6,0.00013483,-594.96,-0.00052933,-5585.2,0.018436
391,6.2515,0.80737,0,0.00043892,4210.3,0.00016118,189.85,0.00011821,-132.99,-0.00041942,-4172.6,0.26226
392,5.8086,0.65444,0.05,0.00042276,299.44,2.3009e-05,172.88,3.3689e-13,-3.6671e-14,-2.3009e-05,-172.88,0.22254
393,5.9828,0.32722,0,0.00044283,4272.8,0.00016516,208.02,0.00011857,-141.99,-0.00042537,-4229,0.2352
394,5.3232,5.3225,0,0.00041336,3908.4,0.00014144,47.204,0.0001121,-173.28,-0.00039279,-3966.8,0.18409
395,4.7892,5.4758,0.05,0.0003413,176.35,1.3551e-05,101.82,-2.8744e-21,-2.1597e-14,-1.3551e-05,-101.82,0.14047
396,4.3579,5.4879,0,0.00025854,1941.5,7.836e-05,117.59,5.0051e-05,-95.121,-0.00019302,-1921.5,0.10728
397,4.9155,5.7379,0,0.00033003,3190.3,0.00011874,148.5,9.6047e-05,-21.979,-0.00031675,-3123.6,0.14832
398,0.94073,2.915,0,0.00067251,6692.3,0.00037829,982.23,4.9554e-06,-1822.9,-0.00063831,-6656.1,0.0049448
399,1.387,2.2166,0,0.00061332,6078.7,0.00030458,348.17,3.4337e-05,-1682.3,-0.00060498,-6485.9,0.010912
400,0.92144,2.3165,0.05,0.00066988,36.125,2.7759e-06,20.857,-6.5865e-13,-4.4241e-15,-2.7759e-06,-20.857,0.0046692
401,0.46072,2.3583,0,0.00052566,5146.5,0.00018939,-1370.3,-1.6315e-06,-2805.6,-0.00057079,-7082.1,0.0011466
402,0.96001,3.5135,0.05,0.00067515,13.521,1.039e-06,7.8065,4.7885e-13,-1.6559e-15,-1.039e-06,-7.8065,0.0051188
403,0.48,3.5567,0,0.0005317,5214,0.00018934,-1388.5,3.7218e-06,-2783.2,-0.00057854,-7158.1,0.0012586
404,6.7767,1.9097,0,0.00044071,4332.3,0.00016028,-48.959,0.00010839,-438.81,-0.00044051,-4563,0.3152
405,5.0893,2.378,0,0.00066475,6471.7,0.00023952,367.33,0.00020338,95.744,-0.00063931,-6235.9,0.17238
406,5.9403,2.6721,0,0.00052298,5130,0.00020764,-67.831,9.3948e-05,-922.08,-0.00052482,-5571.3,0.24174
407,5.9395,2.2461,0.05,0.00051078,157.53,1.2105e-05,90.949,-2.5676e-21,1.3083e-06,-1.2105e-05,-90.949,0.24091
408,8.3082,1.5535,0,0.00036854,3674.2,0.00012734,18.047,0.00011274,-91.614,-0.0003688,-3709.8,0.46653
409,7.4871,2.3005,0,0.00037884,3772.2,0.00012358,-81.462,0.00011877,-117.65,-0.00038085,-3871.6,0.38468
410,7.1541,1.2668,0,0.00041286,4051.5,0.00014331,153.27,0.00013169,65.952,-0.00040163,-3941.2,0.34863
411,7.6138,1.5734,0.05,0.00037064,90.066,6.9207e-06,52,-1.468e-21,-1.103e-14,-6.9207e-06,-52,0.39514
412,8.0006,0.78668,0,0.00038369,3825.2,0.00012829,30.659,0.0001258,11.972,-0.00038206,-3803.9,0.43082
413,9.6117,1.5344,0,0.00034713,3467.3,0.00011911,16.375,0.00010816,-65.866,-0.00034774,-3491.3,0.6104
414,8.8285,2.2765,0,0.00037098,3704.8,0.00013136,46.791,0.0001112,-104.63,-0.00037148,-3731.4,0.52453
415,9.0026,1.5336,0.05,0.00036643,7.9464,6.1061e-07,4.5879,-1.2952e-22,1.6991e-07,-6.1061e-07,-4.5879,0.54155
416,9.2526,0.76679,0,0.00035794,3575.7,0.00012319,21.302,0.00011134,-67.735,-0.00035853,-3598.1,0.56608
417,10.808,1.5375,0,0.00031301,3126.6,0.00010429,-9.2174,0.00010064,-36.612,-0.00031365,-3149.4,0.75298
418,10.057,2.2774,0,0.00033178,3313.5,0.00011137,-14.837,0.00010476,-64.525,-0.0003329,-3352.9,0.66435
419,10.221,1.5352,0.05,0.00032783,4.4271,3.4018e-07,2.556,2.5661e-14,3.8521e-07,-3.4018e-07,-2.556,0.68177
420,10.419,0.76762,0,0.00032501,3246.7,0.00010737,-8.0418,0.00010622,-16.711,-0.00032532,-3259.1,0.70238
421,11.978,1.5408,0,0.00028275,2824.3,9.4081e-05,1.2561,9.2003e-05,-14.358,-0.00028284,-2830.8,0.90104
422,11.243,2.2838,0,0.00030144,3010.5,0.00010179,7.1767,9.6045e-05,-35.969,-0.00030172,-3024.6,0.80886
423,11.396,1.5398,0.05,0.00029819,3.4057,2.617e-07,1.9663,-5.1178e-13,1.3701e-05,-2.617e-07,-1.9663,0.8263
424,11.564,0.76991,0,0.00029486,2945.2,9.7394e-05,0.17847,9.7044e-05,-2.4585,-0.00029476,-2946.3,0.84477
425,13.132,1.545,0,0.00025286,2525.5,8.361e-05,2.164,8.3241e-05,-0.60918,-0.0002527,-2524.7,1.0547
426,12.407,2.287,0,0.00027024,2698.3,8.9803e-05,-2.9253,8.7659e-05,-19.031,-0.00027039,-2709.3,0.95908
427,12.56,1.5417,0.05,0.00026732,1.4622,1.1235e-07,0.84417,-6.4971e-13,6.7033e-07,-1.1235e-07,-0.84417,0.97763
428,12.704,0.77084,0,0.00026422,2639.1,8.7239e-05,0.43473,8.704e-05,-1.0543,-0.0002641,-2639.4,0.99415
429,14.278,1.5241,0,0.00022218,2218.8,7.506e-05,20.112,7.2081e-05,-2.2733,-0.00022172,-2209.8,1.2139
430,13.565,2.2964,0,0.00024142,2410,8.07e-05,10.154,7.8626e-05,-5.4343,-0.00024108,-2407.6,1.1157
431,13.704,1.5483,0.05,0.00023841,1.5436,1.1861e-07,0.89118,2.4005e-14,-5.3607e-16,-1.1861e-07,-0.89118,1.1334
432,13.834,0.77417,0,0.00023465,2343.6,7.8442e-05,12.8,7.6789e-05,0.38469,-0.00023429,-2337,1.149
433,15.444,1.4207,0,0.0001929,1926,6.563e-05,17.052,6.1722e-05,-12.317,-0.00019263,-1923.4,1.3816
434,14.766,2.2864,0,0.00020655,2061.3,6.8505e-05,1.2771,6.7454e-05,-6.6214,-0.00020636,-2064,1.2849
435,14.852,1.4999,0.05,0.00020595,6.2629,4.8125e-07,3.6159,-3.1499e-14,-3.4809e-07,-4.8125e-07,-3.6159,1.2958
436,14.965,0.74994,0,0.00020335,2030.4,6.7894e-05,7.5268,6.6306e-05,-4.4025,-0.00020312,-2028.8,1.3099
437,16.657,1.2652,0,0.000165,1647.4,5.4796e-05,5.6585,5.4254e-05,1.5861,-0.00016473,-1643.8,1.5616
438,16.038,1.935,0,0.00018113,1803.4,6.2158e-05,29.428,5.7834e-05,-3.0593,-0.00018,-1790,1.4702
439,16.036,1.3415,0.05,0.00017985,5.2793,4.0566e-07,3.048,1.1074e-13,-2.2152e-07,-4.0566e-07,-3.048,1.4688
440,16.115,0.67074,0,0.00017882,1785.6,5.9787e-05,9.6964,5.8467e-05,-0.22146,-0.00017852,-1780.9,1.4786
441,17.839,1.1917,0,0.00013658,1363.4,4.5942e-05,15.07,4.4853e-05,6.8916,-0.00013606,-1352.4,1.7418
442,17.253,1.8034,0,0.00015019,1497.9,5.0819e-05,19.097,4.8921e-05,4.8317,-0.00014948,-1485.9,1.653
443,17.278,1.189,0.05,0.00015015,10.92,8.391e-07,6.3047,3.6647e-13,4.7946e-07,-8.391e-07,-6.3047,1.6556
444,17.293,0.59451,0,0.0001494,1492.1,4.9594e-05,4.6965,4.9157e-05,1.4119,-0.0001492,-1489,1.6565
445,18.961,1.1941,0,0.00011053,1103.1,3.8558e-05,24.968,3.5092e-05,-1.0716,-0.00010995,-1090.9,1.9165
446,18.385,1.7893,0,0.00012354,1232.2,4.2709e-05,23.847,3.9451e-05,-0.63363,-0.00012289,-1220.4,1.8274
447,18.4,1.1945,0.05,0.00012302,4.2316,3.2516e-07,2.4431,-6.8971e-23,2.3824e-07,-3.2516e-07,-2.4431,1.8288
448,18.412,0.59724,0,0.00012255,1223.6,4.1932e-05,17.205,3.9397e-05,-1.8405,-0.00012217,-1215.8,1.8294
449,20.081,1.1922,0,8.5759e-05,855.32,3.1255e-05,36.238,2.643e-05,-0.013361,-8.4918e-05,-836.64,2.0937
450,19.511,1.7905,0,9.8299e-05,979.69,3.5167e-05,34.07,3.068e-05,0.35104,-9.7408e-05,-962.05,2.0042
451,19.521,1.1938,0.05,9.8041e-05,2.2459,1.7258e-07,1.2967,4.8937e-14,-4.3037e-07,-1.7258e-07,-1.2967,2.0048
452,19.53,0.59689,0,9.7219e-05,970.16,3.3941e-05,23.061,3.0916e-05,0.33,-9.6666e-05,-958.27,2.0052
453,21.199,1.1913,0,6.1816e-05,615.92,2.4449e-05,49.665,1.7812e-05,-0.2016,-6.0641e-05,-589.67,2.2728
454,20.629,1.7911,0,7.4166e-05,738.3,2.8353e-05,47.861,2.195e-05,-0.24737,-7.2953e-05,-713.31,2.182
455,20.641,1.1907,0.05,7.3478e-05,2.0385,1.5664e-07,1.1769,-3.3225e-23,-5.4582e-07,-1.5664e-07,-1.1769,2.1831
456,20.648,0.59535,0,7.2408e-05,721.92,2.6174e-05,28.061,2.243e-05,-0.068685,-7.1724e-05,-707.51,2.1832
457,22.318,1.1935,0,3.9428e-05,391.46,1.8735e-05,71.434,9.2229e-06,-0.038689,-3.7466e-05,-350.84,2.4533
458,21.748,1.7909,0,5.1289e-05,509.67,2.2511e-05,69.308,1.3269e-05,-0.13702,-4.9469e-05,-471.53,2.3619
459,21.758,1.192,0.05,5.0155e-05,2.7913,2.1448e-07,1.6115,-1.804e-22,-3.5179e-07,-2.1448e-07,-1.6115,2.3628
460,21.764,0.59599,0,4.8451e-05,481.8,1.8816e-05,35.396,1.416e-05,0.41013,-4.7508e-05,-462.94,2.3629
461,22.872,1.7941,0,3.0477e-05,302.41,1.8255e-05,104.4,4.3541e-06,-0.042006,-2.7101e-05,-236.38,2.5437
462,22.878,1.1951,0.05,2.87e-05,4.0989,3.1497e-07,2.3665,-1.2397e-14,-1.4039e-06,-3.1496e-07,-2.3665,2.5441
463,23.439,1.1975,0,2.157e-05,200.05,1.5297e-05,114.46,8.3437e-08,0.15269,-1.5446e-05,-116.53,2.6352
464,22.881,0.59753,0,2.5517e-05,250.59,1.2182e-05,48.242,5.7857e-06,0.18178,-2.3904e-05,-222.89,2.5439
465,22.865,2.9971,0,3.2297e-05,321.31,2.0397e-05,124.51,3.8336e-06,0.058401,-2.8172e-05,-240.42,2.5434
466,22.303,2.3915,0,4.2339e-05,419.91,2.2213e-05,103.65,8.3983e-06,-0.15215,-3.9285e-05,-358.43,2.4519
467,22.867,2.3931,0.05,3.2255e-05,4.1481,3.1875e-07,2.3949,4.5475e-13,-9.5367e-07,-3.1875e-07,-2.3949,2.5433
468,23.433,2.3966,0,2.5395e-05,239.04,1.946e-05,154.85,-1.0897e-06,0.4464,-1.7186e-05,-120.5,2.6353
469,22.867,4.1982,0,3.0624e-05,303.9,1.833e-05,104.74,4.3884e-06,-0.017515,-2.7242e-05,-237.68,2.5439
470,22.302,3.5992,0,4.2368e-05,420.25,2.2237e-05,103.8,8.3999e-06,-0.16787,-3.9314e-05,-358.67,2.4523
471,22.863,3.6011,0.05,3.234e-05,4.2221,3.2443e-07,2.4376,1.2639e-14,-9.3903e-07,-3.2443e-07,-2.4376,2.5433
472,23.432,3.6005,0,2.5436e-05,239.49,1.9475e-05,154.77,-1.0749e-06,0.36785,-1.7242e-05,-121.11,2.6355
473,22.311,4.7966,0,3.9614e-05,393.34,1.8832e-05,71.829,9.2589e-06,-0.10076,-3.7644e-05,-352.51,2.4537
474,22.871,4.7953,0.05,2.8909e-05,4.0757,3.1318e-07,2.3531,-2.3955e-15,1.0073e-06,-3.1318e-07,-2.3531,2.5445
475,22.878,5.3977,0,2.5628e-05,251.74,1.2242e-05,48.491,5.8077e-06,0.14672,-2.4013e-05,-223.92,2.5454
476,23.436,4.7977,0,2.1683e-05,201.18,1.536e-05,114.8,1.1341e-07,0.24279,-1.5557e-05,-117.5,2.6361
477,21.188,4.7954,0,6.2113e-05,618.9,2.4597e-05,50.261,1.7879e-05,-0.21694,-6.0926e-05,-592.33,2.2724
478,21.746,4.1975,0,5.1358e-05,510.39,2.2557e-05,69.527,1.3272e-05,-0.24221,-4.9536e-05,-472.15,2.3625
479,21.751,4.7978,0.05,5.0319e-05,2.8071,2.157e-07,1.6207,2.7352e-13,1.5715e-06,-2.157e-07,-1.6207,2.3632
480,21.761,5.3989,0,4.8539e-05,482.67,1.8864e-05,35.611,1.4175e-05,0.38548,-4.7591e-05,-463.7,2.3644
481,20.067,4.7912,0,8.6061e-05,858.39,3.1457e-05,37.432,2.6466e-05,-0.065897,-8.5201e-05,-839.09,2.0929
482,20.623,4.1933,0,7.4348e-05,740.12,2.8434e-05,48.394,2.2026e-05,0.24748,-7.3118e-05,-714.63,2.182
483,20.625,4.793,0.05,7.3907e-05,2.2619,1.7381e-07,1.3059,-7.9433e-14,-7.5245e-07,-1.7381e-07,-1.3059,2.182
484,20.64,5.3965,0,7.2568e-05,723.51,2.6261e-05,28.365,2.2453e-05,-0.2464,-7.188e-05,-709.03,2.1839
485,18.954,4.7914,0,0.00011072,1105,3.871e-05,27,3.519e-05,0.55048,-0.00011008,-1091,1.9169
486,19.504,4.1879,0,9.8434e-05,980.99,3.536e-05,35.222,3.0569e-05,-0.77545,-9.7531e-05,-963.27,2.004
487,19.509,4.7893,0.05,9.8216e-05,2.2226,1.7079e-07,1.2832,1.2412e-15,-9.6278e-07,-1.7079e-07,-1.2832,2.0044
488,19.524,5.3947,0,9.7307e-05,971.07,3.4028e-05,23.897,3.0926e-05,0.58452,-9.6737e-05,-958.62,2.0062
489,17.856,4.8044,0,0.00013638,1361.3,4.6923e-05,25.037,4.391e-05,2.4031,-0.00013574,-1347.5,1.7458
490,18.386,4.1884,0,0.00012379,1234.6,4.2918e-05,27.36,3.9632e-05,2.6713,-0.00012302,-1219.4,1.8286
491,18.398,4.7934,0.05,0.00012322,3.5983,2.7649e-07,2.0775,-1.2117e-14,-2.3825e-07,-2.7649e-07,-2.0775,1.83
492,18.411,5.3967,0,0.00012247,1222.8,4.2234e-05,20.939,3.9155e-05,-2.1928,-0.00012203,-1213.3,1.8312
493,16.774,4.8477,0,0.00016176,1613.7,5.481e-05,16.488,5.2221e-05,-2.9662,-0.00016124,-1606.8,1.5805
494,17.293,4.2174,0,0.00014863,1481.9,5.1102e-05,22.499,4.7325e-05,-5.8835,-0.00014799,-1473.4,1.66
495,17.313,4.8153,0.05,0.00014953,11.364,8.732e-07,6.5609,-1.8522e-22,-3.6875e-07,-8.732e-07,-6.5609,1.6624
496,17.311,5.4077,0,0.00014862,1484,4.9635e-05,9.715,4.8835e-05,3.7048,-0.00014828,-1477.3,1.6611
497,15.671,4.8956,0,0.00018756,1870.6,6.2897e-05,5.1953,6.0347e-05,-13.966,-0.00018733,-1875,1.4156
498,16.213,4.2932,0,0.00017343,1724.8,5.7695e-05,4.027,5.6078e-05,-8.1238,-0.00017266,-1726.8,1.4969
499,16.236,4.8801,0.05,0.00017398,12.178,9.3575e-07,7.0309,1.4891e-24,-1.9073e-06,-9.3575e-07,-7.0309,1.4995
500,16.215,5.4401,0,0.00017583,1755.1,5.9928e-05,22.69,5.6696e-05,-1.5953,-0.00017526,-1744.4,1.4951
501,14.611,4.7681,0,0.00021527,2147.7,7.2991e-05,17.177,6.8995e-05,-12.848,-0.00021483,-2145.4,1.2618
502,15.223,4.4083,0,0.0002032,2025.8,6.8068e-05,12.664,6.6081e-05,-2.2658,-0.00020254,-2020.6,1.3509
503,15.105,4.9111,0.05,0.00020115,8.4991,6.5308e-07,4.907,6.8638e-13,7.1972e-07,-6.5308e-07,-4.907,1.3328
504,15.092,5.4555,0,0.0002018,2013.9,6.6784e-05,-5.7377,6.5503e-05,-15.367,-0.00020188,-2024.4,1.3295
505,13.611,4.5721,0,0.00024102,2406.7,8.101e-05,16.688,7.841e-05,-2.8448,-0.0002406,-2399.7,1.1214
506,14.398,3.8491,0,0.00021827,2176.6,7.199e-05,-1.7267,7.1529e-05,-5.1914,-0.00021793,-2180.1,1.2328
507,14.116,4.6251,0.05,0.00022939,5.9141,4.5445e-07,3.4145,-7.2301e-14,-3.0325e-07,-4.5445e-07,-3.4145,1.1919
508,14.04,5.3125,0,0.00023089,2305.8,7.776e-05,22.595,7.5481e-05,5.4728,-0.00023026,-2291.7,1.1794
509,12.535,4.5243,0,0.00026783,2675.2,8.8613e-05,0.13716,8.7901e-05,-5.2137,-0.00026779,-2677.8,0.97538
510,13.265,3.7817,0,0.00024854,2481,8.2943e-05,8.0669,8.0958e-05,-6.8503,-0.00024825,-2480.4,1.075
511,13.105,4.5191,0.05,0.00025264,2.9502,2.2669e-07,1.7033,-2.2339e-13,6.0625e-08,-2.2669e-07,-1.7033,1.0521
512,12.977,5.2596,0,0.00025609,2558.2,8.4413e-05,-3.4945,8.4269e-05,-4.5741,-0.00025613,-2562.2,1.0326
513,11.39,4.5257,0,0.00029818,2978.6,9.9091e-05,-4.1964,9.6747e-05,-21.805,-0.00029851,-2991.6,0.82664
514,12.11,3.7809,0,0.00027809,2777,9.2561e-05,-2.8845,8.9988e-05,-22.212,-0.00027831,-2789.5,0.92051
515,11.965,4.5295,0.05,0.00028301,1.8656,1.4336e-07,1.0771,-7.1608e-14,-6.7099e-07,-1.4336e-07,-1.0771,0.90039
516,11.849,5.2647,0,0.00028692,2866.2,9.4979e-05,1.2922,9.4215e-05,-4.4501,-0.00028687,-2867.8,0.88308
517,10.23,4.5123,0,0.00032912,3288,0.00011093,1.7053,0.00010475,-44.723,-0.00032973,-3309.2,0.68397
518,10.952,3.7749,0,0.00030902,3086.6,0.00010404,1.691,9.8497e-05,-39.963,-0.0003095,-3105.5,0.77316
519,10.815,4.522,0.05,0.00031335,3.0171,2.3184e-07,1.7419,-4.9176e-23,-2.0057e-15,-2.3184e-07,-1.7419,0.75481
520,10.716,5.261,0,0.00031771,3173.9,0.00010518,1.1496,0.00010429,-5.589,-0.00031768,-3176.1,0.74023
521,9.0377,4.4959,0,0.00035866,3582.7,0.00012393,17.792,0.00011037,-84.084,-0.00035953,-3614.7,0.54657
522,9.7693,3.7612,0,0.00034031,3399.6,0.00011576,1.603,0.00010647,-68.166,-0.00034128,-3432.4,0.63118
523,9.6453,4.5027,0.05,0.0003449,8.0666,6.1985e-07,4.6573,-1.2657e-14,-3.4883e-07,-6.1985e-07,-4.6573,0.61532
524,9.5739,5.2513,0,0.00034794,3475.9,0.00011545,-15.007,0.00011228,-38.865,-0.00034874,-3502.8,0.60442
525,7.7409,4.4834,0,0.00038976,3856.8,0.00013766,117.74,0.0001206,-10.462,-0.00038396,-3801.5,0.40887
526,8.5422,3.7543,0,0.00037398,3735.1,0.00013174,31.439,0.00011185,-118.01,-0.00037502,-3776.2,0.49403
527,8.43,4.4892,0.05,0.00037243,13.309,1.0227e-06,7.6839,-2.1692e-22,-8.6077e-15,-1.0227e-06,-7.6839,0.48043
528,8.4087,5.2446,0,0.00038207,3815.5,0.00012828,36.541,0.00012549,15.538,-0.00038092,-3789.4,0.47527
529,6.4545,4.8234,0,0.00044625,4306.2,0.00015147,28.944,0.000129,-139.91,-0.00043256,-4359.2,0.28408
530,7.2061,3.7527,0,0.00039707,3926,0.00013523,46.372,0.00012442,-34.863,-0.00039261,-3919.6,0.35757
531,7.0517,4.4777,0.05,0.00040709,26.757,2.056e-06,15.448,2.2715e-13,5.9547e-07,-2.056e-06,-15.448,0.34104
532,7.162,5.2388,0,0.0003879,3825.3,0.00013729,23.869,0.00010964,-183.87,-0.0003851,-3901.1,0.34848
533,5.8573,5.1692,0.05,0.00048542,297.83,2.2886e-05,171.95,-4.8544e-21,-8.4893e-14,-2.2886e-05,-171.95,0.22952
534,6.0072,5.5846,0,0.00046761,4549.5,0.00016728,70.086,0.00012722,-230.91,-0.00045725,-4622.4,0.23997
535,8.0074,3.0236,0,0.00038129,3803.3,0.00012853,-45.785,0.0001164,-136.93,-0.00038362,-3893.9,0.43813
536,6.6507,3.0629,0,0.00046111,4549.7,0.00017206,-91.977,0.00010306,-610.43,-0.00046501,-4878.7,0.30543
537,7.3604,3.0277,0.05,0.00038704,70.881,5.4465e-06,40.923,-2.3085e-14,9.3376e-07,-5.4465e-06,-40.923,0.37298
538,16.634,2.4731,0,0.00016632,1657.5,5.8407e-05,44.563,5.2572e-05,0.72114,-0.00016505,-1634.4,1.56
539,16.115,3.1173,0,0.00017764,1766.4,5.9564e-05,21.873,5.8253e-05,12.027,-0.00017619,-1749.5,1.4828
540,15.359,2.8007,0,0.00019478,1941.6,6.5226e-05,15.107,6.3626e-05,3.0882,-0.00019398,-1932.5,1.3714
541,16.039,2.5285,0.05,0.0001824,1.5984,1.2282e-07,0.92282,-2.6367e-14,-6.137e-07,-1.2282e-07,-0.92282,1.4712
542,17.798,2.401,0,0.00013715,1368.9,4.7735e-05,28.986,4.3566e-05,-2.3369,-0.00013651,-1355.3,1.7374
543,17.25,3.0187,0,0.00014899,1485.7,5.1471e-05,22.516,4.7031e-05,-10.843,-0.00014845,-1479.6,1.6538
544,17.228,2.4178,0.05,0.00015023,6.5103,5.0025e-07,3.7587,-4.8355e-14,-8.6413e-07,-5.0025e-07,-3.7587,1.6499
545,18.936,2.3857,0,0.00011131,1111,3.9513e-05,34.411,3.5037e-05,0.78293,-0.00011054,-1093,1.9142
546,18.371,2.9838,0,0.00012421,1238.6,4.3372e-05,31.381,3.958e-05,2.8833,-0.00012334,-1221.2,1.8264
547,18.369,2.3841,0.05,0.00012406,1.456,1.1188e-07,0.84064,7.0477e-14,-3.5009e-07,-1.1188e-07,-0.84064,1.8257
548,20.06,2.3893,0,8.6705e-05,865.06,3.2485e-05,47.34,2.6199e-05,0.11056,-8.5662e-05,-840.37,2.0918
549,19.501,2.9869,0,9.8604e-05,982.72,3.5677e-05,38.374,3.0469e-05,-0.7552,-9.7641e-05,-963.32,2.0035
550,19.502,2.3873,0.05,9.8557e-05,2.6703,2.0518e-07,1.5417,4.9785e-14,1.6862e-07,-2.0518e-07,-1.5417,2.0033
551,21.178,2.3907,0,6.3639e-05,634.25,2.6643e-05,69.218,1.7406e-05,-0.18969,-6.2008e-05,-596.88,2.2706
552,20.619,2.9925,0,7.4821e-05,745.2,2.9151e-05,55.193,2.1859e-05,0.40284,-7.3475e-05,-715.89,2.1814
553,20.618,2.3914,0.05,7.4854e-05,2.8695,2.205e-07,1.6567,3.5634e-14,1.9495e-07,-2.205e-07,-1.6567,2.1808
554,21.739,2.9936,0,5.241e-05,521.55,2.3935e-05,82.052,1.2965e-05,-0.37292,-5.031e-05,-475.8,2.3613
555,21.739,2.3899,0.05,5.2423e-05,3.4541,2.6542e-07,1.9943,7.8643e-15,1.9997e-07,-2.6542e-07,-1.9943,2.3608
556,21.18,3.5954,0,6.3593e-05,633.8,2.6623e-05,69.379,1.7418e-05,0.21856,-6.1956e-05,-596.17,2.2714
557,21.74,3.5972,0.05,5.2397e-05,3.5527,2.7299e-07,2.0511,1.3341e-15,1.91e-06,-2.7299e-07,-2.0511,2.3615
558,20.06,3.59,0,8.672e-05,865.25,3.2564e-05,47.894,2.6128e-05,-0.46208,-8.5676e-05,-840.52,2.0923
559,20.621,3.5935,0.05,7.4789e-05,2.7472,2.111e-07,1.5861,1.4661e-14,-2.6077e-07,-2.111e-07,-1.5861,2.1817
560,18.936,3.585,0,0.0001115,1113.1,3.9785e-05,37.217,3.5011e-05,1.3442,-0.00011068,-1093.3,1.9148
561,19.499,3.5865,0.05,9.8651e-05,2.4237,1.8624e-07,1.3993,5.4325e-14,4.3748e-07,-1.8624e-07,-1.3993,2.0034
562,17.823,3.6015,0,0.00013605,1358,4.7339e-05,26.638,4.3045e-05,-5.6246,-0.0001355,-1347.2,1.7417
563,18.373,3.5834,0.05,0.00012436,3.1328,2.4072e-07,1.8087,1.1869e-13,8.3749e-08,-2.4072e-07,-1.8087,1.8268
564,16.731,3.6629,0,0.00016031,1595.3,5.2974e-05,2.4294,5.2406e-05,-1.8325,-0.00015963,-1595,1.5751
565,17.273,3.6195,0.05,0.00014774,8.266,6.3516e-07,4.7724,-4.5378e-13,-1.3705e-06,-6.3516e-07,-4.7724,1.6573
566,15.766,3.8058,0,0.00018906,1880.6,6.3599e-05,17.007,6.1129e-05,-1.555,-0.00018792,-1872.8,1.4309
567,16.19,3.7062,0.05,0.00017288,8.0431,6.1803e-07,4.6437,-7.9524e-15,-1.3342e-07,-6.1803e-07,-4.6437,1.4939
568,15.01,3.4892,0,0.0002062,2054.5,6.8813e-05,6.8769,6.6839e-05,-7.9564,-0.00020561,-2055,1.3208
569,15.341,3.9055,0.05,0.00020524,19.057,1.4644e-06,11.003,3.6603e-14,3.0705e-07,-1.4644e-06,-11.003,1.3686
570,14.053,3.0587,0,0.00022579,2254.3,7.6149e-05,6.3748,7.2133e-05,-23.797,-0.00022586,-2262.8,1.1843
571,14.679,3.073,0.05,0.00020715,20.865,1.6033e-06,12.046,-5.0818e-15,1.9026e-07,-1.6033e-06,-12.046,1.2732
572,12.84,3.0383,0,0.0002588,2584.9,8.6901e-05,5.1275,8.3221e-05,-22.527,-0.00025895,-2593.5,1.0175
573,13.426,3.0444,0.05,0.00024443,3.6974,2.8411e-07,2.1347,-7.1117e-15,-3.9771e-08,-2.8411e-07,-2.1347,1.0972
574,11.672,3.03,0,0.00028893,2886.3,9.751e-05,2.9968,9.1864e-05,-39.418,-0.00028943,-2904.3,0.8641
575,12.255,3.0322,0.05,0.00027317,5.0853,3.9075e-07,2.936,-8.2885e-23,-3.1387e-07,-3.9075e-07,-2.936,0.93966
576,10.491,3.0237,0,0.00032021,3199,0.00010887,1.557,0.0001003,-62.807,-0.00032112,-3229.2,0.71706
577,11.089,3.0278,0.05,0.0003047,4.2568,3.2709e-07,2.4577,-7.7214e-14,2.3509e-07,-3.2709e-07,-2.4577,0.79046
578,9.2738,3.0196,0,0.00035563,3552.4,0.00012361,15.472,0.00010798,-101.96,-0.00035681,-3594.2,0.57484
579,9.8933,3.0196,0.05,0.00033573,9.7748,7.511e-07,5.6435,-6.5278e-14,-5.4759e-07,-7.511e-07,-5.6435,0.64592
580,8.6543,3.0195,0.05,0.00037553,15.533,1.1936e-06,8.9682,5.3334e-14,1.5659e-06,-1.1936e-06,-8.9682,0.50643
581,2.3088,1.9138,0,0.00060634,5965.2,0.00023198,-157.14,0.0001196,-1001.6,-0.00061214,-6499.6,0.03023
582,2.7651,1.7111,0.05,0.00065591,144.51,1.1104e-05,83.431,2.4861e-14,-6.2663e-14,-1.1104e-05,-83.431,0.042741
583,3.2626,1.3555,0,0.00062268,5182.3,0.00023237,784.7,0.00013622,62.271,-0.00050039,-4720.9,0.057398
584,3.3853,4.2334,0.05,0.0010506,1405.1,0.00010797,811.24,1.0698e-12,8.9741e-06,-0.00010797,-811.24,0.064503
585,3.5727,4.3667,0,0.0010351,8180.1,0.00056616,3866.2,6.3713e-05,90.986,-0.00068304,-5519.8,0.070809
586,4.6012,0.9037,0.05,0.00046611,294.99,2.2667e-05,170.31,3.3009e-13,4.1535e-06,-2.2667e-05,-170.31,0.12723
587,4.264,0.95185,0,0.00045926,3515.1,0.00020925,1111,4.5861e-05,-116.68,-0.00031836,-2853.3,0.10264
588,4.1118,2.5634,0,0.00095959,9375.7,0.00045699,2198.8,0.00025369,671.29,-0.00088,-7846.8,0.1061
589,3.9845,2.6167,0.05,0.0011005,773.67,5.9449e-05,446.68,-1.261e-20,-9.4747e-14,-5.9449e-05,-446.68,0.098779
590,3.8722,2.3084,0,0.0017302,16164,0.0005659,-151.69,0.00046454,-913.23,-0.0016343,-16683,0.090653
591,4.3167,2.8298,0,0.00078756,7600,0.00032416,1353.4,0.00024987,795.2,-0.00072243,-6510.2,0.11955
592,4.2391,2.51,0.05,0.00081872,511.66,3.9316e-05,295.41,-2.7039e-12,-3.5899e-05,-3.9316e-05,-295.41,0.11362
593,4.0829,2.255,0,0.0012325,12016,0.00049891,669.04,0.00027808,-990.2,-0.0011993,-12090,0.10257
594,5.1676,3.1238,0,0.00064578,6249.1,0.00022317,398.95,0.00021447,333.6,-0.00061286,-5882.6,0.17935
595,4.3942,3.1495,0.05,0.00075639,348.75,2.6798e-05,201.35,3.933e-12,3.0131e-06,-2.6798e-05,-201.35,0.12467
596,4.1605,3.5747,0,0.0011312,10931,0.00043004,431.41,0.00028002,-695.73,-0.001094,-11019,0.10874
597,5.941,3.0982,0.05,0.00053517,234.77,1.804e-05,135.55,-1.9628e-13,-1.5436e-06,-1.804e-05,-135.55,0.24215
598,3.4301,2.8776,0.05,0.00095724,375.86,2.8881e-05,217,1.9286e-12,7.1903e-06,-2.8881e-05,-217,0.071203
599,3.595,2.4388,0,0.0016586,16149,0.00056355,-516.49,0.00043299,-1497.5,-0.001648,-17133,0.077438
600,1.8525,2.1166,0.05,0.00055676,105.86,8.1343e-06,61.118,4.7078e-12,3.5846e-05,-8.1343e-06,-61.118,0.019561
601,6.6943,0.96031,0.05,0.00045508,42.007,3.2278e-06,24.253,-6.8467e-22,6.0918e-05,-3.2278e-06,-24.253,0.30342
602,6.9833,0.48015,0,0.00039551,3866,0.00013804,43.197,0.00011383,-138.72,-0.00038817,-3910.5,0.32774
603,2.7948,3.8668,0.05,0.00072362,280.91,2.1585e-05,162.18,-4.324e-14,1.1728e-06,-2.1585e-05,-162.18,0.045088
604,2.3929,4.234,0.1,0.00061761,6051.5,0.00060914,6178.4,-0.00016638,351.48,-0.00022315,-75.083,0.032179
605,2.9399,4.2395,0.1,0.00067071,6355.3,0.00062795,6120.4,-0.00021183,-189.42,-0.00022383,-279.55,0.04857
606,2.8108,3.293,0.1,0.00076551,7271.3,0.00073185,7463.5,-0.00017639,639.27,-0.00028606,-184.73,0.046584
607,3.0487,3.7406,0.1,0.00083338,8144,0.00079783,7653.4,-0.00025977,-292.99,-0.00031058,-674.75,0.054296
608,7.1541,1.2668,0.1,0.00041286,4051.5,0.00040163,3941.2,-0.00013169,-65.952,-0.00014331,-153.27,0.34863
609,6.2515,0.80737,0.1,0.00043892,4210.3,0.00041942,4172.6,-0.00011821,132.99,-0.00016118,-189.85,0.26226
610,6.1244,1.295,0.1,0.00046968,4392.6,0.00043686,4313.1,-0.00014597,-66.012,-0.00014955,-92.88,0.25366
611,6.9833,0.48015,0.1,0.00039551,3866,0.00038817,3910.5,-0.00011383,138.72,-0.00013804,-43.197,0.32774
612,2.3088,1.9138,0.1,0.00060634,5965.2,0.00061214,6499.6,-0.0001196,1001.6,-0.00023198,157.14,0.03023
613,1.387,2.2166,0.1,0.00061332,6078.7,0.00060498,6485.9,-3.4337e-05,1682.3,-0.00030458,-348.17,0.010912
614,1.8409,1.5791,0.1,0.00054081,5368.7,0.00055425,5972.4,-9.5083e-05,1093.6,-0.00021125,220.71,0.018699
615,1.8712,2.6961,0.1,0.00055291,5487.9,0.00056692,6244.4,-5.9362e-05,1538.7,-0.0002354,216,0.020333
616,3.1284,2.7984,0.1,0.00088232,8478.8,0.00085096,8557.4,-0.00026093,203.04,-0.00029335,-40.58,0.058389
617,3.3663,3.246,0.1,0.00095019,8979.9,0.00087864,8459.5,-0.00025166,-33.071,-0.00037223,-939,0.068197
618,3.638,3.0048,0.1,0.0010751,10509,0.0010245,9888,-0.00025676,260.78,-0.00046749,-1322.6,0.081075
619,3.595,2.4388,0.1,0.0016586,16149,0.001648,17133,-0.00043299,1497.5,-0.00056355,516.49,0.077438
620,5.1676,3.1238,0.1,0.00064578,6249.1,0.00061286,5882.6,-0.00021447,-333.6,-0.00022317,-398.95,0.17935
621,6.6507,3.0629,0.1,0.00046111,4549.7,0.00046501,4878.7,-0.00010306,610.43,-0.00017206,91.977,0.30543
622,5.9403,2.6721,0.1,0.00052298,5130,0.00052482,5571.3,-9.3948e-05,922.08,-0.00020764,67.831,0.24174
623,5.7911,3.5089,0.1,0.00053335,5001.8,0.00050525,5153.7,-0.0001397,307.8,-0.00017941,9.4157,0.2294
624,4.3167,2.8298,0.1,0.00078756,7600,0.00072243,6510.2,-0.00024987,-795.2,-0.00032416,-1353.4,0.11955
625,4.1201,3.1407,0.1,0.00097465,9522.8,0.00091636,8575.4,-0.0002565,-237.1,-0.0004281,-1526.4,0.10758
626,4.1605,3.5747,0.1,0.0011312,10931,0.001094,11019,-0.00028002,695.73,-0.00043004,-431.41,0.10874
627,4.1118,2.5634,0.1,0.00095959,9375.7,0.00088,7846.8,-0.00025369,-671.29,-0.00045699,-2198.8,0.1061
628,5.0893,2.378,0.1,0.00066475,6471.7,0.00063931,6235.9,-0.00020338,-95.744,-0.00023952,-367.33,0.17238
629,4.0829,2.255,0.1,0.0012325,12016,0.0011993,12090,-0.00027808,990.2,-0.00049891,-669.04,0.10257
630,3.9152,2.8744,0.1,0.0011467,11034,0.00105,9732,-0.00025979,-109.14,-0.00053751,-2195.9,0.095592
631,3.8722,2.3084,0.1,0.0017302,16164,0.0016343,16683,-0.00046454,913.23,-0.0005659,151.69,0.090653
632,4.7941,1.0679,0.1,0.00055596,5009.3,0.00050173,5053.3,-0.00013229,289.53,-0.00019344,-169.92,0.14324
633,4.7304,0.69897,0.1,0.0004252,3874.5,0.00037972,3675.3,-0.00010439,37.881,-0.00016258,-399.33,0.13546
634,4.264,0.95185,0.1,0.00045926,3515.1,0.00031836,2853.3,-4.5861e-05,116.68,-0.00020925,-1111,0.10264
635,3.2352,4.4227,0.1,0.00083418,8087.6,0.0007968,7840.2,-0.00019449,392.06,-0.00034817,-762.61,0.057767
636,3.344,3.9239,0.1,0.00099686,9547.8,0.00093758,9154.6,-0.00023678,330.9,-0.00041146,-981.55,0.064845
637,3.5727,4.3667,0.1,0.0010351,8180.1,0.00068304,5519.8,-6.3713e-05,-90.986,-0.00056616,-3866.2,0.070809
638,2.7537,1.2711,0.1,0.00057445,5675.3,0.00056827,5687.1,-0.0001793,70.111,-0.00019461,-44.936,0.040746
639,2.796,2.2151,0.1,0.00073166,7070,0.00072018,7548.8,-0.00014622,1039.1,-0.00028083,27.605,0.045228
640,3.2626,1.3555,0.1,0.00062268,5182.3,0.00050039,4720.9,-0.00013622,-62.271,-0.00023237,-784.7,0.057398
641,9.2738,3.0196,0.1,0.00035563,3552.4,0.00035681,3594.2,-0.00010798,101.96,-0.00012361,-15.472,0.57484
642,8.0074,3.0236,0.1,0.00038129,3803.3,0.00038362,3893.9,-0.0001164,136.93,-0.00012853,45.785,0.43813
643,8.5422,3.7543,0.1,0.00037398,3735.1,0.00037502,3776.2,-0.00011185,118.01,-0.00013174,-31.439,0.49403
644,8.8285,2.2765,0.1,0.00037098,3704.8,0.00037148,3731.4,-0.0001112,104.63,-0.00013136,-46.791,0.52453
645,10.491,3.0237,0.1,0.00032021,3199,0.00032112,3229.2,-0.0001003,62.807,-0.00010887,-1.557,0.71706
646,9.7693,3.7612,0.1,0.00034031,3399.6,0.00034128,3432.4,-0.00010647,68.166,-0.00011576,-1.603,0.63118
647,10.057,2.2774,0.1,0.00033178,3313.5,0.0003329,3352.9,-0.00010476,64.525,-0.00011137,14.837,0.66435
648,11.672,3.03,0.1,0.00028893,2886.3,0.00028943,2904.3,-9.1864e-05,39.418,-9.751e-05,-2.9968,0.8641
649,10.952,3.7749,0.1,0.00030902,3086.6,0.0003095,3105.5,-9.8497e-05,39.963,-0.00010404,-1.691,0.77316
650,11.243,2.2838,0.1,0.00030144,3010.5,0.00030172,3024.6,-9.6045e-05,35.969,-0.00010179,-7.1767,0.80886
651,12.84,3.0383,0.1,0.0002588,2584.9,0.00025895,2593.5,-8.3221e-05,22.527,-8.6901e-05,-5.1275,1.0175
652,12.11,3.7809,0.1,0.00027809,2777,0.00027831,2789.5,-8.9988e-05,22.212,-9.2561e-05,2.8845,0.92051
653,12.407,2.287,0.1,0.00027024,2698.3,0.00027039,2709.3,-8.7659e-05,19.031,-8.9803e-05,2.9253,0.95908
654,14.053,3.0587,0.1,0.00022579,2254.3,0.00022586,2262.8,-7.2133e-05,23.797,-7.6149e-05,-6.3748,1.1843
655,13.265,3.7817,0.1,0.00024854,2481,0.00024825,2480.4,-8.0958e-05,6.8503,-8.2943e-05,-8.0669,1.075
656,13.565,2.2964,0.1,0.00024142,2410,0.00024108,2407.6,-7.8626e-05,5.4343,-8.07e-05,-10.154,1.1157
657,15.01,3.4892,0.1,0.0002062,2054.5,0.00020561,2055,-6.6839e-05,7.9564,-6.8813e-05,-6.8769,1.3208
658,15.359,2.8007,0.1,0.00019478,1941.6,0.00019398,1932.5,-6.3626e-05,-3.0882,-6.5226e-05,-15.107,1.3714
659,14.398,3.8491,0.1,0.00021827,2176.6,0.00021793,2180.1,-7.1529e-05,5.1914,-7.199e-05,1.7267,1.2328
660,14.766,2.2864,0.1,0.00020655,2061.3,0.00020636,2064,-6.7454e-05,6.6214,-6.8505e-05,-1.2771,1.2849
661,15.766,3.8058,0.1,0.00018906,1880.6,0.00018792,1872.8,-6.1129e-05,1.555,-6.3599e-05,-17.007,1.4309
662,15.223,4.4083,0.1,0.0002032,2025.8,0.00020254,2020.6,-6.6081e-05,2.2658,-6.8068e-05,-12.664,1.3509
663,16.731,3.6629,0.1,0.00016031,1595.3,0.00015963,1595,-5.2406e-05,1.8325,-5.2974e-05,-2.4294,1.5751
664,16.115,3.1173,0.1,0.00017764,1766.4,0.00017619,1749.5,-5.8253e-05,-12.027,-5.9564e-05,-21.873,1.4828
665,16.213,4.2932,0.1,0.00017343,1724.8,0.00017266,1726.8,-5.6078e-05,8.1238,-5.7695e-05,-4.027,1.4969
666,17.823,3.6015,0.1,0.00013605,1358,0.0001355,1347.2,-4.3045e-05,5.6246,-4.7339e-05,-26.638,1.7417
667,17.25,3.0187,0.1,0.00014899,1485.7,0.00014845,1479.6,-4.7031e-05,10.843,-5.1471e-05,-22.516,1.6538
668,17.293,4.2174,0.1,0.00014863,1481.9,0.00014799,1473.4,-4.7325e-05,5.8835,-5.1102e-05,-22.499,1.66
669,18.936,3.585,0.1,0.0001115,1113.1,0.00011068,1093.3,-3.5011e-05,-1.3442,-3.9785e-05,-37.217,1.9148
670,18.371,2.9838,0.1,0.00012421,1238.6,0.00012334,1221.2,-3.958e-05,-2.8833,-4.3372e-05,-31.381,1.8264
671,18.386,4.1884,0.1,0.00012379,1234.6,0.00012302,1219.4,-3.9632e-05,-2.6713,-4.2918e-05,-27.36,1.8286
672,20.06,3.59,0.1,8.672e-05,865.25,8.5676e-05,840.52,-2.6128e-05,0.46208,-3.2564e-05,-47.894,2.0923
673,19.501,2.9869,0.1,9.8604e-05,982.72,9.7641e-05,963.32,-3.0469e-05,0.7552,-3.5677e-05,-38.374,2.0035
674,19.504,4.1879,0.1,9.8434e-05,980.99,9.7531e-05,963.27,-3.0569e-05,0.77545,-3.536e-05,-35.222,2.004
675,21.18,3.5954,0.1,6.3593e-05,633.8,6.1956e-05,596.17,-1.7418e-05,-0.21856,-2.6623e-05,-69.379,2.2714
676,20.619,2.9925,0.1,7.4821e-05,745.2,7.3475e-05,715.89,-2.1859e-05,-0.40284,-2.9151e-05,-55.193,2.1814
677,20.623,4.1933,0.1,7.4348e-05,740.12,7.3118e-05,714.63,-2.2026e-05,-0.24748,-2.8434e-05,-48.394,2.182
678,21.739,2.9936,0.1,5.241e-05,521.55,5.031e-05,475.8,-1.2965e-05,0.37292,-2.3935e-05,-82.052,2.3613
679,21.746,4.1975,0.1,5.1358e-05,510.39,4.9536e-05,472.15,-1.3272e-05,0.24221,-2.2557e-05,-69.527,2.3625
680,22.302,3.5992,0.1,4.2368e-05,420.25,3.9314e-05,358.67,-8.3999e-06,0.16787,-2.2237e-05,-103.8,2.4523
681,21.178,2.3907,0.1,6.3639e-05,634.25,6.2008e-05,596.88,-1.7406e-05,0.18969,-2.6643e-05,-69.218,2.2706
682,22.303,2.3915,0.1,4.2339e-05,419.91,3.9285e-05,358.43,-8.3983e-06,0.15215,-2.2213e-05,-103.65,2.4519
683,21.748,1.7909,0.1,5.1289e-05,509.67,4.9469e-05,471.53,-1.3269e-05,0.13702,-2.2511e-05,-69.308,2.3619
684,20.06,2.3893,0.1,8.6705e-05,865.06,8.5662e-05,840.37,-2.6199e-05,-0.11056,-3.2485e-05,-47.34,2.0918
685,20.629,1.7911,0.1,7.4166e-05,738.3,7.2953e-05,713.31,-2.195e-05,0.24737,-2.8353e-05,-47.861,2.182
686,18.936,2.3857,0.1,0.00011131,1111,0.00011054,1093,-3.5037e-05,-0.78293,-3.9513e-05,-34.411,1.9142
687,19.511,1.7905,0.1,9.8299e-05,979.69,9.7408e-05,962.05,-3.068e-05,-0.35104,-3.5167e-05,-34.07,2.0042
688,17.798,2.401,0.1,0.00013715,1368.9,0.00013651,1355.3,-4.3566e-05,2.3369,-4.7735e-05,-28.986,1.7374
689,18.385,1.7893,0.1,0.00012354,1232.2,0.00012289,1220.4,-3.9451e-05,0.63363,-4.2709e-05,-23.847,1.8274
690,16.634,2.4731,0.1,0.00016632,1657.5,0.00016505,1634.4,-5.2572e-05,-0.72114,-5.8407e-05,-44.563,1.56
691,17.253,1.8034,0.1,0.00015019,1497.9,0.00014948,1485.9,-4.8921e-05,-4.8317,-5.0819e-05,-19.097,1.653
692,16.038,1.935,0.1,0.00018113,1803.4,0.00018,1790,-5.7834e-05,3.0593,-6.2158e-05,-29.428,1.4702
693,7.2061,3.7527,0.1,0.00039707,3926,0.00039261,3919.6,-0.00012442,34.863,-0.00013523,-46.372,0.35757
694,7.4871,2.3005,0.1,0.00037884,3772.2,0.00038085,3871.6,-0.00011877,117.65,-0.00012358,81.462,0.38468
695,6.4545,4.8234,0.1,0.00044625,4306.2,0.00043256,4359.2,-0.000129,139.91,-0.00015147,-28.944,0.28408
696,5.3232,5.3225,0.1,0.00041336,3908.4,0.00039279,3966.8,-0.0001121,173.28,-0.00014144,-47.204,0.18409
697,5.5031,4.8883,0.1,0.0005429,5055.2,0.00051295,5270.7,-0.00014422,333,-0.00017447,105.73,0.20138
698,6.0072,5.5846,0.1,0.00046761,4549.5,0.00045725,4622.4,-0.00012722,230.91,-0.00016728,-70.086,0.23997
699,7.7409,4.4834,0.1,0.00038976,3856.8,0.00038396,3801.5,-0.0001206,10.462,-0.00013766,-117.74,0.40887
700,6.3465,4.1986,0.1,0.00046931,4398.9,0.00043319,4197.2,-0.00014166,-122.04,-0.00016231,-277.21,0.27647
701,7.162,5.2388,0.1,0.0003879,3825.3,0.0003851,3901.1,-0.00010964,183.87,-0.00013729,-23.869,0.34848
702,9.0377,4.4959,0.1,0.00035866,3582.7,0.00035953,3614.7,-0.00011037,84.084,-0.00012393,-17.792,0.54657
703,8.4087,5.2446,0.1,0.00038207,3815.5,0.00038092,3789.4,-0.00012549,-15.538,-0.00012828,-36.541,0.47527
704,10.23,4.5123,0.1,0.00032912,3288,0.00032973,3309.2,-0.00010475,44.723,-0.00011093,-1.7053,0.68397
705,9.5739,5.2513,0.1,0.00034794,3475.9,0.00034874,3502.8,-0.00011228,38.865,-0.00011545,15.007,0.60442
706,11.39,4.5257,0.1,0.00029818,2978.6,0.00029851,2991.6,-9.6747e-05,21.805,-9.9091e-05,4.1964,0.82664
707,10.716,5.261,0.1,0.00031771,3173.9,0.00031768,3176.1,-0.00010429,5.589,-0.00010518,-1.1496,0.74023
708,12.535,4.5243,0.1,0.00026783,2675.2,0.00026779,2677.8,-8.7901e-05,5.2137,-8.8613e-05,-0.13716,0.97538
709,11.849,5.2647,0.1,0.00028692,2866.2,0.00028687,2867.8,-9.4215e-05,4.4501,-9.4979e-05,-1.2922,0.88308
710,13.611,4.5721,0.1,0.00024102,2406.7,0.0002406,2399.7,-7.841e-05,2.8448,-8.101e-05,-16.688,1.1214
711,12.977,5.2596,0.1,0.00025609,2558.2,0.00025613,2562.2,-8.4269e-05,4.5741,-8.4413e-05,3.4945,1.0326
712,14.611,4.7681,0.1,0.00021527,2147.7,0.00021483,2145.4,-6.8995e-05,12.848,-7.2991e-05,-17.177,1.2618
713,14.04,5.3125,0.1,0.00023089,2305.8,0.00023026,2291.7,-7.5481e-05,-5.4728,-7.776e-05,-22.595,1.1794
714,15.671,4.8956,0.1,0.00018756,1870.6,0.00018733,1875,-6.0347e-05,13.966,-6.2897e-05,-5.1953,1.4156
715,15.092,5.4555,0.1,0.0002018,2013.9,0.00020188,2024.4,-6.5503e-05,15.367,-6.6784e-05,5.7377,1.3295
716,16.774,4.8477,0.1,0.00016176,1613.7,0.00016124,1606.8,-5.2221e-05,2.9662,-5.481e-05,-16.488,1.5805
717,16.215,5.4401,0.1,0.00017583,1755.1,0.00017526,1744.4,-5.6696e-05,1.5953,-5.9928e-05,-22.69,1.4951
718,17.856,4.8044,0.1,0.00013638,1361.3,0.00013574,1347.5,-4.391e-05,-2.4031,-4.6923e-05,-25.037,1.7458
719,17.311,5.4077,0.1,0.00014862,1484,0.00014828,1477.3,-4.8835e-05,-3.7048,-4.9635e-05,-9.715,1.6611
720,18.954,4.7914,0.1,0.00011072,1105,0.00011008,1091,-3.519e-05,-0.55048,-3.871e-05,-27,1.9169
721,18.411,5.3967,0.1,0.00012247,1222.8,0.00012203,1213.3,-3.9155e-05,2.1928,-4.2234e-05,-20.939,1.8312
722,20.067,4.7912,0.1,8.6061e-05,858.39,8.5201e-05,839.09,-2.6466e-05,0.065897,-3.1457e-05,-37.432,2.0929
723,19.524,5.3947,0.1,9.7307e-05,971.07,9.6737e-05,958.62,-3.0926e-05,-0.58452,-3.4028e-05,-23.897,2.0062
724,21.188,4.7954,0.1,6.2113e-05,618.9,6.0926e-05,592.33,-1.7879e-05,0.21694,-2.4597e-05,-50.261,2.2724
725,20.64,5.3965,0.1,7.2568e-05,723.51,7.188e-05,709.03,-2.2453e-05,0.2464,-2.6261e-05,-28.365,2.1839
726,22.311,4.7966,0.1,3.9614e-05,393.34,3.7644e-05,352.51,-9.2589e-06,0.10077,-1.8832e-05,-71.829,2.4537
727,21.761,5.3989,0.1,4.8539e-05,482.67,4.7591e-05,463.7,-1.4175e-05,-0.38548,-1.8864e-05,-35.611,2.3644
728,22.867,4.1982,0.1,3.0624e-05,303.9,2.7242e-05,237.68,-4.3884e-06,0.017516,-1.833e-05,-104.74,2.5439
729,22.878,5.3977,0.1,2.5628e-05,251.74,2.4013e-05,223.92,-5.8077e-06,-0.14672,-1.2242e-05,-48.491,2.5454
730,23.436,4.7977,0.1,2.1683e-05,201.18,1.5557e-05,117.5,-1.1341e-07,-0.24279,-1.536e-05,-114.8,2.6361
731,22.865,2.9971,0.1,3.2297e-05,321.31,2.8172e-05,240.42,-3.8336e-06,-0.058402,-2.0397e-05,-124.51,2.5434
732,23.432,3.6005,0.1,2.5436e-05,239.49,1.7242e-05,121.11,1.0749e-06,-0.36785,-1.9475e-05,-154.77,2.6355
733,22.872,1.7941,0.1,3.0477e-05,302.41,2.7101e-05,236.38,-4.3541e-06,0.042006,-1.8255e-05,-104.4,2.5437
734,23.433,2.3966,0.1,2.5395e-05,239.04,1.7186e-05,120.5,1.0897e-06,-0.4464,-1.946e-05,-154.85,2.6353
735,22.318,1.1935,0.1,3.9428e-05,391.46,3.7466e-05,350.84,-9.2229e-06,0.038689,-1.8735e-05,-71.434,2.4533
736,23.439,1.1975,0.1,2.157e-05,200.05,1.5446e-05,116.53,-8.3437e-08,-0.15269,-1.5297e-05,-114.46,2.6352
737,22.881,0.59753,0.1,2.5517e-05,250.59,2.3904e-05,222.89,-5.7857e-06,-0.18178,-1.2182e-05,-48.242,2.5439
738,21.199,1.1913,0.1,6.1816e-05,615.92,6.0641e-05,589.67,-1.7812e-05,0.2016,-2.4449e-05,-49.665,2.2728
739,21.764,0.59599,0.1,4.8451e-05,481.8,4.7508e-05,462.94,-1.416e-05,-0.41013,-1.8816e-05,-35.396,2.3629
740,20.081,1.1922,0.1,8.5759e-05,855.32,8.4918e-05,836.64,-2.643e-05,0.013361,-3.1255e-05,-36.238,2.0937
741,20.648,0.59535,0.1,7.2408e-05,721.92,7.1724e-05,707.51,-2.243e-05,0.068685,-2.6174e-05,-28.061,2.1832
742,18.961,1.1941,0.1,0.00011053,1103.1,0.00010995,1090.9,-3.5092e-05,1.0716,-3.8558e-05,-24.968,1.9165
743,19.53,0.59689,0.1,9.7219e-05,970.16,9.6666e-05,958.27,-3.0916e-05,-0.33,-3.3941e-05,-23.061,2.0052
744,17.839,1.1917,0.1,0.00013658,1363.4,0.00013606,1352.4,-4.4853e-05,-6.8916,-4.5942e-05,-15.07,1.7418
745,18.412,0.59724,0.1,0.00012255,1223.6,0.00012217,1215.8,-3.9397e-05,1.8405,-4.1932e-05,-17.205,1.8294
746,16.657,1.2652,0.1,0.000165,1647.4,0.00016473,1643.8,-5.4254e-05,-1.5861,-5.4796e-05,-5.6585,1.5616
747,17.293,0.59451,0.1,0.0001494,1492.1,0.0001492,1489,-4.9157e-05,-1.4119,-4.9594e-05,-4.6965,1.6565
748,15.444,1.4207,0.1,0.0001929,1926,0.00019263,1923.4,-6.1722e-05,12.317,-6.563e-05,-17.052,1.3816
749,16.115,0.67074,0.1,0.00017882,1785.6,0.00017852,1780.9,-5.8467e-05,0.22146,-5.9787e-05,-9.6964,1.4786
750,14.278,1.5241,0.1,0.00022218,2218.8,0.00022172,2209.8,-7.2081e-05,2.2733,-7.506e-05,-20.112,1.2139
751,14.965,0.74994,0.1,0.00020335,2030.4,0.00020312,2028.8,-6.6306e-05,4.4025,-6.7894e-05,-7.5268,1.3099
752,13.132,1.545,0.1,0.00025286,2525.5,0.0002527,2524.7,-8.3241e-05,0.60918,-8.361e-05,-2.164,1.0547
753,13.834,0.77417,0.1,0.00023465,2343.6,0.00023429,2337,-7.6789e-05,-0.38469,-7.8442e-05,-12.8,1.149
754,11.978,1.5408,0.1,0.00028275,2824.3,0.00028284,2830.8,-9.2003e-05,14.358,-9.4081e-05,-1.2561,0.90104
755,12.704,0.77084,0.1,0.00026422,2639.1,0.0002641,2639.4,-8.704e-05,1.0543,-8.7239e-05,-0.43473,0.99415
756,10.808,1.5375,0.1,0.00031301,3126.6,0.00031365,3149.4,-0.00010064,36.612,-0.00010429,9.2174,0.75298
757,11.564,0.76991,0.1,0.00029486,2945.2,0.00029476,2946.3,-9.7044e-05,2.4585,-9.7394e-05,-0.17847,0.84477
758,9.6117,1.5344,0.1,0.00034713,3467.3,0.00034774,3491.3,-0.00010816,65.866,-0.00011911,-16.375,0.6104
759,10.419,0.76762,0.1,0.00032501,3246.7,0.00032532,3259.1,-0.00010622,16.711,-0.00010737,8.0418,0.70238
760,8.3082,1.5535,0.1,0.00036854,3674.2,0.0003688,3709.8,-0.00011274,91.614,-0.00012734,-18.047,0.46653
761,9.2526,0.76679,0.1,0.00035794,3575.7,0.00035853,3598.1,-0.00011134,67.735,-0.00012319,-21.302,0.56608
762,6.7767,1.9097,0.1,0.00044071,4332.3,0.00044051,4563,-0.00010839,438.81,-0.00016028,48.959,0.3152
763,8.0006,0.78668,0.1,0.00038369,3825.2,0.00038206,3803.9,-0.0001258,-11.972,-0.00012829,-30.659,0.43082
764,5.747,1.9379,0.1,0.00049753,4674.4,0.00047562,4934.1,-0.00011593,489.44,-0.00017314,59.533,0.22383
765,0.94073,2.915,0.1,0.00067251,6692.3,0.00063831,6656.1,-4.9554e-06,1822.9,-0.00037829,-982.23,0.0049448
766,0.9816,4.1239,0.1,0.00064268,6385.4,0.0006094,6250.6,-2.3667e-05,1494,-0.00035648,-1006.6,0.0052679
767,1.4249,3.3945,0.1,0.0006121,6079.4,0.00060215,6428.9,-3.1814e-05,1665.5,-0.00030918,-418.51,0.011653
768,0.48,3.5567,0.1,0.0005317,5214,0.00057854,7158.1,-3.7218e-06,2783.2,-0.00018934,1388.5,0.0012586
769,0.91559,1.732,0.1,0.00063571,6307.6,0.00060219,6202.4,-1.9301e-05,1532.8,-0.00035282,-973.12,0.0045468
770,0.46072,2.3583,0.1,0.00052566,5146.5,0.00057079,7082.1,1.6315e-06,2805.6,-0.00018939,1370.3,0.0011466
771,4.6922,5.2737,0.1,0.00039876,3572.5,0.00035049,3436.1,-8.144e-05,190.77,-0.00015899,-391.87,0.13458
772,4.3579,5.4879,0.1,0.00025854,1941.5,0.00019302,1921.5,-5.0051e-05,95.121,-7.836e-05,-117.59,0.10728
773,4.9155,5.7379,0.1,0.00033003,3190.3,0.00031675,3123.6,-9.6047e-05,21.979,-0.00011874,-148.5,0.14832
774,5.3978,0.9433,0.1,0.00053429,4994.7,0.00050852,5252.8,-0.0001477,322.22,-0.00016447,196.21,0.19022
775,5.3341,0.57435,0.1,0.00040353,3870.3,0.00038706,3878.9,-0.00010791,159.91,-0.00014605,-126.71,0.18237
776,5.9828,0.32722,0.1,0.00044283,4272.8,0.00042537,4229,-0.00011857,141.99,-0.00016516,-208.02,0.2352
777,1.4971,4.6678,0.1,0.00056091,5537.8,0.00055061,5763.5,-5.9124e-05,1182.2,-0.00026845,-390.57,0.011901
778,1.9404,3.9385,0.1,0.00053033,5230.1,0.00054005,5916.9,-6.3831e-05,1379.6,-0.00022127,196.62,0.021466
779,2.4096,4.9058,0.1,0.00049751,4866.5,0.00049548,5137.6,-0.0001255,471.78,-0.00017598,92.555,0.030551
780,1.9355,5.3006,0.1,0.00052093,5143.7,0.00052933,5585.2,-0.00013483,594.96,-0.00017401,300.6,0.018436
781,1.3695,1.0945,0.1,0.0005632,5559.2,0.00055315,5701.6,-8.1943e-05,929.78,-0.00025929,-402.71,0.0096358
782,2.2858,0.93633,0.1,0.00050892,5015.2,0.00050542,5122.7,-0.00015253,179.07,-0.00017119,38.855,0.026973
783,1.8547,0.52077,0.1,0.00053345,5303.5,0.00053888,5544.3,-0.000162,278.17,-0.00017183,204.28,0.016237
784,4.8721,4.8395,0.1,0.0005283,4621.6,0.00046367,4687.6,-0.00011978,303.78,-0.00017882,-139.76,0.15143
785,5.3951,4.2635,0.1,0.00056596,5122.9,0.00051103,5089.5,-0.00014901,130.22,-0.00019064,-182.56,0.19525
786,4.5378,4.5537,0.1,0.00062878,5207.7,0.00049303,4456.8,-0.00014621,-346.16,-0.00024364,-1078.2,0.12826
787,5.2708,1.4309,0.1,0.00056505,5154.7,0.0005224,5366.6,-0.00013808,404.03,-0.00018665,39.092,0.18272
788,4.4568,1.3661,0.1,0.00062915,4830.1,0.00044367,3847,-0.00011363,-340.3,-0.00025962,-1437.2,0.12055
789,0.45487,1.1737,0.1,0.00049576,4838.4,0.00054074,6686,-1.7112e-05,2494.5,-0.00016394,1391.3,0.0010313
790,0.92487,0.57373,0.1,0.00062093,6119.1,0.00060026,5938.1,-0.00012209,510.56,-0.00028237,-693.66,0.0036657
791,0.50159,4.7672,0.1,0.00049757,4859.8,0.00054127,6666.8,-1.7475e-05,2468.6,-0.00016729,1342.9,0.0012631
792,0.97159,5.3672,0.1,0.00062821,6187,0.00060688,6001,-0.00012402,509.29,-0.00028525,-702.09,0.0041623
793,2.3583,2.9974,0.1,0.00067823,6624.3,0.00067851,7320.3,-8.9622e-05,1548.9,-0.00028416,87.169,0.032545
794,4.261,5.0358,0.1,0.00050131,3571.2,0.00030737,2643.8,-2.4391e-05,151.07,-0.00023713,-1447.4,0.10408
795,2.9566,4.9112,0.1,0.0005506,5335.9,0.00052863,5187.3,-0.00016483,-23.047,-0.00019713,-265.75,0.045737
796,3.2941,5.3552,0.1,0.00037408,3046.2,0.00030077,2954.5,-8.0167e-05,92.303,-0.00012535,-247.18,0.053032
797,2.8241,5.6052,0.1,0.00041815,4098.5,0.0004076,4026.1,-0.00013099,-20.692,-0.00014449,-122.16,0.037787
798,3.4225,4.8061,0.1,0.00050639,4530,0.00044581,4346.1,-0.00012282,73.724,-0.00018634,-403.55,0.061408
799,4.3931,0.49713,0.1,0.00027833,2136.6,0.00021278,2119,-5.7897e-05,85.299,-8.3533e-05,-107.32,0.10788
800,4.9507,0.24713,0.1,0.00035784,3519.5,0.00035099,3489.7,-0.00010621,54.462,-0.00012789,-108.44,0.1488
801,3.2511,0.66556,0.1,0.00037802,2950.2,0.00029142,2854.6,-8.3015e-05,41.282,-0.00011721,-215.66,0.052061
802,2.7811,0.41556,0.1,0.0004428,4389.3,0.00042988,4131.6,-0.00013171,-87.932,-0.00017454,-409.73,0.036906
803,3.2934,2.1096,0.1,0.00090363,7930.2,0.00080176,8171.6,-0.00024835,281.48,-0.00025894,201.94,0.062894
804,4.784,3.9598,0.1,0.0010188,9674.3,0.0009872,10297,-0.00023632,1103.7,-0.00035605,204.15,0.14932
805,3.5313,3.8072,0.1,0.0015006,14698,0.0014747,14831,-0.00043834,457.51,-0.00052197,-170.88,0.073423
806,4.7406,1.8148,0.1,0.0010653,10101,0.0010272,10726,-0.00021401,1399.7,-0.00040075,-3.384,0.14419
807,3.803,3.566,0.1,0.0016254,15597,0.0015699,15879,-0.00047047,548.24,-0.00053954,29.31,0.088116
808,3.9267,4.25,0,0.0010816,9987,0.00044714,977.73,0.00021065,-799.17,-0.00098442,-9778.4,0.088766
809,3.8433,4,0,0.001782,16169,0.00054696,-1083.1,0.00041081,-2106.1,-0.0016698,-17739,0.086841
810,3.9267,4,0.05,0.0015061,192.42,1.4786e-05,111.1,-3.1363e-21,-3.5053e-05,-1.4786e-05,-111.1,0.091434
811,3.9267,4.75,0,0.00060178,5584.8,0.00041904,3265.6,3.4728e-05,377.98,-0.00043772,-3171.8,0.082633
812,3.9267,4.5,0.05,0.00065717,321.4,2.4697e-05,185.56,-4.5321e-13,-1.9066e-06,-2.4697e-05,-185.56,0.085418
813,3.9267,5.25,0,0.00036109,3060.3,0.00022986,1724.2,9.8842e-06,71.431,-0.00024013,-1807.1,0.077032
814,3.9267,5,0.05,0.00054639,1182.6,9.0871e-05,682.77,-1.9275e-20,-1.4482e-13,-9.0871e-05,-682.77,0.079474
815,3.9267,5.75,0,0.00012428,675.58,3.0032e-05,42.537,1.2291e-05,-90.762,-6.7431e-05,-689.76,0.0722
816,3.9267,5.5,0.05,0.00017579,495.56,3.8079e-05,286.11,-8.0771e-21,-6.0688e-14,-3.8079e-05,-286.11,0.074514
817,3.76,4.25,0,0.0015388,11257,0.00055191,2118.1,0.00024564,-183.1,-0.0010757,-10111,0.079706
818,3.76,4,0.05,0.002058,1538,0.00011818,887.97,7.4139e-12,6.2192e-05,-0.00011818,-887.97,0.082499
819,3.76,5.25,0,0.00032987,3202.5,0.00019234,969.46,3.3015e-05,-227.69,-0.0002906,-2659.2,0.068456
820,3.76,5.75,0,0.00015689,1157.6,7.0142e-05,381.45,1.401e-05,-40.311,-0.00010411,-927.85,0.063827
821,3.76,5.5,0.05,0.00026475,142.33,1.0937e-05,82.173,2.6667e-13,-1.743e-14,-1.0937e-05,-82.173,0.066073
822,3.76,4.75,0,0.00070732,6714.7,0.00055495,4638.8,-1.5665e-05,351.42,-0.00047496,-3099.5,0.073553
823,3.76,5,0.05,0.00039499,307.61,2.3637e-05,177.6,-5.0137e-21,-3.7671e-14,-2.3637e-05,-177.6,0.070914
824,3.76,4.5,0.05,0.0010197,2497.2,0.00019189,1441.8,-4.0702e-20,-3.0582e-13,-0.00019189,-1441.8,0.076428
825,3.9267,1.75,0,0.0011294,9975.8,0.00051896,1819.6,0.00015006,-952.18,-0.00095418,-9249,0.088021
826,3.8433,2,0,0.0020031,17774,0.00058614,-1844.4,0.00041668,-3117.6,-0.0018596,-20221,0.086267
827,3.9267,2,0.05,0.0016463,470.02,3.6116e-05,271.36,-1.5962e-20,1.428e-06,-3.6116e-05,-271.36,0.09084
828,3.9267,1.25,0,0.00053245,5159.2,0.00041292,3411.3,9.3224e-06,378.8,-0.0003799,-2545.7,0.081421
829,3.9267,1.5,0.05,0.00061248,296.9,2.2814e-05,171.41,1.5775e-13,-1.2612e-05,-2.2814e-05,-171.41,0.084434
830,3.9267,0.75,0,0.00031239,2921.5,0.00020617,1389.7,1.3359e-05,-58.977,-0.00024138,-1973,0.075446
831,3.9267,1,0.05,0.00045242,1114.9,8.5673e-05,643.71,-1.8172e-20,-1.3654e-13,-8.5673e-05,-643.71,0.078145
832,3.9267,0.25,0,0.00012337,721.27,3.362e-05,95.679,1.5135e-05,-43.206,-7.0274e-05,-684.94,0.070138
833,3.9267,0.5,0.05,0.00017236,365.98,2.8122e-05,211.3,-5.9651e-21,3.5758e-07,-2.8122e-05,-211.3,0.072663
834,3.76,1.75,0,0.0016799,15858,0.00055812,-541.19,0.00041358,-1627.3,-0.0016209,-16914,0.079525
835,3.76,2,0.05,0.0023599,1572.1,0.0001208,907.63,-2.5623e-20,-1.9252e-13,-0.0001208,-907.63,0.081978
836,3.76,0.75,0,0.00042625,4146.8,0.00028718,1948.8,3.0503e-05,20.28,-0.00034633,-2811.1,0.068612
837,3.76,0.25,0,0.00016267,1074.3,6.2319e-05,294.58,1.2726e-05,-78.047,-9.8858e-05,-916.44,0.063933
838,3.76,0.5,0.05,0.00026305,162.98,1.2523e-05,94.096,-3.7659e-21,-1.9959e-14,-1.2523e-05,-94.096,0.066184
839,3.76,1.25,0,0.00079465,7617.7,0.00044654,2384.2,0.00011249,-125.77,-0.00069219,-6171.8,0.074078
840,3.76,1,0.05,0.00058945,520.95,4.003e-05,300.77,6.966e-16,-6.3798e-14,-4.003e-05,-300.77,0.071201
841,3.76,1.5,0.05,0.00099985,876.04,6.7315e-05,505.78,-1.436e-11,-1.0728e-13,-6.7315e-05,-505.78,0.076901
842,4.4843,6,0,0.00019576,1938.3,6.8231e-05,57.102,6.2071e-05,10.813,-0.00019277,-1904,0.1124
843,3.9267,6,0.05,7.2762e-05,66.406,5.1027e-06,38.34,-1.0824e-21,-8.1324e-15,-5.1027e-06,-38.34,0.069665
844,5.5994,6,0,0.00038428,3812.6,0.00012806,47.293,0.00012658,36.157,-0.00038011,-3770.9,0.20185
845,5.0419,6,0.05,0.00031876,142.76,1.097e-05,82.422,-2.3268e-21,-1.7483e-14,-1.097e-05,-82.422,0.15612
846,6.7146,6,0,0.00040925,4060.9,0.00013712,-55.023,0.0001239,-154.4,-0.00040984,-4164.7,0.30104
847,6.157,6,0.05,0.0004498,140.97,1.0832e-05,81.386,-2.2976e-21,-1.7263e-14,-1.0832e-05,-81.386,0.25003
848,7.8298,6,0,0.00038021,3785.9,0.00012768,-58.962,0.00011506,-153.85,-0.00038238,-3891.4,0.41044
849,7.2722,6,0.05,0.00036871,84.065,6.4596e-06,48.535,-1.3702e-21,-1.0295e-14,-6.4596e-06,-48.535,0.35454
850,8.945,6,0,0.00037135,3710,0.00012769,62.953,0.00011951,1.5045,-0.00037012,-3677.4,0.52931
851,8.3874,6,0.05,0.00039172,17.698,1.3599e-06,10.218,-2.8846e-22,-2.1673e-15,-1.3599e-06,-10.218,0.46863
852,10.06,6,0,0.00033652,3362.4,0.00011188,0.72999,0.00010968,-15.735,-0.00033672,-3369.9,0.65731
853,9.5026,6,0.05,0.00035098,11.1,8.5294e-07,6.4086,-1.8092e-22,-3.0165e-07,-8.5294e-07,-6.4086,0.59219
854,11.175,6,0,0.00030645,3062,0.00010185,12.482,0.00010102,6.2872,-0.00030609,-3052.6,0.79368
855,10.618,6,0.05,0.00032207,23.349,1.7942e-06,13.481,-6.9209e-14,-2.8594e-15,-1.7942e-06,-13.481,0.72447
856,12.291,6,0,0.00027519,2749.7,9.077e-05,-2.4072,9.0639e-05,-3.3919,-0.00027526,-2752.6,0.93764
857,11.733,6,0.05,0.00029084,23.067,1.7725e-06,13.318,-1.7835e-13,-8.3763e-16,-1.7725e-06,-13.318,0.86473
858,13.406,6,0,0.00024597,2457.6,8.1478e-05,4.782,8.1054e-05,1.599,-0.00024582,-2454.4,1.0884
859,12.848,6,0.05,0.00025954,22.912,1.7606e-06,13.228,-3.7344e-22,-6.6135e-15,-1.7606e-06,-13.228,1.0122
860,14.521,6,0,0.00021742,2171.3,7.2349e-05,5.6597,7.1129e-05,-3.5118,-0.00021724,-2170.2,1.2453
861,13.963,6,0.05,0.00023239,13.411,1.0305e-06,7.7427,-2.1858e-22,7.6583e-08,-1.0305e-06,-7.7427,1.1661
862,15.636,6,0,0.00019006,1899,6.3608e-05,10.199,6.213e-05,-0.90364,-0.00018988,-1894.4,1.4075
863,15.079,6,0.05,0.00020245,44.213,3.3973e-06,25.526,-7.2063e-22,1.7797e-06,-3.3973e-06,-25.526,1.3258
864,16.751,6,0,0.00016269,1625.6,5.4606e-05,14.813,5.3475e-05,6.3138,-0.00016231,-1615,1.5744
865,16.194,6,0.05,0.00017768,33.392,2.5658e-06,19.279,-5.4425e-22,-8.5543e-07,-2.5658e-06,-19.279,1.4904
866,17.866,6,0,0.00013471,1345.9,4.4877e-05,5.0976,4.4183e-05,-0.11777,-0.0001346,-1343.4,1.7454
867,17.309,6,0.05,0.00014771,30.176,2.3188e-06,17.422,-1.5431e-21,-4.6359e-07,-2.3188e-06,-17.422,1.6594
868,18.982,6,0,0.00010905,1089.6,3.7622e-05,18.361,3.4879e-05,-2.2481,-0.00010875,-1081.4,1.9196
869,18.424,6,0.05,0.00012171,21.42,1.6459e-06,12.367,7.8077e-13,-4.7884e-07,-1.6459e-06,-12.367,1.8321
870,20.097,6,0,8.3813e-05,837.33,2.8938e-05,15.627,2.6899e-05,0.3034,-8.3509e-05,-829.26,2.0965
871,19.539,6,0.05,9.6397e-05,23.354,1.7946e-06,13.484,-3.8065e-22,1.0578e-06,-1.7946e-06,-13.484,2.0077
872,21.212,6,0,5.8994e-05,589.18,2.0693e-05,14.957,1.8726e-05,0.17854,-5.8687e-05,-581.47,2.2754
873,20.654,6,0.05,7.1229e-05,22.043,1.6938e-06,12.726,-3.5928e-22,-1.3403e-07,-1.6938e-06,-12.726,2.1857
874,22.327,6,0,3.4553e-05,344.67,1.2565e-05,14.464,1.069e-05,0.37524,-3.4217e-05,-337.04,2.4557
875,21.77,6,0.05,4.6758e-05,18.417,1.4152e-06,10.633,-3.0019e-22,-5.3549e-07,-1.4152e-06,-10.633,2.3654
876,23.442,6,0,1.2599e-05,117.85,5.0974e-06,14.193,3.091e-06,-0.88262,-1.1494e-05,-110.47,2.6368
877,22.885,6,0.05,2.2348e-05,13.67,1.0504e-06,7.8927,1.2297e-14,4.9687e-07,-1.0504e-06,-7.8927,2.5461
878,24,5.4,0,8.6545e-06,76.979,7.6651e-06,76.366,-2.0579e-06,3.3115,-3.0329e-06,-4.0147,2.7277
879,24,6,0.05,2.8508e-06,7.0658,5.4294e-07,4.0794,-1.4626e-13,-1.7038e-06,-5.4294e-07,-4.0794,2.7274
880,24,4.2,0,1.6495e-05,164.62,1.6465e-05,164.53,-5.0088e-06,3.1906,-5.8576e-06,-3.1871,2.7279
881,24,4.8,0.05,1.4458e-05,5.6756,4.3611e-07,3.2768,-4.5444e-13,2.5306e-09,-4.3611e-07,-3.2768,2.7278
882,24,3,0,1.8533e-05,184.75,1.848e-05,184.67,-5.6865e-06,3.0976,-6.5097e-06,-3.0879,2.7277
883,24,3.6,0.05,1.8531e-05,5.2515,4.0353e-07,3.032,1.1231e-14,-3.7071e-06,-4.0353e-07,-3.032,2.7279
884,24,1.8,0,1.6487e-05,164.57,1.6464e-05,164.62,-5.0074e-06,3.2932,-5.8463e-06,-3.0099,2.7269
885,24,2.4,0.05,1.8535e-05,5.2329,4.021e-07,3.0212,-3.6399e-15,-2.8685e-08,-4.021e-07,-3.0212,2.7274
886,24,0.6,0,8.9358e-06,77.506,7.7211e-06,76.997,-2.066e-06,3.4607,-3.0519e-06,-3.9465,2.7257
887,24,1.2,0.05,1.444e-05,5.6077,4.309e-07,3.2376,3.9924e-16,3.0875e-09,-4.309e-07,-3.2376,2.7264
888,0,1.8,0,0.00038572,3824.6,6.7789e-06,-3687.7,-9.3265e-06,-3808.7,-0.00051011,-7571.3,0
889,0,0.6,0,0.00027051,2491.6,4.3646e-06,-2357,-1.7824e-06,-2403.1,-0.00033028,-4871.3,0
890,0,1.2,0.05,0.00038999,201.46,1.548e-05,116.31,3.3892e-14,2.8431e-07,-1.548e-05,-116.31,0
891,0,3,0,0.00038485,3832.5,7.1596e-06,-3690.6,-9.5475e-06,-3816.1,-0.00051106,-7584.3,0
892,0,2.4,0.05,0.00038144,247.78,1.904e-05,143.06,-2.7895e-13,-1.287e-06,-1.904e-05,-143.06,0
893,0,4.2,0,0.00038659,3830.6,3.5539e-07,-3736.5,-2.3072e-06,-3756.5,-0.00051079,-7577,0
894,0,3.6,0.05,0.00038825,139.91,1.0751e-05,80.776,-3.5713e-14,-1.7134e-14,-1.0751e-05,-80.776,0
895,0,5.4,0,0.00027145,2517.7,5.4356e-06,-2365,-2.0194e-06,-2421,-0.00033331,-4910.2,0
896,0,4.8,0.05,0.00038494,201.83,1.5509e-05,116.53,-1.128e-20,-2.4717e-14,-1.5509e-05,-116.53,0
897,23.442,0,0,1.2882e-05,118.89,5.2188e-06,15.381,3.0785e-06,-0.70081,-1.1565e-05,-110.73,2.6343
898,24,0,0.05,3.4313e-06,7.2022,5.5342e-07,4.1582,-3.008e-13,-2.1958e-06,-5.5342e-07,-4.1582,2.725
899,4.4843,0,0,0.00020288,1995.6,6.9523e-05,33.285,6.2788e-05,-17.32,-0.00019938,-1987.1,0.11004
900,3.9267,0,0.05,7.4382e-05,33.976,2.6107e-06,19.616,-5.5377e-22,-4.1608e-15,-2.6107e-06,-19.616,0.067412
901,22.327,0,0,3.454e-05,344.48,1.2542e-05,14.3,1.0697e-05,0.44028,-3.42e-05,-336.9,2.4532
902,22.885,0,0.05,2.2333e-05,13.602,1.0452e-06,7.8532,-1.1364e-13,-7.0423e-07,-1.0452e-06,-7.8532,2.5437
903,21.212,0,0,5.9042e-05,589.61,2.0691e-05,14.92,1.8763e-05,0.43124,-5.8727e-05,-581.8,2.2729
904,21.77,0,0.05,4.6747e-05,18.524,1.4234e-06,10.695,-3.0193e-22,8.9384e-07,-1.4234e-06,-10.695,2.3629
905,20.097,0,0,8.3867e-05,837.78,2.8949e-05,15.548,2.6912e-05,0.24189,-8.3556e-05,-829.78,2.094
906,20.654,0,0.05,7.1338e-05,22.244,1.7092e-06,12.843,-3.6256e-22,-8.8381e-07,-1.7092e-06,-12.843,2.1832
907,18.982,0,0,0.00010924,1091.3,3.7377e-05,15.758,3.5211e-05,-0.51549,-0.00010894,-1083.6,1.9171
908,19.539,0,0.05,9.6396e-05,23.322,1.7921e-06,13.465,-3.8012e-22,1.2157e-06,-1.7921e-06,-13.465,2.0052
909,17.866,0,0,0.00013536,1352.5,4.567e-05,7.4704,4.3639e-05,-7.7868,-0.00013534,-1352.6,1.7429
910,18.424,0,0.05,0.00012208,21.89,1.6821e-06,12.638,-8.996e-13,-7.0747e-07,-1.6821e-06,-12.638,1.8296
911,16.751,0,0,0.00016322,1631,5.4641e-05,9.1525,5.3378e-05,-0.33705,-0.00016306,-1626.6,1.572
912,17.309,0,0.05,0.00014865,24.185,1.8584e-06,13.963,-3.9419e-22,-2.3595e-07,-1.8584e-06,-13.963,1.657
913,15.636,0,0,0.00018927,1890.8,6.3161e-05,8.5143,6.2003e-05,-0.1934,-0.00018907,-1886.7,1.4051
914,16.194,0,0.05,0.00017779,31.665,2.4332e-06,18.282,-5.1611e-22,7.9196e-07,-2.4332e-06,-18.282,1.488
915,14.521,0,0,0.00021582,2156.4,7.1373e-05,0.94842,7.1022e-05,-1.6921,-0.0002158,-2156.8,1.2429
916,15.079,0,0.05,0.00020075,20.064,1.5417e-06,11.584,-3.2703e-22,-1.1905e-06,-1.5417e-06,-11.584,1.3234
917,13.406,0,0,0.00024601,2458.1,8.2417e-05,13.682,8.0326e-05,-2.0316,-0.00024578,-2452.3,1.086
918,13.963,0,0.05,0.00023089,25.327,1.9462e-06,14.623,-4.1281e-22,6.8823e-07,-1.9462e-06,-14.623,1.1637
919,12.291,0,0,0.00027632,2761,9.2289e-05,12.408,9.043e-05,-1.5583,-0.0002761,-2755.6,0.9352
920,12.848,0,0.05,0.00026112,23.14,1.7781e-06,13.36,1.0873e-13,-3.5228e-07,-1.7781e-06,-13.36,1.0098
921,11.175,0,0,0.00030686,3066,0.00010269,18,0.00010045,1.1648,-0.00030648,-3056.4,0.79124
922,11.733,0,0.05,0.00029152,20.647,1.5865e-06,11.921,-3.3653e-22,1.4791e-07,-1.5865e-06,-11.921,0.86229
923,10.06,0,0,0.00033582,3355.3,0.00011144,-3.1807,0.00010942,-18.387,-0.00033612,-3366,0.65489
924,10.618,0,0.05,0.0003222,15.477,1.1893e-06,8.9358,-2.5226e-22,6.8423e-07,-1.1893e-06,-8.9358,0.72203
925,8.945,0,0,0.00037309,3727.6,0.00012589,47.052,0.00012268,22.995,-0.00037182,-3692.5,0.52691
926,9.5026,0,0.05,0.00034944,18.306,1.4067e-06,10.569,2.9954e-14,-1.6849e-15,-1.4067e-06,-10.569,0.58977
927,7.8298,0,0,0.00036633,3640.6,0.00013137,-16.637,9.936e-05,-257.17,-0.00036837,-3771.5,0.40804
928,8.3874,0,0.05,0.00039674,40.385,3.1032e-06,23.317,-6.5824e-22,-4.9458e-15,-3.1032e-06,-23.317,0.46624
929,6.7146,0,0,0.00039942,3970.1,0.00014064,50.997,0.00011947,-108.09,-0.00039801,-3996.2,0.29867
930,7.2722,0,0.05,0.00033593,88.319,6.7865e-06,50.991,-1.4395e-21,-1.0816e-14,-6.7865e-06,-50.991,0.35215
931,5.5994,0,0,0.00039714,3909.5,0.00013345,87.99,0.0001298,60.568,-0.00038868,-3835.1,0.19959
932,6.157,0,0.05,0.00046291,95.82,7.3629e-06,55.322,-1.5618e-21,-1.1735e-14,-7.3629e-06,-55.322,0.24772
933,5.0419,0,0.05,0.00033138,65.889,5.0629e-06,38.041,-1.0739e-21,-8.0691e-15,-5.0629e-06,-38.041,0.15376
934,0.47,0,0,0.00039568,3836.8,0.00012035,-290.38,0.00011084,-361.83,-0.00039499,-4162.4,0.00037399
935,0,0,0.05,0.00015103,664.39,5.1052e-05,383.58,-1.2687e-12,-8.1364e-14,-5.1052e-05,-383.58,0
936,3.29,0,0,0.00022746,1890.2,7.0901e-05,122.42,5.9167e-05,34.26,-0.00018633,-1810.3,0.047994
937,3.76,0,0.05,6.2298e-05,244.07,1.8754e-05,140.91,-3.9781e-21,-2.989e-14,-1.8754e-05,-140.91,0.061785
938,2.35,0,0,0.00046733,4640.8,0.00018054,284.61,0.00013229,-77.94,-0.00045982,-4526.8,0.023676
939,2.82,0,0.05,0.00039262,165.43,1.2712e-05,95.513,-2.6964e-21,-2.026e-14,-1.2712e-05,-95.513,0.035056
940,1.41,0,0,0.00059119,5895.3,0.00020262,144.6,0.00019448,83.434,-0.00058603,-5781,0.0071451
941,1.88,0,0.05,0.00054204,183.83,1.4126e-05,106.13,-2.9963e-21,-2.2513e-14,-1.4126e-05,-106.13,0.014183
942,0.94,0,0.05,0.00064033,79.813,6.1329e-06,46.08,-1.3009e-21,-9.7743e-15,-6.1329e-06,-46.08,0.0024397
943,0.47,6,0,0.00040208,3913.2,0.00012143,-334.73,0.00011174,-407.52,-0.00040417,-4283.9,0.00038716
944,0,6,0.05,0.00015796,664.21,5.1038e-05,383.48,-1.0826e-20,-8.1342e-14,-5.1038e-05,-383.48,0
945,3.29,6,0,0.00020096,1872.6,6.7917e-05,95.857,6.0289e-05,38.547,-0.00018504,-1804.7,0.047813
946,3.76,6,0.05,4.9028e-05,271.75,2.0881e-05,156.89,-4.4292e-21,-3.3279e-14,-2.0881e-05,-156.89,0.061655
947,1.41,6,0,0.00058823,5867.2,0.00020029,82.206,0.00019021,6.468,-0.00058558,-5822.5,0.0071806
948,0.94,6,0.05,0.0006462,110.18,8.4659e-06,63.61,2.0629e-14,-1.3493e-14,-8.4659e-06,-63.61,0.0024691
949,2.35,6,0,0.00044157,4398.1,0.00015506,8.2793,0.00012914,-186.43,-0.00044282,-4483.9,0.023597
950,1.88,6,0.05,0.00053026,152.76,1.1738e-05,88.194,-2.4898e-21,-1.8707e-14,-1.1738e-05,-88.194,0.014211
951,2.82,6,0.05,0.00035289,141.86,1.09e-05,81.902,-2.3121e-21,2.1555e-06,-1.09e-05,-81.902,0.034895
952,3.9267,4.25,0.1,0.0010816,9987,0.00098442,9778.4,-0.00021065,799.17,-0.00044714,-977.73,0.088766
953,3.8433,4,0.1,0.001782,16169,0.0016698,17739,-0.00041081,2106.1,-0.00054696,1083.1,0.086841
954,3.9267,4.75,0.1,0.00060178,5584.8,0.00043772,3171.8,-3.4728e-05,-377.98,-0.00041904,-3265.6,0.082633
955,3.9267,5.25,0.1,0.00036109,3060.3,0.00024013,1807.1,-9.8842e-06,-71.431,-0.00022986,-1724.2,0.077032
956,3.9267,5.75,0.1,0.00012428,675.58,6.7431e-05,689.76,-1.2291e-05,90.762,-3.0032e-05,-42.537,0.0722
957,3.76,5.25,0.1,0.00032987,3202.5,0.0002906,2659.2,-3.3015e-05,227.69,-0.00019234,-969.46,0.068456
958,3.76,5.75,0.1,0.00015689,1157.6,0.00010411,927.85,-1.401e-05,40.311,-7.0142e-05,-381.45,0.063827
959,3.76,4.75,0.1,0.00070732,6714.7,0.00047496,3099.5,1.5665e-05,-351.42,-0.00055495,-4638.8,0.073553
960,3.76,4.25,0.1,0.0015388,11257,0.0010757,10111,-0.00024564,183.1,-0.00055191,-2118.1,0.079706
961,3.9267,1.75,0.1,0.0011294,9975.8,0.00095418,9249,-0.00015006,952.18,-0.00051896,-1819.6,0.088021
962,3.8433,2,0.1,0.0020031,17774,0.0018596,20221,-0.00041668,3117.6,-0.00058614,1844.4,0.086267
963,3.9267,1.25,0.1,0.00053245,5159.2,0.0003799,2545.7,-9.3224e-06,-378.8,-0.00041292,-3411.3,0.081421
964,3.9267,0.75,0.1,0.00031239,2921.5,0.00024138,1973,-1.3359e-05,58.977,-0.00020617,-1389.7,0.075446
965,3.9267,0.25,0.1,0.00012337,721.27,7.0274e-05,684.94,-1.5135e-05,43.206,-3.362e-05,-95.679,0.070138
966,3.76,0.75,0.1,0.00042625,4146.8,0.00034633,2811.1,-3.0503e-05,-20.28,-0.00028718,-1948.8,0.068612
967,3.76,0.25,0.1,0.00016267,1074.3,9.8858e-05,916.44,-1.2726e-05,78.047,-6.2319e-05,-294.58,0.063933
968,3.76,1.25,0.1,0.00079465,7617.7,0.00069219,6171.8,-0.00011249,125.77,-0.00044654,-2384.2,0.074078
969,3.76,1.75,0.1,0.0016799,15858,0.0016209,16914,-0.00041358,1627.3,-0.00055812,541.19,0.079525
970,4.4843,6,0.1,0.00019576,1938.3,0.00019277,1904,-6.2071e-05,-10.813,-6.8231e-05,-57.102,0.1124
971,5.5994,6,0.1,0.00038428,3812.6,0.00038011,3770.9,-0.00012658,-36.157,-0.00012806,-47.293,0.20185
972,6.7146,6,0.1,0.00040925,4060.9,0.00040984,4164.7,-0.0001239,154.4,-0.00013712,55.023,0.30104
973,7.8298,6,0.1,0.00038021,3785.9,0.00038238,3891.4,-0.00011506,153.85,-0.00012768,58.962,0.41044
974,8.945,6,0.1,0.00037135,3710,0.00037012,3677.4,-0.00011951,-1.5045,-0.00012769,-62.953,0.52931
975,10.06,6,0.1,0.00033652,3362.4,0.00033672,3369.9,-0.00010968,15.735,-0.00011188,-0.72999,0.65731
976,11.175,6,0.1,0.00030645,3062,0.00030609,3052.6,-0.00010102,-6.2872,-0.00010185,-12.482,0.79368
977,12.291,6,0.1,0.00027519,2749.7,0.00027526,2752.6,-9.0639e-05,3.3919,-9.077e-05,2.4072,0.93764
978,13.406,6,0.1,0.00024597,2457.6,0.00024582,2454.4,-8.1054e-05,-1.599,-8.1478e-05,-4.782,1.0884
979,14.521,6,0.1,0.00021742,2171.3,0.00021724,2170.2,-7.1129e-05,3.5118,-7.2349e-05,-5.6597,1.2453
980,15.636,6,0.1,0.00019006,1899,0.00018988,1894.4,-6.213e-05,0.90364,-6.3608e-05,-10.199,1.4075
981,16.751,6,0.1,0.00016269,1625.6,0.00016231,1615,-5.3475e-05,-6.3138,-5.4606e-05,-14.813,1.5744
982,17.866,6,0.1,0.00013471,1345.9,0.0001346,1343.4,-4.4183e-05,0.11777,-4.4877e-05,-5.0976,1.7454
983,18.982,6,0.1,0.00010905,1089.6,0.00010875,1081.4,-3.4879e-05,2.2481,-3.7622e-05,-18.361,1.9196
984,20.097,6,0.1,8.3813e-05,837.33,8.3509e-05,829.26,-2.6899e-05,-0.3034,-2.8938e-05,-15.627,2.0965
985,21.212,6,0.1,5.8994e-05,589.18,5.8687e-05,581.47,-1.8726e-05,-0.17854,-2.0693e-05,-14.957,2.2754
986,22.327,6,0.1,3.4553e-05,344.67,3.4217e-05,337.04,-1.069e-05,-0.37524,-1.2565e-05,-14.464,2.4557
987,23.442,6,0.1,1.2599e-05,117.85,1.1494e-05,110.47,-3.091e-06,0.88262,-5.0974e-06,-14.193,2.6368
988,24,5.4,0.1,8.6545e-06,76.979,3.0329e-06,4.0147,2.0579e-06,-3.3115,-7.6651e-06,-76.366,2.7277
989,24,4.2,0.1,1.6495e-05,164.62,5.8576e-06,3.1871,5.0088e-06,-3.1906,-1.6465e-05,-164.53,2.7279
990,24,3,0.1,1.8533e-05,184.75,6.5097e-06,3.0879,5.6865e-06,-3.0976,-1.848e-05,-184.67,2.7277
991,24,1.8,0.1,1.6487e-05,164.57,5.8463e-06,3.0099,5.0074e-06,-3.2932,-1.6464e-05,-164.62,2.7269
992,24,0.6,0.1,8.9358e-06,77.506,3.0519e-06,3.9465,2.066e-06,-3.4607,-7.7211e-06,-76.997,2.7257
993,0,1.8,0.1,0.00038572,3824.6,0.00051011,7571.3,9.3265e-06,3808.7,-6.7789e-06,3687.7,0
994,0,0.6,0.1,0.00027051,2491.6,0.00033028,4871.3,1.7824e-06,2403.1,-4.3646e-06,2357,0
995,0,3,0.1,0.00038485,3832.5,0.00051106,7584.3,9.5475e-06,3816.1,-7.1596e-06,3690.6,0
996,0,4.2,0.1,0.00038659,3830.6,0.00051079,7577,2.3072e-06,3756.5,-3.5539e-07,3736.5,0
997,0,5.4,0.1,0.00027145,2517.7,0.00033331,4910.2,2.0194e-06,2421,-5.4356e-06,2365,0
998,23.442,0,0.1,1.2882e-05,118.89,1.1565e-05,110.73,-3.0785e-06,0.70081,-5.2188e-06,-15.381,2.6343
999,22.327,0,0.1,3.454e-05,344.48,3.42e-05,336.9,-1.0697e-05,-0.44029,-1.2542e-05,-14.3,2.4532
1000,21.212,0,0.1,5.9042e-05,589.61,5.8727e-05,581.8,-1.8763e-05,-0.43124,-2.0691e-05,-14.92,2.2729
1001,20.097,0,0.1,8.3867e-05,837.78,8.3556e-05,829.78,-2.6912e-05,-0.24189,-2.8949e-05,-15.548,2.094
1002,18.982,0,0.1,0.00010924,1091.3,0.00010894,1083.6,-3.5211e-05,0.51549,-3.7377e-05,-15.758,1.9171
1003,17.866,0,0.1,0.00013536,1352.5,0.00013534,1352.6,-4.3639e-05,7.7868,-4.567e-05,-7.4704,1.7429
1004,16.751,0,0.1,0.00016322,1631,0.00016306,1626.6,-5.3378e-05,0.33705,-5.4641e-05,-9.1525,1.572
1005,15.636,0,0.1,0.00018927,1890.8,0.00018907,1886.7,-6.2003e-05,0.1934,-6.3161e-05,-8.5143,1.4051
1006,14.521,0,0.1,0.00021582,2156.4,0.0002158,2156.8,-7.1022e-05,1.6921,-7.1373e-05,-0.94842,1.2429
1007,13.406,0,0.1,0.00024601,2458.1,0.00024578,2452.3,-8.0326e-05,2.0316,-8.2417e-05,-13.682,1.086
1008,12.291,0,0.1,0.00027632,2761,0.0002761,2755.6,-9.043e-05,1.5583,-9.2289e-05,-12.408,0.9352
1009,11.175,0,0.1,0.00030686,3066,0.00030648,3056.4,-0.00010045,-1.1648,-0.00010269,-18,0.79124
1010,10.06,0,0.1,0.00033582,3355.3,0.00033612,3366,-0.00010942,18.387,-0.00011144,3.1807,0.65489
1011,8.945,0,0.1,0.00037309,3727.6,0.00037182,3692.5,-0.00012268,-22.995,-0.00012589,-47.052,0.52691
1012,7.8298,0,0.1,0.00036633,3640.6,0.00036837,3771.5,-9.936e-05,257.17,-0.00013137,16.637,0.40804
1013,6.7146,0,0.1,0.00039942,3970.1,0.00039801,3996.2,-0.00011947,108.09,-0.00014064,-50.997,0.29867
1014,5.5994,0,0.1,0.00039714,3909.5,0.00038868,3835.1,-0.0001298,-60.568,-0.00013345,-87.99,0.19959
1015,4.4843,0,0.1,0.00020288,1995.6,0.00019938,1987.1,-6.2788e-05,17.32,-6.9523e-05,-33.285,0.11004
1016,3.29,0,0.1,0.00022746,1890.2,0.00018633,1810.3,-5.9167e-05,-34.26,-7.0901e-05,-122.42,0.047994
1017,2.35,0,0.1,0.00046733,4640.8,0.00045982,4526.8,-0.00013229,77.94,-0.00018054,-284.61,0.023676
1018,1.41,0,0.1,0.00059119,5895.3,0.00058603,5781,-0.00019448,-83.434,-0.00020262,-144.6,0.0071451
1019,0.47,0,0.1,0.00039568,3836.8,0.00039499,4162.4,-0.00011084,361.83,-0.00012035,290.38,0.00037399
1020,0.47,6,0.1,0.00040208,3913.2,0.00040417,4283.9,-0.00011174,407.52,-0.00012143,334.73,0.00038716
1021,1.41,6,0.1,0.00058823,5867.2,0.00058558,5822.5,-0.00019021,-6.468,-0.00020029,-82.206,0.0071806
1022,2.35,6,0.1,0.00044157,4398.1,0.00044282,4483.9,-0.00012914,186.43,-0.00015506,-8.2793,0.023597
1023,3.29,6,0.1,0.00020096,1872.6,0.00018504,1804.7,-6.0289e-05,-38.547,-6.7917e-05,-95.857,0.047813
